##TITLE=2-Propanol, 2-methyl-1,1,1-trichloro-, dihydrate
##JCAMP-DX=4.24
##DATA TYPE=INFRARED SPECTRUM
##CLASS=COBLENTZ III
##ORIGIN=WYANDOTTE CHEMICALS CORP.
##OWNER=Copyright (C) 1987 by the Coblentz Society
Collection (C) 2018 copyright by the U.S. Secretary of Commerce
on behalf of the United States of America. All rights reserved.
##DATE=Not specified, most likely prior to 1970
##MOLFORM=C4 H7 Cl3 O  * 2 H2 O
##MP=76-78 C
##SOURCE REFERENCE=COBLENTZ NO. 5933
##$NIST ID=B6005933
##$NIST SOURCE=COBLENTZ
##$NIST IMAGE=cob5933
##SPECTROMETER/DATA SYSTEM=BAIRD (GRATING)
##INSTRUMENT PARAMETERS=NaCl PRISM
##STATE=SOLUTION (CCl4 FOR 2-10.6, CS2 FOR 9.6-16 MICRON) VS SOLVENT
##PATH LENGTH=0.01 CM, AND 0.01 CM , REFERENCE CELLS : 0.005 CM
$$SPECTRAL CONTAMINATION DUE TO CCl4 AROUND 1560 CM^-^1
##RESOLUTION=2
##XUNITS=1/CM
##YUNITS=TRANSMITTANCE
##XFACTOR=1.0
##YFACTOR=1
##FIRSTX=626
##LASTX=4000
##FIRSTY=0.7969
##MAXX=4000
##MINX=626
##MAXY=0.9584
##MINY=0.0349
##NPOINTS=3375
##XYDATA=(X++(Y..Y))
626.000000 0.7969 0.7974 0.7985 0.7994 0.8008
631.000000 0.8021 0.8032 0.8045 0.8057 0.8071
636.000000 0.8089 0.8109 0.8128 0.8147 0.8166
641.000000 0.8182 0.8198 0.8214 0.8231 0.8253
646.000000 0.8275 0.8297 0.8318 0.8339 0.8361
651.000000 0.8382 0.8403 0.8429 0.8458 0.8487
656.000000 0.8516 0.8544 0.8573 0.8601 0.8609
661.000000 0.8614 0.8621 0.8627 0.8636 0.8645
666.000000 0.8654 0.8673 0.8693 0.8713 0.8729
671.000000 0.8742 0.8755 0.8767 0.8780 0.8793
676.000000 0.8804 0.8814 0.8825 0.8835 0.8846
681.000000 0.8855 0.8866 0.8877 0.8888 0.8899
686.000000 0.8910 0.8921 0.8926 0.8927 0.8928
691.000000 0.8929 0.8929 0.8925 0.8922 0.8918
696.000000 0.8887 0.8910 0.8907 0.8904 0.8901
701.000000 0.8897 0.8894 0.8891 0.8888 0.8885
706.000000 0.8881 0.8877 0.8874 0.8870 0.8866
711.000000 0.8862 0.8859 0.8853 0.8848 0.8842
716.000000 0.8836 0.8831 0.8825 0.8820 0.8815
721.000000 0.8803 0.8792 0.8780 0.8769 0.8757
726.000000 0.8746 0.8726 0.8698 0.8670 0.8641
731.000000 0.8609 0.8557 0.8506 0.8454 0.8403
736.000000 0.8338 0.8268 0.8199 0.8129 0.8060
741.000000 0.7992 0.7925 0.7854 0.7781 0.7708
746.000000 0.7635 0.7562 0.7496 0.7432 0.7368
751.000000 0.7304 0.7242 0.7190 0.7137 0.7085
756.000000 0.7032 0.6981 0.6920 0.6852 0.6785
761.000000 0.6717 0.6644 0.6550 0.6458 0.6365
766.000000 0.6242 0.6110 0.5967 0.5801 0.5633
771.000000 0.5365 0.5094 0.4858 0.4447 0.3950
776.000000 0.3452 0.2956 0.2461 0.2022 0.1497
781.000000 0.1068 0.0718 0.0497 0.0420 0.0402
786.000000 0.0394 0.0416 0.0425 0.0438 0.0452
791.000000 0.0467 0.0478 0.0488 0.0498 0.0506
796.000000 0.0514 0.0523 0.0565 0.0661 0.0942
801.000000 0.1304 0.1666 0.2027 0.2387 0.2747
806.000000 0.3105 0.3451 0.3635 0.3742 0.3790
811.000000 0.3802 0.3791 0.3701 0.3564 0.3322
816.000000 0.2983 0.2527 0.2221 0.1745 0.1292
821.000000 0.0810 0.0523 0.0383 0.0349 0.0360
826.000000 0.0375 0.0452 0.0691 0.1103 0.1512
831.000000 0.1921 0.2329 0.2736 0.3272 0.3506
836.000000 0.3638 0.3763 0.3857 0.3952 0.4072
841.000000 0.4194 0.4338 0.4514 0.4734 0.4990
846.000000 0.5205 0.5407 0.5620 0.5850 0.6095
851.000000 0.6385 0.6720 0.6942 0.7077 0.7207
856.000000 0.7318 0.7424 0.7503 0.7581 0.7655
861.000000 0.7710 0.7765 0.7805 0.7838 0.7867
866.000000 0.7889 0.7908 0.7914 0.7920 0.7924
871.000000 0.7924 0.7924 0.7937 0.7924 0.7925
876.000000 0.7929 0.7931 0.7936 0.7942 0.7949
881.000000 0.7955 0.7955 0.7952 0.7949 0.7945
886.000000 0.7936 0.7925 0.7914 0.7886 0.7848
891.000000 0.7806 0.7741 0.7649 0.7555 0.7437
896.000000 0.7287 0.7111 0.6910 0.6673 0.6366
901.000000 0.5947 0.5465 0.4985 0.4505 0.4027
906.000000 0.3549 0.3073 0.2770 0.2650 0.2605
911.000000 0.2597 0.3054 0.3671 0.4287 0.4902
916.000000 0.5515 0.6096 0.6385 0.6739 0.7062
921.000000 0.7335 0.7584 0.7832 0.7999 0.8132
926.000000 0.8220 0.8298 0.8352 0.8386 0.8406
931.000000 0.8401 0.8387 0.8367 0.8347 0.8345
936.000000 0.8352 0.8387 0.8426 0.8481 0.8545
941.000000 0.8606 0.8637 0.8647 0.8643 0.8648
946.000000 0.8043 0.7986 0.7994 0.7970 0.7973
951.000000 0.7947 0.7905 0.7849 0.7781 0.7708
956.000000 0.7609 0.7489 0.7343 0.7213 0.7087
961.000000 0.6968 0.6844 0.6709 0.6547 0.6370
966.000000 0.6192 0.5854 0.5465 0.5145 0.4957
971.000000 0.4575 0.4145 0.3716 0.3289 0.2861
976.000000 0.2435 0.2056 0.1906 0.1823 0.1823
981.000000 0.1846 0.1922 0.2222 0.2559 0.2894
986.000000 0.3230 0.3565 0.3898 0.4232 0.4564
991.000000 0.4896 0.5227 0.5554 0.5691 0.5715
996.000000 0.5693 0.5645 0.5458 0.5222 0.4986
1001.000000 0.4750 0.4514 0.4280 0.4085 0.4077
1006.000000 0.4077 0.4221 0.4503 0.4785 0.5066
1011.000000 0.5347 0.5599 0.5808 0.5979 0.6150
1016.000000 0.6319 0.6489 0.6647 0.6772 0.6870
1021.000000 0.6938 0.7007 0.7083 0.7164 0.7245
1026.000000 0.7322 0.7398 0.7475 0.7579 0.7684
1031.000000 0.7768 0.7840 0.7910 0.7954 0.7998
1036.000000 0.8037 0.8067 0.8097 0.8119 0.8137
1041.000000 0.8152 0.8164 0.8177 0.8188 0.8197
1046.000000 0.8207 0.8216 0.8214 0.8210 0.8208
1051.000000 0.8204 0.8198 0.8189 0.8175 0.8163
1056.000000 0.8148 0.8135 0.8120 0.8107 0.8092
1061.000000 0.8079 0.8067 0.8054 0.8041 0.8029
1066.000000 0.8014 0.7998 0.7981 0.7965 0.7949
1071.000000 0.7933 0.7915 0.7898 0.7881 0.7864
1076.000000 0.7844 0.7825 0.7805 0.7781 0.7752
1081.000000 0.7722 0.7692 0.7662 0.7625 0.7585
1086.000000 0.7546 0.7505 0.7455 0.7401 0.7348
1091.000000 0.7289 0.7224 0.7158 0.7089 0.7014
1096.000000 0.6938 0.6859 0.6752 0.6644 0.6536
1101.000000 0.6428 0.6318 0.6177 0.6023 0.5853
1106.000000 0.5609 0.5220 0.4926 0.4682 0.4388
1111.000000 0.3873 0.3335 0.2798 0.2261 0.1726
1116.000000 0.1222 0.1055 0.0949 0.0841 0.0795
1121.000000 0.0795 0.0797 0.0898 0.1036 0.1179
1126.000000 0.1320 0.1460 0.1601 0.1743 0.1814
1131.000000 0.1844 0.1863 0.1881 0.1900 0.1921
1136.000000 0.1946 0.1989 0.2035 0.2105 0.2176
1141.000000 0.2241 0.2305 0.2369 0.2473 0.2616
1146.000000 0.2759 0.2902 0.3045 0.3187 0.3330
1151.000000 0.3472 0.3613 0.3755 0.3866 0.3954
1156.000000 0.4038 0.4080 0.4099 0.4103 0.4103
1161.000000 0.4135 0.4092 0.4082 0.4063 0.4027
1166.000000 0.3957 0.3819 0.3591 0.3362 0.3134
1171.000000 0.2904 0.2677 0.2449 0.2222 0.1995
1176.000000 0.1769 0.1539 0.1337 0.1171 0.1025
1181.000000 0.0929 0.0858 0.0827 0.0814 0.0811
1186.000000 0.0813 0.0813 0.0833 0.0817 0.0821
1191.000000 0.0824 0.0832 0.0840 0.0848 0.0857
1196.000000 0.0866 0.0875 0.0886 0.0902 0.0948
1201.000000 0.0997 0.1046 0.1108 0.1193 0.1373
1206.000000 0.1632 0.1891 0.2150 0.2407 0.2665
1211.000000 0.2922 0.3179 0.3435 0.3690 0.3946
1216.000000 0.4200 0.4622 0.4854 0.5005 0.5138
1221.000000 0.5251 0.5362 0.5475 0.5590 0.5703
1226.000000 0.5843 0.6020 0.6207 0.6385 0.6531
1231.000000 0.6665 0.6770 0.6873 0.6958 0.7023
1236.000000 0.7087 0.7151 0.7199 0.7242 0.7286
1241.000000 0.7325 0.7346 0.7364 0.7382 0.7392
1246.000000 0.7398 0.7404 0.7409 0.7413 0.7415
1251.000000 0.7416 0.7418 0.7418 0.7420 0.7421
1256.000000 0.7423 0.7425 0.7427 0.7431 0.7432
1261.000000 0.7434 0.7437 0.7440 0.7444 0.7448
1266.000000 0.7452 0.7456 0.7460 0.7472 0.7495
1271.000000 0.7519 0.7564 0.7643 0.7702 0.7745
1276.000000 0.7783 0.7822 0.7862 0.7899 0.7926
1281.000000 0.7953 0.7972 0.7984 0.7997 0.8009
1286.000000 0.8014 0.8019 0.8024 0.8026 0.8027
1291.000000 0.8028 0.8027 0.8017 0.8022 0.8015
1296.000000 0.8001 0.7987 0.7969 0.7947 0.7926
1301.000000 0.7903 0.7874 0.7839 0.7789 0.7733
1306.000000 0.7670 0.7599 0.7527 0.7453 0.7343
1311.000000 0.7234 0.7146 0.7059 0.6969 0.6876
1316.000000 0.6762 0.6645 0.6424 0.6135 0.5950
1321.000000 0.5698 0.5354 0.4996 0.4639 0.4282
1326.000000 0.3926 0.3571 0.3215 0.2861 0.2506
1331.000000 0.2153 0.1800 0.1447 0.1095 0.0938
1336.000000 0.0922 0.0923 0.0918 0.1027 0.1223
1341.000000 0.1423 0.1623 0.1823 0.2021 0.2221
1346.000000 0.2419 0.2618 0.2816 0.3013 0.3136
1351.000000 0.3236 0.3329 0.3424 0.3519 0.3602
1356.000000 0.3679 0.3732 0.3769 0.3788 0.3794
1361.000000 0.3800 0.3803 0.3791 0.3777 0.3751
1366.000000 0.3693 0.3607 0.3382 0.3000 0.2658
1371.000000 0.2316 0.1973 0.1632 0.1291 0.1105
1376.000000 0.1103 0.1191 0.1373 0.1553 0.1734
1381.000000 0.1916 0.2096 0.2276 0.2456 0.2636
1386.000000 0.2716 0.2681 0.2655 0.2576 0.2492
1391.000000 0.2408 0.2325 0.2306 0.2302 0.2817
1396.000000 0.3189 0.3560 0.3930 0.4299 0.4668
1401.000000 0.5037 0.5405 0.5773 0.6140 0.6399
1406.000000 0.6465 0.6498 0.6530 0.6562 0.6600
1411.000000 0.6639 0.6677 0.6722 0.6784 0.6849
1416.000000 0.6915 0.6979 0.7034 0.7087 0.7139
1421.000000 0.7193 0.7238 0.7279 0.7316 0.7335
1426.000000 0.7348 0.7360 0.7361 0.7363 0.7361
1431.000000 0.7353 0.7339 0.7327 0.7315 0.7303
1436.000000 0.7290 0.7261 0.7207 0.7134 0.7037
1441.000000 0.6935 0.6832 0.6730 0.6628 0.6526
1446.000000 0.6425 0.6341 0.6332 0.6357 0.6319
1451.000000 0.6415 0.6435 0.6430 0.6427 0.6422
1456.000000 0.6419 0.6430 0.6170 0.5846 0.5522
1461.000000 0.5200 0.4877 0.4554 0.4233 0.3911
1466.000000 0.3591 0.3264 0.3157 0.3139 0.3146
1471.000000 0.3145 0.3166 0.3215 0.3416 0.3782
1476.000000 0.4155 0.4527 0.4899 0.5270 0.5641
1481.000000 0.6011 0.6381 0.6750 0.7035 0.7130
1486.000000 0.7212 0.7286 0.7355 0.7423 0.7476
1491.000000 0.7525 0.7574 0.7622 0.7673 0.7748
1496.000000 0.7833 0.7920 0.8007 0.8099 0.8186
1501.000000 0.8230 0.8249 0.8254 0.8255 0.8256
1506.000000 0.8258 0.8251 0.8244 0.8238 0.8229
1511.000000 0.8216 0.8201 0.8185 0.8168 0.8146
1516.000000 0.8123 0.8101 0.8078 0.8054 0.8024
1521.000000 0.7995 0.7968 0.7945 0.7923 0.7901
1526.000000 0.7878 0.7856 0.7834 0.7814 0.7794
1531.000000 0.7774 0.7755 0.7735 0.7716 0.7701
1536.000000 0.7686 0.7673 0.7659 0.7645 0.7624
1541.000000 0.7596 0.7568 0.7539 0.7503 0.7464
1546.000000 0.7425 0.7391 0.7362 0.7334 0.7306
1551.000000 0.7278 0.7255 0.7243 0.7231 0.7220
1556.000000 0.7213 0.7214 0.7216 0.7227 0.7229
1561.000000 0.7236 0.7243 0.7251 0.7260 0.7280
1566.000000 0.7311 0.7350 0.7393 0.7431 0.7468
1571.000000 0.7504 0.7535 0.7561 0.7587 0.7613
1576.000000 0.7639 0.7664 0.7684 0.7702 0.7719
1581.000000 0.7736 0.7752 0.7769 0.7786 0.7803
1586.000000 0.7826 0.7851 0.7876 0.7898 0.7910
1591.000000 0.7918 0.7925 0.7931 0.7935 0.7940
1596.000000 0.7945 0.7951 0.7958 0.7966 0.7975
1601.000000 0.7985 0.7995 0.8005 0.8017 0.8029
1606.000000 0.8042 0.8055 0.8068 0.8081 0.8094
1611.000000 0.8108 0.8121 0.8134 0.8147 0.8162
1616.000000 0.8180 0.8197 0.8215 0.8233 0.8251
1621.000000 0.8268 0.8284 0.8299 0.8313 0.8328
1626.000000 0.8343 0.8358 0.8373 0.8388 0.8403
1631.000000 0.8419 0.8436 0.8454 0.8471 0.8489
1636.000000 0.8505 0.8527 0.8551 0.8575 0.8599
1641.000000 0.8625 0.8652 0.8680 0.8708 0.8737
1646.000000 0.8763 0.8789 0.8814 0.8838 0.8853
1651.000000 0.8868 0.8882 0.8896 0.8909 0.8921
1656.000000 0.8933 0.8944 0.8955 0.8966 0.8972
1661.000000 0.8976 0.8980 0.8983 0.8987 0.8990
1666.000000 0.8994 0.8998 0.9001 0.9002 0.9003
1671.000000 0.9004 0.9014 0.9025 0.9036 0.9048
1676.000000 0.9062 0.9081 0.9100 0.9117 0.9131
1681.000000 0.9145 0.9159 0.9172 0.9187 0.9199
1686.000000 0.9210 0.9218 0.9228 0.9237 0.9246
1691.000000 0.9255 0.9263 0.9269 0.9275 0.9280
1696.000000 0.9286 0.9291 0.9297 0.9303 0.9310
1701.000000 0.9318 0.9328 0.9339 0.9350 0.9360
1706.000000 0.9370 0.9379 0.9389 0.9399 0.9409
1711.000000 0.9416 0.9422 0.9427 0.9432 0.9437
1716.000000 0.9442 0.9443 0.9444 0.9445 0.9445
1721.000000 0.9445 0.9445 0.9445 0.9445 0.9451
1726.000000 0.9460 0.9469 0.9479 0.9488 0.9496
1731.000000 0.9503 0.9509 0.9512 0.9513 0.9514
1736.000000 0.9514 0.9514 0.9515 0.9516 0.9516
1741.000000 0.9517 0.9517 0.9518 0.9519 0.9520
1746.000000 0.9521 0.9521 0.9522 0.9523 0.9524
1751.000000 0.9525 0.9526 0.9527 0.9529 0.9530
1756.000000 0.9532 0.9534 0.9535 0.9537 0.9539
1761.000000 0.9540 0.9542 0.9543 0.9545 0.9547
1766.000000 0.9549 0.9549 0.9549 0.9548 0.9546
1771.000000 0.9545 0.9544 0.9543 0.9542 0.9541
1776.000000 0.9540 0.9538 0.9538 0.9536 0.9535
1781.000000 0.9534 0.9531 0.9530 0.9528 0.9525
1786.000000 0.9523 0.9521 0.9519 0.9517 0.9515
1791.000000 0.9513 0.9511 0.9508 0.9506 0.9504
1796.000000 0.9504 0.9504 0.9503 0.9503 0.9503
1801.000000 0.9503 0.9502 0.9502 0.9501 0.9501
1806.000000 0.9501 0.9500 0.9500 0.9500 0.9500
1811.000000 0.9500 0.9501 0.9502 0.9502 0.9503
1816.000000 0.9504 0.9505 0.9505 0.9506 0.9507
1821.000000 0.9508 0.9508 0.9509 0.9510 0.9511
1826.000000 0.9512 0.9513 0.9514 0.9515 0.9515
1831.000000 0.9516 0.9517 0.9518 0.9518 0.9519
1836.000000 0.9520 0.9522 0.9522 0.9523 0.9524
1841.000000 0.9525 0.9525 0.9525 0.9525 0.9525
1846.000000 0.9524 0.9523 0.9523 0.9523 0.9522
1851.000000 0.9521 0.9520 0.9520 0.9518 0.9517
1856.000000 0.9514 0.9512 0.9511 0.9509 0.9507
1861.000000 0.9505 0.9503 0.9501 0.9500 0.9499
1866.000000 0.9498 0.9498 0.9497 0.9496 0.9495
1871.000000 0.9495 0.9494 0.9493 0.9493 0.9492
1876.000000 0.9491 0.9490 0.9490 0.9489 0.9489
1881.000000 0.9489 0.9490 0.9491 0.9492 0.9495
1886.000000 0.9499 0.9503 0.9508 0.9511 0.9515
1891.000000 0.9520 0.9525 0.9530 0.9535 0.9540
1896.000000 0.9545 0.9549 0.9554 0.9559 0.9563
1901.000000 0.9568 0.9571 0.9573 0.9573 0.9575
1906.000000 0.9576 0.9578 0.9579 0.9580 0.9580
1911.000000 0.9580 0.9581 0.9582 0.9582 0.9583
1916.000000 0.9584 0.9584 0.9584 0.9584 0.9584
1921.000000 0.9583 0.9583 0.9583 0.9583 0.9583
1926.000000 0.9583 0.9582 0.9581 0.9581 0.9580
1931.000000 0.9579 0.9578 0.9578 0.9577 0.9576
1936.000000 0.9576 0.9575 0.9574 0.9574 0.9573
1941.000000 0.9572 0.9572 0.9571 0.9571 0.9570
1946.000000 0.9569 0.9569 0.9568 0.9567 0.9567
1951.000000 0.9565 0.9564 0.9564 0.9562 0.9561
1956.000000 0.9560 0.9559 0.9558 0.9557 0.9556
1961.000000 0.9555 0.9554 0.9553 0.9552 0.9551
1966.000000 0.9550 0.9549 0.9548 0.9547 0.9547
1971.000000 0.9545 0.9544 0.9544 0.9542 0.9541
1976.000000 0.9541 0.9540 0.9538 0.9538 0.9537
1981.000000 0.9535 0.9535 0.9534 0.9534 0.9532
1986.000000 0.9531 0.9531 0.9530 0.9528 0.9528
1991.000000 0.9527 0.9527 0.9533 0.9524 0.9524
1996.000000 0.9523 0.9521 0.9521 0.9520 0.9520
2001.000000 0.9518 0.9517 0.9517 0.9516 0.9514
2006.000000 0.9513 0.9512 0.9512 0.9510 0.9509
2011.000000 0.9508 0.9507 0.9505 0.9504 0.9503
2016.000000 0.9503 0.9501 0.9500 0.9499 0.9498
2021.000000 0.9497 0.9495 0.9494 0.9494 0.9493
2026.000000 0.9491 0.9490 0.9490 0.9490 0.9489
2031.000000 0.9489 0.9489 0.9488 0.9488 0.9488
2036.000000 0.9488 0.9488 0.9487 0.9487 0.9487
2041.000000 0.9486 0.9486 0.9486 0.9486 0.9485
2046.000000 0.9485 0.9485 0.9484 0.9484 0.9484
2051.000000 0.9484 0.9484 0.9483 0.9483 0.9483
2056.000000 0.9483 0.9483 0.9484 0.9484 0.9484
2061.000000 0.9484 0.9485 0.9485 0.9485 0.9486
2066.000000 0.9486 0.9486 0.9487 0.9487 0.9487
2071.000000 0.9487 0.9488 0.9488 0.9488 0.9489
2076.000000 0.9489 0.9489 0.9489 0.9489 0.9490
2081.000000 0.9490 0.9490 0.9490 0.9491 0.9491
2086.000000 0.9491 0.9492 0.9492 0.9492 0.9492
2091.000000 0.9493 0.9493 0.9493 0.9494 0.9494
2096.000000 0.9494 0.9494 0.9495 0.9495 0.9495
2101.000000 0.9496 0.9496 0.9497 0.9497 0.9497
2106.000000 0.9497 0.9498 0.9499 0.9499 0.9500
2111.000000 0.9500 0.9501 0.9501 0.9501 0.9501
2116.000000 0.9502 0.9503 0.9503 0.9504 0.9504
2121.000000 0.9505 0.9505 0.9505 0.9505 0.9506
2126.000000 0.9507 0.9507 0.9508 0.9508 0.9509
2131.000000 0.9509 0.9509 0.9509 0.9509 0.9508
2136.000000 0.9508 0.9507 0.9507 0.9506 0.9505
2141.000000 0.9504 0.9504 0.9503 0.9503 0.9502
2146.000000 0.9501 0.9501 0.9500 0.9499 0.9498
2151.000000 0.9498 0.9497 0.9497 0.9496 0.9496
2156.000000 0.9495 0.9494 0.9493 0.9492 0.9492
2161.000000 0.9491 0.9491 0.9490 0.9490 0.9489
2166.000000 0.9488 0.9487 0.9487 0.9486 0.9486
2171.000000 0.9485 0.9485 0.9483 0.9482 0.9481
2176.000000 0.9480 0.9479 0.9478 0.9477 0.9476
2181.000000 0.9475 0.9474 0.9473 0.9472 0.9471
2186.000000 0.9470 0.9470 0.9469 0.9468 0.9467
2191.000000 0.9466 0.9462 0.9457 0.9453 0.9449
2196.000000 0.9445 0.9441 0.9437 0.9433 0.9429
2201.000000 0.9425 0.9422 0.9419 0.9417 0.9416
2206.000000 0.9414 0.9413 0.9411 0.9410 0.9409
2211.000000 0.9408 0.9406 0.9405 0.9403 0.9402
2216.000000 0.9401 0.9399 0.9398 0.9396 0.9395
2221.000000 0.9394 0.9393 0.9391 0.9390 0.9388
2226.000000 0.9387 0.9385 0.9384 0.9383 0.9382
2231.000000 0.9380 0.9379 0.9377 0.9376 0.9375
2236.000000 0.9374 0.9372 0.9371 0.9369 0.9368
2241.000000 0.9367 0.9367 0.9367 0.9367 0.9367
2246.000000 0.9367 0.9368 0.9368 0.9369 0.9369
2251.000000 0.9370 0.9370 0.9371 0.9371 0.9372
2256.000000 0.9372 0.9372 0.9372 0.9373 0.9373
2261.000000 0.9374 0.9374 0.9375 0.9375 0.9376
2266.000000 0.9376 0.9377 0.9377 0.9378 0.9379
2271.000000 0.9380 0.9380 0.9381 0.9381 0.9382
2276.000000 0.9382 0.9383 0.9384 0.9385 0.9385
2281.000000 0.9385 0.9386 0.9386 0.9387 0.9387
2286.000000 0.9388 0.9389 0.9390 0.9390 0.9391
2291.000000 0.9391 0.9392 0.9393 0.9394 0.9394
2296.000000 0.9395 0.9395 0.9396 0.9396 0.9397
2301.000000 0.9398 0.9399 0.9400 0.9401 0.9402
2306.000000 0.9403 0.9405 0.9406 0.9407 0.9408
2311.000000 0.9407 0.9404 0.9400 0.9397 0.9394
2316.000000 0.9390 0.9386 0.9383 0.9379 0.9375
2321.000000 0.9371 0.9368 0.9366 0.9363 0.9361
2326.000000 0.9359 0.9357 0.9355 0.9353 0.9350
2331.000000 0.9349 0.9347 0.9344 0.9342 0.9340
2336.000000 0.9338 0.9336 0.9334 0.9332 0.9329
2341.000000 0.9327 0.9325 0.9324 0.9323 0.9322
2346.000000 0.9321 0.9321 0.9321 0.9321 0.9320
2351.000000 0.9320 0.9320 0.9320 0.9320 0.9319
2356.000000 0.9319 0.9319 0.9319 0.9318 0.9318
2361.000000 0.9318 0.9318 0.9317 0.9317 0.9317
2366.000000 0.9317 0.9317 0.9317 0.9317 0.9318
2371.000000 0.9318 0.9319 0.9319 0.9319 0.9319
2376.000000 0.9319 0.9320 0.9320 0.9321 0.9321
2381.000000 0.9321 0.9321 0.9321 0.9320 0.9320
2386.000000 0.9319 0.9318 0.9317 0.9317 0.9317
2391.000000 0.9316 0.9315 0.9314 0.9314 0.9313
2396.000000 0.9312 0.9310 0.9308 0.9305 0.9303
2401.000000 0.9300 0.9297 0.9295 0.9292 0.9290
2406.000000 0.9287 0.9284 0.9282 0.9279 0.9276
2411.000000 0.9273 0.9270 0.9268 0.9265 0.9263
2416.000000 0.9260 0.9258 0.9256 0.9254 0.9252
2421.000000 0.9250 0.9248 0.9245 0.9243 0.9241
2426.000000 0.9240 0.9239 0.9238 0.9238 0.9238
2431.000000 0.9238 0.9237 0.9237 0.9237 0.9237
2436.000000 0.9237 0.9237 0.9237 0.9237 0.9238
2441.000000 0.9239 0.9240 0.9241 0.9242 0.9243
2446.000000 0.9244 0.9246 0.9247 0.9248 0.9249
2451.000000 0.9250 0.9251 0.9252 0.9253 0.9255
2456.000000 0.9256 0.9257 0.9258 0.9259 0.9261
2461.000000 0.9262 0.9263 0.9264 0.9266 0.9267
2466.000000 0.9268 0.9269 0.9271 0.9272 0.9273
2471.000000 0.9274 0.9276 0.9277 0.9278 0.9279
2476.000000 0.9280 0.9281 0.9282 0.9283 0.9284
2481.000000 0.9286 0.9287 0.9288 0.9289 0.9290
2486.000000 0.9291 0.9292 0.9293 0.9294 0.9295
2491.000000 0.9297 0.9298 0.9299 0.9300 0.9300
2496.000000 0.9301 0.9302 0.9302 0.9302 0.9302
2501.000000 0.9301 0.9301 0.9301 0.9301 0.9301
2506.000000 0.9300 0.9300 0.9299 0.9299 0.9299
2511.000000 0.9299 0.9299 0.9298 0.9298 0.9298
2516.000000 0.9298 0.9298 0.9297 0.9297 0.9297
2521.000000 0.9296 0.9296 0.9296 0.9296 0.9296
2526.000000 0.9295 0.9295 0.9294 0.9294 0.9294
2531.000000 0.9294 0.9294 0.9293 0.9293 0.9293
2536.000000 0.9293 0.9293 0.9293 0.9292 0.9292
2541.000000 0.9291 0.9291 0.9291 0.9291 0.9291
2546.000000 0.9290 0.9290 0.9290 0.9290 0.9290
2551.000000 0.9290 0.9289 0.9289 0.9288 0.9288
2556.000000 0.9288 0.9288 0.9288 0.9287 0.9287
2561.000000 0.9287 0.9287 0.9287 0.9287 0.9286
2566.000000 0.9286 0.9285 0.9285 0.9285 0.9285
2571.000000 0.9285 0.9285 0.9284 0.9284 0.9283
2576.000000 0.9283 0.9283 0.9282 0.9281 0.9279
2581.000000 0.9279 0.9278 0.9277 0.9276 0.9275
2586.000000 0.9274 0.9273 0.9272 0.9271 0.9270
2591.000000 0.9269 0.9269 0.9268 0.9267 0.9266
2596.000000 0.9265 0.9264 0.9263 0.9262 0.9261
2601.000000 0.9260 0.9259 0.9258 0.9258 0.9257
2606.000000 0.9255 0.9254 0.9254 0.9253 0.9252
2611.000000 0.9251 0.9251 0.9250 0.9249 0.9248
2616.000000 0.9246 0.9245 0.9244 0.9243 0.9241
2621.000000 0.9240 0.9238 0.9237 0.9235 0.9234
2626.000000 0.9233 0.9231 0.9230 0.9229 0.9228
2631.000000 0.9226 0.9225 0.9223 0.9222 0.9221
2636.000000 0.9219 0.9218 0.9216 0.9215 0.9213
2641.000000 0.9212 0.9211 0.9210 0.9209 0.9207
2646.000000 0.9206 0.9204 0.9202 0.9201 0.9199
2651.000000 0.9198 0.9196 0.9194 0.9192 0.9191
2656.000000 0.9190 0.9188 0.9186 0.9185 0.9183
2661.000000 0.9181 0.9179 0.9178 0.9176 0.9175
2666.000000 0.9173 0.9171 0.9170 0.9168 0.9167
2671.000000 0.9165 0.9164 0.9162 0.9160 0.9156
2676.000000 0.9153 0.9149 0.9146 0.9142 0.9139
2681.000000 0.9135 0.9132 0.9128 0.9125 0.9121
2686.000000 0.9118 0.9115 0.9111 0.9107 0.9104
2691.000000 0.9100 0.9096 0.9093 0.9089 0.9086
2696.000000 0.9082 0.9078 0.9074 0.9070 0.9066
2701.000000 0.9062 0.9058 0.9054 0.9051 0.9047
2706.000000 0.9043 0.9039 0.9035 0.9031 0.9027
2711.000000 0.9023 0.9021 0.9019 0.9017 0.9016
2716.000000 0.9015 0.9014 0.9013 0.9012 0.9011
2721.000000 0.9010 0.9009 0.9008 0.9007 0.9006
2726.000000 0.9005 0.9004 0.9003 0.9002 0.9001
2731.000000 0.9000 0.8999 0.8998 0.8997 0.8996
2736.000000 0.8995 0.8994 0.8993 0.8992 0.8991
2741.000000 0.8991 0.8990 0.8989 0.8989 0.8988
2746.000000 0.8988 0.8988 0.8987 0.8986 0.8986
2751.000000 0.8985 0.8984 0.8984 0.8983 0.8983
2756.000000 0.8983 0.8982 0.8981 0.8981 0.8980
2761.000000 0.8980 0.8980 0.8979 0.8978 0.8978
2766.000000 0.8977 0.8977 0.8977 0.8975 0.8973
2771.000000 0.8970 0.8967 0.8964 0.8960 0.8956
2776.000000 0.8952 0.8949 0.8945 0.8941 0.8938
2781.000000 0.8934 0.8928 0.8923 0.8917 0.8910
2786.000000 0.8903 0.8896 0.8889 0.8882 0.8875
2791.000000 0.8868 0.8861 0.8854 0.8847 0.8840
2796.000000 0.8832 0.8824 0.8814 0.8805 0.8795
2801.000000 0.8784 0.8773 0.8762 0.8751 0.8740
2806.000000 0.8729 0.8718 0.8706 0.8695 0.8684
2811.000000 0.8673 0.8662 0.8649 0.8637 0.8624
2816.000000 0.8610 0.8597 0.8584 0.8571 0.8558
2821.000000 0.8545 0.8532 0.8519 0.8507 0.8494
2826.000000 0.8481 0.8469 0.8456 0.8444 0.8431
2831.000000 0.8419 0.8406 0.8394 0.8381 0.8369
2836.000000 0.8356 0.8344 0.8332 0.8319 0.8307
2841.000000 0.8294 0.8282 0.8270 0.8257 0.8245
2846.000000 0.8233 0.8220 0.8207 0.8195 0.8182
2851.000000 0.8168 0.8152 0.8136 0.8121 0.8105
2856.000000 0.8089 0.8073 0.8057 0.8042 0.8026
2861.000000 0.8010 0.7995 0.7979 0.7964 0.7948
2866.000000 0.7932 0.7916 0.7900 0.7884 0.7868
2871.000000 0.7850 0.7831 0.7813 0.7794 0.7776
2876.000000 0.7757 0.7738 0.7720 0.7701 0.7683
2881.000000 0.7665 0.7646 0.7628 0.7611 0.7595
2886.000000 0.7579 0.7563 0.7547 0.7530 0.7514
2891.000000 0.7498 0.7483 0.7467 0.7451 0.7435
2896.000000 0.7419 0.7403 0.7392 0.7381 0.7370
2901.000000 0.7359 0.7349 0.7338 0.7327 0.7316
2906.000000 0.7305 0.7294 0.7283 0.7271 0.7260
2911.000000 0.7246 0.7230 0.7215 0.7200 0.7184
2916.000000 0.7169 0.7154 0.7139 0.7124 0.7109
2921.000000 0.7094 0.7078 0.7063 0.7047 0.7029
2926.000000 0.7010 0.6992 0.6973 0.6955 0.6937
2931.000000 0.6918 0.6900 0.6882 0.6863 0.6806
2936.000000 0.6735 0.6663 0.6588 0.6504 0.6421
2941.000000 0.6337 0.6254 0.6170 0.6087 0.6004
2946.000000 0.5920 0.5837 0.5754 0.5703 0.5656
2951.000000 0.5608 0.5574 0.5580 0.5580 0.5580
2956.000000 0.5579 0.5578 0.5578 0.5587 0.5609
2961.000000 0.5631 0.5654 0.5677 0.5701 0.5725
2966.000000 0.5749 0.5773 0.5797 0.5821 0.5844
2971.000000 0.5868 0.5892 0.5911 0.5920 0.5929
2976.000000 0.5939 0.5948 0.5941 0.5941 0.5928
2981.000000 0.5881 0.5833 0.5785 0.5730 0.5672
2986.000000 0.5614 0.5555 0.5497 0.5439 0.5381
2991.000000 0.5322 0.5264 0.5206 0.5148 0.5090
2996.000000 0.5032 0.4974 0.4920 0.4872 0.4824
3001.000000 0.4775 0.4774 0.4784 0.4795 0.4781
3006.000000 0.4915 0.5008 0.5101 0.5194 0.5288
3011.000000 0.5381 0.5474 0.5567 0.5660 0.5753
3016.000000 0.5846 0.5939 0.6031 0.6124 0.6216
3021.000000 0.6309 0.6401 0.6494 0.6586 0.6679
3026.000000 0.6771 0.6863 0.6955 0.7047 0.7139
3031.000000 0.7231 0.7322 0.7414 0.7506 0.7598
3036.000000 0.7690 0.7781 0.7866 0.7938 0.8009
3041.000000 0.8081 0.8126 0.8157 0.8188 0.8219
3046.000000 0.8287 0.8358 0.8428 0.8498 0.8565
3051.000000 0.8631 0.8698 0.8735 0.8741 0.8747
3056.000000 0.8753 0.8758 0.8762 0.8766 0.8771
3061.000000 0.8772 0.8773 0.8775 0.8766 0.8777
3066.000000 0.8778 0.8779 0.8779 0.8779 0.8778
3071.000000 0.8778 0.8777 0.8776 0.8775 0.8774
3076.000000 0.8773 0.8772 0.8771 0.8770 0.8769
3081.000000 0.8767 0.8765 0.8764 0.8762 0.8760
3086.000000 0.8758 0.8757 0.8755 0.8753 0.8752
3091.000000 0.8750 0.8749 0.8747 0.8746 0.8743
3096.000000 0.8740 0.8738 0.8735 0.8732 0.8729
3101.000000 0.8726 0.8723 0.8719 0.8716 0.8712
3106.000000 0.8709 0.8706 0.8703 0.8700 0.8697
3111.000000 0.8695 0.8692 0.8689 0.8687 0.8685
3116.000000 0.8682 0.8680 0.8678 0.8676 0.8674
3121.000000 0.8672 0.8669 0.8667 0.8665 0.8663
3126.000000 0.8659 0.8655 0.8651 0.8647 0.8643
3131.000000 0.8638 0.8633 0.8629 0.8624 0.8620
3136.000000 0.8616 0.8611 0.8607 0.8602 0.8598
3141.000000 0.8593 0.8586 0.8579 0.8573 0.8566
3146.000000 0.8557 0.8549 0.8541 0.8532 0.8524
3151.000000 0.8516 0.8508 0.8500 0.8491 0.8483
3156.000000 0.8474 0.8464 0.8452 0.8440 0.8428
3161.000000 0.8416 0.8404 0.8392 0.8380 0.8368
3166.000000 0.8357 0.8345 0.8333 0.8321 0.8309
3171.000000 0.8297 0.8286 0.8273 0.8260 0.8247
3176.000000 0.8234 0.8220 0.8207 0.8194 0.8180
3181.000000 0.8167 0.8153 0.8140 0.8126 0.8113
3186.000000 0.8099 0.8086 0.8073 0.8060 0.8046
3191.000000 0.8033 0.8020 0.8006 0.7989 0.7972
3196.000000 0.7954 0.7937 0.7920 0.7903 0.7885
3201.000000 0.7868 0.7851 0.7833 0.7816 0.7799
3206.000000 0.7781 0.7764 0.7747 0.7730 0.7712
3211.000000 0.7695 0.7678 0.7661 0.7644 0.7626
3216.000000 0.7609 0.7592 0.7575 0.7558 0.7541
3221.000000 0.7524 0.7507 0.7489 0.7472 0.7455
3226.000000 0.7438 0.7421 0.7404 0.7386 0.7369
3231.000000 0.7349 0.7328 0.7308 0.7288 0.7259
3236.000000 0.7230 0.7200 0.7171 0.7141 0.7112
3241.000000 0.7082 0.7053 0.7023 0.6994 0.6965
3246.000000 0.6935 0.6906 0.6877 0.6848 0.6818
3251.000000 0.6789 0.6759 0.6730 0.6701 0.6672
3256.000000 0.6643 0.6614 0.6585 0.6556 0.6527
3261.000000 0.6497 0.6468 0.6439 0.6410 0.6381
3266.000000 0.6352 0.6323 0.6294 0.6265 0.6236
3271.000000 0.6207 0.6179 0.6150 0.6121 0.6092
3276.000000 0.6063 0.6034 0.6005 0.5977 0.5948
3281.000000 0.5919 0.5890 0.5862 0.5833 0.5805
3286.000000 0.5776 0.5747 0.5719 0.5690 0.5661
3291.000000 0.5633 0.5604 0.5576 0.5547 0.5519
3296.000000 0.5490 0.5462 0.5434 0.5405 0.5377
3301.000000 0.5348 0.5320 0.5274 0.5211 0.5147
3306.000000 0.5083 0.5021 0.4972 0.4922 0.4872
3311.000000 0.4822 0.4791 0.4766 0.4741 0.4717
3316.000000 0.4692 0.4667 0.4643 0.4618 0.4594
3321.000000 0.4568 0.4542 0.4516 0.4490 0.4464
3326.000000 0.4438 0.4412 0.4386 0.4359 0.4330
3331.000000 0.4301 0.4272 0.4242 0.4211 0.4179
3336.000000 0.4147 0.4116 0.4083 0.4050 0.4016
3341.000000 0.3982 0.3949 0.3921 0.3896 0.3871
3346.000000 0.3846 0.3822 0.3804 0.3786 0.3768
3351.000000 0.3749 0.3734 0.3719 0.3704 0.3689
3356.000000 0.3676 0.3666 0.3657 0.3647 0.3638
3361.000000 0.3628 0.3619 0.3609 0.3600 0.3590
3366.000000 0.3581 0.3571 0.3562 0.3552 0.3543
3371.000000 0.3533 0.3524 0.3514 0.3505 0.3497
3376.000000 0.3489 0.3481 0.3473 0.3466 0.3460
3381.000000 0.3453 0.3446 0.3439 0.3433 0.3426
3386.000000 0.3420 0.3413 0.3406 0.3400 0.3393
3391.000000 0.3386 0.3379 0.3374 0.3369 0.3364
3396.000000 0.3358 0.3354 0.3350 0.3347 0.3344
3401.000000 0.3341 0.3338 0.3335 0.3332 0.3329
3406.000000 0.3325 0.3322 0.3319 0.3316 0.3313
3411.000000 0.3310 0.3309 0.3308 0.3307 0.3306
3416.000000 0.3305 0.3305 0.3305 0.3305 0.3304
3421.000000 0.3304 0.3304 0.3303 0.3303 0.3303
3426.000000 0.3302 0.3302 0.3302 0.3302 0.3301
3431.000000 0.3301 0.3301 0.3301 0.3301 0.3301
3436.000000 0.3303 0.3304 0.3305 0.3306 0.3308
3441.000000 0.3309 0.3311 0.3313 0.3314 0.3316
3446.000000 0.3318 0.3319 0.3321 0.3323 0.3325
3451.000000 0.3328 0.3330 0.3332 0.3335 0.3338
3456.000000 0.3341 0.3343 0.3346 0.3349 0.3352
3461.000000 0.3355 0.3359 0.3364 0.3374 0.3383
3466.000000 0.3392 0.3402 0.3411 0.3420 0.3430
3471.000000 0.3439 0.3448 0.3461 0.3474 0.3487
3476.000000 0.3501 0.3514 0.3529 0.3544 0.3560
3481.000000 0.3575 0.3590 0.3609 0.3627 0.3645
3486.000000 0.3663 0.3682 0.3704 0.3727 0.3749
3491.000000 0.3772 0.3808 0.3868 0.3928 0.3988
3496.000000 0.4047 0.4090 0.4114 0.4138 0.4162
3501.000000 0.4187 0.4211 0.4235 0.4259 0.4283
3506.000000 0.4307 0.4330 0.4354 0.4377 0.4400
3511.000000 0.4423 0.4446 0.4469 0.4491 0.4514
3516.000000 0.4537 0.4559 0.4581 0.4603 0.4625
3521.000000 0.4648 0.4669 0.4689 0.4710 0.4731
3526.000000 0.4752 0.4770 0.4788 0.4805 0.4823
3531.000000 0.4841 0.4859 0.4877 0.4895 0.4912
3536.000000 0.4930 0.4948 0.4966 0.4984 0.5001
3541.000000 0.5019 0.5037 0.5055 0.5073 0.5091
3546.000000 0.5109 0.5126 0.5142 0.5159 0.5176
3551.000000 0.5192 0.5203 0.5213 0.5223 0.5234
3556.000000 0.5244 0.5254 0.5264 0.5274 0.5285
3561.000000 0.5295 0.5305 0.5315 0.5325 0.5335
3566.000000 0.5345 0.5352 0.5358 0.5363 0.5369
3571.000000 0.5374 0.5379 0.5384 0.5389 0.5394
3576.000000 0.5399 0.5404 0.5409 0.5414 0.5419
3581.000000 0.5424 0.5429 0.5434 0.5438 0.5443
3586.000000 0.5448 0.5452 0.5457 0.5461 0.5466
3591.000000 0.5470 0.5475 0.5479 0.5483 0.5487
3596.000000 0.5492 0.5496 0.5501 0.5507 0.5512
3601.000000 0.5517 0.5523 0.5562 0.5616 0.5671
3606.000000 0.5725 0.5779 0.5833 0.5887 0.5940
3611.000000 0.5994 0.6047 0.6101 0.6154 0.6207
3616.000000 0.6260 0.6313 0.6366 0.6419 0.6472
3621.000000 0.6525 0.6579 0.6632 0.6685 0.6738
3626.000000 0.6791 0.6844 0.6897 0.6950 0.7002
3631.000000 0.7055 0.7108 0.7161 0.7213 0.7266
3636.000000 0.7318 0.7371 0.7423 0.7476 0.7529
3641.000000 0.7581 0.7634 0.7686 0.7739 0.7791
3646.000000 0.7844 0.7896 0.7948 0.8000 0.8053
3651.000000 0.8105 0.8157 0.8209 0.8262 0.8314
3656.000000 0.8348 0.8382 0.8416 0.8450 0.8484
3661.000000 0.8508 0.8526 0.8544 0.8562 0.8580
3666.000000 0.8596 0.8609 0.8622 0.8635 0.8648
3671.000000 0.8661 0.8673 0.8685 0.8697 0.8710
3676.000000 0.8722 0.8733 0.8744 0.8755 0.8766
3681.000000 0.8777 0.8788 0.8798 0.8809 0.8820
3686.000000 0.8830 0.8841 0.8852 0.8863 0.8874
3691.000000 0.8884 0.8895 0.8906 0.8917 0.8928
3696.000000 0.8938 0.8949 0.8960 0.8971 0.8981
3701.000000 0.8992 0.9002 0.9013 0.9022 0.9027
3706.000000 0.9032 0.9037 0.9042 0.9047 0.9051
3711.000000 0.9055 0.9059 0.9063 0.9068 0.9072
3716.000000 0.9076 0.9080 0.9085 0.9089 0.9093
3721.000000 0.9098 0.9102 0.9106 0.9110 0.9114
3726.000000 0.9118 0.9123 0.9127 0.9131 0.9135
3731.000000 0.9139 0.9144 0.9149 0.9153 0.9158
3736.000000 0.9163 0.9168 0.9173 0.9178 0.9182
3741.000000 0.9187 0.9192 0.9197 0.9202 0.9206
3746.000000 0.9211 0.9216 0.9221 0.9226 0.9230
3751.000000 0.9235 0.9240 0.9245 0.9250 0.9254
3756.000000 0.9258 0.9263 0.9267 0.9272 0.9276
3761.000000 0.9281 0.9285 0.9289 0.9294 0.9298
3766.000000 0.9303 0.9307 0.9311 0.9316 0.9320
3771.000000 0.9324 0.9327 0.9330 0.9333 0.9335
3776.000000 0.9338 0.9341 0.9344 0.9347 0.9349
3781.000000 0.9352 0.9355 0.9357 0.9358 0.9359
3786.000000 0.9360 0.9361 0.9363 0.9364 0.9365
3791.000000 0.9366 0.9367 0.9368 0.9369 0.9370
3796.000000 0.9371 0.9371 0.9372 0.9373 0.9377
3801.000000 0.9374 0.9374 0.9374 0.9374 0.9374
3806.000000 0.9374 0.9374 0.9374 0.9374 0.9374
3811.000000 0.9374 0.9374 0.9374 0.9374 0.9374
3816.000000 0.9374 0.9373 0.9373 0.9373 0.9373
3821.000000 0.9373 0.9373 0.9372 0.9371 0.9370
3826.000000 0.9370 0.9369 0.9368 0.9367 0.9366
3831.000000 0.9366 0.9365 0.9364 0.9364 0.9363
3836.000000 0.9362 0.9362 0.9361 0.9360 0.9360
3841.000000 0.9359 0.9358 0.9357 0.9356 0.9355
3846.000000 0.9354 0.9352 0.9351 0.9350 0.9348
3851.000000 0.9347 0.9346 0.9344 0.9343 0.9342
3856.000000 0.9340 0.9339 0.9338 0.9336 0.9335
3861.000000 0.9334 0.9332 0.9331 0.9329 0.9328
3866.000000 0.9327 0.9325 0.9324 0.9323 0.9321
3871.000000 0.9321 0.9321 0.9320 0.9320 0.9320
3876.000000 0.9319 0.9319 0.9319 0.9319 0.9319
3881.000000 0.9319 0.9318 0.9318 0.9318 0.9318
3886.000000 0.9317 0.9317 0.9317 0.9316 0.9316
3891.000000 0.9316 0.9316 0.9316 0.9316 0.9316
3896.000000 0.9316 0.9316 0.9316 0.9316 0.9316
3901.000000 0.9317 0.9317 0.9317 0.9317 0.9317
3906.000000 0.9317 0.9318 0.9318 0.9318 0.9318
3911.000000 0.9318 0.9318 0.9319 0.9319 0.9319
3916.000000 0.9320 0.9320 0.9320 0.9321 0.9321
3921.000000 0.9321 0.9321 0.9321 0.9321 0.9322
3926.000000 0.9322 0.9322 0.9322 0.9322 0.9322
3931.000000 0.9323 0.9323 0.9323 0.9323 0.9323
3936.000000 0.9323 0.9323 0.9324 0.9324 0.9325
3941.000000 0.9325 0.9326 0.9326 0.9327 0.9327
3946.000000 0.9328 0.9328 0.9329 0.9329 0.9330
3951.000000 0.9330 0.9330 0.9331 0.9331 0.9331
3956.000000 0.9332 0.9332 0.9333 0.9333 0.9334
3961.000000 0.9334 0.9335 0.9335 0.9335 0.9336
3966.000000 0.9336 0.9337 0.9337 0.9338 0.9338
3971.000000 0.9338 0.9339 0.9339 0.9339 0.9340
3976.000000 0.9340 0.9341 0.9341 0.9342 0.9342
3981.000000 0.9343 0.9343 0.9343 0.9344 0.9344
3986.000000 0.9345 0.9345 0.9346 0.9346 0.9347
3991.000000 0.9347 0.9348 0.9348 0.9349 0.9349
3996.000000 0.9349 0.9350 0.9350 0.9350 0.9351
##END=
