##TITLE=LITHIUM OXALATE
##JCAMP-DX=4.24
##DATA TYPE=INFRARED SPECTRUM
##CLASS=COBLENTZ
##OWNER=COBLENTZ SOCIETY
Collection (C) 2018 copyright by the U.S. Secretary of Commerce
on behalf of the United States of America. All rights reserved.
##DATE=Not specified, most likely prior to 1970
##MOLFORM=Li2 C2 O4
##SOURCE REFERENCE=COBLENTZ NO. 56
##$NIST ID=B6000056
##$NIST SOURCE=COBLENTZ
##$NIST IMAGE=cob56
##SPECTROMETER/DATA SYSTEM=Not specified, most likely a prism, grating, or hybrid spectrometer.
##STATE=SOLID (KBr DISC)
##SAMPLING PROCEDURE=TRANSMISSION
##RESOLUTION=4
##DATA PROCESSING=DIGITIZED BY NIST FROM HARD COPY
##XUNITS=MICROMETERS
##YUNITS=TRANSMITTANCE
##XFACTOR=1.000000
##YFACTOR=1
##DELTAX=000.007576
##FIRSTX=2.061
##LASTX=15.7349
##FIRSTY=0.752
##MAXX=15.7349
##MINX=2.061
##MAXY=0.985
##MINY=0.058
##NPOINTS=1806
##XYDATA=(X++(Y..Y))
2.061000 0.7520 0.7520 0.7540 0.7550 0.7580
2.098900 0.7600 0.7610 0.7610 0.7630 0.7640
2.136000 0.7640 0.7670 0.7690 0.7720 0.7720
2.173900 0.7730 0.7750 0.7750 0.7760 0.7780
2.212000 0.7790 0.7810 0.7820 0.7840 0.7840
2.249900 0.7870 0.7880 0.7880 0.7880 0.7900
2.288000 0.7900 0.7910 0.7930 0.7940 0.7960
2.325900 0.7970 0.7990 0.8000 0.8000 0.8020
2.364000 0.8030 0.8030 0.8030 0.8050 0.8050
2.401900 0.8060 0.8080 0.8080 0.8080 0.8090
2.439000 0.8090 0.8110 0.8120 0.8120 0.8120
2.476900 0.8120 0.8120 0.8150 0.8150 0.8170
2.515000 0.8180 0.8180 0.8200 0.8210 0.8210
2.552900 0.8210 0.8210 0.8230 0.8240 0.8260
2.591000 0.8260 0.8270 0.8270 0.8270 0.8290
2.628900 0.8290 0.8290 0.8300 0.8320 0.8350
2.667000 0.8360 0.8380 0.8380 0.8390 0.8410
2.704900 0.8410 0.8420 0.8420 0.8440 0.8440
2.742000 0.8440 0.8440 0.8440 0.8440 0.8440
2.779900 0.8420 0.8410 0.8390 0.8350 0.8290
2.818000 0.8230 0.8120 0.8020 0.7840 0.7780
2.855900 0.7720 0.7630 0.7600 0.7510 0.7480
2.894000 0.7450 0.7390 0.7320 0.7240 0.7180
2.931900 0.7150 0.7140 0.7120 0.7110 0.7120
2.970000 0.7120 0.7140 0.7180 0.7180 0.7270
3.007900 0.7330 0.7410 0.7450 0.7580 0.7640
3.045000 0.7730 0.7780 0.7820 0.7870 0.7910
3.082900 0.7970 0.8020 0.8050 0.8080 0.8140
3.121000 0.8170 0.8210 0.8260 0.8320 0.8360
3.158900 0.8410 0.8410 0.8450 0.8480 0.8500
3.197000 0.8510 0.8510 0.8510 0.8510 0.8510
3.234900 0.8530 0.8530 0.8540 0.8570 0.8590
3.273000 0.8600 0.8650 0.8690 0.8710 0.8770
3.310900 0.8770 0.8780 0.8800 0.8800 0.8810
3.348000 0.8810 0.8800 0.8800 0.8800 0.8800
3.385900 0.8780 0.8780 0.8780 0.8780 0.8800
3.424000 0.8810 0.8840 0.8860 0.8890 0.8930
3.461900 0.8960 0.8990 0.9010 0.9040 0.9050
3.500000 0.9080 0.9100 0.9110 0.9110 0.9110
3.537900 0.9110 0.9110 0.9110 0.9110 0.9110
3.576000 0.9110 0.9110 0.9130 0.9140 0.9160
3.613900 0.9170 0.9190 0.9200 0.9220 0.9250
3.652000 0.9260 0.9280 0.9290 0.9290 0.9310
3.689900 0.9340 0.9340 0.9350 0.9350 0.9370
3.727000 0.9380 0.9380 0.9380 0.9400 0.9400
3.764900 0.9400 0.9410 0.9410 0.9410 0.9430
3.803000 0.9430 0.9430 0.9430 0.9410 0.9410
3.840900 0.9410 0.9430 0.9430 0.9440 0.9440
3.879000 0.9440 0.9460 0.9460 0.9460 0.9460
3.916900 0.9460 0.9460 0.9460 0.9470 0.9490
3.955000 0.9470 0.9470 0.9470 0.9470 0.9490
3.992900 0.9500 0.9500 0.9500 0.9520 0.9520
4.030000 0.9530 0.9550 0.9560 0.9560 0.9560
4.067900 0.9590 0.9590 0.9610 0.9610 0.9610
4.106000 0.9620 0.9640 0.9650 0.9670 0.9670
4.143900 0.9680 0.9680 0.9680 0.9680 0.9680
4.182000 0.9680 0.9680 0.9700 0.9680 0.9680
4.219900 0.9680 0.9680 0.9680 0.9700 0.9700
4.258000 0.9700 0.9700 0.9700 0.9700 0.9700
4.295900 0.9700 0.9700 0.9700 0.9700 0.9680
4.333000 0.9680 0.9700 0.9700 0.9700 0.9700
4.370900 0.9700 0.9730 0.9730 0.9740 0.9740
4.409000 0.9760 0.9760 0.9760 0.9770 0.9770
4.446900 0.9790 0.9790 0.9790 0.9790 0.9790
4.485000 0.9790 0.9800 0.9800 0.9800 0.9800
4.522900 0.9820 0.9820 0.9820 0.9820 0.9820
4.561000 0.9820 0.9820 0.9830 0.9830 0.9830
4.598900 0.9850 0.9830 0.9830 0.9830 0.9850
4.636000 0.9830 0.9830 0.9830 0.9830 0.9830
4.673900 0.9830 0.9830 0.9830 0.9830 0.9830
4.712000 0.9830 0.9830 0.9830 0.9830 0.9830
4.749900 0.9830 0.9830 0.9830 0.9820 0.9800
4.788000 0.9790 0.9790 0.9790 0.9770 0.9770
4.825900 0.9760 0.9740 0.9740 0.9740 0.9730
4.864000 0.9730 0.9710 0.9680 0.9680 0.9670
4.901900 0.9650 0.9640 0.9640 0.9620 0.9610
4.939000 0.9610 0.9610 0.9590 0.9580 0.9560
4.976900 0.9530 0.9520 0.9490 0.9490 0.9470
5.015000 0.9460 0.9430 0.9400 0.9380 0.9350
5.052900 0.9320 0.9290 0.9280 0.9230 0.9190
5.091000 0.9160 0.9130 0.9100 0.9070 0.9050
5.128900 0.9020 0.9010 0.8990 0.8960 0.8950
5.167000 0.8930 0.8930 0.8920 0.8920 0.8900
5.204900 0.8900 0.8890 0.8870 0.8840 0.8810
5.242000 0.8750 0.8750 0.8740 0.8690 0.8680
5.279900 0.8630 0.8590 0.8540 0.8480 0.8440
5.318000 0.8410 0.8390 0.8380 0.8330 0.8270
5.355900 0.8230 0.8150 0.8080 0.8000 0.7970
5.394000 0.7930 0.7900 0.7850 0.7790 0.7730
5.431900 0.7690 0.7640 0.7630 0.7550 0.7520
5.470000 0.7500 0.7470 0.7390 0.7330 0.7290
5.507900 0.7240 0.7210 0.7170 0.7120 0.7060
5.545000 0.7000 0.6960 0.6870 0.6850 0.6780
5.582900 0.6750 0.6670 0.6580 0.6490 0.6430
5.621000 0.6340 0.6220 0.6100 0.5920 0.5830
5.658900 0.5760 0.5700 0.5650 0.5610 0.5560
5.697000 0.5490 0.5380 0.5220 0.5100 0.5020
5.734900 0.4940 0.4800 0.4590 0.4470 0.4190
5.773000 0.4050 0.3960 0.3840 0.3750 0.3620
5.810900 0.3470 0.3050 0.2670 0.2520 0.2470
5.848000 0.2410 0.2210 0.2090 0.1900 0.1630
5.885900 0.1450 0.1340 0.1240 0.1150 0.1030
5.924000 0.0940 0.0850 0.0760 0.0640 0.0610
5.961900 0.0590 0.0590 0.0580 0.0580 0.0590
6.000000 0.0590 0.0580 0.0580 0.0590 0.0610
6.037900 0.0640 0.0650 0.0730 0.0790 0.0860
6.076000 0.0940 0.1060 0.1220 0.1540 0.1690
6.113900 0.1810 0.1870 0.1970 0.2110 0.2230
6.152000 0.2330 0.2380 0.2600 0.2730 0.2840
6.189900 0.2960 0.3050 0.3120 0.3260 0.3300
6.227000 0.3390 0.3450 0.3510 0.3570 0.3620
6.264900 0.3680 0.3740 0.3900 0.3960 0.4050
6.303000 0.4100 0.4170 0.4230 0.4310 0.4380
6.340900 0.4470 0.4580 0.4620 0.4670 0.4710
6.379000 0.4730 0.4760 0.4800 0.4860 0.5040
6.416900 0.5130 0.5200 0.5230 0.5280 0.5290
6.455000 0.5310 0.5340 0.5370 0.5430 0.5460
6.492900 0.5550 0.5580 0.5620 0.5650 0.5680
6.530000 0.5700 0.5710 0.5730 0.5740 0.5760
6.567900 0.5800 0.5890 0.5940 0.5970 0.6000
6.606000 0.6030 0.6060 0.6090 0.6160 0.6190
6.643900 0.6240 0.6300 0.6330 0.6340 0.6360
6.682000 0.6360 0.6390 0.6420 0.6450 0.6460
6.719900 0.6460 0.6510 0.6510 0.6520 0.6540
6.758000 0.6550 0.6570 0.6580 0.6600 0.6600
6.795900 0.6610 0.6630 0.6640 0.6640 0.6660
6.833000 0.6660 0.6670 0.6670 0.6690 0.6700
6.870900 0.6700 0.6700 0.6700 0.6700 0.6700
6.909000 0.6700 0.6690 0.6670 0.6640 0.6610
6.946900 0.6520 0.6450 0.6340 0.6300 0.6240
6.985000 0.6150 0.6040 0.5920 0.5850 0.5800
7.022900 0.5790 0.5790 0.5790 0.5800 0.5800
7.061000 0.5850 0.5920 0.5970 0.6030 0.6060
7.098900 0.6090 0.6100 0.6100 0.6120 0.6120
7.136000 0.6090 0.6070 0.6040 0.6000 0.5950
7.173900 0.5940 0.5920 0.5920 0.5920 0.5920
7.212000 0.5940 0.5940 0.5940 0.5940 0.5940
7.249900 0.5940 0.5920 0.5880 0.5850 0.5790
7.288000 0.5730 0.5620 0.5490 0.5350 0.5190
7.325900 0.5070 0.4950 0.4760 0.4380 0.4170
7.364000 0.3890 0.3600 0.3270 0.2900 0.2640
7.401900 0.2390 0.2180 0.2050 0.1790 0.1570
7.439000 0.1400 0.1330 0.1240 0.1120 0.1030
7.476900 0.0970 0.0920 0.0910 0.0890 0.0890
7.515000 0.0880 0.0880 0.0890 0.0890 0.0940
7.552900 0.1030 0.1220 0.1690 0.1910 0.2150
7.591000 0.2390 0.2730 0.2930 0.3330 0.3480
7.628900 0.3680 0.4010 0.4160 0.4310 0.4460
7.667000 0.4610 0.4740 0.4880 0.5160 0.5290
7.704900 0.5440 0.5590 0.5740 0.5820 0.5950
7.742000 0.6030 0.6090 0.6180 0.6220 0.6420
7.779900 0.6480 0.6540 0.6600 0.6660 0.6700
7.818000 0.6760 0.6840 0.6880 0.6930 0.6970
7.855900 0.7030 0.7080 0.7120 0.7170 0.7210
7.894000 0.7240 0.7270 0.7320 0.7350 0.7380
7.931900 0.7410 0.7470 0.7520 0.7570 0.7600
7.970000 0.7630 0.7670 0.7700 0.7750 0.7760
8.007900 0.7810 0.7820 0.7840 0.7880 0.7880
8.045000 0.7910 0.7940 0.7960 0.7990 0.8000
8.082900 0.8020 0.8030 0.8050 0.8050 0.8080
8.121000 0.8090 0.8110 0.8110 0.8120 0.8140
8.158900 0.8170 0.8180 0.8200 0.8200 0.8230
8.197000 0.8240 0.8260 0.8270 0.8290 0.8300
8.234900 0.8320 0.8350 0.8360 0.8410 0.8410
8.273000 0.8420 0.8440 0.8440 0.8470 0.8470
8.310900 0.8480 0.8500 0.8510 0.8530 0.8540
8.348000 0.8560 0.8560 0.8570 0.8570 0.8590
8.385900 0.8590 0.8600 0.8620 0.8620 0.8630
8.424000 0.8650 0.8660 0.8680 0.8680 0.8680
8.461900 0.8690 0.8690 0.8690 0.8710 0.8720
8.500000 0.8720 0.8740 0.8740 0.8750 0.8770
8.537900 0.8770 0.8780 0.8800 0.8810 0.8810
8.576000 0.8810 0.8830 0.8830 0.8840 0.8840
8.613900 0.8840 0.8860 0.8860 0.8860 0.8860
8.652000 0.8870 0.8870 0.8890 0.8900 0.8900
8.689900 0.8900 0.8920 0.8920 0.8920 0.8930
8.727000 0.8930 0.8930 0.8930 0.8930 0.8950
8.764900 0.8950 0.8960 0.8960 0.8960 0.8980
8.803000 0.8980 0.8980 0.8990 0.9010 0.9010
8.840900 0.9020 0.9040 0.9050 0.9050 0.9070
8.879000 0.9070 0.9070 0.9070 0.9070 0.9080
8.916900 0.9080 0.9080 0.9080 0.9100 0.9110
8.955000 0.9130 0.9130 0.9140 0.9140 0.9140
8.992900 0.9140 0.9160 0.9160 0.9160 0.9160
9.030000 0.9160 0.9160 0.9160 0.9170 0.9170
9.067900 0.9170 0.9170 0.9190 0.9190 0.9190
9.106000 0.9190 0.9190 0.9190 0.9190 0.9190
9.143900 0.9190 0.9200 0.9200 0.9200 0.9200
9.182000 0.9200 0.9200 0.9200 0.9200 0.9200
9.219900 0.9220 0.9220 0.9220 0.9220 0.9230
9.258000 0.9230 0.9230 0.9230 0.9230 0.9230
9.295900 0.9230 0.9230 0.9230 0.9230 0.9230
9.333000 0.9230 0.9230 0.9250 0.9250 0.9250
9.370900 0.9250 0.9250 0.9250 0.9250 0.9250
9.409000 0.9250 0.9260 0.9260 0.9260 0.9280
9.446900 0.9280 0.9280 0.9280 0.9280 0.9280
9.485000 0.9280 0.9280 0.9260 0.9260 0.9280
9.522900 0.9260 0.9260 0.9260 0.9260 0.9260
9.561000 0.9260 0.9260 0.9280 0.9280 0.9280
9.598900 0.9280 0.9280 0.9290 0.9290 0.9290
9.636000 0.9290 0.9290 0.9290 0.9310 0.9310
9.673900 0.9310 0.9320 0.9320 0.9320 0.9320
9.712000 0.9340 0.9340 0.9340 0.9340 0.9350
9.749900 0.9350 0.9350 0.9370 0.9370 0.9370
9.788000 0.9370 0.9370 0.9370 0.9370 0.9370
9.825900 0.9370 0.9370 0.9380 0.9380 0.9380
9.864000 0.9380 0.9380 0.9380 0.9380 0.9380
9.901900 0.9380 0.9380 0.9380 0.9380 0.9380
9.939000 0.9400 0.9400 0.9400 0.9400 0.9400
9.976900 0.9400 0.9400 0.9400 0.9400 0.9400
10.015000 0.9410 0.9400 0.9400 0.9410 0.9400
10.052900 0.9400 0.9400 0.9410 0.9410 0.9410
10.091000 0.9410 0.9400 0.9400 0.9400 0.9400
10.128900 0.9400 0.9400 0.9400 0.9400 0.9400
10.167000 0.9400 0.9400 0.9400 0.9400 0.9400
10.204900 0.9400 0.9400 0.9400 0.9400 0.9400
10.242000 0.9400 0.9400 0.9400 0.9400 0.9400
10.279900 0.9400 0.9400 0.9400 0.9400 0.9400
10.318000 0.9400 0.9400 0.9400 0.9400 0.9400
10.355900 0.9400 0.9400 0.9400 0.9400 0.9400
10.394000 0.9400 0.9400 0.9400 0.9410 0.9410
10.431900 0.9400 0.9400 0.9400 0.9400 0.9400
10.470000 0.9400 0.9400 0.9400 0.9410 0.9410
10.507900 0.9410 0.9400 0.9400 0.9400 0.9400
10.545000 0.9400 0.9410 0.9410 0.9410 0.9410
10.582900 0.9410 0.9410 0.9410 0.9410 0.9410
10.621000 0.9410 0.9410 0.9410 0.9410 0.9410
10.658900 0.9410 0.9410 0.9410 0.9400 0.9400
10.697000 0.9400 0.9410 0.9410 0.9410 0.9410
10.734900 0.9410 0.9410 0.9410 0.9430 0.9410
10.773000 0.9410 0.9400 0.9400 0.9410 0.9400
10.810900 0.9400 0.9400 0.9400 0.9400 0.9400
10.848000 0.9400 0.9400 0.9400 0.9400 0.9400
10.885900 0.9400 0.9400 0.9400 0.9400 0.9410
10.924000 0.9400 0.9400 0.9410 0.9410 0.9410
10.961900 0.9410 0.9410 0.9410 0.9410 0.9410
11.000000 0.9410 0.9410 0.9410 0.9410 0.9410
11.037900 0.9410 0.9410 0.9410 0.9410 0.9410
11.076000 0.9410 0.9410 0.9410 0.9410 0.9410
11.113900 0.9410 0.9410 0.9410 0.9410 0.9410
11.152000 0.9410 0.9410 0.9410 0.9410 0.9410
11.189900 0.9410 0.9410 0.9410 0.9400 0.9400
11.227000 0.9400 0.9400 0.9400 0.9400 0.9400
11.264900 0.9400 0.9380 0.9380 0.9380 0.9380
11.303000 0.9380 0.9380 0.9380 0.9380 0.9380
11.340900 0.9380 0.9380 0.9370 0.9370 0.9370
11.379000 0.9370 0.9370 0.9370 0.9370 0.9350
11.416900 0.9350 0.9350 0.9340 0.9340 0.9340
11.455000 0.9350 0.9350 0.9340 0.9340 0.9340
11.492900 0.9340 0.9340 0.9320 0.9320 0.9320
11.530000 0.9320 0.9310 0.9310 0.9310 0.9290
11.567900 0.9290 0.9280 0.9280 0.9280 0.9260
11.606000 0.9260 0.9260 0.9260 0.9260 0.9260
11.643900 0.9250 0.9250 0.9250 0.9230 0.9220
11.682000 0.9220 0.9220 0.9220 0.9220 0.9220
11.719900 0.9220 0.9220 0.9200 0.9200 0.9200
11.758000 0.9200 0.9190 0.9190 0.9170 0.9170
11.795900 0.9170 0.9160 0.9160 0.9160 0.9160
11.833000 0.9160 0.9160 0.9140 0.9140 0.9140
11.870900 0.9140 0.9140 0.9130 0.9130 0.9110
11.909000 0.9110 0.9100 0.9080 0.9080 0.9100
11.946900 0.9100 0.9080 0.9080 0.9070 0.9070
11.985000 0.9050 0.9050 0.9040 0.9020 0.9010
12.022900 0.8990 0.8980 0.8980 0.8960 0.8950
12.061000 0.8930 0.8920 0.8920 0.8900 0.8890
12.098900 0.8890 0.8870 0.8870 0.8860 0.8840
12.136000 0.8840 0.8840 0.8840 0.8830 0.8810
12.173900 0.8800 0.8770 0.8750 0.8740 0.8710
12.212000 0.8690 0.8690 0.8680 0.8660 0.8650
12.249900 0.8630 0.8590 0.8570 0.8560 0.8530
12.288000 0.8530 0.8500 0.8470 0.8450 0.8440
12.325900 0.8420 0.8390 0.8360 0.8330 0.8300
12.364000 0.8260 0.8200 0.8140 0.8090 0.8080
12.401900 0.8050 0.8020 0.7970 0.7940 0.7910
12.439000 0.7850 0.7810 0.7760 0.7700 0.7640
12.476900 0.7580 0.7520 0.7500 0.7470 0.7390
12.515000 0.7290 0.7180 0.7060 0.6960 0.6870
12.552900 0.6750 0.6660 0.6520 0.6390 0.6270
12.591000 0.6210 0.6130 0.6030 0.5890 0.5730
12.628900 0.5530 0.5320 0.5100 0.5000 0.4880
12.667000 0.4640 0.4400 0.4200 0.4010 0.3950
12.704900 0.3810 0.3770 0.3720 0.3660 0.3620
12.742000 0.3540 0.3500 0.3450 0.3410 0.3380
12.779900 0.3320 0.3240 0.3210 0.3150 0.3090
12.818000 0.3020 0.2940 0.2910 0.2840 0.2780
12.855900 0.2700 0.2660 0.2610 0.2600 0.2580
12.894000 0.2580 0.2570 0.2570 0.2570 0.2580
12.931900 0.2600 0.2600 0.2610 0.2630 0.2660
12.970000 0.2760 0.2910 0.3030 0.3150 0.3300
13.007900 0.3440 0.3620 0.3720 0.3980 0.4200
13.045000 0.4370 0.4590 0.4760 0.4890 0.5230
13.082900 0.5380 0.5500 0.5640 0.5770 0.5910
13.121000 0.6060 0.6240 0.6430 0.6520 0.6600
13.158900 0.6690 0.6760 0.6840 0.6900 0.6970
13.197000 0.7050 0.7120 0.7200 0.7290 0.7380
13.234900 0.7450 0.7550 0.7600 0.7640 0.7690
13.273000 0.7720 0.7760 0.7810 0.7850 0.7880
13.310900 0.7940 0.7960 0.8020 0.8050 0.8060
13.348000 0.8110 0.8120 0.8150 0.8150 0.8180
13.385900 0.8200 0.8210 0.8240 0.8260 0.8270
13.424000 0.8290 0.8320 0.8330 0.8360 0.8410
13.461900 0.8410 0.8440 0.8440 0.8450 0.8450
13.500000 0.8470 0.8480 0.8500 0.8510 0.8530
13.537900 0.8540 0.8560 0.8560 0.8570 0.8570
13.576000 0.8590 0.8590 0.8600 0.8600 0.8620
13.613900 0.8630 0.8630 0.8650 0.8650 0.8660
13.652000 0.8660 0.8680 0.8690 0.8710 0.8710
13.689900 0.8720 0.8720 0.8720 0.8720 0.8740
13.727000 0.8740 0.8750 0.8770 0.8770 0.8770
13.764900 0.8770 0.8770 0.8780 0.8780 0.8780
13.803000 0.8800 0.8800 0.8800 0.8810 0.8810
13.840900 0.8830 0.8830 0.8830 0.8830 0.8830
13.879000 0.8830 0.8810 0.8810 0.8830 0.8830
13.916900 0.8830 0.8840 0.8840 0.8860 0.8860
13.955000 0.8860 0.8840 0.8840 0.8840 0.8860
13.992900 0.8860 0.8860 0.8860 0.8860 0.8860
14.030000 0.8860 0.8870 0.8870 0.8870 0.8870
14.067900 0.8870 0.8870 0.8870 0.8870 0.8870
14.106000 0.8870 0.8870 0.8870 0.8870 0.8870
14.143900 0.8870 0.8890 0.8890 0.8900 0.8900
14.182000 0.8900 0.8900 0.8900 0.8900 0.8890
14.219900 0.8900 0.8900 0.8900 0.8900 0.8900
14.258000 0.8900 0.8900 0.8900 0.8900 0.8900
14.295900 0.8900 0.8900 0.8900 0.8900 0.8900
14.333000 0.8900 0.8890 0.8890 0.8890 0.8890
14.370900 0.8890 0.8890 0.8890 0.8890 0.8890
14.409000 0.8890 0.8890 0.8890 0.8890 0.8890
14.446900 0.8890 0.8890 0.8890 0.8890 0.8890
14.485000 0.8890 0.8890 0.8890 0.8890 0.8890
14.522900 0.8890 0.8890 0.8890 0.8890 0.8890
14.561000 0.8890 0.8890 0.8890 0.8890 0.8890
14.598900 0.8890 0.8890 0.8890 0.8890 0.8890
14.636000 0.8890 0.8890 0.8890 0.8890 0.8890
14.673900 0.8890 0.8890 0.8890 0.8890 0.8890
14.712000 0.8890 0.8890 0.8890 0.8890 0.8890
14.749900 0.8890 0.8890 0.8890 0.8890 0.8890
14.788000 0.8890 0.8890 0.8890 0.8890 0.8890
14.825900 0.8890 0.8890 0.8890 0.8890 0.8890
14.864000 0.8890 0.8890 0.8890 0.8890 0.8870
14.901900 0.8870 0.8890 0.8890 0.8890 0.8890
14.939000 0.8900 0.8890 0.8890 0.8890 0.8900
14.976900 0.8890 0.8890 0.8890 0.8890 0.8890
15.015000 0.8890 0.8890 0.8890 0.8870 0.8870
15.052900 0.8890 0.8890 0.8890 0.8870 0.8870
15.091000 0.8870 0.8860 0.8860 0.8860 0.8860
15.128900 0.8860 0.8860 0.8860 0.8860 0.8860
15.167000 0.8860 0.8840 0.8840 0.8840 0.8860
15.204900 0.8840 0.8860 0.8840 0.8840 0.8840
15.242000 0.8840 0.8840 0.8840 0.8840 0.8840
15.279900 0.8840 0.8840 0.8840 0.8830 0.8830
15.318000 0.8840 0.8840 0.8840 0.8840 0.8840
15.355900 0.8840 0.8840 0.8840 0.8840 0.8840
15.394000 0.8840 0.8840 0.8840 0.8830 0.8830
15.431900 0.8830 0.8830 0.8830 0.8830 0.8830
15.470000 0.8830 0.8830 0.8830 0.8830 0.8830
15.507900 0.8830 0.8810 0.8810 0.8810 0.8810
15.545000 0.8810 0.8810 0.8800 0.8810 0.8810
15.582900 0.8810 0.8810 0.8810 0.8810 0.8810
15.621000 0.8800 0.8810 0.8810 0.8810 0.8810
15.658900 0.8800 0.8800 0.8800 0.8800 0.9250
15.697000 0.8810 0.8810 0.8810 0.8800 0.8800
15.734900 0.8800
##END=
