##TITLE=LEAD THIOCYANATE
$$ C.P.
##JCAMP-DX=4.24
##DATA TYPE=INFRARED SPECTRUM
##CLASS=COBLENTZ
##ORIGIN=MELLON INSTITUTE
##OWNER=COBLENTZ SOCIETY
Collection (C) 2018 copyright by the U.S. Secretary of Commerce
on behalf of the United States of America. All rights reserved.
##DATE=Not specified, most likely prior to 1970
##MOLFORM=Pb ( S C N)2
##SOURCE REFERENCE=COBLENTZ NO. 491
##$NIST ID=B6000491
##$NIST SOURCE=COBLENTZ
##$NIST IMAGE=cob491
##SPECTROMETER/DATA SYSTEM=Not specified, most likely a prism, grating, or hybrid spectrometer.
##STATE=SOLID (NUJOL MULL)
##PATH LENGTH=
$$SPECTRAL CONTAMINATION DUE TO OIL AROUND 2900, 1450, 1380 CM^-^1
##SAMPLING PROCEDURE=TRANSMISSION
##RESOLUTION=4
##DATA PROCESSING=DIGITIZED BY NIST FROM HARD COPY
##XUNITS=MICROMETERS
##YUNITS=TRANSMITTANCE
##XFACTOR=1.000000
##YFACTOR=1
##DELTAX=000.006828
##FIRSTX=2.03
##LASTX=16.001
##FIRSTY=0.445
##MAXX=16.001
##MINX=2.03
##MAXY=1.003
##MINY=0.132
##NPOINTS=2047
##XYDATA=(X++(Y..Y))
2.030000 0.4450 0.4470 0.4490 0.4490 0.4520
2.064157 0.4560 0.4570 0.4610 0.4620 0.4620
2.099000 0.4620 0.4640 0.4680 0.4680 0.4710
2.133157 0.4730 0.4750 0.4780 0.4780 0.4800
2.167000 0.4810 0.4830 0.4810 0.4830 0.4850
2.201157 0.4870 0.4880 0.4900 0.4920 0.4920
2.235000 0.4920 0.4930 0.4930 0.4930 0.4970
2.269157 0.4990 0.5000 0.5000 0.5000 0.5020
2.304000 0.5020 0.5040 0.5060 0.5060 0.5060
2.338157 0.5070 0.5070 0.5090 0.5140 0.5180
2.372000 0.5190 0.5210 0.5230 0.5210 0.5230
2.406157 0.5240 0.5260 0.5280 0.5300 0.5310
2.440000 0.5310 0.5310 0.5350 0.5370 0.5380
2.474157 0.5400 0.5420 0.5430 0.5450 0.5450
2.508000 0.5470 0.5490 0.5500 0.5520 0.5520
2.542157 0.5520 0.5540 0.5550 0.5570 0.5590
2.577000 0.5610 0.5610 0.5620 0.5640 0.5660
2.611157 0.5670 0.5690 0.5690 0.5690 0.5690
2.645000 0.5710 0.5710 0.5730 0.5740 0.5760
2.679157 0.5780 0.5810 0.5830 0.5830 0.5830
2.713000 0.5850 0.5850 0.5860 0.5860 0.5860
2.747157 0.5880 0.5880 0.5880 0.5900 0.5900
2.782000 0.5920 0.5920 0.5930 0.5930 0.5930
2.816157 0.5930 0.5930 0.5930 0.5930 0.5950
2.850000 0.5970 0.5970 0.5980 0.6000 0.6000
2.884157 0.6000 0.6000 0.6020 0.6040 0.6070
2.918000 0.6110 0.6120 0.6140 0.6140 0.6160
2.952157 0.6170 0.6190 0.6190 0.6210 0.6210
2.986000 0.6210 0.6190 0.6190 0.6210 0.6210
3.020157 0.6210 0.6210 0.6210 0.6210 0.6240
3.055000 0.6260 0.6280 0.6280 0.6280 0.6290
3.089157 0.6290 0.6290 0.6310 0.6290 0.6290
3.123000 0.6290 0.6310 0.6330 0.6330 0.6330
3.157157 0.6350 0.6360 0.6380 0.6400 0.6410
3.191000 0.6430 0.6430 0.6450 0.6450 0.6430
3.225157 0.6410 0.6400 0.6400 0.6380 0.6350
3.259000 0.6310 0.6290 0.6230 0.6170 0.6070
3.293157 0.5930 0.5850 0.5500 0.5000 0.4260
3.328000 0.3400 0.2530 0.2130 0.1940 0.1650
3.362157 0.1390 0.1320 0.1390 0.1610 0.1820
3.396000 0.2080 0.2770 0.3230 0.3280 0.3350
3.430157 0.3320 0.3180 0.3090 0.2940 0.2920
3.464000 0.2940 0.3490 0.4060 0.4610 0.5160
3.498157 0.5660 0.6190 0.6400 0.6570 0.6660
3.533000 0.6740 0.6810 0.6850 0.6900 0.6930
3.567157 0.6980 0.7050 0.7100 0.7120 0.7140
3.601000 0.7160 0.7170 0.7170 0.7170 0.7190
3.635157 0.7190 0.7190 0.7210 0.7220 0.7240
3.669000 0.7260 0.7280 0.7290 0.7310 0.7330
3.703157 0.7340 0.7340 0.7340 0.7340 0.7360
3.737000 0.7380 0.7400 0.7410 0.7430 0.7430
3.771157 0.7450 0.7450 0.7450 0.7460 0.7480
3.806000 0.7500 0.7520 0.7520 0.7530 0.7530
3.840157 0.7570 0.7570 0.7590 0.7590 0.7590
3.874000 0.7600 0.7620 0.7650 0.7670 0.7690
3.908157 0.7710 0.7710 0.7710 0.7710 0.7710
3.942000 0.7720 0.7740 0.7740 0.7740 0.7760
3.976157 0.7790 0.7790 0.7790 0.7810 0.7810
4.011000 0.7810 0.7830 0.7830 0.7830 0.7840
4.045157 0.7840 0.7840 0.7860 0.7880 0.7900
4.079000 0.7930 0.7930 0.7910 0.7950 0.7950
4.113157 0.7960 0.7960 0.7980 0.7980 0.7980
4.147000 0.7980 0.7980 0.8000 0.8000 0.8000
4.181157 0.8000 0.8000 0.8000 0.7980 0.7980
4.215000 0.7980 0.7980 0.7980 0.7980 0.7980
4.249157 0.7980 0.7980 0.7980 0.7980 0.7980
4.284000 0.7980 0.7980 0.8000 0.8020 0.8020
4.318157 0.8020 0.8050 0.8050 0.8070 0.8070
4.352000 0.8080 0.8100 0.8140 0.8170 0.8200
4.386157 0.8220 0.8240 0.8260 0.8260 0.8260
4.420000 0.8260 0.8260 0.8260 0.8260 0.8290
4.454157 0.8310 0.8330 0.8340 0.8340 0.8360
4.489000 0.8360 0.8360 0.8360 0.8360 0.8380
4.523157 0.8380 0.8380 0.8390 0.8390 0.8390
4.557000 0.8410 0.8410 0.8410 0.8410 0.8450
4.591157 0.8480 0.8480 0.8500 0.8510 0.8510
4.625000 0.8530 0.8530 0.8550 0.8580 0.8620
4.659157 0.8650 0.8690 0.8720 0.8740 0.8740
4.693000 0.8760 0.8770 0.8770 0.8790 0.8810
4.727157 0.8820 0.8840 0.8880 0.8890 0.8890
4.762000 0.8840 0.8720 0.8410 0.7960 0.7830
4.796157 0.7670 0.7500 0.7480 0.7530 0.7650
4.830000 0.7690 0.7690 0.7650 0.7550 0.7500
4.864157 0.7380 0.7050 0.6710 0.5950 0.5180
4.898000 0.4450 0.3950 0.3610 0.3370 0.3200
4.932157 0.3180 0.3210 0.3680 0.4230 0.4540
4.966000 0.4920 0.5310 0.5450 0.5740 0.5980
5.000157 0.6070 0.6190 0.6380 0.6500 0.6620
5.035000 0.6710 0.6790 0.6830 0.6880 0.6900
5.069157 0.6900 0.7000 0.7100 0.7160 0.7210
5.103000 0.7280 0.7330 0.7340 0.7380 0.7450
5.137157 0.7520 0.7550 0.7590 0.7600 0.7640
5.171000 0.7670 0.7740 0.7760 0.7790 0.7810
5.205157 0.7830 0.7840 0.7840 0.7860 0.7880
5.240000 0.7880 0.7900 0.7910 0.7930 0.7950
5.274157 0.7980 0.8000 0.8000 0.8020 0.8030
5.308000 0.8050 0.8050 0.8120 0.8140 0.8150
5.342157 0.8150 0.8170 0.8190 0.8190 0.8200
5.376000 0.8200 0.8220 0.8220 0.8220 0.8240
5.410157 0.8240 0.8240 0.8260 0.8270 0.8270
5.444000 0.8270 0.8290 0.8290 0.8310 0.8340
5.478157 0.8340 0.8340 0.8340 0.8360 0.8380
5.513000 0.8380 0.8390 0.8390 0.8390 0.8410
5.547157 0.8450 0.8460 0.8460 0.8460 0.8480
5.581000 0.8480 0.8480 0.8480 0.8500 0.8500
5.615157 0.8500 0.8510 0.8510 0.8510 0.8530
5.649000 0.8530 0.8530 0.8550 0.8570 0.8570
5.683157 0.8570 0.8580 0.8600 0.8640 0.8640
5.718000 0.8640 0.8640 0.8640 0.8640 0.8640
5.752157 0.8640 0.8620 0.8620 0.8640 0.8640
5.786000 0.8650 0.8650 0.8640 0.8650 0.8650
5.820157 0.8670 0.8670 0.8650 0.8670 0.8670
5.854000 0.8690 0.8700 0.8720 0.8740 0.8740
5.888157 0.8740 0.8720 0.8720 0.8720 0.8720
5.922000 0.8720 0.8720 0.8720 0.8720 0.8720
5.956157 0.8740 0.8790 0.8810 0.8820 0.8820
5.991000 0.8840 0.8840 0.8860 0.8860 0.8860
6.025157 0.8860 0.8860 0.8860 0.8860 0.8860
6.059000 0.8860 0.8860 0.8860 0.8860 0.8880
6.093157 0.8890 0.8890 0.8890 0.8890 0.8890
6.127000 0.8910 0.8910 0.8910 0.8930 0.8930
6.161157 0.8930 0.8950 0.8960 0.8980 0.9010
6.196000 0.9010 0.9030 0.9030 0.9010 0.8980
6.230157 0.8980 0.8960 0.8960 0.8950 0.8930
6.264000 0.8930 0.8890 0.8910 0.8910 0.8910
6.298157 0.8890 0.8880 0.8880 0.8880 0.8860
6.332000 0.8840 0.8820 0.8790 0.8790 0.8770
6.366157 0.8760 0.8760 0.8740 0.8720 0.8700
6.400000 0.8700 0.8690 0.8690 0.8650 0.8650
6.434157 0.8640 0.8650 0.8650 0.8670 0.8670
6.469000 0.8670 0.8650 0.8640 0.8600 0.8600
6.503157 0.8570 0.8570 0.8580 0.8580 0.8600
6.537000 0.8600 0.8600 0.8620 0.8620 0.8640
6.571157 0.8650 0.8650 0.8640 0.8640 0.8620
6.605000 0.8620 0.8620 0.8640 0.8700 0.8740
6.639157 0.8760 0.8760 0.8760 0.8760 0.8760
6.673000 0.8760 0.8740 0.8740 0.8700 0.8690
6.707157 0.8690 0.8690 0.8650 0.8570 0.8530
6.742000 0.8480 0.8340 0.8260 0.8170 0.8000
6.776157 0.7530 0.7100 0.6780 0.6550 0.6380
6.810000 0.6280 0.6210 0.6190 0.6170 0.6160
6.844157 0.6170 0.6230 0.6310 0.6380 0.6450
6.878000 0.6520 0.6620 0.6720 0.6830 0.6950
6.912157 0.7050 0.7170 0.7260 0.7340 0.7400
6.947000 0.7530 0.7640 0.7830 0.7880 0.7950
6.981157 0.8020 0.8080 0.8140 0.8190 0.8240
7.015000 0.8240 0.8240 0.8240 0.8260 0.8310
7.049157 0.8340 0.8380 0.8390 0.8410 0.8430
7.083000 0.8480 0.8500 0.8510 0.8510 0.8530
7.117157 0.8570 0.8570 0.8570 0.8570 0.8570
7.151000 0.8570 0.8570 0.8530 0.8460 0.8340
7.185157 0.8270 0.8140 0.8000 0.7840 0.7720
7.220000 0.7620 0.7530 0.7480 0.7450 0.7500
7.254157 0.7690 0.7790 0.7880 0.8000 0.8020
7.288000 0.8050 0.8120 0.8190 0.8290 0.8380
7.322157 0.8450 0.8570 0.8620 0.8640 0.8650
7.356000 0.8700 0.8740 0.8760 0.8770 0.8770
7.390157 0.8790 0.8790 0.8810 0.8810 0.8820
7.425000 0.8820 0.8810 0.8820 0.8840 0.8860
7.459157 0.8890 0.8930 0.8960 0.9000 0.9010
7.493000 0.9030 0.9030 0.9030 0.9030 0.9030
7.527157 0.9030 0.9030 0.9030 0.9030 0.9030
7.561000 0.9030 0.9030 0.9030 0.9050 0.9050
7.595157 0.9030 0.9030 0.9030 0.9030 0.9030
7.629000 0.9030 0.9030 0.9030 0.9050 0.9080
7.663157 0.9080 0.9080 0.9080 0.9080 0.9080
7.698000 0.9080 0.9080 0.9080 0.9080 0.9120
7.732157 0.9100 0.9120 0.9120 0.9130 0.9150
7.766000 0.9150 0.9150 0.9150 0.9150 0.9170
7.800157 0.9190 0.9200 0.9200 0.9200 0.9190
7.834000 0.9190 0.9170 0.9170 0.9150 0.9150
7.868157 0.9170 0.9170 0.9170 0.9170 0.9190
7.903000 0.9190 0.9200 0.9200 0.9220 0.9220
7.937157 0.9220 0.9220 0.9240 0.9240 0.9220
7.971000 0.9220 0.9220 0.9220 0.9220 0.9220
8.005157 0.9220 0.9220 0.9220 0.9240 0.9250
8.039000 0.9250 0.9270 0.9290 0.9290 0.9290
8.073157 0.9310 0.9310 0.9310 0.9310 0.9290
8.107000 0.9290 0.9290 0.9290 0.9290 0.9310
8.141157 0.9310 0.9310 0.9310 0.9310 0.9310
8.176000 0.9310 0.9310 0.9310 0.9310 0.9310
8.210157 0.9310 0.9320 0.9340 0.9340 0.9340
8.244000 0.9340 0.9340 0.9340 0.9340 0.9340
8.278157 0.9340 0.9340 0.9340 0.9340 0.9340
8.312000 0.9340 0.9360 0.9360 0.9360 0.9380
8.346157 0.9380 0.9380 0.9380 0.9390 0.9390
8.381000 0.9390 0.9390 0.9390 0.9390 0.9390
8.415157 0.9390 0.9390 0.9390 0.9390 0.9380
8.449000 0.9380 0.9380 0.9380 0.9380 0.9380
8.483157 0.9380 0.9380 0.9360 0.9360 0.9340
8.517000 0.9340 0.9340 0.9340 0.9320 0.9360
8.551157 0.9360 0.9360 0.9360 0.9360 0.9360
8.585000 0.9360 0.9360 0.9360 0.9360 0.9360
8.619157 0.9360 0.9340 0.9340 0.9340 0.9340
8.654000 0.9340 0.9340 0.9360 0.9360 0.9360
8.688157 0.9360 0.9360 0.9360 0.9360 0.9360
8.722000 0.9360 0.9360 0.9360 0.9360 0.9360
8.756157 0.9360 0.9380 0.9380 0.9390 0.9390
8.790000 0.9390 0.9390 0.9390 0.9390 0.9390
8.824157 0.9390 0.9410 0.9410 0.9410 0.9440
8.858000 0.9440 0.9440 0.9440 0.9440 0.9440
8.892157 0.9440 0.9430 0.9430 0.9430 0.9410
8.927000 0.9380 0.9320 0.9320 0.9340 0.9340
8.961157 0.9380 0.9390 0.9410 0.9430 0.9430
8.995000 0.9440 0.9440 0.9440 0.9440 0.9440
9.029157 0.9460 0.9460 0.9460 0.9460 0.9460
9.063000 0.9460 0.9460 0.9460 0.9460 0.9460
9.097157 0.9460 0.9460 0.9460 0.9460 0.9460
9.132000 0.9480 0.9480 0.9480 0.9500 0.9510
9.166157 0.9510 0.9510 0.9510 0.9510 0.9510
9.200000 0.9510 0.9510 0.9510 0.9510 0.9510
9.234157 0.9510 0.9510 0.9510 0.9510 0.9510
9.268000 0.9510 0.9530 0.9530 0.9530 0.9530
9.302157 0.9530 0.9510 0.9510 0.9510 0.9510
9.336000 0.9510 0.9510 0.9510 0.9510 0.9510
9.370157 0.9510 0.9510 0.9510 0.9510 0.9510
9.405000 0.9510 0.9530 0.9530 0.9530 0.9530
9.439157 0.9550 0.9550 0.9550 0.9550 0.9550
9.473000 0.9550 0.9550 0.9560 0.9560 0.9560
9.507157 0.9560 0.9560 0.9560 0.9560 0.9580
9.541000 0.9580 0.9580 0.9580 0.9560 0.9560
9.575157 0.9560 0.9550 0.9550 0.9550 0.9550
9.610000 0.9550 0.9550 0.9550 0.9550 0.9550
9.644157 0.9550 0.9560 0.9580 0.9580 0.9580
9.678000 0.9580 0.9580 0.9580 0.9580 0.9580
9.712157 0.9560 0.9560 0.9560 0.9560 0.9560
9.746000 0.9560 0.9560 0.9560 0.9560 0.9560
9.780157 0.9560 0.9560 0.9560 0.9560 0.9560
9.814000 0.9560 0.9560 0.9560 0.9560 0.9560
9.848157 0.9560 0.9560 0.9560 0.9560 0.9560
9.883000 0.9560 0.9580 0.9600 0.9620 0.9630
9.917157 0.9630 0.9630 0.9630 0.9630 0.9630
9.951000 0.9630 0.9650 0.9650 0.9650 0.9670
9.985157 0.9690 0.9690 0.9690 0.9690 0.9690
10.019000 0.9690 0.9690 0.9700 0.9720 0.9720
10.053157 0.9720 0.9720 0.9700 0.9690 0.9670
10.088000 0.9650 0.9650 0.9670 0.9670 0.9670
10.122157 0.9690 0.9690 0.9670 0.9650 0.9620
10.156000 0.9620 0.9630 0.9630 0.9630 0.9650
10.190157 0.9670 0.9670 0.9670 0.9650 0.9620
10.224000 0.9620 0.9600 0.9600 0.9580 0.9580
10.258157 0.9580 0.9600 0.9600 0.9620 0.9620
10.292000 0.9620 0.9630 0.9650 0.9650 0.9650
10.326157 0.9650 0.9650 0.9650 0.9650 0.9650
10.361000 0.9650 0.9670 0.9670 0.9690 0.9690
10.395157 0.9670 0.9670 0.9670 0.9670 0.9670
10.429000 0.9670 0.9690 0.9690 0.9690 0.9690
10.463157 0.9690 0.9690 0.9690 0.9690 0.9690
10.497000 0.9670 0.9650 0.9630 0.9630 0.9630
10.531157 0.9630 0.9630 0.9630 0.9600 0.9580
10.565000 0.9560 0.9550 0.9550 0.9550 0.9550
10.599157 0.9560 0.9560 0.9580 0.9580 0.9580
10.634000 0.9580 0.9580 0.9580 0.9580 0.9580
10.668157 0.9580 0.9580 0.9580 0.9580 0.9580
10.702000 0.9580 0.9600 0.9600 0.9600 0.9620
10.736157 0.9620 0.9620 0.9630 0.9630 0.9630
10.770000 0.9650 0.9650 0.9650 0.9650 0.9670
10.804157 0.9670 0.9690 0.9700 0.9700 0.9720
10.839000 0.9720 0.9720 0.9740 0.9740 0.9740
10.873157 0.9740 0.9750 0.9750 0.9750 0.9750
10.907000 0.9770 0.9770 0.9770 0.9770 0.9770
10.941157 0.9770 0.9790 0.9790 0.9790 0.9790
10.975000 0.9790 0.9790 0.9790 0.9790 0.9790
11.009157 0.9790 0.9790 0.9790 0.9810 0.9810
11.043000 0.9810 0.9810 0.9820 0.9820 0.9840
11.077157 0.9840 0.9860 0.9860 0.9860 0.9860
11.112000 0.9840 0.9840 0.9840 0.9820 0.9820
11.146157 0.9820 0.9840 0.9840 0.9820 0.9820
11.180000 0.9860 0.9860 0.9840 0.9840 0.9840
11.214157 0.9840 0.9840 0.9840 0.9860 0.9860
11.248000 0.9870 0.9890 0.9910 0.9910 0.9910
11.282157 0.9910 0.9910 0.9930 0.9930 0.9930
11.317000 0.9930 0.9930 0.9930 0.9930 0.9910
11.351157 0.9910 0.9930 0.9930 0.9930 0.9930
11.385000 0.9930 0.9930 0.9930 0.9940 0.9940
11.419157 0.9940 0.9960 0.9960 0.9980 0.9980
11.453000 0.9960 0.9980 0.9980 0.9980 0.9980
11.487157 0.9980 0.9980 0.9980 0.9980 0.9980
11.521000 0.9980 0.9980 0.9980 0.9980 0.9980
11.555157 0.9980 0.9980 0.9980 0.9980 0.9980
11.590000 0.9980 0.9980 0.9980 0.9980 0.9980
11.624157 0.9980 0.9980 0.9980 0.9980 0.9980
11.658000 0.9980 0.9980 0.9980 0.9980 0.9980
11.692157 1.0000 1.0000 1.0000 1.0000 1.0010
11.726000 1.0010 1.0010 1.0010 1.0010 1.0010
11.760157 1.0010 1.0010 1.0010 1.0010 1.0010
11.795000 1.0010 1.0010 1.0010 1.0010 1.0010
11.829157 1.0010 1.0010 1.0010 1.0010 1.0010
11.863000 1.0010 1.0010 1.0000 1.0000 0.9980
11.897157 0.9980 0.9960 0.9960 0.9960 0.9960
11.931000 0.9960 0.9960 0.9960 0.9960 0.9980
11.965157 0.9980 0.9980 1.0000 1.0000 1.0000
11.999000 1.0000 1.0000 1.0010 1.0010 1.0010
12.033157 1.0010 1.0030 1.0030 1.0030 1.0030
12.068000 1.0030 1.0030 1.0030 1.0030 1.0030
12.102157 1.0030 1.0030 1.0030 1.0030 1.0030
12.136000 1.0030 1.0030 1.0030 1.0030 1.0030
12.170157 1.0030 1.0030 1.0030 1.0030 1.0030
12.204000 1.0030 1.0030 1.0030 1.0030 1.0030
12.238157 1.0030 1.0030 1.0030 1.0030 1.0030
12.273000 1.0030 1.0030 1.0030 1.0030 1.0030
12.307157 1.0030 1.0030 1.0030 1.0030 1.0030
12.341000 1.0030 1.0030 1.0030 1.0030 1.0010
12.375157 1.0010 1.0010 1.0010 1.0010 1.0000
12.409000 1.0000 1.0000 1.0000 0.9980 0.9980
12.443157 0.9960 0.9960 0.9940 0.9940 0.9940
12.477000 0.9940 0.9940 0.9940 0.9940 0.9940
12.511157 0.9940 0.9940 0.9940 0.9940 0.9940
12.546000 0.9940 0.9930 0.9930 0.9930 0.9930
12.580157 0.9910 0.9910 0.9890 0.9890 0.9890
12.614000 0.9870 0.9870 0.9870 0.9860 0.9870
12.648157 0.9870 0.9870 0.9860 0.9860 0.9860
12.682000 0.9860 0.9840 0.9820 0.9820 0.9810
12.716157 0.9790 0.9790 0.9790 0.9790 0.9790
12.750000 0.9770 0.9750 0.9750 0.9750 0.9740
12.784157 0.9740 0.9720 0.9720 0.9720 0.9720
12.819000 0.9720 0.9740 0.9740 0.9740 0.9740
12.853157 0.9740 0.9750 0.9740 0.9720 0.9720
12.887000 0.9720 0.9720 0.9720 0.9720 0.9720
12.921157 0.9700 0.9700 0.9700 0.9700 0.9700
12.955000 0.9720 0.9720 0.9720 0.9720 0.9720
12.989157 0.9720 0.9690 0.9670 0.9650 0.9630
13.024000 0.9620 0.9580 0.9580 0.9600 0.9600
13.058157 0.9600 0.9600 0.9600 0.9600 0.9600
13.092000 0.9600 0.9580 0.9560 0.9550 0.9480
13.126157 0.9440 0.9430 0.9410 0.9410 0.9360
13.160000 0.9320 0.9320 0.9310 0.9310 0.9270
13.194157 0.9250 0.9250 0.9250 0.9250 0.9250
13.228000 0.9270 0.9310 0.9310 0.9310 0.9310
13.262157 0.9340 0.9340 0.9320 0.9320 0.9320
13.297000 0.9320 0.9320 0.9310 0.9320 0.9310
13.331157 0.9290 0.9290 0.9290 0.9290 0.9290
13.365000 0.9310 0.9310 0.9320 0.9320 0.9320
13.399157 0.9320 0.9320 0.9320 0.9310 0.9310
13.433000 0.9290 0.9270 0.9250 0.9250 0.9240
13.467157 0.9220 0.9220 0.9220 0.9220 0.9240
13.502000 0.9220 0.9200 0.9190 0.9170 0.9150
13.536157 0.9150 0.9170 0.9170 0.9150 0.9150
13.570000 0.9150 0.9150 0.9130 0.9130 0.9120
13.604157 0.9070 0.9070 0.9070 0.9070 0.9070
13.638000 0.9100 0.9100 0.9070 0.9070 0.9070
13.672157 0.9070 0.9050 0.9050 0.9050 0.9030
13.706000 0.9010 0.9000 0.8980 0.8980 0.8960
13.740157 0.8960 0.8950 0.8930 0.8930 0.8930
13.775000 0.8910 0.8910 0.8880 0.8840 0.8820
13.809157 0.8810 0.8790 0.8760 0.8760 0.8740
13.843000 0.8740 0.8720 0.8720 0.8700 0.8700
13.877157 0.8700 0.8690 0.8690 0.8690 0.8670
13.911000 0.8670 0.8670 0.8670 0.8650 0.8670
13.945157 0.8650 0.8650 0.8650 0.8650 0.8650
13.980000 0.8650 0.8650 0.8650 0.8640 0.8640
14.014157 0.8640 0.8640 0.8640 0.8620 0.8600
14.048000 0.8580 0.8580 0.8580 0.8570 0.8570
14.082157 0.8570 0.8570 0.8570 0.8550 0.8550
14.116000 0.8550 0.8550 0.8530 0.8530 0.8530
14.150157 0.8530 0.8510 0.8500 0.8500 0.8500
14.184000 0.8510 0.8510 0.8510 0.8510 0.8510
14.218157 0.8480 0.8460 0.8450 0.8430 0.8390
14.253000 0.8390 0.8390 0.8390 0.8380 0.8360
14.287157 0.8340 0.8340 0.8330 0.8310 0.8310
14.321000 0.8310 0.8290 0.8290 0.8270 0.8260
14.355157 0.8260 0.8220 0.8220 0.8220 0.8200
14.389000 0.8190 0.8170 0.8150 0.8150 0.8140
14.423157 0.8120 0.8100 0.8100 0.8100 0.8120
14.457000 0.8100 0.8070 0.8050 0.8030 0.8030
14.491157 0.8030 0.8020 0.8020 0.8000 0.7980
14.526000 0.7910 0.7900 0.7900 0.7880 0.7860
14.560157 0.7860 0.7860 0.7860 0.7840 0.7830
14.594000 0.7830 0.7810 0.7790 0.7790 0.7770
14.628157 0.7770 0.7760 0.7710 0.7650 0.7620
14.662000 0.7590 0.7590 0.7570 0.7550 0.7530
14.696157 0.7530 0.7500 0.7460 0.7460 0.7460
14.731000 0.7480 0.7460 0.7460 0.7430 0.7410
14.765157 0.7380 0.7380 0.7340 0.7330 0.7330
14.799000 0.7310 0.7280 0.7260 0.7240 0.7240
14.833157 0.7220 0.7220 0.7210 0.7210 0.7210
14.867000 0.7190 0.7190 0.7190 0.7170 0.7170
14.901157 0.7170 0.7160 0.7140 0.7140 0.7120
14.935000 0.7090 0.7090 0.7070 0.7070 0.7050
14.969157 0.7030 0.7050 0.7050 0.7050 0.7050
15.004000 0.7030 0.7020 0.7020 0.7000 0.6980
15.038157 0.6970 0.6970 0.6980 0.6980 0.6970
15.072000 0.6950 0.6970 0.6950 0.6950 0.6930
15.106157 0.6930 0.6930 0.6930 0.6910 0.6910
15.140000 0.6910 0.6910 0.6880 0.6860 0.6850
15.174157 0.6850 0.6850 0.6850 0.6850 0.6830
15.209000 0.6810 0.6810 0.6790 0.6760 0.6760
15.243157 0.6740 0.6740 0.6720 0.6720 0.6720
15.277000 0.6710 0.6710 0.6690 0.6690 0.6690
15.311157 0.6690 0.6690 0.6670 0.6660 0.6620
15.345000 0.6620 0.6600 0.6600 0.6600 0.6590
15.379157 0.6570 0.6550 0.6570 0.6550 0.6540
15.413000 0.6500 0.6500 0.6480 0.6480 0.6450
15.447157 0.6450 0.6410 0.6410 0.6400 0.6380
15.482000 0.6380 0.6360 0.6360 0.6360 0.6350
15.516157 0.6350 0.6350 0.6350 0.6350 0.6350
15.550000 0.6330 0.6330 0.6330 0.6310 0.6310
15.584157 0.6290 0.6290 0.6290 0.6280 0.6260
15.618000 0.6260 0.6240 0.6210 0.6210 0.6190
15.652157 0.6210 0.6210 0.6190 0.6190 0.6190
15.687000 0.6190 0.6190 0.6170 0.6170 0.6160
15.721157 0.6160 0.6140 0.6120 0.6120 0.6110
15.755000 0.6110 0.6090 0.6070 0.6070 0.6050
15.789157 0.6050 0.6050 0.6040 0.6020 0.6040
15.823000 0.6040 0.6040 0.6050 0.6040 0.6040
15.857157 0.6020 0.6020 0.6020 0.6000 0.6000
15.891000 0.5980 0.5980 0.5970 0.5950 0.5950
15.925157 0.5950 0.5950 0.5950 0.5950 0.5950
15.960000 0.5950 0.5950 0.5950 0.5950 0.5930
15.994157 0.5930 0.5930
##END=
