##TITLE=Urea, 1-(2',4'-di-tert-butylphenyl)-3-isopropyl-
##JCAMP-DX=4.24
##DATA TYPE=INFRARED SPECTRUM
##CLASS=COBLENTZ III
##ORIGIN=MONSANTO (J. FREEMAN)
##OWNER=Copyright (C) 1987 by the Coblentz Society
Collection (C) 2018 copyright by the U.S. Secretary of Commerce
on behalf of the United States of America. All rights reserved.
##DATE=1959/03/31
##NAMES=N-(2,4-ditert-butylphenyl)-N'-isopropylurea
Urea, 1-(2,4-di-tert-butylphenyl)-3-isopropyl-
##MOLFORM=C18 H30 N2 O
##MP=190 C
##SOURCE REFERENCE=COBLENTZ NO. 9303
##$NIST ID=B6009303
##$NIST SOURCE=COBLENTZ
##$NIST IMAGE=cob9303
##SPECTROMETER/DATA SYSTEM=BECKMAN IR-4 (HYBRID PRISM-GRATING)
##INSTRUMENT PARAMETERS=NaCl PRISM
##STATE=SOLID (NUJOL MULL)
$$SPECTRAL CONTAMINATION DUE TO OIL AROUND 2900, 1450 CM^-^1
##SAMPLING PROCEDURE=TRANSMISSION
##RESOLUTION=2
##DATA PROCESSING=DIGITIZED BY COBLENTZ SOCIETY (BATCH II) FROM HARD COPY
##XUNITS=1/CM
##YUNITS=TRANSMITTANCE
##XFACTOR=1.0
##YFACTOR=1
##FIRSTX=626
##LASTX=4000
##FIRSTY=0.8745
##MAXX=4000
##MINX=626
##MAXY=0.9748
##MINY=0.0409
##NPOINTS=3375
##XYDATA=(X++(Y..Y))
626.000000 0.8745 0.8750 0.8755 0.8754 0.8757
631.000000 0.8768 0.8778 0.8799 0.8824 0.8857
636.000000 0.8874 0.8865 0.8851 0.8892 0.8869
641.000000 0.8892 0.8894 0.8876 0.8837 0.8789
646.000000 0.8742 0.8696 0.8649 0.8601 0.8554
651.000000 0.8527 0.8501 0.8477 0.8461 0.8457
656.000000 0.8494 0.8518 0.8529 0.8512 0.8488
661.000000 0.8466 0.8462 0.8505 0.8549 0.8581
666.000000 0.8597 0.8564 0.8527 0.8476 0.8420
671.000000 0.8372 0.8338 0.8320 0.8322 0.8329
676.000000 0.8311 0.8356 0.8357 0.8353 0.8360
681.000000 0.8372 0.8387 0.8408 0.8436 0.8473
686.000000 0.8507 0.8543 0.8584 0.8628 0.8680
691.000000 0.8729 0.8770 0.8811 0.8850 0.8881
696.000000 0.8912 0.8944 0.8975 0.9001 0.9026
701.000000 0.9053 0.9078 0.9104 0.9127 0.9139
706.000000 0.9144 0.9155 0.9139 0.9134 0.9120
711.000000 0.9103 0.9076 0.9036 0.8989 0.8913
716.000000 0.8837 0.8752 0.8668 0.8582 0.8499
721.000000 0.8447 0.8454 0.8465 0.8464 0.8458
726.000000 0.8444 0.8410 0.8372 0.8349 0.8366
731.000000 0.8442 0.8632 0.8885 0.8985 0.9058
736.000000 0.9121 0.9180 0.9236 0.9291 0.9344
741.000000 0.9379 0.9413 0.9434 0.9453 0.9471
746.000000 0.9488 0.9499 0.9512 0.9524 0.9528
751.000000 0.9530 0.9532 0.9567 0.9529 0.9518
756.000000 0.9507 0.9481 0.9452 0.9398 0.9343
761.000000 0.9281 0.9212 0.9137 0.9063 0.8997
766.000000 0.8943 0.8921 0.8921 0.8915 0.8995
771.000000 0.9045 0.9093 0.9163 0.9251 0.9313
776.000000 0.9349 0.9362 0.9359 0.9336 0.9305
781.000000 0.9271 0.9261 0.9276 0.9314 0.9425
786.000000 0.9533 0.9617 0.9658 0.9686 0.9700
791.000000 0.9714 0.9723 0.9730 0.9736 0.9742
796.000000 0.9744 0.9745 0.9733 0.9748 0.9746
801.000000 0.9744 0.9741 0.9737 0.9728 0.9717
806.000000 0.9685 0.9633 0.9554 0.9427 0.9156
811.000000 0.8863 0.8555 0.8322 0.8106 0.8074
816.000000 0.8204 0.8423 0.8640 0.8856 0.9083
821.000000 0.9172 0.9199 0.9204 0.9216 0.9166
826.000000 0.9111 0.9026 0.8917 0.8796 0.8685
831.000000 0.8568 0.8525 0.8541 0.8521 0.8735
836.000000 0.8849 0.8962 0.9075 0.9118 0.9124
841.000000 0.9124 0.9126 0.9129 0.9148 0.9170
846.000000 0.9213 0.9270 0.9332 0.9403 0.9471
851.000000 0.9537 0.9580 0.9616 0.9633 0.9643
856.000000 0.9642 0.9630 0.9638 0.9631 0.9622
861.000000 0.9614 0.9601 0.9585 0.9569 0.9560
866.000000 0.9552 0.9544 0.9536 0.9534 0.9538
871.000000 0.9543 0.9561 0.9579 0.9596 0.9599
876.000000 0.9580 0.9536 0.9454 0.9064 0.8921
881.000000 0.8742 0.8634 0.8616 0.9085 0.9253
886.000000 0.9327 0.9393 0.9458 0.9497 0.9533
891.000000 0.9548 0.9559 0.9562 0.9588 0.9539
896.000000 0.9490 0.9425 0.9332 0.9250 0.9188
901.000000 0.9134 0.9121 0.9124 0.9144 0.9163
906.000000 0.9187 0.9245 0.9301 0.9333 0.9362
911.000000 0.9391 0.9415 0.9430 0.9428 0.9460
916.000000 0.9393 0.9364 0.9326 0.9293 0.9264
921.000000 0.9246 0.9227 0.9233 0.9247 0.9239
926.000000 0.9292 0.9326 0.9361 0.9387 0.9400
931.000000 0.9398 0.9393 0.9377 0.9359 0.9345
936.000000 0.9342 0.9379 0.9343 0.9348 0.9352
941.000000 0.9356 0.9359 0.9362 0.9366 0.9370
946.000000 0.9375 0.9379 0.9380 0.9381 0.9382
951.000000 0.9384 0.9382 0.9380 0.9377 0.9375
956.000000 0.9367 0.9355 0.9344 0.9314 0.9273
961.000000 0.9220 0.9169 0.9129 0.9090 0.9085
966.000000 0.9096 0.9122 0.9143 0.9183 0.9221
971.000000 0.9246 0.9267 0.9288 0.9305 0.9323
976.000000 0.9340 0.9356 0.9370 0.9384 0.9397
981.000000 0.9406 0.9410 0.9413 0.9417 0.9420
986.000000 0.9422 0.9425 0.9427 0.9429 0.9431
991.000000 0.9433 0.9434 0.9436 0.9437 0.9439
996.000000 0.9441 0.9442 0.9444 0.9444 0.9440
1001.000000 0.9489 0.9431 0.9427 0.9423 0.9418
1006.000000 0.9414 0.9410 0.9406 0.9402 0.9398
1011.000000 0.9394 0.9389 0.9385 0.9380 0.9377
1016.000000 0.9372 0.9367 0.9373 0.9386 0.9400
1021.000000 0.9413 0.9419 0.9424 0.9425 0.9427
1026.000000 0.9428 0.9426 0.9424 0.9423 0.9421
1031.000000 0.9419 0.9420 0.9420 0.9421 0.9422
1036.000000 0.9423 0.9424 0.9425 0.9425 0.9425
1041.000000 0.9426 0.9426 0.9426 0.9426 0.9420
1046.000000 0.9411 0.9403 0.9393 0.9371 0.9344
1051.000000 0.9318 0.9291 0.9263 0.9235 0.9210
1056.000000 0.9183 0.9157 0.9130 0.9104 0.9071
1061.000000 0.9040 0.8999 0.8996 0.9009 0.9029
1066.000000 0.9053 0.9080 0.9111 0.9133 0.9141
1071.000000 0.9143 0.9144 0.9145 0.9145 0.9146
1076.000000 0.9144 0.9140 0.9136 0.9130 0.9122
1081.000000 0.9111 0.9099 0.9074 0.9033 0.8953
1086.000000 0.8847 0.8705 0.8467 0.8230 0.7993
1091.000000 0.7757 0.7522 0.7286 0.7071 0.7045
1096.000000 0.7209 0.7730 0.8253 0.8627 0.8745
1101.000000 0.8847 0.8954 0.9054 0.9084 0.9102
1106.000000 0.9117 0.9115 0.9119 0.9109 0.9091
1111.000000 0.9066 0.9030 0.8982 0.8923 0.8786
1116.000000 0.8596 0.8410 0.8225 0.8040 0.7856
1121.000000 0.7672 0.7488 0.7430 0.7405 0.7524
1126.000000 0.7748 0.7979 0.8208 0.8438 0.8667
1131.000000 0.8851 0.8977 0.9033 0.9043 0.9045
1136.000000 0.9054 0.9033 0.9020 0.9008 0.8988
1141.000000 0.8963 0.8930 0.8896 0.8860 0.8822
1146.000000 0.8784 0.8746 0.8712 0.8679 0.8660
1151.000000 0.8643 0.8627 0.8622 0.8619 0.8617
1156.000000 0.8614 0.8608 0.8582 0.8555 0.8511
1161.000000 0.8459 0.8406 0.8346 0.8284 0.8222
1166.000000 0.8145 0.8042 0.7866 0.7695 0.7538
1171.000000 0.7382 0.7226 0.7070 0.6915 0.6769
1176.000000 0.6736 0.6735 0.6760 0.6944 0.7150
1181.000000 0.7357 0.7563 0.7768 0.7974 0.8176
1186.000000 0.8279 0.8302 0.8315 0.8334 0.8325
1191.000000 0.8306 0.8252 0.8187 0.8119 0.8061
1196.000000 0.8003 0.7929 0.7843 0.7757 0.7712
1201.000000 0.7705 0.7744 0.7879 0.7947 0.8019
1206.000000 0.8074 0.8114 0.8139 0.8131 0.8153
1211.000000 0.8149 0.8133 0.8076 0.7959 0.7835
1216.000000 0.7711 0.7586 0.7462 0.7338 0.7215
1221.000000 0.7092 0.6969 0.6846 0.6723 0.6600
1226.000000 0.6478 0.6356 0.6210 0.5970 0.5870
1231.000000 0.5792 0.5713 0.5630 0.5550 0.5479
1236.000000 0.5424 0.5374 0.5324 0.5276 0.5240
1241.000000 0.5215 0.5209 0.5208 0.5211 0.5214
1246.000000 0.5172 0.5236 0.5315 0.5404 0.5736
1251.000000 0.5871 0.5979 0.6062 0.6117 0.6154
1256.000000 0.6190 0.6227 0.6271 0.6337 0.6497
1261.000000 0.6659 0.6775 0.6873 0.6911 0.6917
1266.000000 0.6918 0.6909 0.6847 0.6772 0.6713
1271.000000 0.6654 0.6604 0.6601 0.6612 0.6581
1276.000000 0.6653 0.6700 0.6756 0.6837 0.6917
1281.000000 0.7033 0.7150 0.7261 0.7369 0.7470
1286.000000 0.7556 0.7660 0.7779 0.7846 0.7883
1291.000000 0.7906 0.7918 0.7895 0.7810 0.7725
1296.000000 0.7667 0.7674 0.7690 0.7769 0.7915
1301.000000 0.8087 0.8202 0.8282 0.8311 0.8338
1306.000000 0.8361 0.8377 0.8391 0.8404 0.8404
1311.000000 0.8411 0.8320 0.8241 0.8154 0.8068
1316.000000 0.7981 0.7895 0.7809 0.7724 0.7638
1321.000000 0.7585 0.7589 0.7578 0.7662 0.7799
1326.000000 0.7956 0.8066 0.8160 0.8247 0.8325
1331.000000 0.8378 0.8412 0.8426 0.8412 0.8434
1336.000000 0.8427 0.8416 0.8402 0.8383 0.8363
1341.000000 0.8341 0.8319 0.8298 0.8279 0.8260
1346.000000 0.8240 0.8217 0.8189 0.8150 0.8106
1351.000000 0.8039 0.7916 0.7736 0.7355 0.7091
1356.000000 0.6899 0.6685 0.6470 0.6257 0.6044
1361.000000 0.5831 0.5618 0.5453 0.5410 0.5406
1366.000000 0.5394 0.5527 0.5807 0.6087 0.6343
1371.000000 0.6415 0.6403 0.6337 0.6267 0.6196
1376.000000 0.6126 0.6056 0.6002 0.6007 0.6042
1381.000000 0.6195 0.6486 0.6691 0.6895 0.7099
1386.000000 0.7303 0.7479 0.7528 0.7532 0.7529
1391.000000 0.7529 0.7468 0.7384 0.7301 0.7217
1396.000000 0.7133 0.7049 0.6966 0.6883 0.6848
1401.000000 0.6885 0.7091 0.7369 0.7646 0.7924
1406.000000 0.8201 0.8446 0.8492 0.8527 0.8552
1411.000000 0.8561 0.8568 0.8571 0.8572 0.8653
1416.000000 0.8574 0.8574 0.8570 0.8564 0.8557
1421.000000 0.8551 0.8533 0.8507 0.8447 0.8341
1426.000000 0.8206 0.8073 0.7939 0.7804 0.7671
1431.000000 0.7538 0.7405 0.7271 0.7138 0.7006
1436.000000 0.6874 0.6741 0.6609 0.6477 0.6345
1441.000000 0.6213 0.6082 0.5951 0.5820 0.5689
1446.000000 0.5558 0.5428 0.5298 0.5167 0.5038
1451.000000 0.4901 0.4652 0.4544 0.4428 0.4308
1456.000000 0.4185 0.4071 0.3967 0.3857 0.3739
1461.000000 0.3529 0.3450 0.3433 0.3424 0.3424
1466.000000 0.3428 0.3435 0.3624 0.3919 0.4213
1471.000000 0.4507 0.4801 0.5095 0.5388 0.5680
1476.000000 0.5921 0.5956 0.5987 0.6012 0.6049
1481.000000 0.6115 0.6187 0.6259 0.6331 0.6403
1486.000000 0.6474 0.6546 0.6618 0.6651 0.6656
1491.000000 0.6656 0.6658 0.6613 0.6507 0.6385
1496.000000 0.6263 0.6141 0.6020 0.5898 0.5777
1501.000000 0.5656 0.5551 0.5508 0.5502 0.5500
1506.000000 0.5500 0.5500 0.5503 0.5509 0.5527
1511.000000 0.5561 0.5607 0.5651 0.5692 0.5718
1516.000000 0.5740 0.5746 0.5747 0.5749 0.5750
1521.000000 0.5751 0.5750 0.5746 0.5739 0.5731
1526.000000 0.5720 0.5705 0.5689 0.5658 0.5615
1531.000000 0.5510 0.5377 0.5245 0.5114 0.4982
1536.000000 0.4850 0.4719 0.4588 0.4456 0.4325
1541.000000 0.4195 0.4064 0.3934 0.3804 0.3674
1546.000000 0.3544 0.3414 0.3284 0.3155 0.3026
1551.000000 0.2897 0.2775 0.2689 0.2601 0.2526
1556.000000 0.2494 0.2465 0.2452 0.2453 0.2441
1561.000000 0.2457 0.2461 0.2469 0.2479 0.2606
1566.000000 0.2872 0.3174 0.3474 0.3774 0.4075
1571.000000 0.4375 0.4674 0.4973 0.5272 0.5570
1576.000000 0.5868 0.6165 0.6395 0.6517 0.6604
1581.000000 0.6690 0.6851 0.6974 0.7040 0.7095
1586.000000 0.7135 0.7165 0.7174 0.7174 0.7174
1591.000000 0.7165 0.7135 0.7035 0.6903 0.6772
1596.000000 0.6640 0.6509 0.6379 0.6248 0.6118
1601.000000 0.5987 0.5857 0.5727 0.5597 0.5467
1606.000000 0.5363 0.5324 0.5324 0.5335 0.5384
1611.000000 0.5440 0.5497 0.5550 0.5563 0.5561
1616.000000 0.5558 0.5452 0.5273 0.5090 0.4906
1621.000000 0.4723 0.4540 0.4356 0.4174 0.3992
1626.000000 0.3809 0.3628 0.3446 0.3264 0.3083
1631.000000 0.2902 0.2721 0.2541 0.2360 0.2180
1636.000000 0.2000 0.1820 0.1641 0.1461 0.1282
1641.000000 0.1104 0.0976 0.0931 0.0927 0.0933
1646.000000 0.0943 0.1026 0.1622 0.2441 0.3258
1651.000000 0.7112 0.8277 0.8306 0.8329 0.8353
1656.000000 0.8376 0.8399 0.8423 0.8448 0.8475
1661.000000 0.8504 0.8536 0.8568 0.8601 0.8632
1666.000000 0.8663 0.8690 0.8713 0.8733 0.8753
1671.000000 0.8773 0.8794 0.8814 0.8835 0.8855
1676.000000 0.8876 0.8897 0.8920 0.8942 0.8965
1681.000000 0.8987 0.9010 0.9032 0.9056 0.9081
1686.000000 0.9106 0.9132 0.9158 0.9184 0.9211
1691.000000 0.9238 0.9266 0.9293 0.9321 0.9348
1696.000000 0.9372 0.9395 0.9419 0.9442 0.9466
1701.000000 0.9490 0.9512 0.9525 0.9535 0.9544
1706.000000 0.9554 0.9563 0.9573 0.9582 0.9592
1711.000000 0.9600 0.9606 0.9611 0.9616 0.9621
1716.000000 0.9626 0.9631 0.9636 0.9641 0.9647
1721.000000 0.9652 0.9656 0.9657 0.9658 0.9660
1726.000000 0.9661 0.9662 0.9664 0.9665 0.9666
1731.000000 0.9668 0.9669 0.9674 0.9667 0.9664
1736.000000 0.9661 0.9658 0.9655 0.9652 0.9650
1741.000000 0.9647 0.9644 0.9641 0.9638 0.9635
1746.000000 0.9632 0.9628 0.9624 0.9619 0.9615
1751.000000 0.9612 0.9608 0.9604 0.9600 0.9596
1756.000000 0.9592 0.9588 0.9588 0.9588 0.9589
1761.000000 0.9590 0.9591 0.9591 0.9592 0.9593
1766.000000 0.9594 0.9595 0.9597 0.9599 0.9601
1771.000000 0.9603 0.9605 0.9606 0.9608 0.9610
1776.000000 0.9612 0.9614 0.9615 0.9617 0.9619
1781.000000 0.9621 0.9623 0.9624 0.9626 0.9628
1786.000000 0.9630 0.9630 0.9630 0.9631 0.9632
1791.000000 0.9632 0.9632 0.9633 0.9634 0.9634
1796.000000 0.9635 0.9635 0.9636 0.9636 0.9637
1801.000000 0.9637 0.9638 0.9638 0.9638 0.9638
1806.000000 0.9638 0.9639 0.9639 0.9639 0.9639
1811.000000 0.9639 0.9639 0.9639 0.9639 0.9639
1816.000000 0.9639 0.9640 0.9640 0.9640 0.9639
1821.000000 0.9639 0.9639 0.9638 0.9638 0.9637
1826.000000 0.9637 0.9637 0.9636 0.9636 0.9636
1831.000000 0.9635 0.9635 0.9634 0.9634 0.9634
1836.000000 0.9633 0.9633 0.9633 0.9632 0.9632
1841.000000 0.9631 0.9631 0.9631 0.9630 0.9630
1846.000000 0.9630 0.9629 0.9629 0.9629 0.9628
1851.000000 0.9628 0.9627 0.9627 0.9627 0.9626
1856.000000 0.9626 0.9626 0.9625 0.9624 0.9623
1861.000000 0.9622 0.9621 0.9620 0.9619 0.9618
1866.000000 0.9617 0.9617 0.9616 0.9615 0.9613
1871.000000 0.9613 0.9612 0.9611 0.9611 0.9609
1876.000000 0.9608 0.9607 0.9607 0.9606 0.9605
1881.000000 0.9604 0.9603 0.9602 0.9601 0.9601
1886.000000 0.9600 0.9598 0.9598 0.9596 0.9595
1891.000000 0.9595 0.9594 0.9593 0.9591 0.9591
1896.000000 0.9590 0.9588 0.9588 0.9587 0.9586
1901.000000 0.9586 0.9586 0.9586 0.9586 0.9587
1906.000000 0.9587 0.9587 0.9587 0.9587 0.9587
1911.000000 0.9587 0.9587 0.9587 0.9587 0.9588
1916.000000 0.9589 0.9589 0.9590 0.9590 0.9590
1921.000000 0.9591 0.9592 0.9592 0.9593 0.9594
1926.000000 0.9594 0.9595 0.9595 0.9595 0.9596
1931.000000 0.9597 0.9598 0.9598 0.9599 0.9600
1936.000000 0.9600 0.9600 0.9601 0.9601 0.9602
1941.000000 0.9603 0.9603 0.9604 0.9604 0.9605
1946.000000 0.9606 0.9606 0.9606 0.9607 0.9607
1951.000000 0.9608 0.9609 0.9609 0.9610 0.9611
1956.000000 0.9611 0.9611 0.9612 0.9612 0.9613
1961.000000 0.9614 0.9614 0.9615 0.9616 0.9616
1966.000000 0.9616 0.9617 0.9617 0.9618 0.9618
1971.000000 0.9619 0.9620 0.9620 0.9621 0.9620
1976.000000 0.9620 0.9620 0.9620 0.9620 0.9620
1981.000000 0.9620 0.9620 0.9620 0.9620 0.9619
1986.000000 0.9619 0.9619 0.9619 0.9619 0.9619
1991.000000 0.9619 0.9619 0.9619 0.9619 0.9619
1996.000000 0.9618 0.9618 0.9618 0.9618 0.9618
2001.000000 0.9618 0.9618 0.9618 0.9618 0.9618
2006.000000 0.9618 0.9617 0.9617 0.9617 0.9617
2011.000000 0.9617 0.9617 0.9617 0.9617 0.9617
2016.000000 0.9617 0.9617 0.9617 0.9617 0.9617
2021.000000 0.9617 0.9617 0.9617 0.9617 0.9617
2026.000000 0.9618 0.9618 0.9618 0.9618 0.9618
2031.000000 0.9618 0.9618 0.9618 0.9618 0.9618
2036.000000 0.9618 0.9618 0.9618 0.9618 0.9619
2041.000000 0.9619 0.9619 0.9619 0.9619 0.9619
2046.000000 0.9619 0.9619 0.9619 0.9619 0.9619
2051.000000 0.9619 0.9619 0.9619 0.9619 0.9620
2056.000000 0.9620 0.9620 0.9620 0.9620 0.9620
2061.000000 0.9620 0.9620 0.9620 0.9620 0.9620
2066.000000 0.9620 0.9620 0.9621 0.9621 0.9620
2071.000000 0.9620 0.9620 0.9619 0.9619 0.9619
2076.000000 0.9619 0.9618 0.9618 0.9618 0.9617
2081.000000 0.9617 0.9617 0.9617 0.9616 0.9616
2086.000000 0.9616 0.9615 0.9615 0.9615 0.9615
2091.000000 0.9614 0.9614 0.9614 0.9613 0.9613
2096.000000 0.9613 0.9613 0.9612 0.9612 0.9612
2101.000000 0.9611 0.9611 0.9611 0.9611 0.9610
2106.000000 0.9610 0.9610 0.9609 0.9609 0.9609
2111.000000 0.9609 0.9608 0.9608 0.9608 0.9608
2116.000000 0.9607 0.9607 0.9607 0.9606 0.9606
2121.000000 0.9606 0.9606 0.9605 0.9605 0.9605
2126.000000 0.9604 0.9604 0.9604 0.9604 0.9603
2131.000000 0.9603 0.9602 0.9602 0.9601 0.9600
2136.000000 0.9600 0.9599 0.9599 0.9598 0.9598
2141.000000 0.9597 0.9597 0.9596 0.9596 0.9595
2146.000000 0.9594 0.9594 0.9593 0.9593 0.9592
2151.000000 0.9591 0.9590 0.9590 0.9589 0.9589
2156.000000 0.9588 0.9588 0.9587 0.9586 0.9586
2161.000000 0.9585 0.9585 0.9584 0.9584 0.9583
2166.000000 0.9583 0.9582 0.9582 0.9581 0.9581
2171.000000 0.9580 0.9580 0.9579 0.9578 0.9578
2176.000000 0.9577 0.9576 0.9575 0.9574 0.9573
2181.000000 0.9571 0.9570 0.9569 0.9568 0.9567
2186.000000 0.9566 0.9565 0.9564 0.9563 0.9561
2191.000000 0.9560 0.9559 0.9557 0.9556 0.9555
2196.000000 0.9554 0.9553 0.9552 0.9551 0.9550
2201.000000 0.9548 0.9547 0.9546 0.9545 0.9544
2206.000000 0.9543 0.9542 0.9541 0.9540 0.9538
2211.000000 0.9537 0.9536 0.9535 0.9534 0.9533
2216.000000 0.9531 0.9530 0.9529 0.9527 0.9526
2221.000000 0.9524 0.9523 0.9522 0.9521 0.9519
2226.000000 0.9518 0.9517 0.9516 0.9514 0.9513
2231.000000 0.9511 0.9510 0.9509 0.9508 0.9506
2236.000000 0.9505 0.9503 0.9502 0.9501 0.9500
2241.000000 0.9498 0.9497 0.9495 0.9494 0.9493
2246.000000 0.9493 0.9492 0.9492 0.9492 0.9492
2251.000000 0.9491 0.9491 0.9491 0.9491 0.9490
2256.000000 0.9490 0.9490 0.9490 0.9489 0.9489
2261.000000 0.9488 0.9488 0.9488 0.9488 0.9487
2266.000000 0.9487 0.9487 0.9488 0.9489 0.9490
2271.000000 0.9491 0.9492 0.9494 0.9495 0.9496
2276.000000 0.9497 0.9499 0.9500 0.9501 0.9502
2281.000000 0.9503 0.9504 0.9505 0.9506 0.9507
2286.000000 0.9509 0.9510 0.9511 0.9512 0.9513
2291.000000 0.9515 0.9516 0.9517 0.9518 0.9520
2296.000000 0.9521 0.9522 0.9524 0.9525 0.9526
2301.000000 0.9527 0.9528 0.9529 0.9530 0.9532
2306.000000 0.9533 0.9534 0.9535 0.9536 0.9538
2311.000000 0.9539 0.9541 0.9542 0.9543 0.9544
2316.000000 0.9545 0.9547 0.9547 0.9548 0.9549
2321.000000 0.9550 0.9551 0.9551 0.9552 0.9552
2326.000000 0.9552 0.9552 0.9553 0.9553 0.9553
2331.000000 0.9553 0.9553 0.9554 0.9554 0.9554
2336.000000 0.9554 0.9555 0.9555 0.9554 0.9553
2341.000000 0.9552 0.9549 0.9546 0.9542 0.9539
2346.000000 0.9536 0.9533 0.9530 0.9526 0.9523
2351.000000 0.9520 0.9517 0.9514 0.9511 0.9507
2356.000000 0.9503 0.9500 0.9497 0.9494 0.9490
2361.000000 0.9486 0.9483 0.9479 0.9476 0.9473
2366.000000 0.9470 0.9466 0.9462 0.9459 0.9456
2371.000000 0.9456 0.9455 0.9455 0.9454 0.9453
2376.000000 0.9453 0.9452 0.9451 0.9450 0.9450
2381.000000 0.9449 0.9449 0.9448 0.9447 0.9447
2386.000000 0.9446 0.9445 0.9445 0.9445 0.9445
2391.000000 0.9445 0.9446 0.9447 0.9448 0.9449
2396.000000 0.9450 0.9452 0.9452 0.9453 0.9454
2401.000000 0.9455 0.9456 0.9457 0.9459 0.9459
2406.000000 0.9460 0.9461 0.9462 0.9463 0.9464
2411.000000 0.9465 0.9466 0.9466 0.9467 0.9467
2416.000000 0.9467 0.9467 0.9468 0.9468 0.9468
2421.000000 0.9468 0.9468 0.9469 0.9469 0.9469
2426.000000 0.9469 0.9469 0.9469 0.9469 0.9470
2431.000000 0.9470 0.9470 0.9470 0.9470 0.9471
2436.000000 0.9471 0.9471 0.9471 0.9471 0.9469
2441.000000 0.9468 0.9467 0.9465 0.9463 0.9462
2446.000000 0.9461 0.9459 0.9457 0.9456 0.9455
2451.000000 0.9453 0.9452 0.9451 0.9449 0.9448
2456.000000 0.9446 0.9445 0.9444 0.9442 0.9441
2461.000000 0.9439 0.9438 0.9437 0.9435 0.9433
2466.000000 0.9432 0.9431 0.9429 0.9428 0.9426
2471.000000 0.9425 0.9423 0.9422 0.9421 0.9419
2476.000000 0.9418 0.9416 0.9415 0.9413 0.9411
2481.000000 0.9408 0.9406 0.9404 0.9402 0.9400
2486.000000 0.9398 0.9396 0.9394 0.9392 0.9390
2491.000000 0.9388 0.9386 0.9384 0.9382 0.9380
2496.000000 0.9377 0.9375 0.9373 0.9371 0.9369
2501.000000 0.9367 0.9365 0.9363 0.9361 0.9359
2506.000000 0.9357 0.9355 0.9353 0.9351 0.9349
2511.000000 0.9347 0.9345 0.9342 0.9340 0.9338
2516.000000 0.9336 0.9334 0.9332 0.9330 0.9328
2521.000000 0.9326 0.9324 0.9322 0.9319 0.9317
2526.000000 0.9315 0.9313 0.9311 0.9309 0.9307
2531.000000 0.9305 0.9303 0.9301 0.9299 0.9297
2536.000000 0.9295 0.9293 0.9291 0.9289 0.9287
2541.000000 0.9285 0.9282 0.9280 0.9278 0.9276
2546.000000 0.9274 0.9272 0.9270 0.9268 0.9266
2551.000000 0.9264 0.9262 0.9260 0.9258 0.9256
2556.000000 0.9254 0.9252 0.9249 0.9247 0.9244
2561.000000 0.9242 0.9239 0.9236 0.9233 0.9230
2566.000000 0.9227 0.9225 0.9222 0.9219 0.9216
2571.000000 0.9213 0.9211 0.9208 0.9205 0.9202
2576.000000 0.9199 0.9196 0.9194 0.9191 0.9188
2581.000000 0.9185 0.9182 0.9180 0.9177 0.9174
2586.000000 0.9171 0.9168 0.9165 0.9163 0.9160
2591.000000 0.9158 0.9155 0.9152 0.9150 0.9147
2596.000000 0.9144 0.9141 0.9138 0.9136 0.9133
2601.000000 0.9130 0.9127 0.9125 0.9122 0.9119
2606.000000 0.9116 0.9113 0.9110 0.9107 0.9104
2611.000000 0.9101 0.9098 0.9096 0.9093 0.9090
2616.000000 0.9087 0.9084 0.9081 0.9078 0.9076
2621.000000 0.9073 0.9070 0.9067 0.9064 0.9062
2626.000000 0.9059 0.9056 0.9053 0.9050 0.9047
2631.000000 0.9044 0.9041 0.9038 0.9036 0.9033
2636.000000 0.9030 0.9027 0.9024 0.9022 0.9019
2641.000000 0.9016 0.9014 0.9011 0.9008 0.9005
2646.000000 0.9002 0.8999 0.8995 0.8992 0.8988
2651.000000 0.8985 0.8982 0.8978 0.8975 0.8972
2656.000000 0.8969 0.8966 0.8963 0.8959 0.8956
2661.000000 0.8952 0.8949 0.8946 0.8942 0.8939
2666.000000 0.8936 0.8933 0.8930 0.8927 0.8923
2671.000000 0.8920 0.8917 0.8913 0.8910 0.8907
2676.000000 0.8904 0.8900 0.8897 0.8894 0.8891
2681.000000 0.8888 0.8885 0.8881 0.8878 0.8874
2686.000000 0.8871 0.8868 0.8865 0.8862 0.8860
2691.000000 0.8858 0.8856 0.8854 0.8852 0.8850
2696.000000 0.8848 0.8846 0.8844 0.8842 0.8840
2701.000000 0.8838 0.8837 0.8835 0.8833 0.8831
2706.000000 0.8829 0.8827 0.8825 0.8824 0.8822
2711.000000 0.8820 0.8817 0.8815 0.8813 0.8813
2716.000000 0.8813 0.8813 0.8813 0.8813 0.8813
2721.000000 0.8813 0.8813 0.8813 0.8814 0.8814
2726.000000 0.8814 0.8814 0.8814 0.8814 0.8814
2731.000000 0.8814 0.8814 0.8814 0.8814 0.8814
2736.000000 0.8814 0.8815 0.8816 0.8817 0.8818
2741.000000 0.8819 0.8821 0.8822 0.8823 0.8823
2746.000000 0.8822 0.8822 0.8820 0.8819 0.8817
2751.000000 0.8815 0.8814 0.8812 0.8809 0.8806
2756.000000 0.8803 0.8799 0.8796 0.8793 0.8785
2761.000000 0.8775 0.8764 0.8750 0.8733 0.8717
2766.000000 0.8700 0.8684 0.8667 0.8651 0.8636
2771.000000 0.8620 0.8604 0.8585 0.8567 0.8548
2776.000000 0.8527 0.8507 0.8486 0.8466 0.8445
2781.000000 0.8425 0.8407 0.8388 0.8370 0.8352
2786.000000 0.8334 0.8316 0.8298 0.8280 0.8262
2791.000000 0.8240 0.8218 0.8196 0.8173 0.8150
2796.000000 0.8127 0.8104 0.8082 0.8059 0.8036
2801.000000 0.8012 0.7988 0.7963 0.7934 0.7905
2806.000000 0.7876 0.7847 0.7818 0.7789 0.7761
2811.000000 0.7732 0.7704 0.7649 0.7589 0.7529
2816.000000 0.7460 0.7387 0.7314 0.7244 0.7178
2821.000000 0.7111 0.7056 0.7024 0.6991 0.6959
2826.000000 0.6927 0.6894 0.6862 0.6766 0.6665
2831.000000 0.6565 0.6456 0.6343 0.6230 0.6118
2836.000000 0.6005 0.5892 0.5780 0.5668 0.5556
2841.000000 0.5443 0.5331 0.5219 0.5107 0.4995
2846.000000 0.4884 0.4772 0.4660 0.4549 0.4437
2851.000000 0.4326 0.4215 0.4104 0.3992 0.3881
2856.000000 0.3770 0.3659 0.3549 0.3438 0.3327
2861.000000 0.3217 0.3106 0.2996 0.2885 0.2775
2866.000000 0.2664 0.2553 0.2443 0.2334 0.2224
2871.000000 0.2114 0.2004 0.1894 0.1785 0.1675
2876.000000 0.1566 0.1470 0.1469 0.1468 0.1467
2881.000000 0.1467 0.1468 0.1468 0.1469 0.1469
2886.000000 0.1469 0.1471 0.1481 0.1491 0.1501
2891.000000 0.1512 0.1524 0.1535 0.1547 0.1559
2896.000000 0.1570 0.1582 0.1594 0.1605 0.1617
2901.000000 0.1628 0.1640 0.1652 0.1663 0.1675
2906.000000 0.1686 0.1698 0.1709 0.1721 0.1732
2911.000000 0.1739 0.1742 0.1745 0.1747 0.1747
2916.000000 0.1746 0.1746 0.1716 0.1681 0.1646
2921.000000 0.1608 0.1567 0.1525 0.1484 0.1442
2926.000000 0.1401 0.1359 0.1318 0.1276 0.1235
2931.000000 0.1194 0.1152 0.1111 0.1070 0.1029
2936.000000 0.0987 0.0946 0.0905 0.0864 0.0823
2941.000000 0.0783 0.0742 0.0701 0.0660 0.0619
2946.000000 0.0578 0.0537 0.0496 0.0472 0.0449
2951.000000 0.0427 0.0413 0.0412 0.0411 0.0411
2956.000000 0.0410 0.0409 0.0409 0.0409 0.0409
2961.000000 0.0410 0.0410 0.0411 0.0412 0.0412
2966.000000 0.0413 0.0415 0.0417 0.0418 0.0420
2971.000000 0.0422 0.0423 0.0426 0.0429 0.0432
2976.000000 0.0436 0.0440 0.0444 0.0448 0.0454
2981.000000 0.0469 0.0483 0.0497 0.0519 0.0544
2986.000000 0.0568 0.0601 0.0680 0.0759 0.0838
2991.000000 0.1123 0.1563 0.2004 0.2445 0.2885
2996.000000 0.3324 0.3764 0.4203 0.4642 0.5081
3001.000000 0.5520 0.5957 0.6395 0.6832 0.7198
3006.000000 0.7261 0.7325 0.7389 0.7433 0.7464
3011.000000 0.7494 0.7525 0.7546 0.7567 0.7587
3016.000000 0.7607 0.7623 0.7640 0.7656 0.7673
3021.000000 0.7690 0.7706 0.7723 0.7734 0.7746
3026.000000 0.7757 0.7767 0.7773 0.7779 0.7785
3031.000000 0.7791 0.7797 0.7803 0.7809 0.7815
3036.000000 0.7821 0.7827 0.7832 0.7835 0.7838
3041.000000 0.7841 0.7843 0.7845 0.7846 0.7847
3046.000000 0.7849 0.7850 0.7851 0.7853 0.7854
3051.000000 0.7855 0.7857 0.7858 0.7860 0.7861
3056.000000 0.7862 0.7864 0.7865 0.7866 0.7868
3061.000000 0.7869 0.7871 0.7873 0.7875 0.7877
3066.000000 0.7879 0.7881 0.7884 0.7886 0.7889
3071.000000 0.7891 0.7893 0.7895 0.7897 0.7899
3076.000000 0.7902 0.7904 0.7906 0.7910 0.7922
3081.000000 0.7934 0.7946 0.7965 0.7996 0.8027
3086.000000 0.8058 0.8083 0.8104 0.8126 0.8147
3091.000000 0.8158 0.8165 0.8171 0.8178 0.8185
3096.000000 0.8192 0.8198 0.8202 0.8205 0.8205
3101.000000 0.8205 0.8204 0.8204 0.8203 0.8203
3106.000000 0.8202 0.8202 0.8202 0.8202 0.8201
3111.000000 0.8201 0.8200 0.8200 0.8198 0.8197
3116.000000 0.8195 0.8194 0.8191 0.8188 0.8184
3121.000000 0.8181 0.8178 0.8175 0.8172 0.8169
3126.000000 0.8165 0.8162 0.8159 0.8156 0.8153
3131.000000 0.8150 0.8147 0.8144 0.8141 0.8137
3136.000000 0.8134 0.8131 0.8126 0.8122 0.8118
3141.000000 0.8114 0.8109 0.8103 0.8098 0.8093
3146.000000 0.8087 0.8082 0.8077 0.8071 0.8066
3151.000000 0.8061 0.8056 0.8050 0.8045 0.8040
3156.000000 0.8034 0.8028 0.8019 0.8011 0.8002
3161.000000 0.7993 0.7983 0.7973 0.7963 0.7953
3166.000000 0.7943 0.7933 0.7923 0.7913 0.7903
3171.000000 0.7893 0.7883 0.7874 0.7864 0.7854
3176.000000 0.7844 0.7835 0.7826 0.7816 0.7807
3181.000000 0.7797 0.7788 0.7779 0.7770 0.7761
3186.000000 0.7752 0.7743 0.7734 0.7724 0.7715
3191.000000 0.7706 0.7697 0.7688 0.7679 0.7670
3196.000000 0.7661 0.7651 0.7634 0.7617 0.7600
3201.000000 0.7583 0.7565 0.7547 0.7530 0.7512
3206.000000 0.7447 0.7376 0.7304 0.7233 0.7189
3211.000000 0.7155 0.7121 0.7086 0.7052 0.7017
3216.000000 0.6982 0.6948 0.6913 0.6879 0.6845
3221.000000 0.6811 0.6777 0.6742 0.6708 0.6674
3226.000000 0.6640 0.6606 0.6571 0.6537 0.6503
3231.000000 0.6469 0.6435 0.6401 0.6367 0.6333
3236.000000 0.6298 0.6264 0.6230 0.6196 0.6162
3241.000000 0.6129 0.6095 0.6061 0.6027 0.5993
3246.000000 0.5959 0.5925 0.5892 0.5858 0.5824
3251.000000 0.5791 0.5757 0.5723 0.5689 0.5656
3256.000000 0.5583 0.5611 0.5589 0.5568 0.5559
3261.000000 0.5559 0.5559 0.5559 0.5559 0.5559
3266.000000 0.5559 0.5559 0.5559 0.5573 0.5587
3271.000000 0.5602 0.5616 0.5670 0.5737 0.5803
3276.000000 0.5870 0.5937 0.6004 0.6071 0.6137
3281.000000 0.6204 0.6271 0.6337 0.6404 0.6470
3286.000000 0.6537 0.6604 0.6670 0.6737 0.7141
3291.000000 0.6870 0.6936 0.7002 0.7059 0.7079
3296.000000 0.7099 0.7119 0.7138 0.7141 0.7140
3301.000000 0.7140 0.7139 0.7138 0.7137 0.7137
3306.000000 0.7136 0.7134 0.7118 0.7103 0.7087
3311.000000 0.7072 0.7046 0.7017 0.6988 0.6959
3316.000000 0.6930 0.6902 0.6873 0.6844 0.6815
3321.000000 0.6786 0.6757 0.6729 0.6700 0.6671
3326.000000 0.6643 0.6614 0.6585 0.6556 0.6528
3331.000000 0.6499 0.6470 0.6441 0.6412 0.6384
3336.000000 0.6355 0.6327 0.6298 0.6270 0.6241
3341.000000 0.6213 0.6184 0.6156 0.6128 0.6099
3346.000000 0.6071 0.6046 0.6031 0.6016 0.6002
3351.000000 0.5987 0.5984 0.5985 0.5986 0.5987
3356.000000 0.5979 0.5989 0.5990 0.5990 0.5991
3361.000000 0.6073 0.6177 0.6282 0.6386 0.6498
3366.000000 0.6632 0.6766 0.6901 0.7035 0.7169
3371.000000 0.7303 0.7437 0.7571 0.7705 0.7838
3376.000000 0.7971 0.8105 0.8238 0.8349 0.8445
3381.000000 0.8542 0.8639 0.8732 0.8756 0.8780
3386.000000 0.8804 0.8829 0.8849 0.8864 0.8880
3391.000000 0.8896 0.8911 0.8920 0.8926 0.8933
3396.000000 0.8940 0.8947 0.8954 0.8961 0.8968
3401.000000 0.8975 0.8982 0.8989 0.8996 0.9003
3406.000000 0.9010 0.9014 0.9019 0.9024 0.9029
3411.000000 0.9033 0.9035 0.9038 0.9040 0.9042
3416.000000 0.9044 0.9047 0.9049 0.9051 0.9054
3421.000000 0.9055 0.9057 0.9059 0.9061 0.9063
3426.000000 0.9065 0.9066 0.9067 0.9069 0.9070
3431.000000 0.9072 0.9073 0.9075 0.9076 0.9078
3436.000000 0.9079 0.9081 0.9082 0.9084 0.9085
3441.000000 0.9086 0.9088 0.9089 0.9090 0.9092
3446.000000 0.9093 0.9095 0.9096 0.9098 0.9099
3451.000000 0.9101 0.9102 0.9103 0.9105 0.9106
3456.000000 0.9108 0.9109 0.9111 0.9112 0.9113
3461.000000 0.9114 0.9115 0.9116 0.9116 0.9117
3466.000000 0.9118 0.9118 0.9119 0.9119 0.9120
3471.000000 0.9121 0.9121 0.9122 0.9122 0.9123
3476.000000 0.9123 0.9123 0.9124 0.9125 0.9125
3481.000000 0.9126 0.9127 0.9127 0.9128 0.9128
3486.000000 0.9129 0.9130 0.9130 0.9130 0.9131
3491.000000 0.9131 0.9132 0.9132 0.9133 0.9134
3496.000000 0.9134 0.9135 0.9135 0.9136 0.9137
3501.000000 0.9137 0.9138 0.9138 0.9139 0.9139
3506.000000 0.9139 0.9140 0.9141 0.9141 0.9142
3511.000000 0.9142 0.9143 0.9144 0.9144 0.9145
3516.000000 0.9145 0.9146 0.9146 0.9147 0.9147
3521.000000 0.9147 0.9148 0.9149 0.9149 0.9150
3526.000000 0.9150 0.9151 0.9152 0.9152 0.9153
3531.000000 0.9153 0.9154 0.9155 0.9155 0.9156
3536.000000 0.9156 0.9157 0.9157 0.9158 0.9158
3541.000000 0.9158 0.9159 0.9160 0.9160 0.9161
3546.000000 0.9161 0.9162 0.9163 0.9163 0.9164
3551.000000 0.9164 0.9165 0.9166 0.9166 0.9167
3556.000000 0.9167 0.9168 0.9169 0.9169 0.9170
3561.000000 0.9170 0.9171 0.9171 0.9172 0.9172
3566.000000 0.9172 0.9173 0.9173 0.9174 0.9175
3571.000000 0.9175 0.9176 0.9176 0.9177 0.9178
3576.000000 0.9178 0.9179 0.9179 0.9180 0.9181
3581.000000 0.9181 0.9182 0.9182 0.9182 0.9183
3586.000000 0.9183 0.9184 0.9184 0.9185 0.9185
3591.000000 0.9186 0.9187 0.9187 0.9187 0.9187
3596.000000 0.9187 0.9187 0.9188 0.9188 0.9188
3601.000000 0.9188 0.9188 0.9189 0.9189 0.9189
3606.000000 0.9189 0.9189 0.9190 0.9190 0.9190
3611.000000 0.9191 0.9191 0.9192 0.9192 0.9192
3616.000000 0.9192 0.9192 0.9193 0.9193 0.9193
3621.000000 0.9193 0.9193 0.9193 0.9194 0.9194
3626.000000 0.9194 0.9194 0.9194 0.9195 0.9195
3631.000000 0.9195 0.9195 0.9195 0.9227 0.9196
3636.000000 0.9196 0.9196 0.9196 0.9196 0.9197
3641.000000 0.9197 0.9197 0.9197 0.9197 0.9198
3646.000000 0.9198 0.9198 0.9198 0.9198 0.9197
3651.000000 0.9197 0.9197 0.9196 0.9196 0.9195
3656.000000 0.9195 0.9195 0.9195 0.9195 0.9195
3661.000000 0.9194 0.9194 0.9194 0.9193 0.9193
3666.000000 0.9192 0.9192 0.9192 0.9192 0.9192
3671.000000 0.9192 0.9191 0.9191 0.9190 0.9190
3676.000000 0.9190 0.9189 0.9189 0.9189 0.9189
3681.000000 0.9189 0.9188 0.9188 0.9188 0.9187
3686.000000 0.9187 0.9187 0.9186 0.9186 0.9186
3691.000000 0.9186 0.9186 0.9185 0.9185 0.9185
3696.000000 0.9184 0.9184 0.9184 0.9183 0.9183
3701.000000 0.9183 0.9183 0.9183 0.9182 0.9182
3706.000000 0.9182 0.9181 0.9181 0.9181 0.9180
3711.000000 0.9180 0.9179 0.9179 0.9179 0.9178
3716.000000 0.9178 0.9178 0.9178 0.9178 0.9178
3721.000000 0.9177 0.9177 0.9177 0.9176 0.9176
3726.000000 0.9175 0.9175 0.9175 0.9175 0.9175
3731.000000 0.9175 0.9174 0.9174 0.9174 0.9173
3736.000000 0.9173 0.9172 0.9172 0.9172 0.9172
3741.000000 0.9172 0.9172 0.9171 0.9171 0.9171
3746.000000 0.9170 0.9170 0.9170 0.9169 0.9169
3751.000000 0.9169 0.9169 0.9169 0.9168 0.9168
3756.000000 0.9168 0.9167 0.9167 0.9167 0.9166
3761.000000 0.9166 0.9166 0.9166 0.9166 0.9166
3766.000000 0.9165 0.9164 0.9164 0.9163 0.9163
3771.000000 0.9162 0.9162 0.9161 0.9161 0.9160
3776.000000 0.9160 0.9159 0.9159 0.9158 0.9158
3781.000000 0.9157 0.9157 0.9156 0.9155 0.9155
3786.000000 0.9154 0.9153 0.9152 0.9152 0.9151
3791.000000 0.9151 0.9150 0.9150 0.9149 0.9149
3796.000000 0.9148 0.9148 0.9147 0.9147 0.9146
3801.000000 0.9146 0.9145 0.9145 0.9144 0.9144
3806.000000 0.9143 0.9143 0.9142 0.9142 0.9141
3811.000000 0.9140 0.9140 0.9139 0.9139 0.9138
3816.000000 0.9138 0.9137 0.9137 0.9136 0.9136
3821.000000 0.9135 0.9135 0.9134 0.9134 0.9133
3826.000000 0.9132 0.9132 0.9131 0.9130 0.9130
3831.000000 0.9129 0.9129 0.9128 0.9128 0.9127
3836.000000 0.9127 0.9126 0.9126 0.9125 0.9125
3841.000000 0.9124 0.9124 0.9123 0.9123 0.9122
3846.000000 0.9122 0.9121 0.9121 0.9120 0.9120
3851.000000 0.9119 0.9119 0.9118 0.9118 0.9117
3856.000000 0.9117 0.9116 0.9116 0.9115 0.9114
3861.000000 0.9114 0.9113 0.9112 0.9111 0.9111
3866.000000 0.9110 0.9109 0.9108 0.9107 0.9106
3871.000000 0.9106 0.9105 0.9104 0.9103 0.9102
3876.000000 0.9101 0.9101 0.9100 0.9099 0.9098
3881.000000 0.9097 0.9096 0.9096 0.9095 0.9095
3886.000000 0.9094 0.9093 0.9093 0.9092 0.9091
3891.000000 0.9090 0.9089 0.9088 0.9088 0.9087
3896.000000 0.9086 0.9085 0.9084 0.9083 0.9083
3901.000000 0.9082 0.9081 0.9080 0.9079 0.9079
3906.000000 0.9078 0.9077 0.9076 0.9076 0.9075
3911.000000 0.9074 0.9074 0.9073 0.9072 0.9071
3916.000000 0.9071 0.9070 0.9069 0.9068 0.9067
3921.000000 0.9066 0.9066 0.9065 0.9064 0.9063
3926.000000 0.9062 0.9062 0.9061 0.9060 0.9059
3931.000000 0.9058 0.9058 0.9057 0.9056 0.9055
3936.000000 0.9054 0.9054 0.9053 0.9052 0.9052
3941.000000 0.9051 0.9050 0.9050 0.9049 0.9048
3946.000000 0.9047 0.9046 0.9046 0.9045 0.9044
3951.000000 0.9043 0.9042 0.9042 0.9041 0.9040
3956.000000 0.9039 0.9038 0.9038 0.9037 0.9036
3961.000000 0.9035 0.9034 0.9034 0.9033 0.9032
3966.000000 0.9031 0.9030 0.9030 0.9029 0.9028
3971.000000 0.9028 0.9027 0.9026 0.9026 0.9025
3976.000000 0.9024 0.9024 0.9023 0.9022 0.9021
3981.000000 0.9020 0.9020 0.9019 0.9018 0.9017
3986.000000 0.9016 0.9016 0.9015 0.9014 0.9013
3991.000000 0.9013 0.9012 0.9011 0.9010 0.9009
3996.000000 0.9009 0.9008 0.9007 0.9006 0.9006
##END=
