##TITLE=BIS(DISALICYLAL)ETHYLENEDIAMINE, ZINC SALT
##JCAMP-DX=4.24
##DATA TYPE=INFRARED SPECTRUM
##CLASS=COBLENTZ
##ORIGIN=WYANDOTTE CHEMICALS CORP., WYANDOTTE, MICHIGAN, USA
##OWNER=COBLENTZ SOCIETY
Collection (C) 2018 copyright by the U.S. Secretary of Commerce
on behalf of the United States of America. All rights reserved.
##DATE=Not specified, most likely prior to 1970
##MOLFORM=C16 H16 N2 O4 Zn
##SOURCE REFERENCE=COBLENTZ NO. 3863
##$NIST ID=B6003863
##$NIST SOURCE=COBLENTZ
##$NIST IMAGE=cob3863
##SPECTROMETER/DATA SYSTEM=Not specified, most likely a prism, grating, or hybrid spectrometer.
##STATE=SOLID (MINERAL OIL MULL)
##PATH LENGTH=
$$SPECTRAL CONTAMINATION DUE TO OIL AROUND 2900 CM^-^1
##SAMPLING PROCEDURE=TRANSMISSION
##RESOLUTION=4
##DATA PROCESSING=DIGITIZED BY NIST FROM HARD COPY
##XUNITS=MICROMETERS
##YUNITS=TRANSMITTANCE
##XFACTOR=1.000000
##YFACTOR=1
##DELTAX=000.006214
##FIRSTX=2.012
##LASTX=15.994
##FIRSTY=0.359
##MAXX=15.994
##MINX=2.012
##MAXY=0.981
##MINY=0.023
##NPOINTS=2251
##XYDATA=(X++(Y..Y))
2.012000 0.3590 0.3620 0.3670 0.3680 0.3700
2.043083 0.3730 0.3760 0.3770 0.3810 0.3870
2.075000 0.3900 0.3960 0.3980 0.3980 0.3990
2.106083 0.4010 0.4070 0.4120 0.4160 0.4180
2.137000 0.4240 0.4270 0.4290 0.4350 0.4380
2.168083 0.4410 0.4430 0.4440 0.4470 0.4510
2.199000 0.4540 0.4540 0.4570 0.4580 0.4580
2.230083 0.4600 0.4610 0.4630 0.4630 0.4660
2.261000 0.4680 0.4690 0.4740 0.4770 0.4790
2.292083 0.4790 0.4800 0.4850 0.4880 0.4910
2.323000 0.4930 0.4940 0.4970 0.4990 0.5050
2.354083 0.5110 0.5110 0.5160 0.5200 0.5220
2.385000 0.5240 0.5240 0.5270 0.5280 0.5280
2.416083 0.5300 0.5300 0.5310 0.5330 0.5330
2.447000 0.5340 0.5340 0.5360 0.5360 0.5380
2.478083 0.5390 0.5390 0.5420 0.5450 0.5450
2.510000 0.5470 0.5470 0.5500 0.5530 0.5560
2.541083 0.5640 0.5690 0.5720 0.5760 0.5800
2.572000 0.5830 0.5860 0.5900 0.5940 0.5970
2.603083 0.6000 0.6000 0.6010 0.6040 0.6040
2.634000 0.6080 0.6110 0.6120 0.6150 0.6170
2.665083 0.6170 0.6180 0.6220 0.6280 0.6280
2.696000 0.6290 0.6290 0.6290 0.6290 0.6290
2.727083 0.6310 0.6320 0.6320 0.6340 0.6360
2.758000 0.6360 0.6360 0.6370 0.6360 0.6340
2.789083 0.6310 0.6290 0.6260 0.6220 0.6180
2.820000 0.6140 0.6120 0.6080 0.6010 0.5980
2.851083 0.6000 0.5970 0.5950 0.5900 0.5890
2.882000 0.5870 0.5860 0.5830 0.5800 0.5730
2.913083 0.5690 0.5640 0.5610 0.5580 0.5530
2.945000 0.5500 0.5480 0.5420 0.5360 0.5310
2.976083 0.5280 0.5240 0.5190 0.5140 0.5080
3.007000 0.5000 0.4940 0.4830 0.4800 0.4710
3.038083 0.4580 0.4440 0.4320 0.4240 0.4120
3.069000 0.3990 0.3910 0.3740 0.3630 0.3540
3.100083 0.3450 0.3370 0.3280 0.3210 0.3170
3.131000 0.3060 0.3010 0.2890 0.2780 0.2650
3.162083 0.2550 0.2450 0.2360 0.2270 0.2170
3.193000 0.2090 0.2020 0.1950 0.1880 0.1860
3.224083 0.1810 0.1740 0.1660 0.1570 0.1460
3.255000 0.1380 0.1290 0.1220 0.1190 0.1150
3.286083 0.1080 0.1010 0.0970 0.0910 0.0880
3.317000 0.0830 0.0790 0.0770 0.0710 0.0630
3.348083 0.0570 0.0490 0.0460 0.0400 0.0350
3.379000 0.0320 0.0310 0.0310 0.0290 0.0290
3.410083 0.0270 0.0270 0.0260 0.0260 0.0230
3.442000 0.0230 0.0240 0.0260 0.0270 0.0270
3.473083 0.0270 0.0270 0.0270 0.0270 0.0270
3.504000 0.0290 0.0290 0.0320 0.0380 0.0490
3.535083 0.0550 0.0760 0.0940 0.1050 0.1210
3.566000 0.1290 0.1440 0.1520 0.1610 0.1640
3.597083 0.1710 0.1780 0.1890 0.1950 0.2000
3.628000 0.2050 0.2130 0.2200 0.2280 0.2340
3.659083 0.2410 0.2420 0.2480 0.2500 0.2530
3.690000 0.2610 0.2690 0.2750 0.2830 0.2900
3.721083 0.2980 0.3040 0.3120 0.3250 0.3310
3.752000 0.3370 0.3420 0.3480 0.3480 0.3490
3.783083 0.3490 0.3510 0.3510 0.3540 0.3620
3.814000 0.3710 0.3810 0.3880 0.3990 0.4150
3.845083 0.4210 0.4290 0.4370 0.4440 0.4510
3.877000 0.4520 0.4580 0.4610 0.4690 0.4750
3.908083 0.4790 0.4830 0.4890 0.4960 0.4970
3.939000 0.5000 0.5060 0.5110 0.5170 0.5220
3.970083 0.5270 0.5280 0.5300 0.5310 0.5360
4.001000 0.5390 0.5450 0.5500 0.5560 0.5610
4.032083 0.5670 0.5700 0.5730 0.5760 0.5800
4.063000 0.5810 0.5830 0.5890 0.5980 0.6080
4.094083 0.6080 0.6090 0.6090 0.6090 0.6090
4.125000 0.6110 0.6110 0.6110 0.6120 0.6120
4.156083 0.6150 0.6180 0.6250 0.6320 0.6370
4.187000 0.6420 0.6430 0.6460 0.6480 0.6510
4.218083 0.6540 0.6570 0.6590 0.6600 0.6600
4.249000 0.6570 0.6510 0.6460 0.6450 0.6450
4.280083 0.6460 0.6500 0.6540 0.6590 0.6670
4.312000 0.6710 0.6760 0.6790 0.6850 0.6920
4.343083 0.6980 0.7020 0.7090 0.7150 0.7210
4.374000 0.7270 0.7350 0.7410 0.7490 0.7550
4.405083 0.7630 0.7720 0.7770 0.7800 0.7800
4.436000 0.7800 0.7790 0.7760 0.7740 0.7760
4.467083 0.7800 0.7850 0.7900 0.7910 0.7940
4.498000 0.7970 0.7990 0.7990 0.7990 0.7990
4.529083 0.8000 0.8020 0.8020 0.8040 0.8050
4.560000 0.8140 0.8160 0.8190 0.8210 0.8210
4.591083 0.8220 0.8240 0.8270 0.8280 0.8300
4.622000 0.8300 0.8320 0.8330 0.8330 0.8360
4.653083 0.8410 0.8470 0.8490 0.8500 0.8520
4.684000 0.8530 0.8600 0.8690 0.8740 0.8810
4.715083 0.8830 0.8840 0.8880 0.8920 0.8970
4.747000 0.9000 0.9000 0.9030 0.9030 0.9030
4.778083 0.9050 0.9050 0.9050 0.9060 0.9080
4.809000 0.9120 0.9160 0.9190 0.9200 0.9200
4.840083 0.9220 0.9230 0.9250 0.9260 0.9280
4.871000 0.9280 0.9300 0.9310 0.9340 0.9340
4.902083 0.9340 0.9360 0.9360 0.9370 0.9400
4.933000 0.9420 0.9440 0.9450 0.9450 0.9480
4.964083 0.9480 0.9480 0.9480 0.9480 0.9500
4.995000 0.9500 0.9500 0.9530 0.9530 0.9510
5.026083 0.9510 0.9530 0.9530 0.9530 0.9540
5.057000 0.9540 0.9560 0.9580 0.9590 0.9610
5.088083 0.9620 0.9680 0.9680 0.9680 0.9680
5.119000 0.9680 0.9670 0.9670 0.9670 0.9680
5.150083 0.9680 0.9650 0.9640 0.9620 0.9640
5.182000 0.9640 0.9620 0.9610 0.9510 0.9390
5.213083 0.9260 0.9170 0.9170 0.9190 0.9200
5.244000 0.9330 0.9400 0.9480 0.9500 0.9500
5.275083 0.9480 0.9450 0.9370 0.9340 0.9310
5.306000 0.9340 0.9420 0.9510 0.9610 0.9700
5.337083 0.9780 0.9790 0.9810 0.9810 0.9780
5.368000 0.9670 0.9510 0.9450 0.9450 0.9470
5.399083 0.9580 0.9650 0.9720 0.9750 0.9730
5.430000 0.9730 0.9720 0.9700 0.9700 0.9680
5.461083 0.9680 0.9680 0.9680 0.9680 0.9640
5.492000 0.9560 0.9500 0.9440 0.9360 0.9300
5.523083 0.9230 0.9160 0.9080 0.9060 0.9080
5.554000 0.9120 0.9170 0.9200 0.9200 0.9140
5.585083 0.9110 0.9050 0.8920 0.8830 0.8720
5.617000 0.8610 0.8550 0.8500 0.8470 0.8470
5.648083 0.8490 0.8530 0.8600 0.8640 0.8690
5.679000 0.8700 0.8690 0.8610 0.8580 0.8520
5.710083 0.8460 0.8350 0.8240 0.8140 0.8100
5.741000 0.8020 0.7930 0.7760 0.7580 0.7480
5.772083 0.7430 0.7400 0.7350 0.7270 0.7180
5.803000 0.7070 0.6980 0.6960 0.6920 0.6870
5.834083 0.6740 0.6540 0.6430 0.6260 0.6150
5.865000 0.6030 0.5970 0.5920 0.5890 0.5750
5.896083 0.5560 0.5300 0.5020 0.4690 0.4440
5.927000 0.4210 0.4040 0.3850 0.3650 0.3480
5.958083 0.3320 0.3150 0.2950 0.2720 0.2440
5.989000 0.2130 0.1740 0.1290 0.0880 0.0540
6.020083 0.0370 0.0320 0.0310 0.0310 0.0320
6.051000 0.0340 0.0320 0.0310 0.0290 0.0270
6.082083 0.0270 0.0270 0.0290 0.0290 0.0310
6.114000 0.0340 0.0460 0.0660 0.0970 0.1160
6.145083 0.1440 0.1690 0.2000 0.2310 0.2510
6.176000 0.2580 0.2530 0.2200 0.1780 0.1300
6.207083 0.0820 0.0570 0.0570 0.0620 0.1040
6.238000 0.1490 0.1910 0.2310 0.2650 0.2980
6.269083 0.3260 0.3450 0.3560 0.3700 0.3850
6.300000 0.3960 0.4100 0.4210 0.4290 0.4290
6.331083 0.4320 0.4330 0.4350 0.4380 0.4380
6.362000 0.4400 0.4460 0.4540 0.4610 0.4680
6.393083 0.4690 0.4690 0.4400 0.3790 0.3250
6.424000 0.2870 0.2450 0.1970 0.1610 0.1380
6.455083 0.1210 0.1100 0.1080 0.1100 0.1250
6.486000 0.1550 0.1970 0.2270 0.2690 0.3000
6.517083 0.3210 0.3370 0.3430 0.3560 0.3650
6.549000 0.3760 0.3960 0.4270 0.4660 0.5100
6.580083 0.5450 0.5720 0.5760 0.5950 0.6150
6.611000 0.6290 0.6540 0.6570 0.6570 0.6570
6.642083 0.6540 0.6480 0.6400 0.6320 0.6220
6.673000 0.6080 0.5940 0.5800 0.5640 0.5480
6.704083 0.5310 0.4940 0.4520 0.4040 0.3400
6.735000 0.2810 0.2090 0.1490 0.1050 0.0770
6.766083 0.0460 0.0350 0.0270 0.0260 0.0270
6.797000 0.0400 0.0490 0.0570 0.0630 0.0650
6.828083 0.0650 0.0540 0.0510 0.0460 0.0410
6.859000 0.0270 0.0260 0.0240 0.0240 0.0240
6.890083 0.0240 0.0240 0.0260 0.0270 0.0310
6.921000 0.0370 0.0400 0.0490 0.0650 0.0870
6.952083 0.1190 0.1460 0.1830 0.2310 0.2840
6.984000 0.3180 0.3540 0.3910 0.4260 0.4570
7.015083 0.4770 0.4970 0.5030 0.5130 0.5280
7.046000 0.5380 0.5440 0.5440 0.5410 0.5340
7.077083 0.5240 0.5050 0.4890 0.4690 0.4400
7.108000 0.3990 0.3490 0.3000 0.2450 0.2080
7.139083 0.1610 0.1390 0.1180 0.0970 0.0880
7.170000 0.0710 0.0680 0.0690 0.0800 0.1110
7.201083 0.1350 0.1810 0.2310 0.2640 0.2810
7.232000 0.2890 0.2890 0.2900 0.2920 0.2980
7.263083 0.3120 0.3370 0.3700 0.4150 0.4490
7.294000 0.4790 0.4970 0.5080 0.5160 0.5240
7.325083 0.5340 0.5550 0.5720 0.5980 0.6030
7.356000 0.6030 0.6010 0.5940 0.5700 0.5410
7.387083 0.5080 0.4380 0.4090 0.3420 0.2390
7.419000 0.1910 0.1410 0.0910 0.0620 0.0460
7.450083 0.0350 0.0320 0.0320 0.0380 0.0480
7.481000 0.0550 0.0690 0.0850 0.1070 0.1300
7.512083 0.1610 0.2090 0.2530 0.2950 0.3310
7.543000 0.3400 0.3400 0.3370 0.3120 0.2790
7.574083 0.2500 0.2200 0.1970 0.1710 0.1410
7.605000 0.1130 0.0910 0.0850 0.0710 0.0590
7.636083 0.0480 0.0460 0.0460 0.0460 0.0450
7.667000 0.0430 0.0410 0.0410 0.0430 0.0520
7.698083 0.0650 0.0900 0.1130 0.1360 0.1570
7.729000 0.1810 0.2130 0.2310 0.2480 0.2670
7.760083 0.2970 0.3390 0.3670 0.3990 0.4130
7.791000 0.4470 0.4740 0.5020 0.5360 0.5480
7.822083 0.5640 0.5840 0.6010 0.6150 0.6280
7.854000 0.6320 0.6430 0.6500 0.6540 0.6600
7.885083 0.6640 0.6670 0.6700 0.6700 0.6680
7.916000 0.6560 0.6450 0.6290 0.6150 0.6040
7.947083 0.5950 0.5870 0.5800 0.5720 0.5700
7.978000 0.5720 0.5730 0.5730 0.5720 0.5580
8.009083 0.5280 0.5030 0.4860 0.4850 0.4890
8.040000 0.5190 0.5450 0.5860 0.6090 0.6360
8.071083 0.6480 0.6540 0.6600 0.6620 0.6640
8.102000 0.6600 0.6560 0.6500 0.6460 0.6420
8.133083 0.6390 0.6320 0.6280 0.6260 0.6220
8.164000 0.6170 0.6110 0.6000 0.6000 0.5980
8.195083 0.5970 0.5970 0.6000 0.6150 0.6280
8.226000 0.6280 0.6290 0.6280 0.6140 0.5970
8.257083 0.5800 0.5640 0.5480 0.5300 0.5140
8.289000 0.5030 0.4990 0.4910 0.4850 0.4790
8.320083 0.4650 0.4430 0.4050 0.3630 0.3010
8.351000 0.2450 0.1710 0.1250 0.0910 0.0660
8.382083 0.0520 0.0510 0.0550 0.0650 0.0960
8.413000 0.1320 0.1580 0.1970 0.2410 0.2900
8.444083 0.3430 0.3880 0.4260 0.4740 0.5110
8.475000 0.5470 0.5760 0.6030 0.6260 0.6460
8.506083 0.6640 0.6790 0.6930 0.7060 0.7230
8.537000 0.7290 0.7350 0.7410 0.7460 0.7490
8.568083 0.7570 0.7600 0.7620 0.7600 0.7440
8.599000 0.7290 0.7090 0.6820 0.6390 0.5700
8.630083 0.4650 0.3650 0.3000 0.2060 0.1460
8.661000 0.0900 0.0800 0.0870 0.1210 0.1670
8.692083 0.2250 0.2950 0.3710 0.4240 0.5000
8.723000 0.5480 0.5800 0.5980 0.6150 0.6340
8.754083 0.6540 0.6650 0.6740 0.6840 0.6850
8.786000 0.6870 0.6790 0.6530 0.5940 0.5500
8.817083 0.5000 0.4380 0.3540 0.2730 0.1990
8.848000 0.1500 0.1390 0.1390 0.1460 0.1890
8.879083 0.2370 0.2930 0.3700 0.4350 0.4990
8.910000 0.5530 0.5890 0.6180 0.6450 0.6600
8.941083 0.6710 0.6790 0.6870 0.6950 0.6990
8.972000 0.7040 0.7070 0.7070 0.7060 0.7040
9.003083 0.6990 0.6960 0.6900 0.6870 0.6810
9.034000 0.6710 0.6640 0.6500 0.6390 0.6290
9.065083 0.6110 0.5970 0.5730 0.5500 0.5020
9.096000 0.4690 0.4350 0.4240 0.4210 0.4290
9.127083 0.4510 0.4860 0.5240 0.5560 0.5860
9.158000 0.6090 0.6250 0.6390 0.6500 0.6570
9.189083 0.6620 0.6670 0.6700 0.6740 0.6780
9.221000 0.6780 0.6760 0.6710 0.6670 0.6560
9.252083 0.6450 0.6390 0.6310 0.6250 0.6220
9.283000 0.6220 0.6250 0.6310 0.6400 0.6480
9.314083 0.6540 0.6600 0.6640 0.6670 0.6710
9.345000 0.6760 0.6790 0.6810 0.6810 0.6820
9.376083 0.6820 0.6820 0.6820 0.6810 0.6780
9.407000 0.6640 0.6530 0.6390 0.6230 0.6000
9.438083 0.5690 0.5250 0.4750 0.4150 0.3740
9.469000 0.3310 0.2890 0.2730 0.2730 0.2790
9.500083 0.3090 0.3460 0.3790 0.4290 0.4710
9.531000 0.5080 0.5390 0.5670 0.5900 0.6090
9.562083 0.6250 0.6370 0.6460 0.6540 0.6570
9.593000 0.6540 0.6500 0.6310 0.6040 0.5840
9.624083 0.5440 0.4850 0.4190 0.3480 0.2890
9.656000 0.2300 0.2140 0.2140 0.2220 0.2720
9.687083 0.3200 0.3760 0.4370 0.4940 0.5440
9.718000 0.5750 0.6010 0.6220 0.6370 0.6510
9.749083 0.6620 0.6700 0.6790 0.6870 0.6950
9.780000 0.6990 0.7020 0.7060 0.7090 0.7100
9.811083 0.7120 0.7130 0.7180 0.7180 0.7210
9.842000 0.7210 0.7200 0.7200 0.7200 0.7210
9.873083 0.7270 0.7290 0.7320 0.7320 0.7340
9.904000 0.7340 0.7350 0.7370 0.7380 0.7370
9.935083 0.7380 0.7380 0.7380 0.7380 0.7380
9.966000 0.7400 0.7400 0.7400 0.7400 0.7410
9.997083 0.7430 0.7460 0.7480 0.7480 0.7480
10.028000 0.7440 0.7430 0.7400 0.7370 0.7300
10.059083 0.7240 0.7150 0.7020 0.6710 0.6360
10.091000 0.5860 0.5250 0.4650 0.4050 0.3710
10.122083 0.3670 0.3700 0.4130 0.4750 0.5140
10.153000 0.5610 0.5900 0.6060 0.6200 0.6230
10.184083 0.6230 0.6220 0.6120 0.6040 0.5940
10.215000 0.5780 0.5700 0.5660 0.5660 0.5690
10.246083 0.5810 0.5900 0.5970 0.6040 0.6080
10.277000 0.6090 0.6090 0.6090 0.6090 0.6090
10.308083 0.6090 0.6110 0.6110 0.6120 0.6170
10.339000 0.6220 0.6290 0.6320 0.6390 0.6390
10.370083 0.6400 0.6400 0.6400 0.6400 0.6400
10.401000 0.6390 0.6340 0.6320 0.6280 0.6250
10.432083 0.6150 0.6040 0.6010 0.5980 0.5920
10.463000 0.5860 0.5760 0.5700 0.5640 0.5560
10.494083 0.5470 0.5340 0.5240 0.5100 0.4960
10.526000 0.4820 0.4660 0.4490 0.4270 0.4010
10.557083 0.3700 0.3450 0.3110 0.2790 0.2560
10.588000 0.2420 0.2270 0.2230 0.2270 0.2310
10.619083 0.2370 0.2480 0.2560 0.2730 0.2890
10.650000 0.2980 0.3070 0.3120 0.3180 0.3230
10.681083 0.3250 0.3260 0.3260 0.3260 0.3260
10.712000 0.3280 0.3310 0.3370 0.3430 0.3490
10.743083 0.3530 0.3600 0.3650 0.3730 0.3810
10.774000 0.3930 0.4020 0.4120 0.4190 0.4290
10.805083 0.4380 0.4460 0.4520 0.4600 0.4660
10.836000 0.4740 0.4820 0.4890 0.4930 0.4990
10.867083 0.5030 0.5110 0.5190 0.5250 0.5310
10.898000 0.5340 0.5340 0.5380 0.5410 0.5450
10.929083 0.5520 0.5580 0.5620 0.5670 0.5690
10.960000 0.5700 0.5720 0.5720 0.5720 0.5700
10.991083 0.5620 0.5530 0.5410 0.5280 0.5110
11.023000 0.4890 0.4650 0.4350 0.3980 0.3560
11.054083 0.3040 0.2620 0.2110 0.1530 0.1270
11.085000 0.0990 0.0820 0.0660 0.0630 0.0660
11.116083 0.0790 0.0990 0.1250 0.1520 0.1660
11.147000 0.1950 0.2370 0.2790 0.3110 0.3510
11.178083 0.3760 0.3980 0.4090 0.4320 0.4550
11.209000 0.4740 0.4890 0.4960 0.5060 0.5240
11.240083 0.5340 0.5440 0.5550 0.5670 0.5760
11.271000 0.5870 0.5950 0.6000 0.6030 0.6040
11.302083 0.6090 0.6110 0.6120 0.6140 0.6150
11.333000 0.6180 0.6230 0.6290 0.6340 0.6390
11.364083 0.6390 0.6400 0.6430 0.6460 0.6530
11.395000 0.6570 0.6640 0.6670 0.6700 0.6710
11.426083 0.6790 0.6840 0.6880 0.6950 0.6990
11.458000 0.7020 0.7070 0.7120 0.7180 0.7230
11.489083 0.7270 0.7320 0.7370 0.7380 0.7400
11.520000 0.7410 0.7430 0.7440 0.7460 0.7460
11.551083 0.7460 0.7460 0.7460 0.7460 0.7460
11.582000 0.7460 0.7460 0.7440 0.7430 0.7410
11.613083 0.7400 0.7400 0.7410 0.7410 0.7400
11.644000 0.7400 0.7380 0.7370 0.7370 0.7350
11.675083 0.7270 0.7150 0.6980 0.6820 0.6650
11.706000 0.6500 0.6320 0.6150 0.5940 0.5720
11.737083 0.5440 0.5240 0.4990 0.4960 0.4960
11.768000 0.4990 0.5300 0.5580 0.5890 0.6230
11.799083 0.6560 0.6850 0.7040 0.7090 0.7240
11.830000 0.7300 0.7340 0.7350 0.7370 0.7370
11.861083 0.7320 0.7270 0.7230 0.7180 0.7130
11.893000 0.7070 0.7060 0.7060 0.7070 0.7120
11.924083 0.7180 0.7240 0.7300 0.7370 0.7410
11.955000 0.7480 0.7520 0.7570 0.7620 0.7630
11.986083 0.7630 0.7650 0.7660 0.7680 0.7690
12.017000 0.7710 0.7720 0.7720 0.7740 0.7740
12.048083 0.7760 0.7760 0.7770 0.7800 0.7830
12.079000 0.7860 0.7880 0.7930 0.7970 0.7990
12.110083 0.7990 0.8000 0.8000 0.8020 0.8050
12.141000 0.8100 0.8160 0.8180 0.8190 0.8210
12.172083 0.8210 0.8220 0.8220 0.8240 0.8250
12.203000 0.8280 0.8300 0.8300 0.8320 0.8320
12.234083 0.8320 0.8320 0.8300 0.8300 0.8300
12.265000 0.8300 0.8300 0.8300 0.8320 0.8320
12.296083 0.8320 0.8330 0.8330 0.8360 0.8390
12.328000 0.8390 0.8410 0.8410 0.8420 0.8420
12.359083 0.8420 0.8410 0.8420 0.8420 0.8420
12.390000 0.8440 0.8420 0.8420 0.8420 0.8410
12.421083 0.8410 0.8390 0.8390 0.8390 0.8380
12.452000 0.8380 0.8380 0.8380 0.8360 0.8350
12.483083 0.8320 0.8300 0.8270 0.8220 0.8220
12.514000 0.8210 0.8180 0.8140 0.8140 0.8130
12.545083 0.8130 0.8110 0.8050 0.8000 0.7970
12.576000 0.7900 0.7820 0.7740 0.7650 0.7570
12.607083 0.7480 0.7370 0.7240 0.7120 0.6960
12.638000 0.6780 0.6570 0.6430 0.6250 0.6010
12.669083 0.5750 0.5480 0.5220 0.4990 0.4800
12.700000 0.4650 0.4550 0.4460 0.4400 0.4380
12.731083 0.4380 0.4400 0.4460 0.4550 0.4600
12.763000 0.4650 0.4720 0.4750 0.4770 0.4770
12.794083 0.4790 0.4800 0.4860 0.4940 0.5060
12.825000 0.5240 0.5410 0.5590 0.5810 0.6010
12.856083 0.6200 0.6360 0.6510 0.6640 0.6760
12.887000 0.6870 0.6980 0.7040 0.7100 0.7130
12.918083 0.7210 0.7260 0.7300 0.7340 0.7340
12.949000 0.7350 0.7370 0.7370 0.7370 0.7370
12.980083 0.7370 0.7370 0.7320 0.7230 0.7120
13.011000 0.6980 0.6850 0.6730 0.6590 0.6450
13.042083 0.6280 0.6040 0.5860 0.5480 0.5140
13.073000 0.4790 0.4350 0.3980 0.3490 0.3010
13.104083 0.2580 0.2140 0.1740 0.1360 0.1100
13.135000 0.0970 0.0870 0.0830 0.0870 0.1040
13.166083 0.1210 0.1240 0.1910 0.2200 0.2410
13.198000 0.2760 0.3060 0.3320 0.3540 0.3590
13.229083 0.3600 0.3590 0.3490 0.3310 0.3090
13.260000 0.2890 0.2510 0.2300 0.1950 0.1640
13.291083 0.1410 0.1100 0.0960 0.0790 0.0660
13.322000 0.0590 0.0520 0.0520 0.0590 0.0740
13.353083 0.0870 0.1070 0.1320 0.1610 0.1990
13.384000 0.2390 0.2830 0.3260 0.3700 0.4070
13.415083 0.4380 0.4610 0.4820 0.4960 0.5050
13.446000 0.5080 0.5080 0.5030 0.4990 0.4890
13.477083 0.4740 0.4510 0.4190 0.3930 0.3600
13.508000 0.3250 0.2890 0.2510 0.2140 0.1810
13.539083 0.1520 0.1270 0.1100 0.0990 0.0970
13.570000 0.0990 0.1080 0.1250 0.1520 0.1830
13.601083 0.2200 0.2620 0.3090 0.3560 0.3950
13.632000 0.4260 0.4750 0.5140 0.5480 0.5800
13.663083 0.6030 0.6260 0.6460 0.6620 0.6760
13.695000 0.6920 0.7010 0.7150 0.7240 0.7340
13.726083 0.7400 0.7430 0.7480 0.7540 0.7600
13.757000 0.7620 0.7650 0.7680 0.7710 0.7720
13.788083 0.7760 0.7770 0.7800 0.7820 0.7860
13.819000 0.7880 0.7900 0.7900 0.7910 0.7930
13.850083 0.7940 0.7940 0.7960 0.7960 0.7990
13.881000 0.7990 0.8000 0.8000 0.8020 0.8020
13.912083 0.8050 0.8080 0.8130 0.8210 0.8220
13.943000 0.8320 0.8360 0.8390 0.8420 0.8460
13.974083 0.8490 0.8520 0.8550 0.8580 0.8610
14.005000 0.8640 0.8670 0.8690 0.8740 0.8780
14.036083 0.8810 0.8830 0.8880 0.8910 0.8920
14.067000 0.8950 0.8980 0.8980 0.9000 0.9020
14.098083 0.9020 0.9030 0.9030 0.9060 0.9060
14.130000 0.9080 0.9080 0.9080 0.9080 0.9080
14.161083 0.9080 0.9080 0.9080 0.9080 0.9080
14.192000 0.9080 0.9090 0.9080 0.9080 0.9080
14.223083 0.9080 0.9080 0.9090 0.9090 0.9090
14.254000 0.9110 0.9120 0.9120 0.9160 0.9170
14.285083 0.9170 0.9170 0.9170 0.9190 0.9190
14.316000 0.9200 0.9220 0.9220 0.9230 0.9250
14.347083 0.9280 0.9280 0.9250 0.9250 0.9250
14.378000 0.9250 0.9260 0.9250 0.9250 0.9250
14.409083 0.9260 0.9260 0.9280 0.9280 0.9280
14.440000 0.9280 0.9280 0.9280 0.9280 0.9260
14.471083 0.9230 0.9220 0.9200 0.9190 0.9190
14.502000 0.9190 0.9190 0.9190 0.9190 0.9190
14.533083 0.9160 0.9140 0.9110 0.9090 0.9090
14.565000 0.9090 0.9090 0.9080 0.9080 0.9080
14.596083 0.9080 0.9060 0.9050 0.9030 0.9030
14.627000 0.9030 0.9020 0.9020 0.9020 0.9000
14.658083 0.9000 0.8980 0.8980 0.8970 0.8970
14.689000 0.8970 0.8970 0.8950 0.8950 0.8950
14.720083 0.8940 0.8890 0.8810 0.8770 0.8740
14.751000 0.8720 0.8700 0.8700 0.8690 0.8670
14.782083 0.8670 0.8640 0.8610 0.8580 0.8560
14.813000 0.8560 0.8560 0.8550 0.8550 0.8530
14.844083 0.8520 0.8520 0.8500 0.8500 0.8490
14.875000 0.8470 0.8470 0.8470 0.8470 0.8470
14.906083 0.8470 0.8470 0.8470 0.8470 0.8470
14.937000 0.8490 0.8490 0.8490 0.8470 0.8460
14.968083 0.8420 0.8410 0.8350 0.8250 0.8140
15.000000 0.8000 0.7900 0.7660 0.7620 0.7540
15.031083 0.7460 0.7370 0.7290 0.7230 0.7180
15.062000 0.7120 0.7090 0.7090 0.7070 0.7060
15.093083 0.7060 0.7070 0.7090 0.7100 0.7150
15.124000 0.7210 0.7290 0.7340 0.7370 0.7400
15.155083 0.7430 0.7480 0.7490 0.7510 0.7570
15.186000 0.7570 0.7580 0.7600 0.7580 0.7580
15.217083 0.7570 0.7510 0.7490 0.7480 0.7480
15.248000 0.7460 0.7430 0.7410 0.7380 0.7370
15.279083 0.7340 0.7320 0.7300 0.7300 0.7270
15.310000 0.7230 0.7200 0.7130 0.7100 0.7040
15.341083 0.7010 0.6980 0.6950 0.6900 0.6870
15.372000 0.6790 0.6710 0.6650 0.6560 0.6510
15.403083 0.6460 0.6390 0.6310 0.6230 0.6150
15.435000 0.6060 0.5970 0.5890 0.5800 0.5690
15.466083 0.5590 0.5470 0.5360 0.5250 0.5140
15.497000 0.5050 0.4990 0.4910 0.4860 0.4820
15.528083 0.4790 0.4740 0.4720 0.4710 0.4720
15.559000 0.4740 0.4750 0.4790 0.4820 0.4880
15.590083 0.4940 0.5030 0.5140 0.5220 0.5280
15.621000 0.5360 0.5410 0.5470 0.5500 0.5560
15.652083 0.5620 0.5670 0.5700 0.5730 0.5750
15.683000 0.5750 0.5750 0.5780 0.5780 0.5780
15.714083 0.5780 0.5780 0.5780 0.5780 0.5780
15.745000 0.5780 0.5780 0.5780 0.5780 0.5780
15.776083 0.5780 0.5780 0.5780 0.5780 0.5780
15.807000 0.5780 0.5750 0.5750 0.5750 0.5750
15.838083 0.5730 0.5730 0.5730 0.5720 0.5720
15.870000 0.5720 0.5720 0.5730 0.5730 0.5720
15.901083 0.5720 0.5720 0.5720 0.5700 0.5700
15.932000 0.5700 0.5700 0.5670 0.5620 0.5580
15.963083 0.5520 0.5480 0.5450 0.5410 0.5410
15.994000 0.5380
##END=
