##TITLE=2-(N-METHYLANILINO)-3-(n-HEXYL) PYRAZINE
##JCAMP-DX=4.24
##DATA TYPE=INFRARED SPECTRUM
##CLASS=COBLENTZ
##ORIGIN=WYANDOTTE CHEMICALS CORP., WYANDOTTE, MICHIGAN, USA
##OWNER=COBLENTZ SOCIETY
Collection (C) 2018 copyright by the U.S. Secretary of Commerce
on behalf of the United States of America. All rights reserved.
##DATE=Not specified, most likely prior to 1970
##NAMES=N-(3-hexyl-2-pyrazinyl)-N-methyl-N-phenylamine
3-hexyl-N-methyl-N-phenyl-2-pyrazinamine
##MOLFORM=C17 H23 N3
##SOURCE REFERENCE=COBLENTZ NO. 2792
##$NIST ID=B6002792
##$NIST SOURCE=COBLENTZ
##$NIST IMAGE=cob2792
##SPECTROMETER/DATA SYSTEM=Not specified, most likely a prism, grating, or hybrid spectrometer.
##STATE=LIQUID
##PATH LENGTH=0.0015 CM
##SAMPLING PROCEDURE=TRANSMISSION
##RESOLUTION=4
##DATA PROCESSING=DIGITIZED BY NIST FROM HARD COPY
##XUNITS=MICROMETERS
##YUNITS=TRANSMITTANCE
##XFACTOR=1.000000
##YFACTOR=1
##DELTAX=000.006635
##FIRSTX=2.08
##LASTX=15.9802
##FIRSTY=0.946
##MAXX=15.9802
##MINX=2.08
##MAXY=0.95
##MINY=0.048
##NPOINTS=2096
##XYDATA=(X++(Y..Y))
2.080000 0.9460 0.9450 0.9450 0.9450 0.9450
2.113191 0.9430 0.9430 0.9430 0.9410 0.9410
2.146000 0.9410 0.9400 0.9400 0.9400 0.9380
2.179191 0.9360 0.9280 0.9270 0.9220 0.9170
2.212000 0.9080 0.8980 0.8970 0.8970 0.8970
2.245191 0.8970 0.8970 0.8980 0.9000 0.9020
2.279000 0.9030 0.9030 0.9050 0.9050 0.9050
2.312191 0.9050 0.9070 0.9080 0.9100 0.9100
2.345000 0.9100 0.9100 0.9080 0.9030 0.8980
2.378191 0.8950 0.8950 0.8950 0.9000 0.9080
2.411000 0.9120 0.9150 0.9200 0.9230 0.9280
2.444191 0.9280 0.9280 0.9280 0.9270 0.9270
2.478000 0.9270 0.9280 0.9280 0.9300 0.9300
2.511191 0.9320 0.9320 0.9320 0.9350 0.9380
2.544000 0.9430 0.9480 0.9480 0.9500 0.9500
2.577191 0.9500 0.9480 0.9400 0.9380 0.9380
2.610000 0.9380 0.9380 0.9400 0.9400 0.9410
2.643191 0.9410 0.9400 0.9380 0.9380 0.9380
2.677000 0.9380 0.9380 0.9400 0.9410 0.9410
2.710191 0.9360 0.9350 0.9350 0.9330 0.9330
2.743000 0.9330 0.9320 0.9300 0.9300 0.9280
2.776191 0.9280 0.9270 0.9250 0.9220 0.9220
2.809000 0.9180 0.9180 0.9180 0.9170 0.9170
2.842191 0.9150 0.9150 0.9130 0.9100 0.9080
2.876000 0.9000 0.8900 0.8870 0.8850 0.8830
2.909191 0.8780 0.8780 0.8780 0.8780 0.8780
2.942000 0.8780 0.8780 0.8750 0.8730 0.8680
2.975191 0.8680 0.8680 0.8640 0.8620 0.8600
3.009000 0.8570 0.8540 0.8520 0.8500 0.8450
3.042191 0.8450 0.8440 0.8440 0.8440 0.8440
3.075000 0.8420 0.8400 0.8400 0.8390 0.8390
3.108191 0.8390 0.8350 0.8290 0.8270 0.8270
3.141000 0.8240 0.8200 0.8200 0.8190 0.8150
3.174191 0.8140 0.8100 0.8090 0.7970 0.7840
3.208000 0.7610 0.7440 0.7160 0.6840 0.6510
3.241191 0.6210 0.5930 0.5380 0.4690 0.4090
3.274000 0.3590 0.3580 0.3590 0.4210 0.4640
3.307191 0.4870 0.4870 0.4690 0.4120 0.3310
3.340000 0.2580 0.1840 0.1120 0.0490 0.0480
3.373191 0.0480 0.0490 0.0490 0.0490 0.0510
3.407000 0.0530 0.0560 0.0590 0.0640 0.0740
3.440191 0.0860 0.0990 0.1190 0.1190 0.1190
3.473000 0.1110 0.1010 0.0920 0.0910 0.0940
3.506191 0.1310 0.1790 0.2330 0.2710 0.3830
3.539000 0.4390 0.4950 0.5400 0.5730 0.6030
3.572191 0.6300 0.6530 0.6690 0.6860 0.6980
3.606000 0.7110 0.7230 0.7360 0.7440 0.7490
3.639191 0.7510 0.7520 0.7520 0.7520 0.7510
3.672000 0.7490 0.7490 0.7490 0.7520 0.7560
3.705191 0.7570 0.7640 0.7670 0.7670 0.7620
3.738000 0.7610 0.7610 0.7590 0.7570 0.7570
3.771191 0.7560 0.7560 0.7560 0.7560 0.7590
3.805000 0.7620 0.7620 0.7620 0.7640 0.7660
3.838191 0.7670 0.7690 0.7690 0.7710 0.7710
3.871000 0.7710 0.7710 0.7710 0.7710 0.7710
3.904191 0.7710 0.7710 0.7720 0.7760 0.7810
3.937000 0.7890 0.7910 0.7910 0.7910 0.7890
3.970191 0.7890 0.7890 0.7890 0.7910 0.7910
4.004000 0.7920 0.7920 0.7960 0.7960 0.7960
4.037191 0.7960 0.7960 0.7960 0.7960 0.7960
4.070000 0.7960 0.7960 0.7940 0.7940 0.7920
4.103191 0.7910 0.7910 0.7910 0.7910 0.7920
4.136000 0.7920 0.7920 0.7940 0.7960 0.7960
4.169191 0.7970 0.7970 0.7990 0.7990 0.7990
4.203000 0.7990 0.7960 0.7940 0.7920 0.7910
4.236191 0.7910 0.7910 0.7910 0.7910 0.7920
4.269000 0.7940 0.7940 0.7970 0.7970 0.7990
4.302191 0.8000 0.8000 0.8020 0.8050 0.8090
4.336000 0.8100 0.8120 0.8170 0.8220 0.8290
4.369191 0.8390 0.8490 0.8520 0.8540 0.8550
4.402000 0.8590 0.8600 0.8600 0.8590 0.8590
4.435191 0.8570 0.8570 0.8570 0.8590 0.8600
4.468000 0.8640 0.8650 0.8680 0.8680 0.8700
4.501191 0.8720 0.8730 0.8750 0.8750 0.8780
4.535000 0.8780 0.8830 0.8880 0.8880 0.8900
4.568191 0.8920 0.8930 0.8970 0.8980 0.9000
4.601000 0.9000 0.9020 0.9030 0.9030 0.9030
4.634191 0.9030 0.9050 0.9050 0.9030 0.9030
4.667000 0.9030 0.9020 0.9020 0.9020 0.9020
4.700191 0.9000 0.9000 0.9000 0.9030 0.9050
4.734000 0.9070 0.9070 0.9070 0.9050 0.9030
4.767191 0.9030 0.9030 0.9030 0.9050 0.9050
4.800000 0.9070 0.9100 0.9100 0.9100 0.9100
4.833191 0.9100 0.9100 0.9100 0.9100 0.9100
4.866000 0.9080 0.9080 0.9070 0.9070 0.9080
4.899191 0.9100 0.9130 0.9150 0.9170 0.9180
4.933000 0.9180 0.9180 0.9180 0.9180 0.9170
4.966191 0.9170 0.9150 0.9150 0.9150 0.9150
4.999000 0.9150 0.9180 0.9220 0.9230 0.9230
5.032191 0.9230 0.9220 0.9200 0.9130 0.9120
5.065000 0.9100 0.9100 0.9100 0.9100 0.9120
5.098191 0.9120 0.9130 0.9130 0.9130 0.9130
5.132000 0.9100 0.9030 0.9000 0.8980 0.8930
5.165191 0.8880 0.8820 0.8750 0.8720 0.8700
5.198000 0.8620 0.8590 0.8590 0.8590 0.8590
5.231191 0.8590 0.8600 0.8620 0.8640 0.8700
5.264000 0.8730 0.8780 0.8780 0.8770 0.8750
5.297191 0.8730 0.8720 0.8720 0.8730 0.8750
5.331000 0.8770 0.8820 0.8820 0.8780 0.8730
5.364191 0.8720 0.8700 0.8700 0.8720 0.8730
5.397000 0.8780 0.8800 0.8850 0.8900 0.8900
5.430191 0.8850 0.8820 0.8780 0.8770 0.8780
5.464000 0.8900 0.8950 0.8950 0.8930 0.8900
5.497191 0.8900 0.8870 0.8870 0.8870 0.8830
5.530000 0.8820 0.8750 0.8700 0.8700 0.8680
5.563191 0.8620 0.8590 0.8590 0.8550 0.8540
5.596000 0.8420 0.8400 0.8400 0.8450 0.8450
5.629191 0.8470 0.8470 0.8470 0.8450 0.8450
5.663000 0.8470 0.8490 0.8540 0.8570 0.8570
5.696191 0.8520 0.8470 0.8400 0.8370 0.8340
5.729000 0.8320 0.8290 0.8240 0.8190 0.8190
5.762191 0.8170 0.8170 0.8140 0.8100 0.8040
5.795000 0.8000 0.7970 0.7960 0.7960 0.7920
5.828191 0.7910 0.7890 0.7870 0.7810 0.7790
5.862000 0.7760 0.7760 0.7760 0.7740 0.7720
5.895191 0.7690 0.7620 0.7570 0.7560 0.7560
5.928000 0.7570 0.7640 0.7670 0.7690 0.7690
5.961191 0.7710 0.7710 0.7710 0.7710 0.7690
5.994000 0.7670 0.7640 0.7610 0.7560 0.7540
6.027191 0.7520 0.7520 0.7520 0.7520 0.7520
6.061000 0.7520 0.7510 0.7440 0.7340 0.7290
6.094191 0.7280 0.7180 0.7090 0.7010 0.6930
6.127000 0.6830 0.6710 0.6530 0.6310 0.6030
6.160191 0.5730 0.5380 0.4890 0.4420 0.3930
6.193000 0.3210 0.1870 0.1570 0.1240 0.1220
6.226191 0.1260 0.1700 0.2280 0.2880 0.3060
6.260000 0.3080 0.3080 0.2910 0.2810 0.2780
6.293191 0.2750 0.2730 0.2730 0.2730 0.2750
6.326000 0.2880 0.3160 0.3440 0.3640 0.3830
6.359191 0.3990 0.4120 0.4290 0.4460 0.4740
6.392000 0.5000 0.5170 0.5320 0.5420 0.5420
6.425191 0.5370 0.5290 0.5240 0.5190 0.5090
6.459000 0.4870 0.4510 0.3890 0.3260 0.2550
6.492191 0.1920 0.1310 0.0790 0.0610 0.0660
6.525000 0.0660 0.0710 0.0760 0.0810 0.0940
6.558191 0.1210 0.1650 0.1940 0.2050 0.2200
6.591000 0.2300 0.2320 0.2280 0.1740 0.1240
6.624191 0.0910 0.0660 0.0510 0.0510 0.0510
6.658000 0.0560 0.0580 0.0610 0.0740 0.0960
6.691191 0.1240 0.1590 0.1790 0.1890 0.1900
6.724000 0.1890 0.1820 0.1740 0.1640 0.1570
6.757191 0.1440 0.1240 0.1110 0.0960 0.0840
6.791000 0.0760 0.0660 0.0640 0.0660 0.0660
6.824191 0.0690 0.0690 0.0710 0.0710 0.0710
6.857000 0.0710 0.0720 0.0720 0.0740 0.0770
6.890191 0.0790 0.0860 0.0910 0.0920 0.0960
6.923000 0.1010 0.1020 0.1040 0.1040 0.1040
6.956191 0.1020 0.0970 0.0860 0.0770 0.0760
6.990000 0.0760 0.0890 0.1120 0.1370 0.1690
7.023191 0.2000 0.2150 0.2330 0.2380 0.2380
7.056000 0.2280 0.1850 0.1450 0.1110 0.0960
7.089191 0.0820 0.0660 0.0590 0.0580 0.0580
7.122000 0.0580 0.0540 0.0540 0.0540 0.0560
7.155191 0.0560 0.0590 0.0590 0.0660 0.0740
7.189000 0.0770 0.0920 0.1010 0.1140 0.1320
7.222191 0.1320 0.1290 0.1140 0.1020 0.0960
7.255000 0.0840 0.0760 0.0720 0.0720 0.0710
7.288191 0.0690 0.0690 0.0690 0.0690 0.0710
7.321000 0.0770 0.0860 0.0990 0.1110 0.1170
7.354191 0.1310 0.1450 0.1540 0.1750 0.1870
7.388000 0.1950 0.2030 0.2120 0.2250 0.2400
7.421191 0.2500 0.2550 0.2650 0.2700 0.2800
7.454000 0.2810 0.2810 0.2800 0.2800 0.2800
7.487191 0.2800 0.2780 0.2760 0.2750 0.2750
7.520000 0.2730 0.2730 0.2730 0.2750 0.2760
7.553191 0.2800 0.2810 0.2910 0.3080 0.3130
7.587000 0.3160 0.3180 0.3230 0.3280 0.3330
7.620191 0.3390 0.3410 0.3380 0.3360 0.3300
7.653000 0.3280 0.3260 0.3230 0.3200 0.3160
7.686191 0.3160 0.3150 0.3150 0.3150 0.3150
7.719000 0.3150 0.3180 0.3200 0.3260 0.3330
7.752191 0.3390 0.3460 0.3540 0.3660 0.3710
7.786000 0.3740 0.3780 0.3780 0.3730 0.3690
7.819191 0.3680 0.3680 0.3680 0.3690 0.3710
7.852000 0.3730 0.3760 0.3810 0.3880 0.3960
7.885191 0.3990 0.4070 0.4110 0.4120 0.4120
7.918000 0.4070 0.3960 0.3790 0.3610 0.3410
7.951191 0.3250 0.3150 0.3050 0.2980 0.2910
7.985000 0.2860 0.2830 0.2810 0.2830 0.2900
8.018191 0.2960 0.3050 0.3110 0.3180 0.3250
8.051000 0.3330 0.3390 0.3480 0.3560 0.3690
8.084191 0.3780 0.3910 0.4060 0.4210 0.4390
8.118000 0.4540 0.4670 0.4750 0.4840 0.4950
8.151191 0.4990 0.5090 0.5100 0.5100 0.5100
8.184000 0.5090 0.5020 0.4950 0.4870 0.4770
8.217191 0.4670 0.4570 0.4460 0.4360 0.4240
8.250000 0.4060 0.3960 0.3910 0.3860 0.3810
8.283191 0.3740 0.3710 0.3680 0.3660 0.3680
8.317000 0.3690 0.3730 0.3780 0.3860 0.3960
8.350191 0.4040 0.4140 0.4170 0.4170 0.4110
8.383000 0.4090 0.4040 0.3960 0.3880 0.3780
8.416191 0.3640 0.3510 0.3380 0.3230 0.3100
8.449000 0.2980 0.2860 0.2760 0.2730 0.2650
8.482191 0.2600 0.2550 0.2530 0.2530 0.2430
8.516000 0.2380 0.2370 0.2380 0.2430 0.2480
8.549191 0.2520 0.2530 0.2520 0.2500 0.2450
8.582000 0.2400 0.2300 0.2100 0.1900 0.1800
8.615191 0.1740 0.1670 0.1570 0.1490 0.1420
8.648000 0.1390 0.1350 0.1340 0.1340 0.1370
8.681191 0.1440 0.1500 0.1540 0.1720 0.1750
8.715000 0.1700 0.1620 0.1500 0.1370 0.1260
8.748191 0.1170 0.1140 0.1090 0.1070 0.1090
8.781000 0.1160 0.1260 0.1400 0.1540 0.1840
8.814191 0.2070 0.2280 0.2450 0.2630 0.2810
8.847000 0.3000 0.3050 0.3050 0.3000 0.2850
8.880191 0.2680 0.2570 0.2470 0.2370 0.2250
8.914000 0.2150 0.2120 0.2080 0.2020 0.1990
8.947191 0.1970 0.1990 0.2030 0.2150 0.2270
8.980000 0.2420 0.2480 0.2630 0.2760 0.2910
9.013191 0.3080 0.3100 0.3100 0.3080 0.3050
9.046000 0.3010 0.3000 0.3000 0.3150 0.3300
9.079191 0.3440 0.3610 0.3740 0.3890 0.4020
9.113000 0.4110 0.4170 0.4240 0.4340 0.4470
9.146191 0.4510 0.4570 0.4570 0.4640 0.4690
9.179000 0.4700 0.4720 0.4720 0.4700 0.4620
9.212191 0.4510 0.4340 0.4240 0.4170 0.4070
9.245000 0.3980 0.3890 0.3730 0.3710 0.3690
9.278191 0.3710 0.3740 0.3890 0.4040 0.4140
9.312000 0.4290 0.4490 0.4610 0.4670 0.4740
9.345191 0.4800 0.4870 0.4940 0.5070 0.5240
9.378000 0.5420 0.5480 0.5530 0.5630 0.5730
9.411191 0.5770 0.5770 0.5770 0.5780 0.5780
9.445000 0.5770 0.5730 0.5680 0.5630 0.5600
9.478191 0.5580 0.5580 0.5570 0.5570 0.5570
9.511000 0.5580 0.5620 0.5680 0.5750 0.5850
9.544191 0.5970 0.6060 0.6200 0.6310 0.6430
9.577000 0.6530 0.6580 0.6600 0.6660 0.6740
9.610191 0.6810 0.6860 0.6890 0.6910 0.6960
9.644000 0.6960 0.6940 0.6930 0.6810 0.6730
9.677191 0.6630 0.6450 0.6260 0.6150 0.6030
9.710000 0.5920 0.5770 0.5650 0.5520 0.5450
9.743191 0.5420 0.5430 0.5530 0.5680 0.5850
9.776000 0.6030 0.6210 0.6350 0.6480 0.6560
9.809191 0.6650 0.6710 0.6760 0.6790 0.6830
9.843000 0.6860 0.6880 0.6890 0.6880 0.6810
9.876191 0.6740 0.6630 0.6500 0.6330 0.6130
9.909000 0.5930 0.5770 0.5520 0.5380 0.5370
9.942191 0.5350 0.5350 0.5330 0.5320 0.5300
9.975000 0.5200 0.4990 0.4720 0.4490 0.4470
10.008191 0.4490 0.4720 0.5070 0.5370 0.5600
10.042000 0.5820 0.5980 0.6130 0.6260 0.6360
10.075191 0.6460 0.6550 0.6650 0.6690 0.6780
10.108000 0.6790 0.6810 0.6830 0.6890 0.6930
10.141191 0.6980 0.6990 0.7010 0.7030 0.7030
10.174000 0.7060 0.7060 0.7080 0.7090 0.7110
10.207191 0.7110 0.7130 0.7140 0.7160 0.7180
10.241000 0.7190 0.7210 0.7230 0.7230 0.7240
10.274191 0.7240 0.7280 0.7290 0.7310 0.7310
10.307000 0.7330 0.7360 0.7370 0.7390 0.7410
10.340191 0.7440 0.7440 0.7420 0.7420 0.7390
10.373000 0.7390 0.7390 0.7390 0.7410 0.7410
10.406191 0.7440 0.7460 0.7460 0.7420 0.7420
10.440000 0.7410 0.7410 0.7420 0.7420 0.7440
10.473191 0.7460 0.7490 0.7490 0.7540 0.7560
10.506000 0.7590 0.7590 0.7590 0.7590 0.7610
10.539191 0.7610 0.7620 0.7620 0.7670 0.7690
10.573000 0.7690 0.7710 0.7720 0.7770 0.7790
10.606191 0.7790 0.7810 0.7820 0.7840 0.7890
10.639000 0.7920 0.7970 0.7990 0.8000 0.8000
10.672191 0.8000 0.8000 0.7990 0.7970 0.7970
10.705000 0.7990 0.8020 0.8090 0.8100 0.8120
10.738191 0.8120 0.8140 0.8140 0.8120 0.8120
10.772000 0.8100 0.8090 0.8090 0.8090 0.8090
10.805191 0.8090 0.8100 0.8100 0.8100 0.8100
10.838000 0.8100 0.8100 0.8100 0.8100 0.8100
10.871191 0.8090 0.8020 0.8000 0.8000 0.7990
10.904000 0.7920 0.7910 0.7910 0.7890 0.7810
10.937191 0.7690 0.7620 0.7560 0.7490 0.7440
10.971000 0.7360 0.7280 0.7190 0.7090 0.7010
11.004191 0.6910 0.6810 0.6730 0.6650 0.6550
11.037000 0.6450 0.6350 0.6200 0.6100 0.6010
11.070191 0.5980 0.5950 0.5850 0.5770 0.5650
11.103000 0.5530 0.5470 0.5450 0.5430 0.5430
11.136191 0.5430 0.5450 0.5470 0.5480 0.5520
11.170000 0.5620 0.5720 0.5820 0.5830 0.5880
11.203191 0.5970 0.6050 0.6110 0.6150 0.6200
11.236000 0.6250 0.6310 0.6350 0.6410 0.6500
11.269191 0.6510 0.6550 0.6560 0.6560 0.6580
11.302000 0.6600 0.6660 0.6730 0.6780 0.6780
11.335191 0.6790 0.6810 0.6830 0.6840 0.6860
11.369000 0.6860 0.6880 0.6910 0.6930 0.6980
11.402191 0.6990 0.7030 0.7030 0.7030 0.7030
11.435000 0.6990 0.6980 0.6940 0.6930 0.6890
11.468191 0.6890 0.6880 0.6840 0.6810 0.6790
11.501000 0.6740 0.6730 0.6710 0.6710 0.6680
11.534191 0.6630 0.6580 0.6530 0.6510 0.6510
11.568000 0.6510 0.6500 0.6500 0.6480 0.6460
11.601191 0.6450 0.6400 0.6330 0.6280 0.6250
11.634000 0.6210 0.6160 0.6080 0.6030 0.5980
11.667191 0.5920 0.5850 0.5750 0.5650 0.5500
11.700000 0.5420 0.5400 0.5350 0.5250 0.5200
11.733191 0.5150 0.5050 0.5000 0.4950 0.4940
11.767000 0.4900 0.4890 0.4790 0.4700 0.4660
11.800191 0.4620 0.4590 0.4540 0.4520 0.4520
11.833000 0.4510 0.4510 0.4510 0.4490 0.4490
11.866191 0.4490 0.4510 0.4570 0.4660 0.4720
11.900000 0.4790 0.4790 0.4850 0.4950 0.5050
11.933191 0.5190 0.5300 0.5450 0.5630 0.5750
11.966000 0.5820 0.5950 0.6080 0.6180 0.6280
11.999191 0.6380 0.6480 0.6580 0.6660 0.6740
12.032000 0.6810 0.6890 0.6910 0.6930 0.6990
12.065191 0.6990 0.7010 0.7030 0.7040 0.7040
12.099000 0.7080 0.7090 0.7160 0.7210 0.7210
12.132191 0.7240 0.7260 0.7280 0.7280 0.7290
12.165000 0.7310 0.7340 0.7360 0.7370 0.7390
12.198191 0.7420 0.7460 0.7540 0.7590 0.7590
12.231000 0.7590 0.7590 0.7590 0.7570 0.7570
12.264191 0.7570 0.7570 0.7570 0.7610 0.7660
12.298000 0.7760 0.7810 0.7810 0.7820 0.7860
12.331191 0.7920 0.7970 0.8000 0.8020 0.8040
12.364000 0.8050 0.8150 0.8150 0.8170 0.8170
12.397191 0.8170 0.8150 0.8140 0.8120 0.8100
12.430000 0.8040 0.8020 0.8000 0.8000 0.8000
12.463191 0.7990 0.7990 0.8000 0.8020 0.8050
12.497000 0.8090 0.8090 0.8090 0.8090 0.8100
12.530191 0.8100 0.8100 0.8120 0.8140 0.8140
12.563000 0.8150 0.8150 0.8150 0.8150 0.8150
12.596191 0.8190 0.8250 0.8300 0.8320 0.8320
12.629000 0.8340 0.8350 0.8350 0.8370 0.8390
12.662191 0.8390 0.8390 0.8390 0.8390 0.8400
12.696000 0.8400 0.8390 0.8390 0.8350 0.8340
12.729191 0.8320 0.8300 0.8300 0.8290 0.8270
12.762000 0.8220 0.8140 0.8070 0.8040 0.8000
12.795191 0.7960 0.7860 0.7770 0.7710 0.7710
12.828000 0.7640 0.7540 0.7390 0.7240 0.7140
12.861191 0.7040 0.6910 0.6760 0.6610 0.6450
12.895000 0.6280 0.6100 0.5920 0.5730 0.5550
12.928191 0.5370 0.5200 0.5020 0.4870 0.4720
12.961000 0.4570 0.4460 0.4340 0.4160 0.4020
12.994191 0.3930 0.3780 0.3710 0.3530 0.3360
13.027000 0.3300 0.3250 0.3210 0.3080 0.3050
13.060191 0.2960 0.2910 0.2900 0.2830 0.2780
13.094000 0.2760 0.2750 0.2710 0.2700 0.2680
13.127191 0.2680 0.2680 0.2660 0.2660 0.2660
13.160000 0.2660 0.2660 0.2660 0.2660 0.2660
13.193191 0.2660 0.2660 0.2650 0.2650 0.2650
13.227000 0.2650 0.2650 0.2630 0.2630 0.2630
13.260191 0.2630 0.2630 0.2650 0.2650 0.2650
13.293000 0.2700 0.2730 0.2750 0.2760 0.2760
13.326191 0.2800 0.2860 0.2960 0.3050 0.3110
13.359000 0.3180 0.3250 0.3430 0.3560 0.3730
13.392191 0.3860 0.4040 0.4240 0.4420 0.4640
13.426000 0.4790 0.4920 0.5050 0.5240 0.5480
13.459191 0.5620 0.5730 0.5820 0.5900 0.5970
13.492000 0.6030 0.6110 0.6180 0.6260 0.6300
13.525191 0.6310 0.6330 0.6350 0.6380 0.6380
13.558000 0.6380 0.6380 0.6400 0.6400 0.6400
13.591191 0.6400 0.6380 0.6350 0.6350 0.6330
13.625000 0.6330 0.6310 0.6310 0.6280 0.6260
13.658191 0.6230 0.6230 0.6210 0.6180 0.6160
13.691000 0.6130 0.6130 0.6110 0.6060 0.6050
13.724191 0.6000 0.6000 0.5980 0.5980 0.5980
13.757000 0.5980 0.5980 0.5970 0.5880 0.5850
13.790191 0.5850 0.5870 0.5900 0.5950 0.6000
13.824000 0.6050 0.6080 0.6150 0.6210 0.6260
13.857191 0.6280 0.6300 0.6380 0.6550 0.6600
13.890000 0.6630 0.6680 0.6740 0.6840 0.6910
13.923191 0.6960 0.6980 0.7010 0.7080 0.7080
13.956000 0.7090 0.7110 0.7110 0.7110 0.7110
13.989191 0.7110 0.7090 0.7080 0.7040 0.6990
14.023000 0.6940 0.6880 0.6790 0.6730 0.6650
14.056191 0.6550 0.6460 0.6380 0.6300 0.6200
14.089000 0.6000 0.5850 0.5700 0.5550 0.5400
14.122191 0.5240 0.5090 0.4940 0.4800 0.4660
14.155000 0.4510 0.4370 0.4240 0.4090 0.3960
14.188191 0.3840 0.3710 0.3590 0.3480 0.3360
14.222000 0.3260 0.3150 0.3050 0.2960 0.2850
14.255191 0.2750 0.2650 0.2550 0.2480 0.2430
14.288000 0.2370 0.2270 0.2200 0.2150 0.2120
14.321191 0.2000 0.1890 0.1840 0.1800 0.1790
14.355000 0.1750 0.1720 0.1700 0.1700 0.1700
14.388191 0.1700 0.1720 0.1720 0.1750 0.1770
14.421000 0.1790 0.1840 0.1850 0.1890 0.1950
14.454191 0.2020 0.2100 0.2130 0.2200 0.2320
14.487000 0.2380 0.2430 0.2520 0.2580 0.2680
14.520191 0.2800 0.2910 0.3060 0.3210 0.3410
14.554000 0.3580 0.3690 0.3830 0.3980 0.4140
14.587191 0.4320 0.4520 0.4740 0.4950 0.5190
14.620000 0.5400 0.5620 0.5820 0.6000 0.6160
14.653191 0.6300 0.6410 0.6530 0.6650 0.6760
14.686000 0.6930 0.7060 0.7140 0.7190 0.7230
14.719191 0.7310 0.7370 0.7460 0.7510 0.7570
14.753000 0.7620 0.7710 0.7770 0.7790 0.7810
14.786191 0.7820 0.7860 0.7870 0.7870 0.7890
14.819000 0.7910 0.7910 0.7910 0.7910 0.7920
14.852191 0.7940 0.7970 0.7990 0.8000 0.8020
14.885000 0.8050 0.8070 0.8090 0.8090 0.8100
14.918191 0.8100 0.8120 0.8120 0.8140 0.8140
14.952000 0.8140 0.8140 0.8140 0.8140 0.8140
14.985191 0.8140 0.8100 0.8070 0.8000 0.7940
15.018000 0.7870 0.7820 0.7770 0.7610 0.7590
15.051191 0.7590 0.7590 0.7610 0.7620 0.7620
15.084000 0.7640 0.7640 0.7660 0.7670 0.7710
15.117191 0.7720 0.7760 0.7770 0.7790 0.7810
15.151000 0.7820 0.7840 0.7860 0.7890 0.7960
15.184191 0.7990 0.8000 0.8000 0.8000 0.8000
15.217000 0.8000 0.8000 0.8000 0.8000 0.8000
15.250191 0.8020 0.8020 0.8020 0.8020 0.8020
15.283000 0.8020 0.8020 0.8020 0.8020 0.8040
15.316191 0.8040 0.8050 0.8050 0.7990 0.7970
15.350000 0.7920 0.7910 0.7910 0.7940 0.7970
15.383191 0.7990 0.8020 0.8020 0.8040 0.8040
15.416000 0.8020 0.8000 0.7910 0.7870 0.7870
15.449191 0.7890 0.7910 0.7940 0.7990 0.7990
15.482000 0.7990 0.7990 0.7990 0.7990 0.7990
15.515191 0.7940 0.7920 0.7890 0.7890 0.7870
15.549000 0.7860 0.7860 0.7860 0.7820 0.7820
15.582191 0.7820 0.7820 0.7840 0.7840 0.7860
15.615000 0.7860 0.7860 0.7890 0.7890 0.7890
15.648191 0.7860 0.7810 0.7810 0.7810 0.7790
15.682000 0.7790 0.7770 0.7770 0.7760 0.7740
15.715191 0.7740 0.7720 0.7720 0.7710 0.7690
15.748000 0.7660 0.7660 0.7640 0.7620 0.7620
15.781191 0.7620 0.7610 0.7590 0.7570 0.7560
15.814000 0.7560 0.7540 0.7520 0.7520 0.7510
15.847191 0.7510 0.7490 0.7490 0.7470 0.7460
15.881000 0.7460 0.7460 0.7460 0.7440 0.7420
15.914191 0.7410 0.7410 0.7390 0.7390 0.7390
15.947000 0.7310 0.7290 0.7290 0.7280 0.7260
15.980191 0.7260
##END=
