##TITLE=Isonipecotic acid, 4-phenyl-, ethyl ester, hydrochloride
##JCAMP-DX=4.24
$$ By DXEDIT 1.05 (RS McDonald)
##DATA TYPE=INFRARED SPECTRUM
##CLASS=COBLENTZ III
##ORIGIN=DOW CHEMICAL COMPANY
##OWNER=COPYRIGHT (C) 1988 by COBLENTZ SOCIETY INC.
Collection (C) 2018 copyright by the U.S. Secretary of Commerce
on behalf of the United States of America. All rights reserved.
##DATE=1964/05/27
##NAMES=ethyl 4-phenyl-4-piperidinecarboxylate hydrochloride
##MOLFORM=C14 H20 Cl N O2
##MP=136 C
##SOURCE REFERENCE=COBLENTZ NO. 07536
##$NIST ID=B6007536
##$NIST SOURCE=COBLENTZ
##$NIST IMAGE=cob7536
##SPECTROMETER/DATA SYSTEM=BECKMAN IR-9 (GRATING)
##INSTRUMENT PARAMETERS=ORDER CHANGES: 670, 1200, 2000 CM^-^1
##STATE=SOLID (SPLIT MULL), FLUOROLUBE FOR 3800-1330 CM^-^1, NUJOL FOR 1330-400 CM^-^1
##SAMPLING PROCEDURE=TRANSMISSION
##RESOLUTION=2
##DATA PROCESSING=DIGITIZED BY COBLENTZ SOCIETY (BATCH I) FROM HARD COPY
##XUNITS=1/CM
##YUNITS=TRANSMITTANCE
##XFACTOR=1
##YFACTOR=1
##DELTAX=1
##FIRSTX=3796
##LASTX=402
##FIRSTY=0.5599
##MAXX=3796
##MINX=402
##MAXY=0.9181
##MINY=0.0179
##NPOINTS=3395
##XYDATA=(X++(Y..Y))
3796.000000 0.5599 0.5599 0.5600 0.5602 0.5605
3791.000000 0.5607 0.5610 0.5612 0.5615 0.5617
3786.000000 0.5620 0.5622 0.5625 0.5627 0.5630
3781.000000 0.5632 0.5635 0.5637 0.5639 0.5641
3776.000000 0.5644 0.5646 0.5649 0.5651 0.5654
3771.000000 0.5656 0.5659 0.5660 0.5664 0.5666
3766.000000 0.5669 0.5671 0.5674 0.5676 0.5679
3761.000000 0.5681 0.5684 0.5686 0.5689 0.5691
3756.000000 0.5694 0.5695 0.5697 0.5698 0.5699
3751.000000 0.5700 0.5701 0.5702 0.5704 0.5705
3746.000000 0.5706 0.5707 0.5708 0.5709 0.5710
3741.000000 0.5712 0.5714 0.5716 0.5718 0.5720
3736.000000 0.5722 0.5724 0.5726 0.5728 0.5730
3731.000000 0.5731 0.5733 0.5735 0.5737 0.5739
3726.000000 0.5741 0.5743 0.5745 0.5747 0.5749
3721.000000 0.5751 0.5754 0.5756 0.5759 0.5762
3716.000000 0.5765 0.5767 0.5770 0.5773 0.5776
3711.000000 0.5778 0.5781 0.5784 0.5787 0.5789
3706.000000 0.5792 0.5794 0.5796 0.5797 0.5799
3701.000000 0.5800 0.5802 0.5804 0.5806 0.5807
3696.000000 0.5809 0.5810 0.5812 0.5812 0.5815
3691.000000 0.5817 0.5819 0.5820 0.5822 0.5823
3686.000000 0.5825 0.5826 0.5828 0.5829 0.5831
3681.000000 0.5832 0.5834 0.5835 0.5836 0.5837
3676.000000 0.5839 0.5840 0.5842 0.5843 0.5845
3671.000000 0.5846 0.5847 0.5848 0.5850 0.5851
3666.000000 0.5853 0.5854 0.5855 0.5856 0.5858
3661.000000 0.5859 0.5860 0.5862 0.5862 0.5862
3656.000000 0.5864 0.5864 0.5865 0.5865 0.5866
3651.000000 0.5867 0.5868 0.5868 0.5869 0.5869
3646.000000 0.5870 0.5871 0.5872 0.5872 0.5873
3641.000000 0.5874 0.5875 0.5875 0.5876 0.5877
3636.000000 0.5878 0.5878 0.5879 0.5880 0.5881
3631.000000 0.5881 0.5882 0.5883 0.5884 0.5884
3626.000000 0.5885 0.5886 0.5887 0.5888 0.5889
3621.000000 0.5889 0.5890 0.5890 0.5890 0.5890
3616.000000 0.5890 0.5890 0.5890 0.5889 0.5889
3611.000000 0.5889 0.5889 0.5889 0.5889 0.5888
3606.000000 0.5888 0.5888 0.5888 0.5887 0.5887
3601.000000 0.5887 0.5887 0.5887 0.5887 0.5888
3596.000000 0.5889 0.5889 0.5890 0.5891 0.5892
3591.000000 0.5893 0.5894 0.5894 0.5895 0.5896
3586.000000 0.5897 0.5897 0.5897 0.5897 0.5896
3581.000000 0.5895 0.5895 0.5894 0.5893 0.5892
3576.000000 0.5891 0.5890 0.5889 0.5888 0.5887
3571.000000 0.5886 0.5885 0.5884 0.5883 0.5882
3566.000000 0.5881 0.5879 0.5878 0.5876 0.5875
3561.000000 0.5873 0.5872 0.5870 0.5868 0.5866
3556.000000 0.5865 0.5862 0.5862 0.5859 0.5857
3551.000000 0.5855 0.5853 0.5851 0.5849 0.5847
3546.000000 0.5845 0.5843 0.5841 0.5839 0.5837
3541.000000 0.5834 0.5832 0.5830 0.5828 0.5826
3536.000000 0.5824 0.5822 0.5820 0.5818 0.5816
3531.000000 0.5812 0.5810 0.5807 0.5804 0.5800
3526.000000 0.5797 0.5794 0.5791 0.5787 0.5784
3521.000000 0.5781 0.5778 0.5773 0.5769 0.5767
3516.000000 0.5765 0.5769 0.5774 0.5778 0.5783
3511.000000 0.5787 0.5792 0.5796 0.5801 0.5805
3506.000000 0.5810 0.5814 0.5819 0.5823 0.5827
3501.000000 0.5831 0.5836 0.5840 0.5845 0.5848
3496.000000 0.5852 0.5855 0.5859 0.5862 0.5865
3491.000000 0.5868 0.5872 0.5875 0.5879 0.5882
3486.000000 0.5886 0.5889 0.5892 0.5895 0.5899
3481.000000 0.5903 0.5907 0.5910 0.5915 0.5918
3476.000000 0.5922 0.5926 0.5930 0.5933 0.5937
3471.000000 0.5941 0.5945 0.5948 0.5952 0.5956
3466.000000 0.5960 0.5962 0.5966 0.5968 0.5970
3461.000000 0.5972 0.5974 0.5976 0.5979 0.5981
3456.000000 0.5983 0.5985 0.5987 0.5989 0.5991
3451.000000 0.5991 0.5992 0.5992 0.5993 0.5993
3446.000000 0.5993 0.5993 0.5992 0.5991 0.5991
3441.000000 0.5990 0.5989 0.5984 0.5980 0.5975
3436.000000 0.5970 0.5965 0.5960 0.5955 0.5950
3431.000000 0.5945 0.5940 0.5935 0.5931 0.5927
3426.000000 0.5923 0.5922 0.5921 0.5920 0.5920
3421.000000 0.5926 0.5932 0.5938 0.5944 0.5950
3416.000000 0.5956 0.5962 0.5968 0.5974 0.5981
3411.000000 0.5987 0.5993 0.5998 0.6004 0.6009
3406.000000 0.6015 0.6020 0.6026 0.6031 0.6037
3401.000000 0.6042 0.6048 0.6053 0.6059 0.6064
3396.000000 0.6069 0.6074 0.6080 0.6085 0.6091
3391.000000 0.6096 0.6102 0.6107 0.6112 0.6118
3386.000000 0.6124 0.6129 0.6135 0.6140 0.6146
3381.000000 0.6151 0.6156 0.6160 0.6165 0.6170
3376.000000 0.6175 0.6179 0.6184 0.6189 0.6194
3371.000000 0.6199 0.6204 0.6208 0.6212 0.6218
3366.000000 0.6223 0.6227 0.6232 0.6237 0.6242
3361.000000 0.6247 0.6252 0.6256 0.6260 0.6266
3356.000000 0.6271 0.6276 0.6281 0.6285 0.6290
3351.000000 0.6294 0.6299 0.6304 0.6309 0.6312
3346.000000 0.6318 0.6323 0.6328 0.6332 0.6337
3341.000000 0.6341 0.6346 0.6351 0.6356 0.6360
3336.000000 0.6365 0.6369 0.6374 0.6379 0.6384
3331.000000 0.6388 0.6393 0.6397 0.6401 0.6407
3326.000000 0.6411 0.6415 0.6421 0.6425 0.6430
3321.000000 0.6435 0.6440 0.6444 0.6449 0.6453
3316.000000 0.6458 0.6461 0.6465 0.6468 0.6472
3311.000000 0.6476 0.6481 0.6484 0.6488 0.6492
3306.000000 0.6496 0.6500 0.6504 0.6507 0.6511
3301.000000 0.6515 0.6518 0.6522 0.6526 0.6530
3296.000000 0.6534 0.6538 0.6542 0.6546 0.6550
3291.000000 0.6553 0.6557 0.6561 0.6565 0.6568
3286.000000 0.6571 0.6575 0.6580 0.6583 0.6587
3281.000000 0.6590 0.6594 0.6597 0.6601 0.6604
3276.000000 0.6608 0.6611 0.6615 0.6618 0.6622
3271.000000 0.6625 0.6628 0.6632 0.6636 0.6639
3266.000000 0.6642 0.6645 0.6649 0.6651 0.6655
3261.000000 0.6658 0.6661 0.6665 0.6668 0.6671
3256.000000 0.6675 0.6678 0.6681 0.6684 0.6688
3251.000000 0.6691 0.6694 0.6697 0.6701 0.6704
3246.000000 0.6707 0.6710 0.6714 0.6717 0.6721
3241.000000 0.6724 0.6726 0.6730 0.6734 0.6737
3236.000000 0.6741 0.6744 0.6748 0.6751 0.6755
3231.000000 0.6757 0.6760 0.6760 0.6761 0.6761
3226.000000 0.6761 0.6761 0.6761 0.6761 0.6761
3221.000000 0.6761 0.6761 0.6762 0.6764 0.6764
3216.000000 0.6765 0.6765 0.6767 0.6768 0.6768
3211.000000 0.6768 0.6769 0.6769 0.6771 0.6771
3206.000000 0.6772 0.6772 0.6774 0.6774 0.6775
3201.000000 0.6775 0.6775 0.6775 0.6775 0.6774
3196.000000 0.6772 0.6771 0.6771 0.6769 0.6768
3191.000000 0.6758 0.6749 0.6734 0.6719 0.6708
3186.000000 0.6699 0.6688 0.6676 0.6667 0.6658
3181.000000 0.6653 0.6649 0.6644 0.6639 0.6633
3176.000000 0.6626 0.6625 0.6622 0.6621 0.6621
3171.000000 0.6633 0.6646 0.6658 0.6671 0.6687
3166.000000 0.6703 0.6715 0.6726 0.6736 0.6746
3161.000000 0.6754 0.6761 0.6768 0.6776 0.6781
3156.000000 0.6786 0.6790 0.6795 0.6799 0.6804
3151.000000 0.6808 0.6811 0.6815 0.6821 0.6822
3146.000000 0.6825 0.6826 0.6828 0.6828 0.6830
3141.000000 0.6830 0.6831 0.6832 0.6833 0.6834
3136.000000 0.6835 0.6836 0.6836 0.6836 0.6836
3131.000000 0.6835 0.6835 0.6834 0.6833 0.6832
3126.000000 0.6832 0.6831 0.6830 0.6828 0.6828
3121.000000 0.6828 0.6826 0.6825 0.6824 0.6821
3116.000000 0.6821 0.6819 0.6818 0.6817 0.6815
3111.000000 0.6814 0.6812 0.6811 0.6811 0.6808
3106.000000 0.6808 0.6807 0.6806 0.6804 0.6803
3101.000000 0.6801 0.6800 0.6799 0.6798 0.6795
3096.000000 0.6793 0.6790 0.6788 0.6785 0.6783
3091.000000 0.6780 0.6778 0.6775 0.6772 0.6768
3086.000000 0.6762 0.6758 0.6754 0.6749 0.6745
3081.000000 0.6740 0.6735 0.6730 0.6725 0.6711
3076.000000 0.6700 0.6682 0.6665 0.6644 0.6622
3071.000000 0.6600 0.6576 0.6551 0.6525 0.6410
3066.000000 0.6294 0.6296 0.6299 0.6301 0.6303
3061.000000 0.6305 0.6308 0.6310 0.6312 0.6279
3056.000000 0.6246 0.6218 0.6190 0.6186 0.6182
3051.000000 0.6178 0.6175 0.6184 0.6193 0.6212
3046.000000 0.6233 0.6248 0.6262 0.6273 0.6283
3041.000000 0.6290 0.6297 0.6298 0.6300 0.6300
3036.000000 0.6300 0.6293 0.6287 0.6281 0.6275
3031.000000 0.6269 0.6262 0.6257 0.6251 0.6245
3026.000000 0.6239 0.6230 0.6221 0.6208 0.6196
3021.000000 0.6179 0.6162 0.6142 0.6121 0.6093
3016.000000 0.6066 0.6042 0.6019 0.5996 0.5974
3011.000000 0.5932 0.5891 0.5825 0.5759 0.5722
3006.000000 0.5686 0.5632 0.5579 0.5500 0.5421
3001.000000 0.5328 0.5235 0.5084 0.4933 0.4727
2996.000000 0.4521 0.4454 0.4388 0.4376 0.4364
2991.000000 0.4327 0.4291 0.4259 0.4228 0.4221
2986.000000 0.4214 0.4227 0.4241 0.4298 0.4356
2981.000000 0.4412 0.4470 0.4527 0.4584 0.4641
2976.000000 0.4698 0.4698 0.4699 0.4674 0.4650
2971.000000 0.4338 0.4027 0.3954 0.3882 0.3876
2966.000000 0.3871 0.3864 0.3859 0.3850 0.3842
2961.000000 0.3832 0.3822 0.3809 0.3799 0.3766
2956.000000 0.3734 0.3698 0.3662 0.3625 0.3589
2951.000000 0.3426 0.3264 0.3221 0.3178 0.3124
2946.000000 0.3070 0.3031 0.2992 0.2961 0.2931
2941.000000 0.2904 0.2877 0.2853 0.2829 0.2809
2936.000000 0.2789 0.2776 0.2763 0.2755 0.2747
2931.000000 0.2742 0.2737 0.2732 0.2718 0.2718
2926.000000 0.2718 0.2716 0.2714 0.2712 0.2711
2921.000000 0.2711 0.2712 0.2714 0.2717 0.2719
2916.000000 0.2722 0.2732 0.2742 0.2756 0.2771
2911.000000 0.2784 0.2799 0.2813 0.2828 0.2848
2906.000000 0.2869 0.2953 0.3038 0.3142 0.3246
2901.000000 0.3322 0.3398 0.3474 0.3550 0.3626
2896.000000 0.3702 0.3778 0.3854 0.3930 0.4006
2891.000000 0.4082 0.4158 0.4234 0.4310 0.4328
2886.000000 0.4347 0.4348 0.4348 0.4349 0.4349
2881.000000 0.4349 0.4349 0.4343 0.4338 0.4331
2876.000000 0.4325 0.4314 0.4304 0.4275 0.4247
2871.000000 0.4175 0.4104 0.4032 0.3962 0.3890
2866.000000 0.3778 0.3816 0.3814 0.3827 0.3839
2861.000000 0.3858 0.3877 0.3895 0.3914 0.3932
2856.000000 0.3950 0.3970 0.3989 0.4007 0.4026
2851.000000 0.4116 0.4206 0.4222 0.4238 0.4248
2846.000000 0.4258 0.4262 0.4267 0.4270 0.4274
2841.000000 0.4273 0.4310 0.4262 0.4254 0.4240
2836.000000 0.4227 0.4209 0.4191 0.4162 0.4136
2831.000000 0.4097 0.4058 0.4005 0.3953 0.3895
2826.000000 0.3837 0.3772 0.3708 0.3634 0.3562
2821.000000 0.3489 0.3416 0.3344 0.3272 0.3199
2816.000000 0.3127 0.3054 0.2982 0.2909 0.2837
2811.000000 0.2800 0.2764 0.2760 0.2728 0.2755
2806.000000 0.2754 0.2757 0.2761 0.2772 0.2784
2801.000000 0.2804 0.2825 0.2850 0.2876 0.2889
2796.000000 0.2903 0.2907 0.2907 0.2906 0.2929
2791.000000 0.2877 0.2853 0.2798 0.2744 0.2697
2786.000000 0.2650 0.2604 0.2558 0.2531 0.2505
2781.000000 0.2481 0.2458 0.2442 0.2427 0.2415
2776.000000 0.2403 0.2391 0.2379 0.2370 0.2362
2771.000000 0.2358 0.2354 0.2352 0.2341 0.2350
2766.000000 0.2349 0.2359 0.2370 0.2380 0.2390
2761.000000 0.2392 0.2394 0.2396 0.2398 0.2400
2756.000000 0.2403 0.2406 0.2410 0.2411 0.2411
2751.000000 0.2412 0.2412 0.2412 0.2411 0.2411
2746.000000 0.2411 0.2403 0.2396 0.2368 0.2341
2741.000000 0.2200 0.2059 0.1922 0.1784 0.1711
2736.000000 0.1636 0.1578 0.1519 0.1462 0.1405
2731.000000 0.1349 0.1292 0.1221 0.1150 0.1095
2726.000000 0.1041 0.1015 0.0989 0.0960 0.0932
2721.000000 0.0907 0.0882 0.0864 0.0846 0.0837
2716.000000 0.0829 0.0821 0.0814 0.0807 0.0800
2711.000000 0.0793 0.0787 0.0786 0.0785 0.0784
2706.000000 0.0783 0.0782 0.0781 0.0780 0.0779
2701.000000 0.0777 0.0776 0.0774 0.0773 0.0772
2696.000000 0.0772 0.0772 0.0772 0.0784 0.0796
2691.000000 0.0829 0.0863 0.0909 0.0956 0.1014
2686.000000 0.1072 0.1157 0.1242 0.1390 0.1538
2681.000000 0.1626 0.1714 0.1787 0.1862 0.1921
2676.000000 0.1979 0.2034 0.2091 0.2137 0.2184
2671.000000 0.2230 0.2276 0.2332 0.2389 0.2432
2666.000000 0.2475 0.2498 0.2521 0.2530 0.2539
2661.000000 0.2547 0.2556 0.2559 0.2598 0.2566
2656.000000 0.2567 0.2568 0.2568 0.2564 0.2560
2651.000000 0.2556 0.2553 0.2540 0.2528 0.2514
2646.000000 0.2500 0.2485 0.2473 0.2459 0.2446
2641.000000 0.2433 0.2421 0.2408 0.2395 0.2382
2636.000000 0.2370 0.2359 0.2348 0.2339 0.2330
2631.000000 0.2321 0.2313 0.2304 0.2265 0.2290
2626.000000 0.2284 0.2284 0.2285 0.2290 0.2295
2621.000000 0.2305 0.2316 0.2326 0.2335 0.2353
2616.000000 0.2370 0.2391 0.2412 0.2448 0.2484
2611.000000 0.2542 0.2600 0.2651 0.2703 0.2794
2606.000000 0.2884 0.2917 0.2949 0.2947 0.2945
2601.000000 0.2941 0.2938 0.2929 0.2920 0.2915
2596.000000 0.2910 0.2905 0.2905 0.2905 0.2909
2591.000000 0.2913 0.2917 0.3004 0.3092 0.3200
2586.000000 0.3309 0.3418 0.3527 0.3636 0.3745
2581.000000 0.3853 0.3962 0.4071 0.4180 0.4288
2576.000000 0.4397 0.4446 0.4495 0.4504 0.4512
2571.000000 0.4520 0.4532 0.4531 0.4536 0.4540
2566.000000 0.4545 0.4535 0.4526 0.4505 0.4484
2561.000000 0.4409 0.4334 0.4160 0.3987 0.3812
2556.000000 0.3639 0.3464 0.3292 0.3118 0.2945
2551.000000 0.2933 0.2921 0.2921 0.2920 0.2921
2546.000000 0.2923 0.2968 0.3014 0.3099 0.3184
2541.000000 0.3297 0.3409 0.3523 0.3637 0.3750
2536.000000 0.3862 0.3976 0.4089 0.4202 0.4316
2531.000000 0.4429 0.4542 0.4596 0.4651 0.4654
2526.000000 0.4676 0.4660 0.4660 0.4660 0.4660
2521.000000 0.4649 0.4639 0.4559 0.4480 0.4401
2516.000000 0.4322 0.4243 0.4164 0.4084 0.4006
2511.000000 0.3927 0.3689 0.3786 0.3724 0.3716
2506.000000 0.3718 0.3718 0.3727 0.3766 0.3807
2501.000000 0.3918 0.4029 0.4139 0.4249 0.4359
2496.000000 0.4666 0.4569 0.4669 0.4666 0.4664
2491.000000 0.4658 0.4652 0.4644 0.4636 0.4396
2486.000000 0.4156 0.3909 0.3662 0.3416 0.3170
2481.000000 0.2924 0.2678 0.2446 0.2228 0.2213
2476.000000 0.2213 0.2213 0.2213 0.2327 0.2442
2471.000000 0.2563 0.2684 0.2806 0.2928 0.3049
2466.000000 0.3171 0.3292 0.3414 0.3534 0.3656
2461.000000 0.3691 0.3728 0.3729 0.3732 0.3730
2456.000000 0.3730 0.3644 0.3557 0.3470 0.3382
2451.000000 0.3296 0.3087 0.3134 0.3060 0.3067
2446.000000 0.3075 0.3098 0.3121 0.3380 0.3642
2441.000000 0.3698 0.3754 0.3827 0.3900 0.4014
2436.000000 0.4130 0.4290 0.4451 0.4543 0.4635
2431.000000 0.4741 0.4847 0.4875 0.4904 0.4927
2426.000000 0.4950 0.4973 0.4996 0.5019 0.5042
2421.000000 0.5080 0.5119 0.5150 0.5182 0.5212
2416.000000 0.5244 0.5277 0.5310 0.5356 0.5403
2411.000000 0.5451 0.5499 0.5542 0.5586 0.5601
2406.000000 0.5616 0.5625 0.5635 0.5637 0.5639
2401.000000 0.5641 0.5641 0.5641 0.5639 0.5624
2396.000000 0.5610 0.5585 0.5560 0.5528 0.5497
2391.000000 0.5462 0.5430 0.5406 0.5383 0.5380
2386.000000 0.5378 0.5375 0.5373 0.5382 0.5392
2381.000000 0.5407 0.5423 0.5510 0.5600 0.5675
2376.000000 0.5750 0.5803 0.5856 0.5897 0.5938
2371.000000 0.5974 0.6010 0.6047 0.6083 0.6104
2366.000000 0.6126 0.6145 0.6165 0.6182 0.6199
2361.000000 0.6212 0.6225 0.6238 0.6251 0.6257
2356.000000 0.6264 0.6269 0.6274 0.6278 0.6283
2351.000000 0.6288 0.6294 0.6327 0.6360 0.6371
2346.000000 0.6382 0.6393 0.6404 0.6415 0.6425
2341.000000 0.6436 0.6447 0.6457 0.6467 0.6474
2336.000000 0.6482 0.6489 0.6497 0.6505 0.6512
2331.000000 0.6519 0.6528 0.6535 0.6543 0.6550
2326.000000 0.6558 0.6565 0.6572 0.6580 0.6588
2321.000000 0.6595 0.6601 0.6608 0.6615 0.6622
2316.000000 0.6630 0.6637 0.6644 0.6651 0.6658
2311.000000 0.6665 0.6671 0.6678 0.6686 0.6693
2306.000000 0.6701 0.6708 0.6715 0.6721 0.6730
2301.000000 0.6737 0.6745 0.6751 0.6758 0.6765
2296.000000 0.6774 0.6781 0.6789 0.6796 0.6803
2291.000000 0.6810 0.6818 0.6825 0.6833 0.6840
2286.000000 0.6847 0.6853 0.6860 0.6865 0.6872
2281.000000 0.6880 0.6887 0.6893 0.6900 0.6908
2276.000000 0.6917 0.6925 0.6934 0.6942 0.6951
2271.000000 0.6958 0.6968 0.6975 0.6982 0.6989
2266.000000 0.6997 0.7004 0.7011 0.7018 0.7025
2261.000000 0.7032 0.7039 0.7046 0.7053 0.7060
2256.000000 0.7067 0.7074 0.7081 0.7087 0.7094
2251.000000 0.7099 0.7105 0.7107 0.7108 0.7111
2246.000000 0.7114 0.7106 0.7099 0.7084 0.7068
2241.000000 0.7051 0.7036 0.7018 0.7003 0.6995
2236.000000 0.6988 0.6986 0.6985 0.6984 0.6983
2231.000000 0.6991 0.6999 0.7015 0.7033 0.7055
2226.000000 0.7078 0.7095 0.7112 0.7125 0.7139
2221.000000 0.7147 0.7156 0.7162 0.7169 0.7176
2216.000000 0.7185 0.7192 0.7200 0.7207 0.7214
2211.000000 0.7219 0.7226 0.7232 0.7238 0.7243
2206.000000 0.7249 0.7254 0.7258 0.7261 0.7265
2201.000000 0.7267 0.7269 0.7272 0.7275 0.7278
2196.000000 0.7282 0.7285 0.7311 0.7291 0.7295
2191.000000 0.7294 0.7294 0.7292 0.7291 0.7288
2186.000000 0.7286 0.7282 0.7278 0.7257 0.7237
2181.000000 0.7208 0.7181 0.7154 0.7128 0.7107
2176.000000 0.7087 0.7058 0.7030 0.6988 0.6947
2171.000000 0.6921 0.6896 0.6897 0.6875 0.6905
2166.000000 0.6911 0.6932 0.6951 0.6993 0.7034
2161.000000 0.7086 0.7139 0.7168 0.7198 0.7218
2156.000000 0.7239 0.7255 0.7271 0.7287 0.7303
2151.000000 0.7311 0.7321 0.7330 0.7339 0.7347
2146.000000 0.7355 0.7358 0.7361 0.7365 0.7368
2141.000000 0.7372 0.7383 0.7378 0.7380 0.7381
2136.000000 0.7382 0.7382 0.7383 0.7383 0.7383
2131.000000 0.7382 0.7378 0.7374 0.7369 0.7346
2126.000000 0.7322 0.7299 0.7275 0.7245 0.7214
2121.000000 0.7184 0.7155 0.7133 0.7111 0.7101
2116.000000 0.7093 0.7090 0.7087 0.7084 0.7081
2111.000000 0.7078 0.7075 0.7080 0.7086 0.7096
2106.000000 0.7107 0.7121 0.7138 0.7151 0.7164
2101.000000 0.7165 0.7165 0.7165 0.7167 0.7168
2096.000000 0.7168 0.7168 0.7168 0.7167 0.7165
2091.000000 0.7161 0.7160 0.7157 0.7156 0.7156
2086.000000 0.7158 0.7161 0.7165 0.7169 0.7174
2081.000000 0.7178 0.7182 0.7185 0.7188 0.7190
2076.000000 0.7193 0.7195 0.7198 0.7200 0.7203
2071.000000 0.7205 0.7208 0.7210 0.7212 0.7214
2066.000000 0.7215 0.7215 0.7215 0.7217 0.7218
2061.000000 0.7218 0.7219 0.7221 0.7221 0.7221
2056.000000 0.7221 0.7221 0.7221 0.7221 0.7221
2051.000000 0.7221 0.7222 0.7222 0.7222 0.7222
2046.000000 0.7222 0.7222 0.7224 0.7228 0.7232
2041.000000 0.7236 0.7240 0.7244 0.7248 0.7251
2036.000000 0.7256 0.7258 0.7262 0.7265 0.7268
2031.000000 0.7271 0.7275 0.7278 0.7282 0.7285
2026.000000 0.7288 0.7288 0.7288 0.7287 0.7286
2021.000000 0.7284 0.7283 0.7281 0.7280 0.7276
2016.000000 0.7274 0.7271 0.7268 0.7265 0.7262
2011.000000 0.7260 0.7257 0.7251 0.7246 0.7241
2006.000000 0.7236 0.7231 0.7225 0.7221 0.7215
2001.000000 0.7207 0.7198 0.7188 0.7178 0.7169
1996.000000 0.7161 0.7153 0.7145 0.7136 0.7124
1991.000000 0.7118 0.7115 0.7111 0.7106 0.7100
1986.000000 0.7099 0.7099 0.7105 0.7111 0.7115
1981.000000 0.7121 0.7128 0.7134 0.7139 0.7145
1976.000000 0.7147 0.7142 0.7156 0.7171 0.7183
1971.000000 0.7190 0.7198 0.7205 0.7211 0.7219
1966.000000 0.7226 0.7235 0.7242 0.7250 0.7258
1961.000000 0.7265 0.7272 0.7280 0.7286 0.7292
1956.000000 0.7298 0.7303 0.7304 0.7305 0.7303
1951.000000 0.7301 0.7300 0.7298 0.7293 0.7286
1946.000000 0.7278 0.7271 0.7262 0.7255 0.7246
1941.000000 0.7237 0.7228 0.7222 0.7221 0.7221
1936.000000 0.7219 0.7218 0.7218 0.7218 0.7218
1931.000000 0.7221 0.7224 0.7226 0.7230 0.7230
1926.000000 0.7228 0.7228 0.7222 0.7208 0.7194
1921.000000 0.7178 0.7165 0.7156 0.7148 0.7139
1916.000000 0.7128 0.7118 0.7118 0.7117 0.7118
1911.000000 0.7121 0.7124 0.7125 0.7121 0.7115
1906.000000 0.7111 0.7106 0.7101 0.7101 0.7101
1901.000000 0.7105 0.7126 0.7148 0.7169 0.7191
1896.000000 0.7211 0.7233 0.7253 0.7274 0.7295
1891.000000 0.7311 0.7328 0.7338 0.7340 0.7342
1886.000000 0.7343 0.7343 0.7343 0.7338 0.7333
1881.000000 0.7328 0.7324 0.7321 0.7318 0.7318
1876.000000 0.7318 0.7318 0.7319 0.7331 0.7343
1871.000000 0.7356 0.7368 0.7380 0.7388 0.7397
1866.000000 0.7405 0.7414 0.7419 0.7425 0.7428
1861.000000 0.7434 0.7438 0.7440 0.7442 0.7444
1856.000000 0.7446 0.7449 0.7451 0.7457 0.7461
1851.000000 0.7467 0.7471 0.7476 0.7482 0.7487
1846.000000 0.7492 0.7496 0.7501 0.7503 0.7498
1841.000000 0.7493 0.7488 0.7483 0.7471 0.7445
1836.000000 0.7421 0.7401 0.7391 0.7384 0.7386
1831.000000 0.7396 0.7406 0.7415 0.7425 0.7435
1826.000000 0.7445 0.7455 0.7465 0.7478 0.7491
1821.000000 0.7500 0.7508 0.7518 0.7526 0.7536
1816.000000 0.7544 0.7553 0.7553 0.7551 0.7549
1811.000000 0.7546 0.7537 0.7528 0.7519 0.7511
1806.000000 0.7504 0.7497 0.7489 0.7482 0.7474
1801.000000 0.7467 0.7458 0.7451 0.7444 0.7436
1796.000000 0.7428 0.7419 0.7414 0.7411 0.7410
1791.000000 0.7408 0.7406 0.7419 0.7408 0.7411
1786.000000 0.7415 0.7418 0.7421 0.7425 0.7428
1781.000000 0.7434 0.7441 0.7448 0.7456 0.7462
1776.000000 0.7469 0.7481 0.7493 0.7505 0.7517
1771.000000 0.7528 0.7538 0.7547 0.7556 0.7564
1766.000000 0.7571 0.7578 0.7585 0.7592 0.7599
1761.000000 0.7606 0.7606 0.7607 0.7608 0.7604
1756.000000 0.7599 0.7595 0.7592 0.7576 0.7557
1751.000000 0.7537 0.7518 0.7498 0.7475 0.7447
1746.000000 0.7418 0.7391 0.7322 0.7248 0.7148
1741.000000 0.7048 0.6675 0.6524 0.6370 0.6212
1736.000000 0.6006 0.5733 0.5526 0.5306 0.5021
1731.000000 0.4677 0.4298 0.3629 0.3532 0.3119
1726.000000 0.2600 0.2081 0.1617 0.0248 0.0179
1721.000000 0.0212 0.0213 0.0228 0.0250 0.0620
1716.000000 0.1172 0.1725 0.2277 0.2829 0.3380
1711.000000 0.3934 0.4334 0.4537 0.4720 0.4874
1706.000000 0.5000 0.5126 0.5252 0.5399 0.5524
1701.000000 0.5602 0.5680 0.5747 0.5805 0.5864
1696.000000 0.5922 0.5979 0.6036 0.6096 0.6159
1691.000000 0.6223 0.6279 0.6335 0.6390 0.6446
1686.000000 0.6511 0.6576 0.6606 0.6618 0.6619
1681.000000 0.6615 0.6582 0.6525 0.6475 0.6436
1676.000000 0.6428 0.6440 0.6508 0.6568 0.6625
1671.000000 0.6681 0.6730 0.6776 0.6825 0.6874
1666.000000 0.6890 0.6893 0.6896 0.6898 0.6901
1661.000000 0.6901 0.6903 0.6903 0.6903 0.6905
1656.000000 0.6910 0.6915 0.6921 0.6926 0.6933
1651.000000 0.6942 0.6954 0.6965 0.6976 0.6989
1646.000000 0.7001 0.7005 0.7008 0.7011 0.7015
1641.000000 0.7019 0.7024 0.7025 0.7025 0.7024
1636.000000 0.7022 0.7021 0.7021 0.7021 0.7024
1631.000000 0.7025 0.7028 0.7030 0.7032 0.7034
1626.000000 0.7036 0.7039 0.7043 0.7046 0.7049
1621.000000 0.7054 0.7058 0.7062 0.7067 0.7071
1616.000000 0.7075 0.7076 0.7087 0.7086 0.7085
1611.000000 0.7087 0.7088 0.7084 0.7072 0.7057
1606.000000 0.7034 0.7011 0.6989 0.6965 0.6917
1601.000000 0.6868 0.6781 0.6615 0.6196 0.5806
1596.000000 0.5406 0.5402 0.5383 0.5379 0.5442
1591.000000 0.5525 0.5609 0.5730 0.5874 0.6393
1586.000000 0.6615 0.6711 0.6746 0.6750 0.6730
1581.000000 0.6699 0.6675 0.6658 0.6658 0.7008
1576.000000 0.7148 0.7190 0.7234 0.7267 0.7295
1571.000000 0.7319 0.7338 0.7346 0.7342 0.7336
1566.000000 0.7325 0.7315 0.7305 0.7295 0.7286
1561.000000 0.7280 0.7274 0.7267 0.7261 0.7255
1556.000000 0.7250 0.7251 0.7254 0.7255 0.7257
1551.000000 0.7258 0.7261 0.7265 0.7268 0.7271
1546.000000 0.7281 0.7292 0.7301 0.7312 0.7322
1541.000000 0.7332 0.7341 0.7350 0.7358 0.7367
1536.000000 0.7375 0.7385 0.7390 0.7391 0.7392
1531.000000 0.7393 0.7394 0.7395 0.7393 0.7391
1526.000000 0.7389 0.7387 0.7384 0.7376 0.7369
1521.000000 0.7362 0.7356 0.7348 0.7340 0.7325
1516.000000 0.7312 0.7299 0.7275 0.7249 0.7221
1511.000000 0.7165 0.7104 0.7033 0.6943 0.6751
1506.000000 0.6457 0.6162 0.5866 0.5609 0.5569
1501.000000 0.5691 0.5855 0.6019 0.6183 0.6347
1496.000000 0.6511 0.6646 0.6700 0.6754 0.6821
1491.000000 0.6886 0.6907 0.6919 0.6941 0.6921
1486.000000 0.6911 0.6891 0.6869 0.6839 0.6795
1481.000000 0.6751 0.6704 0.6590 0.6468 0.6325
1476.000000 0.6173 0.6026 0.5888 0.4987 0.4524
1471.000000 0.4533 0.4572 0.5001 0.5338 0.5347
1466.000000 0.5123 0.4769 0.4414 0.4059 0.3704
1461.000000 0.3545 0.3600 0.3899 0.4197 0.4496
1456.000000 0.4794 0.5339 0.5322 0.5314 0.5050
1451.000000 0.4667 0.4283 0.3886 0.3876 0.3904
1446.000000 0.4197 0.4490 0.4783 0.5057 0.5244
1441.000000 0.5527 0.5810 0.5979 0.5979 0.5979
1436.000000 0.5632 0.5285 0.4938 0.4591 0.4244
1431.000000 0.3897 0.3550 0.3024 0.3210 0.3453
1426.000000 0.3695 0.3858 0.3946 0.4086 0.4259
1421.000000 0.4662 0.5210 0.5476 0.5828 0.5919
1416.000000 0.6009 0.6102 0.6193 0.6246 0.6276
1411.000000 0.6298 0.6310 0.6322 0.6327 0.6327
1406.000000 0.6326 0.6303 0.6281 0.6243 0.6185
1401.000000 0.6112 0.6031 0.5879 0.5720 0.5560
1396.000000 0.5402 0.5243 0.5084 0.4926 0.4772
1391.000000 0.4883 0.5187 0.5492 0.5784 0.5901
1386.000000 0.5976 0.6034 0.6073 0.6094 0.6097
1381.000000 0.6098 0.6098 0.6091 0.6079 0.6059
1376.000000 0.6025 0.5984 0.5921 0.5719 0.5515
1371.000000 0.5336 0.5400 0.5607 0.5721 0.5739
1366.000000 0.5770 0.5809 0.5853 0.5895 0.5935
1361.000000 0.5992 0.5912 0.5869 0.5825 0.5806
1356.000000 0.5807 0.5809 0.5810 0.5810 0.5795
1351.000000 0.5749 0.5699 0.5637 0.5574 0.5525
1346.000000 0.5493 0.5460 0.5459 0.5458 0.5481
1341.000000 0.5536 0.5550 0.5562 0.5567 0.5500
1336.000000 0.5405 0.5294 0.5043 0.4792 0.4542
1331.000000 0.3994 0.2944 0.2875 0.2801 0.2703
1326.000000 0.2625 0.2597 0.2578 0.2993 0.3566
1321.000000 0.4140 0.4623 0.4632 0.4647 0.4666
1316.000000 0.4923 0.5214 0.5505 0.5796 0.5976
1311.000000 0.6001 0.6029 0.6069 0.6205 0.6419
1306.000000 0.6603 0.6926 0.7051 0.7104 0.7156
1301.000000 0.7208 0.7241 0.7271 0.7304 0.7335
1296.000000 0.7350 0.7364 0.7378 0.7392 0.7397
1291.000000 0.7399 0.7401 0.7405 0.7407 0.7408
1286.000000 0.7408 0.7407 0.7401 0.7395 0.7388
1281.000000 0.7382 0.7360 0.7338 0.7315 0.7275
1276.000000 0.7236 0.7195 0.7137 0.7074 0.7011
1271.000000 0.6956 0.6901 0.6847 0.6762 0.6675
1266.000000 0.6587 0.6493 0.6384 0.6274 0.6115
1261.000000 0.5929 0.5729 0.5521 0.5305 0.5006
1256.000000 0.4152 0.3934 0.3775 0.3610 0.3441
1251.000000 0.2876 0.2570 0.2153 0.1252 0.0963
1246.000000 0.0674 0.0496 0.0334 0.0237 0.0212
1241.000000 0.0201 0.0225 0.0275 0.0306 0.0333
1236.000000 0.0360 0.0391 0.0425 0.0490 0.0559
1231.000000 0.0626 0.0691 0.0757 0.1463 0.1931
1226.000000 0.2400 0.2868 0.3374 0.3636 0.3905
1221.000000 0.4174 0.4443 0.4712 0.4981 0.5250
1216.000000 0.5519 0.5840 0.5852 0.5845 0.5859
1211.000000 0.5832 0.5718 0.5375 0.5435 0.5369
1206.000000 0.5360 0.5359 0.5715 0.6122 0.6553
1201.000000 0.6889 0.6958 0.7007 0.7035 0.7056
1196.000000 0.7074 0.7106 0.7138 0.7171 0.7253
1191.000000 0.7401 0.7554 0.7551 0.7561 0.7565
1186.000000 0.7555 0.7507 0.7442 0.7274 0.7174
1181.000000 0.7075 0.6891 0.6377 0.5862 0.5350
1176.000000 0.4836 0.4322 0.3808 0.3295 0.2781
1171.000000 0.2267 0.1753 0.1240 0.0757 0.0524
1166.000000 0.0430 0.0455 0.0447 0.0444 0.0497
1161.000000 0.0639 0.1774 0.1990 0.2264 0.2483
1156.000000 0.2678 0.2856 0.3075 0.3370 0.3752
1151.000000 0.4195 0.4631 0.5067 0.5503 0.6255
1146.000000 0.6366 0.6457 0.6526 0.6604 0.6690
1141.000000 0.6696 0.6698 0.6683 0.6621 0.6560
1136.000000 0.6508 0.6514 0.6545 0.6757 0.6960
1131.000000 0.7136 0.7250 0.7378 0.7461 0.7538
1126.000000 0.7551 0.7542 0.7538 0.7511 0.7486
1121.000000 0.7433 0.7367 0.7001 0.6746 0.6490
1116.000000 0.6234 0.5954 0.5974 0.5974 0.5997
1111.000000 0.6116 0.6612 0.7108 0.7403 0.7492
1106.000000 0.7576 0.7654 0.7733 0.7778 0.7817
1101.000000 0.7840 0.7854 0.7855 0.7855 0.7846
1096.000000 0.7825 0.7804 0.7778 0.7753 0.7724
1091.000000 0.7688 0.7653 0.7603 0.7543 0.7487
1086.000000 0.7430 0.6975 0.6380 0.5783 0.5214
1081.000000 0.5231 0.5439 0.5847 0.6255 0.6662
1076.000000 0.7071 0.7538 0.7622 0.7675 0.7718
1071.000000 0.7761 0.7793 0.7817 0.7832 0.7847
1066.000000 0.7853 0.7857 0.7858 0.7854 0.7832
1061.000000 0.7810 0.7734 0.7478 0.6951 0.6939
1056.000000 0.6993 0.7121 0.7251 0.7380 0.7462
1051.000000 0.7488 0.7521 0.7218 0.6942 0.6665
1046.000000 0.6388 0.6110 0.5993 0.6283 0.6565
1041.000000 0.6850 0.7231 0.7210 0.7183 0.6986
1036.000000 0.6790 0.6594 0.6397 0.6201 0.6005
1031.000000 0.5808 0.5612 0.5416 0.5219 0.5023
1026.000000 0.4773 0.4436 0.4100 0.3762 0.3427
1021.000000 0.3091 0.2754 0.2418 0.2264 0.2244
1016.000000 0.2398 0.2793 0.3187 0.3582 0.3976
1011.000000 0.4371 0.4765 0.5160 0.5554 0.5949
1006.000000 0.6324 0.6367 0.6345 0.6348 0.6159
1001.000000 0.5831 0.5504 0.5176 0.4849 0.4627
996.000000 0.4815 0.5060 0.5307 0.5526 0.5573
991.000000 0.6525 0.7521 0.7810 0.7858 0.7908
986.000000 0.7955 0.7975 0.7984 0.7984 0.8001
981.000000 0.7969 0.7953 0.7919 0.7880 0.7830
976.000000 0.7765 0.7726 0.7691 0.7708 0.7701
971.000000 0.7845 0.7965 0.8018 0.8069 0.8118
966.000000 0.8155 0.8193 0.8230 0.8250 0.8267
961.000000 0.8284 0.8296 0.8307 0.8317 0.8321
956.000000 0.8325 0.8328 0.8331 0.8334 0.8335
951.000000 0.8335 0.8334 0.8330 0.8325 0.8320
946.000000 0.8309 0.8298 0.8288 0.8270 0.8248
941.000000 0.8227 0.8154 0.7804 0.7475 0.7415
936.000000 0.7383 0.7351 0.7328 0.7305 0.7162
931.000000 0.6508 0.5855 0.5201 0.4655 0.4659
926.000000 0.5650 0.6254 0.6858 0.7461 0.7632
921.000000 0.7595 0.7569 0.7556 0.7547 0.7725
916.000000 0.7934 0.8143 0.8359 0.8434 0.8467
911.000000 0.8508 0.8489 0.8473 0.8428 0.8375
906.000000 0.8325 0.8287 0.8278 0.8262 0.8266
901.000000 0.8275 0.8345 0.8381 0.8506 0.8518
896.000000 0.8530 0.8542 0.8555 0.8567 0.8578
891.000000 0.8593 0.8608 0.8621 0.8635 0.8639
886.000000 0.8642 0.8684 0.8644 0.8637 0.8630
881.000000 0.8624 0.8617 0.8600 0.8578 0.8557
876.000000 0.8515 0.8463 0.8370 0.8254 0.8155
871.000000 0.8033 0.7908 0.7805 0.7271 0.6843
866.000000 0.6839 0.6839 0.6928 0.7125 0.7318
861.000000 0.8049 0.8194 0.8291 0.8344 0.8396
856.000000 0.8434 0.8456 0.8474 0.8504 0.8495
851.000000 0.8446 0.8331 0.8216 0.8101 0.8067
846.000000 0.8068 0.8147 0.8337 0.8471 0.8573
841.000000 0.8651 0.8703 0.8744 0.8778 0.8806
836.000000 0.8832 0.8853 0.8870 0.8887 0.8904
831.000000 0.8912 0.8892 0.8924 0.8924 0.8924
826.000000 0.8921 0.8913 0.8904 0.8895 0.8886
821.000000 0.8870 0.8847 0.8824 0.8796 0.8752
816.000000 0.8694 0.8607 0.8544 0.8496 0.8487
811.000000 0.8465 0.8471 0.8505 0.8604 0.8668
806.000000 0.8728 0.8765 0.8802 0.8833 0.8854
801.000000 0.8870 0.8881 0.8892 0.8904 0.8915
796.000000 0.8921 0.8927 0.8930 0.8937 0.8937
791.000000 0.8927 0.8917 0.8907 0.8877 0.8845
786.000000 0.8813 0.8781 0.8740 0.8687 0.8633
781.000000 0.8578 0.8510 0.8442 0.8358 0.8239
776.000000 0.8131 0.8046 0.7380 0.6277 0.5173
771.000000 0.4068 0.3272 0.3290 0.4147 0.5020
766.000000 0.5893 0.6765 0.7672 0.8218 0.8536
761.000000 0.8582 0.8623 0.8637 0.8646 0.8654
756.000000 0.8657 0.8668 0.8661 0.8651 0.8641
751.000000 0.8628 0.8595 0.8561 0.8528 0.8489
746.000000 0.8404 0.8318 0.8216 0.8101 0.7965
741.000000 0.7768 0.7550 0.7319 0.6775 0.6122
736.000000 0.5469 0.4816 0.4162 0.3509 0.2855
731.000000 0.2479 0.2458 0.3475 0.4370 0.5265
726.000000 0.6811 0.6878 0.6954 0.7045 0.7192
721.000000 0.7368 0.7530 0.7639 0.7740 0.7872
716.000000 0.7956 0.7951 0.7949 0.7919 0.7886
711.000000 0.7803 0.7710 0.7135 0.6192 0.5248
706.000000 0.4305 0.3257 0.3280 0.3479 0.4045
701.000000 0.4610 0.5177 0.5743 0.6309 0.6875
696.000000 0.7441 0.8008 0.8574 0.8868 0.8921
691.000000 0.8999 0.9040 0.9047 0.9053 0.9055
686.000000 0.9056 0.9057 0.9058 0.9059 0.9059
681.000000 0.9060 0.9060 0.9061 0.9061 0.9061
676.000000 0.9063 0.9066 0.9068 0.9071 0.9085
671.000000 0.9099 0.9121 0.9147 0.9158 0.9170
666.000000 0.9180 0.9180 0.9181 0.9181 0.9181
661.000000 0.9181 0.9178 0.9178 0.9177 0.9174
656.000000 0.9170 0.9165 0.9161 0.9146 0.9125
651.000000 0.9093 0.9055 0.8996 0.8928 0.8803
646.000000 0.8214 0.7625 0.7038 0.6449 0.5860
641.000000 0.5006 0.5024 0.5266 0.6215 0.7165
636.000000 0.8115 0.8927 0.8982 0.9028 0.9068
631.000000 0.9103 0.9131 0.9150 0.9167 0.9168
626.000000 0.9168 0.9154 0.9124 0.9085 0.9046
621.000000 0.8996 0.8971 0.8966 0.8982 0.9078
616.000000 0.9120 0.9125 0.9128 0.9131 0.9134
611.000000 0.9180 0.9137 0.9138 0.9138 0.9139
606.000000 0.9140 0.9140 0.9140 0.9140 0.9140
601.000000 0.9139 0.9139 0.9138 0.9128 0.9118
596.000000 0.9108 0.9098 0.9088 0.9064 0.9041
591.000000 0.9016 0.8984 0.8953 0.8911 0.8866
586.000000 0.8820 0.8765 0.8637 0.8546 0.8460
581.000000 0.8380 0.7937 0.6844 0.6845 0.6845
576.000000 0.6969 0.7375 0.7780 0.8185 0.8560
571.000000 0.8713 0.8815 0.8853 0.8867 0.8880
566.000000 0.8893 0.8904 0.8915 0.8925 0.8937
561.000000 0.8943 0.8947 0.8959 0.8953 0.8957
556.000000 0.8955 0.8947 0.8939 0.8931 0.8923
551.000000 0.8915 0.8888 0.8860 0.8832 0.8789
546.000000 0.8728 0.8668 0.8609 0.8502 0.8399
541.000000 0.8323 0.8248 0.8171 0.8094 0.8014
536.000000 0.7984 0.7976 0.7969 0.7962 0.7957
531.000000 0.7926 0.7784 0.7571 0.7361 0.7150
526.000000 0.6938 0.6456 0.6515 0.6445 0.6451
521.000000 0.6530 0.7233 0.8061 0.8141 0.8227
516.000000 0.8265 0.8297 0.8325 0.8348 0.8370
511.000000 0.8409 0.8374 0.8374 0.8375 0.8356
506.000000 0.8334 0.8313 0.8302 0.8290 0.8270
501.000000 0.8247 0.8224 0.8185 0.8125 0.8065
496.000000 0.7899 0.7719 0.7541 0.7361 0.7183
491.000000 0.7017 0.7033 0.7318 0.7621 0.7967
486.000000 0.8050 0.8088 0.8100 0.8108 0.8107
481.000000 0.8104 0.8092 0.8081 0.8069 0.8058
476.000000 0.8047 0.8036 0.8018 0.8000 0.7981
471.000000 0.7962 0.7937 0.7906 0.7875 0.7844
466.000000 0.7812 0.7771 0.7714 0.7657 0.7599
461.000000 0.7550 0.7517 0.7484 0.7444 0.7399
456.000000 0.7355 0.7318 0.7286 0.7275 0.7268
451.000000 0.7265 0.7261 0.7258 0.7251 0.7231
446.000000 0.7210 0.7165 0.7108 0.7051 0.6994
441.000000 0.6921 0.6849 0.6785 0.6739 0.6694
436.000000 0.6648 0.6604 0.6558 0.6515 0.6471
431.000000 0.6417 0.6356 0.6295 0.6225 0.6139
426.000000 0.6097 0.6054 0.6012 0.5970 0.5952
421.000000 0.5936 0.5921 0.5907 0.5871 0.5892
416.000000 0.5890 0.5890 0.5895 0.5900 0.5906
411.000000 0.5914 0.5933 0.5952 0.5974 0.6003
406.000000 0.6033 0.6062 0.6092 0.6134 0.6177
##END=
