##TITLE=6,9-DICHLORO-2-METHOXY ACRIDINE
$$ E.K. (W.L.)
##JCAMP-DX=4.24
##DATA TYPE=INFRARED SPECTRUM
##CLASS=COBLENTZ
##ORIGIN=WYANDOTTE CHEMICALS CORP., WYANDOTTE, MICHIGAN, USA
##OWNER=COBLENTZ SOCIETY
Collection (C) 2018 copyright by the U.S. Secretary of Commerce
on behalf of the United States of America. All rights reserved.
##DATE=Not specified, most likely prior to 1970
##NAMES=6,9-dichloro-4-acridinyl methyl ether
3,9-dichloro-5-methoxyacridine
##MOLFORM=C14 H9 Cl2 N O
##MP=162-164 C
##SOURCE REFERENCE=COBLENTZ NO. 596
##$NIST ID=B6000596
##$NIST SOURCE=COBLENTZ
##$NIST IMAGE=cob596
##SPECTROMETER/DATA SYSTEM=Not specified, most likely a prism, grating, or hybrid spectrometer.
##SAMPLING PROCEDURE=TRANSMISSION
##RESOLUTION=4
##DATA PROCESSING=DIGITIZED BY NIST FROM HARD COPY
##XUNITS=MICROMETERS
##YUNITS=TRANSMITTANCE
##XFACTOR=1.000000
##YFACTOR=1
##DELTAX=000.006653
##FIRSTX=2.022
##LASTX=16.014
##FIRSTY=0.17
##MAXX=16.014
##MINX=2.022
##MAXY=0.961
##MINY=0.018
##NPOINTS=2104
##XYDATA=(X++(Y..Y))
2.022000 0.1700 0.1700 0.1700 0.1700 0.1680
2.055283 0.1680 0.1680 0.1660 0.1660 0.1660
2.088000 0.1650 0.1660 0.1650 0.1650 0.1650
2.121283 0.1650 0.1650 0.1680 0.1680 0.1660
2.155000 0.1660 0.1650 0.1650 0.1630 0.1630
2.188283 0.1630 0.1630 0.1630 0.1630 0.1630
2.222000 0.1630 0.1610 0.1610 0.1600 0.1600
2.255283 0.1560 0.1530 0.1530 0.1510 0.1500
2.288000 0.1480 0.1500 0.1480 0.1480 0.1480
2.321283 0.1480 0.1480 0.1500 0.1510 0.1510
2.355000 0.1510 0.1500 0.1480 0.1480 0.1480
2.388283 0.1460 0.1460 0.1460 0.1460 0.1460
2.421000 0.1460 0.1460 0.1460 0.1450 0.1460
2.454283 0.1460 0.1460 0.1460 0.1460 0.1460
2.488000 0.1450 0.1450 0.1450 0.1450 0.1450
2.521283 0.1460 0.1460 0.1460 0.1460 0.1460
2.554000 0.1480 0.1480 0.1480 0.1500 0.1500
2.587283 0.1510 0.1510 0.1510 0.1510 0.1530
2.621000 0.1550 0.1560 0.1600 0.1650 0.1700
2.654283 0.1730 0.1730 0.1710 0.1680 0.1680
2.687000 0.1660 0.1680 0.1700 0.1710 0.1730
2.720283 0.1750 0.1710 0.1700 0.1680 0.1680
2.754000 0.1650 0.1630 0.1610 0.1610 0.1630
2.787283 0.1700 0.1730 0.1730 0.1710 0.1700
2.820000 0.1630 0.1600 0.1580 0.1560 0.1560
2.853283 0.1560 0.1560 0.1550 0.1550 0.1550
2.887000 0.1550 0.1550 0.1550 0.1550 0.1530
2.920283 0.1530 0.1530 0.1530 0.1530 0.1530
2.953000 0.1530 0.1530 0.1530 0.1510 0.1510
2.986283 0.1510 0.1510 0.1530 0.1530 0.1510
3.020000 0.1510 0.1500 0.1500 0.1500 0.1510
3.053283 0.1530 0.1530 0.1530 0.1530 0.1530
3.086000 0.1530 0.1530 0.1510 0.1510 0.1500
3.119283 0.1500 0.1500 0.1480 0.1450 0.1410
3.153000 0.1400 0.1380 0.1360 0.1350 0.1350
3.186283 0.1330 0.1330 0.1310 0.1310 0.1300
3.220000 0.1300 0.1260 0.1230 0.1210 0.1180
3.253283 0.1150 0.1080 0.1030 0.1000 0.1000
3.286000 0.0980 0.0980 0.0950 0.0900 0.0880
3.319283 0.0830 0.0750 0.0700 0.0610 0.0560
3.353000 0.0480 0.0400 0.0330 0.0260 0.0230
3.386283 0.0210 0.0210 0.0200 0.0200 0.0210
3.419000 0.0230 0.0250 0.0250 0.0250 0.0250
3.452283 0.0250 0.0230 0.0230 0.0230 0.0210
3.486000 0.0180 0.0180 0.0180 0.0200 0.0200
3.519283 0.0210 0.0250 0.0280 0.0350 0.0430
3.552000 0.0510 0.0610 0.0730 0.0810 0.0880
3.585283 0.0980 0.1150 0.1300 0.1350 0.1380
3.619000 0.1450 0.1500 0.1580 0.1610 0.1660
3.652283 0.1680 0.1700 0.1700 0.1710 0.1710
3.685000 0.1750 0.1750 0.1760 0.1760 0.1780
3.718283 0.1780 0.1800 0.1800 0.1800 0.1800
3.752000 0.1800 0.1800 0.1810 0.1810 0.1810
3.785283 0.1830 0.1830 0.1830 0.1830 0.1830
3.818000 0.1830 0.1850 0.1860 0.1860 0.1880
3.851283 0.1880 0.1900 0.1900 0.1900 0.1910
3.885000 0.1910 0.1950 0.1960 0.2020 0.2030
3.918283 0.2070 0.2080 0.2100 0.2120 0.2130
3.951000 0.2170 0.2180 0.2220 0.2230 0.2250
3.984283 0.2270 0.2280 0.2300 0.2300 0.2300
4.018000 0.2300 0.2280 0.2250 0.2220 0.2200
4.051283 0.2180 0.2170 0.2150 0.2150 0.2150
4.084000 0.2150 0.2150 0.2150 0.2130 0.2130
4.117283 0.2130 0.2130 0.2130 0.2130 0.2130
4.151000 0.2150 0.2150 0.2150 0.2150 0.2150
4.184283 0.2150 0.2150 0.2180 0.2200 0.2200
4.218000 0.2220 0.2220 0.2220 0.2230 0.2250
4.251283 0.2250 0.2200 0.2170 0.2150 0.2130
4.284000 0.2130 0.2150 0.2150 0.2180 0.2220
4.317283 0.2230 0.2230 0.2250 0.2250 0.2270
4.351000 0.2300 0.2320 0.2350 0.2380 0.2420
4.384283 0.2480 0.2550 0.2620 0.2630 0.2650
4.417000 0.2650 0.2670 0.2670 0.2670 0.2650
4.450283 0.2620 0.2600 0.2600 0.2550 0.2530
4.484000 0.2530 0.2570 0.2600 0.2600 0.2620
4.517283 0.2620 0.2630 0.2630 0.2650 0.2650
4.550000 0.2630 0.2620 0.2620 0.2620 0.2620
4.583283 0.2600 0.2620 0.2620 0.2600 0.2580
4.617000 0.2580 0.2580 0.2570 0.2580 0.2580
4.650283 0.2600 0.2600 0.2600 0.2580 0.2600
4.683000 0.2600 0.2620 0.2630 0.2630 0.2650
4.716283 0.2650 0.2680 0.2720 0.2770 0.2820
4.750000 0.2870 0.2870 0.2820 0.2820 0.2820
4.783283 0.2820 0.2880 0.2930 0.2930 0.2950
4.816000 0.2950 0.2970 0.3000 0.3030 0.3080
4.849283 0.3100 0.3120 0.3130 0.3150 0.3150
4.883000 0.3150 0.3130 0.3100 0.3080 0.3080
4.916283 0.3070 0.3050 0.3030 0.3030 0.3000
4.949000 0.2950 0.2900 0.2880 0.2900 0.2900
4.982283 0.2970 0.2980 0.3050 0.3120 0.3120
5.016000 0.3150 0.3150 0.3150 0.3170 0.3170
5.049283 0.3170 0.3170 0.3170 0.3170 0.3180
5.083000 0.3180 0.3200 0.3220 0.3270 0.3300
5.116283 0.3300 0.3220 0.3220 0.3230 0.3230
5.149000 0.3230 0.3250 0.3250 0.3270 0.3270
5.182283 0.3280 0.3300 0.3320 0.3350 0.3380
5.216000 0.3420 0.3470 0.3450 0.3400 0.3370
5.249283 0.3320 0.3270 0.3250 0.3200 0.3180
5.282000 0.3170 0.3170 0.3170 0.3180 0.3200
5.315283 0.3230 0.3270 0.3300 0.3330 0.3400
5.349000 0.3430 0.3470 0.3480 0.3500 0.3500
5.382283 0.3500 0.3520 0.3520 0.3550 0.3570
5.415000 0.3580 0.3620 0.3620 0.3580 0.3530
5.448283 0.3520 0.3520 0.3520 0.3550 0.3620
5.482000 0.3670 0.3700 0.3720 0.3750 0.3780
5.515283 0.3800 0.3830 0.3870 0.3880 0.3900
5.548000 0.3900 0.3850 0.3850 0.3850 0.3850
5.581283 0.3870 0.3870 0.3900 0.3950 0.4020
5.615000 0.4020 0.4000 0.3920 0.3880 0.3800
5.648283 0.3730 0.3670 0.3630 0.3650 0.3650
5.681000 0.3700 0.3700 0.3720 0.3720 0.3700
5.714283 0.3630 0.3650 0.3700 0.3770 0.3820
5.748000 0.3850 0.3880 0.3920 0.3980 0.4050
5.781283 0.4100 0.4140 0.4120 0.3980 0.3950
5.814000 0.3950 0.4000 0.4100 0.4190 0.4240
5.847283 0.4250 0.4250 0.4250 0.4290 0.4340
5.881000 0.4370 0.4400 0.4440 0.4470 0.4500
5.914283 0.4520 0.4520 0.4500 0.4520 0.4550
5.947000 0.4640 0.4690 0.4720 0.4740 0.4740
5.980283 0.4750 0.4750 0.4750 0.4740 0.4740
6.014000 0.4700 0.4650 0.4640 0.4640 0.4740
6.047283 0.4890 0.5420 0.5470 0.5400 0.5050
6.081000 0.4690 0.4000 0.3370 0.2430 0.1830
6.114283 0.1360 0.1230 0.1250 0.1280 0.1360
6.147000 0.1450 0.1580 0.1650 0.1750 0.1780
6.180283 0.1850 0.1880 0.1900 0.1880 0.1860
6.214000 0.1830 0.1730 0.1730 0.1760 0.1910
6.247283 0.2050 0.2200 0.2380 0.2700 0.2780
6.280000 0.2880 0.2920 0.2930 0.3000 0.3000
6.313283 0.2920 0.2880 0.2830 0.2780 0.2700
6.347000 0.2580 0.2480 0.2380 0.2300 0.2230
6.380283 0.2130 0.2070 0.1950 0.1830 0.1780
6.413000 0.1780 0.1810 0.1830 0.1900 0.1950
6.446283 0.2000 0.1980 0.2050 0.2200 0.2420
6.480000 0.2600 0.2770 0.2820 0.2870 0.2880
6.513283 0.2930 0.2950 0.2950 0.2970 0.2970
6.546000 0.2970 0.2920 0.2870 0.2770 0.2650
6.579283 0.2530 0.2520 0.2550 0.2730 0.2870
6.613000 0.3080 0.3230 0.3420 0.3520 0.3550
6.646283 0.3620 0.3650 0.3650 0.3600 0.3500
6.679000 0.3480 0.3470 0.3480 0.3480 0.3570
6.712283 0.3550 0.3230 0.2730 0.2330 0.1800
6.746000 0.1480 0.1260 0.1110 0.0960 0.0830
6.779283 0.0710 0.0630 0.0510 0.0400 0.0300
6.812000 0.0280 0.0300 0.0310 0.0350 0.0330
6.845283 0.0310 0.0330 0.0350 0.0380 0.0430
6.879000 0.0500 0.0580 0.0680 0.0810 0.0910
6.912283 0.0980 0.1100 0.1210 0.1210 0.1110
6.945000 0.1110 0.1110 0.1150 0.1250 0.1410
6.978283 0.1530 0.1600 0.1700 0.1680 0.1660
7.012000 0.1650 0.1600 0.1530 0.1450 0.1360
7.045283 0.1330 0.1280 0.1280 0.1350 0.1450
7.079000 0.1550 0.1550 0.1560 0.1530 0.1430
7.112283 0.1300 0.1210 0.1080 0.0980 0.0960
7.145000 0.1000 0.1010 0.1010 0.1060 0.1130
7.178283 0.1200 0.1280 0.1250 0.1150 0.1130
7.212000 0.1080 0.1030 0.0980 0.0900 0.0850
7.245283 0.0780 0.0730 0.0700 0.0730 0.0780
7.278000 0.0910 0.1050 0.1130 0.1210 0.1250
7.311283 0.1300 0.1400 0.1430 0.1580 0.1830
7.345000 0.2000 0.2120 0.2320 0.2470 0.2600
7.378283 0.2720 0.2830 0.2930 0.3020 0.3100
7.411000 0.3170 0.3230 0.3300 0.3370 0.3420
7.444283 0.3480 0.3530 0.3600 0.3650 0.3720
7.478000 0.3750 0.3770 0.3780 0.3780 0.3800
7.511283 0.3820 0.3870 0.3930 0.4040 0.4120
7.544000 0.4150 0.4150 0.4140 0.4040 0.3920
7.577283 0.3750 0.3630 0.3550 0.3500 0.3420
7.611000 0.3330 0.3220 0.3080 0.2930 0.2770
7.644283 0.2570 0.2320 0.2170 0.2000 0.1830
7.677000 0.1830 0.1860 0.2100 0.2300 0.2520
7.710283 0.2770 0.2980 0.3200 0.3350 0.3450
7.744000 0.3520 0.3580 0.3630 0.3700 0.3780
7.777283 0.3900 0.3930 0.4020 0.4120 0.4240
7.810000 0.4350 0.4450 0.4520 0.4570 0.4600
7.843283 0.4620 0.4620 0.4520 0.4370 0.4140
7.877000 0.3880 0.3620 0.3220 0.2800 0.2320
7.910283 0.2150 0.1760 0.1730 0.1750 0.1930
7.943000 0.2130 0.2420 0.2700 0.2930 0.3200
7.976283 0.3500 0.3800 0.4090 0.4320 0.4690
8.010000 0.5340 0.5420 0.5550 0.5600 0.5600
8.043283 0.5500 0.5300 0.5090 0.4970 0.4850
8.077000 0.4700 0.4350 0.3880 0.3350 0.2800
8.110283 0.2250 0.1800 0.1460 0.1300 0.1060
8.143000 0.0950 0.0810 0.0700 0.0580 0.0530
8.176283 0.0500 0.0450 0.0430 0.0380 0.0400
8.210000 0.0410 0.0430 0.0460 0.0500 0.0560
8.243283 0.0660 0.0760 0.0810 0.0880 0.0980
8.276000 0.1060 0.1160 0.1210 0.1330 0.1400
8.309283 0.1400 0.1350 0.1330 0.1300 0.1300
8.343000 0.1310 0.1400 0.1450 0.1550 0.1680
8.376283 0.1810 0.1960 0.2100 0.2250 0.2380
8.409000 0.2420 0.2530 0.2650 0.2680 0.2700
8.442283 0.2650 0.2430 0.2300 0.2080 0.1710
8.476000 0.1530 0.1500 0.1500 0.1560 0.1650
8.509283 0.1710 0.1850 0.1960 0.2070 0.2170
8.542000 0.2270 0.2380 0.2500 0.2570 0.2700
8.575283 0.2780 0.2830 0.2900 0.2980 0.3070
8.609000 0.3150 0.3220 0.3280 0.3320 0.3370
8.642283 0.3400 0.3420 0.3430 0.3420 0.3420
8.675000 0.3380 0.3350 0.3330 0.3270 0.3170
8.708283 0.3050 0.2850 0.2780 0.2780 0.2800
8.742000 0.2980 0.3100 0.3220 0.3370 0.3480
8.775283 0.3580 0.3600 0.3620 0.3600 0.3500
8.808000 0.3420 0.3330 0.3300 0.3300 0.3280
8.841283 0.3280 0.3230 0.3180 0.3080 0.3020
8.875000 0.2920 0.2880 0.2880 0.2930 0.3000
8.908283 0.3070 0.3120 0.3200 0.3270 0.3350
8.941000 0.3430 0.3530 0.3620 0.3700 0.3770
8.974283 0.3850 0.3920 0.4000 0.4100 0.4170
9.008000 0.4240 0.4240 0.4270 0.4340 0.4370
9.041283 0.4440 0.4490 0.4540 0.4590 0.4620
9.075000 0.4670 0.4720 0.4750 0.4800 0.4840
9.108283 0.4890 0.4920 0.4970 0.5100 0.5170
9.141000 0.5220 0.5250 0.5250 0.5270 0.5290
9.174283 0.5300 0.5340 0.5370 0.5390 0.5420
9.208000 0.5390 0.5350 0.5300 0.5220 0.5140
9.241283 0.5050 0.5020 0.4990 0.4920 0.4740
9.274000 0.4700 0.4700 0.4720 0.4740 0.4770
9.307283 0.4770 0.4770 0.4770 0.4750 0.4740
9.341000 0.4690 0.4590 0.4470 0.4350 0.4170
9.374283 0.3950 0.3630 0.3030 0.2580 0.2250
9.407000 0.1810 0.1530 0.1510 0.1510 0.1600
9.440283 0.1760 0.1930 0.2120 0.2320 0.2500
9.474000 0.2700 0.2900 0.3070 0.3250 0.3380
9.507283 0.3520 0.3630 0.3720 0.3770 0.3830
9.540000 0.3880 0.3950 0.4000 0.4050 0.4100
9.573283 0.4200 0.4220 0.4240 0.4290 0.4340
9.607000 0.4350 0.4340 0.4320 0.4270 0.4240
9.640283 0.4150 0.4050 0.3950 0.3850 0.3730
9.673000 0.3580 0.3430 0.3250 0.3050 0.2820
9.706283 0.2550 0.2250 0.1900 0.1680 0.1460
9.740000 0.1330 0.1260 0.1250 0.1280 0.1380
9.773283 0.1530 0.1600 0.1710 0.1860 0.2080
9.806000 0.2270 0.2430 0.2580 0.2720 0.2830
9.839283 0.2920 0.3020 0.3080 0.3150 0.3220
9.873000 0.3300 0.3370 0.3470 0.3550 0.3630
9.906283 0.3720 0.3780 0.3850 0.3900 0.3950
9.939000 0.4020 0.4050 0.4100 0.4150 0.4200
9.972283 0.4240 0.4290 0.4320 0.4370 0.4420
10.006000 0.4470 0.4520 0.4570 0.4640 0.4690
10.039283 0.4700 0.4720 0.4770 0.4790 0.4800
10.073000 0.4800 0.4800 0.4800 0.4820 0.4820
10.106283 0.4820 0.4820 0.4820 0.4820 0.4850
10.139000 0.4890 0.4950 0.4950 0.5020 0.5000
10.172283 0.5000 0.4970 0.4940 0.4900 0.4870
10.206000 0.4850 0.4820 0.4840 0.4940 0.4970
10.239283 0.4990 0.5090 0.5150 0.5220 0.5270
10.272000 0.5320 0.5340 0.5350 0.5370 0.5400
10.305283 0.5420 0.5440 0.5450 0.5500 0.5540
10.339000 0.5590 0.5650 0.5720 0.5820 0.5840
10.372283 0.5850 0.5850 0.5840 0.5790 0.5690
10.405000 0.5540 0.5450 0.5370 0.5350 0.5320
10.438283 0.5290 0.5290 0.5320 0.5370 0.5390
10.472000 0.5350 0.5300 0.5240 0.5200 0.5140
10.505283 0.5040 0.5020 0.4990 0.4900 0.4790
10.538000 0.4620 0.4400 0.4100 0.3800 0.3470
10.571283 0.3020 0.2700 0.2250 0.2000 0.1780
10.605000 0.1360 0.1250 0.1250 0.1250 0.1280
10.638283 0.1360 0.1430 0.1580 0.1680 0.1800
10.671000 0.1960 0.2150 0.2350 0.2550 0.2650
10.704283 0.2770 0.2900 0.3050 0.3200 0.3350
10.738000 0.3470 0.3570 0.3620 0.3630 0.3670
10.771283 0.3680 0.3680 0.3700 0.3700 0.3700
10.804000 0.3700 0.3700 0.3720 0.3820 0.3930
10.837283 0.4040 0.4140 0.4220 0.4300 0.4390
10.871000 0.4470 0.4540 0.4600 0.4670 0.4740
10.904283 0.4790 0.4840 0.4870 0.4870 0.4900
10.937000 0.4950 0.5020 0.5020 0.5000 0.4990
10.970283 0.4950 0.4940 0.4920 0.4890 0.4870
11.004000 0.4800 0.4770 0.4740 0.4700 0.4650
11.037283 0.4600 0.4550 0.4470 0.4370 0.4240
11.071000 0.3920 0.3680 0.3370 0.3070 0.2730
11.104283 0.2430 0.2150 0.1910 0.1730 0.1460
11.137000 0.1360 0.1300 0.1210 0.1150 0.1080
11.170283 0.1060 0.1060 0.1050 0.1050 0.1030
11.204000 0.1010 0.1000 0.0960 0.0900 0.0830
11.237283 0.0800 0.0760 0.0710 0.0700 0.0730
11.270000 0.0780 0.0830 0.0910 0.1060 0.1250
11.303283 0.1500 0.1610 0.1800 0.2000 0.2250
11.337000 0.2480 0.2720 0.2900 0.3020 0.3070
11.370283 0.3230 0.3380 0.3520 0.3620 0.3720
11.403000 0.3780 0.3870 0.3930 0.4000 0.4070
11.436283 0.4140 0.4200 0.4270 0.4320 0.4390
11.470000 0.4440 0.4490 0.4500 0.4490 0.4470
11.503283 0.4420 0.4440 0.4490 0.4520 0.4540
11.536000 0.4550 0.4590 0.4600 0.4640 0.4650
11.569283 0.4690 0.4720 0.4740 0.4740 0.4740
11.603000 0.4720 0.4690 0.4650 0.4590 0.4570
11.636283 0.4600 0.4620 0.4620 0.4600 0.4550
11.669000 0.4540 0.4540 0.4550 0.4570 0.4600
11.702283 0.4650 0.4690 0.4740 0.4750 0.4750
11.736000 0.4770 0.4790 0.4800 0.4800 0.4800
11.769283 0.4800 0.4770 0.4740 0.4700 0.4690
11.802000 0.4620 0.4570 0.4550 0.4520 0.4520
11.835283 0.4520 0.4500 0.4490 0.4440 0.4390
11.869000 0.4300 0.4240 0.4170 0.4090 0.3980
11.902283 0.3900 0.3800 0.3730 0.3650 0.3580
11.935000 0.3570 0.3500 0.3370 0.3230 0.3050
11.968283 0.2870 0.2680 0.2520 0.2350 0.2170
12.002000 0.1860 0.1500 0.1280 0.1180 0.1010
12.035283 0.0900 0.0760 0.0750 0.0760 0.0780
12.069000 0.0860 0.0910 0.0950 0.0950 0.0930
12.102283 0.0900 0.0860 0.0810 0.0700 0.0650
12.135000 0.0410 0.0310 0.0230 0.0180 0.0180
12.168283 0.0210 0.0350 0.0450 0.0560 0.0710
12.202000 0.0960 0.1330 0.1760 0.1930 0.2330
12.235283 0.2900 0.3300 0.3530 0.3970 0.4170
12.268000 0.4400 0.4650 0.4850 0.4950 0.5120
12.301283 0.5240 0.5240 0.5200 0.5190 0.5120
12.335000 0.5050 0.4990 0.4920 0.4750 0.4550
12.368283 0.4340 0.4100 0.3850 0.3580 0.3280
12.401000 0.2970 0.2620 0.2250 0.2050 0.1730
12.434283 0.1460 0.1160 0.1030 0.0860 0.0700
12.468000 0.0580 0.0580 0.0600 0.0710 0.0850
12.501283 0.0980 0.1300 0.1510 0.1850 0.2100
12.534000 0.2380 0.2830 0.3180 0.3400 0.3920
12.567283 0.4200 0.4640 0.4970 0.5420 0.5700
12.601000 0.5900 0.6090 0.6290 0.6490 0.6590
12.634283 0.6760 0.6910 0.7020 0.7160 0.7310
12.667000 0.7420 0.7560 0.7670 0.7770 0.7870
12.700283 0.7940 0.7970 0.8030 0.8060 0.8080
12.734000 0.8040 0.7860 0.7590 0.7220 0.6810
12.767283 0.6320 0.5740 0.5220 0.5040 0.4840
12.800000 0.4470 0.4270 0.3980 0.3970 0.3970
12.833283 0.3980 0.4140 0.4320 0.4440 0.4690
12.867000 0.4900 0.5170 0.5250 0.5340 0.5390
12.900283 0.5490 0.5590 0.5700 0.5820 0.5870
12.933000 0.5900 0.5920 0.5920 0.5940 0.5940
12.966283 0.5940 0.5940 0.5920 0.5900 0.5820
13.000000 0.5540 0.5340 0.5170 0.5070 0.4950
13.033283 0.4650 0.4170 0.3730 0.3400 0.3030
13.067000 0.2930 0.2750 0.2700 0.2700 0.2820
13.100283 0.3230 0.3700 0.4070 0.4540 0.4950
13.133000 0.5800 0.6120 0.6410 0.6640 0.6840
13.166283 0.7020 0.7170 0.7290 0.7390 0.7490
13.200000 0.7560 0.7620 0.7690 0.7760 0.7820
13.233283 0.7840 0.7860 0.7870 0.7910 0.7970
13.266000 0.8030 0.8060 0.8110 0.8110 0.8130
13.299283 0.8130 0.8110 0.8110 0.8090 0.8080
13.333000 0.8080 0.8060 0.8080 0.8060 0.8140
13.366283 0.8140 0.8130 0.8130 0.8080 0.8030
13.399000 0.8010 0.7970 0.7960 0.7940 0.7920
13.432283 0.7910 0.7890 0.7870 0.7870 0.7860
13.466000 0.7840 0.7840 0.7820 0.7770 0.7740
13.499283 0.7690 0.7670 0.7660 0.7660 0.7640
13.532000 0.7590 0.7590 0.7590 0.7590 0.7590
13.565283 0.7610 0.7610 0.7620 0.7640 0.7660
13.599000 0.7660 0.7670 0.7670 0.7690 0.7710
13.632283 0.7720 0.7740 0.7760 0.7770 0.7790
13.665000 0.7810 0.7820 0.7840 0.7860 0.7870
13.698283 0.7890 0.7910 0.7920 0.7940 0.7940
13.732000 0.7940 0.7940 0.7920 0.7890 0.7820
13.765283 0.7690 0.7620 0.7520 0.7470 0.7420
13.798000 0.7410 0.7370 0.7310 0.7290 0.7290
13.831283 0.7310 0.7320 0.7360 0.7320 0.7370
13.865000 0.7390 0.7420 0.7460 0.7520 0.7590
13.898283 0.7610 0.7620 0.7660 0.7690 0.7720
13.931000 0.7770 0.7810 0.7870 0.7920 0.7970
13.964283 0.8080 0.8110 0.8140 0.8160 0.8180
13.998000 0.8210 0.8280 0.8380 0.8410 0.8460
14.031283 0.8460 0.8510 0.8560 0.8610 0.8660
14.065000 0.8710 0.8740 0.8790 0.8840 0.8890
14.098283 0.8940 0.9010 0.9060 0.9110 0.9160
14.131000 0.9210 0.9240 0.9280 0.9310 0.9380
14.164283 0.9440 0.9480 0.9540 0.9590 0.9590
14.198000 0.9590 0.9590 0.9590 0.9580 0.9590
14.231283 0.9590 0.9590 0.9610 0.9610 0.9610
14.264000 0.9610 0.9610 0.9610 0.9610 0.9610
14.297283 0.9610 0.9610 0.9610 0.9610 0.9610
14.331000 0.9610 0.9610 0.9610 0.9590 0.9530
14.364283 0.9460 0.9340 0.9240 0.9110 0.8990
14.397000 0.8890 0.8780 0.8590 0.8440 0.8290
14.430283 0.8260 0.8190 0.8160 0.8110 0.8030
14.464000 0.7920 0.7890 0.7920 0.7970 0.8080
14.497283 0.8230 0.8360 0.8460 0.8510 0.8580
14.530000 0.8660 0.8780 0.8890 0.8990 0.9040
14.563283 0.9110 0.9180 0.9230 0.9240 0.9240
14.597000 0.9240 0.9240 0.9240 0.9240 0.9230
14.630283 0.9230 0.9230 0.9230 0.9230 0.9230
14.663000 0.9230 0.9190 0.9160 0.9130 0.9090
14.696283 0.9080 0.9040 0.9040 0.9040 0.9030
14.730000 0.9030 0.9010 0.9010 0.9010 0.9030
14.763283 0.9030 0.9030 0.9030 0.9040 0.9060
14.796000 0.9110 0.9140 0.9180 0.9190 0.9190
14.829283 0.9210 0.9210 0.9210 0.9230 0.9230
14.863000 0.9240 0.9240 0.9260 0.9290 0.9310
14.896283 0.9330 0.9340 0.9390 0.9410 0.9390
14.929000 0.9340 0.9290 0.9260 0.9230 0.9190
14.962283 0.9180 0.9140 0.9130 0.9090 0.9080
14.996000 0.9040 0.9010 0.8940 0.8880 0.8790
15.029283 0.8660 0.8510 0.8390 0.8330 0.8260
15.063000 0.8180 0.8090 0.8030 0.7970 0.7960
15.096283 0.7920 0.7910 0.7870 0.7820 0.7810
15.129000 0.7810 0.7820 0.7860 0.7870 0.7890
15.162283 0.7910 0.7940 0.7940 0.7920 0.7920
15.196000 0.7890 0.7840 0.7810 0.7770 0.7710
15.229283 0.7610 0.7510 0.7410 0.7270 0.7120
15.262000 0.6940 0.6720 0.6470 0.6210 0.5940
15.295283 0.5650 0.5350 0.5050 0.4900 0.4750
15.329000 0.4470 0.4190 0.3900 0.3700 0.3570
15.362283 0.3470 0.3330 0.3250 0.3100 0.3030
15.395000 0.2970 0.2950 0.2950 0.2980 0.3030
15.428283 0.3100 0.3200 0.3320 0.3470 0.3620
15.462000 0.3720 0.3780 0.3850 0.3980 0.4170
15.495283 0.4220 0.4350 0.4490 0.4600 0.4720
15.528000 0.4820 0.4900 0.4990 0.5140 0.5190
15.561283 0.5250 0.5300 0.5370 0.5420 0.5450
15.595000 0.5500 0.5550 0.5600 0.5650 0.5690
15.628283 0.5700 0.5720 0.5720 0.5750 0.5770
15.661000 0.5790 0.5820 0.5840 0.5850 0.5850
15.694283 0.5870 0.5870 0.5870 0.5870 0.5850
15.728000 0.5840 0.5800 0.5750 0.5700 0.5690
15.761283 0.5690 0.5690 0.5690 0.5640 0.5620
15.794000 0.5590 0.5550 0.5500 0.5490 0.5450
15.827283 0.5440 0.5400 0.5390 0.5350 0.5340
15.861000 0.5300 0.5290 0.5270 0.5220 0.5150
15.894283 0.5090 0.5040 0.4990 0.4970 0.4970
15.927000 0.4970 0.4970 0.4950 0.4940 0.4940
15.960283 0.4900 0.4850 0.4820 0.4800 0.4800
15.994000 0.4790 0.4770 0.4750 0.4740
##END=
