##TITLE=PHENYL THIOLCARBAMIC ACID, 5-ANILINO-1,3,4-THIA-DIAZOL-2-YL ESTER
##JCAMP-DX=4.24
##DATA TYPE=INFRARED SPECTRUM
##CLASS=COBLENTZ
##ORIGIN=TENNESSEE EASTMAN COMPANY, RESEARCH LABORATORIES
##OWNER=COBLENTZ SOCIETY
Collection (C) 2018 copyright by the U.S. Secretary of Commerce
on behalf of the United States of America. All rights reserved.
##DATE=Not specified, most likely prior to 1970
##NAMES=S-(5-anilino-1,3,4-thiadiazol-2-yl) phenylthiocarbamate
##MOLFORM=C15 H12 N4 S2 O
##MP=198-200 C
##SOURCE REFERENCE=COBLENTZ NO. 2372
##$NIST ID=B6002372
##$NIST SOURCE=COBLENTZ
##$NIST IMAGE=cob2372
##SPECTROMETER/DATA SYSTEM=Not specified, most likely a prism, grating, or hybrid spectrometer.
##STATE=SOLID (KBr PELLET)
##SAMPLING PROCEDURE=TRANSMISSION
##RESOLUTION=4
##DATA PROCESSING=DIGITIZED BY NIST FROM HARD COPY
##XUNITS=MICROMETERS
##YUNITS=TRANSMITTANCE
##XFACTOR=1.000000
##YFACTOR=1
##DELTAX=000.006638
##FIRSTX=2.02
##LASTX=15.9866
##FIRSTY=0.958
##MAXX=15.9866
##MINX=2.02
##MAXY=0.961
##MINY=0.036
##NPOINTS=2105
##XYDATA=(X++(Y..Y))
2.020000 0.9580 0.9560 0.9580 0.9560 0.9560
2.053207 0.9560 0.9550 0.9550 0.9530 0.9530
2.086000 0.9530 0.9510 0.9510 0.9510 0.9510
2.119207 0.9510 0.9510 0.9510 0.9510 0.9510
2.153000 0.9510 0.9510 0.9510 0.9510 0.9510
2.186207 0.9530 0.9530 0.9530 0.9530 0.9530
2.219000 0.9530 0.9530 0.9530 0.9530 0.9530
2.252207 0.9530 0.9530 0.9530 0.9550 0.9550
2.285000 0.9550 0.9550 0.9550 0.9550 0.9550
2.318207 0.9550 0.9560 0.9560 0.9580 0.9580
2.352000 0.9580 0.9600 0.9600 0.9600 0.9600
2.385207 0.9600 0.9600 0.9600 0.9600 0.9600
2.418000 0.9600 0.9600 0.9610 0.9610 0.9610
2.451207 0.9610 0.9610 0.9610 0.9610 0.9610
2.485000 0.9610 0.9610 0.9610 0.9610 0.9610
2.518207 0.9610 0.9610 0.9610 0.9610 0.9610
2.551000 0.9610 0.9610 0.9610 0.9610 0.9600
2.584207 0.9580 0.9580 0.9560 0.9560 0.9580
2.617000 0.9580 0.9600 0.9610 0.9610 0.9610
2.650207 0.9610 0.9600 0.9600 0.9600 0.9560
2.684000 0.9500 0.9380 0.9250 0.9100 0.8900
2.717207 0.8700 0.8450 0.8200 0.7970 0.7720
2.750000 0.7470 0.7280 0.7130 0.7030 0.6950
2.783207 0.6880 0.6780 0.6670 0.6450 0.6400
2.817000 0.6330 0.6270 0.6200 0.6120 0.6030
2.850207 0.5950 0.5870 0.5800 0.5720 0.5650
2.883000 0.5550 0.5400 0.5090 0.4890 0.4650
2.916207 0.4640 0.4670 0.4900 0.5170 0.5420
2.949000 0.5550 0.5600 0.5670 0.5720 0.5770
2.982207 0.5840 0.5890 0.5950 0.6000 0.6070
3.016000 0.6120 0.6150 0.6200 0.6220 0.6230
3.049207 0.6250 0.6270 0.6300 0.6320 0.6320
3.082000 0.6320 0.6320 0.6320 0.6300 0.6300
3.115207 0.6300 0.6300 0.6280 0.6270 0.6250
3.148000 0.6230 0.6200 0.6170 0.6080 0.6070
3.181207 0.5970 0.5850 0.5740 0.5570 0.5420
3.215000 0.5240 0.5070 0.4890 0.4750 0.4670
3.248207 0.4640 0.4670 0.4890 0.5220 0.5640
3.281000 0.5970 0.6200 0.6370 0.6430 0.6530
3.314207 0.6630 0.6720 0.6880 0.7120 0.7220
3.348000 0.7220 0.7220 0.7180 0.6880 0.5970
3.381207 0.5720 0.5390 0.5140 0.4740 0.4720
3.414000 0.4720 0.4940 0.5440 0.5800 0.6070
3.447207 0.6280 0.6450 0.6580 0.6670 0.6730
3.480000 0.6900 0.7120 0.7200 0.7300 0.7350
3.513207 0.7400 0.7420 0.7430 0.7480 0.7530
3.547000 0.7600 0.7600 0.7600 0.7580 0.7550
3.580207 0.7480 0.7470 0.7450 0.7470 0.7570
3.613000 0.7680 0.7770 0.7850 0.7930 0.8010
3.646207 0.8130 0.8260 0.8310 0.8380 0.8460
3.679000 0.8530 0.8600 0.8650 0.8700 0.8730
3.712207 0.8760 0.8780 0.8810 0.8860 0.8900
3.746000 0.8910 0.8950 0.8980 0.9000 0.9010
3.779207 0.9010 0.9050 0.9060 0.9060 0.9080
3.812000 0.9080 0.9100 0.9100 0.9110 0.9110
3.845207 0.9130 0.9130 0.9150 0.9150 0.9150
3.879000 0.9160 0.9180 0.9200 0.9200 0.9210
3.912207 0.9230 0.9230 0.9230 0.9230 0.9250
3.945000 0.9250 0.9260 0.9260 0.9280 0.9300
3.978207 0.9330 0.9330 0.9360 0.9400 0.9430
4.011000 0.9450 0.9450 0.9460 0.9460 0.9480
4.044207 0.9510 0.9510 0.9510 0.9530 0.9530
4.078000 0.9530 0.9550 0.9550 0.9560 0.9580
4.111207 0.9580 0.9580 0.9580 0.9580 0.9580
4.144000 0.9580 0.9580 0.9560 0.9550 0.9550
4.177207 0.9550 0.9550 0.9550 0.9550 0.9560
4.211000 0.9560 0.9550 0.9550 0.9530 0.9510
4.244207 0.9510 0.9500 0.9500 0.9480 0.9450
4.277000 0.9430 0.9410 0.9380 0.9360 0.9350
4.310207 0.9330 0.9330 0.9330 0.9330 0.9330
4.343000 0.9350 0.9360 0.9380 0.9410 0.9430
4.376207 0.9450 0.9450 0.9460 0.9480 0.9480
4.410000 0.9500 0.9500 0.9500 0.9500 0.9500
4.443207 0.9510 0.9510 0.9510 0.9510 0.9510
4.476000 0.9530 0.9530 0.9530 0.9530 0.9530
4.509207 0.9530 0.9530 0.9530 0.9530 0.9530
4.542000 0.9530 0.9530 0.9530 0.9530 0.9530
4.575207 0.9530 0.9530 0.9530 0.9530 0.9530
4.609000 0.9530 0.9530 0.9530 0.9530 0.9530
4.642207 0.9530 0.9530 0.9530 0.9530 0.9530
4.675000 0.9530 0.9530 0.9530 0.9530 0.9530
4.708207 0.9530 0.9530 0.9530 0.9530 0.9550
4.742000 0.9550 0.9550 0.9550 0.9550 0.9550
4.775207 0.9550 0.9550 0.9550 0.9550 0.9550
4.808000 0.9550 0.9550 0.9550 0.9550 0.9550
4.841207 0.9550 0.9550 0.9550 0.9550 0.9550
4.874000 0.9550 0.9550 0.9550 0.9550 0.9550
4.907207 0.9550 0.9550 0.9550 0.9550 0.9550
4.941000 0.9550 0.9550 0.9550 0.9550 0.9550
4.974207 0.9550 0.9550 0.9550 0.9530 0.9530
5.007000 0.9530 0.9510 0.9510 0.9510 0.9510
5.040207 0.9480 0.9450 0.9430 0.9410 0.9400
5.073000 0.9400 0.9380 0.9380 0.9380 0.9380
5.106207 0.9380 0.9380 0.9380 0.9380 0.9380
5.140000 0.9400 0.9400 0.9410 0.9430 0.9430
5.173207 0.9450 0.9460 0.9480 0.9500 0.9500
5.206000 0.9500 0.9500 0.9500 0.9500 0.9500
5.239207 0.9480 0.9480 0.9460 0.9450 0.9430
5.273000 0.9430 0.9430 0.9430 0.9430 0.9430
5.306207 0.9430 0.9430 0.9430 0.9430 0.9430
5.339000 0.9430 0.9430 0.9430 0.9430 0.9450
5.372207 0.9460 0.9500 0.9500 0.9510 0.9510
5.405000 0.9510 0.9510 0.9510 0.9510 0.9510
5.438207 0.9510 0.9510 0.9510 0.9510 0.9480
5.472000 0.9460 0.9450 0.9450 0.9430 0.9400
5.505207 0.9400 0.9360 0.9360 0.9350 0.9330
5.538000 0.9310 0.9250 0.9230 0.9210 0.9200
5.571207 0.9180 0.9180 0.9180 0.9180 0.9210
5.605000 0.9210 0.9200 0.9160 0.9130 0.9110
5.638207 0.9050 0.9030 0.9010 0.9000 0.9000
5.671000 0.8980 0.8950 0.8900 0.8830 0.8760
5.704207 0.8680 0.8580 0.8530 0.8460 0.8400
5.737000 0.8310 0.8230 0.8110 0.8000 0.7870
5.770207 0.7780 0.7680 0.7580 0.7450 0.7280
5.804000 0.7100 0.6870 0.6270 0.5870 0.5400
5.837207 0.4990 0.4570 0.4320 0.3640 0.2340
5.870000 0.1690 0.1240 0.0960 0.0940 0.0960
5.903207 0.1040 0.1130 0.1380 0.1630 0.1930
5.936000 0.2190 0.2440 0.2690 0.2940 0.3220
5.969207 0.3360 0.3490 0.3790 0.4100 0.4450
6.003000 0.4840 0.5220 0.5650 0.5840 0.5990
6.036207 0.6120 0.6230 0.6350 0.6470 0.6550
6.069000 0.6620 0.6670 0.6720 0.6770 0.6800
6.102207 0.6800 0.6820 0.6820 0.6800 0.6800
6.136000 0.6780 0.6770 0.6720 0.6670 0.6530
6.169207 0.6470 0.6380 0.6320 0.6200 0.6030
6.202000 0.5820 0.5500 0.5070 0.4520 0.3690
6.235207 0.2970 0.2990 0.3240 0.3490 0.4000
6.268000 0.4500 0.4950 0.5520 0.6450 0.6570
6.301207 0.6680 0.6950 0.7030 0.7130 0.7220
6.335000 0.7250 0.7250 0.7230 0.7100 0.6920
6.368207 0.6780 0.6670 0.6420 0.6100 0.5800
6.401000 0.5440 0.5100 0.4790 0.4490 0.4220
6.434207 0.3960 0.3690 0.3410 0.2820 0.2490
6.468000 0.2120 0.1960 0.1740 0.1530 0.1290
6.501207 0.1060 0.0880 0.0710 0.0580 0.0510
6.534000 0.0460 0.0390 0.0360 0.0360 0.0360
6.567207 0.0380 0.0390 0.0410 0.0510 0.0610
6.600000 0.0760 0.0990 0.1210 0.1360 0.1530
6.633207 0.1740 0.1960 0.2010 0.2070 0.2070
6.667000 0.1960 0.1880 0.1840 0.1880 0.2240
6.700207 0.2820 0.3240 0.3390 0.3520 0.3710
6.733000 0.3820 0.3940 0.4040 0.4190 0.4420
6.766207 0.4640 0.4750 0.4840 0.4890 0.4940
6.799000 0.5000 0.5070 0.5090 0.5100 0.5090
6.832207 0.4920 0.4700 0.4320 0.3870 0.2860
6.866000 0.2310 0.1680 0.1210 0.0910 0.0860
6.899207 0.0890 0.1340 0.1960 0.2470 0.3220
6.932000 0.3670 0.4120 0.5050 0.5870 0.6450
6.965207 0.6620 0.6680 0.6750 0.6870 0.7000
6.999000 0.7120 0.7230 0.7350 0.7450 0.7530
7.032207 0.7620 0.7650 0.7750 0.7820 0.7870
7.065000 0.7900 0.7930 0.7950 0.7970 0.7970
7.098207 0.8000 0.8000 0.8010 0.8010 0.8010
7.131000 0.8010 0.8010 0.8010 0.8010 0.8010
7.164207 0.8010 0.8010 0.8010 0.8010 0.8010
7.198000 0.8010 0.8010 0.8010 0.8010 0.8010
7.231207 0.8000 0.8000 0.8000 0.8000 0.8000
7.264000 0.7980 0.7970 0.7950 0.7950 0.7950
7.297207 0.7950 0.7980 0.8010 0.8010 0.8010
7.330000 0.8010 0.8010 0.8010 0.8010 0.8010
7.363207 0.8010 0.8010 0.8000 0.8000 0.7980
7.397000 0.7920 0.7720 0.7550 0.7370 0.7170
7.430207 0.6950 0.6680 0.5970 0.5570 0.5090
7.463000 0.4520 0.3940 0.3360 0.2270 0.1840
7.496207 0.1530 0.1310 0.1130 0.1010 0.0930
7.530000 0.0890 0.0880 0.0890 0.0910 0.0940
7.563207 0.0990 0.1040 0.1130 0.1230 0.1330
7.596000 0.1430 0.1560 0.1680 0.1790 0.1930
7.629207 0.2040 0.2170 0.2290 0.2390 0.2470
7.662000 0.2520 0.2560 0.2560 0.2520 0.2470
7.695207 0.2410 0.2340 0.2320 0.2310 0.2320
7.729000 0.2370 0.2420 0.2520 0.2690 0.2770
7.762207 0.2840 0.2910 0.2960 0.2990 0.2990
7.795000 0.3040 0.3040 0.3040 0.3020 0.2970
7.828207 0.2870 0.2760 0.2660 0.2560 0.2510
7.862000 0.2470 0.2370 0.2340 0.2310 0.2310
7.895207 0.2290 0.2290 0.2290 0.2310 0.2310
7.928000 0.2320 0.2390 0.2520 0.2620 0.2770
7.961207 0.2890 0.2910 0.2960 0.2970 0.3010
7.994000 0.3010 0.2940 0.2910 0.2810 0.2670
8.027207 0.2510 0.2360 0.2220 0.2060 0.1910
8.061000 0.1780 0.1660 0.1560 0.1510 0.1430
8.094207 0.1390 0.1360 0.1340 0.1340 0.1360
8.127000 0.1490 0.1710 0.1990 0.2290 0.2610
8.160207 0.2940 0.3290 0.3470 0.3660 0.4000
8.193000 0.4350 0.4690 0.5020 0.5300 0.5570
8.226207 0.5800 0.5990 0.6120 0.6180 0.6270
8.260000 0.6300 0.6330 0.6380 0.6420 0.6470
8.293207 0.6550 0.6650 0.6730 0.6850 0.6900
8.326000 0.6920 0.6920 0.6930 0.6930 0.6950
8.359207 0.6950 0.6980 0.7020 0.7080 0.7130
8.393000 0.7180 0.7180 0.7220 0.7250 0.7270
8.426207 0.7270 0.7280 0.7300 0.7300 0.7320
8.459000 0.7320 0.7320 0.7320 0.7320 0.7330
8.492207 0.7330 0.7350 0.7350 0.7350 0.7370
8.525000 0.7370 0.7370 0.7380 0.7400 0.7420
8.558207 0.7430 0.7430 0.7430 0.7430 0.7430
8.592000 0.7430 0.7400 0.7350 0.7320 0.7280
8.625207 0.7250 0.7230 0.7230 0.7230 0.7270
8.658000 0.7300 0.7320 0.7350 0.7400 0.7500
8.691207 0.7530 0.7570 0.7620 0.7650 0.7700
8.725000 0.7720 0.7720 0.7730 0.7730 0.7750
8.758207 0.7770 0.7770 0.7770 0.7770 0.7770
8.791000 0.7770 0.7750 0.7750 0.7720 0.7680
8.824207 0.7670 0.7620 0.7570 0.7470 0.7470
8.857000 0.7380 0.7330 0.7320 0.7320 0.7300
8.890207 0.7280 0.7270 0.7270 0.7230 0.7230
8.924000 0.7220 0.7220 0.7220 0.7200 0.7200
8.957207 0.7180 0.7180 0.7180 0.7200 0.7200
8.990000 0.7200 0.7220 0.7220 0.7220 0.7230
9.023207 0.7230 0.7250 0.7250 0.7270 0.7280
9.056000 0.7280 0.7280 0.7280 0.7280 0.7300
9.089207 0.7300 0.7330 0.7330 0.7350 0.7350
9.123000 0.7350 0.7350 0.7350 0.7350 0.7330
9.156207 0.7270 0.7220 0.7100 0.6970 0.6800
9.189000 0.6430 0.6200 0.5970 0.5720 0.5490
9.222207 0.5240 0.4970 0.4700 0.4440 0.4150
9.256000 0.3840 0.3520 0.3020 0.2890 0.2790
9.289207 0.2760 0.2760 0.2720 0.2720 0.2740
9.322000 0.2770 0.2840 0.2940 0.3160 0.3290
9.355207 0.3410 0.3510 0.3720 0.3940 0.4140
9.388000 0.4350 0.4570 0.4800 0.5020 0.5240
9.421207 0.5400 0.5450 0.5550 0.5600 0.5640
9.455000 0.5640 0.5640 0.5640 0.5620 0.5600
9.488207 0.5590 0.5570 0.5520 0.5500 0.5500
9.521000 0.5520 0.5520 0.5600 0.5620 0.5650
9.554207 0.5750 0.5920 0.6050 0.6280 0.6420
9.587000 0.6520 0.6600 0.6670 0.6720 0.6880
9.620207 0.7000 0.7070 0.7100 0.7120 0.7120
9.654000 0.7130 0.7130 0.7120 0.7070 0.7020
9.687207 0.6920 0.6820 0.6750 0.6470 0.6350
9.720000 0.6280 0.6270 0.6270 0.6270 0.6280
9.753207 0.6500 0.6600 0.6700 0.6880 0.7050
9.787000 0.7200 0.7350 0.7470 0.7570 0.7650
9.820207 0.7720 0.7750 0.7800 0.7830 0.7850
9.853000 0.7880 0.7900 0.7920 0.7930 0.7930
9.886207 0.7930 0.7930 0.7920 0.7920 0.7900
9.919000 0.7900 0.7900 0.7870 0.7870 0.7850
9.952207 0.7850 0.7850 0.7850 0.7850 0.7880
9.986000 0.7900 0.7920 0.8000 0.8010 0.8010
10.019207 0.8010 0.8010 0.8030 0.8030 0.8050
10.052000 0.8060 0.8080 0.8080 0.8100 0.8100
10.085207 0.8110 0.8110 0.8130 0.8150 0.8180
10.119000 0.8200 0.8200 0.8210 0.8230 0.8230
10.152207 0.8250 0.8250 0.8280 0.8280 0.8300
10.185000 0.8300 0.8310 0.8310 0.8310 0.8330
10.218207 0.8360 0.8360 0.8380 0.8400 0.8400
10.251000 0.8430 0.8430 0.8430 0.8450 0.8450
10.284207 0.8450 0.8460 0.8460 0.8460 0.8460
10.318000 0.8460 0.8460 0.8460 0.8460 0.8460
10.351207 0.8460 0.8450 0.8450 0.8430 0.8430
10.384000 0.8430 0.8430 0.8430 0.8450 0.8460
10.417207 0.8480 0.8480 0.8500 0.8500 0.8510
10.450000 0.8510 0.8530 0.8550 0.8550 0.8580
10.483207 0.8580 0.8600 0.8630 0.8650 0.8650
10.517000 0.8660 0.8660 0.8660 0.8680 0.8680
10.550207 0.8700 0.8700 0.8700 0.8700 0.8700
10.583000 0.8700 0.8700 0.8700 0.8700 0.8700
10.616207 0.8700 0.8700 0.8700 0.8680 0.8680
10.650000 0.8680 0.8680 0.8680 0.8680 0.8680
10.683207 0.8700 0.8700 0.8700 0.8700 0.8700
10.716000 0.8710 0.8710 0.8730 0.8730 0.8730
10.749207 0.8730 0.8730 0.8730 0.8710 0.8710
10.782000 0.8710 0.8710 0.8700 0.8700 0.8710
10.815207 0.8710 0.8700 0.8700 0.8700 0.8700
10.849000 0.8700 0.8680 0.8680 0.8680 0.8680
10.882207 0.8680 0.8680 0.8700 0.8700 0.8700
10.915000 0.8700 0.8700 0.8700 0.8700 0.8700
10.948207 0.8700 0.8700 0.8700 0.8700 0.8700
10.982000 0.8680 0.8680 0.8660 0.8650 0.8550
11.015207 0.8460 0.8430 0.8380 0.8350 0.8300
11.048000 0.8260 0.8210 0.8160 0.8060 0.8030
11.081207 0.7980 0.7970 0.7900 0.7880 0.7880
11.114000 0.7880 0.7920 0.7970 0.8010 0.8060
11.147207 0.8110 0.8160 0.8210 0.8330 0.8400
11.181000 0.8460 0.8500 0.8530 0.8580 0.8610
11.214207 0.8680 0.8730 0.8750 0.8750 0.8780
11.247000 0.8800 0.8800 0.8810 0.8810 0.8830
11.280207 0.8860 0.8860 0.8860 0.8860 0.8880
11.313000 0.8880 0.8900 0.8900 0.8900 0.8910
11.346207 0.8910 0.8910 0.8910 0.8910 0.8910
11.380000 0.8910 0.8910 0.8910 0.8910 0.8910
11.413207 0.8910 0.8900 0.8900 0.8900 0.8880
11.446000 0.8880 0.8850 0.8830 0.8800 0.8750
11.479207 0.8660 0.8610 0.8560 0.8530 0.8510
11.513000 0.8500 0.8460 0.8430 0.8400 0.8350
11.546207 0.8300 0.8250 0.8210 0.8180 0.8150
11.579000 0.8130 0.8130 0.8110 0.8110 0.8130
11.612207 0.8180 0.8210 0.8280 0.8330 0.8400
11.645000 0.8410 0.8450 0.8500 0.8530 0.8550
11.678207 0.8560 0.8600 0.8610 0.8630 0.8630
11.712000 0.8650 0.8650 0.8660 0.8660 0.8680
11.745207 0.8700 0.8700 0.8700 0.8700 0.8700
11.778000 0.8710 0.8710 0.8710 0.8710 0.8710
11.811207 0.8710 0.8730 0.8730 0.8730 0.8730
11.844000 0.8730 0.8730 0.8730 0.8730 0.8730
11.877207 0.8730 0.8730 0.8730 0.8730 0.8730
11.911000 0.8730 0.8730 0.8730 0.8710 0.8710
11.944207 0.8710 0.8700 0.8700 0.8700 0.8700
11.977000 0.8700 0.8700 0.8680 0.8680 0.8660
12.010207 0.8660 0.8630 0.8580 0.8580 0.8560
12.044000 0.8560 0.8560 0.8580 0.8580 0.8610
12.077207 0.8610 0.8610 0.8610 0.8610 0.8610
12.110000 0.8610 0.8610 0.8650 0.8650 0.8660
12.143207 0.8660 0.8660 0.8660 0.8680 0.8680
12.176000 0.8700 0.8710 0.8710 0.8730 0.8750
12.209207 0.8750 0.8760 0.8760 0.8760 0.8760
12.243000 0.8760 0.8750 0.8750 0.8750 0.8730
12.276207 0.8710 0.8710 0.8710 0.8710 0.8710
12.309000 0.8700 0.8700 0.8700 0.8680 0.8680
12.342207 0.8680 0.8660 0.8650 0.8630 0.8610
12.376000 0.8580 0.8560 0.8550 0.8530 0.8530
12.409207 0.8510 0.8480 0.8460 0.8410 0.8410
12.442000 0.8400 0.8380 0.8360 0.8360 0.8360
12.475207 0.8360 0.8350 0.8350 0.8350 0.8350
12.508000 0.8360 0.8360 0.8400 0.8400 0.8410
12.541207 0.8410 0.8410 0.8430 0.8430 0.8410
12.575000 0.8410 0.8400 0.8400 0.8400 0.8400
12.608207 0.8400 0.8360 0.8330 0.8330 0.8310
12.641000 0.8310 0.8300 0.8280 0.8260 0.8260
12.674207 0.8230 0.8200 0.8200 0.8180 0.8180
12.707000 0.8160 0.8150 0.8110 0.8100 0.8080
12.740207 0.8050 0.8050 0.8010 0.8010 0.8000
12.774000 0.8000 0.8000 0.7970 0.7950 0.7950
12.807207 0.7930 0.7920 0.7900 0.7880 0.7870
12.840000 0.7830 0.7820 0.7800 0.7780 0.7750
12.873207 0.7730 0.7720 0.7680 0.7600 0.7570
12.907000 0.7530 0.7530 0.7520 0.7500 0.7470
12.940207 0.7430 0.7380 0.7350 0.7280 0.7230
12.973000 0.7180 0.7130 0.7100 0.7030 0.6980
13.006207 0.6930 0.6870 0.6780 0.6700 0.6500
13.039000 0.6380 0.6230 0.6130 0.6050 0.5940
13.072207 0.5800 0.5670 0.5540 0.5400 0.5290
13.106000 0.5150 0.5040 0.4900 0.4790 0.4650
13.139207 0.4550 0.4450 0.4400 0.4350 0.4290
13.172000 0.4220 0.4170 0.4100 0.4050 0.3990
13.205207 0.3940 0.3890 0.3840 0.3810 0.3760
13.239000 0.3720 0.3710 0.3690 0.3670 0.3660
13.272207 0.3640 0.3620 0.3610 0.3590 0.3570
13.305000 0.3570 0.3560 0.3560 0.3560 0.3560
13.338207 0.3560 0.3560 0.3570 0.3590 0.3640
13.371000 0.3720 0.3810 0.3890 0.3970 0.4070
13.404207 0.4150 0.4270 0.4350 0.4450 0.4500
13.438000 0.4550 0.4600 0.4640 0.4650 0.4690
13.471207 0.4690 0.4690 0.4690 0.4690 0.4690
13.504000 0.4690 0.4640 0.4550 0.4500 0.4450
13.537207 0.4390 0.4340 0.4250 0.4220 0.4190
13.570000 0.4090 0.4050 0.4000 0.4000 0.3970
13.603207 0.3920 0.3810 0.3740 0.3620 0.3510
13.637000 0.3390 0.3090 0.2940 0.2790 0.2620
13.670207 0.2470 0.2320 0.2220 0.2140 0.2090
13.703000 0.2040 0.2010 0.1990 0.1980 0.1980
13.736207 0.1980 0.1990 0.1990 0.2020 0.2040
13.770000 0.2070 0.2270 0.2460 0.2570 0.2690
13.803207 0.2820 0.2970 0.3120 0.3310 0.3390
13.836000 0.3470 0.3660 0.3860 0.4050 0.4250
13.869207 0.4440 0.4640 0.4820 0.5020 0.5190
13.902000 0.5350 0.5500 0.5650 0.5770 0.5870
13.935207 0.5950 0.6070 0.6170 0.6250 0.6330
13.969000 0.6400 0.6450 0.6520 0.6570 0.6600
14.002207 0.6630 0.6670 0.6680 0.6730 0.6770
14.035000 0.6800 0.6820 0.6870 0.6870 0.6880
14.068207 0.6900 0.6920 0.6950 0.6950 0.6950
14.101000 0.6970 0.6970 0.6980 0.6980 0.6980
14.134207 0.6980 0.6970 0.6970 0.6950 0.6930
14.168000 0.6900 0.6850 0.6830 0.6780 0.6750
14.201207 0.6730 0.6700 0.6680 0.6450 0.6450
14.234000 0.6380 0.6300 0.6220 0.6130 0.6030
14.267207 0.5950 0.5850 0.5740 0.5640 0.5540
14.301000 0.5420 0.5320 0.5200 0.5090 0.4970
14.334207 0.4870 0.4750 0.4640 0.4550 0.4450
14.367000 0.4370 0.4270 0.4190 0.4100 0.4000
14.400207 0.3920 0.3840 0.3790 0.3740 0.3710
14.433000 0.3660 0.3590 0.3560 0.3520 0.3510
14.466207 0.3510 0.3510 0.3510 0.3510 0.3520
14.500000 0.3560 0.3590 0.3620 0.3690 0.3770
14.533207 0.3890 0.4000 0.4170 0.4320 0.4450
14.566000 0.4570 0.4670 0.4800 0.4920 0.5070
14.599207 0.5220 0.5440 0.5590 0.5720 0.5800
14.633000 0.5900 0.5990 0.6020 0.6100 0.6200
14.666207 0.6280 0.6350 0.6400 0.6470 0.6520
14.699000 0.6550 0.6580 0.6600 0.6620 0.6650
14.732207 0.6650 0.6670 0.6680 0.6700 0.6720
14.765000 0.6730 0.6750 0.6770 0.6780 0.6780
14.798207 0.6800 0.6820 0.6820 0.6830 0.6850
14.832000 0.6850 0.6850 0.6870 0.6870 0.6870
14.865207 0.6870 0.6870 0.6870 0.6870 0.6870
14.898000 0.6870 0.6870 0.6850 0.6850 0.6830
14.931207 0.6800 0.6780 0.6730 0.6720 0.6680
14.964000 0.6630 0.6630 0.6630 0.6620 0.6600
14.997207 0.6600 0.6600 0.6600 0.6600 0.6600
15.031000 0.6580 0.6580 0.6580 0.6580 0.6580
15.064207 0.6580 0.6580 0.6580 0.6580 0.6580
15.097000 0.6580 0.6570 0.6570 0.6550 0.6530
15.130207 0.6520 0.6500 0.6450 0.6430 0.6370
15.164000 0.6330 0.6300 0.6270 0.6230 0.6220
15.197207 0.6200 0.6170 0.6130 0.6070 0.6050
15.230000 0.6020 0.6000 0.6000 0.5990 0.5970
15.263207 0.5950 0.5900 0.5870 0.5840 0.5820
15.296000 0.5800 0.5770 0.5750 0.5740 0.5720
15.329207 0.5720 0.5720 0.5720 0.5700 0.5700
15.363000 0.5700 0.5700 0.5700 0.5700 0.5700
15.396207 0.5700 0.5720 0.5740 0.5740 0.5740
15.429000 0.5740 0.5740 0.5740 0.5750 0.5770
15.462207 0.5770 0.5770 0.5770 0.5770 0.5770
15.495000 0.5770 0.5790 0.5790 0.5790 0.5790
15.528207 0.5790 0.5790 0.5790 0.5790 0.5790
15.562000 0.5790 0.5770 0.5770 0.5770 0.5770
15.595207 0.5750 0.5750 0.5750 0.5750 0.5750
15.628000 0.5740 0.5740 0.5740 0.5740 0.5740
15.661207 0.5720 0.5720 0.5720 0.5720 0.5720
15.695000 0.5700 0.5700 0.5700 0.5700 0.5700
15.728207 0.5700 0.5690 0.5690 0.5670 0.5670
15.761000 0.5650 0.5650 0.5640 0.5620 0.5600
15.794207 0.5600 0.5590 0.5590 0.5590 0.5590
15.827000 0.5590 0.5590 0.5570 0.5550 0.5550
15.860207 0.5550 0.5540 0.5540 0.5540 0.5520
15.894000 0.5520 0.5520 0.5520 0.5520 0.5520
15.927207 0.5500 0.5500 0.5500 0.5490 0.5490
15.960000 0.5490 0.5470 0.5470 0.5470 0.5450
##END=
