##TITLE=Alpha,Alpha-DICHLOROPROPIONIC ACID, MONO ETHYL AMINE SALT
##JCAMP-DX=4.24
##DATA TYPE=INFRARED SPECTRUM
##CLASS=COBLENTZ
##ORIGIN=DOW CHEMICAL COMPANY
##OWNER=COBLENTZ SOCIETY
Collection (C) 2018 copyright by the U.S. Secretary of Commerce
on behalf of the United States of America. All rights reserved.
##DATE=Not specified, most likely prior to 1970
##NAMES=2,2-dichloropropanoic acid compound with ethanamine (1:1)
##MOLFORM=C5 H11 Cl2 N O2
##SOURCE REFERENCE=COBLENTZ NO. 3243
##$NIST ID=B6003243
##$NIST SOURCE=COBLENTZ
##$NIST IMAGE=cob3243
##SPECTROMETER/DATA SYSTEM=Not specified, most likely a prism, grating, or hybrid spectrometer.
##PATH LENGTH=FILM
##SAMPLING PROCEDURE=TRANSMISSION
##RESOLUTION=4
##DATA PROCESSING=DIGITIZED BY NIST FROM HARD COPY
##XUNITS=MICROMETERS
##YUNITS=TRANSMITTANCE
##XFACTOR=1.000000
##YFACTOR=1
##DELTAX=000.006829
##FIRSTX=2.061
##LASTX=15.8427
##FIRSTY=0.872
##MAXX=15.8427
##MINX=2.061
##MAXY=0.882
##MINY=0.116
##NPOINTS=2019
##XYDATA=(X++(Y..Y))
2.061000 0.8720 0.8700 0.8700 0.8700 0.8680
2.095163 0.8680 0.8660 0.8660 0.8660 0.8650
2.130000 0.8650 0.8650 0.8660 0.8660 0.8680
2.164163 0.8680 0.8680 0.8680 0.8680 0.8680
2.198000 0.8680 0.8660 0.8660 0.8660 0.8650
2.232163 0.8630 0.8610 0.8600 0.8600 0.8600
2.266000 0.8610 0.8630 0.8630 0.8650 0.8650
2.300163 0.8650 0.8660 0.8680 0.8720 0.8730
2.335000 0.8730 0.8720 0.8720 0.8700 0.8680
2.369163 0.8680 0.8680 0.8700 0.8730 0.8730
2.403000 0.8730 0.8730 0.8730 0.8730 0.8730
2.437163 0.8730 0.8730 0.8750 0.8750 0.8770
2.471000 0.8780 0.8780 0.8780 0.8730 0.8720
2.505163 0.8730 0.8770 0.8800 0.8820 0.8820
2.540000 0.8820 0.8820 0.8820 0.8820 0.8820
2.574163 0.8820 0.8820 0.8820 0.8820 0.8820
2.608000 0.8800 0.8800 0.8750 0.8730 0.8720
2.642163 0.8720 0.8720 0.8730 0.8800 0.8820
2.676000 0.8820 0.8820 0.8800 0.8730 0.8680
2.710163 0.8650 0.8600 0.8580 0.8530 0.8490
2.744000 0.8440 0.8360 0.8250 0.8150 0.8050
2.778163 0.7980 0.7880 0.7780 0.7670 0.7550
2.813000 0.7450 0.7330 0.7200 0.7080 0.6960
2.847163 0.6840 0.6720 0.6670 0.6600 0.6500
2.881000 0.6380 0.6290 0.6210 0.6120 0.6070
2.915163 0.6020 0.5970 0.5920 0.5880 0.5870
2.949000 0.5850 0.5850 0.5870 0.5900 0.5950
2.983163 0.5980 0.6020 0.6040 0.6040 0.6050
3.018000 0.6050 0.6050 0.6050 0.6040 0.5970
3.052163 0.5900 0.5830 0.5760 0.5690 0.5630
3.086000 0.5560 0.5470 0.5400 0.5320 0.5230
3.120163 0.5150 0.5050 0.4960 0.4840 0.4720
3.154000 0.4600 0.4480 0.4330 0.4190 0.4020
3.188163 0.3850 0.3680 0.3480 0.3390 0.3340
3.222000 0.3290 0.3170 0.3070 0.2960 0.2860
3.256163 0.2790 0.2710 0.2660 0.2570 0.2490
3.291000 0.2440 0.2380 0.2350 0.2320 0.2300
3.325163 0.2280 0.2260 0.2230 0.2200 0.2160
3.359000 0.2130 0.2080 0.2040 0.2010 0.2010
3.393163 0.2030 0.2210 0.2280 0.2330 0.2370
3.427000 0.2400 0.2450 0.2490 0.2550 0.2660
3.461163 0.2780 0.2880 0.3000 0.3070 0.3170
3.496000 0.3250 0.3320 0.3410 0.3440 0.3460
3.530163 0.3480 0.3490 0.3510 0.3530 0.3560
3.564000 0.3600 0.3610 0.3630 0.3660 0.3750
3.598163 0.3850 0.3970 0.4110 0.4230 0.4330
3.632000 0.4400 0.4410 0.4430 0.4450 0.4450
3.666163 0.4470 0.4480 0.4500 0.4520 0.4590
3.700000 0.4720 0.4860 0.5030 0.5170 0.5320
3.734163 0.5420 0.5540 0.5560 0.5660 0.5710
3.769000 0.5730 0.5780 0.5780 0.5780 0.5750
3.803163 0.5730 0.5710 0.5710 0.5710 0.5710
3.837000 0.5730 0.5810 0.5870 0.5950 0.5980
3.871163 0.6020 0.6070 0.6160 0.6210 0.6260
3.905000 0.6290 0.6290 0.6290 0.6260 0.6220
3.939163 0.6160 0.6050 0.6020 0.5970 0.5930
3.974000 0.5920 0.5920 0.6000 0.6160 0.6240
4.008163 0.6340 0.6430 0.6550 0.6650 0.6840
4.042000 0.6920 0.6990 0.7040 0.7060 0.7130
4.076163 0.7200 0.7230 0.7280 0.7330 0.7370
4.110000 0.7420 0.7470 0.7520 0.7540 0.7590
4.144163 0.7590 0.7620 0.7660 0.7690 0.7690
4.179000 0.7710 0.7730 0.7730 0.7760 0.7780
4.213163 0.7780 0.7790 0.7790 0.7790 0.7810
4.247000 0.7830 0.7840 0.7860 0.7900 0.7930
4.281163 0.7960 0.8000 0.8020 0.8020 0.8030
4.315000 0.8100 0.8130 0.8170 0.8190 0.8200
4.349163 0.8200 0.8200 0.8200 0.8200 0.8200
4.383000 0.8200 0.8220 0.8250 0.8250 0.8240
4.417163 0.8240 0.8240 0.8240 0.8220 0.8220
4.452000 0.8220 0.8220 0.8220 0.8220 0.8220
4.486163 0.8220 0.8220 0.8220 0.8220 0.8200
4.520000 0.8200 0.8190 0.8190 0.8190 0.8200
4.554163 0.8200 0.8200 0.8200 0.8200 0.8200
4.588000 0.8200 0.8200 0.8200 0.8200 0.8190
4.622163 0.8190 0.8170 0.8150 0.8130 0.8120
4.657000 0.8080 0.8050 0.8050 0.8020 0.8020
4.691163 0.8000 0.7980 0.7960 0.7960 0.7950
4.725000 0.7930 0.7910 0.7900 0.7880 0.7860
4.759163 0.7840 0.7830 0.7810 0.7810 0.7810
4.793000 0.7810 0.7810 0.7810 0.7830 0.7840
4.827163 0.7840 0.7860 0.7860 0.7880 0.7880
4.861000 0.7910 0.7910 0.7950 0.7960 0.8000
4.895163 0.8000 0.8000 0.8020 0.8030 0.8070
4.930000 0.8070 0.8080 0.8120 0.8120 0.8120
4.964163 0.8120 0.8120 0.8120 0.8170 0.8220
4.998000 0.8240 0.8240 0.8240 0.8200 0.8200
5.032163 0.8200 0.8220 0.8290 0.8320 0.8340
5.066000 0.8340 0.8340 0.8340 0.8340 0.8340
5.100163 0.8370 0.8390 0.8410 0.8430 0.8430
5.135000 0.8430 0.8430 0.8430 0.8410 0.8410
5.169163 0.8430 0.8460 0.8480 0.8490 0.8490
5.203000 0.8510 0.8510 0.8490 0.8490 0.8490
5.237163 0.8510 0.8510 0.8530 0.8530 0.8560
5.271000 0.8560 0.8600 0.8600 0.8600 0.8600
5.305163 0.8600 0.8600 0.8600 0.8600 0.8600
5.340000 0.8600 0.8580 0.8580 0.8600 0.8600
5.374163 0.8600 0.8600 0.8610 0.8630 0.8630
5.408000 0.8630 0.8610 0.8610 0.8610 0.8600
5.442163 0.8600 0.8600 0.8580 0.8580 0.8580
5.476000 0.8580 0.8580 0.8580 0.8560 0.8530
5.510163 0.8530 0.8510 0.8490 0.8480 0.8440
5.544000 0.8410 0.8390 0.8390 0.8370 0.8340
5.578163 0.8320 0.8290 0.8270 0.8270 0.8240
5.613000 0.8220 0.8200 0.8190 0.8170 0.8130
5.647163 0.8100 0.8020 0.8000 0.7960 0.7950
5.681000 0.7900 0.7830 0.7780 0.7710 0.7670
5.715163 0.7620 0.7550 0.7500 0.7470 0.7420
5.749000 0.7380 0.7350 0.7320 0.7280 0.7230
5.783163 0.7200 0.7150 0.7130 0.7090 0.7080
5.818000 0.7040 0.7010 0.6990 0.6960 0.6870
5.852163 0.6820 0.6750 0.6700 0.6680 0.6650
5.886000 0.6550 0.6510 0.6390 0.6220 0.6040
5.920163 0.5930 0.5760 0.5590 0.5490 0.5250
5.954000 0.5010 0.4770 0.4500 0.4230 0.3950
5.988163 0.3630 0.3480 0.3310 0.2930 0.2420
6.022000 0.2090 0.1910 0.1790 0.1720 0.1670
6.056163 0.1620 0.1580 0.1530 0.1500 0.1450
6.091000 0.1380 0.1310 0.1240 0.1190 0.1160
6.125163 0.1160 0.1170 0.1210 0.1240 0.1270
6.159000 0.1290 0.1340 0.1390 0.1460 0.1550
6.193163 0.1630 0.1720 0.1800 0.1890 0.1960
6.227000 0.2010 0.2040 0.2150 0.2210 0.2300
6.261163 0.2370 0.2470 0.2550 0.2660 0.2760
6.296000 0.2880 0.2960 0.3030 0.3100 0.3200
6.330163 0.3290 0.3530 0.3650 0.3800 0.3950
6.364000 0.4060 0.4190 0.4300 0.4360 0.4450
6.398163 0.4520 0.4570 0.4640 0.4720 0.4790
6.432000 0.4840 0.4940 0.4980 0.5000 0.5000
6.466163 0.5000 0.5000 0.5000 0.5000 0.5000
6.500000 0.5000 0.4980 0.4980 0.4960 0.4940
6.534163 0.4930 0.4910 0.4910 0.4910 0.4910
6.569000 0.4930 0.4940 0.5000 0.5030 0.5060
6.603163 0.5110 0.5180 0.5250 0.5300 0.5420
6.637000 0.5490 0.5540 0.5690 0.5810 0.5920
6.671163 0.5980 0.6050 0.6100 0.6190 0.6240
6.705000 0.6290 0.6330 0.6330 0.6340 0.6330
6.739163 0.6290 0.6220 0.6120 0.6040 0.5970
6.774000 0.5880 0.5850 0.5850 0.5870 0.5880
6.808163 0.5900 0.5920 0.5930 0.5930 0.5920
6.842000 0.5900 0.5810 0.5750 0.5640 0.5540
6.876163 0.5440 0.5270 0.5170 0.5110 0.5030
6.910000 0.4940 0.4930 0.4930 0.4940 0.5170
6.944163 0.5420 0.5660 0.5880 0.6160 0.6480
6.979000 0.6620 0.6700 0.6700 0.6700 0.6700
7.013163 0.6700 0.6680 0.6670 0.6650 0.6630
7.047000 0.6600 0.6530 0.6510 0.6480 0.6430
7.081163 0.6330 0.6210 0.6090 0.5970 0.5850
7.115000 0.5730 0.5610 0.5470 0.5350 0.5220
7.149163 0.5080 0.4930 0.4810 0.4760 0.4720
7.183000 0.4700 0.4620 0.4500 0.4300 0.3920
7.217163 0.3600 0.3370 0.3150 0.2910 0.2620
7.252000 0.2590 0.2590 0.2690 0.3050 0.3820
7.286163 0.4140 0.4410 0.4430 0.4410 0.4210
7.320000 0.4010 0.3580 0.3370 0.3150 0.2710
7.354163 0.2320 0.2010 0.1800 0.1790 0.1790
7.388000 0.1800 0.1990 0.2150 0.2300 0.2500
7.422163 0.2690 0.2910 0.3120 0.3660 0.4070
7.457000 0.4500 0.4910 0.5230 0.5370 0.5460
7.491163 0.5560 0.5640 0.5780 0.5950 0.6000
7.525000 0.6100 0.6290 0.6390 0.6460 0.6500
7.559163 0.6550 0.6600 0.6790 0.6840 0.6890
7.593000 0.6970 0.7030 0.7080 0.7080 0.7110
7.627163 0.7150 0.7180 0.7200 0.7210 0.7230
7.661000 0.7260 0.7300 0.7320 0.7350 0.7370
7.695163 0.7380 0.7380 0.7400 0.7400 0.7400
7.730000 0.7400 0.7400 0.7400 0.7400 0.7400
7.764163 0.7400 0.7420 0.7420 0.7420 0.7440
7.798000 0.7440 0.7400 0.7400 0.7400 0.7380
7.832163 0.7380 0.7380 0.7380 0.7380 0.7380
7.866000 0.7380 0.7400 0.7400 0.7400 0.7400
7.900163 0.7400 0.7400 0.7380 0.7380 0.7380
7.935000 0.7370 0.7350 0.7330 0.7320 0.7320
7.969163 0.7300 0.7300 0.7300 0.7280 0.7260
8.003000 0.7250 0.7200 0.7180 0.7180 0.7130
8.037163 0.7090 0.7030 0.7010 0.6970 0.6920
8.071000 0.6860 0.6800 0.6740 0.6700 0.6670
8.105163 0.6650 0.6620 0.6600 0.6580 0.6530
8.140000 0.6530 0.6510 0.6510 0.6510 0.6500
8.174163 0.6500 0.6500 0.6500 0.6500 0.6500
8.208000 0.6500 0.6500 0.6500 0.6500 0.6500
8.242163 0.6510 0.6530 0.6550 0.6600 0.6650
8.276000 0.6750 0.6790 0.6840 0.6890 0.6920
8.310163 0.6990 0.7030 0.7060 0.7130 0.7180
8.344000 0.7230 0.7280 0.7330 0.7400 0.7450
8.378163 0.7490 0.7520 0.7570 0.7590 0.7620
8.413000 0.7640 0.7670 0.7670 0.7690 0.7710
8.447163 0.7730 0.7760 0.7780 0.7780 0.7780
8.481000 0.7790 0.7790 0.7810 0.7830 0.7840
8.515163 0.7840 0.7860 0.7880 0.7880 0.7880
8.549000 0.7880 0.7900 0.7880 0.7880 0.7880
8.583163 0.7900 0.7910 0.7930 0.7930 0.7930
8.618000 0.7950 0.7950 0.7950 0.7950 0.7950
8.652163 0.7950 0.7930 0.7930 0.7930 0.7910
8.686000 0.7900 0.7880 0.7860 0.7790 0.7740
8.720163 0.7690 0.7640 0.7590 0.7520 0.7450
8.754000 0.7400 0.7320 0.7250 0.7200 0.7130
8.788163 0.7060 0.7030 0.7030 0.7010 0.7030
8.822000 0.7030 0.7060 0.7090 0.7160 0.7210
8.856163 0.7280 0.7370 0.7420 0.7490 0.7540
8.891000 0.7570 0.7610 0.7640 0.7670 0.7690
8.925163 0.7690 0.7710 0.7710 0.7710 0.7730
8.959000 0.7730 0.7730 0.7730 0.7740 0.7740
8.993163 0.7760 0.7790 0.7790 0.7760 0.7760
9.027000 0.7730 0.7710 0.7690 0.7670 0.7660
9.061163 0.7620 0.7610 0.7610 0.7590 0.7570
9.096000 0.7520 0.7490 0.7450 0.7400 0.7330
9.130163 0.7300 0.7230 0.7180 0.7110 0.7040
9.164000 0.6960 0.6890 0.6800 0.6720 0.6630
9.198163 0.6460 0.6310 0.6170 0.6020 0.5850
9.232000 0.5680 0.5490 0.5270 0.5050 0.4890
9.266163 0.4690 0.4500 0.4360 0.4240 0.4180
9.300000 0.4110 0.4090 0.4090 0.4090 0.4110
9.334163 0.4190 0.4260 0.4350 0.4410 0.4470
9.369000 0.4500 0.4520 0.4550 0.4620 0.4720
9.403163 0.4890 0.5010 0.5100 0.5200 0.5270
9.437000 0.5370 0.5460 0.5490 0.5540 0.5580
9.471163 0.5590 0.5630 0.5680 0.5710 0.5760
9.505000 0.5810 0.5870 0.5930 0.5980 0.6070
9.539163 0.6140 0.6220 0.6290 0.6390 0.6480
9.574000 0.6600 0.6740 0.6820 0.6910 0.6990
9.608163 0.7090 0.7180 0.7230 0.7260 0.7320
9.642000 0.7380 0.7400 0.7440 0.7470 0.7490
9.676163 0.7520 0.7540 0.7540 0.7540 0.7540
9.710000 0.7540 0.7540 0.7540 0.7540 0.7540
9.744163 0.7540 0.7540 0.7540 0.7540 0.7540
9.779000 0.7540 0.7540 0.7540 0.7520 0.7520
9.813163 0.7500 0.7500 0.7490 0.7490 0.7470
9.847000 0.7470 0.7440 0.7400 0.7370 0.7330
9.881163 0.7320 0.7300 0.7280 0.7250 0.7230
9.915000 0.7200 0.7160 0.7150 0.7130 0.7110
9.949163 0.7090 0.7090 0.7080 0.7080 0.7080
9.983000 0.7080 0.7080 0.7080 0.7080 0.7080
10.017163 0.7080 0.7080 0.7090 0.7110 0.7110
10.052000 0.7130 0.7150 0.7180 0.7200 0.7210
10.086163 0.7260 0.7260 0.7280 0.7320 0.7380
10.120000 0.7420 0.7450 0.7490 0.7520 0.7520
10.154163 0.7570 0.7590 0.7610 0.7640 0.7660
10.188000 0.7670 0.7730 0.7760 0.7790 0.7790
10.222163 0.7810 0.7840 0.7880 0.7880 0.7910
10.257000 0.7930 0.7930 0.7950 0.7980 0.8000
10.291163 0.8000 0.8020 0.8020 0.8020 0.8030
10.325000 0.8030 0.8050 0.8050 0.8050 0.8050
10.359163 0.8050 0.8050 0.8050 0.8050 0.8050
10.393000 0.8050 0.8070 0.8070 0.8070 0.8070
10.427163 0.8080 0.8080 0.8080 0.8100 0.8100
10.461000 0.8100 0.8120 0.8120 0.8120 0.8130
10.495163 0.8130 0.8130 0.8130 0.8150 0.8150
10.530000 0.8150 0.8170 0.8170 0.8170 0.8170
10.564163 0.8170 0.8170 0.8170 0.8190 0.8190
10.598000 0.8190 0.8200 0.8190 0.8190 0.8190
10.632163 0.8190 0.8200 0.8200 0.8200 0.8200
10.666000 0.8200 0.8200 0.8220 0.8200 0.8220
10.700163 0.8220 0.8240 0.8240 0.8240 0.8250
10.735000 0.8250 0.8250 0.8250 0.8250 0.8250
10.769163 0.8250 0.8250 0.8250 0.8250 0.8240
10.803000 0.8240 0.8250 0.8250 0.8250 0.8250
10.837163 0.8270 0.8270 0.8250 0.8270 0.8270
10.871000 0.8270 0.8270 0.8270 0.8270 0.8270
10.905163 0.8270 0.8270 0.8270 0.8270 0.8270
10.940000 0.8290 0.8290 0.8290 0.8290 0.8290
10.974163 0.8290 0.8290 0.8290 0.8270 0.8290
11.008000 0.8290 0.8290 0.8270 0.8270 0.8270
11.042163 0.8270 0.8270 0.8250 0.8240 0.8240
11.076000 0.8240 0.8220 0.8220 0.8200 0.8200
11.110163 0.8190 0.8170 0.8170 0.8130 0.8100
11.144000 0.8080 0.8080 0.8050 0.8050 0.8020
11.178163 0.8000 0.7980 0.7950 0.7910 0.7880
11.213000 0.7860 0.7790 0.7730 0.7690 0.7620
11.247163 0.7570 0.7500 0.7470 0.7400 0.7330
11.281000 0.7280 0.7210 0.7150 0.7040 0.6990
11.315163 0.6960 0.6890 0.6860 0.6800 0.6770
11.349000 0.6720 0.6700 0.6680 0.6670 0.6650
11.383163 0.6630 0.6620 0.6620 0.6620 0.6630
11.418000 0.6630 0.6680 0.6700 0.6740 0.6790
11.452163 0.6840 0.6890 0.6920 0.6990 0.7010
11.486000 0.7060 0.7130 0.7200 0.7230 0.7300
11.520163 0.7350 0.7420 0.7470 0.7520 0.7570
11.554000 0.7610 0.7620 0.7660 0.7670 0.7710
11.588163 0.7730 0.7780 0.7790 0.7810 0.7810
11.622000 0.7830 0.7840 0.7880 0.7900 0.7900
11.656163 0.7910 0.7930 0.7950 0.7960 0.7960
11.691000 0.7980 0.8000 0.8000 0.8020 0.8020
11.725163 0.8020 0.8020 0.8030 0.8030 0.8030
11.759000 0.8030 0.8030 0.8030 0.8030 0.8050
11.793163 0.8050 0.8050 0.8050 0.8050 0.8030
11.827000 0.8030 0.8020 0.8020 0.8000 0.7960
11.861163 0.7960 0.7950 0.7930 0.7910 0.7910
11.896000 0.7910 0.7910 0.7910 0.7930 0.7930
11.930163 0.7950 0.7960 0.7960 0.7980 0.7980
11.964000 0.7980 0.8000 0.8000 0.8000 0.8020
11.998163 0.8020 0.8020 0.8020 0.8020 0.8020
12.032000 0.8020 0.8020 0.8020 0.8020 0.8020
12.066163 0.8020 0.8020 0.8000 0.8000 0.8000
12.100000 0.7980 0.7980 0.7960 0.7950 0.7930
12.134163 0.7900 0.7880 0.7830 0.7810 0.7790
12.169000 0.7760 0.7730 0.7690 0.7660 0.7620
12.203163 0.7590 0.7550 0.7550 0.7520 0.7500
12.237000 0.7490 0.7450 0.7420 0.7400 0.7380
12.271163 0.7370 0.7350 0.7330 0.7320 0.7300
12.305000 0.7280 0.7260 0.7250 0.7230 0.7200
12.339163 0.7180 0.7130 0.7090 0.7060 0.7030
12.374000 0.6990 0.6970 0.6920 0.6870 0.6770
12.408163 0.6700 0.6670 0.6630 0.6560 0.6510
12.442000 0.6460 0.6430 0.6360 0.6310 0.6240
12.476163 0.6210 0.6140 0.6090 0.6070 0.6040
12.510000 0.6020 0.5980 0.5980 0.5970 0.5970
12.544163 0.5980 0.6020 0.6040 0.6070 0.6100
12.579000 0.6190 0.6240 0.6310 0.6380 0.6460
12.613163 0.6550 0.6560 0.6630 0.6740 0.6800
12.647000 0.6860 0.6910 0.6940 0.6970 0.7010
12.681163 0.7060 0.7090 0.7150 0.7160 0.7180
12.715000 0.7200 0.7210 0.7230 0.7250 0.7260
12.749163 0.7280 0.7300 0.7320 0.7330 0.7330
12.783000 0.7350 0.7350 0.7370 0.7380 0.7380
12.817163 0.7400 0.7420 0.7420 0.7420 0.7420
12.852000 0.7420 0.7420 0.7420 0.7420 0.7420
12.886163 0.7420 0.7440 0.7440 0.7440 0.7440
12.920000 0.7440 0.7440 0.7440 0.7440 0.7420
12.954163 0.7420 0.7400 0.7400 0.7400 0.7400
12.988000 0.7380 0.7380 0.7380 0.7370 0.7350
13.022163 0.7330 0.7320 0.7320 0.7300 0.7300
13.057000 0.7280 0.7280 0.7260 0.7230 0.7230
13.091163 0.7210 0.7200 0.7180 0.7180 0.7150
13.125000 0.7130 0.7110 0.7110 0.7090 0.7080
13.159163 0.7040 0.7030 0.7030 0.7010 0.6970
13.193000 0.6970 0.6940 0.6920 0.6910 0.6890
13.227163 0.6890 0.6860 0.6820 0.6800 0.6790
13.261000 0.6790 0.6750 0.6740 0.6720 0.6700
13.295163 0.6680 0.6670 0.6650 0.6630 0.6620
13.330000 0.6600 0.6600 0.6580 0.6580 0.6550
13.364163 0.6530 0.6510 0.6500 0.6500 0.6480
13.398000 0.6460 0.6450 0.6430 0.6430 0.6390
13.432163 0.6380 0.6340 0.6330 0.6310 0.6290
13.466000 0.6290 0.6240 0.6220 0.6190 0.6190
13.500163 0.6160 0.6140 0.6090 0.6090 0.6050
13.535000 0.6040 0.6020 0.6000 0.5980 0.5950
13.569163 0.5920 0.5900 0.5880 0.5850 0.5810
13.603000 0.5800 0.5760 0.5730 0.5690 0.5680
13.637163 0.5640 0.5610 0.5580 0.5540 0.5490
13.671000 0.5460 0.5420 0.5370 0.5320 0.5270
13.705163 0.5230 0.5180 0.5130 0.5060 0.5010
13.740000 0.4960 0.4890 0.4820 0.4760 0.4650
13.774163 0.4620 0.4550 0.4480 0.4410 0.4350
13.808000 0.4280 0.4210 0.4140 0.4070 0.4010
13.842163 0.3940 0.3850 0.3750 0.3650 0.3560
13.876000 0.3490 0.3460 0.3390 0.3360 0.3320
13.910163 0.3290 0.3250 0.3200 0.3170 0.3120
13.944000 0.3100 0.3080 0.3050 0.3050 0.3030
13.978163 0.3030 0.3050 0.3080 0.3130 0.3190
14.013000 0.3240 0.3290 0.3390 0.3440 0.3510
14.047163 0.3580 0.3650 0.3730 0.3800 0.3870
14.081000 0.3950 0.4020 0.4110 0.4180 0.4240
14.115163 0.4310 0.4380 0.4450 0.4520 0.4570
14.149000 0.4620 0.4690 0.4720 0.4760 0.4790
14.183163 0.4820 0.4860 0.4890 0.4940 0.5000
14.218000 0.5010 0.5030 0.5060 0.5060 0.5080
14.252163 0.5100 0.5110 0.5130 0.5150 0.5170
14.286000 0.5170 0.5180 0.5200 0.5220 0.5220
14.320163 0.5220 0.5230 0.5230 0.5230 0.5250
14.354000 0.5250 0.5270 0.5270 0.5270 0.5270
14.388163 0.5270 0.5270 0.5290 0.5290 0.5290
14.422000 0.5290 0.5270 0.5270 0.5270 0.5270
14.456163 0.5250 0.5250 0.5230 0.5230 0.5230
14.491000 0.5230 0.5230 0.5220 0.5220 0.5220
14.525163 0.5220 0.5220 0.5220 0.5200 0.5200
14.559000 0.5200 0.5180 0.5180 0.5180 0.5170
14.593163 0.5130 0.5130 0.5110 0.5110 0.5110
14.627000 0.5100 0.5100 0.5100 0.5080 0.5080
14.661163 0.5080 0.5080 0.5080 0.5060 0.5060
14.696000 0.5050 0.5050 0.5030 0.5030 0.5010
14.730163 0.5010 0.5000 0.4980 0.4980 0.4980
14.764000 0.4960 0.4960 0.4940 0.4940 0.4930
14.798163 0.4910 0.4890 0.4890 0.4890 0.4880
14.832000 0.4880 0.4880 0.4840 0.4820 0.4820
14.866163 0.4810 0.4810 0.4790 0.4770 0.4740
14.900000 0.4720 0.4700 0.4690 0.4670 0.4670
14.934163 0.4640 0.4640 0.4640 0.4620 0.4620
14.969000 0.4600 0.4600 0.4590 0.4570 0.4530
15.003163 0.4500 0.4500 0.4480 0.4450 0.4430
15.037000 0.4400 0.4400 0.4380 0.4330 0.4310
15.071163 0.4300 0.4280 0.4240 0.4230 0.4210
15.105000 0.4190 0.4190 0.4180 0.4140 0.4120
15.139163 0.4090 0.4070 0.4060 0.4020 0.4020
15.174000 0.4010 0.3990 0.3970 0.3970 0.3950
15.208163 0.3950 0.3940 0.3920 0.3900 0.3900
15.242000 0.3890 0.3890 0.3870 0.3850 0.3850
15.276163 0.3820 0.3820 0.3800 0.3800 0.3800
15.310000 0.3800 0.3780 0.3780 0.3780 0.3770
15.344163 0.3770 0.3770 0.3770 0.3770 0.3770
15.379000 0.3770 0.3770 0.3770 0.3770 0.3770
15.413163 0.3780 0.3780 0.3780 0.3800 0.3800
15.447000 0.3820 0.3830 0.3830 0.3850 0.3850
15.481163 0.3890 0.3890 0.3900 0.3900 0.3920
15.515000 0.3950 0.3970 0.3970 0.3990 0.3990
15.549163 0.4010 0.4020 0.4020 0.4040 0.4040
15.583000 0.4040 0.4060 0.4060 0.4070 0.4090
15.617163 0.4090 0.4110 0.4120 0.4120 0.4140
15.652000 0.4140 0.4160 0.4160 0.4180 0.4180
15.686163 0.4180 0.4180 0.4180 0.4180 0.4190
15.720000 0.4190 0.4190 0.4190 0.4190 0.4190
15.754163 0.4190 0.4190 0.4190 0.4190 0.4190
15.788000 0.4190 0.4190 0.4190 0.4190 0.4190
15.822163 0.4190 0.4190 0.4190 0.4190
##END=
