##TITLE=SODIUM SULFITE
$$ A.R.
##JCAMP-DX=4.24
##DATA TYPE=INFRARED SPECTRUM
##CLASS=COBLENTZ
##ORIGIN=MELLON INSTITUTE
##OWNER=COBLENTZ SOCIETY
Collection (C) 2018 copyright by the U.S. Secretary of Commerce
on behalf of the United States of America. All rights reserved.
##DATE=Not specified, most likely prior to 1970
##MOLFORM=Na2 S O3
##SOURCE REFERENCE=COBLENTZ NO. 566
##$NIST ID=B6000566
##$NIST SOURCE=COBLENTZ
##$NIST IMAGE=cob566
##SPECTROMETER/DATA SYSTEM=Not specified, most likely a prism, grating, or hybrid spectrometer.
##STATE=SOLID (NUJOL MULL)
##PATH LENGTH=
$$SPECTRAL CONTAMINATION DUE TO OIL AROUND 2900, 1450, 1380 CM^-^1
##SAMPLING PROCEDURE=TRANSMISSION
##RESOLUTION=4
##DATA PROCESSING=DIGITIZED BY NIST FROM HARD COPY
##XUNITS=MICROMETERS
##YUNITS=TRANSMITTANCE
##XFACTOR=1.000000
##YFACTOR=1
##DELTAX=000.006655
##FIRSTX=2.042
##LASTX=16.0227
##FIRSTY=0.782
##MAXX=16.0227
##MINX=2.042
##MAXY=1.006
##MINY=0.068
##NPOINTS=2102
##XYDATA=(X++(Y..Y))
2.042000 0.7820 0.7820 0.7830 0.7820 0.7820
2.075289 0.7820 0.7820 0.7820 0.7820 0.7820
2.108000 0.7830 0.7830 0.7830 0.7830 0.7830
2.141289 0.7830 0.7830 0.7830 0.7830 0.7850
2.175000 0.7850 0.7870 0.7870 0.7880 0.7900
2.208289 0.7900 0.7930 0.7950 0.7950 0.7970
2.241000 0.7970 0.7970 0.7980 0.7980 0.7980
2.274289 0.7980 0.7980 0.7980 0.8000 0.8000
2.308000 0.8000 0.8020 0.8020 0.8020 0.8020
2.341289 0.8040 0.8040 0.8040 0.8050 0.8050
2.374000 0.8050 0.8090 0.8090 0.8100 0.8100
2.407289 0.8120 0.8120 0.8120 0.8120 0.8140
2.441000 0.8140 0.8140 0.8150 0.8150 0.8150
2.474289 0.8150 0.8150 0.8150 0.8170 0.8150
2.508000 0.8170 0.8150 0.8150 0.8150 0.8150
2.541289 0.8150 0.8150 0.8170 0.8170 0.8170
2.574000 0.8190 0.8190 0.8200 0.8200 0.8200
2.607289 0.8220 0.8220 0.8220 0.8220 0.8240
2.641000 0.8240 0.8240 0.8240 0.8240 0.8250
2.674289 0.8250 0.8250 0.8250 0.8250 0.8250
2.707000 0.8250 0.8250 0.8250 0.8250 0.8250
2.740289 0.8250 0.8250 0.8250 0.8250 0.8250
2.774000 0.8240 0.8240 0.8240 0.8220 0.8220
2.807289 0.8200 0.8190 0.8170 0.8170 0.8150
2.840000 0.8140 0.8140 0.8120 0.8120 0.8120
2.873289 0.8120 0.8100 0.8100 0.8100 0.8090
2.907000 0.8090 0.8090 0.8090 0.8100 0.8090
2.940289 0.8090 0.8090 0.8090 0.8090 0.8100
2.973000 0.8120 0.8120 0.8140 0.8140 0.8150
3.006289 0.8150 0.8150 0.8140 0.8150 0.8150
3.040000 0.8150 0.8150 0.8150 0.8170 0.8170
3.073289 0.8190 0.8200 0.8200 0.8220 0.8240
3.106000 0.8240 0.8250 0.8270 0.8270 0.8290
3.139289 0.8290 0.8300 0.8320 0.8340 0.8350
3.173000 0.8350 0.8370 0.8370 0.8390 0.8400
3.206289 0.8420 0.8420 0.8420 0.8420 0.8420
3.240000 0.8400 0.8400 0.8400 0.8400 0.8390
3.273289 0.8390 0.8350 0.8290 0.8120 0.7950
3.306000 0.7780 0.7520 0.7010 0.6080 0.5140
3.339289 0.4920 0.4020 0.3730 0.3430 0.2990
3.373000 0.2610 0.2610 0.2620 0.2640 0.2710
3.406289 0.2810 0.2910 0.2990 0.3030 0.3060
3.439000 0.3080 0.3090 0.3090 0.3140 0.3190
3.472289 0.3580 0.3760 0.4770 0.5200 0.6190
3.506000 0.6660 0.7150 0.7570 0.7730 0.8420
3.539289 0.8540 0.8640 0.8760 0.8790 0.8860
3.572000 0.8920 0.8990 0.9020 0.9040 0.9060
3.605289 0.9110 0.9120 0.9140 0.9160 0.9170
3.639000 0.9190 0.9190 0.9210 0.9220 0.9220
3.672289 0.9220 0.9220 0.9240 0.9240 0.9260
3.705000 0.9260 0.9260 0.9260 0.9260 0.9260
3.738289 0.9240 0.9240 0.9240 0.9240 0.9240
3.772000 0.9240 0.9240 0.9240 0.9240 0.9240
3.805289 0.9240 0.9240 0.9240 0.9240 0.9240
3.838000 0.9240 0.9240 0.9240 0.9240 0.9240
3.871289 0.9240 0.9240 0.9240 0.9240 0.9240
3.905000 0.9240 0.9240 0.9240 0.9240 0.9240
3.938289 0.9240 0.9240 0.9240 0.9240 0.9240
3.972000 0.9260 0.9240 0.9240 0.9240 0.9220
4.005289 0.9220 0.9220 0.9220 0.9210 0.9190
4.038000 0.9190 0.9190 0.9190 0.9190 0.9190
4.071289 0.9170 0.9170 0.9160 0.9160 0.9160
4.105000 0.9140 0.9140 0.9140 0.9140 0.9140
4.138289 0.9120 0.9110 0.9110 0.9110 0.9090
4.171000 0.9070 0.9070 0.9070 0.9060 0.9060
4.204289 0.9040 0.9020 0.9020 0.9020 0.9020
4.238000 0.9020 0.9020 0.9010 0.9010 0.9010
4.271289 0.9010 0.9010 0.9010 0.9010 0.9010
4.304000 0.9010 0.9010 0.8990 0.8990 0.8990
4.337289 0.8990 0.9020 0.9010 0.9010 0.9010
4.371000 0.8990 0.8990 0.8990 0.8990 0.8990
4.404289 0.8990 0.8990 0.8990 0.8990 0.8970
4.437000 0.8990 0.8970 0.8960 0.8960 0.8960
4.470289 0.8960 0.8940 0.8940 0.8940 0.8940
4.504000 0.8940 0.8920 0.8920 0.8920 0.8920
4.537289 0.8910 0.8910 0.8890 0.8890 0.8890
4.570000 0.8890 0.8890 0.8890 0.8870 0.8870
4.603289 0.8870 0.8860 0.8860 0.8840 0.8840
4.637000 0.8840 0.8820 0.8820 0.8810 0.8810
4.670289 0.8790 0.8790 0.8790 0.8790 0.8770
4.704000 0.8770 0.8770 0.8770 0.8770 0.8760
4.737289 0.8760 0.8760 0.8760 0.8760 0.8760
4.770000 0.8760 0.8740 0.8740 0.8740 0.8760
4.803289 0.8760 0.8760 0.8760 0.8760 0.8760
4.837000 0.8760 0.8760 0.8760 0.8740 0.8740
4.870289 0.8740 0.8740 0.8740 0.8740 0.8740
4.903000 0.8740 0.8740 0.8740 0.8760 0.8760
4.936289 0.8760 0.8760 0.8760 0.8760 0.8760
4.970000 0.8760 0.8760 0.8760 0.8760 0.8720
5.003289 0.8740 0.8740 0.8740 0.8720 0.8720
5.036000 0.8720 0.8720 0.8720 0.8740 0.8740
5.069289 0.8740 0.8740 0.8740 0.8740 0.8720
5.103000 0.8720 0.8710 0.8710 0.8710 0.8710
5.136289 0.8710 0.8710 0.8710 0.8710 0.8710
5.169000 0.8710 0.8710 0.8710 0.8710 0.8710
5.202289 0.8690 0.8710 0.8710 0.8710 0.8710
5.236000 0.8710 0.8710 0.8710 0.8720 0.8710
5.269289 0.8710 0.8710 0.8710 0.8710 0.8720
5.302000 0.8710 0.8710 0.8690 0.8690 0.8690
5.335289 0.8690 0.8690 0.8690 0.8710 0.8710
5.369000 0.8710 0.8710 0.8710 0.8720 0.8720
5.402289 0.8720 0.8720 0.8720 0.8740 0.8740
5.436000 0.8740 0.8740 0.8740 0.8760 0.8760
5.469289 0.8760 0.8760 0.8760 0.8760 0.8770
5.502000 0.8770 0.8760 0.8760 0.8760 0.8760
5.535289 0.8760 0.8770 0.8770 0.8770 0.8770
5.569000 0.8770 0.8770 0.8770 0.8770 0.8790
5.602289 0.8790 0.8790 0.8790 0.8790 0.8810
5.635000 0.8810 0.8810 0.8820 0.8820 0.8820
5.668289 0.8840 0.8840 0.8840 0.8840 0.8840
5.702000 0.8840 0.8840 0.8840 0.8860 0.8870
5.735289 0.8870 0.8870 0.8870 0.8870 0.8870
5.768000 0.8890 0.8890 0.8890 0.8890 0.8890
5.801289 0.8910 0.8910 0.8910 0.8910 0.8910
5.835000 0.8910 0.8910 0.8910 0.8910 0.8910
5.868289 0.8910 0.8910 0.8910 0.8910 0.8890
5.901000 0.8890 0.8870 0.8870 0.8860 0.8860
5.934289 0.8860 0.8860 0.8840 0.8840 0.8840
5.968000 0.8840 0.8840 0.8860 0.8840 0.8840
6.001289 0.8840 0.8840 0.8820 0.8820 0.8810
6.034000 0.8790 0.8770 0.8770 0.8770 0.8770
6.067289 0.8770 0.8760 0.8760 0.8760 0.8760
6.101000 0.8770 0.8770 0.8770 0.8790 0.8790
6.134289 0.8810 0.8810 0.8820 0.8820 0.8840
6.168000 0.8840 0.8860 0.8860 0.8870 0.8870
6.201289 0.8890 0.8890 0.8910 0.8920 0.8920
6.234000 0.8920 0.8920 0.8920 0.8920 0.8920
6.267289 0.8920 0.8920 0.8920 0.8920 0.8910
6.301000 0.8910 0.8910 0.8890 0.8870 0.8860
6.334289 0.8860 0.8860 0.8840 0.8840 0.8820
6.367000 0.8820 0.8810 0.8810 0.8810 0.8790
6.400289 0.8790 0.8790 0.8790 0.8810 0.8810
6.434000 0.8810 0.8810 0.8810 0.8810 0.8810
6.467289 0.8810 0.8810 0.8810 0.8810 0.8810
6.500000 0.8790 0.8760 0.8760 0.8760 0.8770
6.533289 0.8770 0.8790 0.8790 0.8790 0.8810
6.567000 0.8810 0.8820 0.8840 0.8860 0.8860
6.600289 0.8870 0.8890 0.8910 0.8910 0.8920
6.633000 0.8940 0.8940 0.8960 0.8960 0.8960
6.666289 0.8960 0.8940 0.8940 0.8940 0.8920
6.700000 0.8890 0.8870 0.8860 0.8810 0.8760
6.733289 0.8600 0.8500 0.8390 0.8070 0.7950
6.766000 0.7820 0.7330 0.7080 0.6950 0.6800
6.799289 0.6610 0.6290 0.6210 0.6190 0.6190
6.833000 0.6190 0.6210 0.6230 0.6240 0.6280
6.866289 0.6330 0.6380 0.6510 0.6590 0.6700
6.900000 0.6800 0.6850 0.7000 0.7100 0.7150
6.933289 0.7230 0.7380 0.7480 0.7570 0.7670
6.966000 0.7770 0.7830 0.8090 0.8150 0.8170
6.999289 0.8190 0.8300 0.8340 0.8420 0.8450
7.033000 0.8490 0.8520 0.8540 0.8590 0.8620
7.066289 0.8650 0.8690 0.8740 0.8760 0.8770
7.099000 0.8790 0.8810 0.8820 0.8820 0.8820
7.132289 0.8820 0.8820 0.8810 0.8760 0.8720
7.166000 0.8600 0.8400 0.8390 0.8120 0.8040
7.199289 0.7950 0.7570 0.7550 0.7550 0.7550
7.232000 0.7550 0.7580 0.7650 0.7730 0.7770
7.265289 0.7780 0.7800 0.7830 0.7870 0.8050
7.299000 0.8150 0.8240 0.8300 0.8340 0.8390
7.332289 0.8420 0.8470 0.8500 0.8540 0.8550
7.365000 0.8600 0.8600 0.8620 0.8650 0.8670
7.398289 0.8690 0.8690 0.8710 0.8720 0.8760
7.432000 0.8770 0.8810 0.8840 0.8860 0.8890
7.465289 0.8910 0.8920 0.8940 0.8940 0.8960
7.498000 0.8960 0.8960 0.8970 0.8990 0.8990
7.531289 0.8990 0.8990 0.8990 0.8990 0.8990
7.565000 0.8990 0.8990 0.8990 0.8990 0.8990
7.598289 0.8990 0.8990 0.8990 0.8990 0.8990
7.632000 0.8990 0.8990 0.8990 0.8990 0.8990
7.665289 0.9010 0.9010 0.9010 0.9010 0.9010
7.698000 0.9010 0.9010 0.9010 0.9020 0.9020
7.731289 0.9020 0.9040 0.9060 0.9060 0.9060
7.765000 0.9060 0.9060 0.9070 0.9070 0.9110
7.798289 0.9110 0.9090 0.9070 0.9070 0.9060
7.831000 0.9060 0.9060 0.9060 0.9060 0.9060
7.864289 0.9060 0.9060 0.9060 0.9060 0.9060
7.898000 0.9110 0.9120 0.9120 0.9140 0.9160
7.931289 0.9160 0.9160 0.9170 0.9170 0.9170
7.964000 0.9190 0.9190 0.9190 0.9190 0.9190
7.997289 0.9190 0.9190 0.9210 0.9210 0.9210
8.031000 0.9220 0.9220 0.9240 0.9220 0.9220
8.064289 0.9220 0.9220 0.9220 0.9220 0.9220
8.097000 0.9220 0.9220 0.9220 0.9220 0.9220
8.130289 0.9210 0.9210 0.9160 0.9110 0.9060
8.164000 0.9020 0.9010 0.8970 0.8940 0.8890
8.197289 0.8870 0.8870 0.8870 0.8860 0.8860
8.230000 0.8860 0.8860 0.8870 0.8870 0.8870
8.263289 0.8890 0.8890 0.8920 0.8940 0.8960
8.297000 0.8970 0.8990 0.9020 0.9040 0.9040
8.330289 0.9060 0.9070 0.9070 0.9090 0.9110
8.364000 0.9110 0.9110 0.9110 0.9120 0.9120
8.397289 0.9140 0.9140 0.9140 0.9140 0.9140
8.430000 0.9140 0.9160 0.9160 0.9160 0.9160
8.463289 0.9160 0.9170 0.9170 0.9170 0.9170
8.497000 0.9170 0.9170 0.9170 0.9170 0.9170
8.530289 0.9170 0.9160 0.9160 0.9160 0.9160
8.563000 0.9160 0.9160 0.9140 0.9140 0.9140
8.596289 0.9120 0.9110 0.9090 0.9070 0.9060
8.630000 0.9060 0.9060 0.9040 0.9040 0.9020
8.663289 0.9010 0.9010 0.8970 0.8960 0.8920
8.696000 0.8890 0.8860 0.8820 0.8740 0.8670
8.729289 0.8450 0.8320 0.8240 0.8200 0.8070
8.763000 0.8000 0.8000 0.7980 0.7950 0.7930
8.796289 0.7920 0.7920 0.7920 0.7920 0.7930
8.829000 0.7970 0.7980 0.8040 0.8070 0.8100
8.862289 0.8140 0.8170 0.8220 0.8270 0.8320
8.896000 0.8350 0.8400 0.8440 0.8500 0.8540
8.929289 0.8550 0.8570 0.8570 0.8590 0.8590
8.962000 0.8590 0.8600 0.8600 0.8600 0.8620
8.995289 0.8640 0.8650 0.8650 0.8670 0.8690
9.029000 0.8710 0.8710 0.8720 0.8740 0.8740
9.062289 0.8760 0.8770 0.8770 0.8770 0.8770
9.096000 0.8790 0.8790 0.8790 0.8770 0.8770
9.129289 0.8770 0.8770 0.8760 0.8760 0.8760
9.162000 0.8760 0.8760 0.8760 0.8740 0.8740
9.195289 0.8740 0.8740 0.8740 0.8740 0.8740
9.229000 0.8720 0.8720 0.8720 0.8720 0.8710
9.262289 0.8710 0.8710 0.8710 0.8710 0.8690
9.295000 0.8690 0.8670 0.8670 0.8650 0.8650
9.328289 0.8640 0.8620 0.8620 0.8620 0.8620
9.362000 0.8600 0.8600 0.8590 0.8590 0.8570
9.395289 0.8550 0.8550 0.8540 0.8520 0.8500
9.428000 0.8490 0.8470 0.8450 0.8450 0.8440
9.461289 0.8440 0.8420 0.8400 0.8390 0.8350
9.495000 0.8340 0.8320 0.8300 0.8270 0.8250
9.528289 0.8220 0.8200 0.8150 0.8140 0.8070
9.561000 0.8020 0.8000 0.8000 0.7970 0.7920
9.594289 0.7830 0.7770 0.7680 0.7630 0.7530
9.628000 0.7450 0.7350 0.7280 0.7210 0.7130
9.661289 0.7050 0.7000 0.6900 0.6830 0.6730
9.694000 0.6610 0.6530 0.6480 0.6340 0.6230
9.727289 0.6140 0.6040 0.6030 0.5990 0.5810
9.761000 0.5720 0.5610 0.5510 0.5420 0.5290
9.794289 0.5140 0.5000 0.4920 0.4720 0.4500
9.828000 0.4420 0.4150 0.4050 0.3960 0.3860
9.861289 0.3700 0.3630 0.3560 0.3500 0.3380
9.894000 0.3350 0.3210 0.3130 0.3030 0.2990
9.927289 0.2890 0.2860 0.2790 0.2740 0.2690
9.961000 0.2610 0.2520 0.2490 0.2410 0.2320
9.994289 0.2260 0.2190 0.2110 0.2020 0.2010
10.027000 0.1990 0.1920 0.1850 0.1770 0.1720
10.060289 0.1670 0.1620 0.1540 0.1490 0.1440
10.094000 0.1400 0.1350 0.1320 0.1280 0.1250
10.127289 0.1220 0.1200 0.1170 0.1150 0.1120
10.160000 0.1050 0.1050 0.1030 0.1020 0.1000
10.193289 0.0980 0.0950 0.0930 0.0920 0.0900
10.227000 0.0880 0.0870 0.0850 0.0830 0.0830
10.260289 0.0820 0.0800 0.0800 0.0780 0.0770
10.293000 0.0750 0.0730 0.0730 0.0720 0.0720
10.326289 0.0720 0.0700 0.0700 0.0700 0.0700
10.360000 0.0700 0.0700 0.0680 0.0680 0.0680
10.393289 0.0700 0.0700 0.0700 0.0720 0.0720
10.426000 0.0730 0.0730 0.0730 0.0750 0.0750
10.459289 0.0750 0.0770 0.0770 0.0800 0.0820
10.493000 0.0830 0.0850 0.0900 0.0920 0.1000
10.526289 0.1000 0.1030 0.1070 0.1120 0.1170
10.560000 0.1200 0.1230 0.1280 0.1320 0.1350
10.593289 0.1420 0.1470 0.1520 0.1570 0.1600
10.626000 0.1640 0.1740 0.1790 0.1820 0.1870
10.659289 0.1900 0.2020 0.2090 0.2160 0.2210
10.693000 0.2260 0.2320 0.2370 0.2420 0.2510
10.726289 0.2620 0.2660 0.2730 0.2810 0.2890
10.759000 0.2940 0.3010 0.3060 0.3110 0.3180
10.792289 0.3230 0.3280 0.3330 0.3410 0.3450
10.826000 0.3480 0.3510 0.3550 0.3630 0.3680
10.859289 0.3730 0.3800 0.3880 0.3980 0.3980
10.892000 0.4100 0.4150 0.4200 0.4280 0.4370
10.925289 0.4420 0.4480 0.4530 0.4600 0.4690
10.959000 0.4720 0.4790 0.4850 0.4920 0.4990
10.992289 0.5000 0.5050 0.5100 0.5150 0.5220
11.025000 0.5250 0.5300 0.5360 0.5420 0.5470
11.058289 0.5520 0.5560 0.5610 0.5660 0.5710
11.092000 0.5740 0.5790 0.5840 0.5870 0.5940
11.125289 0.5990 0.5990 0.6040 0.6110 0.6140
11.158000 0.6180 0.6210 0.6230 0.6260 0.6290
11.191289 0.6340 0.6380 0.6410 0.6440 0.6460
11.225000 0.6510 0.6540 0.6560 0.6610 0.6630
11.258289 0.6660 0.6700 0.6730 0.6760 0.6780
11.292000 0.6810 0.6850 0.6860 0.6910 0.6950
11.325289 0.7000 0.7000 0.7030 0.7050 0.7060
11.358000 0.7110 0.7160 0.7180 0.7210 0.7250
11.391289 0.7260 0.7280 0.7330 0.7350 0.7380
11.425000 0.7420 0.7450 0.7480 0.7500 0.7530
11.458289 0.7550 0.7570 0.7580 0.7620 0.7630
11.491000 0.7650 0.7700 0.7720 0.7730 0.7750
11.524289 0.7770 0.7780 0.7800 0.7830 0.7850
11.558000 0.7870 0.7900 0.7920 0.7930 0.7950
11.591289 0.8000 0.8040 0.8040 0.8050 0.8050
11.624000 0.8090 0.8090 0.8120 0.8140 0.8150
11.657289 0.8190 0.8200 0.8200 0.8240 0.8250
11.691000 0.8270 0.8290 0.8320 0.8320 0.8340
11.724289 0.8350 0.8390 0.8390 0.8400 0.8420
11.757000 0.8440 0.8440 0.8470 0.8470 0.8490
11.790289 0.8500 0.8520 0.8540 0.8550 0.8590
11.824000 0.8600 0.8620 0.8640 0.8650 0.8670
11.857289 0.8690 0.8690 0.8710 0.8720 0.8720
11.891000 0.8760 0.8760 0.8770 0.8790 0.8810
11.924289 0.8820 0.8840 0.8860 0.8870 0.8890
11.957000 0.8910 0.8920 0.8940 0.8940 0.8960
11.990289 0.8970 0.8970 0.8990 0.8990 0.9010
12.024000 0.9020 0.9020 0.9040 0.9060 0.9060
12.057289 0.9070 0.9070 0.9090 0.9110 0.9110
12.090000 0.9120 0.9120 0.9140 0.9140 0.9140
12.123289 0.9160 0.9170 0.9190 0.9190 0.9210
12.157000 0.9210 0.9220 0.9220 0.9240 0.9260
12.190289 0.9260 0.9260 0.9290 0.9310 0.9310
12.223000 0.9320 0.9320 0.9320 0.9340 0.9340
12.256289 0.9360 0.9360 0.9380 0.9380 0.9390
12.290000 0.9390 0.9410 0.9430 0.9430 0.9440
12.323289 0.9440 0.9440 0.9460 0.9460 0.9480
12.356000 0.9480 0.9490 0.9490 0.9510 0.9510
12.389289 0.9510 0.9510 0.9540 0.9540 0.9540
12.423000 0.9540 0.9560 0.9560 0.9560 0.9580
12.456289 0.9590 0.9590 0.9590 0.9610 0.9610
12.489000 0.9630 0.9630 0.9640 0.9640 0.9640
12.522289 0.9660 0.9660 0.9680 0.9680 0.9690
12.556000 0.9690 0.9690 0.9690 0.9710 0.9710
12.589289 0.9710 0.9740 0.9740 0.9760 0.9760
12.623000 0.9760 0.9760 0.9780 0.9780 0.9790
12.656289 0.9790 0.9790 0.9810 0.9810 0.9810
12.689000 0.9830 0.9830 0.9830 0.9830 0.9840
12.722289 0.9840 0.9840 0.9860 0.9860 0.9860
12.756000 0.9880 0.9880 0.9880 0.9880 0.9880
12.789289 0.9880 0.9890 0.9890 0.9890 0.9890
12.822000 0.9890 0.9910 0.9910 0.9910 0.9910
12.855289 0.9910 0.9930 0.9930 0.9930 0.9930
12.889000 0.9940 0.9940 0.9940 0.9940 0.9940
12.922289 0.9940 0.9960 0.9960 0.9960 0.9960
12.955000 0.9960 0.9960 0.9980 0.9980 0.9980
12.988289 0.9980 0.9980 0.9980 1.0000 1.0000
13.022000 1.0000 1.0000 1.0000 1.0010 1.0010
13.055289 1.0010 1.0010 1.0010 1.0010 1.0010
13.088000 1.0010 1.0030 1.0030 1.0030 1.0030
13.121289 1.0030 1.0030 1.0030 1.0030 1.0030
13.155000 1.0050 1.0050 1.0050 1.0050 1.0050
13.188289 1.0050 1.0050 1.0050 1.0050 1.0050
13.221000 1.0050 1.0050 1.0050 1.0050 1.0050
13.254289 1.0050 1.0050 1.0050 1.0050 1.0050
13.288000 1.0050 1.0050 1.0050 1.0050 1.0050
13.321289 1.0050 1.0050 1.0050 1.0060 1.0050
13.355000 1.0050 1.0050 1.0030 1.0030 1.0030
13.388289 1.0030 1.0030 1.0030 1.0030 1.0030
13.421000 1.0030 1.0030 1.0030 1.0030 1.0010
13.454289 1.0010 1.0010 1.0010 1.0010 1.0010
13.488000 1.0000 1.0000 1.0000 1.0000 1.0000
13.521289 1.0000 1.0000 0.9980 0.9980 0.9980
13.554000 0.9960 0.9960 0.9960 0.9960 0.9940
13.587289 0.9940 0.9930 0.9930 0.9910 0.9910
13.621000 0.9910 0.9890 0.9890 0.9890 0.9880
13.654289 0.9880 0.9860 0.9860 0.9840 0.9840
13.687000 0.9840 0.9830 0.9830 0.9810 0.9810
13.720289 0.9810 0.9790 0.9790 0.9780 0.9760
13.754000 0.9740 0.9740 0.9730 0.9710 0.9710
13.787289 0.9690 0.9690 0.9680 0.9680 0.9660
13.820000 0.9640 0.9630 0.9630 0.9630 0.9630
13.853289 0.9630 0.9610 0.9610 0.9590 0.9590
13.887000 0.9580 0.9580 0.9580 0.9580 0.9580
13.920289 0.9580 0.9580 0.9580 0.9580 0.9590
13.953000 0.9590 0.9590 0.9590 0.9610 0.9610
13.986289 0.9610 0.9610 0.9610 0.9610 0.9610
14.020000 0.9610 0.9610 0.9610 0.9610 0.9610
14.053289 0.9590 0.9590 0.9580 0.9580 0.9560
14.087000 0.9560 0.9560 0.9560 0.9540 0.9540
14.120289 0.9530 0.9530 0.9510 0.9510 0.9510
14.153000 0.9490 0.9490 0.9490 0.9480 0.9480
14.186289 0.9480 0.9480 0.9460 0.9440 0.9440
14.220000 0.9440 0.9430 0.9430 0.9410 0.9410
14.253289 0.9390 0.9390 0.9380 0.9360 0.9360
14.286000 0.9360 0.9360 0.9340 0.9340 0.9340
14.319289 0.9320 0.9320 0.9310 0.9310 0.9310
14.353000 0.9310 0.9290 0.9270 0.9270 0.9270
14.386289 0.9260 0.9260 0.9260 0.9240 0.9240
14.419000 0.9240 0.9220 0.9220 0.9220 0.9220
14.452289 0.9210 0.9210 0.9190 0.9190 0.9170
14.486000 0.9170 0.9160 0.9140 0.9120 0.9120
14.519289 0.9120 0.9120 0.9120 0.9110 0.9110
14.552000 0.9090 0.9090 0.9070 0.9070 0.9060
14.585289 0.9040 0.9020 0.9020 0.9010 0.9010
14.619000 0.8990 0.8990 0.8960 0.8960 0.8940
14.652289 0.8920 0.8920 0.8920 0.8910 0.8890
14.685000 0.8870 0.8870 0.8860 0.8860 0.8840
14.718289 0.8820 0.8820 0.8810 0.8790 0.8770
14.752000 0.8760 0.8740 0.8720 0.8720 0.8710
14.785289 0.8710 0.8690 0.8670 0.8670 0.8650
14.819000 0.8650 0.8640 0.8640 0.8640 0.8640
14.852289 0.8620 0.8620 0.8620 0.8620 0.8600
14.885000 0.8600 0.8600 0.8590 0.8590 0.8590
14.918289 0.8570 0.8570 0.8550 0.8540 0.8540
14.952000 0.8520 0.8520 0.8520 0.8500 0.8500
14.985289 0.8500 0.8490 0.8490 0.8470 0.8470
15.018000 0.8440 0.8440 0.8440 0.8420 0.8420
15.051289 0.8400 0.8400 0.8400 0.8390 0.8390
15.085000 0.8390 0.8390 0.8390 0.8390 0.8390
15.118289 0.8370 0.8370 0.8370 0.8370 0.8350
15.151000 0.8350 0.8340 0.8340 0.8340 0.8320
15.184289 0.8300 0.8300 0.8290 0.8270 0.8250
15.218000 0.8240 0.8220 0.8200 0.8190 0.8190
15.251289 0.8170 0.8140 0.8120 0.8120 0.8100
15.284000 0.8090 0.8070 0.8050 0.8040 0.8020
15.317289 0.8000 0.8000 0.7980 0.7970 0.7950
15.351000 0.7930 0.7920 0.7900 0.7900 0.7870
15.384289 0.7850 0.7820 0.7780 0.7770 0.7730
15.417000 0.7700 0.7700 0.7680 0.7670 0.7630
15.450289 0.7620 0.7570 0.7550 0.7550 0.7530
15.484000 0.7500 0.7480 0.7450 0.7430 0.7400
15.517289 0.7370 0.7350 0.7330 0.7300 0.7280
15.551000 0.7260 0.7250 0.7210 0.7200 0.7150
15.584289 0.7130 0.7110 0.7100 0.7080 0.7050
15.617000 0.7050 0.7030 0.7030 0.7010 0.7000
15.650289 0.6980 0.6980 0.6960 0.6960 0.6950
15.684000 0.6950 0.6930 0.6930 0.6930 0.6910
15.717289 0.6910 0.6910 0.6900 0.6900 0.6900
15.750000 0.6900 0.6900 0.6900 0.6900 0.6900
15.783289 0.6900 0.6900 0.6900 0.6900 0.6900
15.817000 0.6900 0.6900 0.6910 0.6910 0.6910
15.850289 0.6910 0.6930 0.6930 0.6950 0.6950
15.883000 0.6960 0.6960 0.6980 0.6980 0.6980
15.916289 0.6980 0.7000 0.7000 0.7010 0.7030
15.950000 0.7030 0.7050 0.7060 0.7060 0.7060
15.983289 0.7080 0.7100 0.7100 0.7110 0.7080
16.016000 0.7100 0.7100
##END=
