##TITLE=Zirconium, oxobis(2,4-pentanedionato)-
##JCAMP-DX=4.24
$$ By DXEDIT 1.05 (RS McDonald)
##DATA TYPE=INFRARED SPECTRUM
##CLASS=COBLENTZ II
##ORIGIN=DOW CHEMICAL COMPANY
##OWNER=COPYRIGHT (C) 1988 by COBLENTZ SOCIETY INC.
Collection (C) 2018 copyright by the U.S. Secretary of Commerce
on behalf of the United States of America. All rights reserved.
##DATE=1968/10/23
##MOLFORM=C10 H14 O5 Zr
##SOURCE REFERENCE=COBLENTZ NO. 08982
##$NIST ID=B6008982
##$NIST SOURCE=COBLENTZ
##$NIST IMAGE=cob8982
##SPECTROMETER/DATA SYSTEM=DOW KBr FOREPRISM-GRATING
##INSTRUMENT PARAMETERS=BLAZED AT 3.5, 12.0, 20.0 MICRON AND CHANGED AT 5.0, 7.5, 14.9 MICRON
##STATE=SOLID (SPLIT MULL), FLUOROLUBE FOR 3800-1330 CM^-^1, NUJOL FOR 1330-400 CM^-^1
$$ STRUCTURE VERIFIED BY NMR AND MASS SPECTROMETRY
##SAMPLING PROCEDURE=TRANSMISSION
##RESOLUTION=2
##DATA PROCESSING=DIGITIZED BY COBLENTZ SOCIETY (BATCH I) FROM HARD COPY
##XUNITS=1/CM
##YUNITS=TRANSMITTANCE
##XFACTOR=1
##YFACTOR=1
##DELTAX=1
##FIRSTX=3800
##LASTX=390
##FIRSTY=0.7832
##MAXX=3800
##MINX=390
##MAXY=0.8941
##MINY=0.0864
##NPOINTS=3411
##XYDATA=(X++(Y..Y))
3800.000000 0.7832 0.7833 0.7835 0.7837 0.7840
3795.000000 0.7842 0.7844 0.7846 0.7849 0.7850
3790.000000 0.7851 0.7854 0.7856 0.7857 0.7858
3785.000000 0.7860 0.7861 0.7861 0.7862 0.7862
3780.000000 0.7862 0.7862 0.7864 0.7864 0.7864
3775.000000 0.7864 0.7865 0.7865 0.7865 0.7865
3770.000000 0.7865 0.7865 0.7867 0.7867 0.7868
3765.000000 0.7868 0.7868 0.7869 0.7871 0.7871
3760.000000 0.7871 0.7872 0.7874 0.7874 0.7875
3755.000000 0.7875 0.7875 0.7876 0.7878 0.7878
3750.000000 0.7878 0.7878 0.7878 0.7878 0.7878
3745.000000 0.7878 0.7880 0.7880 0.7880 0.7880
3740.000000 0.7881 0.7881 0.7881 0.7881 0.7882
3735.000000 0.7882 0.7882 0.7882 0.7883 0.7883
3730.000000 0.7883 0.7883 0.7884 0.7884 0.7884
3725.000000 0.7884 0.7884 0.7884 0.7885 0.7885
3720.000000 0.7885 0.7885 0.7886 0.7886 0.7886
3715.000000 0.7887 0.7888 0.7889 0.7890 0.7890
3710.000000 0.7891 0.7892 0.7893 0.7893 0.7894
3705.000000 0.7895 0.7896 0.7897 0.7898 0.7899
3700.000000 0.7900 0.7901 0.7903 0.7904 0.7906
3695.000000 0.7907 0.7908 0.7908 0.7911 0.7911
3690.000000 0.7914 0.7915 0.7915 0.7917 0.7918
3685.000000 0.7919 0.7921 0.7921 0.7921 0.7921
3680.000000 0.7921 0.7921 0.7922 0.7922 0.7922
3675.000000 0.7922 0.7922 0.7921 0.7918 0.7917
3670.000000 0.7915 0.7914 0.7911 0.7910 0.7908
3665.000000 0.7906 0.7905 0.7903 0.7901 0.7899
3660.000000 0.7897 0.7895 0.7894 0.7892 0.7890
3655.000000 0.7888 0.7886 0.7883 0.7881 0.7878
3650.000000 0.7875 0.7872 0.7871 0.7868 0.7865
3645.000000 0.7861 0.7860 0.7857 0.7855 0.7851
3640.000000 0.7850 0.7847 0.7845 0.7843 0.7842
3635.000000 0.7840 0.7838 0.7836 0.7834 0.7832
3630.000000 0.7830 0.7828 0.7826 0.7825 0.7822
3625.000000 0.7821 0.7818 0.7817 0.7815 0.7814
3620.000000 0.7811 0.7810 0.7808 0.7806 0.7804
3615.000000 0.7801 0.7801 0.7799 0.7797 0.7795
3610.000000 0.7793 0.7791 0.7789 0.7787 0.7785
3605.000000 0.7783 0.7782 0.7780 0.7778 0.7775
3600.000000 0.7774 0.7771 0.7769 0.7768 0.7767
3595.000000 0.7765 0.7762 0.7761 0.7758 0.7755
3590.000000 0.7751 0.7749 0.7746 0.7743 0.7740
3585.000000 0.7733 0.7726 0.7712 0.7699 0.7684
3580.000000 0.7668 0.7654 0.7640 0.7632 0.7625
3575.000000 0.7626 0.7628 0.7632 0.7636 0.7639
3570.000000 0.7642 0.7645 0.7649 0.7651 0.7653
3565.000000 0.7655 0.7657 0.7658 0.7661 0.7661
3560.000000 0.7664 0.7665 0.7667 0.7667 0.7667
3555.000000 0.7665 0.7665 0.7664 0.7662 0.7661
3550.000000 0.7661 0.7660 0.7658 0.7658 0.7657
3545.000000 0.7655 0.7653 0.7651 0.7650 0.7648
3540.000000 0.7647 0.7645 0.7643 0.7641 0.7640
3535.000000 0.7638 0.7637 0.7635 0.7633 0.7632
3530.000000 0.7631 0.7628 0.7628 0.7626 0.7625
3525.000000 0.7625 0.7624 0.7621 0.7621 0.7619
3520.000000 0.7618 0.7617 0.7615 0.7615 0.7614
3515.000000 0.7612 0.7611 0.7610 0.7608 0.7608
3510.000000 0.7607 0.7605 0.7604 0.7603 0.7601
3505.000000 0.7601 0.7600 0.7598 0.7597 0.7596
3500.000000 0.7595 0.7593 0.7592 0.7591 0.7590
3495.000000 0.7589 0.7588 0.7587 0.7586 0.7585
3490.000000 0.7585 0.7584 0.7584 0.7583 0.7583
3485.000000 0.7582 0.7582 0.7581 0.7581 0.7580
3480.000000 0.7580 0.7578 0.7578 0.7578 0.7578
3475.000000 0.7576 0.7576 0.7575 0.7575 0.7575
3470.000000 0.7575 0.7574 0.7574 0.7572 0.7572
3465.000000 0.7571 0.7571 0.7571 0.7571 0.7571
3460.000000 0.7571 0.7571 0.7571 0.7571 0.7571
3455.000000 0.7569 0.7569 0.7569 0.7569 0.7569
3450.000000 0.7569 0.7568 0.7568 0.7568 0.7568
3445.000000 0.7568 0.7568 0.7568 0.7568 0.7568
3440.000000 0.7568 0.7568 0.7568 0.7568 0.7568
3435.000000 0.7568 0.7568 0.7568 0.7568 0.7568
3430.000000 0.7568 0.7568 0.7568 0.7568 0.7568
3425.000000 0.7568 0.7568 0.7568 0.7568 0.7568
3420.000000 0.7568 0.7568 0.7568 0.7568 0.7568
3415.000000 0.7568 0.7568 0.7568 0.7568 0.7568
3410.000000 0.7568 0.7568 0.7568 0.7568 0.7568
3405.000000 0.7568 0.7568 0.7568 0.7569 0.7569
3400.000000 0.7569 0.7569 0.7569 0.7569 0.7569
3395.000000 0.7569 0.7569 0.7569 0.7569 0.7571
3390.000000 0.7572 0.7574 0.7575 0.7575 0.7578
3385.000000 0.7578 0.7581 0.7582 0.7583 0.7584
3380.000000 0.7586 0.7587 0.7588 0.7589 0.7591
3375.000000 0.7592 0.7594 0.7595 0.7596 0.7597
3370.000000 0.7599 0.7600 0.7601 0.7601 0.7604
3365.000000 0.7605 0.7606 0.7607 0.7608 0.7608
3360.000000 0.7608 0.7610 0.7611 0.7611 0.7612
3355.000000 0.7614 0.7615 0.7615 0.7617 0.7617
3350.000000 0.7618 0.7618 0.7619 0.7621 0.7621
3345.000000 0.7622 0.7624 0.7625 0.7625 0.7626
3340.000000 0.7628 0.7628 0.7628 0.7630 0.7632
3335.000000 0.7633 0.7634 0.7635 0.7636 0.7637
3330.000000 0.7639 0.7640 0.7641 0.7642 0.7643
3325.000000 0.7644 0.7646 0.7647 0.7648 0.7649
3320.000000 0.7650 0.7651 0.7653 0.7654 0.7655
3315.000000 0.7656 0.7658 0.7658 0.7660 0.7661
3310.000000 0.7661 0.7662 0.7665 0.7665 0.7668
3305.000000 0.7668 0.7671 0.7671 0.7674 0.7675
3300.000000 0.7678 0.7678 0.7681 0.7682 0.7684
3295.000000 0.7685 0.7687 0.7688 0.7690 0.7692
3290.000000 0.7694 0.7695 0.7697 0.7698 0.7700
3285.000000 0.7701 0.7703 0.7704 0.7706 0.7707
3280.000000 0.7708 0.7711 0.7712 0.7714 0.7715
3275.000000 0.7717 0.7718 0.7719 0.7721 0.7722
3270.000000 0.7725 0.7725 0.7728 0.7728 0.7731
3265.000000 0.7733 0.7735 0.7736 0.7738 0.7739
3260.000000 0.7741 0.7742 0.7743 0.7744 0.7745
3255.000000 0.7746 0.7747 0.7747 0.7748 0.7749
3250.000000 0.7750 0.7751 0.7751 0.7751 0.7753
3245.000000 0.7754 0.7755 0.7756 0.7757 0.7757
3240.000000 0.7758 0.7758 0.7760 0.7760 0.7761
3235.000000 0.7761 0.7762 0.7764 0.7765 0.7765
3230.000000 0.7765 0.7767 0.7768 0.7768 0.7769
3225.000000 0.7771 0.7772 0.7774 0.7775 0.7776
3220.000000 0.7778 0.7780 0.7782 0.7783 0.7785
3215.000000 0.7786 0.7787 0.7788 0.7790 0.7791
3210.000000 0.7793 0.7794 0.7796 0.7797 0.7799
3205.000000 0.7800 0.7801 0.7803 0.7805 0.7806
3200.000000 0.7808 0.7808 0.7810 0.7811 0.7812
3195.000000 0.7814 0.7815 0.7817 0.7818 0.7818
3190.000000 0.7819 0.7821 0.7821 0.7822 0.7824
3185.000000 0.7825 0.7825 0.7826 0.7828 0.7828
3180.000000 0.7830 0.7831 0.7832 0.7833 0.7834
3175.000000 0.7835 0.7836 0.7837 0.7838 0.7839
3170.000000 0.7840 0.7841 0.7842 0.7843 0.7844
3165.000000 0.7844 0.7845 0.7845 0.7846 0.7846
3160.000000 0.7847 0.7847 0.7848 0.7848 0.7849
3155.000000 0.7849 0.7850 0.7850 0.7851 0.7851
3150.000000 0.7851 0.7851 0.7853 0.7853 0.7854
3145.000000 0.7854 0.7855 0.7855 0.7856 0.7856
3140.000000 0.7857 0.7857 0.7858 0.7858 0.7860
3135.000000 0.7860 0.7861 0.7861 0.7861 0.7861
3130.000000 0.7862 0.7864 0.7865 0.7865 0.7865
3125.000000 0.7865 0.7867 0.7867 0.7868 0.7868
3120.000000 0.7868 0.7868 0.7869 0.7869 0.7871
3115.000000 0.7871 0.7871 0.7871 0.7872 0.7872
3110.000000 0.7874 0.7874 0.7875 0.7875 0.7875
3105.000000 0.7875 0.7876 0.7876 0.7878 0.7878
3100.000000 0.7878 0.7878 0.7878 0.7878 0.7878
3095.000000 0.7878 0.7878 0.7878 0.7878 0.7878
3090.000000 0.7878 0.7878 0.7878 0.7878 0.7878
3085.000000 0.7878 0.7878 0.7878 0.7878 0.7876
3080.000000 0.7876 0.7876 0.7876 0.7876 0.7876
3075.000000 0.7876 0.7876 0.7876 0.7876 0.7875
3070.000000 0.7875 0.7875 0.7875 0.7874 0.7874
3065.000000 0.7872 0.7871 0.7871 0.7871 0.7869
3060.000000 0.7868 0.7868 0.7868 0.7867 0.7867
3055.000000 0.7865 0.7865 0.7864 0.7864 0.7862
3050.000000 0.7862 0.7862 0.7862 0.7862 0.7862
3045.000000 0.7862 0.7864 0.7864 0.7864 0.7864
3040.000000 0.7865 0.7865 0.7865 0.7865 0.7865
3035.000000 0.7865 0.7865 0.7864 0.7864 0.7862
3030.000000 0.7862 0.7861 0.7861 0.7860 0.7858
3025.000000 0.7857 0.7856 0.7854 0.7851 0.7848
3020.000000 0.7845 0.7842 0.7839 0.7835 0.7832
3015.000000 0.7825 0.7818 0.7810 0.7801 0.7791
3010.000000 0.7781 0.7768 0.7756 0.7744 0.7733
3005.000000 0.7721 0.7708 0.7697 0.7686 0.7674
3000.000000 0.7661 0.7650 0.7638 0.7628 0.7621
2995.000000 0.7615 0.7610 0.7604 0.7599 0.7597
2990.000000 0.7595 0.7593 0.7592 0.7589 0.7586
2985.000000 0.7582 0.7578 0.7574 0.7571 0.7568
2980.000000 0.7567 0.7564 0.7561 0.7560 0.7558
2975.000000 0.7556 0.7554 0.7551 0.7551 0.7551
2970.000000 0.7551 0.7551 0.7551 0.7551 0.7551
2965.000000 0.7551 0.7551 0.7551 0.7554 0.7556
2960.000000 0.7558 0.7560 0.7561 0.7564 0.7567
2955.000000 0.7569 0.7572 0.7578 0.7584 0.7590
2950.000000 0.7596 0.7601 0.7608 0.7615 0.7621
2945.000000 0.7626 0.7634 0.7639 0.7644 0.7649
2940.000000 0.7655 0.7658 0.7661 0.7662 0.7665
2935.000000 0.7667 0.7668 0.7668 0.7668 0.7668
2930.000000 0.7667 0.7665 0.7665 0.7664 0.7662
2925.000000 0.7651 0.7640 0.7588 0.7536 0.7508
2920.000000 0.7483 0.7476 0.7475 0.7467 0.7464
2915.000000 0.7461 0.7461 0.7475 0.7489 0.7506
2910.000000 0.7522 0.7540 0.7557 0.7578 0.7599
2905.000000 0.7618 0.7639 0.7651 0.7662 0.7675
2900.000000 0.7688 0.7700 0.7711 0.7724 0.7736
2895.000000 0.7747 0.7758 0.7768 0.7781 0.7789
2890.000000 0.7798 0.7805 0.7811 0.7818 0.7825
2885.000000 0.7833 0.7840 0.7847 0.7854 0.7858
2880.000000 0.7865 0.7869 0.7875 0.7880 0.7885
2875.000000 0.7890 0.7895 0.7900 0.7905 0.7910
2870.000000 0.7915 0.7919 0.7925 0.7928 0.7933
2865.000000 0.7937 0.7942 0.7946 0.7950 0.7954
2860.000000 0.7958 0.7961 0.7964 0.7964 0.7965
2855.000000 0.7965 0.7965 0.7965 0.7965 0.7965
2850.000000 0.7965 0.7965 0.7965 0.7965 0.7965
2845.000000 0.7965 0.7965 0.7965 0.7965 0.7964
2840.000000 0.7964 0.7964 0.7964 0.7964 0.7964
2835.000000 0.7965 0.7965 0.7967 0.7968 0.7968
2830.000000 0.7971 0.7971 0.7972 0.7974 0.7975
2825.000000 0.7975 0.7976 0.7978 0.7980 0.7981
2820.000000 0.7982 0.7983 0.7984 0.7985 0.7986
2815.000000 0.7987 0.7989 0.7990 0.7992 0.7994
2810.000000 0.7996 0.7998 0.8001 0.8003 0.8005
2805.000000 0.8007 0.8010 0.8011 0.8014 0.8015
2800.000000 0.8018 0.8019 0.8022 0.8025 0.8026
2795.000000 0.8028 0.8032 0.8034 0.8036 0.8038
2790.000000 0.8041 0.8043 0.8045 0.8047 0.8050
2785.000000 0.8051 0.8054 0.8056 0.8058 0.8061
2780.000000 0.8062 0.8065 0.8067 0.8068 0.8071
2775.000000 0.8074 0.8075 0.8078 0.8081 0.8083
2770.000000 0.8085 0.8087 0.8090 0.8092 0.8094
2765.000000 0.8096 0.8099 0.8101 0.8104 0.8106
2760.000000 0.8108 0.8111 0.8114 0.8115 0.8118
2755.000000 0.8121 0.8125 0.8126 0.8130 0.8132
2750.000000 0.8135 0.8137 0.8140 0.8142 0.8145
2745.000000 0.8148 0.8151 0.8153 0.8156 0.8158
2740.000000 0.8161 0.8162 0.8165 0.8168 0.8169
2735.000000 0.8171 0.8172 0.8175 0.8176 0.8178
2730.000000 0.8181 0.8183 0.8185 0.8186 0.8188
2725.000000 0.8190 0.8192 0.8194 0.8196 0.8198
2720.000000 0.8200 0.8202 0.8204 0.8205 0.8207
2715.000000 0.8209 0.8211 0.8213 0.8215 0.8217
2710.000000 0.8218 0.8220 0.8221 0.8223 0.8225
2705.000000 0.8225 0.8228 0.8228 0.8230 0.8231
2700.000000 0.8233 0.8234 0.8236 0.8237 0.8239
2695.000000 0.8240 0.8241 0.8242 0.8244 0.8245
2690.000000 0.8247 0.8248 0.8250 0.8251 0.8253
2685.000000 0.8254 0.8256 0.8257 0.8259 0.8260
2680.000000 0.8262 0.8263 0.8265 0.8266 0.8268
2675.000000 0.8268 0.8271 0.8271 0.8274 0.8275
2670.000000 0.8277 0.8277 0.8277 0.8275 0.8275
2665.000000 0.8275 0.8275 0.8275 0.8275 0.8275
2660.000000 0.8275 0.8274 0.8274 0.8274 0.8274
2655.000000 0.8273 0.8273 0.8271 0.8271 0.8271
2650.000000 0.8271 0.8270 0.8270 0.8268 0.8268
2645.000000 0.8268 0.8268 0.8267 0.8267 0.8267
2640.000000 0.8267 0.8267 0.8267 0.8267 0.8267
2635.000000 0.8267 0.8267 0.8267 0.8267 0.8267
2630.000000 0.8267 0.8267 0.8267 0.8267 0.8267
2625.000000 0.8267 0.8267 0.8267 0.8267 0.8267
2620.000000 0.8267 0.8267 0.8267 0.8267 0.8268
2615.000000 0.8268 0.8270 0.8271 0.8273 0.8274
2610.000000 0.8275 0.8275 0.8278 0.8278 0.8280
2605.000000 0.8281 0.8282 0.8283 0.8285 0.8286
2600.000000 0.8287 0.8288 0.8290 0.8291 0.8293
2595.000000 0.8294 0.8295 0.8296 0.8298 0.8299
2590.000000 0.8301 0.8302 0.8303 0.8304 0.8306
2585.000000 0.8307 0.8309 0.8310 0.8311 0.8312
2580.000000 0.8314 0.8315 0.8316 0.8317 0.8318
2575.000000 0.8318 0.8318 0.8320 0.8321 0.8321
2570.000000 0.8321 0.8323 0.8324 0.8324 0.8325
2565.000000 0.8325 0.8327 0.8327 0.8328 0.8328
2560.000000 0.8328 0.8328 0.8328 0.8328 0.8328
2555.000000 0.8328 0.8328 0.8328 0.8328 0.8328
2550.000000 0.8328 0.8328 0.8328 0.8328 0.8328
2545.000000 0.8328 0.8328 0.8328 0.8328 0.8328
2540.000000 0.8328 0.8328 0.8328 0.8328 0.8328
2535.000000 0.8328 0.8328 0.8328 0.8328 0.8328
2530.000000 0.8328 0.8328 0.8330 0.8330 0.8330
2525.000000 0.8330 0.8331 0.8331 0.8331 0.8331
2520.000000 0.8332 0.8332 0.8332 0.8332 0.8332
2515.000000 0.8332 0.8333 0.8333 0.8334 0.8334
2510.000000 0.8335 0.8335 0.8336 0.8336 0.8337
2505.000000 0.8337 0.8338 0.8338 0.8339 0.8339
2500.000000 0.8340 0.8340 0.8340 0.8339 0.8339
2495.000000 0.8338 0.8337 0.8336 0.8336 0.8334
2490.000000 0.8333 0.8332 0.8331 0.8328 0.8325
2485.000000 0.8321 0.8318 0.8315 0.8311 0.8308
2480.000000 0.8305 0.8302 0.8299 0.8296 0.8293
2475.000000 0.8289 0.8286 0.8283 0.8280 0.8277
2470.000000 0.8274 0.8270 0.8267 0.8263 0.8260
2465.000000 0.8257 0.8254 0.8250 0.8247 0.8243
2460.000000 0.8240 0.8236 0.8233 0.8228 0.8225
2455.000000 0.8221 0.8218 0.8216 0.8214 0.8213
2450.000000 0.8212 0.8211 0.8210 0.8209 0.8209
2445.000000 0.8209 0.8209 0.8209 0.8209 0.8209
2440.000000 0.8209 0.8209 0.8210 0.8211 0.8212
2435.000000 0.8213 0.8214 0.8215 0.8216 0.8217
2430.000000 0.8218 0.8218 0.8220 0.8220 0.8220
2425.000000 0.8220 0.8220 0.8218 0.8218 0.8218
2420.000000 0.8218 0.8218 0.8218 0.8218 0.8218
2415.000000 0.8218 0.8218 0.8218 0.8218 0.8218
2410.000000 0.8218 0.8218 0.8220 0.8221 0.8221
2405.000000 0.8221 0.8223 0.8223 0.8224 0.8224
2400.000000 0.8225 0.8225 0.8225 0.8225 0.8225
2395.000000 0.8225 0.8227 0.8227 0.8228 0.8228
2390.000000 0.8228 0.8228 0.8228 0.8228 0.8230
2385.000000 0.8231 0.8232 0.8233 0.8234 0.8235
2380.000000 0.8237 0.8238 0.8239 0.8240 0.8241
2375.000000 0.8244 0.8248 0.8251 0.8255 0.8258
2370.000000 0.8261 0.8263 0.8266 0.8268 0.8271
2365.000000 0.8275 0.8278 0.8284 0.8290 0.8295
2360.000000 0.8300 0.8305 0.8310 0.8315 0.8321
2355.000000 0.8323 0.8325 0.8321 0.8316 0.8309
2350.000000 0.8302 0.8287 0.8273 0.8267 0.8261
2345.000000 0.8255 0.8249 0.8251 0.8254 0.8257
2340.000000 0.8260 0.8262 0.8265 0.8268 0.8271
2335.000000 0.8274 0.8277 0.8278 0.8282 0.8283
2330.000000 0.8285 0.8286 0.8288 0.8289 0.8291
2325.000000 0.8292 0.8292 0.8292 0.8292 0.8291
2320.000000 0.8290 0.8288 0.8287 0.8285 0.8283
2315.000000 0.8278 0.8275 0.8270 0.8266 0.8262
2310.000000 0.8258 0.8253 0.8248 0.8243 0.8238
2305.000000 0.8233 0.8228 0.8223 0.8218 0.8215
2300.000000 0.8213 0.8210 0.8207 0.8204 0.8201
2295.000000 0.8198 0.8196 0.8194 0.8192 0.8191
2290.000000 0.8190 0.8188 0.8187 0.8185 0.8184
2285.000000 0.8184 0.8185 0.8186 0.8187 0.8188
2280.000000 0.8190 0.8191 0.8192 0.8193 0.8194
2275.000000 0.8195 0.8196 0.8197 0.8198 0.8200
2270.000000 0.8202 0.8205 0.8208 0.8210 0.8213
2265.000000 0.8216 0.8218 0.8221 0.8224 0.8227
2260.000000 0.8230 0.8232 0.8235 0.8238 0.8241
2255.000000 0.8243 0.8246 0.8249 0.8252 0.8254
2250.000000 0.8257 0.8261 0.8265 0.8268 0.8274
2245.000000 0.8278 0.8283 0.8287 0.8291 0.8295
2240.000000 0.8300 0.8304 0.8309 0.8313 0.8317
2235.000000 0.8320 0.8324 0.8328 0.8332 0.8336
2230.000000 0.8340 0.8344 0.8349 0.8353 0.8358
2225.000000 0.8362 0.8366 0.8370 0.8375 0.8378
2220.000000 0.8382 0.8385 0.8388 0.8391 0.8394
2215.000000 0.8397 0.8400 0.8403 0.8406 0.8409
2210.000000 0.8412 0.8414 0.8416 0.8418 0.8421
2205.000000 0.8423 0.8425 0.8428 0.8430 0.8432
2200.000000 0.8434 0.8435 0.8437 0.8439 0.8441
2195.000000 0.8442 0.8444 0.8445 0.8446 0.8447
2190.000000 0.8448 0.8449 0.8450 0.8450 0.8451
2185.000000 0.8451 0.8452 0.8452 0.8452 0.8452
2180.000000 0.8452 0.8452 0.8452 0.8452 0.8452
2175.000000 0.8452 0.8452 0.8452 0.8452 0.8453
2170.000000 0.8454 0.8456 0.8458 0.8460 0.8462
2165.000000 0.8464 0.8466 0.8468 0.8471 0.8473
2160.000000 0.8475 0.8477 0.8480 0.8482 0.8484
2155.000000 0.8486 0.8489 0.8491 0.8494 0.8496
2150.000000 0.8498 0.8500 0.8503 0.8505 0.8508
2145.000000 0.8510 0.8512 0.8514 0.8517 0.8518
2140.000000 0.8521 0.8521 0.8524 0.8525 0.8528
2135.000000 0.8530 0.8532 0.8534 0.8536 0.8537
2130.000000 0.8539 0.8541 0.8543 0.8545 0.8547
2125.000000 0.8548 0.8549 0.8550 0.8551 0.8551
2120.000000 0.8552 0.8552 0.8553 0.8554 0.8556
2115.000000 0.8557 0.8558 0.8559 0.8560 0.8561
2110.000000 0.8563 0.8564 0.8565 0.8566 0.8568
2105.000000 0.8568 0.8570 0.8571 0.8571 0.8573
2100.000000 0.8575 0.8575 0.8577 0.8578 0.8578
2095.000000 0.8580 0.8581 0.8582 0.8584 0.8585
2090.000000 0.8586 0.8588 0.8590 0.8592 0.8595
2085.000000 0.8597 0.8600 0.8602 0.8605 0.8608
2080.000000 0.8611 0.8613 0.8616 0.8617 0.8618
2075.000000 0.8621 0.8623 0.8624 0.8625 0.8628
2070.000000 0.8630 0.8631 0.8633 0.8634 0.8636
2065.000000 0.8638 0.8640 0.8641 0.8642 0.8643
2060.000000 0.8645 0.8646 0.8648 0.8649 0.8650
2055.000000 0.8651 0.8653 0.8654 0.8656 0.8657
2050.000000 0.8658 0.8659 0.8661 0.8662 0.8663
2045.000000 0.8664 0.8665 0.8665 0.8666 0.8666
2040.000000 0.8667 0.8667 0.8667 0.8667 0.8668
2035.000000 0.8668 0.8668 0.8668 0.8670 0.8671
2030.000000 0.8671 0.8673 0.8675 0.8675 0.8677
2025.000000 0.8678 0.8680 0.8681 0.8682 0.8683
2020.000000 0.8684 0.8684 0.8684 0.8685 0.8686
2015.000000 0.8687 0.8688 0.8688 0.8688 0.8689
2010.000000 0.8691 0.8696 0.8702 0.8707 0.8713
2005.000000 0.8718 0.8724 0.8728 0.8735 0.8746
2000.000000 0.8757 0.8768 0.8778 0.8789 0.8800
1995.000000 0.8801 0.8782 0.8749 0.8702 0.8674
1990.000000 0.8671 0.8682 0.8702 0.8716 0.8728
1985.000000 0.8739 0.8747 0.8751 0.8755 0.8760
1980.000000 0.8764 0.8768 0.8773 0.8778 0.8783
1975.000000 0.8787 0.8790 0.8792 0.8795 0.8798
1970.000000 0.8801 0.8803 0.8805 0.8807 0.8808
1965.000000 0.8810 0.8810 0.8811 0.8809 0.8808
1960.000000 0.8805 0.8802 0.8797 0.8790 0.8782
1955.000000 0.8773 0.8761 0.8749 0.8743 0.8746
1950.000000 0.8751 0.8755 0.8757 0.8759 0.8762
1945.000000 0.8764 0.8767 0.8768 0.8771 0.8774
1940.000000 0.8775 0.8778 0.8780 0.8782 0.8783
1935.000000 0.8785 0.8787 0.8788 0.8790 0.8792
1930.000000 0.8793 0.8795 0.8797 0.8798 0.8801
1925.000000 0.8805 0.8809 0.8812 0.8816 0.8820
1920.000000 0.8823 0.8827 0.8831 0.8835 0.8838
1915.000000 0.8842 0.8845 0.8848 0.8851 0.8854
1910.000000 0.8858 0.8861 0.8864 0.8867 0.8870
1905.000000 0.8874 0.8875 0.8875 0.8877 0.8878
1900.000000 0.8880 0.8881 0.8882 0.8883 0.8885
1895.000000 0.8885 0.8884 0.8883 0.8882 0.8881
1890.000000 0.8880 0.8880 0.8878 0.8878 0.8877
1885.000000 0.8875 0.8875 0.8874 0.8873 0.8871
1880.000000 0.8871 0.8870 0.8868 0.8868 0.8867
1875.000000 0.8866 0.8865 0.8864 0.8863 0.8862
1870.000000 0.8861 0.8861 0.8862 0.8862 0.8862
1865.000000 0.8863 0.8863 0.8863 0.8864 0.8864
1860.000000 0.8865 0.8865 0.8865 0.8866 0.8866
1855.000000 0.8866 0.8866 0.8867 0.8867 0.8867
1850.000000 0.8868 0.8868 0.8868 0.8868 0.8868
1845.000000 0.8868 0.8868 0.8870 0.8871 0.8873
1840.000000 0.8875 0.8877 0.8878 0.8881 0.8881
1835.000000 0.8881 0.8881 0.8881 0.8881 0.8881
1830.000000 0.8881 0.8881 0.8881 0.8882 0.8882
1825.000000 0.8882 0.8882 0.8882 0.8882 0.8882
1820.000000 0.8882 0.8882 0.8882 0.8882 0.8882
1815.000000 0.8882 0.8882 0.8882 0.8882 0.8882
1810.000000 0.8882 0.8882 0.8883 0.8883 0.8883
1805.000000 0.8883 0.8883 0.8883 0.8883 0.8883
1800.000000 0.8883 0.8883 0.8883 0.8883 0.8883
1795.000000 0.8883 0.8883 0.8883 0.8883 0.8884
1790.000000 0.8885 0.8886 0.8887 0.8888 0.8889
1785.000000 0.8890 0.8891 0.8892 0.8893 0.8894
1780.000000 0.8895 0.8896 0.8897 0.8898 0.8899
1775.000000 0.8900 0.8901 0.8902 0.8903 0.8904
1770.000000 0.8905 0.8906 0.8907 0.8909 0.8910
1765.000000 0.8911 0.8912 0.8913 0.8915 0.8916
1760.000000 0.8917 0.8918 0.8918 0.8920 0.8921
1755.000000 0.8921 0.8921 0.8923 0.8924 0.8925
1750.000000 0.8925 0.8925 0.8927 0.8928 0.8928
1745.000000 0.8928 0.8930 0.8931 0.8932 0.8933
1740.000000 0.8933 0.8934 0.8935 0.8936 0.8937
1735.000000 0.8938 0.8938 0.8939 0.8940 0.8940
1730.000000 0.8941 0.8941 0.8940 0.8939 0.8938
1725.000000 0.8937 0.8936 0.8935 0.8932 0.8928
1720.000000 0.8925 0.8921 0.8918 0.8916 0.8912
1715.000000 0.8909 0.8906 0.8902 0.8897 0.8892
1710.000000 0.8887 0.8882 0.8875 0.8871 0.8866
1705.000000 0.8862 0.8857 0.8852 0.8847 0.8841
1700.000000 0.8834 0.8828 0.8821 0.8815 0.8808
1695.000000 0.8801 0.8794 0.8787 0.8780 0.8773
1690.000000 0.8763 0.8752 0.8740 0.8728 0.8716
1685.000000 0.8704 0.8692 0.8680 0.8668 0.8656
1680.000000 0.8645 0.8635 0.8624 0.8613 0.8602
1675.000000 0.8591 0.8581 0.8570 0.8559 0.8548
1670.000000 0.8538 0.8527 0.8516 0.8505 0.8495
1665.000000 0.8483 0.8471 0.8459 0.8446 0.8434
1660.000000 0.8421 0.8409 0.8396 0.8380 0.8358
1655.000000 0.8337 0.8315 0.8293 0.8266 0.8231
1650.000000 0.8196 0.8161 0.8125 0.8088 0.8048
1645.000000 0.8007 0.7967 0.7925 0.7886 0.7845
1640.000000 0.7805 0.7764 0.7724 0.7678 0.7631
1635.000000 0.7585 0.7539 0.7492 0.7410 0.7318
1630.000000 0.7228 0.7140 0.7051 0.6968 0.6893
1625.000000 0.6818 0.6728 0.6634 0.6522 0.6399
1620.000000 0.6269 0.6026 0.5893 0.5760 0.5565
1615.000000 0.5392 0.5250 0.5096 0.4917 0.4219
1610.000000 0.4091 0.3909 0.3657 0.3406 0.3154
1605.000000 0.2903 0.2651 0.2400 0.2149 0.1896
1600.000000 0.1645 0.1394 0.1157 0.1096 0.1036
1595.000000 0.0967 0.0933 0.0903 0.0868 0.0866
1590.000000 0.0864 0.0883 0.0950 0.1095 0.1292
1585.000000 0.1371 0.1457 0.1545 0.1700 0.1841
1580.000000 0.1981 0.2122 0.2262 0.2403 0.2543
1575.000000 0.2683 0.2824 0.2964 0.3105 0.3245
1570.000000 0.3386 0.3526 0.3666 0.3807 0.3948
1565.000000 0.4014 0.4078 0.4134 0.4188 0.4238
1560.000000 0.4274 0.4316 0.4358 0.4382 0.4401
1555.000000 0.4409 0.4423 0.4426 0.4421 0.4405
1550.000000 0.4378 0.4341 0.4292 0.4241 0.4173
1545.000000 0.4012 0.3809 0.3684 0.3559 0.3403
1540.000000 0.3123 0.2831 0.2539 0.2248 0.1956
1535.000000 0.1665 0.1409 0.1303 0.1214 0.1182
1530.000000 0.1151 0.1159 0.1155 0.1163 0.1194
1525.000000 0.1248 0.1302 0.1379 0.1486 0.1603
1520.000000 0.1741 0.1948 0.2250 0.2439 0.2629
1515.000000 0.2818 0.3008 0.3198 0.3387 0.3577
1510.000000 0.3766 0.3956 0.4146 0.4335 0.4525
1505.000000 0.4715 0.4858 0.4948 0.5038 0.5130
1500.000000 0.5221 0.5307 0.5392 0.5475 0.5557
1495.000000 0.5635 0.5710 0.5782 0.5848 0.5905
1490.000000 0.5955 0.6002 0.6035 0.6062 0.6086
1485.000000 0.6096 0.6107 0.6110 0.6110 0.6110
1480.000000 0.6102 0.6094 0.6067 0.6027 0.5969
1475.000000 0.5888 0.5792 0.5684 0.5599 0.5518
1470.000000 0.5436 0.5368 0.5301 0.5238 0.5186
1465.000000 0.5134 0.5099 0.5068 0.5037 0.5012
1460.000000 0.4994 0.4986 0.4978 0.4970 0.4962
1455.000000 0.4954 0.4946 0.4938 0.4931 0.4923
1450.000000 0.4915 0.4907 0.4897 0.4888 0.4878
1445.000000 0.4869 0.4852 0.4835 0.4808 0.4779
1440.000000 0.4750 0.4722 0.4693 0.4665 0.4617
1435.000000 0.4566 0.4516 0.4462 0.4407 0.4352
1430.000000 0.4297 0.4242 0.4188 0.4141 0.4098
1425.000000 0.4054 0.4021 0.3991 0.3960 0.3930
1420.000000 0.3903 0.3877 0.3850 0.3825 0.3803
1415.000000 0.3780 0.3759 0.3738 0.3716 0.3698
1410.000000 0.3668 0.3684 0.3687 0.3700 0.3737
1405.000000 0.3778 0.3848 0.3916 0.3966 0.4003
1400.000000 0.4045 0.4096 0.4133 0.4166 0.4189
1395.000000 0.4212 0.4233 0.4250 0.4267 0.4283
1390.000000 0.4298 0.4312 0.4318 0.4321 0.4312
1385.000000 0.4289 0.4262 0.4248 0.4242 0.4259
1380.000000 0.4286 0.4321 0.4365 0.4419 0.4441
1375.000000 0.4462 0.4480 0.4489 0.4498 0.4507
1370.000000 0.4517 0.4527 0.4535 0.4543 0.4550
1365.000000 0.4566 0.4589 0.4615 0.4739 0.4786
1360.000000 0.4826 0.4854 0.4856 0.4859 0.4825
1355.000000 0.4674 0.4524 0.4373 0.4238 0.4236
1350.000000 0.4231 0.4257 0.4374 0.4501 0.5056
1345.000000 0.5342 0.5460 0.5567 0.5660 0.5760
1340.000000 0.5870 0.5928 0.5985 0.6042 0.6083
1335.000000 0.6112 0.6139 0.6162 0.6186 0.6210
1330.000000 0.6235 0.6260 0.6284 0.6306 0.6327
1325.000000 0.6348 0.6365 0.6381 0.6397 0.6408
1320.000000 0.6415 0.6414 0.6421 0.6411 0.6410
1315.000000 0.6408 0.6405 0.6401 0.6397 0.6393
1310.000000 0.6389 0.6385 0.6380 0.6375 0.6369
1305.000000 0.6364 0.6359 0.6355 0.6351 0.6347
1300.000000 0.6344 0.6337 0.6329 0.6318 0.6306
1295.000000 0.6281 0.6237 0.6197 0.6101 0.5905
1290.000000 0.5712 0.5524 0.5336 0.5148 0.4960
1285.000000 0.4773 0.4645 0.4580 0.4557 0.4538
1280.000000 0.4501 0.4308 0.4114 0.4075 0.4091
1275.000000 0.4183 0.4338 0.4494 0.4650 0.4805
1270.000000 0.4960 0.5117 0.5272 0.5428 0.5584
1265.000000 0.5739 0.5824 0.5879 0.5923 0.5957
1260.000000 0.5979 0.5991 0.6001 0.6003 0.6027
1255.000000 0.6001 0.5997 0.5991 0.5976 0.5960
1250.000000 0.5939 0.5918 0.5898 0.5877 0.5860
1245.000000 0.5845 0.5830 0.5814 0.5799 0.5789
1240.000000 0.5778 0.5768 0.5758 0.5747 0.5737
1235.000000 0.5726 0.5714 0.5701 0.5659 0.5618
1230.000000 0.5577 0.5536 0.5504 0.5476 0.5449
1225.000000 0.5419 0.5391 0.5372 0.5360 0.5352
1220.000000 0.5336 0.5342 0.5342 0.5348 0.5362
1215.000000 0.5386 0.5428 0.5473 0.5518 0.5578
1210.000000 0.5633 0.5659 0.5680 0.5691 0.5695
1205.000000 0.5699 0.5703 0.5707 0.5712 0.5718
1200.000000 0.5724 0.5730 0.5736 0.5742 0.5748
1195.000000 0.5755 0.5765 0.5773 0.5780 0.5784
1190.000000 0.5762 0.5651 0.5404 0.5157 0.5165
1185.000000 0.5184 0.5278 0.5373 0.5464 0.5521
1180.000000 0.5560 0.5609 0.5660 0.5697 0.5732
1175.000000 0.5778 0.5809 0.5822 0.5823 0.5824
1170.000000 0.5825 0.5828 0.5831 0.5834 0.5838
1165.000000 0.5842 0.5849 0.5856 0.5862 0.5870
1160.000000 0.5881 0.5895 0.5909 0.5923 0.5940
1155.000000 0.5959 0.5979 0.6014 0.6050 0.6090
1150.000000 0.6130 0.6171 0.6210 0.6266 0.6324
1145.000000 0.6382 0.6439 0.6494 0.6548 0.6601
1140.000000 0.6651 0.6696 0.6741 0.6788 0.6847
1135.000000 0.6907 0.6956 0.7003 0.7051 0.7095
1130.000000 0.7139 0.7183 0.7226 0.7269 0.7311
1125.000000 0.7355 0.7393 0.7421 0.7451 0.7481
1120.000000 0.7498 0.7515 0.7532 0.7548 0.7561
1115.000000 0.7572 0.7584 0.7596 0.7608 0.7618
1110.000000 0.7631 0.7643 0.7655 0.7667 0.7678
1105.000000 0.7691 0.7703 0.7714 0.7724 0.7734
1100.000000 0.7744 0.7755 0.7765 0.7774 0.7782
1095.000000 0.7791 0.7799 0.7806 0.7812 0.7818
1090.000000 0.7825 0.7835 0.7833 0.7833 0.7828
1085.000000 0.7806 0.7756 0.7668 0.7575 0.7524
1080.000000 0.7476 0.7436 0.7396 0.7354 0.7306
1075.000000 0.7261 0.7221 0.7182 0.7145 0.7128
1070.000000 0.7128 0.7128 0.7132 0.7136 0.7141
1065.000000 0.7140 0.7134 0.7126 0.7117 0.7076
1060.000000 0.7007 0.6935 0.6883 0.6834 0.6803
1055.000000 0.6774 0.6767 0.6765 0.6769 0.6774
1050.000000 0.6781 0.6788 0.6795 0.6801 0.6806
1045.000000 0.6811 0.6815 0.6817 0.6817 0.6818
1040.000000 0.6817 0.6811 0.6804 0.6793 0.6765
1035.000000 0.6693 0.6551 0.6299 0.6047 0.5795
1030.000000 0.5543 0.5292 0.5040 0.4788 0.4536
1025.000000 0.4284 0.4162 0.4162 0.4165 0.4210
1020.000000 0.4308 0.4419 0.4520 0.4592 0.4665
1015.000000 0.4744 0.4829 0.4948 0.5089 0.5219
1010.000000 0.5355 0.5535 0.5714 0.5892 0.6071
1005.000000 0.6249 0.6428 0.6606 0.6785 0.6962
1000.000000 0.7142 0.7319 0.7438 0.7505 0.7568
995.000000 0.7614 0.7658 0.7705 0.7751 0.7800
990.000000 0.7849 0.7897 0.7951 0.8005 0.8058
985.000000 0.8110 0.8148 0.8186 0.8224 0.8250
980.000000 0.8273 0.8296 0.8318 0.8336 0.8354
975.000000 0.8371 0.8385 0.8399 0.8413 0.8424
970.000000 0.8432 0.8440 0.8448 0.8456 0.8464
965.000000 0.8470 0.8475 0.8482 0.8487 0.8493
960.000000 0.8498 0.8512 0.8512 0.8512 0.8512
955.000000 0.8512 0.8500 0.8464 0.8416 0.8368
950.000000 0.8330 0.8303 0.8285 0.8278 0.8277
945.000000 0.8277 0.8291 0.8306 0.8321 0.8332
940.000000 0.8338 0.8338 0.8332 0.8318 0.8287
935.000000 0.7894 0.7501 0.7107 0.6714 0.6426
930.000000 0.6431 0.6678 0.6936 0.7193 0.7450
925.000000 0.7576 0.7661 0.7754 0.7844 0.7918
920.000000 0.7994 0.8061 0.8128 0.8175 0.8224
915.000000 0.8286 0.8333 0.8363 0.8385 0.8407
910.000000 0.8421 0.8434 0.8437 0.8444 0.8441
905.000000 0.8436 0.8418 0.8403 0.8361 0.8290
900.000000 0.8200 0.8105 0.8011 0.7915 0.7821
895.000000 0.7726 0.7632 0.7537 0.7442 0.7348
890.000000 0.7253 0.7158 0.7064 0.6968 0.6948
885.000000 0.6937 0.6928 0.6919 0.6904 0.6889
880.000000 0.6875 0.6858 0.6840 0.6814 0.6784
875.000000 0.6745 0.6733 0.6736 0.6731 0.6741
870.000000 0.6815 0.6946 0.7108 0.7211 0.7298
865.000000 0.7357 0.7403 0.7444 0.7471 0.7498
860.000000 0.7518 0.7539 0.7558 0.7578 0.7592
855.000000 0.7605 0.7628 0.7651 0.7674 0.7697
850.000000 0.7718 0.7741 0.7769 0.7801 0.7831
845.000000 0.7869 0.7915 0.7961 0.8008 0.8054
840.000000 0.8097 0.8138 0.8167 0.8194 0.8218
835.000000 0.8239 0.8258 0.8277 0.8293 0.8310
830.000000 0.8327 0.8342 0.8355 0.8368 0.8381
825.000000 0.8392 0.8399 0.8405 0.8412 0.8418
820.000000 0.8423 0.8427 0.8431 0.8432 0.8434
815.000000 0.8435 0.8446 0.8438 0.8437 0.8436
810.000000 0.8434 0.8433 0.8430 0.8425 0.8420
805.000000 0.8415 0.8410 0.8402 0.8394 0.8386
800.000000 0.8380 0.8375 0.8368 0.8364 0.8359
795.000000 0.8354 0.8347 0.8341 0.8334 0.8328
790.000000 0.8320 0.8313 0.8306 0.8298 0.8288
785.000000 0.8275 0.8259 0.8228 0.8187 0.8125
780.000000 0.8028 0.7328 0.5856 0.5414 0.5425
775.000000 0.5995 0.6518 0.7041 0.7565 0.7662
770.000000 0.7757 0.7871 0.7937 0.7980 0.7978
765.000000 0.7983 0.7957 0.7575 0.7196 0.6815
760.000000 0.6524 0.6539 0.6740 0.7085 0.7431
755.000000 0.7775 0.7895 0.8008 0.8085 0.8149
750.000000 0.8209 0.8253 0.8280 0.8299 0.8315
745.000000 0.8328 0.8336 0.8343 0.8347 0.8320
740.000000 0.8353 0.8348 0.8344 0.8339 0.8334
735.000000 0.8325 0.8316 0.8306 0.8297 0.8277
730.000000 0.8255 0.8233 0.8210 0.8187 0.8162
725.000000 0.8139 0.8117 0.8101 0.8092 0.8082
720.000000 0.8083 0.8092 0.8101 0.8117 0.8134
715.000000 0.8150 0.8164 0.8178 0.8188 0.8193
710.000000 0.8198 0.8201 0.8202 0.8203 0.8203
705.000000 0.8204 0.8199 0.8194 0.8178 0.8158
700.000000 0.8134 0.8121 0.8108 0.8097 0.8091
695.000000 0.8085 0.8078 0.8072 0.8068 0.8061
690.000000 0.8057 0.8051 0.8044 0.8036 0.8028
685.000000 0.8021 0.8015 0.8008 0.7998 0.7988
680.000000 0.7978 0.7968 0.7958 0.7936 0.7910
675.000000 0.7884 0.7856 0.7817 0.7778 0.7738
670.000000 0.7695 0.7653 0.7611 0.7558 0.7498
665.000000 0.7386 0.7244 0.7071 0.7074 0.7084
660.000000 0.7097 0.7014 0.6857 0.6772 0.6704
655.000000 0.6588 0.6485 0.6349 0.6224 0.6242
650.000000 0.6235 0.6260 0.6386 0.7028 0.7153
645.000000 0.7261 0.7331 0.7396 0.7443 0.7481
640.000000 0.7511 0.7534 0.7545 0.7551 0.7558
635.000000 0.7565 0.7569 0.7574 0.7581 0.7590
630.000000 0.7600 0.7615 0.7630 0.7645 0.7658
625.000000 0.7672 0.7687 0.7698 0.7705 0.7696
620.000000 0.7711 0.7708 0.7698 0.7676 0.7649
615.000000 0.7605 0.7533 0.7458 0.7382 0.7307
610.000000 0.7231 0.7156 0.7080 0.7005 0.6928
605.000000 0.6885 0.6853 0.6853 0.6853 0.6868
600.000000 0.6919 0.7039 0.7157 0.7275 0.7394
595.000000 0.7471 0.7472 0.7472 0.7465 0.7443
590.000000 0.7305 0.7143 0.6980 0.6818 0.6655
585.000000 0.6492 0.6330 0.6168 0.6131 0.6117
580.000000 0.6112 0.6175 0.6285 0.6428 0.6568
575.000000 0.6653 0.6722 0.6775 0.6814 0.6837
570.000000 0.6855 0.6874 0.6895 0.6931 0.6993
565.000000 0.7053 0.7115 0.7191 0.7248 0.7325
560.000000 0.7508 0.7585 0.7648 0.7711 0.7772
555.000000 0.7828 0.7862 0.7900 0.7930 0.7957
550.000000 0.7976 0.7990 0.7998 0.7997 0.7996
545.000000 0.7981 0.7942 0.7845 0.7741 0.7638
540.000000 0.7534 0.7430 0.7346 0.7325 0.7343
535.000000 0.7387 0.7451 0.7521 0.7568 0.7600
530.000000 0.7625 0.7638 0.7648 0.7658 0.7671
525.000000 0.7691 0.7741 0.7806 0.7868 0.7933
520.000000 0.7991 0.8022 0.8049 0.8061 0.8075
515.000000 0.8087 0.8095 0.8100 0.8103 0.8106
510.000000 0.8108 0.8111 0.8128 0.8115 0.8117
505.000000 0.8118 0.8121 0.8121 0.8121 0.8119
500.000000 0.8119 0.8118 0.8115 0.8111 0.8106
495.000000 0.8101 0.8097 0.8092 0.8084 0.8075
490.000000 0.8068 0.8061 0.8049 0.8037 0.8025
485.000000 0.8012 0.8001 0.7989 0.7972 0.7957
480.000000 0.7941 0.7925 0.7908 0.7893 0.7876
475.000000 0.7861 0.7848 0.7833 0.7818 0.7803
470.000000 0.7788 0.7772 0.7758 0.7744 0.7728
465.000000 0.7715 0.7699 0.7683 0.7667 0.7651
460.000000 0.7635 0.7618 0.7601 0.7584 0.7567
455.000000 0.7548 0.7521 0.7495 0.7468 0.7415
450.000000 0.7374 0.7336 0.7292 0.7242 0.7204
445.000000 0.7171 0.7138 0.7107 0.7041 0.7001
440.000000 0.6958 0.6911 0.6856 0.6793 0.6734
435.000000 0.6676 0.6618 0.6554 0.6481 0.6360
430.000000 0.6164 0.5912 0.5681 0.5401 0.5271
425.000000 0.5178 0.5102 0.5051 0.5023 0.5007
420.000000 0.4993 0.4941 0.4958 0.4949 0.4941
415.000000 0.4937 0.4937 0.4938 0.4942 0.4945
410.000000 0.4949 0.4953 0.4967 0.4982 0.4997
405.000000 0.5012 0.5028 0.5044 0.5059 0.5075
400.000000 0.5091 0.5110 0.5130 0.5149 0.5162
395.000000 0.5176 0.5189 0.5202 0.5212 0.5222
390.000000 0.5231
##END=
