##TITLE=ZINC OXIDE (FRENCH PROCESS)
##JCAMP-DX=4.24
##DATA TYPE=INFRARED SPECTRUM
##CLASS=COBLENTZ III
##ORIGIN=DESOTO, INC.
##OWNER=COBLENTZ SOCIETY
Collection (C) 2018 copyright by the U.S. Secretary of Commerce
on behalf of the United States of America. All rights reserved.
##DATE=Not specified, most likely prior to 1970
##MOLFORM=O Zn
$$PURITY 99+%
##SOURCE REFERENCE=COBLENTZ NO. 4648
##$NIST ID=B6004648
##$NIST SOURCE=COBLENTZ
##$NIST IMAGE=cob4648
##SPECTROMETER/DATA SYSTEM=BECKMAN IR-12 (GRATING)
##INSTRUMENT PARAMETERS=GRATING BLAZED AT 3330, 1330, 445, 220 CM^-^1
##STATE=SOLID (0.5 mg / 300 mg CsI DISC)
##SAMPLING PROCEDURE=TRANSMISSION
##RESOLUTION=4
##DATA PROCESSING=DIGITIZED BY NIST FROM HARD COPY (FROM TWO SEGMENTS)
##XUNITS=1/CM
##YUNITS=TRANSMITTANCE
##XFACTOR=1.000000
##YFACTOR=1
##DELTAX=1.333340
##FIRSTX=201.333
##LASTX=3973.35
##FIRSTY=0.868
##MAXX=3973.35
##MINX=201.333
##MAXY=0.973
##MINY=0.173
##NPOINTS=2830
##XYDATA=(X++(Y..Y))
201.333000 0.8680 0.8690 0.8690 0.8680 0.8690
207.999701 0.8690 0.8700 0.8720 0.8730 0.8740
214.666402 0.8740 0.8770 0.8780 0.8780 0.8800
221.333103 0.8800 0.8800 0.8810 0.8810 0.8820
227.999804 0.8820 0.8840 0.8840 0.8840 0.8840
234.666504 0.8850 0.8850 0.8850 0.8840 0.8840
241.333205 0.8840 0.8840 0.8820 0.8820 0.8810
247.999906 0.8810 0.8810 0.8810 0.8800 0.8800
254.666607 0.8800 0.8800 0.8780 0.8780 0.8780
261.333308 0.8780 0.8780 0.8780 0.8780 0.8800
268.000009 0.8800 0.8800 0.8800 0.8800 0.8800
274.666710 0.8810 0.8810 0.8810 0.8810 0.8810
281.333411 0.8810 0.8810 0.8810 0.8810 0.8820
288.000112 0.8820 0.8820 0.8840 0.8850 0.8850
294.666813 0.8850 0.8840 0.8840 0.8810 0.8810
301.333513 0.8810 0.8810 0.8800 0.8760 0.8760
308.000214 0.8740 0.8730 0.8720 0.8700 0.8690
314.666915 0.8660 0.8650 0.8640 0.8610 0.8610
321.333616 0.8600 0.8600 0.8580 0.8560 0.8540
328.000317 0.8520 0.8500 0.8490 0.8460 0.8420
334.667018 0.8410 0.8410 0.8400 0.8380 0.8380
341.333719 0.8380 0.8380 0.8370 0.8360 0.8360
348.000420 0.8360 0.8360 0.8360 0.8360 0.8330
354.667121 0.8330 0.8320 0.8320 0.8300 0.8290
361.333822 0.8290 0.8260 0.8240 0.8220 0.8210
368.000522 0.8210 0.8200 0.8180 0.8170 0.8140
374.667223 0.8100 0.8060 0.8040 0.8010 0.8000
381.333924 0.7970 0.7940 0.7890 0.7810 0.7721
388.000625 0.7650 0.7580 0.7490 0.7400 0.7310
394.667326 0.7200 0.7071 0.6951 0.6532 0.6321
401.334027 0.6040 0.5800 0.5560 0.5350 0.5150
408.000728 0.4921 0.4711 0.4581 0.4421 0.4072
414.667429 0.3840 0.3670 0.3161 0.2980 0.2820
421.334130 0.2680 0.2560 0.2431 0.2301 0.2191
428.000831 0.2100 0.2060 0.2010 0.1950 0.1860
434.667531 0.1810 0.1750 0.1740 0.1730 0.1730
441.334232 0.1730 0.1740 0.1740 0.1750 0.1750
448.000933 0.1780 0.1790 0.1820 0.1830 0.1860
454.667634 0.1890 0.1890 0.1870 0.1860 0.1850
461.334335 0.1850 0.1860 0.1860 0.1870 0.1890
468.001036 0.1890 0.1900 0.1900 0.1910 0.1910
474.667737 0.1910 0.1910 0.1910 0.1900 0.1900
481.334438 0.1900 0.1900 0.1910 0.1910 0.1940
488.001139 0.1950 0.1980 0.2010 0.2030 0.2090
494.667839 0.2180 0.2210 0.2290 0.2330 0.2380
501.334540 0.2490 0.2580 0.2660 0.2710 0.2790
508.001241 0.2880 0.2940 0.3040 0.3120 0.3140
514.667942 0.3150 0.3150 0.3140 0.3110 0.3080
521.334643 0.3060 0.3030 0.3030 0.3080 0.3100
528.001344 0.3180 0.3230 0.3359 0.3499 0.3878
534.668045 0.4140 0.4480 0.4740 0.5000 0.5130
541.334746 0.5599 0.5949 0.6209 0.6399 0.6549
548.001447 0.6680 0.6870 0.7040 0.7210 0.7430
554.668148 0.7570 0.7690 0.7780 0.7919 0.8010
561.334848 0.8090 0.8140 0.8240 0.8330 0.8400
568.001549 0.8490 0.8540 0.8600 0.8650 0.8690
574.668250 0.8730 0.8760 0.8810 0.8850 0.8900
581.334951 0.8940 0.8970 0.8980 0.9000 0.9000
588.001652 0.9020 0.9050 0.9080 0.9090 0.9090
594.668353 0.9090 0.9100 0.9130 0.9160 0.9180
601.335054 0.9180 0.9200 0.9200 0.9200 0.9200
608.001755 0.9200 0.9210 0.9210 0.9210 0.9220
614.668456 0.9240 0.9240 0.9250 0.9260 0.9280
621.335157 0.9290 0.9300 0.9300 0.9320 0.9320
628.001857 0.9330 0.9330 0.9340 0.9340 0.9360
634.668558 0.9370 0.9370 0.9380 0.9380 0.9400
641.335259 0.9400 0.9400 0.9410 0.9410 0.9410
648.001960 0.9410 0.9410 0.9410 0.9420 0.9420
654.668661 0.9410 0.9400 0.9370 0.9370 0.9370
661.335362 0.9380 0.9400 0.9400 0.9400 0.9410
668.002063 0.9410 0.9410 0.9410 0.9420 0.9460
674.668764 0.9480 0.9480 0.9480 0.9480 0.9490
681.335465 0.9490 0.9490 0.9490 0.9490 0.9490
688.002166 0.9500 0.9500 0.9500 0.9500 0.9520
694.668866 0.9520 0.9520 0.9520 0.9520 0.9520
701.335567 0.9520 0.9530 0.9540 0.9540 0.9560
708.002268 0.9570 0.9580 0.9570 0.9570 0.9560
714.668969 0.9560 0.9560 0.9570 0.9570 0.9570
721.335670 0.9570 0.9570 0.9600 0.9600 0.9600
728.002371 0.9600 0.9600 0.9600 0.9620 0.9620
734.669072 0.9640 0.9640 0.9640 0.9650 0.9650
741.335773 0.9640 0.9640 0.9640 0.9650 0.9650
748.002474 0.9650 0.9640 0.9640 0.9650 0.9660
754.669174 0.9680 0.9680 0.9680 0.9680 0.9690
761.335875 0.9690 0.9690 0.9700 0.9720 0.9720
768.002576 0.9720 0.9720 0.9690 0.9690 0.9700
774.669277 0.9700 0.9700 0.9700 0.9700 0.9700
781.335978 0.9700 0.9700 0.9700 0.9700 0.9700
788.002679 0.9700 0.9700 0.9700 0.9700 0.9690
794.669380 0.9690 0.9690 0.9690 0.9690 0.9690
801.336081 0.9690 0.9700 0.9700 0.9700 0.9700
808.002782 0.9720 0.9730 0.9730 0.9720 0.9720
814.669483 0.9720 0.9720 0.9720 0.9720 0.9720
821.336183 0.9720 0.9720 0.9720 0.9720 0.9720
828.002884 0.9720 0.9720 0.9730 0.9730 0.9730
834.669585 0.9730 0.9730 0.9720 0.9720 0.9720
841.336286 0.9720 0.9720 0.9720 0.9720 0.9720
848.002987 0.9720 0.9720 0.9720 0.9720 0.9720
854.669688 0.9700 0.9690 0.9690 0.9690 0.9690
861.336389 0.9680 0.9680 0.9660 0.9660 0.9660
868.003090 0.9650 0.9650 0.9660 0.9660 0.9680
874.669791 0.9680 0.9660 0.9660 0.9660 0.9660
881.336492 0.9660 0.9660 0.9680 0.9680 0.9680
888.003192 0.9680 0.9680 0.9680 0.9680 0.9680
894.669893 0.9680 0.9680 0.9680 0.9690 0.9690
901.336594 0.9690 0.9690 0.9690 0.9690 0.9690
908.003295 0.9690 0.9690 0.9690 0.9690 0.9690
914.669996 0.9690 0.9690 0.9690 0.9690 0.9690
921.336697 0.9690 0.9690 0.9690 0.9690 0.9690
928.003398 0.9690 0.9690 0.9690 0.9690 0.9690
934.670099 0.9700 0.9700 0.9700 0.9700 0.9690
941.336800 0.9680 0.9680 0.9680 0.9680 0.9690
948.003501 0.9690 0.9680 0.9680 0.9690 0.9690
954.670201 0.9690 0.9690 0.9690 0.9690 0.9690
961.336902 0.9690 0.9680 0.9700 0.9700 0.9690
968.003603 0.9690 0.9690 0.9690 0.9690 0.9680
974.670304 0.9680 0.9680 0.9680 0.9690 0.9700
981.337005 0.9700 0.9700 0.9690 0.9690 0.9690
988.003706 0.9690 0.9690 0.9690 0.9690 0.9680
994.670407 0.9660 0.9660 0.9660 0.9650 0.9650
1001.337108 0.9650 0.9620 0.9620 0.9620 0.9620
1008.003809 0.9620 0.9620 0.9640 0.9640 0.9650
1014.670509 0.9650 0.9660 0.9650 0.9640 0.9640
1021.337210 0.9640 0.9640 0.9640 0.9640 0.9640
1028.003911 0.9620 0.9620 0.9620 0.9620 0.9640
1034.670612 0.9640 0.9640 0.9620 0.9610 0.9610
1041.337313 0.9610 0.9610 0.9610 0.9610 0.9610
1048.004014 0.9620 0.9620 0.9620 0.9620 0.9610
1054.670715 0.9610 0.9620 0.9620 0.9620 0.9620
1061.337416 0.9620 0.9620 0.9620 0.9620 0.9620
1068.004117 0.9610 0.9610 0.9610 0.9610 0.9600
1074.670818 0.9600 0.9600 0.9600 0.9600 0.9600
1081.337518 0.9580 0.9600 0.9600 0.9600 0.9600
1088.004219 0.9600 0.9600 0.9600 0.9610 0.9610
1094.670920 0.9610 0.9610 0.9610 0.9610 0.9610
1101.337621 0.9610 0.9610 0.9620 0.9620 0.9610
1108.004322 0.9610 0.9610 0.9620 0.9620 0.9620
1114.671023 0.9620 0.9620 0.9640 0.9640 0.9640
1121.337724 0.9640 0.9650 0.9650 0.9640 0.9650
1128.004425 0.9650 0.9650 0.9650 0.9640 0.9640
1134.671126 0.9650 0.9650 0.9650 0.9650 0.9650
1141.337827 0.9650 0.9650 0.9650 0.9650 0.9640
1148.004527 0.9640 0.9650 0.9650 0.9650 0.9660
1154.671228 0.9660 0.9680 0.9680 0.9680 0.9680
1161.337929 0.9660 0.9660 0.9650 0.9650 0.9660
1168.004630 0.9660 0.9680 0.9680 0.9660 0.9660
1174.671331 0.9660 0.9680 0.9680 0.9680 0.9680
1181.338032 0.9690 0.9690 0.9660 0.9650 0.9650
1188.004733 0.9650 0.9660 0.9680 0.9690 0.9690
1194.671434 0.9690 0.9700 0.9700 0.9690 0.9690
1201.338135 0.9690 0.9680 0.9680 0.9680 0.9660
1208.004836 0.9660 0.9660 0.9680 0.9690 0.9690
1214.671536 0.9690 0.9700 0.9690 0.9690 0.9690
1221.338237 0.9690 0.9690 0.9690 0.9690 0.9690
1228.004938 0.9680 0.9680 0.9680 0.9690 0.9690
1234.671639 0.9690 0.9700 0.9700 0.9700 0.9700
1241.338340 0.9690 0.9690 0.9690 0.9690 0.9690
1248.005041 0.9690 0.9690 0.9690 0.9690 0.9690
1254.671742 0.9690 0.9690 0.9690 0.9690 0.9680
1261.338443 0.9680 0.9660 0.9660 0.9690 0.9690
1268.005144 0.9700 0.9700 0.9700 0.9720 0.9720
1274.671844 0.9700 0.9700 0.9700 0.9700 0.9700
1281.338545 0.9700 0.9690 0.9690 0.9700 0.9700
1288.005246 0.9700 0.9700 0.9700 0.9700 0.9700
1294.671947 0.9700 0.9690 0.9690 0.9690 0.9690
1301.338648 0.9680 0.9680 0.9660 0.9660 0.9660
1308.005349 0.9660 0.9660 0.9680 0.9680 0.9680
1314.672050 0.9680 0.9680 0.9680 0.9680 0.9690
1321.338751 0.9690 0.9680 0.9680 0.9690 0.9700
1328.005452 0.9700 0.9700 0.9700 0.9700 0.9690
1334.672153 0.9690 0.9690 0.9680 0.9660 0.9660
1341.338853 0.9660 0.9680 0.9680 0.9680 0.9680
1348.005554 0.9680 0.9680 0.9690 0.9690 0.9690
1354.672255 0.9690 0.9690 0.9690 0.9690 0.9690
1361.338956 0.9690 0.9680 0.9660 0.9660 0.9660
1368.005657 0.9680 0.9680 0.9680 0.9680 0.9660
1374.672358 0.9660 0.9660 0.9650 0.9650 0.9650
1381.339059 0.9650 0.9650 0.9650 0.9650 0.9650
1388.005760 0.9640 0.9640 0.9640 0.9640 0.9640
1394.672461 0.9640 0.9650 0.9650 0.9650 0.9650
1401.339162 0.9650 0.9650 0.9650 0.9650 0.9650
1408.005862 0.9620 0.9620 0.9620 0.9620 0.9620
1414.672563 0.9620 0.9620 0.9640 0.9640 0.9650
1421.339264 0.9650 0.9640 0.9640 0.9620 0.9620
1428.005965 0.9640 0.9650 0.9650 0.9650 0.9650
1434.672666 0.9650 0.9650 0.9650 0.9650 0.9650
1441.339367 0.9650 0.9650 0.9650 0.9650 0.9650
1448.006068 0.9650 0.9640 0.9640 0.9640 0.9640
1454.672769 0.9640 0.9640 0.9640 0.9620 0.9620
1461.339470 0.9640 0.9640 0.9610 0.9610 0.9620
1468.006171 0.9620 0.9620 0.9620 0.9620 0.9620
1474.672871 0.9620 0.9640 0.9640 0.9650 0.9650
1481.339572 0.9650 0.9680 0.9680 0.9650 0.9650
1488.006273 0.9650 0.9650 0.9650 0.9640 0.9640
1494.672974 0.9650 0.9650 0.9660 0.9660 0.9660
1501.339675 0.9660 0.9660 0.9660 0.9660 0.9660
1508.006376 0.9660 0.9680 0.9680 0.9680 0.9660
1514.673077 0.9650 0.9640 0.9640 0.9640 0.9640
1521.339778 0.9640 0.9650 0.9650 0.9650 0.9650
1528.006479 0.9650 0.9650 0.9650 0.9650 0.9650
1534.673179 0.9640 0.9640 0.9640 0.9620 0.9620
1541.339880 0.9620 0.9610 0.9610 0.9610 0.9610
1548.006581 0.9610 0.9610 0.9620 0.9620 0.9640
1554.673282 0.9640 0.9620 0.9620 0.9620 0.9620
1561.339983 0.9620 0.9610 0.9620 0.9610 0.9610
1568.006684 0.9610 0.9600 0.9580 0.9580 0.9580
1574.673385 0.9580 0.9580 0.9580 0.9570 0.9570
1581.340086 0.9570 0.9560 0.9540 0.9540 0.9530
1588.006787 0.9530 0.9520 0.9520 0.9500 0.9500
1594.673488 0.9490 0.9490 0.9490 0.9480 0.9480
1601.340188 0.9460 0.9450 0.9420 0.9410 0.9400
1608.006889 0.9380 0.9370 0.9340 0.9330 0.9320
1614.673590 0.9320 0.9320 0.9320 0.9320 0.9320
1621.340291 0.9320 0.9320 0.9320 0.9330 0.9340
1628.006992 0.9340 0.9370 0.9400 0.9400 0.9410
1634.673693 0.9410 0.9410 0.9420 0.9420 0.9420
1641.340394 0.9420 0.9440 0.9450 0.9480 0.9480
1648.007095 0.9490 0.9490 0.9490 0.9520 0.9530
1654.673796 0.9530 0.9530 0.9530 0.9530 0.9530
1661.340497 0.9520 0.9520 0.9530 0.9530 0.9540
1668.007197 0.9540 0.9540 0.9540 0.9560 0.9560
1674.673898 0.9560 0.9560 0.9560 0.9560 0.9560
1681.340599 0.9560 0.9560 0.9560 0.9560 0.9560
1688.007300 0.9560 0.9560 0.9560 0.9560 0.9560
1694.674001 0.9560 0.9560 0.9540 0.9540 0.9540
1701.340702 0.9540 0.9540 0.9540 0.9560 0.9560
1708.007403 0.9560 0.9560 0.9570 0.9570 0.9570
1714.674104 0.9570 0.9580 0.9580 0.9580 0.9600
1721.340805 0.9580 0.9580 0.9580 0.9580 0.9580
1728.007505 0.9580 0.9580 0.9580 0.9580 0.9580
1734.674206 0.9600 0.9600 0.9600 0.9600 0.9600
1741.340907 0.9600 0.9600 0.9600 0.9600 0.9600
1748.007608 0.9600 0.9600 0.9600 0.9610 0.9600
1754.674309 0.9610 0.9610 0.9610 0.9610 0.9610
1761.341010 0.9610 0.9620 0.9620 0.9620 0.9620
1768.007711 0.9640 0.9640 0.9640 0.9640 0.9640
1774.674412 0.9640 0.9640 0.9640 0.9640 0.9640
1781.341113 0.9640 0.9640 0.9640 0.9640 0.9640
1788.007814 0.9640 0.9640 0.9640 0.9640 0.9640
1794.674514 0.9640 0.9640 0.9620 0.9620 0.9620
1801.341215 0.9620 0.9620 0.9610 0.9610 0.9610
1808.007916 0.9600 0.9600 0.9600 0.9600 0.9600
1814.674617 0.9600 0.9600 0.9600 0.9610 0.9610
1821.341318 0.9610 0.9620 0.9620 0.9600 0.9600
1828.008019 0.9600 0.9600 0.9600 0.9600 0.9600
1834.674720 0.9600 0.9610 0.9610 0.9610 0.9620
1841.341421 0.9620 0.9610 0.9600 0.9600 0.9600
1848.008122 0.9600 0.9610 0.9610 0.9610 0.9610
1854.674823 0.9600 0.9600 0.9600 0.9600 0.9600
1861.341523 0.9600 0.9600 0.9600 0.9600 0.9600
1868.008224 0.9600 0.9610 0.9600 0.9600 0.9600
1874.674925 0.9600 0.9600 0.9600 0.9600 0.9600
1881.341626 0.9600 0.9600 0.9580 0.9580 0.9580
1888.008327 0.9580 0.9580 0.9580 0.9580 0.9580
1894.675028 0.9580 0.9580 0.9580 0.9580 0.9580
1901.341729 0.9580 0.9580 0.9580 0.9580 0.9580
1908.008430 0.9570 0.9570 0.9570 0.9570 0.9570
1914.675131 0.9570 0.9570 0.9570 0.9580 0.9580
1921.341832 0.9580 0.9580 0.9570 0.9580 0.9580
1928.008532 0.9580 0.9580 0.9580 0.9580 0.9580
1934.675233 0.9580 0.9580 0.9580 0.9580 0.9580
1941.341934 0.9580 0.9580 0.9570 0.9540 0.9540
1948.008635 0.9560 0.9560 0.9570 0.9580 0.9600
1954.675336 0.9580 0.9580 0.9580 0.9580 0.9580
1961.342037 0.9580 0.9580 0.9570 0.9570 0.9570
1968.008738 0.9570 0.9560 0.9560 0.9560 0.9570
1974.675439 0.9570 0.9580 0.9570 0.9570 0.9570
1981.342140 0.9560 0.9560 0.9560 0.9560 0.9560
1988.008840 0.9570 0.9570 0.9570 0.9580 0.9580
1994.675541 0.9580 0.9580 0.9580 0.9570 0.9560
2001.342242 0.9560 0.9560 0.9560 0.9560 0.9550
2008.008943 0.9540 0.9540 0.9540 0.9540 0.9540
2014.675644 0.9540 0.9540 0.9540 0.9540 0.9540
2021.342345 0.9540 0.9540 0.9540 0.9540 0.9540
2028.009046 0.9540 0.9540 0.9540 0.9540 0.9540
2034.675747 0.9540 0.9540 0.9540 0.9540 0.9540
2041.342448 0.9540 0.9540 0.9540 0.9539 0.9534
2048.009149 0.9530 0.9530 0.9530 0.9530 0.9530
2054.675849 0.9530 0.9530 0.9530 0.9530 0.9530
2061.342550 0.9530 0.9530 0.9530 0.9530 0.9530
2068.009251 0.9530 0.9530 0.9530 0.9530 0.9530
2074.675952 0.9530 0.9530 0.9530 0.9530 0.9530
2081.342653 0.9530 0.9530 0.9530 0.9530 0.9530
2088.009354 0.9530 0.9530 0.9530 0.9530 0.9530
2094.676055 0.9530 0.9530 0.9530 0.9530 0.9530
2101.342756 0.9530 0.9530 0.9530 0.9530 0.9528
2108.009457 0.9523 0.9520 0.9520 0.9520 0.9520
2114.676158 0.9520 0.9520 0.9520 0.9520 0.9520
2121.342858 0.9520 0.9520 0.9520 0.9520 0.9520
2128.009559 0.9520 0.9520 0.9520 0.9520 0.9520
2134.676260 0.9520 0.9520 0.9520 0.9520 0.9520
2141.342961 0.9520 0.9520 0.9520 0.9520 0.9520
2148.009662 0.9520 0.9520 0.9520 0.9520 0.9520
2154.676363 0.9520 0.9520 0.9520 0.9520 0.9520
2161.343064 0.9520 0.9520 0.9520 0.9520 0.9520
2168.009765 0.9520 0.9520 0.9520 0.9520 0.9520
2174.676466 0.9520 0.9520 0.9520 0.9520 0.9520
2181.343167 0.9520 0.9520 0.9520 0.9520 0.9520
2188.009867 0.9520 0.9520 0.9520 0.9520 0.9520
2194.676568 0.9520 0.9520 0.9520 0.9520 0.9520
2201.343269 0.9520 0.9520 0.9520 0.9520 0.9520
2208.009970 0.9520 0.9520 0.9514 0.9504 0.9500
2214.676671 0.9500 0.9507 0.9517 0.9520 0.9520
2221.343372 0.9520 0.9520 0.9513 0.9503 0.9500
2228.010073 0.9500 0.9500 0.9500 0.9500 0.9500
2234.676774 0.9500 0.9500 0.9500 0.9500 0.9500
2241.343475 0.9500 0.9500 0.9500 0.9496 0.9491
2248.010175 0.9490 0.9490 0.9490 0.9490 0.9490
2254.676876 0.9490 0.9490 0.9490 0.9490 0.9490
2261.343577 0.9490 0.9490 0.9494 0.9499 0.9500
2268.010278 0.9500 0.9500 0.9500 0.9500 0.9500
2274.676979 0.9500 0.9500 0.9500 0.9500 0.9500
2281.343680 0.9500 0.9500 0.9500 0.9500 0.9500
2288.010381 0.9500 0.9500 0.9500 0.9500 0.9496
2294.677082 0.9491 0.9490 0.9490 0.9486 0.9480
2301.343783 0.9480 0.9480 0.9471 0.9461 0.9469
2308.010484 0.9479 0.9485 0.9490 0.9490 0.9490
2314.677184 0.9509 0.9529 0.9530 0.9530 0.9516
2321.343885 0.9500 0.9500 0.9500 0.9495 0.9490
2328.010586 0.9490 0.9490 0.9495 0.9500 0.9500
2334.677287 0.9500 0.9500 0.9500 0.9500 0.9500
2341.343988 0.9495 0.9490 0.9490 0.9490 0.9485
2348.010689 0.9480 0.9480 0.9480 0.9480 0.9480
2354.677390 0.9485 0.9490 0.9495 0.9500 0.9500
2361.344091 0.9501 0.9516 0.9530 0.9530 0.9529
2368.010792 0.9514 0.9500 0.9500 0.9500 0.9500
2374.677493 0.9500 0.9500 0.9499 0.9494 0.9490
2381.344193 0.9490 0.9490 0.9490 0.9490 0.9490
2388.010894 0.9489 0.9484 0.9480 0.9480 0.9480
2394.677595 0.9480 0.9478 0.9468 0.9460 0.9460
2401.344296 0.9462 0.9472 0.9481 0.9486 0.9489
2408.010997 0.9484 0.9480 0.9480 0.9480 0.9480
2414.677698 0.9480 0.9480 0.9480 0.9480 0.9480
2421.344399 0.9480 0.9480 0.9480 0.9480 0.9480
2428.011100 0.9477 0.9467 0.9463 0.9473 0.9480
2434.677801 0.9480 0.9475 0.9460 0.9450 0.9450
2441.344502 0.9450 0.9450 0.9450 0.9450 0.9450
2448.011202 0.9450 0.9448 0.9443 0.9440 0.9440
2454.677903 0.9440 0.9440 0.9440 0.9440 0.9440
2461.344604 0.9440 0.9442 0.9447 0.9456 0.9471
2468.011305 0.9480 0.9480 0.9474 0.9459 0.9450
2474.678006 0.9450 0.9450 0.9450 0.9450 0.9450
2481.344707 0.9450 0.9450 0.9452 0.9457 0.9460
2488.011408 0.9460 0.9458 0.9453 0.9450 0.9450
2494.678109 0.9450 0.9450 0.9450 0.9450 0.9450
2501.344810 0.9450 0.9450 0.9450 0.9453 0.9458
2508.011510 0.9465 0.9475 0.9480 0.9480 0.9472
2514.678211 0.9457 0.9450 0.9450 0.9447 0.9442
2521.344912 0.9440 0.9440 0.9440 0.9440 0.9440
2528.011613 0.9440 0.9443 0.9448 0.9450 0.9450
2534.678314 0.9450 0.9450 0.9450 0.9450 0.9450
2541.345015 0.9450 0.9450 0.9450 0.9450 0.9450
2548.011716 0.9450 0.9450 0.9450 0.9450 0.9450
2554.678417 0.9450 0.9450 0.9450 0.9453 0.9458
2561.345118 0.9467 0.9477 0.9466 0.9446 0.9440
2568.011819 0.9440 0.9433 0.9423 0.9420 0.9420
2574.678519 0.9420 0.9420 0.9420 0.9420 0.9427
2581.345220 0.9437 0.9429 0.9414 0.9410 0.9410
2588.011921 0.9410 0.9410 0.9410 0.9410 0.9406
2594.678622 0.9401 0.9400 0.9400 0.9400 0.9400
2601.345323 0.9404 0.9409 0.9414 0.9419 0.9420
2608.012024 0.9420 0.9416 0.9411 0.9406 0.9401
2614.678725 0.9392 0.9381 0.9380 0.9380 0.9380
2621.345426 0.9380 0.9380 0.9380 0.9389 0.9399
2628.012127 0.9400 0.9400 0.9391 0.9381 0.9380
2634.678828 0.9380 0.9380 0.9380 0.9380 0.9380
2641.345528 0.9380 0.9380 0.9380 0.9380 0.9389
2648.012229 0.9399 0.9400 0.9400 0.9400 0.9400
2654.678930 0.9400 0.9400 0.9400 0.9400 0.9400
2661.345631 0.9400 0.9400 0.9400 0.9390 0.9380
2668.012332 0.9380 0.9380 0.9380 0.9380 0.9380
2674.679033 0.9380 0.9380 0.9380 0.9380 0.9380
2681.345734 0.9390 0.9400 0.9400 0.9400 0.9400
2688.012435 0.9400 0.9405 0.9410 0.9410 0.9410
2694.679136 0.9405 0.9399 0.9389 0.9380 0.9380
2701.345837 0.9380 0.9380 0.9380 0.9380 0.9380
2708.012537 0.9380 0.9380 0.9380 0.9380 0.9380
2714.679238 0.9380 0.9380 0.9379 0.9374 0.9370
2721.345939 0.9370 0.9369 0.9364 0.9360 0.9360
2728.012640 0.9360 0.9360 0.9360 0.9360 0.9360
2734.679341 0.9360 0.9360 0.9360 0.9361 0.9366
2741.346042 0.9370 0.9370 0.9370 0.9370 0.9370
2748.012743 0.9370 0.9370 0.9370 0.9369 0.9364
2754.679444 0.9360 0.9360 0.9360 0.9360 0.9361
2761.346145 0.9366 0.9370 0.9370 0.9370 0.9370
2768.012845 0.9370 0.9370 0.9370 0.9370 0.9368
2774.679546 0.9363 0.9357 0.9347 0.9338 0.9333
2781.346247 0.9330 0.9330 0.9335 0.9350 0.9360
2788.012948 0.9360 0.9360 0.9360 0.9360 0.9360
2794.679649 0.9360 0.9360 0.9360 0.9360 0.9360
2801.346350 0.9360 0.9360 0.9360 0.9360 0.9360
2808.013051 0.9360 0.9360 0.9360 0.9360 0.9360
2814.679752 0.9360 0.9360 0.9360 0.9356 0.9346
2821.346453 0.9338 0.9333 0.9328 0.9323 0.9315
2828.013154 0.9305 0.9300 0.9300 0.9298 0.9293
2834.679854 0.9282 0.9267 0.9257 0.9252 0.9247
2841.346555 0.9242 0.9235 0.9225 0.9217 0.9212
2848.013256 0.9207 0.9202 0.9194 0.9184 0.9180
2854.679957 0.9180 0.9186 0.9196 0.9200 0.9200
2861.346658 0.9203 0.9208 0.9213 0.9218 0.9220
2868.013359 0.9220 0.9226 0.9236 0.9240 0.9240
2874.680060 0.9240 0.9240 0.9243 0.9248 0.9250
2881.346761 0.9250 0.9250 0.9250 0.9250 0.9250
2888.013462 0.9250 0.9250 0.9250 0.9250 0.9247
2894.680163 0.9242 0.9240 0.9240 0.9240 0.9240
2901.346863 0.9240 0.9240 0.9229 0.9214 0.9206
2908.013564 0.9201 0.9193 0.9183 0.9176 0.9171
2914.680265 0.9155 0.9135 0.9119 0.9104 0.9096
2921.346966 0.9091 0.9090 0.9090 0.9090 0.9090
2928.013667 0.9090 0.9090 0.9094 0.9099 0.9108
2934.680368 0.9118 0.9120 0.9120 0.9124 0.9129
2941.347069 0.9134 0.9139 0.9148 0.9158 0.9160
2948.013770 0.9160 0.9160 0.9160 0.9160 0.9160
2954.680471 0.9164 0.9169 0.9174 0.9179 0.9180
2961.347172 0.9180 0.9180 0.9180 0.9180 0.9180
2968.013872 0.9189 0.9199 0.9200 0.9200 0.9200
2974.680573 0.9200 0.9205 0.9210 0.9215 0.9220
2981.347274 0.9220 0.9220 0.9220 0.9220 0.9220
2988.013975 0.9220 0.9220 0.9220 0.9220 0.9220
2994.680676 0.9220 0.9220 0.9220 0.9220 0.9215
3001.347377 0.9210 0.9210 0.9210 0.9210 0.9210
3008.014078 0.9210 0.9210 0.9210 0.9210 0.9210
3014.680779 0.9210 0.9210 0.9210 0.9210 0.9210
3021.347480 0.9210 0.9210 0.9215 0.9220 0.9220
3028.014180 0.9221 0.9231 0.9240 0.9240 0.9240
3034.680881 0.9240 0.9240 0.9240 0.9239 0.9229
3041.347582 0.9220 0.9220 0.9220 0.9220 0.9220
3048.014283 0.9220 0.9221 0.9231 0.9240 0.9240
3054.680984 0.9240 0.9240 0.9240 0.9240 0.9238
3061.347685 0.9228 0.9220 0.9220 0.9220 0.9220
3068.014386 0.9220 0.9220 0.9220 0.9220 0.9220
3074.681087 0.9220 0.9220 0.9220 0.9219 0.9214
3081.347788 0.9209 0.9204 0.9201 0.9206 0.9210
3088.014489 0.9210 0.9211 0.9216 0.9223 0.9233
3094.681189 0.9240 0.9240 0.9237 0.9227 0.9219
3101.347890 0.9213 0.9210 0.9210 0.9208 0.9203
3108.014591 0.9200 0.9200 0.9200 0.9200 0.9200
3114.681292 0.9200 0.9200 0.9200 0.9200 0.9200
3121.347993 0.9196 0.9186 0.9180 0.9180 0.9184
3128.014694 0.9194 0.9196 0.9186 0.9180 0.9180
3134.681395 0.9178 0.9173 0.9170 0.9170 0.9170
3141.348096 0.9170 0.9172 0.9177 0.9180 0.9180
3148.014797 0.9180 0.9180 0.9180 0.9180 0.9180
3154.681498 0.9180 0.9180 0.9180 0.9180 0.9180
3161.348198 0.9178 0.9173 0.9170 0.9170 0.9170
3168.014899 0.9170 0.9170 0.9170 0.9170 0.9170
3174.681600 0.9167 0.9162 0.9155 0.9145 0.9140
3181.348301 0.9140 0.9137 0.9132 0.9130 0.9130
3188.015002 0.9130 0.9130 0.9130 0.9130 0.9130
3194.681703 0.9130 0.9130 0.9130 0.9130 0.9130
3201.348404 0.9130 0.9130 0.9130 0.9130 0.9130
3208.015105 0.9130 0.9127 0.9122 0.9120 0.9120
3214.681806 0.9114 0.9104 0.9100 0.9100 0.9100
3221.348507 0.9100 0.9100 0.9100 0.9100 0.9100
3228.015207 0.9100 0.9100 0.9100 0.9100 0.9100
3234.681908 0.9100 0.9100 0.9100 0.9096 0.9091
3241.348609 0.9090 0.9090 0.9086 0.9081 0.9080
3248.015310 0.9080 0.9080 0.9080 0.9072 0.9062
3254.682011 0.9060 0.9060 0.9060 0.9060 0.9056
3261.348712 0.9051 0.9050 0.9050 0.9050 0.9050
3268.015413 0.9050 0.9050 0.9046 0.9041 0.9040
3274.682114 0.9040 0.9040 0.9040 0.9040 0.9040
3281.348815 0.9040 0.9040 0.9031 0.9021 0.9020
3288.015515 0.9020 0.9020 0.9020 0.9020 0.9020
3294.682216 0.9016 0.9011 0.9010 0.9010 0.9010
3301.348917 0.9010 0.9005 0.9000 0.9000 0.9000
3308.015618 0.9000 0.9000 0.9000 0.9000 0.8991
3314.682319 0.8981 0.8980 0.8980 0.8975 0.8970
3321.349020 0.8970 0.8970 0.8965 0.8960 0.8950
3328.015721 0.8940 0.8935 0.8930 0.8930 0.8930
3334.682422 0.8925 0.8920 0.8920 0.8920 0.8910
3341.349123 0.8900 0.8900 0.8900 0.8895 0.8890
3348.015824 0.8885 0.8880 0.8870 0.8860 0.8855
3354.682524 0.8850 0.8845 0.8839 0.8829 0.8820
3361.349225 0.8815 0.8810 0.8805 0.8799 0.8789
3368.015926 0.8779 0.8774 0.8769 0.8764 0.8759
3374.682627 0.8749 0.8739 0.8734 0.8729 0.8724
3381.349328 0.8718 0.8708 0.8699 0.8694 0.8689
3388.016029 0.8684 0.8678 0.8668 0.8659 0.8654
3394.682730 0.8649 0.8644 0.8637 0.8622 0.8607
3401.349431 0.8592 0.8579 0.8574 0.8569 0.8564
3408.016132 0.8556 0.8541 0.8529 0.8524 0.8518
3414.682833 0.8508 0.8499 0.8494 0.8489 0.8484
3421.349533 0.8480 0.8480 0.8477 0.8467 0.8460
3428.016234 0.8460 0.8459 0.8454 0.8450 0.8450
3434.682935 0.8448 0.8443 0.8440 0.8440 0.8440
3441.349636 0.8440 0.8440 0.8440 0.8437 0.8427
3448.016337 0.8420 0.8420 0.8420 0.8420 0.8420
3454.683038 0.8420 0.8420 0.8420 0.8420 0.8420
3461.349739 0.8420 0.8420 0.8420 0.8420 0.8424
3468.016440 0.8434 0.8440 0.8440 0.8440 0.8440
3474.683141 0.8440 0.8440 0.8440 0.8440 0.8440
3481.349842 0.8440 0.8440 0.8440 0.8442 0.8447
3488.016542 0.8450 0.8450 0.8452 0.8457 0.8460
3494.683243 0.8460 0.8465 0.8475 0.8480 0.8480
3501.349944 0.8483 0.8488 0.8493 0.8498 0.8505
3508.016645 0.8515 0.8523 0.8528 0.8530 0.8530
3514.683346 0.8533 0.8538 0.8546 0.8556 0.8566
3521.350047 0.8576 0.8580 0.8580 0.8586 0.8596
3528.016748 0.8600 0.8600 0.8600 0.8600 0.8603
3534.683449 0.8608 0.8610 0.8610 0.8613 0.8618
3541.350150 0.8626 0.8636 0.8643 0.8648 0.8650
3548.016850 0.8650 0.8653 0.8658 0.8667 0.8677
3554.683551 0.8683 0.8688 0.8693 0.8698 0.8707
3561.350252 0.8717 0.8723 0.8728 0.8730 0.8730
3568.016953 0.8734 0.8739 0.8751 0.8766 0.8774
3574.683654 0.8779 0.8787 0.8797 0.8800 0.8800
3581.350355 0.8804 0.8809 0.8810 0.8810 0.8814
3588.017056 0.8819 0.8828 0.8838 0.8844 0.8849
3594.683757 0.8850 0.8850 0.8862 0.8877 0.8884
3601.350458 0.8889 0.8890 0.8890 0.8894 0.8899
3608.017159 0.8912 0.8927 0.8934 0.8939 0.8948
3614.683859 0.8958 0.8964 0.8969 0.8970 0.8970
3621.350560 0.8974 0.8979 0.8980 0.8980 0.8989
3628.017261 0.8999 0.9000 0.9000 0.9000 0.9000
3634.683962 0.9000 0.9000 0.9000 0.9000 0.9000
3641.350663 0.9000 0.9000 0.9000 0.9000 0.9000
3648.017364 0.9000 0.9000 0.9000 0.9000 0.9000
3654.684065 0.9000 0.9000 0.9000 0.9000 0.9000
3661.350766 0.9000 0.9000 0.9000 0.9000 0.9000
3668.017467 0.9000 0.9000 0.9000 0.9000 0.9000
3674.684168 0.9000 0.9000 0.9000 0.9000 0.9000
3681.350868 0.9000 0.9000 0.9000 0.9000 0.9000
3688.017569 0.9000 0.9000 0.9000 0.9000 0.9000
3694.684270 0.9000 0.9000 0.9000 0.9000 0.9000
3701.350971 0.9000 0.9001 0.9006 0.9009 0.9004
3708.017672 0.9000 0.9000 0.9000 0.9000 0.9000
3714.684373 0.9000 0.9000 0.9000 0.9000 0.9000
3721.351074 0.9000 0.9000 0.9000 0.9000 0.9000
3728.017775 0.9000 0.9000 0.9000 0.9000 0.9000
3734.684476 0.9000 0.9000 0.9000 0.9000 0.9000
3741.351177 0.9000 0.9000 0.9000 0.9001 0.9006
3748.017877 0.9010 0.9010 0.9010 0.9010 0.9010
3754.684578 0.9010 0.9010 0.9010 0.9010 0.9010
3761.351279 0.9010 0.9010 0.9010 0.9010 0.9010
3768.017980 0.9010 0.9010 0.9010 0.9010 0.9010
3774.684681 0.9010 0.9010 0.9010 0.9010 0.9008
3781.351382 0.9003 0.9000 0.9000 0.9000 0.9000
3788.018083 0.9000 0.9000 0.9000 0.9000 0.9000
3794.684784 0.9000 0.9000 0.9000 0.9000 0.9000
3801.351485 0.9000 0.9000 0.9000 0.9000 0.9000
3808.018185 0.9000 0.9000 0.9000 0.9000 0.9000
3814.684886 0.9000 0.9000 0.9000 0.9000 0.9000
3821.351587 0.9000 0.9000 0.9000 0.8995 0.8985
3828.018288 0.8980 0.8980 0.8980 0.8980 0.8980
3834.684989 0.8980 0.8980 0.8980 0.8980 0.8980
3841.351690 0.8980 0.8980 0.8980 0.8980 0.8980
3848.018391 0.8980 0.8980 0.8980 0.8980 0.8980
3854.685092 0.8980 0.8980 0.8980 0.8980 0.8980
3861.351793 0.8980 0.8977 0.8972 0.8970 0.8970
3868.018494 0.8970 0.8970 0.8973 0.8978 0.8980
3874.685194 0.8980 0.8974 0.8964 0.8960 0.8960
3881.351895 0.8963 0.8968 0.8970 0.8970 0.8970
3888.018596 0.8970 0.8973 0.8978 0.8980 0.8980
3894.685297 0.8980 0.8980 0.8980 0.8980 0.8980
3901.351998 0.8980 0.8980 0.8980 0.8976 0.8971
3908.018699 0.8970 0.8970 0.8970 0.8970 0.8966
3914.685400 0.8961 0.8960 0.8960 0.8960 0.8960
3921.352101 0.8960 0.8960 0.8952 0.8942 0.8940
3928.018802 0.8940 0.8940 0.8940 0.8940 0.8940
3934.685503 0.8940 0.8940 0.8940 0.8940 0.8940
3941.352203 0.8940 0.8940 0.8940 0.8940 0.8940
3948.018904 0.8940 0.8940 0.8940 0.8940 0.8940
3954.685605 0.8940 0.8940 0.8940 0.8936 0.8931
3961.352306 0.8926 0.8921 0.8920 0.8920 0.8920
3968.019007 0.8920 0.8920 0.8920 0.8925 0.8930
##END=
