##TITLE=CUPRIC ACETATE, HYDRATE
##JCAMP-DX=4.24
##DATA TYPE=INFRARED SPECTRUM
##CLASS=COBLENTZ
##ORIGIN=BELL TELEPHONE LABORATORIES- F. VRATNY
##OWNER=COBLENTZ SOCIETY
Collection (C) 2018 copyright by the U.S. Secretary of Commerce
on behalf of the United States of America. All rights reserved.
##DATE=Not specified, most likely prior to 1970
##MOLFORM=C4 H6 O4 Cu  * H2 O
##SOURCE REFERENCE=COBLENTZ NO. 2035
##$NIST ID=B6002035
##$NIST SOURCE=COBLENTZ
##$NIST IMAGE=cob2035
##SPECTROMETER/DATA SYSTEM=Not specified, most likely a prism, grating, or hybrid spectrometer.
##STATE=SOLID (MINERAL OIL MULL)
##PATH LENGTH=
$$SPECTRAL CONTAMINATION DUE TO OIL AROUND 2900, 1450 CM^-^1
##SAMPLING PROCEDURE=TRANSMISSION
##RESOLUTION=4
##DATA PROCESSING=DIGITIZED BY NIST FROM HARD COPY
##XUNITS=MICROMETERS
##YUNITS=TRANSMITTANCE
##XFACTOR=1.000000
##YFACTOR=1
##DELTAX=000.006629
##FIRSTX=2.086
##LASTX=15.2846
##FIRSTY=0.724
##MAXX=15.2846
##MINX=2.086
##MAXY=0.82
##MINY=0.006
##NPOINTS=1992
##XYDATA=(X++(Y..Y))
2.086000 0.7240 0.7240 0.7240 0.7240 0.7240
2.119163 0.7240 0.7240 0.7240 0.7250 0.7250
2.152000 0.7270 0.7280 0.7280 0.7290 0.7290
2.185163 0.7310 0.7320 0.7320 0.7350 0.7350
2.219000 0.7330 0.7310 0.7210 0.7210 0.7200
2.252163 0.7190 0.7170 0.7090 0.7090 0.7030
2.285000 0.6880 0.6850 0.6840 0.6840 0.6870
2.318163 0.6890 0.6950 0.6960 0.7000 0.7010
2.351000 0.7030 0.7040 0.7040 0.7050 0.7050
2.384163 0.7070 0.7080 0.7090 0.7110 0.7130
2.418000 0.7160 0.7170 0.7170 0.7170 0.7190
2.451163 0.7190 0.7190 0.7190 0.7190 0.7190
2.484000 0.7210 0.7270 0.7320 0.7320 0.7320
2.517163 0.7330 0.7330 0.7330 0.7360 0.7400
2.550000 0.7470 0.7540 0.7560 0.7580 0.7610
2.583163 0.7620 0.7640 0.7640 0.7640 0.7640
2.617000 0.7640 0.7650 0.7700 0.7760 0.7800
2.650163 0.7890 0.7930 0.7930 0.7930 0.7940
2.683000 0.7940 0.7940 0.7970 0.8040 0.8100
2.716163 0.8100 0.8090 0.8050 0.8020 0.7970
2.749000 0.7890 0.7850 0.7800 0.7700 0.7580
2.782163 0.7470 0.7170 0.6960 0.6560 0.6190
2.815000 0.5720 0.5080 0.4790 0.4480 0.4460
2.848163 0.3600 0.3030 0.2750 0.2590 0.2430
2.882000 0.2010 0.1790 0.1590 0.1450 0.1420
2.915163 0.1410 0.1410 0.1430 0.1530 0.1580
2.948000 0.1610 0.1590 0.1450 0.1310 0.1230
2.981163 0.1210 0.1190 0.1220 0.1630 0.2020
3.014000 0.2140 0.2260 0.2450 0.2710 0.2820
3.047163 0.2820 0.2670 0.2590 0.2540 0.2510
3.081000 0.2510 0.2540 0.2870 0.3190 0.3440
3.114163 0.3640 0.3790 0.3910 0.3990 0.4100
3.147000 0.4260 0.4350 0.4390 0.4460 0.4500
3.180163 0.4550 0.4740 0.4900 0.4990 0.5050
3.213000 0.5150 0.5240 0.5250 0.5280 0.5290
3.246163 0.5350 0.5390 0.5390 0.5390 0.5390
3.279000 0.5390 0.5350 0.5280 0.5200 0.5110
3.312163 0.5050 0.4990 0.4790 0.4630 0.4300
3.346000 0.3860 0.3240 0.2630 0.2390 0.2140
3.379163 0.1820 0.1430 0.1130 0.0900 0.0740
3.412000 0.0690 0.0650 0.0630 0.0620 0.0530
3.445163 0.0450 0.0410 0.0390 0.0350 0.0310
3.478000 0.0300 0.0290 0.0270 0.0250 0.0230
3.511163 0.0220 0.0220 0.0260 0.0590 0.1300
3.545000 0.2100 0.3830 0.4160 0.4510 0.4800
3.578163 0.5350 0.5470 0.5760 0.5990 0.6150
3.611000 0.6350 0.6440 0.6510 0.6600 0.6750
3.644163 0.6840 0.6840 0.6840 0.6830 0.6830
3.677000 0.6800 0.6790 0.6790 0.6800 0.6800
3.710163 0.6810 0.6830 0.6840 0.6870 0.6880
3.743000 0.6880 0.6890 0.6910 0.6910 0.6920
3.776163 0.6960 0.7000 0.7040 0.7070 0.7080
3.810000 0.7080 0.7080 0.7080 0.7110 0.7120
3.843163 0.7200 0.7210 0.7210 0.7210 0.7230
3.876000 0.7240 0.7240 0.7290 0.7320 0.7350
3.909163 0.7350 0.7360 0.7390 0.7430 0.7490
3.942000 0.7530 0.7540 0.7600 0.7620 0.7620
3.975163 0.7620 0.7620 0.7620 0.7620 0.7610
4.009000 0.7610 0.7600 0.7600 0.7600 0.7580
4.042163 0.7520 0.7440 0.7410 0.7410 0.7410
4.075000 0.7410 0.7430 0.7430 0.7440 0.7470
4.108163 0.7490 0.7580 0.7580 0.7580 0.7580
4.141000 0.7580 0.7580 0.7580 0.7580 0.7580
4.174163 0.7580 0.7580 0.7570 0.7570 0.7570
4.208000 0.7570 0.7560 0.7560 0.7560 0.7560
4.241163 0.7540 0.7540 0.7560 0.7570 0.7580
4.274000 0.7580 0.7600 0.7600 0.7610 0.7610
4.307163 0.7650 0.7650 0.7620 0.7580 0.7540
4.340000 0.7520 0.7500 0.7500 0.7500 0.7500
4.373163 0.7500 0.7500 0.7520 0.7520 0.7520
4.406000 0.7520 0.7520 0.7520 0.7520 0.7520
4.439163 0.7520 0.7520 0.7500 0.7500 0.7500
4.473000 0.7500 0.7520 0.7540 0.7560 0.7600
4.506163 0.7620 0.7650 0.7680 0.7690 0.7690
4.539000 0.7680 0.7680 0.7680 0.7680 0.7680
4.572163 0.7680 0.7690 0.7700 0.7700 0.7700
4.605000 0.7720 0.7740 0.7760 0.7760 0.7780
4.638163 0.7780 0.7800 0.7800 0.7800 0.7810
4.672000 0.7810 0.7810 0.7840 0.7940 0.7970
4.705163 0.7980 0.7980 0.8000 0.8000 0.8000
4.738000 0.8000 0.8000 0.8010 0.8020 0.8050
4.771163 0.8060 0.8060 0.8080 0.8090 0.8090
4.804000 0.8090 0.8090 0.8090 0.8090 0.8090
4.837163 0.8080 0.8080 0.8060 0.8060 0.8050
4.870000 0.8050 0.8050 0.8050 0.8050 0.8050
4.903163 0.8050 0.8050 0.8050 0.8050 0.8080
4.937000 0.8090 0.8090 0.8090 0.8090 0.8090
4.970163 0.8090 0.8090 0.8090 0.8090 0.8090
5.003000 0.8090 0.8090 0.8090 0.8060 0.8050
5.036163 0.8040 0.8020 0.8010 0.8010 0.8040
5.069000 0.8080 0.8090 0.8090 0.8100 0.8100
5.102163 0.8100 0.8100 0.8100 0.8100 0.8100
5.136000 0.8100 0.8100 0.8100 0.8100 0.8120
5.169163 0.8130 0.8130 0.8140 0.8160 0.8170
5.202000 0.8170 0.8170 0.8180 0.8200 0.8200
5.235163 0.8180 0.8140 0.8100 0.8100 0.8100
5.268000 0.8100 0.8100 0.8100 0.8120 0.8130
5.301163 0.8140 0.8140 0.8140 0.8130 0.8130
5.335000 0.8120 0.8100 0.8090 0.8050 0.8050
5.368163 0.8050 0.8050 0.8050 0.8080 0.8090
5.401000 0.8090 0.8060 0.8060 0.8040 0.8040
5.434163 0.8040 0.8020 0.8020 0.8010 0.8010
5.467000 0.8000 0.7980 0.7970 0.7940 0.7930
5.500163 0.7930 0.7930 0.7920 0.7920 0.7900
5.533000 0.7890 0.7850 0.7800 0.7780 0.7740
5.566163 0.7720 0.7720 0.7690 0.7650 0.7620
5.600000 0.7610 0.7570 0.7540 0.7540 0.7600
5.633163 0.7600 0.7580 0.7520 0.7500 0.7490
5.666000 0.7490 0.7490 0.7480 0.7440 0.7400
5.699163 0.7390 0.7330 0.7250 0.7200 0.7150
5.732000 0.7110 0.7030 0.7010 0.7010 0.6990
5.765163 0.6920 0.6880 0.6870 0.6840 0.6790
5.799000 0.6730 0.6730 0.6690 0.6640 0.6630
5.832163 0.6630 0.6610 0.6590 0.6510 0.6230
5.865000 0.6120 0.6080 0.6000 0.5920 0.5800
5.898163 0.5690 0.5600 0.5390 0.5290 0.5200
5.931000 0.5070 0.4830 0.4590 0.4340 0.4230
5.964163 0.4100 0.3900 0.3790 0.3590 0.3460
5.997000 0.3120 0.2700 0.2510 0.2490 0.2460
6.030163 0.2430 0.2410 0.2310 0.2220 0.2090
6.064000 0.1980 0.1660 0.1250 0.1090 0.0900
6.097163 0.0740 0.0590 0.0500 0.0380 0.0250
6.130000 0.0220 0.0150 0.0090 0.0090 0.0070
6.163163 0.0070 0.0070 0.0060 0.0060 0.0060
6.196000 0.0070 0.0070 0.0090 0.0100 0.0100
6.229163 0.0110 0.0110 0.0130 0.0140 0.0150
6.263000 0.0180 0.0190 0.0220 0.0290 0.0340
6.296163 0.0420 0.0630 0.0870 0.1030 0.1130
6.329000 0.1300 0.1350 0.1390 0.1430 0.1500
6.362163 0.1590 0.1650 0.1690 0.1810 0.1940
6.395000 0.2010 0.2100 0.2190 0.2250 0.2310
6.428163 0.2390 0.2420 0.2490 0.2600 0.2680
6.461000 0.2780 0.2820 0.2870 0.2940 0.3030
6.494163 0.3080 0.3120 0.3200 0.3260 0.3280
6.528000 0.3300 0.3350 0.3390 0.3390 0.3400
6.561163 0.3400 0.3390 0.3390 0.3360 0.3360
6.594000 0.3360 0.3350 0.3350 0.3350 0.3350
6.627163 0.3350 0.3350 0.3350 0.3350 0.3350
6.660000 0.3340 0.3320 0.3310 0.3310 0.3270
6.693163 0.3220 0.3080 0.3020 0.2990 0.2840
6.727000 0.2750 0.2560 0.2450 0.2330 0.2020
6.760163 0.1670 0.1290 0.1010 0.0820 0.0770
6.793000 0.0690 0.0460 0.0290 0.0230 0.0220
6.826163 0.0210 0.0190 0.0180 0.0170 0.0130
6.859000 0.0110 0.0110 0.0100 0.0100 0.0100
6.892163 0.0090 0.0090 0.0100 0.0100 0.0110
6.926000 0.0110 0.0130 0.0140 0.0140 0.0150
6.959163 0.0150 0.0170 0.0180 0.0190 0.0190
6.992000 0.0210 0.0210 0.0220 0.0220 0.0220
7.025163 0.0250 0.0380 0.0530 0.0660 0.0930
7.058000 0.1150 0.1290 0.1300 0.1340 0.1420
7.091163 0.1570 0.1690 0.1790 0.1900 0.2010
7.124000 0.2190 0.2210 0.2290 0.2310 0.2390
7.157163 0.2470 0.2510 0.2450 0.2380 0.2230
7.191000 0.2090 0.1980 0.1870 0.1750 0.1620
7.224163 0.1500 0.1470 0.1470 0.1610 0.1950
7.257000 0.2100 0.2250 0.2300 0.2370 0.2450
7.290163 0.2590 0.2700 0.2790 0.2820 0.2900
7.323000 0.2880 0.2870 0.2820 0.2680 0.2660
7.356163 0.2680 0.2990 0.3120 0.3230 0.3310
7.390000 0.3440 0.3670 0.3840 0.3900 0.4000
7.423163 0.4100 0.4120 0.4190 0.4240 0.4320
7.456000 0.4380 0.4420 0.4500 0.4510 0.4540
7.489163 0.4560 0.4590 0.4600 0.4620 0.4630
7.522000 0.4630 0.4660 0.4680 0.4720 0.4740
7.555163 0.4740 0.4740 0.4740 0.4750 0.4750
7.588000 0.4750 0.4760 0.4790 0.4800 0.4800
7.621163 0.4820 0.4830 0.4840 0.4840 0.4860
7.655000 0.4870 0.4900 0.4910 0.4950 0.4990
7.688163 0.5010 0.5050 0.5090 0.5110 0.5110
7.721000 0.5110 0.5120 0.5130 0.5160 0.5190
7.754163 0.5240 0.5290 0.5310 0.5320 0.5350
7.787000 0.5370 0.5400 0.5410 0.5430 0.5440
7.820163 0.5450 0.5450 0.5440 0.5430 0.5430
7.854000 0.5440 0.5470 0.5480 0.5520 0.5550
7.887163 0.5570 0.5590 0.5600 0.5630 0.5640
7.920000 0.5670 0.5680 0.5680 0.5690 0.5690
7.953163 0.5690 0.5690 0.5690 0.5690 0.5690
7.986000 0.5710 0.5720 0.5720 0.5720 0.5720
8.019163 0.5720 0.5750 0.5750 0.5760 0.5790
8.053000 0.5790 0.5800 0.5850 0.5890 0.5920
8.086163 0.5950 0.5960 0.5970 0.5970 0.5970
8.119000 0.5990 0.5990 0.6000 0.6000 0.6000
8.152163 0.6000 0.6000 0.5990 0.5990 0.5990
8.185000 0.5990 0.5990 0.5990 0.5990 0.6000
8.218163 0.6000 0.6000 0.6010 0.6010 0.6010
8.251000 0.6030 0.6030 0.6030 0.6030 0.6040
8.284163 0.6050 0.6080 0.6090 0.6110 0.6110
8.318000 0.6110 0.6110 0.6110 0.6120 0.6130
8.351163 0.6130 0.6130 0.6130 0.6150 0.6160
8.384000 0.6200 0.6200 0.6200 0.6190 0.6150
8.417163 0.6120 0.6120 0.6120 0.6120 0.6110
8.450000 0.6110 0.6110 0.6090 0.6090 0.6090
8.483163 0.6070 0.6030 0.6010 0.6000 0.5990
8.517000 0.5990 0.5990 0.5990 0.5970 0.5970
8.550163 0.5970 0.5970 0.5970 0.5970 0.5970
8.583000 0.5970 0.5990 0.5990 0.5990 0.5990
8.616163 0.5990 0.5990 0.5990 0.5990 0.5990
8.649000 0.5990 0.5990 0.5990 0.5990 0.5990
8.682163 0.5990 0.5990 0.5990 0.6000 0.6000
8.715000 0.6000 0.6000 0.6030 0.6030 0.6070
8.748163 0.6090 0.6090 0.6080 0.6080 0.6120
8.782000 0.6200 0.6210 0.6230 0.6240 0.6240
8.815163 0.6250 0.6250 0.6250 0.6250 0.6240
8.848000 0.6210 0.6200 0.6190 0.6190 0.6190
8.881163 0.6190 0.6190 0.6190 0.6190 0.6190
8.914000 0.6190 0.6190 0.6190 0.6190 0.6210
8.947163 0.6290 0.6360 0.6360 0.6360 0.6360
8.981000 0.6360 0.6370 0.6370 0.6390 0.6400
9.014163 0.6410 0.6410 0.6400 0.6370 0.6350
9.047000 0.6330 0.6320 0.6320 0.6330 0.6330
9.080163 0.6350 0.6370 0.6370 0.6370 0.6350
9.113000 0.6320 0.6320 0.6320 0.6310 0.6310
9.146163 0.6310 0.6310 0.6310 0.6320 0.6320
9.179000 0.6320 0.6320 0.6320 0.6320 0.6310
9.212163 0.6290 0.6290 0.6290 0.6310 0.6310
9.246000 0.6320 0.6320 0.6320 0.6320 0.6320
9.279163 0.6320 0.6310 0.6290 0.6280 0.6250
9.312000 0.6240 0.6210 0.6210 0.6190 0.6170
9.345163 0.6150 0.6150 0.6130 0.6090 0.6010
9.378000 0.5990 0.5950 0.5810 0.5670 0.5490
9.411163 0.5310 0.5110 0.4950 0.4790 0.4580
9.445000 0.4300 0.4120 0.4100 0.4040 0.4020
9.478163 0.4020 0.4030 0.4060 0.4110 0.4190
9.511000 0.4260 0.4350 0.4500 0.4600 0.4700
9.544163 0.4760 0.4800 0.4830 0.4840 0.4880
9.577000 0.4900 0.4900 0.4830 0.4660 0.4440
9.610163 0.4320 0.4060 0.3900 0.3800 0.3750
9.644000 0.3720 0.3760 0.3800 0.3960 0.4190
9.677163 0.4320 0.4550 0.4700 0.4780 0.4860
9.710000 0.4940 0.5200 0.5230 0.5400 0.5560
9.743163 0.5670 0.5730 0.5800 0.5830 0.5850
9.776000 0.5890 0.5890 0.5950 0.6030 0.6080
9.809163 0.6090 0.6110 0.6120 0.6150 0.6160
9.842000 0.6170 0.6170 0.6190 0.6190 0.6190
9.875163 0.6200 0.6240 0.6290 0.6310 0.6310
9.909000 0.6320 0.6320 0.6320 0.6320 0.6320
9.942163 0.6330 0.6360 0.6370 0.6370 0.6370
9.975000 0.6390 0.6400 0.6400 0.6410 0.6410
10.008163 0.6410 0.6430 0.6430 0.6430 0.6430
10.041000 0.6450 0.6490 0.6510 0.6510 0.6510
10.074163 0.6520 0.6520 0.6560 0.6590 0.6600
10.108000 0.6610 0.6610 0.6630 0.6640 0.6640
10.141163 0.6600 0.6550 0.6520 0.6520 0.6520
10.174000 0.6520 0.6520 0.6490 0.6470 0.6440
10.207163 0.6410 0.6410 0.6410 0.6410 0.6410
10.240000 0.6410 0.6400 0.6400 0.6400 0.6440
10.273163 0.6470 0.6480 0.6490 0.6490 0.6490
10.306000 0.6490 0.6490 0.6490 0.6490 0.6510
10.339163 0.6520 0.6520 0.6520 0.6520 0.6520
10.373000 0.6520 0.6530 0.6550 0.6550 0.6550
10.406163 0.6550 0.6550 0.6550 0.6550 0.6550
10.439000 0.6550 0.6550 0.6550 0.6560 0.6560
10.472163 0.6560 0.6560 0.6560 0.6560 0.6570
10.505000 0.6570 0.6600 0.6630 0.6630 0.6630
10.538163 0.6610 0.6600 0.6590 0.6590 0.6570
10.572000 0.6570 0.6510 0.6510 0.6510 0.6550
10.605163 0.6550 0.6590 0.6600 0.6600 0.6600
10.638000 0.6610 0.6610 0.6610 0.6610 0.6600
10.671163 0.6600 0.6600 0.6600 0.6590 0.6590
10.704000 0.6570 0.6570 0.6570 0.6570 0.6590
10.737163 0.6600 0.6610 0.6670 0.6680 0.6690
10.771000 0.6690 0.6690 0.6690 0.6730 0.6790
10.804163 0.6790 0.6790 0.6790 0.6790 0.6790
10.837000 0.6790 0.6800 0.6800 0.6790 0.6790
10.870163 0.6790 0.6790 0.6800 0.6850 0.6850
10.903000 0.6850 0.6840 0.6830 0.6810 0.6810
10.936163 0.6810 0.6830 0.6840 0.6840 0.6840
10.969000 0.6850 0.6850 0.6870 0.6880 0.6910
11.002163 0.6920 0.6920 0.6920 0.6920 0.6930
11.036000 0.6930 0.6950 0.6950 0.6950 0.6950
11.069163 0.6930 0.6910 0.6910 0.6910 0.6910
11.102000 0.6910 0.6910 0.6920 0.6930 0.6950
11.135163 0.6950 0.6950 0.6910 0.6890 0.6890
11.168000 0.6890 0.6910 0.6930 0.6930 0.6930
11.201163 0.6930 0.6930 0.6930 0.6930 0.6920
11.235000 0.6920 0.6930 0.6970 0.7000 0.7030
11.268163 0.7040 0.7070 0.7080 0.7080 0.7080
11.301000 0.7080 0.7080 0.7090 0.7090 0.7090
11.334163 0.7090 0.7080 0.7070 0.7030 0.7000
11.367000 0.7000 0.7000 0.7000 0.7000 0.7040
11.400163 0.7080 0.7080 0.7080 0.7070 0.7070
11.433000 0.7050 0.7040 0.7040 0.7050 0.7050
11.466163 0.7050 0.7040 0.7040 0.7040 0.7050
11.500000 0.7050 0.7050 0.7050 0.7050 0.7050
11.533163 0.7050 0.7070 0.7070 0.7070 0.7070
11.566000 0.7070 0.7070 0.7080 0.7080 0.7090
11.599163 0.7090 0.7090 0.7080 0.7080 0.7080
11.632000 0.7080 0.7080 0.7080 0.7080 0.7080
11.665163 0.7070 0.7050 0.7050 0.7050 0.7050
11.699000 0.7050 0.7050 0.7050 0.7050 0.7040
11.732163 0.7040 0.7040 0.7040 0.7050 0.7050
11.765000 0.7050 0.7050 0.7070 0.7080 0.7080
11.798163 0.7080 0.7080 0.7080 0.7080 0.7080
11.831000 0.7090 0.7090 0.7090 0.7090 0.7090
11.864163 0.7090 0.7090 0.7090 0.7110 0.7110
11.898000 0.7120 0.7130 0.7130 0.7130 0.7130
11.931163 0.7130 0.7130 0.7130 0.7130 0.7130
11.964000 0.7050 0.7050 0.7050 0.7050 0.7050
11.997163 0.7080 0.7090 0.7110 0.7110 0.7120
12.030000 0.7120 0.7120 0.7130 0.7130 0.7130
12.063163 0.7130 0.7150 0.7150 0.7150 0.7150
12.096000 0.7160 0.7190 0.7190 0.7190 0.7190
12.129163 0.7250 0.7250 0.7240 0.7200 0.7170
12.163000 0.7160 0.7170 0.7170 0.7190 0.7190
12.196163 0.7230 0.7230 0.7200 0.7190 0.7190
12.229000 0.7190 0.7190 0.7210 0.7210 0.7190
12.262163 0.7160 0.7160 0.7160 0.7160 0.7190
12.295000 0.7210 0.7210 0.7210 0.7200 0.7200
12.328163 0.7200 0.7200 0.7200 0.7200 0.7200
12.362000 0.7200 0.7200 0.7190 0.7190 0.7190
12.395163 0.7190 0.7190 0.7190 0.7200 0.7200
12.428000 0.7200 0.7200 0.7210 0.7210 0.7210
12.461163 0.7230 0.7210 0.7210 0.7210 0.7210
12.494000 0.7210 0.7210 0.7210 0.7210 0.7210
12.527163 0.7200 0.7190 0.7190 0.7190 0.7190
12.560000 0.7190 0.7190 0.7190 0.7170 0.7160
12.593163 0.7160 0.7160 0.7160 0.7160 0.7160
12.627000 0.7160 0.7160 0.7150 0.7150 0.7130
12.660163 0.7130 0.7120 0.7110 0.7110 0.7090
12.693000 0.7080 0.7080 0.7080 0.7070 0.7070
12.726163 0.7070 0.7050 0.7050 0.7050 0.7050
12.759000 0.7040 0.7040 0.7040 0.7030 0.7010
12.792163 0.7000 0.6990 0.6990 0.6990 0.6990
12.826000 0.6970 0.6970 0.6970 0.6970 0.6970
12.859163 0.6970 0.6970 0.6970 0.6960 0.6960
12.892000 0.6930 0.6910 0.6910 0.6910 0.6910
12.925163 0.6910 0.6910 0.6910 0.6910 0.6880
12.958000 0.6880 0.6830 0.6810 0.6810 0.6800
12.991163 0.6800 0.6800 0.6800 0.6800 0.6810
13.024000 0.6830 0.6840 0.6840 0.6870 0.6880
13.057163 0.6880 0.6880 0.6850 0.6850 0.6850
13.091000 0.6840 0.6840 0.6840 0.6840 0.6840
13.124163 0.6830 0.6790 0.6760 0.6730 0.6730
13.157000 0.6730 0.6720 0.6710 0.6710 0.6710
13.190163 0.6710 0.6730 0.6730 0.6720 0.6710
13.223000 0.6690 0.6690 0.6690 0.6690 0.6680
13.256163 0.6670 0.6650 0.6650 0.6650 0.6640
13.290000 0.6630 0.6590 0.6590 0.6590 0.6570
13.323163 0.6560 0.6550 0.6490 0.6470 0.6450
13.356000 0.6430 0.6430 0.6430 0.6410 0.6400
13.389163 0.6390 0.6390 0.6390 0.6390 0.6370
13.422000 0.6360 0.6360 0.6350 0.6330 0.6320
13.455163 0.6290 0.6230 0.6190 0.6160 0.6110
13.489000 0.6080 0.6050 0.6000 0.5990 0.5970
13.522163 0.5970 0.5960 0.5960 0.5960 0.5960
13.555000 0.5960 0.5950 0.5950 0.5950 0.5930
13.588163 0.5910 0.5880 0.5840 0.5830 0.5810
13.621000 0.5800 0.5800 0.5800 0.5790 0.5770
13.654163 0.5730 0.5720 0.5690 0.5680 0.5680
13.687000 0.5680 0.5680 0.5670 0.5670 0.5650
13.720163 0.5640 0.5630 0.5550 0.5470 0.5450
13.754000 0.5390 0.5350 0.5310 0.5310 0.5290
13.787163 0.5280 0.5280 0.5270 0.5270 0.5250
13.820000 0.5240 0.5240 0.5240 0.5230 0.5230
13.853163 0.5230 0.5210 0.5200 0.5200 0.5200
13.886000 0.5190 0.5170 0.5150 0.5130 0.5130
13.919163 0.5130 0.5120 0.5120 0.5120 0.5120
13.953000 0.5120 0.5110 0.5090 0.5080 0.5070
13.986163 0.5050 0.5010 0.5000 0.4990 0.4990
14.019000 0.4920 0.4840 0.4760 0.4680 0.4670
14.052163 0.4660 0.4640 0.4620 0.4600 0.4580
14.085000 0.4480 0.4380 0.4300 0.4230 0.4190
14.118163 0.4080 0.4070 0.4040 0.3980 0.3800
14.151000 0.3710 0.3680 0.3520 0.3470 0.3360
14.184163 0.3340 0.3200 0.3100 0.3000 0.2880
14.218000 0.2780 0.2760 0.2660 0.2520 0.2470
14.251163 0.2420 0.2300 0.2220 0.2180 0.2090
14.284000 0.1890 0.1830 0.1710 0.1670 0.1610
14.317163 0.1510 0.1500 0.1470 0.1410 0.1340
14.350000 0.1290 0.1180 0.1150 0.1150 0.1140
14.383163 0.1130 0.1110 0.1100 0.1100 0.1100
14.417000 0.1100 0.1100 0.1100 0.1110 0.1110
14.450163 0.1130 0.1130 0.1140 0.1140 0.1170
14.483000 0.1190 0.1250 0.1260 0.1270 0.1290
14.516163 0.1300 0.1380 0.1380 0.1490 0.1510
14.549000 0.1540 0.1580 0.1610 0.1620 0.1630
14.582163 0.1660 0.1910 0.1990 0.2180 0.2290
14.616000 0.2430 0.2580 0.2670 0.2680 0.2790
14.649163 0.2880 0.2900 0.3080 0.3100 0.3110
14.682000 0.3270 0.3390 0.3520 0.3680 0.3710
14.715163 0.3780 0.3840 0.3900 0.3960 0.4030
14.748000 0.4110 0.4160 0.4230 0.4310 0.4380
14.781163 0.4390 0.4430 0.4510 0.4590 0.4600
14.814000 0.4680 0.4700 0.4710 0.4750 0.4870
14.847163 0.4910 0.4920 0.4990 0.5080 0.5110
14.881000 0.5170 0.5290 0.5370 0.5390 0.5430
14.914163 0.5480 0.5480 0.5490 0.5490 0.5480
14.947000 0.5370 0.5320 0.5320 0.5320 0.5320
14.980163 0.5390 0.5430 0.5470 0.5490 0.5490
15.013000 0.5510 0.5590 0.5590 0.5640 0.5650
15.046163 0.5650 0.5650 0.5670 0.5690 0.5710
15.080000 0.5720 0.5720 0.5730 0.5730 0.5750
15.113163 0.5800 0.5810 0.5810 0.5810 0.5810
15.146000 0.5810 0.5810 0.5830 0.5840 0.5870
15.179163 0.5880 0.5890 0.5910 0.5910 0.5910
15.212000 0.5910 0.5890 0.5890 0.5880 0.5880
15.245163 0.5870 0.5870 0.5850 0.5850 0.5850
15.278000 0.5850 0.5850
##END=
