##TITLE=BENZENEBORONIC ACID, m-AMINO-,HYDROGEN SULFATE
##JCAMP-DX=4.24
##DATA TYPE=INFRARED SPECTRUM
##CLASS=COBLENTZ III
##ORIGIN=DOW CHEMICAL COMPANY
##OWNER=COBLENTZ SOC.
Collection (C) 2018 copyright by the U.S. Secretary of Commerce
on behalf of the United States of America. All rights reserved.
##DATE=1965/07/01
##NAMES=3-aminophenylboronic acid compound with sulfuric acid (1:1)
##MOLFORM=C6 H10 B N O6 S
##SOURCE REFERENCE=COBLENTZ NO. 06692
##$NIST ID=B6006692
##$NIST SOURCE=COBLENTZ
##$NIST IMAGE=cob6692
##SPECTROMETER/DATA SYSTEM=DOW KBr FOREPRISM-GRATING
##INSTRUMENT PARAMETERS=BLAZED AT 3.5, 12.0, 20.0 MICRON AND CHANGED AT 5.0, 7.5, 14.9 MICRON
##STATE=SOLID (SPLIT MULL)
##SAMPLING PROCEDURE=TRANSMISSION
##RESOLUTION=2
$$ SPECTRAL FEATURE AT 1995 CM^-^1 IS AN ARTIFACT CAUSED BY GRATING CHANGE
##DATA PROCESSING=DIGITIZED BY COBLENTZ SOCIETY (BATCH I) FROM HARD COPY
##XUNITS=1/CM
##YUNITS=TRANSMITTANCE
##XLABEL=Wavenumbers (cm-1)
##YLABEL=% Transmission
##XFACTOR=1
##YFACTOR=1
##DELTAX=1
##FIRSTX=458
##LASTX=3800
##FIRSTY=0.8642
##MAXX=3800
##MINX=458
##MAXY=1.0033
##MINY=0.0212
##NPOINTS=3343
##XYDATA=(X++(Y..Y))
458.000000 0.8642 0.8644 0.8645 0.8646 0.8646
463.000000 0.8645 0.8641 0.8637 0.8633 0.8625
468.000000 0.8615 0.8604 0.8592 0.8581 0.8566
473.000000 0.8544 0.8523 0.8501 0.8473 0.8432
478.000000 0.8392 0.8352 0.8295 0.8227 0.8078
483.000000 0.7810 0.7541 0.7272 0.7005 0.6737
488.000000 0.6468 0.6308 0.6337 0.6346 0.6830
493.000000 0.7414 0.7998 0.8581 0.9165 0.9508
498.000000 0.9555 0.9574 0.9593 0.9592 0.9585
503.000000 0.9587 0.9578 0.9568 0.9548 0.9513
508.000000 0.9380 0.9178 0.8978 0.8778 0.8577
513.000000 0.8377 0.8343 0.8355 0.8436 0.8806
518.000000 0.9208 0.9609 0.9720 0.9725 0.9736
523.000000 0.9728 0.9717 0.9697 0.9477 0.9168
528.000000 0.8859 0.8549 0.8240 0.7931 0.7621
533.000000 0.7311 0.7003 0.6694 0.6384 0.6248
538.000000 0.6252 0.6633 0.8960 0.9433 0.9671
543.000000 0.9792 0.9838 0.9884 0.9930 0.9965
548.000000 0.9982 1.0000 1.0018 1.0033 1.0032
553.000000 1.0031 1.0030 1.0028 1.0025 1.0006
558.000000 0.9993 0.9981 0.9968 0.9944 0.9916
563.000000 0.9889 0.9850 0.9792 0.9735 0.9656
568.000000 0.9568 0.9439 0.9160 0.8881 0.8601
573.000000 0.8321 0.8042 0.7850 0.7886 0.7912
578.000000 0.8187 0.8623 0.9058 0.9445 0.9511
583.000000 0.9540 0.9558 0.9559 0.9560 0.9561
588.000000 0.9545 0.9554 0.9542 0.9525 0.9494
593.000000 0.9436 0.9345 0.9196 0.8992 0.8803
598.000000 0.8678 0.8586 0.8571 0.8700 0.8698
603.000000 0.8690 0.8668 0.8598 0.8382 0.7917
608.000000 0.7426 0.6937 0.6447 0.5956 0.4810
613.000000 0.4557 0.4542 0.4683 0.4871 0.5059
618.000000 0.5073 0.4747 0.4420 0.4094 0.3768
623.000000 0.3442 0.3116 0.2789 0.2463 0.2284
628.000000 0.2154 0.2099 0.2141 0.2172 0.2682
633.000000 0.3308 0.3932 0.4559 0.5184 0.5809
638.000000 0.6435 0.7060 0.7686 0.8271 0.8504
643.000000 0.8654 0.8725 0.8796 0.8833 0.8883
648.000000 0.8865 0.8873 0.8807 0.8718 0.8628
653.000000 0.8540 0.8446 0.8463 0.8725 0.9065
658.000000 0.9271 0.9303 0.9327 0.9350 0.9370
663.000000 0.9389 0.9408 0.9413 0.9417 0.9420
668.000000 0.9421 0.9417 0.9385 0.9411 0.9401
673.000000 0.9388 0.9375 0.9357 0.9339 0.9320
678.000000 0.9298 0.9262 0.9189 0.9123 0.9064
683.000000 0.9002 0.8936 0.8825 0.8624 0.8424
688.000000 0.8223 0.8022 0.7821 0.7740 0.7688
693.000000 0.7633 0.7541 0.7456 0.7350 0.7199
698.000000 0.6698 0.4820 0.2679 0.1025 0.1027
703.000000 0.1045 0.1042 0.1457 0.1973 0.2488
708.000000 0.3003 0.3518 0.4034 0.4549 0.5065
713.000000 0.5580 0.6096 0.6611 0.6764 0.6760
718.000000 0.6747 0.6741 0.6691 0.6597 0.6533
723.000000 0.6488 0.6458 0.6439 0.6419 0.6411
728.000000 0.6377 0.6289 0.6185 0.6087 0.6010
733.000000 0.5934 0.5868 0.5797 0.5712 0.5680
738.000000 0.5688 0.5675 0.5703 0.5744 0.5791
743.000000 0.5896 0.6000 0.6105 0.6210 0.6315
748.000000 0.6419 0.6524 0.6628 0.6782 0.6928
753.000000 0.7188 0.7435 0.7569 0.7658 0.7739
758.000000 0.7808 0.7867 0.7925 0.7971 0.8015
763.000000 0.8060 0.8097 0.8124 0.8150 0.8176
768.000000 0.8203 0.8228 0.8251 0.8275 0.8299
773.000000 0.8323 0.8347 0.8378 0.8410 0.8442
778.000000 0.8473 0.8505 0.8541 0.8578 0.8617
783.000000 0.8654 0.8692 0.8731 0.8768 0.8808
788.000000 0.8837 0.8860 0.8883 0.8886 0.8862
793.000000 0.8865 0.8838 0.8807 0.8766 0.8718
798.000000 0.8523 0.8299 0.8074 0.7850 0.7625
803.000000 0.7401 0.7176 0.7054 0.7021 0.6995
808.000000 0.6974 0.6017 0.4668 0.4003 0.4736
813.000000 0.6227 0.7718 0.9265 0.9351 0.9428
818.000000 0.9499 0.9543 0.9587 0.9615 0.9643
823.000000 0.9659 0.9673 0.9681 0.9687 0.9709
828.000000 0.9696 0.9694 0.9693 0.9686 0.9678
833.000000 0.9671 0.9664 0.9657 0.9649 0.9644
838.000000 0.9639 0.9634 0.9628 0.9621 0.9614
843.000000 0.9607 0.9600 0.9592 0.9583 0.9573
848.000000 0.9564 0.9555 0.9545 0.9536 0.9527
853.000000 0.9517 0.9507 0.9498 0.9488 0.9478
858.000000 0.9468 0.9459 0.9450 0.9441 0.9432
863.000000 0.9424 0.9415 0.9404 0.9386 0.9360
868.000000 0.9328 0.9296 0.9109 0.8903 0.8698
873.000000 0.8446 0.8478 0.8478 0.8571 0.8774
878.000000 0.8896 0.8906 0.8908 0.8909 0.8893
883.000000 0.8885 0.8865 0.8840 0.8796 0.8737
888.000000 0.8674 0.8610 0.8545 0.8478 0.8412
893.000000 0.8321 0.8233 0.8149 0.8085 0.8011
898.000000 0.7753 0.7495 0.6995 0.7015 0.7021
903.000000 0.7074 0.7126 0.7147 0.7138 0.7153
908.000000 0.7100 0.7026 0.6924 0.6840 0.6798
913.000000 0.6768 0.6751 0.6740 0.6743 0.6733
918.000000 0.6775 0.6798 0.6838 0.7065 0.7506
923.000000 0.7718 0.7712 0.7681 0.7647 0.7611
928.000000 0.7578 0.7556 0.7561 0.7680 0.7906
933.000000 0.8097 0.8205 0.8312 0.8533 0.8675
938.000000 0.8756 0.8800 0.8836 0.8854 0.8871
943.000000 0.8890 0.8898 0.8904 0.8910 0.8910
948.000000 0.8910 0.8910 0.8921 0.8901 0.8892
953.000000 0.8884 0.8866 0.8842 0.8817 0.8749
958.000000 0.8667 0.8575 0.8482 0.8327 0.8164
963.000000 0.7998 0.7557 0.7085 0.6614 0.6143
968.000000 0.5901 0.5937 0.6399 0.6831 0.7261
973.000000 0.7694 0.8125 0.8411 0.8458 0.8475
978.000000 0.8491 0.8460 0.8440 0.8409 0.8377
983.000000 0.8343 0.8309 0.8274 0.8231 0.8189
988.000000 0.8125 0.8025 0.7318 0.7078 0.7018
993.000000 0.7008 0.7024 0.7297 0.7468 0.7468
998.000000 0.7458 0.7368 0.7246 0.7172 0.7049
1003.000000 0.6853 0.6658 0.6462 0.6377 0.6351
1008.000000 0.6329 0.6309 0.6235 0.5931 0.5826
1013.000000 0.5721 0.5075 0.4882 0.4688 0.4431
1018.000000 0.4154 0.3954 0.3759 0.3557 0.3350
1023.000000 0.3145 0.2949 0.2754 0.2559 0.2374
1028.000000 0.2191 0.1986 0.1690 0.1511 0.1358
1033.000000 0.1274 0.1190 0.1131 0.1100 0.1096
1038.000000 0.1059 0.1137 0.1184 0.1232 0.1280
1043.000000 0.1328 0.1390 0.1463 0.1535 0.1615
1048.000000 0.1701 0.1787 0.1851 0.1914 0.1944
1053.000000 0.1961 0.1957 0.1953 0.1937 0.1844
1058.000000 0.1749 0.1674 0.1618 0.1549 0.1584
1063.000000 0.1596 0.1610 0.1622 0.1634 0.1648
1068.000000 0.1661 0.1674 0.1685 0.1699 0.1712
1073.000000 0.1725 0.1736 0.1750 0.1763 0.1776
1078.000000 0.1789 0.1811 0.1834 0.1856 0.1879
1083.000000 0.1901 0.1927 0.1962 0.1996 0.2034
1088.000000 0.2075 0.2115 0.2156 0.2217 0.2291
1093.000000 0.2413 0.2550 0.2692 0.2733 0.2773
1098.000000 0.2811 0.2841 0.2854 0.2843 0.2830
1103.000000 0.2814 0.2796 0.2773 0.2732 0.2675
1108.000000 0.2576 0.2485 0.2414 0.2352 0.2291
1113.000000 0.2260 0.2256 0.2274 0.2295 0.2314
1118.000000 0.2323 0.2328 0.2332 0.2326 0.2320
1123.000000 0.2310 0.2295 0.2267 0.2235 0.2205
1128.000000 0.2172 0.2139 0.2106 0.2073 0.2041
1133.000000 0.2023 0.2020 0.2003 0.2031 0.2055
1138.000000 0.2092 0.2142 0.2211 0.2294 0.2477
1143.000000 0.2840 0.3116 0.3205 0.3248 0.3248
1148.000000 0.3256 0.3223 0.3180 0.3108 0.3041
1153.000000 0.2960 0.2867 0.2775 0.2683 0.2591
1158.000000 0.2498 0.2406 0.2314 0.2222 0.2130
1163.000000 0.2035 0.1929 0.1872 0.1861 0.1854
1168.000000 0.1850 0.1845 0.1844 0.1781 0.1640
1173.000000 0.1512 0.1411 0.1332 0.1263 0.1209
1178.000000 0.1199 0.1219 0.1191 0.1221 0.1300
1183.000000 0.1379 0.1458 0.1537 0.1615 0.1694
1188.000000 0.1773 0.1852 0.1931 0.1994 0.2046
1193.000000 0.2117 0.2201 0.2297 0.2419 0.2587
1198.000000 0.2792 0.2937 0.3064 0.3226 0.3434
1203.000000 0.4041 0.4162 0.4137 0.4148 0.4123
1208.000000 0.4030 0.3938 0.3846 0.3753 0.3743
1213.000000 0.3766 0.3998 0.4219 0.4440 0.4660
1218.000000 0.4881 0.5102 0.5322 0.5559 0.5962
1223.000000 0.6172 0.6322 0.6465 0.6525 0.6571
1228.000000 0.6611 0.6580 0.6574 0.6521 0.6436
1233.000000 0.6356 0.6269 0.6180 0.6090 0.5900
1238.000000 0.5691 0.5481 0.5271 0.5060 0.4852
1243.000000 0.4642 0.4432 0.4223 0.4012 0.3803
1248.000000 0.3598 0.3586 0.3589 0.3606 0.3857
1253.000000 0.4190 0.4433 0.4643 0.4854 0.5065
1258.000000 0.5276 0.5487 0.5697 0.5908 0.6119
1263.000000 0.6330 0.6761 0.7411 0.7492 0.7512
1268.000000 0.7524 0.7518 0.7508 0.7492 0.7458
1273.000000 0.7397 0.7315 0.7215 0.7078 0.6921
1278.000000 0.6605 0.6290 0.5974 0.5659 0.5343
1283.000000 0.5259 0.5260 0.5524 0.5832 0.6141
1288.000000 0.6449 0.6471 0.6453 0.6421 0.6384
1293.000000 0.6367 0.6387 0.6461 0.6576 0.6665
1298.000000 0.6701 0.6735 0.6742 0.6682 0.6726
1303.000000 0.6675 0.6586 0.6436 0.6214 0.5960
1308.000000 0.5748 0.5571 0.5446 0.5341 0.5260
1313.000000 0.5188 0.5136 0.5084 0.4855 0.4479
1318.000000 0.4102 0.3725 0.3348 0.2971 0.2595
1323.000000 0.2208 0.1870 0.1611 0.1184 0.0800
1328.000000 0.0579 0.0475 0.0373 0.0305 0.0252
1333.000000 0.0232 0.0222 0.0216 0.0215 0.0212
1338.000000 0.0241 0.0257 0.0314 0.0432 0.0682
1343.000000 0.0960 0.1033 0.1058 0.1057 0.1057
1348.000000 0.1052 0.1030 0.0981 0.0872 0.0718
1353.000000 0.0593 0.0544 0.0497 0.0469 0.0443
1358.000000 0.0425 0.0421 0.0389 0.0439 0.0455
1363.000000 0.0505 0.0560 0.0662 0.0758 0.0892
1368.000000 0.1059 0.1225 0.1392 0.1558 0.1724
1373.000000 0.1837 0.1910 0.2004 0.2100 0.2194
1378.000000 0.2288 0.2385 0.2465 0.2538 0.2570
1383.000000 0.2601 0.2622 0.2631 0.2640 0.2638
1388.000000 0.2629 0.2617 0.2604 0.2594 0.2591
1393.000000 0.2615 0.2666 0.2744 0.2835 0.2915
1398.000000 0.2974 0.3001 0.3021 0.3042 0.3060
1403.000000 0.3073 0.3087 0.3100 0.3117 0.3134
1408.000000 0.3156 0.3200 0.3387 0.3727 0.4023
1413.000000 0.4284 0.4600 0.4759 0.5025 0.5271
1418.000000 0.5373 0.5448 0.5510 0.5522 0.5535
1423.000000 0.5515 0.5479 0.5410 0.5339 0.5252
1428.000000 0.5143 0.4969 0.4783 0.4668 0.4534
1433.000000 0.4379 0.4228 0.4080 0.3832 0.3203
1438.000000 0.2574 0.1944 0.1316 0.1117 0.1121
1443.000000 0.1188 0.1255 0.1322 0.1324 0.1242
1448.000000 0.1161 0.1095 0.1110 0.1325 0.1701
1453.000000 0.2077 0.2453 0.2829 0.3205 0.3580
1458.000000 0.3957 0.4128 0.4119 0.4101 0.4102
1463.000000 0.4103 0.4396 0.4731 0.5066 0.5401
1468.000000 0.5736 0.6071 0.6406 0.6742 0.6980
1473.000000 0.7690 0.7888 0.7999 0.8094 0.8161
1478.000000 0.8209 0.8218 0.8225 0.8221 0.8217
1483.000000 0.8200 0.8239 0.8155 0.8106 0.8042
1488.000000 0.7768 0.7482 0.7194 0.6907 0.6618
1493.000000 0.6331 0.6044 0.5756 0.5489 0.5502
1498.000000 0.5496 0.5674 0.6040 0.6405 0.6771
1503.000000 0.7136 0.7221 0.7255 0.7268 0.7271
1508.000000 0.7283 0.7208 0.7048 0.6869 0.6692
1513.000000 0.6512 0.6335 0.6157 0.5979 0.5800
1518.000000 0.5622 0.5444 0.5266 0.5093 0.4992
1523.000000 0.4895 0.4799 0.4704 0.4597 0.4488
1528.000000 0.4362 0.4205 0.4041 0.3829 0.3594
1533.000000 0.3464 0.3360 0.3275 0.3223 0.3198
1538.000000 0.3177 0.3392 0.3757 0.4122 0.4487
1543.000000 0.4751 0.4894 0.5317 0.5571 0.5888
1548.000000 0.6056 0.6234 0.6412 0.6594 0.6736
1553.000000 0.6867 0.6972 0.7058 0.7144 0.7230
1558.000000 0.7351 0.7487 0.7591 0.7675 0.7741
1563.000000 0.7801 0.7847 0.7891 0.7936 0.7978
1568.000000 0.8022 0.8056 0.8085 0.8103 0.8115
1573.000000 0.8114 0.8105 0.8106 0.8097 0.8084
1578.000000 0.8058 0.8033 0.7993 0.7945 0.7876
1583.000000 0.7801 0.7780 0.7780 0.7780 0.7790
1588.000000 0.7811 0.7832 0.7815 0.7789 0.7761
1593.000000 0.7728 0.7697 0.7660 0.7619 0.7581
1598.000000 0.7544 0.7507 0.7469 0.7437 0.7406
1603.000000 0.7394 0.7385 0.7391 0.7397 0.7410
1608.000000 0.7422 0.7434 0.7444 0.7438 0.7418
1613.000000 0.7390 0.7349 0.7303 0.7251 0.7197
1618.000000 0.7139 0.7084 0.7032 0.7007 0.7010
1623.000000 0.7017 0.7047 0.7089 0.7158 0.7219
1628.000000 0.7258 0.7257 0.7253 0.7193 0.7111
1633.000000 0.6985 0.6858 0.6731 0.6603 0.6475
1638.000000 0.6349 0.6239 0.6208 0.6231 0.6289
1643.000000 0.6464 0.6615 0.6818 0.7026 0.7235
1648.000000 0.7444 0.7651 0.7815 0.7925 0.8056
1653.000000 0.8164 0.8250 0.8332 0.8411 0.8523
1658.000000 0.8625 0.8715 0.8804 0.8894 0.8980
1663.000000 0.9064 0.9138 0.9205 0.9271 0.9321
1668.000000 0.9371 0.9407 0.9433 0.9460 0.9486
1673.000000 0.9510 0.9525 0.9542 0.9558 0.9574
1678.000000 0.9587 0.9596 0.9606 0.9615 0.9625
1683.000000 0.9634 0.9644 0.9650 0.9656 0.9662
1688.000000 0.9667 0.9673 0.9678 0.9683 0.9689
1693.000000 0.9694 0.9699 0.9703 0.9705 0.9708
1698.000000 0.9710 0.9713 0.9716 0.9717 0.9716
1703.000000 0.9716 0.9715 0.9714 0.9713 0.9713
1708.000000 0.9712 0.9711 0.9709 0.9703 0.9697
1713.000000 0.9691 0.9685 0.9675 0.9663 0.9650
1718.000000 0.9636 0.9623 0.9610 0.9595 0.9580
1723.000000 0.9566 0.9555 0.9545 0.9544 0.9525
1728.000000 0.9553 0.9566 0.9589 0.9615 0.9641
1733.000000 0.9668 0.9701 0.9723 0.9739 0.9755
1738.000000 0.9771 0.9786 0.9800 0.9815 0.9827
1743.000000 0.9834 0.9841 0.9847 0.9850 0.9852
1748.000000 0.9855 0.9855 0.9855 0.9855 0.9854
1753.000000 0.9850 0.9847 0.9843 0.9839 0.9889
1758.000000 0.9828 0.9820 0.9812 0.9804 0.9793
1763.000000 0.9780 0.9766 0.9752 0.9739 0.9720
1768.000000 0.9699 0.9677 0.9656 0.9635 0.9614
1773.000000 0.9583 0.9553 0.9535 0.9535 0.9536
1778.000000 0.9524 0.9545 0.9552 0.9566 0.9581
1783.000000 0.9597 0.9615 0.9636 0.9651 0.9660
1788.000000 0.9667 0.9673 0.9680 0.9687 0.9693
1793.000000 0.9699 0.9705 0.9710 0.9716 0.9721
1798.000000 0.9725 0.9728 0.9734 0.9738 0.9743
1803.000000 0.9748 0.9753 0.9757 0.9760 0.9761
1808.000000 0.9763 0.9765 0.9766 0.9767 0.9767
1813.000000 0.9768 0.9768 0.9768 0.9768 0.9765
1818.000000 0.9761 0.9757 0.9754 0.9750 0.9747
1823.000000 0.9743 0.9738 0.9733 0.9790 0.9724
1828.000000 0.9718 0.9714 0.9710 0.9706 0.9702
1833.000000 0.9697 0.9693 0.9689 0.9685 0.9681
1838.000000 0.9675 0.9671 0.9671 0.9673 0.9674
1843.000000 0.9675 0.9675 0.9678 0.9689 0.9700
1848.000000 0.9710 0.9720 0.9730 0.9725 0.9721
1853.000000 0.9716 0.9710 0.9702 0.9694 0.9691
1858.000000 0.9689 0.9686 0.9685 0.9685 0.9689
1863.000000 0.9692 0.9693 0.9693 0.9694 0.9691
1868.000000 0.9689 0.9687 0.9685 0.9682 0.9678
1873.000000 0.9675 0.9673 0.9670 0.9667 0.9664
1878.000000 0.9661 0.9658 0.9653 0.9649 0.9644
1883.000000 0.9640 0.9635 0.9631 0.9624 0.9616
1888.000000 0.9609 0.9602 0.9595 0.9588 0.9581
1893.000000 0.9571 0.9562 0.9551 0.9541 0.9531
1898.000000 0.9512 0.9493 0.9473 0.9452 0.9427
1903.000000 0.9402 0.9377 0.9349 0.9316 0.9283
1908.000000 0.9250 0.9207 0.9164 0.9151 0.9121
1913.000000 0.9177 0.9191 0.9205 0.9223 0.9242
1918.000000 0.9262 0.9291 0.9320 0.9346 0.9371
1923.000000 0.9392 0.9412 0.9425 0.9423 0.9421
1928.000000 0.9438 0.9410 0.9403 0.9396 0.9389
1933.000000 0.9383 0.9377 0.9371 0.9365 0.9355
1938.000000 0.9346 0.9337 0.9328 0.9320 0.9311
1943.000000 0.9303 0.9296 0.9284 0.9273 0.9261
1948.000000 0.9250 0.9235 0.9218 0.9201 0.9184
1953.000000 0.9167 0.9155 0.9156 0.9165 0.9174
1958.000000 0.9180 0.9168 0.9153 0.9130 0.9098
1963.000000 0.9065 0.9038 0.9012 0.8986 0.8965
1968.000000 0.8945 0.8924 0.8906 0.8888 0.8871
1973.000000 0.8853 0.8835 0.8818 0.8801 0.8783
1978.000000 0.8766 0.8749 0.8732 0.8715 0.8698
1983.000000 0.8681 0.8664 0.8647 0.8630 0.8610
1988.000000 0.8588 0.8565 0.8541 0.8495 0.8440
1993.000000 0.8382 0.8348 0.8318 0.8375 0.8471
1998.000000 0.8568 0.8664 0.8761 0.8857 0.8954
2003.000000 0.9002 0.9051 0.9066 0.9082 0.9077
2008.000000 0.9071 0.9066 0.9061 0.9055 0.9049
2013.000000 0.9042 0.9035 0.9028 0.9021 0.9015
2018.000000 0.9010 0.9004 0.8999 0.8993 0.8988
2023.000000 0.8984 0.8981 0.8977 0.8973 0.8968
2028.000000 0.8965 0.8961 0.8958 0.8955 0.8952
2033.000000 0.8948 0.8945 0.8942 0.8940 0.8939
2038.000000 0.8939 0.8939 0.8939 0.8938 0.8938
2043.000000 0.8938 0.8938 0.8937 0.8937 0.8938
2048.000000 0.8939 0.8941 0.8944 0.8947 0.8950
2053.000000 0.8953 0.8956 0.8958 0.8961 0.8966
2058.000000 0.8971 0.8975 0.8981 0.8986 0.8991
2063.000000 0.8996 0.9002 0.9009 0.9016 0.9025
2068.000000 0.9035 0.9045 0.9055 0.9066 0.9077
2073.000000 0.9090 0.9103 0.9115 0.9128 0.9142
2078.000000 0.9156 0.9171 0.9188 0.9204 0.9220
2083.000000 0.9235 0.9250 0.9264 0.9278 0.9290
2088.000000 0.9303 0.9315 0.9327 0.9339 0.9351
2093.000000 0.9363 0.9375 0.9386 0.9398 0.9409
2098.000000 0.9421 0.9428 0.9436 0.9443 0.9450
2103.000000 0.9457 0.9464 0.9471 0.9478 0.9485
2108.000000 0.9493 0.9498 0.9504 0.9510 0.9516
2113.000000 0.9521 0.9527 0.9533 0.9539 0.9544
2118.000000 0.9550 0.9556 0.9562 0.9567 0.9571
2123.000000 0.9577 0.9582 0.9586 0.9591 0.9596
2128.000000 0.9601 0.9605 0.9609 0.9612 0.9616
2133.000000 0.9618 0.9623 0.9624 0.9625 0.9627
2138.000000 0.9628 0.9630 0.9630 0.9630 0.9628
2143.000000 0.9627 0.9625 0.9623 0.9611 0.9620
2148.000000 0.9618 0.9617 0.9615 0.9613 0.9612
2153.000000 0.9609 0.9607 0.9604 0.9602 0.9599
2158.000000 0.9597 0.9594 0.9592 0.9590 0.9588
2163.000000 0.9584 0.9581 0.9577 0.9573 0.9568
2168.000000 0.9566 0.9562 0.9559 0.9553 0.9548
2173.000000 0.9543 0.9538 0.9532 0.9527 0.9521
2178.000000 0.9516 0.9511 0.9506 0.9500 0.9495
2183.000000 0.9487 0.9478 0.9471 0.9463 0.9454
2188.000000 0.9446 0.9438 0.9430 0.9420 0.9410
2193.000000 0.9400 0.9390 0.9380 0.9370 0.9360
2198.000000 0.9350 0.9339 0.9328 0.9318 0.9309
2203.000000 0.9299 0.9289 0.9278 0.9268 0.9257
2208.000000 0.9246 0.9232 0.9218 0.9204 0.9190
2213.000000 0.9175 0.9162 0.9148 0.9134 0.9120
2218.000000 0.9106 0.9092 0.9078 0.9064 0.9050
2223.000000 0.9036 0.9021 0.9008 0.8995 0.8981
2228.000000 0.8967 0.8953 0.8939 0.8925 0.8911
2233.000000 0.8897 0.8883 0.8867 0.8852 0.8836
2238.000000 0.8821 0.8806 0.8791 0.8775 0.8760
2243.000000 0.8745 0.8730 0.8715 0.8701 0.8686
2248.000000 0.8671 0.8657 0.8643 0.8628 0.8614
2253.000000 0.8599 0.8584 0.8575 0.8567 0.8560
2258.000000 0.8553 0.8546 0.8540 0.8533 0.8525
2263.000000 0.8518 0.8513 0.8506 0.8499 0.8492
2268.000000 0.8486 0.8478 0.8471 0.8465 0.8459
2273.000000 0.8451 0.8444 0.8437 0.8430 0.8423
2278.000000 0.8416 0.8408 0.8400 0.8389 0.8378
2283.000000 0.8367 0.8356 0.8345 0.8334 0.8323
2288.000000 0.8312 0.8300 0.8289 0.8277 0.8266
2293.000000 0.8254 0.8242 0.8230 0.8218 0.8202
2298.000000 0.8186 0.8167 0.8148 0.8128 0.8110
2303.000000 0.8091 0.8071 0.8053 0.8034 0.8014
2308.000000 0.7994 0.7974 0.7955 0.7935 0.7915
2313.000000 0.7895 0.7875 0.7856 0.7836 0.7817
2318.000000 0.7798 0.7782 0.7765 0.7750 0.7734
2323.000000 0.7718 0.7701 0.7686 0.7669 0.7654
2328.000000 0.7638 0.7621 0.7606 0.7584 0.7562
2333.000000 0.7542 0.7521 0.7514 0.7506 0.7498
2338.000000 0.7490 0.7482 0.7474 0.7465 0.7458
2343.000000 0.7450 0.7442 0.7434 0.7425 0.7418
2348.000000 0.7410 0.7404 0.7399 0.7394 0.7390
2353.000000 0.7385 0.7381 0.7375 0.7371 0.7367
2358.000000 0.7361 0.7357 0.7353 0.7348 0.7344
2363.000000 0.7339 0.7335 0.7330 0.7325 0.7322
2368.000000 0.7319 0.7315 0.7312 0.7310 0.7307
2373.000000 0.7301 0.7298 0.7292 0.7287 0.7281
2378.000000 0.7275 0.7268 0.7264 0.7258 0.7253
2383.000000 0.7246 0.7239 0.7230 0.7221 0.7211
2388.000000 0.7203 0.7193 0.7184 0.7175 0.7165
2393.000000 0.7155 0.7145 0.7134 0.7124 0.7112
2398.000000 0.7103 0.7092 0.7081 0.7069 0.7060
2403.000000 0.7049 0.7038 0.7026 0.7017 0.7006
2408.000000 0.6995 0.6984 0.6974 0.6962 0.6953
2413.000000 0.6939 0.6925 0.6910 0.6895 0.6880
2418.000000 0.6865 0.6850 0.6835 0.6819 0.6805
2423.000000 0.6790 0.6775 0.6758 0.6744 0.6728
2428.000000 0.6714 0.6698 0.6683 0.6667 0.6651
2433.000000 0.6637 0.6621 0.6610 0.6599 0.6589
2438.000000 0.6580 0.6569 0.6561 0.6551 0.6542
2443.000000 0.6532 0.6522 0.6512 0.6503 0.6491
2448.000000 0.6478 0.6465 0.6454 0.6442 0.6430
2453.000000 0.6417 0.6404 0.6384 0.6365 0.6345
2458.000000 0.6326 0.6306 0.6286 0.6266 0.6247
2463.000000 0.6227 0.6208 0.6188 0.6169 0.6147
2468.000000 0.6126 0.6104 0.6082 0.6060 0.6038
2473.000000 0.6016 0.5994 0.5972 0.5950 0.5928
2478.000000 0.5906 0.5884 0.5862 0.5840 0.5818
2483.000000 0.5797 0.5777 0.5760 0.5743 0.5726
2488.000000 0.5709 0.5692 0.5675 0.5658 0.5641
2493.000000 0.5624 0.5607 0.5590 0.5573 0.5556
2498.000000 0.5539 0.5522 0.5505 0.5487 0.5470
2503.000000 0.5453 0.5436 0.5417 0.5399 0.5378
2508.000000 0.5358 0.5337 0.5317 0.5296 0.5276
2513.000000 0.5255 0.5235 0.5214 0.5194 0.5173
2518.000000 0.5153 0.5132 0.5112 0.5091 0.5070
2523.000000 0.5047 0.5024 0.5000 0.4977 0.4953
2528.000000 0.4930 0.4906 0.4883 0.4859 0.4836
2533.000000 0.4812 0.4789 0.4764 0.4739 0.4710
2538.000000 0.4684 0.4656 0.4629 0.4601 0.4573
2543.000000 0.4545 0.4518 0.4484 0.4451 0.4416
2548.000000 0.4381 0.4345 0.4310 0.4274 0.4239
2553.000000 0.4198 0.4157 0.4106 0.4055 0.4004
2558.000000 0.3953 0.3902 0.3852 0.3812 0.3772
2563.000000 0.3732 0.3692 0.3650 0.3610 0.3571
2568.000000 0.3530 0.3484 0.3440 0.3392 0.3344
2573.000000 0.3296 0.3248 0.3199 0.3151 0.3098
2578.000000 0.3045 0.2992 0.2940 0.2883 0.2826
2583.000000 0.2770 0.2714 0.2673 0.2632 0.2590
2588.000000 0.2549 0.2518 0.2488 0.2457 0.2427
2593.000000 0.2403 0.2380 0.2365 0.2350 0.2344
2598.000000 0.2339 0.2340 0.2355 0.2346 0.2352
2603.000000 0.2361 0.2371 0.2392 0.2414 0.2430
2608.000000 0.2446 0.2462 0.2478 0.2491 0.2504
2613.000000 0.2513 0.2523 0.2527 0.2532 0.2534
2618.000000 0.2539 0.2539 0.2540 0.2541 0.2541
2623.000000 0.2541 0.2541 0.2540 0.2539 0.2538
2628.000000 0.2538 0.2538 0.2539 0.2539 0.2539
2633.000000 0.2540 0.2541 0.2544 0.2547 0.2553
2638.000000 0.2560 0.2573 0.2587 0.2611 0.2634
2643.000000 0.2669 0.2703 0.2744 0.2785 0.2832
2648.000000 0.2879 0.2921 0.2964 0.2992 0.3021
2653.000000 0.3039 0.3057 0.3074 0.3091 0.3102
2658.000000 0.3114 0.3124 0.3134 0.3140 0.3147
2663.000000 0.3150 0.3154 0.3155 0.3157 0.3158
2668.000000 0.3160 0.3160 0.3160 0.3160 0.3161
2673.000000 0.3161 0.3161 0.3161 0.3161 0.3160
2678.000000 0.3160 0.3159 0.3159 0.3159 0.3159
2683.000000 0.3158 0.3158 0.3158 0.3158 0.3164
2688.000000 0.3171 0.3179 0.3187 0.3198 0.3209
2693.000000 0.3218 0.3230 0.3240 0.3250 0.3264
2698.000000 0.3278 0.3294 0.3309 0.3324 0.3339
2703.000000 0.3348 0.3358 0.3362 0.3368 0.3372
2708.000000 0.3376 0.3377 0.3379 0.3379 0.3380
2713.000000 0.3380 0.3380 0.3380 0.3399 0.3377
2718.000000 0.3375 0.3373 0.3371 0.3368 0.3366
2723.000000 0.3364 0.3362 0.3360 0.3359 0.3356
2728.000000 0.3354 0.3352 0.3350 0.3350 0.3350
2733.000000 0.3350 0.3350 0.3348 0.3346 0.3342
2738.000000 0.3338 0.3334 0.3330 0.3324 0.3316
2743.000000 0.3303 0.3289 0.3272 0.3256 0.3240
2748.000000 0.3224 0.3208 0.3193 0.3177 0.3162
2753.000000 0.3146 0.3131 0.3113 0.3095 0.3076
2758.000000 0.3057 0.3038 0.3020 0.3001 0.2982
2763.000000 0.2963 0.2944 0.2925 0.2907 0.2887
2768.000000 0.2868 0.2849 0.2830 0.2811 0.2792
2773.000000 0.2773 0.2754 0.2734 0.2716 0.2697
2778.000000 0.2678 0.2659 0.2640 0.2621 0.2602
2783.000000 0.2583 0.2565 0.2546 0.2527 0.2509
2788.000000 0.2492 0.2474 0.2457 0.2439 0.2422
2793.000000 0.2405 0.2388 0.2375 0.2362 0.2349
2798.000000 0.2337 0.2324 0.2312 0.2300 0.2289
2803.000000 0.2280 0.2272 0.2263 0.2255 0.2246
2808.000000 0.2238 0.2230 0.2222 0.2213 0.2205
2813.000000 0.2197 0.2189 0.2178 0.2167 0.2155
2818.000000 0.2143 0.2130 0.2118 0.2105 0.2093
2823.000000 0.2077 0.2062 0.2045 0.2031 0.2016
2828.000000 0.2001 0.1982 0.1964 0.1944 0.1926
2833.000000 0.1907 0.1889 0.1871 0.1854 0.1837
2838.000000 0.1823 0.1807 0.1792 0.1777 0.1762
2843.000000 0.1746 0.1733 0.1718 0.1704 0.1696
2848.000000 0.1691 0.1687 0.1684 0.1682 0.1679
2853.000000 0.1676 0.1673 0.1672 0.1671 0.1670
2858.000000 0.1670 0.1669 0.1669 0.1668 0.1668
2863.000000 0.1667 0.1667 0.1666 0.1666 0.1665
2868.000000 0.1665 0.1664 0.1664 0.1664 0.1665
2873.000000 0.1665 0.1666 0.1666 0.1667 0.1667
2878.000000 0.1668 0.1668 0.1668 0.1669 0.1671
2883.000000 0.1672 0.1674 0.1676 0.1678 0.1679
2888.000000 0.1681 0.1683 0.1684 0.1685 0.1687
2893.000000 0.1690 0.1692 0.1694 0.1695 0.1696
2898.000000 0.1699 0.1702 0.1706 0.1709 0.1713
2903.000000 0.1716 0.1719 0.1722 0.1726 0.1729
2908.000000 0.1733 0.1735 0.1739 0.1742 0.1745
2913.000000 0.1749 0.1753 0.1757 0.1762 0.1767
2918.000000 0.1772 0.1777 0.1782 0.1786 0.1792
2923.000000 0.1796 0.1802 0.1806 0.1811 0.1816
2928.000000 0.1821 0.1826 0.1831 0.1835 0.1841
2933.000000 0.1845 0.1851 0.1856 0.1861 0.1866
2938.000000 0.1871 0.1876 0.1881 0.1885 0.1891
2943.000000 0.1895 0.1901 0.1906 0.1911 0.1916
2948.000000 0.1921 0.1926 0.1932 0.1936 0.1943
2953.000000 0.1948 0.1954 0.1959 0.1965 0.1970
2958.000000 0.1976 0.1981 0.1986 0.1992 0.1996
2963.000000 0.2000 0.2004 0.2007 0.2011 0.2014
2968.000000 0.2018 0.2021 0.2024 0.2027 0.2031
2973.000000 0.2034 0.2037 0.2041 0.2044 0.2048
2978.000000 0.2052 0.2055 0.2059 0.2059 0.2059
2983.000000 0.2059 0.2059 0.2059 0.2059 0.2059
2988.000000 0.2059 0.2059 0.2059 0.2058 0.2058
2993.000000 0.2057 0.2057 0.2056 0.2056 0.2054
2998.000000 0.2052 0.2050 0.2048 0.2044 0.2043
3003.000000 0.2041 0.2039 0.2035 0.2034 0.2032
3008.000000 0.2029 0.2026 0.2022 0.2016 0.2010
3013.000000 0.2004 0.1998 0.1992 0.1985 0.1979
3018.000000 0.1974 0.1967 0.1960 0.1950 0.1941
3023.000000 0.1932 0.1923 0.1914 0.1904 0.1895
3028.000000 0.1886 0.1878 0.1869 0.1860 0.1851
3033.000000 0.1842 0.1833 0.1824 0.1815 0.1806
3038.000000 0.1796 0.1787 0.1779 0.1770 0.1761
3043.000000 0.1752 0.1743 0.1736 0.1731 0.1725
3048.000000 0.1720 0.1714 0.1654 0.1702 0.1696
3053.000000 0.1691 0.1685 0.1685 0.1686 0.1689
3058.000000 0.1691 0.1693 0.1695 0.1699 0.1703
3063.000000 0.1706 0.1709 0.1713 0.1718 0.1724
3068.000000 0.1729 0.1735 0.1742 0.1748 0.1754
3073.000000 0.1760 0.1766 0.1772 0.1778 0.1784
3078.000000 0.1793 0.1800 0.1807 0.1814 0.1821
3083.000000 0.1828 0.1834 0.1837 0.1841 0.1840
3088.000000 0.1839 0.1837 0.1836 0.1832 0.1875
3093.000000 0.1822 0.1817 0.1811 0.1806 0.1798
3098.000000 0.1791 0.1783 0.1775 0.1768 0.1762
3103.000000 0.1756 0.1751 0.1744 0.1740 0.1734
3108.000000 0.1731 0.1731 0.1732 0.1735 0.1741
3113.000000 0.1744 0.1750 0.1754 0.1759 0.1765
3118.000000 0.1735 0.1783 0.1794 0.1810 0.1825
3123.000000 0.1841 0.1858 0.1874 0.1890 0.1912
3128.000000 0.1934 0.1967 0.2000 0.2039 0.2079
3133.000000 0.2116 0.2153 0.2191 0.2230 0.2252
3138.000000 0.2274 0.2295 0.2317 0.2337 0.2358
3143.000000 0.2374 0.2391 0.2407 0.2424 0.2440
3148.000000 0.2456 0.2472 0.2489 0.2505 0.2521
3153.000000 0.2537 0.2553 0.2568 0.2584 0.2599
3158.000000 0.2615 0.2630 0.2645 0.2660 0.2676
3163.000000 0.2690 0.2705 0.2719 0.2734 0.2748
3168.000000 0.2762 0.2776 0.2791 0.2805 0.2820
3173.000000 0.2834 0.2849 0.2864 0.2879 0.2894
3178.000000 0.2909 0.2924 0.2939 0.2954 0.2969
3183.000000 0.2984 0.2999 0.3013 0.3028 0.3042
3188.000000 0.3056 0.3070 0.3084 0.3099 0.3113
3193.000000 0.3127 0.3142 0.3157 0.3172 0.3185
3198.000000 0.3200 0.3216 0.3232 0.3249 0.3266
3203.000000 0.3284 0.3302 0.3320 0.3338 0.3355
3208.000000 0.3373 0.3391 0.3409 0.3429 0.3448
3213.000000 0.3466 0.3486 0.3505 0.3525 0.3541
3218.000000 0.3557 0.3571 0.3586 0.3600 0.3614
3223.000000 0.3629 0.3644 0.3658 0.3673 0.3687
3228.000000 0.3702 0.3712 0.3723 0.3732 0.3743
3233.000000 0.3753 0.3764 0.3774 0.3784 0.3794
3238.000000 0.3804 0.3814 0.3825 0.3834 0.3845
3243.000000 0.3854 0.3862 0.3871 0.3879 0.3887
3248.000000 0.3895 0.3902 0.3909 0.3918 0.3926
3253.000000 0.3934 0.3942 0.3950 0.3958 0.3962
3258.000000 0.3968 0.3973 0.3979 0.3984 0.3990
3263.000000 0.3995 0.4000 0.4004 0.4009 0.4010
3268.000000 0.4012 0.4014 0.4016 0.4018 0.4020
3273.000000 0.4021 0.4023 0.4023 0.4022 0.4022
3278.000000 0.4021 0.4018 0.4018 0.4014 0.4012
3283.000000 0.4007 0.4002 0.3997 0.3993 0.3987
3288.000000 0.3982 0.3974 0.3966 0.3958 0.3950
3293.000000 0.3941 0.3932 0.3924 0.3916 0.3906
3298.000000 0.3896 0.3886 0.3876 0.3862 0.3850
3303.000000 0.3834 0.3818 0.3802 0.3787 0.3771
3308.000000 0.3755 0.3739 0.3724 0.3709 0.3694
3313.000000 0.3678 0.3662 0.3643 0.3624 0.3600
3318.000000 0.3577 0.3553 0.3530 0.3512 0.3494
3323.000000 0.3476 0.3459 0.3441 0.3423 0.3405
3328.000000 0.3387 0.3368 0.3350 0.3330 0.3309
3333.000000 0.3290 0.3270 0.3250 0.3230 0.3209
3338.000000 0.3190 0.3170 0.3150 0.3132 0.3114
3343.000000 0.3096 0.3078 0.3060 0.3043 0.3025
3348.000000 0.3007 0.2989 0.2971 0.2953 0.2934
3353.000000 0.2917 0.2899 0.2880 0.2862 0.2844
3358.000000 0.2826 0.2807 0.2789 0.2770 0.2752
3363.000000 0.2734 0.2716 0.2698 0.2680 0.2662
3368.000000 0.2644 0.2625 0.2607 0.2589 0.2571
3373.000000 0.2552 0.2534 0.2515 0.2496 0.2477
3378.000000 0.2459 0.2440 0.2422 0.2403 0.2384
3383.000000 0.2367 0.2349 0.2334 0.2319 0.2303
3388.000000 0.2288 0.2272 0.2257 0.2242 0.2227
3393.000000 0.2216 0.2205 0.2194 0.2183 0.2172
3398.000000 0.2161 0.2153 0.2145 0.2143 0.2141
3403.000000 0.2141 0.2128 0.2148 0.2156 0.2168
3408.000000 0.2181 0.2191 0.2202 0.2218 0.2234
3413.000000 0.2273 0.2312 0.2371 0.2430 0.2501
3418.000000 0.2572 0.2625 0.2679 0.2761 0.2843
3423.000000 0.2957 0.3072 0.3152 0.3232 0.3400
3428.000000 0.3568 0.3707 0.3847 0.3948 0.4049
3433.000000 0.4140 0.4232 0.4317 0.4403 0.4522
3438.000000 0.4641 0.4759 0.4878 0.4992 0.5107
3443.000000 0.5242 0.5378 0.5462 0.5547 0.5630
3448.000000 0.5712 0.5757 0.5802 0.5846 0.5891
3453.000000 0.5935 0.5980 0.6024 0.6069 0.6114
3458.000000 0.6159 0.6205 0.6251 0.6296 0.6342
3463.000000 0.6388 0.6434 0.6480 0.6526 0.6578
3468.000000 0.6631 0.6683 0.6735 0.6787 0.6840
3473.000000 0.6896 0.6953 0.7011 0.7071 0.7130
3478.000000 0.7190 0.7225 0.7261 0.7293 0.7324
3483.000000 0.7355 0.7387 0.7418 0.7449 0.7481
3488.000000 0.7512 0.7545 0.7578 0.7610 0.7643
3493.000000 0.7675 0.7708 0.7741 0.7774 0.7803
3498.000000 0.7833 0.7860 0.7888 0.7915 0.7942
3503.000000 0.7968 0.7997 0.8024 0.8051 0.8078
3508.000000 0.8105 0.8131 0.8158 0.8184 0.8211
3513.000000 0.8237 0.8264 0.8288 0.8313 0.8331
3518.000000 0.8349 0.8367 0.8386 0.8404 0.8421
3523.000000 0.8440 0.8459 0.8477 0.8496 0.8514
3528.000000 0.8532 0.8550 0.8568 0.8586 0.8604
3533.000000 0.8621 0.8639 0.8657 0.8675 0.8692
3538.000000 0.8710 0.8730 0.8750 0.8771 0.8792
3543.000000 0.8813 0.8835 0.8856 0.8877 0.8898
3548.000000 0.8920 0.8951 0.8983 0.9015 0.9047
3553.000000 0.9075 0.9106 0.9131 0.9156 0.9181
3558.000000 0.9206 0.9224 0.9243 0.9259 0.9275
3563.000000 0.9291 0.9306 0.9312 0.9318 0.9323
3568.000000 0.9328 0.9330 0.9332 0.9334 0.9336
3573.000000 0.9337 0.9339 0.9340 0.9341 0.9356
3578.000000 0.9371 0.9388 0.9406 0.9425 0.9445
3583.000000 0.9454 0.9463 0.9471 0.9480 0.9483
3588.000000 0.9486 0.9489 0.9493 0.9496 0.9500
3593.000000 0.9503 0.9506 0.9508 0.9510 0.9512
3598.000000 0.9514 0.9516 0.9518 0.9520 0.9523
3603.000000 0.9524 0.9525 0.9525 0.9525 0.9525
3608.000000 0.9525 0.9525 0.9525 0.9525 0.9525
3613.000000 0.9524 0.9524 0.9523 0.9523 0.9521
3618.000000 0.9521 0.9520 0.9518 0.9516 0.9514
3623.000000 0.9511 0.9509 0.9507 0.9506 0.9504
3628.000000 0.9504 0.9504 0.9506 0.9509 0.9513
3633.000000 0.9516 0.9520 0.9528 0.9536 0.9544
3638.000000 0.9552 0.9561 0.9570 0.9578 0.9588
3643.000000 0.9597 0.9606 0.9614 0.9621 0.9628
3648.000000 0.9636 0.9642 0.9649 0.9656 0.9644
3653.000000 0.9667 0.9671 0.9675 0.9678 0.9683
3658.000000 0.9687 0.9690 0.9694 0.9695 0.9696
3663.000000 0.9696 0.9697 0.9698 0.9699 0.9700
3668.000000 0.9701 0.9701 0.9701 0.9701 0.9700
3673.000000 0.9698 0.9697 0.9695 0.9694 0.9692
3678.000000 0.9691 0.9689 0.9688 0.9686 0.9685
3683.000000 0.9683 0.9682 0.9680 0.9678 0.9675
3688.000000 0.9675 0.9673 0.9671 0.9670 0.9668
3693.000000 0.9666 0.9665 0.9663 0.9661 0.9659
3698.000000 0.9658 0.9655 0.9652 0.9649 0.9646
3703.000000 0.9643 0.9640 0.9637 0.9634 0.9631
3708.000000 0.9628 0.9625 0.9623 0.9620 0.9617
3713.000000 0.9614 0.9611 0.9608 0.9605 0.9602
3718.000000 0.9599 0.9596 0.9594 0.9591 0.9588
3723.000000 0.9585 0.9582 0.9578 0.9577 0.9574
3728.000000 0.9571 0.9568 0.9565 0.9562 0.9560
3733.000000 0.9557 0.9554 0.9551 0.9548 0.9545
3738.000000 0.9543 0.9540 0.9537 0.9534 0.9531
3743.000000 0.9528 0.9525 0.9521 0.9518 0.9516
3748.000000 0.9514 0.9511 0.9508 0.9505 0.9502
3753.000000 0.9499 0.9496 0.9493 0.9491 0.9488
3758.000000 0.9486 0.9483 0.9481 0.9478 0.9475
3763.000000 0.9473 0.9471 0.9468 0.9466 0.9463
3768.000000 0.9461 0.9457 0.9454 0.9450 0.9447
3773.000000 0.9443 0.9440 0.9436 0.9433 0.9428
3778.000000 0.9425 0.9421 0.9418 0.9415 0.9412
3783.000000 0.9408 0.9405 0.9401 0.9398 0.9394
3788.000000 0.9391 0.9387 0.9384 0.9380 0.9377
3793.000000 0.9373 0.9370 0.9366 0.9363 0.9359
3798.000000 0.9356 0.9355 0.9355
##END=
