##TITLE=IRON BLUE
##JCAMP-DX=4.24
##DATA TYPE=INFRARED SPECTRUM
##CLASS=COBLENTZ III
##ORIGIN=DESOTO CHEMICAL COATINGS, INC.
##OWNER=COBLENTZ SOCIETY
Collection (C) 2018 copyright by the U.S. Secretary of Commerce
on behalf of the United States of America. All rights reserved.
##DATE=Not specified, most likely prior to 1970
##MOLFORM=C6 H4 N7 Fe2
##SOURCE REFERENCE=COBLENTZ NO. 4705
##$NIST ID=B6004705
##$NIST SOURCE=COBLENTZ
##$NIST IMAGE=cob4705
##SPECTROMETER/DATA SYSTEM=BECKMAN IR-12 (GRATING)
##STATE=SOLID (1 mg / 300 mg CsI DISC)
##SAMPLING PROCEDURE=TRANSMISSION
##RESOLUTION=4
##DATA PROCESSING=DIGITIZED BY NIST FROM HARD COPY (FROM TWO SEGMENTS)
##XUNITS=1/CM
##YUNITS=TRANSMITTANCE
##XFACTOR=1.000000
##YFACTOR=1
##DELTAX=1.330379
##FIRSTX=200
##LASTX=3986.26
##FIRSTY=0.662
##MAXX=3986.26
##MINX=200
##MAXY=0.973
##MINY=0.002
##NPOINTS=2847
##XYDATA=(X++(Y..Y))
200.000000 0.6620 0.6610 0.6620 0.6610 0.6610
206.651896 0.6610 0.6600 0.6580 0.6570 0.6570
213.303792 0.6560 0.6540 0.6480 0.6450 0.6410
219.955688 0.6380 0.6340 0.6320 0.6260 0.6200
226.607584 0.6140 0.6080 0.5970 0.5850 0.5242
233.259480 0.4802 0.4263 0.3892 0.3443 0.3182
239.911377 0.3020 0.2450 0.2140 0.1841 0.1730
246.563273 0.1660 0.1620 0.1560 0.1530 0.1520
253.215169 0.1500 0.1480 0.1460 0.1450 0.1440
259.867065 0.1400 0.1380 0.1370 0.1360 0.1360
266.518961 0.1360 0.1370 0.1370 0.1410 0.1490
273.170857 0.1580 0.1739 0.1899 0.1980 0.2050
279.822753 0.2300 0.2580 0.2850 0.2980 0.3179
286.474649 0.3449 0.3769 0.4168 0.4518 0.4729
293.126545 0.4970 0.5080 0.5210 0.5320 0.5410
299.778441 0.5480 0.5500 0.5530 0.5570 0.5610
306.430337 0.5620 0.5640 0.5680 0.5700 0.5760
313.082234 0.5810 0.5820 0.5880 0.5890 0.5920
319.734130 0.5960 0.6000 0.6040 0.6090 0.6100
326.386026 0.6130 0.6140 0.6200 0.6210 0.6220
333.037922 0.6250 0.6280 0.6320 0.6340 0.6370
339.689818 0.6380 0.6380 0.6420 0.6450 0.6480
346.341714 0.6480 0.6490 0.6500 0.6500 0.6520
352.993610 0.6540 0.6560 0.6570 0.6580 0.6580
359.645506 0.6580 0.6580 0.6580 0.6580 0.6600
366.297402 0.6600 0.6610 0.6610 0.6610 0.6620
372.949298 0.6640 0.6640 0.6650 0.6650 0.6650
379.601195 0.6650 0.6650 0.6650 0.6680 0.6680
386.253091 0.6690 0.6690 0.6720 0.6730 0.6740
392.904987 0.6770 0.6780 0.6800 0.6820 0.6840
399.556883 0.6890 0.6940 0.6970 0.7000 0.7020
406.208779 0.7080 0.7120 0.7130 0.7180 0.7200
412.860675 0.7240 0.7280 0.7280 0.7290 0.7300
419.512571 0.7320 0.7340 0.7410 0.7440 0.7450
426.164467 0.7450 0.7480 0.7490 0.7500 0.7570
432.816363 0.7580 0.7610 0.7640 0.7650 0.7660
439.468259 0.7660 0.7680 0.7680 0.7690 0.7700
446.120155 0.7700 0.7720 0.7720 0.7720 0.7720
452.772052 0.7720 0.7720 0.7700 0.7690 0.7680
459.423948 0.7620 0.7570 0.7540 0.7490 0.7480
466.075844 0.7410 0.7380 0.7290 0.7290 0.7200
472.727740 0.7100 0.7020 0.6980 0.6811 0.6691
479.379636 0.6480 0.6340 0.6090 0.5930 0.5401
486.031532 0.5021 0.4602 0.4242 0.3534 0.1870
492.683428 0.1690 0.1480 0.1280 0.0901 0.0880
499.335324 0.0900 0.1079 0.1249 0.1399 0.1519
505.987220 0.1890 0.2580 0.3279 0.3699 0.3820
512.639116 0.3820 0.3571 0.3570 0.3848 0.4764
519.291012 0.5180 0.5340 0.5500 0.5810 0.5940
525.942909 0.6139 0.6289 0.6419 0.6500 0.6599
532.594805 0.6730 0.6820 0.6980 0.7040 0.7120
539.246701 0.7210 0.7260 0.7360 0.7450 0.7520
545.898597 0.7610 0.7680 0.7700 0.7740 0.7780
552.550493 0.7860 0.7890 0.7920 0.7930 0.7940
559.202389 0.7960 0.7980 0.8000 0.8000 0.8010
565.854285 0.8010 0.8020 0.8020 0.8020 0.8020
572.506181 0.8020 0.8020 0.8020 0.8020 0.8010
579.158077 0.8000 0.7980 0.7920 0.7821 0.7780
585.809973 0.7680 0.7540 0.7420 0.7370 0.7170
592.461870 0.6961 0.6850 0.6601 0.6411 0.6281
599.113766 0.6050 0.5860 0.5720 0.5331 0.5300
605.765662 0.5320 0.5410 0.5460 0.5500 0.5580
612.417558 0.6040 0.6540 0.6960 0.7249 0.7519
619.069454 0.7679 0.7999 0.8199 0.8359 0.8440
625.721350 0.8500 0.8610 0.8650 0.8690 0.8730
632.373246 0.8760 0.8780 0.8780 0.8810 0.8820
639.025142 0.8850 0.8880 0.8880 0.8890 0.8900
645.677038 0.8900 0.8900 0.8930 0.8940 0.8970
652.328934 0.8970 0.8940 0.8920 0.8900 0.8890
658.980830 0.8890 0.8890 0.8890 0.8890 0.8890
665.632727 0.8900 0.8900 0.8900 0.8900 0.8920
672.284623 0.8920 0.8940 0.8970 0.8980 0.9000
678.936519 0.9000 0.9000 0.9010 0.9010 0.9040
685.588415 0.9050 0.9060 0.9060 0.9060 0.9060
692.240311 0.9060 0.9080 0.9090 0.9090 0.9090
698.892207 0.9090 0.9090 0.9090 0.9100 0.9100
705.544103 0.9100 0.9100 0.9100 0.9100 0.9120
712.195999 0.9130 0.9130 0.9140 0.9140 0.9140
718.847895 0.9160 0.9160 0.9140 0.9140 0.9160
725.499791 0.9170 0.9170 0.9180 0.9180 0.9180
732.151687 0.9180 0.9200 0.9210 0.9210 0.9210
738.803584 0.9200 0.9200 0.9200 0.9200 0.9200
745.455480 0.9200 0.9200 0.9210 0.9210 0.9220
752.107376 0.9240 0.9250 0.9250 0.9250 0.9250
758.759272 0.9250 0.9260 0.9260 0.9260 0.9260
765.411168 0.9260 0.9280 0.9280 0.9290 0.9290
772.063064 0.9290 0.9290 0.9290 0.9300 0.9300
778.714960 0.9300 0.9300 0.9320 0.9320 0.9330
785.366856 0.9330 0.9340 0.9340 0.9360 0.9360
792.018752 0.9370 0.9370 0.9380 0.9380 0.9400
798.670648 0.9410 0.9410 0.9410 0.9410 0.9420
805.322544 0.9420 0.9420 0.9440 0.9440 0.9440
811.974441 0.9440 0.9450 0.9450 0.9450 0.9450
818.626337 0.9450 0.9450 0.9450 0.9450 0.9450
825.278233 0.9440 0.9420 0.9410 0.9380 0.9360
831.930129 0.9330 0.9330 0.9300 0.9280 0.9250
838.582025 0.9240 0.9220 0.9210 0.9210 0.9210
845.233921 0.9210 0.9210 0.9210 0.9210 0.9220
851.885817 0.9240 0.9250 0.9260 0.9290 0.9320
858.537713 0.9360 0.9380 0.9410 0.9440 0.9460
865.189609 0.9480 0.9490 0.9490 0.9500 0.9500
871.841505 0.9520 0.9520 0.9530 0.9540 0.9560
878.493402 0.9570 0.9570 0.9580 0.9580 0.9580
885.145298 0.9600 0.9600 0.9610 0.9620 0.9640
891.797194 0.9640 0.9640 0.9640 0.9650 0.9650
898.449090 0.9660 0.9660 0.9660 0.9680 0.9680
905.100986 0.9680 0.9680 0.9690 0.9690 0.9700
911.752882 0.9700 0.9700 0.9700 0.9700 0.9700
918.404778 0.9700 0.9700 0.9700 0.9700 0.9700
925.056674 0.9700 0.9700 0.9700 0.9700 0.9700
931.708570 0.9700 0.9700 0.9700 0.9700 0.9700
938.360466 0.9700 0.9690 0.9660 0.9640 0.9640
945.012362 0.9640 0.9640 0.9640 0.9620 0.9610
951.664259 0.9610 0.9600 0.9600 0.9580 0.9560
958.316155 0.9540 0.9500 0.9500 0.9420 0.9400
964.968051 0.9400 0.9380 0.9380 0.9370 0.9370
971.619947 0.9360 0.9360 0.9340 0.9320 0.9290
978.271843 0.9280 0.9220 0.9140 0.9120 0.9090
984.923739 0.9080 0.8980 0.8960 0.8960 0.8960
991.575635 0.8970 0.9000 0.9020 0.9060 0.9060
998.227531 0.9090 0.9130 0.9160 0.9200 0.9210
1004.879427 0.9240 0.9260 0.9290 0.9320 0.9360
1011.531323 0.9380 0.9400 0.9410 0.9420 0.9440
1018.183219 0.9440 0.9440 0.9440 0.9440 0.9440
1024.835116 0.9420 0.9420 0.9400 0.9380 0.9360
1031.487012 0.9360 0.9300 0.9290 0.9250 0.9210
1038.138908 0.9180 0.9140 0.9120 0.9090 0.9050
1044.790804 0.9000 0.8980 0.8980 0.8900 0.8880
1051.442700 0.8850 0.8840 0.8820 0.8820 0.8810
1058.094596 0.8810 0.8810 0.8820 0.8820 0.8840
1064.746492 0.8840 0.8840 0.8850 0.8850 0.8860
1071.398388 0.8880 0.8890 0.8890 0.8900 0.8920
1078.050284 0.8920 0.8930 0.8940 0.8960 0.8970
1084.702180 0.8980 0.8980 0.9000 0.9000 0.9000
1091.354076 0.9010 0.9010 0.9010 0.9010 0.9000
1098.005973 0.9000 0.8980 0.8940 0.8930 0.8900
1104.657869 0.8880 0.8840 0.8820 0.8800 0.8780
1111.309765 0.8770 0.8760 0.8740 0.8730 0.8720
1117.961661 0.8720 0.8700 0.8700 0.8700 0.8700
1124.613557 0.8720 0.8720 0.8720 0.8730 0.8730
1131.265453 0.8740 0.8740 0.8760 0.8760 0.8770
1137.917349 0.8780 0.8800 0.8810 0.8820 0.8840
1144.569245 0.8850 0.8860 0.8890 0.8930 0.8960
1151.221141 0.8980 0.9000 0.9000 0.9010 0.9020
1157.873037 0.9050 0.9060 0.9060 0.9060 0.9080
1164.524934 0.9090 0.9100 0.9120 0.9130 0.9140
1171.176830 0.9140 0.9160 0.9160 0.9170 0.9170
1177.828726 0.9170 0.9170 0.9180 0.9180 0.9200
1184.480622 0.9220 0.9220 0.9220 0.9250 0.9260
1191.132518 0.9290 0.9300 0.9330 0.9330 0.9340
1197.784414 0.9340 0.9370 0.9370 0.9380 0.9400
1204.436310 0.9410 0.9440 0.9450 0.9450 0.9460
1211.088206 0.9460 0.9490 0.9500 0.9500 0.9520
1217.740102 0.9530 0.9540 0.9560 0.9570 0.9570
1224.391998 0.9600 0.9610 0.9610 0.9620 0.9620
1231.043894 0.9620 0.9620 0.9620 0.9620 0.9620
1237.695791 0.9620 0.9620 0.9620 0.9620 0.9620
1244.347687 0.9620 0.9640 0.9640 0.9640 0.9640
1250.999583 0.9640 0.9640 0.9640 0.9640 0.9640
1257.651479 0.9640 0.9640 0.9640 0.9640 0.9640
1264.303375 0.9640 0.9640 0.9640 0.9640 0.9640
1270.955271 0.9640 0.9640 0.9640 0.9640 0.9640
1277.607167 0.9640 0.9640 0.9640 0.9620 0.9620
1284.259063 0.9620 0.9620 0.9610 0.9610 0.9610
1290.910959 0.9600 0.9600 0.9600 0.9610 0.9610
1297.562855 0.9610 0.9610 0.9600 0.9600 0.9580
1304.214751 0.9570 0.9570 0.9570 0.9570 0.9570
1310.866648 0.9560 0.9560 0.9540 0.9540 0.9540
1317.518544 0.9520 0.9520 0.9520 0.9520 0.9490
1324.170440 0.9490 0.9460 0.9450 0.9440 0.9420
1330.822336 0.9410 0.9400 0.9400 0.9400 0.9380
1337.474232 0.9380 0.9370 0.9340 0.9330 0.9300
1344.126128 0.9290 0.9280 0.9250 0.9220 0.9210
1350.778024 0.9210 0.9200 0.9180 0.9170 0.9160
1357.429920 0.9140 0.9120 0.9090 0.9090 0.9080
1364.081816 0.9060 0.9060 0.9020 0.9000 0.9000
1370.733712 0.8940 0.8920 0.8890 0.8880 0.8840
1377.385609 0.8800 0.8780 0.8730 0.8690 0.8581
1384.037505 0.8520 0.8490 0.8380 0.8320 0.8290
1390.689401 0.8210 0.8120 0.7891 0.7741 0.7601
1397.341297 0.7400 0.7260 0.7050 0.6800 0.6490
1403.993193 0.5482 0.5360 0.4862 0.4492 0.4132
1410.645089 0.3770 0.3450 0.3260 0.3160 0.3100
1417.296985 0.3100 0.3250 0.3330 0.4206 0.4290
1423.948881 0.4781 0.5370 0.5540 0.5700 0.6119
1430.600777 0.6489 0.6739 0.6969 0.7099 0.7219
1437.252673 0.7400 0.7490 0.7570 0.7690 0.7810
1443.904569 0.7890 0.7920 0.8000 0.8060 0.8090
1450.556466 0.8140 0.8200 0.8300 0.8320 0.8360
1457.208362 0.8380 0.8400 0.8410 0.8450 0.8500
1463.860258 0.8520 0.8540 0.8560 0.8600 0.8680
1470.512154 0.8690 0.8780 0.8800 0.8810 0.8810
1477.164050 0.8840 0.8890 0.8900 0.8930 0.8960
1483.815946 0.8980 0.8980 0.9000 0.9010 0.9010
1490.467842 0.9010 0.9080 0.9100 0.9120 0.9120
1497.119738 0.9130 0.9140 0.9160 0.9160 0.9180
1503.771634 0.9200 0.9200 0.9210 0.9210 0.9220
1510.423530 0.9220 0.9220 0.9220 0.9220 0.9220
1517.075426 0.9220 0.9220 0.9220 0.9210 0.9210
1523.727323 0.9200 0.9200 0.9200 0.9170 0.9170
1530.379219 0.9160 0.9160 0.9140 0.9140 0.9130
1537.031115 0.9130 0.9130 0.9130 0.9130 0.9130
1543.683011 0.9130 0.9130 0.9130 0.9130 0.9130
1550.334907 0.9130 0.9130 0.9120 0.9120 0.9120
1556.986803 0.9120 0.9100 0.9100 0.9100 0.9090
1563.638699 0.9090 0.9060 0.9060 0.9060 0.9080
1570.290595 0.9080 0.9080 0.9060 0.9060 0.9050
1576.942491 0.9050 0.9020 0.9010 0.9000 0.8920
1583.594387 0.8920 0.8900 0.8850 0.8810 0.8800
1590.246283 0.8780 0.8760 0.8730 0.8690 0.8610
1596.898180 0.8540 0.8500 0.8500 0.8400 0.8320
1603.550076 0.8290 0.8210 0.8180 0.8120 0.8050
1610.201972 0.7930 0.7800 0.7700 0.7620 0.7620
1616.853868 0.7770 0.7800 0.7880 0.7999 0.8090
1623.505764 0.8200 0.8220 0.8300 0.8360 0.8400
1630.157660 0.8420 0.8500 0.8580 0.8600 0.8610
1636.809556 0.8640 0.8690 0.8700 0.8780 0.8800
1643.461452 0.8810 0.8810 0.8820 0.8850 0.8880
1650.113348 0.8890 0.8900 0.8940 0.8980 0.8980
1656.765244 0.9000 0.9010 0.9010 0.9020 0.9050
1663.417141 0.9060 0.9060 0.9080 0.9090 0.9120
1670.069037 0.9120 0.9130 0.9140 0.9160 0.9170
1676.720933 0.9180 0.9180 0.9200 0.9210 0.9250
1683.372829 0.9280 0.9280 0.9290 0.9290 0.9300
1690.024725 0.9300 0.9300 0.9300 0.9300 0.9320
1696.676621 0.9330 0.9340 0.9360 0.9380 0.9380
1703.328517 0.9400 0.9410 0.9420 0.9420 0.9440
1709.980413 0.9440 0.9440 0.9450 0.9460 0.9480
1716.632309 0.9480 0.9490 0.9500 0.9520 0.9540
1723.284205 0.9560 0.9570 0.9570 0.9570 0.9570
1729.936101 0.9600 0.9610 0.9610 0.9620 0.9640
1736.587998 0.9640 0.9640 0.9640 0.9640 0.9650
1743.239894 0.9660 0.9680 0.9690 0.9690 0.9690
1749.891790 0.9690 0.9700 0.9700 0.9700 0.9700
1756.543686 0.9720 0.9720 0.9720 0.9720 0.9720
1763.195582 0.9720 0.9720 0.9720 0.9720 0.9730
1769.847478 0.9730 0.9730 0.9730 0.9730 0.9730
1776.499374 0.9730 0.9730 0.9730 0.9730 0.9730
1783.151270 0.9730 0.9730 0.9730 0.9730 0.9730
1789.803166 0.9730 0.9730 0.9730 0.9730 0.9720
1796.455062 0.9720 0.9720 0.9720 0.9700 0.9700
1803.106958 0.9700 0.9700 0.9700 0.9700 0.9700
1809.758855 0.9700 0.9700 0.9700 0.9700 0.9700
1816.410751 0.9700 0.9700 0.9700 0.9700 0.9690
1823.062647 0.9690 0.9680 0.9660 0.9650 0.9640
1829.714543 0.9640 0.9640 0.9620 0.9620 0.9620
1836.366439 0.9610 0.9610 0.9610 0.9610 0.9610
1843.018335 0.9600 0.9600 0.9600 0.9610 0.9610
1849.670231 0.9600 0.9600 0.9600 0.9600 0.9600
1856.322127 0.9610 0.9610 0.9610 0.9600 0.9600
1862.974023 0.9600 0.9610 0.9610 0.9610 0.9610
1869.625919 0.9610 0.9600 0.9600 0.9600 0.9610
1876.277816 0.9610 0.9610 0.9610 0.9620 0.9620
1882.929712 0.9640 0.9640 0.9640 0.9640 0.9640
1889.581608 0.9640 0.9620 0.9620 0.9610 0.9610
1896.233504 0.9610 0.9620 0.9620 0.9620 0.9620
1902.885400 0.9620 0.9620 0.9620 0.9610 0.9610
1909.537296 0.9600 0.9600 0.9600 0.9610 0.9610
1916.189192 0.9610 0.9600 0.9600 0.9580 0.9580
1922.841088 0.9580 0.9580 0.9580 0.9600 0.9600
1929.492984 0.9580 0.9580 0.9560 0.9560 0.9560
1936.144880 0.9560 0.9560 0.9560 0.9540 0.9540
1942.796776 0.9530 0.9520 0.9520 0.9520 0.9520
1949.448673 0.9520 0.9500 0.9490 0.9490 0.9490
1956.100569 0.9480 0.9460 0.9450 0.9440 0.9440
1962.752465 0.9400 0.9380 0.9380 0.9380 0.9360
1969.404361 0.9330 0.9320 0.9290 0.9280 0.9220
1976.056257 0.9200 0.9180 0.9170 0.9140 0.9140
1982.708153 0.9090 0.9080 0.9050 0.8940 0.8920
1989.360049 0.8890 0.8840 0.8810 0.8780 0.8770
1996.011945 0.8740 0.8690 0.8680 0.8620 0.8610
2002.663841 0.8600 0.8585 0.8570 0.8550 0.8530
2009.315737 0.8525 0.8520 0.8480 0.8440 0.8420
2015.967633 0.8400 0.8380 0.8360 0.8301 0.8241
2022.619530 0.8166 0.8091 0.7970 0.7849 0.7769
2029.271426 0.7689 0.7549 0.7409 0.7209 0.7009
2035.923322 0.6854 0.6699 0.6459 0.6219 0.5514
2042.575218 0.4810 0.4410 0.4011 0.3686 0.3361
2049.227114 0.3201 0.3041 0.2864 0.2683 0.2318
2055.879010 0.1954 0.1634 0.1316 0.1107 0.0897
2062.530906 0.0712 0.0529 0.0490 0.0449 0.0394
2069.182802 0.0340 0.0290 0.0240 0.0200 0.0160
2075.834698 0.0125 0.0090 0.0065 0.0040 0.0030
2082.486594 0.0020 0.0020 0.0020 0.0020 0.0020
2089.138490 0.0020 0.0020 0.0020 0.0020 0.0020
2095.790387 0.0020 0.0020 0.0020 0.0020 0.0020
2102.442283 0.0020 0.0020 0.0020 0.0020 0.0030
2109.094179 0.0046 0.0216 0.0382 0.0432 0.0483
2115.746075 0.0573 0.0665 0.0835 0.1026 0.1915
2122.397971 0.2804 0.3698 0.4577 0.4841 0.5103
2129.049867 0.5218 0.5332 0.5439 0.5558 0.5937
2135.701763 0.6311 0.6561 0.6806 0.6956 0.7102
2142.353659 0.7162 0.7220 0.7220 0.7219 0.7194
2149.005555 0.7170 0.7170 0.7171 0.7186 0.7205
2155.657451 0.7355 0.7502 0.7552 0.7611 0.7816
2162.309348 0.8012 0.8057 0.8103 0.8153 0.8201
2168.961244 0.8221 0.8242 0.8287 0.8331 0.8346
2175.613140 0.8360 0.8370 0.8381 0.8411 0.8441
2182.265036 0.8466 0.8491 0.8527 0.8561 0.8581
2188.916932 0.8603 0.8648 0.8691 0.8706 0.8722
2195.568828 0.8752 0.8781 0.8791 0.8801 0.8811
2202.220724 0.8822 0.8852 0.8881 0.8891 0.8901
2208.872620 0.8916 0.8931 0.8951 0.8970 0.8970
2215.524516 0.8971 0.8986 0.9000 0.9005 0.9011
2222.176412 0.9026 0.9041 0.9051 0.9061 0.9071
2228.828308 0.9080 0.9085 0.9091 0.9106 0.9121
2235.480205 0.9131 0.9141 0.9151 0.9161 0.9171
2242.132101 0.9181 0.9191 0.9200 0.9200 0.9200
2248.783997 0.9205 0.9210 0.9210 0.9210 0.9210
2255.435893 0.9210 0.9210 0.9210 0.9215 0.9220
2262.087789 0.9220 0.9220 0.9220 0.9220 0.9220
2268.739685 0.9221 0.9231 0.9240 0.9240 0.9240
2275.391581 0.9240 0.9240 0.9240 0.9240 0.9245
2282.043477 0.9250 0.9250 0.9250 0.9250 0.9250
2288.695373 0.9250 0.9250 0.9250 0.9250 0.9245
2295.347269 0.9239 0.9229 0.9220 0.9215 0.9210
2301.999165 0.9210 0.9209 0.9194 0.9180 0.9180
2308.651062 0.9180 0.9180 0.9180 0.9175 0.9170
2315.302958 0.9170 0.9170 0.9165 0.9160 0.9160
2321.954854 0.9159 0.9149 0.9140 0.9140 0.9139
2328.606750 0.9134 0.9129 0.9125 0.9119 0.9109
2335.258646 0.9100 0.9095 0.9090 0.9085 0.9079
2341.910542 0.9069 0.9060 0.9054 0.9049 0.9044
2348.562438 0.9040 0.9040 0.9040 0.9040 0.9040
2355.214334 0.9040 0.9041 0.9046 0.9050 0.9050
2361.866230 0.9050 0.9050 0.9051 0.9056 0.9060
2368.518126 0.9060 0.9060 0.9060 0.9061 0.9071
2375.170023 0.9080 0.9080 0.9081 0.9086 0.9092
2381.821919 0.9112 0.9132 0.9152 0.9175 0.9215
2388.473815 0.9255 0.9295 0.9336 0.9391 0.9443
2395.125711 0.9473 0.9502 0.9517 0.9531 0.9536
2401.777607 0.9542 0.9557 0.9571 0.9576 0.9580
2408.429503 0.9580 0.9580 0.9580 0.9580 0.9580
2415.081399 0.9580 0.9580 0.9580 0.9580 0.9580
2421.733295 0.9580 0.9581 0.9591 0.9600 0.9600
2428.385191 0.9601 0.9606 0.9610 0.9610 0.9611
2435.037087 0.9616 0.9621 0.9631 0.9640 0.9640
2441.688983 0.9640 0.9640 0.9641 0.9646 0.9650
2448.340880 0.9650 0.9651 0.9656 0.9660 0.9660
2454.992776 0.9660 0.9660 0.9661 0.9671 0.9681
2461.644672 0.9686 0.9690 0.9690 0.9690 0.9690
2468.296568 0.9690 0.9690 0.9690 0.9690 0.9690
2474.948464 0.9690 0.9690 0.9690 0.9690 0.9690
2481.600360 0.9690 0.9690 0.9690 0.9690 0.9690
2488.252256 0.9690 0.9690 0.9690 0.9690 0.9690
2494.904152 0.9690 0.9690 0.9690 0.9690 0.9690
2501.556048 0.9690 0.9690 0.9690 0.9690 0.9690
2508.207944 0.9690 0.9690 0.9690 0.9690 0.9690
2514.859840 0.9690 0.9690 0.9690 0.9690 0.9690
2521.511737 0.9690 0.9690 0.9690 0.9690 0.9690
2528.163633 0.9690 0.9690 0.9690 0.9690 0.9690
2534.815529 0.9690 0.9690 0.9690 0.9690 0.9689
2541.467425 0.9684 0.9680 0.9680 0.9680 0.9680
2548.119321 0.9677 0.9662 0.9649 0.9644 0.9640
2554.771217 0.9640 0.9640 0.9640 0.9640 0.9640
2561.423113 0.9640 0.9640 0.9638 0.9628 0.9620
2568.075009 0.9620 0.9620 0.9620 0.9620 0.9620
2574.726905 0.9619 0.9614 0.9610 0.9610 0.9607
2581.378801 0.9592 0.9580 0.9580 0.9580 0.9580
2588.030697 0.9580 0.9580 0.9582 0.9592 0.9600
2594.682594 0.9600 0.9600 0.9600 0.9601 0.9606
2601.334490 0.9610 0.9610 0.9609 0.9604 0.9600
2607.986386 0.9600 0.9600 0.9600 0.9600 0.9600
2614.638282 0.9600 0.9600 0.9600 0.9600 0.9600
2621.290178 0.9600 0.9600 0.9600 0.9598 0.9588
2627.942074 0.9580 0.9580 0.9580 0.9580 0.9580
2634.593970 0.9580 0.9580 0.9580 0.9580 0.9580
2641.245866 0.9580 0.9580 0.9580 0.9580 0.9580
2647.897762 0.9580 0.9580 0.9580 0.9580 0.9580
2654.549658 0.9580 0.9580 0.9580 0.9580 0.9580
2661.201555 0.9580 0.9580 0.9580 0.9580 0.9580
2667.853451 0.9580 0.9580 0.9579 0.9574 0.9569
2674.505347 0.9564 0.9560 0.9560 0.9558 0.9548
2681.157243 0.9540 0.9540 0.9539 0.9534 0.9529
2687.809139 0.9524 0.9518 0.9508 0.9499 0.9494
2694.461035 0.9485 0.9465 0.9450 0.9450 0.9447
2701.112931 0.9432 0.9418 0.9408 0.9398 0.9388
2707.764827 0.9380 0.9380 0.9382 0.9392 0.9400
2714.416723 0.9400 0.9401 0.9406 0.9410 0.9410
2721.068619 0.9410 0.9410 0.9410 0.9410 0.9410
2727.720515 0.9410 0.9410 0.9410 0.9410 0.9410
2734.372412 0.9410 0.9410 0.9410 0.9410 0.9410
2741.024308 0.9410 0.9411 0.9416 0.9420 0.9420
2747.676204 0.9420 0.9420 0.9420 0.9420 0.9420
2754.328100 0.9420 0.9420 0.9420 0.9419 0.9414
2760.979996 0.9410 0.9410 0.9410 0.9410 0.9410
2767.631892 0.9410 0.9411 0.9416 0.9420 0.9420
2774.283788 0.9420 0.9420 0.9420 0.9420 0.9419
2780.935684 0.9414 0.9410 0.9410 0.9409 0.9404
2787.587580 0.9400 0.9400 0.9400 0.9400 0.9400
2794.239476 0.9400 0.9400 0.9400 0.9396 0.9381
2800.891372 0.9365 0.9345 0.9329 0.9324 0.9320
2807.543269 0.9320 0.9317 0.9307 0.9300 0.9300
2814.195165 0.9300 0.9300 0.9300 0.9300 0.9299
2820.847061 0.9294 0.9289 0.9284 0.9280 0.9280
2827.498957 0.9277 0.9267 0.9259 0.9254 0.9249
2834.150853 0.9244 0.9237 0.9227 0.9219 0.9214
2840.802749 0.9209 0.9204 0.9197 0.9187 0.9177
2847.454645 0.9167 0.9156 0.9141 0.9124 0.9104
2854.106541 0.9084 0.9064 0.9046 0.9031 0.9014
2860.758437 0.8994 0.8979 0.8974 0.8971 0.8976
2867.410333 0.8977 0.8967 0.8957 0.8947 0.8940
2874.062229 0.8940 0.8939 0.8934 0.8930 0.8930
2880.714126 0.8929 0.8924 0.8920 0.8920 0.8917
2887.366022 0.8907 0.8899 0.8894 0.8889 0.8884
2894.017918 0.8877 0.8867 0.8857 0.8847 0.8837
2900.669814 0.8827 0.8813 0.8788 0.8764 0.8744
2907.321710 0.8728 0.8723 0.8709 0.8674 0.8640
2913.973606 0.8605 0.8574 0.8554 0.8533 0.8508
2920.625502 0.8484 0.8464 0.8444 0.8424 0.8404
2927.277398 0.8384 0.8369 0.8363 0.8357 0.8347
2933.929294 0.8340 0.8340 0.8340 0.8340 0.8343
2940.581190 0.8353 0.8362 0.8367 0.8372 0.8377
2947.233087 0.8380 0.8380 0.8380 0.8380 0.8379
2953.884983 0.8374 0.8370 0.8370 0.8370 0.8370
2960.536879 0.8372 0.8377 0.8383 0.8393 0.8406
2967.188775 0.8426 0.8448 0.8473 0.8496 0.8516
2973.840671 0.8536 0.8556 0.8575 0.8590 0.8609
2980.492567 0.8639 0.8665 0.8680 0.8695 0.8710
2987.144463 0.8722 0.8727 0.8730 0.8730 0.8730
2993.796359 0.8730 0.8728 0.8723 0.8720 0.8720
3000.448255 0.8717 0.8707 0.8697 0.8687 0.8677
3007.100151 0.8667 0.8658 0.8653 0.8648 0.8643
3013.752047 0.8633 0.8613 0.8600 0.8600 0.8593
3020.403944 0.8573 0.8553 0.8533 0.8517 0.8507
3027.055840 0.8498 0.8493 0.8485 0.8470 0.8460
3033.707736 0.8460 0.8458 0.8453 0.8450 0.8450
3040.359632 0.8450 0.8450 0.8448 0.8443 0.8435
3047.011528 0.8420 0.8410 0.8410 0.8410 0.8410
3053.663424 0.8408 0.8403 0.8390 0.8360 0.8338
3060.315320 0.8333 0.8328 0.8323 0.8315 0.8300
3066.967216 0.8285 0.8270 0.8258 0.8253 0.8248
3073.619112 0.8243 0.8240 0.8240 0.8233 0.8213
3080.271008 0.8197 0.8187 0.8180 0.8180 0.8177
3086.922904 0.8167 0.8155 0.8140 0.8128 0.8123
3093.574801 0.8116 0.8106 0.8098 0.8093 0.8085
3100.226697 0.8070 0.8058 0.8053 0.8045 0.8030
3106.878593 0.8016 0.8006 0.8000 0.8000 0.7996
3113.530489 0.7986 0.7976 0.7966 0.7947 0.7912
3120.182385 0.7877 0.7842 0.7818 0.7813 0.7804
3126.834281 0.7789 0.7771 0.7746 0.7728 0.7723
3133.486177 0.7715 0.7700 0.7683 0.7663 0.7641
3140.138073 0.7616 0.7596 0.7586 0.7568 0.7538
3146.789969 0.7514 0.7499 0.7482 0.7462 0.7442
3153.441865 0.7422 0.7408 0.7403 0.7381 0.7331
3160.093762 0.7298 0.7293 0.7277 0.7242 0.7218
3166.745658 0.7213 0.7208 0.7203 0.7200 0.7200
3173.397554 0.7196 0.7186 0.7170 0.7145 0.7120
3180.049450 0.7095 0.7072 0.7052 0.7034 0.7019
3186.701346 0.7008 0.7003 0.6987 0.6952 0.6928
3193.353242 0.6923 0.6914 0.6899 0.6884 0.6869
3200.005138 0.6852 0.6832 0.6808 0.6778 0.6748
3206.657034 0.6718 0.6690 0.6665 0.6642 0.6622
3213.308930 0.6602 0.6582 0.6560 0.6535 0.6499
3219.960826 0.6444 0.6394 0.6354 0.6320 0.6295
3226.612722 0.6251 0.6181 0.6130 0.6105 0.6072
3233.264619 0.6027 0.5980 0.5930 0.5896 0.5886
3239.916515 0.5848 0.5768 0.5704 0.5664 0.5632
3246.568411 0.5612 0.5572 0.5501 0.5456 0.5446
3253.220307 0.5432 0.5412 0.5394 0.5379 0.5362
3259.872203 0.5342 0.5328 0.5323 0.5320 0.5320
3266.524099 0.5322 0.5327 0.5336 0.5351 0.5372
3273.175995 0.5402 0.5428 0.5448 0.5469 0.5489
3279.827891 0.5509 0.5529 0.5561 0.5611 0.5678
3286.479787 0.5768 0.5845 0.5905 0.5957 0.5997
3293.131683 0.6049 0.6119 0.6170 0.6195 0.6227
3299.783579 0.6267 0.6307 0.6347 0.6379 0.6399
3306.435476 0.6419 0.6439 0.6452 0.6457 0.6460
3313.087372 0.6460 0.6466 0.6481 0.6492 0.6497
3319.739268 0.6500 0.6500 0.6504 0.6514 0.6520
3326.391164 0.6520 0.6522 0.6527 0.6530 0.6530
3333.043060 0.6530 0.6530 0.6532 0.6537 0.6540
3339.694956 0.6540 0.6544 0.6554 0.6560 0.6560
3346.346852 0.6560 0.6560 0.6553 0.6539 0.6530
3352.998748 0.6530 0.6528 0.6523 0.6513 0.6498
3359.650644 0.6483 0.6468 0.6458 0.6453 0.6448
3366.302540 0.6443 0.6436 0.6426 0.6418 0.6413
3372.954436 0.6410 0.6410 0.6408 0.6403 0.6396
3379.606333 0.6386 0.6378 0.6373 0.6368 0.6363
3386.258229 0.6355 0.6345 0.6340 0.6340 0.6340
3392.910125 0.6340 0.6340 0.6340 0.6345 0.6355
3399.562021 0.6360 0.6360 0.6362 0.6367 0.6370
3406.213917 0.6370 0.6377 0.6392 0.6400 0.6400
3412.865813 0.6402 0.6407 0.6412 0.6417 0.6420
3419.517709 0.6420 0.6425 0.6435 0.6440 0.6440
3426.169605 0.6442 0.6447 0.6452 0.6457 0.6465
3432.821501 0.6475 0.6480 0.6480 0.6482 0.6487
3439.473397 0.6490 0.6490 0.6492 0.6497 0.6505
3446.125294 0.6515 0.6520 0.6520 0.6525 0.6535
3452.777190 0.6545 0.6555 0.6560 0.6560 0.6565
3459.429086 0.6575 0.6585 0.6595 0.6602 0.6607
3466.080982 0.6612 0.6617 0.6625 0.6635 0.6645
3472.732878 0.6655 0.6667 0.6682 0.6697 0.6712
3479.384774 0.6725 0.6735 0.6747 0.6762 0.6772
3486.036670 0.6777 0.6785 0.6795 0.6810 0.6830
3492.688566 0.6842 0.6847 0.6852 0.6857 0.6867
3499.340462 0.6882 0.6907 0.6942 0.6965 0.6975
3505.992358 0.6985 0.6995 0.7000 0.7000 0.7005
3512.644254 0.7015 0.7027 0.7043 0.7058 0.7073
3519.296151 0.7085 0.7095 0.7118 0.7153 0.7178
3525.948047 0.7193 0.7203 0.7208 0.7213 0.7217
3532.599943 0.7227 0.7242 0.7257 0.7272 0.7290
3539.251839 0.7310 0.7325 0.7335 0.7358 0.7393
3545.903735 0.7413 0.7418 0.7438 0.7473 0.7498
3552.555631 0.7513 0.7525 0.7535 0.7555 0.7585
3559.207527 0.7605 0.7615 0.7635 0.7665 0.7690
3565.859423 0.7710 0.7725 0.7735 0.7751 0.7771
3572.511319 0.7796 0.7826 0.7850 0.7870 0.7883
3579.163215 0.7888 0.7898 0.7913 0.7943 0.7988
3585.815111 0.8018 0.8033 0.8045 0.8055 0.8060
3592.467008 0.8060 0.8065 0.8075 0.8083 0.8088
3599.118904 0.8103 0.8128 0.8159 0.8194 0.8229
3605.770800 0.8264 0.8306 0.8356 0.8396 0.8426
3612.422696 0.8453 0.8478 0.8511 0.8551 0.8573
3619.074592 0.8578 0.8588 0.8603 0.8618 0.8633
3625.726488 0.8643 0.8648 0.8661 0.8681 0.8693
3632.378384 0.8698 0.8705 0.8715 0.8720 0.8720
3639.030280 0.8720 0.8720 0.8723 0.8728 0.8738
3645.682176 0.8753 0.8771 0.8791 0.8806 0.8816
3652.334072 0.8839 0.8874 0.8909 0.8944 0.8971
3658.985969 0.8991 0.9003 0.9008 0.9013 0.9018
3665.637865 0.9036 0.9066 0.9083 0.9088 0.9098
3672.289761 0.9113 0.9123 0.9128 0.9133 0.9138
3678.941657 0.9151 0.9171 0.9191 0.9211 0.9228
3685.593553 0.9243 0.9258 0.9273 0.9280 0.9280
3692.245449 0.9283 0.9288 0.9298 0.9313 0.9334
3698.897345 0.9359 0.9373 0.9378 0.9386 0.9396
3705.549241 0.9400 0.9400 0.9400 0.9400 0.9406
3712.201137 0.9416 0.9428 0.9443 0.9458 0.9473
3718.853033 0.9483 0.9488 0.9493 0.9498 0.9500
3725.504929 0.9500 0.9500 0.9500 0.9506 0.9516
3732.156826 0.9520 0.9520 0.9520 0.9520 0.9523
3738.808722 0.9528 0.9530 0.9530 0.9533 0.9538
3745.460618 0.9540 0.9540 0.9540 0.9540 0.9540
3752.112514 0.9540 0.9540 0.9540 0.9546 0.9556
3758.764410 0.9560 0.9560 0.9566 0.9576 0.9580
3765.416306 0.9580 0.9580 0.9580 0.9577 0.9572
3772.068202 0.9573 0.9578 0.9580 0.9580 0.9580
3778.720098 0.9580 0.9586 0.9596 0.9600 0.9600
3785.371994 0.9600 0.9600 0.9600 0.9600 0.9603
3792.023890 0.9608 0.9610 0.9610 0.9610 0.9610
3798.675786 0.9607 0.9602 0.9600 0.9600 0.9600
3805.327683 0.9600 0.9600 0.9600 0.9600 0.9600
3811.979579 0.9600 0.9600 0.9603 0.9608 0.9610
3818.631475 0.9610 0.9613 0.9618 0.9620 0.9620
3825.283371 0.9617 0.9612 0.9607 0.9602 0.9600
3831.935267 0.9600 0.9600 0.9600 0.9600 0.9600
3838.587163 0.9603 0.9608 0.9607 0.9602 0.9600
3845.239059 0.9600 0.9600 0.9600 0.9600 0.9600
3851.890955 0.9600 0.9600 0.9600 0.9600 0.9600
3858.542851 0.9600 0.9600 0.9600 0.9600 0.9600
3865.194747 0.9600 0.9600 0.9600 0.9600 0.9600
3871.846643 0.9600 0.9600 0.9600 0.9594 0.9584
3878.498540 0.9580 0.9580 0.9580 0.9580 0.9580
3885.150436 0.9580 0.9580 0.9580 0.9580 0.9580
3891.802332 0.9586 0.9596 0.9600 0.9600 0.9600
3898.454228 0.9600 0.9600 0.9600 0.9600 0.9600
3905.106124 0.9600 0.9600 0.9603 0.9608 0.9610
3911.758020 0.9610 0.9610 0.9610 0.9613 0.9618
3918.409916 0.9617 0.9612 0.9610 0.9610 0.9610
3925.061812 0.9610 0.9610 0.9610 0.9610 0.9610
3931.713708 0.9610 0.9610 0.9610 0.9610 0.9610
3938.365604 0.9610 0.9610 0.9610 0.9610 0.9610
3945.017501 0.9610 0.9610 0.9610 0.9610 0.9610
3951.669397 0.9610 0.9610 0.9610 0.9610 0.9610
3958.321293 0.9610 0.9610 0.9610 0.9610 0.9610
3964.973189 0.9610 0.9610 0.9610 0.9610 0.9610
3971.625085 0.9610 0.9610 0.9610 0.9610 0.9610
3978.276981 0.9610 0.9610 0.9610 0.9610 0.9610
3984.928877 0.9610 0.9610
##END=
