##TITLE=1,2-CYCLOBUTANE DICARBONYL CHLORIDE, TRANS-
##JCAMP-DX=4.24
##DATA TYPE=INFRARED SPECTRUM
##CLASS=COBLENTZ III
##ORIGIN=DOW CHEMICAL COMPANY
##OWNER=COBLENTZ SOC.
Collection (C) 2018 copyright by the U.S. Secretary of Commerce
on behalf of the United States of America. All rights reserved.
##DATE=1965/07/08
##NAMES=1,2-cyclobutanedicarbonyl dichloride
##MOLFORM=C6 H6 Cl2 O2
##BP=67 C AT 0.25 mmHg
##SOURCE REFERENCE=COBLENTZ NO. 06697
##$NIST ID=B6006697
##$NIST SOURCE=COBLENTZ
##$NIST IMAGE=cob6697
##SPECTROMETER/DATA SYSTEM=BECKMAN IR-9 (GRATING)
##INSTRUMENT PARAMETERS=ORDER CHANGES: 670, 1200, 2000 CM^-^1
##STATE=SOLUTION (10% CCl4 FOR 3800-1330, 10% CS2 FOR 1330-400 CM^-^1))
##PATH LENGTH=0.012 CM, 0.011 CM
$$SPECTRAL CONTAMINATION DUE TO CCl4 AROUND 1560, AND AN UNKNOWN AROUND 400 CM^-^1
$$ SPECTRAL FEATURE AT 1999 CM^-^1 IS AN ARTIFACT CAUSED BY GRATING CHANGE
##SAMPLING PROCEDURE=TRANSMISSION
##RESOLUTION=2
##DATA PROCESSING=DIGITIZED BY COBLENTZ SOCIETY (BATCH I) FROM HARD COPY
##XUNITS=1/CM
##YUNITS=TRANSMITTANCE
##XLABEL=Wavenumbers (cm-1)
##YLABEL=% Transmission
##XFACTOR=1
##YFACTOR=1
##DELTAX=1
##FIRSTX=403
##LASTX=3800
##FIRSTY=0.112
##MAXX=3800
##MINX=403
##MAXY=0.9778
##MINY=0
##NPOINTS=3398
##XYDATA=(X++(Y..Y))
403.000000 0.1120 0.1081 0.1046 0.1036 0.1026
408.000000 0.1025 0.1025 0.1033 0.1046 0.1080
413.000000 0.1114 0.1171 0.1250 0.1357 0.2063
418.000000 0.2259 0.2454 0.3176 0.3540 0.3700
423.000000 0.3939 0.4096 0.4171 0.4204 0.4237
428.000000 0.4251 0.4262 0.4275 0.4235 0.4052
433.000000 0.3787 0.3522 0.3257 0.2977 0.2835
438.000000 0.2713 0.2584 0.2499 0.2435 0.2394
443.000000 0.2378 0.2370 0.2365 0.2400 0.2684
448.000000 0.3143 0.3600 0.4059 0.4518 0.4976
453.000000 0.5434 0.5892 0.6103 0.6300 0.6501
458.000000 0.6708 0.6901 0.7075 0.7271 0.7447
463.000000 0.7556 0.7648 0.7700 0.7751 0.7804
468.000000 0.7888 0.7978 0.8101 0.8200 0.8248
473.000000 0.8290 0.8305 0.8318 0.8324 0.8328
478.000000 0.8331 0.8335 0.8336 0.8338 0.8339
483.000000 0.8338 0.8337 0.8334 0.8330 0.8327
488.000000 0.8343 0.8380 0.8432 0.8463 0.8487
493.000000 0.8502 0.8517 0.8530 0.8543 0.8556
498.000000 0.8568 0.8577 0.8584 0.8580 0.8567
503.000000 0.8554 0.8541 0.8521 0.8503 0.8485
508.000000 0.8471 0.8458 0.8460 0.8470 0.8500
513.000000 0.8533 0.8584 0.8653 0.8762 0.8873
518.000000 0.8945 0.9014 0.9064 0.9099 0.9116
523.000000 0.9125 0.9124 0.9123 0.9121 0.9118
528.000000 0.9116 0.9114 0.9166 0.9108 0.9099
533.000000 0.9088 0.9077 0.9066 0.9049 0.9033
538.000000 0.9015 0.8986 0.8957 0.8928 0.8900
543.000000 0.8874 0.8848 0.8821 0.8798 0.8777
548.000000 0.8757 0.8736 0.8715 0.8694 0.8674
553.000000 0.8658 0.8651 0.8644 0.8640 0.8671
558.000000 0.8694 0.8730 0.8775 0.8821 0.8871
563.000000 0.8932 0.8991 0.9049 0.9106 0.9155
568.000000 0.9200 0.9245 0.9290 0.9325 0.9356
573.000000 0.9387 0.9418 0.9443 0.9465 0.9487
578.000000 0.9510 0.9527 0.9538 0.9549 0.9558
583.000000 0.9558 0.9558 0.9559 0.9559 0.9555
588.000000 0.9545 0.9537 0.9521 0.9505 0.9489
593.000000 0.9471 0.9456 0.9432 0.9405 0.9377
598.000000 0.9348 0.9314 0.9280 0.9240 0.9184
603.000000 0.9137 0.9108 0.9078 0.9053 0.9039
608.000000 0.9025 0.9011 0.8984 0.8953 0.8923
613.000000 0.8894 0.8866 0.8839 0.8818 0.8797
618.000000 0.8775 0.8762 0.8751 0.8739 0.8728
623.000000 0.8717 0.8705 0.8693 0.8681 0.8668
628.000000 0.8657 0.8645 0.8611 0.8566 0.8506
633.000000 0.8440 0.8341 0.8223 0.8075 0.7951
638.000000 0.7865 0.7781 0.7684 0.7581 0.7496
643.000000 0.7433 0.7368 0.7305 0.7241 0.7161
648.000000 0.7080 0.7031 0.6982 0.6935 0.6912
653.000000 0.6908 0.6892 0.6911 0.6921 0.6936
658.000000 0.6961 0.6991 0.7031 0.7065 0.7078
663.000000 0.7078 0.7078 0.7075 0.7069 0.7065
668.000000 0.7061 0.7058 0.7054 0.7051 0.7047
673.000000 0.7022 0.7039 0.7035 0.7030 0.7025
678.000000 0.7025 0.7025 0.7028 0.7051 0.7082
683.000000 0.7119 0.7158 0.7205 0.7249 0.7283
688.000000 0.7304 0.7307 0.7310 0.7305 0.7296
693.000000 0.7278 0.7249 0.7198 0.7098 0.6985
698.000000 0.6858 0.6726 0.6564 0.6406 0.6262
703.000000 0.6118 0.5896 0.5702 0.5570 0.5437
708.000000 0.5270 0.4964 0.4416 0.3868 0.3320
713.000000 0.2746 0.2041 0.1884 0.1729 0.1469
718.000000 0.1201 0.0918 0.0794 0.0680 0.0599
723.000000 0.0517 0.0456 0.0401 0.0366 0.0357
728.000000 0.0322 0.0363 0.0376 0.0409 0.0483
733.000000 0.0617 0.0737 0.0806 0.0865 0.0905
738.000000 0.0928 0.0945 0.0958 0.0972 0.0982
743.000000 0.0992 0.1020 0.1737 0.2055 0.2371
748.000000 0.2688 0.3005 0.3322 0.3486 0.3659
753.000000 0.3884 0.4253 0.4441 0.4756 0.5322
758.000000 0.5686 0.6135 0.6500 0.6683 0.6865
763.000000 0.7015 0.7143 0.7271 0.7419 0.7628
768.000000 0.7748 0.7864 0.7965 0.8055 0.8121
773.000000 0.8172 0.8206 0.8239 0.8268 0.8282
778.000000 0.8294 0.8307 0.8308 0.8307 0.8306
783.000000 0.8289 0.8271 0.8242 0.8209 0.8165
788.000000 0.8080 0.7991 0.7898 0.7788 0.7618
793.000000 0.7444 0.7304 0.7167 0.7044 0.6921
798.000000 0.6806 0.6708 0.6611 0.6512 0.6383
803.000000 0.6228 0.6073 0.5738 0.5512 0.5338
808.000000 0.5175 0.5046 0.4916 0.4787 0.4714
813.000000 0.4640 0.4566 0.4491 0.4402 0.4334
818.000000 0.4308 0.4295 0.4256 0.4306 0.4433
823.000000 0.4638 0.4843 0.5048 0.5252 0.5457
828.000000 0.5662 0.5867 0.6072 0.6273 0.6498
833.000000 0.6585 0.6658 0.6706 0.6745 0.6769
838.000000 0.6786 0.6782 0.6801 0.6748 0.6598
843.000000 0.6355 0.6112 0.5868 0.5625 0.5382
848.000000 0.5139 0.4896 0.4653 0.4410 0.4167
853.000000 0.3924 0.3680 0.3438 0.3178 0.2834
858.000000 0.2628 0.2463 0.2324 0.2171 0.1982
863.000000 0.1843 0.1774 0.1750 0.1741 0.1743
868.000000 0.1723 0.1793 0.1966 0.2149 0.2329
873.000000 0.2510 0.2691 0.2872 0.3053 0.3234
878.000000 0.3414 0.3595 0.3776 0.3957 0.4138
883.000000 0.4319 0.4499 0.4680 0.4860 0.5042
888.000000 0.5223 0.5404 0.5584 0.5748 0.5846
893.000000 0.5944 0.6048 0.6186 0.6323 0.6499
898.000000 0.6646 0.6725 0.6805 0.6868 0.6911
903.000000 0.6925 0.6938 0.6953 0.6968 0.6984
908.000000 0.7022 0.7110 0.7169 0.7193 0.7199
913.000000 0.7208 0.7185 0.7149 0.7105 0.7026
918.000000 0.6834 0.6512 0.6337 0.6206 0.6109
923.000000 0.6022 0.5950 0.5906 0.5879 0.5853
928.000000 0.5844 0.5837 0.5833 0.5831 0.5673
933.000000 0.5419 0.5165 0.4910 0.4657 0.4403
938.000000 0.4149 0.3896 0.3642 0.3602 0.3599
943.000000 0.3921 0.4506 0.5091 0.5676 0.6260
948.000000 0.6682 0.6839 0.6985 0.7097 0.7208
953.000000 0.8065 0.8328 0.8428 0.8500 0.8536
958.000000 0.8571 0.8604 0.8620 0.8637 0.8652
963.000000 0.8656 0.8659 0.8659 0.8641 0.8642
968.000000 0.8642 0.8636 0.8618 0.8593 0.8560
973.000000 0.8528 0.8496 0.8448 0.8401 0.8350
978.000000 0.8283 0.8216 0.8149 0.8081 0.7990
983.000000 0.7898 0.7807 0.7715 0.7644 0.7571
988.000000 0.7499 0.7425 0.7353 0.7275 0.7199
993.000000 0.7122 0.7046 0.6969 0.6910 0.6851
998.000000 0.6792 0.6733 0.6674 0.6599 0.6518
1003.000000 0.6439 0.6359 0.6280 0.6195 0.6109
1008.000000 0.6022 0.5936 0.5801 0.5651 0.5500
1013.000000 0.5310 0.5120 0.4947 0.4776 0.4381
1018.000000 0.4080 0.3816 0.3555 0.3293 0.3030
1023.000000 0.2768 0.2506 0.2243 0.1981 0.1710
1028.000000 0.1404 0.1245 0.1117 0.1040 0.0963
1033.000000 0.0888 0.0826 0.0794 0.0780 0.0747
1038.000000 0.0776 0.0785 0.0797 0.0846 0.0938
1043.000000 0.1072 0.1207 0.1341 0.1476 0.1610
1048.000000 0.1744 0.1879 0.2013 0.2148 0.2282
1053.000000 0.2417 0.2551 0.2658 0.2766 0.2893
1058.000000 0.3065 0.3239 0.3406 0.3680 0.3786
1063.000000 0.3862 0.3912 0.3960 0.4005 0.4043
1068.000000 0.4080 0.4116 0.4153 0.4240 0.4464
1073.000000 0.4654 0.4827 0.4988 0.5138 0.5284
1078.000000 0.5426 0.5549 0.5660 0.5730 0.5768
1083.000000 0.5768 0.5793 0.5749 0.5725 0.5624
1088.000000 0.5505 0.5386 0.5267 0.5148 0.5029
1093.000000 0.4910 0.4791 0.4672 0.4553 0.4434
1098.000000 0.4315 0.4198 0.4202 0.4174 0.4235
1103.000000 0.4265 0.4341 0.4670 0.4798 0.4862
1108.000000 0.4903 0.4930 0.4975 0.5081 0.5305
1113.000000 0.5529 0.5753 0.5977 0.6201 0.6424
1118.000000 0.6648 0.7078 0.7271 0.7442 0.7632
1123.000000 0.7908 0.8084 0.8251 0.8411 0.8552
1128.000000 0.8666 0.8778 0.8868 0.8945 0.9021
1133.000000 0.9085 0.9137 0.9190 0.9215 0.9238
1138.000000 0.9257 0.9253 0.9249 0.9241 0.9227
1143.000000 0.9213 0.9204 0.9209 0.9225 0.9255
1148.000000 0.9278 0.9291 0.9304 0.9305 0.9307
1153.000000 0.9325 0.9303 0.9295 0.9285 0.9262
1158.000000 0.9239 0.9215 0.9188 0.9152 0.9116
1163.000000 0.9080 0.9044 0.8988 0.8928 0.8868
1168.000000 0.8670 0.8467 0.8264 0.8060 0.7857
1173.000000 0.7654 0.7501 0.7355 0.7201 0.7101
1178.000000 0.7044 0.6995 0.6975 0.6962 0.6964
1183.000000 0.6965 0.6940 0.7008 0.7036 0.7033
1188.000000 0.7019 0.7054 0.6861 0.6772 0.6693
1193.000000 0.6647 0.6607 0.6578 0.6565 0.6562
1198.000000 0.6568 0.6539 0.6582 0.6601 0.6624
1203.000000 0.6651 0.6680 0.6719 0.6761 0.6801
1208.000000 0.6860 0.6918 0.7004 0.7099 0.7250
1213.000000 0.7412 0.7551 0.7691 0.7818 0.7947
1218.000000 0.8128 0.8355 0.8509 0.8570 0.8631
1223.000000 0.8656 0.8675 0.8673 0.8671 0.8659
1228.000000 0.8653 0.8628 0.8371 0.8035 0.7698
1233.000000 0.7361 0.7025 0.6688 0.6351 0.6014
1238.000000 0.5677 0.5340 0.5240 0.5216 0.5219
1243.000000 0.5422 0.5902 0.6382 0.6861 0.7342
1248.000000 0.7822 0.8303 0.8539 0.8702 0.8953
1253.000000 0.9058 0.9099 0.9140 0.9168 0.9184
1258.000000 0.9196 0.9190 0.9227 0.9173 0.9146
1263.000000 0.9109 0.9066 0.9020 0.8970 0.8928
1268.000000 0.8891 0.8853 0.8815 0.8765 0.8703
1273.000000 0.8641 0.8577 0.8513 0.8421 0.8324
1278.000000 0.8199 0.8035 0.7825 0.7617 0.7517
1283.000000 0.7415 0.7306 0.7171 0.7055 0.7001
1288.000000 0.7001 0.6961 0.7032 0.7121 0.7318
1293.000000 0.7625 0.7781 0.7900 0.8005 0.8131
1298.000000 0.8261 0.8396 0.8543 0.8687 0.8825
1303.000000 0.8931 0.9017 0.9102 0.9186 0.9267
1308.000000 0.9342 0.9416 0.9466 0.9508 0.9550
1313.000000 0.9590 0.9625 0.9659 0.9694 0.9706
1318.000000 0.9717 0.9728 0.9740 0.9739 0.9737
1323.000000 0.9734 0.9767 0.9718 0.9697 0.9675
1328.000000 0.9654 0.9625 0.9593 0.9562 0.9530
1333.000000 0.9437 0.9304 0.9170 0.9037 0.8903
1338.000000 0.8768 0.8636 0.8505 0.8417 0.8364
1343.000000 0.8321 0.8268 0.8212 0.8158 0.8105
1348.000000 0.8048 0.8000 0.7958 0.7928 0.7915
1353.000000 0.7911 0.7935 0.7962 0.7996 0.8040
1358.000000 0.8089 0.8141 0.8194 0.8249 0.8304
1363.000000 0.8361 0.8418 0.8475 0.8540 0.8604
1368.000000 0.8657 0.8709 0.8761 0.8801 0.8840
1373.000000 0.8878 0.8918 0.8956 0.8993 0.9023
1378.000000 0.9046 0.9068 0.9092 0.9116 0.9139
1383.000000 0.9154 0.9168 0.9182 0.9196 0.9210
1388.000000 0.9221 0.9230 0.9238 0.9247 0.9255
1393.000000 0.9263 0.9271 0.9280 0.9285 0.9287
1398.000000 0.9289 0.9292 0.9294 0.9297 0.9299
1403.000000 0.9301 0.9303 0.9303 0.9304 0.9304
1408.000000 0.9304 0.9305 0.9305 0.9343 0.9299
1413.000000 0.9296 0.9293 0.9290 0.9287 0.9284
1418.000000 0.9281 0.9278 0.9275 0.9270 0.9265
1423.000000 0.9259 0.9254 0.9249 0.9242 0.9227
1428.000000 0.9212 0.9197 0.9177 0.9149 0.9120
1433.000000 0.9088 0.9049 0.9010 0.8964 0.8916
1438.000000 0.8856 0.8759 0.8601 0.8236 0.7771
1443.000000 0.7307 0.6842 0.6378 0.5912 0.5848
1448.000000 0.5847 0.5862 0.6326 0.7228 0.8130
1453.000000 0.8375 0.8494 0.8558 0.8591 0.8624
1458.000000 0.8651 0.8674 0.8696 0.8718 0.8745
1463.000000 0.8773 0.8801 0.8828 0.8857 0.8884
1468.000000 0.8911 0.8938 0.8960 0.8977 0.8995
1473.000000 0.9012 0.9018 0.9025 0.9030 0.9034
1478.000000 0.9037 0.9041 0.9040 0.9044 0.9044
1483.000000 0.9045 0.9039 0.9034 0.9028 0.9023
1488.000000 0.9006 0.8983 0.8958 0.8921 0.8881
1493.000000 0.8837 0.8789 0.8742 0.8694 0.8647
1498.000000 0.8599 0.8552 0.8504 0.8457 0.8409
1503.000000 0.8357 0.8300 0.8244 0.8188 0.8132
1508.000000 0.8075 0.8019 0.7962 0.7894 0.7825
1513.000000 0.7758 0.7690 0.7621 0.7551 0.7468
1518.000000 0.7386 0.7303 0.7221 0.7138 0.7056
1523.000000 0.6980 0.6906 0.6832 0.6758 0.6683
1528.000000 0.6608 0.6540 0.6472 0.6407 0.6340
1533.000000 0.6273 0.6207 0.6140 0.6071 0.5979
1538.000000 0.5886 0.5794 0.5701 0.5596 0.5488
1543.000000 0.5380 0.5273 0.5196 0.5118 0.5043
1548.000000 0.5000 0.4958 0.4915 0.4874 0.4844
1553.000000 0.4828 0.4827 0.4826 0.4825 0.4828
1558.000000 0.4841 0.4869 0.4919 0.4986 0.5072
1563.000000 0.5230 0.5388 0.5546 0.5705 0.5818
1568.000000 0.5889 0.5954 0.6019 0.6084 0.6149
1573.000000 0.6212 0.6273 0.6325 0.6354 0.6383
1578.000000 0.6411 0.6441 0.6467 0.6483 0.6500
1583.000000 0.6515 0.6532 0.6551 0.6572 0.6596
1588.000000 0.6618 0.6651 0.6717 0.6807 0.6954
1593.000000 0.7068 0.7115 0.7161 0.7418 0.7558
1598.000000 0.7701 0.7848 0.7944 0.8030 0.8115
1603.000000 0.8202 0.8282 0.8362 0.8442 0.8520
1608.000000 0.8578 0.8636 0.8693 0.8748 0.8787
1613.000000 0.8825 0.8864 0.8901 0.8931 0.8961
1618.000000 0.8990 0.9020 0.9049 0.9078 0.9100
1623.000000 0.9121 0.9143 0.9165 0.9185 0.9199
1628.000000 0.9212 0.9225 0.9239 0.9253 0.9266
1633.000000 0.9274 0.9282 0.9290 0.9299 0.9307
1638.000000 0.9315 0.9318 0.9320 0.9321 0.9324
1643.000000 0.9327 0.9328 0.9331 0.9333 0.9334
1648.000000 0.9335 0.9335 0.9335 0.9335 0.9334
1653.000000 0.9334 0.9334 0.9333 0.9328 0.9325
1658.000000 0.9321 0.9318 0.9314 0.9311 0.9307
1663.000000 0.9303 0.9296 0.9289 0.9283 0.9275
1668.000000 0.9268 0.9262 0.9255 0.9248 0.9241
1673.000000 0.9234 0.9227 0.9220 0.9212 0.9202
1678.000000 0.9193 0.9183 0.9174 0.9164 0.9154
1683.000000 0.9145 0.9135 0.9125 0.9116 0.9106
1688.000000 0.9095 0.9084 0.9071 0.9060 0.9048
1693.000000 0.9037 0.9025 0.9013 0.9001 0.8989
1698.000000 0.8975 0.8959 0.8942 0.8925 0.8908
1703.000000 0.8891 0.8874 0.8857 0.8839 0.8821
1708.000000 0.8802 0.8778 0.8754 0.8728 0.8705
1713.000000 0.8681 0.8657 0.8628 0.8589 0.8550
1718.000000 0.8511 0.8471 0.8434 0.8395 0.8321
1723.000000 0.8245 0.8168 0.8091 0.8015 0.7938
1728.000000 0.7732 0.7510 0.7375 0.7241 0.7101
1733.000000 0.6961 0.6849 0.6746 0.6643 0.6539
1738.000000 0.6389 0.6239 0.6089 0.5964 0.5850
1743.000000 0.5736 0.5623 0.5512 0.5412 0.5310
1748.000000 0.5210 0.5110 0.4994 0.4865 0.4736
1753.000000 0.4605 0.4210 0.4018 0.3874 0.3729
1758.000000 0.3559 0.3384 0.3209 0.3077 0.2947
1763.000000 0.2818 0.2688 0.2457 0.2187 0.1789
1768.000000 0.1558 0.1384 0.1230 0.1138 0.1046
1773.000000 0.0954 0.0858 0.0755 0.0651 0.0543
1778.000000 0.0413 0.0296 0.0220 0.0149 0.0116
1783.000000 0.0083 0.0050 0.0017 0.0001 0.0001
1788.000000 0.0001 0.0001 0.0001 0.0001 0.0001
1793.000000 0.0001 0.0001 0.0001 0.0001 0.0001
1798.000000 0.0001 0.0001 0.0001 0.0001 0.0001
1803.000000 0.0001 0.0001 0.0001 0.0000 0.0000
1808.000000 0.0000 0.0000 0.0000 0.0000 0.0014
1813.000000 0.0045 0.0065 0.0094 0.0230 0.0551
1818.000000 0.0759 0.1177 0.1423 0.1724 0.2165
1823.000000 0.2472 0.2639 0.2823 0.3042 0.3523
1828.000000 0.3732 0.3982 0.4190 0.4433 0.4687
1833.000000 0.4908 0.5134 0.5337 0.5473 0.5605
1838.000000 0.5684 0.5764 0.5843 0.5922 0.6003
1843.000000 0.6084 0.6166 0.6247 0.6346 0.6451
1848.000000 0.6557 0.6645 0.6728 0.6812 0.6881
1853.000000 0.6944 0.7006 0.7061 0.7112 0.7162
1858.000000 0.7201 0.7232 0.7262 0.7294 0.7324
1863.000000 0.7355 0.7385 0.7411 0.7439 0.7465
1868.000000 0.7494 0.7521 0.7548 0.7575 0.7603
1873.000000 0.7633 0.7664 0.7694 0.7724 0.7751
1878.000000 0.7775 0.7797 0.7818 0.7840 0.7860
1883.000000 0.7881 0.7901 0.7921 0.7942 0.7961
1888.000000 0.7980 0.8000 0.8018 0.8036 0.8055
1893.000000 0.8072 0.8091 0.8110 0.8133 0.8158
1898.000000 0.8185 0.8212 0.8238 0.8264 0.8292
1903.000000 0.8320 0.8348 0.8381 0.8417 0.8454
1908.000000 0.8490 0.8533 0.8585 0.8638 0.8684
1913.000000 0.8727 0.8770 0.8813 0.8841 0.8862
1918.000000 0.8883 0.8904 0.8925 0.8946 0.8967
1923.000000 0.8985 0.9000 0.9015 0.9030 0.9045
1928.000000 0.9060 0.9075 0.9089 0.9104 0.9114
1933.000000 0.9123 0.9132 0.9141 0.9150 0.9159
1938.000000 0.9168 0.9177 0.9185 0.9192 0.9200
1943.000000 0.9207 0.9215 0.9223 0.9230 0.9238
1948.000000 0.9246 0.9251 0.9254 0.9258 0.9262
1953.000000 0.9266 0.9268 0.9273 0.9277 0.9281
1958.000000 0.9284 0.9289 0.9294 0.9299 0.9304
1963.000000 0.9308 0.9313 0.9318 0.9323 0.9328
1968.000000 0.9333 0.9338 0.9343 0.9348 0.9354
1973.000000 0.9359 0.9364 0.9368 0.9373 0.9377
1978.000000 0.9381 0.9385 0.9389 0.9393 0.9399
1983.000000 0.9406 0.9412 0.9418 0.9425 0.9432
1988.000000 0.9439 0.9447 0.9455 0.9464 0.9471
1993.000000 0.9474 0.9458 0.9409 0.9287 0.9175
1998.000000 0.9137 0.9127 0.9127 0.9290 0.9454
2003.000000 0.9462 0.9471 0.9475 0.9478 0.9478
2008.000000 0.9478 0.9478 0.9480 0.9480 0.9480
2013.000000 0.9480 0.9480 0.9480 0.9480 0.9478
2018.000000 0.9478 0.9478 0.9478 0.9478 0.9478
2023.000000 0.9478 0.9478 0.9478 0.9478 0.9478
2028.000000 0.9478 0.9478 0.9478 0.9480 0.9482
2033.000000 0.9483 0.9484 0.9485 0.9487 0.9488
2038.000000 0.9489 0.9490 0.9492 0.9493 0.9494
2043.000000 0.9494 0.9495 0.9495 0.9496 0.9496
2048.000000 0.9497 0.9497 0.9498 0.9498 0.9499
2053.000000 0.9499 0.9499 0.9499 0.9499 0.9499
2058.000000 0.9499 0.9499 0.9499 0.9498 0.9498
2063.000000 0.9498 0.9498 0.9498 0.9498 0.9498
2068.000000 0.9498 0.9498 0.9499 0.9499 0.9499
2073.000000 0.9499 0.9500 0.9500 0.9500 0.9500
2078.000000 0.9500 0.9500 0.9501 0.9502 0.9503
2083.000000 0.9503 0.9504 0.9505 0.9506 0.9507
2088.000000 0.9535 0.9510 0.9511 0.9512 0.9514
2093.000000 0.9516 0.9518 0.9518 0.9521 0.9523
2098.000000 0.9525 0.9525 0.9528 0.9530 0.9532
2103.000000 0.9533 0.9535 0.9537 0.9539 0.9541
2108.000000 0.9544 0.9546 0.9549 0.9551 0.9554
2113.000000 0.9556 0.9559 0.9561 0.9564 0.9566
2118.000000 0.9568 0.9571 0.9574 0.9575 0.9578
2123.000000 0.9581 0.9584 0.9587 0.9591 0.9594
2128.000000 0.9598 0.9602 0.9606 0.9610 0.9614
2133.000000 0.9617 0.9621 0.9624 0.9627 0.9630
2138.000000 0.9633 0.9636 0.9639 0.9642 0.9645
2143.000000 0.9648 0.9651 0.9654 0.9657 0.9658
2148.000000 0.9659 0.9660 0.9661 0.9662 0.9663
2153.000000 0.9664 0.9665 0.9665 0.9666 0.9667
2158.000000 0.9668 0.9668 0.9670 0.9671 0.9671
2163.000000 0.9673 0.9674 0.9674 0.9675 0.9675
2168.000000 0.9677 0.9677 0.9678 0.9678 0.9680
2173.000000 0.9680 0.9681 0.9682 0.9683 0.9683
2178.000000 0.9684 0.9685 0.9686 0.9686 0.9687
2183.000000 0.9688 0.9689 0.9689 0.9689 0.9689
2188.000000 0.9690 0.9690 0.9690 0.9690 0.9690
2193.000000 0.9690 0.9691 0.9691 0.9691 0.9690
2198.000000 0.9690 0.9687 0.9685 0.9682 0.9680
2203.000000 0.9677 0.9675 0.9671 0.9670 0.9667
2208.000000 0.9665 0.9663 0.9661 0.9656 0.9651
2213.000000 0.9645 0.9640 0.9635 0.9630 0.9625
2218.000000 0.9620 0.9615 0.9610 0.9605 0.9600
2223.000000 0.9593 0.9586 0.9578 0.9573 0.9566
2228.000000 0.9560 0.9553 0.9547 0.9540 0.9533
2233.000000 0.9525 0.9520 0.9513 0.9507 0.9497
2238.000000 0.9487 0.9477 0.9468 0.9458 0.9449
2243.000000 0.9441 0.9433 0.9432 0.9432 0.9436
2248.000000 0.9441 0.9446 0.9451 0.9457 0.9463
2253.000000 0.9468 0.9475 0.9481 0.9487 0.9492
2258.000000 0.9498 0.9503 0.9508 0.9509 0.9508
2263.000000 0.9508 0.9507 0.9505 0.9504 0.9502
2268.000000 0.9501 0.9497 0.9494 0.9490 0.9487
2273.000000 0.9483 0.9478 0.9475 0.9471 0.9466
2278.000000 0.9461 0.9454 0.9448 0.9441 0.9435
2283.000000 0.9428 0.9421 0.9415 0.9408 0.9400
2288.000000 0.9393 0.9385 0.9378 0.9375 0.9371
2293.000000 0.9371 0.9373 0.9373 0.9373 0.9374
2298.000000 0.9375 0.9377 0.9378 0.9381 0.9383
2303.000000 0.9385 0.9387 0.9389 0.9391 0.9394
2308.000000 0.9398 0.9402 0.9406 0.9410 0.9414
2313.000000 0.9415 0.9417 0.9417 0.9417 0.9416
2318.000000 0.9416 0.9416 0.9416 0.9415 0.9414
2323.000000 0.9414 0.9413 0.9411 0.9410 0.9408
2328.000000 0.9406 0.9404 0.9403 0.9401 0.9399
2333.000000 0.9397 0.9395 0.9392 0.9389 0.9386
2338.000000 0.9383 0.9380 0.9378 0.9375 0.9371
2343.000000 0.9368 0.9366 0.9363 0.9360 0.9357
2348.000000 0.9355 0.9352 0.9349 0.9346 0.9344
2353.000000 0.9341 0.9339 0.9336 0.9334 0.9331
2358.000000 0.9328 0.9325 0.9323 0.9320 0.9318
2363.000000 0.9316 0.9314 0.9313 0.9312 0.9310
2368.000000 0.9309 0.9308 0.9307 0.9306 0.9305
2373.000000 0.9305 0.9306 0.9308 0.9310 0.9313
2378.000000 0.9316 0.9324 0.9332 0.9340 0.9349
2383.000000 0.9359 0.9368 0.9378 0.9390 0.9400
2388.000000 0.9411 0.9421 0.9432 0.9445 0.9458
2393.000000 0.9467 0.9477 0.9484 0.9492 0.9498
2398.000000 0.9504 0.9510 0.9516 0.9521 0.9525
2403.000000 0.9530 0.9535 0.9540 0.9546 0.9551
2408.000000 0.9556 0.9561 0.9567 0.9571 0.9578
2413.000000 0.9584 0.9590 0.9596 0.9602 0.9608
2418.000000 0.9615 0.9621 0.9627 0.9633 0.9639
2423.000000 0.9644 0.9649 0.9653 0.9658 0.9662
2428.000000 0.9666 0.9668 0.9673 0.9675 0.9680
2433.000000 0.9684 0.9688 0.9691 0.9695 0.9698
2438.000000 0.9702 0.9705 0.9709 0.9712 0.9716
2443.000000 0.9718 0.9721 0.9724 0.9725 0.9728
2448.000000 0.9730 0.9732 0.9734 0.9736 0.9739
2453.000000 0.9740 0.9742 0.9742 0.9743 0.9744
2458.000000 0.9745 0.9745 0.9745 0.9745 0.9745
2463.000000 0.9744 0.9744 0.9743 0.9742 0.9741
2468.000000 0.9741 0.9740 0.9739 0.9738 0.9738
2473.000000 0.9737 0.9736 0.9735 0.9735 0.9734
2478.000000 0.9733 0.9732 0.9732 0.9731 0.9730
2483.000000 0.9728 0.9728 0.9725 0.9725 0.9724
2488.000000 0.9723 0.9721 0.9720 0.9718 0.9718
2493.000000 0.9716 0.9715 0.9713 0.9712 0.9711
2498.000000 0.9710 0.9708 0.9707 0.9705 0.9704
2503.000000 0.9703 0.9702 0.9701 0.9700 0.9699
2508.000000 0.9699 0.9698 0.9698 0.9697 0.9696
2513.000000 0.9695 0.9695 0.9694 0.9694 0.9693
2518.000000 0.9693 0.9692 0.9692 0.9691 0.9691
2523.000000 0.9690 0.9689 0.9688 0.9688 0.9687
2528.000000 0.9687 0.9686 0.9686 0.9685 0.9685
2533.000000 0.9685 0.9686 0.9687 0.9688 0.9689
2538.000000 0.9690 0.9691 0.9692 0.9692 0.9693
2543.000000 0.9694 0.9695 0.9696 0.9698 0.9699
2548.000000 0.9700 0.9701 0.9702 0.9703 0.9705
2553.000000 0.9706 0.9707 0.9708 0.9709 0.9711
2558.000000 0.9714 0.9716 0.9718 0.9721 0.9748
2563.000000 0.9725 0.9728 0.9731 0.9733 0.9735
2568.000000 0.9738 0.9740 0.9743 0.9745 0.9748
2573.000000 0.9750 0.9753 0.9754 0.9756 0.9757
2578.000000 0.9758 0.9759 0.9760 0.9761 0.9762
2583.000000 0.9763 0.9764 0.9765 0.9767 0.9768
2588.000000 0.9768 0.9770 0.9771 0.9771 0.9773
2593.000000 0.9773 0.9774 0.9774 0.9775 0.9775
2598.000000 0.9775 0.9775 0.9775 0.9775 0.9775
2603.000000 0.9775 0.9775 0.9775 0.9777 0.9777
2608.000000 0.9777 0.9777 0.9777 0.9777 0.9778
2613.000000 0.9778 0.9778 0.9778 0.9778 0.9778
2618.000000 0.9778 0.9777 0.9775 0.9775 0.9774
2623.000000 0.9773 0.9771 0.9770 0.9768 0.9768
2628.000000 0.9767 0.9766 0.9765 0.9764 0.9763
2633.000000 0.9762 0.9761 0.9760 0.9759 0.9758
2638.000000 0.9757 0.9756 0.9755 0.9754 0.9753
2643.000000 0.9751 0.9750 0.9749 0.9748 0.9747
2648.000000 0.9746 0.9745 0.9745 0.9744 0.9743
2653.000000 0.9742 0.9742 0.9741 0.9740 0.9739
2658.000000 0.9739 0.9738 0.9737 0.9736 0.9736
2663.000000 0.9735 0.9734 0.9733 0.9733 0.9732
2668.000000 0.9731 0.9730 0.9730 0.9728 0.9728
2673.000000 0.9728 0.9728 0.9728 0.9728 0.9728
2678.000000 0.9728 0.9727 0.9727 0.9725 0.9725
2683.000000 0.9725 0.9725 0.9725 0.9725 0.9725
2688.000000 0.9725 0.9724 0.9724 0.9724 0.9724
2693.000000 0.9723 0.9723 0.9721 0.9721 0.9721
2698.000000 0.9723 0.9724 0.9725 0.9725 0.9725
2703.000000 0.9727 0.9728 0.9728 0.9728 0.9730
2708.000000 0.9731 0.9731 0.9732 0.9733 0.9734
2713.000000 0.9734 0.9735 0.9736 0.9737 0.9738
2718.000000 0.9739 0.9739 0.9740 0.9741 0.9742
2723.000000 0.9743 0.9744 0.9745 0.9746 0.9747
2728.000000 0.9748 0.9749 0.9750 0.9751 0.9752
2733.000000 0.9753 0.9754 0.9755 0.9756 0.9757
2738.000000 0.9758 0.9759 0.9760 0.9761 0.9762
2743.000000 0.9763 0.9764 0.9764 0.9765 0.9765
2748.000000 0.9765 0.9765 0.9766 0.9766 0.9767
2753.000000 0.9767 0.9768 0.9768 0.9768 0.9768
2758.000000 0.9768 0.9768 0.9770 0.9770 0.9771
2763.000000 0.9771 0.9771 0.9770 0.9770 0.9768
2768.000000 0.9768 0.9767 0.9767 0.9766 0.9765
2773.000000 0.9764 0.9763 0.9762 0.9761 0.9760
2778.000000 0.9760 0.9759 0.9758 0.9757 0.9756
2783.000000 0.9755 0.9754 0.9752 0.9750 0.9747
2788.000000 0.9745 0.9742 0.9740 0.9738 0.9736
2793.000000 0.9733 0.9731 0.9728 0.9727 0.9724
2798.000000 0.9721 0.9717 0.9714 0.9710 0.9707
2803.000000 0.9703 0.9700 0.9696 0.9693 0.9689
2808.000000 0.9686 0.9682 0.9678 0.9675 0.9671
2813.000000 0.9668 0.9665 0.9661 0.9658 0.9654
2818.000000 0.9651 0.9647 0.9644 0.9639 0.9634
2823.000000 0.9628 0.9625 0.9620 0.9615 0.9610
2828.000000 0.9606 0.9601 0.9596 0.9589 0.9583
2833.000000 0.9575 0.9568 0.9562 0.9556 0.9549
2838.000000 0.9542 0.9535 0.9528 0.9521 0.9513
2843.000000 0.9502 0.9492 0.9482 0.9471 0.9462
2848.000000 0.9452 0.9442 0.9432 0.9421 0.9412
2853.000000 0.9402 0.9392 0.9380 0.9368 0.9355
2858.000000 0.9341 0.9325 0.9312 0.9298 0.9284
2863.000000 0.9256 0.9228 0.9196 0.9164 0.9092
2868.000000 0.9021 0.8871 0.8724 0.8635 0.8547
2873.000000 0.8450 0.8307 0.8336 0.8320 0.8324
2878.000000 0.8328 0.8387 0.8447 0.8520 0.8594
2883.000000 0.8667 0.8740 0.8813 0.8887 0.8943
2888.000000 0.9000 0.9031 0.9062 0.9080 0.9098
2893.000000 0.9107 0.9117 0.9120 0.9131 0.9125
2898.000000 0.9125 0.9125 0.9125 0.9118 0.9114
2903.000000 0.9107 0.9101 0.9094 0.9088 0.9078
2908.000000 0.9071 0.9063 0.9055 0.9044 0.9034
2913.000000 0.9018 0.9005 0.8989 0.8973 0.8955
2918.000000 0.8937 0.8917 0.8897 0.8874 0.8851
2923.000000 0.8827 0.8803 0.8778 0.8755 0.8721
2928.000000 0.8689 0.8656 0.8624 0.8594 0.8564
2933.000000 0.8538 0.8513 0.8484 0.8455 0.8424
2938.000000 0.8394 0.8363 0.8333 0.8293 0.8254
2943.000000 0.8211 0.8168 0.8105 0.8042 0.7937
2948.000000 0.7832 0.7704 0.7576 0.7406 0.7235
2953.000000 0.7060 0.6885 0.6725 0.6565 0.6218
2958.000000 0.5871 0.5787 0.5703 0.5648 0.5593
2963.000000 0.5590 0.5553 0.5595 0.5602 0.5776
2968.000000 0.5951 0.6153 0.6356 0.6558 0.6760
2973.000000 0.6961 0.7165 0.7285 0.7406 0.7481
2978.000000 0.7556 0.7615 0.7676 0.7714 0.7751
2983.000000 0.7769 0.7789 0.7796 0.7804 0.7801
2988.000000 0.7808 0.7791 0.7782 0.7757 0.7732
2993.000000 0.7619 0.7508 0.7396 0.7285 0.7172
2998.000000 0.7061 0.6950 0.6839 0.6724 0.6610
3003.000000 0.6536 0.6462 0.6431 0.6400 0.6388
3008.000000 0.6369 0.6370 0.6370 0.6375 0.6380
3013.000000 0.6403 0.6426 0.6748 0.7069 0.7411
3018.000000 0.7751 0.8017 0.8282 0.8425 0.8568
3023.000000 0.8647 0.8725 0.8778 0.8833 0.8893
3028.000000 0.8953 0.8980 0.9007 0.9057 0.9108
3033.000000 0.9141 0.9175 0.9215 0.9255 0.9271
3038.000000 0.9290 0.9307 0.9325 0.9337 0.9350
3043.000000 0.9362 0.9375 0.9387 0.9400 0.9410
3048.000000 0.9421 0.9428 0.9438 0.9446 0.9454
3053.000000 0.9460 0.9466 0.9471 0.9477 0.9483
3058.000000 0.9489 0.9495 0.9501 0.9506 0.9511
3063.000000 0.9515 0.9520 0.9524 0.9528 0.9532
3068.000000 0.9536 0.9539 0.9543 0.9546 0.9550
3073.000000 0.9553 0.9557 0.9560 0.9563 0.9564
3078.000000 0.9566 0.9567 0.9568 0.9570 0.9571
3083.000000 0.9573 0.9575 0.9577 0.9578 0.9580
3088.000000 0.9582 0.9584 0.9586 0.9588 0.9590
3093.000000 0.9592 0.9594 0.9596 0.9598 0.9600
3098.000000 0.9602 0.9604 0.9606 0.9607 0.9609
3103.000000 0.9611 0.9613 0.9615 0.9617 0.9618
3108.000000 0.9620 0.9621 0.9623 0.9624 0.9625
3113.000000 0.9627 0.9628 0.9630 0.9631 0.9632
3118.000000 0.9634 0.9635 0.9637 0.9638 0.9639
3123.000000 0.9640 0.9642 0.9643 0.9645 0.9645
3128.000000 0.9646 0.9646 0.9646 0.9646 0.9646
3133.000000 0.9646 0.9647 0.9647 0.9647 0.9647
3138.000000 0.9647 0.9647 0.9648 0.9648 0.9648
3143.000000 0.9648 0.9648 0.9648 0.9648 0.9648
3148.000000 0.9648 0.9647 0.9647 0.9647 0.9647
3153.000000 0.9647 0.9647 0.9647 0.9647 0.9647
3158.000000 0.9647 0.9647 0.9647 0.9647 0.9647
3163.000000 0.9646 0.9646 0.9646 0.9646 0.9646
3168.000000 0.9646 0.9646 0.9646 0.9646 0.9646
3173.000000 0.9646 0.9646 0.9646 0.9646 0.9646
3178.000000 0.9647 0.9647 0.9648 0.9648 0.9649
3183.000000 0.9649 0.9650 0.9650 0.9651 0.9651
3188.000000 0.9652 0.9652 0.9653 0.9653 0.9654
3193.000000 0.9654 0.9655 0.9655 0.9656 0.9656
3198.000000 0.9657 0.9657 0.9657 0.9657 0.9658
3203.000000 0.9658 0.9658 0.9658 0.9658 0.9658
3208.000000 0.9658 0.9658 0.9658 0.9657 0.9657
3213.000000 0.9657 0.9657 0.9657 0.9657 0.9656
3218.000000 0.9656 0.9656 0.9656 0.9656 0.9656
3223.000000 0.9655 0.9655 0.9655 0.9655 0.9655
3228.000000 0.9655 0.9655 0.9655 0.9654 0.9654
3233.000000 0.9654 0.9654 0.9654 0.9654 0.9654
3238.000000 0.9654 0.9654 0.9654 0.9653 0.9653
3243.000000 0.9653 0.9653 0.9653 0.9653 0.9653
3248.000000 0.9653 0.9653 0.9653 0.9652 0.9652
3253.000000 0.9652 0.9652 0.9652 0.9652 0.9652
3258.000000 0.9652 0.9651 0.9651 0.9651 0.9651
3263.000000 0.9650 0.9650 0.9650 0.9650 0.9649
3268.000000 0.9649 0.9649 0.9649 0.9648 0.9648
3273.000000 0.9648 0.9648 0.9647 0.9647 0.9647
3278.000000 0.9647 0.9647 0.9647 0.9646 0.9646
3283.000000 0.9646 0.9646 0.9645 0.9645 0.9644
3288.000000 0.9644 0.9643 0.9643 0.9642 0.9641
3293.000000 0.9640 0.9640 0.9639 0.9638 0.9637
3298.000000 0.9637 0.9636 0.9635 0.9634 0.9633
3303.000000 0.9632 0.9632 0.9631 0.9630 0.9628
3308.000000 0.9628 0.9628 0.9627 0.9625 0.9625
3313.000000 0.9625 0.9624 0.9623 0.9623 0.9621
3318.000000 0.9621 0.9620 0.9620 0.9618 0.9618
3323.000000 0.9617 0.9617 0.9616 0.9615 0.9614
3328.000000 0.9613 0.9612 0.9612 0.9611 0.9610
3333.000000 0.9609 0.9609 0.9608 0.9607 0.9606
3338.000000 0.9606 0.9605 0.9604 0.9603 0.9603
3343.000000 0.9602 0.9601 0.9600 0.9599 0.9598
3348.000000 0.9598 0.9596 0.9595 0.9594 0.9593
3353.000000 0.9591 0.9590 0.9588 0.9587 0.9586
3358.000000 0.9585 0.9583 0.9582 0.9580 0.9578
3363.000000 0.9578 0.9577 0.9575 0.9573 0.9571
3368.000000 0.9570 0.9568 0.9566 0.9564 0.9563
3373.000000 0.9561 0.9559 0.9557 0.9556 0.9554
3378.000000 0.9552 0.9550 0.9548 0.9546 0.9545
3383.000000 0.9543 0.9541 0.9539 0.9538 0.9536
3388.000000 0.9534 0.9532 0.9531 0.9528 0.9527
3393.000000 0.9525 0.9524 0.9521 0.9521 0.9518
3398.000000 0.9518 0.9517 0.9516 0.9514 0.9513
3403.000000 0.9511 0.9510 0.9508 0.9507 0.9505
3408.000000 0.9504 0.9502 0.9501 0.9500 0.9499
3413.000000 0.9498 0.9497 0.9497 0.9497 0.9497
3418.000000 0.9497 0.9496 0.9496 0.9496 0.9496
3423.000000 0.9496 0.9496 0.9496 0.9496 0.9496
3428.000000 0.9497 0.9498 0.9499 0.9500 0.9501
3433.000000 0.9502 0.9503 0.9504 0.9506 0.9507
3438.000000 0.9508 0.9509 0.9510 0.9512 0.9514
3443.000000 0.9516 0.9518 0.9520 0.9521 0.9524
3448.000000 0.9527 0.9528 0.9531 0.9533 0.9535
3453.000000 0.9537 0.9540 0.9542 0.9544 0.9546
3458.000000 0.9548 0.9550 0.9552 0.9553 0.9555
3463.000000 0.9557 0.9559 0.9560 0.9562 0.9564
3468.000000 0.9566 0.9568 0.9570 0.9571 0.9573
3473.000000 0.9574 0.9575 0.9577 0.9554 0.9580
3478.000000 0.9582 0.9583 0.9585 0.9586 0.9587
3483.000000 0.9588 0.9590 0.9591 0.9593 0.9593
3488.000000 0.9593 0.9593 0.9594 0.9594 0.9594
3493.000000 0.9594 0.9594 0.9594 0.9594 0.9592
3498.000000 0.9591 0.9590 0.9589 0.9588 0.9587
3503.000000 0.9585 0.9584 0.9581 0.9578 0.9575
3508.000000 0.9571 0.9568 0.9566 0.9562 0.9558
3513.000000 0.9553 0.9548 0.9542 0.9537 0.9532
3518.000000 0.9527 0.9518 0.9512 0.9502 0.9492
3523.000000 0.9482 0.9471 0.9456 0.9440 0.9424
3528.000000 0.9408 0.9392 0.9375 0.9355 0.9335
3533.000000 0.9314 0.9294 0.9273 0.9253 0.9232
3538.000000 0.9211 0.9189 0.9168 0.9147 0.9125
3543.000000 0.9104 0.9082 0.9059 0.9037 0.9014
3548.000000 0.8992 0.8968 0.8946 0.8923 0.8900
3553.000000 0.8875 0.8853 0.8832 0.8812 0.8794
3558.000000 0.8777 0.8759 0.8742 0.8732 0.8721
3563.000000 0.8715 0.8708 0.8701 0.8695 0.8692
3568.000000 0.8689 0.8687 0.8685 0.8685 0.8634
3573.000000 0.8687 0.8689 0.8691 0.8693 0.8700
3578.000000 0.8707 0.8714 0.8721 0.8731 0.8741
3583.000000 0.8751 0.8762 0.8773 0.8785 0.8799
3588.000000 0.8814 0.8828 0.8844 0.8860 0.8875
3593.000000 0.8894 0.8912 0.8975 0.9038 0.9107
3598.000000 0.9177 0.9209 0.9242 0.9253 0.9265
3603.000000 0.9275 0.9288 0.9299 0.9311 0.9323
3608.000000 0.9335 0.9348 0.9361 0.9373 0.9386
3613.000000 0.9400 0.9414 0.9428 0.9445 0.9460
3618.000000 0.9475 0.9491 0.9507 0.9518 0.9528
3623.000000 0.9537 0.9546 0.9555 0.9564 0.9571
3628.000000 0.9581 0.9588 0.9595 0.9600 0.9606
3633.000000 0.9611 0.9616 0.9621 0.9627 0.9632
3638.000000 0.9637 0.9639 0.9642 0.9644 0.9646
3643.000000 0.9648 0.9651 0.9653 0.9655 0.9657
3648.000000 0.9660 0.9662 0.9664 0.9666 0.9668
3653.000000 0.9668 0.9671 0.9673 0.9675 0.9677
3658.000000 0.9661 0.9680 0.9682 0.9682 0.9682
3663.000000 0.9682 0.9682 0.9681 0.9681 0.9681
3668.000000 0.9681 0.9681 0.9681 0.9680 0.9680
3673.000000 0.9680 0.9680 0.9678 0.9678 0.9678
3678.000000 0.9678 0.9678 0.9678 0.9677 0.9677
3683.000000 0.9675 0.9675 0.9675 0.9675 0.9675
3688.000000 0.9675 0.9675 0.9675 0.9675 0.9675
3693.000000 0.9675 0.9675 0.9675 0.9675 0.9675
3698.000000 0.9677 0.9677 0.9677 0.9677 0.9677
3703.000000 0.9678 0.9678 0.9678 0.9680 0.9680
3708.000000 0.9681 0.9682 0.9683 0.9683 0.9684
3713.000000 0.9685 0.9686 0.9687 0.9688 0.9689
3718.000000 0.9690 0.9691 0.9692 0.9693 0.9695
3723.000000 0.9696 0.9697 0.9698 0.9700 0.9701
3728.000000 0.9703 0.9704 0.9706 0.9707 0.9708
3733.000000 0.9709 0.9711 0.9712 0.9713 0.9714
3738.000000 0.9715 0.9716 0.9718 0.9718 0.9720
3743.000000 0.9721 0.9721 0.9723 0.9724 0.9725
3748.000000 0.9725 0.9725 0.9727 0.9727 0.9728
3753.000000 0.9728 0.9728 0.9728 0.9728 0.9728
3758.000000 0.9728 0.9728 0.9728 0.9728 0.9728
3763.000000 0.9728 0.9730 0.9730 0.9730 0.9730
3768.000000 0.9730 0.9730 0.9731 0.9731 0.9731
3773.000000 0.9731 0.9732 0.9732 0.9733 0.9733
3778.000000 0.9734 0.9734 0.9735 0.9735 0.9736
3783.000000 0.9736 0.9737 0.9737 0.9738 0.9738
3788.000000 0.9739 0.9739 0.9740 0.9740 0.9741
3793.000000 0.9741 0.9742 0.9742 0.9743 0.9743
3798.000000 0.9744 0.9744 0.9744
##END=
