##TITLE=Cyclopropanamine, 1-benzyl-, sulfate (2 to 1)
##JCAMP-DX=4.24
##DATA TYPE=INFRARED SPECTRUM
##CLASS=COBLENTZ III
##ORIGIN=SMITH KLINE & FRENCH LABS.
##OWNER=Copyright (C) 1987 by the Coblentz Society
Collection (C) 2018 copyright by the U.S. Secretary of Commerce
on behalf of the United States of America. All rights reserved.
##DATE=1967/07/13
##MOLFORM=C20 H28 N2 O4 S
##SOURCE REFERENCE=COBLENTZ NO. 9085
##$NIST ID=B6009085
##$NIST SOURCE=COBLENTZ
##$NIST IMAGE=cob9085
##SPECTROMETER/DATA SYSTEM=PERKIN-ELMER 21 (GRATING)
##INSTRUMENT PARAMETERS=NaCl PRISM
##STATE=SOLID (NUJOL MULL)
$$SPECTRAL CONTAMINATION DUE TO OIL AROUND 2900, 1450, 1380 CM^-^1
##SAMPLING PROCEDURE=TRANSMISSION
##RESOLUTION=2
##DATA PROCESSING=DIGITIZED BY COBLENTZ SOCIETY (BATCH II) FROM HARD COPY
##XUNITS=1/CM
##YUNITS=TRANSMITTANCE
##XFACTOR=1.0
##YFACTOR=1
##FIRSTX=666
##LASTX=4000
##FIRSTY=0.6993
##MAXX=4000
##MINX=666
##MAXY=0.9117
##MINY=0.0919
##NPOINTS=3335
##XYDATA=(X++(Y..Y))
666.000000 0.6993 0.7033 0.7078 0.7103 0.7120
671.000000 0.7133 0.7149 0.7160 0.7154 0.7151
676.000000 0.7155 0.7161 0.7154 0.7194 0.7215
681.000000 0.7241 0.7268 0.7291 0.7314 0.7333
686.000000 0.7350 0.7356 0.7352 0.7342 0.7317
691.000000 0.7287 0.7245 0.7221 0.7195 0.7083
696.000000 0.6848 0.6502 0.5998 0.5457 0.4275
701.000000 0.2974 0.2526 0.2489 0.2598 0.2762
706.000000 0.3353 0.4264 0.5173 0.5957 0.6456
711.000000 0.6809 0.7059 0.7242 0.7341 0.7375
716.000000 0.7384 0.7389 0.7394 0.7399 0.7411
721.000000 0.7429 0.7453 0.7484 0.7517 0.7551
726.000000 0.7578 0.7600 0.7618 0.7633 0.7638
731.000000 0.7641 0.7640 0.7637 0.7651 0.7674
736.000000 0.7691 0.7706 0.7720 0.7718 0.7720
741.000000 0.7709 0.7694 0.7679 0.7643 0.7600
746.000000 0.7546 0.7490 0.7415 0.7326 0.7175
751.000000 0.6926 0.6540 0.6247 0.5653 0.5058
756.000000 0.4467 0.4185 0.4178 0.4449 0.5075
761.000000 0.5699 0.6375 0.6800 0.7054 0.7343
766.000000 0.7560 0.7727 0.7828 0.7880 0.7910
771.000000 0.7935 0.7952 0.7953 0.7964 0.7919
776.000000 0.7880 0.7824 0.7748 0.7637 0.7514
781.000000 0.7397 0.7350 0.7368 0.7677 0.7831
786.000000 0.7920 0.7910 0.7796 0.7769 0.7772
791.000000 0.7789 0.7824 0.7917 0.8091 0.8193
796.000000 0.8275 0.8328 0.8368 0.8399 0.8424
801.000000 0.8445 0.8454 0.8463 0.8465 0.8466
806.000000 0.8467 0.8468 0.8468 0.8469 0.8469
811.000000 0.8469 0.8432 0.8469 0.8470 0.8471
816.000000 0.8472 0.8474 0.8476 0.8479 0.8482
821.000000 0.8482 0.8479 0.8476 0.8473 0.8467
826.000000 0.8458 0.8449 0.8441 0.8433 0.8424
831.000000 0.8415 0.8405 0.8394 0.8384 0.8374
836.000000 0.8349 0.8322 0.8294 0.8256 0.8218
841.000000 0.8159 0.8082 0.8002 0.7941 0.7880
846.000000 0.7815 0.7738 0.7658 0.7546 0.7442
851.000000 0.7348 0.7290 0.7285 0.7292 0.7332
856.000000 0.7408 0.7473 0.7526 0.7578 0.7633
861.000000 0.7802 0.8024 0.8159 0.8232 0.8266
866.000000 0.8288 0.8300 0.8310 0.8321 0.8331
871.000000 0.8342 0.8363 0.8345 0.8345 0.8344
876.000000 0.8335 0.8323 0.8311 0.8299 0.8288
881.000000 0.8278 0.8267 0.8258 0.8251 0.8243
886.000000 0.8224 0.8199 0.8185 0.8172 0.8168
891.000000 0.8165 0.8163 0.8160 0.8157 0.8155
896.000000 0.8141 0.8128 0.8113 0.8083 0.8046
901.000000 0.8009 0.7968 0.7894 0.7817 0.7738
906.000000 0.7649 0.7489 0.7340 0.7260 0.7195
911.000000 0.7167 0.7206 0.7240 0.7270 0.7297
916.000000 0.7322 0.7359 0.7405 0.7466 0.7541
921.000000 0.7618 0.7677 0.7703 0.7722 0.7723
926.000000 0.7695 0.7661 0.7622 0.7575 0.7536
931.000000 0.7499 0.7467 0.7446 0.7426 0.7441
936.000000 0.7437 0.7463 0.7500 0.7537 0.7566
941.000000 0.7592 0.7616 0.7628 0.7627 0.7626
946.000000 0.7605 0.7581 0.7557 0.7530 0.7502
951.000000 0.7476 0.7448 0.7421 0.7395 0.7369
956.000000 0.7330 0.7275 0.7195 0.7056 0.6861
961.000000 0.6604 0.6416 0.6268 0.6163 0.6069
966.000000 0.6024 0.6014 0.6033 0.6187 0.6390
971.000000 0.6593 0.6795 0.6976 0.7059 0.7105
976.000000 0.7134 0.7170 0.7145 0.7130 0.7081
981.000000 0.7007 0.6934 0.6921 0.6927 0.6975
986.000000 0.7049 0.7093 0.7117 0.7123 0.7128
991.000000 0.7119 0.7102 0.7077 0.7036 0.6993
996.000000 0.6945 0.6899 0.6864 0.6827 0.6783
1001.000000 0.6733 0.6673 0.6613 0.6561 0.6513
1006.000000 0.6450 0.6371 0.6283 0.6179 0.6069
1011.000000 0.5957 0.5841 0.5727 0.5618 0.5509
1016.000000 0.5394 0.5255 0.5089 0.4910 0.4763
1021.000000 0.4605 0.4413 0.4272 0.4148 0.4042
1026.000000 0.3939 0.3837 0.3734 0.3631 0.3519
1031.000000 0.3335 0.3127 0.2889 0.2709 0.2551
1036.000000 0.2423 0.2302 0.2206 0.2123 0.2055
1041.000000 0.1991 0.1954 0.1917 0.1883 0.1850
1046.000000 0.1807 0.1750 0.1704 0.1683 0.1679
1051.000000 0.1679 0.1682 0.1695 0.1708 0.1721
1056.000000 0.1736 0.1750 0.1765 0.1783 0.1792
1061.000000 0.1798 0.1803 0.1829 0.1808 0.1803
1066.000000 0.1800 0.1794 0.1784 0.1774 0.1764
1071.000000 0.1762 0.1786 0.1814 0.1843 0.1872
1076.000000 0.1896 0.1914 0.1932 0.1942 0.1950
1081.000000 0.1986 0.2054 0.2149 0.2262 0.2355
1086.000000 0.2440 0.2521 0.2595 0.2652 0.2692
1091.000000 0.2730 0.2764 0.2787 0.2810 0.2828
1096.000000 0.2843 0.2855 0.2839 0.2815 0.2777
1101.000000 0.2717 0.2636 0.2560 0.2490 0.2422
1106.000000 0.2361 0.2302 0.2245 0.2215 0.2199
1111.000000 0.2192 0.2185 0.2194 0.2200 0.2218
1116.000000 0.2243 0.2269 0.2305 0.2345 0.2383
1121.000000 0.2410 0.2434 0.2453 0.2473 0.2507
1126.000000 0.2573 0.2635 0.2683 0.2710 0.2735
1131.000000 0.2762 0.2787 0.2821 0.2883 0.2973
1136.000000 0.3066 0.3160 0.3260 0.3363 0.3458
1141.000000 0.3552 0.3647 0.3740 0.3812 0.3878
1146.000000 0.3923 0.3933 0.3925 0.3892 0.3860
1151.000000 0.3820 0.3704 0.3586 0.3510 0.3512
1156.000000 0.3674 0.3894 0.3923 0.3930 0.3932
1161.000000 0.3933 0.3934 0.3966 0.4035 0.4135
1166.000000 0.4215 0.4271 0.4296 0.4290 0.4261
1171.000000 0.4217 0.4170 0.4151 0.4172 0.4339
1176.000000 0.4543 0.4691 0.4915 0.5148 0.5379
1181.000000 0.5657 0.6088 0.6207 0.6373 0.6592
1186.000000 0.6788 0.6953 0.7081 0.7160 0.7222
1191.000000 0.7269 0.7316 0.7343 0.7359 0.7375
1196.000000 0.7391 0.7403 0.7406 0.7406 0.7408
1201.000000 0.7409 0.7410 0.7415 0.7422 0.7459
1206.000000 0.7504 0.7546 0.7582 0.7603 0.7621
1211.000000 0.7614 0.7625 0.7575 0.7541 0.7512
1216.000000 0.7485 0.7460 0.7446 0.7433 0.7421
1221.000000 0.7400 0.7374 0.7314 0.7232 0.7143
1226.000000 0.6970 0.6748 0.6527 0.6305 0.6084
1231.000000 0.5864 0.5644 0.5413 0.5248 0.5194
1236.000000 0.5190 0.5197 0.5192 0.5401 0.5542
1241.000000 0.5677 0.5824 0.5972 0.6134 0.6307
1246.000000 0.6480 0.6652 0.6824 0.7011 0.7138
1251.000000 0.7253 0.7368 0.7499 0.7601 0.7650
1256.000000 0.7699 0.7747 0.7785 0.7814 0.7842
1261.000000 0.7871 0.7891 0.7904 0.7918 0.7931
1266.000000 0.7940 0.7943 0.7946 0.7949 0.7952
1271.000000 0.7953 0.7953 0.7952 0.7951 0.7950
1276.000000 0.7949 0.7949 0.7948 0.7946 0.7945
1281.000000 0.7943 0.7942 0.7940 0.7940 0.7938
1286.000000 0.7937 0.7935 0.7935 0.7935 0.7935
1291.000000 0.7935 0.7935 0.7935 0.7935 0.7935
1296.000000 0.7935 0.7938 0.7939 0.7942 0.7943
1301.000000 0.7946 0.7949 0.7954 0.7958 0.7962
1306.000000 0.7966 0.7965 0.7964 0.7962 0.7962
1311.000000 0.7955 0.7945 0.7935 0.7919 0.7895
1316.000000 0.7869 0.7843 0.7815 0.7786 0.7757
1321.000000 0.7723 0.7680 0.7637 0.7591 0.7532
1326.000000 0.7470 0.7407 0.7351 0.7296 0.7217
1331.000000 0.7122 0.6957 0.6590 0.6225 0.5859
1336.000000 0.5589 0.5536 0.5557 0.5684 0.5930
1341.000000 0.6178 0.6425 0.6671 0.6917 0.7124
1346.000000 0.7229 0.7284 0.7321 0.7339 0.7353
1351.000000 0.7351 0.7348 0.7340 0.7328 0.7306
1356.000000 0.7182 0.7042 0.6903 0.6763 0.6623
1361.000000 0.6484 0.6345 0.6219 0.6173 0.6129
1366.000000 0.5609 0.5433 0.5342 0.5251 0.5147
1371.000000 0.5036 0.4957 0.4938 0.4947 0.4980
1376.000000 0.5106 0.5302 0.5498 0.5694 0.5889
1381.000000 0.6084 0.6280 0.6473 0.6668 0.6862
1386.000000 0.7056 0.7249 0.7442 0.7625 0.7749
1391.000000 0.7882 0.7961 0.7998 0.8029 0.8049
1396.000000 0.8064 0.8068 0.8072 0.8074 0.8070
1401.000000 0.8065 0.8059 0.8048 0.8035 0.8019
1406.000000 0.7997 0.7976 0.7954 0.7926 0.7890
1411.000000 0.7855 0.7808 0.7739 0.7670 0.7612
1416.000000 0.7554 0.7497 0.7377 0.7234 0.7086
1421.000000 0.6959 0.6843 0.6759 0.6694 0.6630
1426.000000 0.6572 0.6516 0.6462 0.6406 0.6351
1431.000000 0.6295 0.6241 0.6188 0.6134 0.6061
1436.000000 0.5979 0.5894 0.5804 0.5711 0.5608
1441.000000 0.5483 0.5344 0.5166 0.4915 0.4503
1446.000000 0.4180 0.3871 0.3561 0.3251 0.2995
1451.000000 0.2968 0.2983 0.3049 0.3157 0.3264
1456.000000 0.3371 0.3434 0.3426 0.3408 0.3373
1461.000000 0.3340 0.3343 0.3360 0.3400 0.3449
1466.000000 0.3504 0.3562 0.3653 0.3842 0.4099
1471.000000 0.4357 0.4613 0.4869 0.5080 0.5111
1476.000000 0.5157 0.5244 0.5420 0.5691 0.6050
1481.000000 0.6421 0.6789 0.7074 0.7096 0.7106
1486.000000 0.7107 0.7099 0.7073 0.7019 0.6962
1491.000000 0.6906 0.6849 0.6793 0.6761 0.6761
1496.000000 0.6873 0.7101 0.7340 0.7578 0.7751
1501.000000 0.7768 0.7780 0.7785 0.7785 0.7785
1506.000000 0.7782 0.7814 0.7774 0.7765 0.7754
1511.000000 0.7741 0.7727 0.7711 0.7696 0.7681
1516.000000 0.7665 0.7649 0.7627 0.7605 0.7583
1521.000000 0.7560 0.7536 0.7508 0.7480 0.7453
1526.000000 0.7426 0.7398 0.7348 0.7285 0.7219
1531.000000 0.7071 0.6902 0.6733 0.6564 0.6395
1536.000000 0.6227 0.6059 0.5891 0.5723 0.5555
1541.000000 0.5388 0.5221 0.5054 0.4888 0.4721
1546.000000 0.4555 0.4428 0.4393 0.4373 0.4382
1551.000000 0.4503 0.4754 0.5005 0.5248 0.5450
1556.000000 0.5570 0.5618 0.5637 0.5652 0.5669
1561.000000 0.5703 0.5762 0.5836 0.5936 0.6093
1566.000000 0.6242 0.6334 0.6407 0.6494 0.6597
1571.000000 0.6697 0.6773 0.6810 0.6833 0.6850
1576.000000 0.6861 0.6870 0.6873 0.6893 0.6869
1581.000000 0.6867 0.6864 0.6859 0.6846 0.6823
1586.000000 0.6789 0.6752 0.6711 0.6655 0.6596
1591.000000 0.6543 0.6492 0.6440 0.6387 0.6334
1596.000000 0.6281 0.6224 0.6158 0.6088 0.6014
1601.000000 0.5931 0.5842 0.5778 0.5744 0.5709
1606.000000 0.5683 0.5675 0.5669 0.5666 0.5665
1611.000000 0.5663 0.5666 0.5677 0.5725 0.5804
1616.000000 0.5895 0.5987 0.6082 0.6166 0.6247
1621.000000 0.6322 0.6415 0.6529 0.6620 0.6693
1626.000000 0.6762 0.6820 0.6870 0.6919 0.6970
1631.000000 0.7023 0.7079 0.7135 0.7191 0.7245
1636.000000 0.7301 0.7356 0.7426 0.7504 0.7578
1641.000000 0.7643 0.7704 0.7771 0.7838 0.7888
1646.000000 0.7927 0.7958 0.7986 0.8013 0.8035
1651.000000 0.8054 0.8072 0.8090 0.8111 0.8135
1656.000000 0.8159 0.8183 0.8205 0.8225 0.8246
1661.000000 0.8266 0.8286 0.8306 0.8322 0.8336
1666.000000 0.8351 0.8365 0.8379 0.8393 0.8407
1671.000000 0.8419 0.8431 0.8442 0.8454 0.8465
1676.000000 0.8476 0.8488 0.8501 0.8516 0.8531
1681.000000 0.8546 0.8561 0.8585 0.8623 0.8656
1686.000000 0.8662 0.8669 0.8672 0.8673 0.8675
1691.000000 0.8676 0.8677 0.8679 0.8681 0.8682
1696.000000 0.8683 0.8684 0.8684 0.8685 0.8685
1701.000000 0.8685 0.8685 0.8687 0.8688 0.8691
1706.000000 0.8695 0.8700 0.8704 0.8708 0.8715
1711.000000 0.8721 0.8729 0.8737 0.8745 0.8755
1716.000000 0.8765 0.8777 0.8793 0.8804 0.8811
1721.000000 0.8813 0.8811 0.8808 0.8807 0.8804
1726.000000 0.8800 0.8797 0.8793 0.8789 0.8786
1731.000000 0.8783 0.8777 0.8771 0.8765 0.8758
1736.000000 0.8752 0.8746 0.8739 0.8732 0.8726
1741.000000 0.8720 0.8714 0.8707 0.8701 0.8696
1746.000000 0.8692 0.8687 0.8683 0.8678 0.8673
1751.000000 0.8669 0.8664 0.8660 0.8655 0.8651
1756.000000 0.8649 0.8649 0.8654 0.8659 0.8646
1761.000000 0.8678 0.8688 0.8698 0.8708 0.8719
1766.000000 0.8729 0.8739 0.8748 0.8757 0.8766
1771.000000 0.8773 0.8778 0.8778 0.8779 0.8780
1776.000000 0.8781 0.8782 0.8782 0.8782 0.8782
1781.000000 0.8783 0.8783 0.8783 0.8783 0.8783
1786.000000 0.8783 0.8782 0.8782 0.8782 0.8782
1791.000000 0.8781 0.8781 0.8774 0.8766 0.8758
1796.000000 0.8749 0.8740 0.8727 0.8713 0.8700
1801.000000 0.8687 0.8673 0.8661 0.8652 0.8644
1806.000000 0.8636 0.8627 0.8620 0.8619 0.8619
1811.000000 0.8619 0.8618 0.8618 0.8618 0.8618
1816.000000 0.8618 0.8618 0.8618 0.8620 0.8624
1821.000000 0.8628 0.8632 0.8636 0.8641 0.8645
1826.000000 0.8650 0.8654 0.8659 0.8667 0.8676
1831.000000 0.8685 0.8694 0.8703 0.8712 0.8722
1836.000000 0.8732 0.8742 0.8751 0.8752 0.8751
1841.000000 0.8749 0.8744 0.8739 0.8734 0.8729
1846.000000 0.8723 0.8717 0.8710 0.8702 0.8695
1851.000000 0.8688 0.8680 0.8673 0.8665 0.8657
1856.000000 0.8649 0.8642 0.8634 0.8626 0.8618
1861.000000 0.8611 0.8604 0.8596 0.8588 0.8576
1866.000000 0.8562 0.8548 0.8534 0.8520 0.8506
1871.000000 0.8492 0.8477 0.8463 0.8448 0.8434
1876.000000 0.8430 0.8435 0.8442 0.8448 0.8454
1881.000000 0.8460 0.8466 0.8471 0.8476 0.8481
1886.000000 0.8486 0.8490 0.8495 0.8499 0.8504
1891.000000 0.8509 0.8513 0.8518 0.8523 0.8527
1896.000000 0.8531 0.8535 0.8539 0.8544 0.8549
1901.000000 0.8553 0.8556 0.8560 0.8564 0.8568
1906.000000 0.8571 0.8574 0.8573 0.8572 0.8571
1911.000000 0.8571 0.8570 0.8569 0.8569 0.8568
1916.000000 0.8567 0.8566 0.8562 0.8557 0.8550
1921.000000 0.8544 0.8537 0.8530 0.8524 0.8518
1926.000000 0.8511 0.8504 0.8492 0.8475 0.8456
1931.000000 0.8437 0.8417 0.8399 0.8379 0.8359
1936.000000 0.8333 0.8307 0.8281 0.8255 0.8229
1941.000000 0.8203 0.8193 0.8185 0.8178 0.8171
1946.000000 0.8165 0.8159 0.8164 0.8170 0.8175
1951.000000 0.8180 0.8186 0.8192 0.8197 0.8202
1956.000000 0.8208 0.8213 0.8217 0.8218 0.8219
1961.000000 0.8220 0.8220 0.8221 0.8221 0.8219
1966.000000 0.8217 0.8214 0.8212 0.8209 0.8207
1971.000000 0.8204 0.8201 0.8199 0.8196 0.8193
1976.000000 0.8189 0.8185 0.8180 0.8174 0.8169
1981.000000 0.8163 0.8158 0.8152 0.8147 0.8142
1986.000000 0.8137 0.8131 0.8126 0.8121 0.8116
1991.000000 0.8110 0.8104 0.8097 0.8091 0.8084
1996.000000 0.8077 0.8070 0.8063 0.8056 0.8050
2001.000000 0.8043 0.8036 0.8030 0.8023 0.8016
2006.000000 0.8009 0.8003 0.7996 0.7989 0.7982
2011.000000 0.7976 0.7969 0.7962 0.7954 0.7947
2016.000000 0.7939 0.7933 0.7926 0.7918 0.7911
2021.000000 0.7904 0.7896 0.7889 0.7882 0.7875
2026.000000 0.7868 0.7861 0.7853 0.7846 0.7839
2031.000000 0.7831 0.7822 0.7813 0.7804 0.7795
2036.000000 0.7786 0.7776 0.7767 0.7758 0.7749
2041.000000 0.7740 0.7731 0.7721 0.7711 0.7696
2046.000000 0.7681 0.7665 0.7650 0.7634 0.7619
2051.000000 0.7604 0.7595 0.7585 0.7576 0.7571
2056.000000 0.7567 0.7566 0.7565 0.7564 0.7563
2061.000000 0.7563 0.7561 0.7560 0.7560 0.7560
2066.000000 0.7560 0.7561 0.7574 0.7562 0.7562
2071.000000 0.7562 0.7563 0.7565 0.7570 0.7576
2076.000000 0.7582 0.7588 0.7594 0.7599 0.7604
2081.000000 0.7610 0.7616 0.7622 0.7631 0.7641
2086.000000 0.7651 0.7661 0.7672 0.7682 0.7692
2091.000000 0.7700 0.7707 0.7712 0.7717 0.7722
2096.000000 0.7726 0.7729 0.7732 0.7735 0.7738
2101.000000 0.7741 0.7744 0.7749 0.7757 0.7766
2106.000000 0.7775 0.7785 0.7794 0.7803 0.7812
2111.000000 0.7822 0.7834 0.7849 0.7866 0.7885
2116.000000 0.7905 0.7924 0.7943 0.7961 0.7975
2121.000000 0.7988 0.7999 0.8010 0.8021 0.8032
2126.000000 0.8043 0.8051 0.8058 0.8062 0.8067
2131.000000 0.8070 0.8075 0.8079 0.8083 0.8087
2136.000000 0.8094 0.8101 0.8111 0.8122 0.8132
2141.000000 0.8146 0.8162 0.8178 0.8194 0.8210
2146.000000 0.8227 0.8240 0.8253 0.8265 0.8276
2151.000000 0.8288 0.8299 0.8309 0.8314 0.8315
2156.000000 0.8317 0.8318 0.8321 0.8323 0.8324
2161.000000 0.8326 0.8327 0.8329 0.8331 0.8333
2166.000000 0.8333 0.8331 0.8327 0.8324 0.8321
2171.000000 0.8318 0.8315 0.8312 0.8309 0.8307
2176.000000 0.8305 0.8302 0.8300 0.8297 0.8294
2181.000000 0.8292 0.8290 0.8288 0.8287 0.8286
2186.000000 0.8284 0.8283 0.8281 0.8280 0.8278
2191.000000 0.8277 0.8275 0.8274 0.8275 0.8276
2196.000000 0.8277 0.8278 0.8279 0.8280 0.8281
2201.000000 0.8282 0.8284 0.8285 0.8288 0.8291
2206.000000 0.8293 0.8296 0.8298 0.8315 0.8303
2211.000000 0.8306 0.8309 0.8311 0.8314 0.8317
2216.000000 0.8321 0.8324 0.8327 0.8330 0.8333
2221.000000 0.8336 0.8340 0.8342 0.8345 0.8346
2226.000000 0.8346 0.8347 0.8347 0.8347 0.8347
2231.000000 0.8348 0.8348 0.8349 0.8349 0.8350
2236.000000 0.8350 0.8350 0.8350 0.8349 0.8348
2241.000000 0.8346 0.8344 0.8342 0.8340 0.8338
2246.000000 0.8336 0.8334 0.8332 0.8330 0.8329
2251.000000 0.8325 0.8321 0.8316 0.8311 0.8306
2256.000000 0.8301 0.8296 0.8291 0.8286 0.8281
2261.000000 0.8277 0.8272 0.8267 0.8262 0.8257
2266.000000 0.8252 0.8247 0.8242 0.8238 0.8233
2271.000000 0.8228 0.8223 0.8218 0.8213 0.8208
2276.000000 0.8203 0.8198 0.8193 0.8188 0.8183
2281.000000 0.8179 0.8174 0.8169 0.8164 0.8159
2286.000000 0.8153 0.8147 0.8141 0.8136 0.8130
2291.000000 0.8124 0.8119 0.8113 0.8107 0.8101
2296.000000 0.8096 0.8090 0.8084 0.8079 0.8074
2301.000000 0.8068 0.8063 0.8057 0.8052 0.8047
2306.000000 0.8042 0.8037 0.8032 0.8026 0.8021
2311.000000 0.8016 0.8011 0.8006 0.8001 0.7996
2316.000000 0.7990 0.7985 0.7981 0.7976 0.7971
2321.000000 0.7967 0.7962 0.7957 0.7952 0.7946
2326.000000 0.7941 0.7936 0.7930 0.7924 0.7918
2331.000000 0.7912 0.7906 0.7900 0.7895 0.7889
2336.000000 0.7883 0.7877 0.7872 0.7866 0.7860
2341.000000 0.7854 0.7849 0.7843 0.7837 0.7832
2346.000000 0.7826 0.7820 0.7813 0.7805 0.7797
2351.000000 0.7787 0.7778 0.7768 0.7759 0.7749
2356.000000 0.7740 0.7731 0.7721 0.7712 0.7702
2361.000000 0.7692 0.7681 0.7669 0.7657 0.7645
2366.000000 0.7632 0.7620 0.7608 0.7597 0.7586
2371.000000 0.7575 0.7565 0.7554 0.7544 0.7534
2376.000000 0.7523 0.7513 0.7502 0.7494 0.7487
2381.000000 0.7481 0.7475 0.7469 0.7463 0.7457
2386.000000 0.7451 0.7445 0.7439 0.7433 0.7427
2391.000000 0.7422 0.7416 0.7412 0.7407 0.7403
2396.000000 0.7399 0.7395 0.7391 0.7387 0.7379
2401.000000 0.7369 0.7359 0.7349 0.7338 0.7327
2406.000000 0.7316 0.7304 0.7292 0.7280 0.7266
2411.000000 0.7252 0.7237 0.7222 0.7204 0.7184
2416.000000 0.7165 0.7146 0.7127 0.7110 0.7093
2421.000000 0.7076 0.7060 0.7044 0.7028 0.7012
2426.000000 0.6996 0.6979 0.6963 0.6946 0.6930
2431.000000 0.6913 0.6897 0.6880 0.6864 0.6847
2436.000000 0.6830 0.6814 0.6797 0.6781 0.6765
2441.000000 0.6748 0.6732 0.6715 0.6699 0.6683
2446.000000 0.6666 0.6651 0.6635 0.6619 0.6604
2451.000000 0.6588 0.6575 0.6561 0.6547 0.6533
2456.000000 0.6521 0.6521 0.6521 0.6522 0.6523
2461.000000 0.6525 0.6527 0.6528 0.6521 0.6512
2466.000000 0.6500 0.6485 0.6469 0.6453 0.6436
2471.000000 0.6420 0.6404 0.6387 0.6371 0.6355
2476.000000 0.6338 0.6322 0.6306 0.6289 0.6272
2481.000000 0.6254 0.6237 0.6219 0.6200 0.6182
2486.000000 0.6164 0.6147 0.6130 0.6114 0.6098
2491.000000 0.6082 0.6066 0.6050 0.6034 0.6019
2496.000000 0.6003 0.5987 0.5970 0.5954 0.5938
2501.000000 0.5921 0.5905 0.5889 0.5873 0.5857
2506.000000 0.5841 0.5826 0.5811 0.5797 0.5783
2511.000000 0.5769 0.5755 0.5741 0.5728 0.5714
2516.000000 0.5701 0.5688 0.5675 0.5662 0.5650
2521.000000 0.5637 0.5625 0.5613 0.5600 0.5588
2526.000000 0.5575 0.5563 0.5551 0.5539 0.5526
2531.000000 0.5514 0.5502 0.5489 0.5475 0.5461
2536.000000 0.5448 0.5434 0.5420 0.5407 0.5393
2541.000000 0.5379 0.5365 0.5351 0.5337 0.5323
2546.000000 0.5309 0.5295 0.5281 0.5267 0.5254
2551.000000 0.5240 0.5226 0.5212 0.5198 0.5184
2556.000000 0.5169 0.5149 0.5126 0.5104 0.5083
2561.000000 0.5061 0.5025 0.4976 0.4927 0.4880
2566.000000 0.4834 0.4787 0.4741 0.4694 0.4647
2571.000000 0.4601 0.4554 0.4508 0.4462 0.4416
2576.000000 0.4370 0.4323 0.4277 0.4231 0.4185
2581.000000 0.4158 0.4132 0.4105 0.4079 0.4053
2586.000000 0.4029 0.4005 0.3982 0.3973 0.3963
2591.000000 0.3953 0.3944 0.3934 0.3924 0.3915
2596.000000 0.3905 0.3895 0.3886 0.3876 0.3868
2601.000000 0.3860 0.3853 0.3846 0.3839 0.3836
2606.000000 0.3834 0.3833 0.3833 0.3833 0.3833
2611.000000 0.3834 0.3834 0.3822 0.3836 0.3837
2616.000000 0.3839 0.3840 0.3842 0.3843 0.3845
2621.000000 0.3846 0.3849 0.3851 0.3853 0.3856
2626.000000 0.3858 0.3861 0.3863 0.3865 0.3867
2631.000000 0.3869 0.3872 0.3874 0.3877 0.3879
2636.000000 0.3881 0.3883 0.3887 0.3891 0.3895
2641.000000 0.3899 0.3903 0.3908 0.3912 0.3916
2646.000000 0.3921 0.3927 0.3933 0.3938 0.3944
2651.000000 0.3950 0.3958 0.3966 0.3974 0.3985
2656.000000 0.3995 0.4005 0.4016 0.4026 0.4037
2661.000000 0.4046 0.4056 0.4065 0.4074 0.4083
2666.000000 0.4093 0.4102 0.4112 0.4120 0.4127
2671.000000 0.4135 0.4140 0.4145 0.4151 0.4156
2676.000000 0.4162 0.4167 0.4173 0.4178 0.4183
2681.000000 0.4188 0.4193 0.4196 0.4199 0.4203
2686.000000 0.4204 0.4205 0.4206 0.4206 0.4205
2691.000000 0.4204 0.4202 0.4201 0.4199 0.4196
2696.000000 0.4193 0.4190 0.4187 0.4185 0.4182
2701.000000 0.4178 0.4173 0.4168 0.4160 0.4152
2706.000000 0.4143 0.4130 0.4117 0.4103 0.4089
2711.000000 0.4075 0.4061 0.4047 0.4033 0.4019
2716.000000 0.4004 0.3990 0.3976 0.3961 0.3947
2721.000000 0.3936 0.3926 0.3917 0.3909 0.3900
2726.000000 0.3892 0.3883 0.3874 0.3866 0.3857
2731.000000 0.3849 0.3841 0.3832 0.3824 0.3815
2736.000000 0.3805 0.3793 0.3782 0.3770 0.3759
2741.000000 0.3747 0.3736 0.3724 0.3713 0.3702
2746.000000 0.3690 0.3678 0.3667 0.3655 0.3644
2751.000000 0.3629 0.3614 0.3598 0.3582 0.3566
2756.000000 0.3549 0.3533 0.3516 0.3500 0.3483
2761.000000 0.3467 0.3451 0.3436 0.3422 0.3408
2766.000000 0.3394 0.3380 0.3366 0.3352 0.3339
2771.000000 0.3325 0.3311 0.3297 0.3283 0.3268
2776.000000 0.3252 0.3235 0.3218 0.3200 0.3182
2781.000000 0.3163 0.3145 0.3127 0.3109 0.3091
2786.000000 0.3073 0.3055 0.3036 0.3017 0.2999
2791.000000 0.2956 0.2909 0.2862 0.2813 0.2765
2796.000000 0.2716 0.2666 0.2616 0.2565 0.2510
2801.000000 0.2450 0.2389 0.2307 0.2176 0.2044
2806.000000 0.1924 0.1860 0.1797 0.1733 0.1689
2811.000000 0.1646 0.1602 0.1559 0.1515 0.1472
2816.000000 0.1438 0.1407 0.1376 0.1346 0.1315
2821.000000 0.1285 0.1241 0.1169 0.1097 0.1033
2826.000000 0.1015 0.0997 0.0978 0.0972 0.0966
2831.000000 0.0960 0.0959 0.0959 0.0959 0.0959
2836.000000 0.0961 0.0962 0.0964 0.0966 0.0968
2841.000000 0.0970 0.0971 0.0972 0.0973 0.0974
2846.000000 0.0974 0.0974 0.0973 0.0973 0.0972
2851.000000 0.0971 0.0970 0.0969 0.0968 0.0967
2856.000000 0.0967 0.0966 0.0963 0.0960 0.0957
2861.000000 0.0954 0.0951 0.0948 0.0945 0.0942
2866.000000 0.0938 0.0935 0.0934 0.0932 0.0931
2871.000000 0.0929 0.0927 0.0926 0.0924 0.0922
2876.000000 0.0920 0.0919 0.0919 0.0919 0.0919
2881.000000 0.0921 0.0924 0.0927 0.0931 0.0935
2886.000000 0.0939 0.0944 0.0951 0.0959 0.0966
2891.000000 0.0976 0.0986 0.0995 0.1006 0.1016
2896.000000 0.1026 0.1037 0.1050 0.1063 0.1076
2901.000000 0.1090 0.1104 0.1117 0.1131 0.1146
2906.000000 0.1160 0.1175 0.1188 0.1201 0.1215
2911.000000 0.1228 0.1240 0.1253 0.1266 0.1280
2916.000000 0.1294 0.1308 0.1328 0.1350 0.1371
2921.000000 0.1394 0.1420 0.1447 0.1473 0.1507
2926.000000 0.1542 0.1576 0.1601 0.1620 0.1639
2931.000000 0.1657 0.1675 0.1693 0.1711 0.1751
2936.000000 0.1799 0.1848 0.1896 0.1944 0.1993
2941.000000 0.2041 0.2089 0.2138 0.2186 0.2235
2946.000000 0.2283 0.2331 0.2379 0.2427 0.2475
2951.000000 0.2523 0.2571 0.2619 0.2667 0.2716
2956.000000 0.2763 0.2811 0.2859 0.2907 0.2957
2961.000000 0.3007 0.3057 0.3074 0.3088 0.3102
2966.000000 0.3116 0.3130 0.3144 0.3158 0.3172
2971.000000 0.3186 0.3199 0.3215 0.3232 0.3249
2976.000000 0.3266 0.3288 0.3311 0.3334 0.3356
2981.000000 0.3379 0.3402 0.3425 0.3447 0.3469
2986.000000 0.3491 0.3514 0.3535 0.3557 0.3579
2991.000000 0.3600 0.3620 0.3640 0.3660 0.3673
2996.000000 0.3685 0.3698 0.3710 0.3723 0.3735
3001.000000 0.3747 0.3759 0.3772 0.3784 0.3797
3006.000000 0.3809 0.3822 0.3834 0.3847 0.3859
3011.000000 0.3871 0.3884 0.3896 0.3909 0.3921
3016.000000 0.3934 0.3946 0.3959 0.3971 0.3984
3021.000000 0.3996 0.4008 0.4021 0.4033 0.4045
3026.000000 0.4058 0.4070 0.4082 0.4095 0.4107
3031.000000 0.4119 0.4131 0.4143 0.4155 0.4166
3036.000000 0.4178 0.4190 0.4201 0.4213 0.4225
3041.000000 0.4237 0.4249 0.4260 0.4271 0.4282
3046.000000 0.4293 0.4304 0.4316 0.4327 0.4338
3051.000000 0.4349 0.4360 0.4373 0.4388 0.4403
3056.000000 0.4418 0.4436 0.4454 0.4473 0.4491
3061.000000 0.4521 0.4550 0.4579 0.4608 0.4637
3066.000000 0.4665 0.4694 0.4721 0.4748 0.4775
3071.000000 0.4802 0.4831 0.4860 0.4890 0.4920
3076.000000 0.4954 0.4988 0.5022 0.5057 0.5089
3081.000000 0.5122 0.5155 0.5188 0.5220 0.5253
3086.000000 0.5285 0.5310 0.5330 0.5350 0.5370
3091.000000 0.5390 0.5410 0.5429 0.5449 0.5471
3096.000000 0.5492 0.5513 0.5535 0.5560 0.5585
3101.000000 0.5609 0.5634 0.5659 0.5684 0.5709
3106.000000 0.5735 0.5764 0.5793 0.5822 0.5857
3111.000000 0.5895 0.5934 0.5973 0.6016 0.6062
3116.000000 0.6108 0.6154 0.6201 0.6248 0.6295
3121.000000 0.6342 0.6380 0.6418 0.6456 0.6494
3126.000000 0.6519 0.6544 0.6569 0.6595 0.6617
3131.000000 0.6640 0.6663 0.6687 0.6711 0.6735
3136.000000 0.6760 0.6787 0.6822 0.6857 0.6893
3141.000000 0.6939 0.7011 0.7083 0.7154 0.7217
3146.000000 0.7261 0.7306 0.7350 0.7387 0.7413
3151.000000 0.7439 0.7464 0.7489 0.7513 0.7537
3156.000000 0.7561 0.7584 0.7605 0.7626 0.7647
3161.000000 0.7667 0.7686 0.7705 0.7724 0.7743
3166.000000 0.7761 0.7780 0.7799 0.7816 0.7832
3171.000000 0.7848 0.7863 0.7879 0.7893 0.7908
3176.000000 0.7922 0.7937 0.7952 0.7966 0.7981
3181.000000 0.7995 0.8010 0.8025 0.8039 0.8056
3186.000000 0.8076 0.8097 0.8118 0.8139 0.8159
3191.000000 0.8178 0.8198 0.8216 0.8229 0.8241
3196.000000 0.8254 0.8266 0.8279 0.8292 0.8304
3201.000000 0.8317 0.8330 0.8343 0.8355 0.8368
3206.000000 0.8378 0.8388 0.8397 0.8407 0.8416
3211.000000 0.8424 0.8432 0.8440 0.8449 0.8458
3216.000000 0.8466 0.8475 0.8484 0.8493 0.8502
3221.000000 0.8512 0.8530 0.8567 0.8603 0.8639
3226.000000 0.8669 0.8673 0.8676 0.8680 0.8684
3231.000000 0.8687 0.8691 0.8695 0.8699 0.8703
3236.000000 0.8707 0.8710 0.8714 0.8718 0.8722
3241.000000 0.8726 0.8729 0.8733 0.8737 0.8741
3246.000000 0.8745 0.8748 0.8753 0.8757 0.8761
3251.000000 0.8765 0.8769 0.8773 0.8777 0.8781
3256.000000 0.8785 0.8789 0.8793 0.8797 0.8800
3261.000000 0.8804 0.8807 0.8810 0.8813 0.8817
3266.000000 0.8820 0.8823 0.8827 0.8830 0.8834
3271.000000 0.8837 0.8841 0.8844 0.8847 0.8850
3276.000000 0.8854 0.8857 0.8860 0.8864 0.8867
3281.000000 0.8870 0.8873 0.8877 0.8880 0.8883
3286.000000 0.8886 0.8889 0.8892 0.8895 0.8898
3291.000000 0.8901 0.8904 0.8907 0.8910 0.8913
3296.000000 0.8916 0.8919 0.8922 0.8925 0.8928
3301.000000 0.8931 0.8934 0.8937 0.8940 0.8943
3306.000000 0.8946 0.8949 0.8951 0.8953 0.8956
3311.000000 0.8958 0.8958 0.8958 0.8958 0.8958
3316.000000 0.8957 0.8957 0.8956 0.8955 0.8955
3321.000000 0.8954 0.8953 0.8952 0.8952 0.8951
3326.000000 0.8951 0.8950 0.8950 0.8950 0.8950
3331.000000 0.8950 0.8950 0.8950 0.8949 0.8949
3336.000000 0.8949 0.8949 0.8948 0.8948 0.8948
3341.000000 0.8948 0.8948 0.8947 0.8947 0.8947
3346.000000 0.8947 0.8946 0.8946 0.8945 0.8945
3351.000000 0.8945 0.8945 0.8945 0.8946 0.8946
3356.000000 0.8947 0.8947 0.8948 0.8948 0.8948
3361.000000 0.8949 0.8950 0.8950 0.8951 0.8952
3366.000000 0.8953 0.8953 0.8954 0.8955 0.8956
3371.000000 0.8957 0.8958 0.8960 0.8961 0.8962
3376.000000 0.8963 0.8965 0.8966 0.8967 0.8969
3381.000000 0.8971 0.8972 0.8974 0.8975 0.8977
3386.000000 0.8978 0.8980 0.8981 0.8983 0.8984
3391.000000 0.8986 0.8987 0.8989 0.8990 0.8991
3396.000000 0.8993 0.8994 0.8995 0.8996 0.8997
3401.000000 0.8998 0.8999 0.9000 0.9001 0.9002
3406.000000 0.9004 0.9005 0.9006 0.9007 0.9008
3411.000000 0.9009 0.9010 0.9011 0.9012 0.9013
3416.000000 0.9014 0.9015 0.9016 0.9017 0.9019
3421.000000 0.9020 0.9021 0.9022 0.9023 0.9024
3426.000000 0.9025 0.9025 0.9026 0.9027 0.9028
3431.000000 0.9029 0.9030 0.9031 0.9031 0.9032
3436.000000 0.9033 0.9033 0.9034 0.9035 0.9036
3441.000000 0.9036 0.9037 0.9038 0.9039 0.9039
3446.000000 0.9040 0.9041 0.9041 0.9042 0.9043
3451.000000 0.9043 0.9044 0.9044 0.9045 0.9046
3456.000000 0.9047 0.9048 0.9049 0.9049 0.9050
3461.000000 0.9051 0.9052 0.9053 0.9054 0.9055
3466.000000 0.9056 0.9057 0.9058 0.9059 0.9060
3471.000000 0.9061 0.9062 0.9063 0.9064 0.9065
3476.000000 0.9066 0.9067 0.9068 0.9070 0.9071
3481.000000 0.9072 0.9073 0.9074 0.9075 0.9076
3486.000000 0.9077 0.9078 0.9079 0.9080 0.9081
3491.000000 0.9082 0.9083 0.9084 0.9085 0.9086
3496.000000 0.9087 0.9088 0.9089 0.9090 0.9091
3501.000000 0.9092 0.9093 0.9094 0.9095 0.9096
3506.000000 0.9097 0.9098 0.9099 0.9100 0.9101
3511.000000 0.9102 0.9103 0.9104 0.9105 0.9106
3516.000000 0.9107 0.9108 0.9109 0.9110 0.9111
3521.000000 0.9111 0.9112 0.9113 0.9114 0.9115
3526.000000 0.9115 0.9116 0.9116 0.9117 0.9117
3531.000000 0.9117 0.9117 0.9117 0.9116 0.9116
3536.000000 0.9116 0.9115 0.9115 0.9114 0.9114
3541.000000 0.9114 0.9113 0.9113 0.9112 0.9112
3546.000000 0.9112 0.9111 0.9110 0.9109 0.9108
3551.000000 0.9108 0.9107 0.9106 0.9106 0.9105
3556.000000 0.9105 0.9104 0.9103 0.9103 0.9102
3561.000000 0.9102 0.9101 0.9100 0.9099 0.9099
3566.000000 0.9098 0.9097 0.9097 0.9096 0.9095
3571.000000 0.9095 0.9094 0.9093 0.9092 0.9091
3576.000000 0.9090 0.9089 0.9088 0.9087 0.9086
3581.000000 0.9085 0.9084 0.9083 0.9082 0.9081
3586.000000 0.9080 0.9079 0.9078 0.9077 0.9076
3591.000000 0.9075 0.9074 0.9074 0.9073 0.9072
3596.000000 0.9071 0.9071 0.9070 0.9069 0.9068
3601.000000 0.9067 0.9066 0.9065 0.9064 0.9062
3606.000000 0.9061 0.9060 0.9059 0.9058 0.9057
3611.000000 0.9055 0.9054 0.9053 0.9052 0.9051
3616.000000 0.9050 0.9049 0.9048 0.9047 0.9046
3621.000000 0.9045 0.9044 0.9043 0.9042 0.9040
3626.000000 0.9039 0.9038 0.9037 0.9037 0.9037
3631.000000 0.9037 0.9038 0.9038 0.9039 0.9039
3636.000000 0.9039 0.9040 0.9040 0.9040 0.9041
3641.000000 0.9041 0.9042 0.9042 0.9042 0.9043
3646.000000 0.9043 0.9044 0.9044 0.9044 0.9045
3651.000000 0.9046 0.9047 0.9048 0.9049 0.9050
3656.000000 0.9050 0.9051 0.9052 0.9053 0.9053
3661.000000 0.9054 0.9055 0.9056 0.9057 0.9058
3666.000000 0.9059 0.9060 0.9061 0.9062 0.9063
3671.000000 0.9063 0.9064 0.9065 0.9066 0.9066
3676.000000 0.9067 0.9068 0.9069 0.9070 0.9071
3681.000000 0.9072 0.9073 0.9073 0.9073 0.9074
3686.000000 0.9074 0.9074 0.9075 0.9075 0.9075
3691.000000 0.9075 0.9075 0.9075 0.9075 0.9075
3696.000000 0.9075 0.9075 0.9075 0.9075 0.9074
3701.000000 0.9073 0.9073 0.9072 0.9071 0.9070
3706.000000 0.9069 0.9069 0.9068 0.9067 0.9066
3711.000000 0.9065 0.9063 0.9062 0.9061 0.9060
3716.000000 0.9059 0.9058 0.9056 0.9055 0.9054
3721.000000 0.9052 0.9051 0.9050 0.9048 0.9047
3726.000000 0.9045 0.9044 0.9042 0.9041 0.9039
3731.000000 0.9038 0.9037 0.9035 0.9034 0.9033
3736.000000 0.9032 0.9030 0.9029 0.9027 0.9025
3741.000000 0.9023 0.9021 0.9020 0.9018 0.9016
3746.000000 0.9014 0.9013 0.9011 0.9009 0.9007
3751.000000 0.9005 0.9004 0.9002 0.9000 0.8998
3756.000000 0.8996 0.8994 0.8992 0.8990 0.8988
3761.000000 0.8987 0.8985 0.8983 0.8981 0.8980
3766.000000 0.8977 0.8975 0.8973 0.8970 0.8968
3771.000000 0.8966 0.8963 0.8960 0.8957 0.8954
3776.000000 0.8951 0.8948 0.8945 0.8942 0.8939
3781.000000 0.8936 0.8933 0.8930 0.8927 0.8924
3786.000000 0.8921 0.8918 0.8915 0.8912 0.8909
3791.000000 0.8906 0.8903 0.8899 0.8897 0.8894
3796.000000 0.8892 0.8890 0.8888 0.8885 0.8883
3801.000000 0.8881 0.8880 0.8878 0.8876 0.8874
3806.000000 0.8872 0.8870 0.8869 0.8867 0.8865
3811.000000 0.8863 0.8862 0.8860 0.8858 0.8857
3816.000000 0.8855 0.8853 0.8852 0.8850 0.8849
3821.000000 0.8848 0.8846 0.8846 0.8846 0.8846
3826.000000 0.8846 0.8846 0.8846 0.8846 0.8846
3831.000000 0.8846 0.8847 0.8847 0.8847 0.8848
3836.000000 0.8848 0.8848 0.8849 0.8849 0.8849
3841.000000 0.8850 0.8850 0.8851 0.8851 0.8852
3846.000000 0.8852 0.8853 0.8854 0.8854 0.8855
3851.000000 0.8856 0.8856 0.8857 0.8858 0.8859
3856.000000 0.8860 0.8861 0.8861 0.8862 0.8862
3861.000000 0.8862 0.8863 0.8863 0.8864 0.8864
3866.000000 0.8864 0.8864 0.8864 0.8864 0.8864
3871.000000 0.8864 0.8864 0.8864 0.8864 0.8864
3876.000000 0.8864 0.8864 0.8864 0.8864 0.8864
3881.000000 0.8864 0.8865 0.8865 0.8865 0.8865
3886.000000 0.8865 0.8865 0.8865 0.8865 0.8865
3891.000000 0.8865 0.8865 0.8865 0.8865 0.8864
3896.000000 0.8864 0.8863 0.8863 0.8862 0.8862
3901.000000 0.8861 0.8861 0.8861 0.8860 0.8860
3906.000000 0.8860 0.8859 0.8859 0.8859 0.8858
3911.000000 0.8858 0.8858 0.8857 0.8857 0.8856
3916.000000 0.8856 0.8855 0.8855 0.8854 0.8854
3921.000000 0.8854 0.8853 0.8853 0.8853 0.8852
3926.000000 0.8852 0.8851 0.8850 0.8850 0.8849
3931.000000 0.8848 0.8848 0.8847 0.8846 0.8846
3936.000000 0.8845 0.8845 0.8844 0.8843 0.8843
3941.000000 0.8842 0.8841 0.8841 0.8840 0.8839
3946.000000 0.8838 0.8837 0.8836 0.8835 0.8834
3951.000000 0.8832 0.8831 0.8829 0.8828 0.8827
3956.000000 0.8825 0.8824 0.8822 0.8821 0.8819
3961.000000 0.8818 0.8816 0.8815 0.8814 0.8813
3966.000000 0.8811 0.8810 0.8809 0.8807 0.8806
3971.000000 0.8805 0.8803 0.8802 0.8800 0.8799
3976.000000 0.8797 0.8796 0.8795 0.8793 0.8792
3981.000000 0.8790 0.8789 0.8788 0.8786 0.8785
3986.000000 0.8783 0.8782 0.8780 0.8778 0.8777
3991.000000 0.8775 0.8773 0.8772 0.8770 0.8768
3996.000000 0.8767 0.8765 0.8764 0.8762 0.8761
##END=
