##TITLE=Zinc, bis(8-quinolinolato)-
##JCAMP-DX=4.24
##DATA TYPE=INFRARED SPECTRUM
##CLASS=COBLENTZ III
##ORIGIN=WYANDOTTE CHEMICALS CORP.
##OWNER=Copyright (C) 1987 by the Coblentz Society
Collection (C) 2018 copyright by the U.S. Secretary of Commerce
on behalf of the United States of America. All rights reserved.
##DATE=Not specified, most likely prior to 1977
##MOLFORM=C18 H12 N2 O2 Zn
##SOURCE REFERENCE=COBLENTZ NO. 9800
##$NIST ID=B6009800
##$NIST SOURCE=COBLENTZ
##$NIST IMAGE=cob9800
##SPECTROMETER/DATA SYSTEM=BAIRD (PRISM)
##INSTRUMENT PARAMETERS=NaCl PRISM
##STATE=SOLID (OIL MULL)
$$SPECTRAL CONTAMINATION DUE TO OIL AROUND 2900, 1460, AND AN UNKNOWN AROUND 665 CM^-^1
##SAMPLING PROCEDURE=TRANSMISSION
##RESOLUTION=2
##DATA PROCESSING=DIGITIZED BY COBLENTZ SOCIETY (BATCH II) FROM HARD COPY
##XUNITS=1/CM
##YUNITS=TRANSMITTANCE
##XFACTOR=1.0
##YFACTOR=1
##FIRSTX=626
##LASTX=4000
##FIRSTY=0.6692
##MAXX=4000
##MINX=626
##MAXY=0.9625
##MINY=0.0154
##NPOINTS=3375
##XYDATA=(X++(Y..Y))
626.000000 0.6692 0.6772 0.6817 0.6864 0.6912
631.000000 0.6961 0.7012 0.7061 0.7082 0.7099
636.000000 0.7085 0.7042 0.6989 0.6874 0.6796
641.000000 0.6733 0.6630 0.6550 0.6527 0.6531
646.000000 0.6583 0.6635 0.6751 0.6931 0.7158
651.000000 0.7435 0.7715 0.7923 0.8069 0.8101
656.000000 0.8130 0.8220 0.8358 0.8436 0.8457
661.000000 0.8387 0.8296 0.8162 0.8087 0.8068
666.000000 0.8159 0.8573 0.8717 0.8757 0.8780
671.000000 0.8804 0.8827 0.8852 0.8881 0.8916
676.000000 0.8953 0.8961 0.8975 0.8996 0.9017
681.000000 0.9040 0.9064 0.9088 0.9106 0.9125
686.000000 0.9143 0.9150 0.9157 0.9162 0.9163
691.000000 0.9163 0.9170 0.9158 0.9145 0.9133
696.000000 0.9120 0.9108 0.9092 0.9075 0.9058
701.000000 0.9034 0.9008 0.8979 0.8941 0.8880
706.000000 0.8811 0.8737 0.8664 0.8582 0.8497
711.000000 0.8383 0.8257 0.8129 0.7974 0.7809
716.000000 0.7636 0.7426 0.7164 0.6836 0.6557
721.000000 0.6289 0.5941 0.5590 0.4860 0.4372
726.000000 0.3604 0.2564 0.1883 0.1444 0.1315
731.000000 0.1292 0.1287 0.1432 0.1728 0.2249
736.000000 0.2706 0.3017 0.3343 0.3534 0.3619
741.000000 0.3630 0.3563 0.3481 0.3485 0.3491
746.000000 0.3433 0.3199 0.3132 0.3121 0.4002
751.000000 0.4693 0.5490 0.5977 0.6246 0.6483
756.000000 0.6805 0.7125 0.7373 0.7585 0.7782
761.000000 0.7966 0.8116 0.8232 0.8323 0.8382
766.000000 0.8402 0.8427 0.8408 0.8407 0.8393
771.000000 0.8367 0.8331 0.8269 0.8192 0.8079
776.000000 0.7956 0.7767 0.7556 0.7305 0.6980
781.000000 0.5953 0.3476 0.2681 0.1752 0.1654
786.000000 0.1652 0.2854 0.3857 0.4863 0.5382
791.000000 0.5734 0.6130 0.6465 0.6613 0.6630
796.000000 0.6007 0.5227 0.4449 0.3673 0.3214
801.000000 0.3887 0.4801 0.5552 0.5874 0.6437
806.000000 0.7471 0.7944 0.8195 0.8341 0.8391
811.000000 0.8276 0.8007 0.7583 0.4647 0.3168
816.000000 0.2621 0.1819 0.1671 0.1656 0.1668
821.000000 0.2909 0.3679 0.4447 0.5213 0.5990
826.000000 0.6803 0.7262 0.7649 0.7983 0.8265
831.000000 0.8506 0.8688 0.8895 0.8985 0.9056
836.000000 0.9089 0.9116 0.9136 0.9153 0.9193
841.000000 0.9156 0.9144 0.9128 0.9099 0.9081
846.000000 0.9096 0.9143 0.9181 0.9198 0.9193
851.000000 0.9186 0.9180 0.9172 0.9165 0.9158
856.000000 0.9146 0.9133 0.9119 0.9098 0.9076
861.000000 0.9055 0.9003 0.8938 0.8803 0.8656
866.000000 0.8506 0.8362 0.8320 0.8404 0.8567
871.000000 0.8734 0.8834 0.8899 0.8947 0.8946
876.000000 0.8929 0.8906 0.8885 0.8868 0.8863
881.000000 0.8867 0.8882 0.8902 0.8924 0.8948
886.000000 0.8966 0.8975 0.8979 0.8986 0.8984
891.000000 0.8982 0.8979 0.8969 0.8955 0.8918
896.000000 0.8880 0.8821 0.8759 0.8624 0.8460
901.000000 0.8242 0.7910 0.7542 0.7268 0.7175
906.000000 0.7139 0.7458 0.7687 0.7917 0.8146
911.000000 0.8397 0.8519 0.8554 0.8602 0.8665
916.000000 0.8730 0.8794 0.8842 0.8852 0.8886
921.000000 0.8823 0.8806 0.8793 0.8782 0.8771
926.000000 0.8763 0.8762 0.8760 0.8759 0.8760
931.000000 0.8762 0.8765 0.8768 0.8757 0.8740
936.000000 0.8724 0.8679 0.8639 0.8611 0.8606
941.000000 0.8598 0.8587 0.8572 0.8546 0.8517
946.000000 0.8461 0.8393 0.8316 0.8238 0.8152
951.000000 0.8087 0.8084 0.8060 0.8187 0.8256
956.000000 0.8311 0.8311 0.8303 0.8282 0.8262
961.000000 0.8252 0.8242 0.8261 0.8313 0.8380
966.000000 0.8422 0.8425 0.8421 0.8406 0.8306
971.000000 0.8232 0.8180 0.8135 0.8110 0.7968
976.000000 0.7822 0.7784 0.7755 0.7749 0.7776
981.000000 0.7846 0.7984 0.8138 0.8332 0.8470
986.000000 0.8543 0.8572 0.8596 0.8615 0.8623
991.000000 0.8624 0.8667 0.8608 0.8621 0.8635
996.000000 0.8645 0.8637 0.8624 0.8610 0.8590
1001.000000 0.8562 0.8530 0.8515 0.8504 0.8502
1006.000000 0.8496 0.8464 0.8416 0.8346 0.8279
1011.000000 0.8244 0.8240 0.8237 0.8227 0.8203
1016.000000 0.8164 0.8119 0.8066 0.8014 0.7956
1021.000000 0.7895 0.7820 0.7744 0.7663 0.7583
1026.000000 0.7474 0.7359 0.7207 0.6939 0.6727
1031.000000 0.6563 0.6421 0.6365 0.6373 0.6332
1036.000000 0.6666 0.6904 0.7142 0.7379 0.7616
1041.000000 0.7852 0.8013 0.8051 0.8086 0.8048
1046.000000 0.8022 0.7993 0.7954 0.7913 0.7870
1051.000000 0.7818 0.7757 0.7687 0.7585 0.7453
1056.000000 0.7308 0.7281 0.7291 0.7302 0.7269
1061.000000 0.7265 0.7286 0.7340 0.7411 0.7481
1066.000000 0.7547 0.7612 0.7647 0.7674 0.7674
1071.000000 0.7663 0.7640 0.7613 0.7584 0.7540
1076.000000 0.7461 0.7380 0.7300 0.7219 0.7138
1081.000000 0.7065 0.6996 0.6927 0.6861 0.6798
1086.000000 0.6735 0.6675 0.6616 0.6559 0.6521
1091.000000 0.6484 0.6457 0.6438 0.6418 0.6396
1096.000000 0.6365 0.6298 0.6195 0.6117 0.6060
1101.000000 0.5913 0.5591 0.5257 0.4518 0.3744
1106.000000 0.2972 0.2202 0.1432 0.0523 0.0473
1111.000000 0.0471 0.0518 0.1019 0.1582 0.2143
1116.000000 0.2704 0.3264 0.3823 0.4380 0.4937
1121.000000 0.5492 0.6617 0.7004 0.7128 0.7316
1126.000000 0.7413 0.7452 0.7452 0.7496 0.7331
1131.000000 0.7237 0.7165 0.7110 0.7105 0.7124
1136.000000 0.7169 0.7276 0.7384 0.7474 0.7562
1141.000000 0.7645 0.7677 0.7718 0.7700 0.7694
1146.000000 0.7685 0.7675 0.7665 0.7655 0.7644
1151.000000 0.7633 0.7621 0.7607 0.7604 0.7611
1156.000000 0.7619 0.7628 0.7640 0.7652 0.7663
1161.000000 0.7672 0.7667 0.7646 0.7625 0.7584
1166.000000 0.7521 0.7441 0.7349 0.7255 0.7162
1171.000000 0.7098 0.7089 0.7077 0.7109 0.7130
1176.000000 0.7150 0.7168 0.7187 0.7198 0.7204
1181.000000 0.7203 0.7203 0.7203 0.7209 0.7259
1186.000000 0.7342 0.7414 0.7488 0.7576 0.7652
1191.000000 0.7719 0.7778 0.7794 0.7790 0.7778
1196.000000 0.7764 0.7742 0.7711 0.7592 0.7429
1201.000000 0.7279 0.7152 0.7046 0.6961 0.6876
1206.000000 0.6809 0.6811 0.6823 0.6844 0.6893
1211.000000 0.6961 0.7028 0.7081 0.7079 0.7077
1216.000000 0.7038 0.6928 0.6764 0.6534 0.6305
1221.000000 0.6077 0.5849 0.5621 0.5393 0.5167
1226.000000 0.4964 0.4854 0.4722 0.4597 0.4498
1231.000000 0.4437 0.4432 0.4455 0.4451 0.4480
1236.000000 0.4542 0.4615 0.4748 0.4968 0.5188
1241.000000 0.5408 0.5627 0.5846 0.6065 0.6283
1246.000000 0.6501 0.6719 0.6936 0.7220 0.7310
1251.000000 0.7348 0.7363 0.7362 0.7322 0.7335
1256.000000 0.7306 0.7270 0.7220 0.7159 0.7090
1261.000000 0.7020 0.6947 0.6868 0.6783 0.6683
1266.000000 0.6539 0.6388 0.6238 0.5836 0.5249
1271.000000 0.4660 0.4073 0.3486 0.2900 0.2324
1276.000000 0.1992 0.1982 0.1961 0.2133 0.2621
1281.000000 0.3108 0.3595 0.4080 0.4566 0.5049
1286.000000 0.5533 0.6015 0.6498 0.7026 0.7173
1291.000000 0.7195 0.7202 0.7206 0.7215 0.7169
1296.000000 0.7118 0.7064 0.7013 0.6963 0.6913
1301.000000 0.6857 0.6797 0.6724 0.6654 0.6591
1306.000000 0.6470 0.5995 0.5791 0.5512 0.5089
1311.000000 0.4627 0.4165 0.3703 0.3243 0.2783
1316.000000 0.2324 0.1866 0.1413 0.1015 0.0637
1321.000000 0.0544 0.0541 0.0529 0.0539 0.0557
1326.000000 0.0585 0.0637 0.0751 0.0952 0.1447
1331.000000 0.1963 0.2480 0.2995 0.3511 0.4024
1336.000000 0.4537 0.5051 0.5522 0.5816 0.5973
1341.000000 0.6246 0.6391 0.6453 0.6487 0.6508
1346.000000 0.6509 0.6510 0.6501 0.6494 0.6464
1351.000000 0.6425 0.6375 0.6310 0.6225 0.6113
1356.000000 0.6015 0.5822 0.5662 0.5330 0.4859
1361.000000 0.4387 0.3918 0.3448 0.2979 0.2511
1366.000000 0.2044 0.1833 0.1689 0.1541 0.1392
1371.000000 0.1220 0.1034 0.0815 0.0662 0.0569
1376.000000 0.0522 0.0481 0.0440 0.0405 0.0393
1381.000000 0.0381 0.0369 0.0358 0.0354 0.0355
1386.000000 0.0373 0.0357 0.0358 0.0361 0.0367
1391.000000 0.0373 0.0384 0.0757 0.1380 0.2003
1396.000000 0.2625 0.3246 0.3866 0.4625 0.4844
1401.000000 0.5233 0.5602 0.5814 0.5979 0.6075
1406.000000 0.6155 0.6246 0.6340 0.6421 0.6497
1411.000000 0.6553 0.6590 0.6628 0.6665 0.6676
1416.000000 0.6682 0.6701 0.6470 0.6237 0.6003
1421.000000 0.5770 0.5537 0.5305 0.5073 0.4840
1426.000000 0.4609 0.4385 0.4304 0.4302 0.4343
1431.000000 0.4452 0.4571 0.4690 0.4751 0.4750
1436.000000 0.4747 0.4658 0.4415 0.4172 0.3930
1441.000000 0.3680 0.3384 0.3245 0.3122 0.3002
1446.000000 0.2888 0.2794 0.2701 0.2608 0.2518
1451.000000 0.2334 0.2153 0.2028 0.1904 0.1667
1456.000000 0.1347 0.1038 0.0767 0.0560 0.0456
1461.000000 0.0381 0.0326 0.0287 0.0248 0.0217
1466.000000 0.0200 0.0186 0.0175 0.0172 0.0169
1471.000000 0.0174 0.0189 0.0350 0.0695 0.1068
1476.000000 0.1440 0.1812 0.2183 0.2553 0.2923
1481.000000 0.3293 0.3662 0.4031 0.4399 0.4767
1486.000000 0.5134 0.5501 0.5867 0.5999 0.5989
1491.000000 0.5879 0.5395 0.4823 0.4253 0.3684
1496.000000 0.3115 0.2547 0.1980 0.1414 0.0860
1501.000000 0.0540 0.0533 0.0712 0.1217 0.1813
1506.000000 0.2408 0.3003 0.3597 0.4189 0.4782
1511.000000 0.5373 0.5964 0.6554 0.7562 0.7965
1516.000000 0.8080 0.8137 0.8188 0.8203 0.8259
1521.000000 0.8219 0.8226 0.8231 0.8229 0.8225
1526.000000 0.8219 0.8213 0.8206 0.8200 0.8193
1531.000000 0.8186 0.8177 0.8169 0.8161 0.8153
1536.000000 0.8144 0.8136 0.8125 0.8107 0.8086
1541.000000 0.8078 0.8078 0.8046 0.8077 0.8076
1546.000000 0.8079 0.8088 0.8097 0.8105 0.8114
1551.000000 0.8124 0.8133 0.8140 0.8147 0.8154
1556.000000 0.8160 0.8161 0.8160 0.8157 0.8159
1561.000000 0.8143 0.8135 0.8028 0.7809 0.7578
1566.000000 0.7348 0.7118 0.6888 0.6659 0.6429
1571.000000 0.6200 0.5971 0.5743 0.5516 0.5346
1576.000000 0.4841 0.4246 0.3677 0.3110 0.2543
1581.000000 0.1977 0.1499 0.1380 0.1382 0.1380
1586.000000 0.1948 0.2357 0.2765 0.3173 0.3580
1591.000000 0.3987 0.4393 0.4799 0.5204 0.5609
1596.000000 0.5924 0.6037 0.6012 0.5899 0.5716
1601.000000 0.5533 0.5351 0.5169 0.4986 0.4805
1606.000000 0.4623 0.4441 0.4260 0.4079 0.3900
1611.000000 0.3760 0.3765 0.3775 0.4434 0.5113
1616.000000 0.5792 0.6471 0.7030 0.7254 0.7425
1621.000000 0.7563 0.7708 0.7890 0.8037 0.8153
1626.000000 0.8243 0.8306 0.8361 0.8407 0.8437
1631.000000 0.8467 0.8499 0.8535 0.8572 0.8621
1636.000000 0.8670 0.8700 0.8706 0.8706 0.8706
1641.000000 0.8705 0.8729 0.8701 0.8699 0.8697
1646.000000 0.8692 0.8679 0.8666 0.8654 0.8642
1651.000000 0.8629 0.8615 0.8602 0.8588 0.8576
1656.000000 0.8569 0.8565 0.8561 0.8557 0.8555
1661.000000 0.8555 0.8556 0.8556 0.8561 0.8569
1666.000000 0.8577 0.8585 0.8593 0.8601 0.8609
1671.000000 0.8618 0.8626 0.8636 0.8646 0.8657
1676.000000 0.8667 0.8677 0.8688 0.8699 0.8709
1681.000000 0.8722 0.8736 0.8749 0.8763 0.8776
1686.000000 0.8790 0.8803 0.8823 0.8844 0.8864
1691.000000 0.8885 0.8905 0.8923 0.8942 0.8959
1696.000000 0.8971 0.8982 0.8994 0.9003 0.9009
1701.000000 0.9013 0.9016 0.9019 0.9022 0.9025
1706.000000 0.9028 0.9031 0.9036 0.9046 0.9058
1711.000000 0.9070 0.9082 0.9092 0.9097 0.9098
1716.000000 0.9095 0.9093 0.9089 0.9087 0.9084
1721.000000 0.9082 0.9080 0.9079 0.9078 0.9077
1726.000000 0.9076 0.9075 0.9074 0.9078 0.9085
1731.000000 0.9094 0.9105 0.9119 0.9134 0.9152
1736.000000 0.9171 0.9190 0.9202 0.9212 0.9219
1741.000000 0.9223 0.9227 0.9230 0.9234 0.9237
1746.000000 0.9239 0.9242 0.9245 0.9248 0.9251
1751.000000 0.9259 0.9277 0.9298 0.9312 0.9325
1756.000000 0.9338 0.9352 0.9367 0.9387 0.9407
1761.000000 0.9427 0.9446 0.9465 0.9482 0.9498
1766.000000 0.9515 0.9531 0.9545 0.9556 0.9566
1771.000000 0.9576 0.9586 0.9592 0.9596 0.9599
1776.000000 0.9602 0.9606 0.9606 0.9608 0.9625
1781.000000 0.9610 0.9611 0.9612 0.9613 0.9614
1786.000000 0.9613 0.9612 0.9612 0.9610 0.9608
1791.000000 0.9606 0.9604 0.9601 0.9599 0.9596
1796.000000 0.9593 0.9591 0.9589 0.9586 0.9583
1801.000000 0.9581 0.9577 0.9573 0.9569 0.9565
1806.000000 0.9561 0.9557 0.9552 0.9547 0.9544
1811.000000 0.9539 0.9535 0.9531 0.9527 0.9523
1816.000000 0.9519 0.9515 0.9510 0.9506 0.9502
1821.000000 0.9498 0.9494 0.9490 0.9486 0.9482
1826.000000 0.9478 0.9474 0.9470 0.9466 0.9462
1831.000000 0.9458 0.9454 0.9450 0.9446 0.9442
1836.000000 0.9438 0.9434 0.9430 0.9426 0.9422
1841.000000 0.9418 0.9414 0.9407 0.9400 0.9392
1846.000000 0.9383 0.9375 0.9366 0.9358 0.9350
1851.000000 0.9342 0.9333 0.9324 0.9314 0.9305
1856.000000 0.9296 0.9287 0.9280 0.9275 0.9272
1861.000000 0.9268 0.9265 0.9262 0.9259 0.9255
1866.000000 0.9254 0.9254 0.9256 0.9257 0.9258
1871.000000 0.9258 0.9260 0.9261 0.9261 0.9259
1876.000000 0.9255 0.9251 0.9246 0.9241 0.9236
1881.000000 0.9228 0.9219 0.9210 0.9201 0.9191
1886.000000 0.9182 0.9173 0.9164 0.9155 0.9147
1891.000000 0.9139 0.9139 0.9140 0.9140 0.9140
1896.000000 0.9114 0.9146 0.9154 0.9161 0.9169
1901.000000 0.9176 0.9185 0.9193 0.9201 0.9209
1906.000000 0.9215 0.9217 0.9218 0.9219 0.9221
1911.000000 0.9222 0.9223 0.9223 0.9223 0.9223
1916.000000 0.9223 0.9223 0.9222 0.9221 0.9221
1921.000000 0.9220 0.9220 0.9222 0.9225 0.9231
1926.000000 0.9240 0.9253 0.9270 0.9292 0.9312
1931.000000 0.9329 0.9345 0.9349 0.9353 0.9355
1936.000000 0.9357 0.9359 0.9361 0.9363 0.9364
1941.000000 0.9366 0.9366 0.9367 0.9367 0.9367
1946.000000 0.9368 0.9368 0.9369 0.9370 0.9370
1951.000000 0.9370 0.9371 0.9371 0.9371 0.9371
1956.000000 0.9371 0.9371 0.9372 0.9372 0.9372
1961.000000 0.9372 0.9372 0.9372 0.9371 0.9371
1966.000000 0.9370 0.9369 0.9369 0.9368 0.9368
1971.000000 0.9367 0.9366 0.9366 0.9365 0.9364
1976.000000 0.9364 0.9363 0.9362 0.9362 0.9361
1981.000000 0.9360 0.9360 0.9359 0.9357 0.9355
1986.000000 0.9354 0.9352 0.9351 0.9349 0.9347
1991.000000 0.9346 0.9345 0.9343 0.9341 0.9340
1996.000000 0.9338 0.9336 0.9335 0.9333 0.9332
2001.000000 0.9330 0.9329 0.9327 0.9325 0.9321
2006.000000 0.9316 0.9310 0.9305 0.9299 0.9294
2011.000000 0.9289 0.9285 0.9281 0.9277 0.9273
2016.000000 0.9269 0.9265 0.9261 0.9257 0.9253
2021.000000 0.9250 0.9245 0.9241 0.9238 0.9233
2026.000000 0.9229 0.9226 0.9222 0.9220 0.9218
2031.000000 0.9216 0.9214 0.9211 0.9209 0.9207
2036.000000 0.9204 0.9202 0.9199 0.9197 0.9194
2041.000000 0.9192 0.9191 0.9190 0.9189 0.9187
2046.000000 0.9186 0.9185 0.9184 0.9182 0.9181
2051.000000 0.9179 0.9178 0.9177 0.9176 0.9175
2056.000000 0.9173 0.9172 0.9171 0.9169 0.9168
2061.000000 0.9167 0.9167 0.9167 0.9167 0.9168
2066.000000 0.9169 0.9170 0.9171 0.9172 0.9173
2071.000000 0.9173 0.9174 0.9176 0.9176 0.9177
2076.000000 0.9178 0.9179 0.9179 0.9179 0.9180
2081.000000 0.9180 0.9180 0.9180 0.9181 0.9181
2086.000000 0.9181 0.9182 0.9182 0.9182 0.9182
2091.000000 0.9183 0.9183 0.9182 0.9181 0.9179
2096.000000 0.9177 0.9175 0.9173 0.9172 0.9169
2101.000000 0.9167 0.9166 0.9163 0.9160 0.9155
2106.000000 0.9150 0.9145 0.9140 0.9135 0.9130
2111.000000 0.9125 0.9120 0.9115 0.9109 0.9104
2116.000000 0.9098 0.9092 0.9086 0.9081 0.9075
2121.000000 0.9069 0.9064 0.9058 0.9053 0.9048
2126.000000 0.9044 0.9041 0.9037 0.9033 0.9030
2131.000000 0.9026 0.9023 0.9019 0.9016 0.9012
2136.000000 0.9008 0.9005 0.9003 0.9001 0.8999
2141.000000 0.8998 0.8996 0.8994 0.8993 0.8991
2146.000000 0.8989 0.8987 0.8985 0.8983 0.8982
2151.000000 0.8980 0.8979 0.8977 0.8975 0.8974
2156.000000 0.8972 0.8971 0.8969 0.8967 0.8965
2161.000000 0.8963 0.8962 0.8960 0.8958 0.8957
2166.000000 0.8955 0.8953 0.8949 0.8947 0.8944
2171.000000 0.8941 0.8939 0.8936 0.8933 0.8930
2176.000000 0.8927 0.8924 0.8922 0.8919 0.8916
2181.000000 0.8914 0.8911 0.8908 0.8905 0.8902
2186.000000 0.8900 0.8897 0.8894 0.8891 0.8887
2191.000000 0.8884 0.8881 0.8877 0.8874 0.8870
2196.000000 0.8867 0.8864 0.8860 0.8857 0.8854
2201.000000 0.8850 0.8847 0.8843 0.8839 0.8835
2206.000000 0.8830 0.8825 0.8821 0.8816 0.8811
2211.000000 0.8807 0.8802 0.8797 0.8792 0.8788
2216.000000 0.8783 0.8779 0.8775 0.8772 0.8769
2221.000000 0.8767 0.8764 0.8763 0.8762 0.8762
2226.000000 0.8762 0.8761 0.8761 0.8761 0.8761
2231.000000 0.8761 0.8761 0.8760 0.8760 0.8760
2236.000000 0.8760 0.8759 0.8758 0.8756 0.8755
2241.000000 0.8753 0.8752 0.8750 0.8749 0.8747
2246.000000 0.8746 0.8744 0.8743 0.8741 0.8740
2251.000000 0.8738 0.8737 0.8735 0.8734 0.8733
2256.000000 0.8732 0.8730 0.8729 0.8727 0.8725
2261.000000 0.8723 0.8721 0.8718 0.8716 0.8715
2266.000000 0.8713 0.8711 0.8709 0.8706 0.8701
2271.000000 0.8697 0.8691 0.8686 0.8681 0.8675
2276.000000 0.8670 0.8665 0.8659 0.8654 0.8649
2281.000000 0.8644 0.8636 0.8627 0.8618 0.8609
2286.000000 0.8600 0.8591 0.8582 0.8573 0.8564
2291.000000 0.8555 0.8545 0.8535 0.8523 0.8511
2296.000000 0.8499 0.8486 0.8474 0.8462 0.8450
2301.000000 0.8440 0.8430 0.8427 0.8424 0.8421
2306.000000 0.8418 0.8416 0.8413 0.8411 0.8408
2311.000000 0.8405 0.8402 0.8398 0.8395 0.8391
2316.000000 0.8388 0.8384 0.8381 0.8377 0.8374
2321.000000 0.8370 0.8365 0.8360 0.8353 0.8347
2326.000000 0.8340 0.8333 0.8326 0.8320 0.8314
2331.000000 0.8313 0.8312 0.8310 0.8308 0.8306
2336.000000 0.8305 0.8304 0.8302 0.8301 0.8299
2341.000000 0.8297 0.8296 0.8296 0.8295 0.8295
2346.000000 0.8294 0.8293 0.8292 0.8291 0.8290
2351.000000 0.8290 0.8289 0.8288 0.8288 0.8287
2356.000000 0.8287 0.8286 0.8285 0.8284 0.8282
2361.000000 0.8281 0.8279 0.8277 0.8276 0.8274
2366.000000 0.8272 0.8271 0.8269 0.8268 0.8266
2371.000000 0.8264 0.8262 0.8261 0.8259 0.8257
2376.000000 0.8256 0.8254 0.8252 0.8250 0.8246
2381.000000 0.8243 0.8240 0.8237 0.8234 0.8230
2386.000000 0.8227 0.8224 0.8221 0.8219 0.8218
2391.000000 0.8216 0.8214 0.8212 0.8211 0.8209
2396.000000 0.8208 0.8206 0.8205 0.8203 0.8202
2401.000000 0.8201 0.8200 0.8199 0.8198 0.8198
2406.000000 0.8197 0.8196 0.8196 0.8195 0.8194
2411.000000 0.8193 0.8192 0.8192 0.8191 0.8190
2416.000000 0.8189 0.8188 0.8186 0.8184 0.8183
2421.000000 0.8181 0.8180 0.8179 0.8178 0.8176
2426.000000 0.8175 0.8173 0.8171 0.8170 0.8169
2431.000000 0.8168 0.8166 0.8163 0.8160 0.8156
2436.000000 0.8152 0.8148 0.8144 0.8141 0.8136
2441.000000 0.8132 0.8128 0.8124 0.8120 0.8116
2446.000000 0.8112 0.8109 0.8105 0.8102 0.8099
2451.000000 0.8095 0.8093 0.8090 0.8087 0.8084
2456.000000 0.8082 0.8082 0.8082 0.8083 0.8083
2461.000000 0.8083 0.8083 0.8083 0.8083 0.8084
2466.000000 0.8085 0.8086 0.8087 0.8087 0.8088
2471.000000 0.8089 0.8089 0.8090 0.8090 0.8091
2476.000000 0.8092 0.8093 0.8094 0.8094 0.8094
2481.000000 0.8094 0.8094 0.8093 0.8093 0.8093
2486.000000 0.8093 0.8093 0.8092 0.8091 0.8091
2491.000000 0.8088 0.8085 0.8082 0.8080 0.8078
2496.000000 0.8075 0.8073 0.8070 0.8067 0.8065
2501.000000 0.8062 0.8060 0.8053 0.8042 0.8032
2506.000000 0.8017 0.8001 0.7985 0.7968 0.7950
2511.000000 0.7926 0.7901 0.7879 0.7860 0.7840
2516.000000 0.7832 0.7825 0.7819 0.7815 0.7810
2521.000000 0.7806 0.7802 0.7797 0.7793 0.7789
2526.000000 0.7785 0.7781 0.7777 0.7773 0.7769
2531.000000 0.7765 0.7760 0.7756 0.7752 0.7748
2536.000000 0.7743 0.7735 0.7728 0.7718 0.7709
2541.000000 0.7699 0.7689 0.7679 0.7669 0.7660
2546.000000 0.7651 0.7642 0.7632 0.7623 0.7615
2551.000000 0.7606 0.7601 0.7596 0.7591 0.7587
2556.000000 0.7583 0.7580 0.7576 0.7572 0.7569
2561.000000 0.7565 0.7562 0.7558 0.7554 0.7550
2566.000000 0.7546 0.7543 0.7539 0.7536 0.7537
2571.000000 0.7541 0.7545 0.7549 0.7553 0.7557
2576.000000 0.7561 0.7564 0.7568 0.7572 0.7577
2581.000000 0.7580 0.7583 0.7585 0.7588 0.7591
2586.000000 0.7594 0.7597 0.7600 0.7602 0.7604
2591.000000 0.7604 0.7599 0.7594 0.7589 0.7584
2596.000000 0.7579 0.7574 0.7569 0.7563 0.7554
2601.000000 0.7545 0.7536 0.7527 0.7518 0.7508
2606.000000 0.7497 0.7486 0.7471 0.7457 0.7443
2611.000000 0.7429 0.7415 0.7403 0.7393 0.7382
2616.000000 0.7372 0.7362 0.7351 0.7341 0.7331
2621.000000 0.7321 0.7310 0.7300 0.7290 0.7281
2626.000000 0.7272 0.7266 0.7259 0.7253 0.7247
2631.000000 0.7241 0.7238 0.7239 0.7240 0.7241
2636.000000 0.7242 0.7243 0.7245 0.7246 0.7248
2641.000000 0.7249 0.7250 0.7252 0.7254 0.7256
2646.000000 0.7257 0.7259 0.7261 0.7262 0.7263
2651.000000 0.7264 0.7265 0.7266 0.7267 0.7267
2656.000000 0.7267 0.7267 0.7264 0.7260 0.7257
2661.000000 0.7252 0.7248 0.7244 0.7240 0.7236
2666.000000 0.7232 0.7228 0.7224 0.7220 0.7215
2671.000000 0.7211 0.7207 0.7203 0.7199 0.7194
2676.000000 0.7190 0.7186 0.7182 0.7178 0.7173
2681.000000 0.7167 0.7162 0.7155 0.7148 0.7141
2686.000000 0.7135 0.7128 0.7122 0.7115 0.7108
2691.000000 0.7102 0.7108 0.7116 0.7123 0.7134
2696.000000 0.7145 0.7156 0.7165 0.7174 0.7182
2701.000000 0.7191 0.7199 0.7207 0.7213 0.7218
2706.000000 0.7223 0.7227 0.7230 0.7233 0.7233
2711.000000 0.7234 0.7235 0.7235 0.7235 0.7235
2716.000000 0.7235 0.7235 0.7234 0.7234 0.7234
2721.000000 0.7233 0.7232 0.7232 0.7229 0.7226
2726.000000 0.7222 0.7219 0.7215 0.7211 0.7208
2731.000000 0.7204 0.7200 0.7195 0.7189 0.7183
2736.000000 0.7176 0.7169 0.7161 0.7152 0.7142
2741.000000 0.7133 0.7123 0.7112 0.7102 0.7090
2746.000000 0.7078 0.7067 0.7052 0.7037 0.7022
2751.000000 0.7005 0.6987 0.6970 0.6952 0.6933
2756.000000 0.6915 0.6895 0.6876 0.6856 0.6836
2761.000000 0.6816 0.6795 0.6767 0.6732 0.6697
2766.000000 0.6660 0.6621 0.6582 0.6533 0.6471
2771.000000 0.6410 0.6342 0.6266 0.6189 0.6121
2776.000000 0.6075 0.6028 0.5982 0.5940 0.5898
2781.000000 0.5856 0.5815 0.5773 0.5732 0.5691
2786.000000 0.5650 0.5608 0.5562 0.5515 0.5468
2791.000000 0.5358 0.5235 0.5111 0.4969 0.4819
2796.000000 0.4669 0.4522 0.4376 0.4230 0.4084
2801.000000 0.3939 0.3794 0.3649 0.3503 0.3358
2806.000000 0.3213 0.3068 0.2923 0.2779 0.2634
2811.000000 0.2490 0.2345 0.2201 0.2056 0.1912
2816.000000 0.1738 0.1551 0.1364 0.1238 0.1171
2821.000000 0.1104 0.1042 0.0988 0.0934 0.0880
2826.000000 0.0829 0.0778 0.0726 0.0649 0.0571
2831.000000 0.0493 0.0466 0.0456 0.0447 0.0443
2836.000000 0.0444 0.0445 0.0446 0.0447 0.0448
2841.000000 0.0450 0.0453 0.0457 0.0460 0.0464
2846.000000 0.0468 0.0472 0.0475 0.0476 0.0478
2851.000000 0.0480 0.0482 0.0483 0.0485 0.0486
2856.000000 0.0487 0.0488 0.0489 0.0489 0.0489
2861.000000 0.0489 0.0489 0.0489 0.0488 0.0486
2866.000000 0.0484 0.0482 0.0479 0.0475 0.0471
2871.000000 0.0465 0.0457 0.0450 0.0441 0.0431
2876.000000 0.0420 0.0409 0.0390 0.0372 0.0353
2881.000000 0.0337 0.0323 0.0308 0.0294 0.0281
2886.000000 0.0268 0.0255 0.0245 0.0234 0.0224
2891.000000 0.0217 0.0210 0.0203 0.0197 0.0192
2896.000000 0.0187 0.0182 0.0179 0.0176 0.0172
2901.000000 0.0169 0.0166 0.0162 0.0160 0.0159
2906.000000 0.0158 0.0157 0.0157 0.0156 0.0156
2911.000000 0.0155 0.0155 0.0154 0.0154 0.0155
2916.000000 0.0156 0.0157 0.0159 0.0161 0.0163
2921.000000 0.0164 0.0166 0.0167 0.0169 0.0172
2926.000000 0.0175 0.0178 0.0182 0.0185 0.0189
2931.000000 0.0192 0.0196 0.0199 0.0203 0.0207
2936.000000 0.0213 0.0218 0.0223 0.0228 0.0233
2941.000000 0.0238 0.0250 0.0265 0.0279 0.0315
2946.000000 0.0387 0.0460 0.0532 0.0638 0.0747
2951.000000 0.0857 0.0966 0.1075 0.1184 0.1293
2956.000000 0.1403 0.1512 0.1621 0.1730 0.1839
2961.000000 0.1948 0.2056 0.2165 0.2273 0.2382
2966.000000 0.2490 0.2598 0.2706 0.2814 0.2922
2971.000000 0.3030 0.3138 0.3246 0.3354 0.3462
2976.000000 0.3570 0.3677 0.3785 0.3892 0.4000
2981.000000 0.4107 0.4214 0.4321 0.4428 0.4535
2986.000000 0.4642 0.4737 0.4762 0.4787 0.4812
2991.000000 0.4832 0.4848 0.4865 0.4881 0.4884
2996.000000 0.4886 0.4888 0.4890 0.4893 0.4895
3001.000000 0.4897 0.4898 0.4898 0.4898 0.4898
3006.000000 0.4898 0.4898 0.4898 0.4898 0.4898
3011.000000 0.4898 0.4898 0.4899 0.4900 0.4901
3016.000000 0.4902 0.4904 0.4906 0.4908 0.4910
3021.000000 0.4912 0.4914 0.4917 0.4925 0.4933
3026.000000 0.4941 0.4953 0.4972 0.4991 0.5010
3031.000000 0.5055 0.5112 0.5169 0.5225 0.5266
3036.000000 0.5307 0.5348 0.5391 0.5436 0.5481
3041.000000 0.5526 0.5581 0.5642 0.5703 0.5764
3046.000000 0.5823 0.5882 0.5941 0.5998 0.6049
3051.000000 0.6100 0.6152 0.6207 0.6267 0.6327
3056.000000 0.6386 0.6425 0.6457 0.6488 0.6520
3061.000000 0.6530 0.6540 0.6550 0.6560 0.6570
3066.000000 0.6580 0.6591 0.6600 0.6609 0.6618
3071.000000 0.6627 0.6631 0.6634 0.6636 0.6638
3076.000000 0.6641 0.6643 0.6645 0.6647 0.6649
3081.000000 0.6652 0.6654 0.6656 0.6658 0.6661
3086.000000 0.6663 0.6664 0.6666 0.6667 0.6668
3091.000000 0.6670 0.6671 0.6672 0.6673 0.6675
3096.000000 0.6676 0.6677 0.6679 0.6680 0.6681
3101.000000 0.6683 0.6684 0.6685 0.6687 0.6689
3106.000000 0.6690 0.6691 0.6691 0.6692 0.6693
3111.000000 0.6694 0.6694 0.6695 0.6696 0.6697
3116.000000 0.6698 0.6699 0.6700 0.6701 0.6702
3121.000000 0.6702 0.6703 0.6704 0.6705 0.6706
3126.000000 0.6707 0.6708 0.6709 0.6710 0.6710
3131.000000 0.6711 0.6712 0.6713 0.6714 0.6715
3136.000000 0.6716 0.6717 0.6718 0.6719 0.6720
3141.000000 0.6721 0.6722 0.6723 0.6724 0.6725
3146.000000 0.6726 0.6727 0.6728 0.6729 0.6731
3151.000000 0.6732 0.6734 0.6736 0.6738 0.6741
3156.000000 0.6744 0.6747 0.6749 0.6752 0.6754
3161.000000 0.6758 0.6763 0.6768 0.6774 0.6780
3166.000000 0.6789 0.6798 0.6807 0.6816 0.6824
3171.000000 0.6832 0.6840 0.6847 0.6854 0.6860
3176.000000 0.6867 0.6871 0.6871 0.6871 0.6871
3181.000000 0.6872 0.6872 0.6872 0.6872 0.6872
3186.000000 0.6872 0.6872 0.6872 0.6871 0.6871
3191.000000 0.6871 0.6871 0.6871 0.6871 0.6871
3196.000000 0.6871 0.6870 0.6870 0.6870 0.6870
3201.000000 0.6870 0.6869 0.6869 0.6869 0.6869
3206.000000 0.6868 0.6868 0.6867 0.6867 0.6866
3211.000000 0.6866 0.6866 0.6866 0.6865 0.6865
3216.000000 0.6865 0.6865 0.6864 0.6864 0.6863
3221.000000 0.6863 0.6862 0.6862 0.6862 0.6862
3226.000000 0.6861 0.6861 0.6860 0.6860 0.6860
3231.000000 0.6860 0.6860 0.6860 0.6860 0.6861
3236.000000 0.6861 0.6861 0.6861 0.6861 0.6861
3241.000000 0.6861 0.6861 0.6861 0.6861 0.6861
3246.000000 0.6861 0.6861 0.6861 0.6861 0.6861
3251.000000 0.6861 0.6861 0.6861 0.6861 0.6861
3256.000000 0.6862 0.6862 0.6862 0.6862 0.6862
3261.000000 0.6862 0.6862 0.6862 0.6862 0.6862
3266.000000 0.6862 0.6862 0.6862 0.6862 0.6862
3271.000000 0.6862 0.6862 0.6862 0.6862 0.6862
3276.000000 0.6862 0.6862 0.6862 0.6862 0.6862
3281.000000 0.6861 0.6861 0.6861 0.6861 0.6861
3286.000000 0.6861 0.6861 0.6861 0.6861 0.6861
3291.000000 0.6861 0.6861 0.6861 0.6861 0.6861
3296.000000 0.6861 0.6861 0.6861 0.6861 0.6861
3301.000000 0.6861 0.6861 0.6861 0.6861 0.6861
3306.000000 0.6861 0.6861 0.6861 0.6861 0.6861
3311.000000 0.6861 0.6861 0.6861 0.6861 0.6861
3316.000000 0.6860 0.6860 0.6860 0.6860 0.6860
3321.000000 0.6860 0.6860 0.6860 0.6860 0.6861
3326.000000 0.6861 0.6861 0.6861 0.6861 0.6861
3331.000000 0.6861 0.6861 0.6861 0.6861 0.6861
3336.000000 0.6861 0.6861 0.6861 0.6861 0.6861
3341.000000 0.6861 0.6861 0.6861 0.6861 0.6861
3346.000000 0.6861 0.6862 0.6862 0.6862 0.6862
3351.000000 0.6862 0.6862 0.6862 0.6862 0.6862
3356.000000 0.6862 0.6862 0.6862 0.6862 0.6862
3361.000000 0.6862 0.6862 0.6862 0.6862 0.6862
3366.000000 0.6862 0.6862 0.6862 0.6862 0.6862
3371.000000 0.6862 0.6862 0.6862 0.6863 0.6863
3376.000000 0.6863 0.6863 0.6863 0.6863 0.6863
3381.000000 0.6863 0.6863 0.6863 0.6863 0.6863
3386.000000 0.6863 0.6863 0.6863 0.6863 0.6863
3391.000000 0.6863 0.6863 0.6863 0.6863 0.6863
3396.000000 0.6863 0.6864 0.6864 0.6864 0.6864
3401.000000 0.6864 0.6864 0.6864 0.6864 0.6864
3406.000000 0.6865 0.6865 0.6865 0.6865 0.6865
3411.000000 0.6865 0.6865 0.6865 0.6865 0.6865
3416.000000 0.6865 0.6865 0.6865 0.6865 0.6866
3421.000000 0.6866 0.6866 0.6866 0.6866 0.6866
3426.000000 0.6866 0.6866 0.6866 0.6866 0.6867
3431.000000 0.6867 0.6867 0.6867 0.6867 0.6867
3436.000000 0.6867 0.6867 0.6867 0.6867 0.6867
3441.000000 0.6867 0.6867 0.6867 0.6868 0.6868
3446.000000 0.6868 0.6868 0.6868 0.6868 0.6868
3451.000000 0.6868 0.6868 0.6868 0.6869 0.6869
3456.000000 0.6869 0.6869 0.6869 0.6869 0.6869
3461.000000 0.6869 0.6869 0.6869 0.6869 0.6869
3466.000000 0.6868 0.6868 0.6867 0.6867 0.6866
3471.000000 0.6866 0.6866 0.6865 0.6865 0.6864
3476.000000 0.6864 0.6864 0.6863 0.6863 0.6862
3481.000000 0.6862 0.6861 0.6861 0.6861 0.6860
3486.000000 0.6860 0.6859 0.6859 0.6858 0.6857
3491.000000 0.6857 0.6856 0.6855 0.6854 0.6853
3496.000000 0.6852 0.6851 0.6850 0.6849 0.6848
3501.000000 0.6847 0.6846 0.6845 0.6844 0.6844
3506.000000 0.6843 0.6842 0.6841 0.6840 0.6839
3511.000000 0.6838 0.6871 0.6836 0.6835 0.6834
3516.000000 0.6833 0.6832 0.6831 0.6830 0.6829
3521.000000 0.6828 0.6827 0.6826 0.6825 0.6824
3526.000000 0.6823 0.6822 0.6821 0.6820 0.6819
3531.000000 0.6819 0.6818 0.6817 0.6816 0.6815
3536.000000 0.6814 0.6813 0.6812 0.6811 0.6810
3541.000000 0.6809 0.6808 0.6807 0.6806 0.6805
3546.000000 0.6804 0.6802 0.6801 0.6800 0.6799
3551.000000 0.6798 0.6796 0.6795 0.6794 0.6793
3556.000000 0.6792 0.6791 0.6790 0.6789 0.6788
3561.000000 0.6787 0.6786 0.6784 0.6783 0.6782
3566.000000 0.6781 0.6780 0.6779 0.6777 0.6776
3571.000000 0.6775 0.6774 0.6773 0.6771 0.6770
3576.000000 0.6769 0.6768 0.6767 0.6766 0.6764
3581.000000 0.6763 0.6762 0.6761 0.6760 0.6759
3586.000000 0.6758 0.6757 0.6756 0.6755 0.6754
3591.000000 0.6753 0.6751 0.6750 0.6749 0.6748
3596.000000 0.6747 0.6746 0.6744 0.6743 0.6742
3601.000000 0.6741 0.6740 0.6739 0.6738 0.6736
3606.000000 0.6735 0.6734 0.6733 0.6732 0.6731
3611.000000 0.6729 0.6728 0.6727 0.6726 0.6725
3616.000000 0.6724 0.6723 0.6722 0.6722 0.6721
3621.000000 0.6720 0.6719 0.6719 0.6718 0.6717
3626.000000 0.6717 0.6716 0.6716 0.6715 0.6714
3631.000000 0.6714 0.6713 0.6712 0.6711 0.6711
3636.000000 0.6710 0.6709 0.6708 0.6708 0.6707
3641.000000 0.6706 0.6705 0.6704 0.6704 0.6703
3646.000000 0.6703 0.6702 0.6701 0.6701 0.6700
3651.000000 0.6699 0.6699 0.6698 0.6697 0.6696
3656.000000 0.6696 0.6695 0.6694 0.6693 0.6693
3661.000000 0.6692 0.6691 0.6691 0.6690 0.6689
3666.000000 0.6688 0.6688 0.6687 0.6686 0.6685
3671.000000 0.6685 0.6684 0.6683 0.6683 0.6682
3676.000000 0.6682 0.6681 0.6680 0.6680 0.6679
3681.000000 0.6678 0.6677 0.6677 0.6676 0.6675
3686.000000 0.6674 0.6674 0.6673 0.6672 0.6672
3691.000000 0.6671 0.6670 0.6669 0.6669 0.6668
3696.000000 0.6667 0.6666 0.6666 0.6665 0.6664
3701.000000 0.6663 0.6662 0.6661 0.6660 0.6659
3706.000000 0.6658 0.6658 0.6657 0.6656 0.6655
3711.000000 0.6654 0.6652 0.6651 0.6650 0.6649
3716.000000 0.6648 0.6647 0.6647 0.6646 0.6645
3721.000000 0.6644 0.6643 0.6642 0.6641 0.6640
3726.000000 0.6639 0.6638 0.6638 0.6637 0.6636
3731.000000 0.6635 0.6634 0.6633 0.6632 0.6631
3736.000000 0.6630 0.6629 0.6629 0.6628 0.6627
3741.000000 0.6626 0.6625 0.6624 0.6623 0.6622
3746.000000 0.6621 0.6621 0.6620 0.6619 0.6618
3751.000000 0.6616 0.6615 0.6614 0.6613 0.6612
3756.000000 0.6610 0.6609 0.6607 0.6606 0.6605
3761.000000 0.6603 0.6602 0.6600 0.6599 0.6598
3766.000000 0.6596 0.6594 0.6593 0.6591 0.6590
3771.000000 0.6589 0.6589 0.6589 0.6589 0.6589
3776.000000 0.6589 0.6588 0.6588 0.6588 0.6588
3781.000000 0.6588 0.6588 0.6588 0.6588 0.6588
3786.000000 0.6588 0.6588 0.6587 0.6587 0.6587
3791.000000 0.6587 0.6587 0.6587 0.6586 0.6586
3796.000000 0.6586 0.6586 0.6586 0.6586 0.6585
3801.000000 0.6584 0.6583 0.6582 0.6582 0.6581
3806.000000 0.6580 0.6579 0.6578 0.6577 0.6576
3811.000000 0.6575 0.6575 0.6574 0.6573 0.6572
3816.000000 0.6571 0.6570 0.6569 0.6569 0.6568
3821.000000 0.6567 0.6566 0.6565 0.6565 0.6564
3826.000000 0.6563 0.6563 0.6562 0.6560 0.6558
3831.000000 0.6555 0.6553 0.6550 0.6547 0.6544
3836.000000 0.6540 0.6536 0.6532 0.6528 0.6524
3841.000000 0.6521 0.6517 0.6513 0.6510 0.6506
3846.000000 0.6502 0.6498 0.6495 0.6491 0.6487
3851.000000 0.6484 0.6480 0.6476 0.6472 0.6468
3856.000000 0.6464 0.6460 0.6457 0.6453 0.6449
3861.000000 0.6446 0.6442 0.6438 0.6434 0.6431
3866.000000 0.6427 0.6423 0.6420 0.6416 0.6412
3871.000000 0.6409 0.6405 0.6401 0.6397 0.6393
3876.000000 0.6389 0.6386 0.6382 0.6378 0.6374
3881.000000 0.6370 0.6366 0.6362 0.6358 0.6355
3886.000000 0.6351 0.6347 0.6343 0.6339 0.6335
3891.000000 0.6331 0.6327 0.6324 0.6320 0.6317
3896.000000 0.6314 0.6311 0.6309 0.6306 0.6303
3901.000000 0.6301 0.6299 0.6297 0.6295 0.6293
3906.000000 0.6291 0.6289 0.6287 0.6285 0.6283
3911.000000 0.6281 0.6279 0.6277 0.6275 0.6273
3916.000000 0.6271 0.6269 0.6267 0.6266 0.6264
3921.000000 0.6262 0.6260 0.6258 0.6257 0.6255
3926.000000 0.6254 0.6252 0.6251 0.6249 0.6248
3931.000000 0.6246 0.6245 0.6244 0.6242 0.6241
3936.000000 0.6240 0.6239 0.6237 0.6236 0.6234
3941.000000 0.6233 0.6231 0.6230 0.6228 0.6227
3946.000000 0.6226 0.6225 0.6223 0.6222 0.6221
3951.000000 0.6219 0.6218 0.6216 0.6215 0.6214
3956.000000 0.6212 0.6211 0.6210 0.6208 0.6207
3961.000000 0.6206 0.6204 0.6203 0.6202 0.6200
3966.000000 0.6199 0.6197 0.6196 0.6194 0.6193
3971.000000 0.6192 0.6190 0.6189 0.6187 0.6186
3976.000000 0.6185 0.6183 0.6182 0.6181 0.6180
3981.000000 0.6178 0.6177 0.6176 0.6175 0.6173
3986.000000 0.6172 0.6171 0.6170 0.6169 0.6167
3991.000000 0.6166 0.6165 0.6164 0.6163 0.6162
3996.000000 0.6161 0.6160 0.6159 0.6158 0.6157
##END=
