##TITLE=2-HYDROXY-4-THIAEICOSYYLTRIMETHYLAMMONIUM p-TOSYLATE
##JCAMP-DX=4.24
##DATA TYPE=INFRARED SPECTRUM
##CLASS=COBLENTZ
##ORIGIN=EASTMAN KODAK COMPANY, RESEARCH LABORATORIES, ROCHESTER, N.Y.
##OWNER=COBLENTZ SOCIETY
Collection (C) 2018 copyright by the U.S. Secretary of Commerce
on behalf of the United States of America. All rights reserved.
##DATE=Not specified, most likely prior to 1970
##MOLFORM=C29 H55 N O4 S2
##MP=78-190 C
##SOURCE REFERENCE=COBLENTZ NO. 4418
##$NIST ID=B6004418
##$NIST SOURCE=COBLENTZ
##$NIST IMAGE=cob4418
##SPECTROMETER/DATA SYSTEM=Not specified, most likely a prism, grating, or hybrid spectrometer.
##STATE=SOLID (KBr PRESSING)
##PATH LENGTH=
$$ SEE J. ORG. CHEM., VOL. 28, PAGE 2283 (1963)
##SAMPLING PROCEDURE=TRANSMISSION
##RESOLUTION=4
##DATA PROCESSING=DIGITIZED BY NIST FROM HARD COPY
##XUNITS=MICROMETERS
##YUNITS=TRANSMITTANCE
##XFACTOR=1.000000
##YFACTOR=1
##DELTAX=000.006648
##FIRSTX=2.047
##LASTX=15.9998
##FIRSTY=0.713
##MAXX=15.9998
##MINX=2.047
##MAXY=1.004
##MINY=0.123
##NPOINTS=2100
##XYDATA=(X++(Y..Y))
2.047000 0.7130 0.7130 0.7150 0.7170 0.7200
2.080254 0.7200 0.7230 0.7230 0.7230 0.7250
2.113000 0.7250 0.7250 0.7260 0.7280 0.7300
2.146254 0.7310 0.7350 0.7380 0.7380 0.7400
2.179000 0.7400 0.7400 0.7400 0.7400 0.7400
2.212254 0.7400 0.7400 0.7400 0.7410 0.7410
2.246000 0.7430 0.7450 0.7450 0.7460 0.7460
2.279254 0.7460 0.7460 0.7480 0.7480 0.7480
2.312000 0.7500 0.7500 0.7500 0.7500 0.7510
2.345254 0.7530 0.7530 0.7530 0.7530 0.7530
2.379000 0.7530 0.7540 0.7540 0.7540 0.7560
2.412254 0.7560 0.7580 0.7580 0.7590 0.7590
2.445000 0.7610 0.7610 0.7610 0.7610 0.7610
2.478254 0.7630 0.7630 0.7640 0.7660 0.7660
2.512000 0.7680 0.7710 0.7730 0.7740 0.7760
2.545254 0.7790 0.7810 0.7820 0.7820 0.7820
2.578000 0.7820 0.7840 0.7860 0.7890 0.7910
2.611254 0.7910 0.7920 0.7920 0.7920 0.7920
2.645000 0.7920 0.7920 0.7940 0.7940 0.7960
2.678254 0.7960 0.7970 0.7970 0.7990 0.7990
2.711000 0.7990 0.7970 0.7960 0.7940 0.7920
2.744254 0.7890 0.7870 0.7820 0.7730 0.7660
2.778000 0.7580 0.7510 0.7330 0.7150 0.7020
2.811254 0.6890 0.6750 0.6620 0.6490 0.6340
2.844000 0.6210 0.6080 0.5930 0.5780 0.5640
2.877254 0.5490 0.5320 0.5140 0.4810 0.4600
2.911000 0.4370 0.4170 0.4060 0.3910 0.3710
2.944254 0.3560 0.3500 0.3480 0.3500 0.3550
2.977000 0.3650 0.3760 0.3930 0.4120 0.4300
3.010254 0.4500 0.4670 0.4780 0.4910 0.4980
3.044000 0.5030 0.5040 0.5040 0.5030 0.5030
3.077254 0.5010 0.4930 0.4860 0.4830 0.4810
3.110000 0.4750 0.4720 0.4700 0.4670 0.4650
3.143254 0.4630 0.4630 0.4650 0.4670 0.4720
3.177000 0.4760 0.4860 0.4950 0.5010 0.5190
3.210254 0.5410 0.5620 0.5850 0.6080 0.6290
3.243000 0.6490 0.6570 0.6670 0.6720 0.6750
3.276254 0.6750 0.6750 0.6740 0.6740 0.6720
3.310000 0.6720 0.6720 0.6740 0.6870 0.6950
3.343254 0.7000 0.6950 0.6820 0.6440 0.5970
3.376000 0.5460 0.4520 0.4160 0.3790 0.3100
3.409254 0.1770 0.1250 0.1230 0.1250 0.1890
3.443000 0.2530 0.3140 0.3660 0.4630 0.5600
3.476254 0.5620 0.5620 0.5600 0.5080 0.2960
3.509000 0.2960 0.4040 0.4600 0.5140 0.6260
3.542254 0.7990 0.8020 0.7990 0.7910 0.7890
3.575000 0.7860 0.7840 0.7860 0.7960 0.8000
3.608254 0.8070 0.8100 0.8140 0.8190 0.8240
3.642000 0.8250 0.8300 0.8320 0.8330 0.8350
3.675254 0.8350 0.8350 0.8350 0.8350 0.8350
3.708000 0.8350 0.8370 0.8380 0.8420 0.8430
3.741254 0.8450 0.8470 0.8480 0.8480 0.8500
3.775000 0.8510 0.8530 0.8560 0.8580 0.8610
3.808254 0.8610 0.8630 0.8630 0.8650 0.8680
3.841000 0.8710 0.8710 0.8730 0.8730 0.8700
3.874254 0.8700 0.8710 0.8730 0.8730 0.8750
3.908000 0.8750 0.8750 0.8750 0.8750 0.8750
3.941254 0.8750 0.8760 0.8780 0.8830 0.8860
3.974000 0.8860 0.8880 0.8890 0.8910 0.8930
4.007254 0.8940 0.8980 0.8990 0.8990 0.8990
4.041000 0.8990 0.8990 0.8990 0.9010 0.9020
4.074254 0.9040 0.9060 0.9060 0.9070 0.9090
4.107000 0.9090 0.9090 0.9090 0.9090 0.9090
4.140254 0.9090 0.9090 0.9090 0.9090 0.9090
4.174000 0.9090 0.9090 0.9110 0.9120 0.9120
4.207254 0.9140 0.9160 0.9160 0.9190 0.9220
4.240000 0.9290 0.9300 0.9320 0.9340 0.9400
4.273254 0.9440 0.9500 0.9520 0.9520 0.9520
4.307000 0.9520 0.9520 0.9500 0.9500 0.9440
4.340254 0.9400 0.9340 0.9320 0.9320 0.9300
4.373000 0.9290 0.9270 0.9270 0.9250 0.9220
4.406254 0.9210 0.9210 0.9210 0.9210 0.9190
4.440000 0.9170 0.9160 0.9140 0.9140 0.9140
4.473254 0.9140 0.9140 0.9140 0.9140 0.9140
4.506000 0.9140 0.9140 0.9120 0.9120 0.9120
4.539254 0.9110 0.9090 0.9070 0.9070 0.9070
4.573000 0.9070 0.9070 0.9090 0.9110 0.9120
4.606254 0.9140 0.9160 0.9160 0.9140 0.9120
4.639000 0.9120 0.9140 0.9170 0.9210 0.9220
4.672254 0.9290 0.9290 0.9300 0.9300 0.9300
4.706000 0.9300 0.9300 0.9300 0.9320 0.9350
4.739254 0.9400 0.9470 0.9500 0.9500 0.9500
4.772000 0.9500 0.9500 0.9520 0.9520 0.9520
4.805254 0.9520 0.9520 0.9520 0.9520 0.9500
4.839000 0.9500 0.9490 0.9490 0.9470 0.9440
4.872254 0.9420 0.9420 0.9400 0.9400 0.9400
4.905000 0.9390 0.9390 0.9370 0.9350 0.9350
4.938254 0.9370 0.9390 0.9390 0.9400 0.9400
4.972000 0.9420 0.9440 0.9440 0.9440 0.9440
5.005254 0.9440 0.9440 0.9420 0.9420 0.9420
5.038000 0.9440 0.9440 0.9440 0.9440 0.9440
5.071254 0.9440 0.9440 0.9440 0.9450 0.9450
5.104000 0.9470 0.9490 0.9490 0.9500 0.9500
5.137254 0.9500 0.9520 0.9550 0.9550 0.9570
5.171000 0.9570 0.9550 0.9530 0.9500 0.9420
5.204254 0.9400 0.9400 0.9420 0.9420 0.9440
5.237000 0.9470 0.9500 0.9500 0.9500 0.9500
5.270254 0.9500 0.9520 0.9520 0.9500 0.9500
5.304000 0.9500 0.9500 0.9520 0.9530 0.9530
5.337254 0.9530 0.9530 0.9530 0.9530 0.9570
5.370000 0.9570 0.9570 0.9600 0.9600 0.9600
5.403254 0.9600 0.9600 0.9600 0.9600 0.9600
5.437000 0.9600 0.9600 0.9600 0.9600 0.9600
5.470254 0.9600 0.9600 0.9600 0.9600 0.9600
5.503000 0.9600 0.9600 0.9600 0.9600 0.9600
5.536254 0.9600 0.9600 0.9600 0.9600 0.9600
5.570000 0.9600 0.9600 0.9600 0.9600 0.9600
5.603254 0.9600 0.9600 0.9600 0.9600 0.9600
5.636000 0.9600 0.9600 0.9600 0.9600 0.9600
5.669254 0.9580 0.9580 0.9580 0.9570 0.9570
5.703000 0.9570 0.9570 0.9530 0.9520 0.9520
5.736254 0.9500 0.9500 0.9500 0.9500 0.9500
5.769000 0.9500 0.9500 0.9500 0.9490 0.9490
5.802254 0.9470 0.9470 0.9450 0.9450 0.9450
5.836000 0.9450 0.9470 0.9470 0.9490 0.9500
5.869254 0.9500 0.9500 0.9500 0.9500 0.9500
5.902000 0.9490 0.9470 0.9450 0.9440 0.9420
5.935254 0.9400 0.9350 0.9340 0.9340 0.9320
5.969000 0.9270 0.9190 0.9120 0.9060 0.8960
6.002254 0.8810 0.8560 0.8430 0.8190 0.8120
6.035000 0.8040 0.8020 0.8040 0.8070 0.8120
6.068254 0.8170 0.8240 0.8280 0.8370 0.8500
6.102000 0.8630 0.8660 0.8710 0.8730 0.8750
6.135254 0.8750 0.8760 0.8760 0.8780 0.8780
6.168000 0.8790 0.8790 0.8810 0.8830 0.8860
6.201254 0.8880 0.8890 0.8910 0.8910 0.8890
6.235000 0.8860 0.8840 0.8830 0.8840 0.8880
6.268254 0.8940 0.9010 0.9110 0.9210 0.9220
6.301000 0.9240 0.9240 0.9240 0.9240 0.9240
6.334254 0.9270 0.9290 0.9300 0.9300 0.9300
6.368000 0.9300 0.9300 0.9300 0.9300 0.9320
6.401254 0.9320 0.9340 0.9340 0.9350 0.9350
6.434000 0.9340 0.9340 0.9320 0.9320 0.9320
6.467254 0.9320 0.9320 0.9300 0.9320 0.9320
6.500000 0.9300 0.9300 0.9300 0.9300 0.9300
6.533254 0.9300 0.9300 0.9320 0.9320 0.9340
6.567000 0.9340 0.9340 0.9340 0.9340 0.9340
6.600254 0.9320 0.9270 0.9210 0.9160 0.9120
6.633000 0.9110 0.9060 0.8680 0.8380 0.8170
6.666254 0.7970 0.7790 0.7580 0.7480 0.7220
6.700000 0.6870 0.6480 0.6340 0.6330 0.6330
6.733254 0.6310 0.6230 0.6130 0.5980 0.5670
6.766000 0.5470 0.5390 0.5340 0.5320 0.5320
6.799254 0.5310 0.5040 0.5040 0.5180 0.5230
6.833000 0.5360 0.5640 0.6050 0.6430 0.6570
6.866254 0.6660 0.6710 0.6740 0.6870 0.7000
6.899000 0.7170 0.7260 0.7410 0.7480 0.7510
6.932254 0.7530 0.7540 0.7560 0.7580 0.7610
6.966000 0.7640 0.7680 0.7740 0.7810 0.7890
6.999254 0.7970 0.8070 0.8170 0.8280 0.8330
7.032000 0.8350 0.8350 0.8350 0.8330 0.8330
7.065254 0.8320 0.8240 0.8220 0.8220 0.8240
7.099000 0.8250 0.8270 0.8300 0.8300 0.8320
7.132254 0.8330 0.8370 0.8420 0.8430 0.8450
7.165000 0.8470 0.8480 0.8480 0.8500 0.8500
7.198254 0.8500 0.8510 0.8510 0.8510 0.8510
7.232000 0.8500 0.8480 0.8450 0.8400 0.8330
7.265254 0.8320 0.8320 0.8330 0.8420 0.8480
7.298000 0.8580 0.8680 0.8710 0.8730 0.8730
7.331254 0.8730 0.8730 0.8710 0.8680 0.8500
7.365000 0.8380 0.8280 0.8250 0.8220 0.8220
7.398254 0.8200 0.8200 0.8200 0.8200 0.8200
7.431000 0.8200 0.8220 0.8240 0.8250 0.8320
7.464254 0.8380 0.8470 0.8530 0.8610 0.8700
7.498000 0.8780 0.8880 0.8980 0.9010 0.9040
7.531254 0.9070 0.9090 0.9090 0.9070 0.9040
7.564000 0.8990 0.8940 0.8890 0.8840 0.8790
7.597254 0.8750 0.8700 0.8600 0.8560 0.8550
7.631000 0.8530 0.8530 0.8530 0.8530 0.8550
7.664254 0.8550 0.8560 0.8600 0.8610 0.8650
7.697000 0.8710 0.8730 0.8760 0.8810 0.8830
7.730254 0.8860 0.8880 0.8890 0.8910 0.8910
7.764000 0.8930 0.8940 0.8940 0.8940 0.8940
7.797254 0.8940 0.8930 0.8930 0.8910 0.8890
7.830000 0.8890 0.8910 0.8910 0.8910 0.8910
7.863254 0.8910 0.8910 0.8890 0.8890 0.8860
7.896000 0.8830 0.8810 0.8780 0.8760 0.8750
7.929254 0.8750 0.8750 0.8750 0.8750 0.8750
7.963000 0.8750 0.8730 0.8680 0.8560 0.8470
7.996254 0.8380 0.8300 0.8270 0.8200 0.8150
8.029000 0.8050 0.7940 0.7810 0.7660 0.7510
8.062254 0.7330 0.7170 0.6990 0.6820 0.6640
8.096000 0.6440 0.6050 0.5640 0.5210 0.4290
8.129254 0.3780 0.3320 0.2870 0.2410 0.2120
8.162000 0.2000 0.1840 0.1820 0.1840 0.1940
8.195254 0.2080 0.2330 0.2630 0.3020 0.3470
8.229000 0.3600 0.3730 0.3880 0.3990 0.4090
8.262254 0.4240 0.4340 0.4440 0.4520 0.4650
8.295000 0.4780 0.4880 0.4950 0.5000 0.5040
8.328254 0.5080 0.5110 0.5130 0.5140 0.5160
8.362000 0.5180 0.5190 0.5190 0.5190 0.5110
8.395254 0.5060 0.4750 0.4630 0.4500 0.4400
8.428000 0.4270 0.4070 0.3910 0.3780 0.3580
8.461254 0.3420 0.3270 0.3040 0.3020 0.2890
8.495000 0.2740 0.2630 0.2480 0.2350 0.2310
8.528254 0.2230 0.2150 0.2120 0.2100 0.2100
8.561000 0.2120 0.2130 0.2180 0.2250 0.2480
8.594254 0.2730 0.2910 0.3070 0.3250 0.3450
8.628000 0.3650 0.3860 0.4070 0.4300 0.4520
8.661254 0.4730 0.4900 0.5040 0.5290 0.5440
8.694000 0.5590 0.5770 0.5970 0.6060 0.6200
8.727254 0.6280 0.6340 0.6480 0.6520 0.6620
8.761000 0.6660 0.6710 0.6720 0.6720 0.6670
8.794254 0.6620 0.6540 0.6460 0.6290 0.6230
8.827000 0.6080 0.5980 0.5740 0.5320 0.3980
8.860254 0.3380 0.3330 0.2660 0.2510 0.2510
8.894000 0.2690 0.3170 0.3630 0.4020 0.4530
8.927254 0.4910 0.5270 0.5920 0.6380 0.6620
8.960000 0.6790 0.6900 0.6920 0.6920 0.6890
8.993254 0.6850 0.6800 0.6790 0.6770 0.6770
9.027000 0.6790 0.6820 0.6870 0.6890 0.6970
9.060254 0.7070 0.7120 0.7130 0.7130 0.7120
9.093000 0.7070 0.7000 0.6800 0.6640 0.6520
9.126254 0.6440 0.6410 0.6390 0.6410 0.6430
9.160000 0.6490 0.6560 0.6620 0.6690 0.6750
9.193254 0.6900 0.7030 0.7120 0.7250 0.7330
9.226000 0.7410 0.7500 0.7590 0.7710 0.7740
9.259254 0.7810 0.7920 0.7990 0.8040 0.8050
9.292000 0.8100 0.8150 0.8220 0.8250 0.8280
9.325254 0.8300 0.8300 0.8320 0.8320 0.8320
9.359000 0.8320 0.8320 0.8320 0.8320 0.8320
9.392254 0.8320 0.8300 0.8300 0.8300 0.8300
9.425000 0.8300 0.8300 0.8300 0.8300 0.8300
9.458254 0.8300 0.8300 0.8300 0.8300 0.8320
9.492000 0.8330 0.8370 0.8430 0.8510 0.8550
9.525254 0.8610 0.8630 0.8630 0.8650 0.8630
9.558000 0.8580 0.8530 0.8400 0.8280 0.8170
9.591254 0.7860 0.7460 0.6850 0.6010 0.5180
9.625000 0.4490 0.2410 0.2410 0.2970 0.3530
9.658254 0.4090 0.4600 0.5010 0.5410 0.7530
9.691000 0.7890 0.8070 0.8270 0.8430 0.8530
9.724254 0.8630 0.8730 0.8810 0.8880 0.8930
9.758000 0.8940 0.8960 0.8980 0.8980 0.8990
9.791254 0.8990 0.8980 0.8960 0.8840 0.8250
9.824000 0.7590 0.7030 0.6150 0.5440 0.3020
9.857254 0.2610 0.2610 0.3280 0.3990 0.4300
9.891000 0.4700 0.5090 0.7480 0.7940 0.8200
9.924254 0.8400 0.8550 0.8730 0.8880 0.8980
9.957000 0.9040 0.9070 0.9190 0.9210 0.9250
9.990254 0.9290 0.9350 0.9490 0.9570 0.9650
10.024000 0.9650 0.9680 0.9680 0.9680 0.9680
10.057254 0.9680 0.9680 0.9680 0.9670 0.9650
10.090000 0.9630 0.9630 0.9630 0.9630 0.9630
10.123254 0.9630 0.9630 0.9630 0.9630 0.9650
10.157000 0.9650 0.9650 0.9650 0.9630 0.9580
10.190254 0.9570 0.9500 0.9420 0.9320 0.9240
10.223000 0.9140 0.9060 0.8880 0.8550 0.8330
10.256254 0.8090 0.7990 0.7920 0.7860 0.7840
10.290000 0.7860 0.7890 0.7970 0.8100 0.8280
10.323254 0.8430 0.8500 0.8580 0.8700 0.8790
10.356000 0.8880 0.8940 0.9020 0.9040 0.9110
10.389254 0.9160 0.9160 0.9170 0.9170 0.9160
10.423000 0.9140 0.9120 0.9110 0.9070 0.9040
10.456254 0.9020 0.8940 0.8880 0.8680 0.8450
10.489000 0.8240 0.8040 0.7820 0.7630 0.7450
10.522254 0.7230 0.7030 0.6800 0.6720 0.6660
10.556000 0.6640 0.6640 0.6660 0.6870 0.7080
10.589254 0.7330 0.7540 0.7760 0.7940 0.8120
10.622000 0.8240 0.8300 0.8420 0.8500 0.8600
10.655254 0.8700 0.8750 0.8790 0.8860 0.8880
10.689000 0.8890 0.8940 0.8980 0.8980 0.8890
10.722254 0.8840 0.8750 0.8560 0.8380 0.8270
10.755000 0.8040 0.7820 0.7540 0.7330 0.7120
10.788254 0.7030 0.6870 0.6720 0.6710 0.6720
10.821000 0.6840 0.6990 0.7230 0.7500 0.7770
10.854254 0.7990 0.8200 0.8380 0.8580 0.8750
10.888000 0.8910 0.9040 0.9140 0.9220 0.9350
10.921254 0.9420 0.9490 0.9550 0.9630 0.9650
10.954000 0.9650 0.9720 0.9760 0.9760 0.9780
10.987254 0.9800 0.9800 0.9810 0.9850 0.9860
11.021000 0.9880 0.9880 0.9900 0.9900 0.9910
11.054254 0.9910 0.9910 0.9910 0.9910 0.9910
11.087000 0.9930 0.9930 0.9930 0.9930 0.9950
11.120254 0.9960 0.9980 1.0000 1.0000 1.0000
11.154000 1.0030 1.0030 1.0030 1.0030 1.0030
11.187254 1.0030 1.0030 1.0040 1.0040 1.0040
11.220000 1.0040 1.0040 1.0040 1.0030 1.0030
11.253254 1.0030 1.0010 1.0010 1.0010 1.0000
11.287000 1.0000 0.9960 0.9910 0.9880 0.9860
11.320254 0.9810 0.9730 0.9700 0.9650 0.9630
11.353000 0.9650 0.9670 0.9700 0.9720 0.9750
11.386254 0.9780 0.9800 0.9810 0.9850 0.9860
11.420000 0.9910 0.9930 0.9930 0.9930 0.9910
11.453254 0.9910 0.9910 0.9930 0.9960 0.9980
11.486000 0.9980 1.0000 1.0010 1.0010 1.0010
11.519254 1.0030 1.0030 1.0030 1.0010 1.0010
11.553000 1.0010 1.0010 1.0010 1.0010 1.0010
11.586254 1.0010 1.0030 1.0040 1.0030 1.0030
11.619000 1.0040 1.0040 1.0040 1.0040 1.0040
11.652254 1.0030 1.0030 1.0030 1.0030 1.0010
11.686000 0.9910 0.9900 0.9850 0.9830 0.9830
11.719254 0.9830 0.9830 0.9810 0.9810 0.9810
11.752000 0.9800 0.9800 0.9760 0.9750 0.9730
11.785254 0.9730 0.9730 0.9730 0.9730 0.9730
11.819000 0.9730 0.9730 0.9730 0.9730 0.9730
11.852254 0.9730 0.9730 0.9730 0.9730 0.9730
11.885000 0.9730 0.9730 0.9730 0.9730 0.9730
11.918254 0.9720 0.9720 0.9700 0.9680 0.9650
11.952000 0.9630 0.9630 0.9630 0.9630 0.9630
11.985254 0.9620 0.9600 0.9580 0.9550 0.9550
12.018000 0.9530 0.9530 0.9520 0.9520 0.9500
12.051254 0.9470 0.9470 0.9450 0.9450 0.9420
12.085000 0.9420 0.9400 0.9350 0.9300 0.9210
12.118254 0.9120 0.9070 0.8980 0.8830 0.8610
12.151000 0.8420 0.8100 0.7810 0.7560 0.7330
12.184254 0.7120 0.6850 0.6510 0.6080 0.5500
12.217000 0.4470 0.4340 0.4320 0.4340 0.4490
12.250254 0.4830 0.5090 0.5340 0.6390 0.7230
12.284000 0.7500 0.7740 0.7970 0.8190 0.8380
12.317254 0.8550 0.8660 0.8710 0.8750 0.8810
12.350000 0.8830 0.8860 0.8890 0.8930 0.8940
12.383254 0.8960 0.8990 0.8990 0.8980 0.8980
12.417000 0.8960 0.8940 0.8890 0.8890 0.8880
12.450254 0.8860 0.8860 0.8860 0.8840 0.8840
12.483000 0.8840 0.8840 0.8840 0.8840 0.8860
12.516254 0.8880 0.8910 0.8940 0.8990 0.9040
12.550000 0.9110 0.9140 0.9160 0.9190 0.9190
12.583254 0.9190 0.9190 0.9190 0.9210 0.9220
12.616000 0.9240 0.9240 0.9240 0.9240 0.9240
12.649254 0.9240 0.9250 0.9270 0.9270 0.9270
12.683000 0.9270 0.9270 0.9270 0.9270 0.9270
12.716254 0.9250 0.9250 0.9270 0.9270 0.9270
12.749000 0.9250 0.9240 0.9240 0.9220 0.9220
12.782254 0.9210 0.9170 0.9120 0.9070 0.9040
12.816000 0.9010 0.8990 0.8980 0.8960 0.8960
12.849254 0.8960 0.8960 0.8980 0.8990 0.8990
12.882000 0.8990 0.8990 0.9010 0.9010 0.9010
12.915254 0.9010 0.9020 0.9020 0.9020 0.9020
12.949000 0.9020 0.9020 0.9020 0.9020 0.9020
12.982254 0.9020 0.9020 0.9020 0.9040 0.9060
13.015000 0.9060 0.9070 0.9070 0.9070 0.9070
13.048254 0.9090 0.9090 0.9090 0.9090 0.9090
13.082000 0.9090 0.9090 0.9110 0.9110 0.9110
13.115254 0.9110 0.9120 0.9120 0.9140 0.9140
13.148000 0.9140 0.9140 0.9140 0.9140 0.9140
13.181254 0.9120 0.9120 0.9120 0.9120 0.9120
13.215000 0.9110 0.9110 0.9110 0.9110 0.9110
13.248254 0.9110 0.9110 0.9110 0.9110 0.9110
13.281000 0.9110 0.9110 0.9110 0.9110 0.9110
13.314254 0.9070 0.9060 0.9060 0.9040 0.9040
13.348000 0.9060 0.9070 0.9090 0.9110 0.9110
13.381254 0.9120 0.9140 0.9140 0.9140 0.9120
13.414000 0.9090 0.9070 0.9040 0.9040 0.9020
13.447254 0.9020 0.9020 0.9020 0.9040 0.9060
13.481000 0.9090 0.9110 0.9110 0.9090 0.9070
13.514254 0.9040 0.9020 0.9010 0.8980 0.8910
13.547000 0.8880 0.8860 0.8860 0.8860 0.8860
13.580254 0.8840 0.8830 0.8790 0.8760 0.8750
13.613000 0.8730 0.8710 0.8680 0.8680 0.8610
13.646254 0.8550 0.8510 0.8480 0.8430 0.8400
13.680000 0.8400 0.8380 0.8370 0.8330 0.8300
13.713254 0.8220 0.8140 0.8120 0.8070 0.8050
13.746000 0.8040 0.8040 0.8020 0.7990 0.7910
13.779254 0.7840 0.7790 0.7730 0.7660 0.7610
13.813000 0.7560 0.7540 0.7560 0.7590 0.7660
13.846254 0.7710 0.7740 0.7820 0.7870 0.7910
13.879000 0.7920 0.7940 0.7940 0.7940 0.7960
13.912254 0.7970 0.7990 0.8000 0.8020 0.8020
13.946000 0.7990 0.7960 0.7910 0.7870 0.7840
13.979254 0.7770 0.7680 0.7630 0.7610 0.7580
14.012000 0.7530 0.7510 0.7510 0.7510 0.7530
14.045254 0.7560 0.7640 0.7710 0.7790 0.7860
14.079000 0.7920 0.7940 0.7970 0.7990 0.8000
14.112254 0.8020 0.8020 0.8020 0.8020 0.8000
14.145000 0.8000 0.7990 0.7970 0.7960 0.7940
14.178254 0.7920 0.7890 0.7870 0.7840 0.7820
14.212000 0.7760 0.7730 0.7690 0.7630 0.7580
14.245254 0.7510 0.7450 0.7380 0.7330 0.7310
14.278000 0.7250 0.7180 0.7080 0.6990 0.6940
14.311254 0.6850 0.6790 0.6720 0.6640 0.6540
14.345000 0.6380 0.6280 0.6180 0.6080 0.6030
14.378254 0.5970 0.5870 0.5670 0.5460 0.5240
14.411000 0.5080 0.4930 0.4850 0.4730 0.4580
14.444254 0.4440 0.4270 0.4170 0.4020 0.3930
14.478000 0.3890 0.3860 0.3840 0.3790 0.3780
14.511254 0.3750 0.3710 0.3680 0.3660 0.3660
14.544000 0.3660 0.3680 0.3680 0.3730 0.3780
14.577254 0.3840 0.3940 0.4040 0.4140 0.4270
14.611000 0.4400 0.4530 0.4680 0.4830 0.4980
14.644254 0.5060 0.5130 0.5240 0.5340 0.5460
14.677000 0.5570 0.5700 0.5830 0.5970 0.6080
14.710254 0.6210 0.6340 0.6480 0.6590 0.6690
14.744000 0.6740 0.6800 0.6840 0.6890 0.6940
14.777254 0.6970 0.7000 0.7020 0.7050 0.7120
14.810000 0.7130 0.7150 0.7170 0.7180 0.7180
14.843254 0.7200 0.7200 0.7220 0.7220 0.7230
14.877000 0.7280 0.7330 0.7350 0.7330 0.7310
14.910254 0.7300 0.7220 0.7170 0.7020 0.6900
14.943000 0.6870 0.6770 0.6750 0.6750 0.6800
14.976254 0.6940 0.6990 0.7070 0.7250 0.7330
15.009000 0.7380 0.7400 0.7360 0.7330 0.7280
15.042254 0.7180 0.7120 0.7050 0.7020 0.6970
15.076000 0.6890 0.6840 0.6800 0.6740 0.6690
15.109254 0.6640 0.6620 0.6620 0.6610 0.6610
15.142000 0.6610 0.6610 0.6590 0.6570 0.6520
15.175254 0.6510 0.6510 0.6490 0.6480 0.6440
15.209000 0.6360 0.6340 0.6330 0.6330 0.6330
15.242254 0.6330 0.6330 0.6330 0.6310 0.6310
15.275000 0.6280 0.6260 0.6250 0.6210 0.6200
15.308254 0.6160 0.6130 0.6110 0.6100 0.6100
15.342000 0.6060 0.6050 0.6030 0.6000 0.5970
15.375254 0.5930 0.5900 0.5870 0.5850 0.5850
15.408000 0.5830 0.5820 0.5820 0.5820 0.5800
15.441254 0.5800 0.5800 0.5770 0.5740 0.5700
15.475000 0.5640 0.5620 0.5620 0.5620 0.5600
15.508254 0.5600 0.5570 0.5540 0.5520 0.5440
15.541000 0.5410 0.5390 0.5390 0.5390 0.5370
15.574254 0.5370 0.5370 0.5370 0.5370 0.5370
15.608000 0.5370 0.5370 0.5370 0.5370 0.5360
15.641254 0.5360 0.5340 0.5320 0.5310 0.5310
15.674000 0.5310 0.5310 0.5310 0.5310 0.5310
15.707254 0.5310 0.5270 0.5260 0.5260 0.5260
15.741000 0.5260 0.5260 0.5240 0.5230 0.5210
15.774254 0.5180 0.5140 0.5130 0.5110 0.5080
15.807000 0.5060 0.5030 0.5030 0.5030 0.5030
15.840254 0.5010 0.5010 0.5010 0.5010 0.5000
15.874000 0.4980 0.4960 0.4950 0.4950 0.4950
15.907254 0.4950 0.4950 0.4950 0.4930 0.4930
15.940000 0.4930 0.4930 0.4930 0.4930 0.4930
15.973254 0.4910 0.4910 0.4910 0.4910 0.4910
##END=
