##TITLE=2-CHLOROETHYL P-TOLUENE SULFONATE
$$ E. K. CO. (WHITE LABEL)
##JCAMP-DX=4.24
##DATA TYPE=INFRARED SPECTRUM
##CLASS=COBLENTZ
##ORIGIN=WYANDOTTE CHEMICALS CORP., WYANDOTTE, MICHIGAN, USA
##OWNER=COBLENTZ SOCIETY
Collection (C) 2018 copyright by the U.S. Secretary of Commerce
on behalf of the United States of America. All rights reserved.
##DATE=Not specified, most likely prior to 1970
##MOLFORM=C9 H11 Cl O3 S
##MP=20-22 C
##SOURCE REFERENCE=COBLENTZ NO. 2853
##$NIST ID=B6002853
##$NIST SOURCE=COBLENTZ
##$NIST IMAGE=cob2853
##SPECTROMETER/DATA SYSTEM=Not specified, most likely a prism, grating, or hybrid spectrometer.
##STATE=LIQUID
##PATH LENGTH=0.003 CM
##SAMPLING PROCEDURE=TRANSMISSION
##RESOLUTION=4
##DATA PROCESSING=DIGITIZED BY NIST FROM HARD COPY
##XUNITS=MICROMETERS
##YUNITS=TRANSMITTANCE
##XFACTOR=1.000000
##YFACTOR=1
##DELTAX=000.006641
##FIRSTX=2.046
##LASTX=15.9996
##FIRSTY=0.955
##MAXX=15.9996
##MINX=2.046
##MAXY=0.98
##MINY=0.038
##NPOINTS=2102
##XYDATA=(X++(Y..Y))
2.046000 0.9550 0.9560 0.9600 0.9610 0.9610
2.079223 0.9560 0.9550 0.9510 0.9500 0.9450
2.113000 0.9410 0.9260 0.9250 0.9250 0.9250
2.146223 0.9260 0.9260 0.9300 0.9310 0.9330
2.179000 0.9330 0.9330 0.9350 0.9360 0.9380
2.212223 0.9400 0.9400 0.9400 0.9410 0.9410
2.246000 0.9410 0.9410 0.9410 0.9410 0.9430
2.279223 0.9430 0.9430 0.9430 0.9410 0.9400
2.312000 0.9380 0.9350 0.9310 0.9300 0.9300
2.345223 0.9300 0.9300 0.9330 0.9380 0.9380
2.379000 0.9400 0.9410 0.9410 0.9430 0.9430
2.412223 0.9430 0.9430 0.9430 0.9410 0.9400
2.445000 0.9400 0.9380 0.9380 0.9400 0.9410
2.478223 0.9430 0.9450 0.9460 0.9480 0.9500
2.511000 0.9500 0.9500 0.9510 0.9530 0.9530
2.544223 0.9580 0.9580 0.9600 0.9610 0.9650
2.578000 0.9660 0.9660 0.9660 0.9630 0.9600
2.611223 0.9580 0.9580 0.9550 0.9510 0.9510
2.644000 0.9480 0.9430 0.9360 0.9350 0.9350
2.677223 0.9360 0.9410 0.9450 0.9450 0.9460
2.711000 0.9460 0.9460 0.9460 0.9460 0.9450
2.744223 0.9450 0.9410 0.9380 0.9380 0.9400
2.777000 0.9410 0.9410 0.9410 0.9430 0.9430
2.810223 0.9430 0.9430 0.9430 0.9430 0.9430
2.843000 0.9430 0.9410 0.9410 0.9400 0.9400
2.876223 0.9380 0.9380 0.9400 0.9400 0.9400
2.910000 0.9410 0.9410 0.9400 0.9380 0.9360
2.943223 0.9360 0.9350 0.9350 0.9330 0.9330
2.976000 0.9330 0.9310 0.9310 0.9300 0.9300
3.009223 0.9300 0.9300 0.9280 0.9280 0.9280
3.043000 0.9280 0.9260 0.9260 0.9250 0.9230
3.076223 0.9210 0.9200 0.9160 0.9150 0.9100
3.109000 0.9050 0.9030 0.9010 0.8980 0.8980
3.142223 0.8970 0.8950 0.8930 0.8870 0.8770
3.176000 0.8700 0.8580 0.8450 0.8280 0.8100
3.209223 0.7920 0.7750 0.7570 0.7400 0.7350
3.242000 0.7340 0.7350 0.7500 0.7600 0.7640
3.275223 0.7640 0.7600 0.7270 0.6790 0.6310
3.308000 0.6240 0.6140 0.6120 0.6140 0.6170
3.341223 0.6610 0.6870 0.7040 0.7150 0.7240
3.375000 0.7350 0.7540 0.7690 0.7970 0.8000
3.408223 0.8000 0.7990 0.7990 0.7990 0.8000
3.441000 0.8050 0.8150 0.8270 0.8400 0.8550
3.474223 0.8680 0.8750 0.8820 0.8870 0.8970
3.508000 0.9080 0.9180 0.9210 0.9210 0.9230
3.541223 0.9230 0.9250 0.9250 0.9260 0.9260
3.574000 0.9300 0.9310 0.9330 0.9350 0.9350
3.607223 0.9300 0.9300 0.9280 0.9280 0.9280
3.640000 0.9310 0.9330 0.9360 0.9380 0.9380
3.673223 0.9380 0.9360 0.9360 0.9360 0.9360
3.707000 0.9380 0.9430 0.9500 0.9500 0.9510
3.740223 0.9530 0.9550 0.9580 0.9600 0.9600
3.773000 0.9600 0.9560 0.9510 0.9460 0.9410
3.806223 0.9360 0.9310 0.9280 0.9230 0.9210
3.840000 0.9210 0.9230 0.9280 0.9300 0.9350
3.873223 0.9380 0.9410 0.9430 0.9430 0.9410
3.906000 0.9410 0.9380 0.9360 0.9360 0.9330
3.939223 0.9330 0.9310 0.9310 0.9310 0.9310
3.972000 0.9310 0.9350 0.9360 0.9430 0.9450
4.005223 0.9460 0.9460 0.9480 0.9500 0.9500
4.039000 0.9500 0.9500 0.9500 0.9500 0.9480
4.072223 0.9480 0.9480 0.9460 0.9460 0.9450
4.105000 0.9430 0.9430 0.9410 0.9410 0.9410
4.138223 0.9410 0.9400 0.9380 0.9360 0.9360
4.172000 0.9360 0.9360 0.9380 0.9410 0.9430
4.205223 0.9450 0.9460 0.9460 0.9480 0.9500
4.238000 0.9510 0.9550 0.9580 0.9600 0.9600
4.271223 0.9600 0.9600 0.9580 0.9580 0.9560
4.305000 0.9560 0.9560 0.9550 0.9550 0.9550
4.338223 0.9530 0.9500 0.9480 0.9450 0.9430
4.371000 0.9400 0.9380 0.9380 0.9380 0.9360
4.404223 0.9360 0.9360 0.9360 0.9360 0.9360
4.437000 0.9380 0.9430 0.9460 0.9480 0.9510
4.470223 0.9560 0.9600 0.9650 0.9660 0.9680
4.504000 0.9700 0.9710 0.9710 0.9730 0.9750
4.537223 0.9750 0.9750 0.9730 0.9730 0.9730
4.570000 0.9710 0.9710 0.9610 0.9610 0.9600
4.603223 0.9600 0.9600 0.9600 0.9610 0.9700
4.637000 0.9700 0.9710 0.9730 0.9730 0.9730
4.670223 0.9730 0.9750 0.9750 0.9760 0.9760
4.703000 0.9760 0.9760 0.9760 0.9760 0.9760
4.736223 0.9750 0.9730 0.9710 0.9710 0.9710
4.769000 0.9730 0.9760 0.9760 0.9780 0.9780
4.802223 0.9780 0.9780 0.9760 0.9760 0.9750
4.836000 0.9750 0.9750 0.9750 0.9760 0.9760
4.869223 0.9780 0.9800 0.9800 0.9760 0.9760
4.902000 0.9750 0.9750 0.9750 0.9750 0.9730
4.935223 0.9730 0.9730 0.9730 0.9750 0.9750
4.969000 0.9750 0.9750 0.9750 0.9730 0.9700
5.002223 0.9650 0.9610 0.9600 0.9580 0.9560
5.035000 0.9530 0.9510 0.9510 0.9480 0.9480
5.068223 0.9460 0.9460 0.9450 0.9450 0.9450
5.102000 0.9430 0.9430 0.9410 0.9380 0.9360
5.135223 0.9360 0.9360 0.9330 0.9310 0.9280
5.168000 0.9230 0.9180 0.9100 0.9000 0.8880
5.201223 0.8820 0.8780 0.8720 0.8700 0.8700
5.234000 0.8730 0.8880 0.8970 0.9100 0.9200
5.267223 0.9250 0.9300 0.9330 0.9330 0.9350
5.301000 0.9360 0.9380 0.9380 0.9400 0.9410
5.334223 0.9410 0.9410 0.9430 0.9430 0.9430
5.367000 0.9430 0.9430 0.9430 0.9430 0.9430
5.400223 0.9430 0.9410 0.9410 0.9410 0.9400
5.434000 0.9400 0.9400 0.9360 0.9350 0.9330
5.467223 0.9310 0.9300 0.9280 0.9230 0.9180
5.500000 0.9130 0.9060 0.9010 0.9000 0.9000
5.533223 0.9000 0.9010 0.9010 0.9030 0.9080
5.566000 0.9100 0.9130 0.9130 0.9180 0.9200
5.599223 0.9230 0.9230 0.9180 0.9130 0.9080
5.633000 0.9050 0.9010 0.9000 0.8970 0.8950
5.666223 0.8930 0.8930 0.8950 0.8980 0.9010
5.699000 0.9030 0.9030 0.9080 0.9080 0.9080
5.732223 0.9100 0.9100 0.9110 0.9110 0.9130
5.766000 0.9130 0.9150 0.9160 0.9160 0.9150
5.799223 0.9130 0.9130 0.9100 0.9100 0.9100
5.832000 0.9100 0.9100 0.9100 0.9080 0.9060
5.865223 0.9030 0.9010 0.9010 0.9010 0.9010
5.898000 0.9000 0.8970 0.8870 0.8770 0.8730
5.931223 0.8700 0.8650 0.8570 0.8450 0.8370
5.965000 0.8300 0.8250 0.8200 0.8150 0.8120
5.998223 0.8070 0.8050 0.8030 0.8030 0.8070
6.031000 0.8150 0.8230 0.8320 0.8350 0.8350
6.064223 0.8300 0.8220 0.8150 0.8100 0.8020
6.098000 0.7940 0.7850 0.7770 0.7690 0.7590
6.131223 0.7500 0.7400 0.7190 0.6960 0.6390
6.164000 0.5660 0.4660 0.3570 0.2400 0.2300
6.197223 0.2290 0.2300 0.4410 0.5210 0.6070
6.231000 0.6710 0.7100 0.7370 0.7550 0.7720
6.264223 0.7870 0.7920 0.7970 0.7990 0.8030
6.297000 0.8120 0.8120 0.8130 0.8180 0.8250
6.330223 0.8270 0.8270 0.8250 0.8200 0.8150
6.363000 0.8130 0.8120 0.8120 0.8180 0.8250
6.396223 0.8300 0.8350 0.8400 0.8450 0.8450
6.430000 0.8420 0.8370 0.8320 0.8320 0.8320
6.463223 0.8320 0.8320 0.8350 0.8370 0.8380
6.496000 0.8400 0.8400 0.8350 0.8320 0.8270
6.529223 0.8230 0.8230 0.8220 0.8220 0.8200
6.563000 0.8180 0.8150 0.8050 0.7900 0.7720
6.596223 0.7450 0.7140 0.6740 0.6240 0.5230
6.629000 0.5210 0.5230 0.5610 0.5910 0.6320
6.662223 0.6770 0.7390 0.7440 0.7440 0.7400
6.695000 0.7290 0.7240 0.7200 0.7190 0.7100
6.728223 0.6860 0.6610 0.6360 0.6110 0.5940
6.762000 0.5730 0.5510 0.5240 0.4980 0.4700
6.795223 0.4410 0.4130 0.3850 0.3470 0.3330
6.828000 0.3320 0.3330 0.3600 0.3820 0.4030
6.861223 0.4210 0.4360 0.4480 0.4610 0.4700
6.895000 0.4700 0.4680 0.4510 0.4360 0.4160
6.928223 0.3930 0.3880 0.3870 0.3880 0.4150
6.961000 0.4460 0.4660 0.4810 0.4910 0.5010
6.994223 0.5130 0.5310 0.5630 0.5660 0.5660
7.028000 0.5590 0.5410 0.5230 0.5030 0.4850
7.061223 0.4710 0.4580 0.4380 0.4180 0.4010
7.094000 0.3900 0.3880 0.3880 0.3920 0.3980
7.127223 0.4000 0.4000 0.3650 0.3500 0.3300
7.160000 0.3020 0.2690 0.2090 0.1690 0.1340
7.193223 0.1320 0.1270 0.1240 0.1190 0.1170
7.227000 0.1120 0.0960 0.0730 0.0530 0.0430
7.260223 0.0390 0.0380 0.0380 0.0380 0.0380
7.293000 0.0380 0.0390 0.0390 0.0410 0.0410
7.326223 0.0410 0.0430 0.0430 0.0440 0.0480
7.360000 0.0510 0.0540 0.0580 0.0630 0.0690
7.393223 0.0810 0.0940 0.1110 0.1310 0.1520
7.426000 0.1760 0.2020 0.2440 0.2800 0.3150
7.459223 0.3480 0.3830 0.4200 0.4480 0.4760
7.492000 0.5040 0.5280 0.5460 0.5540 0.5640
7.525223 0.5730 0.5790 0.5830 0.5830 0.5810
7.559000 0.5610 0.5280 0.4810 0.4300 0.3820
7.592223 0.3200 0.2620 0.1890 0.1670 0.1660
7.625000 0.1670 0.1970 0.2270 0.2570 0.2870
7.658223 0.3200 0.3450 0.3620 0.3730 0.3820
7.692000 0.3920 0.4010 0.4150 0.4350 0.4630
7.725223 0.5030 0.5410 0.5790 0.6110 0.6390
7.758000 0.6620 0.6820 0.6970 0.7120 0.7220
7.791223 0.7300 0.7420 0.7470 0.7550 0.7570
7.824000 0.7590 0.7590 0.7590 0.7590 0.7540
7.857223 0.7450 0.7370 0.7350 0.7290 0.7270
7.891000 0.7250 0.7250 0.7250 0.7270 0.7270
7.924223 0.7300 0.7320 0.7340 0.7370 0.7390
7.957000 0.7420 0.7450 0.7500 0.7600 0.7640
7.990223 0.7650 0.7670 0.7700 0.7750 0.7790
8.024000 0.7790 0.7790 0.7790 0.7800 0.7800
8.057223 0.7840 0.7840 0.7840 0.7800 0.7770
8.090000 0.7740 0.7670 0.7620 0.7570 0.7540
8.123223 0.7470 0.7390 0.7270 0.7100 0.6890
8.157000 0.6590 0.6410 0.6190 0.5960 0.5730
8.190223 0.5460 0.5190 0.4910 0.4610 0.4310
8.223000 0.4230 0.4080 0.4060 0.4050 0.4030
8.256223 0.4010 0.3950 0.3800 0.3480 0.3130
8.289000 0.2720 0.2250 0.1820 0.1470 0.1170
8.322223 0.0930 0.0740 0.0590 0.0480 0.0430
8.356000 0.0410 0.0410 0.0410 0.0430 0.0460
8.389223 0.0510 0.0530 0.0530 0.0510 0.0480
8.422000 0.0430 0.0410 0.0410 0.0390 0.0390
8.455223 0.0390 0.0390 0.0410 0.0410 0.0410
8.489000 0.0430 0.0430 0.0440 0.0490 0.0610
8.522223 0.0810 0.1070 0.1510 0.2040 0.2540
8.555000 0.3030 0.3480 0.3900 0.4250 0.4550
8.588223 0.4780 0.4910 0.5180 0.5410 0.5630
8.621000 0.5830 0.5990 0.6170 0.6320 0.6460
8.654223 0.6590 0.6720 0.6820 0.6940 0.7040
8.688000 0.7140 0.7240 0.7340 0.7390 0.7420
8.721223 0.7440 0.7440 0.7450 0.7450 0.7450
8.754000 0.7450 0.7450 0.7470 0.7490 0.7490
8.787223 0.7490 0.7520 0.7520 0.7500 0.7440
8.821000 0.7420 0.7300 0.7140 0.6910 0.6620
8.854223 0.6260 0.5910 0.5640 0.5310 0.5230
8.887000 0.5230 0.5230 0.5310 0.5810 0.6110
8.920223 0.6310 0.6340 0.6340 0.6320 0.6170
8.954000 0.6020 0.5880 0.5690 0.5530 0.5330
8.987223 0.5130 0.4910 0.4680 0.4060 0.3580
9.020000 0.3220 0.2840 0.2420 0.1840 0.1490
9.053223 0.1240 0.1090 0.1070 0.1090 0.1320
9.086000 0.1590 0.1860 0.2150 0.2520 0.2950
9.119223 0.3480 0.4110 0.4450 0.4680 0.4880
9.153000 0.5000 0.5110 0.5140 0.5160 0.5140
9.186223 0.5060 0.5010 0.4850 0.4600 0.4410
9.219000 0.4230 0.4080 0.3880 0.3680 0.3450
9.252223 0.3220 0.3020 0.2820 0.2650 0.2540
9.286000 0.2470 0.2340 0.2320 0.2340 0.2400
9.319223 0.2490 0.2590 0.2690 0.2800 0.2940
9.352000 0.3080 0.3250 0.3400 0.3570 0.3750
9.385223 0.3920 0.4080 0.4230 0.4550 0.4800
9.418000 0.4980 0.5140 0.5280 0.5390 0.5510
9.451223 0.5630 0.5760 0.5840 0.5860 0.5860
9.485000 0.5860 0.5860 0.5860 0.5840 0.5810
9.518223 0.5780 0.5730 0.5690 0.5640 0.5610
9.551000 0.5560 0.5540 0.5530 0.5510 0.5490
9.584223 0.5490 0.5490 0.5540 0.5590 0.5640
9.618000 0.5710 0.5760 0.5810 0.5840 0.5840
9.651223 0.5840 0.5840 0.5840 0.5840 0.5810
9.684000 0.5680 0.5590 0.5490 0.5410 0.5160
9.717223 0.4930 0.4710 0.4410 0.4060 0.3570
9.750000 0.3150 0.2720 0.2190 0.1890 0.1760
9.783223 0.1740 0.1740 0.1770 0.1790 0.1790
9.817000 0.1610 0.1470 0.1320 0.1120 0.0890
9.850223 0.0740 0.0630 0.0580 0.0510 0.0490
9.883000 0.0480 0.0460 0.0460 0.0460 0.0460
9.916223 0.0460 0.0460 0.0460 0.0480 0.0480
9.950000 0.0490 0.0510 0.0510 0.0530 0.0560
9.983223 0.0610 0.0660 0.0710 0.0780 0.0860
10.016000 0.0960 0.1060 0.1160 0.1270 0.1410
10.049223 0.1560 0.1690 0.1790 0.1870 0.1960
10.083000 0.2020 0.2040 0.2050 0.2050 0.2050
10.116223 0.2040 0.2020 0.1970 0.1870 0.1820
10.149000 0.1770 0.1740 0.1720 0.1670 0.1660
10.182223 0.1620 0.1610 0.1570 0.1540 0.1510
10.215000 0.1470 0.1460 0.1440 0.1440 0.1440
10.248223 0.1420 0.1420 0.1410 0.1390 0.1370
10.282000 0.1370 0.1370 0.1370 0.1360 0.1340
10.315223 0.1340 0.1310 0.1270 0.1240 0.1210
10.348000 0.1170 0.1110 0.1070 0.1040 0.1020
10.381223 0.1010 0.0990 0.0980 0.0960 0.0960
10.415000 0.0960 0.0960 0.0980 0.1020 0.1070
10.448223 0.1140 0.1170 0.1210 0.1210 0.1310
10.481000 0.1370 0.1440 0.1520 0.1590 0.1660
10.514223 0.1740 0.1840 0.1920 0.1990 0.2050
10.547000 0.2140 0.2240 0.2340 0.2450 0.2590
10.580223 0.2720 0.2850 0.3000 0.3150 0.3300
10.614000 0.3450 0.3620 0.3780 0.3930 0.4100
10.647223 0.4260 0.4410 0.4560 0.4730 0.4860
10.680000 0.5010 0.5140 0.5260 0.5390 0.5490
10.713223 0.5590 0.5680 0.5760 0.5830 0.5860
10.747000 0.5910 0.5940 0.5960 0.5990 0.5990
10.780223 0.5990 0.5980 0.5940 0.5910 0.5910
10.813000 0.5890 0.5840 0.5760 0.5680 0.5590
10.846223 0.5490 0.5360 0.5230 0.5080 0.4880
10.880000 0.4750 0.4600 0.4400 0.4200 0.3970
10.913223 0.3720 0.3470 0.3220 0.2950 0.2690
10.946000 0.2440 0.2190 0.1940 0.1720 0.1510
10.979223 0.1320 0.1170 0.1040 0.0930 0.0830
11.012000 0.0710 0.0640 0.0580 0.0560 0.0530
11.045223 0.0530 0.0510 0.0490 0.0480 0.0480
11.079000 0.0480 0.0480 0.0490 0.0490 0.0490
11.112223 0.0490 0.0490 0.0490 0.0490 0.0510
11.145000 0.0510 0.0530 0.0530 0.0530 0.0540
11.178223 0.0560 0.0590 0.0630 0.0680 0.0710
11.212000 0.0740 0.0780 0.0810 0.0840 0.0880
11.245223 0.0960 0.0990 0.1070 0.1140 0.1170
11.278000 0.1240 0.1320 0.1390 0.1460 0.1540
11.311223 0.1620 0.1720 0.1820 0.1910 0.2020
11.344000 0.2120 0.2240 0.2340 0.2450 0.2590
11.377223 0.2700 0.2820 0.2950 0.3080 0.3220
11.411000 0.3350 0.3480 0.3600 0.3700 0.3780
11.444223 0.3900 0.4010 0.4150 0.4310 0.4450
11.477000 0.4580 0.4710 0.4830 0.4950 0.5060
11.510223 0.5160 0.5260 0.5340 0.5440 0.5530
11.544000 0.5610 0.5680 0.5760 0.5830 0.5890
11.577223 0.5940 0.6010 0.6060 0.6090 0.6140
11.610000 0.6170 0.6210 0.6240 0.6270 0.6290
11.643223 0.6310 0.6310 0.6310 0.6290 0.6290
11.676000 0.6270 0.6260 0.6220 0.6210 0.6170
11.709223 0.6140 0.6110 0.6040 0.5990 0.5930
11.743000 0.5860 0.5780 0.5710 0.5630 0.5540
11.776223 0.5460 0.5360 0.5280 0.5180 0.5090
11.809000 0.5010 0.4910 0.4830 0.4750 0.4650
11.842223 0.4560 0.4510 0.4450 0.4380 0.4300
11.876000 0.4230 0.4160 0.4060 0.4010 0.4000
11.909223 0.3970 0.3930 0.3900 0.3870 0.3830
11.942000 0.3800 0.3780 0.3780 0.3750 0.3750
11.975223 0.3720 0.3700 0.3680 0.3680 0.3720
12.009000 0.3730 0.3770 0.3780 0.3780 0.3780
12.042223 0.3780 0.3750 0.3720 0.3720 0.3680
12.075000 0.3650 0.3620 0.3530 0.3450 0.3350
12.108223 0.3300 0.3220 0.3100 0.2970 0.2840
12.141000 0.2690 0.2540 0.2390 0.2220 0.2070
12.174223 0.1910 0.1760 0.1610 0.1470 0.1340
12.208000 0.1220 0.1110 0.0990 0.0980 0.0890
12.241223 0.0840 0.0780 0.0740 0.0710 0.0690
12.274000 0.0690 0.0690 0.0710 0.0730 0.0740
12.307223 0.0780 0.0830 0.0890 0.0980 0.1070
12.341000 0.1190 0.1310 0.1420 0.1540 0.1670
12.374223 0.1790 0.1910 0.2000 0.2050 0.2190
12.407000 0.2270 0.2300 0.2340 0.2370 0.2370
12.440223 0.2390 0.2390 0.2400 0.2400 0.2400
12.473000 0.2400 0.2440 0.2500 0.2590 0.2690
12.506223 0.2790 0.2900 0.3030 0.3180 0.3320
12.540000 0.3470 0.3620 0.3780 0.3930 0.4100
12.573223 0.4250 0.4380 0.4480 0.4580 0.4710
12.606000 0.4830 0.4950 0.5060 0.5140 0.5190
12.639223 0.5190 0.5230 0.5240 0.5310 0.5330
12.673000 0.5330 0.5340 0.5340 0.5340 0.5330
12.706223 0.5310 0.5280 0.5240 0.5180 0.5140
12.739000 0.5090 0.5040 0.4960 0.4860 0.4780
12.772223 0.4660 0.4550 0.4460 0.4350 0.4210
12.806000 0.4060 0.3900 0.3730 0.3550 0.3370
12.839223 0.3170 0.2990 0.2770 0.2600 0.2400
12.872000 0.2220 0.2040 0.1860 0.1710 0.1560
12.905223 0.1440 0.1310 0.1210 0.1090 0.1020
12.938000 0.0980 0.0910 0.0860 0.0780 0.0740
12.971223 0.0730 0.0730 0.0730 0.0730 0.0710
13.005000 0.0710 0.0690 0.0690 0.0680 0.0680
13.038223 0.0680 0.0680 0.0690 0.0710 0.0730
13.071000 0.0730 0.0740 0.0760 0.0790 0.0810
13.104223 0.0830 0.0830 0.0840 0.0880 0.0890
13.138000 0.0910 0.0940 0.0960 0.0980 0.0990
13.171223 0.0990 0.1010 0.1010 0.1020 0.1020
13.204000 0.1040 0.1040 0.1070 0.1090 0.1110
13.237223 0.1120 0.1120 0.1120 0.1140 0.1160
13.270000 0.1160 0.1160 0.1170 0.1170 0.1160
13.303223 0.1160 0.1140 0.1140 0.1140 0.1140
13.337000 0.1120 0.1120 0.1120 0.1140 0.1170
13.370223 0.1170 0.1190 0.1190 0.1190 0.1210
13.403000 0.1220 0.1240 0.1260 0.1260 0.1270
13.436223 0.1290 0.1320 0.1340 0.1390 0.1440
13.470000 0.1490 0.1560 0.1610 0.1690 0.1760
13.503223 0.1840 0.1920 0.2000 0.2090 0.2190
13.536000 0.2270 0.2370 0.2470 0.2590 0.2700
13.569223 0.2820 0.2940 0.3070 0.3200 0.3330
13.602000 0.3470 0.3620 0.3770 0.3920 0.4060
13.635223 0.4250 0.4410 0.4580 0.4750 0.4900
13.669000 0.5030 0.5160 0.5280 0.5360 0.5490
13.702223 0.5630 0.5730 0.5840 0.5910 0.5980
13.735000 0.6060 0.6160 0.6260 0.6360 0.6440
13.768223 0.6490 0.6540 0.6640 0.6690 0.6740
13.802000 0.6790 0.6860 0.6940 0.6970 0.6970
13.835223 0.7040 0.7070 0.7100 0.7120 0.7150
13.868000 0.7170 0.7190 0.7200 0.7240 0.7270
13.901223 0.7290 0.7320 0.7350 0.7370 0.7370
13.935000 0.7370 0.7390 0.7390 0.7400 0.7400
13.968223 0.7400 0.7400 0.7400 0.7400 0.7400
14.001000 0.7400 0.7400 0.7400 0.7400 0.7390
14.034223 0.7370 0.7340 0.7300 0.7270 0.7240
14.067000 0.7200 0.7170 0.7140 0.7100 0.7050
14.100223 0.7000 0.6960 0.6870 0.6790 0.6670
14.134000 0.6560 0.6410 0.6320 0.6190 0.6040
14.167223 0.5940 0.5840 0.5780 0.5660 0.5440
14.200000 0.5410 0.5410 0.5410 0.5430 0.5440
14.233223 0.5480 0.5530 0.5560 0.5630 0.5680
14.267000 0.5730 0.5790 0.5840 0.5880 0.5960
14.300223 0.5980 0.6010 0.6020 0.6040 0.6040
14.333000 0.6040 0.6010 0.5990 0.5980 0.5940
14.366223 0.5860 0.5810 0.5740 0.5710 0.5660
14.399000 0.5590 0.5530 0.5460 0.5360 0.5230
14.432223 0.5140 0.5080 0.5030 0.4950 0.4860
14.466000 0.4800 0.4750 0.4700 0.4650 0.4600
14.499223 0.4550 0.4510 0.4480 0.4460 0.4450
14.532000 0.4450 0.4450 0.4450 0.4450 0.4450
14.565223 0.4430 0.4430 0.4410 0.4400 0.4400
14.599000 0.4380 0.4360 0.4350 0.4350 0.4350
14.632223 0.4330 0.4330 0.4310 0.4260 0.4230
14.665000 0.4200 0.4180 0.4150 0.4110 0.4100
14.698223 0.4080 0.4030 0.4000 0.3970 0.3930
14.731000 0.3880 0.3820 0.3780 0.3730 0.3700
14.764223 0.3630 0.3580 0.3530 0.3450 0.3450
14.798000 0.3420 0.3370 0.3350 0.3280 0.3270
14.831223 0.3220 0.3180 0.3120 0.3050 0.3050
14.864000 0.3030 0.3030 0.3030 0.3030 0.3030
14.897223 0.3030 0.3030 0.3030 0.3030 0.3030
14.931000 0.3050 0.3050 0.3050 0.3070 0.3100
14.964223 0.3150 0.3220 0.3300 0.3400 0.3450
14.997000 0.3500 0.3570 0.3630 0.3720 0.3780
15.030223 0.3800 0.3800 0.3800 0.3780 0.3780
15.064000 0.3750 0.3670 0.3600 0.3530 0.3450
15.097223 0.3350 0.3250 0.3200 0.3150 0.3120
15.130000 0.3050 0.3030 0.3020 0.3020 0.3030
15.163223 0.3050 0.3050 0.3080 0.3100 0.3130
15.196000 0.3170 0.3220 0.3280 0.3370 0.3420
15.229223 0.3480 0.3530 0.3580 0.3650 0.3720
15.263000 0.3800 0.3870 0.3950 0.4050 0.4130
15.296223 0.4230 0.4310 0.4410 0.4500 0.4600
15.329000 0.4710 0.4810 0.4930 0.5030 0.5140
15.362223 0.5240 0.5340 0.5430 0.5510 0.5590
15.396000 0.5680 0.5760 0.5860 0.5960 0.6060
15.429223 0.6160 0.6260 0.6360 0.6420 0.6490
15.462000 0.6570 0.6640 0.6720 0.6790 0.6860
15.495223 0.6920 0.6970 0.7020 0.7050 0.7100
15.528000 0.7100 0.7150 0.7150 0.7170 0.7190
15.561223 0.7200 0.7250 0.7290 0.7300 0.7320
15.595000 0.7350 0.7400 0.7420 0.7440 0.7440
15.628223 0.7440 0.7440 0.7440 0.7440 0.7440
15.661000 0.7440 0.7440 0.7440 0.7440 0.7440
15.694223 0.7440 0.7440 0.7450 0.7470 0.7470
15.728000 0.7490 0.7490 0.7470 0.7470 0.7450
15.761223 0.7440 0.7420 0.7400 0.7390 0.7370
15.794000 0.7350 0.7350 0.7350 0.7370 0.7370
15.827223 0.7390 0.7390 0.7400 0.7400 0.7420
15.861000 0.7420 0.7420 0.7440 0.7440 0.7450
15.894223 0.7450 0.7450 0.7450 0.7450 0.7450
15.927000 0.7450 0.7450 0.7450 0.7450 0.7450
15.960223 0.7450 0.7450 0.7450 0.7450 0.7450
15.993000 0.7450 0.7470
##END=
