##TITLE=AMODIAQUINE HYDROCHLORIDE
##JCAMP-DX=4.24
$$ By DXEDIT 1.05 (RS McDonald)
##DATA TYPE=INFRARED SPECTRUM
##CLASS=COBLENTZ III
##OWNER=COPYRIGHT (C) 1988 by COBLENTZ SOCIETY INC.
Collection (C) 2018 copyright by the U.S. Secretary of Commerce
on behalf of the United States of America. All rights reserved.
##DATE=1961/06/27
##NAMES=4-(7-CHLORO-4-QUINOLYLAMINO)-Alpha-DIETHYLAMINO-o-CRESOL HYDROCHLORIDE DIHYDRATE
##MOLFORM=C20 H24 Cl3 N3 O  * 2 H2 O
##MP=150-160 C
##SOURCE REFERENCE=COBLENTZ NO. 5191
##$NIST ID=B6005191
##$NIST SOURCE=COBLENTZ
##$NIST IMAGE=cob5191
##SPECTROMETER/DATA SYSTEM=PERKIN-ELMER 21 (GRATING)
##INSTRUMENT PARAMETERS=FILTER AT ABOUT 10 MICRONS
##STATE=SOLID (1 mg / 200 mg KCl DISC)
##PATH LENGTH=0.055 CM (THICKNESS)
##SAMPLING PROCEDURE=TRANSMISSION
##RESOLUTION=2
##DATA PROCESSING=DIGITIZED BY COBLENTZ SOCIETY (BATCH I) FROM HARD COPY
##XUNITS=1/CM
##YUNITS=TRANSMITTANCE
##XFACTOR=1
##YFACTOR=1
##DELTAX=1
##FIRSTX=4000
##LASTX=666
##FIRSTY=0.8581
##MAXX=4000
##MINX=666
##MAXY=0.933
##MINY=0.2991
##NPOINTS=3335
##XYDATA=(X++(Y..Y))
4000.000000 0.8581 0.8582 0.8584 0.8585 0.8587
3995.000000 0.8588 0.8590 0.8591 0.8593 0.8594
3990.000000 0.8596 0.8597 0.8599 0.8600 0.8602
3985.000000 0.8603 0.8605 0.8606 0.8608 0.8609
3980.000000 0.8611 0.8612 0.8614 0.8615 0.8618
3975.000000 0.8619 0.8621 0.8622 0.8624 0.8625
3970.000000 0.8627 0.8628 0.8630 0.8631 0.8633
3965.000000 0.8634 0.8636 0.8636 0.8637 0.8641
3960.000000 0.8643 0.8644 0.8646 0.8647 0.8649
3955.000000 0.8650 0.8652 0.8653 0.8655 0.8656
3950.000000 0.8658 0.8659 0.8661 0.8662 0.8664
3945.000000 0.8665 0.8667 0.8668 0.8670 0.8671
3940.000000 0.8672 0.8674 0.8675 0.8678 0.8678
3935.000000 0.8680 0.8681 0.8683 0.8684 0.8686
3930.000000 0.8687 0.8689 0.8690 0.8691 0.8693
3925.000000 0.8694 0.8696 0.8697 0.8699 0.8700
3920.000000 0.8702 0.8703 0.8705 0.8706 0.8707
3915.000000 0.8709 0.8710 0.8712 0.8713 0.8715
3910.000000 0.8717 0.8719 0.8720 0.8722 0.8723
3905.000000 0.8725 0.8726 0.8728 0.8729 0.8730
3900.000000 0.8732 0.8733 0.8735 0.8736 0.8738
3895.000000 0.8740 0.8742 0.8743 0.8745 0.8746
3890.000000 0.8748 0.8749 0.8750 0.8752 0.8753
3885.000000 0.8755 0.8755 0.8756 0.8758 0.8760
3880.000000 0.8762 0.8763 0.8765 0.8766 0.8768
3875.000000 0.8770 0.8772 0.8773 0.8776 0.8777
3870.000000 0.8779 0.8781 0.8783 0.8784 0.8784
3865.000000 0.8786 0.8788 0.8791 0.8792 0.8795
3860.000000 0.8797 0.8798 0.8801 0.8802 0.8803
3855.000000 0.8805 0.8806 0.8808 0.8810 0.8812
3850.000000 0.8813 0.8816 0.8817 0.8820 0.8821
3845.000000 0.8823 0.8823 0.8824 0.8828 0.8829
3840.000000 0.8831 0.8832 0.8834 0.8836 0.8838
3835.000000 0.8839 0.8841 0.8843 0.8845 0.8847
3830.000000 0.8849 0.8850 0.8853 0.8854 0.8855
3825.000000 0.8857 0.8858 0.8861 0.8861 0.8862
3820.000000 0.8866 0.8868 0.8870 0.8872 0.8873
3815.000000 0.8876 0.8877 0.8878 0.8880 0.8881
3810.000000 0.8884 0.8885 0.8888 0.8889 0.8892
3805.000000 0.8893 0.8896 0.8897 0.8900 0.8900
3800.000000 0.8904 0.8906 0.8908 0.8910 0.8912
3795.000000 0.8914 0.8917 0.8918 0.8921 0.8923
3790.000000 0.8926 0.8927 0.8930 0.8932 0.8934
3785.000000 0.8936 0.8939 0.8940 0.8943 0.8946
3780.000000 0.8947 0.8949 0.8951 0.8953 0.8956
3775.000000 0.8959 0.8960 0.8963 0.8965 0.8968
3770.000000 0.8969 0.8972 0.8974 0.8976 0.8978
3765.000000 0.8981 0.8982 0.8983 0.8987 0.8988
3760.000000 0.8991 0.8994 0.8995 0.8998 0.9000
3755.000000 0.9003 0.9005 0.9008 0.9009 0.9012
3750.000000 0.9014 0.9016 0.9018 0.9021 0.9023
3745.000000 0.9025 0.9027 0.9030 0.9032 0.9035
3740.000000 0.9038 0.9041 0.9044 0.9046 0.9050
3735.000000 0.9052 0.9055 0.9059 0.9061 0.9065
3730.000000 0.9066 0.9070 0.9073 0.9076 0.9079
3725.000000 0.9081 0.9085 0.9088 0.9090 0.9094
3720.000000 0.9096 0.9100 0.9103 0.9106 0.9109
3715.000000 0.9113 0.9115 0.9118 0.9120 0.9124
3710.000000 0.9127 0.9129 0.9133 0.9135 0.9139
3705.000000 0.9142 0.9144 0.9148 0.9150 0.9154
3700.000000 0.9156 0.9160 0.9163 0.9166 0.9170
3695.000000 0.9174 0.9178 0.9181 0.9184 0.9187
3690.000000 0.9191 0.9194 0.9197 0.9200 0.9203
3685.000000 0.9207 0.9211 0.9213 0.9217 0.9221
3680.000000 0.9223 0.9227 0.9231 0.9234 0.9237
3675.000000 0.9240 0.9243 0.9247 0.9249 0.9253
3670.000000 0.9255 0.9259 0.9261 0.9265 0.9267
3665.000000 0.9271 0.9274 0.9277 0.9280 0.9282
3660.000000 0.9286 0.9288 0.9290 0.9293 0.9296
3655.000000 0.9298 0.9301 0.9302 0.9303 0.9304
3650.000000 0.9307 0.9308 0.9309 0.9309 0.9310
3645.000000 0.9312 0.9313 0.9314 0.9315 0.9317
3640.000000 0.9318 0.9319 0.9319 0.9319 0.9319
3635.000000 0.9319 0.9319 0.9318 0.9319 0.9318
3630.000000 0.9317 0.9318 0.9318 0.9318 0.9318
3625.000000 0.9317 0.9316 0.9318 0.9317 0.9317
3620.000000 0.9317 0.9317 0.9316 0.9315 0.9313
3615.000000 0.9310 0.9308 0.9307 0.9304 0.9302
3610.000000 0.9300 0.9298 0.9296 0.9292 0.9289
3605.000000 0.9284 0.9281 0.9276 0.9272 0.9268
3600.000000 0.9264 0.9259 0.9256 0.9251 0.9243
3595.000000 0.9234 0.9226 0.9219 0.9211 0.9199
3590.000000 0.9187 0.9176 0.9164 0.9152 0.9139
3585.000000 0.9126 0.9113 0.9099 0.9086 0.9073
3580.000000 0.9059 0.9046 0.9033 0.9017 0.8989
3575.000000 0.8945 0.8901 0.8856 0.8812 0.8775
3570.000000 0.8747 0.8720 0.8691 0.8664 0.8636
3565.000000 0.8610 0.8584 0.8558 0.8532 0.8507
3560.000000 0.8483 0.8461 0.8437 0.8415 0.8393
3555.000000 0.8379 0.8363 0.8348 0.8334 0.8319
3550.000000 0.8304 0.8289 0.8274 0.8259 0.8244
3545.000000 0.8230 0.8215 0.8200 0.8185 0.8171
3540.000000 0.8154 0.8139 0.8124 0.8109 0.8094
3535.000000 0.8077 0.8062 0.8046 0.8031 0.8016
3530.000000 0.7999 0.7984 0.7968 0.7953 0.7937
3525.000000 0.7921 0.7905 0.7890 0.7874 0.7859
3520.000000 0.7839 0.7820 0.7802 0.7783 0.7765
3515.000000 0.7745 0.7726 0.7707 0.7687 0.7668
3510.000000 0.7649 0.7629 0.7609 0.7590 0.7565
3505.000000 0.7527 0.7491 0.7453 0.7416 0.7379
3500.000000 0.7340 0.7303 0.7265 0.7226 0.7199
3495.000000 0.7180 0.7162 0.7144 0.7126 0.7107
3490.000000 0.7089 0.7072 0.7055 0.7037 0.7019
3485.000000 0.7001 0.6982 0.6966 0.6947 0.6900
3480.000000 0.6847 0.6797 0.6745 0.6697 0.6650
3475.000000 0.6607 0.6561 0.6518 0.6478 0.6453
3470.000000 0.6429 0.6403 0.6379 0.6354 0.6328
3465.000000 0.6304 0.6280 0.6255 0.6227 0.6198
3460.000000 0.6170 0.6142 0.6113 0.6089 0.6065
3455.000000 0.6040 0.6016 0.5991 0.5935 0.5883
3450.000000 0.5830 0.5776 0.5723 0.5669 0.5616
3445.000000 0.5563 0.5509 0.5456 0.5402 0.5347
3440.000000 0.5296 0.5242 0.5188 0.5135 0.5081
3435.000000 0.5027 0.4973 0.4921 0.4867 0.4813
3430.000000 0.4759 0.4704 0.4652 0.4597 0.4544
3425.000000 0.4491 0.4457 0.4432 0.4407 0.4384
3420.000000 0.4359 0.4348 0.4338 0.4327 0.4317
3415.000000 0.4304 0.4292 0.4280 0.4268 0.4255
3410.000000 0.4244 0.4232 0.4220 0.4208 0.4196
3405.000000 0.4182 0.4171 0.4159 0.4119 0.4137
3400.000000 0.4131 0.4122 0.4116 0.4109 0.4107
3395.000000 0.4105 0.4104 0.4102 0.4102 0.4102
3390.000000 0.4102 0.4103 0.4104 0.4106 0.4111
3385.000000 0.4115 0.4118 0.4122 0.4128 0.4132
3380.000000 0.4136 0.4142 0.4147 0.4156 0.4165
3375.000000 0.4173 0.4183 0.4192 0.4201 0.4208
3370.000000 0.4217 0.4225 0.4233 0.4239 0.4246
3365.000000 0.4254 0.4260 0.4268 0.4275 0.4281
3360.000000 0.4288 0.4297 0.4305 0.4313 0.4321
3355.000000 0.4330 0.4340 0.4350 0.4360 0.4368
3350.000000 0.4378 0.4386 0.4396 0.4406 0.4418
3345.000000 0.4432 0.4444 0.4458 0.4475 0.4497
3340.000000 0.4521 0.4544 0.4566 0.4592 0.4616
3335.000000 0.4641 0.4665 0.4690 0.4715 0.4738
3330.000000 0.4763 0.4788 0.4812 0.4837 0.4862
3325.000000 0.4886 0.4911 0.4936 0.4960 0.4985
3320.000000 0.5011 0.5035 0.5059 0.5085 0.5109
3315.000000 0.5134 0.5158 0.5183 0.5207 0.5232
3310.000000 0.5257 0.5281 0.5307 0.5331 0.5356
3305.000000 0.5381 0.5406 0.5431 0.5448 0.5459
3300.000000 0.5470 0.5479 0.5490 0.5496 0.5503
3295.000000 0.5511 0.5518 0.5523 0.5527 0.5531
3290.000000 0.5534 0.5536 0.5538 0.5540 0.5542
3285.000000 0.5543 0.5544 0.5545 0.5546 0.5547
3280.000000 0.5548 0.5547 0.5546 0.5546 0.5547
3275.000000 0.5547 0.5547 0.5546 0.5546 0.5538
3270.000000 0.5531 0.5524 0.5517 0.5503 0.5487
3265.000000 0.5474 0.5460 0.5445 0.5429 0.5414
3260.000000 0.5399 0.5383 0.5367 0.5350 0.5334
3255.000000 0.5318 0.5301 0.5284 0.5268 0.5252
3250.000000 0.5237 0.5222 0.5206 0.5192 0.5177
3245.000000 0.5163 0.5149 0.5135 0.5122 0.5106
3240.000000 0.5093 0.5079 0.5064 0.5050 0.5035
3235.000000 0.5021 0.5007 0.4992 0.4977 0.4963
3230.000000 0.4948 0.4933 0.4918 0.4904 0.4889
3225.000000 0.4873 0.4855 0.4839 0.4823 0.4804
3220.000000 0.4783 0.4763 0.4741 0.4720 0.4700
3215.000000 0.4678 0.4659 0.4640 0.4625 0.4609
3210.000000 0.4593 0.4575 0.4562 0.4546 0.4530
3205.000000 0.4514 0.4493 0.4470 0.4450 0.4430
3200.000000 0.4409 0.4388 0.4367 0.4346 0.4326
3195.000000 0.4306 0.4287 0.4266 0.4246 0.4224
3190.000000 0.4205 0.4186 0.4166 0.4145 0.4125
3185.000000 0.4106 0.4085 0.4065 0.4045 0.4024
3180.000000 0.4004 0.3984 0.3964 0.3943 0.3923
3175.000000 0.3903 0.3882 0.3862 0.3842 0.3822
3170.000000 0.3801 0.3781 0.3763 0.3745 0.3727
3165.000000 0.3709 0.3701 0.3701 0.3701 0.3700
3160.000000 0.3699 0.3699 0.3699 0.3699 0.3697
3155.000000 0.3697 0.3696 0.3696 0.3695 0.3697
3150.000000 0.3698 0.3700 0.3702 0.3704 0.3706
3145.000000 0.3709 0.3711 0.3714 0.3716 0.3719
3140.000000 0.3721 0.3725 0.3727 0.3730 0.3732
3135.000000 0.3735 0.3738 0.3740 0.3743 0.3746
3130.000000 0.3748 0.3751 0.3754 0.3756 0.3759
3125.000000 0.3762 0.3764 0.3767 0.3770 0.3772
3120.000000 0.3775 0.3778 0.3780 0.3783 0.3787
3115.000000 0.3788 0.3792 0.3794 0.3797 0.3800
3110.000000 0.3802 0.3805 0.3807 0.3810 0.3812
3105.000000 0.3815 0.3818 0.3819 0.3823 0.3825
3100.000000 0.3828 0.3831 0.3833 0.3836 0.3838
3095.000000 0.3841 0.3844 0.3848 0.3852 0.3856
3090.000000 0.3860 0.3866 0.3870 0.3874 0.3878
3085.000000 0.3882 0.3886 0.3890 0.3896 0.3901
3080.000000 0.3906 0.3912 0.3918 0.3924 0.3930
3075.000000 0.3936 0.3944 0.3951 0.3959 0.3967
3070.000000 0.3974 0.3985 0.3995 0.4004 0.4013
3065.000000 0.4022 0.4031 0.4040 0.4050 0.4058
3060.000000 0.4068 0.4076 0.4084 0.4091 0.4098
3055.000000 0.4102 0.4106 0.4110 0.4114 0.4119
3050.000000 0.4122 0.4126 0.4129 0.4132 0.4134
3045.000000 0.4139 0.4142 0.4143 0.4147 0.4151
3040.000000 0.4154 0.4157 0.4160 0.4163 0.4166
3035.000000 0.4170 0.4173 0.4176 0.4181 0.4183
3030.000000 0.4188 0.4191 0.4195 0.4199 0.4203
3025.000000 0.4206 0.4210 0.4213 0.4217 0.4221
3020.000000 0.4224 0.4229 0.4232 0.4234 0.4238
3015.000000 0.4242 0.4245 0.4248 0.4252 0.4255
3010.000000 0.4258 0.4262 0.4265 0.4268 0.4271
3005.000000 0.4273 0.4276 0.4280 0.4281 0.4283
3000.000000 0.4284 0.4287 0.4288 0.4287 0.4286
2995.000000 0.4285 0.4282 0.4281 0.4279 0.4277
2990.000000 0.4273 0.4269 0.4267 0.4264 0.4260
2985.000000 0.4257 0.4253 0.4250 0.4245 0.4240
2980.000000 0.4237 0.4232 0.4228 0.4222 0.4218
2975.000000 0.4212 0.4208 0.4203 0.4199 0.4194
2970.000000 0.4190 0.4185 0.4179 0.4175 0.4169
2965.000000 0.4163 0.4159 0.4152 0.4146 0.4142
2960.000000 0.4136 0.4132 0.4126 0.4121 0.4117
2955.000000 0.4112 0.4109 0.4106 0.4103 0.4099
2950.000000 0.4097 0.4094 0.4091 0.4090 0.4088
2945.000000 0.4087 0.4086 0.4084 0.4082 0.4080
2940.000000 0.4079 0.4078 0.4076 0.4075 0.4074
2935.000000 0.4054 0.4070 0.4070 0.4069 0.4069
2930.000000 0.4068 0.4067 0.4067 0.4067 0.4070
2925.000000 0.4072 0.4073 0.4076 0.4078 0.4080
2920.000000 0.4083 0.4086 0.4088 0.4092 0.4100
2915.000000 0.4109 0.4117 0.4128 0.4138 0.4150
2910.000000 0.4165 0.4187 0.4208 0.4230 0.4250
2905.000000 0.4271 0.4291 0.4311 0.4329 0.4348
2900.000000 0.4367 0.4386 0.4403 0.4421 0.4439
2895.000000 0.4456 0.4473 0.4491 0.4507 0.4523
2890.000000 0.4540 0.4556 0.4575 0.4591 0.4607
2885.000000 0.4624 0.4641 0.4654 0.4664 0.4676
2880.000000 0.4686 0.4696 0.4706 0.4715 0.4727
2875.000000 0.4737 0.4748 0.4759 0.4772 0.4784
2870.000000 0.4796 0.4807 0.4820 0.4831 0.4843
2865.000000 0.4855 0.4867 0.4881 0.4895 0.4908
2860.000000 0.4924 0.4938 0.4953 0.4969 0.4983
2855.000000 0.4998 0.5014 0.5030 0.5048 0.5064
2850.000000 0.5081 0.5100 0.5117 0.5135 0.5152
2845.000000 0.5169 0.5185 0.5197 0.5209 0.5220
2840.000000 0.5233 0.5246 0.5258 0.5269 0.5280
2835.000000 0.5292 0.5300 0.5306 0.5310 0.5316
2830.000000 0.5319 0.5324 0.5328 0.5330 0.5333
2825.000000 0.5334 0.5336 0.5338 0.5340 0.5342
2820.000000 0.5344 0.5346 0.5348 0.5350 0.5352
2815.000000 0.5353 0.5356 0.5357 0.5360 0.5362
2810.000000 0.5364 0.5366 0.5371 0.5374 0.5378
2805.000000 0.5382 0.5385 0.5389 0.5393 0.5397
2800.000000 0.5401 0.5405 0.5407 0.5412 0.5417
2795.000000 0.5420 0.5425 0.5430 0.5435 0.5441
2790.000000 0.5447 0.5452 0.5457 0.5463 0.5469
2785.000000 0.5474 0.5479 0.5486 0.5492 0.5498
2780.000000 0.5507 0.5517 0.5526 0.5536 0.5546
2775.000000 0.5556 0.5564 0.5574 0.5584 0.5593
2770.000000 0.5602 0.5612 0.5621 0.5630 0.5639
2765.000000 0.5648 0.5656 0.5665 0.5674 0.5684
2760.000000 0.5693 0.5701 0.5710 0.5719 0.5726
2755.000000 0.5733 0.5740 0.5747 0.5753 0.5759
2750.000000 0.5765 0.5770 0.5775 0.5778 0.5782
2745.000000 0.5785 0.5787 0.5789 0.5792 0.5795
2740.000000 0.5797 0.5800 0.5802 0.5804 0.5805
2735.000000 0.5808 0.5809 0.5810 0.5811 0.5812
2730.000000 0.5814 0.5816 0.5815 0.5814 0.5814
2725.000000 0.5813 0.5813 0.5812 0.5812 0.5811
2720.000000 0.5810 0.5806 0.5804 0.5801 0.5798
2715.000000 0.5795 0.5790 0.5784 0.5777 0.5769
2710.000000 0.5760 0.5751 0.5742 0.5731 0.5718
2705.000000 0.5708 0.5696 0.5687 0.5675 0.5664
2700.000000 0.5653 0.5642 0.5632 0.5621 0.5610
2695.000000 0.5599 0.5589 0.5584 0.5577 0.5571
2690.000000 0.5569 0.5566 0.5564 0.5563 0.5563
2685.000000 0.5562 0.5562 0.5561 0.5560 0.5560
2680.000000 0.5559 0.5558 0.5555 0.5554 0.5551
2675.000000 0.5550 0.5549 0.5546 0.5545 0.5543
2670.000000 0.5535 0.5526 0.5516 0.5505 0.5493
2665.000000 0.5480 0.5466 0.5452 0.5439 0.5426
2660.000000 0.5412 0.5401 0.5388 0.5378 0.5367
2655.000000 0.5357 0.5345 0.5337 0.5258 0.5322
2650.000000 0.5317 0.5310 0.5304 0.5300 0.5295
2645.000000 0.5291 0.5288 0.5285 0.5284 0.5284
2640.000000 0.5283 0.5289 0.5295 0.5302 0.5311
2635.000000 0.5319 0.5329 0.5340 0.5349 0.5365
2630.000000 0.5385 0.5406 0.5424 0.5445 0.5465
2625.000000 0.5491 0.5517 0.5544 0.5571 0.5598
2620.000000 0.5622 0.5646 0.5669 0.5692 0.5714
2615.000000 0.5736 0.5754 0.5773 0.5792 0.5810
2610.000000 0.5827 0.5846 0.5863 0.5882 0.5899
2605.000000 0.5914 0.5929 0.5940 0.5951 0.5962
2600.000000 0.5974 0.5985 0.5995 0.6007 0.6018
2595.000000 0.6029 0.6039 0.6051 0.6063 0.6074
2590.000000 0.6083 0.6096 0.6105 0.6119 0.6131
2585.000000 0.6144 0.6155 0.6168 0.6179 0.6191
2580.000000 0.6203 0.6216 0.6228 0.6241 0.6252
2575.000000 0.6265 0.6277 0.6291 0.6303 0.6313
2570.000000 0.6325 0.6337 0.6348 0.6358 0.6369
2565.000000 0.6380 0.6391 0.6401 0.6413 0.6423
2560.000000 0.6433 0.6445 0.6455 0.6466 0.6477
2555.000000 0.6487 0.6498 0.6510 0.6520 0.6531
2550.000000 0.6545 0.6557 0.6571 0.6587 0.6604
2545.000000 0.6619 0.6634 0.6649 0.6666 0.6682
2540.000000 0.6697 0.6712 0.6729 0.6743 0.6757
2535.000000 0.6769 0.6780 0.6791 0.6801 0.6811
2530.000000 0.6822 0.6833 0.6843 0.6854 0.6864
2525.000000 0.6875 0.6886 0.6896 0.6907 0.6917
2520.000000 0.6927 0.6936 0.6947 0.6956 0.6965
2515.000000 0.6974 0.6983 0.6993 0.7002 0.7011
2510.000000 0.7020 0.7029 0.7038 0.7048 0.7057
2505.000000 0.7067 0.7072 0.7078 0.7083 0.7086
2500.000000 0.7090 0.7093 0.7096 0.7099 0.7102
2495.000000 0.7105 0.7108 0.7111 0.7113 0.7117
2490.000000 0.7120 0.7124 0.7130 0.7135 0.7140
2485.000000 0.7145 0.7150 0.7154 0.7159 0.7164
2480.000000 0.7171 0.7178 0.7185 0.7194 0.7204
2475.000000 0.7214 0.7224 0.7234 0.7244 0.7254
2470.000000 0.7263 0.7274 0.7284 0.7294 0.7304
2465.000000 0.7313 0.7323 0.7332 0.7341 0.7350
2460.000000 0.7358 0.7367 0.7376 0.7385 0.7393
2455.000000 0.7402 0.7411 0.7420 0.7429 0.7438
2450.000000 0.7447 0.7456 0.7465 0.7474 0.7482
2445.000000 0.7491 0.7500 0.7509 0.7517 0.7526
2440.000000 0.7535 0.7544 0.7552 0.7560 0.7569
2435.000000 0.7577 0.7586 0.7594 0.7602 0.7610
2430.000000 0.7619 0.7628 0.7636 0.7644 0.7652
2425.000000 0.7660 0.7666 0.7672 0.7678 0.7684
2420.000000 0.7689 0.7695 0.7701 0.7707 0.7712
2415.000000 0.7718 0.7724 0.7730 0.7735 0.7742
2410.000000 0.7748 0.7754 0.7760 0.7766 0.7772
2405.000000 0.7778 0.7783 0.7789 0.7795 0.7800
2400.000000 0.7806 0.7812 0.7818 0.7824 0.7830
2395.000000 0.7836 0.7841 0.7846 0.7851 0.7856
2390.000000 0.7859 0.7865 0.7870 0.7875 0.7880
2385.000000 0.7886 0.7891 0.7896 0.7901 0.7906
2380.000000 0.7910 0.7916 0.7921 0.7926 0.7931
2375.000000 0.7936 0.7942 0.7947 0.7952 0.7956
2370.000000 0.7961 0.7966 0.7971 0.7976 0.7981
2365.000000 0.7986 0.7991 0.7995 0.8000 0.8006
2360.000000 0.8011 0.8016 0.8021 0.8025 0.8030
2355.000000 0.8035 0.8041 0.8049 0.8057 0.8064
2350.000000 0.8072 0.8080 0.8087 0.8095 0.8103
2345.000000 0.8110 0.8119 0.8127 0.8135 0.8143
2340.000000 0.8150 0.8158 0.8166 0.8173 0.8180
2335.000000 0.8188 0.8195 0.8201 0.8208 0.8216
2330.000000 0.8222 0.8229 0.8236 0.8242 0.8248
2325.000000 0.8255 0.8262 0.8268 0.8275 0.8282
2320.000000 0.8289 0.8295 0.8302 0.8309 0.8315
2315.000000 0.8321 0.8329 0.8334 0.8340 0.8345
2310.000000 0.8351 0.8356 0.8360 0.8367 0.8371
2305.000000 0.8377 0.8382 0.8388 0.8393 0.8398
2300.000000 0.8404 0.8409 0.8414 0.8420 0.8425
2295.000000 0.8430 0.8436 0.8441 0.8444 0.8448
2290.000000 0.8452 0.8456 0.8460 0.8464 0.8468
2285.000000 0.8473 0.8476 0.8480 0.8484 0.8489
2280.000000 0.8492 0.8496 0.8500 0.8505 0.8508
2275.000000 0.8512 0.8517 0.8520 0.8523 0.8528
2270.000000 0.8533 0.8536 0.8541 0.8545 0.8548
2265.000000 0.8553 0.8556 0.8561 0.8563 0.8566
2260.000000 0.8570 0.8572 0.8574 0.8577 0.8580
2255.000000 0.8583 0.8584 0.8587 0.8589 0.8592
2250.000000 0.8595 0.8596 0.8599 0.8603 0.8605
2245.000000 0.8607 0.8610 0.8613 0.8615 0.8616
2240.000000 0.8620 0.8623 0.8626 0.8627 0.8630
2235.000000 0.8633 0.8635 0.8637 0.8640 0.8643
2230.000000 0.8646 0.8648 0.8650 0.8654 0.8655
2225.000000 0.8657 0.8661 0.8662 0.8664 0.8665
2220.000000 0.8667 0.8670 0.8672 0.8673 0.8675
2215.000000 0.8678 0.8680 0.8682 0.8683 0.8685
2210.000000 0.8687 0.8688 0.8689 0.8691 0.8693
2205.000000 0.8696 0.8697 0.8699 0.8700 0.8703
2200.000000 0.8704 0.8706 0.8708 0.8710 0.8711
2195.000000 0.8712 0.8714 0.8714 0.8716 0.8717
2190.000000 0.8717 0.8719 0.8721 0.8721 0.8722
2185.000000 0.8722 0.8725 0.8726 0.8727 0.8728
2180.000000 0.8729 0.8730 0.8732 0.8733 0.8733
2175.000000 0.8735 0.8737 0.8739 0.8741 0.8741
2170.000000 0.8743 0.8745 0.8746 0.8749 0.8751
2165.000000 0.8753 0.8755 0.8757 0.8759 0.8760
2160.000000 0.8760 0.8759 0.8758 0.8757 0.8756
2155.000000 0.8755 0.8754 0.8753 0.8752 0.8751
2150.000000 0.8749 0.8748 0.8747 0.8746 0.8745
2145.000000 0.8744 0.8743 0.8742 0.8742 0.8741
2140.000000 0.8740 0.8739 0.8738 0.8737 0.8737
2135.000000 0.8736 0.8735 0.8735 0.8734 0.8734
2130.000000 0.8733 0.8732 0.8730 0.8730 0.8731
2125.000000 0.8732 0.8733 0.8733 0.8733 0.8733
2120.000000 0.8733 0.8734 0.8734 0.8735 0.8734
2115.000000 0.8736 0.8735 0.8737 0.8737 0.8736
2110.000000 0.8737 0.8738 0.8738 0.8739 0.8739
2105.000000 0.8739 0.8740 0.8741 0.8741 0.8741
2100.000000 0.8741 0.8742 0.8745 0.8747 0.8750
2095.000000 0.8752 0.8754 0.8757 0.8761 0.8763
2090.000000 0.8766 0.8768 0.8771 0.8774 0.8776
2085.000000 0.8778 0.8781 0.8784 0.8787 0.8789
2080.000000 0.8791 0.8794 0.8797 0.8800 0.8802
2075.000000 0.8805 0.8808 0.8810 0.8813 0.8815
2070.000000 0.8820 0.8823 0.8828 0.8832 0.8836
2065.000000 0.8840 0.8845 0.8849 0.8852 0.8857
2060.000000 0.8860 0.8864 0.8868 0.8873 0.8877
2055.000000 0.8881 0.8885 0.8890 0.8893 0.8898
2050.000000 0.8901 0.8906 0.8911 0.8914 0.8919
2045.000000 0.8922 0.8927 0.8931 0.8934 0.8939
2040.000000 0.8944 0.8949 0.8953 0.8957 0.8961
2035.000000 0.8966 0.8970 0.8974 0.8979 0.8984
2030.000000 0.8988 0.8992 0.8997 0.9000 0.9005
2025.000000 0.9009 0.9013 0.9018 0.9022 0.9027
2020.000000 0.9031 0.9035 0.9039 0.9041 0.9046
2015.000000 0.9050 0.9053 0.9057 0.9060 0.9064
2010.000000 0.9068 0.9070 0.9076 0.9078 0.9083
2005.000000 0.9086 0.9090 0.9094 0.9097 0.9102
2000.000000 0.9105 0.9108 0.9111 0.9112 0.9114
1995.000000 0.9116 0.9117 0.9119 0.9120 0.9122
1990.000000 0.9124 0.9125 0.9127 0.9127 0.9130
1985.000000 0.9131 0.9132 0.9133 0.9135 0.9136
1980.000000 0.9138 0.9139 0.9140 0.9142 0.9143
1975.000000 0.9145 0.9144 0.9144 0.9143 0.9143
1970.000000 0.9143 0.9141 0.9141 0.9140 0.9140
1965.000000 0.9140 0.9138 0.9138 0.9137 0.9136
1960.000000 0.9136 0.9135 0.9134 0.9134 0.9133
1955.000000 0.9132 0.9132 0.9131 0.9131 0.9132
1950.000000 0.9134 0.9136 0.9137 0.9140 0.9142
1945.000000 0.9146 0.9148 0.9151 0.9152 0.9155
1940.000000 0.9157 0.9160 0.9161 0.9164 0.9166
1935.000000 0.9168 0.9170 0.9174 0.9180 0.9185
1930.000000 0.9188 0.9188 0.9187 0.9185 0.9182
1925.000000 0.9180 0.9178 0.9176 0.9174 0.9172
1920.000000 0.9169 0.9167 0.9163 0.9160 0.9158
1915.000000 0.9154 0.9150 0.9149 0.9150 0.9153
1910.000000 0.9157 0.9159 0.9162 0.9164 0.9168
1905.000000 0.9171 0.9173 0.9176 0.9178 0.9181
1900.000000 0.9185 0.9187 0.9191 0.9193 0.9196
1895.000000 0.9199 0.9201 0.9206 0.9208 0.9212
1890.000000 0.9216 0.9220 0.9224 0.9227 0.9231
1885.000000 0.9236 0.9239 0.9242 0.9247 0.9250
1880.000000 0.9254 0.9258 0.9262 0.9267 0.9270
1875.000000 0.9274 0.9277 0.9281 0.9283 0.9285
1870.000000 0.9289 0.9292 0.9294 0.9298 0.9300
1865.000000 0.9302 0.9306 0.9307 0.9310 0.9311
1860.000000 0.9314 0.9316 0.9317 0.9320 0.9321
1855.000000 0.9324 0.9326 0.9328 0.9330 0.9330
1850.000000 0.9330 0.9330 0.9329 0.9328 0.9327
1845.000000 0.9326 0.9325 0.9323 0.9318 0.9311
1840.000000 0.9304 0.9295 0.9288 0.9281 0.9274
1835.000000 0.9268 0.9262 0.9256 0.9250 0.9248
1830.000000 0.9247 0.9246 0.9246 0.9246 0.9246
1825.000000 0.9244 0.9245 0.9245 0.9245 0.9243
1820.000000 0.9244 0.9244 0.9243 0.9244 0.9245
1815.000000 0.9247 0.9248 0.9250 0.9251 0.9251
1810.000000 0.9252 0.9251 0.9248 0.9247 0.9245
1805.000000 0.9242 0.9237 0.9234 0.9228 0.9226
1800.000000 0.9221 0.9216 0.9211 0.9207 0.9203
1795.000000 0.9197 0.9194 0.9189 0.9185 0.9181
1790.000000 0.9179 0.9177 0.9177 0.9179 0.9184
1785.000000 0.9189 0.9194 0.9200 0.9205 0.9212
1780.000000 0.9218 0.9226 0.9231 0.9238 0.9245
1775.000000 0.9253 0.9258 0.9267 0.9274 0.9280
1770.000000 0.9288 0.9296 0.9300 0.9304 0.9307
1765.000000 0.9310 0.9313 0.9317 0.9320 0.9320
1760.000000 0.9320 0.9320 0.9320 0.9320 0.9319
1755.000000 0.9319 0.9319 0.9318 0.9329 0.9318
1750.000000 0.9318 0.9320 0.9320 0.9320 0.9320
1745.000000 0.9321 0.9320 0.9320 0.9321 0.9321
1740.000000 0.9319 0.9319 0.9319 0.9319 0.9319
1735.000000 0.9319 0.9315 0.9312 0.9309 0.9304
1730.000000 0.9299 0.9295 0.9290 0.9285 0.9281
1725.000000 0.9276 0.9273 0.9269 0.9264 0.9259
1720.000000 0.9254 0.9249 0.9244 0.9240 0.9235
1715.000000 0.9229 0.9225 0.9221 0.9217 0.9211
1710.000000 0.9206 0.9197 0.9190 0.9181 0.9174
1705.000000 0.9166 0.9159 0.9151 0.9143 0.9135
1700.000000 0.9126 0.9117 0.9109 0.9097 0.9087
1695.000000 0.9075 0.9065 0.9054 0.9044 0.9033
1690.000000 0.9022 0.9011 0.8999 0.8980 0.8964
1685.000000 0.8946 0.8929 0.8911 0.8894 0.8874
1680.000000 0.8844 0.8807 0.8772 0.8736 0.8692
1675.000000 0.8642 0.8593 0.8540 0.8476 0.8396
1670.000000 0.8318 0.8220 0.8115 0.7985 0.7830
1665.000000 0.7703 0.7623 0.7569 0.7515 0.7459
1660.000000 0.7402 0.7345 0.7273 0.7162 0.7047
1655.000000 0.6940 0.6836 0.6753 0.6690 0.6627
1650.000000 0.6549 0.6403 0.6316 0.6116 0.5880
1645.000000 0.5642 0.5402 0.5162 0.4922 0.4682
1640.000000 0.4440 0.4200 0.3961 0.3771 0.3761
1635.000000 0.3749 0.3746 0.3743 0.3739 0.3735
1630.000000 0.3730 0.3719 0.3673 0.3520 0.3413
1625.000000 0.3392 0.3342 0.3370 0.3364 0.3365
1620.000000 0.3366 0.3375 0.3391 0.3409 0.3430
1615.000000 0.3470 0.3599 0.3736 0.3872 0.4008
1610.000000 0.4144 0.4282 0.4418 0.4556 0.4693
1605.000000 0.4831 0.4922 0.4980 0.4919 0.4818
1600.000000 0.4680 0.4542 0.4404 0.4265 0.4128
1595.000000 0.3988 0.3824 0.3834 0.3885 0.4109
1590.000000 0.4482 0.4877 0.5281 0.5551 0.5675
1585.000000 0.5751 0.5829 0.5910 0.5991 0.6087
1580.000000 0.6204 0.6309 0.6395 0.6477 0.6542
1575.000000 0.6593 0.6644 0.6692 0.6731 0.6771
1570.000000 0.6805 0.6836 0.6868 0.6901 0.6938
1565.000000 0.6971 0.6988 0.6996 0.7061 0.6985
1560.000000 0.6861 0.6666 0.6473 0.6278 0.6083
1555.000000 0.5887 0.5693 0.5497 0.5301 0.5106
1550.000000 0.4909 0.4891 0.4903 0.5097 0.5272
1545.000000 0.5448 0.5623 0.5798 0.5974 0.6152
1540.000000 0.6328 0.6504 0.6682 0.6860 0.7037
1535.000000 0.7194 0.7270 0.7298 0.7314 0.7326
1530.000000 0.7335 0.7360 0.6907 0.6666 0.6427
1525.000000 0.6186 0.5946 0.5705 0.5463 0.5222
1520.000000 0.4981 0.4738 0.4496 0.4253 0.4171
1515.000000 0.4173 0.4302 0.4526 0.4751 0.4976
1510.000000 0.5202 0.5428 0.5655 0.5881 0.6107
1505.000000 0.6333 0.6562 0.6789 0.6993 0.7091
1500.000000 0.7114 0.7130 0.7141 0.7150 0.7155
1495.000000 0.7152 0.7136 0.7112 0.7047 0.6777
1490.000000 0.6651 0.6604 0.6581 0.6565 0.6550
1485.000000 0.6532 0.6513 0.6492 0.6471 0.6445
1480.000000 0.6408 0.6369 0.6323 0.6271 0.6209
1475.000000 0.6127 0.6034 0.5847 0.5680 0.5514
1470.000000 0.5346 0.5179 0.5012 0.4844 0.4675
1465.000000 0.4506 0.4338 0.4169 0.4001 0.3819
1460.000000 0.3571 0.3367 0.3176 0.3062 0.3018
1455.000000 0.3002 0.2991 0.2991 0.2999 0.3033
1450.000000 0.3100 0.3180 0.3289 0.3407 0.3521
1445.000000 0.3634 0.3742 0.3839 0.3941 0.4110
1440.000000 0.4238 0.4382 0.4526 0.4670 0.4813
1435.000000 0.4958 0.5103 0.5246 0.5391 0.5537
1430.000000 0.5681 0.5828 0.5974 0.6120 0.6227
1425.000000 0.6227 0.6162 0.5994 0.5808 0.5622
1420.000000 0.5435 0.5262 0.5230 0.5226 0.5289
1415.000000 0.5447 0.5611 0.5774 0.5939 0.6103
1410.000000 0.6268 0.6394 0.6394 0.6394 0.6326
1405.000000 0.6229 0.6131 0.6033 0.5935 0.5836
1400.000000 0.5737 0.5639 0.5592 0.5587 0.5645
1395.000000 0.5740 0.5835 0.5929 0.6077 0.6068
1390.000000 0.6058 0.6020 0.5977 0.5932 0.5864
1385.000000 0.5880 0.5881 0.5898 0.5925 0.5949
1380.000000 0.5983 0.5901 0.5786 0.5670 0.5553
1375.000000 0.5437 0.5320 0.5202 0.5091 0.5040
1370.000000 0.5041 0.5027 0.5068 0.5182 0.5331
1365.000000 0.5466 0.5570 0.5665 0.5762 0.5857
1360.000000 0.5948 0.6030 0.6093 0.6152 0.6202
1355.000000 0.6246 0.6292 0.6395 0.6553 0.6714
1350.000000 0.6876 0.7038 0.7201 0.7314 0.7369
1345.000000 0.7404 0.7428 0.7447 0.7455 0.7460
1340.000000 0.7463 0.7464 0.7465 0.7466 0.7468
1335.000000 0.7473 0.7483 0.7495 0.7519 0.7554
1330.000000 0.7595 0.7635 0.7673 0.7728 0.7787
1325.000000 0.7827 0.7864 0.7897 0.7905 0.7923
1320.000000 0.7916 0.7915 0.7912 0.7900 0.7875
1315.000000 0.7830 0.7665 0.7716 0.7703 0.7714
1310.000000 0.7738 0.7762 0.7792 0.7813 0.7827
1305.000000 0.7858 0.7837 0.7835 0.7823 0.7793
1300.000000 0.7755 0.7643 0.7416 0.7146 0.6875
1295.000000 0.6604 0.6333 0.6060 0.5787 0.5514
1290.000000 0.5242 0.4968 0.4528 0.4524 0.4534
1285.000000 0.4582 0.4632 0.4715 0.4715 0.4690
1280.000000 0.4608 0.4518 0.4429 0.4338 0.4305
1275.000000 0.4440 0.4696 0.4953 0.5211 0.5469
1270.000000 0.5780 0.5921 0.6090 0.6256 0.6420
1265.000000 0.6555 0.6684 0.6813 0.6917 0.7000
1260.000000 0.7080 0.7147 0.7216 0.7285 0.7359
1255.000000 0.7423 0.7475 0.7528 0.7583 0.7640
1250.000000 0.7684 0.7706 0.7718 0.7718 0.7712
1245.000000 0.7703 0.7683 0.7662 0.7628 0.7576
1240.000000 0.7486 0.7370 0.7254 0.7139 0.7022
1235.000000 0.6905 0.6789 0.6672 0.6627 0.6617
1230.000000 0.6643 0.6749 0.6867 0.6987 0.7107
1225.000000 0.7226 0.7285 0.7289 0.7284 0.7254
1220.000000 0.7187 0.6915 0.6563 0.6217 0.5870
1215.000000 0.5521 0.5172 0.4824 0.4309 0.4297
1210.000000 0.4300 0.4515 0.4774 0.5034 0.5295
1205.000000 0.5556 0.5818 0.6079 0.6342 0.6646
1200.000000 0.6833 0.6970 0.7147 0.7311 0.7450
1195.000000 0.7608 0.7730 0.7816 0.7883 0.7949
1190.000000 0.8014 0.8079 0.8140 0.8192 0.8224
1185.000000 0.8233 0.8234 0.8235 0.8230 0.8228
1180.000000 0.8215 0.8195 0.8177 0.8142 0.8098
1175.000000 0.8018 0.7905 0.7757 0.7647 0.7540
1170.000000 0.7433 0.7350 0.7287 0.7244 0.7069
1165.000000 0.6800 0.6632 0.6623 0.6808 0.6987
1160.000000 0.7168 0.7349 0.7531 0.7712 0.7890
1155.000000 0.8014 0.8126 0.8199 0.8210 0.8220
1150.000000 0.8256 0.8226 0.8227 0.8229 0.8227
1145.000000 0.8225 0.8221 0.8218 0.8214 0.8209
1140.000000 0.8203 0.8196 0.8190 0.8168 0.8100
1135.000000 0.7790 0.7554 0.7455 0.7356 0.7262
1130.000000 0.7185 0.7119 0.7074 0.7059 0.7047
1125.000000 0.7037 0.7025 0.6855 0.6640 0.6663
1120.000000 0.6918 0.7171 0.7427 0.7669 0.7741
1115.000000 0.7780 0.7802 0.7812 0.7812 0.7812
1110.000000 0.7771 0.7712 0.7588 0.7422 0.7103
1105.000000 0.6773 0.6442 0.6111 0.5779 0.5446
1100.000000 0.5244 0.5327 0.5551 0.5777 0.6003
1095.000000 0.6229 0.6455 0.6682 0.6910 0.7138
1090.000000 0.7366 0.7596 0.7775 0.7919 0.8042
1085.000000 0.8143 0.8226 0.8303 0.8365 0.8420
1080.000000 0.8463 0.8493 0.8514 0.8532 0.8521
1075.000000 0.8538 0.8539 0.8539 0.8528 0.8504
1070.000000 0.8472 0.8439 0.8326 0.8084 0.7969
1065.000000 0.7834 0.7734 0.7697 0.7692 0.7833
1060.000000 0.7995 0.8148 0.8280 0.8333 0.8366
1055.000000 0.8357 0.8359 0.8340 0.8234 0.8100
1050.000000 0.7991 0.7924 0.7899 0.7928 0.7999
1045.000000 0.8066 0.8136 0.8196 0.8255 0.8315
1040.000000 0.8369 0.8420 0.8473 0.8518 0.8563
1035.000000 0.8599 0.8626 0.8638 0.8645 0.8655
1030.000000 0.8658 0.8658 0.8659 0.8659 0.8653
1025.000000 0.8646 0.8636 0.8611 0.8576 0.8516
1020.000000 0.8411 0.8277 0.8137 0.7984 0.7904
1015.000000 0.7898 0.7918 0.8050 0.8196 0.8335
1010.000000 0.8471 0.8576 0.8680 0.8776 0.8847
1005.000000 0.8911 0.8951 0.8996 0.9044 0.9083
1000.000000 0.9123 0.9143 0.9161 0.9173 0.9158
995.000000 0.9131 0.9114 0.9126 0.9120 0.9126
990.000000 0.9131 0.9137 0.9135 0.9128 0.9115
985.000000 0.9105 0.9067 0.9026 0.8949 0.8864
980.000000 0.8767 0.8598 0.8640 0.8628 0.8623
975.000000 0.8664 0.8720 0.8771 0.8819 0.8869
970.000000 0.8920 0.8972 0.9018 0.9046 0.9075
965.000000 0.9070 0.9048 0.9003 0.8945 0.8874
960.000000 0.8797 0.8703 0.8603 0.8496 0.8384
955.000000 0.8265 0.8122 0.8020 0.7945 0.7902
950.000000 0.7867 0.7878 0.7909 0.8086 0.8349
945.000000 0.8540 0.8682 0.8812 0.8901 0.8983
940.000000 0.9060 0.9103 0.9145 0.9186 0.9211
935.000000 0.9236 0.9261 0.9282 0.9291 0.9301
930.000000 0.9330 0.9314 0.9318 0.9323 0.9312
925.000000 0.9303 0.9293 0.9268 0.9245 0.9209
920.000000 0.9136 0.9035 0.8868 0.8517 0.8028
915.000000 0.7596 0.7622 0.7661 0.7872 0.8025
910.000000 0.8032 0.7879 0.7641 0.7406 0.7410
905.000000 0.7529 0.7702 0.7851 0.7844 0.7846
900.000000 0.7554 0.7243 0.6762 0.6753 0.6880
895.000000 0.7088 0.7295 0.7517 0.7739 0.7918
890.000000 0.8096 0.8262 0.8421 0.8551 0.8632
885.000000 0.8714 0.8794 0.8860 0.8920 0.8980
880.000000 0.9023 0.9062 0.9104 0.9144 0.9181
875.000000 0.9202 0.9224 0.9245 0.9236 0.9253
870.000000 0.9252 0.9243 0.9233 0.9219 0.9193
865.000000 0.9161 0.9111 0.9044 0.8874 0.8600
860.000000 0.8290 0.8016 0.7742 0.7285 0.7289
855.000000 0.7401 0.7685 0.8010 0.8231 0.8355
850.000000 0.8433 0.8443 0.8451 0.8409 0.8271
845.000000 0.7906 0.7532 0.6909 0.6270 0.5825
840.000000 0.6029 0.6609 0.7191 0.7506 0.7923
835.000000 0.8081 0.8182 0.8257 0.8338 0.8311
830.000000 0.8309 0.8258 0.8184 0.8054 0.7927
825.000000 0.7802 0.7628 0.7417 0.7165 0.6881
820.000000 0.6784 0.6740 0.6763 0.6766 0.6756
815.000000 0.6713 0.6670 0.6631 0.6598 0.6555
810.000000 0.6576 0.6597 0.6624 0.6689 0.6757
805.000000 0.6867 0.6853 0.6835 0.6805 0.6782
800.000000 0.6766 0.6767 0.6777 0.6797 0.6819
795.000000 0.6921 0.7146 0.7318 0.7467 0.7597
790.000000 0.7715 0.7793 0.7831 0.7884 0.7865
785.000000 0.7839 0.7755 0.7624 0.7542 0.7463
780.000000 0.7517 0.7569 0.7655 0.7750 0.7752
775.000000 0.7716 0.7628 0.7512 0.7348 0.7097
770.000000 0.6756 0.6770 0.6843 0.7047 0.7236
765.000000 0.7403 0.7565 0.7529 0.7472 0.7301
760.000000 0.7059 0.7070 0.7194 0.7408 0.7623
755.000000 0.7902 0.8118 0.8279 0.8414 0.8531
750.000000 0.8562 0.8590 0.8624 0.8615 0.8588
745.000000 0.8564 0.8547 0.8539 0.8526 0.8504
740.000000 0.8483 0.8460 0.8429 0.8385 0.8342
735.000000 0.8298 0.8254 0.8178 0.8097 0.8015
730.000000 0.7928 0.7852 0.7798 0.7768 0.7758
725.000000 0.7736 0.7693 0.7644 0.7586 0.7521
720.000000 0.7447 0.7375 0.7304 0.7235 0.7164
715.000000 0.7094 0.7044 0.6992 0.6938 0.6884
710.000000 0.6843 0.6805 0.6769 0.6740 0.6712
705.000000 0.6695 0.6683 0.6674 0.6666 0.6658
700.000000 0.6653 0.6647 0.6636 0.6624 0.6609
695.000000 0.6574 0.6538 0.6503 0.6467 0.6431
690.000000 0.6396 0.6367 0.6355 0.6349 0.6363
685.000000 0.6386 0.6447 0.6521 0.6617 0.6757
680.000000 0.6895 0.7013 0.7116 0.7218 0.7318
675.000000 0.7409 0.7481 0.7530 0.7565 0.7582
670.000000 0.7583 0.7582 0.7579 0.7575 0.7571
##END=
