##TITLE=Ethomeen S/20 hydrochloride
##JCAMP-DX=4.24
##DATA TYPE=INFRARED SPECTRUM
##CLASS=COBLENTZ III
##ORIGIN=BRITISH PETROLEUM CO. LTD., ENGLAND
##OWNER=Copyright (C) 1987 by the Coblentz Society
Collection (C) 2018 copyright by the U.S. Secretary of Commerce
on behalf of the United States of America. All rights reserved.
##DATE=1972/07/31
##MOLFORM=C46-48 H74-78 Cl N O10
##SOURCE REFERENCE=COBLENTZ NO. 9066
##$NIST ID=B6009066
##$NIST SOURCE=COBLENTZ
##$NIST IMAGE=cob9066
##SPECTROMETER/DATA SYSTEM=PERKIN-ELMER 157
##STATE=LIQUID (NEAT)
$$ R - DERIVED FROM SOYA FATTY ACID SOURCE
$$ REF. Can. J. Spec., 18,4,101, '73 C. S. DOUSE and P. B. TOOKE
##SAMPLING PROCEDURE=TRANSMISSION
##RESOLUTION=2
##DATA PROCESSING=DIGITIZED BY COBLENTZ SOCIETY (BATCH II) FROM HARD COPY
##XUNITS=1/CM
##YUNITS=TRANSMITTANCE
##XFACTOR=1.0
##YFACTOR=1
##FIRSTX=667
##LASTX=4000
##FIRSTY=0.4364
##MAXX=4000
##MINX=667
##MAXY=0.7588
##MINY=0.0119
##NPOINTS=3334
##XYDATA=(X++(Y..Y))
667.000000 0.4364 0.4388 0.4416 0.4449 0.4488
672.000000 0.4530 0.4579 0.4657 0.4738 0.4776
677.000000 0.4798 0.4820 0.4843 0.4871 0.4900
682.000000 0.4930 0.4955 0.4978 0.5000 0.5020
687.000000 0.5036 0.5053 0.5063 0.5073 0.5083
692.000000 0.5090 0.5097 0.5113 0.5107 0.5112
697.000000 0.5113 0.5114 0.5115 0.5113 0.5108
702.000000 0.5102 0.5086 0.5059 0.5028 0.4993
707.000000 0.4950 0.4904 0.4852 0.4801 0.4748
712.000000 0.4694 0.4632 0.4560 0.4481 0.4397
717.000000 0.4282 0.4154 0.4029 0.3918 0.3909
722.000000 0.3920 0.3924 0.3957 0.4039 0.4122
727.000000 0.4196 0.4295 0.4398 0.4473 0.4540
732.000000 0.4603 0.4655 0.4695 0.4734 0.4773
737.000000 0.4810 0.4841 0.4871 0.4903 0.4937
742.000000 0.4971 0.5003 0.5034 0.5065 0.5092
747.000000 0.5119 0.5146 0.5174 0.5202 0.5226
752.000000 0.5248 0.5270 0.5291 0.5307 0.5324
757.000000 0.5340 0.5351 0.5361 0.5372 0.5379
762.000000 0.5387 0.5393 0.5399 0.5405 0.5410
767.000000 0.5416 0.5418 0.5421 0.5423 0.5423
772.000000 0.5422 0.5426 0.5416 0.5411 0.5405
777.000000 0.5398 0.5388 0.5378 0.5368 0.5355
782.000000 0.5338 0.5320 0.5292 0.5264 0.5237
787.000000 0.5209 0.5178 0.5143 0.5107 0.5071
792.000000 0.5033 0.4990 0.4946 0.4897 0.4845
797.000000 0.4790 0.4728 0.4670 0.4625 0.4580
802.000000 0.4535 0.4486 0.4429 0.4393 0.4362
807.000000 0.4332 0.4301 0.4265 0.4216 0.4166
812.000000 0.4115 0.4064 0.4016 0.3967 0.3904
817.000000 0.3845 0.3793 0.3757 0.3721 0.3684
822.000000 0.3652 0.3623 0.3593 0.3551 0.3511
827.000000 0.3472 0.3383 0.3282 0.3260 0.3236
832.000000 0.3193 0.3134 0.3117 0.3103 0.3092
837.000000 0.3083 0.3074 0.3065 0.3058 0.3052
842.000000 0.3049 0.3035 0.3054 0.3059 0.3065
847.000000 0.3071 0.3080 0.3092 0.3107 0.3129
852.000000 0.3158 0.3193 0.3228 0.3248 0.3261
857.000000 0.3270 0.3270 0.3281 0.3262 0.3248
862.000000 0.3228 0.3208 0.3189 0.3170 0.3152
867.000000 0.3133 0.3121 0.3112 0.3109 0.3106
872.000000 0.3103 0.3094 0.3038 0.2976 0.2920
877.000000 0.2862 0.2793 0.2716 0.2687 0.2652
882.000000 0.2599 0.2566 0.2548 0.2539 0.2528
887.000000 0.2543 0.2554 0.2579 0.2620 0.2666
892.000000 0.2719 0.2780 0.2862 0.2942 0.2996
897.000000 0.3046 0.3083 0.3096 0.3104 0.3110
902.000000 0.3102 0.3103 0.3047 0.2992 0.2954
907.000000 0.2931 0.2893 0.2845 0.2796 0.2747
912.000000 0.2699 0.2643 0.2587 0.2535 0.2481
917.000000 0.2427 0.2372 0.2319 0.2267 0.2214
922.000000 0.2171 0.2129 0.2088 0.2046 0.2001
927.000000 0.1952 0.1905 0.1857 0.1816 0.1775
932.000000 0.1735 0.1696 0.1653 0.1605 0.1561
937.000000 0.1540 0.1538 0.1536 0.1534 0.1532
942.000000 0.1512 0.1530 0.1530 0.1532 0.1533
947.000000 0.1535 0.1537 0.1547 0.1569 0.1607
952.000000 0.1653 0.1700 0.1749 0.1797 0.1845
957.000000 0.1894 0.1946 0.1998 0.2049 0.2102
962.000000 0.2156 0.2210 0.2264 0.2317 0.2370
967.000000 0.2424 0.2485 0.2546 0.2587 0.2625
972.000000 0.2646 0.2658 0.2653 0.2673 0.2620
977.000000 0.2583 0.2551 0.2519 0.2486 0.2453
982.000000 0.2427 0.2403 0.2378 0.2353 0.2327
987.000000 0.2301 0.2274 0.2247 0.2227 0.2209
992.000000 0.2202 0.2196 0.2190 0.2183 0.2178
997.000000 0.2171 0.2165 0.2159 0.2153 0.2146
1002.000000 0.2136 0.2127 0.2117 0.2100 0.2081
1007.000000 0.2059 0.2036 0.2013 0.1974 0.1930
1012.000000 0.1879 0.1808 0.1744 0.1681 0.1620
1017.000000 0.1561 0.1503 0.1453 0.1402 0.1353
1022.000000 0.1304 0.1256 0.1153 0.1046 0.0982
1027.000000 0.0940 0.0899 0.0849 0.0781 0.0718
1032.000000 0.0655 0.0590 0.0568 0.0558 0.0549
1037.000000 0.0539 0.0529 0.0519 0.0510 0.0500
1042.000000 0.0490 0.0478 0.0467 0.0455 0.0444
1047.000000 0.0428 0.0411 0.0395 0.0379 0.0353
1052.000000 0.0328 0.0295 0.0259 0.0225 0.0194
1057.000000 0.0166 0.0151 0.0144 0.0144 0.0144
1062.000000 0.0144 0.0143 0.0143 0.0143 0.0143
1067.000000 0.0142 0.0142 0.0142 0.0142 0.0142
1072.000000 0.0141 0.0141 0.0141 0.0141 0.0141
1077.000000 0.0140 0.0140 0.0140 0.0140 0.0139
1082.000000 0.0139 0.0139 0.0139 0.0139 0.0138
1087.000000 0.0138 0.0138 0.0138 0.0138 0.0137
1092.000000 0.0137 0.0137 0.0137 0.0137 0.0136
1097.000000 0.0136 0.0136 0.0136 0.0136 0.0135
1102.000000 0.0135 0.0135 0.0135 0.0135 0.0134
1107.000000 0.0134 0.0134 0.0134 0.0134 0.0133
1112.000000 0.0133 0.0133 0.0133 0.0133 0.0132
1117.000000 0.0119 0.0132 0.0132 0.0132 0.0131
1122.000000 0.0131 0.0131 0.0131 0.0131 0.0130
1127.000000 0.0130 0.0130 0.0130 0.0130 0.0130
1132.000000 0.0129 0.0129 0.0129 0.0129 0.0129
1137.000000 0.0129 0.0129 0.0130 0.0130 0.0133
1142.000000 0.0138 0.0143 0.0148 0.0163 0.0195
1147.000000 0.0234 0.0265 0.0288 0.0299 0.0305
1152.000000 0.0308 0.0315 0.0341 0.0415 0.0532
1157.000000 0.0648 0.0764 0.0880 0.1001 0.1126
1162.000000 0.1254 0.1418 0.1540 0.1617 0.1681
1167.000000 0.1748 0.1850 0.2276 0.2436 0.2542
1172.000000 0.2699 0.2790 0.2872 0.2960 0.3051
1177.000000 0.3183 0.3293 0.3365 0.3414 0.3447
1182.000000 0.3481 0.3522 0.3561 0.3598 0.3644
1187.000000 0.3683 0.3710 0.3726 0.3740 0.3749
1192.000000 0.3754 0.3757 0.3760 0.3760 0.3759
1197.000000 0.3737 0.3753 0.3751 0.3745 0.3736
1202.000000 0.3717 0.3694 0.3652 0.3598 0.3535
1207.000000 0.3462 0.3394 0.3330 0.3274 0.3214
1212.000000 0.3152 0.3125 0.3106 0.3091 0.3075
1217.000000 0.3046 0.3002 0.2960 0.2884 0.2820
1222.000000 0.2768 0.2722 0.2675 0.2626 0.2569
1227.000000 0.2495 0.2326 0.2214 0.2123 0.2059
1232.000000 0.1998 0.1936 0.1877 0.1819 0.1758
1237.000000 0.1686 0.1614 0.1544 0.1486 0.1442
1242.000000 0.1398 0.1361 0.1343 0.1335 0.1336
1247.000000 0.1324 0.1340 0.1345 0.1356 0.1379
1252.000000 0.1420 0.1476 0.1533 0.1588 0.1644
1257.000000 0.1700 0.1756 0.1811 0.1867 0.1922
1262.000000 0.1977 0.2033 0.2087 0.2113 0.2119
1267.000000 0.2120 0.2116 0.2089 0.2049 0.2009
1272.000000 0.1970 0.1930 0.1890 0.1851 0.1811
1277.000000 0.1772 0.1732 0.1693 0.1654 0.1615
1282.000000 0.1576 0.1536 0.1498 0.1464 0.1445
1287.000000 0.1429 0.1418 0.1413 0.1411 0.1410
1292.000000 0.1398 0.1414 0.1422 0.1429 0.1437
1297.000000 0.1450 0.1466 0.1488 0.1535 0.1594
1302.000000 0.1653 0.1711 0.1769 0.1827 0.1885
1307.000000 0.1942 0.2000 0.2058 0.2116 0.2160
1312.000000 0.2174 0.2178 0.2182 0.2184 0.2186
1317.000000 0.2188 0.2191 0.2196 0.2205 0.2237
1322.000000 0.2290 0.2341 0.2393 0.2444 0.2495
1327.000000 0.2547 0.2593 0.2607 0.2604 0.2615
1332.000000 0.2584 0.2570 0.2553 0.2475 0.2340
1337.000000 0.2206 0.2072 0.1937 0.1803 0.1669
1342.000000 0.1536 0.1403 0.1270 0.1137 0.1021
1347.000000 0.0996 0.1022 0.0994 0.1170 0.1244
1352.000000 0.1317 0.1391 0.1465 0.1538 0.1605
1357.000000 0.1648 0.1713 0.1753 0.1792 0.1828
1362.000000 0.1862 0.1893 0.1923 0.1947 0.1967
1367.000000 0.1987 0.2004 0.2019 0.2033 0.2047
1372.000000 0.2063 0.2077 0.2096 0.2124 0.2156
1377.000000 0.2202 0.2260 0.2331 0.2454 0.2614
1382.000000 0.2654 0.2659 0.2666 0.2671 0.2674
1387.000000 0.2674 0.2674 0.2675 0.2675 0.2675
1392.000000 0.2673 0.2672 0.2672 0.2671 0.2669
1397.000000 0.2667 0.2677 0.2663 0.2661 0.2659
1402.000000 0.2656 0.2651 0.2645 0.2640 0.2629
1407.000000 0.2614 0.2599 0.2583 0.2565 0.2548
1412.000000 0.2530 0.2511 0.2491 0.2472 0.2452
1417.000000 0.2428 0.2401 0.2370 0.2301 0.2211
1422.000000 0.2148 0.2082 0.2015 0.1945 0.1870
1427.000000 0.1795 0.1719 0.1642 0.1573 0.1522
1432.000000 0.1473 0.1425 0.1372 0.1302 0.1229
1437.000000 0.1179 0.1139 0.1099 0.1059 0.1011
1442.000000 0.0960 0.0903 0.0830 0.0776 0.0741
1447.000000 0.0718 0.0702 0.0686 0.0679 0.0675
1452.000000 0.0672 0.0668 0.0665 0.0665 0.0665
1457.000000 0.0666 0.0666 0.0666 0.0667 0.0664
1462.000000 0.0676 0.0681 0.0689 0.0702 0.0720
1467.000000 0.0819 0.1017 0.1226 0.1418 0.1537
1472.000000 0.1599 0.1638 0.1672 0.1699 0.1726
1477.000000 0.1751 0.1906 0.2104 0.2528 0.2797
1482.000000 0.2966 0.3133 0.3299 0.3465 0.3631
1487.000000 0.3797 0.3962 0.4128 0.4292 0.4457
1492.000000 0.4621 0.4786 0.4950 0.5113 0.5277
1497.000000 0.5441 0.5604 0.5767 0.5930 0.6092
1502.000000 0.6213 0.6269 0.6287 0.6296 0.6306
1507.000000 0.6315 0.6322 0.6328 0.6334 0.6344
1512.000000 0.6359 0.6377 0.6400 0.6431 0.6475
1517.000000 0.6565 0.6590 0.6612 0.6624 0.6632
1522.000000 0.6640 0.6649 0.6657 0.6664 0.6669
1527.000000 0.6674 0.6678 0.6683 0.6688 0.6692
1532.000000 0.6694 0.6695 0.6696 0.6697 0.6698
1537.000000 0.6700 0.6701 0.6702 0.6703 0.6704
1542.000000 0.6705 0.6706 0.6706 0.6707 0.6708
1547.000000 0.6708 0.6710 0.6710 0.6711 0.6711
1552.000000 0.6711 0.6710 0.6710 0.6710 0.6710
1557.000000 0.6710 0.6710 0.6710 0.6710 0.6710
1562.000000 0.6709 0.6709 0.6708 0.6719 0.6707
1567.000000 0.6706 0.6706 0.6705 0.6704 0.6703
1572.000000 0.6703 0.6702 0.6700 0.6698 0.6696
1577.000000 0.6694 0.6693 0.6686 0.6676 0.6665
1582.000000 0.6653 0.6640 0.6625 0.6607 0.6585
1587.000000 0.6562 0.6540 0.6517 0.6496 0.6475
1592.000000 0.6453 0.6432 0.6411 0.6384 0.6354
1597.000000 0.6323 0.6293 0.6262 0.6234 0.6207
1602.000000 0.6180 0.6154 0.6129 0.6103 0.6077
1607.000000 0.6051 0.6023 0.5994 0.5966 0.5938
1612.000000 0.5910 0.5887 0.5865 0.5843 0.5821
1617.000000 0.5800 0.5778 0.5757 0.5738 0.5719
1622.000000 0.5700 0.5682 0.5663 0.5644 0.5622
1627.000000 0.5607 0.5603 0.5598 0.5594 0.5592
1632.000000 0.5593 0.5574 0.5596 0.5596 0.5612
1637.000000 0.5633 0.5653 0.5673 0.5709 0.5744
1642.000000 0.5771 0.5794 0.5815 0.5835 0.5854
1647.000000 0.5870 0.5887 0.5902 0.5918 0.5930
1652.000000 0.5942 0.5954 0.5964 0.5973 0.5980
1657.000000 0.5993 0.6030 0.6093 0.6156 0.6218
1662.000000 0.6280 0.6342 0.6405 0.6467 0.6529
1667.000000 0.6580 0.6611 0.6635 0.6654 0.6666
1672.000000 0.6678 0.6686 0.6692 0.6699 0.6705
1677.000000 0.6709 0.6712 0.6716 0.6718 0.6719
1682.000000 0.6719 0.6717 0.6716 0.6733 0.6712
1687.000000 0.6711 0.6706 0.6699 0.6693 0.6685
1692.000000 0.6677 0.6668 0.6659 0.6650 0.6638
1697.000000 0.6627 0.6615 0.6603 0.6593 0.6585
1702.000000 0.6576 0.6566 0.6558 0.6551 0.6546
1707.000000 0.6543 0.6539 0.6536 0.6532 0.6531
1712.000000 0.6531 0.6532 0.6535 0.6542 0.6552
1717.000000 0.6568 0.6504 0.6605 0.6625 0.6646
1722.000000 0.6671 0.6710 0.6768 0.6884 0.6948
1727.000000 0.6972 0.6987 0.7002 0.7013 0.7021
1732.000000 0.7029 0.7036 0.7043 0.7050 0.7057
1737.000000 0.7064 0.7071 0.7080 0.7092 0.7106
1742.000000 0.7120 0.7134 0.7148 0.7162 0.7176
1747.000000 0.7191 0.7205 0.7219 0.7233 0.7248
1752.000000 0.7264 0.7279 0.7295 0.7310 0.7325
1757.000000 0.7341 0.7359 0.7377 0.7397 0.7416
1762.000000 0.7435 0.7451 0.7461 0.7472 0.7484
1767.000000 0.7495 0.7506 0.7512 0.7516 0.7519
1772.000000 0.7523 0.7526 0.7530 0.7534 0.7537
1777.000000 0.7541 0.7541 0.7542 0.7542 0.7542
1782.000000 0.7541 0.7541 0.7541 0.7541 0.7541
1787.000000 0.7540 0.7540 0.7540 0.7540 0.7540
1792.000000 0.7540 0.7539 0.7539 0.7539 0.7538
1797.000000 0.7538 0.7538 0.7538 0.7537 0.7537
1802.000000 0.7549 0.7537 0.7536 0.7536 0.7536
1807.000000 0.7536 0.7535 0.7535 0.7535 0.7535
1812.000000 0.7534 0.7534 0.7534 0.7534 0.7533
1817.000000 0.7532 0.7531 0.7529 0.7526 0.7524
1822.000000 0.7523 0.7521 0.7519 0.7517 0.7515
1827.000000 0.7513 0.7511 0.7509 0.7508 0.7506
1832.000000 0.7504 0.7502 0.7500 0.7496 0.7492
1837.000000 0.7488 0.7483 0.7478 0.7474 0.7469
1842.000000 0.7465 0.7460 0.7454 0.7448 0.7441
1847.000000 0.7434 0.7428 0.7421 0.7415 0.7409
1852.000000 0.7403 0.7396 0.7389 0.7382 0.7374
1857.000000 0.7363 0.7352 0.7342 0.7331 0.7320
1862.000000 0.7309 0.7299 0.7296 0.7293 0.7291
1867.000000 0.7289 0.7286 0.7283 0.7281 0.7279
1872.000000 0.7276 0.7273 0.7269 0.7262 0.7255
1877.000000 0.7248 0.7241 0.7231 0.7219 0.7206
1882.000000 0.7193 0.7179 0.7166 0.7153 0.7140
1887.000000 0.7128 0.7118 0.7110 0.7102 0.7094
1892.000000 0.7086 0.7077 0.7069 0.7061 0.7050
1897.000000 0.7038 0.7027 0.7016 0.7005 0.6994
1902.000000 0.6982 0.6971 0.6959 0.6941 0.6922
1907.000000 0.6903 0.6884 0.6865 0.6845 0.6823
1912.000000 0.6800 0.6779 0.6767 0.6757 0.6747
1917.000000 0.6737 0.6728 0.6718 0.6708 0.6699
1922.000000 0.6692 0.6685 0.6678 0.6672 0.6665
1927.000000 0.6659 0.6652 0.6646 0.6641 0.6636
1932.000000 0.6632 0.6628 0.6624 0.6620 0.6614
1937.000000 0.6608 0.6601 0.6599 0.6597 0.6595
1942.000000 0.6593 0.6591 0.6590 0.6590 0.6583
1947.000000 0.6590 0.6591 0.6592 0.6592 0.6593
1952.000000 0.6594 0.6594 0.6594 0.6595 0.6595
1957.000000 0.6598 0.6601 0.6605 0.6608 0.6611
1962.000000 0.6615 0.6621 0.6629 0.6636 0.6644
1967.000000 0.6651 0.6658 0.6665 0.6673 0.6681
1972.000000 0.6688 0.6695 0.6701 0.6707 0.6714
1977.000000 0.6719 0.6724 0.6726 0.6728 0.6730
1982.000000 0.6731 0.6732 0.6734 0.6736 0.6738
1987.000000 0.6740 0.6741 0.6743 0.6744 0.6746
1992.000000 0.6747 0.6749 0.6750 0.6752 0.6753
1997.000000 0.6755 0.6756 0.6757 0.6759 0.6759
2002.000000 0.6760 0.6760 0.6760 0.6760 0.6760
2007.000000 0.6760 0.6760 0.6760 0.6761 0.6761
2012.000000 0.6761 0.6760 0.6759 0.6758 0.6758
2017.000000 0.6756 0.6755 0.6755 0.6773 0.6754
2022.000000 0.6752 0.6751 0.6750 0.6748 0.6746
2027.000000 0.6745 0.6742 0.6740 0.6738 0.6736
2032.000000 0.6734 0.6733 0.6731 0.6729 0.6726
2037.000000 0.6724 0.6722 0.6720 0.6717 0.6715
2042.000000 0.6713 0.6710 0.6706 0.6702 0.6698
2047.000000 0.6694 0.6690 0.6686 0.6683 0.6679
2052.000000 0.6673 0.6666 0.6659 0.6652 0.6644
2057.000000 0.6637 0.6630 0.6624 0.6618 0.6613
2062.000000 0.6607 0.6601 0.6596 0.6590 0.6584
2067.000000 0.6579 0.6573 0.6568 0.6561 0.6554
2072.000000 0.6546 0.6538 0.6530 0.6521 0.6513
2077.000000 0.6505 0.6497 0.6489 0.6480 0.6472
2082.000000 0.6464 0.6457 0.6449 0.6441 0.6434
2087.000000 0.6426 0.6419 0.6412 0.6406 0.6401
2092.000000 0.6395 0.6389 0.6383 0.6378 0.6372
2097.000000 0.6366 0.6361 0.6355 0.6349 0.6344
2102.000000 0.6338 0.6332 0.6327 0.6321 0.6315
2107.000000 0.6309 0.6303 0.6297 0.6292 0.6286
2112.000000 0.6281 0.6275 0.6269 0.6263 0.6257
2117.000000 0.6252 0.6246 0.6241 0.6235 0.6229
2122.000000 0.6224 0.6218 0.6212 0.6206 0.6201
2127.000000 0.6195 0.6189 0.6183 0.6178 0.6172
2132.000000 0.6166 0.6160 0.6155 0.6149 0.6144
2137.000000 0.6138 0.6132 0.6126 0.6121 0.6115
2142.000000 0.6109 0.6103 0.6097 0.6091 0.6085
2147.000000 0.6078 0.6072 0.6066 0.6060 0.6054
2152.000000 0.6047 0.6041 0.6035 0.6030 0.6023
2157.000000 0.6017 0.6011 0.6005 0.5998 0.5992
2162.000000 0.5986 0.5980 0.5974 0.5968 0.5962
2167.000000 0.5956 0.5950 0.5944 0.5937 0.5932
2172.000000 0.5927 0.5921 0.5916 0.5911 0.5905
2177.000000 0.5900 0.5894 0.5889 0.5883 0.5878
2182.000000 0.5873 0.5867 0.5861 0.5856 0.5851
2187.000000 0.5846 0.5840 0.5833 0.5826 0.5818
2192.000000 0.5811 0.5803 0.5796 0.5789 0.5782
2197.000000 0.5774 0.5767 0.5760 0.5753 0.5745
2202.000000 0.5738 0.5730 0.5721 0.5712 0.5702
2207.000000 0.5693 0.5683 0.5673 0.5664 0.5654
2212.000000 0.5644 0.5635 0.5626 0.5616 0.5607
2217.000000 0.5596 0.5585 0.5573 0.5562 0.5551
2222.000000 0.5540 0.5529 0.5518 0.5507 0.5495
2227.000000 0.5484 0.5473 0.5462 0.5450 0.5439
2232.000000 0.5428 0.5417 0.5405 0.5394 0.5383
2237.000000 0.5372 0.5360 0.5349 0.5338 0.5328
2242.000000 0.5318 0.5308 0.5299 0.5290 0.5280
2247.000000 0.5271 0.5261 0.5252 0.5243 0.5234
2252.000000 0.5225 0.5216 0.5206 0.5197 0.5187
2257.000000 0.5178 0.5169 0.5157 0.5145 0.5132
2262.000000 0.5120 0.5108 0.5096 0.5083 0.5070
2267.000000 0.5058 0.5046 0.5033 0.5021 0.5009
2272.000000 0.4997 0.4985 0.4973 0.4961 0.4950
2277.000000 0.4938 0.4926 0.4915 0.4903 0.4891
2282.000000 0.4879 0.4868 0.4856 0.4844 0.4832
2287.000000 0.4820 0.4808 0.4796 0.4784 0.4772
2292.000000 0.4760 0.4748 0.4735 0.4724 0.4712
2297.000000 0.4700 0.4688 0.4676 0.4664 0.4651
2302.000000 0.4637 0.4620 0.4602 0.4584 0.4566
2307.000000 0.4549 0.4531 0.4513 0.4496 0.4478
2312.000000 0.4460 0.4440 0.4414 0.4386 0.4354
2317.000000 0.4321 0.4289 0.4256 0.4232 0.4209
2322.000000 0.4190 0.4172 0.4154 0.4137 0.4119
2327.000000 0.4102 0.4085 0.4068 0.4050 0.4033
2332.000000 0.4015 0.3998 0.3980 0.3963 0.3945
2337.000000 0.3928 0.3911 0.3894 0.3877 0.3859
2342.000000 0.3842 0.3825 0.3808 0.3790 0.3773
2347.000000 0.3757 0.3739 0.3722 0.3705 0.3688
2352.000000 0.3671 0.3653 0.3636 0.3618 0.3599
2357.000000 0.3586 0.3575 0.3564 0.3553 0.3544
2362.000000 0.3541 0.3538 0.3535 0.3532 0.3529
2367.000000 0.3526 0.3523 0.3521 0.3519 0.3517
2372.000000 0.3515 0.3514 0.3512 0.3510 0.3509
2377.000000 0.3507 0.3506 0.3504 0.3503 0.3501
2382.000000 0.3495 0.3488 0.3482 0.3476 0.3467
2387.000000 0.3457 0.3447 0.3437 0.3427 0.3412
2392.000000 0.3398 0.3382 0.3366 0.3351 0.3335
2397.000000 0.3319 0.3304 0.3289 0.3274 0.3259
2402.000000 0.3244 0.3231 0.3218 0.3209 0.3200
2407.000000 0.3191 0.3181 0.3172 0.3163 0.3154
2412.000000 0.3145 0.3136 0.3126 0.3117 0.3108
2417.000000 0.3099 0.3089 0.3079 0.3069 0.3057
2422.000000 0.3044 0.3032 0.3020 0.3007 0.2995
2427.000000 0.2983 0.2970 0.2958 0.2945 0.2931
2432.000000 0.2917 0.2903 0.2889 0.2875 0.2861
2437.000000 0.2848 0.2834 0.2820 0.2792 0.2765
2442.000000 0.2743 0.2724 0.2708 0.2698 0.2689
2447.000000 0.2680 0.2670 0.2662 0.2655 0.2648
2452.000000 0.2641 0.2634 0.2628 0.2623 0.2619
2457.000000 0.2617 0.2614 0.2612 0.2611 0.2609
2462.000000 0.2608 0.2607 0.2605 0.2604 0.2603
2467.000000 0.2602 0.2600 0.2600 0.2599 0.2598
2472.000000 0.2598 0.2598 0.2598 0.2598 0.2598
2477.000000 0.2598 0.2597 0.2597 0.2597 0.2597
2482.000000 0.2597 0.2596 0.2596 0.2596 0.2596
2487.000000 0.2596 0.2596 0.2596 0.2596 0.2595
2492.000000 0.2595 0.2594 0.2594 0.2594 0.2593
2497.000000 0.2593 0.2592 0.2592 0.2592 0.2591
2502.000000 0.2591 0.2590 0.2590 0.2590 0.2589
2507.000000 0.2589 0.2589 0.2589 0.2589 0.2587
2512.000000 0.2585 0.2584 0.2583 0.2582 0.2580
2517.000000 0.2578 0.2577 0.2575 0.2574 0.2573
2522.000000 0.2571 0.2570 0.2568 0.2567 0.2565
2527.000000 0.2563 0.2561 0.2556 0.2552 0.2548
2532.000000 0.2543 0.2539 0.2534 0.2530 0.2525
2537.000000 0.2520 0.2516 0.2510 0.2504 0.2499
2542.000000 0.2498 0.2497 0.2496 0.2495 0.2494
2547.000000 0.2494 0.2493 0.2492 0.2491 0.2491
2552.000000 0.2490 0.2489 0.2489 0.2489 0.2489
2557.000000 0.2489 0.2489 0.2490 0.2490 0.2490
2562.000000 0.2491 0.2491 0.2491 0.2491 0.2491
2567.000000 0.2492 0.2493 0.2494 0.2495 0.2497
2572.000000 0.2498 0.2492 0.2501 0.2502 0.2504
2577.000000 0.2505 0.2507 0.2508 0.2510 0.2511
2582.000000 0.2512 0.2513 0.2515 0.2516 0.2518
2587.000000 0.2520 0.2522 0.2523 0.2525 0.2527
2592.000000 0.2528 0.2530 0.2532 0.2534 0.2535
2597.000000 0.2537 0.2539 0.2541 0.2542 0.2544
2602.000000 0.2546 0.2547 0.2549 0.2551 0.2552
2607.000000 0.2554 0.2555 0.2557 0.2558 0.2560
2612.000000 0.2562 0.2563 0.2565 0.2566 0.2568
2617.000000 0.2569 0.2571 0.2573 0.2575 0.2576
2622.000000 0.2578 0.2579 0.2581 0.2582 0.2583
2627.000000 0.2585 0.2586 0.2588 0.2589 0.2590
2632.000000 0.2591 0.2592 0.2593 0.2594 0.2595
2637.000000 0.2595 0.2596 0.2598 0.2598 0.2598
2642.000000 0.2598 0.2597 0.2595 0.2593 0.2592
2647.000000 0.2590 0.2589 0.2588 0.2586 0.2585
2652.000000 0.2583 0.2581 0.2579 0.2577 0.2575
2657.000000 0.2573 0.2570 0.2566 0.2563 0.2559
2662.000000 0.2556 0.2551 0.2546 0.2541 0.2536
2667.000000 0.2530 0.2525 0.2519 0.2514 0.2508
2672.000000 0.2503 0.2497 0.2491 0.2486 0.2480
2677.000000 0.2474 0.2468 0.2462 0.2456 0.2450
2682.000000 0.2444 0.2438 0.2432 0.2426 0.2420
2687.000000 0.2414 0.2409 0.2403 0.2397 0.2391
2692.000000 0.2386 0.2380 0.2375 0.2372 0.2368
2697.000000 0.2365 0.2363 0.2361 0.2359 0.2357
2702.000000 0.2356 0.2354 0.2352 0.2351 0.2349
2707.000000 0.2347 0.2345 0.2343 0.2341 0.2339
2712.000000 0.2338 0.2336 0.2334 0.2333 0.2331
2717.000000 0.2329 0.2327 0.2325 0.2323 0.2321
2722.000000 0.2320 0.2318 0.2316 0.2314 0.2311
2727.000000 0.2309 0.2306 0.2304 0.2302 0.2299
2732.000000 0.2297 0.2294 0.2292 0.2289 0.2287
2737.000000 0.2284 0.2282 0.2279 0.2277 0.2274
2742.000000 0.2272 0.2269 0.2267 0.2263 0.2258
2747.000000 0.2254 0.2248 0.2243 0.2237 0.2231
2752.000000 0.2225 0.2219 0.2214 0.2208 0.2202
2757.000000 0.2194 0.2184 0.2173 0.2161 0.2148
2762.000000 0.2135 0.2121 0.2105 0.2090 0.2074
2767.000000 0.2057 0.2040 0.2019 0.1994 0.1969
2772.000000 0.1939 0.1901 0.1864 0.1827 0.1793
2777.000000 0.1760 0.1726 0.1692 0.1659 0.1625
2782.000000 0.1591 0.1558 0.1524 0.1491 0.1457
2787.000000 0.1424 0.1390 0.1357 0.1323 0.1290
2792.000000 0.1257 0.1223 0.1190 0.1157 0.1124
2797.000000 0.1091 0.1058 0.1025 0.0992 0.0959
2802.000000 0.0925 0.0892 0.0859 0.0826 0.0793
2807.000000 0.0760 0.0727 0.0694 0.0661 0.0628
2812.000000 0.0595 0.0563 0.0530 0.0497 0.0466
2817.000000 0.0435 0.0404 0.0379 0.0358 0.0337
2822.000000 0.0319 0.0307 0.0295 0.0284 0.0272
2827.000000 0.0261 0.0249 0.0241 0.0233 0.0226
2832.000000 0.0219 0.0212 0.0206 0.0201 0.0197
2837.000000 0.0193 0.0190 0.0188 0.0186 0.0184
2842.000000 0.0183 0.0181 0.0180 0.0179 0.0178
2847.000000 0.0178 0.0177 0.0177 0.0177 0.0176
2852.000000 0.0176 0.0175 0.0174 0.0174 0.0174
2857.000000 0.0174 0.0173 0.0173 0.0173 0.0173
2862.000000 0.0173 0.0173 0.0173 0.0173 0.0173
2867.000000 0.0174 0.0174 0.0174 0.0174 0.0174
2872.000000 0.0174 0.0174 0.0181 0.0174 0.0174
2877.000000 0.0174 0.0174 0.0174 0.0174 0.0175
2882.000000 0.0175 0.0175 0.0176 0.0177 0.0178
2887.000000 0.0180 0.0181 0.0181 0.0182 0.0183
2892.000000 0.0184 0.0185 0.0186 0.0187 0.0188
2897.000000 0.0189 0.0190 0.0190 0.0191 0.0193
2902.000000 0.0194 0.0196 0.0197 0.0198 0.0199
2907.000000 0.0201 0.0202 0.0203 0.0205 0.0206
2912.000000 0.0208 0.0209 0.0211 0.0213 0.0214
2917.000000 0.0216 0.0218 0.0220 0.0222 0.0223
2922.000000 0.0225 0.0227 0.0229 0.0230 0.0232
2927.000000 0.0234 0.0236 0.0238 0.0240 0.0243
2932.000000 0.0252 0.0260 0.0269 0.0279 0.0289
2937.000000 0.0298 0.0316 0.0352 0.0389 0.0425
2942.000000 0.0484 0.0547 0.0611 0.0674 0.0738
2947.000000 0.0802 0.0865 0.0929 0.0992 0.1056
2952.000000 0.1119 0.1182 0.1245 0.1308 0.1371
2957.000000 0.1435 0.1498 0.1561 0.1624 0.1687
2962.000000 0.1750 0.1813 0.1875 0.1938 0.2001
2967.000000 0.2063 0.2126 0.2189 0.2252 0.2314
2972.000000 0.2377 0.2439 0.2501 0.2563 0.2626
2977.000000 0.2688 0.2750 0.2813 0.2875 0.2937
2982.000000 0.2999 0.3061 0.3123 0.3185 0.3247
2987.000000 0.3308 0.3370 0.3432 0.3494 0.3555
2992.000000 0.3617 0.3678 0.3740 0.3773 0.3805
2997.000000 0.3838 0.3862 0.3873 0.3885 0.3896
3002.000000 0.3905 0.3912 0.3920 0.3928 0.3934
3007.000000 0.3941 0.3948 0.3952 0.3956 0.3959
3012.000000 0.3962 0.3965 0.3968 0.3971 0.3974
3017.000000 0.3976 0.3977 0.3979 0.3980 0.3982
3022.000000 0.3983 0.3985 0.3986 0.3987 0.3988
3027.000000 0.3989 0.3990 0.3991 0.3992 0.3993
3032.000000 0.3993 0.3993 0.3994 0.3994 0.3994
3037.000000 0.3994 0.4008 0.3995 0.3995 0.3995
3042.000000 0.3996 0.3996 0.3996 0.3996 0.3994
3047.000000 0.3993 0.3992 0.3991 0.3990 0.3989
3052.000000 0.3988 0.3987 0.3985 0.3983 0.3982
3057.000000 0.3980 0.3978 0.3976 0.3974 0.3972
3062.000000 0.3970 0.3968 0.3966 0.3963 0.3961
3067.000000 0.3959 0.3956 0.3952 0.3948 0.3944
3072.000000 0.3941 0.3937 0.3933 0.3930 0.3926
3077.000000 0.3922 0.3919 0.3914 0.3909 0.3903
3082.000000 0.3897 0.3891 0.3885 0.3878 0.3872
3087.000000 0.3862 0.3849 0.3836 0.3824 0.3807
3092.000000 0.3789 0.3771 0.3754 0.3736 0.3718
3097.000000 0.3700 0.3682 0.3663 0.3645 0.3627
3102.000000 0.3609 0.3591 0.3573 0.3555 0.3537
3107.000000 0.3519 0.3501 0.3484 0.3466 0.3448
3112.000000 0.3429 0.3411 0.3394 0.3376 0.3358
3117.000000 0.3340 0.3322 0.3305 0.3287 0.3269
3122.000000 0.3251 0.3233 0.3215 0.3198 0.3180
3127.000000 0.3162 0.3145 0.3127 0.3109 0.3092
3132.000000 0.3074 0.3057 0.3039 0.3021 0.3003
3137.000000 0.2985 0.2968 0.2950 0.2933 0.2915
3142.000000 0.2898 0.2880 0.2863 0.2845 0.2828
3147.000000 0.2810 0.2792 0.2775 0.2757 0.2740
3152.000000 0.2723 0.2705 0.2688 0.2671 0.2653
3157.000000 0.2636 0.2618 0.2601 0.2583 0.2566
3162.000000 0.2549 0.2531 0.2514 0.2497 0.2480
3167.000000 0.2462 0.2445 0.2428 0.2411 0.2393
3172.000000 0.2376 0.2358 0.2341 0.2324 0.2307
3177.000000 0.2290 0.2273 0.2256 0.2239 0.2222
3182.000000 0.2204 0.2187 0.2170 0.2153 0.2136
3187.000000 0.2119 0.2102 0.2085 0.2068 0.2051
3192.000000 0.2034 0.2017 0.2000 0.1983 0.1965
3197.000000 0.1948 0.1931 0.1915 0.1898 0.1881
3202.000000 0.1867 0.1853 0.1838 0.1824 0.1811
3207.000000 0.1798 0.1785 0.1772 0.1759 0.1745
3212.000000 0.1732 0.1719 0.1705 0.1689 0.1673
3217.000000 0.1657 0.1641 0.1624 0.1606 0.1589
3222.000000 0.1569 0.1546 0.1522 0.1499 0.1474
3227.000000 0.1447 0.1419 0.1391 0.1364 0.1353
3232.000000 0.1342 0.1331 0.1320 0.1309 0.1298
3237.000000 0.1287 0.1276 0.1265 0.1255 0.1244
3242.000000 0.1233 0.1222 0.1212 0.1201 0.1190
3247.000000 0.1180 0.1171 0.1163 0.1155 0.1147
3252.000000 0.1139 0.1131 0.1123 0.1115 0.1107
3257.000000 0.1100 0.1092 0.1084 0.1076 0.1068
3262.000000 0.1060 0.1052 0.1045 0.1040 0.1034
3267.000000 0.1029 0.1023 0.1018 0.1014 0.1009
3272.000000 0.1004 0.0999 0.0994 0.0990 0.0985
3277.000000 0.0980 0.0976 0.0972 0.0967 0.0963
3282.000000 0.0961 0.0959 0.0958 0.0956 0.0954
3287.000000 0.0952 0.0950 0.0948 0.0947 0.0945
3292.000000 0.0943 0.0941 0.0939 0.0938 0.0937
3297.000000 0.0936 0.0935 0.0935 0.0935 0.0935
3302.000000 0.0935 0.0934 0.0934 0.0934 0.0934
3307.000000 0.0933 0.0933 0.0933 0.0933 0.0933
3312.000000 0.0932 0.0932 0.0932 0.0932 0.0932
3317.000000 0.0932 0.0932 0.0932 0.0932 0.0931
3322.000000 0.0931 0.0931 0.0931 0.0931 0.0931
3327.000000 0.0931 0.0931 0.0930 0.0930 0.0930
3332.000000 0.0930 0.0930 0.0930 0.0930 0.0930
3337.000000 0.0930 0.0929 0.0929 0.0929 0.0929
3342.000000 0.0929 0.0924 0.0929 0.0929 0.0929
3347.000000 0.0929 0.0929 0.0929 0.0929 0.0929
3352.000000 0.0928 0.0928 0.0928 0.0928 0.0928
3357.000000 0.0928 0.0928 0.0928 0.0928 0.0928
3362.000000 0.0928 0.0928 0.0928 0.0928 0.0928
3367.000000 0.0928 0.0928 0.0928 0.0930 0.0931
3372.000000 0.0933 0.0934 0.0936 0.0937 0.0938
3377.000000 0.0940 0.0941 0.0942 0.0944 0.0945
3382.000000 0.0946 0.0948 0.0949 0.0950 0.0951
3387.000000 0.0953 0.0954 0.0956 0.0958 0.0960
3392.000000 0.0961 0.0964 0.0966 0.0968 0.0971
3397.000000 0.0973 0.0976 0.0978 0.0980 0.0983
3402.000000 0.0985 0.0988 0.0991 0.0994 0.0997
3407.000000 0.1000 0.1003 0.1007 0.1010 0.1014
3412.000000 0.1017 0.1020 0.1023 0.1027 0.1031
3417.000000 0.1037 0.1042 0.1047 0.1053 0.1059
3422.000000 0.1065 0.1071 0.1077 0.1083 0.1089
3427.000000 0.1096 0.1103 0.1109 0.1117 0.1124
3432.000000 0.1132 0.1140 0.1148 0.1156 0.1164
3437.000000 0.1172 0.1180 0.1189 0.1199 0.1209
3442.000000 0.1220 0.1230 0.1241 0.1253 0.1265
3447.000000 0.1276 0.1288 0.1303 0.1319 0.1335
3452.000000 0.1351 0.1367 0.1383 0.1400 0.1416
3457.000000 0.1433 0.1449 0.1464 0.1479 0.1494
3462.000000 0.1509 0.1523 0.1535 0.1547 0.1560
3467.000000 0.1572 0.1583 0.1593 0.1603 0.1614
3472.000000 0.1624 0.1634 0.1645 0.1655 0.1665
3477.000000 0.1675 0.1685 0.1696 0.1706 0.1716
3482.000000 0.1727 0.1737 0.1747 0.1757 0.1768
3487.000000 0.1778 0.1789 0.1799 0.1810 0.1820
3492.000000 0.1834 0.1852 0.1871 0.1889 0.1908
3497.000000 0.1948 0.2010 0.2072 0.2135 0.2197
3502.000000 0.2235 0.2259 0.2282 0.2305 0.2328
3507.000000 0.2355 0.2384 0.2413 0.2442 0.2471
3512.000000 0.2517 0.2568 0.2619 0.2670 0.2722
3517.000000 0.2764 0.2803 0.2843 0.2883 0.2923
3522.000000 0.2947 0.2968 0.2989 0.3010 0.3031
3527.000000 0.3051 0.3072 0.3092 0.3113 0.3133
3532.000000 0.3154 0.3174 0.3195 0.3215 0.3236
3537.000000 0.3260 0.3283 0.3307 0.3331 0.3355
3542.000000 0.3385 0.3415 0.3446 0.3477 0.3507
3547.000000 0.3553 0.3600 0.3646 0.3693 0.3740
3552.000000 0.3790 0.3840 0.3890 0.3941 0.3991
3557.000000 0.4041 0.4091 0.4142 0.4192 0.4242
3562.000000 0.4292 0.4342 0.4392 0.4442 0.4492
3567.000000 0.4542 0.4591 0.4641 0.4691 0.4740
3572.000000 0.4790 0.4840 0.4889 0.4939 0.4989
3577.000000 0.5038 0.5088 0.5138 0.5187 0.5237
3582.000000 0.5286 0.5336 0.5385 0.5435 0.5484
3587.000000 0.5533 0.5582 0.5631 0.5681 0.5730
3592.000000 0.5779 0.5828 0.5877 0.5926 0.5975
3597.000000 0.6025 0.6074 0.6123 0.6172 0.6221
3602.000000 0.6270 0.6318 0.6367 0.6416 0.6465
3607.000000 0.6514 0.6556 0.6590 0.6624 0.6659
3612.000000 0.6693 0.6725 0.6753 0.6780 0.6808
3617.000000 0.6835 0.6866 0.6939 0.7012 0.7085
3622.000000 0.7158 0.7231 0.7253 0.7263 0.7274
3627.000000 0.7284 0.7295 0.7305 0.7316 0.7327
3632.000000 0.7337 0.7348 0.7358 0.7367 0.7376
3637.000000 0.7385 0.7394 0.7403 0.7412 0.7422
3642.000000 0.7431 0.7440 0.7449 0.7456 0.7463
3647.000000 0.7469 0.7476 0.7482 0.7489 0.7494
3652.000000 0.7500 0.7505 0.7511 0.7517 0.7521
3657.000000 0.7524 0.7528 0.7532 0.7536 0.7539
3662.000000 0.7542 0.7545 0.7548 0.7551 0.7553
3667.000000 0.7555 0.7557 0.7559 0.7561 0.7563
3672.000000 0.7564 0.7565 0.7566 0.7567 0.7568
3677.000000 0.7569 0.7570 0.7571 0.7572 0.7573
3682.000000 0.7574 0.7574 0.7575 0.7576 0.7577
3687.000000 0.7577 0.7578 0.7579 0.7580 0.7581
3692.000000 0.7582 0.7583 0.7583 0.7583 0.7584
3697.000000 0.7584 0.7584 0.7585 0.7585 0.7586
3702.000000 0.7586 0.7586 0.7587 0.7587 0.7587
3707.000000 0.7587 0.7587 0.7587 0.7587 0.7587
3712.000000 0.7587 0.7587 0.7587 0.7587 0.7587
3717.000000 0.7587 0.7587 0.7587 0.7587 0.7588
3722.000000 0.7586 0.7586 0.7586 0.7586 0.7585
3727.000000 0.7585 0.7585 0.7585 0.7585 0.7585
3732.000000 0.7584 0.7584 0.7583 0.7583 0.7582
3737.000000 0.7581 0.7581 0.7580 0.7580 0.7579
3742.000000 0.7579 0.7578 0.7578 0.7578 0.7577
3747.000000 0.7577 0.7577 0.7575 0.7574 0.7573
3752.000000 0.7572 0.7570 0.7569 0.7568 0.7566
3757.000000 0.7565 0.7563 0.7562 0.7561 0.7559
3762.000000 0.7557 0.7556 0.7554 0.7553 0.7551
3767.000000 0.7550 0.7548 0.7547 0.7546 0.7544
3772.000000 0.7542 0.7539 0.7537 0.7535 0.7532
3777.000000 0.7530 0.7528 0.7526 0.7523 0.7521
3782.000000 0.7519 0.7516 0.7514 0.7512 0.7509
3787.000000 0.7507 0.7504 0.7502 0.7500 0.7497
3792.000000 0.7495 0.7493 0.7491 0.7488 0.7486
3797.000000 0.7483 0.7481 0.7478 0.7476 0.7474
3802.000000 0.7472 0.7470 0.7468 0.7466 0.7464
3807.000000 0.7462 0.7460 0.7458 0.7456 0.7453
3812.000000 0.7451 0.7449 0.7447 0.7445 0.7443
3817.000000 0.7441 0.7439 0.7437 0.7434 0.7432
3822.000000 0.7430 0.7428 0.7426 0.7424 0.7422
3827.000000 0.7420 0.7417 0.7415 0.7413 0.7411
3832.000000 0.7409 0.7407 0.7405 0.7403 0.7401
3837.000000 0.7399 0.7396 0.7394 0.7392 0.7390
3842.000000 0.7388 0.7386 0.7384 0.7382 0.7380
3847.000000 0.7378 0.7375 0.7373 0.7371 0.7369
3852.000000 0.7367 0.7364 0.7362 0.7360 0.7358
3857.000000 0.7356 0.7354 0.7351 0.7349 0.7347
3862.000000 0.7345 0.7343 0.7340 0.7339 0.7337
3867.000000 0.7335 0.7333 0.7331 0.7329 0.7328
3872.000000 0.7327 0.7325 0.7324 0.7323 0.7321
3877.000000 0.7320 0.7318 0.7317 0.7315 0.7314
3882.000000 0.7312 0.7311 0.7310 0.7309 0.7307
3887.000000 0.7306 0.7305 0.7303 0.7301 0.7299
3892.000000 0.7297 0.7295 0.7294 0.7289 0.7283
3897.000000 0.7278 0.7273 0.7268 0.7262 0.7258
3902.000000 0.7254 0.7250 0.7246 0.7242 0.7238
3907.000000 0.7235 0.7233 0.7230 0.7227 0.7224
3912.000000 0.7222 0.7219 0.7217 0.7215 0.7213
3917.000000 0.7211 0.7209 0.7207 0.7205 0.7203
3922.000000 0.7201 0.7199 0.7197 0.7195 0.7193
3927.000000 0.7191 0.7188 0.7186 0.7184 0.7182
3932.000000 0.7180 0.7178 0.7176 0.7174 0.7172
3937.000000 0.7170 0.7168 0.7166 0.7164 0.7162
3942.000000 0.7160 0.7158 0.7156 0.7154 0.7152
3947.000000 0.7150 0.7148 0.7145 0.7143 0.7141
3952.000000 0.7139 0.7137 0.7135 0.7133 0.7131
3957.000000 0.7129 0.7127 0.7125 0.7123 0.7121
3962.000000 0.7119 0.7117 0.7115 0.7113 0.7111
3967.000000 0.7109 0.7107 0.7105 0.7103 0.7101
3972.000000 0.7099 0.7097 0.7095 0.7093 0.7091
3977.000000 0.7089 0.7087 0.7085 0.7083 0.7081
3982.000000 0.7079 0.7077 0.7075 0.7073 0.7071
3987.000000 0.7069 0.7067 0.7065 0.7063 0.7061
3992.000000 0.7060 0.7058 0.7056 0.7056 0.7055
3997.000000 0.7055 0.7054 0.7054 0.7054
##END=
