##TITLE=1-CYCLOPENTADIENYL-3-(P-BIPHENYLYL)-1,1,3,3-TETRAMETHYL DISILOXANE
##JCAMP-DX=4.24
##DATA TYPE=INFRARED SPECTRUM
##CLASS=COBLENTZ
##ORIGIN=WYANDOTTE CHEMICALS CORP., WYANDOTTE, MICHIGAN, USA
##OWNER=COBLENTZ SOCIETY
Collection (C) 2018 copyright by the U.S. Secretary of Commerce
on behalf of the United States of America. All rights reserved.
##DATE=Not specified, most likely prior to 1970
##MOLFORM=C21 H26 Si2 O
##SOURCE REFERENCE=COBLENTZ NO. 2799
##$NIST ID=B6002799
##$NIST SOURCE=COBLENTZ
##$NIST IMAGE=cob2799
##SPECTROMETER/DATA SYSTEM=Not specified, most likely a prism, grating, or hybrid spectrometer.
##STATE=LIQUID
##PATH LENGTH=0.003 CM
##SAMPLING PROCEDURE=TRANSMISSION
##RESOLUTION=4
##DATA PROCESSING=DIGITIZED BY NIST FROM HARD COPY
##XUNITS=MICROMETERS
##YUNITS=TRANSMITTANCE
##XFACTOR=1.000000
##YFACTOR=1
##DELTAX=000.006623
##FIRSTX=2.04
##LASTX=15.9801
##FIRSTY=0.96
##MAXX=15.9801
##MINX=2.04
##MAXY=0.993
##MINY=0.008
##NPOINTS=2106
##XYDATA=(X++(Y..Y))
2.040000 0.9600 0.9580 0.9560 0.9550 0.9530
2.073128 0.9510 0.9500 0.9500 0.9500 0.9500
2.106000 0.9510 0.9530 0.9560 0.9610 0.9630
2.139128 0.9630 0.9630 0.9610 0.9600 0.9580
2.172000 0.9550 0.9510 0.9500 0.9480 0.9450
2.205128 0.9430 0.9330 0.9310 0.9310 0.9310
2.238000 0.9330 0.9430 0.9510 0.9560 0.9600
2.271128 0.9610 0.9610 0.9550 0.9510 0.9510
2.305000 0.9480 0.9480 0.9480 0.9480 0.9480
2.338128 0.9480 0.9480 0.9480 0.9460 0.9430
2.371000 0.9400 0.9330 0.9280 0.9200 0.9110
2.404128 0.9100 0.9110 0.9260 0.9330 0.9360
2.437000 0.9430 0.9550 0.9600 0.9630 0.9650
2.470128 0.9660 0.9650 0.9630 0.9560 0.9510
2.503000 0.9460 0.9410 0.9350 0.9330 0.9310
2.536128 0.9330 0.9380 0.9460 0.9530 0.9580
2.570000 0.9600 0.9600 0.9600 0.9600 0.9600
2.603128 0.9560 0.9430 0.9400 0.9350 0.9330
2.636000 0.9300 0.9280 0.9280 0.9250 0.9210
2.669128 0.9200 0.9200 0.9200 0.9210 0.9250
2.702000 0.9260 0.9280 0.9300 0.9310 0.9310
2.735128 0.9330 0.9350 0.9400 0.9450 0.9480
2.768000 0.9530 0.9580 0.9630 0.9650 0.9680
2.801128 0.9700 0.9700 0.9710 0.9710 0.9730
2.834000 0.9750 0.9750 0.9750 0.9750 0.9750
2.867128 0.9750 0.9750 0.9750 0.9760 0.9760
2.901000 0.9760 0.9760 0.9780 0.9780 0.9780
2.934128 0.9780 0.9780 0.9780 0.9780 0.9780
2.967000 0.9780 0.9800 0.9800 0.9800 0.9800
3.000128 0.9780 0.9780 0.9780 0.9780 0.9760
3.033000 0.9750 0.9750 0.9750 0.9730 0.9730
3.066128 0.9700 0.9700 0.9700 0.9680 0.9680
3.099000 0.9660 0.9660 0.9650 0.9650 0.9630
3.132128 0.9610 0.9560 0.9480 0.9400 0.9350
3.166000 0.9280 0.9250 0.9210 0.9130 0.9050
3.199128 0.8860 0.8610 0.8280 0.7900 0.7230
3.232000 0.6820 0.6400 0.5320 0.3840 0.3520
3.265128 0.3510 0.3520 0.4250 0.5070 0.5140
3.298000 0.5140 0.4350 0.4340 0.4350 0.4590
3.331128 0.6650 0.6670 0.6150 0.5640 0.4270
3.364000 0.2910 0.1780 0.1760 0.1780 0.2810
3.397128 0.4450 0.5090 0.6520 0.6800 0.6770
3.430000 0.6350 0.5940 0.5920 0.5590 0.5570
3.463128 0.5600 0.5920 0.6420 0.7330 0.7600
3.497000 0.7820 0.8010 0.8210 0.8400 0.8580
3.530128 0.8710 0.8760 0.8810 0.8860 0.8930
3.563000 0.9000 0.9030 0.9050 0.9050 0.9060
3.596128 0.9100 0.9130 0.9210 0.9300 0.9380
3.629000 0.9480 0.9550 0.9630 0.9660 0.9660
3.662128 0.9650 0.9630 0.9610 0.9610 0.9600
3.695000 0.9600 0.9610 0.9650 0.9660 0.9700
3.728128 0.9730 0.9780 0.9800 0.9810 0.9810
3.762000 0.9780 0.9780 0.9760 0.9730 0.9710
3.795128 0.9710 0.9730 0.9750 0.9760 0.9800
3.828000 0.9810 0.9810 0.9810 0.9800 0.9800
3.861128 0.9810 0.9810 0.9810 0.9850 0.9850
3.894000 0.9810 0.9810 0.9810 0.9810 0.9850
3.927128 0.9850 0.9850 0.9810 0.9800 0.9800
3.960000 0.9810 0.9850 0.9910 0.9930 0.9930
3.993128 0.9910 0.9910 0.9880 0.9850 0.9800
4.026000 0.9760 0.9750 0.9750 0.9730 0.9730
4.059128 0.9730 0.9750 0.9780 0.9780 0.9850
4.093000 0.9910 0.9910 0.9880 0.9830 0.9830
4.126128 0.9810 0.9810 0.9830 0.9830 0.9830
4.159000 0.9830 0.9830 0.9850 0.9860 0.9880
4.192128 0.9880 0.9900 0.9930 0.9930 0.9900
4.225000 0.9860 0.9830 0.9810 0.9810 0.9780
4.258128 0.9710 0.9660 0.9650 0.9650 0.9650
4.291000 0.9660 0.9680 0.9680 0.9680 0.9700
4.324128 0.9700 0.9710 0.9710 0.9710 0.9710
4.358000 0.9710 0.9710 0.9730 0.9750 0.9760
4.391128 0.9800 0.9810 0.9830 0.9830 0.9830
4.424000 0.9810 0.9810 0.9810 0.9810 0.9830
4.457128 0.9830 0.9830 0.9830 0.9830 0.9830
4.490000 0.9810 0.9780 0.9780 0.9780 0.9780
4.523128 0.9780 0.9780 0.9780 0.9780 0.9780
4.556000 0.9760 0.9750 0.9750 0.9750 0.9760
4.589128 0.9780 0.9780 0.9800 0.9800 0.9800
4.623000 0.9800 0.9800 0.9800 0.9780 0.9780
4.656128 0.9780 0.9780 0.9780 0.9780 0.9800
4.689000 0.9800 0.9800 0.9800 0.9780 0.9760
4.722128 0.9760 0.9760 0.9760 0.9760 0.9760
4.755000 0.9750 0.9730 0.9710 0.9710 0.9710
4.788128 0.9710 0.9710 0.9710 0.9730 0.9750
4.821000 0.9760 0.9780 0.9800 0.9800 0.9800
4.854128 0.9810 0.9810 0.9830 0.9830 0.9830
4.887000 0.9810 0.9800 0.9800 0.9800 0.9780
4.920128 0.9780 0.9760 0.9760 0.9760 0.9730
4.954000 0.9700 0.9700 0.9680 0.9680 0.9700
4.987128 0.9710 0.9730 0.9730 0.9730 0.9750
5.020000 0.9750 0.9760 0.9780 0.9780 0.9780
5.053128 0.9780 0.9760 0.9750 0.9700 0.9680
5.086000 0.9680 0.9680 0.9680 0.9660 0.9650
5.119128 0.9600 0.9530 0.9500 0.9430 0.9350
5.152000 0.9210 0.9060 0.8980 0.8910 0.8830
5.185128 0.8660 0.8510 0.8500 0.8500 0.8500
5.219000 0.8530 0.8660 0.8680 0.8680 0.8630
5.252128 0.8480 0.8460 0.8460 0.8480 0.8600
5.285000 0.8850 0.9050 0.9080 0.9050 0.9000
5.318128 0.8930 0.8910 0.8910 0.8910 0.8950
5.351000 0.8980 0.9000 0.9010 0.9010 0.9080
5.384128 0.9200 0.9310 0.9430 0.9510 0.9560
5.417000 0.9600 0.9650 0.9660 0.9660 0.9680
5.450128 0.9680 0.9650 0.9630 0.9630 0.9630
5.483000 0.9560 0.9460 0.9280 0.9150 0.9050
5.516128 0.9010 0.8960 0.8860 0.8800 0.8750
5.550000 0.8700 0.8630 0.8610 0.8630 0.8650
5.583128 0.8700 0.8800 0.8950 0.9050 0.9080
5.616000 0.9130 0.9160 0.9250 0.9280 0.9250
5.649128 0.9200 0.9110 0.9100 0.9100 0.9100
5.682000 0.9160 0.9160 0.9080 0.9030 0.9000
5.715128 0.8950 0.8900 0.8850 0.8850 0.8830
5.748000 0.8810 0.8810 0.8830 0.8900 0.8930
5.781128 0.8930 0.8930 0.8910 0.8910 0.8910
5.815000 0.8950 0.9030 0.9160 0.9160 0.9130
5.848128 0.9110 0.9080 0.9060 0.9030 0.9010
5.881000 0.9010 0.9010 0.9050 0.9110 0.9110
5.914128 0.9100 0.9030 0.8980 0.8960 0.8930
5.947000 0.8850 0.8660 0.8510 0.8450 0.8350
5.980128 0.8330 0.8330 0.8380 0.8510 0.8560
6.013000 0.8580 0.8650 0.8660 0.8700 0.8730
6.046128 0.8750 0.8730 0.8730 0.8680 0.8560
6.079000 0.8410 0.8260 0.8160 0.7950 0.7650
6.112128 0.7470 0.7380 0.7320 0.7220 0.7130
6.146000 0.7100 0.7030 0.7020 0.6950 0.6750
6.179128 0.6330 0.5900 0.4900 0.4070 0.3360
6.212000 0.2620 0.1890 0.1880 0.1910 0.2790
6.245128 0.4420 0.5440 0.6450 0.7380 0.7480
6.278000 0.7480 0.7520 0.7630 0.7800 0.8010
6.311128 0.8200 0.8230 0.8230 0.8180 0.8110
6.344000 0.8110 0.8160 0.8250 0.8300 0.8330
6.377128 0.8400 0.8430 0.8430 0.8380 0.8210
6.411000 0.8010 0.7820 0.7550 0.7250 0.6850
6.444128 0.6680 0.6500 0.6480 0.6500 0.7200
6.477000 0.7600 0.7900 0.8130 0.8230 0.8280
6.510128 0.8310 0.8380 0.8400 0.8410 0.8400
6.543000 0.8380 0.8300 0.8250 0.8200 0.8110
6.576128 0.8050 0.7970 0.7880 0.7780 0.7700
6.609000 0.7600 0.7500 0.7300 0.7250 0.7250
6.642128 0.7300 0.7570 0.7580 0.7550 0.7000
6.675000 0.6670 0.6320 0.5340 0.4050 0.2760
6.708128 0.2470 0.2310 0.2290 0.2320 0.4400
6.742000 0.5040 0.5540 0.5950 0.6270 0.6550
6.775128 0.6850 0.6850 0.6830 0.6620 0.6380
6.808000 0.6150 0.6130 0.6150 0.6550 0.6630
6.841128 0.7180 0.7250 0.7250 0.7180 0.6880
6.874000 0.6620 0.6350 0.5850 0.5650 0.5350
6.907128 0.5340 0.5370 0.6350 0.6580 0.6900
6.940000 0.7020 0.7180 0.7280 0.7280 0.7280
6.973128 0.7280 0.7280 0.7270 0.7230 0.7180
7.007000 0.7120 0.7020 0.6870 0.6680 0.6580
7.040128 0.6470 0.6170 0.5820 0.5390 0.5070
7.073000 0.4800 0.4540 0.4450 0.4320 0.4290
7.106128 0.4270 0.4290 0.4450 0.4550 0.4620
7.139000 0.4650 0.4720 0.4770 0.4820 0.4850
7.172128 0.4840 0.4750 0.4640 0.4350 0.3890
7.205000 0.3420 0.3190 0.2960 0.2570 0.2560
7.238128 0.2590 0.3310 0.4400 0.4950 0.5420
7.272000 0.5840 0.6000 0.6130 0.6220 0.6250
7.305128 0.6250 0.6250 0.6270 0.6330 0.6450
7.338000 0.6630 0.7020 0.7200 0.7350 0.7470
7.371128 0.7550 0.7570 0.7570 0.7530 0.7450
7.404000 0.7280 0.7100 0.6750 0.6530 0.6300
7.437128 0.5900 0.5890 0.5900 0.6370 0.6630
7.470000 0.7100 0.7250 0.7300 0.7320 0.7380
7.503128 0.7450 0.7480 0.7500 0.7520 0.7520
7.536000 0.7580 0.7670 0.7680 0.7680 0.7670
7.569128 0.7530 0.7420 0.7370 0.7230 0.7220
7.603000 0.7250 0.7350 0.7470 0.7570 0.7580
7.636128 0.7580 0.7580 0.7580 0.7580 0.7580
7.669000 0.7620 0.7650 0.7680 0.7720 0.7730
7.702128 0.7720 0.7530 0.7370 0.7220 0.7080
7.735000 0.6820 0.6670 0.6670 0.6650 0.6730
7.768128 0.6830 0.6980 0.7000 0.7000 0.7000
7.801000 0.6820 0.6700 0.6570 0.6470 0.6350
7.834128 0.6230 0.6080 0.5950 0.5770 0.5540
7.868000 0.5220 0.4820 0.4340 0.3720 0.3360
7.901128 0.2970 0.2060 0.1290 0.0760 0.0430
7.934000 0.0280 0.0240 0.0230 0.0210 0.0190
7.967128 0.0190 0.0190 0.0210 0.0230 0.0260
8.000000 0.0330 0.0380 0.0460 0.0640 0.0940
8.033128 0.1410 0.2040 0.2610 0.3160 0.4190
8.066000 0.4650 0.5040 0.5370 0.5690 0.5950
8.099128 0.6200 0.6400 0.6580 0.6820 0.6970
8.132000 0.7130 0.7250 0.7280 0.7300 0.7320
8.165128 0.7330 0.7370 0.7380 0.7420 0.7470
8.199000 0.7520 0.7570 0.7620 0.7670 0.7680
8.232128 0.7730 0.7750 0.7750 0.7700 0.7650
8.265000 0.7550 0.7450 0.7330 0.7270 0.7230
8.298128 0.7200 0.7170 0.7120 0.7100 0.7100
8.331000 0.7120 0.7120 0.7180 0.7220 0.7270
8.364128 0.7300 0.7330 0.7370 0.7420 0.7480
8.397000 0.7550 0.7650 0.7700 0.7700 0.7700
8.430128 0.7680 0.7600 0.7550 0.7500 0.7450
8.464000 0.7330 0.7230 0.7220 0.7250 0.7350
8.497128 0.7580 0.7600 0.7600 0.7600 0.7580
8.530000 0.7580 0.7550 0.7520 0.7500 0.7430
8.563128 0.7370 0.7330 0.7320 0.7280 0.7220
8.596000 0.7100 0.6980 0.6880 0.6750 0.6700
8.629128 0.6630 0.6500 0.6450 0.6400 0.6370
8.662000 0.6330 0.6330 0.6330 0.6320 0.6300
8.695128 0.6250 0.6180 0.6130 0.6050 0.5940
8.728000 0.5820 0.5700 0.5570 0.5440 0.5300
8.761128 0.5150 0.4990 0.4800 0.4600 0.4400
8.795000 0.4150 0.3910 0.3620 0.3470 0.3310
8.828128 0.2940 0.2710 0.2310 0.1890 0.1510
8.861000 0.1140 0.0880 0.0590 0.0460 0.0290
8.894128 0.0280 0.0240 0.0230 0.0210 0.0210
8.927000 0.0210 0.0230 0.0230 0.0260 0.0330
8.960128 0.0340 0.0390 0.0480 0.0560 0.0640
8.993000 0.0710 0.0730 0.0740 0.0740 0.0740
9.026128 0.0740 0.0730 0.0640 0.0590 0.0540
9.060000 0.0460 0.0390 0.0330 0.0330 0.0290
9.093128 0.0280 0.0280 0.0260 0.0260 0.0260
9.126000 0.0260 0.0260 0.0240 0.0240 0.0230
9.159128 0.0230 0.0210 0.0190 0.0190 0.0190
9.192000 0.0180 0.0180 0.0180 0.0180 0.0180
9.225128 0.0180 0.0180 0.0180 0.0180 0.0180
9.258000 0.0180 0.0180 0.0180 0.0180 0.0180
9.291128 0.0180 0.0180 0.0160 0.0140 0.0110
9.325000 0.0110 0.0090 0.0090 0.0090 0.0090
9.358128 0.0110 0.0110 0.0110 0.0110 0.0110
9.391000 0.0110 0.0110 0.0110 0.0130 0.0140
9.424128 0.0140 0.0160 0.0180 0.0180 0.0180
9.457000 0.0180 0.0180 0.0180 0.0180 0.0180
9.490128 0.0180 0.0180 0.0180 0.0180 0.0180
9.523000 0.0180 0.0180 0.0160 0.0160 0.0160
9.556128 0.0160 0.0140 0.0140 0.0110 0.0090
9.589000 0.0080 0.0080 0.0090 0.0090 0.0130
9.622128 0.0140 0.0160 0.0160 0.0160 0.0160
9.656000 0.0160 0.0180 0.0180 0.0180 0.0190
9.689128 0.0210 0.0240 0.0240 0.0260 0.0260
9.722000 0.0280 0.0280 0.0310 0.0330 0.0340
9.755128 0.0360 0.0360 0.0360 0.0360 0.0360
9.788000 0.0380 0.0410 0.0440 0.0480 0.0540
9.821128 0.0590 0.0660 0.0730 0.0740 0.0760
9.854000 0.0760 0.0780 0.0840 0.0880 0.0990
9.887128 0.1110 0.1180 0.1180 0.1180 0.1080
9.921000 0.0790 0.0460 0.0390 0.0390 0.0410
9.954128 0.0640 0.0840 0.1090 0.1490 0.1780
9.987000 0.1880 0.1890 0.1890 0.1890 0.1880
10.020128 0.1580 0.1440 0.1330 0.1190 0.0980
10.053000 0.0960 0.0960 0.0980 0.1110 0.1160
10.086128 0.1180 0.1240 0.1240 0.1240 0.1210
10.119000 0.1180 0.1180 0.1130 0.1030 0.0940
10.152128 0.0860 0.0810 0.0790 0.0760 0.0710
10.185000 0.0640 0.0590 0.0530 0.0480 0.0440
10.218128 0.0410 0.0410 0.0390 0.0380 0.0340
10.252000 0.0340 0.0330 0.0330 0.0330 0.0330
10.285128 0.0340 0.0340 0.0340 0.0360 0.0380
10.318000 0.0430 0.0480 0.0510 0.0560 0.0610
10.351128 0.0680 0.0760 0.0860 0.0980 0.1110
10.384000 0.1260 0.1410 0.1590 0.1730 0.1880
10.417128 0.1990 0.2160 0.2240 0.2310 0.2320
10.450000 0.2320 0.2290 0.2170 0.2060 0.1890
10.483128 0.1710 0.1490 0.1280 0.1060 0.0860
10.517000 0.0660 0.0510 0.0390 0.0310 0.0290
10.550128 0.0310 0.0330 0.0390 0.0410 0.0480
10.583000 0.0660 0.1010 0.1260 0.1560 0.1810
10.616128 0.2070 0.2340 0.2610 0.2870 0.3160
10.649000 0.3670 0.3920 0.4170 0.4390 0.4590
10.682128 0.4750 0.4850 0.4970 0.5100 0.5220
10.715000 0.5350 0.5490 0.5590 0.5600 0.5620
10.748128 0.5620 0.5640 0.5650 0.5650 0.5670
10.781000 0.5670 0.5670 0.5670 0.5690 0.5750
10.814128 0.5850 0.5950 0.5950 0.6000 0.6020
10.848000 0.6020 0.6020 0.6020 0.6000 0.6000
10.881128 0.5970 0.5900 0.5850 0.5750 0.5650
10.914000 0.5600 0.5520 0.5420 0.5290 0.5140
10.947128 0.4970 0.4800 0.4650 0.4500 0.4350
10.980000 0.4220 0.4070 0.3940 0.3770 0.3570
11.013128 0.3440 0.3290 0.3120 0.3020 0.2760
11.046000 0.2720 0.2720 0.2740 0.2820 0.2970
11.079128 0.3170 0.3520 0.3620 0.3670 0.3670
11.113000 0.3670 0.3640 0.3610 0.3510 0.3440
11.146128 0.3390 0.3320 0.3310 0.3310 0.3310
11.179000 0.3390 0.3440 0.3540 0.3640 0.3720
11.212128 0.3840 0.3990 0.4170 0.4400 0.4470
11.245000 0.4550 0.4620 0.4690 0.4740 0.4790
11.278128 0.4820 0.4840 0.4840 0.4840 0.4820
11.311000 0.4800 0.4790 0.4750 0.4700 0.4650
11.344128 0.4600 0.4550 0.4500 0.4400 0.4250
11.377000 0.4150 0.4070 0.3920 0.3790 0.3660
11.410128 0.3560 0.3470 0.3460 0.3390 0.3340
11.444000 0.3310 0.3270 0.3240 0.3210 0.3190
11.477128 0.3140 0.3040 0.2960 0.2860 0.2810
11.510000 0.2710 0.2610 0.2470 0.2340 0.2190
11.543128 0.2090 0.1980 0.1880 0.1780 0.1690
11.576000 0.1590 0.1510 0.1430 0.1340 0.1260
11.609128 0.1180 0.1110 0.1040 0.0980 0.0910
11.642000 0.0860 0.0790 0.0730 0.0660 0.0590
11.675128 0.0530 0.0440 0.0410 0.0390 0.0380
11.709000 0.0380 0.0360 0.0340 0.0330 0.0330
11.742128 0.0310 0.0310 0.0310 0.0290 0.0290
11.775000 0.0290 0.0290 0.0290 0.0290 0.0290
11.808128 0.0310 0.0310 0.0310 0.0330 0.0330
11.841000 0.0330 0.0330 0.0330 0.0310 0.0310
11.874128 0.0310 0.0310 0.0310 0.0290 0.0290
11.907000 0.0290 0.0290 0.0290 0.0290 0.0280
11.940128 0.0260 0.0240 0.0230 0.0230 0.0230
11.974000 0.0230 0.0210 0.0190 0.0190 0.0190
12.007128 0.0190 0.0180 0.0180 0.0180 0.0180
12.040000 0.0160 0.0160 0.0160 0.0160 0.0160
12.073128 0.0180 0.0180 0.0180 0.0180 0.0180
12.106000 0.0190 0.0190 0.0190 0.0190 0.0180
12.139128 0.0180 0.0180 0.0190 0.0190 0.0190
12.172000 0.0190 0.0190 0.0190 0.0190 0.0190
12.205128 0.0190 0.0190 0.0190 0.0190 0.0190
12.238000 0.0190 0.0210 0.0210 0.0230 0.0230
12.271128 0.0210 0.0210 0.0210 0.0230 0.0230
12.305000 0.0230 0.0230 0.0230 0.0230 0.0240
12.338128 0.0240 0.0240 0.0240 0.0240 0.0260
12.371000 0.0260 0.0280 0.0280 0.0290 0.0290
12.404128 0.0280 0.0280 0.0280 0.0280 0.0280
12.437000 0.0280 0.0260 0.0260 0.0260 0.0240
12.470128 0.0240 0.0240 0.0230 0.0210 0.0210
12.503000 0.0190 0.0190 0.0190 0.0190 0.0180
12.536128 0.0180 0.0180 0.0180 0.0180 0.0180
12.570000 0.0180 0.0180 0.0180 0.0180 0.0180
12.603128 0.0180 0.0180 0.0180 0.0180 0.0180
12.636000 0.0190 0.0190 0.0190 0.0190 0.0190
12.669128 0.0190 0.0190 0.0190 0.0190 0.0190
12.702000 0.0180 0.0180 0.0180 0.0180 0.0180
12.735128 0.0180 0.0180 0.0180 0.0180 0.0180
12.768000 0.0180 0.0180 0.0180 0.0180 0.0190
12.801128 0.0190 0.0210 0.0210 0.0230 0.0230
12.834000 0.0240 0.0240 0.0260 0.0260 0.0290
12.867128 0.0310 0.0330 0.0360 0.0410 0.0440
12.901000 0.0480 0.0490 0.0560 0.0640 0.0730
12.934128 0.0790 0.0880 0.0960 0.1040 0.1110
12.967000 0.1210 0.1240 0.1280 0.1290 0.1310
13.000128 0.1330 0.1360 0.1360 0.1340 0.1330
13.033000 0.1240 0.1160 0.1060 0.0980 0.0880
13.066128 0.0760 0.0660 0.0560 0.0440 0.0380
13.099000 0.0330 0.0310 0.0290 0.0280 0.0260
13.132128 0.0230 0.0230 0.0210 0.0210 0.0210
13.166000 0.0210 0.0210 0.0190 0.0190 0.0190
13.199128 0.0210 0.0210 0.0210 0.0210 0.0210
13.232000 0.0230 0.0230 0.0230 0.0230 0.0230
13.265128 0.0230 0.0240 0.0260 0.0290 0.0310
13.298000 0.0360 0.0390 0.0390 0.0430 0.0480
13.331128 0.0540 0.0590 0.0640 0.0710 0.0740
13.364000 0.0780 0.0790 0.0840 0.0860 0.0880
13.397128 0.0890 0.0890 0.0890 0.0880 0.0860
13.430000 0.0840 0.0810 0.0790 0.0780 0.0780
13.463128 0.0790 0.0790 0.0810 0.0810 0.0830
13.497000 0.0840 0.0880 0.0910 0.0940 0.0980
13.530128 0.0990 0.1030 0.1080 0.1130 0.1210
13.563000 0.1280 0.1310 0.1330 0.1360 0.1390
13.596128 0.1430 0.1490 0.1560 0.1640 0.1710
13.629000 0.1760 0.1790 0.1830 0.1860 0.1890
13.662128 0.1940 0.1990 0.2020 0.2060 0.2090
13.695000 0.2090 0.2110 0.2110 0.2060 0.2040
13.728128 0.2020 0.2010 0.1980 0.1910 0.1830
13.762000 0.1760 0.1690 0.1630 0.1580 0.1510
13.795128 0.1430 0.1360 0.1290 0.1190 0.1160
13.828000 0.1160 0.1090 0.1040 0.1030 0.0990
13.861128 0.0940 0.0910 0.0910 0.0890 0.0890
13.894000 0.0910 0.0940 0.0960 0.0990 0.1010
13.927128 0.1040 0.1080 0.1130 0.1160 0.1190
13.960000 0.1210 0.1280 0.1310 0.1340 0.1380
13.993128 0.1430 0.1490 0.1530 0.1540 0.1560
14.026000 0.1590 0.1590 0.1640 0.1660 0.1660
14.059128 0.1680 0.1690 0.1690 0.1690 0.1690
14.093000 0.1690 0.1690 0.1680 0.1660 0.1630
14.126128 0.1630 0.1590 0.1560 0.1530 0.1490
14.159000 0.1430 0.1380 0.1330 0.1280 0.1230
14.192128 0.1190 0.1090 0.1030 0.0980 0.0930
14.225000 0.0910 0.0890 0.0790 0.0740 0.0690
14.258128 0.0680 0.0640 0.0610 0.0560 0.0540
14.291000 0.0530 0.0510 0.0490 0.0480 0.0460
14.324128 0.0440 0.0440 0.0440 0.0440 0.0440
14.358000 0.0440 0.0440 0.0440 0.0440 0.0460
14.391128 0.0460 0.0460 0.0460 0.0480 0.0480
14.424000 0.0480 0.0480 0.0490 0.0490 0.0490
14.457128 0.0490 0.0490 0.0510 0.0510 0.0530
14.490000 0.0530 0.0530 0.0560 0.0560 0.0580
14.523128 0.0590 0.0610 0.0630 0.0660 0.0710
14.556000 0.0730 0.0730 0.0780 0.0810 0.0840
14.589128 0.0840 0.0860 0.0880 0.0880 0.0880
14.623000 0.0880 0.0890 0.0890 0.0890 0.0910
14.656128 0.0940 0.0940 0.0960 0.0980 0.0980
14.689000 0.0990 0.1010 0.1010 0.1030 0.1060
14.722128 0.1080 0.1080 0.1090 0.1090 0.1090
14.755000 0.1130 0.1160 0.1230 0.1290 0.1360
14.788128 0.1410 0.1460 0.1480 0.1510 0.1540
14.821000 0.1580 0.1610 0.1660 0.1730 0.1830
14.854128 0.1880 0.1960 0.2020 0.2090 0.2110
14.887000 0.2120 0.2160 0.2210 0.2270 0.2320
14.920128 0.2320 0.2340 0.2370 0.2390 0.2390
14.954000 0.2440 0.2470 0.2510 0.2540 0.2560
14.987128 0.2570 0.2570 0.2590 0.2620 0.2670
15.020000 0.2690 0.2710 0.2740 0.2770 0.2790
15.053128 0.2810 0.2820 0.2840 0.2840 0.2860
15.086000 0.2870 0.2910 0.2960 0.2990 0.3010
15.119128 0.3020 0.3070 0.3110 0.3120 0.3140
15.152000 0.3170 0.3190 0.3210 0.3220 0.3260
15.185128 0.3320 0.3410 0.3420 0.3460 0.3470
15.219000 0.3490 0.3520 0.3520 0.3520 0.3540
15.252128 0.3540 0.3540 0.3540 0.3540 0.3540
15.285000 0.3540 0.3540 0.3540 0.3560 0.3560
15.318128 0.3570 0.3570 0.3590 0.3610 0.3620
15.351000 0.3640 0.3670 0.3710 0.3770 0.3820
15.384128 0.3890 0.3940 0.3970 0.4040 0.4120
15.417000 0.4170 0.4220 0.4290 0.4350 0.4420
15.450128 0.4440 0.4450 0.4490 0.4490 0.4500
15.483000 0.4540 0.4540 0.4540 0.4540 0.4520
15.516128 0.4500 0.4500 0.4470 0.4450 0.4440
15.550000 0.4400 0.4320 0.4290 0.4270 0.4250
15.583128 0.4220 0.4190 0.4170 0.4120 0.4070
15.616000 0.4040 0.4000 0.3990 0.3990 0.3990
15.649128 0.3990 0.3990 0.4000 0.4000 0.4000
15.682000 0.4000 0.4020 0.4020 0.4040 0.4040
15.715128 0.4050 0.4070 0.4070 0.4070 0.4070
15.748000 0.4090 0.4100 0.4120 0.4150 0.4190
15.781128 0.4240 0.4250 0.4290 0.4290 0.4300
15.815000 0.4320 0.4370 0.4400 0.4450 0.4490
15.848128 0.4500 0.4540 0.4570 0.4570 0.4570
15.881000 0.4570 0.4540 0.4540 0.4540 0.4540
15.914128 0.4540 0.4540 0.4540 0.4540 0.4540
15.947000 0.4540 0.4540 0.4540 0.4540 0.4520
15.980128 0.4540
##END=
