##TITLE=Aniline, 2-tert-butyl-4-chloro-
##JCAMP-DX=4.24
##DATA TYPE=INFRARED SPECTRUM
##CLASS=COBLENTZ III
##ORIGIN=MONSANTO (J. FREEMAN)
##OWNER=Copyright (C) 1987 by the Coblentz Society
Collection (C) 2018 copyright by the U.S. Secretary of Commerce
on behalf of the United States of America. All rights reserved.
##DATE=1959/04/07
##NAMES=2-tert-butyl-4-chlorophenylamine
2-tert-butyl-4-chloroaniline
##MOLFORM=C10 H14 Cl N
##SOURCE REFERENCE=COBLENTZ NO. 9252
##$NIST ID=B6009252
##$NIST SOURCE=COBLENTZ
##$NIST IMAGE=cob9252
##SPECTROMETER/DATA SYSTEM=BECKMAN IR-4 (HYBRID PRISM-GRATING)
##INSTRUMENT PARAMETERS=NaCl PRISM
##STATE=LIQUID (NEAT)
##PATH LENGTH=CAPILLARY
##SAMPLING PROCEDURE=TRANSMISSION
##RESOLUTION=2
##DATA PROCESSING=DIGITIZED BY COBLENTZ SOCIETY (BATCH II) FROM HARD COPY (ADJUSTED \addmicron\0.1umlinear\)
##XUNITS=1/CM
##YUNITS=TRANSMITTANCE
##XFACTOR=1.0
##YFACTOR=1
##DELTAX=1.770751
##FIRSTX=625.863
##LASTX=6665.9
##FIRSTY=0.7442
##MAXX=6665.9
##MINX=625.863
##MAXY=1.01174
##MINY=0.169777
##NPOINTS=3412
##XYDATA=(X++(Y..Y))
625.863351 0.7442 0.7347 0.7278 0.7283 0.7234
634.717108 0.7206 0.7168 0.7116 0.7056 0.6990
643.570864 0.6920 0.6857 0.6794 0.6717 0.6567
652.424620 0.6350 0.6152 0.6011 0.5993 0.6233
661.278377 0.6748 0.7348 0.7696 0.7853 0.7882
670.132133 0.7881 0.7921 0.7990 0.8025 0.7984
678.985889 0.7904 0.7885 0.7869 0.7855 0.7844
687.839646 0.7840 0.7840 0.7837 0.7824 0.7786
696.693402 0.7733 0.7677 0.7646 0.7623 0.7502
705.547158 0.7320 0.7124 0.6918 0.6731 0.6544
714.400915 0.6379 0.6427 0.6882 0.7640 0.8328
723.254671 0.8590 0.8729 0.8811 0.8863 0.8900
732.108427 0.8924 0.8939 0.8946 0.8950 0.8943
740.962184 0.8933 0.8924 0.8918 0.8916 0.8935
749.815940 0.8968 0.9006 0.9014 0.8997 0.8974
758.669696 0.8957 0.8985 0.9045 0.9121 0.9165
767.523453 0.9184 0.9195 0.9206 0.9213 0.9245
776.377209 0.9218 0.9215 0.9208 0.9190 0.9166
785.230965 0.9131 0.9088 0.9033 0.8947 0.8826
794.084722 0.8608 0.8288 0.7955 0.7488 0.6917
802.938478 0.6262 0.5599 0.4946 0.4415 0.4076
811.792234 0.3799 0.3714 0.3707 0.4056 0.4476
820.645991 0.4948 0.5417 0.5872 0.6272 0.6622
829.499747 0.6977 0.7228 0.7490 0.7746 0.7948
838.353503 0.8120 0.8291 0.8473 0.8627 0.8748
847.207259 0.8848 0.8932 0.9013 0.9064 0.9113
856.061016 0.9154 0.9178 0.9180 0.9164 0.9103
864.914772 0.8965 0.8674 0.7798 0.6969 0.5922
873.768528 0.4879 0.3951 0.3688 0.3809 0.4518
882.622285 0.5227 0.5934 0.6787 0.7369 0.7760
891.476041 0.8052 0.8359 0.8566 0.8694 0.8792
900.329797 0.8874 0.8948 0.9018 0.9080 0.9139
909.183554 0.9187 0.9230 0.9261 0.9264 0.9273
918.037310 0.9197 0.9143 0.9080 0.9014 0.8954
926.891066 0.8887 0.8830 0.8807 0.8864 0.9002
935.744823 0.9143 0.9277 0.9381 0.9465 0.9515
944.598579 0.9543 0.9558 0.9561 0.9563 0.9566
953.452335 0.9580 0.9602 0.9627 0.9654 0.9683
962.306092 0.9713 0.9742 0.9760 0.9778 0.9795
971.159848 0.9806 0.9817 0.9826 0.9833 0.9833
980.013604 0.9822 0.9830 0.9826 0.9820 0.9814
988.867361 0.9808 0.9800 0.9789 0.9777 0.9766
997.721117 0.9754 0.9741 0.9724 0.9707 0.9689
1006.574873 0.9649 0.9581 0.9455 0.9275 0.9042
1015.428630 0.8805 0.8593 0.8541 0.8914 0.9059
1024.282386 0.9145 0.9202 0.9251 0.9286 0.9335
1033.136142 0.9313 0.9289 0.9224 0.9134 0.9056
1041.989899 0.8980 0.8903 0.8825 0.8747 0.8669
1050.843655 0.8620 0.8589 0.8628 0.8672 0.8759
1059.697411 0.8855 0.8925 0.8990 0.9055 0.9110
1068.551168 0.9135 0.9103 0.9091 0.9075 0.9055
1077.404924 0.9031 0.9001 0.8966 0.8922 0.8807
1086.258680 0.8674 0.8508 0.8329 0.8237 0.8194
1095.112437 0.8158 0.8076 0.7991 0.7921 0.7876
1103.966193 0.7831 0.7633 0.7419 0.6716 0.5829
1112.819949 0.5182 0.5056 0.5030 0.5146 0.5803
1121.673706 0.6582 0.7360 0.8030 0.8471 0.8816
1130.527462 0.9063 0.9160 0.9183 0.9204 0.9174
1139.381218 0.9074 0.8923 0.8582 0.7973 0.7336
1148.234974 0.6700 0.6182 0.6548 0.7164 0.7751
1157.088731 0.8339 0.8906 0.9182 0.9346 0.9466
1165.942487 0.9541 0.9574 0.9598 0.9611 0.9603
1174.796243 0.9592 0.9612 0.9655 0.9657 0.9651
1183.650000 0.9594 0.9498 0.9285 0.9055 0.8825
1192.503756 0.8596 0.8368 0.8148 0.8035 0.8110
1201.357512 0.8297 0.8486 0.8673 0.8861 0.8994
1210.211269 0.9061 0.9086 0.9037 0.8980 0.8870
1219.065025 0.8729 0.8607 0.8470 0.8367 0.8304
1227.918781 0.8249 0.8185 0.8052 0.7789 0.7334
1236.772538 0.6785 0.6474 0.6297 0.5944 0.5359
1245.626294 0.4765 0.4172 0.3620 0.3411 0.3499
1254.480050 0.3981 0.4486 0.4990 0.5492 0.5993
1263.333807 0.6492 0.6986 0.7218 0.7273 0.7282
1272.187563 0.7225 0.6884 0.6424 0.5965 0.5507
1281.041319 0.5051 0.4597 0.4267 0.4267 0.4469
1289.895076 0.4969 0.5469 0.5967 0.6465 0.6961
1298.748832 0.7397 0.7631 0.7761 0.7856 0.7972
1307.602588 0.8108 0.8314 0.8838 0.9181 0.9379
1316.456345 0.9476 0.9559 0.9617 0.9669 0.9718
1325.310101 0.9757 0.9795 0.9827 0.9843 0.9860
1334.163857 0.9875 0.9881 0.9883 0.9891 0.9861
1343.017614 0.9842 0.9815 0.9786 0.9749 0.9705
1351.871370 0.9640 0.9530 0.9375 0.9103 0.8831
1360.725126 0.8356 0.7547 0.6715 0.5884 0.5180
1369.578883 0.5122 0.5647 0.6120 0.6586 0.7052
1378.432639 0.7515 0.7977 0.8228 0.8219 0.7931
1387.286395 0.7378 0.6814 0.6251 0.5690 0.5137
1396.140152 0.4711 0.4357 0.4005 0.3654 0.3349
1404.993908 0.3272 0.3700 0.4599 0.5496 0.6562
1413.847664 0.7793 0.8066 0.8143 0.8213 0.8273
1422.701421 0.8318 0.8345 0.8357 0.8365 0.8359
1431.555177 0.8343 0.8314 0.8269 0.8037 0.7674
1440.408933 0.7318 0.6965 0.6611 0.6258 0.5907
1449.262689 0.5589 0.5492 0.5421 0.5305 0.4941
1458.116446 0.4506 0.4350 0.4346 0.4352 0.4387
1466.970202 0.4441 0.4493 0.4520 0.4510 0.4350
1475.823958 0.4074 0.3799 0.3524 0.3249 0.2976
1484.677715 0.2702 0.2431 0.2159 0.1888 0.1698
1493.531471 0.1720 0.2051 0.2578 0.3109 0.3637
1502.385227 0.4162 0.4568 0.4749 0.4927 0.5402
1511.238984 0.5925 0.6234 0.6485 0.6676 0.6856
1520.092740 0.7085 0.7325 0.7500 0.7671 0.7801
1528.946496 0.7907 0.7991 0.8067 0.8161 0.8259
1537.800253 0.8346 0.8416 0.8484 0.8549 0.8604
1546.654009 0.8659 0.8705 0.8740 0.8769 0.8782
1555.507765 0.8788 0.8791 0.8756 0.8710 0.8613
1564.361522 0.8516 0.8439 0.8410 0.8411 0.8414
1573.215278 0.8416 0.8413 0.8334 0.8183 0.8035
1582.069034 0.7886 0.7738 0.7589 0.7442 0.7294
1590.922791 0.7147 0.7002 0.6900 0.6827 0.6757
1599.776547 0.6596 0.6253 0.5912 0.5571 0.5230
1608.630303 0.4891 0.4553 0.4215 0.3878 0.3542
1617.484060 0.3212 0.2991 0.2957 0.3007 0.3306
1626.337816 0.3714 0.4120 0.4526 0.4931 0.5335
1635.191572 0.5738 0.6140 0.6542 0.6908 0.7108
1644.045329 0.7248 0.7461 0.7605 0.7791 0.7972
1652.899085 0.8079 0.8152 0.8207 0.8252 0.8281
1661.752841 0.8311 0.8336 0.8360 0.8397 0.8479
1670.606598 0.8630 0.8805 0.8909 0.8987 0.9068
1679.460354 0.9151 0.9236 0.9322 0.9410 0.9508
1688.314110 0.9614 0.9698 0.9763 0.9797 0.9820
1697.167867 0.9832 0.9840 0.9849 0.9856 0.9865
1706.021623 0.9874 0.9883 0.9894 0.9906 0.9920
1714.875379 0.9935 0.9952 0.9970 0.9987 1.0018
1723.729136 1.0055 1.0081 1.0103 1.0115 1.0117
1732.582892 1.0116 1.0108 1.0107 1.0053 1.0008
1741.436648 0.9953 0.9896 0.9841 0.9789 0.9741
1750.290405 0.9694 0.9646 0.9605 0.9595 0.9573
1759.144161 0.9618 0.9646 0.9677 0.9701 0.9722
1767.997917 0.9743 0.9762 0.9780 0.9798 0.9816
1776.851673 0.9835 0.9855 0.9873 0.9893 0.9911
1785.705430 0.9934 0.9960 0.9977 0.9984 1.0014
1794.559186 0.9982 0.9975 0.9970 0.9960 0.9948
1803.412942 0.9936 0.9925 0.9912 0.9902 0.9892
1812.266699 0.9883 0.9875 0.9870 0.9864 0.9859
1821.120455 0.9854 0.9849 0.9847 0.9844 0.9841
1829.974211 0.9838 0.9835 0.9831 0.9826 0.9820
1838.827968 0.9815 0.9808 0.9781 0.9723 0.9666
1847.681724 0.9614 0.9568 0.9538 0.9529 0.9523
1856.535480 0.9516 0.9510 0.9507 0.9508 0.9513
1865.389237 0.9518 0.9512 0.9534 0.9545 0.9559
1874.242993 0.9573 0.9586 0.9600 0.9615 0.9629
1883.096749 0.9644 0.9671 0.9695 0.9706 0.9716
1891.950506 0.9724 0.9728 0.9731 0.9734 0.9738
1900.804262 0.9740 0.9740 0.9740 0.9739 0.9739
1909.658018 0.9739 0.9738 0.9738 0.9738 0.9737
1918.511775 0.9737 0.9737 0.9736 0.9736 0.9735
1927.365531 0.9735 0.9734 0.9733 0.9731 0.9729
1936.219287 0.9728 0.9727 0.9725 0.9724 0.9722
1945.073044 0.9720 0.9718 0.9716 0.9714 0.9711
1953.926800 0.9709 0.9707 0.9705 0.9703 0.9701
1962.780556 0.9699 0.9697 0.9696 0.9697 0.9699
1971.634313 0.9702 0.9703 0.9712 0.9714 0.9710
1980.488069 0.9711 0.9713 0.9715 0.9718 0.9720
1989.341825 0.9722 0.9724 0.9726 0.9729 0.9731
1998.195582 0.9734 0.9736 0.9739 0.9742 0.9744
2007.049338 0.9746 0.9749 0.9752 0.9753 0.9756
2015.903094 0.9759 0.9762 0.9763 0.9766 0.9768
2024.756851 0.9770 0.9772 0.9774 0.9776 0.9777
2033.610607 0.9780 0.9781 0.9783 0.9785 0.9788
2042.464363 0.9789 0.9791 0.9792 0.9794 0.9794
2051.318120 0.9795 0.9796 0.9796 0.9797 0.9798
2060.171876 0.9799 0.9799 0.9800 0.9801 0.9801
2069.025632 0.9802 0.9802 0.9802 0.9802 0.9802
2077.879388 0.9802 0.9802 0.9803 0.9803 0.9803
2086.733145 0.9803 0.9805 0.9806 0.9806 0.9807
2095.586901 0.9809 0.9810 0.9812 0.9812 0.9813
2104.440657 0.9815 0.9816 0.9817 0.9817 0.9818
2113.294414 0.9816 0.9815 0.9814 0.9812 0.9811
2122.148170 0.9809 0.9806 0.9806 0.9804 0.9802
2131.001926 0.9800 0.9799 0.9797 0.9795 0.9794
2139.855683 0.9792 0.9789 0.9785 0.9781 0.9779
2148.709439 0.9774 0.9770 0.9767 0.9763 0.9760
2157.563195 0.9756 0.9752 0.9749 0.9745 0.9742
2166.416952 0.9740 0.9738 0.9737 0.9736 0.9734
2175.270708 0.9732 0.9730 0.9729 0.9728 0.9726
2184.124464 0.9726 0.9727 0.9728 0.9729 0.9729
2192.978221 0.9731 0.9732 0.9732 0.9733 0.9734
2201.831977 0.9735 0.9736 0.9737 0.9738 0.9738
2210.685733 0.9738 0.9738 0.9739 0.9739 0.9739
2219.539490 0.9739 0.9739 0.9739 0.9739 0.9738
2228.393246 0.9737 0.9736 0.9734 0.9733 0.9731
2237.247002 0.9730 0.9728 0.9726 0.9725 0.9723
2246.100759 0.9722 0.9720 0.9718 0.9716 0.9712
2254.954515 0.9710 0.9706 0.9703 0.9700 0.9698
2263.808271 0.9694 0.9692 0.9688 0.9685 0.9682
2272.662028 0.9679 0.9676 0.9673 0.9669 0.9666
2281.515784 0.9664 0.9660 0.9657 0.9653 0.9650
2290.369540 0.9647 0.9644 0.9641 0.9638 0.9634
2299.223297 0.9631 0.9628 0.9627 0.9627 0.9627
2308.077053 0.9627 0.9627 0.9628 0.9628 0.9628
2316.930809 0.9628 0.9628 0.9628 0.9629 0.9632
2325.784566 0.9635 0.9637 0.9641 0.9643 0.9645
2334.638322 0.9648 0.9652 0.9654 0.9657 0.9660
2343.492078 0.9663 0.9665 0.9666 0.9666 0.9666
2352.345835 0.9666 0.9667 0.9667 0.9667 0.9667
2361.199591 0.9667 0.9667 0.9665 0.9650 0.9619
2370.053347 0.9580 0.9548 0.9516 0.9484 0.9453
2378.907103 0.9424 0.9402 0.9384 0.9374 0.9369
2387.760860 0.9366 0.9364 0.9361 0.9358 0.9355
2396.614616 0.9352 0.9347 0.9343 0.9340 0.9335
2405.468372 0.9331 0.9324 0.9317 0.9311 0.9304
2414.322129 0.9297 0.9290 0.9283 0.9277 0.9270
2423.175885 0.9262 0.9252 0.9242 0.9233 0.9224
2432.029641 0.9215 0.9205 0.9196 0.9186 0.9175
2440.883398 0.9164 0.9154 0.9144 0.9133 0.9123
2449.737154 0.9113 0.9102 0.9092 0.9081 0.9069
2458.590910 0.9055 0.9040 0.9027 0.9013 0.9000
2467.444667 0.8987 0.8972 0.8958 0.8945 0.8932
2476.298423 0.8918 0.8903 0.8887 0.8870 0.8852
2485.152179 0.8835 0.8818 0.8801 0.8784 0.8768
2494.005936 0.8751 0.8734 0.8717 0.8700 0.8684
2502.859692 0.8667 0.8652 0.8637 0.8621 0.8605
2511.713448 0.8589 0.8573 0.8558 0.8543 0.8527
2520.567205 0.8511 0.8495 0.8480 0.8465 0.8450
2529.420961 0.8432 0.8413 0.8395 0.8376 0.8358
2538.274717 0.8339 0.8321 0.8303 0.8285 0.8266
2547.128474 0.8248 0.8231 0.8217 0.8204 0.8193
2555.982230 0.8181 0.8170 0.8158 0.8147 0.8135
2564.835986 0.8125 0.8117 0.8112 0.8107 0.8104
2573.689743 0.8099 0.8096 0.8093 0.8095 0.8099
2582.543499 0.8095 0.8096 0.8097 0.8101 0.8106
2591.397255 0.8111 0.8117 0.8122 0.8127 0.8133
2600.251012 0.8139 0.8146 0.8151 0.8158 0.8164
2609.104768 0.8170 0.8176 0.8183 0.8189 0.8195
2617.958524 0.8202 0.8209 0.8216 0.8223 0.8229
2626.812281 0.8236 0.8243 0.8249 0.8253 0.8256
2635.666037 0.8258 0.8259 0.8256 0.8252 0.8255
2644.519793 0.8255 0.8241 0.8236 0.8231 0.8226
2653.373550 0.8220 0.8215 0.8208 0.8201 0.8195
2662.227306 0.8188 0.8180 0.8172 0.8165 0.8158
2671.081062 0.8150 0.8142 0.8135 0.8128 0.8120
2679.934818 0.8113 0.8106 0.8098 0.8090 0.8083
2688.788575 0.8076 0.8068 0.8061 0.8053 0.8042
2697.642331 0.8030 0.8018 0.8005 0.7993 0.7980
2706.496087 0.7968 0.7956 0.7943 0.7930 0.7917
2715.349844 0.7904 0.7892 0.7879 0.7866 0.7853
2724.203600 0.7840 0.7827 0.7815 0.7802 0.7790
2733.057356 0.7777 0.7764 0.7752 0.7739 0.7726
2741.911113 0.7713 0.7701 0.7688 0.7674 0.7658
2750.764869 0.7642 0.7626 0.7611 0.7595 0.7579
2759.618625 0.7563 0.7548 0.7532 0.7516 0.7501
2768.472382 0.7485 0.7470 0.7453 0.7436 0.7417
2777.326138 0.7397 0.7377 0.7358 0.7337 0.7318
2786.179894 0.7298 0.7279 0.7259 0.7240 0.7220
2795.033651 0.7200 0.7180 0.7161 0.7142 0.7123
2803.887407 0.7103 0.7085 0.7065 0.7046 0.7028
2812.741163 0.7008 0.6989 0.6970 0.6950 0.6928
2821.594920 0.6903 0.6877 0.6852 0.6826 0.6800
2830.448676 0.6774 0.6743 0.6708 0.6670 0.6632
2839.302432 0.6593 0.6551 0.6505 0.6453 0.6396
2848.156189 0.6332 0.6261 0.6145 0.6004 0.5862
2857.009945 0.5719 0.5577 0.5436 0.5294 0.5152
2865.863701 0.5011 0.4870 0.4729 0.4629 0.4558
2874.717458 0.4535 0.4532 0.4537 0.4544 0.4555
2883.571214 0.4567 0.4578 0.4589 0.4601 0.4612
2892.424970 0.4623 0.4626 0.4625 0.4620 0.4613
2901.278727 0.4605 0.4597 0.4575 0.4547 0.4519
2910.132483 0.4491 0.4468 0.4446 0.4424 0.4403
2918.986239 0.4382 0.4361 0.4340 0.4318 0.4293
2927.839996 0.4266 0.4235 0.4200 0.4163 0.4119
2936.693752 0.4065 0.4002 0.3924 0.3838 0.3740
2945.547508 0.3643 0.3545 0.3448 0.3350 0.3252
2954.401265 0.3155 0.3059 0.2962 0.2865 0.2768
2963.255021 0.2727 0.2710 0.2705 0.2706 0.2718
2972.108777 0.2725 0.2752 0.3051 0.3234 0.3417
2980.962533 0.3600 0.3782 0.3965 0.4147 0.4330
2989.816290 0.4511 0.4693 0.4874 0.5056 0.5236
2998.670046 0.5418 0.5598 0.5779 0.5959 0.6139
3007.523802 0.6313 0.6432 0.6474 0.6516 0.6555
3016.377559 0.6595 0.6636 0.6672 0.6703 0.6733
3025.231315 0.6763 0.6793 0.6824 0.6856 0.6894
3034.085071 0.6935 0.6984 0.7034 0.7089 0.7146
3042.938828 0.7206 0.7267 0.7334 0.7403 0.7474
3051.792584 0.7544 0.7596 0.7630 0.7663 0.7693
3060.646340 0.7724 0.7755 0.7785 0.7813 0.7837
3069.500097 0.7857 0.7875 0.7894 0.7912 0.7930
3078.353853 0.7949 0.7967 0.7985 0.8003 0.8022
3087.207609 0.8040 0.8059 0.8077 0.8097 0.8116
3096.061366 0.8135 0.8155 0.8174 0.8194 0.8212
3104.915122 0.8231 0.8249 0.8266 0.8282 0.8297
3113.768878 0.8312 0.8327 0.8342 0.8358 0.8373
3122.622635 0.8389 0.8403 0.8418 0.8433 0.8447
3131.476391 0.8460 0.8470 0.8481 0.8490 0.8498
3140.330147 0.8504 0.8506 0.8507 0.8508 0.8509
3149.183904 0.8510 0.8511 0.8512 0.8512 0.8514
3158.037660 0.8539 0.8507 0.8504 0.8502 0.8500
3166.891416 0.8497 0.8494 0.8492 0.8489 0.8486
3175.745173 0.8484 0.8479 0.8474 0.8469 0.8462
3184.598929 0.8455 0.8448 0.8440 0.8433 0.8425
3193.452685 0.8418 0.8410 0.8402 0.8395 0.8387
3202.306442 0.8382 0.8377 0.8373 0.8369 0.8366
3211.160198 0.8365 0.8365 0.8365 0.8365 0.8366
3220.013954 0.8368 0.8348 0.8372 0.8391 0.8409
3228.867711 0.8430 0.8455 0.8486 0.8515 0.8542
3237.721467 0.8569 0.8591 0.8611 0.8629 0.8646
3246.575223 0.8662 0.8669 0.8675 0.8682 0.8688
3255.428980 0.8695 0.8702 0.8708 0.8712 0.8715
3264.282736 0.8738 0.8717 0.8715 0.8709 0.8702
3273.136492 0.8695 0.8686 0.8676 0.8644 0.8612
3281.990248 0.8567 0.8515 0.8463 0.8412 0.8360
3290.844005 0.8309 0.8257 0.8205 0.8154 0.8102
3299.697761 0.8050 0.7999 0.7948 0.7897 0.7846
3308.551517 0.7795 0.7743 0.7692 0.7641 0.7591
3317.405274 0.7540 0.7490 0.7439 0.7389 0.7338
3326.259030 0.7287 0.7236 0.7185 0.7136 0.7086
3335.112786 0.7035 0.6985 0.6934 0.6885 0.6835
3343.966543 0.6784 0.6734 0.6685 0.6635 0.6585
3352.820299 0.6536 0.6486 0.6436 0.6387 0.6337
3361.674055 0.6288 0.6238 0.6188 0.6139 0.6090
3370.527812 0.6041 0.5991 0.5943 0.5893 0.5845
3379.381568 0.5821 0.5810 0.5802 0.5801 0.5801
3388.235324 0.5825 0.5872 0.5925 0.6011 0.6109
3397.089081 0.6207 0.6304 0.6402 0.6026 0.6332
3405.942837 0.6695 0.6792 0.6889 0.6986 0.7083
3414.796593 0.7179 0.7276 0.7372 0.7469 0.7565
3423.650350 0.7662 0.7758 0.7854 0.7936 0.7976
3432.504106 0.7982 0.7989 0.7990 0.7975 0.7949
3441.357862 0.7890 0.7832 0.7773 0.7714 0.7656
3450.211619 0.7598 0.7540 0.7482 0.7424 0.7366
3459.065375 0.7307 0.7250 0.7192 0.7134 0.7077
3467.919131 0.7019 0.6961 0.6904 0.6846 0.6789
3476.772888 0.6731 0.6675 0.6617 0.6572 0.6551
3485.626644 0.6537 0.6530 0.6529 0.6529 0.6529
3494.480400 0.6529 0.6546 0.6611 0.6706 0.6652
3503.334157 0.6705 0.6993 0.7089 0.7184 0.7279
3512.187913 0.7374 0.7469 0.7564 0.7659 0.7753
3521.041669 0.7848 0.7943 0.8037 0.8131 0.8225
3529.895426 0.8320 0.8417 0.8517 0.8618 0.8674
3538.749182 0.8699 0.8721 0.8742 0.8763 0.8784
3547.602938 0.8806 0.8827 0.8847 0.8865 0.8883
3556.456695 0.8899 0.8913 0.8926 0.8940 0.8953
3565.310451 0.8967 0.8980 0.8994 0.9007 0.9020
3574.164207 0.9032 0.9044 0.9054 0.9062 0.9068
3583.017964 0.9077 0.9085 0.9092 0.9100 0.9108
3591.871720 0.9115 0.9123 0.9131 0.9138 0.9145
3600.725476 0.9151 0.9156 0.9159 0.9162 0.9165
3609.579232 0.9168 0.9172 0.9174 0.9177 0.9180
3618.432989 0.9183 0.9186 0.9189 0.9192 0.9194
3627.286745 0.9197 0.9200 0.9204 0.9207 0.9210
3636.140501 0.9212 0.9214 0.9216 0.9217 0.9218
3644.994258 0.9219 0.9220 0.9221 0.9222 0.9223
3653.848014 0.9224 0.9225 0.9225 0.9226 0.9227
3662.701770 0.9228 0.9229 0.9230 0.9231 0.9231
3671.555527 0.9232 0.9232 0.9233 0.9234 0.9235
3680.409283 0.9235 0.9235 0.9235 0.9235 0.9235
3689.263039 0.9235 0.9235 0.9234 0.9234 0.9234
3698.116796 0.9234 0.9234 0.9234 0.9234 0.9234
3706.970552 0.9234 0.9234 0.9234 0.9234 0.9234
3715.824308 0.9233 0.9233 0.9234 0.9251 0.9235
3724.678065 0.9233 0.9232 0.9231 0.9231 0.9230
3733.531821 0.9230 0.9230 0.9230 0.9229 0.9229
3742.385577 0.9229 0.9228 0.9227 0.9227 0.9226
3751.239334 0.9226 0.9226 0.9225 0.9224 0.9224
3760.093090 0.9223 0.9223 0.9223 0.9223 0.9222
3768.946846 0.9221 0.9221 0.9220 0.9220 0.9220
3777.800603 0.9219 0.9218 0.9218 0.9217 0.9216
3786.654359 0.9215 0.9214 0.9214 0.9213 0.9213
3795.508115 0.9212 0.9211 0.9210 0.9209 0.9208
3804.361872 0.9208 0.9207 0.9206 0.9205 0.9204
3813.215628 0.9203 0.9203 0.9203 0.9202 0.9201
3822.069384 0.9200 0.9199 0.9199 0.9198 0.9197
3830.923141 0.9196 0.9195 0.9194 0.9193 0.9192
3839.776897 0.9192 0.9191 0.9190 0.9189 0.9188
3848.630653 0.9187 0.9186 0.9184 0.9183 0.9182
3857.484410 0.9181 0.9180 0.9180 0.9180 0.9179
3866.338166 0.9178 0.9177 0.9176 0.9175 0.9174
3875.191922 0.9173 0.9172 0.9171 0.9169 0.9168
3884.045679 0.9168 0.9167 0.9166 0.9165 0.9164
3892.899435 0.9162 0.9161 0.9159 0.9158 0.9157
3901.753191 0.9155 0.9154 0.9153 0.9152 0.9151
3910.606947 0.9150 0.9149 0.9147 0.9146 0.9144
3919.460704 0.9143 0.9142 0.9140 0.9139 0.9139
3928.314460 0.9137 0.9136 0.9135 0.9133 0.9132
3937.168216 0.9130 0.9129 0.9128 0.9127 0.9126
3946.021973 0.9124 0.9124 0.9123 0.9122 0.9120
3954.875729 0.9119 0.9118 0.9117 0.9116 0.9115
3963.729485 0.9114 0.9113 0.9113 0.9112 0.9111
3972.583242 0.9110 0.9109 0.9108 0.9107 0.9106
3981.436998 0.9105 0.9104 0.9104 0.9103 0.9102
3990.290754 0.9101 0.9100 0.9099 0.9098 0.9097
3999.144511 0.9096 0.9095 0.9094 0.9094 0.9093
4007.998267 0.9092 0.9091 0.9090 0.9089 0.9088
4016.852023 0.9087 0.9086 0.9085 0.9085 0.9084
4025.705780 0.9083 0.9082 0.9081 0.9080 0.9079
4034.559536 0.9078 0.9077 0.9076 0.9075 0.9074
4043.413292 0.9074 0.9073 0.9072 0.9071 0.9070
4052.267049 0.9069 0.9068 0.9067 0.9066 0.9065
4061.120805 0.9064 0.9064 0.9063 0.9062 0.9061
4069.974561 0.9060 0.9059 0.9059 0.9058 0.9057
4078.828318 0.9055 0.9054 0.9054 0.9053 0.9052
4087.682074 0.9051 0.9050 0.9049 0.9048 0.9047
4096.535830 0.9046 0.9045 0.9045 0.9044 0.9043
4105.389587 0.9042 0.9042 0.9040 0.9039 0.9038
4114.243343 0.9037 0.9037 0.9036 0.9035 0.9034
4123.097099 0.9034 0.9033 0.9032 0.9032 0.9031
4131.950856 0.9030 0.9030 0.9030 0.9030 0.9030
4140.804612 0.9029 0.9029 0.9029 0.9028 0.9028
4149.658368 0.9027 0.9027 0.9027 0.9026 0.9026
4158.512125 0.9026 0.9025 0.9025 0.9024 0.9024
4167.365881 0.9023 0.9023 0.9023 0.9023 0.9022
4176.219637 0.9022 0.9022 0.9022 0.9021 0.9021
4185.073394 0.9020 0.9020 0.9019 0.9019 0.9019
4193.927150 0.9019 0.9018 0.9018 0.9017 0.9017
4202.780906 0.9016 0.9016 0.9016 0.9016 0.9016
4211.634662 0.9017 0.9017 0.9018 0.9019 0.9020
4220.488419 0.9021 0.9022 0.9023 0.9024 0.9024
4229.342175 0.9025 0.9026 0.9027 0.9027 0.9028
4238.195931 0.9029 0.9030 0.9030 0.9031 0.9032
4247.049688 0.9033 0.9033 0.9034 0.9035 0.9035
4255.903444 0.9036 0.9037 0.9038 0.9038 0.9039
4264.757200 0.9040 0.9041 0.9041 0.9042 0.9043
4273.610957 0.9043 0.9044 0.9045 0.9046 0.9047
4282.464713 0.9047 0.9047 0.9048 0.9048 0.9049
4291.318469 0.9049 0.9050 0.9050 0.9051 0.9051
4300.172226 0.9052 0.9052 0.9053 0.9053 0.9054
4309.025982 0.9054 0.9054 0.9055 0.9056 0.9056
4317.879738 0.9056 0.9056 0.9056 0.9055 0.9055
4326.733495 0.9054 0.9052 0.9051 0.9050 0.9049
4335.587251 0.9048 0.9047 0.9045 0.9044 0.9042
4344.441007 0.9041 0.9040 0.9039 0.9038 0.9036
4353.294764 0.9035 0.9033 0.9030 0.9027 0.9023
4362.148520 0.9020 0.9016 0.9012 0.9009 0.9005
4371.002276 0.9001 0.8999 0.8996 0.8994 0.8991
4379.856033 0.8989 0.8988 0.8986 0.8985 0.8984
4388.709789 0.8983 0.8981 0.8979 0.8978 0.8977
4397.563545 0.8975 0.8974 0.8973 0.8971 0.8970
4406.417302 0.8969 0.8967 0.8966 0.8965 0.8963
4415.271058 0.8962 0.8960 0.8959 0.8959 0.8959
4424.124814 0.8958 0.8958 0.8958 0.8959 0.8959
4432.978571 0.8959 0.8960 0.8960 0.8960 0.8960
4441.832327 0.8961 0.8962 0.8962 0.8962 0.8963
4450.686083 0.8963 0.8963 0.8963 0.8963 0.8964
4459.539840 0.8964 0.8964 0.8964 0.8965 0.8965
4468.393596 0.8965 0.8966 0.8966 0.8967 0.8967
4477.247352 0.8967 0.8967 0.8967 0.8968 0.8969
4486.101109 0.8969 0.8970 0.8970 0.8970 0.8971
4494.954865 0.8972 0.8973 0.8974 0.8975 0.8975
4503.808621 0.8976 0.8977 0.8978 0.8978 0.8979
4512.662377 0.8979 0.8980 0.8981 0.8981 0.8982
4521.516134 0.8983 0.8984 0.8984 0.8985 0.8985
4530.369890 0.8986 0.8987 0.8988 0.8988 0.8988
4539.223646 0.8989 0.8990 0.8991 0.8992 0.8993
4548.077403 0.8993 0.8994 0.8995 0.8996 0.8996
4556.931159 0.8996 0.8997 0.8997 0.8998 0.8998
4565.784915 0.8999 0.8999 0.9000 0.9001 0.9001
4574.638672 0.9002 0.9002 0.9002 0.9003 0.9003
4583.492428 0.9004 0.9005 0.9006 0.9006 0.9006
4592.346184 0.9007 0.9007 0.9008 0.9009 0.9009
4601.199941 0.9009 0.9010 0.9011 0.9011 0.9012
4610.053697 0.9012 0.9012 0.9013 0.9013 0.9014
4618.907453 0.9014 0.9014 0.9014 0.9014 0.9014
4627.761210 0.9014 0.9013 0.9013 0.9013 0.9013
4636.614966 0.9013 0.9012 0.9012 0.9012 0.9012
4645.468722 0.9012 0.9012 0.9012 0.9012 0.9012
4654.322479 0.9012 0.9011 0.9011 0.9011 0.9011
4663.176235 0.9011 0.9010 0.9010 0.9010 0.9010
4672.029991 0.9010 0.9009 0.9009 0.9009 0.9009
4680.883748 0.9009 0.9008 0.9008 0.9008 0.9008
4689.737504 0.9007 0.9007 0.9007 0.9007 0.9007
4698.591260 0.9006 0.9006 0.9006 0.9006 0.9006
4707.445017 0.9006 0.9005 0.9005 0.9005 0.9004
4716.298773 0.9004 0.9003 0.9003 0.9003 0.9002
4725.152529 0.9002 0.9001 0.9001 0.9001 0.9001
4734.006286 0.9001 0.9000 0.9000 0.9000 0.8999
4742.860042 0.8999 0.8998 0.8998 0.8998 0.8997
4751.713798 0.8997 0.8996 0.8996 0.8995 0.8995
4760.567555 0.8995 0.8994 0.8994 0.8994 0.8994
4769.421311 0.8994 0.8993 0.8993 0.8993 0.8992
4778.275067 0.8992 0.8992 0.8991 0.8991 0.8990
4787.128824 0.8990 0.8990 0.8989 0.8989 0.8988
4795.982580 0.8988 0.8988 0.8987 0.8987 0.8986
4804.836336 0.8986 0.8986 0.8985 0.8985 0.8984
4813.690092 0.8984 0.8984 0.8983 0.8983 0.8983
4822.543849 0.8982 0.8982 0.8982 0.8981 0.8981
4831.397605 0.8980 0.8980 0.8980 0.8979 0.8979
4840.251361 0.8979 0.8979 0.8979 0.8978 0.8978
4849.105118 0.8977 0.8977 0.8977 0.8976 0.8976
4857.958874 0.8976 0.8976 0.8975 0.8975 0.8974
4866.812630 0.8974 0.8974 0.8973 0.8973 0.8972
4875.666387 0.8972 0.8972 0.8971 0.8971 0.8970
4884.520143 0.8970 0.8970 0.8969 0.8969 0.8969
4893.373899 0.8968 0.8968 0.8968 0.8967 0.8967
4902.227656 0.8966 0.8966 0.8966 0.8965 0.8965
4911.081412 0.8964 0.8964 0.8964 0.8963 0.8963
4919.935168 0.8963 0.8963 0.8962 0.8961 0.8961
4928.788925 0.8960 0.8960 0.8959 0.8958 0.8958
4937.642681 0.8958 0.8957 0.8956 0.8956 0.8956
4946.496437 0.8956 0.8955 0.8955 0.8954 0.8953
4955.350194 0.8953 0.8953 0.8952 0.8951 0.8951
4964.203950 0.8951 0.8950 0.8949 0.8949 0.8948
4973.057706 0.8948 0.8948 0.8947 0.8947 0.8946
4981.911463 0.8946 0.8945 0.8945 0.8944 0.8944
4990.765219 0.8943 0.8943 0.8942 0.8941 0.8941
4999.618975 0.8941 0.8940 0.8939 0.8939 0.8939
5008.472732 0.8938 0.8937 0.8937 0.8937 0.8937
5017.326488 0.8936 0.8936 0.8935 0.8935 0.8934
5026.180244 0.8934 0.8933 0.8932 0.8932 0.8932
5035.034001 0.8931 0.8930 0.8930 0.8930 0.8929
5043.887757 0.8928 0.8927 0.8926 0.8925 0.8924
5052.741513 0.8923 0.8922 0.8921 0.8920 0.8919
5061.595270 0.8918 0.8917 0.8916 0.8914 0.8913
5070.449026 0.8912 0.8911 0.8910 0.8909 0.8908
5079.302782 0.8907 0.8906 0.8905 0.8904 0.8902
5088.156539 0.8902 0.8901 0.8899 0.8898 0.8898
5097.010295 0.8897 0.8895 0.8894 0.8893 0.8892
5105.864051 0.8891 0.8889 0.8888 0.8887 0.8886
5114.717807 0.8885 0.8884 0.8884 0.8882 0.8881
5123.571564 0.8880 0.8879 0.8878 0.8877 0.8876
5132.425320 0.8875 0.8874 0.8873 0.8872 0.8870
5141.279076 0.8869 0.8868 0.8867 0.8866 0.8865
5150.132833 0.8864 0.8863 0.8861 0.8860 0.8859
5158.986589 0.8857 0.8856 0.8854 0.8853 0.8852
5167.840345 0.8851 0.8849 0.8848 0.8847 0.8846
5176.694102 0.8844 0.8843 0.8841 0.8840 0.8839
5185.547858 0.8837 0.8836 0.8835 0.8834 0.8832
5194.401614 0.8831 0.8829 0.8828 0.8827 0.8826
5203.255371 0.8824 0.8823 0.8822 0.8820 0.8819
5212.109127 0.8818 0.8817 0.8815 0.8814 0.8812
5220.962883 0.8811 0.8809 0.8808 0.8807 0.8806
5229.816640 0.8804 0.8803 0.8802 0.8801 0.8799
5238.670396 0.8798 0.8797 0.8797 0.8797 0.8797
5247.524152 0.8797 0.8797 0.8797 0.8797 0.8797
5256.377909 0.8797 0.8797 0.8797 0.8797 0.8797
5265.231665 0.8797 0.8797 0.8797 0.8797 0.8797
5274.085421 0.8797 0.8797 0.8797 0.8797 0.8797
5282.939178 0.8797 0.8798 0.8798 0.8798 0.8798
5291.792934 0.8798 0.8798 0.8798 0.8798 0.8798
5300.646690 0.8798 0.8798 0.8798 0.8798 0.8798
5309.500447 0.8798 0.8798 0.8798 0.8798 0.8798
5318.354203 0.8798 0.8798 0.8798 0.8798 0.8798
5327.207959 0.8798 0.8798 0.8798 0.8798 0.8798
5336.061716 0.8798 0.8798 0.8798 0.8799 0.8799
5344.915472 0.8799 0.8800 0.8801 0.8801 0.8802
5353.769228 0.8803 0.8803 0.8803 0.8804 0.8805
5362.622985 0.8805 0.8805 0.8806 0.8806 0.8807
5371.476741 0.8807 0.8808 0.8808 0.8809 0.8809
5380.330497 0.8810 0.8811 0.8811 0.8811 0.8812
5389.184254 0.8813 0.8813 0.8813 0.8814 0.8815
5398.038010 0.8815 0.8815 0.8816 0.8817 0.8818
5406.891766 0.8818 0.8818 0.8819 0.8820 0.8820
5415.745523 0.8821 0.8821 0.8822 0.8822 0.8822
5424.599279 0.8823 0.8823 0.8823 0.8823 0.8823
5433.453035 0.8823 0.8823 0.8823 0.8823 0.8822
5442.306791 0.8822 0.8822 0.8822 0.8821 0.8821
5451.160548 0.8821 0.8821 0.8821 0.8821 0.8821
5460.014304 0.8820 0.8820 0.8820 0.8819 0.8819
5468.868060 0.8819 0.8819 0.8818 0.8818 0.8818
5477.721817 0.8817 0.8817 0.8817 0.8817 0.8816
5486.575573 0.8816 0.8816 0.8816 0.8816 0.8816
5495.429329 0.8816 0.8815 0.8815 0.8814 0.8814
5504.283086 0.8814 0.8814 0.8813 0.8813 0.8812
5513.136842 0.8811 0.8810 0.8810 0.8809 0.8808
5521.990598 0.8807 0.8807 0.8806 0.8805 0.8805
5530.844355 0.8804 0.8803 0.8802 0.8802 0.8801
5539.698111 0.8801 0.8800 0.8800 0.8799 0.8798
5548.551867 0.8797 0.8797 0.8796 0.8795 0.8795
5557.405624 0.8794 0.8793 0.8792 0.8792 0.8791
5566.259380 0.8790 0.8789 0.8789 0.8788 0.8787
5575.113136 0.8787 0.8786 0.8785 0.8784 0.8784
5583.966893 0.8783 0.8782 0.8781 0.8781 0.8780
5592.820649 0.8779 0.8778 0.8778 0.8777 0.8776
5601.674405 0.8776 0.8775 0.8774 0.8774 0.8774
5610.528162 0.8773 0.8772 0.8771 0.8771 0.8771
5619.381918 0.8770 0.8770 0.8769 0.8768 0.8767
5628.235674 0.8767 0.8766 0.8765 0.8764 0.8764
5637.089431 0.8763 0.8762 0.8762 0.8761 0.8760
5645.943187 0.8759 0.8759 0.8758 0.8757 0.8757
5654.796943 0.8756 0.8755 0.8754 0.8754 0.8753
5663.650700 0.8752 0.8751 0.8751 0.8750 0.8749
5672.504456 0.8749 0.8749 0.8748 0.8747 0.8747
5681.358212 0.8746 0.8745 0.8745 0.8744 0.8743
5690.211969 0.8742 0.8742 0.8741 0.8740 0.8740
5699.065725 0.8739 0.8738 0.8737 0.8737 0.8736
5707.919481 0.8735 0.8734 0.8734 0.8733 0.8732
5716.773238 0.8732 0.8731 0.8731 0.8730 0.8730
5725.626994 0.8729 0.8728 0.8728 0.8727 0.8727
5734.480750 0.8726 0.8726 0.8725 0.8724 0.8724
5743.334506 0.8723 0.8722 0.8721 0.8721 0.8720
5752.188263 0.8719 0.8719 0.8718 0.8717 0.8716
5761.042019 0.8716 0.8716 0.8715 0.8715 0.8714
5769.895775 0.8713 0.8712 0.8712 0.8711 0.8710
5778.749532 0.8710 0.8709 0.8708 0.8708 0.8707
5787.603288 0.8706 0.8705 0.8705 0.8704 0.8703
5796.457044 0.8703 0.8702 0.8702 0.8701 0.8701
5805.310801 0.8700 0.8699 0.8699 0.8698 0.8697
5814.164557 0.8696 0.8696 0.8695 0.8694 0.8694
5823.018313 0.8693 0.8692 0.8691 0.8691 0.8690
5831.872070 0.8690 0.8690 0.8689 0.8688 0.8688
5840.725826 0.8687 0.8686 0.8685 0.8685 0.8684
5849.579582 0.8683 0.8683 0.8682 0.8681 0.8680
5858.433339 0.8680 0.8679 0.8679 0.8679 0.8678
5867.287095 0.8677 0.8677 0.8676 0.8675 0.8674
5876.140851 0.8674 0.8673 0.8672 0.8672 0.8671
5884.994608 0.8670 0.8670 0.8669 0.8669 0.8668
5893.848364 0.8668 0.8667 0.8666 0.8666 0.8665
5902.702120 0.8664 0.8664 0.8663 0.8662 0.8661
5911.555877 0.8661 0.8660 0.8659 0.8659 0.8659
5920.409633 0.8658 0.8658 0.8657 0.8656 0.8655
5929.263389 0.8655 0.8654 0.8653 0.8653 0.8652
5938.117146 0.8651 0.8651 0.8650 0.8650 0.8649
5946.970902 0.8649 0.8648 0.8647 0.8647 0.8646
5955.824658 0.8645 0.8645 0.8644 0.8643 0.8643
5964.678415 0.8642 0.8641 0.8641 0.8641 0.8640
5973.532171 0.8639 0.8639 0.8638 0.8637 0.8637
5982.385927 0.8636 0.8635 0.8635 0.8635 0.8634
5991.239684 0.8633 0.8633 0.8633 0.8632 0.8632
6000.093440 0.8631 0.8630 0.8630 0.8630 0.8629
6008.947196 0.8629 0.8628 0.8627 0.8627 0.8627
6017.800953 0.8626 0.8625 0.8625 0.8624 0.8623
6026.654709 0.8623 0.8622 0.8622 0.8622 0.8621
6035.508465 0.8620 0.8620 0.8620 0.8619 0.8618
6044.362221 0.8618 0.8617 0.8616 0.8616 0.8615
6053.215978 0.8614 0.8614 0.8614 0.8613 0.8613
6062.069734 0.8612 0.8612 0.8611 0.8611 0.8610
6070.923490 0.8609 0.8609 0.8609 0.8608 0.8608
6079.777247 0.8607 0.8607 0.8607 0.8606 0.8605
6088.631003 0.8605 0.8604 0.8603 0.8603 0.8602
6097.484759 0.8601 0.8601 0.8601 0.8600 0.8599
6106.338516 0.8599 0.8599 0.8598 0.8598 0.8597
6115.192272 0.8597 0.8597 0.8596 0.8595 0.8595
6124.046028 0.8594 0.8594 0.8594 0.8593 0.8592
6132.899785 0.8592 0.8591 0.8590 0.8590 0.8590
6141.753541 0.8589 0.8588 0.8588 0.8587 0.8587
6150.607297 0.8587 0.8586 0.8585 0.8585 0.8584
6159.461054 0.8584 0.8584 0.8583 0.8582 0.8582
6168.314810 0.8582 0.8581 0.8581 0.8580 0.8579
6177.168566 0.8579 0.8579 0.8578 0.8578 0.8577
6186.022323 0.8576 0.8575 0.8575 0.8575 0.8574
6194.876079 0.8574 0.8573 0.8573 0.8573 0.8572
6203.729835 0.8571 0.8571 0.8570 0.8570 0.8570
6212.583592 0.8569 0.8568 0.8568 0.8568 0.8567
6221.437348 0.8567 0.8566 0.8565 0.8565 0.8564
6230.291104 0.8564 0.8564 0.8563 0.8562 0.8562
6239.144861 0.8561 0.8561 0.8561 0.8560 0.8559
6247.998617 0.8559 0.8559 0.8558 0.8558 0.8557
6256.852373 0.8556 0.8556 0.8555 0.8554 0.8554
6265.706130 0.8554 0.8553 0.8553 0.8552 0.8552
6274.559886 0.8552 0.8551 0.8550 0.8550 0.8550
6283.413642 0.8549 0.8549 0.8548 0.8548 0.8548
6292.267399 0.8547 0.8546 0.8546 0.8545 0.8545
6301.121155 0.8545 0.8544 0.8543 0.8543 0.8542
6309.974911 0.8541 0.8541 0.8540 0.8540 0.8540
6318.828668 0.8539 0.8538 0.8538 0.8538 0.8537
6327.682424 0.8537 0.8536 0.8536 0.8536 0.8535
6336.536180 0.8534 0.8534 0.8534 0.8533 0.8533
6345.389936 0.8532 0.8532 0.8532 0.8531 0.8530
6354.243693 0.8530 0.8529 0.8528 0.8528 0.8528
6363.097449 0.8527 0.8527 0.8526 0.8526 0.8526
6371.951205 0.8525 0.8524 0.8524 0.8524 0.8523
6380.804962 0.8523 0.8522 0.8522 0.8522 0.8521
6389.658718 0.8520 0.8520 0.8520 0.8519 0.8519
6398.512474 0.8518 0.8517 0.8517 0.8516 0.8516
6407.366231 0.8516 0.8515 0.8515 0.8514 0.8513
6416.219987 0.8513 0.8513 0.8512 0.8512 0.8511
6425.073743 0.8511 0.8511 0.8510 0.8509 0.8509
6433.927500 0.8508 0.8508 0.8508 0.8507 0.8506
6442.781256 0.8506 0.8505 0.8505 0.8505 0.8504
6451.635012 0.8503 0.8503 0.8503 0.8502 0.8502
6460.488769 0.8501 0.8501 0.8501 0.8500 0.8500
6469.342525 0.8499 0.8499 0.8499 0.8498 0.8497
6478.196281 0.8497 0.8497 0.8496 0.8496 0.8495
6487.050038 0.8494 0.8494 0.8493 0.8493 0.8493
6495.903794 0.8492 0.8491 0.8491 0.8490 0.8490
6504.757550 0.8489 0.8488 0.8488 0.8487 0.8486
6513.611307 0.8486 0.8485 0.8484 0.8484 0.8483
6522.465063 0.8483 0.8483 0.8482 0.8481 0.8481
6531.318819 0.8480 0.8479 0.8479 0.8478 0.8478
6540.172576 0.8477 0.8476 0.8476 0.8475 0.8474
6549.026332 0.8474 0.8473 0.8472 0.8472 0.8471
6557.880088 0.8470 0.8470 0.8469 0.8469 0.8469
6566.733845 0.8468 0.8468 0.8467 0.8466 0.8466
6575.587601 0.8465 0.8465 0.8465 0.8464 0.8463
6584.441357 0.8463 0.8462 0.8461 0.8461 0.8460
6593.295114 0.8460 0.8459 0.8458 0.8458 0.8457
6602.148870 0.8456 0.8456 0.8455 0.8454 0.8454
6611.002626 0.8453 0.8452 0.8452 0.8452 0.8452
6619.856383 0.8451 0.8450 0.8450 0.8449 0.8448
6628.710139 0.8448 0.8448 0.8447 0.8447 0.8446
6637.563895 0.8446 0.8445 0.8444 0.8444 0.8443
6646.417651 0.8442 0.8442 0.8441 0.8440 0.8440
6655.271408 0.8439 0.8438 0.8438 0.8437 0.8437
6664.125164 0.8436 0.8436
##END=
