##TITLE=POTASSIUM BISULFATE
$$ A.R.
##JCAMP-DX=4.24
##DATA TYPE=INFRARED SPECTRUM
##CLASS=COBLENTZ
##ORIGIN=MELLON INSTITUTE
##OWNER=COBLENTZ SOCIETY
Collection (C) 2018 copyright by the U.S. Secretary of Commerce
on behalf of the United States of America. All rights reserved.
##DATE=Not specified, most likely prior to 1970
##MOLFORM=K H S O4
##SOURCE REFERENCE=COBLENTZ NO. 552
##$NIST ID=B6000552
##$NIST SOURCE=COBLENTZ
##$NIST IMAGE=cob552
##SPECTROMETER/DATA SYSTEM=Not specified, most likely a prism, grating, or hybrid spectrometer.
##STATE=SOLID (NUJOL AND FLUOROLUBE MULLS)
##PATH LENGTH=
$$SPECTRAL CONTAMINATION DUE TO OIL AROUND 1450 CM^-^1
##SAMPLING PROCEDURE=TRANSMISSION
##RESOLUTION=4
##DATA PROCESSING=DIGITIZED BY NIST FROM HARD COPY
##XUNITS=MICROMETERS
##YUNITS=TRANSMITTANCE
##XFACTOR=1.000000
##YFACTOR=1
##DELTAX=000.006659
##FIRSTX=2.028
##LASTX=15.9906
##FIRSTY=0.609
##MAXX=15.9906
##MINX=2.028
##MAXY=0.966
##MINY=0.082
##NPOINTS=2098
##XYDATA=(X++(Y..Y))
2.028000 0.6090 0.6110 0.6110 0.6140 0.6160
2.061309 0.6180 0.6210 0.6240 0.6280 0.6290
2.094000 0.6310 0.6330 0.6340 0.6380 0.6410
2.127309 0.6430 0.6440 0.6440 0.6480 0.6490
2.161000 0.6530 0.6530 0.6530 0.6540 0.6580
2.194309 0.6610 0.6610 0.6640 0.6710 0.6730
2.228000 0.6750 0.6780 0.6800 0.6830 0.6850
2.261309 0.6880 0.6910 0.6930 0.7000 0.7000
2.294000 0.7010 0.7030 0.7050 0.7100 0.7130
2.327309 0.7180 0.7200 0.7230 0.7250 0.7300
2.361000 0.7330 0.7350 0.7380 0.7400 0.7430
2.394309 0.7500 0.7500 0.7520 0.7550 0.7600
2.427000 0.7630 0.7650 0.7700 0.7720 0.7730
2.460309 0.7780 0.7820 0.7850 0.7880 0.7920
2.494000 0.8000 0.8020 0.8040 0.8050 0.8070
2.527309 0.8090 0.8120 0.8140 0.8150 0.8190
2.561000 0.8220 0.8240 0.8250 0.8290 0.8300
2.594309 0.8320 0.8340 0.8370 0.8420 0.8450
2.627000 0.8470 0.8490 0.8500 0.8520 0.8540
2.660309 0.8540 0.8550 0.8600 0.8640 0.8650
2.694000 0.8650 0.8690 0.8690 0.8710 0.8710
2.727309 0.8710 0.8710 0.8710 0.8710 0.8710
2.760000 0.8670 0.8650 0.8640 0.8600 0.8570
2.793309 0.8540 0.8500 0.8440 0.8420 0.8400
2.827000 0.8400 0.8390 0.8350 0.8300 0.8270
2.860309 0.8240 0.8220 0.8190 0.8150 0.8140
2.893000 0.8120 0.8100 0.8050 0.8020 0.8020
2.926309 0.8000 0.7980 0.7970 0.7930 0.7930
2.960000 0.7880 0.7820 0.7780 0.7770 0.7750
2.993309 0.7700 0.7650 0.7600 0.7480 0.7400
3.027000 0.7350 0.7260 0.7210 0.7080 0.7000
3.060309 0.6950 0.6810 0.6750 0.6680 0.6530
3.093000 0.6390 0.6310 0.6180 0.6090 0.5990
3.126309 0.5960 0.5820 0.5740 0.5660 0.5560
3.160000 0.5490 0.5410 0.5250 0.5150 0.5050
3.193309 0.4920 0.4800 0.4670 0.4550 0.4480
3.226000 0.4450 0.4370 0.4280 0.4250 0.4180
3.259309 0.4130 0.4070 0.4020 0.3980 0.3960
3.293000 0.3900 0.3860 0.3810 0.3780 0.3750
3.326309 0.3710 0.3680 0.3650 0.3630 0.3600
3.360000 0.3580 0.3550 0.3530 0.3510 0.3500
3.393309 0.3480 0.3450 0.3430 0.3400 0.3380
3.426000 0.3360 0.3350 0.3330 0.3330 0.3330
3.459309 0.3330 0.3330 0.3330 0.3330 0.3330
3.493000 0.3330 0.3350 0.3350 0.3380 0.3400
3.526309 0.3410 0.3430 0.3460 0.3500 0.3500
3.559000 0.3530 0.3560 0.3600 0.3650 0.3700
3.592309 0.3710 0.3730 0.3750 0.3780 0.3860
3.626000 0.3910 0.4000 0.4030 0.4080 0.4120
3.659309 0.4170 0.4220 0.4270 0.4320 0.4380
3.692000 0.4420 0.4430 0.4500 0.4520 0.4530
3.725309 0.4580 0.4630 0.4650 0.4650 0.4670
3.759000 0.4670 0.4670 0.4670 0.4650 0.4650
3.792309 0.4630 0.4620 0.4600 0.4570 0.4520
3.826000 0.4470 0.4430 0.4420 0.4400 0.4400
3.859309 0.4430 0.4450 0.4470 0.4520 0.4530
3.892000 0.4550 0.4570 0.4580 0.4580 0.4580
3.925309 0.4580 0.4580 0.4580 0.4570 0.4530
3.959000 0.4520 0.4500 0.4480 0.4470 0.4450
3.992309 0.4420 0.4380 0.4330 0.4320 0.4280
4.025000 0.4270 0.4230 0.4220 0.4200 0.4200
4.058309 0.4150 0.4150 0.4130 0.4130 0.4130
4.092000 0.4120 0.4120 0.4100 0.4100 0.4100
4.125309 0.4080 0.4080 0.4080 0.4080 0.4080
4.159000 0.4080 0.4080 0.4080 0.4080 0.4080
4.192309 0.4070 0.4070 0.4050 0.4050 0.4030
4.225000 0.4030 0.4030 0.4020 0.4020 0.4000
4.258309 0.3980 0.3980 0.3960 0.3960 0.3960
4.292000 0.3960 0.3960 0.3960 0.3980 0.4000
4.325309 0.4020 0.4020 0.4030 0.4050 0.4080
4.358000 0.4120 0.4130 0.4150 0.4170 0.4200
4.391309 0.4250 0.4280 0.4320 0.4350 0.4380
4.425000 0.4400 0.4420 0.4420 0.4500 0.4500
4.458309 0.4530 0.4570 0.4600 0.4620 0.4690
4.492000 0.4720 0.4740 0.4790 0.4800 0.4820
4.525309 0.4850 0.4890 0.4900 0.4940 0.4950
4.558000 0.5000 0.5000 0.5020 0.5040 0.5070
4.591309 0.5100 0.5120 0.5150 0.5190 0.5220
4.625000 0.5240 0.5250 0.5270 0.5300 0.5300
4.658309 0.5340 0.5360 0.5370 0.5420 0.5440
4.691000 0.5460 0.5510 0.5510 0.5520 0.5540
4.724309 0.5560 0.5590 0.5610 0.5660 0.5690
4.758000 0.5710 0.5740 0.5770 0.5810 0.5860
4.791309 0.5910 0.5970 0.5970 0.6040 0.6080
4.824000 0.6160 0.6180 0.6230 0.6310 0.6390
4.857309 0.6440 0.6490 0.6540 0.6610 0.6640
4.891000 0.6700 0.6710 0.6750 0.6780 0.6810
4.924309 0.6850 0.6860 0.6900 0.6930 0.6980
4.958000 0.7010 0.7050 0.7080 0.7110 0.7150
4.991309 0.7200 0.7250 0.7280 0.7310 0.7350
5.024000 0.7380 0.7420 0.7450 0.7470 0.7520
5.057309 0.7530 0.7550 0.7580 0.7620 0.7650
5.091000 0.7670 0.7680 0.7730 0.7750 0.7750
5.124309 0.7780 0.7820 0.7830 0.7870 0.7880
5.157000 0.7920 0.7950 0.8000 0.8000 0.8020
5.190309 0.8040 0.8050 0.8070 0.8100 0.8120
5.224000 0.8140 0.8150 0.8170 0.8200 0.8240
5.257309 0.8250 0.8250 0.8290 0.8290 0.8320
5.291000 0.8340 0.8350 0.8370 0.8400 0.8420
5.324309 0.8420 0.8440 0.8470 0.8490 0.8500
5.357000 0.8540 0.8550 0.8590 0.8600 0.8640
5.390309 0.8650 0.8690 0.8710 0.8740 0.8760
5.424000 0.8790 0.8810 0.8820 0.8860 0.8870
5.457309 0.8910 0.8920 0.8960 0.8970 0.9010
5.490000 0.9020 0.9060 0.9090 0.9110 0.9120
5.523309 0.9140 0.9160 0.9160 0.9170 0.9170
5.557000 0.9190 0.9210 0.9210 0.9220 0.9220
5.590309 0.9240 0.9240 0.9260 0.9270 0.9270
5.623000 0.9270 0.9270 0.9290 0.9290 0.9290
5.656309 0.9290 0.9310 0.9310 0.9310 0.9310
5.690000 0.9310 0.9310 0.9320 0.9320 0.9320
5.723309 0.9320 0.9320 0.9320 0.9310 0.9310
5.757000 0.9310 0.9310 0.9320 0.9320 0.9320
5.790309 0.9310 0.9310 0.9310 0.9310 0.9290
5.823000 0.9290 0.9290 0.9290 0.9270 0.9270
5.856309 0.9240 0.9220 0.9160 0.9140 0.9140
5.890000 0.9120 0.9090 0.9040 0.9040 0.9020
5.923309 0.9020 0.9020 0.9020 0.9020 0.9020
5.956000 0.9020 0.9020 0.9020 0.9020 0.9010
5.989309 0.9010 0.9010 0.8990 0.8970 0.8970
6.023000 0.8960 0.8920 0.8870 0.8860 0.8860
6.056309 0.8840 0.8840 0.8840 0.8840 0.8860
6.090000 0.8860 0.8860 0.8860 0.8870 0.8890
6.123309 0.8890 0.8910 0.8920 0.8940 0.8990
6.156000 0.9010 0.9020 0.9040 0.9070 0.9110
6.189309 0.9140 0.9160 0.9160 0.9210 0.9220
6.223000 0.9240 0.9260 0.9260 0.9260 0.9260
6.256309 0.9260 0.9260 0.9260 0.9240 0.9240
6.289000 0.9240 0.9220 0.9210 0.9210 0.9210
6.322309 0.9210 0.9210 0.9210 0.9220 0.9210
6.356000 0.9210 0.9210 0.9210 0.9220 0.9220
6.389309 0.9220 0.9210 0.9220 0.9220 0.9240
6.423000 0.9240 0.9260 0.9260 0.9260 0.9290
6.456309 0.9290 0.9290 0.9310 0.9310 0.9310
6.489000 0.9310 0.9310 0.9270 0.9270 0.9260
6.522309 0.9260 0.9260 0.9260 0.9260 0.9260
6.556000 0.9260 0.9270 0.9270 0.9270 0.9270
6.589309 0.9270 0.9290 0.9290 0.9310 0.9320
6.622000 0.9320 0.9340 0.9340 0.9360 0.9360
6.655309 0.9360 0.9360 0.9360 0.9380 0.9360
6.689000 0.9360 0.9340 0.9340 0.9320 0.9270
6.722309 0.9240 0.9210 0.9120 0.8990 0.8890
6.755000 0.8810 0.8720 0.8550 0.8370 0.8150
6.788309 0.7970 0.7830 0.7700 0.7630 0.7580
6.822000 0.7480 0.7430 0.7420 0.7420 0.7430
6.855309 0.7470 0.7500 0.7550 0.7620 0.7700
6.889000 0.7770 0.7830 0.7900 0.8020 0.8070
6.922309 0.8140 0.8170 0.8220 0.8300 0.8350
6.955000 0.8390 0.8440 0.8470 0.8500 0.8520
6.988309 0.8550 0.8550 0.8570 0.8620 0.8620
7.022000 0.8640 0.8640 0.8640 0.8640 0.8640
7.055309 0.8640 0.8640 0.8620 0.8620 0.8620
7.088000 0.8570 0.8550 0.8550 0.8520 0.8500
7.121309 0.8450 0.8400 0.8350 0.8320 0.8250
7.155000 0.8150 0.7970 0.7680 0.7570 0.7450
7.188309 0.7310 0.7200 0.7100 0.7030 0.6980
7.222000 0.6930 0.6830 0.6780 0.6750 0.6660
7.255309 0.6560 0.6490 0.6440 0.6410 0.6310
7.288000 0.6280 0.6230 0.6090 0.6030 0.5970
7.321309 0.5820 0.5660 0.5460 0.5340 0.5240
7.355000 0.5120 0.5050 0.4990 0.4950 0.4840
7.388309 0.4720 0.4580 0.4550 0.4470 0.4330
7.421000 0.4250 0.4230 0.4120 0.4030 0.3980
7.454309 0.3880 0.3760 0.3660 0.3550 0.3450
7.488000 0.3360 0.3310 0.3260 0.3230 0.3210
7.521309 0.3130 0.3110 0.3060 0.3040 0.3030
7.554000 0.3030 0.3010 0.3010 0.3010 0.2980
7.587309 0.2940 0.2930 0.2890 0.2890 0.2880
7.621000 0.2840 0.2830 0.2810 0.2780 0.2710
7.654309 0.2680 0.2590 0.2520 0.2460 0.2410
7.688000 0.2260 0.2210 0.2140 0.2120 0.2120
7.721309 0.2090 0.2070 0.2040 0.1990 0.1970
7.754000 0.1950 0.1940 0.1940 0.1940 0.1940
7.787309 0.1950 0.1990 0.2040 0.2170 0.2310
7.821000 0.2420 0.2510 0.2590 0.2680 0.2780
7.854309 0.2880 0.2980 0.3040 0.3090 0.3130
7.887000 0.3140 0.3140 0.3130 0.3110 0.3080
7.920309 0.3060 0.3030 0.3010 0.3010 0.2990
7.954000 0.2980 0.2940 0.2930 0.2910 0.2880
7.987309 0.2860 0.2840 0.2830 0.2760 0.2740
8.021000 0.2690 0.2660 0.2640 0.2570 0.2540
8.054309 0.2510 0.2510 0.2420 0.2360 0.2340
8.087000 0.2320 0.2290 0.2270 0.2260 0.2260
8.120309 0.2240 0.2240 0.2220 0.2220 0.2210
8.154000 0.2210 0.2190 0.2170 0.2170 0.2160
8.187309 0.2160 0.2140 0.2110 0.2090 0.2070
8.220000 0.2040 0.2020 0.2020 0.2020 0.2010
8.253309 0.1940 0.1900 0.1870 0.1840 0.1820
8.287000 0.1770 0.1740 0.1700 0.1670 0.1640
8.320309 0.1620 0.1590 0.1550 0.1520 0.1500
8.354000 0.1450 0.1440 0.1420 0.1400 0.1390
8.387309 0.1350 0.1280 0.1250 0.1180 0.1170
8.420000 0.1120 0.1080 0.1080 0.1070 0.1050
8.453309 0.1030 0.1020 0.1020 0.1000 0.0950
8.487000 0.0950 0.0920 0.0900 0.0900 0.0900
8.520309 0.0880 0.0880 0.0870 0.0870 0.0870
8.553000 0.0850 0.0850 0.0830 0.0830 0.0820
8.586309 0.0820 0.0820 0.0820 0.0820 0.0820
8.620000 0.0830 0.0850 0.0900 0.0900 0.0930
8.653309 0.1000 0.1020 0.1030 0.1120 0.1170
8.686000 0.1220 0.1320 0.1390 0.1470 0.1490
8.719309 0.1570 0.1640 0.1750 0.1850 0.1950
8.753000 0.2040 0.2170 0.2290 0.2370 0.2470
8.786309 0.2570 0.2680 0.2780 0.2890 0.3010
8.820000 0.3090 0.3180 0.3310 0.3430 0.3600
8.853309 0.3750 0.3860 0.3980 0.4050 0.4150
8.886000 0.4270 0.4330 0.4400 0.4470 0.4530
8.919309 0.4600 0.4650 0.4720 0.4800 0.4870
8.953000 0.4920 0.4990 0.5020 0.5090 0.5190
8.986309 0.5240 0.5300 0.5390 0.5460 0.5510
9.019000 0.5560 0.5620 0.5640 0.5690 0.5710
9.052309 0.5760 0.5810 0.5840 0.5870 0.5890
9.086000 0.5920 0.5920 0.5920 0.5910 0.5870
9.119309 0.5820 0.5770 0.5720 0.5690 0.5620
9.153000 0.5570 0.5520 0.5510 0.5440 0.5410
9.186309 0.5370 0.5340 0.5300 0.5240 0.5200
9.219000 0.5150 0.5100 0.5070 0.5000 0.4890
9.252309 0.4820 0.4630 0.4530 0.4330 0.4000
9.286000 0.3800 0.3680 0.3580 0.3460 0.3360
9.319309 0.3240 0.3140 0.3040 0.3030 0.3010
9.352000 0.3030 0.3030 0.3080 0.3180 0.3290
9.385309 0.3430 0.3610 0.3800 0.4000 0.4180
9.419000 0.4330 0.4520 0.4750 0.4990 0.5240
9.452309 0.5440 0.5560 0.5670 0.5910 0.6010
9.485000 0.6160 0.6230 0.6290 0.6360 0.6490
9.518309 0.6540 0.6580 0.6680 0.6760 0.6810
9.552000 0.6880 0.6900 0.6910 0.6930 0.6930
9.585309 0.6930 0.6930 0.6930 0.6930 0.6910
9.619000 0.6910 0.6880 0.6850 0.6810 0.6760
9.652309 0.6710 0.6640 0.6580 0.6490 0.6430
9.685000 0.6360 0.6280 0.6160 0.6130 0.6040
9.718309 0.5970 0.5860 0.5760 0.5660 0.5540
9.752000 0.5420 0.5250 0.5040 0.4870 0.4770
9.785309 0.4650 0.4550 0.4380 0.4280 0.4250
9.818000 0.4200 0.4150 0.4100 0.4050 0.4030
9.851309 0.4020 0.4000 0.3980 0.3950 0.3930
9.885000 0.3900 0.3900 0.3860 0.3860 0.3860
9.918309 0.3850 0.3830 0.3830 0.3850 0.3850
9.952000 0.3860 0.3900 0.4030 0.4070 0.4120
9.985309 0.4150 0.4200 0.4250 0.4320 0.4370
10.018000 0.4420 0.4470 0.4480 0.4550 0.4600
10.051309 0.4690 0.4770 0.4890 0.4920 0.5000
10.085000 0.5050 0.5090 0.5190 0.5300 0.5390
10.118309 0.5490 0.5570 0.5690 0.5790 0.5860
10.151000 0.5970 0.6030 0.6090 0.6180 0.6210
10.184309 0.6310 0.6390 0.6490 0.6580 0.6660
10.218000 0.6700 0.6780 0.6830 0.6910 0.6950
10.251309 0.7010 0.7080 0.7150 0.7230 0.7300
10.285000 0.7380 0.7430 0.7480 0.7530 0.7570
10.318309 0.7580 0.7650 0.7720 0.7750 0.7780
10.351000 0.7820 0.7850 0.7900 0.8000 0.8020
10.384309 0.8040 0.8090 0.8120 0.8190 0.8220
10.418000 0.8250 0.8270 0.8320 0.8340 0.8390
10.451309 0.8440 0.8450 0.8500 0.8520 0.8550
10.484000 0.8590 0.8620 0.8670 0.8670 0.8710
10.517309 0.8720 0.8760 0.8790 0.8820 0.8860
10.551000 0.8870 0.8910 0.8940 0.8960 0.9010
10.584309 0.9020 0.9020 0.9040 0.9060 0.9070
10.617000 0.9070 0.9090 0.9110 0.9140 0.9160
10.650309 0.9170 0.9210 0.9210 0.9220 0.9260
10.684000 0.9270 0.9290 0.9310 0.9310 0.9320
10.717309 0.9320 0.9340 0.9360 0.9380 0.9380
10.751000 0.9390 0.9410 0.9430 0.9440 0.9460
10.784309 0.9460 0.9480 0.9490 0.9490 0.9490
10.817000 0.9490 0.9490 0.9510 0.9510 0.9510
10.850309 0.9510 0.9490 0.9490 0.9490 0.9490
10.884000 0.9480 0.9480 0.9460 0.9460 0.9460
10.917309 0.9440 0.9430 0.9390 0.9360 0.9340
10.950000 0.9320 0.9270 0.9260 0.9220 0.9210
10.983309 0.9160 0.9090 0.9060 0.8970 0.8860
11.017000 0.8760 0.8640 0.8550 0.8490 0.8320
11.050309 0.8250 0.8090 0.7920 0.7820 0.7630
11.084000 0.7450 0.7280 0.7060 0.6810 0.6480
11.117309 0.6140 0.6010 0.5870 0.5620 0.5490
11.150000 0.5370 0.5270 0.5190 0.5070 0.4950
11.183309 0.4790 0.4580 0.4320 0.4070 0.3950
11.217000 0.3780 0.3610 0.3500 0.3430 0.3310
11.250309 0.3230 0.3160 0.3060 0.3030 0.2930
11.283000 0.2910 0.2880 0.2830 0.2790 0.2740
11.316309 0.2740 0.2730 0.2710 0.2710 0.2710
11.350000 0.2690 0.2690 0.2680 0.2680 0.2680
11.383309 0.2680 0.2680 0.2680 0.2680 0.2680
11.416000 0.2680 0.2680 0.2690 0.2690 0.2710
11.449309 0.2710 0.2730 0.2730 0.2740 0.2760
11.483000 0.2790 0.2810 0.2840 0.2880 0.2960
11.516309 0.3010 0.3060 0.3160 0.3230 0.3280
11.550000 0.3330 0.3380 0.3480 0.3550 0.3630
11.583309 0.3700 0.3760 0.3780 0.3780 0.3780
11.616000 0.3760 0.3760 0.3710 0.3700 0.3650
11.649309 0.3600 0.3510 0.3460 0.3400 0.3330
11.683000 0.3290 0.3180 0.3130 0.3080 0.3030
11.716309 0.2990 0.2960 0.2890 0.2860 0.2840
11.749000 0.2810 0.2790 0.2790 0.2790 0.2790
11.782309 0.2790 0.2830 0.2880 0.2960 0.3110
11.816000 0.3240 0.3450 0.3500 0.3680 0.3910
11.849309 0.4120 0.4250 0.4420 0.4630 0.4790
11.883000 0.4920 0.5070 0.5120 0.5340 0.5460
11.916309 0.5590 0.5710 0.5770 0.5890 0.6010
11.949000 0.6080 0.6110 0.6310 0.6410 0.6460
11.982309 0.6560 0.6630 0.6800 0.6880 0.6960
12.016000 0.7010 0.7060 0.7130 0.7130 0.7200
12.049309 0.7210 0.7250 0.7300 0.7330 0.7370
12.082000 0.7400 0.7430 0.7450 0.7500 0.7520
12.115309 0.7530 0.7550 0.7570 0.7600 0.7600
12.149000 0.7620 0.7620 0.7630 0.7630 0.7650
12.182309 0.7650 0.7650 0.7650 0.7680 0.7680
12.215000 0.7700 0.7700 0.7700 0.7700 0.7720
12.248309 0.7730 0.7770 0.7780 0.7800 0.7830
12.282000 0.7850 0.7870 0.7900 0.7930 0.7980
12.315309 0.8020 0.8020 0.8040 0.8050 0.8070
12.349000 0.8120 0.8150 0.8200 0.8240 0.8250
12.382309 0.8300 0.8320 0.8350 0.8390 0.8420
12.415000 0.8450 0.8490 0.8520 0.8540 0.8570
12.448309 0.8600 0.8640 0.8650 0.8690 0.8720
12.482000 0.8740 0.8790 0.8820 0.8860 0.8870
12.515309 0.8890 0.8920 0.8960 0.8970 0.8990
12.548000 0.9010 0.9010 0.9010 0.9020 0.9020
12.581309 0.9040 0.9070 0.9070 0.9110 0.9140
12.615000 0.9160 0.9170 0.9190 0.9210 0.9210
12.648309 0.9220 0.9240 0.9260 0.9260 0.9290
12.682000 0.9290 0.9310 0.9320 0.9320 0.9340
12.715309 0.9360 0.9380 0.9390 0.9390 0.9410
12.748000 0.9410 0.9430 0.9430 0.9430 0.9440
12.781309 0.9440 0.9440 0.9460 0.9460 0.9480
12.815000 0.9480 0.9480 0.9490 0.9490 0.9510
12.848309 0.9510 0.9510 0.9530 0.9530 0.9530
12.881000 0.9540 0.9540 0.9540 0.9560 0.9560
12.914309 0.9560 0.9560 0.9560 0.9590 0.9610
12.948000 0.9610 0.9610 0.9610 0.9630 0.9630
12.981309 0.9610 0.9610 0.9610 0.9610 0.9630
13.015000 0.9630 0.9640 0.9640 0.9640 0.9660
13.048309 0.9660 0.9660 0.9660 0.9660 0.9660
13.081000 0.9660 0.9660 0.9660 0.9640 0.9640
13.114309 0.9640 0.9640 0.9640 0.9640 0.9640
13.148000 0.9640 0.9640 0.9640 0.9640 0.9640
13.181309 0.9640 0.9640 0.9640 0.9630 0.9630
13.214000 0.9630 0.9630 0.9630 0.9630 0.9630
13.247309 0.9610 0.9610 0.9610 0.9610 0.9610
13.281000 0.9630 0.9630 0.9630 0.9610 0.9610
13.314309 0.9610 0.9610 0.9610 0.9610 0.9590
13.347000 0.9590 0.9590 0.9590 0.9610 0.9590
13.380309 0.9590 0.9590 0.9580 0.9580 0.9580
13.414000 0.9560 0.9560 0.9540 0.9540 0.9540
13.447309 0.9540 0.9540 0.9530 0.9530 0.9530
13.481000 0.9530 0.9530 0.9510 0.9510 0.9510
13.514309 0.9490 0.9480 0.9480 0.9480 0.9460
13.547000 0.9460 0.9460 0.9460 0.9440 0.9440
13.580309 0.9440 0.9430 0.9430 0.9430 0.9430
13.614000 0.9410 0.9390 0.9380 0.9380 0.9360
13.647309 0.9360 0.9360 0.9340 0.9340 0.9340
13.680000 0.9340 0.9320 0.9320 0.9310 0.9310
13.713309 0.9270 0.9270 0.9270 0.9260 0.9260
13.747000 0.9260 0.9260 0.9240 0.9240 0.9220
13.780309 0.9220 0.9210 0.9210 0.9190 0.9170
13.814000 0.9160 0.9140 0.9140 0.9140 0.9140
13.847309 0.9120 0.9120 0.9120 0.9110 0.9090
13.880000 0.9070 0.9060 0.9060 0.9060 0.9040
13.913309 0.9040 0.9040 0.9040 0.9020 0.9020
13.947000 0.9020 0.9010 0.9010 0.8990 0.8990
13.980309 0.8990 0.8990 0.8960 0.8940 0.8920
14.013000 0.8910 0.8910 0.8890 0.8890 0.8870
14.046309 0.8870 0.8870 0.8860 0.8860 0.8840
14.080000 0.8840 0.8820 0.8810 0.8810 0.8790
14.113309 0.8790 0.8770 0.8770 0.8760 0.8760
14.146000 0.8740 0.8720 0.8710 0.8690 0.8690
14.179309 0.8670 0.8670 0.8650 0.8620 0.8590
14.213000 0.8590 0.8550 0.8540 0.8520 0.8520
14.246309 0.8520 0.8520 0.8500 0.8490 0.8490
14.280000 0.8450 0.8440 0.8420 0.8400 0.8400
14.313309 0.8390 0.8350 0.8340 0.8320 0.8320
14.346000 0.8300 0.8290 0.8290 0.8250 0.8250
14.379309 0.8240 0.8240 0.8220 0.8200 0.8170
14.413000 0.8150 0.8150 0.8140 0.8140 0.8100
14.446309 0.8090 0.8090 0.8070 0.8020 0.8000
14.479000 0.7980 0.7970 0.7970 0.7950 0.7950
14.512309 0.7920 0.7880 0.7850 0.7850 0.7820
14.546000 0.7820 0.7800 0.7780 0.7730 0.7730
14.579309 0.7700 0.7680 0.7670 0.7670 0.7650
14.613000 0.7630 0.7620 0.7600 0.7600 0.7580
14.646309 0.7580 0.7550 0.7520 0.7480 0.7470
14.679000 0.7470 0.7450 0.7430 0.7420 0.7400
14.712309 0.7380 0.7370 0.7350 0.7330 0.7310
14.746000 0.7300 0.7280 0.7250 0.7230 0.7230
14.779309 0.7230 0.7230 0.7210 0.7200 0.7180
14.812000 0.7160 0.7150 0.7150 0.7130 0.7110
14.845309 0.7100 0.7060 0.7030 0.7050 0.7030
14.879000 0.7010 0.7010 0.7000 0.7000 0.7000
14.912309 0.6980 0.6980 0.6960 0.6960 0.6930
14.946000 0.6930 0.6930 0.6910 0.6910 0.6910
14.979309 0.6900 0.6900 0.6880 0.6880 0.6860
15.012000 0.6880 0.6860 0.6860 0.6860 0.6850
15.045309 0.6830 0.6830 0.6830 0.6830 0.6830
15.079000 0.6810 0.6810 0.6800 0.6800 0.6800
15.112309 0.6800 0.6780 0.6800 0.6800 0.6780
15.145000 0.6780 0.6760 0.6750 0.6750 0.6730
15.178309 0.6730 0.6730 0.6730 0.6730 0.6730
15.212000 0.6750 0.6750 0.6750 0.6750 0.6730
15.245309 0.6730 0.6730 0.6730 0.6730 0.6730
15.278000 0.6730 0.6730 0.6730 0.6730 0.6730
15.311309 0.6750 0.6750 0.6730 0.6730 0.6730
15.345000 0.6710 0.6710 0.6730 0.6730 0.6730
15.378309 0.6730 0.6730 0.6710 0.6710 0.6730
15.412000 0.6730 0.6750 0.6730 0.6730 0.6730
15.445309 0.6730 0.6730 0.6730 0.6730 0.6730
15.478000 0.6730 0.6750 0.6750 0.6760 0.6750
15.511309 0.6750 0.6750 0.6750 0.6750 0.6750
15.545000 0.6750 0.6750 0.6750 0.6750 0.6750
15.578309 0.6750 0.6750 0.6750 0.6750 0.6750
15.611000 0.6750 0.6750 0.6750 0.6750 0.6750
15.644309 0.6750 0.6750 0.6750 0.6760 0.6760
15.678000 0.6760 0.6780 0.6760 0.6760 0.6750
15.711309 0.6750 0.6750 0.6750 0.6750 0.6760
15.745000 0.6780 0.6780 0.6760 0.6760 0.6800
15.778309 0.6800 0.6780 0.6780 0.6780 0.6800
15.811000 0.6800 0.6810 0.6810 0.6810 0.6830
15.844309 0.6830 0.6830 0.6830 0.6830 0.6850
15.878000 0.6850 0.6850 0.6860 0.6860 0.6880
15.911309 0.6900 0.6910 0.6910 0.6910 0.6930
15.944000 0.6930 0.6930 0.6950 0.6950 0.6960
15.977309 0.6960 0.6960 0.6980
##END=
