##TITLE=BENTONE 34
##JCAMP-DX=4.24
##DATA TYPE=INFRARED SPECTRUM
##CLASS=COBLENTZ
##ORIGIN=DESOTO CHEMICAL COATINGS, INC.
##OWNER=COBLENTZ SOCIETY
Collection (C) 2018 copyright by the U.S. Secretary of Commerce
on behalf of the United States of America. All rights reserved.
##DATE=Not specified, most likely prior to 1970
##NAMES=BENTONE 34
##MOLFORM=O11 Al2 Si4  * 2 H2 O
##SOURCE REFERENCE=COBLENTZ NO. 4668
##$NIST ID=B6004668
##$NIST SOURCE=COBLENTZ
##$NIST IMAGE=cob4668
##SPECTROMETER/DATA SYSTEM=Not specified, most likely a grating spectrometer.
##STATE=SOLID (0.3 mg / 300 mg CsI DISC) PLUS OIL
##SAMPLING PROCEDURE=TRANSMISSION
##RESOLUTION=4
##DATA PROCESSING=DIGITIZED BY NIST FROM HARD COPY (FROM TWO SEGMENTS)
##XUNITS=1/CM
##YUNITS=TRANSMITTANCE
##XFACTOR=1.000000
##YFACTOR=1
##DELTAX=1.328417
##FIRSTX=198.672
##LASTX=3983.33
##FIRSTY=0.775
##MAXX=3983.33
##MINX=198.672
##MAXY=0.974
##MINY=0.203
##NPOINTS=2850
##XYDATA=(X++(Y..Y))
198.672000 0.7750 0.7730 0.7730 0.7750 0.7730
205.314085 0.7730 0.7730 0.7730 0.7750 0.7750
211.956169 0.7750 0.7760 0.7760 0.7760 0.7760
218.598254 0.7760 0.7760 0.7770 0.7770 0.7770
225.240339 0.7770 0.7790 0.7830 0.7850 0.7870
231.882423 0.7870 0.7880 0.7890 0.7910 0.7950
238.524508 0.7960 0.7970 0.7990 0.8000 0.8010
245.166593 0.8010 0.8030 0.8040 0.8050 0.8050
251.808677 0.8050 0.8050 0.8070 0.8070 0.8070
258.450762 0.8070 0.8070 0.8070 0.8070 0.8070
265.092847 0.8070 0.8050 0.8050 0.8050 0.8050
271.734931 0.8040 0.8030 0.8030 0.8010 0.8000
278.377016 0.7990 0.7990 0.7970 0.7960 0.7960
285.019101 0.7950 0.7950 0.7930 0.7920 0.7910
291.661185 0.7890 0.7880 0.7880 0.7870 0.7870
298.303270 0.7870 0.7870 0.7870 0.7850 0.7850
304.945355 0.7850 0.7840 0.7840 0.7830 0.7810
311.587439 0.7800 0.7790 0.7770 0.7760 0.7750
318.229524 0.7730 0.7720 0.7710 0.7690 0.7680
324.871609 0.7670 0.7650 0.7640 0.7630 0.7600
331.513693 0.7570 0.7550 0.7520 0.7480 0.7470
338.155778 0.7460 0.7420 0.7390 0.7340 0.7300
344.797863 0.7280 0.7270 0.7270 0.7220 0.7190
351.439947 0.7180 0.7180 0.7190 0.7190 0.7200
358.082032 0.7220 0.7230 0.7240 0.7260 0.7260
364.724117 0.7260 0.7270 0.7270 0.7300 0.7320
371.366201 0.7340 0.7340 0.7340 0.7340 0.7310
378.008286 0.7310 0.7300 0.7300 0.7300 0.7300
384.650371 0.7310 0.7320 0.7320 0.7320 0.7340
391.292455 0.7340 0.7320 0.7310 0.7300 0.7270
397.934540 0.7260 0.7240 0.7200 0.7180 0.7180
404.576625 0.7160 0.7160 0.7120 0.7110 0.7080
411.218709 0.7040 0.6980 0.6920 0.6860 0.6780
417.860794 0.6720 0.6710 0.6620 0.6560 0.6540
424.502879 0.6510 0.6500 0.6480 0.6470 0.6460
431.144963 0.6430 0.6400 0.6360 0.6300 0.6270
437.787048 0.6250 0.6140 0.6030 0.5940 0.5870
444.429133 0.5780 0.5631 0.5431 0.5291 0.5111
451.071217 0.4920 0.4720 0.4540 0.4200 0.4040
457.713302 0.3880 0.3721 0.3561 0.3431 0.3390
464.355387 0.3370 0.3390 0.3520 0.3760 0.4049
470.997471 0.4239 0.4409 0.4778 0.5098 0.5378
477.639556 0.5650 0.5900 0.6150 0.6400 0.6580
484.281641 0.6700 0.6800 0.6900 0.6940 0.7020
490.923725 0.7110 0.7190 0.7280 0.7340 0.7380
497.565810 0.7390 0.7400 0.7400 0.7380 0.7281
504.207895 0.7230 0.7200 0.7030 0.6900 0.6541
510.849979 0.6311 0.6091 0.5971 0.5821 0.5591
517.492064 0.5490 0.5410 0.5340 0.5310 0.5330
524.134149 0.5410 0.5470 0.5540 0.5689 0.5889
530.776233 0.6130 0.6310 0.6380 0.6540 0.6660
537.418318 0.6700 0.6740 0.6840 0.6989 0.7060
544.060403 0.7160 0.7190 0.7270 0.7340 0.7400
550.702487 0.7480 0.7560 0.7600 0.7640 0.7690
557.344572 0.7730 0.7760 0.7790 0.7810 0.7870
563.986657 0.7910 0.7920 0.7990 0.8000 0.8010
570.628741 0.8040 0.8080 0.8110 0.8120 0.8130
577.270826 0.8190 0.8210 0.8270 0.8350 0.8390
583.912911 0.8410 0.8440 0.8480 0.8490 0.8510
590.554995 0.8510 0.8520 0.8520 0.8520 0.8520
597.197080 0.8520 0.8520 0.8520 0.8520 0.8520
603.839165 0.8520 0.8520 0.8520 0.8520 0.8510
610.481249 0.8510 0.8490 0.8490 0.8480 0.8480
617.123334 0.8440 0.8430 0.8400 0.8310 0.8280
623.765419 0.8250 0.8210 0.8190 0.8160 0.8150
630.407503 0.8150 0.8160 0.8200 0.8240 0.8290
637.049588 0.8390 0.8440 0.8490 0.8530 0.8600
643.691673 0.8680 0.8770 0.8810 0.8840 0.8880
650.333757 0.8920 0.8970 0.8980 0.9000 0.9000
656.975842 0.9050 0.9090 0.9100 0.9130 0.9160
663.617927 0.9170 0.9180 0.9180 0.9200 0.9220
670.260011 0.9220 0.9240 0.9260 0.9280 0.9290
676.902096 0.9300 0.9300 0.9320 0.9360 0.9370
683.544181 0.9380 0.9380 0.9380 0.9380 0.9400
690.186265 0.9410 0.9410 0.9400 0.9400 0.9400
696.828350 0.9400 0.9400 0.9400 0.9400 0.9400
703.470435 0.9410 0.9410 0.9410 0.9410 0.9420
710.112519 0.9420 0.9440 0.9450 0.9450 0.9450
716.754604 0.9460 0.9460 0.9450 0.9420 0.9400
723.396689 0.9380 0.9360 0.9340 0.9340 0.9360
730.038773 0.9380 0.9400 0.9400 0.9410 0.9410
736.680858 0.9420 0.9480 0.9500 0.9520 0.9530
743.322943 0.9560 0.9580 0.9580 0.9600 0.9610
749.965027 0.9620 0.9650 0.9660 0.9680 0.9680
756.607112 0.9680 0.9680 0.9690 0.9690 0.9690
763.249197 0.9690 0.9690 0.9700 0.9700 0.9720
769.891281 0.9720 0.9720 0.9730 0.9730 0.9730
776.533366 0.9740 0.9740 0.9740 0.9740 0.9730
783.175451 0.9720 0.9720 0.9700 0.9690 0.9690
789.817535 0.9680 0.9660 0.9650 0.9640 0.9640
796.459620 0.9620 0.9610 0.9610 0.9610 0.9600
803.101705 0.9600 0.9580 0.9580 0.9580 0.9600
809.743789 0.9600 0.9610 0.9620 0.9620 0.9620
816.385874 0.9640 0.9650 0.9650 0.9660 0.9660
823.027959 0.9650 0.9650 0.9660 0.9660 0.9660
829.670043 0.9650 0.9620 0.9610 0.9580 0.9580
836.312128 0.9570 0.9560 0.9530 0.9490 0.9450
842.954213 0.9410 0.9400 0.9360 0.9330 0.9320
849.596297 0.9320 0.9300 0.9300 0.9300 0.9300
856.238382 0.9290 0.9290 0.9290 0.9290 0.9290
862.880467 0.9290 0.9290 0.9290 0.9290 0.9290
869.522551 0.9280 0.9280 0.9250 0.9240 0.9210
876.164636 0.9200 0.9130 0.9100 0.9080 0.8960
882.806721 0.8900 0.8880 0.8860 0.8840 0.8820
889.448805 0.8800 0.8760 0.8730 0.8720 0.8720
896.090890 0.8720 0.8730 0.8730 0.8730 0.8720
902.732975 0.8690 0.8690 0.8650 0.8610 0.8600
909.375059 0.8530 0.8490 0.8430 0.8360 0.8330
916.017144 0.8310 0.8280 0.8250 0.8240 0.8230
922.659229 0.8210 0.8210 0.8230 0.8250 0.8280
929.301313 0.8350 0.8410 0.8440 0.8490 0.8510
935.943398 0.8520 0.8560 0.8590 0.8630 0.8670
942.585483 0.8710 0.8710 0.8730 0.8750 0.8760
949.227567 0.8770 0.8770 0.8780 0.8800 0.8800
955.869652 0.8800 0.8800 0.8780 0.8730 0.8690
962.511737 0.8640 0.8610 0.8600 0.8530 0.8520
969.153821 0.8440 0.8400 0.8350 0.8270 0.8210
975.795906 0.8120 0.8040 0.7930 0.7830 0.7691
982.437991 0.7600 0.7430 0.7310 0.7230 0.7140
989.080076 0.6990 0.6541 0.6390 0.6260 0.6131
995.722160 0.5970 0.5770 0.5570 0.5370 0.5170
1002.364245 0.4970 0.4800 0.4651 0.4252 0.4091
1009.006330 0.3940 0.3780 0.3640 0.3480 0.3310
1015.648414 0.3170 0.3040 0.2960 0.2890 0.2800
1022.290499 0.2710 0.2600 0.2520 0.2480 0.2420
1028.932584 0.2360 0.2310 0.2270 0.2200 0.2190
1035.574668 0.2180 0.2120 0.2110 0.2070 0.2060
1042.216753 0.2040 0.2040 0.2030 0.2030 0.2040
1048.858838 0.2060 0.2080 0.2140 0.2200 0.2260
1055.500922 0.2280 0.2440 0.2570 0.2789 0.2999
1062.143007 0.3130 0.3250 0.3370 0.3430 0.3510
1068.785092 0.3560 0.3590 0.3600 0.3610 0.3610
1075.427176 0.3630 0.3630 0.3630 0.3630 0.3630
1082.069261 0.3640 0.3670 0.3710 0.3780 0.3880
1088.711346 0.4000 0.4080 0.4200 0.4300 0.4360
1095.353430 0.4410 0.4500 0.4600 0.4720 0.4810
1101.995515 0.4930 0.5010 0.5070 0.5130 0.5190
1108.637600 0.5250 0.5340 0.5470 0.5530 0.5590
1115.279684 0.5690 0.5780 0.5830 0.5930 0.6050
1121.921769 0.6190 0.6260 0.6380 0.6619 0.6710
1128.563854 0.6800 0.6940 0.7060 0.7220 0.7350
1135.205938 0.7430 0.7500 0.7530 0.7610 0.7650
1141.848023 0.7790 0.7850 0.7890 0.7990 0.8010
1148.490108 0.8030 0.8110 0.8190 0.8240 0.8290
1155.132192 0.8310 0.8330 0.8410 0.8430 0.8470
1161.774277 0.8520 0.8550 0.8590 0.8630 0.8640
1168.416362 0.8670 0.8710 0.8730 0.8770 0.8800
1175.058446 0.8820 0.8890 0.8920 0.8940 0.8980
1181.700531 0.9000 0.9010 0.9020 0.9050 0.9080
1188.342616 0.9100 0.9130 0.9140 0.9160 0.9180
1194.984700 0.9210 0.9240 0.9260 0.9260 0.9300
1201.626785 0.9300 0.9330 0.9340 0.9360 0.9360
1208.268870 0.9370 0.9400 0.9410 0.9460 0.9480
1214.910954 0.9490 0.9500 0.9520 0.9530 0.9540
1221.553039 0.9540 0.9570 0.9570 0.9580 0.9580
1228.195124 0.9600 0.9600 0.9610 0.9610 0.9620
1234.837208 0.9620 0.9620 0.9640 0.9640 0.9640
1241.479293 0.9650 0.9650 0.9650 0.9650 0.9650
1248.121378 0.9650 0.9650 0.9660 0.9660 0.9650
1254.763462 0.9650 0.9660 0.9660 0.9680 0.9660
1261.405547 0.9680 0.9680 0.9690 0.9690 0.9690
1268.047632 0.9700 0.9700 0.9700 0.9720 0.9720
1274.689716 0.9700 0.9700 0.9700 0.9700 0.9700
1281.331801 0.9700 0.9690 0.9690 0.9700 0.9700
1287.973886 0.9700 0.9700 0.9700 0.9690 0.9700
1294.615970 0.9700 0.9720 0.9730 0.9730 0.9730
1301.258055 0.9730 0.9720 0.9720 0.9720 0.9720
1307.900140 0.9700 0.9700 0.9690 0.9690 0.9690
1314.542224 0.9700 0.9700 0.9700 0.9700 0.9700
1321.184309 0.9690 0.9690 0.9700 0.9720 0.9720
1327.826394 0.9730 0.9730 0.9730 0.9730 0.9730
1334.468478 0.9730 0.9730 0.9730 0.9720 0.9720
1341.110563 0.9720 0.9720 0.9720 0.9720 0.9700
1347.752648 0.9700 0.9700 0.9690 0.9690 0.9700
1354.394732 0.9700 0.9720 0.9720 0.9720 0.9700
1361.036817 0.9700 0.9700 0.9690 0.9690 0.9680
1367.678902 0.9680 0.9680 0.9660 0.9660 0.9660
1374.320986 0.9660 0.9650 0.9650 0.9650 0.9650
1380.963071 0.9650 0.9650 0.9650 0.9650 0.9650
1387.605156 0.9650 0.9640 0.9640 0.9640 0.9640
1394.247240 0.9640 0.9640 0.9640 0.9650 0.9650
1400.889325 0.9660 0.9660 0.9660 0.9660 0.9660
1407.531410 0.9680 0.9690 0.9690 0.9690 0.9690
1414.173494 0.9690 0.9680 0.9660 0.9660 0.9660
1420.815579 0.9650 0.9650 0.9650 0.9680 0.9680
1427.457664 0.9680 0.9680 0.9660 0.9650 0.9610
1434.099748 0.9610 0.9570 0.9570 0.9570 0.9540
1440.741833 0.9540 0.9530 0.9520 0.9520 0.9490
1447.383918 0.9460 0.9450 0.9450 0.9440 0.9380
1454.026002 0.9370 0.9340 0.9320 0.9300 0.9290
1460.668087 0.9250 0.9210 0.9130 0.9100 0.9060
1467.310172 0.8920 0.8840 0.8820 0.8840 0.8900
1473.952256 0.8980 0.9020 0.9060 0.9140 0.9210
1480.594341 0.9210 0.9250 0.9280 0.9290 0.9300
1487.236426 0.9300 0.9320 0.9330 0.9340 0.9370
1493.878510 0.9380 0.9440 0.9490 0.9520 0.9540
1500.520595 0.9600 0.9620 0.9620 0.9650 0.9650
1507.162680 0.9650 0.9650 0.9660 0.9660 0.9660
1513.804764 0.9660 0.9660 0.9660 0.9660 0.9660
1520.446849 0.9660 0.9660 0.9660 0.9660 0.9660
1527.088934 0.9660 0.9660 0.9660 0.9660 0.9660
1533.731018 0.9660 0.9660 0.9660 0.9660 0.9660
1540.373103 0.9660 0.9660 0.9660 0.9660 0.9650
1547.015188 0.9650 0.9650 0.9650 0.9650 0.9650
1553.657272 0.9650 0.9650 0.9640 0.9640 0.9640
1560.299357 0.9640 0.9640 0.9640 0.9640 0.9640
1566.941442 0.9640 0.9640 0.9640 0.9640 0.9620
1573.583526 0.9610 0.9600 0.9580 0.9580 0.9580
1580.225611 0.9570 0.9560 0.9560 0.9540 0.9530
1586.867696 0.9520 0.9500 0.9500 0.9490 0.9460
1593.509780 0.9440 0.9410 0.9410 0.9370 0.9340
1600.151865 0.9320 0.9290 0.9260 0.9250 0.9200
1606.793950 0.9180 0.9170 0.9160 0.9140 0.9090
1613.436034 0.9090 0.9080 0.9080 0.9060 0.9060
1620.078119 0.9060 0.9060 0.9080 0.9090 0.9090
1626.720204 0.9100 0.9100 0.9120 0.9130 0.9160
1633.362288 0.9180 0.9200 0.9200 0.9210 0.9220
1640.004373 0.9240 0.9250 0.9250 0.9260 0.9260
1646.646458 0.9280 0.9280 0.9280 0.9290 0.9290
1653.288542 0.9290 0.9320 0.9330 0.9340 0.9370
1659.930627 0.9370 0.9400 0.9400 0.9410 0.9410
1666.572712 0.9410 0.9410 0.9420 0.9420 0.9420
1673.214796 0.9440 0.9440 0.9440 0.9440 0.9440
1679.856881 0.9450 0.9460 0.9480 0.9480 0.9500
1686.498966 0.9500 0.9500 0.9500 0.9520 0.9530
1693.141050 0.9530 0.9530 0.9530 0.9520 0.9520
1699.783135 0.9520 0.9520 0.9520 0.9530 0.9560
1706.425220 0.9560 0.9570 0.9570 0.9570 0.9570
1713.067304 0.9570 0.9570 0.9570 0.9570 0.9570
1719.709389 0.9560 0.9560 0.9560 0.9570 0.9570
1726.351474 0.9570 0.9570 0.9600 0.9600 0.9600
1732.993558 0.9570 0.9570 0.9560 0.9560 0.9560
1739.635643 0.9560 0.9560 0.9570 0.9580 0.9600
1746.277728 0.9600 0.9600 0.9600 0.9600 0.9600
1752.919812 0.9600 0.9580 0.9600 0.9600 0.9600
1759.561897 0.9600 0.9610 0.9610 0.9600 0.9600
1766.203982 0.9600 0.9600 0.9580 0.9610 0.9610
1772.846066 0.9580 0.9580 0.9580 0.9580 0.9580
1779.488151 0.9580 0.9570 0.9570 0.9580 0.9580
1786.130236 0.9580 0.9580 0.9570 0.9570 0.9570
1792.772320 0.9570 0.9600 0.9600 0.9600 0.9600
1799.414405 0.9600 0.9580 0.9580 0.9570 0.9570
1806.056490 0.9570 0.9560 0.9530 0.9530 0.9560
1812.698574 0.9570 0.9570 0.9570 0.9570 0.9570
1819.340659 0.9560 0.9560 0.9560 0.9540 0.9560
1825.982744 0.9570 0.9570 0.9560 0.9560 0.9530
1832.624828 0.9530 0.9530 0.9530 0.9540 0.9560
1839.266913 0.9560 0.9560 0.9570 0.9570 0.9570
1845.908998 0.9560 0.9560 0.9560 0.9560 0.9530
1852.551082 0.9530 0.9530 0.9530 0.9530 0.9530
1859.193167 0.9530 0.9540 0.9540 0.9540 0.9540
1865.835252 0.9540 0.9540 0.9540 0.9540 0.9520
1872.477336 0.9500 0.9500 0.9500 0.9520 0.9540
1879.119421 0.9530 0.9530 0.9530 0.9540 0.9540
1885.761506 0.9530 0.9530 0.9530 0.9530 0.9520
1892.403590 0.9520 0.9530 0.9530 0.9530 0.9520
1899.045675 0.9520 0.9520 0.9520 0.9520 0.9540
1905.687760 0.9540 0.9530 0.9530 0.9520 0.9520
1912.329844 0.9520 0.9530 0.9530 0.9530 0.9530
1918.971929 0.9530 0.9530 0.9520 0.9500 0.9490
1925.614014 0.9490 0.9490 0.9490 0.9490 0.9500
1932.256098 0.9520 0.9500 0.9500 0.9490 0.9490
1938.898183 0.9490 0.9480 0.9480 0.9500 0.9500
1945.540268 0.9500 0.9520 0.9520 0.9520 0.9520
1952.182352 0.9500 0.9490 0.9490 0.9500 0.9500
1958.824437 0.9520 0.9520 0.9520 0.9500 0.9500
1965.466522 0.9500 0.9500 0.9500 0.9490 0.9490
1972.108606 0.9460 0.9480 0.9480 0.9480 0.9480
1978.750691 0.9480 0.9480 0.9480 0.9480 0.9460
1985.392776 0.9480 0.9480 0.9500 0.9520 0.9520
1992.034860 0.9520 0.9500 0.9500 0.9500 0.9500
1998.676945 0.9500 0.9490 0.9485 0.9480 0.9470
2005.319030 0.9460 0.9455 0.9450 0.9450 0.9450
2011.961114 0.9450 0.9450 0.9450 0.9450 0.9450
2018.603199 0.9450 0.9450 0.9450 0.9455 0.9460
2025.245284 0.9460 0.9460 0.9460 0.9460 0.9460
2031.887368 0.9460 0.9470 0.9480 0.9470 0.9460
2038.529453 0.9460 0.9460 0.9460 0.9460 0.9460
2045.171538 0.9460 0.9455 0.9450 0.9450 0.9450
2051.813622 0.9450 0.9450 0.9450 0.9450 0.9445
2058.455707 0.9440 0.9440 0.9440 0.9440 0.9440
2065.097792 0.9440 0.9440 0.9431 0.9421 0.9420
2071.739876 0.9420 0.9420 0.9420 0.9420 0.9420
2078.381961 0.9420 0.9420 0.9420 0.9420 0.9420
2085.024046 0.9420 0.9420 0.9420 0.9420 0.9420
2091.666130 0.9420 0.9420 0.9420 0.9420 0.9420
2098.308215 0.9420 0.9420 0.9420 0.9420 0.9420
2104.950300 0.9420 0.9420 0.9420 0.9420 0.9429
2111.592384 0.9439 0.9440 0.9440 0.9431 0.9421
2118.234469 0.9420 0.9420 0.9416 0.9411 0.9406
2124.876554 0.9401 0.9400 0.9400 0.9404 0.9409
2131.518638 0.9414 0.9420 0.9429 0.9439 0.9440
2138.160723 0.9440 0.9427 0.9412 0.9406 0.9401
2144.802808 0.9400 0.9400 0.9400 0.9400 0.9400
2151.444892 0.9400 0.9400 0.9400 0.9404 0.9409
2158.086977 0.9410 0.9410 0.9410 0.9410 0.9406
2164.729062 0.9401 0.9400 0.9400 0.9400 0.9400
2171.371146 0.9400 0.9400 0.9391 0.9381 0.9380
2178.013231 0.9380 0.9380 0.9380 0.9380 0.9380
2184.655316 0.9380 0.9380 0.9380 0.9380 0.9380
2191.297400 0.9380 0.9380 0.9380 0.9380 0.9380
2197.939485 0.9380 0.9380 0.9380 0.9380 0.9376
2204.581570 0.9371 0.9370 0.9370 0.9370 0.9370
2211.223654 0.9370 0.9370 0.9374 0.9379 0.9380
2217.865739 0.9380 0.9388 0.9398 0.9400 0.9400
2224.507824 0.9404 0.9409 0.9406 0.9401 0.9392
2231.149908 0.9382 0.9380 0.9380 0.9380 0.9380
2237.791993 0.9380 0.9380 0.9380 0.9380 0.9380
2244.434078 0.9380 0.9380 0.9380 0.9376 0.9371
2251.076162 0.9370 0.9370 0.9370 0.9370 0.9370
2257.718247 0.9370 0.9374 0.9379 0.9380 0.9380
2264.360332 0.9372 0.9362 0.9360 0.9360 0.9352
2271.002416 0.9342 0.9340 0.9340 0.9340 0.9340
2277.644501 0.9340 0.9340 0.9336 0.9331 0.9330
2284.286586 0.9330 0.9330 0.9330 0.9330 0.9330
2290.928670 0.9330 0.9330 0.9330 0.9330 0.9334
2297.570755 0.9339 0.9340 0.9340 0.9340 0.9340
2304.212840 0.9348 0.9358 0.9360 0.9360 0.9360
2310.854924 0.9360 0.9360 0.9360 0.9360 0.9360
2317.497009 0.9360 0.9360 0.9352 0.9342 0.9336
2324.139094 0.9331 0.9330 0.9330 0.9326 0.9321
2330.781178 0.9313 0.9303 0.9296 0.9291 0.9290
2337.423263 0.9290 0.9286 0.9281 0.9273 0.9263
2344.065348 0.9256 0.9251 0.9246 0.9241 0.9240
2350.707432 0.9240 0.9233 0.9223 0.9220 0.9220
2357.349517 0.9216 0.9211 0.9210 0.9210 0.9210
2363.991602 0.9210 0.9206 0.9202 0.9200 0.9200
2370.633686 0.9204 0.9209 0.9210 0.9210 0.9210
2377.275771 0.9210 0.9214 0.9219 0.9227 0.9237
2383.917856 0.9243 0.9248 0.9253 0.9258 0.9260
2390.559940 0.9260 0.9267 0.9277 0.9280 0.9280
2397.202025 0.9283 0.9288 0.9290 0.9290 0.9290
2403.844110 0.9290 0.9287 0.9282 0.9280 0.9280
2410.486194 0.9273 0.9263 0.9260 0.9260 0.9260
2417.128279 0.9260 0.9260 0.9260 0.9260 0.9260
2423.770364 0.9260 0.9260 0.9260 0.9260 0.9260
2430.412448 0.9260 0.9267 0.9277 0.9280 0.9280
2437.054533 0.9280 0.9280 0.9280 0.9280 0.9280
2443.696618 0.9280 0.9280 0.9280 0.9280 0.9280
2450.338702 0.9280 0.9280 0.9280 0.9280 0.9280
2456.980787 0.9280 0.9280 0.9280 0.9280 0.9280
2463.622872 0.9280 0.9280 0.9274 0.9264 0.9260
2470.264956 0.9260 0.9257 0.9252 0.9250 0.9250
2476.907041 0.9250 0.9250 0.9247 0.9242 0.9240
2483.549126 0.9240 0.9234 0.9224 0.9220 0.9220
2490.191210 0.9220 0.9220 0.9220 0.9220 0.9220
2496.833295 0.9220 0.9220 0.9220 0.9220 0.9220
2503.475380 0.9220 0.9220 0.9220 0.9220 0.9226
2510.117464 0.9236 0.9240 0.9240 0.9240 0.9240
2516.759549 0.9240 0.9240 0.9234 0.9224 0.9220
2523.401634 0.9220 0.9220 0.9220 0.9217 0.9212
2530.043718 0.9210 0.9210 0.9210 0.9210 0.9210
2536.685803 0.9210 0.9213 0.9218 0.9217 0.9212
2543.327888 0.9210 0.9210 0.9210 0.9210 0.9210
2549.969973 0.9210 0.9213 0.9218 0.9217 0.9212
2556.612057 0.9210 0.9210 0.9210 0.9210 0.9210
2563.254142 0.9210 0.9210 0.9210 0.9210 0.9210
2569.896227 0.9207 0.9202 0.9200 0.9200 0.9203
2576.538311 0.9208 0.9210 0.9210 0.9210 0.9210
2583.180396 0.9207 0.9202 0.9195 0.9185 0.9180
2589.822481 0.9180 0.9180 0.9180 0.9180 0.9180
2596.464565 0.9180 0.9180 0.9180 0.9180 0.9180
2603.106650 0.9180 0.9180 0.9180 0.9185 0.9195
2609.748735 0.9200 0.9200 0.9200 0.9200 0.9200
2616.390819 0.9200 0.9200 0.9200 0.9195 0.9185
2623.032904 0.9177 0.9172 0.9170 0.9170 0.9170
2629.674989 0.9170 0.9168 0.9163 0.9160 0.9160
2636.317073 0.9160 0.9160 0.9160 0.9160 0.9160
2642.959158 0.9160 0.9160 0.9160 0.9160 0.9160
2649.601243 0.9160 0.9160 0.9160 0.9160 0.9160
2656.243327 0.9160 0.9155 0.9145 0.9140 0.9140
2662.885412 0.9140 0.9140 0.9140 0.9140 0.9140
2669.527497 0.9140 0.9138 0.9133 0.9130 0.9130
2676.169581 0.9130 0.9130 0.9130 0.9130 0.9130
2682.811666 0.9130 0.9128 0.9123 0.9120 0.9120
2689.453751 0.9120 0.9120 0.9122 0.9127 0.9128
2696.095835 0.9123 0.9120 0.9120 0.9120 0.9120
2702.737920 0.9120 0.9120 0.9120 0.9120 0.9116
2709.380005 0.9106 0.9100 0.9100 0.9100 0.9100
2716.022089 0.9100 0.9100 0.9100 0.9100 0.9100
2722.664174 0.9100 0.9100 0.9100 0.9100 0.9100
2729.306259 0.9098 0.9093 0.9090 0.9090 0.9090
2735.948343 0.9090 0.9090 0.9090 0.9090 0.9090
2742.590428 0.9092 0.9097 0.9098 0.9093 0.9090
2749.232513 0.9090 0.9090 0.9090 0.9088 0.9083
2755.874597 0.9082 0.9087 0.9088 0.9083 0.9076
2762.516682 0.9066 0.9060 0.9060 0.9060 0.9060
2769.158767 0.9060 0.9060 0.9060 0.9060 0.9060
2775.800851 0.9060 0.9060 0.9060 0.9058 0.9053
2782.442936 0.9050 0.9050 0.9048 0.9043 0.9040
2789.085021 0.9040 0.9036 0.9026 0.9020 0.9020
2795.727105 0.9018 0.9013 0.9010 0.9010 0.9008
2802.369190 0.9003 0.8996 0.8986 0.8978 0.8973
2809.011275 0.8968 0.8963 0.8956 0.8946 0.8938
2815.653359 0.8933 0.8928 0.8923 0.8913 0.8893
2822.295444 0.8873 0.8853 0.8835 0.8820 0.8794
2828.937529 0.8749 0.8699 0.8639 0.8438 0.7974
2835.579613 0.7617 0.7462 0.7311 0.7166 0.6969
2842.221698 0.6670 0.6470 0.6470 0.6511 0.6635
2848.863783 0.6759 0.6880 0.6970 0.7000 0.7081
2855.505867 0.7260 0.7423 0.7553 0.7691 0.7846
2862.147952 0.7952 0.7957 0.7968 0.7993 0.8019
2868.790037 0.8049 0.8073 0.8083 0.8093 0.8103
2875.432121 0.8113 0.8123 0.8130 0.8130 0.8127
2882.074206 0.8117 0.8101 0.8071 0.8041 0.8011
2888.716291 0.7978 0.7938 0.7901 0.7871 0.7799
2895.358375 0.7624 0.7457 0.7307 0.7120 0.6841
2902.000460 0.6617 0.6536 0.6364 0.5980 0.5683
2908.642545 0.5593 0.5508 0.5433 0.5347 0.5232
2915.284629 0.5150 0.5150 0.5181 0.5290 0.5427
2921.926714 0.5637 0.5855 0.6094 0.6322 0.6516
2928.568799 0.6677 0.6743 0.6808 0.6873 0.6952
2935.210883 0.7067 0.7184 0.7309 0.7427 0.7526
2941.852968 0.7609 0.7644 0.7675 0.7695 0.7711
2948.495053 0.7716 0.7720 0.7720 0.7724 0.7739
2955.137137 0.7762 0.7813 0.7860 0.7900 0.7944
2961.779222 0.7999 0.8056 0.8121 0.8182 0.8232
2968.421307 0.8285 0.8344 0.8395 0.8415 0.8432
2975.063391 0.8442 0.8457 0.8487 0.8519 0.8559
2981.705476 0.8591 0.8596 0.8601 0.8606 0.8612
2988.347561 0.8622 0.8631 0.8636 0.8641 0.8646
2994.989645 0.8650 0.8650 0.8652 0.8662 0.8671
3001.631730 0.8676 0.8680 0.8680 0.8681 0.8686
3008.273815 0.8690 0.8690 0.8692 0.8702 0.8710
3014.915899 0.8710 0.8711 0.8716 0.8720 0.8720
3021.557984 0.8720 0.8720 0.8720 0.8720 0.8721
3028.200069 0.8726 0.8730 0.8730 0.8730 0.8730
3034.842153 0.8730 0.8730 0.8730 0.8730 0.8730
3041.484238 0.8730 0.8730 0.8730 0.8730 0.8730
3048.126323 0.8730 0.8730 0.8730 0.8730 0.8730
3054.768407 0.8730 0.8730 0.8730 0.8730 0.8730
3061.410492 0.8730 0.8730 0.8730 0.8730 0.8730
3068.052577 0.8730 0.8730 0.8730 0.8730 0.8730
3074.694661 0.8730 0.8730 0.8730 0.8730 0.8730
3081.336746 0.8730 0.8729 0.8724 0.8720 0.8720
3087.978831 0.8720 0.8720 0.8720 0.8720 0.8720
3094.620915 0.8720 0.8719 0.8714 0.8710 0.8710
3101.263000 0.8710 0.8710 0.8710 0.8710 0.8710
3107.905085 0.8710 0.8709 0.8699 0.8690 0.8690
3114.547169 0.8690 0.8690 0.8690 0.8690 0.8690
3121.189254 0.8690 0.8690 0.8690 0.8690 0.8690
3127.831339 0.8689 0.8684 0.8680 0.8680 0.8680
3134.473423 0.8680 0.8679 0.8674 0.8670 0.8670
3141.115508 0.8670 0.8670 0.8669 0.8659 0.8650
3147.757593 0.8650 0.8649 0.8644 0.8640 0.8640
3154.399677 0.8640 0.8635 0.8630 0.8630 0.8630
3161.041762 0.8630 0.8629 0.8619 0.8610 0.8610
3167.683847 0.8610 0.8605 0.8600 0.8600 0.8600
3174.325931 0.8595 0.8590 0.8590 0.8589 0.8579
3180.968016 0.8570 0.8570 0.8570 0.8565 0.8560
3187.610101 0.8560 0.8560 0.8555 0.8550 0.8550
3194.252185 0.8549 0.8539 0.8530 0.8530 0.8530
3200.894270 0.8525 0.8520 0.8520 0.8520 0.8515
3207.536355 0.8510 0.8510 0.8509 0.8500 0.8490
3214.178439 0.8485 0.8480 0.8475 0.8470 0.8470
3220.820524 0.8470 0.8460 0.8450 0.8445 0.8440
3227.462609 0.8435 0.8430 0.8430 0.8430 0.8420
3234.104693 0.8410 0.8410 0.8410 0.8410 0.8410
3240.746778 0.8405 0.8400 0.8400 0.8400 0.8395
3247.388863 0.8390 0.8390 0.8389 0.8375 0.8360
3254.030947 0.8355 0.8350 0.8350 0.8350 0.8340
3260.673032 0.8330 0.8330 0.8330 0.8325 0.8320
3267.315117 0.8320 0.8320 0.8315 0.8310 0.8300
3273.957201 0.8290 0.8290 0.8290 0.8285 0.8280
3280.599286 0.8265 0.8250 0.8245 0.8240 0.8235
3287.241371 0.8230 0.8220 0.8210 0.8205 0.8200
3293.883455 0.8200 0.8200 0.8185 0.8170 0.8160
3300.525540 0.8150 0.8140 0.8130 0.8125 0.8120
3307.167625 0.8115 0.8110 0.8100 0.8090 0.8085
3313.809709 0.8080 0.8075 0.8070 0.8060 0.8050
3320.451794 0.8040 0.8030 0.8016 0.8001 0.8000
3327.093879 0.8000 0.7995 0.7990 0.7971 0.7951
3333.735963 0.7940 0.7930 0.7925 0.7920 0.7906
3340.378048 0.7891 0.7880 0.7871 0.7851 0.7831
3347.020133 0.7821 0.7811 0.7805 0.7800 0.7800
3353.662217 0.7800 0.7795 0.7790 0.7776 0.7761
3360.304302 0.7746 0.7731 0.7721 0.7711 0.7696
3366.946387 0.7681 0.7666 0.7651 0.7645 0.7640
3373.588471 0.7626 0.7611 0.7592 0.7572 0.7561
3380.230556 0.7551 0.7536 0.7521 0.7511 0.7501
3386.872641 0.7486 0.7471 0.7456 0.7441 0.7435
3393.514725 0.7430 0.7425 0.7420 0.7411 0.7401
3400.156810 0.7395 0.7391 0.7372 0.7352 0.7346
3406.798895 0.7341 0.7327 0.7311 0.7305 0.7300
3413.440979 0.7286 0.7271 0.7257 0.7242 0.7236
3420.083064 0.7231 0.7226 0.7221 0.7211 0.7201
3426.725149 0.7196 0.7191 0.7190 0.7190 0.7186
3433.367233 0.7181 0.7180 0.7180 0.7171 0.7161
3440.009318 0.7160 0.7160 0.7160 0.7160 0.7156
3446.651403 0.7151 0.7150 0.7150 0.7150 0.7150
3453.293487 0.7150 0.7150 0.7150 0.7150 0.7150
3459.935572 0.7150 0.7150 0.7150 0.7150 0.7150
3466.577657 0.7154 0.7159 0.7160 0.7160 0.7169
3473.219741 0.7179 0.7180 0.7180 0.7184 0.7189
3479.861826 0.7194 0.7199 0.7200 0.7200 0.7208
3486.503911 0.7218 0.7224 0.7229 0.7234 0.7239
3493.145995 0.7248 0.7258 0.7264 0.7269 0.7274
3499.788080 0.7279 0.7288 0.7298 0.7300 0.7300
3506.430165 0.7304 0.7309 0.7314 0.7319 0.7320
3513.072249 0.7320 0.7332 0.7347 0.7350 0.7350
3519.714334 0.7362 0.7377 0.7388 0.7398 0.7400
3526.356419 0.7400 0.7412 0.7427 0.7450 0.7475
3532.998503 0.7480 0.7480 0.7488 0.7498 0.7500
3539.640588 0.7500 0.7504 0.7509 0.7510 0.7510
3546.282673 0.7518 0.7528 0.7538 0.7548 0.7554
3552.924757 0.7559 0.7572 0.7587 0.7590 0.7590
3559.566842 0.7606 0.7625 0.7634 0.7639 0.7644
3566.208927 0.7649 0.7658 0.7668 0.7674 0.7679
3572.851011 0.7684 0.7689 0.7698 0.7708 0.7714
3579.493096 0.7719 0.7720 0.7720 0.7720 0.7720
3586.135181 0.7720 0.7720 0.7716 0.7711 0.7710
3592.777265 0.7710 0.7702 0.7692 0.7686 0.7681
3599.419350 0.7676 0.7671 0.7662 0.7652 0.7642
3606.061435 0.7633 0.7619 0.7604 0.7596 0.7591
3612.703519 0.7583 0.7573 0.7566 0.7561 0.7556
3619.345604 0.7551 0.7543 0.7533 0.7530 0.7530
3625.987689 0.7526 0.7521 0.7520 0.7520 0.7520
3632.629773 0.7520 0.7524 0.7529 0.7541 0.7556
3639.271858 0.7571 0.7586 0.7608 0.7633 0.7651
3645.913943 0.7666 0.7677 0.7687 0.7701 0.7716
3652.556027 0.7745 0.7780 0.7811 0.7841 0.7864
3659.198112 0.7884 0.7915 0.7950 0.7977 0.8002
3665.840197 0.8024 0.8044 0.8064 0.8084 0.8097
3672.482281 0.8107 0.8113 0.8119 0.8138 0.8163
3679.124366 0.8180 0.8195 0.8203 0.8208 0.8217
3685.766451 0.8227 0.8237 0.8247 0.8264 0.8284
3692.408535 0.8297 0.8307 0.8313 0.8318 0.8323
3699.050620 0.8328 0.8340 0.8355 0.8370 0.8385
3705.692705 0.8393 0.8398 0.8410 0.8425 0.8437
3712.334789 0.8447 0.8457 0.8467 0.8473 0.8478
3718.976874 0.8483 0.8488 0.8490 0.8490 0.8490
3725.618959 0.8490 0.8490 0.8490 0.8490 0.8490
3732.261043 0.8490 0.8490 0.8497 0.8507 0.8510
3738.903128 0.8510 0.8510 0.8510 0.8510 0.8510
3745.545213 0.8510 0.8510 0.8510 0.8510 0.8510
3752.187297 0.8510 0.8513 0.8518 0.8520 0.8520
3758.829382 0.8520 0.8520 0.8520 0.8520 0.8520
3765.471467 0.8520 0.8520 0.8520 0.8520 0.8520
3772.113551 0.8520 0.8520 0.8520 0.8520 0.8517
3778.755636 0.8512 0.8510 0.8510 0.8504 0.8494
3785.397721 0.8490 0.8490 0.8490 0.8490 0.8496
3792.039805 0.8506 0.8510 0.8510 0.8510 0.8510
3798.681890 0.8510 0.8510 0.8504 0.8494 0.8490
3805.323975 0.8490 0.8490 0.8490 0.8487 0.8482
3811.966059 0.8480 0.8480 0.8480 0.8480 0.8480
3818.608144 0.8480 0.8480 0.8480 0.8480 0.8480
3825.250229 0.8480 0.8480 0.8480 0.8480 0.8480
3831.892313 0.8480 0.8480 0.8480 0.8480 0.8480
3838.534398 0.8480 0.8480 0.8477 0.8472 0.8470
3845.176483 0.8470 0.8470 0.8470 0.8470 0.8470
3851.818567 0.8470 0.8470 0.8473 0.8478 0.8480
3858.460652 0.8480 0.8480 0.8480 0.8480 0.8480
3865.102737 0.8477 0.8472 0.8470 0.8470 0.8465
3871.744821 0.8455 0.8450 0.8450 0.8450 0.8450
3878.386906 0.8450 0.8450 0.8455 0.8465 0.8470
3885.028991 0.8470 0.8470 0.8470 0.8470 0.8470
3891.671075 0.8470 0.8470 0.8470 0.8470 0.8470
3898.313160 0.8470 0.8470 0.8470 0.8470 0.8470
3904.955245 0.8470 0.8470 0.8465 0.8455 0.8450
3911.597329 0.8450 0.8450 0.8450 0.8450 0.8450
3918.239414 0.8450 0.8450 0.8450 0.8450 0.8450
3924.881499 0.8450 0.8450 0.8450 0.8450 0.8450
3931.523583 0.8445 0.8435 0.8430 0.8430 0.8430
3938.165668 0.8430 0.8430 0.8430 0.8430 0.8430
3944.807753 0.8430 0.8430 0.8430 0.8430 0.8430
3951.449837 0.8430 0.8430 0.8430 0.8430 0.8430
3958.091922 0.8430 0.8430 0.8430 0.8430 0.8430
3964.734007 0.8430 0.8430 0.8430 0.8430 0.8430
3971.376091 0.8430 0.8430 0.8430 0.8430 0.8430
3978.018176 0.8430 0.8430 0.8430 0.8430 0.8430
##END=
