##TITLE=P-(4-AMINO-1-NAPHTHYLAZO)BENZENE SULFONIC ACID, SODIUM SALT
$$ E.K. (W.L.)
##JCAMP-DX=4.24
##DATA TYPE=INFRARED SPECTRUM
##CLASS=COBLENTZ
##ORIGIN=WYANDOTTE CHEMICALS CORP., WYANDOTTE, MICHIGAN, USA
##OWNER=COBLENTZ SOCIETY
Collection (C) 2018 copyright by the U.S. Secretary of Commerce
on behalf of the United States of America. All rights reserved.
##DATE=Not specified, most likely prior to 1970
##MOLFORM=C16 H12 N3 O3 S Na
##SOURCE REFERENCE=COBLENTZ NO. 1619
##$NIST ID=B6001619
##$NIST SOURCE=COBLENTZ
##$NIST IMAGE=cob1619
##SPECTROMETER/DATA SYSTEM=Not specified, most likely a prism, grating, or hybrid spectrometer.
##STATE=SOLID (MINERAL OIL MULL)
##SAMPLING PROCEDURE=TRANSMISSION
##RESOLUTION=4
##DATA PROCESSING=DIGITIZED BY NIST FROM HARD COPY
##XUNITS=MICROMETERS
##YUNITS=TRANSMITTANCE
##XFACTOR=1.000000
##YFACTOR=1
##DELTAX=000.006796
##FIRSTX=2.02
##LASTX=15.9928
##FIRSTY=0.363
##MAXX=15.9928
##MINX=2.02
##MAXY=0.982
##MINY=0.018
##NPOINTS=2057
##XYDATA=(X++(Y..Y))
2.020000 0.3630 0.3630 0.3650 0.3650 0.3660
2.053997 0.3660 0.3660 0.3680 0.3680 0.3680
2.088000 0.3680 0.3680 0.3680 0.3680 0.3680
2.121997 0.3680 0.3700 0.3700 0.3720 0.3720
2.156000 0.3730 0.3730 0.3750 0.3770 0.3770
2.189997 0.3770 0.3770 0.3780 0.3780 0.3780
2.224000 0.3780 0.3780 0.3780 0.3800 0.3820
2.257997 0.3820 0.3820 0.3830 0.3830 0.3830
2.292000 0.3830 0.3830 0.3850 0.3870 0.3870
2.325997 0.3890 0.3900 0.3920 0.3920 0.3940
2.360000 0.3990 0.3990 0.4010 0.4010 0.4040
2.393997 0.4040 0.4060 0.4090 0.4110 0.4110
2.428000 0.4120 0.4140 0.4140 0.4160 0.4160
2.461997 0.4180 0.4190 0.4190 0.4210 0.4210
2.496000 0.4230 0.4240 0.4240 0.4260 0.4260
2.529997 0.4280 0.4300 0.4310 0.4350 0.4400
2.564000 0.4450 0.4500 0.4550 0.4570 0.4590
2.597997 0.4600 0.4600 0.4600 0.4620 0.4640
2.632000 0.4690 0.4740 0.4770 0.4810 0.4840
2.665997 0.4880 0.4880 0.4910 0.4930 0.4930
2.700000 0.4930 0.4930 0.4930 0.4910 0.4860
2.733997 0.4810 0.4770 0.4700 0.4650 0.4570
2.768000 0.4500 0.4360 0.4240 0.3950 0.3940
2.801997 0.3890 0.3830 0.3680 0.3530 0.3440
2.836000 0.3220 0.3150 0.3070 0.3020 0.2950
2.869997 0.2880 0.2840 0.2660 0.2640 0.2590
2.904000 0.2570 0.2550 0.2540 0.2520 0.2500
2.937997 0.2500 0.2450 0.2450 0.2400 0.2350
2.972000 0.2320 0.2280 0.2210 0.2180 0.2180
3.005997 0.2180 0.2180 0.2180 0.2200 0.2210
3.040000 0.2260 0.2300 0.2350 0.2450 0.2500
3.073997 0.2520 0.2500 0.2500 0.2500 0.2500
3.108000 0.2500 0.2500 0.2500 0.2490 0.2450
3.141997 0.2400 0.2400 0.2400 0.2400 0.2400
3.176000 0.2400 0.2400 0.2400 0.2400 0.2400
3.209997 0.2400 0.2420 0.2420 0.2450 0.2520
3.244000 0.2540 0.2550 0.2550 0.2540 0.2500
3.277997 0.2470 0.2450 0.2400 0.2380 0.2280
3.312000 0.2160 0.1990 0.1860 0.1510 0.1430
3.345997 0.1120 0.0920 0.0560 0.0440 0.0350
3.380000 0.0290 0.0270 0.0250 0.0200 0.0180
3.413997 0.0180 0.0200 0.0220 0.0250 0.0290
3.448000 0.0320 0.0340 0.0350 0.0370 0.0370
3.481997 0.0370 0.0370 0.0370 0.0390 0.0390
3.516000 0.0400 0.0760 0.1140 0.1770 0.2810
3.549997 0.2880 0.3480 0.4060 0.4240 0.4360
3.583000 0.4550 0.4700 0.4840 0.4940 0.5050
3.616997 0.5100 0.5150 0.5170 0.5200 0.5200
3.651000 0.5170 0.5130 0.5100 0.5080 0.5100
3.684997 0.5110 0.5150 0.5180 0.5220 0.5230
3.719000 0.5290 0.5300 0.5300 0.5320 0.5370
3.752997 0.5420 0.5460 0.5510 0.5540 0.5590
3.787000 0.5660 0.5680 0.5690 0.5690 0.5690
3.820997 0.5690 0.5710 0.5710 0.5730 0.5750
3.855000 0.5780 0.5800 0.5830 0.5850 0.5900
3.888997 0.5970 0.6000 0.6050 0.6050 0.6070
3.923000 0.6100 0.6120 0.6140 0.6190 0.6220
3.956997 0.6260 0.6290 0.6310 0.6330 0.6340
3.991000 0.6380 0.6390 0.6390 0.6390 0.6410
4.024997 0.6410 0.6430 0.6450 0.6460 0.6480
4.059000 0.6510 0.6530 0.6530 0.6550 0.6550
4.092997 0.6550 0.6560 0.6580 0.6600 0.6600
4.127000 0.6600 0.6620 0.6620 0.6620 0.6620
4.160997 0.6600 0.6620 0.6620 0.6630 0.6630
4.195000 0.6650 0.6650 0.6670 0.6680 0.6680
4.228997 0.6680 0.6510 0.6480 0.6310 0.6240
4.263000 0.6220 0.6220 0.6260 0.6360 0.6430
4.296997 0.6530 0.6630 0.6720 0.6750 0.6820
4.331000 0.6860 0.6960 0.7030 0.7090 0.7150
4.364997 0.7210 0.7300 0.7350 0.7370 0.7380
4.399000 0.7370 0.7320 0.7260 0.7230 0.7210
4.432997 0.7200 0.7200 0.7180 0.7180 0.7180
4.467000 0.7180 0.7180 0.7180 0.7200 0.7200
4.500997 0.7210 0.7210 0.7210 0.7230 0.7230
4.535000 0.7250 0.7260 0.7260 0.7280 0.7300
4.568997 0.7300 0.7320 0.7330 0.7350 0.7370
4.603000 0.7380 0.7400 0.7420 0.7440 0.7450
4.636997 0.7450 0.7470 0.7470 0.7500 0.7540
4.671000 0.7550 0.7570 0.7590 0.7620 0.7640
4.704997 0.7670 0.7670 0.7670 0.7690 0.7690
4.739000 0.7710 0.7730 0.7780 0.7840 0.7880
4.772997 0.7880 0.7900 0.7910 0.7910 0.7930
4.807000 0.7950 0.7950 0.8000 0.8000 0.8020
4.840997 0.8030 0.8030 0.8030 0.8020 0.8020
4.875000 0.8030 0.8030 0.8030 0.8070 0.8130
4.908997 0.8190 0.8190 0.8200 0.8200 0.8220
4.943000 0.8240 0.8240 0.8250 0.8270 0.8270
4.976997 0.8270 0.8270 0.8290 0.8310 0.8320
5.011000 0.8320 0.8340 0.8390 0.8390 0.8410
5.044997 0.8440 0.8480 0.8510 0.8540 0.8580
5.079000 0.8630 0.8660 0.8680 0.8680 0.8680
5.112997 0.8680 0.8660 0.8660 0.8660 0.8660
5.147000 0.8680 0.8680 0.8700 0.8700 0.8720
5.180997 0.8720 0.8750 0.8750 0.8770 0.8770
5.215000 0.8770 0.8630 0.8610 0.8630 0.8720
5.248997 0.8770 0.8800 0.8820 0.8870 0.8870
5.283000 0.8870 0.8870 0.8890 0.8890 0.8900
5.316997 0.8970 0.9020 0.9040 0.9070 0.9070
5.350000 0.9070 0.9070 0.9110 0.9160 0.9240
5.383997 0.9300 0.9360 0.9360 0.9350 0.9350
5.418000 0.9310 0.9180 0.9140 0.9180 0.9280
5.451997 0.9410 0.9480 0.9480 0.9300 0.9260
5.486000 0.9300 0.9480 0.9570 0.9600 0.9650
5.519997 0.9640 0.9570 0.9530 0.9520 0.9530
5.554000 0.9500 0.9470 0.9450 0.9470 0.9500
5.587997 0.9570 0.9690 0.9810 0.9820 0.9770
5.622000 0.9690 0.9590 0.9450 0.9450 0.9520
5.655997 0.9740 0.9740 0.9670 0.9650 0.9640
5.690000 0.9620 0.9550 0.9450 0.9530 0.9530
5.723997 0.9530 0.9520 0.9360 0.9360 0.9450
5.758000 0.9520 0.9530 0.9550 0.9430 0.8990
5.791997 0.8950 0.8990 0.9090 0.9180 0.9310
5.826000 0.9240 0.9120 0.8940 0.8820 0.8680
5.859997 0.8630 0.8630 0.8750 0.8750 0.8700
5.894000 0.8370 0.8050 0.7810 0.7740 0.7570
5.927997 0.7490 0.7350 0.7040 0.6800 0.6460
5.962000 0.6340 0.6270 0.6210 0.6160 0.6090
5.995997 0.6000 0.5850 0.5810 0.5830 0.5880
6.030000 0.5950 0.6050 0.6100 0.6120 0.6090
6.063997 0.5920 0.5850 0.5800 0.5780 0.5690
6.098000 0.5590 0.5460 0.5350 0.5290 0.5230
6.131997 0.5220 0.5220 0.5300 0.5470 0.5540
6.166000 0.5580 0.5630 0.5630 0.5610 0.5590
6.199997 0.5510 0.5370 0.5100 0.5010 0.4820
6.234000 0.4720 0.4700 0.4720 0.4740 0.4760
6.267997 0.4690 0.4470 0.4210 0.4090 0.3950
6.302000 0.3900 0.3940 0.4300 0.4740 0.4910
6.335997 0.5610 0.5710 0.5800 0.5930 0.6190
6.370000 0.6600 0.6820 0.7040 0.7280 0.7440
6.403997 0.7570 0.7590 0.7570 0.7520 0.7520
6.438000 0.7520 0.7610 0.7690 0.7760 0.7910
6.471997 0.8020 0.8020 0.7980 0.7830 0.7640
6.506000 0.7450 0.7250 0.7080 0.6890 0.6720
6.539997 0.6220 0.5900 0.5470 0.4940 0.4650
6.574000 0.4380 0.4360 0.4380 0.5170 0.6120
6.607997 0.6600 0.6700 0.6800 0.6940 0.6960
6.642000 0.7060 0.7160 0.7180 0.7160 0.7130
6.675997 0.7040 0.7010 0.6970 0.6500 0.6210
6.710000 0.6000 0.5630 0.5340 0.5130 0.4910
6.743997 0.4550 0.4110 0.3580 0.2210 0.1820
6.778000 0.1270 0.1140 0.1040 0.0980 0.0970
6.811997 0.0980 0.1040 0.1140 0.1330 0.1510
6.846000 0.1670 0.1800 0.1940 0.2060 0.2180
6.879997 0.2320 0.2450 0.2610 0.2780 0.2980
6.914000 0.3200 0.3340 0.3480 0.3780 0.4140
6.947997 0.4550 0.5010 0.5520 0.5870 0.6040
6.982000 0.6170 0.6330 0.6460 0.6620 0.6680
7.015997 0.6750 0.6910 0.7040 0.7150 0.7320
7.050000 0.7320 0.7300 0.7210 0.7080 0.6960
7.083997 0.6790 0.6360 0.5850 0.5660 0.5420
7.117000 0.5150 0.5000 0.4860 0.4760 0.4760
7.150997 0.4740 0.4720 0.4720 0.4720 0.4720
7.185000 0.4700 0.4650 0.4520 0.4260 0.3900
7.218997 0.3560 0.2910 0.2500 0.2470 0.2470
7.253000 0.2830 0.3080 0.3340 0.3800 0.4210
7.286997 0.4500 0.4690 0.4810 0.4930 0.5230
7.321000 0.5630 0.5970 0.6210 0.6220 0.6210
7.354997 0.6160 0.5950 0.5710 0.5370 0.5200
7.389000 0.5080 0.4570 0.4400 0.4230 0.3890
7.422997 0.3770 0.3730 0.3730 0.3780 0.4260
7.457000 0.4500 0.4820 0.5100 0.5400 0.5540
7.490997 0.5660 0.5920 0.6140 0.6360 0.6550
7.525000 0.6620 0.6680 0.6820 0.6860 0.6870
7.558997 0.6870 0.6890 0.6920 0.6970 0.7040
7.593000 0.7160 0.7320 0.7520 0.7610 0.7660
7.626997 0.7730 0.7780 0.7830 0.7880 0.7910
7.661000 0.7960 0.8020 0.8190 0.8200 0.8220
7.694997 0.8190 0.8100 0.8050 0.7980 0.7960
7.729000 0.7980 0.8070 0.8080 0.8080 0.7950
7.762997 0.7840 0.7810 0.7790 0.7810 0.7900
7.797000 0.8000 0.8050 0.8170 0.8320 0.8320
7.830997 0.8310 0.8290 0.8240 0.8170 0.8150
7.865000 0.8080 0.7980 0.7830 0.7620 0.7370
7.898997 0.7040 0.6910 0.6800 0.6720 0.6560
7.933000 0.6480 0.6390 0.6290 0.6160 0.6050
7.966997 0.5980 0.5920 0.5810 0.5780 0.5710
8.001000 0.5690 0.5660 0.5590 0.5510 0.5420
8.034997 0.5300 0.5130 0.4880 0.4690 0.4520
8.069000 0.4360 0.4210 0.4060 0.3900 0.3750
8.102997 0.3580 0.3390 0.3020 0.2910 0.2670
8.137000 0.2550 0.2440 0.2110 0.2060 0.2040
8.170997 0.1960 0.1890 0.1840 0.1820 0.1790
8.205000 0.1750 0.1740 0.1720 0.1700 0.1700
8.238997 0.1700 0.1700 0.1700 0.1750 0.1790
8.273000 0.1790 0.1800 0.1800 0.1800 0.1800
8.306997 0.1800 0.1800 0.1790 0.1770 0.1680
8.341000 0.1620 0.1550 0.1530 0.1480 0.1450
8.374997 0.1430 0.1410 0.1390 0.1380 0.1360
8.409000 0.1330 0.1290 0.1270 0.1270 0.1270
8.442997 0.1290 0.1330 0.1360 0.1410 0.1460
8.477000 0.1530 0.1600 0.1670 0.1750 0.1840
8.510997 0.1960 0.2060 0.2200 0.2330 0.2470
8.545000 0.2610 0.2760 0.2910 0.3050 0.3200
8.578997 0.3270 0.3340 0.3490 0.3630 0.3750
8.613000 0.3940 0.4160 0.4360 0.4380 0.4960
8.646997 0.5170 0.5320 0.5470 0.5580 0.5680
8.681000 0.5730 0.5760 0.5780 0.5780 0.5800
8.714997 0.5800 0.5800 0.5780 0.5780 0.5760
8.749000 0.5690 0.5610 0.5490 0.5370 0.5200
8.782997 0.5010 0.4770 0.4430 0.4380 0.4330
8.817000 0.4020 0.3650 0.3480 0.2930 0.2730
8.850997 0.2490 0.2330 0.2090 0.1870 0.1860
8.884000 0.1870 0.1890 0.1960 0.2010 0.2110
8.917997 0.2330 0.2620 0.2930 0.3290 0.3460
8.952000 0.3630 0.3970 0.4300 0.4590 0.4790
8.985997 0.4980 0.5060 0.5130 0.5060 0.4980
9.020000 0.4740 0.4520 0.4350 0.4310 0.4350
9.053997 0.4450 0.4640 0.5000 0.5290 0.5540
9.088000 0.5800 0.6000 0.6190 0.6310 0.6480
9.121997 0.6630 0.6670 0.6700 0.6790 0.6870
9.156000 0.6940 0.6970 0.7010 0.7040 0.7110
9.189997 0.7200 0.7260 0.7280 0.7320 0.7370
9.224000 0.7400 0.7450 0.7490 0.7540 0.7590
9.257997 0.7640 0.7670 0.7730 0.7780 0.7830
9.292000 0.7860 0.7910 0.7960 0.7980 0.8000
9.325997 0.8050 0.8100 0.8170 0.8200 0.8250
9.360000 0.8310 0.8320 0.8320 0.8310 0.8250
9.393997 0.8220 0.8190 0.8170 0.8150 0.8150
9.428000 0.8130 0.8120 0.8080 0.8000 0.7900
9.461997 0.7760 0.7610 0.7450 0.7260 0.7090
9.496000 0.6890 0.6700 0.6360 0.6190 0.6050
9.529997 0.5920 0.5630 0.5300 0.4930 0.4400
9.564000 0.4060 0.3730 0.2980 0.2690 0.2470
9.597997 0.2260 0.2110 0.1940 0.1890 0.1720
9.632000 0.1700 0.1740 0.1890 0.2030 0.2230
9.665997 0.2450 0.2730 0.3030 0.3220 0.3410
9.700000 0.3850 0.4230 0.4700 0.5030 0.5220
9.733997 0.5590 0.5850 0.6050 0.6210 0.6340
9.768000 0.6460 0.6550 0.6630 0.6670 0.6700
9.801997 0.6770 0.6800 0.6840 0.6870 0.6840
9.836000 0.6670 0.6340 0.6050 0.5690 0.5290
9.869997 0.4880 0.4500 0.4140 0.3870 0.3680
9.904000 0.3490 0.3480 0.3460 0.3480 0.3920
9.937997 0.4160 0.4410 0.4690 0.4980 0.5290
9.972000 0.5590 0.5880 0.6160 0.6430 0.6650
10.005997 0.6750 0.6840 0.6970 0.7090 0.7180
10.040000 0.7260 0.7350 0.7440 0.7520 0.7590
10.073997 0.7660 0.7740 0.7810 0.7880 0.7950
10.108000 0.7980 0.8030 0.8080 0.8130 0.8150
10.141997 0.8190 0.8200 0.8220 0.8240 0.8270
10.176000 0.8310 0.8360 0.8390 0.8480 0.8490
10.209997 0.8510 0.8510 0.8510 0.8530 0.8530
10.244000 0.8540 0.8540 0.8540 0.8580 0.8580
10.277997 0.8600 0.8610 0.8630 0.8650 0.8680
10.312000 0.8700 0.8720 0.8720 0.8730 0.8730
10.345997 0.8750 0.8750 0.8770 0.8770 0.8770
10.380000 0.8770 0.8770 0.8770 0.8750 0.8700
10.413997 0.8680 0.8650 0.8610 0.8600 0.8580
10.448000 0.8580 0.8580 0.8580 0.8600 0.8600
10.481997 0.8610 0.8610 0.8610 0.8630 0.8630
10.516000 0.8630 0.8650 0.8650 0.8660 0.8660
10.549997 0.8680 0.8700 0.8700 0.8700 0.8700
10.583000 0.8720 0.8720 0.8720 0.8720 0.8720
10.616997 0.8720 0.8720 0.8700 0.8700 0.8720
10.651000 0.8730 0.8750 0.8770 0.8770 0.8770
10.684997 0.8770 0.8750 0.8750 0.8730 0.8730
10.719000 0.8730 0.8730 0.8730 0.8730 0.8730
10.752997 0.8730 0.8730 0.8730 0.8720 0.8700
10.787000 0.8660 0.8630 0.8560 0.8510 0.8480
10.820997 0.8460 0.8430 0.8410 0.8370 0.8340
10.855000 0.8310 0.8250 0.8200 0.8150 0.8120
10.888997 0.8100 0.8070 0.8000 0.7950 0.7860
10.923000 0.7810 0.7740 0.7670 0.7660 0.7660
10.956997 0.7690 0.7780 0.7780 0.7780 0.7780
10.991000 0.7760 0.7740 0.7710 0.7670 0.7620
11.024997 0.7590 0.7550 0.7520 0.7490 0.7470
11.059000 0.7440 0.7420 0.7400 0.7370 0.7330
11.092997 0.7300 0.7250 0.7210 0.7160 0.7130
11.127000 0.7090 0.7040 0.6970 0.6940 0.6890
11.160997 0.6840 0.6800 0.6790 0.6750 0.6740
11.195000 0.6740 0.6720 0.6670 0.6580 0.6560
11.228997 0.6560 0.6550 0.6550 0.6550 0.6530
11.263000 0.6510 0.6510 0.6480 0.6480 0.6460
11.296997 0.6450 0.6430 0.6390 0.6380 0.6380
11.331000 0.6380 0.6380 0.6390 0.6430 0.6430
11.364997 0.6410 0.6390 0.6380 0.6380 0.6360
11.399000 0.6340 0.6330 0.6310 0.6290 0.6270
11.432997 0.6270 0.6270 0.6270 0.6270 0.6270
11.467000 0.6260 0.6240 0.6210 0.6160 0.6140
11.500997 0.6120 0.6100 0.6100 0.6090 0.6040
11.535000 0.6000 0.5970 0.5930 0.5880 0.5870
11.568997 0.5900 0.5930 0.5930 0.5880 0.5870
11.603000 0.5810 0.5750 0.5680 0.5590 0.5540
11.636997 0.5470 0.5400 0.5350 0.5320 0.5270
11.671000 0.5230 0.5200 0.5100 0.5000 0.4860
11.704997 0.4770 0.4670 0.4570 0.4430 0.4310
11.739000 0.4180 0.4020 0.3890 0.3750 0.3540
11.772997 0.3390 0.3030 0.2840 0.2660 0.2520
11.807000 0.2420 0.2260 0.2200 0.2200 0.2210
11.840997 0.2250 0.2380 0.2520 0.2640 0.2880
11.875000 0.3000 0.3170 0.3220 0.3310 0.3410
11.908997 0.3510 0.3540 0.3700 0.3850 0.3940
11.943000 0.3970 0.4020 0.4090 0.4140 0.4210
11.976997 0.4280 0.4350 0.4430 0.4500 0.4590
12.011000 0.4670 0.4760 0.4840 0.4910 0.5000
12.044997 0.5080 0.5150 0.5220 0.5290 0.5340
12.079000 0.5390 0.5440 0.5470 0.5520 0.5580
12.112997 0.5610 0.5610 0.5630 0.5630 0.5630
12.147000 0.5630 0.5630 0.5630 0.5630 0.5630
12.180997 0.5630 0.5640 0.5660 0.5690 0.5710
12.215000 0.5750 0.5750 0.5750 0.5760 0.5760
12.248997 0.5760 0.5780 0.5810 0.5870 0.5880
12.283000 0.5900 0.5920 0.5950 0.5970 0.5970
12.316997 0.5980 0.6000 0.6000 0.6000 0.6000
12.350000 0.5950 0.5930 0.5920 0.5870 0.5800
12.383997 0.5760 0.5710 0.5690 0.5630 0.5610
12.418000 0.5610 0.5610 0.5610 0.5630 0.5660
12.451997 0.5690 0.5730 0.5800 0.5870 0.5920
12.486000 0.5970 0.6040 0.6090 0.6140 0.6190
12.519997 0.6220 0.6270 0.6330 0.6360 0.6390
12.554000 0.6430 0.6480 0.6550 0.6630 0.6670
12.587997 0.6700 0.6770 0.6800 0.6940 0.6970
12.622000 0.7010 0.7080 0.7160 0.7230 0.7250
12.655997 0.7300 0.7380 0.7440 0.7490 0.7490
12.690000 0.7500 0.7500 0.7520 0.7520 0.7500
12.723997 0.7440 0.7280 0.7130 0.6990 0.6820
12.758000 0.6340 0.5760 0.5540 0.5420 0.5390
12.791997 0.5300 0.5170 0.5000 0.4790 0.4650
12.826000 0.4570 0.4530 0.4480 0.4430 0.4400
12.859997 0.4380 0.4350 0.4330 0.4350 0.4400
12.894000 0.4470 0.4530 0.4570 0.4550 0.4550
12.927997 0.4530 0.4530 0.4530 0.4530 0.4500
12.962000 0.4470 0.4380 0.4300 0.4190 0.4120
12.995997 0.4070 0.4010 0.3750 0.3630 0.3490
13.030000 0.3340 0.3030 0.2860 0.2690 0.2520
13.063997 0.2330 0.2210 0.2080 0.2010 0.1920
13.098000 0.1860 0.1750 0.1670 0.1600 0.1580
13.131997 0.1580 0.1580 0.1600 0.1670 0.1740
13.166000 0.1840 0.1910 0.2040 0.2160 0.2300
13.199997 0.2420 0.2570 0.2710 0.2880 0.3070
13.234000 0.3270 0.3360 0.3440 0.3580 0.3700
13.267997 0.3820 0.3950 0.4110 0.4280 0.4430
13.302000 0.4550 0.4640 0.4740 0.4810 0.4880
13.335997 0.4960 0.5030 0.5110 0.5180 0.5200
13.370000 0.5220 0.5230 0.5270 0.5320 0.5340
13.403997 0.5350 0.5370 0.5400 0.5420 0.5440
13.438000 0.5460 0.5460 0.5490 0.5490 0.5490
13.471997 0.5490 0.5470 0.5470 0.5460 0.5440
13.506000 0.5400 0.5390 0.5340 0.5290 0.5270
13.539997 0.5290 0.5290 0.5300 0.5320 0.5340
13.574000 0.5340 0.5320 0.5270 0.5270 0.5270
13.607997 0.5270 0.5270 0.5270 0.5290 0.5290
13.642000 0.5300 0.5320 0.5320 0.5320 0.5340
13.675997 0.5340 0.5350 0.5370 0.5390 0.5390
13.710000 0.5390 0.5390 0.5390 0.5390 0.5390
13.743997 0.5390 0.5390 0.5370 0.5350 0.5350
13.778000 0.5340 0.5300 0.5290 0.5290 0.5290
13.811997 0.5290 0.5300 0.5320 0.5340 0.5350
13.846000 0.5370 0.5400 0.5420 0.5470 0.5580
13.879997 0.5610 0.5640 0.5710 0.5730 0.5750
13.914000 0.5780 0.5810 0.5830 0.5830 0.5870
13.947997 0.5880 0.5900 0.5900 0.5920 0.5930
13.982000 0.5970 0.6020 0.6100 0.6160 0.6190
14.015997 0.6210 0.6220 0.6260 0.6270 0.6290
14.050000 0.6310 0.6330 0.6360 0.6410 0.6480
14.083997 0.6500 0.6500 0.6500 0.6500 0.6500
14.117000 0.6480 0.6430 0.6380 0.6340 0.6290
14.150997 0.6260 0.6210 0.6160 0.6050 0.5950
14.185000 0.5920 0.5780 0.5750 0.5540 0.5490
14.218997 0.5350 0.5200 0.5010 0.4880 0.4770
14.253000 0.4570 0.4480 0.4310 0.4180 0.3990
14.286997 0.3890 0.3720 0.3600 0.3410 0.3340
14.321000 0.3170 0.3070 0.3020 0.2980 0.2910
14.354997 0.2880 0.2860 0.2900 0.2910 0.2950
14.389000 0.3000 0.3070 0.3170 0.3250 0.3320
14.422997 0.3370 0.3480 0.3560 0.3650 0.3750
14.457000 0.3800 0.3940 0.4040 0.4140 0.4240
14.490997 0.4360 0.4500 0.4590 0.4690 0.4760
14.525000 0.4790 0.4820 0.4880 0.4930 0.5010
14.558997 0.5100 0.5200 0.5300 0.5390 0.5400
14.593000 0.5400 0.5420 0.5420 0.5460 0.5540
14.626997 0.5630 0.5660 0.5680 0.5690 0.5710
14.661000 0.5730 0.5750 0.5780 0.5810 0.5850
14.694997 0.5870 0.5880 0.5900 0.5900 0.5920
14.729000 0.5930 0.5950 0.5970 0.5980 0.5980
14.762997 0.6000 0.6020 0.6040 0.6040 0.6050
14.797000 0.6050 0.6090 0.6100 0.6100 0.6120
14.830997 0.6120 0.6120 0.6120 0.6120 0.6140
14.865000 0.6160 0.6190 0.6210 0.6210 0.6220
14.898997 0.6220 0.6220 0.6220 0.6220 0.6210
14.933000 0.6190 0.6140 0.6140 0.6100 0.6070
14.966997 0.6050 0.6000 0.5970 0.5950 0.5900
15.001000 0.5880 0.5800 0.5750 0.5660 0.5590
15.034997 0.5540 0.5460 0.5390 0.5370 0.5340
15.069000 0.5320 0.5290 0.5250 0.5220 0.5200
15.102997 0.5200 0.5220 0.5270 0.5300 0.5350
15.137000 0.5390 0.5440 0.5490 0.5560 0.5610
15.170997 0.5680 0.5730 0.5760 0.5810 0.5880
15.205000 0.5900 0.5900 0.5930 0.5970 0.5980
15.238997 0.6000 0.6000 0.6000 0.6000 0.5970
15.273000 0.5970 0.5950 0.5950 0.5930 0.5920
15.306997 0.5920 0.5920 0.5920 0.5930 0.5950
15.341000 0.5950 0.5900 0.5800 0.5800 0.5760
15.374997 0.5750 0.5690 0.5680 0.5660 0.5630
15.409000 0.5610 0.5580 0.5520 0.5490 0.5460
15.442997 0.5420 0.5400 0.5390 0.5340 0.5320
15.477000 0.5290 0.5230 0.5200 0.5170 0.5110
15.510997 0.5050 0.5010 0.5000 0.4980 0.4930
15.545000 0.4910 0.4880 0.4860 0.4810 0.4740
15.578997 0.4690 0.4640 0.4590 0.4550 0.4500
15.613000 0.4470 0.4410 0.4350 0.4300 0.4230
15.646997 0.4160 0.4110 0.4060 0.4040 0.4040
15.681000 0.4010 0.3970 0.3940 0.3940 0.3870
15.714997 0.3850 0.3850 0.3830 0.3820 0.3800
15.749000 0.3770 0.3730 0.3700 0.3650 0.3600
15.782997 0.3600 0.3600 0.3610 0.3630 0.3650
15.817000 0.3650 0.3680 0.3680 0.3700 0.3720
15.850997 0.3720 0.3730 0.3750 0.3770 0.3780
15.884000 0.3800 0.3830 0.3890 0.3920 0.3950
15.917997 0.3990 0.4040 0.4060 0.4070 0.4070
15.952000 0.4070 0.4070 0.4040 0.4040 0.4020
15.985997 0.4010 0.4010
##END=
