##TITLE=CYSTEINEHYDRAZIDE HYDROCHLORIDE
##JCAMP-DX=4.24
##DATA TYPE=INFRARED SPECTRUM
##CLASS=COBLENTZ
##ORIGIN=ARTHUR D. LITTLE, INC.
##OWNER=COBLENTZ SOCIETY
Collection (C) 2018 copyright by the U.S. Secretary of Commerce
on behalf of the United States of America. All rights reserved.
##DATE=Not specified, most likely prior to 1970
##NAMES=2-amino-3-sulfanylpropanohydrazide hydrochloride
##MOLFORM=C3 H9 N3 O S  * H Cl
##MP=189-190 C
##SOURCE REFERENCE=COBLENTZ NO. 4590
##$NIST ID=B6004590
##$NIST SOURCE=COBLENTZ
##$NIST IMAGE=cob4590
##SPECTROMETER/DATA SYSTEM=Not specified, most likely a prism, grating, or hybrid spectrometer.
##STATE=SOLID (NUJOL MULL)
##SAMPLING PROCEDURE=TRANSMISSION
##RESOLUTION=4
##DATA PROCESSING=DIGITIZED BY NIST FROM HARD COPY
##XUNITS=MICROMETERS
##YUNITS=TRANSMITTANCE
##XFACTOR=1.000000
##YFACTOR=1
##DELTAX=000.005479
##FIRSTX=2.496
##LASTX=15.0219
##FIRSTY=0.828
##MAXX=15.0219
##MINX=2.496
##MAXY=0.972
##MINY=0.069
##NPOINTS=2287
##XYDATA=(X++(Y..Y))
2.496000 0.8280 0.8280 0.8290 0.8280 0.8280
2.523409 0.8290 0.8300 0.8300 0.8310 0.8310
2.551000 0.8310 0.8310 0.8310 0.8320 0.8320
2.578409 0.8330 0.8330 0.8340 0.8340 0.8350
2.605000 0.8360 0.8390 0.8410 0.8430 0.8460
2.632409 0.8480 0.8520 0.8540 0.8550 0.8550
2.660000 0.8560 0.8560 0.8560 0.8570 0.8580
2.687409 0.8580 0.8590 0.8590 0.8600 0.8630
2.715000 0.8650 0.8670 0.8700 0.8720 0.8750
2.742409 0.8780 0.8790 0.8800 0.8800 0.8800
2.770000 0.8790 0.8790 0.8780 0.8760 0.8730
2.797409 0.8710 0.8700 0.8680 0.8660 0.8650
2.825000 0.8630 0.8610 0.8600 0.8580 0.8570
2.852409 0.8550 0.8540 0.8520 0.8510 0.8480
2.879000 0.8470 0.8450 0.8440 0.8420 0.8400
2.906409 0.8380 0.8340 0.8290 0.8220 0.8170
2.934000 0.8110 0.8050 0.7960 0.7840 0.7510
2.961409 0.7190 0.6980 0.6860 0.6790 0.6690
2.989000 0.6550 0.6310 0.5930 0.5660 0.5300
3.016409 0.5210 0.5150 0.5090 0.5050 0.4970
3.044000 0.4880 0.4720 0.4500 0.4190 0.3780
3.071409 0.3530 0.3340 0.3170 0.3080 0.2930
3.099000 0.2910 0.2900 0.2900 0.2910 0.2930
3.126409 0.3000 0.3060 0.3090 0.3250 0.3360
3.153000 0.3470 0.3690 0.3970 0.4050 0.4150
3.180409 0.4160 0.4150 0.4110 0.4090 0.4030
3.208000 0.3930 0.3880 0.3720 0.3650 0.3590
3.235409 0.3550 0.3530 0.3500 0.3450 0.3390
3.263000 0.3280 0.2910 0.2760 0.2690 0.2570
3.290409 0.2470 0.2390 0.2270 0.2110 0.1970
3.318000 0.1840 0.1750 0.1690 0.1590 0.1530
3.345409 0.1330 0.1280 0.1220 0.1160 0.1100
3.373000 0.1040 0.0950 0.0900 0.0840 0.0820
3.400409 0.0810 0.0790 0.0760 0.0730 0.0720
3.427000 0.0710 0.0700 0.0690 0.0690 0.0700
3.454409 0.0720 0.0760 0.0790 0.0810 0.0830
3.482000 0.0850 0.0880 0.0910 0.0940 0.0960
3.509409 0.1010 0.1050 0.1160 0.1280 0.1410
3.537000 0.1500 0.1650 0.1760 0.1960 0.2010
3.564409 0.2050 0.2160 0.2350 0.2680 0.2910
3.592000 0.3050 0.3150 0.3230 0.3300 0.3350
3.619409 0.3470 0.3600 0.3710 0.3800 0.3830
3.647000 0.3850 0.3860 0.3890 0.3910 0.3910
3.674409 0.3920 0.3920 0.3920 0.3920 0.3910
3.701000 0.3890 0.3880 0.3850 0.3840 0.3840
3.728409 0.3850 0.3940 0.4030 0.4110 0.4170
3.756000 0.4270 0.4360 0.4510 0.4670 0.4690
3.783409 0.4710 0.4730 0.4750 0.4750 0.4720
3.811000 0.4720 0.4680 0.4610 0.4550 0.4530
3.838409 0.4530 0.4540 0.4570 0.4630 0.4700
3.866000 0.4810 0.4940 0.5060 0.5210 0.5330
3.893409 0.5410 0.5430 0.5440 0.5440 0.5440
3.921000 0.5420 0.5410 0.5400 0.5400 0.5420
3.948409 0.5440 0.5510 0.5570 0.5690 0.5800
3.975000 0.5920 0.6060 0.6130 0.6150 0.6180
4.002409 0.6200 0.6230 0.6320 0.6340 0.6360
4.030000 0.6390 0.6410 0.6440 0.6450 0.6470
4.057409 0.6580 0.6700 0.6810 0.6910 0.7020
4.085000 0.7100 0.7200 0.7290 0.7350 0.7420
4.112409 0.7480 0.7520 0.7550 0.7560 0.7590
4.140000 0.7630 0.7660 0.7690 0.7730 0.7760
4.167409 0.7780 0.7820 0.7850 0.7900 0.7940
4.195000 0.7970 0.8010 0.8010 0.8030 0.8040
4.222409 0.8040 0.8050 0.8050 0.8060 0.8060
4.249000 0.8070 0.8080 0.8090 0.8110 0.8160
4.276409 0.8210 0.8260 0.8290 0.8330 0.8350
4.304000 0.8390 0.8410 0.8420 0.8440 0.8450
4.331409 0.8460 0.8470 0.8470 0.8470 0.8470
4.359000 0.8480 0.8480 0.8500 0.8500 0.8510
4.386409 0.8520 0.8520 0.8530 0.8550 0.8560
4.414000 0.8570 0.8580 0.8590 0.8610 0.8640
4.441409 0.8640 0.8650 0.8650 0.8660 0.8660
4.468000 0.8670 0.8670 0.8670 0.8680 0.8680
4.495409 0.8690 0.8700 0.8710 0.8710 0.8720
4.523000 0.8730 0.8750 0.8750 0.8760 0.8760
4.550409 0.8770 0.8780 0.8780 0.8810 0.8830
4.578000 0.8840 0.8860 0.8890 0.8900 0.8920
4.605409 0.8940 0.8960 0.9000 0.9020 0.9030
4.633000 0.9040 0.9040 0.9050 0.9050 0.9060
4.660409 0.9060 0.9070 0.9070 0.9070 0.9070
4.688000 0.9060 0.9060 0.9050 0.9050 0.9030
4.715409 0.9010 0.8980 0.8940 0.8930 0.8920
4.742000 0.8910 0.8910 0.8910 0.8910 0.8920
4.769409 0.8930 0.8940 0.8940 0.8950 0.8960
4.797000 0.8970 0.8970 0.8970 0.8970 0.8970
4.824409 0.8970 0.8960 0.8960 0.8950 0.8940
4.852000 0.8930 0.8910 0.8880 0.8810 0.8760
4.879409 0.8710 0.8670 0.8640 0.8590 0.8570
4.907000 0.8540 0.8510 0.8470 0.8430 0.8390
4.934409 0.8330 0.8270 0.8190 0.8100 0.8060
4.962000 0.7970 0.7940 0.7900 0.7850 0.7810
4.989409 0.7790 0.7770 0.7690 0.7670 0.7650
5.016000 0.7640 0.7630 0.7630 0.7640 0.7670
5.043409 0.7710 0.7750 0.7780 0.7800 0.7840
5.071000 0.7910 0.7930 0.7970 0.8060 0.8130
5.098409 0.8180 0.8230 0.8300 0.8330 0.8350
5.126000 0.8390 0.8420 0.8440 0.8470 0.8500
5.153409 0.8520 0.8550 0.8580 0.8630 0.8660
5.181000 0.8700 0.8750 0.8800 0.8840 0.8860
5.208409 0.8900 0.8920 0.8940 0.8980 0.9010
5.236000 0.9030 0.9040 0.9050 0.9070 0.9080
5.263409 0.9090 0.9110 0.9130 0.9140 0.9160
5.290000 0.9170 0.9180 0.9190 0.9200 0.9210
5.317409 0.9220 0.9230 0.9250 0.9270 0.9280
5.345000 0.9280 0.9290 0.9300 0.9300 0.9310
5.372409 0.9330 0.9330 0.9350 0.9350 0.9360
5.400000 0.9360 0.9360 0.9380 0.9380 0.9380
5.427409 0.9380 0.9390 0.9390 0.9390 0.9400
5.455000 0.9400 0.9400 0.9400 0.9400 0.9400
5.482409 0.9400 0.9410 0.9410 0.9420 0.9420
5.510000 0.9420 0.9420 0.9430 0.9430 0.9430
5.537409 0.9430 0.9430 0.9410 0.9410 0.9400
5.564000 0.9390 0.9380 0.9360 0.9350 0.9350
5.591409 0.9350 0.9360 0.9360 0.9380 0.9380
5.619000 0.9390 0.9390 0.9390 0.9390 0.9390
5.646409 0.9390 0.9390 0.9390 0.9390 0.9390
5.674000 0.9380 0.9380 0.9360 0.9350 0.9330
5.701409 0.9310 0.9290 0.9250 0.9170 0.9130
5.729000 0.9080 0.9040 0.9000 0.8940 0.8900
5.756409 0.8840 0.8780 0.8710 0.8650 0.8570
5.784000 0.8480 0.8390 0.8280 0.8170 0.8040
5.811409 0.7910 0.7760 0.7410 0.7200 0.6880
5.838000 0.6460 0.6020 0.5560 0.4860 0.4580
5.865409 0.4360 0.3950 0.3640 0.2960 0.2650
5.893000 0.2320 0.1950 0.1850 0.1760 0.1500
5.920409 0.1350 0.1210 0.1070 0.1060 0.1070
5.948000 0.1220 0.1360 0.1500 0.1640 0.1770
5.975409 0.1910 0.2050 0.2260 0.2550 0.2770
6.003000 0.2930 0.2900 0.2650 0.2520 0.2220
6.030409 0.2200 0.2210 0.2280 0.2340 0.2500
6.058000 0.2650 0.2760 0.2790 0.2970 0.3660
6.085409 0.4340 0.4550 0.5060 0.5300 0.5540
6.112000 0.5670 0.5840 0.5970 0.6000 0.6030
6.139409 0.6030 0.6010 0.5950 0.5900 0.5830
6.167000 0.5670 0.5600 0.5190 0.4590 0.4090
6.194409 0.3910 0.3630 0.3480 0.3100 0.2880
6.222000 0.2800 0.2680 0.2630 0.2510 0.2480
6.249409 0.2480 0.2510 0.2650 0.2730 0.2820
6.277000 0.2920 0.2960 0.3180 0.3390 0.3580
6.304409 0.3720 0.3860 0.4020 0.4190 0.4220
6.332000 0.4230 0.4170 0.4020 0.3790 0.3680
6.359409 0.3630 0.3440 0.3440 0.3550 0.3660
6.386000 0.3730 0.3800 0.3880 0.5200 0.5410
6.413409 0.5600 0.5720 0.5830 0.5910 0.5950
6.441000 0.6010 0.6030 0.6040 0.6030 0.5960
6.468409 0.5810 0.5750 0.5710 0.5570 0.4860
6.496000 0.4480 0.4160 0.3970 0.3770 0.3670
6.523409 0.3570 0.3550 0.3540 0.3540 0.3550
6.551000 0.3560 0.3560 0.3540 0.3520 0.3480
6.578409 0.3470 0.3500 0.3650 0.3800 0.3950
6.605000 0.4080 0.4300 0.4470 0.4710 0.4840
6.632409 0.5080 0.5100 0.5100 0.5080 0.4890
6.660000 0.4780 0.4700 0.4610 0.4540 0.4460
6.687409 0.4410 0.4290 0.4290 0.4380 0.4450
6.715000 0.4590 0.4930 0.5200 0.5440 0.5570
6.742409 0.5690 0.5820 0.6090 0.6250 0.6340
6.770000 0.6440 0.6450 0.6460 0.6460 0.6460
6.797409 0.6450 0.6450 0.6420 0.6290 0.6170
6.825000 0.5610 0.4850 0.4710 0.4090 0.3970
6.852409 0.3860 0.3790 0.3710 0.3690 0.3680
6.879000 0.3690 0.3720 0.3730 0.3780 0.3830
6.906409 0.3890 0.3970 0.4020 0.4660 0.4850
6.934000 0.5000 0.5100 0.5160 0.5300 0.5390
6.961409 0.5450 0.5500 0.5520 0.5540 0.5570
6.989000 0.5630 0.5780 0.6040 0.7210 0.7390
7.016409 0.7510 0.7540 0.7570 0.7580 0.7590
7.044000 0.7600 0.7590 0.7580 0.7530 0.7430
7.071409 0.7250 0.7090 0.6000 0.5840 0.5690
7.099000 0.5550 0.5550 0.5580 0.5800 0.5900
7.126409 0.5970 0.6280 0.6590 0.6770 0.6830
7.153000 0.6850 0.6840 0.6780 0.6700 0.6640
7.180409 0.6540 0.6450 0.6320 0.6300 0.6180
7.208000 0.6080 0.6050 0.6040 0.6020 0.6010
7.235409 0.5950 0.5900 0.5820 0.5690 0.5590
7.263000 0.5550 0.5510 0.5360 0.5300 0.5230
7.290409 0.5170 0.5170 0.5350 0.5460 0.5570
7.318000 0.5790 0.5830 0.6110 0.6200 0.6420
7.345409 0.6470 0.6540 0.6630 0.6700 0.6800
7.373000 0.6880 0.7010 0.7200 0.7310 0.7360
7.400409 0.7400 0.7430 0.7450 0.7480 0.7510
7.427000 0.7520 0.7530 0.7530 0.7540 0.7540
7.454409 0.7540 0.7540 0.7540 0.7540 0.7540
7.482000 0.7540 0.7540 0.7540 0.7540 0.7530
7.509409 0.7130 0.6730 0.6520 0.6220 0.6040
7.537000 0.5910 0.5790 0.5720 0.5640 0.5580
7.564409 0.5550 0.5420 0.5390 0.5350 0.5390
7.592000 0.5560 0.5720 0.5930 0.6280 0.6520
7.619409 0.6680 0.6820 0.6910 0.6950 0.7040
7.647000 0.7260 0.7300 0.7320 0.7380 0.7400
7.674409 0.7410 0.7410 0.7400 0.7360 0.7320
7.701000 0.7130 0.7110 0.7060 0.7000 0.6780
7.728409 0.6530 0.6510 0.6440 0.6360 0.6300
7.756000 0.6230 0.6210 0.6210 0.6230 0.6260
7.783409 0.6280 0.6310 0.6360 0.6410 0.6460
7.811000 0.6500 0.6560 0.6720 0.7010 0.7100
7.838409 0.7210 0.7260 0.7330 0.7410 0.7450
7.866000 0.7500 0.7510 0.7520 0.7530 0.7530
7.893409 0.7510 0.7500 0.7500 0.7510 0.7530
7.921000 0.7560 0.7580 0.7600 0.7630 0.7660
7.948409 0.7730 0.7750 0.7760 0.7770 0.7800
7.975000 0.7820 0.7860 0.7920 0.7930 0.7940
8.002409 0.7950 0.7970 0.7970 0.7970 0.7970
8.030000 0.7960 0.7900 0.7860 0.7830 0.7760
8.057409 0.7650 0.7570 0.7530 0.7420 0.7330
8.085000 0.7210 0.7100 0.7060 0.7000 0.6700
8.112409 0.6640 0.6530 0.6420 0.6300 0.6250
8.140000 0.6180 0.6130 0.6130 0.6220 0.6340
8.167409 0.6470 0.7640 0.7700 0.7760 0.7830
8.195000 0.7920 0.7960 0.8050 0.8150 0.8220
8.222409 0.8290 0.8320 0.8360 0.8380 0.8410
8.249000 0.8440 0.8460 0.8480 0.8480 0.8500
8.276409 0.8500 0.8500 0.8510 0.8520 0.8550
8.304000 0.8590 0.8590 0.8600 0.8610 0.8610
8.331409 0.8630 0.8630 0.8640 0.8640 0.8650
8.359000 0.8650 0.8650 0.8650 0.8650 0.8650
8.386409 0.8660 0.8660 0.8660 0.8660 0.8660
8.414000 0.8670 0.8670 0.8670 0.8680 0.8680
8.441409 0.8680 0.8690 0.8690 0.8700 0.8700
8.468000 0.8710 0.8710 0.8710 0.8710 0.8720
8.495409 0.8720 0.8730 0.8760 0.8780 0.8790
8.523000 0.8810 0.8820 0.8830 0.8830 0.8820
8.550409 0.8820 0.8800 0.8770 0.8760 0.8690
8.578000 0.8650 0.8600 0.8530 0.8500 0.8440
8.605409 0.8400 0.8360 0.8340 0.8270 0.8210
8.633000 0.8160 0.8090 0.8060 0.8000 0.7940
8.660409 0.7850 0.7780 0.7630 0.7500 0.7350
8.688000 0.7260 0.7180 0.7160 0.7110 0.7050
8.715409 0.7040 0.7040 0.7040 0.7030 0.7010
8.742000 0.6970 0.6930 0.6900 0.6840 0.6770
8.769409 0.6720 0.6640 0.6560 0.6460 0.6400
8.797000 0.6350 0.6300 0.6290 0.6260 0.6260
8.824409 0.6280 0.6330 0.6350 0.6540 0.6650
8.852000 0.6710 0.6760 0.6790 0.6860 0.6910
8.879409 0.6950 0.7040 0.7060 0.7080 0.7110
8.907000 0.7160 0.7220 0.7440 0.7530 0.7590
8.934409 0.7610 0.7650 0.7660 0.7670 0.7680
8.962000 0.7670 0.7630 0.7500 0.7460 0.7420
8.989409 0.7340 0.7300 0.7150 0.7150 0.7050
9.016000 0.6900 0.6750 0.6650 0.6650 0.6530
9.043409 0.6310 0.6200 0.6140 0.6040 0.5950
9.071000 0.5770 0.5720 0.5640 0.5570 0.5510
9.098409 0.5420 0.5400 0.5390 0.5390 0.5420
9.126000 0.5480 0.5540 0.5710 0.6310 0.6710
9.153409 0.6890 0.6970 0.7060 0.7090 0.7210
9.181000 0.7270 0.7420 0.7540 0.7700 0.7750
9.208409 0.7790 0.7910 0.7940 0.8130 0.8260
9.236000 0.8340 0.8390 0.8430 0.8480 0.8520
9.263409 0.8550 0.8570 0.8590 0.8600 0.8600
9.290000 0.8600 0.8590 0.8580 0.8560 0.8540
9.317409 0.8520 0.8470 0.8430 0.8390 0.8350
9.345000 0.8280 0.8200 0.8140 0.8100 0.8050
9.372409 0.8010 0.7970 0.7950 0.7900 0.7890
9.400000 0.7810 0.7760 0.7610 0.7580 0.7500
9.427409 0.7410 0.7320 0.7220 0.7090 0.6960
9.455000 0.6790 0.6680 0.6290 0.6150 0.6050
9.482409 0.5960 0.5850 0.5750 0.5650 0.5630
9.510000 0.5650 0.5910 0.6150 0.6360 0.7060
9.537409 0.7290 0.7440 0.7600 0.7700 0.7730
9.564000 0.7770 0.7810 0.7840 0.7920 0.7940
9.591409 0.8010 0.8030 0.8080 0.8110 0.8140
9.619000 0.8160 0.8190 0.8220 0.8250 0.8280
9.646409 0.8310 0.8340 0.8380 0.8390 0.8400
9.674000 0.8410 0.8420 0.8430 0.8440 0.8440
9.701409 0.8450 0.8450 0.8450 0.8450 0.8450
9.729000 0.8440 0.8440 0.8440 0.8440 0.8440
9.756409 0.8440 0.8430 0.8430 0.8420 0.8420
9.784000 0.8420 0.8400 0.8390 0.8360 0.8350
9.811409 0.8320 0.8300 0.8230 0.8190 0.8180
9.838000 0.8130 0.8110 0.8100 0.8090 0.8090
9.865409 0.8090 0.8100 0.8100 0.8110 0.8110
9.893000 0.8100 0.8100 0.8070 0.8040 0.8030
9.920409 0.8010 0.7980 0.7980 0.7950 0.7940
9.948000 0.7930 0.7920 0.7900 0.7880 0.7830
9.975409 0.7770 0.7670 0.7640 0.7590 0.7560
10.003000 0.7550 0.7540 0.7470 0.7410 0.7310
10.030409 0.7290 0.7230 0.7170 0.7100 0.7060
10.058000 0.6920 0.6800 0.6660 0.6530 0.6450
10.085409 0.6310 0.6290 0.6160 0.6090 0.6020
10.112000 0.5910 0.5810 0.5710 0.5660 0.5600
10.139409 0.5590 0.5450 0.5400 0.5340 0.5310
10.167000 0.5260 0.5200 0.5170 0.5130 0.5070
10.194409 0.5020 0.5010 0.5000 0.4920 0.4890
10.222000 0.4850 0.4810 0.4780 0.4760 0.4750
10.249409 0.4720 0.4710 0.4700 0.4690 0.4670
10.277000 0.4660 0.4650 0.4600 0.4570 0.4560
10.304409 0.4570 0.4610 0.4690 0.4750 0.4790
10.332000 0.4820 0.4860 0.5000 0.5010 0.5030
10.359409 0.5100 0.5310 0.5400 0.5500 0.5590
10.386000 0.5660 0.5730 0.5780 0.5900 0.5960
10.413409 0.6060 0.6130 0.6220 0.6310 0.6420
10.441000 0.6900 0.7070 0.7210 0.7260 0.7380
10.468409 0.7410 0.7500 0.7750 0.7790 0.7830
10.496000 0.7900 0.7930 0.7950 0.8000 0.8030
10.523409 0.8100 0.8180 0.8190 0.8230 0.8270
10.551000 0.8280 0.8290 0.8300 0.8310 0.8320
10.578409 0.8330 0.8330 0.8330 0.8330 0.8320
10.605000 0.8320 0.8300 0.8270 0.8230 0.8190
10.632409 0.8160 0.8100 0.8070 0.8010 0.7960
10.660000 0.7950 0.7940 0.7930 0.7920 0.7840
10.687409 0.7780 0.7720 0.7700 0.7690 0.7650
10.715000 0.7610 0.7530 0.7470 0.7440 0.7400
10.742409 0.7390 0.7350 0.7310 0.7310 0.7410
10.770000 0.7440 0.7460 0.7460 0.7470 0.7470
10.797409 0.7470 0.7460 0.7450 0.7440 0.7430
10.825000 0.7430 0.7420 0.7410 0.7410 0.7410
10.852409 0.7420 0.7430 0.7460 0.7470 0.7550
10.879000 0.7630 0.7690 0.7730 0.7750 0.7760
10.906409 0.7790 0.7820 0.7840 0.7850 0.7880
10.934000 0.7920 0.7920 0.7950 0.7970 0.8110
10.961409 0.8140 0.8170 0.8190 0.8220 0.8250
10.989000 0.8260 0.8260 0.8270 0.8270 0.8250
11.016409 0.8250 0.8220 0.8200 0.8180 0.8170
11.044000 0.8160 0.8150 0.8110 0.8070 0.7970
11.071409 0.7940 0.7880 0.7830 0.7790 0.7770
11.099000 0.7690 0.7630 0.7580 0.7530 0.7480
11.126409 0.7460 0.7440 0.7440 0.7430 0.7410
11.153000 0.7380 0.7300 0.7260 0.7230 0.7210
11.180409 0.7200 0.7200 0.7190 0.7180 0.7170
11.208000 0.7150 0.7140 0.7130 0.7100 0.7100
11.235409 0.7090 0.7060 0.7050 0.7050 0.7040
11.263000 0.7040 0.7040 0.7040 0.7030 0.7030
11.290409 0.7030 0.7040 0.7040 0.7040 0.7040
11.318000 0.7050 0.7050 0.7060 0.7080 0.7140
11.345409 0.7180 0.7200 0.7220 0.7260 0.7310
11.373000 0.7360 0.7410 0.7440 0.7450 0.7460
11.400409 0.7470 0.7500 0.7540 0.7580 0.7630
11.427000 0.7650 0.7680 0.7700 0.7730 0.7750
11.454409 0.7760 0.7790 0.7820 0.7820 0.7830
11.482000 0.7850 0.7890 0.8030 0.8060 0.8060
11.509409 0.8080 0.8080 0.8100 0.8160 0.8190
11.537000 0.8280 0.8320 0.8330 0.8350 0.8390
11.564409 0.8450 0.8470 0.8500 0.8520 0.8530
11.592000 0.8540 0.8600 0.8660 0.8710 0.8730
11.619409 0.8770 0.8790 0.8800 0.8820 0.8820
11.647000 0.8830 0.8830 0.8850 0.8850 0.8860
11.674409 0.8860 0.8880 0.8890 0.8910 0.8930
11.701000 0.8950 0.8980 0.9020 0.9050 0.9080
11.728409 0.9110 0.9140 0.9140 0.9140 0.9150
11.756000 0.9150 0.9150 0.9150 0.9160 0.9160
11.783409 0.9160 0.9160 0.9170 0.9170 0.9180
11.811000 0.9180 0.9190 0.9200 0.9210 0.9230
11.838409 0.9250 0.9270 0.9280 0.9290 0.9300
11.866000 0.9310 0.9320 0.9330 0.9330 0.9340
11.893409 0.9350 0.9350 0.9360 0.9380 0.9380
11.921000 0.9390 0.9400 0.9410 0.9410 0.9410
11.948409 0.9420 0.9430 0.9440 0.9460 0.9470
11.975000 0.9480 0.9480 0.9500 0.9500 0.9510
12.002409 0.9510 0.9520 0.9520 0.9510 0.9510
12.030000 0.9510 0.9510 0.9510 0.9510 0.9510
12.057409 0.9480 0.9470 0.9470 0.9460 0.9460
12.085000 0.9450 0.9450 0.9440 0.9430 0.9420
12.112409 0.9420 0.9410 0.9400 0.9360 0.9340
12.140000 0.9300 0.9270 0.9210 0.9160 0.9090
12.167409 0.9040 0.9010 0.9000 0.8980 0.8970
12.195000 0.8950 0.8940 0.8940 0.8930 0.8920
12.222409 0.8910 0.8860 0.8810 0.8780 0.8780
12.249000 0.8800 0.8830 0.8840 0.8920 0.8930
12.276409 0.8980 0.9000 0.9020 0.9040 0.9060
12.304000 0.9070 0.9080 0.9100 0.9130 0.9140
12.331409 0.9150 0.9160 0.9170 0.9180 0.9190
12.359000 0.9210 0.9230 0.9280 0.9330 0.9350
12.386409 0.9390 0.9420 0.9440 0.9460 0.9470
12.414000 0.9480 0.9500 0.9510 0.9520 0.9520
12.441409 0.9530 0.9530 0.9540 0.9540 0.9550
12.468000 0.9550 0.9560 0.9570 0.9580 0.9580
12.495409 0.9590 0.9600 0.9600 0.9610 0.9610
12.523000 0.9630 0.9630 0.9640 0.9650 0.9650
12.550409 0.9660 0.9660 0.9670 0.9670 0.9680
12.578000 0.9680 0.9680 0.9690 0.9690 0.9690
12.605409 0.9690 0.9690 0.9700 0.9700 0.9700
12.633000 0.9700 0.9700 0.9700 0.9700 0.9710
12.660409 0.9710 0.9710 0.9710 0.9710 0.9720
12.688000 0.9720 0.9720 0.9720 0.9720 0.9720
12.715409 0.9720 0.9720 0.9710 0.9710 0.9690
12.742000 0.9670 0.9660 0.9650 0.9640 0.9630
12.769409 0.9610 0.9600 0.9560 0.9550 0.9550
12.797000 0.9550 0.9540 0.9530 0.9520 0.9500
12.824409 0.9450 0.9440 0.9430 0.9430 0.9430
12.852000 0.9420 0.9420 0.9420 0.9420 0.9420
12.879409 0.9420 0.9410 0.9400 0.9390 0.9360
12.907000 0.9340 0.9320 0.9300 0.9280 0.9250
12.934409 0.9210 0.9190 0.9170 0.9140 0.9110
12.962000 0.9080 0.9050 0.9020 0.9000 0.8980
12.989409 0.8970 0.8960 0.8950 0.8950 0.8950
13.016000 0.8940 0.8940 0.8940 0.8940 0.8930
13.043409 0.8930 0.8930 0.8930 0.8930 0.8930
13.071000 0.8930 0.8930 0.8930 0.8930 0.8930
13.098409 0.8930 0.8930 0.8930 0.8930 0.8930
13.126000 0.8930 0.8930 0.8930 0.8930 0.8940
13.153409 0.8940 0.8940 0.8950 0.8960 0.8980
13.181000 0.9000 0.9010 0.9020 0.9040 0.9050
13.208409 0.9060 0.9080 0.9100 0.9140 0.9160
13.236000 0.9170 0.9180 0.9190 0.9200 0.9200
13.263409 0.9220 0.9230 0.9250 0.9260 0.9260
13.290000 0.9280 0.9290 0.9290 0.9300 0.9300
13.317409 0.9300 0.9310 0.9320 0.9320 0.9320
13.345000 0.9330 0.9330 0.9330 0.9320 0.9310
13.372409 0.9300 0.9290 0.9280 0.9270 0.9270
13.400000 0.9260 0.9250 0.9230 0.9230 0.9230
13.427409 0.9220 0.9210 0.9210 0.9220 0.9230
13.455000 0.9230 0.9230 0.9220 0.9220 0.9190
13.482409 0.9180 0.9160 0.9110 0.9080 0.9060
13.510000 0.9040 0.9030 0.9000 0.8950 0.8910
13.537409 0.8890 0.8840 0.8800 0.8780 0.8760
13.564000 0.8750 0.8730 0.8720 0.8710 0.8690
13.591409 0.8670 0.8670 0.8650 0.8650 0.8640
13.619000 0.8630 0.8600 0.8570 0.8540 0.8510
13.646409 0.8460 0.8450 0.8440 0.8430 0.8430
13.674000 0.8420 0.8410 0.8410 0.8400 0.8400
13.701409 0.8390 0.8380 0.8360 0.8350 0.8340
13.729000 0.8320 0.8310 0.8300 0.8270 0.8230
13.756409 0.8200 0.8200 0.8190 0.8180 0.8180
13.784000 0.8180 0.8180 0.8180 0.8180 0.8170
13.811409 0.8170 0.8160 0.8140 0.8130 0.8110
13.838000 0.8110 0.8110 0.8110 0.8110 0.8110
13.865409 0.8110 0.8130 0.8130 0.8130 0.8140
13.893000 0.8150 0.8150 0.8160 0.8180 0.8200
13.920409 0.8210 0.8230 0.8260 0.8290 0.8340
13.948000 0.8380 0.8420 0.8450 0.8470 0.8510
13.975409 0.8570 0.8610 0.8630 0.8650 0.8670
14.003000 0.8690 0.8710 0.8720 0.8750 0.8770
14.030409 0.8790 0.8820 0.8830 0.8840 0.8850
14.058000 0.8860 0.8880 0.8890 0.8900 0.8910
14.085409 0.8920 0.8930 0.8940 0.8940 0.8950
14.112000 0.8950 0.8950 0.8950 0.8960 0.8960
14.139409 0.8960 0.8970 0.8970 0.8970 0.8970
14.167000 0.8970 0.8970 0.8970 0.8960 0.8960
14.194409 0.8950 0.8950 0.8940 0.8930 0.8930
14.222000 0.8920 0.8920 0.8920 0.8910 0.8910
14.249409 0.8900 0.8900 0.8900 0.8880 0.8880
14.277000 0.8860 0.8850 0.8830 0.8820 0.8810
14.304409 0.8800 0.8790 0.8770 0.8720 0.8680
14.332000 0.8650 0.8630 0.8590 0.8560 0.8540
14.359409 0.8520 0.8480 0.8450 0.8410 0.8390
14.386000 0.8360 0.8310 0.8280 0.8250 0.8230
14.413409 0.8200 0.8160 0.8140 0.8090 0.8060
14.441000 0.8040 0.8020 0.8000 0.7960 0.7950
14.468409 0.7940 0.7930 0.7910 0.7900 0.7890
14.496000 0.7880 0.7860 0.7840 0.7830 0.7820
14.523409 0.7810 0.7770 0.7680 0.7650 0.7640
14.551000 0.7630 0.7630 0.7630 0.7610 0.7610
14.578409 0.7610 0.7610 0.7610 0.7610 0.7610
14.605000 0.7610 0.7610 0.7610 0.7600 0.7600
14.632409 0.7600 0.7610 0.7630 0.7650 0.7660
14.660000 0.7690 0.7710 0.7750 0.7760 0.7760
14.687409 0.7780 0.7790 0.7810 0.7830 0.7860
14.715000 0.7920 0.7940 0.7950 0.7960 0.7980
14.742409 0.8040 0.8070 0.8080 0.8100 0.8130
14.770000 0.8150 0.8180 0.8200 0.8220 0.8250
14.797409 0.8260 0.8280 0.8290 0.8310 0.8330
14.825000 0.8350 0.8350 0.8360 0.8360 0.8360
14.852409 0.8360 0.8360 0.8360 0.8360 0.8360
14.879000 0.8360 0.8360 0.8360 0.8360 0.8360
14.906409 0.8360 0.8360 0.8360 0.8360 0.8380
14.934000 0.8380 0.8380 0.8390 0.8390 0.8390
14.961409 0.8380 0.8380 0.8360 0.8350 0.8340
14.989000 0.8330 0.8320 0.8310 0.8300 0.8250
15.016409 0.8160 0.8100
##END=
