##TITLE=PHENANTHRENE-D10
##JCAMP-DX=4.24
##DATA TYPE=INFRARED SPECTRUM
##CLASS=COBLENTZ
##ORIGIN=CENTRE D'ETUDES NUCLEAIRES DE GRENOBLE
##OWNER=COBLENTZ SOCIETY
Collection (C) 2018 copyright by the U.S. Secretary of Commerce
on behalf of the United States of America. All rights reserved.
##DATE=Not specified, most likely prior to 1970
##MOLFORM=C14 D10
##SOURCE REFERENCE=COBLENTZ NO. 4229
##$NIST ID=B6004229
##$NIST SOURCE=COBLENTZ
##$NIST IMAGE=cob4229
##SPECTROMETER/DATA SYSTEM=Not specified, most likely a prism, grating, or hybrid spectrometer.
##STATE=SOLID (1% IN KBr)
##PATH LENGTH=
$$PURITY 91.6%
##SAMPLING PROCEDURE=TRANSMISSION
##RESOLUTION=4
##DATA PROCESSING=DIGITIZED BY NIST FROM HARD COPY
##XUNITS=MICROMETERS
##YUNITS=TRANSMITTANCE
##XFACTOR=1.000000
##YFACTOR=1
##DELTAX=000.006694
##FIRSTX=1.996
##LASTX=15.9267
##FIRSTY=0.085
##MAXX=15.9267
##MINX=1.996
##MAXY=0.926
##MINY=0.083
##NPOINTS=2082
##XYDATA=(X++(Y..Y))
1.996000 0.0850 0.0850 0.0850 0.0830 0.0830
2.029487 0.0830 0.0830 0.0830 0.0830 0.0850
2.063000 0.0850 0.0860 0.0860 0.0860 0.0880
2.096487 0.0880 0.0880 0.0880 0.0900 0.0910
2.130000 0.0910 0.0910 0.0930 0.0930 0.0950
2.163487 0.0950 0.0950 0.0960 0.0960 0.0960
2.197000 0.0980 0.0980 0.0980 0.0980 0.0980
2.230487 0.0980 0.0980 0.0980 0.0980 0.0980
2.264000 0.1000 0.1000 0.1000 0.1010 0.1010
2.297487 0.1010 0.1010 0.1030 0.1030 0.1030
2.331000 0.1030 0.1050 0.1050 0.1050 0.1050
2.364487 0.1060 0.1060 0.1080 0.1110 0.1130
2.398000 0.1150 0.1150 0.1160 0.1160 0.1180
2.431487 0.1180 0.1180 0.1200 0.1200 0.1200
2.464000 0.1210 0.1210 0.1230 0.1230 0.1250
2.497487 0.1260 0.1280 0.1300 0.1310 0.1330
2.531000 0.1350 0.1360 0.1380 0.1400 0.1410
2.564487 0.1430 0.1450 0.1460 0.1480 0.1480
2.598000 0.1500 0.1500 0.1510 0.1530 0.1530
2.631487 0.1550 0.1550 0.1560 0.1560 0.1580
2.665000 0.1600 0.1610 0.1610 0.1630 0.1630
2.698487 0.1650 0.1660 0.1660 0.1660 0.1680
2.732000 0.1680 0.1680 0.1680 0.1700 0.1700
2.765487 0.1700 0.1700 0.1710 0.1710 0.1710
2.799000 0.1710 0.1710 0.1710 0.1710 0.1710
2.832487 0.1730 0.1730 0.1730 0.1730 0.1750
2.866000 0.1750 0.1750 0.1750 0.1760 0.1760
2.899487 0.1780 0.1780 0.1780 0.1800 0.1810
2.933000 0.1830 0.1850 0.1860 0.1860 0.1880
2.966487 0.1900 0.1910 0.1930 0.1950 0.1960
3.000000 0.1980 0.2000 0.2010 0.2030 0.2050
3.033487 0.2060 0.2080 0.2080 0.2100 0.2110
3.067000 0.2110 0.2130 0.2150 0.2160 0.2180
3.100487 0.2180 0.2200 0.2210 0.2230 0.2230
3.134000 0.2250 0.2260 0.2280 0.2300 0.2310
3.167487 0.2310 0.2330 0.2350 0.2360 0.2360
3.201000 0.2380 0.2400 0.2400 0.2430 0.2450
3.234487 0.2450 0.2460 0.2480 0.2480 0.2480
3.268000 0.2500 0.2500 0.2500 0.2510 0.2510
3.301487 0.2530 0.2530 0.2550 0.2550 0.2560
3.335000 0.2580 0.2600 0.2610 0.2610 0.2650
3.368487 0.2650 0.2660 0.2660 0.2680 0.2680
3.402000 0.2680 0.2660 0.2660 0.2650 0.2630
3.435487 0.2610 0.2600 0.2560 0.2530 0.2500
3.469000 0.2480 0.2500 0.2530 0.2600 0.2650
3.502487 0.2710 0.2760 0.2780 0.2800 0.2810
3.536000 0.2810 0.2780 0.2750 0.2730 0.2730
3.569487 0.2800 0.2950 0.3000 0.3030 0.3060
3.602000 0.3100 0.3130 0.3160 0.3200 0.3230
3.635487 0.3260 0.3280 0.3300 0.3310 0.3330
3.669000 0.3330 0.3360 0.3380 0.3380 0.3400
3.702487 0.3410 0.3410 0.3430 0.3450 0.3460
3.736000 0.3460 0.3480 0.3500 0.3500 0.3510
3.769487 0.3530 0.3550 0.3550 0.3560 0.3580
3.803000 0.3580 0.3600 0.3630 0.3650 0.3660
3.836487 0.3660 0.3680 0.3700 0.3700 0.3710
3.870000 0.3730 0.3730 0.3750 0.3750 0.3760
3.903487 0.3760 0.3780 0.3800 0.3800 0.3810
3.937000 0.3830 0.3850 0.3860 0.3880 0.3900
3.970487 0.3930 0.3950 0.3950 0.3960 0.3960
4.004000 0.3980 0.4000 0.4010 0.4010 0.4030
4.037487 0.4050 0.4060 0.4060 0.4080 0.4080
4.071000 0.4100 0.4100 0.4110 0.4130 0.4130
4.104487 0.4150 0.4150 0.4160 0.4180 0.4200
4.138000 0.4210 0.4230 0.4250 0.4260 0.4280
4.171487 0.4300 0.4310 0.4330 0.4350 0.4350
4.205000 0.4360 0.4360 0.4380 0.4380 0.4400
4.238487 0.4410 0.4430 0.4430 0.4450 0.4460
4.272000 0.4460 0.4480 0.4500 0.4510 0.4510
4.305487 0.4530 0.4550 0.4560 0.4580 0.4600
4.339000 0.4600 0.4600 0.4580 0.4560 0.4510
4.372487 0.4460 0.4430 0.4360 0.4350 0.4280
4.406000 0.3980 0.3560 0.3410 0.3360 0.3300
4.439487 0.3260 0.3250 0.3230 0.3110 0.2950
4.473000 0.2930 0.2950 0.3250 0.3310 0.3780
4.506487 0.3950 0.4080 0.4200 0.4280 0.4350
4.540000 0.4400 0.4430 0.4460 0.4480 0.4510
4.573487 0.4530 0.4580 0.4610 0.4630 0.4660
4.607000 0.4680 0.4730 0.4750 0.4760 0.4780
4.640487 0.4780 0.4800 0.4810 0.4830 0.4830
4.674000 0.4850 0.4860 0.4880 0.4880 0.4900
4.707487 0.4910 0.4930 0.4930 0.4950 0.4960
4.740000 0.4980 0.4980 0.5000 0.5010 0.5010
4.773487 0.5010 0.5030 0.5030 0.5050 0.5050
4.807000 0.5060 0.5060 0.5080 0.5080 0.5100
4.840487 0.5100 0.5110 0.5110 0.5130 0.5130
4.874000 0.5130 0.5160 0.5180 0.5200 0.5200
4.907487 0.5210 0.5230 0.5250 0.5260 0.5280
4.941000 0.5280 0.5300 0.5310 0.5310 0.5330
4.974487 0.5330 0.5350 0.5350 0.5360 0.5360
5.008000 0.5380 0.5380 0.5400 0.5400 0.5410
5.041487 0.5410 0.5430 0.5430 0.5430 0.5450
5.075000 0.5450 0.5460 0.5460 0.5480 0.5480
5.108487 0.5500 0.5500 0.5500 0.5510 0.5510
5.142000 0.5530 0.5530 0.5530 0.5550 0.5550
5.175487 0.5550 0.5560 0.5560 0.5580 0.5580
5.209000 0.5580 0.5600 0.5600 0.5610 0.5610
5.242487 0.5630 0.5630 0.5650 0.5650 0.5660
5.276000 0.5660 0.5660 0.5680 0.5680 0.5700
5.309487 0.5700 0.5710 0.5710 0.5730 0.5730
5.343000 0.5750 0.5750 0.5760 0.5760 0.5780
5.376487 0.5780 0.5800 0.5800 0.5810 0.5810
5.410000 0.5830 0.5830 0.5850 0.5850 0.5860
5.443487 0.5860 0.5880 0.5880 0.5900 0.5900
5.477000 0.5910 0.5910 0.5930 0.5930 0.5930
5.510487 0.5930 0.5930 0.5930 0.5950 0.5950
5.544000 0.5950 0.5950 0.5950 0.5950 0.5960
5.577487 0.5960 0.5960 0.5960 0.5960 0.5960
5.611000 0.5980 0.5980 0.5980 0.5980 0.5980
5.644487 0.5980 0.5980 0.5980 0.5980 0.5980
5.678000 0.5980 0.5980 0.5980 0.5980 0.5980
5.711487 0.5980 0.5980 0.6000 0.6000 0.6010
5.745000 0.6010 0.6010 0.6030 0.6030 0.6050
5.778487 0.6050 0.6050 0.6060 0.6060 0.6080
5.812000 0.6080 0.6080 0.6080 0.6080 0.6080
5.845487 0.6080 0.6080 0.6080 0.6100 0.6100
5.878000 0.6100 0.6100 0.6110 0.6110 0.6110
5.911487 0.6110 0.6130 0.6130 0.6130 0.6130
5.945000 0.6150 0.6150 0.6150 0.6150 0.6160
5.978487 0.6160 0.6160 0.6160 0.6160 0.6160
6.012000 0.6150 0.6130 0.6100 0.6080 0.6060
6.045487 0.6060 0.6080 0.6100 0.6150 0.6160
6.079000 0.6200 0.6180 0.6180 0.6160 0.6150
6.112487 0.6080 0.6050 0.6050 0.6030 0.6030
6.146000 0.6000 0.5980 0.5960 0.5960 0.5960
6.179487 0.5960 0.5960 0.5950 0.5950 0.5950
6.213000 0.5950 0.5950 0.5950 0.5950 0.5950
6.246487 0.5950 0.5950 0.5930 0.5910 0.5900
6.280000 0.5850 0.5810 0.5750 0.5650 0.5500
6.313487 0.5430 0.5380 0.5360 0.5380 0.5430
6.347000 0.5530 0.5600 0.5630 0.5660 0.5680
6.380487 0.5710 0.5750 0.5780 0.5850 0.5930
6.414000 0.6050 0.6150 0.6180 0.6180 0.6200
6.447487 0.6200 0.6200 0.6200 0.6200 0.6200
6.481000 0.6200 0.6180 0.6150 0.6150 0.6130
6.514487 0.6130 0.6130 0.6130 0.6150 0.6160
6.548000 0.6160 0.6180 0.6180 0.6200 0.6200
6.581487 0.6210 0.6210 0.6250 0.6250 0.6250
6.615000 0.6250 0.6260 0.6260 0.6280 0.6310
6.648487 0.6350 0.6380 0.6400 0.6430 0.6450
6.682000 0.6450 0.6460 0.6460 0.6480 0.6480
6.715487 0.6480 0.6480 0.6510 0.6510 0.6550
6.749000 0.6600 0.6610 0.6650 0.6660 0.6680
6.782487 0.6700 0.6700 0.6710 0.6750 0.6780
6.816000 0.6800 0.6780 0.6710 0.6680 0.6660
6.849487 0.6650 0.6610 0.6550 0.6480 0.6460
6.883000 0.6460 0.6480 0.6530 0.6530 0.6550
6.916487 0.6550 0.6550 0.6560 0.6560 0.6580
6.950000 0.6580 0.6600 0.6610 0.6630 0.6660
6.983487 0.6660 0.6650 0.6630 0.6550 0.6380
7.016000 0.6180 0.5980 0.5760 0.5750 0.5780
7.049487 0.5960 0.6050 0.6180 0.6280 0.6360
7.083000 0.6410 0.6460 0.6500 0.6510 0.6530
7.116487 0.6530 0.6550 0.6550 0.6550 0.6550
7.150000 0.6550 0.6530 0.6510 0.6460 0.6430
7.183487 0.6400 0.6380 0.6360 0.6360 0.6300
7.217000 0.6200 0.6130 0.6130 0.6200 0.6260
7.250487 0.6330 0.6400 0.6450 0.6500 0.6510
7.284000 0.6530 0.6550 0.6550 0.6560 0.6560
7.317487 0.6580 0.6580 0.6580 0.6580 0.6580
7.351000 0.6580 0.6580 0.6580 0.6580 0.6580
7.384487 0.6560 0.6530 0.6510 0.6450 0.6310
7.418000 0.6130 0.5930 0.5730 0.5700 0.5710
7.451487 0.5900 0.6100 0.6130 0.6280 0.6380
7.485000 0.6430 0.6450 0.6530 0.6550 0.6560
7.518487 0.6600 0.6600 0.6610 0.6610 0.6600
7.552000 0.6550 0.6500 0.6480 0.6310 0.6010
7.585487 0.5510 0.5510 0.5610 0.6310 0.6500
7.619000 0.6560 0.6660 0.6910 0.6980 0.7000
7.652487 0.7100 0.7110 0.7110 0.7080 0.7060
7.686000 0.7000 0.6800 0.6710 0.6630 0.6460
7.719487 0.6030 0.6000 0.6030 0.6260 0.6280
7.753000 0.6450 0.6610 0.6800 0.6950 0.7030
7.786487 0.7080 0.7100 0.7130 0.7150 0.7150
7.820000 0.7160 0.7180 0.7180 0.7160 0.7160
7.853487 0.7150 0.7110 0.7110 0.7080 0.7050
7.887000 0.7030 0.7000 0.6750 0.6730 0.6750
7.920487 0.6900 0.6960 0.7000 0.7050 0.7060
7.954000 0.7080 0.7110 0.7130 0.7130 0.7150
7.987487 0.7160 0.7160 0.7180 0.7180 0.7200
8.021000 0.7210 0.7210 0.7210 0.7230 0.7230
8.054487 0.7230 0.7250 0.7250 0.7250 0.7250
8.088000 0.7250 0.7250 0.7250 0.7250 0.7250
8.121487 0.7250 0.7260 0.7260 0.7280 0.7280
8.154000 0.7300 0.7300 0.7310 0.7310 0.7330
8.187487 0.7350 0.7360 0.7380 0.7380 0.7380
8.221000 0.7360 0.7350 0.7330 0.7300 0.7260
8.254487 0.7230 0.7210 0.7180 0.7160 0.7150
8.288000 0.7130 0.7100 0.7060 0.6680 0.6130
8.321487 0.5580 0.4800 0.4580 0.4580 0.4750
8.355000 0.5530 0.5900 0.6130 0.6330 0.6530
8.388487 0.6830 0.6860 0.6900 0.6910 0.6910
8.422000 0.6910 0.6910 0.6910 0.6930 0.6950
8.455487 0.6960 0.7000 0.7030 0.7080 0.7080
8.489000 0.7100 0.7180 0.7230 0.7260 0.7280
8.522487 0.7310 0.7350 0.7380 0.7410 0.7450
8.556000 0.7450 0.7480 0.7500 0.7500 0.7500
8.589487 0.7500 0.7500 0.7480 0.7450 0.7430
8.623000 0.7410 0.7430 0.7450 0.7460 0.7480
8.656487 0.7510 0.7550 0.7580 0.7610 0.7650
8.690000 0.7660 0.7660 0.7680 0.7700 0.7700
8.723487 0.7730 0.7750 0.7760 0.7780 0.7780
8.757000 0.7780 0.7800 0.7800 0.7800 0.7800
8.790487 0.7800 0.7800 0.7780 0.7760 0.7750
8.824000 0.7750 0.7730 0.7730 0.7730 0.7750
8.857487 0.7750 0.7750 0.7750 0.7730 0.7730
8.891000 0.7710 0.7700 0.7680 0.7650 0.7610
8.924487 0.7600 0.7580 0.7580 0.7580 0.7550
8.958000 0.7510 0.7480 0.7450 0.7430 0.7410
8.991487 0.7430 0.7530 0.7630 0.7680 0.7680
9.025000 0.7710 0.7710 0.7710 0.7710 0.7730
9.058487 0.7730 0.7730 0.7730 0.7730 0.7750
9.092000 0.7760 0.7800 0.7810 0.7850 0.7860
9.125487 0.7880 0.7900 0.7900 0.7900 0.7900
9.159000 0.7910 0.7910 0.7910 0.7910 0.7910
9.192487 0.7910 0.7910 0.7910 0.7910 0.7910
9.226000 0.7910 0.7930 0.7930 0.7950 0.7950
9.259487 0.7950 0.7960 0.7980 0.7980 0.7980
9.292000 0.8010 0.8030 0.8030 0.8050 0.8060
9.325487 0.8060 0.8080 0.8100 0.8100 0.8110
9.359000 0.8110 0.8130 0.8130 0.8150 0.8150
9.392487 0.8160 0.8160 0.8160 0.8160 0.8160
9.426000 0.8160 0.8160 0.8160 0.8150 0.8150
9.459487 0.8150 0.8150 0.8150 0.8150 0.8150
9.493000 0.8150 0.8150 0.8130 0.8130 0.8130
9.526487 0.8110 0.8110 0.8110 0.8100 0.8100
9.560000 0.8100 0.8100 0.8100 0.8110 0.8110
9.593487 0.8130 0.8130 0.8150 0.8180 0.8180
9.627000 0.8180 0.8180 0.8200 0.8200 0.8200
9.660487 0.8200 0.8200 0.8200 0.8200 0.8200
9.694000 0.8200 0.8180 0.8180 0.8180 0.8160
9.727487 0.8160 0.8160 0.8150 0.8150 0.8130
9.761000 0.8130 0.8110 0.8110 0.8100 0.8100
9.794487 0.8080 0.8080 0.8060 0.8060 0.8060
9.828000 0.8060 0.8060 0.8080 0.8080 0.8100
9.861487 0.8110 0.8130 0.8150 0.8180 0.8210
9.895000 0.8230 0.8300 0.8350 0.8360 0.8400
9.928487 0.8400 0.8410 0.8410 0.8410 0.8410
9.962000 0.8400 0.8380 0.8360 0.8350 0.8280
9.995487 0.8210 0.8180 0.8130 0.8010 0.7930
10.029000 0.7760 0.7750 0.7760 0.7880 0.7950
10.062487 0.8010 0.8080 0.8160 0.8230 0.8300
10.096000 0.8360 0.8400 0.8430 0.8430 0.8430
10.129487 0.8450 0.8450 0.8460 0.8460 0.8480
10.163000 0.8480 0.8510 0.8510 0.8530 0.8550
10.196487 0.8550 0.8530 0.8530 0.8500 0.8430
10.230000 0.8380 0.8330 0.8300 0.8250 0.8200
10.263487 0.8150 0.8100 0.8060 0.8050 0.8050
10.297000 0.8060 0.8080 0.8130 0.8150 0.8180
10.330487 0.8230 0.8260 0.8300 0.8330 0.8360
10.364000 0.8400 0.8410 0.8430 0.8460 0.8500
10.397487 0.8530 0.8550 0.8550 0.8560 0.8560
10.430000 0.8580 0.8600 0.8600 0.8610 0.8630
10.463487 0.8630 0.8630 0.8660 0.8660 0.8660
10.497000 0.8660 0.8660 0.8650 0.8650 0.8650
10.530487 0.8650 0.8650 0.8630 0.8630 0.8630
10.564000 0.8610 0.8600 0.8600 0.8600 0.8610
10.597487 0.8630 0.8630 0.8650 0.8660 0.8680
10.631000 0.8680 0.8700 0.8710 0.8750 0.8760
10.664487 0.8780 0.8780 0.8800 0.8810 0.8810
10.698000 0.8810 0.8810 0.8810 0.8830 0.8830
10.731487 0.8830 0.8850 0.8860 0.8860 0.8880
10.765000 0.8880 0.8860 0.8860 0.8860 0.8860
10.798487 0.8860 0.8850 0.8850 0.8850 0.8850
10.832000 0.8830 0.8830 0.8830 0.8830 0.8830
10.865487 0.8810 0.8810 0.8810 0.8800 0.8780
10.899000 0.8760 0.8750 0.8750 0.8760 0.8760
10.932487 0.8780 0.8800 0.8800 0.8810 0.8810
10.966000 0.8810 0.8810 0.8810 0.8800 0.8800
10.999487 0.8780 0.8760 0.8760 0.8750 0.8750
11.033000 0.8750 0.8750 0.8750 0.8760 0.8760
11.066487 0.8730 0.8730 0.8700 0.8660 0.8610
11.100000 0.8580 0.8550 0.8510 0.7800 0.7650
11.133487 0.7210 0.6700 0.6160 0.5280 0.4780
11.167000 0.4430 0.4460 0.4750 0.5080 0.5610
11.200487 0.5980 0.6360 0.6950 0.7100 0.7280
11.234000 0.7480 0.7680 0.7910 0.8010 0.8100
11.267487 0.8180 0.8210 0.8250 0.8310 0.8410
11.301000 0.8450 0.8460 0.8500 0.8510 0.8510
11.334487 0.8510 0.8530 0.8530 0.8560 0.8580
11.368000 0.8580 0.8580 0.8580 0.8580 0.8580
11.401487 0.8600 0.8600 0.8650 0.8660 0.8680
11.435000 0.8700 0.8710 0.8710 0.8730 0.8730
11.468487 0.8730 0.8730 0.8730 0.8750 0.8750
11.502000 0.8780 0.8800 0.8810 0.8810 0.8780
11.535487 0.8680 0.8530 0.8330 0.7960 0.7480
11.568000 0.7060 0.6830 0.6600 0.6580 0.6610
11.601487 0.7080 0.7280 0.7460 0.7650 0.7780
11.635000 0.7860 0.7980 0.8050 0.8110 0.8180
11.668487 0.8250 0.8310 0.8380 0.8450 0.8510
11.702000 0.8580 0.8580 0.8560 0.8560 0.8530
11.735487 0.8480 0.8410 0.8300 0.8160 0.8110
11.769000 0.8060 0.8050 0.8030 0.8030 0.8050
11.802487 0.8060 0.8100 0.8100 0.8080 0.8060
11.836000 0.8010 0.7960 0.7800 0.7650 0.7560
11.869487 0.7510 0.7480 0.7400 0.7310 0.7160
11.903000 0.7010 0.6930 0.6680 0.6580 0.6480
11.936487 0.6330 0.6150 0.6010 0.5900 0.5710
11.970000 0.5560 0.5480 0.5410 0.5080 0.4800
12.003487 0.4260 0.4230 0.4030 0.4030 0.4260
12.037000 0.4500 0.4650 0.4950 0.5310 0.5630
12.070487 0.5980 0.6300 0.6560 0.7050 0.7250
12.104000 0.7380 0.7480 0.7660 0.7960 0.8050
12.137487 0.8150 0.8210 0.8280 0.8310 0.8330
12.171000 0.8350 0.8360 0.8360 0.8380 0.8450
12.204487 0.8460 0.8510 0.8530 0.8550 0.8530
12.238000 0.8480 0.8360 0.8250 0.8060 0.7930
12.271487 0.7650 0.7330 0.7280 0.7250 0.7280
12.305000 0.7580 0.7880 0.8000 0.8100 0.8210
12.338487 0.8250 0.8300 0.8330 0.8360 0.8410
12.372000 0.8460 0.8480 0.8560 0.8610 0.8630
12.405487 0.8630 0.8680 0.8700 0.8710 0.8710
12.439000 0.8750 0.8780 0.8800 0.8800 0.8800
12.472487 0.8800 0.8810 0.8810 0.8830 0.8850
12.506000 0.8860 0.8860 0.8850 0.8830 0.8810
12.539487 0.8800 0.8800 0.8800 0.8810 0.8810
12.573000 0.8810 0.8810 0.8830 0.8860 0.8880
12.606487 0.8880 0.8880 0.8880 0.8860 0.8860
12.640000 0.8850 0.8850 0.8850 0.8860 0.8860
12.673487 0.8880 0.8880 0.8880 0.8900 0.8900
12.706000 0.8900 0.8880 0.8880 0.8850 0.8830
12.739487 0.8800 0.8750 0.8680 0.8630 0.8580
12.773000 0.8560 0.8530 0.8480 0.8380 0.8260
12.806487 0.8100 0.7730 0.7250 0.6860 0.6460
12.840000 0.5480 0.4630 0.4080 0.3510 0.3380
12.873487 0.3380 0.3510 0.3910 0.4430 0.4900
12.907000 0.5350 0.5600 0.5830 0.6050 0.6180
12.940487 0.6230 0.6250 0.6250 0.6250 0.6230
12.974000 0.6230 0.6180 0.6180 0.6350 0.7050
13.007487 0.7260 0.7500 0.7680 0.7860 0.8000
13.041000 0.8060 0.8200 0.8360 0.8460 0.8500
13.074487 0.8530 0.8560 0.8580 0.8580 0.8600
13.108000 0.8630 0.8630 0.8650 0.8660 0.8660
13.141487 0.8680 0.8680 0.8680 0.8660 0.8660
13.175000 0.8660 0.8660 0.8680 0.8700 0.8730
13.208487 0.8780 0.8810 0.8830 0.8850 0.8850
13.242000 0.8850 0.8860 0.8860 0.8860 0.8860
13.275487 0.8860 0.8850 0.8810 0.8800 0.8710
13.309000 0.8710 0.8760 0.8810 0.8830 0.8850
13.342487 0.8850 0.8830 0.8810 0.8730 0.8700
13.376000 0.8650 0.8550 0.8400 0.8230 0.8000
13.409487 0.7730 0.7530 0.7380 0.7300 0.7230
13.443000 0.7210 0.7210 0.7230 0.7360 0.7450
13.476487 0.7550 0.7650 0.7810 0.8010 0.8080
13.510000 0.8100 0.8210 0.8350 0.8460 0.8560
13.543487 0.8650 0.8680 0.8710 0.8750 0.8780
13.577000 0.8800 0.8830 0.8850 0.8850 0.8850
13.610487 0.8860 0.8860 0.8880 0.8880 0.8900
13.644000 0.8910 0.8930 0.8950 0.8950 0.8950
13.677487 0.8950 0.8960 0.8960 0.8960 0.8980
13.711000 0.8980 0.8980 0.8980 0.8980 0.8980
13.744487 0.9000 0.9000 0.9000 0.9000 0.9000
13.778000 0.9000 0.9000 0.9010 0.9010 0.9010
13.811487 0.9010 0.9010 0.9010 0.9010 0.9010
13.844000 0.9010 0.9010 0.9010 0.9030 0.9030
13.877487 0.9030 0.9030 0.9030 0.9030 0.9030
13.911000 0.9030 0.9030 0.9030 0.9050 0.9050
13.944487 0.9050 0.9060 0.9060 0.9060 0.9080
13.978000 0.9080 0.9080 0.9100 0.9100 0.9110
14.011487 0.9130 0.9130 0.9150 0.9150 0.9160
14.045000 0.9160 0.9160 0.9160 0.9150 0.9150
14.078487 0.9150 0.9130 0.9110 0.9110 0.9110
14.112000 0.9130 0.9150 0.9150 0.9160 0.9160
14.145487 0.9160 0.9180 0.9180 0.9200 0.9200
14.179000 0.9200 0.9200 0.9200 0.9200 0.9180
14.212487 0.9180 0.9160 0.9160 0.9160 0.9160
14.246000 0.9180 0.9180 0.9180 0.9200 0.9200
14.279487 0.9230 0.9250 0.9260 0.9260 0.9260
14.313000 0.9260 0.9250 0.9250 0.9230 0.9210
14.346487 0.9210 0.9200 0.9200 0.9180 0.9160
14.380000 0.9160 0.9160 0.9180 0.9200 0.9200
14.413487 0.9200 0.9200 0.9200 0.9200 0.9200
14.447000 0.9180 0.9160 0.9130 0.9110 0.9100
14.480487 0.9080 0.9080 0.9080 0.9080 0.9080
14.514000 0.9100 0.9100 0.9110 0.9130 0.9130
14.547487 0.9130 0.9130 0.9130 0.9130 0.9130
14.581000 0.9130 0.9130 0.9130 0.9130 0.9110
14.614487 0.9110 0.9100 0.9100 0.9010 0.8960
14.648000 0.8930 0.8910 0.8900 0.8880 0.8860
14.681487 0.8830 0.8810 0.8800 0.8760 0.8730
14.715000 0.8680 0.8610 0.8560 0.8480 0.8400
14.748487 0.8300 0.8200 0.8050 0.8010 0.7960
14.782000 0.7930 0.7880 0.7850 0.7830 0.7830
14.815487 0.7850 0.7860 0.7880 0.7900 0.7930
14.849000 0.7930 0.7930 0.7910 0.7910 0.7930
14.882487 0.7930 0.7960 0.8000 0.8030 0.8060
14.916000 0.8080 0.8100 0.8130 0.8150 0.8180
14.949487 0.8200 0.8230 0.8250 0.8250 0.8260
14.982000 0.8260 0.8260 0.8260 0.8230 0.8200
15.015487 0.8160 0.8150 0.8130 0.8130 0.8150
15.049000 0.8180 0.8200 0.8210 0.8260 0.8300
15.082487 0.8360 0.8450 0.8530 0.8630 0.8680
15.116000 0.8710 0.8710 0.8700 0.8700 0.8680
15.149487 0.8680 0.8680 0.8680 0.8680 0.8680
15.183000 0.8660 0.8630 0.8580 0.8530 0.8480
15.216487 0.8410 0.8350 0.8280 0.8130 0.7930
15.250000 0.7660 0.7280 0.6980 0.6750 0.6500
15.283487 0.6260 0.5760 0.5400 0.4950 0.4710
15.317000 0.4480 0.4110 0.3950 0.3660 0.3450
15.350487 0.3360 0.3260 0.3110 0.2960 0.2860
15.384000 0.2830 0.2850 0.2960 0.3050 0.3260
15.417487 0.3550 0.3780 0.4030 0.4260 0.4480
15.451000 0.4710 0.4960 0.5150 0.5330 0.5530
15.484487 0.5630 0.5910 0.6110 0.6310 0.6510
15.518000 0.6660 0.6950 0.7000 0.7150 0.7280
15.551487 0.7430 0.7510 0.7650 0.7710 0.7760
15.585000 0.7830 0.7930 0.7980 0.8000 0.8050
15.618487 0.8080 0.8160 0.8250 0.8310 0.8330
15.652000 0.8350 0.8360 0.8400 0.8450 0.8460
15.685487 0.8480 0.8500 0.8530 0.8560 0.8580
15.719000 0.8580 0.8580 0.8600 0.8630 0.8650
15.752487 0.8660 0.8680 0.8680 0.8680 0.8680
15.786000 0.8700 0.8710 0.8750 0.8780 0.8780
15.819487 0.8800 0.8800 0.8800 0.8800 0.8800
15.853000 0.8800 0.8800 0.8800 0.8800 0.8800
15.886487 0.8800 0.8780 0.8780 0.8780 0.8800
15.920000 0.8780 0.8780
##END=
