##TITLE=Phenethylamine, p-methoxy-, hydrochloride
##JCAMP-DX=4.24
##DATA TYPE=INFRARED SPECTRUM
##CLASS=COBLENTZ III
##ORIGIN=UNIVERSITY OF FLORIDA
##OWNER=Copyright (C) 1987 by the Coblentz Society
Collection (C) 2018 copyright by the U.S. Secretary of Commerce
on behalf of the United States of America. All rights reserved.
##DATE=1964/11/06
##NAMES=2-(4-methoxyphenyl)ethanamine hydrochloride
##MOLFORM=C9 H14 Cl N O
##SOURCE REFERENCE=COBLENTZ NO. 9952
##$NIST ID=B6009952
##$NIST SOURCE=COBLENTZ
##$NIST IMAGE=cob9952
##SPECTROMETER/DATA SYSTEM=BECKMAN IR-4 (HYBRID PRISM-GRATING)
##STATE=SOLID (KBr DISC)
$$ HCl RUN IN KBr MAY CONTAIN HBr
##SAMPLING PROCEDURE=TRANSMISSION
##RESOLUTION=2
##DATA PROCESSING=DIGITIZED BY COBLENTZ SOCIETY (BATCH II) FROM HARD COPY
##XUNITS=1/CM
##YUNITS=TRANSMITTANCE
##XFACTOR=1.0
##YFACTOR=1
##FIRSTX=667
##LASTX=4000
##FIRSTY=0.6668
##MAXX=4000
##MINX=667
##MAXY=0.6696
##MINY=0.0624
##NPOINTS=3334
##XYDATA=(X++(Y..Y))
667.000000 0.6668 0.6695 0.6694 0.6689 0.6648
672.000000 0.6633 0.6653 0.6672 0.6686 0.6696
677.000000 0.6695 0.6689 0.6688 0.6685 0.6670
682.000000 0.6652 0.6617 0.6588 0.6573 0.6559
687.000000 0.6563 0.6572 0.6556 0.6526 0.6492
692.000000 0.6460 0.6429 0.6403 0.6400 0.6402
697.000000 0.6385 0.6362 0.6351 0.6371 0.6383
702.000000 0.6395 0.6410 0.6428 0.6455 0.6475
707.000000 0.6495 0.6495 0.6505 0.6431 0.6309
712.000000 0.6148 0.6033 0.5950 0.6091 0.6321
717.000000 0.6450 0.6533 0.6587 0.6617 0.6627
722.000000 0.6606 0.6589 0.6574 0.6572 0.6569
727.000000 0.6546 0.6529 0.6521 0.6520 0.6512
732.000000 0.6505 0.6490 0.6470 0.6427 0.6377
737.000000 0.6318 0.6258 0.6188 0.6113 0.6049
742.000000 0.5997 0.5954 0.5890 0.5746 0.5522
747.000000 0.5274 0.4765 0.4125 0.3909 0.3703
752.000000 0.3529 0.3523 0.3926 0.4465 0.5002
757.000000 0.5515 0.5783 0.6015 0.6133 0.6200
762.000000 0.6223 0.6235 0.6245 0.6281 0.6242
767.000000 0.6153 0.6111 0.6071 0.6030 0.5981
772.000000 0.5910 0.5829 0.5719 0.5578 0.5387
777.000000 0.5168 0.4921 0.4563 0.4371 0.4344
782.000000 0.4320 0.4464 0.4811 0.5144 0.5411
787.000000 0.5569 0.5675 0.5738 0.5804 0.5868
792.000000 0.5873 0.5878 0.5835 0.5805 0.5773
797.000000 0.5737 0.5700 0.5649 0.5587 0.5501
802.000000 0.5399 0.5288 0.5171 0.5017 0.4809
807.000000 0.4491 0.4067 0.3203 0.2548 0.1856
812.000000 0.1450 0.1162 0.1002 0.0979 0.1043
817.000000 0.1299 0.1573 0.2139 0.2790 0.3439
822.000000 0.4087 0.4430 0.4470 0.4412 0.4403
827.000000 0.4487 0.4483 0.4213 0.3824 0.3436
832.000000 0.3049 0.2822 0.2776 0.2761 0.3171
837.000000 0.3671 0.4168 0.4452 0.4721 0.4958
842.000000 0.5114 0.5229 0.5303 0.5348 0.5395
847.000000 0.5462 0.5588 0.5732 0.5849 0.5977
852.000000 0.6110 0.6201 0.6267 0.6323 0.6361
857.000000 0.6394 0.6412 0.6427 0.6432 0.6434
862.000000 0.6434 0.6436 0.6434 0.6432 0.6429
867.000000 0.6427 0.6424 0.6418 0.6413 0.6407
872.000000 0.6401 0.6395 0.6388 0.6381 0.6373
877.000000 0.6366 0.6351 0.6333 0.6315 0.6298
882.000000 0.6277 0.6258 0.6238 0.6219 0.6200
887.000000 0.6181 0.6163 0.6148 0.6134 0.6137
892.000000 0.6154 0.6148 0.6139 0.6129 0.6118
897.000000 0.6108 0.6096 0.6086 0.6073 0.6049
902.000000 0.6013 0.5984 0.5961 0.5938 0.5919
907.000000 0.5904 0.5887 0.5869 0.5849 0.5829
912.000000 0.5809 0.5788 0.5773 0.5770 0.5768
917.000000 0.5749 0.5697 0.5641 0.5569 0.5492
922.000000 0.5418 0.5332 0.5225 0.5128 0.5020
927.000000 0.4914 0.4893 0.4919 0.5041 0.5202
932.000000 0.5329 0.5355 0.5352 0.5267 0.5077
937.000000 0.4873 0.4522 0.4033 0.3546 0.3061
942.000000 0.2793 0.2752 0.2888 0.3223 0.3556
947.000000 0.3889 0.4170 0.4337 0.4484 0.4619
952.000000 0.4739 0.4860 0.5044 0.5182 0.5282
957.000000 0.5312 0.5319 0.5090 0.5056 0.5138
962.000000 0.5492 0.5717 0.5852 0.5971 0.6050
967.000000 0.6106 0.6123 0.6135 0.6122 0.6096
972.000000 0.6073 0.6053 0.6036 0.6029 0.6021
977.000000 0.6014 0.6005 0.5994 0.5973 0.5939
982.000000 0.5905 0.5866 0.5828 0.5783 0.5735
987.000000 0.5679 0.5616 0.5553 0.5507 0.5488
992.000000 0.5497 0.5504 0.5510 0.5512 0.5512
997.000000 0.5501 0.5487 0.5467 0.5435 0.5400
1002.000000 0.5361 0.5310 0.5249 0.5177 0.5102
1007.000000 0.5008 0.4913 0.4801 0.4683 0.4571
1012.000000 0.4479 0.4382 0.4268 0.4152 0.4022
1017.000000 0.3901 0.3796 0.3659 0.3510 0.3161
1022.000000 0.2769 0.2478 0.2190 0.1900 0.1561
1027.000000 0.1232 0.0990 0.0801 0.0740 0.0721
1032.000000 0.0956 0.1512 0.2081 0.2650 0.3217
1037.000000 0.3783 0.4254 0.4553 0.4810 0.5001
1042.000000 0.5114 0.5296 0.5597 0.5653 0.5689
1047.000000 0.5712 0.5730 0.5744 0.5771 0.5804
1052.000000 0.5844 0.5887 0.5937 0.5973 0.5996
1057.000000 0.6009 0.6019 0.6029 0.6038 0.6045
1062.000000 0.6052 0.6059 0.6063 0.6067 0.6078
1067.000000 0.6065 0.6058 0.6043 0.6017 0.5990
1072.000000 0.5962 0.5933 0.5905 0.5876 0.5847
1077.000000 0.5813 0.5785 0.5788 0.5793 0.5808
1082.000000 0.5832 0.5863 0.5885 0.5904 0.5920
1087.000000 0.5926 0.5928 0.5929 0.5926 0.5930
1092.000000 0.5908 0.5897 0.5886 0.5873 0.5852
1097.000000 0.5825 0.5789 0.5751 0.5706 0.5663
1102.000000 0.5623 0.5584 0.5544 0.5499 0.5455
1107.000000 0.5407 0.5351 0.5297 0.5214 0.5122
1112.000000 0.4999 0.4644 0.4291 0.3971 0.3651
1117.000000 0.3375 0.3337 0.3503 0.3799 0.4088
1122.000000 0.4376 0.4619 0.4784 0.4920 0.5078
1127.000000 0.5262 0.5357 0.5416 0.5449 0.5455
1132.000000 0.5452 0.5421 0.5348 0.5251 0.5096
1137.000000 0.4842 0.4617 0.4393 0.4168 0.3945
1142.000000 0.3721 0.3498 0.3291 0.3218 0.3207
1147.000000 0.3208 0.3438 0.3617 0.3797 0.3949
1152.000000 0.4089 0.4219 0.4348 0.4479 0.4608
1157.000000 0.4737 0.4866 0.4986 0.5099 0.5193
1162.000000 0.5261 0.5318 0.5364 0.5379 0.5407
1167.000000 0.5365 0.5348 0.5317 0.5270 0.5200
1172.000000 0.5102 0.4982 0.4840 0.4598 0.4098
1177.000000 0.3567 0.3036 0.2506 0.2171 0.2162
1182.000000 0.2222 0.2479 0.2533 0.2559 0.2600
1187.000000 0.2658 0.2781 0.3079 0.3368 0.3659
1192.000000 0.3948 0.4238 0.4527 0.4815 0.5103
1197.000000 0.5285 0.5433 0.5504 0.5546 0.5569
1202.000000 0.5581 0.5583 0.5578 0.5567 0.5556
1207.000000 0.5532 0.5497 0.5470 0.5440 0.5409
1212.000000 0.5380 0.5350 0.5297 0.5240 0.5181
1217.000000 0.5122 0.5058 0.4993 0.4923 0.4846
1222.000000 0.4771 0.4702 0.4635 0.4568 0.4499
1227.000000 0.4410 0.4319 0.4197 0.3971 0.3698
1232.000000 0.3504 0.3309 0.3115 0.2921 0.2735
1237.000000 0.2534 0.2401 0.2126 0.1559 0.1401
1242.000000 0.1284 0.1165 0.1043 0.0914 0.0780
1247.000000 0.0702 0.0677 0.0669 0.0682 0.0791
1252.000000 0.1071 0.1360 0.1648 0.1936 0.2223
1257.000000 0.2510 0.2797 0.3082 0.3368 0.3653
1262.000000 0.3938 0.4137 0.4172 0.4197 0.4108
1267.000000 0.3837 0.3566 0.3296 0.3167 0.3164
1272.000000 0.3265 0.3429 0.3593 0.3756 0.3919
1277.000000 0.4082 0.4244 0.4391 0.4473 0.4551
1282.000000 0.4635 0.4745 0.4850 0.4934 0.5018
1287.000000 0.5099 0.5175 0.5257 0.5388 0.5498
1292.000000 0.5571 0.5618 0.5649 0.5654 0.5672
1297.000000 0.5639 0.5600 0.5512 0.5239 0.4914
1302.000000 0.4591 0.4270 0.3948 0.3628 0.3330
1307.000000 0.3286 0.3260 0.3515 0.3714 0.3911
1312.000000 0.4108 0.4306 0.4503 0.4699 0.4879
1317.000000 0.4934 0.4962 0.4723 0.4492 0.4262
1322.000000 0.4106 0.4084 0.4325 0.4481 0.4638
1327.000000 0.4794 0.4951 0.5096 0.5179 0.5240
1332.000000 0.5279 0.5324 0.5391 0.5494 0.5564
1337.000000 0.5673 0.5719 0.5756 0.5788 0.5810
1342.000000 0.5826 0.5841 0.5856 0.5865 0.5874
1347.000000 0.5884 0.5891 0.5895 0.5900 0.5904
1352.000000 0.5908 0.5912 0.5915 0.5917 0.5921
1357.000000 0.5924 0.5928 0.5931 0.5939 0.5948
1362.000000 0.5955 0.5959 0.5963 0.5965 0.5968
1367.000000 0.5977 0.5968 0.5966 0.5964 0.5960
1372.000000 0.5955 0.5950 0.5943 0.5936 0.5929
1377.000000 0.5916 0.5892 0.5867 0.5837 0.5800
1382.000000 0.5764 0.5725 0.5678 0.5630 0.5586
1387.000000 0.5547 0.5509 0.5469 0.5417 0.5364
1392.000000 0.5275 0.5211 0.5172 0.5148 0.5133
1397.000000 0.5126 0.5107 0.5174 0.5241 0.5288
1402.000000 0.5332 0.5375 0.5418 0.5460 0.5503
1407.000000 0.5534 0.5550 0.5563 0.5570 0.5575
1412.000000 0.5580 0.5585 0.5590 0.5607 0.5589
1417.000000 0.5583 0.5575 0.5565 0.5550 0.5534
1422.000000 0.5513 0.5490 0.5467 0.5442 0.5416
1427.000000 0.5390 0.5358 0.5325 0.5293 0.5261
1432.000000 0.5228 0.5195 0.5163 0.5129 0.5096
1437.000000 0.5062 0.5016 0.4964 0.4902 0.4832
1442.000000 0.4752 0.4643 0.4532 0.4439 0.4349
1447.000000 0.4253 0.4150 0.3856 0.3602 0.3558
1452.000000 0.3532 0.3506 0.3480 0.3454 0.3427
1457.000000 0.3400 0.3372 0.3345 0.3314 0.3281
1462.000000 0.3243 0.3188 0.3132 0.3075 0.3016
1467.000000 0.2956 0.2895 0.2810 0.2715 0.2618
1472.000000 0.2476 0.2100 0.1839 0.1804 0.1798
1477.000000 0.1799 0.1799 0.1799 0.1799 0.1800
1482.000000 0.1800 0.1778 0.1812 0.1828 0.1871
1487.000000 0.1932 0.2028 0.2386 0.2505 0.2624
1492.000000 0.2744 0.2864 0.2982 0.3101 0.3220
1497.000000 0.3339 0.3457 0.3571 0.3650 0.3689
1502.000000 0.3723 0.3744 0.3761 0.3771 0.3771
1507.000000 0.3769 0.3770 0.3757 0.3746 0.3728
1512.000000 0.3710 0.3669 0.3551 0.3405 0.3259
1517.000000 0.3114 0.2969 0.2823 0.2694 0.2628
1522.000000 0.2597 0.2584 0.2583 0.2586 0.2595
1527.000000 0.2571 0.2620 0.2639 0.2783 0.2896
1532.000000 0.3009 0.3122 0.3234 0.3346 0.3458
1537.000000 0.3571 0.3682 0.3794 0.3906 0.4013
1542.000000 0.4083 0.4156 0.4192 0.4216 0.4235
1547.000000 0.4254 0.4273 0.4307 0.4350 0.4434
1552.000000 0.4544 0.4770 0.5045 0.5152 0.5234
1557.000000 0.5294 0.5331 0.5359 0.5383 0.5401
1562.000000 0.5419 0.5436 0.5454 0.5470 0.5487
1567.000000 0.5502 0.5518 0.5535 0.5553 0.5572
1572.000000 0.5583 0.5582 0.5579 0.5571 0.5577
1577.000000 0.5551 0.5536 0.5514 0.5486 0.5421
1582.000000 0.5314 0.5197 0.5078 0.4960 0.4842
1587.000000 0.4749 0.4688 0.4631 0.4581 0.4556
1592.000000 0.4546 0.4539 0.4525 0.4508 0.4436
1597.000000 0.4288 0.4113 0.3938 0.3764 0.3590
1602.000000 0.3423 0.3295 0.3198 0.3036 0.2858
1607.000000 0.2823 0.2791 0.2767 0.2744 0.2721
1612.000000 0.2700 0.2692 0.2684 0.2688 0.2691
1617.000000 0.2716 0.2697 0.3024 0.3201 0.3379
1622.000000 0.3556 0.3733 0.3909 0.4086 0.4263
1627.000000 0.4438 0.4614 0.4790 0.4965 0.5120
1632.000000 0.5192 0.5232 0.5270 0.5307 0.5345
1637.000000 0.5386 0.5429 0.5471 0.5512 0.5552
1642.000000 0.5589 0.5624 0.5659 0.5693 0.5725
1647.000000 0.5758 0.5790 0.5809 0.5828 0.5848
1652.000000 0.5867 0.5884 0.5897 0.5909 0.5922
1657.000000 0.5933 0.5941 0.5948 0.5955 0.5963
1662.000000 0.5970 0.5977 0.5984 0.5990 0.5996
1667.000000 0.6003 0.6009 0.6015 0.6021 0.6028
1672.000000 0.6033 0.6039 0.6045 0.6052 0.6058
1677.000000 0.6063 0.6069 0.6076 0.6082 0.6087
1682.000000 0.6091 0.6092 0.6093 0.6095 0.6096
1687.000000 0.6097 0.6097 0.6098 0.6099 0.6100
1692.000000 0.6101 0.6103 0.6105 0.6108 0.6109
1697.000000 0.6112 0.6115 0.6118 0.6123 0.6127
1702.000000 0.6131 0.6136 0.6140 0.6144 0.6148
1707.000000 0.6152 0.6156 0.6160 0.6164 0.6166
1712.000000 0.6169 0.6171 0.6174 0.6176 0.6178
1717.000000 0.6180 0.6183 0.6185 0.6188 0.6191
1722.000000 0.6193 0.6196 0.6198 0.6201 0.6205
1727.000000 0.6210 0.6216 0.6222 0.6228 0.6234
1732.000000 0.6240 0.6245 0.6251 0.6257 0.6257
1737.000000 0.6259 0.6260 0.6261 0.6260 0.6260
1742.000000 0.6260 0.6259 0.6259 0.6259 0.6258
1747.000000 0.6258 0.6258 0.6257 0.6257 0.6257
1752.000000 0.6256 0.6256 0.6256 0.6255 0.6255
1757.000000 0.6255 0.6255 0.6254 0.6254 0.6253
1762.000000 0.6253 0.6253 0.6252 0.6250 0.6249
1767.000000 0.6248 0.6247 0.6246 0.6244 0.6243
1772.000000 0.6241 0.6241 0.6239 0.6236 0.6233
1777.000000 0.6229 0.6226 0.6223 0.6219 0.6215
1782.000000 0.6212 0.6208 0.6205 0.6203 0.6203
1787.000000 0.6203 0.6203 0.6203 0.6204 0.6202
1792.000000 0.6202 0.6202 0.6203 0.6205 0.6208
1797.000000 0.6210 0.6212 0.6215 0.6217 0.6219
1802.000000 0.6221 0.6222 0.6224 0.6224 0.6225
1807.000000 0.6226 0.6227 0.6228 0.6228 0.6227
1812.000000 0.6224 0.6221 0.6219 0.6216 0.6213
1817.000000 0.6211 0.6209 0.6209 0.6209 0.6210
1822.000000 0.6210 0.6210 0.6210 0.6210 0.6210
1827.000000 0.6210 0.6211 0.6211 0.6211 0.6211
1832.000000 0.6212 0.6215 0.6218 0.6221 0.6224
1837.000000 0.6227 0.6230 0.6233 0.6235 0.6238
1842.000000 0.6241 0.6242 0.6241 0.6239 0.6236
1847.000000 0.6233 0.6230 0.6227 0.6220 0.6212
1852.000000 0.6203 0.6194 0.6185 0.6176 0.6166
1857.000000 0.6155 0.6144 0.6131 0.6120 0.6108
1862.000000 0.6097 0.6088 0.6082 0.6076 0.6071
1867.000000 0.6065 0.6060 0.6054 0.6049 0.6043
1872.000000 0.6037 0.6032 0.6026 0.6020 0.6012
1877.000000 0.6004 0.5996 0.5988 0.5980 0.5972
1882.000000 0.5965 0.5957 0.5949 0.5941 0.5932
1887.000000 0.5923 0.5913 0.5904 0.5895 0.5885
1892.000000 0.5876 0.5867 0.5816 0.5852 0.5846
1897.000000 0.5841 0.5845 0.5848 0.5851 0.5854
1902.000000 0.5857 0.5861 0.5864 0.5868 0.5872
1907.000000 0.5876 0.5879 0.5883 0.5887 0.5891
1912.000000 0.5896 0.5900 0.5905 0.5910 0.5915
1917.000000 0.5920 0.5924 0.5929 0.5935 0.5940
1922.000000 0.5945 0.5950 0.5954 0.5958 0.5960
1927.000000 0.5963 0.5966 0.5968 0.5968 0.5995
1932.000000 0.5964 0.5962 0.5961 0.5959 0.5958
1937.000000 0.5957 0.5955 0.5953 0.5952 0.5950
1942.000000 0.5949 0.5948 0.5947 0.5944 0.5941
1947.000000 0.5939 0.5937 0.5934 0.5932 0.5929
1952.000000 0.5926 0.5924 0.5921 0.5918 0.5915
1957.000000 0.5912 0.5910 0.5906 0.5899 0.5891
1962.000000 0.5881 0.5873 0.5865 0.5865 0.5864
1967.000000 0.5862 0.5862 0.5861 0.5861 0.5861
1972.000000 0.5861 0.5861 0.5861 0.5862 0.5862
1977.000000 0.5861 0.5859 0.5856 0.5853 0.5849
1982.000000 0.5846 0.5843 0.5840 0.5837 0.5833
1987.000000 0.5827 0.5820 0.5811 0.5803 0.5795
1992.000000 0.5787 0.5779 0.5770 0.5760 0.5749
1997.000000 0.5737 0.5725 0.5714 0.5703 0.5691
2002.000000 0.5678 0.5662 0.5646 0.5630 0.5614
2007.000000 0.5600 0.5586 0.5573 0.5560 0.5547
2012.000000 0.5534 0.5522 0.5510 0.5497 0.5485
2017.000000 0.5473 0.5461 0.5449 0.5437 0.5425
2022.000000 0.5412 0.5399 0.5384 0.5369 0.5353
2027.000000 0.5338 0.5322 0.5307 0.5291 0.5275
2032.000000 0.5259 0.5241 0.5222 0.5203 0.5183
2037.000000 0.5165 0.5146 0.5126 0.5107 0.5087
2042.000000 0.5064 0.5041 0.5018 0.4995 0.4973
2047.000000 0.4950 0.4927 0.4904 0.4878 0.4851
2052.000000 0.4824 0.4798 0.4772 0.4744 0.4716
2057.000000 0.4687 0.4662 0.4645 0.4628 0.4612
2062.000000 0.4609 0.4606 0.4606 0.4606 0.4606
2067.000000 0.4599 0.4612 0.4616 0.4620 0.4626
2072.000000 0.4634 0.4644 0.4653 0.4666 0.4685
2077.000000 0.4706 0.4728 0.4748 0.4769 0.4790
2082.000000 0.4811 0.4832 0.4852 0.4873 0.4900
2087.000000 0.4928 0.4956 0.4983 0.5010 0.5033
2092.000000 0.5054 0.5076 0.5098 0.5119 0.5140
2097.000000 0.5162 0.5182 0.5201 0.5220 0.5240
2102.000000 0.5259 0.5278 0.5297 0.5316 0.5335
2107.000000 0.5353 0.5372 0.5390 0.5407 0.5424
2112.000000 0.5440 0.5455 0.5464 0.5472 0.5480
2117.000000 0.5488 0.5495 0.5502 0.5510 0.5517
2122.000000 0.5524 0.5530 0.5536 0.5542 0.5547
2127.000000 0.5553 0.5559 0.5565 0.5570 0.5573
2132.000000 0.5577 0.5580 0.5583 0.5587 0.5590
2137.000000 0.5593 0.5597 0.5600 0.5603 0.5607
2142.000000 0.5611 0.5613 0.5615 0.5617 0.5620
2147.000000 0.5622 0.5625 0.5627 0.5630 0.5632
2152.000000 0.5635 0.5637 0.5639 0.5642 0.5644
2157.000000 0.5646 0.5649 0.5652 0.5654 0.5656
2162.000000 0.5658 0.5660 0.5662 0.5665 0.5667
2167.000000 0.5669 0.5671 0.5673 0.5675 0.5677
2172.000000 0.5679 0.5682 0.5685 0.5687 0.5689
2177.000000 0.5691 0.5693 0.5695 0.5697 0.5699
2182.000000 0.5702 0.5704 0.5706 0.5709 0.5711
2187.000000 0.5713 0.5715 0.5717 0.5719 0.5721
2192.000000 0.5724 0.5727 0.5729 0.5731 0.5733
2197.000000 0.5735 0.5735 0.5734 0.5733 0.5732
2202.000000 0.5732 0.5731 0.5730 0.5740 0.5728
2207.000000 0.5727 0.5726 0.5724 0.5722 0.5720
2212.000000 0.5717 0.5715 0.5712 0.5710 0.5707
2217.000000 0.5705 0.5702 0.5700 0.5699 0.5698
2222.000000 0.5697 0.5696 0.5695 0.5693 0.5692
2227.000000 0.5691 0.5690 0.5689 0.5688 0.5686
2232.000000 0.5685 0.5682 0.5680 0.5678 0.5676
2237.000000 0.5674 0.5672 0.5668 0.5665 0.5657
2242.000000 0.5649 0.5640 0.5631 0.5623 0.5615
2247.000000 0.5607 0.5599 0.5591 0.5583 0.5576
2252.000000 0.5568 0.5562 0.5557 0.5552 0.5546
2257.000000 0.5541 0.5535 0.5531 0.5527 0.5524
2262.000000 0.5522 0.5519 0.5516 0.5513 0.5511
2267.000000 0.5508 0.5505 0.5503 0.5500 0.5498
2272.000000 0.5495 0.5493 0.5490 0.5487 0.5485
2277.000000 0.5483 0.5484 0.5486 0.5487 0.5488
2282.000000 0.5490 0.5491 0.5493 0.5494 0.5496
2287.000000 0.5497 0.5498 0.5498 0.5499 0.5500
2292.000000 0.5501 0.5502 0.5503 0.5504 0.5505
2297.000000 0.5506 0.5506 0.5505 0.5503 0.5500
2302.000000 0.5498 0.5495 0.5493 0.5491 0.5489
2307.000000 0.5487 0.5485 0.5483 0.5482 0.5481
2312.000000 0.5483 0.5484 0.5485 0.5487 0.5489
2317.000000 0.5491 0.5492 0.5493 0.5495 0.5496
2322.000000 0.5497 0.5498 0.5499 0.5501 0.5502
2327.000000 0.5503 0.5504 0.5505 0.5506 0.5506
2332.000000 0.5506 0.5505 0.5504 0.5502 0.5501
2337.000000 0.5500 0.5499 0.5498 0.5497 0.5496
2342.000000 0.5495 0.5494 0.5493 0.5492 0.5490
2347.000000 0.5488 0.5485 0.5482 0.5478 0.5474
2352.000000 0.5470 0.5466 0.5462 0.5457 0.5452
2357.000000 0.5447 0.5442 0.5437 0.5432 0.5427
2362.000000 0.5422 0.5417 0.5412 0.5407 0.5403
2367.000000 0.5398 0.5393 0.5388 0.5382 0.5373
2372.000000 0.5364 0.5354 0.5345 0.5336 0.5327
2377.000000 0.5318 0.5310 0.5301 0.5291 0.5282
2382.000000 0.5272 0.5262 0.5251 0.5241 0.5230
2387.000000 0.5218 0.5205 0.5183 0.5161 0.5136
2392.000000 0.5112 0.5086 0.5060 0.5034 0.5008
2397.000000 0.4983 0.4957 0.4931 0.4906 0.4879
2402.000000 0.4854 0.4828 0.4803 0.4777 0.4752
2407.000000 0.4726 0.4701 0.4675 0.4649 0.4624
2412.000000 0.4601 0.4578 0.4558 0.4538 0.4517
2417.000000 0.4497 0.4478 0.4466 0.4454 0.4448
2422.000000 0.4443 0.4439 0.4437 0.4436 0.4437
2427.000000 0.4439 0.4432 0.4444 0.4449 0.4457
2432.000000 0.4464 0.4473 0.4482 0.4493 0.4504
2437.000000 0.4518 0.4537 0.4555 0.4580 0.4604
2442.000000 0.4631 0.4659 0.4685 0.4704 0.4723
2447.000000 0.4738 0.4752 0.4765 0.4775 0.4785
2452.000000 0.4791 0.4797 0.4803 0.4808 0.4814
2457.000000 0.4818 0.4823 0.4828 0.4833 0.4838
2462.000000 0.4843 0.4848 0.4852 0.4857 0.4872
2467.000000 0.4859 0.4860 0.4860 0.4860 0.4857
2472.000000 0.4853 0.4849 0.4844 0.4839 0.4834
2477.000000 0.4828 0.4823 0.4816 0.4810 0.4802
2482.000000 0.4794 0.4785 0.4777 0.4769 0.4763
2487.000000 0.4758 0.4753 0.4748 0.4744 0.4740
2492.000000 0.4736 0.4732 0.4729 0.4727 0.4725
2497.000000 0.4724 0.4723 0.4721 0.4720 0.4718
2502.000000 0.4717 0.4716 0.4715 0.4714 0.4711
2507.000000 0.4709 0.4706 0.4703 0.4701 0.4697
2512.000000 0.4694 0.4690 0.4686 0.4681 0.4673
2517.000000 0.4665 0.4658 0.4650 0.4642 0.4634
2522.000000 0.4627 0.4618 0.4606 0.4594 0.4581
2527.000000 0.4568 0.4554 0.4541 0.4527 0.4509
2532.000000 0.4488 0.4467 0.4446 0.4424 0.4400
2537.000000 0.4373 0.4346 0.4328 0.4309 0.4293
2542.000000 0.4282 0.4270 0.4259 0.4247 0.4236
2547.000000 0.4224 0.4213 0.4202 0.4190 0.4179
2552.000000 0.4168 0.4156 0.4145 0.4135 0.4124
2557.000000 0.4121 0.4119 0.4118 0.4117 0.4116
2562.000000 0.4116 0.4117 0.4117 0.4118 0.4119
2567.000000 0.4121 0.4125 0.4130 0.4136 0.4142
2572.000000 0.4148 0.4154 0.4160 0.4165 0.4170
2577.000000 0.4175 0.4179 0.4182 0.4185 0.4186
2582.000000 0.4188 0.4190 0.4191 0.4191 0.4192
2587.000000 0.4192 0.4192 0.4191 0.4189 0.4186
2592.000000 0.4183 0.4179 0.4172 0.4163 0.4154
2597.000000 0.4142 0.4129 0.4117 0.4106 0.4095
2602.000000 0.4086 0.4077 0.4068 0.4059 0.4051
2607.000000 0.4043 0.4035 0.4028 0.4021 0.4015
2612.000000 0.4009 0.4006 0.4006 0.4006 0.4006
2617.000000 0.4007 0.4008 0.4008 0.4009 0.4010
2622.000000 0.4013 0.4015 0.4017 0.4020 0.4022
2627.000000 0.4025 0.4027 0.4030 0.4033 0.4035
2632.000000 0.4038 0.4041 0.4044 0.4047 0.4050
2637.000000 0.4053 0.4056 0.4060 0.4063 0.4065
2642.000000 0.4067 0.4069 0.4071 0.4073 0.4074
2647.000000 0.4076 0.4078 0.4080 0.4082 0.4084
2652.000000 0.4085 0.4085 0.4086 0.4086 0.4086
2657.000000 0.4086 0.4086 0.4086 0.4085 0.4083
2662.000000 0.4081 0.4078 0.4076 0.4074 0.4072
2667.000000 0.4069 0.4067 0.4063 0.4059 0.4055
2672.000000 0.4048 0.4042 0.4035 0.4028 0.4021
2677.000000 0.4014 0.4007 0.3999 0.3992 0.3985
2682.000000 0.3977 0.3970 0.3963 0.3956 0.3948
2687.000000 0.3940 0.3933 0.3924 0.3916 0.3907
2692.000000 0.3898 0.3890 0.3881 0.3873 0.3864
2697.000000 0.3855 0.3847 0.3838 0.3829 0.3819
2702.000000 0.3809 0.3800 0.3790 0.3780 0.3765
2707.000000 0.3742 0.3719 0.3699 0.3681 0.3663
2712.000000 0.3645 0.3627 0.3609 0.3586 0.3559
2717.000000 0.3532 0.3503 0.3474 0.3444 0.3415
2722.000000 0.3387 0.3359 0.3337 0.3318 0.3299
2727.000000 0.3280 0.3261 0.3242 0.3223 0.3204
2732.000000 0.3185 0.3166 0.3147 0.3128 0.3112
2737.000000 0.3096 0.3081 0.3066 0.3050 0.3035
2742.000000 0.3020 0.3004 0.2989 0.2972 0.2955
2747.000000 0.2938 0.2916 0.2893 0.2870 0.2854
2752.000000 0.2841 0.2828 0.2818 0.2809 0.2800
2757.000000 0.2793 0.2787 0.2782 0.2778 0.2775
2762.000000 0.2772 0.2769 0.2766 0.2764 0.2761
2767.000000 0.2759 0.2757 0.2755 0.2754 0.2752
2772.000000 0.2751 0.2750 0.2749 0.2748 0.2747
2777.000000 0.2746 0.2744 0.2743 0.2742 0.2740
2782.000000 0.2739 0.2738 0.2737 0.2736 0.2734
2787.000000 0.2733 0.2726 0.2718 0.2711 0.2703
2792.000000 0.2696 0.2689 0.2680 0.2671 0.2661
2797.000000 0.2652 0.2642 0.2633 0.2622 0.2611
2802.000000 0.2599 0.2588 0.2575 0.2563 0.2550
2807.000000 0.2538 0.2526 0.2513 0.2512 0.2510
2812.000000 0.2509 0.2507 0.2506 0.2504 0.2503
2817.000000 0.2502 0.2502 0.2502 0.2502 0.2503
2822.000000 0.2504 0.2506 0.2507 0.2509 0.2510
2827.000000 0.2511 0.2512 0.2513 0.2514 0.2515
2832.000000 0.2516 0.2517 0.2517 0.2516 0.2514
2837.000000 0.2512 0.2508 0.2502 0.2495 0.2489
2842.000000 0.2481 0.2473 0.2466 0.2457 0.2449
2847.000000 0.2441 0.2423 0.2399 0.2375 0.2352
2852.000000 0.2329 0.2307 0.2284 0.2263 0.2242
2857.000000 0.2221 0.2202 0.2183 0.2163 0.2145
2862.000000 0.2127 0.2110 0.2093 0.2078 0.2062
2867.000000 0.2047 0.2032 0.2017 0.2002 0.1986
2872.000000 0.1971 0.1955 0.1940 0.1924 0.1908
2877.000000 0.1892 0.1876 0.1860 0.1844 0.1827
2882.000000 0.1812 0.1796 0.1780 0.1764 0.1749
2887.000000 0.1733 0.1719 0.1706 0.1692 0.1678
2892.000000 0.1664 0.1651 0.1637 0.1623 0.1609
2897.000000 0.1596 0.1582 0.1568 0.1555 0.1543
2902.000000 0.1532 0.1521 0.1511 0.1501 0.1492
2907.000000 0.1482 0.1473 0.1463 0.1454 0.1444
2912.000000 0.1435 0.1426 0.1416 0.1407 0.1397
2917.000000 0.1388 0.1379 0.1369 0.1360 0.1351
2922.000000 0.1341 0.1332 0.1323 0.1315 0.1306
2927.000000 0.1297 0.1288 0.1280 0.1271 0.1262
2932.000000 0.1253 0.1245 0.1236 0.1227 0.1218
2937.000000 0.1209 0.1200 0.1191 0.1183 0.1174
2942.000000 0.1165 0.1156 0.1147 0.1138 0.1129
2947.000000 0.1119 0.1110 0.1100 0.1091 0.1082
2952.000000 0.1073 0.1063 0.1054 0.1044 0.1035
2957.000000 0.1026 0.1017 0.1008 0.0998 0.0989
2962.000000 0.0979 0.0970 0.0960 0.0950 0.0941
2967.000000 0.0931 0.0921 0.0911 0.0901 0.0891
2972.000000 0.0882 0.0872 0.0863 0.0853 0.0843
2977.000000 0.0836 0.0828 0.0821 0.0814 0.0807
2982.000000 0.0800 0.0793 0.0786 0.0779 0.0772
2987.000000 0.0764 0.0757 0.0750 0.0743 0.0736
2992.000000 0.0729 0.0722 0.0715 0.0710 0.0706
2997.000000 0.0702 0.0698 0.0694 0.0690 0.0685
3002.000000 0.0681 0.0677 0.0673 0.0669 0.0665
3007.000000 0.0660 0.0656 0.0653 0.0650 0.0647
3012.000000 0.0644 0.0641 0.0639 0.0637 0.0635
3017.000000 0.0633 0.0631 0.0629 0.0628 0.0626
3022.000000 0.0625 0.0624 0.0625 0.0626 0.0627
3027.000000 0.0628 0.0629 0.0631 0.0632 0.0633
3032.000000 0.0634 0.0635 0.0630 0.0638 0.0640
3037.000000 0.0641 0.0643 0.0645 0.0648 0.0650
3042.000000 0.0652 0.0654 0.0657 0.0659 0.0662
3047.000000 0.0665 0.0667 0.0670 0.0672 0.0675
3052.000000 0.0677 0.0680 0.0682 0.0684 0.0686
3057.000000 0.0688 0.0690 0.0692 0.0694 0.0696
3062.000000 0.0698 0.0701 0.0704 0.0707 0.0711
3067.000000 0.0715 0.0718 0.0722 0.0726 0.0730
3072.000000 0.0733 0.0737 0.0741 0.0744 0.0752
3077.000000 0.0760 0.0768 0.0776 0.0785 0.0793
3082.000000 0.0802 0.0811 0.0820 0.0829 0.0838
3087.000000 0.0847 0.0856 0.0866 0.0875 0.0885
3092.000000 0.0894 0.0903 0.0912 0.0927 0.0943
3097.000000 0.0959 0.0975 0.0995 0.1016 0.1036
3102.000000 0.1059 0.1090 0.1120 0.1150 0.1191
3107.000000 0.1249 0.1307 0.1364 0.1417 0.1464
3112.000000 0.1512 0.1560 0.1591 0.1614 0.1637
3117.000000 0.1660 0.1693 0.1729 0.1764 0.1800
3122.000000 0.1836 0.1871 0.1907 0.1943 0.1978
3127.000000 0.2014 0.2049 0.2085 0.2120 0.2156
3132.000000 0.2191 0.2226 0.2262 0.2297 0.2333
3137.000000 0.2368 0.2403 0.2438 0.2474 0.2509
3142.000000 0.2544 0.2579 0.2614 0.2650 0.2685
3147.000000 0.2720 0.2755 0.2790 0.2825 0.2860
3152.000000 0.2895 0.2930 0.2965 0.3000 0.3035
3157.000000 0.3070 0.3104 0.3139 0.3174 0.3199
3162.000000 0.3211 0.3223 0.3235 0.3247 0.3258
3167.000000 0.3270 0.3282 0.3296 0.3312 0.3329
3172.000000 0.3346 0.3364 0.3384 0.3403 0.3423
3177.000000 0.3443 0.3464 0.3484 0.3504 0.3525
3182.000000 0.3546 0.3568 0.3589 0.3610 0.3629
3187.000000 0.3648 0.3668 0.3687 0.3704 0.3722
3192.000000 0.3740 0.3759 0.3782 0.3805 0.3828
3197.000000 0.3852 0.3893 0.3934 0.3975 0.4016
3202.000000 0.4029 0.4042 0.4054 0.4067 0.4079
3207.000000 0.4092 0.4104 0.4116 0.4129 0.4142
3212.000000 0.4154 0.4167 0.4178 0.4188 0.4199
3217.000000 0.4209 0.4220 0.4230 0.4240 0.4250
3222.000000 0.4260 0.4270 0.4280 0.4290 0.4300
3227.000000 0.4310 0.4319 0.4328 0.4338 0.4346
3232.000000 0.4354 0.4362 0.4370 0.4379 0.4387
3237.000000 0.4395 0.4404 0.4412 0.4420 0.4428
3242.000000 0.4436 0.4444 0.4452 0.4459 0.4467
3247.000000 0.4474 0.4480 0.4486 0.4492 0.4499
3252.000000 0.4505 0.4511 0.4518 0.4524 0.4530
3257.000000 0.4536 0.4543 0.4549 0.4555 0.4561
3262.000000 0.4567 0.4573 0.4580 0.4591 0.4601
3267.000000 0.4611 0.4621 0.4633 0.4646 0.4658
3272.000000 0.4670 0.4684 0.4698 0.4713 0.4727
3277.000000 0.4742 0.4757 0.4772 0.4788 0.4803
3282.000000 0.4819 0.4835 0.4851 0.4867 0.4884
3287.000000 0.4901 0.4918 0.4935 0.4952 0.4969
3292.000000 0.4985 0.5001 0.5017 0.5033 0.5048
3297.000000 0.5063 0.5078 0.5093 0.5108 0.5124
3302.000000 0.5139 0.5153 0.5168 0.5182 0.5196
3307.000000 0.5210 0.5224 0.5238 0.5252 0.5266
3312.000000 0.5276 0.5284 0.5292 0.5300 0.5308
3317.000000 0.5317 0.5325 0.5333 0.5341 0.5348
3322.000000 0.5355 0.5362 0.5369 0.5374 0.5377
3327.000000 0.5380 0.5383 0.5386 0.5389 0.5392
3332.000000 0.5395 0.5398 0.5400 0.5403 0.5406
3337.000000 0.5408 0.5411 0.5413 0.5414 0.5416
3342.000000 0.5418 0.5420 0.5421 0.5422 0.5424
3347.000000 0.5425 0.5426 0.5427 0.5427 0.5428
3352.000000 0.5429 0.5430 0.5431 0.5432 0.5433
3357.000000 0.5434 0.5435 0.5435 0.5436 0.5437
3362.000000 0.5437 0.5437 0.5437 0.5436 0.5436
3367.000000 0.5436 0.5436 0.5436 0.5435 0.5435
3372.000000 0.5435 0.5435 0.5434 0.5434 0.5434
3377.000000 0.5434 0.5434 0.5433 0.5433 0.5433
3382.000000 0.5433 0.5433 0.5433 0.5434 0.5434
3387.000000 0.5435 0.5436 0.5436 0.5437 0.5438
3392.000000 0.5438 0.5439 0.5440 0.5440 0.5441
3397.000000 0.5442 0.5442 0.5443 0.5444 0.5444
3402.000000 0.5445 0.5446 0.5447 0.5448 0.5450
3407.000000 0.5451 0.5453 0.5455 0.5457 0.5459
3412.000000 0.5461 0.5463 0.5464 0.5466 0.5468
3417.000000 0.5469 0.5471 0.5473 0.5475 0.5476
3422.000000 0.5478 0.5480 0.5481 0.5483 0.5485
3427.000000 0.5486 0.5487 0.5489 0.5491 0.5492
3432.000000 0.5494 0.5496 0.5497 0.5498 0.5498
3437.000000 0.5498 0.5498 0.5498 0.5498 0.5498
3442.000000 0.5498 0.5498 0.5499 0.5499 0.5499
3447.000000 0.5499 0.5499 0.5500 0.5500 0.5500
3452.000000 0.5500 0.5500 0.5501 0.5501 0.5501
3457.000000 0.5501 0.5502 0.5502 0.5502 0.5502
3462.000000 0.5502 0.5502 0.5502 0.5502 0.5502
3467.000000 0.5502 0.5502 0.5502 0.5502 0.5502
3472.000000 0.5502 0.5502 0.5502 0.5502 0.5502
3477.000000 0.5502 0.5502 0.5502 0.5501 0.5501
3482.000000 0.5500 0.5500 0.5500 0.5500 0.5500
3487.000000 0.5499 0.5499 0.5499 0.5499 0.5499
3492.000000 0.5498 0.5498 0.5498 0.5498 0.5498
3497.000000 0.5497 0.5497 0.5497 0.5497 0.5497
3502.000000 0.5482 0.5496 0.5496 0.5496 0.5496
3507.000000 0.5495 0.5495 0.5495 0.5495 0.5495
3512.000000 0.5494 0.5494 0.5493 0.5493 0.5493
3517.000000 0.5492 0.5492 0.5492 0.5492 0.5492
3522.000000 0.5491 0.5491 0.5491 0.5491 0.5491
3527.000000 0.5490 0.5490 0.5490 0.5490 0.5490
3532.000000 0.5489 0.5489 0.5489 0.5489 0.5489
3537.000000 0.5488 0.5488 0.5488 0.5488 0.5488
3542.000000 0.5487 0.5487 0.5487 0.5487 0.5487
3547.000000 0.5486 0.5486 0.5486 0.5486 0.5486
3552.000000 0.5485 0.5485 0.5485 0.5485 0.5485
3557.000000 0.5484 0.5484 0.5484 0.5484 0.5484
3562.000000 0.5483 0.5483 0.5483 0.5483 0.5483
3567.000000 0.5482 0.5482 0.5482 0.5482 0.5482
3572.000000 0.5481 0.5481 0.5481 0.5481 0.5481
3577.000000 0.5480 0.5480 0.5480 0.5480 0.5480
3582.000000 0.5479 0.5479 0.5479 0.5479 0.5479
3587.000000 0.5478 0.5478 0.5478 0.5477 0.5477
3592.000000 0.5476 0.5476 0.5475 0.5475 0.5474
3597.000000 0.5474 0.5473 0.5473 0.5472 0.5472
3602.000000 0.5472 0.5471 0.5471 0.5470 0.5470
3607.000000 0.5470 0.5469 0.5469 0.5468 0.5467
3612.000000 0.5467 0.5466 0.5466 0.5466 0.5465
3617.000000 0.5465 0.5464 0.5464 0.5463 0.5463
3622.000000 0.5462 0.5462 0.5461 0.5461 0.5460
3627.000000 0.5460 0.5460 0.5459 0.5459 0.5459
3632.000000 0.5458 0.5458 0.5457 0.5457 0.5456
3637.000000 0.5456 0.5455 0.5455 0.5454 0.5453
3642.000000 0.5453 0.5452 0.5452 0.5451 0.5451
3647.000000 0.5450 0.5449 0.5449 0.5448 0.5448
3652.000000 0.5447 0.5447 0.5446 0.5445 0.5445
3657.000000 0.5445 0.5444 0.5444 0.5444 0.5443
3662.000000 0.5442 0.5441 0.5440 0.5439 0.5438
3667.000000 0.5437 0.5436 0.5435 0.5434 0.5433
3672.000000 0.5431 0.5430 0.5429 0.5428 0.5427
3677.000000 0.5426 0.5425 0.5423 0.5422 0.5421
3682.000000 0.5419 0.5418 0.5417 0.5416 0.5415
3687.000000 0.5414 0.5413 0.5412 0.5411 0.5409
3692.000000 0.5408 0.5407 0.5406 0.5405 0.5403
3697.000000 0.5402 0.5401 0.5400 0.5399 0.5397
3702.000000 0.5396 0.5395 0.5394 0.5393 0.5392
3707.000000 0.5391 0.5390 0.5389 0.5387 0.5386
3712.000000 0.5385 0.5384 0.5382 0.5381 0.5380
3717.000000 0.5379 0.5378 0.5377 0.5376 0.5375
3722.000000 0.5374 0.5373 0.5371 0.5370 0.5369
3727.000000 0.5368 0.5367 0.5366 0.5365 0.5364
3732.000000 0.5363 0.5361 0.5360 0.5358 0.5357
3737.000000 0.5355 0.5354 0.5353 0.5352 0.5350
3742.000000 0.5349 0.5348 0.5347 0.5345 0.5344
3747.000000 0.5343 0.5342 0.5340 0.5339 0.5338
3752.000000 0.5337 0.5335 0.5334 0.5333 0.5332
3757.000000 0.5330 0.5329 0.5328 0.5327 0.5326
3762.000000 0.5325 0.5324 0.5323 0.5323 0.5322
3767.000000 0.5322 0.5321 0.5321 0.5321 0.5320
3772.000000 0.5320 0.5320 0.5319 0.5319 0.5319
3777.000000 0.5318 0.5318 0.5317 0.5317 0.5316
3782.000000 0.5316 0.5315 0.5315 0.5315 0.5314
3787.000000 0.5314 0.5313 0.5313 0.5313 0.5312
3792.000000 0.5312 0.5312 0.5311 0.5311 0.5311
3797.000000 0.5310 0.5310 0.5310 0.5309 0.5309
3802.000000 0.5308 0.5308 0.5307 0.5307 0.5307
3807.000000 0.5307 0.5307 0.5308 0.5308 0.5309
3812.000000 0.5309 0.5309 0.5309 0.5309 0.5309
3817.000000 0.5310 0.5310 0.5310 0.5311 0.5311
3822.000000 0.5311 0.5312 0.5312 0.5312 0.5312
3827.000000 0.5312 0.5312 0.5313 0.5313 0.5313
3832.000000 0.5313 0.5313 0.5313 0.5312 0.5310
3837.000000 0.5309 0.5308 0.5306 0.5305 0.5303
3842.000000 0.5302 0.5301 0.5299 0.5298 0.5297
3847.000000 0.5295 0.5294 0.5293 0.5291 0.5290
3852.000000 0.5289 0.5285 0.5281 0.5277 0.5273
3857.000000 0.5269 0.5265 0.5260 0.5256 0.5252
3862.000000 0.5248 0.5244 0.5239 0.5236 0.5233
3867.000000 0.5229 0.5226 0.5223 0.5219 0.5216
3872.000000 0.5213 0.5210 0.5207 0.5204 0.5200
3877.000000 0.5199 0.5198 0.5197 0.5196 0.5195
3882.000000 0.5193 0.5192 0.5191 0.5191 0.5190
3887.000000 0.5189 0.5188 0.5187 0.5186 0.5185
3892.000000 0.5184 0.5183 0.5183 0.5182 0.5181
3897.000000 0.5181 0.5180 0.5179 0.5179 0.5178
3902.000000 0.5177 0.5177 0.5176 0.5175 0.5175
3907.000000 0.5174 0.5173 0.5172 0.5171 0.5171
3912.000000 0.5170 0.5169 0.5168 0.5168 0.5167
3917.000000 0.5166 0.5166 0.5165 0.5165 0.5164
3922.000000 0.5163 0.5163 0.5162 0.5161 0.5161
3927.000000 0.5160 0.5159 0.5159 0.5158 0.5157
3932.000000 0.5157 0.5156 0.5155 0.5155 0.5154
3937.000000 0.5154 0.5153 0.5152 0.5151 0.5150
3942.000000 0.5149 0.5149 0.5147 0.5146 0.5145
3947.000000 0.5144 0.5142 0.5141 0.5140 0.5139
3952.000000 0.5137 0.5136 0.5135 0.5133 0.5132
3957.000000 0.5131 0.5130 0.5128 0.5127 0.5126
3962.000000 0.5124 0.5123 0.5122 0.5121 0.5119
3967.000000 0.5118 0.5117 0.5115 0.5114 0.5112
3972.000000 0.5111 0.5109 0.5107 0.5106 0.5104
3977.000000 0.5101 0.5099 0.5097 0.5095 0.5093
3982.000000 0.5091 0.5089 0.5087 0.5084 0.5082
3987.000000 0.5080 0.5078 0.5076 0.5074 0.5072
3992.000000 0.5071 0.5069 0.5067 0.5065 0.5063
3997.000000 0.5061 0.5059 0.5057 0.5055
##END=
