##TITLE=BENZENAMINE, N-BIS-(3,4,5-TRIMETHYLPHENYL)-,HYDROCHLORIDE
##JCAMP-DX=4.24
##DATA TYPE=INFRARED SPECTRUM
##CLASS=COBLENTZ III
##ORIGIN=BRITISH PETROLEUM CO. LTD., ENGLAND
##OWNER=Copyright (C) 1987 by the Coblentz Society
Collection (C) 2018 copyright by the U.S. Secretary of Commerce
on behalf of the United States of America. All rights reserved.
##DATE=1972/07/03
##NAMES=N-phenyl-N,N-bis(3,4,5-trimethylphenyl)amine hydrochloride
Triphenylamine, 3,3',4,4',5,5'-hexamethyl-, hydrochloride
##MOLFORM=C24 H28 Cl N
##SOURCE REFERENCE=COBLENTZ NO. 9342
##$NIST ID=B6009342
##$NIST SOURCE=COBLENTZ
##$NIST IMAGE=cob9342
##SPECTROMETER/DATA SYSTEM=PERKIN-ELMER 157
##STATE=SOLID (KBr DISC, 0.8% WT.)
$$ HCl RUN IN KBr MAY CONTAIN SOME HBr
$$ REF. Can. J. Spec., 18,4,101, '73 C. S. DOUSE and P. B. TOOKE
##SAMPLING PROCEDURE=TRANSMISSION
##RESOLUTION=2
##DATA PROCESSING=DIGITIZED BY COBLENTZ SOCIETY (BATCH II) FROM HARD COPY
##XUNITS=1/CM
##YUNITS=TRANSMITTANCE
##XFACTOR=1.0
##YFACTOR=1
##FIRSTX=667
##LASTX=4000
##FIRSTY=0.7294
##MAXX=4000
##MINX=667
##MAXY=0.9565
##MINY=0.028
##NPOINTS=3334
##XYDATA=(X++(Y..Y))
667.000000 0.7294 0.7634 0.8062 0.8657 0.9009
672.000000 0.9222 0.9398 0.9504 0.9538 0.9556
677.000000 0.9565 0.9565 0.9553 0.9509 0.9476
682.000000 0.9477 0.9476 0.9454 0.9419 0.9374
687.000000 0.9297 0.9209 0.9114 0.9003 0.8875
692.000000 0.8752 0.8614 0.8447 0.8251 0.7996
697.000000 0.7699 0.7266 0.6477 0.5945 0.4448
702.000000 0.3618 0.3550 0.4183 0.4585 0.4583
707.000000 0.4114 0.3135 0.2583 0.2599 0.3645
712.000000 0.5337 0.7604 0.8081 0.8392 0.8528
717.000000 0.8583 0.8592 0.8588 0.8593 0.8571
722.000000 0.8532 0.8484 0.8452 0.8434 0.8423
727.000000 0.8411 0.8373 0.8312 0.8229 0.8120
732.000000 0.8016 0.7921 0.7798 0.7689 0.7475
737.000000 0.7200 0.7055 0.6878 0.6655 0.6275
742.000000 0.5409 0.4845 0.3985 0.3262 0.2460
747.000000 0.1921 0.1341 0.0925 0.0930 0.1333
752.000000 0.2136 0.4414 0.5031 0.6061 0.6916
757.000000 0.7738 0.8008 0.8217 0.8348 0.8427
762.000000 0.8441 0.8517 0.8601 0.8621 0.8625
767.000000 0.8630 0.8636 0.8640 0.8642 0.8646
772.000000 0.8638 0.8615 0.8568 0.8539 0.8523
777.000000 0.8511 0.8506 0.8504 0.8501 0.8491
782.000000 0.8481 0.8473 0.8466 0.8462 0.8459
787.000000 0.8457 0.8455 0.8455 0.8455 0.8455
792.000000 0.8455 0.8455 0.8456 0.8457 0.8457
797.000000 0.8458 0.8459 0.8460 0.8460 0.8461
802.000000 0.8461 0.8461 0.8461 0.8461 0.8459
807.000000 0.8457 0.8455 0.8453 0.8450 0.8446
812.000000 0.8439 0.8434 0.8419 0.8394 0.8370
817.000000 0.8344 0.8318 0.8294 0.8272 0.8256
822.000000 0.8237 0.8187 0.8145 0.8130 0.8118
827.000000 0.8110 0.8102 0.8087 0.8053 0.8016
832.000000 0.7979 0.7922 0.7864 0.7806 0.7736
837.000000 0.7648 0.7539 0.7426 0.7272 0.7035
842.000000 0.6827 0.6758 0.6743 0.6738 0.6740
847.000000 0.6718 0.6612 0.6466 0.6179 0.5874
852.000000 0.5687 0.5407 0.4784 0.3609 0.2626
857.000000 0.2365 0.2368 0.3409 0.4994 0.6434
862.000000 0.6583 0.6619 0.6622 0.6472 0.6260
867.000000 0.6057 0.5896 0.5755 0.5406 0.4730
872.000000 0.3552 0.2717 0.2722 0.3382 0.4242
877.000000 0.5006 0.5020 0.5023 0.4428 0.4323
882.000000 0.4395 0.4439 0.4433 0.4136 0.3983
887.000000 0.3996 0.4994 0.6081 0.7163 0.7680
892.000000 0.7768 0.7802 0.7811 0.7808 0.7820
897.000000 0.7730 0.7675 0.7567 0.7416 0.7265
902.000000 0.7113 0.6962 0.6819 0.6795 0.6795
907.000000 0.7036 0.7215 0.7393 0.7571 0.7721
912.000000 0.7792 0.7886 0.7942 0.7960 0.7965
917.000000 0.7970 0.7971 0.7972 0.7970 0.7990
922.000000 0.7964 0.7959 0.7954 0.7948 0.7942
927.000000 0.7935 0.7928 0.7919 0.7892 0.7864
932.000000 0.7836 0.7803 0.7767 0.7738 0.7721
937.000000 0.7715 0.7708 0.7692 0.7665 0.7636
942.000000 0.7592 0.7544 0.7490 0.7429 0.7356
947.000000 0.7280 0.7208 0.7131 0.7029 0.6918
952.000000 0.6787 0.6659 0.6533 0.6405 0.6148
957.000000 0.5289 0.5122 0.5115 0.5494 0.5818
962.000000 0.5812 0.5658 0.5472 0.5355 0.5355
967.000000 0.5961 0.6481 0.6930 0.7055 0.7117
972.000000 0.7135 0.7144 0.7125 0.7105 0.7081
977.000000 0.7055 0.7026 0.6995 0.6959 0.6919
982.000000 0.6870 0.6822 0.6759 0.6692 0.6618
987.000000 0.6541 0.6452 0.6342 0.6214 0.6106
992.000000 0.5963 0.5652 0.5366 0.5151 0.4937
997.000000 0.4722 0.4558 0.4474 0.4339 0.4215
1002.000000 0.4007 0.3847 0.3650 0.3528 0.3367
1007.000000 0.3194 0.3056 0.2930 0.2841 0.2763
1012.000000 0.2691 0.2609 0.2518 0.2450 0.2393
1017.000000 0.2334 0.2229 0.2126 0.1935 0.1905
1022.000000 0.1936 0.1908 0.2948 0.3469 0.4079
1027.000000 0.4184 0.4217 0.4235 0.4247 0.4283
1032.000000 0.4577 0.4871 0.5164 0.5483 0.5646
1037.000000 0.5673 0.5683 0.5683 0.5679 0.5675
1042.000000 0.5667 0.5659 0.5648 0.5646 0.5649
1047.000000 0.5678 0.5808 0.6033 0.6293 0.6552
1052.000000 0.6806 0.6985 0.7050 0.7082 0.7096
1057.000000 0.7103 0.7104 0.7112 0.7091 0.7077
1062.000000 0.7062 0.7029 0.6987 0.6936 0.6871
1067.000000 0.6798 0.6727 0.6664 0.6579 0.6455
1072.000000 0.6290 0.6126 0.5962 0.5779 0.5653
1077.000000 0.5621 0.5618 0.5619 0.5772 0.5890
1082.000000 0.6064 0.6316 0.6510 0.6608 0.6734
1087.000000 0.6865 0.6966 0.7036 0.7080 0.7114
1092.000000 0.7145 0.7167 0.7188 0.7208 0.7227
1097.000000 0.7245 0.7263 0.7274 0.7284 0.7294
1102.000000 0.7304 0.7309 0.7314 0.7317 0.7319
1107.000000 0.7321 0.7324 0.7326 0.7327 0.7328
1112.000000 0.7328 0.7348 0.7324 0.7319 0.7314
1117.000000 0.7303 0.7283 0.7255 0.7225 0.7196
1122.000000 0.7167 0.7138 0.7105 0.7071 0.7039
1127.000000 0.7007 0.6966 0.6921 0.6852 0.6746
1132.000000 0.6652 0.6559 0.6287 0.5905 0.5771
1137.000000 0.5675 0.5608 0.5582 0.5577 0.5568
1142.000000 0.5724 0.6181 0.6650 0.6882 0.6901
1147.000000 0.6912 0.6910 0.6905 0.6887 0.6859
1152.000000 0.6824 0.6781 0.6720 0.6651 0.6578
1157.000000 0.6500 0.6419 0.6270 0.6099 0.5929
1162.000000 0.5759 0.5606 0.5576 0.5569 0.5876
1167.000000 0.6216 0.6557 0.6869 0.6928 0.6959
1172.000000 0.6974 0.6990 0.6983 0.6980 0.6974
1177.000000 0.6961 0.6947 0.6929 0.6908 0.6886
1182.000000 0.6863 0.6838 0.6812 0.6778 0.6739
1187.000000 0.6671 0.6558 0.6456 0.6306 0.5985
1192.000000 0.5631 0.5278 0.5100 0.5082 0.5084
1197.000000 0.5068 0.5374 0.5531 0.5689 0.5780
1202.000000 0.5774 0.5793 0.5729 0.5677 0.5610
1207.000000 0.5512 0.5452 0.5445 0.5454 0.5445
1212.000000 0.5729 0.5884 0.6039 0.6186 0.6297
1217.000000 0.6342 0.6380 0.6412 0.6434 0.6451
1222.000000 0.6461 0.6467 0.6466 0.6453 0.6431
1227.000000 0.6399 0.6359 0.6290 0.6192 0.6027
1232.000000 0.5853 0.5679 0.5505 0.5327 0.5283
1237.000000 0.5280 0.5374 0.5281 0.5942 0.6230
1242.000000 0.6393 0.6409 0.6411 0.6408 0.6400
1247.000000 0.6391 0.6385 0.6398 0.6466 0.6528
1252.000000 0.6560 0.6578 0.6577 0.6575 0.6579
1257.000000 0.6526 0.6484 0.6444 0.6405 0.6362
1262.000000 0.6317 0.6277 0.6239 0.6201 0.6137
1267.000000 0.6004 0.5934 0.5877 0.5792 0.5692
1272.000000 0.5581 0.5443 0.5363 0.5108 0.4744
1277.000000 0.4381 0.4018 0.3847 0.3840 0.3844
1282.000000 0.3990 0.4281 0.4575 0.4868 0.5044
1287.000000 0.5073 0.5096 0.5115 0.5136 0.5158
1292.000000 0.5179 0.5195 0.5211 0.5227 0.5245
1297.000000 0.5267 0.5288 0.5319 0.5371 0.5461
1302.000000 0.5539 0.5575 0.5590 0.5593 0.5595
1307.000000 0.5599 0.5589 0.5581 0.5554 0.5500
1312.000000 0.5446 0.5389 0.5316 0.5162 0.4965
1317.000000 0.4768 0.4571 0.4374 0.4177 0.3981
1322.000000 0.3785 0.3589 0.3393 0.3198 0.3044
1327.000000 0.3005 0.2992 0.2991 0.2975 0.3456
1332.000000 0.3834 0.4212 0.4590 0.4966 0.5309
1337.000000 0.5437 0.5473 0.5493 0.5498 0.5500
1342.000000 0.5494 0.5491 0.5481 0.5457 0.5418
1347.000000 0.5379 0.5339 0.5301 0.5257 0.5199
1352.000000 0.5142 0.5085 0.5025 0.4966 0.4866
1357.000000 0.4777 0.4698 0.4579 0.4454 0.4327
1362.000000 0.4151 0.4020 0.3888 0.3758 0.3627
1367.000000 0.3496 0.3366 0.3236 0.3106 0.2976
1372.000000 0.2847 0.2718 0.2588 0.2459 0.2354
1377.000000 0.2256 0.2065 0.1937 0.1827 0.1755
1382.000000 0.1743 0.1744 0.1791 0.1728 0.1965
1387.000000 0.2052 0.2138 0.2220 0.2247 0.2252
1392.000000 0.2258 0.2153 0.2060 0.1966 0.1872
1397.000000 0.1780 0.1679 0.1598 0.1530 0.1469
1402.000000 0.1426 0.1392 0.1358 0.1336 0.1327
1407.000000 0.1324 0.1315 0.1858 0.2261 0.2647
1412.000000 0.2865 0.2911 0.2936 0.2947 0.2951
1417.000000 0.2953 0.2951 0.2969 0.2928 0.2900
1422.000000 0.2870 0.2837 0.2794 0.2745 0.2694
1427.000000 0.2637 0.2561 0.2411 0.2226 0.2055
1432.000000 0.1884 0.1713 0.1543 0.1373 0.1201
1437.000000 0.1083 0.1014 0.0962 0.0925 0.0892
1442.000000 0.0870 0.0865 0.0865 0.0870 0.0881
1447.000000 0.0894 0.0901 0.0905 0.0905 0.0903
1452.000000 0.0901 0.0892 0.0874 0.0844 0.0808
1457.000000 0.0776 0.0737 0.0678 0.0626 0.0581
1462.000000 0.0544 0.0508 0.0472 0.0437 0.0402
1467.000000 0.0370 0.0345 0.0322 0.0310 0.0303
1472.000000 0.0298 0.0296 0.0294 0.0292 0.0290
1477.000000 0.0289 0.0288 0.0287 0.0285 0.0285
1482.000000 0.0298 0.0280 0.0371 0.0408 0.0519
1487.000000 0.0777 0.1077 0.1377 0.1676 0.1975
1492.000000 0.2202 0.2283 0.2362 0.2562 0.2732
1497.000000 0.2812 0.2876 0.2973 0.3181 0.3215
1502.000000 0.3259 0.3454 0.3738 0.4022 0.4306
1507.000000 0.4561 0.4603 0.4657 0.4677 0.4686
1512.000000 0.4694 0.4841 0.5079 0.5155 0.5177
1517.000000 0.5197 0.5215 0.5229 0.5242 0.5249
1522.000000 0.5253 0.5257 0.5261 0.5264 0.5277
1527.000000 0.5265 0.5265 0.5263 0.5258 0.5254
1532.000000 0.5246 0.5224 0.5194 0.5165 0.5136
1537.000000 0.5104 0.5068 0.5027 0.4959 0.4872
1542.000000 0.4783 0.4693 0.4627 0.4615 0.4610
1547.000000 0.4606 0.4598 0.4586 0.4523 0.4329
1552.000000 0.4136 0.3947 0.3795 0.3721 0.3687
1557.000000 0.3663 0.3649 0.3638 0.3634 0.3633
1562.000000 0.3634 0.3638 0.3651 0.3676 0.3704
1567.000000 0.3728 0.3742 0.3751 0.3758 0.3762
1572.000000 0.3760 0.3757 0.3752 0.3746 0.3725
1577.000000 0.3634 0.3574 0.3537 0.3480 0.3397
1582.000000 0.3298 0.3195 0.3093 0.2991 0.2889
1587.000000 0.2800 0.2726 0.2644 0.2487 0.2331
1592.000000 0.2196 0.2076 0.1813 0.1544 0.1269
1597.000000 0.1075 0.0988 0.0912 0.0839 0.0793
1602.000000 0.0775 0.0769 0.0772 0.0798 0.0774
1607.000000 0.1149 0.1377 0.1605 0.1833 0.2059
1612.000000 0.2287 0.2513 0.2740 0.2966 0.3192
1617.000000 0.3417 0.3643 0.4338 0.4558 0.4646
1622.000000 0.4715 0.4765 0.4809 0.4853 0.4897
1627.000000 0.4966 0.5092 0.5422 0.5911 0.5983
1632.000000 0.6050 0.6102 0.6152 0.6188 0.6225
1637.000000 0.6261 0.6334 0.6411 0.6458 0.6490
1642.000000 0.6523 0.6574 0.6644 0.6698 0.6724
1647.000000 0.6741 0.6751 0.6760 0.6769 0.6774
1652.000000 0.6777 0.6780 0.6783 0.6784 0.6785
1657.000000 0.6787 0.6788 0.6789 0.6789 0.6790
1662.000000 0.6795 0.6801 0.6808 0.6828 0.6820
1667.000000 0.6825 0.6828 0.6832 0.6832 0.6822
1672.000000 0.6812 0.6798 0.6783 0.6770 0.6759
1677.000000 0.6747 0.6735 0.6723 0.6711 0.6699
1682.000000 0.6687 0.6675 0.6664 0.6652 0.6641
1687.000000 0.6630 0.6619 0.6608 0.6594 0.6580
1692.000000 0.6565 0.6549 0.6529 0.6507 0.6483
1697.000000 0.6435 0.6386 0.6352 0.6328 0.6309
1702.000000 0.6290 0.6271 0.6251 0.6233 0.6226
1707.000000 0.6225 0.6225 0.6226 0.6232 0.6242
1712.000000 0.6207 0.6304 0.6321 0.6335 0.6348
1717.000000 0.6357 0.6362 0.6366 0.6369 0.6369
1722.000000 0.6367 0.6378 0.6359 0.6353 0.6344
1727.000000 0.6333 0.6321 0.6309 0.6293 0.6277
1732.000000 0.6253 0.6228 0.6202 0.6175 0.6149
1737.000000 0.6119 0.6084 0.6047 0.6014 0.5987
1742.000000 0.5964 0.5942 0.5920 0.5899 0.5883
1747.000000 0.5880 0.5876 0.5874 0.5873 0.5875
1752.000000 0.5862 0.5910 0.5962 0.6018 0.6075
1757.000000 0.6131 0.6187 0.6242 0.6299 0.6355
1762.000000 0.6410 0.6466 0.6521 0.6570 0.6600
1767.000000 0.6613 0.6626 0.6636 0.6644 0.6651
1772.000000 0.6657 0.6661 0.6665 0.6668 0.6670
1777.000000 0.6672 0.6672 0.6674 0.6675 0.6676
1782.000000 0.6675 0.6675 0.6674 0.6673 0.6671
1787.000000 0.6670 0.6670 0.6670 0.6670 0.6671
1792.000000 0.6671 0.6671 0.6672 0.6673 0.6674
1797.000000 0.6674 0.6674 0.6683 0.6675 0.6672
1802.000000 0.6668 0.6665 0.6661 0.6657 0.6653
1807.000000 0.6649 0.6644 0.6640 0.6634 0.6627
1812.000000 0.6619 0.6612 0.6605 0.6597 0.6586
1817.000000 0.6573 0.6559 0.6546 0.6533 0.6519
1822.000000 0.6506 0.6493 0.6480 0.6466 0.6453
1827.000000 0.6440 0.6427 0.6413 0.6396 0.6379
1832.000000 0.6362 0.6345 0.6332 0.6324 0.6318
1837.000000 0.6312 0.6306 0.6302 0.6298 0.6295
1842.000000 0.6293 0.6291 0.6289 0.6289 0.6288
1847.000000 0.6287 0.6286 0.6286 0.6284 0.6280
1852.000000 0.6274 0.6267 0.6258 0.6246 0.6232
1857.000000 0.6215 0.6197 0.6175 0.6143 0.6119
1862.000000 0.6096 0.6076 0.6053 0.6023 0.5992
1867.000000 0.5961 0.5932 0.5903 0.5874 0.5851
1872.000000 0.5829 0.5809 0.5789 0.5768 0.5745
1877.000000 0.5720 0.5696 0.5670 0.5646 0.5623
1882.000000 0.5609 0.5595 0.5581 0.5577 0.5573
1887.000000 0.5569 0.5565 0.5561 0.5558 0.5556
1892.000000 0.5554 0.5552 0.5550 0.5548 0.5543
1897.000000 0.5537 0.5532 0.5522 0.5508 0.5487
1902.000000 0.5457 0.5430 0.5405 0.5376 0.5345
1907.000000 0.5314 0.5281 0.5244 0.5208 0.5186
1912.000000 0.5172 0.5164 0.5160 0.5157 0.5154
1917.000000 0.5153 0.5151 0.5149 0.5144 0.5139
1922.000000 0.5127 0.5104 0.5079 0.5051 0.5020
1927.000000 0.4988 0.4955 0.4921 0.4877 0.4842
1932.000000 0.4814 0.4788 0.4761 0.4734 0.4689
1937.000000 0.4639 0.4583 0.4511 0.4427 0.4333
1942.000000 0.4285 0.4239 0.4197 0.4174 0.4154
1947.000000 0.4135 0.4128 0.4120 0.4113 0.4110
1952.000000 0.4109 0.4109 0.4109 0.4097 0.4110
1957.000000 0.4113 0.4118 0.4126 0.4168 0.4224
1962.000000 0.4289 0.4355 0.4421 0.4487 0.4552
1967.000000 0.4617 0.4683 0.4749 0.4814 0.4864
1972.000000 0.4904 0.4928 0.4947 0.4962 0.4973
1977.000000 0.4978 0.4982 0.4984 0.4983 0.4981
1982.000000 0.4980 0.4975 0.4967 0.4986 0.4945
1987.000000 0.4930 0.4916 0.4904 0.4898 0.4892
1992.000000 0.4887 0.4882 0.4877 0.4872 0.4869
1997.000000 0.4865 0.4861 0.4858 0.4855 0.4845
2002.000000 0.4832 0.4816 0.4782 0.4742 0.4692
2007.000000 0.4648 0.4610 0.4587 0.4563 0.4537
2012.000000 0.4511 0.4486 0.4464 0.4446 0.4430
2017.000000 0.4419 0.4411 0.4407 0.4403 0.4400
2022.000000 0.4393 0.4383 0.4367 0.4350 0.4332
2027.000000 0.4315 0.4299 0.4284 0.4268 0.4252
2032.000000 0.4233 0.4214 0.4195 0.4174 0.4153
2037.000000 0.4131 0.4108 0.4084 0.4044 0.4000
2042.000000 0.3950 0.3899 0.3848 0.3798 0.3749
2047.000000 0.3704 0.3681 0.3679 0.3679 0.3679
2052.000000 0.3679 0.3679 0.3679 0.3681 0.3682
2057.000000 0.3677 0.3656 0.3612 0.3568 0.3524
2062.000000 0.3480 0.3436 0.3392 0.3348 0.3304
2067.000000 0.3260 0.3218 0.3188 0.3170 0.3166
2072.000000 0.3165 0.3172 0.3169 0.3194 0.3267
2077.000000 0.3344 0.3424 0.3503 0.3582 0.3661
2082.000000 0.3740 0.3820 0.3899 0.3978 0.4057
2087.000000 0.4123 0.4134 0.4141 0.4142 0.4143
2092.000000 0.4143 0.4137 0.4135 0.4117 0.4080
2097.000000 0.4019 0.3958 0.3897 0.3836 0.3776
2102.000000 0.3715 0.3655 0.3594 0.3533 0.3473
2107.000000 0.3412 0.3352 0.3291 0.3235 0.3191
2112.000000 0.3151 0.3114 0.3077 0.3041 0.3004
2117.000000 0.2967 0.2930 0.2899 0.2876 0.2867
2122.000000 0.2867 0.2842 0.2868 0.2915 0.2965
2127.000000 0.3022 0.3079 0.3135 0.3191 0.3248
2132.000000 0.3305 0.3362 0.3418 0.3474 0.3530
2137.000000 0.3586 0.3643 0.3693 0.3735 0.3752
2142.000000 0.3751 0.3750 0.3749 0.3757 0.3742
2147.000000 0.3738 0.3733 0.3724 0.3715 0.3705
2152.000000 0.3695 0.3684 0.3672 0.3659 0.3644
2157.000000 0.3629 0.3619 0.3610 0.3602 0.3594
2162.000000 0.3588 0.3582 0.3576 0.3571 0.3566
2167.000000 0.3561 0.3556 0.3551 0.3547 0.3541
2172.000000 0.3534 0.3522 0.3509 0.3494 0.3479
2177.000000 0.3462 0.3445 0.3429 0.3412 0.3395
2182.000000 0.3378 0.3362 0.3347 0.3333 0.3319
2187.000000 0.3305 0.3291 0.3276 0.3262 0.3247
2192.000000 0.3232 0.3217 0.3202 0.3186 0.3171
2197.000000 0.3155 0.3143 0.3131 0.3120 0.3108
2202.000000 0.3097 0.3087 0.3076 0.3065 0.3054
2207.000000 0.3036 0.3008 0.2981 0.2956 0.2936
2212.000000 0.2920 0.2903 0.2886 0.2870 0.2854
2217.000000 0.2837 0.2819 0.2802 0.2784 0.2767
2222.000000 0.2749 0.2729 0.2708 0.2686 0.2663
2227.000000 0.2641 0.2619 0.2593 0.2566 0.2520
2232.000000 0.2471 0.2421 0.2372 0.2327 0.2283
2237.000000 0.2250 0.2219 0.2188 0.2157 0.2126
2242.000000 0.2096 0.2067 0.2038 0.2009 0.1981
2247.000000 0.1952 0.1922 0.1894 0.1867 0.1839
2252.000000 0.1811 0.1785 0.1758 0.1734 0.1710
2257.000000 0.1686 0.1663 0.1639 0.1615 0.1593
2262.000000 0.1571 0.1550 0.1530 0.1509 0.1489
2267.000000 0.1469 0.1450 0.1430 0.1410 0.1390
2272.000000 0.1369 0.1349 0.1328 0.1307 0.1286
2277.000000 0.1265 0.1244 0.1223 0.1203 0.1182
2282.000000 0.1164 0.1145 0.1128 0.1111 0.1094
2287.000000 0.1076 0.1059 0.1041 0.1024 0.1007
2292.000000 0.0990 0.0972 0.0955 0.0938 0.0921
2297.000000 0.0904 0.0887 0.0870 0.0853 0.0836
2302.000000 0.0819 0.0802 0.0784 0.0763 0.0741
2307.000000 0.0719 0.0697 0.0676 0.0654 0.0637
2312.000000 0.0624 0.0611 0.0599 0.0586 0.0574
2317.000000 0.0562 0.0550 0.0538 0.0525 0.0513
2322.000000 0.0501 0.0490 0.0481 0.0472 0.0464
2327.000000 0.0456 0.0447 0.0439 0.0431 0.0423
2332.000000 0.0414 0.0406 0.0399 0.0390 0.0382
2337.000000 0.0374 0.0366 0.0359 0.0352 0.0346
2342.000000 0.0341 0.0336 0.0333 0.0330 0.0328
2347.000000 0.0325 0.0324 0.0323 0.0322 0.0322
2352.000000 0.0321 0.0320 0.0320 0.0319 0.0318
2357.000000 0.0317 0.0317 0.0316 0.0316 0.0315
2362.000000 0.0315 0.0314 0.0314 0.0314 0.0313
2367.000000 0.0313 0.0313 0.0313 0.0312 0.0312
2372.000000 0.0311 0.0311 0.0311 0.0310 0.0310
2377.000000 0.0309 0.0309 0.0308 0.0308 0.0308
2382.000000 0.0308 0.0308 0.0307 0.0307 0.0306
2387.000000 0.0306 0.0306 0.0306 0.0306 0.0305
2392.000000 0.0305 0.0304 0.0304 0.0304 0.0304
2397.000000 0.0303 0.0303 0.0303 0.0303 0.0303
2402.000000 0.0302 0.0302 0.0302 0.0302 0.0302
2407.000000 0.0301 0.0301 0.0300 0.0300 0.0300
2412.000000 0.0300 0.0300 0.0299 0.0299 0.0299
2417.000000 0.0299 0.0300 0.0300 0.0300 0.0300
2422.000000 0.0300 0.0300 0.0300 0.0300 0.0300
2427.000000 0.0300 0.0300 0.0300 0.0300 0.0300
2432.000000 0.0300 0.0300 0.0300 0.0300 0.0300
2437.000000 0.0301 0.0301 0.0301 0.0301 0.0301
2442.000000 0.0301 0.0301 0.0301 0.0301 0.0301
2447.000000 0.0301 0.0301 0.0302 0.0302 0.0302
2452.000000 0.0302 0.0302 0.0303 0.0303 0.0303
2457.000000 0.0303 0.0303 0.0304 0.0304 0.0304
2462.000000 0.0304 0.0304 0.0305 0.0305 0.0305
2467.000000 0.0305 0.0305 0.0305 0.0305 0.0306
2472.000000 0.0306 0.0306 0.0306 0.0306 0.0307
2477.000000 0.0307 0.0307 0.0307 0.0307 0.0308
2482.000000 0.0309 0.0310 0.0310 0.0310 0.0311
2487.000000 0.0311 0.0312 0.0312 0.0312 0.0308
2492.000000 0.0313 0.0314 0.0314 0.0314 0.0315
2497.000000 0.0315 0.0316 0.0317 0.0318 0.0318
2502.000000 0.0318 0.0319 0.0319 0.0319 0.0320
2507.000000 0.0320 0.0321 0.0321 0.0321 0.0322
2512.000000 0.0323 0.0324 0.0325 0.0325 0.0326
2517.000000 0.0327 0.0328 0.0328 0.0328 0.0329
2522.000000 0.0330 0.0331 0.0332 0.0332 0.0333
2527.000000 0.0334 0.0335 0.0335 0.0335 0.0336
2532.000000 0.0337 0.0338 0.0338 0.0339 0.0340
2537.000000 0.0340 0.0340 0.0341 0.0341 0.0342
2542.000000 0.0343 0.0343 0.0344 0.0344 0.0345
2547.000000 0.0345 0.0345 0.0346 0.0346 0.0346
2552.000000 0.0347 0.0348 0.0349 0.0349 0.0349
2557.000000 0.0350 0.0350 0.0351 0.0351 0.0351
2562.000000 0.0351 0.0351 0.0351 0.0350 0.0350
2567.000000 0.0349 0.0349 0.0349 0.0349 0.0349
2572.000000 0.0349 0.0348 0.0348 0.0347 0.0347
2577.000000 0.0347 0.0346 0.0346 0.0345 0.0345
2582.000000 0.0345 0.0344 0.0344 0.0344 0.0343
2587.000000 0.0342 0.0341 0.0341 0.0341 0.0340
2592.000000 0.0340 0.0340 0.0339 0.0338 0.0338
2597.000000 0.0337 0.0337 0.0336 0.0336 0.0335
2602.000000 0.0334 0.0334 0.0334 0.0333 0.0331
2607.000000 0.0330 0.0329 0.0328 0.0327 0.0326
2612.000000 0.0326 0.0325 0.0324 0.0323 0.0321
2617.000000 0.0320 0.0319 0.0319 0.0318 0.0317
2622.000000 0.0316 0.0315 0.0314 0.0313 0.0313
2627.000000 0.0312 0.0312 0.0311 0.0311 0.0310
2632.000000 0.0309 0.0309 0.0309 0.0308 0.0307
2637.000000 0.0307 0.0306 0.0306 0.0306 0.0306
2642.000000 0.0306 0.0307 0.0307 0.0308 0.0309
2647.000000 0.0310 0.0310 0.0311 0.0312 0.0312
2652.000000 0.0313 0.0313 0.0314 0.0315 0.0316
2657.000000 0.0317 0.0319 0.0320 0.0322 0.0324
2662.000000 0.0326 0.0327 0.0329 0.0330 0.0332
2667.000000 0.0334 0.0335 0.0339 0.0344 0.0348
2672.000000 0.0352 0.0357 0.0361 0.0366 0.0371
2677.000000 0.0376 0.0381 0.0386 0.0391 0.0397
2682.000000 0.0402 0.0408 0.0413 0.0419 0.0424
2687.000000 0.0430 0.0436 0.0441 0.0447 0.0452
2692.000000 0.0458 0.0465 0.0471 0.0477 0.0482
2697.000000 0.0488 0.0494 0.0500 0.0506 0.0513
2702.000000 0.0520 0.0527 0.0534 0.0541 0.0548
2707.000000 0.0555 0.0562 0.0570 0.0577 0.0584
2712.000000 0.0591 0.0597 0.0604 0.0610 0.0617
2717.000000 0.0623 0.0629 0.0636 0.0642 0.0649
2722.000000 0.0655 0.0662 0.0668 0.0674 0.0680
2727.000000 0.0685 0.0690 0.0695 0.0700 0.0705
2732.000000 0.0709 0.0714 0.0719 0.0723 0.0728
2737.000000 0.0733 0.0737 0.0742 0.0747 0.0752
2742.000000 0.0756 0.0760 0.0764 0.0767 0.0769
2747.000000 0.0772 0.0774 0.0777 0.0780 0.0782
2752.000000 0.0785 0.0788 0.0791 0.0794 0.0796
2757.000000 0.0799 0.0801 0.0804 0.0805 0.0806
2762.000000 0.0806 0.0807 0.0807 0.0807 0.0808
2767.000000 0.0808 0.0809 0.0819 0.0810 0.0811
2772.000000 0.0811 0.0811 0.0810 0.0809 0.0809
2777.000000 0.0808 0.0807 0.0807 0.0806 0.0805
2782.000000 0.0803 0.0801 0.0799 0.0798 0.0796
2787.000000 0.0795 0.0793 0.0791 0.0789 0.0787
2792.000000 0.0786 0.0784 0.0782 0.0780 0.0778
2797.000000 0.0776 0.0774 0.0773 0.0771 0.0769
2802.000000 0.0767 0.0765 0.0763 0.0760 0.0758
2807.000000 0.0756 0.0754 0.0752 0.0751 0.0749
2812.000000 0.0747 0.0745 0.0743 0.0741 0.0740
2817.000000 0.0738 0.0737 0.0736 0.0734 0.0733
2822.000000 0.0731 0.0729 0.0728 0.0726 0.0725
2827.000000 0.0724 0.0723 0.0721 0.0719 0.0718
2832.000000 0.0717 0.0716 0.0715 0.0714 0.0713
2837.000000 0.0712 0.0711 0.0710 0.0709 0.0708
2842.000000 0.0707 0.0707 0.0706 0.0706 0.0706
2847.000000 0.0706 0.0707 0.0707 0.0708 0.0709
2852.000000 0.0709 0.0710 0.0710 0.0710 0.0710
2857.000000 0.0710 0.0709 0.0709 0.0709 0.0709
2862.000000 0.0709 0.0709 0.0708 0.0708 0.0708
2867.000000 0.0707 0.0707 0.0707 0.0707 0.0706
2872.000000 0.0704 0.0703 0.0701 0.0699 0.0697
2877.000000 0.0694 0.0691 0.0689 0.0686 0.0684
2882.000000 0.0682 0.0680 0.0678 0.0676 0.0675
2887.000000 0.0673 0.0672 0.0671 0.0670 0.0669
2892.000000 0.0668 0.0667 0.0666 0.0666 0.0665
2897.000000 0.0666 0.0674 0.0682 0.0691 0.0703
2902.000000 0.0718 0.0732 0.0647 0.0805 0.0851
2907.000000 0.0897 0.0913 0.0929 0.0946 0.0961
2912.000000 0.0976 0.0990 0.1005 0.1017 0.1030
2917.000000 0.1043 0.1055 0.1067 0.1080 0.1093
2922.000000 0.1107 0.1121 0.1136 0.1151 0.1167
2927.000000 0.1182 0.1199 0.1216 0.1232 0.1251
2932.000000 0.1278 0.1304 0.1331 0.1351 0.1368
2937.000000 0.1385 0.1400 0.1410 0.1420 0.1430
2942.000000 0.1440 0.1450 0.1460 0.1477 0.1506
2947.000000 0.1534 0.1563 0.1603 0.1643 0.1684
2952.000000 0.1725 0.1766 0.1806 0.1847 0.1888
2957.000000 0.1928 0.1969 0.2010 0.2050 0.2091
2962.000000 0.2131 0.2172 0.2212 0.2253 0.2294
2967.000000 0.2334 0.2374 0.2415 0.2455 0.2495
2972.000000 0.2535 0.2570 0.2595 0.2621 0.2646
2977.000000 0.2665 0.2682 0.2700 0.2715 0.2726
2982.000000 0.2737 0.2747 0.2758 0.2768 0.2779
2987.000000 0.2788 0.2795 0.2802 0.2809 0.2815
2992.000000 0.2822 0.2829 0.2836 0.2843 0.2850
2997.000000 0.2856 0.2863 0.2871 0.2878 0.2886
3002.000000 0.2894 0.2901 0.2909 0.2918 0.2928
3007.000000 0.2939 0.2949 0.2963 0.2979 0.2995
3012.000000 0.3011 0.3026 0.3042 0.3057 0.3085
3017.000000 0.3140 0.3195 0.3251 0.3283 0.3305
3022.000000 0.3326 0.3348 0.3363 0.3379 0.3395
3027.000000 0.3410 0.3426 0.3442 0.3458 0.3481
3032.000000 0.3506 0.3532 0.3558 0.3586 0.3614
3037.000000 0.3642 0.3681 0.3744 0.3806 0.3869
3042.000000 0.3910 0.3939 0.3968 0.3997 0.4015
3047.000000 0.4032 0.4049 0.4064 0.4068 0.4073
3052.000000 0.4078 0.4082 0.4086 0.4090 0.4094
3057.000000 0.4096 0.4099 0.4101 0.4104 0.4106
3062.000000 0.4108 0.4110 0.4112 0.4114 0.4116
3067.000000 0.4118 0.4120 0.4122 0.4124 0.4126
3072.000000 0.4131 0.4137 0.4143 0.4149 0.4155
3077.000000 0.4161 0.4167 0.4172 0.4176 0.4181
3082.000000 0.4185 0.4189 0.4193 0.4197 0.4201
3087.000000 0.4204 0.4208 0.4211 0.4215 0.4218
3092.000000 0.4221 0.4223 0.4226 0.4228 0.4230
3097.000000 0.4232 0.4234 0.4236 0.4237 0.4239
3102.000000 0.4241 0.4242 0.4243 0.4245 0.4246
3107.000000 0.4247 0.4249 0.4250 0.4251 0.4252
3112.000000 0.4253 0.4254 0.4255 0.4256 0.4257
3117.000000 0.4258 0.4259 0.4259 0.4259 0.4259
3122.000000 0.4260 0.4260 0.4260 0.4260 0.4260
3127.000000 0.4260 0.4260 0.4261 0.4261 0.4261
3132.000000 0.4261 0.4266 0.4261 0.4261 0.4261
3137.000000 0.4261 0.4261 0.4260 0.4259 0.4258
3142.000000 0.4257 0.4256 0.4255 0.4254 0.4253
3147.000000 0.4252 0.4251 0.4250 0.4249 0.4249
3152.000000 0.4248 0.4247 0.4245 0.4243 0.4241
3157.000000 0.4240 0.4237 0.4235 0.4233 0.4231
3162.000000 0.4229 0.4227 0.4225 0.4223 0.4220
3167.000000 0.4218 0.4216 0.4213 0.4211 0.4208
3172.000000 0.4206 0.4204 0.4201 0.4199 0.4197
3177.000000 0.4195 0.4192 0.4190 0.4188 0.4186
3182.000000 0.4184 0.4181 0.4179 0.4177 0.4175
3187.000000 0.4173 0.4171 0.4169 0.4167 0.4166
3192.000000 0.4164 0.4162 0.4161 0.4159 0.4157
3197.000000 0.4155 0.4154 0.4152 0.4151 0.4150
3202.000000 0.4149 0.4148 0.4147 0.4147 0.4146
3207.000000 0.4145 0.4144 0.4144 0.4143 0.4142
3212.000000 0.4141 0.4141 0.4140 0.4139 0.4139
3217.000000 0.4138 0.4137 0.4136 0.4136 0.4135
3222.000000 0.4134 0.4133 0.4131 0.4130 0.4128
3227.000000 0.4127 0.4125 0.4124 0.4122 0.4121
3232.000000 0.4120 0.4118 0.4117 0.4115 0.4114
3237.000000 0.4113 0.4112 0.4111 0.4109 0.4108
3242.000000 0.4106 0.4105 0.4102 0.4100 0.4098
3247.000000 0.4096 0.4093 0.4090 0.4087 0.4083
3252.000000 0.4080 0.4077 0.4074 0.4071 0.4068
3257.000000 0.4065 0.4062 0.4059 0.4055 0.4051
3262.000000 0.4047 0.4043 0.4039 0.4035 0.4030
3267.000000 0.4026 0.4021 0.4017 0.4012 0.4007
3272.000000 0.4003 0.3997 0.3992 0.3986 0.3981
3277.000000 0.3975 0.3970 0.3964 0.3959 0.3954
3282.000000 0.3949 0.3944 0.3939 0.3934 0.3930
3287.000000 0.3925 0.3921 0.3917 0.3912 0.3907
3292.000000 0.3903 0.3898 0.3894 0.3888 0.3883
3297.000000 0.3878 0.3873 0.3868 0.3864 0.3859
3302.000000 0.3854 0.3848 0.3841 0.3834 0.3827
3307.000000 0.3819 0.3810 0.3801 0.3792 0.3783
3312.000000 0.3775 0.3767 0.3759 0.3751 0.3743
3317.000000 0.3736 0.3729 0.3723 0.3716 0.3708
3322.000000 0.3701 0.3693 0.3685 0.3677 0.3669
3327.000000 0.3660 0.3652 0.3644 0.3635 0.3627
3332.000000 0.3619 0.3610 0.3597 0.3581 0.3566
3337.000000 0.3550 0.3534 0.3515 0.3497 0.3478
3342.000000 0.3460 0.3444 0.3428 0.3413 0.3398
3347.000000 0.3383 0.3369 0.3356 0.3343 0.3329
3352.000000 0.3319 0.3310 0.3301 0.3292 0.3283
3357.000000 0.3275 0.3268 0.3260 0.3252 0.3248
3362.000000 0.3245 0.3242 0.3239 0.3236 0.3235
3367.000000 0.3234 0.3233 0.3232 0.3231 0.3231
3372.000000 0.3230 0.3230 0.3230 0.3230 0.3230
3377.000000 0.3231 0.3231 0.3217 0.3233 0.3233
3382.000000 0.3234 0.3235 0.3235 0.3236 0.3237
3387.000000 0.3238 0.3244 0.3255 0.3266 0.3277
3392.000000 0.3288 0.3305 0.3323 0.3341 0.3358
3397.000000 0.3374 0.3381 0.3389 0.3397 0.3405
3402.000000 0.3411 0.3417 0.3423 0.3429 0.3436
3407.000000 0.3440 0.3445 0.3450 0.3454 0.3458
3412.000000 0.3460 0.3462 0.3463 0.3465 0.3466
3417.000000 0.3467 0.3467 0.3468 0.3469 0.3469
3422.000000 0.3470 0.3470 0.3471 0.3472 0.3473
3427.000000 0.3473 0.3474 0.3475 0.3476 0.3477
3432.000000 0.3477 0.3478 0.3478 0.3479 0.3480
3437.000000 0.3480 0.3481 0.3482 0.3482 0.3483
3442.000000 0.3484 0.3484 0.3485 0.3485 0.3486
3447.000000 0.3487 0.3487 0.3488 0.3488 0.3489
3452.000000 0.3489 0.3489 0.3490 0.3490 0.3491
3457.000000 0.3491 0.3492 0.3492 0.3492 0.3493
3462.000000 0.3493 0.3494 0.3494 0.3494 0.3495
3467.000000 0.3495 0.3496 0.3496 0.3497 0.3497
3472.000000 0.3497 0.3498 0.3498 0.3499 0.3499
3477.000000 0.3499 0.3501 0.3504 0.3506 0.3508
3482.000000 0.3510 0.3512 0.3514 0.3516 0.3518
3487.000000 0.3520 0.3522 0.3525 0.3527 0.3529
3492.000000 0.3532 0.3536 0.3540 0.3544 0.3548
3497.000000 0.3551 0.3555 0.3559 0.3562 0.3566
3502.000000 0.3570 0.3573 0.3576 0.3580 0.3583
3507.000000 0.3587 0.3591 0.3594 0.3598 0.3602
3512.000000 0.3605 0.3608 0.3611 0.3615 0.3618
3517.000000 0.3621 0.3623 0.3626 0.3629 0.3631
3522.000000 0.3634 0.3636 0.3639 0.3642 0.3644
3527.000000 0.3646 0.3648 0.3650 0.3652 0.3654
3532.000000 0.3656 0.3658 0.3660 0.3662 0.3663
3537.000000 0.3664 0.3665 0.3666 0.3667 0.3667
3542.000000 0.3668 0.3669 0.3670 0.3671 0.3671
3547.000000 0.3672 0.3673 0.3673 0.3674 0.3674
3552.000000 0.3675 0.3675 0.3676 0.3676 0.3676
3557.000000 0.3677 0.3677 0.3678 0.3678 0.3678
3562.000000 0.3679 0.3679 0.3679 0.3679 0.3679
3567.000000 0.3680 0.3680 0.3680 0.3680 0.3680
3572.000000 0.3681 0.3681 0.3681 0.3681 0.3681
3577.000000 0.3682 0.3682 0.3682 0.3682 0.3682
3582.000000 0.3683 0.3683 0.3683 0.3684 0.3684
3587.000000 0.3685 0.3685 0.3685 0.3685 0.3685
3592.000000 0.3685 0.3685 0.3685 0.3685 0.3685
3597.000000 0.3685 0.3686 0.3686 0.3686 0.3686
3602.000000 0.3686 0.3687 0.3687 0.3687 0.3687
3607.000000 0.3687 0.3687 0.3687 0.3687 0.3687
3612.000000 0.3687 0.3688 0.3688 0.3688 0.3688
3617.000000 0.3688 0.3689 0.3689 0.3689 0.3689
3622.000000 0.3689 0.3689 0.3690 0.3690 0.3690
3627.000000 0.3690 0.3690 0.3690 0.3690 0.3690
3632.000000 0.3690 0.3690 0.3690 0.3690 0.3690
3637.000000 0.3690 0.3690 0.3690 0.3683 0.3690
3642.000000 0.3690 0.3690 0.3690 0.3690 0.3690
3647.000000 0.3690 0.3690 0.3690 0.3690 0.3690
3652.000000 0.3690 0.3690 0.3690 0.3691 0.3691
3657.000000 0.3691 0.3691 0.3691 0.3691 0.3691
3662.000000 0.3691 0.3691 0.3691 0.3691 0.3691
3667.000000 0.3691 0.3691 0.3691 0.3691 0.3691
3672.000000 0.3690 0.3690 0.3690 0.3690 0.3690
3677.000000 0.3689 0.3689 0.3689 0.3688 0.3688
3682.000000 0.3687 0.3687 0.3686 0.3686 0.3685
3687.000000 0.3685 0.3684 0.3684 0.3684 0.3683
3692.000000 0.3683 0.3682 0.3682 0.3682 0.3681
3697.000000 0.3681 0.3681 0.3680 0.3680 0.3679
3702.000000 0.3679 0.3679 0.3678 0.3678 0.3677
3707.000000 0.3676 0.3675 0.3675 0.3674 0.3673
3712.000000 0.3672 0.3671 0.3670 0.3669 0.3668
3717.000000 0.3667 0.3667 0.3666 0.3665 0.3664
3722.000000 0.3663 0.3662 0.3661 0.3660 0.3659
3727.000000 0.3658 0.3658 0.3657 0.3656 0.3655
3732.000000 0.3653 0.3651 0.3648 0.3646 0.3644
3737.000000 0.3641 0.3639 0.3636 0.3633 0.3631
3742.000000 0.3628 0.3625 0.3623 0.3620 0.3617
3747.000000 0.3615 0.3612 0.3609 0.3607 0.3604
3752.000000 0.3601 0.3599 0.3596 0.3593 0.3591
3757.000000 0.3588 0.3586 0.3583 0.3581 0.3579
3762.000000 0.3576 0.3574 0.3571 0.3569 0.3566
3767.000000 0.3564 0.3561 0.3559 0.3556 0.3554
3772.000000 0.3551 0.3548 0.3545 0.3542 0.3539
3777.000000 0.3536 0.3533 0.3530 0.3527 0.3524
3782.000000 0.3521 0.3518 0.3515 0.3512 0.3509
3787.000000 0.3506 0.3503 0.3500 0.3497 0.3494
3792.000000 0.3491 0.3488 0.3486 0.3483 0.3480
3797.000000 0.3478 0.3475 0.3473 0.3470 0.3467
3802.000000 0.3464 0.3462 0.3459 0.3456 0.3453
3807.000000 0.3451 0.3448 0.3446 0.3443 0.3440
3812.000000 0.3438 0.3435 0.3433 0.3430 0.3428
3817.000000 0.3425 0.3422 0.3420 0.3417 0.3415
3822.000000 0.3412 0.3409 0.3407 0.3404 0.3401
3827.000000 0.3399 0.3396 0.3393 0.3391 0.3388
3832.000000 0.3386 0.3383 0.3380 0.3378 0.3375
3837.000000 0.3372 0.3370 0.3367 0.3364 0.3362
3842.000000 0.3359 0.3357 0.3354 0.3351 0.3349
3847.000000 0.3347 0.3345 0.3343 0.3341 0.3339
3852.000000 0.3337 0.3336 0.3335 0.3335 0.3334
3857.000000 0.3333 0.3333 0.3332 0.3331 0.3330
3862.000000 0.3329 0.3328 0.3327 0.3327 0.3326
3867.000000 0.3325 0.3325 0.3324 0.3323 0.3323
3872.000000 0.3322 0.3322 0.3321 0.3321 0.3320
3877.000000 0.3320 0.3319 0.3319 0.3318 0.3318
3882.000000 0.3317 0.3317 0.3316 0.3316 0.3316
3887.000000 0.3315 0.3315 0.3312 0.3310 0.3308
3892.000000 0.3305 0.3303 0.3301 0.3298 0.3295
3897.000000 0.3293 0.3290 0.3288 0.3285 0.3283
3902.000000 0.3281 0.3279 0.3277 0.3275 0.3273
3907.000000 0.3271 0.3269 0.3267 0.3265 0.3262
3912.000000 0.3260 0.3258 0.3256 0.3254 0.3252
3917.000000 0.3250 0.3248 0.3247 0.3245 0.3243
3922.000000 0.3241 0.3239 0.3237 0.3235 0.3234
3927.000000 0.3232 0.3231 0.3229 0.3228 0.3226
3932.000000 0.3225 0.3223 0.3221 0.3220 0.3218
3937.000000 0.3217 0.3215 0.3214 0.3212 0.3211
3942.000000 0.3209 0.3208 0.3205 0.3203 0.3200
3947.000000 0.3198 0.3195 0.3193 0.3189 0.3185
3952.000000 0.3180 0.3176 0.3172 0.3168 0.3164
3957.000000 0.3161 0.3158 0.3154 0.3151 0.3148
3962.000000 0.3145 0.3144 0.3143 0.3141 0.3140
3967.000000 0.3138 0.3137 0.3136 0.3134 0.3133
3972.000000 0.3132 0.3130 0.3129 0.3128 0.3126
3977.000000 0.3125 0.3124 0.3122 0.3121 0.3119
3982.000000 0.3118 0.3117 0.3115 0.3114 0.3112
3987.000000 0.3111 0.3110 0.3108 0.3107 0.3106
3992.000000 0.3105 0.3103 0.3102 0.3101 0.3100
3997.000000 0.3099 0.3098 0.3097 0.3097
##END=
