##TITLE=3,4-DIHYDRO-3-PHENYL-6-(1,1,3,3-TETRAMETHYLBUTYL)-2H-1,3-BENZOXAZINE
##JCAMP-DX=4.24
##DATA TYPE=INFRARED SPECTRUM
##CLASS=COBLENTZ
##ORIGIN=DOW CHEMICAL COMPANY
##OWNER=COBLENTZ SOCIETY
Collection (C) 2018 copyright by the U.S. Secretary of Commerce
on behalf of the United States of America. All rights reserved.
##DATE=Not specified, most likely prior to 1970
##NAMES=3-phenyl-6-(1,1,3,3-tetramethylbutyl)-3,4-dihydro-2H-1,3-benzoxazine
##MOLFORM=C22 H29 N O
##SOURCE REFERENCE=COBLENTZ NO. 3974
##$NIST ID=B6003974
##$NIST SOURCE=COBLENTZ
##$NIST IMAGE=cob3974
##SPECTROMETER/DATA SYSTEM=Not specified, most likely a prism, grating, or hybrid spectrometer.
##STATE=SOLUTION (10% CCl4 FOR 5000-1300, 10% CS2 FOR 1300-625 CM^-^1)
##PATH LENGTH=0.011 CM, 0.011 CM
$$SPECTRAL CONTAMINATION DUE TO CCl4 AROUND 1550 CM^-^1
##SAMPLING PROCEDURE=TRANSMISSION
##RESOLUTION=4
##DATA PROCESSING=DIGITIZED BY NIST FROM HARD COPY
##XUNITS=MICROMETERS
##YUNITS=TRANSMITTANCE
##XFACTOR=1.000000
##YFACTOR=1
##DELTAX=000.006773
##FIRSTX=2.027
##LASTX=15.9868
##FIRSTY=0.86
##MAXX=15.9868
##MINX=2.027
##MAXY=0.919
##MINY=0.041
##NPOINTS=2062
##XYDATA=(X++(Y..Y))
2.027000 0.8600 0.8600 0.8620 0.8590 0.8590
2.060882 0.8600 0.8620 0.8620 0.8620 0.8620
2.095000 0.8620 0.8620 0.8620 0.8600 0.8600
2.128882 0.8600 0.8590 0.8590 0.8590 0.8600
2.163000 0.8620 0.8640 0.8640 0.8650 0.8650
2.196882 0.8670 0.8670 0.8650 0.8640 0.8620
2.230000 0.8600 0.8570 0.8570 0.8550 0.8540
2.263882 0.8540 0.8520 0.8500 0.8500 0.8500
2.298000 0.8500 0.8500 0.8520 0.8520 0.8540
2.331882 0.8570 0.8590 0.8600 0.8600 0.8620
2.366000 0.8620 0.8620 0.8620 0.8620 0.8620
2.399882 0.8620 0.8620 0.8620 0.8620 0.8620
2.433000 0.8620 0.8620 0.8640 0.8650 0.8650
2.466882 0.8690 0.8700 0.8700 0.8720 0.8740
2.501000 0.8740 0.8740 0.8740 0.8740 0.8740
2.534882 0.8740 0.8740 0.8740 0.8740 0.8740
2.569000 0.8740 0.8740 0.8740 0.8740 0.8740
2.602882 0.8740 0.8750 0.8750 0.8770 0.8770
2.637000 0.8790 0.8790 0.8790 0.8790 0.8790
2.670882 0.8790 0.8790 0.8790 0.8790 0.8790
2.704000 0.8790 0.8790 0.8790 0.8790 0.8790
2.737882 0.8770 0.8750 0.8720 0.8700 0.8690
2.772000 0.8650 0.8640 0.8640 0.8620 0.8620
2.805882 0.8600 0.8600 0.8600 0.8600 0.8600
2.840000 0.8600 0.8600 0.8590 0.8540 0.8520
2.873882 0.8500 0.8480 0.8470 0.8420 0.8380
2.908000 0.8350 0.8320 0.8300 0.8300 0.8300
2.941882 0.8300 0.8300 0.8280 0.8280 0.8280
2.975000 0.8280 0.8280 0.8280 0.8300 0.8300
3.008882 0.8280 0.8270 0.8270 0.8270 0.8250
3.043000 0.8230 0.8220 0.8230 0.8230 0.8220
3.076882 0.8220 0.8200 0.8180 0.8170 0.8170
3.111000 0.8170 0.8170 0.8200 0.8220 0.8230
3.144882 0.8250 0.8250 0.8250 0.8250 0.8230
3.179000 0.8200 0.8180 0.8150 0.8080 0.8000
3.212882 0.7900 0.7780 0.7660 0.7510 0.7380
3.246000 0.7230 0.7080 0.6910 0.6740 0.6560
3.279882 0.6450 0.6300 0.6190 0.6040 0.5900
3.314000 0.5650 0.5460 0.5150 0.4930 0.4710
3.347882 0.4160 0.3420 0.2580 0.1620 0.1520
3.382000 0.1520 0.1710 0.2010 0.2340 0.2610
3.415882 0.2760 0.2780 0.2760 0.2730 0.2710
3.449000 0.2730 0.2760 0.3120 0.3500 0.3940
3.482882 0.4360 0.4790 0.5600 0.5970 0.6340
3.517000 0.6660 0.6940 0.7110 0.7310 0.7480
3.550882 0.7630 0.7710 0.7780 0.7810 0.7880
3.585000 0.7930 0.7960 0.8000 0.8050 0.8100
3.618882 0.8130 0.8180 0.8230 0.8280 0.8320
3.653000 0.8350 0.8400 0.8470 0.8500 0.8540
3.686882 0.8600 0.8640 0.8650 0.8650 0.8670
3.720000 0.8690 0.8690 0.8690 0.8690 0.8700
3.753882 0.8700 0.8720 0.8720 0.8720 0.8720
3.788000 0.8740 0.8750 0.8750 0.8750 0.8750
3.821882 0.8770 0.8770 0.8770 0.8770 0.8770
3.856000 0.8770 0.8790 0.8790 0.8790 0.8790
3.889882 0.8800 0.8820 0.8850 0.8890 0.8890
3.924000 0.8890 0.8900 0.8900 0.8900 0.8900
3.957882 0.8900 0.8920 0.8920 0.8940 0.8940
3.991000 0.8950 0.8950 0.8950 0.8950 0.8940
4.024882 0.8940 0.8920 0.8920 0.8920 0.8940
4.059000 0.8950 0.8990 0.9010 0.9010 0.9010
4.092882 0.9010 0.9010 0.9010 0.9010 0.9010
4.127000 0.9010 0.9010 0.9010 0.9010 0.8990
4.160882 0.8990 0.8990 0.8970 0.8970 0.8990
4.194000 0.8990 0.8970 0.8970 0.8940 0.8920
4.227882 0.8900 0.8900 0.8890 0.8890 0.8890
4.262000 0.8890 0.8890 0.8890 0.8890 0.8870
4.295882 0.8850 0.8840 0.8840 0.8820 0.8820
4.330000 0.8840 0.8850 0.8870 0.8890 0.8890
4.363882 0.8900 0.8920 0.8920 0.8940 0.8970
4.398000 0.8990 0.9010 0.9010 0.9010 0.9020
4.431882 0.9040 0.9040 0.9060 0.9060 0.9090
4.465000 0.9110 0.9120 0.9120 0.9140 0.9140
4.498882 0.9140 0.9140 0.9140 0.9140 0.9140
4.533000 0.9140 0.9140 0.9140 0.9140 0.9140
4.566882 0.9140 0.9140 0.9160 0.9160 0.9170
4.601000 0.9190 0.9190 0.9190 0.9190 0.9190
4.634882 0.9190 0.9190 0.9190 0.9190 0.9190
4.669000 0.9190 0.9190 0.9190 0.9190 0.9190
4.702882 0.9190 0.9190 0.9190 0.9190 0.9170
4.736000 0.9170 0.9170 0.9170 0.9170 0.9170
4.769882 0.9190 0.9190 0.9190 0.9170 0.9160
4.804000 0.9140 0.9140 0.9120 0.9110 0.9110
4.837882 0.9110 0.9110 0.9120 0.9140 0.9160
4.872000 0.9160 0.9160 0.9160 0.9160 0.9160
4.905882 0.9160 0.9160 0.9160 0.9140 0.9140
4.940000 0.9120 0.9120 0.9110 0.9110 0.9110
4.973882 0.9110 0.9110 0.9090 0.9070 0.9040
5.007000 0.9040 0.9020 0.9020 0.9020 0.9040
5.040882 0.9040 0.9060 0.9070 0.9070 0.9090
5.075000 0.9090 0.9090 0.9070 0.9070 0.9040
5.108882 0.9010 0.8990 0.8970 0.8920 0.8900
5.143000 0.8890 0.8870 0.8850 0.8840 0.8820
5.176882 0.8800 0.8800 0.8790 0.8790 0.8790
5.210000 0.8800 0.8820 0.8850 0.8870 0.8890
5.243882 0.8890 0.8890 0.8890 0.8870 0.8820
5.278000 0.8800 0.8790 0.8770 0.8750 0.8740
5.311882 0.8740 0.8750 0.8770 0.8790 0.8800
5.346000 0.8840 0.8850 0.8870 0.8890 0.8890
5.379882 0.8890 0.8890 0.8870 0.8870 0.8890
5.414000 0.8890 0.8890 0.8900 0.8900 0.8920
5.447882 0.8970 0.8990 0.8990 0.9010 0.9010
5.481000 0.9010 0.9020 0.9020 0.9020 0.9020
5.514882 0.9020 0.9020 0.9020 0.9020 0.9020
5.549000 0.9020 0.9010 0.8990 0.8990 0.8990
5.582882 0.8990 0.8970 0.8950 0.8920 0.8900
5.617000 0.8890 0.8850 0.8840 0.8820 0.8820
5.650882 0.8820 0.8820 0.8820 0.8820 0.8820
5.685000 0.8820 0.8820 0.8820 0.8800 0.8800
5.718882 0.8800 0.8790 0.8790 0.8790 0.8790
5.752000 0.8800 0.8800 0.8840 0.8850 0.8890
5.785882 0.8890 0.8900 0.8900 0.8890 0.8870
5.820000 0.8850 0.8820 0.8800 0.8790 0.8790
5.853882 0.8770 0.8770 0.8750 0.8750 0.8740
5.888000 0.8740 0.8740 0.8740 0.8740 0.8740
5.921882 0.8740 0.8740 0.8720 0.8720 0.8720
5.955000 0.8700 0.8700 0.8690 0.8690 0.8690
5.988882 0.8670 0.8650 0.8620 0.8620 0.8600
6.023000 0.8590 0.8570 0.8520 0.8500 0.8470
6.056882 0.8400 0.8330 0.8300 0.8280 0.8230
6.091000 0.8200 0.8130 0.8100 0.8000 0.7910
6.124882 0.7750 0.7480 0.7260 0.7010 0.6670
6.159000 0.6300 0.5920 0.5530 0.5150 0.4830
6.192882 0.4510 0.3750 0.3180 0.2710 0.2410
6.226000 0.2340 0.2340 0.2600 0.3300 0.3670
6.259882 0.3920 0.4040 0.4110 0.4110 0.4120
6.294000 0.4170 0.4260 0.4390 0.4560 0.4780
6.327882 0.4960 0.5180 0.5210 0.5250 0.5250
6.362000 0.5210 0.5180 0.5110 0.5010 0.4960
6.395882 0.4910 0.4790 0.4680 0.4590 0.4530
6.430000 0.4510 0.4510 0.4530 0.4560 0.4610
6.463882 0.4660 0.4810 0.5050 0.5180 0.5300
6.497000 0.5330 0.5380 0.5380 0.5400 0.5400
6.530882 0.5380 0.5310 0.5210 0.5050 0.4980
6.565000 0.4910 0.4640 0.4510 0.4260 0.3900
6.598882 0.3450 0.2930 0.2310 0.1870 0.1240
6.633000 0.1070 0.0580 0.0450 0.0410 0.0430
6.666882 0.0600 0.0750 0.0870 0.1390 0.1920
6.701000 0.2410 0.2860 0.3170 0.3420 0.3550
6.734882 0.3640 0.3690 0.3720 0.3750 0.3790
6.768000 0.3800 0.3840 0.3900 0.3950 0.4060
6.801882 0.4210 0.4270 0.4360 0.4390 0.4420
6.836000 0.4490 0.4530 0.4630 0.4740 0.4890
6.869882 0.5200 0.5360 0.5570 0.5750 0.5970
6.904000 0.6150 0.6320 0.6470 0.6660 0.6790
6.937882 0.6890 0.6960 0.6960 0.6940 0.6890
6.971000 0.6840 0.6790 0.6710 0.6610 0.6470
7.004882 0.6340 0.6190 0.6120 0.6040 0.6020
7.039000 0.6040 0.6090 0.6140 0.6190 0.6240
7.072882 0.6340 0.6390 0.6390 0.6340 0.6240
7.107000 0.6120 0.5950 0.5680 0.5410 0.5200
7.140882 0.5000 0.4910 0.4830 0.4680 0.4560
7.175000 0.4490 0.4390 0.4310 0.4240 0.4210
7.208882 0.4220 0.4290 0.4370 0.4440 0.4490
7.242000 0.4490 0.4410 0.4260 0.4060 0.3770
7.275882 0.3500 0.3250 0.2900 0.2780 0.2780
7.310000 0.2980 0.3600 0.4310 0.5600 0.6150
7.343882 0.6450 0.6610 0.6740 0.6820 0.6870
7.378000 0.6910 0.6920 0.6920 0.6920 0.6910
7.411882 0.6890 0.6890 0.6890 0.6870 0.6870
7.446000 0.6810 0.6690 0.6540 0.6340 0.6120
7.479882 0.5900 0.5670 0.5500 0.5380 0.5350
7.513000 0.5350 0.5410 0.5620 0.5850 0.6050
7.546882 0.6440 0.6660 0.6960 0.7130 0.7210
7.581000 0.7260 0.7280 0.7280 0.7210 0.7040
7.614882 0.6960 0.6810 0.6720 0.6720 0.6740
7.649000 0.6760 0.6770 0.6810 0.6910 0.6990
7.682882 0.7040 0.7130 0.7180 0.7240 0.7330
7.716000 0.7430 0.7510 0.7600 0.7630 0.7660
7.749882 0.7680 0.7660 0.7660 0.7610 0.7550
7.784000 0.7530 0.7410 0.7290 0.7140 0.6970
7.817882 0.6890 0.6690 0.6450 0.6220 0.6050
7.852000 0.5900 0.5720 0.5580 0.5410 0.5210
7.885882 0.5100 0.4960 0.4710 0.4460 0.4190
7.920000 0.3950 0.3690 0.3420 0.3200 0.2960
7.953882 0.2550 0.2180 0.1960 0.1670 0.1490
7.987000 0.1390 0.1350 0.1370 0.1570 0.1640
8.020882 0.1690 0.1720 0.1720 0.1640 0.1520
8.055000 0.1300 0.1070 0.0870 0.0680 0.0620
8.088882 0.0620 0.0720 0.0970 0.1370 0.1910
8.123000 0.2410 0.2910 0.3320 0.3650 0.3950
8.156882 0.4140 0.4290 0.4370 0.4390 0.4370
8.191000 0.4340 0.4310 0.4170 0.4040 0.3950
8.224882 0.3800 0.3700 0.3600 0.3500 0.3420
8.258000 0.3380 0.3300 0.3280 0.3270 0.3270
8.291882 0.3270 0.3280 0.3330 0.3400 0.3500
8.326000 0.3620 0.3790 0.3950 0.4210 0.4460
8.359882 0.4630 0.4780 0.4890 0.5050 0.5130
8.394000 0.5180 0.5250 0.5310 0.5330 0.5360
8.427882 0.5380 0.5380 0.5330 0.5300 0.5210
8.462000 0.5100 0.5000 0.4940 0.4890 0.4810
8.495882 0.4780 0.4730 0.4710 0.4730 0.4810
8.529000 0.4980 0.5100 0.5180 0.5210 0.5280
8.562882 0.5330 0.5360 0.5380 0.5380 0.5380
8.597000 0.5360 0.5330 0.5300 0.5280 0.5230
8.630882 0.5210 0.5200 0.5200 0.5200 0.5210
8.665000 0.5300 0.5450 0.5600 0.5780 0.5980
8.698882 0.6120 0.6300 0.6490 0.6660 0.6820
8.732000 0.6910 0.6990 0.7030 0.7060 0.7060
8.765882 0.7030 0.6990 0.6920 0.6740 0.6560
8.800000 0.6320 0.6140 0.6050 0.5850 0.5620
8.833882 0.5450 0.5210 0.5050 0.4980 0.4890
8.868000 0.4730 0.4630 0.4560 0.4530 0.4510
8.901882 0.4530 0.4560 0.4680 0.4780 0.4960
8.936000 0.5310 0.5550 0.5850 0.6150 0.6350
8.969882 0.6520 0.6670 0.6860 0.7090 0.7260
9.003000 0.7380 0.7410 0.7440 0.7480 0.7500
9.036882 0.7500 0.7480 0.7390 0.7310 0.7210
9.071000 0.7090 0.6970 0.6810 0.6740 0.6690
9.104882 0.6660 0.6660 0.6710 0.6810 0.6910
9.139000 0.6990 0.7010 0.7030 0.7040 0.7030
9.172882 0.6970 0.6870 0.6810 0.6740 0.6660
9.207000 0.6620 0.6610 0.6590 0.6590 0.6610
9.240882 0.6620 0.6660 0.6670 0.6690 0.6720
9.274000 0.6770 0.6840 0.6970 0.7030 0.7140
9.307882 0.7230 0.7340 0.7480 0.7550 0.7630
9.342000 0.7680 0.7710 0.7750 0.7780 0.7800
9.375882 0.7830 0.7880 0.7900 0.7930 0.7950
9.410000 0.7960 0.7980 0.7980 0.7960 0.7960
9.443882 0.7950 0.7910 0.7880 0.7830 0.7800
9.478000 0.7760 0.7710 0.7660 0.7600 0.7530
9.511882 0.7500 0.7480 0.7380 0.7330 0.7280
9.545000 0.7190 0.7010 0.6890 0.6870 0.6790
9.578882 0.6710 0.6660 0.6510 0.6350 0.6200
9.613000 0.6150 0.6020 0.5880 0.5700 0.5500
9.646882 0.5300 0.5050 0.4980 0.4890 0.4710
9.681000 0.4630 0.4590 0.4610 0.4710 0.4890
9.714882 0.5350 0.5620 0.5850 0.6000 0.6170
9.748000 0.6290 0.6400 0.6510 0.6610 0.6710
9.781882 0.6760 0.6860 0.6970 0.7030 0.7090
9.816000 0.7110 0.7160 0.7190 0.7260 0.7290
9.849882 0.7330 0.7380 0.7410 0.7440 0.7460
9.884000 0.7480 0.7480 0.7460 0.7440 0.7430
9.917882 0.7380 0.7340 0.7290 0.7190 0.7040
9.952000 0.6890 0.6690 0.6510 0.6350 0.6290
9.985882 0.6140 0.6050 0.5930 0.5900 0.5900
10.019000 0.5970 0.6090 0.6190 0.6270 0.6300
10.052882 0.6340 0.6340 0.6320 0.6290 0.6200
10.087000 0.6140 0.6090 0.6000 0.5880 0.5780
10.120882 0.5730 0.5680 0.5630 0.5620 0.5580
10.155000 0.5570 0.5500 0.5480 0.5380 0.5300
10.188882 0.5130 0.5010 0.4890 0.4680 0.4410
10.223000 0.4260 0.4040 0.3790 0.3500 0.3230
10.256882 0.3020 0.2860 0.2750 0.2710 0.2710
10.290000 0.2750 0.2900 0.3050 0.3200 0.3380
10.323882 0.3520 0.3640 0.3720 0.3770 0.3790
10.358000 0.3740 0.3690 0.3520 0.3350 0.3150
10.391882 0.3020 0.2550 0.2060 0.1860 0.1710
10.426000 0.1560 0.1350 0.1190 0.1020 0.0900
10.459882 0.0800 0.0700 0.0650 0.0630 0.0630
10.493000 0.0630 0.0650 0.0670 0.0700 0.0880
10.526882 0.0980 0.1050 0.1190 0.1300 0.1490
10.561000 0.1660 0.1820 0.2010 0.2190 0.2290
10.594882 0.2460 0.2630 0.2800 0.2980 0.3050
10.629000 0.3200 0.3380 0.3520 0.3700 0.3900
10.662882 0.4090 0.4360 0.4610 0.4890 0.5380
10.697000 0.5580 0.5720 0.5880 0.6000 0.6100
10.730882 0.6190 0.6270 0.6320 0.6390 0.6400
10.764000 0.6420 0.6420 0.6400 0.6340 0.6290
10.797882 0.6170 0.6040 0.6000 0.5950 0.5870
10.832000 0.5800 0.5780 0.5770 0.5770 0.5770
10.865882 0.5780 0.5830 0.5920 0.6020 0.6170
10.900000 0.6290 0.6450 0.6570 0.6720 0.6870
10.933882 0.6990 0.7180 0.7280 0.7390 0.7510
10.968000 0.7600 0.7660 0.7700 0.7710 0.7730
11.001882 0.7780 0.7800 0.7800 0.7800 0.7800
11.035000 0.7800 0.7800 0.7780 0.7730 0.7680
11.068882 0.7610 0.7530 0.7480 0.7380 0.7290
11.103000 0.7180 0.7010 0.6820 0.6690 0.6540
11.136882 0.6400 0.6290 0.6120 0.6020 0.5980
11.171000 0.5880 0.5820 0.5770 0.5750 0.5750
11.204882 0.5770 0.5780 0.5820 0.5880 0.5980
11.239000 0.6040 0.6120 0.6200 0.6270 0.6320
11.272882 0.6370 0.6390 0.6390 0.6390 0.6390
11.306000 0.6370 0.6320 0.6270 0.6190 0.6100
11.339882 0.6020 0.5980 0.5850 0.5780 0.5720
11.374000 0.5680 0.5630 0.5620 0.5600 0.5620
11.407882 0.5630 0.5680 0.5700 0.5780 0.5880
11.442000 0.6000 0.6020 0.6090 0.6140 0.6170
11.475882 0.6200 0.6220 0.6220 0.6240 0.6240
11.509000 0.6240 0.6240 0.6250 0.6270 0.6290
11.542882 0.6340 0.6390 0.6470 0.6490 0.6510
11.577000 0.6520 0.6560 0.6570 0.6590 0.6590
11.610882 0.6590 0.6590 0.6590 0.6590 0.6590
11.645000 0.6590 0.6590 0.6590 0.6610 0.6610
11.678882 0.6610 0.6610 0.6620 0.6640 0.6660
11.713000 0.6670 0.6690 0.6710 0.6760 0.6770
11.746882 0.6790 0.6820 0.6860 0.6870 0.6920
11.780000 0.6960 0.6970 0.6990 0.7040 0.7090
11.813882 0.7110 0.7160 0.7180 0.7210 0.7260
11.848000 0.7290 0.7330 0.7380 0.7410 0.7430
11.881882 0.7440 0.7480 0.7480 0.7500 0.7500
11.916000 0.7500 0.7480 0.7480 0.7460 0.7440
11.949882 0.7410 0.7380 0.7360 0.7360 0.7330
11.984000 0.7310 0.7190 0.7080 0.6940 0.6790
12.017882 0.6690 0.6590 0.6450 0.6290 0.6100
12.051000 0.5900 0.5680 0.5300 0.5150 0.5010
12.084882 0.4880 0.4610 0.4310 0.4040 0.3720
12.119000 0.3350 0.3030 0.2660 0.2340 0.2010
12.152882 0.1810 0.1640 0.1520 0.1490 0.1510
12.187000 0.1620 0.1960 0.2360 0.2880 0.3350
12.220882 0.3690 0.4160 0.4590 0.4960 0.5680
12.254000 0.5980 0.6100 0.6290 0.6390 0.6570
12.287882 0.6690 0.6790 0.6890 0.6990 0.7040
12.322000 0.7090 0.7160 0.7190 0.7230 0.7280
12.355882 0.7330 0.7380 0.7410 0.7460 0.7480
12.390000 0.7500 0.7510 0.7530 0.7530 0.7550
12.423882 0.7550 0.7550 0.7550 0.7550 0.7530
12.458000 0.7530 0.7510 0.7510 0.7500 0.7480
12.491882 0.7480 0.7460 0.7410 0.7390 0.7360
12.525000 0.7290 0.7260 0.7180 0.7080 0.6990
12.558882 0.6820 0.6710 0.6610 0.6450 0.6350
12.593000 0.6300 0.6200 0.6150 0.6090 0.6070
12.626882 0.6070 0.6090 0.6100 0.6200 0.6290
12.661000 0.6490 0.6590 0.6690 0.6810 0.6970
12.694882 0.7010 0.7080 0.7160 0.7210 0.7280
12.729000 0.7310 0.7380 0.7480 0.7480 0.7500
12.762882 0.7510 0.7510 0.7530 0.7530 0.7550
12.796000 0.7550 0.7560 0.7560 0.7560 0.7560
12.829882 0.7560 0.7560 0.7560 0.7560 0.7560
12.864000 0.7560 0.7550 0.7530 0.7500 0.7480
12.897882 0.7480 0.7430 0.7410 0.7380 0.7360
12.932000 0.7310 0.7280 0.7260 0.7180 0.7090
12.965882 0.7040 0.7010 0.6910 0.6820 0.6720
13.000000 0.6640 0.6540 0.6490 0.6390 0.6270
13.033882 0.6170 0.6070 0.5950 0.5770 0.5680
13.067000 0.5500 0.5350 0.5110 0.5000 0.4890
13.100882 0.4790 0.4590 0.4390 0.4120 0.3940
13.135000 0.3690 0.3480 0.3120 0.2980 0.2750
13.168882 0.2500 0.2340 0.2290 0.2080 0.1910
13.203000 0.1810 0.1740 0.1720 0.1710 0.1710
13.236882 0.1720 0.1740 0.1790 0.1840 0.1910
13.270000 0.1990 0.2030 0.2090 0.2180 0.2210
13.303882 0.2280 0.2330 0.2390 0.2500 0.2600
13.338000 0.2780 0.2900 0.3080 0.3280 0.3470
13.371882 0.3640 0.3800 0.3940 0.4290 0.4680
13.406000 0.4890 0.5150 0.5300 0.5500 0.5620
13.439882 0.5770 0.5900 0.6000 0.6120 0.6270
13.474000 0.6370 0.6490 0.6570 0.6670 0.6760
13.507882 0.6810 0.6870 0.6960 0.6970 0.6990
13.541000 0.7010 0.7060 0.7080 0.7090 0.7090
13.574882 0.7090 0.7080 0.7080 0.7060 0.7040
13.609000 0.7010 0.6970 0.6870 0.6770 0.6670
13.642882 0.6570 0.6490 0.6390 0.6270 0.6190
13.677000 0.6100 0.6020 0.5980 0.5970 0.5970
13.710882 0.5980 0.6020 0.6120 0.6270 0.6320
13.745000 0.6470 0.6570 0.6660 0.6710 0.6790
13.778882 0.6820 0.6890 0.6970 0.6990 0.6990
13.812000 0.7010 0.7010 0.7010 0.7030 0.7030
13.845882 0.7030 0.7030 0.7030 0.7030 0.7010
13.880000 0.6990 0.6970 0.6940 0.6940 0.6920
13.913882 0.6890 0.6870 0.6840 0.6810 0.6770
13.948000 0.6740 0.6710 0.6690 0.6670 0.6640
13.981882 0.6610 0.6570 0.6510 0.6470 0.6470
14.015000 0.6400 0.6370 0.6300 0.6270 0.6240
14.048882 0.6190 0.6170 0.6140 0.6100 0.6070
14.083000 0.6020 0.6000 0.5980 0.5970 0.5880
14.116882 0.5850 0.5820 0.5780 0.5770 0.5720
14.151000 0.5700 0.5670 0.5620 0.5600 0.5580
14.184882 0.5550 0.5430 0.5350 0.5310 0.5280
14.219000 0.5210 0.5110 0.5060 0.5000 0.4940
14.252882 0.4880 0.4780 0.4680 0.4510 0.4390
14.286000 0.4220 0.4070 0.3940 0.3770 0.3620
14.319882 0.3480 0.3370 0.3180 0.3000 0.2810
14.354000 0.2680 0.2510 0.2390 0.2290 0.2260
14.387882 0.2190 0.2130 0.2110 0.2090 0.2090
14.422000 0.2090 0.2110 0.2180 0.2240 0.2310
14.455882 0.2480 0.2580 0.2750 0.2880 0.3030
14.490000 0.3180 0.3350 0.3500 0.3700 0.3940
14.523882 0.4020 0.4210 0.4370 0.4510 0.4630
14.557000 0.4780 0.4860 0.4980 0.5150 0.5230
14.590882 0.5350 0.5410 0.5480 0.5500 0.5530
14.625000 0.5580 0.5620 0.5670 0.5680 0.5720
14.658882 0.5770 0.5780 0.5780 0.5820 0.5830
14.693000 0.5850 0.5850 0.5850 0.5870 0.5870
14.726882 0.5870 0.5880 0.5880 0.5880 0.5880
14.761000 0.5880 0.5880 0.5880 0.5880 0.5880
14.794882 0.5870 0.5870 0.5870 0.5870 0.5870
14.828000 0.5850 0.5850 0.5850 0.5850 0.5830
14.861882 0.5820 0.5820 0.5780 0.5770 0.5770
14.896000 0.5770 0.5750 0.5730 0.5720 0.5720
14.929882 0.5700 0.5700 0.5700 0.5720 0.5720
14.964000 0.5720 0.5720 0.5700 0.5700 0.5680
14.997882 0.5670 0.5650 0.5630 0.5620 0.5620
15.031000 0.5600 0.5580 0.5570 0.5550 0.5520
15.064882 0.5480 0.5460 0.5410 0.5400 0.5360
15.099000 0.5330 0.5300 0.5280 0.5230 0.5210
15.132882 0.5180 0.5160 0.5130 0.5100 0.5060
15.167000 0.5010 0.5010 0.5000 0.4980 0.4960
15.200882 0.4890 0.4860 0.4830 0.4810 0.4780
15.235000 0.4760 0.4730 0.4710 0.4690 0.4690
15.268882 0.4690 0.4680 0.4680 0.4680 0.4680
15.302000 0.4680 0.4680 0.4680 0.4680 0.4690
15.335882 0.4690 0.4690 0.4710 0.4730 0.4730
15.370000 0.4740 0.4760 0.4780 0.4780 0.4790
15.403882 0.4790 0.4790 0.4780 0.4780 0.4780
15.438000 0.4790 0.4790 0.4790 0.4810 0.4810
15.471882 0.4810 0.4810 0.4790 0.4790 0.4790
15.506000 0.4790 0.4780 0.4780 0.4780 0.4760
15.539882 0.4760 0.4760 0.4740 0.4730 0.4710
15.573000 0.4710 0.4690 0.4690 0.4680 0.4660
15.606882 0.4660 0.4640 0.4640 0.4630 0.4630
15.641000 0.4630 0.4610 0.4610 0.4610 0.4610
15.674882 0.4610 0.4610 0.4610 0.4590 0.4590
15.709000 0.4580 0.4580 0.4580 0.4560 0.4560
15.742882 0.4560 0.4530 0.4510 0.4510 0.4490
15.776000 0.4470 0.4470 0.4470 0.4460 0.4460
15.809882 0.4440 0.4440 0.4420 0.4420 0.4420
15.844000 0.4420 0.4420 0.4440 0.4440 0.4460
15.877882 0.4460 0.4470 0.4490 0.4510 0.4530
15.912000 0.4540 0.4560 0.4580 0.4590 0.4610
15.945882 0.4610 0.4630 0.4630 0.4630 0.4630
15.980000 0.4630 0.4610
##END=
