##TITLE=5-Dehydroquinic acid
##JCAMP-DX=4.24
##DATA TYPE=INFRARED SPECTRUM
##CLASS=COBLENTZ III
##ORIGIN=WESTERN REGIONAL RES. USDA
##OWNER=Copyright (C) 1987 by the Coblentz Society
Collection (C) 2018 copyright by the U.S. Secretary of Commerce
on behalf of the United States of America. All rights reserved.
##DATE=1967/03/12
##NAMES=1,3,4-trihydroxy-5-oxocyclohexanecarboxylic acid
CYCLOHEXANECARBOXYLIC ACID, 1,3,4-TRIHYDROXY-5-OXO-
##MOLFORM=C7 H10 O6
##SOURCE REFERENCE=COBLENTZ NO. 9879
##$NIST ID=B6009879
##$NIST SOURCE=COBLENTZ
##$NIST IMAGE=cob9879
##SPECTROMETER/DATA SYSTEM=CARY 90 (GRATING)
##INSTRUMENT PARAMETERS=GRATING CHANGES: 3000, 2000, 1200 CM^-^1
##STATE=SOLID (NUJOL MULL)
$$SPECTRAL CONTAMINATION DUE TO OIL AROUND 3000 AND 1453 CM^-^1
$$ SPECTRAL FEATURE AT 1997 CM^-^1 IS AN ARTIFACT CAUSED BY GRATING CHANGE
##SAMPLING PROCEDURE=TRANSMISSION
##RESOLUTION=2
##DATA PROCESSING=DIGITIZED BY COBLENTZ SOCIETY (BATCH II) FROM HARD COPY
##XUNITS=1/CM
##YUNITS=TRANSMITTANCE
##XFACTOR=1.0
##YFACTOR=1
##FIRSTX=449
##LASTX=4000
##FIRSTY=0.4988
##MAXX=4000
##MINX=449
##MAXY=0.9671
##MINY=0.0095
##NPOINTS=3552
##XYDATA=(X++(Y..Y))
449.000000 0.4988 0.5045 0.5103 0.5166 0.5230
454.000000 0.5285 0.5339 0.5409 0.5414 0.5433
459.000000 0.5443 0.5446 0.5446 0.5445 0.5437
464.000000 0.5425 0.5412 0.5383 0.5352 0.5326
469.000000 0.5297 0.5240 0.5195 0.5101 0.4753
474.000000 0.4626 0.4623 0.4662 0.4679 0.4771
479.000000 0.4832 0.4977 0.5057 0.5134 0.5191
484.000000 0.5247 0.5306 0.5357 0.5387 0.5417
489.000000 0.5446 0.5468 0.5489 0.5510 0.5528
494.000000 0.5545 0.5563 0.5580 0.5594 0.5600
499.000000 0.5605 0.5611 0.5617 0.5623 0.5633
504.000000 0.5644 0.5655 0.5665 0.5671 0.5676
509.000000 0.5682 0.5687 0.5693 0.5695 0.5771
514.000000 0.5698 0.5700 0.5700 0.5698 0.5690
519.000000 0.5671 0.5652 0.5633 0.5609 0.5583
524.000000 0.5543 0.5500 0.5458 0.5419 0.5402
529.000000 0.5344 0.5426 0.5464 0.5495 0.5524
534.000000 0.5550 0.5576 0.5596 0.5615 0.5634
539.000000 0.5648 0.5656 0.5664 0.5672 0.5671
544.000000 0.5668 0.5670 0.5644 0.5622 0.5591
549.000000 0.5555 0.5519 0.5465 0.5396 0.5347
554.000000 0.5343 0.5340 0.5341 0.5348 0.5355
559.000000 0.5362 0.5370 0.5376 0.5382 0.5389
564.000000 0.5388 0.5385 0.5383 0.5380 0.5369
569.000000 0.5359 0.5348 0.5336 0.5313 0.5290
574.000000 0.5262 0.5264 0.5265 0.5284 0.5304
579.000000 0.5325 0.5349 0.5374 0.5398 0.5417
584.000000 0.5436 0.5455 0.5473 0.5484 0.5492
589.000000 0.5501 0.5502 0.5500 0.5499 0.5498
594.000000 0.5497 0.5486 0.5474 0.5460 0.5434
599.000000 0.5407 0.5373 0.5321 0.5269 0.5213
604.000000 0.5158 0.5098 0.5032 0.4966 0.4897
609.000000 0.4819 0.4742 0.4690 0.4657 0.4623
614.000000 0.4601 0.4582 0.4568 0.4566 0.4567
619.000000 0.4492 0.4227 0.3962 0.3698 0.3433
624.000000 0.3168 0.2903 0.2638 0.2477 0.2473
629.000000 0.2483 0.2828 0.3176 0.3523 0.3870
634.000000 0.4169 0.4267 0.4334 0.4389 0.4474
639.000000 0.4817 0.5252 0.5377 0.5491 0.5583
644.000000 0.5676 0.5761 0.5833 0.5904 0.5973
649.000000 0.6038 0.6103 0.6168 0.6234 0.6299
654.000000 0.6364 0.6417 0.6467 0.6516 0.6566
659.000000 0.6622 0.6679 0.6737 0.6794 0.6830
664.000000 0.6867 0.6903 0.6939 0.6965 0.6991
669.000000 0.7018 0.7044 0.7070 0.7097 0.7123
674.000000 0.7150 0.7176 0.7202 0.7228 0.7268
679.000000 0.7288 0.7308 0.7328 0.7348 0.7368
684.000000 0.7388 0.7407 0.7426 0.7445 0.7461
689.000000 0.7474 0.7487 0.7494 0.7498 0.7500
694.000000 0.7488 0.7493 0.7489 0.7473 0.7452
699.000000 0.7430 0.7405 0.7376 0.7328 0.7268
704.000000 0.7196 0.7130 0.7070 0.7010 0.6949
709.000000 0.6882 0.6814 0.6723 0.6622 0.6501
714.000000 0.6332 0.6024 0.4788 0.4107 0.3425
719.000000 0.2744 0.2062 0.1720 0.1733 0.2213
724.000000 0.2771 0.3329 0.3887 0.4445 0.5003
729.000000 0.5561 0.6116 0.6281 0.6541 0.6648
734.000000 0.6754 0.6849 0.6939 0.7034 0.7136
739.000000 0.7227 0.7300 0.7371 0.7434 0.7496
744.000000 0.7526 0.7556 0.7575 0.7587 0.7597
749.000000 0.7581 0.7590 0.7583 0.7575 0.7568
754.000000 0.7560 0.7552 0.7543 0.7525 0.7502
759.000000 0.7475 0.7448 0.7412 0.7375 0.7344
764.000000 0.7314 0.7294 0.7290 0.7291 0.7292
769.000000 0.7296 0.7293 0.7209 0.7125 0.7041
774.000000 0.7014 0.7015 0.7126 0.7242 0.7357
779.000000 0.7441 0.7495 0.7546 0.7594 0.7609
784.000000 0.7619 0.7626 0.7630 0.7633 0.7640
789.000000 0.7647 0.7654 0.7671 0.7688 0.7705
794.000000 0.7720 0.7727 0.7726 0.7714 0.7702
799.000000 0.7687 0.7665 0.7633 0.7601 0.7540
804.000000 0.7456 0.7366 0.7269 0.7139 0.7000
809.000000 0.6862 0.6723 0.6585 0.6396 0.6393
814.000000 0.6506 0.6714 0.6921 0.7129 0.7337
819.000000 0.7544 0.7642 0.7689 0.7711 0.7724
824.000000 0.7737 0.7738 0.7738 0.7721 0.7733
829.000000 0.7726 0.7718 0.7706 0.7694 0.7679
834.000000 0.7659 0.7636 0.7602 0.7542 0.7468
839.000000 0.7391 0.7281 0.7094 0.6801 0.6508
844.000000 0.6215 0.5922 0.5814 0.5835 0.6045
849.000000 0.6343 0.6640 0.6938 0.7189 0.7257
854.000000 0.7320 0.7381 0.7411 0.7435 0.7456
859.000000 0.7425 0.7463 0.7436 0.7409 0.7382
864.000000 0.7349 0.7305 0.7260 0.7203 0.7132
869.000000 0.7047 0.6962 0.6668 0.6374 0.6203
874.000000 0.6213 0.6334 0.6415 0.6497 0.6578
879.000000 0.6660 0.6741 0.6808 0.6776 0.6753
884.000000 0.6715 0.6671 0.6626 0.6581 0.6531
889.000000 0.6475 0.6419 0.6361 0.6297 0.6233
894.000000 0.6169 0.6105 0.6030 0.5951 0.5872
899.000000 0.5792 0.5710 0.5628 0.5546 0.5464
904.000000 0.5384 0.5304 0.5224 0.5137 0.5048
909.000000 0.4977 0.4913 0.4857 0.4814 0.4804
914.000000 0.4797 0.4753 0.4806 0.4814 0.4828
919.000000 0.4863 0.4961 0.5059 0.5157 0.5255
924.000000 0.5352 0.5450 0.5548 0.5646 0.5744
929.000000 0.5837 0.5903 0.5918 0.5927 0.5839
934.000000 0.5713 0.5587 0.5461 0.5334 0.5271
939.000000 0.5257 0.5591 0.5968 0.6336 0.6465
944.000000 0.6575 0.6680 0.6784 0.6882 0.6960
949.000000 0.7039 0.7071 0.7100 0.7130 0.7151
954.000000 0.7163 0.7175 0.7187 0.7197 0.7193
959.000000 0.7199 0.7193 0.7188 0.7171 0.7146
964.000000 0.7114 0.7081 0.7041 0.6982 0.6894
969.000000 0.6785 0.6621 0.6337 0.6043 0.5749
974.000000 0.5455 0.5161 0.4867 0.4573 0.4279
979.000000 0.3985 0.3691 0.3397 0.3109 0.3098
984.000000 0.3237 0.3513 0.3789 0.4065 0.4341
989.000000 0.4617 0.4893 0.5169 0.5302 0.5299
994.000000 0.5288 0.5261 0.5149 0.4903 0.4658
999.000000 0.4412 0.4167 0.3922 0.3676 0.3636
1004.000000 0.3624 0.3879 0.4325 0.4771 0.5217
1009.000000 0.5663 0.6109 0.6439 0.6514 0.6580
1014.000000 0.6637 0.6686 0.6717 0.6700 0.6718
1019.000000 0.6707 0.6674 0.6635 0.6583 0.6539
1024.000000 0.6473 0.6358 0.6145 0.5917 0.5689
1029.000000 0.5461 0.5232 0.5004 0.4776 0.4548
1034.000000 0.4320 0.4092 0.3864 0.3636 0.3408
1039.000000 0.2846 0.2584 0.2322 0.2060 0.1798
1044.000000 0.1536 0.1273 0.1011 0.0901 0.0911
1049.000000 0.1081 0.2192 0.3303 0.4414 0.5368
1054.000000 0.5590 0.5874 0.6104 0.6253 0.6329
1059.000000 0.6381 0.6391 0.6391 0.6386 0.6360
1064.000000 0.6288 0.6224 0.6139 0.6001 0.5804
1069.000000 0.5576 0.5177 0.4700 0.4223 0.3746
1074.000000 0.3269 0.2792 0.2388 0.2055 0.1914
1079.000000 0.1767 0.1612 0.1397 0.1043 0.0919
1084.000000 0.0893 0.0894 0.0968 0.1094 0.1219
1089.000000 0.1323 0.1333 0.1247 0.1108 0.0969
1094.000000 0.0830 0.0690 0.0551 0.0412 0.0405
1099.000000 0.0410 0.0672 0.0923 0.1174 0.1425
1104.000000 0.1662 0.1818 0.1961 0.2109 0.2257
1109.000000 0.2405 0.2666 0.2676 0.2664 0.2535
1114.000000 0.2405 0.2276 0.2147 0.2018 0.1893
1119.000000 0.1916 0.2243 0.2571 0.2898 0.3226
1124.000000 0.3554 0.3881 0.4209 0.4536 0.4864
1129.000000 0.5192 0.5668 0.6056 0.6235 0.6392
1134.000000 0.6480 0.6568 0.6656 0.6753 0.6849
1139.000000 0.6923 0.6991 0.7047 0.7088 0.7129
1144.000000 0.7169 0.7189 0.7209 0.7192 0.7228
1149.000000 0.7226 0.7206 0.7176 0.7133 0.7082
1154.000000 0.7030 0.6974 0.6918 0.6795 0.6657
1159.000000 0.6518 0.6380 0.6241 0.6173 0.6154
1164.000000 0.6186 0.6217 0.6299 0.6391 0.6483
1169.000000 0.6575 0.6667 0.6759 0.6851 0.6933
1174.000000 0.6961 0.6963 0.6961 0.6964 0.6942
1179.000000 0.6923 0.6898 0.6850 0.6796 0.6743
1184.000000 0.6691 0.6639 0.6587 0.6533 0.6478
1189.000000 0.6420 0.6344 0.6267 0.6186 0.6093
1194.000000 0.5999 0.5876 0.5734 0.5509 0.5158
1199.000000 0.4806 0.4454 0.4102 0.3750 0.3398
1204.000000 0.3046 0.2695 0.2343 0.1991 0.1880
1209.000000 0.1871 0.1882 0.1939 0.2034 0.2128
1214.000000 0.2222 0.2317 0.2411 0.2506 0.2538
1219.000000 0.2544 0.2285 0.1947 0.1609 0.1407
1224.000000 0.1304 0.1232 0.1159 0.1089 0.1018
1229.000000 0.0940 0.0851 0.0784 0.0726 0.0668
1234.000000 0.0614 0.0561 0.0510 0.0465 0.0443
1239.000000 0.0436 0.0437 0.0499 0.0688 0.0877
1244.000000 0.1066 0.1255 0.1444 0.1633 0.1822
1249.000000 0.2012 0.2201 0.2390 0.2579 0.2768
1254.000000 0.2957 0.3146 0.3335 0.3524 0.3713
1259.000000 0.3718 0.3720 0.3689 0.3613 0.3466
1264.000000 0.3319 0.3171 0.3024 0.2877 0.2729
1269.000000 0.2582 0.2435 0.2287 0.2140 0.1992
1274.000000 0.1863 0.1853 0.1856 0.1830 0.2207
1279.000000 0.2507 0.2807 0.3106 0.3406 0.3706
1284.000000 0.4005 0.4305 0.4604 0.4904 0.4962
1289.000000 0.4959 0.4914 0.4479 0.4224 0.3970
1294.000000 0.3715 0.3592 0.3548 0.3504 0.3460
1299.000000 0.3414 0.3368 0.3323 0.3253 0.3208
1304.000000 0.3187 0.3185 0.3189 0.3207 0.3198
1309.000000 0.3531 0.3748 0.3964 0.4181 0.4398
1314.000000 0.4614 0.4831 0.5047 0.5321 0.5499
1319.000000 0.5799 0.5932 0.6072 0.6290 0.6380
1324.000000 0.6463 0.6520 0.6576 0.6624 0.6654
1329.000000 0.6679 0.6684 0.6680 0.6672 0.6651
1334.000000 0.6624 0.6596 0.6571 0.6552 0.6439
1339.000000 0.6319 0.6198 0.6078 0.5957 0.5837
1344.000000 0.5716 0.5596 0.5475 0.5355 0.5234
1349.000000 0.5114 0.4993 0.4873 0.4688 0.4656
1354.000000 0.4640 0.4640 0.4640 0.4723 0.4831
1359.000000 0.4938 0.5046 0.5094 0.5088 0.5094
1364.000000 0.4909 0.4832 0.4813 0.4792 0.4762
1369.000000 0.4479 0.4027 0.3574 0.3121 0.2825
1374.000000 0.2728 0.2676 0.2658 0.2649 0.2655
1379.000000 0.2786 0.2907 0.3029 0.3151 0.3272
1384.000000 0.3394 0.3497 0.3525 0.3547 0.3564
1389.000000 0.3579 0.3628 0.3764 0.3909 0.4021
1394.000000 0.4157 0.4297 0.4364 0.4386 0.4400
1399.000000 0.4292 0.4172 0.4051 0.3930 0.3809
1404.000000 0.3729 0.3740 0.3729 0.3781 0.3939
1409.000000 0.4098 0.4257 0.4416 0.4575 0.4734
1414.000000 0.4893 0.5052 0.5211 0.5370 0.5529
1419.000000 0.5688 0.5783 0.5798 0.5775 0.5656
1424.000000 0.5364 0.5073 0.4782 0.4491 0.4199
1429.000000 0.3908 0.3617 0.3326 0.3321 0.3322
1434.000000 0.3428 0.3534 0.3640 0.3746 0.3852
1439.000000 0.3874 0.3872 0.3863 0.3762 0.3637
1444.000000 0.3512 0.3387 0.3262 0.3136 0.3011
1449.000000 0.2886 0.2768 0.2757 0.2757 0.2757
1454.000000 0.2784 0.2833 0.2902 0.2987 0.3072
1459.000000 0.3131 0.3189 0.3269 0.3359 0.3442
1464.000000 0.3525 0.3662 0.3807 0.3946 0.4068
1469.000000 0.4715 0.5286 0.5857 0.6186 0.6327
1474.000000 0.6467 0.6573 0.6655 0.6745 0.6883
1479.000000 0.7172 0.7234 0.7296 0.7326 0.7356
1484.000000 0.7380 0.7399 0.7418 0.7437 0.7451
1489.000000 0.7464 0.7478 0.7496 0.7515 0.7534
1494.000000 0.7556 0.7596 0.7636 0.7674 0.7704
1499.000000 0.7734 0.7765 0.7795 0.7826 0.7856
1504.000000 0.7883 0.7907 0.7931 0.7955 0.7979
1509.000000 0.8002 0.8055 0.8118 0.8182 0.8216
1514.000000 0.8246 0.8275 0.8302 0.8314 0.8326
1519.000000 0.8338 0.8351 0.8363 0.8369 0.8369
1524.000000 0.8369 0.8370 0.8370 0.8400 0.8369
1529.000000 0.8368 0.8370 0.8379 0.8389 0.8398
1534.000000 0.8408 0.8405 0.8402 0.8399 0.8383
1539.000000 0.8367 0.8347 0.8322 0.8287 0.8243
1544.000000 0.8157 0.8100 0.8079 0.8117 0.8158
1549.000000 0.8195 0.8235 0.8279 0.8331 0.8383
1554.000000 0.8449 0.8517 0.8562 0.8589 0.8616
1559.000000 0.8641 0.8652 0.8664 0.8668 0.8668
1564.000000 0.8668 0.8667 0.8667 0.8666 0.8666
1569.000000 0.8666 0.8663 0.8659 0.8656 0.8652
1574.000000 0.8648 0.8645 0.8643 0.8641 0.8639
1579.000000 0.8667 0.8636 0.8634 0.8630 0.8625
1584.000000 0.8620 0.8615 0.8611 0.8606 0.8601
1589.000000 0.8596 0.8591 0.8587 0.8580 0.8570
1594.000000 0.8559 0.8549 0.8534 0.8514 0.8494
1599.000000 0.8475 0.8455 0.8436 0.8426 0.8415
1604.000000 0.8404 0.8394 0.8389 0.8384 0.8379
1609.000000 0.8372 0.8363 0.8355 0.8347 0.8339
1614.000000 0.8331 0.8322 0.8305 0.8289 0.8250
1619.000000 0.8201 0.8138 0.8076 0.8012 0.7947
1624.000000 0.7881 0.7816 0.7757 0.7698 0.7640
1629.000000 0.7579 0.7518 0.7457 0.7391 0.7320
1634.000000 0.7248 0.7179 0.7106 0.7126 0.7130
1639.000000 0.7143 0.7157 0.7183 0.7211 0.7243
1644.000000 0.7275 0.7310 0.7344 0.7378 0.7412
1649.000000 0.7444 0.7462 0.7481 0.7498 0.7470
1654.000000 0.7490 0.7484 0.7477 0.7460 0.7439
1659.000000 0.7410 0.7379 0.7345 0.7312 0.7277
1664.000000 0.7243 0.7208 0.7174 0.7137 0.7101
1669.000000 0.7059 0.6976 0.6905 0.6824 0.6732
1674.000000 0.6637 0.6542 0.6454 0.6381 0.6309
1679.000000 0.6239 0.6183 0.6128 0.6070 0.6009
1684.000000 0.5948 0.5884 0.5790 0.5696 0.5600
1689.000000 0.5501 0.5402 0.5322 0.5248 0.5175
1694.000000 0.5089 0.5000 0.4886 0.4602 0.4402
1699.000000 0.3969 0.3636 0.3418 0.3225 0.3033
1704.000000 0.2840 0.2648 0.2455 0.2263 0.2070
1709.000000 0.1878 0.1685 0.1493 0.1300 0.1108
1714.000000 0.0931 0.0590 0.0504 0.0414 0.0316
1719.000000 0.0233 0.0181 0.0150 0.0126 0.0110
1724.000000 0.0104 0.0101 0.0100 0.0095 0.0098
1729.000000 0.0101 0.0104 0.0107 0.0111 0.0117
1734.000000 0.0123 0.0129 0.0135 0.0147 0.0164
1739.000000 0.0205 0.0264 0.0367 0.0648 0.0929
1744.000000 0.1210 0.1491 0.1772 0.2054 0.2335
1749.000000 0.2616 0.2897 0.3178 0.3459 0.3740
1754.000000 0.4032 0.4257 0.4354 0.4451 0.4548
1759.000000 0.4726 0.4828 0.4926 0.5045 0.5164
1764.000000 0.5388 0.5526 0.5642 0.5743 0.5815
1769.000000 0.5883 0.5954 0.6026 0.6098 0.6170
1774.000000 0.6208 0.6243 0.6279 0.6314 0.6346
1779.000000 0.6376 0.6406 0.6436 0.6466 0.6493
1784.000000 0.6520 0.6547 0.6574 0.6601 0.6626
1789.000000 0.6649 0.6671 0.6694 0.6717 0.6740
1794.000000 0.6762 0.6784 0.6806 0.6828 0.6850
1799.000000 0.6875 0.6899 0.6923 0.6948 0.6972
1804.000000 0.6996 0.7021 0.7046 0.7070 0.7095
1809.000000 0.7119 0.7147 0.7176 0.7205 0.7234
1814.000000 0.7263 0.7292 0.7320 0.7345 0.7371
1819.000000 0.7397 0.7423 0.7448 0.7474 0.7500
1824.000000 0.7521 0.7541 0.7561 0.7581 0.7601
1829.000000 0.7621 0.7640 0.7659 0.7678 0.7697
1834.000000 0.7716 0.7735 0.7754 0.7775 0.7795
1839.000000 0.7815 0.7836 0.7857 0.7877 0.7894
1844.000000 0.7909 0.7925 0.7940 0.7956 0.7971
1849.000000 0.7987 0.8002 0.8017 0.8032 0.8047
1854.000000 0.8063 0.8079 0.8095 0.8111 0.8127
1859.000000 0.8143 0.8158 0.8173 0.8188 0.8203
1864.000000 0.8218 0.8233 0.8248 0.8260 0.8272
1869.000000 0.8285 0.8297 0.8309 0.8322 0.8334
1874.000000 0.8345 0.8353 0.8362 0.8370 0.8378
1879.000000 0.8386 0.8395 0.8403 0.8411 0.8418
1884.000000 0.8424 0.8430 0.8436 0.8443 0.8449
1889.000000 0.8455 0.8461 0.8468 0.8474 0.8477
1894.000000 0.8480 0.8483 0.8486 0.8489 0.8492
1899.000000 0.8495 0.8544 0.8501 0.8503 0.8505
1904.000000 0.8507 0.8509 0.8511 0.8514 0.8518
1909.000000 0.8522 0.8526 0.8530 0.8534 0.8537
1914.000000 0.8540 0.8542 0.8545 0.8548 0.8551
1919.000000 0.8554 0.8557 0.8558 0.8558 0.8559
1924.000000 0.8560 0.8560 0.8561 0.8559 0.8556
1929.000000 0.8552 0.8549 0.8546 0.8542 0.8537
1934.000000 0.8532 0.8527 0.8522 0.8516 0.8511
1939.000000 0.8506 0.8501 0.8495 0.8490 0.8485
1944.000000 0.8479 0.8473 0.8467 0.8461 0.8456
1949.000000 0.8450 0.8444 0.8438 0.8433 0.8427
1954.000000 0.8424 0.8422 0.8420 0.8418 0.8416
1959.000000 0.8414 0.8415 0.8422 0.8428 0.8434
1964.000000 0.8442 0.8450 0.8459 0.8467 0.8471
1969.000000 0.8474 0.8477 0.8480 0.8483 0.8486
1974.000000 0.8487 0.8487 0.8488 0.8488 0.8489
1979.000000 0.8490 0.8490 0.8489 0.8488 0.8487
1984.000000 0.8486 0.8485 0.8484 0.8483 0.8481
1989.000000 0.8480 0.8478 0.8477 0.8475 0.8475
1994.000000 0.8475 0.8475 0.8475 0.8583 0.8699
1999.000000 0.8815 0.8930 0.9046 0.9162 0.9189
2004.000000 0.9217 0.9214 0.9211 0.9208 0.9206
2009.000000 0.9204 0.9202 0.9201 0.9201 0.9199
2014.000000 0.9186 0.9197 0.9196 0.9194 0.9193
2019.000000 0.9189 0.9186 0.9182 0.9179 0.9175
2024.000000 0.9172 0.9168 0.9165 0.9162 0.9159
2029.000000 0.9155 0.9152 0.9148 0.9145 0.9143
2034.000000 0.9141 0.9139 0.9137 0.9134 0.9132
2039.000000 0.9130 0.9128 0.9125 0.9123 0.9120
2044.000000 0.9118 0.9114 0.9111 0.9107 0.9104
2049.000000 0.9100 0.9097 0.9093 0.9090 0.9086
2054.000000 0.9083 0.9079 0.9076 0.9072 0.9069
2059.000000 0.9065 0.9062 0.9058 0.9055 0.9051
2064.000000 0.9048 0.9044 0.9041 0.9037 0.9034
2069.000000 0.9030 0.9027 0.9023 0.9020 0.9016
2074.000000 0.9013 0.9009 0.9006 0.9000 0.8995
2079.000000 0.8989 0.8984 0.8978 0.8973 0.8968
2084.000000 0.8963 0.8957 0.8952 0.8946 0.8940
2089.000000 0.8934 0.8929 0.8923 0.8917 0.8911
2094.000000 0.8906 0.8899 0.8893 0.8886 0.8879
2099.000000 0.8871 0.8864 0.8857 0.8850 0.8843
2104.000000 0.8836 0.8829 0.8822 0.8815 0.8808
2109.000000 0.8801 0.8794 0.8787 0.8780 0.8773
2114.000000 0.8766 0.8759 0.8752 0.8742 0.8733
2119.000000 0.8722 0.8711 0.8700 0.8689 0.8678
2124.000000 0.8667 0.8656 0.8645 0.8634 0.8623
2129.000000 0.8609 0.8595 0.8581 0.8567 0.8553
2134.000000 0.8539 0.8525 0.8511 0.8497 0.8483
2139.000000 0.8469 0.8455 0.8441 0.8427 0.8412
2144.000000 0.8398 0.8383 0.8368 0.8353 0.8338
2149.000000 0.8324 0.8310 0.8296 0.8283 0.8269
2154.000000 0.8256 0.8248 0.8240 0.8244 0.8248
2159.000000 0.8252 0.8257 0.8262 0.8267 0.8272
2164.000000 0.8277 0.8281 0.8286 0.8291 0.8296
2169.000000 0.8300 0.8305 0.8309 0.8313 0.8317
2174.000000 0.8321 0.8324 0.8328 0.8331 0.8334
2179.000000 0.8336 0.8339 0.8339 0.8339 0.8334
2184.000000 0.8329 0.8320 0.8312 0.8303 0.8294
2189.000000 0.8285 0.8277 0.8268 0.8259 0.8248
2194.000000 0.8238 0.8227 0.8217 0.8206 0.8196
2199.000000 0.8185 0.8175 0.8164 0.8154 0.8143
2204.000000 0.8133 0.8122 0.8112 0.8102 0.8093
2209.000000 0.8083 0.8074 0.8064 0.8055 0.8045
2214.000000 0.8036 0.8026 0.8017 0.8007 0.7998
2219.000000 0.7988 0.7979 0.7970 0.7962 0.7953
2224.000000 0.7945 0.7937 0.7929 0.7920 0.7912
2229.000000 0.7904 0.7896 0.7887 0.7879 0.7870
2234.000000 0.7862 0.7854 0.7846 0.7837 0.7829
2239.000000 0.7820 0.7812 0.7804 0.7797 0.7790
2244.000000 0.7783 0.7776 0.7769 0.7761 0.7754
2249.000000 0.7747 0.7740 0.7732 0.7725 0.7718
2254.000000 0.7711 0.7704 0.7697 0.7692 0.7687
2259.000000 0.7682 0.7678 0.7673 0.7668 0.7663
2264.000000 0.7659 0.7654 0.7649 0.7644 0.7640
2269.000000 0.7635 0.7631 0.7626 0.7621 0.7616
2274.000000 0.7611 0.7605 0.7600 0.7594 0.7589
2279.000000 0.7583 0.7578 0.7572 0.7567 0.7559
2284.000000 0.7552 0.7543 0.7534 0.7525 0.7516
2289.000000 0.7507 0.7499 0.7490 0.7481 0.7472
2294.000000 0.7464 0.7455 0.7446 0.7436 0.7426
2299.000000 0.7416 0.7406 0.7395 0.7385 0.7375
2304.000000 0.7365 0.7354 0.7344 0.7332 0.7321
2309.000000 0.7308 0.7296 0.7284 0.7272 0.7259
2314.000000 0.7247 0.7234 0.7222 0.7209 0.7197
2319.000000 0.7185 0.7173 0.7160 0.7148 0.7136
2324.000000 0.7124 0.7112 0.7100 0.7088 0.7076
2329.000000 0.7064 0.7052 0.7040 0.7028 0.7016
2334.000000 0.7004 0.6992 0.6980 0.6968 0.6956
2339.000000 0.6943 0.6930 0.6916 0.6902 0.6888
2344.000000 0.6874 0.6860 0.6846 0.6831 0.6817
2349.000000 0.6803 0.6789 0.6775 0.6761 0.6747
2354.000000 0.6733 0.6718 0.6704 0.6691 0.6678
2359.000000 0.6665 0.6653 0.6640 0.6627 0.6614
2364.000000 0.6601 0.6588 0.6575 0.6562 0.6549
2369.000000 0.6535 0.6522 0.6506 0.6491 0.6475
2374.000000 0.6460 0.6445 0.6430 0.6414 0.6399
2379.000000 0.6383 0.6368 0.6355 0.6343 0.6332
2384.000000 0.6321 0.6309 0.6298 0.6287 0.6276
2389.000000 0.6264 0.6252 0.6240 0.6229 0.6217
2394.000000 0.6205 0.6194 0.6184 0.6173 0.6163
2399.000000 0.6152 0.6142 0.6125 0.6108 0.6090
2404.000000 0.6073 0.6056 0.6039 0.6021 0.6004
2409.000000 0.5983 0.5963 0.5938 0.5914 0.5889
2414.000000 0.5865 0.5840 0.5816 0.5791 0.5767
2419.000000 0.5744 0.5721 0.5698 0.5676 0.5654
2424.000000 0.5632 0.5609 0.5587 0.5565 0.5543
2429.000000 0.5520 0.5498 0.5476 0.5455 0.5433
2434.000000 0.5412 0.5391 0.5370 0.5348 0.5327
2439.000000 0.5305 0.5284 0.5262 0.5240 0.5216
2444.000000 0.5193 0.5170 0.5147 0.5124 0.5101
2449.000000 0.5077 0.5054 0.5031 0.5008 0.4984
2454.000000 0.4961 0.4937 0.4914 0.4887 0.4861
2459.000000 0.4834 0.4808 0.4781 0.4754 0.4727
2464.000000 0.4701 0.4676 0.4651 0.4629 0.4607
2469.000000 0.4585 0.4564 0.4542 0.4521 0.4499
2474.000000 0.4477 0.4457 0.4438 0.4419 0.4401
2479.000000 0.4382 0.4363 0.4356 0.4350 0.4344
2484.000000 0.4339 0.4333 0.4327 0.4324 0.4321
2489.000000 0.4300 0.4279 0.4253 0.4227 0.4201
2494.000000 0.4175 0.4140 0.4105 0.4064 0.4023
2499.000000 0.3982 0.3941 0.3901 0.3861 0.3834
2504.000000 0.3808 0.3785 0.3763 0.3747 0.3732
2509.000000 0.3720 0.3709 0.3704 0.3699 0.3694
2514.000000 0.3689 0.3684 0.3679 0.3673 0.3668
2519.000000 0.3664 0.3660 0.3659 0.3658 0.3657
2524.000000 0.3657 0.3656 0.3655 0.3654 0.3654
2529.000000 0.3655 0.3656 0.3657 0.3658 0.3659
2534.000000 0.3660 0.3662 0.3664 0.3666 0.3669
2539.000000 0.3671 0.3674 0.3676 0.3679 0.3679
2544.000000 0.3680 0.3681 0.3682 0.3676 0.3670
2549.000000 0.3660 0.3651 0.3630 0.3609 0.3579
2554.000000 0.3550 0.3517 0.3485 0.3457 0.3429
2559.000000 0.3401 0.3373 0.3347 0.3322 0.3299
2564.000000 0.3276 0.3253 0.3230 0.3206 0.3183
2569.000000 0.3157 0.3132 0.3107 0.3082 0.3056
2574.000000 0.3031 0.3007 0.2983 0.2958 0.2934
2579.000000 0.2909 0.2885 0.2861 0.2838 0.2817
2584.000000 0.2797 0.2776 0.2755 0.2744 0.2733
2589.000000 0.2726 0.2720 0.2714 0.2708 0.2702
2594.000000 0.2696 0.2693 0.2691 0.2683 0.2676
2599.000000 0.2665 0.2655 0.2639 0.2624 0.2606
2604.000000 0.2589 0.2569 0.2549 0.2526 0.2504
2609.000000 0.2483 0.2462 0.2445 0.2429 0.2413
2614.000000 0.2397 0.2384 0.2371 0.2362 0.2353
2619.000000 0.2344 0.2336 0.2328 0.2320 0.2317
2624.000000 0.2310 0.2313 0.2311 0.2312 0.2314
2629.000000 0.2318 0.2322 0.2332 0.2342 0.2355
2634.000000 0.2369 0.2405 0.2442 0.2488 0.2535
2639.000000 0.2581 0.2628 0.2674 0.2721 0.2767
2644.000000 0.2814 0.2860 0.2907 0.2953 0.3000
2649.000000 0.3046 0.3093 0.3139 0.3185 0.3231
2654.000000 0.3278 0.3324 0.3371 0.3417 0.3464
2659.000000 0.3510 0.3557 0.3603 0.3650 0.3696
2664.000000 0.3743 0.3789 0.3836 0.3871 0.3906
2669.000000 0.3920 0.3935 0.3942 0.3950 0.3953
2674.000000 0.3957 0.3955 0.3954 0.3951 0.3954
2679.000000 0.3944 0.3941 0.3935 0.3929 0.3919
2684.000000 0.3910 0.3897 0.3885 0.3870 0.3855
2689.000000 0.3841 0.3827 0.3817 0.3807 0.3797
2694.000000 0.3787 0.3776 0.3766 0.3756 0.3747
2699.000000 0.3741 0.3735 0.3729 0.3724 0.3718
2704.000000 0.3713 0.3710 0.3707 0.3704 0.3701
2709.000000 0.3698 0.3695 0.3692 0.3689 0.3686
2714.000000 0.3683 0.3680 0.3677 0.3676 0.3675
2719.000000 0.3673 0.3672 0.3671 0.3670 0.3668
2724.000000 0.3667 0.3667 0.3667 0.3667 0.3667
2729.000000 0.3667 0.3668 0.3668 0.3668 0.3668
2734.000000 0.3668 0.3667 0.3666 0.3664 0.3662
2739.000000 0.3659 0.3657 0.3650 0.3644 0.3627
2744.000000 0.3611 0.3594 0.3578 0.3560 0.3543
2749.000000 0.3517 0.3492 0.3467 0.3442 0.3405
2754.000000 0.3368 0.3328 0.3289 0.3251 0.3213
2759.000000 0.3176 0.3139 0.3104 0.3070 0.3039
2764.000000 0.3009 0.2978 0.2947 0.2913 0.2879
2769.000000 0.2831 0.2784 0.2740 0.2697 0.2676
2774.000000 0.2656 0.2636 0.2616 0.2596 0.2576
2779.000000 0.2557 0.2538 0.2524 0.2510 0.2496
2784.000000 0.2483 0.2469 0.2456 0.2442 0.2429
2789.000000 0.2415 0.2402 0.2388 0.2375 0.2361
2794.000000 0.2347 0.2333 0.2320 0.2306 0.2293
2799.000000 0.2279 0.2265 0.2251 0.2238 0.2228
2804.000000 0.2219 0.2211 0.2204 0.2196 0.2189
2809.000000 0.2181 0.2174 0.2166 0.2159 0.2151
2814.000000 0.2144 0.2136 0.2128 0.2120 0.2113
2819.000000 0.2102 0.2092 0.2079 0.2067 0.2055
2824.000000 0.2043 0.2017 0.1992 0.1955 0.1918
2829.000000 0.1862 0.1806 0.1748 0.1690 0.1604
2834.000000 0.1519 0.1375 0.1231 0.1148 0.1066
2839.000000 0.1008 0.0950 0.0901 0.0852 0.0806
2844.000000 0.0761 0.0717 0.0673 0.0632 0.0592
2849.000000 0.0560 0.0528 0.0513 0.0498 0.0487
2854.000000 0.0476 0.0470 0.0465 0.0459 0.0454
2859.000000 0.0450 0.0447 0.0444 0.0442 0.0442
2864.000000 0.0442 0.0443 0.0444 0.0446 0.0449
2869.000000 0.0455 0.0462 0.0478 0.0495 0.0514
2874.000000 0.0533 0.0554 0.0576 0.0606 0.0636
2879.000000 0.0664 0.0693 0.0710 0.0727 0.0735
2884.000000 0.0743 0.0744 0.0746 0.0743 0.0740
2889.000000 0.0732 0.0725 0.0709 0.0694 0.0677
2894.000000 0.0660 0.0643 0.0626 0.0602 0.0578
2899.000000 0.0552 0.0526 0.0502 0.0478 0.0454
2904.000000 0.0431 0.0408 0.0386 0.0368 0.0350
2909.000000 0.0332 0.0314 0.0298 0.0283 0.0268
2914.000000 0.0254 0.0239 0.0225 0.0212 0.0200
2919.000000 0.0188 0.0176 0.0164 0.0153 0.0142
2924.000000 0.0132 0.0125 0.0118 0.0111 0.0105
2929.000000 0.0102 0.0099 0.0100 0.0101 0.0103
2934.000000 0.0106 0.0109 0.0112 0.0114 0.0117
2939.000000 0.0120 0.0123 0.0125 0.0128 0.0131
2944.000000 0.0134 0.0137 0.0140 0.0143 0.0146
2949.000000 0.0149 0.0152 0.0155 0.0158 0.0167
2954.000000 0.0176 0.0185 0.0194 0.0203 0.0212
2959.000000 0.0225 0.0239 0.0256 0.0274 0.0340
2964.000000 0.0407 0.0493 0.0579 0.0665 0.0752
2969.000000 0.0838 0.0924 0.1010 0.1096 0.1182
2974.000000 0.1269 0.1355 0.1441 0.1527 0.1613
2979.000000 0.1699 0.1786 0.1872 0.1958 0.2044
2984.000000 0.2131 0.2184 0.2238 0.2275 0.2313
2989.000000 0.2362 0.2412 0.2485 0.2559 0.2627
2994.000000 0.2696 0.2763 0.2831 0.2886 0.2941
2999.000000 0.2994 0.3048 0.3115 0.3183 0.3274
3004.000000 0.3365 0.3418 0.3471 0.3523 0.3575
3009.000000 0.3622 0.3670 0.3713 0.3756 0.3799
3014.000000 0.3842 0.3868 0.3894 0.3918 0.3943
3019.000000 0.3967 0.3992 0.4016 0.4041 0.4057
3024.000000 0.4074 0.4088 0.4103 0.4117 0.4131
3029.000000 0.4145 0.4160 0.4174 0.4188 0.4198
3034.000000 0.4209 0.4217 0.4226 0.4234 0.4243
3039.000000 0.4252 0.4261 0.4269 0.4278 0.4287
3044.000000 0.4296 0.4304 0.4313 0.4321 0.4329
3049.000000 0.4334 0.4340 0.4346 0.4352 0.4357
3054.000000 0.4363 0.4368 0.4374 0.4380 0.4386
3059.000000 0.4391 0.4397 0.4402 0.4408 0.4413
3064.000000 0.4419 0.4425 0.4431 0.4433 0.4436
3069.000000 0.4438 0.4441 0.4443 0.4446 0.4448
3074.000000 0.4451 0.4454 0.4457 0.4459 0.4462
3079.000000 0.4464 0.4467 0.4469 0.4472 0.4474
3084.000000 0.4477 0.4479 0.4482 0.4484 0.4487
3089.000000 0.4489 0.4492 0.4494 0.4496 0.4498
3094.000000 0.4500 0.4502 0.4504 0.4506 0.4508
3099.000000 0.4510 0.4512 0.4514 0.4517 0.4519
3104.000000 0.4521 0.4522 0.4523 0.4524 0.4525
3109.000000 0.4526 0.4527 0.4528 0.4529 0.4530
3114.000000 0.4523 0.4532 0.4533 0.4534 0.4535
3119.000000 0.4535 0.4536 0.4535 0.4535 0.4534
3124.000000 0.4533 0.4532 0.4531 0.4530 0.4530
3129.000000 0.4529 0.4528 0.4527 0.4526 0.4525
3134.000000 0.4524 0.4523 0.4522 0.4519 0.4517
3139.000000 0.4511 0.4506 0.4500 0.4495 0.4489
3144.000000 0.4483 0.4477 0.4472 0.4466 0.4461
3149.000000 0.4455 0.4450 0.4441 0.4433 0.4424
3154.000000 0.4415 0.4406 0.4398 0.4389 0.4380
3159.000000 0.4371 0.4363 0.4354 0.4346 0.4337
3164.000000 0.4328 0.4319 0.4310 0.4301 0.4293
3169.000000 0.4284 0.4275 0.4266 0.4258 0.4249
3174.000000 0.4240 0.4231 0.4223 0.4216 0.4210
3179.000000 0.4203 0.4196 0.4189 0.4183 0.4176
3184.000000 0.4169 0.4162 0.4156 0.4150 0.4145
3189.000000 0.4140 0.4135 0.4130 0.4125 0.4120
3194.000000 0.4116 0.4111 0.4106 0.4101 0.4096
3199.000000 0.4091 0.4086 0.4082 0.4078 0.4075
3204.000000 0.4072 0.4069 0.4066 0.4063 0.4060
3209.000000 0.4057 0.4054 0.4051 0.4048 0.4045
3214.000000 0.4042 0.4039 0.4036 0.4033 0.4031
3219.000000 0.4028 0.4026 0.4023 0.4020 0.4017
3224.000000 0.4015 0.4012 0.4010 0.4007 0.4004
3229.000000 0.3999 0.3995 0.3988 0.3982 0.3976
3234.000000 0.3970 0.3964 0.3958 0.3948 0.3939
3239.000000 0.3925 0.3912 0.3899 0.3886 0.3868
3244.000000 0.3850 0.3830 0.3810 0.3779 0.3749
3249.000000 0.3718 0.3688 0.3657 0.3626 0.3595
3254.000000 0.3565 0.3534 0.3504 0.3473 0.3442
3259.000000 0.3411 0.3381 0.3350 0.3320 0.3289
3264.000000 0.3258 0.3227 0.3197 0.3166 0.3136
3269.000000 0.3105 0.3074 0.3043 0.3013 0.2982
3274.000000 0.2952 0.2921 0.2890 0.2859 0.2829
3279.000000 0.2798 0.2768 0.2737 0.2706 0.2675
3284.000000 0.2645 0.2614 0.2584 0.2553 0.2522
3289.000000 0.2491 0.2461 0.2430 0.2400 0.2369
3294.000000 0.2338 0.2307 0.2277 0.2246 0.2216
3299.000000 0.2185 0.2155 0.2124 0.2093 0.2062
3304.000000 0.2032 0.2001 0.1971 0.1940 0.1909
3309.000000 0.1878 0.1848 0.1817 0.1787 0.1756
3314.000000 0.1725 0.1694 0.1664 0.1633 0.1603
3319.000000 0.1572 0.1541 0.1510 0.1480 0.1449
3324.000000 0.1419 0.1388 0.1357 0.1326 0.1295
3329.000000 0.1231 0.1168 0.1137 0.1106 0.1070
3334.000000 0.1034 0.1004 0.0974 0.0962 0.0950
3339.000000 0.0947 0.0944 0.0944 0.0931 0.0948
3344.000000 0.0952 0.0956 0.0961 0.0966 0.0972
3349.000000 0.0979 0.0987 0.0995 0.1004 0.1013
3354.000000 0.1022 0.1030 0.1038 0.1046 0.1054
3359.000000 0.1062 0.1070 0.1077 0.1085 0.1092
3364.000000 0.1099 0.1105 0.1112 0.1119 0.1126
3369.000000 0.1132 0.1139 0.1147 0.1156 0.1165
3374.000000 0.1175 0.1185 0.1195 0.1204 0.1214
3379.000000 0.1224 0.1234 0.1247 0.1261 0.1280
3384.000000 0.1300 0.1331 0.1363 0.1395 0.1428
3389.000000 0.1468 0.1509 0.1547 0.1585 0.1621
3394.000000 0.1658 0.1694 0.1731 0.1768 0.1806
3399.000000 0.1843 0.1880 0.1914 0.1949 0.1982
3404.000000 0.2015 0.2048 0.2081 0.2116 0.2151
3409.000000 0.2201 0.2252 0.2302 0.2353 0.2403
3414.000000 0.2453 0.2490 0.2527 0.2561 0.2596
3419.000000 0.2630 0.2665 0.2700 0.2735 0.2769
3424.000000 0.2803 0.2837 0.2872 0.2906 0.2940
3429.000000 0.2969 0.2999 0.3028 0.3058 0.3087
3434.000000 0.3116 0.3145 0.3175 0.3204 0.3233
3439.000000 0.3262 0.3291 0.3319 0.3348 0.3378
3444.000000 0.3408 0.3439 0.3471 0.3502 0.3533
3449.000000 0.3563 0.3593 0.3616 0.3640 0.3648
3454.000000 0.3656 0.3660 0.3665 0.3662 0.3677
3459.000000 0.3649 0.3638 0.3617 0.3597 0.3574
3464.000000 0.3552 0.3479 0.3406 0.3331 0.3256
3469.000000 0.3181 0.3106 0.3030 0.2955 0.2880
3474.000000 0.2805 0.2730 0.2655 0.2580 0.2505
3479.000000 0.2430 0.2355 0.2280 0.2205 0.2129
3484.000000 0.2054 0.2043 0.2035 0.2102 0.2172
3489.000000 0.2315 0.2459 0.2603 0.2747 0.2891
3494.000000 0.3035 0.3179 0.3323 0.3466 0.3610
3499.000000 0.3754 0.3898 0.4010 0.4122 0.4239
3504.000000 0.4357 0.4458 0.4560 0.4608 0.4657
3509.000000 0.4748 0.4839 0.4954 0.5069 0.5116
3514.000000 0.5164 0.5196 0.5228 0.5258 0.5288
3519.000000 0.5319 0.5350 0.5380 0.5410 0.5437
3524.000000 0.5465 0.5492 0.5519 0.5566 0.5613
3529.000000 0.5663 0.5713 0.5762 0.5811 0.5858
3534.000000 0.5906 0.5954 0.6002 0.6049 0.6097
3539.000000 0.6145 0.6193 0.6240 0.6288 0.6336
3544.000000 0.6384 0.6477 0.6570 0.6647 0.6725
3549.000000 0.6779 0.6834 0.6869 0.6905 0.6944
3554.000000 0.6984 0.7022 0.7061 0.7086 0.7112
3559.000000 0.7139 0.7166 0.7197 0.7229 0.7260
3564.000000 0.7292 0.7323 0.7355 0.7385 0.7415
3569.000000 0.7439 0.7464 0.7495 0.7526 0.7557
3574.000000 0.7589 0.7617 0.7646 0.7673 0.7701
3579.000000 0.7729 0.7757 0.7783 0.7810 0.7835
3584.000000 0.7861 0.7886 0.7912 0.7937 0.7963
3589.000000 0.7984 0.8006 0.8024 0.8042 0.8060
3594.000000 0.8078 0.8096 0.8115 0.8133 0.8151
3599.000000 0.8169 0.8188 0.8203 0.8219 0.8234
3604.000000 0.8249 0.8264 0.8279 0.8294 0.8309
3609.000000 0.8324 0.8339 0.8353 0.8368 0.8383
3614.000000 0.8398 0.8413 0.8428 0.8442 0.8457
3619.000000 0.8472 0.8487 0.8501 0.8516 0.8530
3624.000000 0.8545 0.8560 0.8575 0.8589 0.8604
3629.000000 0.8618 0.8633 0.8646 0.8660 0.8671
3634.000000 0.8682 0.8693 0.8704 0.8714 0.8725
3639.000000 0.8736 0.8747 0.8758 0.8769 0.8779
3644.000000 0.8790 0.8801 0.8812 0.8823 0.8834
3649.000000 0.8844 0.8855 0.8866 0.8877 0.8885
3654.000000 0.8893 0.8901 0.8909 0.8917 0.8925
3659.000000 0.8932 0.8940 0.8948 0.8956 0.8963
3664.000000 0.8971 0.8979 0.8987 0.8995 0.9003
3669.000000 0.9009 0.9016 0.9019 0.9023 0.9027
3674.000000 0.9031 0.9034 0.9038 0.9041 0.9045
3679.000000 0.9049 0.9053 0.9056 0.9060 0.9064
3684.000000 0.9068 0.9071 0.9075 0.9078 0.9082
3689.000000 0.9086 0.9090 0.9093 0.9096 0.9098
3694.000000 0.9101 0.9103 0.9105 0.9107 0.9110
3699.000000 0.9112 0.9115 0.9117 0.9119 0.9121
3704.000000 0.9143 0.9126 0.9129 0.9131 0.9133
3709.000000 0.9135 0.9138 0.9140 0.9142 0.9144
3714.000000 0.9146 0.9147 0.9149 0.9151 0.9153
3719.000000 0.9155 0.9157 0.9158 0.9160 0.9162
3724.000000 0.9164 0.9163 0.9163 0.9162 0.9161
3729.000000 0.9160 0.9159 0.9157 0.9155 0.9152
3734.000000 0.9149 0.9146 0.9143 0.9140 0.9138
3739.000000 0.9135 0.9132 0.9128 0.9125 0.9121
3744.000000 0.9117 0.9113 0.9110 0.9105 0.9101
3749.000000 0.9095 0.9090 0.9084 0.9079 0.9073
3754.000000 0.9067 0.9060 0.9053 0.9046 0.9039
3759.000000 0.9031 0.9024 0.9016 0.9008 0.8999
3764.000000 0.8991 0.8982 0.8974 0.8965 0.8957
3769.000000 0.8950 0.8944 0.8940 0.8936 0.8935
3774.000000 0.8902 0.8937 0.8939 0.8941 0.8943
3779.000000 0.8945 0.8947 0.8949 0.8951 0.8952
3784.000000 0.8954 0.8956 0.8958 0.8959 0.8961
3789.000000 0.8963 0.8965 0.8966 0.8968 0.8970
3794.000000 0.8972 0.8973 0.8975 0.8977 0.8979
3799.000000 0.8980 0.8982 0.8983 0.8985 0.8987
3804.000000 0.8990 0.8992 0.8994 0.8996 0.8999
3809.000000 0.9001 0.9003 0.9005 0.9008 0.9010
3814.000000 0.9012 0.9014 0.9017 0.9020 0.9023
3819.000000 0.9026 0.9029 0.9032 0.9035 0.9038
3824.000000 0.9041 0.9044 0.9047 0.9050 0.9053
3829.000000 0.9056 0.9059 0.9062 0.9065 0.9068
3834.000000 0.9071 0.9075 0.9079 0.9082 0.9086
3839.000000 0.9089 0.9093 0.9096 0.9100 0.9103
3844.000000 0.9107 0.9110 0.9114 0.9117 0.9121
3849.000000 0.9124 0.9127 0.9130 0.9133 0.9136
3854.000000 0.9139 0.9142 0.9145 0.9148 0.9151
3859.000000 0.9154 0.9157 0.9160 0.9163 0.9166
3864.000000 0.9169 0.9172 0.9175 0.9178 0.9181
3869.000000 0.9184 0.9187 0.9189 0.9192 0.9195
3874.000000 0.9198 0.9200 0.9203 0.9206 0.9209
3879.000000 0.9211 0.9214 0.9217 0.9220 0.9222
3884.000000 0.9225 0.9228 0.9231 0.9233 0.9236
3889.000000 0.9239 0.9242 0.9244 0.9247 0.9250
3894.000000 0.9253 0.9255 0.9258 0.9261 0.9264
3899.000000 0.9267 0.9289 0.9273 0.9277 0.9280
3904.000000 0.9283 0.9286 0.9289 0.9292 0.9295
3909.000000 0.9298 0.9301 0.9304 0.9307 0.9310
3914.000000 0.9313 0.9316 0.9320 0.9323 0.9326
3919.000000 0.9329 0.9332 0.9335 0.9339 0.9342
3924.000000 0.9346 0.9350 0.9354 0.9357 0.9361
3929.000000 0.9364 0.9368 0.9372 0.9376 0.9379
3934.000000 0.9383 0.9387 0.9391 0.9394 0.9398
3939.000000 0.9401 0.9405 0.9409 0.9413 0.9417
3944.000000 0.9422 0.9426 0.9430 0.9434 0.9438
3949.000000 0.9442 0.9447 0.9451 0.9455 0.9459
3954.000000 0.9463 0.9467 0.9472 0.9476 0.9480
3959.000000 0.9484 0.9489 0.9493 0.9497 0.9501
3964.000000 0.9506 0.9510 0.9514 0.9518 0.9523
3969.000000 0.9527 0.9531 0.9536 0.9542 0.9547
3974.000000 0.9553 0.9558 0.9564 0.9569 0.9575
3979.000000 0.9579 0.9584 0.9588 0.9593 0.9597
3984.000000 0.9602 0.9607 0.9612 0.9616 0.9621
3989.000000 0.9625 0.9630 0.9634 0.9639 0.9643
3994.000000 0.9648 0.9653 0.9658 0.9662 0.9667
3999.000000 0.9669 0.9671
##END=
