##TITLE=PHENOL, 2-t-BUTYL-4-HEXADECYLOXY-
##JCAMP-DX=4.24
##DATA TYPE=INFRARED SPECTRUM
##CLASS=COBLENTZ
##ORIGIN=TENNESSEE EASTMAN COMPANY, RESEARCH LABORATORIES
##OWNER=COBLENTZ SOCIETY
Collection (C) 2018 copyright by the U.S. Secretary of Commerce
on behalf of the United States of America. All rights reserved.
##DATE=Not specified, most likely prior to 1970
##NAMES=2-tert-butyl-4-(hexadecyloxy)phenol
##MOLFORM=C26 H46 O2
##SOURCE REFERENCE=COBLENTZ NO. 1084
##$NIST ID=B6001084
##$NIST SOURCE=COBLENTZ
##$NIST IMAGE=cob1084
##SPECTROMETER/DATA SYSTEM=Not specified, most likely a prism, grating, or hybrid spectrometer.
##STATE=LIQUID
##PATH LENGTH=FILM
##SAMPLING PROCEDURE=TRANSMISSION
##RESOLUTION=4
##DATA PROCESSING=DIGITIZED BY NIST FROM HARD COPY
##XUNITS=MICROMETERS
##YUNITS=TRANSMITTANCE
##XFACTOR=1.000000
##YFACTOR=1
##DELTAX=000.006651
##FIRSTX=2.027
##LASTX=16.0063
##FIRSTY=0.983
##MAXX=16.0063
##MINX=2.027
##MAXY=0.986
##MINY=0.031
##NPOINTS=2103
##XYDATA=(X++(Y..Y))
2.027000 0.9830 0.9830 0.9840 0.9840 0.9840
2.060270 0.9840 0.9860 0.9860 0.9860 0.9860
2.093000 0.9860 0.9860 0.9840 0.9840 0.9840
2.126270 0.9840 0.9840 0.9860 0.9860 0.9860
2.160000 0.9860 0.9840 0.9860 0.9860 0.9860
2.193270 0.9840 0.9860 0.9860 0.9860 0.9860
2.226000 0.9840 0.9810 0.9780 0.9730 0.9630
2.259270 0.9560 0.9540 0.9490 0.9440 0.9390
2.293000 0.9290 0.9240 0.9240 0.9240 0.9240
2.326270 0.9240 0.9240 0.9240 0.9260 0.9260
2.359000 0.9260 0.9260 0.9260 0.9260 0.9260
2.392270 0.9260 0.9240 0.9240 0.9240 0.9240
2.426000 0.9240 0.9240 0.9260 0.9270 0.9290
2.459270 0.9320 0.9320 0.9320 0.9340 0.9340
2.492000 0.9380 0.9530 0.9560 0.9610 0.9610
2.525270 0.9610 0.9610 0.9610 0.9590 0.9590
2.559000 0.9590 0.9580 0.9560 0.9560 0.9560
2.592270 0.9540 0.9540 0.9540 0.9530 0.9540
2.625000 0.9540 0.9540 0.9560 0.9580 0.9580
2.658270 0.9580 0.9580 0.9580 0.9580 0.9560
2.692000 0.9540 0.9530 0.9490 0.9440 0.9320
2.725270 0.9210 0.8990 0.8690 0.8290 0.7920
2.758000 0.7870 0.7830 0.7770 0.7720 0.7520
2.791270 0.7210 0.6980 0.6850 0.6180 0.6040
2.825000 0.6010 0.6010 0.5990 0.5990 0.5970
2.858270 0.5970 0.5840 0.5770 0.5620 0.5320
2.891000 0.5000 0.4900 0.4890 0.4890 0.4890
2.924270 0.4900 0.4940 0.5020 0.5190 0.5240
2.958000 0.5540 0.5710 0.5810 0.6040 0.6090
2.991270 0.6140 0.6330 0.6800 0.7160 0.7260
3.024000 0.7350 0.7370 0.7500 0.7570 0.7700
3.057270 0.7770 0.7870 0.8000 0.8040 0.8120
3.091000 0.8190 0.8240 0.8290 0.8350 0.8420
3.124270 0.8490 0.8540 0.8600 0.8670 0.8710
3.157000 0.8740 0.8760 0.8770 0.8810 0.8840
3.190270 0.8870 0.8870 0.8870 0.8870 0.8870
3.224000 0.8860 0.8810 0.8740 0.8710 0.8670
3.257270 0.8620 0.8600 0.8540 0.8400 0.7980
3.290000 0.7730 0.7600 0.7330 0.6390 0.5990
3.323270 0.4990 0.3660 0.2780 0.1540 0.0380
3.357000 0.0330 0.0310 0.0310 0.0310 0.0330
3.390270 0.0330 0.0350 0.0510 0.0600 0.0950
3.423000 0.1150 0.1280 0.1350 0.1340 0.1030
3.456270 0.0850 0.0830 0.0850 0.0930 0.1840
3.490000 0.2860 0.4150 0.4630 0.5050 0.6090
3.523270 0.6610 0.7210 0.7300 0.7310 0.7430
3.556000 0.7800 0.7980 0.8090 0.8190 0.8220
3.589270 0.8270 0.8320 0.8370 0.8400 0.8470
3.623000 0.8490 0.8500 0.8500 0.8500 0.8500
3.656270 0.8520 0.8540 0.8540 0.8570 0.8590
3.689000 0.8600 0.8620 0.8640 0.8640 0.8640
3.722270 0.8650 0.8640 0.8640 0.8640 0.8650
3.756000 0.8650 0.8650 0.8650 0.8670 0.8690
3.789270 0.8710 0.8710 0.8720 0.8740 0.8760
3.822000 0.8770 0.8810 0.8840 0.8860 0.8870
3.855270 0.8890 0.8960 0.8970 0.8990 0.9010
3.889000 0.9020 0.9040 0.9020 0.9040 0.9060
3.922270 0.9090 0.9090 0.9090 0.9090 0.9090
3.955000 0.9090 0.9090 0.9110 0.9110 0.9110
3.988270 0.9110 0.9120 0.9120 0.9120 0.9120
4.022000 0.9140 0.9160 0.9160 0.9170 0.9170
4.055270 0.9170 0.9170 0.9170 0.9170 0.9190
4.088000 0.9190 0.9210 0.9220 0.9220 0.9220
4.121270 0.9220 0.9220 0.9220 0.9220 0.9220
4.155000 0.9220 0.9220 0.9220 0.9220 0.9220
4.188270 0.9210 0.9210 0.9240 0.9290 0.9380
4.221000 0.9480 0.9580 0.9660 0.9680 0.9690
4.254270 0.9710 0.9680 0.9640 0.9630 0.9630
4.288000 0.9630 0.9610 0.9580 0.9480 0.9440
4.321270 0.9390 0.9340 0.9310 0.9290 0.9290
4.354000 0.9270 0.9290 0.9290 0.9310 0.9320
4.387270 0.9340 0.9390 0.9430 0.9440 0.9440
4.421000 0.9440 0.9440 0.9460 0.9480 0.9480
4.454270 0.9480 0.9480 0.9480 0.9480 0.9480
4.487000 0.9480 0.9480 0.9480 0.9480 0.9460
4.520270 0.9460 0.9440 0.9440 0.9440 0.9430
4.554000 0.9430 0.9430 0.9430 0.9430 0.9410
4.587270 0.9410 0.9430 0.9430 0.9430 0.9430
4.620000 0.9430 0.9430 0.9430 0.9430 0.9430
4.653270 0.9430 0.9430 0.9430 0.9430 0.9430
4.687000 0.9430 0.9430 0.9410 0.9410 0.9410
4.720270 0.9410 0.9390 0.9390 0.9390 0.9390
4.753000 0.9390 0.9390 0.9390 0.9380 0.9380
4.786270 0.9380 0.9390 0.9360 0.9340 0.9340
4.820000 0.9320 0.9310 0.9290 0.9290 0.9290
4.853270 0.9270 0.9270 0.9270 0.9260 0.9240
4.886000 0.9240 0.9220 0.9210 0.9190 0.9190
4.919270 0.9170 0.9170 0.9160 0.9160 0.9170
4.953000 0.9170 0.9170 0.9170 0.9190 0.9190
4.986270 0.9220 0.9260 0.9270 0.9290 0.9290
5.019000 0.9290 0.9290 0.9310 0.9310 0.9290
5.052270 0.9290 0.9290 0.9290 0.9290 0.9290
5.086000 0.9290 0.9290 0.9290 0.9290 0.9290
5.119270 0.9290 0.9290 0.9290 0.9290 0.9310
5.152000 0.9310 0.9320 0.9320 0.9320 0.9320
5.185270 0.9320 0.9310 0.9290 0.9290 0.9290
5.219000 0.9290 0.9290 0.9290 0.9290 0.9290
5.252270 0.9290 0.9290 0.9290 0.9290 0.9290
5.286000 0.9290 0.9290 0.9310 0.9310 0.9310
5.319270 0.9310 0.9310 0.9290 0.9270 0.9220
5.352000 0.9210 0.9210 0.9190 0.9190 0.9190
5.385270 0.9190 0.9190 0.9170 0.9140 0.9110
5.419000 0.9090 0.9040 0.9040 0.9040 0.9040
5.452270 0.9040 0.9040 0.9040 0.9070 0.9070
5.485000 0.9070 0.9060 0.9060 0.9040 0.9040
5.518270 0.9020 0.9040 0.9060 0.9110 0.9120
5.552000 0.9140 0.9140 0.9140 0.9120 0.9120
5.585270 0.9110 0.9110 0.9110 0.9110 0.9110
5.618000 0.9110 0.9110 0.9110 0.9110 0.9110
5.651270 0.9110 0.9110 0.9110 0.9110 0.9110
5.685000 0.9110 0.9110 0.9110 0.9090 0.9040
5.718270 0.9040 0.9020 0.9020 0.9020 0.9020
5.751000 0.9060 0.9040 0.9040 0.8990 0.8990
5.784270 0.9040 0.9070 0.9110 0.9120 0.9110
5.818000 0.9110 0.9040 0.9040 0.9020 0.9020
5.851270 0.9020 0.9070 0.9070 0.9060 0.9020
5.884000 0.8990 0.8960 0.8960 0.9020 0.9040
5.917270 0.9110 0.9110 0.9040 0.9040 0.9040
5.951000 0.9060 0.9070 0.9070 0.9090 0.9090
5.984270 0.9090 0.9070 0.9060 0.9060 0.9020
6.017000 0.9040 0.9040 0.9060 0.9070 0.9040
6.050270 0.9020 0.8990 0.8890 0.8810 0.8770
6.084000 0.8770 0.8790 0.8860 0.8860 0.8790
6.117270 0.8740 0.8670 0.8640 0.8600 0.8570
6.150000 0.8490 0.8150 0.7980 0.7780 0.7570
6.183270 0.7330 0.7250 0.7130 0.7060 0.7050
6.217000 0.7050 0.7050 0.7030 0.7000 0.6800
6.250270 0.6310 0.6080 0.5940 0.5770 0.5670
6.283000 0.5670 0.5710 0.5960 0.6380 0.6880
6.316270 0.7250 0.7500 0.7980 0.8070 0.8220
6.350000 0.8340 0.8440 0.8570 0.8640 0.8650
6.383270 0.8650 0.8640 0.8640 0.8620 0.8600
6.416000 0.8600 0.8600 0.8600 0.8600 0.8550
6.449270 0.8520 0.8400 0.8290 0.8150 0.8120
6.483000 0.8100 0.8040 0.8000 0.7820 0.7620
6.516270 0.7500 0.7300 0.7030 0.6330 0.5760
6.549000 0.4080 0.3800 0.3140 0.2880 0.2540
6.582270 0.2270 0.1990 0.1850 0.1850 0.1920
6.616000 0.1990 0.2460 0.2740 0.3040 0.3230
6.649270 0.3360 0.3500 0.3580 0.3630 0.3680
6.682000 0.3700 0.3710 0.3730 0.3760 0.3900
6.715270 0.3960 0.3960 0.3860 0.3500 0.3160
6.749000 0.2730 0.2420 0.2110 0.2090 0.2070
6.782270 0.2090 0.2140 0.2410 0.2570 0.2730
6.815000 0.2840 0.2990 0.3180 0.3360 0.3530
6.848270 0.3710 0.3880 0.4070 0.4180 0.4350
6.882000 0.4480 0.4550 0.4580 0.4600 0.4580
6.915270 0.4550 0.4230 0.4070 0.3650 0.3160
6.948000 0.2760 0.2560 0.2310 0.2120 0.1990
6.981270 0.1940 0.1940 0.1990 0.2270 0.2470
7.015000 0.2640 0.2810 0.3030 0.3290 0.3780
7.048270 0.4120 0.4470 0.4600 0.4990 0.5150
7.081000 0.5490 0.5660 0.5810 0.5910 0.5920
7.114270 0.5660 0.5360 0.5050 0.4750 0.4480
7.148000 0.4250 0.4000 0.3800 0.3600 0.3610
7.181270 0.3630 0.4020 0.4170 0.4550 0.4690
7.214000 0.4750 0.4850 0.4970 0.4990 0.5000
7.247270 0.5000 0.5200 0.5290 0.5360 0.5360
7.281000 0.5240 0.5070 0.4950 0.4580 0.4000
7.314270 0.3960 0.3860 0.3860 0.3950 0.4120
7.347000 0.4200 0.4470 0.4740 0.5140 0.5410
7.380270 0.5540 0.5690 0.5760 0.5790 0.5810
7.414000 0.5810 0.5810 0.5790 0.5790 0.5770
7.447270 0.5770 0.5770 0.5760 0.5720 0.5670
7.480000 0.5660 0.5620 0.5610 0.5570 0.5560
7.513270 0.5560 0.5540 0.5520 0.5540 0.5560
7.547000 0.5620 0.5690 0.5790 0.5960 0.6010
7.580270 0.6110 0.6140 0.6210 0.6210 0.6190
7.613000 0.6180 0.6140 0.6040 0.6010 0.5840
7.646270 0.5670 0.5540 0.5410 0.5290 0.5120
7.680000 0.4630 0.4220 0.3410 0.3210 0.2880
7.713270 0.2620 0.2410 0.2320 0.2320 0.2370
7.746000 0.2610 0.2730 0.2860 0.3190 0.3480
7.779270 0.3680 0.3980 0.4030 0.4050 0.4070
7.813000 0.4070 0.4080 0.4080 0.4100 0.4100
7.846270 0.4130 0.4230 0.4300 0.4370 0.4520
7.879000 0.4670 0.4840 0.5050 0.5120 0.5200
7.912270 0.5270 0.5300 0.5360 0.5410 0.5440
7.946000 0.5460 0.5470 0.5490 0.5490 0.5490
7.979270 0.5490 0.5510 0.5510 0.5510 0.5540
8.012000 0.5540 0.5540 0.5540 0.5540 0.5510
8.045270 0.5420 0.5320 0.5170 0.4970 0.4670
8.079000 0.4500 0.4050 0.3830 0.3560 0.3380
8.112270 0.3280 0.3080 0.2890 0.2640 0.2490
8.145000 0.2220 0.1990 0.1800 0.1770 0.1700
8.178270 0.1490 0.1340 0.1280 0.1280 0.1270
8.212000 0.1250 0.1250 0.1250 0.1250 0.1250
8.245270 0.1270 0.1280 0.1300 0.1300 0.1320
8.278000 0.1320 0.1320 0.1320 0.1320 0.1300
8.311270 0.1300 0.1320 0.1340 0.1350 0.1370
8.345000 0.1400 0.1440 0.1500 0.1520 0.1640
8.378270 0.1670 0.1690 0.1740 0.1890 0.1970
8.411000 0.1990 0.2040 0.2110 0.2170 0.2210
8.444270 0.2260 0.2270 0.2290 0.2310 0.2310
8.478000 0.2320 0.2340 0.2370 0.2460 0.2490
8.511270 0.2610 0.2690 0.2880 0.3090 0.3380
8.544000 0.3600 0.3830 0.4070 0.4450 0.4470
8.577270 0.4580 0.5020 0.5150 0.5200 0.5390
8.611000 0.5420 0.5490 0.5520 0.5540 0.5560
8.644270 0.5540 0.5510 0.5410 0.5290 0.5220
8.677000 0.5120 0.5000 0.4970 0.4940 0.4920
8.710270 0.4900 0.4900 0.4920 0.4940 0.4970
8.744000 0.4990 0.5070 0.5140 0.5220 0.5300
8.777270 0.5410 0.5490 0.5710 0.5810 0.6030
8.810000 0.6090 0.6240 0.6310 0.6410 0.6530
8.843270 0.6640 0.6710 0.6750 0.6880 0.6980
8.877000 0.7050 0.7130 0.7250 0.7330 0.7400
8.910270 0.7450 0.7470 0.7500 0.7500 0.7520
8.943000 0.7520 0.7530 0.7550 0.7570 0.7570
8.976270 0.7570 0.7570 0.7570 0.7570 0.7550
9.010000 0.7550 0.7530 0.7530 0.7530 0.7500
9.043270 0.7500 0.7480 0.7480 0.7470 0.7420
9.076000 0.7350 0.7300 0.7210 0.7160 0.7060
9.109270 0.7000 0.6860 0.6760 0.6590 0.6510
9.143000 0.6210 0.6040 0.5990 0.5820 0.5660
9.176270 0.5510 0.5470 0.5320 0.5220 0.5100
9.210000 0.5000 0.5000 0.4990 0.4990 0.4990
9.243270 0.4990 0.4990 0.5000 0.5000 0.5000
9.276000 0.5000 0.4990 0.4990 0.4990 0.4970
9.309270 0.4950 0.4940 0.4920 0.4900 0.4900
9.343000 0.4890 0.4820 0.4740 0.4670 0.4630
9.376270 0.4600 0.4550 0.4500 0.4420 0.4350
9.409000 0.4280 0.4250 0.4200 0.4150 0.4100
9.442270 0.4030 0.4000 0.3980 0.3960 0.3960
9.476000 0.3930 0.3930 0.3930 0.3910 0.3910
9.509270 0.3930 0.3930 0.3930 0.3930 0.3930
9.542000 0.3930 0.3950 0.3960 0.3980 0.4000
9.575270 0.4020 0.4080 0.4130 0.4220 0.4270
9.609000 0.4320 0.4370 0.4400 0.4430 0.4450
9.642270 0.4480 0.4530 0.4580 0.4620 0.4700
9.675000 0.4790 0.4870 0.4970 0.4990 0.5020
9.708270 0.5020 0.5070 0.5100 0.5140 0.5200
9.742000 0.5270 0.5320 0.5390 0.5470 0.5490
9.775270 0.5520 0.5570 0.5590 0.5610 0.5620
9.808000 0.5620 0.5660 0.5670 0.5710 0.5740
9.841270 0.5770 0.5810 0.5820 0.5820 0.5860
9.875000 0.5870 0.5890 0.5910 0.5970 0.5970
9.908270 0.6010 0.6060 0.6110 0.6130 0.6140
9.941000 0.6180 0.6210 0.6260 0.6310 0.6330
9.974270 0.6330 0.6380 0.6410 0.6440 0.6480
10.008000 0.6510 0.6540 0.6580 0.6610 0.6660
10.041270 0.6710 0.6760 0.6780 0.6800 0.6810
10.074000 0.6830 0.6850 0.6900 0.6950 0.6980
10.107270 0.7000 0.7010 0.7010 0.7030 0.7080
10.141000 0.7100 0.7130 0.7150 0.7160 0.7160
10.174270 0.7180 0.7200 0.7200 0.7200 0.7210
10.207000 0.7210 0.7230 0.7250 0.7260 0.7280
10.240270 0.7280 0.7280 0.7280 0.7300 0.7300
10.274000 0.7300 0.7300 0.7300 0.7310 0.7330
10.307270 0.7330 0.7330 0.7350 0.7370 0.7380
10.340000 0.7400 0.7420 0.7430 0.7470 0.7480
10.373270 0.7520 0.7530 0.7550 0.7580 0.7600
10.407000 0.7620 0.7630 0.7650 0.7670 0.7680
10.440270 0.7700 0.7720 0.7750 0.7770 0.7800
10.473000 0.7800 0.7820 0.7820 0.7820 0.7820
10.506270 0.7820 0.7820 0.7820 0.7830 0.7830
10.540000 0.7850 0.7850 0.7850 0.7830 0.7830
10.573270 0.7830 0.7830 0.7820 0.7800 0.7750
10.606000 0.7750 0.7750 0.7750 0.7770 0.7770
10.639270 0.7770 0.7750 0.7730 0.7720 0.7700
10.673000 0.7670 0.7630 0.7550 0.7520 0.7480
10.706270 0.7400 0.7370 0.7350 0.7330 0.7330
10.739000 0.7330 0.7330 0.7330 0.7330 0.7330
10.772270 0.7330 0.7350 0.7350 0.7350 0.7350
10.806000 0.7400 0.7430 0.7500 0.7500 0.7530
10.839270 0.7530 0.7550 0.7630 0.7650 0.7670
10.872000 0.7680 0.7680 0.7700 0.7700 0.7700
10.905270 0.7700 0.7700 0.7700 0.7700 0.7700
10.939000 0.7700 0.7700 0.7700 0.7700 0.7700
10.972270 0.7700 0.7680 0.7680 0.7680 0.7680
11.005000 0.7680 0.7700 0.7700 0.7700 0.7700
11.038270 0.7700 0.7700 0.7700 0.7700 0.7700
11.072000 0.7700 0.7720 0.7720 0.7720 0.7730
11.105270 0.7730 0.7730 0.7750 0.7750 0.7750
11.138000 0.7750 0.7750 0.7750 0.7750 0.7750
11.171270 0.7730 0.7730 0.7730 0.7730 0.7720
11.205000 0.7700 0.7700 0.7680 0.7670 0.7630
11.238270 0.7580 0.7530 0.7530 0.7520 0.7520
11.271000 0.7500 0.7450 0.7420 0.7310 0.7280
11.304270 0.7250 0.7200 0.7130 0.7050 0.6930
11.338000 0.6860 0.6760 0.6660 0.6590 0.6510
11.371270 0.6410 0.6330 0.6180 0.6110 0.5990
11.404000 0.5970 0.5940 0.5870 0.5860 0.5860
11.437270 0.5870 0.5940 0.6010 0.6160 0.6310
11.471000 0.6490 0.6580 0.6710 0.6830 0.7000
11.504270 0.7010 0.7050 0.7100 0.7200 0.7380
11.537000 0.7420 0.7450 0.7470 0.7470 0.7500
11.570270 0.7520 0.7530 0.7530 0.7530 0.7530
11.604000 0.7500 0.7470 0.7470 0.7450 0.7430
11.637270 0.7430 0.7420 0.7400 0.7380 0.7370
11.670000 0.7350 0.7350 0.7330 0.7330 0.7330
11.703270 0.7330 0.7350 0.7370 0.7400 0.7430
11.737000 0.7500 0.7530 0.7600 0.7650 0.7780
11.770270 0.7850 0.7930 0.7930 0.7980 0.8000
11.803000 0.8020 0.8040 0.8050 0.8140 0.8150
11.836270 0.8150 0.8170 0.8170 0.8170 0.8190
11.870000 0.8220 0.8240 0.8250 0.8250 0.8250
11.903270 0.8250 0.8250 0.8250 0.8250 0.8250
11.936000 0.8250 0.8250 0.8250 0.8250 0.8250
11.969270 0.8250 0.8250 0.8250 0.8250 0.8240
12.003000 0.8220 0.8200 0.8150 0.8120 0.8100
12.036270 0.8100 0.8070 0.8050 0.8000 0.7920
12.069000 0.7850 0.7800 0.7750 0.7680 0.7620
12.102270 0.7530 0.7500 0.7400 0.7350 0.7260
12.136000 0.7160 0.7110 0.7030 0.7000 0.6880
12.169270 0.6800 0.6680 0.6590 0.6510 0.6480
12.202000 0.6280 0.6210 0.6130 0.6010 0.5820
12.235270 0.5720 0.5660 0.5540 0.5490 0.5390
12.269000 0.5300 0.5220 0.5100 0.5040 0.4990
12.302270 0.4940 0.4940 0.4920 0.4900 0.4890
12.335000 0.4870 0.4800 0.4740 0.4690 0.4620
12.368270 0.4580 0.4550 0.4530 0.4520 0.4500
12.402000 0.4470 0.4380 0.4370 0.4350 0.4330
12.435270 0.4300 0.4270 0.4220 0.4170 0.4150
12.468000 0.4130 0.4150 0.4170 0.4180 0.4200
12.501270 0.4220 0.4250 0.4300 0.4400 0.4480
12.535000 0.4520 0.4630 0.4870 0.4990 0.5050
12.568270 0.5140 0.5220 0.5320 0.5420 0.5490
12.601000 0.5570 0.5670 0.5770 0.5790 0.5820
12.634270 0.5840 0.5870 0.5890 0.5890 0.5890
12.668000 0.5890 0.5890 0.5890 0.5890 0.5890
12.701270 0.5890 0.5860 0.5860 0.5840 0.5840
12.734000 0.5840 0.5840 0.5840 0.5820 0.5820
12.767270 0.5790 0.5740 0.5720 0.5690 0.5660
12.801000 0.5640 0.5640 0.5620 0.5610 0.5590
12.834270 0.5570 0.5570 0.5560 0.5560 0.5560
12.867000 0.5570 0.5610 0.5620 0.5740 0.5820
12.900270 0.5870 0.5910 0.6040 0.6110 0.6160
12.934000 0.6210 0.6260 0.6330 0.6380 0.6430
12.967270 0.6480 0.6510 0.6530 0.6530 0.6540
13.000000 0.6540 0.6590 0.6630 0.6640 0.6640
13.033270 0.6660 0.6680 0.6700 0.6700 0.6710
13.067000 0.6710 0.6730 0.6730 0.6750 0.6760
13.100270 0.6780 0.6800 0.6810 0.6810 0.6830
13.133000 0.6860 0.6880 0.6880 0.6880 0.6900
13.166270 0.6900 0.6900 0.6900 0.6910 0.6930
13.200000 0.6950 0.6980 0.7010 0.7030 0.7050
13.233270 0.7050 0.7050 0.7050 0.7050 0.7060
13.267000 0.7050 0.7060 0.7110 0.7130 0.7150
13.300270 0.7150 0.7160 0.7160 0.7160 0.7180
13.333000 0.7180 0.7200 0.7210 0.7210 0.7230
13.366270 0.7250 0.7260 0.7280 0.7280 0.7280
13.400000 0.7280 0.7280 0.7280 0.7280 0.7280
13.433270 0.7280 0.7280 0.7280 0.7280 0.7280
13.466000 0.7280 0.7280 0.7260 0.7260 0.7250
13.499270 0.7230 0.7210 0.7210 0.7210 0.7200
13.533000 0.7180 0.7180 0.7110 0.7060 0.7050
13.566270 0.7050 0.7050 0.7050 0.7050 0.7050
13.599000 0.7050 0.7030 0.7010 0.7010 0.7000
13.632270 0.7000 0.7000 0.7000 0.6950 0.6900
13.666000 0.6850 0.6830 0.6800 0.6760 0.6750
13.699270 0.6730 0.6640 0.6630 0.6560 0.6540
13.732000 0.6490 0.6460 0.6430 0.6340 0.6240
13.765270 0.6190 0.6190 0.6180 0.6180 0.6160
13.799000 0.6130 0.6040 0.6040 0.6030 0.6030
13.832270 0.6040 0.6040 0.6040 0.6060 0.6130
13.865000 0.6180 0.6240 0.6310 0.6360 0.6430
13.898270 0.6510 0.6530 0.6560 0.6640 0.6700
13.932000 0.6760 0.6810 0.6850 0.6880 0.6910
13.965270 0.7000 0.7030 0.7050 0.7100 0.7150
13.998000 0.7180 0.7210 0.7260 0.7310 0.7330
14.031270 0.7350 0.7370 0.7380 0.7400 0.7420
14.065000 0.7450 0.7480 0.7500 0.7520 0.7520
14.098270 0.7530 0.7530 0.7550 0.7550 0.7550
14.131000 0.7570 0.7570 0.7550 0.7550 0.7550
14.164270 0.7550 0.7550 0.7550 0.7550 0.7550
14.198000 0.7550 0.7550 0.7550 0.7530 0.7530
14.231270 0.7530 0.7530 0.7530 0.7530 0.7530
14.264000 0.7530 0.7530 0.7530 0.7530 0.7530
14.297270 0.7530 0.7530 0.7550 0.7550 0.7550
14.331000 0.7550 0.7550 0.7550 0.7550 0.7550
14.364270 0.7570 0.7570 0.7570 0.7570 0.7550
14.397000 0.7550 0.7550 0.7550 0.7550 0.7550
14.430270 0.7550 0.7570 0.7570 0.7580 0.7570
14.464000 0.7570 0.7570 0.7570 0.7580 0.7580
14.497270 0.7600 0.7600 0.7620 0.7620 0.7630
14.530000 0.7650 0.7670 0.7680 0.7720 0.7720
14.563270 0.7730 0.7730 0.7750 0.7770 0.7770
14.597000 0.7770 0.7770 0.7770 0.7780 0.7780
14.630270 0.7780 0.7780 0.7780 0.7780 0.7780
14.663000 0.7800 0.7800 0.7820 0.7820 0.7820
14.696270 0.7820 0.7820 0.7830 0.7830 0.7830
14.730000 0.7830 0.7830 0.7830 0.7830 0.7830
14.763270 0.7830 0.7830 0.7830 0.7830 0.7830
14.796000 0.7850 0.7850 0.7850 0.7850 0.7850
14.829270 0.7850 0.7850 0.7850 0.7850 0.7850
14.863000 0.7850 0.7850 0.7850 0.7850 0.7850
14.896270 0.7850 0.7850 0.7850 0.7850 0.7830
14.929000 0.7830 0.7830 0.7830 0.7820 0.7800
14.962270 0.7780 0.7780 0.7780 0.7770 0.7770
14.996000 0.7770 0.7770 0.7780 0.7780 0.7780
15.029270 0.7780 0.7780 0.7770 0.7770 0.7750
15.062000 0.7750 0.7750 0.7750 0.7750 0.7750
15.095270 0.7750 0.7750 0.7750 0.7730 0.7730
15.129000 0.7720 0.7720 0.7700 0.7680 0.7670
15.162270 0.7630 0.7620 0.7620 0.7580 0.7570
15.195000 0.7570 0.7570 0.7570 0.7550 0.7550
15.228270 0.7550 0.7550 0.7550 0.7530 0.7530
15.262000 0.7530 0.7530 0.7530 0.7530 0.7530
15.295270 0.7520 0.7520 0.7500 0.7500 0.7480
15.328000 0.7480 0.7480 0.7480 0.7470 0.7470
15.361270 0.7430 0.7430 0.7430 0.7430 0.7430
15.395000 0.7420 0.7420 0.7400 0.7380 0.7330
15.428270 0.7330 0.7310 0.7300 0.7300 0.7310
15.461000 0.7300 0.7300 0.7300 0.7280 0.7280
15.494270 0.7260 0.7260 0.7260 0.7260 0.7250
15.528000 0.7250 0.7250 0.7230 0.7230 0.7210
15.561270 0.7210 0.7210 0.7200 0.7200 0.7200
15.594000 0.7200 0.7200 0.7200 0.7200 0.7200
15.627270 0.7200 0.7180 0.7180 0.7160 0.7160
15.661000 0.7160 0.7150 0.7150 0.7150 0.7130
15.694270 0.7130 0.7110 0.7100 0.7100 0.7080
15.727000 0.7100 0.7100 0.7110 0.7100 0.7100
15.760270 0.7060 0.7060 0.7050 0.7030 0.6900
15.794000 0.6880 0.6860 0.6860 0.6850 0.6860
15.827270 0.6860 0.6860 0.6860 0.6860 0.6860
15.860000 0.6860 0.6860 0.6860 0.6860 0.6860
15.893270 0.6860 0.6860 0.6860 0.6860 0.6860
15.927000 0.6860 0.6860 0.6860 0.6850 0.6850
15.960270 0.6850 0.6850 0.6850 0.6830 0.6830
15.993000 0.6850 0.6850 0.6850
##END=
