##TITLE=POTASSIUM FERRICYANIDE
$$ A.R.
##JCAMP-DX=4.24
##DATA TYPE=INFRARED SPECTRUM
##CLASS=COBLENTZ
##ORIGIN=MELLON INSTITUTE
##OWNER=COBLENTZ SOCIETY
Collection (C) 2018 copyright by the U.S. Secretary of Commerce
on behalf of the United States of America. All rights reserved.
##DATE=Not specified, most likely prior to 1970
##MOLFORM=K3 Fe ( C N)6
##SOURCE REFERENCE=COBLENTZ NO. 589
##$NIST ID=B6000589
##$NIST SOURCE=COBLENTZ
##$NIST IMAGE=cob589
##SPECTROMETER/DATA SYSTEM=Not specified, most likely a prism, grating, or hybrid spectrometer.
##STATE=SOLID (NUJOL MULL)
##PATH LENGTH=
$$SPECTRAL CONTAMINATION DUE TO OIL AROUND 2900, 1450, 1380 CM^-^1
##SAMPLING PROCEDURE=TRANSMISSION
##RESOLUTION=4
##DATA PROCESSING=DIGITIZED BY NIST FROM HARD COPY
##XUNITS=MICROMETERS
##YUNITS=TRANSMITTANCE
##XFACTOR=1.000000
##YFACTOR=1
##DELTAX=000.006679
##FIRSTX=2.018
##LASTX=15.997
##FIRSTY=0.368
##MAXX=15.997
##MINX=2.018
##MAXY=0.958
##MINY=0.088
##NPOINTS=2094
##XYDATA=(X++(Y..Y))
2.018000 0.3680 0.3680 0.3720 0.3720 0.3730
2.051410 0.3750 0.3750 0.3770 0.3770 0.3800
2.085000 0.3800 0.3820 0.3830 0.3830 0.3870
2.118410 0.3870 0.3900 0.3930 0.3950 0.3950
2.152000 0.3970 0.3980 0.3980 0.4000 0.4000
2.185410 0.4000 0.4020 0.4020 0.4040 0.4050
2.219000 0.4090 0.4090 0.4100 0.4120 0.4140
2.252410 0.4150 0.4150 0.4150 0.4170 0.4150
2.285000 0.4150 0.4150 0.4170 0.4170 0.4170
2.318410 0.4170 0.4190 0.4190 0.4200 0.4200
2.352000 0.4220 0.4220 0.4240 0.4240 0.4240
2.385410 0.4250 0.4270 0.4270 0.4270 0.4300
2.419000 0.4320 0.4340 0.4350 0.4350 0.4390
2.452410 0.4400 0.4420 0.4440 0.4470 0.4500
2.486000 0.4520 0.4520 0.4540 0.4570 0.4590
2.519410 0.4590 0.4600 0.4620 0.4620 0.4640
2.553000 0.4640 0.4650 0.4670 0.4690 0.4690
2.586410 0.4690 0.4700 0.4690 0.4700 0.4720
2.619000 0.4740 0.4750 0.4770 0.4790 0.4790
2.652410 0.4800 0.4800 0.4820 0.4820 0.4840
2.686000 0.4840 0.4850 0.4850 0.4850 0.4870
2.719410 0.4850 0.4890 0.4890 0.4900 0.4900
2.753000 0.4920 0.4920 0.4920 0.4920 0.4920
2.786410 0.4920 0.4920 0.4920 0.4900 0.4900
2.820000 0.4900 0.4900 0.4900 0.4900 0.4900
2.853410 0.4920 0.4920 0.4920 0.4920 0.4920
2.886000 0.4940 0.4920 0.4920 0.4940 0.4940
2.919410 0.4940 0.4940 0.4950 0.4940 0.4940
2.953000 0.4950 0.4940 0.4940 0.4940 0.4940
2.986410 0.4940 0.4940 0.4920 0.4920 0.4920
3.020000 0.4940 0.4940 0.4940 0.4950 0.4950
3.053410 0.4950 0.4970 0.4950 0.4950 0.4940
3.087000 0.4940 0.4940 0.4940 0.4940 0.4940
3.120410 0.4950 0.4950 0.4970 0.4970 0.4990
3.154000 0.4990 0.4990 0.4990 0.4990 0.4970
3.187410 0.4970 0.4970 0.4970 0.4970 0.4970
3.220000 0.4970 0.4920 0.4900 0.4850 0.4800
3.253410 0.4740 0.4690 0.4600 0.4540 0.4470
3.287000 0.4370 0.4250 0.3930 0.3620 0.3120
3.320410 0.2500 0.2330 0.2050 0.1950 0.1700
3.354000 0.1560 0.1430 0.1250 0.1150 0.1030
3.387410 0.0930 0.0900 0.0880 0.0880 0.0880
3.421000 0.0910 0.0930 0.0930 0.0930 0.0910
3.454410 0.0900 0.0900 0.0900 0.0930 0.1130
3.488000 0.1580 0.2400 0.3270 0.3680 0.5100
3.521410 0.5440 0.6290 0.6440 0.6590 0.6790
3.554000 0.7020 0.7090 0.7220 0.7270 0.7370
3.587410 0.7440 0.7490 0.7540 0.7560 0.7560
3.621000 0.7560 0.7560 0.7560 0.7560 0.7560
3.654410 0.7560 0.7560 0.7560 0.7560 0.7570
3.688000 0.7570 0.7570 0.7570 0.7570 0.7570
3.721410 0.7570 0.7570 0.7590 0.7590 0.7610
3.755000 0.7610 0.7610 0.7610 0.7620 0.7620
3.788410 0.7620 0.7640 0.7640 0.7640 0.7670
3.821000 0.7670 0.7690 0.7710 0.7720 0.7770
3.854410 0.7790 0.7810 0.7810 0.7810 0.7810
3.888000 0.7810 0.7810 0.7810 0.7810 0.7810
3.921410 0.7810 0.7810 0.7810 0.7790 0.7770
3.955000 0.7770 0.7760 0.7760 0.7760 0.7760
3.988410 0.7760 0.7760 0.7770 0.7790 0.7810
4.022000 0.7810 0.7840 0.7860 0.7870 0.7870
4.055410 0.7870 0.7890 0.7910 0.7910 0.7920
4.089000 0.7940 0.7940 0.7960 0.7970 0.7990
4.122410 0.7990 0.8010 0.8010 0.8010 0.8030
4.155000 0.8030 0.8030 0.8040 0.8040 0.8040
4.188410 0.8040 0.8040 0.8040 0.8040 0.8040
4.222000 0.8040 0.8060 0.8060 0.8060 0.8060
4.255410 0.8080 0.8080 0.8080 0.8080 0.8080
4.289000 0.8090 0.8090 0.8090 0.8090 0.8090
4.322410 0.8090 0.8110 0.8110 0.8140 0.8160
4.356000 0.8160 0.8160 0.8180 0.8180 0.8180
4.389410 0.8190 0.8190 0.8190 0.8180 0.8190
4.423000 0.8190 0.8190 0.8190 0.8190 0.8210
4.456410 0.8210 0.8210 0.8210 0.8210 0.8210
4.489000 0.8210 0.8230 0.8230 0.8230 0.8240
4.522410 0.8240 0.8240 0.8240 0.8260 0.8260
4.556000 0.8260 0.8260 0.8280 0.8290 0.8290
4.589410 0.8290 0.8310 0.8310 0.8310 0.8330
4.623000 0.8340 0.8360 0.8380 0.8390 0.8410
4.656410 0.8430 0.8440 0.8480 0.8490 0.8530
4.690000 0.8590 0.8590 0.8580 0.8540 0.8430
4.723410 0.8280 0.7840 0.7320 0.6570 0.5820
4.757000 0.5090 0.4920 0.4800 0.4770 0.4750
4.790410 0.4770 0.4790 0.4820 0.4920 0.5000
4.823000 0.5090 0.5120 0.5140 0.5170 0.5190
4.856410 0.5240 0.5340 0.5420 0.5500 0.5570
4.890000 0.5650 0.5720 0.5790 0.5870 0.5950
4.923410 0.5990 0.6020 0.6110 0.6170 0.6220
4.957000 0.6290 0.6390 0.6470 0.6560 0.6620
4.990410 0.6710 0.6770 0.6840 0.6890 0.6940
5.024000 0.6990 0.7040 0.7060 0.7110 0.7140
5.057410 0.7210 0.7240 0.7310 0.7370 0.7460
5.090000 0.7490 0.7510 0.7520 0.7540 0.7560
5.123410 0.7570 0.7610 0.7640 0.7670 0.7690
5.157000 0.7740 0.7770 0.7810 0.7860 0.7870
5.190410 0.7920 0.7970 0.7970 0.7990 0.8010
5.224000 0.8010 0.8010 0.8030 0.8040 0.8040
5.257410 0.8040 0.8060 0.8060 0.8060 0.8080
5.291000 0.8080 0.8090 0.8110 0.8130 0.8130
5.324410 0.8130 0.8130 0.8140 0.8160 0.8180
5.358000 0.8180 0.8180 0.8190 0.8190 0.8190
5.391410 0.8210 0.8190 0.8210 0.8210 0.8210
5.424000 0.8230 0.8230 0.8240 0.8240 0.8260
5.457410 0.8280 0.8280 0.8280 0.8290 0.8290
5.491000 0.8290 0.8310 0.8310 0.8340 0.8360
5.524410 0.8360 0.8380 0.8390 0.8410 0.8430
5.558000 0.8440 0.8460 0.8460 0.8460 0.8480
5.591410 0.8480 0.8480 0.8480 0.8490 0.8490
5.625000 0.8510 0.8510 0.8510 0.8510 0.8530
5.658410 0.8540 0.8530 0.8560 0.8580 0.8580
5.692000 0.8590 0.8590 0.8610 0.8610 0.8610
5.725410 0.8640 0.8640 0.8640 0.8640 0.8640
5.758000 0.8640 0.8660 0.8660 0.8680 0.8680
5.791410 0.8680 0.8680 0.8680 0.8690 0.8690
5.825000 0.8680 0.8690 0.8690 0.8710 0.8710
5.858410 0.8730 0.8730 0.8730 0.8730 0.8740
5.892000 0.8740 0.8760 0.8780 0.8790 0.8790
5.925410 0.8790 0.8790 0.8790 0.8790 0.8790
5.959000 0.8790 0.8790 0.8790 0.8790 0.8790
5.992410 0.8780 0.8760 0.8760 0.8760 0.8760
6.026000 0.8740 0.8740 0.8730 0.8730 0.8710
6.059410 0.8690 0.8690 0.8680 0.8680 0.8680
6.092000 0.8660 0.8640 0.8640 0.8630 0.8630
6.125410 0.8630 0.8630 0.8640 0.8640 0.8680
6.159000 0.8690 0.8690 0.8690 0.8710 0.8730
6.192410 0.8760 0.8780 0.8810 0.8830 0.8840
6.226000 0.8860 0.8880 0.8880 0.8880 0.8890
6.259410 0.8890 0.8890 0.8890 0.8890 0.8890
6.293000 0.8890 0.8890 0.8880 0.8880 0.8880
6.326410 0.8860 0.8840 0.8860 0.8860 0.8860
6.359000 0.8860 0.8840 0.8840 0.8840 0.8830
6.392410 0.8810 0.8810 0.8790 0.8790 0.8790
6.426000 0.8790 0.8790 0.8810 0.8810 0.8830
6.459410 0.8830 0.8840 0.8840 0.8830 0.8810
6.493000 0.8810 0.8790 0.8810 0.8810 0.8790
6.526410 0.8790 0.8790 0.8790 0.8790 0.8790
6.560000 0.8790 0.8790 0.8790 0.8780 0.8790
6.593410 0.8780 0.8760 0.8740 0.8730 0.8710
6.627000 0.8690 0.8680 0.8610 0.8590 0.8560
6.660410 0.8490 0.8440 0.8380 0.8330 0.8240
6.693000 0.8140 0.7960 0.7840 0.7640 0.7490
6.726410 0.7360 0.7260 0.7120 0.7010 0.6860
6.760000 0.6510 0.5700 0.5440 0.5090 0.4740
6.793410 0.4090 0.3600 0.3420 0.3300 0.3280
6.827000 0.3270 0.3270 0.3250 0.3250 0.3270
6.860410 0.3280 0.3330 0.3450 0.3620 0.3850
6.894000 0.4040 0.4190 0.4300 0.4520 0.4670
6.927410 0.4970 0.5120 0.5470 0.5850 0.6010
6.961000 0.6260 0.6490 0.6570 0.6870 0.7110
6.994410 0.7290 0.7440 0.7590 0.7710 0.7810
7.027000 0.7910 0.7990 0.8080 0.8160 0.8190
7.060410 0.8230 0.8240 0.8280 0.8280 0.8290
7.094000 0.8290 0.8290 0.8290 0.8290 0.8290
7.127410 0.8260 0.8210 0.8160 0.8060 0.7940
7.161000 0.7740 0.7510 0.7190 0.7060 0.6310
7.194410 0.5850 0.5550 0.5240 0.4940 0.4940
7.228000 0.4970 0.5020 0.5170 0.5490 0.5590
7.261410 0.5740 0.5790 0.5920 0.5990 0.6070
7.294000 0.6240 0.6570 0.6770 0.6870 0.6940
7.327410 0.7060 0.7160 0.7260 0.7360 0.7420
7.361000 0.7490 0.7540 0.7570 0.7610 0.7640
7.394410 0.7690 0.7710 0.7740 0.7760 0.7770
7.428000 0.7790 0.7820 0.7860 0.7920 0.7990
7.461410 0.8040 0.8110 0.8160 0.8190 0.8230
7.495000 0.8280 0.8290 0.8310 0.8330 0.8340
7.528410 0.8340 0.8360 0.8390 0.8390 0.8410
7.562000 0.8410 0.8410 0.8410 0.8390 0.8390
7.595410 0.8390 0.8390 0.8390 0.8390 0.8410
7.628000 0.8410 0.8410 0.8410 0.8430 0.8430
7.661410 0.8430 0.8430 0.8440 0.8460 0.8460
7.695000 0.8480 0.8480 0.8490 0.8510 0.8510
7.728410 0.8530 0.8540 0.8560 0.8560 0.8580
7.762000 0.8580 0.8580 0.8580 0.8580 0.8580
7.795410 0.8590 0.8590 0.8610 0.8590 0.8590
7.829000 0.8610 0.8610 0.8610 0.8610 0.8630
7.862410 0.8610 0.8630 0.8630 0.8630 0.8630
7.896000 0.8630 0.8630 0.8630 0.8640 0.8640
7.929410 0.8640 0.8640 0.8660 0.8680 0.8680
7.962000 0.8680 0.8690 0.8690 0.8690 0.8690
7.995410 0.8690 0.8690 0.8690 0.8710 0.8710
8.029000 0.8730 0.8730 0.8740 0.8740 0.8730
8.062410 0.8730 0.8730 0.8710 0.8730 0.8730
8.096000 0.8740 0.8740 0.8740 0.8740 0.8760
8.129410 0.8790 0.8790 0.8830 0.8830 0.8840
8.163000 0.8840 0.8860 0.8860 0.8860 0.8880
8.196410 0.8880 0.8890 0.8890 0.8890 0.8910
8.230000 0.8910 0.8930 0.8930 0.8930 0.8940
8.263410 0.8940 0.8940 0.8960 0.8960 0.8980
8.296000 0.8980 0.8980 0.8990 0.8990 0.8990
8.329410 0.9010 0.9010 0.9010 0.9010 0.9030
8.363000 0.9040 0.9040 0.9060 0.9060 0.9080
8.396410 0.9080 0.9090 0.9090 0.9110 0.9110
8.430000 0.9110 0.9130 0.9130 0.9110 0.9110
8.463410 0.9130 0.9130 0.9130 0.9130 0.9130
8.497000 0.9130 0.9130 0.9140 0.9140 0.9140
8.530410 0.9140 0.9130 0.9130 0.9130 0.9130
8.563000 0.9130 0.9110 0.9110 0.9110 0.9090
8.596410 0.9090 0.9090 0.9090 0.9090 0.9090
8.630000 0.9090 0.9090 0.9090 0.9090 0.9090
8.663410 0.9090 0.9090 0.9090 0.9090 0.9080
8.697000 0.9080 0.9080 0.9080 0.9080 0.9080
8.730410 0.9080 0.9080 0.9080 0.9080 0.9080
8.764000 0.9080 0.9080 0.9080 0.9080 0.9090
8.797410 0.9090 0.9090 0.9090 0.9090 0.9090
8.831000 0.9110 0.9110 0.9110 0.9110 0.9110
8.864410 0.9110 0.9110 0.9110 0.9110 0.9110
8.897000 0.9110 0.9110 0.9110 0.9110 0.9110
8.930410 0.9130 0.9130 0.9140 0.9140 0.9140
8.964000 0.9140 0.9140 0.9160 0.9160 0.9180
8.997410 0.9190 0.9190 0.9190 0.9210 0.9210
9.031000 0.9210 0.9190 0.9190 0.9190 0.9190
9.064410 0.9190 0.9190 0.9190 0.9190 0.9210
9.098000 0.9210 0.9190 0.9190 0.9190 0.9190
9.131410 0.9190 0.9190 0.9190 0.9190 0.9180
9.165000 0.9190 0.9190 0.9210 0.9210 0.9210
9.198410 0.9210 0.9210 0.9210 0.9210 0.9190
9.231000 0.9190 0.9190 0.9190 0.9190 0.9180
9.264410 0.9180 0.9180 0.9190 0.9190 0.9190
9.298000 0.9210 0.9210 0.9210 0.9230 0.9230
9.331410 0.9230 0.9240 0.9260 0.9260 0.9260
9.365000 0.9260 0.9260 0.9280 0.9260 0.9260
9.398410 0.9260 0.9260 0.9260 0.9280 0.9260
9.432000 0.9260 0.9260 0.9240 0.9240 0.9240
9.465410 0.9240 0.9240 0.9260 0.9260 0.9260
9.498000 0.9260 0.9260 0.9260 0.9240 0.9240
9.531410 0.9240 0.9240 0.9240 0.9240 0.9240
9.565000 0.9240 0.9240 0.9230 0.9230 0.9210
9.598410 0.9210 0.9190 0.9190 0.9190 0.9190
9.632000 0.9190 0.9190 0.9190 0.9210 0.9210
9.665410 0.9210 0.9230 0.9210 0.9210 0.9210
9.699000 0.9210 0.9210 0.9210 0.9210 0.9210
9.732410 0.9230 0.9230 0.9230 0.9230 0.9230
9.766000 0.9230 0.9230 0.9230 0.9230 0.9230
9.799410 0.9240 0.9260 0.9240 0.9240 0.9240
9.832000 0.9240 0.9240 0.9240 0.9260 0.9260
9.865410 0.9280 0.9280 0.9290 0.9290 0.9290
9.899000 0.9290 0.9310 0.9310 0.9290 0.9290
9.932410 0.9290 0.9280 0.9280 0.9290 0.9290
9.966000 0.9280 0.9280 0.9280 0.9260 0.9280
9.999410 0.9280 0.9290 0.9290 0.9310 0.9310
10.033000 0.9310 0.9310 0.9310 0.9330 0.9330
10.066410 0.9330 0.9330 0.9330 0.9330 0.9330
10.100000 0.9330 0.9330 0.9330 0.9330 0.9310
10.133410 0.9310 0.9310 0.9310 0.9290 0.9290
10.166000 0.9290 0.9290 0.9290 0.9290 0.9290
10.199410 0.9290 0.9310 0.9290 0.9280 0.9280
10.233000 0.9260 0.9260 0.9280 0.9280 0.9280
10.266410 0.9260 0.9260 0.9240 0.9240 0.9240
10.300000 0.9230 0.9230 0.9230 0.9230 0.9210
10.333410 0.9210 0.9210 0.9210 0.9210 0.9210
10.367000 0.9210 0.9210 0.9210 0.9210 0.9210
10.400410 0.9190 0.9190 0.9210 0.9210 0.9210
10.434000 0.9210 0.9210 0.9210 0.9210 0.9230
10.467410 0.9230 0.9230 0.9230 0.9210 0.9210
10.500000 0.9210 0.9190 0.9190 0.9190 0.9190
10.533410 0.9190 0.9190 0.9190 0.9190 0.9190
10.567000 0.9190 0.9190 0.9190 0.9190 0.9190
10.600410 0.9180 0.9160 0.9160 0.9160 0.9140
10.634000 0.9140 0.9140 0.9140 0.9140 0.9140
10.667410 0.9140 0.9140 0.9140 0.9160 0.9160
10.701000 0.9190 0.9190 0.9190 0.9190 0.9190
10.734410 0.9210 0.9210 0.9210 0.9230 0.9230
10.767000 0.9230 0.9230 0.9240 0.9230 0.9230
10.800410 0.9210 0.9210 0.9210 0.9230 0.9230
10.834000 0.9230 0.9240 0.9240 0.9260 0.9260
10.867410 0.9260 0.9260 0.9240 0.9240 0.9260
10.901000 0.9260 0.9260 0.9280 0.9260 0.9240
10.934410 0.9240 0.9240 0.9240 0.9240 0.9240
10.968000 0.9240 0.9240 0.9240 0.9260 0.9260
11.001410 0.9280 0.9310 0.9290 0.9310 0.9310
11.035000 0.9310 0.9310 0.9310 0.9310 0.9330
11.068410 0.9310 0.9310 0.9290 0.9280 0.9240
11.101000 0.9240 0.9260 0.9260 0.9260 0.9260
11.134410 0.9290 0.9280 0.9280 0.9280 0.9280
11.168000 0.9280 0.9280 0.9280 0.9280 0.9240
11.201410 0.9240 0.9260 0.9260 0.9260 0.9240
11.235000 0.9240 0.9240 0.9230 0.9230 0.9240
11.268410 0.9240 0.9240 0.9240 0.9240 0.9240
11.302000 0.9240 0.9240 0.9240 0.9240 0.9260
11.335410 0.9260 0.9280 0.9290 0.9290 0.9290
11.369000 0.9310 0.9310 0.9310 0.9310 0.9290
11.402410 0.9310 0.9330 0.9310 0.9330 0.9330
11.435000 0.9330 0.9330 0.9330 0.9330 0.9330
11.468410 0.9330 0.9330 0.9340 0.9340 0.9340
11.502000 0.9340 0.9360 0.9380 0.9380 0.9380
11.535410 0.9390 0.9390 0.9390 0.9390 0.9390
11.569000 0.9390 0.9410 0.9410 0.9430 0.9430
11.602410 0.9430 0.9430 0.9440 0.9440 0.9440
11.636000 0.9440 0.9440 0.9430 0.9430 0.9430
11.669410 0.9440 0.9440 0.9440 0.9460 0.9460
11.702000 0.9460 0.9480 0.9480 0.9490 0.9510
11.735410 0.9510 0.9530 0.9530 0.9530 0.9510
11.769000 0.9510 0.9510 0.9510 0.9510 0.9490
11.802410 0.9480 0.9460 0.9480 0.9480 0.9490
11.836000 0.9490 0.9490 0.9490 0.9490 0.9490
11.869410 0.9510 0.9510 0.9510 0.9510 0.9530
11.903000 0.9530 0.9540 0.9540 0.9540 0.9540
11.936410 0.9540 0.9540 0.9560 0.9560 0.9560
11.970000 0.9560 0.9560 0.9560 0.9560 0.9560
12.003410 0.9530 0.9540 0.9540 0.9540 0.9540
12.036000 0.9540 0.9540 0.9540 0.9530 0.9540
12.069410 0.9540 0.9540 0.9540 0.9560 0.9560
12.103000 0.9580 0.9580 0.9580 0.9580 0.9580
12.136410 0.9540 0.9540 0.9540 0.9540 0.9540
12.170000 0.9540 0.9540 0.9540 0.9540 0.9540
12.203410 0.9540 0.9540 0.9540 0.9540 0.9540
12.237000 0.9540 0.9540 0.9560 0.9580 0.9560
12.270410 0.9560 0.9580 0.9560 0.9560 0.9560
12.304000 0.9540 0.9540 0.9540 0.9530 0.9530
12.337410 0.9530 0.9510 0.9510 0.9510 0.9510
12.370000 0.9510 0.9530 0.9530 0.9540 0.9540
12.403410 0.9540 0.9540 0.9540 0.9540 0.9560
12.437000 0.9540 0.9540 0.9560 0.9530 0.9530
12.470410 0.9530 0.9510 0.9510 0.9510 0.9510
12.504000 0.9510 0.9510 0.9510 0.9510 0.9510
12.537410 0.9530 0.9530 0.9530 0.9530 0.9530
12.571000 0.9530 0.9530 0.9510 0.9510 0.9490
12.604410 0.9530 0.9530 0.9530 0.9510 0.9490
12.638000 0.9510 0.9490 0.9490 0.9490 0.9490
12.671410 0.9490 0.9490 0.9490 0.9490 0.9480
12.704000 0.9490 0.9490 0.9490 0.9480 0.9480
12.737410 0.9460 0.9440 0.9440 0.9430 0.9390
12.771000 0.9390 0.9360 0.9340 0.9340 0.9330
12.804410 0.9310 0.9330 0.9330 0.9330 0.9310
12.838000 0.9310 0.9290 0.9290 0.9290 0.9290
12.871410 0.9290 0.9290 0.9290 0.9290 0.9290
12.905000 0.9290 0.9290 0.9280 0.9280 0.9260
12.938410 0.9260 0.9260 0.9260 0.9260 0.9280
12.971000 0.9290 0.9290 0.9310 0.9310 0.9330
13.004410 0.9330 0.9330 0.9330 0.9330 0.9330
13.038000 0.9330 0.9330 0.9330 0.9330 0.9330
13.071410 0.9330 0.9330 0.9310 0.9310 0.9310
13.105000 0.9310 0.9310 0.9310 0.9310 0.9310
13.138410 0.9310 0.9310 0.9310 0.9310 0.9310
13.172000 0.9310 0.9310 0.9310 0.9310 0.9310
13.205410 0.9310 0.9330 0.9330 0.9330 0.9330
13.239000 0.9330 0.9330 0.9330 0.9330 0.9330
13.272410 0.9310 0.9310 0.9290 0.9290 0.9280
13.305000 0.9280 0.9260 0.9260 0.9240 0.9240
13.338410 0.9240 0.9230 0.9230 0.9230 0.9230
13.372000 0.9210 0.9210 0.9210 0.9190 0.9190
13.405410 0.9180 0.9160 0.9140 0.9130 0.9110
13.439000 0.9090 0.9090 0.9090 0.9080 0.9060
13.472410 0.9060 0.8990 0.8980 0.8940 0.8940
13.506000 0.8940 0.8930 0.8930 0.8930 0.8910
13.539410 0.8890 0.8890 0.8880 0.8880 0.8840
13.573000 0.8840 0.8840 0.8830 0.8830 0.8790
13.606410 0.8780 0.8740 0.8690 0.8690 0.8680
13.639000 0.8660 0.8640 0.8610 0.8590 0.8560
13.672410 0.8540 0.8510 0.8490 0.8460 0.8460
13.706000 0.8440 0.8410 0.8390 0.8360 0.8330
13.739410 0.8290 0.8260 0.8240 0.8230 0.8210
13.773000 0.8180 0.8160 0.8160 0.8160 0.8130
13.806410 0.8130 0.8110 0.8110 0.8110 0.8110
13.840000 0.8130 0.8130 0.8160 0.8180 0.8180
13.873410 0.8190 0.8210 0.8240 0.8260 0.8290
13.906000 0.8310 0.8330 0.8340 0.8360 0.8390
13.939410 0.8430 0.8460 0.8480 0.8490 0.8490
13.973000 0.8490 0.8510 0.8510 0.8530 0.8540
14.006410 0.8530 0.8540 0.8560 0.8580 0.8590
14.040000 0.8610 0.8610 0.8630 0.8640 0.8660
14.073410 0.8680 0.8710 0.8710 0.8730 0.8740
14.107000 0.8740 0.8740 0.8760 0.8760 0.8760
14.140410 0.8780 0.8780 0.8780 0.8780 0.8790
14.174000 0.8790 0.8790 0.8790 0.8790 0.8790
14.207410 0.8790 0.8780 0.8780 0.8760 0.8730
14.240000 0.8730 0.8730 0.8710 0.8710 0.8690
14.273410 0.8690 0.8680 0.8680 0.8680 0.8660
14.307000 0.8640 0.8610 0.8590 0.8580 0.8560
14.340410 0.8560 0.8540 0.8540 0.8530 0.8510
14.374000 0.8510 0.8510 0.8510 0.8490 0.8490
14.407410 0.8460 0.8410 0.8410 0.8380 0.8380
14.441000 0.8360 0.8340 0.8340 0.8310 0.8280
14.474410 0.8260 0.8260 0.8240 0.8240 0.8230
14.508000 0.8230 0.8210 0.8190 0.8190 0.8180
14.541410 0.8180 0.8180 0.8180 0.8160 0.8160
14.574000 0.8140 0.8140 0.8130 0.8110 0.8110
14.607410 0.8090 0.8090 0.8080 0.8040 0.8040
14.641000 0.8030 0.8030 0.8010 0.8010 0.7990
14.674410 0.7960 0.7940 0.7920 0.7920 0.7910
14.708000 0.7910 0.7910 0.7890 0.7860 0.7840
14.741410 0.7840 0.7820 0.7810 0.7810 0.7790
14.775000 0.7770 0.7770 0.7760 0.7760 0.7740
14.808410 0.7740 0.7740 0.7720 0.7710 0.7690
14.842000 0.7690 0.7670 0.7640 0.7620 0.7610
14.875410 0.7610 0.7590 0.7570 0.7570 0.7560
14.908000 0.7560 0.7540 0.7540 0.7520 0.7520
14.941410 0.7520 0.7510 0.7490 0.7470 0.7470
14.975000 0.7460 0.7460 0.7440 0.7420 0.7420
15.008410 0.7390 0.7370 0.7340 0.7310 0.7310
15.042000 0.7290 0.7270 0.7270 0.7240 0.7220
15.075410 0.7210 0.7210 0.7190 0.7190 0.7170
15.109000 0.7170 0.7160 0.7160 0.7140 0.7110
15.142410 0.7090 0.7060 0.7040 0.7020 0.7010
15.175000 0.7010 0.6990 0.6970 0.6960 0.6960
15.208410 0.6940 0.6910 0.6860 0.6840 0.6820
15.242000 0.6820 0.6810 0.6810 0.6790 0.6770
15.275410 0.6770 0.6760 0.6720 0.6710 0.6710
15.309000 0.6710 0.6690 0.6690 0.6670 0.6670
15.342410 0.6660 0.6660 0.6640 0.6620 0.6620
15.376000 0.6610 0.6590 0.6590 0.6590 0.6590
15.409410 0.6590 0.6590 0.6590 0.6590 0.6590
15.443000 0.6590 0.6570 0.6570 0.6560 0.6560
15.476410 0.6540 0.6540 0.6520 0.6520 0.6510
15.509000 0.6510 0.6490 0.6470 0.6470 0.6460
15.542410 0.6460 0.6440 0.6440 0.6440 0.6420
15.576000 0.6410 0.6410 0.6390 0.6410 0.6390
15.609410 0.6390 0.6370 0.6360 0.6360 0.6360
15.643000 0.6340 0.6320 0.6320 0.6310 0.6270
15.676410 0.6260 0.6240 0.6220 0.6210 0.6210
15.710000 0.6210 0.6190 0.6190 0.6170 0.6170
15.743410 0.6160 0.6170 0.6160 0.6160 0.6160
15.777000 0.6140 0.6140 0.6120 0.6120 0.6120
15.810410 0.6110 0.6090 0.6070 0.6070 0.6060
15.843000 0.6040 0.6040 0.6020 0.6020 0.6020
15.876410 0.6020 0.6020 0.6010 0.6010 0.5990
15.910000 0.5970 0.5950 0.5940 0.5940 0.5920
15.943410 0.5920 0.5900 0.5900 0.5890 0.5890
15.977000 0.5870 0.5870 0.5870 0.5850
##END=
