##TITLE=Ethanol, 2-[(6(1H)-oxo-9H-purin-2-yl)thio]- (keto form)
##JCAMP-DX=4.24
##DATA TYPE=INFRARED SPECTRUM
##CLASS=COBLENTZ III
##ORIGIN=SOUTHERN RESEARCH INSTITUTE
##OWNER=Copyright (C) 1987 by the Coblentz Society
Collection (C) 2018 copyright by the U.S. Secretary of Commerce
on behalf of the United States of America. All rights reserved.
##DATE=1958/02/01
##NAMES=2-[(2-hydroxyethyl)sulfanyl]-1,9-dihydro-6H-purin-6-one
##MOLFORM=C7 H8 N4 O2 S
##SOURCE REFERENCE=COBLENTZ NO. 8728
##$NIST ID=B6008728
##$NIST SOURCE=COBLENTZ
##$NIST IMAGE=cob8728
##SPECTROMETER/DATA SYSTEM=PERKIN-ELMER 21 (GRATING)
##INSTRUMENT PARAMETERS=FILTER CHANGE ABOUT 1090 CM^-^1
##STATE=SOLID (KBr DISC)
##SAMPLING PROCEDURE=TRANSMISSION
##RESOLUTION=2
##DATA PROCESSING=DIGITIZED BY COBLENTZ SOCIETY (BATCH II) FROM HARD COPY (ADJUSTED \addcm-1\20-15-3\)
##XUNITS=1/CM
##YUNITS=TRANSMITTANCE
##XFACTOR=1.0
##YFACTOR=1
##DELTAX=1.005103
##FIRSTX=601.64
##LASTX=4019.99
##FIRSTY=0.5804
##MAXX=4019.99
##MINX=601.64
##MAXY=0.625206
##MINY=0.0238278
##NPOINTS=3402
##XYDATA=(X++(Y..Y))
601.640000 0.5804 0.5808 0.5810 0.5812 0.5814
606.665514 0.5816 0.5816 0.5816 0.5816 0.5816
611.691029 0.5815 0.5814 0.5813 0.5810 0.5813
616.716543 0.5804 0.5791 0.5777 0.5762 0.5749
621.742058 0.5743 0.5739 0.5735 0.5737 0.5745
626.767572 0.5758 0.5772 0.5788 0.5803 0.5813
631.793086 0.5822 0.5827 0.5828 0.5829 0.5828
636.818601 0.5825 0.5823 0.5820 0.5813 0.5803
641.844115 0.5793 0.5783 0.5771 0.5747 0.5696
646.869630 0.5592 0.5487 0.5384 0.5279 0.5175
651.895144 0.5070 0.4967 0.4916 0.4879 0.4842
656.920658 0.4805 0.4769 0.4752 0.4752 0.4758
661.946173 0.4766 0.4774 0.4781 0.4788 0.4795
666.971687 0.4796 0.4789 0.4776 0.4761 0.4704
671.997202 0.4605 0.4497 0.4389 0.4282 0.4174
677.022716 0.4067 0.3960 0.3852 0.3731 0.3617
682.048230 0.3573 0.3575 0.3609 0.3723 0.3953
687.073745 0.4184 0.4415 0.4647 0.4856 0.4877
692.099259 0.4887 0.4891 0.4890 0.4884 0.4873
697.124774 0.4857 0.4829 0.4795 0.4776 0.4767
702.150288 0.4766 0.4772 0.4785 0.4826 0.4866
707.175802 0.4895 0.4924 0.4948 0.4970 0.4986
712.201317 0.5000 0.5013 0.5026 0.5034 0.5042
717.226831 0.5066 0.5065 0.5045 0.5030 0.5007
722.252346 0.4978 0.4947 0.4915 0.4884 0.4858
727.277860 0.4830 0.4799 0.4770 0.4750 0.4740
732.303374 0.4730 0.4720 0.4710 0.4701 0.4699
737.328889 0.4699 0.4699 0.4699 0.4701 0.4704
742.354403 0.4706 0.4709 0.4712 0.4713 0.4713
747.379918 0.4713 0.4713 0.4714 0.4714 0.4714
752.405432 0.4713 0.4713 0.4712 0.4712 0.4707
757.430947 0.4698 0.4688 0.4677 0.4665 0.4650
762.456461 0.4634 0.4618 0.4602 0.4576 0.4543
767.481975 0.4510 0.4466 0.4411 0.4328 0.4199
772.507490 0.4050 0.3902 0.3754 0.3605 0.3457
777.533004 0.3309 0.3161 0.3012 0.2864 0.2716
782.558519 0.2568 0.2415 0.2259 0.2172 0.2131
787.584033 0.2117 0.2112 0.2119 0.2111 0.2138
792.609547 0.2462 0.2787 0.3112 0.3436 0.3761
797.635062 0.4086 0.4411 0.4694 0.4766 0.4793
802.660576 0.4810 0.4819 0.4820 0.4819 0.4810
807.686091 0.4807 0.4803 0.4797 0.4788 0.4779
812.711605 0.4769 0.4753 0.4733 0.4712 0.4689
817.737119 0.4665 0.4640 0.4615 0.4588 0.4560
822.762634 0.4545 0.4536 0.4530 0.4524 0.4515
827.788148 0.4490 0.4450 0.4407 0.4367 0.4328
832.813663 0.4288 0.4245 0.4199 0.4154 0.4108
837.839177 0.4059 0.4010 0.3960 0.3911 0.3861
842.864691 0.3810 0.3757 0.3705 0.3652 0.3602
847.890206 0.3552 0.3503 0.3437 0.3380 0.3358
852.915720 0.3349 0.3350 0.3357 0.3367 0.3377
857.941235 0.3392 0.3409 0.3427 0.3448 0.3468
862.966749 0.3486 0.3504 0.3510 0.3509 0.3508
867.992263 0.3508 0.3506 0.3499 0.3489 0.3480
873.017778 0.3467 0.3451 0.3433 0.3416 0.3398
878.043292 0.3374 0.3346 0.3318 0.3283 0.3240
883.068807 0.3196 0.3154 0.3112 0.3071 0.3032
888.094321 0.2995 0.2973 0.2958 0.2942 0.2941
893.119835 0.2933 0.2938 0.2953 0.2970 0.2987
898.145350 0.3004 0.3022 0.3040 0.3075 0.3141
903.170864 0.3340 0.3492 0.3605 0.3720 0.3819
908.196379 0.3912 0.3980 0.4032 0.4072 0.4091
913.221893 0.4102 0.4114 0.4124 0.4107 0.4111
918.247407 0.4112 0.4105 0.4099 0.4084 0.4064
923.272922 0.4033 0.4002 0.3973 0.3943 0.3913
928.298436 0.3884 0.3854 0.3822 0.3777 0.3719
933.323951 0.3646 0.3565 0.3479 0.3395 0.3315
938.349465 0.3242 0.3178 0.3117 0.3053 0.2985
943.374979 0.2918 0.2840 0.2756 0.2626 0.2474
948.400494 0.2385 0.2345 0.2314 0.2298 0.2294
953.426008 0.2301 0.2315 0.2339 0.2440 0.2581
958.451523 0.2751 0.2931 0.3111 0.3290 0.3495
963.477037 0.3660 0.3812 0.3973 0.4128 0.4233
968.502551 0.4317 0.4426 0.4573 0.4678 0.4761
973.528066 0.4859 0.4991 0.5101 0.5173 0.5234
978.553580 0.5279 0.5317 0.5346 0.5367 0.5378
983.579095 0.5376 0.5368 0.5358 0.5347 0.5334
988.604609 0.5317 0.5299 0.5281 0.5256 0.5229
993.630123 0.5202 0.5177 0.5154 0.5131 0.5107
998.655638 0.5070 0.5023 0.4964 0.4894 0.4814
1003.681152 0.4720 0.4605 0.4472 0.4345 0.4235
1008.706667 0.4129 0.4022 0.3916 0.3810 0.3703
1013.732181 0.3597 0.3491 0.3384 0.3278 0.3171
1018.757695 0.3065 0.2959 0.2915 0.2924 0.2935
1023.783210 0.3020 0.3155 0.3297 0.3421 0.3470
1028.808724 0.3485 0.3490 0.3489 0.3480 0.3472
1033.834239 0.3465 0.3454 0.3431 0.3397 0.3308
1038.859753 0.3210 0.3092 0.2964 0.2836 0.2707
1043.885267 0.2579 0.2451 0.2323 0.2225 0.2201
1048.910782 0.2197 0.2368 0.2728 0.3136 0.3543
1053.936296 0.3769 0.3865 0.3912 0.3945 0.3961
1058.961811 0.3970 0.3980 0.3989 0.3996 0.4002
1063.987325 0.4009 0.4017 0.4029 0.4043 0.4061
1069.012840 0.4084 0.4108 0.4136 0.4179 0.4225
1074.038354 0.4293 0.4375 0.4463 0.4555 0.4652
1079.063868 0.4759 0.4859 0.4947 0.5021 0.5086
1084.089383 0.5212 0.5307 0.5362 0.5390 0.5404
1089.114897 0.5372 0.5273 0.5178 0.5094 0.5010
1094.140412 0.4925 0.4841 0.4783 0.4750 0.4728
1099.165926 0.4707 0.4688 0.4670 0.4652 0.4632
1104.191440 0.4608 0.4577 0.4538 0.4495 0.4448
1109.216955 0.4368 0.4248 0.4117 0.3985 0.3854
1114.242469 0.3723 0.3591 0.3460 0.3329 0.3140
1119.267984 0.3063 0.3050 0.3046 0.3088 0.3181
1124.293498 0.3308 0.3443 0.3578 0.3714 0.3849
1129.319012 0.3984 0.4095 0.4127 0.4129 0.4129
1134.344527 0.4127 0.4127 0.4119 0.4112 0.4106
1139.370041 0.4098 0.4088 0.4079 0.4062 0.4039
1144.395556 0.3998 0.3942 0.3882 0.3822 0.3769
1149.421070 0.3719 0.3671 0.3633 0.3599 0.3566
1154.446584 0.3539 0.3513 0.3487 0.3459 0.3429
1159.472099 0.3401 0.3375 0.3349 0.3325 0.3299
1164.497613 0.3234 0.3096 0.2993 0.2922 0.2855
1169.523128 0.2773 0.2674 0.2516 0.2425 0.2384
1174.548642 0.2369 0.2363 0.2361 0.2398 0.2447
1179.574156 0.2541 0.2668 0.2801 0.2934 0.3067
1184.599671 0.3200 0.3271 0.3286 0.3288 0.3290
1189.625185 0.3296 0.3357 0.3447 0.3524 0.3604
1194.650700 0.3687 0.3766 0.3799 0.3803 0.3804
1199.676214 0.3798 0.3730 0.3613 0.3485 0.3357
1204.701728 0.3229 0.3128 0.3059 0.2992 0.2797
1209.727243 0.2621 0.2533 0.2468 0.2369 0.2272
1214.752757 0.2202 0.2141 0.2090 0.2046 0.2002
1219.778272 0.1958 0.1881 0.1702 0.1599 0.1581
1224.803786 0.1581 0.1566 0.1576 0.1591 0.1597
1229.829300 0.1615 0.1637 0.1662 0.1694 0.1733
1234.854815 0.1775 0.1832 0.1921 0.2085 0.2436
1239.880329 0.2660 0.2729 0.2811 0.2915 0.3035
1244.905844 0.3155 0.3771 0.4317 0.4478 0.4755
1249.931358 0.5010 0.5105 0.5133 0.5136 0.5133
1254.956872 0.5131 0.5127 0.5122 0.5116 0.5099
1259.982387 0.5062 0.5022 0.4996 0.4983 0.4982
1265.007901 0.4973 0.5011 0.5109 0.5182 0.5255
1270.033416 0.5310 0.5327 0.5321 0.5306 0.5277
1275.058930 0.5232 0.5176 0.5118 0.5061 0.5010
1280.084444 0.4961 0.4909 0.4848 0.4781 0.4718
1285.109959 0.4684 0.4680 0.4677 0.4678 0.4680
1290.135473 0.4662 0.4646 0.4690 0.4695 0.4705
1295.160988 0.4740 0.4807 0.4873 0.4933 0.4974
1300.186502 0.5004 0.5034 0.5047 0.5049 0.5042
1305.212016 0.5052 0.5044 0.5037 0.5029 0.5019
1310.237531 0.5000 0.4981 0.4959 0.4936 0.4913
1315.263045 0.4886 0.4857 0.4829 0.4804 0.4779
1320.288560 0.4754 0.4730 0.4703 0.4674 0.4644
1325.314074 0.4615 0.4586 0.4553 0.4517 0.4480
1330.339588 0.4441 0.4388 0.4331 0.4273 0.4215
1335.365103 0.4157 0.4099 0.4039 0.3963 0.3873
1340.390617 0.3783 0.3694 0.3628 0.3585 0.3542
1345.416132 0.3499 0.3455 0.3399 0.3304 0.3197
1350.441646 0.2883 0.2532 0.2398 0.2264 0.2101
1355.467160 0.1937 0.1796 0.1655 0.1557 0.1482
1360.492675 0.1407 0.1332 0.1041 0.1038 0.1037
1365.518189 0.1037 0.1024 0.1045 0.1054 0.1062
1370.543704 0.1109 0.1212 0.1545 0.1964 0.2388
1375.569218 0.2812 0.3237 0.3661 0.3879 0.3911
1380.594733 0.3916 0.3921 0.3915 0.3906 0.3890
1385.620247 0.3860 0.3810 0.3780 0.3784 0.3736
1390.645761 0.3801 0.3826 0.3836 0.3847 0.3855
1395.671276 0.3854 0.3851 0.3869 0.3833 0.3812
1400.696790 0.3777 0.3743 0.3722 0.3707 0.3705
1405.722305 0.3707 0.3712 0.3723 0.3713 0.3746
1410.747819 0.3775 0.3798 0.3818 0.3838 0.3857
1415.773333 0.3864 0.3867 0.3869 0.3872 0.3875
1420.798848 0.3877 0.3879 0.3881 0.3882 0.3883
1425.824362 0.3882 0.3881 0.3876 0.3865 0.3851
1430.849877 0.3834 0.3811 0.3781 0.3749 0.3716
1435.875391 0.3679 0.3639 0.3599 0.3563 0.3527
1440.900905 0.3492 0.3451 0.3405 0.3365 0.3333
1445.926420 0.3303 0.3273 0.3243 0.3205 0.3160
1450.951934 0.2931 0.2674 0.2517 0.2385 0.2286
1455.977449 0.2217 0.2187 0.2196 0.2199 0.2202
1461.002963 0.2234 0.2277 0.2315 0.2346 0.2368
1466.028477 0.2389 0.2410 0.2438 0.2475 0.2520
1471.053992 0.2585 0.2763 0.2945 0.2993 0.3027
1476.079506 0.3038 0.3041 0.3044 0.3048 0.3054
1481.105021 0.3060 0.3066 0.3072 0.3082 0.3099
1486.130535 0.3123 0.3151 0.3181 0.3212 0.3246
1491.156049 0.3281 0.3318 0.3355 0.3393 0.3430
1496.181564 0.3467 0.3505 0.3542 0.3575 0.3599
1501.207078 0.3622 0.3637 0.3627 0.3627 0.3616
1506.232593 0.3601 0.3572 0.3524 0.3458 0.3405
1511.258107 0.3352 0.3304 0.3283 0.3271 0.3257
1516.283621 0.3243 0.3226 0.3207 0.3189 0.3165
1521.309136 0.3128 0.3091 0.3053 0.3016 0.2975
1526.334650 0.2915 0.2830 0.2768 0.2711 0.2653
1531.360165 0.2584 0.2482 0.2378 0.2266 0.2154
1536.385679 0.2044 0.1950 0.1935 0.1934 0.1933
1541.411193 0.1932 0.1932 0.1933 0.1933 0.1932
1546.436708 0.1930 0.1929 0.1928 0.1927 0.1926
1551.462222 0.1927 0.1927 0.1927 0.1926 0.1925
1556.487737 0.1923 0.1922 0.1919 0.1910 0.1901
1561.513251 0.1893 0.1882 0.1865 0.1846 0.1828
1566.538765 0.1810 0.1791 0.1751 0.1703 0.1651
1571.564280 0.1552 0.1450 0.1391 0.1373 0.1363
1576.589794 0.1365 0.1367 0.1367 0.1370 0.1377
1581.615309 0.1389 0.1479 0.1599 0.1720 0.1842
1586.640823 0.1963 0.2085 0.2205 0.2326 0.2448
1591.666337 0.2569 0.2691 0.2812 0.2933 0.3054
1596.691852 0.3175 0.3297 0.3413 0.3465 0.3494
1601.717366 0.3508 0.3520 0.3533 0.3523 0.3518
1606.742881 0.3511 0.3504 0.3488 0.3466 0.3433
1611.768395 0.3399 0.3366 0.3332 0.3298 0.3262
1616.793909 0.3227 0.3187 0.3145 0.3102 0.3055
1621.819424 0.3005 0.2955 0.2897 0.2831 0.2763
1626.844938 0.2705 0.2651 0.2599 0.2546 0.2488
1631.870453 0.2427 0.2364 0.2301 0.2238 0.2174
1636.895967 0.2114 0.2064 0.2016 0.1969 0.1922
1641.921481 0.1876 0.1830 0.1784 0.1707 0.1589
1646.946996 0.1426 0.1210 0.1064 0.0979 0.0904
1651.972510 0.0839 0.0780 0.0723 0.0671 0.0622
1656.998025 0.0573 0.0524 0.0484 0.0448 0.0411
1662.023539 0.0378 0.0356 0.0338 0.0319 0.0301
1667.049053 0.0286 0.0276 0.0270 0.0265 0.0257
1672.074568 0.0256 0.0255 0.0251 0.0249 0.0246
1677.100082 0.0243 0.0240 0.0238 0.0242 0.0249
1682.125597 0.0255 0.0261 0.0269 0.0277 0.0285
1687.151111 0.0293 0.0302 0.0310 0.0324 0.0342
1692.176626 0.0360 0.0378 0.0405 0.0442 0.0482
1697.202140 0.0519 0.0552 0.0568 0.0577 0.0587
1702.227654 0.0594 0.0599 0.0603 0.0611 0.0619
1707.253169 0.0628 0.0637 0.0660 0.0697 0.0807
1712.278683 0.0885 0.0935 0.0985 0.1034 0.1083
1717.304198 0.1132 0.1187 0.1244 0.1298 0.1350
1722.329712 0.1418 0.1532 0.1678 0.1830 0.1981
1727.355226 0.2132 0.2284 0.2579 0.2900 0.3044
1732.380741 0.3114 0.3193 0.3336 0.3558 0.3767
1737.406255 0.3870 0.3930 0.3991 0.4051 0.4111
1742.431770 0.4173 0.4236 0.4300 0.4363 0.4426
1747.457284 0.4492 0.4561 0.4628 0.4683 0.4730
1752.482798 0.4778 0.4819 0.4856 0.4892 0.4929
1757.508313 0.4965 0.5007 0.5062 0.5121 0.5181
1762.533827 0.5238 0.5286 0.5329 0.5373 0.5417
1767.559342 0.5461 0.5504 0.5540 0.5573 0.5605
1772.584856 0.5638 0.5670 0.5698 0.5719 0.5738
1777.610370 0.5756 0.5775 0.5790 0.5800 0.5809
1782.635885 0.5818 0.5827 0.5832 0.5835 0.5838
1787.661399 0.5841 0.5845 0.5851 0.5857 0.5863
1792.686914 0.5869 0.5875 0.5881 0.5888 0.5897
1797.712428 0.5908 0.5918 0.5929 0.5939 0.5950
1802.737942 0.5961 0.5971 0.5982 0.5990 0.5997
1807.763457 0.6003 0.6010 0.6017 0.6024 0.6030
1812.788971 0.6035 0.6041 0.6047 0.6052 0.6058
1817.814486 0.6064 0.6070 0.6075 0.6081 0.6085
1822.840000 0.6087 0.6089 0.6090 0.6092 0.6093
1827.865514 0.6095 0.6095 0.6095 0.6096 0.6096
1832.891029 0.6096 0.6099 0.6103 0.6107 0.6111
1837.916543 0.6115 0.6119 0.6123 0.6127 0.6134
1842.942058 0.6142 0.6150 0.6154 0.6155 0.6155
1847.967572 0.6154 0.6150 0.6142 0.6135 0.6128
1852.993086 0.6122 0.6116 0.6112 0.6110 0.6109
1858.018601 0.6108 0.6106 0.6105 0.6103 0.6102
1863.044115 0.6101 0.6100 0.6099 0.6099 0.6098
1868.069630 0.6097 0.6096 0.6096 0.6096 0.6096
1873.095144 0.6096 0.6096 0.6095 0.6095 0.6095
1878.120658 0.6095 0.6097 0.6099 0.6102 0.6107
1883.146173 0.6112 0.6117 0.6122 0.6127 0.6132
1888.171687 0.6137 0.6143 0.6148 0.6153 0.6158
1893.197202 0.6160 0.6161 0.6163 0.6165 0.6167
1898.222716 0.6168 0.6170 0.6170 0.6169 0.6168
1903.248230 0.6167 0.6165 0.6164 0.6163 0.6161
1908.273745 0.6160 0.6159 0.6157 0.6156 0.6155
1913.299259 0.6154 0.6153 0.6152 0.6151 0.6150
1918.324774 0.6149 0.6148 0.6148 0.6148 0.6149
1923.350288 0.6149 0.6152 0.6158 0.6165 0.6171
1928.375802 0.6178 0.6184 0.6190 0.6197 0.6203
1933.401317 0.6210 0.6216 0.6222 0.6228 0.6231
1938.426831 0.6231 0.6230 0.6229 0.6228 0.6227
1943.452346 0.6227 0.6226 0.6225 0.6226 0.6226
1948.477860 0.6226 0.6226 0.6227 0.6227 0.6228
1953.503374 0.6231 0.6233 0.6235 0.6238 0.6240
1958.528889 0.6242 0.6244 0.6246 0.6248 0.6250
1963.554403 0.6252 0.6252 0.6249 0.6246 0.6242
1968.579918 0.6239 0.6235 0.6232 0.6229 0.6225
1973.605432 0.6222 0.6219 0.6216 0.6213 0.6211
1978.630947 0.6209 0.6207 0.6205 0.6203 0.6201
1983.656461 0.6198 0.6196 0.6194 0.6191 0.6189
1988.681975 0.6187 0.6184 0.6182 0.6180 0.6177
1993.707490 0.6175 0.6173 0.6170 0.6167 0.6164
1998.733004 0.6162 0.6159 0.6156 0.6153 0.6151
2003.758519 0.6148 0.6145 0.6142 0.6140 0.6137
2008.784033 0.6134 0.6131 0.6128 0.6125 0.6122
2013.809547 0.6119 0.6115 0.6112 0.6108 0.6104
2018.835062 0.6101 0.6099 0.6097 0.6095 0.6094
2023.860576 0.6092 0.6090 0.6087 0.6083 0.6079
2028.886091 0.6074 0.6070 0.6065 0.6061 0.6056
2033.911605 0.6052 0.6047 0.6044 0.6041 0.6038
2038.937119 0.6035 0.6032 0.6029 0.6026 0.6023
2043.962634 0.6020 0.6016 0.6012 0.6008 0.6004
2048.988148 0.6001 0.5997 0.5993 0.5989 0.5986
2054.013663 0.5982 0.5978 0.5974 0.5970 0.5967
2059.039177 0.5963 0.5959 0.5955 0.5951 0.5948
2064.064691 0.5944 0.5940 0.5936 0.5932 0.5927
2069.090206 0.5924 0.5919 0.5915 0.5911 0.5906
2074.115720 0.5902 0.5897 0.5893 0.5889 0.5884
2079.141235 0.5880 0.5876 0.5871 0.5867 0.5862
2084.166749 0.5857 0.5853 0.5848 0.5844 0.5839
2089.192263 0.5835 0.5830 0.5825 0.5820 0.5815
2094.217778 0.5809 0.5804 0.5798 0.5792 0.5787
2099.243292 0.5781 0.5775 0.5770 0.5764 0.5758
2104.268807 0.5753 0.5747 0.5741 0.5735 0.5728
2109.294321 0.5721 0.5714 0.5707 0.5700 0.5692
2114.319835 0.5685 0.5678 0.5672 0.5666 0.5660
2119.345350 0.5653 0.5647 0.5641 0.5635 0.5628
2124.370864 0.5622 0.5616 0.5610 0.5604 0.5597
2129.396379 0.5591 0.5585 0.5580 0.5578 0.5576
2134.421893 0.5574 0.5573 0.5571 0.5569 0.5567
2139.447407 0.5566 0.5566 0.5566 0.5566 0.5566
2144.472922 0.5566 0.5565 0.5565 0.5565 0.5565
2149.498436 0.5565 0.5565 0.5564 0.5563 0.5562
2154.523951 0.5561 0.5560 0.5559 0.5557 0.5556
2159.549465 0.5554 0.5549 0.5543 0.5538 0.5532
2164.574979 0.5526 0.5521 0.5515 0.5509 0.5502
2169.600494 0.5495 0.5488 0.5482 0.5475 0.5468
2174.626008 0.5461 0.5454 0.5447 0.5440 0.5433
2179.651523 0.5427 0.5420 0.5413 0.5406 0.5399
2184.677037 0.5392 0.5385 0.5377 0.5369 0.5361
2189.702551 0.5353 0.5345 0.5337 0.5329 0.5321
2194.728066 0.5314 0.5306 0.5298 0.5290 0.5282
2199.753580 0.5274 0.5266 0.5258 0.5250 0.5242
2204.779095 0.5234 0.5225 0.5217 0.5208 0.5200
2209.804609 0.5191 0.5183 0.5174 0.5166 0.5157
2214.830123 0.5149 0.5140 0.5132 0.5123 0.5115
2219.855638 0.5106 0.5098 0.5089 0.5082 0.5074
2224.881152 0.5067 0.5060 0.5052 0.5045 0.5037
2229.906667 0.5030 0.5022 0.5015 0.5007 0.5000
2234.932181 0.4993 0.4985 0.4978 0.4970 0.4963
2239.957695 0.4956 0.4949 0.4943 0.4937 0.4930
2244.983210 0.4924 0.4917 0.4911 0.4904 0.4898
2250.008724 0.4892 0.4885 0.4879 0.4873 0.4866
2255.034239 0.4860 0.4853 0.4847 0.4841 0.4834
2260.059753 0.4828 0.4822 0.4816 0.4810 0.4804
2265.085267 0.4798 0.4792 0.4786 0.4780 0.4774
2270.110782 0.4768 0.4762 0.4756 0.4750 0.4744
2275.136296 0.4738 0.4732 0.4725 0.4715 0.4705
2280.161811 0.4696 0.4686 0.4676 0.4666 0.4656
2285.187325 0.4647 0.4637 0.4627 0.4617 0.4607
2290.212840 0.4597 0.4588 0.4578 0.4568 0.4558
2295.238354 0.4548 0.4537 0.4526 0.4516 0.4505
2300.263868 0.4494 0.4483 0.4472 0.4461 0.4450
2305.289383 0.4439 0.4428 0.4417 0.4406 0.4396
2310.314897 0.4387 0.4381 0.4374 0.4367 0.4360
2315.340412 0.4353 0.4346 0.4339 0.4333 0.4326
2320.365926 0.4319 0.4312 0.4305 0.4298 0.4291
2325.391440 0.4284 0.4278 0.4271 0.4264 0.4258
2330.416955 0.4253 0.4247 0.4242 0.4236 0.4230
2335.442469 0.4225 0.4219 0.4214 0.4208 0.4203
2340.467984 0.4197 0.4191 0.4186 0.4180 0.4175
2345.493498 0.4169 0.4163 0.4158 0.4152 0.4147
2350.519012 0.4141 0.4136 0.4130 0.4124 0.4119
2355.544527 0.4113 0.4107 0.4102 0.4096 0.4090
2360.570041 0.4085 0.4079 0.4073 0.4067 0.4062
2365.595556 0.4056 0.4050 0.4045 0.4039 0.4033
2370.621070 0.4028 0.4022 0.4016 0.4010 0.4003
2375.646584 0.3996 0.3989 0.3982 0.3975 0.3968
2380.672099 0.3962 0.3955 0.3948 0.3941 0.3934
2385.697613 0.3927 0.3920 0.3914 0.3907 0.3900
2390.723128 0.3893 0.3884 0.3872 0.3860 0.3848
2395.748642 0.3836 0.3824 0.3812 0.3800 0.3788
2400.774156 0.3776 0.3764 0.3751 0.3739 0.3727
2405.799671 0.3715 0.3703 0.3691 0.3679 0.3666
2410.825185 0.3653 0.3640 0.3628 0.3615 0.3602
2415.850700 0.3589 0.3577 0.3564 0.3551 0.3538
2420.876214 0.3525 0.3513 0.3500 0.3487 0.3474
2425.901728 0.3462 0.3449 0.3436 0.3423 0.3412
2430.927243 0.3402 0.3392 0.3382 0.3372 0.3362
2435.952757 0.3352 0.3342 0.3333 0.3323 0.3313
2440.978272 0.3303 0.3293 0.3284 0.3274 0.3264
2446.003786 0.3254 0.3244 0.3234 0.3224 0.3214
2451.029300 0.3204 0.3194 0.3184 0.3176 0.3168
2456.054815 0.3160 0.3152 0.3143 0.3135 0.3127
2461.080329 0.3119 0.3111 0.3103 0.3095 0.3087
2466.105844 0.3078 0.3070 0.3062 0.3054 0.3046
2471.131358 0.3038 0.3030 0.3022 0.3013 0.3005
2476.156872 0.2995 0.2986 0.2976 0.2967 0.2957
2481.182387 0.2948 0.2938 0.2929 0.2919 0.2910
2486.207901 0.2901 0.2891 0.2882 0.2872 0.2863
2491.233416 0.2853 0.2844 0.2834 0.2825 0.2815
2496.258930 0.2806 0.2796 0.2787 0.2778 0.2768
2501.284444 0.2759 0.2749 0.2740 0.2731 0.2723
2506.309959 0.2714 0.2705 0.2697 0.2688 0.2679
2511.335473 0.2670 0.2662 0.2653 0.2644 0.2636
2516.360988 0.2627 0.2618 0.2609 0.2601 0.2592
2521.386502 0.2583 0.2575 0.2567 0.2558 0.2550
2526.412016 0.2542 0.2533 0.2525 0.2517 0.2508
2531.437531 0.2500 0.2491 0.2483 0.2475 0.2466
2536.463045 0.2458 0.2450 0.2441 0.2433 0.2425
2541.488560 0.2416 0.2408 0.2398 0.2388 0.2378
2546.514074 0.2367 0.2357 0.2346 0.2336 0.2326
2551.539588 0.2315 0.2305 0.2294 0.2284 0.2273
2556.565103 0.2263 0.2252 0.2242 0.2232 0.2221
2561.590617 0.2212 0.2202 0.2192 0.2183 0.2173
2566.616132 0.2164 0.2154 0.2144 0.2135 0.2125
2571.641646 0.2118 0.2112 0.2105 0.2099 0.2093
2576.667160 0.2086 0.2080 0.2074 0.2065 0.2053
2581.692675 0.2042 0.2030 0.2018 0.2007 0.1992
2586.718189 0.1977 0.1962 0.1948 0.1933 0.1918
2591.743704 0.1903 0.1888 0.1873 0.1858 0.1839
2596.769218 0.1815 0.1792 0.1768 0.1750 0.1738
2601.794733 0.1727 0.1716 0.1705 0.1694 0.1689
2606.820247 0.1687 0.1685 0.1683 0.1681 0.1679
2611.845761 0.1677 0.1674 0.1672 0.1670 0.1668
2616.871276 0.1666 0.1664 0.1662 0.1664 0.1667
2621.896790 0.1669 0.1672 0.1674 0.1677 0.1680
2626.922305 0.1682 0.1685 0.1687 0.1689 0.1691
2631.947819 0.1693 0.1695 0.1697 0.1695 0.1693
2636.973333 0.1691 0.1690 0.1688 0.1686 0.1684
2641.998848 0.1681 0.1672 0.1663 0.1655 0.1646
2647.024362 0.1638 0.1629 0.1620 0.1611 0.1600
2652.049877 0.1588 0.1578 0.1567 0.1556 0.1546
2657.075391 0.1538 0.1534 0.1529 0.1525 0.1521
2662.100905 0.1523 0.1526 0.1529 0.1532 0.1535
2667.126420 0.1538 0.1541 0.1544 0.1546 0.1548
2672.151934 0.1550 0.1553 0.1554 0.1548 0.1540
2677.177449 0.1533 0.1525 0.1517 0.1506 0.1494
2682.202963 0.1482 0.1470 0.1460 0.1457 0.1454
2687.228477 0.1450 0.1447 0.1445 0.1444 0.1447
2692.253992 0.1448 0.1450 0.1451 0.1453 0.1455
2697.279506 0.1456 0.1456 0.1452 0.1448 0.1443
2702.305021 0.1438 0.1433 0.1429 0.1424 0.1420
2707.330535 0.1415 0.1408 0.1397 0.1384 0.1372
2712.356049 0.1360 0.1347 0.1334 0.1321 0.1308
2717.381564 0.1295 0.1285 0.1279 0.1276 0.1272
2722.407078 0.1269 0.1266 0.1262 0.1259 0.1255
2727.432593 0.1253 0.1251 0.1249 0.1248 0.1246
2732.458107 0.1244 0.1243 0.1241 0.1239 0.1235
2737.483621 0.1231 0.1227 0.1223 0.1219 0.1215
2742.509136 0.1211 0.1208 0.1204 0.1189 0.1164
2747.534650 0.1140 0.1116 0.1093 0.1071 0.1050
2752.560165 0.1031 0.1018 0.1009 0.0999 0.0992
2757.585679 0.0988 0.0984 0.0981 0.0977 0.0973
2762.611193 0.0969 0.0966 0.0962 0.0957 0.0954
2767.636708 0.0951 0.0948 0.0944 0.0941 0.0938
2772.662222 0.0934 0.0931 0.0928 0.0925 0.0921
2777.687737 0.0918 0.0915 0.0860 0.0887 0.0908
2782.713251 0.0905 0.0903 0.0901 0.0899 0.0897
2787.738765 0.0895 0.0893 0.0891 0.0890 0.0890
2792.764280 0.0890 0.0889 0.0889 0.0889 0.0889
2797.789794 0.0889 0.0889 0.0889 0.0889 0.0889
2802.815309 0.0889 0.0890 0.0892 0.0893 0.0895
2807.840823 0.0896 0.0898 0.0899 0.0901 0.0903
2812.866337 0.0906 0.0912 0.0917 0.0923 0.0928
2817.891852 0.0934 0.0939 0.0945 0.0951 0.0957
2822.917366 0.0963 0.0969 0.0975 0.0981 0.0987
2827.942881 0.0992 0.0998 0.1004 0.1010 0.1016
2832.968395 0.1022 0.1027 0.1033 0.1039 0.1045
2837.993909 0.1051 0.1057 0.1062 0.1068 0.1074
2843.019424 0.1080 0.1086 0.1091 0.1096 0.1100
2848.044938 0.1105 0.1109 0.1114 0.1118 0.1123
2853.070453 0.1128 0.1132 0.1137 0.1141 0.1146
2858.095967 0.1150 0.1155 0.1159 0.1164 0.1168
2863.121481 0.1173 0.1178 0.1182 0.1186 0.1191
2868.146996 0.1195 0.1200 0.1204 0.1209 0.1213
2873.172510 0.1217 0.1221 0.1225 0.1229 0.1233
2878.198025 0.1237 0.1241 0.1245 0.1249 0.1253
2883.223539 0.1257 0.1261 0.1265 0.1269 0.1274
2888.249053 0.1278 0.1282 0.1286 0.1290 0.1294
2893.274568 0.1299 0.1304 0.1309 0.1314 0.1319
2898.300082 0.1324 0.1329 0.1334 0.1339 0.1344
2903.325597 0.1349 0.1354 0.1359 0.1363 0.1367
2908.351111 0.1371 0.1374 0.1378 0.1382 0.1386
2913.376626 0.1390 0.1394 0.1398 0.1402 0.1406
2918.402140 0.1410 0.1413 0.1417 0.1421 0.1425
2923.427654 0.1429 0.1432 0.1436 0.1440 0.1444
2928.453169 0.1448 0.1451 0.1455 0.1459 0.1463
2933.478683 0.1467 0.1470 0.1474 0.1478 0.1482
2938.504198 0.1485 0.1489 0.1493 0.1496 0.1500
2943.529712 0.1504 0.1507 0.1511 0.1515 0.1518
2948.555226 0.1522 0.1526 0.1529 0.1533 0.1537
2953.580741 0.1540 0.1544 0.1548 0.1551 0.1555
2958.606255 0.1558 0.1562 0.1565 0.1569 0.1573
2963.631770 0.1577 0.1580 0.1584 0.1587 0.1591
2968.657284 0.1594 0.1598 0.1601 0.1605 0.1608
2973.682798 0.1612 0.1616 0.1620 0.1623 0.1627
2978.708313 0.1631 0.1635 0.1638 0.1642 0.1646
2983.733827 0.1649 0.1653 0.1657 0.1661 0.1655
2988.759342 0.1665 0.1672 0.1676 0.1679 0.1683
2993.784856 0.1687 0.1690 0.1692 0.1693 0.1694
2998.810370 0.1695 0.1696 0.1697 0.1698 0.1699
3003.835885 0.1700 0.1701 0.1703 0.1704 0.1705
3008.861399 0.1704 0.1701 0.1699 0.1696 0.1694
3013.886914 0.1692 0.1689 0.1687 0.1684 0.1682
3018.912428 0.1680 0.1677 0.1675 0.1673 0.1670
3023.937942 0.1665 0.1657 0.1650 0.1642 0.1634
3028.963457 0.1627 0.1619 0.1612 0.1607 0.1606
3033.988971 0.1606 0.1605 0.1604 0.1604 0.1603
3039.014486 0.1602 0.1602 0.1602 0.1605 0.1608
3044.040000 0.1611 0.1614 0.1616 0.1619 0.1622
3049.065514 0.1625 0.1628 0.1631 0.1634 0.1637
3054.091029 0.1641 0.1644 0.1648 0.1651 0.1655
3059.116543 0.1658 0.1661 0.1665 0.1669 0.1672
3064.142058 0.1676 0.1679 0.1682 0.1683 0.1683
3069.167572 0.1684 0.1684 0.1684 0.1684 0.1684
3074.193086 0.1685 0.1685 0.1683 0.1677 0.1672
3079.218601 0.1666 0.1660 0.1654 0.1648 0.1642
3084.244115 0.1636 0.1629 0.1622 0.1616 0.1610
3089.269630 0.1604 0.1599 0.1596 0.1593 0.1591
3094.295144 0.1588 0.1586 0.1586 0.1587 0.1592
3099.320658 0.1596 0.1601 0.1605 0.1610 0.1614
3104.346173 0.1618 0.1623 0.1627 0.1632 0.1636
3109.371687 0.1641 0.1648 0.1656 0.1664 0.1672
3114.397202 0.1680 0.1688 0.1696 0.1703 0.1712
3119.422716 0.1723 0.1738 0.1753 0.1768 0.1783
3124.448230 0.1797 0.1812 0.1829 0.1846 0.1863
3129.473745 0.1881 0.1898 0.1915 0.1932 0.1949
3134.499259 0.1966 0.1983 0.1999 0.2015 0.2031
3139.524774 0.2046 0.2062 0.2078 0.2094 0.2110
3144.550288 0.2125 0.2141 0.2157 0.2173 0.2189
3149.575802 0.2205 0.2221 0.2237 0.2254 0.2271
3154.601317 0.2287 0.2303 0.2320 0.2338 0.2356
3159.626831 0.2374 0.2389 0.2402 0.2415 0.2428
3164.652346 0.2442 0.2456 0.2469 0.2482 0.2494
3169.677860 0.2506 0.2518 0.2531 0.2543 0.2555
3174.703374 0.2567 0.2577 0.2586 0.2594 0.2603
3179.728889 0.2611 0.2620 0.2628 0.2636 0.2645
3184.754403 0.2652 0.2659 0.2664 0.2670 0.2676
3189.779918 0.2682 0.2688 0.2694 0.2700 0.2706
3194.805432 0.2712 0.2718 0.2724 0.2730 0.2736
3199.830947 0.2742 0.2748 0.2755 0.2762 0.2769
3204.856461 0.2776 0.2783 0.2790 0.2797 0.2804
3209.881975 0.2811 0.2818 0.2825 0.2832 0.2839
3214.907490 0.2846 0.2853 0.2860 0.2867 0.2874
3219.933004 0.2882 0.2889 0.2897 0.2907 0.2916
3224.958519 0.2925 0.2934 0.2944 0.2953 0.2962
3229.984033 0.2971 0.2980 0.2989 0.2999 0.3008
3235.009547 0.3018 0.3028 0.3037 0.3047 0.3057
3240.035062 0.3066 0.3076 0.3086 0.3092 0.3098
3245.060576 0.3103 0.3108 0.3113 0.3118 0.3123
3250.086091 0.3128 0.3133 0.3138 0.3143 0.3147
3255.111605 0.3151 0.3156 0.3160 0.3165 0.3170
3260.137119 0.3174 0.3178 0.3183 0.3187 0.3191
3265.162634 0.3196 0.3200 0.3204 0.3209 0.3213
3270.188148 0.3218 0.3222 0.3226 0.3231 0.3235
3275.213663 0.3239 0.3244 0.3249 0.3253 0.3258
3280.239177 0.3262 0.3267 0.3271 0.3276 0.3280
3285.264691 0.3284 0.3288 0.3291 0.3294 0.3298
3290.290206 0.3301 0.3305 0.3308 0.3311 0.3315
3295.315720 0.3318 0.3320 0.3322 0.3324 0.3326
3300.341235 0.3328 0.3330 0.3332 0.3334 0.3335
3305.366749 0.3337 0.3339 0.3341 0.3343 0.3344
3310.392263 0.3344 0.3344 0.3344 0.3344 0.3344
3315.417778 0.3343 0.3343 0.3343 0.3343 0.3343
3320.443292 0.3343 0.3343 0.3343 0.3342 0.3339
3325.468807 0.3336 0.3334 0.3331 0.3328 0.3325
3330.494321 0.3322 0.3319 0.3316 0.3313 0.3310
3335.519835 0.3307 0.3305 0.3301 0.3296 0.3291
3340.545350 0.3286 0.3281 0.3276 0.3270 0.3265
3345.570864 0.3260 0.3255 0.3250 0.3245 0.3239
3350.596379 0.3234 0.3229 0.3223 0.3218 0.3213
3355.621893 0.3207 0.3202 0.3196 0.3191 0.3185
3360.647407 0.3180 0.3174 0.3169 0.3164 0.3158
3365.672922 0.3153 0.3149 0.3145 0.3142 0.3138
3370.698436 0.3134 0.3131 0.3127 0.3123 0.3120
3375.723951 0.3116 0.3112 0.3108 0.3106 0.3104
3380.749465 0.3103 0.3102 0.3101 0.3100 0.3100
3385.774979 0.3099 0.3098 0.3097 0.3096 0.3095
3390.800494 0.3094 0.3093 0.3092 0.3091 0.3091
3395.826008 0.3090 0.3091 0.3093 0.3095 0.3097
3400.851523 0.3099 0.3101 0.3103 0.3104 0.3106
3405.877037 0.3108 0.3110 0.3112 0.3114 0.3116
3410.902551 0.3117 0.3118 0.3119 0.3120 0.3121
3415.928066 0.3122 0.3123 0.3123 0.3124 0.3125
3420.953580 0.3126 0.3127 0.3128 0.3131 0.3134
3425.979095 0.3137 0.3140 0.3143 0.3146 0.3149
3431.004609 0.3154 0.3159 0.3164 0.3169 0.3176
3436.030123 0.3184 0.3193 0.3202 0.3212 0.3224
3441.055638 0.3233 0.3240 0.3242 0.3244 0.3246
3446.081152 0.3248 0.3249 0.3249 0.3249 0.3249
3451.106667 0.3248 0.3248 0.3248 0.3247 0.3247
3456.132181 0.3246 0.3244 0.3253 0.3261 0.3270
3461.157695 0.3279 0.3289 0.3303 0.3316 0.3330
3466.183210 0.3345 0.3359 0.3373 0.3388 0.3403
3471.208724 0.3417 0.3432 0.3447 0.3461 0.3473
3476.234239 0.3486 0.3498 0.3510 0.3522 0.3534
3481.259753 0.3546 0.3559 0.3571 0.3583 0.3594
3486.285267 0.3606 0.3617 0.3629 0.3641 0.3652
3491.310782 0.3664 0.3675 0.3687 0.3699 0.3710
3496.336296 0.3722 0.3733 0.3743 0.3754 0.3765
3501.361811 0.3776 0.3787 0.3797 0.3808 0.3819
3506.387325 0.3830 0.3840 0.3851 0.3862 0.3873
3511.412840 0.3884 0.3895 0.3905 0.3916 0.3927
3516.438354 0.3938 0.3948 0.3959 0.3970 0.3980
3521.463868 0.3991 0.4001 0.4012 0.4023 0.4033
3526.489383 0.4044 0.4054 0.4065 0.4076 0.4086
3531.514897 0.4097 0.4107 0.4117 0.4127 0.4137
3536.540412 0.4146 0.4156 0.4166 0.4176 0.4186
3541.565926 0.4196 0.4205 0.4215 0.4225 0.4235
3546.591440 0.4244 0.4254 0.4265 0.4276 0.4287
3551.616955 0.4298 0.4310 0.4321 0.4332 0.4343
3556.642469 0.4355 0.4366 0.4377 0.4388 0.4400
3561.667984 0.4412 0.4424 0.4436 0.4448 0.4460
3566.693498 0.4473 0.4485 0.4497 0.4510 0.4522
3571.719012 0.4534 0.4546 0.4567 0.4595 0.4623
3576.744527 0.4651 0.4679 0.4707 0.4731 0.4749
3581.770041 0.4766 0.4783 0.4800 0.4817 0.4834
3586.795556 0.4851 0.4868 0.4885 0.4901 0.4914
3591.821070 0.4925 0.4937 0.4949 0.4960 0.4972
3596.846584 0.4984 0.4996 0.5007 0.5019 0.5031
3601.872099 0.5043 0.5055 0.5067 0.5079 0.5092
3606.897613 0.5105 0.5118 0.5131 0.5144 0.5157
3611.923128 0.5170 0.5183 0.5196 0.5209 0.5222
3616.948642 0.5235 0.5247 0.5258 0.5269 0.5279
3621.974156 0.5290 0.5300 0.5311 0.5322 0.5332
3626.999671 0.5343 0.5353 0.5364 0.5374 0.5385
3632.025185 0.5397 0.5411 0.5425 0.5440 0.5455
3637.050700 0.5491 0.5529 0.5567 0.5597 0.5621
3642.076214 0.5646 0.5670 0.5679 0.5688 0.5696
3647.101728 0.5704 0.5712 0.5720 0.5728 0.5729
3652.127243 0.5730 0.5731 0.5731 0.5732 0.5733
3657.152757 0.5733 0.5734 0.5733 0.5732 0.5731
3662.178272 0.5730 0.5729 0.5729 0.5731 0.5745
3667.203786 0.5762 0.5778 0.5793 0.5807 0.5820
3672.229300 0.5830 0.5840 0.5850 0.5860 0.5869
3677.254815 0.5878 0.5883 0.5888 0.5893 0.5898
3682.280329 0.5903 0.5907 0.5912 0.5917 0.5921
3687.305844 0.5925 0.5929 0.5933 0.5937 0.5941
3692.331358 0.5945 0.5946 0.5946 0.5947 0.5948
3697.356872 0.5948 0.5949 0.5950 0.5951 0.5951
3702.382387 0.5951 0.5951 0.5939 0.5932 0.5951
3707.407901 0.5951 0.5951 0.5950 0.5950 0.5950
3712.433416 0.5950 0.5950 0.5949 0.5949 0.5948
3717.458930 0.5948 0.5947 0.5946 0.5946 0.5945
3722.484444 0.5945 0.5944 0.5944 0.5943 0.5942
3727.509959 0.5942 0.5942 0.5941 0.5941 0.5940
3732.535473 0.5940 0.5940 0.5939 0.5939 0.5938
3737.560988 0.5938 0.5937 0.5937 0.5937 0.5936
3742.586502 0.5936 0.5935 0.5935 0.5934 0.5934
3747.612016 0.5934 0.5933 0.5933 0.5932 0.5932
3752.637531 0.5932 0.5931 0.5929 0.5926 0.5922
3757.663045 0.5918 0.5913 0.5909 0.5904 0.5900
3762.688560 0.5895 0.5891 0.5888 0.5886 0.5884
3767.714074 0.5881 0.5879 0.5877 0.5874 0.5872
3772.739588 0.5870 0.5867 0.5865 0.5862 0.5860
3777.765103 0.5857 0.5854 0.5851 0.5848 0.5845
3782.790617 0.5842 0.5839 0.5836 0.5833 0.5830
3787.816132 0.5827 0.5824 0.5822 0.5819 0.5816
3792.841646 0.5814 0.5811 0.5809 0.5806 0.5804
3797.867160 0.5801 0.5799 0.5797 0.5794 0.5792
3802.892675 0.5790 0.5788 0.5786 0.5784 0.5782
3807.918189 0.5780 0.5778 0.5777 0.5776 0.5775
3812.943704 0.5774 0.5773 0.5772 0.5771 0.5770
3817.969218 0.5769 0.5768 0.5768 0.5768 0.5769
3822.994733 0.5769 0.5769 0.5769 0.5770 0.5770
3828.020247 0.5770 0.5770 0.5770 0.5771 0.5771
3833.045761 0.5771 0.5771 0.5772 0.5772 0.5772
3838.071276 0.5772 0.5770 0.5766 0.5763 0.5760
3843.096790 0.5757 0.5754 0.5751 0.5748 0.5745
3848.122305 0.5742 0.5739 0.5736 0.5733 0.5730
3853.147819 0.5727 0.5725 0.5722 0.5719 0.5716
3858.173333 0.5713 0.5710 0.5707 0.5704 0.5702
3863.198848 0.5701 0.5699 0.5698 0.5696 0.5694
3868.224362 0.5693 0.5691 0.5690 0.5688 0.5687
3873.249877 0.5685 0.5683 0.5682 0.5682 0.5682
3878.275391 0.5682 0.5681 0.5681 0.5681 0.5681
3883.300905 0.5681 0.5681 0.5681 0.5681 0.5679
3888.326420 0.5676 0.5672 0.5668 0.5665 0.5661
3893.351934 0.5657 0.5654 0.5650 0.5648 0.5650
3898.377449 0.5652 0.5655 0.5658 0.5660 0.5663
3903.402963 0.5666 0.5669 0.5672 0.5675 0.5678
3908.428477 0.5681 0.5684 0.5687 0.5690 0.5693
3913.453992 0.5696 0.5698 0.5696 0.5693 0.5691
3918.479506 0.5688 0.5685 0.5683 0.5680 0.5677
3923.505021 0.5674 0.5671 0.5669 0.5666 0.5663
3928.530535 0.5661 0.5658 0.5654 0.5650 0.5645
3933.556049 0.5641 0.5637 0.5633 0.5628 0.5624
3938.581564 0.5620 0.5615 0.5611 0.5607 0.5603
3943.607078 0.5598 0.5594 0.5590 0.5586 0.5583
3948.632593 0.5580 0.5578 0.5575 0.5572 0.5570
3953.658107 0.5567 0.5564 0.5562 0.5559 0.5556
3958.683621 0.5554 0.5551 0.5548 0.5546 0.5543
3963.709136 0.5540 0.5538 0.5535 0.5533 0.5531
3968.734650 0.5529 0.5527 0.5504 0.5515 0.5519
3973.760165 0.5517 0.5515 0.5513 0.5511 0.5509
3978.785679 0.5506 0.5504 0.5502 0.5500 0.5498
3983.811193 0.5496 0.5495 0.5493 0.5491 0.5490
3988.836708 0.5488 0.5486 0.5485 0.5483 0.5480
3993.862222 0.5477 0.5474 0.5471 0.5468 0.5465
3998.887737 0.5460 0.5451 0.5443 0.5435 0.5426
4003.913251 0.5418 0.5408 0.5396 0.5385 0.5373
4008.938765 0.5368 0.5364 0.5361 0.5358 0.5355
4013.964280 0.5352 0.5348 0.5345 0.5342 0.5339
4018.989794 0.5336 0.5333
##END=
