##TITLE=LITHIUM-12-HYDROXY STEARATE
##JCAMP-DX=4.24
##DATA TYPE=INFRARED SPECTRUM
##CLASS=COBLENTZ
##ORIGIN=WYANDOTTE CHEMICALS CORP., WYANDOTTE, MICHIGAN, USA
##OWNER=COBLENTZ SOCIETY
Collection (C) 2018 copyright by the U.S. Secretary of Commerce
on behalf of the United States of America. All rights reserved.
##DATE=Not specified, most likely prior to 1970
##MOLFORM=C18 H35 O3 Li
##SOURCE REFERENCE=COBLENTZ NO. 1342
##$NIST ID=B6001342
##$NIST SOURCE=COBLENTZ
##$NIST IMAGE=cob1342
##SPECTROMETER/DATA SYSTEM=Not specified, most likely a prism, grating, or hybrid spectrometer.
##STATE=SOLID (MINERAL OIL MULL)
##SAMPLING PROCEDURE=TRANSMISSION
##RESOLUTION=4
##DATA PROCESSING=DIGITIZED BY NIST FROM HARD COPY
##XUNITS=MICROMETERS
##YUNITS=TRANSMITTANCE
##XFACTOR=1.000000
##YFACTOR=1
##DELTAX=000.006809
##FIRSTX=2.061
##LASTX=16.0065
##FIRSTY=0.868
##MAXX=16.0065
##MINX=2.061
##MAXY=0.952
##MINY=0.03
##NPOINTS=2049
##XYDATA=(X++(Y..Y))
2.061000 0.8680 0.8700 0.8680 0.8680 0.8680
2.095063 0.8680 0.8680 0.8700 0.8700 0.8700
2.129000 0.8720 0.8720 0.8720 0.8720 0.8720
2.163063 0.8720 0.8700 0.8630 0.8600 0.8560
2.197000 0.8510 0.8430 0.8330 0.8140 0.8020
2.231063 0.8000 0.7980 0.7950 0.7920 0.7880
2.266000 0.7870 0.7870 0.7870 0.7870 0.7870
2.300063 0.7870 0.7870 0.7870 0.7870 0.7870
2.334000 0.7870 0.7880 0.7880 0.7900 0.7930
2.368063 0.7950 0.7980 0.8020 0.8070 0.8100
2.402000 0.8160 0.8210 0.8240 0.8270 0.8290
2.436063 0.8310 0.8330 0.8340 0.8340 0.8360
2.470000 0.8360 0.8410 0.8430 0.8440 0.8460
2.504063 0.8460 0.8480 0.8500 0.8510 0.8510
2.538000 0.8560 0.8580 0.8600 0.8620 0.8630
2.572063 0.8670 0.8680 0.8680 0.8720 0.8730
2.606000 0.8730 0.8730 0.8790 0.8790 0.8800
2.640063 0.8850 0.8870 0.8870 0.8890 0.8890
2.674000 0.8890 0.8890 0.8890 0.8890 0.8890
2.708063 0.8840 0.8820 0.8800 0.8800 0.8800
2.742000 0.8800 0.8800 0.8800 0.8800 0.8800
2.776063 0.8790 0.8770 0.8730 0.8670 0.8600
2.810000 0.8560 0.8510 0.8430 0.8340 0.8240
2.844063 0.8160 0.8070 0.7970 0.7880 0.7780
2.878000 0.7660 0.7560 0.7440 0.7300 0.7170
2.912063 0.7120 0.7050 0.6950 0.6810 0.6690
2.946000 0.6540 0.6400 0.6140 0.5940 0.5800
2.980063 0.5670 0.4990 0.4880 0.4660 0.4390
3.015000 0.4270 0.4130 0.3910 0.3900 0.3900
3.049063 0.3930 0.3960 0.3980 0.3980 0.4000
3.083000 0.4000 0.3960 0.3960 0.3980 0.4050
3.117063 0.4130 0.4240 0.4510 0.4660 0.4800
3.151000 0.5020 0.5160 0.5310 0.5430 0.5510
3.185063 0.5600 0.5700 0.6030 0.6160 0.6250
3.219000 0.6330 0.6370 0.6470 0.6490 0.6500
3.253063 0.6490 0.6450 0.6400 0.6320 0.6180
3.287000 0.5990 0.5860 0.5700 0.5500 0.5040
3.321063 0.4540 0.4050 0.3350 0.2650 0.2010
3.355000 0.1360 0.0400 0.0370 0.0350 0.0350
3.389063 0.0340 0.0340 0.0320 0.0320 0.0320
3.423000 0.0320 0.0320 0.0320 0.0340 0.0340
3.457063 0.0340 0.0350 0.0370 0.0370 0.0390
3.491000 0.0390 0.0400 0.0400 0.0420 0.0450
3.525063 0.0540 0.0850 0.1220 0.2070 0.2550
3.559000 0.3500 0.3950 0.4750 0.5050 0.5290
3.593063 0.5500 0.5700 0.6110 0.6300 0.6430
3.627000 0.6540 0.6600 0.6670 0.6710 0.6720
3.661063 0.6720 0.6710 0.6720 0.6740 0.6790
3.696000 0.6840 0.6930 0.7000 0.7050 0.7100
3.730063 0.7130 0.7100 0.7130 0.7180 0.7220
3.764000 0.7250 0.7290 0.7320 0.7390 0.7440
3.798063 0.7510 0.7520 0.7540 0.7540 0.7590
3.832000 0.7640 0.7710 0.7750 0.7780 0.7800
3.866063 0.7810 0.7830 0.7870 0.7920 0.7970
3.900000 0.8040 0.8090 0.8140 0.8190 0.8240
3.934063 0.8260 0.8270 0.8290 0.8310 0.8340
3.968000 0.8360 0.8380 0.8390 0.8430 0.8440
4.002063 0.8480 0.8510 0.8530 0.8620 0.8630
4.036000 0.8650 0.8670 0.8700 0.8720 0.8730
4.070063 0.8770 0.8790 0.8800 0.8800 0.8820
4.104000 0.8840 0.8850 0.8870 0.8890 0.8900
4.138063 0.8900 0.8940 0.8940 0.8960 0.8960
4.172000 0.8960 0.8960 0.8960 0.8940 0.8940
4.206063 0.8940 0.8940 0.8940 0.8940 0.8920
4.240000 0.8900 0.8890 0.8820 0.8800 0.8790
4.274063 0.8790 0.8790 0.8790 0.8790 0.8790
4.308000 0.8790 0.8790 0.8800 0.8820 0.8840
4.342063 0.8870 0.8900 0.8940 0.8970 0.9020
4.376000 0.9060 0.9090 0.9130 0.9140 0.9140
4.410063 0.9160 0.9180 0.9190 0.9190 0.9190
4.445000 0.9190 0.9190 0.9190 0.9190 0.9210
4.479063 0.9210 0.9210 0.9210 0.9230 0.9230
4.513000 0.9250 0.9250 0.9250 0.9260 0.9260
4.547063 0.9280 0.9300 0.9300 0.9300 0.9300
4.581000 0.9310 0.9310 0.9330 0.9330 0.9330
4.615063 0.9330 0.9350 0.9350 0.9350 0.9360
4.649000 0.9360 0.9360 0.9380 0.9380 0.9380
4.683063 0.9380 0.9380 0.9380 0.9380 0.9380
4.717000 0.9380 0.9380 0.9380 0.9380 0.9400
4.751063 0.9400 0.9400 0.9400 0.9400 0.9400
4.785000 0.9400 0.9400 0.9400 0.9400 0.9400
4.819063 0.9400 0.9400 0.9400 0.9400 0.9400
4.853000 0.9400 0.9400 0.9400 0.9400 0.9400
4.887063 0.9420 0.9420 0.9420 0.9420 0.9420
4.921000 0.9420 0.9420 0.9420 0.9420 0.9400
4.955063 0.9400 0.9400 0.9380 0.9380 0.9380
4.989000 0.9360 0.9360 0.9360 0.9380 0.9380
5.023063 0.9380 0.9380 0.9380 0.9380 0.9380
5.057000 0.9380 0.9380 0.9380 0.9380 0.9380
5.091063 0.9380 0.9380 0.9380 0.9380 0.9380
5.125000 0.9380 0.9400 0.9400 0.9400 0.9420
5.159063 0.9420 0.9420 0.9420 0.9420 0.9420
5.194000 0.9420 0.9420 0.9420 0.9420 0.9420
5.228063 0.9420 0.9420 0.9420 0.9430 0.9430
5.262000 0.9430 0.9430 0.9430 0.9430 0.9450
5.296063 0.9450 0.9450 0.9450 0.9450 0.9450
5.330000 0.9450 0.9450 0.9450 0.9470 0.9470
5.364063 0.9470 0.9470 0.9470 0.9480 0.9480
5.398000 0.9480 0.9480 0.9480 0.9500 0.9500
5.432063 0.9500 0.9500 0.9500 0.9500 0.9500
5.466000 0.9500 0.9520 0.9500 0.9500 0.9500
5.500063 0.9500 0.9500 0.9500 0.9500 0.9500
5.534000 0.9500 0.9500 0.9500 0.9500 0.9500
5.568063 0.9500 0.9500 0.9480 0.9470 0.9470
5.602000 0.9450 0.9430 0.9420 0.9400 0.9400
5.636063 0.9380 0.9350 0.9300 0.9260 0.9260
5.670000 0.9280 0.9310 0.9280 0.9250 0.9190
5.704063 0.9140 0.9020 0.8900 0.8680 0.8560
5.738000 0.8440 0.7850 0.7060 0.6280 0.5970
5.772063 0.5670 0.5670 0.5680 0.6080 0.6380
5.806000 0.6620 0.6790 0.6910 0.6980 0.7030
5.840063 0.7080 0.7100 0.7130 0.7240 0.7340
5.875000 0.7490 0.7680 0.7900 0.8090 0.8260
5.909063 0.8410 0.8500 0.8550 0.8560 0.8600
5.943000 0.8630 0.8680 0.8720 0.8720 0.8700
5.977063 0.8700 0.8680 0.8670 0.8630 0.8600
6.011000 0.8580 0.8550 0.8510 0.8440 0.8390
6.045063 0.8310 0.8290 0.8270 0.8210 0.8170
6.079000 0.8100 0.8020 0.7900 0.7780 0.7640
6.113063 0.7510 0.7350 0.7180 0.7080 0.6960
6.147000 0.6690 0.6400 0.6080 0.5890 0.5680
6.181063 0.5280 0.4820 0.4310 0.4020 0.3730
6.215000 0.3040 0.2670 0.2290 0.1580 0.1320
6.249063 0.1050 0.0710 0.0540 0.0400 0.0320
6.283000 0.0300 0.0320 0.0400 0.0490 0.0560
6.317063 0.0710 0.0810 0.0950 0.1090 0.1100
6.351000 0.1100 0.1000 0.0880 0.0830 0.0800
6.385063 0.0780 0.0810 0.0970 0.1170 0.1830
6.419000 0.2070 0.2350 0.2550 0.2790 0.3250
6.453063 0.3520 0.3850 0.4190 0.4900 0.5040
6.487000 0.5190 0.5280 0.5360 0.5380 0.5380
6.521063 0.5450 0.5550 0.5630 0.5840 0.5990
6.555000 0.6180 0.6280 0.6370 0.6380 0.6400
6.589063 0.6420 0.6420 0.6420 0.6400 0.6400
6.624000 0.6380 0.6370 0.6320 0.6250 0.6140
6.658063 0.5990 0.5940 0.5750 0.5650 0.5550
6.692000 0.5310 0.5000 0.4680 0.4390 0.4220
6.726063 0.4050 0.3640 0.3040 0.2820 0.2580
6.760000 0.2010 0.1550 0.1070 0.0490 0.0400
6.794063 0.0400 0.0400 0.0400 0.0400 0.0420
6.828000 0.0420 0.0400 0.0390 0.0390 0.0370
6.862063 0.0370 0.0390 0.0390 0.0400 0.0400
6.896000 0.0400 0.0420 0.0470 0.0560 0.0680
6.930063 0.0800 0.0900 0.1020 0.1170 0.1360
6.964000 0.1650 0.1820 0.1950 0.2110 0.2210
6.998063 0.2310 0.2380 0.2430 0.2480 0.2530
7.032000 0.2530 0.2520 0.2480 0.2450 0.2410
7.066063 0.2380 0.2310 0.2280 0.2260 0.2260
7.100000 0.2280 0.2430 0.2530 0.2740 0.3150
7.134063 0.3330 0.3520 0.3670 0.3850 0.4000
7.168000 0.4080 0.4170 0.4170 0.4020 0.3830
7.202063 0.3570 0.3320 0.2940 0.2770 0.2580
7.236000 0.2280 0.1950 0.1900 0.1940 0.2040
7.270063 0.2230 0.2530 0.2820 0.3230 0.3370
7.304000 0.3470 0.3590 0.3730 0.3930 0.4130
7.338063 0.4460 0.4580 0.4680 0.4700 0.4700
7.373000 0.4680 0.4650 0.4510 0.4420 0.4370
7.407063 0.4320 0.4250 0.4080 0.4030 0.4000
7.441000 0.3980 0.3980 0.3980 0.3980 0.4100
7.475063 0.4530 0.4730 0.4880 0.5040 0.5140
7.509000 0.5260 0.5360 0.5410 0.5410 0.5430
7.543063 0.5450 0.5460 0.5480 0.5510 0.5580
7.577000 0.5670 0.5670 0.5680 0.5700 0.5680
7.611063 0.5630 0.5580 0.5500 0.5450 0.5360
7.645000 0.5280 0.5280 0.5290 0.5330 0.5340
7.679063 0.5380 0.5410 0.5480 0.5530 0.5620
7.713000 0.5670 0.5680 0.5700 0.5700 0.5720
7.747063 0.5740 0.5740 0.5750 0.5770 0.5800
7.781000 0.5840 0.5860 0.5920 0.5960 0.6010
7.815063 0.6040 0.6080 0.6110 0.6110 0.6110
7.849000 0.6130 0.6130 0.6090 0.6030 0.5990
7.883063 0.5970 0.5960 0.5970 0.6030 0.6080
7.917000 0.6130 0.6180 0.6200 0.6200 0.6180
7.951063 0.6160 0.6090 0.6060 0.6080 0.6080
7.985000 0.6090 0.6110 0.6140 0.6140 0.6110
8.019063 0.6110 0.6110 0.6160 0.6180 0.6210
8.054000 0.6300 0.6370 0.6380 0.6420 0.6420
8.088063 0.6430 0.6420 0.6400 0.6350 0.6250
8.122000 0.6130 0.6060 0.6030 0.6060 0.6080
8.156063 0.6140 0.6200 0.6250 0.6300 0.6330
8.190000 0.6420 0.6490 0.6500 0.6490 0.6490
8.224063 0.6470 0.6400 0.6370 0.6350 0.6350
8.258000 0.6380 0.6450 0.6490 0.6520 0.6540
8.292063 0.6570 0.6590 0.6590 0.6570 0.6570
8.326000 0.6540 0.6500 0.6470 0.6400 0.6370
8.360063 0.6370 0.6380 0.6380 0.6400 0.6400
8.394000 0.6400 0.6400 0.6380 0.6370 0.6380
8.428063 0.6380 0.6400 0.6420 0.6420 0.6400
8.462000 0.6350 0.6300 0.6300 0.6300 0.6300
8.496063 0.6330 0.6370 0.6350 0.6370 0.6370
8.530000 0.6380 0.6400 0.6450 0.6470 0.6490
8.564063 0.6540 0.6570 0.6600 0.6640 0.6710
8.598000 0.6760 0.6780 0.6790 0.6830 0.6840
8.632063 0.6860 0.6880 0.6880 0.6890 0.6950
8.666000 0.6950 0.6950 0.6950 0.6950 0.6930
8.700063 0.6910 0.6910 0.6890 0.6880 0.6830
8.734000 0.6740 0.6640 0.6540 0.6400 0.6230
8.768063 0.6080 0.5790 0.5500 0.5360 0.5280
8.803000 0.5140 0.4950 0.4700 0.4680 0.4680
8.837063 0.4700 0.4920 0.5050 0.5220 0.5330
8.871000 0.5400 0.5480 0.5570 0.5600 0.5620
8.905063 0.5670 0.5670 0.5670 0.5670 0.5600
8.939000 0.5530 0.5430 0.5330 0.5190 0.5170
8.973063 0.5170 0.5190 0.5430 0.5600 0.5870
9.007000 0.6010 0.6160 0.6260 0.6280 0.6300
9.041063 0.6300 0.6320 0.6330 0.6370 0.6400
9.075000 0.6450 0.6490 0.6540 0.6600 0.6670
9.109063 0.6670 0.6690 0.6710 0.6720 0.6760
9.143000 0.6760 0.6760 0.6760 0.6690 0.6540
9.177063 0.6430 0.6380 0.6250 0.6030 0.5870
9.211000 0.5790 0.5700 0.5570 0.5380 0.5220
9.245063 0.5070 0.4940 0.4830 0.4680 0.4660
9.279000 0.4660 0.4680 0.4780 0.4870 0.4950
9.313063 0.5040 0.5120 0.5210 0.5310 0.5400
9.347000 0.5480 0.5550 0.5600 0.5630 0.5680
9.381063 0.5680 0.5700 0.5750 0.5770 0.5770
9.415000 0.5770 0.5770 0.5790 0.5800 0.5840
9.449063 0.5890 0.5920 0.5990 0.6040 0.6090
9.483000 0.6140 0.6160 0.6210 0.6300 0.6320
9.517063 0.6330 0.6330 0.6370 0.6370 0.6350
9.552000 0.6330 0.6320 0.6300 0.6300 0.6280
9.586063 0.6260 0.6280 0.6280 0.6280 0.6280
9.620000 0.6280 0.6300 0.6320 0.6370 0.6370
9.654063 0.6380 0.6380 0.6370 0.6330 0.6260
9.688000 0.6180 0.6080 0.5970 0.5940 0.5860
9.722063 0.5790 0.5770 0.5770 0.5790 0.5820
9.756000 0.5870 0.5960 0.6080 0.6210 0.6250
9.790063 0.6420 0.6520 0.6600 0.6690 0.6720
9.824000 0.6780 0.6830 0.6890 0.6960 0.6960
9.858063 0.6980 0.7000 0.7050 0.7060 0.7080
9.892000 0.7080 0.7120 0.7150 0.7150 0.7150
9.926063 0.7120 0.7080 0.7030 0.6980 0.6930
9.960000 0.6830 0.6810 0.6740 0.6710 0.6660
9.994063 0.6590 0.6470 0.6380 0.6330 0.6320
10.028000 0.6300 0.6280 0.6300 0.6320 0.6320
10.062063 0.6380 0.6430 0.6490 0.6570 0.6640
10.096000 0.6720 0.6810 0.6860 0.6890 0.6930
10.130063 0.7000 0.7060 0.7120 0.7180 0.7220
10.164000 0.7240 0.7270 0.7270 0.7240 0.7200
10.198063 0.7170 0.7150 0.7130 0.7120 0.7120
10.232000 0.7100 0.7120 0.7130 0.7180 0.7220
10.266063 0.7240 0.7250 0.7270 0.7270 0.7290
10.301000 0.7300 0.7300 0.7320 0.7320 0.7320
10.335063 0.7340 0.7340 0.7350 0.7350 0.7370
10.369000 0.7370 0.7390 0.7410 0.7410 0.7420
10.403063 0.7420 0.7440 0.7460 0.7470 0.7490
10.437000 0.7520 0.7560 0.7580 0.7580 0.7580
10.471063 0.7580 0.7560 0.7540 0.7520 0.7520
10.505000 0.7520 0.7520 0.7540 0.7540 0.7560
10.539063 0.7580 0.7610 0.7630 0.7630 0.7640
10.573000 0.7640 0.7640 0.7640 0.7630 0.7630
10.607063 0.7610 0.7610 0.7580 0.7590 0.7540
10.641000 0.7510 0.7440 0.7390 0.7350 0.7320
10.675063 0.7300 0.7240 0.7220 0.7180 0.7170
10.709000 0.7170 0.7170 0.7180 0.7240 0.7270
10.743063 0.7290 0.7300 0.7300 0.7290 0.7270
10.777000 0.7270 0.7270 0.7270 0.7270 0.7270
10.811063 0.7270 0.7240 0.7180 0.7170 0.7130
10.845000 0.7030 0.6930 0.6780 0.6620 0.6490
10.879063 0.6330 0.6110 0.6090 0.6080 0.6090
10.913000 0.6130 0.6250 0.6380 0.6550 0.6710
10.947063 0.6840 0.6980 0.7100 0.7300 0.7410
10.982000 0.7490 0.7560 0.7630 0.7700 0.7760
11.016063 0.7810 0.7850 0.7900 0.7930 0.7980
11.050000 0.8000 0.8040 0.8040 0.8050 0.8070
11.084063 0.8090 0.8100 0.8120 0.8120 0.8140
11.118000 0.8140 0.8140 0.8140 0.8140 0.8120
11.152063 0.8120 0.8120 0.8120 0.8100 0.8090
11.186000 0.8090 0.8070 0.8040 0.8020 0.8000
11.220063 0.7970 0.7930 0.7870 0.7810 0.7760
11.254000 0.7760 0.7750 0.7710 0.7700 0.7680
11.288063 0.7680 0.7680 0.7680 0.7700 0.7710
11.322000 0.7750 0.7780 0.7780 0.7810 0.7830
11.356063 0.7850 0.7880 0.7900 0.7930 0.7950
11.390000 0.7980 0.8000 0.8000 0.8000 0.8000
11.424063 0.8000 0.8000 0.8000 0.8000 0.7980
11.458000 0.7980 0.7970 0.7970 0.7970 0.7930
11.492063 0.7920 0.7900 0.7880 0.7870 0.7830
11.526000 0.7800 0.7760 0.7750 0.7700 0.7640
11.560063 0.7590 0.7520 0.7420 0.7340 0.7220
11.594000 0.7150 0.7060 0.6980 0.6860 0.6760
11.628063 0.6620 0.6550 0.6520 0.6500 0.6500
11.662000 0.6540 0.6570 0.6660 0.6720 0.6810
11.696063 0.6890 0.7000 0.7120 0.7370 0.7440
11.731000 0.7520 0.7580 0.7630 0.7660 0.7700
11.765063 0.7730 0.7760 0.7760 0.7780 0.7780
11.799000 0.7800 0.7810 0.7810 0.7830 0.7830
11.833063 0.7850 0.7850 0.7850 0.7850 0.7850
11.867000 0.7850 0.7850 0.7810 0.7800 0.7780
11.901063 0.7760 0.7710 0.7680 0.7630 0.7560
11.935000 0.7490 0.7390 0.7290 0.7150 0.7100
11.969063 0.7030 0.6910 0.6780 0.6640 0.6500
12.003000 0.6350 0.6210 0.6180 0.6180 0.6200
12.037063 0.6320 0.6430 0.6590 0.6740 0.6890
12.071000 0.7030 0.7320 0.7440 0.7520 0.7610
12.105063 0.7660 0.7700 0.7750 0.7800 0.7850
12.139000 0.7870 0.7920 0.7950 0.7980 0.8000
12.173063 0.8020 0.8040 0.8050 0.8070 0.8100
12.207000 0.8120 0.8160 0.8160 0.8170 0.8170
12.241063 0.8170 0.8170 0.8170 0.8170 0.8160
12.275000 0.8160 0.8140 0.8140 0.8140 0.8140
12.309063 0.8160 0.8160 0.8160 0.8120 0.8120
12.343000 0.8100 0.8090 0.8090 0.8090 0.8100
12.377063 0.8120 0.8120 0.8120 0.8120 0.8120
12.411000 0.8120 0.8120 0.8120 0.8120 0.8100
12.445063 0.8120 0.8100 0.8090 0.8090 0.8090
12.480000 0.8090 0.8070 0.8070 0.8050 0.8000
12.514063 0.7980 0.7970 0.7950 0.7930 0.7920
12.548000 0.7880 0.7850 0.7780 0.7760 0.7730
12.582063 0.7730 0.7710 0.7700 0.7700 0.7700
12.616000 0.7680 0.7660 0.7680 0.7660 0.7640
12.650063 0.7640 0.7630 0.7610 0.7610 0.7590
12.684000 0.7580 0.7580 0.7560 0.7540 0.7540
12.718063 0.7540 0.7540 0.7560 0.7560 0.7590
12.752000 0.7630 0.7680 0.7680 0.7700 0.7710
12.786063 0.7710 0.7750 0.7750 0.7750 0.7750
12.820000 0.7750 0.7750 0.7750 0.7750 0.7750
12.854063 0.7750 0.7730 0.7710 0.7700 0.7680
12.888000 0.7680 0.7680 0.7680 0.7680 0.7680
12.922063 0.7660 0.7640 0.7610 0.7590 0.7590
12.956000 0.7580 0.7560 0.7540 0.7540 0.7540
12.990063 0.7540 0.7520 0.7520 0.7510 0.7510
13.024000 0.7490 0.7470 0.7460 0.7420 0.7410
13.058063 0.7390 0.7370 0.7340 0.7320 0.7300
13.092000 0.7270 0.7250 0.7240 0.7200 0.7170
13.126063 0.7150 0.7130 0.7100 0.7030 0.7010
13.161000 0.6930 0.6860 0.6810 0.6790 0.6780
13.195063 0.6760 0.6760 0.6760 0.6760 0.6780
13.229000 0.6780 0.6790 0.6830 0.6860 0.6890
13.263063 0.6950 0.6960 0.6960 0.6980 0.7030
13.297000 0.7050 0.7060 0.7080 0.7080 0.7080
13.331063 0.7060 0.7060 0.7050 0.7030 0.7010
13.365000 0.7000 0.6960 0.6950 0.6930 0.6930
13.399063 0.6910 0.6880 0.6840 0.6810 0.6780
13.433000 0.6760 0.6710 0.6690 0.6600 0.6570
13.467063 0.6540 0.6500 0.6490 0.6470 0.6430
13.501000 0.6400 0.6370 0.6320 0.6280 0.6230
13.535063 0.6180 0.6130 0.6090 0.6060 0.6030
13.569000 0.5990 0.5940 0.5910 0.5890 0.5870
13.603063 0.5860 0.5800 0.5770 0.5740 0.5720
13.637000 0.5680 0.5670 0.5650 0.5620 0.5600
13.671063 0.5570 0.5530 0.5500 0.5480 0.5480
13.705000 0.5460 0.5430 0.5400 0.5360 0.5290
13.739063 0.5240 0.5170 0.5120 0.5040 0.4970
13.773000 0.4870 0.4780 0.4680 0.4580 0.4440
13.807063 0.4360 0.4310 0.4240 0.4130 0.3980
13.841000 0.3830 0.3620 0.3520 0.3440 0.3320
13.875063 0.3270 0.3200 0.3100 0.3080 0.3080
13.910000 0.3130 0.3150 0.3210 0.3320 0.3450
13.944063 0.3560 0.3670 0.3760 0.3860 0.3930
13.978000 0.3980 0.4120 0.4220 0.4420 0.4530
14.012063 0.4610 0.4680 0.4730 0.4770 0.4800
14.046000 0.4830 0.4880 0.4920 0.4970 0.4990
14.080063 0.4990 0.4990 0.5000 0.5020 0.5050
14.114000 0.5070 0.5090 0.5110 0.5110 0.5140
14.148063 0.5160 0.5160 0.5160 0.5170 0.5170
14.182000 0.5190 0.5190 0.5260 0.5310 0.5330
14.216063 0.5330 0.5360 0.5360 0.5380 0.5380
14.250000 0.5400 0.5400 0.5410 0.5460 0.5460
14.284063 0.5460 0.5460 0.5480 0.5510 0.5550
14.318000 0.5570 0.5570 0.5620 0.5630 0.5630
14.352063 0.5630 0.5650 0.5650 0.5650 0.5670
14.386000 0.5670 0.5680 0.5700 0.5740 0.5750
14.420063 0.5750 0.5770 0.5790 0.5800 0.5860
14.454000 0.5870 0.5870 0.5890 0.5890 0.5890
14.488063 0.5940 0.5960 0.5960 0.5970 0.5970
14.522000 0.5970 0.5970 0.5970 0.5970 0.5970
14.556063 0.5970 0.5970 0.5970 0.5970 0.5970
14.590000 0.5970 0.5970 0.5990 0.5990 0.5990
14.624063 0.5990 0.5990 0.6030 0.6040 0.6040
14.659000 0.6040 0.6060 0.6060 0.6060 0.6080
14.693063 0.6080 0.6080 0.6080 0.6080 0.6080
14.727000 0.6080 0.6080 0.6080 0.6080 0.6090
14.761063 0.6090 0.6090 0.6080 0.6080 0.6060
14.795000 0.6080 0.6060 0.6060 0.6060 0.6060
14.829063 0.6060 0.6060 0.6060 0.6040 0.6040
14.863000 0.6060 0.6060 0.6060 0.6060 0.6060
14.897063 0.6060 0.6060 0.6060 0.6060 0.6080
14.931000 0.6080 0.6080 0.6080 0.6080 0.6060
14.965063 0.6060 0.6060 0.6060 0.5990 0.5940
14.999000 0.5890 0.5860 0.5840 0.5820 0.5800
15.033063 0.5800 0.5790 0.5770 0.5750 0.5750
15.067000 0.5750 0.5750 0.5750 0.5770 0.5860
15.101063 0.5870 0.5920 0.5940 0.5960 0.5960
15.135000 0.5960 0.5970 0.5970 0.5970 0.5970
15.169063 0.5990 0.5990 0.5990 0.5970 0.5940
15.203000 0.5920 0.5910 0.5910 0.5910 0.5910
15.237063 0.5920 0.5920 0.5920 0.5920 0.5920
15.271000 0.5920 0.5920 0.5920 0.5910 0.5910
15.305063 0.5910 0.5890 0.5910 0.5910 0.5870
15.339000 0.5860 0.5860 0.5840 0.5840 0.5860
15.373063 0.5860 0.5860 0.5860 0.5860 0.5860
15.408000 0.5860 0.5860 0.5860 0.5840 0.5820
15.442063 0.5820 0.5820 0.5800 0.5800 0.5800
15.476000 0.5800 0.5800 0.5800 0.5790 0.5770
15.510063 0.5750 0.5720 0.5720 0.5700 0.5700
15.544000 0.5700 0.5700 0.5700 0.5700 0.5700
15.578063 0.5700 0.5700 0.5700 0.5700 0.5680
15.612000 0.5680 0.5680 0.5680 0.5680 0.5680
15.646063 0.5680 0.5670 0.5680 0.5670 0.5650
15.680000 0.5650 0.5650 0.5650 0.5650 0.5650
15.714063 0.5670 0.5650 0.5650 0.5650 0.5630
15.748000 0.5620 0.5600 0.5600 0.5600 0.5580
15.782063 0.5580 0.5580 0.5580 0.5580 0.5570
15.816000 0.5570 0.5570 0.5570 0.5570 0.5570
15.850063 0.5570 0.5570 0.5580 0.5580 0.5570
15.884000 0.5570 0.5570 0.5570 0.5570 0.5550
15.918063 0.5550 0.5530 0.5530 0.5510 0.5510
15.952000 0.5500 0.5500 0.5500 0.5500 0.5510
15.986063 0.5510 0.5500 0.5500 0.5510
##END=
