##TITLE=1,1'-HEXAMETHYLENEBIS[5-(p-CHLOROPHENYL)-BIGUANIDE]-, DIHYDROCHLORIDE
##JCAMP-DX=4.24
$$ By DXEDIT 1.05 (RS McDonald)
##DATA TYPE=INFRARED SPECTRUM
##CLASS=COBLENTZ III
##OWNER=COBLENTZ SOC.
Collection (C) 2018 copyright by the U.S. Secretary of Commerce
on behalf of the United States of America. All rights reserved.
##DATE=Not specified, most likely prior to 1970
##NAMES=CHLORHEXIDINE HYDROCHLORIDE
##MOLFORM=C22 H32 Cl4 N10
##MP=257 C
##SOURCE REFERENCE=COBLENTZ NO. 05084
##$NIST ID=B6005084
##$NIST SOURCE=COBLENTZ
##$NIST IMAGE=cob5084
##SPECTROMETER/DATA SYSTEM=PERKIN-ELMER 21 (GRATING)
##INSTRUMENT PARAMETERS=FILTER AT ABOUT 10 MICRONS
##STATE=SOLID (KCl DISC) VS KCl
##PATH LENGTH=
$$ SPECTRAL FEATURE AT 996 CM^-^1 IS AN ARTIFACT CAUSED BY FILTER CHANGE
##SAMPLING PROCEDURE=TRANSMISSION
##RESOLUTION=2
##DATA PROCESSING=DIGITIZED BY COBLENTZ SOCIETY (BATCH I) FROM HARD COPY
##XUNITS=1/CM
##YUNITS=TRANSMITTANCE
##XLABEL=Wavenumbers (cm-1)
##YLABEL=Transmittance
##XFACTOR=1
##YFACTOR=1
##DELTAX=1
##FIRSTX=4000
##LASTX=668
##FIRSTY=0.9778
##MAXX=4000
##MINX=668
##MAXY=1.0098
##MINY=0.0185
##NPOINTS=3333
##XYDATA=(X++(Y..Y))
4000.000000 0.9778 0.9778 0.9778 0.9778 0.9778
3995.000000 0.9778 0.9778 0.9780 0.9780 0.9780
3990.000000 0.9781 0.9781 0.9781 0.9782 0.9782
3985.000000 0.9782 0.9783 0.9783 0.9783 0.9783
3980.000000 0.9784 0.9784 0.9784 0.9785 0.9785
3975.000000 0.9785 0.9786 0.9786 0.9786 0.9786
3970.000000 0.9786 0.9786 0.9787 0.9787 0.9787
3965.000000 0.9788 0.9788 0.9788 0.9788 0.9789
3960.000000 0.9789 0.9789 0.9790 0.9790 0.9790
3955.000000 0.9791 0.9791 0.9791 0.9792 0.9792
3950.000000 0.9792 0.9793 0.9793 0.9794 0.9794
3945.000000 0.9795 0.9795 0.9796 0.9796 0.9796
3940.000000 0.9797 0.9797 0.9797 0.9798 0.9798
3935.000000 0.9798 0.9799 0.9799 0.9800 0.9800
3930.000000 0.9801 0.9801 0.9801 0.9802 0.9802
3925.000000 0.9802 0.9803 0.9803 0.9803 0.9804
3920.000000 0.9804 0.9804 0.9805 0.9805 0.9806
3915.000000 0.9806 0.9807 0.9807 0.9808 0.9808
3910.000000 0.9808 0.9809 0.9809 0.9809 0.9810
3905.000000 0.9810 0.9811 0.9811 0.9812 0.9812
3900.000000 0.9813 0.9813 0.9813 0.9814 0.9814
3895.000000 0.9814 0.9815 0.9815 0.9816 0.9816
3890.000000 0.9817 0.9817 0.9818 0.9818 0.9818
3885.000000 0.9818 0.9818 0.9818 0.9818 0.9820
3880.000000 0.9820 0.9821 0.9821 0.9821 0.9821
3875.000000 0.9823 0.9823 0.9824 0.9824 0.9825
3870.000000 0.9825 0.9825 0.9825 0.9825 0.9827
3865.000000 0.9827 0.9827 0.9828 0.9828 0.9828
3860.000000 0.9830 0.9830 0.9831 0.9831 0.9831
3855.000000 0.9832 0.9832 0.9832 0.9833 0.9833
3850.000000 0.9834 0.9834 0.9835 0.9835 0.9836
3845.000000 0.9836 0.9837 0.9838 0.9839 0.9840
3840.000000 0.9841 0.9842 0.9842 0.9843 0.9844
3835.000000 0.9845 0.9846 0.9847 0.9848 0.9849
3830.000000 0.9850 0.9851 0.9852 0.9853 0.9854
3825.000000 0.9854 0.9855 0.9856 0.9860 0.9865
3820.000000 0.9870 0.9875 0.9880 0.9885 0.9890
3815.000000 0.9894 0.9898 0.9901 0.9905 0.9909
3810.000000 0.9913 0.9917 0.9920 0.9924 0.9928
3805.000000 0.9931 0.9931 0.9932 0.9933 0.9933
3800.000000 0.9934 0.9934 0.9934 0.9933 0.9932
3795.000000 0.9931 0.9931 0.9930 0.9928 0.9927
3790.000000 0.9925 0.9925 0.9924 0.9921 0.9917
3785.000000 0.9914 0.9911 0.9907 0.9904 0.9902
3780.000000 0.9900 0.9897 0.9895 0.9893 0.9891
3775.000000 0.9890 0.9889 0.9888 0.9887 0.9886
3770.000000 0.9885 0.9883 0.9882 0.9881 0.9880
3765.000000 0.9878 0.9878 0.9877 0.9875 0.9875
3760.000000 0.9875 0.9874 0.9874 0.9873 0.9871
3755.000000 0.9871 0.9871 0.9870 0.9870 0.9870
3750.000000 0.9870 0.9870 0.9870 0.9870 0.9870
3745.000000 0.9871 0.9871 0.9871 0.9873 0.9875
3740.000000 0.9878 0.9882 0.9885 0.9888 0.9892
3735.000000 0.9896 0.9901 0.9905 0.9909 0.9913
3730.000000 0.9917 0.9921 0.9925 0.9928 0.9934
3725.000000 0.9937 0.9940 0.9943 0.9946 0.9949
3720.000000 0.9952 0.9955 0.9958 0.9961 0.9965
3715.000000 0.9968 0.9971 0.9974 0.9977 0.9980
3710.000000 0.9983 0.9986 0.9989 0.9992 0.9994
3705.000000 0.9997 1.0000 1.0002 1.0005 1.0007
3700.000000 1.0009 1.0012 1.0014 1.0016 1.0018
3695.000000 1.0021 1.0023 1.0025 1.0027 1.0028
3690.000000 1.0032 1.0034 1.0036 1.0038 1.0040
3685.000000 1.0041 1.0043 1.0045 1.0046 1.0047
3680.000000 1.0048 1.0049 1.0050 1.0051 1.0052
3675.000000 1.0053 1.0054 1.0055 1.0056 1.0057
3670.000000 1.0057 1.0058 1.0059 1.0060 1.0060
3665.000000 1.0061 1.0062 1.0063 1.0064 1.0065
3660.000000 1.0066 1.0067 1.0068 1.0068 1.0070
3655.000000 1.0070 1.0071 1.0071 1.0073 1.0073
3650.000000 1.0074 1.0075 1.0075 1.0075 1.0075
3645.000000 1.0075 1.0077 1.0077 1.0078 1.0078
3640.000000 1.0078 1.0080 1.0080 1.0081 1.0081
3635.000000 1.0082 1.0082 1.0083 1.0083 1.0084
3630.000000 1.0085 1.0085 1.0086 1.0086 1.0087
3625.000000 1.0087 1.0088 1.0089 1.0089 1.0089
3620.000000 1.0090 1.0090 1.0090 1.0091 1.0092
3615.000000 1.0092 1.0093 1.0093 1.0094 1.0094
3610.000000 1.0095 1.0096 1.0096 1.0097 1.0097
3605.000000 1.0097 1.0098 1.0098 1.0098 1.0098
3600.000000 1.0097 1.0097 1.0096 1.0095 1.0095
3595.000000 1.0094 1.0094 1.0093 1.0093 1.0092
3590.000000 1.0091 1.0090 1.0089 1.0089 1.0088
3585.000000 1.0087 1.0087 1.0086 1.0086 1.0085
3580.000000 1.0084 1.0083 1.0082 1.0081 1.0080
3575.000000 1.0078 1.0078 1.0077 1.0075 1.0075
3570.000000 1.0073 1.0071 1.0068 1.0068 1.0065
3565.000000 1.0062 1.0058 1.0054 1.0050 1.0046
3560.000000 1.0041 1.0036 1.0031 1.0025 1.0020
3555.000000 1.0011 1.0003 0.9994 0.9986 0.9977
3550.000000 0.9965 0.9953 0.9942 0.9930 0.9918
3545.000000 0.9898 0.9878 0.9860 0.9840 0.9821
3540.000000 0.9805 0.9789 0.9771 0.9756 0.9739
3535.000000 0.9724 0.9709 0.9693 0.9678 0.9662
3530.000000 0.9647 0.9631 0.9616 0.9601 0.9585
3525.000000 0.9568 0.9553 0.9537 0.9521 0.9504
3520.000000 0.9488 0.9471 0.9455 0.9439 0.9423
3515.000000 0.9406 0.9390 0.9373 0.9357 0.9340
3510.000000 0.9323 0.9305 0.9287 0.9270 0.9249
3505.000000 0.9223 0.9196 0.9168 0.9142 0.9116
3500.000000 0.9089 0.9062 0.9035 0.9008 0.8982
3495.000000 0.8956 0.8931 0.8906 0.8880 0.8860
3490.000000 0.8842 0.8824 0.8807 0.8789 0.8771
3485.000000 0.8754 0.8736 0.8718 0.8701 0.8684
3480.000000 0.8666 0.8648 0.8630 0.8613 0.8595
3475.000000 0.8577 0.8559 0.8541 0.8511 0.8437
3470.000000 0.8364 0.8290 0.8216 0.8164 0.8144
3465.000000 0.8122 0.8103 0.8083 0.8062 0.8043
3460.000000 0.8022 0.8004 0.7984 0.7962 0.7941
3455.000000 0.7918 0.7897 0.7874 0.7822 0.7772
3450.000000 0.7721 0.7671 0.7621 0.7571 0.7521
3445.000000 0.7469 0.7418 0.7368 0.7318 0.7268
3440.000000 0.7217 0.7165 0.7115 0.7065 0.7014
3435.000000 0.6962 0.6911 0.6861 0.6810 0.6758
3430.000000 0.6708 0.6657 0.6606 0.6555 0.6504
3425.000000 0.6453 0.6401 0.6350 0.6299 0.6247
3420.000000 0.6196 0.6145 0.6093 0.6042 0.5990
3415.000000 0.5939 0.5888 0.5836 0.5784 0.5733
3410.000000 0.5681 0.5630 0.5578 0.5526 0.5475
3405.000000 0.5423 0.5371 0.5319 0.5268 0.5216
3400.000000 0.5164 0.5112 0.5060 0.5008 0.4956
3395.000000 0.4904 0.4852 0.4800 0.4748 0.4695
3390.000000 0.4643 0.4591 0.4539 0.4487 0.4434
3385.000000 0.4382 0.4329 0.4277 0.4225 0.4172
3380.000000 0.4120 0.4066 0.4014 0.3962 0.3909
3375.000000 0.3856 0.3803 0.3750 0.3699 0.3648
3370.000000 0.3596 0.3550 0.3522 0.3494 0.3464
3365.000000 0.3437 0.3416 0.3400 0.3382 0.3366
3360.000000 0.3350 0.3334 0.3318 0.3303 0.3287
3355.000000 0.3272 0.3256 0.3240 0.3225 0.3208
3350.000000 0.3184 0.3163 0.3140 0.3118 0.3095
3345.000000 0.3072 0.3049 0.3027 0.2997 0.2946
3340.000000 0.2896 0.2845 0.2794 0.2742 0.2689
3335.000000 0.2635 0.2583 0.2542 0.2525 0.2508
3330.000000 0.2490 0.2473 0.2456 0.2439 0.2421
3325.000000 0.2404 0.2383 0.2357 0.2332 0.2307
3320.000000 0.2280 0.2241 0.2202 0.2163 0.2124
3315.000000 0.2085 0.2046 0.2009 0.1971 0.1933
3310.000000 0.1894 0.1856 0.1818 0.1779 0.1741
3305.000000 0.1703 0.1664 0.1626 0.1588 0.1549
3300.000000 0.1511 0.1472 0.1438 0.1432 0.1425
3295.000000 0.1418 0.1404 0.1409 0.1408 0.1407
3290.000000 0.1406 0.1405 0.1405 0.1404 0.1404
3285.000000 0.1404 0.1404 0.1405 0.1406 0.1406
3280.000000 0.1414 0.1423 0.1432 0.1441 0.1450
3275.000000 0.1460 0.1469 0.1478 0.1487 0.1496
3270.000000 0.1505 0.1514 0.1523 0.1532 0.1542
3265.000000 0.1551 0.1560 0.1569 0.1578 0.1587
3260.000000 0.1596 0.1604 0.1614 0.1623 0.1632
3255.000000 0.1641 0.1651 0.1660 0.1669 0.1678
3250.000000 0.1687 0.1696 0.1706 0.1715 0.1724
3245.000000 0.1734 0.1743 0.1752 0.1762 0.1771
3240.000000 0.1779 0.1789 0.1799 0.1808 0.1817
3235.000000 0.1827 0.1835 0.1844 0.1854 0.1864
3230.000000 0.1873 0.1882 0.1891 0.1901 0.1910
3225.000000 0.1919 0.1928 0.1937 0.1946 0.1957
3220.000000 0.1966 0.1975 0.1984 0.1992 0.1998
3215.000000 0.2003 0.2033 0.2013 0.2014 0.2015
3210.000000 0.2016 0.2016 0.2016 0.2016 0.2016
3205.000000 0.2014 0.2003 0.1991 0.1979 0.1968
3200.000000 0.1948 0.1929 0.1909 0.1890 0.1870
3195.000000 0.1851 0.1831 0.1811 0.1792 0.1773
3190.000000 0.1753 0.1734 0.1714 0.1694 0.1675
3185.000000 0.1654 0.1634 0.1616 0.1596 0.1576
3180.000000 0.1567 0.1564 0.1561 0.1545 0.1556
3175.000000 0.1554 0.1553 0.1551 0.1550 0.1549
3170.000000 0.1546 0.1546 0.1545 0.1545 0.1545
3165.000000 0.1545 0.1546 0.1548 0.1550 0.1553
3160.000000 0.1558 0.1566 0.1573 0.1581 0.1589
3155.000000 0.1598 0.1607 0.1616 0.1625 0.1634
3150.000000 0.1643 0.1652 0.1661 0.1670 0.1679
3145.000000 0.1686 0.1695 0.1706 0.1715 0.1724
3140.000000 0.1733 0.1742 0.1751 0.1760 0.1769
3135.000000 0.1779 0.1787 0.1796 0.1806 0.1815
3130.000000 0.1825 0.1834 0.1842 0.1851 0.1860
3125.000000 0.1869 0.1877 0.1884 0.1894 0.1902
3120.000000 0.1911 0.1919 0.1927 0.1934 0.1940
3115.000000 0.1945 0.1952 0.1957 0.1963 0.1968
3110.000000 0.1974 0.1979 0.1984 0.1990 0.1994
3105.000000 0.2002 0.2009 0.2016 0.2023 0.2029
3100.000000 0.2035 0.2043 0.2050 0.2068 0.2087
3095.000000 0.2106 0.2127 0.2161 0.2194 0.2228
3090.000000 0.2262 0.2296 0.2330 0.2364 0.2398
3085.000000 0.2432 0.2466 0.2499 0.2533 0.2567
3080.000000 0.2601 0.2634 0.2670 0.2704 0.2738
3075.000000 0.2773 0.2807 0.2841 0.2875 0.2909
3070.000000 0.2943 0.2978 0.3012 0.3046 0.3080
3065.000000 0.3115 0.3149 0.3183 0.3218 0.3252
3060.000000 0.3287 0.3321 0.3356 0.3391 0.3426
3055.000000 0.3459 0.3495 0.3529 0.3564 0.3599
3050.000000 0.3632 0.3668 0.3703 0.3737 0.3772
3045.000000 0.3807 0.3842 0.3877 0.3912 0.3947
3040.000000 0.3982 0.4016 0.4052 0.4087 0.4122
3035.000000 0.4157 0.4192 0.4218 0.4244 0.4269
3030.000000 0.4296 0.4324 0.4352 0.4380 0.4403
3025.000000 0.4423 0.4443 0.4462 0.4477 0.4491
3020.000000 0.4504 0.4517 0.4528 0.4540 0.4551
3015.000000 0.4560 0.4569 0.4578 0.4587 0.4594
3010.000000 0.4601 0.4608 0.4612 0.4616 0.4620
3005.000000 0.4623 0.4626 0.4630 0.4634 0.4637
3000.000000 0.4641 0.4644 0.4647 0.4651 0.4654
2995.000000 0.4657 0.4660 0.4662 0.4666 0.4668
2990.000000 0.4671 0.4674 0.4676 0.4679 0.4681
2985.000000 0.4682 0.4684 0.4685 0.4686 0.4687
2980.000000 0.4688 0.4690 0.4691 0.4692 0.4694
2975.000000 0.4696 0.4697 0.4699 0.4701 0.4702
2970.000000 0.4704 0.4706 0.4707 0.4709 0.4710
2965.000000 0.4712 0.4712 0.4715 0.4717 0.4724
2960.000000 0.4731 0.4738 0.4746 0.4755 0.4762
2955.000000 0.4772 0.4778 0.4785 0.4791 0.4796
2950.000000 0.4801 0.4806 0.4810 0.4814 0.4818
2945.000000 0.4821 0.4824 0.4826 0.4828 0.4830
2940.000000 0.4831 0.4831 0.4841 0.4825 0.4814
2935.000000 0.4803 0.4790 0.4770 0.4751 0.4731
2930.000000 0.4710 0.4691 0.4671 0.4652 0.4632
2925.000000 0.4612 0.4593 0.4573 0.4553 0.4510
2920.000000 0.4520 0.4512 0.4506 0.4499 0.4495
2915.000000 0.4492 0.4488 0.4488 0.4489 0.4490
2910.000000 0.4492 0.4498 0.4503 0.4508 0.4526
2905.000000 0.4544 0.4562 0.4590 0.4625 0.4659
2900.000000 0.4693 0.4728 0.4762 0.4796 0.4831
2895.000000 0.4865 0.4900 0.4934 0.4969 0.5004
2890.000000 0.5038 0.5073 0.5107 0.5142 0.5177
2885.000000 0.5210 0.5246 0.5281 0.5316 0.5351
2880.000000 0.5386 0.5421 0.5456 0.5491 0.5526
2875.000000 0.5560 0.5595 0.5630 0.5665 0.5701
2870.000000 0.5733 0.5759 0.5785 0.5810 0.5829
2865.000000 0.5848 0.5866 0.5882 0.5897 0.5912
2860.000000 0.5927 0.5942 0.5957 0.5971 0.5984
2855.000000 0.5996 0.6008 0.6020 0.6031 0.6042
2850.000000 0.6051 0.6058 0.6064 0.6068 0.6068
2845.000000 0.6068 0.6068 0.6068 0.6068 0.6068
2840.000000 0.6068 0.6069 0.6069 0.6070 0.6071
2835.000000 0.6072 0.6073 0.6075 0.6076 0.6080
2830.000000 0.6088 0.6097 0.6107 0.6137 0.6167
2825.000000 0.6196 0.6231 0.6268 0.6304 0.6340
2820.000000 0.6376 0.6411 0.6448 0.6484 0.6521
2815.000000 0.6557 0.6594 0.6630 0.6667 0.6703
2810.000000 0.6740 0.6775 0.6812 0.6849 0.6886
2805.000000 0.6918 0.6949 0.6981 0.6997 0.7006
2800.000000 0.7015 0.7024 0.7032 0.7040 0.7047
2795.000000 0.7053 0.7058 0.7065 0.7071 0.7076
2790.000000 0.7084 0.7090 0.7096 0.7101 0.7107
2785.000000 0.7112 0.7118 0.7124 0.7128 0.7135
2780.000000 0.7140 0.7146 0.7151 0.7157 0.7161
2775.000000 0.7168 0.7174 0.7178 0.7185 0.7191
2770.000000 0.7198 0.7204 0.7210 0.7215 0.7221
2765.000000 0.7228 0.7234 0.7240 0.7246 0.7251
2760.000000 0.7258 0.7265 0.7271 0.7276 0.7283
2755.000000 0.7289 0.7295 0.7301 0.7307 0.7312
2750.000000 0.7318 0.7325 0.7330 0.7336 0.7341
2745.000000 0.7346 0.7351 0.7356 0.7361 0.7367
2740.000000 0.7371 0.7376 0.7383 0.7388 0.7393
2735.000000 0.7398 0.7403 0.7408 0.7414 0.7418
2730.000000 0.7425 0.7430 0.7435 0.7441 0.7446
2725.000000 0.7451 0.7456 0.7461 0.7467 0.7471
2720.000000 0.7476 0.7483 0.7488 0.7494 0.7499
2715.000000 0.7504 0.7510 0.7515 0.7519 0.7525
2710.000000 0.7531 0.7536 0.7541 0.7545 0.7550
2705.000000 0.7555 0.7558 0.7564 0.7568 0.7572
2700.000000 0.7578 0.7582 0.7586 0.7591 0.7596
2695.000000 0.7601 0.7605 0.7610 0.7614 0.7618
2690.000000 0.7622 0.7628 0.7632 0.7637 0.7642
2685.000000 0.7647 0.7651 0.7656 0.7660 0.7665
2680.000000 0.7668 0.7674 0.7678 0.7683 0.7687
2675.000000 0.7692 0.7697 0.7701 0.7705 0.7708
2670.000000 0.7712 0.7718 0.7721 0.7725 0.7731
2665.000000 0.7736 0.7740 0.7744 0.7748 0.7751
2660.000000 0.7757 0.7761 0.7765 0.7769 0.7775
2655.000000 0.7778 0.7783 0.7787 0.7792 0.7796
2650.000000 0.7801 0.7805 0.7810 0.7814 0.7818
2645.000000 0.7821 0.7825 0.7828 0.7830 0.7833
2640.000000 0.7835 0.7838 0.7840 0.7843 0.7845
2635.000000 0.7848 0.7850 0.7853 0.7855 0.7858
2630.000000 0.7860 0.7862 0.7865 0.7867 0.7869
2625.000000 0.7871 0.7875 0.7876 0.7880 0.7882
2620.000000 0.7885 0.7889 0.7893 0.7896 0.7900
2615.000000 0.7904 0.7907 0.7911 0.7915 0.7918
2610.000000 0.7921 0.7925 0.7928 0.7933 0.7937
2605.000000 0.7940 0.7944 0.7948 0.7951 0.7956
2600.000000 0.7960 0.7964 0.7967 0.7969 0.7974
2595.000000 0.7976 0.7980 0.7983 0.7986 0.7989
2590.000000 0.7993 0.7996 0.7999 0.8003 0.8006
2585.000000 0.8010 0.8012 0.8015 0.8019 0.8022
2580.000000 0.8025 0.8030 0.8033 0.8036 0.8039
2575.000000 0.8042 0.8045 0.8048 0.8051 0.8053
2570.000000 0.8056 0.8058 0.8061 0.8064 0.8065
2565.000000 0.8068 0.8071 0.8072 0.8075 0.8078
2560.000000 0.8081 0.8084 0.8087 0.8089 0.8092
2555.000000 0.8095 0.8097 0.8100 0.8101 0.8104
2550.000000 0.8105 0.8107 0.8108 0.8111 0.8111
2545.000000 0.8114 0.8115 0.8118 0.8118 0.8121
2540.000000 0.8122 0.8125 0.8126 0.8128 0.8130
2535.000000 0.8131 0.8132 0.8133 0.8135 0.8136
2530.000000 0.8137 0.8138 0.8139 0.8140 0.8141
2525.000000 0.8142 0.8143 0.8144 0.8145 0.8146
2520.000000 0.8147 0.8148 0.8149 0.8150 0.8151
2515.000000 0.8151 0.8153 0.8154 0.8155 0.8156
2510.000000 0.8158 0.8158 0.8158 0.8160 0.8161
2505.000000 0.8161 0.8161 0.8162 0.8164 0.8165
2500.000000 0.8165 0.8167 0.8168 0.8168 0.8169
2495.000000 0.8171 0.8171 0.8171 0.8172 0.8174
2490.000000 0.8175 0.8175 0.8175 0.8176 0.8178
2485.000000 0.8178 0.8178 0.8178 0.8178 0.8178
2480.000000 0.8180 0.8180 0.8180 0.8180 0.8180
2475.000000 0.8180 0.8180 0.8180 0.8180 0.8180
2470.000000 0.8181 0.8181 0.8181 0.8180 0.8180
2465.000000 0.8178 0.8178 0.8178 0.8178 0.8176
2460.000000 0.8175 0.8175 0.8175 0.8175 0.8175
2455.000000 0.8174 0.8172 0.8171 0.8171 0.8169
2450.000000 0.8168 0.8168 0.8167 0.8165 0.8164
2445.000000 0.8162 0.8161 0.8161 0.8158 0.8158
2440.000000 0.8157 0.8155 0.8155 0.8154 0.8153
2435.000000 0.8151 0.8151 0.8150 0.8149 0.8148
2430.000000 0.8147 0.8147 0.8147 0.8147 0.8147
2425.000000 0.8147 0.8148 0.8148 0.8149 0.8149
2420.000000 0.8149 0.8151 0.8153 0.8157 0.8161
2415.000000 0.8167 0.8171 0.8175 0.8180 0.8185
2410.000000 0.8189 0.8193 0.8198 0.8202 0.8206
2405.000000 0.8209 0.8212 0.8213 0.8213 0.8213
2400.000000 0.8213 0.8214 0.8214 0.8214 0.8215
2395.000000 0.8215 0.8215 0.8215 0.8216 0.8216
2390.000000 0.8217 0.8217 0.8217 0.8217 0.8217
2385.000000 0.8218 0.8218 0.8220 0.8224 0.8228
2380.000000 0.8234 0.8239 0.8244 0.8248 0.8253
2375.000000 0.8257 0.8262 0.8267 0.8271 0.8277
2370.000000 0.8281 0.8285 0.8289 0.8293 0.8297
2365.000000 0.8301 0.8305 0.8309 0.8313 0.8317
2360.000000 0.8321 0.8325 0.8328 0.8333 0.8337
2355.000000 0.8341 0.8345 0.8349 0.8353 0.8356
2350.000000 0.8358 0.8361 0.8363 0.8366 0.8368
2345.000000 0.8371 0.8373 0.8375 0.8378 0.8381
2340.000000 0.8383 0.8384 0.8385 0.8387 0.8388
2335.000000 0.8389 0.8390 0.8391 0.8393 0.8394
2330.000000 0.8395 0.8397 0.8398 0.8400 0.8401
2325.000000 0.8401 0.8399 0.8398 0.8396 0.8394
2320.000000 0.8392 0.8390 0.8388 0.8386 0.8384
2315.000000 0.8382 0.8380 0.8378 0.8375 0.8374
2310.000000 0.8373 0.8371 0.8370 0.8368 0.8367
2305.000000 0.8366 0.8365 0.8364 0.8363 0.8362
2300.000000 0.8361 0.8360 0.8359 0.8357 0.8356
2295.000000 0.8355 0.8354 0.8353 0.8351 0.8350
2290.000000 0.8349 0.8348 0.8347 0.8345 0.8344
2285.000000 0.8343 0.8342 0.8340 0.8339 0.8338
2280.000000 0.8337 0.8336 0.8335 0.8334 0.8332
2275.000000 0.8331 0.8330 0.8328 0.8327 0.8325
2270.000000 0.8325 0.8324 0.8323 0.8321 0.8318
2265.000000 0.8317 0.8316 0.8314 0.8313 0.8311
2260.000000 0.8310 0.8308 0.8306 0.8305 0.8303
2255.000000 0.8302 0.8300 0.8298 0.8296 0.8295
2250.000000 0.8293 0.8292 0.8291 0.8290 0.8288
2245.000000 0.8287 0.8285 0.8284 0.8282 0.8281
2240.000000 0.8280 0.8278 0.8278 0.8277 0.8275
2235.000000 0.8274 0.8273 0.8271 0.8271 0.8270
2230.000000 0.8268 0.8268 0.8266 0.8265 0.8264
2225.000000 0.8263 0.8262 0.8261 0.8260 0.8259
2220.000000 0.8258 0.8257 0.8257 0.8257 0.8257
2215.000000 0.8259 0.8262 0.8265 0.8268 0.8271
2210.000000 0.8275 0.8280 0.8283 0.8288 0.8291
2205.000000 0.8293 0.8296 0.8298 0.8300 0.8303
2200.000000 0.8305 0.8308 0.8309 0.8309 0.8309
2195.000000 0.8308 0.8307 0.8307 0.8304 0.8301
2190.000000 0.8298 0.8295 0.8292 0.8289 0.8286
2185.000000 0.8283 0.8280 0.8277 0.8275 0.8271
2180.000000 0.8270 0.8268 0.8265 0.8263 0.8261
2175.000000 0.8260 0.8260 0.8260 0.8261 0.8262
2170.000000 0.8263 0.8263 0.8264 0.8264 0.8265
2165.000000 0.8266 0.8267 0.8268 0.8268 0.8270
2160.000000 0.8271 0.8271 0.8273 0.8273 0.8273
2155.000000 0.8271 0.8270 0.8268 0.8266 0.8264
2150.000000 0.8262 0.8261 0.8259 0.8257 0.8255
2145.000000 0.8252 0.8250 0.8248 0.8246 0.8244
2140.000000 0.8241 0.8239 0.8236 0.8234 0.8232
2135.000000 0.8231 0.8228 0.8228 0.8227 0.8225
2130.000000 0.8225 0.8225 0.8224 0.8224 0.8224
2125.000000 0.8225 0.8228 0.8228 0.8231 0.8233
2120.000000 0.8235 0.8237 0.8239 0.8241 0.8243
2115.000000 0.8245 0.8247 0.8250 0.8252 0.8255
2110.000000 0.8258 0.8260 0.8263 0.8266 0.8268
2105.000000 0.8270 0.8271 0.8271 0.8273 0.8274
2100.000000 0.8275 0.8275 0.8275 0.8277 0.8278
2095.000000 0.8278 0.8278 0.8280 0.8280 0.8280
2090.000000 0.8280 0.8280 0.8280 0.8280 0.8280
2085.000000 0.8280 0.8280 0.8280 0.8280 0.8281
2080.000000 0.8282 0.8284 0.8285 0.8285 0.8286
2075.000000 0.8287 0.8288 0.8289 0.8290 0.8291
2070.000000 0.8292 0.8294 0.8296 0.8299 0.8302
2065.000000 0.8304 0.8306 0.8309 0.8311 0.8314
2060.000000 0.8316 0.8318 0.8320 0.8321 0.8324
2055.000000 0.8325 0.8325 0.8325 0.8324 0.8324
2050.000000 0.8323 0.8323 0.8323 0.8321 0.8321
2045.000000 0.8321 0.8320 0.8320 0.8318 0.8318
2040.000000 0.8318 0.8321 0.8323 0.8325 0.8328
2035.000000 0.8330 0.8332 0.8334 0.8337 0.8339
2030.000000 0.8342 0.8344 0.8346 0.8348 0.8349
2025.000000 0.8351 0.8353 0.8355 0.8357 0.8359
2020.000000 0.8360 0.8362 0.8364 0.8365 0.8366
2015.000000 0.8366 0.8366 0.8366 0.8367 0.8367
2010.000000 0.8367 0.8367 0.8367 0.8366 0.8364
2005.000000 0.8360 0.8356 0.8353 0.8351 0.8349
2000.000000 0.8347 0.8345 0.8343 0.8341 0.8338
1995.000000 0.8336 0.8334 0.8332 0.8330 0.8328
1990.000000 0.8327 0.8325 0.8323 0.8321 0.8318
1985.000000 0.8315 0.8312 0.8308 0.8304 0.8301
1980.000000 0.8298 0.8295 0.8293 0.8290 0.8288
1975.000000 0.8285 0.8283 0.8280 0.8280 0.8278
1970.000000 0.8278 0.8278 0.8281 0.8286 0.8295
1965.000000 0.8303 0.8311 0.8320 0.8327 0.8333
1960.000000 0.8337 0.8339 0.8343 0.8346 0.8349
1955.000000 0.8352 0.8356 0.8359 0.8361 0.8364
1950.000000 0.8367 0.8368 0.8370 0.8371 0.8374
1945.000000 0.8375 0.8377 0.8378 0.8378 0.8381
1940.000000 0.8383 0.8384 0.8386 0.8388 0.8389
1935.000000 0.8391 0.8393 0.8394 0.8396 0.8398
1930.000000 0.8398 0.8397 0.8396 0.8394 0.8392
1925.000000 0.8391 0.8390 0.8388 0.8387 0.8386
1920.000000 0.8384 0.8381 0.8378 0.8375 0.8371
1915.000000 0.8366 0.8360 0.8356 0.8350 0.8342
1910.000000 0.8330 0.8324 0.8318 0.8313 0.8307
1905.000000 0.8303 0.8299 0.8296 0.8292 0.8288
1900.000000 0.8284 0.8278 0.8274 0.8268 0.8264
1895.000000 0.8258 0.8252 0.8245 0.8240 0.8237
1890.000000 0.8237 0.8236 0.8235 0.8235 0.8235
1885.000000 0.8231 0.8221 0.8210 0.8191 0.8165
1880.000000 0.8144 0.8125 0.8111 0.8101 0.8096
1875.000000 0.8093 0.8090 0.8088 0.8088 0.8088
1870.000000 0.8101 0.8118 0.8134 0.8151 0.8169
1865.000000 0.8190 0.8208 0.8211 0.8212 0.8213
1860.000000 0.8215 0.8215 0.8216 0.8217 0.8218
1855.000000 0.8221 0.8223 0.8225 0.8227 0.8228
1850.000000 0.8235 0.8245 0.8256 0.8267 0.8278
1845.000000 0.8290 0.8301 0.8313 0.8324 0.8334
1840.000000 0.8341 0.8347 0.8352 0.8354 0.8350
1835.000000 0.8345 0.8341 0.8336 0.8331 0.8325
1830.000000 0.8321 0.8315 0.8310 0.8305 0.8299
1825.000000 0.8293 0.8288 0.8282 0.8275 0.8270
1820.000000 0.8263 0.8256 0.8249 0.8243 0.8237
1815.000000 0.8230 0.8223 0.8217 0.8211 0.8204
1810.000000 0.8198 0.8192 0.8185 0.8178 0.8175
1805.000000 0.8171 0.8167 0.8164 0.8160 0.8157
1800.000000 0.8153 0.8151 0.8150 0.8148 0.8147
1795.000000 0.8145 0.8150 0.8142 0.8139 0.8138
1790.000000 0.8136 0.8134 0.8131 0.8128 0.8124
1785.000000 0.8121 0.8117 0.8112 0.8110 0.8106
1780.000000 0.8101 0.8098 0.8094 0.8091 0.8087
1775.000000 0.8083 0.8078 0.8075 0.8069 0.8065
1770.000000 0.8061 0.8056 0.8051 0.8032 0.7994
1765.000000 0.7954 0.7925 0.7917 0.7908 0.7900
1760.000000 0.7891 0.7881 0.7871 0.7861 0.7851
1755.000000 0.7840 0.7828 0.7818 0.7807 0.7795
1750.000000 0.7782 0.7769 0.7757 0.7745 0.7733
1745.000000 0.7718 0.7701 0.7685 0.7668 0.7651
1740.000000 0.7636 0.7618 0.7603 0.7586 0.7569
1735.000000 0.7553 0.7536 0.7521 0.7508 0.7494
1730.000000 0.7481 0.7468 0.7458 0.7447 0.7436
1725.000000 0.7428 0.7425 0.7425 0.7428 0.7433
1720.000000 0.7440 0.7447 0.7450 0.7454 0.7456
1715.000000 0.7451 0.7440 0.7418 0.7392 0.7364
1710.000000 0.7335 0.7308 0.7287 0.7265 0.7245
1705.000000 0.7228 0.7214 0.7199 0.7175 0.7149
1700.000000 0.7121 0.7090 0.7054 0.7014 0.6968
1695.000000 0.6845 0.6498 0.6326 0.6252 0.6210
1690.000000 0.6177 0.6146 0.6120 0.6096 0.6071
1685.000000 0.6032 0.5969 0.5895 0.5802 0.5671
1680.000000 0.5527 0.5406 0.5310 0.5223 0.5137
1675.000000 0.5058 0.4990 0.4925 0.4860 0.4772
1670.000000 0.4514 0.4384 0.4207 0.3975 0.3730
1665.000000 0.3484 0.3240 0.2994 0.2748 0.2502
1660.000000 0.2249 0.1794 0.1712 0.1666 0.1621
1655.000000 0.1569 0.1510 0.1430 0.1334 0.1248
1650.000000 0.1165 0.1080 0.0992 0.0817 0.0678
1645.000000 0.0577 0.0520 0.0483 0.0451 0.0423
1640.000000 0.0403 0.0388 0.0363 0.0371 0.0366
1635.000000 0.0361 0.0359 0.0358 0.0357 0.0357
1630.000000 0.0357 0.0357 0.0359 0.0361 0.0366
1625.000000 0.0375 0.0387 0.0399 0.0416 0.0442
1620.000000 0.0473 0.0511 0.0555 0.0583 0.0611
1615.000000 0.0638 0.0666 0.0688 0.0710 0.0729
1610.000000 0.0746 0.0759 0.0770 0.0780 0.0789
1605.000000 0.0791 0.0785 0.0777 0.0767 0.0757
1600.000000 0.0752 0.0752 0.0758 0.0817 0.0925
1595.000000 0.1014 0.1086 0.1141 0.1165 0.1174
1590.000000 0.1190 0.1181 0.1184 0.1186 0.1152
1585.000000 0.1042 0.0932 0.0822 0.0734 0.0685
1580.000000 0.0702 0.0700 0.0706 0.0723 0.0754
1575.000000 0.0790 0.0828 0.0870 0.0916 0.0960
1570.000000 0.0989 0.1007 0.1012 0.1009 0.1004
1565.000000 0.1000 0.0996 0.0996 0.0996 0.1006
1560.000000 0.1017 0.1025 0.1054 0.1037 0.1041
1555.000000 0.1042 0.0988 0.0909 0.0826 0.0746
1550.000000 0.0665 0.0583 0.0502 0.0469 0.0464
1545.000000 0.0459 0.0455 0.0450 0.0446 0.0445
1540.000000 0.0442 0.0434 0.0423 0.0410 0.0390
1535.000000 0.0366 0.0342 0.0313 0.0286 0.0271
1530.000000 0.0257 0.0243 0.0185 0.0222 0.0212
1525.000000 0.0207 0.0206 0.0213 0.0236 0.0267
1520.000000 0.0299 0.0331 0.0365 0.0404 0.0455
1515.000000 0.0508 0.0571 0.0646 0.0719 0.0793
1510.000000 0.0869 0.0957 0.1046 0.1132 0.1219
1505.000000 0.1305 0.1392 0.1499 0.1508 0.1515
1500.000000 0.1457 0.1299 0.1116 0.0932 0.0749
1495.000000 0.0566 0.0361 0.0388 0.0388 0.0389
1490.000000 0.0429 0.0537 0.0701 0.0957 0.1307
1485.000000 0.1558 0.1690 0.1777 0.1860 0.1924
1480.000000 0.1975 0.2026 0.2073 0.2110 0.2146
1475.000000 0.2182 0.2218 0.2253 0.2290 0.2328
1470.000000 0.2367 0.2405 0.2450 0.2501 0.2552
1465.000000 0.2599 0.2646 0.2694 0.2730 0.2763
1460.000000 0.2784 0.2803 0.2815 0.2824 0.2834
1455.000000 0.2838 0.2841 0.2845 0.2851 0.2857
1450.000000 0.2884 0.2926 0.2976 0.3037 0.3093
1445.000000 0.3132 0.3164 0.3191 0.3210 0.3226
1440.000000 0.3240 0.3256 0.3242 0.3241 0.3237
1435.000000 0.3232 0.3227 0.3221 0.3216 0.3208
1430.000000 0.3199 0.3190 0.3182 0.3172 0.3163
1425.000000 0.3110 0.2948 0.2773 0.2598 0.2423
1420.000000 0.2248 0.2071 0.1895 0.1720 0.1542
1415.000000 0.1309 0.1310 0.1311 0.1309 0.1331
1410.000000 0.1425 0.1656 0.1886 0.2119 0.2351
1405.000000 0.2583 0.2816 0.3008 0.3074 0.3119
1400.000000 0.3163 0.3209 0.3260 0.3314 0.3379
1395.000000 0.3448 0.3497 0.3525 0.3552 0.3553
1390.000000 0.3558 0.3559 0.3539 0.3470 0.3353
1385.000000 0.3239 0.3125 0.3011 0.2896 0.2812
1380.000000 0.2743 0.2778 0.2773 0.2773 0.2783
1375.000000 0.2799 0.2826 0.2874 0.2928 0.2987
1370.000000 0.3045 0.3115 0.3198 0.3266 0.3328
1365.000000 0.3389 0.3430 0.3456 0.3492 0.3471
1360.000000 0.3464 0.3421 0.3343 0.3262 0.3195
1355.000000 0.3145 0.3100 0.3125 0.3143 0.3223
1350.000000 0.3310 0.3400 0.3497 0.3596 0.3637
1345.000000 0.3646 0.3650 0.3654 0.3656 0.3672
1340.000000 0.3707 0.3799 0.3934 0.3984 0.3995
1335.000000 0.4007 0.4040 0.4087 0.4166 0.4255
1330.000000 0.4344 0.4410 0.4464 0.4494 0.4512
1325.000000 0.4532 0.4552 0.4574 0.4596 0.4618
1320.000000 0.4641 0.4662 0.4683 0.4700 0.4721
1315.000000 0.4712 0.4710 0.4707 0.4701 0.4694
1310.000000 0.4687 0.4678 0.4669 0.4658 0.4645
1305.000000 0.4623 0.4580 0.4468 0.4340 0.4210
1300.000000 0.4080 0.3975 0.3975 0.4020 0.4100
1295.000000 0.4175 0.4232 0.4285 0.4318 0.4312
1290.000000 0.4312 0.4212 0.4149 0.4097 0.4097
1285.000000 0.4097 0.4097 0.4125 0.4158 0.4195
1280.000000 0.4250 0.4344 0.4427 0.4508 0.4591
1275.000000 0.4674 0.4756 0.4834 0.4910 0.4975
1270.000000 0.5032 0.5077 0.5107 0.5131 0.5144
1265.000000 0.5157 0.5164 0.5168 0.5167 0.5167
1260.000000 0.5162 0.5154 0.5140 0.5109 0.5035
1255.000000 0.4804 0.4698 0.4536 0.4374 0.4212
1250.000000 0.4100 0.4082 0.4071 0.4094 0.4075
1245.000000 0.4089 0.4108 0.4125 0.4138 0.4150
1240.000000 0.4157 0.4164 0.4168 0.4195 0.4280
1235.000000 0.4424 0.4569 0.4715 0.4839 0.4914
1230.000000 0.4979 0.5032 0.5069 0.5101 0.5101
1225.000000 0.5102 0.5101 0.5088 0.5065 0.5021
1220.000000 0.4971 0.4916 0.4872 0.4830 0.4807
1215.000000 0.4806 0.4833 0.4895 0.4958 0.5010
1210.000000 0.5064 0.5104 0.5138 0.5170 0.5195
1205.000000 0.5217 0.5240 0.5265 0.5290 0.5316
1200.000000 0.5336 0.5353 0.5370 0.5348 0.5336
1195.000000 0.5323 0.5309 0.5295 0.5278 0.5260
1190.000000 0.5243 0.5218 0.5193 0.5168 0.5133
1185.000000 0.5097 0.5055 0.5005 0.4954 0.4899
1180.000000 0.4851 0.4816 0.4815 0.4815 0.4819
1175.000000 0.4823 0.4823 0.4822 0.4820 0.4820
1170.000000 0.4815 0.4808 0.4801 0.4785 0.4757
1165.000000 0.4712 0.4670 0.4626 0.4582 0.4538
1160.000000 0.4471 0.4383 0.4330 0.4287 0.4245
1155.000000 0.4201 0.4164 0.4158 0.4151 0.4144
1150.000000 0.4139 0.4167 0.4154 0.4162 0.4178
1145.000000 0.4194 0.4212 0.4245 0.4278 0.4330
1140.000000 0.4392 0.4454 0.4512 0.4571 0.4630
1135.000000 0.4688 0.4755 0.4823 0.4892 0.4947
1130.000000 0.4998 0.5047 0.5085 0.5122 0.5158
1125.000000 0.5191 0.5224 0.5295 0.5260 0.5248
1120.000000 0.5235 0.5210 0.5186 0.5167 0.5149
1115.000000 0.5132 0.5121 0.5109 0.5109 0.5109
1110.000000 0.5117 0.5155 0.5203 0.5252 0.5291
1105.000000 0.5303 0.5332 0.5312 0.5308 0.5288
1100.000000 0.5267 0.5212 0.5148 0.5077 0.4959
1095.000000 0.4642 0.4207 0.3771 0.3516 0.3529
1090.000000 0.3545 0.3703 0.3882 0.4060 0.4239
1085.000000 0.4417 0.4595 0.4747 0.4819 0.4849
1080.000000 0.4872 0.4873 0.4873 0.4859 0.4828
1075.000000 0.4796 0.4769 0.4744 0.4733 0.4724
1070.000000 0.4724 0.4731 0.4743 0.4754 0.4784
1065.000000 0.4814 0.4846 0.4879 0.4912 0.4946
1060.000000 0.4979 0.5012 0.5049 0.5083 0.5118
1055.000000 0.5148 0.5177 0.5207 0.5233 0.5259
1050.000000 0.5284 0.5309 0.5337 0.5386 0.5443
1045.000000 0.5467 0.5472 0.5481 0.5495 0.5508
1040.000000 0.5522 0.5537 0.5553 0.5568 0.5584
1035.000000 0.5597 0.5607 0.5617 0.5628 0.5637
1030.000000 0.5645 0.5654 0.5662 0.5670 0.5677
1025.000000 0.5685 0.5692 0.5703 0.5714 0.5723
1020.000000 0.5727 0.5731 0.5703 0.5632 0.5426
1015.000000 0.5225 0.5024 0.4831 0.4806 0.4775
1010.000000 0.4818 0.4925 0.5103 0.5288 0.5441
1005.000000 0.5535 0.5598 0.5652 0.5696 0.5727
1000.000000 0.5744 0.5817 0.6137 0.6009 0.5495
995.000000 0.5619 0.5751 0.5801 0.5824 0.5840
990.000000 0.5855 0.5875 0.5898 0.5922 0.5947
985.000000 0.5975 0.6004 0.6032 0.6060 0.6087
980.000000 0.6108 0.6122 0.6133 0.6140 0.6146
975.000000 0.6152 0.6157 0.6162 0.6167 0.6175
970.000000 0.6184 0.6192 0.6201 0.6210 0.6219
965.000000 0.6229 0.6238 0.6247 0.6255 0.6262
960.000000 0.6271 0.6277 0.6283 0.6280 0.6271
955.000000 0.6244 0.6223 0.6205 0.6194 0.6190
950.000000 0.6188 0.6186 0.6190 0.6195 0.6210
945.000000 0.6250 0.6286 0.6321 0.6330 0.6336
940.000000 0.6341 0.6341 0.6341 0.6340 0.6340
935.000000 0.6339 0.6337 0.6333 0.6330 0.6327
930.000000 0.6326 0.6326 0.6331 0.6343 0.6362
925.000000 0.6382 0.6411 0.6433 0.6433 0.6433
920.000000 0.6433 0.6446 0.6458 0.6471 0.6468
915.000000 0.6455 0.6442 0.6435 0.6433 0.6431
910.000000 0.6445 0.6458 0.6462 0.6465 0.6467
905.000000 0.6485 0.6508 0.6517 0.6500 0.6485
900.000000 0.6471 0.6474 0.6483 0.6493 0.6504
895.000000 0.6518 0.6532 0.6542 0.6539 0.6535
890.000000 0.6530 0.6524 0.6524 0.6524 0.6528
885.000000 0.6532 0.6537 0.6540 0.6542 0.6544
880.000000 0.6546 0.6549 0.6549 0.6546 0.6543
875.000000 0.6540 0.6539 0.6537 0.6535 0.6532
870.000000 0.6538 0.6542 0.6561 0.6558 0.6536
865.000000 0.6478 0.6465 0.6458 0.6451 0.6440
860.000000 0.6349 0.6305 0.6260 0.6220 0.6179
855.000000 0.6133 0.6088 0.6066 0.6038 0.6009
850.000000 0.5973 0.5935 0.5897 0.5856 0.5810
845.000000 0.5755 0.5698 0.5634 0.5556 0.5464
840.000000 0.5367 0.5245 0.5110 0.4965 0.4821
835.000000 0.4700 0.4584 0.4469 0.4351 0.4188
830.000000 0.4007 0.3816 0.3637 0.3434 0.3224
825.000000 0.2989 0.2754 0.2589 0.2590 0.3128
820.000000 0.3475 0.3823 0.4172 0.4522 0.4647
815.000000 0.4676 0.4656 0.4629 0.4612 0.4615
810.000000 0.4676 0.4804 0.5017 0.5202 0.5399
805.000000 0.5537 0.5664 0.5787 0.5894 0.5992
800.000000 0.6060 0.6110 0.6129 0.6143 0.6149
795.000000 0.6155 0.6172 0.6172 0.6171 0.6177
790.000000 0.6180 0.6180 0.6167 0.6142 0.6094
785.000000 0.6044 0.6038 0.6052 0.6064 0.6056
780.000000 0.6021 0.5965 0.5930 0.5910 0.5903
775.000000 0.5883 0.5822 0.5769 0.5753 0.5737
770.000000 0.5719 0.5694 0.5667 0.5640 0.5598
765.000000 0.5496 0.5424 0.5375 0.5333 0.5265
760.000000 0.5172 0.5060 0.4951 0.4845 0.4743
755.000000 0.4638 0.4530 0.4409 0.4295 0.4155
750.000000 0.4030 0.3964 0.3898 0.3853 0.3821
745.000000 0.3842 0.3849 0.3854 0.3859 0.3862
740.000000 0.3862 0.3862 0.3862 0.3858 0.3850
735.000000 0.3832 0.3802 0.3744 0.3695 0.3642
730.000000 0.3564 0.3450 0.3328 0.3197 0.3084
725.000000 0.3012 0.3006 0.3020 0.3089 0.3162
720.000000 0.3240 0.3299 0.3373 0.3448 0.3522
715.000000 0.3597 0.3673 0.3747 0.3823 0.3966
710.000000 0.3986 0.4000 0.4050 0.4108 0.4179
705.000000 0.4249 0.4312 0.4377 0.4440 0.4488
700.000000 0.4535 0.4581 0.4617 0.4653 0.4691
695.000000 0.4735 0.4779 0.4802 0.4822 0.4826
690.000000 0.4831 0.4832 0.4832 0.4854 0.4905
685.000000 0.4908 0.4908 0.4924 0.4943 0.4962
680.000000 0.4973 0.4981 0.5000 0.5000 0.5000
675.000000 0.5004 0.5007 0.4995 0.4955 0.4957
670.000000 0.4958 0.4964 0.4976
##END=
