##TITLE=DECABORANE
##JCAMP-DX=4.24
##DATA TYPE=INFRARED SPECTRUM
##CLASS=COBLENTZ
##ORIGIN=KALLERY CHEMICAL COMPANY
##OWNER=COBLENTZ SOCIETY
Collection (C) 2018 copyright by the U.S. Secretary of Commerce
on behalf of the United States of America. All rights reserved.
##DATE=1960
##NAMES=1.lambda.<5>,2.lambda.<5>,3.lambda.<5>,4.lambda.<5>,5.lambda.<5>,6.lambda.<5>,7.lambda.<5>,8.lambda.<5>,9.lambda.<5>,10.lambda.<5>-nonacyclo[4.4.0.0<1,3>.0<2,5>.0<2,6>.0<3,10>.0<4,8>.0<4,9>.0<5,7>]decaborane
##MOLFORM=B10 H14
##SOURCE REFERENCE=COBLENTZ NO. 825
##$NIST ID=B6000825
##$NIST SOURCE=COBLENTZ
##$NIST IMAGE=cob825
##SPECTROMETER/DATA SYSTEM=Not specified, most likely a prism, grating, or hybrid spectrometer.
##STATE=SOLUTION (21.2 mg/ml IN 2,2-DIMETHYLBUTANE)
##PATH LENGTH=0.0217 CM CELL, COMPENSATED
##SAMPLING PROCEDURE=TRANSMISSION
##RESOLUTION=4
##DATA PROCESSING=DIGITIZED BY NIST FROM HARD COPY
##XUNITS=MICROMETERS
##YUNITS=TRANSMITTANCE
##XFACTOR=1.000000
##YFACTOR=1
##DELTAX=000.006853
##FIRSTX=2.013
##LASTX=15.6036
##FIRSTY=0.965
##MAXX=15.6036
##MINX=2.013
##MAXY=0.989
##MINY=0.134
##NPOINTS=1984
##XYDATA=(X++(Y..Y))
2.013000 0.9650 0.9650 0.9650 0.9650 0.9650
2.047283 0.9650 0.9640 0.9640 0.9640 0.9640
2.082000 0.9640 0.9640 0.9640 0.9640 0.9640
2.116283 0.9640 0.9640 0.9640 0.9640 0.9650
2.150000 0.9650 0.9650 0.9670 0.9670 0.9670
2.184283 0.9670 0.9690 0.9690 0.9710 0.9710
2.219000 0.9720 0.9740 0.9760 0.9760 0.9770
2.253283 0.9790 0.9810 0.9810 0.9820 0.9840
2.287000 0.9840 0.9860 0.9860 0.9880 0.9880
2.321283 0.9880 0.9880 0.9890 0.9890 0.9890
2.356000 0.9890 0.9890 0.9890 0.9890 0.9890
2.390283 0.9880 0.9880 0.9880 0.9860 0.9860
2.424000 0.9860 0.9840 0.9840 0.9820 0.9820
2.458283 0.9810 0.9790 0.9770 0.9770 0.9770
2.493000 0.9760 0.9760 0.9760 0.9740 0.9740
2.527283 0.9740 0.9740 0.9740 0.9740 0.9740
2.561000 0.9720 0.9710 0.9710 0.9690 0.9690
2.595283 0.9690 0.9690 0.9690 0.9690 0.9670
2.630000 0.9670 0.9670 0.9670 0.9650 0.9650
2.664283 0.9650 0.9650 0.9640 0.9640 0.9640
2.698000 0.9640 0.9620 0.9620 0.9620 0.9600
2.732283 0.9590 0.9590 0.9590 0.9570 0.9550
2.767000 0.9540 0.9540 0.9540 0.9520 0.9520
2.801283 0.9500 0.9480 0.9480 0.9470 0.9450
2.836000 0.9430 0.9420 0.9400 0.9380 0.9360
2.870283 0.9330 0.9330 0.9310 0.9300 0.9280
2.904000 0.9260 0.9250 0.9210 0.9190 0.9180
2.938283 0.9160 0.9140 0.9130 0.9110 0.9080
2.973000 0.9060 0.9040 0.9040 0.9020 0.9010
3.007283 0.8990 0.8970 0.8970 0.8960 0.8960
3.041000 0.8960 0.8970 0.8970 0.8970 0.8990
3.075283 0.8990 0.8990 0.9010 0.9020 0.9040
3.110000 0.9060 0.9080 0.9110 0.9140 0.9160
3.144283 0.9180 0.9210 0.9230 0.9250 0.9250
3.178000 0.9280 0.9330 0.9380 0.9420 0.9430
3.212283 0.9450 0.9470 0.9470 0.9470 0.9470
3.247000 0.9470 0.9480 0.9480 0.9480 0.9480
3.281283 0.9480 0.9480 0.9480 0.9480 0.9480
3.315000 0.9480 0.9480 0.9480 0.9480 0.9480
3.349283 0.9480 0.9480 0.9480 0.9470 0.9470
3.384000 0.9470 0.9470 0.9470 0.9470 0.9470
3.418283 0.9470 0.9480 0.9480 0.9500 0.9500
3.452000 0.9500 0.9500 0.9500 0.9500 0.9520
3.486283 0.9520 0.9520 0.9540 0.9540 0.9540
3.521000 0.9550 0.9550 0.9550 0.9570 0.9570
3.555283 0.9570 0.9590 0.9600 0.9620 0.9620
3.589000 0.9620 0.9640 0.9650 0.9690 0.9710
3.623283 0.9710 0.9710 0.9720 0.9720 0.9720
3.658000 0.9710 0.9690 0.9690 0.9650 0.9640
3.692283 0.9600 0.9550 0.9480 0.9400 0.9280
3.726000 0.9140 0.8970 0.8770 0.8270 0.7870
3.760283 0.7700 0.7080 0.6470 0.5990 0.3370
3.795000 0.2890 0.2380 0.1870 0.1360 0.1340
3.829283 0.1370 0.1630 0.1950 0.2500 0.3040
3.864000 0.3590 0.4130 0.4680 0.5220 0.5790
3.898283 0.6780 0.7520 0.8340 0.8430 0.8550
3.932000 0.8700 0.8770 0.8850 0.8920 0.9010
3.966283 0.9020 0.9020 0.9110 0.9180 0.9210
4.001000 0.9260 0.9300 0.9350 0.9380 0.9420
4.035283 0.9430 0.9450 0.9470 0.9480 0.9500
4.069000 0.9500 0.9520 0.9540 0.9540 0.9540
4.103283 0.9540 0.9550 0.9550 0.9540 0.9540
4.138000 0.9550 0.9550 0.9550 0.9550 0.9570
4.172283 0.9570 0.9570 0.9590 0.9590 0.9590
4.206000 0.9600 0.9600 0.9600 0.9600 0.9600
4.240283 0.9600 0.9600 0.9600 0.9600 0.9600
4.275000 0.9600 0.9600 0.9600 0.9600 0.9600
4.309283 0.9600 0.9600 0.9600 0.9600 0.9590
4.343000 0.9590 0.9590 0.9590 0.9590 0.9590
4.377283 0.9590 0.9590 0.9590 0.9590 0.9600
4.412000 0.9590 0.9590 0.9590 0.9570 0.9570
4.446283 0.9550 0.9550 0.9550 0.9540 0.9540
4.480000 0.9540 0.9540 0.9540 0.9520 0.9520
4.514283 0.9500 0.9500 0.9480 0.9470 0.9470
4.549000 0.9450 0.9450 0.9430 0.9450 0.9450
4.583283 0.9450 0.9450 0.9450 0.9470 0.9470
4.617000 0.9480 0.9480 0.9500 0.9520 0.9540
4.651283 0.9550 0.9550 0.9550 0.9570 0.9570
4.686000 0.9570 0.9570 0.9570 0.9570 0.9590
4.720283 0.9590 0.9590 0.9590 0.9590 0.9590
4.754000 0.9590 0.9590 0.9590 0.9590 0.9590
4.788283 0.9590 0.9590 0.9590 0.9590 0.9590
4.823000 0.9590 0.9590 0.9590 0.9590 0.9590
4.857283 0.9590 0.9590 0.9590 0.9590 0.9590
4.891000 0.9590 0.9590 0.9590 0.9590 0.9570
4.925283 0.9570 0.9570 0.9550 0.9550 0.9550
4.960000 0.9540 0.9520 0.9500 0.9430 0.9380
4.994283 0.9310 0.9310 0.9300 0.9280 0.9260
5.029000 0.9260 0.9250 0.9230 0.9210 0.9160
5.063283 0.9130 0.9110 0.9060 0.9020 0.8960
5.097000 0.8840 0.8700 0.8500 0.8330 0.8270
5.131283 0.8260 0.8290 0.8340 0.8380 0.8410
5.166000 0.8430 0.8440 0.8430 0.8410 0.8380
5.200283 0.8290 0.8260 0.8160 0.7880 0.7750
5.234000 0.7700 0.7680 0.7680 0.7680 0.7680
5.268283 0.7680 0.7700 0.7710 0.7830 0.7970
5.303000 0.8140 0.8290 0.8410 0.8530 0.8650
5.337283 0.8730 0.8820 0.8870 0.8920 0.8960
5.371000 0.8970 0.8970 0.9010 0.9040 0.9080
5.405283 0.9090 0.9090 0.9110 0.9110 0.9110
5.440000 0.9110 0.9130 0.9130 0.9140 0.9140
5.474283 0.9180 0.9190 0.9190 0.9190 0.9210
5.508000 0.9210 0.9210 0.9210 0.9210 0.9190
5.542283 0.9180 0.9180 0.9180 0.9190 0.9190
5.577000 0.9210 0.9230 0.9230 0.9250 0.9260
5.611283 0.9260 0.9280 0.9280 0.9300 0.9310
5.645000 0.9350 0.9380 0.9400 0.9400 0.9400
5.679283 0.9400 0.9420 0.9420 0.9420 0.9420
5.714000 0.9400 0.9400 0.9380 0.9380 0.9360
5.748283 0.9360 0.9350 0.9330 0.9310 0.9310
5.782000 0.9300 0.9300 0.9280 0.9280 0.9280
5.816283 0.9280 0.9280 0.9280 0.9280 0.9280
5.851000 0.9280 0.9280 0.9280 0.9280 0.9280
5.885283 0.9280 0.9300 0.9280 0.9280 0.9280
5.919000 0.9280 0.9280 0.9280 0.9280 0.9280
5.953283 0.9280 0.9280 0.9280 0.9280 0.9280
5.988000 0.9260 0.9260 0.9260 0.9250 0.9250
6.022283 0.9250 0.9230 0.9230 0.9230 0.9210
6.057000 0.9190 0.9160 0.9140 0.9130 0.9090
6.091283 0.9090 0.9080 0.9040 0.9020 0.9010
6.125000 0.8970 0.8960 0.8940 0.8900 0.8890
6.159283 0.8850 0.8890 0.8850 0.8840 0.8790
6.194000 0.8750 0.8730 0.8720 0.8670 0.8620
6.228283 0.8560 0.8410 0.8260 0.8090 0.7370
6.262000 0.7350 0.7150 0.6910 0.6890 0.6890
6.296283 0.6890 0.6890 0.6910 0.6910 0.6930
6.331000 0.6890 0.6950 0.6960 0.6960 0.6960
6.365283 0.6960 0.6950 0.6950 0.6930 0.6890
6.399000 0.6840 0.6780 0.6710 0.6620 0.6540
6.433283 0.6450 0.6350 0.6230 0.6110 0.5990
6.468000 0.5860 0.5720 0.5580 0.5430 0.5280
6.502283 0.5120 0.4970 0.4800 0.4630 0.4460
6.536000 0.4370 0.4250 0.4120 0.3960 0.3830
6.570283 0.3690 0.3590 0.3490 0.3470 0.3450
6.605000 0.3450 0.3450 0.3450 0.3470 0.3490
6.639283 0.3500 0.3560 0.3640 0.3730 0.3810
6.673000 0.3900 0.3960 0.4020 0.4030 0.4070
6.707283 0.4100 0.4150 0.4190 0.4240 0.4270
6.742000 0.4320 0.4360 0.4370 0.4370 0.4390
6.776283 0.4390 0.4410 0.4410 0.4420 0.4420
6.810000 0.4420 0.4420 0.4420 0.4420 0.4420
6.844283 0.4420 0.4420 0.4420 0.4420 0.4420
6.879000 0.4420 0.4420 0.4410 0.4410 0.4410
6.913283 0.4420 0.4420 0.4440 0.4460 0.4480
6.947000 0.4490 0.4510 0.4530 0.4560 0.4650
6.981283 0.4710 0.4800 0.4880 0.4970 0.5770
7.016000 0.6540 0.6810 0.7100 0.7460 0.7560
7.050283 0.7660 0.7760 0.7880 0.7980 0.8090
7.085000 0.8190 0.8290 0.8410 0.8440 0.8460
7.119283 0.8480 0.8500 0.8500 0.8500 0.8500
7.153000 0.8500 0.8500 0.8500 0.8500 0.8480
7.187283 0.8460 0.8460 0.8440 0.8440 0.8430
7.222000 0.8430 0.8410 0.8410 0.8410 0.8410
7.256283 0.8410 0.8410 0.8410 0.8410 0.8410
7.290000 0.8410 0.8410 0.8410 0.8410 0.8410
7.324283 0.8430 0.8440 0.8460 0.8460 0.8480
7.359000 0.8500 0.8510 0.8530 0.8560 0.8600
7.393283 0.8630 0.8650 0.8670 0.8750 0.8840
7.427000 0.8900 0.8970 0.9020 0.9080 0.9110
7.461283 0.9160 0.9180 0.9210 0.9250 0.9260
7.496000 0.9300 0.9310 0.9330 0.9360 0.9400
7.530283 0.9430 0.9470 0.9480 0.9480 0.9500
7.564000 0.9520 0.9540 0.9540 0.9550 0.9570
7.598283 0.9570 0.9590 0.9590 0.9620 0.9620
7.633000 0.9640 0.9640 0.9650 0.9650 0.9670
7.667283 0.9670 0.9690 0.9690 0.9710 0.9710
7.701000 0.9720 0.9720 0.9740 0.9740 0.9760
7.735283 0.9760 0.9770 0.9770 0.9810 0.9810
7.770000 0.9810 0.9820 0.9820 0.9820 0.9840
7.804283 0.9840 0.9840 0.9820 0.9820 0.9820
7.838000 0.9820 0.9820 0.9820 0.9810 0.9810
7.872283 0.9790 0.9790 0.9770 0.9760 0.9760
7.907000 0.9740 0.9720 0.9710 0.9690 0.9650
7.941283 0.9640 0.9600 0.9590 0.9570 0.9570
7.975000 0.9550 0.9540 0.9540 0.9540 0.9540
8.009283 0.9540 0.9540 0.9540 0.9540 0.9540
8.044000 0.9540 0.9550 0.9550 0.9550 0.9550
8.078283 0.9570 0.9570 0.9570 0.9570 0.9570
8.113000 0.9570 0.9590 0.9590 0.9590 0.9600
8.147283 0.9600 0.9600 0.9590 0.9590 0.9590
8.181000 0.9590 0.9590 0.9590 0.9590 0.9590
8.215283 0.9590 0.9590 0.9590 0.9590 0.9570
8.250000 0.9550 0.9540 0.9540 0.9520 0.9520
8.284283 0.9500 0.9480 0.9470 0.9470 0.9430
8.318000 0.9400 0.9380 0.9360 0.9330 0.9330
8.352283 0.9310 0.9300 0.9280 0.9280 0.9260
8.387000 0.9260 0.9250 0.9250 0.9250 0.9250
8.421283 0.9250 0.9260 0.9280 0.9300 0.9300
8.455000 0.9310 0.9310 0.9330 0.9350 0.9350
8.489283 0.9360 0.9360 0.9380 0.9380 0.9400
8.524000 0.9420 0.9420 0.9430 0.9430 0.9450
8.558283 0.9470 0.9480 0.9500 0.9500 0.9520
8.592000 0.9540 0.9550 0.9550 0.9570 0.9590
8.626283 0.9600 0.9620 0.9620 0.9640 0.9640
8.661000 0.9650 0.9650 0.9670 0.9670 0.9690
8.695283 0.9690 0.9710 0.9710 0.9720 0.9720
8.729000 0.9740 0.9740 0.9760 0.9760 0.9760
8.763283 0.9760 0.9760 0.9760 0.9760 0.9760
8.798000 0.9760 0.9760 0.9760 0.9760 0.9760
8.832283 0.9760 0.9760 0.9760 0.9740 0.9740
8.866000 0.9740 0.9710 0.9710 0.9690 0.9690
8.900283 0.9650 0.9640 0.9600 0.9570 0.9570
8.935000 0.9550 0.9540 0.9520 0.9480 0.9480
8.969283 0.9470 0.9470 0.9470 0.9450 0.9450
9.003000 0.9450 0.9430 0.9420 0.9400 0.9380
9.037283 0.9360 0.9350 0.9350 0.9330 0.9330
9.072000 0.9310 0.9310 0.9310 0.9310 0.9310
9.106283 0.9310 0.9310 0.9310 0.9310 0.9310
9.140000 0.9330 0.9330 0.9330 0.9330 0.9330
9.174283 0.9330 0.9330 0.9330 0.9330 0.9330
9.209000 0.9330 0.9330 0.9350 0.9350 0.9350
9.243283 0.9350 0.9350 0.9350 0.9360 0.9360
9.278000 0.9380 0.9380 0.9400 0.9400 0.9400
9.312283 0.9400 0.9400 0.9420 0.9420 0.9420
9.346000 0.9430 0.9430 0.9450 0.9450 0.9470
9.380283 0.9450 0.9470 0.9470 0.9470 0.9470
9.415000 0.9470 0.9470 0.9470 0.9470 0.9470
9.449283 0.9470 0.9470 0.9470 0.9470 0.9470
9.483000 0.9470 0.9470 0.9470 0.9470 0.9470
9.517283 0.9450 0.9450 0.9430 0.9420 0.9420
9.552000 0.9400 0.9360 0.9350 0.9300 0.9300
9.586283 0.9280 0.9280 0.9260 0.9250 0.9230
9.620000 0.9230 0.9230 0.9230 0.9230 0.9250
9.654283 0.9250 0.9260 0.9260 0.9260 0.9260
9.689000 0.9260 0.9280 0.9280 0.9280 0.9260
9.723283 0.9260 0.9250 0.9250 0.9250 0.9180
9.757000 0.9110 0.9060 0.8990 0.8890 0.8770
9.791283 0.8600 0.8380 0.8090 0.7710 0.7540
9.826000 0.7350 0.7120 0.6540 0.6180 0.5960
9.860283 0.5770 0.5530 0.5140 0.4480 0.4080
9.894000 0.3740 0.3640 0.3570 0.3540 0.3560
9.928283 0.3910 0.4270 0.4630 0.4990 0.5360
9.963000 0.6980 0.7150 0.7300 0.7470 0.7630
9.997283 0.7800 0.7950 0.8140 0.8340 0.8410
10.031000 0.8480 0.8550 0.8620 0.8680 0.8770
10.065283 0.8790 0.8840 0.8870 0.8890 0.8920
10.100000 0.8960 0.8970 0.9010 0.9040 0.9080
10.134283 0.9110 0.9130 0.9140 0.9160 0.9160
10.168000 0.9160 0.9160 0.9160 0.9180 0.9140
10.202283 0.9130 0.9110 0.9130 0.9110 0.9060
10.237000 0.8970 0.8870 0.8770 0.8650 0.8550
10.271283 0.8440 0.8340 0.8220 0.8090 0.7980
10.306000 0.7870 0.7780 0.7700 0.7490 0.7440
10.340283 0.7370 0.7350 0.7350 0.7350 0.7350
10.374000 0.7370 0.7390 0.7510 0.7640 0.7810
10.408283 0.7950 0.8050 0.8140 0.8210 0.8260
10.443000 0.8310 0.8340 0.8360 0.8390 0.8410
10.477283 0.8440 0.8460 0.8510 0.8560 0.8630
10.511000 0.8720 0.8730 0.8750 0.8750 0.8770
10.545283 0.8770 0.8750 0.8730 0.8700 0.8630
10.580000 0.8510 0.8480 0.8430 0.8380 0.8360
10.614283 0.8340 0.8330 0.8270 0.8210 0.8050
10.648000 0.7870 0.7610 0.7350 0.7100 0.6980
10.682283 0.6960 0.6950 0.6950 0.6980 0.7030
10.717000 0.7050 0.7050 0.7060 0.7100 0.7120
10.751283 0.7120 0.7100 0.7080 0.7050 0.6960
10.785000 0.6880 0.6760 0.6620 0.6490 0.6330
10.819283 0.6160 0.5990 0.5920 0.5870 0.5860
10.854000 0.5820 0.5840 0.5860 0.5960 0.6080
10.888283 0.6210 0.6370 0.6520 0.6710 0.6890
10.922000 0.7100 0.7300 0.7490 0.7700 0.7880
10.956283 0.8050 0.8220 0.8380 0.8500 0.8600
10.991000 0.8670 0.8730 0.8730 0.8750 0.8750
11.025283 0.8750 0.8750 0.8750 0.8730 0.8720
11.059000 0.8680 0.8670 0.8620 0.8530 0.8410
11.093283 0.8220 0.7970 0.7610 0.7420 0.7270
11.128000 0.7150 0.7100 0.7080 0.7120 0.7170
11.162283 0.7250 0.7440 0.7700 0.7900 0.8070
11.196000 0.8240 0.8290 0.8330 0.8360 0.8380
11.230283 0.8480 0.8580 0.8680 0.8750 0.8800
11.265000 0.8820 0.8840 0.8850 0.8870 0.8900
11.299283 0.8940 0.9010 0.9080 0.9090 0.9110
11.334000 0.9130 0.9140 0.9140 0.9160 0.9160
11.368283 0.9180 0.9180 0.9180 0.9190 0.9190
11.402000 0.9190 0.9180 0.9180 0.9160 0.9140
11.436283 0.9130 0.9130 0.9110 0.9080 0.9060
11.471000 0.9040 0.9040 0.9010 0.8900 0.8790
11.505283 0.8680 0.8620 0.8530 0.8430 0.8330
11.539000 0.8160 0.8040 0.7750 0.7370 0.6980
11.573283 0.6980 0.6720 0.6590 0.6450 0.6430
11.608000 0.6430 0.6420 0.6420 0.6400 0.6420
11.642283 0.6420 0.6470 0.6540 0.6620 0.6810
11.676000 0.6950 0.7080 0.7320 0.7610 0.7700
11.710283 0.7780 0.7870 0.7950 0.8040 0.8120
11.745000 0.8210 0.8290 0.8390 0.8460 0.8510
11.779283 0.8560 0.8630 0.8700 0.8730 0.8750
11.813000 0.8770 0.8800 0.8840 0.8850 0.8890
11.847283 0.8890 0.8900 0.8900 0.8900 0.8900
11.882000 0.8900 0.8890 0.8890 0.8870 0.8840
11.916283 0.8840 0.8800 0.8800 0.8820 0.8820
11.950000 0.8840 0.8850 0.8850 0.8850 0.8850
11.984283 0.8850 0.8850 0.8870 0.8850 0.8850
12.019000 0.8850 0.8820 0.8800 0.8750 0.8730
12.053283 0.8680 0.8650 0.8580 0.8510 0.8430
12.087000 0.8330 0.8190 0.8040 0.7850 0.7630
12.121283 0.7540 0.7510 0.7300 0.7100 0.6890
12.156000 0.6880 0.6710 0.6620 0.6520 0.6430
12.190283 0.6330 0.6320 0.6320 0.6320 0.6330
12.224000 0.6330 0.6370 0.6380 0.6400 0.6420
12.258283 0.6420 0.6420 0.6400 0.6350 0.6280
12.293000 0.6250 0.6160 0.6130 0.6030 0.6010
12.327283 0.5960 0.5920 0.5920 0.5920 0.5920
12.362000 0.5920 0.5940 0.5940 0.5940 0.5960
12.396283 0.5990 0.6210 0.6430 0.6660 0.6840
12.430000 0.7010 0.7180 0.7340 0.7470 0.7610
12.464283 0.7730 0.7830 0.7930 0.8040 0.8120
12.499000 0.8190 0.8260 0.8330 0.8380 0.8430
12.533283 0.8480 0.8510 0.8560 0.8600 0.8630
12.567000 0.8670 0.8680 0.8720 0.8750 0.8790
12.601283 0.8820 0.8840 0.8850 0.8850 0.8850
12.636000 0.8850 0.8850 0.8850 0.8840 0.8840
12.670283 0.8840 0.8820 0.8790 0.8800 0.8820
12.704000 0.8790 0.8770 0.8750 0.8730 0.8700
12.738283 0.8650 0.8620 0.8620 0.8600 0.8560
12.773000 0.8550 0.8530 0.8510 0.8380 0.8340
12.807283 0.8260 0.8260 0.8170 0.8090 0.8040
12.841000 0.7980 0.7760 0.7660 0.7520 0.7410
12.875283 0.7250 0.7100 0.6930 0.6780 0.6620
12.910000 0.6470 0.6300 0.6280 0.6030 0.5890
12.944283 0.5750 0.5620 0.5480 0.5340 0.5330
12.978000 0.5310 0.5260 0.5170 0.5110 0.5090
13.012283 0.5090 0.5090 0.5090 0.5090 0.5110
13.047000 0.5120 0.5280 0.5460 0.5670 0.5860
13.081283 0.5920 0.6040 0.6080 0.6110 0.6210
13.115000 0.6250 0.6960 0.7010 0.7050 0.7100
13.149283 0.7290 0.7460 0.7490 0.7510 0.7560
13.184000 0.7680 0.7850 0.7950 0.7970 0.7980
13.218283 0.8120 0.8220 0.8260 0.8390 0.8430
13.252000 0.8440 0.8460 0.8480 0.8500 0.8510
13.286283 0.8530 0.8530 0.8530 0.8530 0.8530
13.321000 0.8530 0.8530 0.8510 0.8500 0.8500
13.355283 0.8480 0.8460 0.8440 0.8440 0.8410
13.389000 0.8390 0.8360 0.8330 0.8290 0.8220
13.423283 0.8170 0.8090 0.7980 0.7930 0.7880
13.458000 0.7830 0.7760 0.7750 0.7750 0.7750
13.492283 0.7750 0.7750 0.7760 0.7800 0.7830
13.527000 0.7870 0.7880 0.7900 0.7950 0.7980
13.561283 0.8040 0.8070 0.8090 0.8090 0.8100
13.595000 0.8100 0.8120 0.8120 0.8100 0.8100
13.629283 0.8090 0.8040 0.7980 0.7920 0.7900
13.664000 0.7880 0.7850 0.7810 0.7780 0.7750
13.698283 0.7700 0.7680 0.7490 0.7410 0.7270
13.732000 0.7130 0.7000 0.6860 0.6720 0.6590
13.766283 0.6570 0.6540 0.6490 0.5960 0.5800
13.801000 0.5600 0.5380 0.5140 0.4920 0.4710
13.835283 0.4540 0.4440 0.4410 0.4320 0.4250
13.869000 0.4240 0.4240 0.4220 0.4220 0.4220
13.903283 0.4220 0.4240 0.4250 0.4360 0.4530
13.938000 0.4680 0.4830 0.4990 0.5120 0.5280
13.972283 0.5410 0.5550 0.5700 0.5840 0.5990
14.006000 0.6160 0.6320 0.6490 0.6500 0.6540
14.040283 0.6590 0.6660 0.6740 0.6810 0.6860
14.075000 0.6880 0.6880 0.6930 0.6930 0.6960
14.109283 0.6960 0.6960 0.6960 0.6950 0.6950
14.143000 0.6950 0.6930 0.6910 0.6890 0.6860
14.177283 0.6860 0.6840 0.6830 0.6810 0.6810
14.212000 0.6810 0.6810 0.6830 0.6840 0.6890
14.246283 0.6950 0.6980 0.7030 0.7060 0.7080
14.280000 0.7100 0.7130 0.7170 0.7220 0.7250
14.314283 0.7300 0.7370 0.7420 0.7490 0.7540
14.349000 0.7610 0.7660 0.7710 0.7760 0.7780
14.383283 0.7850 0.7930 0.8000 0.8040 0.8050
14.417000 0.8090 0.8090 0.8120 0.8160 0.8190
14.451283 0.8240 0.8330 0.8440 0.8510 0.8560
14.486000 0.8580 0.8600 0.8620 0.8650 0.8720
14.520283 0.8790 0.8820 0.8850 0.8900 0.8920
14.555000 0.8940 0.8960 0.8960 0.9010 0.9010
14.589283 0.9020 0.9020 0.9040 0.9040 0.9060
14.623000 0.9060 0.9080 0.9080 0.9110 0.9130
14.657283 0.9140 0.9140 0.9160 0.9180 0.9190
14.692000 0.9190 0.9210 0.9230 0.9250 0.9250
14.726283 0.9260 0.9280 0.9280 0.9280 0.9300
14.760000 0.9300 0.9300 0.9310 0.9310 0.9310
14.794283 0.9330 0.9330 0.9330 0.9350 0.9350
14.829000 0.9360 0.9360 0.9380 0.9380 0.9380
14.863283 0.9380 0.9380 0.9400 0.9400 0.9400
14.897000 0.9400 0.9420 0.9420 0.9420 0.9420
14.931283 0.9420 0.9400 0.9400 0.9400 0.9400
14.966000 0.9400 0.9380 0.9380 0.9380 0.9380
15.000283 0.9360 0.9350 0.9350 0.9350 0.9330
15.034000 0.9330 0.9330 0.9330 0.9310 0.9310
15.068283 0.9310 0.9310 0.9310 0.9300 0.9300
15.103000 0.9280 0.9280 0.9280 0.9260 0.9260
15.137283 0.9260 0.9260 0.9250 0.9250 0.9250
15.171000 0.9250 0.9230 0.9230 0.9230 0.9230
15.205283 0.9210 0.9210 0.9210 0.9210 0.9190
15.240000 0.9190 0.9190 0.9180 0.9180 0.9180
15.274283 0.9180 0.9160 0.9160 0.9160 0.9140
15.308000 0.9140 0.9140 0.9130 0.9130 0.9130
15.342283 0.9110 0.9110 0.9110 0.9090 0.9090
15.377000 0.9090 0.9080 0.9080 0.9060 0.9060
15.411283 0.9060 0.9040 0.9040 0.9020 0.9020
15.445000 0.9010 0.9010 0.9010 0.8990 0.8990
15.479283 0.8970 0.8970 0.8960 0.8960 0.8960
15.514000 0.8940 0.8940 0.8920 0.8920 0.8900
15.548283 0.8900 0.8890 0.8890 0.8870 0.8870
15.583000 0.8850 0.8850 0.8840 0.8840
##END=
