##TITLE=Benzimidazole, 5-amino-1-ethyl-2-methyl-, dihydrochloride
##JCAMP-DX=4.24
$$ By DXEDIT 1.05 (RS McDonald)
##DATA TYPE=INFRARED SPECTRUM
##CLASS=COBLENTZ III
##ORIGIN=DOW CHEMICAL COMPANY
##OWNER=COPYRIGHT (C) 1988 by COBLENTZ SOCIETY INC.
Collection (C) 2018 copyright by the U.S. Secretary of Commerce
on behalf of the United States of America. All rights reserved.
##DATE=1966/04/20
##MOLFORM=C10 H15 Cl2 N3
##SOURCE REFERENCE=COBLENTZ NO. 08884
##$NIST ID=B6008884
##$NIST SOURCE=COBLENTZ
##$NIST IMAGE=cob8884
##SPECTROMETER/DATA SYSTEM=BECKMAN IR-9 (GRATING)
##INSTRUMENT PARAMETERS=ORDER CHANGES: 670, 1200, 2000 CM^-^1
##STATE=SOLID (SPLIT MULL), FLUOROLUBE FOR 3800-1330 CM^-^1, NUJOL FOR 1330-400 CM^-^1
$$ STRUCTURE NOT VERIFIED, CLASS II TECHNICAL QUALITY
##SAMPLING PROCEDURE=TRANSMISSION
##RESOLUTION=2
##DATA PROCESSING=DIGITIZED BY COBLENTZ SOCIETY (BATCH I) FROM HARD COPY
##XUNITS=1/CM
##YUNITS=TRANSMITTANCE
##XFACTOR=1
##YFACTOR=1
##DELTAX=1
##FIRSTX=3800
##LASTX=399
##FIRSTY=0.5479
##MAXX=3800
##MINX=399
##MAXY=0.878
##MINY=0.1456
##NPOINTS=3402
##XYDATA=(X++(Y..Y))
3800.000000 0.5479 0.5480 0.5482 0.5485 0.5489
3795.000000 0.5493 0.5497 0.5500 0.5504 0.5508
3790.000000 0.5512 0.5515 0.5519 0.5523 0.5527
3785.000000 0.5530 0.5534 0.5537 0.5541 0.5545
3780.000000 0.5549 0.5552 0.5556 0.5560 0.5564
3775.000000 0.5568 0.5572 0.5576 0.5580 0.5584
3770.000000 0.5588 0.5592 0.5596 0.5600 0.5604
3765.000000 0.5607 0.5610 0.5614 0.5618 0.5621
3760.000000 0.5625 0.5628 0.5632 0.5635 0.5639
3755.000000 0.5642 0.5646 0.5649 0.5652 0.5655
3750.000000 0.5658 0.5660 0.5664 0.5667 0.5670
3745.000000 0.5673 0.5677 0.5680 0.5683 0.5686
3740.000000 0.5689 0.5692 0.5695 0.5698 0.5766
3735.000000 0.5704 0.5708 0.5710 0.5714 0.5717
3730.000000 0.5720 0.5723 0.5726 0.5729 0.5733
3725.000000 0.5736 0.5739 0.5742 0.5745 0.5748
3720.000000 0.5751 0.5754 0.5758 0.5760 0.5764
3715.000000 0.5767 0.5770 0.5773 0.5776 0.5779
3710.000000 0.5782 0.5785 0.5788 0.5791 0.5794
3705.000000 0.5797 0.5800 0.5803 0.5806 0.5809
3700.000000 0.5812 0.5815 0.5818 0.5821 0.5824
3695.000000 0.5827 0.5830 0.5833 0.5836 0.5839
3690.000000 0.5842 0.5845 0.5849 0.5852 0.5856
3685.000000 0.5859 0.5862 0.5866 0.5870 0.5873
3680.000000 0.5877 0.5880 0.5884 0.5888 0.5892
3675.000000 0.5895 0.5899 0.5902 0.5906 0.5909
3670.000000 0.5912 0.5916 0.5920 0.5923 0.5927
3665.000000 0.5930 0.5933 0.5936 0.5939 0.5942
3660.000000 0.5946 0.5949 0.5952 0.5955 0.5958
3655.000000 0.5960 0.5964 0.5967 0.5970 0.5973
3650.000000 0.5977 0.5980 0.5983 0.5986 0.5989
3645.000000 0.5991 0.5994 0.5997 0.6000 0.6002
3640.000000 0.6005 0.6008 0.6010 0.6012 0.6016
3635.000000 0.6019 0.6023 0.6026 0.6029 0.6032
3630.000000 0.6035 0.6038 0.6041 0.6044 0.6048
3625.000000 0.6051 0.6054 0.6057 0.6060 0.6062
3620.000000 0.6066 0.6069 0.6072 0.6075 0.6078
3615.000000 0.6081 0.6084 0.6086 0.6088 0.6089
3610.000000 0.6091 0.6093 0.6095 0.6095 0.6096
3605.000000 0.6096 0.6096 0.6096 0.6096 0.6096
3600.000000 0.6096 0.6095 0.6095 0.6095 0.6095
3595.000000 0.6096 0.6098 0.6099 0.6101 0.6104
3590.000000 0.6107 0.6110 0.6114 0.6117 0.6121
3585.000000 0.6124 0.6128 0.6131 0.6135 0.6138
3580.000000 0.6142 0.6145 0.6149 0.6152 0.6156
3575.000000 0.6159 0.6162 0.6162 0.6165 0.6166
3570.000000 0.6168 0.6169 0.6171 0.6173 0.6175
3565.000000 0.6176 0.6178 0.6179 0.6181 0.6182
3560.000000 0.6184 0.6186 0.6188 0.6189 0.6191
3555.000000 0.6192 0.6194 0.6196 0.6198 0.6199
3550.000000 0.6201 0.6202 0.6204 0.6204 0.6205
3545.000000 0.6206 0.6207 0.6208 0.6209 0.6210
3540.000000 0.6210 0.6212 0.6212 0.6214 0.6215
3535.000000 0.6216 0.6217 0.6218 0.6219 0.6220
3530.000000 0.6221 0.6222 0.6223 0.6223 0.6224
3525.000000 0.6225 0.6226 0.6227 0.6228 0.6229
3520.000000 0.6230 0.6230 0.6230 0.6230 0.6230
3515.000000 0.6230 0.6230 0.6230 0.6230 0.6230
3510.000000 0.6230 0.6230 0.6230 0.6229 0.6229
3505.000000 0.6229 0.6229 0.6229 0.6229 0.6229
3500.000000 0.6229 0.6229 0.6229 0.6228 0.6227
3495.000000 0.6226 0.6226 0.6225 0.6225 0.6224
3490.000000 0.6224 0.6223 0.6223 0.6222 0.6221
3485.000000 0.6220 0.6220 0.6218 0.6217 0.6215
3480.000000 0.6214 0.6212 0.6212 0.6210 0.6209
3475.000000 0.6208 0.6208 0.6207 0.6206 0.6205
3470.000000 0.6205 0.6204 0.6203 0.6202 0.6202
3465.000000 0.6202 0.6203 0.6204 0.6206 0.6207
3460.000000 0.6209 0.6210 0.6212 0.6212 0.6212
3455.000000 0.6212 0.6210 0.6209 0.6208 0.6206
3450.000000 0.6204 0.6202 0.6201 0.6199 0.6197
3445.000000 0.6196 0.6195 0.6194 0.6193 0.6191
3440.000000 0.6190 0.6189 0.6188 0.6187 0.6187
3435.000000 0.6187 0.6188 0.6192 0.6197 0.6201
3430.000000 0.6205 0.6209 0.6214 0.6218 0.6223
3425.000000 0.6230 0.6238 0.6245 0.6253 0.6260
3420.000000 0.6268 0.6275 0.6283 0.6290 0.6297
3415.000000 0.6304 0.6310 0.6315 0.6320 0.6325
3410.000000 0.6330 0.6335 0.6340 0.6344 0.6349
3405.000000 0.6354 0.6359 0.6364 0.6369 0.6373
3400.000000 0.6377 0.6377 0.6378 0.6378 0.6379
3395.000000 0.6379 0.6380 0.6380 0.6380 0.6379
3390.000000 0.6379 0.6379 0.6379 0.6378 0.6378
3385.000000 0.6377 0.6377 0.6376 0.6376 0.6377
3380.000000 0.6378 0.6378 0.6379 0.6380 0.6381
3375.000000 0.6381 0.6382 0.6385 0.6388 0.6391
3370.000000 0.6395 0.6398 0.6401 0.6406 0.6410
3365.000000 0.6412 0.6417 0.6419 0.6424 0.6428
3360.000000 0.6432 0.6436 0.6441 0.6446 0.6451
3355.000000 0.6456 0.6461 0.6465 0.6471 0.6475
3350.000000 0.6480 0.6485 0.6490 0.6495 0.6500
3345.000000 0.6505 0.6510 0.6515 0.6519 0.6525
3340.000000 0.6530 0.6535 0.6540 0.6545 0.6550
3335.000000 0.6555 0.6561 0.6567 0.6572 0.6578
3330.000000 0.6584 0.6589 0.6595 0.6601 0.6607
3325.000000 0.6611 0.6618 0.6622 0.6628 0.6635
3320.000000 0.6641 0.6646 0.6651 0.6657 0.6662
3315.000000 0.6668 0.6675 0.6680 0.6686 0.6691
3310.000000 0.6697 0.6703 0.6708 0.6714 0.6719
3305.000000 0.6725 0.6732 0.6737 0.6743 0.6749
3300.000000 0.6755 0.6760 0.6765 0.6771 0.6778
3295.000000 0.6783 0.6789 0.6795 0.6801 0.6807
3290.000000 0.6812 0.6818 0.6824 0.6830 0.6836
3285.000000 0.6842 0.6848 0.6853 0.6858 0.6865
3280.000000 0.6871 0.6875 0.6882 0.6888 0.6894
3275.000000 0.6899 0.6904 0.6908 0.6912 0.6918
3270.000000 0.6922 0.6928 0.6933 0.6938 0.6943
3265.000000 0.6948 0.6954 0.6958 0.6964 0.6968
3260.000000 0.6975 0.6980 0.6986 0.6991 0.6997
3255.000000 0.7001 0.7008 0.7012 0.7018 0.7024
3250.000000 0.7030 0.7035 0.7040 0.7044 0.7049
3245.000000 0.7053 0.7057 0.7061 0.7065 0.7069
3240.000000 0.7074 0.7078 0.7082 0.7084 0.7086
3235.000000 0.7088 0.7091 0.7093 0.7095 0.7097
3230.000000 0.7100 0.7101 0.7103 0.7103 0.7104
3225.000000 0.7105 0.7106 0.7106 0.7107 0.7107
3220.000000 0.7107 0.7107 0.7106 0.7104 0.7103
3215.000000 0.7101 0.7101 0.7100 0.7099 0.7098
3210.000000 0.7097 0.7096 0.7095 0.7094 0.7093
3205.000000 0.7093 0.7093 0.7093 0.7093 0.7093
3200.000000 0.7093 0.7093 0.7094 0.7095 0.7096
3195.000000 0.7097 0.7098 0.7099 0.7100 0.7101
3190.000000 0.7103 0.7104 0.7105 0.7106 0.7108
3185.000000 0.7108 0.7111 0.7111 0.7114 0.7115
3180.000000 0.7117 0.7119 0.7122 0.7125 0.7130
3175.000000 0.7133 0.7136 0.7139 0.7143 0.7146
3170.000000 0.7149 0.7151 0.7153 0.7153 0.7154
3165.000000 0.7154 0.7155 0.7155 0.7154 0.7154
3160.000000 0.7153 0.7151 0.7162 0.7147 0.7145
3155.000000 0.7143 0.7141 0.7135 0.7128 0.7122
3150.000000 0.7117 0.7110 0.7104 0.7097 0.7090
3145.000000 0.7080 0.7069 0.7060 0.7051 0.7041
3140.000000 0.7032 0.7021 0.7011 0.7001 0.6992
3135.000000 0.6982 0.6971 0.6961 0.6951 0.6940
3130.000000 0.6930 0.6915 0.6901 0.6887 0.6872
3125.000000 0.6862 0.6853 0.6843 0.6834 0.6824
3120.000000 0.6815 0.6806 0.6797 0.6788 0.6778
3115.000000 0.6769 0.6761 0.6754 0.6747 0.6744
3110.000000 0.6741 0.6740 0.6739 0.6739 0.6740
3105.000000 0.6745 0.6750 0.6755 0.6760 0.6762
3100.000000 0.6765 0.6768 0.6771 0.6771 0.6771
3095.000000 0.6768 0.6768 0.6761 0.6757 0.6749
3090.000000 0.6741 0.6733 0.6725 0.6711 0.6699
3085.000000 0.6686 0.6672 0.6660 0.6647 0.6624
3080.000000 0.6601 0.6576 0.6553 0.6507 0.6461
3075.000000 0.6390 0.6318 0.6245 0.6173 0.6138
3070.000000 0.6103 0.6094 0.6086 0.6080 0.6075
3065.000000 0.6071 0.6067 0.6065 0.6062 0.6025
3060.000000 0.5987 0.5928 0.5869 0.5803 0.5737
3055.000000 0.5614 0.5491 0.5417 0.5343 0.5268
3050.000000 0.5193 0.5183 0.5173 0.5169 0.5132
3045.000000 0.5162 0.5164 0.5165 0.5169 0.5207
3040.000000 0.5246 0.5291 0.5336 0.5383 0.5430
3035.000000 0.5473 0.5517 0.5565 0.5614 0.5676
3030.000000 0.5739 0.5778 0.5817 0.5856 0.5896
3025.000000 0.5912 0.5929 0.5937 0.5945 0.5949
3020.000000 0.5997 0.5955 0.5957 0.5957 0.5958
3015.000000 0.5954 0.5950 0.5946 0.5942 0.5932
3010.000000 0.5923 0.5912 0.5902 0.5881 0.5860
3005.000000 0.5829 0.5798 0.5762 0.5729 0.5700
3000.000000 0.5672 0.5656 0.5641 0.5628 0.5616
2995.000000 0.5604 0.5593 0.5581 0.5569 0.5552
2990.000000 0.5535 0.5512 0.5491 0.5353 0.5215
2985.000000 0.5181 0.5148 0.5130 0.5112 0.5097
2980.000000 0.5082 0.5071 0.5060 0.5056 0.5052
2975.000000 0.5047 0.5042 0.5037 0.5033 0.5031
2970.000000 0.5030 0.5029 0.5029 0.5028 0.5028
2965.000000 0.5025 0.5023 0.5020 0.5018 0.5015
2960.000000 0.5012 0.5009 0.5007 0.5003 0.4999
2955.000000 0.4994 0.4989 0.4981 0.4973 0.4960
2950.000000 0.4947 0.4912 0.4880 0.4827 0.4774
2945.000000 0.4749 0.4725 0.4707 0.4689 0.4675
2940.000000 0.4662 0.4654 0.4646 0.4638 0.4630
2935.000000 0.4624 0.4618 0.4610 0.4605 0.4601
2930.000000 0.4598 0.4597 0.4597 0.4596 0.4596
2925.000000 0.4594 0.4592 0.4583 0.4574 0.4560
2920.000000 0.4547 0.4533 0.4520 0.4505 0.4490
2915.000000 0.4472 0.4455 0.4437 0.4420 0.4402
2910.000000 0.4385 0.4367 0.4349 0.4329 0.4309
2905.000000 0.4289 0.4269 0.4249 0.4229 0.4206
2900.000000 0.4184 0.4160 0.4139 0.4116 0.4093
2895.000000 0.4070 0.4047 0.4023 0.4000 0.3976
2890.000000 0.3952 0.3928 0.3904 0.3879 0.3855
2885.000000 0.3830 0.3805 0.3779 0.3754 0.3729
2880.000000 0.3704 0.3672 0.3641 0.3609 0.3579
2875.000000 0.3537 0.3496 0.3450 0.3404 0.3366
2870.000000 0.3328 0.3293 0.3259 0.3224 0.3190
2865.000000 0.3163 0.3137 0.3111 0.3085 0.3060
2860.000000 0.3034 0.3011 0.2987 0.2968 0.2949
2855.000000 0.2930 0.2911 0.2891 0.2872 0.2852
2850.000000 0.2833 0.2813 0.2794 0.2774 0.2754
2845.000000 0.2734 0.2715 0.2695 0.2675 0.2655
2840.000000 0.2635 0.2618 0.2601 0.2584 0.2568
2835.000000 0.2551 0.2534 0.2517 0.2501 0.2484
2830.000000 0.2467 0.2450 0.2434 0.2416 0.2399
2825.000000 0.2381 0.2363 0.2345 0.2327 0.2309
2820.000000 0.2291 0.2274 0.2257 0.2243 0.2229
2815.000000 0.2214 0.2200 0.2185 0.2172 0.2157
2810.000000 0.2142 0.2127 0.2113 0.2098 0.2083
2805.000000 0.2069 0.2055 0.2041 0.2028 0.2017
2800.000000 0.2006 0.1998 0.1990 0.1982 0.1974
2795.000000 0.1965 0.1956 0.1946 0.1939 0.1932
2790.000000 0.1926 0.1920 0.1914 0.1910 0.1907
2785.000000 0.1906 0.1906 0.1906 0.1908 0.1910
2780.000000 0.1878 0.1913 0.1915 0.1916 0.1918
2775.000000 0.1920 0.1923 0.1926 0.1929 0.1931
2770.000000 0.1934 0.1936 0.1940 0.1942 0.1944
2765.000000 0.1948 0.1951 0.1954 0.1957 0.1960
2760.000000 0.1964 0.1968 0.1972 0.1975 0.1979
2755.000000 0.1982 0.1985 0.1990 0.1994 0.1998
2750.000000 0.2003 0.2008 0.2013 0.2018 0.2023
2745.000000 0.2028 0.2033 0.2037 0.2043 0.2049
2740.000000 0.2056 0.2064 0.2072 0.2079 0.2087
2735.000000 0.2095 0.2103 0.2112 0.2121 0.2129
2730.000000 0.2138 0.2147 0.2156 0.2165 0.2174
2725.000000 0.2183 0.2192 0.2202 0.2212 0.2221
2720.000000 0.2231 0.2241 0.2251 0.2261 0.2272
2715.000000 0.2282 0.2292 0.2302 0.2313 0.2323
2710.000000 0.2334 0.2345 0.2357 0.2368 0.2380
2705.000000 0.2391 0.2403 0.2415 0.2428 0.2439
2700.000000 0.2451 0.2461 0.2472 0.2479 0.2487
2695.000000 0.2493 0.2499 0.2503 0.2507 0.2508
2690.000000 0.2526 0.2505 0.2502 0.2498 0.2494
2685.000000 0.2487 0.2481 0.2475 0.2467 0.2467
2680.000000 0.2467 0.2465 0.2464 0.2468 0.2473
2675.000000 0.2477 0.2482 0.2487 0.2492 0.2496
2670.000000 0.2501 0.2505 0.2510 0.2512 0.2521
2665.000000 0.2505 0.2496 0.2487 0.2478 0.2467
2660.000000 0.2456 0.2445 0.2434 0.2427 0.2420
2655.000000 0.2416 0.2412 0.2409 0.2407 0.2404
2650.000000 0.2402 0.2396 0.2390 0.2374 0.2359
2645.000000 0.2331 0.2303 0.2280 0.2257 0.2237
2640.000000 0.2218 0.2196 0.2175 0.2151 0.2127
2635.000000 0.2101 0.2075 0.2037 0.2002 0.1970
2630.000000 0.1939 0.1894 0.1849 0.1810 0.1771
2625.000000 0.1751 0.1732 0.1731 0.1729 0.1729
2620.000000 0.1728 0.1727 0.1726 0.1723 0.1721
2615.000000 0.1716 0.1712 0.1707 0.1703 0.1694
2610.000000 0.1684 0.1671 0.1658 0.1644 0.1633
2605.000000 0.1620 0.1608 0.1596 0.1586 0.1575
2600.000000 0.1564 0.1553 0.1542 0.1531 0.1520
2595.000000 0.1509 0.1498 0.1490 0.1483 0.1476
2590.000000 0.1469 0.1464 0.1460 0.1458 0.1457
2585.000000 0.1456 0.1456 0.1458 0.1460 0.1461
2580.000000 0.1463 0.1464 0.1466 0.1468 0.1470
2575.000000 0.1472 0.1475 0.1479 0.1484 0.1488
2570.000000 0.1492 0.1498 0.1503 0.1507 0.1512
2565.000000 0.1516 0.1521 0.1526 0.1532 0.1537
2560.000000 0.1542 0.1546 0.1552 0.1558 0.1565
2555.000000 0.1574 0.1584 0.1592 0.1602 0.1611
2550.000000 0.1620 0.1629 0.1639 0.1652 0.1665
2545.000000 0.1679 0.1693 0.1707 0.1721 0.1734
2540.000000 0.1749 0.1764 0.1779 0.1794 0.1811
2535.000000 0.1826 0.1842 0.1858 0.1874 0.1890
2530.000000 0.1906 0.1925 0.1944 0.1965 0.1986
2525.000000 0.2008 0.2029 0.2051 0.2072 0.2093
2520.000000 0.2115 0.2134 0.2154 0.2172 0.2191
2515.000000 0.2210 0.2229 0.2247 0.2266 0.2284
2510.000000 0.2303 0.2322 0.2341 0.2359 0.2377
2505.000000 0.2395 0.2414 0.2432 0.2450 0.2468
2500.000000 0.2487 0.2505 0.2523 0.2543 0.2563
2495.000000 0.2584 0.2605 0.2626 0.2647 0.2667
2490.000000 0.2688 0.2709 0.2730 0.2751 0.2772
2485.000000 0.2792 0.2813 0.2833 0.2854 0.2875
2480.000000 0.2896 0.2916 0.2937 0.2957 0.2978
2475.000000 0.2998 0.3019 0.3037 0.3055 0.3069
2470.000000 0.3084 0.3098 0.3113 0.3127 0.3142
2465.000000 0.3156 0.3171 0.3184 0.3200 0.3214
2460.000000 0.3229 0.3244 0.3259 0.3278 0.3297
2455.000000 0.3316 0.3337 0.3357 0.3377 0.3397
2450.000000 0.3416 0.3436 0.3456 0.3479 0.3502
2445.000000 0.3524 0.3547 0.3568 0.3592 0.3614
2440.000000 0.3637 0.3657 0.3678 0.3695 0.3712
2435.000000 0.3728 0.3745 0.3762 0.3779 0.3796
2430.000000 0.3812 0.3829 0.3846 0.3862 0.3880
2425.000000 0.3897 0.3914 0.3929 0.3945 0.3960
2420.000000 0.3977 0.3993 0.4009 0.4025 0.4041
2415.000000 0.4057 0.4073 0.4090 0.4107 0.4124
2410.000000 0.4141 0.4158 0.4175 0.4192 0.4209
2405.000000 0.4226 0.4243 0.4257 0.4272 0.4286
2400.000000 0.4301 0.4315 0.4330 0.4344 0.4359
2395.000000 0.4373 0.4388 0.4403 0.4418 0.4434
2390.000000 0.4450 0.4465 0.4481 0.4497 0.4512
2385.000000 0.4562 0.4614 0.4686 0.4758 0.4812
2380.000000 0.4867 0.4906 0.4946 0.4978 0.5010
2375.000000 0.5040 0.5071 0.5092 0.5114 0.5126
2370.000000 0.5139 0.5144 0.5149 0.5153 0.5158
2365.000000 0.5156 0.5155 0.5151 0.5148 0.5145
2360.000000 0.5143 0.5141 0.5140 0.5138 0.5136
2355.000000 0.5136 0.5137 0.5146 0.5155 0.5164
2350.000000 0.5174 0.5175 0.5175 0.5175 0.5175
2345.000000 0.5174 0.5173 0.5171 0.5170 0.5168
2340.000000 0.5166 0.5166 0.5167 0.5168 0.5170
2335.000000 0.5171 0.5172 0.5173 0.5175 0.5177
2330.000000 0.5180 0.5183 0.5187 0.5190 0.5194
2325.000000 0.5197 0.5200 0.5208 0.5217 0.5226
2320.000000 0.5235 0.5243 0.5252 0.5260 0.5270
2315.000000 0.5278 0.5287 0.5296 0.5305 0.5314
2310.000000 0.5323 0.5333 0.5344 0.5354 0.5364
2305.000000 0.5374 0.5384 0.5394 0.5404 0.5414
2300.000000 0.5424 0.5434 0.5444 0.5454 0.5464
2295.000000 0.5474 0.5484 0.5494 0.5505 0.5517
2290.000000 0.5529 0.5541 0.5554 0.5566 0.5579
2285.000000 0.5591 0.5604 0.5617 0.5630 0.5642
2280.000000 0.5654 0.5665 0.5677 0.5688 0.5700
2275.000000 0.5712 0.5724 0.5735 0.5747 0.5758
2270.000000 0.5770 0.5781 0.5793 0.5804 0.5816
2265.000000 0.5827 0.5839 0.5850 0.5862 0.5873
2260.000000 0.5885 0.5896 0.5908 0.5919 0.5931
2255.000000 0.5942 0.5954 0.5965 0.5976 0.5987
2250.000000 0.5999 0.6010 0.6023 0.6037 0.6052
2245.000000 0.6066 0.6081 0.6095 0.6110 0.6125
2240.000000 0.6140 0.6154 0.6169 0.6184 0.6200
2235.000000 0.6215 0.6231 0.6247 0.6262 0.6278
2230.000000 0.6294 0.6310 0.6327 0.6344 0.6360
2225.000000 0.6375 0.6389 0.6400 0.6411 0.6421
2220.000000 0.6433 0.6442 0.6451 0.6458 0.6465
2215.000000 0.6468 0.6471 0.6471 0.6471 0.6472
2210.000000 0.6474 0.6475 0.6475 0.6476 0.6478
2205.000000 0.6481 0.6483 0.6485 0.6487 0.6489
2200.000000 0.6491 0.6493 0.6496 0.6498 0.6501
2195.000000 0.6504 0.6507 0.6510 0.6512 0.6521
2190.000000 0.6532 0.6541 0.6550 0.6560 0.6569
2185.000000 0.6583 0.6596 0.6608 0.6622 0.6636
2180.000000 0.6649 0.6661 0.6675 0.6688 0.6701
2175.000000 0.6712 0.6725 0.6738 0.6751 0.6762
2170.000000 0.6775 0.6788 0.6801 0.6812 0.6825
2165.000000 0.6838 0.6850 0.6861 0.6875 0.6889
2160.000000 0.6904 0.6918 0.6932 0.6945 0.6958
2155.000000 0.6968 0.6976 0.6976 0.6976 0.6975
2150.000000 0.6975 0.6974 0.6972 0.6978 0.6983
2145.000000 0.6989 0.6996 0.7001 0.7008 0.7015
2140.000000 0.7021 0.7028 0.7035 0.7043 0.7051
2135.000000 0.7058 0.7068 0.7075 0.7085 0.7093
2130.000000 0.7101 0.7108 0.7118 0.7125 0.7135
2125.000000 0.7143 0.7151 0.7158 0.7168 0.7175
2120.000000 0.7185 0.7193 0.7201 0.7210 0.7218
2115.000000 0.7226 0.7235 0.7244 0.7253 0.7261
2110.000000 0.7269 0.7278 0.7287 0.7295 0.7304
2105.000000 0.7311 0.7321 0.7330 0.7339 0.7346
2100.000000 0.7353 0.7358 0.7365 0.7372 0.7380
2095.000000 0.7387 0.7394 0.7401 0.7408 0.7414
2090.000000 0.7419 0.7425 0.7431 0.7436 0.7442
2085.000000 0.7445 0.7448 0.7450 0.7453 0.7456
2080.000000 0.7458 0.7461 0.7464 0.7467 0.7469
2075.000000 0.7471 0.7475 0.7476 0.7480 0.7482
2070.000000 0.7484 0.7486 0.7497 0.7491 0.7493
2065.000000 0.7494 0.7494 0.7495 0.7495 0.7494
2060.000000 0.7494 0.7493 0.7493 0.7491 0.7490
2055.000000 0.7488 0.7486 0.7484 0.7482 0.7478
2050.000000 0.7475 0.7471 0.7468 0.7465 0.7461
2045.000000 0.7457 0.7453 0.7447 0.7442 0.7436
2040.000000 0.7430 0.7424 0.7418 0.7414 0.7408
2035.000000 0.7404 0.7399 0.7394 0.7389 0.7384
2030.000000 0.7378 0.7374 0.7369 0.7365 0.7360
2025.000000 0.7355 0.7351 0.7346 0.7341 0.7336
2020.000000 0.7331 0.7325 0.7318 0.7312 0.7308
2015.000000 0.7301 0.7294 0.7286 0.7278 0.7269
2010.000000 0.7262 0.7254 0.7246 0.7236 0.7226
2005.000000 0.7217 0.7208 0.7199 0.7191 0.7180
2000.000000 0.7169 0.7184 0.7176 0.7191 0.7205
1995.000000 0.7221 0.7240 0.7258 0.7271 0.7281
1990.000000 0.7288 0.7295 0.7301 0.7306 0.7310
1985.000000 0.7315 0.7318 0.7322 0.7325 0.7332
1980.000000 0.7341 0.7350 0.7358 0.7368 0.7376
1975.000000 0.7387 0.7397 0.7408 0.7418 0.7428
1970.000000 0.7438 0.7448 0.7458 0.7467 0.7476
1965.000000 0.7487 0.7497 0.7506 0.7515 0.7525
1960.000000 0.7536 0.7545 0.7554 0.7561 0.7571
1955.000000 0.7580 0.7588 0.7597 0.7605 0.7612
1950.000000 0.7619 0.7628 0.7636 0.7643 0.7651
1945.000000 0.7658 0.7665 0.7674 0.7682 0.7689
1940.000000 0.7696 0.7703 0.7708 0.7715 0.7722
1935.000000 0.7726 0.7726 0.7726 0.7722 0.7718
1930.000000 0.7715 0.7711 0.7708 0.7704 0.7700
1925.000000 0.7697 0.7693 0.7692 0.7691 0.7693
1920.000000 0.7695 0.7696 0.7698 0.7704 0.7714
1915.000000 0.7724 0.7734 0.7745 0.7757 0.7768
1910.000000 0.7781 0.7793 0.7806 0.7818 0.7830
1905.000000 0.7842 0.7855 0.7865 0.7875 0.7884
1900.000000 0.7893 0.7901 0.7911 0.7919 0.7928
1895.000000 0.7938 0.7947 0.7955 0.7961 0.7968
1890.000000 0.7975 0.7982 0.7988 0.7995 0.8001
1885.000000 0.8008 0.8015 0.8021 0.8028 0.8035
1880.000000 0.8041 0.8048 0.8055 0.8061 0.8068
1875.000000 0.8075 0.8081 0.8088 0.8094 0.8101
1870.000000 0.8108 0.8115 0.8121 0.8128 0.8136
1865.000000 0.8143 0.8150 0.8157 0.8164 0.8171
1860.000000 0.8178 0.8185 0.8192 0.8199 0.8206
1855.000000 0.8213 0.8220 0.8227 0.8235 0.8243
1850.000000 0.8250 0.8258 0.8266 0.8274 0.8281
1845.000000 0.8289 0.8297 0.8304 0.8312 0.8320
1840.000000 0.8328 0.8335 0.8341 0.8346 0.8352
1835.000000 0.8358 0.8364 0.8370 0.8375 0.8381
1830.000000 0.8387 0.8393 0.8398 0.8401 0.8404
1825.000000 0.8407 0.8410 0.8413 0.8416 0.8418
1820.000000 0.8421 0.8425 0.8428 0.8431 0.8434
1815.000000 0.8437 0.8440 0.8442 0.8445 0.8448
1810.000000 0.8450 0.8453 0.8456 0.8458 0.8461
1805.000000 0.8464 0.8466 0.8468 0.8471 0.8473
1800.000000 0.8475 0.8477 0.8478 0.8481 0.8483
1795.000000 0.8485 0.8487 0.8489 0.8491 0.8493
1790.000000 0.8496 0.8499 0.8501 0.8504 0.8506
1785.000000 0.8509 0.8512 0.8514 0.8517 0.8518
1780.000000 0.8521 0.8525 0.8527 0.8531 0.8534
1775.000000 0.8538 0.8542 0.8545 0.8549 0.8553
1770.000000 0.8556 0.8560 0.8563 0.8567 0.8571
1765.000000 0.8574 0.8575 0.8578 0.8581 0.8583
1760.000000 0.8585 0.8587 0.8589 0.8592 0.8594
1755.000000 0.8595 0.8595 0.8595 0.8596 0.8596
1750.000000 0.8596 0.8597 0.8597 0.8597 0.8597
1745.000000 0.8597 0.8597 0.8597 0.8596 0.8596
1740.000000 0.8595 0.8592 0.8589 0.8585 0.8582
1735.000000 0.8577 0.8571 0.8564 0.8558 0.8552
1730.000000 0.8541 0.8530 0.8518 0.8508 0.8496
1725.000000 0.8482 0.8467 0.8452 0.8437 0.8421
1720.000000 0.8408 0.8394 0.8383 0.8375 0.8368
1715.000000 0.8365 0.8361 0.8361 0.8361 0.8350
1710.000000 0.8347 0.8343 0.8340 0.8337 0.8337
1705.000000 0.8342 0.8347 0.8352 0.8363 0.8377
1700.000000 0.8390 0.8404 0.8417 0.8428 0.8439
1695.000000 0.8445 0.8451 0.8451 0.8452 0.8450
1690.000000 0.8448 0.8445 0.8440 0.8434 0.8428
1685.000000 0.8421 0.8417 0.8413 0.8409 0.8405
1680.000000 0.8401 0.8398 0.8395 0.8391 0.8388
1675.000000 0.8387 0.8387 0.8388 0.8389 0.8390
1670.000000 0.8391 0.8391 0.8392 0.8393 0.8394
1665.000000 0.8395 0.8396 0.8397 0.8398 0.8400
1660.000000 0.8402 0.8409 0.8407 0.8402 0.8397
1655.000000 0.8392 0.8389 0.8378 0.8365 0.8350
1650.000000 0.8328 0.8292 0.8247 0.8180 0.8122
1645.000000 0.8067 0.8008 0.7892 0.7724 0.7538
1640.000000 0.7498 0.7433 0.7464 0.7482 0.7500
1635.000000 0.7530 0.7565 0.7605 0.7653 0.7701
1630.000000 0.7758 0.7818 0.7885 0.7967 0.8033
1625.000000 0.8090 0.8149 0.8209 0.8246 0.8284
1620.000000 0.8314 0.8340 0.8366 0.8382 0.8398
1615.000000 0.8405 0.8411 0.8417 0.8444 0.8398
1610.000000 0.8342 0.8287 0.8223 0.8160 0.8075
1605.000000 0.7971 0.7795 0.7637 0.7392 0.7253
1600.000000 0.7015 0.6856 0.6649 0.6660 0.6682
1595.000000 0.6708 0.6708 0.6707 0.6695 0.6675
1590.000000 0.6622 0.6653 0.6672 0.6708 0.6765
1585.000000 0.6847 0.6951 0.7012 0.7072 0.7183
1580.000000 0.7262 0.7300 0.7300 0.7300 0.7286
1575.000000 0.7267 0.7235 0.7151 0.7050 0.6992
1570.000000 0.6497 0.5679 0.5631 0.5657 0.5709
1565.000000 0.5895 0.6080 0.6265 0.6450 0.6636
1560.000000 0.6821 0.7006 0.7132 0.7239 0.7319
1555.000000 0.7400 0.7480 0.7551 0.7619 0.7689
1550.000000 0.7755 0.7818 0.7883 0.7945 0.8004
1545.000000 0.8041 0.8048 0.8061 0.8011 0.7971
1540.000000 0.7912 0.7849 0.7698 0.7538 0.6872
1535.000000 0.6872 0.6872 0.6926 0.7021 0.7115
1530.000000 0.7210 0.7236 0.7225 0.7201 0.7055
1525.000000 0.6750 0.6444 0.6139 0.5833 0.5528
1520.000000 0.5222 0.5137 0.5162 0.5249 0.5337
1515.000000 0.5425 0.5512 0.5601 0.5617 0.5614
1510.000000 0.5336 0.4999 0.4662 0.4325 0.3988
1505.000000 0.3910 0.3934 0.3958 0.4002 0.4077
1500.000000 0.4188 0.4453 0.4698 0.4943 0.5189
1495.000000 0.5434 0.5680 0.5925 0.6170 0.6415
1490.000000 0.6636 0.6780 0.6853 0.6901 0.6925
1485.000000 0.6943 0.6937 0.6940 0.6919 0.6876
1480.000000 0.6814 0.6735 0.6488 0.6231 0.6138
1475.000000 0.6137 0.6136 0.6152 0.6172 0.6187
1470.000000 0.6012 0.5700 0.5387 0.5074 0.4760
1465.000000 0.4527 0.4525 0.4562 0.4642 0.4825
1460.000000 0.5149 0.5474 0.5798 0.6123 0.6447
1455.000000 0.6771 0.6947 0.6976 0.6965 0.6958
1450.000000 0.6897 0.6778 0.6661 0.6543 0.6461
1445.000000 0.6439 0.6456 0.6480 0.6551 0.6683
1440.000000 0.6841 0.6956 0.6946 0.6961 0.6942
1435.000000 0.6905 0.6825 0.6604 0.6542 0.6486
1430.000000 0.6394 0.6285 0.5864 0.5707 0.5509
1425.000000 0.5312 0.5114 0.4917 0.4767 0.4725
1420.000000 0.4708 0.4687 0.4705 0.4732 0.4795
1415.000000 0.4902 0.5078 0.5277 0.5475 0.5674
1410.000000 0.5873 0.6072 0.6271 0.6469 0.6668
1405.000000 0.6868 0.6971 0.7051 0.7136 0.7238
1400.000000 0.7282 0.7298 0.7301 0.7334 0.7272
1395.000000 0.7236 0.7184 0.7101 0.6782 0.6608
1390.000000 0.6584 0.6546 0.6571 0.6590 0.6632
1385.000000 0.6706 0.6791 0.6875 0.6965 0.7158
1380.000000 0.7258 0.7341 0.7375 0.7398 0.7387
1375.000000 0.7360 0.7265 0.7150 0.7000 0.6665
1370.000000 0.6574 0.6636 0.6730 0.6825 0.6891
1365.000000 0.6886 0.6750 0.6625 0.6597 0.6597
1360.000000 0.6597 0.6600 0.6608 0.6622 0.6641
1355.000000 0.6657 0.6658 0.6658 0.6644 0.6600
1350.000000 0.6568 0.6546 0.6534 0.6538 0.6546
1345.000000 0.6575 0.6612 0.6645 0.6658 0.6669
1340.000000 0.6675 0.6665 0.6651 0.6634 0.6615
1335.000000 0.6588 0.6538 0.6044 0.5449 0.5228
1330.000000 0.5205 0.5209 0.5220 0.5302 0.5407
1325.000000 0.5547 0.5712 0.5853 0.5993 0.6133
1320.000000 0.6273 0.6412 0.6510 0.6555 0.6598
1315.000000 0.6640 0.6662 0.6683 0.6704 0.6724
1310.000000 0.6739 0.6751 0.6762 0.6771 0.6778
1305.000000 0.6780 0.6781 0.6781 0.6775 0.6761
1300.000000 0.6735 0.6703 0.6668 0.6622 0.6405
1295.000000 0.5848 0.5865 0.5851 0.5941 0.6069
1290.000000 0.6237 0.6216 0.6194 0.6142 0.6069
1285.000000 0.5998 0.5918 0.5784 0.5262 0.5225
1280.000000 0.5236 0.5262 0.5372 0.5486 0.5600
1275.000000 0.5715 0.5829 0.5943 0.6058 0.6172
1270.000000 0.6286 0.6401 0.6510 0.6601 0.6655
1265.000000 0.6704 0.6740 0.6776 0.6794 0.6803
1260.000000 0.6810 0.6810 0.6815 0.6806 0.6792
1255.000000 0.6758 0.6721 0.6653 0.6528 0.6012
1250.000000 0.5268 0.5272 0.5293 0.5420 0.5607
1245.000000 0.5795 0.5983 0.6171 0.6359 0.6546
1240.000000 0.6734 0.6837 0.6891 0.6931 0.6971
1235.000000 0.7005 0.7035 0.7064 0.7090 0.7115
1230.000000 0.7141 0.7161 0.7168 0.7178 0.7186
1225.000000 0.7194 0.7201 0.7208 0.7215 0.7224
1220.000000 0.7233 0.7241 0.7250 0.7258 0.7269
1215.000000 0.7283 0.7296 0.7308 0.7322 0.7338
1210.000000 0.7353 0.7368 0.7384 0.7397 0.7410
1205.000000 0.7421 0.7435 0.7445 0.7454 0.7462
1200.000000 0.7472 0.7480 0.7486 0.7492 0.7492
1195.000000 0.7491 0.7490 0.7485 0.7478 0.7465
1190.000000 0.7455 0.7439 0.7422 0.7406 0.7385
1185.000000 0.7361 0.7340 0.7308 0.7269 0.7221
1180.000000 0.7125 0.7007 0.6649 0.5944 0.5239
1175.000000 0.4534 0.4370 0.4355 0.4699 0.4979
1170.000000 0.5260 0.5541 0.5821 0.6102 0.6383
1165.000000 0.6445 0.6450 0.6464 0.6495 0.6519
1160.000000 0.6532 0.6539 0.6539 0.6538 0.6501
1155.000000 0.6469 0.6455 0.6455 0.6483 0.6595
1150.000000 0.6725 0.6901 0.7078 0.7182 0.7235
1145.000000 0.7278 0.7318 0.7353 0.7386 0.7415
1140.000000 0.7438 0.7455 0.7465 0.7475 0.7471
1135.000000 0.7467 0.7453 0.7439 0.7424 0.7407
1130.000000 0.7390 0.7365 0.7337 0.7307 0.7253
1125.000000 0.7186 0.7072 0.6918 0.6805 0.6162
1120.000000 0.5372 0.4581 0.4525 0.4500 0.4841
1115.000000 0.5442 0.6043 0.6571 0.6581 0.6586
1110.000000 0.6586 0.6587 0.6556 0.6514 0.6505
1105.000000 0.6518 0.6575 0.6644 0.6712 0.6750
1100.000000 0.6756 0.6765 0.6767 0.6760 0.6747
1095.000000 0.6722 0.6694 0.6449 0.6378 0.6377
1090.000000 0.6417 0.6601 0.6803 0.6904 0.6969
1085.000000 0.7006 0.7017 0.7026 0.7046 0.7068
1080.000000 0.7093 0.7118 0.7148 0.7178 0.7211
1075.000000 0.7243 0.7275 0.7311 0.7345 0.7378
1070.000000 0.7410 0.7441 0.7481 0.7481 0.7485
1065.000000 0.7487 0.7482 0.7457 0.7419 0.7383
1060.000000 0.7351 0.7325 0.7308 0.7294 0.7284
1055.000000 0.7275 0.7265 0.7255 0.7244 0.7234
1050.000000 0.7222 0.7211 0.7199 0.7187 0.7174
1045.000000 0.7157 0.7140 0.7121 0.7101 0.7080
1040.000000 0.7051 0.7018 0.6976 0.6847 0.6545
1035.000000 0.6243 0.6138 0.6139 0.6171 0.6437
1030.000000 0.6937 0.7464 0.7544 0.7611 0.7658
1025.000000 0.7704 0.7737 0.7765 0.7794 0.7825
1020.000000 0.7858 0.7887 0.7901 0.7917 0.7928
1015.000000 0.7935 0.7941 0.7948 0.7949 0.7949
1010.000000 0.7950 0.7950 0.7950 0.7949 0.7944
1005.000000 0.7939 0.7933 0.7928 0.7922 0.7917
1000.000000 0.7911 0.7906 0.7901 0.7896 0.7891
995.000000 0.7890 0.7890 0.7908 0.7908 0.7919
990.000000 0.7936 0.7948 0.7956 0.7962 0.7964
985.000000 0.7964 0.7961 0.7958 0.7938 0.7899
980.000000 0.7825 0.7612 0.7397 0.7180 0.7101
975.000000 0.7087 0.7108 0.7146 0.7275 0.7432
970.000000 0.7590 0.7685 0.7700 0.7675 0.7541
965.000000 0.7406 0.7406 0.7406 0.7544 0.7683
960.000000 0.7736 0.7738 0.7694 0.7621 0.7551
955.000000 0.7548 0.7596 0.7710 0.7774 0.7828
950.000000 0.7882 0.7930 0.7971 0.8012 0.8046
945.000000 0.8076 0.8108 0.8134 0.8161 0.8187
940.000000 0.8212 0.8225 0.8240 0.8253 0.8263
935.000000 0.8268 0.8275 0.8283 0.8287 0.8290
930.000000 0.8293 0.8293 0.8293 0.8292 0.8290
925.000000 0.8289 0.8288 0.8287 0.8286 0.8281
920.000000 0.8275 0.8268 0.8258 0.8244 0.8221
915.000000 0.8189 0.8150 0.8089 0.8040 0.7914
910.000000 0.7714 0.7515 0.7255 0.7237 0.7240
905.000000 0.7271 0.7442 0.7880 0.7901 0.7915
900.000000 0.7922 0.7924 0.7924 0.7937 0.7910
895.000000 0.7898 0.7886 0.7874 0.7858 0.7840
890.000000 0.7815 0.7787 0.7749 0.7710 0.7646
885.000000 0.7575 0.7461 0.7365 0.7125 0.6867
880.000000 0.6626 0.6662 0.6812 0.6961 0.7076
875.000000 0.7094 0.7097 0.7074 0.7028 0.6921
870.000000 0.6615 0.6278 0.6170 0.6162 0.6286
865.000000 0.6488 0.6690 0.6893 0.7095 0.7297
860.000000 0.7428 0.7417 0.7419 0.7412 0.7399
855.000000 0.7356 0.7289 0.7203 0.7121 0.7038
850.000000 0.6956 0.6874 0.6791 0.6708 0.6626
845.000000 0.6639 0.6631 0.6637 0.6651 0.6672
840.000000 0.6707 0.6736 0.6761 0.6789 0.6818
835.000000 0.6841 0.6853 0.6860 0.6855 0.6836
830.000000 0.6793 0.6432 0.5981 0.5530 0.5080
825.000000 0.4629 0.4179 0.3810 0.3823 0.3780
820.000000 0.3792 0.4024 0.4136 0.4345 0.4730
815.000000 0.5044 0.5357 0.5670 0.5984 0.6297
810.000000 0.6611 0.6924 0.7218 0.7274 0.7298
805.000000 0.7310 0.7301 0.7305 0.7291 0.7271
800.000000 0.7134 0.6775 0.6415 0.6104 0.6105
795.000000 0.6105 0.6378 0.6651 0.6925 0.7199
790.000000 0.7472 0.7499 0.7501 0.7447 0.7261
785.000000 0.7190 0.7193 0.7221 0.7282 0.7392
780.000000 0.7468 0.7534 0.7594 0.7643 0.7681
775.000000 0.7711 0.7741 0.7771 0.7799 0.7825
770.000000 0.7853 0.7876 0.7900 0.7924 0.7945
765.000000 0.7960 0.7967 0.7987 0.7980 0.7980
760.000000 0.7978 0.7976 0.7968 0.7960 0.7949
755.000000 0.7936 0.7924 0.7915 0.7918 0.7919
750.000000 0.7925 0.7931 0.7935 0.7936 0.7933
745.000000 0.7931 0.7918 0.7901 0.7887 0.7872
740.000000 0.7858 0.7843 0.7826 0.7818 0.7808
735.000000 0.7801 0.7795 0.7789 0.7771 0.7742
730.000000 0.7706 0.7645 0.7562 0.7499 0.7465
725.000000 0.7453 0.7446 0.7446 0.7446 0.7469
720.000000 0.7560 0.7651 0.7728 0.7803 0.7878
715.000000 0.7955 0.8030 0.8106 0.8182 0.8257
710.000000 0.8336 0.8417 0.8446 0.8455 0.8461
705.000000 0.8461 0.8462 0.8459 0.8430 0.8289
700.000000 0.8147 0.8006 0.7994 0.8045 0.8266
695.000000 0.8488 0.8539 0.8583 0.8617 0.8641
690.000000 0.8651 0.8661 0.8667 0.8671 0.8675
685.000000 0.8678 0.8681 0.8682 0.8683 0.8685
680.000000 0.8704 0.8689 0.8692 0.8694 0.8697
675.000000 0.8697 0.8696 0.8692 0.8686 0.8604
670.000000 0.8078 0.7931 0.7965 0.8083 0.8201
665.000000 0.8318 0.8438 0.8556 0.8613 0.8621
660.000000 0.8636 0.8627 0.8625 0.8618 0.8612
655.000000 0.8583 0.8462 0.8341 0.8220 0.8161
650.000000 0.8165 0.8171 0.8249 0.8315 0.8381
645.000000 0.8447 0.8512 0.8578 0.8642 0.8662
640.000000 0.8682 0.8701 0.8709 0.8718 0.8727
635.000000 0.8728 0.8728 0.8740 0.8740 0.8739
630.000000 0.8734 0.8725 0.8703 0.8671 0.8643
625.000000 0.8618 0.8613 0.8609 0.8608 0.8607
620.000000 0.8605 0.8599 0.8592 0.8557 0.8494
615.000000 0.8391 0.8198 0.7628 0.7061 0.6492
610.000000 0.5923 0.5690 0.5680 0.6116 0.6551
605.000000 0.6987 0.7422 0.7858 0.8295 0.8458
600.000000 0.8571 0.8642 0.8683 0.8708 0.8731
595.000000 0.8739 0.8747 0.8755 0.8757 0.8759
590.000000 0.8760 0.8778 0.8763 0.8762 0.8761
585.000000 0.8760 0.8755 0.8746 0.8737 0.8724
580.000000 0.8705 0.8683 0.8644 0.8588 0.8509
575.000000 0.8446 0.8291 0.8239 0.8214 0.8227
570.000000 0.8338 0.8456 0.8573 0.8661 0.8673
565.000000 0.8685 0.8692 0.8699 0.8705 0.8712
560.000000 0.8718 0.8723 0.8727 0.8731 0.8736
555.000000 0.8740 0.8743 0.8755 0.8750 0.8753
550.000000 0.8753 0.8753 0.8751 0.8748 0.8741
545.000000 0.8730 0.8711 0.8678 0.8633 0.8578
540.000000 0.8471 0.8358 0.8316 0.8316 0.8316
535.000000 0.8346 0.8416 0.8497 0.8596 0.8651
530.000000 0.8688 0.8718 0.8738 0.8744 0.8750
525.000000 0.8755 0.8756 0.8757 0.8757 0.8758
520.000000 0.8758 0.8756 0.8754 0.8753 0.8780
515.000000 0.8750 0.8749 0.8748 0.8747 0.8746
510.000000 0.8743 0.8740 0.8737 0.8734 0.8731
505.000000 0.8727 0.8721 0.8716 0.8710 0.8704
500.000000 0.8698 0.8692 0.8685 0.8675 0.8667
495.000000 0.8658 0.8649 0.8641 0.8631 0.8621
490.000000 0.8612 0.8602 0.8593 0.8583 0.8573
485.000000 0.8561 0.8548 0.8534 0.8521 0.8507
480.000000 0.8493 0.8475 0.8459 0.8442 0.8425
475.000000 0.8408 0.8381 0.8353 0.8325 0.8298
470.000000 0.8258 0.8215 0.8168 0.8108 0.8047
465.000000 0.7978 0.7911 0.7818 0.7742 0.7674
460.000000 0.7568 0.7369 0.7131 0.7015 0.7011
455.000000 0.7008 0.7015 0.7097 0.7182 0.7228
450.000000 0.7247 0.7275 0.7250 0.7244 0.7234
445.000000 0.7189 0.7139 0.7078 0.7006 0.6791
440.000000 0.6331 0.5812 0.5259 0.4868 0.4840
435.000000 0.4834 0.4875 0.4980 0.5325 0.5670
430.000000 0.6014 0.6060 0.6110 0.6166 0.6198
425.000000 0.6202 0.6203 0.6205 0.6207 0.6210
420.000000 0.6214 0.6218 0.6222 0.6227 0.6237
415.000000 0.6247 0.6258 0.6268 0.6284 0.6303
410.000000 0.6321 0.6339 0.6359 0.6391 0.6422
405.000000 0.6454 0.6486 0.6526 0.6567 0.6608
400.000000 0.6668 0.6746
##END=
