##TITLE=CHROMIC PHOSPHATE, TRIBASIC
$$ C.P.
##JCAMP-DX=4.24
##DATA TYPE=INFRARED SPECTRUM
##CLASS=COBLENTZ
##ORIGIN=MELLON INSTITUTE
##OWNER=COBLENTZ SOCIETY
Collection (C) 2018 copyright by the U.S. Secretary of Commerce
on behalf of the United States of America. All rights reserved.
##DATE=Not specified, most likely prior to 1970
##MOLFORM=Cr P O4  * H2 O
##SOURCE REFERENCE=COBLENTZ NO. 573
##$NIST ID=B6000573
##$NIST SOURCE=COBLENTZ
##$NIST IMAGE=cob573
##SPECTROMETER/DATA SYSTEM=Not specified, most likely a prism, grating, or hybrid spectrometer.
##STATE=SOLID (NUJOL MULL)
##PATH LENGTH=
$$SPECTRAL CONTAMINATION DUE TO OIL AROUND 2900, 1450, 1380 CM^-^1
##SAMPLING PROCEDURE=TRANSMISSION
##RESOLUTION=4
##DATA PROCESSING=DIGITIZED BY NIST FROM HARD COPY
##XUNITS=MICROMETERS
##YUNITS=TRANSMITTANCE
##XFACTOR=1.000000
##YFACTOR=1
##DELTAX=000.006643
##FIRSTX=2.03
##LASTX=16.0056
##FIRSTY=0.964
##MAXX=16.0056
##MINX=2.03
##MAXY=0.984
##MINY=0.107
##NPOINTS=2105
##XYDATA=(X++(Y..Y))
2.030000 0.9640 0.9640 0.9640 0.9640 0.9640
2.063228 0.9660 0.9730 0.9730 0.9710 0.9710
2.097000 0.9710 0.9730 0.9730 0.9740 0.9760
2.130228 0.9780 0.9790 0.9790 0.9790 0.9810
2.163000 0.9810 0.9790 0.9790 0.9790 0.9790
2.196228 0.9780 0.9780 0.9830 0.9830 0.9810
2.229000 0.9790 0.9790 0.9790 0.9810 0.9810
2.262228 0.9830 0.9830 0.9830 0.9810 0.9790
2.296000 0.9790 0.9760 0.9740 0.9740 0.9710
2.329228 0.9690 0.9680 0.9680 0.9690 0.9690
2.362000 0.9690 0.9710 0.9710 0.9710 0.9730
2.395228 0.9730 0.9730 0.9730 0.9710 0.9760
2.429000 0.9710 0.9710 0.9690 0.9680 0.9640
2.462228 0.9660 0.9690 0.9760 0.9760 0.9780
2.495000 0.9790 0.9810 0.9810 0.9810 0.9830
2.528228 0.9840 0.9840 0.9830 0.9830 0.9810
2.562000 0.9790 0.9780 0.9760 0.9780 0.9780
2.595228 0.9790 0.9780 0.9740 0.9710 0.9710
2.628000 0.9710 0.9710 0.9730 0.9740 0.9780
2.661228 0.9780 0.9790 0.9730 0.9660 0.9610
2.694000 0.9590 0.9580 0.9580 0.9540 0.9540
2.727228 0.9590 0.9540 0.9510 0.9410 0.9310
2.761000 0.9240 0.8940 0.8860 0.8710 0.8370
2.794228 0.7990 0.7690 0.7300 0.6830 0.6550
2.827000 0.6300 0.6020 0.5830 0.5630 0.5430
2.860228 0.5260 0.5110 0.4960 0.4810 0.4710
2.894000 0.4540 0.4430 0.4380 0.4310 0.4260
2.927228 0.4180 0.4130 0.4010 0.3990 0.3940
2.960000 0.3890 0.3820 0.3790 0.3770 0.3760
2.993228 0.3740 0.3720 0.3710 0.3690 0.3690
3.027000 0.3670 0.3670 0.3640 0.3610 0.3610
3.060228 0.3590 0.3590 0.3590 0.3570 0.3570
3.093000 0.3560 0.3560 0.3560 0.3590 0.3590
3.126228 0.3610 0.3610 0.3640 0.3710 0.3720
3.159000 0.3790 0.3810 0.3810 0.3810 0.3810
3.192228 0.3810 0.3810 0.3810 0.3820 0.3870
3.226000 0.3920 0.3960 0.3970 0.3990 0.3990
3.259228 0.4010 0.4010 0.4030 0.4090 0.4110
3.292000 0.4110 0.4090 0.4010 0.3990 0.3970
3.325228 0.3790 0.3420 0.2900 0.2320 0.1870
3.359000 0.1680 0.1530 0.1370 0.1270 0.1170
3.392228 0.1120 0.1070 0.1120 0.1330 0.1580
3.425000 0.1750 0.1980 0.2240 0.2350 0.2340
3.458228 0.2320 0.2150 0.2120 0.2120 0.2150
3.492000 0.2420 0.2800 0.3240 0.3710 0.4190
3.525228 0.4640 0.4910 0.5010 0.5310 0.5460
3.558000 0.5530 0.5660 0.5760 0.5810 0.5860
3.591228 0.5980 0.5980 0.6000 0.6170 0.6200
3.624000 0.6220 0.6280 0.6320 0.6330 0.6350
3.657228 0.6380 0.6450 0.6480 0.6520 0.6620
3.691000 0.6650 0.6680 0.6700 0.6700 0.6730
3.724228 0.6800 0.6820 0.6870 0.6880 0.6920
3.757000 0.6950 0.6980 0.7000 0.7020 0.7020
3.790228 0.7040 0.7100 0.7120 0.7170 0.7200
3.824000 0.7240 0.7270 0.7300 0.7320 0.7340
3.857228 0.7420 0.7440 0.7440 0.7400 0.7440
3.890000 0.7470 0.7470 0.7470 0.7470 0.7490
3.923228 0.7500 0.7520 0.7550 0.7570 0.7590
3.957000 0.7590 0.7590 0.7590 0.7640 0.7640
3.990228 0.7640 0.7640 0.7640 0.7640 0.7640
4.023000 0.7640 0.7640 0.7640 0.7640 0.7640
4.056228 0.7640 0.7640 0.7650 0.7650 0.7690
4.089000 0.7700 0.7700 0.7720 0.7720 0.7690
4.122228 0.7700 0.7700 0.7700 0.7700 0.7690
4.156000 0.7700 0.7700 0.7700 0.7720 0.7720
4.189228 0.7720 0.7740 0.7740 0.7740 0.7740
4.222000 0.7720 0.7720 0.7720 0.7700 0.7690
4.255228 0.7670 0.7640 0.7640 0.7600 0.7550
4.289000 0.7540 0.7520 0.7520 0.7540 0.7540
4.322228 0.7540 0.7570 0.7570 0.7570 0.7570
4.355000 0.7590 0.7620 0.7640 0.7690 0.7700
4.388228 0.7720 0.7800 0.7850 0.7890 0.7920
4.421000 0.7920 0.7940 0.7940 0.7950 0.7950
4.454228 0.7990 0.7970 0.7970 0.7990 0.8010
4.488000 0.8010 0.8020 0.8020 0.8020 0.8020
4.521228 0.8040 0.8040 0.8040 0.8060 0.8070
4.554000 0.8090 0.8110 0.8120 0.8120 0.8090
4.587228 0.8090 0.8060 0.8070 0.8070 0.8070
4.621000 0.8040 0.8060 0.8070 0.8110 0.8110
4.654228 0.8120 0.8120 0.8140 0.8140 0.8140
4.687000 0.8160 0.8160 0.8120 0.8120 0.8160
4.720228 0.8170 0.8210 0.8210 0.8210 0.8220
4.754000 0.8220 0.8220 0.8210 0.8210 0.8170
4.787228 0.8170 0.8210 0.8220 0.8210 0.8210
4.820000 0.8210 0.8210 0.8210 0.8210 0.8220
4.853228 0.8220 0.8220 0.8210 0.8210 0.8170
4.886000 0.8210 0.8210 0.8220 0.8240 0.8240
4.919228 0.8240 0.8220 0.8240 0.8260 0.8270
4.953000 0.8260 0.8260 0.8240 0.8240 0.8220
4.986228 0.8220 0.8220 0.8260 0.8270 0.8290
5.019000 0.8310 0.8320 0.8320 0.8340 0.8340
5.052228 0.8340 0.8340 0.8360 0.8370 0.8360
5.086000 0.8340 0.8340 0.8320 0.8310 0.8310
5.119228 0.8310 0.8320 0.8360 0.8370 0.8370
5.152000 0.8390 0.8410 0.8410 0.8410 0.8420
5.185228 0.8420 0.8410 0.8390 0.8390 0.8390
5.219000 0.8390 0.8390 0.8390 0.8390 0.8390
5.252228 0.8390 0.8390 0.8390 0.8390 0.8360
5.285000 0.8370 0.8390 0.8390 0.8390 0.8420
5.318228 0.8420 0.8370 0.8370 0.8390 0.8410
5.351000 0.8420 0.8440 0.8470 0.8460 0.8460
5.384228 0.8460 0.8420 0.8470 0.8470 0.8390
5.418000 0.8420 0.8420 0.8440 0.8440 0.8460
5.451228 0.8470 0.8470 0.8460 0.8440 0.8440
5.484000 0.8440 0.8440 0.8440 0.8440 0.8470
5.517228 0.8460 0.8460 0.8440 0.8440 0.8390
5.551000 0.8390 0.8440 0.8470 0.8490 0.8490
5.584228 0.8510 0.8510 0.8520 0.8520 0.8470
5.617000 0.8440 0.8440 0.8420 0.8440 0.8470
5.650228 0.8510 0.8490 0.8490 0.8490 0.8470
5.684000 0.8470 0.8460 0.8440 0.8460 0.8470
5.717228 0.8490 0.8490 0.8490 0.8510 0.8520
5.750000 0.8520 0.8510 0.8490 0.8490 0.8470
5.783228 0.8470 0.8490 0.8490 0.8490 0.8510
5.816000 0.8510 0.8490 0.8490 0.8470 0.8420
5.849228 0.8390 0.8320 0.8320 0.8310 0.8310
5.883000 0.8290 0.8270 0.8260 0.8240 0.8220
5.916228 0.8210 0.8190 0.8170 0.8170 0.8160
5.949000 0.8110 0.8060 0.8010 0.7990 0.7950
5.982228 0.7940 0.7850 0.7800 0.7750 0.7700
6.016000 0.7650 0.7590 0.7570 0.7540 0.7520
6.049228 0.7500 0.7420 0.7370 0.7340 0.7290
6.082000 0.7240 0.7220 0.7200 0.7190 0.7170
6.115228 0.7150 0.7140 0.7120 0.7090 0.7090
6.149000 0.7070 0.7090 0.7090 0.7100 0.7120
6.182228 0.7140 0.7140 0.7200 0.7220 0.7240
6.215000 0.7270 0.7290 0.7290 0.7320 0.7350
6.248228 0.7420 0.7470 0.7520 0.7550 0.7570
6.281000 0.7570 0.7590 0.7590 0.7590 0.7620
6.314228 0.7650 0.7720 0.7750 0.7790 0.7790
6.348000 0.7790 0.7770 0.7750 0.7720 0.7740
6.381228 0.7790 0.7800 0.7820 0.7820 0.7840
6.414000 0.7840 0.7840 0.7820 0.7840 0.7850
6.447228 0.7870 0.7870 0.7920 0.7950 0.7970
6.481000 0.8010 0.8010 0.8010 0.8040 0.8060
6.514228 0.8070 0.8070 0.8070 0.8070 0.8090
6.547000 0.8090 0.8090 0.8090 0.8090 0.8090
6.580228 0.8090 0.8070 0.8070 0.8070 0.8070
6.614000 0.8070 0.8070 0.8070 0.8090 0.8110
6.647228 0.8120 0.8140 0.8160 0.8170 0.8210
6.680000 0.8210 0.8240 0.8240 0.8240 0.8240
6.713228 0.8220 0.8210 0.8170 0.8140 0.8120
6.746000 0.8110 0.8070 0.8010 0.7990 0.7900
6.779228 0.7800 0.7770 0.7570 0.7150 0.6750
6.813000 0.6620 0.6350 0.6200 0.6150 0.6120
6.846228 0.6030 0.6020 0.6000 0.5980 0.5980
6.879000 0.6000 0.6000 0.6030 0.6200 0.6220
6.912228 0.6300 0.6370 0.6500 0.6600 0.6750
6.946000 0.6880 0.6980 0.7020 0.7150 0.7270
6.979228 0.7470 0.7640 0.7700 0.7800 0.7920
7.012000 0.7970 0.8010 0.8040 0.8070 0.8110
7.045228 0.8140 0.8160 0.8170 0.8240 0.8240
7.079000 0.8260 0.8270 0.8290 0.8310 0.8320
7.112228 0.8390 0.8390 0.8390 0.8360 0.8320
7.145000 0.8320 0.8310 0.8310 0.8290 0.8290
7.178228 0.8290 0.8240 0.8210 0.8110 0.8010
7.211000 0.7990 0.7790 0.7700 0.7520 0.7420
7.244228 0.7340 0.7300 0.7300 0.7300 0.7300
7.278000 0.7320 0.7390 0.7490 0.7520 0.7540
7.311228 0.7590 0.7600 0.7620 0.7700 0.7900
7.344000 0.7990 0.8010 0.8160 0.8190 0.8260
7.377228 0.8270 0.8290 0.8310 0.8320 0.8320
7.411000 0.8340 0.8340 0.8340 0.8340 0.8320
7.444228 0.8320 0.8310 0.8270 0.8260 0.8240
7.477000 0.8260 0.8360 0.8370 0.8390 0.8370
7.510228 0.8390 0.8390 0.8410 0.8410 0.8410
7.543000 0.8410 0.8410 0.8410 0.8420 0.8420
7.576228 0.8390 0.8390 0.8370 0.8390 0.8390
7.610000 0.8340 0.8390 0.8410 0.8410 0.8390
7.643228 0.8390 0.8340 0.8390 0.8410 0.8410
7.676000 0.8410 0.8340 0.8340 0.8370 0.8370
7.709228 0.8370 0.8390 0.8360 0.8320 0.8310
7.743000 0.8290 0.8310 0.8310 0.8310 0.8320
7.776228 0.8340 0.8360 0.8360 0.8360 0.8360
7.809000 0.8340 0.8320 0.8320 0.8340 0.8340
7.842228 0.8340 0.8340 0.8320 0.8310 0.8270
7.876000 0.8220 0.8220 0.8210 0.8190 0.8190
7.909228 0.8220 0.8240 0.8240 0.8220 0.8210
7.942000 0.8210 0.8160 0.8140 0.8120 0.8110
7.975228 0.8110 0.8110 0.8090 0.8070 0.8070
8.008000 0.8070 0.8070 0.8090 0.8090 0.8090
8.041228 0.8090 0.8110 0.8140 0.8140 0.8090
8.075000 0.8060 0.8040 0.8040 0.8040 0.8020
8.108228 0.8010 0.8020 0.8010 0.7990 0.7990
8.141000 0.7970 0.7950 0.7940 0.7920 0.7900
8.174228 0.7890 0.7870 0.7850 0.7840 0.7820
8.208000 0.7800 0.7790 0.7800 0.7790 0.7790
8.241228 0.7790 0.7770 0.7750 0.7720 0.7700
8.274000 0.7650 0.7640 0.7620 0.7600 0.7590
8.307228 0.7590 0.7570 0.7550 0.7540 0.7520
8.341000 0.7520 0.7470 0.7440 0.7420 0.7390
8.374228 0.7350 0.7300 0.7290 0.7240 0.7220
8.407000 0.7190 0.7190 0.7170 0.7140 0.7100
8.440228 0.7040 0.7020 0.6980 0.6950 0.6920
8.473000 0.6900 0.6870 0.6830 0.6800 0.6730
8.506228 0.6680 0.6630 0.6570 0.6520 0.6500
8.540000 0.6430 0.6370 0.6320 0.6250 0.6220
8.573228 0.6180 0.6150 0.6120 0.6070 0.5980
8.606000 0.5960 0.5880 0.5800 0.5730 0.5700
8.639228 0.5660 0.5610 0.5560 0.5510 0.5480
8.673000 0.5460 0.5410 0.5360 0.5330 0.5300
8.706228 0.5280 0.5230 0.5210 0.5180 0.5130
8.739000 0.5100 0.5060 0.5000 0.4960 0.4880
8.772228 0.4830 0.4780 0.4690 0.4560 0.4460
8.806000 0.4410 0.4380 0.4330 0.4330 0.4290
8.839228 0.4230 0.4210 0.4180 0.4090 0.4080
8.872000 0.4040 0.3990 0.3970 0.3970 0.3910
8.905228 0.3890 0.3870 0.3860 0.3820 0.3790
8.938000 0.3790 0.3770 0.3760 0.3720 0.3710
8.971228 0.3690 0.3670 0.3670 0.3620 0.3560
9.005000 0.3510 0.3470 0.3420 0.3370 0.3360
9.038228 0.3320 0.3290 0.3260 0.3220 0.3190
9.071000 0.3120 0.3090 0.3060 0.3020 0.3020
9.104228 0.3010 0.2990 0.2970 0.2950 0.2920
9.138000 0.2900 0.2890 0.2870 0.2850 0.2840
9.171228 0.2840 0.2800 0.2770 0.2770 0.2720
9.204000 0.2720 0.2690 0.2670 0.2670 0.2640
9.237228 0.2620 0.2600 0.2590 0.2550 0.2520
9.271000 0.2520 0.2490 0.2470 0.2440 0.2420
9.304228 0.2420 0.2400 0.2400 0.2390 0.2350
9.337000 0.2320 0.2320 0.2300 0.2300 0.2290
9.370228 0.2290 0.2270 0.2250 0.2250 0.2240
9.403000 0.2220 0.2200 0.2200 0.2190 0.2170
9.436228 0.2170 0.2150 0.2140 0.2140 0.2140
9.470000 0.2150 0.2200 0.2200 0.2200 0.2200
9.503228 0.2200 0.2190 0.2190 0.2190 0.2190
9.536000 0.2190 0.2190 0.2170 0.2170 0.2170
9.569228 0.2150 0.2150 0.2140 0.2120 0.2120
9.603000 0.2120 0.2100 0.2100 0.2100 0.2090
9.636228 0.2090 0.2090 0.2070 0.2070 0.2070
9.669000 0.2050 0.2050 0.2050 0.2040 0.2050
9.702228 0.2050 0.2050 0.2090 0.2090 0.2100
9.736000 0.2100 0.2120 0.2120 0.2140 0.2140
9.769228 0.2150 0.2150 0.2150 0.2170 0.2170
9.802000 0.2190 0.2200 0.2220 0.2220 0.2240
9.835228 0.2240 0.2250 0.2270 0.2270 0.2290
9.868000 0.2290 0.2290 0.2300 0.2320 0.2340
9.901228 0.2350 0.2390 0.2400 0.2470 0.2490
9.935000 0.2500 0.2520 0.2520 0.2540 0.2550
9.968228 0.2550 0.2570 0.2590 0.2640 0.2670
10.001000 0.2690 0.2720 0.2740 0.2740 0.2750
10.034228 0.2770 0.2800 0.2820 0.2840 0.2850
10.068000 0.2870 0.2920 0.2920 0.2940 0.2950
10.101228 0.2950 0.2970 0.3010 0.3020 0.3070
10.134000 0.3090 0.3140 0.3170 0.3170 0.3190
10.167228 0.3210 0.3220 0.3270 0.3290 0.3340
10.200000 0.3390 0.3470 0.3490 0.3510 0.3510
10.233228 0.3520 0.3570 0.3590 0.3610 0.3620
10.267000 0.3670 0.3710 0.3720 0.3790 0.3840
10.300228 0.3890 0.3940 0.3940 0.3960 0.3970
10.333000 0.3990 0.4030 0.4060 0.4090 0.4140
10.366228 0.4180 0.4210 0.4240 0.4280 0.4330
10.400000 0.4380 0.4410 0.4410 0.4430 0.4440
10.433228 0.4480 0.4510 0.4540 0.4560 0.4560
10.466000 0.4580 0.4590 0.4590 0.4610 0.4630
10.499228 0.4640 0.4660 0.4680 0.4690 0.4690
10.533000 0.4710 0.4730 0.4740 0.4790 0.4830
10.566228 0.4840 0.4840 0.4880 0.4880 0.4890
10.599000 0.4930 0.4940 0.4980 0.5000 0.5000
10.632228 0.5010 0.5010 0.5030 0.5060 0.5080
10.665000 0.5100 0.5110 0.5130 0.5160 0.5180
10.698228 0.5200 0.5210 0.5230 0.5250 0.5250
10.732000 0.5300 0.5310 0.5330 0.5330 0.5350
10.765228 0.5350 0.5360 0.5380 0.5380 0.5400
10.798000 0.5400 0.5410 0.5410 0.5410 0.5410
10.831228 0.5410 0.5430 0.5430 0.5460 0.5480
10.865000 0.5500 0.5500 0.5500 0.5510 0.5510
10.898228 0.5530 0.5530 0.5560 0.5580 0.5600
10.931000 0.5600 0.5610 0.5610 0.5610 0.5630
10.964228 0.5650 0.5650 0.5680 0.5700 0.5700
10.998000 0.5710 0.5710 0.5730 0.5730 0.5730
11.031228 0.5750 0.5760 0.5760 0.5760 0.5760
11.064000 0.5750 0.5760 0.5780 0.5780 0.5800
11.097228 0.5810 0.5810 0.5830 0.5850 0.5850
11.130000 0.5860 0.5860 0.5860 0.5860 0.5860
11.163228 0.5880 0.5900 0.5900 0.5910 0.5910
11.197000 0.5930 0.5930 0.5950 0.5950 0.5930
11.230228 0.5950 0.5960 0.5980 0.5980 0.5960
11.263000 0.5980 0.5980 0.5980 0.5980 0.6000
11.296228 0.5980 0.6000 0.6000 0.6020 0.6020
11.330000 0.6050 0.6050 0.6070 0.6070 0.6070
11.363228 0.6100 0.6130 0.6130 0.6130 0.6150
11.396000 0.6150 0.6170 0.6180 0.6180 0.6180
11.429228 0.6180 0.6200 0.6220 0.6250 0.6270
11.463000 0.6270 0.6250 0.6250 0.6270 0.6280
11.496228 0.6280 0.6280 0.6330 0.6330 0.6350
11.529000 0.6350 0.6350 0.6370 0.6370 0.6370
11.562228 0.6400 0.6400 0.6400 0.6400 0.6420
11.595000 0.6420 0.6420 0.6420 0.6420 0.6420
11.628228 0.6430 0.6470 0.6480 0.6480 0.6500
11.662000 0.6520 0.6530 0.6550 0.6550 0.6570
11.695228 0.6580 0.6600 0.6600 0.6620 0.6620
11.728000 0.6630 0.6650 0.6670 0.6670 0.6680
11.761228 0.6680 0.6680 0.6700 0.6700 0.6730
11.795000 0.6750 0.6780 0.6800 0.6800 0.6820
11.828228 0.6830 0.6830 0.6830 0.6830 0.6830
11.861000 0.6820 0.6820 0.6820 0.6820 0.6820
11.894228 0.6820 0.6830 0.6830 0.6870 0.6870
11.928000 0.6830 0.6830 0.6830 0.6820 0.6820
11.961228 0.6830 0.6830 0.6830 0.6830 0.6830
11.994000 0.6850 0.6870 0.6870 0.6900 0.6900
12.027228 0.6900 0.6900 0.6900 0.6900 0.6880
12.060000 0.6880 0.6870 0.6870 0.6880 0.6880
12.093228 0.6880 0.6880 0.6900 0.6900 0.6900
12.127000 0.6900 0.6900 0.6900 0.6920 0.6930
12.160228 0.6930 0.6950 0.6950 0.6950 0.6950
12.193000 0.6950 0.6950 0.6950 0.6970 0.6970
12.226228 0.6980 0.6980 0.6980 0.7000 0.7020
12.260000 0.7020 0.7020 0.7020 0.7040 0.7050
12.293228 0.7070 0.7020 0.7020 0.7050 0.7070
12.326000 0.7070 0.7070 0.7070 0.7070 0.7090
12.359228 0.7090 0.7090 0.7090 0.7090 0.7090
12.393000 0.7070 0.7070 0.7020 0.7020 0.7050
12.426228 0.7070 0.7070 0.7070 0.7090 0.7090
12.459000 0.7090 0.7090 0.7090 0.7090 0.7090
12.492228 0.7020 0.7070 0.7090 0.7070 0.7070
12.525000 0.7070 0.7050 0.7070 0.7050 0.7040
12.558228 0.7070 0.7050 0.7040 0.7050 0.7050
12.592000 0.7090 0.7090 0.7090 0.7070 0.7070
12.625228 0.7090 0.7070 0.7070 0.7070 0.7070
12.658000 0.7070 0.7070 0.7070 0.7090 0.7090
12.691228 0.7070 0.7070 0.7070 0.7070 0.7090
12.725000 0.7070 0.7070 0.7100 0.7100 0.7100
12.758228 0.7100 0.7090 0.7090 0.7090 0.7090
12.791000 0.7070 0.7070 0.7070 0.7090 0.7090
12.824228 0.7090 0.7090 0.7090 0.7090 0.7090
12.857000 0.7090 0.7090 0.7090 0.7090 0.7070
12.890228 0.7070 0.7070 0.7090 0.7090 0.7090
12.924000 0.7090 0.7070 0.7070 0.7050 0.7020
12.957228 0.7020 0.7020 0.7020 0.7020 0.7020
12.990000 0.7020 0.7020 0.7020 0.7020 0.7040
13.023228 0.7040 0.7040 0.7040 0.7020 0.7020
13.057000 0.7070 0.7070 0.7050 0.7050 0.7020
13.090228 0.7020 0.7020 0.7040 0.7040 0.7040
13.123000 0.7050 0.7090 0.7090 0.7070 0.7070
13.156228 0.7070 0.7040 0.7020 0.7020 0.7020
13.190000 0.7020 0.7050 0.7050 0.7050 0.7050
13.223228 0.7050 0.7050 0.7050 0.7040 0.7040
13.256000 0.7020 0.7020 0.7020 0.7020 0.7020
13.289228 0.7020 0.7020 0.7020 0.7020 0.7020
13.322000 0.7020 0.7020 0.7020 0.7020 0.7020
13.355228 0.7020 0.7020 0.7020 0.7020 0.7000
13.389000 0.7000 0.7000 0.7000 0.6980 0.7000
13.422228 0.7050 0.7050 0.7020 0.7020 0.7020
13.455000 0.7020 0.7000 0.7000 0.7000 0.7000
13.488228 0.7000 0.7000 0.6980 0.6970 0.6950
13.522000 0.6970 0.6980 0.6980 0.6980 0.6980
13.555228 0.6980 0.6980 0.6980 0.6980 0.6980
13.588000 0.6980 0.6970 0.6930 0.6930 0.6930
13.621228 0.6930 0.6930 0.6930 0.6930 0.6930
13.655000 0.6920 0.6920 0.6970 0.6900 0.6900
13.688228 0.6900 0.6900 0.6920 0.6920 0.6970
13.721000 0.6970 0.6930 0.6930 0.6930 0.6930
13.754228 0.6930 0.6920 0.6880 0.6880 0.6880
13.787000 0.6880 0.6900 0.6900 0.6900 0.6900
13.820228 0.6900 0.6900 0.6880 0.6850 0.6850
13.854000 0.6850 0.6830 0.6850 0.6880 0.6900
13.887228 0.6900 0.6900 0.6900 0.6920 0.6920
13.920000 0.6900 0.6900 0.6900 0.6920 0.6930
13.953228 0.6920 0.6920 0.6920 0.6950 0.6950
13.987000 0.6950 0.6950 0.6930 0.6920 0.6900
14.020228 0.6880 0.6880 0.6870 0.6870 0.6870
14.053000 0.6870 0.6870 0.6870 0.6880 0.6880
14.086228 0.6870 0.6870 0.6870 0.6880 0.6900
14.120000 0.6900 0.6900 0.6900 0.6900 0.6900
14.153228 0.6920 0.6920 0.6900 0.6900 0.6880
14.186000 0.6880 0.6880 0.6870 0.6870 0.6870
14.219228 0.6870 0.6870 0.6880 0.6880 0.6880
14.252000 0.6880 0.6880 0.6880 0.6870 0.6870
14.285228 0.6850 0.6830 0.6830 0.6820 0.6820
14.319000 0.6800 0.6780 0.6770 0.6770 0.6770
14.352228 0.6780 0.6780 0.6780 0.6780 0.6780
14.385000 0.6770 0.6770 0.6750 0.6750 0.6750
14.418228 0.6770 0.6770 0.6780 0.6780 0.6780
14.452000 0.6780 0.6780 0.6780 0.6780 0.6770
14.485228 0.6770 0.6770 0.6770 0.6770 0.6770
14.518000 0.6750 0.6730 0.6730 0.6730 0.6730
14.551228 0.6730 0.6730 0.6720 0.6700 0.6700
14.585000 0.6680 0.6680 0.6680 0.6680 0.6680
14.618228 0.6670 0.6670 0.6670 0.6670 0.6670
14.651000 0.6670 0.6670 0.6670 0.6650 0.6650
14.684228 0.6650 0.6630 0.6630 0.6630 0.6620
14.717000 0.6620 0.6620 0.6620 0.6630 0.6630
14.750228 0.6630 0.6630 0.6630 0.6630 0.6630
14.784000 0.6620 0.6600 0.6600 0.6600 0.6620
14.817228 0.6620 0.6630 0.6630 0.6630 0.6620
14.850000 0.6620 0.6620 0.6600 0.6600 0.6580
14.883228 0.6580 0.6570 0.6570 0.6550 0.6530
14.917000 0.6520 0.6500 0.6480 0.6480 0.6470
14.950228 0.6470 0.6470 0.6450 0.6450 0.6430
14.983000 0.6430 0.6430 0.6420 0.6400 0.6400
15.016228 0.6400 0.6400 0.6380 0.6400 0.6380
15.050000 0.6370 0.6370 0.6370 0.6370 0.6370
15.083228 0.6380 0.6370 0.6370 0.6370 0.6370
15.116000 0.6370 0.6370 0.6350 0.6350 0.6350
15.149228 0.6350 0.6350 0.6350 0.6350 0.6350
15.182000 0.6350 0.6350 0.6350 0.6350 0.6350
15.215228 0.6350 0.6330 0.6320 0.6320 0.6330
15.249000 0.6330 0.6330 0.6320 0.6300 0.6300
15.282228 0.6280 0.6270 0.6270 0.6270 0.6270
15.315000 0.6270 0.6270 0.6270 0.6270 0.6270
15.348228 0.6270 0.6250 0.6230 0.6220 0.6220
15.382000 0.6200 0.6200 0.6200 0.6180 0.6180
15.415228 0.6180 0.6170 0.6170 0.6150 0.6150
15.448000 0.6150 0.6150 0.6150 0.6150 0.6150
15.481228 0.6150 0.6150 0.6150 0.6130 0.6130
15.514000 0.6150 0.6130 0.6130 0.6130 0.6130
15.547228 0.6130 0.6120 0.6120 0.6100 0.6100
15.581000 0.6100 0.6120 0.6120 0.6120 0.6130
15.614228 0.6130 0.6150 0.6150 0.6150 0.6170
15.647000 0.6150 0.6130 0.6120 0.6120 0.6120
15.680228 0.6120 0.6130 0.6150 0.6130 0.6130
15.714000 0.6120 0.6120 0.6120 0.6120 0.6120
15.747228 0.6130 0.6150 0.6150 0.6150 0.6150
15.780000 0.6170 0.6170 0.6170 0.6170 0.6170
15.813228 0.6170 0.6150 0.6130 0.6130 0.6150
15.847000 0.6180 0.6200 0.6220 0.6230 0.6230
15.880228 0.6230 0.6230 0.6250 0.6270 0.6270
15.913000 0.6270 0.6270 0.6270 0.6280 0.6280
15.946228 0.6300 0.6300 0.6300 0.6320 0.6330
15.979000 0.6370 0.6380 0.6380 0.6400 0.6400
##END=
