##TITLE=POTASSIUM IODATE
##JCAMP-DX=4.24
$$ By DXEDIT 1.05 (RS McDonald)
##DATA TYPE=INFRARED SPECTRUM
##CLASS=COBLENTZ III
##OWNER=COBLENTZ SOC.
Collection (C) 2018 copyright by the U.S. Secretary of Commerce
on behalf of the United States of America. All rights reserved.
##DATE=1963/06/05
##MOLFORM=I K O3
##MP=560 C PARTIAL DECOMP.
##SOURCE REFERENCE=COBLENTZ NO. 05102
##$NIST ID=B6005102
##$NIST SOURCE=COBLENTZ
##$NIST IMAGE=cob5102
##SPECTROMETER/DATA SYSTEM=PERKIN-ELMER 21 (GRATING)
##INSTRUMENT PARAMETERS=FILTER AT ABOUT 10 MICRONS
##STATE=SOLID (2 mg / 200 mg KI DISC)
##PATH LENGTH=
$$ SPECTRAL FEATURE AT 1000 CM^-^1 IS AN ARTIFACT CAUSED BY FILTER CHANGE
##SAMPLING PROCEDURE=TRANSMISSION
##RESOLUTION=2
##DATA PROCESSING=DIGITIZED BY COBLENTZ SOCIETY (BATCH I) FROM HARD COPY
##XUNITS=1/CM
##YUNITS=TRANSMITTANCE
##XLABEL=Wavenumbers (cm-1)
##YLABEL=Transmittance
##XFACTOR=1
##YFACTOR=1
##DELTAX=1
##FIRSTX=4000
##LASTX=673
##FIRSTY=0.8209
##MAXX=4000
##MINX=673
##MAXY=1.0133
##MINY=0.284
##NPOINTS=3328
##XYDATA=(X++(Y..Y))
4000.000000 0.8209 0.8209 0.8209 0.8209 0.8209
3995.000000 0.8209 0.8209 0.8210 0.8210 0.8210
3990.000000 0.8210 0.8210 0.8210 0.8210 0.8210
3985.000000 0.8210 0.8210 0.8210 0.8210 0.8210
3980.000000 0.8210 0.8210 0.8210 0.8210 0.8210
3975.000000 0.8210 0.8209 0.8209 0.8209 0.8209
3970.000000 0.8209 0.8209 0.8208 0.8208 0.8208
3965.000000 0.8208 0.8208 0.8208 0.8208 0.8207
3960.000000 0.8207 0.8207 0.8207 0.8207 0.8207
3955.000000 0.8206 0.8206 0.8206 0.8206 0.8206
3950.000000 0.8206 0.8205 0.8205 0.8205 0.8205
3945.000000 0.8205 0.8205 0.8204 0.8204 0.8204
3940.000000 0.8204 0.8204 0.8204 0.8204 0.8204
3935.000000 0.8204 0.8204 0.8204 0.8204 0.8204
3930.000000 0.8203 0.8203 0.8203 0.8203 0.8203
3925.000000 0.8203 0.8202 0.8202 0.8202 0.8202
3920.000000 0.8202 0.8202 0.8201 0.8201 0.8201
3915.000000 0.8201 0.8201 0.8201 0.8200 0.8200
3910.000000 0.8200 0.8200 0.8200 0.8200 0.8200
3905.000000 0.8200 0.8200 0.8200 0.8200 0.8200
3900.000000 0.8199 0.8199 0.8199 0.8199 0.8199
3895.000000 0.8199 0.8198 0.8198 0.8198 0.8198
3890.000000 0.8198 0.8198 0.8198 0.8198 0.8198
3885.000000 0.8198 0.8198 0.8198 0.8198 0.8197
3880.000000 0.8197 0.8197 0.8197 0.8197 0.8197
3875.000000 0.8197 0.8197 0.8197 0.8197 0.8197
3870.000000 0.8197 0.8196 0.8196 0.8196 0.8196
3865.000000 0.8196 0.8196 0.8195 0.8195 0.8195
3860.000000 0.8195 0.8195 0.8195 0.8195 0.8195
3855.000000 0.8195 0.8195 0.8195 0.8194 0.8194
3850.000000 0.8194 0.8194 0.8194 0.8194 0.8194
3845.000000 0.8194 0.8194 0.8194 0.8194 0.8194
3840.000000 0.8194 0.8194 0.8194 0.8194 0.8194
3835.000000 0.8194 0.8195 0.8195 0.8195 0.8195
3830.000000 0.8195 0.8195 0.8195 0.8195 0.8195
3825.000000 0.8195 0.8195 0.8195 0.8196 0.8196
3820.000000 0.8196 0.8196 0.8196 0.8196 0.8196
3815.000000 0.8196 0.8196 0.8196 0.8196 0.8196
3810.000000 0.8197 0.8197 0.8197 0.8197 0.8197
3805.000000 0.8197 0.8197 0.8197 0.8197 0.8197
3800.000000 0.8197 0.8198 0.8198 0.8198 0.8198
3795.000000 0.8198 0.8198 0.8197 0.8197 0.8197
3790.000000 0.8196 0.8196 0.8196 0.8194 0.8193
3785.000000 0.8191 0.8190 0.8189 0.8187 0.8186
3780.000000 0.8184 0.8183 0.8182 0.8180 0.8178
3775.000000 0.8176 0.8175 0.8174 0.8171 0.8171
3770.000000 0.8169 0.8168 0.8168 0.8168 0.8167
3765.000000 0.8165 0.8165 0.8165 0.8165 0.8164
3760.000000 0.8164 0.8162 0.8162 0.8161 0.8161
3755.000000 0.8161 0.8161 0.8160 0.8160 0.8158
3750.000000 0.8158 0.8158 0.8158 0.8158 0.8158
3745.000000 0.8158 0.8160 0.8160 0.8161 0.8161
3740.000000 0.8161 0.8161 0.8162 0.8162 0.8164
3735.000000 0.8165 0.8165 0.8165 0.8167 0.8168
3730.000000 0.8168 0.8168 0.8169 0.8171 0.8171
3725.000000 0.8171 0.8171 0.8172 0.8174 0.8174
3720.000000 0.8175 0.8175 0.8175 0.8176 0.8178
3715.000000 0.8178 0.8178 0.8178 0.8180 0.8181
3710.000000 0.8181 0.8182 0.8182 0.8183 0.8184
3705.000000 0.8185 0.8185 0.8186 0.8186 0.8187
3700.000000 0.8188 0.8188 0.8189 0.8189 0.8190
3695.000000 0.8190 0.8191 0.8191 0.8192 0.8192
3690.000000 0.8192 0.8192 0.8192 0.8193 0.8193
3685.000000 0.8193 0.8194 0.8194 0.8194 0.8195
3680.000000 0.8195 0.8195 0.8195 0.8195 0.8196
3675.000000 0.8196 0.8196 0.8197 0.8197 0.8198
3670.000000 0.8198 0.8198 0.8199 0.8199 0.8199
3665.000000 0.8200 0.8200 0.8200 0.8200 0.8200
3660.000000 0.8201 0.8201 0.8201 0.8202 0.8202
3655.000000 0.8202 0.8203 0.8203 0.8203 0.8203
3650.000000 0.8203 0.8203 0.8203 0.8203 0.8203
3645.000000 0.8203 0.8202 0.8202 0.8202 0.8202
3640.000000 0.8202 0.8202 0.8202 0.8202 0.8202
3635.000000 0.8202 0.8202 0.8202 0.8202 0.8202
3630.000000 0.8202 0.8202 0.8202 0.8202 0.8202
3625.000000 0.8202 0.8202 0.8201 0.8201 0.8201
3620.000000 0.8201 0.8201 0.8201 0.8200 0.8200
3615.000000 0.8199 0.8199 0.8199 0.8198 0.8198
3610.000000 0.8197 0.8196 0.8196 0.8195 0.8195
3605.000000 0.8194 0.8193 0.8193 0.8192 0.8192
3600.000000 0.8191 0.8191 0.8190 0.8189 0.8189
3595.000000 0.8188 0.8188 0.8187 0.8187 0.8185
3590.000000 0.8184 0.8183 0.8182 0.8181 0.8178
3585.000000 0.8176 0.8175 0.8174 0.8171 0.8169
3580.000000 0.8168 0.8167 0.8165 0.8164 0.8162
3575.000000 0.8161 0.8158 0.8157 0.8156 0.8154
3570.000000 0.8151 0.8150 0.8148 0.8147 0.8145
3565.000000 0.8143 0.8142 0.8140 0.8139 0.8137
3560.000000 0.8136 0.8134 0.8132 0.8131 0.8128
3555.000000 0.8128 0.8125 0.8125 0.8124 0.8121
3550.000000 0.8121 0.8119 0.8118 0.8117 0.8115
3545.000000 0.8114 0.8111 0.8111 0.8108 0.8107
3540.000000 0.8106 0.8105 0.8103 0.8101 0.8100
3535.000000 0.8099 0.8098 0.8096 0.8095 0.8093
3530.000000 0.8092 0.8091 0.8089 0.8088 0.8086
3525.000000 0.8085 0.8084 0.8082 0.8081 0.8078
3520.000000 0.8078 0.8075 0.8075 0.8074 0.8071
3515.000000 0.8071 0.8069 0.8068 0.8068 0.8067
3510.000000 0.8065 0.8065 0.8065 0.8064 0.8062
3505.000000 0.8061 0.8061 0.8060 0.8058 0.8058
3500.000000 0.8057 0.8057 0.8056 0.8055 0.8054
3495.000000 0.8053 0.8051 0.8051 0.8051 0.8050
3490.000000 0.8049 0.8048 0.8047 0.8046 0.8045
3485.000000 0.8044 0.8043 0.8042 0.8042 0.8041
3480.000000 0.8040 0.8039 0.8038 0.8037 0.8036
3475.000000 0.8035 0.8034 0.8033 0.8032 0.8031
3470.000000 0.8031 0.8030 0.8028 0.8028 0.8026
3465.000000 0.8025 0.8025 0.8025 0.8024 0.8022
3460.000000 0.8021 0.8021 0.8021 0.8019 0.8018
3455.000000 0.8018 0.8017 0.8015 0.8015 0.8015
3450.000000 0.8014 0.8012 0.8011 0.8011 0.8011
3445.000000 0.8010 0.8008 0.8008 0.8007 0.8006
3440.000000 0.8006 0.8005 0.8004 0.8003 0.8003
3435.000000 0.8001 0.8001 0.8001 0.8001 0.8000
3430.000000 0.8000 0.7999 0.7999 0.7999 0.7999
3425.000000 0.7999 0.7998 0.7998 0.7997 0.7997
3420.000000 0.7997 0.7996 0.7996 0.7995 0.7995
3415.000000 0.7994 0.7994 0.7994 0.7994 0.7994
3410.000000 0.7993 0.7993 0.7992 0.7992 0.7992
3405.000000 0.7991 0.7991 0.7991 0.7991 0.7991
3400.000000 0.7991 0.7991 0.7991 0.7991 0.7992
3395.000000 0.7992 0.7992 0.7992 0.7993 0.7993
3390.000000 0.7993 0.7993 0.7993 0.7994 0.7994
3385.000000 0.7994 0.7994 0.7994 0.7995 0.7995
3380.000000 0.7996 0.7996 0.7997 0.7997 0.7997
3375.000000 0.7997 0.7997 0.7998 0.7998 0.7998
3370.000000 0.7998 0.7999 0.7999 0.8000 0.8000
3365.000000 0.8000 0.8001 0.8001 0.8003 0.8004
3360.000000 0.8005 0.8005 0.8006 0.8007 0.8007
3355.000000 0.8008 0.8008 0.8008 0.8010 0.8011
3350.000000 0.8011 0.8011 0.8012 0.8012 0.8014
3345.000000 0.8015 0.8015 0.8015 0.8017 0.8017
3340.000000 0.8018 0.8018 0.8018 0.8019 0.8021
3335.000000 0.8021 0.8021 0.8022 0.8024 0.8025
3330.000000 0.8025 0.8025 0.8026 0.8028 0.8028
3325.000000 0.8028 0.8030 0.8030 0.8031 0.8032
3320.000000 0.8033 0.8033 0.8034 0.8035 0.8035
3315.000000 0.8036 0.8037 0.8037 0.8038 0.8039
3310.000000 0.8039 0.8040 0.8041 0.8041 0.8042
3305.000000 0.8042 0.8043 0.8043 0.8044 0.8045
3300.000000 0.8045 0.8046 0.8047 0.8047 0.8047
3295.000000 0.8048 0.8048 0.8049 0.8049 0.8050
3290.000000 0.8050 0.8051 0.8051 0.8051 0.8051
3285.000000 0.8053 0.8053 0.8053 0.8054 0.8054
3280.000000 0.8055 0.8055 0.8056 0.8056 0.8057
3275.000000 0.8057 0.8058 0.8058 0.8058 0.8058
3270.000000 0.8060 0.8060 0.8060 0.8061 0.8061
3265.000000 0.8061 0.8061 0.8062 0.8064 0.8064
3260.000000 0.8065 0.8065 0.8065 0.8067 0.8067
3255.000000 0.8068 0.8068 0.8068 0.8068 0.8068
3250.000000 0.8069 0.8069 0.8071 0.8071 0.8071
3245.000000 0.8071 0.8072 0.8072 0.8074 0.8074
3240.000000 0.8075 0.8075 0.8075 0.8075 0.8076
3235.000000 0.8076 0.8078 0.8078 0.8078 0.8078
3230.000000 0.8078 0.8080 0.8081 0.8082 0.8082
3225.000000 0.8083 0.8083 0.8084 0.8084 0.8085
3220.000000 0.8085 0.8086 0.8086 0.8087 0.8087
3215.000000 0.8088 0.8088 0.8089 0.8089 0.8090
3210.000000 0.8090 0.8091 0.8091 0.8092 0.8092
3205.000000 0.8093 0.8093 0.8094 0.8094 0.8095
3200.000000 0.8095 0.8095 0.8096 0.8096 0.8097
3195.000000 0.8097 0.8098 0.8098 0.8099 0.8100
3190.000000 0.8101 0.8101 0.8101 0.8101 0.8103
3185.000000 0.8103 0.8104 0.8104 0.8105 0.8105
3180.000000 0.8106 0.8106 0.8107 0.8107 0.8108
3175.000000 0.8108 0.8108 0.8108 0.8110 0.8110
3170.000000 0.8111 0.8111 0.8111 0.8111 0.8112
3165.000000 0.8112 0.8114 0.8114 0.8115 0.8115
3160.000000 0.8115 0.8115 0.8117 0.8117 0.8118
3155.000000 0.8118 0.8118 0.8119 0.8121 0.8121
3150.000000 0.8121 0.8121 0.8122 0.8122 0.8124
3145.000000 0.8124 0.8125 0.8125 0.8125 0.8125
3140.000000 0.8126 0.8126 0.8128 0.8128 0.8128
3135.000000 0.8128 0.8128 0.8128 0.8128 0.8128
3130.000000 0.8128 0.8128 0.8130 0.8130 0.8130
3125.000000 0.8131 0.8131 0.8131 0.8131 0.8132
3120.000000 0.8132 0.8132 0.8132 0.8133 0.8133
3115.000000 0.8133 0.8133 0.8133 0.8133 0.8133
3110.000000 0.8133 0.8134 0.8134 0.8134 0.8134
3105.000000 0.8135 0.8135 0.8135 0.8135 0.8136
3100.000000 0.8136 0.8136 0.8136 0.8137 0.8137
3095.000000 0.8137 0.8137 0.8137 0.8137 0.8137
3090.000000 0.8138 0.8138 0.8138 0.8138 0.8139
3085.000000 0.8139 0.8139 0.8139 0.8140 0.8140
3080.000000 0.8140 0.8140 0.8141 0.8141 0.8141
3075.000000 0.8142 0.8142 0.8142 0.8142 0.8142
3070.000000 0.8142 0.8142 0.8142 0.8143 0.8143
3065.000000 0.8143 0.8143 0.8144 0.8144 0.8144
3060.000000 0.8144 0.8145 0.8145 0.8145 0.8145
3055.000000 0.8145 0.8145 0.8145 0.8145 0.8145
3050.000000 0.8145 0.8145 0.8145 0.8145 0.8145
3045.000000 0.8145 0.8145 0.8145 0.8145 0.8145
3040.000000 0.8145 0.8145 0.8145 0.8146 0.8146
3035.000000 0.8146 0.8146 0.8146 0.8146 0.8146
3030.000000 0.8146 0.8146 0.8146 0.8146 0.8146
3025.000000 0.8146 0.8146 0.8146 0.8146 0.8146
3020.000000 0.8146 0.8146 0.8146 0.8146 0.8146
3015.000000 0.8146 0.8146 0.8146 0.8147 0.8147
3010.000000 0.8147 0.8147 0.8147 0.8147 0.8147
3005.000000 0.8147 0.8147 0.8147 0.8147 0.8147
3000.000000 0.8147 0.8147 0.8147 0.8147 0.8147
2995.000000 0.8147 0.8146 0.8146 0.8146 0.8146
2990.000000 0.8146 0.8146 0.8146 0.8146 0.8145
2985.000000 0.8145 0.8145 0.8144 0.8144 0.8144
2980.000000 0.8144 0.8144 0.8144 0.8144 0.8143
2975.000000 0.8143 0.8143 0.8143 0.8143 0.8143
2970.000000 0.8143 0.8142 0.8142 0.8142 0.8142
2965.000000 0.8142 0.8142 0.8142 0.8141 0.8141
2960.000000 0.8141 0.8141 0.8141 0.8141 0.8141
2955.000000 0.8140 0.8140 0.8140 0.8140 0.8139
2950.000000 0.8139 0.8139 0.8138 0.8138 0.8138
2945.000000 0.8138 0.8137 0.8137 0.8137 0.8137
2940.000000 0.8137 0.8137 0.8137 0.8136 0.8136
2935.000000 0.8136 0.8135 0.8135 0.8135 0.8135
2930.000000 0.8134 0.8134 0.8134 0.8133 0.8133
2925.000000 0.8133 0.8133 0.8132 0.8132 0.8132
2920.000000 0.8131 0.8131 0.8131 0.8130 0.8130
2915.000000 0.8130 0.8130 0.8128 0.8128 0.8128
2910.000000 0.8128 0.8128 0.8128 0.8128 0.8126
2905.000000 0.8126 0.8126 0.8125 0.8125 0.8125
2900.000000 0.8125 0.8125 0.8125 0.8125 0.8124
2895.000000 0.8124 0.8124 0.8122 0.8122 0.8121
2890.000000 0.8121 0.8121 0.8119 0.8119 0.8118
2885.000000 0.8118 0.8118 0.8118 0.8118 0.8117
2880.000000 0.8115 0.8115 0.8115 0.8115 0.8114
2875.000000 0.8114 0.8114 0.8112 0.8112 0.8111
2870.000000 0.8111 0.8111 0.8110 0.8110 0.8108
2865.000000 0.8108 0.8108 0.8108 0.8110 0.8110
2860.000000 0.8111 0.8111 0.8111 0.8112 0.8112
2855.000000 0.8114 0.8114 0.8115 0.8115 0.8115
2850.000000 0.8117 0.8118 0.8118 0.8118 0.8119
2845.000000 0.8121 0.8121 0.8121 0.8122 0.8122
2840.000000 0.8124 0.8125 0.8125 0.8125 0.8126
2835.000000 0.8126 0.8128 0.8128 0.8128 0.8130
2830.000000 0.8130 0.8131 0.8132 0.8132 0.8133
2825.000000 0.8133 0.8135 0.8137 0.8139 0.8141
2820.000000 0.8143 0.8145 0.8146 0.8148 0.8150
2815.000000 0.8151 0.8154 0.8156 0.8158 0.8160
2810.000000 0.8161 0.8164 0.8165 0.8168 0.8169
2805.000000 0.8171 0.8174 0.8175 0.8178 0.8180
2800.000000 0.8182 0.8184 0.8185 0.8187 0.8189
2795.000000 0.8191 0.8193 0.8195 0.8197 0.8199
2790.000000 0.8201 0.8202 0.8204 0.8206 0.8208
2785.000000 0.8209 0.8211 0.8213 0.8215 0.8216
2780.000000 0.8218 0.8220 0.8221 0.8224 0.8225
2775.000000 0.8228 0.8230 0.8231 0.8233 0.8235
2770.000000 0.8236 0.8238 0.8239 0.8241 0.8243
2765.000000 0.8244 0.8246 0.8248 0.8249 0.8251
2760.000000 0.8252 0.8254 0.8256 0.8257 0.8259
2755.000000 0.8261 0.8262 0.8264 0.8266 0.8267
2750.000000 0.8268 0.8271 0.8271 0.8274 0.8275
2745.000000 0.8275 0.8278 0.8278 0.8280 0.8281
2740.000000 0.8281 0.8282 0.8283 0.8284 0.8285
2735.000000 0.8286 0.8286 0.8287 0.8288 0.8289
2730.000000 0.8290 0.8291 0.8291 0.8292 0.8293
2725.000000 0.8294 0.8295 0.8296 0.8296 0.8296
2720.000000 0.8295 0.8295 0.8295 0.8294 0.8294
2715.000000 0.8294 0.8293 0.8293 0.8293 0.8292
2710.000000 0.8292 0.8292 0.8291 0.8290 0.8290
2705.000000 0.8288 0.8287 0.8285 0.8284 0.8282
2700.000000 0.8281 0.8278 0.8277 0.8275 0.8274
2695.000000 0.8273 0.8271 0.8270 0.8268 0.8267
2690.000000 0.8266 0.8265 0.8263 0.8262 0.8261
2685.000000 0.8260 0.8259 0.8257 0.8256 0.8255
2680.000000 0.8253 0.8252 0.8250 0.8249 0.8248
2675.000000 0.8246 0.8245 0.8244 0.8243 0.8242
2670.000000 0.8241 0.8240 0.8239 0.8239 0.8238
2665.000000 0.8237 0.8237 0.8236 0.8235 0.8235
2660.000000 0.8234 0.8233 0.8232 0.8232 0.8231
2655.000000 0.8230 0.8230 0.8228 0.8228 0.8227
2650.000000 0.8227 0.8225 0.8225 0.8225 0.8224
2645.000000 0.8223 0.8221 0.8221 0.8221 0.8220
2640.000000 0.8218 0.8218 0.8217 0.8216 0.8215
2635.000000 0.8214 0.8213 0.8213 0.8212 0.8211
2630.000000 0.8210 0.8209 0.8208 0.8207 0.8206
2625.000000 0.8206 0.8206 0.8206 0.8206 0.8206
2620.000000 0.8205 0.8205 0.8205 0.8205 0.8205
2615.000000 0.8205 0.8206 0.8207 0.8208 0.8209
2610.000000 0.8211 0.8212 0.8214 0.8215 0.8217
2605.000000 0.8220 0.8221 0.8224 0.8225 0.8228
2600.000000 0.8231 0.8233 0.8235 0.8238 0.8241
2595.000000 0.8243 0.8245 0.8247 0.8250 0.8252
2590.000000 0.8254 0.8257 0.8259 0.8262 0.8264
2585.000000 0.8266 0.8268 0.8271 0.8271 0.8273
2580.000000 0.8274 0.8275 0.8275 0.8275 0.8275
2575.000000 0.8277 0.8278 0.8278 0.8278 0.8278
2570.000000 0.8280 0.8281 0.8281 0.8281 0.8282
2565.000000 0.8283 0.8284 0.8284 0.8284 0.8285
2560.000000 0.8286 0.8286 0.8287 0.8287 0.8288
2555.000000 0.8288 0.8289 0.8290 0.8290 0.8291
2550.000000 0.8291 0.8292 0.8293 0.8293 0.8293
2545.000000 0.8294 0.8295 0.8296 0.8296 0.8296
2540.000000 0.8297 0.8297 0.8298 0.8298 0.8298
2535.000000 0.8299 0.8299 0.8299 0.8300 0.8300
2530.000000 0.8301 0.8301 0.8301 0.8302 0.8302
2525.000000 0.8303 0.8303 0.8304 0.8305 0.8305
2520.000000 0.8306 0.8306 0.8306 0.8307 0.8307
2515.000000 0.8308 0.8308 0.8308 0.8309 0.8309
2510.000000 0.8310 0.8310 0.8310 0.8311 0.8311
2505.000000 0.8312 0.8312 0.8312 0.8313 0.8314
2500.000000 0.8315 0.8315 0.8315 0.8316 0.8316
2495.000000 0.8317 0.8317 0.8318 0.8318 0.8318
2490.000000 0.8320 0.8320 0.8320 0.8321 0.8321
2485.000000 0.8323 0.8323 0.8323 0.8324 0.8325
2480.000000 0.8325 0.8325 0.8325 0.8327 0.8327
2475.000000 0.8328 0.8328 0.8328 0.8330 0.8330
2470.000000 0.8331 0.8331 0.8331 0.8332 0.8333
2465.000000 0.8334 0.8334 0.8335 0.8335 0.8335
2460.000000 0.8336 0.8337 0.8338 0.8338 0.8338
2455.000000 0.8339 0.8340 0.8341 0.8341 0.8341
2450.000000 0.8342 0.8342 0.8343 0.8343 0.8344
2445.000000 0.8344 0.8344 0.8344 0.8344 0.8345
2440.000000 0.8345 0.8346 0.8346 0.8346 0.8347
2435.000000 0.8347 0.8347 0.8347 0.8347 0.8348
2430.000000 0.8348 0.8349 0.8349 0.8349 0.8349
2425.000000 0.8349 0.8350 0.8350 0.8351 0.8351
2420.000000 0.8352 0.8352 0.8352 0.8352 0.8353
2415.000000 0.8354 0.8355 0.8357 0.8357 0.8358
2410.000000 0.8360 0.8361 0.8362 0.8363 0.8364
2405.000000 0.8365 0.8366 0.8367 0.8368 0.8368
2400.000000 0.8371 0.8371 0.8373 0.8373 0.8375
2395.000000 0.8375 0.8377 0.8378 0.8378 0.8380
2390.000000 0.8381 0.8382 0.8383 0.8384 0.8385
2385.000000 0.8386 0.8387 0.8387 0.8387 0.8387
2380.000000 0.8386 0.8386 0.8385 0.8385 0.8384
2375.000000 0.8384 0.8383 0.8383 0.8383 0.8382
2370.000000 0.8382 0.8381 0.8381 0.8380 0.8380
2365.000000 0.8378 0.8378 0.8378 0.8378 0.8378
2360.000000 0.8378 0.8378 0.8378 0.8378 0.8380
2355.000000 0.8380 0.8380 0.8380 0.8380 0.8380
2350.000000 0.8380 0.8381 0.8381 0.8381 0.8381
2345.000000 0.8381 0.8381 0.8381 0.8381 0.8381
2340.000000 0.8382 0.8382 0.8382 0.8382 0.8382
2335.000000 0.8382 0.8383 0.8383 0.8383 0.8383
2330.000000 0.8383 0.8383 0.8383 0.8384 0.8384
2325.000000 0.8384 0.8384 0.8384 0.8384 0.8385
2320.000000 0.8385 0.8386 0.8387 0.8387 0.8388
2315.000000 0.8388 0.8389 0.8390 0.8391 0.8391
2310.000000 0.8392 0.8392 0.8393 0.8394 0.8395
2305.000000 0.8395 0.8396 0.8397 0.8398 0.8398
2300.000000 0.8398 0.8399 0.8400 0.8401 0.8401
2295.000000 0.8402 0.8403 0.8404 0.8406 0.8407
2290.000000 0.8409 0.8410 0.8411 0.8413 0.8414
2285.000000 0.8416 0.8417 0.8418 0.8420 0.8421
2280.000000 0.8423 0.8424 0.8425 0.8427 0.8428
2275.000000 0.8430 0.8432 0.8433 0.8435 0.8436
2270.000000 0.8437 0.8439 0.8440 0.8442 0.8443
2265.000000 0.8445 0.8446 0.8448 0.8449 0.8451
2260.000000 0.8452 0.8454 0.8455 0.8456 0.8457
2255.000000 0.8458 0.8459 0.8460 0.8461 0.8461
2250.000000 0.8462 0.8463 0.8464 0.8465 0.8466
2245.000000 0.8467 0.8468 0.8468 0.8470 0.8470
2240.000000 0.8471 0.8471 0.8473 0.8474 0.8475
2235.000000 0.8475 0.8477 0.8478 0.8478 0.8478
2230.000000 0.8480 0.8481 0.8482 0.8483 0.8484
2225.000000 0.8485 0.8486 0.8487 0.8488 0.8488
2220.000000 0.8489 0.8490 0.8491 0.8492 0.8493
2215.000000 0.8494 0.8495 0.8496 0.8497 0.8497
2210.000000 0.8498 0.8499 0.8500 0.8500 0.8501
2205.000000 0.8502 0.8503 0.8503 0.8504 0.8505
2200.000000 0.8506 0.8506 0.8507 0.8508 0.8509
2195.000000 0.8509 0.8510 0.8511 0.8512 0.8513
2190.000000 0.8514 0.8515 0.8515 0.8516 0.8517
2185.000000 0.8518 0.8518 0.8518 0.8520 0.8521
2180.000000 0.8521 0.8521 0.8523 0.8524 0.8525
2175.000000 0.8525 0.8525 0.8527 0.8528 0.8528
2170.000000 0.8530 0.8531 0.8532 0.8532 0.8533
2165.000000 0.8534 0.8535 0.8535 0.8536 0.8537
2160.000000 0.8538 0.8538 0.8539 0.8541 0.8541
2155.000000 0.8542 0.8543 0.8544 0.8544 0.8545
2150.000000 0.8546 0.8547 0.8548 0.8549 0.8550
2145.000000 0.8552 0.8553 0.8554 0.8555 0.8556
2140.000000 0.8557 0.8558 0.8559 0.8560 0.8561
2135.000000 0.8562 0.8564 0.8565 0.8566 0.8567
2130.000000 0.8567 0.8568 0.8568 0.8571 0.8571
2125.000000 0.8573 0.8574 0.8575 0.8575 0.8577
2120.000000 0.8578 0.8578 0.8580 0.8581 0.8582
2115.000000 0.8584 0.8585 0.8586 0.8586 0.8587
2110.000000 0.8588 0.8589 0.8589 0.8590 0.8591
2105.000000 0.8591 0.8592 0.8592 0.8593 0.8593
2100.000000 0.8594 0.8596 0.8596 0.8597 0.8597
2095.000000 0.8598 0.8598 0.8599 0.8600 0.8600
2090.000000 0.8601 0.8602 0.8603 0.8603 0.8604
2085.000000 0.8605 0.8605 0.8606 0.8606 0.8607
2080.000000 0.8608 0.8609 0.8610 0.8611 0.8612
2075.000000 0.8612 0.8613 0.8614 0.8615 0.8616
2070.000000 0.8617 0.8618 0.8618 0.8618 0.8621
2065.000000 0.8621 0.8623 0.8623 0.8624 0.8625
2060.000000 0.8625 0.8627 0.8628 0.8628 0.8628
2055.000000 0.8631 0.8632 0.8632 0.8633 0.8633
2050.000000 0.8634 0.8634 0.8634 0.8634 0.8634
2045.000000 0.8635 0.8635 0.8635 0.8635 0.8635
2040.000000 0.8635 0.8635 0.8635 0.8636 0.8636
2035.000000 0.8636 0.8636 0.8636 0.8636 0.8636
2030.000000 0.8636 0.8637 0.8637 0.8637 0.8637
2025.000000 0.8637 0.8636 0.8636 0.8636 0.8636
2020.000000 0.8636 0.8636 0.8636 0.8635 0.8635
2015.000000 0.8635 0.8635 0.8635 0.8635 0.8634
2010.000000 0.8634 0.8634 0.8635 0.8635 0.8636
2005.000000 0.8636 0.8636 0.8637 0.8637 0.8638
2000.000000 0.8639 0.8639 0.8640 0.8640 0.8641
1995.000000 0.8642 0.8642 0.8644 0.8646 0.8648
1990.000000 0.8650 0.8652 0.8654 0.8656 0.8658
1985.000000 0.8660 0.8662 0.8664 0.8667 0.8668
1980.000000 0.8670 0.8671 0.8674 0.8677 0.8678
1975.000000 0.8681 0.8683 0.8685 0.8686 0.8687
1970.000000 0.8689 0.8690 0.8691 0.8691 0.8693
1965.000000 0.8694 0.8695 0.8697 0.8698 0.8698
1960.000000 0.8700 0.8701 0.8702 0.8703 0.8705
1955.000000 0.8706 0.8707 0.8708 0.8709 0.8710
1950.000000 0.8712 0.8713 0.8715 0.8717 0.8718
1945.000000 0.8721 0.8723 0.8725 0.8725 0.8728
1940.000000 0.8730 0.8732 0.8734 0.8736 0.8738
1935.000000 0.8740 0.8742 0.8744 0.8746 0.8748
1930.000000 0.8751 0.8753 0.8755 0.8757 0.8759
1925.000000 0.8760 0.8762 0.8764 0.8765 0.8767
1920.000000 0.8768 0.8771 0.8771 0.8774 0.8775
1915.000000 0.8778 0.8780 0.8781 0.8783 0.8785
1910.000000 0.8786 0.8788 0.8788 0.8788 0.8787
1905.000000 0.8787 0.8786 0.8786 0.8785 0.8785
1900.000000 0.8785 0.8784 0.8784 0.8784 0.8783
1895.000000 0.8782 0.8781 0.8778 0.8777 0.8775
1890.000000 0.8773 0.8771 0.8770 0.8768 0.8767
1885.000000 0.8767 0.8767 0.8766 0.8766 0.8767
1880.000000 0.8768 0.8768 0.8771 0.8771 0.8774
1875.000000 0.8775 0.8778 0.8780 0.8782 0.8785
1870.000000 0.8788 0.8792 0.8795 0.8798 0.8801
1865.000000 0.8803 0.8806 0.8809 0.8813 0.8816
1860.000000 0.8818 0.8821 0.8824 0.8825 0.8825
1855.000000 0.8828 0.8830 0.8832 0.8833 0.8835
1850.000000 0.8836 0.8837 0.8838 0.8840 0.8841
1845.000000 0.8841 0.8841 0.8841 0.8841 0.8841
1840.000000 0.8840 0.8840 0.8840 0.8840 0.8841
1835.000000 0.8842 0.8844 0.8844 0.8845 0.8846
1830.000000 0.8847 0.8847 0.8848 0.8849 0.8850
1825.000000 0.8850 0.8851 0.8852 0.8853 0.8853
1820.000000 0.8854 0.8855 0.8856 0.8856 0.8857
1815.000000 0.8858 0.8859 0.8859 0.8860 0.8861
1810.000000 0.8862 0.8862 0.8863 0.8864 0.8865
1805.000000 0.8865 0.8865 0.8866 0.8867 0.8868
1800.000000 0.8868 0.8868 0.8868 0.8870 0.8870
1795.000000 0.8871 0.8871 0.8871 0.8873 0.8873
1790.000000 0.8874 0.8874 0.8875 0.8875 0.8875
1785.000000 0.8875 0.8877 0.8878 0.8878 0.8878
1780.000000 0.8881 0.8883 0.8885 0.8887 0.8889
1775.000000 0.8891 0.8893 0.8895 0.8897 0.8899
1770.000000 0.8901 0.8903 0.8906 0.8907 0.8909
1765.000000 0.8911 0.8913 0.8914 0.8915 0.8917
1760.000000 0.8918 0.8918 0.8921 0.8921 0.8923
1755.000000 0.8925 0.8925 0.8927 0.8928 0.8930
1750.000000 0.8931 0.8932 0.8933 0.8934 0.8934
1745.000000 0.8934 0.8935 0.8935 0.8936 0.8936
1740.000000 0.8936 0.8937 0.8937 0.8938 0.8938
1735.000000 0.8938 0.8939 0.8939 0.8940 0.8940
1730.000000 0.8940 0.8940 0.8940 0.8940 0.8940
1725.000000 0.8940 0.8940 0.8940 0.8940 0.8940
1720.000000 0.8940 0.8940 0.8940 0.8940 0.8940
1715.000000 0.8941 0.8942 0.8943 0.8944 0.8945
1710.000000 0.8945 0.8947 0.8948 0.8949 0.8950
1705.000000 0.8951 0.8952 0.8952 0.8953 0.8954
1700.000000 0.8955 0.8956 0.8957 0.8957 0.8958
1695.000000 0.8958 0.8959 0.8959 0.8960 0.8961
1690.000000 0.8961 0.8961 0.8961 0.8960 0.8958
1685.000000 0.8956 0.8954 0.8952 0.8950 0.8948
1680.000000 0.8946 0.8945 0.8943 0.8939 0.8935
1675.000000 0.8931 0.8927 0.8923 0.8918 0.8915
1670.000000 0.8911 0.8907 0.8903 0.8899 0.8895
1665.000000 0.8891 0.8887 0.8884 0.8881 0.8878
1660.000000 0.8875 0.8871 0.8868 0.8866 0.8864
1655.000000 0.8861 0.8858 0.8856 0.8855 0.8853
1650.000000 0.8851 0.8850 0.8849 0.8847 0.8846
1645.000000 0.8844 0.8842 0.8840 0.8839 0.8838
1640.000000 0.8838 0.8838 0.8838 0.8838 0.8838
1635.000000 0.8838 0.8838 0.8838 0.8838 0.8838
1630.000000 0.8839 0.8842 0.8847 0.8851 0.8855
1625.000000 0.8859 0.8863 0.8867 0.8871 0.8875
1620.000000 0.8878 0.8883 0.8887 0.8891 0.8895
1615.000000 0.8898 0.8902 0.8905 0.8909 0.8913
1610.000000 0.8916 0.8918 0.8918 0.8920 0.8921
1605.000000 0.8921 0.8923 0.8923 0.8924 0.8925
1600.000000 0.8925 0.8925 0.8925 0.8925 0.8928
1595.000000 0.8931 0.8934 0.8937 0.8940 0.8943
1590.000000 0.8946 0.8952 0.8962 0.8975 0.8988
1585.000000 0.9002 0.9018 0.9034 0.9051 0.9068
1580.000000 0.9085 0.9101 0.9117 0.9131 0.9137
1575.000000 0.9141 0.9145 0.9148 0.9147 0.9146
1570.000000 0.9145 0.9145 0.9144 0.9141 0.9137
1565.000000 0.9133 0.9130 0.9125 0.9115 0.9103
1560.000000 0.9093 0.9085 0.9077 0.9068 0.9060
1555.000000 0.9052 0.9043 0.9035 0.9025 0.9015
1550.000000 0.9004 0.8994 0.8985 0.8975 0.8968
1545.000000 0.8962 0.8961 0.8966 0.8971 0.8975
1540.000000 0.8980 0.8985 0.8990 0.8996 0.9002
1535.000000 0.9007 0.9012 0.9018 0.9024 0.9028
1530.000000 0.9034 0.9041 0.9046 0.9052 0.9058
1525.000000 0.9064 0.9070 0.9075 0.9081 0.9087
1520.000000 0.9093 0.9099 0.9105 0.9111 0.9117
1515.000000 0.9124 0.9131 0.9138 0.9145 0.9152
1510.000000 0.9159 0.9167 0.9173 0.9178 0.9184
1505.000000 0.9189 0.9194 0.9199 0.9205 0.9210
1500.000000 0.9214 0.9215 0.9216 0.9217 0.9218
1495.000000 0.9218 0.9218 0.9218 0.9216 0.9213
1490.000000 0.9210 0.9208 0.9204 0.9202 0.9199
1485.000000 0.9198 0.9197 0.9196 0.9194 0.9192
1480.000000 0.9191 0.9190 0.9189 0.9188 0.9186
1475.000000 0.9186 0.9188 0.9189 0.9190 0.9190
1470.000000 0.9193 0.9200 0.9207 0.9215 0.9221
1465.000000 0.9230 0.9237 0.9244 0.9250 0.9257
1460.000000 0.9263 0.9270 0.9275 0.9282 0.9289
1455.000000 0.9295 0.9300 0.9303 0.9307 0.9310
1450.000000 0.9314 0.9317 0.9321 0.9318 0.9310
1445.000000 0.9301 0.9290 0.9275 0.9258 0.9240
1440.000000 0.9224 0.9221 0.9218 0.9215 0.9213
1435.000000 0.9211 0.9210 0.9209 0.9208 0.9205
1430.000000 0.9204 0.9198 0.9189 0.9178 0.9168
1425.000000 0.9160 0.9151 0.9143 0.9134 0.9125
1420.000000 0.9117 0.9108 0.9102 0.9098 0.9094
1415.000000 0.9092 0.9090 0.9089 0.9089 0.9093
1410.000000 0.9099 0.9104 0.9110 0.9116 0.9121
1405.000000 0.9128 0.9134 0.9140 0.9146 0.9153
1400.000000 0.9159 0.9167 0.9177 0.9186 0.9200
1395.000000 0.9215 0.9230 0.9245 0.9260 0.9275
1390.000000 0.9290 0.9305 0.9321 0.9347 0.9367
1385.000000 0.9381 0.9393 0.9405 0.9417 0.9428
1380.000000 0.9433 0.9438 0.9443 0.9449 0.9452
1375.000000 0.9454 0.9457 0.9459 0.9461 0.9463
1370.000000 0.9465 0.9468 0.9470 0.9471 0.9475
1365.000000 0.9478 0.9485 0.9490 0.9497 0.9503
1360.000000 0.9513 0.9530 0.9547 0.9560 0.9573
1355.000000 0.9587 0.9599 0.9612 0.9625 0.9639
1350.000000 0.9653 0.9668 0.9683 0.9697 0.9709
1345.000000 0.9721 0.9732 0.9741 0.9750 0.9759
1340.000000 0.9770 0.9782 0.9788 0.9794 0.9798
1335.000000 0.9801 0.9802 0.9793 0.9781 0.9775
1330.000000 0.9770 0.9783 0.9800 0.9817 0.9835
1325.000000 0.9852 0.9870 0.9887 0.9897 0.9903
1320.000000 0.9909 0.9908 0.9908 0.9906 0.9903
1315.000000 0.9900 0.9899 0.9897 0.9896 0.9894
1310.000000 0.9892 0.9891 0.9891 0.9891 0.9892
1305.000000 0.9893 0.9894 0.9894 0.9896 0.9900
1300.000000 0.9904 0.9908 0.9912 0.9916 0.9921
1295.000000 0.9928 0.9935 0.9944 0.9954 0.9963
1290.000000 0.9966 0.9965 0.9965 0.9964 0.9964
1285.000000 0.9964 0.9966 0.9967 0.9968 0.9970
1280.000000 0.9971 0.9973 0.9975 0.9977 0.9980
1275.000000 0.9982 0.9985 0.9988 0.9990 0.9993
1270.000000 0.9996 0.9999 1.0001 1.0003 1.0005
1265.000000 1.0008 1.0010 1.0013 1.0015 1.0018
1260.000000 1.0021 1.0024 1.0027 1.0028 1.0032
1255.000000 1.0036 1.0037 1.0038 1.0039 1.0040
1250.000000 1.0041 1.0042 1.0043 1.0044 1.0045
1245.000000 1.0046 1.0047 1.0048 1.0049 1.0050
1240.000000 1.0052 1.0052 1.0054 1.0055 1.0055
1235.000000 1.0056 1.0057 1.0058 1.0059 1.0059
1230.000000 1.0061 1.0062 1.0062 1.0063 1.0064
1225.000000 1.0065 1.0068 1.0071 1.0071 1.0075
1220.000000 1.0078 1.0080 1.0082 1.0085 1.0087
1215.000000 1.0089 1.0090 1.0091 1.0092 1.0093
1210.000000 1.0094 1.0095 1.0096 1.0098 1.0098
1205.000000 1.0100 1.0101 1.0102 1.0103 1.0104
1200.000000 1.0105 1.0107 1.0108 1.0105 1.0110
1195.000000 1.0112 1.0112 1.0114 1.0115 1.0117
1190.000000 1.0117 1.0118 1.0120 1.0121 1.0121
1185.000000 1.0124 1.0125 1.0125 1.0127 1.0127
1180.000000 1.0128 1.0128 1.0130 1.0131 1.0132
1175.000000 1.0133 1.0133 1.0130 1.0125 1.0123
1170.000000 1.0118 1.0115 1.0112 1.0109 1.0106
1165.000000 1.0104 1.0101 1.0098 1.0095 1.0088
1160.000000 1.0082 1.0075 1.0068 1.0064 1.0062
1155.000000 1.0059 1.0057 1.0055 1.0052 1.0050
1150.000000 1.0048 1.0045 1.0041 1.0037 1.0033
1145.000000 1.0030 1.0025 1.0023 1.0020 1.0016
1140.000000 1.0012 1.0007 1.0002 0.9994 0.9987
1135.000000 0.9980 0.9975 0.9971 0.9971 0.9971
1130.000000 0.9970 0.9965 0.9961 0.9954 0.9947
1125.000000 0.9939 0.9927 0.9902 0.9854 0.9828
1120.000000 0.9825 0.9820 0.9814 0.9789 0.9740
1115.000000 0.9724 0.9725 0.9735 0.9741 0.9746
1110.000000 0.9743 0.9732 0.9717 0.9700 0.9682
1105.000000 0.9664 0.9652 0.9641 0.9642 0.9642
1100.000000 0.9644 0.9647 0.9650 0.9652 0.9653
1095.000000 0.9654 0.9651 0.9648 0.9645 0.9638
1090.000000 0.9623 0.9609 0.9590 0.9570 0.9552
1085.000000 0.9542 0.9537 0.9534 0.9533 0.9530
1080.000000 0.9524 0.9518 0.9510 0.9498 0.9486
1075.000000 0.9475 0.9462 0.9450 0.9438 0.9428
1070.000000 0.9421 0.9414 0.9408 0.9403 0.9385
1065.000000 0.9362 0.9341 0.9337 0.9337 0.9341
1060.000000 0.9340 0.9325 0.9310 0.9290 0.9275
1055.000000 0.9268 0.9261 0.9249 0.9237 0.9228
1050.000000 0.9228 0.9228 0.9232 0.9243 0.9243
1045.000000 0.9234 0.9225 0.9208 0.9188 0.9168
1040.000000 0.9151 0.9134 0.9124 0.9121 0.9117
1035.000000 0.9115 0.9109 0.9097 0.9083 0.9070
1030.000000 0.9056 0.9042 0.9025 0.9007 0.8989
1025.000000 0.8971 0.8954 0.8937 0.8921 0.8906
1020.000000 0.8891 0.8873 0.8848 0.8821 0.8797
1015.000000 0.8773 0.8752 0.8739 0.8731 0.8725
1010.000000 0.8718 0.8708 0.8686 0.8662 0.8639
1005.000000 0.8627 0.8614 0.8602 0.8584 0.8566
1000.000000 0.8551 0.8668 0.8910 0.8874 0.8761
995.000000 0.8648 0.8595 0.8565 0.8534 0.8502
990.000000 0.8474 0.8452 0.8430 0.8407 0.8382
985.000000 0.8360 0.8341 0.8332 0.8328 0.8325
980.000000 0.8321 0.8310 0.8297 0.8284 0.8270
975.000000 0.8246 0.8221 0.8197 0.8168 0.8142
970.000000 0.8132 0.8124 0.8115 0.8107 0.8099
965.000000 0.8087 0.8075 0.8064 0.8055 0.8046
960.000000 0.8037 0.8028 0.8012 0.7995 0.7978
955.000000 0.7961 0.7943 0.7925 0.7908 0.7890
950.000000 0.7869 0.7850 0.7831 0.7811 0.7796
945.000000 0.7780 0.7762 0.7746 0.7728 0.7711
940.000000 0.7688 0.7667 0.7647 0.7630 0.7614
935.000000 0.7610 0.7608 0.7603 0.7591 0.7578
930.000000 0.7565 0.7549 0.7533 0.7515 0.7500
925.000000 0.7482 0.7462 0.7443 0.7424 0.7407
920.000000 0.7394 0.7381 0.7368 0.7355 0.7342
915.000000 0.7330 0.7317 0.7304 0.7291 0.7278
910.000000 0.7265 0.7251 0.7239 0.7225 0.7212
905.000000 0.7200 0.7187 0.7172 0.7157 0.7141
900.000000 0.7121 0.7087 0.7071 0.7061 0.7056
895.000000 0.7049 0.7039 0.7019 0.7001 0.6983
890.000000 0.6965 0.6946 0.6930 0.6914 0.6898
885.000000 0.6882 0.6867 0.6853 0.6839 0.6825
880.000000 0.6811 0.6799 0.6786 0.6775 0.6762
875.000000 0.6751 0.6740 0.6728 0.6721 0.6711
870.000000 0.6704 0.6701 0.6701 0.6701 0.6705
865.000000 0.6708 0.6678 0.6645 0.6615 0.6586
860.000000 0.6557 0.6542 0.6531 0.6521 0.6510
855.000000 0.6499 0.6488 0.6476 0.6465 0.6454
850.000000 0.6438 0.6421 0.6405 0.6385 0.6362
845.000000 0.6355 0.6349 0.6320 0.6285 0.6237
840.000000 0.6190 0.6170 0.6148 0.6125 0.6100
835.000000 0.6074 0.6049 0.6023 0.6004 0.5986
830.000000 0.5969 0.5952 0.5935 0.5918 0.5900
825.000000 0.5883 0.5868 0.5856 0.5840 0.5822
820.000000 0.5801 0.5764 0.5748 0.5737 0.5726
815.000000 0.5712 0.5678 0.5641 0.5603 0.5559
810.000000 0.5516 0.5478 0.5440 0.5402 0.5357
805.000000 0.5318 0.5281 0.5242 0.5202 0.5157
800.000000 0.5097 0.5021 0.4964 0.4912 0.4885
795.000000 0.4930 0.4986 0.5017 0.5012 0.4986
790.000000 0.4946 0.4886 0.4821 0.4757 0.4673
785.000000 0.4586 0.4498 0.4405 0.4318 0.4242
780.000000 0.4170 0.4108 0.4048 0.3998 0.3958
775.000000 0.3944 0.3934 0.3930 0.3918 0.3900
770.000000 0.3841 0.3759 0.3674 0.3659 0.3634
765.000000 0.3597 0.3508 0.3395 0.3304 0.3227
760.000000 0.3153 0.3084 0.3024 0.2976 0.2931
755.000000 0.2840 0.2868 0.2871 0.2883 0.2895
750.000000 0.2907 0.2930 0.2956 0.2981 0.3006
745.000000 0.3034 0.3065 0.3094 0.3123 0.3155
740.000000 0.3187 0.3218 0.3252 0.3284 0.3316
735.000000 0.3360 0.3408 0.3457 0.3504 0.3550
730.000000 0.3586 0.3621 0.3657 0.3693 0.3728
725.000000 0.3760 0.3795 0.3828 0.3864 0.3902
720.000000 0.3939 0.3975 0.4005 0.4036 0.4071
715.000000 0.4106 0.4138 0.4154 0.4162 0.4171
710.000000 0.4182 0.4193 0.4208 0.4226 0.4245
705.000000 0.4262 0.4281 0.4300 0.4318 0.4336
700.000000 0.4354 0.4372 0.4386 0.4398 0.4409
695.000000 0.4426 0.4443 0.4460 0.4477 0.4494
690.000000 0.4510 0.4527 0.4545 0.4569 0.4592
685.000000 0.4610 0.4630 0.4646 0.4660 0.4668
680.000000 0.4682 0.4712 0.4762 0.4778 0.4798
675.000000 0.4774 0.4779 0.4785
##END=
