##TITLE=ARSENIC TRIOXIDE
##JCAMP-DX=4.24
##DATA TYPE=INFRARED SPECTRUM
##CLASS=COBLENTZ
##ORIGIN=MELLON INSTITUTE
##OWNER=COBLENTZ SOCIETY
Collection (C) 2018 copyright by the U.S. Secretary of Commerce
on behalf of the United States of America. All rights reserved.
##DATE=Not specified, most likely prior to 1970
##NAMES=1,3-dioxodiarsoxane
##MOLFORM=As2 O3
##SOURCE REFERENCE=COBLENTZ NO. 484
##$NIST ID=B6000484
##$NIST SOURCE=COBLENTZ
##$NIST IMAGE=cob484
##SPECTROMETER/DATA SYSTEM=Not specified, most likely a prism, grating, or hybrid spectrometer.
##STATE=SOLID (NUJOL MULL)
$$PURITY UNKNOWN
##PATH LENGTH=
$$SPECTRAL CONTAMINATION DUE TO OIL AROUND 2900, 1450, 1380 CM^-^1
##SAMPLING PROCEDURE=TRANSMISSION
##RESOLUTION=4
##DATA PROCESSING=DIGITIZED BY NIST FROM HARD COPY
##XUNITS=MICROMETERS
##YUNITS=TRANSMITTANCE
##XFACTOR=1.000000
##YFACTOR=1
##DELTAX=000.006832
##FIRSTX=2.064
##LASTX=16.0225
##FIRSTY=0.864
##MAXX=16.0225
##MINX=2.064
##MAXY=0.97
##MINY=0.192
##NPOINTS=2044
##XYDATA=(X++(Y..Y))
2.064000 0.8640 0.8640 0.8640 0.8640 0.8640
2.098178 0.8640 0.8620 0.8620 0.8620 0.8620
2.132000 0.8620 0.8620 0.8620 0.8620 0.8620
2.166178 0.8600 0.8600 0.8620 0.8620 0.8600
2.201000 0.8600 0.8600 0.8600 0.8600 0.8600
2.235178 0.8600 0.8600 0.8600 0.8600 0.8600
2.269000 0.8600 0.8600 0.8600 0.8600 0.8600
2.303178 0.8600 0.8600 0.8600 0.8600 0.8600
2.337000 0.8600 0.8600 0.8600 0.8600 0.8600
2.371178 0.8600 0.8600 0.8600 0.8620 0.8620
2.406000 0.8600 0.8620 0.8620 0.8620 0.8620
2.440178 0.8620 0.8620 0.8620 0.8620 0.8620
2.474000 0.8620 0.8620 0.8620 0.8620 0.8620
2.508178 0.8620 0.8640 0.8640 0.8640 0.8640
2.542000 0.8640 0.8640 0.8640 0.8640 0.8640
2.576178 0.8640 0.8640 0.8640 0.8640 0.8640
2.611000 0.8640 0.8650 0.8650 0.8650 0.8650
2.645178 0.8650 0.8650 0.8650 0.8650 0.8640
2.679000 0.8640 0.8640 0.8640 0.8640 0.8640
2.713178 0.8640 0.8640 0.8640 0.8620 0.8620
2.747000 0.8620 0.8620 0.8620 0.8620 0.8620
2.781178 0.8620 0.8620 0.8620 0.8620 0.8620
2.816000 0.8640 0.8640 0.8640 0.8640 0.8620
2.850178 0.8620 0.8620 0.8620 0.8620 0.8620
2.884000 0.8620 0.8620 0.8620 0.8620 0.8620
2.918178 0.8620 0.8620 0.8600 0.8600 0.8600
2.952000 0.8600 0.8600 0.8620 0.8620 0.8620
2.986178 0.8620 0.8620 0.8620 0.8620 0.8620
3.020000 0.8620 0.8620 0.8620 0.8620 0.8620
3.054178 0.8620 0.8620 0.8620 0.8620 0.8620
3.089000 0.8620 0.8620 0.8620 0.8620 0.8620
3.123178 0.8620 0.8640 0.8640 0.8640 0.8640
3.157000 0.8640 0.8640 0.8640 0.8640 0.8640
3.191178 0.8640 0.8640 0.8640 0.8640 0.8640
3.225000 0.8650 0.8650 0.8650 0.8650 0.8650
3.259178 0.8670 0.8670 0.8670 0.8650 0.8640
3.294000 0.8600 0.8550 0.8470 0.8410 0.8360
3.328178 0.7970 0.7570 0.6760 0.6520 0.6280
3.362000 0.5720 0.5530 0.5340 0.5130 0.5130
3.396178 0.5170 0.5340 0.5510 0.5680 0.5840
3.430000 0.6030 0.6150 0.6130 0.6090 0.6040
3.464178 0.6030 0.6010 0.6010 0.6250 0.6490
3.499000 0.7040 0.7330 0.7660 0.7830 0.8020
3.533178 0.8170 0.8280 0.8330 0.8530 0.8590
3.567000 0.8640 0.8690 0.8710 0.8740 0.8780
3.601178 0.8810 0.8840 0.8860 0.8910 0.8930
3.635000 0.8950 0.8980 0.8980 0.8980 0.9020
3.669178 0.9020 0.9030 0.9050 0.9070 0.9070
3.704000 0.9070 0.9070 0.9070 0.9070 0.9080
3.738178 0.9080 0.9080 0.9100 0.9100 0.9100
3.772000 0.9100 0.9120 0.9120 0.9120 0.9120
3.806178 0.9120 0.9140 0.9140 0.9140 0.9140
3.840000 0.9140 0.9140 0.9140 0.9140 0.9140
3.874178 0.9150 0.9150 0.9150 0.9150 0.9150
3.909000 0.9170 0.9170 0.9170 0.9170 0.9170
3.943178 0.9170 0.9170 0.9170 0.9200 0.9200
3.977000 0.9200 0.9200 0.9220 0.9220 0.9220
4.011178 0.9200 0.9200 0.9200 0.9200 0.9200
4.045000 0.9200 0.9190 0.9190 0.9190 0.9170
4.079178 0.9170 0.9170 0.9170 0.9170 0.9150
4.114000 0.9150 0.9150 0.9140 0.9140 0.9140
4.148178 0.9140 0.9140 0.9140 0.9140 0.9120
4.182000 0.9120 0.9120 0.9100 0.9100 0.9080
4.216178 0.9080 0.9070 0.9070 0.9050 0.9030
4.250000 0.9030 0.9020 0.9020 0.9020 0.9000
4.284178 0.9000 0.9000 0.9000 0.9000 0.9000
4.319000 0.9000 0.9000 0.9000 0.9020 0.9000
4.353178 0.9000 0.9000 0.8980 0.8980 0.8980
4.387000 0.8980 0.8980 0.8980 0.8980 0.8980
4.421178 0.8980 0.8980 0.8980 0.8980 0.8980
4.455000 0.8980 0.8980 0.8980 0.8980 0.8980
4.489178 0.8960 0.8960 0.8960 0.8960 0.8950
4.524000 0.8950 0.8950 0.8950 0.8950 0.8950
4.558178 0.8950 0.8950 0.8950 0.8950 0.8950
4.592000 0.8960 0.8960 0.8960 0.8950 0.8960
4.626178 0.8950 0.8950 0.8950 0.8950 0.8950
4.660000 0.8950 0.8950 0.8950 0.8950 0.8950
4.694178 0.8950 0.8960 0.8960 0.8980 0.8960
4.729000 0.8980 0.8980 0.8980 0.9000 0.9000
4.763178 0.9020 0.9020 0.9020 0.9020 0.9020
4.797000 0.9020 0.9020 0.9030 0.9030 0.9030
4.831178 0.9030 0.9050 0.9050 0.9050 0.9030
4.865000 0.9030 0.9050 0.9050 0.9050 0.9050
4.899178 0.9050 0.9050 0.9070 0.9080 0.9080
4.934000 0.9080 0.9080 0.9080 0.9070 0.9080
4.968178 0.9080 0.9080 0.9080 0.9080 0.9100
5.002000 0.9100 0.9120 0.9140 0.9140 0.9140
5.036178 0.9140 0.9140 0.9140 0.9150 0.9150
5.070000 0.9150 0.9150 0.9150 0.9150 0.9150
5.104178 0.9170 0.9170 0.9170 0.9170 0.9170
5.139000 0.9170 0.9170 0.9150 0.9150 0.9150
5.173178 0.9170 0.9170 0.9170 0.9170 0.9170
5.207000 0.9190 0.9200 0.9200 0.9200 0.9200
5.241178 0.9200 0.9200 0.9200 0.9220 0.9220
5.275000 0.9220 0.9220 0.9220 0.9220 0.9220
5.309178 0.9220 0.9220 0.9220 0.9220 0.9220
5.343000 0.9240 0.9240 0.9240 0.9240 0.9240
5.377178 0.9240 0.9240 0.9240 0.9240 0.9240
5.412000 0.9240 0.9240 0.9240 0.9240 0.9260
5.446178 0.9260 0.9260 0.9260 0.9260 0.9260
5.480000 0.9260 0.9260 0.9260 0.9260 0.9260
5.514178 0.9260 0.9240 0.9240 0.9260 0.9260
5.548000 0.9260 0.9260 0.9270 0.9290 0.9290
5.582178 0.9310 0.9310 0.9320 0.9320 0.9340
5.617000 0.9340 0.9340 0.9340 0.9340 0.9360
5.651178 0.9360 0.9360 0.9360 0.9380 0.9390
5.685000 0.9390 0.9410 0.9410 0.9410 0.9410
5.719178 0.9430 0.9430 0.9430 0.9450 0.9450
5.753000 0.9450 0.9450 0.9450 0.9450 0.9450
5.787178 0.9450 0.9460 0.9460 0.9480 0.9500
5.822000 0.9500 0.9500 0.9500 0.9510 0.9510
5.856178 0.9530 0.9530 0.9530 0.9530 0.9550
5.890000 0.9550 0.9570 0.9570 0.9570 0.9570
5.924178 0.9570 0.9570 0.9570 0.9570 0.9570
5.958000 0.9580 0.9620 0.9620 0.9630 0.9630
5.992178 0.9630 0.9630 0.9630 0.9630 0.9650
6.027000 0.9650 0.9650 0.9650 0.9650 0.9650
6.061178 0.9670 0.9650 0.9650 0.9650 0.9670
6.095000 0.9670 0.9670 0.9670 0.9670 0.9670
6.129178 0.9670 0.9670 0.9670 0.9670 0.9670
6.163000 0.9670 0.9670 0.9670 0.9670 0.9670
6.197178 0.9670 0.9670 0.9690 0.9690 0.9690
6.232000 0.9690 0.9690 0.9690 0.9690 0.9690
6.266178 0.9690 0.9690 0.9690 0.9690 0.9690
6.300000 0.9690 0.9690 0.9690 0.9690 0.9690
6.334178 0.9690 0.9690 0.9670 0.9690 0.9690
6.368000 0.9690 0.9690 0.9690 0.9670 0.9670
6.402178 0.9670 0.9670 0.9670 0.9670 0.9670
6.437000 0.9670 0.9670 0.9670 0.9670 0.9670
6.471178 0.9690 0.9690 0.9690 0.9690 0.9670
6.505000 0.9670 0.9650 0.9670 0.9670 0.9690
6.539178 0.9670 0.9670 0.9670 0.9670 0.9670
6.573000 0.9670 0.9650 0.9650 0.9650 0.9650
6.607178 0.9650 0.9630 0.9630 0.9630 0.9630
6.642000 0.9630 0.9630 0.9630 0.9630 0.9630
6.676178 0.9630 0.9630 0.9630 0.9630 0.9620
6.710000 0.9600 0.9580 0.9570 0.9550 0.9510
6.744178 0.9500 0.9220 0.9030 0.8930 0.8760
6.778000 0.8690 0.8640 0.8550 0.8500 0.8450
6.812178 0.8450 0.8450 0.8450 0.8450 0.8470
6.847000 0.8480 0.8520 0.8550 0.8570 0.8620
6.881178 0.8670 0.8720 0.8790 0.8830 0.8880
6.915000 0.8910 0.8980 0.9000 0.9020 0.9030
6.949178 0.9050 0.9120 0.9170 0.9200 0.9240
6.983000 0.9270 0.9310 0.9320 0.9340 0.9360
7.017178 0.9380 0.9390 0.9410 0.9430 0.9430
7.052000 0.9450 0.9460 0.9460 0.9480 0.9480
7.086178 0.9510 0.9510 0.9530 0.9530 0.9550
7.120000 0.9550 0.9550 0.9550 0.9530 0.9530
7.154178 0.9530 0.9510 0.9510 0.9500 0.9450
7.188000 0.9380 0.9310 0.9240 0.9140 0.9120
7.222178 0.9080 0.9070 0.9070 0.9080 0.9100
7.257000 0.9140 0.9150 0.9170 0.9200 0.9220
7.291178 0.9240 0.9260 0.9260 0.9270 0.9320
7.325000 0.9340 0.9360 0.9380 0.9390 0.9430
7.359178 0.9450 0.9460 0.9460 0.9480 0.9480
7.393000 0.9480 0.9500 0.9510 0.9510 0.9530
7.427178 0.9530 0.9530 0.9550 0.9550 0.9550
7.461000 0.9550 0.9570 0.9570 0.9570 0.9570
7.495178 0.9570 0.9570 0.9570 0.9570 0.9580
7.530000 0.9580 0.9580 0.9570 0.9570 0.9570
7.564178 0.9580 0.9580 0.9580 0.9580 0.9580
7.598000 0.9580 0.9570 0.9570 0.9570 0.9570
7.632178 0.9570 0.9570 0.9570 0.9570 0.9570
7.666000 0.9570 0.9570 0.9570 0.9570 0.9570
7.700178 0.9570 0.9570 0.9570 0.9570 0.9570
7.735000 0.9580 0.9580 0.9580 0.9580 0.9600
7.769178 0.9600 0.9600 0.9620 0.9620 0.9620
7.803000 0.9620 0.9620 0.9620 0.9620 0.9620
7.837178 0.9620 0.9620 0.9620 0.9620 0.9620
7.871000 0.9600 0.9600 0.9600 0.9600 0.9600
7.905178 0.9600 0.9600 0.9600 0.9600 0.9600
7.940000 0.9600 0.9600 0.9600 0.9620 0.9620
7.974178 0.9620 0.9620 0.9600 0.9600 0.9600
8.008000 0.9600 0.9600 0.9600 0.9600 0.9600
8.042178 0.9600 0.9600 0.9600 0.9600 0.9600
8.076000 0.9600 0.9600 0.9600 0.9600 0.9600
8.110178 0.9600 0.9600 0.9600 0.9600 0.9600
8.145000 0.9620 0.9620 0.9620 0.9620 0.9620
8.179178 0.9620 0.9620 0.9620 0.9620 0.9620
8.213000 0.9620 0.9620 0.9620 0.9620 0.9620
8.247178 0.9620 0.9620 0.9630 0.9630 0.9630
8.281000 0.9630 0.9630 0.9630 0.9630 0.9630
8.315178 0.9630 0.9630 0.9630 0.9630 0.9630
8.350000 0.9630 0.9630 0.9630 0.9630 0.9630
8.384178 0.9630 0.9630 0.9630 0.9630 0.9630
8.418000 0.9630 0.9630 0.9650 0.9650 0.9650
8.452178 0.9650 0.9650 0.9650 0.9650 0.9650
8.486000 0.9650 0.9650 0.9650 0.9650 0.9650
8.520178 0.9650 0.9650 0.9650 0.9650 0.9650
8.555000 0.9650 0.9650 0.9650 0.9650 0.9650
8.589178 0.9650 0.9650 0.9650 0.9650 0.9650
8.623000 0.9650 0.9650 0.9650 0.9650 0.9650
8.657178 0.9650 0.9650 0.9650 0.9650 0.9650
8.691000 0.9650 0.9670 0.9670 0.9670 0.9670
8.725178 0.9670 0.9650 0.9650 0.9650 0.9650
8.760000 0.9650 0.9650 0.9650 0.9650 0.9650
8.794178 0.9650 0.9650 0.9650 0.9650 0.9650
8.828000 0.9650 0.9650 0.9650 0.9650 0.9670
8.862178 0.9670 0.9670 0.9650 0.9650 0.9650
8.896000 0.9630 0.9630 0.9630 0.9620 0.9620
8.930178 0.9600 0.9620 0.9620 0.9620 0.9620
8.965000 0.9630 0.9630 0.9630 0.9630 0.9630
8.999178 0.9630 0.9650 0.9650 0.9650 0.9630
9.033000 0.9630 0.9630 0.9630 0.9630 0.9630
9.067178 0.9630 0.9630 0.9620 0.9620 0.9620
9.101000 0.9620 0.9620 0.9620 0.9620 0.9620
9.135178 0.9620 0.9620 0.9620 0.9620 0.9620
9.170000 0.9620 0.9620 0.9600 0.9600 0.9600
9.204178 0.9600 0.9600 0.9600 0.9600 0.9600
9.238000 0.9600 0.9580 0.9580 0.9580 0.9580
9.272178 0.9600 0.9600 0.9600 0.9600 0.9600
9.306000 0.9600 0.9580 0.9580 0.9580 0.9580
9.340178 0.9570 0.9570 0.9570 0.9570 0.9550
9.375000 0.9530 0.9530 0.9510 0.9500 0.9460
9.409178 0.9460 0.9460 0.9460 0.9450 0.9450
9.443000 0.9450 0.9430 0.9410 0.9410 0.9410
9.477178 0.9390 0.9380 0.9360 0.9360 0.9340
9.511000 0.9340 0.9320 0.9320 0.9310 0.9290
9.545178 0.9270 0.9270 0.9270 0.9270 0.9270
9.580000 0.9270 0.9260 0.9260 0.9260 0.9270
9.614178 0.9270 0.9270 0.9270 0.9270 0.9270
9.648000 0.9270 0.9270 0.9290 0.9310 0.9310
9.682178 0.9310 0.9320 0.9320 0.9340 0.9340
9.716000 0.9360 0.9360 0.9360 0.9380 0.9410
9.750178 0.9430 0.9450 0.9460 0.9460 0.9460
9.784000 0.9480 0.9480 0.9480 0.9480 0.9510
9.818178 0.9510 0.9530 0.9530 0.9530 0.9550
9.853000 0.9550 0.9550 0.9550 0.9550 0.9550
9.887178 0.9550 0.9550 0.9570 0.9570 0.9580
9.921000 0.9580 0.9620 0.9620 0.9630 0.9630
9.955178 0.9630 0.9650 0.9650 0.9670 0.9670
9.989000 0.9670 0.9650 0.9670 0.9670 0.9670
10.023178 0.9690 0.9690 0.9690 0.9690 0.9690
10.058000 0.9690 0.9690 0.9690 0.9690 0.9690
10.092178 0.9690 0.9690 0.9690 0.9700 0.9700
10.126000 0.9700 0.9690 0.9690 0.9690 0.9690
10.160178 0.9690 0.9690 0.9690 0.9690 0.9690
10.194000 0.9690 0.9690 0.9690 0.9690 0.9690
10.228178 0.9690 0.9690 0.9690 0.9690 0.9690
10.263000 0.9690 0.9690 0.9690 0.9690 0.9690
10.297178 0.9690 0.9690 0.9690 0.9690 0.9690
10.331000 0.9690 0.9690 0.9690 0.9690 0.9690
10.365178 0.9690 0.9690 0.9690 0.9690 0.9690
10.399000 0.9690 0.9690 0.9690 0.9690 0.9690
10.433178 0.9670 0.9670 0.9670 0.9670 0.9670
10.468000 0.9690 0.9690 0.9690 0.9690 0.9690
10.502178 0.9670 0.9670 0.9670 0.9670 0.9670
10.536000 0.9690 0.9690 0.9670 0.9670 0.9670
10.570178 0.9690 0.9690 0.9690 0.9670 0.9670
10.604000 0.9670 0.9670 0.9670 0.9670 0.9690
10.638178 0.9690 0.9690 0.9670 0.9670 0.9670
10.673000 0.9670 0.9670 0.9670 0.9670 0.9670
10.707178 0.9670 0.9670 0.9670 0.9670 0.9670
10.741000 0.9670 0.9670 0.9670 0.9670 0.9670
10.775178 0.9670 0.9670 0.9670 0.9650 0.9650
10.809000 0.9650 0.9650 0.9670 0.9670 0.9670
10.843178 0.9670 0.9670 0.9670 0.9670 0.9670
10.878000 0.9650 0.9650 0.9650 0.9670 0.9670
10.912178 0.9650 0.9650 0.9670 0.9670 0.9670
10.946000 0.9650 0.9650 0.9670 0.9670 0.9690
10.980178 0.9690 0.9690 0.9670 0.9690 0.9690
11.014000 0.9670 0.9670 0.9670 0.9670 0.9670
11.048178 0.9670 0.9650 0.9650 0.9650 0.9650
11.083000 0.9650 0.9630 0.9630 0.9630 0.9620
11.117178 0.9620 0.9600 0.9600 0.9600 0.9620
11.151000 0.9620 0.9630 0.9630 0.9630 0.9630
11.185178 0.9650 0.9630 0.9630 0.9620 0.9620
11.219000 0.9600 0.9600 0.9580 0.9600 0.9580
11.253178 0.9580 0.9600 0.9580 0.9570 0.9570
11.288000 0.9570 0.9570 0.9570 0.9570 0.9570
11.322178 0.9580 0.9580 0.9580 0.9570 0.9570
11.356000 0.9570 0.9570 0.9570 0.9570 0.9570
11.390178 0.9570 0.9550 0.9550 0.9550 0.9550
11.424000 0.9550 0.9550 0.9530 0.9530 0.9530
11.458178 0.9510 0.9510 0.9500 0.9510 0.9500
11.493000 0.9500 0.9500 0.9480 0.9460 0.9460
11.527178 0.9450 0.9450 0.9430 0.9390 0.9380
11.561000 0.9380 0.9360 0.9360 0.9320 0.9310
11.595178 0.9270 0.9240 0.9220 0.9190 0.9170
11.629000 0.9120 0.9070 0.9020 0.8930 0.8880
11.663178 0.8790 0.8740 0.8670 0.8570 0.8430
11.698000 0.8380 0.8330 0.8260 0.8170 0.8000
11.732178 0.7860 0.7760 0.7680 0.7560 0.7450
11.766000 0.7350 0.7230 0.7020 0.6890 0.6780
11.800178 0.6700 0.6610 0.6390 0.6340 0.6300
11.834000 0.6250 0.6060 0.6040 0.6010 0.5970
11.868178 0.5940 0.5910 0.5850 0.5840 0.5800
11.902000 0.5770 0.5730 0.5720 0.5700 0.5650
11.936178 0.5630 0.5600 0.5540 0.5510 0.5490
11.971000 0.5440 0.5410 0.5360 0.5300 0.5240
12.005178 0.5180 0.5150 0.5100 0.5050 0.5010
12.039000 0.5000 0.4960 0.4910 0.4870 0.4840
12.073178 0.4750 0.4700 0.4630 0.4600 0.4550
12.107000 0.4510 0.4450 0.4430 0.4340 0.4290
12.141178 0.4240 0.4200 0.4140 0.4050 0.4030
12.176000 0.3980 0.3900 0.3830 0.3740 0.3670
12.210178 0.3640 0.3590 0.3520 0.3430 0.3360
12.244000 0.3330 0.3290 0.3230 0.3140 0.3070
12.278178 0.3020 0.2970 0.2880 0.2830 0.2740
12.312000 0.2660 0.2620 0.2570 0.2520 0.2490
12.346178 0.2430 0.2380 0.2330 0.2300 0.2250
12.381000 0.2160 0.2140 0.2090 0.2060 0.2020
12.415178 0.2020 0.2010 0.1950 0.1950 0.1920
12.449000 0.1920 0.1920 0.1920 0.1940 0.1940
12.483178 0.1970 0.2060 0.2180 0.2250 0.2370
12.517000 0.2640 0.2850 0.2930 0.3140 0.3280
12.551178 0.3900 0.4030 0.4360 0.4460 0.4690
12.586000 0.4910 0.5360 0.5530 0.5650 0.5730
12.620178 0.5870 0.5960 0.6040 0.6180 0.6320
12.654000 0.6420 0.6490 0.6580 0.6760 0.6870
12.688178 0.6940 0.7040 0.7060 0.7140 0.7190
12.722000 0.7250 0.7300 0.7310 0.7370 0.7400
12.756178 0.7430 0.7470 0.7500 0.7520 0.7560
12.791000 0.7570 0.7620 0.7660 0.7680 0.7690
12.825178 0.7710 0.7740 0.7760 0.7760 0.7810
12.859000 0.7830 0.7830 0.7850 0.7860 0.7920
12.893178 0.7930 0.7930 0.7980 0.8000 0.8000
12.927000 0.8020 0.8020 0.8040 0.8040 0.8050
12.961178 0.8050 0.8100 0.8140 0.8160 0.8160
12.996000 0.8160 0.8170 0.8190 0.8210 0.8210
13.030178 0.8230 0.8230 0.8240 0.8240 0.8260
13.064000 0.8260 0.8260 0.8280 0.8280 0.8280
13.098178 0.8310 0.8310 0.8310 0.8310 0.8310
13.132000 0.8310 0.8310 0.8310 0.8330 0.8330
13.166178 0.8330 0.8310 0.8330 0.8330 0.8330
13.201000 0.8330 0.8330 0.8330 0.8330 0.8330
13.235178 0.8330 0.8330 0.8330 0.8330 0.8350
13.269000 0.8350 0.8350 0.8330 0.8330 0.8330
13.303178 0.8330 0.8330 0.8330 0.8330 0.8330
13.337000 0.8310 0.8330 0.8330 0.8330 0.8310
13.371178 0.8310 0.8310 0.8290 0.8290 0.8280
13.406000 0.8280 0.8280 0.8280 0.8280 0.8260
13.440178 0.8260 0.8260 0.8260 0.8260 0.8260
13.474000 0.8260 0.8260 0.8260 0.8240 0.8230
13.508178 0.8230 0.8230 0.8210 0.8210 0.8190
13.542000 0.8170 0.8170 0.8160 0.8160 0.8140
13.576178 0.8140 0.8100 0.8100 0.8090 0.8090
13.611000 0.8070 0.8070 0.8070 0.8040 0.8040
13.645178 0.8040 0.8020 0.8020 0.8020 0.8020
13.679000 0.8000 0.8000 0.7980 0.7980 0.7970
13.713178 0.7970 0.7950 0.7950 0.7930 0.7930
13.747000 0.7920 0.7900 0.7900 0.7860 0.7860
13.781178 0.7850 0.7830 0.7810 0.7810 0.7810
13.816000 0.7800 0.7780 0.7800 0.7780 0.7780
13.850178 0.7760 0.7740 0.7740 0.7740 0.7730
13.884000 0.7730 0.7710 0.7690 0.7690 0.7680
13.918178 0.7660 0.7640 0.7620 0.7620 0.7620
13.952000 0.7620 0.7620 0.7620 0.7620 0.7620
13.986178 0.7610 0.7610 0.7590 0.7560 0.7560
14.020000 0.7560 0.7560 0.7540 0.7540 0.7540
14.054178 0.7520 0.7500 0.7500 0.7470 0.7470
14.089000 0.7470 0.7450 0.7450 0.7450 0.7430
14.123178 0.7430 0.7420 0.7400 0.7380 0.7370
14.157000 0.7370 0.7370 0.7350 0.7350 0.7330
14.191178 0.7310 0.7310 0.7310 0.7300 0.7280
14.225000 0.7280 0.7260 0.7260 0.7250 0.7250
14.259178 0.7230 0.7210 0.7210 0.7180 0.7160
14.294000 0.7160 0.7160 0.7160 0.7160 0.7140
14.328178 0.7140 0.7130 0.7110 0.7110 0.7110
14.362000 0.7070 0.7060 0.7060 0.7060 0.7040
14.396178 0.7020 0.7020 0.7010 0.7010 0.7010
14.430000 0.7010 0.6990 0.6970 0.6950 0.6950
14.464178 0.6950 0.6950 0.6950 0.6940 0.6940
14.499000 0.6920 0.6920 0.6900 0.6900 0.6890
14.533178 0.6890 0.6870 0.6870 0.6850 0.6850
14.567000 0.6830 0.6830 0.6830 0.6820 0.6820
14.601178 0.6800 0.6800 0.6780 0.6760 0.6760
14.635000 0.6750 0.6750 0.6750 0.6750 0.6750
14.669178 0.6730 0.6730 0.6730 0.6730 0.6710
14.704000 0.6710 0.6710 0.6700 0.6680 0.6680
14.738178 0.6680 0.6680 0.6680 0.6660 0.6660
14.772000 0.6660 0.6660 0.6640 0.6640 0.6640
14.806178 0.6630 0.6640 0.6630 0.6610 0.6610
14.840000 0.6610 0.6610 0.6590 0.6590 0.6590
14.874178 0.6580 0.6540 0.6540 0.6540 0.6540
14.909000 0.6540 0.6540 0.6540 0.6540 0.6540
14.943178 0.6520 0.6520 0.6520 0.6510 0.6510
14.977000 0.6520 0.6520 0.6520 0.6520 0.6520
15.011178 0.6520 0.6520 0.6540 0.6540 0.6520
15.045000 0.6520 0.6520 0.6520 0.6520 0.6520
15.079178 0.6520 0.6520 0.6520 0.6520 0.6520
15.114000 0.6540 0.6540 0.6540 0.6540 0.6540
15.148178 0.6540 0.6540 0.6540 0.6540 0.6540
15.182000 0.6540 0.6540 0.6540 0.6540 0.6560
15.216178 0.6560 0.6560 0.6560 0.6560 0.6540
15.250000 0.6540 0.6560 0.6560 0.6560 0.6580
15.284178 0.6580 0.6590 0.6590 0.6590 0.6610
15.319000 0.6610 0.6610 0.6610 0.6610 0.6610
15.353178 0.6630 0.6630 0.6630 0.6630 0.6630
15.387000 0.6640 0.6630 0.6640 0.6640 0.6640
15.421178 0.6640 0.6660 0.6680 0.6700 0.6700
15.455000 0.6700 0.6710 0.6710 0.6710 0.6710
15.489178 0.6730 0.6730 0.6750 0.6750 0.6750
15.524000 0.6750 0.6760 0.6760 0.6780 0.6780
15.558178 0.6800 0.6800 0.6800 0.6820 0.6820
15.592000 0.6820 0.6830 0.6830 0.6830 0.6850
15.626178 0.6870 0.6870 0.6870 0.6890 0.6890
15.660000 0.6900 0.6920 0.6920 0.6940 0.6950
15.694178 0.6970 0.6970 0.6970 0.6990 0.7010
15.729000 0.7010 0.7020 0.7020 0.7020 0.7020
15.763178 0.7040 0.7040 0.7060 0.7060 0.7070
15.797000 0.7110 0.7130 0.7130 0.7140 0.7140
15.831178 0.7140 0.7160 0.7190 0.7190 0.7210
15.865000 0.7230 0.7230 0.7250 0.7260 0.7280
15.899178 0.7300 0.7300 0.7300 0.7310 0.7330
15.934000 0.7370 0.7380 0.7400 0.7420 0.7430
15.968178 0.7470 0.7490 0.7500 0.7520 0.7540
16.002000 0.7470 0.7490 0.7500 0.7520
##END=
