##TITLE=9H-Purine, 6-(ethylthio)-9-Beta-D-ribofuranosyl-, hydrate
##JCAMP-DX=4.24
##DATA TYPE=INFRARED SPECTRUM
##CLASS=COBLENTZ III
##ORIGIN=SOUTHERN RESEARCH INSTITUTE
##OWNER=Copyright (C) 1987 by the Coblentz Society
Collection (C) 2018 copyright by the U.S. Secretary of Commerce
on behalf of the United States of America. All rights reserved.
##DATE=1959/07/20
##MOLFORM=C12 H16 N4 O4 S  * H2 O
##SOURCE REFERENCE=COBLENTZ NO. 8706
##$NIST ID=B6008706
##$NIST SOURCE=COBLENTZ
##$NIST IMAGE=cob8706
##SPECTROMETER/DATA SYSTEM=PERKIN-ELMER 21 (GRATING)
##INSTRUMENT PARAMETERS=FILTER CHANGE ABOUT 1090 CM^-^1
##STATE=SOLID (0.8 mg / 650 mg KBr DISC)
##SAMPLING PROCEDURE=TRANSMISSION
##RESOLUTION=2
##DATA PROCESSING=DIGITIZED BY COBLENTZ SOCIETY (BATCH II) FROM HARD COPY
##XUNITS=1/CM
##YUNITS=TRANSMITTANCE
##XFACTOR=1.0
##YFACTOR=1
##FIRSTX=602
##LASTX=4000
##FIRSTY=0.539
##MAXX=4000
##MINX=602
##MAXY=0.8049
##MINY=0.1102
##NPOINTS=3399
##XYDATA=(X++(Y..Y))
602.000000 0.5390 0.5393 0.5395 0.5395 0.5390
607.000000 0.5385 0.5376 0.5364 0.5352 0.5336
612.000000 0.5315 0.5293 0.5268 0.5246 0.5236
617.000000 0.5228 0.5221 0.5214 0.5206 0.5196
622.000000 0.5185 0.5162 0.5139 0.5096 0.4990
627.000000 0.4968 0.4947 0.4946 0.4971 0.4952
632.000000 0.4974 0.5069 0.5115 0.5158 0.5223
637.000000 0.5311 0.5381 0.5443 0.5480 0.5508
642.000000 0.5523 0.5542 0.5566 0.5605 0.5665
647.000000 0.5790 0.5945 0.6036 0.6107 0.6153
652.000000 0.6199 0.6246 0.6288 0.6330 0.6372
657.000000 0.6423 0.6452 0.6471 0.6479 0.6479
662.000000 0.6479 0.6474 0.6470 0.6465 0.6459
667.000000 0.6450 0.6440 0.6470 0.6424 0.6418
672.000000 0.6419 0.6425 0.6431 0.6448 0.6466
677.000000 0.6483 0.6500 0.6497 0.6489 0.6472
682.000000 0.6464 0.6461 0.6462 0.6458 0.6455
687.000000 0.6449 0.6442 0.6432 0.6419 0.6404
692.000000 0.6387 0.6370 0.6353 0.6327 0.6291
697.000000 0.6255 0.6199 0.6119 0.6044 0.6044
702.000000 0.6067 0.6050 0.6055 0.6061 0.6066
707.000000 0.6074 0.6090 0.6117 0.6136 0.6154
712.000000 0.6169 0.6174 0.6180 0.6184 0.6186
717.000000 0.6187 0.6181 0.6191 0.6192 0.6190
722.000000 0.6180 0.6155 0.6125 0.6092 0.6058
727.000000 0.6019 0.5974 0.5940 0.5909 0.5887
732.000000 0.5870 0.5855 0.5846 0.5837 0.5829
737.000000 0.5821 0.5818 0.5814 0.5810 0.5807
742.000000 0.5806 0.5804 0.5802 0.5801 0.5799
747.000000 0.5798 0.5797 0.5802 0.5795 0.5796
752.000000 0.5820 0.5847 0.5888 0.5939 0.5990
757.000000 0.6040 0.6089 0.6139 0.6188 0.6235
762.000000 0.6281 0.6325 0.6359 0.6393 0.6422
767.000000 0.6439 0.6452 0.6463 0.6464 0.6464
772.000000 0.6464 0.6458 0.6449 0.6435 0.6421
777.000000 0.6407 0.6388 0.6369 0.6350 0.6331
782.000000 0.6312 0.6288 0.6262 0.6228 0.6166
787.000000 0.5975 0.5572 0.5242 0.5243 0.5246
792.000000 0.5246 0.5606 0.5801 0.5997 0.6193
797.000000 0.6215 0.6214 0.6221 0.6170 0.6073
802.000000 0.5976 0.5878 0.5781 0.5684 0.5586
807.000000 0.5489 0.5392 0.5296 0.5239 0.5259
812.000000 0.5282 0.5313 0.5351 0.5380 0.5406
817.000000 0.5432 0.5456 0.5479 0.5484 0.5471
822.000000 0.5466 0.5461 0.5453 0.5444 0.5430
827.000000 0.5401 0.5375 0.5350 0.5320 0.5286
832.000000 0.5242 0.5182 0.5109 0.5060 0.5038
837.000000 0.5054 0.5039 0.5119 0.5201 0.5283
842.000000 0.5364 0.5446 0.5527 0.5568 0.5568
847.000000 0.5568 0.5565 0.5545 0.5455 0.5364
852.000000 0.5273 0.5182 0.5091 0.5000 0.4909
857.000000 0.4818 0.4757 0.4712 0.4617 0.4545
862.000000 0.4495 0.4473 0.4450 0.4440 0.4440
867.000000 0.4441 0.4452 0.4490 0.4533 0.4550
872.000000 0.4564 0.4587 0.4633 0.4688 0.4798
877.000000 0.4907 0.5017 0.5126 0.5236 0.5340
882.000000 0.5406 0.5547 0.5601 0.5687 0.5634
887.000000 0.5636 0.5637 0.5634 0.5629 0.5623
892.000000 0.5598 0.5561 0.5474 0.5389 0.5336
897.000000 0.5322 0.5398 0.5368 0.5406 0.5463
902.000000 0.5514 0.5552 0.5588 0.5623 0.5659
907.000000 0.5687 0.5714 0.5740 0.5767 0.5783
912.000000 0.5797 0.5811 0.5825 0.5838 0.5847
917.000000 0.5857 0.5865 0.5871 0.5877 0.5879
922.000000 0.5876 0.5874 0.5861 0.5790 0.5690
927.000000 0.5474 0.5252 0.5031 0.4809 0.4588
932.000000 0.4366 0.4145 0.3923 0.3752 0.3697
937.000000 0.3669 0.3641 0.3640 0.3646 0.3668
942.000000 0.3682 0.3769 0.3924 0.4039 0.4116
947.000000 0.4157 0.4178 0.4200 0.4220 0.4238
952.000000 0.4256 0.4274 0.4297 0.4321 0.4345
957.000000 0.5187 0.5384 0.5464 0.5542 0.5602
962.000000 0.5668 0.5626 0.5634 0.5636 0.5627
967.000000 0.5608 0.5589 0.5561 0.5528 0.5491
972.000000 0.5431 0.5371 0.5300 0.5237 0.5189
977.000000 0.5166 0.5159 0.5156 0.5156 0.5129
982.000000 0.5177 0.5221 0.5289 0.5356 0.5411
987.000000 0.5440 0.5470 0.5489 0.5499 0.5501
992.000000 0.5492 0.5500 0.5498 0.5493 0.5483
997.000000 0.5466 0.5448 0.5427 0.5402 0.5377
1002.000000 0.5345 0.5310 0.5271 0.5232 0.5192
1007.000000 0.5119 0.5025 0.4631 0.4449 0.4375
1012.000000 0.4301 0.4227 0.4152 0.4086 0.4025
1017.000000 0.3964 0.3903 0.3842 0.3776 0.3705
1022.000000 0.3634 0.3584 0.3543 0.3502 0.3461
1027.000000 0.3420 0.3379 0.3339 0.3304 0.3272
1032.000000 0.3239 0.3207 0.3175 0.3142 0.3110
1037.000000 0.3078 0.3046 0.3014 0.2975 0.2936
1042.000000 0.2897 0.2858 0.2834 0.2793 0.2839
1047.000000 0.2849 0.2858 0.2868 0.2878 0.2889
1052.000000 0.2899 0.2915 0.2966 0.2992 0.3018
1057.000000 0.3032 0.3070 0.3039 0.3031 0.3020
1062.000000 0.3002 0.2985 0.2963 0.2935 0.2907
1067.000000 0.2877 0.2844 0.2807 0.2762 0.2716
1072.000000 0.2664 0.2593 0.2517 0.2466 0.2450
1077.000000 0.2435 0.2416 0.2397 0.2380 0.2380
1082.000000 0.2649 0.2388 0.2808 0.2854 0.2890
1087.000000 0.2927 0.2963 0.2998 0.3034 0.3069
1092.000000 0.3114 0.3159 0.3183 0.3205 0.3220
1097.000000 0.3219 0.3240 0.3214 0.3197 0.3179
1102.000000 0.3148 0.3106 0.3062 0.3015 0.2969
1107.000000 0.2927 0.2884 0.2841 0.2799 0.2751
1112.000000 0.2732 0.2727 0.2722 0.2717 0.2717
1117.000000 0.2727 0.2742 0.2773 0.2808 0.2845
1122.000000 0.2884 0.2925 0.2967 0.3013 0.3069
1127.000000 0.3125 0.3186 0.3251 0.3319 0.3403
1132.000000 0.3776 0.3887 0.3942 0.3997 0.4052
1137.000000 0.4106 0.4161 0.4216 0.4269 0.4323
1142.000000 0.4375 0.4408 0.4440 0.4473 0.4506
1147.000000 0.4546 0.4589 0.4664 0.4758 0.4848
1152.000000 0.4945 0.5099 0.5195 0.5250 0.5260
1157.000000 0.5254 0.5291 0.5232 0.5203 0.5167
1162.000000 0.5083 0.4830 0.4544 0.4406 0.4322
1167.000000 0.4297 0.4322 0.4336 0.4364 0.4399
1172.000000 0.4438 0.4493 0.4575 0.4667 0.4734
1177.000000 0.4768 0.4803 0.4819 0.4827 0.4851
1182.000000 0.4827 0.4823 0.4808 0.4794 0.4660
1187.000000 0.4545 0.4415 0.4284 0.4000 0.3747
1192.000000 0.3541 0.3334 0.3124 0.2909 0.2803
1197.000000 0.2618 0.2594 0.2570 0.2562 0.2554
1202.000000 0.2547 0.2539 0.2538 0.2509 0.2543
1207.000000 0.2547 0.2564 0.2582 0.2604 0.2629
1212.000000 0.2719 0.2809 0.2899 0.2989 0.3079
1217.000000 0.3169 0.3259 0.3349 0.3439 0.3529
1222.000000 0.3619 0.3709 0.3799 0.3889 0.3979
1227.000000 0.4069 0.4159 0.4249 0.4339 0.4429
1232.000000 0.4519 0.4609 0.4671 0.4725 0.4774
1237.000000 0.4814 0.4854 0.4901 0.4953 0.4985
1242.000000 0.5011 0.5032 0.5036 0.5040 0.5045
1247.000000 0.5047 0.5045 0.5043 0.5041 0.5038
1252.000000 0.5032 0.5027 0.5021 0.5015 0.5010
1257.000000 0.5004 0.5004 0.5005 0.5006 0.5007
1262.000000 0.5008 0.5021 0.5039 0.5057 0.5076
1267.000000 0.5113 0.5149 0.5188 0.5241 0.5294
1272.000000 0.5369 0.5479 0.5567 0.5646 0.5699
1277.000000 0.5747 0.5772 0.5797 0.5801 0.5805
1282.000000 0.5853 0.5808 0.5804 0.5800 0.5788
1287.000000 0.5773 0.5755 0.5736 0.5717 0.5689
1292.000000 0.5659 0.5629 0.5584 0.5524 0.5467
1297.000000 0.5417 0.5366 0.5316 0.5256 0.5190
1302.000000 0.5125 0.5056 0.4983 0.4909 0.4835
1307.000000 0.4748 0.4651 0.4554 0.4463 0.4373
1312.000000 0.4282 0.4169 0.4057 0.3976 0.3901
1317.000000 0.3826 0.3750 0.3671 0.3591 0.3511
1322.000000 0.3432 0.3355 0.3278 0.3201 0.3109
1327.000000 0.2980 0.2919 0.2923 0.2911 0.2929
1332.000000 0.2938 0.2986 0.3062 0.3170 0.3439
1337.000000 0.3492 0.3529 0.3559 0.3600 0.3654
1342.000000 0.3873 0.4164 0.4455 0.4746 0.5075
1347.000000 0.5173 0.5231 0.5287 0.5343 0.5412
1352.000000 0.5431 0.5446 0.5452 0.5481 0.5456
1357.000000 0.5454 0.5448 0.5443 0.5435 0.5417
1362.000000 0.5400 0.5368 0.5326 0.5289 0.5255
1367.000000 0.5221 0.5186 0.5149 0.5112 0.5075
1372.000000 0.5028 0.4963 0.4898 0.4833 0.4770
1377.000000 0.4709 0.4648 0.4586 0.4530 0.4478
1382.000000 0.4426 0.4374 0.4322 0.4274 0.4253
1387.000000 0.4236 0.4225 0.4217 0.4211 0.4206
1392.000000 0.4206 0.4208 0.4215 0.4228 0.4240
1397.000000 0.4252 0.4258 0.4260 0.4247 0.4228
1402.000000 0.4207 0.4171 0.4128 0.4082 0.4027
1407.000000 0.3951 0.3905 0.3862 0.3820 0.3773
1412.000000 0.3726 0.3692 0.3670 0.3675 0.3682
1417.000000 0.3701 0.3720 0.3743 0.3770 0.3783
1422.000000 0.3793 0.3798 0.3806 0.3783 0.3759
1427.000000 0.3735 0.3705 0.3676 0.3658 0.3656
1432.000000 0.3648 0.3671 0.3702 0.3738 0.3775
1437.000000 0.3814 0.3857 0.3905 0.3981 0.4095
1442.000000 0.4208 0.4322 0.4436 0.4550 0.4664
1447.000000 0.4773 0.4910 0.4975 0.5040 0.5197
1452.000000 0.5291 0.5360 0.5429 0.5483 0.5528
1457.000000 0.5560 0.5579 0.5599 0.5640 0.5683
1462.000000 0.5794 0.5919 0.5956 0.6004 0.5947
1467.000000 0.5910 0.5857 0.5803 0.5755 0.5708
1472.000000 0.5661 0.5614 0.5568 0.5525 0.5486
1477.000000 0.5446 0.5407 0.5373 0.5356 0.5359
1482.000000 0.5362 0.5333 0.5372 0.5378 0.5388
1487.000000 0.5402 0.5439 0.5475 0.5511 0.5560
1492.000000 0.5684 0.6036 0.6388 0.6513 0.6569
1497.000000 0.6594 0.6608 0.6621 0.6634 0.6646
1502.000000 0.6658 0.6667 0.6674 0.6667 0.6684
1507.000000 0.6686 0.6684 0.6679 0.6673 0.6660
1512.000000 0.6632 0.6603 0.6574 0.6545 0.6509
1517.000000 0.6471 0.6434 0.6398 0.6361 0.6325
1522.000000 0.6283 0.6234 0.6184 0.6135 0.6082
1527.000000 0.6025 0.5968 0.5905 0.5825 0.5745
1532.000000 0.5653 0.4485 0.4333 0.4295 0.4280
1537.000000 0.4266 0.4255 0.4244 0.4226 0.4195
1542.000000 0.4151 0.4073 0.3864 0.3636 0.3408
1547.000000 0.3180 0.2952 0.2724 0.2496 0.2268
1552.000000 0.2040 0.1711 0.1511 0.1297 0.1204
1557.000000 0.1153 0.1130 0.1106 0.1103 0.1102
1562.000000 0.1114 0.1107 0.1123 0.1147 0.1178
1567.000000 0.1229 0.1279 0.1335 0.1392 0.1470
1572.000000 0.1549 0.1645 0.1788 0.1946 0.2103
1577.000000 0.2261 0.2418 0.2576 0.2733 0.3019
1582.000000 0.3185 0.3303 0.3411 0.3487 0.3563
1587.000000 0.3653 0.3773 0.3937 0.4147 0.4315
1592.000000 0.4431 0.4546 0.4634 0.4722 0.4887
1597.000000 0.5473 0.5546 0.5619 0.5689 0.5736
1602.000000 0.5783 0.5830 0.5871 0.5897 0.5923
1607.000000 0.5948 0.5965 0.5977 0.5989 0.6001
1612.000000 0.6012 0.6024 0.6036 0.6046 0.6057
1617.000000 0.6067 0.6078 0.6088 0.6099 0.6111
1622.000000 0.6125 0.6139 0.6153 0.6167 0.6181
1627.000000 0.6203 0.6228 0.6253 0.6279 0.6333
1632.000000 0.6386 0.6446 0.6509 0.6543 0.6552
1637.000000 0.6558 0.6564 0.6596 0.6664 0.6713
1642.000000 0.6754 0.6794 0.6831 0.6864 0.6881
1647.000000 0.6898 0.6915 0.6932 0.6950 0.6969
1652.000000 0.6988 0.7006 0.7024 0.7041 0.7058
1657.000000 0.7074 0.7091 0.7108 0.7124 0.7141
1662.000000 0.7166 0.7190 0.7215 0.7250 0.7284
1667.000000 0.7337 0.7444 0.7576 0.7630 0.7715
1672.000000 0.7766 0.7791 0.7816 0.7844 0.7852
1677.000000 0.7856 0.7858 0.7824 0.7863 0.7863
1682.000000 0.7864 0.7861 0.7858 0.7856 0.7855
1687.000000 0.7855 0.7854 0.7852 0.7846 0.7845
1692.000000 0.7844 0.7843 0.7842 0.7841 0.7840
1697.000000 0.7839 0.7838 0.7836 0.7835 0.7834
1702.000000 0.7833 0.7831 0.7829 0.7827 0.7826
1707.000000 0.7826 0.7825 0.7824 0.7824 0.7823
1712.000000 0.7823 0.7822 0.7821 0.7821 0.7820
1717.000000 0.7820 0.7819 0.7818 0.7819 0.7821
1722.000000 0.7822 0.7823 0.7825 0.7826 0.7827
1727.000000 0.7829 0.7830 0.7831 0.7833 0.7834
1732.000000 0.7835 0.7837 0.7839 0.7843 0.7847
1737.000000 0.7850 0.7854 0.7858 0.7862 0.7865
1742.000000 0.7869 0.7873 0.7876 0.7879 0.7877
1747.000000 0.7875 0.7874 0.7871 0.7868 0.7865
1752.000000 0.7861 0.7858 0.7856 0.7854 0.7853
1757.000000 0.7851 0.7849 0.7847 0.7845 0.7842
1762.000000 0.7839 0.7837 0.7834 0.7837 0.7842
1767.000000 0.7847 0.7853 0.7858 0.7865 0.7872
1772.000000 0.7879 0.7886 0.7893 0.7900 0.7907
1777.000000 0.7913 0.7919 0.7925 0.7931 0.7936
1782.000000 0.7941 0.7944 0.7946 0.7947 0.7949
1787.000000 0.7950 0.7951 0.7953 0.7954 0.7956
1792.000000 0.7957 0.7959 0.7960 0.7962 0.7963
1797.000000 0.7964 0.7966 0.7968 0.7971 0.7975
1802.000000 0.7978 0.7981 0.7985 0.7988 0.7991
1807.000000 0.7995 0.7998 0.8002 0.8005 0.8008
1812.000000 0.8012 0.8015 0.8019 0.8023 0.8027
1817.000000 0.8032 0.8036 0.8040 0.8044 0.8049
1822.000000 0.8048 0.8044 0.8040 0.8035 0.8031
1827.000000 0.8027 0.8021 0.8015 0.8008 0.8002
1832.000000 0.7996 0.7989 0.7983 0.7977 0.7970
1837.000000 0.7965 0.7959 0.7953 0.7948 0.7942
1842.000000 0.7936 0.7931 0.7926 0.7922 0.7919
1847.000000 0.7915 0.7911 0.7908 0.7904 0.7900
1852.000000 0.7897 0.7893 0.7889 0.7886 0.7882
1857.000000 0.7879 0.7875 0.7871 0.7868 0.7864
1862.000000 0.7861 0.7858 0.7855 0.7852 0.7850
1867.000000 0.7847 0.7844 0.7841 0.7839 0.7836
1872.000000 0.7833 0.7830 0.7828 0.7825 0.7822
1877.000000 0.7819 0.7816 0.7816 0.7818 0.7820
1882.000000 0.7822 0.7824 0.7826 0.7828 0.7831
1887.000000 0.7833 0.7839 0.7845 0.7851 0.7857
1892.000000 0.7855 0.7854 0.7852 0.7850 0.7849
1897.000000 0.7847 0.7840 0.7831 0.7823 0.7814
1902.000000 0.7805 0.7797 0.7788 0.7780 0.7771
1907.000000 0.7763 0.7754 0.7749 0.7752 0.7755
1912.000000 0.7759 0.7771 0.7782 0.7793 0.7804
1917.000000 0.7816 0.7821 0.7826 0.7831 0.7836
1922.000000 0.7841 0.7840 0.7837 0.7835 0.7833
1927.000000 0.7831 0.7829 0.7827 0.7825 0.7822
1932.000000 0.7820 0.7818 0.7815 0.7812 0.7810
1937.000000 0.7807 0.7805 0.7803 0.7801 0.7799
1942.000000 0.7797 0.7795 0.7793 0.7791 0.7790
1947.000000 0.7788 0.7786 0.7784 0.7782 0.7780
1952.000000 0.7777 0.7775 0.7773 0.7771 0.7769
1957.000000 0.7767 0.7764 0.7762 0.7760 0.7758
1962.000000 0.7756 0.7754 0.7754 0.7755 0.7755
1967.000000 0.7755 0.7755 0.7756 0.7756 0.7756
1972.000000 0.7756 0.7756 0.7754 0.7752 0.7750
1977.000000 0.7749 0.7747 0.7745 0.7743 0.7742
1982.000000 0.7740 0.7738 0.7736 0.7735 0.7733
1987.000000 0.7731 0.7729 0.7728 0.7726 0.7724
1992.000000 0.7722 0.7720 0.7719 0.7717 0.7715
1997.000000 0.7713 0.7711 0.7709 0.7707 0.7706
2002.000000 0.7704 0.7702 0.7700 0.7698 0.7696
2007.000000 0.7693 0.7691 0.7688 0.7686 0.7683
2012.000000 0.7681 0.7678 0.7676 0.7674 0.7671
2017.000000 0.7669 0.7666 0.7664 0.7661 0.7659
2022.000000 0.7656 0.7654 0.7651 0.7649 0.7646
2027.000000 0.7643 0.7640 0.7637 0.7633 0.7630
2032.000000 0.7626 0.7623 0.7619 0.7616 0.7612
2037.000000 0.7609 0.7606 0.7602 0.7599 0.7596
2042.000000 0.7594 0.7591 0.7589 0.7586 0.7584
2047.000000 0.7582 0.7579 0.7577 0.7574 0.7572
2052.000000 0.7570 0.7567 0.7565 0.7563 0.7560
2057.000000 0.7558 0.7555 0.7553 0.7551 0.7548
2062.000000 0.7547 0.7545 0.7543 0.7542 0.7540
2067.000000 0.7539 0.7537 0.7535 0.7534 0.7532
2072.000000 0.7531 0.7529 0.7527 0.7526 0.7524
2077.000000 0.7523 0.7521 0.7519 0.7518 0.7516
2082.000000 0.7515 0.7513 0.7511 0.7510 0.7508
2087.000000 0.7507 0.7505 0.7503 0.7502 0.7500
2092.000000 0.7499 0.7497 0.7498 0.7498 0.7498
2097.000000 0.7498 0.7502 0.7505 0.7512 0.7521
2102.000000 0.7530 0.7538 0.7546 0.7552 0.7553
2107.000000 0.7548 0.7544 0.7539 0.7535 0.7531
2112.000000 0.7526 0.7522 0.7516 0.7506 0.7495
2117.000000 0.7485 0.7475 0.7465 0.7455 0.7452
2122.000000 0.7451 0.7449 0.7447 0.7446 0.7444
2127.000000 0.7443 0.7441 0.7439 0.7437 0.7434
2132.000000 0.7431 0.7429 0.7426 0.7423 0.7421
2137.000000 0.7419 0.7417 0.7415 0.7413 0.7411
2142.000000 0.7409 0.7407 0.7405 0.7403 0.7401
2147.000000 0.7399 0.7397 0.7395 0.7393 0.7391
2152.000000 0.7389 0.7388 0.7386 0.7384 0.7382
2157.000000 0.7380 0.7378 0.7376 0.7374 0.7372
2162.000000 0.7370 0.7369 0.7367 0.7366 0.7366
2167.000000 0.7365 0.7365 0.7364 0.7364 0.7363
2172.000000 0.7363 0.7362 0.7362 0.7363 0.7365
2177.000000 0.7368 0.7371 0.7373 0.7376 0.7379
2182.000000 0.7381 0.7383 0.7382 0.7382 0.7381
2187.000000 0.7381 0.7381 0.7374 0.7368 0.7361
2192.000000 0.7354 0.7347 0.7340 0.7334 0.7327
2197.000000 0.7322 0.7318 0.7315 0.7311 0.7307
2202.000000 0.7304 0.7300 0.7298 0.7296 0.7294
2207.000000 0.7292 0.7290 0.7288 0.7286 0.7284
2212.000000 0.7282 0.7280 0.7279 0.7278 0.7278
2217.000000 0.7278 0.7279 0.7279 0.7278 0.7276
2222.000000 0.7273 0.7271 0.7269 0.7267 0.7265
2227.000000 0.7264 0.7263 0.7262 0.7261 0.7260
2232.000000 0.7259 0.7258 0.7257 0.7256 0.7255
2237.000000 0.7254 0.7253 0.7252 0.7251 0.7250
2242.000000 0.7249 0.7248 0.7247 0.7246 0.7245
2247.000000 0.7244 0.7243 0.7242 0.7241 0.7240
2252.000000 0.7239 0.7238 0.7237 0.7236 0.7235
2257.000000 0.7234 0.7233 0.7232 0.7231 0.7230
2262.000000 0.7230 0.7229 0.7228 0.7225 0.7223
2267.000000 0.7221 0.7219 0.7216 0.7214 0.7212
2272.000000 0.7210 0.7208 0.7205 0.7203 0.7201
2277.000000 0.7199 0.7196 0.7194 0.7192 0.7190
2282.000000 0.7188 0.7186 0.7184 0.7182 0.7180
2287.000000 0.7177 0.7175 0.7173 0.7171 0.7170
2292.000000 0.7169 0.7168 0.7167 0.7166 0.7165
2297.000000 0.7167 0.7170 0.7172 0.7174 0.7172
2302.000000 0.7171 0.7168 0.7163 0.7158 0.7154
2307.000000 0.7149 0.7144 0.7139 0.7134 0.7129
2312.000000 0.7124 0.7119 0.7114 0.7110 0.7105
2317.000000 0.7101 0.7096 0.7092 0.7087 0.7083
2322.000000 0.7078 0.7075 0.7072 0.7069 0.7066
2327.000000 0.7063 0.7060 0.7057 0.7054 0.7051
2332.000000 0.7048 0.7045 0.7042 0.7040 0.7037
2337.000000 0.7033 0.7030 0.7026 0.7022 0.7019
2342.000000 0.7015 0.7012 0.7006 0.6998 0.6989
2347.000000 0.6981 0.6973 0.6964 0.6956 0.6948
2352.000000 0.6942 0.6936 0.6930 0.6925 0.6919
2357.000000 0.6913 0.6908 0.6902 0.6896 0.6891
2362.000000 0.6887 0.6883 0.6878 0.6874 0.6870
2367.000000 0.6866 0.6862 0.6857 0.6853 0.6849
2372.000000 0.6845 0.6844 0.6843 0.6842 0.6841
2377.000000 0.6840 0.6839 0.6838 0.6838 0.6839
2382.000000 0.6839 0.6839 0.6839 0.6836 0.6832
2387.000000 0.6827 0.6823 0.6819 0.6813 0.6808
2392.000000 0.6802 0.6796 0.6790 0.6785 0.6779
2397.000000 0.6773 0.6766 0.6760 0.6753 0.6747
2402.000000 0.6740 0.6733 0.6727 0.6722 0.6716
2407.000000 0.6711 0.6705 0.6700 0.6700 0.6704
2412.000000 0.6709 0.6715 0.6721 0.6727 0.6732
2417.000000 0.6737 0.6742 0.6746 0.6751 0.6757
2422.000000 0.6762 0.6767 0.6770 0.6767 0.6764
2427.000000 0.6760 0.6757 0.6747 0.6736 0.6726
2432.000000 0.6715 0.6704 0.6692 0.6680 0.6670
2437.000000 0.6663 0.6656 0.6650 0.6647 0.6644
2442.000000 0.6641 0.6638 0.6635 0.6633 0.6630
2447.000000 0.6627 0.6624 0.6621 0.6618 0.6618
2452.000000 0.6618 0.6618 0.6619 0.6618 0.6612
2457.000000 0.6606 0.6600 0.6594 0.6588 0.6582
2462.000000 0.6576 0.6570 0.6563 0.6556 0.6550
2467.000000 0.6543 0.6536 0.6529 0.6523 0.6516
2472.000000 0.6509 0.6499 0.6488 0.6478 0.6468
2477.000000 0.6458 0.6447 0.6430 0.6414 0.6397
2482.000000 0.6381 0.6367 0.6362 0.6357 0.6353
2487.000000 0.6349 0.6345 0.6342 0.6339 0.6336
2492.000000 0.6333 0.6330 0.6327 0.6324 0.6323
2497.000000 0.6322 0.6321 0.6319 0.6318 0.6317
2502.000000 0.6316 0.6315 0.6312 0.6310 0.6307
2507.000000 0.6305 0.6302 0.6300 0.6297 0.6294
2512.000000 0.6291 0.6288 0.6285 0.6281 0.6278
2517.000000 0.6275 0.6272 0.6269 0.6266 0.6262
2522.000000 0.6259 0.6256 0.6253 0.6250 0.6247
2527.000000 0.6244 0.6241 0.6238 0.6235 0.6232
2532.000000 0.6229 0.6225 0.6222 0.6219 0.6216
2537.000000 0.6213 0.6210 0.6207 0.6204 0.6201
2542.000000 0.6198 0.6195 0.6192 0.6191 0.6190
2547.000000 0.6189 0.6188 0.6187 0.6186 0.6183
2552.000000 0.6180 0.6177 0.6174 0.6171 0.6168
2557.000000 0.6165 0.6162 0.6158 0.6153 0.6148
2562.000000 0.6143 0.6138 0.6133 0.6128 0.6124
2567.000000 0.6119 0.6114 0.6109 0.6104 0.6099
2572.000000 0.6092 0.6086 0.6080 0.6073 0.6067
2577.000000 0.6061 0.6054 0.6048 0.6042 0.6035
2582.000000 0.6029 0.6023 0.6016 0.6010 0.6004
2587.000000 0.5998 0.5992 0.5986 0.5981 0.5975
2592.000000 0.5969 0.5963 0.5957 0.5951 0.5946
2597.000000 0.5940 0.5934 0.5931 0.5929 0.5927
2602.000000 0.5925 0.5923 0.5921 0.5919 0.5917
2607.000000 0.5914 0.5901 0.5888 0.5875 0.5857
2612.000000 0.5838 0.5824 0.5817 0.5809 0.5802
2617.000000 0.5795 0.5790 0.5787 0.5783 0.5780
2622.000000 0.5777 0.5772 0.5768 0.5764 0.5760
2627.000000 0.5756 0.5752 0.5747 0.5743 0.5738
2632.000000 0.5734 0.5729 0.5725 0.5720 0.5715
2637.000000 0.5711 0.5706 0.5702 0.5697 0.5693
2642.000000 0.5688 0.5684 0.5680 0.5675 0.5671
2647.000000 0.5667 0.5662 0.5658 0.5653 0.5649
2652.000000 0.5645 0.5640 0.5635 0.5630 0.5625
2657.000000 0.5620 0.5615 0.5610 0.5604 0.5599
2662.000000 0.5593 0.5588 0.5583 0.5577 0.5572
2667.000000 0.5566 0.5561 0.5556 0.5550 0.5545
2672.000000 0.5539 0.5534 0.5529 0.5523 0.5518
2677.000000 0.5513 0.5508 0.5503 0.5498 0.5493
2682.000000 0.5487 0.5482 0.5477 0.5472 0.5467
2687.000000 0.5462 0.5457 0.5452 0.5447 0.5445
2692.000000 0.5443 0.5441 0.5439 0.5438 0.5436
2697.000000 0.5434 0.5432 0.5430 0.5431 0.5433
2702.000000 0.5435 0.5437 0.5440 0.5443 0.5447
2707.000000 0.5450 0.5453 0.5456 0.5460 0.5463
2712.000000 0.5462 0.5458 0.5455 0.5449 0.5441
2717.000000 0.5433 0.5425 0.5417 0.5409 0.5401
2722.000000 0.5393 0.5386 0.5378 0.5371 0.5364
2727.000000 0.5356 0.5349 0.5341 0.5333 0.5325
2732.000000 0.5317 0.5309 0.5300 0.5292 0.5284
2737.000000 0.5276 0.5268 0.5260 0.5251 0.5243
2742.000000 0.5235 0.5228 0.5220 0.5212 0.5204
2747.000000 0.5196 0.5188 0.5180 0.5174 0.5168
2752.000000 0.5163 0.5158 0.5153 0.5147 0.5142
2757.000000 0.5136 0.5128 0.5121 0.5113 0.5106
2762.000000 0.5098 0.5091 0.5084 0.5076 0.5068
2767.000000 0.5058 0.5048 0.5038 0.5028 0.5019
2772.000000 0.5009 0.4999 0.4989 0.4979 0.4969
2777.000000 0.4960 0.4950 0.4940 0.4930 0.4921
2782.000000 0.4911 0.4902 0.4892 0.4883 0.4873
2787.000000 0.4864 0.4854 0.4845 0.4835 0.4826
2792.000000 0.4816 0.4808 0.4800 0.4792 0.4785
2797.000000 0.4777 0.4770 0.4762 0.4754 0.4747
2802.000000 0.4739 0.4731 0.4723 0.4715 0.4707
2807.000000 0.4698 0.4689 0.4668 0.4647 0.4626
2812.000000 0.4606 0.4586 0.4567 0.4547 0.4527
2817.000000 0.4508 0.4493 0.4479 0.4464 0.4449
2822.000000 0.4434 0.4420 0.4405 0.4392 0.4380
2827.000000 0.4368 0.4355 0.4343 0.4332 0.4325
2832.000000 0.4318 0.4312 0.4305 0.4298 0.4292
2837.000000 0.4285 0.4278 0.4271 0.4266 0.4261
2842.000000 0.4257 0.4252 0.4247 0.4242 0.4238
2847.000000 0.4233 0.4228 0.4228 0.4227 0.4226
2852.000000 0.4226 0.4226 0.4227 0.4229 0.4230
2857.000000 0.4231 0.4232 0.4234 0.4235 0.4233
2862.000000 0.4231 0.4229 0.4226 0.4223 0.4216
2867.000000 0.4209 0.4203 0.4196 0.4189 0.4180
2872.000000 0.4171 0.4161 0.4152 0.4142 0.4133
2877.000000 0.4122 0.4109 0.4096 0.4083 0.4070
2882.000000 0.4057 0.4037 0.4013 0.3989 0.3965
2887.000000 0.3914 0.3877 0.3849 0.3822 0.3803
2892.000000 0.3787 0.3772 0.3757 0.3747 0.3739
2897.000000 0.3732 0.3724 0.3717 0.3710 0.3710
2902.000000 0.3718 0.3711 0.3715 0.3725 0.3741
2907.000000 0.3756 0.3773 0.3790 0.3806 0.3824
2912.000000 0.3842 0.3862 0.3884 0.3905 0.3928
2917.000000 0.3953 0.3977 0.4002 0.4026 0.4049
2922.000000 0.4073 0.4096 0.4120 0.4143 0.4159
2927.000000 0.4176 0.4192 0.4208 0.4224 0.4237
2932.000000 0.4251 0.4264 0.4277 0.4291 0.4304
2937.000000 0.4317 0.4331 0.4342 0.4352 0.4363
2942.000000 0.4373 0.4383 0.4393 0.4403 0.4413
2947.000000 0.4424 0.4434 0.4444 0.4455 0.4468
2952.000000 0.4480 0.4493 0.4505 0.4516 0.4528
2957.000000 0.4539 0.4550 0.4571 0.4602 0.4628
2962.000000 0.4648 0.4650 0.4652 0.4655 0.4658
2967.000000 0.4662 0.4665 0.4665 0.4665 0.4665
2972.000000 0.4666 0.4666 0.4666 0.4666 0.4667
2977.000000 0.4675 0.4667 0.4667 0.4668 0.4668
2982.000000 0.4668 0.4668 0.4669 0.4669 0.4669
2987.000000 0.4669 0.4669 0.4667 0.4666 0.4665
2992.000000 0.4663 0.4662 0.4660 0.4658 0.4654
2997.000000 0.4650 0.4647 0.4632 0.4600 0.4551
3002.000000 0.4503 0.4459 0.4416 0.4395 0.4376
3007.000000 0.4357 0.4339 0.4321 0.4303 0.4286
3012.000000 0.4271 0.4256 0.4240 0.4225 0.4210
3017.000000 0.4195 0.4180 0.4166 0.4155 0.4143
3022.000000 0.4131 0.4119 0.4108 0.4100 0.4092
3027.000000 0.4084 0.4076 0.4068 0.4059 0.4051
3032.000000 0.4043 0.4035 0.4027 0.4023 0.4020
3037.000000 0.4017 0.4013 0.4010 0.4000 0.3989
3042.000000 0.3978 0.3964 0.3949 0.3934 0.3924
3047.000000 0.3914 0.3904 0.3893 0.3883 0.3873
3052.000000 0.3860 0.3848 0.3835 0.3821 0.3806
3057.000000 0.3791 0.3776 0.3760 0.3745 0.3730
3062.000000 0.3715 0.3701 0.3687 0.3673 0.3659
3067.000000 0.3645 0.3631 0.3618 0.3604 0.3590
3072.000000 0.3576 0.3562 0.3549 0.3535 0.3521
3077.000000 0.3508 0.3497 0.3486 0.3476 0.3466
3082.000000 0.3455 0.3445 0.3435 0.3424 0.3414
3087.000000 0.3404 0.3398 0.3392 0.3386 0.3380
3092.000000 0.3374 0.3368 0.3361 0.3355 0.3349
3097.000000 0.3343 0.3337 0.3331 0.3324 0.3318
3102.000000 0.3312 0.3305 0.3299 0.3293 0.3286
3107.000000 0.3280 0.3273 0.3265 0.3257 0.3249
3112.000000 0.3241 0.3233 0.3225 0.3217 0.3209
3117.000000 0.3201 0.3194 0.3188 0.3182 0.3176
3122.000000 0.3170 0.3164 0.3158 0.3153 0.3153
3127.000000 0.3153 0.3154 0.3154 0.3154 0.3154
3132.000000 0.3155 0.3155 0.3151 0.3145 0.3137
3137.000000 0.3121 0.3105 0.3090 0.3072 0.3053
3142.000000 0.3035 0.3016 0.2997 0.2979 0.2961
3147.000000 0.2943 0.2925 0.2911 0.2896 0.2882
3152.000000 0.2868 0.2853 0.2841 0.2832 0.2823
3157.000000 0.2814 0.2805 0.2796 0.2788 0.2779
3162.000000 0.2770 0.2761 0.2752 0.2743 0.2738
3167.000000 0.2734 0.2730 0.2726 0.2722 0.2718
3172.000000 0.2713 0.2709 0.2705 0.2701 0.2696
3177.000000 0.2691 0.2687 0.2682 0.2677 0.2673
3182.000000 0.2668 0.2663 0.2658 0.2654 0.2649
3187.000000 0.2644 0.2640 0.2635 0.2630 0.2626
3192.000000 0.2621 0.2616 0.2611 0.2607 0.2602
3197.000000 0.2597 0.2593 0.2588 0.2583 0.2578
3202.000000 0.2574 0.2568 0.2563 0.2558 0.2552
3207.000000 0.2547 0.2542 0.2536 0.2531 0.2526
3212.000000 0.2520 0.2515 0.2510 0.2504 0.2499
3217.000000 0.2494 0.2488 0.2483 0.2478 0.2472
3222.000000 0.2467 0.2462 0.2457 0.2452 0.2448
3227.000000 0.2443 0.2439 0.2434 0.2430 0.2425
3232.000000 0.2421 0.2416 0.2412 0.2407 0.2403
3237.000000 0.2398 0.2394 0.2389 0.2385 0.2380
3242.000000 0.2376 0.2371 0.2366 0.2360 0.2355
3247.000000 0.2350 0.2345 0.2339 0.2334 0.2329
3252.000000 0.2324 0.2318 0.2313 0.2308 0.2303
3257.000000 0.2297 0.2292 0.2287 0.2282 0.2278
3262.000000 0.2275 0.2272 0.2268 0.2265 0.2262
3267.000000 0.2259 0.2256 0.2253 0.2250 0.2246
3272.000000 0.2243 0.2240 0.2237 0.2234 0.2233
3277.000000 0.2234 0.2234 0.2234 0.2234 0.2235
3282.000000 0.2235 0.2235 0.2235 0.2235 0.2232
3287.000000 0.2229 0.2225 0.2222 0.2219 0.2215
3292.000000 0.2212 0.2209 0.2205 0.2204 0.2207
3297.000000 0.2211 0.2215 0.2218 0.2222 0.2225
3302.000000 0.2227 0.2230 0.2232 0.2234 0.2236
3307.000000 0.2223 0.2203 0.2182 0.2161 0.2148
3312.000000 0.2140 0.2133 0.2126 0.2122 0.2119
3317.000000 0.2115 0.2112 0.2110 0.2107 0.2102
3322.000000 0.2098 0.2093 0.2088 0.2084 0.2079
3327.000000 0.2074 0.2070 0.2068 0.2066 0.2064
3332.000000 0.2062 0.2060 0.2058 0.2057 0.2056
3337.000000 0.2055 0.2055 0.2054 0.2054 0.2053
3342.000000 0.2053 0.2052 0.2052 0.2050 0.2049
3347.000000 0.2047 0.2045 0.2043 0.2041 0.2039
3352.000000 0.2038 0.2036 0.2034 0.2033 0.2031
3357.000000 0.2030 0.2028 0.2027 0.2026 0.2024
3362.000000 0.2023 0.2021 0.2022 0.2023 0.2024
3367.000000 0.2025 0.2026 0.2027 0.2007 0.2029
3372.000000 0.2030 0.2032 0.2033 0.2034 0.2035
3377.000000 0.2036 0.2039 0.2041 0.2044 0.2047
3382.000000 0.2049 0.2052 0.2055 0.2057 0.2060
3387.000000 0.2063 0.2065 0.2068 0.2071 0.2073
3392.000000 0.2076 0.2079 0.2083 0.2089 0.2094
3397.000000 0.2099 0.2105 0.2110 0.2115 0.2128
3402.000000 0.2143 0.2157 0.2176 0.2202 0.2228
3407.000000 0.2246 0.2258 0.2271 0.2283 0.2295
3412.000000 0.2307 0.2319 0.2331 0.2343 0.2355
3417.000000 0.2361 0.2366 0.2370 0.2374 0.2374
3422.000000 0.2374 0.2373 0.2372 0.2371 0.2371
3427.000000 0.2370 0.2369 0.2371 0.2374 0.2377
3432.000000 0.2412 0.2525 0.2585 0.2610 0.2626
3437.000000 0.2640 0.2654 0.2669 0.2683 0.2697
3442.000000 0.2716 0.2741 0.2765 0.2789 0.2813
3447.000000 0.2835 0.2856 0.2877 0.2899 0.2920
3452.000000 0.2941 0.2963 0.2984 0.3006 0.3027
3457.000000 0.3048 0.3070 0.3092 0.3113 0.3135
3462.000000 0.3157 0.3179 0.3200 0.3222 0.3244
3467.000000 0.3265 0.3287 0.3309 0.3331 0.3352
3472.000000 0.3374 0.3395 0.3417 0.3439 0.3460
3477.000000 0.3482 0.3503 0.3525 0.3547 0.3568
3482.000000 0.3590 0.3612 0.3633 0.3655 0.3676
3487.000000 0.3701 0.3731 0.3760 0.3790 0.3819
3492.000000 0.3846 0.3868 0.3889 0.3911 0.3933
3497.000000 0.3955 0.3977 0.3999 0.4021 0.4048
3502.000000 0.4076 0.4104 0.4132 0.4161 0.4189
3507.000000 0.4217 0.4241 0.4263 0.4284 0.4305
3512.000000 0.4327 0.4348 0.4371 0.4394 0.4416
3517.000000 0.4439 0.4461 0.4484 0.4509 0.4535
3522.000000 0.4561 0.4587 0.4613 0.4639 0.4666
3527.000000 0.4692 0.4718 0.4729 0.4740 0.4752
3532.000000 0.4763 0.4774 0.4785 0.4796 0.4805
3537.000000 0.4812 0.4819 0.4826 0.4835 0.4843
3542.000000 0.4851 0.4875 0.4912 0.4950 0.5011
3547.000000 0.5072 0.5125 0.5161 0.5196 0.5231
3552.000000 0.5267 0.5302 0.5338 0.5368 0.5398
3557.000000 0.5428 0.5458 0.5488 0.5519 0.5549
3562.000000 0.5580 0.5614 0.5648 0.5682 0.5716
3567.000000 0.5750 0.5784 0.5818 0.5853 0.5887
3572.000000 0.5919 0.5949 0.5979 0.6009 0.6039
3577.000000 0.6069 0.6099 0.6129 0.6156 0.6180
3582.000000 0.6204 0.6228 0.6252 0.6276 0.6300
3587.000000 0.6324 0.6348 0.6371 0.6393 0.6415
3592.000000 0.6437 0.6459 0.6481 0.6503 0.6524
3597.000000 0.6543 0.6561 0.6580 0.6598 0.6617
3602.000000 0.6636 0.6654 0.6666 0.6677 0.6688
3607.000000 0.6699 0.6710 0.6721 0.6732 0.6743
3612.000000 0.6753 0.6762 0.6771 0.6780 0.6789
3617.000000 0.6799 0.6808 0.6817 0.6826 0.6837
3622.000000 0.6848 0.6860 0.6871 0.6882 0.6893
3627.000000 0.6907 0.6921 0.6933 0.6944 0.6954
3632.000000 0.6964 0.6973 0.6983 0.6992 0.7001
3637.000000 0.7010 0.7019 0.7027 0.7035 0.7042
3642.000000 0.7050 0.7058 0.7066 0.7074 0.7081
3647.000000 0.7087 0.7092 0.7097 0.7102 0.7106
3652.000000 0.7111 0.7116 0.7120 0.7125 0.7130
3657.000000 0.7135 0.7141 0.7147 0.7152 0.7158
3662.000000 0.7164 0.7169 0.7175 0.7181 0.7186
3667.000000 0.7192 0.7198 0.7202 0.7205 0.7208
3672.000000 0.7211 0.7214 0.7217 0.7218 0.7220
3677.000000 0.7221 0.7222 0.7224 0.7225 0.7226
3682.000000 0.7228 0.7229 0.7231 0.7231 0.7232
3687.000000 0.7232 0.7233 0.7234 0.7234 0.7235
3692.000000 0.7235 0.7236 0.7236 0.7237 0.7237
3697.000000 0.7237 0.7237 0.7236 0.7235 0.7234
3702.000000 0.7233 0.7232 0.7229 0.7221 0.7213
3707.000000 0.7205 0.7197 0.7189 0.7181 0.7173
3712.000000 0.7165 0.7157 0.7149 0.7139 0.7128
3717.000000 0.7118 0.7108 0.7098 0.7088 0.7078
3722.000000 0.7068 0.7057 0.7045 0.7034 0.7023
3727.000000 0.7017 0.7012 0.7006 0.7001 0.6998
3732.000000 0.7004 0.7011 0.7017 0.7024 0.7031
3737.000000 0.7041 0.7051 0.7060 0.7070 0.7080
3742.000000 0.7090 0.7099 0.7109 0.7119 0.7129
3747.000000 0.7138 0.7147 0.7157 0.7161 0.7160
3752.000000 0.7159 0.7158 0.7157 0.7156 0.7155
3757.000000 0.7156 0.7157 0.7158 0.7159 0.7160
3762.000000 0.7161 0.7167 0.7174 0.7180 0.7186
3767.000000 0.7189 0.7193 0.7197 0.7192 0.7185
3772.000000 0.7178 0.7171 0.7164 0.7157 0.7149
3777.000000 0.7141 0.7133 0.7125 0.7117 0.7108
3782.000000 0.7100 0.7092 0.7091 0.7091 0.7090
3787.000000 0.7090 0.7089 0.7089 0.7080 0.7071
3792.000000 0.7063 0.7054 0.7046 0.7037 0.7028
3797.000000 0.7020 0.7011 0.7003 0.6994 0.6985
3802.000000 0.6979 0.6973 0.6968 0.6962 0.6956
3807.000000 0.6951 0.6945 0.6940 0.6934 0.6934
3812.000000 0.6934 0.6934 0.6934 0.6934 0.6933
3817.000000 0.6933 0.6933 0.6933 0.6933 0.6933
3822.000000 0.6939 0.6944 0.6949 0.6955 0.6960
3827.000000 0.6965 0.6971 0.6976 0.6981 0.6982
3832.000000 0.6982 0.6983 0.6983 0.6983 0.6983
3837.000000 0.6984 0.6984 0.6984 0.6983 0.6983
3842.000000 0.6982 0.6981 0.6980 0.6980 0.6979
3847.000000 0.6978 0.6978 0.6977 0.6976 0.6976
3852.000000 0.6978 0.6981 0.6983 0.6986 0.6988
3857.000000 0.6990 0.6993 0.6995 0.6998 0.7000
3862.000000 0.7002 0.7003 0.7004 0.7006 0.7007
3867.000000 0.7008 0.7009 0.7010 0.7012 0.7013
3872.000000 0.7014 0.7015 0.7016 0.7014 0.7012
3877.000000 0.7010 0.7008 0.7005 0.7003 0.7001
3882.000000 0.6999 0.6996 0.6994 0.6992 0.6987
3887.000000 0.6983 0.6978 0.6973 0.6968 0.6964
3892.000000 0.6959 0.6954 0.6950 0.6945 0.6940
3897.000000 0.6935 0.6931 0.6926 0.6921 0.6917
3902.000000 0.6913 0.6909 0.6904 0.6900 0.6896
3907.000000 0.6892 0.6888 0.6884 0.6880 0.6876
3912.000000 0.6871 0.6867 0.6863 0.6864 0.6866
3917.000000 0.6868 0.6870 0.6873 0.6875 0.6877
3922.000000 0.6879 0.6881 0.6883 0.6883 0.6878
3927.000000 0.6873 0.6869 0.6864 0.6859 0.6855
3932.000000 0.6850 0.6844 0.6839 0.6833 0.6828
3937.000000 0.6826 0.6827 0.6829 0.6831 0.6832
3942.000000 0.6834 0.6832 0.6829 0.6827 0.6824
3947.000000 0.6821 0.6815 0.6808 0.6800 0.6792
3952.000000 0.6785 0.6777 0.6773 0.6772 0.6770
3957.000000 0.6768 0.6769 0.6771 0.6774 0.6776
3962.000000 0.6778 0.6780 0.6783 0.6787 0.6791
3967.000000 0.6795 0.6799 0.6803 0.6814 0.6810
3972.000000 0.6810 0.6811 0.6811 0.6811 0.6811
3977.000000 0.6810 0.6805 0.6801 0.6796 0.6792
3982.000000 0.6787 0.6783 0.6779 0.6774 0.6769
3987.000000 0.6764 0.6759 0.6754 0.6749 0.6745
3992.000000 0.6745 0.6745 0.6746 0.6748 0.6756
3997.000000 0.6764 0.6772 0.6780 0.6782
##END=
