##TITLE=Cyclohexane, d12
##JCAMP-DX=4.24
$$ By DXEDIT 1.05 (RS McDonald)
##DATA TYPE=INFRARED SPECTRUM
##CLASS=COBLENTZ III
##ORIGIN=DOW CHEMICAL COMPANY
##OWNER=COPYRIGHT (C) 1988 by COBLENTZ SOCIETY INC.
Collection (C) 2018 copyright by the U.S. Secretary of Commerce
on behalf of the United States of America. All rights reserved.
##DATE=1965/01/28
##MOLFORM=C6 D12
##SOURCE REFERENCE=COBLENTZ NO. 07574
##$NIST ID=B6007574
##$NIST SOURCE=COBLENTZ
##$NIST IMAGE=cob7574
##SPECTROMETER/DATA SYSTEM=BECKMAN IR-9 (GRATING)
##INSTRUMENT PARAMETERS=ORDER CHANGES: 670, 1200, 2000 CM^-^1
##STATE=LIQUID (NEAT)
##PATH LENGTH=0.0117 CM
##SAMPLING PROCEDURE=TRANSMISSION
##RESOLUTION=2
##DATA PROCESSING=DIGITIZED BY COBLENTZ SOCIETY (BATCH I) FROM HARD COPY
##XUNITS=1/CM
##YUNITS=TRANSMITTANCE
##XFACTOR=1
##YFACTOR=1
##DELTAX=1
##FIRSTX=3794
##LASTX=404
##FIRSTY=0.8702
##MAXX=3794
##MINX=404
##MAXY=0.8713
##MINY=0.0067
##NPOINTS=3391
##XYDATA=(X++(Y..Y))
3794.000000 0.8702 0.8702 0.8703 0.8703 0.8703
3789.000000 0.8703 0.8704 0.8704 0.8705 0.8705
3784.000000 0.8705 0.8705 0.8706 0.8706 0.8707
3779.000000 0.8707 0.8708 0.8708 0.8708 0.8708
3774.000000 0.8709 0.8709 0.8710 0.8710 0.8710
3769.000000 0.8710 0.8711 0.8711 0.8712 0.8712
3764.000000 0.8712 0.8712 0.8713 0.8713 0.8713
3759.000000 0.8713 0.8713 0.8713 0.8713 0.8713
3754.000000 0.8713 0.8713 0.8713 0.8713 0.8713
3749.000000 0.8713 0.8713 0.8713 0.8713 0.8713
3744.000000 0.8713 0.8713 0.8713 0.8713 0.8713
3739.000000 0.8713 0.8713 0.8713 0.8713 0.8713
3734.000000 0.8713 0.8713 0.8713 0.8712 0.8712
3729.000000 0.8711 0.8711 0.8710 0.8710 0.8709
3724.000000 0.8709 0.8708 0.8708 0.8707 0.8706
3719.000000 0.8705 0.8705 0.8704 0.8704 0.8703
3714.000000 0.8703 0.8702 0.8702 0.8701 0.8701
3709.000000 0.8700 0.8700 0.8699 0.8699 0.8698
3704.000000 0.8697 0.8696 0.8696 0.8695 0.8695
3699.000000 0.8694 0.8694 0.8693 0.8693 0.8692
3694.000000 0.8692 0.8691 0.8691 0.8690 0.8690
3689.000000 0.8690 0.8690 0.8689 0.8689 0.8688
3684.000000 0.8688 0.8688 0.8688 0.8687 0.8687
3679.000000 0.8686 0.8686 0.8686 0.8686 0.8685
3674.000000 0.8685 0.8684 0.8684 0.8684 0.8684
3669.000000 0.8683 0.8683 0.8682 0.8682 0.8682
3664.000000 0.8682 0.8681 0.8681 0.8681 0.8681
3659.000000 0.8680 0.8680 0.8680 0.8680 0.8678
3654.000000 0.8678 0.8678 0.8678 0.8678 0.8678
3649.000000 0.8678 0.8678 0.8677 0.8677 0.8677
3644.000000 0.8677 0.8675 0.8675 0.8675 0.8675
3639.000000 0.8675 0.8675 0.8675 0.8675 0.8674
3634.000000 0.8674 0.8674 0.8674 0.8673 0.8673
3629.000000 0.8671 0.8671 0.8670 0.8670 0.8668
3624.000000 0.8668 0.8667 0.8667 0.8666 0.8665
3619.000000 0.8664 0.8664 0.8663 0.8662 0.8661
3614.000000 0.8661 0.8660 0.8659 0.8658 0.8658
3609.000000 0.8657 0.8656 0.8655 0.8655 0.8654
3604.000000 0.8653 0.8652 0.8651 0.8650 0.8650
3599.000000 0.8649 0.8648 0.8647 0.8647 0.8646
3594.000000 0.8645 0.8644 0.8644 0.8643 0.8642
3589.000000 0.8641 0.8640 0.8639 0.8638 0.8637
3584.000000 0.8636 0.8635 0.8634 0.8633 0.8633
3579.000000 0.8632 0.8631 0.8630 0.8628 0.8628
3574.000000 0.8627 0.8625 0.8625 0.8624 0.8623
3569.000000 0.8621 0.8621 0.8620 0.8618 0.8618
3564.000000 0.8618 0.8617 0.8616 0.8615 0.8614
3559.000000 0.8613 0.8612 0.8611 0.8610 0.8609
3554.000000 0.8609 0.8608 0.8608 0.8607 0.8607
3549.000000 0.8606 0.8605 0.8604 0.8604 0.8603
3544.000000 0.8603 0.8602 0.8602 0.8601 0.8601
3539.000000 0.8600 0.8599 0.8598 0.8598 0.8597
3534.000000 0.8597 0.8596 0.8596 0.8595 0.8594
3529.000000 0.8593 0.8593 0.8592 0.8591 0.8590
3524.000000 0.8590 0.8589 0.8588 0.8587 0.8586
3519.000000 0.8585 0.8584 0.8583 0.8582 0.8581
3514.000000 0.8580 0.8578 0.8578 0.8577 0.8577
3509.000000 0.8575 0.8575 0.8574 0.8573 0.8571
3504.000000 0.8571 0.8570 0.8570 0.8568 0.8568
3499.000000 0.8567 0.8567 0.8566 0.8566 0.8565
3494.000000 0.8564 0.8563 0.8563 0.8562 0.8561
3489.000000 0.8560 0.8560 0.8559 0.8559 0.8558
3484.000000 0.8557 0.8556 0.8555 0.8553 0.8552
3479.000000 0.8551 0.8550 0.8548 0.8547 0.8545
3474.000000 0.8544 0.8542 0.8541 0.8540 0.8539
3469.000000 0.8533 0.8527 0.8521 0.8515 0.8508
3464.000000 0.8502 0.8492 0.8482 0.8471 0.8462
3459.000000 0.8451 0.8441 0.8425 0.8412 0.8399
3454.000000 0.8387 0.8390 0.8394 0.8397 0.8400
3449.000000 0.8403 0.8407 0.8409 0.8411 0.8411
3444.000000 0.8412 0.8413 0.8414 0.8414 0.8415
3439.000000 0.8415 0.8416 0.8416 0.8415 0.8415
3434.000000 0.8414 0.8411 0.8408 0.8405 0.8403
3429.000000 0.8400 0.8398 0.8391 0.8385 0.8375
3424.000000 0.8365 0.8355 0.8345 0.8328 0.8313
3419.000000 0.8289 0.8266 0.8253 0.8240 0.8230
3414.000000 0.8220 0.8218 0.8216 0.8214 0.8212
3409.000000 0.8210 0.8210 0.8210 0.8212 0.8217
3404.000000 0.8223 0.8228 0.8236 0.8245 0.8254
3399.000000 0.8263 0.8273 0.8280 0.8288 0.8295
3394.000000 0.8303 0.8310 0.8318 0.8321 0.8327
3389.000000 0.8327 0.8327 0.8327 0.8328 0.8328
3384.000000 0.8328 0.8328 0.8328 0.8328 0.8328
3379.000000 0.8328 0.8328 0.8328 0.8328 0.8325
3374.000000 0.8325 0.8323 0.8321 0.8320 0.8318
3369.000000 0.8316 0.8315 0.8313 0.8311 0.8302
3364.000000 0.8294 0.8281 0.8268 0.8250 0.8233
3359.000000 0.8216 0.8199 0.8185 0.8171 0.8164
3354.000000 0.8158 0.8157 0.8157 0.8157 0.8157
3349.000000 0.8156 0.8156 0.8155 0.8155 0.8154
3344.000000 0.8153 0.8151 0.8151 0.8150 0.8149
3339.000000 0.8147 0.8146 0.8141 0.8136 0.8130
3334.000000 0.8125 0.8119 0.8115 0.8108 0.8104
3329.000000 0.8088 0.8071 0.8055 0.8039 0.8001
3324.000000 0.7965 0.7905 0.7846 0.7740 0.7635
3319.000000 0.7521 0.7407 0.7301 0.7197 0.7169
3314.000000 0.7144 0.7141 0.7140 0.7139 0.7141
3309.000000 0.7160 0.7178 0.7212 0.7247 0.7292
3304.000000 0.7338 0.7361 0.7385 0.7408 0.7431
3299.000000 0.7456 0.7482 0.7507 0.7532 0.7556
3294.000000 0.7581 0.7590 0.7600 0.7600 0.7600
3289.000000 0.7599 0.7598 0.7594 0.7590 0.7567
3284.000000 0.7545 0.7495 0.7445 0.7254 0.7064
3279.000000 0.7058 0.7055 0.7051 0.7050 0.7050
3274.000000 0.7054 0.7058 0.7064 0.7067 0.7071
3269.000000 0.7069 0.7068 0.7064 0.7058 0.7051
3264.000000 0.7046 0.7033 0.7019 0.7007 0.6994
3259.000000 0.6911 0.6828 0.6818 0.6808 0.6801
3254.000000 0.6794 0.6785 0.6776 0.6761 0.6745
3249.000000 0.6728 0.6712 0.6690 0.6667 0.6641
3244.000000 0.6615 0.6589 0.6562 0.6528 0.6493
3239.000000 0.6475 0.6460 0.6447 0.6435 0.6431
3234.000000 0.6428 0.6445 0.6461 0.6515 0.6569
3229.000000 0.6624 0.6678 0.6733 0.6787 0.6841
3224.000000 0.6896 0.6901 0.6908 0.6905 0.6903
3219.000000 0.6857 0.6811 0.6762 0.6715 0.6675
3214.000000 0.6636 0.6626 0.6618 0.6619 0.6622
3209.000000 0.6642 0.6661 0.6681 0.6701 0.6725
3204.000000 0.6751 0.6776 0.6801 0.6828 0.6856
3199.000000 0.6886 0.6917 0.6921 0.6925 0.6924
3194.000000 0.6924 0.6922 0.6921 0.6868 0.6817
3189.000000 0.6767 0.6718 0.6657 0.6596 0.6532
3184.000000 0.6468 0.6372 0.6276 0.6169 0.6062
3179.000000 0.6056 0.6049 0.6049 0.6050 0.6071
3174.000000 0.6092 0.6112 0.6132 0.6142 0.6153
3169.000000 0.6158 0.6164 0.6165 0.6165 0.6165
3164.000000 0.6165 0.6164 0.6162 0.6158 0.6153
3159.000000 0.6102 0.6052 0.5962 0.5873 0.5784
3154.000000 0.5695 0.5606 0.5517 0.5427 0.5338
3149.000000 0.5249 0.5160 0.5070 0.4981 0.4970
3144.000000 0.4959 0.4955 0.4955 0.4956 0.4960
3139.000000 0.5075 0.5191 0.5333 0.5475 0.5617
3134.000000 0.5759 0.5901 0.6043 0.6185 0.6327
3129.000000 0.6468 0.6611 0.6753 0.6895 0.6904
3124.000000 0.6912 0.6915 0.6918 0.6890 0.6862
3119.000000 0.6818 0.6775 0.6730 0.6686 0.6642
3114.000000 0.6598 0.6593 0.6588 0.6585 0.6582
3109.000000 0.6600 0.6618 0.6683 0.6748 0.6811
3104.000000 0.6876 0.6941 0.7006 0.7069 0.7135
3099.000000 0.7199 0.7264 0.7328 0.7393 0.7425
3094.000000 0.7460 0.7458 0.7457 0.7445 0.7434
3089.000000 0.7408 0.7385 0.7331 0.7278 0.7261
3084.000000 0.7244 0.7241 0.7239 0.7291 0.7343
3079.000000 0.7400 0.7457 0.7512 0.7569 0.7626
3074.000000 0.7684 0.7741 0.7798 0.7854 0.7911
3069.000000 0.7941 0.7971 0.7986 0.8000 0.8012
3064.000000 0.8026 0.8041 0.8055 0.8068 0.8083
3059.000000 0.8097 0.8111 0.8124 0.8138 0.8151
3054.000000 0.8165 0.8175 0.8184 0.8187 0.8190
3049.000000 0.8193 0.8221 0.8200 0.8200 0.8201
3044.000000 0.8199 0.8197 0.8195 0.8191 0.8188
3039.000000 0.8178 0.8168 0.8157 0.8147 0.8134
3034.000000 0.8121 0.8108 0.8095 0.8082 0.8068
3029.000000 0.8057 0.8045 0.8036 0.8026 0.8019
3024.000000 0.8012 0.7988 0.7962 0.7918 0.7875
3019.000000 0.7831 0.7788 0.7747 0.7706 0.7705
3014.000000 0.7704 0.7711 0.7719 0.7755 0.7791
3009.000000 0.7825 0.7861 0.7897 0.7933 0.7968
3004.000000 0.8004 0.8028 0.8053 0.8060 0.8068
2999.000000 0.8068 0.8068 0.8068 0.8069 0.8069
2994.000000 0.8071 0.8071 0.8071 0.8065 0.8058
2989.000000 0.8051 0.8044 0.8032 0.8021 0.8007
2984.000000 0.7994 0.7980 0.7965 0.7940 0.7914
2979.000000 0.7888 0.7861 0.7835 0.7808 0.7737
2974.000000 0.7665 0.7565 0.7467 0.7354 0.7241
2969.000000 0.7165 0.7092 0.7017 0.6942 0.6867
2964.000000 0.6792 0.6717 0.6642 0.6567 0.6492
2959.000000 0.6448 0.6404 0.6404 0.6405 0.6425
2954.000000 0.6446 0.6501 0.6558 0.6615 0.6671
2949.000000 0.6728 0.6785 0.6835 0.6885 0.6883
2944.000000 0.6881 0.6841 0.6801 0.6668 0.6537
2939.000000 0.6404 0.6272 0.6139 0.6007 0.5874
2934.000000 0.5742 0.5609 0.5477 0.5344 0.5212
2929.000000 0.5079 0.4947 0.4814 0.4682 0.4549
2924.000000 0.4417 0.4284 0.4152 0.4018 0.3887
2919.000000 0.3754 0.3622 0.3489 0.3357 0.3224
2914.000000 0.3092 0.3029 0.2995 0.3034 0.3105
2909.000000 0.3250 0.3395 0.3539 0.3684 0.3828
2904.000000 0.3973 0.4118 0.4262 0.4407 0.4552
2899.000000 0.4697 0.4842 0.4965 0.5089 0.5084
2894.000000 0.5053 0.5076 0.5072 0.4962 0.4854
2889.000000 0.4645 0.4437 0.4228 0.4020 0.3810
2884.000000 0.3602 0.3508 0.3429 0.3462 0.3509
2879.000000 0.3709 0.3909 0.4110 0.4310 0.4510
2874.000000 0.4712 0.4912 0.5112 0.5312 0.5514
2869.000000 0.5714 0.5915 0.6104 0.6294 0.6426
2864.000000 0.6560 0.6655 0.6751 0.6824 0.6898
2859.000000 0.6964 0.7031 0.7092 0.7153 0.7212
2854.000000 0.7274 0.7325 0.7376 0.7411 0.7447
2849.000000 0.7481 0.7515 0.7551 0.7586 0.7610
2844.000000 0.7635 0.7658 0.7683 0.7707 0.7731
2839.000000 0.7761 0.7794 0.7831 0.7868 0.7891
2834.000000 0.7912 0.7926 0.7942 0.7949 0.7956
2829.000000 0.7957 0.7958 0.7962 0.7968 0.7974
2824.000000 0.7980 0.7991 0.8003 0.8021 0.8042
2819.000000 0.8062 0.8085 0.8107 0.8128 0.8151
2814.000000 0.8172 0.8192 0.8212 0.8225 0.8238
2809.000000 0.8246 0.8254 0.8262 0.8271 0.8271
2804.000000 0.8273 0.8260 0.8248 0.8235 0.8221
2799.000000 0.8196 0.8169 0.8134 0.8099 0.8057
2794.000000 0.8015 0.8008 0.8003 0.8000 0.7998
2789.000000 0.7997 0.7997 0.8025 0.8055 0.8085
2784.000000 0.8115 0.8153 0.8191 0.8221 0.8252
2779.000000 0.8268 0.8286 0.8303 0.8320 0.8335
2774.000000 0.8351 0.8361 0.8371 0.8374 0.8378
2769.000000 0.8382 0.8386 0.8389 0.8393 0.8397
2764.000000 0.8401 0.8404 0.8408 0.8410 0.8413
2759.000000 0.8404 0.8396 0.8382 0.8368 0.8352
2754.000000 0.8336 0.8337 0.8338 0.8339 0.8341
2749.000000 0.8343 0.8345 0.8346 0.8348 0.8349
2744.000000 0.8350 0.8350 0.8351 0.8351 0.8352
2739.000000 0.8346 0.8341 0.8331 0.8321 0.8309
2734.000000 0.8298 0.8283 0.8268 0.8248 0.8228
2729.000000 0.8207 0.8187 0.8169 0.8154 0.8151
2724.000000 0.8150 0.8149 0.8148 0.8161 0.8176
2719.000000 0.8237 0.8297 0.8318 0.8342 0.8365
2714.000000 0.8388 0.8410 0.8433 0.8448 0.8463
2709.000000 0.8474 0.8486 0.8497 0.8508 0.8518
2704.000000 0.8531 0.8542 0.8553 0.8561 0.8568
2699.000000 0.8574 0.8580 0.8586 0.8592 0.8596
2694.000000 0.8600 0.8603 0.8606 0.8608 0.8611
2689.000000 0.8613 0.8616 0.8618 0.8621 0.8624
2684.000000 0.8627 0.8628 0.8632 0.8633 0.8634
2679.000000 0.8635 0.8637 0.8638 0.8640 0.8641
2674.000000 0.8643 0.8644 0.8645 0.8645 0.8645
2669.000000 0.8645 0.8646 0.8646 0.8646 0.8646
2664.000000 0.8647 0.8647 0.8647 0.8647 0.8648
2659.000000 0.8648 0.8648 0.8649 0.8651 0.8652
2654.000000 0.8653 0.8654 0.8655 0.8656 0.8658
2649.000000 0.8658 0.8658 0.8657 0.8656 0.8654
2644.000000 0.8653 0.8652 0.8651 0.8649 0.8648
2639.000000 0.8645 0.8643 0.8640 0.8638 0.8636
2634.000000 0.8634 0.8631 0.8628 0.8625 0.8624
2629.000000 0.8621 0.8620 0.8616 0.8613 0.8609
2624.000000 0.8605 0.8601 0.8598 0.8594 0.8591
2619.000000 0.8587 0.8584 0.8575 0.8567 0.8558
2614.000000 0.8550 0.8541 0.8532 0.8523 0.8515
2609.000000 0.8498 0.8481 0.8460 0.8439 0.8411
2604.000000 0.8383 0.8349 0.8316 0.8271 0.8228
2599.000000 0.8122 0.8018 0.7821 0.7625 0.7622
2594.000000 0.7621 0.7619 0.7619 0.7621 0.7611
2589.000000 0.7642 0.7661 0.7678 0.7698 0.7721
2584.000000 0.7746 0.7768 0.7792 0.7814 0.7837
2579.000000 0.7840 0.7844 0.7847 0.7851 0.7853
2574.000000 0.7855 0.7845 0.7836 0.7819 0.7804
2569.000000 0.7788 0.7771 0.7765 0.7760 0.7758
2564.000000 0.7758 0.7761 0.7765 0.7772 0.7780
2559.000000 0.7793 0.7807 0.7832 0.7857 0.7886
2554.000000 0.7915 0.7965 0.8015 0.8034 0.8051
2549.000000 0.8060 0.8068 0.8075 0.8084 0.8092
2544.000000 0.8101 0.8108 0.8118 0.8125 0.8135
2539.000000 0.8145 0.8156 0.8171 0.8189 0.8207
2534.000000 0.8225 0.8245 0.8264 0.8290 0.8317
2529.000000 0.8347 0.8377 0.8380 0.8383 0.8385
2524.000000 0.8388 0.8390 0.8392 0.8394 0.8397
2519.000000 0.8397 0.8397 0.8382 0.8367 0.8352
2514.000000 0.8337 0.8321 0.8306 0.8289 0.8273
2509.000000 0.8256 0.8240 0.8223 0.8207 0.8194
2504.000000 0.8181 0.8168 0.8158 0.8146 0.8134
2499.000000 0.8122 0.8111 0.8112 0.8115 0.8115
2494.000000 0.8118 0.8121 0.8125 0.8131 0.8137
2489.000000 0.8142 0.8148 0.8153 0.8158 0.8162
2484.000000 0.8168 0.8178 0.8188 0.8197 0.8206
2479.000000 0.8201 0.8196 0.8190 0.8185 0.8183
2474.000000 0.8182 0.8182 0.8182 0.8184 0.8187
2469.000000 0.8196 0.8205 0.8214 0.8223 0.8233
2464.000000 0.8243 0.8254 0.8266 0.8278 0.8290
2459.000000 0.8301 0.8313 0.8320 0.8328 0.8335
2454.000000 0.8343 0.8350 0.8357 0.8364 0.8371
2449.000000 0.8375 0.8381 0.8380 0.8378 0.8375
2444.000000 0.8374 0.8371 0.8404 0.8367 0.8365
2439.000000 0.8362 0.8360 0.8352 0.8345 0.8338
2434.000000 0.8331 0.8323 0.8316 0.8308 0.8301
2429.000000 0.8293 0.8286 0.8268 0.8253 0.8236
2424.000000 0.8220 0.8203 0.8186 0.8168 0.8153
2419.000000 0.8132 0.8111 0.8082 0.8053 0.8022
2414.000000 0.7994 0.7951 0.7910 0.7847 0.7784
2409.000000 0.7690 0.7596 0.7499 0.7401 0.6892
2404.000000 0.6383 0.5866 0.4930 0.5145 0.4941
2399.000000 0.4970 0.4999 0.5099 0.5199 0.5299
2394.000000 0.5400 0.5500 0.5600 0.5700 0.5801
2389.000000 0.5901 0.6002 0.6102 0.6202 0.6302
2384.000000 0.6403 0.6461 0.6519 0.6522 0.6495
2379.000000 0.6515 0.6505 0.6268 0.6032 0.5795
2374.000000 0.5558 0.5321 0.5084 0.4847 0.4610
2369.000000 0.4373 0.4137 0.3962 0.3787 0.3792
2364.000000 0.3834 0.3852 0.3907 0.4177 0.4447
2359.000000 0.4717 0.4987 0.5257 0.5528 0.5798
2354.000000 0.6068 0.6338 0.6608 0.6878 0.7148
2349.000000 0.7400 0.7653 0.7715 0.7778 0.7822
2344.000000 0.7868 0.7888 0.7908 0.7921 0.7934
2339.000000 0.7946 0.7958 0.7965 0.7972 0.7978
2334.000000 0.7984 0.7985 0.7987 0.7988 0.7988
2329.000000 0.7988 0.7987 0.7981 0.7992 0.7967
2324.000000 0.7960 0.7947 0.7935 0.7921 0.7910
2319.000000 0.7897 0.7885 0.7865 0.7848 0.7824
2314.000000 0.7801 0.7778 0.7755 0.7721 0.7690
2309.000000 0.7645 0.7600 0.7549 0.7499 0.7437
2304.000000 0.7375 0.7315 0.7254 0.7172 0.7093
2299.000000 0.6988 0.6884 0.6672 0.6461 0.6411
2294.000000 0.6362 0.6192 0.6022 0.5712 0.5404
2289.000000 0.5095 0.4786 0.4477 0.4168 0.3858
2284.000000 0.3549 0.3240 0.2931 0.2622 0.2313
2279.000000 0.2004 0.1694 0.1556 0.1448 0.1418
2274.000000 0.1420 0.1529 0.1637 0.1879 0.2120
2269.000000 0.2361 0.2602 0.2843 0.3084 0.3325
2264.000000 0.3566 0.3807 0.4048 0.4144 0.4241
2259.000000 0.4252 0.4280 0.4265 0.4268 0.4258
2254.000000 0.4248 0.4220 0.4193 0.4049 0.3905
2249.000000 0.3714 0.3526 0.3337 0.3148 0.2958
2244.000000 0.2769 0.2579 0.2390 0.2201 0.2012
2239.000000 0.1822 0.1633 0.1444 0.1255 0.1065
2234.000000 0.0876 0.0687 0.0498 0.0308 0.0119
2229.000000 0.0099 0.0079 0.0079 0.0079 0.0079
2224.000000 0.0079 0.0079 0.0079 0.0079 0.0079
2219.000000 0.0079 0.0079 0.0079 0.0079 0.0079
2214.000000 0.0079 0.0079 0.0079 0.0079 0.0079
2209.000000 0.0079 0.0079 0.0079 0.0079 0.0079
2204.000000 0.0079 0.0079 0.0079 0.0079 0.0079
2199.000000 0.0079 0.0079 0.0079 0.0079 0.0079
2194.000000 0.0079 0.0079 0.0079 0.0079 0.0079
2189.000000 0.0079 0.0079 0.0079 0.0079 0.0079
2184.000000 0.0079 0.0079 0.0079 0.0079 0.0079
2179.000000 0.0079 0.0079 0.0079 0.0079 0.0079
2174.000000 0.0079 0.0079 0.0079 0.0079 0.0079
2169.000000 0.0079 0.0080 0.0080 0.0080 0.0080
2164.000000 0.0080 0.0080 0.0080 0.0080 0.0080
2159.000000 0.0080 0.0080 0.0080 0.0080 0.0080
2154.000000 0.0080 0.0080 0.0080 0.0080 0.0080
2149.000000 0.0080 0.0080 0.0080 0.0080 0.0080
2144.000000 0.0080 0.0080 0.0080 0.0080 0.0080
2139.000000 0.0080 0.0080 0.0080 0.0080 0.0080
2134.000000 0.0080 0.0080 0.0080 0.0080 0.0080
2129.000000 0.0080 0.0080 0.0080 0.0080 0.0080
2124.000000 0.0080 0.0080 0.0080 0.0080 0.0080
2119.000000 0.0080 0.0080 0.0080 0.0080 0.0080
2114.000000 0.0080 0.0080 0.0080 0.0080 0.0080
2109.000000 0.0080 0.0080 0.0080 0.0080 0.0080
2104.000000 0.0080 0.0080 0.0080 0.0080 0.0080
2099.000000 0.0080 0.0080 0.0080 0.0080 0.0080
2094.000000 0.0080 0.0080 0.0080 0.0080 0.0080
2089.000000 0.0080 0.0080 0.0080 0.0080 0.0080
2084.000000 0.0080 0.0080 0.0080 0.0080 0.0080
2079.000000 0.0080 0.0080 0.0080 0.0080 0.0080
2074.000000 0.0080 0.0080 0.0080 0.0080 0.0081
2069.000000 0.0190 0.0300 0.0409 0.0519 0.0628
2064.000000 0.0737 0.0846 0.0956 0.1065 0.1175
2059.000000 0.1284 0.1394 0.1434 0.1474 0.1479
2054.000000 0.1484 0.1746 0.2010 0.2310 0.2611
2049.000000 0.2912 0.3212 0.3512 0.3814 0.4114
2044.000000 0.4415 0.4706 0.4997 0.5194 0.5392
2039.000000 0.5583 0.5774 0.5882 0.5990 0.6066
2034.000000 0.6142 0.6198 0.6254 0.6309 0.6365
2029.000000 0.6436 0.6507 0.6571 0.6638 0.6700
2024.000000 0.6762 0.6846 0.6928 0.6957 0.6986
2019.000000 0.6993 0.7014 0.7004 0.7008 0.7011
2014.000000 0.7014 0.7004 0.6995 0.6740 0.6486
2009.000000 0.6210 0.5937 0.5662 0.5389 0.5114
2004.000000 0.4840 0.4565 0.4291 0.3742 0.3193
1999.000000 0.2810 0.2773 0.2900 0.3207 0.3514
1994.000000 0.3822 0.4129 0.4436 0.4743 0.5050
1989.000000 0.5358 0.5665 0.6396 0.6645 0.6871
1984.000000 0.7083 0.7262 0.7422 0.7561 0.7696
1979.000000 0.7790 0.7871 0.7921 0.7958 0.7984
1974.000000 0.8008 0.8022 0.8035 0.8047 0.8051
1969.000000 0.8051 0.8047 0.8054 0.8051 0.8043
1964.000000 0.8033 0.8012 0.7978 0.7410 0.6945
1959.000000 0.7174 0.7437 0.7568 0.7451 0.7291
1954.000000 0.7130 0.6968 0.6807 0.6646 0.6485
1949.000000 0.6324 0.6162 0.6001 0.6010 0.6025
1944.000000 0.6252 0.6478 0.6706 0.6933 0.7160
1939.000000 0.7387 0.7503 0.7515 0.7521 0.7521
1934.000000 0.7503 0.7468 0.7419 0.7346 0.7276
1929.000000 0.7257 0.7255 0.7299 0.7349 0.7391
1924.000000 0.7432 0.7474 0.7515 0.7551 0.7585
1919.000000 0.7618 0.7649 0.7678 0.7698 0.7712
1914.000000 0.7725 0.7726 0.7726 0.7728 0.7726
1909.000000 0.7721 0.7711 0.7695 0.7678 0.7645
1904.000000 0.7611 0.7543 0.7456 0.7246 0.7028
1899.000000 0.6810 0.6592 0.6374 0.6335 0.6328
1894.000000 0.6521 0.6801 0.7081 0.7361 0.7578
1889.000000 0.7599 0.7608 0.7605 0.7598 0.7572
1884.000000 0.7493 0.7428 0.7383 0.7375 0.7375
1879.000000 0.7457 0.7553 0.7641 0.7731 0.7810
1874.000000 0.7880 0.7961 0.7996 0.7983 0.7975
1869.000000 0.7942 0.7884 0.7822 0.7751 0.7656
1864.000000 0.7599 0.7578 0.7569 0.7561 0.7561
1859.000000 0.7588 0.7691 0.7821 0.7946 0.8033
1854.000000 0.8119 0.8204 0.8283 0.8359 0.8405
1849.000000 0.8452 0.8470 0.8487 0.8505 0.8520
1844.000000 0.8535 0.8550 0.8556 0.8558 0.8560
1839.000000 0.8562 0.8564 0.8566 0.8568 0.8570
1834.000000 0.8571 0.8573 0.8574 0.8575 0.8575
1829.000000 0.8574 0.8571 0.8568 0.8565 0.8562
1824.000000 0.8558 0.8555 0.8547 0.8537 0.8525
1819.000000 0.8516 0.8503 0.8488 0.8474 0.8459
1814.000000 0.8435 0.8406 0.8375 0.8346 0.8286
1809.000000 0.8221 0.8142 0.8064 0.8065 0.8072
1804.000000 0.8082 0.8106 0.8107 0.8107 0.8078
1799.000000 0.8024 0.7950 0.7857 0.7672 0.7410
1794.000000 0.7228 0.7225 0.7208 0.7300 0.7508
1789.000000 0.7711 0.7853 0.7974 0.8075 0.8165
1784.000000 0.8238 0.8290 0.8337 0.8361 0.8377
1779.000000 0.8391 0.8397 0.8404 0.8407 0.8398
1774.000000 0.8390 0.8381 0.8373 0.8355 0.8327
1769.000000 0.8278 0.8235 0.8208 0.8191 0.8182
1764.000000 0.8182 0.8182 0.8189 0.8202 0.8214
1759.000000 0.8247 0.8283 0.8320 0.8357 0.8392
1754.000000 0.8421 0.8451 0.8482 0.8445 0.8467
1749.000000 0.8448 0.8428 0.8417 0.8412 0.8407
1744.000000 0.8400 0.8392 0.8380 0.8359 0.8339
1739.000000 0.8280 0.8204 0.8137 0.8119 0.8111
1734.000000 0.8125 0.8150 0.8233 0.8256 0.8268
1729.000000 0.8271 0.8266 0.8245 0.8227 0.8217
1724.000000 0.8209 0.8209 0.8221 0.8241 0.8265
1719.000000 0.8278 0.8290 0.8292 0.8292 0.8284
1714.000000 0.8274 0.8264 0.8228 0.8182 0.8117
1709.000000 0.8022 0.7911 0.7803 0.7761 0.7730
1704.000000 0.7725 0.7697 0.7721 0.7739 0.7904
1699.000000 0.8018 0.8101 0.8171 0.8242 0.8311
1694.000000 0.8350 0.8390 0.8428 0.8459 0.8482
1689.000000 0.8504 0.8527 0.8546 0.8562 0.8561
1684.000000 0.8560 0.8559 0.8558 0.8557 0.8556
1679.000000 0.8555 0.8554 0.8552 0.8550 0.8548
1674.000000 0.8546 0.8544 0.8542 0.8541 0.8539
1669.000000 0.8537 0.8536 0.8534 0.8532 0.8531
1664.000000 0.8528 0.8527 0.8525 0.8524 0.8523
1659.000000 0.8533 0.8520 0.8518 0.8518 0.8520
1654.000000 0.8521 0.8521 0.8521 0.8521 0.8516
1649.000000 0.8506 0.8496 0.8475 0.8449 0.8423
1644.000000 0.8395 0.8360 0.8328 0.8316 0.8312
1639.000000 0.8309 0.8305 0.8291 0.8265 0.8228
1634.000000 0.8174 0.8112 0.8051 0.7933 0.7848
1629.000000 0.7768 0.7701 0.7701 0.7701 0.7706
1624.000000 0.7764 0.7871 0.7968 0.8050 0.8115
1619.000000 0.8154 0.8183 0.8190 0.8186 0.8178
1614.000000 0.8167 0.8132 0.8065 0.7889 0.7796
1609.000000 0.7786 0.7806 0.7882 0.8104 0.8225
1604.000000 0.8331 0.8409 0.8460 0.8488 0.8513
1599.000000 0.8523 0.8523 0.8523 0.8514 0.8505
1594.000000 0.8494 0.8468 0.8441 0.8402 0.8359
1589.000000 0.8296 0.8215 0.8028 0.7831 0.7718
1584.000000 0.7636 0.7599 0.7610 0.7901 0.8018
1579.000000 0.8128 0.8202 0.8271 0.8325 0.8380
1574.000000 0.8436 0.8490 0.8504 0.8517 0.8530
1569.000000 0.8543 0.8556 0.8577 0.8564 0.8564
1564.000000 0.8565 0.8565 0.8561 0.8556 0.8552
1559.000000 0.8545 0.8530 0.8516 0.8501 0.8482
1554.000000 0.8460 0.8438 0.8432 0.8428 0.8424
1549.000000 0.8416 0.8409 0.8402 0.8394 0.8384
1544.000000 0.8370 0.8356 0.8342 0.8328 0.8315
1539.000000 0.8287 0.8259 0.8231 0.8196 0.8178
1534.000000 0.8178 0.8178 0.8175 0.8171 0.8168
1529.000000 0.8165 0.8149 0.8131 0.8112 0.8094
1524.000000 0.8069 0.8039 0.8008 0.7965 0.7851
1519.000000 0.7721 0.7592 0.7461 0.7369 0.7361
1514.000000 0.7343 0.7391 0.7501 0.7612 0.7724
1509.000000 0.7835 0.7946 0.8053 0.8175 0.8305
1504.000000 0.8381 0.8432 0.8470 0.8492 0.8498
1499.000000 0.8504 0.8511 0.8517 0.8537 0.8530
1494.000000 0.8531 0.8532 0.8533 0.8535 0.8536
1489.000000 0.8536 0.8533 0.8530 0.8527 0.8524
1484.000000 0.8521 0.8512 0.8481 0.8450 0.8418
1479.000000 0.8392 0.8365 0.8339 0.8312 0.8285
1474.000000 0.8259 0.8235 0.8212 0.8189 0.8165
1469.000000 0.8142 0.8121 0.8110 0.8099 0.8088
1464.000000 0.8075 0.8065 0.8057 0.8053 0.8049
1459.000000 0.8045 0.8041 0.8040 0.8039 0.8038
1454.000000 0.8034 0.8024 0.8014 0.8004 0.7994
1449.000000 0.7968 0.7972 0.7962 0.7957 0.7956
1444.000000 0.7951 0.7946 0.7994 0.8042 0.8090
1439.000000 0.8134 0.8175 0.8216 0.8257 0.8298
1434.000000 0.8330 0.8356 0.8382 0.8408 0.8428
1429.000000 0.8447 0.8465 0.8483 0.8494 0.8497
1424.000000 0.8500 0.8503 0.8506 0.8508 0.8511
1419.000000 0.8510 0.8508 0.8506 0.8504 0.8502
1414.000000 0.8500 0.8498 0.8498 0.8504 0.8504
1409.000000 0.8507 0.8509 0.8512 0.8515 0.8517
1404.000000 0.8518 0.8520 0.8521 0.8523 0.8524
1399.000000 0.8525 0.8521 0.8513 0.8505 0.8497
1394.000000 0.8488 0.8480 0.8441 0.8396 0.8350
1389.000000 0.8281 0.8221 0.8198 0.8210 0.8223
1384.000000 0.8237 0.8253 0.8268 0.8283 0.8299
1379.000000 0.8304 0.8305 0.8306 0.8306 0.8306
1374.000000 0.8302 0.8299 0.8294 0.8287 0.8280
1369.000000 0.8273 0.8266 0.8259 0.8240 0.8221
1364.000000 0.8200 0.8171 0.8108 0.8033 0.7958
1359.000000 0.7884 0.7819 0.7825 0.7862 0.7908
1354.000000 0.8015 0.8130 0.8255 0.8362 0.8423
1349.000000 0.8441 0.8458 0.8475 0.8488 0.8508
1344.000000 0.8508 0.8509 0.8504 0.8500 0.8496
1339.000000 0.8487 0.8473 0.8459 0.8445 0.8431
1334.000000 0.8407 0.8378 0.8351 0.8313 0.8267
1329.000000 0.8221 0.8164 0.8107 0.8058 0.8021
1324.000000 0.8001 0.8014 0.8026 0.8032 0.8038
1319.000000 0.8039 0.8039 0.8012 0.7986 0.7958
1314.000000 0.7919 0.7868 0.7818 0.7757 0.7675
1309.000000 0.7594 0.6625 0.6278 0.6334 0.6595
1304.000000 0.6856 0.7117 0.7378 0.7639 0.7889
1299.000000 0.7912 0.7938 0.7961 0.7975 0.7987
1294.000000 0.7999 0.8011 0.8022 0.8037 0.8056
1289.000000 0.8074 0.8092 0.8108 0.8124 0.8140
1284.000000 0.8156 0.8171 0.8181 0.8190 0.8200
1279.000000 0.8207 0.8214 0.8213 0.8212 0.8206
1274.000000 0.8199 0.8194 0.8189 0.8184 0.8180
1269.000000 0.8175 0.8171 0.8169 0.8168 0.8161
1264.000000 0.8151 0.8141 0.8125 0.8098 0.8069
1259.000000 0.8050 0.8041 0.8062 0.8051 0.8068
1254.000000 0.8111 0.8126 0.8143 0.8158 0.8168
1249.000000 0.8169 0.8171 0.8171 0.8171 0.8168
1244.000000 0.8167 0.8165 0.8164 0.8161 0.8160
1239.000000 0.8158 0.8143 0.8125 0.8108 0.8092
1234.000000 0.8071 0.8045 0.8018 0.7992 0.7965
1229.000000 0.7939 0.7894 0.7845 0.7796 0.7736
1224.000000 0.7661 0.7587 0.7510 0.7431 0.7365
1219.000000 0.7304 0.7256 0.7231 0.7206 0.7200
1214.000000 0.7195 0.7197 0.7211 0.7236 0.7258
1209.000000 0.7281 0.7300 0.7318 0.7335 0.7350
1204.000000 0.7361 0.7375 0.7380 0.7378 0.7375
1199.000000 0.7369 0.7364 0.7357 0.7325 0.7290
1194.000000 0.7241 0.7192 0.7143 0.7093 0.7044
1189.000000 0.6995 0.6946 0.6893 0.6778 0.6664
1184.000000 0.6544 0.6422 0.6310 0.6201 0.6060
1179.000000 0.5914 0.5788 0.5646 0.5412 0.5181
1174.000000 0.4440 0.4238 0.4050 0.3846 0.3693
1169.000000 0.3559 0.2788 0.2233 0.1679 0.1125
1164.000000 0.0570 0.0178 0.0194 0.0150 0.0164
1159.000000 0.0321 0.0512 0.0954 0.1457 0.1960
1154.000000 0.2463 0.2966 0.3468 0.3972 0.4475
1149.000000 0.4978 0.5922 0.6077 0.6231 0.6332
1144.000000 0.6430 0.6498 0.6524 0.6545 0.6543
1139.000000 0.6548 0.6551 0.6525 0.6496 0.6453
1134.000000 0.6407 0.6364 0.6321 0.6298 0.6279
1129.000000 0.6260 0.6237 0.6210 0.6185 0.6159
1124.000000 0.6133 0.6096 0.6060 0.6023 0.5986
1119.000000 0.5949 0.5912 0.5871 0.5828 0.5786
1114.000000 0.5744 0.5701 0.5655 0.5584 0.5514
1109.000000 0.5443 0.5371 0.5298 0.5224 0.5144
1104.000000 0.4892 0.4487 0.4201 0.4034 0.3755
1099.000000 0.3343 0.2931 0.2519 0.2107 0.1694
1094.000000 0.1284 0.0872 0.0460 0.0078 0.0075
1089.000000 0.0073 0.0071 0.0067 0.0079 0.0082
1084.000000 0.0084 0.0384 0.0804 0.1225 0.1644
1079.000000 0.2066 0.2485 0.2635 0.2592 0.2524
1074.000000 0.2183 0.1843 0.1503 0.1198 0.1205
1069.000000 0.1258 0.1839 0.2420 0.3001 0.3582
1064.000000 0.4162 0.4744 0.5306 0.5612 0.5792
1059.000000 0.5912 0.6023 0.6137 0.6254 0.6369
1054.000000 0.6464 0.6558 0.6644 0.6728 0.6803
1049.000000 0.6839 0.6856 0.6903 0.6869 0.6872
1044.000000 0.6871 0.6871 0.6871 0.6869 0.6868
1039.000000 0.6865 0.6861 0.6849 0.6837 0.6799
1034.000000 0.6753 0.6712 0.6696 0.6691 0.6687
1029.000000 0.6683 0.6678 0.6675 0.6648 0.6619
1024.000000 0.6588 0.6519 0.6453 0.6386 0.6310
1019.000000 0.6232 0.6154 0.6072 0.5988 0.5905
1014.000000 0.5800 0.5660 0.5523 0.5395 0.5270
1009.000000 0.5149 0.5054 0.4959 0.4864 0.4594
1004.000000 0.4235 0.3792 0.3300 0.2987 0.2784
999.000000 0.2624 0.2294 0.1934 0.1575 0.1215
994.000000 0.0855 0.0495 0.0201 0.0177 0.0144
989.000000 0.0163 0.0213 0.0274 0.0335 0.0748
984.000000 0.0956 0.1585 0.2108 0.2642 0.3177
979.000000 0.3710 0.4645 0.4912 0.5088 0.5296
974.000000 0.5521 0.5682 0.5844 0.6006 0.6115
969.000000 0.6209 0.6303 0.6401 0.6506 0.6594
964.000000 0.6680 0.6741 0.6793 0.6831 0.6855
959.000000 0.6864 0.6864 0.6864 0.6842 0.6819
954.000000 0.6799 0.6776 0.6730 0.6681 0.6632
949.000000 0.6583 0.6518 0.6453 0.6388 0.6303
944.000000 0.6201 0.6068 0.5969 0.5909 0.5871
939.000000 0.5848 0.5830 0.5812 0.5780 0.5741
934.000000 0.5702 0.5536 0.5272 0.5034 0.4890
929.000000 0.4808 0.4750 0.4672 0.4537 0.4231
924.000000 0.3484 0.2739 0.1993 0.1246 0.0501
919.000000 0.0104 0.0094 0.0086 0.0067 0.0080
914.000000 0.0086 0.0332 0.1478 0.2624 0.3768
909.000000 0.4665 0.5035 0.5414 0.5689 0.5855
904.000000 0.6010 0.6157 0.6309 0.6476 0.6641
899.000000 0.6797 0.6939 0.7067 0.7184 0.7276
894.000000 0.7360 0.7431 0.7500 0.7558 0.7601
889.000000 0.7625 0.7644 0.7651 0.7651 0.7646
884.000000 0.7637 0.7628 0.7618 0.7611 0.7614
879.000000 0.7718 0.7793 0.7867 0.7939 0.8011
874.000000 0.8058 0.8101 0.8143 0.8176 0.8200
869.000000 0.8223 0.8246 0.8268 0.8285 0.8298
864.000000 0.8312 0.8325 0.8338 0.8352 0.8356
859.000000 0.8361 0.8365 0.8325 0.8374 0.8375
854.000000 0.8370 0.8363 0.8357 0.8350 0.8344
849.000000 0.8337 0.8331 0.8324 0.8307 0.8286
844.000000 0.8266 0.8245 0.8225 0.8204 0.8183
839.000000 0.8157 0.8131 0.8105 0.8078 0.8054
834.000000 0.8031 0.8011 0.7991 0.7969 0.7953
829.000000 0.7945 0.7938 0.7931 0.7924 0.7915
824.000000 0.7904 0.7889 0.7874 0.7858 0.7844
819.000000 0.7830 0.7815 0.7800 0.7776 0.7753
814.000000 0.7728 0.7700 0.7665 0.7630 0.7595
809.000000 0.7556 0.7515 0.7474 0.7433 0.7392
804.000000 0.7346 0.7280 0.7215 0.7149 0.7092
799.000000 0.7032 0.6965 0.6915 0.6881 0.6881
794.000000 0.6875 0.6888 0.6899 0.6915 0.6982
789.000000 0.7047 0.7104 0.7161 0.7217 0.7271
784.000000 0.7325 0.7374 0.7418 0.7455 0.7480
779.000000 0.7505 0.7518 0.7531 0.7544 0.7560
774.000000 0.7561 0.7557 0.7544 0.7528 0.7488
769.000000 0.7445 0.7399 0.7365 0.7356 0.7318
764.000000 0.7336 0.7358 0.7425 0.7525 0.7558
759.000000 0.7578 0.7585 0.7589 0.7588 0.7583
754.000000 0.7578 0.7542 0.7506 0.7464 0.7411
749.000000 0.7369 0.7356 0.7343 0.7331 0.7317
744.000000 0.7299 0.7264 0.7211 0.7160 0.7105
739.000000 0.7022 0.6941 0.6861 0.6787 0.6710
734.000000 0.6624 0.6538 0.6377 0.5944 0.5478
729.000000 0.5010 0.4545 0.4078 0.3612 0.3145
724.000000 0.2679 0.2212 0.1745 0.1448 0.1465
719.000000 0.1720 0.2256 0.2792 0.3327 0.3862
714.000000 0.4399 0.4934 0.5470 0.6006 0.6542
709.000000 0.6781 0.6780 0.6780 0.6780 0.6760
704.000000 0.6464 0.6126 0.5788 0.5450 0.5112
699.000000 0.4774 0.4436 0.4099 0.3760 0.3423
694.000000 0.3084 0.2747 0.2409 0.2071 0.1733
689.000000 0.1395 0.1057 0.0719 0.0382 0.0238
684.000000 0.0209 0.0243 0.0214 0.0216 0.1640
679.000000 0.3216 0.4792 0.6369 0.7095 0.7175
674.000000 0.7251 0.7326 0.7400 0.7507 0.7625
669.000000 0.7718 0.7810 0.7901 0.7950 0.7987
664.000000 0.8024 0.8053 0.8076 0.8101 0.8124
659.000000 0.8147 0.8162 0.8180 0.8196 0.8213
654.000000 0.8224 0.8234 0.8244 0.8254 0.8265
649.000000 0.8275 0.8285 0.8294 0.8304 0.8313
644.000000 0.8321 0.8331 0.8340 0.8349 0.8357
639.000000 0.8363 0.8368 0.8373 0.8378 0.8384
634.000000 0.8389 0.8394 0.8397 0.8399 0.8400
629.000000 0.8402 0.8403 0.8405 0.8406 0.8406
624.000000 0.8406 0.8405 0.8403 0.8402 0.8402
619.000000 0.8401 0.8402 0.8405 0.8407 0.8410
614.000000 0.8412 0.8418 0.8442 0.8462 0.8481
609.000000 0.8499 0.8513 0.8520 0.8527 0.8535
604.000000 0.8542 0.8548 0.8554 0.8559 0.8561
599.000000 0.8561 0.8558 0.8553 0.8545 0.8533
594.000000 0.8518 0.8500 0.8481 0.8461 0.8489
589.000000 0.8525 0.8563 0.8580 0.8588 0.8594
584.000000 0.8594 0.8595 0.8595 0.8596 0.8597
579.000000 0.8597 0.8598 0.8599 0.8599 0.8600
574.000000 0.8601 0.8601 0.8602 0.8603 0.8604
569.000000 0.8604 0.8606 0.8608 0.8610 0.8612
564.000000 0.8614 0.8616 0.8618 0.8620 0.8621
559.000000 0.8623 0.8625 0.8625 0.8627 0.8627
554.000000 0.8627 0.8628 0.8628 0.8628 0.8628
549.000000 0.8628 0.8628 0.8628 0.8628 0.8630
544.000000 0.8630 0.8631 0.8631 0.8632 0.8634
539.000000 0.8634 0.8634 0.8635 0.8635 0.8636
534.000000 0.8636 0.8637 0.8637 0.8637 0.8637
529.000000 0.8637 0.8637 0.8637 0.8635 0.8628
524.000000 0.8624 0.8618 0.8613 0.8608 0.8602
519.000000 0.8597 0.8592 0.8586 0.8578 0.8570
514.000000 0.8562 0.8554 0.8546 0.8538 0.8530
509.000000 0.8521 0.8514 0.8506 0.8495 0.8485
504.000000 0.8474 0.8464 0.8453 0.8443 0.8432
499.000000 0.8421 0.8411 0.8400 0.8390 0.8378
494.000000 0.8368 0.8358 0.8343 0.8327 0.8311
489.000000 0.8295 0.8278 0.8263 0.8247 0.8231
484.000000 0.8216 0.8200 0.8184 0.8168 0.8148
479.000000 0.8124 0.8101 0.8076 0.8053 0.8030
474.000000 0.8006 0.7982 0.7958 0.7935 0.7911
469.000000 0.7888 0.7864 0.7840 0.7817 0.7793
464.000000 0.7765 0.7736 0.7705 0.7674 0.7643
459.000000 0.7611 0.7582 0.7551 0.7519 0.7489
454.000000 0.7458 0.7421 0.7381 0.7341 0.7300
449.000000 0.7260 0.7219 0.7178 0.7139 0.7096
444.000000 0.7046 0.6997 0.6947 0.6897 0.6847
439.000000 0.6798 0.6739 0.6680 0.6621 0.6561
434.000000 0.6503 0.6444 0.6383 0.6320 0.6257
429.000000 0.6194 0.6131 0.6068 0.5994 0.5919
424.000000 0.5843 0.5768 0.5693 0.5617 0.5501
419.000000 0.5373 0.5245 0.5120 0.5020 0.4920
414.000000 0.4832 0.4786 0.4740 0.4694 0.4648
409.000000 0.4619 0.4589 0.4560 0.4531 0.4507
404.000000 0.4496
##END=
