##TITLE=CODEINE, HYDROCHLORIDE (DIHYDRATE)
##JCAMP-DX=4.24
$$ By DXEDIT 1.05 (RS McDonald)
##DATA TYPE=INFRARED SPECTRUM
##CLASS=COBLENTZ III
##ORIGIN=BUREAU OF CUSTOMS
##OWNER=COBLENTZ SOC.
Collection (C) 2018 copyright by the U.S. Secretary of Commerce
on behalf of the United States of America. All rights reserved.
##DATE=Not specified, most likely prior to 1970
##MOLFORM=C18 H22 Cl N O3  * 2 H2 O
##MP=ABOUT 280 C SOME DECOMP.
##SOURCE REFERENCE=COBLENTZ NO. 05009
##$NIST ID=B6005009
##$NIST SOURCE=COBLENTZ
##$NIST IMAGE=cob5009
##SPECTROMETER/DATA SYSTEM=PERKIN-ELMER 21 (GRATING)
##INSTRUMENT PARAMETERS=FILTER AT ABOUT 10 MICRONS
##STATE=SOLID (1.4/250 mg KBr DISC)
$$PURITY 99+
##SAMPLING PROCEDURE=TRANSMISSION
##RESOLUTION=2
##DATA PROCESSING=DIGITIZED BY COBLENTZ SOCIETY (BATCH I) FROM HARD COPY
##XUNITS=1/CM
##YUNITS=TRANSMITTANCE
##XLABEL=Wavenumbers (cm-1)
##YLABEL=Transmittance
##XFACTOR=1
##YFACTOR=1
##DELTAX=1
##FIRSTX=4000
##LASTX=651
##FIRSTY=0.7543
##MAXX=4000
##MINX=651
##MAXY=0.9982
##MINY=0.148
##NPOINTS=3350
##XYDATA=(X++(Y..Y))
4000.000000 0.7543 0.7545 0.7548 0.7550 0.7553
3995.000000 0.7555 0.7558 0.7560 0.7562 0.7565
3990.000000 0.7568 0.7569 0.7572 0.7575 0.7576
3985.000000 0.7580 0.7582 0.7585 0.7587 0.7589
3980.000000 0.7592 0.7594 0.7597 0.7599 0.7601
3975.000000 0.7604 0.7607 0.7608 0.7611 0.7615
3970.000000 0.7617 0.7619 0.7621 0.7625 0.7626
3965.000000 0.7630 0.7632 0.7635 0.7637 0.7640
3960.000000 0.7643 0.7645 0.7648 0.7650 0.7653
3955.000000 0.7655 0.7658 0.7660 0.7662 0.7665
3950.000000 0.7668 0.7671 0.7672 0.7675 0.7678
3945.000000 0.7681 0.7683 0.7686 0.7689 0.7691
3940.000000 0.7694 0.7696 0.7699 0.7701 0.7704
3935.000000 0.7707 0.7708 0.7711 0.7714 0.7717
3930.000000 0.7719 0.7721 0.7725 0.7726 0.7730
3925.000000 0.7733 0.7735 0.7738 0.7740 0.7743
3920.000000 0.7746 0.7748 0.7751 0.7753 0.7756
3915.000000 0.7758 0.7761 0.7764 0.7765 0.7768
3910.000000 0.7771 0.7774 0.7776 0.7780 0.7782
3905.000000 0.7785 0.7787 0.7790 0.7793 0.7795
3900.000000 0.7798 0.7801 0.7803 0.7806 0.7808
3895.000000 0.7811 0.7814 0.7815 0.7818 0.7821
3890.000000 0.7824 0.7826 0.7830 0.7832 0.7835
3885.000000 0.7838 0.7840 0.7843 0.7845 0.7848
3880.000000 0.7851 0.7853 0.7856 0.7858 0.7861
3875.000000 0.7864 0.7867 0.7868 0.7871 0.7875
3870.000000 0.7876 0.7880 0.7883 0.7885 0.7888
3865.000000 0.7891 0.7893 0.7896 0.7899 0.7901
3860.000000 0.7904 0.7907 0.7910 0.7912 0.7917
3855.000000 0.7921 0.7925 0.7928 0.7933 0.7937
3850.000000 0.7941 0.7945 0.7949 0.7953 0.7957
3845.000000 0.7961 0.7965 0.7968 0.7972 0.7976
3840.000000 0.7980 0.7984 0.7988 0.7992 0.7996
3835.000000 0.8000 0.8004 0.8008 0.8011 0.8015
3830.000000 0.8019 0.8024 0.8028 0.8032 0.8036
3825.000000 0.8040 0.8044 0.8048 0.8051 0.8057
3820.000000 0.8061 0.8065 0.8069 0.8075 0.8078
3815.000000 0.8084 0.8088 0.8093 0.8098 0.8101
3810.000000 0.8107 0.8111 0.8115 0.8121 0.8125
3805.000000 0.8130 0.8134 0.8138 0.8142 0.8145
3800.000000 0.8149 0.8153 0.8157 0.8161 0.8164
3795.000000 0.8168 0.8171 0.8175 0.8180 0.8184
3790.000000 0.8187 0.8191 0.8195 0.8199 0.8202
3785.000000 0.8206 0.8210 0.8213 0.8217 0.8221
3780.000000 0.8225 0.8228 0.8232 0.8236 0.8240
3775.000000 0.8243 0.8247 0.8250 0.8253 0.8257
3770.000000 0.8260 0.8264 0.8267 0.8271 0.8274
3765.000000 0.8278 0.8281 0.8285 0.8288 0.8292
3760.000000 0.8295 0.8299 0.8302 0.8306 0.8310
3755.000000 0.8313 0.8317 0.8318 0.8321 0.8324
3750.000000 0.8325 0.8328 0.8331 0.8332 0.8332
3745.000000 0.8333 0.8334 0.8335 0.8336 0.8337
3740.000000 0.8337 0.8338 0.8339 0.8339 0.8340
3735.000000 0.8340 0.8341 0.8341 0.8341 0.8342
3730.000000 0.8342 0.8343 0.8343 0.8344 0.8344
3725.000000 0.8345 0.8345 0.8346 0.8346 0.8346
3720.000000 0.8347 0.8347 0.8348 0.8348 0.8349
3715.000000 0.8349 0.8350 0.8350 0.8350 0.8351
3710.000000 0.8351 0.8352 0.8355 0.8359 0.8362
3705.000000 0.8365 0.8368 0.8374 0.8380 0.8386
3700.000000 0.8392 0.8398 0.8404 0.8411 0.8417
3695.000000 0.8424 0.8430 0.8437 0.8444 0.8450
3690.000000 0.8457 0.8463 0.8470 0.8475 0.8482
3685.000000 0.8488 0.8493 0.8499 0.8505 0.8510
3680.000000 0.8515 0.8520 0.8525 0.8530 0.8534
3675.000000 0.8537 0.8540 0.8543 0.8547 0.8550
3670.000000 0.8551 0.8553 0.8555 0.8556 0.8558
3665.000000 0.8560 0.8561 0.8563 0.8564 0.8565
3660.000000 0.8567 0.8568 0.8568 0.8570 0.8571
3655.000000 0.8571 0.8573 0.8573 0.8573 0.8573
3650.000000 0.8574 0.8574 0.8574 0.8574 0.8575
3645.000000 0.8575 0.8575 0.8574 0.8571 0.8571
3640.000000 0.8568 0.8567 0.8565 0.8562 0.8559
3635.000000 0.8556 0.8553 0.8549 0.8545 0.8541
3630.000000 0.8537 0.8533 0.8525 0.8513 0.8501
3625.000000 0.8489 0.8477 0.8457 0.8403 0.8349
3620.000000 0.8295 0.8241 0.8187 0.8157 0.8128
3615.000000 0.8099 0.8071 0.8042 0.8018 0.7998
3610.000000 0.7976 0.7956 0.7935 0.7915 0.7895
3605.000000 0.7875 0.7855 0.7835 0.7815 0.7796
3600.000000 0.7776 0.7757 0.7738 0.7712 0.7655
3595.000000 0.7596 0.7537 0.7478 0.7419 0.7358
3590.000000 0.7296 0.7234 0.7171 0.7110 0.7047
3585.000000 0.6985 0.6922 0.6860 0.6798 0.6735
3580.000000 0.6672 0.6610 0.6548 0.6485 0.6422
3575.000000 0.6360 0.6298 0.6235 0.6172 0.6110
3570.000000 0.6046 0.5983 0.5920 0.5857 0.5794
3565.000000 0.5731 0.5669 0.5606 0.5543 0.5479
3560.000000 0.5416 0.5353 0.5290 0.5227 0.5164
3555.000000 0.5100 0.5036 0.4973 0.4909 0.4846
3550.000000 0.4782 0.4719 0.4655 0.4592 0.4528
3545.000000 0.4464 0.4400 0.4336 0.4273 0.4209
3540.000000 0.4145 0.4080 0.4016 0.3953 0.3889
3535.000000 0.3825 0.3760 0.3697 0.3632 0.3568
3530.000000 0.3504 0.3440 0.3375 0.3310 0.3247
3525.000000 0.3182 0.3118 0.3053 0.2989 0.2924
3520.000000 0.2860 0.2795 0.2730 0.2666 0.2601
3515.000000 0.2535 0.2471 0.2406 0.2341 0.2276
3510.000000 0.2211 0.2146 0.2081 0.2016 0.1951
3505.000000 0.1885 0.1821 0.1756 0.1691 0.1637
3500.000000 0.1604 0.1572 0.1538 0.1480 0.1488
3495.000000 0.1487 0.1486 0.1485 0.1484 0.1494
3490.000000 0.1512 0.1530 0.1546 0.1565 0.1591
3485.000000 0.1620 0.1648 0.1677 0.1704 0.1734
3480.000000 0.1763 0.1792 0.1820 0.1849 0.1878
3475.000000 0.1907 0.1934 0.1964 0.1993 0.2022
3470.000000 0.2051 0.2080 0.2108 0.2137 0.2166
3465.000000 0.2195 0.2224 0.2253 0.2282 0.2311
3460.000000 0.2340 0.2369 0.2398 0.2427 0.2456
3455.000000 0.2484 0.2515 0.2544 0.2573 0.2602
3450.000000 0.2632 0.2661 0.2691 0.2720 0.2749
3445.000000 0.2778 0.2808 0.2837 0.2866 0.2896
3440.000000 0.2925 0.2954 0.2984 0.3013 0.3043
3435.000000 0.3072 0.3101 0.3131 0.3160 0.3190
3430.000000 0.3218 0.3249 0.3279 0.3308 0.3338
3425.000000 0.3366 0.3397 0.3427 0.3456 0.3486
3420.000000 0.3516 0.3545 0.3575 0.3605 0.3634
3415.000000 0.3656 0.3659 0.3660 0.3662 0.3666
3410.000000 0.3666 0.3666 0.3664 0.3664 0.3664
3405.000000 0.3664 0.3664 0.3664 0.3664 0.3664
3400.000000 0.3666 0.3666 0.3666 0.3668 0.3674
3395.000000 0.3682 0.3690 0.3698 0.3706 0.3714
3390.000000 0.3722 0.3730 0.3738 0.3746 0.3754
3385.000000 0.3760 0.3768 0.3777 0.3784 0.3793
3380.000000 0.3800 0.3809 0.3816 0.3825 0.3832
3375.000000 0.3841 0.3849 0.3857 0.3864 0.3873
3370.000000 0.3979 0.3889 0.3895 0.3900 0.3906
3365.000000 0.3910 0.3910 0.3910 0.3909 0.3909
3360.000000 0.3905 0.3887 0.3868 0.3850 0.3832
3355.000000 0.3810 0.3788 0.3764 0.3742 0.3718
3350.000000 0.3696 0.3672 0.3649 0.3626 0.3603
3345.000000 0.3580 0.3557 0.3534 0.3510 0.3487
3340.000000 0.3464 0.3441 0.3418 0.3394 0.3371
3335.000000 0.3348 0.3325 0.3302 0.3278 0.3255
3330.000000 0.3230 0.3208 0.3184 0.3161 0.3137
3325.000000 0.3114 0.3091 0.3067 0.3044 0.3021
3320.000000 0.2997 0.2974 0.2950 0.2926 0.2903
3315.000000 0.2879 0.2855 0.2832 0.2808 0.2787
3310.000000 0.2773 0.2759 0.2745 0.2731 0.2729
3305.000000 0.2729 0.2728 0.2728 0.2727 0.2727
3300.000000 0.2726 0.2726 0.2725 0.2725 0.2725
3295.000000 0.2724 0.2724 0.2724 0.2726 0.2727
3290.000000 0.2704 0.2734 0.2749 0.2762 0.2776
3285.000000 0.2790 0.2805 0.2819 0.2834 0.2849
3280.000000 0.2864 0.2879 0.2894 0.2909 0.2924
3275.000000 0.2938 0.2953 0.2968 0.2983 0.2998
3270.000000 0.3013 0.3028 0.3043 0.3058 0.3073
3265.000000 0.3088 0.3103 0.3118 0.3133 0.3148
3260.000000 0.3163 0.3178 0.3193 0.3208 0.3224
3255.000000 0.3239 0.3254 0.3268 0.3284 0.3299
3250.000000 0.3314 0.3329 0.3345 0.3359 0.3375
3245.000000 0.3390 0.3405 0.3421 0.3436 0.3450
3240.000000 0.3466 0.3582 0.3497 0.3512 0.3527
3235.000000 0.3543 0.3556 0.3562 0.3566 0.3572
3230.000000 0.3577 0.3577 0.3576 0.3575 0.3575
3225.000000 0.3552 0.3523 0.3495 0.3466 0.3434
3220.000000 0.3399 0.3364 0.3329 0.3295 0.3262
3215.000000 0.3229 0.3195 0.3175 0.3175 0.3175
3210.000000 0.3175 0.3175 0.3175 0.3175 0.3175
3205.000000 0.3175 0.3177 0.3179 0.3181 0.3183
3200.000000 0.3184 0.3187 0.3189 0.3191 0.3205
3195.000000 0.3218 0.3232 0.3247 0.3264 0.3282
3190.000000 0.3299 0.3316 0.3334 0.3352 0.3368
3185.000000 0.3386 0.3404 0.3421 0.3438 0.3456
3180.000000 0.3473 0.3491 0.3508 0.3526 0.3543
3175.000000 0.3560 0.3579 0.3596 0.3614 0.3630
3170.000000 0.3649 0.3666 0.3684 0.3700 0.3718
3165.000000 0.3737 0.3754 0.3772 0.3790 0.3808
3160.000000 0.3825 0.3843 0.3860 0.3879 0.3896
3155.000000 0.3914 0.3932 0.3949 0.3966 0.3984
3150.000000 0.4003 0.4021 0.4039 0.4056 0.4074
3145.000000 0.4092 0.4110 0.4128 0.4146 0.4162
3140.000000 0.4181 0.4199 0.4217 0.4235 0.4253
3135.000000 0.4271 0.4289 0.4307 0.4325 0.4343
3130.000000 0.4360 0.4379 0.4397 0.4415 0.4433
3125.000000 0.4452 0.4470 0.4488 0.4506 0.4524
3120.000000 0.4542 0.4560 0.4578 0.4596 0.4615
3115.000000 0.4633 0.4651 0.4669 0.4688 0.4706
3110.000000 0.4724 0.4743 0.4760 0.4780 0.4798
3105.000000 0.4816 0.4834 0.4853 0.4871 0.4889
3100.000000 0.4908 0.4926 0.4945 0.4962 0.4982
3095.000000 0.5000 0.5019 0.5037 0.5055 0.5073
3090.000000 0.5092 0.5110 0.5129 0.5148 0.5165
3085.000000 0.5182 0.5199 0.5215 0.5223 0.5225
3080.000000 0.5227 0.5229 0.5231 0.5233 0.5247
3075.000000 0.5237 0.5215 0.5194 0.5173 0.5150
3070.000000 0.5124 0.5097 0.5071 0.5045 0.5018
3065.000000 0.4992 0.4966 0.4939 0.4912 0.4886
3060.000000 0.4859 0.4833 0.4806 0.4780 0.4753
3055.000000 0.4727 0.4700 0.4674 0.4647 0.4620
3050.000000 0.4593 0.4566 0.4540 0.4512 0.4486
3045.000000 0.4460 0.4433 0.4406 0.4380 0.4353
3040.000000 0.4326 0.4299 0.4272 0.4245 0.4218
3035.000000 0.4191 0.4164 0.4137 0.4110 0.4082
3030.000000 0.4059 0.4043 0.4027 0.3984 0.4010
3025.000000 0.4021 0.4030 0.4041 0.4068 0.4097
3020.000000 0.4125 0.4153 0.4181 0.4209 0.4237
3015.000000 0.4264 0.4292 0.4320 0.4348 0.4376
3010.000000 0.4404 0.4432 0.4460 0.4489 0.4517
3005.000000 0.4545 0.4557 0.4565 0.4572 0.4579
3000.000000 0.4582 0.4585 0.4587 0.4606 0.4635
2995.000000 0.4664 0.4693 0.4726 0.4758 0.4791
2990.000000 0.4824 0.4857 0.4890 0.4923 0.4956
2985.000000 0.4989 0.5022 0.5054 0.5081 0.5109
2980.000000 0.5136 0.5144 0.5144 0.5144 0.5144
2975.000000 0.5144 0.5144 0.5144 0.5143 0.5143
2970.000000 0.5142 0.5141 0.5138 0.5134 0.5131
2965.000000 0.5107 0.5069 0.5031 0.4993 0.4955
2960.000000 0.4917 0.4879 0.4840 0.4802 0.4764
2955.000000 0.4726 0.4688 0.4650 0.4612 0.4574
2950.000000 0.4536 0.4497 0.4462 0.4447 0.4432
2945.000000 0.4379 0.4412 0.4412 0.4410 0.4410
2940.000000 0.4410 0.4410 0.4410 0.4409 0.4409
2935.000000 0.4409 0.4415 0.4438 0.4460 0.4485
2930.000000 0.4508 0.4532 0.4556 0.4580 0.4604
2925.000000 0.4629 0.4653 0.4677 0.4701 0.4725
2920.000000 0.4749 0.4774 0.4798 0.4822 0.4846
2915.000000 0.4870 0.4895 0.4919 0.4943 0.4968
2910.000000 0.4992 0.5016 0.5041 0.5065 0.5090
2905.000000 0.5114 0.5139 0.5162 0.5187 0.5212
2900.000000 0.5236 0.5260 0.5286 0.5310 0.5335
2895.000000 0.5359 0.5384 0.5408 0.5433 0.5458
2890.000000 0.5483 0.5507 0.5532 0.5556 0.5581
2885.000000 0.5606 0.5631 0.5656 0.5681 0.5705
2880.000000 0.5729 0.5747 0.5764 0.5804 0.5785
2875.000000 0.5786 0.5786 0.5787 0.5787 0.5787
2870.000000 0.5786 0.5781 0.5776 0.5772 0.5767
2865.000000 0.5762 0.5758 0.5748 0.5736 0.5725
2860.000000 0.5712 0.5698 0.5684 0.5669 0.5642
2855.000000 0.5615 0.5589 0.5539 0.5487 0.5435
2850.000000 0.5394 0.5360 0.5326 0.5296 0.5275
2845.000000 0.5254 0.5232 0.5208 0.5184 0.5160
2840.000000 0.5145 0.5129 0.5114 0.5107 0.5103
2835.000000 0.5099 0.5096 0.5094 0.5092 0.5090
2830.000000 0.5088 0.5086 0.5084 0.5081 0.5077
2825.000000 0.5074 0.5070 0.5067 0.5062 0.5059
2820.000000 0.5055 0.5051 0.5047 0.5043 0.5039
2815.000000 0.5035 0.5031 0.5026 0.5022 0.5017
2810.000000 0.5012 0.5009 0.5004 0.5000 0.4995
2805.000000 0.4990 0.4984 0.4978 0.4972 0.4965
2800.000000 0.4958 0.4951 0.4944 0.4937 0.4927
2795.000000 0.4914 0.4901 0.4888 0.4877 0.4866
2790.000000 0.4856 0.4845 0.4835 0.4822 0.4776
2785.000000 0.4730 0.4683 0.4641 0.4598 0.4556
2780.000000 0.4514 0.4471 0.4429 0.4386 0.4344
2775.000000 0.4301 0.4259 0.4216 0.4174 0.4131
2770.000000 0.4088 0.4046 0.4003 0.3959 0.3916
2765.000000 0.3875 0.3832 0.3789 0.3746 0.3703
2760.000000 0.3659 0.3616 0.3574 0.3530 0.3488
2755.000000 0.3445 0.3402 0.3358 0.3314 0.3271
2750.000000 0.3228 0.3184 0.3141 0.3106 0.3097
2745.000000 0.3088 0.3080 0.3080 0.3080 0.3079
2740.000000 0.3081 0.3082 0.3091 0.3124 0.3158
2735.000000 0.3192 0.3230 0.3268 0.3308 0.3346
2730.000000 0.3384 0.3423 0.3462 0.3500 0.3539
2725.000000 0.3578 0.3616 0.3656 0.3694 0.3732
2720.000000 0.3772 0.3810 0.3850 0.3889 0.3928
2715.000000 0.3966 0.4006 0.4045 0.4084 0.4123
2710.000000 0.4162 0.4201 0.4230 0.4250 0.4271
2705.000000 0.4279 0.4279 0.4279 0.4275 0.4270
2700.000000 0.4266 0.4258 0.4250 0.4242 0.4233
2695.000000 0.4225 0.4217 0.4209 0.4200 0.4192
2690.000000 0.4184 0.4175 0.4168 0.4165 0.4162
2685.000000 0.4162 0.4162 0.4165 0.4168 0.4170
2680.000000 0.4173 0.4179 0.4187 0.4195 0.4208
2675.000000 0.4225 0.4241 0.4259 0.4277 0.4294
2670.000000 0.4312 0.4332 0.4352 0.4379 0.4407
2665.000000 0.4432 0.4449 0.4466 0.4482 0.4497
2660.000000 0.4510 0.4526 0.4540 0.4555 0.4569
2655.000000 0.4583 0.4597 0.4612 0.4627 0.4641
2650.000000 0.4655 0.4670 0.4684 0.4698 0.4712
2645.000000 0.4727 0.4742 0.4756 0.4772 0.4789
2640.000000 0.4805 0.4822 0.4839 0.4856 0.4872
2635.000000 0.4889 0.4905 0.4922 0.4939 0.4956
2630.000000 0.4973 0.4991 0.5009 0.5026 0.5043
2625.000000 0.5060 0.5078 0.5096 0.5112 0.5131
2620.000000 0.5149 0.5167 0.5186 0.5206 0.5226
2615.000000 0.5246 0.5266 0.5285 0.5307 0.5334
2610.000000 0.5360 0.5404 0.5458 0.5512 0.5538
2605.000000 0.5560 0.5582 0.5603 0.5625 0.5648
2600.000000 0.5672 0.5696 0.5722 0.5748 0.5773
2595.000000 0.5779 0.5785 0.5791 0.5796 0.5800
2590.000000 0.5804 0.5807 0.5810 0.5812 0.5812
2585.000000 0.5814 0.5814 0.5814 0.5814 0.5809
2580.000000 0.5805 0.5798 0.5791 0.5784 0.5776
2575.000000 0.5768 0.5760 0.5752 0.5744 0.5741
2570.000000 0.5737 0.5733 0.5730 0.5726 0.5726
2565.000000 0.5726 0.5726 0.5726 0.5726 0.5729
2560.000000 0.5736 0.5742 0.5749 0.5756 0.5764
2555.000000 0.5773 0.5782 0.5794 0.5809 0.5823
2550.000000 0.5832 0.5840 0.5848 0.5854 0.5860
2545.000000 0.5862 0.5866 0.5868 0.5871 0.5874
2540.000000 0.5875 0.5876 0.5877 0.5877 0.5877
2535.000000 0.5877 0.5877 0.5877 0.5878 0.5878
2530.000000 0.5880 0.5883 0.5886 0.5891 0.5896
2525.000000 0.5902 0.5910 0.5918 0.5930 0.5945
2520.000000 0.5959 0.5973 0.5986 0.6000 0.6015
2515.000000 0.6029 0.6043 0.6057 0.6074 0.6093
2510.000000 0.6112 0.6131 0.6150 0.6170 0.6189
2505.000000 0.6209 0.6228 0.6248 0.6267 0.6287
2500.000000 0.6307 0.6325 0.6343 0.6360 0.6378
2495.000000 0.6396 0.6412 0.6431 0.6449 0.6465
2490.000000 0.6484 0.6501 0.6519 0.6538 0.6555
2485.000000 0.6572 0.6591 0.6610 0.6626 0.6643
2480.000000 0.6660 0.6676 0.6694 0.6711 0.6728
2475.000000 0.6746 0.6762 0.6780 0.6797 0.6814
2470.000000 0.6831 0.6848 0.6865 0.6882 0.6900
2465.000000 0.6915 0.6932 0.6948 0.6962 0.6978
2460.000000 0.6993 0.7008 0.7024 0.7039 0.7054
2455.000000 0.7069 0.7085 0.7100 0.7115 0.7131
2450.000000 0.7144 0.7157 0.7168 0.7180 0.7191
2445.000000 0.7201 0.7212 0.7224 0.7236 0.7247
2440.000000 0.7258 0.7269 0.7281 0.7292 0.7304
2435.000000 0.7315 0.7326 0.7338 0.7349 0.7361
2430.000000 0.7371 0.7384 0.7395 0.7407 0.7418
2425.000000 0.7430 0.7441 0.7453 0.7462 0.7472
2420.000000 0.7483 0.7492 0.7501 0.7511 0.7521
2415.000000 0.7531 0.7540 0.7550 0.7558 0.7568
2410.000000 0.7578 0.7588 0.7597 0.7607 0.7615
2405.000000 0.7625 0.7635 0.7645 0.7654 0.7662
2400.000000 0.7672 0.7681 0.7690 0.7698 0.7707
2395.000000 0.7715 0.7724 0.7732 0.7741 0.7749
2390.000000 0.7758 0.7765 0.7775 0.7783 0.7792
2385.000000 0.7801 0.7808 0.7817 0.7825 0.7835
2380.000000 0.7843 0.7851 0.7861 0.7868 0.7878
2375.000000 0.7887 0.7895 0.7901 0.7910 0.7917
2370.000000 0.7922 0.7930 0.7937 0.7945 0.7951
2365.000000 0.7958 0.7965 0.7972 0.7980 0.7987
2360.000000 0.7994 0.8001 0.8008 0.8015 0.8021
2355.000000 0.8028 0.8035 0.8042 0.8048 0.8055
2350.000000 0.8061 0.8068 0.8075 0.8081 0.8088
2345.000000 0.8095 0.8101 0.8108 0.8115 0.8121
2340.000000 0.8126 0.8133 0.8139 0.8145 0.8151
2335.000000 0.8157 0.8162 0.8168 0.8175 0.8181
2330.000000 0.8186 0.8192 0.8198 0.8204 0.8210
2325.000000 0.8216 0.8221 0.8228 0.8234 0.8240
2320.000000 0.8246 0.8251 0.8257 0.8263 0.8268
2315.000000 0.8275 0.8281 0.8288 0.8294 0.8300
2310.000000 0.8307 0.8314 0.8321 0.8328 0.8334
2305.000000 0.8341 0.8348 0.8355 0.8362 0.8368
2300.000000 0.8375 0.8383 0.8389 0.8396 0.8403
2295.000000 0.8410 0.8417 0.8424 0.8431 0.8438
2290.000000 0.8444 0.8451 0.8458 0.8465 0.8471
2285.000000 0.8478 0.8483 0.8488 0.8494 0.8500
2280.000000 0.8505 0.8510 0.8515 0.8521 0.8527
2275.000000 0.8532 0.8538 0.8543 0.8546 0.8549
2270.000000 0.8551 0.8553 0.8555 0.8557 0.8560
2265.000000 0.8562 0.8563 0.8565 0.8568 0.8570
2260.000000 0.8571 0.8574 0.8575 0.8578 0.8580
2255.000000 0.8583 0.8585 0.8587 0.8589 0.8591
2250.000000 0.8593 0.8596 0.8598 0.8602 0.8605
2245.000000 0.8609 0.8612 0.8616 0.8618 0.8623
2240.000000 0.8625 0.8628 0.8633 0.8636 0.8640
2235.000000 0.8643 0.8647 0.8650 0.8654 0.8658
2230.000000 0.8661 0.8665 0.8668 0.8671 0.8674
2225.000000 0.8677 0.8680 0.8683 0.8685 0.8688
2220.000000 0.8691 0.8694 0.8696 0.8699 0.8702
2215.000000 0.8706 0.8708 0.8711 0.8714 0.8717
2210.000000 0.8720 0.8723 0.8725 0.8728 0.8731
2205.000000 0.8734 0.8737 0.8740 0.8742 0.8746
2200.000000 0.8748 0.8751 0.8754 0.8757 0.8760
2195.000000 0.8762 0.8765 0.8767 0.8771 0.8774
2190.000000 0.8775 0.8778 0.8781 0.8784 0.8787
2185.000000 0.8790 0.8793 0.8796 0.8798 0.8802
2180.000000 0.8806 0.8810 0.8813 0.8817 0.8821
2175.000000 0.8825 0.8828 0.8833 0.8838 0.8842
2170.000000 0.8846 0.8850 0.8853 0.8855 0.8857
2165.000000 0.8859 0.8862 0.8864 0.8866 0.8868
2160.000000 0.8871 0.8873 0.8875 0.8878 0.8878
2155.000000 0.8880 0.8880 0.8881 0.8882 0.8883
2150.000000 0.8884 0.8885 0.8885 0.8886 0.8887
2145.000000 0.8889 0.8890 0.8890 0.8890 0.8890
2140.000000 0.8889 0.8888 0.8887 0.8886 0.8884
2135.000000 0.8883 0.8881 0.8880 0.8878 0.8878
2130.000000 0.8875 0.8873 0.8867 0.8860 0.8853
2125.000000 0.8845 0.8837 0.8830 0.8823 0.8815
2120.000000 0.8807 0.8800 0.8791 0.8780 0.8768
2115.000000 0.8755 0.8741 0.8728 0.8714 0.8701
2110.000000 0.8687 0.8673 0.8659 0.8644 0.8628
2105.000000 0.8615 0.8601 0.8588 0.8578 0.8568
2100.000000 0.8558 0.8549 0.8539 0.8530 0.8523
2095.000000 0.8517 0.8512 0.8507 0.8502 0.8497
2090.000000 0.8492 0.8488 0.8483 0.8477 0.8473
2085.000000 0.8468 0.8466 0.8464 0.8461 0.8459
2080.000000 0.8456 0.8453 0.8451 0.8449 0.8447
2075.000000 0.8444 0.8442 0.8440 0.8437 0.8435
2070.000000 0.8433 0.8431 0.8428 0.8427 0.8425
2065.000000 0.8424 0.8421 0.8420 0.8418 0.8416
2060.000000 0.8415 0.8413 0.8411 0.8409 0.8408
2055.000000 0.8406 0.8406 0.8406 0.8407 0.8409
2050.000000 0.8411 0.8412 0.8413 0.8414 0.8416
2045.000000 0.8417 0.8418 0.8425 0.8431 0.8437
2040.000000 0.8443 0.8450 0.8456 0.8463 0.8468
2035.000000 0.8475 0.8482 0.8488 0.8495 0.8501
2030.000000 0.8508 0.8515 0.8521 0.8530 0.8538
2025.000000 0.8546 0.8554 0.8561 0.8568 0.8577
2020.000000 0.8585 0.8596 0.8610 0.8624 0.8637
2015.000000 0.8651 0.8665 0.8678 0.8693 0.8707
2010.000000 0.8721 0.8735 0.8749 0.8763 0.8778
2005.000000 0.8794 0.8809 0.8825 0.8840 0.8856
2000.000000 0.8871 0.8887 0.8903 0.8918 0.8934
1995.000000 0.8950 0.8966 0.8978 0.8992 0.9005
1990.000000 0.9017 0.9031 0.9043 0.9056 0.9068
1985.000000 0.9081 0.9094 0.9108 0.9118 0.9128
1980.000000 0.9138 0.9146 0.9154 0.9163 0.9171
1975.000000 0.9180 0.9188 0.9195 0.9199 0.9202
1970.000000 0.9206 0.9210 0.9213 0.9217 0.9218
1965.000000 0.9218 0.9218 0.9216 0.9215 0.9215
1960.000000 0.9213 0.9212 0.9212 0.9212 0.9212
1955.000000 0.9212 0.9214 0.9218 0.9225 0.9233
1950.000000 0.9240 0.9247 0.9255 0.9262 0.9268
1945.000000 0.9277 0.9286 0.9294 0.9303 0.9311
1940.000000 0.9321 0.9330 0.9338 0.9347 0.9356
1935.000000 0.9364 0.9374 0.9383 0.9392 0.9402
1930.000000 0.9411 0.9418 0.9418 0.9420 0.9421
1925.000000 0.9423 0.9424 0.9425 0.9425 0.9427
1920.000000 0.9428 0.9430 0.9431 0.9433 0.9434
1915.000000 0.9436 0.9438 0.9441 0.9444 0.9447
1910.000000 0.9450 0.9453 0.9456 0.9458 0.9461
1905.000000 0.9464 0.9467 0.9471 0.9478 0.9484
1900.000000 0.9491 0.9497 0.9503 0.9510 0.9517
1895.000000 0.9523 0.9528 0.9535 0.9541 0.9547
1890.000000 0.9553 0.9559 0.9565 0.9570 0.9577
1885.000000 0.9582 0.9586 0.9590 0.9594 0.9598
1880.000000 0.9601 0.9605 0.9609 0.9613 0.9617
1875.000000 0.9620 0.9624 0.9624 0.9624 0.9623
1870.000000 0.9621 0.9616 0.9611 0.9605 0.9600
1865.000000 0.9595 0.9588 0.9581 0.9575 0.9568
1860.000000 0.9562 0.9562 0.9561 0.9561 0.9561
1855.000000 0.9561 0.9561 0.9561 0.9561 0.9563
1850.000000 0.9567 0.9571 0.9575 0.9580 0.9584
1845.000000 0.9588 0.9593 0.9603 0.9617 0.9631
1840.000000 0.9644 0.9658 0.9671 0.9685 0.9698
1835.000000 0.9711 0.9724 0.9737 0.9750 0.9763
1830.000000 0.9775 0.9788 0.9798 0.9809 0.9818
1825.000000 0.9828 0.9838 0.9849 0.9859 0.9868
1820.000000 0.9878 0.9887 0.9897 0.9907 0.9916
1815.000000 0.9921 0.9925 0.9928 0.9931 0.9934
1810.000000 0.9937 0.9940 0.9943 0.9947 0.9950
1805.000000 0.9953 0.9957 0.9959 0.9962 0.9964
1800.000000 0.9965 0.9967 0.9970 0.9971 0.9973
1795.000000 0.9975 0.9978 0.9978 0.9982 0.9982
1790.000000 0.9982 0.9982 0.9982 0.9982 0.9982
1785.000000 0.9982 0.9981 0.9981 0.9981 0.9980
1780.000000 0.9978 0.9977 0.9975 0.9974 0.9973
1775.000000 0.9971 0.9970 0.9968 0.9967 0.9966
1770.000000 0.9965 0.9963 0.9961 0.9960 0.9957
1765.000000 0.9954 0.9951 0.9947 0.9941 0.9928
1760.000000 0.9912 0.9894 0.9875 0.9855 0.9838
1755.000000 0.9821 0.9805 0.9789 0.9774 0.9762
1750.000000 0.9750 0.9738 0.9725 0.9709 0.9693
1745.000000 0.9677 0.9660 0.9647 0.9640 0.9635
1740.000000 0.9631 0.9628 0.9625 0.9621 0.9618
1735.000000 0.9612 0.9600 0.9592 0.9605 0.9637
1730.000000 0.9668 0.9700 0.9731 0.9762 0.9784
1725.000000 0.9792 0.9789 0.9782 0.9766 0.9751
1720.000000 0.9736 0.9721 0.9704 0.9683 0.9667
1715.000000 0.9675 0.9687 0.9698 0.9710 0.9725
1710.000000 0.9750 0.9777 0.9785 0.9789 0.9788
1705.000000 0.9778 0.9770 0.9761 0.9751 0.9739
1700.000000 0.9724 0.9708 0.9692 0.9675 0.9660
1695.000000 0.9643 0.9625 0.9606 0.9589 0.9571
1690.000000 0.9557 0.9545 0.9532 0.9520 0.9507
1685.000000 0.9494 0.9483 0.9471 0.9462 0.9451
1680.000000 0.9440 0.9430 0.9418 0.9408 0.9394
1675.000000 0.9377 0.9361 0.9345 0.9328 0.9310
1670.000000 0.9290 0.9270 0.9249 0.9225 0.9188
1665.000000 0.9143 0.9086 0.8997 0.8880 0.8786
1660.000000 0.8699 0.8612 0.8511 0.8404 0.8238
1655.000000 0.8095 0.7998 0.7881 0.7608 0.7128
1650.000000 0.6647 0.6165 0.5682 0.5199 0.4715
1645.000000 0.4400 0.4333 0.4322 0.4391 0.4530
1640.000000 0.4689 0.4847 0.5006 0.5165 0.5324
1635.000000 0.5483 0.5643 0.5803 0.5962 0.6123
1630.000000 0.6283 0.6443 0.6604 0.6765 0.6925
1625.000000 0.7087 0.7248 0.7410 0.7571 0.7698
1620.000000 0.7722 0.7687 0.7465 0.7226 0.6989
1615.000000 0.6750 0.6510 0.6270 0.6030 0.5790
1610.000000 0.5549 0.5307 0.5066 0.4968 0.4948
1605.000000 0.4943 0.5102 0.4960 0.5678 0.5974
1600.000000 0.6271 0.6567 0.6864 0.7161 0.7460
1595.000000 0.7688 0.7799 0.7887 0.7978 0.8076
1590.000000 0.8165 0.8231 0.8295 0.8359 0.8424
1585.000000 0.8492 0.8568 0.8646 0.8711 0.8768
1580.000000 0.8828 0.8883 0.8928 0.8971 0.9015
1575.000000 0.9057 0.9091 0.9116 0.9142 0.9167
1570.000000 0.9188 0.9206 0.9223 0.9240 0.9258
1565.000000 0.9275 0.9289 0.9303 0.9318 0.9332
1560.000000 0.9345 0.9357 0.9367 0.9373 0.9377
1555.000000 0.9380 0.9384 0.9385 0.9386 0.9386
1550.000000 0.9387 0.9387 0.9388 0.9381 0.9375
1545.000000 0.9368 0.9359 0.9345 0.9328 0.9312
1540.000000 0.9296 0.9280 0.9252 0.9210 0.9165
1535.000000 0.9109 0.9040 0.8968 0.8874 0.8758
1530.000000 0.8613 0.8457 0.8327 0.8141 0.7847
1525.000000 0.7589 0.7328 0.7069 0.6811 0.6551
1520.000000 0.6291 0.6030 0.5769 0.5508 0.5246
1515.000000 0.4984 0.4722 0.4459 0.4196 0.3962
1510.000000 0.3832 0.3773 0.3730 0.3680 0.3366
1505.000000 0.2949 0.2532 0.2185 0.2074 0.2069
1500.000000 0.2095 0.2329 0.2648 0.2965 0.3284
1495.000000 0.3604 0.3923 0.4244 0.4564 0.4885
1490.000000 0.5206 0.5528 0.5850 0.6172 0.6496
1485.000000 0.6751 0.6755 0.6743 0.6455 0.6100
1480.000000 0.5744 0.5388 0.5032 0.4675 0.4448
1475.000000 0.4415 0.4465 0.4636 0.4806 0.4977
1470.000000 0.5148 0.5320 0.5490 0.5509 0.5373
1465.000000 0.5096 0.4819 0.4542 0.4265 0.3986
1460.000000 0.3708 0.3429 0.3151 0.2871 0.2593
1455.000000 0.2402 0.2382 0.2382 0.2382 0.2534
1450.000000 0.2721 0.2909 0.3098 0.3262 0.3362
1445.000000 0.3434 0.3504 0.3603 0.3749 0.3879
1440.000000 0.4003 0.4122 0.4239 0.4395 0.4731
1435.000000 0.5119 0.5508 0.5897 0.6066 0.6092
1430.000000 0.6105 0.6108 0.6109 0.6110 0.6210
1425.000000 0.6368 0.6525 0.6684 0.6730 0.6710
1420.000000 0.6711 0.6711 0.6378 0.5957 0.5583
1415.000000 0.5460 0.5483 0.5565 0.5646 0.5729
1410.000000 0.5809 0.5839 0.5814 0.5687 0.5517
1405.000000 0.5347 0.5177 0.5006 0.4834 0.4662
1400.000000 0.4492 0.4320 0.4174 0.4137 0.4218
1395.000000 0.4437 0.4673 0.4909 0.5145 0.5382
1390.000000 0.5618 0.5855 0.6093 0.6331 0.6500
1385.000000 0.6517 0.6441 0.6336 0.6230 0.6129
1380.000000 0.6083 0.6142 0.6256 0.6373 0.6489
1375.000000 0.6606 0.6722 0.6841 0.6958 0.7075
1370.000000 0.7148 0.7218 0.7185 0.7185 0.7161
1365.000000 0.7041 0.6895 0.6817 0.6701 0.6465
1360.000000 0.6194 0.5924 0.5739 0.5829 0.6044
1355.000000 0.6259 0.6475 0.6691 0.6907 0.7124
1350.000000 0.7341 0.7556 0.7671 0.7667 0.7611
1345.000000 0.7554 0.7499 0.7483 0.7515 0.7591
1340.000000 0.7668 0.7748 0.7825 0.7905 0.7956
1335.000000 0.7986 0.8001 0.8008 0.7986 0.8006
1330.000000 0.7994 0.7976 0.7865 0.7551 0.7199
1325.000000 0.6844 0.6490 0.5872 0.5851 0.5902
1320.000000 0.6095 0.6309 0.6524 0.6739 0.6954
1315.000000 0.7169 0.7386 0.7601 0.7818 0.8036
1310.000000 0.8253 0.8471 0.8586 0.8634 0.8660
1305.000000 0.8668 0.8674 0.8685 0.8675 0.8666
1300.000000 0.8625 0.8468 0.8190 0.7906 0.7621
1295.000000 0.7406 0.7349 0.7324 0.7294 0.7188
1290.000000 0.6848 0.6465 0.6081 0.5698 0.5312
1285.000000 0.4927 0.4541 0.4155 0.3768 0.3522
1280.000000 0.3528 0.3568 0.3609 0.3652 0.3691
1275.000000 0.3704 0.3508 0.3230 0.2996 0.2954
1270.000000 0.2953 0.2953 0.3008 0.3111 0.3324
1265.000000 0.3795 0.4110 0.4428 0.4745 0.5062
1260.000000 0.5380 0.5698 0.6018 0.6338 0.6597
1255.000000 0.6636 0.6601 0.6468 0.6324 0.6179
1250.000000 0.6034 0.5889 0.5743 0.5597 0.5555
1245.000000 0.5552 0.5644 0.5883 0.6126 0.6368
1240.000000 0.6611 0.6855 0.7025 0.7118 0.7193
1235.000000 0.7258 0.7321 0.7383 0.7443 0.7488
1230.000000 0.7522 0.7504 0.7418 0.7293 0.7168
1225.000000 0.7058 0.7082 0.7228 0.7384 0.7541
1220.000000 0.7698 0.7843 0.7889 0.7918 0.7886
1215.000000 0.7865 0.7837 0.7804 0.7769 0.7724
1210.000000 0.7669 0.7557 0.7360 0.7091 0.6821
1205.000000 0.6551 0.6290 0.6209 0.6295 0.6436
1200.000000 0.6576 0.6718 0.6861 0.7003 0.7135
1195.000000 0.7171 0.6871 0.6317 0.5762 0.5205
1190.000000 0.4648 0.4090 0.3530 0.3134 0.3124
1185.000000 0.3559 0.3982 0.4406 0.4830 0.5255
1180.000000 0.5603 0.5691 0.5745 0.5800 0.5992
1175.000000 0.6275 0.6558 0.6842 0.7125 0.7411
1170.000000 0.7562 0.7611 0.7650 0.7648 0.7637
1165.000000 0.7561 0.7069 0.6511 0.5955 0.5395
1160.000000 0.4834 0.4274 0.3862 0.3864 0.3859
1155.000000 0.4030 0.4392 0.4754 0.5116 0.5479
1150.000000 0.5843 0.6207 0.6571 0.6875 0.6992
1145.000000 0.7076 0.7126 0.7158 0.7182 0.7182
1140.000000 0.7182 0.7165 0.7097 0.6733 0.6242
1135.000000 0.5749 0.5255 0.4760 0.4265 0.3330
1130.000000 0.3355 0.3368 0.3588 0.3805 0.3895
1125.000000 0.3923 0.3944 0.4093 0.4323 0.4553
1120.000000 0.4783 0.5014 0.5148 0.4928 0.4468
1115.000000 0.4007 0.3753 0.3740 0.3816 0.4677
1110.000000 0.5577 0.6285 0.6576 0.6750 0.6951
1105.000000 0.7088 0.7207 0.7333 0.7441 0.7519
1100.000000 0.7582 0.7581 0.7576 0.7555 0.7517
1095.000000 0.7355 0.7053 0.6824 0.6419 0.6059
1090.000000 0.5697 0.5335 0.4971 0.4607 0.4243
1085.000000 0.3900 0.3959 0.4212 0.4468 0.4724
1080.000000 0.4979 0.5076 0.4892 0.4452 0.4012
1075.000000 0.3570 0.3128 0.2684 0.2314 0.2168
1070.000000 0.2193 0.2189 0.2209 0.2326 0.2509
1065.000000 0.2753 0.3003 0.3253 0.3504 0.3755
1060.000000 0.4007 0.4259 0.4512 0.4764 0.5018
1055.000000 0.5284 0.5297 0.5288 0.4854 0.4273
1050.000000 0.3692 0.3108 0.2524 0.2198 0.2178
1045.000000 0.2254 0.2579 0.2928 0.3278 0.3628
1040.000000 0.3979 0.4331 0.4683 0.5036 0.5390
1035.000000 0.5937 0.5945 0.5910 0.5600 0.5290
1030.000000 0.5191 0.5335 0.5540 0.5746 0.5952
1025.000000 0.6157 0.6210 0.6104 0.5700 0.5284
1020.000000 0.4867 0.4449 0.3909 0.3920 0.4009
1015.000000 0.4500 0.5027 0.5556 0.6036 0.6353
1010.000000 0.6610 0.6810 0.6990 0.7181 0.7342
1005.000000 0.7438 0.7505 0.7525 0.7528 0.7544
1000.000000 0.7576 0.7617 0.7658 0.7699 0.7743
995.000000 0.7787 0.7830 0.7868 0.7905 0.7939
990.000000 0.7967 0.7988 0.7981 0.8008 0.8006
985.000000 0.7978 0.7898 0.7636 0.7342 0.7012
980.000000 0.5997 0.4937 0.4338 0.4481 0.4915
975.000000 0.5349 0.5745 0.5772 0.5386 0.5054
970.000000 0.4726 0.4737 0.5071 0.5408 0.5745
965.000000 0.6083 0.6084 0.5899 0.5831 0.6088
960.000000 0.6490 0.6894 0.7239 0.7439 0.7591
955.000000 0.7715 0.7817 0.7910 0.7985 0.8044
950.000000 0.8084 0.8097 0.8125 0.8078 0.7831
945.000000 0.7142 0.6344 0.5543 0.4741 0.4280
940.000000 0.4542 0.5123 0.5705 0.6289 0.6848
935.000000 0.6898 0.6690 0.6472 0.6489 0.6650
930.000000 0.7039 0.7428 0.7749 0.7889 0.8008
925.000000 0.8074 0.8111 0.8094 0.7851 0.7281
920.000000 0.6710 0.6137 0.5562 0.4988 0.4412
915.000000 0.3637 0.3648 0.3943 0.4474 0.5005
910.000000 0.5539 0.6154 0.6528 0.6955 0.7221
905.000000 0.7435 0.7575 0.7717 0.7856 0.7968
900.000000 0.8075 0.8161 0.8235 0.8308 0.8378
895.000000 0.8449 0.8515 0.8578 0.8635 0.8681
890.000000 0.8718 0.8751 0.8778 0.8801 0.8810
885.000000 0.8810 0.8782 0.8742 0.8683 0.8482
880.000000 0.8039 0.7947 0.7962 0.8049 0.8176
875.000000 0.8271 0.8295 0.8305 0.7768 0.7072
870.000000 0.6376 0.5440 0.5453 0.5980 0.6600
865.000000 0.7221 0.7738 0.7914 0.8091 0.8281
860.000000 0.8480 0.8656 0.8771 0.8827 0.8863
855.000000 0.8907 0.8990 0.9007 0.9001 0.8989
850.000000 0.8967 0.8914 0.8806 0.8550 0.8106
845.000000 0.7733 0.6961 0.6190 0.5415 0.4638
840.000000 0.3900 0.4029 0.4681 0.5336 0.5994
835.000000 0.6530 0.6942 0.7285 0.7508 0.7726
830.000000 0.7912 0.8068 0.8215 0.8366 0.8539
825.000000 0.8645 0.8664 0.8759 0.8852 0.8871
820.000000 0.8889 0.8868 0.8821 0.8737 0.8464
815.000000 0.7851 0.7901 0.8142 0.8383 0.8485
810.000000 0.8501 0.8493 0.8424 0.7850 0.7234
805.000000 0.6992 0.6918 0.6847 0.6619 0.5670
800.000000 0.4749 0.3824 0.2603 0.2673 0.3456
795.000000 0.4267 0.5642 0.5669 0.5235 0.4510
790.000000 0.3782 0.3049 0.3238 0.3868 0.4500
785.000000 0.5133 0.5768 0.6405 0.6845 0.7167
780.000000 0.7480 0.7771 0.7984 0.8160 0.8165
775.000000 0.8154 0.7984 0.7701 0.7421 0.7340
770.000000 0.7518 0.7796 0.8074 0.8323 0.8481
765.000000 0.8606 0.8715 0.8778 0.8784 0.8801
760.000000 0.8809 0.8795 0.8711 0.8153 0.7836
755.000000 0.7174 0.5485 0.5489 0.5843 0.6449
750.000000 0.7058 0.7605 0.7837 0.8124 0.8325
745.000000 0.8418 0.8475 0.8513 0.8562 0.8627
740.000000 0.8650 0.8651 0.8652 0.8668 0.8705
735.000000 0.8724 0.8703 0.8686 0.8687 0.8688
730.000000 0.8657 0.8610 0.8585 0.8558 0.8475
725.000000 0.8286 0.7955 0.7628 0.7300 0.6971
720.000000 0.6508 0.6534 0.6675 0.6912 0.7142
715.000000 0.7321 0.7462 0.7592 0.7680 0.7711
710.000000 0.7717 0.7734 0.7721 0.7728 0.7698
705.000000 0.7625 0.7594 0.7547 0.7475 0.7411
700.000000 0.7321 0.7208 0.7075 0.6868 0.6343
695.000000 0.5935 0.5530 0.5107 0.5136 0.5286
690.000000 0.5736 0.6158 0.6494 0.6712 0.6844
685.000000 0.6883 0.6900 0.6868 0.6824 0.6768
680.000000 0.6678 0.6568 0.6403 0.6169 0.5933
675.000000 0.5762 0.5641 0.5621 0.5707 0.5882
670.000000 0.6016 0.6075 0.6136 0.6314 0.6492
665.000000 0.6541 0.6518 0.6458 0.6431 0.6411
660.000000 0.6408 0.6418 0.6446 0.6496 0.6550
655.000000 0.6608 0.6575 0.6545 0.6508 0.6478
##END=
