##TITLE=Imidazole, 4-(4-methylpiperidinoCarbonyl)-5-nitro-
##JCAMP-DX=4.24
##DATA TYPE=INFRARED SPECTRUM
##CLASS=COBLENTZ III
##ORIGIN=SOUTHERN RESEARCH INSTITUTE
##OWNER=Copyright (C) 1987 by the Coblentz Society
Collection (C) 2018 copyright by the U.S. Secretary of Commerce
on behalf of the United States of America. All rights reserved.
##DATE=1962/04/04
##NAMES=4-methyl-1-[(5-nitro-1H-imidazol-4-yl)carbonyl]piperidine
##MOLFORM=C10 H14 N4 O3
##SOURCE REFERENCE=COBLENTZ NO. 8684
##$NIST ID=B6008684
##$NIST SOURCE=COBLENTZ
##$NIST IMAGE=cob8684
##SPECTROMETER/DATA SYSTEM=PERKIN-ELMER 221 (GRATING)
##INSTRUMENT PARAMETERS=FILTER AT 2490, 980 CM^-^1. GRATING 4000-1428 CM^-^1, NaCl PRISM 1428-650 CM^-^1
##STATE=SOLID (1 mg / 650 mg KBr DISC)
$$ PURITY - ANALYTICAL
$$SPECTRAL CONTAMINATION DUE TO H2O AROUND 3450 CM^-^1
##SAMPLING PROCEDURE=TRANSMISSION
##RESOLUTION=2
##DATA PROCESSING=DIGITIZED BY COBLENTZ SOCIETY (BATCH II) FROM HARD COPY
##XUNITS=1/CM
##YUNITS=TRANSMITTANCE
##XFACTOR=1.0
##YFACTOR=1
##FIRSTX=644
##LASTX=4000
##FIRSTY=0.8309
##MAXX=4000
##MINX=644
##MAXY=0.9778
##MINY=0.2787
##NPOINTS=3357
##XYDATA=(X++(Y..Y))
644.000000 0.8309 0.8359 0.8406 0.8465 0.8561
649.000000 0.8659 0.8774 0.9232 0.9260 0.9274
654.000000 0.9276 0.9278 0.9308 0.9281 0.9279
659.000000 0.9272 0.9254 0.9221 0.9178 0.9126
664.000000 0.9053 0.9019 0.8985 0.8964 0.8965
669.000000 0.8967 0.8928 0.9108 0.9249 0.9325
674.000000 0.9435 0.9550 0.9584 0.9603 0.9612
679.000000 0.9622 0.9626 0.9626 0.9626 0.9622
684.000000 0.9616 0.9611 0.9606 0.9598 0.9589
689.000000 0.9580 0.9568 0.9555 0.9541 0.9528
694.000000 0.9515 0.9501 0.9487 0.9473 0.9458
699.000000 0.9444 0.9431 0.9424 0.9418 0.9417
704.000000 0.9427 0.9436 0.9446 0.9456 0.9483
709.000000 0.9513 0.9555 0.9613 0.9669 0.9705
714.000000 0.9739 0.9742 0.9746 0.9749 0.9751
719.000000 0.9748 0.9743 0.9739 0.9732 0.9719
724.000000 0.9706 0.9693 0.9676 0.9655 0.9633
729.000000 0.9600 0.9565 0.9530 0.9467 0.9402
734.000000 0.9319 0.9223 0.9128 0.9054 0.8982
739.000000 0.8931 0.8922 0.8922 0.8928 0.8907
744.000000 0.9240 0.9334 0.9541 0.9669 0.9706
749.000000 0.9739 0.9747 0.9755 0.9764 0.9770
754.000000 0.9771 0.9766 0.9773 0.9772 0.9761
759.000000 0.9750 0.9738 0.9727 0.9694 0.9657
764.000000 0.9511 0.9318 0.9124 0.8931 0.8737
769.000000 0.8650 0.8635 0.8665 0.8938 0.9240
774.000000 0.9541 0.9734 0.9750 0.9760 0.9765
779.000000 0.9771 0.9776 0.9777 0.9778 0.9778
784.000000 0.9777 0.9777 0.9760 0.9776 0.9774
789.000000 0.9765 0.9757 0.9748 0.9740 0.9725
794.000000 0.9709 0.9692 0.9676 0.9655 0.9628
799.000000 0.9601 0.9570 0.9537 0.9504 0.9470
804.000000 0.9437 0.9400 0.9364 0.9327 0.9285
809.000000 0.9236 0.9185 0.9130 0.9075 0.9020
814.000000 0.8759 0.8272 0.7785 0.7298 0.7058
819.000000 0.6958 0.7054 0.7260 0.7517 0.7773
824.000000 0.8030 0.8287 0.8543 0.8800 0.9057
829.000000 0.9262 0.9254 0.9239 0.9278 0.9189
834.000000 0.9127 0.9035 0.8967 0.8911 0.8824
839.000000 0.8712 0.8619 0.8526 0.8433 0.8340
844.000000 0.8247 0.8154 0.8060 0.7967 0.7787
849.000000 0.7781 0.7760 0.7762 0.7788 0.7982
854.000000 0.8175 0.8369 0.8562 0.8756 0.8949
859.000000 0.9097 0.9090 0.9075 0.9060 0.9003
864.000000 0.8914 0.8824 0.8735 0.8645 0.8556
869.000000 0.8467 0.8461 0.8527 0.8678 0.8828
874.000000 0.8978 0.9128 0.9279 0.9313 0.9314
879.000000 0.9313 0.9313 0.9313 0.9313 0.9292
884.000000 0.9312 0.9311 0.9309 0.9307 0.9304
889.000000 0.9299 0.9295 0.9282 0.9269 0.9256
894.000000 0.9239 0.9221 0.9202 0.9183 0.9165
899.000000 0.9146 0.9127 0.9108 0.9084 0.9059
904.000000 0.9035 0.9012 0.8991 0.8970 0.8950
909.000000 0.8929 0.8909 0.8889 0.8871 0.8852
914.000000 0.8833 0.8815 0.8796 0.8777 0.8759
919.000000 0.8736 0.8714 0.8692 0.8669 0.8647
924.000000 0.8624 0.8600 0.8576 0.8552 0.8529
929.000000 0.8500 0.8462 0.8423 0.8385 0.8330
934.000000 0.8273 0.8216 0.8152 0.8089 0.8076
939.000000 0.8069 0.8062 0.8054 0.8046 0.8036
944.000000 0.8019 0.7984 0.7872 0.7786 0.7590
949.000000 0.7486 0.7347 0.7187 0.7059 0.6931
954.000000 0.6828 0.6734 0.6640 0.6536 0.6423
959.000000 0.6355 0.6294 0.6208 0.5836 0.5462
964.000000 0.5089 0.4716 0.4343 0.4158 0.4174
969.000000 0.4179 0.4643 0.5564 0.6485 0.7406
974.000000 0.8085 0.8124 0.8055 0.7923 0.7790
979.000000 0.7658 0.7526 0.7394 0.7262 0.7129
984.000000 0.6997 0.9147 0.9246 0.9272 0.9295
989.000000 0.9308 0.9310 0.9289 0.9311 0.9307
994.000000 0.9303 0.9294 0.9283 0.9267 0.9242
999.000000 0.9214 0.9177 0.9140 0.9104 0.9039
1004.000000 0.8966 0.8891 0.8820 0.8756 0.8707
1009.000000 0.8671 0.8650 0.8650 0.8666 0.8698
1014.000000 0.8743 0.8804 0.8868 0.8967 0.9073
1019.000000 0.9185 0.9281 0.9309 0.9309 0.9310
1024.000000 0.9310 0.9310 0.9311 0.9308 0.9302
1029.000000 0.9292 0.9291 0.9272 0.9245 0.9217
1034.000000 0.9183 0.9128 0.9083 0.9050 0.9017
1039.000000 0.8985 0.8960 0.8940 0.8921 0.8908
1044.000000 0.8906 0.8905 0.8903 0.8908 0.8919
1049.000000 0.8937 0.8956 0.8976 0.8997 0.9019
1054.000000 0.9042 0.9065 0.9086 0.9092 0.9098
1059.000000 0.9101 0.9102 0.9101 0.9098 0.9092
1064.000000 0.9083 0.9042 0.8978 0.8927 0.8871
1069.000000 0.8806 0.8720 0.8595 0.8370 0.8132
1074.000000 0.7894 0.7656 0.7418 0.7397 0.7427
1079.000000 0.7475 0.7771 0.8067 0.8327 0.8362
1084.000000 0.8397 0.8432 0.8470 0.8508 0.8573
1089.000000 0.8673 0.8927 0.9020 0.9065 0.9084
1094.000000 0.9104 0.9123 0.9140 0.9152 0.9163
1099.000000 0.9173 0.9178 0.9183 0.9186 0.9185
1104.000000 0.9184 0.9175 0.9164 0.9152 0.9141
1109.000000 0.9129 0.9117 0.9105 0.9091 0.9076
1114.000000 0.9062 0.9047 0.9035 0.9024 0.9014
1119.000000 0.9004 0.8999 0.8995 0.8991 0.8986
1124.000000 0.8982 0.8988 0.8995 0.9001 0.9008
1129.000000 0.9016 0.9024 0.9031 0.9039 0.9046
1134.000000 0.9052 0.9058 0.9064 0.9070 0.9076
1139.000000 0.9080 0.9082 0.9085 0.9084 0.9072
1144.000000 0.9051 0.9025 0.8998 0.8971 0.8940
1149.000000 0.8910 0.8880 0.8855 0.8834 0.8813
1154.000000 0.8792 0.8772 0.8755 0.8739 0.8724
1159.000000 0.8709 0.8694 0.8683 0.8676 0.8673
1164.000000 0.8687 0.8691 0.8753 0.8836 0.8889
1169.000000 0.8941 0.8986 0.9016 0.9046 0.9065
1174.000000 0.9072 0.9077 0.9076 0.9085 0.9073
1179.000000 0.9066 0.9059 0.9052 0.9039 0.9026
1184.000000 0.9010 0.8991 0.8970 0.8949 0.8929
1189.000000 0.8898 0.8863 0.8827 0.8785 0.8689
1194.000000 0.8535 0.8382 0.8228 0.8074 0.7890
1199.000000 0.7820 0.7791 0.7782 0.7772 0.7764
1204.000000 0.7759 0.7753 0.7606 0.7372 0.7137
1209.000000 0.6902 0.6667 0.6577 0.6496 0.6466
1214.000000 0.6455 0.6456 0.6572 0.6723 0.6454
1219.000000 0.7025 0.7176 0.7326 0.7477 0.7628
1224.000000 0.7672 0.7669 0.7667 0.7664 0.7658
1229.000000 0.7506 0.7302 0.7098 0.6894 0.6690
1234.000000 0.6487 0.6283 0.6079 0.5875 0.5673
1239.000000 0.5586 0.5534 0.5527 0.5549 0.5542
1244.000000 0.5719 0.5925 0.6130 0.6336 0.6541
1249.000000 0.6746 0.6952 0.7157 0.7363 0.7568
1254.000000 0.7823 0.7819 0.7807 0.7793 0.7683
1259.000000 0.7507 0.7330 0.7154 0.6978 0.6801
1264.000000 0.6625 0.6449 0.6422 0.6426 0.6434
1269.000000 0.6539 0.6396 0.7017 0.7256 0.7495
1274.000000 0.7734 0.7905 0.7906 0.7907 0.7910
1279.000000 0.7913 0.7917 0.7920 0.7924 0.7937
1284.000000 0.7973 0.8056 0.8132 0.8213 0.8294
1289.000000 0.8335 0.8347 0.8327 0.8294 0.8199
1294.000000 0.8133 0.8067 0.7996 0.7898 0.7668
1299.000000 0.7438 0.7208 0.6979 0.6749 0.6629
1304.000000 0.6633 0.6639 0.6618 0.6747 0.6988
1309.000000 0.7229 0.7470 0.7712 0.7953 0.8192
1314.000000 0.8185 0.8179 0.8172 0.8165 0.8217
1319.000000 0.8135 0.8113 0.8089 0.8042 0.7986
1324.000000 0.7914 0.7869 0.7831 0.7796 0.7771
1329.000000 0.7754 0.7745 0.7735 0.7726 0.7716
1334.000000 0.7708 0.7700 0.7691 0.7666 0.7587
1339.000000 0.7451 0.7261 0.7142 0.7023 0.6902
1344.000000 0.6782 0.6607 0.6218 0.5720 0.5222
1349.000000 0.4725 0.4227 0.3821 0.3713 0.3598
1354.000000 0.3472 0.3332 0.3194 0.3092 0.2995
1359.000000 0.2843 0.2789 0.2787 0.2799 0.2933
1364.000000 0.3012 0.3064 0.3103 0.3158 0.3637
1369.000000 0.4116 0.4595 0.5074 0.5553 0.6096
1374.000000 0.6368 0.6688 0.7144 0.7327 0.7481
1379.000000 0.7573 0.7648 0.7724 0.7865 0.8112
1384.000000 0.8244 0.8265 0.8285 0.8306 0.8327
1389.000000 0.8341 0.8348 0.8355 0.8363 0.8370
1394.000000 0.8403 0.8368 0.8365 0.8361 0.8351
1399.000000 0.8342 0.8332 0.8301 0.8265 0.8218
1404.000000 0.8160 0.8093 0.8030 0.7951 0.7816
1409.000000 0.7681 0.7546 0.7411 0.7276 0.7110
1414.000000 0.7067 0.7032 0.7005 0.6978 0.6950
1419.000000 0.6923 0.6872 0.6821 0.6699 0.6621
1424.000000 0.6507 0.6377 0.6263 0.6149 0.6005
1429.000000 0.5507 0.5352 0.5233 0.5125 0.5061
1434.000000 0.4997 0.4933 0.4860 0.4787 0.4714
1439.000000 0.4623 0.4515 0.4218 0.4042 0.3970
1444.000000 0.3932 0.3905 0.3881 0.3894 0.3896
1449.000000 0.3901 0.3909 0.3936 0.3982 0.4065
1454.000000 0.4204 0.4300 0.4366 0.4412 0.4454
1459.000000 0.4479 0.4498 0.4509 0.4514 0.4519
1464.000000 0.4525 0.4531 0.4538 0.4547 0.4579
1469.000000 0.4739 0.4900 0.5060 0.5220 0.5772
1474.000000 0.5541 0.5701 0.5751 0.5759 0.5762
1479.000000 0.5766 0.5675 0.5578 0.5481 0.5384
1484.000000 0.5286 0.5249 0.5247 0.5249 0.5253
1489.000000 0.5261 0.5272 0.5294 0.5332 0.5394
1494.000000 0.5440 0.5460 0.5475 0.5484 0.5446
1499.000000 0.5498 0.5500 0.5384 0.5137 0.4889
1504.000000 0.4642 0.4395 0.4147 0.3742 0.3465
1509.000000 0.3363 0.3300 0.3238 0.3177 0.3134
1514.000000 0.3127 0.3130 0.3115 0.3156 0.3272
1519.000000 0.3560 0.3782 0.4011 0.4240 0.4470
1524.000000 0.4699 0.4929 0.5158 0.5387 0.5617
1529.000000 0.5846 0.6075 0.6305 0.6534 0.7011
1534.000000 0.7247 0.7526 0.7637 0.7747 0.7867
1539.000000 0.7992 0.8123 0.8289 0.8408 0.8494
1544.000000 0.8574 0.8608 0.8642 0.8677 0.8699
1549.000000 0.8714 0.8729 0.8744 0.8752 0.8761
1554.000000 0.8770 0.8778 0.8775 0.8770 0.8765
1559.000000 0.8758 0.8750 0.8741 0.8733 0.8724
1564.000000 0.8713 0.8703 0.8692 0.8669 0.8644
1569.000000 0.8619 0.8587 0.8554 0.8521 0.8487
1574.000000 0.8444 0.8401 0.8359 0.8315 0.8272
1579.000000 0.8229 0.8177 0.8087 0.7997 0.7906
1584.000000 0.7816 0.7725 0.7635 0.7544 0.7454
1589.000000 0.7364 0.7273 0.7210 0.7210 0.7213
1594.000000 0.7227 0.7277 0.7327 0.7377 0.7415
1599.000000 0.7411 0.7401 0.7392 0.7384 0.7376
1604.000000 0.7360 0.7327 0.7270 0.7195 0.7097
1609.000000 0.6965 0.6793 0.6558 0.6324 0.6090
1614.000000 0.5855 0.5621 0.5387 0.5152 0.4918
1619.000000 0.4684 0.4449 0.4215 0.3981 0.3746
1624.000000 0.3512 0.3278 0.3043 0.2899 0.2847
1629.000000 0.2812 0.2799 0.2791 0.2822 0.2801
1634.000000 0.2814 0.2828 0.2849 0.2875 0.3024
1639.000000 0.3208 0.3391 0.3575 0.3758 0.3941
1644.000000 0.4125 0.4308 0.4322 0.4368 0.4344
1649.000000 0.4270 0.4196 0.4123 0.4049 0.3975
1654.000000 0.3901 0.3827 0.3754 0.3680 0.3629
1659.000000 0.3632 0.3636 0.3921 0.4126 0.4330
1664.000000 0.4535 0.4739 0.4944 0.5149 0.5353
1669.000000 0.5558 0.5762 0.5967 0.6171 0.6479
1674.000000 0.6623 0.6737 0.6873 0.7050 0.7143
1679.000000 0.7236 0.7403 0.7480 0.7537 0.7595
1684.000000 0.7648 0.7686 0.7725 0.7764 0.7809
1689.000000 0.7855 0.7900 0.7939 0.7975 0.8012
1694.000000 0.8048 0.8083 0.8116 0.8149 0.8182
1699.000000 0.8216 0.8252 0.8288 0.8319 0.8337
1704.000000 0.8354 0.8371 0.8388 0.8406 0.8423
1709.000000 0.8440 0.8457 0.8475 0.8488 0.8500
1714.000000 0.8512 0.8524 0.8536 0.8548 0.8554
1719.000000 0.8560 0.8565 0.8570 0.8576 0.8577
1724.000000 0.8575 0.8572 0.8570 0.8568 0.8565
1729.000000 0.8565 0.8565 0.8565 0.8566 0.8566
1734.000000 0.8566 0.8571 0.8580 0.8588 0.8596
1739.000000 0.8605 0.8614 0.8623 0.8633 0.8643
1744.000000 0.8652 0.8667 0.8684 0.8700 0.8716
1749.000000 0.8735 0.8753 0.8770 0.8783 0.8794
1754.000000 0.8797 0.8800 0.8803 0.8780 0.8809
1759.000000 0.8812 0.8815 0.8816 0.8817 0.8818
1764.000000 0.8819 0.8820 0.8820 0.8821 0.8822
1769.000000 0.8823 0.8824 0.8825 0.8826 0.8827
1774.000000 0.8825 0.8823 0.8821 0.8819 0.8817
1779.000000 0.8816 0.8814 0.8812 0.8810 0.8808
1784.000000 0.8805 0.8801 0.8798 0.8794 0.8790
1789.000000 0.8786 0.8783 0.8779 0.8775 0.8770
1794.000000 0.8765 0.8760 0.8754 0.8749 0.8744
1799.000000 0.8739 0.8734 0.8728 0.8723 0.8719
1804.000000 0.8716 0.8713 0.8710 0.8707 0.8704
1809.000000 0.8701 0.8699 0.8696 0.8693 0.8690
1814.000000 0.8687 0.8685 0.8684 0.8682 0.8681
1819.000000 0.8680 0.8679 0.8678 0.8677 0.8676
1824.000000 0.8675 0.8673 0.8674 0.8675 0.8676
1829.000000 0.8677 0.8679 0.8680 0.8681 0.8682
1834.000000 0.8684 0.8687 0.8690 0.8693 0.8696
1839.000000 0.8699 0.8702 0.8706 0.8709 0.8670
1844.000000 0.8715 0.8718 0.8721 0.8724 0.8727
1849.000000 0.8730 0.8733 0.8736 0.8739 0.8742
1854.000000 0.8745 0.8747 0.8750 0.8753 0.8756
1859.000000 0.8758 0.8761 0.8764 0.8766 0.8769
1864.000000 0.8772 0.8775 0.8777 0.8780 0.8783
1869.000000 0.8786 0.8788 0.8791 0.8794 0.8797
1874.000000 0.8799 0.8802 0.8805 0.8808 0.8810
1879.000000 0.8813 0.8816 0.8821 0.8826 0.8830
1884.000000 0.8835 0.8839 0.8844 0.8849 0.8853
1889.000000 0.8858 0.8862 0.8867 0.8872 0.8876
1894.000000 0.8881 0.8885 0.8890 0.8895 0.8899
1899.000000 0.8904 0.8908 0.8913 0.8918 0.8922
1904.000000 0.8927 0.8932 0.8937 0.8942 0.8947
1909.000000 0.8953 0.8958 0.8964 0.8969 0.8975
1914.000000 0.8980 0.8986 0.8991 0.8997 0.9002
1919.000000 0.9007 0.9013 0.9018 0.9024 0.9029
1924.000000 0.9035 0.9040 0.9046 0.9051 0.9056
1929.000000 0.9061 0.9065 0.9070 0.9074 0.9079
1934.000000 0.9083 0.9087 0.9092 0.9096 0.9101
1939.000000 0.9105 0.9110 0.9114 0.9118 0.9123
1944.000000 0.9127 0.9132 0.9136 0.9141 0.9145
1949.000000 0.9150 0.9154 0.9158 0.9163 0.9167
1954.000000 0.9172 0.9176 0.9181 0.9185 0.9189
1959.000000 0.9193 0.9196 0.9200 0.9203 0.9207
1964.000000 0.9210 0.9214 0.9218 0.9221 0.9225
1969.000000 0.9228 0.9232 0.9236 0.9239 0.9243
1974.000000 0.9246 0.9250 0.9253 0.9256 0.9258
1979.000000 0.9260 0.9262 0.9264 0.9266 0.9269
1984.000000 0.9271 0.9273 0.9275 0.9277 0.9280
1989.000000 0.9282 0.9284 0.9286 0.9288 0.9291
1994.000000 0.9293 0.9295 0.9297 0.9298 0.9300
1999.000000 0.9301 0.9302 0.9304 0.9305 0.9306
2004.000000 0.9307 0.9309 0.9310 0.9311 0.9312
2009.000000 0.9314 0.9315 0.9316 0.9317 0.9319
2014.000000 0.9320 0.9321 0.9323 0.9324 0.9325
2019.000000 0.9326 0.9328 0.9329 0.9330 0.9331
2024.000000 0.9333 0.9334 0.9335 0.9336 0.9337
2029.000000 0.9337 0.9337 0.9337 0.9338 0.9338
2034.000000 0.9338 0.9338 0.9338 0.9338 0.9339
2039.000000 0.9339 0.9339 0.9339 0.9339 0.9339
2044.000000 0.9339 0.9340 0.9340 0.9312 0.9340
2049.000000 0.9340 0.9340 0.9340 0.9341 0.9341
2054.000000 0.9341 0.9341 0.9341 0.9340 0.9340
2059.000000 0.9340 0.9339 0.9339 0.9339 0.9338
2064.000000 0.9338 0.9338 0.9338 0.9337 0.9337
2069.000000 0.9337 0.9336 0.9336 0.9336 0.9335
2074.000000 0.9335 0.9333 0.9331 0.9330 0.9328
2079.000000 0.9326 0.9324 0.9322 0.9320 0.9318
2084.000000 0.9316 0.9314 0.9312 0.9310 0.9308
2089.000000 0.9306 0.9305 0.9303 0.9301 0.9299
2094.000000 0.9297 0.9295 0.9293 0.9291 0.9289
2099.000000 0.9286 0.9283 0.9279 0.9275 0.9272
2104.000000 0.9268 0.9264 0.9261 0.9257 0.9253
2109.000000 0.9248 0.9242 0.9236 0.9231 0.9225
2114.000000 0.9219 0.9213 0.9213 0.9214 0.9215
2119.000000 0.9216 0.9217 0.9218 0.9218 0.9219
2124.000000 0.9219 0.9219 0.9219 0.9220 0.9220
2129.000000 0.9220 0.9221 0.9219 0.9216 0.9214
2134.000000 0.9212 0.9210 0.9208 0.9205 0.9203
2139.000000 0.9201 0.9199 0.9197 0.9194 0.9192
2144.000000 0.9190 0.9188 0.9186 0.9183 0.9180
2149.000000 0.9177 0.9174 0.9171 0.9167 0.9164
2154.000000 0.9161 0.9158 0.9154 0.9151 0.9148
2159.000000 0.9145 0.9142 0.9138 0.9135 0.9132
2164.000000 0.9129 0.9126 0.9122 0.9119 0.9116
2169.000000 0.9113 0.9110 0.9106 0.9103 0.9100
2174.000000 0.9097 0.9094 0.9090 0.9087 0.9084
2179.000000 0.9081 0.9078 0.9074 0.9071 0.9068
2184.000000 0.9065 0.9062 0.9058 0.9055 0.9052
2189.000000 0.9050 0.9047 0.9044 0.9042 0.9039
2194.000000 0.9037 0.9034 0.9031 0.9029 0.9026
2199.000000 0.9024 0.9021 0.9018 0.9016 0.9013
2204.000000 0.9010 0.9008 0.9005 0.9003 0.9000
2209.000000 0.8997 0.8995 0.8992 0.8990 0.8987
2214.000000 0.8984 0.8982 0.8979 0.8976 0.8974
2219.000000 0.8971 0.8969 0.8966 0.8963 0.8960
2224.000000 0.8956 0.8952 0.8949 0.8945 0.8941
2229.000000 0.8938 0.8934 0.8930 0.8927 0.8923
2234.000000 0.8919 0.8916 0.8912 0.8908 0.8905
2239.000000 0.8901 0.8897 0.8894 0.8890 0.8886
2244.000000 0.8883 0.8879 0.8875 0.8872 0.8868
2249.000000 0.8864 0.8861 0.8857 0.8853 0.8850
2254.000000 0.8846 0.8842 0.8839 0.8835 0.8831
2259.000000 0.8827 0.8823 0.8819 0.8815 0.8811
2264.000000 0.8807 0.8803 0.8799 0.8794 0.8790
2269.000000 0.8786 0.8782 0.8778 0.8774 0.8770
2274.000000 0.8765 0.8761 0.8757 0.8753 0.8749
2279.000000 0.8745 0.8741 0.8736 0.8732 0.8728
2284.000000 0.8724 0.8720 0.8716 0.8712 0.8708
2289.000000 0.8702 0.8696 0.8690 0.8684 0.8678
2294.000000 0.8671 0.8665 0.8659 0.8653 0.8647
2299.000000 0.8641 0.8635 0.8628 0.8622 0.8616
2304.000000 0.8610 0.8604 0.8598 0.8592 0.8586
2309.000000 0.8579 0.8571 0.8563 0.8555 0.8547
2314.000000 0.8539 0.8532 0.8524 0.8516 0.8508
2319.000000 0.8499 0.8491 0.8482 0.8474 0.8465
2324.000000 0.8456 0.8448 0.8439 0.8431 0.8422
2329.000000 0.8413 0.8405 0.8396 0.8388 0.8379
2334.000000 0.8370 0.8362 0.8353 0.8345 0.8337
2339.000000 0.8329 0.8320 0.8312 0.8304 0.8296
2344.000000 0.8288 0.8280 0.8271 0.8263 0.8253
2349.000000 0.8242 0.8230 0.8218 0.8206 0.8195
2354.000000 0.8183 0.8171 0.8160 0.8149 0.8139
2359.000000 0.8129 0.8118 0.8108 0.8097 0.8087
2364.000000 0.8080 0.8075 0.8069 0.8064 0.8059
2369.000000 0.8053 0.8048 0.8043 0.8038 0.8033
2374.000000 0.8029 0.8024 0.8020 0.8015 0.8011
2379.000000 0.8006 0.8002 0.7999 0.7996 0.7993
2384.000000 0.7991 0.7988 0.7985 0.7983 0.7978
2389.000000 0.7974 0.7970 0.7965 0.7961 0.7956
2394.000000 0.7952 0.7947 0.7943 0.7934 0.7926
2399.000000 0.7918 0.7909 0.7901 0.7893 0.7884
2404.000000 0.7876 0.7867 0.7859 0.7851 0.7842
2409.000000 0.7834 0.7826 0.7817 0.7809 0.7800
2414.000000 0.7791 0.7780 0.7770 0.7760 0.7750
2419.000000 0.7739 0.7729 0.7719 0.7709 0.7698
2424.000000 0.7688 0.7678 0.7668 0.7657 0.7648
2429.000000 0.7640 0.7631 0.7622 0.7613 0.7604
2434.000000 0.7595 0.7586 0.7577 0.7568 0.7559
2439.000000 0.7550 0.7541 0.7533 0.7524 0.7515
2444.000000 0.7506 0.7497 0.7488 0.7479 0.7470
2449.000000 0.7461 0.7452 0.7443 0.7433 0.7424
2454.000000 0.7415 0.7406 0.7397 0.7387 0.7378
2459.000000 0.7369 0.7360 0.7351 0.7341 0.7332
2464.000000 0.7323 0.7315 0.7307 0.7299 0.7291
2469.000000 0.7283 0.7275 0.7267 0.7259 0.7254
2474.000000 0.7248 0.7243 0.7238 0.7233 0.7228
2479.000000 0.7222 0.7216 0.7210 0.7204 0.7190
2484.000000 0.7170 0.7151 0.7131 0.7109 0.7084
2489.000000 0.7058 0.7034 0.7012 0.6990 0.6971
2494.000000 0.6954 0.6939 0.6924 0.6910 0.6898
2499.000000 0.6886 0.6875 0.6866 0.6857 0.6848
2504.000000 0.6839 0.6830 0.6821 0.6812 0.6804
2509.000000 0.6797 0.6789 0.6782 0.6775 0.6767
2514.000000 0.6760 0.6752 0.6745 0.6738 0.6730
2519.000000 0.6723 0.6715 0.6708 0.6701 0.6693
2524.000000 0.6686 0.6678 0.6671 0.6664 0.6657
2529.000000 0.6651 0.6645 0.6639 0.6634 0.6628
2534.000000 0.6622 0.6616 0.6609 0.6602 0.6595
2539.000000 0.6588 0.6579 0.6570 0.6561 0.6552
2544.000000 0.6543 0.6534 0.6526 0.6517 0.6508
2549.000000 0.6499 0.6490 0.6481 0.6472 0.6463
2554.000000 0.6454 0.6445 0.6436 0.6427 0.6418
2559.000000 0.6409 0.6400 0.6391 0.6387 0.6382
2564.000000 0.6378 0.6374 0.6369 0.6365 0.6361
2569.000000 0.6356 0.6352 0.6348 0.6343 0.6339
2574.000000 0.6334 0.6330 0.6326 0.6321 0.6317
2579.000000 0.6313 0.6308 0.6304 0.6300 0.6298
2584.000000 0.6296 0.6294 0.6279 0.6290 0.6288
2589.000000 0.6285 0.6283 0.6281 0.6279 0.6277
2594.000000 0.6277 0.6277 0.6276 0.6276 0.6276
2599.000000 0.6275 0.6275 0.6275 0.6274 0.6274
2604.000000 0.6274 0.6273 0.6273 0.6273 0.6272
2609.000000 0.6272 0.6272 0.6271 0.6271 0.6271
2614.000000 0.6271 0.6271 0.6272 0.6272 0.6272
2619.000000 0.6272 0.6272 0.6272 0.6272 0.6272
2624.000000 0.6272 0.6272 0.6272 0.6272 0.6272
2629.000000 0.6273 0.6273 0.6274 0.6275 0.6275
2634.000000 0.6276 0.6276 0.6277 0.6278 0.6278
2639.000000 0.6279 0.6279 0.6280 0.6281 0.6281
2644.000000 0.6282 0.6282 0.6283 0.6284 0.6284
2649.000000 0.6285 0.6286 0.6286 0.6287 0.6288
2654.000000 0.6289 0.6290 0.6291 0.6292 0.6293
2659.000000 0.6294 0.6295 0.6296 0.6297 0.6298
2664.000000 0.6298 0.6298 0.6298 0.6299 0.6299
2669.000000 0.6299 0.6300 0.6300 0.6300 0.6300
2674.000000 0.6301 0.6301 0.6301 0.6302 0.6302
2679.000000 0.6302 0.6302 0.6301 0.6300 0.6298
2684.000000 0.6297 0.6295 0.6294 0.6293 0.6291
2689.000000 0.6290 0.6288 0.6287 0.6285 0.6284
2694.000000 0.6282 0.6281 0.6280 0.6278 0.6276
2699.000000 0.6274 0.6271 0.6269 0.6266 0.6263
2704.000000 0.6261 0.6258 0.6255 0.6253 0.6250
2709.000000 0.6248 0.6245 0.6242 0.6240 0.6237
2714.000000 0.6234 0.6232 0.6229 0.6227 0.6224
2719.000000 0.6221 0.6219 0.6216 0.6213 0.6210
2724.000000 0.6207 0.6203 0.6200 0.6197 0.6194
2729.000000 0.6191 0.6188 0.6185 0.6182 0.6179
2734.000000 0.6176 0.6173 0.6170 0.6166 0.6163
2739.000000 0.6160 0.6157 0.6153 0.6149 0.6145
2744.000000 0.6141 0.6137 0.6133 0.6129 0.6125
2749.000000 0.6121 0.6117 0.6113 0.6109 0.6104
2754.000000 0.6100 0.6096 0.6092 0.6088 0.6084
2759.000000 0.6080 0.6076 0.6072 0.6068 0.6064
2764.000000 0.6060 0.6055 0.6051 0.6047 0.6043
2769.000000 0.6038 0.6034 0.6030 0.6026 0.6021
2774.000000 0.6017 0.6014 0.6012 0.6009 0.6007
2779.000000 0.6005 0.6003 0.6000 0.5998 0.5996
2784.000000 0.5994 0.5991 0.5989 0.5987 0.5984
2789.000000 0.5985 0.5987 0.5988 0.5989 0.5990
2794.000000 0.5991 0.5992 0.5993 0.5994 0.5996
2799.000000 0.5999 0.6002 0.6004 0.6007 0.6012
2804.000000 0.6018 0.6023 0.6029 0.6034 0.6040
2809.000000 0.6046 0.6051 0.6057 0.6062 0.6068
2814.000000 0.6073 0.6078 0.6083 0.6088 0.6093
2819.000000 0.6098 0.6103 0.6108 0.6113 0.6118
2824.000000 0.6127 0.6136 0.6145 0.6154 0.6161
2829.000000 0.6161 0.6161 0.6177 0.6158 0.6154
2834.000000 0.6150 0.6145 0.6141 0.6137 0.6120
2839.000000 0.6103 0.6087 0.6070 0.6046 0.6021
2844.000000 0.5996 0.5971 0.5949 0.5927 0.5905
2849.000000 0.5883 0.5866 0.5861 0.5855 0.5849
2854.000000 0.5847 0.5848 0.5849 0.5851 0.5845
2859.000000 0.5839 0.5826 0.5813 0.5800 0.5786
2864.000000 0.5764 0.5742 0.5720 0.5701 0.5686
2869.000000 0.5691 0.5697 0.5703 0.5648 0.5735
2874.000000 0.5791 0.5833 0.5874 0.5911 0.5948
2879.000000 0.5973 0.5982 0.5992 0.6002 0.6011
2884.000000 0.6011 0.6011 0.6010 0.6036 0.6009
2889.000000 0.6001 0.5992 0.5983 0.5974 0.5966
2894.000000 0.5953 0.5939 0.5925 0.5912 0.5896
2899.000000 0.5879 0.5861 0.5844 0.5826 0.5809
2904.000000 0.5787 0.5761 0.5734 0.5708 0.5671
2909.000000 0.5630 0.5589 0.5545 0.5501 0.5456
2914.000000 0.5411 0.5363 0.5314 0.5265 0.5216
2919.000000 0.5161 0.5102 0.5072 0.5046 0.5020
2924.000000 0.5009 0.5000 0.4990 0.4986 0.4982
2929.000000 0.4982 0.4984 0.4985 0.4986 0.4987
2934.000000 0.4988 0.4990 0.4968 0.4992 0.4993
2939.000000 0.4994 0.4996 0.4997 0.4998 0.5000
2944.000000 0.5002 0.5003 0.5005 0.5006 0.5008
2949.000000 0.5009 0.5011 0.5013 0.5014 0.5016
2954.000000 0.5017 0.5019 0.5022 0.5028 0.5034
2959.000000 0.5040 0.5046 0.5052 0.5062 0.5081
2964.000000 0.5099 0.5125 0.5154 0.5182 0.5211
2969.000000 0.5244 0.5299 0.5354 0.5409 0.5464
2974.000000 0.5522 0.5582 0.5655 0.5766 0.5828
2979.000000 0.5877 0.5926 0.5977 0.6047 0.6116
2984.000000 0.6179 0.6238 0.6289 0.6316 0.6344
2989.000000 0.6363 0.6371 0.6379 0.6387 0.6395
2994.000000 0.6403 0.6412 0.6423 0.6433 0.6444
2999.000000 0.6455 0.6478 0.6511 0.6544 0.6582
3004.000000 0.6622 0.6662 0.6703 0.6743 0.6789
3009.000000 0.6834 0.6880 0.6918 0.6952 0.6971
3014.000000 0.6976 0.6981 0.6986 0.6987 0.6989
3019.000000 0.6991 0.6993 0.6995 0.6996 0.6998
3024.000000 0.7000 0.7002 0.7003 0.7006 0.7008
3029.000000 0.7010 0.7012 0.7014 0.7016 0.7018
3034.000000 0.7021 0.7023 0.7025 0.7027 0.7030
3039.000000 0.7032 0.7035 0.7037 0.7040 0.7043
3044.000000 0.7045 0.7048 0.7051 0.7053 0.7056
3049.000000 0.7059 0.7061 0.7064 0.7067 0.7070
3054.000000 0.7072 0.7075 0.7078 0.7083 0.7087
3059.000000 0.7092 0.7097 0.7102 0.7106 0.7115
3064.000000 0.7124 0.7132 0.7141 0.7150 0.7158
3069.000000 0.7167 0.7176 0.7184 0.7193 0.7201
3074.000000 0.7209 0.7218 0.7226 0.7235 0.7243
3079.000000 0.7251 0.7260 0.7268 0.7275 0.7283
3084.000000 0.7290 0.7297 0.7304 0.7311 0.7318
3089.000000 0.7325 0.7332 0.7339 0.7346 0.7353
3094.000000 0.7361 0.7366 0.7370 0.7374 0.7377
3099.000000 0.7381 0.7385 0.7388 0.7392 0.7395
3104.000000 0.7398 0.7402 0.7405 0.7408 0.7412
3109.000000 0.7415 0.7418 0.7422 0.7425 0.7428
3114.000000 0.7430 0.7432 0.7434 0.7437 0.7439
3119.000000 0.7441 0.7443 0.7445 0.7447 0.7449
3124.000000 0.7448 0.7446 0.7445 0.7443 0.7441
3129.000000 0.7440 0.7438 0.7437 0.7439 0.7441
3134.000000 0.7443 0.7446 0.7448 0.7451 0.7458
3139.000000 0.7466 0.7473 0.7481 0.7488 0.7496
3144.000000 0.7504 0.7512 0.7520 0.7528 0.7536
3149.000000 0.7548 0.7561 0.7574 0.7587 0.7600
3154.000000 0.7619 0.7640 0.7662 0.7683 0.7705
3159.000000 0.7726 0.7748 0.7770 0.7792 0.7815
3164.000000 0.7837 0.7859 0.7877 0.7889 0.7901
3169.000000 0.7913 0.7925 0.7937 0.7946 0.7953
3174.000000 0.7961 0.7968 0.7975 0.7982 0.7989
3179.000000 0.7996 0.8001 0.8005 0.8009 0.8013
3184.000000 0.8017 0.8021 0.8025 0.8029 0.8033
3189.000000 0.8035 0.8038 0.8040 0.8043 0.8045
3194.000000 0.8047 0.8050 0.8052 0.8055 0.8057
3199.000000 0.8060 0.8062 0.8065 0.8067 0.8070
3204.000000 0.8072 0.8075 0.8076 0.8078 0.8079
3209.000000 0.8080 0.8081 0.8083 0.8084 0.8085
3214.000000 0.8087 0.8088 0.8089 0.8091 0.8092
3219.000000 0.8093 0.8094 0.8095 0.8095 0.8095
3224.000000 0.8095 0.8095 0.8094 0.8094 0.8094
3229.000000 0.8094 0.8094 0.8094 0.8094 0.8094
3234.000000 0.8094 0.8093 0.8093 0.8093 0.8093
3239.000000 0.8093 0.8093 0.8092 0.8091 0.8091
3244.000000 0.8090 0.8089 0.8088 0.8088 0.8087
3249.000000 0.8086 0.8086 0.8085 0.8084 0.8083
3254.000000 0.8083 0.8082 0.8081 0.8081 0.8080
3259.000000 0.8079 0.8079 0.8078 0.8077 0.8076
3264.000000 0.8076 0.8075 0.8075 0.8074 0.8074
3269.000000 0.8073 0.8072 0.8072 0.8071 0.8071
3274.000000 0.8070 0.8069 0.8069 0.8068 0.8068
3279.000000 0.8067 0.8067 0.8066 0.8065 0.8065
3284.000000 0.8064 0.8064 0.8063 0.8063 0.8062
3289.000000 0.8061 0.8061 0.8060 0.8060 0.8059
3294.000000 0.8059 0.8058 0.8058 0.8057 0.8056
3299.000000 0.8055 0.8054 0.8052 0.8050 0.8049
3304.000000 0.8047 0.8045 0.8044 0.8042 0.8040
3309.000000 0.8039 0.8037 0.8035 0.8034 0.8032
3314.000000 0.8030 0.8027 0.8022 0.8017 0.8012
3319.000000 0.8007 0.8003 0.7998 0.7993 0.7988
3324.000000 0.7984 0.7979 0.7974 0.7969 0.7965
3329.000000 0.7960 0.7955 0.7947 0.7938 0.7929
3334.000000 0.7919 0.7910 0.7901 0.7892 0.7883
3339.000000 0.7874 0.7865 0.7856 0.7846 0.7838
3344.000000 0.7829 0.7821 0.7812 0.7804 0.7795
3349.000000 0.7787 0.7778 0.7770 0.7761 0.7753
3354.000000 0.7745 0.7740 0.7735 0.7730 0.7725
3359.000000 0.7720 0.7715 0.7710 0.7705 0.7700
3364.000000 0.7695 0.7690 0.7685 0.7680 0.7675
3369.000000 0.7670 0.7666 0.7661 0.7656 0.7646
3374.000000 0.7636 0.7627 0.7617 0.7607 0.7597
3379.000000 0.7587 0.7579 0.7575 0.7572 0.7568
3384.000000 0.7564 0.7560 0.7556 0.7553 0.7549
3389.000000 0.7545 0.7541 0.7536 0.7526 0.7515
3394.000000 0.7505 0.7495 0.7484 0.7474 0.7464
3399.000000 0.7453 0.7441 0.7430 0.7418 0.7407
3404.000000 0.7395 0.7386 0.7378 0.7370 0.7362
3409.000000 0.7353 0.7345 0.7337 0.7328 0.7320
3414.000000 0.7313 0.7310 0.7307 0.7304 0.7300
3419.000000 0.7297 0.7294 0.7290 0.7287 0.7284
3424.000000 0.7283 0.7283 0.7284 0.7284 0.7285
3429.000000 0.7285 0.7286 0.7286 0.7287 0.7287
3434.000000 0.7288 0.7288 0.7289 0.7289 0.7289
3439.000000 0.7290 0.7290 0.7291 0.7291 0.7292
3444.000000 0.7292 0.7293 0.7295 0.7299 0.7302
3449.000000 0.7305 0.7308 0.7312 0.7315 0.7318
3454.000000 0.7321 0.7325 0.7328 0.7331 0.7334
3459.000000 0.7337 0.7341 0.7344 0.7348 0.7352
3464.000000 0.7355 0.7359 0.7363 0.7366 0.7370
3469.000000 0.7374 0.7378 0.7381 0.7385 0.7389
3474.000000 0.7392 0.7396 0.7400 0.7404 0.7407
3479.000000 0.7411 0.7415 0.7420 0.7425 0.7430
3484.000000 0.7435 0.7439 0.7444 0.7449 0.7454
3489.000000 0.7459 0.7464 0.7469 0.7474 0.7478
3494.000000 0.7483 0.7488 0.7493 0.7498 0.7503
3499.000000 0.7508 0.7512 0.7517 0.7522 0.7527
3504.000000 0.7532 0.7537 0.7542 0.7547 0.7552
3509.000000 0.7557 0.7562 0.7567 0.7572 0.7577
3514.000000 0.7582 0.7587 0.7592 0.7597 0.7601
3519.000000 0.7606 0.7611 0.7616 0.7621 0.7626
3524.000000 0.7631 0.7636 0.7641 0.7646 0.7651
3529.000000 0.7656 0.7661 0.7666 0.7671 0.7678
3534.000000 0.7685 0.7692 0.7699 0.7706 0.7713
3539.000000 0.7720 0.7727 0.7733 0.7740 0.7747
3544.000000 0.7754 0.7761 0.7768 0.7775 0.7782
3549.000000 0.7791 0.7799 0.7808 0.7817 0.7826
3554.000000 0.7835 0.7843 0.7852 0.7861 0.7870
3559.000000 0.7878 0.7887 0.7896 0.7908 0.7920
3564.000000 0.7932 0.7944 0.7956 0.7968 0.7981
3569.000000 0.7993 0.8005 0.8017 0.8029 0.8041
3574.000000 0.8053 0.8065 0.8076 0.8087 0.8098
3579.000000 0.8110 0.8121 0.8132 0.8144 0.8155
3584.000000 0.8166 0.8177 0.8188 0.8199 0.8209
3589.000000 0.8220 0.8231 0.8236 0.8241 0.8246
3594.000000 0.8251 0.8256 0.8260 0.8265 0.8270
3599.000000 0.8276 0.8282 0.8288 0.8294 0.8301
3604.000000 0.8307 0.8313 0.8319 0.8325 0.8331
3609.000000 0.8337 0.8343 0.8349 0.8355 0.8361
3614.000000 0.8367 0.8373 0.8378 0.8384 0.8389
3619.000000 0.8395 0.8400 0.8406 0.8411 0.8417
3624.000000 0.8422 0.8428 0.8433 0.8439 0.8444
3629.000000 0.8450 0.8455 0.8461 0.8464 0.8466
3634.000000 0.8469 0.8471 0.8473 0.8475 0.8478
3639.000000 0.8480 0.8482 0.8485 0.8487 0.8489
3644.000000 0.8492 0.8494 0.8496 0.8499 0.8501
3649.000000 0.8503 0.8505 0.8508 0.8510 0.8512
3654.000000 0.8515 0.8517 0.8519 0.8520 0.8520
3659.000000 0.8521 0.8522 0.8522 0.8523 0.8523
3664.000000 0.8524 0.8525 0.8525 0.8526 0.8526
3669.000000 0.8527 0.8527 0.8528 0.8529 0.8529
3674.000000 0.8530 0.8530 0.8531 0.8532 0.8532
3679.000000 0.8533 0.8533 0.8534 0.8535 0.8535
3684.000000 0.8536 0.8536 0.8537 0.8537 0.8538
3689.000000 0.8539 0.8539 0.8540 0.8540 0.8541
3694.000000 0.8542 0.8543 0.8544 0.8545 0.8546
3699.000000 0.8547 0.8547 0.8548 0.8549 0.8550
3704.000000 0.8551 0.8552 0.8553 0.8554 0.8555
3709.000000 0.8556 0.8557 0.8558 0.8559 0.8560
3714.000000 0.8561 0.8562 0.8563 0.8564 0.8565
3719.000000 0.8566 0.8567 0.8568 0.8569 0.8569
3724.000000 0.8568 0.8568 0.8568 0.8567 0.8567
3729.000000 0.8567 0.8566 0.8566 0.8566 0.8565
3734.000000 0.8565 0.8565 0.8565 0.8564 0.8564
3739.000000 0.8564 0.8563 0.8563 0.8563 0.8562
3744.000000 0.8562 0.8562 0.8561 0.8561 0.8561
3749.000000 0.8561 0.8560 0.8560 0.8560 0.8560
3754.000000 0.8560 0.8559 0.8559 0.8559 0.8559
3759.000000 0.8559 0.8558 0.8558 0.8558 0.8558
3764.000000 0.8558 0.8557 0.8557 0.8557 0.8557
3769.000000 0.8557 0.8557 0.8556 0.8556 0.8556
3774.000000 0.8556 0.8556 0.8555 0.8555 0.8555
3779.000000 0.8555 0.8554 0.8553 0.8553 0.8552
3784.000000 0.8551 0.8550 0.8549 0.8548 0.8547
3789.000000 0.8546 0.8545 0.8544 0.8543 0.8542
3794.000000 0.8541 0.8541 0.8540 0.8539 0.8538
3799.000000 0.8537 0.8536 0.8535 0.8534 0.8533
3804.000000 0.8532 0.8531 0.8530 0.8529 0.8528
3809.000000 0.8526 0.8525 0.8524 0.8523 0.8522
3814.000000 0.8520 0.8519 0.8518 0.8517 0.8515
3819.000000 0.8514 0.8513 0.8512 0.8511 0.8509
3824.000000 0.8508 0.8507 0.8506 0.8504 0.8503
3829.000000 0.8502 0.8501 0.8499 0.8497 0.8496
3834.000000 0.8494 0.8492 0.8490 0.8489 0.8487
3839.000000 0.8485 0.8483 0.8482 0.8480 0.8478
3844.000000 0.8476 0.8475 0.8473 0.8471 0.8469
3849.000000 0.8468 0.8466 0.8464 0.8462 0.8461
3854.000000 0.8459 0.8457 0.8455 0.8454 0.8452
3859.000000 0.8450 0.8448 0.8447 0.8445 0.8443
3864.000000 0.8441 0.8439 0.8437 0.8435 0.8433
3869.000000 0.8432 0.8430 0.8428 0.8426 0.8424
3874.000000 0.8422 0.8420 0.8418 0.8416 0.8414
3879.000000 0.8412 0.8410 0.8408 0.8407 0.8405
3884.000000 0.8403 0.8401 0.8399 0.8397 0.8395
3889.000000 0.8393 0.8391 0.8390 0.8389 0.8388
3894.000000 0.8387 0.8387 0.8386 0.8385 0.8384
3899.000000 0.8383 0.8382 0.8381 0.8381 0.8380
3904.000000 0.8379 0.8378 0.8377 0.8376 0.8375
3909.000000 0.8375 0.8374 0.8373 0.8372 0.8371
3914.000000 0.8370 0.8369 0.8368 0.8368 0.8367
3919.000000 0.8366 0.8365 0.8442 0.8364 0.8364
3924.000000 0.8364 0.8364 0.8363 0.8363 0.8363
3929.000000 0.8363 0.8363 0.8362 0.8362 0.8362
3934.000000 0.8362 0.8361 0.8361 0.8361 0.8361
3939.000000 0.8360 0.8360 0.8360 0.8360 0.8360
3944.000000 0.8361 0.8362 0.8364 0.8365 0.8366
3949.000000 0.8367 0.8368 0.8369 0.8370 0.8371
3954.000000 0.8372 0.8373 0.8374 0.8376 0.8377
3959.000000 0.8378 0.8379 0.8380 0.8381 0.8382
3964.000000 0.8382 0.8383 0.8384 0.8385 0.8386
3969.000000 0.8386 0.8387 0.8388 0.8389 0.8390
3974.000000 0.8390 0.8391 0.8392 0.8394 0.8396
3979.000000 0.8398 0.8401 0.8403 0.8405 0.8408
3984.000000 0.8410 0.8412 0.8414 0.8417 0.8419
3989.000000 0.8421 0.8424 0.8426 0.8428 0.8431
3994.000000 0.8433 0.8435 0.8437 0.8440 0.8442
3999.000000 0.8444 0.8445
##END=
