##TITLE=MAGNESIO ACETOACETIC ESTER
##JCAMP-DX=4.24
##DATA TYPE=INFRARED SPECTRUM
##CLASS=COBLENTZ
##ORIGIN=ABBOTT LABORATORIES
##OWNER=COBLENTZ SOCIETY
Collection (C) 2018 copyright by the U.S. Secretary of Commerce
on behalf of the United States of America. All rights reserved.
##DATE=1960
##MOLFORM=C12 H18 Mg O6
##SOURCE REFERENCE=COBLENTZ NO. 898
##$NIST ID=B6000898
##$NIST SOURCE=COBLENTZ
##$NIST IMAGE=cob898
##SPECTROMETER/DATA SYSTEM=Not specified, most likely a grating spectrometer.
##STATE=SOLID (KBr PELLET)
##SAMPLING PROCEDURE=TRANSMISSION
##RESOLUTION=4
##DATA PROCESSING=DIGITIZED BY NIST FROM HARD COPY
##XUNITS=MICROMETERS
##YUNITS=TRANSMITTANCE
##XFACTOR=1.000000
##YFACTOR=1
##DELTAX=000.007190
##FIRSTX=2.007
##LASTX=15.452
##FIRSTY=0.682
##MAXX=15.452
##MINX=2.007
##MAXY=0.751
##MINY=0.147
##NPOINTS=1871
##XYDATA=(X++(Y..Y))
2.007000 0.6820 0.6820 0.6820 0.6820 0.6820
2.042967 0.6820 0.6820 0.6820 0.6820 0.6820
2.079000 0.6820 0.6820 0.6820 0.6830 0.6830
2.114967 0.6830 0.6850 0.6830 0.6830 0.6850
2.151000 0.6850 0.6850 0.6850 0.6850 0.6850
2.186967 0.6850 0.6850 0.6850 0.6870 0.6870
2.223000 0.6850 0.6850 0.6870 0.6870 0.6870
2.258967 0.6870 0.6850 0.6830 0.6820 0.6820
2.295000 0.6820 0.6820 0.6820 0.6820 0.6830
2.330967 0.6850 0.6870 0.6870 0.6870 0.6890
2.367000 0.6900 0.6920 0.6920 0.6940 0.6940
2.402967 0.6940 0.6960 0.6960 0.6960 0.6960
2.439000 0.6960 0.6960 0.6960 0.6960 0.6980
2.474967 0.6980 0.6980 0.6980 0.6980 0.6990
2.510000 0.6990 0.7010 0.7010 0.7010 0.7010
2.545967 0.7010 0.7030 0.7050 0.7050 0.7050
2.582000 0.7060 0.7060 0.7080 0.7080 0.7100
2.617967 0.7120 0.7120 0.7120 0.7120 0.7120
2.654000 0.7120 0.7120 0.7120 0.7120 0.7120
2.689967 0.7120 0.7120 0.7120 0.7120 0.7100
2.726000 0.7100 0.7100 0.7080 0.7030 0.7010
2.761967 0.6990 0.6990 0.6980 0.6980 0.6980
2.798000 0.6960 0.6940 0.6920 0.6920 0.6900
2.833967 0.6870 0.6850 0.6830 0.6830 0.6830
2.870000 0.6800 0.6760 0.6760 0.6740 0.6730
2.905967 0.6730 0.6730 0.6730 0.6740 0.6760
2.942000 0.6800 0.6820 0.6820 0.6820 0.6830
2.977967 0.6830 0.6830 0.6830 0.6830 0.6830
3.014000 0.6820 0.6820 0.6820 0.6820 0.6820
3.049967 0.6820 0.6820 0.6830 0.6830 0.6830
3.086000 0.6870 0.6870 0.6890 0.6890 0.6890
3.121967 0.6900 0.6920 0.6920 0.6920 0.6920
3.158000 0.6920 0.6940 0.6940 0.6960 0.6960
3.193967 0.6980 0.6960 0.6960 0.6960 0.6960
3.229000 0.6960 0.6960 0.6960 0.6960 0.6960
3.264967 0.6960 0.6940 0.6900 0.6800 0.6710
3.301000 0.6300 0.6120 0.5730 0.5430 0.5410
3.336967 0.5450 0.5680 0.5840 0.5980 0.6050
3.373000 0.6110 0.6210 0.6210 0.6230 0.6230
3.408967 0.6250 0.6250 0.6280 0.6300 0.6340
3.445000 0.6460 0.6580 0.6690 0.6730 0.6800
3.480967 0.6900 0.6960 0.6980 0.6990 0.7030
3.517000 0.7030 0.7050 0.7050 0.7060 0.7060
3.552967 0.7080 0.7080 0.7100 0.7100 0.7120
3.589000 0.7150 0.7170 0.7190 0.7210 0.7210
3.624967 0.7220 0.7220 0.7240 0.7240 0.7240
3.661000 0.7240 0.7240 0.7240 0.7240 0.7240
3.696967 0.7260 0.7260 0.7300 0.7310 0.7330
3.733000 0.7330 0.7330 0.7350 0.7350 0.7350
3.768967 0.7350 0.7370 0.7370 0.7380 0.7380
3.805000 0.7380 0.7380 0.7400 0.7400 0.7400
3.840967 0.7400 0.7420 0.7440 0.7460 0.7470
3.876000 0.7470 0.7470 0.7470 0.7470 0.7470
3.911967 0.7440 0.7420 0.7420 0.7400 0.7380
3.948000 0.7370 0.7310 0.7310 0.7280 0.7240
3.983967 0.7210 0.7210 0.7190 0.7170 0.7190
4.020000 0.7190 0.7210 0.7210 0.7240 0.7260
4.055967 0.7280 0.7280 0.7300 0.7300 0.7300
4.092000 0.7300 0.7300 0.7280 0.7260 0.7260
4.127967 0.7260 0.7260 0.7260 0.7260 0.7260
4.164000 0.7280 0.7280 0.7280 0.7310 0.7350
4.199967 0.7380 0.7420 0.7460 0.7470 0.7490
4.236000 0.7490 0.7510 0.7510 0.7490 0.7490
4.271967 0.7470 0.7470 0.7460 0.7440 0.7440
4.308000 0.7420 0.7380 0.7330 0.7330 0.7310
4.343967 0.7310 0.7310 0.7330 0.7330 0.7330
4.380000 0.7350 0.7350 0.7370 0.7370 0.7380
4.415967 0.7370 0.7370 0.7350 0.7310 0.7300
4.452000 0.7300 0.7280 0.7280 0.7280 0.7300
4.487967 0.7300 0.7300 0.7310 0.7330 0.7350
4.524000 0.7370 0.7370 0.7370 0.7370 0.7350
4.559967 0.7330 0.7330 0.7310 0.7240 0.7170
4.595000 0.7100 0.7060 0.7050 0.7030 0.7050
4.630967 0.7050 0.7080 0.7100 0.7120 0.7140
4.667000 0.7140 0.7140 0.7140 0.7140 0.7140
4.702967 0.7140 0.7140 0.7140 0.7120 0.7120
4.739000 0.7100 0.7120 0.7120 0.7140 0.7140
4.774967 0.7150 0.7150 0.7150 0.7150 0.7140
4.811000 0.7150 0.7140 0.7120 0.7120 0.7120
4.846967 0.7100 0.7100 0.7030 0.7030 0.7010
4.883000 0.7010 0.6990 0.6990 0.6990 0.6990
4.918967 0.6980 0.6990 0.6990 0.6990 0.6990
4.955000 0.6980 0.6980 0.6960 0.6960 0.6900
4.990967 0.6890 0.6870 0.6830 0.6830 0.6850
5.027000 0.6850 0.6850 0.6850 0.6830 0.6830
5.062967 0.6820 0.6780 0.6760 0.6740 0.6730
5.099000 0.6730 0.6710 0.6640 0.6620 0.6600
5.134967 0.6600 0.6550 0.6510 0.6500 0.6480
5.171000 0.6480 0.6480 0.6480 0.6500 0.6480
5.206967 0.6480 0.6500 0.6480 0.6480 0.6460
5.242000 0.6440 0.6440 0.6420 0.6390 0.6340
5.277967 0.6300 0.6280 0.6260 0.6260 0.6260
5.314000 0.6260 0.6260 0.6250 0.6250 0.6230
5.349967 0.6190 0.6160 0.6140 0.6140 0.6090
5.386000 0.6070 0.6030 0.6020 0.6000 0.6000
5.421967 0.5980 0.5950 0.5930 0.5910 0.5910
5.458000 0.5890 0.5870 0.5840 0.5840 0.5820
5.493967 0.5820 0.5800 0.5790 0.5770 0.5750
5.530000 0.5730 0.5680 0.5640 0.5630 0.5630
5.565967 0.5610 0.5590 0.5570 0.5540 0.5380
5.602000 0.5360 0.5340 0.5310 0.5270 0.5220
5.637967 0.5220 0.5160 0.5070 0.5070 0.5040
5.674000 0.5020 0.5000 0.5000 0.4990 0.4990
5.709967 0.4970 0.4950 0.4950 0.4930 0.4880
5.746000 0.4840 0.4810 0.4790 0.4770 0.4740
5.781967 0.4720 0.4680 0.4630 0.4600 0.4580
5.818000 0.4520 0.4510 0.4470 0.4400 0.4350
5.853967 0.4330 0.4310 0.4290 0.4280 0.4200
5.890000 0.4150 0.4130 0.4040 0.4030 0.3990
5.925967 0.3940 0.3920 0.3880 0.3830 0.3810
5.961000 0.3730 0.3690 0.3640 0.3550 0.3480
5.996967 0.3410 0.3280 0.3230 0.3160 0.3140
6.033000 0.3050 0.3000 0.2840 0.2750 0.2620
6.068967 0.2550 0.2500 0.2220 0.2130 0.2110
6.105000 0.2060 0.1980 0.1900 0.1860 0.1790
6.140967 0.1790 0.1900 0.1970 0.2130 0.2390
6.177000 0.2590 0.2690 0.2820 0.3030 0.3140
6.212967 0.3230 0.3300 0.3390 0.3510 0.3550
6.249000 0.3640 0.3690 0.3640 0.3570 0.3300
6.284967 0.3170 0.3120 0.3120 0.3160 0.3170
6.321000 0.3280 0.3440 0.3530 0.3550 0.3530
6.356967 0.3510 0.3490 0.3390 0.3350 0.3280
6.393000 0.3170 0.3090 0.3010 0.2840 0.2710
6.428967 0.2660 0.2570 0.2520 0.2430 0.2300
6.465000 0.2250 0.2180 0.2140 0.2110 0.2060
6.500967 0.2000 0.1750 0.1680 0.1630 0.1580
6.537000 0.1560 0.1540 0.1540 0.1560 0.1580
6.572967 0.1680 0.1810 0.1980 0.2040 0.2320
6.608000 0.2500 0.2610 0.2690 0.2710 0.2730
6.643967 0.2820 0.3100 0.3280 0.3420 0.3510
6.680000 0.3580 0.3760 0.3870 0.3990 0.4010
6.715967 0.4060 0.4060 0.3990 0.3940 0.3830
6.752000 0.3740 0.3740 0.3990 0.4100 0.4290
6.787967 0.4490 0.4720 0.4810 0.4860 0.4950
6.824000 0.4930 0.4930 0.4880 0.4860 0.4840
6.859967 0.4840 0.4840 0.4830 0.4810 0.4810
6.896000 0.4810 0.4720 0.4600 0.4490 0.4330
6.931967 0.4150 0.4130 0.4040 0.4010 0.3900
6.968000 0.3830 0.3730 0.3640 0.3620 0.3440
7.003967 0.3390 0.3300 0.3250 0.3210 0.3170
7.040000 0.3160 0.3120 0.3000 0.2980 0.2940
7.075967 0.2910 0.2940 0.2960 0.3090 0.3300
7.112000 0.3490 0.3730 0.3990 0.4040 0.4260
7.147967 0.4400 0.4520 0.4770 0.5020 0.5130
7.184000 0.5180 0.5220 0.5320 0.5520 0.5640
7.219967 0.5870 0.5930 0.5980 0.6050 0.6070
7.256000 0.6070 0.5950 0.5820 0.5540 0.5090
7.291967 0.5070 0.4720 0.4610 0.4610 0.5090
7.327000 0.5230 0.5360 0.5390 0.5150 0.5150
7.362967 0.5360 0.5570 0.5800 0.6120 0.6390
7.399000 0.6510 0.6640 0.6730 0.6740 0.6760
7.434967 0.6740 0.6740 0.6740 0.6730 0.6690
7.471000 0.6600 0.6510 0.6410 0.6350 0.6280
7.506967 0.6110 0.6020 0.6000 0.5860 0.5820
7.543000 0.5770 0.5700 0.5550 0.5480 0.5390
7.578967 0.5290 0.5270 0.5150 0.5040 0.4950
7.615000 0.4840 0.4770 0.4720 0.4610 0.4510
7.650967 0.4420 0.4350 0.4280 0.4240 0.4120
7.687000 0.4060 0.4010 0.3900 0.3850 0.3780
7.722967 0.3690 0.3620 0.3510 0.3410 0.3350
7.759000 0.3260 0.3170 0.3100 0.3070 0.2980
7.794967 0.2850 0.2690 0.2610 0.2460 0.2410
7.831000 0.2270 0.2200 0.2060 0.1970 0.1840
7.866967 0.1750 0.1720 0.1700 0.1650 0.1630
7.903000 0.1630 0.1630 0.1650 0.1650 0.1650
7.938967 0.1650 0.1650 0.1580 0.1560 0.1560
7.975000 0.1500 0.1470 0.1470 0.1500 0.1540
8.010967 0.1580 0.1660 0.1750 0.1840 0.1910
8.046000 0.2020 0.2140 0.2200 0.2340 0.2380
8.081967 0.2460 0.2550 0.2570 0.2640 0.2690
8.118000 0.2770 0.2840 0.3010 0.3050 0.3140
8.153967 0.3230 0.3300 0.3370 0.3460 0.3530
8.190000 0.3600 0.3670 0.3740 0.3830 0.3970
8.225967 0.4010 0.4030 0.4040 0.4130 0.4310
8.262000 0.4420 0.4510 0.4560 0.4670 0.4810
8.297967 0.4860 0.5000 0.5040 0.5200 0.5430
8.334000 0.5520 0.5660 0.5840 0.5870 0.5890
8.369967 0.5910 0.5840 0.5770 0.5640 0.5550
8.406000 0.5380 0.5180 0.5070 0.4810 0.4610
8.441967 0.4380 0.4200 0.3940 0.3640 0.3410
8.478000 0.3070 0.2680 0.2300 0.2200 0.2060
8.513967 0.2000 0.1930 0.1930 0.2000 0.2020
8.550000 0.2060 0.2200 0.2340 0.2480 0.2710
8.585967 0.2800 0.2850 0.3010 0.3030 0.3230
8.622000 0.3230 0.3260 0.3320 0.3410 0.3510
8.657967 0.3570 0.3640 0.3710 0.3800 0.3850
8.693000 0.3900 0.3940 0.3990 0.4030 0.4120
8.728967 0.4130 0.4200 0.4260 0.4310 0.4360
8.765000 0.4420 0.4440 0.4450 0.4490 0.4520
8.800967 0.4560 0.4610 0.4680 0.4740 0.4810
8.837000 0.4840 0.4920 0.4950 0.4990 0.5020
8.872967 0.5070 0.5110 0.5150 0.5220 0.5230
8.909000 0.5250 0.5290 0.5340 0.5390 0.5450
8.944967 0.5520 0.5540 0.5520 0.5480 0.5450
8.981000 0.5410 0.5320 0.5310 0.5320 0.5380
9.016967 0.5450 0.5520 0.5540 0.5610 0.5710
9.053000 0.5820 0.5910 0.6000 0.6030 0.6140
9.088967 0.6190 0.6230 0.6260 0.6340 0.6370
9.125000 0.6390 0.6420 0.6460 0.6500 0.6530
9.160967 0.6550 0.6550 0.6570 0.6570 0.6550
9.197000 0.6530 0.6440 0.6370 0.6300 0.6230
9.232967 0.6090 0.6000 0.5930 0.5770 0.5660
9.269000 0.5540 0.5380 0.5220 0.5040 0.5000
9.304967 0.4990 0.4840 0.4540 0.4310 0.4120
9.341000 0.4010 0.3810 0.3650 0.3530 0.3350
9.376967 0.3160 0.3050 0.3000 0.2910 0.2800
9.412000 0.2770 0.2770 0.2780 0.2800 0.2840
9.447967 0.2980 0.3120 0.3230 0.3370 0.3510
9.484000 0.3670 0.3830 0.3960 0.4060 0.4240
9.519967 0.4380 0.4510 0.4600 0.4700 0.4770
9.556000 0.4880 0.5000 0.5060 0.5160 0.5230
9.591967 0.5270 0.5320 0.5390 0.5430 0.5430
9.628000 0.5410 0.5290 0.5000 0.4830 0.4610
9.663967 0.4400 0.4220 0.4080 0.4010 0.4010
9.700000 0.4040 0.4100 0.4100 0.4040 0.3800
9.735967 0.3650 0.3460 0.3170 0.3000 0.2940
9.772000 0.2850 0.2750 0.2710 0.2690 0.2660
9.807967 0.2640 0.2640 0.2640 0.2640 0.2660
9.844000 0.2690 0.2800 0.2930 0.3050 0.3230
9.879967 0.3260 0.3390 0.3510 0.3570 0.3740
9.916000 0.3810 0.3940 0.4120 0.4170 0.4220
9.951967 0.4310 0.4380 0.4490 0.4600 0.4680
9.988000 0.4740 0.4830 0.4950 0.5040 0.5110
10.023967 0.5150 0.5220 0.5230 0.5250 0.5250
10.059000 0.5150 0.5090 0.5020 0.4760 0.4600
10.094967 0.4470 0.4150 0.3900 0.3330 0.3070
10.131000 0.2940 0.2800 0.2750 0.2730 0.2770
10.166967 0.2780 0.2840 0.2890 0.2930 0.2980
10.203000 0.3070 0.3140 0.3170 0.3170 0.3160
10.238967 0.3140 0.3070 0.3050 0.2980 0.2890
10.275000 0.2850 0.2710 0.2660 0.2660 0.2750
10.310967 0.2800 0.2840 0.3010 0.3100 0.3160
10.347000 0.3250 0.3330 0.3350 0.3440 0.3510
10.382967 0.3550 0.3620 0.3690 0.3740 0.3810
10.419000 0.3850 0.3900 0.3940 0.3960 0.4010
10.454967 0.4060 0.4080 0.4130 0.4170 0.4220
10.491000 0.4260 0.4310 0.4350 0.4400 0.4450
10.526967 0.4510 0.4540 0.4540 0.4560 0.4580
10.563000 0.4580 0.4610 0.4630 0.4650 0.4680
10.598967 0.4720 0.4740 0.4760 0.4770 0.4830
10.635000 0.4840 0.4880 0.4930 0.4950 0.4970
10.670967 0.5020 0.5040 0.5060 0.5060 0.5090
10.707000 0.5090 0.5110 0.5110 0.5150 0.5160
10.742967 0.5180 0.5200 0.5200 0.5220 0.5220
10.778000 0.5220 0.5230 0.5230 0.5250 0.5270
10.813967 0.5290 0.5310 0.5320 0.5320 0.5320
10.850000 0.5320 0.5320 0.5340 0.5360 0.5360
10.885967 0.5380 0.5390 0.5390 0.5390 0.5410
10.922000 0.5410 0.5410 0.5430 0.5430 0.5470
10.957967 0.5500 0.5520 0.5520 0.5540 0.5540
10.994000 0.5570 0.5630 0.5630 0.5630 0.5630
11.029967 0.5630 0.5630 0.5630 0.5640 0.5660
11.066000 0.5680 0.5710 0.5710 0.5730 0.5730
11.101967 0.5730 0.5730 0.5730 0.5750 0.5750
11.138000 0.5750 0.5750 0.5750 0.5750 0.5770
11.173967 0.5790 0.5800 0.5800 0.5820 0.5840
11.210000 0.5840 0.5840 0.5860 0.5860 0.5870
11.245967 0.5870 0.5890 0.5910 0.5910 0.5910
11.282000 0.5930 0.5930 0.5930 0.5930 0.5930
11.317967 0.5930 0.5950 0.5960 0.5960 0.6000
11.354000 0.6000 0.6000 0.6020 0.6020 0.6020
11.389967 0.6030 0.6030 0.6030 0.6050 0.6050
11.425000 0.6050 0.6030 0.6030 0.6020 0.6020
11.460967 0.6020 0.5980 0.5950 0.5930 0.5870
11.497000 0.5820 0.5710 0.5660 0.5410 0.5250
11.532967 0.5220 0.5150 0.5090 0.5040 0.5040
11.569000 0.5040 0.5090 0.5130 0.5220 0.5270
11.604967 0.5390 0.5480 0.5590 0.5640 0.5680
11.641000 0.5750 0.5790 0.5820 0.5840 0.5930
11.676967 0.5950 0.5960 0.6000 0.6030 0.6030
11.713000 0.6050 0.6110 0.6120 0.6140 0.6140
11.748967 0.6160 0.6190 0.6210 0.6230 0.6250
11.785000 0.6260 0.6280 0.6280 0.6280 0.6300
11.820967 0.6340 0.6390 0.6410 0.6410 0.6410
11.857000 0.6420 0.6440 0.6460 0.6480 0.6480
11.892967 0.6480 0.6480 0.6500 0.6530 0.6550
11.929000 0.6550 0.6550 0.6600 0.6600 0.6600
11.964967 0.6600 0.6600 0.6620 0.6640 0.6660
12.001000 0.6670 0.6690 0.6690 0.6690 0.6690
12.036967 0.6710 0.6710 0.6710 0.6710 0.6710
12.073000 0.6730 0.6730 0.6740 0.6740 0.6760
12.108967 0.6780 0.6780 0.6800 0.6800 0.6800
12.144000 0.6830 0.6850 0.6850 0.6870 0.6870
12.179967 0.6870 0.6890 0.6900 0.6900 0.6900
12.216000 0.6900 0.6900 0.6890 0.6890 0.6890
12.251967 0.6890 0.6900 0.6900 0.6920 0.6940
12.288000 0.6990 0.7010 0.7030 0.7030 0.7060
12.323967 0.7100 0.7120 0.7120 0.7140 0.7150
12.360000 0.7170 0.7170 0.7170 0.7190 0.7190
12.395967 0.7190 0.7210 0.7210 0.7220 0.7220
12.432000 0.7210 0.7190 0.7170 0.7140 0.7120
12.467967 0.7050 0.7030 0.7010 0.6990 0.6940
12.504000 0.6830 0.6660 0.6550 0.6500 0.6260
12.539967 0.6190 0.5910 0.5640 0.5360 0.5150
12.576000 0.5000 0.4860 0.4510 0.4330 0.3810
12.611967 0.3600 0.3350 0.3160 0.3010 0.2750
12.648000 0.2500 0.2340 0.2230 0.2130 0.2040
12.683967 0.2040 0.2130 0.2160 0.2250 0.2410
12.720000 0.2530 0.2690 0.2870 0.3010 0.3170
12.755967 0.3280 0.3460 0.3550 0.3640 0.3760
12.792000 0.3850 0.3990 0.4130 0.4150 0.4200
12.827967 0.4260 0.4310 0.4380 0.4440 0.4540
12.863000 0.4610 0.4650 0.4700 0.4740 0.4760
12.898967 0.4760 0.4760 0.4760 0.4790 0.4830
12.935000 0.4860 0.4920 0.4930 0.4950 0.4990
12.970967 0.5020 0.5040 0.5040 0.5070 0.5090
13.007000 0.5230 0.5290 0.5340 0.5410 0.5430
13.042967 0.5470 0.5480 0.5480 0.5500 0.5540
13.079000 0.5610 0.5630 0.5700 0.5700 0.5750
13.114967 0.5770 0.5800 0.5800 0.5800 0.5800
13.151000 0.5800 0.5820 0.5890 0.5890 0.5910
13.186967 0.5930 0.5950 0.5960 0.6000 0.6030
13.223000 0.6070 0.6140 0.6180 0.6190 0.6210
13.258967 0.6230 0.6250 0.6260 0.6320 0.6320
13.295000 0.6320 0.6320 0.6340 0.6370 0.6410
13.330967 0.6410 0.6410 0.6410 0.6410 0.6410
13.367000 0.6350 0.6280 0.6250 0.6160 0.5680
13.402967 0.5290 0.5090 0.4770 0.4510 0.4380
13.439000 0.4220 0.4010 0.3920 0.3830 0.3830
13.474967 0.3810 0.3830 0.3900 0.3940 0.4030
13.510000 0.4120 0.4190 0.4330 0.4470 0.4540
13.545967 0.4680 0.4770 0.4900 0.5060 0.5090
13.582000 0.5160 0.5220 0.5290 0.5340 0.5390
13.617967 0.5450 0.5480 0.5500 0.5520 0.5590
13.654000 0.5630 0.5660 0.5700 0.5710 0.5790
13.689967 0.5800 0.5800 0.5800 0.5800 0.5800
13.726000 0.5840 0.5860 0.5860 0.5870 0.5890
13.761967 0.5910 0.5910 0.5930 0.5960 0.6000
13.798000 0.6020 0.6030 0.6030 0.6030 0.6030
13.833967 0.6030 0.6030 0.6050 0.6050 0.6070
13.870000 0.6090 0.6090 0.6110 0.6110 0.6120
13.905967 0.6120 0.6140 0.6160 0.6180 0.6180
13.942000 0.6190 0.6190 0.6190 0.6190 0.6190
13.977967 0.6190 0.6210 0.6230 0.6250 0.6260
14.014000 0.6260 0.6250 0.6250 0.6250 0.6260
14.049967 0.6280 0.6300 0.6300 0.6320 0.6320
14.086000 0.6320 0.6320 0.6320 0.6320 0.6320
14.121967 0.6340 0.6350 0.6370 0.6390 0.6390
14.158000 0.6410 0.6410 0.6410 0.6420 0.6420
14.193967 0.6420 0.6410 0.6410 0.6410 0.6410
14.229000 0.6410 0.6410 0.6480 0.6480 0.6460
14.264967 0.6440 0.6440 0.6440 0.6440 0.6440
14.301000 0.6460 0.6460 0.6460 0.6460 0.6460
14.336967 0.6460 0.6460 0.6460 0.6480 0.6480
14.373000 0.6460 0.6460 0.6460 0.6460 0.6460
14.408967 0.6440 0.6440 0.6440 0.6420 0.6420
14.445000 0.6440 0.6440 0.6440 0.6440 0.6440
14.480967 0.6440 0.6480 0.6480 0.6480 0.6500
14.517000 0.6510 0.6530 0.6530 0.6510 0.6500
14.552967 0.6500 0.6500 0.6510 0.6510 0.6510
14.589000 0.6530 0.6550 0.6550 0.6530 0.6530
14.624967 0.6530 0.6530 0.6530 0.6510 0.6500
14.661000 0.6500 0.6500 0.6500 0.6500 0.6480
14.696967 0.6420 0.6410 0.6410 0.6410 0.6420
14.733000 0.6440 0.6440 0.6440 0.6460 0.6460
14.768967 0.6480 0.6480 0.6460 0.6440 0.6440
14.805000 0.6420 0.6410 0.6410 0.6410 0.6410
14.840967 0.6410 0.6440 0.6420 0.6420 0.6420
14.876000 0.6420 0.6420 0.6420 0.6440 0.6480
14.911967 0.6480 0.6500 0.6500 0.6500 0.6500
14.948000 0.6500 0.6480 0.6480 0.6480 0.6480
14.983967 0.6500 0.6510 0.6530 0.6550 0.6580
15.020000 0.6580 0.6600 0.6600 0.6620 0.6620
15.055967 0.6620 0.6620 0.6640 0.6660 0.6670
15.092000 0.6670 0.6660 0.6660 0.6620 0.6600
15.127967 0.6600 0.6600 0.6600 0.6600 0.6620
15.164000 0.6620 0.6580 0.6580 0.6580 0.6580
15.199967 0.6580 0.6580 0.6580 0.6600 0.6620
15.236000 0.6620 0.6620 0.6620 0.6640 0.6660
15.271967 0.6670 0.6670 0.6660 0.6640 0.6620
15.308000 0.6620 0.6660 0.6690 0.6710 0.6710
15.343967 0.6710 0.6710 0.6740 0.6740 0.6730
15.380000 0.6730 0.6730 0.6710 0.6690 0.6690
15.415967 0.6690 0.6690 0.6710 0.6710 0.6730
15.452000 0.6730
##END=
