##TITLE=2-NAPHTHYLAMINE-6-SULFONIC ACID, SODIUM SALT
##JCAMP-DX=4.24
##DATA TYPE=INFRARED SPECTRUM
##CLASS=COBLENTZ
##ORIGIN=DOW CHEMICAL COMPANY
##OWNER=COBLENTZ SOCIETY
Collection (C) 2018 copyright by the U.S. Secretary of Commerce
on behalf of the United States of America. All rights reserved.
##DATE=Not specified, most likely prior to 1970
##MOLFORM=C10 H8 N O3 S Na
##SOURCE REFERENCE=COBLENTZ NO. 2290
##$NIST ID=B6002290
##$NIST SOURCE=COBLENTZ
##$NIST IMAGE=cob2290
##SPECTROMETER/DATA SYSTEM=Not specified, most likely a prism, grating, or hybrid spectrometer.
##STATE=SOLID (MINERAL OIL MULL)
##PATH LENGTH=
$$SPECTRAL CONTAMINATION DUE TO OIL AROUND 2900 CM^-^1
##SAMPLING PROCEDURE=TRANSMISSION
##RESOLUTION=4
##DATA PROCESSING=DIGITIZED BY NIST FROM HARD COPY
##XUNITS=MICROMETERS
##YUNITS=TRANSMITTANCE
##XFACTOR=1.000000
##YFACTOR=1
##DELTAX=000.006692
##FIRSTX=2.013
##LASTX=15.8861
##FIRSTY=0.626
##MAXX=15.8861
##MINX=2.013
##MAXY=0.909
##MINY=0.033
##NPOINTS=2074
##XYDATA=(X++(Y..Y))
2.013000 0.6260 0.6270 0.6290 0.6290 0.6310
2.046477 0.6340 0.6370 0.6420 0.6440 0.6470
2.080000 0.6470 0.6490 0.6490 0.6490 0.6490
2.113477 0.6510 0.6510 0.6520 0.6520 0.6560
2.147000 0.6570 0.6610 0.6620 0.6640 0.6660
2.180477 0.6670 0.6690 0.6710 0.6710 0.6710
2.214000 0.6710 0.6710 0.6720 0.6740 0.6740
2.247477 0.6740 0.6740 0.6740 0.6740 0.6760
2.281000 0.6760 0.6770 0.6770 0.6770 0.6790
2.314477 0.6810 0.6820 0.6840 0.6870 0.6890
2.348000 0.6920 0.6960 0.6970 0.6990 0.7010
2.381477 0.7020 0.7060 0.7090 0.7090 0.7110
2.415000 0.7110 0.7120 0.7140 0.7170 0.7190
2.448477 0.7210 0.7220 0.7240 0.7270 0.7290
2.482000 0.7310 0.7340 0.7370 0.7390 0.7390
2.515477 0.7410 0.7420 0.7440 0.7460 0.7470
2.549000 0.7510 0.7520 0.7540 0.7570 0.7570
2.582477 0.7570 0.7590 0.7590 0.7610 0.7620
2.616000 0.7660 0.7690 0.7720 0.7770 0.7770
2.649477 0.7790 0.7790 0.7810 0.7840 0.7840
2.683000 0.7840 0.7840 0.7820 0.7810 0.7770
2.716477 0.7760 0.7760 0.7760 0.7740 0.7710
2.750000 0.7660 0.7560 0.7470 0.7410 0.7320
2.783477 0.7210 0.7070 0.6920 0.6740 0.6540
2.816000 0.6320 0.6090 0.5800 0.5500 0.5350
2.849477 0.5100 0.4970 0.4790 0.4670 0.4650
2.883000 0.4650 0.4650 0.4670 0.4690 0.4700
2.916477 0.4700 0.4720 0.4720 0.4720 0.4700
2.950000 0.4690 0.4690 0.4690 0.4700 0.4820
2.983477 0.4870 0.5000 0.5190 0.5350 0.5470
3.017000 0.5540 0.5550 0.5570 0.5570 0.5570
3.050477 0.5570 0.5570 0.5550 0.5520 0.5470
3.084000 0.5440 0.5300 0.5200 0.5100 0.5000
3.117477 0.4920 0.4820 0.4700 0.4600 0.4470
3.151000 0.4320 0.4200 0.4050 0.3920 0.3800
3.184477 0.3700 0.3570 0.3430 0.3250 0.3150
3.218000 0.3050 0.3000 0.2970 0.2920 0.2870
3.251477 0.2830 0.2800 0.2800 0.2780 0.2800
3.285000 0.2830 0.2900 0.2930 0.2950 0.2970
3.318477 0.2970 0.2870 0.2700 0.2470 0.2130
3.352000 0.1760 0.1500 0.1260 0.0380 0.0350
3.385477 0.0350 0.0330 0.0330 0.0330 0.0330
3.419000 0.0330 0.0330 0.0360 0.0650 0.0830
3.452477 0.0910 0.0910 0.1000 0.1000 0.1030
3.486000 0.1060 0.1610 0.2170 0.2700 0.3250
3.519477 0.3670 0.4100 0.4420 0.4650 0.4790
3.553000 0.4890 0.4950 0.5020 0.5100 0.5200
3.586477 0.5300 0.5390 0.5490 0.5600 0.5640
3.620000 0.5640 0.5650 0.5670 0.5670 0.5670
3.653477 0.5670 0.5670 0.5670 0.5690 0.5690
3.686000 0.5720 0.5740 0.5740 0.5740 0.5720
3.719477 0.5720 0.5700 0.5700 0.5690 0.5690
3.753000 0.5690 0.5690 0.5690 0.5690 0.5690
3.786477 0.5640 0.5600 0.5540 0.5450 0.5350
3.820000 0.5300 0.5290 0.5290 0.5290 0.5320
3.853477 0.5500 0.5690 0.5850 0.5970 0.6090
3.887000 0.6210 0.6310 0.6390 0.6470 0.6570
3.920477 0.6640 0.6720 0.6790 0.6810 0.6890
3.954000 0.6940 0.6990 0.7040 0.7090 0.7160
3.987477 0.7220 0.7290 0.7340 0.7410 0.7440
4.021000 0.7470 0.7490 0.7520 0.7590 0.7610
4.054477 0.7640 0.7660 0.7660 0.7690 0.7720
4.088000 0.7720 0.7740 0.7760 0.7760 0.7770
4.121477 0.7790 0.7790 0.7810 0.7870 0.7890
4.155000 0.7890 0.7910 0.7910 0.7910 0.7910
4.188477 0.7920 0.7920 0.7940 0.7960 0.7960
4.222000 0.7970 0.7990 0.8010 0.8030 0.8030
4.255477 0.8040 0.8040 0.8060 0.8060 0.8090
4.289000 0.8090 0.8090 0.8110 0.8130 0.8160
4.322477 0.8180 0.8180 0.8180 0.8190 0.8210
4.356000 0.8230 0.8260 0.8280 0.8280 0.8280
4.389477 0.8280 0.8290 0.8290 0.8280 0.8280
4.423000 0.8280 0.8260 0.8260 0.8260 0.8260
4.456477 0.8260 0.8260 0.8260 0.8260 0.8280
4.489000 0.8310 0.8310 0.8330 0.8330 0.8330
4.522477 0.8330 0.8330 0.8330 0.8330 0.8330
4.556000 0.8340 0.8340 0.8340 0.8340 0.8340
4.589477 0.8340 0.8360 0.8360 0.8360 0.8360
4.623000 0.8380 0.8380 0.8390 0.8430 0.8460
4.656477 0.8490 0.8490 0.8490 0.8490 0.8490
4.690000 0.8490 0.8490 0.8490 0.8490 0.8490
4.723477 0.8530 0.8540 0.8580 0.8580 0.8590
4.757000 0.8590 0.8590 0.8590 0.8610 0.8610
4.790477 0.8630 0.8640 0.8640 0.8660 0.8660
4.824000 0.8680 0.8680 0.8680 0.8680 0.8680
4.857477 0.8640 0.8640 0.8640 0.8640 0.8640
4.891000 0.8640 0.8660 0.8680 0.8680 0.8680
4.924477 0.8680 0.8680 0.8680 0.8680 0.8680
4.958000 0.8680 0.8680 0.8660 0.8660 0.8660
4.991477 0.8660 0.8660 0.8660 0.8660 0.8680
5.025000 0.8690 0.8690 0.8710 0.8710 0.8710
5.058477 0.8710 0.8710 0.8710 0.8710 0.8690
5.092000 0.8690 0.8680 0.8640 0.8630 0.8610
5.125477 0.8590 0.8580 0.8560 0.8540 0.8530
5.159000 0.8530 0.8530 0.8540 0.8580 0.8590
5.192477 0.8610 0.8630 0.8640 0.8680 0.8680
5.226000 0.8680 0.8690 0.8690 0.8730 0.8780
5.259477 0.8780 0.8780 0.8790 0.8790 0.8790
5.293000 0.8790 0.8790 0.8790 0.8810 0.8810
5.326477 0.8810 0.8830 0.8830 0.8840 0.8880
5.359000 0.8880 0.8890 0.8890 0.8910 0.8910
5.392477 0.8930 0.8940 0.8980 0.8990 0.8990
5.426000 0.8990 0.8990 0.8990 0.8990 0.8990
5.459477 0.8990 0.8990 0.8990 0.8990 0.8990
5.493000 0.8990 0.8980 0.8960 0.8960 0.8960
5.526477 0.8960 0.8960 0.8960 0.8940 0.8940
5.560000 0.8910 0.8890 0.8860 0.8840 0.8830
5.593477 0.8830 0.8840 0.8890 0.8910 0.8930
5.627000 0.8980 0.8990 0.9010 0.9030 0.9060
5.660477 0.9060 0.9060 0.9060 0.9060 0.9080
5.694000 0.9080 0.9080 0.9080 0.9080 0.9080
5.727477 0.9080 0.9080 0.9080 0.9080 0.9080
5.761000 0.9090 0.9090 0.9090 0.9090 0.9080
5.794477 0.9060 0.9040 0.9030 0.9010 0.8990
5.828000 0.8990 0.8990 0.8980 0.8930 0.8910
5.861477 0.8890 0.8890 0.8890 0.8890 0.8890
5.895000 0.8890 0.8880 0.8840 0.8790 0.8760
5.928477 0.8730 0.8690 0.8630 0.8580 0.8490
5.962000 0.8390 0.8310 0.8190 0.8080 0.7970
5.995477 0.7860 0.7740 0.7660 0.7570 0.7490
6.029000 0.7440 0.7370 0.7310 0.7270 0.7210
6.062477 0.7190 0.7170 0.7170 0.7160 0.7160
6.096000 0.7160 0.7160 0.7170 0.7170 0.7170
6.129477 0.7170 0.7170 0.7170 0.7110 0.6990
6.163000 0.6960 0.6790 0.6760 0.6740 0.6720
6.196477 0.6740 0.6740 0.6770 0.6910 0.6970
6.229000 0.7040 0.7090 0.7160 0.7160 0.7160
6.262477 0.7090 0.6990 0.6890 0.6840 0.6790
6.296000 0.6740 0.6690 0.6660 0.6620 0.6620
6.329477 0.6620 0.6640 0.6660 0.6710 0.6770
6.363000 0.6840 0.6890 0.6910 0.6920 0.6960
6.396477 0.6990 0.7010 0.7020 0.7040 0.7040
6.430000 0.7040 0.7060 0.7060 0.7040 0.7010
6.463477 0.6940 0.6860 0.6720 0.6540 0.6340
6.497000 0.6140 0.5900 0.5700 0.5520 0.5350
6.530477 0.5150 0.4990 0.4790 0.4540 0.4300
6.564000 0.4240 0.4140 0.4040 0.4020 0.4020
6.597477 0.4040 0.4240 0.4450 0.4770 0.5090
6.631000 0.5440 0.5720 0.6040 0.6340 0.6470
6.664477 0.6610 0.6690 0.6810 0.6940 0.7010
6.698000 0.7070 0.7070 0.7070 0.7010 0.6920
6.731477 0.6710 0.6490 0.6240 0.5890 0.5520
6.765000 0.5140 0.4840 0.4640 0.4300 0.4050
6.798477 0.3850 0.3820 0.3800 0.3800 0.3800
6.832000 0.3800 0.3900 0.4200 0.4400 0.4620
6.865477 0.4850 0.5070 0.5300 0.5520 0.5720
6.899000 0.5890 0.6040 0.6260 0.6440 0.6590
6.932477 0.6790 0.6960 0.7110 0.7240 0.7370
6.966000 0.7490 0.7520 0.7560 0.7570 0.7590
6.999477 0.7620 0.7640 0.7670 0.7720 0.7770
7.033000 0.7840 0.7890 0.7990 0.8040 0.8130
7.066477 0.8190 0.8230 0.8260 0.8290 0.8310
7.099000 0.8310 0.8310 0.8310 0.8310 0.8290
7.132477 0.8280 0.8230 0.8160 0.8040 0.7940
7.166000 0.7790 0.7590 0.7520 0.7260 0.7020
7.199477 0.6770 0.6490 0.6260 0.6160 0.6020
7.233000 0.5870 0.5800 0.5800 0.5800 0.5850
7.266477 0.6020 0.6190 0.6410 0.6570 0.6740
7.300000 0.6840 0.6960 0.7140 0.7290 0.7460
7.333477 0.7540 0.7670 0.7740 0.7790 0.7870
7.367000 0.7870 0.7870 0.7870 0.7820 0.7690
7.400477 0.7570 0.7420 0.7410 0.7410 0.7410
7.434000 0.7410 0.7490 0.7790 0.7990 0.8160
7.467477 0.8340 0.8390 0.8430 0.8480 0.8480
7.501000 0.8480 0.8480 0.8460 0.8460 0.8440
7.534477 0.8430 0.8410 0.8390 0.8360 0.8360
7.568000 0.8330 0.8310 0.8310 0.8290 0.8280
7.601477 0.8260 0.8240 0.8230 0.8210 0.8210
7.635000 0.8210 0.8210 0.8210 0.8210 0.8210
7.668477 0.8210 0.8210 0.8210 0.8210 0.8210
7.702000 0.8210 0.8210 0.8210 0.8210 0.8230
7.735477 0.8230 0.8230 0.8210 0.8180 0.8110
7.769000 0.8040 0.7940 0.7840 0.7740 0.7640
7.802477 0.7540 0.7440 0.7340 0.7270 0.7210
7.836000 0.7160 0.7140 0.7120 0.7120 0.7110
7.869477 0.7090 0.7040 0.6940 0.6840 0.6670
7.902000 0.6540 0.6440 0.6290 0.6220 0.6160
7.935477 0.6140 0.6140 0.6120 0.6110 0.6090
7.969000 0.6070 0.6060 0.6040 0.5840 0.5640
8.002477 0.5470 0.5270 0.5070 0.4850 0.4620
8.036000 0.4390 0.4150 0.3920 0.3670 0.3420
8.069477 0.3170 0.2900 0.2650 0.2400 0.2150
8.103000 0.1900 0.1660 0.1410 0.1300 0.1210
8.136477 0.1150 0.1100 0.1050 0.1050 0.1030
8.170000 0.1030 0.1060 0.1210 0.1360 0.1550
8.203477 0.1650 0.1800 0.1950 0.2100 0.2200
8.237000 0.2280 0.2280 0.2300 0.2320 0.2330
8.270477 0.2330 0.2330 0.2330 0.2320 0.2270
8.304000 0.2180 0.2100 0.1960 0.1830 0.1660
8.337477 0.1550 0.1430 0.1310 0.1250 0.1160
8.371000 0.1080 0.1050 0.1030 0.1030 0.1030
8.404477 0.1050 0.1050 0.1080 0.1260 0.1360
8.438000 0.1530 0.1650 0.1710 0.1850 0.2000
8.471477 0.2150 0.2280 0.2430 0.2520 0.2600
8.505000 0.2680 0.2750 0.2800 0.2880 0.2950
8.538477 0.3000 0.3080 0.3170 0.3270 0.3350
8.572000 0.3470 0.3570 0.3670 0.3770 0.3880
8.605477 0.3970 0.4070 0.4140 0.4190 0.4220
8.639000 0.4300 0.4350 0.4390 0.4440 0.4500
8.672477 0.4570 0.4600 0.4620 0.4650 0.4670
8.706000 0.4670 0.4670 0.4670 0.4600 0.4590
8.739477 0.4500 0.4440 0.4320 0.4250 0.4190
8.772000 0.4140 0.4120 0.4100 0.4040 0.4020
8.805477 0.3980 0.3970 0.3970 0.3970 0.3980
8.839000 0.4000 0.4090 0.4240 0.4450 0.4670
8.872477 0.4870 0.5000 0.5200 0.5390 0.5550
8.906000 0.5720 0.5870 0.6010 0.6140 0.6260
8.939477 0.6340 0.6410 0.6490 0.6510 0.6570
8.973000 0.6590 0.6590 0.6590 0.6610 0.6610
9.006477 0.6610 0.6590 0.6510 0.6340 0.6140
9.040000 0.5940 0.5690 0.5390 0.5040 0.4600
9.073477 0.4320 0.3780 0.3400 0.2800 0.2330
9.107000 0.1950 0.1680 0.1410 0.1400 0.1380
9.140477 0.1400 0.1600 0.1950 0.2300 0.2520
9.174000 0.3100 0.3300 0.3800 0.4140 0.4720
9.207477 0.5070 0.5320 0.5500 0.5690 0.5900
9.241000 0.6140 0.6240 0.6360 0.6460 0.6590
9.274477 0.6670 0.6740 0.6790 0.6870 0.6960
9.308000 0.7010 0.7070 0.7160 0.7170 0.7190
9.341477 0.7260 0.7270 0.7290 0.7320 0.7390
9.375000 0.7420 0.7490 0.7510 0.7540 0.7570
9.408477 0.7590 0.7590 0.7610 0.7620 0.7660
9.442000 0.7670 0.7690 0.7690 0.7690 0.7710
9.475477 0.7710 0.7710 0.7710 0.7710 0.7710
9.509000 0.7710 0.7670 0.7670 0.7620 0.7590
9.542477 0.7510 0.7420 0.7320 0.7210 0.7070
9.576000 0.6890 0.6640 0.6340 0.5940 0.5420
9.609477 0.5000 0.4490 0.3970 0.3350 0.2750
9.642000 0.2330 0.1850 0.1600 0.1410 0.1400
9.675477 0.1410 0.1550 0.1700 0.2020 0.2330
9.709000 0.2680 0.3050 0.3450 0.3830 0.4220
9.742477 0.4570 0.4900 0.5190 0.5550 0.5890
9.776000 0.6040 0.6190 0.6420 0.6620 0.6810
9.809477 0.6970 0.7120 0.7260 0.7360 0.7470
9.843000 0.7560 0.7640 0.7710 0.7770 0.7840
9.876477 0.7890 0.7940 0.7990 0.8010 0.8040
9.910000 0.8090 0.8110 0.8180 0.8180 0.8210
9.943477 0.8240 0.8280 0.8280 0.8290 0.8290
9.977000 0.8310 0.8330 0.8330 0.8340 0.8340
10.010477 0.8360 0.8360 0.8380 0.8380 0.8390
10.044000 0.8390 0.8410 0.8440 0.8440 0.8460
10.077477 0.8460 0.8480 0.8480 0.8490 0.8490
10.111000 0.8510 0.8510 0.8510 0.8530 0.8540
10.144477 0.8540 0.8540 0.8540 0.8560 0.8560
10.178000 0.8560 0.8560 0.8560 0.8560 0.8560
10.211477 0.8540 0.8530 0.8510 0.8490 0.8480
10.245000 0.8390 0.8360 0.8290 0.8230 0.8140
10.278477 0.8080 0.8010 0.7960 0.7890 0.7840
10.312000 0.7770 0.7760 0.7760 0.7760 0.7760
10.345477 0.7770 0.7790 0.7820 0.7860 0.7860
10.379000 0.7870 0.7890 0.7940 0.7970 0.8040
10.412477 0.8090 0.8140 0.8190 0.8280 0.8360
10.446000 0.8360 0.8380 0.8390 0.8410 0.8430
10.479477 0.8460 0.8480 0.8490 0.8510 0.8530
10.512000 0.8530 0.8530 0.8540 0.8540 0.8560
10.545477 0.8560 0.8580 0.8580 0.8590 0.8590
10.579000 0.8590 0.8590 0.8590 0.8610 0.8610
10.612477 0.8610 0.8610 0.8610 0.8610 0.8610
10.646000 0.8610 0.8610 0.8610 0.8610 0.8610
10.679477 0.8610 0.8610 0.8630 0.8630 0.8630
10.713000 0.8630 0.8630 0.8630 0.8630 0.8630
10.746477 0.8630 0.8630 0.8630 0.8630 0.8630
10.780000 0.8630 0.8630 0.8630 0.8610 0.8610
10.813477 0.8590 0.8580 0.8580 0.8560 0.8560
10.847000 0.8530 0.8510 0.8490 0.8480 0.8480
10.880477 0.8430 0.8390 0.8310 0.8240 0.8180
10.914000 0.8040 0.7920 0.7740 0.7490 0.7220
10.947477 0.6940 0.6640 0.6370 0.6140 0.5950
10.981000 0.5840 0.5770 0.5750 0.5770 0.6060
11.014477 0.6360 0.6690 0.6870 0.7090 0.7320
11.048000 0.7520 0.7640 0.7710 0.7760 0.7770
11.081477 0.7770 0.7760 0.7690 0.7560 0.7440
11.115000 0.7240 0.7070 0.6890 0.6710 0.6540
11.148477 0.6470 0.6460 0.6470 0.6490 0.6620
11.182000 0.6740 0.6840 0.7090 0.7320 0.7510
11.215477 0.7620 0.7760 0.7810 0.7840 0.7890
11.249000 0.7960 0.7990 0.8010 0.8030 0.8040
11.282477 0.8080 0.8110 0.8130 0.8140 0.8160
11.315000 0.8190 0.8210 0.8230 0.8230 0.8240
11.348477 0.8260 0.8260 0.8260 0.8260 0.8280
11.382000 0.8280 0.8290 0.8310 0.8330 0.8360
11.415477 0.8390 0.8410 0.8440 0.8480 0.8490
11.449000 0.8510 0.8540 0.8560 0.8580 0.8580
11.482477 0.8590 0.8590 0.8590 0.8590 0.8590
11.516000 0.8610 0.8610 0.8630 0.8630 0.8640
11.549477 0.8640 0.8660 0.8680 0.8680 0.8680
11.583000 0.8680 0.8680 0.8690 0.8690 0.8690
11.616477 0.8690 0.8690 0.8690 0.8690 0.8690
11.650000 0.8690 0.8690 0.8690 0.8690 0.8710
11.683477 0.8710 0.8710 0.8710 0.8710 0.8710
11.717000 0.8710 0.8710 0.8710 0.8710 0.8710
11.750477 0.8710 0.8710 0.8710 0.8710 0.8710
11.784000 0.8710 0.8710 0.8710 0.8710 0.8710
11.817477 0.8710 0.8710 0.8710 0.8690 0.8690
11.851000 0.8690 0.8680 0.8680 0.8660 0.8660
11.884477 0.8640 0.8630 0.8610 0.8590 0.8580
11.918000 0.8560 0.8540 0.8530 0.8510 0.8490
11.951477 0.8440 0.8390 0.8360 0.8310 0.8240
11.985000 0.8190 0.8090 0.7970 0.7840 0.7690
12.018477 0.7520 0.7310 0.7060 0.6760 0.6410
12.052000 0.5990 0.5620 0.5290 0.5040 0.4690
12.085477 0.4390 0.4190 0.4040 0.3900 0.3820
12.119000 0.3800 0.3820 0.3950 0.4200 0.4570
12.152477 0.4970 0.5190 0.5490 0.5770 0.5920
12.185000 0.6040 0.6170 0.6370 0.6640 0.6740
12.218477 0.6810 0.6840 0.6870 0.6910 0.6920
12.252000 0.6940 0.6970 0.6970 0.6970 0.6990
12.285477 0.7010 0.7020 0.7060 0.7070 0.7090
12.319000 0.7120 0.7160 0.7170 0.7190 0.7260
12.352477 0.7270 0.7270 0.7290 0.7360 0.7360
12.386000 0.7370 0.7410 0.7460 0.7510 0.7540
12.419477 0.7590 0.7610 0.7660 0.7690 0.7710
12.453000 0.7770 0.7860 0.7910 0.7970 0.8010
12.486477 0.8080 0.8130 0.8180 0.8190 0.8210
12.520000 0.8260 0.8280 0.8290 0.8290 0.8330
12.553477 0.8360 0.8360 0.8380 0.8380 0.8380
12.587000 0.8380 0.8380 0.8380 0.8380 0.8380
12.620477 0.8380 0.8380 0.8380 0.8380 0.8380
12.654000 0.8380 0.8390 0.8390 0.8390 0.8390
12.687477 0.8390 0.8390 0.8390 0.8390 0.8390
12.721000 0.8390 0.8390 0.8380 0.8380 0.8380
12.754477 0.8380 0.8360 0.8360 0.8330 0.8310
12.788000 0.8290 0.8290 0.8290 0.8280 0.8280
12.821477 0.8280 0.8280 0.8280 0.8260 0.8260
12.855000 0.8240 0.8230 0.8210 0.8210 0.8210
12.888477 0.8190 0.8190 0.8190 0.8180 0.8180
12.922000 0.8180 0.8160 0.8160 0.8160 0.8110
12.955477 0.8110 0.8090 0.8080 0.8080 0.8060
12.989000 0.8060 0.8040 0.8040 0.8040 0.8040
13.022477 0.8060 0.8060 0.8060 0.8080 0.8080
13.055000 0.8080 0.8060 0.8060 0.8060 0.8040
13.088477 0.8040 0.8030 0.8030 0.8010 0.8010
13.122000 0.7990 0.7970 0.7970 0.7960 0.7960
13.155477 0.7940 0.7940 0.7920 0.7910 0.7890
13.189000 0.7870 0.7860 0.7840 0.7820 0.7810
13.222477 0.7790 0.7790 0.7770 0.7740 0.7740
13.256000 0.7720 0.7710 0.7670 0.7640 0.7620
13.289477 0.7590 0.7570 0.7560 0.7490 0.7470
13.323000 0.7390 0.7360 0.7310 0.7270 0.7260
13.356477 0.7170 0.7140 0.7110 0.7070 0.7060
13.390000 0.7040 0.7040 0.7020 0.7020 0.7020
13.423477 0.7040 0.7040 0.7040 0.7060 0.7060
13.457000 0.7060 0.7070 0.7110 0.7120 0.7160
13.490477 0.7170 0.7190 0.7220 0.7260 0.7270
13.524000 0.7270 0.7290 0.7290 0.7290 0.7290
13.557477 0.7290 0.7270 0.7270 0.7260 0.7240
13.591000 0.7240 0.7240 0.7220 0.7220 0.7190
13.624477 0.7190 0.7170 0.7170 0.7170 0.7160
13.658000 0.7140 0.7110 0.7090 0.7070 0.7060
13.691477 0.7040 0.7010 0.6990 0.6970 0.6960
13.725000 0.6960 0.6920 0.6910 0.6870 0.6860
13.758477 0.6860 0.6820 0.6810 0.6810 0.6790
13.792000 0.6790 0.6790 0.6770 0.6760 0.6720
13.825477 0.6690 0.6670 0.6660 0.6640 0.6590
13.859000 0.6570 0.6560 0.6560 0.6560 0.6560
13.892477 0.6560 0.6560 0.6560 0.6560 0.6560
13.925000 0.6510 0.6510 0.6490 0.6490 0.6490
13.958477 0.6470 0.6470 0.6470 0.6470 0.6470
13.992000 0.6460 0.6460 0.6420 0.6410 0.6410
14.025477 0.6390 0.6370 0.6360 0.6340 0.6320
14.059000 0.6310 0.6290 0.6290 0.6270 0.6240
14.092477 0.6240 0.6220 0.6220 0.6210 0.6210
14.126000 0.6190 0.6170 0.6160 0.6160 0.6140
14.159477 0.6120 0.6110 0.6070 0.6040 0.6040
14.193000 0.6010 0.5990 0.5970 0.5950 0.5920
14.226477 0.5890 0.5870 0.5850 0.5840 0.5800
14.260000 0.5790 0.5750 0.5740 0.5690 0.5670
14.293477 0.5650 0.5650 0.5640 0.5620 0.5570
14.327000 0.5540 0.5500 0.5490 0.5490 0.5470
14.360477 0.5450 0.5440 0.5420 0.5390 0.5370
14.394000 0.5350 0.5340 0.5320 0.5270 0.5240
14.427477 0.5200 0.5190 0.5150 0.5100 0.5070
14.461000 0.5050 0.5040 0.5000 0.4990 0.4970
14.494477 0.4950 0.4900 0.4870 0.4820 0.4800
14.528000 0.4740 0.4700 0.4650 0.4600 0.4590
14.561477 0.4570 0.4520 0.4490 0.4470 0.4470
14.595000 0.4440 0.4400 0.4300 0.4200 0.4140
14.628477 0.4100 0.4000 0.3970 0.3930 0.3870
14.662000 0.3820 0.3770 0.3680 0.3620 0.3530
14.695477 0.3430 0.3370 0.3280 0.3220 0.3150
14.728000 0.3080 0.3030 0.2930 0.2850 0.2730
14.761477 0.2670 0.2600 0.2570 0.2520 0.2480
14.795000 0.2430 0.2370 0.2350 0.2250 0.2170
14.828477 0.2130 0.2100 0.2070 0.2030 0.2000
14.862000 0.1960 0.1930 0.1910 0.1900 0.1900
14.895477 0.1880 0.1860 0.1860 0.1860 0.1860
14.929000 0.1860 0.1860 0.1860 0.1880 0.1910
14.962477 0.1950 0.2020 0.2070 0.2150 0.2230
14.996000 0.2320 0.2400 0.2500 0.2600 0.2700
15.029477 0.2820 0.2900 0.2930 0.2970 0.3020
15.063000 0.3080 0.3170 0.3200 0.3230 0.3250
15.096477 0.3280 0.3300 0.3350 0.3370 0.3380
15.130000 0.3400 0.3400 0.3400 0.3400 0.3400
15.163477 0.3400 0.3380 0.3370 0.3350 0.3300
15.197000 0.3270 0.3200 0.3120 0.3050 0.2980
15.230477 0.2930 0.2830 0.2780 0.2700 0.2630
15.264000 0.2580 0.2530 0.2520 0.2480 0.2450
15.297477 0.2380 0.2370 0.2330 0.2300 0.2300
15.331000 0.2280 0.2280 0.2280 0.2280 0.2300
15.364477 0.2330 0.2370 0.2400 0.2450 0.2480
15.398000 0.2500 0.2550 0.2630 0.2720 0.2800
15.431477 0.2880 0.2930 0.3000 0.3080 0.3130
15.465000 0.3170 0.3230 0.3280 0.3320 0.3370
15.498477 0.3400 0.3450 0.3470 0.3500 0.3570
15.532000 0.3570 0.3600 0.3620 0.3670 0.3680
15.565477 0.3700 0.3700 0.3720 0.3720 0.3720
15.598000 0.3720 0.3730 0.3730 0.3730 0.3730
15.631477 0.3750 0.3750 0.3750 0.3750 0.3750
15.665000 0.3750 0.3750 0.3750 0.3750 0.3750
15.698477 0.3770 0.3770 0.3770 0.3770 0.3770
15.732000 0.3780 0.3780 0.3800 0.3800 0.3800
15.765477 0.3800 0.3800 0.3800 0.3800 0.3800
15.799000 0.3800 0.3800 0.3800 0.3800 0.3800
15.832477 0.3800 0.3800 0.3780 0.3780 0.3770
15.866000 0.3770 0.3770 0.3750 0.3750
##END=
