##TITLE=4-Amino-5-(2-aminoethyl)-2-methylpyrimidine, dihydrochloride
##JCAMP-DX=4.24
$$ By DXEDIT 1.05 (RS McDonald)
##DATA TYPE=INFRARED SPECTRUM
##CLASS=COBLENTZ III
##ORIGIN=DOW CHEMICAL COMPANY
##OWNER=COPYRIGHT (C) 1988 by COBLENTZ SOCIETY INC.
Collection (C) 2018 copyright by the U.S. Secretary of Commerce
on behalf of the United States of America. All rights reserved.
##DATE=1965/03/29
##MOLFORM=C7 H14 Cl2 N4
##SOURCE REFERENCE=COBLENTZ NO. 07612
##$NIST ID=B6007612
##$NIST SOURCE=COBLENTZ
##$NIST IMAGE=cob7612
##SPECTROMETER/DATA SYSTEM=DOW KBr FOREPRISM-GRATING
##INSTRUMENT PARAMETERS=BLAZED AT 3.5, 12.0, 20.0 MICRON AND CHANGED AT 5.0, 7.5, 14.9 MICRON
##STATE=SOLID (SPLIT MULL), FLUOROLUBE FOR 3800-1330 CM^-^1, NUJOL FOR 1330-400 CM^-^1
##SAMPLING PROCEDURE=TRANSMISSION
##RESOLUTION=2
##DATA PROCESSING=DIGITIZED BY COBLENTZ SOCIETY (BATCH I) FROM HARD COPY
##XUNITS=1/CM
##YUNITS=TRANSMITTANCE
##XFACTOR=1
##YFACTOR=1
##DELTAX=1
##FIRSTX=3780
##LASTX=384
##FIRSTY=0.5702
##MAXX=3780
##MINX=384
##MAXY=0.7751
##MINY=0.0729
##NPOINTS=3397
##XYDATA=(X++(Y..Y))
3780.000000 0.5702 0.5703 0.5705 0.5706 0.5708
3775.000000 0.5710 0.5712 0.5712 0.5715 0.5717
3770.000000 0.5719 0.5720 0.5722 0.5724 0.5726
3765.000000 0.5727 0.5729 0.5731 0.5733 0.5734
3760.000000 0.5736 0.5738 0.5740 0.5741 0.5743
3755.000000 0.5745 0.5748 0.5750 0.5753 0.5755
3750.000000 0.5758 0.5760 0.5762 0.5766 0.5769
3745.000000 0.5771 0.5774 0.5776 0.5779 0.5782
3740.000000 0.5785 0.5788 0.5791 0.5794 0.5798
3735.000000 0.5801 0.5804 0.5807 0.5810 0.5814
3730.000000 0.5818 0.5821 0.5824 0.5827 0.5831
3725.000000 0.5834 0.5837 0.5840 0.5844 0.5847
3720.000000 0.5850 0.5853 0.5857 0.5860 0.5862
3715.000000 0.5866 0.5870 0.5873 0.5876 0.5879
3710.000000 0.5883 0.5886 0.5889 0.5892 0.5895
3705.000000 0.5898 0.5901 0.5904 0.5907 0.5909
3700.000000 0.5912 0.5915 0.5918 0.5921 0.5924
3695.000000 0.5927 0.5930 0.5933 0.5936 0.5939
3690.000000 0.5942 0.5945 0.5948 0.5951 0.5954
3685.000000 0.5957 0.5960 0.5962 0.5965 0.5968
3680.000000 0.5971 0.5973 0.5976 0.5979 0.5982
3675.000000 0.5984 0.5987 0.5990 0.5993 0.5996
3670.000000 0.5999 0.6001 0.6004 0.6007 0.6010
3665.000000 0.6012 0.6015 0.6018 0.6021 0.6023
3660.000000 0.6026 0.6029 0.6032 0.6034 0.6037
3655.000000 0.6040 0.6043 0.6045 0.6048 0.6051
3650.000000 0.6054 0.6056 0.6059 0.6062 0.6065
3645.000000 0.6068 0.6072 0.6075 0.6078 0.6081
3640.000000 0.6085 0.6088 0.6091 0.6094 0.6098
3635.000000 0.6101 0.6105 0.6108 0.6110 0.6114
3630.000000 0.6118 0.6121 0.6124 0.6127 0.6131
3625.000000 0.6134 0.6137 0.6140 0.6144 0.6147
3620.000000 0.6150 0.6153 0.6157 0.6160 0.6162
3615.000000 0.6166 0.6169 0.6171 0.6173 0.6175
3610.000000 0.6178 0.6180 0.6182 0.6184 0.6187
3605.000000 0.6189 0.6191 0.6193 0.6196 0.6198
3600.000000 0.6200 0.6202 0.6205 0.6207 0.6209
3595.000000 0.6210 0.6212 0.6215 0.6218 0.6220
3590.000000 0.6222 0.6223 0.6225 0.6226 0.6227
3585.000000 0.6228 0.6229 0.6230 0.6231 0.6232
3580.000000 0.6233 0.6234 0.6235 0.6236 0.6237
3575.000000 0.6237 0.6238 0.6239 0.6240 0.6241
3570.000000 0.6242 0.6243 0.6244 0.6245 0.6246
3565.000000 0.6247 0.6248 0.6248 0.6248 0.6248
3560.000000 0.6248 0.6247 0.6247 0.6246 0.6246
3555.000000 0.6245 0.6244 0.6241 0.6239 0.6236
3550.000000 0.6233 0.6230 0.6228 0.6225 0.6223
3545.000000 0.6220 0.6218 0.6215 0.6212 0.6209
3540.000000 0.6207 0.6204 0.6202 0.6199 0.6196
3535.000000 0.6192 0.6189 0.6186 0.6183 0.6179
3530.000000 0.6176 0.6172 0.6169 0.6165 0.6162
3525.000000 0.6158 0.6155 0.6151 0.6148 0.6144
3520.000000 0.6141 0.6137 0.6134 0.6130 0.6126
3515.000000 0.6122 0.6119 0.6115 0.6112 0.6108
3510.000000 0.6105 0.6104 0.6104 0.6103 0.6094
3505.000000 0.6101 0.6101 0.6103 0.6105 0.6107
3500.000000 0.6109 0.6110 0.6112 0.6114 0.6116
3495.000000 0.6118 0.6120 0.6122 0.6124 0.6126
3490.000000 0.6128 0.6130 0.6132 0.6134 0.6136
3485.000000 0.6138 0.6140 0.6143 0.6147 0.6152
3480.000000 0.6157 0.6160 0.6166 0.6171 0.6176
3475.000000 0.6180 0.6185 0.6189 0.6194 0.6199
3470.000000 0.6204 0.6208 0.6212 0.6218 0.6223
3465.000000 0.6227 0.6232 0.6237 0.6242 0.6247
3460.000000 0.6252 0.6258 0.6265 0.6271 0.6278
3455.000000 0.6284 0.6291 0.6297 0.6303 0.6309
3450.000000 0.6316 0.6322 0.6329 0.6335 0.6342
3445.000000 0.6347 0.6352 0.6357 0.6362 0.6367
3440.000000 0.6373 0.6378 0.6383 0.6388 0.6393
3435.000000 0.6397 0.6401 0.6404 0.6407 0.6408
3430.000000 0.6410 0.6411 0.6411 0.6412 0.6415
3425.000000 0.6415 0.6417 0.6418 0.6418 0.6419
3420.000000 0.6421 0.6422 0.6422 0.6422 0.6453
3415.000000 0.6419 0.6418 0.6418 0.6417 0.6415
3410.000000 0.6414 0.6412 0.6411 0.6408 0.6406
3405.000000 0.6403 0.6400 0.6397 0.6395 0.6392
3400.000000 0.6389 0.6386 0.6383 0.6380 0.6377
3395.000000 0.6374 0.6372 0.6369 0.6366 0.6362
3390.000000 0.6360 0.6357 0.6355 0.6352 0.6349
3385.000000 0.6346 0.6343 0.6339 0.6336 0.6333
3380.000000 0.6330 0.6326 0.6323 0.6320 0.6317
3375.000000 0.6312 0.6310 0.6307 0.6304 0.6301
3370.000000 0.6299 0.6296 0.6294 0.6292 0.6290
3365.000000 0.6288 0.6286 0.6284 0.6283 0.6281
3360.000000 0.6280 0.6278 0.6277 0.6275 0.6274
3355.000000 0.6272 0.6271 0.6269 0.6267 0.6265
3350.000000 0.6264 0.6262 0.6260 0.6258 0.6257
3345.000000 0.6237 0.6217 0.6125 0.6033 0.5838
3340.000000 0.5643 0.5552 0.5460 0.5408 0.5356
3335.000000 0.5310 0.5265 0.5247 0.5230 0.5217
3330.000000 0.5205 0.5196 0.5187 0.5179 0.5171
3325.000000 0.5165 0.5159 0.5148 0.5137 0.5122
3320.000000 0.5108 0.5056 0.5004 0.4923 0.4843
3315.000000 0.4784 0.4726 0.4698 0.4670 0.4660
3310.000000 0.4650 0.4642 0.4634 0.4625 0.4617
3305.000000 0.4608 0.4600 0.4592 0.4584 0.4573
3300.000000 0.4562 0.4551 0.4539 0.4527 0.4515
3295.000000 0.4503 0.4491 0.4466 0.4442 0.4417
3290.000000 0.4393 0.4368 0.4344 0.4316 0.4289
3285.000000 0.4260 0.4233 0.4203 0.4173 0.4138
3280.000000 0.4104 0.4070 0.4036 0.4005 0.3974
3275.000000 0.3944 0.3914 0.3886 0.3857 0.3830
3270.000000 0.3805 0.3777 0.3750 0.3726 0.3702
3265.000000 0.3692 0.3682 0.3675 0.3668 0.3664
3260.000000 0.3659 0.3666 0.3673 0.3680 0.3687
3255.000000 0.3694 0.3700 0.3739 0.3778 0.3818
3250.000000 0.3859 0.3897 0.3934 0.3973 0.4012
3245.000000 0.4060 0.4110 0.4166 0.4222 0.4260
3240.000000 0.4299 0.4331 0.4362 0.4386 0.4409
3235.000000 0.4428 0.4447 0.4466 0.4485 0.4505
3230.000000 0.4525 0.4544 0.4564 0.4578 0.4593
3225.000000 0.4598 0.4604 0.4605 0.4607 0.4607
3220.000000 0.4607 0.4597 0.4588 0.4562 0.4539
3215.000000 0.4508 0.4478 0.4446 0.4414 0.4379
3210.000000 0.4344 0.4326 0.4308 0.4308 0.4308
3205.000000 0.4307 0.4307 0.4307 0.4307 0.4307
3200.000000 0.4307 0.4306 0.4306 0.4305 0.4305
3195.000000 0.4301 0.4297 0.4277 0.4257 0.4216
3190.000000 0.4176 0.4126 0.4076 0.4014 0.3954
3185.000000 0.3895 0.3837 0.3806 0.3776 0.3746
3180.000000 0.3716 0.3684 0.3655 0.3625 0.3595
3175.000000 0.3562 0.3532 0.3500 0.3470 0.3438
3170.000000 0.3407 0.3375 0.3344 0.3312 0.3282
3165.000000 0.3253 0.3223 0.3193 0.3163 0.3132
3160.000000 0.3101 0.3068 0.3035 0.3003 0.2971
3155.000000 0.2939 0.2907 0.2868 0.2829 0.2781
3150.000000 0.2734 0.2671 0.2608 0.2561 0.2514
3145.000000 0.2443 0.2373 0.2256 0.2140 0.2093
3140.000000 0.2045 0.2022 0.1999 0.1991 0.1983
3135.000000 0.1979 0.1977 0.1974 0.1945 0.1971
3130.000000 0.1971 0.1972 0.1974 0.2004 0.2034
3125.000000 0.2066 0.2098 0.2143 0.2189 0.2234
3120.000000 0.2281 0.2326 0.2372 0.2417 0.2463
3115.000000 0.2508 0.2553 0.2598 0.2643 0.2673
3110.000000 0.2703 0.2728 0.2754 0.2779 0.2805
3105.000000 0.2830 0.2855 0.2877 0.2899 0.2919
3100.000000 0.2940 0.2960 0.2981 0.2995 0.3009
3095.000000 0.3022 0.3034 0.3047 0.3060 0.3069
3090.000000 0.3078 0.3087 0.3096 0.3097 0.3099
3085.000000 0.3100 0.3102 0.3103 0.3104 0.3105
3080.000000 0.3114 0.3108 0.3108 0.3108 0.3108
3075.000000 0.3106 0.3105 0.3103 0.3102 0.3100
3070.000000 0.3099 0.3096 0.3093 0.3087 0.3082
3065.000000 0.3070 0.3059 0.3037 0.3016 0.3001
3060.000000 0.2985 0.2972 0.2958 0.2944 0.2930
3055.000000 0.2908 0.2887 0.2864 0.2842 0.2819
3050.000000 0.2796 0.2775 0.2754 0.2733 0.2712
3045.000000 0.2690 0.2669 0.2648 0.2628 0.2569
3040.000000 0.2510 0.2462 0.2414 0.2390 0.2366
3035.000000 0.2348 0.2331 0.2323 0.2315 0.2311
3030.000000 0.2307 0.2302 0.2262 0.2295 0.2295
3025.000000 0.2296 0.2300 0.2303 0.2307 0.2311
3020.000000 0.2315 0.2319 0.2323 0.2326 0.2330
3015.000000 0.2335 0.2343 0.2349 0.2356 0.2362
3010.000000 0.2368 0.2374 0.2381 0.2387 0.2394
3005.000000 0.2400 0.2407 0.2415 0.2424 0.2432
3000.000000 0.2441 0.2450 0.2459 0.2464 0.2470
2995.000000 0.2473 0.2477 0.2480 0.2483 0.2484
2990.000000 0.2488 0.2488 0.2489 0.2489 0.2490
2985.000000 0.2490 0.2490 0.2487 0.2484 0.2465
2980.000000 0.2445 0.2402 0.2359 0.2320 0.2282
2975.000000 0.2265 0.2248 0.2241 0.2234 0.2230
2970.000000 0.2225 0.2222 0.2219 0.2218 0.2218
2965.000000 0.2217 0.2217 0.2216 0.2216 0.2217
2960.000000 0.2219 0.2223 0.2227 0.2231 0.2234
2955.000000 0.2265 0.2295 0.2316 0.2337 0.2352
2950.000000 0.2368 0.2376 0.2384 0.2390 0.2395
2945.000000 0.2400 0.2405 0.2405 0.2405 0.2404
2940.000000 0.2402 0.2399 0.2396 0.2392 0.2389
2935.000000 0.2374 0.2359 0.2344 0.2330 0.2315
2930.000000 0.2300 0.2284 0.2270 0.2254 0.2239
2925.000000 0.2223 0.2208 0.2192 0.2177 0.2161
2920.000000 0.2146 0.2130 0.2115 0.2099 0.2084
2915.000000 0.2068 0.2053 0.2040 0.2027 0.2013
2910.000000 0.2000 0.1985 0.1973 0.1959 0.1945
2905.000000 0.1932 0.1919 0.1906 0.1893 0.1879
2900.000000 0.1866 0.1850 0.1834 0.1818 0.1802
2895.000000 0.1785 0.1771 0.1754 0.1739 0.1722
2890.000000 0.1706 0.1687 0.1671 0.1653 0.1635
2885.000000 0.1621 0.1606 0.1592 0.1581 0.1569
2880.000000 0.1557 0.1551 0.1545 0.1549 0.1553
2875.000000 0.1560 0.1568 0.1575 0.1582 0.1589
2870.000000 0.1596 0.1604 0.1612 0.1619 0.1626
2865.000000 0.1633 0.1641 0.1648 0.1656 0.1665
2860.000000 0.1675 0.1685 0.1698 0.1709 0.1721
2855.000000 0.1732 0.1744 0.1754 0.1767 0.1778
2850.000000 0.1790 0.1801 0.1813 0.1826 0.1840
2845.000000 0.1854 0.1868 0.1881 0.1894 0.1909
2840.000000 0.1923 0.1936 0.1951 0.1967 0.1983
2835.000000 0.1999 0.2016 0.2032 0.2049 0.2065
2830.000000 0.2081 0.2097 0.2113 0.2118 0.2124
2825.000000 0.2128 0.2133 0.2137 0.2142 0.2145
2820.000000 0.2149 0.2152 0.2181 0.2158 0.2158
2815.000000 0.2158 0.2155 0.2148 0.2141 0.2125
2810.000000 0.2109 0.2093 0.2077 0.2066 0.2055
2805.000000 0.2051 0.2046 0.2043 0.2039 0.2034
2800.000000 0.2031 0.2029 0.2027 0.2026 0.2026
2795.000000 0.2025 0.2004 0.2023 0.2023 0.2026
2790.000000 0.2029 0.2034 0.2037 0.2042 0.2046
2785.000000 0.2051 0.2055 0.2059 0.2064 0.2069
2780.000000 0.2075 0.2081 0.2088 0.2094 0.2101
2775.000000 0.2108 0.2115 0.2121 0.2128 0.2132
2770.000000 0.2137 0.2138 0.2139 0.2139 0.2162
2765.000000 0.2141 0.2142 0.2142 0.2143 0.2143
2760.000000 0.2143 0.2143 0.2142 0.2138 0.2134
2755.000000 0.2130 0.2126 0.2122 0.2118 0.2114
2750.000000 0.2110 0.2106 0.2102 0.2097 0.2093
2745.000000 0.2085 0.2080 0.2073 0.2066 0.2059
2740.000000 0.2053 0.2045 0.2040 0.2033 0.2027
2735.000000 0.2021 0.2016 0.2011 0.2006 0.2001
2730.000000 0.1995 0.1991 0.1983 0.1985 0.1985
2725.000000 0.1987 0.1990 0.1993 0.1995 0.2001
2720.000000 0.2007 0.2012 0.2017 0.2022 0.2028
2715.000000 0.2033 0.2039 0.2044 0.2049 0.2055
2710.000000 0.2062 0.2068 0.2074 0.2080 0.2085
2705.000000 0.2092 0.2099 0.2105 0.2112 0.2119
2700.000000 0.2126 0.2133 0.2140 0.2147 0.2154
2695.000000 0.2161 0.2168 0.2174 0.2181 0.2184
2690.000000 0.2189 0.2191 0.2193 0.2195 0.2198
2685.000000 0.2200 0.2200 0.2201 0.2200 0.2197
2680.000000 0.2194 0.2191 0.2189 0.2184 0.2181
2675.000000 0.2177 0.2173 0.2169 0.2165 0.2161
2670.000000 0.2157 0.2152 0.2147 0.2142 0.2142
2665.000000 0.2143 0.2149 0.2181 0.2213 0.2245
2660.000000 0.2277 0.2307 0.2338 0.2365 0.2393
2655.000000 0.2420 0.2448 0.2473 0.2499 0.2520
2650.000000 0.2542 0.2564 0.2585 0.2607 0.2629
2645.000000 0.2650 0.2672 0.2689 0.2707 0.2725
2640.000000 0.2743 0.2753 0.2764 0.2773 0.2783
2635.000000 0.2792 0.2802 0.2803 0.2805 0.2805
2630.000000 0.2806 0.2805 0.2803 0.2800 0.2797
2625.000000 0.2770 0.2743 0.2690 0.2637 0.2579
2620.000000 0.2521 0.2446 0.2222 0.2312 0.2254
2615.000000 0.2241 0.2229 0.2229 0.2229 0.2229
2610.000000 0.2230 0.2230 0.2231 0.2260 0.2289
2605.000000 0.2335 0.2383 0.2412 0.2442 0.2472
2600.000000 0.2502 0.2531 0.2561 0.2588 0.2616
2595.000000 0.2635 0.2656 0.2676 0.2696 0.2716
2590.000000 0.2735 0.2756 0.2776 0.2796 0.2816
2585.000000 0.2832 0.2849 0.2863 0.2878 0.2893
2580.000000 0.2908 0.2922 0.2937 0.2951 0.2966
2575.000000 0.2980 0.2995 0.3009 0.3024 0.3038
2570.000000 0.3053 0.3067 0.3082 0.3094 0.3107
2565.000000 0.3120 0.3133 0.3145 0.3158 0.3170
2560.000000 0.3183 0.3195 0.3208 0.3220 0.3232
2555.000000 0.3246 0.3259 0.3271 0.3284 0.3296
2550.000000 0.3309 0.3321 0.3334 0.3346 0.3359
2545.000000 0.3372 0.3384 0.3397 0.3409 0.3422
2540.000000 0.3434 0.3447 0.3459 0.3471 0.3484
2535.000000 0.3496 0.3508 0.3520 0.3532 0.3545
2530.000000 0.3558 0.3570 0.3582 0.3594 0.3607
2525.000000 0.3618 0.3630 0.3646 0.3662 0.3678
2520.000000 0.3694 0.3709 0.3725 0.3740 0.3756
2515.000000 0.3772 0.3788 0.3800 0.3812 0.3821
2510.000000 0.3829 0.3836 0.3844 0.3850 0.3859
2505.000000 0.3866 0.3875 0.3882 0.3890 0.3898
2500.000000 0.3906 0.3912 0.3921 0.3928 0.3934
2495.000000 0.3939 0.3943 0.3947 0.3950 0.3955
2490.000000 0.3959 0.3964 0.3968 0.3972 0.3976
2485.000000 0.3980 0.3984 0.3988 0.3993 0.3997
2480.000000 0.4000 0.4007 0.4014 0.4022 0.4030
2475.000000 0.4037 0.4045 0.4053 0.4060 0.4068
2470.000000 0.4076 0.4084 0.4092 0.4101 0.4110
2465.000000 0.4120 0.4130 0.4140 0.4150 0.4160
2460.000000 0.4171 0.4181 0.4191 0.4201 0.4212
2455.000000 0.4220 0.4228 0.4236 0.4244 0.4252
2450.000000 0.4260 0.4268 0.4276 0.4284 0.4292
2445.000000 0.4300 0.4308 0.4316 0.4324 0.4332
2440.000000 0.4340 0.4348 0.4356 0.4364 0.4373
2435.000000 0.4382 0.4392 0.4401 0.4410 0.4419
2430.000000 0.4428 0.4436 0.4444 0.4450 0.4456
2425.000000 0.4462 0.4469 0.4475 0.4481 0.4483
2420.000000 0.4486 0.4486 0.4486 0.4486 0.4486
2415.000000 0.4486 0.4487 0.4487 0.4487 0.4487
2410.000000 0.4487 0.4488 0.4490 0.4493 0.4496
2405.000000 0.4499 0.4502 0.4505 0.4508 0.4510
2400.000000 0.4515 0.4520 0.4525 0.4530 0.4536
2395.000000 0.4541 0.4546 0.4550 0.4555 0.4556
2390.000000 0.4558 0.4559 0.4560 0.4560 0.4562
2385.000000 0.4564 0.4566 0.4566 0.4567 0.4567
2380.000000 0.4567 0.4567 0.4567 0.4567 0.4568
2375.000000 0.4569 0.4571 0.4573 0.4575 0.4577
2370.000000 0.4579 0.4581 0.4583 0.4585 0.4587
2365.000000 0.4589 0.4591 0.4593 0.4595 0.4597
2360.000000 0.4599 0.4599 0.4600 0.4600 0.4600
2355.000000 0.4606 0.4612 0.4620 0.4627 0.4633
2350.000000 0.4640 0.4647 0.4654 0.4660 0.4668
2345.000000 0.4674 0.4681 0.4688 0.4695 0.4702
2340.000000 0.4709 0.4716 0.4723 0.4731 0.4739
2335.000000 0.4747 0.4756 0.4764 0.4772 0.4780
2330.000000 0.4788 0.4796 0.4805 0.4812 0.4821
2325.000000 0.4829 0.4837 0.4845 0.4854 0.4862
2320.000000 0.4870 0.4878 0.4886 0.4894 0.4902
2315.000000 0.4909 0.4917 0.4924 0.4932 0.4939
2310.000000 0.4947 0.4955 0.4962 0.4970 0.4978
2305.000000 0.4985 0.4993 0.5000 0.5008 0.5016
2300.000000 0.5024 0.5031 0.5039 0.5046 0.5054
2295.000000 0.5060 0.5066 0.5072 0.5078 0.5084
2290.000000 0.5090 0.5096 0.5102 0.5107 0.5112
2285.000000 0.5119 0.5125 0.5131 0.5137 0.5143
2280.000000 0.5149 0.5155 0.5162 0.5168 0.5175
2275.000000 0.5181 0.5187 0.5193 0.5200 0.5206
2270.000000 0.5212 0.5217 0.5222 0.5226 0.5230
2265.000000 0.5234 0.5239 0.5243 0.5247 0.5252
2260.000000 0.5258 0.5266 0.5274 0.5282 0.5290
2255.000000 0.5298 0.5306 0.5314 0.5322 0.5330
2250.000000 0.5338 0.5345 0.5353 0.5360 0.5369
2245.000000 0.5377 0.5385 0.5393 0.5401 0.5409
2240.000000 0.5417 0.5425 0.5433 0.5441 0.5449
2235.000000 0.5456 0.5464 0.5472 0.5480 0.5488
2230.000000 0.5496 0.5504 0.5512 0.5521 0.5531
2225.000000 0.5540 0.5550 0.5559 0.5569 0.5578
2220.000000 0.5588 0.5597 0.5607 0.5616 0.5626
2215.000000 0.5635 0.5645 0.5654 0.5664 0.5673
2210.000000 0.5683 0.5692 0.5702 0.5710 0.5721
2205.000000 0.5730 0.5739 0.5745 0.5752 0.5758
2200.000000 0.5765 0.5771 0.5778 0.5784 0.5791
2195.000000 0.5797 0.5804 0.5810 0.5817 0.5823
2190.000000 0.5830 0.5836 0.5843 0.5849 0.5856
2185.000000 0.5862 0.5868 0.5874 0.5881 0.5887
2180.000000 0.5893 0.5899 0.5905 0.5910 0.5917
2175.000000 0.5923 0.5929 0.5935 0.5941 0.5947
2170.000000 0.5953 0.5959 0.5966 0.5972 0.5978
2165.000000 0.5984 0.5990 0.5996 0.6002 0.6008
2160.000000 0.6014 0.6020 0.6026 0.6032 0.6039
2155.000000 0.6045 0.6052 0.6058 0.6065 0.6071
2150.000000 0.6077 0.6083 0.6090 0.6096 0.6103
2145.000000 0.6108 0.6114 0.6119 0.6125 0.6130
2140.000000 0.6136 0.6141 0.6147 0.6153 0.6159
2135.000000 0.6164 0.6170 0.6175 0.6181 0.6186
2130.000000 0.6192 0.6196 0.6201 0.6204 0.6208
2125.000000 0.6212 0.6216 0.6219 0.6223 0.6226
2120.000000 0.6230 0.6233 0.6237 0.6240 0.6244
2115.000000 0.6247 0.6250 0.6252 0.6255 0.6258
2110.000000 0.6260 0.6264 0.6267 0.6269 0.6272
2105.000000 0.6275 0.6278 0.6280 0.6283 0.6286
2100.000000 0.6289 0.6290 0.6292 0.6293 0.6294
2095.000000 0.6295 0.6297 0.6298 0.6300 0.6301
2090.000000 0.6303 0.6304 0.6305 0.6305 0.6306
2085.000000 0.6306 0.6307 0.6307 0.6307 0.6307
2080.000000 0.6308 0.6308 0.6308 0.6307 0.6307
2075.000000 0.6307 0.6307 0.6307 0.6307 0.6309
2070.000000 0.6310 0.6312 0.6315 0.6317 0.6319
2065.000000 0.6321 0.6324 0.6326 0.6328 0.6331
2060.000000 0.6334 0.6337 0.6341 0.6345 0.6350
2055.000000 0.6354 0.6359 0.6362 0.6368 0.6372
2050.000000 0.6377 0.6382 0.6388 0.6394 0.6400
2045.000000 0.6405 0.6411 0.6415 0.6421 0.6424
2040.000000 0.6426 0.6430 0.6433 0.6435 0.6437
2035.000000 0.6437 0.6438 0.6438 0.6439 0.6439
2030.000000 0.6440 0.6441 0.6442 0.6443 0.6445
2025.000000 0.6446 0.6447 0.6448 0.6449 0.6450
2020.000000 0.6451 0.6453 0.6454 0.6455 0.6457
2015.000000 0.6458 0.6458 0.6460 0.6461 0.6461
2010.000000 0.6461 0.6462 0.6464 0.6465 0.6465
2005.000000 0.6467 0.6468 0.6468 0.6468 0.6467
2000.000000 0.6467 0.6467 0.6465 0.6465 0.6464
1995.000000 0.6461 0.6436 0.6421 0.6407 0.6400
1990.000000 0.6398 0.6403 0.6408 0.6411 0.6417
1985.000000 0.6421 0.6428 0.6436 0.6444 0.6451
1980.000000 0.6458 0.6465 0.6472 0.6481 0.6488
1975.000000 0.6497 0.6508 0.6518 0.6530 0.6541
1970.000000 0.6551 0.6558 0.6568 0.6575 0.6585
1965.000000 0.6594 0.6603 0.6611 0.6621 0.6632
1960.000000 0.6642 0.6651 0.6662 0.6630 0.6598
1955.000000 0.6565 0.6532 0.6499 0.6465 0.6425
1950.000000 0.6405 0.6395 0.6395 0.6394 0.6401
1945.000000 0.6408 0.6457 0.6499 0.6525 0.6551
1940.000000 0.6575 0.6593 0.6610 0.6626 0.6645
1935.000000 0.6661 0.6675 0.6690 0.6704 0.6718
1930.000000 0.6732 0.6745 0.6758 0.6771 0.6781
1925.000000 0.6791 0.6801 0.6811 0.6821 0.6831
1920.000000 0.6840 0.6847 0.6855 0.6861 0.6869
1915.000000 0.6878 0.6885 0.6890 0.6894 0.6898
1910.000000 0.6901 0.6906 0.6911 0.6915 0.6918
1905.000000 0.6922 0.6922 0.6921 0.6921 0.6919
1900.000000 0.6918 0.6915 0.6908 0.6903 0.6897
1895.000000 0.6891 0.6885 0.6878 0.6871 0.6864
1890.000000 0.6849 0.6850 0.6843 0.6841 0.6841
1885.000000 0.6841 0.6842 0.6847 0.6851 0.6857
1880.000000 0.6861 0.6867 0.6871 0.6876 0.6882
1875.000000 0.6889 0.6897 0.6904 0.6911 0.6918
1870.000000 0.6925 0.6933 0.6940 0.6947 0.6954
1865.000000 0.6961 0.6968 0.6975 0.6981 0.6988
1860.000000 0.6994 0.7001 0.7007 0.7014 0.7019
1855.000000 0.7026 0.7033 0.7041 0.7048 0.7056
1850.000000 0.7064 0.7071 0.7078 0.7087 0.7094
1845.000000 0.7101 0.7108 0.7115 0.7122 0.7128
1840.000000 0.7136 0.7143 0.7150 0.7157 0.7162
1835.000000 0.7168 0.7174 0.7175 0.7176 0.7178
1830.000000 0.7178 0.7178 0.7176 0.7175 0.7175
1825.000000 0.7172 0.7165 0.7157 0.7148 0.7140
1820.000000 0.7131 0.7121 0.7111 0.7101 0.7091
1815.000000 0.7082 0.7074 0.7065 0.7058 0.7058
1810.000000 0.7065 0.7071 0.7076 0.7083 0.7089
1805.000000 0.7096 0.7106 0.7115 0.7125 0.7134
1800.000000 0.7141 0.7147 0.7154 0.7153 0.7151
1795.000000 0.7149 0.7146 0.7137 0.7128 0.7118
1790.000000 0.7099 0.7076 0.7054 0.7031 0.7006
1785.000000 0.6980 0.6960 0.6943 0.6925 0.6911
1780.000000 0.6900 0.6898 0.6887 0.6887 0.6889
1775.000000 0.6899 0.6908 0.6918 0.6928 0.6939
1770.000000 0.6975 0.7011 0.7038 0.7065 0.7094
1765.000000 0.7121 0.7130 0.7132 0.7134 0.7136
1760.000000 0.7137 0.7139 0.7140 0.7142 0.7144
1755.000000 0.7146 0.7158 0.7176 0.7195 0.7214
1750.000000 0.7233 0.7251 0.7271 0.7290 0.7310
1745.000000 0.7331 0.7351 0.7371 0.7391 0.7401
1740.000000 0.7412 0.7424 0.7435 0.7444 0.7451
1735.000000 0.7458 0.7465 0.7471 0.7478 0.7484
1730.000000 0.7490 0.7496 0.7501 0.7507 0.7511
1725.000000 0.7515 0.7517 0.7514 0.7511 0.7501
1720.000000 0.7486 0.7474 0.7462 0.7451 0.7441
1715.000000 0.7433 0.7426 0.7421 0.7417 0.7412
1710.000000 0.7408 0.7406 0.7432 0.7403 0.7401
1705.000000 0.7400 0.7399 0.7394 0.7388 0.7382
1700.000000 0.7372 0.7360 0.7348 0.7335 0.7311
1695.000000 0.7272 0.7228 0.7111 0.6740 0.6608
1690.000000 0.6474 0.5130 0.4822 0.4605 0.4393
1685.000000 0.4215 0.4160 0.4139 0.4116 0.4087
1680.000000 0.4049 0.3956 0.3687 0.3499 0.3120
1675.000000 0.2761 0.2403 0.2044 0.1686 0.1329
1670.000000 0.0971 0.0729 0.0740 0.0746 0.0802
1665.000000 0.0947 0.1095 0.1241 0.1387 0.1534
1660.000000 0.1679 0.1827 0.1973 0.2120 0.2266
1655.000000 0.2291 0.2311 0.2288 0.2252 0.2217
1650.000000 0.2274 0.2542 0.2809 0.3077 0.3345
1645.000000 0.3599 0.3832 0.4032 0.4225 0.4387
1640.000000 0.4549 0.4767 0.4962 0.5089 0.5174
1635.000000 0.5245 0.5316 0.5384 0.5449 0.5502
1630.000000 0.5528 0.5549 0.5560 0.5573 0.5557
1625.000000 0.5538 0.5512 0.5423 0.5045 0.4955
1620.000000 0.4900 0.4846 0.4748 0.4647 0.4545
1615.000000 0.4380 0.4212 0.3956 0.3716 0.2805
1610.000000 0.2213 0.1622 0.1204 0.1172 0.1156
1605.000000 0.1145 0.1152 0.1161 0.1515 0.2027
1600.000000 0.2539 0.3052 0.3497 0.3689 0.3836
1595.000000 0.3962 0.4055 0.4147 0.4240 0.4328
1590.000000 0.4416 0.4503 0.4605 0.4720 0.4835
1585.000000 0.4920 0.5001 0.5083 0.5167 0.5254
1580.000000 0.5354 0.5459 0.5548 0.5560 0.5571
1575.000000 0.5564 0.5544 0.5420 0.4836 0.4707
1570.000000 0.4610 0.4503 0.4504 0.4505 0.4507
1565.000000 0.4512 0.4518 0.4519 0.4520 0.4460
1560.000000 0.4141 0.3634 0.3548 0.3454 0.3380
1555.000000 0.3344 0.3307 0.3273 0.3253 0.3234
1550.000000 0.3214 0.3197 0.3183 0.3181 0.3179
1545.000000 0.3179 0.3204 0.3276 0.3316 0.3316
1540.000000 0.3316 0.3302 0.3218 0.2970 0.2710
1535.000000 0.2673 0.2665 0.2639 0.2731 0.2899
1530.000000 0.3051 0.3236 0.3349 0.3456 0.3564
1525.000000 0.3674 0.3792 0.3853 0.3893 0.3926
1520.000000 0.3941 0.3946 0.3950 0.3972 0.3944
1515.000000 0.3936 0.3909 0.3880 0.3840 0.3799
1510.000000 0.3775 0.3759 0.3744 0.3729 0.3712
1505.000000 0.3686 0.3655 0.3593 0.3504 0.3439
1500.000000 0.3384 0.3330 0.3276 0.3255 0.3236
1495.000000 0.3225 0.3206 0.3362 0.3459 0.3560
1490.000000 0.3682 0.3803 0.3899 0.3994 0.4084
1485.000000 0.4144 0.4204 0.4262 0.4322 0.4381
1480.000000 0.4439 0.4498 0.4546 0.4582 0.4618
1475.000000 0.4654 0.4687 0.4710 0.4732 0.4755
1470.000000 0.4768 0.4780 0.4787 0.4803 0.4784
1465.000000 0.4775 0.4764 0.4740 0.4716 0.4688
1460.000000 0.4654 0.4620 0.4590 0.4560 0.4548
1455.000000 0.4534 0.4520 0.4506 0.4498 0.4491
1450.000000 0.4483 0.4475 0.4469 0.4472 0.4484
1445.000000 0.4498 0.4519 0.4535 0.4550 0.4560
1440.000000 0.4571 0.4568 0.4533 0.4457 0.4124
1435.000000 0.3990 0.3992 0.4068 0.4226 0.4327
1430.000000 0.4393 0.4445 0.4497 0.4529 0.4558
1425.000000 0.4586 0.4607 0.4629 0.4650 0.4666
1420.000000 0.4676 0.4686 0.4697 0.4708 0.4719
1415.000000 0.4730 0.4740 0.4756 0.4747 0.4738
1410.000000 0.4724 0.4706 0.4687 0.4662 0.4628
1405.000000 0.4559 0.4462 0.4100 0.4022 0.3972
1400.000000 0.3916 0.3855 0.3794 0.3762 0.3760
1395.000000 0.3750 0.3764 0.3780 0.3859 0.4020
1390.000000 0.4149 0.4224 0.4267 0.4297 0.4297
1385.000000 0.4296 0.4295 0.4280 0.4266 0.4243
1380.000000 0.4196 0.4152 0.4110 0.4097 0.4089
1375.000000 0.4070 0.4096 0.4129 0.4169 0.4218
1370.000000 0.4268 0.4325 0.4366 0.4387 0.4400
1365.000000 0.4407 0.4406 0.4418 0.4369 0.4329
1360.000000 0.4289 0.4218 0.4064 0.3534 0.3234
1355.000000 0.3000 0.2970 0.2967 0.2984 0.3090
1350.000000 0.3192 0.3221 0.3243 0.3250 0.3258
1345.000000 0.3264 0.3268 0.3270 0.3256 0.3238
1340.000000 0.3237 0.3262 0.3299 0.3424 0.3486
1335.000000 0.3546 0.3586 0.3625 0.3671 0.3656
1330.000000 0.3658 0.3659 0.3662 0.3662 0.3662
1325.000000 0.3659 0.3655 0.3650 0.3646 0.3641
1320.000000 0.3634 0.3626 0.3618 0.3597 0.3568
1315.000000 0.3540 0.3477 0.3402 0.3337 0.3343
1310.000000 0.3350 0.3356 0.3362 0.3366 0.3370
1305.000000 0.3373 0.3374 0.3374 0.3364 0.3332
1300.000000 0.3293 0.3272 0.3276 0.3277 0.3300
1295.000000 0.3339 0.3456 0.3498 0.3534 0.3573
1290.000000 0.3612 0.3658 0.3704 0.3750 0.3796
1285.000000 0.3842 0.3886 0.3928 0.3970 0.4012
1280.000000 0.4054 0.4094 0.4129 0.4165 0.4200
1275.000000 0.4236 0.4271 0.4306 0.4339 0.4373
1270.000000 0.4406 0.4440 0.4474 0.4503 0.4531
1265.000000 0.4558 0.4585 0.4612 0.4640 0.4667
1260.000000 0.4696 0.4725 0.4753 0.4780 0.4807
1255.000000 0.4835 0.4860 0.4879 0.4883 0.4888
1250.000000 0.4892 0.4897 0.4912 0.4934 0.4953
1245.000000 0.4971 0.4989 0.5004 0.5019 0.5027
1240.000000 0.5038 0.5019 0.4987 0.4848 0.4473
1235.000000 0.3773 0.2910 0.2928 0.3046 0.3290
1230.000000 0.3534 0.3777 0.4014 0.4000 0.3986
1225.000000 0.3950 0.3937 0.3994 0.4030 0.4030
1220.000000 0.3882 0.3639 0.3396 0.3304 0.3293
1215.000000 0.3300 0.3455 0.3616 0.3787 0.3959
1210.000000 0.4221 0.4303 0.4385 0.4466 0.4536
1205.000000 0.4599 0.4662 0.4726 0.4789 0.4846
1200.000000 0.4898 0.4951 0.5004 0.5057 0.5108
1195.000000 0.5160 0.5210 0.5246 0.5282 0.5317
1190.000000 0.5346 0.5371 0.5390 0.5407 0.5412
1185.000000 0.5450 0.5405 0.5356 0.5307 0.5217
1180.000000 0.5116 0.5026 0.5026 0.5025 0.5086
1175.000000 0.5138 0.5180 0.5207 0.5210 0.5225
1170.000000 0.5204 0.5193 0.5154 0.5110 0.5008
1165.000000 0.4760 0.4525 0.4387 0.4331 0.4334
1160.000000 0.4336 0.4397 0.4519 0.4616 0.4710
1155.000000 0.4783 0.4856 0.4937 0.5073 0.5193
1150.000000 0.5287 0.5341 0.5364 0.5373 0.5370
1145.000000 0.5332 0.5284 0.4871 0.4434 0.4532
1140.000000 0.4907 0.5281 0.5514 0.5660 0.5642
1135.000000 0.5652 0.5437 0.5221 0.5006 0.4904
1130.000000 0.4945 0.5165 0.5384 0.5603 0.5699
1125.000000 0.5774 0.5851 0.5902 0.5948 0.5990
1120.000000 0.6039 0.6054 0.6060 0.6067 0.6067
1115.000000 0.6066 0.6064 0.6062 0.6062 0.6060
1110.000000 0.6060 0.6065 0.6066 0.6066 0.6066
1105.000000 0.6065 0.6056 0.6047 0.6038 0.6033
1100.000000 0.6031 0.6036 0.6047 0.6077 0.6110
1095.000000 0.6127 0.6128 0.6081 0.5999 0.5917
1090.000000 0.5804 0.5820 0.5818 0.5823 0.5862
1085.000000 0.5919 0.5976 0.6027 0.6076 0.6126
1080.000000 0.6177 0.6229 0.6272 0.6309 0.6345
1075.000000 0.6374 0.6395 0.6417 0.6438 0.6448
1070.000000 0.6458 0.6467 0.6475 0.6482 0.6487
1065.000000 0.6493 0.6499 0.6503 0.6510 0.6511
1060.000000 0.6514 0.6515 0.6517 0.6518 0.6508
1055.000000 0.6483 0.6438 0.6393 0.6336 0.6248
1050.000000 0.6176 0.6125 0.6088 0.6065 0.6043
1045.000000 0.6027 0.6010 0.6000 0.5997 0.5997
1040.000000 0.5997 0.5996 0.5990 0.5977 0.5955
1035.000000 0.5715 0.5475 0.5235 0.5110 0.5180
1030.000000 0.5291 0.5403 0.5515 0.5707 0.5694
1025.000000 0.5630 0.5440 0.5250 0.5060 0.4976
1020.000000 0.4971 0.5368 0.5625 0.5890 0.6062
1015.000000 0.6125 0.6191 0.6229 0.6255 0.6267
1010.000000 0.6284 0.6279 0.6278 0.6266 0.6112
1005.000000 0.5790 0.5467 0.5143 0.4820 0.4745
1000.000000 0.4877 0.5010 0.5144 0.5278 0.5410
995.000000 0.5544 0.5678 0.5810 0.5944 0.6051
990.000000 0.6252 0.6224 0.6229 0.6229 0.6009
985.000000 0.5716 0.5423 0.5130 0.4875 0.4856
980.000000 0.4869 0.4922 0.5022 0.5123 0.5212
975.000000 0.5301 0.5390 0.5484 0.5594 0.5705
970.000000 0.5814 0.5921 0.6024 0.6091 0.6158
965.000000 0.6225 0.6288 0.6337 0.6386 0.6435
960.000000 0.6482 0.6521 0.6561 0.6600 0.6639
955.000000 0.6669 0.6696 0.6721 0.6748 0.6775
950.000000 0.6804 0.6819 0.6835 0.6847 0.6855
945.000000 0.6864 0.6868 0.6868 0.6868 0.6868
940.000000 0.6868 0.6869 0.6869 0.6868 0.6868
935.000000 0.6868 0.6856 0.6840 0.6822 0.6804
930.000000 0.6774 0.6743 0.6712 0.6665 0.6594
925.000000 0.6511 0.6400 0.6268 0.6059 0.5836
920.000000 0.5612 0.5388 0.5165 0.4941 0.4717
915.000000 0.4494 0.4270 0.4046 0.3968 0.3960
910.000000 0.3964 0.4078 0.4142 0.4180 0.4271
905.000000 0.4249 0.4262 0.4254 0.4231 0.3916
900.000000 0.3895 0.3907 0.3945 0.4177 0.4387
895.000000 0.4612 0.4753 0.5035 0.5121 0.5136
890.000000 0.5139 0.5140 0.5098 0.5054 0.5047
885.000000 0.5051 0.5085 0.5227 0.5420 0.5660
880.000000 0.5845 0.6015 0.6108 0.6200 0.6292
875.000000 0.6385 0.6482 0.6603 0.6708 0.6800
870.000000 0.6891 0.6985 0.7080 0.7154 0.7207
865.000000 0.7260 0.7312 0.7351 0.7383 0.7415
860.000000 0.7448 0.7476 0.7495 0.7514 0.7532
855.000000 0.7551 0.7568 0.7588 0.7601 0.7610
850.000000 0.7618 0.7628 0.7637 0.7646 0.7654
845.000000 0.7662 0.7671 0.7681 0.7687 0.7693
840.000000 0.7699 0.7705 0.7711 0.7717 0.7721
835.000000 0.7724 0.7725 0.7728 0.7731 0.7733
830.000000 0.7735 0.7737 0.7740 0.7741 0.7742
825.000000 0.7743 0.7744 0.7745 0.7746 0.7751
820.000000 0.7748 0.7744 0.7739 0.7734 0.7728
815.000000 0.7724 0.7708 0.7695 0.7680 0.7662
810.000000 0.7634 0.7604 0.7575 0.7514 0.7450
805.000000 0.7334 0.7145 0.6971 0.6152 0.5332
800.000000 0.4636 0.4636 0.4762 0.5195 0.5628
795.000000 0.6060 0.6494 0.6739 0.6815 0.6925
790.000000 0.7000 0.7019 0.7021 0.7021 0.7007
785.000000 0.6994 0.6958 0.6906 0.6778 0.6643
780.000000 0.6515 0.6362 0.6235 0.6126 0.5935
775.000000 0.5448 0.4904 0.4360 0.3732 0.3724
770.000000 0.4044 0.4457 0.4869 0.5282 0.5695
765.000000 0.6107 0.6517 0.6530 0.6545 0.6201
760.000000 0.6030 0.5837 0.5860 0.5981 0.6102
755.000000 0.6222 0.6286 0.6252 0.6245 0.6234
750.000000 0.6224 0.6212 0.6196 0.6250 0.6350
745.000000 0.6469 0.6546 0.6584 0.6604 0.6618
740.000000 0.6618 0.6612 0.6575 0.6525 0.6482
735.000000 0.6485 0.6492 0.6518 0.6537 0.6540
730.000000 0.6557 0.6511 0.6451 0.6318 0.6178
725.000000 0.6085 0.6042 0.6019 0.6019 0.6019
720.000000 0.6112 0.6210 0.6266 0.6282 0.6287
715.000000 0.6314 0.6299 0.6288 0.6259 0.6220
710.000000 0.6160 0.6015 0.5854 0.5693 0.5532
705.000000 0.5372 0.5210 0.5050 0.4889 0.4728
700.000000 0.4567 0.4406 0.4308 0.4284 0.4270
695.000000 0.4272 0.4262 0.4262 0.4274 0.4310
690.000000 0.4407 0.4492 0.4559 0.4626 0.4691
685.000000 0.4756 0.4821 0.4887 0.4953 0.5024
680.000000 0.5108 0.5212 0.5190 0.5168 0.5139
675.000000 0.5109 0.5021 0.4914 0.4662 0.4428
670.000000 0.4210 0.3993 0.3776 0.3632 0.3604
665.000000 0.3659 0.3712 0.3759 0.3844 0.4000
660.000000 0.4104 0.4207 0.4456 0.4795 0.5134
655.000000 0.5407 0.5543 0.5721 0.5908 0.6101
650.000000 0.6197 0.6279 0.6360 0.6426 0.6489
645.000000 0.6551 0.6612 0.6674 0.6728 0.6782
640.000000 0.6837 0.6891 0.6948 0.7004 0.7055
635.000000 0.7100 0.7145 0.7193 0.7238 0.7258
630.000000 0.7280 0.7265 0.7010 0.6348 0.6028
625.000000 0.6106 0.6302 0.6497 0.6693 0.6888
620.000000 0.7084 0.7225 0.7308 0.7354 0.7391
615.000000 0.7408 0.7425 0.7437 0.7441 0.7445
610.000000 0.7449 0.7453 0.7462 0.7446 0.7443
605.000000 0.7440 0.7436 0.7433 0.7430 0.7421
600.000000 0.7410 0.7398 0.7387 0.7369 0.7340
595.000000 0.7308 0.7276 0.7211 0.7131 0.6917
590.000000 0.6174 0.5631 0.5504 0.5353 0.5224
585.000000 0.5258 0.5668 0.6078 0.6333 0.6449
580.000000 0.6558 0.6643 0.6724 0.6760 0.6796
575.000000 0.6828 0.6846 0.6864 0.6882 0.6900
570.000000 0.6910 0.6918 0.6928 0.6936 0.6945
565.000000 0.6948 0.6951 0.6961 0.6957 0.6954
560.000000 0.6950 0.6932 0.6908 0.6835 0.6603
555.000000 0.6369 0.6185 0.6177 0.6253 0.6484
550.000000 0.6715 0.6885 0.6922 0.6960 0.6998
545.000000 0.7017 0.7035 0.7054 0.7071 0.7086
540.000000 0.7098 0.7108 0.7121 0.7118 0.7128
535.000000 0.7130 0.7132 0.7125 0.7118 0.7112
530.000000 0.7080 0.7046 0.7006 0.6944 0.6811
525.000000 0.6571 0.6332 0.6241 0.6376 0.6568
520.000000 0.6761 0.6956 0.7071 0.7158 0.7245
515.000000 0.7315 0.7375 0.7407 0.7434 0.7461
510.000000 0.7475 0.7488 0.7500 0.7508 0.7514
505.000000 0.7519 0.7525 0.7532 0.7539 0.7545
500.000000 0.7551 0.7557 0.7562 0.7568 0.7571
495.000000 0.7574 0.7576 0.7580 0.7583 0.7586
490.000000 0.7589 0.7592 0.7595 0.7597 0.7597
485.000000 0.7597 0.7598 0.7598 0.7598 0.7598
480.000000 0.7598 0.7598 0.7597 0.7596 0.7595
475.000000 0.7594 0.7593 0.7591 0.7588 0.7583
470.000000 0.7554 0.7524 0.7495 0.7465 0.7441
465.000000 0.7415 0.7390 0.7364 0.7340 0.7318
460.000000 0.7295 0.7272 0.7251 0.7250 0.7250
455.000000 0.7254 0.7260 0.7267 0.7275 0.7278
450.000000 0.7244 0.7255 0.7237 0.7221 0.7243
445.000000 0.7269 0.7306 0.7358 0.7411 0.7448
440.000000 0.7484 0.7517 0.7547 0.7556 0.7561
435.000000 0.7567 0.7571 0.7572 0.7561 0.7555
430.000000 0.7549 0.7544 0.7544 0.7545 0.7547
425.000000 0.7549 0.7551 0.7540 0.7555 0.7557
420.000000 0.7558 0.7561 0.7561 0.7561 0.7561
415.000000 0.7556 0.7549 0.7542 0.7536 0.7528
410.000000 0.7522 0.7515 0.7505 0.7494 0.7483
405.000000 0.7471 0.7461 0.7451 0.7440 0.7431
400.000000 0.7421 0.7411 0.7401 0.7392 0.7382
395.000000 0.7371 0.7361 0.7353 0.7343 0.7333
390.000000 0.7322 0.7314 0.7304 0.7293 0.7280
385.000000 0.7267 0.7256
##END=
