##TITLE=Methyl niobate(V)
##JCAMP-DX=4.24
$$ By DXEDIT 1.05 (RS McDonald)
##DATA TYPE=INFRARED SPECTRUM
##CLASS=COBLENTZ III
##ORIGIN=DOW CHEMICAL COMPANY
##OWNER=COPYRIGHT (C) 1988 by COBLENTZ SOCIETY INC.
Collection (C) 2018 copyright by the U.S. Secretary of Commerce
on behalf of the United States of America. All rights reserved.
##DATE=1966/03/10
##MOLFORM=C5 H15 Nb O5
##SOURCE REFERENCE=COBLENTZ NO. 07052
##$NIST ID=B6007052
##$NIST SOURCE=COBLENTZ
##$NIST IMAGE=cob7052
##SPECTROMETER/DATA SYSTEM=BECKMAN IR-9 (GRATING)
##INSTRUMENT PARAMETERS=ORDER CHANGES: 670, 1200, 2000 CM^-^1
##STATE=SOLID (SPLIT MULL, DRY BOX UNDER N2), FLUOROLUBE FOR 3800-1330 CM^-^1, NUJOL FOR 1330-400 CM^-^1
##SAMPLING PROCEDURE=TRANSMISSION
##RESOLUTION=2
##DATA PROCESSING=DIGITIZED BY COBLENTZ SOCIETY (BATCH I) FROM HARD COPY
##XUNITS=1/CM
##YUNITS=TRANSMITTANCE
##XFACTOR=1
##YFACTOR=1
##DELTAX=1
##FIRSTX=3800
##LASTX=402
##FIRSTY=0.7304
##MAXX=3800
##MINX=402
##MAXY=0.8939
##MINY=0.0455
##NPOINTS=3399
##XYDATA=(X++(Y..Y))
3800.000000 0.7304 0.7304 0.7304 0.7304 0.7304
3795.000000 0.7304 0.7305 0.7305 0.7305 0.7305
3790.000000 0.7305 0.7305 0.7306 0.7306 0.7306
3785.000000 0.7306 0.7306 0.7306 0.7307 0.7307
3780.000000 0.7307 0.7307 0.7307 0.7307 0.7308
3775.000000 0.7308 0.7308 0.7308 0.7308 0.7310
3770.000000 0.7311 0.7311 0.7312 0.7314 0.7315
3765.000000 0.7315 0.7317 0.7318 0.7318 0.7319
3760.000000 0.7321 0.7321 0.7324 0.7325 0.7325
3755.000000 0.7326 0.7328 0.7328 0.7330 0.7331
3750.000000 0.7332 0.7333 0.7335 0.7336 0.7337
3745.000000 0.7338 0.7339 0.7340 0.7342 0.7343
3740.000000 0.7344 0.7345 0.7347 0.7348 0.7349
3735.000000 0.7350 0.7351 0.7353 0.7354 0.7355
3730.000000 0.7357 0.7358 0.7358 0.7360 0.7361
3725.000000 0.7362 0.7364 0.7365 0.7367 0.7368
3720.000000 0.7368 0.7369 0.7371 0.7372 0.7374
3715.000000 0.7375 0.7376 0.7378 0.7378 0.7380
3710.000000 0.7382 0.7383 0.7384 0.7385 0.7387
3705.000000 0.7388 0.7389 0.7390 0.7392 0.7393
3700.000000 0.7395 0.7396 0.7397 0.7398 0.7400
3695.000000 0.7401 0.7401 0.7403 0.7405 0.7406
3690.000000 0.7407 0.7408 0.7410 0.7411 0.7411
3685.000000 0.7412 0.7415 0.7415 0.7418 0.7418
3680.000000 0.7419 0.7421 0.7422 0.7424 0.7425
3675.000000 0.7426 0.7428 0.7428 0.7431 0.7432
3670.000000 0.7433 0.7434 0.7436 0.7437 0.7439
3665.000000 0.7440 0.7441 0.7442 0.7444 0.7445
3660.000000 0.7447 0.7448 0.7449 0.7450 0.7451
3655.000000 0.7453 0.7455 0.7456 0.7458 0.7458
3650.000000 0.7461 0.7461 0.7464 0.7465 0.7468
3645.000000 0.7468 0.7471 0.7471 0.7474 0.7475
3640.000000 0.7476 0.7478 0.7480 0.7481 0.7483
3635.000000 0.7484 0.7486 0.7487 0.7489 0.7490
3630.000000 0.7492 0.7493 0.7495 0.7497 0.7499
3625.000000 0.7500 0.7501 0.7501 0.7504 0.7505
3620.000000 0.7507 0.7508 0.7510 0.7511 0.7512
3615.000000 0.7514 0.7515 0.7517 0.7518 0.7519
3610.000000 0.7521 0.7522 0.7525 0.7525 0.7528
3605.000000 0.7528 0.7531 0.7532 0.7534 0.7535
3600.000000 0.7537 0.7538 0.7540 0.7531 0.7521
3595.000000 0.7511 0.7501 0.7492 0.7483 0.7475
3590.000000 0.7468 0.7465 0.7462 0.7461 0.7460
3585.000000 0.7460 0.7461 0.7465 0.7471 0.7475
3580.000000 0.7481 0.7486 0.7491 0.7496 0.7501
3575.000000 0.7508 0.7514 0.7518 0.7524 0.7525
3570.000000 0.7525 0.7526 0.7528 0.7530 0.7531
3565.000000 0.7532 0.7532 0.7532 0.7532 0.7531
3560.000000 0.7531 0.7530 0.7530 0.7528 0.7528
3555.000000 0.7526 0.7526 0.7525 0.7525 0.7525
3550.000000 0.7525 0.7524 0.7524 0.7522 0.7521
3545.000000 0.7521 0.7521 0.7519 0.7519 0.7518
3540.000000 0.7518 0.7518 0.7517 0.7515 0.7515
3535.000000 0.7515 0.7515 0.7512 0.7511 0.7511
3530.000000 0.7510 0.7508 0.7507 0.7506 0.7505
3525.000000 0.7504 0.7503 0.7501 0.7500 0.7499
3520.000000 0.7498 0.7497 0.7496 0.7494 0.7493
3515.000000 0.7492 0.7491 0.7490 0.7489 0.7487
3510.000000 0.7486 0.7485 0.7484 0.7483 0.7482
3505.000000 0.7480 0.7478 0.7478 0.7476 0.7475
3500.000000 0.7474 0.7472 0.7471 0.7471 0.7469
3495.000000 0.7468 0.7468 0.7465 0.7465 0.7464
3490.000000 0.7462 0.7461 0.7461 0.7460 0.7458
3485.000000 0.7457 0.7456 0.7455 0.7454 0.7453
3480.000000 0.7451 0.7451 0.7450 0.7448 0.7447
3475.000000 0.7446 0.7445 0.7444 0.7443 0.7442
3470.000000 0.7441 0.7439 0.7438 0.7437 0.7436
3465.000000 0.7435 0.7434 0.7433 0.7432 0.7431
3460.000000 0.7430 0.7430 0.7430 0.7428 0.7428
3455.000000 0.7428 0.7428 0.7428 0.7428 0.7428
3450.000000 0.7428 0.7426 0.7426 0.7426 0.7426
3445.000000 0.7426 0.7426 0.7425 0.7425 0.7425
3440.000000 0.7425 0.7425 0.7425 0.7425 0.7425
3435.000000 0.7424 0.7424 0.7424 0.7424 0.7424
3430.000000 0.7425 0.7425 0.7426 0.7428 0.7428
3425.000000 0.7430 0.7431 0.7431 0.7432 0.7433
3420.000000 0.7434 0.7435 0.7436 0.7437 0.7438
3415.000000 0.7439 0.7440 0.7441 0.7442 0.7442
3410.000000 0.7443 0.7444 0.7445 0.7446 0.7447
3405.000000 0.7448 0.7449 0.7450 0.7451 0.7451
3400.000000 0.7453 0.7454 0.7455 0.7456 0.7457
3395.000000 0.7458 0.7460 0.7461 0.7461 0.7462
3390.000000 0.7465 0.7465 0.7467 0.7468 0.7469
3385.000000 0.7471 0.7471 0.7472 0.7475 0.7475
3380.000000 0.7476 0.7478 0.7480 0.7481 0.7482
3375.000000 0.7483 0.7485 0.7486 0.7487 0.7488
3370.000000 0.7490 0.7491 0.7492 0.7493 0.7494
3365.000000 0.7495 0.7496 0.7497 0.7498 0.7499
3360.000000 0.7500 0.7501 0.7501 0.7503 0.7504
3355.000000 0.7505 0.7506 0.7507 0.7508 0.7508
3350.000000 0.7510 0.7511 0.7511 0.7512 0.7514
3345.000000 0.7515 0.7515 0.7515 0.7517 0.7517
3340.000000 0.7518 0.7518 0.7518 0.7518 0.7519
3335.000000 0.7519 0.7521 0.7521 0.7521 0.7521
3330.000000 0.7522 0.7522 0.7524 0.7524 0.7525
3325.000000 0.7525 0.7525 0.7525 0.7526 0.7526
3320.000000 0.7526 0.7526 0.7528 0.7528 0.7528
3315.000000 0.7528 0.7528 0.7528 0.7530 0.7530
3310.000000 0.7530 0.7530 0.7530 0.7530 0.7530
3305.000000 0.7530 0.7530 0.7530 0.7530 0.7530
3300.000000 0.7530 0.7530 0.7530 0.7530 0.7531
3295.000000 0.7531 0.7531 0.7531 0.7531 0.7531
3290.000000 0.7532 0.7532 0.7533 0.7533 0.7533
3285.000000 0.7534 0.7536 0.7537 0.7539 0.7541
3280.000000 0.7543 0.7544 0.7546 0.7548 0.7550
3275.000000 0.7551 0.7553 0.7554 0.7556 0.7558
3270.000000 0.7561 0.7562 0.7565 0.7568 0.7571
3265.000000 0.7572 0.7575 0.7578 0.7581 0.7584
3260.000000 0.7587 0.7589 0.7592 0.7594 0.7597
3255.000000 0.7599 0.7601 0.7604 0.7607 0.7608
3250.000000 0.7611 0.7615 0.7618 0.7621 0.7625
3245.000000 0.7628 0.7632 0.7635 0.7639 0.7642
3240.000000 0.7646 0.7649 0.7653 0.7656 0.7660
3235.000000 0.7664 0.7668 0.7671 0.7675 0.7678
3230.000000 0.7682 0.7685 0.7689 0.7692 0.7696
3225.000000 0.7699 0.7703 0.7706 0.7710 0.7714
3220.000000 0.7718 0.7721 0.7726 0.7731 0.7736
3215.000000 0.7740 0.7745 0.7749 0.7754 0.7758
3210.000000 0.7762 0.7767 0.7771 0.7775 0.7781
3205.000000 0.7785 0.7789 0.7793 0.7797 0.7800
3200.000000 0.7804 0.7808 0.7811 0.7815 0.7819
3195.000000 0.7824 0.7828 0.7831 0.7835 0.7838
3190.000000 0.7842 0.7845 0.7849 0.7851 0.7856
3185.000000 0.7858 0.7861 0.7862 0.7865 0.7865
3180.000000 0.7867 0.7868 0.7869 0.7869 0.7868
3175.000000 0.7868 0.7867 0.7864 0.7861 0.7858
3170.000000 0.7857 0.7854 0.7851 0.7848 0.7845
3165.000000 0.7842 0.7839 0.7836 0.7833 0.7826
3160.000000 0.7821 0.7817 0.7811 0.7807 0.7801
3155.000000 0.7797 0.7793 0.7788 0.7784 0.7784
3150.000000 0.7785 0.7788 0.7792 0.7797 0.7803
3145.000000 0.7808 0.7815 0.7819 0.7825 0.7831
3140.000000 0.7837 0.7842 0.7848 0.7854 0.7860
3135.000000 0.7862 0.7867 0.7869 0.7872 0.7875
3130.000000 0.7878 0.7882 0.7885 0.7887 0.7890
3125.000000 0.7893 0.7896 0.7899 0.7901 0.7904
3120.000000 0.7907 0.7910 0.7912 0.7914 0.7915
3115.000000 0.7915 0.7917 0.7918 0.7918 0.7919
3110.000000 0.7921 0.7921 0.7922 0.7924 0.7925
3105.000000 0.7925 0.7926 0.7926 0.7926 0.7926
3100.000000 0.7928 0.7928 0.7928 0.7928 0.7928
3095.000000 0.7928 0.7928 0.7928 0.7928 0.7928
3090.000000 0.7928 0.7928 0.7928 0.7926 0.7926
3085.000000 0.7925 0.7925 0.7925 0.7925 0.7924
3080.000000 0.7924 0.7922 0.7922 0.7921 0.7921
3075.000000 0.7921 0.7921 0.7919 0.7918 0.7915
3070.000000 0.7914 0.7911 0.7910 0.7907 0.7905
3065.000000 0.7903 0.7901 0.7898 0.7896 0.7894
3060.000000 0.7892 0.7889 0.7886 0.7883 0.7880
3055.000000 0.7875 0.7872 0.7869 0.7867 0.7862
3050.000000 0.7858 0.7853 0.7848 0.7842 0.7837
3045.000000 0.7831 0.7825 0.7819 0.7815 0.7808
3040.000000 0.7804 0.7798 0.7793 0.7787 0.7782
3035.000000 0.7775 0.7769 0.7764 0.7758 0.7751
3030.000000 0.7746 0.7739 0.7733 0.7725 0.7719
3025.000000 0.7712 0.7707 0.7700 0.7694 0.7687
3020.000000 0.7681 0.7674 0.7668 0.7660 0.7651
3015.000000 0.7642 0.7633 0.7624 0.7615 0.7605
3010.000000 0.7596 0.7576 0.7558 0.7540 0.7521
3005.000000 0.7501 0.7484 0.7458 0.7433 0.7405
3000.000000 0.7378 0.7350 0.7321 0.7289 0.7256
2995.000000 0.7221 0.7187 0.7151 0.7118 0.7088
2990.000000 0.7058 0.7031 0.7003 0.6974 0.6946
2985.000000 0.6918 0.6890 0.6861 0.6832 0.6801
2980.000000 0.6771 0.6740 0.6710 0.6678 0.6649
2975.000000 0.6615 0.6582 0.6547 0.6511 0.6476
2970.000000 0.6442 0.6406 0.6371 0.6317 0.6264
2965.000000 0.6210 0.6156 0.6099 0.6042 0.5984
2960.000000 0.5926 0.5851 0.5776 0.5712 0.5648
2955.000000 0.5610 0.5572 0.5534 0.5497 0.5457
2950.000000 0.5417 0.5370 0.5324 0.5277 0.5231
2945.000000 0.5174 0.5117 0.5052 0.4988 0.4915
2940.000000 0.4843 0.4767 0.4692 0.4620 0.4549
2935.000000 0.4483 0.4417 0.4360 0.4303 0.4245
2930.000000 0.4188 0.4064 0.3941 0.3374 0.2807
2925.000000 0.2751 0.2709 0.2699 0.2703 0.2735
2920.000000 0.2770 0.2852 0.2934 0.3048 0.3161
2915.000000 0.3274 0.3387 0.3500 0.3612 0.3726
2910.000000 0.3840 0.3953 0.4066 0.4179 0.4292
2905.000000 0.4405 0.4519 0.4632 0.4745 0.4912
2900.000000 0.5079 0.5139 0.5200 0.5246 0.5293
2895.000000 0.5330 0.5367 0.5392 0.5418 0.5444
2890.000000 0.5470 0.5510 0.5552 0.5594 0.5636
2885.000000 0.5683 0.5730 0.5787 0.5844 0.5900
2880.000000 0.5957 0.6005 0.6053 0.6100 0.6148
2875.000000 0.6201 0.6254 0.6307 0.6360 0.6415
2870.000000 0.6468 0.6521 0.6574 0.6624 0.6675
2865.000000 0.6725 0.6775 0.6828 0.6880 0.6936
2860.000000 0.6992 0.7061 0.7132 0.7161 0.7191
2855.000000 0.7196 0.7201 0.7206 0.7211 0.7210
2850.000000 0.7218 0.7207 0.7205 0.7197 0.7189
2845.000000 0.7172 0.7158 0.7110 0.7062 0.6982
2840.000000 0.6901 0.6814 0.6725 0.6630 0.6535
2835.000000 0.6432 0.6330 0.6210 0.6090 0.5447
2830.000000 0.4805 0.4080 0.3358 0.2775 0.2192
2825.000000 0.2187 0.2205 0.2206 0.2229 0.2449
2820.000000 0.2669 0.2889 0.3109 0.3329 0.3549
2815.000000 0.3768 0.3989 0.4209 0.4429 0.4649
2810.000000 0.4869 0.5089 0.5309 0.5529 0.5749
2805.000000 0.5957 0.6166 0.6302 0.6439 0.6595
2800.000000 0.6751 0.6825 0.6901 0.6975 0.7048
2795.000000 0.7121 0.7194 0.7254 0.7315 0.7375
2790.000000 0.7435 0.7464 0.7494 0.7519 0.7547
2785.000000 0.7572 0.7600 0.7626 0.7654 0.7669
2780.000000 0.7687 0.7704 0.7721 0.7737 0.7754
2775.000000 0.7769 0.7786 0.7796 0.7807 0.7818
2770.000000 0.7828 0.7840 0.7851 0.7861 0.7871
2765.000000 0.7883 0.7894 0.7904 0.7915 0.7925
2760.000000 0.7937 0.7943 0.7949 0.7955 0.7961
2755.000000 0.7965 0.7971 0.7978 0.7984 0.7990
2750.000000 0.7996 0.8001 0.8007 0.8012 0.8018
2745.000000 0.8024 0.8030 0.8036 0.8042 0.8046
2740.000000 0.8050 0.8053 0.8057 0.8061 0.8065
2735.000000 0.8068 0.8071 0.8075 0.8078 0.8083
2730.000000 0.8087 0.8090 0.8094 0.8098 0.8101
2725.000000 0.8105 0.8108 0.8111 0.8115 0.8119
2720.000000 0.8124 0.8126 0.8131 0.8134 0.8137
2715.000000 0.8140 0.8143 0.8146 0.8150 0.8153
2710.000000 0.8156 0.8158 0.8162 0.8165 0.8168
2705.000000 0.8171 0.8175 0.8178 0.8182 0.8185
2700.000000 0.8188 0.8191 0.8195 0.8198 0.8201
2695.000000 0.8203 0.8206 0.8208 0.8211 0.8213
2690.000000 0.8216 0.8218 0.8220 0.8221 0.8225
2685.000000 0.8227 0.8230 0.8232 0.8235 0.8237
2680.000000 0.8239 0.8241 0.8244 0.8246 0.8249
2675.000000 0.8251 0.8253 0.8254 0.8256 0.8257
2670.000000 0.8259 0.8260 0.8262 0.8263 0.8265
2665.000000 0.8266 0.8268 0.8268 0.8271 0.8271
2660.000000 0.8274 0.8275 0.8277 0.8278 0.8280
2655.000000 0.8281 0.8282 0.8283 0.8285 0.8286
2650.000000 0.8288 0.8289 0.8291 0.8291 0.8292
2645.000000 0.8292 0.8292 0.8292 0.8293 0.8293
2640.000000 0.8293 0.8293 0.8293 0.8293 0.8293
2635.000000 0.8293 0.8293 0.8292 0.8291 0.8290
2630.000000 0.8289 0.8287 0.8286 0.8285 0.8284
2625.000000 0.8282 0.8281 0.8280 0.8278 0.8277
2620.000000 0.8275 0.8274 0.8273 0.8271 0.8271
2615.000000 0.8268 0.8268 0.8266 0.8265 0.8263
2610.000000 0.8262 0.8261 0.8260 0.8258 0.8257
2605.000000 0.8256 0.8256 0.8256 0.8258 0.8260
2600.000000 0.8263 0.8265 0.8267 0.8268 0.8271
2595.000000 0.8274 0.8277 0.8278 0.8281 0.8283
2590.000000 0.8286 0.8288 0.8291 0.8293 0.8296
2585.000000 0.8298 0.8301 0.8303 0.8306 0.8309
2580.000000 0.8312 0.8314 0.8317 0.8318 0.8321
2575.000000 0.8324 0.8327 0.8328 0.8332 0.8334
2570.000000 0.8337 0.8339 0.8342 0.8344 0.8346
2565.000000 0.8347 0.8349 0.8351 0.8353 0.8355
2560.000000 0.8357 0.8359 0.8361 0.8362 0.8364
2555.000000 0.8366 0.8368 0.8370 0.8371 0.8374
2550.000000 0.8375 0.8377 0.8378 0.8381 0.8383
2545.000000 0.8385 0.8387 0.8389 0.8391 0.8392
2540.000000 0.8394 0.8395 0.8397 0.8398 0.8400
2535.000000 0.8401 0.8403 0.8404 0.8406 0.8407
2530.000000 0.8409 0.8410 0.8411 0.8412 0.8414
2525.000000 0.8415 0.8417 0.8418 0.8420 0.8421
2520.000000 0.8423 0.8424 0.8425 0.8427 0.8428
2515.000000 0.8430 0.8432 0.8433 0.8434 0.8435
2510.000000 0.8437 0.8438 0.8440 0.8440 0.8441
2505.000000 0.8441 0.8442 0.8443 0.8444 0.8444
2500.000000 0.8445 0.8446 0.8447 0.8447 0.8448
2495.000000 0.8448 0.8449 0.8450 0.8451 0.8451
2490.000000 0.8452 0.8453 0.8454 0.8454 0.8455
2485.000000 0.8455 0.8456 0.8457 0.8458 0.8458
2480.000000 0.8458 0.8458 0.8459 0.8459 0.8459
2475.000000 0.8459 0.8459 0.8459 0.8460 0.8460
2470.000000 0.8460 0.8460 0.8460 0.8460 0.8461
2465.000000 0.8461 0.8461 0.8461 0.8461 0.8461
2460.000000 0.8462 0.8462 0.8462 0.8462 0.8462
2455.000000 0.8462 0.8462 0.8462 0.8463 0.8463
2450.000000 0.8463 0.8463 0.8464 0.8464 0.8464
2445.000000 0.8464 0.8465 0.8465 0.8465 0.8465
2440.000000 0.8466 0.8466 0.8466 0.8466 0.8467
2435.000000 0.8467 0.8467 0.8467 0.8468 0.8468
2430.000000 0.8468 0.8467 0.8467 0.8467 0.8467
2425.000000 0.8467 0.8467 0.8467 0.8467 0.8466
2420.000000 0.8466 0.8466 0.8466 0.8466 0.8466
2415.000000 0.8466 0.8466 0.8466 0.8466 0.8465
2410.000000 0.8465 0.8465 0.8465 0.8464 0.8464
2405.000000 0.8463 0.8463 0.8462 0.8462 0.8461
2400.000000 0.8461 0.8461 0.8461 0.8463 0.8466
2395.000000 0.8468 0.8471 0.8473 0.8475 0.8483
2390.000000 0.8491 0.8500 0.8510 0.8518 0.8528
2385.000000 0.8535 0.8541 0.8547 0.8553 0.8558
2380.000000 0.8564 0.8568 0.8573 0.8578 0.8583
2375.000000 0.8581 0.8578 0.8577 0.8575 0.8571
2370.000000 0.8570 0.8566 0.8562 0.8556 0.8550
2365.000000 0.8544 0.8538 0.8534 0.8531 0.8528
2360.000000 0.8525 0.8523 0.8521 0.8518 0.8516
2355.000000 0.8513 0.8510 0.8507 0.8505 0.8502
2350.000000 0.8500 0.8497 0.8495 0.8492 0.8490
2345.000000 0.8487 0.8485 0.8482 0.8480 0.8478
2340.000000 0.8477 0.8475 0.8474 0.8471 0.8471
2335.000000 0.8468 0.8468 0.8466 0.8465 0.8463
2330.000000 0.8461 0.8458 0.8456 0.8453 0.8451
2325.000000 0.8448 0.8446 0.8443 0.8441 0.8438
2320.000000 0.8436 0.8431 0.8427 0.8421 0.8416
2315.000000 0.8411 0.8406 0.8402 0.8398 0.8395
2310.000000 0.8392 0.8388 0.8385 0.8381 0.8378
2305.000000 0.8378 0.8378 0.8380 0.8381 0.8382
2300.000000 0.8383 0.8384 0.8386 0.8387 0.8388
2295.000000 0.8389 0.8390 0.8391 0.8393 0.8395
2290.000000 0.8397 0.8399 0.8401 0.8402 0.8404
2285.000000 0.8406 0.8408 0.8410 0.8412 0.8413
2280.000000 0.8415 0.8417 0.8418 0.8420 0.8421
2275.000000 0.8424 0.8425 0.8427 0.8428 0.8430
2270.000000 0.8431 0.8432 0.8433 0.8433 0.8434
2265.000000 0.8435 0.8436 0.8437 0.8438 0.8438
2260.000000 0.8439 0.8440 0.8441 0.8442 0.8443
2255.000000 0.8443 0.8444 0.8445 0.8446 0.8447
2250.000000 0.8448 0.8448 0.8449 0.8450 0.8451
2245.000000 0.8452 0.8453 0.8453 0.8454 0.8454
2240.000000 0.8455 0.8456 0.8457 0.8457 0.8458
2235.000000 0.8459 0.8460 0.8460 0.8461 0.8462
2230.000000 0.8463 0.8463 0.8464 0.8465 0.8466
2225.000000 0.8466 0.8467 0.8468 0.8468 0.8468
2220.000000 0.8470 0.8470 0.8471 0.8471 0.8471
2215.000000 0.8471 0.8473 0.8473 0.8474 0.8474
2210.000000 0.8475 0.8475 0.8475 0.8475 0.8477
2205.000000 0.8477 0.8478 0.8478 0.8478 0.8478
2200.000000 0.8480 0.8480 0.8481 0.8482 0.8483
2195.000000 0.8484 0.8485 0.8485 0.8486 0.8487
2190.000000 0.8488 0.8488 0.8489 0.8490 0.8491
2185.000000 0.8491 0.8492 0.8493 0.8494 0.8494
2180.000000 0.8495 0.8496 0.8497 0.8498 0.8499
2175.000000 0.8499 0.8500 0.8501 0.8502 0.8503
2170.000000 0.8504 0.8504 0.8505 0.8506 0.8507
2165.000000 0.8508 0.8509 0.8509 0.8510 0.8511
2160.000000 0.8512 0.8513 0.8514 0.8515 0.8516
2155.000000 0.8516 0.8517 0.8518 0.8518 0.8520
2150.000000 0.8521 0.8521 0.8521 0.8523 0.8524
2145.000000 0.8524 0.8525 0.8525 0.8527 0.8527
2140.000000 0.8528 0.8528 0.8530 0.8530 0.8531
2135.000000 0.8532 0.8533 0.8533 0.8534 0.8535
2130.000000 0.8536 0.8537 0.8538 0.8538 0.8539
2125.000000 0.8539 0.8539 0.8539 0.8539 0.8539
2120.000000 0.8539 0.8539 0.8540 0.8540 0.8540
2115.000000 0.8540 0.8540 0.8540 0.8540 0.8540
2110.000000 0.8541 0.8541 0.8541 0.8541 0.8542
2105.000000 0.8542 0.8543 0.8543 0.8543 0.8543
2100.000000 0.8544 0.8544 0.8544 0.8544 0.8545
2095.000000 0.8545 0.8546 0.8546 0.8546 0.8544
2090.000000 0.8543 0.8542 0.8541 0.8539 0.8538
2085.000000 0.8536 0.8535 0.8532 0.8530 0.8527
2080.000000 0.8525 0.8523 0.8521 0.8518 0.8516
2075.000000 0.8514 0.8512 0.8510 0.8508 0.8505
2070.000000 0.8503 0.8501 0.8499 0.8499 0.8499
2065.000000 0.8498 0.8498 0.8497 0.8497 0.8496
2060.000000 0.8496 0.8495 0.8495 0.8494 0.8494
2055.000000 0.8492 0.8491 0.8489 0.8488 0.8487
2050.000000 0.8486 0.8484 0.8483 0.8483 0.8484
2045.000000 0.8484 0.8485 0.8486 0.8487 0.8487
2040.000000 0.8488 0.8489 0.8490 0.8490 0.8491
2035.000000 0.8492 0.8493 0.8493 0.8494 0.8495
2030.000000 0.8496 0.8497 0.8499 0.8500 0.8501
2025.000000 0.8503 0.8505 0.8506 0.8508 0.8510
2020.000000 0.8512 0.8513 0.8515 0.8517 0.8518
2015.000000 0.8521 0.8523 0.8525 0.8527 0.8528
2010.000000 0.8531 0.8533 0.8536 0.8538 0.8540
2005.000000 0.8542 0.8544 0.8546 0.8548 0.8571
2000.000000 0.8594 0.8631 0.8667 0.8688 0.8704
1995.000000 0.8720 0.8737 0.8750 0.8761 0.8771
1990.000000 0.8783 0.8793 0.8804 0.8810 0.8817
1985.000000 0.8823 0.8830 0.8836 0.8843 0.8849
1980.000000 0.8856 0.8862 0.8865 0.8866 0.8868
1975.000000 0.8870 0.8871 0.8873 0.8875 0.8877
1970.000000 0.8878 0.8880 0.8882 0.8883 0.8885
1965.000000 0.8887 0.8888 0.8890 0.8892 0.8893
1960.000000 0.8895 0.8896 0.8897 0.8897 0.8898
1955.000000 0.8899 0.8899 0.8900 0.8900 0.8901
1950.000000 0.8901 0.8902 0.8903 0.8903 0.8904
1945.000000 0.8904 0.8905 0.8905 0.8906 0.8906
1940.000000 0.8907 0.8907 0.8907 0.8907 0.8908
1935.000000 0.8908 0.8908 0.8908 0.8908 0.8909
1930.000000 0.8909 0.8909 0.8909 0.8909 0.8910
1925.000000 0.8910 0.8910 0.8910 0.8911 0.8912
1920.000000 0.8914 0.8915 0.8917 0.8918 0.8918
1915.000000 0.8921 0.8921 0.8924 0.8925 0.8927
1910.000000 0.8928 0.8930 0.8931 0.8933 0.8934
1905.000000 0.8936 0.8937 0.8939 0.8939 0.8938
1900.000000 0.8938 0.8937 0.8937 0.8936 0.8935
1895.000000 0.8935 0.8934 0.8934 0.8933 0.8932
1890.000000 0.8932 0.8931 0.8930 0.8930 0.8928
1885.000000 0.8928 0.8928 0.8928 0.8927 0.8927
1880.000000 0.8925 0.8925 0.8925 0.8925 0.8924
1875.000000 0.8924 0.8924 0.8923 0.8923 0.8921
1870.000000 0.8921 0.8921 0.8921 0.8920 0.8920
1865.000000 0.8918 0.8918 0.8918 0.8918 0.8917
1860.000000 0.8917 0.8916 0.8916 0.8915 0.8915
1855.000000 0.8915 0.8914 0.8914 0.8914 0.8914
1850.000000 0.8914 0.8913 0.8913 0.8913 0.8913
1845.000000 0.8912 0.8912 0.8912 0.8912 0.8912
1840.000000 0.8912 0.8912 0.8913 0.8913 0.8913
1835.000000 0.8913 0.8913 0.8913 0.8913 0.8913
1830.000000 0.8913 0.8912 0.8911 0.8910 0.8909
1825.000000 0.8908 0.8907 0.8906 0.8905 0.8904
1820.000000 0.8903 0.8902 0.8901 0.8900 0.8899
1815.000000 0.8898 0.8897 0.8896 0.8896 0.8895
1810.000000 0.8896 0.8898 0.8900 0.8902 0.8904
1805.000000 0.8907 0.8909 0.8911 0.8913 0.8914
1800.000000 0.8914 0.8913 0.8912 0.8912 0.8911
1795.000000 0.8911 0.8910 0.8910 0.8909 0.8909
1790.000000 0.8908 0.8908 0.8908 0.8908 0.8907
1785.000000 0.8907 0.8907 0.8907 0.8907 0.8906
1780.000000 0.8906 0.8906 0.8906 0.8906 0.8905
1775.000000 0.8905 0.8905 0.8905 0.8904 0.8904
1770.000000 0.8904 0.8904 0.8904 0.8903 0.8903
1765.000000 0.8903 0.8904 0.8904 0.8905 0.8905
1760.000000 0.8906 0.8906 0.8907 0.8907 0.8907
1755.000000 0.8908 0.8908 0.8908 0.8908 0.8907
1750.000000 0.8907 0.8907 0.8907 0.8907 0.8906
1745.000000 0.8906 0.8906 0.8906 0.8905 0.8905
1740.000000 0.8905 0.8905 0.8905 0.8904 0.8902
1735.000000 0.8901 0.8900 0.8899 0.8897 0.8896
1730.000000 0.8895 0.8894 0.8892 0.8891 0.8890
1725.000000 0.8888 0.8887 0.8885 0.8884 0.8881
1720.000000 0.8878 0.8875 0.8871 0.8868 0.8867
1715.000000 0.8864 0.8861 0.8858 0.8855 0.8852
1710.000000 0.8849 0.8845 0.8842 0.8838 0.8834
1705.000000 0.8831 0.8827 0.8823 0.8818 0.8816
1700.000000 0.8809 0.8802 0.8795 0.8789 0.8784
1695.000000 0.8780 0.8775 0.8771 0.8767 0.8762
1690.000000 0.8758 0.8752 0.8746 0.8741 0.8735
1685.000000 0.8728 0.8724 0.8720 0.8717 0.8714
1680.000000 0.8711 0.8708 0.8704 0.8701 0.8698
1675.000000 0.8695 0.8692 0.8688 0.8685 0.8682
1670.000000 0.8678 0.8675 0.8675 0.8674 0.8673
1665.000000 0.8671 0.8670 0.8668 0.8668 0.8668
1660.000000 0.8668 0.8668 0.8670 0.8671 0.8671
1655.000000 0.8671 0.8673 0.8674 0.8675 0.8675
1650.000000 0.8677 0.8678 0.8680 0.8681 0.8682
1645.000000 0.8684 0.8685 0.8686 0.8687 0.8688
1640.000000 0.8690 0.8691 0.8692 0.8693 0.8694
1635.000000 0.8697 0.8701 0.8705 0.8709 0.8713
1630.000000 0.8717 0.8721 0.8725 0.8728 0.8733
1625.000000 0.8736 0.8738 0.8740 0.8742 0.8744
1620.000000 0.8746 0.8748 0.8750 0.8752 0.8755
1615.000000 0.8757 0.8759 0.8761 0.8763 0.8765
1610.000000 0.8767 0.8768 0.8771 0.8774 0.8775
1605.000000 0.8778 0.8780 0.8781 0.8781 0.8782
1600.000000 0.8782 0.8783 0.8783 0.8784 0.8784
1595.000000 0.8785 0.8785 0.8785 0.8784 0.8783
1590.000000 0.8782 0.8781 0.8780 0.8778 0.8777
1585.000000 0.8775 0.8775 0.8774 0.8771 0.8771
1580.000000 0.8770 0.8768 0.8768 0.8766 0.8765
1575.000000 0.8764 0.8762 0.8759 0.8756 0.8753
1570.000000 0.8750 0.8747 0.8744 0.8741 0.8738
1565.000000 0.8735 0.8732 0.8728 0.8725 0.8721
1560.000000 0.8717 0.8712 0.8707 0.8703 0.8698
1555.000000 0.8693 0.8688 0.8684 0.8678 0.8674
1550.000000 0.8668 0.8665 0.8660 0.8655 0.8651
1545.000000 0.8646 0.8643 0.8639 0.8636 0.8632
1540.000000 0.8628 0.8625 0.8621 0.8618 0.8615
1535.000000 0.8612 0.8608 0.8605 0.8601 0.8597
1530.000000 0.8592 0.8588 0.8583 0.8578 0.8575
1525.000000 0.8570 0.8566 0.8562 0.8557 0.8553
1520.000000 0.8549 0.8544 0.8540 0.8536 0.8531
1515.000000 0.8527 0.8523 0.8518 0.8514 0.8510
1510.000000 0.8505 0.8501 0.8495 0.8488 0.8481
1505.000000 0.8474 0.8467 0.8460 0.8453 0.8446
1500.000000 0.8439 0.8430 0.8421 0.8414 0.8406
1495.000000 0.8397 0.8389 0.8381 0.8371 0.8364
1490.000000 0.8354 0.8344 0.8334 0.8324 0.8314
1485.000000 0.8304 0.8294 0.8284 0.8267 0.8249
1480.000000 0.8232 0.8214 0.8193 0.8164 0.8135
1475.000000 0.8107 0.8081 0.8055 0.8021 0.7986
1470.000000 0.7950 0.7908 0.7867 0.7825 0.7781
1465.000000 0.7728 0.7661 0.7611 0.7569 0.7532
1460.000000 0.7494 0.7464 0.7445 0.7442 0.7422
1455.000000 0.7450 0.7454 0.7458 0.7461 0.7464
1450.000000 0.7467 0.7468 0.7468 0.7468 0.7468
1445.000000 0.7465 0.7456 0.7425 0.7384 0.7326
1440.000000 0.7121 0.7104 0.7088 0.7084 0.7133
1435.000000 0.7203 0.7324 0.7561 0.7582 0.7607
1430.000000 0.7811 0.7925 0.7981 0.8037 0.8056
1425.000000 0.8075 0.8095 0.8114 0.8124 0.8133
1420.000000 0.8142 0.8151 0.8161 0.8169 0.8178
1415.000000 0.8188 0.8196 0.8204 0.8211 0.8218
1410.000000 0.8225 0.8234 0.8241 0.8248 0.8255
1405.000000 0.8262 0.8268 0.8275 0.8281 0.8288
1400.000000 0.8294 0.8301 0.8306 0.8312 0.8317
1395.000000 0.8321 0.8327 0.8332 0.8338 0.8343
1390.000000 0.8348 0.8353 0.8358 0.8363 0.8368
1385.000000 0.8373 0.8377 0.8381 0.8385 0.8389
1380.000000 0.8394 0.8398 0.8402 0.8406 0.8408
1375.000000 0.8410 0.8412 0.8415 0.8414 0.8414
1370.000000 0.8409 0.8407 0.8403 0.8400 0.8396
1365.000000 0.8392 0.8388 0.8374 0.8358 0.8342
1360.000000 0.8320 0.8299 0.8277 0.8254 0.8230
1355.000000 0.8215 0.8202 0.8188 0.8176 0.8168
1350.000000 0.8161 0.8155 0.8150 0.8147 0.8133
1345.000000 0.8154 0.8161 0.8169 0.8178 0.8186
1340.000000 0.8193 0.8200 0.8206 0.8213 0.8218
1335.000000 0.8225 0.8232 0.8237 0.8238 0.8238
1330.000000 0.8238 0.8238 0.8239 0.8239 0.8239
1325.000000 0.8237 0.8233 0.8228 0.8225 0.8221
1320.000000 0.8218 0.8214 0.8210 0.8206 0.8202
1315.000000 0.8198 0.8194 0.8193 0.8193 0.8193
1310.000000 0.8194 0.8194 0.8194 0.8195 0.8196
1305.000000 0.8199 0.8201 0.8203 0.8205 0.8208
1300.000000 0.8210 0.8212 0.8214 0.8217 0.8218
1295.000000 0.8221 0.8223 0.8225 0.8227 0.8228
1290.000000 0.8231 0.8233 0.8234 0.8236 0.8238
1285.000000 0.8240 0.8242 0.8243 0.8243 0.8244
1280.000000 0.8243 0.8242 0.8241 0.8240 0.8239
1275.000000 0.8238 0.8237 0.8236 0.8232 0.8228
1270.000000 0.8225 0.8221 0.8217 0.8213 0.8209
1265.000000 0.8204 0.8200 0.8196 0.8192 0.8188
1260.000000 0.8184 0.8180 0.8175 0.8169 0.8165
1255.000000 0.8160 0.8151 0.8143 0.8134 0.8124
1250.000000 0.8115 0.8106 0.8097 0.8088 0.8078
1245.000000 0.8068 0.8060 0.8050 0.8035 0.8019
1240.000000 0.8005 0.7991 0.7975 0.7961 0.7946
1235.000000 0.7932 0.7917 0.7901 0.7888 0.7872
1230.000000 0.7855 0.7838 0.7819 0.7803 0.7787
1225.000000 0.7771 0.7755 0.7739 0.7721 0.7706
1220.000000 0.7690 0.7674 0.7658 0.7641 0.7622
1215.000000 0.7605 0.7586 0.7568 0.7549 0.7531
1210.000000 0.7507 0.7474 0.7440 0.7407 0.7374
1205.000000 0.7341 0.7307 0.7242 0.7178 0.7112
1200.000000 0.7048 0.6983 0.6917 0.6851 0.6787
1195.000000 0.6721 0.6656 0.6590 0.6518 0.6448
1190.000000 0.6377 0.6304 0.6224 0.6144 0.6064
1185.000000 0.5985 0.5914 0.5843 0.5772 0.5700
1180.000000 0.5599 0.5498 0.5397 0.5019 0.4834
1175.000000 0.4684 0.4539 0.4149 0.3974 0.3787
1170.000000 0.3493 0.3070 0.2779 0.2558 0.2335
1165.000000 0.2115 0.2052 0.2009 0.1959 0.1875
1160.000000 0.1814 0.1806 0.1804 0.1804 0.1804
1155.000000 0.1802 0.1794 0.1785 0.1777 0.1760
1150.000000 0.1733 0.1704 0.1675 0.1635 0.1592
1145.000000 0.1554 0.1520 0.1481 0.1412 0.1277
1140.000000 0.1077 0.0917 0.0826 0.0776 0.0726
1135.000000 0.0691 0.0665 0.0640 0.0619 0.0601
1130.000000 0.0583 0.0566 0.0548 0.0531 0.0516
1125.000000 0.0505 0.0493 0.0482 0.0473 0.0467
1120.000000 0.0461 0.0455 0.0455 0.0455 0.0455
1115.000000 0.0462 0.0475 0.0475 0.0485 0.0495
1110.000000 0.0507 0.0519 0.0531 0.0543 0.0559
1105.000000 0.0586 0.0620 0.0657 0.0687 0.0716
1100.000000 0.0745 0.0775 0.0815 0.0872 0.0934
1095.000000 0.1034 0.1135 0.1261 0.1395 0.1489
1090.000000 0.1557 0.1626 0.1694 0.1763 0.1831
1085.000000 0.1964 0.2102 0.2219 0.2313 0.2408
1080.000000 0.2502 0.2579 0.2647 0.2715 0.2783
1075.000000 0.2854 0.2927 0.3001 0.3075 0.3149
1070.000000 0.3221 0.3289 0.3357 0.3425 0.3493
1065.000000 0.3544 0.3588 0.3636 0.3706 0.3772
1060.000000 0.3799 0.3816 0.3828 0.3857 0.3837
1055.000000 0.3837 0.3832 0.3827 0.3800 0.3774
1050.000000 0.3746 0.3712 0.3680 0.3636 0.3576
1045.000000 0.3516 0.3414 0.3292 0.3131 0.3014
1040.000000 0.2906 0.2803 0.2723 0.2684 0.2653
1035.000000 0.2625 0.2597 0.2571 0.2545 0.2516
1030.000000 0.2478 0.2449 0.2432 0.2425 0.2410
1025.000000 0.2432 0.2459 0.2511 0.2601 0.2859
1020.000000 0.3070 0.3280 0.3492 0.3702 0.3912
1015.000000 0.4124 0.4335 0.4546 0.4756 0.4967
1010.000000 0.5178 0.5389 0.5576 0.5702 0.5972
1005.000000 0.6145 0.6269 0.6365 0.6454 0.6525
1000.000000 0.6597 0.6668 0.6744 0.6826 0.6910
995.000000 0.6988 0.7065 0.7121 0.7178 0.7234
990.000000 0.7289 0.7347 0.7406 0.7453 0.7482
985.000000 0.7510 0.7535 0.7551 0.7567 0.7575
980.000000 0.7584 0.7593 0.7601 0.7608 0.7615
975.000000 0.7621 0.7630 0.7640 0.7649 0.7651
970.000000 0.7654 0.7655 0.7676 0.7653 0.7651
965.000000 0.7647 0.7643 0.7639 0.7628 0.7619
960.000000 0.7611 0.7601 0.7585 0.7565 0.7543
955.000000 0.7519 0.7493 0.7465 0.7438 0.7408
950.000000 0.7369 0.7333 0.7296 0.7258 0.7221
945.000000 0.7180 0.7130 0.7081 0.7031 0.6978
940.000000 0.6918 0.6858 0.6797 0.6735 0.6685
935.000000 0.6635 0.6588 0.6545 0.6501 0.6458
930.000000 0.6415 0.6367 0.6318 0.6269 0.6220
925.000000 0.6170 0.6124 0.6085 0.6047 0.6009
920.000000 0.5953 0.5896 0.5838 0.5781 0.5729
915.000000 0.5678 0.5626 0.5574 0.5522 0.5469
910.000000 0.5417 0.5364 0.5312 0.5259 0.5207
905.000000 0.5154 0.5104 0.5060 0.5017 0.4973
900.000000 0.4929 0.4886 0.4842 0.4798 0.4755
895.000000 0.4714 0.4673 0.4632 0.4591 0.4549
890.000000 0.4508 0.4467 0.4433 0.4403 0.4374
885.000000 0.4344 0.4315 0.4285 0.4256 0.4226
880.000000 0.4197 0.4167 0.4138 0.4109 0.4080
875.000000 0.4050 0.4022 0.3993 0.3964 0.3940
870.000000 0.3914 0.3890 0.3864 0.3841 0.3816
865.000000 0.3794 0.3772 0.3750 0.3728 0.3706
860.000000 0.3684 0.3671 0.3659 0.3648 0.3637
855.000000 0.3626 0.3614 0.3603 0.3592 0.3582
850.000000 0.3572 0.3562 0.3552 0.3542 0.3532
845.000000 0.3520 0.3507 0.3495 0.3482 0.3468
840.000000 0.3456 0.3444 0.3432 0.3420 0.3408
835.000000 0.3396 0.3382 0.3371 0.3358 0.3346
830.000000 0.3330 0.3310 0.3292 0.3272 0.3252
825.000000 0.3232 0.3210 0.3184 0.3160 0.3134
820.000000 0.3109 0.3082 0.3055 0.3028 0.3001
815.000000 0.2975 0.2948 0.2919 0.2889 0.2859
810.000000 0.2829 0.2798 0.2768 0.2738 0.2709
805.000000 0.2679 0.2649 0.2620 0.2590 0.2560
800.000000 0.2530 0.2498 0.2465 0.2433 0.2401
795.000000 0.2368 0.2334 0.2301 0.2267 0.2234
790.000000 0.2200 0.2157 0.2104 0.2051 0.1998
785.000000 0.1944 0.1893 0.1848 0.1802 0.1758
780.000000 0.1717 0.1677 0.1635 0.1595 0.1557
775.000000 0.1519 0.1482 0.1444 0.1406 0.1368
770.000000 0.1330 0.1289 0.1246 0.1203 0.1160
765.000000 0.1117 0.1074 0.1033 0.0992 0.0951
760.000000 0.0910 0.0871 0.0833 0.0794 0.0762
755.000000 0.0736 0.0711 0.0685 0.0667 0.0650
750.000000 0.0633 0.0618 0.0603 0.0588 0.0572
745.000000 0.0558 0.0545 0.0532 0.0525 0.0519
740.000000 0.0515 0.0517 0.0518 0.0519 0.0520
735.000000 0.0521 0.0521 0.0521 0.0521 0.0520
730.000000 0.0531 0.0546 0.0564 0.0582 0.0600
725.000000 0.0617 0.0635 0.0653 0.0674 0.0694
720.000000 0.0716 0.0745 0.0779 0.0813 0.0865
715.000000 0.0934 0.0992 0.1050 0.1108 0.1164
710.000000 0.1216 0.1268 0.1320 0.1372 0.1424
705.000000 0.1473 0.1513 0.1553 0.1592 0.1633
700.000000 0.1673 0.1712 0.1751 0.1790 0.1829
695.000000 0.1869 0.1909 0.1950 0.1990 0.2032
690.000000 0.2074 0.2116 0.2152 0.2184 0.2216
685.000000 0.2244 0.2272 0.2299 0.2326 0.2345
680.000000 0.2359 0.2362 0.2364 0.2366 0.2368
675.000000 0.2371 0.2375 0.2380 0.2384 0.2391
670.000000 0.2396 0.2407 0.2419 0.2431 0.2444
665.000000 0.2456 0.2468 0.2480 0.2493 0.2506
660.000000 0.2520 0.2534 0.2547 0.2561 0.2574
655.000000 0.2588 0.2602 0.2615 0.2629 0.2643
650.000000 0.2657 0.2671 0.2685 0.2700 0.2712
645.000000 0.2722 0.2732 0.2741 0.2751 0.2761
640.000000 0.2772 0.2783 0.2794 0.2805 0.2817
635.000000 0.2828 0.2838 0.2848 0.2858 0.2868
630.000000 0.2878 0.2888 0.2897 0.2906 0.2914
625.000000 0.2922 0.2927 0.2929 0.2931 0.2933
620.000000 0.2934 0.2935 0.2938 0.2939 0.2939
615.000000 0.2939 0.2937 0.2933 0.2929 0.2925
610.000000 0.2918 0.2908 0.2952 0.2890 0.2875
605.000000 0.2859 0.2844 0.2827 0.2808 0.2789
600.000000 0.2770 0.2751 0.2727 0.2703 0.2675
595.000000 0.2647 0.2619 0.2577 0.2530 0.2482
590.000000 0.2433 0.2384 0.2337 0.2288 0.2240
585.000000 0.2192 0.2143 0.2079 0.1996 0.1904
580.000000 0.1808 0.1711 0.1614 0.1514 0.1385
575.000000 0.1273 0.1183 0.1090 0.0999 0.0922
570.000000 0.0861 0.0820 0.0784 0.0755 0.0743
565.000000 0.0736 0.0736 0.0737 0.0741 0.0748
560.000000 0.0754 0.0760 0.0766 0.0770 0.0774
555.000000 0.0778 0.0782 0.0785 0.0784 0.0783
550.000000 0.0782 0.0782 0.0781 0.0780 0.0778
545.000000 0.0776 0.0774 0.0772 0.0770 0.0768
540.000000 0.0766 0.0764 0.0764 0.0764 0.0765
535.000000 0.0765 0.0766 0.0768 0.0772 0.0776
530.000000 0.0780 0.0785 0.0789 0.0797 0.0809
525.000000 0.0821 0.0832 0.0853 0.0875 0.0896
520.000000 0.0931 0.0965 0.1003 0.1056 0.1110
515.000000 0.1163 0.1217 0.1282 0.1352 0.1423
510.000000 0.1491 0.1557 0.1624 0.1690 0.1758
505.000000 0.1827 0.1896 0.1979 0.2078 0.2176
500.000000 0.2285 0.2399 0.2508 0.2592 0.2676
495.000000 0.2760 0.2846 0.2931 0.3006 0.3073
490.000000 0.3140 0.3207 0.3264 0.3320 0.3376
485.000000 0.3432 0.3489 0.3547 0.3609 0.3673
480.000000 0.3728 0.3784 0.3840 0.3892 0.3930
475.000000 0.3966 0.4005 0.4032 0.4058 0.4084
470.000000 0.4110 0.4136 0.4162 0.4183 0.4202
465.000000 0.4220 0.4238 0.4256 0.4268 0.4280
460.000000 0.4292 0.4305 0.4317 0.4324 0.4331
455.000000 0.4339 0.4344 0.4349 0.4354 0.4358
450.000000 0.4362 0.4364 0.4365 0.4366 0.4367
445.000000 0.4368 0.4368 0.4368 0.4366 0.4364
440.000000 0.4362 0.4359 0.4353 0.4348 0.4342
435.000000 0.4331 0.4320 0.4308 0.4297 0.4283
430.000000 0.4269 0.4255 0.4242 0.4228 0.4212
425.000000 0.4194 0.4176 0.4160 0.4148 0.4136
420.000000 0.4123 0.4110 0.4099 0.4088 0.4077
415.000000 0.4066 0.4054 0.4044 0.4032 0.4022
410.000000 0.4010 0.4000 0.3991 0.3982 0.3974
405.000000 0.3964 0.3957 0.3949 0.3941
##END=
