##TITLE=1-AMINO-2,6-DIMETHYLPIPERIDINE DIHYDROCHLORIDE
##JCAMP-DX=4.24
##DATA TYPE=INFRARED SPECTRUM
##CLASS=COBLENTZ III
##ORIGIN=DOW CHEMICAL COMPANY
##OWNER=COBLENTZ SOCIETY
Collection (C) 2018 copyright by the U.S. Secretary of Commerce
on behalf of the United States of America. All rights reserved.
##DATE=1965/03/09
##MOLFORM=C7 H18 Cl2 N2
##MP=289 C
##SOURCE REFERENCE=COBLENTZ NO. 7891
##$NIST ID=B6007891
##$NIST SOURCE=COBLENTZ
##$NIST IMAGE=cob7891
##SPECTROMETER/DATA SYSTEM=DOW KBr FOREPRISM-GRATING
##INSTRUMENT PARAMETERS=BLAZED AT 3.5, 12.0, 20.0 MICRON AND CHANGED AT 5.0, 7.5, 14.9 MICRON
##STATE=SOLID (SPLIT MULL), FLUOROLUBE FOR 3800-1335 CM^-^1, NUJOL FOR 1335-460 CM^-^1
$$SPECTRAL CONTAMINATION DUE TO OIL AROUND 720 CM^-^1
##SAMPLING PROCEDURE=TRANSMISSION
##RESOLUTION=2
##DATA PROCESSING=DIGITIZED BY NIST FROM HARD COPY (FROM TWO SEGMENTS)
##XUNITS=1/CM
##YUNITS=TRANSMITTANCE
##XFACTOR=1.000000
##YFACTOR=1
##DELTAX=0.879122
##FIRSTX=458.022
##LASTX=3798.69
##FIRSTY=0.76
##MAXX=3798.69
##MINX=458.022
##MAXY=0.987
##MINY=0.054
##NPOINTS=3801
##XYDATA=(X++(Y..Y))
458.022000 0.7600 0.7600 0.7600 0.7600 0.7600
462.417611 0.7600 0.7600 0.7600 0.7600 0.7600
466.813223 0.7600 0.7600 0.7600 0.7600 0.7600
471.208834 0.7600 0.7580 0.7580 0.7580 0.7580
475.604446 0.7570 0.7540 0.7530 0.7500 0.7470
480.000057 0.7430 0.7380 0.7270 0.7160 0.7100
484.395669 0.7080 0.7050 0.7000 0.6910 0.6760
488.791280 0.6521 0.6161 0.5672 0.5013 0.4015
493.186891 0.3980 0.4000 0.4050 0.4170 0.5048
497.582503 0.5748 0.6318 0.6788 0.7188 0.7538
501.978114 0.7890 0.7940 0.8000 0.8000 0.8010
506.373726 0.8020 0.8050 0.8060 0.8090 0.8090
510.769337 0.8100 0.8120 0.8120 0.8120 0.8120
515.164949 0.8120 0.8120 0.8120 0.8120 0.8120
519.560560 0.8120 0.8120 0.8100 0.8090 0.8090
523.956171 0.8090 0.8090 0.8090 0.8090 0.8090
528.351783 0.8090 0.8100 0.8100 0.8120 0.8120
532.747394 0.8120 0.8130 0.8130 0.8150 0.8150
537.143006 0.8150 0.8150 0.8150 0.8150 0.8150
541.538617 0.8150 0.8130 0.8130 0.8130 0.8120
545.934229 0.8120 0.8120 0.8100 0.8020 0.7910
550.329840 0.7800 0.7690 0.7531 0.7470 0.7361
554.725451 0.7150 0.6610 0.5940 0.5381 0.5350
559.121063 0.5360 0.6666 0.7198 0.8116 0.8170
563.516674 0.8190 0.8200 0.8200 0.8230 0.8240
567.912286 0.8260 0.8280 0.8300 0.8310 0.8320
572.307897 0.8340 0.8350 0.8350 0.8360 0.8360
576.703509 0.8380 0.8390 0.8410 0.8410 0.8420
581.099120 0.8430 0.8430 0.8450 0.8460 0.8470
585.494731 0.8470 0.8470 0.8490 0.8490 0.8490
589.890343 0.8500 0.8500 0.8500 0.8500 0.8520
594.285954 0.8520 0.8520 0.8520 0.8530 0.8530
598.681566 0.8530 0.8530 0.8540 0.8540 0.8560
603.077177 0.8560 0.8560 0.8560 0.8560 0.8560
607.472789 0.8560 0.8560 0.8560 0.8560 0.8540
611.868400 0.8540 0.8530 0.8530 0.8530 0.8530
616.264011 0.8530 0.8530 0.8530 0.8520 0.8520
620.659623 0.8520 0.8520 0.8520 0.8520 0.8520
625.055234 0.8520 0.8520 0.8520 0.8530 0.8530
629.450846 0.8530 0.8530 0.8540 0.8540 0.8560
633.846457 0.8560 0.8560 0.8560 0.8560 0.8560
638.242069 0.8560 0.8560 0.8560 0.8560 0.8560
642.637680 0.8560 0.8560 0.8570 0.8570 0.8570
647.033291 0.8570 0.8570 0.8570 0.8570 0.8570
651.428903 0.8570 0.8570 0.8570 0.8570 0.8570
655.824514 0.8570 0.8570 0.8570 0.8570 0.8570
660.220126 0.8570 0.8570 0.8570 0.8570 0.8570
664.615737 0.8570 0.8570 0.8580 0.8600 0.8600
669.011349 0.8690 0.8820 0.8900 0.8910 0.8910
673.406960 0.8910 0.8900 0.8820 0.8800 0.8800
677.802571 0.8820 0.8800 0.8800 0.8800 0.8800
682.198183 0.8800 0.8800 0.8800 0.8790 0.8790
686.593794 0.8790 0.8780 0.8760 0.8760 0.8750
690.989406 0.8750 0.8730 0.8720 0.8720 0.8710
695.385017 0.8720 0.8720 0.8720 0.8710 0.8710
699.780629 0.8690 0.8690 0.8680 0.8680 0.8670
704.176240 0.8650 0.8610 0.8600 0.8560 0.8560
708.571851 0.8540 0.8530 0.8520 0.8490 0.8420
712.967463 0.8360 0.8350 0.8310 0.8270 0.8160
717.363074 0.8090 0.8020 0.7970 0.7930 0.7890
721.758686 0.7870 0.7860 0.7860 0.7910 0.7950
726.154297 0.7970 0.8050 0.8100 0.8100 0.8150
730.549909 0.8190 0.8200 0.8210 0.8230 0.8230
734.945520 0.8230 0.8240 0.8260 0.8260 0.8300
739.341131 0.8310 0.8320 0.8360 0.8360 0.8380
743.736743 0.8390 0.8430 0.8450 0.8460 0.8470
748.132354 0.8500 0.8500 0.8520 0.8520 0.8530
752.527966 0.8530 0.8540 0.8540 0.8560 0.8560
756.923577 0.8560 0.8560 0.8560 0.8560 0.8560
761.319189 0.8560 0.8560 0.8560 0.8570 0.8570
765.714800 0.8570 0.8570 0.8570 0.8570 0.8570
770.110412 0.8570 0.8570 0.8580 0.8570 0.8570
774.506023 0.8580 0.8580 0.8600 0.8610 0.8610
778.901634 0.8610 0.8610 0.8600 0.8580 0.8570
783.297246 0.8560 0.8560 0.8540 0.8530 0.8530
787.692857 0.8500 0.8500 0.8500 0.8500 0.8520
792.088469 0.8570 0.8600 0.8630 0.8650 0.8670
796.484080 0.8670 0.8680 0.8690 0.8690 0.8680
800.879692 0.8680 0.8680 0.8680 0.8680 0.8680
805.275303 0.8680 0.8680 0.8680 0.8680 0.8680
809.670914 0.8680 0.8680 0.8680 0.8670 0.8670
814.066526 0.8650 0.8640 0.8630 0.8600 0.8600
818.462137 0.8600 0.8600 0.8600 0.8600 0.8580
822.857749 0.8580 0.8570 0.8560 0.8540 0.8520
827.253360 0.8500 0.8490 0.8450 0.8430 0.8450
831.648972 0.8450 0.8470 0.8470 0.8500 0.8520
836.044583 0.8520 0.8520 0.8520 0.8520 0.8520
840.440194 0.8520 0.8520 0.8520 0.8520 0.8520
844.835806 0.8520 0.8500 0.8500 0.8500 0.8500
849.231417 0.8490 0.8490 0.8490 0.8470 0.8470
853.627029 0.8460 0.8450 0.8430 0.8420 0.8410
858.022640 0.8390 0.8380 0.8380 0.8340 0.8310
862.418252 0.8300 0.8280 0.8200 0.8060 0.7890
866.813863 0.7750 0.7730 0.7750 0.8208 0.8339
871.209474 0.8420 0.8430 0.8430 0.8430 0.8430
875.605086 0.8420 0.8410 0.8380 0.8360 0.8340
880.000697 0.8320 0.8300 0.8260 0.8190 0.8100
884.396309 0.7980 0.7800 0.6634 0.6421 0.6171
888.791920 0.6150 0.6160 0.6610 0.8169 0.8240
893.187532 0.8300 0.8310 0.8320 0.8340 0.8350
897.583143 0.8360 0.8380 0.8380 0.8380 0.8380
901.978754 0.8380 0.8380 0.8360 0.8360 0.8360
906.374366 0.8360 0.8350 0.8310 0.8310 0.8310
910.769977 0.8310 0.8310 0.8310 0.8310 0.8310
915.165589 0.8310 0.8310 0.8310 0.8310 0.8310
919.561200 0.8310 0.8310 0.8350 0.8350 0.8350
923.956812 0.8350 0.8350 0.8350 0.8350 0.8350
928.352423 0.8350 0.8350 0.8340 0.8320 0.8310
932.748034 0.8300 0.8280 0.8280 0.8300 0.8300
937.143646 0.8300 0.8300 0.8310 0.8300 0.8270
941.539257 0.8240 0.8210 0.8190 0.8160 0.8130
945.934869 0.8120 0.8080 0.8000 0.7930 0.7761
950.330480 0.7640 0.7470 0.7450 0.7470 0.7630
954.726092 0.7730 0.7830 0.7930 0.7930 0.7930
959.121703 0.7930 0.7790 0.7570 0.6891 0.6860
963.517314 0.6930 0.7010 0.7189 0.7339 0.7459
967.912926 0.7450 0.7300 0.7090 0.6910 0.6750
972.308537 0.6670 0.6580 0.6420 0.6360 0.6320
976.704149 0.6490 0.6640 0.6860 0.7120 0.7340
981.099760 0.7709 0.7910 0.8020 0.8090 0.8130
985.495372 0.8190 0.8240 0.8280 0.8280 0.8280
989.890983 0.8280 0.8280 0.8270 0.8270 0.8270
994.286594 0.8240 0.8230 0.8210 0.8200 0.8160
998.682206 0.8150 0.8040 0.7890 0.7721 0.7531
1003.077817 0.7320 0.7130 0.6940 0.6450 0.4872
1007.473429 0.4611 0.4650 0.5906 0.7006 0.7727
1011.869040 0.7930 0.8020 0.8100 0.8130 0.8130
1016.264652 0.8160 0.8170 0.8170 0.8170 0.8190
1020.660263 0.8190 0.8190 0.8190 0.8170 0.8160
1025.055874 0.8130 0.8120 0.8120 0.8090 0.8050
1029.451486 0.8000 0.7970 0.7940 0.7940 0.7940
1033.847097 0.7970 0.7970 0.8010 0.8040 0.8050
1038.242709 0.8060 0.8080 0.8090 0.8100 0.8100
1042.638320 0.8120 0.8120 0.8120 0.8100 0.8100
1047.033932 0.8090 0.8040 0.8020 0.7940 0.7890
1051.429543 0.7730 0.7520 0.7231 0.7190 0.7190
1055.825154 0.7170 0.7200 0.7380 0.7470 0.7500
1060.220766 0.7500 0.7460 0.6842 0.5843 0.5840
1064.616377 0.5730 0.5731 0.7190 0.7670 0.7780
1069.011989 0.7830 0.7860 0.7860 0.7870 0.7870
1073.407600 0.7890 0.7890 0.7900 0.7910 0.7910
1077.803212 0.7930 0.7950 0.7980 0.8010 0.8040
1082.198823 0.8060 0.8100 0.8150 0.8170 0.8170
1086.594434 0.8190 0.8190 0.8190 0.8190 0.8190
1090.990046 0.8190 0.8190 0.8170 0.8130 0.8120
1095.385657 0.8060 0.8020 0.7950 0.7900 0.7830
1099.781269 0.7730 0.7580 0.7360 0.7050 0.6760
1104.176880 0.6610 0.6301 0.5731 0.5242 0.5210
1108.572492 0.5200 0.5190 0.5280 0.5860 0.7019
1112.968103 0.7320 0.7420 0.7520 0.7570 0.7640
1117.363714 0.7780 0.7930 0.7940 0.8040 0.8120
1121.759326 0.8130 0.8150 0.8170 0.8190 0.8190
1126.154937 0.8200 0.8200 0.8200 0.8200 0.8200
1130.550549 0.8200 0.8200 0.8190 0.8160 0.8160
1134.946160 0.8150 0.8130 0.8130 0.8120 0.8100
1139.341772 0.8090 0.8080 0.8060 0.8060 0.8060
1143.737383 0.8080 0.8080 0.8080 0.8080 0.8080
1148.132994 0.8100 0.8100 0.8120 0.8120 0.8120
1152.528606 0.8120 0.8120 0.8100 0.8100 0.8100
1156.924217 0.8100 0.8100 0.8090 0.8090 0.8090
1161.319829 0.7980 0.7950 0.7950 0.7930 0.7930
1165.715440 0.7930 0.7930 0.7930 0.7910 0.7910
1170.111052 0.7900 0.7860 0.7820 0.7750 0.7680
1174.506663 0.7600 0.7490 0.7380 0.7201 0.6941
1178.902274 0.6819 0.6410 0.6210 0.5980 0.5970
1183.297886 0.6000 0.6150 0.6230 0.6360 0.6709
1187.693497 0.7160 0.7410 0.7570 0.7570 0.7580
1192.089109 0.7570 0.7570 0.7470 0.7320 0.6901
1196.484720 0.6600 0.6580 0.6580 0.6720 0.7409
1200.880332 0.7719 0.8039 0.8090 0.8120 0.8120
1205.275943 0.8120 0.8120 0.8120 0.8120 0.8120
1209.671554 0.8120 0.8120 0.8120 0.8120 0.8120
1214.067166 0.8120 0.8100 0.8090 0.8080 0.8080
1218.462777 0.8060 0.8040 0.8010 0.7980 0.7940
1222.858389 0.7470 0.7360 0.7080 0.7060 0.7080
1227.254000 0.7240 0.7420 0.7649 0.7839 0.7970
1231.649612 0.8060 0.8130 0.8130 0.8130 0.8130
1236.045223 0.8120 0.8120 0.8120 0.8100 0.8100
1240.440834 0.8090 0.8080 0.8080 0.8060 0.8050
1244.836446 0.8040 0.8010 0.7970 0.7950 0.7940
1249.232057 0.7930 0.7930 0.7910 0.7910 0.7910
1253.627669 0.7910 0.7910 0.7930 0.7940 0.7930
1258.023280 0.7930 0.7930 0.7930 0.7930 0.7910
1262.418892 0.7890 0.7890 0.7870 0.7860 0.7840
1266.814503 0.7830 0.7830 0.7820 0.7800 0.7790
1271.210114 0.7760 0.7750 0.7730 0.7730 0.7730
1275.605726 0.7730 0.7730 0.7710 0.7680 0.7670
1280.001337 0.7630 0.7580 0.7580 0.7580 0.7580
1284.396949 0.7580 0.7630 0.7650 0.7670 0.7690
1288.792560 0.7730 0.7750 0.7750 0.7760 0.7750
1293.188172 0.7750 0.7750 0.7750 0.7750 0.7720
1297.583783 0.7690 0.7670 0.7650 0.7630 0.7610
1301.979394 0.7600 0.7570 0.7540 0.7530 0.7490
1306.375006 0.7460 0.7450 0.7420 0.7390 0.7310
1310.770617 0.7210 0.6980 0.6710 0.6390 0.5870
1315.166229 0.5830 0.5830 0.5870 0.6528 0.6929
1319.561840 0.7060 0.7210 0.7360 0.7430 0.7490
1323.957452 0.7490 0.7490 0.7490 0.7500 0.7500
1328.353063 0.7500 0.7500 0.7500 0.7490 0.7490
1332.748674 0.7490 0.7500 0.7490 0.7460 0.7430
1337.144286 0.7420 0.7420 0.7390 0.7340 0.7320
1341.539897 0.7240 0.7160 0.7010 0.6930 0.6840
1345.935509 0.6760 0.6730 0.6730 0.6760 0.6930
1350.331120 0.6950 0.7120 0.7280 0.7360 0.7420
1354.726732 0.7420 0.7420 0.7430 0.7430 0.7430
1359.122343 0.7450 0.7470 0.7600 0.7799 0.7820
1363.517955 0.7820 0.7820 0.7800 0.7790 0.7780
1367.913566 0.7760 0.7750 0.7730 0.7640 0.7540
1372.309177 0.7350 0.7210 0.7100 0.6840 0.6490
1376.704789 0.5521 0.5490 0.5500 0.5889 0.5900
1381.100400 0.5898 0.4778 0.2950 0.2930 0.2930
1385.496012 0.3150 0.3350 0.3559 0.3779 0.4169
1389.891623 0.4193 0.5572 0.7280 0.7890 0.7900
1394.287235 0.8080 0.8090 0.8120 0.8120 0.8120
1398.682846 0.8120 0.8130 0.8130 0.8150 0.8190
1403.078457 0.8190 0.8190 0.8170 0.8170 0.8150
1407.474069 0.8130 0.8120 0.8120 0.8100 0.8100
1411.869680 0.8100 0.8100 0.8100 0.8120 0.8130
1416.265292 0.8150 0.8160 0.8170 0.8170 0.8200
1420.660903 0.8210 0.8210 0.8210 0.8200 0.8190
1425.056515 0.8150 0.8120 0.8040 0.7940 0.7820
1429.452126 0.7760 0.7640 0.7500 0.7171 0.6861
1433.847737 0.6689 0.6209 0.5470 0.5270 0.5270
1438.243349 0.5310 0.5799 0.6409 0.6689 0.6939
1442.638960 0.6980 0.7010 0.7020 0.7100 0.7170
1447.034572 0.7260 0.7350 0.7460 0.7460 0.7460
1451.430183 0.7210 0.6970 0.6840 0.6670 0.6170
1455.825795 0.5641 0.5610 0.5610 0.5610 0.5610
1460.221406 0.5610 0.5580 0.5500 0.5100 0.4840
1464.617017 0.4520 0.4121 0.3541 0.3520 0.3520
1469.012629 0.3631 0.4391 0.4970 0.5560 0.6160
1473.408240 0.6689 0.7089 0.7339 0.7450 0.7629
1477.803852 0.7861 0.8231 0.8570 0.8800 0.8980
1482.199463 0.9090 0.9160 0.9200 0.9230 0.9260
1486.595075 0.9310 0.9320 0.9340 0.9360 0.9410
1490.990686 0.9430 0.9450 0.9460 0.9460 0.9460
1495.386297 0.9460 0.9460 0.9460 0.9450 0.9450
1499.781909 0.9430 0.9430 0.9410 0.9390 0.9380
1504.177520 0.9360 0.9350 0.9340 0.9320 0.9310
1508.573132 0.9280 0.9280 0.9270 0.9260 0.9240
1512.968743 0.9230 0.9210 0.9200 0.9170 0.9170
1517.364355 0.9160 0.9160 0.9160 0.9160 0.9160
1521.759966 0.9150 0.9150 0.9130 0.9130 0.9130
1526.155577 0.9120 0.9120 0.9120 0.9120 0.9120
1530.551189 0.9120 0.9120 0.9130 0.9130 0.9150
1534.946800 0.9170 0.9190 0.9190 0.9200 0.9200
1539.342412 0.9230 0.9230 0.9230 0.9240 0.9240
1543.738023 0.9240 0.9240 0.9230 0.9210 0.9200
1548.133635 0.9200 0.9200 0.9190 0.9190 0.9190
1552.529246 0.9190 0.9190 0.9190 0.9200 0.9200
1556.924857 0.9210 0.9230 0.9260 0.9270 0.9270
1561.320469 0.9280 0.9280 0.9280 0.9270 0.9270
1565.716080 0.9260 0.9240 0.9230 0.9200 0.9190
1570.111692 0.9170 0.9150 0.9120 0.9120 0.9080
1574.507303 0.9040 0.9000 0.8970 0.8930 0.8900
1578.902915 0.8780 0.8720 0.8530 0.8320 0.7951
1583.298526 0.7579 0.7239 0.6499 0.5650 0.3321
1587.694137 0.3150 0.2970 0.2940 0.2950 0.4046
1592.089749 0.7311 0.7871 0.8311 0.9130 0.9360
1596.485360 0.9540 0.9610 0.9670 0.9690 0.9690
1600.880972 0.9680 0.9650 0.9600 0.9530 0.9520
1605.276583 0.9500 0.9530 0.9580 0.9670 0.9780
1609.672195 0.9800 0.9870 0.9870 0.9870 0.9870
1614.067806 0.9870 0.9870 0.9870 0.9870 0.9860
1618.463417 0.9840 0.9830 0.9830 0.9820 0.9790
1622.859029 0.9780 0.9760 0.9750 0.9730 0.9710
1627.254640 0.9680 0.9680 0.9680 0.9670 0.9680
1631.650252 0.9690 0.9710 0.9720 0.9720 0.9720
1636.045863 0.9720 0.9720 0.9720 0.9720 0.9720
1640.441475 0.9720 0.9720 0.9720 0.9720 0.9710
1644.837086 0.9710 0.9690 0.9690 0.9680 0.9670
1649.232697 0.9650 0.9640 0.9610 0.9580 0.9560
1653.628309 0.9540 0.9500 0.9470 0.9450 0.9430
1658.023920 0.9420 0.9420 0.9420 0.9420 0.9430
1662.419532 0.9450 0.9460 0.9470 0.9490 0.9490
1666.815143 0.9500 0.9540 0.9540 0.9540 0.9540
1671.210755 0.9560 0.9540 0.9540 0.9560 0.9560
1675.606366 0.9540 0.9540 0.9560 0.9560 0.9570
1680.001977 0.9570 0.9580 0.9600 0.9610 0.9630
1684.397589 0.9640 0.9640 0.9650 0.9670 0.9680
1688.793200 0.9680 0.9680 0.9710 0.9710 0.9710
1693.188812 0.9710 0.9710 0.9710 0.9710 0.9710
1697.584423 0.9710 0.9710 0.9710 0.9710 0.9710
1701.980035 0.9710 0.9710 0.9690 0.9680 0.9680
1706.375646 0.9650 0.9650 0.9640 0.9640 0.9640
1710.771257 0.9640 0.9640 0.9640 0.9640 0.9630
1715.166869 0.9610 0.9600 0.9580 0.9570 0.9560
1719.562480 0.9560 0.9560 0.9540 0.9470 0.9450
1723.958092 0.9430 0.9420 0.9420 0.9420 0.9420
1728.353703 0.9420 0.9420 0.9410 0.9410 0.9420
1732.749315 0.9430 0.9450 0.9460 0.9470 0.9490
1737.144926 0.9540 0.9560 0.9560 0.9540 0.9560
1741.540537 0.9560 0.9560 0.9560 0.9560 0.9560
1745.936149 0.9560 0.9560 0.9560 0.9560 0.9560
1750.331760 0.9540 0.9540 0.9560 0.9560 0.9560
1754.727372 0.9560 0.9560 0.9560 0.9560 0.9560
1759.122983 0.9540 0.9540 0.9530 0.9500 0.9490
1763.518595 0.9470 0.9470 0.9490 0.9530 0.9530
1767.914206 0.9540 0.9540 0.9530 0.9540 0.9540
1772.309817 0.9560 0.9560 0.9560 0.9570 0.9570
1776.705429 0.9570 0.9570 0.9570 0.9570 0.9580
1781.101040 0.9580 0.9570 0.9570 0.9570 0.9570
1785.496652 0.9560 0.9560 0.9560 0.9540 0.9540
1789.892263 0.9540 0.9540 0.9540 0.9530 0.9540
1794.287875 0.9540 0.9540 0.9540 0.9540 0.9540
1798.683486 0.9540 0.9540 0.9540 0.9540 0.9540
1803.079097 0.9540 0.9540 0.9540 0.9530 0.9530
1807.474709 0.9530 0.9530 0.9530 0.9520 0.9520
1811.870320 0.9500 0.9470 0.9470 0.9470 0.9470
1816.265932 0.9470 0.9460 0.9460 0.9460 0.9460
1820.661543 0.9450 0.9450 0.9430 0.9430 0.9430
1825.057155 0.9430 0.9430 0.9430 0.9430 0.9450
1829.452766 0.9450 0.9450 0.9430 0.9420 0.9420
1833.848377 0.9420 0.9410 0.9410 0.9390 0.9390
1838.243989 0.9390 0.9390 0.9410 0.9410 0.9410
1842.639600 0.9410 0.9410 0.9410 0.9410 0.9410
1847.035212 0.9390 0.9390 0.9380 0.9380 0.9380
1851.430823 0.9350 0.9350 0.9340 0.9320 0.9270
1855.826435 0.9240 0.9230 0.9210 0.9210 0.9210
1860.222046 0.9210 0.9210 0.9200 0.9200 0.9200
1864.617657 0.9230 0.9270 0.9320 0.9340 0.9350
1869.013269 0.9380 0.9390 0.9390 0.9390 0.9390
1873.408880 0.9390 0.9390 0.9390 0.9390 0.9390
1877.804492 0.9390 0.9390 0.9390 0.9390 0.9390
1882.200103 0.9390 0.9390 0.9380 0.9380 0.9350
1886.595715 0.9340 0.9340 0.9340 0.9340 0.9340
1890.991326 0.9340 0.9340 0.9340 0.9340 0.9340
1895.386937 0.9360 0.9380 0.9390 0.9390 0.9410
1899.782549 0.9410 0.9420 0.9430 0.9450 0.9450
1904.178160 0.9460 0.9460 0.9460 0.9460 0.9470
1908.573772 0.9490 0.9490 0.9490 0.9490 0.9500
1912.969383 0.9500 0.9520 0.9500 0.9500 0.9500
1917.364995 0.9490 0.9490 0.9470 0.9470 0.9460
1921.760606 0.9450 0.9430 0.9420 0.9410 0.9380
1926.156217 0.9360 0.9350 0.9320 0.9320 0.9310
1930.551829 0.9270 0.9210 0.9190 0.9150 0.9120
1934.947440 0.9060 0.9060 0.9060 0.9060 0.9060
1939.343052 0.9060 0.9060 0.9060 0.9060 0.9080
1943.738663 0.9100 0.9120 0.9160 0.9190 0.9200
1948.134275 0.9210 0.9240 0.9260 0.9300 0.9340
1952.529886 0.9350 0.9350 0.9360 0.9410 0.9430
1956.925497 0.9450 0.9460 0.9470 0.9470 0.9470
1961.321109 0.9470 0.9490 0.9490 0.9490 0.9500
1965.716720 0.9500 0.9500 0.9500 0.9540 0.9540
1970.112332 0.9540 0.9540 0.9540 0.9540 0.9540
1974.507943 0.9520 0.9500 0.9500 0.9490 0.9490
1978.903555 0.9490 0.9490 0.9470 0.9470 0.9470
1983.299166 0.9460 0.9460 0.9470 0.9470 0.9470
1987.694778 0.9460 0.9460 0.9460 0.9460 0.9450
1992.090389 0.9450 0.9450 0.9430 0.9420 0.9420
1996.486000 0.9410 0.9410 0.9390 0.9380 0.9380
2000.881612 0.9365 0.9350 0.9350 0.9350 0.9350
2005.277223 0.9350 0.9350 0.9350 0.9350 0.9350
2009.672835 0.9350 0.9350 0.9350 0.9350 0.9345
2014.068446 0.9340 0.9340 0.9340 0.9340 0.9340
2018.464058 0.9340 0.9340 0.9340 0.9340 0.9330
2022.859669 0.9320 0.9320 0.9320 0.9320 0.9320
2027.255280 0.9320 0.9320 0.9320 0.9320 0.9320
2031.650892 0.9320 0.9320 0.9320 0.9320 0.9320
2036.046503 0.9320 0.9320 0.9320 0.9320 0.9315
2040.442115 0.9310 0.9310 0.9310 0.9305 0.9300
2044.837726 0.9300 0.9300 0.9290 0.9280 0.9280
2049.233338 0.9280 0.9275 0.9270 0.9255 0.9240
2053.628949 0.9220 0.9200 0.9200 0.9200 0.9195
2058.024560 0.9190 0.9190 0.9190 0.9171 0.9151
2062.420172 0.9135 0.9120 0.9091 0.9061 0.9050
2066.815783 0.9040 0.9026 0.9011 0.9010 0.9010
2071.211395 0.8976 0.8941 0.8916 0.8891 0.8807
2075.607006 0.8723 0.8705 0.8690 0.8637 0.8582
2080.002618 0.8392 0.8197 0.7878 0.7553 0.7530
2084.398229 0.7520 0.7530 0.7540 0.7607 0.7678
2088.793840 0.7733 0.7788 0.7848 0.7908 0.7953
2093.189452 0.7998 0.8029 0.8059 0.8079 0.8099
2097.585063 0.8110 0.8120 0.8153 0.8188 0.8347
2101.980675 0.8512 0.8615 0.8715 0.8820 0.8926
2106.376286 0.9022 0.9116 0.9120 0.9120 0.9120
2110.771898 0.9120 0.9120 0.9120 0.9120 0.9120
2115.167509 0.9120 0.9120 0.9111 0.9101 0.9100
2119.563120 0.9100 0.9100 0.9100 0.9100 0.9100
2123.958732 0.9095 0.9090 0.9090 0.9090 0.9090
2128.354343 0.9090 0.9090 0.9090 0.9076 0.9061
2132.749955 0.9055 0.9050 0.9045 0.9040 0.9040
2137.145566 0.9040 0.9031 0.9021 0.9001 0.8981
2141.541178 0.8956 0.8931 0.8911 0.8891 0.8847
2145.936789 0.8802 0.8791 0.8781 0.8780 0.8780
2150.332400 0.8780 0.8780 0.8757 0.8732 0.8725
2154.728012 0.8720 0.8720 0.8720 0.8720 0.8720
2159.123623 0.8720 0.8720 0.8725 0.8730 0.8753
2163.519235 0.8778 0.8789 0.8799 0.8800 0.8800
2167.914846 0.8800 0.8800 0.8800 0.8800 0.8795
2172.310458 0.8790 0.8785 0.8780 0.8780 0.8780
2176.706069 0.8780 0.8780 0.8780 0.8780 0.8780
2181.101680 0.8780 0.8789 0.8799 0.8814 0.8829
2185.497292 0.8844 0.8859 0.8865 0.8870 0.8865
2189.892903 0.8860 0.8860 0.8860 0.8860 0.8860
2194.288515 0.8846 0.8831 0.8825 0.8820 0.8820
2198.684126 0.8820 0.8806 0.8791 0.8776 0.8761
2203.079738 0.8746 0.8731 0.8725 0.8720 0.8715
2207.475349 0.8710 0.8710 0.8710 0.8701 0.8691
2211.870960 0.8690 0.8690 0.8690 0.8690 0.8690
2216.266572 0.8690 0.8690 0.8690 0.8690 0.8690
2220.662183 0.8690 0.8690 0.8699 0.8709 0.8701
2225.057795 0.8691 0.8690 0.8690 0.8690 0.8690
2229.453406 0.8681 0.8671 0.8656 0.8641 0.8613
2233.849018 0.8583 0.8575 0.8570 0.8565 0.8560
2238.244629 0.8551 0.8541 0.8535 0.8530 0.8525
2242.640240 0.8520 0.8511 0.8501 0.8495 0.8490
2247.035852 0.8476 0.8461 0.8446 0.8431 0.8412
2251.431463 0.8392 0.8358 0.8323 0.8279 0.8234
2255.827075 0.8221 0.8211 0.8206 0.8201 0.8200
2260.222686 0.8200 0.8200 0.8200 0.8200 0.8200
2264.618298 0.8200 0.8200 0.8200 0.8200 0.8205
2269.013909 0.8210 0.8206 0.8200 0.8204 0.8209
2273.409520 0.8219 0.8229 0.8230 0.8230 0.8230
2277.805132 0.8230 0.8230 0.8230 0.8221 0.8211
2282.200743 0.8192 0.8172 0.8166 0.8161 0.8147
2286.596355 0.8132 0.8126 0.8121 0.8102 0.8082
2290.991966 0.8062 0.8042 0.8022 0.8002 0.7987
2295.387578 0.7972 0.7961 0.7951 0.7950 0.7950
2299.783189 0.7950 0.7950 0.7950 0.7950 0.7946
2304.178800 0.7941 0.7944 0.7949 0.7950 0.7950
2308.574412 0.7950 0.7950 0.7950 0.7950 0.7950
2312.970023 0.7950 0.7946 0.7941 0.7936 0.7931
2317.365635 0.7934 0.7939 0.7927 0.7912 0.7901
2321.761246 0.7891 0.7850 0.7805 0.7791 0.7781
2326.156858 0.7771 0.7761 0.7747 0.7732 0.7730
2330.552469 0.7730 0.7726 0.7721 0.7720 0.7720
2334.948080 0.7716 0.7711 0.7710 0.7710 0.7701
2339.343692 0.7691 0.7681 0.7671 0.7644 0.7614
2343.739303 0.7597 0.7582 0.7580 0.7580 0.7576
2348.134915 0.7571 0.7548 0.7523 0.7494 0.7464
2352.530526 0.7425 0.7385 0.7349 0.7314 0.7280
2356.926138 0.7245 0.7227 0.7212 0.7206 0.7201
2361.321749 0.7187 0.7172 0.7140 0.7105 0.7079
2365.717360 0.7054 0.7033 0.7013 0.6997 0.6982
2370.112972 0.6967 0.6952 0.6933 0.6913 0.6875
2374.508583 0.6835 0.6813 0.6793 0.6764 0.6734
2378.904195 0.6709 0.6684 0.6676 0.6671 0.6670
2383.299806 0.6670 0.6670 0.6670 0.6687 0.6707
2387.695418 0.6714 0.6719 0.6733 0.6748 0.6754
2392.091029 0.6759 0.6816 0.6881 0.6937 0.6992
2396.486640 0.7021 0.7046 0.7139 0.7244 0.7323
2400.882252 0.7398 0.7418 0.7428 0.7426 0.7421
2405.277863 0.7420 0.7420 0.7416 0.7411 0.7389
2409.673475 0.7364 0.7343 0.7323 0.7286 0.7246
2414.069086 0.7206 0.7166 0.7131 0.7096 0.7073
2418.464698 0.7053 0.7033 0.7013 0.6997 0.6982
2422.860309 0.6967 0.6952 0.6946 0.6941 0.6936
2427.255920 0.6931 0.6917 0.6902 0.6887 0.6872
2431.651532 0.6853 0.6833 0.6801 0.6766 0.6739
2436.047143 0.6714 0.6681 0.6646 0.6615 0.6585
2440.442755 0.6533 0.6479 0.6415 0.6350 0.6248
2444.838366 0.6138 0.6028 0.5918 0.5854 0.5799
2449.233978 0.5561 0.5286 0.5095 0.4920 0.4724
2453.629589 0.4525 0.4325 0.4125 0.4078 0.4062
2458.025200 0.4060 0.4060 0.4073 0.4088 0.4094
2462.420812 0.4099 0.4112 0.4127 0.4138 0.4148
2466.816423 0.4167 0.4187 0.4194 0.4199 0.4204
2471.212035 0.4209 0.4210 0.4210 0.4218 0.4228
2475.607646 0.4268 0.4312 0.4362 0.4411 0.4461
2480.003258 0.4511 0.4677 0.4867 0.5040 0.5210
2484.398869 0.5256 0.5276 0.5309 0.5344 0.5350
2488.794480 0.5350 0.5362 0.5377 0.5425 0.5480
2493.190092 0.5643 0.5828 0.6120 0.6434 0.6502
2497.585703 0.6517 0.6520 0.6520 0.6475 0.6420
2501.981315 0.6373 0.6328 0.6283 0.6239 0.6206
2506.376926 0.6176 0.6162 0.6152 0.6113 0.6068
2510.772538 0.6007 0.5942 0.5824 0.5694 0.5601
2515.168149 0.5516 0.5427 0.5337 0.5284 0.5239
2519.563760 0.5177 0.5113 0.5052 0.4992 0.4920
2523.959372 0.4845 0.4770 0.4695 0.4620 0.4544
2528.354983 0.4457 0.4367 0.4285 0.4205 0.4113
2532.750595 0.4018 0.3851 0.3666 0.3469 0.3269
2537.146206 0.3178 0.3113 0.2912 0.2678 0.2439
2541.541818 0.2199 0.1904 0.1594 0.1518 0.1503
2545.937429 0.1508 0.1518 0.1661 0.1836 0.1990
2550.333040 0.2140 0.2354 0.2584 0.2841 0.3106
2554.728652 0.3792 0.4586 0.4754 0.4759 0.4768
2559.124263 0.4778 0.4784 0.4789 0.4790 0.4790
2563.519875 0.4794 0.4799 0.4808 0.4818 0.4868
2567.915486 0.4928 0.5015 0.5110 0.5221 0.5336
2572.311098 0.5526 0.5735 0.5890 0.6030 0.6131
2576.706709 0.6220 0.6267 0.6302 0.6353 0.6409
2581.102321 0.6440 0.6465 0.6490 0.6515 0.6524
2585.497932 0.6529 0.6530 0.6530 0.6526 0.6521
2589.893543 0.6508 0.6493 0.6435 0.6365 0.6315
2594.289155 0.6270 0.6233 0.6198 0.6155 0.6110
2598.684766 0.6061 0.6011 0.5917 0.5813 0.5688
2603.080378 0.5558 0.5483 0.5423 0.5313 0.5188
2607.475989 0.5028 0.4858 0.4808 0.4793 0.4794
2611.871601 0.4799 0.4923 0.5083 0.5147 0.5182
2616.267212 0.5225 0.5270 0.5311 0.5351 0.5360
2620.662823 0.5360 0.5310 0.5245 0.5160 0.5071
2625.058435 0.4954 0.4829 0.4796 0.4791 0.4794
2629.454046 0.4799 0.5063 0.5408 0.5594 0.5730
2633.849658 0.5772 0.5787 0.5802 0.5817 0.5812
2638.245269 0.5802 0.5800 0.5800 0.5792 0.5782
2642.640881 0.5727 0.5657 0.5594 0.5534 0.5478
2647.036492 0.5423 0.5376 0.5331 0.5271 0.5205
2651.432103 0.5132 0.5057 0.4971 0.4881 0.4787
2655.827715 0.4692 0.4586 0.4476 0.4442 0.4432
2660.223326 0.4385 0.4325 0.4265 0.4205 0.4149
2664.618938 0.4094 0.4050 0.4010 0.3981 0.3956
2669.014549 0.3904 0.3844 0.3769 0.3689 0.3571
2673.410161 0.3442 0.3293 0.3138 0.3021 0.2916
2677.805772 0.2837 0.2768 0.2653 0.2523 0.2427
2682.201383 0.2342 0.2287 0.2242 0.2215 0.2195
2686.596995 0.2179 0.2164 0.2137 0.2107 0.2070
2690.992606 0.2030 0.1964 0.1889 0.1773 0.1643
2695.388218 0.1483 0.1314 0.1266 0.1261 0.1264
2699.783829 0.1269 0.1285 0.1305 0.1321 0.1336
2704.179441 0.1355 0.1375 0.1391 0.1406 0.1425
2708.575052 0.1445 0.1450 0.1450 0.1450 0.1450
2712.970663 0.1384 0.1294 0.1097 0.0862 0.0796
2717.366275 0.0791 0.0790 0.0790 0.0808 0.0834
2721.761886 0.0937 0.1067 0.1174 0.1274 0.1304
2726.157498 0.1309 0.1310 0.1310 0.1306 0.1301
2730.553109 0.1278 0.1248 0.1200 0.1145 0.1097
2734.948721 0.1052 0.1000 0.0945 0.0890 0.0834
2739.344332 0.0728 0.0603 0.0559 0.0544 0.0540
2743.739943 0.0540 0.0540 0.0540 0.0540 0.0540
2748.135555 0.0547 0.0557 0.0560 0.0560 0.0564
2752.531166 0.0569 0.0574 0.0579 0.0587 0.0597
2756.926778 0.0615 0.0635 0.0640 0.0640 0.0713
2761.322389 0.0813 0.0945 0.1090 0.1246 0.1406
2765.718001 0.1529 0.1639 0.1724 0.1799 0.1892
2770.113612 0.1991 0.2073 0.2148 0.2195 0.2230
2774.509223 0.2236 0.2231 0.2201 0.2161 0.2117
2778.904835 0.2073 0.2031 0.1991 0.1962 0.1937
2783.300446 0.1880 0.1810 0.1779 0.1764 0.1760
2787.696058 0.1760 0.1756 0.1751 0.1714 0.1664
2792.091669 0.1621 0.1581 0.1552 0.1527 0.1520
2796.487281 0.1520 0.1513 0.1503 0.1496 0.1491
2800.882892 0.1440 0.1371 0.1297 0.1222 0.1165
2805.278503 0.1115 0.1079 0.1049 0.1040 0.1040
2809.674115 0.1047 0.1057 0.1085 0.1120 0.1169
2814.069726 0.1224 0.1268 0.1308 0.1359 0.1414
2818.465338 0.1469 0.1524 0.1554 0.1574 0.1587
2822.860949 0.1597 0.1593 0.1583 0.1573 0.1563
2827.256561 0.1546 0.1526 0.1502 0.1477 0.1449
2831.652172 0.1419 0.1403 0.1393 0.1390 0.1390
2836.047783 0.1390 0.1390 0.1390 0.1390 0.1397
2840.443395 0.1407 0.1424 0.1444 0.1457 0.1467
2844.839006 0.1509 0.1564 0.1587 0.1597 0.1652
2849.234618 0.1727 0.1778 0.1818 0.1882 0.1957
2853.630229 0.1990 0.2005 0.2065 0.2145 0.2228
2858.025841 0.2313 0.2395 0.2474 0.2558 0.2644
2862.421452 0.2715 0.2780 0.3063 0.3443 0.3726
2866.817063 0.3965 0.4071 0.4116 0.4209 0.4324
2871.212675 0.4367 0.4377 0.4380 0.4380 0.4343
2875.608286 0.4288 0.4236 0.4186 0.4146 0.4111
2880.003898 0.4055 0.3990 0.3908 0.3818 0.3728
2884.399509 0.3639 0.3549 0.3459 0.3372 0.3287
2888.795121 0.3199 0.3109 0.3019 0.2929 0.2840
2893.190732 0.2750 0.2660 0.2570 0.2479 0.2389
2897.586343 0.2302 0.2217 0.2071 0.1896 0.1823
2901.981955 0.1798 0.1780 0.1765 0.1770 0.1785
2906.377566 0.1800 0.1815 0.1847 0.1887 0.1910
2910.773178 0.1925 0.1960 0.2005 0.2063 0.2129
2915.168789 0.2164 0.2184 0.2203 0.2223 0.2260
2919.564401 0.2305 0.2367 0.2437 0.2487 0.2527
2923.960012 0.2577 0.2631 0.2670 0.2700 0.2710
2928.355623 0.2710 0.2687 0.2652 0.2604 0.2548
2932.751235 0.2490 0.2430 0.2337 0.2227 0.2120
2937.146846 0.2015 0.1917 0.1822 0.1701 0.1566
2941.542458 0.1293 0.0949 0.0814 0.0789 0.0751
2945.938069 0.0706 0.0687 0.0682 0.0680 0.0680
2950.333681 0.0690 0.0705 0.0773 0.0868 0.0989
2954.729292 0.1124 0.1265 0.1410 0.1486 0.1526
2959.124903 0.1657 0.1837 0.1971 0.2081 0.2172
2963.520515 0.2252 0.2299 0.2329 0.2340 0.2340
2967.916126 0.2245 0.2100 0.2040 0.2025 0.2020
2972.311738 0.2020 0.2066 0.2135 0.2205 0.2275
2976.707349 0.2471 0.2736 0.2862 0.2912 0.2981
2981.102961 0.3061 0.3170 0.3295 0.3427 0.3563
2985.498572 0.3740 0.3940 0.4085 0.4199 0.4276
2989.894183 0.4330 0.4418 0.4522 0.4634 0.4749
2994.289795 0.4838 0.4913 0.4988 0.5063 0.5122
2998.685406 0.5172 0.5244 0.5329 0.5436 0.5557
3003.081018 0.5678 0.5797 0.5917 0.6037 0.6138
3007.476629 0.6228 0.6286 0.6325 0.6445 0.6610
3011.872241 0.6768 0.6923 0.7024 0.7094 0.7158
3016.267852 0.7218 0.7253 0.7272 0.7315 0.7370
3020.663463 0.7444 0.7529 0.7598 0.7658 0.7712
3025.059075 0.7762 0.7799 0.7829 0.7859 0.7889
3029.454686 0.7913 0.7933 0.7959 0.7989 0.8019
3033.850298 0.8049 0.8088 0.8133 0.8156 0.8166
3038.245909 0.8183 0.8203 0.8232 0.8267 0.8299
3042.641521 0.8329 0.8356 0.8381 0.8402 0.8422
3047.037132 0.8430 0.8430 0.8439 0.8454 0.8478
3051.432743 0.8508 0.8535 0.8560 0.8589 0.8619
3055.828355 0.8633 0.8638 0.8656 0.8681 0.8696
3060.223966 0.8706 0.8725 0.8750 0.8785 0.8825
3064.619578 0.8855 0.8880 0.8893 0.8898 0.8903
3069.015189 0.8908 0.8916 0.8926 0.8933 0.8938
3073.410801 0.8962 0.8997 0.9013 0.9018 0.9029
3077.806412 0.9044 0.9053 0.9058 0.9066 0.9076
3082.202023 0.9080 0.9080 0.9083 0.9088 0.9090
3086.597635 0.9090 0.9093 0.9098 0.9100 0.9100
3090.993246 0.9100 0.9100 0.9100 0.9100 0.9106
3095.388858 0.9116 0.9120 0.9120 0.9123 0.9128
3099.784469 0.9136 0.9146 0.9150 0.9150 0.9150
3104.180081 0.9150 0.9150 0.9150 0.9150 0.9150
3108.575692 0.9150 0.9150 0.9150 0.9150 0.9150
3112.971303 0.9150 0.9150 0.9150 0.9150 0.9150
3117.366915 0.9150 0.9150 0.9150 0.9150 0.9150
3121.762526 0.9150 0.9150 0.9150 0.9150 0.9150
3126.158138 0.9150 0.9150 0.9150 0.9150 0.9150
3130.553749 0.9150 0.9150 0.9150 0.9150 0.9150
3134.949361 0.9150 0.9150 0.9150 0.9150 0.9150
3139.344972 0.9150 0.9150 0.9150 0.9144 0.9134
3143.740583 0.9130 0.9130 0.9127 0.9122 0.9120
3148.136195 0.9120 0.9111 0.9096 0.9090 0.9090
3152.531806 0.9087 0.9082 0.9074 0.9064 0.9057
3156.927418 0.9052 0.9047 0.9042 0.9034 0.9024
3161.323029 0.9008 0.8988 0.8971 0.8956 0.8944
3165.718641 0.8934 0.8924 0.8914 0.8898 0.8878
3170.114252 0.8861 0.8846 0.8817 0.8777 0.8737
3174.509864 0.8697 0.8669 0.8649 0.8637 0.8632
3178.905475 0.8624 0.8614 0.8610 0.8610 0.8616
3183.301086 0.8626 0.8679 0.8764 0.8809 0.8824
3187.696698 0.8850 0.8885 0.8903 0.8908 0.8935
3192.092309 0.8980 0.9011 0.9031 0.9040 0.9040
3196.487921 0.9043 0.9048 0.9053 0.9058 0.9060
3200.883532 0.9060 0.9069 0.9084 0.9093 0.9098
3205.279144 0.9106 0.9116 0.9120 0.9120 0.9123
3209.674755 0.9128 0.9130 0.9130 0.9130 0.9130
3214.070366 0.9130 0.9130 0.9130 0.9130 0.9130
3218.465978 0.9130 0.9130 0.9130 0.9130 0.9130
3222.861589 0.9130 0.9130 0.9127 0.9122 0.9120
3227.257201 0.9120 0.9120 0.9120 0.9120 0.9120
3231.652812 0.9114 0.9104 0.9106 0.9116 0.9120
3236.048424 0.9120 0.9120 0.9120 0.9120 0.9120
3240.444035 0.9123 0.9128 0.9130 0.9130 0.9130
3244.839646 0.9130 0.9135 0.9145 0.9150 0.9150
3249.235258 0.9153 0.9158 0.9160 0.9160 0.9163
3253.630869 0.9168 0.9170 0.9170 0.9175 0.9185
3258.026481 0.9193 0.9198 0.9200 0.9200 0.9203
3262.422092 0.9208 0.9210 0.9210 0.9215 0.9225
3266.817704 0.9230 0.9230 0.9230 0.9230 0.9230
3271.213315 0.9230 0.9233 0.9238 0.9240 0.9240
3275.608926 0.9240 0.9240 0.9240 0.9240 0.9237
3280.004538 0.9232 0.9230 0.9230 0.9230 0.9230
3284.400149 0.9230 0.9230 0.9230 0.9230 0.9230
3288.795761 0.9230 0.9233 0.9238 0.9240 0.9240
3293.191372 0.9240 0.9240 0.9240 0.9240 0.9240
3297.586984 0.9240 0.9240 0.9240 0.9245 0.9255
3301.982595 0.9260 0.9260 0.9260 0.9260 0.9260
3306.378206 0.9260 0.9260 0.9260 0.9260 0.9260
3310.773818 0.9260 0.9260 0.9260 0.9260 0.9255
3315.169429 0.9245 0.9240 0.9240 0.9237 0.9232
3319.565041 0.9230 0.9230 0.9225 0.9215 0.9210
3323.960652 0.9210 0.9207 0.9202 0.9200 0.9200
3328.356264 0.9197 0.9192 0.9185 0.9175 0.9170
3332.751875 0.9170 0.9170 0.9170 0.9170 0.9170
3337.147486 0.9170 0.9170 0.9170 0.9170 0.9170
3341.543098 0.9170 0.9170 0.9170 0.9167 0.9162
3345.938709 0.9160 0.9160 0.9160 0.9160 0.9160
3350.334321 0.9160 0.9160 0.9160 0.9160 0.9160
3354.729932 0.9160 0.9160 0.9157 0.9152 0.9150
3359.125544 0.9150 0.9150 0.9150 0.9150 0.9150
3363.521155 0.9150 0.9150 0.9150 0.9150 0.9150
3367.916766 0.9150 0.9150 0.9150 0.9150 0.9150
3372.312378 0.9145 0.9135 0.9130 0.9130 0.9130
3376.707989 0.9130 0.9130 0.9130 0.9122 0.9107
3381.103601 0.9100 0.9100 0.9100 0.9100 0.9100
3385.499212 0.9100 0.9098 0.9093 0.9090 0.9090
3389.894824 0.9090 0.9090 0.9087 0.9082 0.9080
3394.290435 0.9080 0.9080 0.9080 0.9080 0.9080
3398.686046 0.9073 0.9058 0.9050 0.9050 0.9050
3403.081658 0.9050 0.9043 0.9028 0.9020 0.9020
3407.477269 0.9020 0.9020 0.9018 0.9013 0.9010
3411.872881 0.9010 0.9010 0.9010 0.9008 0.9003
3416.268492 0.9000 0.9000 0.8995 0.8985 0.8980
3420.664104 0.8980 0.8980 0.8980 0.8978 0.8973
3425.059715 0.8970 0.8970 0.8965 0.8955 0.8948
3429.455326 0.8943 0.8940 0.8940 0.8940 0.8940
3433.850938 0.8940 0.8940 0.8938 0.8933 0.8930
3438.246549 0.8930 0.8930 0.8930 0.8930 0.8930
3442.642161 0.8925 0.8915 0.8910 0.8910 0.8910
3447.037772 0.8910 0.8908 0.8903 0.8900 0.8900
3451.433384 0.8900 0.8900 0.8900 0.8900 0.8900
3455.828995 0.8900 0.8900 0.8900 0.8900 0.8900
3460.224606 0.8900 0.8900 0.8900 0.8900 0.8898
3464.620218 0.8893 0.8890 0.8890 0.8890 0.8890
3469.015829 0.8890 0.8890 0.8890 0.8890 0.8890
3473.411441 0.8890 0.8890 0.8890 0.8885 0.8875
3477.807052 0.8870 0.8870 0.8870 0.8870 0.8870
3482.202664 0.8870 0.8868 0.8863 0.8860 0.8860
3486.598275 0.8860 0.8860 0.8860 0.8860 0.8855
3490.993886 0.8845 0.8840 0.8840 0.8840 0.8840
3495.389498 0.8840 0.8840 0.8838 0.8833 0.8830
3499.785109 0.8830 0.8828 0.8823 0.8820 0.8820
3504.180721 0.8820 0.8820 0.8820 0.8820 0.8820
3508.576332 0.8820 0.8820 0.8820 0.8820 0.8820
3512.971944 0.8820 0.8820 0.8820 0.8820 0.8820
3517.367555 0.8820 0.8815 0.8805 0.8800 0.8800
3521.763166 0.8800 0.8800 0.8800 0.8800 0.8800
3526.158778 0.8800 0.8800 0.8800 0.8798 0.8793
3530.554389 0.8790 0.8790 0.8790 0.8790 0.8788
3534.950001 0.8783 0.8780 0.8780 0.8780 0.8780
3539.345612 0.8780 0.8780 0.8780 0.8780 0.8780
3543.741224 0.8780 0.8780 0.8780 0.8780 0.8780
3548.136835 0.8775 0.8765 0.8764 0.8774 0.8780
3552.532446 0.8780 0.8780 0.8780 0.8780 0.8780
3556.928058 0.8780 0.8780 0.8780 0.8780 0.8780
3561.323669 0.8780 0.8780 0.8780 0.8776 0.8766
3565.719281 0.8760 0.8760 0.8758 0.8753 0.8750
3570.114892 0.8750 0.8746 0.8736 0.8730 0.8730
3574.510504 0.8728 0.8723 0.8718 0.8713 0.8710
3578.906115 0.8710 0.8710 0.8710 0.8710 0.8710
3583.301726 0.8710 0.8710 0.8710 0.8710 0.8710
3587.697338 0.8710 0.8710 0.8710 0.8710 0.8710
3592.092949 0.8710 0.8710 0.8710 0.8710 0.8710
3596.488561 0.8710 0.8710 0.8710 0.8710 0.8710
3600.884172 0.8710 0.8710 0.8706 0.8696 0.8690
3605.279784 0.8690 0.8690 0.8690 0.8690 0.8690
3609.675395 0.8688 0.8683 0.8680 0.8680 0.8680
3614.071006 0.8680 0.8680 0.8680 0.8680 0.8680
3618.466618 0.8680 0.8680 0.8678 0.8673 0.8666
3622.862229 0.8656 0.8650 0.8650 0.8650 0.8650
3627.257841 0.8650 0.8650 0.8650 0.8650 0.8650
3631.653452 0.8650 0.8648 0.8643 0.8640 0.8640
3636.049064 0.8640 0.8640 0.8640 0.8640 0.8638
3640.444675 0.8633 0.8630 0.8630 0.8626 0.8616
3644.840286 0.8610 0.8610 0.8610 0.8610 0.8610
3649.235898 0.8610 0.8610 0.8610 0.8610 0.8610
3653.631509 0.8610 0.8610 0.8610 0.8610 0.8610
3658.027121 0.8610 0.8608 0.8603 0.8600 0.8600
3662.422732 0.8600 0.8600 0.8600 0.8600 0.8596
3666.818344 0.8586 0.8578 0.8573 0.8570 0.8570
3671.213955 0.8568 0.8563 0.8560 0.8560 0.8556
3675.609566 0.8546 0.8540 0.8540 0.8538 0.8533
3680.005178 0.8528 0.8523 0.8520 0.8520 0.8520
3684.400789 0.8520 0.8520 0.8520 0.8520 0.8520
3688.796401 0.8520 0.8520 0.8520 0.8520 0.8520
3693.192012 0.8520 0.8520 0.8520 0.8520 0.8520
3697.587624 0.8520 0.8520 0.8520 0.8520 0.8520
3701.983235 0.8520 0.8516 0.8506 0.8500 0.8500
3706.378846 0.8498 0.8493 0.8490 0.8490 0.8490
3710.774458 0.8490 0.8490 0.8490 0.8486 0.8476
3715.170069 0.8470 0.8470 0.8470 0.8470 0.8468
3719.565681 0.8463 0.8460 0.8460 0.8458 0.8453
3723.961292 0.8450 0.8450 0.8450 0.8450 0.8450
3728.356904 0.8450 0.8450 0.8450 0.8450 0.8450
3732.752515 0.8450 0.8450 0.8450 0.8450 0.8450
3737.148126 0.8450 0.8450 0.8450 0.8450 0.8450
3741.543738 0.8450 0.8450 0.8446 0.8436 0.8430
3745.939349 0.8430 0.8430 0.8430 0.8430 0.8430
3750.334961 0.8430 0.8430 0.8428 0.8423 0.8420
3754.730572 0.8420 0.8420 0.8420 0.8418 0.8413
3759.126184 0.8410 0.8410 0.8410 0.8410 0.8406
3763.521795 0.8396 0.8390 0.8390 0.8390 0.8390
3767.917406 0.8388 0.8383 0.8380 0.8380 0.8380
3772.313018 0.8380 0.8376 0.8366 0.8358 0.8353
3776.708629 0.8350 0.8350 0.8350 0.8350 0.8350
3781.104241 0.8350 0.8348 0.8343 0.8340 0.8340
3785.499852 0.8340 0.8340 0.8340 0.8340 0.8336
3789.895464 0.8326 0.8320 0.8320 0.8318 0.8313
3794.291075 0.8310 0.8310 0.8310 0.8310 0.8310
3798.686687 0.8310
##END=
