##TITLE=HEPTANE NITRILE
$$ E.K. (W.L.) NO. 6205
##JCAMP-DX=4.24
##DATA TYPE=INFRARED SPECTRUM
##CLASS=COBLENTZ
##ORIGIN=WYANDOTTE CHEMICALS CORP., WYANDOTTE, MICHIGAN, USA
##OWNER=COBLENTZ SOCIETY
Collection (C) 2018 copyright by the U.S. Secretary of Commerce
on behalf of the United States of America. All rights reserved.
##DATE=Not specified, most likely prior to 1970
##MOLFORM=C7 H12 N
##BP=182-184 C
##SOURCE REFERENCE=COBLENTZ NO. 118
##$NIST ID=B6000118
##$NIST SOURCE=COBLENTZ
##$NIST IMAGE=cob118
##SPECTROMETER/DATA SYSTEM=Not specified, most likely a prism, grating, or hybrid spectrometer.
##STATE=LIQUID
##PATH LENGTH=0.003 CM
##SAMPLING PROCEDURE=TRANSMISSION
##RESOLUTION=4
##DATA PROCESSING=DIGITIZED BY NIST FROM HARD COPY
##XUNITS=MICROMETERS
##YUNITS=TRANSMITTANCE
##XFACTOR=1.000000
##YFACTOR=1
##DELTAX=000.006657
##FIRSTX=2.089
##LASTX=16.0353
##FIRSTY=0.983
##MAXX=16.0353
##MINX=2.089
##MAXY=0.983
##MINY=0
##NPOINTS=2096
##XYDATA=(X++(Y..Y))
2.089000 0.9830 0.9830 0.9810 0.9810 0.9810
2.122300 0.9800 0.9810 0.9810 0.9800 0.9760
2.156000 0.9730 0.9700 0.9650 0.9600 0.9510
2.189300 0.9280 0.9180 0.9180 0.9180 0.9180
2.223000 0.9210 0.9230 0.9250 0.9260 0.9280
2.256300 0.9300 0.9310 0.9330 0.9330 0.9350
2.289000 0.9350 0.9360 0.9360 0.9360 0.9360
2.322300 0.9380 0.9380 0.9380 0.9380 0.9380
2.356000 0.9360 0.9350 0.9350 0.9350 0.9350
2.389300 0.9350 0.9360 0.9380 0.9380 0.9410
2.422000 0.9430 0.9450 0.9480 0.9500 0.9510
2.455300 0.9530 0.9550 0.9560 0.9560 0.9580
2.489000 0.9600 0.9610 0.9630 0.9650 0.9660
2.522300 0.9680 0.9680 0.9700 0.9700 0.9700
2.555000 0.9700 0.9700 0.9700 0.9700 0.9710
2.588300 0.9750 0.9750 0.9760 0.9780 0.9780
2.622000 0.9760 0.9750 0.9750 0.9730 0.9710
2.655300 0.9700 0.9680 0.9680 0.9660 0.9650
2.689000 0.9650 0.9630 0.9630 0.9610 0.9610
2.722300 0.9600 0.9580 0.9580 0.9560 0.9560
2.755000 0.9550 0.9550 0.9530 0.9530 0.9530
2.788300 0.9530 0.9530 0.9530 0.9530 0.9530
2.822000 0.9530 0.9530 0.9530 0.9530 0.9560
2.855300 0.9560 0.9560 0.9580 0.9600 0.9610
2.888000 0.9650 0.9680 0.9710 0.9730 0.9750
2.921300 0.9750 0.9750 0.9750 0.9750 0.9750
2.955000 0.9750 0.9730 0.9730 0.9730 0.9730
2.988300 0.9730 0.9730 0.9730 0.9730 0.9730
3.021000 0.9730 0.9750 0.9730 0.9730 0.9700
3.054300 0.9660 0.9630 0.9610 0.9580 0.9560
3.088000 0.9550 0.9530 0.9500 0.9410 0.9380
3.121300 0.9350 0.9300 0.9280 0.9250 0.9230
3.155000 0.9210 0.9200 0.9160 0.9160 0.9150
3.188300 0.9130 0.9130 0.9130 0.9110 0.9100
3.221000 0.9080 0.9050 0.9000 0.8930 0.8810
3.254300 0.8700 0.8630 0.8530 0.8280 0.8050
3.288000 0.7820 0.7400 0.6980 0.6200 0.5420
3.321300 0.4640 0.3860 0.3070 0.2290 0.1510
3.354000 0.0730 0.0000 0.0000 0.0000 0.0000
3.387300 0.0140 0.0210 0.0310 0.0440 0.0610
3.421000 0.0790 0.1240 0.1660 0.1680 0.1690
3.454300 0.1690 0.1660 0.1180 0.0690 0.0680
3.487000 0.0690 0.1530 0.2310 0.3190 0.4100
3.520300 0.5040 0.5900 0.6300 0.7020 0.7570
3.554000 0.7770 0.7900 0.8050 0.8160 0.8360
3.587300 0.8450 0.8510 0.8600 0.8700 0.8780
3.621000 0.8830 0.8850 0.8850 0.8850 0.8850
3.654300 0.8850 0.8850 0.8850 0.8860 0.8860
3.687000 0.8860 0.8880 0.9000 0.9000 0.9010
3.720300 0.9010 0.9010 0.9010 0.9010 0.9010
3.754000 0.9010 0.9030 0.9050 0.9050 0.9080
3.787300 0.9130 0.9130 0.9130 0.9130 0.9130
3.820000 0.9130 0.9160 0.9210 0.9210 0.9250
3.853300 0.9280 0.9310 0.9310 0.9310 0.9310
3.887000 0.9310 0.9310 0.9310 0.9310 0.9310
3.920300 0.9330 0.9330 0.9350 0.9350 0.9380
3.953000 0.9410 0.9500 0.9550 0.9560 0.9560
3.986300 0.9560 0.9560 0.9560 0.9560 0.9560
4.020000 0.9560 0.9560 0.9550 0.9550 0.9550
4.053300 0.9550 0.9550 0.9550 0.9550 0.9530
4.087000 0.9530 0.9510 0.9510 0.9500 0.9500
4.120300 0.9480 0.9480 0.9480 0.9480 0.9480
4.153000 0.9480 0.9480 0.9500 0.9480 0.9480
4.186300 0.9460 0.9460 0.9460 0.9460 0.9460
4.220000 0.9460 0.9460 0.9480 0.9510 0.9550
4.253300 0.9560 0.9610 0.9630 0.9630 0.9650
4.286000 0.9650 0.9650 0.9650 0.9660 0.9660
4.319300 0.9660 0.9660 0.9660 0.9660 0.9660
4.353000 0.9660 0.9650 0.9550 0.9510 0.9500
4.386300 0.9450 0.9410 0.9360 0.9330 0.9310
4.419000 0.9280 0.9280 0.9260 0.9250 0.8950
4.452300 0.8650 0.8360 0.8130 0.7880 0.7480
4.486000 0.7020 0.6550 0.6080 0.5550 0.5020
4.519300 0.4490 0.4490 0.6930 0.7880 0.8660
4.553000 0.8960 0.9230 0.9260 0.9260 0.9300
4.586300 0.9310 0.9360 0.9410 0.9430 0.9450
4.619000 0.9460 0.9480 0.9480 0.9500 0.9510
4.652300 0.9510 0.9530 0.9530 0.9530 0.9530
4.686000 0.9530 0.9530 0.9550 0.9550 0.9560
4.719300 0.9560 0.9560 0.9580 0.9580 0.9580
4.752000 0.9600 0.9600 0.9600 0.9630 0.9650
4.785300 0.9650 0.9660 0.9680 0.9700 0.9700
4.819000 0.9710 0.9710 0.9730 0.9730 0.9730
4.852300 0.9710 0.9700 0.9680 0.9660 0.9650
4.885000 0.9650 0.9650 0.9650 0.9650 0.9650
4.918300 0.9660 0.9680 0.9680 0.9680 0.9680
4.952000 0.9680 0.9680 0.9680 0.9680 0.9680
4.985300 0.9680 0.9680 0.9680 0.9680 0.9660
5.018000 0.9660 0.9660 0.9650 0.9650 0.9650
5.051300 0.9610 0.9610 0.9600 0.9600 0.9600
5.085000 0.9600 0.9610 0.9610 0.9630 0.9650
5.118300 0.9650 0.9650 0.9700 0.9700 0.9700
5.152000 0.9700 0.9700 0.9700 0.9700 0.9700
5.185300 0.9700 0.9700 0.9700 0.9700 0.9700
5.218000 0.9700 0.9700 0.9710 0.9710 0.9710
5.251300 0.9680 0.9680 0.9680 0.9700 0.9710
5.285000 0.9710 0.9710 0.9730 0.9710 0.9710
5.318300 0.9710 0.9710 0.9710 0.9710 0.9710
5.351000 0.9710 0.9710 0.9710 0.9700 0.9700
5.384300 0.9700 0.9650 0.9630 0.9600 0.9600
5.418000 0.9600 0.9580 0.9580 0.9600 0.9600
5.451300 0.9600 0.9600 0.9600 0.9600 0.9600
5.484000 0.9600 0.9600 0.9600 0.9600 0.9600
5.517300 0.9580 0.9580 0.9580 0.9600 0.9600
5.551000 0.9600 0.9600 0.9600 0.9600 0.9600
5.584300 0.9600 0.9600 0.9600 0.9600 0.9600
5.618000 0.9600 0.9600 0.9600 0.9600 0.9600
5.651300 0.9600 0.9600 0.9600 0.9600 0.9580
5.684000 0.9580 0.9580 0.9580 0.9580 0.9580
5.717300 0.9560 0.9560 0.9560 0.9560 0.9560
5.751000 0.9550 0.9550 0.9530 0.9530 0.9530
5.784300 0.9510 0.9510 0.9510 0.9500 0.9500
5.817000 0.9500 0.9500 0.9480 0.9480 0.9480
5.850300 0.9480 0.9480 0.9460 0.9460 0.9460
5.884000 0.9460 0.9460 0.9460 0.9450 0.9450
5.917300 0.9430 0.9430 0.9410 0.9410 0.9400
5.950000 0.9400 0.9380 0.9380 0.9380 0.9380
5.983300 0.9380 0.9360 0.9360 0.9360 0.9360
6.017000 0.9350 0.9360 0.9360 0.9350 0.9350
6.050300 0.9330 0.9330 0.9310 0.9300 0.9300
6.084000 0.9280 0.9280 0.9260 0.9260 0.9250
6.117300 0.9250 0.9250 0.9250 0.9230 0.9230
6.150000 0.9230 0.9230 0.9250 0.9250 0.9300
6.183300 0.9310 0.9310 0.9330 0.9330 0.9330
6.217000 0.9330 0.9330 0.9330 0.9330 0.9330
6.250300 0.9330 0.9330 0.9330 0.9310 0.9310
6.283000 0.9310 0.9300 0.9300 0.9300 0.9280
6.316300 0.9280 0.9280 0.9280 0.9280 0.9280
6.350000 0.9280 0.9280 0.9260 0.9260 0.9260
6.383300 0.9260 0.9250 0.9250 0.9250 0.9230
6.416000 0.9230 0.9230 0.9210 0.9210 0.9210
6.449300 0.9200 0.9200 0.9200 0.9180 0.9180
6.483000 0.9160 0.9150 0.9130 0.9130 0.9110
6.516300 0.9110 0.9100 0.9080 0.9060 0.9010
6.550000 0.8980 0.8950 0.8930 0.8910 0.8900
6.583300 0.8880 0.8850 0.8800 0.8710 0.8630
6.616000 0.8580 0.8530 0.8500 0.8480 0.8450
6.649300 0.8400 0.8330 0.8230 0.8180 0.8110
6.683000 0.7930 0.7720 0.7430 0.7050 0.6650
6.716300 0.6170 0.5670 0.5190 0.4690 0.4190
6.749000 0.3690 0.3090 0.2470 0.1860 0.1840
6.782300 0.1860 0.2020 0.2240 0.2360 0.2510
6.816000 0.2660 0.3010 0.3190 0.3390 0.3610
6.849300 0.4040 0.4250 0.4490 0.4940 0.5040
6.882000 0.5170 0.5270 0.5390 0.5520 0.5520
6.915300 0.5500 0.5150 0.4800 0.4590 0.4370
6.949000 0.3870 0.3370 0.3360 0.3370 0.4050
6.982300 0.4390 0.5050 0.5850 0.6130 0.6530
7.016000 0.6720 0.6920 0.7120 0.7500 0.7650
7.049300 0.7780 0.7850 0.7920 0.7950 0.7980
7.082000 0.8010 0.8050 0.8100 0.8150 0.8200
7.115300 0.8230 0.8210 0.8200 0.8160 0.8150
7.149000 0.8050 0.7870 0.7670 0.7430 0.7320
7.182300 0.7200 0.7080 0.6970 0.6630 0.6280
7.215000 0.6080 0.5640 0.5620 0.5650 0.6120
7.248300 0.6850 0.7080 0.7430 0.7570 0.7650
7.282000 0.7720 0.7750 0.7750 0.7780 0.7800
7.315300 0.7800 0.7800 0.7780 0.7780 0.7720
7.348000 0.7680 0.7670 0.7650 0.7650 0.7650
7.381300 0.7670 0.7680 0.7720 0.7730 0.7750
7.415000 0.7770 0.7800 0.7830 0.7920 0.8000
7.448300 0.8010 0.8000 0.7930 0.7900 0.7780
7.482000 0.7670 0.7480 0.7470 0.7470 0.7500
7.515300 0.7770 0.7850 0.7900 0.7970 0.8030
7.548000 0.8100 0.8150 0.8250 0.8250 0.8250
7.581300 0.8230 0.8210 0.8180 0.8160 0.8150
7.615000 0.8130 0.8110 0.8110 0.8110 0.8130
7.648300 0.8280 0.8350 0.8330 0.8330 0.8330
7.681000 0.8330 0.8350 0.8400 0.8430 0.8480
7.714300 0.8550 0.8630 0.8650 0.8650 0.8630
7.748000 0.8630 0.8610 0.8600 0.8560 0.8550
7.781300 0.8550 0.8510 0.8500 0.8500 0.8500
7.814000 0.8500 0.8500 0.8530 0.8530 0.8550
7.847300 0.8550 0.8530 0.8530 0.8510 0.8510
7.881000 0.8500 0.8510 0.8510 0.8530 0.8560
7.914300 0.8560 0.8560 0.8580 0.8580 0.8580
7.947000 0.8600 0.8610 0.8650 0.8680 0.8710
7.980300 0.8730 0.8780 0.8810 0.8830 0.8830
8.014000 0.8850 0.8860 0.8860 0.8880 0.8880
8.047300 0.8900 0.8930 0.8950 0.8950 0.8960
8.081000 0.8960 0.8950 0.8910 0.8900 0.8860
8.114300 0.8830 0.8810 0.8780 0.8730 0.8700
8.147000 0.8660 0.8650 0.8610 0.8560 0.8550
8.180300 0.8530 0.8510 0.8510 0.8510 0.8510
8.214000 0.8550 0.8580 0.8630 0.8680 0.8730
8.247300 0.8780 0.8810 0.8810 0.8850 0.8860
8.280000 0.8880 0.8900 0.8900 0.8910 0.8910
8.313300 0.8910 0.8910 0.8910 0.8910 0.8910
8.347000 0.8910 0.8910 0.8900 0.8900 0.8900
8.380300 0.8880 0.8900 0.8900 0.8900 0.8900
8.413000 0.8900 0.8910 0.8930 0.8950 0.8950
8.446300 0.8950 0.8960 0.8980 0.8980 0.8980
8.480000 0.9000 0.9000 0.9000 0.9010 0.9030
8.513300 0.9060 0.9110 0.9110 0.9130 0.9160
8.547000 0.9160 0.9210 0.9250 0.9260 0.9260
8.580300 0.9260 0.9260 0.9250 0.9250 0.9250
8.613000 0.9260 0.9260 0.9300 0.9310 0.9310
8.646300 0.9330 0.9330 0.9330 0.9350 0.9350
8.680000 0.9350 0.9350 0.9350 0.9350 0.9350
8.713300 0.9350 0.9350 0.9350 0.9360 0.9350
8.746000 0.9350 0.9350 0.9350 0.9330 0.9330
8.779300 0.9310 0.9300 0.9260 0.9230 0.9210
8.813000 0.9160 0.9130 0.9110 0.9080 0.9010
8.846300 0.8950 0.8860 0.8780 0.8700 0.8600
8.879000 0.8480 0.8360 0.8230 0.8150 0.8060
8.912300 0.8010 0.7980 0.7970 0.7980 0.8000
8.946000 0.8010 0.8060 0.8110 0.8160 0.8300
8.979300 0.8380 0.8460 0.8550 0.8630 0.8710
9.013000 0.8780 0.8810 0.8850 0.8900 0.8910
9.046300 0.8950 0.8960 0.8980 0.8980 0.8980
9.079000 0.8980 0.8980 0.9000 0.9000 0.9000
9.112300 0.8980 0.9010 0.9010 0.9010 0.9000
9.146000 0.9000 0.8980 0.8980 0.8960 0.8960
9.179300 0.8960 0.8960 0.8960 0.8960 0.8950
9.212000 0.8950 0.8930 0.8910 0.8910 0.8900
9.245300 0.8860 0.8780 0.8760 0.8800 0.8850
9.279000 0.8910 0.8930 0.8980 0.8980 0.8980
9.312300 0.8980 0.8980 0.8980 0.8980 0.9000
9.345000 0.9000 0.9000 0.8980 0.8930 0.8930
9.378300 0.8900 0.8860 0.8810 0.8780 0.8730
9.412000 0.8680 0.8680 0.8660 0.8630 0.8630
9.445300 0.8600 0.8600 0.8600 0.8610 0.8610
9.479000 0.8650 0.8660 0.8700 0.8710 0.8730
9.512300 0.8760 0.8780 0.8810 0.8830 0.8860
9.545000 0.8880 0.8910 0.8930 0.8950 0.8950
9.578300 0.8960 0.8980 0.9010 0.9030 0.9050
9.612000 0.9050 0.9060 0.9060 0.9060 0.9050
9.645300 0.9030 0.9010 0.9030 0.9030 0.9030
9.678000 0.9030 0.9030 0.9030 0.9030 0.9030
9.711300 0.9030 0.9050 0.9050 0.9030 0.9030
9.745000 0.9030 0.9030 0.9050 0.9050 0.9060
9.778300 0.9060 0.9080 0.9060 0.9060 0.9030
9.811000 0.9030 0.9010 0.9000 0.9000 0.9000
9.844300 0.9000 0.8980 0.8980 0.8980 0.8980
9.878000 0.8980 0.8960 0.8960 0.8960 0.8950
9.911300 0.8950 0.8930 0.8930 0.8910 0.8900
9.945000 0.8880 0.8880 0.8860 0.8850 0.8830
9.978300 0.8830 0.8830 0.8830 0.8830 0.8830
10.011000 0.8830 0.8850 0.8860 0.8860 0.8880
10.044300 0.8880 0.8900 0.8900 0.8900 0.8910
10.078000 0.8930 0.8930 0.8930 0.8930 0.8930
10.111300 0.8950 0.8930 0.8930 0.8930 0.8930
10.144000 0.8930 0.8930 0.8930 0.8930 0.8930
10.177300 0.8930 0.8930 0.8930 0.8930 0.8930
10.211000 0.8930 0.8930 0.8950 0.8950 0.8980
10.244300 0.8980 0.8980 0.8980 0.8980 0.9000
10.277000 0.9000 0.9010 0.9030 0.9050 0.9050
10.310300 0.9050 0.9080 0.9080 0.9110 0.9130
10.344000 0.9130 0.9150 0.9160 0.9200 0.9210
10.377300 0.9210 0.9200 0.9200 0.9180 0.9180
10.411000 0.9210 0.9210 0.9210 0.9230 0.9250
10.444300 0.9250 0.9250 0.9250 0.9250 0.9250
10.477000 0.9230 0.9210 0.9200 0.9200 0.9160
10.510300 0.9150 0.9150 0.9130 0.9110 0.9110
10.544000 0.9100 0.9080 0.9060 0.9050 0.9030
10.577300 0.9010 0.9000 0.8980 0.8980 0.8960
10.610000 0.8930 0.8880 0.8860 0.8860 0.8860
10.643300 0.8880 0.8880 0.8900 0.8910 0.8930
10.677000 0.8950 0.8980 0.8980 0.9000 0.9010
10.710300 0.9010 0.9030 0.9060 0.9060 0.9080
10.743000 0.9080 0.9080 0.9100 0.9110 0.9110
10.776300 0.9110 0.9110 0.9100 0.9100 0.9100
10.810000 0.9100 0.9080 0.9080 0.9080 0.9060
10.843300 0.9050 0.9050 0.9030 0.8980 0.8950
10.876000 0.8910 0.8880 0.8860 0.8880 0.8880
10.909300 0.8880 0.8880 0.8900 0.8910 0.8910
10.943000 0.8910 0.8930 0.8930 0.8910 0.8900
10.976300 0.8880 0.8850 0.8810 0.8810 0.8810
11.010000 0.8810 0.8810 0.8810 0.8810 0.8810
11.043300 0.8810 0.8810 0.8810 0.8810 0.8830
11.076000 0.8830 0.8830 0.8830 0.8830 0.8810
11.109300 0.8800 0.8780 0.8760 0.8730 0.8710
11.143000 0.8680 0.8610 0.8550 0.8460 0.8430
11.176300 0.8380 0.8360 0.8330 0.8310 0.8300
11.209000 0.8300 0.8230 0.8200 0.8180 0.8180
11.242300 0.8160 0.8150 0.8130 0.8110 0.8100
11.276000 0.8050 0.8010 0.7920 0.7920 0.7900
11.309300 0.7900 0.7920 0.7980 0.8030 0.8100
11.342000 0.8150 0.8230 0.8260 0.8280 0.8330
11.375300 0.8360 0.8400 0.8410 0.8450 0.8480
11.409000 0.8500 0.8510 0.8510 0.8510 0.8510
11.442300 0.8530 0.8530 0.8530 0.8530 0.8550
11.476000 0.8560 0.8560 0.8600 0.8610 0.8630
11.509300 0.8650 0.8660 0.8660 0.8680 0.8680
11.542000 0.8710 0.8730 0.8730 0.8730 0.8730
11.575300 0.8710 0.8710 0.8730 0.8730 0.8730
11.609000 0.8730 0.8730 0.8730 0.8730 0.8730
11.642300 0.8730 0.8730 0.8730 0.8750 0.8750
11.675000 0.8750 0.8750 0.8750 0.8750 0.8750
11.708300 0.8750 0.8730 0.8730 0.8730 0.8710
11.742000 0.8700 0.8660 0.8650 0.8630 0.8630
11.775300 0.8600 0.8580 0.8550 0.8510 0.8480
11.808000 0.8480 0.8460 0.8450 0.8430 0.8380
11.841300 0.8280 0.8260 0.8260 0.8310 0.8310
11.875000 0.8330 0.8330 0.8330 0.8310 0.8300
11.908300 0.8300 0.8300 0.8300 0.8310 0.8310
11.942000 0.8330 0.8360 0.8400 0.8450 0.8480
11.975300 0.8500 0.8510 0.8530 0.8550 0.8560
12.008000 0.8600 0.8610 0.8650 0.8680 0.8700
12.041300 0.8710 0.8710 0.8730 0.8730 0.8730
12.075000 0.8750 0.8750 0.8750 0.8750 0.8730
12.108300 0.8710 0.8710 0.8700 0.8700 0.8710
12.141000 0.8710 0.8710 0.8710 0.8710 0.8710
12.174300 0.8710 0.8710 0.8710 0.8710 0.8700
12.208000 0.8700 0.8700 0.8680 0.8660 0.8650
12.241300 0.8650 0.8610 0.8600 0.8600 0.8580
12.274000 0.8560 0.8550 0.8530 0.8510 0.8500
12.307300 0.8500 0.8480 0.8460 0.8450 0.8430
12.341000 0.8430 0.8410 0.8400 0.8380 0.8380
12.374300 0.8380 0.8380 0.8380 0.8380 0.8380
12.408000 0.8380 0.8360 0.8360 0.8350 0.8330
12.441300 0.8330 0.8310 0.8310 0.8300 0.8300
12.474000 0.8280 0.8260 0.8260 0.8210 0.8180
12.507300 0.8150 0.8100 0.8080 0.8060 0.8050
12.541000 0.8030 0.8030 0.8030 0.8030 0.8030
12.574300 0.8030 0.8030 0.8030 0.8030 0.8030
12.607000 0.8030 0.8010 0.8010 0.8000 0.8000
12.640300 0.7980 0.7980 0.7980 0.7970 0.7930
12.674000 0.7930 0.7930 0.7920 0.7920 0.7900
12.707300 0.7920 0.7920 0.7920 0.7920 0.7920
12.740000 0.7920 0.7920 0.7920 0.7920 0.7920
12.773300 0.7920 0.7920 0.7920 0.7920 0.7920
12.807000 0.7920 0.7920 0.7920 0.7920 0.7920
12.840300 0.7920 0.7920 0.7920 0.7930 0.7930
12.874000 0.7950 0.7970 0.7980 0.8000 0.8000
12.907300 0.8000 0.8000 0.8000 0.8000 0.8000
12.940000 0.8010 0.8010 0.8000 0.7980 0.7980
12.973300 0.7980 0.7980 0.7980 0.7980 0.7970
13.007000 0.7970 0.7970 0.7970 0.7970 0.7970
13.040300 0.7970 0.7970 0.7970 0.7970 0.7970
13.073000 0.7970 0.7970 0.7970 0.7970 0.7970
13.106300 0.7970 0.7970 0.7970 0.7970 0.7970
13.140000 0.7970 0.7970 0.7970 0.7970 0.7970
13.173300 0.7950 0.7950 0.7950 0.7950 0.7950
13.206000 0.7950 0.7950 0.7950 0.7950 0.7950
13.239300 0.7950 0.7950 0.7950 0.7970 0.7970
13.273000 0.7970 0.7970 0.7970 0.7970 0.7970
13.306300 0.7970 0.7970 0.7970 0.7970 0.7970
13.339000 0.7970 0.7970 0.7970 0.7970 0.7970
13.372300 0.7970 0.7970 0.7970 0.7980 0.7970
13.406000 0.7970 0.7970 0.7970 0.7970 0.7950
13.439300 0.7950 0.7950 0.7950 0.7950 0.7950
13.473000 0.7950 0.7950 0.7950 0.7950 0.7930
13.506300 0.7930 0.7930 0.7930 0.7920 0.7920
13.539000 0.7900 0.7900 0.7900 0.7900 0.7880
13.572300 0.7850 0.7800 0.7770 0.7720 0.7670
13.606000 0.7620 0.7580 0.7550 0.7500 0.7450
13.639300 0.7420 0.7370 0.7320 0.7300 0.7270
13.672000 0.7200 0.7150 0.7120 0.7050 0.6980
13.705300 0.6870 0.6720 0.6670 0.6620 0.6570
13.739000 0.6500 0.6430 0.6370 0.6350 0.6320
13.772300 0.6270 0.6220 0.6120 0.6100 0.6100
13.805000 0.6120 0.6150 0.6200 0.6270 0.6330
13.838300 0.6500 0.6580 0.6680 0.6770 0.6850
13.872000 0.6930 0.7020 0.7100 0.7180 0.7270
13.905300 0.7430 0.7520 0.7600 0.7670 0.7730
13.939000 0.7820 0.7870 0.7930 0.8000 0.8050
13.972300 0.8100 0.8150 0.8210 0.8250 0.8260
14.005000 0.8300 0.8330 0.8360 0.8400 0.8410
14.038300 0.8450 0.8480 0.8510 0.8550 0.8580
14.072000 0.8600 0.8610 0.8630 0.8650 0.8660
14.105300 0.8700 0.8710 0.8730 0.8750 0.8760
14.138000 0.8800 0.8810 0.8830 0.8850 0.8850
14.171300 0.8860 0.8880 0.8900 0.8910 0.8910
14.205000 0.8930 0.8950 0.8950 0.8960 0.8960
14.238300 0.8960 0.8980 0.8980 0.9000 0.9000
14.271000 0.9000 0.9010 0.9030 0.9050 0.9050
14.304300 0.9050 0.9060 0.9060 0.9060 0.9080
14.338000 0.9080 0.9080 0.9080 0.9100 0.9100
14.371300 0.9100 0.9110 0.9110 0.9110 0.9110
14.405000 0.9110 0.9130 0.9130 0.9130 0.9130
14.438300 0.9130 0.9130 0.9160 0.9160 0.9160
14.471000 0.9160 0.9160 0.9160 0.9160 0.9160
14.504300 0.9160 0.9160 0.9180 0.9160 0.9150
14.538000 0.9150 0.9150 0.9150 0.9150 0.9150
14.571300 0.9130 0.9130 0.9130 0.9130 0.9130
14.604000 0.9110 0.9130 0.9130 0.9130 0.9150
14.637300 0.9150 0.9150 0.9150 0.9150 0.9150
14.671000 0.9150 0.9150 0.9150 0.9150 0.9150
14.704300 0.9150 0.9130 0.9130 0.9110 0.9130
14.737000 0.9110 0.9100 0.9100 0.9110 0.9130
14.770300 0.9130 0.9150 0.9150 0.9150 0.9150
14.804000 0.9150 0.9150 0.9150 0.9150 0.9150
14.837300 0.9150 0.9150 0.9150 0.9150 0.9130
14.871000 0.9110 0.9110 0.9110 0.9110 0.9110
14.904300 0.9110 0.9110 0.9110 0.9110 0.9110
14.937000 0.9110 0.9110 0.9100 0.9100 0.9100
14.970300 0.9080 0.9060 0.9060 0.9050 0.9030
15.004000 0.8980 0.8910 0.8880 0.8860 0.8830
15.037300 0.8810 0.8810 0.8810 0.8810 0.8850
15.070000 0.8880 0.8910 0.8930 0.8960 0.8960
15.103300 0.8960 0.8980 0.8980 0.9000 0.9000
15.137000 0.9030 0.9050 0.9050 0.9050 0.9050
15.170300 0.9050 0.9050 0.9060 0.9060 0.9060
15.203000 0.9060 0.9060 0.9050 0.9050 0.9050
15.236300 0.9050 0.9030 0.9030 0.9030 0.9030
15.270000 0.9030 0.9010 0.9000 0.9000 0.8980
15.303300 0.8980 0.8960 0.8960 0.8950 0.8950
15.337000 0.8950 0.8930 0.8930 0.8930 0.8930
15.370300 0.8930 0.8910 0.8910 0.8910 0.8910
15.403000 0.8910 0.8900 0.8900 0.8900 0.8900
15.436300 0.8900 0.8900 0.8900 0.8900 0.8900
15.470000 0.8900 0.8900 0.8880 0.8880 0.8880
15.503300 0.8860 0.8860 0.8860 0.8860 0.8850
15.536000 0.8850 0.8850 0.8850 0.8830 0.8830
15.569300 0.8830 0.8830 0.8810 0.8810 0.8810
15.603000 0.8800 0.8800 0.8800 0.8800 0.8780
15.636300 0.8800 0.8800 0.8800 0.8780 0.8760
15.669000 0.8760 0.8750 0.8750 0.8750 0.8730
15.702300 0.8730 0.8730 0.8710 0.8710 0.8710
15.736000 0.8710 0.8710 0.8710 0.8730 0.8730
15.769300 0.8730 0.8730 0.8750 0.8750 0.8750
15.803000 0.8750 0.8750 0.8750 0.8750 0.8730
15.836300 0.8730 0.8710 0.8700 0.8680 0.8660
15.869000 0.8650 0.8610 0.8610 0.8600 0.8600
15.902300 0.8580 0.8600 0.8600 0.8580 0.8580
15.936000 0.8580 0.8560 0.8560 0.8550 0.8550
15.969300 0.8550 0.8530 0.8850 0.8580 0.8580
16.002000 0.8580 0.8560 0.8560 0.8550 0.8550
16.035300 0.8550
##END=
