##TITLE=Cyclopropanamine, 2-phenyl-,sulfate (2 to1), cis-
##JCAMP-DX=4.24
##DATA TYPE=INFRARED SPECTRUM
##CLASS=COBLENTZ III
##ORIGIN=SMITH KLINE & FRENCH LABS.
##OWNER=Copyright (C) 1987 by the Coblentz Society
Collection (C) 2018 copyright by the U.S. Secretary of Commerce
on behalf of the United States of America. All rights reserved.
##DATE=1959/04/16
##MOLFORM=C18 H24 N2 O4 S
##SOURCE REFERENCE=COBLENTZ NO. 9093
##$NIST ID=B6009093
##$NIST SOURCE=COBLENTZ
##$NIST IMAGE=cob9093
##SPECTROMETER/DATA SYSTEM=PERKIN-ELMER 21 (GRATING)
##INSTRUMENT PARAMETERS=NaCl PRISM
##STATE=SOLID (OIL MULL)
$$SPECTRAL CONTAMINATION DUE TO OIL AROUND 2900, 1450, 1380 CM^-^1
##SAMPLING PROCEDURE=TRANSMISSION
##RESOLUTION=2
##DATA PROCESSING=DIGITIZED BY COBLENTZ SOCIETY (BATCH II) FROM HARD COPY
##XUNITS=1/CM
##YUNITS=TRANSMITTANCE
##XFACTOR=1.0
##YFACTOR=1
##FIRSTX=663
##LASTX=4000
##FIRSTY=0.7049
##MAXX=4000
##MINX=663
##MAXY=0.8357
##MINY=0.0378
##NPOINTS=3338
##XYDATA=(X++(Y..Y))
663.000000 0.7049 0.7065 0.7082 0.7099 0.7086
668.000000 0.7119 0.7121 0.7111 0.7089 0.7058
673.000000 0.7014 0.6969 0.6924 0.6880 0.6834
678.000000 0.6787 0.6737 0.6672 0.6602 0.6521
683.000000 0.6409 0.6222 0.5937 0.5595 0.5211
688.000000 0.4669 0.3732 0.2796 0.1800 0.1104
693.000000 0.0965 0.0966 0.0935 0.1921 0.2258
698.000000 0.3025 0.3937 0.4967 0.5476 0.5871
703.000000 0.6173 0.6418 0.6652 0.6836 0.7010
708.000000 0.7153 0.7273 0.7373 0.7424 0.7452
713.000000 0.7434 0.7420 0.7391 0.7357 0.7324
718.000000 0.7291 0.7258 0.7243 0.7233 0.7243
723.000000 0.7244 0.7239 0.7223 0.7164 0.7093
728.000000 0.7006 0.6910 0.6800 0.6684 0.6492
733.000000 0.6200 0.5864 0.5323 0.4777 0.4040
738.000000 0.3175 0.2312 0.1451 0.1220 0.1552
743.000000 0.1809 0.1844 0.1852 0.1849 0.1954
748.000000 0.2258 0.3251 0.4267 0.5013 0.4991
753.000000 0.4813 0.4586 0.4601 0.5306 0.6170
758.000000 0.7031 0.7441 0.7548 0.7670 0.7797
763.000000 0.7889 0.7936 0.7959 0.7974 0.7989
768.000000 0.8005 0.8026 0.8055 0.8084 0.8112
773.000000 0.8141 0.8171 0.8199 0.8220 0.8204
778.000000 0.8187 0.8190 0.8228 0.8265 0.8299
783.000000 0.8329 0.8341 0.8354 0.8357 0.8352
788.000000 0.8348 0.8314 0.8268 0.8211 0.8159
793.000000 0.8188 0.8258 0.8255 0.8218 0.8143
798.000000 0.8055 0.7961 0.7867 0.7773 0.7673
803.000000 0.7534 0.7369 0.7070 0.7061 0.7166
808.000000 0.7186 0.7049 0.7052 0.7256 0.7430
813.000000 0.7844 0.8011 0.8062 0.8099 0.8127
818.000000 0.8157 0.8187 0.8199 0.8197 0.8158
823.000000 0.8182 0.8142 0.8171 0.8186 0.8186
828.000000 0.8176 0.8157 0.8131 0.8104 0.8073
833.000000 0.8040 0.8003 0.7962 0.7921 0.7881
838.000000 0.7871 0.7882 0.7912 0.7919 0.7900
843.000000 0.7875 0.7846 0.7815 0.7754 0.7692
848.000000 0.7684 0.7726 0.7784 0.7803 0.7815
853.000000 0.7816 0.7812 0.7798 0.7785 0.7766
858.000000 0.7737 0.7708 0.7680 0.7644 0.7603
863.000000 0.7563 0.7520 0.7459 0.7398 0.7334
868.000000 0.7247 0.7160 0.7064 0.6944 0.6823
873.000000 0.6645 0.6419 0.5993 0.5729 0.5123
878.000000 0.5065 0.5075 0.5570 0.6018 0.6333
883.000000 0.6339 0.6286 0.6238 0.6248 0.6312
888.000000 0.6504 0.6695 0.6900 0.6986 0.7007
893.000000 0.7011 0.7006 0.6981 0.6926 0.6847
898.000000 0.6733 0.6616 0.6484 0.6241 0.5960
903.000000 0.5670 0.5490 0.5479 0.5483 0.5889
908.000000 0.6239 0.6404 0.6408 0.6426 0.6289
913.000000 0.6005 0.5482 0.4958 0.4437 0.4255
918.000000 0.4248 0.4361 0.4904 0.5464 0.6033
923.000000 0.6171 0.6242 0.6262 0.6259 0.6281
928.000000 0.6238 0.6198 0.6024 0.5967 0.5884
933.000000 0.5676 0.5468 0.5260 0.5053 0.4847
938.000000 0.4640 0.4450 0.4479 0.4713 0.4745
943.000000 0.4740 0.4706 0.4633 0.4514 0.4192
948.000000 0.3869 0.3850 0.3847 0.3715 0.3447
953.000000 0.3180 0.2913 0.2647 0.2382 0.2262
958.000000 0.1988 0.1295 0.1218 0.1320 0.1798
963.000000 0.2296 0.2792 0.3287 0.3781 0.4274
968.000000 0.4766 0.5257 0.5747 0.6187 0.6213
973.000000 0.6029 0.5813 0.5723 0.5660 0.5609
978.000000 0.5559 0.5513 0.5434 0.5187 0.5033
983.000000 0.4910 0.4782 0.4651 0.4533 0.4437
988.000000 0.4331 0.4224 0.4098 0.3912 0.3682
993.000000 0.3289 0.3079 0.2799 0.2665 0.2610
998.000000 0.2558 0.2502 0.2428 0.2351 0.2272
1003.000000 0.2191 0.2097 0.1763 0.1295 0.1178
1008.000000 0.1075 0.0984 0.0904 0.0826 0.0776
1013.000000 0.0733 0.0692 0.0650 0.0615 0.0593
1018.000000 0.0573 0.0552 0.0531 0.0515 0.0505
1023.000000 0.0501 0.0504 0.0507 0.0494 0.0514
1028.000000 0.0518 0.0529 0.0543 0.0572 0.0603
1033.000000 0.0647 0.0693 0.0729 0.0758 0.0781
1038.000000 0.0793 0.0804 0.0816 0.0847 0.0943
1043.000000 0.1127 0.1484 0.1687 0.1833 0.1918
1048.000000 0.2121 0.2233 0.2280 0.2304 0.2319
1053.000000 0.2339 0.2467 0.2770 0.2990 0.3148
1058.000000 0.3303 0.3427 0.3525 0.3600 0.3657
1063.000000 0.3711 0.3762 0.3818 0.3873 0.3923
1068.000000 0.3928 0.3929 0.3936 0.3866 0.3783
1073.000000 0.3647 0.3433 0.3202 0.2970 0.2740
1078.000000 0.2508 0.2278 0.2045 0.1902 0.1831
1083.000000 0.1808 0.1813 0.1825 0.1836 0.1855
1088.000000 0.1867 0.1785 0.1642 0.1487 0.1283
1093.000000 0.1144 0.1015 0.0984 0.1002 0.1021
1098.000000 0.1079 0.1143 0.1131 0.1111 0.1084
1103.000000 0.1049 0.1013 0.0977 0.0944 0.0913
1108.000000 0.0884 0.0857 0.0831 0.0817 0.0810
1113.000000 0.0783 0.0821 0.0835 0.0857 0.0881
1118.000000 0.0907 0.0969 0.1083 0.1226 0.1382
1123.000000 0.1585 0.1742 0.1869 0.1937 0.1996
1128.000000 0.2036 0.2067 0.2083 0.2095 0.2106
1133.000000 0.2142 0.2104 0.2100 0.2094 0.2087
1138.000000 0.2078 0.2068 0.2049 0.2024 0.1995
1143.000000 0.1941 0.1777 0.1423 0.1243 0.1162
1148.000000 0.1104 0.1060 0.1021 0.0986 0.0971
1153.000000 0.0977 0.0947 0.1501 0.1667 0.1808
1158.000000 0.1931 0.2043 0.2148 0.2237 0.2365
1163.000000 0.2680 0.3015 0.3304 0.3488 0.3710
1168.000000 0.3968 0.4141 0.4263 0.4336 0.4407
1173.000000 0.4474 0.4515 0.4542 0.4512 0.4420
1178.000000 0.4347 0.4293 0.4258 0.4252 0.4246
1183.000000 0.4251 0.4261 0.4242 0.4318 0.4350
1188.000000 0.4376 0.4395 0.4381 0.4353 0.4320
1193.000000 0.4302 0.4302 0.4321 0.4345 0.4475
1198.000000 0.4639 0.4804 0.4967 0.5131 0.5295
1203.000000 0.5458 0.5633 0.5839 0.5990 0.6095
1208.000000 0.6204 0.6328 0.6419 0.6498 0.6581
1213.000000 0.6707 0.6849 0.6976 0.7048 0.7078
1218.000000 0.7096 0.7112 0.7105 0.7090 0.7058
1223.000000 0.7019 0.6969 0.6897 0.6821 0.6743
1228.000000 0.6675 0.6609 0.6576 0.6569 0.6582
1233.000000 0.6589 0.6588 0.6541 0.6450 0.6392
1238.000000 0.6348 0.6325 0.6306 0.6306 0.6281
1243.000000 0.6346 0.6381 0.6462 0.6714 0.6968
1248.000000 0.7209 0.7309 0.7384 0.7454 0.7499
1253.000000 0.7527 0.7555 0.7582 0.7595 0.7609
1258.000000 0.7622 0.7635 0.7644 0.7652 0.7661
1263.000000 0.7669 0.7674 0.7676 0.7679 0.7681
1268.000000 0.7684 0.7686 0.7686 0.7683 0.7681
1273.000000 0.7679 0.7677 0.7674 0.7672 0.7674
1278.000000 0.7679 0.7684 0.7688 0.7695 0.7680
1283.000000 0.7728 0.7729 0.7721 0.7712 0.7703
1288.000000 0.7693 0.7684 0.7675 0.7668 0.7663
1293.000000 0.7658 0.7652 0.7648 0.7643 0.7637
1298.000000 0.7632 0.7628 0.7628 0.7630 0.7631
1303.000000 0.7633 0.7634 0.7637 0.7638 0.7642
1308.000000 0.7652 0.7662 0.7672 0.7679 0.7683
1313.000000 0.7687 0.7691 0.7690 0.7686 0.7682
1318.000000 0.7678 0.7670 0.7660 0.7651 0.7641
1323.000000 0.7631 0.7616 0.7599 0.7580 0.7557
1328.000000 0.7531 0.7505 0.7460 0.7407 0.7350
1333.000000 0.7276 0.7202 0.7122 0.7024 0.6926
1338.000000 0.6830 0.6738 0.6658 0.6615 0.6610
1343.000000 0.6614 0.6623 0.6634 0.6654 0.6704
1348.000000 0.6769 0.6823 0.6861 0.6861 0.6859
1353.000000 0.6853 0.6847 0.6842 0.6800 0.6738
1358.000000 0.6472 0.6108 0.5798 0.5700 0.5650
1363.000000 0.5597 0.5542 0.5489 0.5389 0.5164
1368.000000 0.4926 0.4688 0.4451 0.4214 0.3978
1373.000000 0.3759 0.3695 0.3690 0.3768 0.4026
1378.000000 0.4285 0.4544 0.4801 0.5058 0.5316
1383.000000 0.5572 0.5828 0.6084 0.6309 0.6494
1388.000000 0.6680 0.6983 0.7230 0.7280 0.7267
1393.000000 0.7277 0.7206 0.7129 0.7050 0.6934
1398.000000 0.6846 0.6794 0.6744 0.6704 0.6695
1403.000000 0.6669 0.6751 0.6808 0.6873 0.6992
1408.000000 0.7115 0.7235 0.7324 0.7403 0.7474
1413.000000 0.7517 0.7520 0.7516 0.7506 0.7480
1418.000000 0.7438 0.7392 0.7342 0.7292 0.7219
1423.000000 0.7139 0.7061 0.6984 0.6854 0.6507
1428.000000 0.6133 0.5758 0.5385 0.5012 0.4639
1433.000000 0.4226 0.3863 0.3635 0.3411 0.3164
1438.000000 0.2920 0.2807 0.2710 0.2642 0.2582
1443.000000 0.2539 0.2502 0.2465 0.2429 0.2395
1448.000000 0.2363 0.2330 0.2295 0.2257 0.2206
1453.000000 0.2046 0.1635 0.1389 0.1303 0.1233
1458.000000 0.1163 0.1096 0.1064 0.1060 0.1063
1463.000000 0.1078 0.1107 0.1526 0.2008 0.2160
1468.000000 0.2300 0.2824 0.3346 0.3869 0.4390
1473.000000 0.4911 0.5424 0.5563 0.5713 0.5921
1478.000000 0.6103 0.6245 0.6332 0.6406 0.6436
1483.000000 0.6483 0.6458 0.6456 0.6444 0.6413
1488.000000 0.6288 0.6128 0.5968 0.5808 0.5648
1493.000000 0.5489 0.5330 0.5224 0.5211 0.5196
1498.000000 0.5581 0.5956 0.6332 0.6707 0.6899
1503.000000 0.6904 0.6902 0.6899 0.6896 0.6892
1508.000000 0.6888 0.6884 0.6880 0.6876 0.6871
1513.000000 0.6865 0.6858 0.6851 0.6845 0.6894
1518.000000 0.6832 0.6825 0.6819 0.6809 0.6791
1523.000000 0.6748 0.6658 0.6529 0.6396 0.6328
1528.000000 0.6288 0.6264 0.6241 0.6212 0.6156
1533.000000 0.5944 0.5698 0.5453 0.5209 0.4964
1538.000000 0.4771 0.4693 0.4668 0.4643 0.4619
1543.000000 0.4596 0.4574 0.4552 0.4517 0.4479
1548.000000 0.4439 0.4359 0.4192 0.4026 0.3859
1553.000000 0.3694 0.3528 0.3362 0.3222 0.3167
1558.000000 0.3198 0.3166 0.3194 0.3286 0.3414
1563.000000 0.3542 0.3669 0.3797 0.3862 0.3855
1568.000000 0.3864 0.3787 0.3654 0.3515 0.3376
1573.000000 0.3237 0.3099 0.2961 0.2822 0.2684
1578.000000 0.2609 0.2619 0.2590 0.2929 0.3103
1583.000000 0.3278 0.3451 0.3625 0.3799 0.3971
1588.000000 0.4145 0.4317 0.4490 0.4663 0.4835
1593.000000 0.5007 0.5080 0.5124 0.5092 0.5022
1598.000000 0.4904 0.4786 0.4668 0.4573 0.4535
1603.000000 0.4542 0.4636 0.4733 0.4831 0.4928
1608.000000 0.5025 0.5098 0.5115 0.5106 0.5089
1613.000000 0.5009 0.4929 0.4848 0.4769 0.4689
1618.000000 0.4609 0.4530 0.4450 0.4371 0.4292
1623.000000 0.4213 0.4133 0.4054 0.3975 0.3897
1628.000000 0.3836 0.3815 0.3840 0.3839 0.3934
1633.000000 0.4068 0.4201 0.4277 0.4289 0.4348
1638.000000 0.4523 0.4724 0.4925 0.5126 0.5391
1643.000000 0.5622 0.5749 0.5924 0.6129 0.6513
1648.000000 0.6665 0.6769 0.6856 0.6939 0.7010
1653.000000 0.7065 0.7116 0.7166 0.7212 0.7250
1658.000000 0.7282 0.7314 0.7346 0.7377 0.7410
1663.000000 0.7441 0.7465 0.7484 0.7503 0.7522
1668.000000 0.7541 0.7561 0.7579 0.7598 0.7617
1673.000000 0.7636 0.7652 0.7667 0.7683 0.7698
1678.000000 0.7713 0.7728 0.7743 0.7753 0.7759
1683.000000 0.7763 0.7767 0.7771 0.7776 0.7780
1688.000000 0.7784 0.7787 0.7788 0.7788 0.7789
1693.000000 0.7790 0.7790 0.7791 0.7791 0.7792
1698.000000 0.7794 0.7796 0.7799 0.7802 0.7802
1703.000000 0.7799 0.7797 0.7794 0.7792 0.7790
1708.000000 0.7787 0.7782 0.7776 0.7770 0.7764
1713.000000 0.7757 0.7771 0.7800 0.7825 0.7858
1718.000000 0.7889 0.7907 0.7923 0.7938 0.7953
1723.000000 0.7969 0.7975 0.7980 0.7984 0.7989
1728.000000 0.7992 0.7991 0.7991 0.7989 0.7988
1733.000000 0.7987 0.7985 0.7984 0.7983 0.7982
1738.000000 0.7980 0.7979 0.7977 0.7977 0.7977
1743.000000 0.7976 0.7975 0.7975 0.7974 0.7974
1748.000000 0.7974 0.7973 0.7973 0.7972 0.7971
1753.000000 0.7971 0.7971 0.7970 0.7970 0.7969
1758.000000 0.7969 0.7974 0.7981 0.7988 0.7995
1763.000000 0.8001 0.8008 0.8015 0.8022 0.8029
1768.000000 0.8035 0.8049 0.8062 0.8075 0.8088
1773.000000 0.8102 0.8110 0.8112 0.8095 0.8110
1778.000000 0.8110 0.8109 0.8108 0.8107 0.8105
1783.000000 0.8099 0.8093 0.8087 0.8081 0.8074
1788.000000 0.8069 0.8063 0.8057 0.8051 0.8045
1793.000000 0.8039 0.8033 0.8027 0.8021 0.8016
1798.000000 0.8011 0.8005 0.8001 0.7995 0.7991
1803.000000 0.7986 0.7980 0.7975 0.7970 0.7965
1808.000000 0.7960 0.7954 0.7950 0.7945 0.7939
1813.000000 0.7934 0.7928 0.7921 0.7913 0.7905
1818.000000 0.7898 0.7890 0.7883 0.7875 0.7868
1823.000000 0.7861 0.7854 0.7846 0.7839 0.7831
1828.000000 0.7824 0.7816 0.7809 0.7802 0.7796
1833.000000 0.7790 0.7785 0.7781 0.7776 0.7772
1838.000000 0.7768 0.7763 0.7759 0.7755 0.7751
1843.000000 0.7746 0.7742 0.7738 0.7733 0.7729
1848.000000 0.7724 0.7720 0.7716 0.7712 0.7708
1853.000000 0.7703 0.7700 0.7697 0.7694 0.7692
1858.000000 0.7690 0.7688 0.7687 0.7685 0.7682
1863.000000 0.7680 0.7678 0.7676 0.7675 0.7673
1868.000000 0.7670 0.7668 0.7666 0.7665 0.7663
1873.000000 0.7661 0.7659 0.7657 0.7655 0.7653
1878.000000 0.7651 0.7649 0.7647 0.7645 0.7644
1883.000000 0.7644 0.7645 0.7645 0.7646 0.7647
1888.000000 0.7647 0.7649 0.7650 0.7650 0.7651
1893.000000 0.7652 0.7653 0.7653 0.7654 0.7655
1898.000000 0.7655 0.7655 0.7654 0.7653 0.7651
1903.000000 0.7650 0.7648 0.7646 0.7645 0.7643
1908.000000 0.7632 0.7619 0.7605 0.7591 0.7577
1913.000000 0.7563 0.7549 0.7535 0.7522 0.7508
1918.000000 0.7494 0.7480 0.7465 0.7450 0.7436
1923.000000 0.7421 0.7406 0.7391 0.7375 0.7360
1928.000000 0.7342 0.7319 0.7296 0.7273 0.7250
1933.000000 0.7228 0.7204 0.7180 0.7155 0.7131
1938.000000 0.7106 0.7092 0.7085 0.7087 0.7091
1943.000000 0.7094 0.7097 0.7101 0.7104 0.7108
1948.000000 0.7112 0.7115 0.7119 0.7123 0.7126
1953.000000 0.7129 0.7133 0.7137 0.7140 0.7143
1958.000000 0.7145 0.7148 0.7150 0.7153 0.7156
1963.000000 0.7154 0.7151 0.7145 0.7139 0.7132
1968.000000 0.7126 0.7120 0.7114 0.7107 0.7101
1973.000000 0.7095 0.7089 0.7083 0.7077 0.7071
1978.000000 0.7066 0.7060 0.7054 0.7048 0.7043
1983.000000 0.7038 0.7034 0.7036 0.7039 0.7043
1988.000000 0.7046 0.7049 0.7051 0.7054 0.7057
1993.000000 0.7061 0.7064 0.7067 0.7070 0.7073
1998.000000 0.7075 0.7076 0.7076 0.7073 0.7071
2003.000000 0.7068 0.7066 0.7063 0.7061 0.7058
2008.000000 0.7056 0.7053 0.7051 0.7049 0.7047
2013.000000 0.7044 0.7042 0.7036 0.7027 0.7016
2018.000000 0.7006 0.6996 0.6986 0.6976 0.6965
2023.000000 0.6955 0.6945 0.6934 0.6924 0.6913
2028.000000 0.6903 0.6893 0.6883 0.6873 0.6861
2033.000000 0.6850 0.6839 0.6828 0.6817 0.6806
2038.000000 0.6795 0.6784 0.6773 0.6762 0.6751
2043.000000 0.6740 0.6729 0.6718 0.6707 0.6696
2048.000000 0.6685 0.6675 0.6665 0.6655 0.6645
2053.000000 0.6635 0.6626 0.6616 0.6606 0.6596
2058.000000 0.6586 0.6576 0.6566 0.6557 0.6547
2063.000000 0.6537 0.6527 0.6517 0.6507 0.6495
2068.000000 0.6483 0.6472 0.6460 0.6448 0.6435
2073.000000 0.6423 0.6411 0.6399 0.6387 0.6375
2078.000000 0.6363 0.6351 0.6339 0.6327 0.6315
2083.000000 0.6303 0.6295 0.6290 0.6285 0.6280
2088.000000 0.6275 0.6270 0.6265 0.6260 0.6256
2093.000000 0.6251 0.6246 0.6244 0.6222 0.6244
2098.000000 0.6245 0.6245 0.6246 0.6247 0.6247
2103.000000 0.6249 0.6253 0.6260 0.6268 0.6276
2108.000000 0.6284 0.6293 0.6301 0.6309 0.6317
2113.000000 0.6325 0.6333 0.6341 0.6349 0.6358
2118.000000 0.6365 0.6373 0.6382 0.6390 0.6398
2123.000000 0.6406 0.6414 0.6422 0.6431 0.6438
2128.000000 0.6446 0.6455 0.6463 0.6470 0.6478
2133.000000 0.6487 0.6494 0.6502 0.6510 0.6518
2138.000000 0.6526 0.6534 0.6541 0.6549 0.6557
2143.000000 0.6566 0.6576 0.6588 0.6600 0.6612
2148.000000 0.6624 0.6636 0.6648 0.6661 0.6673
2153.000000 0.6685 0.6696 0.6708 0.6718 0.6729
2158.000000 0.6740 0.6752 0.6763 0.6774 0.6785
2163.000000 0.6796 0.6807 0.6818 0.6829 0.6837
2168.000000 0.6843 0.6847 0.6851 0.6855 0.6858
2173.000000 0.6862 0.6865 0.6869 0.6872 0.6875
2178.000000 0.6879 0.6882 0.6885 0.6887 0.6888
2183.000000 0.6889 0.6890 0.6892 0.6893 0.6894
2188.000000 0.6895 0.6896 0.6903 0.6910 0.6919
2193.000000 0.6929 0.6938 0.6964 0.6950 0.6953
2198.000000 0.6949 0.6946 0.6943 0.6940 0.6936
2203.000000 0.6933 0.6930 0.6927 0.6924 0.6921
2208.000000 0.6918 0.6915 0.6912 0.6909 0.6906
2213.000000 0.6904 0.6901 0.6897 0.6893 0.6888
2218.000000 0.6883 0.6878 0.6874 0.6869 0.6864
2223.000000 0.6859 0.6854 0.6848 0.6843 0.6838
2228.000000 0.6833 0.6828 0.6822 0.6817 0.6811
2233.000000 0.6806 0.6801 0.6796 0.6790 0.6785
2238.000000 0.6780 0.6775 0.6769 0.6764 0.6759
2243.000000 0.6754 0.6748 0.6743 0.6738 0.6733
2248.000000 0.6727 0.6720 0.6713 0.6707 0.6700
2253.000000 0.6694 0.6687 0.6681 0.6674 0.6667
2258.000000 0.6661 0.6654 0.6648 0.6641 0.6635
2263.000000 0.6628 0.6622 0.6615 0.6608 0.6601
2268.000000 0.6595 0.6588 0.6580 0.6573 0.6566
2273.000000 0.6560 0.6553 0.6546 0.6539 0.6532
2278.000000 0.6525 0.6518 0.6511 0.6505 0.6497
2283.000000 0.6490 0.6483 0.6477 0.6470 0.6463
2288.000000 0.6457 0.6450 0.6441 0.6430 0.6420
2293.000000 0.6408 0.6397 0.6385 0.6374 0.6362
2298.000000 0.6350 0.6339 0.6328 0.6317 0.6306
2303.000000 0.6295 0.6284 0.6273 0.6262 0.6251
2308.000000 0.6240 0.6227 0.6213 0.6198 0.6182
2313.000000 0.6165 0.6149 0.6133 0.6117 0.6101
2318.000000 0.6085 0.6068 0.6052 0.6036 0.6018
2323.000000 0.6000 0.5980 0.5957 0.5935 0.5914
2328.000000 0.5893 0.5876 0.5858 0.5844 0.5830
2333.000000 0.5816 0.5802 0.5788 0.5774 0.5760
2338.000000 0.5746 0.5733 0.5720 0.5707 0.5694
2343.000000 0.5681 0.5668 0.5655 0.5643 0.5630
2348.000000 0.5617 0.5604 0.5592 0.5579 0.5567
2353.000000 0.5561 0.5555 0.5551 0.5547 0.5543
2358.000000 0.5539 0.5536 0.5532 0.5528 0.5524
2363.000000 0.5520 0.5517 0.5513 0.5509 0.5505
2368.000000 0.5501 0.5497 0.5493 0.5489 0.5485
2373.000000 0.5481 0.5477 0.5473 0.5469 0.5465
2378.000000 0.5461 0.5454 0.5441 0.5428 0.5413
2383.000000 0.5398 0.5383 0.5368 0.5353 0.5338
2388.000000 0.5321 0.5296 0.5271 0.5246 0.5220
2393.000000 0.5194 0.5168 0.5140 0.5109 0.5077
2398.000000 0.5046 0.5015 0.4989 0.4965 0.4943
2403.000000 0.4926 0.4908 0.4890 0.4872 0.4855
2408.000000 0.4838 0.4820 0.4803 0.4784 0.4761
2413.000000 0.4738 0.4714 0.4690 0.4665 0.4641
2418.000000 0.4616 0.4586 0.4557 0.4525 0.4491
2423.000000 0.4458 0.4425 0.4394 0.4374 0.4353
2428.000000 0.4334 0.4314 0.4295 0.4276 0.4257
2433.000000 0.4237 0.4218 0.4199 0.4180 0.4161
2438.000000 0.4141 0.4122 0.4101 0.4080 0.4058
2443.000000 0.4035 0.4013 0.3990 0.3968 0.3945
2448.000000 0.3923 0.3904 0.3890 0.3876 0.3864
2453.000000 0.3851 0.3839 0.3826 0.3814 0.3803
2458.000000 0.3792 0.3782 0.3772 0.3762 0.3752
2463.000000 0.3742 0.3732 0.3722 0.3705 0.3681
2468.000000 0.3656 0.3631 0.3606 0.3581 0.3556
2473.000000 0.3532 0.3508 0.3484 0.3461 0.3438
2478.000000 0.3415 0.3392 0.3369 0.3346 0.3323
2483.000000 0.3300 0.3278 0.3255 0.3237 0.3218
2488.000000 0.3199 0.3181 0.3162 0.3144 0.3125
2493.000000 0.3106 0.3088 0.3069 0.3050 0.3032
2498.000000 0.3013 0.2995 0.2977 0.2958 0.2940
2503.000000 0.2917 0.2890 0.2864 0.2837 0.2810
2508.000000 0.2784 0.2757 0.2730 0.2703 0.2676
2513.000000 0.2649 0.2622 0.2596 0.2562 0.2527
2518.000000 0.2492 0.2457 0.2422 0.2387 0.2351
2523.000000 0.2323 0.2312 0.2300 0.2292 0.2284
2528.000000 0.2276 0.2269 0.2261 0.2254 0.2246
2533.000000 0.2238 0.2231 0.2223 0.2216 0.2208
2538.000000 0.2200 0.2193 0.2185 0.2178 0.2171
2543.000000 0.2163 0.2155 0.2147 0.2139 0.2131
2548.000000 0.2123 0.2115 0.2107 0.2099 0.2090
2553.000000 0.2082 0.2073 0.2065 0.2057 0.2049
2558.000000 0.2041 0.2033 0.2025 0.2017 0.2012
2563.000000 0.2009 0.2007 0.2004 0.2001 0.1998
2568.000000 0.1995 0.1992 0.1989 0.1986 0.1983
2573.000000 0.1980 0.1977 0.1973 0.1970 0.1967
2578.000000 0.1964 0.1961 0.1958 0.1955 0.1952
2583.000000 0.1949 0.1946 0.1943 0.1941 0.1938
2588.000000 0.1935 0.1932 0.1930 0.1926 0.1923
2593.000000 0.1920 0.1917 0.1914 0.1911 0.1908
2598.000000 0.1905 0.1902 0.1899 0.1896 0.1893
2603.000000 0.1889 0.1886 0.1883 0.1880 0.1877
2608.000000 0.1874 0.1871 0.1866 0.1858 0.1850
2613.000000 0.1841 0.1832 0.1823 0.1814 0.1805
2618.000000 0.1796 0.1787 0.1778 0.1758 0.1724
2623.000000 0.1690 0.1649 0.1604 0.1559 0.1542
2628.000000 0.1528 0.1513 0.1498 0.1483 0.1468
2633.000000 0.1453 0.1439 0.1425 0.1412 0.1399
2638.000000 0.1394 0.1390 0.1386 0.1382 0.1378
2643.000000 0.1373 0.1369 0.1365 0.1361 0.1357
2648.000000 0.1353 0.1349 0.1346 0.1343 0.1342
2653.000000 0.1341 0.1340 0.1340 0.1340 0.1339
2658.000000 0.1339 0.1338 0.1351 0.1338 0.1338
2663.000000 0.1338 0.1340 0.1341 0.1343 0.1344
2668.000000 0.1345 0.1347 0.1349 0.1351 0.1354
2673.000000 0.1357 0.1360 0.1365 0.1370 0.1374
2678.000000 0.1379 0.1383 0.1388 0.1392 0.1397
2683.000000 0.1402 0.1407 0.1413 0.1419 0.1426
2688.000000 0.1433 0.1440 0.1447 0.1454 0.1461
2693.000000 0.1468 0.1475 0.1483 0.1491 0.1499
2698.000000 0.1514 0.1529 0.1544 0.1559 0.1574
2703.000000 0.1589 0.1605 0.1621 0.1638 0.1654
2708.000000 0.1670 0.1687 0.1703 0.1719 0.1737
2713.000000 0.1755 0.1773 0.1792 0.1812 0.1831
2718.000000 0.1843 0.1851 0.1859 0.1864 0.1867
2723.000000 0.1870 0.1874 0.1877 0.1881 0.1882
2728.000000 0.1884 0.1885 0.1869 0.1884 0.1883
2733.000000 0.1882 0.1881 0.1881 0.1880 0.1879
2738.000000 0.1878 0.1877 0.1876 0.1875 0.1871
2743.000000 0.1866 0.1861 0.1849 0.1836 0.1823
2748.000000 0.1809 0.1795 0.1781 0.1767 0.1752
2753.000000 0.1738 0.1723 0.1709 0.1694 0.1680
2758.000000 0.1665 0.1651 0.1637 0.1622 0.1608
2763.000000 0.1591 0.1573 0.1555 0.1537 0.1519
2768.000000 0.1501 0.1483 0.1466 0.1448 0.1430
2773.000000 0.1413 0.1395 0.1379 0.1363 0.1348
2778.000000 0.1332 0.1317 0.1301 0.1285 0.1270
2783.000000 0.1254 0.1239 0.1221 0.1204 0.1187
2788.000000 0.1165 0.1143 0.1120 0.1098 0.1076
2793.000000 0.1053 0.1033 0.1014 0.0995 0.0977
2798.000000 0.0959 0.0941 0.0924 0.0906 0.0888
2803.000000 0.0870 0.0852 0.0834 0.0817 0.0799
2808.000000 0.0782 0.0764 0.0747 0.0729 0.0712
2813.000000 0.0695 0.0678 0.0661 0.0644 0.0628
2818.000000 0.0612 0.0596 0.0580 0.0564 0.0548
2823.000000 0.0532 0.0516 0.0501 0.0489 0.0478
2828.000000 0.0466 0.0457 0.0448 0.0440 0.0433
2833.000000 0.0426 0.0420 0.0416 0.0415 0.0414
2838.000000 0.0413 0.0412 0.0411 0.0409 0.0408
2843.000000 0.0407 0.0406 0.0405 0.0404 0.0403
2848.000000 0.0402 0.0402 0.0402 0.0401 0.0401
2853.000000 0.0400 0.0399 0.0399 0.0398 0.0398
2858.000000 0.0397 0.0396 0.0396 0.0395 0.0395
2863.000000 0.0394 0.0393 0.0393 0.0393 0.0392
2868.000000 0.0392 0.0391 0.0391 0.0390 0.0389
2873.000000 0.0389 0.0388 0.0388 0.0388 0.0387
2878.000000 0.0387 0.0386 0.0386 0.0385 0.0384
2883.000000 0.0384 0.0383 0.0383 0.0383 0.0382
2888.000000 0.0382 0.0381 0.0381 0.0380 0.0379
2893.000000 0.0379 0.0378 0.0378 0.0378 0.0378
2898.000000 0.0378 0.0378 0.0378 0.0379 0.0379
2903.000000 0.0379 0.0380 0.0380 0.0380 0.0381
2908.000000 0.0381 0.0381 0.0381 0.0382 0.0382
2913.000000 0.0382 0.0383 0.0384 0.0385 0.0386
2918.000000 0.0388 0.0390 0.0392 0.0393 0.0395
2923.000000 0.0397 0.0400 0.0403 0.0407 0.0411
2928.000000 0.0424 0.0442 0.0461 0.0479 0.0497
2933.000000 0.0514 0.0532 0.0545 0.0556 0.0567
2938.000000 0.0577 0.0588 0.0599 0.0610 0.0621
2943.000000 0.0632 0.0643 0.0658 0.0680 0.0701
2948.000000 0.0723 0.0745 0.0767 0.0789 0.0815
2953.000000 0.0847 0.0880 0.0913 0.0948 0.0984
2958.000000 0.1020 0.1056 0.1092 0.1127 0.1163
2963.000000 0.1199 0.1235 0.1270 0.1306 0.1341
2968.000000 0.1377 0.1412 0.1448 0.1484 0.1519
2973.000000 0.1555 0.1589 0.1623 0.1658 0.1679
2978.000000 0.1697 0.1714 0.1731 0.1743 0.1755
2983.000000 0.1767 0.1774 0.1780 0.1785 0.1790
2988.000000 0.1795 0.1800 0.1805 0.1810 0.1815
2993.000000 0.1820 0.1825 0.1830 0.1834 0.1839
2998.000000 0.1843 0.1847 0.1850 0.1854 0.1857
3003.000000 0.1861 0.1865 0.1868 0.1872 0.1875
3008.000000 0.1879 0.1883 0.1887 0.1890 0.1894
3013.000000 0.1899 0.1904 0.1909 0.1915 0.1923
3018.000000 0.1930 0.1938 0.1949 0.1962 0.1975
3023.000000 0.1988 0.2014 0.2040 0.2066 0.2087
3028.000000 0.2101 0.2115 0.2128 0.2140 0.2152
3033.000000 0.2163 0.2175 0.2182 0.2189 0.2196
3038.000000 0.2202 0.2207 0.2212 0.2217 0.2221
3043.000000 0.2226 0.2231 0.2235 0.2240 0.2245
3048.000000 0.2250 0.2255 0.2259 0.2264 0.2268
3053.000000 0.2275 0.2283 0.2291 0.2300 0.2318
3058.000000 0.2341 0.2363 0.2385 0.2419 0.2454
3063.000000 0.2488 0.2533 0.2608 0.2683 0.2758
3068.000000 0.2810 0.2840 0.2869 0.2899 0.2921
3073.000000 0.2940 0.2960 0.2979 0.2992 0.3005
3078.000000 0.3018 0.3030 0.3041 0.3051 0.3061
3083.000000 0.3071 0.3082 0.3092 0.3102 0.3112
3088.000000 0.3123 0.3133 0.3143 0.3149 0.3152
3093.000000 0.3156 0.3160 0.3164 0.3167 0.3170
3098.000000 0.3174 0.3177 0.3181 0.3184 0.3187
3103.000000 0.3190 0.3194 0.3197 0.3200 0.3203
3108.000000 0.3206 0.3209 0.3212 0.3215 0.3218
3113.000000 0.3221 0.3224 0.3227 0.3230 0.3233
3118.000000 0.3236 0.3239 0.3242 0.3245 0.3251
3123.000000 0.3257 0.3263 0.3270 0.3294 0.3319
3128.000000 0.3343 0.3368 0.3392 0.3416 0.3440
3133.000000 0.3464 0.3485 0.3506 0.3527 0.3549
3138.000000 0.3577 0.3605 0.3633 0.3658 0.3674
3143.000000 0.3691 0.3708 0.3724 0.3735 0.3747
3148.000000 0.3758 0.3771 0.3785 0.3799 0.3812
3153.000000 0.3829 0.3849 0.3868 0.3888 0.3908
3158.000000 0.3928 0.3948 0.3967 0.3997 0.4038
3163.000000 0.4079 0.4120 0.4156 0.4185 0.4214
3168.000000 0.4244 0.4272 0.4300 0.4327 0.4354
3173.000000 0.4386 0.4422 0.4459 0.4496 0.4534
3178.000000 0.4575 0.4616 0.4657 0.4705 0.4764
3183.000000 0.4824 0.4883 0.4936 0.4974 0.5012
3188.000000 0.5050 0.5087 0.5120 0.5153 0.5186
3193.000000 0.5217 0.5239 0.5261 0.5283 0.5305
3198.000000 0.5323 0.5341 0.5360 0.5378 0.5397
3203.000000 0.5415 0.5434 0.5452 0.5473 0.5494
3208.000000 0.5515 0.5535 0.5564 0.5594 0.5625
3213.000000 0.5655 0.5686 0.5716 0.5746 0.5776
3218.000000 0.5807 0.5839 0.5870 0.5902 0.5934
3223.000000 0.5965 0.5997 0.6028 0.6060 0.6091
3228.000000 0.6122 0.6154 0.6185 0.6216 0.6248
3233.000000 0.6279 0.6310 0.6328 0.6344 0.6361
3238.000000 0.6377 0.6393 0.6409 0.6425 0.6441
3243.000000 0.6456 0.6472 0.6487 0.6502 0.6517
3248.000000 0.6530 0.6544 0.6557 0.6571 0.6588
3253.000000 0.6605 0.6622 0.6639 0.6656 0.6672
3258.000000 0.6689 0.6705 0.6718 0.6729 0.6739
3263.000000 0.6750 0.6760 0.6770 0.6780 0.6790
3268.000000 0.6800 0.6809 0.6818 0.6827 0.6836
3273.000000 0.6842 0.6847 0.6851 0.6856 0.6860
3278.000000 0.6863 0.6866 0.6869 0.6872 0.6875
3283.000000 0.6878 0.6881 0.6884 0.6887 0.6890
3288.000000 0.6893 0.6896 0.6899 0.6901 0.6903
3293.000000 0.6905 0.6907 0.6908 0.6909 0.6909
3298.000000 0.6910 0.6911 0.6913 0.6914 0.6915
3303.000000 0.6916 0.6917 0.6918 0.6919 0.6920
3308.000000 0.6921 0.6921 0.6922 0.6923 0.6924
3313.000000 0.6924 0.6925 0.6925 0.6926 0.6926
3318.000000 0.6927 0.6927 0.6927 0.6928 0.6928
3323.000000 0.6929 0.6929 0.6930 0.6930 0.6931
3328.000000 0.6931 0.6931 0.6931 0.6931 0.6931
3333.000000 0.6931 0.6930 0.6930 0.6930 0.6930
3338.000000 0.6929 0.6929 0.6929 0.6928 0.6928
3343.000000 0.6927 0.6927 0.6927 0.6927 0.6926
3348.000000 0.6926 0.6925 0.6925 0.6925 0.6925
3353.000000 0.6925 0.6925 0.6925 0.6924 0.6924
3358.000000 0.6924 0.6924 0.6924 0.6923 0.6923
3363.000000 0.6923 0.6923 0.6923 0.6923 0.6923
3368.000000 0.6924 0.6924 0.6925 0.6925 0.6926
3373.000000 0.6926 0.6927 0.6927 0.6927 0.6928
3378.000000 0.6928 0.6929 0.6929 0.6930 0.6930
3383.000000 0.6931 0.6931 0.6932 0.6932 0.6933
3388.000000 0.6934 0.6934 0.6935 0.6936 0.6936
3393.000000 0.6937 0.6938 0.6938 0.6939 0.6940
3398.000000 0.6941 0.6941 0.6942 0.6943 0.6944
3403.000000 0.6945 0.6946 0.6947 0.6948 0.6948
3408.000000 0.6949 0.6950 0.6951 0.6952 0.6954
3413.000000 0.6955 0.6957 0.6958 0.6961 0.6964
3418.000000 0.6967 0.6970 0.6973 0.6975 0.6978
3423.000000 0.6981 0.6984 0.6987 0.6990 0.6992
3428.000000 0.6995 0.6998 0.7001 0.7004 0.7007
3433.000000 0.7010 0.7013 0.7016 0.7020 0.7023
3438.000000 0.7026 0.7029 0.7032 0.7036 0.7039
3443.000000 0.7042 0.7045 0.7048 0.7051 0.7054
3448.000000 0.7058 0.7059 0.7060 0.7061 0.7062
3453.000000 0.7062 0.7063 0.7063 0.7064 0.7064
3458.000000 0.7065 0.7065 0.7065 0.7066 0.7066
3463.000000 0.7067 0.7067 0.7067 0.7068 0.7068
3468.000000 0.7069 0.7069 0.7070 0.7070 0.7070
3473.000000 0.7071 0.7072 0.7072 0.7073 0.7073
3478.000000 0.7074 0.7074 0.7075 0.7075 0.7076
3483.000000 0.7076 0.7076 0.7077 0.7077 0.7078
3488.000000 0.7078 0.7078 0.7079 0.7079 0.7080
3493.000000 0.7080 0.7080 0.7081 0.7081 0.7082
3498.000000 0.7082 0.7083 0.7084 0.7084 0.7085
3503.000000 0.7085 0.7086 0.7086 0.7086 0.7087
3508.000000 0.7087 0.7088 0.7088 0.7088 0.7089
3513.000000 0.7089 0.7090 0.7090 0.7090 0.7091
3518.000000 0.7091 0.7092 0.7092 0.7092 0.7093
3523.000000 0.7093 0.7094 0.7094 0.7094 0.7095
3528.000000 0.7096 0.7096 0.7097 0.7097 0.7098
3533.000000 0.7098 0.7099 0.7099 0.7099 0.7099
3538.000000 0.7099 0.7099 0.7099 0.7099 0.7098
3543.000000 0.7098 0.7097 0.7097 0.7097 0.7119
3548.000000 0.7096 0.7095 0.7095 0.7095 0.7094
3553.000000 0.7094 0.7093 0.7093 0.7093 0.7092
3558.000000 0.7092 0.7091 0.7091 0.7091 0.7090
3563.000000 0.7088 0.7087 0.7086 0.7085 0.7083
3568.000000 0.7082 0.7080 0.7078 0.7076 0.7074
3573.000000 0.7073 0.7071 0.7069 0.7067 0.7066
3578.000000 0.7064 0.7062 0.7060 0.7059 0.7057
3583.000000 0.7055 0.7053 0.7052 0.7050 0.7048
3588.000000 0.7046 0.7045 0.7043 0.7041 0.7039
3593.000000 0.7038 0.7036 0.7035 0.7033 0.7032
3598.000000 0.7030 0.7028 0.7027 0.7025 0.7023
3603.000000 0.7021 0.7020 0.7018 0.7016 0.7014
3608.000000 0.7013 0.7011 0.7010 0.7008 0.7007
3613.000000 0.7005 0.7003 0.7002 0.7000 0.6998
3618.000000 0.6996 0.6995 0.6993 0.6991 0.6990
3623.000000 0.6988 0.6986 0.6985 0.6983 0.6982
3628.000000 0.6980 0.6979 0.6977 0.6975 0.6973
3633.000000 0.6972 0.6970 0.6969 0.6967 0.6966
3638.000000 0.6964 0.6963 0.6961 0.6959 0.6957
3643.000000 0.6956 0.6954 0.6952 0.6951 0.6949
3648.000000 0.6948 0.6946 0.6945 0.6943 0.6942
3653.000000 0.6940 0.6939 0.6937 0.6936 0.6934
3658.000000 0.6933 0.6931 0.6930 0.6928 0.6927
3663.000000 0.6926 0.6924 0.6923 0.6921 0.6919
3668.000000 0.6918 0.6916 0.6914 0.6913 0.6911
3673.000000 0.6910 0.6908 0.6907 0.6905 0.6904
3678.000000 0.6902 0.6901 0.6899 0.6898 0.6896
3683.000000 0.6895 0.6893 0.6892 0.6890 0.6889
3688.000000 0.6888 0.6886 0.6885 0.6884 0.6882
3693.000000 0.6881 0.6881 0.6880 0.6879 0.6878
3698.000000 0.6878 0.6877 0.6876 0.6875 0.6875
3703.000000 0.6874 0.6873 0.6873 0.6872 0.6872
3708.000000 0.6871 0.6871 0.6870 0.6869 0.6868
3713.000000 0.6868 0.6867 0.6866 0.6866 0.6865
3718.000000 0.6864 0.6863 0.6863 0.6862 0.6861
3723.000000 0.6861 0.6860 0.6859 0.6858 0.6858
3728.000000 0.6857 0.6856 0.6855 0.6855 0.6854
3733.000000 0.6853 0.6853 0.6852 0.6851 0.6850
3738.000000 0.6850 0.6849 0.6849 0.6848 0.6848
3743.000000 0.6847 0.6846 0.6846 0.6845 0.6844
3748.000000 0.6844 0.6843 0.6843 0.6842 0.6841
3753.000000 0.6841 0.6840 0.6840 0.6839 0.6838
3758.000000 0.6837 0.6837 0.6836 0.6836 0.6835
3763.000000 0.6835 0.6834 0.6834 0.6833 0.6832
3768.000000 0.6832 0.6831 0.6831 0.6830 0.6830
3773.000000 0.6829 0.6828 0.6828 0.6827 0.6826
3778.000000 0.6826 0.6825 0.6825 0.6824 0.6824
3783.000000 0.6823 0.6823 0.6822 0.6821 0.6821
3788.000000 0.6820 0.6820 0.6819 0.6818 0.6818
3793.000000 0.6817 0.6816 0.6816 0.6815 0.6815
3798.000000 0.6814 0.6814 0.6813 0.6813 0.6812
3803.000000 0.6812 0.6811 0.6811 0.6810 0.6809
3808.000000 0.6809 0.6808 0.6807 0.6806 0.6805
3813.000000 0.6803 0.6801 0.6799 0.6797 0.6795
3818.000000 0.6793 0.6791 0.6789 0.6787 0.6785
3823.000000 0.6783 0.6781 0.6779 0.6777 0.6775
3828.000000 0.6772 0.6770 0.6768 0.6766 0.6764
3833.000000 0.6762 0.6760 0.6758 0.6756 0.6754
3838.000000 0.6752 0.6750 0.6748 0.6746 0.6744
3843.000000 0.6742 0.6740 0.6738 0.6736 0.6734
3848.000000 0.6732 0.6730 0.6728 0.6726 0.6724
3853.000000 0.6722 0.6720 0.6718 0.6716 0.6714
3858.000000 0.6712 0.6709 0.6707 0.6705 0.6703
3863.000000 0.6701 0.6698 0.6696 0.6694 0.6692
3868.000000 0.6690 0.6688 0.6685 0.6683 0.6681
3873.000000 0.6679 0.6677 0.6675 0.6673 0.6671
3878.000000 0.6669 0.6667 0.6665 0.6663 0.6660
3883.000000 0.6658 0.6656 0.6655 0.6653 0.6651
3888.000000 0.6649 0.6646 0.6644 0.6642 0.6640
3893.000000 0.6638 0.6636 0.6634 0.6632 0.6630
3898.000000 0.6628 0.6626 0.6624 0.6622 0.6620
3903.000000 0.6617 0.6615 0.6613 0.6611 0.6609
3908.000000 0.6607 0.6605 0.6603 0.6600 0.6598
3913.000000 0.6596 0.6594 0.6592 0.6590 0.6588
3918.000000 0.6586 0.6584 0.6582 0.6579 0.6576
3923.000000 0.6574 0.6571 0.6568 0.6565 0.6562
3928.000000 0.6559 0.6556 0.6553 0.6550 0.6547
3933.000000 0.6544 0.6541 0.6538 0.6535 0.6533
3938.000000 0.6530 0.6527 0.6524 0.6521 0.6518
3943.000000 0.6515 0.6512 0.6509 0.6506 0.6503
3948.000000 0.6500 0.6497 0.6494 0.6491 0.6488
3953.000000 0.6485 0.6482 0.6480 0.6477 0.6474
3958.000000 0.6471 0.6468 0.6465 0.6462 0.6459
3963.000000 0.6456 0.6453 0.6450 0.6447 0.6444
3968.000000 0.6441 0.6438 0.6436 0.6433 0.6430
3973.000000 0.6427 0.6424 0.6421 0.6418 0.6416
3978.000000 0.6413 0.6410 0.6407 0.6404 0.6401
3983.000000 0.6398 0.6395 0.6392 0.6389 0.6386
3988.000000 0.6383 0.6381 0.6378 0.6375 0.6372
3993.000000 0.6369 0.6366 0.6364 0.6361 0.6358
3998.000000 0.6355 0.6352 0.6350
##END=
