##TITLE=SODIUM CELLULOSE SULFATE
$$ TENN. EASTMAN CO.
##JCAMP-DX=4.24
##DATA TYPE=INFRARED SPECTRUM
##CLASS=COBLENTZ
##ORIGIN=WYANDOTTE CHEMICALS CORP., WYANDOTTE, MICHIGAN, USA
##OWNER=COBLENTZ SOCIETY
Collection (C) 2018 copyright by the U.S. Secretary of Commerce
on behalf of the United States of America. All rights reserved.
##DATE=Not specified, most likely prior to 1970
##MOLFORM=C12 H18 Na2 O16 S2 X2
##SOURCE REFERENCE=COBLENTZ NO. 2718
##$NIST ID=B6002718
##$NIST SOURCE=COBLENTZ
##$NIST IMAGE=cob2718
##SPECTROMETER/DATA SYSTEM=Not specified, most likely a prism, grating, or hybrid spectrometer.
##STATE=SOLID (KBr PELLET)
$$ MEDIUM VISCOSITY
##SAMPLING PROCEDURE=TRANSMISSION
##RESOLUTION=4
##DATA PROCESSING=DIGITIZED BY NIST FROM HARD COPY
##XUNITS=MICROMETERS
##YUNITS=TRANSMITTANCE
##XFACTOR=1.000000
##YFACTOR=1
##DELTAX=000.006619
##FIRSTX=2.04
##LASTX=16.007
##FIRSTY=0.925
##MAXX=16.007
##MINX=2.04
##MAXY=0.941
##MINY=0.156
##NPOINTS=2111
##XYDATA=(X++(Y..Y))
2.040000 0.9250 0.9250 0.9230 0.9230 0.9210
2.073113 0.9200 0.9200 0.9200 0.9180 0.9180
2.106000 0.9200 0.9200 0.9200 0.9200 0.9210
2.139113 0.9210 0.9210 0.9210 0.9210 0.9210
2.172000 0.9200 0.9200 0.9180 0.9160 0.9160
2.205113 0.9150 0.9150 0.9150 0.9130 0.9110
2.238000 0.9100 0.9080 0.9080 0.9050 0.9050
2.271113 0.9030 0.9010 0.9000 0.9000 0.9000
2.304000 0.8980 0.8980 0.8960 0.8960 0.8950
2.337113 0.8910 0.8900 0.8880 0.8850 0.8830
2.371000 0.8800 0.8780 0.8750 0.8700 0.8680
2.404113 0.8630 0.8630 0.8610 0.8610 0.8600
2.437000 0.8580 0.8560 0.8530 0.8500 0.8480
2.470113 0.8460 0.8450 0.8430 0.8400 0.8330
2.503000 0.8310 0.8300 0.8280 0.8250 0.8230
2.536113 0.8210 0.8200 0.8180 0.8150 0.8100
2.569000 0.8080 0.8050 0.8030 0.7980 0.7970
2.602113 0.7880 0.7870 0.7830 0.7820 0.7780
2.635000 0.7730 0.7700 0.7630 0.7580 0.7500
2.668113 0.7470 0.7430 0.7380 0.7300 0.7200
2.702000 0.7120 0.7020 0.6980 0.6870 0.6770
2.735113 0.6680 0.6500 0.6330 0.6220 0.6120
2.768000 0.5920 0.5790 0.5540 0.5290 0.5000
2.801113 0.4940 0.4870 0.4690 0.4500 0.4320
2.834000 0.4200 0.3990 0.3870 0.3760 0.3570
2.867113 0.3490 0.3410 0.3290 0.3220 0.3170
2.900000 0.3110 0.2970 0.2890 0.2820 0.2760
2.933113 0.2690 0.2620 0.2610 0.2590 0.2570
2.966000 0.2560 0.2560 0.2540 0.2540 0.2540
2.999113 0.2540 0.2560 0.2560 0.2570 0.2570
3.033000 0.2590 0.2620 0.2660 0.2720 0.2820
3.066113 0.2890 0.2910 0.3010 0.3070 0.3170
3.099000 0.3290 0.3360 0.3420 0.3560 0.3620
3.132113 0.3710 0.3790 0.3890 0.4020 0.4170
3.165000 0.4290 0.4470 0.4570 0.4690 0.4870
3.198113 0.4990 0.5390 0.5500 0.5570 0.5670
3.231000 0.5800 0.5990 0.6080 0.6270 0.6380
3.264113 0.6500 0.6680 0.6820 0.6980 0.7070
3.297000 0.7170 0.7280 0.7370 0.7420 0.7480
3.330113 0.7570 0.7570 0.7500 0.7500 0.7480
3.364000 0.7370 0.7280 0.7170 0.7050 0.6920
3.397113 0.6800 0.6680 0.6600 0.6570 0.6500
3.430000 0.6450 0.6420 0.6370 0.6350 0.6330
3.463113 0.6320 0.6320 0.6320 0.6350 0.6380
3.496000 0.6420 0.6480 0.6520 0.6600 0.6680
3.529113 0.6730 0.6880 0.7030 0.7130 0.7280
3.562000 0.7380 0.7480 0.7680 0.7730 0.7800
3.595113 0.7900 0.7980 0.8050 0.8100 0.8180
3.628000 0.8280 0.8330 0.8380 0.8410 0.8480
3.661113 0.8500 0.8510 0.8530 0.8550 0.8600
3.695000 0.8630 0.8650 0.8650 0.8700 0.8710
3.728113 0.8750 0.8780 0.8780 0.8800 0.8830
3.761000 0.8850 0.8900 0.8910 0.8930 0.8950
3.794113 0.8950 0.8960 0.8980 0.9000 0.9000
3.827000 0.9010 0.9030 0.9080 0.9100 0.9110
3.860113 0.9130 0.9150 0.9160 0.9180 0.9180
3.893000 0.9200 0.9200 0.9200 0.9210 0.9210
3.926113 0.9230 0.9250 0.9260 0.9280 0.9300
3.959000 0.9310 0.9310 0.9310 0.9330 0.9330
3.992113 0.9330 0.9330 0.9330 0.9330 0.9330
4.026000 0.9330 0.9330 0.9310 0.9300 0.9300
4.059113 0.9300 0.9300 0.9300 0.9300 0.9300
4.092000 0.9310 0.9310 0.9330 0.9330 0.9330
4.125113 0.9330 0.9330 0.9330 0.9330 0.9330
4.158000 0.9330 0.9330 0.9330 0.9330 0.9330
4.191113 0.9330 0.9330 0.9330 0.9330 0.9330
4.224000 0.9330 0.9350 0.9350 0.9350 0.9350
4.257113 0.9360 0.9380 0.9380 0.9380 0.9400
4.290000 0.9400 0.9400 0.9400 0.9400 0.9410
4.323113 0.9410 0.9410 0.9410 0.9410 0.9410
4.357000 0.9410 0.9400 0.9380 0.9360 0.9350
4.390113 0.9330 0.9310 0.9300 0.9280 0.9280
4.423000 0.9260 0.9260 0.9230 0.9230 0.9210
4.456113 0.9210 0.9210 0.9210 0.9210 0.9200
4.489000 0.9180 0.9180 0.9160 0.9160 0.9130
4.522113 0.9130 0.9130 0.9110 0.9110 0.9100
4.555000 0.9100 0.9100 0.9100 0.9100 0.9100
4.588113 0.9100 0.9100 0.9100 0.9100 0.9100
4.621000 0.9080 0.9080 0.9080 0.9060 0.9060
4.654113 0.9060 0.9060 0.9060 0.9050 0.9030
4.687000 0.9030 0.9030 0.9030 0.9030 0.9030
4.720113 0.9010 0.9010 0.8980 0.8960 0.8900
4.754000 0.8860 0.8810 0.8810 0.8810 0.8760
4.787113 0.8760 0.8760 0.8750 0.8750 0.8730
4.820000 0.8730 0.8730 0.8730 0.8730 0.8730
4.853113 0.8730 0.8730 0.8730 0.8710 0.8710
4.886000 0.8710 0.8700 0.8700 0.8700 0.8680
4.919113 0.8660 0.8660 0.8660 0.8660 0.8660
4.952000 0.8660 0.8660 0.8660 0.8660 0.8660
4.985113 0.8660 0.8660 0.8660 0.8660 0.8650
5.018000 0.8650 0.8650 0.8650 0.8650 0.8650
5.051113 0.8650 0.8650 0.8650 0.8650 0.8650
5.085000 0.8650 0.8650 0.8650 0.8650 0.8650
5.118113 0.8650 0.8650 0.8650 0.8630 0.8630
5.151000 0.8610 0.8610 0.8600 0.8600 0.8600
5.184113 0.8600 0.8600 0.8580 0.8580 0.8580
5.217000 0.8580 0.8580 0.8580 0.8580 0.8580
5.250113 0.8580 0.8580 0.8580 0.8560 0.8560
5.283000 0.8560 0.8550 0.8550 0.8550 0.8530
5.316113 0.8530 0.8510 0.8510 0.8500 0.8500
5.349000 0.8480 0.8480 0.8480 0.8460 0.8460
5.382113 0.8450 0.8430 0.8430 0.8430 0.8430
5.416000 0.8430 0.8430 0.8430 0.8430 0.8410
5.449113 0.8410 0.8400 0.8360 0.8330 0.8300
5.482000 0.8280 0.8260 0.8230 0.8230 0.8200
5.515113 0.8180 0.8160 0.8160 0.8130 0.8130
5.548000 0.8110 0.8080 0.8060 0.8060 0.8050
5.581113 0.8030 0.8030 0.8010 0.7980 0.7980
5.614000 0.7930 0.7920 0.7900 0.7900 0.7900
5.647113 0.7900 0.7880 0.7870 0.7850 0.7830
5.680000 0.7820 0.7780 0.7730 0.7720 0.7700
5.713113 0.7670 0.7620 0.7570 0.7520 0.7500
5.747000 0.7500 0.7480 0.7470 0.7400 0.7370
5.780113 0.7350 0.7320 0.7270 0.7230 0.7200
5.813000 0.7170 0.7130 0.7080 0.7070 0.7000
5.846113 0.6970 0.6970 0.6970 0.6950 0.6920
5.879000 0.6900 0.6880 0.6870 0.6820 0.6780
5.912113 0.6750 0.6720 0.6670 0.6580 0.6480
5.945000 0.6380 0.6370 0.6270 0.6170 0.6170
5.978113 0.6030 0.5970 0.5850 0.5790 0.5770
6.011000 0.5720 0.5720 0.5700 0.5670 0.5620
6.044113 0.5550 0.5440 0.5400 0.5320 0.5290
6.078000 0.5290 0.5290 0.5300 0.5300 0.5320
6.111113 0.5320 0.5350 0.5390 0.5420 0.5470
6.144000 0.5520 0.5590 0.5700 0.5790 0.5890
6.177113 0.5970 0.6050 0.6120 0.6180 0.6220
6.210000 0.6230 0.6280 0.6320 0.6430 0.6500
6.243113 0.6520 0.6530 0.6570 0.6600 0.6630
6.276000 0.6630 0.6650 0.6670 0.6670 0.6670
6.309113 0.6670 0.6670 0.6670 0.6670 0.6670
6.342000 0.6650 0.6650 0.6630 0.6630 0.6620
6.375113 0.6620 0.6600 0.6580 0.6570 0.6570
6.409000 0.6550 0.6550 0.6550 0.6550 0.6550
6.442113 0.6530 0.6530 0.6530 0.6520 0.6500
6.475000 0.6470 0.6450 0.6430 0.6380 0.6350
6.508113 0.6330 0.6330 0.6320 0.6300 0.6280
6.541000 0.6280 0.6230 0.6180 0.6120 0.6120
6.574113 0.6120 0.6120 0.6100 0.6100 0.6070
6.607000 0.6020 0.5990 0.5990 0.5950 0.5920
6.640113 0.5890 0.5870 0.5800 0.5770 0.5700
6.673000 0.5640 0.5640 0.5620 0.5570 0.5540
6.706113 0.5520 0.5490 0.5440 0.5370 0.5320
6.739000 0.5290 0.5240 0.5200 0.5140 0.5090
6.772113 0.5070 0.5040 0.5000 0.5000 0.4990
6.806000 0.4970 0.4970 0.4920 0.4900 0.4870
6.839113 0.4870 0.4850 0.4840 0.4840 0.4820
6.872000 0.4820 0.4820 0.4800 0.4790 0.4790
6.905113 0.4770 0.4770 0.4770 0.4770 0.4750
6.938000 0.4750 0.4750 0.4750 0.4740 0.4720
6.971113 0.4700 0.4670 0.4670 0.4670 0.4650
7.004000 0.4620 0.4620 0.4600 0.4600 0.4600
7.037113 0.4590 0.4570 0.4570 0.4550 0.4540
7.070000 0.4520 0.4520 0.4520 0.4500 0.4490
7.103113 0.4450 0.4440 0.4400 0.4400 0.4400
7.137000 0.4400 0.4420 0.4420 0.4440 0.4440
7.170113 0.4440 0.4440 0.4440 0.4420 0.4420
7.203000 0.4400 0.4400 0.4390 0.4390 0.4400
7.236113 0.4400 0.4400 0.4400 0.4400 0.4400
7.269000 0.4400 0.4420 0.4420 0.4440 0.4450
7.302113 0.4490 0.4500 0.4520 0.4520 0.4520
7.335000 0.4540 0.4540 0.4540 0.4540 0.4540
7.368113 0.4550 0.4550 0.4550 0.4550 0.4550
7.401000 0.4550 0.4550 0.4550 0.4550 0.4550
7.434113 0.4540 0.4540 0.4520 0.4520 0.4490
7.468000 0.4450 0.4450 0.4420 0.4420 0.4420
7.501113 0.4420 0.4420 0.4420 0.4400 0.4400
7.534000 0.4390 0.4350 0.4320 0.4320 0.4300
7.567113 0.4300 0.4270 0.4270 0.4270 0.4270
7.600000 0.4250 0.4240 0.4220 0.4190 0.4140
7.633113 0.4120 0.4090 0.4070 0.4070 0.4050
7.666000 0.4000 0.3970 0.3890 0.3890 0.3870
7.699113 0.3870 0.3860 0.3820 0.3820 0.3790
7.732000 0.3760 0.3710 0.3660 0.3610 0.3520
7.765113 0.3490 0.3470 0.3440 0.3410 0.3370
7.799000 0.3290 0.3260 0.3220 0.3170 0.3120
7.832113 0.3110 0.3090 0.3060 0.3020 0.2990
7.865000 0.2970 0.2920 0.2870 0.2860 0.2840
7.898113 0.2820 0.2820 0.2840 0.2860 0.2860
7.931000 0.2860 0.2860 0.2840 0.2820 0.2810
7.964113 0.2790 0.2790 0.2770 0.2770 0.2770
7.997000 0.2770 0.2770 0.2770 0.2770 0.2770
8.030113 0.2790 0.2790 0.2790 0.2790 0.2790
8.063000 0.2790 0.2790 0.2790 0.2790 0.2790
8.096113 0.2810 0.2810 0.2810 0.2810 0.2810
8.130000 0.2840 0.2860 0.2870 0.2910 0.2940
8.163113 0.2960 0.2990 0.3010 0.3010 0.3020
8.196000 0.3060 0.3070 0.3090 0.3120 0.3170
8.229113 0.3210 0.3220 0.3290 0.3320 0.3410
8.262000 0.3420 0.3470 0.3490 0.3490 0.3510
8.295113 0.3520 0.3560 0.3590 0.3620 0.3710
8.328000 0.3760 0.3810 0.3820 0.3910 0.3970
8.361113 0.3990 0.4000 0.4090 0.4100 0.4150
8.394000 0.4190 0.4200 0.4240 0.4240 0.4240
8.427113 0.4220 0.4200 0.4200 0.4190 0.4150
8.461000 0.4120 0.4090 0.4050 0.4020 0.3970
8.494113 0.3890 0.3820 0.3770 0.3710 0.3670
8.527000 0.3570 0.3520 0.3510 0.3470 0.3420
8.560113 0.3390 0.3360 0.3360 0.3310 0.3270
8.593000 0.3260 0.3240 0.3210 0.3210 0.3190
8.626113 0.3190 0.3190 0.3170 0.3160 0.3140
8.659000 0.3140 0.3120 0.3120 0.3120 0.3120
8.692113 0.3120 0.3120 0.3120 0.3120 0.3140
8.725000 0.3140 0.3140 0.3120 0.3110 0.3090
8.758113 0.3070 0.3020 0.3010 0.2990 0.2970
8.791000 0.2910 0.2860 0.2810 0.2790 0.2760
8.824113 0.2720 0.2710 0.2710 0.2670 0.2660
8.858000 0.2660 0.2620 0.2610 0.2610 0.2570
8.891113 0.2560 0.2560 0.2520 0.2510 0.2510
8.924000 0.2510 0.2490 0.2470 0.2470 0.2440
8.957113 0.2420 0.2410 0.2390 0.2390 0.2370
8.990000 0.2370 0.2390 0.2390 0.2390 0.2390
9.023113 0.2390 0.2390 0.2390 0.2390 0.2390
9.056000 0.2360 0.2340 0.2310 0.2270 0.2240
9.089113 0.2220 0.2220 0.2210 0.2210 0.2190
9.122000 0.2190 0.2170 0.2170 0.2160 0.2160
9.155113 0.2140 0.2120 0.2120 0.2110 0.2090
9.189000 0.2070 0.2060 0.2040 0.2040 0.2010
9.222113 0.1980 0.1980 0.1930 0.1910 0.1880
9.255000 0.1830 0.1830 0.1810 0.1780 0.1760
9.288113 0.1760 0.1740 0.1730 0.1730 0.1730
9.321000 0.1710 0.1710 0.1690 0.1680 0.1660
9.354113 0.1630 0.1610 0.1590 0.1580 0.1580
9.387000 0.1560 0.1560 0.1560 0.1560 0.1580
9.420113 0.1580 0.1590 0.1590 0.1610 0.1630
9.453000 0.1630 0.1640 0.1640 0.1660 0.1680
9.486113 0.1690 0.1710 0.1710 0.1710 0.1710
9.520000 0.1730 0.1730 0.1730 0.1730 0.1730
9.553113 0.1730 0.1730 0.1740 0.1740 0.1740
9.586000 0.1760 0.1790 0.1810 0.1830 0.1880
9.619113 0.1910 0.1930 0.1930 0.1940 0.1940
9.652000 0.1940 0.1940 0.1960 0.1960 0.1960
9.685113 0.1960 0.1960 0.1960 0.1960 0.1960
9.718000 0.1960 0.1960 0.1960 0.1980 0.1980
9.751113 0.1960 0.1960 0.1960 0.1960 0.1940
9.784000 0.1940 0.1940 0.1940 0.1940 0.1960
9.817113 0.1960 0.1960 0.1960 0.1980 0.1990
9.851000 0.2010 0.2040 0.2060 0.2070 0.2090
9.884113 0.2120 0.2120 0.2120 0.2140 0.2140
9.917000 0.2140 0.2140 0.2140 0.2140 0.2140
9.950113 0.2170 0.2170 0.2170 0.2170 0.2170
9.983000 0.2190 0.2190 0.2190 0.2210 0.2210
10.016113 0.2220 0.2220 0.2220 0.2240 0.2240
10.049000 0.2260 0.2260 0.2270 0.2290 0.2290
10.082113 0.2310 0.2320 0.2320 0.2320 0.2360
10.115000 0.2360 0.2370 0.2390 0.2410 0.2410
10.148113 0.2420 0.2420 0.2460 0.2470 0.2510
10.182000 0.2560 0.2570 0.2610 0.2620 0.2660
10.215113 0.2690 0.2710 0.2770 0.2810 0.2840
10.248000 0.2870 0.2910 0.2920 0.2960 0.2990
10.281113 0.3010 0.3040 0.3090 0.3140 0.3190
10.314000 0.3260 0.3290 0.3310 0.3320 0.3340
10.347113 0.3370 0.3410 0.3440 0.3470 0.3470
10.380000 0.3490 0.3510 0.3520 0.3560 0.3610
10.413113 0.3620 0.3690 0.3720 0.3790 0.3820
10.446000 0.3870 0.3910 0.3940 0.3960 0.3990
10.479113 0.4000 0.4020 0.4050 0.4050 0.4090
10.513000 0.4090 0.4120 0.4190 0.4200 0.4270
10.546113 0.4290 0.4320 0.4340 0.4370 0.4390
10.579000 0.4390 0.4400 0.4470 0.4490 0.4500
10.612113 0.4520 0.4520 0.4520 0.4540 0.4550
10.645000 0.4550 0.4550 0.4550 0.4570 0.4570
10.678113 0.4570 0.4570 0.4590 0.4590 0.4600
10.711000 0.4620 0.4640 0.4640 0.4650 0.4670
10.744113 0.4690 0.4700 0.4700 0.4720 0.4720
10.777000 0.4740 0.4750 0.4750 0.4750 0.4770
10.810113 0.4790 0.4790 0.4800 0.4820 0.4870
10.843000 0.4890 0.4900 0.4900 0.4920 0.4920
10.876113 0.4970 0.4990 0.5020 0.5020 0.5040
10.910000 0.5040 0.5050 0.5050 0.5050 0.5070
10.943113 0.5100 0.5120 0.5140 0.5150 0.5170
10.976000 0.5190 0.5200 0.5220 0.5240 0.5250
11.009113 0.5250 0.5270 0.5290 0.5290 0.5300
11.042000 0.5300 0.5300 0.5300 0.5300 0.5300
11.075113 0.5300 0.5320 0.5320 0.5320 0.5320
11.108000 0.5320 0.5320 0.5320 0.5320 0.5320
11.141113 0.5340 0.5340 0.5340 0.5350 0.5350
11.174000 0.5350 0.5350 0.5370 0.5370 0.5390
11.207113 0.5390 0.5400 0.5420 0.5470 0.5500
11.241000 0.5520 0.5570 0.5600 0.5620 0.5620
11.274113 0.5690 0.5720 0.5770 0.5800 0.5820
11.307000 0.5820 0.5870 0.5890 0.5920 0.5970
11.340113 0.5970 0.6000 0.6100 0.6120 0.6180
11.373000 0.6220 0.6220 0.6250 0.6280 0.6330
11.406113 0.6370 0.6420 0.6430 0.6450 0.6470
11.439000 0.6500 0.6520 0.6520 0.6550 0.6570
11.472113 0.6570 0.6620 0.6650 0.6700 0.6780
11.505000 0.6800 0.6820 0.6880 0.6920 0.6930
11.538113 0.6950 0.6970 0.6970 0.6980 0.7000
11.572000 0.7020 0.7020 0.7050 0.7050 0.7070
11.605113 0.7080 0.7100 0.7130 0.7170 0.7180
11.638000 0.7180 0.7200 0.7200 0.7220 0.7220
11.671113 0.7230 0.7250 0.7270 0.7270 0.7280
11.704000 0.7300 0.7300 0.7320 0.7320 0.7320
11.737113 0.7330 0.7350 0.7370 0.7380 0.7380
11.770000 0.7380 0.7380 0.7400 0.7400 0.7400
11.803113 0.7380 0.7380 0.7370 0.7370 0.7350
11.836000 0.7350 0.7300 0.7270 0.7230 0.7220
11.869113 0.7170 0.7170 0.7130 0.7120 0.7080
11.903000 0.7020 0.7000 0.6970 0.6880 0.6870
11.936113 0.6830 0.6820 0.6770 0.6720 0.6700
11.969000 0.6620 0.6600 0.6530 0.6480 0.6400
12.002113 0.6370 0.6300 0.6270 0.6250 0.6220
12.035000 0.6180 0.6170 0.6120 0.6080 0.6020
12.068113 0.6000 0.5990 0.5920 0.5870 0.5800
12.101000 0.5790 0.5750 0.5720 0.5690 0.5670
12.134113 0.5620 0.5600 0.5570 0.5540 0.5520
12.167000 0.5500 0.5470 0.5420 0.5370 0.5320
12.200113 0.5300 0.5270 0.5250 0.5220 0.5220
12.234000 0.5200 0.5190 0.5190 0.5190 0.5190
12.267113 0.5190 0.5190 0.5190 0.5190 0.5190
12.300000 0.5190 0.5190 0.5190 0.5190 0.5190
12.333113 0.5170 0.5170 0.5150 0.5150 0.5140
12.366000 0.5140 0.5140 0.5140 0.5140 0.5140
12.399113 0.5140 0.5140 0.5150 0.5150 0.5170
12.432000 0.5170 0.5170 0.5190 0.5200 0.5200
12.465113 0.5200 0.5220 0.5220 0.5220 0.5220
12.498000 0.5220 0.5220 0.5220 0.5240 0.5240
12.531113 0.5270 0.5290 0.5300 0.5320 0.5320
12.565000 0.5350 0.5350 0.5350 0.5370 0.5370
12.598113 0.5370 0.5390 0.5390 0.5400 0.5420
12.631000 0.5450 0.5450 0.5470 0.5470 0.5470
12.664113 0.5500 0.5500 0.5520 0.5520 0.5550
12.697000 0.5600 0.5650 0.5690 0.5690 0.5700
12.730113 0.5720 0.5720 0.5740 0.5750 0.5750
12.763000 0.5770 0.5770 0.5800 0.5800 0.5840
12.796113 0.5850 0.5870 0.5870 0.5870 0.5890
12.829000 0.5890 0.5890 0.5890 0.5890 0.5900
12.862113 0.5920 0.5920 0.5940 0.5940 0.5950
12.896000 0.5950 0.5950 0.5950 0.5950 0.5950
12.929113 0.5950 0.5970 0.5970 0.5970 0.5970
12.962000 0.5990 0.5990 0.5990 0.5990 0.5990
12.995113 0.5990 0.6000 0.6000 0.5990 0.5990
13.028000 0.5990 0.6000 0.6000 0.6000 0.6000
13.061113 0.6000 0.6000 0.6000 0.6000 0.6000
13.094000 0.6000 0.6000 0.6000 0.6000 0.6000
13.127113 0.6000 0.6000 0.6000 0.6000 0.6000
13.160000 0.6000 0.6000 0.6000 0.6020 0.6020
13.193113 0.6020 0.6020 0.6020 0.6030 0.6050
13.226000 0.6070 0.6080 0.6100 0.6120 0.6130
13.259113 0.6130 0.6130 0.6130 0.6130 0.6130
13.293000 0.6130 0.6170 0.6170 0.6180 0.6200
13.326113 0.6220 0.6230 0.6230 0.6270 0.6280
13.359000 0.6300 0.6300 0.6300 0.6300 0.6320
13.392113 0.6320 0.6320 0.6320 0.6320 0.6330
13.425000 0.6330 0.6370 0.6370 0.6380 0.6380
13.458113 0.6400 0.6400 0.6420 0.6430 0.6450
13.491000 0.6470 0.6470 0.6470 0.6480 0.6500
13.524113 0.6500 0.6520 0.6520 0.6520 0.6520
13.557000 0.6520 0.6520 0.6520 0.6520 0.6530
13.590113 0.6520 0.6520 0.6520 0.6520 0.6520
13.624000 0.6530 0.6530 0.6530 0.6530 0.6530
13.657113 0.6550 0.6550 0.6550 0.6550 0.6550
13.690000 0.6570 0.6570 0.6580 0.6580 0.6580
13.723113 0.6580 0.6580 0.6580 0.6580 0.6580
13.756000 0.6580 0.6580 0.6580 0.6580 0.6580
13.789113 0.6570 0.6570 0.6570 0.6570 0.6570
13.822000 0.6570 0.6570 0.6570 0.6570 0.6570
13.855113 0.6570 0.6570 0.6550 0.6550 0.6550
13.888000 0.6550 0.6550 0.6550 0.6550 0.6550
13.921113 0.6550 0.6550 0.6550 0.6550 0.6550
13.955000 0.6530 0.6530 0.6530 0.6530 0.6530
13.988113 0.6520 0.6520 0.6520 0.6500 0.6500
14.021000 0.6500 0.6480 0.6480 0.6480 0.6470
14.054113 0.6470 0.6470 0.6450 0.6450 0.6450
14.087000 0.6430 0.6420 0.6400 0.6400 0.6380
14.120113 0.6370 0.6350 0.6320 0.6300 0.6280
14.153000 0.6280 0.6270 0.6230 0.6220 0.6220
14.186113 0.6200 0.6180 0.6170 0.6170 0.6170
14.219000 0.6170 0.6150 0.6150 0.6130 0.6120
14.252113 0.6070 0.5970 0.5950 0.5950 0.5970
14.286000 0.5990 0.5990 0.5990 0.5990 0.5990
14.319113 0.5970 0.5970 0.5970 0.5970 0.5970
14.352000 0.5970 0.5990 0.5990 0.5990 0.5970
14.385113 0.5970 0.5970 0.5950 0.5950 0.5950
14.418000 0.5940 0.5900 0.5890 0.5870 0.5870
14.451113 0.5850 0.5850 0.5840 0.5840 0.5840
14.484000 0.5840 0.5840 0.5840 0.5840 0.5840
14.517113 0.5840 0.5840 0.5840 0.5840 0.5840
14.550000 0.5850 0.5850 0.5870 0.5870 0.5870
14.583113 0.5890 0.5900 0.5940 0.5990 0.6000
14.617000 0.6020 0.6020 0.6020 0.6020 0.6020
14.650113 0.6020 0.6030 0.6030 0.6020 0.6020
14.683000 0.6000 0.6000 0.5990 0.5990 0.5990
14.716113 0.5990 0.5990 0.5990 0.5990 0.6000
14.749000 0.6000 0.6000 0.5990 0.5990 0.5990
14.782113 0.5990 0.5990 0.6000 0.6000 0.6000
14.815000 0.6020 0.6020 0.6050 0.6070 0.6070
14.848113 0.6070 0.6050 0.6050 0.6050 0.6050
14.881000 0.6020 0.5990 0.5900 0.5870 0.5870
14.914113 0.5870 0.5870 0.5890 0.5890 0.5890
14.948000 0.5890 0.5870 0.5870 0.5890 0.5890
14.981113 0.5890 0.5890 0.5890 0.5890 0.5870
15.014000 0.5850 0.5850 0.5840 0.5840 0.5840
15.047113 0.5840 0.5840 0.5840 0.5840 0.5840
15.080000 0.5820 0.5820 0.5820 0.5820 0.5820
15.113113 0.5800 0.5800 0.5800 0.5800 0.5800
15.146000 0.5800 0.5800 0.5800 0.5820 0.5820
15.179113 0.5820 0.5820 0.5820 0.5850 0.5850
15.212000 0.5820 0.5820 0.5820 0.5820 0.5800
15.245113 0.5800 0.5800 0.5800 0.5800 0.5800
15.278000 0.5820 0.5820 0.5820 0.5820 0.5820
15.311113 0.5820 0.5820 0.5820 0.5800 0.5800
15.345000 0.5800 0.5800 0.5800 0.5800 0.5800
15.378113 0.5790 0.5790 0.5790 0.5770 0.5750
15.411000 0.5750 0.5750 0.5740 0.5740 0.5740
15.444113 0.5740 0.5750 0.5750 0.5750 0.5750
15.477000 0.5770 0.5770 0.5790 0.5790 0.5790
15.510113 0.5790 0.5800 0.5800 0.5800 0.5800
15.543000 0.5790 0.5790 0.5790 0.5790 0.5790
15.576113 0.5800 0.5800 0.5800 0.5790 0.5790
15.609000 0.5790 0.5770 0.5770 0.5770 0.5770
15.642113 0.5770 0.5770 0.5770 0.5770 0.5770
15.676000 0.5770 0.5770 0.5770 0.5750 0.5740
15.709113 0.5720 0.5720 0.5720 0.5720 0.5720
15.742000 0.5720 0.5700 0.5700 0.5690 0.5690
15.775113 0.5690 0.5670 0.5670 0.5670 0.5670
15.808000 0.5690 0.5670 0.5670 0.5670 0.5670
15.841113 0.5690 0.5690 0.5690 0.5690 0.5690
15.874000 0.5690 0.5700 0.5700 0.5700 0.5690
15.907113 0.5690 0.5690 0.5690 0.5690 0.5690
15.940000 0.5670 0.5670 0.5670 0.5670 0.5690
15.973113 0.5670 0.5690 0.5690 0.5690 0.5690
16.007000 0.5690
##END=
