##TITLE=ACETIC ACID, CALCIUM SALT, HYDRATE
##JCAMP-DX=4.24
##DATA TYPE=INFRARED SPECTRUM
##CLASS=COBLENTZ
##ORIGIN=BELL TELEPHONE LABORATORIES- F. VRATNY
##OWNER=COBLENTZ SOCIETY
Collection (C) 2018 copyright by the U.S. Secretary of Commerce
on behalf of the United States of America. All rights reserved.
##DATE=Not specified, most likely prior to 1970
##MOLFORM=C4 H6 O4 Ca  * H2 O
##SOURCE REFERENCE=COBLENTZ NO. 2034
##$NIST ID=B6002034
##$NIST SOURCE=COBLENTZ
##$NIST IMAGE=cob2034
##SPECTROMETER/DATA SYSTEM=Not specified, most likely a prism, grating, or hybrid spectrometer.
##STATE=SOLID (MINERAL OIL MULL)
##PATH LENGTH=
$$SPECTRAL CONTAMINATION DUE TO OIL AROUND 2900 CM^-^1
##SAMPLING PROCEDURE=TRANSMISSION
##RESOLUTION=4
##DATA PROCESSING=DIGITIZED BY NIST FROM HARD COPY
##XUNITS=MICROMETERS
##YUNITS=TRANSMITTANCE
##XFACTOR=1.000000
##YFACTOR=1
##DELTAX=000.006646
##FIRSTX=2.06
##LASTX=15.3259
##FIRSTY=0.83
##MAXX=15.3259
##MINX=2.06
##MAXY=0.826
##MINY=0
##NPOINTS=1997
##XYDATA=(X++(Y..Y))
2.060000 0.8300 0.8290 0.8260 0.8260 0.8250
2.093248 0.8240 0.8220 0.8220 0.8210 0.8200
2.126000 0.8200 0.8180 0.8180 0.8180 0.8210
2.159248 0.8250 0.8250 0.8250 0.8250 0.8240
2.193000 0.8220 0.8200 0.8180 0.8160 0.8080
2.226248 0.8000 0.7960 0.7900 0.7780 0.7700
2.259000 0.7680 0.7650 0.7620 0.7540 0.7500
2.292248 0.7450 0.7400 0.7370 0.7370 0.7370
2.326000 0.7370 0.7370 0.7390 0.7410 0.7450
2.359248 0.7490 0.7490 0.7490 0.7490 0.7490
2.392000 0.7480 0.7470 0.7440 0.7430 0.7430
2.425248 0.7430 0.7440 0.7440 0.7470 0.7490
2.459000 0.7490 0.7490 0.7490 0.7490 0.7490
2.492248 0.7530 0.7530 0.7540 0.7540 0.7540
2.525000 0.7530 0.7520 0.7520 0.7540 0.7540
2.558248 0.7570 0.7580 0.7580 0.7580 0.7570
2.592000 0.7540 0.7530 0.7540 0.7560 0.7580
2.625248 0.7580 0.7600 0.7600 0.7600 0.7580
2.658000 0.7540 0.7530 0.7520 0.7520 0.7530
2.691248 0.7530 0.7490 0.7410 0.7400 0.7350
2.724000 0.7190 0.7000 0.6810 0.6730 0.6640
2.757248 0.6440 0.6230 0.5960 0.5760 0.5560
2.791000 0.5190 0.4720 0.4420 0.4150 0.3880
2.824248 0.3620 0.3470 0.3320 0.3280 0.2950
2.857000 0.2760 0.2700 0.2630 0.2520 0.2490
2.890248 0.2430 0.2390 0.2330 0.2300 0.2210
2.924000 0.2110 0.1990 0.1940 0.1900 0.1810
2.957248 0.1710 0.1690 0.1590 0.1500 0.1450
2.990000 0.1430 0.1410 0.1390 0.1390 0.1390
3.023248 0.1390 0.1390 0.1380 0.1350 0.1330
3.057000 0.1310 0.1310 0.1310 0.1390 0.1390
3.090248 0.1370 0.1350 0.1370 0.1380 0.1390
3.123000 0.1410 0.1420 0.1420 0.1410 0.1390
3.156248 0.1380 0.1370 0.1370 0.1380 0.1380
3.190000 0.1390 0.1460 0.1500 0.1500 0.1530
3.223248 0.1590 0.1630 0.1700 0.1790 0.1890
3.256000 0.1980 0.2050 0.2100 0.2180 0.2260
3.289248 0.2290 0.2300 0.2310 0.2310 0.2300
3.323000 0.2300 0.2290 0.2230 0.2150 0.1940
3.356248 0.1710 0.1390 0.1220 0.1100 0.0990
3.389000 0.0930 0.0790 0.0790 0.0750 0.0740
3.422248 0.0740 0.0730 0.0690 0.0630 0.0580
3.456000 0.0550 0.0550 0.0540 0.0530 0.0530
3.489248 0.0510 0.0500 0.0390 0.0380 0.0390
3.522000 0.0550 0.0900 0.1310 0.2050 0.2750
3.555248 0.3150 0.3950 0.4190 0.4390 0.4510
3.588000 0.4710 0.4900 0.5040 0.5230 0.5430
3.621248 0.5550 0.5610 0.5690 0.5730 0.5810
3.655000 0.5870 0.5920 0.5920 0.5930 0.5950
3.688248 0.6000 0.6030 0.6120 0.6130 0.6130
3.721000 0.6200 0.6230 0.6240 0.6270 0.6290
3.754248 0.6330 0.6370 0.6390 0.6400 0.6410
3.788000 0.6520 0.6530 0.6560 0.6570 0.6590
3.821248 0.6600 0.6710 0.6720 0.6720 0.6770
3.854000 0.6800 0.6810 0.6810 0.6830 0.6830
3.887248 0.6840 0.6840 0.6870 0.6870 0.6880
3.921000 0.6880 0.6880 0.6880 0.6870 0.6850
3.954248 0.6850 0.6850 0.6850 0.6850 0.6870
3.987000 0.6870 0.6880 0.6890 0.6910 0.6910
4.020248 0.6910 0.6910 0.6910 0.6920 0.6920
4.054000 0.6930 0.6930 0.6950 0.6950 0.6950
4.087248 0.6950 0.6930 0.6920 0.6880 0.6850
4.120000 0.6850 0.6830 0.6840 0.6830 0.6810
4.153248 0.6810 0.6800 0.6770 0.6760 0.6760
4.187000 0.6720 0.6690 0.6690 0.6690 0.6690
4.220248 0.6720 0.6770 0.6790 0.6830 0.6870
4.253000 0.6890 0.6890 0.6870 0.6850 0.6850
4.286248 0.6870 0.6870 0.6870 0.6880 0.6890
4.320000 0.6890 0.6890 0.6850 0.6810 0.6800
4.353248 0.6800 0.6800 0.6800 0.6810 0.6850
4.386000 0.6850 0.6770 0.6770 0.6770 0.6770
4.419248 0.6790 0.6800 0.6840 0.6910 0.6920
4.452000 0.6950 0.6950 0.6950 0.6950 0.6950
4.485248 0.6950 0.6950 0.6950 0.6950 0.6970
4.519000 0.6970 0.6990 0.6990 0.7000 0.7010
4.552248 0.7030 0.7050 0.7050 0.7050 0.7090
4.585000 0.7120 0.7120 0.7120 0.7120 0.7120
4.618248 0.7120 0.7120 0.7120 0.7120 0.7130
4.652000 0.7130 0.7130 0.7120 0.7120 0.7120
4.685248 0.7120 0.7120 0.7120 0.7120 0.7120
4.718000 0.7160 0.7190 0.7200 0.7200 0.7210
4.751248 0.7210 0.7210 0.7210 0.7200 0.7200
4.785000 0.7200 0.7190 0.7190 0.7190 0.7190
4.818248 0.7190 0.7210 0.7210 0.7210 0.7210
4.851000 0.7210 0.7210 0.7200 0.7200 0.7190
4.884248 0.7190 0.7170 0.7170 0.7170 0.7160
4.918000 0.7160 0.7150 0.7150 0.7150 0.7150
4.951248 0.7150 0.7130 0.7130 0.7130 0.7130
4.984000 0.7120 0.7120 0.7120 0.7120 0.7120
5.017248 0.7120 0.7120 0.7110 0.7090 0.7080
5.051000 0.7030 0.7030 0.7010 0.7010 0.7000
5.084248 0.7000 0.6990 0.6990 0.6990 0.7000
5.117000 0.7000 0.7000 0.7010 0.7010 0.7010
5.150248 0.7010 0.7010 0.7000 0.7000 0.6990
5.184000 0.6970 0.6920 0.6890 0.6890 0.6890
5.217248 0.6910 0.6910 0.6890 0.6890 0.6880
5.250000 0.6850 0.6850 0.6850 0.6850 0.6830
5.283248 0.6830 0.6800 0.6770 0.6760 0.6760
5.316000 0.6750 0.6720 0.6690 0.6600 0.6510
5.349248 0.6510 0.6550 0.6550 0.6570 0.6590
5.383000 0.6590 0.6570 0.6550 0.6550 0.6520
5.416248 0.6520 0.6520 0.6510 0.6490 0.6470
5.449000 0.6430 0.6390 0.6290 0.6280 0.6270
5.482248 0.6240 0.6210 0.6190 0.6110 0.6090
5.516000 0.6090 0.6090 0.6080 0.6050 0.6010
5.549248 0.5990 0.5910 0.5880 0.5870 0.5810
5.582000 0.5810 0.5800 0.5750 0.5730 0.5730
5.615248 0.5710 0.5690 0.5680 0.5610 0.5550
5.649000 0.5440 0.5410 0.5390 0.5330 0.5320
5.682248 0.5320 0.5320 0.5240 0.5130 0.5030
5.715000 0.4950 0.4920 0.4820 0.4680 0.4560
5.748248 0.4520 0.4460 0.4430 0.4390 0.4380
5.782000 0.4240 0.4080 0.3830 0.3700 0.3600
5.815248 0.3500 0.3420 0.3390 0.3320 0.3260
5.848000 0.2940 0.2680 0.2430 0.2250 0.2180
5.881248 0.2180 0.2190 0.2210 0.2260 0.2300
5.915000 0.2330 0.2340 0.2350 0.2260 0.2140
5.948248 0.2030 0.1910 0.1810 0.1630 0.1500
5.981000 0.1490 0.1470 0.1460 0.1430 0.1420
6.014248 0.1410 0.1390 0.1370 0.1330 0.1300
6.048000 0.1300 0.1300 0.1300 0.1300 0.1290
6.081248 0.1290 0.1260 0.1230 0.1190 0.1090
6.114000 0.1020 0.1010 0.0990 0.0900 0.0810
6.147248 0.0690 0.0540 0.0470 0.0290 0.0130
6.180000 0.0090 0.0090 0.0090 0.0090 0.0090
6.213248 0.0090 0.0070 0.0050 0.0020 0.0000
6.247000 0.0000 0.0000 0.0000 0.0000 0.0000
6.280248 0.0050 0.0060 0.0060 0.0070 0.0070
6.313000 0.0070 0.0070 0.0070 0.0070 0.0070
6.346248 0.0090 0.0090 0.0110 0.0130 0.0130
6.380000 0.0130 0.0110 0.0090 0.0090 0.0070
6.413248 0.0060 0.0060 0.0090 0.0110 0.0180
6.446000 0.0180 0.0140 0.0140 0.0130 0.0130
6.479248 0.0130 0.0130 0.0130 0.0140 0.0140
6.513000 0.0140 0.0140 0.0140 0.0140 0.0150
6.546248 0.0150 0.0150 0.0150 0.0150 0.0180
6.579000 0.0220 0.0260 0.0300 0.0330 0.0330
6.612248 0.0310 0.0300 0.0300 0.0340 0.0350
6.646000 0.0380 0.0390 0.0410 0.0490 0.0500
6.679248 0.0530 0.0540 0.0540 0.0540 0.0540
6.712000 0.0540 0.0540 0.0540 0.0510 0.0500
6.745248 0.0450 0.0370 0.0190 0.0100 0.0100
6.779000 0.0090 0.0090 0.0100 0.0100 0.0100
6.812248 0.0100 0.0100 0.0110 0.0110 0.0100
6.845000 0.0090 0.0070 0.0030 0.0000 0.0000
6.878248 0.0000 0.0000 0.0090 0.0090 0.0060
6.912000 0.0060 0.0060 0.0100 0.0110 0.0110
6.945248 0.0140 0.0030 0.0030 0.0050 0.0060
6.978000 0.0060 0.0090 0.0090 0.0100 0.0110
7.011248 0.0140 0.0140 0.0090 0.0030 0.0030
7.044000 0.0020 0.0000 0.0000 0.0000 0.0000
7.077248 0.0090 0.0100 0.0090 0.0090 0.0090
7.111000 0.0100 0.0100 0.0110 0.0140 0.0180
7.144248 0.0220 0.0260 0.0290 0.0290 0.0300
7.177000 0.0310 0.0330 0.0340 0.0340 0.0340
7.210248 0.0340 0.0340 0.0340 0.0350 0.0410
7.244000 0.0650 0.0830 0.0910 0.0980 0.0990
7.277248 0.1030 0.1140 0.1220 0.1290 0.1340
7.310000 0.1390 0.1410 0.1410 0.1410 0.1430
7.343248 0.1430 0.1500 0.1540 0.1590 0.1620
7.377000 0.1690 0.1690 0.1660 0.1610 0.1570
7.410248 0.1540 0.1550 0.1570 0.1650 0.1810
7.443000 0.1970 0.2020 0.2130 0.2250 0.2390
7.476248 0.2500 0.2560 0.2620 0.2680 0.2780
7.510000 0.2830 0.2880 0.2880 0.2900 0.2910
7.543248 0.2940 0.2980 0.2990 0.3000 0.3080
7.576000 0.3100 0.3140 0.3190 0.3230 0.3280
7.609248 0.3280 0.3300 0.3320 0.3380 0.3390
7.643000 0.3480 0.3510 0.3540 0.3560 0.3580
7.676248 0.3600 0.3630 0.3660 0.3710 0.3820
7.709000 0.3880 0.3920 0.3920 0.3920 0.3920
7.742248 0.3940 0.3950 0.4000 0.4030 0.4080
7.776000 0.4120 0.4140 0.4140 0.4160 0.4190
7.809248 0.4200 0.4240 0.4280 0.4300 0.4350
7.842000 0.4390 0.4460 0.4510 0.4520 0.4540
7.875248 0.4550 0.4560 0.4580 0.4590 0.4620
7.908000 0.4620 0.4630 0.4630 0.4640 0.4640
7.941248 0.4660 0.4680 0.4710 0.4720 0.4740
7.975000 0.4740 0.4740 0.4750 0.4780 0.4780
8.008248 0.4790 0.4790 0.4800 0.4800 0.4800
8.041000 0.4800 0.4830 0.4860 0.4860 0.4860
8.074248 0.4860 0.4870 0.4880 0.4900 0.4950
8.108000 0.5000 0.5010 0.5030 0.5040 0.5050
8.141248 0.5050 0.5070 0.5090 0.5110 0.5120
8.174000 0.5160 0.5210 0.5280 0.5310 0.5310
8.207248 0.5310 0.5310 0.5310 0.5320 0.5360
8.241000 0.5390 0.5430 0.5470 0.5490 0.5510
8.274248 0.5520 0.5550 0.5560 0.5570 0.5590
8.307000 0.5610 0.5610 0.5650 0.5680 0.5680
8.340248 0.5690 0.5710 0.5710 0.5710 0.5730
8.374000 0.5750 0.5790 0.5790 0.5790 0.5770
8.407248 0.5760 0.5750 0.5760 0.5760 0.5790
8.440000 0.5810 0.5840 0.5920 0.5920 0.5910
8.473248 0.5890 0.5890 0.5870 0.5830 0.5800
8.507000 0.5750 0.5720 0.5720 0.5720 0.5720
8.540248 0.5720 0.5720 0.5750 0.5760 0.5760
8.573000 0.5800 0.5840 0.5840 0.5850 0.5850
8.606248 0.5850 0.5850 0.5870 0.5880 0.5880
8.640000 0.5880 0.5880 0.5880 0.5880 0.5880
8.673248 0.5880 0.5890 0.5930 0.5930 0.5970
8.706000 0.6010 0.6030 0.6030 0.6040 0.6040
8.739248 0.6050 0.6050 0.6070 0.6080 0.6080
8.772000 0.6090 0.6110 0.6120 0.6120 0.6150
8.805248 0.6160 0.6170 0.6170 0.6160 0.6160
8.839000 0.6200 0.6200 0.6170 0.6090 0.6090
8.872248 0.6120 0.6120 0.6170 0.6210 0.6250
8.905000 0.6280 0.6290 0.6310 0.6310 0.6290
8.938248 0.6250 0.6240 0.6240 0.6240 0.6240
8.972000 0.6240 0.6240 0.6240 0.6240 0.6230
9.005248 0.6230 0.6230 0.6210 0.6210 0.6200
9.038000 0.6200 0.6190 0.6190 0.6170 0.6170
9.071248 0.6160 0.6160 0.6150 0.6150 0.6130
9.105000 0.6130 0.6120 0.6110 0.6080 0.6050
9.138248 0.6040 0.6040 0.6040 0.6040 0.6040
9.171000 0.6040 0.6040 0.6030 0.6030 0.6010
9.204248 0.6010 0.6000 0.6000 0.5990 0.6000
9.238000 0.6010 0.6010 0.6000 0.5970 0.5960
9.271248 0.5890 0.5830 0.5810 0.5770 0.5730
9.304000 0.5690 0.5640 0.5520 0.5430 0.5410
9.337248 0.5280 0.5130 0.4950 0.4670 0.4600
9.371000 0.4400 0.4190 0.4110 0.3900 0.3630
9.404248 0.3540 0.3400 0.3360 0.3320 0.3300
9.437000 0.3300 0.3280 0.3270 0.3270 0.3260
9.470248 0.3260 0.3260 0.3270 0.3310 0.3310
9.504000 0.3390 0.3420 0.3460 0.3510 0.3520
9.537248 0.3600 0.3700 0.3750 0.3800 0.3860
9.570000 0.3900 0.3910 0.3910 0.3900 0.3880
9.603248 0.3860 0.3840 0.3720 0.3680 0.3560
9.637000 0.3470 0.3390 0.3320 0.3260 0.3140
9.670248 0.3030 0.2990 0.2780 0.2740 0.2700
9.703000 0.2590 0.2550 0.2520 0.2520 0.2520
9.736248 0.2540 0.2540 0.2550 0.2560 0.2580
9.769000 0.2600 0.2710 0.2750 0.2840 0.2960
9.802248 0.3030 0.3160 0.3260 0.3320 0.3520
9.836000 0.3660 0.3880 0.4100 0.4260 0.4310
9.869248 0.4500 0.4600 0.4740 0.4760 0.4800
9.902000 0.4840 0.4910 0.4940 0.4960 0.5090
9.935248 0.5120 0.5210 0.5270 0.5350 0.5410
9.969000 0.5510 0.5530 0.5530 0.5550 0.5600
10.002248 0.5640 0.5720 0.5790 0.5800 0.5800
10.035000 0.5840 0.5850 0.5870 0.5880 0.5890
10.068248 0.5910 0.5950 0.5960 0.5990 0.6010
10.102000 0.6030 0.6040 0.6050 0.6050 0.6050
10.135248 0.6050 0.6040 0.6040 0.6040 0.6050
10.168000 0.6070 0.6080 0.6080 0.6090 0.6090
10.201248 0.6120 0.6130 0.6130 0.6130 0.6130
10.235000 0.6130 0.6130 0.6120 0.6120 0.6120
10.268248 0.6130 0.6130 0.6090 0.6000 0.5950
10.301000 0.5880 0.5810 0.5800 0.5750 0.5710
10.334248 0.5600 0.5350 0.5110 0.4940 0.4820
10.368000 0.4790 0.4790 0.4820 0.4960 0.5030
10.401248 0.5160 0.5250 0.5390 0.5510 0.5510
10.434000 0.5520 0.5560 0.5630 0.5800 0.5800
10.467248 0.5760 0.5720 0.5560 0.5410 0.5170
10.501000 0.4800 0.4190 0.3580 0.3320 0.3060
10.534248 0.2800 0.2710 0.2710 0.2760 0.3160
10.567000 0.3720 0.4110 0.4420 0.4660 0.4830
10.600248 0.4940 0.5000 0.5110 0.5290 0.5330
10.633000 0.5430 0.5510 0.5560 0.5600 0.5600
10.666248 0.5590 0.5570 0.5560 0.5470 0.5280
10.700000 0.5080 0.5090 0.5110 0.5280 0.5350
10.733248 0.5400 0.5510 0.5600 0.5710 0.5810
10.766000 0.5910 0.5920 0.5950 0.6000 0.6010
10.799248 0.6110 0.6120 0.6130 0.6150 0.6160
10.833000 0.6170 0.6170 0.6200 0.6230 0.6240
10.866248 0.6240 0.6250 0.6250 0.6270 0.6320
10.899000 0.6370 0.6410 0.6410 0.6410 0.6410
10.932248 0.6410 0.6410 0.6430 0.6430 0.6440
10.966000 0.6440 0.6440 0.6440 0.6440 0.6490
10.999248 0.6510 0.6520 0.6530 0.6530 0.6520
11.032000 0.6510 0.6510 0.6490 0.6490 0.6490
11.065248 0.6490 0.6490 0.6510 0.6510 0.6520
11.099000 0.6520 0.6530 0.6530 0.6530 0.6530
11.132248 0.6520 0.6510 0.6510 0.6510 0.6490
11.165000 0.6490 0.6490 0.6510 0.6530 0.6530
11.198248 0.6510 0.6510 0.6480 0.6480 0.6480
11.232000 0.6490 0.6520 0.6520 0.6530 0.6530
11.265248 0.6530 0.6520 0.6520 0.6530 0.6530
11.298000 0.6530 0.6530 0.6530 0.6520 0.6510
11.331248 0.6520 0.6530 0.6550 0.6560 0.6560
11.365000 0.6560 0.6560 0.6560 0.6560 0.6560
11.398248 0.6560 0.6550 0.6550 0.6530 0.6530
11.431000 0.6520 0.6520 0.6520 0.6520 0.6520
11.464248 0.6520 0.6510 0.6450 0.6410 0.6410
11.497000 0.6470 0.6480 0.6490 0.6510 0.6510
11.530248 0.6490 0.6450 0.6440 0.6440 0.6440
11.564000 0.6440 0.6440 0.6440 0.6430 0.6430
11.597248 0.6410 0.6410 0.6400 0.6390 0.6390
11.630000 0.6390 0.6390 0.6390 0.6390 0.6370
11.663248 0.6330 0.6310 0.6310 0.6290 0.6280
11.697000 0.6240 0.6230 0.6210 0.6210 0.6200
11.730248 0.6200 0.6190 0.6170 0.6190 0.6170
11.763000 0.6160 0.6120 0.6110 0.6110 0.6110
11.796248 0.6090 0.6070 0.6040 0.6030 0.6010
11.830000 0.6010 0.6010 0.6010 0.6010 0.6010
11.863248 0.6000 0.6000 0.5990 0.5990 0.5970
11.896000 0.5970 0.5970 0.5970 0.5970 0.5970
11.929248 0.5970 0.5960 0.5960 0.5950 0.5930
11.963000 0.5920 0.5920 0.5920 0.5920 0.5920
11.996248 0.5950 0.5960 0.5960 0.5970 0.5970
12.029000 0.5970 0.5970 0.5970 0.5950 0.5910
12.062248 0.5890 0.5890 0.5870 0.5870 0.5870
12.096000 0.5850 0.5840 0.5840 0.5830 0.5830
12.129248 0.5810 0.5800 0.5800 0.5760 0.5750
12.162000 0.5730 0.5730 0.5720 0.5710 0.5690
12.195248 0.5690 0.5670 0.5640 0.5630 0.5630
12.229000 0.5610 0.5600 0.5590 0.5560 0.5560
12.262248 0.5530 0.5530 0.5510 0.5510 0.5510
12.295000 0.5510 0.5510 0.5490 0.5490 0.5470
12.328248 0.5450 0.5410 0.5400 0.5370 0.5350
12.361000 0.5350 0.5330 0.5310 0.5290 0.5280
12.394248 0.5280 0.5280 0.5280 0.5250 0.5200
12.428000 0.5160 0.5150 0.5150 0.5120 0.5120
12.461248 0.5110 0.5090 0.5040 0.5010 0.4990
12.494000 0.4960 0.4920 0.4920 0.4910 0.4880
12.527248 0.4860 0.4860 0.4860 0.4860 0.4840
12.561000 0.4820 0.4800 0.4800 0.4800 0.4800
12.594248 0.4790 0.4750 0.4700 0.4700 0.4700
12.627000 0.4700 0.4680 0.4640 0.4600 0.4600
12.660248 0.4590 0.4550 0.4550 0.4510 0.4480
12.694000 0.4480 0.4470 0.4460 0.4460 0.4440
12.727248 0.4430 0.4420 0.4420 0.4400 0.4390
12.760000 0.4390 0.4350 0.4320 0.4320 0.4300
12.793248 0.4300 0.4270 0.4240 0.4220 0.4220
12.827000 0.4190 0.4160 0.4150 0.4140 0.4120
12.860248 0.4120 0.4110 0.4110 0.4100 0.4080
12.893000 0.4080 0.4030 0.3980 0.3950 0.3940
12.926248 0.3940 0.3910 0.3860 0.3800 0.3780
12.960000 0.3720 0.3700 0.3670 0.3660 0.3660
12.993248 0.3660 0.3660 0.3660 0.3660 0.3680
13.026000 0.3680 0.3680 0.3670 0.3660 0.3640
13.059248 0.3600 0.3580 0.3550 0.3540 0.3520
13.093000 0.3510 0.3470 0.3460 0.3430 0.3430
13.126248 0.3420 0.3400 0.3400 0.3400 0.3400
13.159000 0.3400 0.3400 0.3380 0.3360 0.3340
13.192248 0.3320 0.3310 0.3300 0.3300 0.3300
13.225000 0.3300 0.3280 0.3270 0.3240 0.3220
13.258248 0.3200 0.3180 0.3180 0.3180 0.3180
13.292000 0.3160 0.3140 0.3120 0.3110 0.3100
13.325248 0.3080 0.3080 0.3080 0.3070 0.3070
13.358000 0.3070 0.3070 0.3070 0.3060 0.3060
13.391248 0.3060 0.3040 0.3040 0.3030 0.3000
13.425000 0.3000 0.3000 0.3000 0.2990 0.2990
13.458248 0.2980 0.2980 0.2980 0.2980 0.2960
13.491000 0.2950 0.2940 0.2910 0.2880 0.2870
13.524248 0.2860 0.2840 0.2840 0.2800 0.2800
13.558000 0.2800 0.2840 0.2840 0.2830 0.2830
13.591248 0.2820 0.2790 0.2790 0.2790 0.2790
13.624000 0.2830 0.2830 0.2820 0.2740 0.2660
13.657248 0.2590 0.2590 0.2600 0.2630 0.2630
13.691000 0.2630 0.2640 0.2640 0.2640 0.2640
13.724248 0.2640 0.2630 0.2630 0.2620 0.2590
13.757000 0.2580 0.2560 0.2550 0.2580 0.2580
13.790248 0.2620 0.2620 0.2620 0.2600 0.2600
13.824000 0.2600 0.2600 0.2590 0.2550 0.2550
13.857248 0.2540 0.2540 0.2550 0.2600 0.2620
13.890000 0.2630 0.2630 0.2630 0.2630 0.2630
13.923248 0.2640 0.2640 0.2640 0.2640 0.2640
13.957000 0.2640 0.2640 0.2640 0.2640 0.2660
13.990248 0.2670 0.2680 0.2700 0.2700 0.2700
14.023000 0.2700 0.2700 0.2700 0.2700 0.2700
14.056248 0.2700 0.2700 0.2720 0.2720 0.2740
14.089000 0.2740 0.2750 0.2790 0.2880 0.2880
14.122248 0.2780 0.2740 0.2720 0.2720 0.2720
14.156000 0.2720 0.2720 0.2720 0.2720 0.2720
14.189248 0.2720 0.2720 0.2720 0.2720 0.2720
14.222000 0.2720 0.2710 0.2710 0.2700 0.2680
14.255248 0.2680 0.2680 0.2680 0.2700 0.2710
14.289000 0.2710 0.2700 0.2700 0.2700 0.2680
14.322248 0.2680 0.2680 0.2680 0.2670 0.2660
14.355000 0.2630 0.2620 0.2590 0.2590 0.2590
14.388248 0.2580 0.2580 0.2580 0.2590 0.2590
14.422000 0.2590 0.2590 0.2590 0.2580 0.2560
14.455248 0.2520 0.2500 0.2500 0.2500 0.2500
14.488000 0.2500 0.2500 0.2490 0.2490 0.2470
14.521248 0.2460 0.2450 0.2430 0.2420 0.2410
14.555000 0.2390 0.2380 0.2340 0.2310 0.2260
14.588248 0.2130 0.2110 0.2060 0.2030 0.2010
14.621000 0.1990 0.1980 0.1950 0.1910 0.1870
14.654248 0.1740 0.1730 0.1700 0.1690 0.1590
14.688000 0.1490 0.1430 0.1380 0.1370 0.1310
14.721248 0.1290 0.1270 0.1260 0.1230 0.1210
14.754000 0.1150 0.1140 0.1110 0.1090 0.1070
14.787248 0.1050 0.1050 0.1020 0.1020 0.1020
14.821000 0.1020 0.1030 0.1070 0.1090 0.1110
14.854248 0.1170 0.1210 0.1220 0.1230 0.1340
14.887000 0.1410 0.1420 0.1490 0.1570 0.1620
14.920248 0.1690 0.1700 0.1740 0.1780 0.1810
14.953000 0.1870 0.1950 0.2010 0.2090 0.2100
14.986248 0.2190 0.2210 0.2230 0.2230 0.2230
15.020000 0.2230 0.2220 0.2220 0.2210 0.2210
15.053248 0.2190 0.2170 0.2150 0.2130 0.1990
15.086000 0.1900 0.1890 0.1820 0.1740 0.1730
15.119248 0.1740 0.1750 0.1790 0.1810 0.1820
15.153000 0.1890 0.2020 0.2150 0.2170 0.2210
15.186248 0.2310 0.2520 0.2590 0.2680 0.2750
15.219000 0.2800 0.2940 0.3020 0.3060 0.3080
15.252248 0.3150 0.3180 0.3190 0.3200 0.3220
15.286000 0.3240 0.3280 0.3400 0.3400 0.3420
15.319248 0.3420 0.3420
##END=
