##TITLE=17,18-DIMETHOXY-15,16,17,18,19,20-HEXADEHYDROYOHIMBANE HYDROCHLORIDE
##JCAMP-DX=4.24
##DATA TYPE=INFRARED SPECTRUM
##CLASS=COBLENTZ
##ORIGIN=ABBOTT LABORATORIES - WASHBURN
##OWNER=COBLENTZ SOCIETY
Collection (C) 2018 copyright by the U.S. Secretary of Commerce
on behalf of the United States of America. All rights reserved.
##DATE=Not specified, most likely prior to 1970
##NAMES=17,18-dimethoxy-15,16,17,18,19,20-hexadehydroyohimban hydrochloride
2,3-DIMETHOXY-5,7,8,13,13b,14-HEXAHYDROBENZ[g]INDOLE[2,3-a]QUINOLIZINE, HYDROCHLORIDE
##MOLFORM=C21 H22 N2 O2  * H Cl
##SOURCE REFERENCE=COBLENTZ NO. 3522
##$NIST ID=B6003522
##$NIST SOURCE=COBLENTZ
##$NIST IMAGE=cob3522
##SPECTROMETER/DATA SYSTEM=PERKIN-ELMER
##STATE=SOLID (NUJOL MULL)
##PATH LENGTH=
$$SPECTRAL CONTAMINATION DUE TO OIL AROUND 2900 CM^-^1
##SAMPLING PROCEDURE=TRANSMISSION
##RESOLUTION=4
##DATA PROCESSING=DIGITIZED BY NIST FROM HARD COPY (FROM TWO SEGMENTS)
##XUNITS=MICROMETERS
##YUNITS=TRANSMITTANCE
##XFACTOR=1.000000
##YFACTOR=1
##DELTAX=0.006667
##FIRSTX=2.04
##LASTX=15.4473
##FIRSTY=0.623
##MAXX=15.4473
##MINX=2.04
##MAXY=0.815708
##MINY=0.0480099
##NPOINTS=2012
##XYDATA=(X++(Y..Y))
2.040000 0.6230 0.6250 0.6250 0.6270 0.6280
2.073335 0.6280 0.6300 0.6320 0.6349 0.6350
2.106670 0.6369 0.6379 0.6380 0.6399 0.6419
2.140005 0.6420 0.6429 0.6421 0.6429 0.6430
2.173340 0.6451 0.6471 0.6501 0.6521 0.6551
2.206675 0.6571 0.6600 0.6600 0.6600 0.6601
2.240010 0.6620 0.6620 0.6630 0.6630 0.6650
2.273345 0.6670 0.6670 0.6680 0.6670 0.6650
2.306680 0.6602 0.6572 0.6551 0.6531 0.6521
2.340015 0.6501 0.6481 0.6452 0.6431 0.6421
2.373350 0.6432 0.6472 0.6501 0.6531 0.6551
2.406685 0.6570 0.6581 0.6601 0.6620 0.6620
2.440020 0.6620 0.6630 0.6630 0.6650 0.6670
2.473355 0.6700 0.6700 0.6700 0.6720 0.6730
2.506690 0.6749 0.6750 0.6778 0.6818 0.6829
2.540025 0.6849 0.6869 0.6879 0.6899 0.6928
2.573360 0.6931 0.6951 0.6971 0.7001 0.7021
2.606695 0.7040 0.7050 0.7050 0.7040 0.7051
2.640030 0.7070 0.7090 0.7090 0.7100 0.7100
2.673365 0.7140 0.7140 0.7150 0.7150 0.7189
2.706700 0.7200 0.7200 0.7219 0.7220 0.7220
2.740035 0.7220 0.7220 0.7220 0.7201 0.7191
2.773370 0.7189 0.7170 0.7169 0.7150 0.7150
2.806705 0.7151 0.7170 0.7169 0.7150 0.7140
2.840040 0.7140 0.7140 0.7140 0.7140 0.7120
2.873375 0.7100 0.7090 0.7090 0.7070 0.7070
2.906710 0.7089 0.7090 0.7071 0.7070 0.7070
2.940045 0.7051 0.7041 0.7049 0.7116 0.7120
2.973380 0.7120 0.7120 0.7119 0.7098 0.7070
3.006715 0.7069 0.7050 0.7038 0.6980 0.6970
3.040050 0.6970 0.6970 0.6980 0.6980 0.7020
3.073385 0.7020 0.7000 0.6871 0.6821 0.6701
3.106720 0.6537 0.6377 0.6208 0.5991 0.5724
3.140055 0.5379 0.4954 0.4412 0.3712 0.3482
3.173390 0.3168 0.3142 0.3199 0.3727 0.4047
3.206725 0.4409 0.5004 0.5085 0.5205 0.5333
3.240060 0.5411 0.5500 0.5550 0.5610 0.5630
3.273395 0.5650 0.5650 0.5630 0.5600 0.5560
3.306730 0.5550 0.5531 0.5511 0.5481 0.5461
3.340065 0.5432 0.5269 0.4996 0.4631 0.4441
3.373400 0.4145 0.3845 0.2766 0.2341 0.2151
3.406735 0.1401 0.1030 0.1016 0.0927 0.0849
3.440070 0.0830 0.0799 0.0660 0.0630 0.0600
3.473405 0.0530 0.0500 0.0480 0.0500 0.0678
3.506740 0.0844 0.0955 0.1094 0.1195 0.1229
3.540075 0.1278 0.1422 0.1572 0.1722 0.1871
3.573410 0.4357 0.4627 0.4905 0.5176 0.5466
3.606745 0.5773 0.6020 0.6031 0.6051 0.6086
3.640080 0.6221 0.6280 0.6280 0.6220 0.6130
3.673415 0.6070 0.6000 0.5930 0.5880 0.5811
3.706750 0.5752 0.5664 0.5631 0.5601 0.5514
3.740085 0.5462 0.5432 0.5335 0.5160 0.5084
3.773420 0.4832 0.4710 0.4719 0.4866 0.4966
3.806755 0.5087 0.5217 0.5350 0.5351 0.5380
3.840090 0.5379 0.5329 0.5230 0.5230 0.5180
3.873425 0.5150 0.5030 0.4860 0.4591 0.4143
3.906760 0.3899 0.3361 0.3023 0.2589 0.2503
3.940095 0.2281 0.1871 0.1708 0.1558 0.1456
3.973430 0.1419 0.1400 0.1401 0.1422 0.1457
4.006765 0.1587 0.1725 0.1820 0.1832 0.1873
4.040100 0.1959 0.2558 0.3213 0.3471 0.3561
4.073435 0.3770 0.3790 0.3940 0.4010 0.4030
4.106770 0.4059 0.4282 0.4328 0.4359 0.4389
4.140105 0.4428 0.4459 0.4508 0.4538 0.4606
4.173440 0.4713 0.4766 0.4865 0.4944 0.5011
4.206775 0.5029 0.5002 0.4858 0.4830 0.4832
4.240110 0.4882 0.5033 0.5231 0.5281 0.5350
4.273445 0.5400 0.5481 0.5660 0.5680 0.5909
4.306780 0.5978 0.6163 0.6218 0.6326 0.6426
4.340115 0.6497 0.6567 0.6646 0.6745 0.6797
4.373450 0.6829 0.6951 0.6971 0.6987 0.7092
4.406785 0.7120 0.7122 0.7151 0.7172 0.7220
4.440120 0.7220 0.7240 0.7240 0.7251 0.7300
4.473455 0.7320 0.7320 0.7320 0.7340 0.7350
4.506790 0.7369 0.7351 0.7350 0.7350 0.7350
4.540125 0.7340 0.7340 0.7350 0.7436 0.7440
4.573460 0.7439 0.7420 0.7422 0.7451 0.7471
4.606795 0.7491 0.7500 0.7500 0.7501 0.7520
4.640130 0.7520 0.7540 0.7540 0.7570 0.7590
4.673465 0.7600 0.7620 0.7620 0.7620 0.7620
4.706800 0.7639 0.7669 0.7689 0.7690 0.7690
4.740135 0.7690 0.7690 0.7690 0.7690 0.7700
4.773470 0.7700 0.7700 0.7701 0.7720 0.7721
4.806805 0.7740 0.7740 0.7740 0.7741 0.7751
4.840140 0.7770 0.7770 0.7750 0.7770 0.7770
4.873475 0.7770 0.7770 0.7790 0.7790 0.7790
4.906810 0.7790 0.7771 0.7770 0.7751 0.7740
4.940145 0.7721 0.7720 0.7739 0.7769 0.7770
4.973480 0.7771 0.7790 0.7791 0.7803 0.7841
5.006815 0.7890 0.7890 0.7871 0.7870 0.7851
5.040150 0.7841 0.7795 0.7816 0.7820 0.7861
5.073485 0.7870 0.7870 0.7885 0.7898 0.7915
5.106820 0.7920 0.7920 0.7906 0.7900 0.7900
5.140155 0.7912 0.7920 0.7920 0.7920 0.7931
5.173490 0.7940 0.7945 0.7950 0.7959 0.7961
5.206825 0.7938 0.7912 0.7896 0.7883 0.7863
5.240160 0.7863 0.7908 0.7956 0.7970 0.7975
5.273495 0.7990 0.7994 0.8006 0.7983 0.7938
5.306830 0.7866 0.7836 0.7800 0.7799 0.7792
5.340165 0.7829 0.7881 0.7941 0.7950 0.7952
5.373500 0.7972 0.7990 0.7990 0.7990 0.7990
5.406835 0.7970 0.7970 0.7951 0.7950 0.7950
5.440170 0.7985 0.8007 0.8018 0.8037 0.8024
5.473505 0.8020 0.8020 0.8013 0.7959 0.7940
5.506840 0.7974 0.8003 0.8016 0.8020 0.8020
5.540175 0.8032 0.8029 0.8031 0.8040 0.8040
5.573510 0.8050 0.8065 0.8070 0.8070 0.8070
5.606845 0.8066 0.8060 0.8053 0.8023 0.7984
5.640180 0.7961 0.7934 0.7915 0.7900 0.7900
5.673515 0.7900 0.7900 0.7900 0.7900 0.7896
5.706850 0.7868 0.7848 0.7819 0.7797 0.7739
5.740185 0.7720 0.7691 0.7642 0.7621 0.7638
5.773520 0.7685 0.7717 0.7746 0.7767 0.7795
5.806855 0.7832 0.7848 0.7850 0.7865 0.7870
5.840190 0.7884 0.7876 0.7857 0.7850 0.7850
5.873525 0.7844 0.7840 0.7840 0.7829 0.7820
5.906860 0.7810 0.7795 0.7790 0.7781 0.7761
5.940195 0.7746 0.7740 0.7719 0.7685 0.7656
5.973530 0.7631 0.7607 0.7581 0.7570 0.7570
6.006865 0.7581 0.7614 0.7640 0.7634 0.7620
6.040200 0.7615 0.7605 0.7620 0.7626 0.7650
6.073535 0.7650 0.7658 0.7700 0.7693 0.7636
6.106870 0.7601 0.7620 0.7621 0.7640 0.7640
6.140205 0.7620 0.7620 0.7545 0.7458 0.7244
6.173540 0.7132 0.7051 0.6964 0.6400 0.5959
6.206875 0.5590 0.5434 0.5595 0.6069 0.6433
6.240210 0.6629 0.6839 0.6997 0.7077 0.7130
6.273545 0.7191 0.7260 0.7345 0.7406 0.7430
6.306880 0.7455 0.7479 0.7503 0.7533 0.7566
6.340215 0.7602 0.7627 0.7644 0.7650 0.7641
6.373550 0.7614 0.7600 0.7600 0.7605 0.7620
6.406885 0.7620 0.7624 0.7642 0.7650 0.7650
6.440220 0.7650 0.7650 0.7650 0.7649 0.7620
6.473555 0.7600 0.7600 0.7571 0.7570 0.7460
6.506890 0.7333 0.7250 0.7206 0.7107 0.6744
6.540225 0.6372 0.6049 0.5650 0.4847 0.4567
6.573560 0.4217 0.4052 0.3981 0.4216 0.4474
6.606895 0.4651 0.5066 0.5315 0.5492 0.5557
6.640230 0.5625 0.5704 0.5792 0.6003 0.6184
6.673565 0.6230 0.6160 0.6100 0.6135 0.6208
6.706900 0.6309 0.6446 0.6538 0.6550 0.6539
6.740235 0.6487 0.6413 0.6331 0.6166 0.5967
6.773570 0.5757 0.5514 0.5196 0.4432 0.4071
6.806905 0.3369 0.2822 0.2526 0.2348 0.2150
6.840240 0.1917 0.1725 0.1631 0.1651 0.1729
6.873575 0.1779 0.1828 0.1867 0.1898 0.1918
6.906910 0.1946 0.2069 0.2115 0.2503 0.2717
6.940245 0.2781 0.2904 0.3073 0.3156 0.3198
6.973580 0.3277 0.3474 0.3592 0.3709 0.3830
7.006915 0.4079 0.4388 0.4510 0.4415 0.4320
7.040250 0.4320 0.4399 0.4515 0.4615 0.4771
7.073585 0.4936 0.5036 0.5212 0.5572 0.5883
7.106920 0.6087 0.6188 0.6379 0.6495 0.6599
7.140255 0.6676 0.6705 0.6733 0.6750 0.6747
7.173590 0.6723 0.6661 0.6500 0.6367 0.6090
7.206925 0.5869 0.5488 0.5379 0.5185 0.5012
7.240260 0.4747 0.4425 0.4160 0.3816 0.3646
7.273595 0.3470 0.3377 0.3370 0.3584 0.3793
7.306930 0.4006 0.4081 0.4146 0.4254 0.4395
7.340265 0.4527 0.4611 0.4737 0.4849 0.4948
7.373600 0.5000 0.5035 0.5068 0.5169 0.5299
7.406935 0.5494 0.5637 0.5681 0.5755 0.5834
7.440270 0.5860 0.5856 0.5833 0.5806 0.5792
7.473605 0.5762 0.5706 0.5625 0.5520 0.5422
7.506940 0.5324 0.5229 0.5036 0.4574 0.4506
7.540275 0.4493 0.4514 0.4542 0.4562 0.4583
7.573610 0.4629 0.4911 0.5415 0.5651 0.5857
7.606945 0.6111 0.6196 0.6219 0.6220 0.6220
7.640280 0.6185 0.6095 0.5981 0.5815 0.5662
7.673615 0.5383 0.5062 0.4694 0.4440 0.4276
7.706950 0.4237 0.4266 0.4425 0.4663 0.5057
7.740285 0.5444 0.5730 0.5904 0.5976 0.6025
7.773620 0.6074 0.6116 0.6142 0.6161 0.6159
7.806955 0.6139 0.6100 0.6026 0.5942 0.5814
7.840290 0.5667 0.5507 0.5213 0.4973 0.4936
7.873625 0.4887 0.4858 0.4760 0.4385 0.3687
7.906960 0.3534 0.3208 0.2982 0.2798 0.2692
7.940295 0.2709 0.2787 0.2939 0.3116 0.3196
7.973630 0.3296 0.3447 0.3738 0.3789 0.4125
8.006965 0.4459 0.4572 0.4670 0.4883 0.5057
8.040300 0.5207 0.5329 0.5398 0.5426 0.5430
8.073635 0.5430 0.5408 0.5351 0.5206 0.4956
8.106970 0.4515 0.4021 0.3609 0.3162 0.2593
8.140305 0.2320 0.2346 0.2421 0.2568 0.2774
8.173640 0.3004 0.3240 0.3469 0.3680 0.3908
8.206975 0.4187 0.4363 0.4597 0.4995 0.5144
8.240310 0.5336 0.5439 0.5552 0.5636 0.5672
8.273645 0.5735 0.5787 0.5973 0.6080 0.6177
8.306980 0.6252 0.6282 0.6331 0.6370 0.6380
8.340315 0.6380 0.6371 0.6167 0.6041 0.5853
8.373650 0.5743 0.5543 0.5336 0.5140 0.5056
8.406985 0.5050 0.5059 0.5139 0.5193 0.5292
8.440320 0.5433 0.5636 0.5797 0.5906 0.6003
8.473655 0.6066 0.6143 0.6204 0.6260 0.6312
8.506990 0.6355 0.6388 0.6412 0.6437 0.6461
8.540325 0.6470 0.6475 0.6490 0.6500 0.6491
8.573660 0.6476 0.6462 0.6431 0.6382 0.6333
8.606995 0.6274 0.6199 0.6141 0.6120 0.6115
8.640330 0.6105 0.6141 0.6230 0.6272 0.6280
8.673665 0.6283 0.6297 0.6266 0.6224 0.6143
8.707000 0.6018 0.5959 0.5910 0.5851 0.5802
8.740335 0.5716 0.5655 0.5587 0.5554 0.5550
8.773670 0.5558 0.5617 0.5726 0.5789 0.5800
8.807005 0.5763 0.5721 0.5689 0.5660 0.5518
8.840340 0.5405 0.5336 0.5261 0.5189 0.5115
8.873675 0.4528 0.3814 0.3242 0.2788 0.2544
8.907010 0.2355 0.2274 0.2240 0.2252 0.2400
8.940345 0.2755 0.3124 0.3422 0.3589 0.3674
8.973680 0.3710 0.3705 0.3600 0.3178 0.2800
9.007015 0.3064 0.3815 0.4197 0.4449 0.4770
9.040350 0.4971 0.5251 0.5450 0.5572 0.5717
9.073685 0.5837 0.5912 0.6056 0.6154 0.6232
9.107020 0.6320 0.6369 0.6380 0.6418 0.6467
9.140355 0.6524 0.6636 0.6693 0.6717 0.6720
9.173690 0.6728 0.6746 0.6773 0.6810 0.6827
9.207025 0.6844 0.6836 0.6843 0.6850 0.6863
9.240360 0.6870 0.6858 0.6850 0.6839 0.6825
9.273695 0.6810 0.6790 0.6766 0.6713 0.6582
9.307030 0.6420 0.6278 0.6089 0.5883 0.5719
9.340365 0.5650 0.5636 0.5686 0.5814 0.5939
9.373700 0.6057 0.6171 0.6250 0.6245 0.6197
9.407035 0.6045 0.5867 0.5742 0.5644 0.5560
9.440370 0.5550 0.5550 0.5560 0.5609 0.5677
9.473705 0.5774 0.5871 0.6342 0.6504 0.6614
9.507040 0.6730 0.6815 0.6902 0.6928 0.6960
9.540375 0.6970 0.6970 0.6956 0.6903 0.6847
9.573710 0.6798 0.6638 0.6520 0.6372 0.6218
9.607045 0.6121 0.6031 0.5910 0.5841 0.5812
9.640380 0.5771 0.5710 0.5680 0.5680 0.5690
9.673715 0.5715 0.5754 0.5793 0.5827 0.5850
9.707050 0.5854 0.5894 0.5961 0.5997 0.6084
9.740385 0.6221 0.6312 0.6445 0.6543 0.6633
9.773720 0.6688 0.6731 0.6791 0.6853 0.6871
9.807055 0.6884 0.6923 0.6951 0.6970 0.6970
9.840390 0.6970 0.6970 0.6970 0.6970 0.6951
9.873725 0.6923 0.6742 0.6547 0.6461 0.6269
9.907060 0.6141 0.5955 0.5656 0.5543 0.5479
9.940395 0.5453 0.5422 0.5370 0.5292 0.5147
9.973730 0.4897 0.4750 0.4673 0.4580 0.4433
10.007065 0.4273 0.4200 0.4209 0.4280 0.4405
10.040400 0.4548 0.4848 0.5237 0.5412 0.5611
10.073735 0.5810 0.6081 0.6262 0.6396 0.6496
10.107070 0.6611 0.6742 0.6839 0.6895 0.6980
10.140405 0.7053 0.7141 0.7152 0.7170 0.7171
10.173740 0.7191 0.7240 0.7250 0.7289 0.7318
10.207075 0.7348 0.7350 0.7386 0.7390 0.7400
10.240410 0.7400 0.7371 0.7323 0.7302 0.7300
10.273745 0.7300 0.7291 0.7273 0.7213 0.7152
10.307080 0.7140 0.7072 0.6954 0.6833 0.6659
10.340415 0.6531 0.6453 0.6424 0.6408 0.6412
10.373750 0.6426 0.6453 0.6530 0.6617 0.6686
10.407085 0.6744 0.6822 0.6925 0.7010 0.7066
10.440420 0.7102 0.7113 0.7097 0.7090 0.7084
10.473755 0.7055 0.7015 0.6979 0.6875 0.6688
10.507090 0.6501 0.6354 0.6218 0.6139 0.6060
10.540425 0.5984 0.6032 0.6182 0.6373 0.6433
10.573760 0.6619 0.6776 0.6924 0.7033 0.7141
10.607095 0.7258 0.7297 0.7343 0.7392 0.7441
10.640430 0.7466 0.7493 0.7515 0.7520 0.7535
10.673765 0.7547 0.7550 0.7550 0.7550 0.7550
10.707100 0.7550 0.7544 0.7540 0.7529 0.7509
10.740435 0.7495 0.7480 0.7461 0.7436 0.7411
10.773770 0.7396 0.7382 0.7322 0.7233 0.7210
10.807105 0.7184 0.7176 0.7193 0.7213 0.7275
10.840440 0.7380 0.7481 0.7566 0.7626 0.7640
10.873775 0.7643 0.7655 0.7675 0.7696 0.7726
10.907110 0.7750 0.7753 0.7774 0.7802 0.7822
10.940445 0.7841 0.7850 0.7850 0.7840 0.7840
10.973780 0.7840 0.7840 0.7840 0.7840 0.7849
11.007115 0.7867 0.7887 0.7890 0.7898 0.7900
11.040450 0.7915 0.7920 0.7920 0.7920 0.7920
11.073785 0.7920 0.7920 0.7920 0.7908 0.7900
11.107120 0.7894 0.7879 0.7859 0.7845 0.7830
11.140455 0.7820 0.7820 0.7820 0.7833 0.7850
11.173790 0.7846 0.7826 0.7797 0.7777 0.7741
11.207125 0.7711 0.7677 0.7627 0.7574 0.7499
11.240460 0.7401 0.7312 0.7258 0.7187 0.7167
11.273795 0.7135 0.7090 0.7093 0.7153 0.7221
11.307130 0.7250 0.7269 0.7299 0.7300 0.7291
11.340465 0.7200 0.7111 0.6928 0.6774 0.6651
11.373800 0.6526 0.6267 0.5996 0.5783 0.5622
11.407135 0.5475 0.5314 0.5127 0.4983 0.4683
11.440470 0.4469 0.4430 0.4487 0.4717 0.4944
11.473805 0.5303 0.5663 0.6112 0.6380 0.6535
11.507140 0.6721 0.6837 0.6926 0.7024 0.7141
11.540475 0.7266 0.7351 0.7403 0.7440 0.7481
11.573810 0.7515 0.7557 0.7593 0.7600 0.7606
11.607145 0.7620 0.7625 0.7640 0.7642 0.7654
11.640480 0.7675 0.7700 0.7700 0.7702 0.7720
11.673815 0.7720 0.7719 0.7700 0.7690 0.7650
11.707150 0.7640 0.7621 0.7639 0.7640 0.7640
11.740485 0.7623 0.7578 0.7528 0.7496 0.7450
11.773820 0.7424 0.7367 0.7306 0.7240 0.7172
11.807155 0.7076 0.6994 0.6913 0.6843 0.6736
11.840490 0.6593 0.6513 0.6446 0.6390 0.6390
11.873825 0.6367 0.6293 0.6228 0.6166 0.6112
11.907160 0.6073 0.6004 0.5933 0.5880 0.5940
11.940495 0.6105 0.6251 0.6534 0.6727 0.6837
11.973830 0.6945 0.7159 0.7265 0.7365 0.7478
12.007165 0.7556 0.7621 0.7640 0.7651 0.7700
12.040500 0.7740 0.7818 0.7868 0.7920 0.7921
12.073835 0.7941 0.7970 0.7970 0.7970 0.7970
12.107170 0.7970 0.7970 0.7988 0.8008 0.8010
12.140505 0.8010 0.8018 0.8052 0.8068 0.8070
12.173840 0.8070 0.8070 0.8084 0.8090 0.8037
12.207175 0.8010 0.8048 0.8070 0.8070 0.8081
12.240510 0.8107 0.8120 0.8105 0.8090 0.8099
12.273845 0.8137 0.8157 0.8128 0.8090 0.8041
12.307180 0.8010 0.8037 0.8090 0.8090 0.8085
12.340515 0.8062 0.8035 0.8018 0.8010 0.8010
12.373850 0.8007 0.7990 0.7990 0.7993 0.8020
12.407185 0.8020 0.8020 0.8010 0.7990 0.7970
12.440520 0.7951 0.7922 0.7892 0.7854 0.7806
12.473855 0.7757 0.7699 0.7674 0.7646 0.7609
12.507190 0.7592 0.7590 0.7597 0.7629 0.7674
12.540525 0.7723 0.7805 0.7859 0.7888 0.7924
12.573860 0.7969 0.8001 0.8015 0.8046 0.8090
12.607195 0.8115 0.8120 0.8107 0.8082 0.8046
12.640530 0.8010 0.8032 0.8077 0.8096 0.8110
12.673865 0.8110 0.8102 0.8071 0.8033 0.8017
12.707200 0.8003 0.7990 0.7990 0.7998 0.8020
12.740535 0.8018 0.7991 0.7916 0.7895 0.7867
12.773870 0.7849 0.7838 0.7820 0.7818 0.7800
12.807205 0.7798 0.7750 0.7740 0.7701 0.7652
12.840540 0.7641 0.7603 0.7528 0.7494 0.7455
12.873875 0.7408 0.7376 0.7330 0.7320 0.7297
12.907210 0.7275 0.7270 0.7291 0.7300 0.7313
12.940545 0.7352 0.7420 0.7474 0.7507 0.7531
12.973880 0.7545 0.7550 0.7570 0.7605 0.7620
13.007215 0.7629 0.7640 0.7640 0.7640 0.7640
13.040550 0.7644 0.7650 0.7650 0.7650 0.7647
13.073885 0.7630 0.7593 0.7570 0.7566 0.7548
13.107220 0.7540 0.7537 0.7516 0.7488 0.7468
13.140555 0.7432 0.7298 0.7249 0.7170 0.7072
13.173890 0.6926 0.6741 0.6546 0.6386 0.6176
13.207225 0.6089 0.6072 0.6095 0.6244 0.6358
13.240560 0.6433 0.6450 0.6450 0.6429 0.6386
13.273895 0.6290 0.6137 0.5931 0.5715 0.5477
13.307230 0.5224 0.4962 0.4697 0.4281 0.3829
13.340565 0.3602 0.3417 0.3205 0.3064 0.2956
13.373900 0.2796 0.2635 0.2570 0.2579 0.2612
13.407235 0.2683 0.2792 0.2927 0.3038 0.3084
13.440570 0.3129 0.3197 0.3291 0.3421 0.3622
13.473905 0.3883 0.4251 0.4728 0.4831 0.4960
13.507240 0.5096 0.5234 0.5439 0.5539 0.5667
13.540575 0.5802 0.5851 0.5929 0.5930 0.5949
13.573910 0.5950 0.5959 0.5951 0.5915 0.5867
13.607245 0.5835 0.5732 0.5686 0.5587 0.5334
13.640580 0.5054 0.4894 0.4706 0.4497 0.4304
13.673915 0.4079 0.3834 0.3662 0.3552 0.3510
13.707250 0.3515 0.3567 0.3736 0.3957 0.4167
13.740585 0.4397 0.4598 0.4759 0.4917 0.5061
13.773920 0.5184 0.5266 0.5331 0.5409 0.5497
13.807255 0.5688 0.5731 0.5811 0.5859 0.5910
13.840590 0.5969 0.6026 0.6073 0.6105 0.6154
13.873925 0.6202 0.6231 0.6271 0.6324 0.6354
13.907260 0.6382 0.6406 0.6472 0.6501 0.6520
13.940595 0.6531 0.6619 0.6649 0.6650 0.6678
13.973930 0.6680 0.6680 0.6697 0.6700 0.6725
14.007265 0.6746 0.6766 0.6770 0.6777 0.6780
14.040600 0.6794 0.6800 0.6813 0.6807 0.6768
14.073935 0.6750 0.6750 0.6738 0.6730 0.6725
14.107270 0.6720 0.6700 0.6680 0.6653 0.6611
14.140605 0.6587 0.6554 0.6526 0.6506 0.6470
14.173940 0.6450 0.6456 0.6470 0.6470 0.6472
14.207275 0.6484 0.6504 0.6526 0.6558 0.6603
14.240610 0.6624 0.6652 0.6670 0.6670 0.6670
14.273945 0.6670 0.6670 0.6680 0.6670 0.6651
14.307280 0.6632 0.6630 0.6586 0.6554 0.6533
14.340615 0.6488 0.6439 0.6390 0.6380 0.6372
14.373950 0.6355 0.6265 0.6140 0.6080 0.6011
14.407285 0.5967 0.5941 0.5858 0.5764 0.5619
14.440620 0.5530 0.5453 0.5355 0.5258 0.5148
14.473955 0.5110 0.5038 0.4876 0.4753 0.4659
14.507290 0.4566 0.4535 0.4508 0.4429 0.4331
14.540625 0.4278 0.4253 0.4236 0.4223 0.4201
14.573960 0.4174 0.4160 0.4165 0.4182 0.4194
14.607295 0.4214 0.4235 0.4265 0.4296 0.4340
14.640630 0.4416 0.4486 0.4561 0.4582 0.4631
14.673965 0.4690 0.4710 0.4806 0.4876 0.4954
14.707300 0.5041 0.5076 0.5149 0.5244 0.5276
14.740635 0.5376 0.5439 0.5511 0.5530 0.5566
14.773970 0.5601 0.5658 0.5726 0.5789 0.5854
14.807305 0.5910 0.5942 0.5967 0.6002 0.6036
14.840640 0.6065 0.6138 0.6209 0.6220 0.6233
14.873975 0.6258 0.6290 0.6324 0.6337 0.6350
14.907310 0.6344 0.6330 0.6330 0.6335 0.6350
14.940645 0.6350 0.6350 0.6350 0.6350 0.6353
14.973980 0.6371 0.6387 0.6454 0.6503 0.6551
15.007315 0.6580 0.6600 0.6600 0.6571 0.6532
15.040650 0.6521 0.6502 0.6482 0.6471 0.6470
15.073985 0.6470 0.6454 0.6450 0.6435 0.6422
15.107320 0.6405 0.6400 0.6383 0.6380 0.6372
15.140655 0.6370 0.6355 0.6350 0.6350 0.6336
15.173990 0.6330 0.6323 0.6307 0.6281 0.6258
15.207325 0.6250 0.6250 0.6234 0.6210 0.6190
15.240660 0.6175 0.6161 0.6141 0.6117 0.6088
15.273995 0.6062 0.6043 0.6030 0.6027 0.6020
15.307330 0.6014 0.5989 0.5953 0.5912 0.5850
15.340665 0.5842 0.5801 0.5752 0.5709 0.5698
15.374000 0.5675 0.5625 0.5556 0.5478 0.5399
15.407335 0.5301 0.5212 0.5153 0.5112 0.5082
15.440670 0.5053 0.4971
##END=
