##TITLE=POTASSIUM FERROCYANIDE
$$ A.R.
##JCAMP-DX=4.24
##DATA TYPE=INFRARED SPECTRUM
##CLASS=COBLENTZ
##ORIGIN=MELLON INSTITUTE
##OWNER=COBLENTZ SOCIETY
Collection (C) 2018 copyright by the U.S. Secretary of Commerce
on behalf of the United States of America. All rights reserved.
##DATE=Not specified, most likely prior to 1970
##MOLFORM=K4 Fe ( C N)6  * 3 H2 O
##SOURCE REFERENCE=COBLENTZ NO. 587
##$NIST ID=B6000587
##$NIST SOURCE=COBLENTZ
##$NIST IMAGE=cob587
##SPECTROMETER/DATA SYSTEM=Not specified, most likely a prism, grating, or hybrid spectrometer.
##STATE=SOLID (NUJOL MULL)
##PATH LENGTH=
$$SPECTRAL CONTAMINATION DUE TO OIL AROUND 2900, 1450, 1380 CM^-^1
##SAMPLING PROCEDURE=TRANSMISSION
##RESOLUTION=4
##DATA PROCESSING=DIGITIZED BY NIST FROM HARD COPY
##XUNITS=MICROMETERS
##YUNITS=TRANSMITTANCE
##XFACTOR=1.000000
##YFACTOR=1
##DELTAX=000.006647
##FIRSTX=2.05
##LASTX=16.0203
##FIRSTY=0.79
##MAXX=16.0203
##MINX=2.05
##MAXY=1.005
##MINY=0.137
##NPOINTS=2103
##XYDATA=(X++(Y..Y))
2.050000 0.7900 0.7920 0.7930 0.7930 0.7950
2.083248 0.7970 0.7970 0.7980 0.7980 0.8000
2.116000 0.8000 0.8020 0.8020 0.8040 0.8040
2.149248 0.8050 0.8050 0.8050 0.8050 0.8090
2.182000 0.8100 0.8120 0.8140 0.8150 0.8170
2.215248 0.8170 0.8190 0.8200 0.8200 0.8220
2.249000 0.8220 0.8220 0.8220 0.8220 0.8220
2.282248 0.8240 0.8240 0.8240 0.8240 0.8240
2.315000 0.8240 0.8240 0.8250 0.8250 0.8250
2.348248 0.8250 0.8250 0.8250 0.8250 0.8250
2.382000 0.8250 0.8250 0.8250 0.8250 0.8240
2.415248 0.8240 0.8250 0.8250 0.8250 0.8250
2.448000 0.8270 0.8270 0.8290 0.8290 0.8290
2.481248 0.8290 0.8290 0.8300 0.8300 0.8320
2.515000 0.8320 0.8320 0.8320 0.8320 0.8320
2.548248 0.8300 0.8300 0.8300 0.8300 0.8320
2.581000 0.8320 0.8370 0.8390 0.8400 0.8420
2.614248 0.8420 0.8440 0.8440 0.8440 0.8420
2.648000 0.8420 0.8420 0.8420 0.8420 0.8420
2.681248 0.8420 0.8400 0.8400 0.8370 0.8340
2.714000 0.8340 0.8320 0.8250 0.8170 0.8100
2.747248 0.7800 0.7530 0.7330 0.6830 0.6730
2.781000 0.6610 0.6180 0.5710 0.5410 0.5140
2.814248 0.5000 0.4850 0.4690 0.4450 0.4230
2.847000 0.4200 0.4180 0.4170 0.4130 0.4100
2.880248 0.4050 0.4000 0.3960 0.3810 0.3800
2.914000 0.3760 0.3750 0.3750 0.3750 0.3750
2.947248 0.3760 0.3760 0.3760 0.3780 0.3800
2.980000 0.3810 0.3850 0.3860 0.3980 0.4080
3.013248 0.4150 0.4220 0.4280 0.4350 0.4420
3.047000 0.4530 0.4620 0.4690 0.4770 0.4820
3.080248 0.4900 0.4950 0.5120 0.5250 0.5370
3.113000 0.5440 0.5510 0.5610 0.5710 0.5760
3.146248 0.5820 0.5890 0.6030 0.6110 0.6230
3.179000 0.6380 0.6480 0.6540 0.6760 0.6910
3.212248 0.7000 0.7100 0.7150 0.7250 0.7310
3.246000 0.7380 0.7430 0.7500 0.7580 0.7580
3.279248 0.7520 0.7450 0.7230 0.6730 0.6630
3.312000 0.6530 0.6010 0.5560 0.5240 0.4900
3.345248 0.4300 0.3680 0.2730 0.1750 0.1690
3.379000 0.1600 0.1450 0.1370 0.1370 0.1400
3.412248 0.1450 0.1520 0.1850 0.1970 0.1970
3.445000 0.1900 0.1870 0.1870 0.1900 0.2010
3.478248 0.2320 0.2490 0.2590 0.2910 0.3310
3.512000 0.7300 0.7350 0.7820 0.8000 0.8190
3.545248 0.8540 0.8620 0.8720 0.8840 0.8890
3.578000 0.8990 0.9040 0.9110 0.9120 0.9140
3.611248 0.9140 0.9140 0.9140 0.9140 0.9140
3.645000 0.9160 0.9160 0.9170 0.9170 0.9170
3.678248 0.9190 0.9190 0.9190 0.9190 0.9190
3.711000 0.9210 0.9210 0.9210 0.9210 0.9220
3.744248 0.9220 0.9220 0.9220 0.9240 0.9240
3.778000 0.9260 0.9270 0.9270 0.9290 0.9310
3.811248 0.9310 0.9320 0.9340 0.9360 0.9360
3.844000 0.9360 0.9380 0.9380 0.9390 0.9390
3.877248 0.9410 0.9430 0.9430 0.9440 0.9440
3.911000 0.9440 0.9460 0.9460 0.9480 0.9480
3.944248 0.9480 0.9480 0.9460 0.9460 0.9440
3.977000 0.9440 0.9440 0.9430 0.9430 0.9430
4.010248 0.9410 0.9410 0.9390 0.9390 0.9380
4.044000 0.9340 0.9340 0.9310 0.9290 0.9260
4.077248 0.9240 0.9220 0.9240 0.9240 0.9260
4.110000 0.9270 0.9310 0.9340 0.9380 0.9410
4.143248 0.9430 0.9440 0.9440 0.9440 0.9440
4.176000 0.9440 0.9440 0.9440 0.9440 0.9430
4.209248 0.9430 0.9410 0.9410 0.9390 0.9380
4.243000 0.9380 0.9360 0.9380 0.9380 0.9380
4.276248 0.9380 0.9380 0.9380 0.9380 0.9380
4.309000 0.9380 0.9380 0.9360 0.9380 0.9380
4.342248 0.9380 0.9390 0.9390 0.9410 0.9410
4.376000 0.9430 0.9440 0.9460 0.9460 0.9460
4.409248 0.9480 0.9480 0.9480 0.9480 0.9480
4.442000 0.9490 0.9490 0.9490 0.9490 0.9490
4.475248 0.9490 0.9480 0.9460 0.9460 0.9460
4.509000 0.9440 0.9440 0.9440 0.9430 0.9410
4.542248 0.9390 0.9390 0.9380 0.9380 0.9380
4.575000 0.9380 0.9380 0.9380 0.9390 0.9390
4.608248 0.9410 0.9410 0.9410 0.9430 0.9430
4.642000 0.9430 0.9430 0.9430 0.9410 0.9390
4.675248 0.9340 0.9340 0.9320 0.9320 0.9320
4.708000 0.9320 0.9310 0.9310 0.9310 0.9310
4.741248 0.9310 0.9310 0.9290 0.9240 0.9210
4.775000 0.9010 0.8920 0.8790 0.8520 0.8370
4.808248 0.8270 0.8150 0.7630 0.7130 0.6630
4.841000 0.6290 0.5890 0.5610 0.5200 0.5070
4.874248 0.4850 0.4620 0.4300 0.3880 0.3650
4.908000 0.3350 0.3030 0.2730 0.2260 0.2010
4.941248 0.1890 0.1850 0.1840 0.1840 0.1820
4.974000 0.1820 0.1850 0.2020 0.2140 0.2420
5.007248 0.2610 0.2680 0.2990 0.3230 0.3800
5.040000 0.3980 0.4230 0.4480 0.4700 0.4920
5.073248 0.5610 0.5810 0.6010 0.6140 0.7030
5.107000 0.7250 0.7370 0.7520 0.7620 0.7720
5.140248 0.7830 0.7930 0.8000 0.8040 0.8120
5.173000 0.8150 0.8170 0.8200 0.8240 0.8240
5.206248 0.8290 0.8320 0.8390 0.8400 0.8450
5.240000 0.8490 0.8500 0.8520 0.8550 0.8590
5.273248 0.8620 0.8640 0.8670 0.8690 0.8740
5.306000 0.8790 0.8820 0.8840 0.8870 0.8910
5.339248 0.8920 0.8960 0.8990 0.9010 0.9020
5.373000 0.9040 0.9040 0.9040 0.9060 0.9070
5.406248 0.9110 0.9120 0.9140 0.9160 0.9170
5.439000 0.9190 0.9210 0.9210 0.9220 0.9240
5.472248 0.9260 0.9310 0.9340 0.9380 0.9390
5.506000 0.9410 0.9430 0.9430 0.9440 0.9440
5.539248 0.9440 0.9480 0.9490 0.9490 0.9510
5.572000 0.9530 0.9540 0.9540 0.9540 0.9580
5.605248 0.9610 0.9630 0.9640 0.9660 0.9680
5.639000 0.9680 0.9680 0.9680 0.9680 0.9690
5.672248 0.9710 0.9710 0.9730 0.9730 0.9740
5.705000 0.9740 0.9780 0.9780 0.9780 0.9790
5.738248 0.9790 0.9790 0.9810 0.9810 0.9810
5.772000 0.9830 0.9830 0.9830 0.9830 0.9830
5.805248 0.9830 0.9830 0.9810 0.9790 0.9760
5.838000 0.9760 0.9740 0.9740 0.9730 0.9710
5.871248 0.9680 0.9660 0.9640 0.9610 0.9560
5.905000 0.9540 0.9490 0.9460 0.9440 0.9410
5.938248 0.9360 0.9310 0.9290 0.9260 0.9210
5.971000 0.9070 0.8940 0.8710 0.8440 0.8300
6.004248 0.8150 0.7800 0.7630 0.7210 0.6860
6.037000 0.6700 0.6680 0.6660 0.6640 0.6630
6.070248 0.6610 0.6590 0.6580 0.6580 0.6580
6.104000 0.6530 0.6440 0.5910 0.5320 0.4720
6.137248 0.4700 0.4740 0.5340 0.5760 0.6180
6.170000 0.6980 0.7550 0.7970 0.8250 0.8550
6.203248 0.8720 0.8940 0.9020 0.9120 0.9160
6.237000 0.9210 0.9220 0.9260 0.9270 0.9290
6.270248 0.9290 0.9310 0.9310 0.9310 0.9310
6.303000 0.9310 0.9310 0.9310 0.9310 0.9320
6.336248 0.9340 0.9390 0.9430 0.9430 0.9430
6.370000 0.9430 0.9410 0.9410 0.9430 0.9430
6.403248 0.9440 0.9460 0.9490 0.9490 0.9490
6.436000 0.9510 0.9510 0.9530 0.9530 0.9540
6.469248 0.9540 0.9560 0.9560 0.9560 0.9580
6.503000 0.9580 0.9580 0.9580 0.9560 0.9560
6.536248 0.9580 0.9590 0.9590 0.9590 0.9560
6.569000 0.9530 0.9510 0.9490 0.9480 0.9460
6.602248 0.9460 0.9460 0.9460 0.9480 0.9490
6.636000 0.9490 0.9490 0.9490 0.9460 0.9440
6.669248 0.9430 0.9410 0.9360 0.9340 0.9270
6.702000 0.9240 0.9170 0.9010 0.8890 0.8620
6.735248 0.8500 0.8220 0.7920 0.7620 0.7080
6.769000 0.6780 0.6660 0.6540 0.6030 0.5770
6.802248 0.5720 0.5690 0.5690 0.5670 0.5670
6.835000 0.5690 0.5720 0.5820 0.5990 0.6010
6.868248 0.6190 0.6390 0.6560 0.6830 0.7000
6.902000 0.7080 0.7200 0.7420 0.7550 0.7680
6.935248 0.7800 0.7920 0.8070 0.8200 0.8520
6.968000 0.8710 0.8810 0.8840 0.8870 0.8910
7.001248 0.8940 0.8960 0.8990 0.9010 0.9020
7.034000 0.9060 0.9110 0.9140 0.9170 0.9220
7.067248 0.9270 0.9320 0.9340 0.9340 0.9360
7.101000 0.9360 0.9360 0.9360 0.9360 0.9340
7.134248 0.9310 0.9290 0.9010 0.8770 0.8520
7.167000 0.8370 0.8200 0.8020 0.8020 0.7310
7.200248 0.7310 0.7300 0.7310 0.7310 0.7370
7.234000 0.7420 0.7530 0.7630 0.7700 0.7800
7.267248 0.7850 0.7920 0.8000 0.8070 0.8140
7.300000 0.8220 0.8470 0.8570 0.8620 0.8690
7.333248 0.8760 0.8820 0.8870 0.8920 0.8960
7.367000 0.8990 0.8990 0.8990 0.9010 0.9010
7.400248 0.9010 0.9010 0.9020 0.9020 0.9040
7.433000 0.9040 0.9070 0.9140 0.9160 0.9170
7.466248 0.9170 0.9170 0.9190 0.9190 0.9210
7.500000 0.9210 0.9220 0.9220 0.9220 0.9220
7.533248 0.9240 0.9240 0.9260 0.9260 0.9260
7.566000 0.9260 0.9260 0.9260 0.9260 0.9270
7.599248 0.9270 0.9240 0.9220 0.9210 0.9190
7.633000 0.9170 0.9170 0.9170 0.9170 0.9190
7.666248 0.9190 0.9190 0.9210 0.9210 0.9220
7.699000 0.9240 0.9240 0.9240 0.9240 0.9240
7.732248 0.9260 0.9260 0.9260 0.9270 0.9270
7.766000 0.9270 0.9270 0.9260 0.9260 0.9240
7.799248 0.9240 0.9240 0.9240 0.9240 0.9240
7.832000 0.9240 0.9260 0.9270 0.9290 0.9290
7.865248 0.9290 0.9290 0.9290 0.9290 0.9310
7.898000 0.9340 0.9380 0.9390 0.9390 0.9390
7.931248 0.9410 0.9410 0.9410 0.9410 0.9410
7.965000 0.9390 0.9380 0.9360 0.9340 0.9340
7.998248 0.9380 0.9390 0.9390 0.9390 0.9410
8.031000 0.9410 0.9410 0.9410 0.9410 0.9410
8.064248 0.9410 0.9410 0.9410 0.9410 0.9410
8.098000 0.9430 0.9430 0.9430 0.9430 0.9430
8.131248 0.9430 0.9430 0.9430 0.9430 0.9430
8.164000 0.9430 0.9430 0.9430 0.9430 0.9390
8.197248 0.9390 0.9410 0.9410 0.9410 0.9430
8.231000 0.9430 0.9430 0.9430 0.9430 0.9430
8.264248 0.9430 0.9410 0.9410 0.9410 0.9410
8.297000 0.9410 0.9410 0.9410 0.9410 0.9410
8.330248 0.9390 0.9390 0.9410 0.9410 0.9410
8.364000 0.9410 0.9430 0.9430 0.9410 0.9390
8.397248 0.9410 0.9410 0.9410 0.9410 0.9410
8.430000 0.9410 0.9410 0.9390 0.9390 0.9390
8.463248 0.9410 0.9410 0.9410 0.9410 0.9410
8.497000 0.9410 0.9410 0.9410 0.9410 0.9390
8.530248 0.9390 0.9390 0.9390 0.9390 0.9390
8.563000 0.9390 0.9390 0.9390 0.9390 0.9390
8.596248 0.9380 0.9380 0.9390 0.9390 0.9380
8.630000 0.9380 0.9380 0.9360 0.9360 0.9380
8.663248 0.9380 0.9390 0.9390 0.9390 0.9410
8.696000 0.9410 0.9410 0.9410 0.9390 0.9390
8.729248 0.9390 0.9390 0.9390 0.9380 0.9360
8.763000 0.9360 0.9340 0.9340 0.9340 0.9340
8.796248 0.9340 0.9360 0.9360 0.9380 0.9380
8.829000 0.9380 0.9380 0.9390 0.9390 0.9390
8.862248 0.9390 0.9390 0.9390 0.9390 0.9380
8.895000 0.9380 0.9380 0.9360 0.9360 0.9360
8.928248 0.9360 0.9360 0.9360 0.9360 0.9360
8.962000 0.9360 0.9360 0.9360 0.9360 0.9340
8.995248 0.9340 0.9340 0.9340 0.9320 0.9320
9.028000 0.9310 0.9270 0.9270 0.9260 0.9260
9.061248 0.9240 0.9240 0.9240 0.9240 0.9240
9.095000 0.9240 0.9260 0.9260 0.9270 0.9260
9.128248 0.9270 0.9270 0.9290 0.9290 0.9310
9.161000 0.9320 0.9320 0.9320 0.9320 0.9320
9.194248 0.9310 0.9340 0.9340 0.9340 0.9340
9.228000 0.9360 0.9360 0.9360 0.9360 0.9390
9.261248 0.9410 0.9430 0.9440 0.9440 0.9440
9.294000 0.9440 0.9440 0.9440 0.9440 0.9440
9.327248 0.9440 0.9430 0.9430 0.9440 0.9440
9.361000 0.9440 0.9440 0.9430 0.9440 0.9460
9.394248 0.9460 0.9460 0.9460 0.9460 0.9460
9.427000 0.9460 0.9460 0.9460 0.9480 0.9480
9.460248 0.9480 0.9480 0.9460 0.9460 0.9460
9.494000 0.9460 0.9440 0.9440 0.9440 0.9430
9.527248 0.9430 0.9430 0.9410 0.9410 0.9410
9.560000 0.9390 0.9390 0.9390 0.9380 0.9380
9.593248 0.9360 0.9360 0.9360 0.9360 0.9380
9.627000 0.9410 0.9430 0.9430 0.9430 0.9440
9.660248 0.9440 0.9440 0.9440 0.9440 0.9440
9.693000 0.9440 0.9440 0.9440 0.9430 0.9430
9.726248 0.9430 0.9430 0.9440 0.9460 0.9480
9.760000 0.9510 0.9510 0.9490 0.9490 0.9490
9.793248 0.9480 0.9480 0.9460 0.9460 0.9440
9.826000 0.9440 0.9430 0.9440 0.9440 0.9440
9.859248 0.9440 0.9440 0.9430 0.9430 0.9410
9.892000 0.9390 0.9380 0.9360 0.9360 0.9340
9.925248 0.9340 0.9320 0.9320 0.9310 0.9310
9.959000 0.9290 0.9270 0.9270 0.9260 0.9260
9.992248 0.9260 0.9260 0.9240 0.9220 0.9220
10.025000 0.9220 0.9240 0.9220 0.9220 0.9240
10.058248 0.9240 0.9240 0.9240 0.9270 0.9290
10.092000 0.9290 0.9290 0.9290 0.9290 0.9290
10.125248 0.9290 0.9290 0.9290 0.9290 0.9290
10.158000 0.9290 0.9290 0.9290 0.9290 0.9290
10.191248 0.9310 0.9310 0.9310 0.9320 0.9320
10.225000 0.9320 0.9320 0.9340 0.9340 0.9340
10.258248 0.9340 0.9360 0.9360 0.9380 0.9380
10.291000 0.9390 0.9430 0.9430 0.9430 0.9430
10.324248 0.9440 0.9440 0.9440 0.9460 0.9460
10.358000 0.9460 0.9480 0.9480 0.9480 0.9460
10.391248 0.9460 0.9460 0.9460 0.9460 0.9460
10.424000 0.9480 0.9480 0.9480 0.9480 0.9460
10.457248 0.9460 0.9460 0.9460 0.9460 0.9460
10.491000 0.9460 0.9480 0.9480 0.9480 0.9480
10.524248 0.9460 0.9460 0.9460 0.9460 0.9460
10.557000 0.9460 0.9460 0.9440 0.9440 0.9430
10.590248 0.9430 0.9430 0.9410 0.9410 0.9410
10.624000 0.9410 0.9410 0.9410 0.9410 0.9390
10.657248 0.9390 0.9390 0.9380 0.9360 0.9340
10.690000 0.9320 0.9310 0.9290 0.9290 0.9290
10.723248 0.9270 0.9270 0.9260 0.9260 0.9260
10.756000 0.9270 0.9270 0.9290 0.9290 0.9310
10.789248 0.9310 0.9310 0.9340 0.9360 0.9360
10.823000 0.9360 0.9380 0.9390 0.9390 0.9410
10.856248 0.9410 0.9410 0.9430 0.9440 0.9440
10.889000 0.9480 0.9490 0.9530 0.9540 0.9540
10.922248 0.9540 0.9540 0.9540 0.9540 0.9560
10.956000 0.9560 0.9580 0.9610 0.9610 0.9630
10.989248 0.9630 0.9640 0.9640 0.9660 0.9660
11.022000 0.9660 0.9660 0.9660 0.9660 0.9680
11.055248 0.9680 0.9690 0.9690 0.9710 0.9710
11.089000 0.9730 0.9730 0.9730 0.9730 0.9710
11.122248 0.9690 0.9690 0.9710 0.9710 0.9710
11.155000 0.9710 0.9730 0.9730 0.9730 0.9730
11.188248 0.9730 0.9730 0.9730 0.9730 0.9740
11.222000 0.9740 0.9740 0.9760 0.9760 0.9760
11.255248 0.9760 0.9780 0.9790 0.9790 0.9790
11.288000 0.9790 0.9810 0.9810 0.9810 0.9830
11.321248 0.9830 0.9840 0.9840 0.9860 0.9860
11.355000 0.9860 0.9860 0.9860 0.9890 0.9890
11.388248 0.9910 0.9910 0.9910 0.9910 0.9910
11.421000 0.9910 0.9910 0.9930 0.9930 0.9940
11.454248 0.9980 0.9980 0.9980 0.9980 0.9980
11.488000 1.0000 1.0000 1.0000 1.0000 1.0000
11.521248 1.0000 1.0000 1.0000 1.0000 1.0000
11.554000 1.0000 1.0000 1.0000 1.0000 1.0000
11.587248 1.0000 1.0000 1.0000 1.0000 1.0000
11.621000 1.0000 1.0000 1.0000 1.0000 1.0010
11.654248 1.0010 1.0010 1.0010 1.0030 1.0010
11.687000 1.0010 1.0010 1.0010 1.0010 1.0010
11.720248 1.0010 1.0030 1.0030 1.0030 1.0030
11.753000 1.0030 1.0050 1.0050 1.0030 1.0050
11.786248 1.0030 1.0050 1.0050 1.0030 1.0030
11.820000 1.0030 1.0030 1.0010 1.0010 1.0010
11.853248 1.0010 1.0010 1.0000 1.0000 0.9980
11.886000 0.9980 1.0000 1.0000 0.9980 0.9960
11.919248 0.9960 0.9960 0.9960 0.9960 0.9960
11.953000 0.9960 0.9960 0.9960 0.9960 0.9960
11.986248 0.9960 0.9960 0.9960 0.9960 0.9980
12.019000 1.0000 1.0000 0.9980 0.9980 0.9960
12.052248 0.9980 0.9980 1.0000 1.0000 1.0000
12.086000 1.0000 1.0000 1.0000 1.0010 1.0010
12.119248 1.0010 1.0030 1.0030 1.0030 1.0010
12.152000 1.0010 1.0010 1.0030 1.0030 1.0030
12.185248 1.0030 1.0010 1.0030 1.0030 1.0030
12.219000 1.0010 1.0010 1.0010 1.0010 1.0010
12.252248 1.0010 1.0010 1.0010 1.0010 1.0010
12.285000 1.0010 1.0010 1.0010 1.0010 1.0010
12.318248 1.0000 1.0000 1.0000 1.0000 1.0000
12.352000 1.0000 1.0000 1.0000 1.0010 1.0010
12.385248 1.0030 1.0010 1.0030 1.0010 1.0010
12.418000 1.0010 1.0010 1.0010 1.0010 1.0010
12.451248 1.0010 1.0010 1.0030 1.0030 1.0050
12.485000 1.0030 1.0010 1.0030 1.0030 1.0030
12.518248 1.0030 1.0030 1.0030 1.0030 1.0030
12.551000 1.0030 1.0030 1.0030 1.0030 1.0030
12.584248 1.0030 1.0010 1.0030 1.0010 1.0010
12.618000 1.0010 1.0010 1.0010 1.0010 1.0010
12.651248 1.0010 1.0010 1.0010 1.0010 1.0000
12.684000 1.0010 1.0000 1.0010 1.0010 1.0000
12.717248 1.0000 0.9980 0.9980 0.9960 0.9930
12.750000 0.9930 0.9910 0.9930 0.9930 0.9930
12.783248 0.9930 0.9940 0.9940 0.9960 0.9960
12.817000 0.9940 0.9910 0.9910 0.9890 0.9890
12.850248 0.9890 0.9880 0.9840 0.9830 0.9830
12.883000 0.9810 0.9810 0.9810 0.9790 0.9790
12.916248 0.9760 0.9740 0.9730 0.9730 0.9710
12.950000 0.9710 0.9710 0.9710 0.9690 0.9690
12.983248 0.9680 0.9660 0.9660 0.9660 0.9640
13.016000 0.9640 0.9630 0.9630 0.9610 0.9610
13.049248 0.9630 0.9610 0.9590 0.9590 0.9590
13.083000 0.9580 0.9580 0.9580 0.9580 0.9560
13.116248 0.9560 0.9560 0.9560 0.9560 0.9560
13.149000 0.9560 0.9560 0.9560 0.9540 0.9540
13.182248 0.9540 0.9530 0.9530 0.9530 0.9530
13.216000 0.9530 0.9530 0.9510 0.9460 0.9440
13.249248 0.9430 0.9410 0.9410 0.9410 0.9410
13.282000 0.9390 0.9390 0.9390 0.9390 0.9380
13.315248 0.9360 0.9340 0.9320 0.9320 0.9310
13.349000 0.9290 0.9270 0.9260 0.9260 0.9240
13.382248 0.9220 0.9220 0.9210 0.9190 0.9190
13.415000 0.9190 0.9190 0.9190 0.9190 0.9190
13.448248 0.9170 0.9170 0.9160 0.9140 0.9120
13.482000 0.9070 0.9060 0.9020 0.9010 0.8960
13.515248 0.8920 0.8910 0.8890 0.8870 0.8860
13.548000 0.8860 0.8860 0.8840 0.8840 0.8840
13.581248 0.8840 0.8820 0.8810 0.8790 0.8770
13.615000 0.8770 0.8760 0.8760 0.8760 0.8740
13.648248 0.8740 0.8740 0.8720 0.8710 0.8710
13.681000 0.8690 0.8670 0.8670 0.8650 0.8640
13.714248 0.8600 0.8590 0.8550 0.8540 0.8540
13.747000 0.8520 0.8500 0.8490 0.8490 0.8450
13.780248 0.8440 0.8440 0.8420 0.8400 0.8370
13.814000 0.8350 0.8340 0.8340 0.8340 0.8320
13.847248 0.8320 0.8300 0.8300 0.8300 0.8300
13.880000 0.8300 0.8290 0.8290 0.8270 0.8270
13.913248 0.8250 0.8250 0.8240 0.8240 0.8240
13.947000 0.8240 0.8220 0.8220 0.8200 0.8220
13.980248 0.8220 0.8200 0.8200 0.8200 0.8190
14.013000 0.8170 0.8170 0.8150 0.8150 0.8140
14.046248 0.8120 0.8100 0.8090 0.8050 0.8050
14.080000 0.8040 0.8050 0.8040 0.8040 0.8040
14.113248 0.8020 0.8020 0.8000 0.8000 0.7980
14.146000 0.7930 0.7920 0.7900 0.7880 0.7850
14.179248 0.7850 0.7830 0.7820 0.7800 0.7780
14.213000 0.7770 0.7770 0.7750 0.7720 0.7700
14.246248 0.7670 0.7650 0.7620 0.7600 0.7580
14.279000 0.7550 0.7550 0.7530 0.7530 0.7520
14.312248 0.7520 0.7500 0.7480 0.7470 0.7450
14.346000 0.7430 0.7430 0.7430 0.7420 0.7420
14.379248 0.7400 0.7380 0.7350 0.7330 0.7330
14.412000 0.7310 0.7310 0.7310 0.7300 0.7260
14.445248 0.7250 0.7230 0.7230 0.7210 0.7210
14.479000 0.7200 0.7180 0.7150 0.7130 0.7130
14.512248 0.7110 0.7100 0.7080 0.7050 0.7030
14.545000 0.7010 0.6980 0.6950 0.6930 0.6930
14.578248 0.6930 0.6910 0.6900 0.6900 0.6880
14.611000 0.6880 0.6860 0.6860 0.6860 0.6850
14.644248 0.6830 0.6830 0.6830 0.6830 0.6810
14.678000 0.6810 0.6810 0.6800 0.6800 0.6800
14.711248 0.6800 0.6780 0.6780 0.6780 0.6760
14.744000 0.6750 0.6730 0.6730 0.6710 0.6710
14.777248 0.6700 0.6700 0.6710 0.6710 0.6710
14.811000 0.6730 0.6730 0.6730 0.6730 0.6730
14.844248 0.6710 0.6710 0.6710 0.6680 0.6680
14.877000 0.6660 0.6640 0.6630 0.6610 0.6590
14.910248 0.6560 0.6540 0.6530 0.6510 0.6490
14.944000 0.6490 0.6490 0.6480 0.6480 0.6480
14.977248 0.6460 0.6440 0.6410 0.6410 0.6390
15.010000 0.6390 0.6380 0.6380 0.6380 0.6360
15.043248 0.6360 0.6360 0.6360 0.6340 0.6340
15.077000 0.6340 0.6340 0.6330 0.6330 0.6310
15.110248 0.6310 0.6290 0.6290 0.6290 0.6280
15.143000 0.6280 0.6280 0.6260 0.6260 0.6240
15.176248 0.6230 0.6210 0.6190 0.6190 0.6190
15.210000 0.6210 0.6210 0.6240 0.6260 0.6260
15.243248 0.6280 0.6280 0.6280 0.6280 0.6280
15.276000 0.6280 0.6280 0.6280 0.6280 0.6260
15.309248 0.6240 0.6240 0.6260 0.6280 0.6290
15.343000 0.6310 0.6310 0.6310 0.6330 0.6330
15.376248 0.6330 0.6310 0.6290 0.6290 0.6280
15.409000 0.6290 0.6280 0.6280 0.6280 0.6260
15.442248 0.6260 0.6260 0.6260 0.6260 0.6260
15.476000 0.6240 0.6240 0.6230 0.6240 0.6240
15.509248 0.6240 0.6240 0.6240 0.6240 0.6240
15.542000 0.6240 0.6240 0.6240 0.6240 0.6240
15.575248 0.6240 0.6240 0.6240 0.6260 0.6260
15.608000 0.6280 0.6290 0.6310 0.6330 0.6340
15.641248 0.6360 0.6360 0.6380 0.6380 0.6380
15.675000 0.6390 0.6390 0.6410 0.6410 0.6430
15.708248 0.6430 0.6440 0.6440 0.6440 0.6460
15.741000 0.6460 0.6460 0.6460 0.6460 0.6460
15.774248 0.6460 0.6480 0.6460 0.6480 0.6490
15.808000 0.6530 0.6540 0.6560 0.6580 0.6590
15.841248 0.6590 0.6610 0.6630 0.6640 0.6660
15.874000 0.6680 0.6680 0.6680 0.6700 0.6700
15.907248 0.6700 0.6680 0.6680 0.6680 0.6680
15.941000 0.6660 0.6660 0.6640 0.6640 0.6640
15.974248 0.6660 0.6660 0.6680 0.6700 0.7480
16.007000 0.6660 0.6680 0.6680
##END=
