##TITLE=KETENE, DIETHYL ACETAL
##JCAMP-DX=4.24
##DATA TYPE=INFRARED SPECTRUM
##CLASS=COBLENTZ
##ORIGIN=TENNESSEE EASTMAN COMPANY, RESEARCH LABORATORIES
##OWNER=COBLENTZ SOCIETY
Collection (C) 2018 copyright by the U.S. Secretary of Commerce
on behalf of the United States of America. All rights reserved.
##DATE=Not specified, most likely prior to 1970
##MOLFORM=C6 H16 O2
##BP=83-85 C AT 200 mmHg
##SOURCE REFERENCE=COBLENTZ NO. 2384
##$NIST ID=B6002384
##$NIST SOURCE=COBLENTZ
##$NIST IMAGE=cob2384
##SPECTROMETER/DATA SYSTEM=Not specified, most likely a prism, grating, or hybrid spectrometer.
##STATE=LIQUID
##PATH LENGTH=0.0030 CM
##SAMPLING PROCEDURE=TRANSMISSION
##RESOLUTION=4
##DATA PROCESSING=DIGITIZED BY NIST FROM HARD COPY
##XUNITS=MICROMETERS
##YUNITS=TRANSMITTANCE
##XFACTOR=1.000000
##YFACTOR=1
##DELTAX=000.006635
##FIRSTX=2.027
##LASTX=15.9932
##FIRSTY=0.938
##MAXX=15.9932
##MINX=2.027
##MAXY=0.955
##MINY=0.085
##NPOINTS=2106
##XYDATA=(X++(Y..Y))
2.027000 0.9380 0.9380 0.9380 0.9400 0.9400
2.060191 0.9400 0.9400 0.9400 0.9410 0.9410
2.093000 0.9410 0.9430 0.9430 0.9430 0.9430
2.126191 0.9430 0.9430 0.9430 0.9430 0.9430
2.159000 0.9430 0.9430 0.9430 0.9410 0.9300
2.192191 0.9280 0.9230 0.9210 0.9150 0.9100
2.226000 0.9050 0.9030 0.9030 0.9030 0.9030
2.259191 0.9050 0.9060 0.9100 0.9130 0.9150
2.292000 0.9160 0.9160 0.9180 0.9200 0.9210
2.325191 0.9210 0.9230 0.9230 0.9250 0.9250
2.358000 0.9260 0.9260 0.9260 0.9280 0.9280
2.391191 0.9280 0.9260 0.9250 0.9230 0.9210
2.425000 0.9180 0.9180 0.9160 0.9160 0.9180
2.458191 0.9200 0.9230 0.9250 0.9280 0.9300
2.491000 0.9330 0.9360 0.9380 0.9380 0.9400
2.524191 0.9410 0.9430 0.9430 0.9430 0.9450
2.557000 0.9450 0.9450 0.9450 0.9450 0.9450
2.590191 0.9450 0.9450 0.9450 0.9450 0.9450
2.624000 0.9450 0.9450 0.9450 0.9450 0.9450
2.657191 0.9450 0.9450 0.9450 0.9450 0.9450
2.690000 0.9450 0.9450 0.9450 0.9450 0.9450
2.723191 0.9450 0.9430 0.9430 0.9430 0.9430
2.756000 0.9430 0.9430 0.9430 0.9430 0.9430
2.789191 0.9430 0.9430 0.9430 0.9430 0.9430
2.823000 0.9430 0.9430 0.9450 0.9450 0.9450
2.856191 0.9450 0.9450 0.9450 0.9450 0.9450
2.889000 0.9450 0.9450 0.9450 0.9450 0.9450
2.922191 0.9430 0.9410 0.9400 0.9400 0.9380
2.955000 0.9380 0.9380 0.9380 0.9380 0.9380
2.988191 0.9380 0.9380 0.9380 0.9380 0.9380
3.022000 0.9380 0.9380 0.9380 0.9380 0.9380
3.055191 0.9380 0.9380 0.9360 0.9360 0.9360
3.088000 0.9360 0.9350 0.9330 0.9310 0.9300
3.121191 0.9260 0.9250 0.9200 0.9150 0.9110
3.155000 0.9060 0.8860 0.8450 0.8430 0.8430
3.188191 0.8530 0.8810 0.8850 0.8850 0.8810
3.221000 0.8810 0.8730 0.8630 0.8610 0.8550
3.254191 0.8530 0.8510 0.8450 0.8350 0.8060
3.287000 0.7860 0.7080 0.6650 0.6010 0.5110
3.320191 0.2210 0.1880 0.1860 0.1880 0.2710
3.354000 0.3550 0.3550 0.3210 0.2880 0.2780
3.387191 0.2680 0.2650 0.2680 0.3030 0.3150
3.420000 0.3180 0.3260 0.3350 0.4000 0.4900
3.453191 0.5610 0.6060 0.7100 0.7510 0.7700
3.486000 0.7850 0.7980 0.8060 0.8150 0.8210
3.519191 0.8280 0.8330 0.8400 0.8460 0.8530
3.553000 0.8610 0.8630 0.8650 0.8660 0.8660
3.586191 0.8680 0.8700 0.8700 0.8700 0.8700
3.619000 0.8700 0.8700 0.8710 0.8730 0.8750
3.652191 0.8780 0.8860 0.8960 0.9100 0.9110
3.685000 0.9160 0.9180 0.9180 0.9230 0.9230
3.718191 0.9230 0.9250 0.9250 0.9260 0.9260
3.752000 0.9280 0.9280 0.9280 0.9300 0.9310
3.785191 0.9310 0.9300 0.9260 0.9200 0.9180
3.818000 0.9050 0.9030 0.9030 0.9030 0.9100
3.851191 0.9160 0.9200 0.9310 0.9330 0.9360
3.884000 0.9400 0.9410 0.9410 0.9430 0.9430
3.917191 0.9430 0.9430 0.9430 0.9430 0.9430
3.951000 0.9410 0.9410 0.9400 0.9400 0.9400
3.984191 0.9380 0.9360 0.9360 0.9350 0.9330
4.017000 0.9330 0.9330 0.9330 0.9330 0.9330
4.050191 0.9350 0.9350 0.9350 0.9350 0.9350
4.083000 0.9350 0.9360 0.9360 0.9360 0.9360
4.116191 0.9350 0.9350 0.9350 0.9350 0.9360
4.150000 0.9360 0.9400 0.9430 0.9450 0.9450
4.183191 0.9450 0.9450 0.9450 0.9450 0.9430
4.216000 0.9430 0.9430 0.9410 0.9400 0.9400
4.249191 0.9360 0.9360 0.9350 0.9330 0.9330
4.282000 0.9310 0.9310 0.9310 0.9310 0.9330
4.315191 0.9350 0.9400 0.9430 0.9460 0.9500
4.349000 0.9510 0.9510 0.9510 0.9510 0.9500
4.382191 0.9450 0.9430 0.9360 0.9300 0.9250
4.415000 0.9200 0.9180 0.9160 0.9150 0.9150
4.448191 0.9180 0.9210 0.9250 0.9260 0.9280
4.482000 0.9280 0.9300 0.9300 0.9310 0.9310
4.515191 0.9330 0.9330 0.9330 0.9350 0.9350
4.548000 0.9330 0.9300 0.9260 0.9230 0.9130
4.581191 0.9110 0.9110 0.9110 0.9130 0.9180
4.614000 0.9230 0.9260 0.9310 0.9350 0.9400
4.647191 0.9410 0.9450 0.9460 0.9480 0.9480
4.681000 0.9500 0.9500 0.9500 0.9500 0.9500
4.714191 0.9500 0.9500 0.9500 0.9500 0.9500
4.747000 0.9510 0.9510 0.9510 0.9510 0.9510
4.780191 0.9510 0.9510 0.9530 0.9530 0.9530
4.813000 0.9550 0.9550 0.9550 0.9550 0.9550
4.846191 0.9550 0.9550 0.9550 0.9550 0.9530
4.880000 0.9530 0.9510 0.9500 0.9450 0.9430
4.913191 0.9410 0.9400 0.9400 0.9380 0.9350
4.946000 0.9330 0.9260 0.9210 0.9130 0.9100
4.979191 0.9060 0.9050 0.9010 0.9000 0.8960
5.012000 0.8960 0.8950 0.8950 0.8950 0.8910
5.045191 0.8900 0.8760 0.8700 0.8660 0.8650
5.079000 0.8630 0.8630 0.8630 0.8630 0.8650
5.112191 0.8650 0.8660 0.8700 0.8710 0.8710
5.145000 0.8730 0.8780 0.8810 0.8830 0.8850
5.178191 0.8860 0.8900 0.8910 0.9000 0.9060
5.211000 0.9080 0.9110 0.9110 0.9130 0.9160
5.244191 0.9210 0.9230 0.9250 0.9250 0.9260
5.278000 0.9260 0.9280 0.9280 0.9300 0.9300
5.311191 0.9310 0.9330 0.9350 0.9360 0.9360
5.344000 0.9350 0.9350 0.9310 0.9260 0.9230
5.377191 0.9180 0.9180 0.9130 0.9110 0.9110
5.410000 0.9130 0.9150 0.9150 0.9150 0.9180
5.443191 0.9180 0.9230 0.9260 0.9280 0.9300
5.477000 0.9300 0.9300 0.9300 0.9300 0.9300
5.510191 0.9280 0.9260 0.9230 0.9210 0.9210
5.543000 0.9180 0.9150 0.9080 0.9060 0.8980
5.576191 0.8860 0.8710 0.8650 0.8330 0.8030
5.609000 0.7850 0.7680 0.7250 0.7080 0.6960
5.642191 0.6880 0.6860 0.6860 0.6850 0.6810
5.676000 0.6780 0.6780 0.6780 0.6810 0.6830
5.709191 0.6860 0.6980 0.7010 0.7210 0.7360
5.742000 0.7530 0.7730 0.7960 0.8030 0.8060
5.775191 0.8110 0.8130 0.8130 0.8110 0.8100
5.809000 0.8060 0.8050 0.8050 0.8030 0.8010
5.842191 0.7980 0.7900 0.7830 0.7730 0.7650
5.875000 0.7560 0.7430 0.7310 0.7250 0.7150
5.908191 0.7010 0.6900 0.6810 0.6560 0.5900
5.941000 0.5810 0.5550 0.5130 0.4310 0.3960
5.974191 0.3800 0.3630 0.3180 0.2660 0.2430
6.008000 0.2030 0.1800 0.1760 0.1710 0.1710
6.041191 0.1710 0.1700 0.1680 0.1680 0.1610
6.074000 0.1580 0.1530 0.1530 0.1560 0.1660
6.107191 0.1760 0.2060 0.2350 0.2500 0.3060
6.140000 0.3400 0.3630 0.4000 0.4560 0.4780
6.173191 0.4880 0.5410 0.5610 0.5780 0.5910
6.207000 0.6030 0.6160 0.6300 0.6410 0.6880
6.240191 0.7000 0.7100 0.7180 0.7300 0.7380
6.273000 0.7410 0.7430 0.7430 0.7430 0.7430
6.306191 0.7400 0.7360 0.7310 0.7300 0.7260
6.339000 0.7260 0.7280 0.7280 0.7310 0.7350
6.372191 0.7350 0.7330 0.7310 0.7310 0.7300
6.406000 0.7310 0.7350 0.7400 0.7410 0.7410
6.439191 0.7410 0.7400 0.7360 0.7310 0.7280
6.472000 0.7260 0.7260 0.7280 0.7280 0.7280
6.505191 0.7260 0.7260 0.7230 0.7200 0.7110
6.538000 0.7030 0.6980 0.6960 0.6950 0.6930
6.571191 0.6950 0.6910 0.6850 0.6800 0.6660
6.605000 0.6550 0.6510 0.6450 0.6430 0.6380
6.638191 0.6280 0.6130 0.5960 0.5810 0.5630
6.671000 0.5350 0.5100 0.4160 0.3510 0.2910
6.704191 0.2800 0.2800 0.2810 0.2980 0.3110
6.737000 0.3300 0.3600 0.3800 0.4010 0.4260
6.770191 0.4380 0.4410 0.4410 0.4400 0.4230
6.804000 0.4160 0.3950 0.3860 0.3750 0.3650
6.837191 0.3480 0.3360 0.3260 0.3160 0.3110
6.870000 0.3000 0.3000 0.3010 0.3130 0.3330
6.903191 0.3560 0.3800 0.4130 0.4360 0.4680
6.936000 0.5060 0.5400 0.5650 0.5730 0.5860
6.969191 0.5960 0.6010 0.6050 0.6060 0.6080
7.003000 0.6080 0.5960 0.5600 0.5450 0.5260
7.036191 0.5060 0.4860 0.4630 0.4410 0.4180
7.069000 0.3960 0.3750 0.3630 0.3600 0.3510
7.102191 0.3500 0.3480 0.3430 0.3410 0.3350
7.136000 0.3150 0.2960 0.2710 0.2430 0.2330
7.169191 0.2310 0.2310 0.2310 0.2350 0.2400
7.202000 0.2450 0.2560 0.2610 0.2610 0.2600
7.235191 0.2450 0.2300 0.2160 0.2000 0.1860
7.268000 0.1810 0.1780 0.1760 0.1780 0.2050
7.301191 0.2300 0.2500 0.2780 0.2930 0.3160
7.335000 0.3260 0.3460 0.3650 0.3810 0.4000
7.368191 0.4160 0.4330 0.4480 0.4630 0.4730
7.401000 0.4810 0.4980 0.5110 0.5200 0.5200
7.434191 0.5200 0.5200 0.5200 0.5150 0.4980
7.467000 0.4850 0.4730 0.4700 0.4700 0.4680
7.500191 0.4680 0.4680 0.4660 0.4650 0.4610
7.534000 0.4560 0.4460 0.4410 0.4360 0.4260
7.567191 0.4110 0.4000 0.3880 0.3750 0.3630
7.600000 0.3480 0.3330 0.3130 0.2930 0.2660
7.633191 0.2510 0.2410 0.2210 0.2050 0.1880
7.666000 0.1760 0.1650 0.1560 0.1500 0.1430
7.699191 0.1380 0.1330 0.1300 0.1280 0.1260
7.733000 0.1230 0.1210 0.1160 0.1150 0.1130
7.766191 0.1130 0.1130 0.1130 0.1130 0.1130
7.799000 0.1110 0.1110 0.1110 0.1110 0.1110
7.832191 0.1110 0.1110 0.1130 0.1130 0.1130
7.865000 0.1130 0.1150 0.1150 0.1180 0.1180
7.898191 0.1200 0.1200 0.1200 0.1210 0.1210
7.932000 0.1210 0.1230 0.1250 0.1250 0.1250
7.965191 0.1250 0.1230 0.1230 0.1230 0.1210
7.998000 0.1210 0.1230 0.1260 0.1400 0.1530
8.031191 0.1660 0.1800 0.1930 0.2060 0.2180
8.064000 0.2310 0.2460 0.2600 0.2730 0.2850
8.097191 0.2980 0.3110 0.3250 0.3360 0.3580
8.131000 0.3800 0.4010 0.4200 0.4400 0.4560
8.164191 0.4730 0.4880 0.5010 0.5080 0.5180
8.197000 0.5300 0.5430 0.5580 0.5710 0.5850
8.230191 0.5950 0.6030 0.6050 0.6060 0.6110
8.264000 0.6160 0.6160 0.6160 0.6180 0.6180
8.297191 0.6180 0.6180 0.6160 0.6160 0.6150
8.330000 0.6130 0.6110 0.6030 0.5960 0.5930
8.363191 0.5910 0.5880 0.5880 0.5860 0.5850
8.396000 0.5850 0.5830 0.5810 0.5810 0.5800
8.429191 0.5780 0.5760 0.5710 0.5630 0.5480
8.463000 0.5410 0.5250 0.5010 0.4860 0.4680
8.496191 0.4560 0.4480 0.4430 0.4400 0.4360
8.529000 0.4300 0.4200 0.4160 0.4060 0.3980
8.562191 0.3900 0.3830 0.3760 0.3710 0.3700
8.595000 0.3680 0.3680 0.3700 0.3830 0.3980
8.628191 0.4210 0.4280 0.4430 0.4550 0.4660
8.662000 0.4730 0.4850 0.4910 0.4980 0.5060
8.695191 0.5130 0.5210 0.5300 0.5310 0.5330
8.728000 0.5360 0.5400 0.5450 0.5460 0.5500
8.761191 0.5510 0.5530 0.5560 0.5610 0.5630
8.794000 0.5630 0.5630 0.5630 0.5630 0.5630
8.827191 0.5630 0.5630 0.5630 0.5610 0.5560
8.861000 0.5460 0.5380 0.5310 0.5250 0.5030
8.894191 0.4910 0.4680 0.4560 0.4510 0.4360
8.927000 0.4250 0.4110 0.4030 0.3960 0.3800
8.960191 0.3700 0.3560 0.3480 0.3410 0.3350
8.993000 0.3300 0.3110 0.2880 0.2750 0.2630
9.026191 0.2550 0.2510 0.2460 0.2430 0.2400
9.060000 0.2360 0.2330 0.2310 0.2210 0.2210
9.093191 0.2200 0.2180 0.2160 0.2160 0.2150
9.126000 0.2130 0.2100 0.2050 0.2010 0.2000
9.159191 0.1950 0.1880 0.1800 0.1760 0.1730
9.192000 0.1710 0.1710 0.1710 0.1710 0.1710
9.225191 0.1710 0.1710 0.1710 0.1710 0.1700
9.259000 0.1700 0.1680 0.1680 0.1680 0.1660
9.292191 0.1630 0.1610 0.1600 0.1560 0.1530
9.325000 0.1510 0.1480 0.1410 0.1380 0.1330
9.358191 0.1280 0.1210 0.1180 0.1130 0.1100
9.391000 0.1080 0.1060 0.1030 0.1000 0.0980
9.424191 0.0960 0.0950 0.0930 0.0910 0.0900
9.458000 0.0900 0.0900 0.0880 0.0880 0.0860
9.491191 0.0850 0.0850 0.0850 0.0860 0.0860
9.524000 0.0860 0.0880 0.0880 0.0950 0.1000
9.557191 0.1060 0.1110 0.1180 0.1210 0.1300
9.591000 0.1430 0.1550 0.1650 0.1800 0.1980
9.624191 0.2160 0.2380 0.2560 0.2730 0.2960
9.657000 0.3180 0.3400 0.3580 0.3760 0.3950
9.690191 0.4110 0.4260 0.4410 0.4560 0.4700
9.723000 0.4830 0.4960 0.5080 0.5210 0.5350
9.756191 0.5460 0.5580 0.5710 0.5850 0.5960
9.790000 0.5980 0.6050 0.6110 0.6250 0.6330
9.823191 0.6400 0.6430 0.6460 0.6500 0.6530
9.856000 0.6600 0.6600 0.6630 0.6660 0.6700
9.889191 0.6700 0.6710 0.6730 0.6760 0.6780
9.922000 0.6800 0.6800 0.6810 0.6810 0.6830
9.955191 0.6850 0.6900 0.6900 0.6900 0.6900
9.989000 0.6900 0.6900 0.6880 0.6860 0.6830
10.022191 0.6800 0.6730 0.6660 0.6580 0.6480
10.055000 0.6360 0.6250 0.6060 0.5950 0.5800
10.088191 0.5600 0.5400 0.5150 0.4900 0.4610
10.121000 0.4360 0.4210 0.4050 0.3950 0.3830
10.154191 0.3800 0.3750 0.3730 0.3700 0.3680
10.188000 0.3650 0.3580 0.3480 0.3350 0.3180
10.221191 0.2980 0.2710 0.2650 0.2500 0.2410
10.254000 0.2410 0.2410 0.2460 0.2580 0.2850
10.287191 0.3150 0.3400 0.3660 0.3980 0.4280
10.320000 0.4550 0.4810 0.5060 0.5260 0.5450
10.353191 0.5600 0.5700 0.5780 0.5850 0.5930
10.387000 0.5980 0.6050 0.6080 0.6200 0.6210
10.420191 0.6210 0.6210 0.6210 0.6210 0.6200
10.453000 0.6160 0.6130 0.6060 0.6000 0.5960
10.486191 0.5910 0.5900 0.5880 0.5860 0.5860
10.519000 0.5860 0.5900 0.5910 0.5980 0.6050
10.552191 0.6150 0.6250 0.6330 0.6410 0.6460
10.586000 0.6500 0.6560 0.6630 0.6710 0.6800
10.619191 0.6900 0.6980 0.7060 0.7150 0.7200
10.652000 0.7300 0.7360 0.7430 0.7500 0.7530
10.685191 0.7580 0.7660 0.7730 0.7760 0.7810
10.718000 0.7850 0.7910 0.7980 0.8000 0.8010
10.751191 0.8050 0.8060 0.8100 0.8130 0.8150
10.785000 0.8150 0.8150 0.8160 0.8160 0.8180
10.818191 0.8180 0.8210 0.8210 0.8210 0.8230
10.851000 0.8230 0.8250 0.8250 0.8250 0.8260
10.884191 0.8260 0.8260 0.8260 0.8260 0.8280
10.918000 0.8300 0.8310 0.8310 0.8330 0.8350
10.951191 0.8380 0.8400 0.8410 0.8410 0.8430
10.984000 0.8430 0.8450 0.8450 0.8460 0.8480
11.017191 0.8480 0.8480 0.8480 0.8480 0.8480
11.050000 0.8480 0.8480 0.8480 0.8480 0.8480
11.083191 0.8480 0.8480 0.8480 0.8480 0.8460
11.117000 0.8450 0.8410 0.8400 0.8360 0.8350
11.150191 0.8310 0.8300 0.8250 0.8210 0.8160
11.183000 0.8130 0.8080 0.8010 0.7930 0.7810
11.216191 0.7650 0.7560 0.7450 0.7330 0.7210
11.249000 0.7080 0.6930 0.6800 0.6630 0.6460
11.282191 0.6350 0.6210 0.6060 0.5930 0.5780
11.316000 0.5610 0.5460 0.5300 0.5100 0.4880
11.349191 0.4580 0.4300 0.4060 0.3930 0.3700
11.382000 0.3550 0.3400 0.3310 0.3310 0.3330
11.415191 0.3350 0.3400 0.3500 0.3650 0.3900
11.448000 0.4000 0.4180 0.4300 0.4360 0.4460
11.481191 0.4530 0.4580 0.4600 0.4600 0.4610
11.515000 0.4680 0.4750 0.4880 0.5030 0.5250
11.548191 0.5460 0.5700 0.5930 0.6130 0.6310
11.581000 0.6450 0.6510 0.6560 0.6630 0.6700
11.614191 0.6760 0.6810 0.6830 0.6850 0.6860
11.647000 0.6880 0.6900 0.6930 0.6960 0.7050
11.680191 0.7110 0.7210 0.7300 0.7430 0.7530
11.714000 0.7630 0.7700 0.7750 0.7800 0.7860
11.747191 0.7910 0.7960 0.8000 0.8010 0.8030
11.780000 0.8060 0.8110 0.8130 0.8160 0.8180
11.813191 0.8180 0.8180 0.8200 0.8200 0.8200
11.846000 0.8210 0.8210 0.8210 0.8230 0.8230
11.879191 0.8230 0.8210 0.8210 0.8200 0.8200
11.913000 0.8180 0.8150 0.8110 0.8100 0.8060
11.946191 0.8030 0.8030 0.8010 0.8000 0.7960
11.979000 0.7900 0.7880 0.7850 0.7830 0.7830
12.012191 0.7810 0.7780 0.7730 0.7710 0.7700
12.045000 0.7700 0.7680 0.7660 0.7660 0.7660
12.078191 0.7660 0.7660 0.7660 0.7660 0.7680
12.112000 0.7700 0.7710 0.7730 0.7780 0.7800
12.145191 0.7810 0.7810 0.7830 0.7830 0.7850
12.178000 0.7880 0.7880 0.7900 0.7900 0.7910
12.211191 0.7910 0.7910 0.7910 0.7910 0.7910
12.245000 0.7910 0.7910 0.7910 0.7900 0.7900
12.278191 0.7880 0.7830 0.7810 0.7800 0.7780
12.311000 0.7730 0.7700 0.7680 0.7630 0.7600
12.344191 0.7580 0.7560 0.7550 0.7530 0.7500
12.377000 0.7430 0.7410 0.7400 0.7400 0.7400
12.410191 0.7400 0.7400 0.7400 0.7400 0.7410
12.444000 0.7410 0.7410 0.7410 0.7410 0.7410
12.477191 0.7410 0.7410 0.7430 0.7430 0.7430
12.510000 0.7430 0.7430 0.7430 0.7430 0.7430
12.543191 0.7430 0.7410 0.7410 0.7410 0.7410
12.576000 0.7430 0.7430 0.7410 0.7400 0.7400
12.609191 0.7400 0.7400 0.7400 0.7400 0.7410
12.643000 0.7430 0.7430 0.7430 0.7430 0.7450
12.676191 0.7450 0.7450 0.7450 0.7450 0.7430
12.709000 0.7430 0.7410 0.7410 0.7400 0.7400
12.742191 0.7380 0.7360 0.7350 0.7330 0.7310
12.775000 0.7300 0.7280 0.7260 0.7250 0.7250
12.808191 0.7230 0.7200 0.7200 0.7130 0.7100
12.842000 0.7100 0.7060 0.7030 0.7030 0.7010
12.875191 0.7000 0.6960 0.6960 0.6900 0.6860
12.908000 0.6810 0.6800 0.6780 0.6730 0.6710
12.941191 0.6700 0.6630 0.6600 0.6550 0.6530
12.974000 0.6500 0.6480 0.6430 0.6410 0.6380
13.007191 0.6350 0.6310 0.6280 0.6250 0.6210
13.041000 0.6180 0.6150 0.6110 0.6100 0.6030
13.074191 0.6010 0.6000 0.5960 0.5880 0.5830
13.107000 0.5810 0.5800 0.5780 0.5730 0.5660
13.140191 0.5610 0.5580 0.5550 0.5500 0.5500
13.173000 0.5480 0.5430 0.5400 0.5380 0.5360
13.206191 0.5350 0.5280 0.5150 0.5080 0.5050
13.240000 0.5010 0.5010 0.5000 0.4960 0.4910
13.273191 0.4860 0.4810 0.4780 0.4730 0.4710
13.306000 0.4700 0.4700 0.4650 0.4610 0.4610
13.339191 0.4600 0.4580 0.4550 0.4530 0.4510
13.373000 0.4500 0.4480 0.4430 0.4410 0.4400
13.406191 0.4380 0.4330 0.4300 0.4280 0.4250
13.439000 0.4200 0.4200 0.4180 0.4150 0.4130
13.472191 0.4050 0.4010 0.4010 0.4000 0.4000
13.505000 0.3930 0.3900 0.3900 0.3880 0.3850
13.538191 0.3830 0.3810 0.3800 0.3730 0.3730
13.572000 0.3710 0.3700 0.3680 0.3610 0.3560
13.605191 0.3530 0.3510 0.3510 0.3480 0.3450
13.638000 0.3450 0.3410 0.3400 0.3380 0.3330
13.671191 0.3310 0.3280 0.3260 0.3260 0.3210
13.704000 0.3200 0.3160 0.3130 0.3110 0.3080
13.737191 0.3060 0.3060 0.3010 0.2980 0.2980
13.771000 0.2950 0.2950 0.2930 0.2900 0.2880
13.804191 0.2860 0.2860 0.2830 0.2810 0.2800
13.837000 0.2780 0.2760 0.2710 0.2710 0.2700
13.870191 0.2660 0.2660 0.2630 0.2610 0.2600
13.903000 0.2580 0.2560 0.2560 0.2550 0.2530
13.936191 0.2530 0.2530 0.2530 0.2530 0.2530
13.970000 0.2530 0.2530 0.2530 0.2530 0.2530
14.003191 0.2530 0.2510 0.2510 0.2510 0.2510
14.036000 0.2510 0.2510 0.2510 0.2530 0.2530
14.069191 0.2530 0.2560 0.2560 0.2600 0.2630
14.102000 0.2660 0.2680 0.2700 0.2730 0.2780
14.135191 0.2810 0.2830 0.2880 0.2900 0.2910
14.169000 0.2960 0.3010 0.3060 0.3080 0.3110
14.202191 0.3160 0.3230 0.3280 0.3330 0.3350
14.235000 0.3410 0.3480 0.3510 0.3580 0.3650
14.268191 0.3700 0.3760 0.3810 0.3880 0.3900
14.301000 0.3960 0.4000 0.4030 0.4130 0.4180
14.334191 0.4210 0.4260 0.4310 0.4410 0.4480
14.368000 0.4510 0.4580 0.4600 0.4650 0.4700
14.401191 0.4760 0.4780 0.4830 0.4880 0.4910
14.434000 0.4960 0.5010 0.5050 0.5110 0.5160
14.467191 0.5210 0.5280 0.5280 0.5300 0.5310
14.500000 0.5350 0.5400 0.5450 0.5480 0.5510
14.533191 0.5530 0.5580 0.5610 0.5630 0.5650
14.567000 0.5660 0.5680 0.5700 0.5710 0.5730
14.600191 0.5750 0.5750 0.5800 0.5810 0.5810
14.633000 0.5830 0.5830 0.5860 0.5860 0.5880
14.666191 0.5880 0.5900 0.5900 0.5910 0.5910
14.700000 0.5930 0.5930 0.5950 0.5950 0.5960
14.733191 0.5960 0.5960 0.5960 0.5960 0.5960
14.766000 0.5960 0.5960 0.5960 0.5960 0.5960
14.799191 0.5960 0.5960 0.5980 0.5980 0.6000
14.832000 0.6000 0.6000 0.6000 0.6000 0.6000
14.865191 0.6000 0.5980 0.5980 0.5960 0.5960
14.899000 0.5950 0.5930 0.5930 0.5930 0.5930
14.932191 0.5930 0.5930 0.5930 0.5910 0.5910
14.965000 0.5910 0.5910 0.5910 0.5910 0.5910
14.998191 0.5910 0.5910 0.5910 0.5910 0.5910
15.031000 0.5910 0.5910 0.5930 0.5930 0.5930
15.064191 0.5930 0.5930 0.5930 0.5930 0.5930
15.098000 0.5910 0.5900 0.5900 0.5880 0.5880
15.131191 0.5850 0.5830 0.5830 0.5830 0.5810
15.164000 0.5810 0.5810 0.5810 0.5810 0.5810
15.197191 0.5830 0.5830 0.5830 0.5830 0.5830
15.230000 0.5830 0.5830 0.5830 0.5830 0.5810
15.263191 0.5810 0.5810 0.5810 0.5800 0.5800
15.297000 0.5800 0.5780 0.5780 0.5780 0.5780
15.330191 0.5760 0.5760 0.5750 0.5750 0.5730
15.363000 0.5730 0.5730 0.5730 0.5730 0.5730
15.396191 0.5730 0.5730 0.5710 0.5710 0.5710
15.429000 0.5710 0.5710 0.5710 0.5710 0.5700
15.462191 0.5700 0.5700 0.5680 0.5680 0.5680
15.496000 0.5680 0.5680 0.5660 0.5660 0.5660
15.529191 0.5650 0.5650 0.5650 0.5630 0.5630
15.562000 0.5630 0.5630 0.5630 0.5610 0.5610
15.595191 0.5610 0.5610 0.5600 0.5600 0.5600
15.628000 0.5600 0.5580 0.5580 0.5560 0.5550
15.661191 0.5550 0.5550 0.5550 0.5550 0.5550
15.695000 0.5550 0.5550 0.5530 0.5510 0.5510
15.728191 0.5500 0.5500 0.5500 0.5500 0.5480
15.761000 0.5480 0.5480 0.5480 0.5480 0.5480
15.794191 0.5460 0.5460 0.5460 0.5460 0.5460
15.827000 0.5460 0.5460 0.5460 0.5460 0.5460
15.860191 0.5460 0.5450 0.5450 0.5430 0.5430
15.894000 0.5430 0.5430 0.5410 0.5410 0.5410
15.927191 0.5410 0.5410 0.5410 0.5410 0.5410
15.960000 0.5410 0.5410 0.5410 0.5430 0.5430
15.993191 0.5430
##END=
