##TITLE=BENZIDINE DIHYDROCHLORIDE
$$ MCB-ACS REAGENT GRADE
##JCAMP-DX=4.24
##DATA TYPE=INFRARED SPECTRUM
##CLASS=COBLENTZ
##ORIGIN=WYANDOTTE CHEMICALS CORP., WYANDOTTE, MICHIGAN, USA
##OWNER=COBLENTZ SOCIETY
Collection (C) 2018 copyright by the U.S. Secretary of Commerce
on behalf of the United States of America. All rights reserved.
##DATE=Not specified, most likely prior to 1970
##MOLFORM=C12 H14 Cl2 N2
##SOURCE REFERENCE=COBLENTZ NO. 434
##$NIST ID=B6000434
##$NIST SOURCE=COBLENTZ
##$NIST IMAGE=cob434
##SPECTROMETER/DATA SYSTEM=Not specified, most likely a prism, grating, or hybrid spectrometer.
##STATE=SOLID (MINERAL OIL MULL)
##SAMPLING PROCEDURE=TRANSMISSION
##RESOLUTION=4
##DATA PROCESSING=DIGITIZED BY NIST FROM HARD COPY
##XUNITS=MICROMETERS
##YUNITS=TRANSMITTANCE
##XFACTOR=1.000000
##YFACTOR=1
##DELTAX=000.006649
##FIRSTX=2.076
##LASTX=15.9986
##FIRSTY=0.568
##MAXX=15.9986
##MINX=2.076
##MAXY=1.02
##MINY=0.03
##NPOINTS=2095
##XYDATA=(X++(Y..Y))
2.076000 0.5680 0.5680 0.5680 0.5680 0.5680
2.109261 0.5680 0.5680 0.5700 0.5710 0.5710
2.142000 0.5730 0.5730 0.5730 0.5730 0.5730
2.175261 0.5710 0.5710 0.5700 0.5680 0.5660
2.209000 0.5650 0.5650 0.5650 0.5650 0.5660
2.242261 0.5680 0.5680 0.5680 0.5680 0.5680
2.275000 0.5700 0.5700 0.5710 0.5710 0.5730
2.308261 0.5750 0.5750 0.5750 0.5750 0.5760
2.342000 0.5760 0.5780 0.5800 0.5800 0.5810
2.375261 0.5810 0.5830 0.5850 0.5850 0.5850
2.408000 0.5880 0.5910 0.5930 0.5950 0.5930
2.441261 0.5930 0.5950 0.5980 0.6010 0.6050
2.475000 0.6060 0.6100 0.6110 0.6130 0.6160
2.508261 0.6180 0.6200 0.6210 0.6230 0.6260
2.541000 0.6280 0.6310 0.6330 0.6360 0.6380
2.574261 0.6400 0.6410 0.6460 0.6480 0.6480
2.608000 0.6480 0.6530 0.6560 0.6560 0.6580
2.641261 0.6580 0.6600 0.6630 0.6650 0.6680
2.674000 0.6710 0.6750 0.6760 0.6810 0.6850
2.707261 0.6880 0.6900 0.6900 0.6910 0.6950
2.741000 0.6980 0.7010 0.7050 0.7080 0.7110
2.774261 0.7150 0.7180 0.7210 0.7250 0.7260
2.807000 0.7280 0.7280 0.7280 0.7280 0.7280
2.840261 0.7280 0.7280 0.7300 0.7310 0.7310
2.874000 0.7310 0.7310 0.7310 0.7330 0.7380
2.907261 0.7400 0.7410 0.7430 0.7460 0.7480
2.940000 0.7500 0.7510 0.7530 0.7580 0.7600
2.973261 0.7630 0.7680 0.7700 0.7710 0.7750
3.007000 0.7760 0.7780 0.7780 0.7800 0.7860
3.040261 0.7950 0.8000 0.8000 0.8010 0.8010
3.073000 0.8010 0.8030 0.8030 0.8030 0.8000
3.106261 0.7960 0.7830 0.7600 0.7460 0.7360
3.140000 0.7260 0.7200 0.7080 0.7000 0.6830
3.173261 0.6680 0.6580 0.6480 0.6310 0.6160
3.206000 0.5960 0.5800 0.5710 0.5550 0.5300
3.239261 0.5050 0.4680 0.4500 0.4110 0.3910
3.273000 0.3530 0.3430 0.3310 0.3110 0.2810
3.306261 0.2600 0.2330 0.1980 0.1800 0.1560
3.339000 0.1310 0.1050 0.0800 0.0680 0.0610
3.372261 0.0510 0.0500 0.0460 0.0410 0.0360
3.406000 0.0330 0.0330 0.0310 0.0300 0.0300
3.439261 0.0300 0.0300 0.0300 0.0300 0.0300
3.472000 0.0300 0.0300 0.0300 0.0310 0.0310
3.505261 0.0330 0.0330 0.0330 0.0360 0.0410
3.539000 0.0450 0.0500 0.0510 0.0560 0.0660
3.572261 0.0750 0.0830 0.0880 0.0950 0.0980
3.605000 0.1010 0.1030 0.1080 0.1150 0.1210
3.638261 0.1300 0.1330 0.1380 0.1400 0.1410
3.672000 0.1430 0.1460 0.1480 0.1480 0.1500
3.705261 0.1530 0.1550 0.1560 0.1600 0.1630
3.738000 0.1630 0.1650 0.1650 0.1680 0.1700
3.771261 0.1700 0.1710 0.1730 0.1750 0.1780
3.805000 0.1810 0.1850 0.1850 0.1880 0.1900
3.838261 0.1910 0.1930 0.1950 0.1950 0.1960
3.871000 0.1960 0.2000 0.2000 0.2000 0.2000
3.904261 0.2000 0.2000 0.2000 0.2000 0.2000
3.937000 0.2000 0.2000 0.2000 0.2000 0.2000
3.970261 0.2010 0.2050 0.2080 0.2110 0.2150
4.004000 0.2230 0.2310 0.2380 0.2460 0.2530
4.037261 0.2600 0.2660 0.2750 0.2830 0.2930
4.070000 0.3000 0.3060 0.3130 0.3210 0.3310
4.103261 0.3430 0.3500 0.3550 0.3630 0.3650
4.137000 0.3700 0.3760 0.3800 0.3850 0.3930
4.170261 0.3980 0.4030 0.4050 0.4100 0.4160
4.203000 0.4250 0.4310 0.4330 0.4380 0.4400
4.236261 0.4410 0.4430 0.4430 0.4450 0.4450
4.270000 0.4450 0.4460 0.4500 0.4530 0.4560
4.303261 0.4560 0.4560 0.4550 0.4560 0.4600
4.336000 0.4650 0.4710 0.4780 0.4850 0.4900
4.369261 0.4980 0.5030 0.5080 0.5100 0.5260
4.403000 0.5360 0.5400 0.5460 0.5510 0.5530
4.436261 0.5550 0.5560 0.5600 0.5650 0.5730
4.469000 0.5780 0.5830 0.5850 0.5880 0.5880
4.502261 0.5900 0.5910 0.5930 0.5950 0.5960
4.536000 0.5960 0.5950 0.5950 0.5930 0.5900
4.569261 0.5880 0.5860 0.5830 0.5810 0.5830
4.602000 0.5930 0.5960 0.6010 0.6010 0.6030
4.635261 0.6060 0.6110 0.6130 0.6150 0.6200
4.669000 0.6210 0.6250 0.6280 0.6280 0.6280
4.702261 0.6280 0.6300 0.6310 0.6330 0.6350
4.735000 0.6360 0.6410 0.6430 0.6450 0.6460
4.768261 0.6480 0.6500 0.6530 0.6580 0.6650
4.802000 0.6760 0.6810 0.6850 0.6880 0.6900
4.835261 0.6910 0.6910 0.6950 0.7000 0.7000
4.868000 0.7000 0.7000 0.7000 0.7000 0.6980
4.901261 0.6960 0.6960 0.6960 0.6960 0.6960
4.935000 0.7000 0.7010 0.7000 0.7000 0.6980
4.968261 0.6980 0.6980 0.6960 0.6930 0.6900
5.001000 0.6880 0.6830 0.6810 0.6800 0.6780
5.034261 0.6760 0.6700 0.6660 0.6630 0.6600
5.068000 0.6530 0.6500 0.6460 0.6430 0.6400
5.101261 0.6400 0.6380 0.6350 0.6300 0.6250
5.134000 0.6230 0.6210 0.6200 0.6150 0.6100
5.167261 0.6030 0.6000 0.5960 0.5950 0.5950
5.201000 0.5950 0.5950 0.5930 0.5910 0.5880
5.234261 0.5830 0.5810 0.5800 0.5810 0.5810
5.267000 0.5830 0.5860 0.5900 0.5930 0.5980
5.300261 0.6030 0.6080 0.6150 0.6210 0.6280
5.334000 0.6380 0.6460 0.6500 0.6530 0.6550
5.367261 0.6560 0.6600 0.6630 0.6730 0.6850
5.400000 0.6930 0.6980 0.7030 0.7030 0.7030
5.433261 0.7060 0.7110 0.7160 0.7250 0.7300
5.467000 0.7330 0.7350 0.7380 0.7380 0.7430
5.500261 0.7480 0.7500 0.7510 0.7530 0.7560
5.533000 0.7600 0.7630 0.7650 0.7660 0.7700
5.566261 0.7730 0.7760 0.7760 0.7780 0.7800
5.600000 0.7850 0.7880 0.7910 0.7910 0.7950
5.633261 0.7960 0.7980 0.7960 0.7960 0.8000
5.666000 0.8100 0.8130 0.8180 0.8200 0.8210
5.699261 0.8230 0.8250 0.8280 0.8310 0.8350
5.733000 0.8410 0.8430 0.8480 0.8500 0.8500
5.766261 0.8510 0.8530 0.8580 0.8610 0.8650
5.799000 0.8660 0.8680 0.8680 0.8730 0.8780
5.832261 0.8830 0.8850 0.8850 0.8850 0.8850
5.866000 0.8860 0.8910 0.8980 0.9030 0.9050
5.899261 0.9050 0.9050 0.9010 0.9010 0.9010
5.932000 0.9010 0.9010 0.9080 0.9080 0.9100
5.965261 0.9110 0.9130 0.9160 0.9200 0.9230
5.999000 0.9260 0.9260 0.9250 0.9250 0.9250
6.032261 0.9250 0.9260 0.9310 0.9380 0.9460
6.065000 0.9530 0.9600 0.9680 0.9750 0.9930
6.098261 1.0180 1.0200 1.0200 1.0160 1.0150
6.132000 1.0130 1.0030 0.9900 0.9750 0.9480
6.165261 0.8610 0.7600 0.6910 0.6200 0.5460
6.198000 0.4180 0.3750 0.3750 0.3930 0.4530
6.231261 0.4860 0.5010 0.5030 0.5000 0.4830
6.265000 0.4650 0.4430 0.3960 0.3810 0.3780
6.298261 0.3780 0.3800 0.3880 0.3980 0.4050
6.331000 0.4160 0.4230 0.4300 0.4300 0.4260
6.364261 0.4080 0.4000 0.3860 0.3630 0.3380
6.398000 0.3310 0.3230 0.3080 0.3060 0.3060
6.431261 0.3100 0.3130 0.3210 0.3330 0.3560
6.464000 0.3680 0.3860 0.4030 0.4160 0.4210
6.497261 0.4230 0.4200 0.4060 0.3960 0.3800
6.531000 0.3600 0.3430 0.3360 0.3300 0.3130
6.564261 0.3010 0.3000 0.2980 0.2980 0.3000
6.597000 0.3000 0.2980 0.2860 0.2750 0.2360
6.630261 0.2030 0.1780 0.1580 0.1450 0.1380
6.664000 0.1310 0.1230 0.1200 0.1160 0.1180
6.697261 0.1200 0.1200 0.1200 0.1200 0.1210
6.730000 0.1210 0.1200 0.1130 0.1110 0.1080
6.763261 0.1050 0.0960 0.0880 0.0750 0.0660
6.797000 0.0560 0.0530 0.0500 0.0480 0.0460
6.830261 0.0460 0.0500 0.0550 0.0560 0.0600
6.863000 0.0660 0.0700 0.0750 0.0830 0.0950
6.896261 0.1050 0.1180 0.1300 0.1430 0.1530
6.930000 0.1630 0.1730 0.1950 0.2260 0.2430
6.963261 0.2610 0.2780 0.2950 0.3150 0.3260
6.996000 0.3310 0.3450 0.3560 0.3610 0.3650
7.029261 0.3710 0.3760 0.3780 0.3880 0.3910
7.063000 0.3900 0.3850 0.3760 0.3710 0.3660
7.096261 0.3650 0.3650 0.3630 0.3630 0.3630
7.129000 0.3650 0.3680 0.3700 0.3710 0.3730
7.162261 0.3710 0.3660 0.3600 0.3460 0.3350
7.195000 0.3230 0.2930 0.2680 0.2500 0.2210
7.228261 0.1950 0.1710 0.1580 0.1460 0.1400
7.262000 0.1400 0.1450 0.1580 0.1830 0.2050
7.295261 0.2260 0.2400 0.2450 0.2500 0.2560
7.328000 0.2700 0.2900 0.3310 0.3710 0.3810
7.361261 0.3900 0.3980 0.4010 0.4030 0.4150
7.395000 0.4160 0.4160 0.4150 0.4110 0.4030
7.428261 0.4000 0.3960 0.3760 0.3600 0.3460
7.461000 0.3350 0.3310 0.3260 0.3210 0.3200
7.494261 0.3180 0.3200 0.3280 0.3500 0.3560
7.528000 0.3630 0.3660 0.3700 0.3750 0.3810
7.561261 0.3900 0.3960 0.3980 0.4000 0.4060
7.594000 0.4130 0.4180 0.4210 0.4300 0.4350
7.627261 0.4450 0.4500 0.4530 0.4550 0.4550
7.661000 0.4550 0.4560 0.4580 0.4600 0.4610
7.694261 0.4630 0.4660 0.4680 0.4680 0.4760
7.727000 0.4810 0.4860 0.4860 0.4880 0.4900
7.760261 0.4900 0.4910 0.4930 0.4980 0.5000
7.794000 0.5000 0.4980 0.4980 0.4980 0.4980
7.827261 0.4980 0.4980 0.4980 0.4980 0.4980
7.860000 0.4980 0.4980 0.4980 0.4980 0.4980
7.893261 0.4980 0.5000 0.5030 0.5080 0.5100
7.927000 0.5100 0.5110 0.5110 0.5160 0.5200
7.960261 0.5210 0.5260 0.5280 0.5300 0.5310
7.993000 0.5330 0.5350 0.5360 0.5360 0.5360
8.026261 0.5380 0.5400 0.5400 0.5410 0.5430
8.060000 0.5480 0.5510 0.5530 0.5530 0.5510
8.093261 0.5530 0.5550 0.5560 0.5560 0.5560
8.126000 0.5580 0.5580 0.5600 0.5600 0.5610
8.159261 0.5650 0.5660 0.5680 0.5700 0.5710
8.193000 0.5750 0.5760 0.5780 0.5810 0.5830
8.226261 0.5810 0.5680 0.5500 0.5160 0.4880
8.259000 0.4580 0.4230 0.4000 0.3910 0.3910
8.292261 0.4000 0.4210 0.4350 0.4400 0.4580
8.326000 0.4680 0.4780 0.4910 0.5030 0.5100
8.359261 0.5110 0.5150 0.5230 0.5280 0.5300
8.392000 0.5280 0.5150 0.5050 0.4900 0.4750
8.425261 0.4660 0.4600 0.4600 0.4610 0.4750
8.459000 0.4830 0.4910 0.4980 0.5030 0.5100
8.492261 0.5130 0.5180 0.5200 0.5230 0.5260
8.525000 0.5280 0.5300 0.5300 0.5300 0.5300
8.558261 0.5310 0.5310 0.5330 0.5350 0.5360
8.592000 0.5380 0.5400 0.5400 0.5400 0.5410
8.625261 0.5430 0.5460 0.5480 0.5530 0.5550
8.658000 0.5580 0.5630 0.5680 0.5700 0.5710
8.691261 0.5750 0.5750 0.5750 0.5750 0.5750
8.725000 0.5730 0.5550 0.5450 0.5280 0.5180
8.758261 0.5130 0.5050 0.5010 0.4980 0.4950
8.791000 0.4950 0.4980 0.5010 0.5030 0.5080
8.824261 0.5110 0.5110 0.5160 0.5210 0.5230
8.858000 0.5230 0.5250 0.5260 0.5250 0.5210
8.891261 0.5130 0.4830 0.4660 0.4450 0.4260
8.924000 0.4060 0.3980 0.3730 0.3450 0.3360
8.957261 0.3260 0.3160 0.3110 0.3080 0.3080
8.991000 0.3110 0.3260 0.3330 0.3660 0.3880
9.024261 0.4100 0.4280 0.4460 0.4530 0.4680
9.057000 0.4800 0.4960 0.5110 0.5200 0.5260
9.090261 0.5310 0.5360 0.5410 0.5450 0.5480
9.124000 0.5500 0.5530 0.5560 0.5610 0.5610
9.157261 0.5600 0.5530 0.5480 0.5350 0.5280
9.190000 0.5100 0.4930 0.4750 0.4600 0.4360
9.223261 0.4110 0.3980 0.3910 0.3880 0.3860
9.257000 0.3850 0.3850 0.3850 0.3810 0.3750
9.290261 0.3710 0.3630 0.3530 0.3480 0.3400
9.323000 0.3400 0.3360 0.3350 0.3330 0.3410
9.356261 0.3480 0.3550 0.3610 0.3650 0.3730
9.390000 0.3930 0.4080 0.4160 0.4230 0.4360
9.423261 0.4460 0.4530 0.4660 0.4760 0.4850
9.456000 0.4910 0.4960 0.5000 0.5010 0.5050
9.489261 0.5080 0.5100 0.5180 0.5260 0.5310
9.523000 0.5350 0.5350 0.5380 0.5400 0.5410
9.556261 0.5430 0.5480 0.5500 0.5530 0.5550
9.589000 0.5580 0.5610 0.5630 0.5650 0.5700
9.622261 0.5750 0.5760 0.5780 0.5800 0.5810
9.656000 0.5850 0.5860 0.5910 0.5980 0.6000
9.689261 0.6000 0.6010 0.6030 0.6080 0.6100
9.722000 0.6100 0.6110 0.6150 0.6130 0.6060
9.755261 0.5950 0.5830 0.5700 0.5580 0.5460
9.789000 0.5380 0.5350 0.5360 0.5400 0.5460
9.822261 0.5530 0.5680 0.5760 0.5810 0.5850
9.855000 0.5900 0.5960 0.6000 0.6050 0.6080
9.888261 0.6130 0.6130 0.6060 0.5880 0.5750
9.922000 0.5510 0.5430 0.5380 0.5330 0.5330
9.955261 0.5400 0.5530 0.5680 0.5780 0.5830
9.988000 0.5900 0.5980 0.6010 0.6030 0.6080
10.021261 0.6100 0.6130 0.6150 0.6180 0.6260
10.055000 0.6310 0.6360 0.6400 0.6410 0.6410
10.088261 0.6430 0.6430 0.6450 0.6480 0.6510
10.121000 0.6550 0.6560 0.6580 0.6580 0.6580
10.154261 0.6600 0.6580 0.6580 0.6550 0.6500
10.188000 0.6480 0.6410 0.6300 0.6160 0.6100
10.221261 0.6010 0.6000 0.5930 0.5910 0.5910
10.254000 0.5930 0.6000 0.6010 0.6060 0.6150
10.287261 0.6200 0.6230 0.6260 0.6260 0.6280
10.320000 0.6300 0.6350 0.6360 0.6350 0.6300
10.353261 0.6230 0.6160 0.6060 0.6000 0.5980
10.387000 0.5980 0.6000 0.6130 0.6200 0.6230
10.420261 0.6300 0.6380 0.6430 0.6500 0.6510
10.453000 0.6530 0.6550 0.6560 0.6580 0.6580
10.486261 0.6560 0.6550 0.6550 0.6550 0.6560
10.520000 0.6550 0.6550 0.6610 0.6650 0.6660
10.553261 0.6700 0.6730 0.6780 0.6800 0.6810
10.586000 0.6810 0.6730 0.6650 0.6560 0.6400
10.619261 0.6230 0.6080 0.6000 0.6000 0.5980
10.653000 0.6000 0.6150 0.6260 0.6380 0.6450
10.686261 0.6480 0.6550 0.6580 0.6610 0.6750
10.719000 0.6780 0.6810 0.6830 0.6860 0.6880
10.752261 0.6910 0.6910 0.6930 0.6960 0.6980
10.786000 0.7000 0.7010 0.7030 0.7060 0.7080
10.819261 0.7100 0.7110 0.7130 0.7160 0.7180
10.852000 0.7180 0.7200 0.7210 0.7230 0.7250
10.885261 0.7260 0.7280 0.7280 0.7280 0.7280
10.919000 0.7300 0.7300 0.7280 0.7280 0.7300
10.952261 0.7330 0.7350 0.7360 0.7380 0.7430
10.985000 0.7480 0.7510 0.7530 0.7530 0.7550
11.018261 0.7550 0.7560 0.7580 0.7580 0.7610
11.052000 0.7630 0.7650 0.7660 0.7650 0.7660
11.085261 0.7660 0.7680 0.7680 0.7680 0.7680
11.118000 0.7700 0.7730 0.7760 0.7780 0.7780
11.151261 0.7780 0.7780 0.7780 0.7780 0.7760
11.185000 0.7760 0.7760 0.7780 0.7780 0.7780
11.218261 0.7780 0.7760 0.7760 0.7750 0.7750
11.251000 0.7760 0.7760 0.7760 0.7780 0.7800
11.284261 0.7830 0.7860 0.7880 0.7880 0.7900
11.318000 0.7900 0.7910 0.7910 0.7910 0.7930
11.351261 0.7950 0.7960 0.7980 0.7980 0.7980
11.384000 0.8000 0.8000 0.8010 0.8010 0.8030
11.417261 0.8030 0.8050 0.8050 0.8060 0.8060
11.451000 0.8060 0.8060 0.8060 0.8030 0.8010
11.484261 0.8000 0.8000 0.8000 0.7980 0.7960
11.517000 0.7960 0.7980 0.8000 0.8010 0.8030
11.550261 0.8010 0.8000 0.7980 0.7980 0.7960
11.584000 0.7950 0.7930 0.7900 0.7860 0.7830
11.617261 0.7800 0.7710 0.7660 0.7500 0.7380
11.650000 0.7210 0.7050 0.6860 0.6700 0.6650
11.683261 0.6600 0.6530 0.6510 0.6510 0.6600
11.717000 0.6800 0.6910 0.6980 0.7050 0.7130
11.750261 0.7180 0.7250 0.7300 0.7360 0.7380
11.783000 0.7400 0.7430 0.7450 0.7450 0.7450
11.816261 0.7430 0.7410 0.7410 0.7400 0.7380
11.850000 0.7310 0.7280 0.7200 0.7130 0.7010
11.883261 0.6950 0.6800 0.6730 0.6660 0.6560
11.916000 0.6480 0.6410 0.6380 0.6330 0.6280
11.949261 0.6260 0.6260 0.6300 0.6360 0.6400
11.983000 0.6430 0.6500 0.6560 0.6610 0.6730
12.016261 0.6760 0.6780 0.6800 0.6830 0.6830
12.049000 0.6830 0.6810 0.6800 0.6800 0.6780
12.082261 0.6760 0.6730 0.6710 0.6710 0.6700
12.116000 0.6680 0.6650 0.6610 0.6580 0.6480
12.149261 0.6460 0.6380 0.6300 0.6210 0.6110
12.182000 0.6010 0.5930 0.5800 0.5650 0.5550
12.215261 0.5430 0.5330 0.5200 0.5100 0.4980
12.249000 0.4830 0.4700 0.4510 0.4330 0.4110
12.282261 0.3880 0.3660 0.3480 0.3350 0.3210
12.315000 0.2960 0.2660 0.2500 0.2300 0.2050
12.348261 0.1800 0.1680 0.1580 0.1480 0.1380
12.382000 0.1300 0.1260 0.1210 0.1130 0.1130
12.415261 0.1110 0.1100 0.1100 0.1150 0.1200
12.448000 0.1280 0.1450 0.1560 0.1750 0.1930
12.481261 0.2100 0.2300 0.2580 0.2710 0.2950
12.515000 0.3080 0.3250 0.3610 0.3710 0.3900
12.548261 0.4010 0.4180 0.4300 0.4380 0.4510
12.581000 0.4580 0.4650 0.4700 0.4680 0.4650
12.614261 0.4600 0.4480 0.4410 0.4400 0.4380
12.648000 0.4430 0.4580 0.4660 0.4760 0.4880
12.681261 0.5060 0.5260 0.5360 0.5480 0.5600
12.714000 0.5750 0.5880 0.6000 0.6100 0.6210
12.747261 0.6310 0.6450 0.6510 0.6560 0.6650
12.781000 0.6760 0.6830 0.6910 0.6980 0.7010
12.814261 0.7030 0.7080 0.7130 0.7210 0.7260
12.847000 0.7350 0.7360 0.7380 0.7400 0.7460
12.880261 0.7500 0.7510 0.7550 0.7560 0.7600
12.914000 0.7610 0.7630 0.7650 0.7660 0.7700
12.947261 0.7710 0.7730 0.7750 0.7760 0.7780
12.980000 0.7800 0.7830 0.7910 0.7950 0.7960
13.013261 0.7980 0.8000 0.8010 0.8030 0.8030
13.047000 0.8080 0.8110 0.8130 0.8160 0.8180
13.080261 0.8200 0.8210 0.8250 0.8250 0.8250
13.113000 0.8260 0.8300 0.8330 0.8330 0.8350
13.146261 0.8380 0.8400 0.8410 0.8430 0.8430
13.180000 0.8430 0.8430 0.8460 0.8460 0.8480
13.213261 0.8480 0.8500 0.8480 0.8480 0.8500
13.246000 0.8500 0.8510 0.8510 0.8510 0.8510
13.279261 0.8510 0.8500 0.8500 0.8480 0.8480
13.313000 0.8510 0.8550 0.8550 0.8550 0.8560
13.346261 0.8580 0.8580 0.8580 0.8580 0.8580
13.379000 0.8600 0.8580 0.8580 0.8580 0.8580
13.412261 0.8600 0.8580 0.8560 0.8580 0.8560
13.445000 0.8560 0.8560 0.8550 0.8530 0.8500
13.478261 0.8480 0.8460 0.8460 0.8460 0.8460
13.512000 0.8480 0.8460 0.8450 0.8450 0.8430
13.545261 0.8430 0.8430 0.8430 0.8410 0.8400
13.578000 0.8360 0.8350 0.8330 0.8310 0.8310
13.611261 0.8310 0.8310 0.8310 0.8300 0.8280
13.645000 0.8280 0.8280 0.8300 0.8310 0.8310
13.678261 0.8310 0.8330 0.8330 0.8350 0.8360
13.711000 0.8380 0.8360 0.8380 0.8380 0.8400
13.744261 0.8400 0.8400 0.8400 0.8400 0.8380
13.778000 0.8400 0.8410 0.8410 0.8400 0.8380
13.811261 0.8350 0.8350 0.8350 0.8330 0.8310
13.844000 0.8310 0.8300 0.8300 0.8300 0.8300
13.877261 0.8300 0.8300 0.8300 0.8300 0.8310
13.911000 0.8310 0.8310 0.8330 0.8350 0.8360
13.944261 0.8430 0.8480 0.8530 0.8580 0.8650
13.977000 0.8680 0.8760 0.8810 0.8850 0.8900
14.010261 0.8950 0.9000 0.9000 0.9010 0.9030
14.044000 0.9060 0.9100 0.9180 0.9250 0.9280
14.077261 0.9310 0.9310 0.9350 0.9380 0.9380
14.110000 0.9400 0.9430 0.9450 0.9450 0.9430
14.143261 0.9350 0.9300 0.9250 0.9210 0.9180
14.177000 0.9160 0.9150 0.9150 0.9150 0.9110
14.210261 0.9130 0.9080 0.9050 0.9010 0.8960
14.243000 0.8930 0.8860 0.8810 0.8780 0.8730
14.276261 0.8680 0.8610 0.8550 0.8480 0.8450
14.310000 0.8410 0.8360 0.8310 0.8310 0.8350
14.343261 0.8380 0.8450 0.8500 0.8560 0.8650
14.376000 0.8710 0.8810 0.8850 0.8900 0.8960
14.409261 0.9000 0.8980 0.9010 0.9030 0.9060
14.443000 0.9080 0.9100 0.9110 0.9130 0.9130
14.476261 0.9150 0.9180 0.9200 0.9210 0.9230
14.509000 0.9250 0.9250 0.9230 0.9230 0.9210
14.542261 0.9210 0.9210 0.9210 0.9200 0.9200
14.576000 0.9180 0.9180 0.9180 0.9180 0.9150
14.609261 0.9100 0.9060 0.9050 0.9030 0.9010
14.642000 0.9010 0.9000 0.9000 0.9010 0.9060
14.675261 0.9080 0.9080 0.9060 0.9080 0.9080
14.709000 0.9060 0.9060 0.9050 0.9050 0.9060
14.742261 0.9050 0.9050 0.9030 0.9010 0.9000
14.775000 0.8980 0.8950 0.8930 0.8910 0.8910
14.808261 0.8910 0.8910 0.8910 0.8910 0.8930
14.842000 0.8930 0.8950 0.8950 0.8950 0.8930
14.875261 0.8910 0.8900 0.8900 0.8880 0.8880
14.908000 0.8860 0.8850 0.8830 0.8830 0.8830
14.941261 0.8830 0.8800 0.8800 0.8800 0.8780
14.975000 0.8760 0.8730 0.8680 0.8650 0.8560
15.008261 0.8480 0.8460 0.8380 0.8300 0.8210
15.041000 0.8130 0.8050 0.7960 0.7850 0.7760
15.074261 0.7680 0.7630 0.7600 0.7600 0.7600
15.108000 0.7610 0.7660 0.7700 0.7750 0.7830
15.141261 0.7900 0.7950 0.8030 0.8100 0.8150
15.174000 0.8200 0.8230 0.8250 0.8250 0.8260
15.207261 0.8260 0.8280 0.8280 0.8260 0.8260
15.241000 0.8250 0.8230 0.8230 0.8180 0.8160
15.274261 0.8130 0.8100 0.8080 0.8030 0.8030
15.307000 0.8000 0.7980 0.7980 0.7930 0.7910
15.340261 0.7900 0.7880 0.7860 0.7850 0.7780
15.374000 0.7760 0.7750 0.7710 0.7700 0.7680
15.407261 0.7610 0.7600 0.7580 0.7510 0.7480
15.440000 0.7460 0.7410 0.7380 0.7350 0.7280
15.473261 0.7210 0.7150 0.7080 0.7000 0.6900
15.507000 0.6800 0.6730 0.6650 0.6480 0.6360
15.540261 0.6230 0.6080 0.5950 0.5660 0.5530
15.573000 0.5350 0.5200 0.5080 0.5000 0.4930
15.606261 0.4850 0.4800 0.4780 0.4760 0.4760
15.640000 0.4760 0.4760 0.4780 0.4810 0.4830
15.673261 0.4850 0.4860 0.4910 0.4960 0.5030
15.706000 0.5080 0.5160 0.5200 0.5230 0.5260
15.739261 0.5260 0.5280 0.5300 0.5300 0.5300
15.773000 0.5310 0.5330 0.5330 0.5330 0.5350
15.806261 0.5350 0.5360 0.5360 0.5380 0.5360
15.839000 0.5360 0.5360 0.5350 0.5310 0.5280
15.872261 0.5250 0.5210 0.5210 0.5200 0.5200
15.906000 0.5180 0.5180 0.5160 0.5160 0.5160
15.939261 0.5160 0.5160 0.5130 0.5110 0.5100
15.972000 0.5060 0.5060 0.5010 0.4960 0.5010
##END=
