##TITLE=ACETIC ACID, SODIUM SALT
##JCAMP-DX=4.24
$$ By DXEDIT 1.05 (RS McDonald)
##DATA TYPE=INFRARED SPECTRUM
##CLASS=COBLENTZ III
##ORIGIN=DOW CHEMICAL COMPANY
##OWNER=COBLENTZ SOC.
Collection (C) 2018 copyright by the U.S. Secretary of Commerce
on behalf of the United States of America. All rights reserved.
##DATE=1964/10/07
##MOLFORM=C2 H3 Na O2
##SOURCE REFERENCE=COBLENTZ NO. 05784
##$NIST ID=B6005784
##$NIST SOURCE=COBLENTZ
##$NIST IMAGE=cob5784
##SPECTROMETER/DATA SYSTEM=DOW KBr FOREPRISM-GRATING
##INSTRUMENT PARAMETERS=BLAZED AT 3.5, 12.0, 20.0 MICRON AND CHANGED AT 5.0, 7.5, 14.9 MICRON
##STATE=SOLID (SPLIT MULL)
$$ SPECTRAL FEATURE AT 1996 CM^-^1 IS PROBABLY AN ARTIFACT CAUSED BY GRATING CHANGE
##SAMPLING PROCEDURE=TRANSMISSION
##RESOLUTION=2
##DATA PROCESSING=DIGITIZED BY COBLENTZ SOCIETY (BATCH I) FROM HARD COPY
##XUNITS=1/CM
##YUNITS=TRANSMITTANCE
##XLABEL=Wavenumbers (cm-1)
##YLABEL=% Transmission
##XFACTOR=1
##YFACTOR=1
##DELTAX=1
##FIRSTX=3800
##LASTX=456
##FIRSTY=0.8939
##MAXX=3800
##MINX=456
##MAXY=0.8938
##MINY=0.055
##NPOINTS=3345
##XYDATA=(X++(Y..Y))
3800.000000 0.8939 0.8938 0.8938 0.8937 0.8937
3795.000000 0.8936 0.8936 0.8935 0.8935 0.8934
3790.000000 0.8934 0.8933 0.8932 0.8931 0.8931
3785.000000 0.8930 0.8930 0.8928 0.8928 0.8928
3780.000000 0.8928 0.8927 0.8927 0.8927 0.8927
3775.000000 0.8927 0.8927 0.8927 0.8927 0.8927
3770.000000 0.8927 0.8927 0.8927 0.8927 0.8928
3765.000000 0.8928 0.8928 0.8928 0.8928 0.8928
3760.000000 0.8928 0.8928 0.8928 0.8928 0.8928
3755.000000 0.8928 0.8928 0.8928 0.8928 0.8928
3750.000000 0.8930 0.8930 0.8930 0.8930 0.8931
3745.000000 0.8931 0.8931 0.8931 0.8932 0.8932
3740.000000 0.8932 0.8932 0.8933 0.8933 0.8933
3735.000000 0.8933 0.8934 0.8934 0.8934 0.8934
3730.000000 0.8935 0.8935 0.8935 0.8935 0.8936
3725.000000 0.8936 0.8936 0.8936 0.8936 0.8936
3720.000000 0.8937 0.8937 0.8937 0.8936 0.8935
3715.000000 0.8933 0.8931 0.8928 0.8928 0.8925
3710.000000 0.8924 0.8921 0.8920 0.8918 0.8917
3705.000000 0.8913 0.8909 0.8903 0.8898 0.8892
3700.000000 0.8887 0.8881 0.8875 0.8870 0.8865
3695.000000 0.8859 0.8853 0.8847 0.8842 0.8836
3690.000000 0.8831 0.8825 0.8824 0.8824 0.8828
3685.000000 0.8834 0.8840 0.8848 0.8856 0.8864
3680.000000 0.8871 0.8880 0.8888 0.8887 0.8886
3675.000000 0.8885 0.8884 0.8880 0.8877 0.8873
3670.000000 0.8868 0.8865 0.8861 0.8857 0.8853
3665.000000 0.8849 0.8845 0.8841 0.8837 0.8834
3660.000000 0.8831 0.8828 0.8825 0.8823 0.8821
3655.000000 0.8818 0.8816 0.8813 0.8811 0.8808
3650.000000 0.8806 0.8803 0.8801 0.8798 0.8796
3645.000000 0.8793 0.8791 0.8788 0.8786 0.8783
3640.000000 0.8781 0.8778 0.8795 0.8773 0.8771
3635.000000 0.8768 0.8767 0.8765 0.8763 0.8761
3630.000000 0.8759 0.8757 0.8755 0.8753 0.8751
3625.000000 0.8749 0.8747 0.8745 0.8743 0.8741
3620.000000 0.8740 0.8738 0.8736 0.8734 0.8732
3615.000000 0.8730 0.8728 0.8725 0.8724 0.8721
3610.000000 0.8720 0.8718 0.8716 0.8714 0.8712
3605.000000 0.8710 0.8709 0.8707 0.8706 0.8704
3600.000000 0.8703 0.8701 0.8700 0.8698 0.8697
3595.000000 0.8695 0.8694 0.8692 0.8691 0.8689
3590.000000 0.8688 0.8686 0.8685 0.8684 0.8683
3585.000000 0.8681 0.8680 0.8678 0.8677 0.8674
3580.000000 0.8671 0.8667 0.8664 0.8660 0.8656
3575.000000 0.8652 0.8649 0.8645 0.8642 0.8638
3570.000000 0.8635 0.8631 0.8628 0.8624 0.8621
3565.000000 0.8617 0.8614 0.8610 0.8607 0.8603
3560.000000 0.8600 0.8595 0.8591 0.8587 0.8583
3555.000000 0.8578 0.8575 0.8570 0.8566 0.8562
3550.000000 0.8558 0.8553 0.8549 0.8545 0.8541
3545.000000 0.8536 0.8532 0.8528 0.8524 0.8518
3540.000000 0.8514 0.8507 0.8501 0.8494 0.8488
3535.000000 0.8481 0.8475 0.8468 0.8462 0.8455
3530.000000 0.8449 0.8442 0.8436 0.8428 0.8423
3525.000000 0.8416 0.8410 0.8403 0.8397 0.8390
3520.000000 0.8383 0.8375 0.8368 0.8361 0.8354
3515.000000 0.8347 0.8340 0.8332 0.8325 0.8318
3510.000000 0.8311 0.8303 0.8296 0.8288 0.8281
3505.000000 0.8274 0.8267 0.8260 0.8253 0.8247
3500.000000 0.8241 0.8235 0.8228 0.8223 0.8218
3495.000000 0.8212 0.8206 0.8200 0.8194 0.8188
3490.000000 0.8183 0.8176 0.8171 0.8165 0.8161
3485.000000 0.8157 0.8153 0.8149 0.8145 0.8140
3480.000000 0.8136 0.8131 0.8126 0.8122 0.8118
3475.000000 0.8114 0.8110 0.8105 0.8101 0.8097
3470.000000 0.8093 0.8088 0.8084 0.8078 0.8075
3465.000000 0.8071 0.8067 0.8061 0.8058 0.8053
3460.000000 0.8049 0.8046 0.8043 0.8040 0.8038
3455.000000 0.8035 0.8032 0.8028 0.8026 0.8024
3450.000000 0.8021 0.8018 0.8015 0.8011 0.8010
3445.000000 0.8007 0.8004 0.8001 0.7998 0.7995
3440.000000 0.7993 0.7990 0.7987 0.7984 0.7981
3435.000000 0.7978 0.7975 0.7972 0.7971 0.7967
3430.000000 0.7967 0.7967 0.7969 0.7974 0.7978
3425.000000 0.7982 0.7987 0.7991 0.7995 0.7999
3420.000000 0.8004 0.8008 0.8014 0.8018 0.8022
3415.000000 0.8026 0.8032 0.8037 0.8042 0.8046
3410.000000 0.8051 0.8056 0.8061 0.8065 0.8068
3405.000000 0.8071 0.8074 0.8075 0.8078 0.8082
3400.000000 0.8085 0.8087 0.8090 0.8092 0.8095
3395.000000 0.8097 0.8100 0.8103 0.8106 0.8108
3390.000000 0.8111 0.8112 0.8115 0.8118 0.8121
3385.000000 0.8124 0.8126 0.8130 0.8133 0.8136
3380.000000 0.8139 0.8142 0.8145 0.8148 0.8151
3375.000000 0.8154 0.8157 0.8160 0.8162 0.8165
3370.000000 0.8169 0.8172 0.8175 0.8178 0.8182
3365.000000 0.8185 0.8188 0.8191 0.8194 0.8197
3360.000000 0.8200 0.8202 0.8205 0.8208 0.8211
3355.000000 0.8214 0.8217 0.8218 0.8221 0.8225
3350.000000 0.8228 0.8230 0.8233 0.8236 0.8239
3345.000000 0.8241 0.8244 0.8247 0.8250 0.8252
3340.000000 0.8254 0.8256 0.8258 0.8259 0.8261
3335.000000 0.8263 0.8265 0.8266 0.8268 0.8268
3330.000000 0.8271 0.8271 0.8273 0.8274 0.8275
3325.000000 0.8275 0.8275 0.8277 0.8278 0.8278
3320.000000 0.8277 0.8277 0.8275 0.8275 0.8274
3315.000000 0.8271 0.8270 0.8267 0.8265 0.8262
3310.000000 0.8260 0.8257 0.8255 0.8252 0.8250
3305.000000 0.8247 0.8245 0.8241 0.8237 0.8233
3300.000000 0.8228 0.8225 0.8221 0.8218 0.8214
3295.000000 0.8210 0.8206 0.8202 0.8199 0.8197
3290.000000 0.8195 0.8194 0.8194 0.8194 0.8194
3285.000000 0.8194 0.8194 0.8194 0.8194 0.8194
3280.000000 0.8194 0.8197 0.8200 0.8203 0.8207
3275.000000 0.8210 0.8213 0.8216 0.8218 0.8221
3270.000000 0.8225 0.8228 0.8232 0.8235 0.8238
3265.000000 0.8241 0.8244 0.8246 0.8248 0.8249
3260.000000 0.8251 0.8253 0.8255 0.8257 0.8259
3255.000000 0.8260 0.8262 0.8264 0.8266 0.8267
3250.000000 0.8268 0.8271 0.8273 0.8274 0.8275
3245.000000 0.8278 0.8280 0.8281 0.8283 0.8285
3240.000000 0.8287 0.8289 0.8291 0.8292 0.8294
3235.000000 0.8296 0.8299 0.8301 0.8303 0.8305
3230.000000 0.8307 0.8309 0.8311 0.8313 0.8315
3225.000000 0.8317 0.8320 0.8321 0.8324 0.8325
3220.000000 0.8328 0.8328 0.8328 0.8328 0.8328
3215.000000 0.8328 0.8328 0.8328 0.8328 0.8328
3210.000000 0.8330 0.8330 0.8330 0.8330 0.8330
3205.000000 0.8330 0.8331 0.8331 0.8331 0.8330
3200.000000 0.8330 0.8328 0.8328 0.8328 0.8328
3195.000000 0.8327 0.8327 0.8325 0.8325 0.8325
3190.000000 0.8325 0.8324 0.8324 0.8323 0.8323
3185.000000 0.8321 0.8321 0.8318 0.8318 0.8316
3180.000000 0.8315 0.8313 0.8311 0.8309 0.8308
3175.000000 0.8306 0.8305 0.8303 0.8302 0.8300
3170.000000 0.8299 0.8297 0.8296 0.8296 0.8297
3165.000000 0.8297 0.8297 0.8297 0.8298 0.8298
3160.000000 0.8298 0.8298 0.8299 0.8299 0.8299
3155.000000 0.8301 0.8303 0.8308 0.8313 0.8317
3150.000000 0.8321 0.8327 0.8332 0.8336 0.8341
3145.000000 0.8346 0.8351 0.8355 0.8360 0.8364
3140.000000 0.8368 0.8373 0.8377 0.8381 0.8385
3135.000000 0.8389 0.8393 0.8395 0.8397 0.8398
3130.000000 0.8400 0.8401 0.8402 0.8403 0.8405
3125.000000 0.8406 0.8407 0.8408 0.8409 0.8410
3120.000000 0.8412 0.8413 0.8414 0.8415 0.8416
3115.000000 0.8417 0.8418 0.8420 0.8421 0.8421
3110.000000 0.8423 0.8423 0.8424 0.8424 0.8424
3105.000000 0.8424 0.8424 0.8424 0.8425 0.8425
3100.000000 0.8425 0.8425 0.8425 0.8425 0.8425
3095.000000 0.8425 0.8425 0.8425 0.8425 0.8425
3090.000000 0.8424 0.8423 0.8421 0.8421 0.8420
3085.000000 0.8418 0.8417 0.8416 0.8389 0.8413
3080.000000 0.8412 0.8410 0.8409 0.8407 0.8405
3075.000000 0.8402 0.8400 0.8397 0.8395 0.8392
3070.000000 0.8390 0.8387 0.8384 0.8381 0.8378
3065.000000 0.8375 0.8374 0.8371 0.8368 0.8365
3060.000000 0.8361 0.8356 0.8352 0.8347 0.8343
3055.000000 0.8338 0.8333 0.8328 0.8324 0.8318
3050.000000 0.8315 0.8310 0.8305 0.8293 0.8281
3045.000000 0.8266 0.8252 0.8238 0.8224 0.8208
3040.000000 0.8192 0.8175 0.8160 0.8144 0.8128
3035.000000 0.8111 0.8095 0.8078 0.8062 0.8045
3030.000000 0.8026 0.8008 0.7991 0.7972 0.7955
3025.000000 0.7936 0.7918 0.7900 0.7882 0.7860
3020.000000 0.7839 0.7817 0.7796 0.7774 0.7751
3015.000000 0.7730 0.7708 0.7675 0.7643 0.7619
3010.000000 0.7597 0.7585 0.7574 0.7564 0.7554
3005.000000 0.7553 0.7551 0.7551 0.7550 0.7549
3000.000000 0.7549 0.7549 0.7548 0.7548 0.7549
2995.000000 0.7550 0.7551 0.7553 0.7554 0.7556
2990.000000 0.7558 0.7564 0.7569 0.7575 0.7582
2985.000000 0.7587 0.7593 0.7599 0.7605 0.7610
2980.000000 0.7615 0.7625 0.7634 0.7643 0.7653
2975.000000 0.7661 0.7671 0.7681 0.7691 0.7700
2970.000000 0.7710 0.7718 0.7728 0.7739 0.7751
2965.000000 0.7764 0.7776 0.7790 0.7803 0.7815
2960.000000 0.7828 0.7842 0.7855 0.7869 0.7886
2955.000000 0.7908 0.7931 0.7954 0.7978 0.8006
2950.000000 0.8035 0.8058 0.8082 0.8091 0.8100
2945.000000 0.8103 0.8106 0.8106 0.8107 0.8106
2940.000000 0.8104 0.8094 0.8084 0.8071 0.8061
2935.000000 0.8051 0.8042 0.8038 0.8038 0.8038
2930.000000 0.8041 0.8048 0.8055 0.8072 0.8091
2925.000000 0.8111 0.8132 0.8149 0.8167 0.8183
2920.000000 0.8199 0.8215 0.8232 0.8248 0.8264
2915.000000 0.8280 0.8297 0.8312 0.8327 0.8342
2910.000000 0.8358 0.8373 0.8388 0.8403 0.8418
2905.000000 0.8430 0.8442 0.8448 0.8455 0.8461
2900.000000 0.8468 0.8474 0.8481 0.8487 0.8494
2895.000000 0.8498 0.8503 0.8504 0.8506 0.8507
2890.000000 0.8508 0.8509 0.8511 0.8512 0.8514
2885.000000 0.8515 0.8517 0.8518 0.8518 0.8518
2880.000000 0.8518 0.8518 0.8518 0.8518 0.8518
2875.000000 0.8518 0.8518 0.8518 0.8518 0.8518
2870.000000 0.8518 0.8518 0.8518 0.8518 0.8518
2865.000000 0.8518 0.8518 0.8518 0.8518 0.8518
2860.000000 0.8518 0.8518 0.8518 0.8518 0.8518
2855.000000 0.8518 0.8520 0.8521 0.8521 0.8523
2850.000000 0.8524 0.8525 0.8527 0.8528 0.8531
2845.000000 0.8535 0.8539 0.8542 0.8546 0.8550
2840.000000 0.8554 0.8557 0.8561 0.8565 0.8568
2835.000000 0.8571 0.8575 0.8578 0.8583 0.8587
2830.000000 0.8591 0.8593 0.8595 0.8596 0.8598
2825.000000 0.8599 0.8601 0.8603 0.8605 0.8606
2820.000000 0.8608 0.8609 0.8611 0.8612 0.8614
2815.000000 0.8615 0.8617 0.8618 0.8621 0.8621
2810.000000 0.8624 0.8625 0.8627 0.8628 0.8630
2805.000000 0.8632 0.8634 0.8635 0.8637 0.8638
2800.000000 0.8639 0.8640 0.8642 0.8643 0.8644
2795.000000 0.8645 0.8647 0.8648 0.8649 0.8650
2790.000000 0.8652 0.8653 0.8654 0.8655 0.8657
2785.000000 0.8658 0.8659 0.8660 0.8661 0.8662
2780.000000 0.8664 0.8665 0.8666 0.8667 0.8668
2775.000000 0.8668 0.8670 0.8670 0.8671 0.8671
2770.000000 0.8671 0.8671 0.8673 0.8673 0.8674
2765.000000 0.8674 0.8675 0.8675 0.8675 0.8675
2760.000000 0.8677 0.8677 0.8678 0.8678 0.8678
2755.000000 0.8677 0.8675 0.8675 0.8674 0.8673
2750.000000 0.8671 0.8670 0.8668 0.8668 0.8667
2745.000000 0.8666 0.8665 0.8664 0.8663 0.8663
2740.000000 0.8663 0.8663 0.8663 0.8663 0.8663
2735.000000 0.8663 0.8663 0.8663 0.8663 0.8663
2730.000000 0.8663 0.8662 0.8662 0.8662 0.8662
2725.000000 0.8662 0.8662 0.8662 0.8662 0.8662
2720.000000 0.8662 0.8662 0.8663 0.8663 0.8664
2715.000000 0.8664 0.8665 0.8665 0.8666 0.8666
2710.000000 0.8666 0.8666 0.8667 0.8667 0.8668
2705.000000 0.8668 0.8668 0.8668 0.8670 0.8670
2700.000000 0.8671 0.8671 0.8671 0.8671 0.8671
2695.000000 0.8671 0.8673 0.8673 0.8674 0.8674
2690.000000 0.8675 0.8675 0.8675 0.8677 0.8678
2685.000000 0.8678 0.8680 0.8680 0.8681 0.8682
2680.000000 0.8683 0.8683 0.8684 0.8685 0.8686
2675.000000 0.8686 0.8687 0.8688 0.8689 0.8690
2670.000000 0.8691 0.8691 0.8692 0.8693 0.8694
2665.000000 0.8694 0.8695 0.8696 0.8697 0.8698
2660.000000 0.8699 0.8699 0.8700 0.8701 0.8702
2655.000000 0.8702 0.8702 0.8702 0.8703 0.8703
2650.000000 0.8703 0.8703 0.8704 0.8704 0.8704
2645.000000 0.8704 0.8705 0.8705 0.8706 0.8706
2640.000000 0.8706 0.8706 0.8707 0.8707 0.8707
2635.000000 0.8707 0.8708 0.8708 0.8708 0.8708
2630.000000 0.8709 0.8709 0.8709 0.8709 0.8710
2625.000000 0.8710 0.8710 0.8710 0.8711 0.8711
2620.000000 0.8711 0.8711 0.8712 0.8712 0.8712
2615.000000 0.8712 0.8713 0.8713 0.8713 0.8713
2610.000000 0.8714 0.8714 0.8715 0.8715 0.8716
2605.000000 0.8716 0.8717 0.8717 0.8718 0.8718
2600.000000 0.8718 0.8718 0.8718 0.8718 0.8720
2595.000000 0.8720 0.8721 0.8721 0.8721 0.8721
2590.000000 0.8721 0.8721 0.8721 0.8721 0.8721
2585.000000 0.8720 0.8720 0.8718 0.8718 0.8718
2580.000000 0.8718 0.8717 0.8717 0.8716 0.8716
2575.000000 0.8715 0.8715 0.8714 0.8714 0.8713
2570.000000 0.8713 0.8712 0.8712 0.8711 0.8710
2565.000000 0.8709 0.8708 0.8707 0.8706 0.8705
2560.000000 0.8704 0.8703 0.8702 0.8701 0.8700
2555.000000 0.8698 0.8696 0.8694 0.8692 0.8690
2550.000000 0.8688 0.8686 0.8684 0.8681 0.8678
2545.000000 0.8677 0.8675 0.8673 0.8671 0.8668
2540.000000 0.8667 0.8665 0.8663 0.8661 0.8659
2535.000000 0.8657 0.8655 0.8652 0.8650 0.8648
2530.000000 0.8646 0.8643 0.8641 0.8637 0.8634
2525.000000 0.8630 0.8627 0.8623 0.8620 0.8616
2520.000000 0.8613 0.8609 0.8606 0.8602 0.8599
2515.000000 0.8597 0.8595 0.8593 0.8591 0.8589
2510.000000 0.8587 0.8585 0.8583 0.8580 0.8578
2505.000000 0.8577 0.8575 0.8575 0.8575 0.8574
2500.000000 0.8573 0.8571 0.8571 0.8571 0.8570
2495.000000 0.8570 0.8571 0.8571 0.8574 0.8575
2490.000000 0.8578 0.8580 0.8582 0.8583 0.8585
2485.000000 0.8587 0.8589 0.8589 0.8589 0.8589
2480.000000 0.8589 0.8588 0.8588 0.8587 0.8587
2475.000000 0.8586 0.8586 0.8585 0.8585 0.8584
2470.000000 0.8584 0.8583 0.8583 0.8582 0.8582
2465.000000 0.8581 0.8581 0.8580 0.8578 0.8578
2460.000000 0.8577 0.8575 0.8575 0.8574 0.8573
2455.000000 0.8571 0.8571 0.8571 0.8570 0.8568
2450.000000 0.8568 0.8567 0.8566 0.8565 0.8564
2445.000000 0.8563 0.8562 0.8561 0.8560 0.8559
2440.000000 0.8558 0.8557 0.8556 0.8555 0.8555
2435.000000 0.8554 0.8553 0.8552 0.8552 0.8551
2430.000000 0.8550 0.8549 0.8549 0.8548 0.8547
2425.000000 0.8546 0.8545 0.8544 0.8544 0.8543
2420.000000 0.8542 0.8541 0.8541 0.8540 0.8539
2415.000000 0.8539 0.8539 0.8539 0.8539 0.8539
2410.000000 0.8539 0.8539 0.8539 0.8539 0.8539
2405.000000 0.8538 0.8538 0.8538 0.8538 0.8538
2400.000000 0.8538 0.8538 0.8538 0.8538 0.8538
2395.000000 0.8537 0.8537 0.8536 0.8536 0.8535
2390.000000 0.8535 0.8534 0.8534 0.8533 0.8533
2385.000000 0.8532 0.8531 0.8530 0.8530 0.8528
2380.000000 0.8528 0.8528 0.8528 0.8527 0.8527
2375.000000 0.8525 0.8525 0.8525 0.8525 0.8524
2370.000000 0.8524 0.8523 0.8523 0.8521 0.8521
2365.000000 0.8520 0.8520 0.8518 0.8518 0.8518
2360.000000 0.8518 0.8516 0.8514 0.8512 0.8510
2355.000000 0.8508 0.8506 0.8503 0.8501 0.8499
2350.000000 0.8497 0.8494 0.8492 0.8486 0.8481
2345.000000 0.8474 0.8468 0.8461 0.8455 0.8448
2340.000000 0.8441 0.8433 0.8425 0.8417 0.8410
2335.000000 0.8409 0.8409 0.8412 0.8416 0.8418
2330.000000 0.8423 0.8424 0.8425 0.8425 0.8427
2325.000000 0.8427 0.8428 0.8428 0.8428 0.8428
2320.000000 0.8428 0.8428 0.8430 0.8430 0.8431
2315.000000 0.8431 0.8432 0.8432 0.8433 0.8433
2310.000000 0.8433 0.8433 0.8434 0.8434 0.8434
2305.000000 0.8434 0.8434 0.8434 0.8434 0.8434
2300.000000 0.8434 0.8433 0.8433 0.8433 0.8433
2295.000000 0.8432 0.8432 0.8432 0.8432 0.8432
2290.000000 0.8432 0.8431 0.8431 0.8431 0.8431
2285.000000 0.8430 0.8430 0.8430 0.8430 0.8430
2280.000000 0.8431 0.8432 0.8433 0.8433 0.8434
2275.000000 0.8435 0.8436 0.8437 0.8438 0.8439
2270.000000 0.8440 0.8441 0.8442 0.8442 0.8443
2265.000000 0.8444 0.8446 0.8448 0.8450 0.8451
2260.000000 0.8453 0.8454 0.8456 0.8457 0.8459
2255.000000 0.8460 0.8462 0.8463 0.8465 0.8467
2250.000000 0.8468 0.8470 0.8471 0.8473 0.8475
2245.000000 0.8475 0.8478 0.8478 0.8481 0.8482
2240.000000 0.8484 0.8485 0.8487 0.8488 0.8489
2235.000000 0.8490 0.8491 0.8492 0.8493 0.8494
2230.000000 0.8495 0.8496 0.8497 0.8498 0.8499
2225.000000 0.8500 0.8501 0.8502 0.8503 0.8504
2220.000000 0.8505 0.8506 0.8507 0.8508 0.8509
2215.000000 0.8510 0.8511 0.8512 0.8514 0.8515
2210.000000 0.8516 0.8517 0.8518 0.8520 0.8521
2205.000000 0.8521 0.8524 0.8525 0.8525 0.8527
2200.000000 0.8528 0.8530 0.8532 0.8533 0.8534
2195.000000 0.8535 0.8537 0.8538 0.8539 0.8540
2190.000000 0.8542 0.8543 0.8544 0.8545 0.8546
2185.000000 0.8546 0.8547 0.8548 0.8549 0.8549
2180.000000 0.8550 0.8550 0.8551 0.8552 0.8553
2175.000000 0.8553 0.8554 0.8554 0.8554 0.8554
2170.000000 0.8554 0.8554 0.8554 0.8553 0.8553
2165.000000 0.8552 0.8552 0.8551 0.8551 0.8551
2160.000000 0.8551 0.8550 0.8550 0.8549 0.8549
2155.000000 0.8548 0.8548 0.8548 0.8548 0.8547
2150.000000 0.8547 0.8546 0.8546 0.8545 0.8545
2145.000000 0.8545 0.8546 0.8546 0.8547 0.8548
2140.000000 0.8549 0.8549 0.8550 0.8550 0.8551
2135.000000 0.8551 0.8552 0.8553 0.8554 0.8554
2130.000000 0.8555 0.8555 0.8556 0.8556 0.8557
2125.000000 0.8558 0.8559 0.8559 0.8560 0.8560
2120.000000 0.8561 0.8561 0.8562 0.8563 0.8564
2115.000000 0.8564 0.8565 0.8566 0.8567 0.8567
2110.000000 0.8568 0.8568 0.8570 0.8571 0.8573
2105.000000 0.8574 0.8575 0.8575 0.8578 0.8578
2100.000000 0.8580 0.8581 0.8583 0.8584 0.8585
2095.000000 0.8586 0.8588 0.8589 0.8590 0.8591
2090.000000 0.8592 0.8593 0.8595 0.8596 0.8597
2085.000000 0.8598 0.8600 0.8601 0.8602 0.8603
2080.000000 0.8605 0.8606 0.8607 0.8607 0.8607
2075.000000 0.8607 0.8608 0.8608 0.8609 0.8609
2070.000000 0.8609 0.8609 0.8610 0.8610 0.8611
2065.000000 0.8611 0.8611 0.8611 0.8612 0.8612
2060.000000 0.8613 0.8614 0.8615 0.8616 0.8617
2055.000000 0.8618 0.8618 0.8620 0.8621 0.8621
2050.000000 0.8624 0.8625 0.8625 0.8627 0.8628
2045.000000 0.8628 0.8628 0.8628 0.8628 0.8628
2040.000000 0.8628 0.8627 0.8627 0.8625 0.8625
2035.000000 0.8625 0.8625 0.8624 0.8624 0.8623
2030.000000 0.8623 0.8621 0.8621 0.8621 0.8621
2025.000000 0.8620 0.8618 0.8617 0.8616 0.8615
2020.000000 0.8614 0.8613 0.8612 0.8610 0.8609
2015.000000 0.8608 0.8607 0.8605 0.8603 0.8601
2010.000000 0.8599 0.8596 0.8594 0.8592 0.8590
2005.000000 0.8588 0.8587 0.8586 0.8586 0.8585
2000.000000 0.8584 0.8563 0.8495 0.8434 0.8378
1995.000000 0.8464 0.8556 0.8587 0.8601 0.8615
1990.000000 0.8625 0.8628 0.8630 0.8632 0.8634
1985.000000 0.8636 0.8637 0.8638 0.8639 0.8640
1980.000000 0.8641 0.8642 0.8643 0.8644 0.8645
1975.000000 0.8645 0.8646 0.8647 0.8647 0.8648
1970.000000 0.8648 0.8649 0.8649 0.8650 0.8651
1965.000000 0.8651 0.8652 0.8652 0.8648 0.8644
1960.000000 0.8640 0.8636 0.8632 0.8628 0.8625
1955.000000 0.8623 0.8620 0.8617 0.8614 0.8611
1950.000000 0.8608 0.8606 0.8603 0.8600 0.8598
1945.000000 0.8595 0.8593 0.8590 0.8588 0.8585
1940.000000 0.8583 0.8580 0.8580 0.8580 0.8580
1935.000000 0.8580 0.8580 0.8582 0.8584 0.8587
1930.000000 0.8589 0.8591 0.8594 0.8596 0.8599
1925.000000 0.8601 0.8603 0.8604 0.8605 0.8605
1920.000000 0.8606 0.8606 0.8606 0.8606 0.8604
1915.000000 0.8602 0.8599 0.8597 0.8595 0.8593
1910.000000 0.8591 0.8589 0.8587 0.8585 0.8583
1905.000000 0.8581 0.8578 0.8577 0.8577 0.8577
1900.000000 0.8577 0.8578 0.8578 0.8578 0.8578
1895.000000 0.8575 0.8575 0.8573 0.8571 0.8571
1890.000000 0.8574 0.8575 0.8578 0.8580 0.8581
1885.000000 0.8581 0.8581 0.8581 0.8581 0.8580
1880.000000 0.8578 0.8575 0.8573 0.8571 0.8570
1875.000000 0.8575 0.8583 0.8581 0.8578 0.8574
1870.000000 0.8571 0.8568 0.8565 0.8565 0.8565
1865.000000 0.8564 0.8564 0.8564 0.8564 0.8563
1860.000000 0.8561 0.8559 0.8558 0.8558 0.8561
1855.000000 0.8565 0.8568 0.8570 0.8570 0.8568
1850.000000 0.8568 0.8568 0.8567 0.8567 0.8566
1845.000000 0.8565 0.8565 0.8564 0.8563 0.8563
1840.000000 0.8562 0.8562 0.8561 0.8560 0.8559
1835.000000 0.8558 0.8557 0.8556 0.8555 0.8554
1830.000000 0.8553 0.8552 0.8551 0.8550 0.8549
1825.000000 0.8549 0.8548 0.8547 0.8547 0.8546
1820.000000 0.8546 0.8545 0.8544 0.8544 0.8543
1815.000000 0.8543 0.8542 0.8542 0.8541 0.8540
1810.000000 0.8540 0.8540 0.8539 0.8538 0.8538
1805.000000 0.8537 0.8537 0.8536 0.8535 0.8531
1800.000000 0.8527 0.8524 0.8520 0.8517 0.8516
1795.000000 0.8514 0.8513 0.8512 0.8511 0.8510
1790.000000 0.8509 0.8507 0.8506 0.8505 0.8504
1785.000000 0.8502 0.8500 0.8498 0.8496 0.8494
1780.000000 0.8492 0.8489 0.8486 0.8483 0.8480
1775.000000 0.8477 0.8474 0.8471 0.8467 0.8464
1770.000000 0.8452 0.8452 0.8452 0.8447 0.8443
1765.000000 0.8438 0.8434 0.8428 0.8425 0.8423
1760.000000 0.8421 0.8418 0.8417 0.8416 0.8415
1755.000000 0.8413 0.8412 0.8411 0.8404 0.8395
1750.000000 0.8385 0.8375 0.8366 0.8357 0.8348
1745.000000 0.8338 0.8328 0.8328 0.8328 0.8330
1740.000000 0.8331 0.8331 0.8332 0.8327 0.8317
1735.000000 0.8307 0.8307 0.8309 0.8310 0.8311
1730.000000 0.8312 0.8313 0.8304 0.8294 0.8285
1725.000000 0.8275 0.8260 0.8230 0.8200 0.8184
1720.000000 0.8180 0.8174 0.8167 0.8161 0.8155
1715.000000 0.8148 0.8137 0.8125 0.8115 0.8104
1710.000000 0.8096 0.8087 0.8078 0.8069 0.8062
1705.000000 0.8061 0.8058 0.8054 0.8049 0.8044
1700.000000 0.8039 0.8034 0.8028 0.8022 0.8017
1695.000000 0.8010 0.8001 0.7995 0.7988 0.7981
1690.000000 0.7974 0.7967 0.7960 0.7950 0.7939
1685.000000 0.7928 0.7918 0.7908 0.7899 0.7889
1680.000000 0.7878 0.7868 0.7858 0.7848 0.7837
1675.000000 0.7826 0.7815 0.7803 0.7792 0.7780
1670.000000 0.7767 0.7751 0.7738 0.7724 0.7708
1665.000000 0.7692 0.7675 0.7658 0.7643 0.7618
1660.000000 0.7588 0.7558 0.7534 0.7508 0.7482
1655.000000 0.7450 0.7418 0.7387 0.7355 0.7301
1650.000000 0.7233 0.7167 0.7101 0.7050 0.7006
1645.000000 0.6958 0.6906 0.6854 0.6795 0.6688
1640.000000 0.6624 0.6582 0.6540 0.6498 0.6445
1635.000000 0.6369 0.6294 0.6223 0.6160 0.6097
1630.000000 0.6035 0.5960 0.5877 0.5794 0.5719
1625.000000 0.5649 0.5579 0.5509 0.5432 0.5353
1620.000000 0.5275 0.5196 0.5002 0.4537 0.4318
1615.000000 0.4215 0.4110 0.3955 0.3682 0.3362
1610.000000 0.3029 0.2849 0.2731 0.2653 0.2582
1605.000000 0.2523 0.2464 0.2303 0.2104 0.1962
1600.000000 0.1733 0.1642 0.1552 0.1461 0.1334
1595.000000 0.1266 0.1202 0.1138 0.1074 0.0992
1590.000000 0.0852 0.0753 0.0683 0.0630 0.0587
1585.000000 0.0550 0.0561 0.0571 0.0586 0.0602
1580.000000 0.0616 0.0625 0.0634 0.0643 0.0652
1575.000000 0.0661 0.0670 0.0678 0.0685 0.0693
1570.000000 0.0701 0.0709 0.0719 0.0730 0.0741
1565.000000 0.0752 0.0777 0.0806 0.0932 0.1072
1560.000000 0.1201 0.1289 0.1378 0.1466 0.1534
1555.000000 0.1598 0.1661 0.1725 0.1796 0.1901
1550.000000 0.2006 0.2135 0.2277 0.2813 0.3087
1545.000000 0.3258 0.3428 0.3584 0.3738 0.3943
1540.000000 0.4137 0.4212 0.4289 0.4365 0.4437
1535.000000 0.4500 0.4562 0.4626 0.4689 0.4752
1530.000000 0.4814 0.4877 0.4941 0.5012 0.5083
1525.000000 0.5155 0.5225 0.5289 0.5353 0.5417
1520.000000 0.5481 0.5543 0.5604 0.5665 0.5710
1515.000000 0.5751 0.5791 0.5832 0.5873 0.5922
1510.000000 0.5972 0.6010 0.6039 0.6069 0.6099
1505.000000 0.6129 0.6159 0.6189 0.6209 0.6225
1500.000000 0.6242 0.6258 0.6274 0.6290 0.6301
1495.000000 0.6310 0.6321 0.6331 0.6341 0.6352
1490.000000 0.6364 0.6376 0.6388 0.6401 0.6415
1485.000000 0.6421 0.6425 0.6430 0.6434 0.6474
1480.000000 0.6443 0.6443 0.6444 0.6443 0.6442
1475.000000 0.6439 0.6435 0.6431 0.6419 0.6408
1470.000000 0.6391 0.6360 0.6328 0.6296 0.6240
1465.000000 0.6184 0.6116 0.6037 0.5946 0.5812
1460.000000 0.5617 0.5381 0.5203 0.4914 0.4558
1455.000000 0.4375 0.4237 0.4022 0.3632 0.3392
1450.000000 0.3300 0.3246 0.3188 0.3133 0.3087
1445.000000 0.3040 0.3030 0.3026 0.3047 0.3148
1440.000000 0.3242 0.3382 0.3506 0.3612 0.3716
1435.000000 0.3809 0.3900 0.3991 0.4283 0.4412
1430.000000 0.4512 0.4590 0.4662 0.4729 0.4795
1425.000000 0.4860 0.4916 0.4970 0.5024 0.5076
1420.000000 0.5112 0.5148 0.5184 0.5220 0.5255
1415.000000 0.5285 0.5315 0.5345 0.5376 0.5414
1410.000000 0.5460 0.5512 0.5577 0.5642 0.5729
1405.000000 0.5825 0.5900 0.5951 0.6002 0.6053
1400.000000 0.6112 0.6182 0.6251 0.6323 0.6395
1395.000000 0.6450 0.6506 0.6540 0.6551 0.6558
1390.000000 0.6565 0.6569 0.6574 0.6578 0.6581
1385.000000 0.6584 0.6595 0.6625 0.6657 0.6688
1380.000000 0.6728 0.6791 0.6840 0.6883 0.6925
1375.000000 0.6968 0.7010 0.7049 0.7088 0.7126
1370.000000 0.7167 0.7208 0.7248 0.7275 0.7292
1365.000000 0.7304 0.7315 0.7328 0.7331 0.7315
1360.000000 0.7337 0.7332 0.7322 0.7314 0.7298
1355.000000 0.7280 0.7260 0.7235 0.7210 0.7183
1350.000000 0.7156 0.7147 0.7141 0.7134 0.7128
1345.000000 0.7125 0.7122 0.7121 0.7121 0.7130
1340.000000 0.7138 0.7145 0.7153 0.7161 0.7168
1335.000000 0.7184 0.7207 0.7230 0.7253 0.7276
1330.000000 0.7301 0.7328 0.7353 0.7378 0.7404
1325.000000 0.7432 0.7464 0.7478 0.7489 0.7500
1320.000000 0.7511 0.7517 0.7521 0.7525 0.7526
1315.000000 0.7528 0.7531 0.7534 0.7536 0.7537
1310.000000 0.7538 0.7539 0.7539 0.7539 0.7539
1305.000000 0.7540 0.7551 0.7562 0.7574 0.7586
1300.000000 0.7598 0.7615 0.7635 0.7655 0.7674
1295.000000 0.7693 0.7712 0.7732 0.7751 0.7767
1290.000000 0.7784 0.7800 0.7817 0.7834 0.7850
1285.000000 0.7862 0.7875 0.7888 0.7900 0.7911
1280.000000 0.7922 0.7932 0.7941 0.7950 0.7958
1275.000000 0.7968 0.7978 0.7990 0.8000 0.8010
1270.000000 0.8019 0.8031 0.8040 0.8049 0.8058
1265.000000 0.8068 0.8076 0.8086 0.8095 0.8103
1260.000000 0.8111 0.8118 0.8126 0.8135 0.8144
1255.000000 0.8153 0.8161 0.8169 0.8178 0.8187
1250.000000 0.8196 0.8206 0.8216 0.8225 0.8236
1245.000000 0.8247 0.8262 0.8277 0.8292 0.8308
1240.000000 0.8321 0.8336 0.8350 0.8363 0.8377
1235.000000 0.8390 0.8402 0.8415 0.8427 0.8440
1230.000000 0.8452 0.8461 0.8468 0.8475 0.8481
1225.000000 0.8486 0.8491 0.8497 0.8502 0.8507
1220.000000 0.8512 0.8517 0.8523 0.8528 0.8532
1215.000000 0.8535 0.8538 0.8541 0.8544 0.8545
1210.000000 0.8545 0.8545 0.8543 0.8541 0.8539
1205.000000 0.8538 0.8537 0.8536 0.8536 0.8544
1200.000000 0.8557 0.8578 0.8586 0.8593 0.8599
1195.000000 0.8599 0.8599 0.8599 0.8599 0.8599
1190.000000 0.8599 0.8598 0.8597 0.8596 0.8595
1185.000000 0.8591 0.8588 0.8584 0.8558 0.8531
1180.000000 0.8506 0.8492 0.8478 0.8463 0.8475
1175.000000 0.8489 0.8499 0.8499 0.8499 0.8493
1170.000000 0.8493 0.8493 0.8494 0.8496 0.8497
1165.000000 0.8498 0.8499 0.8500 0.8501 0.8503
1160.000000 0.8503 0.8503 0.8501 0.8499 0.8497
1155.000000 0.8496 0.8495 0.8495 0.8494 0.8493
1150.000000 0.8493 0.8493 0.8495 0.8503 0.8512
1145.000000 0.8521 0.8528 0.8538 0.8546 0.8555
1140.000000 0.8563 0.8571 0.8578 0.8587 0.8595
1135.000000 0.8603 0.8611 0.8618 0.8627 0.8634
1130.000000 0.8641 0.8647 0.8654 0.8661 0.8668
1125.000000 0.8675 0.8681 0.8687 0.8693 0.8699
1120.000000 0.8685 0.8670 0.8658 0.8646 0.8637
1115.000000 0.8637 0.8637 0.8637 0.8640 0.8651
1110.000000 0.8662 0.8668 0.8673 0.8671 0.8661
1105.000000 0.8650 0.8639 0.8627 0.8617 0.8609
1100.000000 0.8601 0.8592 0.8584 0.8575 0.8567
1095.000000 0.8559 0.8551 0.8542 0.8533 0.8524
1090.000000 0.8514 0.8505 0.8496 0.8487 0.8478
1085.000000 0.8466 0.8452 0.8437 0.8423 0.8409
1080.000000 0.8391 0.8371 0.8351 0.8331 0.8311
1075.000000 0.8291 0.8271 0.8251 0.8228 0.8204
1070.000000 0.8178 0.8153 0.8125 0.8096 0.8068
1065.000000 0.8035 0.8003 0.7971 0.7939 0.7900
1060.000000 0.7830 0.7760 0.7664 0.7475 0.7303
1055.000000 0.7130 0.6958 0.6785 0.6611 0.6469
1050.000000 0.6453 0.6467 0.6558 0.6664 0.6768
1045.000000 0.6871 0.6975 0.7080 0.7184 0.7288
1040.000000 0.7392 0.7496 0.7600 0.7705 0.7775
1035.000000 0.7818 0.7860 0.7896 0.7908 0.7915
1030.000000 0.7919 0.7896 0.7861 0.7822 0.7788
1025.000000 0.7711 0.7625 0.7540 0.7454 0.7368
1020.000000 0.7282 0.7196 0.7110 0.7024 0.6939
1015.000000 0.6853 0.6767 0.6681 0.6595 0.6508
1010.000000 0.6451 0.6422 0.6403 0.6401 0.6401
1005.000000 0.6434 0.6511 0.6941 0.7237 0.7392
1000.000000 0.7542 0.7672 0.7796 0.7905 0.7951
995.000000 0.7997 0.8042 0.8088 0.8117 0.8145
990.000000 0.8171 0.8199 0.8227 0.8248 0.8266
985.000000 0.8283 0.8301 0.8310 0.8317 0.8325
980.000000 0.8333 0.8340 0.8348 0.8354 0.8359
975.000000 0.8364 0.8368 0.8373 0.8378 0.8391
970.000000 0.8403 0.8416 0.8428 0.8438 0.8446
965.000000 0.8454 0.8462 0.8468 0.8477 0.8484
960.000000 0.8490 0.8496 0.8502 0.8508 0.8514
955.000000 0.8520 0.8525 0.8531 0.8537 0.8545
950.000000 0.8554 0.8563 0.8568 0.8568 0.8571
945.000000 0.8571 0.8571 0.8571 0.8571 0.8570
940.000000 0.8584 0.8567 0.8566 0.8563 0.8559
935.000000 0.8555 0.8552 0.8533 0.8511 0.8489
930.000000 0.8452 0.8409 0.8359 0.8299 0.8021
925.000000 0.7721 0.7421 0.7300 0.7295 0.7684
920.000000 0.8061 0.8339 0.8406 0.8460 0.8496
915.000000 0.8521 0.8538 0.8555 0.8571 0.8578
910.000000 0.8582 0.8585 0.8588 0.8591 0.8593
905.000000 0.8594 0.8590 0.8587 0.8587 0.8580
900.000000 0.8570 0.8559 0.8549 0.8538 0.8528
895.000000 0.8523 0.8517 0.8512 0.8511 0.8511
890.000000 0.8512 0.8513 0.8521 0.8533 0.8545
885.000000 0.8557 0.8566 0.8575 0.8582 0.8584
880.000000 0.8586 0.8587 0.8589 0.8591 0.8593
875.000000 0.8594 0.8591 0.8588 0.8585 0.8582
870.000000 0.8578 0.8574 0.8568 0.8565 0.8561
865.000000 0.8556 0.8552 0.8548 0.8544 0.8539
860.000000 0.8533 0.8525 0.8520 0.8513 0.8507
855.000000 0.8500 0.8494 0.8488 0.8463 0.8435
850.000000 0.8421 0.8410 0.8400 0.8389 0.8378
845.000000 0.8368 0.8359 0.8349 0.8342 0.8335
840.000000 0.8327 0.8320 0.8312 0.8302 0.8291
835.000000 0.8281 0.8270 0.8259 0.8248 0.8238
830.000000 0.8227 0.8216 0.8204 0.8188 0.8171
825.000000 0.8157 0.8141 0.8125 0.8108 0.8094
820.000000 0.8078 0.8062 0.8048 0.8032 0.8017
815.000000 0.8003 0.7992 0.7981 0.7969 0.7958
810.000000 0.7946 0.7931 0.7935 0.7941 0.7947
805.000000 0.7951 0.7958 0.7964 0.7969 0.7975
800.000000 0.7982 0.7988 0.7994 0.8000 0.8006
795.000000 0.8011 0.8018 0.8025 0.8031 0.8037
790.000000 0.8043 0.8050 0.8056 0.8061 0.8068
785.000000 0.8075 0.8081 0.8087 0.8095 0.8101
780.000000 0.8108 0.8115 0.8128 0.8118 0.8104
775.000000 0.8097 0.8096 0.8095 0.8094 0.8094
770.000000 0.8094 0.8095 0.8095 0.8096 0.8097
765.000000 0.8098 0.8099 0.8099 0.8099 0.8099
760.000000 0.8099 0.8099 0.8099 0.8098 0.8095
755.000000 0.8092 0.8089 0.8075 0.8083 0.8078
750.000000 0.8068 0.8058 0.8048 0.8037 0.8025
745.000000 0.8015 0.8005 0.7983 0.7957 0.7932
740.000000 0.7908 0.7887 0.7871 0.7856 0.7838
735.000000 0.7821 0.7803 0.7735 0.7660 0.7593
730.000000 0.7519 0.7444 0.7371 0.7298 0.7230
725.000000 0.7168 0.7118 0.7111 0.7115 0.7212
720.000000 0.7404 0.7511 0.7611 0.7674 0.7736
715.000000 0.7795 0.7851 0.7908 0.7958 0.8011
710.000000 0.8058 0.8104 0.8148 0.8168 0.8188
705.000000 0.8201 0.8210 0.8218 0.8228 0.8238
700.000000 0.8246 0.8254 0.8262 0.8270 0.8278
695.000000 0.8277 0.8271 0.8294 0.8262 0.8257
690.000000 0.8250 0.8242 0.8234 0.8225 0.8218
685.000000 0.8210 0.8199 0.8189 0.8178 0.8167
680.000000 0.8157 0.8146 0.8135 0.8125 0.8114
675.000000 0.8101 0.8087 0.8074 0.8060 0.8047
670.000000 0.8030 0.8011 0.7994 0.7975 0.7958
665.000000 0.7940 0.7918 0.7897 0.7869 0.7803
660.000000 0.7712 0.7582 0.7486 0.7393 0.7205
655.000000 0.6925 0.6582 0.6238 0.5894 0.5783
650.000000 0.6022 0.6300 0.6447 0.6595 0.6718
645.000000 0.6808 0.6884 0.6939 0.6974 0.6994
640.000000 0.7011 0.7026 0.7037 0.7035 0.7034
635.000000 0.7007 0.6960 0.6864 0.6746 0.6601
630.000000 0.6342 0.5934 0.5527 0.5119 0.4710
625.000000 0.4535 0.4522 0.4656 0.5181 0.5706
620.000000 0.6185 0.6610 0.6844 0.6998 0.7135
615.000000 0.7268 0.7376 0.7480 0.7550 0.7610
610.000000 0.7649 0.7689 0.7728 0.7751 0.7774
605.000000 0.7793 0.7807 0.7818 0.7826 0.7836
600.000000 0.7845 0.7853 0.7861 0.7865 0.7871
595.000000 0.7876 0.7881 0.7884 0.7886 0.7919
590.000000 0.7875 0.7868 0.7862 0.7858 0.7854
585.000000 0.7849 0.7845 0.7840 0.7831 0.7821
580.000000 0.7810 0.7800 0.7790 0.7774 0.7757
575.000000 0.7740 0.7722 0.7706 0.7689 0.7672
570.000000 0.7658 0.7644 0.7628 0.7615 0.7600
565.000000 0.7585 0.7571 0.7556 0.7542 0.7525
560.000000 0.7507 0.7489 0.7471 0.7453 0.7435
555.000000 0.7417 0.7399 0.7382 0.7365 0.7349
550.000000 0.7333 0.7315 0.7300 0.7283 0.7267
545.000000 0.7249 0.7231 0.7214 0.7196 0.7178
540.000000 0.7161 0.7148 0.7136 0.7122 0.7111
535.000000 0.7104 0.7097 0.7089 0.7082 0.7075
530.000000 0.7072 0.7071 0.7057 0.7067 0.7068
525.000000 0.7071 0.7072 0.7075 0.7076 0.7086
520.000000 0.7097 0.7107 0.7119 0.7151 0.7189
515.000000 0.7224 0.7240 0.7251 0.7264 0.7275
510.000000 0.7288 0.7299 0.7315 0.7333 0.7351
505.000000 0.7368 0.7385 0.7396 0.7406 0.7415
500.000000 0.7425 0.7436 0.7443 0.7450 0.7457
495.000000 0.7462 0.7469 0.7475 0.7483 0.7490
490.000000 0.7495 0.7500 0.7505 0.7510 0.7530
485.000000 0.7518 0.7518 0.7519 0.7518 0.7517
480.000000 0.7505 0.7476 0.7457 0.7444 0.7431
475.000000 0.7417 0.7406 0.7394 0.7380 0.7350
470.000000 0.7322 0.7299 0.7275 0.7251 0.7236
465.000000 0.7222 0.7210 0.7206 0.7201 0.7198
460.000000 0.7197 0.7196 0.7195 0.7194 0.7193
##END=
