##TITLE=METHANEARSONIC ACID, DISODIUM SALT, HEXAHYDRATE
##JCAMP-DX=4.24
##DATA TYPE=INFRARED SPECTRUM
##CLASS=COBLENTZ
##ORIGIN=ANSUL CHEMICAL COMPANY, MARINETTE, WISCONSIN
##OWNER=COBLENTZ SOCIETY
Collection (C) 2018 copyright by the U.S. Secretary of Commerce
on behalf of the United States of America. All rights reserved.
##DATE=Not specified, most likely prior to 1970
##MOLFORM=C H3 O3 As Na2  * 6 H2 O
##MP=133-137 C
$$ MW 292.04
##SOURCE REFERENCE=COBLENTZ NO. 4905
##$NIST ID=B6004905
##$NIST SOURCE=COBLENTZ
##$NIST IMAGE=cob4905
##SPECTROMETER/DATA SYSTEM=BECKMAN IR-4 (HYBRID PRISM-GRATING)
##STATE=SOLID (KBr WAFER)
##SAMPLING PROCEDURE=TRANSMISSION
##RESOLUTION=4
##DATA PROCESSING=DIGITIZED BY NIST FROM HARD COPY
##XUNITS=MICROMETERS
##YUNITS=TRANSMITTANCE
##XFACTOR=1.000000
##YFACTOR=1
##DELTAX=000.004990
##FIRSTX=2.03
##LASTX=14.9979
##FIRSTY=0.786
##MAXX=14.9979
##MINX=2.03
##MAXY=0.927
##MINY=0.018
##NPOINTS=2600
##XYDATA=(X++(Y..Y))
2.030000 0.7860 0.7870 0.7870 0.7880 0.7890
2.054958 0.7910 0.7910 0.7920 0.7920 0.7920
2.080000 0.7920 0.7920 0.7910 0.7890 0.7890
2.104958 0.7890 0.7880 0.7830 0.7820 0.7790
2.130000 0.7730 0.7710 0.7630 0.7580 0.7520
2.154958 0.7510 0.7500 0.7420 0.7410 0.7360
2.180000 0.7320 0.7320 0.7310 0.7280 0.7210
2.204958 0.7180 0.7100 0.7080 0.7020 0.7000
2.230000 0.6920 0.6910 0.6900 0.6890 0.6890
2.254958 0.6890 0.6870 0.6810 0.6770 0.6720
2.279000 0.6720 0.6710 0.6700 0.6690 0.6610
2.303958 0.6590 0.6510 0.6490 0.6410 0.6390
2.329000 0.6310 0.6230 0.6200 0.6130 0.6090
2.353958 0.6000 0.5980 0.5950 0.5880 0.5800
2.379000 0.5770 0.5700 0.5630 0.5520 0.5490
2.403958 0.5470 0.5420 0.5410 0.5370 0.5310
2.429000 0.5280 0.5260 0.5210 0.5180 0.5160
2.453958 0.5110 0.5070 0.5030 0.4980 0.4870
2.479000 0.4800 0.4780 0.4710 0.4680 0.4650
2.503958 0.4600 0.4510 0.4500 0.4470 0.4410
2.529000 0.4370 0.4300 0.4260 0.4190 0.4110
2.553958 0.4000 0.3980 0.3900 0.3850 0.3780
2.579000 0.3700 0.3680 0.3640 0.3560 0.3480
2.603958 0.3400 0.3380 0.3320 0.3320 0.3290
2.629000 0.3270 0.3220 0.3180 0.3120 0.3100
2.653958 0.3070 0.2980 0.2970 0.2810 0.2710
2.679000 0.2620 0.2570 0.2530 0.2500 0.2480
2.703958 0.2410 0.2370 0.2310 0.2270 0.2170
2.728000 0.2100 0.2010 0.1990 0.1910 0.1860
2.752958 0.1790 0.1700 0.1610 0.1510 0.1410
2.778000 0.1390 0.1360 0.1310 0.1290 0.1200
2.802958 0.1140 0.1080 0.1010 0.0990 0.0920
2.828000 0.0880 0.0790 0.0720 0.0700 0.0620
2.852958 0.0590 0.0520 0.0490 0.0420 0.0410
2.878000 0.0380 0.0360 0.0330 0.0310 0.0290
2.902958 0.0270 0.0230 0.0220 0.0190 0.0190
2.928000 0.0180 0.0180 0.0180 0.0190 0.0190
2.952958 0.0210 0.0210 0.0210 0.0220 0.0220
2.978000 0.0220 0.0220 0.0220 0.0220 0.0230
3.002958 0.0240 0.0240 0.0260 0.0260 0.0270
3.028000 0.0270 0.0290 0.0290 0.0320 0.0320
3.052958 0.0330 0.0330 0.0340 0.0340 0.0370
3.078000 0.0390 0.0420 0.0430 0.0480 0.0500
3.102958 0.0520 0.0590 0.0620 0.0670 0.0690
3.128000 0.0700 0.0720 0.0750 0.0820 0.0820
3.152958 0.0880 0.0980 0.1010 0.1080 0.1140
3.178000 0.1210 0.1340 0.1450 0.1520 0.1540
3.202958 0.1560 0.1770 0.1900 0.2050 0.2080
3.227000 0.2180 0.2270 0.2380 0.2450 0.2480
3.251958 0.2640 0.2720 0.2870 0.2970 0.3050
3.277000 0.3180 0.3290 0.3470 0.3580 0.3700
3.301958 0.3860 0.3990 0.4110 0.4200 0.4300
3.327000 0.4390 0.4500 0.4600 0.4750 0.4810
3.351958 0.4910 0.4980 0.5170 0.5280 0.5380
3.377000 0.5480 0.5580 0.5680 0.5790 0.5890
3.401958 0.6000 0.6130 0.6250 0.6380 0.6400
3.427000 0.6490 0.6570 0.6660 0.6720 0.6800
3.451958 0.6890 0.6990 0.7080 0.7120 0.7270
3.477000 0.7310 0.7380 0.7470 0.7580 0.7670
3.501958 0.7710 0.7780 0.7820 0.7890 0.7920
3.527000 0.7990 0.8080 0.8120 0.8180 0.8200
3.551958 0.8250 0.8290 0.8330 0.8390 0.8420
3.577000 0.8420 0.8490 0.8500 0.8540 0.8580
3.601958 0.8610 0.8630 0.8680 0.8690 0.8700
3.627000 0.8710 0.8710 0.8730 0.8780 0.8790
3.651958 0.8800 0.8810 0.8860 0.8900 0.8910
3.677000 0.8910 0.8930 0.8930 0.8930 0.8930
3.701958 0.8930 0.8930 0.8940 0.8950 0.8980
3.726000 0.8980 0.8990 0.8990 0.8990 0.9000
3.750958 0.9000 0.8990 0.8990 0.8990 0.8990
3.776000 0.8990 0.8990 0.8990 0.8990 0.9000
3.800958 0.9000 0.8990 0.8990 0.8990 0.8990
3.826000 0.8960 0.8960 0.8950 0.8940 0.8930
3.850958 0.8930 0.8930 0.8930 0.8930 0.8930
3.876000 0.8930 0.8930 0.8930 0.8910 0.8910
3.900958 0.8900 0.8890 0.8880 0.8850 0.8850
3.926000 0.8810 0.8810 0.8810 0.8810 0.8800
3.950958 0.8790 0.8790 0.8790 0.8780 0.8780
3.976000 0.8750 0.8740 0.8740 0.8710 0.8700
4.000958 0.8700 0.8680 0.8680 0.8610 0.8610
4.026000 0.8590 0.8560 0.8550 0.8510 0.8510
4.050958 0.8500 0.8480 0.8420 0.8420 0.8400
4.076000 0.8380 0.8320 0.8320 0.8300 0.8300
4.100958 0.8280 0.8220 0.8200 0.8170 0.8120
4.126000 0.8120 0.8100 0.8090 0.8080 0.8050
4.150958 0.8030 0.8030 0.7980 0.7960 0.7940
4.175000 0.7930 0.7910 0.7910 0.7890 0.7880
4.199958 0.7880 0.7870 0.7870 0.7880 0.7880
4.225000 0.7880 0.7880 0.7890 0.7890 0.7910
4.249958 0.7910 0.7910 0.7910 0.7920 0.7930
4.275000 0.7930 0.7930 0.7920 0.7920 0.7920
4.299958 0.7920 0.7920 0.7920 0.7920 0.7930
4.325000 0.7930 0.7920 0.7920 0.7910 0.7910
4.349958 0.7910 0.7910 0.7910 0.7910 0.7910
4.375000 0.7890 0.7890 0.7890 0.7890 0.7890
4.399958 0.7880 0.7880 0.7870 0.7860 0.7840
4.425000 0.7840 0.7840 0.7860 0.7860 0.7870
4.449958 0.7870 0.7880 0.7880 0.7890 0.7910
4.475000 0.7920 0.7930 0.7940 0.7960 0.7960
4.499958 0.7980 0.7990 0.8000 0.8020 0.8050
4.525000 0.8080 0.8100 0.8120 0.8120 0.8150
4.549958 0.8190 0.8200 0.8230 0.8270 0.8280
4.575000 0.8290 0.8300 0.8320 0.8370 0.8390
4.599958 0.8400 0.8430 0.8490 0.8500 0.8510
4.625000 0.8510 0.8560 0.8590 0.8600 0.8610
4.649958 0.8650 0.8690 0.8700 0.8710 0.8710
4.674000 0.8740 0.8760 0.8780 0.8790 0.8800
4.698958 0.8810 0.8850 0.8880 0.8880 0.8890
4.724000 0.8890 0.8890 0.8900 0.8910 0.8910
4.748958 0.8910 0.8940 0.8950 0.8980 0.8980
4.774000 0.8990 0.8990 0.8990 0.8990 0.9000
4.798958 0.9000 0.9000 0.9020 0.9060 0.9060
4.824000 0.9070 0.9070 0.9090 0.9090 0.9090
4.848958 0.9090 0.9090 0.9100 0.9100 0.9100
4.874000 0.9110 0.9110 0.9140 0.9160 0.9170
4.898958 0.9170 0.9170 0.9170 0.9190 0.9190
4.924000 0.9190 0.9190 0.9190 0.9190 0.9190
4.948958 0.9190 0.9190 0.9200 0.9200 0.9200
4.974000 0.9200 0.9200 0.9200 0.9200 0.9200
4.998958 0.9210 0.9210 0.9210 0.9220 0.9240
5.024000 0.9240 0.9250 0.9250 0.9250 0.9250
5.048958 0.9240 0.9240 0.9240 0.9240 0.9220
5.074000 0.9220 0.9220 0.9220 0.9220 0.9220
5.098958 0.9220 0.9220 0.9220 0.9220 0.9220
5.123000 0.9240 0.9240 0.9240 0.9240 0.9250
5.147958 0.9260 0.9260 0.9260 0.9260 0.9260
5.173000 0.9270 0.9270 0.9270 0.9270 0.9270
5.197958 0.9270 0.9270 0.9270 0.9270 0.9270
5.223000 0.9270 0.9260 0.9240 0.9240 0.9240
5.247958 0.9210 0.9210 0.9210 0.9210 0.9210
5.273000 0.9210 0.9210 0.9210 0.9200 0.9200
5.297958 0.9200 0.9200 0.9200 0.9190 0.9170
5.323000 0.9170 0.9170 0.9170 0.9170 0.9170
5.347958 0.9170 0.9170 0.9170 0.9160 0.9150
5.373000 0.9150 0.9140 0.9110 0.9110 0.9100
5.397958 0.9090 0.9090 0.9070 0.9070 0.9070
5.423000 0.9070 0.9070 0.9070 0.9070 0.9060
5.447958 0.9010 0.9000 0.9000 0.8990 0.8990
5.473000 0.8990 0.8990 0.8990 0.8980 0.8960
5.497958 0.8950 0.8910 0.8910 0.8900 0.8890
5.523000 0.8880 0.8880 0.8880 0.8850 0.8810
5.547958 0.8800 0.8800 0.8790 0.8780 0.8780
5.573000 0.8780 0.8780 0.8760 0.8710 0.8700
5.597958 0.8680 0.8660 0.8610 0.8590 0.8560
5.622000 0.8510 0.8490 0.8470 0.8420 0.8420
5.646958 0.8400 0.8390 0.8380 0.8300 0.8270
5.672000 0.8200 0.8170 0.8100 0.8100 0.8070
5.696958 0.7990 0.7990 0.7970 0.7910 0.7870
5.722000 0.7840 0.7810 0.7790 0.7760 0.7710
5.746958 0.7670 0.7640 0.7610 0.7580 0.7560
5.772000 0.7530 0.7510 0.7510 0.7500 0.7480
5.796958 0.7400 0.7360 0.7270 0.7170 0.7080
5.822000 0.7010 0.6970 0.6900 0.6890 0.6870
5.846958 0.6800 0.6750 0.6660 0.6600 0.6490
5.872000 0.6480 0.6400 0.6380 0.6350 0.6330
5.896958 0.6300 0.6290 0.6280 0.6240 0.6190
5.922000 0.6140 0.6080 0.6040 0.5980 0.5950
5.946958 0.5940 0.5920 0.5920 0.5890 0.5890
5.972000 0.5850 0.5840 0.5840 0.5850 0.5870
5.996958 0.5880 0.5880 0.5890 0.5900 0.5900
6.022000 0.5930 0.5990 0.6000 0.6050 0.6140
6.046958 0.6190 0.6280 0.6390 0.6490 0.6520
6.072000 0.6570 0.6600 0.6610 0.6640 0.6660
6.096958 0.6670 0.6690 0.6700 0.6760 0.6800
6.121000 0.6820 0.6840 0.6900 0.6950 0.6950
6.145958 0.6960 0.6960 0.6970 0.7000 0.7060
6.171000 0.7080 0.7110 0.7110 0.7170 0.7180
6.195958 0.7200 0.7210 0.7260 0.7260 0.7270
6.221000 0.7280 0.7300 0.7310 0.7350 0.7360
6.245958 0.7370 0.7380 0.7380 0.7400 0.7410
6.271000 0.7410 0.7410 0.7460 0.7470 0.7470
6.295958 0.7500 0.7510 0.7510 0.7520 0.7520
6.321000 0.7520 0.7530 0.7530 0.7530 0.7560
6.345958 0.7580 0.7580 0.7610 0.7610 0.7620
6.371000 0.7630 0.7630 0.7640 0.7640 0.7640
6.395958 0.7660 0.7670 0.7690 0.7710 0.7720
6.421000 0.7720 0.7740 0.7760 0.7770 0.7770
6.445958 0.7770 0.7770 0.7770 0.7780 0.7780
6.471000 0.7790 0.7790 0.7790 0.7810 0.7810
6.495958 0.7820 0.7820 0.7840 0.7840 0.7840
6.521000 0.7840 0.7860 0.7870 0.7860 0.7870
6.545958 0.7880 0.7880 0.7880 0.7880 0.7880
6.570000 0.7880 0.7880 0.7880 0.7890 0.7890
6.594958 0.7890 0.7890 0.7890 0.7890 0.7890
6.620000 0.7890 0.7890 0.7890 0.7910 0.7910
6.644958 0.7910 0.7910 0.7920 0.7910 0.7910
6.670000 0.7910 0.7910 0.7910 0.7910 0.7920
6.694958 0.7920 0.7920 0.7920 0.7920 0.7920
6.720000 0.7910 0.7910 0.7910 0.7880 0.7860
6.744958 0.7830 0.7820 0.7820 0.7820 0.7830
6.770000 0.7860 0.7880 0.7880 0.7880 0.7880
6.794958 0.7870 0.7860 0.7840 0.7830 0.7830
6.820000 0.7830 0.7820 0.7820 0.7820 0.7820
6.844958 0.7820 0.7820 0.7820 0.7820 0.7830
6.870000 0.7830 0.7820 0.7820 0.7820 0.7820
6.894958 0.7820 0.7810 0.7810 0.7810 0.7790
6.920000 0.7770 0.7770 0.7740 0.7720 0.7720
6.944958 0.7720 0.7720 0.7720 0.7720 0.7710
6.970000 0.7670 0.7620 0.7620 0.7610 0.7610
6.994958 0.7590 0.7580 0.7560 0.7520 0.7510
7.020000 0.7480 0.7470 0.7450 0.7450 0.7430
7.044958 0.7420 0.7420 0.7420 0.7410 0.7400
7.069000 0.7380 0.7380 0.7400 0.7400 0.7410
7.093958 0.7420 0.7470 0.7500 0.7510 0.7520
7.119000 0.7580 0.7590 0.7610 0.7620 0.7630
7.143958 0.7640 0.7640 0.7660 0.7670 0.7680
7.169000 0.7680 0.7680 0.7680 0.7680 0.7680
7.193958 0.7690 0.7710 0.7710 0.7730 0.7730
7.219000 0.7710 0.7690 0.7690 0.7680 0.7680
7.243958 0.7690 0.7710 0.7720 0.7740 0.7770
7.269000 0.7770 0.7770 0.7760 0.7740 0.7720
7.293958 0.7710 0.7720 0.7730 0.7730 0.7740
7.319000 0.7740 0.7740 0.7740 0.7730 0.7730
7.343958 0.7720 0.7720 0.7720 0.7720 0.7720
7.369000 0.7720 0.7720 0.7720 0.7690 0.7630
7.393958 0.7620 0.7610 0.7560 0.7540 0.7540
7.419000 0.7560 0.7570 0.7590 0.7610 0.7610
7.443958 0.7660 0.7670 0.7670 0.7670 0.7670
7.469000 0.7680 0.7690 0.7710 0.7720 0.7770
7.493958 0.7780 0.7810 0.7810 0.7810 0.7810
7.519000 0.7790 0.7780 0.7790 0.7810 0.7840
7.543958 0.7840 0.7870 0.7870 0.7880 0.7880
7.568000 0.7880 0.7880 0.7880 0.7880 0.7880
7.592958 0.7880 0.7890 0.7890 0.7890 0.7890
7.618000 0.7890 0.7890 0.7870 0.7840 0.7830
7.642958 0.7820 0.7820 0.7840 0.7840 0.7870
7.668000 0.7870 0.7870 0.7870 0.7870 0.7870
7.692958 0.7870 0.7870 0.7870 0.7860 0.7860
7.718000 0.7840 0.7840 0.7830 0.7830 0.7820
7.742958 0.7820 0.7810 0.7810 0.7810 0.7810
7.768000 0.7810 0.7790 0.7780 0.7770 0.7770
7.792958 0.7730 0.7720 0.7710 0.7690 0.7680
7.818000 0.7670 0.7610 0.7580 0.7510 0.7510
7.842958 0.7500 0.7410 0.7370 0.7300 0.7260
7.868000 0.7200 0.7100 0.7020 0.6960 0.6900
7.892958 0.6850 0.6820 0.6850 0.6950 0.7050
7.918000 0.7150 0.7250 0.7350 0.7450 0.7620
7.942958 0.7720 0.7770 0.7780 0.7820 0.7870
7.968000 0.7880 0.7910 0.7920 0.7930 0.7930
7.992958 0.7940 0.7940 0.7960 0.7970 0.7980
8.017000 0.7980 0.7990 0.7990 0.8000 0.8020
8.041958 0.8030 0.8030 0.8040 0.8040 0.8050
8.067000 0.8070 0.8070 0.8080 0.8080 0.8080
8.091958 0.8090 0.8090 0.8090 0.8090 0.8090
8.117000 0.8090 0.8090 0.8090 0.8090 0.8090
8.141958 0.8090 0.8090 0.8100 0.8100 0.8100
8.167000 0.8100 0.8100 0.8100 0.8100 0.8100
8.191958 0.8100 0.8100 0.8120 0.8120 0.8100
8.217000 0.8100 0.8100 0.8100 0.8100 0.8100
8.241958 0.8090 0.8090 0.8090 0.8090 0.8100
8.267000 0.8100 0.8120 0.8120 0.8120 0.8120
8.291958 0.8120 0.8120 0.8120 0.8120 0.8120
8.317000 0.8120 0.8120 0.8120 0.8120 0.8120
8.341958 0.8120 0.8120 0.8120 0.8120 0.8130
8.367000 0.8140 0.8140 0.8140 0.8140 0.8140
8.391958 0.8150 0.8150 0.8150 0.8150 0.8170
8.417000 0.8170 0.8180 0.8180 0.8180 0.8180
8.441958 0.8180 0.8180 0.8190 0.8200 0.8220
8.467000 0.8220 0.8230 0.8230 0.8240 0.8240
8.491958 0.8230 0.8230 0.8220 0.8200 0.8200
8.516000 0.8200 0.8200 0.8200 0.8200 0.8200
8.540958 0.8220 0.8220 0.8220 0.8220 0.8200
8.566000 0.8200 0.8190 0.8190 0.8180 0.8170
8.590958 0.8170 0.8170 0.8170 0.8170 0.8170
8.616000 0.8170 0.8150 0.8150 0.8140 0.8130
8.640958 0.8130 0.8130 0.8140 0.8140 0.8140
8.666000 0.8140 0.8150 0.8170 0.8170 0.8170
8.690958 0.8140 0.8130 0.8120 0.8090 0.8080
8.716000 0.8080 0.8080 0.8080 0.8090 0.8090
8.740958 0.8100 0.8100 0.8120 0.8120 0.8100
8.766000 0.8100 0.8100 0.8100 0.8100 0.8100
8.790958 0.8100 0.8100 0.8100 0.8100 0.8100
8.816000 0.8100 0.8100 0.8090 0.8090 0.8090
8.840958 0.8090 0.8090 0.8090 0.8090 0.8090
8.866000 0.8090 0.8090 0.8100 0.8100 0.8090
8.890958 0.8090 0.8100 0.8100 0.8100 0.8100
8.916000 0.8100 0.8100 0.8100 0.8100 0.8100
8.940958 0.8100 0.8100 0.8100 0.8120 0.8120
8.965000 0.8120 0.8120 0.8120 0.8120 0.8130
8.989958 0.8140 0.8150 0.8150 0.8170 0.8170
9.015000 0.8170 0.8170 0.8170 0.8170 0.8170
9.039958 0.8170 0.8170 0.8170 0.8170 0.8170
9.065000 0.8170 0.8170 0.8170 0.8180 0.8180
9.089958 0.8190 0.8190 0.8190 0.8190 0.8180
9.115000 0.8180 0.8180 0.8180 0.8180 0.8180
9.139958 0.8180 0.8180 0.8180 0.8190 0.8190
9.165000 0.8190 0.8190 0.8180 0.8180 0.8180
9.189958 0.8170 0.8170 0.8170 0.8170 0.8170
9.215000 0.8170 0.8150 0.8140 0.8140 0.8140
9.239958 0.8140 0.8140 0.8140 0.8140 0.8140
9.265000 0.8140 0.8140 0.8130 0.8120 0.8120
9.289958 0.8120 0.8120 0.8120 0.8130 0.8140
9.315000 0.8140 0.8140 0.8140 0.8140 0.8140
9.339958 0.8150 0.8150 0.8140 0.8140 0.8150
9.365000 0.8170 0.8170 0.8170 0.8180 0.8180
9.389958 0.8180 0.8190 0.8190 0.8200 0.8200
9.415000 0.8200 0.8200 0.8200 0.8200 0.8200
9.439958 0.8200 0.8220 0.8220 0.8220 0.8220
9.464000 0.8220 0.8220 0.8220 0.8220 0.8220
9.488958 0.8230 0.8230 0.8230 0.8220 0.8220
9.514000 0.8220 0.8220 0.8220 0.8220 0.8200
9.538958 0.8200 0.8200 0.8200 0.8200 0.8190
9.564000 0.8180 0.8170 0.8170 0.8150 0.8140
9.588958 0.8130 0.8130 0.8150 0.8200 0.8240
9.614000 0.8250 0.8250 0.8240 0.8220 0.8190
9.638958 0.8150 0.8140 0.8140 0.8140 0.8140
9.664000 0.8140 0.8140 0.8140 0.8140 0.8140
9.688958 0.8140 0.8140 0.8140 0.8140 0.8140
9.714000 0.8130 0.8130 0.8130 0.8120 0.8120
9.738958 0.8100 0.8120 0.8120 0.8130 0.8120
9.764000 0.8120 0.8130 0.8130 0.8120 0.8120
9.788958 0.8120 0.8120 0.8120 0.8100 0.8100
9.814000 0.8100 0.8100 0.8120 0.8120 0.8120
9.838958 0.8120 0.8100 0.8100 0.8090 0.8090
9.864000 0.8090 0.8090 0.8090 0.8090 0.8090
9.888958 0.8090 0.8090 0.8080 0.8070 0.8070
9.914000 0.8070 0.8030 0.8020 0.8000 0.7990
9.938958 0.7990 0.7990 0.7990 0.7980 0.7980
9.963000 0.7980 0.7980 0.7980 0.7990 0.7990
9.987958 0.8000 0.8000 0.8000 0.8000 0.7990
10.013000 0.7990 0.7980 0.7980 0.7980 0.7980
10.037958 0.7980 0.7980 0.7980 0.7980 0.7970
10.063000 0.7970 0.7970 0.7970 0.7970 0.7960
10.087958 0.7960 0.7940 0.7930 0.7920 0.7920
10.113000 0.7910 0.7910 0.7910 0.7910 0.7910
10.137958 0.7890 0.7910 0.7890 0.7890 0.7890
10.163000 0.7880 0.7880 0.7880 0.7880 0.7870
10.187958 0.7860 0.7860 0.7860 0.7840 0.7860
10.213000 0.7840 0.7840 0.7840 0.7830 0.7820
10.237958 0.7820 0.7810 0.7790 0.7790 0.7780
10.263000 0.7780 0.7770 0.7770 0.7760 0.7760
10.287958 0.7740 0.7730 0.7720 0.7720 0.7720
10.313000 0.7720 0.7710 0.7690 0.7680 0.7630
10.337958 0.7620 0.7620 0.7620 0.7610 0.7610
10.363000 0.7590 0.7590 0.7590 0.7590 0.7590
10.387958 0.7580 0.7570 0.7540 0.7530 0.7510
10.412000 0.7510 0.7510 0.7510 0.7510 0.7510
10.436958 0.7500 0.7500 0.7500 0.7500 0.7480
10.462000 0.7480 0.7480 0.7480 0.7480 0.7480
10.486958 0.7470 0.7470 0.7460 0.7420 0.7420
10.512000 0.7420 0.7410 0.7410 0.7410 0.7400
10.536958 0.7380 0.7370 0.7370 0.7360 0.7350
10.562000 0.7330 0.7330 0.7320 0.7320 0.7320
10.586958 0.7320 0.7320 0.7320 0.7310 0.7300
10.612000 0.7300 0.7270 0.7270 0.7220 0.7210
10.636958 0.7210 0.7210 0.7210 0.7200 0.7170
10.662000 0.7170 0.7120 0.7110 0.7110 0.7110
10.686958 0.7110 0.7110 0.7110 0.7110 0.7110
10.712000 0.7100 0.7070 0.7070 0.7010 0.7000
10.736958 0.7000 0.6990 0.6990 0.6970 0.6970
10.762000 0.6970 0.6910 0.6910 0.6900 0.6900
10.786958 0.6900 0.6890 0.6890 0.6870 0.6840
10.812000 0.6810 0.6790 0.6770 0.6760 0.6710
10.836958 0.6710 0.6710 0.6700 0.6700 0.6670
10.862000 0.6660 0.6650 0.6610 0.6600 0.6590
10.886958 0.6560 0.6520 0.6500 0.6490 0.6480
10.911000 0.6480 0.6440 0.6400 0.6400 0.6390
10.935958 0.6360 0.6360 0.6300 0.6300 0.6290
10.961000 0.6280 0.6210 0.6200 0.6190 0.6180
10.985958 0.6160 0.6160 0.6150 0.6130 0.6090
11.011000 0.6050 0.5990 0.5970 0.5920 0.5880
11.035958 0.5870 0.5800 0.5790 0.5780 0.5780
11.061000 0.5770 0.5720 0.5690 0.5670 0.5600
11.085958 0.5590 0.5570 0.5550 0.5500 0.5490
11.111000 0.5480 0.5470 0.5410 0.5380 0.5370
11.135958 0.5360 0.5310 0.5290 0.5270 0.5260
11.161000 0.5180 0.5120 0.5080 0.5070 0.5030
11.185958 0.5010 0.4980 0.4950 0.4870 0.4820
11.211000 0.4780 0.4760 0.4730 0.4680 0.4660
11.235958 0.4610 0.4580 0.4560 0.4500 0.4470
11.261000 0.4400 0.4390 0.4350 0.4290 0.4250
11.285958 0.4200 0.4190 0.4160 0.4100 0.4060
11.311000 0.4000 0.3980 0.3960 0.3900 0.3860
11.335958 0.3790 0.3760 0.3680 0.3600 0.3560
11.360000 0.3510 0.3490 0.3470 0.3400 0.3390
11.384958 0.3380 0.3330 0.3280 0.3200 0.3180
11.410000 0.3150 0.3070 0.3000 0.2980 0.2970
11.434958 0.2940 0.2890 0.2870 0.2810 0.2780
11.460000 0.2720 0.2670 0.2670 0.2610 0.2570
11.484958 0.2530 0.2500 0.2470 0.2420 0.2380
11.510000 0.2320 0.2300 0.2260 0.2200 0.2150
11.534958 0.2080 0.2010 0.1990 0.1970 0.1890
11.560000 0.1820 0.1790 0.1720 0.1700 0.1670
11.584958 0.1640 0.1570 0.1490 0.1390 0.1380
11.610000 0.1280 0.1260 0.1190 0.1180 0.1110
11.634958 0.1080 0.1080 0.0990 0.0980 0.0900
11.660000 0.0890 0.0870 0.0820 0.0780 0.0720
11.684958 0.0690 0.0680 0.0630 0.0600 0.0600
11.710000 0.0590 0.0570 0.0540 0.0520 0.0500
11.734958 0.0490 0.0480 0.0480 0.0480 0.0470
11.760000 0.0460 0.0460 0.0440 0.0440 0.0440
11.784958 0.0430 0.0420 0.0420 0.0410 0.0410
11.810000 0.0410 0.0410 0.0410 0.0390 0.0390
11.834958 0.0380 0.0380 0.0370 0.0340 0.0340
11.859000 0.0330 0.0330 0.0320 0.0320 0.0310
11.883958 0.0290 0.0290 0.0290 0.0290 0.0290
11.909000 0.0280 0.0280 0.0270 0.0270 0.0260
11.933958 0.0260 0.0240 0.0240 0.0230 0.0230
11.959000 0.0230 0.0220 0.0220 0.0210 0.0210
11.983958 0.0210 0.0210 0.0220 0.0220 0.0220
12.009000 0.0230 0.0230 0.0230 0.0230 0.0240
12.033958 0.0240 0.0270 0.0280 0.0290 0.0320
12.059000 0.0320 0.0330 0.0330 0.0340 0.0360
12.083958 0.0370 0.0380 0.0380 0.0390 0.0390
12.109000 0.0410 0.0420 0.0420 0.0430 0.0440
12.133958 0.0460 0.0470 0.0490 0.0500 0.0550
12.159000 0.0590 0.0640 0.0680 0.0690 0.0700
12.183958 0.0700 0.0720 0.0780 0.0780 0.0800
12.209000 0.0840 0.0900 0.0940 0.0970 0.0980
12.233958 0.0990 0.1040 0.1040 0.1060 0.1090
12.259000 0.1110 0.1150 0.1160 0.1200 0.1200
12.283958 0.1240 0.1280 0.1300 0.1330 0.1380
12.309000 0.1400 0.1440 0.1440 0.1450 0.1460
12.333958 0.1480 0.1490 0.1500 0.1510 0.1520
12.358000 0.1560 0.1570 0.1590 0.1600 0.1610
12.382958 0.1620 0.1640 0.1660 0.1670 0.1700
12.408000 0.1700 0.1710 0.1710 0.1720 0.1750
12.432958 0.1760 0.1770 0.1770 0.1800 0.1810
12.458000 0.1820 0.1850 0.1850 0.1860 0.1860
12.482958 0.1860 0.1860 0.1860 0.1870 0.1870
12.508000 0.1870 0.1890 0.1890 0.1890 0.1890
12.532958 0.1890 0.1900 0.1900 0.1900 0.1910
12.558000 0.1910 0.1910 0.1910 0.1910 0.1910
12.582958 0.1920 0.1920 0.1920 0.1940 0.1940
12.608000 0.1950 0.1960 0.1960 0.1970 0.1970
12.632958 0.1970 0.1970 0.1970 0.1990 0.1990
12.658000 0.2000 0.2000 0.2010 0.2010 0.2010
12.682958 0.2010 0.2020 0.2020 0.2030 0.2030
12.708000 0.2050 0.2070 0.2080 0.2100 0.2110
12.732958 0.2120 0.2160 0.2160 0.2170 0.2200
12.758000 0.2210 0.2220 0.2260 0.2260 0.2280
12.782958 0.2310 0.2350 0.2370 0.2400 0.2420
12.807000 0.2500 0.2540 0.2570 0.2580 0.2590
12.831958 0.2620 0.2660 0.2660 0.2670 0.2710
12.857000 0.2760 0.2770 0.2780 0.2830 0.2870
12.881958 0.2880 0.2890 0.2970 0.2970 0.2990
12.907000 0.3000 0.3050 0.3070 0.3080 0.3090
12.931958 0.3150 0.3170 0.3190 0.3250 0.3280
12.957000 0.3300 0.3350 0.3350 0.3390 0.3390
12.981958 0.3400 0.3470 0.3490 0.3550 0.3560
13.007000 0.3600 0.3610 0.3640 0.3660 0.3680
13.031958 0.3710 0.3760 0.3780 0.3790 0.3800
13.057000 0.3850 0.3860 0.3900 0.3930 0.3940
13.081958 0.3980 0.3990 0.3990 0.4000 0.4000
13.107000 0.4020 0.4060 0.4070 0.4090 0.4110
13.131958 0.4160 0.4170 0.4190 0.4200 0.4250
13.157000 0.4260 0.4290 0.4300 0.4310 0.4350
13.181958 0.4350 0.4360 0.4370 0.4390 0.4410
13.207000 0.4440 0.4460 0.4490 0.4490 0.4500
13.231958 0.4510 0.4550 0.4560 0.4570 0.4580
13.257000 0.4580 0.4600 0.4600 0.4630 0.4660
13.281958 0.4680 0.4700 0.4710 0.4730 0.4750
13.306000 0.4750 0.4750 0.4760 0.4760 0.4770
13.330958 0.4770 0.4770 0.4770 0.4780 0.4810
13.356000 0.4820 0.4820 0.4830 0.4830 0.4830
13.380958 0.4830 0.4850 0.4850 0.4850 0.4850
13.406000 0.4860 0.4860 0.4860 0.4860 0.4860
13.430958 0.4860 0.4860 0.4860 0.4860 0.4860
13.456000 0.4860 0.4860 0.4860 0.4860 0.4860
13.480958 0.4860 0.4860 0.4850 0.4830 0.4830
13.506000 0.4820 0.4820 0.4820 0.4810 0.4780
13.530958 0.4780 0.4770 0.4760 0.4760 0.4750
13.556000 0.4750 0.4730 0.4730 0.4720 0.4720
13.580958 0.4710 0.4710 0.4680 0.4670 0.4660
13.606000 0.4650 0.4630 0.4610 0.4600 0.4600
13.630958 0.4580 0.4580 0.4570 0.4570 0.4560
13.656000 0.4560 0.4550 0.4550 0.4510 0.4490
13.680958 0.4470 0.4460 0.4460 0.4410 0.4400
13.706000 0.4390 0.4390 0.4390 0.4370 0.4370
13.730958 0.4370 0.4360 0.4350 0.4350 0.4300
13.756000 0.4300 0.4290 0.4270 0.4250 0.4250
13.780958 0.4220 0.4210 0.4190 0.4150 0.4120
13.805000 0.4110 0.4100 0.4070 0.4050 0.4050
13.829958 0.4040 0.4020 0.4000 0.4000 0.3980
13.855000 0.3960 0.3950 0.3890 0.3880 0.3860
13.879958 0.3850 0.3850 0.3800 0.3790 0.3760
13.905000 0.3750 0.3710 0.3700 0.3690 0.3660
13.929958 0.3650 0.3590 0.3590 0.3580 0.3560
13.955000 0.3550 0.3540 0.3530 0.3500 0.3490
13.979958 0.3470 0.3450 0.3440 0.3430 0.3400
14.005000 0.3390 0.3370 0.3350 0.3340 0.3320
14.029958 0.3300 0.3280 0.3270 0.3200 0.3200
14.055000 0.3190 0.3170 0.3120 0.3100 0.3090
14.079958 0.3090 0.3090 0.3090 0.3090 0.3080
14.105000 0.3070 0.3030 0.3000 0.2980 0.2980
14.129958 0.2940 0.2910 0.2890 0.2890 0.2870
14.155000 0.2870 0.2860 0.2830 0.2790 0.2780
14.179958 0.2770 0.2770 0.2760 0.2740 0.2720
14.205000 0.2690 0.2670 0.2660 0.2640 0.2620
14.229958 0.2610 0.2590 0.2580 0.2570 0.2540
14.254000 0.2520 0.2510 0.2510 0.2500 0.2480
14.278958 0.2470 0.2460 0.2450 0.2430 0.2410
14.304000 0.2400 0.2380 0.2370 0.2360 0.2350
14.328958 0.2350 0.2330 0.2320 0.2310 0.2300
14.354000 0.2300 0.2280 0.2270 0.2260 0.2250
14.378958 0.2230 0.2220 0.2210 0.2210 0.2200
14.404000 0.2170 0.2170 0.2160 0.2160 0.2130
14.428958 0.2120 0.2120 0.2110 0.2100 0.2100
14.454000 0.2080 0.2070 0.2050 0.2030 0.2020
14.478958 0.2020 0.2010 0.2010 0.2010 0.2000
14.504000 0.1990 0.1960 0.1960 0.1950 0.1950
14.528958 0.1940 0.1940 0.1920 0.1910 0.1910
14.554000 0.1900 0.1900 0.1900 0.1890 0.1890
14.578958 0.1890 0.1870 0.1870 0.1870 0.1870
14.604000 0.1870 0.1860 0.1850 0.1850 0.1840
14.628958 0.1840 0.1820 0.1820 0.1810 0.1810
14.654000 0.1810 0.1820 0.1820 0.1820 0.1820
14.678958 0.1820 0.1840 0.1840 0.1840 0.1850
14.704000 0.1850 0.1850 0.1860 0.1860 0.1860
14.728958 0.1860 0.1860 0.1860 0.1850 0.1850
14.753000 0.1850 0.1840 0.1840 0.1840 0.1840
14.777958 0.1820 0.1820 0.1820 0.1820 0.1840
14.803000 0.1840 0.1850 0.1850 0.1850 0.1850
14.827958 0.1860 0.1860 0.1860 0.1860 0.1860
14.853000 0.1870 0.1870 0.1870 0.1870 0.1860
14.877958 0.1860 0.1860 0.1860 0.1860 0.1860
14.903000 0.1850 0.1850 0.1850 0.1840 0.1840
14.927958 0.1840 0.1820 0.1820 0.1820 0.1820
14.953000 0.1820 0.1820 0.1840 0.1840 0.1840
14.977958 0.1840 0.1840 0.1840 0.1840 0.1840
##END=
