##TITLE=Pyrimido[5,4-e]-as-triazine, 5-chloro-1,4-dihydro-1,4-dimethyl-, monohydrochloride
##JCAMP-DX=4.24
##DATA TYPE=INFRARED SPECTRUM
##CLASS=COBLENTZ III
##ORIGIN=SOUTHERN RESEARCH INSTITUTE
##OWNER=Copyright (C) 1987 by the Coblentz Society
Collection (C) 2018 copyright by the U.S. Secretary of Commerce
on behalf of the United States of America. All rights reserved.
##DATE=1962/03/16
##MOLFORM=C7 H9 Cl2 N5
##SOURCE REFERENCE=COBLENTZ NO. 8673
##$NIST ID=B6008673
##$NIST SOURCE=COBLENTZ
##$NIST IMAGE=cob8673
##SPECTROMETER/DATA SYSTEM=PERKIN-ELMER 221 (GRATING)
##INSTRUMENT PARAMETERS=FILTER AT 2490, 980 CM^-^1. GRATING 4000-1428 CM^-^1, NaCl PRISM 1428-650 CM^-^1
##STATE=SOLID (1 mg / 650 mg KBr DISC)
##SAMPLING PROCEDURE=TRANSMISSION
##RESOLUTION=2
##DATA PROCESSING=DIGITIZED BY COBLENTZ SOCIETY (BATCH II) FROM HARD COPY (ADJUSTED \subtractcm-1\misc\)
##XUNITS=1/CM
##YUNITS=TRANSMITTANCE
##XFACTOR=1.0
##YFACTOR=1
##DELTAX=1.030639
##FIRSTX=638.691
##LASTX=4006.82
##FIRSTY=0.945
##MAXX=4006.82
##MINX=638.691
##MAXY=0.957025
##MINY=0.0618
##NPOINTS=3269
##XYDATA=(X++(Y..Y))
638.691429 0.9450 0.9451 0.9451 0.9451 0.9451
643.844626 0.9452 0.9454 0.9455 0.9457 0.9458
648.997823 0.9460 0.9461 0.9463 0.9464 0.9465
654.151021 0.9467 0.9468 0.9469 0.9468 0.9474
659.304218 0.9476 0.9479 0.9482 0.9485 0.9487
664.457415 0.9490 0.9493 0.9496 0.9500 0.9505
669.610613 0.9509 0.9514 0.9519 0.9523 0.9528
674.763810 0.9533 0.9538 0.9543 0.9549 0.9553
679.917007 0.9556 0.9559 0.9562 0.9564 0.9565
685.070205 0.9567 0.9569 0.9570 0.9570 0.9567
690.223402 0.9564 0.9561 0.9559 0.9556 0.9553
695.376599 0.9550 0.9545 0.9541 0.9537 0.9532
700.529797 0.9528 0.9524 0.9519 0.9514 0.9508
705.682994 0.9502 0.9496 0.9490 0.9484 0.9478
710.836191 0.9471 0.9463 0.9454 0.9446 0.9438
715.989389 0.9428 0.9416 0.9404 0.9392 0.9379
721.142586 0.9363 0.9342 0.9321 0.9300 0.9278
726.295783 0.9251 0.9215 0.9180 0.9143 0.9103
731.448981 0.9061 0.9015 0.8961 0.8904 0.8837
736.602178 0.8743 0.8539 0.8239 0.7939 0.7639
741.755375 0.7340 0.6949 0.6584 0.6594 0.6597
746.908573 0.6710 0.7076 0.7567 0.8058 0.8505
752.061770 0.8712 0.8711 0.8711 0.8691 0.8636
757.214967 0.8405 0.7797 0.6981 0.6164 0.5348
762.368165 0.4532 0.3716 0.3274 0.3214 0.3619
767.521362 0.4297 0.5006 0.5715 0.6423 0.7132
772.674560 0.7841 0.8550 0.9099 0.9292 0.9374
777.827757 0.9441 0.9498 0.9523 0.9540 0.9551
782.980954 0.9554 0.9555 0.9556 0.9553 0.9542
788.134152 0.9547 0.9542 0.9536 0.9530 0.9524
793.287349 0.9515 0.9500 0.9484 0.9470 0.9455
798.440546 0.9442 0.9428 0.9408 0.9388 0.9368
803.593744 0.9348 0.9327 0.9301 0.9277 0.9251
808.746941 0.9222 0.9191 0.9160 0.9129 0.9097
813.900138 0.9065 0.9030 0.8994 0.8957 0.8914
819.053336 0.8861 0.8802 0.8708 0.8393 0.7954
824.206533 0.7875 0.7849 0.7831 0.7876 0.7994
829.359730 0.8150 0.8272 0.8315 0.8312 0.8307
834.512928 0.8286 0.8233 0.8165 0.8096 0.8028
839.666125 0.7959 0.7905 0.7887 0.7882 0.7884
844.819322 0.7890 0.7898 0.7912 0.7934 0.8005
849.972520 0.8168 0.8360 0.8551 0.8642 0.8699
855.125717 0.8728 0.8751 0.8764 0.8773 0.8781
860.278914 0.8786 0.8788 0.8786 0.8784 0.8783
865.432112 0.8777 0.8769 0.8761 0.8794 0.8741
870.585309 0.8724 0.8705 0.8685 0.8665 0.8642
875.738506 0.8620 0.8597 0.8574 0.8551 0.8526
880.891704 0.8500 0.8474 0.8447 0.8422 0.8400
886.044901 0.8379 0.8360 0.8358 0.8369 0.8388
891.198098 0.8422 0.8475 0.8530 0.8591 0.8658
896.351296 0.8734 0.8820 0.8906 0.8982 0.9052
901.504493 0.9108 0.9142 0.9163 0.9173 0.9183
906.657690 0.9192 0.9197 0.9202 0.9207 0.9212
911.810888 0.9215 0.9214 0.9212 0.9210 0.9209
916.964085 0.9206 0.9200 0.9195 0.9189 0.9183
922.117282 0.9218 0.9192 0.9162 0.9153 0.9145
927.270480 0.9136 0.9127 0.9116 0.9103 0.9090
932.423677 0.9078 0.9065 0.9049 0.9031 0.9013
937.576875 0.8995 0.8976 0.8958 0.8939 0.8919
942.730072 0.8900 0.8884 0.8876 0.8870 0.8863
947.883269 0.8868 0.8873 0.8889 0.8911 0.8940
953.036467 0.8970 0.9006 0.9045 0.9110 0.9150
958.189664 0.9167 0.9172 0.9175 0.9174 0.9172
963.342861 0.9168 0.9165 0.9161 0.9152 0.9141
968.496059 0.9130 0.9119 0.9109 0.9098 0.9087
973.649256 0.9076 0.9064 0.9054 0.9043 0.9034
978.802453 0.9028 0.9022 0.9016 0.9009 0.9006
983.955651 0.9007 0.9007 0.9007 0.9008 0.9009
989.108848 0.9010 0.9013 0.9015 0.9015 0.9014
994.262045 0.9013 0.9011 0.9008 0.9001 0.8993
999.415243 0.8984 0.8972 0.8959 0.8944 0.8928
1004.568440 0.8910 0.8893 0.8879 0.8864 0.8849
1009.721637 0.8830 0.8809 0.8788 0.8765 0.8737
1014.874835 0.8725 0.8726 0.8729 0.8734 0.8741
1020.028032 0.8748 0.8762 0.8778 0.8795 0.8812
1025.181229 0.8827 0.8837 0.8843 0.8846 0.8847
1030.334427 0.8848 0.8848 0.8846 0.8844 0.8841
1035.487624 0.8837 0.8831 0.8824 0.8816 0.8809
1040.640821 0.8800 0.8789 0.8777 0.8765 0.8754
1045.794019 0.8741 0.8729 0.8715 0.8701 0.8688
1050.947216 0.8674 0.8660 0.8646 0.8629 0.8608
1056.100413 0.8585 0.8562 0.8526 0.8482 0.8438
1061.253611 0.8388 0.8331 0.8272 0.8212 0.8142
1066.406808 0.8066 0.7988 0.7911 0.7833 0.7755
1071.560005 0.7675 0.7594 0.7505 0.7377 0.7202
1076.713203 0.7011 0.6821 0.6630 0.6440 0.6249
1081.866400 0.6059 0.5868 0.5611 0.5396 0.5337
1087.019597 0.5314 0.5314 0.5315 0.5327 0.5362
1092.172795 0.5466 0.5733 0.6100 0.6466 0.6833
1097.325992 0.7200 0.7545 0.7796 0.7916 0.7963
1102.479190 0.7997 0.8019 0.8002 0.8003 0.8001
1107.632387 0.7991 0.7973 0.7945 0.7918 0.7888
1112.785584 0.7846 0.7796 0.7743 0.7680 0.7601
1117.938782 0.7494 0.7387 0.7281 0.7173 0.7067
1123.091979 0.6960 0.6853 0.6746 0.6639 0.6532
1128.245176 0.6413 0.6299 0.6313 0.6321 0.6354
1133.398374 0.6489 0.6719 0.6949 0.7179 0.7410
1138.551571 0.7630 0.7769 0.7766 0.7764 0.7762
1143.704768 0.7761 0.7760 0.7759 0.7758 0.7762
1148.857966 0.7771 0.7780 0.7796 0.7816 0.7837
1154.011163 0.7868 0.7901 0.7929 0.7946 0.7962
1159.164360 0.7975 0.7970 0.7964 0.7952 0.7938
1164.317558 0.7925 0.7912 0.7899 0.7887 0.7878
1169.470755 0.7875 0.7888 0.7903 0.7920 0.7949
1174.623952 0.7979 0.8025 0.8072 0.8118 0.8230
1179.777150 0.8324 0.8404 0.8474 0.8486 0.8485
1184.930347 0.8484 0.8483 0.8482 0.8481 0.8485
1190.083544 0.8476 0.8471 0.8468 0.8462 0.8453
1195.236742 0.8444 0.8433 0.8419 0.8404 0.8389
1200.389939 0.8369 0.8349 0.8328 0.8307 0.8283
1205.543136 0.8258 0.8232 0.8206 0.8179 0.8153
1210.696334 0.8124 0.8096 0.8068 0.8039 0.8009
1215.849531 0.7963 0.7913 0.7863 0.7811 0.7758
1221.002728 0.7704 0.7647 0.7581 0.7513 0.7422
1226.155926 0.7306 0.7124 0.6939 0.6760 0.6700
1231.309123 0.6698 0.6668 0.6710 0.6762 0.6807
1236.462320 0.7090 0.7293 0.7416 0.7539 0.7662
1241.615518 0.7785 0.7847 0.7860 0.7861 0.7874
1246.768715 0.7867 0.7859 0.7854 0.7846 0.7831
1251.921912 0.7806 0.7773 0.7733 0.7682 0.7580
1257.075110 0.7465 0.7365 0.7269 0.7178 0.7091
1262.228307 0.6829 0.6518 0.6273 0.6028 0.5782
1267.381504 0.5537 0.5291 0.5046 0.4839 0.4755
1272.534702 0.4759 0.4759 0.4794 0.5002 0.5335
1277.687899 0.5667 0.6000 0.6302 0.6473 0.6522
1282.841097 0.6549 0.6565 0.6572 0.6568 0.6566
1287.994294 0.6571 0.6564 0.6544 0.6503 0.6440
1293.147491 0.6362 0.6281 0.6201 0.6120 0.6040
1298.300689 0.5960 0.5880 0.5800 0.5719 0.5640
1303.453886 0.5559 0.5507 0.5495 0.5498 0.5547
1308.607083 0.5686 0.5876 0.6066 0.6257 0.6447
1313.760281 0.6637 0.6827 0.7018 0.7138 0.7148
1318.913478 0.7144 0.7171 0.7182 0.7126 0.7115
1324.066675 0.7101 0.7084 0.7063 0.7035 0.7002
1329.219873 0.6965 0.6917 0.6864 0.6814 0.6769
1334.373070 0.6724 0.6670 0.6593 0.6505 0.6412
1339.526267 0.6310 0.6071 0.5711 0.5543 0.5247
1344.679465 0.4896 0.4545 0.4194 0.3842 0.3574
1349.832662 0.3512 0.3508 0.3619 0.3954 0.4151
1354.985859 0.4348 0.4544 0.4741 0.4937 0.5134
1360.139057 0.5330 0.5483 0.5528 0.5522 0.5440
1365.292254 0.5389 0.5300 0.5214 0.5149 0.5085
1370.445451 0.5021 0.4955 0.4884 0.4803 0.4630
1375.598649 0.4233 0.3649 0.3066 0.2503 0.2130
1380.751846 0.2131 0.2133 0.2179 0.2384 0.2598
1385.905043 0.2812 0.3026 0.3240 0.3454 0.3668
1391.058241 0.3882 0.4096 0.4310 0.4484 0.4507
1396.211438 0.4534 0.4562 0.4590 0.4632 0.4758
1401.364635 0.4972 0.5163 0.5299 0.5451 0.5823
1406.517833 0.6547 0.6748 0.6933 0.7160 0.7293
1411.671030 0.7345 0.7382 0.7394 0.7400 0.7388
1416.824227 0.7380 0.7366 0.7352 0.7329 0.7296
1421.977425 0.7265 0.7233 0.7190 0.7104 0.6888
1427.130622 0.6787 0.6712 0.6661 0.6609 0.6557
1432.283819 0.6501 0.6448 0.6428 0.6413 0.6386
1437.437017 0.6348 0.6268 0.6137 0.6027 0.5941
1442.590214 0.5877 0.5818 0.5790 0.5761 0.5733
1447.743412 0.5707 0.5686 0.5664 0.5642 0.5620
1452.896609 0.5597 0.5572 0.5541 0.5509 0.5478
1458.049806 0.5432 0.5385 0.5338 0.5281 0.5219
1463.203004 0.5153 0.5018 0.4873 0.4727 0.4580
1468.356201 0.4435 0.4289 0.4143 0.3997 0.3851
1473.509398 0.3703 0.3564 0.3416 0.3233 0.3096
1478.662596 0.2968 0.2859 0.2725 0.2455 0.2247
1483.815793 0.2081 0.1989 0.1898 0.1807 0.1696
1488.968990 0.1580 0.1503 0.1438 0.1374 0.1314
1494.122188 0.1276 0.1237 0.1199 0.1160 0.1128
1499.275385 0.1100 0.1071 0.1052 0.1045 0.1039
1504.428582 0.1033 0.1010 0.1060 0.1287 0.1549
1509.581780 0.1813 0.2077 0.2340 0.2604 0.2868
1514.734977 0.3132 0.3395 0.3659 0.3923 0.4186
1519.888174 0.4450 0.4714 0.4856 0.4851 0.4831
1525.041372 0.4799 0.4559 0.4292 0.4024 0.3756
1530.194569 0.3488 0.3221 0.2953 0.2685 0.2417
1535.347766 0.2149 0.1881 0.1613 0.1346 0.1077
1540.500964 0.0810 0.0646 0.0619 0.0618 0.0630
1545.654161 0.0624 0.0634 0.0659 0.0717 0.0945
1550.807358 0.1050 0.1101 0.1213 0.1514 0.1858
1555.960556 0.2201 0.2545 0.2889 0.3233 0.3577
1561.113753 0.3920 0.4264 0.4451 0.4491 0.4508
1566.266950 0.4508 0.4512 0.4425 0.4227 0.4005
1571.420148 0.3781 0.3558 0.3336 0.3279 0.3267
1576.573345 0.3425 0.3677 0.3942 0.4207 0.4472
1581.726542 0.4737 0.5001 0.5266 0.5532 0.5797
1586.879740 0.6062 0.6327 0.6592 0.6791 0.6904
1592.032937 0.6993 0.7077 0.7160 0.7243 0.7326
1597.186134 0.7409 0.7501 0.7611 0.7727 0.7807
1602.339332 0.7864 0.7917 0.7971 0.8019 0.8050
1607.492529 0.8076 0.8102 0.8128 0.8143 0.8155
1612.645727 0.8167 0.8164 0.8171 0.8174 0.8172
1617.798924 0.8171 0.8168 0.8161 0.8154 0.8147
1622.952121 0.8139 0.8129 0.8114 0.8097 0.8079
1628.105319 0.8062 0.8045 0.8029 0.8000 0.7960
1633.258516 0.7918 0.7797 0.7660 0.7418 0.7102
1638.411713 0.6743 0.6367 0.5991 0.5615 0.5238
1643.564911 0.4862 0.4486 0.4110 0.3734 0.3357
1648.718108 0.2981 0.2773 0.2730 0.2732 0.3100
1653.871305 0.4384 0.6053 0.7440 0.7927 0.8003
1659.024503 0.8074 0.8140 0.8202 0.8264 0.8332
1664.177700 0.8409 0.8487 0.8556 0.8619 0.8681
1669.330897 0.8737 0.8789 0.8841 0.8878 0.8903
1674.484095 0.8926 0.8949 0.8967 0.8977 0.8985
1679.637292 0.9047 0.9030 0.8997 0.8995 0.8993
1684.790489 0.8991 0.8989 0.8985 0.8979 0.8974
1689.943687 0.8968 0.8962 0.8954 0.8945 0.8936
1695.096884 0.8928 0.8919 0.8911 0.8900 0.8889
1700.250081 0.8878 0.8867 0.8856 0.8846 0.8835
1705.403279 0.8822 0.8808 0.8794 0.8781 0.8767
1710.556476 0.8753 0.8739 0.8724 0.8709 0.8694
1715.709673 0.8679 0.8663 0.8648 0.8632 0.8615
1720.862871 0.8597 0.8579 0.8562 0.8543 0.8523
1726.016068 0.8504 0.8485 0.8465 0.8446 0.8427
1731.169265 0.8407 0.8387 0.8368 0.8348 0.8328
1736.322463 0.8308 0.8288 0.8269 0.8251 0.8232
1741.475660 0.8214 0.8195 0.8177 0.8158 0.8139
1746.628857 0.8121 0.8102 0.8083 0.8063 0.8042
1751.782055 0.8021 0.8000 0.7979 0.7957 0.7935
1756.935252 0.7913 0.7891 0.7871 0.7860 0.7856
1762.088449 0.7835 0.7853 0.7891 0.7908 0.7927
1767.241647 0.7949 0.7975 0.8005 0.8037 0.8072
1772.394844 0.8107 0.8142 0.8177 0.8212 0.8247
1777.548042 0.8281 0.8315 0.8345 0.8371 0.8397
1782.701239 0.8423 0.8449 0.8475 0.8501 0.8526
1787.854436 0.8548 0.8569 0.8590 0.8612 0.8633
1793.007634 0.8652 0.8665 0.8675 0.8684 0.8694
1798.160831 0.8704 0.8714 0.8724 0.8731 0.8736
1803.314028 0.8740 0.8745 0.8749 0.8754 0.8759
1808.467226 0.8763 0.8767 0.8769 0.8771 0.8774
1813.620423 0.8776 0.8778 0.8779 0.8780 0.8781
1818.773620 0.8782 0.8783 0.8801 0.8805 0.8785
1823.926818 0.8783 0.8780 0.8778 0.8776 0.8773
1829.080015 0.8771 0.8768 0.8766 0.8762 0.8755
1834.233212 0.8749 0.8743 0.8736 0.8730 0.8724
1839.386410 0.8716 0.8706 0.8693 0.8681 0.8669
1844.539607 0.8656 0.8644 0.8631 0.8617 0.8601
1849.692804 0.8586 0.8570 0.8554 0.8538 0.8523
1854.846002 0.8507 0.8489 0.8468 0.8447 0.8426
1859.999199 0.8405 0.8384 0.8362 0.8338 0.8313
1865.152396 0.8288 0.8262 0.8238 0.8217 0.8196
1870.305594 0.8180 0.8174 0.8173 0.8155 0.8149
1875.458791 0.8181 0.8190 0.8200 0.8214 0.8228
1880.611988 0.8245 0.8271 0.8304 0.8345 0.8389
1885.765186 0.8427 0.8458 0.8486 0.8507 0.8521
1890.918383 0.8530 0.8540 0.8549 0.8558 0.8566
1896.071580 0.8571 0.8575 0.8580 0.8584 0.8589
1901.224778 0.8593 0.8598 0.8602 0.8605 0.8609
1906.377975 0.8613 0.8617 0.8620 0.8624 0.8628
1911.531172 0.8631 0.8634 0.8636 0.8639 0.8668
1916.684370 0.8693 0.8646 0.8649 0.8650 0.8651
1921.837567 0.8650 0.8648 0.8647 0.8646 0.8645
1926.990764 0.8644 0.8643 0.8639 0.8631 0.8623
1932.143962 0.8615 0.8607 0.8599 0.8590 0.8577
1937.297159 0.8563 0.8548 0.8534 0.8519 0.8503
1942.450357 0.8484 0.8466 0.8447 0.8428 0.8410
1947.603554 0.8391 0.8371 0.8353 0.8338 0.8331
1952.756751 0.8324 0.8316 0.8309 0.8303 0.8302
1957.909949 0.8304 0.8305 0.8294 0.8282 0.8314
1963.063146 0.8318 0.8322 0.8326 0.8330 0.8334
1968.216343 0.8337 0.8341 0.8345 0.8351 0.8359
1973.369541 0.8368 0.8376 0.8384 0.8392 0.8400
1978.522738 0.8409 0.8417 0.8425 0.8434 0.8442
1983.675935 0.8445 0.8442 0.8439 0.8437 0.8432
1988.829133 0.8426 0.8420 0.8415 0.8409 0.8403
1993.982330 0.8396 0.8385 0.8375 0.8365 0.8354
1999.135527 0.8344 0.8335 0.8327 0.8319 0.8311
2004.288725 0.8303 0.8297 0.8292 0.8287 0.8281
2009.441922 0.8276 0.8270 0.8277 0.8296 0.8254
2014.595119 0.8249 0.8243 0.8238 0.8233 0.8227
2019.748317 0.8222 0.8216 0.8210 0.8205 0.8199
2024.901514 0.8194 0.8188 0.8182 0.8177 0.8171
2030.054711 0.8165 0.8160 0.8154 0.8149 0.8143
2035.207909 0.8137 0.8132 0.8126 0.8120 0.8115
2040.361106 0.8109 0.8103 0.8097 0.8091 0.8085
2045.514303 0.8079 0.8073 0.8067 0.8061 0.8055
2050.667501 0.8048 0.8041 0.8033 0.8024 0.8014
2055.820698 0.8005 0.7995 0.7986 0.7976 0.7967
2060.973895 0.7957 0.7948 0.7938 0.7929 0.7919
2066.127093 0.7906 0.7891 0.7876 0.7861 0.7846
2071.280290 0.7831 0.7816 0.7801 0.7786 0.7771
2076.433487 0.7756 0.7740 0.7727 0.7721 0.7717
2081.586685 0.7712 0.7708 0.7703 0.7698 0.7694
2086.739882 0.7689 0.7685 0.7680 0.7676 0.7671
2091.893079 0.7666 0.7662 0.7657 0.7648 0.7638
2097.046277 0.7629 0.7619 0.7608 0.7595 0.7575
2102.199474 0.7554 0.7536 0.7519 0.7502 0.7485
2107.352672 0.7469 0.7452 0.7435 0.7418 0.7401
2112.505869 0.7385 0.7370 0.7355 0.7340 0.7324
2117.659066 0.7309 0.7294 0.7279 0.7264 0.7249
2122.812264 0.7235 0.7225 0.7215 0.7205 0.7195
2127.965461 0.7185 0.7175 0.7164 0.7154 0.7144
2133.118658 0.7134 0.7124 0.7114 0.7104 0.7094
2138.271856 0.7085 0.7075 0.7065 0.7055 0.7045
2143.425053 0.7036 0.7026 0.7016 0.7006 0.6997
2148.578250 0.6987 0.6977 0.6967 0.6957 0.6946
2153.731448 0.6934 0.6923 0.6912 0.6901 0.6890
2158.884645 0.6879 0.6868 0.6857 0.6846 0.6835
2164.037842 0.6823 0.6811 0.6799 0.6787 0.6775
2169.191040 0.6763 0.6751 0.6739 0.6727 0.6715
2174.344237 0.6703 0.6691 0.6680 0.6668 0.6656
2179.497434 0.6644 0.6632 0.6620 0.6608 0.6597
2184.650632 0.6585 0.6573 0.6562 0.6551 0.6539
2189.803829 0.6528 0.6516 0.6505 0.6493 0.6482
2194.957026 0.6470 0.6458 0.6447 0.6435 0.6424
2200.110224 0.6412 0.6401 0.6389 0.6378 0.6367
2205.263421 0.6355 0.6344 0.6332 0.6321 0.6310
2210.416618 0.6298 0.6287 0.6275 0.6264 0.6253
2215.569816 0.6241 0.6230 0.6218 0.6207 0.6196
2220.723013 0.6184 0.6173 0.6161 0.6153 0.6145
2225.876210 0.6138 0.6130 0.6123 0.6115 0.6107
2231.029408 0.6100 0.6092 0.6085 0.6077 0.6070
2236.182605 0.6066 0.6061 0.6057 0.6053 0.6049
2241.335802 0.6044 0.6040 0.6036 0.6032 0.6028
2246.489000 0.6023 0.6019 0.6014 0.6005 0.5996
2251.642197 0.5988 0.5979 0.5971 0.5962 0.5953
2256.795394 0.5945 0.5936 0.5925 0.5913 0.5901
2261.948592 0.5889 0.5877 0.5865 0.5852 0.5840
2267.101789 0.5827 0.5814 0.5802 0.5789 0.5776
2272.254987 0.5764 0.5751 0.5738 0.5726 0.5714
2277.408184 0.5702 0.5690 0.5678 0.5666 0.5654
2282.561381 0.5642 0.5630 0.5618 0.5606 0.5595
2287.714579 0.5583 0.5571 0.5560 0.5549 0.5539
2292.867776 0.5529 0.5518 0.5508 0.5498 0.5487
2298.020973 0.5477 0.5467 0.5456 0.5446 0.5436
2303.174171 0.5425 0.5416 0.5408 0.5399 0.5391
2308.327368 0.5382 0.5373 0.5365 0.5356 0.5348
2313.480565 0.5339 0.5331 0.5322 0.5313 0.5305
2318.633763 0.5296 0.5288 0.5279 0.5271 0.5262
2323.786960 0.5253 0.5245 0.5237 0.5229 0.5222
2328.940157 0.5214 0.5207 0.5199 0.5191 0.5184
2334.093355 0.5176 0.5169 0.5161 0.5154 0.5146
2339.246552 0.5139 0.5131 0.5124 0.5116 0.5109
2344.399749 0.5102 0.5096 0.5090 0.5085 0.5080
2349.552947 0.5074 0.5068 0.5063 0.5058 0.5052
2354.706144 0.5046 0.5041 0.5036 0.5030 0.5025
2359.859341 0.5023 0.5022 0.5021 0.5020 0.5019
2365.012539 0.5018 0.5017 0.5016 0.5015 0.5013
2370.165736 0.5012 0.5011 0.5010 0.5009 0.5008
2375.318933 0.5007 0.5006 0.5005 0.5004 0.5003
2380.472131 0.5002 0.5001 0.4999 0.4998 0.4997
2385.625328 0.4997 0.4997 0.4997 0.4997 0.4997
2390.778525 0.4997 0.4997 0.4997 0.4997 0.4997
2395.931723 0.4997 0.4997 0.4997 0.4997 0.4998
2401.084920 0.4998 0.4999 0.4999 0.5000 0.5000
2406.238117 0.5001 0.5001 0.5002 0.5002 0.5002
2411.391315 0.5003 0.4992 0.5001 0.5004 0.5005
2416.544512 0.5005 0.5006 0.5006 0.5007 0.5007
2421.697709 0.5008 0.5008 0.5009 0.5010 0.5011
2426.850907 0.5011 0.5012 0.5013 0.5013 0.5014
2432.004104 0.5015 0.5016 0.5016 0.5017 0.5018
2437.157302 0.5018 0.5019 0.5020 0.5021 0.5021
2442.310499 0.5022 0.5023 0.5023 0.5024 0.5025
2447.463696 0.5026 0.5026 0.5025 0.5024 0.5023
2452.616894 0.5022 0.5021 0.5020 0.5019 0.5018
2457.770091 0.5017 0.5016 0.5015 0.5014 0.5013
2462.923288 0.5012 0.5011 0.5010 0.5009 0.5008
2468.076486 0.5007 0.5006 0.5005 0.5004 0.5003
2473.229683 0.5002 0.5001 0.5000 0.4999 0.4998
2478.382880 0.4997 0.4996 0.4995 0.4993 0.4990
2483.536078 0.4988 0.4985 0.4983 0.4980 0.4978
2488.689275 0.4976 0.4973 0.4971 0.4968 0.4966
2493.842472 0.4963 0.4961 0.4959 0.4956 0.4954
2498.995670 0.4951 0.4948 0.4944 0.4940 0.4936
2504.148867 0.4931 0.4927 0.4923 0.4918 0.4914
2509.302064 0.4909 0.4905 0.4901 0.4896 0.4892
2514.455262 0.4888 0.4883 0.4879 0.4874 0.4867
2519.608459 0.4861 0.4854 0.4848 0.4841 0.4835
2524.761656 0.4828 0.4822 0.4815 0.4809 0.4802
2529.914854 0.4796 0.4789 0.4783 0.4776 0.4770
2535.068051 0.4763 0.4757 0.4750 0.4743 0.4737
2540.221248 0.4731 0.4724 0.4717 0.4710 0.4704
2545.374446 0.4697 0.4690 0.4685 0.4681 0.4678
2550.527643 0.4675 0.4672 0.4669 0.4666 0.4663
2555.680840 0.4659 0.4656 0.4653 0.4650 0.4647
2560.834038 0.4645 0.4643 0.4641 0.4639 0.4637
2565.987235 0.4635 0.4632 0.4630 0.4628 0.4627
2571.140432 0.4625 0.4622 0.4622 0.4623 0.4625
2576.293630 0.4628 0.4630 0.4632 0.4634 0.4637
2581.446827 0.4639 0.4640 0.4642 0.4643 0.4645
2586.600024 0.4647 0.4648 0.4650 0.4651 0.4653
2591.753222 0.4654 0.4656 0.4655 0.4653 0.4652
2596.906419 0.4650 0.4649 0.4647 0.4645 0.4644
2602.059617 0.4642 0.4640 0.4640 0.4641 0.4641
2607.212814 0.4641 0.4641 0.4642 0.4642 0.4642
2612.366011 0.4643 0.4643 0.4643 0.4643 0.4645
2617.519209 0.4648 0.4651 0.4655 0.4659 0.4665
2622.672406 0.4671 0.4677 0.4684 0.4690 0.4697
2627.825603 0.4704 0.4713 0.4722 0.4731 0.4742
2632.978801 0.4754 0.4766 0.4778 0.4790 0.4802
2638.131998 0.4815 0.4827 0.4839 0.4853 0.4868
2643.285195 0.4885 0.4901 0.4918 0.4934 0.4951
2648.438393 0.4967 0.4983 0.5000 0.5016 0.5031
2653.591590 0.5047 0.5062 0.5077 0.5091 0.5106
2658.744787 0.5120 0.5135 0.5149 0.5163 0.5176
2663.897985 0.5188 0.5196 0.5200 0.5205 0.5209
2669.051182 0.5214 0.5219 0.5223 0.5227 0.5232
2674.204379 0.5236 0.5241 0.5245 0.5249 0.5254
2679.357577 0.5258 0.5263 0.5267 0.5271 0.5275
2684.510774 0.5280 0.5284 0.5288 0.5292 0.5297
2689.663971 0.5301 0.5305 0.5309 0.5314 0.5318
2694.817169 0.5322 0.5326 0.5331 0.5336 0.5341
2699.970366 0.5346 0.5351 0.5357 0.5362 0.5367
2705.123563 0.5372 0.5377 0.5382 0.5387 0.5392
2710.276761 0.5397 0.5402 0.5408 0.5414 0.5419
2715.429958 0.5425 0.5431 0.5436 0.5442 0.5448
2720.583155 0.5454 0.5459 0.5465 0.5472 0.5479
2725.736353 0.5487 0.5495 0.5502 0.5510 0.5517
2730.889550 0.5525 0.5533 0.5540 0.5548 0.5555
2736.042747 0.5564 0.5575 0.5588 0.5601 0.5615
2741.195945 0.5628 0.5641 0.5654 0.5667 0.5681
2746.349142 0.5694 0.5707 0.5721 0.5736 0.5752
2751.502339 0.5769 0.5786 0.5803 0.5819 0.5836
2756.655537 0.5853 0.5870 0.5890 0.5909 0.5928
2761.808734 0.5947 0.5966 0.5981 0.5994 0.6007
2766.961932 0.6020 0.6033 0.6044 0.6051 0.6057
2772.115129 0.6064 0.6071 0.6078 0.6085 0.6091
2777.268326 0.6095 0.6098 0.6101 0.6105 0.6108
2782.421524 0.6111 0.6114 0.6118 0.6121 0.6124
2787.574721 0.6127 0.6130 0.6132 0.6135 0.6137
2792.727918 0.6140 0.6142 0.6144 0.6145 0.6146
2797.881116 0.6147 0.6149 0.6150 0.6151 0.6152
2803.034313 0.6154 0.6174 0.6193 0.6158 0.6159
2808.187510 0.6161 0.6162 0.6159 0.6153 0.6148
2813.340708 0.6143 0.6138 0.6131 0.6117 0.6101
2818.493905 0.6085 0.6068 0.6052 0.6035 0.6018
2823.647102 0.6001 0.5986 0.5975 0.5966 0.5956
2828.800300 0.5936 0.5917 0.5938 0.5943 0.5947
2833.953497 0.5951 0.5959 0.5976 0.5996 0.6018
2839.106694 0.6051 0.6088 0.6120 0.6148 0.6174
2844.259892 0.6189 0.6197 0.6204 0.6211 0.6215
2849.413089 0.6218 0.6221 0.6225 0.6228 0.6231
2854.566286 0.6234 0.6238 0.6243 0.6248 0.6255
2859.719484 0.6263 0.6273 0.6283 0.6294 0.6307
2864.872681 0.6320 0.6333 0.6348 0.6363 0.6379
2870.025878 0.6398 0.6418 0.6431 0.6442 0.6453
2875.179076 0.6464 0.6475 0.6484 0.6491 0.6498
2880.332273 0.6505 0.6512 0.6516 0.6518 0.6520
2885.485470 0.6522 0.6523 0.6533 0.6551 0.6528
2890.638668 0.6529 0.6529 0.6528 0.6528 0.6528
2895.791865 0.6528 0.6527 0.6525 0.6522 0.6520
2900.945062 0.6518 0.6515 0.6513 0.6510 0.6503
2906.098260 0.6496 0.6488 0.6481 0.6474 0.6466
2911.251457 0.6454 0.6439 0.6425 0.6411 0.6396
2916.404654 0.6379 0.6361 0.6344 0.6326 0.6306
2921.557852 0.6278 0.6250 0.6222 0.6195 0.6169
2926.711049 0.6142 0.6111 0.6067 0.6025 0.6006
2931.864246 0.5990 0.5985 0.5984 0.5984 0.5983
2937.017444 0.5986 0.5988 0.5990 0.5993 0.5996
2942.170641 0.5999 0.6001 0.6004 0.6007 0.6009
2947.323839 0.6011 0.6012 0.6014 0.6016 0.6017
2952.477036 0.6015 0.6012 0.6010 0.6007 0.6005
2957.630233 0.6002 0.5998 0.5993 0.5987 0.5981
2962.783431 0.5975 0.5970 0.5967 0.5966 0.5965
2967.936628 0.5964 0.5963 0.5961 0.5957 0.5951
2973.089825 0.5946 0.5939 0.5925 0.5909 0.5893
2978.243023 0.5876 0.5848 0.5821 0.5793 0.5758
2983.396220 0.5721 0.5685 0.5655 0.5630 0.5603
2988.549417 0.5630 0.5631 0.5640 0.5654 0.5683
2993.702615 0.5724 0.5778 0.5932 0.6378 0.6505
2998.855812 0.6612 0.6693 0.6766 0.6831 0.6880
3004.009009 0.6926 0.6955 0.6983 0.7005 0.7017
3009.162207 0.7029 0.7040 0.7051 0.7055 0.7058
3014.315404 0.7061 0.7064 0.7066 0.7069 0.7072
3019.468601 0.7087 0.7070 0.7069 0.7062 0.7055
3024.621799 0.7046 0.7025 0.6994 0.6962 0.6931
3029.774996 0.6891 0.6850 0.6810 0.6769 0.6728
3034.928193 0.6686 0.6645 0.6602 0.6545 0.6488
3040.081391 0.6433 0.6407 0.6383 0.6360 0.6346
3045.234588 0.6346 0.6346 0.6348 0.6351 0.6353
3050.387785 0.6352 0.6298 0.6369 0.6378 0.6387
3055.540983 0.6399 0.6419 0.6438 0.6465 0.6495
3060.694180 0.6528 0.6571 0.6613 0.6658 0.6710
3065.847377 0.6763 0.6815 0.6873 0.6934 0.6996
3071.000575 0.7056 0.7096 0.7137 0.7178 0.7221
3076.153772 0.7271 0.7333 0.7355 0.7362 0.7368
3081.306969 0.7373 0.7379 0.7382 0.7385 0.7387
3086.460167 0.7390 0.7392 0.7395 0.7399 0.7403
3091.613364 0.7407 0.7412 0.7416 0.7417 0.7418
3096.766561 0.7420 0.7421 0.7423 0.7424 0.7425
3101.919759 0.7427 0.7428 0.7429 0.7430 0.7429
3107.072956 0.7429 0.7428 0.7427 0.7426 0.7426
3112.226154 0.7425 0.7424 0.7424 0.7423 0.7422
3117.379351 0.7422 0.7422 0.7422 0.7422 0.7422
3122.532548 0.7421 0.7421 0.7421 0.7421 0.7421
3127.685746 0.7420 0.7420 0.7419 0.7418 0.7421
3132.838943 0.7423 0.7426 0.7432 0.7437 0.7443
3137.992140 0.7448 0.7456 0.7467 0.7478 0.7490
3143.145338 0.7508 0.7525 0.7534 0.7541 0.7549
3148.298535 0.7557 0.7565 0.7572 0.7575 0.7577
3153.451732 0.7580 0.7582 0.7585 0.7586 0.7585
3158.604930 0.7584 0.7584 0.7583 0.7583 0.7582
3163.758127 0.7582 0.7581 0.7581 0.7580 0.7579
3168.911324 0.7579 0.7578 0.7577 0.7575 0.7574
3174.064522 0.7572 0.7571 0.7570 0.7568 0.7567
3179.217719 0.7565 0.7564 0.7562 0.7561 0.7560
3184.370916 0.7558 0.7557 0.7555 0.7554 0.7553
3189.524114 0.7553 0.7552 0.7552 0.7552 0.7552
3194.677311 0.7552 0.7552 0.7552 0.7551 0.7551
3199.830508 0.7551 0.7551 0.7551 0.7551 0.7551
3204.983706 0.7550 0.7550 0.7550 0.7552 0.7553
3210.136903 0.7555 0.7557 0.7558 0.7560 0.7562
3215.290100 0.7563 0.7565 0.7566 0.7568 0.7568
3220.443298 0.7567 0.7567 0.7566 0.7565 0.7564
3225.596495 0.7563 0.7561 0.7557 0.7553 0.7549
3230.749692 0.7544 0.7540 0.7536 0.7532 0.7527
3235.902890 0.7523 0.7519 0.7515 0.7511 0.7508
3241.056087 0.7504 0.7501 0.7498 0.7494 0.7491
3246.209284 0.7488 0.7484 0.7481 0.7478 0.7474
3251.362482 0.7471 0.7468 0.7465 0.7461 0.7458
3256.515679 0.7455 0.7452 0.7448 0.7445 0.7442
3261.668876 0.7438 0.7435 0.7432 0.7428 0.7425
3266.822074 0.7422 0.7419 0.7415 0.7412 0.7409
3271.975271 0.7404 0.7399 0.7393 0.7388 0.7383
3277.128469 0.7378 0.7373 0.7367 0.7362 0.7357
3282.281666 0.7351 0.7346 0.7340 0.7335 0.7329
3287.434863 0.7323 0.7318 0.7313 0.7309 0.7305
3292.588061 0.7300 0.7296 0.7292 0.7287 0.7284
3297.741258 0.7283 0.7283 0.7282 0.7282 0.7281
3302.894455 0.7281 0.7280 0.7280 0.7280 0.7279
3308.047653 0.7277 0.7273 0.7270 0.7267 0.7263
3313.200850 0.7260 0.7254 0.7248 0.7241 0.7235
3318.354047 0.7228 0.7218 0.7205 0.7190 0.7176
3323.507245 0.7161 0.7146 0.7131 0.7116 0.7102
3328.660442 0.7088 0.7074 0.7061 0.7047 0.7034
3333.813639 0.7020 0.7008 0.6996 0.6984 0.6972
3338.966837 0.6960 0.6948 0.6936 0.6923 0.6911
3344.120034 0.6900 0.6889 0.6878 0.6867 0.6856
3349.273231 0.6845 0.6834 0.6823 0.6813 0.6802
3354.426429 0.6792 0.6781 0.6771 0.6760 0.6749
3359.579626 0.6739 0.6728 0.6717 0.6706 0.6694
3364.732823 0.6683 0.6672 0.6661 0.6650 0.6639
3369.886021 0.6628 0.6617 0.6607 0.6598 0.6589
3375.039218 0.6580 0.6572 0.6563 0.6554 0.6545
3380.192415 0.6536 0.6528 0.6519 0.6510 0.6501
3385.345613 0.6493 0.6485 0.6477 0.6469 0.6461
3390.498810 0.6452 0.6444 0.6436 0.6428 0.6420
3395.652007 0.6411 0.6403 0.6395 0.6387 0.6379
3400.805205 0.6371 0.6364 0.6358 0.6351 0.6345
3405.958402 0.6338 0.6332 0.6326 0.6319 0.6313
3411.111599 0.6307 0.6301 0.6296 0.6291 0.6287
3416.264797 0.6282 0.6278 0.6273 0.6268 0.6264
3421.417994 0.6259 0.6255 0.6252 0.6250 0.6248
3426.571191 0.6245 0.6243 0.6241 0.6239 0.6238
3431.724389 0.6238 0.6239 0.6240 0.6240 0.6241
3436.877586 0.6241 0.6242 0.6243 0.6243 0.6244
3442.030784 0.6245 0.6246 0.6247 0.6248 0.6249
3447.183981 0.6250 0.6251 0.6251 0.6252 0.6253
3452.337178 0.6254 0.6255 0.6256 0.6257 0.6258
3457.490376 0.6259 0.6260 0.6261 0.6263 0.6264
3462.643573 0.6265 0.6267 0.6268 0.6270 0.6271
3467.796770 0.6273 0.6274 0.6275 0.6277 0.6278
3472.949968 0.6280 0.6281 0.6283 0.6286 0.6288
3478.103165 0.6290 0.6292 0.6294 0.6296 0.6299
3483.256362 0.6301 0.6303 0.6305 0.6307 0.6309
3488.409560 0.6312 0.6314 0.6316 0.6318 0.6320
3493.562757 0.6323 0.6326 0.6330 0.6334 0.6338
3498.715954 0.6343 0.6347 0.6351 0.6355 0.6360
3503.869152 0.6364 0.6368 0.6373 0.6378 0.6384
3509.022349 0.6391 0.6398 0.6404 0.6411 0.6418
3514.175546 0.6425 0.6432 0.6439 0.6447 0.6455
3519.328744 0.6463 0.6471 0.6479 0.6487 0.6495
3524.481941 0.6504 0.6513 0.6522 0.6531 0.6540
3529.635138 0.6549 0.6558 0.6567 0.6575 0.6583
3534.788336 0.6592 0.6600 0.6609 0.6617 0.6625
3539.941533 0.6634 0.6642 0.6650 0.6657 0.6665
3545.094730 0.6673 0.6680 0.6688 0.6695 0.6702
3550.247928 0.6709 0.6716 0.6723 0.6730 0.6737
3555.401125 0.6744 0.6750 0.6757 0.6762 0.6767
3560.554322 0.6772 0.6777 0.6782 0.6787 0.6792
3565.707520 0.6796 0.6801 0.6806 0.6811 0.6816
3570.860717 0.6822 0.6828 0.6834 0.6839 0.6845
3576.013914 0.6851 0.6857 0.6863 0.6872 0.6882
3581.167112 0.6892 0.6903 0.6913 0.6923 0.6930
3586.320309 0.6935 0.6940 0.6945 0.6950 0.6955
3591.473506 0.6958 0.6960 0.6962 0.6965 0.6967
3596.626704 0.6969 0.6972 0.6974 0.6977 0.6980
3601.779901 0.6983 0.6986 0.6989 0.6992 0.6996
3606.933099 0.7001 0.7006 0.7011 0.7017 0.7022
3612.086296 0.7027 0.7032 0.7037 0.7042 0.7047
3617.239493 0.7052 0.7057 0.7061 0.7066 0.7071
3622.392691 0.7076 0.7080 0.7084 0.7087 0.7091
3627.545888 0.7095 0.7099 0.7102 0.7106 0.7110
3632.699085 0.7114 0.7117 0.7119 0.7121 0.7123
3637.852283 0.7125 0.7127 0.7129 0.7131 0.7133
3643.005480 0.7136 0.7137 0.7138 0.7138 0.7138
3648.158677 0.7138 0.7138 0.7138 0.7138 0.7138
3653.311875 0.7138 0.7138 0.7138 0.7138 0.7138
3658.465072 0.7138 0.7138 0.7138 0.7138 0.7138
3663.618269 0.7137 0.7137 0.7137 0.7137 0.7137
3668.771467 0.7137 0.7137 0.7137 0.7137 0.7137
3673.924664 0.7137 0.7136 0.7136 0.7136 0.7136
3679.077861 0.7136 0.7135 0.7134 0.7133 0.7133
3684.231059 0.7132 0.7131 0.7130 0.7129 0.7128
3689.384256 0.7128 0.7127 0.7126 0.7125 0.7124
3694.537453 0.7124 0.7123 0.7122 0.7121 0.7120
3699.690651 0.7119 0.7119 0.7118 0.7117 0.7116
3704.843848 0.7115 0.7114 0.7113 0.7112 0.7111
3709.997045 0.7110 0.7109 0.7108 0.7107 0.7106
3715.150243 0.7104 0.7103 0.7102 0.7101 0.7100
3720.303440 0.7099 0.7098 0.7097 0.7096 0.7095
3725.456637 0.7094 0.7093 0.7092 0.7091 0.7090
3730.609835 0.7089 0.7088 0.7087 0.7086 0.7085
3735.763032 0.7084 0.7083 0.7083 0.7083 0.7083
3740.916229 0.7083 0.7083 0.7083 0.7083 0.7083
3746.069427 0.7083 0.7083 0.7083 0.7083 0.7083
3751.222624 0.7083 0.7083 0.7083 0.7083 0.7083
3756.375821 0.7083 0.7083 0.7083 0.7083 0.7083
3761.529019 0.7083 0.7083 0.7083 0.7083 0.7083
3766.682216 0.7082 0.7081 0.7081 0.7080 0.7080
3771.835414 0.7079 0.7079 0.7078 0.7078 0.7077
3776.988611 0.7077 0.7076 0.7076 0.7075 0.7075
3782.141808 0.7074 0.7074 0.7073 0.7073 0.7072
3787.295006 0.7072 0.7071 0.7068 0.7063 0.7058
3792.448203 0.7054 0.7049 0.7044 0.7039 0.7034
3797.601400 0.7030 0.7025 0.7019 0.7012 0.7005
3802.754598 0.6997 0.6990 0.6983 0.6976 0.6974
3807.907795 0.6972 0.6971 0.6969 0.6967 0.6965
3813.060992 0.6963 0.6961 0.6959 0.6957 0.6955
3818.214190 0.6954 0.6952 0.6951 0.6949 0.6948
3823.367387 0.6946 0.6945 0.6943 0.6942 0.6940
3828.520584 0.6939 0.6937 0.6936 0.6934 0.6933
3833.673782 0.6932 0.6931 0.6930 0.6929 0.6928
3838.826979 0.6928 0.6927 0.6926 0.6925 0.6924
3843.980176 0.6923 0.6922 0.6921 0.6920 0.6920
3849.133374 0.6919 0.6918 0.6917 0.6916 0.6915
3854.286571 0.6914 0.6913 0.6912 0.6911 0.6910
3859.439768 0.6910 0.6909 0.6908 0.6907 0.6906
3864.592966 0.6905 0.6904 0.6903 0.6902 0.6901
3869.746163 0.6900 0.6899 0.6898 0.6897 0.6897
3874.899360 0.6896 0.6895 0.6894 0.6893 0.6891
3880.052558 0.6889 0.6888 0.6886 0.6884 0.6882
3885.205755 0.6880 0.6878 0.6876 0.6874 0.6872
3890.358952 0.6870 0.6869 0.6867 0.6865 0.6863
3895.512150 0.6861 0.6859 0.6856 0.6853 0.6849
3900.665347 0.6846 0.6843 0.6839 0.6836 0.6833
3905.818544 0.6830 0.6827 0.6825 0.6824 0.6822
3910.971742 0.6820 0.6819 0.6817 0.6815 0.6814
3916.124939 0.6812 0.6810 0.6809 0.6807 0.6805
3921.278136 0.6805 0.6805 0.6805 0.6805 0.6805
3926.431334 0.6805 0.6805 0.6805 0.6806 0.6806
3931.584531 0.6806 0.6806 0.6806 0.6806 0.6806
3936.737729 0.6806 0.6807 0.6807 0.6807 0.6807
3941.890926 0.6807 0.6807 0.6807 0.6807 0.6808
3947.044123 0.6809 0.6809 0.6810 0.6811 0.6805
3952.197321 0.6813 0.6813 0.6814 0.6815 0.6816
3957.350518 0.6817 0.6817 0.6818 0.6819 0.6820
3962.503715 0.6820 0.6821 0.6822 0.6823 0.6824
3967.656913 0.6824 0.6825 0.6826 0.6827 0.6827
3972.810110 0.6828 0.6829 0.6830 0.6830 0.6831
3977.963307 0.6832 0.6833 0.6833 0.6834 0.6835
3983.116505 0.6836 0.6836 0.6837 0.6838 0.6839
3988.269702 0.6840 0.6841 0.6841 0.6842 0.6843
3993.422899 0.6844 0.6845 0.6846 0.6847 0.6847
3998.576097 0.6848 0.6849 0.6850 0.6851 0.6852
4003.729294 0.6853 0.6853 0.6854 0.6855
##END=
