##TITLE=SODIUM 5-ETHYL-5-(1-METHYLBUTYL) BARBITURATE
##JCAMP-DX=4.24
##DATA TYPE=INFRARED SPECTRUM
##CLASS=COBLENTZ
##ORIGIN=ABBOTT LABORATORIES
##OWNER=COBLENTZ SOCIETY
Collection (C) 2018 copyright by the U.S. Secretary of Commerce
on behalf of the United States of America. All rights reserved.
##DATE=Not specified, most likely prior to 1970
##MOLFORM=C11 H19 N2 O3 Na
##SOURCE REFERENCE=COBLENTZ NO. 675
##$NIST ID=B6000675
##$NIST SOURCE=COBLENTZ
##$NIST IMAGE=cob675
##SPECTROMETER/DATA SYSTEM=Not specified, most likely a grating spectrometer.
##STATE=SOLID (NUJOL MULL)
##SAMPLING PROCEDURE=TRANSMISSION
##RESOLUTION=4
##DATA PROCESSING=DIGITIZED BY NIST FROM HARD COPY
##XUNITS=MICROMETERS
##YUNITS=TRANSMITTANCE
##XFACTOR=1.000000
##YFACTOR=1
##DELTAX=000.006771
##FIRSTX=2.054
##LASTX=15.521
##FIRSTY=0.873
##MAXX=15.521
##MINX=2.054
##MAXY=0.883
##MINY=0.021
##NPOINTS=1990
##XYDATA=(X++(Y..Y))
2.054000 0.8730 0.8730 0.8730 0.8740 0.8730
2.087871 0.8710 0.8710 0.8710 0.8730 0.8740
2.122000 0.8740 0.8740 0.8740 0.8730 0.8730
2.155871 0.8730 0.8740 0.8740 0.8740 0.8760
2.190000 0.8780 0.8780 0.8760 0.8780 0.8780
2.223871 0.8780 0.8780 0.8780 0.8760 0.8760
2.257000 0.8740 0.8740 0.8730 0.8730 0.8740
2.290871 0.8740 0.8740 0.8730 0.8710 0.8690
2.325000 0.8660 0.8630 0.8610 0.8590 0.8580
2.358871 0.8540 0.8510 0.8490 0.8490 0.8480
2.393000 0.8480 0.8480 0.8490 0.8510 0.8510
2.426871 0.8540 0.8580 0.8580 0.8580 0.8580
2.460000 0.8580 0.8580 0.8580 0.8580 0.8560
2.493871 0.8530 0.8510 0.8510 0.8510 0.8510
2.528000 0.8510 0.8530 0.8530 0.8560 0.8610
2.561871 0.8630 0.8640 0.8640 0.8660 0.8660
2.596000 0.8680 0.8680 0.8680 0.8680 0.8680
2.629871 0.8680 0.8660 0.8680 0.8680 0.8680
2.664000 0.8680 0.8660 0.8640 0.8640 0.8630
2.697871 0.8640 0.8640 0.8660 0.8690 0.8690
2.731000 0.8690 0.8640 0.8610 0.8580 0.8560
2.764871 0.8540 0.8540 0.8530 0.8530 0.8510
2.799000 0.8480 0.8460 0.8390 0.8330 0.8230
2.832871 0.8210 0.8180 0.8140 0.8140 0.8130
2.867000 0.8130 0.8110 0.8060 0.8040 0.8030
2.900871 0.8010 0.7990 0.7970 0.7960 0.7920
2.934000 0.7890 0.7840 0.7810 0.7770 0.7740
2.967871 0.7690 0.7660 0.7640 0.7590 0.7510
3.002000 0.7470 0.7460 0.7410 0.7340 0.7270
3.035871 0.7220 0.7170 0.7120 0.7110 0.7070
3.070000 0.7040 0.6960 0.6840 0.6770 0.6790
3.103871 0.6720 0.6440 0.6270 0.6090 0.5990
3.137000 0.5890 0.5750 0.5650 0.5550 0.5490
3.170871 0.5350 0.5290 0.5270 0.5250 0.5250
3.205000 0.5250 0.5290 0.5340 0.5390 0.5420
3.238871 0.5450 0.5500 0.5540 0.5550 0.5550
3.273000 0.5550 0.5540 0.5520 0.5450 0.5390
3.306871 0.5320 0.5300 0.5290 0.5300 0.5350
3.341000 0.5390 0.5390 0.5200 0.4390 0.3970
3.374871 0.3550 0.3080 0.2600 0.1780 0.1450
3.408000 0.1330 0.1210 0.1100 0.1000 0.0710
3.441871 0.0310 0.0250 0.0210 0.0210 0.0210
3.476000 0.0280 0.0400 0.0610 0.0900 0.1250
3.509871 0.1250 0.1300 0.1310 0.1330 0.1330
3.544000 0.1360 0.1760 0.2600 0.3770 0.4870
3.577871 0.5050 0.5550 0.6170 0.6520 0.6670
3.611000 0.6840 0.6960 0.7020 0.7260 0.7320
3.644871 0.7490 0.7540 0.7620 0.7660 0.7670
3.679000 0.7710 0.7720 0.7770 0.7790 0.7810
3.712871 0.7820 0.7820 0.7860 0.7890 0.7940
3.747000 0.7970 0.7970 0.8010 0.8010 0.8030
3.780871 0.8030 0.8030 0.8030 0.8060 0.8060
3.815000 0.8110 0.8110 0.8130 0.8140 0.8180
3.848871 0.8190 0.8190 0.8190 0.8190 0.8190
3.882000 0.8210 0.8230 0.8230 0.8240 0.8280
3.915871 0.8290 0.8310 0.8360 0.8380 0.8390
3.950000 0.8390 0.8390 0.8390 0.8410 0.8410
3.983871 0.8440 0.8460 0.8460 0.8460 0.8480
4.018000 0.8480 0.8480 0.8490 0.8490 0.8490
4.051871 0.8490 0.8490 0.8490 0.8490 0.8490
4.085000 0.8490 0.8490 0.8510 0.8510 0.8510
4.118871 0.8510 0.8510 0.8510 0.8530 0.8540
4.153000 0.8560 0.8580 0.8580 0.8590 0.8610
4.186871 0.8590 0.8590 0.8580 0.8580 0.8580
4.221000 0.8590 0.8580 0.8590 0.8610 0.8640
4.254871 0.8690 0.8710 0.8740 0.8760 0.8790
4.289000 0.8810 0.8830 0.8830 0.8830 0.8830
4.322871 0.8810 0.8790 0.8760 0.8730 0.8710
4.356000 0.8640 0.8630 0.8610 0.8610 0.8610
4.389871 0.8610 0.8610 0.8610 0.8590 0.8590
4.424000 0.8590 0.8610 0.8610 0.8610 0.8610
4.457871 0.8610 0.8610 0.8630 0.8630 0.8630
4.492000 0.8630 0.8610 0.8610 0.8610 0.8610
4.525871 0.8610 0.8610 0.8610 0.8610 0.8610
4.559000 0.8630 0.8610 0.8610 0.8610 0.8610
4.592871 0.8630 0.8630 0.8610 0.8610 0.8610
4.627000 0.8610 0.8590 0.8590 0.8610 0.8610
4.660871 0.8610 0.8590 0.8590 0.8610 0.8630
4.695000 0.8630 0.8630 0.8630 0.8630 0.8630
4.728871 0.8630 0.8610 0.8610 0.8610 0.8590
4.762000 0.8590 0.8610 0.8610 0.8610 0.8610
4.795871 0.8610 0.8610 0.8610 0.8610 0.8610
4.830000 0.8610 0.8630 0.8630 0.8640 0.8640
4.863871 0.8640 0.8640 0.8640 0.8660 0.8660
4.898000 0.8660 0.8660 0.8660 0.8680 0.8660
4.931871 0.8660 0.8660 0.8660 0.8660 0.8660
4.966000 0.8660 0.8680 0.8660 0.8660 0.8680
4.999871 0.8680 0.8690 0.8690 0.8690 0.8690
5.033000 0.8690 0.8710 0.8710 0.8710 0.8690
5.066871 0.8690 0.8690 0.8680 0.8690 0.8690
5.101000 0.8690 0.8680 0.8680 0.8710 0.8710
5.134871 0.8710 0.8710 0.8710 0.8690 0.8690
5.169000 0.8680 0.8680 0.8680 0.8660 0.8640
5.202871 0.8640 0.8660 0.8640 0.8640 0.8660
5.236000 0.8660 0.8660 0.8660 0.8640 0.8640
5.269871 0.8610 0.8590 0.8590 0.8610 0.8610
5.304000 0.8610 0.8590 0.8580 0.8580 0.8580
5.337871 0.8560 0.8560 0.8560 0.8560 0.8580
5.372000 0.8580 0.8590 0.8590 0.8580 0.8560
5.405871 0.8540 0.8530 0.8510 0.8510 0.8510
5.440000 0.8510 0.8510 0.8510 0.8510 0.8490
5.473871 0.8490 0.8490 0.8480 0.8480 0.8480
5.507000 0.8460 0.8440 0.8410 0.8390 0.8360
5.540871 0.8330 0.8310 0.8290 0.8280 0.8260
5.575000 0.8230 0.8180 0.8160 0.8160 0.8140
5.608871 0.8130 0.8110 0.8090 0.8090 0.8090
5.643000 0.8080 0.8080 0.8060 0.8040 0.8010
5.676871 0.7960 0.7940 0.7920 0.7860 0.7820
5.710000 0.7740 0.7710 0.7570 0.7460 0.7410
5.743871 0.7370 0.7220 0.7160 0.7070 0.6940
5.778000 0.6820 0.6690 0.6490 0.6190 0.5940
5.811871 0.5670 0.5290 0.5000 0.4720 0.4390
5.846000 0.4150 0.3900 0.3320 0.3050 0.2770
5.879871 0.2300 0.2130 0.2050 0.2030 0.2080
5.914000 0.2130 0.2130 0.2220 0.2450 0.2600
5.947871 0.3120 0.3250 0.3320 0.3400 0.3350
5.981000 0.3150 0.2920 0.2730 0.2550 0.2280
6.014871 0.2020 0.1780 0.1530 0.1430 0.1330
6.049000 0.1280 0.1260 0.1280 0.1310 0.1360
6.082871 0.1750 0.2020 0.2430 0.2750 0.3270
6.117000 0.3680 0.3780 0.4050 0.4470 0.4800
6.150871 0.4990 0.5020 0.5050 0.5120 0.5100
6.184000 0.4820 0.4490 0.4470 0.4250 0.4020
6.217871 0.3530 0.3250 0.2930 0.2620 0.2280
6.252000 0.1800 0.1560 0.1330 0.1200 0.0980
6.285871 0.0810 0.0800 0.0780 0.0760 0.0750
6.320000 0.0750 0.0750 0.0780 0.0800 0.0810
6.353871 0.0810 0.0810 0.0810 0.0810 0.0800
6.387000 0.0800 0.0780 0.0780 0.0780 0.0780
6.420871 0.0780 0.0780 0.0800 0.0810 0.0830
6.455000 0.0860 0.0950 0.1050 0.1200 0.1300
6.488871 0.1650 0.1780 0.1930 0.2030 0.2200
6.523000 0.2430 0.3450 0.3680 0.3850 0.4040
6.556871 0.4250 0.4790 0.4950 0.5070 0.5190
6.591000 0.5300 0.5440 0.5590 0.5690 0.5900
6.624871 0.6010 0.6210 0.6240 0.6260 0.6270
6.658000 0.6290 0.6290 0.6310 0.6390 0.6440
6.691871 0.6560 0.6590 0.6620 0.6660 0.6660
6.726000 0.6670 0.6660 0.6660 0.6640 0.6590
6.759871 0.6520 0.6470 0.6320 0.6170 0.5990
6.794000 0.5840 0.5650 0.5470 0.5100 0.4570
6.827871 0.4240 0.3880 0.3180 0.2930 0.2680
6.861000 0.2550 0.2430 0.2270 0.2200 0.2180
6.894871 0.2200 0.2230 0.2230 0.2230 0.2230
6.929000 0.2150 0.2050 0.1980 0.1950 0.1900
6.962871 0.1860 0.1880 0.1960 0.2080 0.2200
6.997000 0.2300 0.2380 0.2470 0.2530 0.2650
7.030871 0.2750 0.2850 0.3020 0.3100 0.3130
7.065000 0.3200 0.3250 0.3300 0.3580 0.3770
7.098871 0.3970 0.4090 0.4220 0.4550 0.4670
7.132000 0.4790 0.4820 0.4990 0.5100 0.5140
7.165871 0.5150 0.5170 0.5190 0.5240 0.5240
7.200000 0.5220 0.5220 0.5200 0.5040 0.4550
7.233871 0.4400 0.4250 0.3930 0.3550 0.3280
7.268000 0.3130 0.3030 0.2970 0.2880 0.2850
7.301871 0.2820 0.2800 0.2770 0.2730 0.2680
7.335000 0.2620 0.2570 0.2500 0.2380 0.2250
7.368871 0.2180 0.2100 0.2080 0.2030 0.1930
7.403000 0.1830 0.1760 0.1730 0.1730 0.1750
7.436871 0.1760 0.1760 0.1780 0.1800 0.1800
7.471000 0.1810 0.1830 0.1860 0.1930 0.2000
7.504871 0.2120 0.2450 0.2530 0.2820 0.3070
7.539000 0.3270 0.3480 0.3530 0.3620 0.3630
7.572871 0.3650 0.3620 0.3520 0.3470 0.3380
7.606000 0.3200 0.3030 0.2950 0.2850 0.2550
7.639871 0.2500 0.2380 0.2350 0.2350 0.2300
7.674000 0.2250 0.2250 0.2370 0.2420 0.2520
7.707871 0.2570 0.2720 0.2980 0.3020 0.3100
7.742000 0.3150 0.3180 0.3280 0.3380 0.3480
7.775871 0.3520 0.3550 0.3620 0.3700 0.3780
7.809000 0.3920 0.3970 0.4020 0.4100 0.4120
7.842871 0.4200 0.4170 0.4150 0.4120 0.4000
7.877000 0.3970 0.3730 0.3650 0.3530 0.3480
7.910871 0.3370 0.3370 0.3420 0.3430 0.3450
7.945000 0.3480 0.3530 0.3650 0.3670 0.3780
7.978871 0.3800 0.4000 0.4040 0.4520 0.4750
8.012000 0.4820 0.5040 0.5200 0.5290 0.5340
8.045871 0.5500 0.5940 0.6010 0.6140 0.6240
8.080000 0.6360 0.6440 0.6470 0.6520 0.6560
8.113871 0.6740 0.6840 0.6890 0.6940 0.6990
8.148000 0.7120 0.7240 0.7320 0.7360 0.7390
8.181871 0.7460 0.7510 0.7540 0.7570 0.7610
8.216000 0.7640 0.7660 0.7670 0.7690 0.7710
8.249871 0.7720 0.7720 0.7740 0.7770 0.7790
8.283000 0.7810 0.7820 0.7840 0.7860 0.7870
8.316871 0.7890 0.7920 0.7940 0.7940 0.7940
8.351000 0.7960 0.7960 0.7960 0.7960 0.7960
8.384871 0.7970 0.7970 0.7990 0.7990 0.8010
8.419000 0.8030 0.8030 0.8030 0.8030 0.8030
8.452871 0.8030 0.8030 0.8030 0.8010 0.8010
8.486000 0.7990 0.7970 0.7940 0.7860 0.7810
8.519871 0.7740 0.7660 0.7610 0.7360 0.7270
8.554000 0.7170 0.7120 0.7070 0.7060 0.6990
8.587871 0.6970 0.6970 0.6970 0.6970 0.6970
8.622000 0.6970 0.6970 0.6970 0.6970 0.6990
8.655871 0.6990 0.7010 0.7020 0.7020 0.7020
8.690000 0.7040 0.7040 0.7060 0.7060 0.7070
8.723871 0.7070 0.7090 0.7120 0.7270 0.7360
8.757000 0.7420 0.7460 0.7510 0.7620 0.7720
8.790871 0.7810 0.7890 0.7920 0.7940 0.7960
8.825000 0.7970 0.7970 0.7990 0.8030 0.8040
8.858871 0.8040 0.8060 0.8060 0.8080 0.8110
8.893000 0.8130 0.8140 0.8140 0.8140 0.8160
8.926871 0.8160 0.8160 0.8160 0.8140 0.8140
8.960000 0.8140 0.8130 0.8090 0.8090 0.8080
8.993871 0.8080 0.8080 0.8080 0.8080 0.8060
9.028000 0.8060 0.8010 0.8010 0.7990 0.7970
9.061871 0.7940 0.7940 0.7960 0.7960 0.7960
9.096000 0.7960 0.7960 0.7970 0.7970 0.7970
9.129871 0.7970 0.7960 0.7960 0.7920 0.7890
9.164000 0.7860 0.7820 0.7790 0.7760 0.7720
9.197871 0.7710 0.7710 0.7690 0.7670 0.7640
9.231000 0.7640 0.7620 0.7620 0.7640 0.7640
9.264871 0.7660 0.7660 0.7670 0.7690 0.7790
9.299000 0.7820 0.7870 0.7890 0.7910 0.7910
9.332871 0.7910 0.7910 0.7910 0.7920 0.7920
9.367000 0.7920 0.7910 0.7910 0.7910 0.7910
9.400871 0.7910 0.7910 0.7890 0.7890 0.7870
9.434000 0.7860 0.7840 0.7820 0.7810 0.7790
9.467871 0.7790 0.7770 0.7770 0.7760 0.7760
9.502000 0.7760 0.7740 0.7740 0.7740 0.7740
9.535871 0.7760 0.7760 0.7770 0.7790 0.7810
9.570000 0.7810 0.7840 0.7860 0.7870 0.7910
9.603871 0.7910 0.7940 0.7960 0.7960 0.7960
9.637000 0.7960 0.7960 0.7960 0.7960 0.7960
9.670871 0.7960 0.7960 0.7970 0.7970 0.7990
9.705000 0.8010 0.8030 0.8030 0.8030 0.8030
9.738871 0.8030 0.8030 0.8010 0.8010 0.7990
9.773000 0.7990 0.7970 0.7960 0.7940 0.7920
9.806871 0.7920 0.7920 0.7920 0.7920 0.7910
9.841000 0.7910 0.7910 0.7910 0.7910 0.7920
9.874871 0.7920 0.7940 0.7940 0.7960 0.7960
9.908000 0.7970 0.7970 0.7990 0.8030 0.8030
9.941871 0.8040 0.8060 0.8060 0.8080 0.8080
9.976000 0.8080 0.8090 0.8090 0.8110 0.8140
10.009871 0.8160 0.8180 0.8190 0.8190 0.8210
10.044000 0.8230 0.8230 0.8230 0.8230 0.8210
10.077871 0.8210 0.8210 0.8210 0.8190 0.8230
10.111000 0.8230 0.8240 0.8260 0.8260 0.8240
10.144871 0.8240 0.8230 0.8230 0.8210 0.8210
10.179000 0.8210 0.8190 0.8160 0.8160 0.8160
10.212871 0.8160 0.8140 0.8140 0.8140 0.8140
10.247000 0.8130 0.8090 0.8080 0.8060 0.8060
10.280871 0.8060 0.8060 0.8060 0.8030 0.8030
10.315000 0.8030 0.8010 0.8010 0.7990 0.7990
10.348871 0.7970 0.7970 0.7960 0.7970 0.7990
10.382000 0.7970 0.7970 0.7960 0.7960 0.7940
10.415871 0.7940 0.7910 0.7890 0.7890 0.7860
10.450000 0.7790 0.7770 0.7770 0.7760 0.7760
10.483871 0.7760 0.7760 0.7760 0.7740 0.7740
10.518000 0.7740 0.7740 0.7720 0.7710 0.7690
10.551871 0.7670 0.7660 0.7660 0.7660 0.7660
10.585000 0.7660 0.7660 0.7660 0.7640 0.7640
10.618871 0.7640 0.7660 0.7660 0.7660 0.7670
10.653000 0.7690 0.7690 0.7720 0.7760 0.7790
10.686871 0.7840 0.7870 0.7890 0.7910 0.7920
10.721000 0.7920 0.7940 0.7940 0.7940 0.7940
10.754871 0.7960 0.7960 0.7960 0.7970 0.7970
10.789000 0.7970 0.7990 0.7990 0.7990 0.7990
10.822871 0.7990 0.7970 0.7970 0.7970 0.7970
10.856000 0.7960 0.7940 0.7920 0.7870 0.7820
10.889871 0.7770 0.7770 0.7760 0.7740 0.7740
10.924000 0.7740 0.7740 0.7760 0.7760 0.7770
10.957871 0.7770 0.7810 0.7810 0.7820 0.7820
10.992000 0.7840 0.7840 0.7860 0.7860 0.7870
11.025871 0.7890 0.7890 0.7890 0.7890 0.7910
11.059000 0.7910 0.7910 0.7910 0.7920 0.7920
11.092871 0.7920 0.7920 0.7920 0.7920 0.7920
11.127000 0.7920 0.7910 0.7920 0.7920 0.7920
11.160871 0.7920 0.7920 0.7920 0.7920 0.7920
11.195000 0.7920 0.7920 0.7920 0.7910 0.7910
11.228871 0.7890 0.7890 0.7870 0.7860 0.7860
11.262000 0.7840 0.7790 0.7760 0.7740 0.7720
11.295871 0.7710 0.7720 0.7720 0.7740 0.7740
11.330000 0.7740 0.7710 0.7690 0.7660 0.7660
11.363871 0.7610 0.7590 0.7570 0.7540 0.7510
11.398000 0.7470 0.7470 0.7460 0.7440 0.7420
11.431871 0.7410 0.7390 0.7370 0.7360 0.7340
11.466000 0.7320 0.7310 0.7290 0.7270 0.7240
11.499871 0.7220 0.7190 0.7170 0.7140 0.7140
11.533000 0.7120 0.7090 0.7090 0.7070 0.7070
11.566871 0.7060 0.7060 0.7060 0.7060 0.7060
11.601000 0.7060 0.7040 0.7020 0.7010 0.6970
11.634871 0.6960 0.6960 0.6960 0.6960 0.6940
11.669000 0.6940 0.6920 0.6920 0.6920 0.6920
11.702871 0.6920 0.6920 0.6920 0.6920 0.6920
11.736000 0.6920 0.6920 0.6910 0.6910 0.6910
11.769871 0.6910 0.6910 0.6910 0.6910 0.6910
11.804000 0.6920 0.6920 0.6920 0.6920 0.6920
11.837871 0.6920 0.6920 0.6920 0.6920 0.6940
11.872000 0.6940 0.6940 0.6960 0.6970 0.6970
11.905871 0.6990 0.7040 0.7040 0.7090 0.7090
11.940000 0.7110 0.7110 0.7110 0.7110 0.7120
11.973871 0.7120 0.7170 0.7170 0.7170 0.7170
12.007000 0.7170 0.7190 0.7190 0.7190 0.7210
12.040871 0.7210 0.7210 0.7190 0.7190 0.7210
12.075000 0.7210 0.7240 0.7240 0.7240 0.7260
12.108871 0.7260 0.7270 0.7270 0.7290 0.7310
12.143000 0.7320 0.7340 0.7340 0.7360 0.7360
12.176871 0.7360 0.7360 0.7360 0.7360 0.7360
12.210000 0.7370 0.7370 0.7370 0.7370 0.7370
12.243871 0.7370 0.7370 0.7370 0.7370 0.7370
12.278000 0.7370 0.7390 0.7390 0.7390 0.7390
12.311871 0.7390 0.7410 0.7420 0.7420 0.7420
12.346000 0.7420 0.7420 0.7420 0.7420 0.7420
12.379871 0.7420 0.7420 0.7420 0.7420 0.7420
12.414000 0.7420 0.7420 0.7420 0.7420 0.7410
12.447871 0.7410 0.7390 0.7370 0.7370 0.7360
12.481000 0.7340 0.7320 0.7320 0.7310 0.7270
12.514871 0.7240 0.7210 0.7190 0.7190 0.7170
12.549000 0.7160 0.7140 0.7140 0.7120 0.7110
12.582871 0.7090 0.7060 0.7020 0.7010 0.6970
12.617000 0.6960 0.6940 0.6920 0.6910 0.6910
12.650871 0.6890 0.6890 0.6840 0.6820 0.6810
12.684000 0.6790 0.6790 0.6770 0.6760 0.6740
12.717871 0.6710 0.6690 0.6670 0.6670 0.6670
12.752000 0.6670 0.6660 0.6660 0.6660 0.6660
12.785871 0.6720 0.6810 0.6840 0.6910 0.6960
12.820000 0.6960 0.7010 0.7170 0.7210 0.7260
12.853871 0.7270 0.7310 0.7340 0.7360 0.7370
12.887000 0.7390 0.7390 0.7390 0.7390 0.7390
12.920871 0.7390 0.7390 0.7390 0.7370 0.7360
12.955000 0.7340 0.7340 0.7310 0.7290 0.7270
12.988871 0.7220 0.7160 0.7140 0.7140 0.7120
13.023000 0.7090 0.7090 0.7090 0.7090 0.7070
13.056871 0.7070 0.7070 0.7060 0.7060 0.7060
13.091000 0.7040 0.7040 0.7040 0.7020 0.7010
13.124871 0.6970 0.6860 0.6790 0.6740 0.6670
13.158000 0.6590 0.6560 0.6510 0.6490 0.6460
13.191871 0.6370 0.6360 0.6320 0.6290 0.6260
13.226000 0.6240 0.6220 0.6210 0.6210 0.6210
13.259871 0.6210 0.6210 0.6220 0.6240 0.6240
13.294000 0.6260 0.6290 0.6320 0.6360 0.6370
13.327871 0.6390 0.6460 0.6470 0.6490 0.6510
13.361000 0.6510 0.6520 0.6520 0.6560 0.6590
13.394871 0.6610 0.6620 0.6620 0.6620 0.6620
13.429000 0.6620 0.6660 0.6670 0.6670 0.6670
13.462871 0.6690 0.6690 0.6690 0.6690 0.6690
13.497000 0.6690 0.6690 0.6720 0.6740 0.6770
13.530871 0.6790 0.6840 0.6840 0.6890 0.6910
13.565000 0.6910 0.6920 0.6920 0.6940 0.6940
13.598871 0.6960 0.6960 0.6960 0.6970 0.6990
13.632000 0.6990 0.7010 0.7010 0.7020 0.7020
13.665871 0.7040 0.7040 0.7040 0.7060 0.7060
13.700000 0.7060 0.7060 0.7060 0.7040 0.7040
13.733871 0.7040 0.7010 0.7010 0.6990 0.6970
13.768000 0.6970 0.6960 0.6960 0.6960 0.6970
13.801871 0.6960 0.6960 0.6970 0.6970 0.6970
13.835000 0.6970 0.6940 0.6940 0.6940 0.6940
13.868871 0.6960 0.6940 0.6940 0.6940 0.6940
13.903000 0.6940 0.6940 0.6940 0.6960 0.6970
13.936871 0.6970 0.6990 0.7010 0.7010 0.7020
13.971000 0.7020 0.7040 0.7060 0.7070 0.7070
14.004871 0.7090 0.7070 0.7070 0.7070 0.7070
14.039000 0.7070 0.7070 0.7070 0.7070 0.7090
14.072871 0.7090 0.7090 0.7090 0.7090 0.7090
14.106000 0.7090 0.7090 0.7110 0.7090 0.7090
14.139871 0.7090 0.7090 0.7070 0.7060 0.7060
14.174000 0.7040 0.7040 0.7040 0.7040 0.7020
14.207871 0.7040 0.7040 0.7040 0.7040 0.7040
14.242000 0.7040 0.7040 0.7040 0.7040 0.7040
14.275871 0.7040 0.7040 0.7040 0.7040 0.7040
14.309000 0.7040 0.7040 0.7040 0.7040 0.7040
14.342871 0.7040 0.7040 0.7060 0.7060 0.7060
14.377000 0.7060 0.7060 0.7060 0.7060 0.7060
14.410871 0.7060 0.7060 0.7060 0.7060 0.7060
14.445000 0.7060 0.7070 0.7070 0.7070 0.7070
14.478871 0.7070 0.7070 0.7070 0.7070 0.7070
14.512000 0.7070 0.7070 0.7070 0.7070 0.7070
14.545871 0.7070 0.7060 0.7060 0.7060 0.7060
14.580000 0.7060 0.7060 0.7040 0.7040 0.7040
14.613871 0.7040 0.7020 0.7020 0.7020 0.7020
14.648000 0.7010 0.7010 0.7010 0.6990 0.6990
14.681871 0.6990 0.6970 0.6970 0.6970 0.6960
14.716000 0.6960 0.6960 0.6960 0.6940 0.6940
14.749871 0.6940 0.6920 0.6920 0.6920 0.6910
14.783000 0.6890 0.6890 0.6870 0.6860 0.6860
14.816871 0.6860 0.6860 0.6840 0.6840 0.6810
14.851000 0.6790 0.6760 0.6760 0.6760 0.6760
14.884871 0.6760 0.6740 0.6740 0.6740 0.6740
14.919000 0.6720 0.6720 0.6720 0.6710 0.6690
14.952871 0.6670 0.6660 0.6660 0.6690 0.6670
14.986000 0.6670 0.6660 0.6660 0.6660 0.6660
15.019871 0.6640 0.6640 0.6620 0.6620 0.6610
15.054000 0.6610 0.6590 0.6570 0.6560 0.6520
15.087871 0.6510 0.6510 0.6490 0.6490 0.6490
15.122000 0.6470 0.6470 0.6460 0.6440 0.6440
15.155871 0.6410 0.6410 0.6390 0.6390 0.6370
15.190000 0.6360 0.6340 0.6320 0.6310 0.6290
15.223871 0.6270 0.6240 0.6190 0.6170 0.6160
15.257000 0.6140 0.6120 0.6110 0.6110 0.6090
15.290871 0.6090 0.6070 0.6060 0.6060 0.6060
15.325000 0.6020 0.6010 0.5990 0.5970 0.5950
15.358871 0.5940 0.5920 0.5920 0.5900 0.5900
15.393000 0.5900 0.5900 0.5890 0.5890 0.5890
15.426871 0.5890 0.5870 0.5870 0.5850 0.5850
15.460000 0.5840 0.5840 0.5820 0.5800 0.5800
15.493871 0.5790 0.6570 0.5820 0.5800 0.5800
##END=
