##TITLE=1,1'-BIS(DIMETHYLETHOXYSILANYL) FERROCENE
##JCAMP-DX=4.24
##DATA TYPE=INFRARED SPECTRUM
##CLASS=COBLENTZ
##ORIGIN=WYANDOTTE CHEMICALS CORP., WYANDOTTE, MICHIGAN, USA
##OWNER=COBLENTZ SOCIETY
Collection (C) 2018 copyright by the U.S. Secretary of Commerce
on behalf of the United States of America. All rights reserved.
##DATE=Not specified, most likely prior to 1970
##MOLFORM=C18 H30 O2 Si2 Fe
##SOURCE REFERENCE=COBLENTZ NO. 2878
##$NIST ID=B6002878
##$NIST SOURCE=COBLENTZ
##$NIST IMAGE=cob2878
##SPECTROMETER/DATA SYSTEM=Not specified, most likely a prism, grating, or hybrid spectrometer.
##STATE=LIQUID
##PATH LENGTH=CAPILLARY
##SAMPLING PROCEDURE=TRANSMISSION
##RESOLUTION=4
##DATA PROCESSING=DIGITIZED BY NIST FROM HARD COPY
##XUNITS=MICROMETERS
##YUNITS=TRANSMITTANCE
##XFACTOR=1.000000
##YFACTOR=1
##DELTAX=000.006632
##FIRSTX=2.046
##LASTX=16.0194
##FIRSTY=0.948
##MAXX=16.0194
##MINX=2.046
##MAXY=0.966
##MINY=0.048
##NPOINTS=2108
##XYDATA=(X++(Y..Y))
2.046000 0.9480 0.9480 0.9500 0.9500 0.9510
2.079175 0.9510 0.9500 0.9430 0.9410 0.9430
2.113000 0.9430 0.9430 0.9430 0.9410 0.9400
2.146175 0.9380 0.9330 0.9300 0.9280 0.9250
2.179000 0.9210 0.9180 0.9110 0.9100 0.9100
2.212175 0.9150 0.9230 0.9300 0.9310 0.9330
2.245000 0.9330 0.9310 0.9330 0.9350 0.9380
2.278175 0.9380 0.9350 0.9330 0.9310 0.9300
2.312000 0.9300 0.9310 0.9350 0.9350 0.9330
2.345175 0.9310 0.9300 0.9300 0.9280 0.9250
2.378000 0.9230 0.9230 0.9210 0.9200 0.9180
2.411175 0.9180 0.9180 0.9130 0.9100 0.9080
2.444000 0.9080 0.9080 0.9080 0.9080 0.9100
2.477175 0.9110 0.9180 0.9230 0.9280 0.9330
2.511000 0.9380 0.9430 0.9450 0.9450 0.9460
2.544175 0.9460 0.9460 0.9460 0.9430 0.9330
2.577000 0.9280 0.9260 0.9280 0.9350 0.9430
2.610175 0.9450 0.9460 0.9450 0.9410 0.9380
2.643000 0.9310 0.9300 0.9280 0.9300 0.9310
2.676175 0.9330 0.9330 0.9350 0.9360 0.9360
2.710000 0.9380 0.9400 0.9410 0.9430 0.9430
2.743175 0.9430 0.9430 0.9430 0.9380 0.9360
2.776000 0.9380 0.9400 0.9400 0.9380 0.9350
2.809175 0.9330 0.9330 0.9330 0.9300 0.9280
2.842000 0.9280 0.9300 0.9300 0.9310 0.9310
2.875175 0.9310 0.9300 0.9300 0.9280 0.9280
2.909000 0.9280 0.9280 0.9280 0.9280 0.9300
2.942175 0.9300 0.9310 0.9310 0.9310 0.9310
2.975000 0.9300 0.9300 0.9300 0.9300 0.9300
3.008175 0.9300 0.9300 0.9280 0.9280 0.9280
3.041000 0.9260 0.9260 0.9260 0.9250 0.9210
3.074175 0.9180 0.9160 0.9160 0.9160 0.9150
3.108000 0.9100 0.9080 0.9060 0.9050 0.9030
3.141175 0.9010 0.9000 0.8980 0.8950 0.8880
3.174000 0.8820 0.8730 0.8500 0.8220 0.7590
3.207175 0.6940 0.6420 0.6310 0.6290 0.6310
3.240000 0.6860 0.7440 0.8380 0.8430 0.8430
3.273175 0.8430 0.8180 0.7950 0.7640 0.7340
3.306000 0.7020 0.6090 0.5140 0.4180 0.3150
3.339175 0.2100 0.1790 0.1770 0.1790 0.3730
3.373000 0.4350 0.4700 0.4710 0.4710 0.4700
3.406175 0.4210 0.4050 0.3950 0.3780 0.3750
3.439000 0.3750 0.3770 0.3800 0.3870 0.3980
3.472175 0.4210 0.4600 0.5760 0.6220 0.6640
3.505000 0.7000 0.7240 0.7390 0.7790 0.7950
3.538175 0.8120 0.8250 0.8380 0.8480 0.8570
3.572000 0.8620 0.8680 0.8700 0.8700 0.8700
3.605175 0.8700 0.8670 0.8650 0.8630 0.8620
3.638000 0.8600 0.8480 0.8450 0.8430 0.8450
3.671175 0.8480 0.8670 0.8870 0.9010 0.9160
3.704000 0.9260 0.9300 0.9300 0.9300 0.9280
3.737175 0.9280 0.9300 0.9300 0.9310 0.9310
3.771000 0.9330 0.9330 0.9330 0.9330 0.9310
3.804175 0.9300 0.9280 0.9280 0.9280 0.9300
3.837000 0.9300 0.9310 0.9330 0.9360 0.9360
3.870175 0.9380 0.9400 0.9400 0.9410 0.9410
3.903000 0.9410 0.9430 0.9450 0.9450 0.9460
3.936175 0.9460 0.9480 0.9480 0.9480 0.9500
3.970000 0.9500 0.9500 0.9500 0.9500 0.9500
4.003175 0.9480 0.9460 0.9430 0.9410 0.9360
4.036000 0.9330 0.9310 0.9300 0.9310 0.9330
4.069175 0.9360 0.9400 0.9380 0.9360 0.9350
4.102000 0.9360 0.9380 0.9380 0.9350 0.9330
4.135175 0.9310 0.9310 0.9330 0.9330 0.9360
4.169000 0.9380 0.9400 0.9410 0.9410 0.9410
4.202175 0.9410 0.9410 0.9400 0.9400 0.9400
4.235000 0.9360 0.9360 0.9380 0.9410 0.9460
4.268175 0.9500 0.9530 0.9600 0.9630 0.9650
4.301000 0.9660 0.9660 0.9660 0.9650 0.9650
4.334175 0.9630 0.9630 0.9630 0.9610 0.9600
4.368000 0.9600 0.9600 0.9580 0.9580 0.9580
4.401175 0.9550 0.9510 0.9500 0.9460 0.9410
4.434000 0.9400 0.9410 0.9410 0.9380 0.9330
4.467175 0.9330 0.9310 0.9300 0.9300 0.9330
4.500000 0.9330 0.9360 0.9380 0.9410 0.9410
4.533175 0.9380 0.9380 0.9360 0.9350 0.9310
4.567000 0.9300 0.9280 0.9280 0.9300 0.9300
4.600175 0.9310 0.9310 0.9280 0.9260 0.9260
4.633000 0.9250 0.9230 0.9230 0.9250 0.9260
4.666175 0.9280 0.9300 0.9310 0.9330 0.9350
4.699000 0.9360 0.9360 0.9360 0.9360 0.9380
4.732175 0.9380 0.9380 0.9380 0.9400 0.9410
4.766000 0.9410 0.9410 0.9400 0.9400 0.9400
4.799175 0.9380 0.9360 0.9330 0.9310 0.9280
4.832000 0.9260 0.9250 0.9230 0.9230 0.9230
4.865175 0.9260 0.9260 0.9280 0.9280 0.9280
4.898000 0.9280 0.9300 0.9330 0.9350 0.9330
4.931175 0.9300 0.9280 0.9260 0.9260 0.9280
4.964000 0.9280 0.9300 0.9310 0.9310 0.9310
4.997175 0.9330 0.9350 0.9360 0.9380 0.9380
5.031000 0.9360 0.9360 0.9310 0.9280 0.9260
5.064175 0.9260 0.9280 0.9280 0.9260 0.9230
5.097000 0.9210 0.9200 0.9200 0.9210 0.9210
5.130175 0.9230 0.9230 0.9230 0.9230 0.9210
5.163000 0.9200 0.9200 0.9200 0.9180 0.9180
5.196175 0.9160 0.9130 0.9100 0.9100 0.9080
5.230000 0.9080 0.9080 0.9080 0.9100 0.9100
5.263175 0.9080 0.9060 0.9000 0.8980 0.8980
5.296000 0.8970 0.8970 0.8970 0.8980 0.9060
5.329175 0.9060 0.9060 0.9060 0.9060 0.9060
5.362000 0.9080 0.9160 0.9180 0.9210 0.9210
5.395175 0.9200 0.9180 0.9150 0.9130 0.9130
5.429000 0.9130 0.9110 0.9100 0.9100 0.9080
5.462175 0.9060 0.8980 0.8970 0.8920 0.8900
5.495000 0.8880 0.8870 0.8870 0.8830 0.8820
5.528175 0.8800 0.8800 0.8800 0.8780 0.8780
5.561000 0.8780 0.8780 0.8780 0.8780 0.8780
5.594175 0.8780 0.8780 0.8750 0.8730 0.8720
5.628000 0.8700 0.8700 0.8670 0.8670 0.8670
5.661175 0.8650 0.8630 0.8600 0.8570 0.8550
5.694000 0.8550 0.8550 0.8550 0.8530 0.8520
5.727175 0.8500 0.8480 0.8480 0.8480 0.8480
5.760000 0.8480 0.8480 0.8470 0.8450 0.8450
5.793175 0.8470 0.8450 0.8450 0.8420 0.8420
5.827000 0.8400 0.8400 0.8400 0.8380 0.8380
5.860175 0.8350 0.8330 0.8270 0.8220 0.8200
5.893000 0.8200 0.8200 0.8220 0.8270 0.8280
5.926175 0.8320 0.8300 0.8220 0.8180 0.8180
5.959000 0.8180 0.8180 0.8200 0.8220 0.8270
5.992175 0.8280 0.8270 0.8200 0.8200 0.8200
6.026000 0.8200 0.8180 0.8170 0.8170 0.8170
6.059175 0.8170 0.8170 0.8180 0.8300 0.8380
6.092000 0.8400 0.8400 0.8420 0.8470 0.8520
6.125175 0.8550 0.8580 0.8620 0.8650 0.8680
6.158000 0.8700 0.8720 0.8720 0.8730 0.8750
6.191175 0.8750 0.8770 0.8770 0.8780 0.8780
6.225000 0.8780 0.8800 0.8850 0.8850 0.8850
6.258175 0.8830 0.8830 0.8800 0.8800 0.8800
6.291000 0.8800 0.8800 0.8800 0.8800 0.8800
6.324175 0.8780 0.8750 0.8720 0.8700 0.8700
6.357000 0.8720 0.8720 0.8720 0.8720 0.8720
6.390175 0.8720 0.8720 0.8700 0.8680 0.8680
6.423000 0.8700 0.8720 0.8720 0.8680 0.8680
6.456175 0.8670 0.8670 0.8670 0.8680 0.8680
6.490000 0.8680 0.8680 0.8680 0.8680 0.8670
6.523175 0.8630 0.8600 0.8580 0.8580 0.8580
6.556000 0.8570 0.8550 0.8550 0.8570 0.8570
6.589175 0.8570 0.8570 0.8520 0.8470 0.8450
6.622000 0.8400 0.8400 0.8380 0.8370 0.8280
6.655175 0.8200 0.8170 0.8120 0.7990 0.7770
6.689000 0.7600 0.7440 0.7290 0.7190 0.7190
6.722175 0.7200 0.7250 0.7350 0.7420 0.7490
6.755000 0.7620 0.7670 0.7690 0.7700 0.7690
6.788175 0.7600 0.7520 0.7490 0.7450 0.7390
6.821000 0.7300 0.7120 0.6890 0.6660 0.6510
6.854175 0.6470 0.6410 0.6370 0.6210 0.5980
6.888000 0.5780 0.5690 0.5610 0.5590 0.5610
6.921175 0.5660 0.5710 0.5790 0.5890 0.5910
6.954000 0.5860 0.5510 0.5340 0.5180 0.5030
6.987175 0.4860 0.4680 0.4460 0.4450 0.4460
7.020000 0.4760 0.4960 0.5310 0.5680 0.5710
7.053175 0.5730 0.5690 0.5590 0.5530 0.5490
7.087000 0.5480 0.5440 0.5390 0.5340 0.5330
7.120175 0.5310 0.5280 0.5140 0.5060 0.4980
7.153000 0.4650 0.4000 0.3470 0.3420 0.3420
7.186175 0.3430 0.3600 0.3750 0.4000 0.4280
7.219000 0.4560 0.4930 0.5540 0.5860 0.6110
7.252175 0.6210 0.6270 0.6270 0.6170 0.5780
7.286000 0.5390 0.5110 0.4830 0.4360 0.4310
7.319175 0.4310 0.4330 0.4810 0.5810 0.6270
7.352000 0.6590 0.6840 0.7000 0.7170 0.7340
7.385175 0.7440 0.7550 0.7620 0.7700 0.7740
7.418000 0.7770 0.7790 0.7820 0.7840 0.7890
7.451175 0.7890 0.7900 0.7900 0.7900 0.7900
7.485000 0.7940 0.7950 0.7970 0.7990 0.7990
7.518175 0.7990 0.7990 0.7970 0.7970 0.7950
7.551000 0.7940 0.7920 0.7920 0.7900 0.7890
7.584175 0.7850 0.7820 0.7770 0.7700 0.7640
7.617000 0.7540 0.7500 0.7450 0.7300 0.7140
7.650175 0.6870 0.6540 0.6410 0.6310 0.6240
7.684000 0.6220 0.6210 0.6210 0.6210 0.6210
7.717175 0.6210 0.6260 0.6290 0.6410 0.6490
7.750000 0.6570 0.6670 0.6770 0.6870 0.6960
7.783175 0.7000 0.7050 0.7090 0.7100 0.7100
7.816000 0.7090 0.7070 0.7000 0.6910 0.6860
7.849175 0.6810 0.6770 0.6640 0.6440 0.6240
7.883000 0.5890 0.5530 0.5090 0.4710 0.4330
7.916175 0.3800 0.3200 0.2540 0.1860 0.1290
7.949000 0.0960 0.0760 0.0580 0.0540 0.0530
7.982175 0.0530 0.0540 0.0580 0.0930 0.1310
8.015000 0.1640 0.2050 0.3070 0.3550 0.4350
8.048175 0.4760 0.5630 0.5960 0.6210 0.6390
8.081000 0.6520 0.6660 0.6790 0.6940 0.7100
8.114175 0.7190 0.7300 0.7390 0.7450 0.7450
8.148000 0.7470 0.7470 0.7470 0.7490 0.7600
8.181175 0.7600 0.7620 0.7620 0.7620 0.7620
8.214000 0.7640 0.7640 0.7650 0.7650 0.7640
8.247175 0.7640 0.7620 0.7600 0.7590 0.7590
8.280000 0.7570 0.7570 0.7500 0.7500 0.7490
8.313175 0.7470 0.7420 0.7390 0.7350 0.7250
8.347000 0.7220 0.7170 0.7100 0.7000 0.6890
8.380175 0.6620 0.6340 0.6070 0.6040 0.5510
8.413000 0.5040 0.4880 0.4700 0.4180 0.3730
8.446175 0.3520 0.3500 0.3500 0.3500 0.3530
8.479000 0.3530 0.3480 0.3100 0.2690 0.2370
8.512175 0.2040 0.1690 0.1460 0.1160 0.0780
8.546000 0.0540 0.0510 0.0510 0.0530 0.0580
8.579175 0.0640 0.0740 0.0830 0.1070 0.1590
8.612000 0.1740 0.2070 0.2370 0.2850 0.3050
8.645175 0.3300 0.3550 0.3800 0.4000 0.4150
8.678000 0.4260 0.4400 0.4480 0.4530 0.4610
8.711175 0.4700 0.4780 0.4830 0.4910 0.4930
8.745000 0.4950 0.4960 0.4950 0.4930 0.4860
8.778175 0.4800 0.4710 0.4610 0.4510 0.4410
8.811000 0.4250 0.4110 0.4010 0.3800 0.3570
8.844175 0.3420 0.3230 0.3030 0.2920 0.2740
8.877000 0.2570 0.2400 0.2050 0.1920 0.1790
8.910175 0.1620 0.1460 0.1240 0.1070 0.0980
8.944000 0.0930 0.0860 0.0780 0.0710 0.0590
8.977175 0.0540 0.0530 0.0510 0.0490 0.0480
9.010000 0.0480 0.0490 0.0490 0.0530 0.0560
9.043175 0.0590 0.0660 0.0760 0.0830 0.0910
9.076000 0.0990 0.1070 0.1160 0.1170 0.1190
9.109175 0.1210 0.1220 0.1220 0.1210 0.1140
9.143000 0.1020 0.0980 0.0910 0.0810 0.0690
9.176175 0.0640 0.0610 0.0590 0.0580 0.0560
9.209000 0.0540 0.0530 0.0530 0.0530 0.0530
9.242175 0.0540 0.0540 0.0560 0.0590 0.0630
9.275000 0.0660 0.0680 0.0690 0.0760 0.0830
9.308175 0.0890 0.0980 0.1070 0.1190 0.1310
9.342000 0.1490 0.1660 0.1790 0.1960 0.2070
9.375175 0.2240 0.2440 0.2650 0.2800 0.2970
9.408000 0.3030 0.3100 0.3170 0.3200 0.3230
9.441175 0.3280 0.3350 0.3400 0.3470 0.3530
9.474000 0.3600 0.3750 0.3930 0.4100 0.4260
9.507175 0.4430 0.4510 0.4560 0.4600 0.4600
9.541000 0.4560 0.4500 0.4310 0.4010 0.3530
9.574175 0.3080 0.2670 0.2240 0.1820 0.1290
9.607000 0.1020 0.0910 0.0880 0.0880 0.0910
9.640175 0.1120 0.1310 0.1570 0.1890 0.2220
9.673000 0.2990 0.3280 0.3570 0.3850 0.4050
9.706175 0.4230 0.4360 0.4430 0.4510 0.4610
9.739000 0.4730 0.4860 0.5210 0.5390 0.5560
9.772175 0.5790 0.5980 0.6060 0.6170 0.6360
9.806000 0.6510 0.6570 0.6660 0.6770 0.6840
9.839175 0.6870 0.6890 0.6970 0.6990 0.7040
9.872000 0.7070 0.7100 0.7170 0.7200 0.7240
9.905175 0.7290 0.7320 0.7340 0.7350 0.7350
9.938000 0.7370 0.7390 0.7400 0.7420 0.7420
9.971175 0.7490 0.7520 0.7520 0.7520 0.7550
10.005000 0.7590 0.7620 0.7620 0.7620 0.7640
10.038175 0.7650 0.7650 0.7670 0.7670 0.7640
10.071000 0.7640 0.7620 0.7620 0.7640 0.7640
10.104175 0.7640 0.7640 0.7640 0.7640 0.7620
10.137000 0.7600 0.7590 0.7550 0.7550 0.7550
10.170175 0.7550 0.7540 0.7540 0.7520 0.7500
10.204000 0.7490 0.7470 0.7470 0.7470 0.7440
10.237175 0.7420 0.7400 0.7370 0.7340 0.7300
10.270000 0.7270 0.7240 0.7200 0.7140 0.7090
10.303175 0.7070 0.7000 0.6970 0.6910 0.6870
10.336000 0.6790 0.6670 0.6590 0.6570 0.6470
10.369175 0.6370 0.6270 0.6140 0.6020 0.5960
10.403000 0.5760 0.5560 0.5360 0.5180 0.5080
10.436175 0.4980 0.4760 0.4560 0.4360 0.4130
10.469000 0.3950 0.3670 0.3320 0.3080 0.2850
10.502175 0.2550 0.2440 0.2300 0.2120 0.1960
10.535000 0.1790 0.1690 0.1610 0.1490 0.1390
10.568175 0.1340 0.1310 0.1310 0.1290 0.1290
10.602000 0.1310 0.1320 0.1370 0.1390 0.1410
10.635175 0.1420 0.1490 0.1560 0.1570 0.1610
10.668000 0.1670 0.1740 0.1770 0.1820 0.1870
10.701175 0.1990 0.2020 0.2120 0.2170 0.2200
10.734000 0.2270 0.2300 0.2370 0.2420 0.2640
10.767175 0.2750 0.2890 0.3000 0.3120 0.3220
10.801000 0.3350 0.3530 0.3650 0.3820 0.3980
10.834175 0.4160 0.4280 0.4430 0.4600 0.4760
10.867000 0.4930 0.5190 0.5360 0.5530 0.5690
10.900175 0.5810 0.5860 0.5960 0.6010 0.6070
10.933000 0.6140 0.6190 0.6290 0.6340 0.6360
10.966175 0.6390 0.6390 0.6370 0.6370 0.6340
11.000000 0.6310 0.6240 0.6140 0.6060 0.5980
11.033175 0.5840 0.5710 0.5430 0.5090 0.5000
11.066000 0.4900 0.4680 0.4510 0.4330 0.4230
11.099175 0.4130 0.4030 0.3980 0.3900 0.3820
11.132000 0.3780 0.3720 0.3620 0.3570 0.3530
11.165175 0.3520 0.3530 0.3570 0.3670 0.3800
11.198000 0.3930 0.4080 0.4230 0.4410 0.4600
11.231175 0.4780 0.5000 0.5340 0.5510 0.5640
11.265000 0.5790 0.5940 0.6010 0.6110 0.6210
11.298175 0.6290 0.6370 0.6420 0.6470 0.6510
11.331000 0.6560 0.6590 0.6620 0.6640 0.6660
11.364175 0.6660 0.6640 0.6620 0.6590 0.6590
11.397000 0.6560 0.6540 0.6510 0.6460 0.6420
11.430175 0.6370 0.6320 0.6290 0.6240 0.6110
11.464000 0.5990 0.5890 0.5780 0.5660 0.5560
11.497175 0.5460 0.5230 0.5030 0.5000 0.4960
11.530000 0.4810 0.4630 0.4480 0.4330 0.4210
11.563175 0.4150 0.4100 0.4080 0.4060 0.4050
11.596000 0.4050 0.4080 0.4150 0.4180 0.4230
11.629175 0.4310 0.4360 0.4400 0.4460 0.4480
11.663000 0.4580 0.4660 0.4710 0.4750 0.4780
11.696175 0.4830 0.4850 0.4850 0.4850 0.4830
11.729000 0.4800 0.4710 0.4660 0.4610 0.4560
11.762175 0.4480 0.4410 0.4310 0.4250 0.4160
11.795000 0.4080 0.3950 0.3800 0.3720 0.3630
11.828175 0.3480 0.3330 0.3280 0.3200 0.3070
11.862000 0.2990 0.2840 0.2770 0.2600 0.2520
11.895175 0.2470 0.2420 0.2320 0.2270 0.2170
11.928000 0.2100 0.2000 0.1970 0.1860 0.1770
11.961175 0.1670 0.1570 0.1540 0.1510 0.1470
11.994000 0.1410 0.1320 0.1220 0.1170 0.1110
12.027175 0.1060 0.1010 0.0980 0.0910 0.0880
12.061000 0.0810 0.0740 0.0730 0.0680 0.0640
12.094175 0.0610 0.0610 0.0590 0.0580 0.0560
12.127000 0.0560 0.0540 0.0540 0.0540 0.0540
12.160175 0.0530 0.0530 0.0530 0.0540 0.0560
12.193000 0.0560 0.0560 0.0560 0.0560 0.0540
12.226175 0.0540 0.0540 0.0560 0.0560 0.0560
12.260000 0.0540 0.0540 0.0540 0.0540 0.0540
12.293175 0.0540 0.0540 0.0540 0.0540 0.0540
12.326000 0.0540 0.0560 0.0560 0.0560 0.0540
12.359175 0.0530 0.0530 0.0530 0.0540 0.0540
12.392000 0.0540 0.0540 0.0560 0.0580 0.0580
12.425175 0.0590 0.0610 0.0630 0.0640 0.0640
12.459000 0.0660 0.0690 0.0740 0.0780 0.0830
12.492175 0.0880 0.0910 0.0990 0.0990 0.1020
12.525000 0.1040 0.1120 0.1210 0.1290 0.1390
12.558175 0.1470 0.1520 0.1570 0.1610 0.1620
12.591000 0.1670 0.1710 0.1720 0.1770 0.1790
12.624175 0.1790 0.1760 0.1710 0.1640 0.1610
12.658000 0.1540 0.1440 0.1390 0.1310 0.1210
12.691175 0.1140 0.1070 0.0990 0.0880 0.0810
12.724000 0.0790 0.0780 0.0760 0.0740 0.0730
12.757175 0.0710 0.0710 0.0710 0.0710 0.0710
12.790000 0.0730 0.0730 0.0730 0.0740 0.0740
12.823175 0.0740 0.0760 0.0780 0.0790 0.0810
12.856000 0.0830 0.0840 0.0860 0.0880 0.0890
12.889175 0.0910 0.0930 0.0990 0.1060 0.1140
12.923000 0.1170 0.1220 0.1310 0.1390 0.1520
12.956175 0.1640 0.1740 0.1840 0.1970 0.2090
12.989000 0.2240 0.2400 0.2790 0.2890 0.3070
13.022175 0.3230 0.3370 0.3550 0.3730 0.3830
13.055000 0.3980 0.4110 0.4230 0.4360 0.4510
13.088175 0.4660 0.4700 0.4780 0.4880 0.5000
13.122000 0.5190 0.5280 0.5380 0.5460 0.5510
13.155175 0.5560 0.5610 0.5710 0.5790 0.5880
13.188000 0.5910 0.5960 0.5980 0.5990 0.5990
13.221175 0.6060 0.6110 0.6120 0.6160 0.6210
13.254000 0.6220 0.6240 0.6270 0.6290 0.6340
13.287175 0.6340 0.6360 0.6360 0.6360 0.6360
13.321000 0.6360 0.6360 0.6360 0.6360 0.6360
13.354175 0.6360 0.6360 0.6340 0.6310 0.6270
13.387000 0.6260 0.6260 0.6240 0.6220 0.6190
13.420175 0.6170 0.6160 0.6090 0.6060 0.5990
13.453000 0.5980 0.5930 0.5910 0.5890 0.5880
13.486175 0.5840 0.5830 0.5780 0.5740 0.5730
13.520000 0.5690 0.5680 0.5640 0.5610 0.5590
13.553175 0.5580 0.5560 0.5540 0.5510 0.5490
13.586000 0.5480 0.5460 0.5440 0.5410 0.5380
13.619175 0.5380 0.5380 0.5380 0.5390 0.5390
13.652000 0.5390 0.5360 0.5340 0.5340 0.5330
13.685175 0.5310 0.5280 0.5260 0.5240 0.5230
13.719000 0.5210 0.5210 0.5210 0.5190 0.5180
13.752175 0.5140 0.5110 0.5060 0.5060 0.5040
13.785000 0.5040 0.5030 0.5010 0.5010 0.5000
13.818175 0.5000 0.4980 0.4980 0.4980 0.5000
13.851000 0.5000 0.5000 0.5030 0.5030 0.5040
13.884175 0.5080 0.5090 0.5090 0.5110 0.5160
13.918000 0.5210 0.5230 0.5260 0.5280 0.5310
13.951175 0.5340 0.5360 0.5390 0.5430 0.5480
13.984000 0.5490 0.5560 0.5630 0.5690 0.5760
14.017175 0.5810 0.5810 0.5830 0.5880 0.5930
14.050000 0.5980 0.5990 0.6040 0.6110 0.6170
14.083175 0.6240 0.6290 0.6310 0.6320 0.6360
14.117000 0.6410 0.6470 0.6490 0.6520 0.6570
14.150175 0.6620 0.6670 0.6690 0.6720 0.6770
14.183000 0.6810 0.6860 0.6890 0.6960 0.6970
14.216175 0.6990 0.6990 0.7000 0.7040 0.7070
14.249000 0.7090 0.7120 0.7170 0.7190 0.7200
14.282175 0.7240 0.7250 0.7250 0.7270 0.7270
14.315000 0.7300 0.7320 0.7340 0.7350 0.7350
14.348175 0.7350 0.7350 0.7390 0.7390 0.7400
14.382000 0.7400 0.7400 0.7400 0.7400 0.7420
14.415175 0.7420 0.7440 0.7440 0.7450 0.7450
14.448000 0.7470 0.7470 0.7450 0.7450 0.7420
14.481175 0.7390 0.7370 0.7370 0.7390 0.7390
14.514000 0.7390 0.7370 0.7370 0.7350 0.7320
14.547175 0.7290 0.7290 0.7290 0.7290 0.7290
14.581000 0.7270 0.7220 0.7190 0.7190 0.7190
14.614175 0.7190 0.7170 0.7170 0.7150 0.7140
14.647000 0.7140 0.7140 0.7140 0.7140 0.7140
14.680175 0.7140 0.7140 0.7120 0.7120 0.7120
14.713000 0.7150 0.7170 0.7190 0.7200 0.7220
14.746175 0.7220 0.7240 0.7240 0.7250 0.7290
14.780000 0.7340 0.7370 0.7390 0.7420 0.7440
14.813175 0.7450 0.7450 0.7470 0.7470 0.7520
14.846000 0.7570 0.7590 0.7590 0.7590 0.7590
14.879175 0.7620 0.7640 0.7640 0.7650 0.7670
14.912000 0.7670 0.7690 0.7690 0.7690 0.7690
14.945175 0.7670 0.7640 0.7640 0.7640 0.7650
14.979000 0.7650 0.7650 0.7640 0.7620 0.7600
15.012175 0.7550 0.7500 0.7500 0.7490 0.7470
15.045000 0.7420 0.7370 0.7320 0.7300 0.7270
15.078175 0.7220 0.7190 0.7170 0.7170 0.7150
15.111000 0.7150 0.7140 0.7140 0.7090 0.7070
15.144175 0.7050 0.7000 0.6970 0.6910 0.6890
15.178000 0.6860 0.6810 0.6760 0.6690 0.6610
15.211175 0.6510 0.6490 0.6470 0.6390 0.6340
15.244000 0.6290 0.6210 0.6140 0.6090 0.6020
15.277175 0.5980 0.5890 0.5860 0.5830 0.5790
15.310000 0.5740 0.5680 0.5630 0.5580 0.5530
15.343175 0.5490 0.5480 0.5460 0.5440 0.5430
15.377000 0.5430 0.5410 0.5390 0.5390 0.5390
15.410175 0.5390 0.5390 0.5390 0.5410 0.5430
15.443000 0.5430 0.5460 0.5460 0.5480 0.5510
15.476175 0.5540 0.5560 0.5580 0.5610 0.5640
15.509000 0.5680 0.5710 0.5730 0.5790 0.5860
15.542175 0.5890 0.5960 0.5990 0.6010 0.6070
15.576000 0.6110 0.6170 0.6190 0.6210 0.6240
15.609175 0.6310 0.6370 0.6410 0.6470 0.6510
15.642000 0.6610 0.6660 0.6690 0.6760 0.6840
15.675175 0.6870 0.6920 0.6970 0.6970 0.7000
15.708000 0.7020 0.7070 0.7140 0.7170 0.7200
15.741175 0.7220 0.7240 0.7240 0.7250 0.7290
15.775000 0.7300 0.7320 0.7350 0.7370 0.7390
15.808175 0.7420 0.7440 0.7450 0.7470 0.7490
15.841000 0.7490 0.7500 0.7500 0.7500 0.7500
15.874175 0.7500 0.7500 0.7500 0.7500 0.7500
15.907000 0.7500 0.7490 0.7490 0.7490 0.7490
15.940175 0.7470 0.7450 0.7450 0.7420 0.7370
15.973000 0.7350 0.7350 0.7350 0.7350 0.7340
16.006175 0.7320 0.7350 0.7340
##END=
