##TITLE=YELLOW OCHRE
##JCAMP-DX=4.24
##DATA TYPE=INFRARED SPECTRUM
##CLASS=COBLENTZ
##ORIGIN=DESOTO CHEMICAL COATINGS, INC.
##OWNER=COBLENTZ SOCIETY
Collection (C) 2018 copyright by the U.S. Secretary of Commerce
on behalf of the United States of America. All rights reserved.
##DATE=Not specified, most likely prior to 1970
##MOLFORM=O3 Fe2
$$ Fe2O3 50%, SILICATES 45%
##SOURCE REFERENCE=COBLENTZ NO. 4678
##$NIST ID=B6004678
##$NIST SOURCE=COBLENTZ
##$NIST IMAGE=cob4678
##SPECTROMETER/DATA SYSTEM=Not specified, most likely a grating spectrometer.
##STATE=SOLID (0.5 mg / 300 mg CsI DISC)
##SAMPLING PROCEDURE=TRANSMISSION
##RESOLUTION=4
##DATA PROCESSING=DIGITIZED BY NIST FROM HARD COPY (FROM TWO SEGMENTS)
##XUNITS=1/CM
##YUNITS=TRANSMITTANCE
##XFACTOR=1.000000
##YFACTOR=1
##DELTAX=1.330380
##FIRSTX=198.67
##LASTX=3983.6
##FIRSTY=0.934
##MAXX=3983.6
##MINX=198.67
##MAXY=0.953
##MINY=0.248
##NPOINTS=2846
##XYDATA=(X++(Y..Y))
198.670000 0.9340 0.9340 0.9340 0.9360 0.9340
205.321900 0.9340 0.9340 0.9360 0.9370 0.9380
211.973799 0.9400 0.9410 0.9440 0.9440 0.9450
218.625699 0.9450 0.9460 0.9460 0.9490 0.9520
225.277599 0.9520 0.9530 0.9530 0.9530 0.9520
231.929499 0.9520 0.9520 0.9520 0.9520 0.9500
238.581398 0.9500 0.9490 0.9490 0.9480 0.9480
245.233298 0.9460 0.9460 0.9440 0.9420 0.9410
251.885198 0.9400 0.9380 0.9370 0.9320 0.9280
258.537097 0.9240 0.9210 0.9200 0.9130 0.9051
265.188997 0.8930 0.8850 0.8770 0.8690 0.8590
271.840897 0.8450 0.8291 0.8081 0.7811 0.7611
278.492796 0.7430 0.7320 0.7200 0.7100 0.7000
285.144696 0.6940 0.6870 0.6830 0.6790 0.6760
291.796596 0.6750 0.6750 0.6750 0.6760 0.6760
298.448496 0.6790 0.6820 0.6830 0.6880 0.6900
305.100395 0.6910 0.6920 0.6950 0.6990 0.7060
311.752295 0.7100 0.7150 0.7190 0.7260 0.7300
318.404195 0.7350 0.7380 0.7400 0.7480 0.7510
325.056094 0.7530 0.7560 0.7570 0.7590 0.7590
331.707994 0.7600 0.7600 0.7600 0.7600 0.7600
338.359894 0.7590 0.7590 0.7570 0.7480 0.7470
345.011794 0.7460 0.7400 0.7350 0.7280 0.7230
351.663693 0.7160 0.7110 0.7060 0.7020 0.6980
358.315593 0.6940 0.6880 0.6820 0.6750 0.6670
364.967493 0.6580 0.6470 0.6361 0.6221 0.5942
371.619392 0.5780 0.5670 0.5620 0.5550 0.5550
378.271292 0.5510 0.5500 0.5500 0.5510 0.5540
384.923192 0.5550 0.5570 0.5570 0.5570 0.5550
391.575092 0.5470 0.5370 0.5171 0.4921 0.4771
398.226991 0.4610 0.4460 0.4320 0.4210 0.4130
404.878891 0.4040 0.3980 0.3890 0.3820 0.3780
411.530791 0.3690 0.3650 0.3600 0.3570 0.3530
418.182690 0.3480 0.3440 0.3360 0.3360 0.3290
424.834590 0.3270 0.3250 0.3230 0.3210 0.3200
431.486490 0.3190 0.3190 0.3190 0.3200 0.3230
438.138389 0.3240 0.3270 0.3280 0.3310 0.3330
444.790289 0.3350 0.3360 0.3360 0.3370 0.3370
451.442189 0.3350 0.3290 0.3280 0.3210 0.3170
458.094089 0.3110 0.3050 0.2911 0.2850 0.2770
464.745988 0.2710 0.2670 0.2610 0.2570 0.2520
471.397888 0.2500 0.2480 0.2480 0.2500 0.2629
478.049788 0.2760 0.2890 0.3040 0.3190 0.3250
484.701687 0.3330 0.3519 0.3639 0.3769 0.3820
491.353587 0.3920 0.3970 0.4000 0.4040 0.4090
498.005487 0.4120 0.4160 0.4210 0.4260 0.4300
504.657387 0.4340 0.4370 0.4410 0.4440 0.4480
511.309286 0.4500 0.4530 0.4560 0.4570 0.4580
517.961186 0.4610 0.4620 0.4660 0.4720 0.4740
524.613086 0.4770 0.4820 0.4850 0.4860 0.4880
531.264985 0.4920 0.4970 0.4980 0.5010 0.5060
537.916885 0.5100 0.5150 0.5190 0.5289 0.5330
544.568785 0.5380 0.5410 0.5470 0.5510 0.5540
551.220685 0.5590 0.5650 0.5670 0.5670 0.5690
557.872584 0.5740 0.5770 0.5780 0.5820 0.5850
564.524484 0.5860 0.5890 0.5900 0.5910 0.5970
571.176384 0.5980 0.5990 0.6020 0.6030 0.6060
577.828283 0.6070 0.6070 0.6090 0.6090 0.6100
584.480183 0.6100 0.6100 0.6090 0.6090 0.6070
591.132083 0.6070 0.6060 0.6050 0.6030 0.6020
597.783982 0.6020 0.6020 0.6010 0.5990 0.5990
604.435882 0.5990 0.5990 0.5990 0.6010 0.6010
611.087782 0.6010 0.6020 0.6030 0.6050 0.6060
617.739682 0.6090 0.6100 0.6130 0.6150 0.6220
624.391581 0.6250 0.6270 0.6280 0.6350 0.6400
631.043481 0.6440 0.6500 0.6560 0.6600 0.6660
637.695381 0.6700 0.6750 0.6790 0.6840 0.6900
644.347280 0.6940 0.6960 0.7000 0.7040 0.7100
650.999180 0.7150 0.7190 0.7240 0.7280 0.7300
657.651080 0.7320 0.7320 0.7350 0.7360 0.7380
664.302980 0.7380 0.7360 0.7350 0.7340 0.7300
670.954879 0.7300 0.7310 0.7340 0.7350 0.7380
677.606779 0.7400 0.7420 0.7420 0.7470 0.7510
684.258679 0.7530 0.7550 0.7560 0.7590 0.7590
690.910578 0.7600 0.7610 0.7610 0.7600 0.7590
697.562478 0.7590 0.7600 0.7600 0.7640 0.7710
704.214378 0.7790 0.7810 0.7870 0.7910 0.7920
710.866278 0.7970 0.8030 0.8040 0.8080 0.8110
717.518177 0.8150 0.8170 0.8190 0.8230 0.8250
724.170077 0.8280 0.8290 0.8290 0.8320 0.8330
730.821977 0.8330 0.8350 0.8350 0.8350 0.8350
737.473876 0.8330 0.8330 0.8320 0.8290 0.8280
744.125776 0.8250 0.8240 0.8230 0.8200 0.8170
750.777676 0.8150 0.8090 0.8050 0.8030 0.8000
757.429575 0.7970 0.7950 0.7920 0.7880 0.7840
764.081475 0.7790 0.7760 0.7690 0.7600 0.7570
770.733375 0.7520 0.7430 0.7280 0.7150 0.7030
777.385275 0.6870 0.6780 0.6710 0.6670 0.6640
784.037174 0.6600 0.6580 0.6550 0.6480 0.6460
790.689074 0.6400 0.6300 0.6181 0.5951 0.5900
797.340974 0.5870 0.5790 0.5780 0.5790 0.5910
803.992873 0.5990 0.6060 0.6110 0.6229 0.6359
810.644773 0.6480 0.6630 0.6760 0.6840 0.6910
817.296673 0.6960 0.7000 0.7070 0.7189 0.7260
823.948573 0.7270 0.7310 0.7360 0.7390 0.7430
830.600472 0.7460 0.7510 0.7570 0.7590 0.7600
837.252372 0.7610 0.7630 0.7670 0.7680 0.7710
843.904272 0.7710 0.7710 0.7720 0.7720 0.7720
850.556171 0.7720 0.7720 0.7710 0.7690 0.7680
857.208071 0.7670 0.7640 0.7630 0.7570 0.7510
863.859971 0.7480 0.7470 0.7420 0.7390 0.7340
870.511870 0.7300 0.7230 0.7180 0.7110 0.7060
877.163770 0.7000 0.6940 0.6870 0.6780 0.6670
883.815670 0.6520 0.6470 0.6400 0.6340 0.6250
890.467570 0.6150 0.5990 0.5950 0.5900 0.5860
897.119469 0.5810 0.5780 0.5740 0.5710 0.5700
903.771369 0.5700 0.5690 0.5690 0.5700 0.5700
910.423269 0.5730 0.5790 0.5850 0.5940 0.5980
917.075168 0.6010 0.6130 0.6220 0.6280 0.6390
923.727068 0.6480 0.6510 0.6590 0.6680 0.6710
930.378968 0.6740 0.6820 0.6840 0.6870 0.6880
937.030868 0.6900 0.6920 0.6960 0.7000 0.7020
943.682767 0.7040 0.7060 0.7070 0.7070 0.7070
950.334667 0.7070 0.7070 0.7060 0.7030 0.7030
956.986567 0.7020 0.6990 0.6960 0.6940 0.6860
963.638466 0.6800 0.6720 0.6660 0.6560 0.6480
970.290366 0.6390 0.6280 0.6170 0.5970 0.5900
976.942266 0.5810 0.5650 0.5530 0.5420 0.5330
983.594166 0.5260 0.5210 0.5150 0.5090 0.5030
990.246065 0.4960 0.4860 0.4740 0.4660 0.4620
996.897965 0.4540 0.4520 0.4380 0.4300 0.4200
1003.549865 0.4130 0.4040 0.3980 0.3900 0.3840
1010.201764 0.3770 0.3720 0.3690 0.3680 0.3680
1016.853664 0.3680 0.3680 0.3680 0.3690 0.3690
1023.505564 0.3690 0.3690 0.3710 0.3710 0.3710
1030.157463 0.3710 0.3690 0.3690 0.3690 0.3680
1036.809363 0.3680 0.3690 0.3750 0.3800 0.3900
1043.461263 0.3960 0.4020 0.4090 0.4130 0.4160
1050.113163 0.4240 0.4290 0.4330 0.4370 0.4370
1056.765062 0.4380 0.4400 0.4410 0.4410 0.4420
1063.416962 0.4420 0.4420 0.4410 0.4410 0.4380
1070.068862 0.4370 0.4320 0.4280 0.4250 0.4200
1076.720761 0.4160 0.4100 0.4080 0.4040 0.4000
1083.372661 0.3970 0.3960 0.3940 0.3930 0.3920
1090.024561 0.3920 0.3930 0.3940 0.3970 0.4000
1096.676461 0.4040 0.4090 0.4130 0.4180 0.4240
1103.328360 0.4300 0.4340 0.4440 0.4490 0.4540
1109.980260 0.4620 0.4720 0.4800 0.4880 0.4960
1116.632160 0.5030 0.5100 0.5180 0.5260 0.5340
1123.284059 0.5420 0.5490 0.5580 0.5660 0.5740
1129.935959 0.5830 0.5910 0.5980 0.5990 0.6010
1136.587859 0.6090 0.6150 0.6210 0.6230 0.6280
1143.239759 0.6350 0.6390 0.6430 0.6480 0.6510
1149.891658 0.6590 0.6670 0.6720 0.6780 0.6800
1156.543558 0.6870 0.6900 0.6920 0.6940 0.6980
1163.195458 0.6990 0.6990 0.7000 0.7000 0.7000
1169.847357 0.7020 0.7040 0.7060 0.7110 0.7150
1176.499257 0.7180 0.7190 0.7200 0.7220 0.7270
1183.151157 0.7350 0.7380 0.7420 0.7470 0.7500
1189.803056 0.7510 0.7520 0.7570 0.7600 0.7610
1196.454956 0.7670 0.7710 0.7730 0.7760 0.7790
1203.106856 0.7810 0.7830 0.7840 0.7850 0.7890
1209.758756 0.7910 0.7910 0.7950 0.7960 0.7970
1216.410655 0.7970 0.8000 0.8030 0.8080 0.8110
1223.062555 0.8120 0.8130 0.8130 0.8150 0.8190
1229.714455 0.8210 0.8230 0.8270 0.8290 0.8290
1236.366354 0.8310 0.8310 0.8310 0.8310 0.8310
1243.018254 0.8310 0.8310 0.8310 0.8320 0.8320
1249.670154 0.8320 0.8330 0.8350 0.8350 0.8360
1256.322054 0.8360 0.8370 0.8390 0.8400 0.8410
1262.973953 0.8440 0.8440 0.8440 0.8440 0.8440
1269.625853 0.8450 0.8450 0.8450 0.8450 0.8470
1276.277753 0.8470 0.8480 0.8480 0.8480 0.8490
1282.929652 0.8490 0.8490 0.8510 0.8510 0.8510
1289.581552 0.8520 0.8520 0.8520 0.8530 0.8530
1296.233452 0.8530 0.8550 0.8550 0.8550 0.8550
1302.885352 0.8560 0.8560 0.8560 0.8560 0.8560
1309.537251 0.8560 0.8560 0.8570 0.8570 0.8570
1316.189151 0.8570 0.8600 0.8610 0.8610 0.8610
1322.841051 0.8610 0.8590 0.8590 0.8590 0.8600
1329.492950 0.8600 0.8600 0.8610 0.8610 0.8610
1336.144850 0.8610 0.8610 0.8610 0.8610 0.8610
1342.796750 0.8610 0.8610 0.8610 0.8610 0.8610
1349.448649 0.8610 0.8610 0.8630 0.8630 0.8630
1356.100549 0.8630 0.8630 0.8630 0.8630 0.8630
1362.752449 0.8610 0.8610 0.8610 0.8610 0.8610
1369.404349 0.8630 0.8630 0.8630 0.8630 0.8630
1376.056248 0.8630 0.8630 0.8630 0.8630 0.8630
1382.708148 0.8640 0.8640 0.8640 0.8640 0.8640
1389.360048 0.8640 0.8640 0.8640 0.8650 0.8650
1396.011947 0.8650 0.8650 0.8650 0.8630 0.8630
1402.663847 0.8640 0.8640 0.8640 0.8640 0.8630
1409.315747 0.8630 0.8630 0.8640 0.8650 0.8650
1415.967647 0.8670 0.8670 0.8670 0.8650 0.8650
1422.619546 0.8650 0.8650 0.8650 0.8650 0.8640
1429.271446 0.8640 0.8640 0.8640 0.8640 0.8640
1435.923346 0.8640 0.8640 0.8640 0.8630 0.8630
1442.575245 0.8640 0.8640 0.8640 0.8640 0.8650
1449.227145 0.8640 0.8640 0.8650 0.8670 0.8670
1455.879045 0.8650 0.8650 0.8640 0.8640 0.8640
1462.530944 0.8630 0.8630 0.8630 0.8630 0.8630
1469.182844 0.8630 0.8640 0.8640 0.8640 0.8650
1475.834744 0.8650 0.8650 0.8670 0.8670 0.8670
1482.486644 0.8680 0.8690 0.8690 0.8690 0.8690
1489.138543 0.8710 0.8710 0.8690 0.8690 0.8680
1495.790443 0.8670 0.8670 0.8670 0.8650 0.8670
1502.442343 0.8650 0.8650 0.8640 0.8640 0.8640
1509.094242 0.8640 0.8640 0.8650 0.8650 0.8650
1515.746142 0.8650 0.8640 0.8640 0.8640 0.8640
1522.398042 0.8630 0.8630 0.8630 0.8630 0.8630
1529.049942 0.8630 0.8630 0.8610 0.8610 0.8610
1535.701841 0.8630 0.8630 0.8630 0.8630 0.8610
1542.353741 0.8600 0.8590 0.8590 0.8590 0.8590
1549.005641 0.8590 0.8590 0.8600 0.8590 0.8570
1555.657540 0.8560 0.8560 0.8560 0.8550 0.8530
1562.309440 0.8530 0.8530 0.8530 0.8530 0.8530
1568.961340 0.8550 0.8530 0.8530 0.8520 0.8510
1575.613240 0.8510 0.8510 0.8490 0.8490 0.8480
1582.265139 0.8450 0.8440 0.8440 0.8430 0.8410
1588.917039 0.8400 0.8390 0.8350 0.8320 0.8310
1595.568939 0.8290 0.8290 0.8250 0.8230 0.8200
1602.220838 0.8170 0.8130 0.8110 0.8080 0.8050
1608.872738 0.8040 0.8010 0.7970 0.7960 0.7960
1615.524638 0.7950 0.7950 0.7950 0.7950 0.7930
1622.176537 0.7930 0.7930 0.7930 0.7930 0.7930
1628.828437 0.7950 0.7960 0.7970 0.7990 0.7990
1635.480337 0.8000 0.8000 0.8010 0.8030 0.8040
1642.132237 0.8070 0.8070 0.8090 0.8110 0.8120
1648.784136 0.8120 0.8130 0.8150 0.8160 0.8160
1655.436036 0.8160 0.8170 0.8190 0.8190 0.8200
1662.087936 0.8190 0.8200 0.8200 0.8200 0.8200
1668.739835 0.8210 0.8230 0.8210 0.8230 0.8230
1675.391735 0.8230 0.8230 0.8240 0.8240 0.8250
1682.043635 0.8250 0.8270 0.8270 0.8280 0.8280
1688.695535 0.8290 0.8290 0.8310 0.8310 0.8310
1695.347434 0.8320 0.8320 0.8330 0.8330 0.8330
1701.999334 0.8330 0.8330 0.8350 0.8350 0.8350
1708.651234 0.8360 0.8350 0.8350 0.8360 0.8370
1715.303133 0.8370 0.8370 0.8370 0.8370 0.8370
1721.955033 0.8370 0.8390 0.8400 0.8400 0.8400
1728.606933 0.8400 0.8400 0.8400 0.8400 0.8400
1735.258833 0.8400 0.8400 0.8400 0.8400 0.8400
1741.910732 0.8390 0.8390 0.8390 0.8400 0.8400
1748.562632 0.8400 0.8410 0.8410 0.8410 0.8400
1755.214532 0.8400 0.8400 0.8400 0.8400 0.8410
1761.866431 0.8410 0.8400 0.8400 0.8400 0.8400
1768.518331 0.8390 0.8400 0.8400 0.8370 0.8370
1775.170231 0.8370 0.8370 0.8370 0.8360 0.8360
1781.822130 0.8360 0.8360 0.8360 0.8360 0.8360
1788.474030 0.8360 0.8370 0.8370 0.8360 0.8360
1795.125930 0.8360 0.8360 0.8360 0.8360 0.8360
1801.777830 0.8360 0.8360 0.8370 0.8370 0.8370
1808.429729 0.8370 0.8370 0.8360 0.8360 0.8360
1815.081629 0.8360 0.8360 0.8370 0.8370 0.8370
1821.733529 0.8370 0.8370 0.8370 0.8390 0.8400
1828.385428 0.8400 0.8400 0.8400 0.8400 0.8410
1835.037328 0.8410 0.8430 0.8430 0.8430 0.8430
1841.689228 0.8430 0.8430 0.8430 0.8430 0.8430
1848.341128 0.8430 0.8440 0.8450 0.8450 0.8440
1854.993027 0.8430 0.8430 0.8430 0.8430 0.8430
1861.644927 0.8430 0.8410 0.8410 0.8410 0.8410
1868.296827 0.8410 0.8410 0.8430 0.8410 0.8410
1874.948726 0.8410 0.8410 0.8410 0.8410 0.8410
1881.600626 0.8390 0.8390 0.8370 0.8390 0.8400
1888.252526 0.8400 0.8400 0.8400 0.8390 0.8400
1894.904426 0.8400 0.8400 0.8400 0.8400 0.8400
1901.556325 0.8390 0.8370 0.8370 0.8370 0.8370
1908.208225 0.8370 0.8370 0.8370 0.8360 0.8360
1914.860125 0.8360 0.8360 0.8360 0.8360 0.8360
1921.512024 0.8360 0.8360 0.8360 0.8360 0.8360
1928.163924 0.8360 0.8370 0.8390 0.8390 0.8390
1934.815824 0.8390 0.8390 0.8370 0.8360 0.8360
1941.467723 0.8360 0.8350 0.8350 0.8320 0.8320
1948.119623 0.8330 0.8330 0.8350 0.8350 0.8360
1954.771523 0.8360 0.8350 0.8350 0.8350 0.8350
1961.423423 0.8320 0.8320 0.8350 0.8360 0.8360
1968.075322 0.8360 0.8360 0.8360 0.8360 0.8360
1974.727222 0.8360 0.8360 0.8360 0.8350 0.8320
1981.379122 0.8320 0.8330 0.8330 0.8330 0.8320
1988.031021 0.8350 0.8330 0.8330 0.8330 0.8330
1994.682921 0.8330 0.8320 0.8320 0.8320 0.8310
2001.334821 0.8315 0.8320 0.8315 0.8310 0.8295
2007.986721 0.8280 0.8275 0.8270 0.8270 0.8270
2014.638620 0.8280 0.8290 0.8290 0.8290 0.8290
2021.290520 0.8290 0.8290 0.8290 0.8285 0.8280
2027.942420 0.8280 0.8280 0.8280 0.8280 0.8280
2034.594319 0.8280 0.8285 0.8290 0.8290 0.8291
2041.246219 0.8301 0.8310 0.8310 0.8308 0.8288
2047.898119 0.8270 0.8270 0.8270 0.8270 0.8270
2054.550019 0.8270 0.8270 0.8270 0.8270 0.8270
2061.201918 0.8271 0.8281 0.8290 0.8290 0.8290
2067.853818 0.8290 0.8290 0.8290 0.8288 0.8278
2074.505718 0.8270 0.8270 0.8270 0.8270 0.8270
2081.157617 0.8270 0.8270 0.8270 0.8271 0.8276
2087.809517 0.8280 0.8280 0.8280 0.8280 0.8281
2094.461417 0.8286 0.8290 0.8290 0.8288 0.8278
2101.113316 0.8270 0.8270 0.8268 0.8258 0.8250
2107.765216 0.8250 0.8250 0.8250 0.8250 0.8250
2114.417116 0.8249 0.8244 0.8239 0.8234 0.8230
2121.069016 0.8230 0.8227 0.8217 0.8213 0.8223
2127.720915 0.8230 0.8230 0.8230 0.8230 0.8227
2134.372815 0.8217 0.8210 0.8210 0.8210 0.8210
2141.024715 0.8210 0.8210 0.8213 0.8223 0.8230
2147.676614 0.8230 0.8230 0.8230 0.8230 0.8230
2154.328514 0.8230 0.8230 0.8226 0.8216 0.8210
2160.980414 0.8210 0.8208 0.8203 0.8200 0.8200
2167.632314 0.8202 0.8207 0.8210 0.8210 0.8210
2174.284213 0.8210 0.8210 0.8210 0.8210 0.8210
2180.936113 0.8214 0.8224 0.8230 0.8230 0.8226
2187.588013 0.8216 0.8210 0.8210 0.8208 0.8203
2194.239912 0.8200 0.8200 0.8200 0.8200 0.8200
2200.891812 0.8200 0.8200 0.8200 0.8200 0.8200
2207.543712 0.8200 0.8200 0.8198 0.8193 0.8193
2214.195611 0.8198 0.8200 0.8200 0.8200 0.8200
2220.847511 0.8200 0.8200 0.8200 0.8200 0.8197
2227.499411 0.8192 0.8185 0.8175 0.8167 0.8162
2234.151311 0.8160 0.8160 0.8160 0.8160 0.8157
2240.803210 0.8152 0.8142 0.8126 0.8117 0.8112
2247.455110 0.8110 0.8110 0.8110 0.8110 0.8110
2254.107010 0.8110 0.8110 0.8110 0.8110 0.8110
2260.758909 0.8113 0.8118 0.8117 0.8112 0.8110
2267.410809 0.8110 0.8110 0.8110 0.8110 0.8110
2274.062709 0.8110 0.8110 0.8104 0.8094 0.8096
2280.714609 0.8106 0.8110 0.8110 0.8100 0.8085
2287.366508 0.8080 0.8080 0.8080 0.8080 0.8080
2294.018408 0.8080 0.8077 0.8072 0.8070 0.8070
2300.670308 0.8077 0.8087 0.8097 0.8107 0.8110
2307.322207 0.8110 0.8110 0.8110 0.8103 0.8093
2313.974107 0.8086 0.8081 0.8080 0.8080 0.8080
2320.626007 0.8080 0.8080 0.8080 0.8080 0.8080
2327.277907 0.8080 0.8080 0.8080 0.8080 0.8080
2333.929806 0.8080 0.8084 0.8089 0.8090 0.8090
2340.581706 0.8086 0.8081 0.8076 0.8071 0.8070
2347.233606 0.8070 0.8070 0.8070 0.8070 0.8070
2353.885505 0.8074 0.8079 0.8080 0.8080 0.8080
2360.537405 0.8080 0.8076 0.8071 0.8062 0.8052
2367.189305 0.8050 0.8050 0.8050 0.8050 0.8046
2373.841204 0.8041 0.8036 0.8031 0.8030 0.8030
2380.493104 0.8030 0.8030 0.8021 0.8011 0.8010
2387.145004 0.8010 0.8010 0.8010 0.8006 0.8001
2393.796904 0.8000 0.8000 0.8000 0.8000 0.7995
2400.448803 0.7990 0.7981 0.7971 0.7970 0.7970
2407.100703 0.7970 0.7970 0.7965 0.7960 0.7960
2413.752603 0.7960 0.7960 0.7960 0.7955 0.7950
2420.404502 0.7950 0.7950 0.7950 0.7950 0.7940
2427.056402 0.7930 0.7930 0.7930 0.7925 0.7920
2433.708302 0.7920 0.7920 0.7925 0.7930 0.7930
2440.360202 0.7930 0.7925 0.7920 0.7920 0.7920
2447.012101 0.7915 0.7910 0.7910 0.7910 0.7910
2453.664001 0.7910 0.7910 0.7910 0.7910 0.7909
2460.315901 0.7899 0.7890 0.7890 0.7890 0.7885
2466.967800 0.7880 0.7885 0.7890 0.7890 0.7890
2473.619700 0.7885 0.7880 0.7880 0.7879 0.7874
2480.271600 0.7870 0.7870 0.7869 0.7859 0.7850
2486.923500 0.7850 0.7850 0.7850 0.7850 0.7850
2493.575399 0.7851 0.7861 0.7869 0.7859 0.7850
2500.227299 0.7850 0.7850 0.7850 0.7849 0.7844
2506.879199 0.7840 0.7840 0.7839 0.7834 0.7830
2513.531098 0.7830 0.7828 0.7818 0.7810 0.7810
2520.182998 0.7810 0.7810 0.7810 0.7810 0.7810
2526.834898 0.7810 0.7810 0.7810 0.7809 0.7804
2533.486797 0.7800 0.7800 0.7800 0.7800 0.7800
2540.138697 0.7800 0.7800 0.7800 0.7800 0.7800
2546.790597 0.7800 0.7800 0.7800 0.7800 0.7799
2553.442497 0.7794 0.7790 0.7790 0.7790 0.7790
2560.094396 0.7790 0.7790 0.7790 0.7790 0.7787
2566.746296 0.7777 0.7770 0.7770 0.7770 0.7770
2573.398196 0.7770 0.7770 0.7768 0.7763 0.7760
2580.050095 0.7760 0.7758 0.7753 0.7750 0.7750
2586.701995 0.7750 0.7750 0.7746 0.7736 0.7730
2593.353895 0.7730 0.7728 0.7723 0.7720 0.7720
2600.005795 0.7720 0.7720 0.7720 0.7720 0.7718
2606.657694 0.7713 0.7710 0.7710 0.7706 0.7696
2613.309594 0.7690 0.7690 0.7690 0.7690 0.7690
2619.961494 0.7690 0.7690 0.7690 0.7688 0.7683
2626.613393 0.7682 0.7687 0.7690 0.7690 0.7690
2633.265293 0.7690 0.7690 0.7690 0.7688 0.7683
2639.917193 0.7668 0.7643 0.7625 0.7615 0.7610
2646.569093 0.7610 0.7610 0.7610 0.7610 0.7610
2653.220992 0.7615 0.7625 0.7630 0.7630 0.7630
2659.872892 0.7630 0.7630 0.7630 0.7624 0.7614
2666.524792 0.7610 0.7610 0.7607 0.7602 0.7600
2673.176691 0.7600 0.7600 0.7600 0.7600 0.7600
2679.828591 0.7591 0.7576 0.7567 0.7562 0.7557
2686.480491 0.7552 0.7550 0.7550 0.7550 0.7550
2693.132390 0.7550 0.7550 0.7541 0.7526 0.7520
2699.784290 0.7520 0.7517 0.7512 0.7507 0.7502
2706.436190 0.7494 0.7484 0.7474 0.7464 0.7460
2713.088090 0.7460 0.7453 0.7443 0.7440 0.7440
2719.739989 0.7440 0.7440 0.7437 0.7432 0.7430
2726.391889 0.7430 0.7430 0.7430 0.7430 0.7430
2733.043789 0.7430 0.7430 0.7430 0.7430 0.7430
2739.695688 0.7430 0.7426 0.7421 0.7413 0.7403
2746.347588 0.7400 0.7400 0.7400 0.7400 0.7400
2752.999488 0.7400 0.7400 0.7400 0.7400 0.7400
2759.651388 0.7400 0.7400 0.7396 0.7391 0.7386
2766.303287 0.7381 0.7368 0.7353 0.7346 0.7341
2772.955187 0.7340 0.7340 0.7340 0.7340 0.7340
2779.607087 0.7340 0.7332 0.7322 0.7320 0.7320
2786.258986 0.7320 0.7320 0.7320 0.7320 0.7316
2792.910886 0.7311 0.7310 0.7310 0.7310 0.7310
2799.562786 0.7310 0.7310 0.7297 0.7282 0.7280
2806.214685 0.7280 0.7276 0.7271 0.7270 0.7270
2812.866585 0.7266 0.7261 0.7260 0.7260 0.7251
2819.518485 0.7241 0.7235 0.7230 0.7230 0.7230
2826.170385 0.7230 0.7230 0.7216 0.7201 0.7200
2832.822284 0.7200 0.7200 0.7200 0.7191 0.7181
2839.474184 0.7166 0.7151 0.7136 0.7121 0.7115
2846.126084 0.7110 0.7110 0.7110 0.7105 0.7100
2852.777983 0.7090 0.7080 0.7075 0.7070 0.7070
2859.429883 0.7070 0.7065 0.7060 0.7065 0.7070
2866.081783 0.7070 0.7070 0.7075 0.7080 0.7090
2872.733683 0.7100 0.7100 0.7100 0.7100 0.7099
2879.385582 0.7089 0.7080 0.7080 0.7079 0.7069
2886.037482 0.7059 0.7049 0.7039 0.7029 0.7019
2892.689382 0.7004 0.6990 0.6985 0.6980 0.6980
2899.341281 0.6979 0.6969 0.6959 0.6954 0.6949
2905.993181 0.6944 0.6938 0.6923 0.6909 0.6904
2912.645081 0.6899 0.6889 0.6880 0.6880 0.6879
2919.296981 0.6874 0.6867 0.6842 0.6820 0.6820
2925.948880 0.6819 0.6808 0.6799 0.6794 0.6790
2932.600780 0.6790 0.6790 0.6790 0.6790 0.6790
2939.252680 0.6790 0.6790 0.6790 0.6790 0.6790
2945.904579 0.6790 0.6790 0.6790 0.6790 0.6790
2952.556479 0.6790 0.6790 0.6790 0.6790 0.6789
2959.208379 0.6784 0.6780 0.6780 0.6778 0.6768
2965.860278 0.6760 0.6760 0.6759 0.6754 0.6749
2972.512178 0.6744 0.6740 0.6740 0.6740 0.6740
2979.164078 0.6737 0.6727 0.6719 0.6714 0.6709
2985.815978 0.6703 0.6700 0.6700 0.6697 0.6687
2992.467877 0.6680 0.6680 0.6680 0.6680 0.6678
2999.119777 0.6673 0.6668 0.6663 0.6657 0.6647
3005.771677 0.6637 0.6627 0.6616 0.6606 0.6600
3012.423576 0.6600 0.6598 0.6593 0.6588 0.6583
3019.075476 0.6574 0.6559 0.6541 0.6516 0.6494
3025.727376 0.6479 0.6464 0.6449 0.6438 0.6433
3032.379276 0.6428 0.6423 0.6416 0.6406 0.6398
3039.031175 0.6393 0.6384 0.6369 0.6356 0.6346
3045.683075 0.6334 0.6318 0.6308 0.6303 0.6296
3052.334975 0.6286 0.6273 0.6258 0.6250 0.6250
3058.986874 0.6243 0.6228 0.6203 0.6168 0.6145
3065.638774 0.6135 0.6123 0.6108 0.6088 0.6063
3072.290674 0.6035 0.6005 0.5980 0.5960 0.5945
3078.942574 0.5935 0.5922 0.5907 0.5897 0.5892
3085.594473 0.5890 0.5890 0.5885 0.5875 0.5865
3092.246373 0.5855 0.5839 0.5819 0.5791 0.5756
3098.898273 0.5726 0.5701 0.5679 0.5659 0.5639
3105.550172 0.5619 0.5601 0.5586 0.5569 0.5549
3112.202072 0.5528 0.5508 0.5491 0.5476 0.5464
3118.853972 0.5454 0.5444 0.5434 0.5424 0.5414
3125.505871 0.5404 0.5394 0.5390 0.5390 0.5387
3132.157771 0.5382 0.5380 0.5380 0.5377 0.5372
3138.809671 0.5364 0.5353 0.5350 0.5350 0.5347
3145.461571 0.5342 0.5330 0.5315 0.5303 0.5293
3152.113470 0.5283 0.5273 0.5267 0.5262 0.5260
3158.765370 0.5260 0.5257 0.5252 0.5250 0.5250
3165.417270 0.5250 0.5250 0.5250 0.5250 0.5254
3172.069169 0.5259 0.5260 0.5260 0.5260 0.5260
3178.721069 0.5260 0.5260 0.5264 0.5269 0.5270
3185.372969 0.5270 0.5270 0.5270 0.5270 0.5270
3192.024869 0.5278 0.5288 0.5290 0.5290 0.5290
3198.676768 0.5290 0.5290 0.5290 0.5294 0.5299
3205.328668 0.5304 0.5309 0.5318 0.5328 0.5334
3211.980568 0.5339 0.5344 0.5349 0.5350 0.5350
3218.632467 0.5363 0.5378 0.5380 0.5380 0.5380
3225.284367 0.5380 0.5384 0.5389 0.5399 0.5409
3231.936267 0.5410 0.5410 0.5414 0.5419 0.5424
3238.588167 0.5429 0.5439 0.5449 0.5454 0.5459
3245.240066 0.5464 0.5470 0.5479 0.5489 0.5495
3251.891966 0.5500 0.5500 0.5500 0.5505 0.5510
3258.543866 0.5519 0.5529 0.5535 0.5540 0.5540
3265.195765 0.5540 0.5545 0.5550 0.5559 0.5569
3271.847665 0.5570 0.5570 0.5575 0.5580 0.5585
3278.499565 0.5590 0.5600 0.5610 0.5615 0.5620
3285.151464 0.5625 0.5630 0.5630 0.5630 0.5640
3291.803364 0.5650 0.5650 0.5650 0.5655 0.5660
3298.455264 0.5665 0.5670 0.5670 0.5670 0.5680
3305.107164 0.5690 0.5695 0.5700 0.5700 0.5700
3311.759063 0.5705 0.5710 0.5710 0.5710 0.5710
3318.410963 0.5711 0.5721 0.5730 0.5730 0.5730
3325.062863 0.5735 0.5740 0.5740 0.5740 0.5740
3331.714762 0.5740 0.5740 0.5740 0.5740 0.5739
3338.366662 0.5734 0.5730 0.5730 0.5729 0.5719
3345.018562 0.5710 0.5710 0.5710 0.5710 0.5710
3351.670462 0.5710 0.5710 0.5710 0.5710 0.5710
3358.322361 0.5709 0.5704 0.5699 0.5694 0.5690
3364.974261 0.5690 0.5688 0.5678 0.5670 0.5670
3371.626161 0.5669 0.5664 0.5660 0.5660 0.5659
3378.278060 0.5654 0.5648 0.5638 0.5630 0.5630
3384.929960 0.5629 0.5624 0.5619 0.5614 0.5610
3391.581860 0.5610 0.5608 0.5598 0.5590 0.5590
3398.233759 0.5589 0.5584 0.5580 0.5580 0.5579
3404.885659 0.5574 0.5570 0.5570 0.5567 0.5557
3411.537559 0.5550 0.5550 0.5550 0.5550 0.5548
3418.189459 0.5543 0.5540 0.5540 0.5538 0.5533
3424.841358 0.5530 0.5530 0.5527 0.5517 0.5510
3431.493258 0.5510 0.5510 0.5510 0.5510 0.5510
3438.145158 0.5510 0.5510 0.5510 0.5510 0.5514
3444.797057 0.5524 0.5532 0.5537 0.5540 0.5540
3451.448957 0.5542 0.5547 0.5550 0.5550 0.5550
3458.100857 0.5550 0.5556 0.5571 0.5580 0.5580
3464.752757 0.5580 0.5580 0.5582 0.5587 0.5590
3471.404656 0.5590 0.5594 0.5604 0.5610 0.5610
3478.056556 0.5614 0.5624 0.5630 0.5630 0.5630
3484.708456 0.5630 0.5635 0.5645 0.5655 0.5665
3491.360355 0.5677 0.5692 0.5702 0.5707 0.5717
3498.012255 0.5732 0.5747 0.5762 0.5772 0.5777
3504.664155 0.5787 0.5802 0.5813 0.5818 0.5828
3511.316055 0.5843 0.5855 0.5865 0.5878 0.5893
3517.967954 0.5911 0.5931 0.5951 0.5971 0.5980
3524.619854 0.5980 0.5983 0.5988 0.5996 0.6006
3531.271754 0.6010 0.6010 0.6013 0.6018 0.6029
3537.923653 0.6044 0.6062 0.6082 0.6096 0.6106
3544.575553 0.6116 0.6126 0.6136 0.6146 0.6159
3551.227453 0.6174 0.6183 0.6188 0.6196 0.6206
3557.879352 0.6213 0.6218 0.6236 0.6261 0.6273
3564.531252 0.6278 0.6290 0.6305 0.6310 0.6310
3571.183152 0.6320 0.6335 0.6353 0.6373 0.6383
3577.835052 0.6388 0.6400 0.6415 0.6423 0.6428
3584.486951 0.6433 0.6438 0.6447 0.6457 0.6464
3591.138851 0.6469 0.6470 0.6470 0.6470 0.6470
3597.790751 0.6470 0.6470 0.6470 0.6470 0.6470
3604.442650 0.6470 0.6470 0.6470 0.6470 0.6470
3611.094550 0.6474 0.6479 0.6480 0.6480 0.6488
3617.746450 0.6498 0.6500 0.6500 0.6504 0.6509
3624.398350 0.6510 0.6510 0.6522 0.6537 0.6548
3631.050249 0.6558 0.6572 0.6587 0.6606 0.6626
3637.702149 0.6662 0.6702 0.6722 0.6737 0.6748
3644.354049 0.6758 0.6768 0.6778 0.6784 0.6789
3651.005948 0.6790 0.6790 0.6790 0.6790 0.6803
3657.657848 0.6818 0.6829 0.6839 0.6849 0.6859
3664.309748 0.6860 0.6860 0.6869 0.6879 0.6880
3670.961648 0.6880 0.6889 0.6899 0.6905 0.6910
3677.613547 0.6915 0.6920 0.6929 0.6939 0.6940
3684.265447 0.6940 0.6931 0.6921 0.6915 0.6910
3690.917347 0.6887 0.6862 0.6841 0.6821 0.6810
3697.569246 0.6800 0.6800 0.6800 0.6810 0.6820
3704.221146 0.6830 0.6840 0.6860 0.6880 0.6895
3710.873046 0.6910 0.6945 0.6980 0.6985 0.6990
3717.524945 0.6995 0.7000 0.7010 0.7020 0.7025
3724.176845 0.7030 0.7035 0.7040 0.7050 0.7060
3730.828745 0.7065 0.7070 0.7070 0.7070 0.7075
3737.480645 0.7080 0.7090 0.7100 0.7100 0.7100
3744.132544 0.7100 0.7100 0.7105 0.7110 0.7110
3750.784444 0.7110 0.7110 0.7110 0.7105 0.7100
3757.436344 0.7100 0.7101 0.7106 0.7110 0.7110
3764.088243 0.7110 0.7110 0.7110 0.7110 0.7110
3770.740143 0.7110 0.7110 0.7110 0.7108 0.7093
3777.392043 0.7080 0.7080 0.7080 0.7080 0.7080
3784.043943 0.7080 0.7080 0.7080 0.7080 0.7080
3790.695842 0.7080 0.7080 0.7082 0.7092 0.7100
3797.347742 0.7100 0.7098 0.7088 0.7079 0.7074
3803.999642 0.7070 0.7070 0.7070 0.7070 0.7071
3810.651541 0.7076 0.7080 0.7080 0.7078 0.7068
3817.303441 0.7060 0.7060 0.7058 0.7048 0.7039
3823.955341 0.7034 0.7030 0.7030 0.7031 0.7036
3830.607241 0.7040 0.7040 0.7043 0.7053 0.7060
3837.259140 0.7060 0.7061 0.7066 0.7071 0.7076
3843.911040 0.7080 0.7080 0.7080 0.7080 0.7080
3850.562940 0.7080 0.7080 0.7080 0.7078 0.7073
3857.214839 0.7070 0.7070 0.7068 0.7063 0.7057
3863.866739 0.7047 0.7040 0.7040 0.7040 0.7040
3870.518639 0.7038 0.7033 0.7030 0.7030 0.7028
3877.170538 0.7023 0.7020 0.7020 0.7016 0.7006
3883.822438 0.7000 0.7000 0.7000 0.7000 0.7000
3890.474338 0.7000 0.7000 0.7000 0.7000 0.7000
3897.126238 0.6998 0.6993 0.6988 0.6983 0.6980
3903.778137 0.6980 0.6982 0.6987 0.6990 0.6990
3910.430037 0.6990 0.6990 0.6990 0.6990 0.6990
3917.081937 0.6990 0.6990 0.6990 0.6988 0.6983
3923.733836 0.6980 0.6980 0.6980 0.6980 0.6982
3930.385736 0.6987 0.6990 0.6990 0.6990 0.6990
3937.037636 0.6990 0.6990 0.6987 0.6982 0.6980
3943.689536 0.6980 0.6975 0.6965 0.6957 0.6952
3950.341435 0.6947 0.6942 0.6940 0.6940 0.6935
3956.993335 0.6924 0.6920 0.6920 0.6920 0.6920
3963.645235 0.6920 0.6920 0.6920 0.6920 0.6920
3970.297134 0.6920 0.6920 0.6920 0.6917 0.6912
3976.949034 0.6910 0.6910 0.6910 0.6910 0.6913
3983.600934 0.6918
##END=
