##TITLE=2,2-DIMETHYL HEPTANOL
##JCAMP-DX=4.24
##DATA TYPE=INFRARED SPECTRUM
##CLASS=COBLENTZ
##OWNER=COBLENTZ SOCIETY
Collection (C) 2018 copyright by the U.S. Secretary of Commerce
on behalf of the United States of America. All rights reserved.
##DATE=1960
##MOLFORM=C10 H20 O
##SOURCE REFERENCE=COBLENTZ NO. 989
##$NIST ID=B6000989
##$NIST SOURCE=COBLENTZ
##$NIST IMAGE=cob989
##SPECTROMETER/DATA SYSTEM=Not specified, most likely a prism, grating, or hybrid spectrometer.
##PATH LENGTH=0.0016 CM
##SAMPLING PROCEDURE=TRANSMISSION
##RESOLUTION=4
##DATA PROCESSING=DIGITIZED BY NIST FROM HARD COPY
##XUNITS=MICROMETERS
##YUNITS=TRANSMITTANCE
##XFACTOR=1.000000
##YFACTOR=1
##DELTAX=000.006633
##FIRSTX=2.126
##LASTX=16.0145
##FIRSTY=0.965
##MAXX=16.0145
##MINX=2.126
##MAXY=1
##MINY=0.061
##NPOINTS=2095
##XYDATA=(X++(Y..Y))
2.126000 0.9650 0.9650 0.9650 0.9650 0.9650
2.159179 0.9650 0.9650 0.9650 0.9650 0.9650
2.192000 0.9660 0.9660 0.9680 0.9680 0.9660
2.225179 0.9660 0.9660 0.9660 0.9660 0.9660
2.259000 0.9660 0.9630 0.9600 0.9560 0.9550
2.292179 0.9550 0.9510 0.9460 0.9430 0.9360
2.325000 0.9350 0.9350 0.9350 0.9350 0.9350
2.358179 0.9360 0.9360 0.9360 0.9350 0.9310
2.391000 0.9310 0.9300 0.9310 0.9310 0.9310
2.424179 0.9310 0.9330 0.9330 0.9330 0.9330
2.458000 0.9330 0.9360 0.9400 0.9410 0.9450
2.491179 0.9450 0.9460 0.9460 0.9480 0.9500
2.524000 0.9510 0.9530 0.9550 0.9580 0.9630
2.557179 0.9650 0.9680 0.9680 0.9700 0.9710
2.590000 0.9710 0.9710 0.9730 0.9750 0.9750
2.623179 0.9760 0.9760 0.9760 0.9780 0.9810
2.657000 0.9830 0.9860 0.9910 0.9930 0.9930
2.690179 0.9950 0.9950 0.9960 0.9980 0.9980
2.723000 0.9980 0.9980 0.9930 0.9880 0.9830
2.756179 0.9800 0.9730 0.9700 0.9610 0.9510
2.789000 0.9380 0.9130 0.8830 0.8430 0.8010
2.822179 0.7530 0.7050 0.6780 0.6500 0.6100
2.856000 0.5630 0.5260 0.4860 0.4550 0.4280
2.889179 0.4010 0.3750 0.3500 0.3380 0.3250
2.922000 0.3000 0.2780 0.2630 0.2550 0.2450
2.955179 0.2360 0.2330 0.2300 0.2250 0.2210
2.988000 0.2150 0.2100 0.2080 0.2050 0.2030
3.021179 0.2030 0.2060 0.2080 0.2160 0.2210
3.055000 0.2260 0.2310 0.2360 0.2430 0.2510
3.088179 0.2610 0.2730 0.2860 0.2980 0.3100
3.121000 0.3280 0.3700 0.3810 0.3980 0.4180
3.154179 0.4350 0.4550 0.4710 0.4980 0.5150
3.187000 0.5260 0.5400 0.5600 0.5780 0.5960
3.220179 0.6160 0.6280 0.6430 0.6880 0.7130
3.254000 0.7230 0.7400 0.7550 0.7650 0.7780
3.287179 0.7850 0.7930 0.7980 0.8010 0.8060
3.320000 0.8100 0.8060 0.8010 0.7950 0.7750
3.353179 0.7500 0.7260 0.6800 0.6280 0.5760
3.386000 0.5000 0.3860 0.2730 0.1930 0.1150
3.419179 0.0900 0.0810 0.0750 0.0680 0.0650
3.453000 0.0630 0.0630 0.0610 0.0610 0.0650
3.486179 0.0700 0.0750 0.0800 0.0900 0.0930
3.519000 0.0930 0.0930 0.0950 0.0980 0.1030
3.552179 0.1430 0.2180 0.2910 0.4180 0.4610
3.585000 0.5480 0.6030 0.6530 0.7210 0.7360
3.618179 0.7500 0.7610 0.7730 0.7800 0.7850
3.652000 0.7880 0.7930 0.7980 0.8000 0.8000
3.685179 0.8010 0.8010 0.8100 0.8180 0.8250
3.718000 0.8330 0.8410 0.8510 0.8530 0.8600
3.751179 0.8630 0.8660 0.8700 0.8730 0.8750
3.784000 0.8780 0.8800 0.8810 0.8830 0.8850
3.817179 0.8860 0.8900 0.8930 0.8960 0.8980
3.851000 0.9010 0.9030 0.9080 0.9100 0.9100
3.884179 0.9110 0.9150 0.9150 0.9180 0.9180
3.917000 0.9210 0.9260 0.9260 0.9280 0.9280
3.950179 0.9300 0.9310 0.9330 0.9380 0.9400
3.983000 0.9410 0.9410 0.9430 0.9430 0.9450
4.016179 0.9500 0.9500 0.9500 0.9500 0.9500
4.049000 0.9510 0.9530 0.9530 0.9530 0.9580
4.082179 0.9600 0.9600 0.9600 0.9600 0.9580
4.116000 0.9560 0.9530 0.9530 0.9530 0.9530
4.149179 0.9600 0.9630 0.9650 0.9650 0.9660
4.182000 0.9660 0.9650 0.9630 0.9650 0.9650
4.215179 0.9650 0.9650 0.9650 0.9650 0.9660
4.248000 0.9660 0.9700 0.9730 0.9760 0.9810
4.281179 0.9850 0.9880 0.9910 0.9910 0.9930
4.315000 0.9950 0.9960 0.9980 1.0000 1.0000
4.348179 1.0000 1.0000 1.0000 0.9980 0.9930
4.381000 0.9900 0.9860 0.9830 0.9800 0.9780
4.414179 0.9730 0.9710 0.9710 0.9710 0.9710
4.447000 0.9710 0.9710 0.9730 0.9750 0.9750
4.480179 0.9760 0.9760 0.9760 0.9780 0.9810
4.514000 0.9810 0.9810 0.9810 0.9810 0.9800
4.547179 0.9780 0.9780 0.9760 0.9750 0.9750
4.580000 0.9750 0.9760 0.9780 0.9800 0.9800
4.613179 0.9780 0.9780 0.9780 0.9760 0.9730
4.646000 0.9730 0.9730 0.9730 0.9730 0.9730
4.679179 0.9750 0.9750 0.9760 0.9780 0.9780
4.713000 0.9780 0.9780 0.9760 0.9750 0.9750
4.746179 0.9750 0.9730 0.9710 0.9660 0.9600
4.779000 0.9560 0.9560 0.9580 0.9580 0.9580
4.812179 0.9580 0.9600 0.9600 0.9600 0.9600
4.845000 0.9580 0.9560 0.9530 0.9530 0.9530
4.878179 0.9530 0.9530 0.9530 0.9530 0.9530
4.912000 0.9510 0.9530 0.9530 0.9530 0.9530
4.945179 0.9530 0.9530 0.9530 0.9530 0.9530
4.978000 0.9530 0.9550 0.9560 0.9580 0.9600
5.011179 0.9660 0.9660 0.9660 0.9650 0.9630
5.044000 0.9610 0.9600 0.9560 0.9530 0.9510
5.077179 0.9530 0.9510 0.9510 0.9510 0.9510
5.111000 0.9510 0.9530 0.9560 0.9580 0.9580
5.144179 0.9560 0.9510 0.9500 0.9500 0.9500
5.177000 0.9500 0.9500 0.9510 0.9510 0.9510
5.210179 0.9500 0.9500 0.9510 0.9510 0.9530
5.243000 0.9530 0.9510 0.9510 0.9500 0.9500
5.276179 0.9500 0.9500 0.9500 0.9500 0.9500
5.310000 0.9460 0.9460 0.9450 0.9430 0.9430
5.343179 0.9460 0.9460 0.9480 0.9480 0.9460
5.376000 0.9460 0.9460 0.9460 0.9460 0.9460
5.409179 0.9460 0.9460 0.9450 0.9430 0.9410
5.442000 0.9410 0.9410 0.9410 0.9410 0.9410
5.475179 0.9410 0.9400 0.9380 0.9350 0.9350
5.509000 0.9380 0.9400 0.9410 0.9410 0.9400
5.542179 0.9400 0.9410 0.9410 0.9410 0.9430
5.575000 0.9450 0.9460 0.9460 0.9460 0.9450
5.608179 0.9430 0.9430 0.9430 0.9430 0.9430
5.641000 0.9430 0.9410 0.9400 0.9400 0.9380
5.674179 0.9360 0.9360 0.9350 0.9350 0.9330
5.708000 0.9330 0.9330 0.9310 0.9310 0.9310
5.741179 0.9300 0.9260 0.9210 0.9200 0.9180
5.774000 0.9180 0.9160 0.9060 0.9000 0.8910
5.807179 0.8880 0.8860 0.8860 0.8860 0.8880
5.840000 0.8880 0.8880 0.8880 0.8860 0.8860
5.873179 0.8880 0.8880 0.8880 0.8880 0.8880
5.907000 0.8900 0.8900 0.8900 0.8900 0.8910
5.940179 0.8910 0.8910 0.8930 0.8950 0.8950
5.973000 0.8980 0.8980 0.9000 0.8980 0.9000
6.006179 0.9010 0.9000 0.9000 0.9000 0.9000
6.039000 0.9000 0.9000 0.8980 0.8960 0.8960
6.072179 0.9000 0.9010 0.9030 0.9030 0.9030
6.106000 0.9010 0.9010 0.9000 0.9000 0.9000
6.139179 0.9010 0.8980 0.8950 0.8930 0.8930
6.172000 0.8930 0.8930 0.8930 0.8930 0.8930
6.205179 0.8910 0.8910 0.8910 0.8910 0.8900
6.238000 0.8900 0.8900 0.8900 0.8880 0.8860
6.271179 0.8860 0.8860 0.8880 0.8880 0.8860
6.305000 0.8860 0.8860 0.8850 0.8860 0.8860
6.338179 0.8860 0.8860 0.8860 0.8860 0.8860
6.371000 0.8860 0.8860 0.8860 0.8860 0.8900
6.404179 0.8900 0.8910 0.8900 0.8880 0.8860
6.437000 0.8850 0.8830 0.8830 0.8830 0.8830
6.470179 0.8830 0.8850 0.8880 0.8900 0.8900
6.504000 0.8850 0.8800 0.8750 0.8700 0.8680
6.537179 0.8660 0.8660 0.8680 0.8710 0.8710
6.570000 0.8750 0.8750 0.8680 0.8650 0.8510
6.603179 0.8410 0.8330 0.8300 0.8300 0.8300
6.636000 0.8300 0.8210 0.8100 0.8030 0.8010
6.669179 0.8000 0.7910 0.7780 0.7550 0.7480
6.703000 0.7410 0.7310 0.7030 0.6780 0.6530
6.736179 0.6060 0.5510 0.5030 0.3750 0.3430
6.769000 0.3100 0.3050 0.2800 0.2530 0.2450
6.802179 0.2230 0.1750 0.1750 0.1830 0.2000
6.835000 0.2180 0.2310 0.2480 0.2550 0.2680
6.868179 0.2810 0.3050 0.3310 0.3780 0.4010
6.902000 0.4180 0.4400 0.4610 0.4760 0.5000
6.935179 0.5110 0.5250 0.5300 0.5310 0.5360
6.968000 0.5510 0.5580 0.5650 0.5710 0.5780
7.001179 0.5850 0.5910 0.5980 0.6010 0.6080
7.034000 0.6080 0.6010 0.6010 0.6060 0.6100
7.067179 0.6100 0.6100 0.6080 0.6030 0.6010
7.101000 0.6000 0.5960 0.5930 0.5910 0.5880
7.134179 0.5830 0.5730 0.5650 0.5560 0.5500
7.167000 0.5410 0.5260 0.5100 0.4810 0.4350
7.200179 0.4180 0.4030 0.4010 0.4030 0.4010
7.233000 0.4010 0.3980 0.3760 0.3650 0.3600
7.266179 0.3580 0.3610 0.3810 0.4130 0.4610
7.299000 0.5030 0.5030 0.4680 0.3980 0.3530
7.332179 0.3350 0.3330 0.3310 0.3330 0.4080
7.366000 0.4600 0.5050 0.5510 0.5810 0.6000
7.399179 0.6110 0.6210 0.6310 0.6350 0.6400
7.432000 0.6400 0.6400 0.6360 0.6360 0.6360
7.465179 0.6380 0.6410 0.6430 0.6500 0.6530
7.498000 0.6610 0.6750 0.6750 0.6780 0.6800
7.531179 0.6810 0.6810 0.6810 0.6810 0.6800
7.565000 0.6780 0.6760 0.6760 0.6710 0.6660
7.598179 0.6610 0.6530 0.6510 0.6500 0.6480
7.631000 0.6480 0.6510 0.6530 0.6660 0.6880
7.664179 0.6900 0.6900 0.6930 0.6960 0.6960
7.697000 0.6950 0.6910 0.6880 0.6880 0.6880
7.730179 0.6880 0.6880 0.6880 0.6860 0.6860
7.764000 0.6860 0.6850 0.6850 0.6880 0.6900
7.797179 0.6900 0.6910 0.6900 0.6830 0.6710
7.830000 0.6700 0.6660 0.6610 0.6550 0.6530
7.863179 0.6500 0.6480 0.6480 0.6500 0.6530
7.896000 0.6580 0.6630 0.6730 0.6760 0.6780
7.929179 0.6810 0.6850 0.6860 0.6880 0.6900
7.963000 0.6900 0.6900 0.6910 0.6910 0.6910
7.996179 0.6930 0.6960 0.7000 0.7010 0.7060
8.029000 0.7130 0.7200 0.7210 0.7230 0.7250
8.062179 0.7250 0.7250 0.7250 0.7250 0.7230
8.095000 0.7200 0.7130 0.7100 0.7030 0.7000
8.128179 0.6930 0.6880 0.6850 0.6830 0.6810
8.162000 0.6810 0.6830 0.6830 0.6830 0.6780
8.195179 0.6710 0.6650 0.6580 0.6400 0.6310
8.228000 0.6310 0.6330 0.6350 0.6350 0.6350
8.261179 0.6330 0.6330 0.6330 0.6300 0.6300
8.294000 0.6300 0.6280 0.6300 0.6310 0.6380
8.327179 0.6430 0.6450 0.6480 0.6500 0.6500
8.361000 0.6500 0.6480 0.6480 0.6480 0.6500
8.394179 0.6480 0.6500 0.6480 0.6480 0.6500
8.427000 0.6500 0.6510 0.6530 0.6530 0.6530
8.460179 0.6530 0.6550 0.6550 0.6550 0.6560
8.493000 0.6580 0.6560 0.6550 0.6550 0.6550
8.526179 0.6550 0.6530 0.6450 0.6450 0.6430
8.560000 0.6410 0.6410 0.6400 0.6400 0.6410
8.593179 0.6430 0.6430 0.6460 0.6510 0.6530
8.626000 0.6600 0.6800 0.6910 0.6960 0.7030
8.659179 0.7030 0.7050 0.7050 0.7110 0.7160
8.692000 0.7250 0.7310 0.7360 0.7450 0.7480
8.725179 0.7510 0.7530 0.7550 0.7550 0.7550
8.759000 0.7550 0.7580 0.7600 0.7610 0.7650
8.792179 0.7660 0.7680 0.7680 0.7660 0.7660
8.825000 0.7660 0.7680 0.7660 0.7660 0.7650
8.858179 0.7600 0.7550 0.7530 0.7510 0.7500
8.891000 0.7500 0.7460 0.7410 0.7350 0.7300
8.924179 0.7260 0.7230 0.7180 0.7110 0.7050
8.958000 0.7030 0.6980 0.6930 0.6860 0.6800
8.991179 0.6700 0.6680 0.6650 0.6630 0.6610
9.024000 0.6650 0.6660 0.6800 0.6900 0.6930
9.057179 0.6950 0.6960 0.6980 0.6960 0.6950
9.090000 0.6900 0.6860 0.6830 0.6730 0.6680
9.123179 0.6610 0.6530 0.6430 0.6330 0.6260
9.157000 0.6230 0.6200 0.6160 0.6150 0.6130
9.190179 0.6110 0.6080 0.6050 0.6010 0.6000
9.223000 0.6000 0.5930 0.5880 0.5830 0.5730
9.256179 0.5610 0.5530 0.5450 0.5360 0.5280
9.289000 0.5150 0.5130 0.5100 0.5030 0.5000
9.322179 0.4960 0.4930 0.4850 0.4800 0.4730
9.356000 0.4600 0.4330 0.4200 0.3980 0.3750
9.389179 0.3500 0.3410 0.3310 0.3060 0.2830
9.422000 0.2600 0.2450 0.2180 0.2000 0.1710
9.455179 0.1600 0.1530 0.1430 0.1310 0.1210
9.488000 0.1150 0.1100 0.1010 0.1000 0.0980
9.521179 0.0930 0.0910 0.0900 0.0900 0.0880
9.555000 0.0860 0.0850 0.0830 0.0830 0.0830
9.588179 0.0850 0.0850 0.0880 0.0880 0.0900
9.621000 0.0930 0.1000 0.1000 0.1010 0.1100
9.654179 0.1160 0.1230 0.1300 0.1400 0.1500
9.687000 0.1600 0.1680 0.1780 0.1850 0.2000
9.720179 0.2060 0.2200 0.2280 0.2410 0.2550
9.754000 0.2810 0.2950 0.3000 0.3060 0.3130
9.787179 0.3250 0.3330 0.3480 0.3530 0.3600
9.820000 0.3610 0.3700 0.3750 0.3830 0.3910
9.853179 0.4000 0.4160 0.4300 0.4510 0.4660
9.886000 0.4810 0.4860 0.4930 0.4960 0.4980
9.919179 0.5010 0.5030 0.5100 0.5130 0.5160
9.953000 0.5210 0.5280 0.5360 0.5430 0.5500
9.986179 0.5560 0.5610 0.5660 0.5710 0.5730
10.019000 0.5730 0.5730 0.5730 0.5710 0.5710
10.052179 0.5710 0.5710 0.5710 0.5710 0.5700
10.085000 0.5710 0.5780 0.5810 0.5830 0.5900
10.118179 0.6000 0.6030 0.6130 0.6210 0.6300
10.152000 0.6400 0.6450 0.6480 0.6500 0.6550
10.185179 0.6610 0.6780 0.6810 0.6830 0.6860
10.218000 0.6880 0.6880 0.6900 0.6930 0.6950
10.251179 0.6960 0.6960 0.6960 0.6960 0.6980
10.284000 0.7030 0.7030 0.7050 0.7130 0.7150
10.317179 0.7210 0.7280 0.7310 0.7360 0.7430
10.351000 0.7480 0.7510 0.7510 0.7510 0.7530
10.384179 0.7530 0.7580 0.7610 0.7630 0.7650
10.417000 0.7650 0.7650 0.7660 0.7660 0.7660
10.450179 0.7660 0.7660 0.7660 0.7660 0.7660
10.483000 0.7660 0.7650 0.7650 0.7630 0.7610
10.516179 0.7610 0.7610 0.7610 0.7600 0.7560
10.549000 0.7530 0.7500 0.7480 0.7460 0.7410
10.582179 0.7400 0.7380 0.7360 0.7330 0.7260
10.616000 0.7250 0.7210 0.7180 0.7160 0.7130
10.649179 0.7130 0.7130 0.7130 0.7160 0.7200
10.682000 0.7230 0.7280 0.7330 0.7410 0.7500
10.715179 0.7630 0.7680 0.7700 0.7710 0.7730
10.748000 0.7780 0.7800 0.7810 0.7830 0.7830
10.781179 0.7850 0.7850 0.7850 0.7850 0.7850
10.815000 0.7830 0.7810 0.7780 0.7730 0.7710
10.848179 0.7650 0.7600 0.7550 0.7530 0.7510
10.881000 0.7500 0.7430 0.7400 0.7330 0.7250
10.914179 0.7210 0.7210 0.7180 0.7160 0.7130
10.947000 0.7080 0.7030 0.7030 0.7030 0.7030
10.980179 0.7030 0.7030 0.7050 0.7030 0.7030
11.014000 0.7030 0.7030 0.7030 0.7030 0.7030
11.047179 0.7030 0.7000 0.6910 0.6830 0.6810
11.080000 0.6810 0.6800 0.6800 0.6810 0.6860
11.113179 0.6910 0.6950 0.7000 0.7100 0.7210
11.146000 0.7330 0.7430 0.7500 0.7550 0.7630
11.179179 0.7700 0.7760 0.7810 0.7850 0.7860
11.213000 0.7880 0.7880 0.7880 0.7880 0.7860
11.246179 0.7850 0.7830 0.7780 0.7750 0.7700
11.279000 0.7680 0.7610 0.7550 0.7550 0.7510
11.312179 0.7500 0.7500 0.7510 0.7530 0.7610
11.345000 0.7680 0.7700 0.7700 0.7710 0.7730
11.378179 0.7750 0.7780 0.7800 0.7830 0.7830
11.412000 0.7830 0.7830 0.7830 0.7830 0.7830
11.445179 0.7830 0.7830 0.7830 0.7850 0.7850
11.478000 0.7850 0.7850 0.7860 0.7860 0.7880
11.511179 0.7900 0.7910 0.7930 0.7930 0.7930
11.544000 0.7930 0.7930 0.7910 0.7910 0.7950
11.577179 0.7960 0.7980 0.8000 0.7980 0.7980
11.611000 0.7980 0.7960 0.7950 0.7930 0.7900
11.644179 0.7880 0.7880 0.7860 0.7830 0.7800
11.677000 0.7800 0.7780 0.7780 0.7780 0.7780
11.710179 0.7780 0.7800 0.7810 0.7850 0.7860
11.743000 0.7860 0.7850 0.7850 0.7830 0.7810
11.776179 0.7810 0.7810 0.7830 0.7830 0.7830
11.810000 0.7830 0.7830 0.7830 0.7830 0.7830
11.843179 0.7810 0.7810 0.7800 0.7780 0.7780
11.876000 0.7760 0.7760 0.7750 0.7730 0.7730
11.909179 0.7710 0.7700 0.7700 0.7700 0.7680
11.942000 0.7650 0.7610 0.7580 0.7550 0.7550
11.975179 0.7550 0.7530 0.7530 0.7550 0.7550
12.009000 0.7550 0.7550 0.7560 0.7600 0.7630
12.042179 0.7650 0.7650 0.7660 0.7700 0.7710
12.075000 0.7710 0.7710 0.7710 0.7730 0.7750
12.108179 0.7750 0.7750 0.7730 0.7730 0.7730
12.141000 0.7730 0.7750 0.7730 0.7730 0.7730
12.174179 0.7730 0.7710 0.7700 0.7680 0.7680
12.208000 0.7730 0.7750 0.7730 0.7730 0.7730
12.241179 0.7730 0.7730 0.7730 0.7700 0.7680
12.274000 0.7660 0.7650 0.7650 0.7650 0.7650
12.307179 0.7660 0.7660 0.7660 0.7650 0.7650
12.340000 0.7650 0.7630 0.7630 0.7630 0.7630
12.373179 0.7630 0.7630 0.7630 0.7610 0.7600
12.407000 0.7580 0.7560 0.7550 0.7550 0.7510
12.440179 0.7500 0.7510 0.7530 0.7530 0.7530
12.473000 0.7530 0.7530 0.7530 0.7550 0.7550
12.506179 0.7530 0.7530 0.7530 0.7510 0.7510
12.539000 0.7500 0.7450 0.7450 0.7430 0.7430
12.572179 0.7430 0.7430 0.7430 0.7430 0.7410
12.606000 0.7380 0.7380 0.7380 0.7360 0.7350
12.639179 0.7330 0.7310 0.7300 0.7260 0.7250
12.672000 0.7250 0.7250 0.7230 0.7210 0.7180
12.705179 0.7160 0.7150 0.7130 0.7110 0.7100
12.738000 0.7100 0.7100 0.7050 0.7030 0.7010
12.771179 0.6980 0.6960 0.6950 0.6930 0.6880
12.805000 0.6830 0.6830 0.6810 0.6780 0.6750
12.838179 0.6730 0.6710 0.6680 0.6660 0.6650
12.871000 0.6610 0.6550 0.6510 0.6430 0.6400
12.904179 0.6330 0.6280 0.6180 0.6060 0.6010
12.937000 0.6000 0.5880 0.5800 0.5680 0.5630
12.970179 0.5580 0.5450 0.5310 0.5180 0.5050
13.004000 0.4980 0.4860 0.4760 0.4700 0.4630
13.037179 0.4510 0.4410 0.4330 0.4280 0.4210
13.070000 0.4150 0.4050 0.4030 0.4030 0.4030
13.103179 0.4030 0.4030 0.4030 0.4030 0.4060
13.136000 0.4060 0.4100 0.4150 0.4180 0.4200
13.169179 0.4230 0.4280 0.4330 0.4380 0.4430
13.203000 0.4580 0.4630 0.4700 0.4730 0.4780
13.236179 0.4810 0.4900 0.5000 0.5010 0.5100
13.269000 0.5150 0.5280 0.5360 0.5430 0.5530
13.302179 0.5600 0.5660 0.5710 0.5750 0.5810
13.335000 0.5850 0.5910 0.6000 0.6030 0.6050
13.368179 0.6080 0.6100 0.6130 0.6180 0.6210
13.402000 0.6230 0.6250 0.6280 0.6300 0.6310
13.435179 0.6310 0.6350 0.6350 0.6350 0.6360
13.468000 0.6380 0.6400 0.6400 0.6400 0.6380
13.501179 0.6360 0.6330 0.6330 0.6330 0.6330
13.534000 0.6330 0.6310 0.6280 0.6260 0.6260
13.567179 0.6250 0.6210 0.6200 0.6160 0.6110
13.601000 0.6060 0.6010 0.6000 0.5980 0.5960
13.634179 0.5930 0.5900 0.5900 0.5850 0.5810
13.667000 0.5800 0.5730 0.5730 0.5710 0.5680
13.700179 0.5610 0.5510 0.5480 0.5450 0.5430
13.733000 0.5430 0.5410 0.5360 0.5330 0.5310
13.766179 0.5300 0.5300 0.5300 0.5300 0.5310
13.799000 0.5330 0.5380 0.5430 0.5480 0.5530
13.832179 0.5610 0.5660 0.5710 0.5750 0.5810
13.866000 0.5900 0.5930 0.6000 0.6010 0.6050
13.899179 0.6100 0.6130 0.6150 0.6160 0.6160
13.932000 0.6160 0.6180 0.6180 0.6200 0.6200
13.965179 0.6210 0.6250 0.6260 0.6260 0.6260
13.998000 0.6300 0.6310 0.6330 0.6350 0.6350
14.031179 0.6350 0.6330 0.6310 0.6300 0.6310
14.065000 0.6360 0.6400 0.6430 0.6430 0.6410
14.098179 0.6400 0.6380 0.6380 0.6380 0.6380
14.131000 0.6380 0.6380 0.6400 0.6400 0.6400
14.164179 0.6380 0.6380 0.6380 0.6380 0.6400
14.197000 0.6380 0.6380 0.6360 0.6360 0.6350
14.230179 0.6350 0.6330 0.6330 0.6330 0.6330
14.264000 0.6330 0.6330 0.6330 0.6330 0.6330
14.297179 0.6350 0.6350 0.6350 0.6350 0.6350
14.330000 0.6350 0.6350 0.6330 0.6330 0.6330
14.363179 0.6330 0.6330 0.6330 0.6330 0.6310
14.396000 0.6300 0.6280 0.6280 0.6300 0.6300
14.429179 0.6300 0.6300 0.6300 0.6300 0.6300
14.463000 0.6300 0.6300 0.6300 0.6280 0.6280
14.496179 0.6280 0.6280 0.6280 0.6300 0.6300
14.529000 0.6300 0.6300 0.6280 0.6280 0.6260
14.562179 0.6250 0.6230 0.6210 0.6210 0.6200
14.595000 0.6200 0.6200 0.6210 0.6210 0.6230
14.628179 0.6230 0.6230 0.6230 0.6230 0.6230
14.662000 0.6230 0.6230 0.6250 0.6250 0.6250
14.695179 0.6230 0.6210 0.6210 0.6210 0.6210
14.728000 0.6210 0.6230 0.6230 0.6210 0.6210
14.761179 0.6210 0.6230 0.6230 0.6230 0.6230
14.794000 0.6230 0.6230 0.6230 0.6230 0.6230
14.827179 0.6230 0.6210 0.6200 0.6200 0.6180
14.861000 0.6160 0.6150 0.6150 0.6150 0.6150
14.894179 0.6150 0.6160 0.6180 0.6180 0.6180
14.927000 0.6160 0.6160 0.6180 0.6200 0.6200
14.960179 0.6210 0.6250 0.6280 0.6300 0.6310
14.993000 0.6330 0.6330 0.6330 0.6310 0.6300
15.026179 0.6280 0.6230 0.6180 0.6150 0.6110
15.060000 0.6100 0.6110 0.6110 0.6130 0.6150
15.093179 0.6160 0.6160 0.6160 0.6160 0.6160
15.126000 0.6150 0.6150 0.6130 0.6130 0.6150
15.159179 0.6160 0.6160 0.6180 0.6200 0.6210
15.192000 0.6210 0.6230 0.6210 0.6210 0.6210
15.225179 0.6210 0.6210 0.6230 0.6250 0.6260
15.259000 0.6260 0.6260 0.6260 0.6260 0.6260
15.292179 0.6260 0.6260 0.6260 0.6260 0.6260
15.325000 0.6280 0.6280 0.6280 0.6260 0.6260
15.358179 0.6260 0.6260 0.6280 0.6280 0.6300
15.391000 0.6300 0.6300 0.6280 0.6280 0.6300
15.424179 0.6300 0.6300 0.6310 0.6330 0.6330
15.458000 0.6330 0.6330 0.6330 0.6350 0.6360
15.491179 0.6380 0.6380 0.6380 0.6380 0.6400
15.524000 0.6400 0.6400 0.6410 0.6410 0.6410
15.557179 0.6430 0.6450 0.6450 0.6430 0.6430
15.590000 0.6430 0.6430 0.6450 0.6450 0.6460
15.623179 0.6480 0.6480 0.6480 0.6460 0.6460
15.657000 0.6450 0.6450 0.6450 0.6450 0.6450
15.690179 0.6450 0.6460 0.6460 0.6480 0.6480
15.723000 0.6460 0.6460 0.6460 0.6460 0.6460
15.756179 0.6480 0.6500 0.6500 0.6500 0.6510
15.789000 0.6530 0.6550 0.6550 0.6560 0.6600
15.822179 0.6600 0.6610 0.6610 0.6610 0.6610
15.856000 0.6630 0.6650 0.6650 0.6630 0.6630
15.889179 0.6650 0.6660 0.6660 0.6680 0.6680
15.922000 0.6680 0.6700 0.6700 0.6700 0.6700
15.955179 0.6710 0.6710 0.6710 0.6730 0.6750
15.988000 0.6750 0.6750 0.6750 0.7850 0.6750
##END=
