##TITLE=MALONIC ACID CALCIUM SALT TETRAHYDRATE
$$ E. K. CO. (WHITE LABEL)
##JCAMP-DX=4.24
##DATA TYPE=INFRARED SPECTRUM
##CLASS=COBLENTZ
##ORIGIN=WYANDOTTE CHEMICALS CORP., WYANDOTTE, MICHIGAN, USA
##OWNER=COBLENTZ SOCIETY
Collection (C) 2018 copyright by the U.S. Secretary of Commerce
on behalf of the United States of America. All rights reserved.
##DATE=Not specified, most likely prior to 1970
##MOLFORM=C3 H2 O4 Ca
##SOURCE REFERENCE=COBLENTZ NO. 2872
##$NIST ID=B6002872
##$NIST SOURCE=COBLENTZ
##$NIST IMAGE=cob2872
##SPECTROMETER/DATA SYSTEM=Not specified, most likely a prism, grating, or hybrid spectrometer.
##STATE=SOLID (MINERAL OIL MULL)
##PATH LENGTH=
$$SPECTRAL CONTAMINATION DUE TO OIL AROUND 2900 CM^-^1
##SAMPLING PROCEDURE=TRANSMISSION
##RESOLUTION=4
##DATA PROCESSING=DIGITIZED BY NIST FROM HARD COPY
##XUNITS=MICROMETERS
##YUNITS=TRANSMITTANCE
##XFACTOR=1.000000
##YFACTOR=1
##DELTAX=000.006626
##FIRSTX=2.02
##LASTX=16
##FIRSTY=0.94
##MAXX=16
##MINX=2.02
##MAXY=0.988
##MINY=0.048
##NPOINTS=2111
##XYDATA=(X++(Y..Y))
2.020000 0.9400 0.9400 0.9410 0.9410 0.9410
2.053144 0.9410 0.9400 0.9380 0.9380 0.9400
2.086000 0.9430 0.9460 0.9480 0.9480 0.9480
2.119144 0.9500 0.9500 0.9500 0.9500 0.9480
2.152000 0.9460 0.9450 0.9360 0.9330 0.9330
2.185144 0.9330 0.9350 0.9360 0.9360 0.9360
2.219000 0.9350 0.9330 0.9310 0.9300 0.9300
2.252144 0.9310 0.9310 0.9350 0.9380 0.9400
2.285000 0.9430 0.9450 0.9460 0.9460 0.9430
2.318144 0.9360 0.9350 0.9360 0.9360 0.9400
2.351000 0.9400 0.9410 0.9410 0.9410 0.9410
2.384144 0.9410 0.9380 0.9350 0.9330 0.9330
2.417000 0.9350 0.9360 0.9360 0.9360 0.9380
2.450144 0.9400 0.9410 0.9430 0.9430 0.9450
2.484000 0.9460 0.9480 0.9500 0.9500 0.9500
2.517144 0.9500 0.9510 0.9510 0.9510 0.9510
2.550000 0.9530 0.9530 0.9530 0.9530 0.9530
2.583144 0.9530 0.9530 0.9530 0.9530 0.9510
2.616000 0.9500 0.9480 0.9460 0.9450 0.9450
2.649144 0.9450 0.9450 0.9450 0.9400 0.9360
2.682000 0.9260 0.9210 0.9100 0.8980 0.8870
2.715144 0.8770 0.8650 0.8520 0.8400 0.8270
2.749000 0.8100 0.7790 0.7500 0.7240 0.6940
2.782144 0.6620 0.6240 0.5790 0.5240 0.4550
2.815000 0.4260 0.3870 0.3470 0.3150 0.2870
2.848144 0.2590 0.2390 0.2320 0.2300 0.2320
2.881000 0.2500 0.2620 0.2750 0.2870 0.3020
2.914144 0.3180 0.3280 0.3380 0.3470 0.3520
2.947000 0.3580 0.3670 0.3720 0.3770 0.3820
2.980144 0.3850 0.3880 0.3930 0.3970 0.3980
3.014000 0.3980 0.3980 0.3930 0.3870 0.3720
3.047144 0.3570 0.3420 0.3320 0.3230 0.3200
3.080000 0.3130 0.3100 0.3070 0.3050 0.3050
3.113144 0.3030 0.3020 0.3000 0.3000 0.3000
3.146000 0.3000 0.3020 0.3020 0.3050 0.3080
3.179144 0.3120 0.3150 0.3200 0.3250 0.3280
3.212000 0.3300 0.3320 0.3320 0.3330 0.3330
3.245144 0.3330 0.3330 0.3350 0.3350 0.3350
3.279000 0.3350 0.3350 0.3350 0.3330 0.3320
3.312144 0.3320 0.3280 0.3200 0.3020 0.2890
3.345000 0.2520 0.2050 0.1560 0.1120 0.0810
3.378144 0.0760 0.0690 0.0640 0.0580 0.0540
3.411000 0.0530 0.0540 0.0640 0.0780 0.0940
3.444144 0.1020 0.1210 0.1460 0.1590 0.1670
3.478000 0.1670 0.1660 0.1560 0.1540 0.1540
3.511144 0.1560 0.2040 0.2570 0.3230 0.4010
3.544000 0.4750 0.5330 0.5860 0.6160 0.6360
3.577144 0.6470 0.6570 0.6790 0.6970 0.7070
3.610000 0.7150 0.7200 0.7270 0.7320 0.7390
3.643144 0.7440 0.7490 0.7500 0.7520 0.7520
3.676000 0.7540 0.7600 0.7620 0.7670 0.7700
3.709144 0.7770 0.7840 0.7920 0.7990 0.8000
3.743000 0.8020 0.8080 0.8170 0.8200 0.8230
3.776144 0.8270 0.8300 0.8320 0.8330 0.8350
3.809000 0.8370 0.8380 0.8400 0.8420 0.8430
3.842144 0.8470 0.8500 0.8550 0.8580 0.8620
3.875000 0.8620 0.8620 0.8630 0.8630 0.8680
3.908144 0.8700 0.8700 0.8730 0.8750 0.8800
3.941000 0.8820 0.8830 0.8880 0.8900 0.8900
3.974144 0.8880 0.8880 0.8870 0.8850 0.8830
4.008000 0.8820 0.8800 0.8780 0.8750 0.8730
4.041144 0.8730 0.8750 0.8780 0.8780 0.8800
4.074000 0.8800 0.8780 0.8770 0.8770 0.8750
4.107144 0.8750 0.8730 0.8730 0.8720 0.8720
4.140000 0.8700 0.8700 0.8680 0.8680 0.8680
4.173144 0.8680 0.8680 0.8680 0.8700 0.8700
4.206000 0.8700 0.8700 0.8700 0.8700 0.8700
4.239144 0.8700 0.8720 0.8720 0.8720 0.8720
4.273000 0.8730 0.8750 0.8800 0.8850 0.8900
4.306144 0.8900 0.8880 0.8870 0.8830 0.8820
4.339000 0.8820 0.8820 0.8820 0.8870 0.8900
4.372144 0.8900 0.8920 0.8920 0.8920 0.8920
4.405000 0.8920 0.8900 0.8880 0.8870 0.8870
4.438144 0.8850 0.8830 0.8830 0.8820 0.8820
4.471000 0.8820 0.8820 0.8830 0.8830 0.8850
4.504144 0.8870 0.8880 0.8880 0.8920 0.8920
4.538000 0.8920 0.8930 0.8930 0.8930 0.8930
4.571144 0.8930 0.8950 0.8950 0.8950 0.8950
4.604000 0.8970 0.8970 0.9000 0.8980 0.9010
4.637144 0.9050 0.9100 0.9130 0.9160 0.9180
4.670000 0.9180 0.9200 0.9210 0.9230 0.9260
4.703144 0.9310 0.9350 0.9360 0.9360 0.9380
4.736000 0.9400 0.9400 0.9410 0.9430 0.9430
4.769144 0.9460 0.9480 0.9530 0.9560 0.9600
4.803000 0.9630 0.9650 0.9650 0.9650 0.9650
4.836144 0.9660 0.9660 0.9660 0.9660 0.9680
4.869000 0.9680 0.9700 0.9700 0.9710 0.9710
4.902144 0.9730 0.9730 0.9750 0.9760 0.9800
4.935000 0.9810 0.9850 0.9860 0.9860 0.9850
4.968144 0.9850 0.9830 0.9810 0.9800 0.9800
5.001000 0.9800 0.9800 0.9800 0.9810 0.9850
5.034144 0.9880 0.9880 0.9880 0.9880 0.9850
5.068000 0.9780 0.9710 0.9700 0.9710 0.9800
5.101144 0.9810 0.9830 0.9830 0.9830 0.9810
5.134000 0.9810 0.9810 0.9810 0.9810 0.9810
5.167144 0.9810 0.9810 0.9810 0.9810 0.9810
5.200000 0.9810 0.9810 0.9810 0.9800 0.9800
5.233144 0.9800 0.9800 0.9780 0.9780 0.9760
5.266000 0.9760 0.9750 0.9700 0.9680 0.9680
5.299144 0.9680 0.9680 0.9700 0.9700 0.9710
5.333000 0.9730 0.9750 0.9750 0.9730 0.9700
5.366144 0.9680 0.9660 0.9650 0.9630 0.9630
5.399000 0.9610 0.9600 0.9600 0.9560 0.9550
5.432144 0.9510 0.9500 0.9480 0.9480 0.9480
5.465000 0.9460 0.9460 0.9460 0.9460 0.9460
5.498144 0.9460 0.9460 0.9450 0.9450 0.9430
5.531000 0.9410 0.9360 0.9330 0.9310 0.9280
5.564144 0.9210 0.9180 0.9150 0.9130 0.9100
5.598000 0.9080 0.9060 0.9030 0.9000 0.8970
5.631144 0.8920 0.8880 0.8880 0.8830 0.8800
5.664000 0.8730 0.8700 0.8700 0.8650 0.8600
5.697144 0.8550 0.8530 0.8450 0.8370 0.8280
5.730000 0.8230 0.8200 0.8120 0.8050 0.7990
5.763144 0.7950 0.7900 0.7850 0.7800 0.7720
5.796000 0.7620 0.7570 0.7540 0.7520 0.7520
5.829144 0.7490 0.7350 0.7340 0.7320 0.7320
5.863000 0.7290 0.7250 0.7170 0.7120 0.7040
5.896144 0.6940 0.6820 0.6720 0.6610 0.6520
5.929000 0.6490 0.6420 0.6290 0.6140 0.5980
5.962144 0.5790 0.5590 0.5410 0.5210 0.5030
5.995000 0.4730 0.4330 0.4050 0.3850 0.3650
6.028144 0.3520 0.3350 0.3180 0.3150 0.3150
6.062000 0.3150 0.3170 0.3220 0.3250 0.3250
6.095144 0.3230 0.3030 0.2950 0.2840 0.2790
6.128000 0.2670 0.2550 0.2400 0.2240 0.2120
6.161144 0.2000 0.1890 0.1790 0.1690 0.1570
6.194000 0.1420 0.1270 0.1070 0.1040 0.0960
6.227144 0.0860 0.0780 0.0710 0.0660 0.0630
6.260000 0.0630 0.0560 0.0510 0.0490 0.0490
6.293144 0.0490 0.0480 0.0480 0.0480 0.0480
6.327000 0.0480 0.0480 0.0490 0.0490 0.0490
6.360144 0.0490 0.0510 0.0560 0.0640 0.0640
6.393000 0.0610 0.0610 0.0590 0.0590 0.0610
6.426144 0.0610 0.0640 0.0690 0.0780 0.0880
6.459000 0.0960 0.1060 0.1140 0.1210 0.1260
6.492144 0.1360 0.1440 0.1520 0.1610 0.1690
6.525000 0.1790 0.1890 0.1990 0.2090 0.2190
6.558144 0.2290 0.2370 0.2400 0.2450 0.2550
6.592000 0.2600 0.2740 0.2850 0.2940 0.2990
6.625144 0.3000 0.3020 0.3030 0.3080 0.3130
6.658000 0.3150 0.3200 0.3200 0.3200 0.3200
6.691144 0.3180 0.3070 0.2920 0.2750 0.2590
6.724000 0.2420 0.2290 0.2190 0.2120 0.2040
6.757144 0.1970 0.1870 0.1740 0.1560 0.1490
6.790000 0.1340 0.1320 0.1320 0.1370 0.1440
6.823144 0.1460 0.1490 0.1560 0.1620 0.1690
6.857000 0.1740 0.1770 0.1810 0.1860 0.2000
6.890144 0.2140 0.2250 0.2390 0.2520 0.2620
6.923000 0.2740 0.2840 0.2920 0.3020 0.3100
6.956144 0.3120 0.3120 0.3080 0.3070 0.3050
6.989000 0.3050 0.3070 0.3180 0.3280 0.3450
7.022144 0.3630 0.3780 0.3850 0.3900 0.3920
7.055000 0.3920 0.3930 0.3930 0.3930 0.3930
7.088144 0.3900 0.3880 0.3880 0.3870 0.3850
7.122000 0.3830 0.3800 0.3780 0.3770 0.3700
7.155144 0.3550 0.3370 0.3270 0.3120 0.3030
7.188000 0.2940 0.2750 0.2500 0.2240 0.1960
7.221144 0.1690 0.1460 0.1290 0.1220 0.1060
7.254000 0.0940 0.0830 0.0760 0.0690 0.0630
7.287144 0.0580 0.0540 0.0540 0.0540 0.0580
7.320000 0.0640 0.0760 0.0880 0.1020 0.1210
7.353144 0.1390 0.1570 0.1720 0.2040 0.2300
7.387000 0.2390 0.2450 0.2550 0.2850 0.3120
7.420144 0.3330 0.3570 0.3800 0.3980 0.4110
7.453000 0.4280 0.4450 0.4610 0.4780 0.4950
7.486144 0.5080 0.5210 0.5330 0.5390 0.5490
7.519000 0.5580 0.5660 0.5710 0.5760 0.5830
7.552144 0.5860 0.5880 0.5880 0.5890 0.5890
7.585000 0.5910 0.5930 0.5930 0.5930 0.5940
7.618144 0.5940 0.5940 0.5960 0.5980 0.5990
7.652000 0.6010 0.6040 0.6140 0.6210 0.6220
7.685144 0.6320 0.6440 0.6560 0.6620 0.6690
7.718000 0.6770 0.6840 0.6870 0.6920 0.6990
7.751144 0.7040 0.7090 0.7120 0.7140 0.7170
7.784000 0.7220 0.7220 0.7240 0.7240 0.7240
7.817144 0.7220 0.7200 0.7200 0.7190 0.7190
7.850000 0.7190 0.7190 0.7200 0.7200 0.7200
7.883144 0.7200 0.7190 0.7100 0.7050 0.6990
7.917000 0.6910 0.6720 0.6610 0.6440 0.6360
7.950144 0.6210 0.6190 0.6190 0.6190 0.6210
7.983000 0.6310 0.6410 0.6510 0.6610 0.6710
8.016144 0.6790 0.6890 0.6970 0.7070 0.7150
8.049000 0.7220 0.7290 0.7350 0.7400 0.7450
8.082144 0.7490 0.7500 0.7540 0.7590 0.7620
8.115000 0.7640 0.7650 0.7690 0.7720 0.7740
8.148144 0.7750 0.7770 0.7790 0.7790 0.7800
8.182000 0.7800 0.7800 0.7820 0.7840 0.7840
8.215144 0.7850 0.7850 0.7870 0.7870 0.7890
8.248000 0.7900 0.7900 0.7900 0.7900 0.7920
8.281144 0.7920 0.7920 0.7920 0.7940 0.7940
8.314000 0.7940 0.7940 0.7950 0.7950 0.7970
8.347144 0.7990 0.8000 0.8020 0.8020 0.8020
8.381000 0.8020 0.8020 0.8030 0.8030 0.8050
8.414144 0.8050 0.8050 0.8050 0.8050 0.8050
8.447000 0.8050 0.8050 0.8050 0.8050 0.8050
8.480144 0.8050 0.8030 0.8030 0.8030 0.8030
8.513000 0.8020 0.8020 0.8020 0.8020 0.8020
8.546144 0.8020 0.8020 0.8020 0.8030 0.8030
8.579000 0.8030 0.8030 0.8050 0.8050 0.8050
8.612144 0.8050 0.8050 0.8050 0.8050 0.8050
8.646000 0.8050 0.8050 0.8050 0.8030 0.8030
8.679144 0.8030 0.8030 0.8070 0.8070 0.8080
8.712000 0.8100 0.8120 0.8130 0.8130 0.8130
8.745144 0.8130 0.8130 0.8130 0.8130 0.8130
8.778000 0.8130 0.8120 0.8100 0.8100 0.8100
8.811144 0.8080 0.8080 0.8070 0.8070 0.8070
8.844000 0.8070 0.8070 0.8070 0.8070 0.8070
8.877144 0.8070 0.8070 0.8080 0.8080 0.8080
8.911000 0.8080 0.8080 0.8080 0.8080 0.8080
8.944144 0.8080 0.8080 0.8100 0.8100 0.8120
8.977000 0.8120 0.8150 0.8150 0.8170 0.8200
9.010144 0.8220 0.8220 0.8230 0.8250 0.8270
9.043000 0.8270 0.8270 0.8270 0.8270 0.8250
9.076144 0.8250 0.8220 0.8220 0.8220 0.8220
9.109000 0.8200 0.8200 0.8180 0.8180 0.8180
9.142144 0.8170 0.8170 0.8150 0.8150 0.8150
9.176000 0.8130 0.8130 0.8120 0.8120 0.8120
9.209144 0.8120 0.8120 0.8100 0.8100 0.8100
9.242000 0.8080 0.8080 0.8080 0.8070 0.8070
9.275144 0.8070 0.8070 0.8070 0.8080 0.8080
9.308000 0.8080 0.8100 0.8100 0.8100 0.8100
9.341144 0.8120 0.8130 0.8130 0.8130 0.8130
9.374000 0.8130 0.8120 0.8120 0.8100 0.8100
9.407144 0.8100 0.8100 0.8100 0.8100 0.8120
9.441000 0.8120 0.8120 0.8120 0.8130 0.8130
9.474144 0.8130 0.8130 0.8130 0.8150 0.8150
9.507000 0.8150 0.8150 0.8150 0.8150 0.8170
9.540144 0.8180 0.8180 0.8180 0.8180 0.8180
9.573000 0.8180 0.8200 0.8200 0.8200 0.8200
9.606144 0.8200 0.8200 0.8200 0.8200 0.8180
9.639000 0.8180 0.8180 0.8180 0.8200 0.8200
9.672144 0.8220 0.8220 0.8230 0.8250 0.8250
9.706000 0.8270 0.8270 0.8270 0.8270 0.8280
9.739144 0.8280 0.8280 0.8280 0.8280 0.8280
9.772000 0.8280 0.8280 0.8280 0.8280 0.8280
9.805144 0.8280 0.8280 0.8280 0.8280 0.8300
9.838000 0.8300 0.8320 0.8320 0.8320 0.8330
9.871144 0.8330 0.8330 0.8350 0.8350 0.8350
9.904000 0.8350 0.8370 0.8370 0.8380 0.8380
9.937144 0.8380 0.8380 0.8370 0.8370 0.8370
9.971000 0.8350 0.8350 0.8350 0.8350 0.8330
10.004144 0.8330 0.8330 0.8320 0.8320 0.8300
10.037000 0.8300 0.8250 0.8180 0.8170 0.8170
10.070144 0.8150 0.8130 0.8130 0.8100 0.8050
10.103000 0.8030 0.8020 0.8000 0.7890 0.7790
10.136144 0.7700 0.7620 0.7550 0.7470 0.7390
10.169000 0.7290 0.7170 0.7050 0.6890 0.6710
10.202144 0.6490 0.6220 0.5910 0.5780 0.5560
10.236000 0.5330 0.5090 0.4930 0.4850 0.4810
10.269144 0.4780 0.4760 0.4750 0.4760 0.4830
10.302000 0.4960 0.5110 0.5280 0.5410 0.5540
10.335144 0.5690 0.5810 0.5890 0.5990 0.6120
10.368000 0.6140 0.6160 0.6170 0.6170 0.6170
10.401144 0.6160 0.6140 0.6110 0.6090 0.6090
10.434000 0.6140 0.6190 0.6220 0.6270 0.6290
10.467144 0.6310 0.6310 0.6270 0.6040 0.5810
10.501000 0.5510 0.5240 0.4910 0.4550 0.3800
10.534144 0.3720 0.3620 0.3600 0.3620 0.3750
10.567000 0.3880 0.3980 0.4900 0.5480 0.5860
10.600144 0.6110 0.6320 0.6590 0.6710 0.6840
10.633000 0.6970 0.7120 0.7250 0.7370 0.7450
10.666144 0.7520 0.7550 0.7620 0.7690 0.7720
10.699000 0.7770 0.7800 0.7840 0.7870 0.7870
10.732144 0.7890 0.7900 0.7900 0.7900 0.7900
10.766000 0.7900 0.7950 0.8070 0.8100 0.8100
10.799144 0.8080 0.8080 0.8050 0.8050 0.8070
10.832000 0.8070 0.8080 0.8100 0.8130 0.8120
10.865144 0.8100 0.8080 0.8080 0.8080 0.8070
10.898000 0.8070 0.8070 0.8080 0.8080 0.8080
10.931144 0.8100 0.8100 0.8120 0.8120 0.8100
10.965000 0.8100 0.8080 0.8080 0.8100 0.8100
10.998144 0.8120 0.8130 0.8150 0.8150 0.8150
11.031000 0.8150 0.8150 0.8130 0.8120 0.8120
11.064144 0.8120 0.8120 0.8120 0.8120 0.8100
11.097000 0.8100 0.8100 0.8100 0.8100 0.8100
11.130144 0.8100 0.8100 0.8100 0.8100 0.8100
11.163000 0.8100 0.8100 0.8100 0.8100 0.8080
11.196144 0.8080 0.8070 0.8070 0.8050 0.8050
11.230000 0.8030 0.8020 0.8020 0.8000 0.7990
11.263144 0.7990 0.7970 0.7920 0.7900 0.7900
11.296000 0.7890 0.7870 0.7870 0.7850 0.7840
11.329144 0.7840 0.7820 0.7790 0.7770 0.7740
11.362000 0.7720 0.7700 0.7690 0.7650 0.7620
11.395144 0.7600 0.7590 0.7570 0.7550 0.7520
11.428000 0.7490 0.7470 0.7450 0.7420 0.7370
11.461144 0.7350 0.7350 0.7350 0.7340 0.7340
11.495000 0.7320 0.7320 0.7320 0.7340 0.7400
11.528144 0.7450 0.7470 0.7490 0.7490 0.7490
11.561000 0.7490 0.7490 0.7490 0.7470 0.7470
11.594144 0.7450 0.7450 0.7440 0.7420 0.7420
11.627000 0.7420 0.7420 0.7400 0.7390 0.7370
11.660144 0.7370 0.7370 0.7370 0.7370 0.7350
11.693000 0.7350 0.7340 0.7320 0.7320 0.7250
11.726144 0.7220 0.7200 0.7190 0.7170 0.7170
11.760000 0.7150 0.7140 0.7120 0.7100 0.7090
11.793144 0.7070 0.7070 0.7050 0.7040 0.7020
11.826000 0.7020 0.7020 0.7020 0.7020 0.7020
11.859144 0.7020 0.7020 0.7020 0.7020 0.7000
11.892000 0.7000 0.7000 0.7000 0.6990 0.6990
11.925144 0.6990 0.6990 0.7000 0.7000 0.7000
11.958000 0.7000 0.7000 0.7000 0.7000 0.7000
11.991144 0.7000 0.7000 0.7000 0.7000 0.7000
12.025000 0.7000 0.7000 0.6990 0.6990 0.6990
12.058144 0.6990 0.6990 0.6990 0.6990 0.6990
12.091000 0.6970 0.6960 0.6960 0.6940 0.6940
12.124144 0.6940 0.6940 0.6940 0.6940 0.6940
12.157000 0.6940 0.6940 0.6940 0.6940 0.6940
12.190144 0.6940 0.6940 0.6940 0.6940 0.6940
12.223000 0.6920 0.6910 0.6890 0.6890 0.6890
12.256144 0.6890 0.6870 0.6860 0.6860 0.6840
12.290000 0.6820 0.6820 0.6810 0.6810 0.6790
12.323144 0.6790 0.6770 0.6770 0.6760 0.6740
12.356000 0.6720 0.6710 0.6670 0.6660 0.6620
12.389144 0.6620 0.6610 0.6590 0.6560 0.6560
12.422000 0.6540 0.6540 0.6520 0.6510 0.6490
12.455144 0.6470 0.6460 0.6440 0.6420 0.6410
12.488000 0.6390 0.6390 0.6370 0.6360 0.6340
12.521144 0.6320 0.6310 0.6290 0.6260 0.6240
12.555000 0.6240 0.6210 0.6190 0.6190 0.6170
12.588144 0.6160 0.6140 0.6120 0.6110 0.6110
12.621000 0.6110 0.6090 0.6070 0.6040 0.6020
12.654144 0.6010 0.6010 0.5990 0.5990 0.5990
12.687000 0.5990 0.5990 0.5990 0.5990 0.5990
12.720144 0.5980 0.5980 0.5960 0.5960 0.5960
12.753000 0.5960 0.5960 0.5960 0.5960 0.5960
12.786144 0.5960 0.5960 0.5960 0.5960 0.5960
12.820000 0.5960 0.5960 0.5960 0.5960 0.5960
12.853144 0.5940 0.5940 0.5940 0.5940 0.5940
12.886000 0.5940 0.5940 0.5940 0.5930 0.5930
12.919144 0.5930 0.5930 0.5930 0.5930 0.5930
12.952000 0.5930 0.5910 0.5880 0.5880 0.5860
12.985144 0.5860 0.5840 0.5840 0.5830 0.5830
13.018000 0.5830 0.5810 0.5790 0.5790 0.5760
13.051144 0.5730 0.5730 0.5710 0.5690 0.5690
13.085000 0.5680 0.5680 0.5680 0.5660 0.5640
13.118144 0.5630 0.5560 0.5530 0.5510 0.5490
13.151000 0.5480 0.5430 0.5430 0.5380 0.5360
13.184144 0.5330 0.5330 0.5310 0.5290 0.5280
13.217000 0.5240 0.5160 0.5140 0.5130 0.5110
13.250144 0.5080 0.5040 0.5030 0.5010 0.5010
13.283000 0.5000 0.4980 0.4950 0.4880 0.4860
13.316144 0.4850 0.4830 0.4800 0.4760 0.4700
13.350000 0.4680 0.4660 0.4630 0.4610 0.4610
13.383144 0.4600 0.4580 0.4560 0.4530 0.4510
13.416000 0.4500 0.4460 0.4450 0.4410 0.4400
13.449144 0.4350 0.4310 0.4280 0.4280 0.4260
13.482000 0.4230 0.4180 0.4130 0.4110 0.4100
13.515144 0.4080 0.4080 0.4030 0.4030 0.4000
13.549000 0.3980 0.3980 0.3970 0.3950 0.3930
13.582144 0.3930 0.3900 0.3870 0.3850 0.3850
13.615000 0.3830 0.3800 0.3780 0.3780 0.3770
13.648144 0.3770 0.3750 0.3750 0.3730 0.3730
13.681000 0.3720 0.3720 0.3670 0.3630 0.3600
13.714144 0.3580 0.3580 0.3580 0.3530 0.3520
13.747000 0.3520 0.3500 0.3480 0.3480 0.3470
13.780144 0.3470 0.3450 0.3420 0.3380 0.3380
13.814000 0.3330 0.3300 0.3280 0.3270 0.3250
13.847144 0.3220 0.3180 0.3150 0.3120 0.3100
13.880000 0.3080 0.3020 0.2950 0.2920 0.2900
13.913144 0.2850 0.2800 0.2740 0.2670 0.2570
13.946000 0.2500 0.2440 0.2350 0.2290 0.2220
13.979144 0.2150 0.2120 0.2120 0.2100 0.2100
14.012000 0.2120 0.2240 0.2300 0.2440 0.2540
14.045144 0.2620 0.2720 0.2820 0.2900 0.3000
14.079000 0.3100 0.3200 0.3330 0.3450 0.3620
14.112144 0.3700 0.3770 0.3820 0.3850 0.3920
14.145000 0.3980 0.4060 0.4180 0.4250 0.4310
14.178144 0.4360 0.4400 0.4450 0.4480 0.4510
14.211000 0.4560 0.4600 0.4650 0.4680 0.4700
14.244144 0.4730 0.4780 0.4830 0.4860 0.4880
14.277000 0.4900 0.4900 0.4910 0.4910 0.4980
14.310144 0.5040 0.5080 0.5090 0.5160 0.5190
14.344000 0.5190 0.5210 0.5210 0.5210 0.5230
14.377144 0.5240 0.5280 0.5310 0.5360 0.5380
14.410000 0.5410 0.5460 0.5480 0.5490 0.5510
14.443144 0.5580 0.5610 0.5630 0.5630 0.5640
14.476000 0.5680 0.5690 0.5740 0.5780 0.5790
14.509144 0.5830 0.5840 0.5860 0.5860 0.5860
14.542000 0.5860 0.5880 0.5930 0.5940 0.5960
14.575144 0.5960 0.5980 0.5990 0.6010 0.6020
14.609000 0.6040 0.6060 0.6090 0.6120 0.6170
14.642144 0.6210 0.6220 0.6240 0.6240 0.6260
14.675000 0.6260 0.6290 0.6290 0.6290 0.6310
14.708144 0.6310 0.6310 0.6320 0.6320 0.6340
14.741000 0.6340 0.6340 0.6340 0.6360 0.6360
14.774144 0.6370 0.6370 0.6370 0.6370 0.6390
14.807000 0.6390 0.6410 0.6410 0.6440 0.6470
14.840144 0.6490 0.6510 0.6520 0.6520 0.6520
14.874000 0.6510 0.6490 0.6490 0.6470 0.6470
14.907144 0.6460 0.6460 0.6460 0.6460 0.6460
14.940000 0.6470 0.6470 0.6470 0.6470 0.6490
14.973144 0.6490 0.6490 0.6490 0.6490 0.6490
15.006000 0.6490 0.6490 0.6470 0.6470 0.6460
15.039144 0.6440 0.6370 0.6340 0.6240 0.6190
15.072000 0.6140 0.6090 0.6070 0.6070 0.6040
15.105144 0.6010 0.5990 0.5980 0.5960 0.5930
15.139000 0.5890 0.5880 0.5880 0.5880 0.5880
15.172144 0.5880 0.5840 0.5810 0.5810 0.5790
15.205000 0.5780 0.5740 0.5690 0.5660 0.5610
15.238144 0.5560 0.5510 0.5440 0.5390 0.5330
15.271000 0.5240 0.5180 0.5110 0.5030 0.4950
15.304144 0.4900 0.4860 0.4760 0.4680 0.4610
15.337000 0.4580 0.4560 0.4550 0.4550 0.4550
15.370144 0.4560 0.4560 0.4560 0.4600 0.4680
15.404000 0.4760 0.4850 0.4910 0.5000 0.5090
15.437144 0.5230 0.5340 0.5460 0.5540 0.5630
15.470000 0.5710 0.5830 0.5890 0.5930 0.5940
15.503144 0.5980 0.6060 0.6190 0.6240 0.6290
15.536000 0.6340 0.6410 0.6490 0.6510 0.6510
15.569144 0.6520 0.6540 0.6560 0.6590 0.6610
15.602000 0.6620 0.6670 0.6720 0.6770 0.6770
15.635144 0.6790 0.6790 0.6810 0.6810 0.6820
15.669000 0.6840 0.6860 0.6860 0.6860 0.6870
15.702144 0.6870 0.6870 0.6870 0.6890 0.6890
15.735000 0.6890 0.6910 0.6940 0.6970 0.6990
15.768144 0.7000 0.7000 0.6970 0.6940 0.6940
15.801000 0.6920 0.6920 0.6910 0.6910 0.6910
15.834144 0.6910 0.6910 0.6910 0.6910 0.6890
15.867000 0.6890 0.6870 0.6870 0.6860 0.6860
15.900144 0.6860 0.6860 0.6860 0.6870 0.6890
15.934000 0.6910 0.6910 0.6910 0.6910 0.6910
15.967144 0.6910 0.6890 0.6870 0.6840 0.6820
16.000000 0.6790
##END=
