##TITLE=LEAD OXALATE
##JCAMP-DX=4.24
##DATA TYPE=INFRARED SPECTRUM
##CLASS=COBLENTZ
##OWNER=COBLENTZ SOCIETY
Collection (C) 2018 copyright by the U.S. Secretary of Commerce
on behalf of the United States of America. All rights reserved.
##DATE=Not specified, most likely prior to 1970
##MOLFORM=Pb C2 O4
##SOURCE REFERENCE=COBLENTZ NO. 67
##$NIST ID=B6000067
##$NIST SOURCE=COBLENTZ
##$NIST IMAGE=cob67
##SPECTROMETER/DATA SYSTEM=Not specified, most likely a prism, grating, or hybrid spectrometer.
##STATE=SOLID (KBr DISC)
##SAMPLING PROCEDURE=TRANSMISSION
##RESOLUTION=4
##DATA PROCESSING=DIGITIZED BY NIST FROM HARD COPY
##XUNITS=MICROMETERS
##YUNITS=TRANSMITTANCE
##XFACTOR=1.000000
##YFACTOR=1
##DELTAX=000.007627
##FIRSTX=1.994
##LASTX=15.3725
##FIRSTY=0.24
##MAXX=15.3725
##MINX=1.994
##MAXY=0.927
##MINY=0.129
##NPOINTS=1755
##XYDATA=(X++(Y..Y))
1.994000 0.2400 0.2400 0.2400 0.2400 0.2400
2.032157 0.2420 0.2420 0.2420 0.2420 0.2420
2.070000 0.2420 0.2450 0.2460 0.2460 0.2490
2.108157 0.2490 0.2510 0.2510 0.2520 0.2540
2.147000 0.2540 0.2550 0.2550 0.2570 0.2570
2.185157 0.2590 0.2590 0.2610 0.2620 0.2620
2.223000 0.2640 0.2640 0.2650 0.2640 0.2640
2.261157 0.2650 0.2650 0.2670 0.2700 0.2710
2.299000 0.2730 0.2760 0.2770 0.2770 0.2790
2.337157 0.2800 0.2820 0.2830 0.2850 0.2860
2.375000 0.2880 0.2890 0.2900 0.2920 0.2930
2.413157 0.2930 0.2960 0.2960 0.2980 0.2990
2.452000 0.2990 0.3010 0.3020 0.3020 0.3050
2.490157 0.3070 0.3070 0.3080 0.3080 0.3100
2.528000 0.3100 0.3100 0.3110 0.3130 0.3130
2.566157 0.3140 0.3160 0.3160 0.3170 0.3190
2.604000 0.3200 0.3200 0.3220 0.3230 0.3230
2.642157 0.3240 0.3260 0.3260 0.3270 0.3270
2.681000 0.3290 0.3300 0.3300 0.3320 0.3320
2.719157 0.3330 0.3330 0.3330 0.3350 0.3360
2.757000 0.3360 0.3380 0.3380 0.3390 0.3390
2.795157 0.3390 0.3390 0.3390 0.3390 0.3390
2.833000 0.3390 0.3390 0.3390 0.3380 0.3380
2.871157 0.3360 0.3350 0.3320 0.3300 0.3290
2.909000 0.3270 0.3260 0.3260 0.3240 0.3230
2.947157 0.3220 0.3220 0.3200 0.3200 0.3200
2.986000 0.3200 0.3200 0.3220 0.3220 0.3230
3.024157 0.3240 0.3290 0.3330 0.3380 0.3390
3.062000 0.3420 0.3470 0.3500 0.3530 0.3550
3.100157 0.3580 0.3640 0.3690 0.3720 0.3750
3.138000 0.3790 0.3850 0.3910 0.3940 0.3970
3.176157 0.3980 0.4000 0.4010 0.4010 0.4030
3.214000 0.4040 0.4060 0.4070 0.4070 0.4100
3.252157 0.4120 0.4130 0.4130 0.4150 0.4180
3.291000 0.4190 0.4200 0.4220 0.4230 0.4250
3.329157 0.4260 0.4290 0.4320 0.4320 0.4340
3.367000 0.4340 0.4370 0.4370 0.4380 0.4400
3.405157 0.4400 0.4410 0.4430 0.4430 0.4440
3.443000 0.4440 0.4470 0.4460 0.4470 0.4470
3.481157 0.4490 0.4490 0.4500 0.4500 0.4510
3.519000 0.4510 0.4540 0.4540 0.4560 0.4560
3.557157 0.4590 0.4590 0.4600 0.4620 0.4650
3.596000 0.4660 0.4680 0.4690 0.4690 0.4710
3.634157 0.4710 0.4720 0.4720 0.4740 0.4740
3.672000 0.4750 0.4750 0.4770 0.4770 0.4780
3.710157 0.4780 0.4800 0.4810 0.4830 0.4840
3.748000 0.4850 0.4880 0.4910 0.4910 0.4930
3.786157 0.4940 0.4960 0.4960 0.4970 0.4990
3.825000 0.4990 0.5000 0.5000 0.5030 0.5050
3.863157 0.5050 0.5060 0.5080 0.5090 0.5090
3.901000 0.5110 0.5120 0.5120 0.5140 0.5140
3.939157 0.5150 0.5160 0.5160 0.5180 0.5190
3.977000 0.5190 0.5210 0.5240 0.5250 0.5250
4.015157 0.5240 0.5250 0.5250 0.5250 0.5250
4.053000 0.5270 0.5270 0.5270 0.5270 0.5280
4.091157 0.5300 0.5300 0.5300 0.5310 0.5330
4.130000 0.5330 0.5340 0.5360 0.5360 0.5370
4.168157 0.5370 0.5390 0.5390 0.5390 0.5390
4.206000 0.5390 0.5390 0.5390 0.5390 0.5390
4.244157 0.5390 0.5390 0.5390 0.5390 0.5390
4.282000 0.5390 0.5390 0.5390 0.5390 0.5390
4.320157 0.5390 0.5400 0.5400 0.5420 0.5420
4.358000 0.5420 0.5430 0.5450 0.5450 0.5480
4.396157 0.5500 0.5520 0.5550 0.5580 0.5610
4.435000 0.5640 0.5650 0.5680 0.5700 0.5700
4.473157 0.5710 0.5730 0.5760 0.5770 0.5800
4.511000 0.5800 0.5830 0.5860 0.5870 0.5890
4.549157 0.5900 0.5920 0.5920 0.5930 0.5930
4.587000 0.5930 0.5950 0.5950 0.5960 0.5960
4.625157 0.5980 0.5980 0.5990 0.5990 0.5990
4.664000 0.6010 0.6010 0.6010 0.6010 0.6020
4.702157 0.6020 0.6040 0.6040 0.6040 0.6050
4.740000 0.6070 0.6070 0.6080 0.6080 0.6080
4.778157 0.6100 0.6110 0.6110 0.6120 0.6120
4.816000 0.6120 0.6110 0.6140 0.6140 0.6150
4.854157 0.6170 0.6170 0.6180 0.6180 0.6180
4.892000 0.6180 0.6200 0.6200 0.6210 0.6210
4.930157 0.6210 0.6230 0.6230 0.6240 0.6240
4.969000 0.6260 0.6260 0.6270 0.6290 0.6300
5.007157 0.6300 0.6300 0.6320 0.6320 0.6330
5.045000 0.6330 0.6330 0.6350 0.6350 0.6350
5.083157 0.6380 0.6390 0.6410 0.6420 0.6440
5.121000 0.6440 0.6450 0.6460 0.6460 0.6460
5.159157 0.6460 0.6460 0.6480 0.6480 0.6480
5.197000 0.6480 0.6480 0.6480 0.6480 0.6480
5.235157 0.6480 0.6480 0.6480 0.6480 0.6480
5.274000 0.6480 0.6480 0.6480 0.6480 0.6480
5.312157 0.6480 0.6490 0.6490 0.6490 0.6490
5.350000 0.6490 0.6490 0.6510 0.6510 0.6510
5.388157 0.6520 0.6520 0.6540 0.6540 0.6550
5.426000 0.6570 0.6580 0.6600 0.6610 0.6610
5.464157 0.6610 0.6640 0.6640 0.6660 0.6660
5.503000 0.6660 0.6640 0.6640 0.6640 0.6640
5.541157 0.6640 0.6640 0.6670 0.6670 0.6670
5.579000 0.6670 0.6670 0.6670 0.6670 0.6690
5.617157 0.6690 0.6690 0.6690 0.6690 0.6700
5.655000 0.6700 0.6700 0.6700 0.6700 0.6700
5.693157 0.6700 0.6700 0.6700 0.6690 0.6690
5.731000 0.6690 0.6690 0.6670 0.6670 0.6670
5.769157 0.6670 0.6670 0.6670 0.6670 0.6660
5.808000 0.6640 0.6630 0.6610 0.6610 0.6600
5.846157 0.6580 0.6580 0.6570 0.6550 0.6540
5.884000 0.6510 0.6490 0.6420 0.6390 0.6350
5.922157 0.6290 0.6210 0.6150 0.6100 0.6020
5.960000 0.5760 0.5500 0.5390 0.5250 0.5060
5.998157 0.4780 0.4500 0.4470 0.4410 0.4230
6.036000 0.4100 0.3730 0.3510 0.3320 0.2930
6.074157 0.2580 0.2360 0.2210 0.2090 0.1860
6.113000 0.1680 0.1650 0.1580 0.1550 0.1520
6.151157 0.1500 0.1490 0.1470 0.1460 0.1400
6.189000 0.1370 0.1340 0.1320 0.1320 0.1320
6.227157 0.1310 0.1310 0.1310 0.1310 0.1290
6.265000 0.1290 0.1310 0.1310 0.1310 0.1340
6.303157 0.1370 0.1400 0.1530 0.1740 0.1920
6.342000 0.2080 0.2230 0.2610 0.2730 0.3050
6.380157 0.3170 0.3230 0.3350 0.3480 0.3600
6.418000 0.3810 0.3950 0.4120 0.4280 0.4320
6.456157 0.4410 0.4470 0.4500 0.4540 0.4600
6.494000 0.4710 0.4800 0.5000 0.5110 0.5180
6.532157 0.5270 0.5310 0.5340 0.5370 0.5390
6.570000 0.5430 0.5460 0.5490 0.5550 0.5640
6.608157 0.5650 0.5680 0.5700 0.5710 0.5770
6.647000 0.5830 0.5920 0.5990 0.6020 0.6050
6.685157 0.6100 0.6110 0.6150 0.6180 0.6200
6.723000 0.6270 0.6320 0.6330 0.6350 0.6350
6.761157 0.6380 0.6390 0.6410 0.6450 0.6450
6.799000 0.6450 0.6450 0.6450 0.6460 0.6460
6.837157 0.6450 0.6450 0.6450 0.6460 0.6460
6.875000 0.6460 0.6460 0.6460 0.6480 0.6490
6.913157 0.6490 0.6490 0.6510 0.6510 0.6510
6.952000 0.6520 0.6520 0.6520 0.6520 0.6540
6.990157 0.6550 0.6550 0.6550 0.6570 0.6570
7.028000 0.6570 0.6580 0.6580 0.6580 0.6600
7.066157 0.6600 0.6610 0.6630 0.6630 0.6630
7.104000 0.6640 0.6640 0.6660 0.6670 0.6670
7.142157 0.6690 0.6690 0.6700 0.6700 0.6750
7.181000 0.6750 0.6760 0.6760 0.6760 0.6760
7.219157 0.6770 0.6770 0.6770 0.6770 0.6770
7.257000 0.6770 0.6770 0.6790 0.6770 0.6770
7.295157 0.6770 0.6770 0.6770 0.6770 0.6770
7.333000 0.6790 0.6790 0.6790 0.6790 0.6800
7.371157 0.6820 0.6830 0.6860 0.6880 0.6920
7.409000 0.6950 0.6980 0.7010 0.7030 0.7040
7.447157 0.7040 0.7060 0.7060 0.7100 0.7100
7.486000 0.7110 0.7110 0.7110 0.7130 0.7130
7.524157 0.7130 0.7110 0.7100 0.7070 0.7040
7.562000 0.6940 0.6690 0.6450 0.6150 0.5620
7.600157 0.5210 0.4960 0.4660 0.4560 0.4560
7.638000 0.4590 0.4990 0.5240 0.5430 0.5640
7.676157 0.5790 0.5870 0.5830 0.5790 0.5620
7.714000 0.5240 0.4660 0.4290 0.4030 0.3730
7.752157 0.3690 0.3640 0.3720 0.4120 0.4500
7.791000 0.4810 0.4930 0.5550 0.5920 0.6040
7.829157 0.6150 0.6320 0.6410 0.6460 0.6540
7.867000 0.6640 0.6720 0.6800 0.6860 0.6910
7.905157 0.6970 0.7010 0.7060 0.7110 0.7160
7.943000 0.7200 0.7250 0.7280 0.7290 0.7350
7.981157 0.7380 0.7410 0.7450 0.7480 0.7500
8.019000 0.7500 0.7510 0.7530 0.7560 0.7570
8.057157 0.7590 0.7600 0.7600 0.7600 0.7600
8.096000 0.7620 0.7620 0.7630 0.7630 0.7650
8.134157 0.7660 0.7660 0.7680 0.7680 0.7680
8.172000 0.7680 0.7680 0.7710 0.7710 0.7720
8.210157 0.7720 0.7740 0.7740 0.7750 0.7750
8.248000 0.7760 0.7760 0.7790 0.7790 0.7810
8.286157 0.7820 0.7820 0.7840 0.7840 0.7850
8.325000 0.7850 0.7850 0.7850 0.7850 0.7870
8.363157 0.7870 0.7880 0.7880 0.7880 0.7900
8.401000 0.7900 0.7900 0.7900 0.7910 0.7910
8.439157 0.7930 0.7930 0.7930 0.7940 0.7960
8.477000 0.7960 0.7970 0.7970 0.7990 0.7990
8.515157 0.7990 0.8000 0.8000 0.7990 0.8000
8.553000 0.8000 0.8020 0.8020 0.8020 0.8030
8.591157 0.8030 0.8050 0.8050 0.8050 0.8050
8.630000 0.8060 0.8060 0.8060 0.8060 0.8070
8.668157 0.8070 0.8070 0.8070 0.8090 0.8090
8.706000 0.8090 0.8090 0.8090 0.8100 0.8100
8.744157 0.8100 0.8100 0.8100 0.8120 0.8120
8.782000 0.8120 0.8120 0.8120 0.8120 0.8120
8.820157 0.8120 0.8120 0.8120 0.8120 0.8120
8.858000 0.8120 0.8120 0.8120 0.8120 0.8130
8.896157 0.8150 0.8150 0.8160 0.8180 0.8180
8.935000 0.8180 0.8180 0.8180 0.8180 0.8190
8.973157 0.8190 0.8190 0.8190 0.8190 0.8180
9.011000 0.8180 0.8160 0.8160 0.8180 0.8180
9.049157 0.8190 0.8210 0.8220 0.8220 0.8240
9.087000 0.8240 0.8220 0.8240 0.8250 0.8250
9.125157 0.8270 0.8270 0.8280 0.8280 0.8300
9.164000 0.8300 0.8300 0.8300 0.8310 0.8310
9.202157 0.8310 0.8310 0.8310 0.8310 0.8310
9.240000 0.8330 0.8330 0.8330 0.8340 0.8340
9.278157 0.8340 0.8340 0.8360 0.8360 0.8360
9.316000 0.8360 0.8360 0.8370 0.8370 0.8370
9.354157 0.8380 0.8380 0.8380 0.8380 0.8380
9.392000 0.8400 0.8400 0.8400 0.8400 0.8400
9.430157 0.8410 0.8410 0.8410 0.8410 0.8410
9.469000 0.8410 0.8430 0.8430 0.8430 0.8430
9.507157 0.8430 0.8430 0.8430 0.8430 0.8430
9.545000 0.8430 0.8430 0.8430 0.8430 0.8430
9.583157 0.8430 0.8440 0.8440 0.8440 0.8460
9.621000 0.8460 0.8460 0.8460 0.8470 0.8470
9.659157 0.8460 0.8470 0.8470 0.8470 0.8470
9.697000 0.8470 0.8490 0.8490 0.8500 0.8520
9.735157 0.8520 0.8530 0.8530 0.8550 0.8550
9.774000 0.8560 0.8580 0.8580 0.8580 0.8590
9.812157 0.8590 0.8590 0.8590 0.8610 0.8610
9.850000 0.8620 0.8620 0.8640 0.8640 0.8640
9.888157 0.8650 0.8650 0.8650 0.8650 0.8650
9.926000 0.8670 0.8670 0.8670 0.8670 0.8670
9.964157 0.8670 0.8680 0.8680 0.8700 0.8700
10.003000 0.8710 0.8740 0.8750 0.8770 0.8770
10.041157 0.8780 0.8780 0.8780 0.8780 0.8780
10.079000 0.8780 0.8780 0.8780 0.8780 0.8780
10.117157 0.8780 0.8780 0.8780 0.8780 0.8780
10.155000 0.8800 0.8800 0.8800 0.8810 0.8810
10.193157 0.8810 0.8810 0.8830 0.8830 0.8810
10.231000 0.8810 0.8830 0.8830 0.8830 0.8830
10.269157 0.8830 0.8830 0.8830 0.8840 0.8830
10.308000 0.8830 0.8830 0.8840 0.8840 0.8840
10.346157 0.8860 0.8860 0.8860 0.8860 0.8860
10.384000 0.8860 0.8860 0.8860 0.8870 0.8870
10.422157 0.8870 0.8870 0.8870 0.8890 0.8900
10.460000 0.8900 0.8900 0.8920 0.8920 0.8920
10.498157 0.8920 0.8930 0.8930 0.8930 0.8950
10.536000 0.8950 0.8950 0.8950 0.8950 0.8950
10.574157 0.8950 0.8950 0.8950 0.8950 0.8950
10.613000 0.8950 0.8950 0.8950 0.8950 0.8950
10.651157 0.8950 0.8930 0.8930 0.8930 0.8930
10.689000 0.8930 0.8930 0.8930 0.8930 0.8930
10.727157 0.8930 0.8930 0.8930 0.8930 0.8930
10.765000 0.8930 0.8930 0.8930 0.8920 0.8920
10.803157 0.8920 0.8950 0.8950 0.8960 0.8960
10.842000 0.8980 0.8980 0.8990 0.8990 0.8990
10.880157 0.9010 0.9010 0.9010 0.9010 0.9010
10.918000 0.9010 0.9010 0.9010 0.9010 0.9010
10.956157 0.9010 0.9010 0.9010 0.9010 0.9010
10.994000 0.9010 0.9010 0.9010 0.9010 0.9010
11.032157 0.9010 0.9020 0.9020 0.9020 0.9020
11.070000 0.9020 0.9020 0.9020 0.9020 0.9020
11.108157 0.9020 0.9020 0.9020 0.9020 0.9020
11.147000 0.9020 0.9050 0.9050 0.9060 0.9060
11.185157 0.9060 0.9060 0.9060 0.9060 0.9060
11.223000 0.9060 0.9060 0.9060 0.9060 0.9090
11.261157 0.9110 0.9110 0.9110 0.9110 0.9110
11.299000 0.9120 0.9120 0.9120 0.9120 0.9120
11.337157 0.9120 0.9110 0.9110 0.9110 0.9110
11.375000 0.9110 0.9110 0.9110 0.9110 0.9110
11.413157 0.9110 0.9110 0.9110 0.9110 0.9110
11.452000 0.9090 0.9110 0.9110 0.9110 0.9110
11.490157 0.9110 0.9110 0.9110 0.9120 0.9120
11.528000 0.9120 0.9120 0.9120 0.9120 0.9120
11.566157 0.9120 0.9140 0.9140 0.9140 0.9140
11.604000 0.9140 0.9140 0.9140 0.9140 0.9140
11.642157 0.9140 0.9140 0.9140 0.9140 0.9140
11.681000 0.9140 0.9120 0.9120 0.9120 0.9120
11.719157 0.9120 0.9120 0.9120 0.9120 0.9120
11.757000 0.9140 0.9150 0.9180 0.9200 0.9200
11.795157 0.9200 0.9200 0.9200 0.9200 0.9200
11.833000 0.9200 0.9200 0.9200 0.9200 0.9200
11.871157 0.9200 0.9200 0.9200 0.9200 0.9200
11.909000 0.9180 0.9170 0.9170 0.9150 0.9150
11.947157 0.9150 0.9150 0.9150 0.9150 0.9150
11.986000 0.9170 0.9180 0.9180 0.9180 0.9200
12.024157 0.9200 0.9200 0.9210 0.9210 0.9210
12.062000 0.9210 0.9210 0.9210 0.9210 0.9210
12.100157 0.9210 0.9230 0.9240 0.9240 0.9240
12.138000 0.9240 0.9240 0.9240 0.9240 0.9240
12.176157 0.9240 0.9240 0.9240 0.9240 0.9240
12.214000 0.9240 0.9240 0.9240 0.9240 0.9240
12.252157 0.9240 0.9240 0.9260 0.9260 0.9260
12.291000 0.9260 0.9260 0.9260 0.9260 0.9260
12.329157 0.9260 0.9260 0.9260 0.9260 0.9260
12.367000 0.9260 0.9260 0.9260 0.9260 0.9260
12.405157 0.9260 0.9260 0.9260 0.9270 0.9270
12.443000 0.9270 0.9270 0.9270 0.9270 0.9260
12.481157 0.9260 0.9260 0.9260 0.9260 0.9260
12.519000 0.9260 0.9260 0.9260 0.9260 0.9240
12.557157 0.9240 0.9210 0.9200 0.9180 0.9150
12.596000 0.9150 0.9140 0.9090 0.9050 0.8980
12.634157 0.8900 0.8810 0.8700 0.8560 0.8370
12.672000 0.8160 0.7590 0.7200 0.6920 0.6660
12.710157 0.6420 0.6180 0.5640 0.5480 0.5270
12.748000 0.5090 0.4830 0.4570 0.4560 0.4530
12.786157 0.4530 0.4600 0.4810 0.5830 0.6010
12.825000 0.6180 0.6230 0.6690 0.6770 0.6880
12.863157 0.6880 0.6790 0.6640 0.6540 0.6440
12.901000 0.6230 0.6040 0.5650 0.5550 0.5490
12.939157 0.5530 0.5650 0.6010 0.6350 0.6610
12.977000 0.7160 0.7400 0.7650 0.7790 0.7940
13.015157 0.8000 0.8050 0.8240 0.8340 0.8380
13.053000 0.8400 0.8440 0.8490 0.8530 0.8590
13.091157 0.8640 0.8670 0.8720 0.8770 0.8800
13.130000 0.8830 0.8860 0.8870 0.8900 0.8930
13.168157 0.8950 0.8960 0.8990 0.9010 0.9030
13.206000 0.9050 0.9060 0.9090 0.9110 0.9110
13.244157 0.9110 0.9120 0.9120 0.9120 0.9120
13.282000 0.9140 0.9140 0.9140 0.9150 0.9150
13.320157 0.9150 0.9170 0.9170 0.9170 0.9180
13.358000 0.9180 0.9180 0.9180 0.9180 0.9180
13.396157 0.9180 0.9180 0.9180 0.9180 0.9180
13.435000 0.9180 0.9180 0.9180 0.9180 0.9180
13.473157 0.9180 0.9180 0.9180 0.9180 0.9180
13.511000 0.9180 0.9180 0.9180 0.9180 0.9180
13.549157 0.9180 0.9180 0.9180 0.9180 0.9180
13.587000 0.9180 0.9170 0.9170 0.9170 0.9180
13.625157 0.9180 0.9180 0.9180 0.9180 0.9180
13.664000 0.9180 0.9180 0.9180 0.9180 0.9180
13.702157 0.9180 0.9180 0.9180 0.9180 0.9180
13.740000 0.9180 0.9180 0.9180 0.9180 0.9180
13.778157 0.9180 0.9180 0.9180 0.9180 0.9180
13.816000 0.9180 0.9180 0.9180 0.9180 0.9180
13.854157 0.9180 0.9180 0.9180 0.9180 0.9180
13.892000 0.9180 0.9180 0.9180 0.9180 0.9180
13.930157 0.9180 0.9200 0.9200 0.9200 0.9200
13.969000 0.9200 0.9200 0.9200 0.9200 0.9200
14.007157 0.9200 0.9200 0.9200 0.9200 0.9180
14.045000 0.9180 0.9180 0.9180 0.9180 0.9180
14.083157 0.9170 0.9170 0.9170 0.9170 0.9170
14.121000 0.9170 0.9150 0.9150 0.9150 0.9150
14.159157 0.9140 0.9140 0.9140 0.9140 0.9140
14.197000 0.9140 0.9140 0.9140 0.9140 0.9140
14.235157 0.9140 0.9140 0.9140 0.9120 0.9110
14.274000 0.9110 0.9090 0.9090 0.9090 0.9080
14.312157 0.9080 0.9080 0.9080 0.9080 0.9080
14.350000 0.9080 0.9080 0.9080 0.9080 0.9080
14.388157 0.9060 0.9050 0.9050 0.9050 0.9050
14.426000 0.9030 0.9030 0.9030 0.9030 0.9020
14.464157 0.9020 0.9020 0.9010 0.9010 0.9010
14.503000 0.9010 0.8990 0.8990 0.8990 0.8990
14.541157 0.8980 0.8980 0.8980 0.8960 0.8960
14.579000 0.8960 0.8960 0.8950 0.8950 0.8950
14.617157 0.8930 0.8930 0.8920 0.8920 0.8900
14.655000 0.8900 0.8890 0.8890 0.8870 0.8870
14.693157 0.8860 0.8860 0.8840 0.8840 0.8810
14.731000 0.8810 0.8800 0.8800 0.8780 0.8780
14.769157 0.8770 0.8770 0.8750 0.8750 0.8740
14.808000 0.8740 0.8740 0.8740 0.8740 0.8720
14.846157 0.8720 0.8720 0.8720 0.8720 0.8720
14.884000 0.8720 0.8720 0.8720 0.8720 0.8720
14.922157 0.8720 0.8710 0.8700 0.8700 0.8700
14.960000 0.8700 0.8700 0.8700 0.8700 0.8700
14.998157 0.8700 0.8700 0.8700 0.8700 0.8700
15.036000 0.8700 0.8700 0.8700 0.8700 0.8700
15.074157 0.8710 0.8710 0.8700 0.8700 0.8700
15.113000 0.8700 0.8700 0.8700 0.8700 0.8700
15.151157 0.8700 0.8700 0.8700 0.8700 0.8700
15.189000 0.8680 0.8680 0.8680 0.8680 0.8670
15.227157 0.8670 0.8670 0.8670 0.8670 0.8650
15.265000 0.8650 0.8650 0.8650 0.8620 0.8620
15.303157 0.8620 0.8620 0.8610 0.8610 0.8610
15.342000 0.8610 0.8590 0.8590 0.8590 0.8590
##END=
