##TITLE=Calcium sodium citrate
##JCAMP-DX=4.24
$$ By DXEDIT 1.05 (RS McDonald)
##DATA TYPE=INFRARED SPECTRUM
##CLASS=COBLENTZ III
##ORIGIN=DOW CHEMICAL COMPANY
##OWNER=COPYRIGHT (C) 1988 by COBLENTZ SOCIETY INC.
Collection (C) 2018 copyright by the U.S. Secretary of Commerce
on behalf of the United States of America. All rights reserved.
##DATE=1963/10/16
##MOLFORM=C6 H5 Ca Na O7
##SOURCE REFERENCE=COBLENTZ NO. 06721
##$NIST ID=B6006721
##$NIST SOURCE=COBLENTZ
##$NIST IMAGE=cob6721
##SPECTROMETER/DATA SYSTEM=DOW KBr FOREPRISM-GRATING
##INSTRUMENT PARAMETERS=BLAZED AT 3.5, 12.0, 20.0 MICRON AND CHANGED AT 5.0, 7.5, 14.9 MICRON
##STATE=SOLID (SPLIT MULL)
$$ SPECTRAL FEATURE AT 2001 CM^-^1 IS AN ARTIFACT CAUSED BY GRATING CHANGE
##SAMPLING PROCEDURE=TRANSMISSION
##RESOLUTION=2
##DATA PROCESSING=DIGITIZED BY COBLENTZ SOCIETY (BATCH I) FROM HARD COPY
##XUNITS=1/CM
##YUNITS=TRANSMITTANCE
##XFACTOR=1
##YFACTOR=1
##DELTAX=1
##FIRSTX=3800
##LASTX=382
##FIRSTY=0.882
##MAXX=3800
##MINX=382
##MAXY=1.0044
##MINY=0.1213
##NPOINTS=3419
##XYDATA=(X++(Y..Y))
3800.000000 0.8820 0.8820 0.8821 0.8821 0.8824
3795.000000 0.8825 0.8828 0.8830 0.8832 0.8834
3790.000000 0.8836 0.8837 0.8839 0.8841 0.8844
3785.000000 0.8846 0.8848 0.8849 0.8851 0.8852
3780.000000 0.8853 0.8855 0.8857 0.8859 0.8861
3775.000000 0.8863 0.8865 0.8867 0.8868 0.8870
3770.000000 0.8871 0.8873 0.8875 0.8875 0.8877
3765.000000 0.8877 0.8877 0.8874 0.8871 0.8865
3760.000000 0.8860 0.8854 0.8849 0.8843 0.8837
3755.000000 0.8831 0.8825 0.8820 0.8814 0.8810
3750.000000 0.8807 0.8804 0.8801 0.8797 0.8794
3745.000000 0.8793 0.8793 0.8794 0.8796 0.8798
3740.000000 0.8800 0.8801 0.8803 0.8805 0.8807
3735.000000 0.8810 0.8814 0.8817 0.8820 0.8823
3730.000000 0.8827 0.8830 0.8833 0.8836 0.8839
3725.000000 0.8842 0.8845 0.8847 0.8850 0.8852
3720.000000 0.8855 0.8857 0.8860 0.8862 0.8865
3715.000000 0.8867 0.8868 0.8871 0.8873 0.8875
3710.000000 0.8877 0.8878 0.8881 0.8883 0.8885
3705.000000 0.8886 0.8888 0.8888 0.8888 0.8887
3700.000000 0.8887 0.8887 0.8887 0.8887 0.8887
3695.000000 0.8886 0.8886 0.8885 0.8884 0.8883
3690.000000 0.8882 0.8881 0.8880 0.8878 0.8877
3685.000000 0.8875 0.8873 0.8870 0.8867 0.8864
3680.000000 0.8862 0.8859 0.8857 0.8854 0.8852
3675.000000 0.8850 0.8848 0.8846 0.8844 0.8842
3670.000000 0.8840 0.8839 0.8839 0.8838 0.8837
3665.000000 0.8837 0.8837 0.8838 0.8839 0.8840
3660.000000 0.8841 0.8842 0.8843 0.8844 0.8845
3655.000000 0.8846 0.8848 0.8849 0.8850 0.8851
3650.000000 0.8852 0.8853 0.8855 0.8855 0.8856
3645.000000 0.8856 0.8857 0.8857 0.8857 0.8857
3640.000000 0.8857 0.8857 0.8857 0.8855 0.8854
3635.000000 0.8853 0.8852 0.8850 0.8849 0.8848
3630.000000 0.8847 0.8846 0.8845 0.8844 0.8843
3625.000000 0.8842 0.8841 0.8840 0.8839 0.8838
3620.000000 0.8837 0.8836 0.8835 0.8834 0.8833
3615.000000 0.8832 0.8831 0.8830 0.8830 0.8828
3610.000000 0.8828 0.8827 0.8827 0.8825 0.8825
3605.000000 0.8825 0.8824 0.8823 0.8823 0.8821
3600.000000 0.8821 0.8818 0.8818 0.8816 0.8815
3595.000000 0.8813 0.8811 0.8809 0.8808 0.8806
3590.000000 0.8805 0.8803 0.8802 0.8800 0.8799
3585.000000 0.8797 0.8796 0.8794 0.8792 0.8789
3580.000000 0.8787 0.8784 0.8782 0.8778 0.8777
3575.000000 0.8774 0.8771 0.8768 0.8766 0.8763
3570.000000 0.8761 0.8758 0.8756 0.8753 0.8751
3565.000000 0.8748 0.8746 0.8744 0.8742 0.8740
3560.000000 0.8739 0.8737 0.8736 0.8734 0.8732
3555.000000 0.8730 0.8728 0.8727 0.8725 0.8725
3550.000000 0.8724 0.8723 0.8721 0.8721 0.8720
3545.000000 0.8718 0.8718 0.8717 0.8716 0.8714
3540.000000 0.8712 0.8710 0.8708 0.8706 0.8705
3535.000000 0.8703 0.8701 0.8699 0.8697 0.8695
3530.000000 0.8693 0.8691 0.8690 0.8688 0.8686
3525.000000 0.8684 0.8675 0.8680 0.8678 0.8677
3520.000000 0.8675 0.8673 0.8671 0.8668 0.8668
3515.000000 0.8666 0.8664 0.8662 0.8660 0.8658
3510.000000 0.8657 0.8655 0.8653 0.8651 0.8650
3505.000000 0.8648 0.8647 0.8645 0.8643 0.8641
3500.000000 0.8640 0.8638 0.8636 0.8634 0.8633
3495.000000 0.8631 0.8628 0.8627 0.8625 0.8624
3490.000000 0.8621 0.8620 0.8618 0.8617 0.8615
3485.000000 0.8613 0.8612 0.8611 0.8610 0.8608
3480.000000 0.8607 0.8606 0.8605 0.8604 0.8603
3475.000000 0.8602 0.8601 0.8599 0.8598 0.8597
3470.000000 0.8596 0.8595 0.8594 0.8593 0.8592
3465.000000 0.8590 0.8589 0.8588 0.8587 0.8586
3460.000000 0.8585 0.8584 0.8583 0.8581 0.8580
3455.000000 0.8578 0.8578 0.8577 0.8575 0.8575
3450.000000 0.8574 0.8573 0.8571 0.8570 0.8568
3445.000000 0.8568 0.8567 0.8566 0.8565 0.8564
3440.000000 0.8563 0.8562 0.8561 0.8560 0.8559
3435.000000 0.8558 0.8557 0.8556 0.8555 0.8554
3430.000000 0.8553 0.8552 0.8551 0.8549 0.8548
3425.000000 0.8547 0.8546 0.8545 0.8544 0.8543
3420.000000 0.8542 0.8541 0.8540 0.8539 0.8539
3415.000000 0.8538 0.8537 0.8536 0.8535 0.8534
3410.000000 0.8533 0.8532 0.8531 0.8530 0.8528
3405.000000 0.8528 0.8528 0.8527 0.8525 0.8525
3400.000000 0.8524 0.8521 0.8521 0.8518 0.8518
3395.000000 0.8517 0.8516 0.8514 0.8513 0.8511
3390.000000 0.8510 0.8509 0.8508 0.8506 0.8505
3385.000000 0.8503 0.8502 0.8500 0.8499 0.8498
3380.000000 0.8497 0.8495 0.8494 0.8492 0.8491
3375.000000 0.8490 0.8489 0.8487 0.8486 0.8484
3370.000000 0.8483 0.8482 0.8481 0.8478 0.8477
3365.000000 0.8475 0.8474 0.8471 0.8471 0.8468
3360.000000 0.8468 0.8466 0.8465 0.8463 0.8462
3355.000000 0.8460 0.8459 0.8457 0.8456 0.8454
3350.000000 0.8452 0.8450 0.8449 0.8447 0.8446
3345.000000 0.8444 0.8443 0.8442 0.8441 0.8439
3340.000000 0.8438 0.8437 0.8436 0.8434 0.8433
3335.000000 0.8432 0.8431 0.8428 0.8428 0.8425
3330.000000 0.8425 0.8424 0.8423 0.8421 0.8420
3325.000000 0.8418 0.8418 0.8416 0.8414 0.8411
3320.000000 0.8409 0.8407 0.8405 0.8402 0.8400
3315.000000 0.8398 0.8396 0.8393 0.8391 0.8389
3310.000000 0.8387 0.8384 0.8382 0.8378 0.8377
3305.000000 0.8375 0.8373 0.8368 0.8366 0.8363
3300.000000 0.8360 0.8356 0.8353 0.8349 0.8346
3295.000000 0.8342 0.8339 0.8336 0.8333 0.8328
3290.000000 0.8325 0.8321 0.8318 0.8315 0.8312
3285.000000 0.8307 0.8303 0.8298 0.8294 0.8290
3280.000000 0.8286 0.8281 0.8277 0.8271 0.8268
3275.000000 0.8264 0.8260 0.8255 0.8251 0.8246
3270.000000 0.8242 0.8238 0.8234 0.8228 0.8225
3265.000000 0.8220 0.8216 0.8212 0.8208 0.8203
3260.000000 0.8199 0.8195 0.8191 0.8186 0.8182
3255.000000 0.8176 0.8171 0.8165 0.8160 0.8154
3250.000000 0.8149 0.8143 0.8138 0.8132 0.8125
3245.000000 0.8119 0.8115 0.8108 0.8104 0.8099
3240.000000 0.8094 0.8089 0.8084 0.8078 0.8074
3235.000000 0.8068 0.8064 0.8058 0.8054 0.8048
3230.000000 0.8043 0.8037 0.8031 0.8025 0.8018
3225.000000 0.8011 0.8006 0.8000 0.7994 0.7988
3220.000000 0.7982 0.7975 0.7968 0.7961 0.7955
3215.000000 0.7948 0.7942 0.7935 0.7928 0.7921
3210.000000 0.7914 0.7907 0.7900 0.7893 0.7887
3205.000000 0.7878 0.7871 0.7865 0.7858 0.7850
3200.000000 0.7843 0.7835 0.7828 0.7819 0.7812
3195.000000 0.7806 0.7799 0.7791 0.7784 0.7775
3190.000000 0.7768 0.7761 0.7755 0.7747 0.7740
3185.000000 0.7731 0.7722 0.7712 0.7703 0.7693
3180.000000 0.7683 0.7672 0.7662 0.7653 0.7643
3175.000000 0.7634 0.7625 0.7615 0.7608 0.7599
3170.000000 0.7591 0.7582 0.7572 0.7564 0.7556
3165.000000 0.7547 0.7539 0.7530 0.7521 0.7512
3160.000000 0.7504 0.7495 0.7487 0.7478 0.7468
3155.000000 0.7460 0.7451 0.7441 0.7432 0.7422
3150.000000 0.7414 0.7404 0.7395 0.7385 0.7375
3145.000000 0.7365 0.7357 0.7347 0.7338 0.7328
3140.000000 0.7318 0.7308 0.7300 0.7289 0.7278
3135.000000 0.7267 0.7255 0.7243 0.7232 0.7219
3130.000000 0.7208 0.7196 0.7185 0.7172 0.7161
3125.000000 0.7147 0.7134 0.7118 0.7103 0.7087
3120.000000 0.7071 0.7056 0.7041 0.7025 0.7011
3115.000000 0.6995 0.6980 0.6961 0.6942 0.6921
3110.000000 0.6903 0.6883 0.6864 0.6844 0.6825
3105.000000 0.6805 0.6785 0.6765 0.6745 0.6724
3100.000000 0.6703 0.6678 0.6653 0.6626 0.6601
3095.000000 0.6580 0.6558 0.6536 0.6515 0.6494
3090.000000 0.6474 0.6455 0.6437 0.6418 0.6401
3085.000000 0.6386 0.6371 0.6356 0.6341 0.6326
3080.000000 0.6310 0.6294 0.6278 0.6260 0.6245
3075.000000 0.6231 0.6217 0.6205 0.6193 0.6187
3070.000000 0.6182 0.6177 0.6173 0.6170 0.6168
3065.000000 0.6165 0.6162 0.6160 0.6160 0.6160
3060.000000 0.6153 0.6169 0.6177 0.6185 0.6194
3055.000000 0.6210 0.6229 0.6246 0.6264 0.6285
3050.000000 0.6307 0.6329 0.6352 0.6374 0.6396
3045.000000 0.6418 0.6440 0.6468 0.6497 0.6528
3040.000000 0.6560 0.6591 0.6622 0.6651 0.6681
3035.000000 0.6708 0.6738 0.6765 0.6794 0.6821
3030.000000 0.6851 0.6874 0.6898 0.6917 0.6937
3025.000000 0.6956 0.6975 0.6994 0.7014 0.7033
3020.000000 0.7051 0.7069 0.7088 0.7105 0.7121
3015.000000 0.7139 0.7156 0.7171 0.7189 0.7206
3010.000000 0.7222 0.7239 0.7256 0.7271 0.7289
3005.000000 0.7305 0.7321 0.7338 0.7355 0.7369
3000.000000 0.7385 0.7398 0.7411 0.7425 0.7438
2995.000000 0.7451 0.7465 0.7478 0.7491 0.7503
2990.000000 0.7515 0.7528 0.7543 0.7556 0.7568
2985.000000 0.7578 0.7589 0.7595 0.7601 0.7608
2980.000000 0.7614 0.7618 0.7624 0.7622 0.7621
2975.000000 0.7617 0.7611 0.7585 0.7558 0.7528
2970.000000 0.7497 0.7485 0.7472 0.7467 0.7461
2965.000000 0.7474 0.7488 0.7507 0.7525 0.7545
2960.000000 0.7564 0.7584 0.7604 0.7622 0.7642
2955.000000 0.7656 0.7669 0.7676 0.7685 0.7692
2950.000000 0.7700 0.7700 0.7701 0.7696 0.7692
2945.000000 0.7671 0.7651 0.7639 0.7626 0.7615
2940.000000 0.7605 0.7619 0.7635 0.7647 0.7658
2935.000000 0.7671 0.7683 0.7695 0.7707 0.7717
2930.000000 0.7726 0.7737 0.7748 0.7758 0.7768
2925.000000 0.7778 0.7790 0.7800 0.7810 0.7821
2920.000000 0.7835 0.7849 0.7864 0.7878 0.7893
2915.000000 0.7907 0.7921 0.7936 0.7951 0.7965
2910.000000 0.7978 0.7992 0.8005 0.8018 0.8031
2905.000000 0.8043 0.8056 0.8068 0.8082 0.8094
2900.000000 0.8107 0.8119 0.8133 0.8144 0.8156
2895.000000 0.8167 0.8178 0.8188 0.8199 0.8210
2890.000000 0.8221 0.8232 0.8243 0.8249 0.8256
2885.000000 0.8261 0.8267 0.8273 0.8278 0.8282
2880.000000 0.8285 0.8287 0.8289 0.8290 0.8290
2875.000000 0.8290 0.8290 0.8289 0.8288 0.8287
2870.000000 0.8287 0.8286 0.8286 0.8286 0.8287
2865.000000 0.8287 0.8288 0.8290 0.8292 0.8297
2860.000000 0.8302 0.8306 0.8311 0.8316 0.8321
2855.000000 0.8325 0.8330 0.8335 0.8340 0.8344
2850.000000 0.8349 0.8355 0.8362 0.8368 0.8377
2845.000000 0.8384 0.8392 0.8400 0.8408 0.8414
2840.000000 0.8421 0.8425 0.8432 0.8438 0.8444
2835.000000 0.8450 0.8456 0.8461 0.8467 0.8471
2830.000000 0.8475 0.8478 0.8481 0.8484 0.8488
2825.000000 0.8491 0.8494 0.8496 0.8499 0.8501
2820.000000 0.8504 0.8506 0.8509 0.8510 0.8512
2815.000000 0.8512 0.8513 0.8513 0.8514 0.8514
2810.000000 0.8515 0.8515 0.8516 0.8516 0.8516
2805.000000 0.8516 0.8516 0.8515 0.8515 0.8514
2800.000000 0.8514 0.8513 0.8513 0.8512 0.8512
2795.000000 0.8511 0.8510 0.8509 0.8509 0.8508
2790.000000 0.8507 0.8506 0.8505 0.8502 0.8499
2785.000000 0.8495 0.8492 0.8488 0.8485 0.8482
2780.000000 0.8478 0.8475 0.8471 0.8464 0.8457
2775.000000 0.8449 0.8441 0.8433 0.8425 0.8414
2770.000000 0.8404 0.8390 0.8377 0.8360 0.8344
2765.000000 0.8321 0.8300 0.8282 0.8264 0.8253
2760.000000 0.8242 0.8228 0.8217 0.8201 0.8186
2755.000000 0.8175 0.8165 0.8160 0.8154 0.8148
2750.000000 0.8143 0.8138 0.8133 0.8131 0.8108
2745.000000 0.8126 0.8125 0.8130 0.8135 0.8142
2740.000000 0.8149 0.8157 0.8165 0.8175 0.8184
2735.000000 0.8195 0.8206 0.8225 0.8244 0.8263
2730.000000 0.8282 0.8309 0.8337 0.8368 0.8399
2725.000000 0.8414 0.8430 0.8445 0.8461 0.8475
2720.000000 0.8492 0.8507 0.8523 0.8533 0.8544
2715.000000 0.8553 0.8563 0.8571 0.8582 0.8592
2710.000000 0.8602 0.8611 0.8621 0.8630 0.8639
2705.000000 0.8648 0.8657 0.8662 0.8667 0.8668
2700.000000 0.8670 0.8671 0.8673 0.8675 0.8677
2695.000000 0.8678 0.8680 0.8680 0.8680 0.8678
2690.000000 0.8678 0.8678 0.8678 0.8678 0.8678
2685.000000 0.8677 0.8677 0.8675 0.8675 0.8675
2680.000000 0.8675 0.8675 0.8675 0.8674 0.8674
2675.000000 0.8674 0.8674 0.8673 0.8673 0.8671
2670.000000 0.8670 0.8668 0.8668 0.8666 0.8665
2665.000000 0.8663 0.8662 0.8661 0.8660 0.8658
2660.000000 0.8657 0.8655 0.8654 0.8653 0.8652
2655.000000 0.8650 0.8649 0.8647 0.8646 0.8653
2650.000000 0.8660 0.8675 0.8692 0.8702 0.8712
2645.000000 0.8721 0.8732 0.8742 0.8753 0.8763
2640.000000 0.8773 0.8783 0.8793 0.8800 0.8807
2635.000000 0.8814 0.8821 0.8827 0.8834 0.8840
2630.000000 0.8847 0.8852 0.8858 0.8861 0.8865
2625.000000 0.8868 0.8871 0.8874 0.8878 0.8881
2620.000000 0.8884 0.8887 0.8891 0.8893 0.8896
2615.000000 0.8897 0.8898 0.8899 0.8900 0.8901
2610.000000 0.8902 0.8903 0.8904 0.8905 0.8906
2605.000000 0.8907 0.8908 0.8909 0.8910 0.8911
2600.000000 0.8912 0.8913 0.8914 0.8915 0.8916
2595.000000 0.8917 0.8918 0.8918 0.8920 0.8921
2590.000000 0.8921 0.8921 0.8923 0.8923 0.8924
2585.000000 0.8924 0.8925 0.8925 0.8925 0.8925
2580.000000 0.8927 0.8927 0.8928 0.8928 0.8928
2575.000000 0.8928 0.8928 0.8928 0.8930 0.8930
2570.000000 0.8931 0.8931 0.8932 0.8932 0.8933
2565.000000 0.8933 0.8934 0.8934 0.8935 0.8935
2560.000000 0.8935 0.8935 0.8936 0.8936 0.8937
2555.000000 0.8937 0.8937 0.8937 0.8938 0.8938
2550.000000 0.8938 0.8938 0.8939 0.8939 0.8940
2545.000000 0.8940 0.8940 0.8940 0.8941 0.8941
2540.000000 0.8941 0.8941 0.8942 0.8942 0.8943
2535.000000 0.8943 0.8944 0.8944 0.8944 0.8944
2530.000000 0.8945 0.8945 0.8946 0.8946 0.8947
2525.000000 0.8947 0.8947 0.8947 0.8948 0.8948
2520.000000 0.8949 0.8949 0.8950 0.8950 0.8950
2515.000000 0.8949 0.8948 0.8947 0.8946 0.8945
2510.000000 0.8944 0.8943 0.8942 0.8941 0.8940
2505.000000 0.8939 0.8938 0.8937 0.8936 0.8935
2500.000000 0.8934 0.8933 0.8932 0.8930 0.8928
2495.000000 0.8925 0.8921 0.8918 0.8916 0.8912
2490.000000 0.8909 0.8906 0.8903 0.8900 0.8897
2485.000000 0.8894 0.8891 0.8887 0.8884 0.8881
2480.000000 0.8878 0.8875 0.8871 0.8868 0.8866
2475.000000 0.8863 0.8861 0.8858 0.8855 0.8852
2470.000000 0.8849 0.8846 0.8843 0.8840 0.8837
2465.000000 0.8834 0.8831 0.8828 0.8825 0.8823
2460.000000 0.8820 0.8818 0.8817 0.8816 0.8816
2455.000000 0.8816 0.8816 0.8816 0.8816 0.8815
2450.000000 0.8815 0.8815 0.8815 0.8817 0.8818
2445.000000 0.8821 0.8824 0.8827 0.8830 0.8832
2440.000000 0.8835 0.8837 0.8840 0.8843 0.8846
2435.000000 0.8848 0.8851 0.8853 0.8856 0.8859
2430.000000 0.8862 0.8863 0.8865 0.8866 0.8867
2425.000000 0.8868 0.8870 0.8871 0.8873 0.8874
2420.000000 0.8875 0.8877 0.8878 0.8880 0.8882
2415.000000 0.8883 0.8885 0.8886 0.8886 0.8886
2410.000000 0.8885 0.8883 0.8882 0.8880 0.8878
2405.000000 0.8877 0.8875 0.8874 0.8871 0.8870
2400.000000 0.8868 0.8867 0.8866 0.8864 0.8863
2395.000000 0.8861 0.8860 0.8858 0.8856 0.8854
2390.000000 0.8853 0.8851 0.8849 0.8846 0.8843
2385.000000 0.8840 0.8837 0.8834 0.8831 0.8828
2380.000000 0.8825 0.8821 0.8818 0.8816 0.8813
2375.000000 0.8810 0.8807 0.8804 0.8801 0.8798
2370.000000 0.8795 0.8791 0.8788 0.8785 0.8782
2365.000000 0.8780 0.8778 0.8775 0.8774 0.8771
2360.000000 0.8771 0.8768 0.8767 0.8765 0.8763
2355.000000 0.8761 0.8759 0.8757 0.8756 0.8754
2350.000000 0.8752 0.8750 0.8748 0.8747 0.8746
2345.000000 0.8745 0.8744 0.8742 0.8741 0.8740
2340.000000 0.8739 0.8737 0.8736 0.8735 0.8734
2335.000000 0.8732 0.8731 0.8730 0.8728 0.8727
2330.000000 0.8725 0.8725 0.8724 0.8721 0.8721
2325.000000 0.8721 0.8721 0.8723 0.8724 0.8724
2320.000000 0.8725 0.8725 0.8727 0.8728 0.8728
2315.000000 0.8728 0.8730 0.8731 0.8732 0.8733
2310.000000 0.8734 0.8735 0.8737 0.8739 0.8742
2305.000000 0.8744 0.8747 0.8750 0.8753 0.8755
2300.000000 0.8758 0.8761 0.8764 0.8766 0.8768
2295.000000 0.8771 0.8775 0.8777 0.8780 0.8782
2290.000000 0.8785 0.8788 0.8791 0.8793 0.8796
2285.000000 0.8799 0.8802 0.8805 0.8808 0.8811
2280.000000 0.8814 0.8817 0.8821 0.8824 0.8827
2275.000000 0.8830 0.8834 0.8837 0.8840 0.8843
2270.000000 0.8846 0.8849 0.8852 0.8855 0.8858
2265.000000 0.8861 0.8864 0.8867 0.8870 0.8871
2260.000000 0.8875 0.8878 0.8881 0.8884 0.8887
2255.000000 0.8890 0.8893 0.8896 0.8900 0.8904
2250.000000 0.8908 0.8911 0.8915 0.8918 0.8921
2245.000000 0.8925 0.8928 0.8933 0.8937 0.8940
2240.000000 0.8944 0.8947 0.8951 0.8954 0.8958
2235.000000 0.8962 0.8966 0.8970 0.8974 0.8978
2230.000000 0.8983 0.8987 0.8992 0.8996 0.9000
2225.000000 0.9004 0.9008 0.9009 0.9011 0.9012
2220.000000 0.9014 0.9016 0.9018 0.9018 0.9021
2215.000000 0.9021 0.9024 0.9025 0.9027 0.9028
2210.000000 0.9031 0.9032 0.9034 0.9035 0.9037
2205.000000 0.9038 0.9040 0.9042 0.9044 0.9045
2200.000000 0.9047 0.9048 0.9050 0.9051 0.9053
2195.000000 0.9055 0.9057 0.9058 0.9060 0.9061
2190.000000 0.9063 0.9064 0.9066 0.9068 0.9070
2185.000000 0.9071 0.9074 0.9075 0.9078 0.9080
2180.000000 0.9082 0.9083 0.9085 0.9087 0.9089
2175.000000 0.9091 0.9093 0.9095 0.9097 0.9099
2170.000000 0.9101 0.9102 0.9104 0.9106 0.9108
2165.000000 0.9110 0.9112 0.9114 0.9116 0.9118
2160.000000 0.9120 0.9121 0.9124 0.9125 0.9127
2155.000000 0.9128 0.9131 0.9133 0.9136 0.9138
2150.000000 0.9141 0.9143 0.9146 0.9148 0.9151
2145.000000 0.9153 0.9156 0.9158 0.9161 0.9163
2140.000000 0.9166 0.9168 0.9171 0.9174 0.9177
2135.000000 0.9178 0.9182 0.9184 0.9187 0.9189
2130.000000 0.9192 0.9194 0.9197 0.9199 0.9202
2125.000000 0.9204 0.9206 0.9208 0.9211 0.9213
2120.000000 0.9215 0.9217 0.9220 0.9221 0.9224
2115.000000 0.9225 0.9228 0.9231 0.9233 0.9235
2110.000000 0.9238 0.9241 0.9244 0.9247 0.9250
2105.000000 0.9253 0.9256 0.9259 0.9262 0.9265
2100.000000 0.9268 0.9271 0.9274 0.9277 0.9280
2095.000000 0.9283 0.9286 0.9289 0.9292 0.9295
2090.000000 0.9298 0.9301 0.9304 0.9307 0.9310
2085.000000 0.9313 0.9316 0.9318 0.9321 0.9324
2080.000000 0.9327 0.9328 0.9332 0.9334 0.9337
2075.000000 0.9339 0.9342 0.9344 0.9347 0.9349
2070.000000 0.9352 0.9354 0.9357 0.9359 0.9362
2065.000000 0.9364 0.9367 0.9368 0.9371 0.9375
2060.000000 0.9378 0.9380 0.9383 0.9384 0.9385
2055.000000 0.9386 0.9388 0.9389 0.9390 0.9391
2050.000000 0.9393 0.9394 0.9396 0.9397 0.9398
2045.000000 0.9399 0.9401 0.9402 0.9403 0.9405
2040.000000 0.9407 0.9409 0.9412 0.9414 0.9417
2035.000000 0.9418 0.9421 0.9424 0.9425 0.9428
2030.000000 0.9431 0.9433 0.9436 0.9438 0.9440
2025.000000 0.9442 0.9445 0.9447 0.9449 0.9451
2020.000000 0.9454 0.9456 0.9458 0.9460 0.9463
2015.000000 0.9463 0.9464 0.9465 0.9466 0.9467
2010.000000 0.9468 0.9468 0.9468 0.9470 0.9471
2005.000000 0.9471 0.9474 0.9475 0.9475 0.9512
2000.000000 0.9548 0.9616 0.9699 0.9755 0.9792
1995.000000 0.9814 0.9828 0.9838 0.9847 0.9853
1990.000000 0.9856 0.9860 0.9863 0.9867 0.9870
1985.000000 0.9875 0.9878 0.9884 0.9888 0.9891
1980.000000 0.9894 0.9897 0.9900 0.9901 0.9903
1975.000000 0.9904 0.9905 0.9906 0.9908 0.9911
1970.000000 0.9913 0.9916 0.9918 0.9921 0.9924
1965.000000 0.9925 0.9925 0.9932 0.9946 0.9966
1960.000000 1.0000 1.0027 1.0044 1.0044 1.0040
1955.000000 1.0037 1.0032 1.0025 0.9983 1.0010
1950.000000 1.0003 0.9997 0.9993 0.9989 0.9984
1945.000000 0.9980 0.9975 0.9971 0.9970 0.9968
1940.000000 0.9966 0.9964 0.9962 0.9960 0.9958
1935.000000 0.9957 0.9956 0.9955 0.9954 0.9953
1930.000000 0.9953 0.9952 0.9951 0.9950 0.9950
1925.000000 0.9950 0.9949 0.9949 0.9949 0.9948
1920.000000 0.9948 0.9948 0.9948 0.9948 0.9948
1915.000000 0.9948 0.9948 0.9948 0.9948 0.9948
1910.000000 0.9948 0.9948 0.9948 0.9948 0.9948
1905.000000 0.9947 0.9946 0.9945 0.9944 0.9943
1900.000000 0.9942 0.9941 0.9939 0.9937 0.9935
1895.000000 0.9933 0.9931 0.9928 0.9927 0.9923
1890.000000 0.9920 0.9916 0.9913 0.9909 0.9906
1885.000000 0.9903 0.9899 0.9898 0.9897 0.9896
1880.000000 0.9895 0.9894 0.9892 0.9890 0.9889
1875.000000 0.9887 0.9885 0.9883 0.9881 0.9878
1870.000000 0.9878 0.9877 0.9875 0.9874 0.9873
1865.000000 0.9873 0.9873 0.9874 0.9875 0.9875
1860.000000 0.9877 0.9878 0.9878 0.9878 0.9880
1855.000000 0.9881 0.9882 0.9883 0.9884 0.9885
1850.000000 0.9886 0.9886 0.9887 0.9887 0.9883
1845.000000 0.9878 0.9874 0.9870 0.9868 0.9867
1840.000000 0.9865 0.9864 0.9862 0.9861 0.9860
1835.000000 0.9860 0.9860 0.9861 0.9861 0.9862
1830.000000 0.9863 0.9864 0.9865 0.9865 0.9866
1825.000000 0.9867 0.9868 0.9868 0.9868 0.9868
1820.000000 0.9868 0.9870 0.9870 0.9870 0.9871
1815.000000 0.9871 0.9871 0.9871 0.9873 0.9873
1810.000000 0.9874 0.9875 0.9875 0.9875 0.9877
1805.000000 0.9877 0.9877 0.9875 0.9875 0.9874
1800.000000 0.9873 0.9871 0.9871 0.9870 0.9868
1795.000000 0.9868 0.9867 0.9865 0.9862 0.9858
1790.000000 0.9846 0.9825 0.9807 0.9807 0.9808
1785.000000 0.9809 0.9809 0.9810 0.9811 0.9812
1780.000000 0.9812 0.9811 0.9811 0.9810 0.9809
1775.000000 0.9809 0.9808 0.9807 0.9807 0.9806
1770.000000 0.9806 0.9805 0.9804 0.9803 0.9802
1765.000000 0.9801 0.9800 0.9798 0.9797 0.9796
1760.000000 0.9795 0.9793 0.9792 0.9791 0.9789
1755.000000 0.9788 0.9787 0.9783 0.9778 0.9775
1750.000000 0.9771 0.9768 0.9765 0.9761 0.9758
1745.000000 0.9754 0.9751 0.9748 0.9744 0.9739
1740.000000 0.9730 0.9721 0.9709 0.9693 0.9677
1735.000000 0.9665 0.9654 0.9649 0.9651 0.9653
1730.000000 0.9655 0.9655 0.9654 0.9654 0.9654
1725.000000 0.9646 0.9631 0.9616 0.9598 0.9580
1720.000000 0.9562 0.9544 0.9527 0.9514 0.9500
1715.000000 0.9499 0.9498 0.9501 0.9510 0.9520
1710.000000 0.9528 0.9528 0.9530 0.9528 0.9513
1705.000000 0.9498 0.9483 0.9455 0.9423 0.9401
1700.000000 0.9385 0.9378 0.9374 0.9368 0.9361
1695.000000 0.9352 0.9343 0.9333 0.9305 0.9265
1690.000000 0.9218 0.9177 0.9135 0.9094 0.9034
1685.000000 0.8973 0.8906 0.8834 0.8762 0.8664
1680.000000 0.8539 0.8392 0.8290 0.8188 0.8092
1675.000000 0.7996 0.7878 0.7754 0.7617 0.7307
1670.000000 0.6880 0.6400 0.5919 0.5438 0.5286
1665.000000 0.5279 0.5295 0.5678 0.6025 0.6372
1660.000000 0.6718 0.7143 0.7246 0.7321 0.7404
1655.000000 0.7418 0.7426 0.7451 0.7539 0.7637
1650.000000 0.7655 0.7657 0.7642 0.7611 0.7578
1645.000000 0.7519 0.7440 0.7233 0.7061 0.6897
1640.000000 0.6746 0.6584 0.6349 0.6066 0.5894
1635.000000 0.5778 0.5562 0.5347 0.5132 0.4917
1630.000000 0.4701 0.4486 0.3716 0.3510 0.3326
1625.000000 0.3041 0.2884 0.2724 0.2492 0.2329
1620.000000 0.2081 0.1904 0.1698 0.1594 0.1524
1615.000000 0.1458 0.1378 0.1320 0.1280 0.1261
1610.000000 0.1253 0.1213 0.1250 0.1250 0.1271
1605.000000 0.1326 0.1415 0.1529 0.1661 0.1791
1600.000000 0.1975 0.2229 0.2518 0.3346 0.3590
1595.000000 0.3796 0.3980 0.4159 0.4183 0.4199
1590.000000 0.4248 0.3994 0.3790 0.3586 0.3380
1585.000000 0.3177 0.2973 0.2769 0.2566 0.2447
1580.000000 0.2489 0.2492 0.2690 0.2959 0.3228
1575.000000 0.3497 0.3766 0.4034 0.4304 0.4573
1570.000000 0.4842 0.5198 0.5426 0.5556 0.5657
1565.000000 0.5751 0.5806 0.5831 0.5830 0.5827
1560.000000 0.5797 0.5764 0.5709 0.5627 0.5468
1555.000000 0.5232 0.4975 0.4624 0.4044 0.3464
1550.000000 0.2884 0.2305 0.2173 0.2007 0.1707
1545.000000 0.1596 0.1581 0.1577 0.1564 0.2111
1540.000000 0.2272 0.2429 0.2584 0.3147 0.3598
1535.000000 0.4008 0.4419 0.4830 0.5240 0.5651
1530.000000 0.5875 0.5956 0.6004 0.6045 0.6087
1525.000000 0.6175 0.6938 0.7257 0.7415 0.7561
1520.000000 0.7633 0.7704 0.7771 0.7830 0.7888
1515.000000 0.7946 0.7988 0.8025 0.8065 0.8103
1510.000000 0.8138 0.8171 0.8205 0.8238 0.8268
1505.000000 0.8301 0.8333 0.8365 0.8401 0.8435
1500.000000 0.8458 0.8481 0.8504 0.8523 0.8540
1495.000000 0.8558 0.8575 0.8580 0.8584 0.8617
1490.000000 0.8590 0.8580 0.8568 0.8548 0.8527
1485.000000 0.8500 0.8458 0.8415 0.8316 0.8205
1480.000000 0.8074 0.7928 0.7750 0.7608 0.7267
1475.000000 0.6282 0.5833 0.5384 0.4674 0.4684
1470.000000 0.4723 0.5026 0.5328 0.5631 0.5933
1465.000000 0.6235 0.6538 0.6840 0.7143 0.7333
1460.000000 0.7382 0.7425 0.7457 0.7478 0.7494
1455.000000 0.7445 0.7499 0.7475 0.7398 0.7247
1450.000000 0.7098 0.6978 0.6815 0.6592 0.6369
1445.000000 0.6145 0.5922 0.5698 0.5475 0.5234
1440.000000 0.4643 0.4010 0.3674 0.3338 0.3001
1435.000000 0.2507 0.2232 0.2004 0.1951 0.1943
1430.000000 0.1946 0.2023 0.2155 0.2267 0.2392
1425.000000 0.2533 0.2734 0.2972 0.3125 0.3221
1420.000000 0.3318 0.3409 0.3500 0.3707 0.3860
1415.000000 0.4049 0.4236 0.4424 0.4610 0.4799
1410.000000 0.4987 0.5180 0.5321 0.5365 0.5377
1405.000000 0.5378 0.5378 0.5399 0.5402 0.5404
1400.000000 0.5407 0.5410 0.5412 0.5408 0.5400
1395.000000 0.5381 0.5341 0.5239 0.5046 0.5086
1390.000000 0.5077 0.5142 0.5240 0.5340 0.5542
1385.000000 0.5980 0.6117 0.6220 0.6320 0.6418
1380.000000 0.6519 0.6604 0.6668 0.6732 0.6797
1375.000000 0.6861 0.6926 0.6993 0.7058 0.7133
1370.000000 0.7208 0.7276 0.7340 0.7404 0.7469
1365.000000 0.7539 0.7607 0.7668 0.7725 0.7780
1360.000000 0.7832 0.7883 0.7919 0.7944 0.7954
1355.000000 0.8006 0.7957 0.7954 0.7951 0.7925
1350.000000 0.7893 0.7839 0.7788 0.7735 0.7692
1345.000000 0.7658 0.7640 0.7625 0.7608 0.7622
1340.000000 0.7625 0.7633 0.7654 0.7684 0.7715
1335.000000 0.7746 0.7793 0.7842 0.7892 0.7951
1330.000000 0.8011 0.8072 0.8131 0.8169 0.8212
1325.000000 0.8200 0.8208 0.8213 0.8205 0.8189
1320.000000 0.8157 0.8103 0.7968 0.7756 0.7357
1315.000000 0.6747 0.6722 0.6715 0.6705 0.6350
1310.000000 0.5438 0.5152 0.5164 0.5445 0.5726
1305.000000 0.6006 0.6287 0.6568 0.6848 0.7128
1300.000000 0.7372 0.7383 0.7395 0.7275 0.7040
1295.000000 0.6805 0.6569 0.6303 0.6287 0.6383
1290.000000 0.6541 0.6700 0.6858 0.7017 0.7175
1285.000000 0.7228 0.7225 0.7225 0.7225 0.7133
1280.000000 0.6725 0.6303 0.5881 0.5459 0.5036
1275.000000 0.4614 0.4191 0.4109 0.4434 0.4889
1270.000000 0.5344 0.5799 0.6254 0.6710 0.7304
1265.000000 0.7451 0.7587 0.7665 0.7742 0.7814
1260.000000 0.7884 0.7946 0.8001 0.8061 0.8086
1255.000000 0.8111 0.8137 0.8161 0.8185 0.8205
1250.000000 0.8220 0.8235 0.8250 0.8261 0.8268
1245.000000 0.8275 0.8275 0.8275 0.8271 0.8265
1240.000000 0.8257 0.8249 0.8233 0.8235 0.8228
1235.000000 0.8224 0.8223 0.8221 0.8220 0.8218
1230.000000 0.8217 0.8214 0.8210 0.8207 0.8204
1225.000000 0.8202 0.8195 0.8186 0.8176 0.8165
1220.000000 0.8146 0.8124 0.8097 0.8069 0.8031
1215.000000 0.7991 0.7941 0.7883 0.7821 0.7757
1210.000000 0.7675 0.7575 0.7451 0.7219 0.6986
1205.000000 0.6751 0.6553 0.6544 0.6535 0.6597
1200.000000 0.6998 0.7203 0.7338 0.7458 0.7564
1195.000000 0.7622 0.7682 0.7739 0.7791 0.7831
1190.000000 0.7871 0.7907 0.7933 0.7955 0.7972
1185.000000 0.7991 0.8008 0.8024 0.8040 0.8055
1180.000000 0.8060 0.8065 0.8069 0.8075 0.8078
1175.000000 0.8089 0.8080 0.8072 0.8064 0.8055
1170.000000 0.8045 0.8028 0.8011 0.7993 0.7965
1165.000000 0.7937 0.7891 0.7828 0.7693 0.7405
1160.000000 0.7058 0.6711 0.6365 0.6019 0.5673
1155.000000 0.5160 0.5164 0.5284 0.5807 0.6329
1150.000000 0.6851 0.7222 0.7361 0.7471 0.7545
1145.000000 0.7618 0.7694 0.7776 0.7851 0.7912
1140.000000 0.7972 0.8032 0.8080 0.8108 0.8125
1135.000000 0.8136 0.8147 0.8158 0.8161 0.8165
1130.000000 0.8168 0.8171 0.8171 0.8172 0.8175
1125.000000 0.8178 0.8184 0.8202 0.8220 0.8239
1120.000000 0.8264 0.8289 0.8314 0.8339 0.8365
1115.000000 0.8395 0.8425 0.8445 0.8463 0.8481
1110.000000 0.8492 0.8502 0.8512 0.8521 0.8524
1105.000000 0.8525 0.8525 0.8515 0.8503 0.8490
1100.000000 0.8463 0.8435 0.8402 0.8364 0.8318
1095.000000 0.8267 0.8175 0.7996 0.7600 0.7322
1090.000000 0.6868 0.6357 0.5844 0.5332 0.4819
1085.000000 0.4086 0.4086 0.4086 0.4221 0.4701
1080.000000 0.5181 0.5660 0.6141 0.6621 0.7354
1075.000000 0.7603 0.7711 0.7794 0.7875 0.7942
1070.000000 0.7960 0.7965 0.7971 0.7956 0.7915
1065.000000 0.7875 0.7835 0.7794 0.7782 0.7805
1060.000000 0.7918 0.8044 0.8132 0.8192 0.8252
1055.000000 0.8312 0.8373 0.8405 0.8435 0.8465
1050.000000 0.8490 0.8508 0.8525 0.8542 0.8552
1045.000000 0.8557 0.8562 0.8567 0.8571 0.8577
1040.000000 0.8582 0.8587 0.8591 0.8593 0.8596
1035.000000 0.8599 0.8602 0.8605 0.8608 0.8612
1030.000000 0.8617 0.8621 0.8627 0.8631 0.8636
1025.000000 0.8641 0.8646 0.8649 0.8653 0.8657
1020.000000 0.8661 0.8665 0.8668 0.8671 0.8675
1015.000000 0.8680 0.8683 0.8687 0.8690 0.8693
1010.000000 0.8683 0.8700 0.8703 0.8706 0.8709
1005.000000 0.8712 0.8716 0.8718 0.8723 0.8725
1000.000000 0.8728 0.8728 0.8730 0.8730 0.8730
995.000000 0.8730 0.8730 0.8730 0.8731 0.8724
990.000000 0.8716 0.8708 0.8701 0.8683 0.8666
985.000000 0.8648 0.8628 0.8610 0.8591 0.8566
980.000000 0.8539 0.8502 0.8460 0.8400 0.8337
975.000000 0.8282 0.8237 0.8200 0.8175 0.8153
970.000000 0.8118 0.8115 0.8125 0.8141 0.8161
965.000000 0.8182 0.8203 0.8224 0.8246 0.8267
960.000000 0.8289 0.8310 0.8331 0.8351 0.8365
955.000000 0.8380 0.8394 0.8407 0.8416 0.8424
950.000000 0.8428 0.8428 0.8430 0.8431 0.8430
945.000000 0.8424 0.8397 0.8252 0.8045 0.7736
940.000000 0.7776 0.7765 0.7824 0.7908 0.7984
935.000000 0.8061 0.8130 0.8193 0.8285 0.8250
930.000000 0.8254 0.8247 0.8182 0.7865 0.7668
925.000000 0.7646 0.7618 0.7648 0.7701 0.7947
920.000000 0.8056 0.8164 0.8228 0.8309 0.8361
915.000000 0.8412 0.8455 0.8487 0.8513 0.8528
910.000000 0.8545 0.8556 0.8558 0.8561 0.8562
905.000000 0.8562 0.8562 0.8556 0.8549 0.8542
900.000000 0.8525 0.8505 0.8456 0.8392 0.8318
895.000000 0.8214 0.8135 0.8095 0.8026 0.8078
890.000000 0.8088 0.8112 0.8153 0.8198 0.8247
885.000000 0.8296 0.8345 0.8394 0.8445 0.8496
880.000000 0.8530 0.8556 0.8582 0.8602 0.8620
875.000000 0.8638 0.8644 0.8649 0.8654 0.8659
870.000000 0.8664 0.8668 0.8671 0.8671 0.8673
865.000000 0.8674 0.8675 0.8675 0.8675 0.8675
860.000000 0.8675 0.8674 0.8673 0.8671 0.8671
855.000000 0.8668 0.8661 0.8639 0.8610 0.8575
850.000000 0.8535 0.8477 0.8371 0.8186 0.8093
845.000000 0.7686 0.7056 0.6425 0.6142 0.6097
840.000000 0.6132 0.6228 0.7101 0.7828 0.7978
835.000000 0.8076 0.8161 0.8221 0.8283 0.8343
830.000000 0.8397 0.8446 0.8477 0.8508 0.8533
825.000000 0.8550 0.8567 0.8584 0.8621 0.8601
820.000000 0.8605 0.8606 0.8607 0.8607 0.8607
815.000000 0.8592 0.8577 0.8562 0.8535 0.8503
810.000000 0.8471 0.8430 0.8388 0.8337 0.8282
805.000000 0.8225 0.8167 0.8108 0.8037 0.7978
800.000000 0.7882 0.7882 0.7883 0.7871 0.7865
795.000000 0.7893 0.7925 0.7961 0.7998 0.8034
790.000000 0.8071 0.8108 0.8149 0.8191 0.8234
785.000000 0.8277 0.8311 0.8342 0.8371 0.8403
780.000000 0.8434 0.8456 0.8471 0.8488 0.8503
775.000000 0.8518 0.8532 0.8541 0.8550 0.8559
770.000000 0.8568 0.8577 0.8581 0.8585 0.8590
765.000000 0.8594 0.8598 0.8601 0.8603 0.8605
760.000000 0.8627 0.8609 0.8608 0.8608 0.8607
755.000000 0.8606 0.8604 0.8599 0.8594 0.8589
750.000000 0.8584 0.8575 0.8567 0.8558 0.8549
745.000000 0.8530 0.8510 0.8488 0.8448 0.8393
740.000000 0.8306 0.8266 0.8225 0.8148 0.8158
735.000000 0.8151 0.8171 0.8192 0.8228 0.8261
730.000000 0.8281 0.8294 0.8290 0.8289 0.8261
725.000000 0.8230 0.8194 0.8157 0.8118 0.8075
720.000000 0.7960 0.8015 0.8082 0.8174 0.8246
715.000000 0.8311 0.8371 0.8413 0.8441 0.8461
710.000000 0.8468 0.8470 0.8458 0.8445 0.8423
705.000000 0.8393 0.8351 0.8306 0.8333 0.8385
700.000000 0.8453 0.8511 0.8565 0.8606 0.8633
695.000000 0.8659 0.8685 0.8712 0.8746 0.8780
690.000000 0.8810 0.8830 0.8849 0.8868 0.8889
685.000000 0.8909 0.8927 0.8941 0.8954 0.8967
680.000000 0.8968 0.8971 0.8974 0.8975 0.9011
675.000000 0.8971 0.8968 0.8963 0.8957 0.8938
670.000000 0.8918 0.8901 0.8875 0.8849 0.8823
665.000000 0.8793 0.8761 0.8718 0.8636 0.8538
660.000000 0.8404 0.7778 0.7108 0.6439 0.5770
655.000000 0.5177 0.5141 0.5150 0.5440 0.6008
650.000000 0.6575 0.7143 0.7710 0.8101 0.8249
645.000000 0.8387 0.8471 0.8546 0.8606 0.8653
640.000000 0.8693 0.8730 0.8763 0.8787 0.8809
635.000000 0.8828 0.8842 0.8856 0.8880 0.8877
630.000000 0.8885 0.8888 0.8887 0.8887 0.8887
625.000000 0.8877 0.8862 0.8839 0.8812 0.8784
620.000000 0.8733 0.8665 0.8596 0.8525 0.8451
615.000000 0.8343 0.6593 0.6202 0.6194 0.6587
610.000000 0.6980 0.7374 0.7414 0.7425 0.7301
605.000000 0.6861 0.6421 0.5982 0.5543 0.5319
600.000000 0.5315 0.5619 0.5862 0.6107 0.6352
595.000000 0.6596 0.7475 0.7793 0.8083 0.8374
590.000000 0.8550 0.8616 0.8680 0.8702 0.8745
585.000000 0.8708 0.8708 0.8700 0.8681 0.8639
580.000000 0.8551 0.8484 0.8432 0.8394 0.8375
575.000000 0.8368 0.8361 0.8355 0.8336 0.8243
570.000000 0.8268 0.8485 0.8701 0.8763 0.8809
565.000000 0.8842 0.8870 0.8885 0.8894 0.8903
560.000000 0.8906 0.8910 0.8911 0.8908 0.8968
555.000000 0.8898 0.8886 0.8874 0.8856 0.8837
550.000000 0.8810 0.8756 0.8680 0.8574 0.8455
545.000000 0.8344 0.8253 0.8161 0.8036 0.7824
540.000000 0.7280 0.6965 0.6764 0.6782 0.6761
535.000000 0.6778 0.6818 0.7875 0.8012 0.8213
530.000000 0.8395 0.8510 0.8568 0.8625 0.8681
525.000000 0.8721 0.8763 0.8797 0.8827 0.8857
520.000000 0.8887 0.8917 0.8943 0.8967 0.8991
515.000000 0.9015 0.9039 0.9063 0.9086 0.9105
510.000000 0.9125 0.9144 0.9164 0.9183 0.9203
505.000000 0.9221 0.9241 0.9255 0.9270 0.9285
500.000000 0.9299 0.9314 0.9328 0.9343 0.9357
495.000000 0.9368 0.9378 0.9390 0.9401 0.9412
490.000000 0.9423 0.9434 0.9445 0.9456 0.9466
485.000000 0.9475 0.9485 0.9495 0.9504 0.9514
480.000000 0.9523 0.9532 0.9542 0.9551 0.9559
475.000000 0.9568 0.9577 0.9586 0.9595 0.9603
470.000000 0.9612 0.9621 0.9628 0.9636 0.9643
465.000000 0.9651 0.9658 0.9666 0.9671 0.9675
460.000000 0.9681 0.9683 0.9683 0.9682 0.9682
455.000000 0.9682 0.9682 0.9681 0.9681 0.9675
450.000000 0.9668 0.9660 0.9653 0.9645 0.9638
445.000000 0.9630 0.9623 0.9615 0.9608 0.9593
440.000000 0.9578 0.9562 0.9547 0.9533 0.9520
435.000000 0.9506 0.9495 0.9484 0.9471 0.9461
430.000000 0.9450 0.9438 0.9428 0.9431 0.9435
425.000000 0.9444 0.9454 0.9463 0.9471 0.9471
420.000000 0.9471 0.9471 0.9463 0.9454 0.9433
415.000000 0.9413 0.9391 0.9373 0.9361 0.9349
410.000000 0.9347 0.9352 0.9357 0.9362 0.9375
405.000000 0.9393 0.9412 0.9430 0.9449 0.9468
400.000000 0.9486 0.9506 0.9527 0.9547 0.9567
395.000000 0.9588 0.9608 0.9628 0.9649 0.9671
390.000000 0.9694 0.9717 0.9739 0.9764 0.9790
385.000000 0.9815 0.9841 0.9867 0.9894
##END=
