##TITLE=BENZOIC ACID, o-SULFO-, s-AMMONIUM SALT
##JCAMP-DX=4.24
##DATA TYPE=INFRARED SPECTRUM
##CLASS=COBLENTZ III
##ORIGIN=DOW CHEMICAL COMPANY
##OWNER=COBLENTZ SOC.
Collection (C) 2018 copyright by the U.S. Secretary of Commerce
on behalf of the United States of America. All rights reserved.
##DATE=1962/03/22
##NAMES=2-sulfobenzoic acid ammoniate
##MOLFORM=C7 H9 N O5 S
##SOURCE REFERENCE=COBLENTZ NO. 06528
##$NIST ID=B6006528
##$NIST SOURCE=COBLENTZ
##$NIST IMAGE=cob6528
##SPECTROMETER/DATA SYSTEM=DOW KBr FOREPRISM-GRATING
##INSTRUMENT PARAMETERS=BLAZED AT 3.5, 12.0, 20.0 MICRON AND CHANGED AT 5.0, 7.5, 14.9 MICRON
##STATE=SOLID (SPLIT MULL)
$$ SPECTRAL FEATURE AT 1993 CM^-^1 IS PROBABLY AN ARTIFACT CAUSED BY GRATING CHANGE
##SAMPLING PROCEDURE=TRANSMISSION
##RESOLUTION=2
##DATA PROCESSING=DIGITIZED BY COBLENTZ SOCIETY (BATCH I) FROM HARD COPY
##XUNITS=1/CM
##YUNITS=TRANSMITTANCE
##XLABEL=Wavenumbers (cm-1)
##YLABEL=% Transmission
##XFACTOR=1
##YFACTOR=1
##DELTAX=1
##FIRSTX=381
##LASTX=3784
##FIRSTY=0.8882
##MAXX=3784
##MINX=381
##MAXY=0.915
##MINY=0.034
##NPOINTS=3404
##XYDATA=(X++(Y..Y))
381.000000 0.8882 0.8882 0.8882 0.8880 0.8878
386.000000 0.8875 0.8873 0.8871 0.8873 0.8873
391.000000 0.8873 0.8871 0.8868 0.8867 0.8864
396.000000 0.8863 0.8866 0.8870 0.8873 0.8875
401.000000 0.8878 0.8882 0.8883 0.8884 0.8885
406.000000 0.8887 0.8888 0.8889 0.8890 0.8891
411.000000 0.8893 0.8896 0.8898 0.8901 0.8904
416.000000 0.8907 0.8912 0.8918 0.8925 0.8933
421.000000 0.8939 0.8947 0.8958 0.8968 0.8980
426.000000 0.8995 0.9011 0.9025 0.9041 0.9053
431.000000 0.9065 0.9078 0.9090 0.9102 0.9111
436.000000 0.9117 0.9123 0.9128 0.9135 0.9141
441.000000 0.9147 0.9147 0.9148 0.9149 0.9150
446.000000 0.9150 0.9145 0.9140 0.9135 0.9130
451.000000 0.9125 0.9121 0.9115 0.9110 0.9104
456.000000 0.9098 0.9092 0.9087 0.9081 0.9075
461.000000 0.9070 0.9063 0.9053 0.9043 0.9034
466.000000 0.9024 0.9014 0.9002 0.8986 0.8968
471.000000 0.8953 0.8936 0.8920 0.8901 0.8882
476.000000 0.8864 0.8845 0.8827 0.8818 0.8848
481.000000 0.8813 0.8814 0.8830 0.8848 0.8875
486.000000 0.8900 0.8920 0.8940 0.8960 0.8980
491.000000 0.8994 0.9008 0.9016 0.9015 0.9014
496.000000 0.9008 0.9002 0.8996 0.8990 0.8984
501.000000 0.8978 0.8974 0.8968 0.8964 0.8959
506.000000 0.8954 0.8950 0.8945 0.8942 0.8939
511.000000 0.8936 0.8933 0.8930 0.8927 0.8924
516.000000 0.8921 0.8917 0.8913 0.8909 0.8905
521.000000 0.8901 0.8897 0.8893 0.8889 0.8885
526.000000 0.8878 0.8871 0.8865 0.8857 0.8850
531.000000 0.8843 0.8836 0.8828 0.8817 0.8805
536.000000 0.8784 0.8758 0.8725 0.8692 0.8658
541.000000 0.8601 0.8542 0.8484 0.8415 0.8336
546.000000 0.8237 0.8125 0.8015 0.7785 0.7398
551.000000 0.6534 0.5669 0.5253 0.5226 0.5464
556.000000 0.6119 0.6774 0.7228 0.7221 0.7215
561.000000 0.7240 0.6365 0.5731 0.5096 0.4460
566.000000 0.3826 0.3191 0.2694 0.2710 0.3393
571.000000 0.4137 0.4881 0.5626 0.6370 0.7114
576.000000 0.7858 0.8282 0.8291 0.8320 0.8162
581.000000 0.8008 0.7855 0.7701 0.7701 0.7701
586.000000 0.8083 0.8396 0.8509 0.8628 0.8718
591.000000 0.8787 0.8836 0.8883 0.8918 0.8932
596.000000 0.8914 0.8914 0.8914 0.8897 0.8874
601.000000 0.8846 0.8814 0.8782 0.8750 0.8709
606.000000 0.8646 0.8559 0.8436 0.8062 0.7734
611.000000 0.7376 0.7021 0.6665 0.6309 0.5952
616.000000 0.5694 0.5606 0.5142 0.3864 0.2587
621.000000 0.1345 0.1342 0.1327 0.1399 0.1659
626.000000 0.1919 0.2179 0.2264 0.4838 0.8174
631.000000 0.8339 0.8396 0.8462 0.8521 0.8535
636.000000 0.8535 0.8497 0.8165 0.7121 0.6077
641.000000 0.5033 0.3989 0.2945 0.2480 0.2475
646.000000 0.2503 0.4347 0.5467 0.6588 0.7608
651.000000 0.8045 0.8192 0.8374 0.8665 0.8887
656.000000 0.8960 0.9009 0.9043 0.9065 0.9083
661.000000 0.9028 0.9067 0.8893 0.8854 0.8828
666.000000 0.8804 0.8798 0.8801 0.8807 0.8816
671.000000 0.8824 0.8834 0.8844 0.8854 0.8864
676.000000 0.8871 0.8877 0.8878 0.8878 0.8878
681.000000 0.8878 0.8878 0.8878 0.8877 0.8867
686.000000 0.8857 0.8841 0.8825 0.8811 0.8796
691.000000 0.8780 0.8759 0.8737 0.8701 0.8658
696.000000 0.8614 0.8560 0.8459 0.8364 0.8271
701.000000 0.8136 0.7992 0.7781 0.7596 0.7378
706.000000 0.6955 0.6742 0.5767 0.4412 0.3056
711.000000 0.2453 0.2468 0.2869 0.4381 0.5892
716.000000 0.6635 0.6980 0.7278 0.7312 0.7315
721.000000 0.7315 0.7269 0.7158 0.6722 0.6182
726.000000 0.5642 0.5101 0.4560 0.4020 0.3479
731.000000 0.3334 0.3329 0.4328 0.5438 0.6548
736.000000 0.7451 0.7750 0.7878 0.8026 0.8111
741.000000 0.8183 0.8259 0.8343 0.8393 0.8423
746.000000 0.8409 0.8406 0.8391 0.8375 0.8105
751.000000 0.7988 0.7728 0.7203 0.6431 0.5659
756.000000 0.4887 0.4115 0.3343 0.2572 0.2251
761.000000 0.2739 0.4631 0.6522 0.7183 0.7278
766.000000 0.7533 0.7711 0.7868 0.7984 0.8104
771.000000 0.8155 0.8175 0.8171 0.8183 0.8176
776.000000 0.8136 0.8075 0.7975 0.7851 0.7683
781.000000 0.7526 0.7399 0.7228 0.6994 0.6783
786.000000 0.6672 0.6589 0.6511 0.3882 0.3906
791.000000 0.4164 0.4484 0.4804 0.4908 0.4745
796.000000 0.4412 0.4080 0.3747 0.3654 0.3645
801.000000 0.7864 0.8008 0.8151 0.8239 0.8313
806.000000 0.8389 0.8466 0.8494 0.8514 0.8530
811.000000 0.8505 0.8499 0.8486 0.8465 0.8442
816.000000 0.8417 0.8388 0.8352 0.8317 0.8267
821.000000 0.8210 0.8154 0.8093 0.8031 0.7968
826.000000 0.7903 0.7838 0.7746 0.7648 0.7549
831.000000 0.7450 0.7351 0.7253 0.7154 0.7056
836.000000 0.6957 0.6858 0.6760 0.6661 0.6561
841.000000 0.6464 0.6365 0.6266 0.6168 0.6069
846.000000 0.5970 0.5872 0.5773 0.5674 0.5576
851.000000 0.5477 0.5378 0.5234 0.5142 0.5068
856.000000 0.5012 0.4985 0.4958 0.4954 0.4936
861.000000 0.4968 0.4983 0.5021 0.5078 0.5194
866.000000 0.5318 0.5443 0.5567 0.5691 0.5816
871.000000 0.5940 0.6064 0.6189 0.6312 0.6443
876.000000 0.6522 0.6634 0.6722 0.6765 0.6783
881.000000 0.6794 0.6803 0.6812 0.6857 0.6947
886.000000 0.7051 0.7168 0.7545 0.7558 0.7567
891.000000 0.7646 0.7790 0.7886 0.7975 0.8045
896.000000 0.8107 0.8168 0.8214 0.8246 0.8278
901.000000 0.8310 0.8340 0.8366 0.8391 0.8417
906.000000 0.8436 0.8449 0.8462 0.8475 0.8488
911.000000 0.8499 0.8510 0.8521 0.8532 0.8543
916.000000 0.8555 0.8561 0.8566 0.8571 0.8578
921.000000 0.8584 0.8584 0.8584 0.8584 0.8584
926.000000 0.8584 0.8583 0.8583 0.8585 0.8589
931.000000 0.8592 0.8595 0.8599 0.8602 0.8604
936.000000 0.8621 0.8609 0.8611 0.8612 0.8612
941.000000 0.8611 0.8610 0.8610 0.8608 0.8601
946.000000 0.8594 0.8587 0.8581 0.8568 0.8546
951.000000 0.8524 0.8501 0.8478 0.8440 0.8400
956.000000 0.8355 0.8332 0.8325 0.8273 0.8133
961.000000 0.8133 0.8133 0.8133 0.8188 0.8284
966.000000 0.8345 0.8391 0.8421 0.8452 0.8484
971.000000 0.8516 0.8547 0.8561 0.8575 0.8585
976.000000 0.8588 0.8591 0.8593 0.8596 0.8596
981.000000 0.8596 0.8590 0.8583 0.8577 0.8562
986.000000 0.8539 0.8505 0.8467 0.8428 0.8375
991.000000 0.8371 0.8370 0.8395 0.8325 0.8247
996.000000 0.8168 0.8093 0.8003 0.7910 0.7775
1001.000000 0.7628 0.7425 0.7247 0.7089 0.6951
1006.000000 0.6831 0.6710 0.6583 0.6414 0.4632
1011.000000 0.3332 0.2034 0.0864 0.0865 0.0871
1016.000000 0.0843 0.1064 0.1132 0.1192 0.1850
1021.000000 0.2974 0.4098 0.5222 0.6346 0.7469
1026.000000 0.7548 0.7568 0.7556 0.7543 0.7218
1031.000000 0.6893 0.6567 0.6242 0.5917 0.5591
1036.000000 0.5528 0.5730 0.6258 0.6785 0.7312
1041.000000 0.7578 0.7714 0.7815 0.7917 0.8000
1046.000000 0.8041 0.8061 0.8072 0.8067 0.8055
1051.000000 0.8028 0.7978 0.7953 0.7871 0.7783
1056.000000 0.7705 0.7626 0.7544 0.7460 0.7382
1061.000000 0.7115 0.6947 0.6815 0.6695 0.6581
1066.000000 0.6286 0.6041 0.5914 0.5552 0.5004
1071.000000 0.4456 0.3908 0.3359 0.2812 0.2264
1076.000000 0.1716 0.1452 0.1446 0.1461 0.2068
1081.000000 0.3173 0.4277 0.5381 0.6171 0.6300
1086.000000 0.6496 0.7019 0.7110 0.7274 0.7249
1091.000000 0.7249 0.7247 0.7239 0.7225 0.7204
1096.000000 0.7185 0.7162 0.7128 0.7092 0.7061
1101.000000 0.7028 0.6987 0.6943 0.6878 0.6807
1106.000000 0.6721 0.6640 0.6553 0.6440 0.6314
1111.000000 0.6159 0.5964 0.5799 0.5653 0.5523
1116.000000 0.5387 0.5218 0.4997 0.4859 0.4704
1121.000000 0.4397 0.4090 0.3782 0.3476 0.3169
1126.000000 0.2862 0.2555 0.2248 0.1941 0.1634
1131.000000 0.1327 0.1277 0.1255 0.1403 0.1590
1136.000000 0.1778 0.1844 0.1873 0.1402 0.0991
1141.000000 0.0733 0.0736 0.1566 0.2582 0.3221
1146.000000 0.3240 0.3225 0.3221 0.3187 0.3001
1151.000000 0.2804 0.2606 0.2409 0.2212 0.2015
1156.000000 0.1818 0.1621 0.1427 0.1321 0.1171
1161.000000 0.0981 0.0860 0.0767 0.0701 0.0633
1166.000000 0.0526 0.0436 0.0381 0.0366 0.0356
1171.000000 0.0346 0.0340 0.0342 0.0360 0.0386
1176.000000 0.0414 0.0451 0.0488 0.0546 0.0604
1181.000000 0.0663 0.0689 0.0695 0.0698 0.0698
1186.000000 0.0698 0.0696 0.0693 0.0691 0.0688
1191.000000 0.0717 0.0761 0.0846 0.0972 0.1077
1196.000000 0.1176 0.1289 0.1413 0.1563 0.1713
1201.000000 0.1776 0.1839 0.1903 0.1949 0.1962
1206.000000 0.1961 0.1961 0.1942 0.1866 0.1723
1211.000000 0.1580 0.1437 0.1295 0.1152 0.1009
1216.000000 0.0866 0.0723 0.0602 0.0516 0.0467
1221.000000 0.0445 0.0438 0.0434 0.0412 0.0443
1226.000000 0.0459 0.0500 0.0575 0.0739 0.1012
1231.000000 0.1339 0.1665 0.1992 0.2319 0.2646
1236.000000 0.2973 0.3299 0.3626 0.3854 0.3958
1241.000000 0.4110 0.4186 0.4231 0.4244 0.4244
1246.000000 0.4252 0.4242 0.4224 0.4115 0.3862
1251.000000 0.3609 0.3356 0.3103 0.2850 0.2597
1256.000000 0.2344 0.2091 0.1837 0.1585 0.1332
1261.000000 0.1008 0.0939 0.0935 0.0916 0.0939
1266.000000 0.0959 0.0996 0.1039 0.1089 0.1320
1271.000000 0.1622 0.1924 0.2226 0.2528 0.2830
1276.000000 0.3132 0.3434 0.3736 0.4038 0.4340
1281.000000 0.4642 0.4931 0.5038 0.5145 0.5252
1286.000000 0.5283 0.5285 0.5302 0.5186 0.5091
1291.000000 0.4996 0.4900 0.4889 0.4909 0.4938
1296.000000 0.5130 0.5322 0.5514 0.5838 0.6109
1301.000000 0.6436 0.6708 0.6778 0.6836 0.6894
1306.000000 0.6950 0.6994 0.7039 0.7083 0.7128
1311.000000 0.7168 0.7201 0.7234 0.7265 0.7298
1316.000000 0.7325 0.7351 0.7376 0.7401 0.7426
1321.000000 0.7448 0.7468 0.7490 0.7511 0.7540
1326.000000 0.7576 0.7568 0.7500 0.7431 0.7361
1331.000000 0.7292 0.7261 0.7254 0.7246 0.7238
1336.000000 0.7231 0.7212 0.7168 0.7150 0.7134
1341.000000 0.7125 0.7118 0.7130 0.7136 0.7149
1346.000000 0.7175 0.7208 0.7251 0.7290 0.7319
1351.000000 0.7351 0.7380 0.7408 0.7436 0.7457
1356.000000 0.7471 0.7488 0.7496 0.7499 0.7525
1361.000000 0.7491 0.7481 0.7461 0.7433 0.7405
1366.000000 0.7375 0.7330 0.7278 0.7219 0.7141
1371.000000 0.7057 0.6996 0.6935 0.6875 0.6815
1376.000000 0.6746 0.6675 0.6605 0.6521 0.6411
1381.000000 0.6302 0.6191 0.6083 0.5988 0.5892
1386.000000 0.5760 0.5615 0.5470 0.5316 0.5118
1391.000000 0.4925 0.4054 0.3758 0.3528 0.3378
1396.000000 0.3222 0.3118 0.3073 0.3084 0.3098
1401.000000 0.3123 0.3144 0.3163 0.3165 0.3125
1406.000000 0.3067 0.3005 0.2937 0.2867 0.2788
1411.000000 0.2705 0.2616 0.2532 0.2481 0.2431
1416.000000 0.2380 0.2328 0.2276 0.2217 0.2153
1421.000000 0.2098 0.2054 0.2010 0.1983 0.1966
1426.000000 0.1950 0.1934 0.1918 0.1893 0.1871
1431.000000 0.1859 0.1854 0.1853 0.1849 0.1867
1436.000000 0.1929 0.2011 0.2159 0.2248 0.2373
1441.000000 0.2488 0.2578 0.2665 0.2751 0.2833
1446.000000 0.2953 0.3117 0.3280 0.3443 0.3607
1451.000000 0.3770 0.3932 0.4137 0.4317 0.4382
1456.000000 0.4457 0.4538 0.5078 0.5201 0.5324
1461.000000 0.5462 0.5602 0.5760 0.5926 0.6069
1466.000000 0.6212 0.6359 0.6517 0.6664 0.6734
1471.000000 0.6805 0.6858 0.6894 0.6918 0.6936
1476.000000 0.6946 0.6955 0.6962 0.6971 0.7034
1481.000000 0.7108 0.7195 0.7308 0.7667 0.7790
1486.000000 0.7901 0.7976 0.8037 0.8071 0.8096
1491.000000 0.8121 0.8146 0.8168 0.8188 0.8208
1496.000000 0.8228 0.8249 0.8263 0.8275 0.8288
1501.000000 0.8300 0.8313 0.8375 0.8455 0.8468
1506.000000 0.8475 0.8484 0.8492 0.8500 0.8507
1511.000000 0.8514 0.8520 0.8527 0.8533 0.8539
1516.000000 0.8540 0.8541 0.8543 0.8544 0.8545
1521.000000 0.8547 0.8553 0.8562 0.8573 0.8588
1526.000000 0.8604 0.8618 0.8635 0.8650 0.8663
1531.000000 0.8675 0.8687 0.8701 0.8718 0.8735
1536.000000 0.8748 0.8732 0.8728 0.8702 0.8692
1541.000000 0.8682 0.8671 0.8665 0.8659 0.8654
1546.000000 0.8648 0.8642 0.8640 0.8640 0.8640
1551.000000 0.8640 0.8640 0.8640 0.8639 0.8636
1556.000000 0.8625 0.8616 0.8593 0.8565 0.8547
1561.000000 0.8528 0.8511 0.8443 0.8348 0.8253
1566.000000 0.8157 0.8061 0.7967 0.7905 0.7901
1571.000000 0.7900 0.7875 0.8136 0.8335 0.8481
1576.000000 0.8486 0.8486 0.8487 0.8483 0.8474
1581.000000 0.8459 0.8434 0.8410 0.8378 0.8344
1586.000000 0.8305 0.8254 0.8195 0.7983 0.7275
1591.000000 0.6568 0.6414 0.6408 0.7258 0.8042
1596.000000 0.8257 0.8354 0.8403 0.8452 0.8482
1601.000000 0.8509 0.8524 0.8525 0.8528 0.8530
1606.000000 0.8533 0.8532 0.8531 0.8528 0.8525
1611.000000 0.8518 0.8511 0.8503 0.8496 0.8488
1616.000000 0.8477 0.8467 0.8456 0.8446 0.8435
1621.000000 0.8425 0.8414 0.8403 0.8393 0.8382
1626.000000 0.8371 0.8360 0.8349 0.8338 0.8325
1631.000000 0.8313 0.8300 0.8287 0.8273 0.8257
1636.000000 0.8234 0.8212 0.8189 0.8167 0.8143
1641.000000 0.8115 0.8087 0.8060 0.8032 0.8004
1646.000000 0.7975 0.7948 0.7918 0.7884 0.7849
1651.000000 0.7814 0.7778 0.7744 0.7708 0.7674
1656.000000 0.7634 0.7592 0.7550 0.7508 0.7467
1661.000000 0.7419 0.7371 0.7334 0.7305 0.7275
1666.000000 0.7237 0.7178 0.7117 0.7055 0.6994
1671.000000 0.6941 0.6888 0.6836 0.6787 0.6743
1676.000000 0.6699 0.6654 0.6608 0.6561 0.6515
1681.000000 0.6469 0.6430 0.6404 0.6378 0.6353
1686.000000 0.6327 0.6301 0.6275 0.6246 0.6218
1691.000000 0.6190 0.6162 0.6130 0.6064 0.5998
1696.000000 0.5931 0.5864 0.5785 0.5630 0.5524
1701.000000 0.5429 0.5335 0.5221 0.5088 0.4959
1706.000000 0.4841 0.4723 0.4531 0.4328 0.4126
1711.000000 0.3924 0.3721 0.3518 0.3316 0.3114
1716.000000 0.2926 0.2765 0.2610 0.2413 0.2223
1721.000000 0.2099 0.1975 0.1752 0.1604 0.1560
1726.000000 0.1528 0.1535 0.1549 0.1576 0.1795
1731.000000 0.2137 0.2478 0.2819 0.3160 0.3500
1736.000000 0.3841 0.4182 0.4523 0.4864 0.5295
1741.000000 0.5421 0.5586 0.5785 0.6057 0.6353
1746.000000 0.6532 0.6738 0.6914 0.7028 0.7144
1751.000000 0.7243 0.7335 0.7415 0.7481 0.7546
1756.000000 0.7611 0.7661 0.7712 0.7764 0.7825
1761.000000 0.7891 0.7957 0.8015 0.8074 0.8131
1766.000000 0.8176 0.8213 0.8249 0.8285 0.8314
1771.000000 0.8330 0.8346 0.8363 0.8378 0.8395
1776.000000 0.8407 0.8418 0.8432 0.8444 0.8457
1781.000000 0.8468 0.8482 0.8495 0.8509 0.8523
1786.000000 0.8537 0.8551 0.8566 0.8580 0.8594
1791.000000 0.8604 0.8611 0.8618 0.8627 0.8634
1796.000000 0.8642 0.8650 0.8654 0.8656 0.8659
1801.000000 0.8661 0.8664 0.8667 0.8668 0.8671
1806.000000 0.8675 0.8677 0.8681 0.8686 0.8691
1811.000000 0.8695 0.8718 0.8698 0.8700 0.8701
1816.000000 0.8702 0.8702 0.8702 0.8702 0.8702
1821.000000 0.8702 0.8702 0.8701 0.8700 0.8699
1826.000000 0.8699 0.8698 0.8698 0.8698 0.8698
1831.000000 0.8697 0.8691 0.8684 0.8674 0.8663
1836.000000 0.8646 0.8625 0.8605 0.8582 0.8541
1841.000000 0.8449 0.8445 0.8440 0.8475 0.8500
1846.000000 0.8525 0.8551 0.8575 0.8598 0.8621
1851.000000 0.8644 0.8655 0.8665 0.8667 0.8670
1856.000000 0.8673 0.8673 0.8671 0.8671 0.8670
1861.000000 0.8668 0.8668 0.8666 0.8665 0.8661
1866.000000 0.8656 0.8652 0.8647 0.8643 0.8643
1871.000000 0.8642 0.8649 0.8654 0.8660 0.8658
1876.000000 0.8651 0.8644 0.8637 0.8635 0.8645
1881.000000 0.8654 0.8664 0.8671 0.8673 0.8673
1886.000000 0.8674 0.8675 0.8675 0.8674 0.8668
1891.000000 0.8664 0.8659 0.8654 0.8648 0.8638
1896.000000 0.8628 0.8620 0.8612 0.8605 0.8599
1901.000000 0.8592 0.8586 0.8578 0.8573 0.8566
1906.000000 0.8560 0.8554 0.8547 0.8541 0.8534
1911.000000 0.8528 0.8521 0.8514 0.8506 0.8499
1916.000000 0.8492 0.8484 0.8477 0.8471 0.8468
1921.000000 0.8467 0.8465 0.8463 0.8461 0.8459
1926.000000 0.8460 0.8460 0.8462 0.8464 0.8466
1931.000000 0.8467 0.8468 0.8468 0.8466 0.8462
1936.000000 0.8459 0.8451 0.8440 0.8430 0.8418
1941.000000 0.8408 0.8398 0.8387 0.8371 0.8355
1946.000000 0.8337 0.8318 0.8300 0.8277 0.8253
1951.000000 0.8228 0.8205 0.8176 0.8119 0.8061
1956.000000 0.7993 0.7972 0.7978 0.8025 0.8058
1961.000000 0.8092 0.8133 0.8164 0.8169 0.8176
1966.000000 0.8174 0.8165 0.8161 0.8157 0.8153
1971.000000 0.8148 0.8143 0.8133 0.8121 0.8106
1976.000000 0.8090 0.8075 0.8060 0.8045 0.8019
1981.000000 0.7996 0.7971 0.7947 0.7921 0.7896
1986.000000 0.7868 0.7839 0.7795 0.7762 0.7743
1991.000000 0.7731 0.7724 0.8341 0.8353 0.8355
1996.000000 0.8356 0.8368 0.8403 0.8460 0.8492
2001.000000 0.8457 0.8456 0.8455 0.8455 0.8454
2006.000000 0.8454 0.8453 0.8452 0.8452 0.8452
2011.000000 0.8452 0.8453 0.8453 0.8453 0.8453
2016.000000 0.8454 0.8454 0.8455 0.8455 0.8455
2021.000000 0.8455 0.8455 0.8451 0.8447 0.8442
2026.000000 0.8437 0.8432 0.8427 0.8421 0.8415
2031.000000 0.8408 0.8401 0.8394 0.8388 0.8381
2036.000000 0.8374 0.8368 0.8364 0.8359 0.8355
2041.000000 0.8350 0.8346 0.8341 0.8337 0.8332
2046.000000 0.8328 0.8325 0.8323 0.8320 0.8318
2051.000000 0.8318 0.8318 0.8320 0.8321 0.8323
2056.000000 0.8325 0.8331 0.8337 0.8344 0.8351
2061.000000 0.8357 0.8364 0.8371 0.8378 0.8387
2066.000000 0.8396 0.8397 0.8399 0.8400 0.8402
2071.000000 0.8403 0.8405 0.8406 0.8408 0.8409
2076.000000 0.8411 0.8412 0.8414 0.8415 0.8417
2081.000000 0.8418 0.8418 0.8420 0.8421 0.8421
2086.000000 0.8421 0.8421 0.8421 0.8421 0.8421
2091.000000 0.8421 0.8421 0.8421 0.8421 0.8421
2096.000000 0.8421 0.8421 0.8420 0.8417 0.8415
2101.000000 0.8413 0.8411 0.8409 0.8407 0.8404
2106.000000 0.8402 0.8400 0.8398 0.8396 0.8394
2111.000000 0.8391 0.8389 0.8387 0.8385 0.8382
2116.000000 0.8380 0.8377 0.8375 0.8373 0.8371
2121.000000 0.8368 0.8366 0.8363 0.8361 0.8359
2126.000000 0.8357 0.8354 0.8352 0.8349 0.8347
2131.000000 0.8344 0.8341 0.8338 0.8336 0.8333
2136.000000 0.8331 0.8328 0.8325 0.8323 0.8321
2141.000000 0.8318 0.8316 0.8313 0.8311 0.8308
2146.000000 0.8306 0.8303 0.8301 0.8298 0.8296
2151.000000 0.8294 0.8292 0.8290 0.8288 0.8286
2156.000000 0.8284 0.8282 0.8280 0.8277 0.8275
2161.000000 0.8273 0.8271 0.8268 0.8267 0.8265
2166.000000 0.8263 0.8261 0.8259 0.8257 0.8255
2171.000000 0.8253 0.8251 0.8249 0.8247 0.8244
2176.000000 0.8241 0.8238 0.8236 0.8233 0.8230
2181.000000 0.8227 0.8225 0.8221 0.8218 0.8216
2186.000000 0.8214 0.8211 0.8208 0.8205 0.8202
2191.000000 0.8199 0.8197 0.8194 0.8191 0.8188
2196.000000 0.8186 0.8183 0.8181 0.8178 0.8175
2201.000000 0.8172 0.8171 0.8168 0.8165 0.8164
2206.000000 0.8161 0.8158 0.8157 0.8154 0.8151
2211.000000 0.8150 0.8148 0.8145 0.8143 0.8140
2216.000000 0.8138 0.8135 0.8133 0.8131 0.8128
2221.000000 0.8125 0.8124 0.8121 0.8118 0.8117
2226.000000 0.8115 0.8111 0.8110 0.8107 0.8105
2231.000000 0.8101 0.8100 0.8097 0.8095 0.8092
2236.000000 0.8090 0.8087 0.8085 0.8082 0.8080
2241.000000 0.8076 0.8075 0.8071 0.8069 0.8067
2246.000000 0.8065 0.8061 0.8060 0.8057 0.8055
2251.000000 0.8051 0.8050 0.8047 0.8045 0.8042
2256.000000 0.8040 0.8037 0.8035 0.8033 0.8031
2261.000000 0.8028 0.8025 0.8022 0.8021 0.8018
2266.000000 0.8015 0.8012 0.8011 0.8008 0.8006
2271.000000 0.8003 0.8001 0.7999 0.7997 0.7995
2276.000000 0.7993 0.7991 0.7989 0.7987 0.7986
2281.000000 0.7984 0.7982 0.7980 0.7978 0.7975
2286.000000 0.7974 0.7972 0.7972 0.7971 0.7971
2291.000000 0.7969 0.7968 0.7968 0.7967 0.7965
2296.000000 0.7965 0.7964 0.7962 0.7961 0.7961
2301.000000 0.7960 0.7958 0.7958 0.7957 0.7956
2306.000000 0.7956 0.7955 0.7955 0.7956 0.7957
2311.000000 0.7958 0.7961 0.7961 0.7964 0.7965
2316.000000 0.7967 0.7969 0.7972 0.7975 0.7978
2321.000000 0.7981 0.7984 0.7986 0.7989 0.7992
2326.000000 0.7995 0.7997 0.8000 0.8003 0.8006
2331.000000 0.8008 0.8011 0.8011 0.8011 0.8011
2336.000000 0.8011 0.8008 0.8008 0.8005 0.8003
2341.000000 0.7999 0.7996 0.7992 0.7988 0.7984
2346.000000 0.7981 0.7981 0.7982 0.7990 0.7999
2351.000000 0.8031 0.8062 0.8069 0.8078 0.8086
2356.000000 0.8094 0.8089 0.8085 0.8076 0.8068
2361.000000 0.8061 0.8053 0.8043 0.8033 0.8022
2366.000000 0.8012 0.8003 0.7993 0.7983 0.7972
2371.000000 0.7964 0.7955 0.7945 0.7936 0.7925
2376.000000 0.7917 0.7908 0.7901 0.7893 0.7886
2381.000000 0.7878 0.7871 0.7871 0.7871 0.7871
2386.000000 0.7874 0.7875 0.7875 0.7876 0.7878
2391.000000 0.7878 0.7880 0.7881 0.7882 0.7883
2396.000000 0.7884 0.7885 0.7886 0.7886 0.7887
2401.000000 0.7888 0.7889 0.7889 0.7889 0.7888
2406.000000 0.7886 0.7883 0.7881 0.7878 0.7876
2411.000000 0.7875 0.7872 0.7871 0.7868 0.7865
2416.000000 0.7861 0.7858 0.7856 0.7851 0.7849
2421.000000 0.7846 0.7843 0.7839 0.7836 0.7832
2426.000000 0.7828 0.7825 0.7821 0.7817 0.7812
2431.000000 0.7808 0.7805 0.7801 0.7797 0.7793
2436.000000 0.7790 0.7786 0.7782 0.7778 0.7774
2441.000000 0.7769 0.7765 0.7761 0.7758 0.7754
2446.000000 0.7750 0.7746 0.7742 0.7738 0.7734
2451.000000 0.7730 0.7725 0.7721 0.7718 0.7712
2456.000000 0.7708 0.7705 0.7701 0.7697 0.7693
2461.000000 0.7689 0.7685 0.7680 0.7675 0.7671
2466.000000 0.7668 0.7664 0.7660 0.7655 0.7650
2471.000000 0.7643 0.7636 0.7626 0.7618 0.7608
2476.000000 0.7599 0.7589 0.7580 0.7571 0.7561
2481.000000 0.7551 0.7541 0.7521 0.7503 0.7484
2486.000000 0.7465 0.7446 0.7428 0.7411 0.7395
2491.000000 0.7382 0.7369 0.7358 0.7346 0.7333
2496.000000 0.7321 0.7300 0.7278 0.7251 0.7225
2501.000000 0.7208 0.7193 0.7176 0.7161 0.7134
2506.000000 0.7108 0.7078 0.7051 0.7018 0.6985
2511.000000 0.6946 0.6907 0.6862 0.6818 0.6767
2516.000000 0.6715 0.6715 0.6715 0.6714 0.6714
2521.000000 0.6715 0.6717 0.6719 0.6722 0.6726
2526.000000 0.6731 0.6744 0.6757 0.6815 0.6875
2531.000000 0.6922 0.6971 0.6997 0.7024 0.7048
2536.000000 0.7071 0.7089 0.7106 0.7122 0.7140
2541.000000 0.7151 0.7162 0.7171 0.7181 0.7190
2546.000000 0.7200 0.7207 0.7214 0.7219 0.7226
2551.000000 0.7233 0.7240 0.7243 0.7246 0.7247
2556.000000 0.7249 0.7250 0.7251 0.7251 0.7251
2561.000000 0.7249 0.7244 0.7243 0.7240 0.7234
2566.000000 0.7228 0.7224 0.7218 0.7214 0.7208
2571.000000 0.7201 0.7196 0.7190 0.7184 0.7176
2576.000000 0.7171 0.7164 0.7157 0.7148 0.7139
2581.000000 0.7130 0.7121 0.7111 0.7101 0.7093
2586.000000 0.7084 0.7071 0.7058 0.7045 0.7032
2591.000000 0.7018 0.7004 0.6988 0.6971 0.6956
2596.000000 0.6940 0.6924 0.6908 0.6891 0.6875
2601.000000 0.6858 0.6843 0.6825 0.6810 0.6793
2606.000000 0.6775 0.6758 0.6742 0.6724 0.6707
2611.000000 0.6690 0.6672 0.6655 0.6637 0.6615
2616.000000 0.6594 0.6571 0.6551 0.6528 0.6508
2621.000000 0.6486 0.6464 0.6424 0.6384 0.6337
2626.000000 0.6291 0.6235 0.6179 0.6101 0.6024
2631.000000 0.5922 0.5821 0.5710 0.5602 0.5560
2636.000000 0.5518 0.5481 0.5444 0.5436 0.5429
2641.000000 0.5430 0.5451 0.5434 0.5436 0.5439
2646.000000 0.5442 0.5453 0.5465 0.5615 0.5766
2651.000000 0.5836 0.5906 0.5951 0.5997 0.6081
2656.000000 0.6166 0.6241 0.6317 0.6351 0.6386
2661.000000 0.6407 0.6428 0.6450 0.6471 0.6494
2666.000000 0.6517 0.6541 0.6565 0.6593 0.6621
2671.000000 0.6631 0.6641 0.6650 0.6658 0.6668
2676.000000 0.6678 0.6686 0.6694 0.6697 0.6701
2681.000000 0.6701 0.6704 0.6705 0.6707 0.6708
2686.000000 0.6710 0.6711 0.6714 0.6715 0.6717
2691.000000 0.6718 0.6719 0.6721 0.6725 0.6726
2696.000000 0.6728 0.6731 0.6733 0.6735 0.6737
2701.000000 0.6737 0.6737 0.6737 0.6737 0.6737
2706.000000 0.6737 0.6737 0.6737 0.6735 0.6734
2711.000000 0.6731 0.6728 0.6722 0.6717 0.6710
2716.000000 0.6704 0.6697 0.6690 0.6681 0.6672
2721.000000 0.6661 0.6650 0.6639 0.6628 0.6615
2726.000000 0.6605 0.6592 0.6578 0.6565 0.6553
2731.000000 0.6539 0.6525 0.6511 0.6499 0.6485
2736.000000 0.6471 0.6457 0.6444 0.6430 0.6417
2741.000000 0.6403 0.6389 0.6369 0.6350 0.6330
2746.000000 0.6310 0.6289 0.6269 0.6246 0.6224
2751.000000 0.6202 0.6180 0.6158 0.6136 0.6110
2756.000000 0.6087 0.6062 0.6038 0.6014 0.5990
2761.000000 0.5965 0.5941 0.5916 0.5892 0.5867
2766.000000 0.5842 0.5817 0.5793 0.5768 0.5743
2771.000000 0.5718 0.5693 0.5668 0.5644 0.5608
2776.000000 0.5572 0.5535 0.5499 0.5462 0.5426
2781.000000 0.5359 0.5293 0.5266 0.5239 0.5239
2786.000000 0.5238 0.5238 0.5236 0.5236 0.5237
2791.000000 0.5244 0.5251 0.5274 0.5298 0.5332
2796.000000 0.5367 0.5408 0.5450 0.5460 0.5473
2801.000000 0.5473 0.5473 0.5473 0.5472 0.5470
2806.000000 0.5508 0.5467 0.5466 0.5458 0.5451
2811.000000 0.5442 0.5434 0.5424 0.5414 0.5403
2816.000000 0.5393 0.5381 0.5369 0.5357 0.5346
2821.000000 0.5328 0.5310 0.5284 0.5257 0.5229
2826.000000 0.5202 0.5177 0.5152 0.5128 0.5104
2831.000000 0.5080 0.5056 0.5018 0.4980 0.4935
2836.000000 0.4891 0.4845 0.4800 0.4777 0.4754
2841.000000 0.4732 0.4710 0.4689 0.4667 0.4645
2846.000000 0.4623 0.4602 0.4581 0.4560 0.4539
2851.000000 0.4518 0.4498 0.4477 0.4456 0.4437
2856.000000 0.4419 0.4400 0.4382 0.4364 0.4346
2861.000000 0.4328 0.4310 0.4292 0.4275 0.4260
2866.000000 0.4246 0.4232 0.4218 0.4203 0.4189
2871.000000 0.4174 0.4160 0.4145 0.4131 0.4117
2876.000000 0.4103 0.4084 0.4068 0.4050 0.4032
2881.000000 0.4016 0.3999 0.3980 0.3964 0.3946
2886.000000 0.3929 0.3908 0.3888 0.3866 0.3847
2891.000000 0.3826 0.3806 0.3784 0.3764 0.3744
2896.000000 0.3724 0.3703 0.3682 0.3662 0.3641
2901.000000 0.3618 0.3596 0.3573 0.3550 0.3528
2906.000000 0.3505 0.3482 0.3459 0.3434 0.3409
2911.000000 0.3384 0.3359 0.3336 0.3312 0.3290
2916.000000 0.3268 0.3245 0.3223 0.3200 0.3179
2921.000000 0.3158 0.3138 0.3123 0.3108 0.3092
2926.000000 0.3077 0.3065 0.3053 0.3042 0.3032
2931.000000 0.3022 0.3012 0.3006 0.3001 0.2995
2936.000000 0.2990 0.2984 0.2979 0.2974 0.2969
2941.000000 0.2963 0.2958 0.2953 0.2948 0.2943
2946.000000 0.2939 0.2934 0.2929 0.2924 0.2920
2951.000000 0.2915 0.2911 0.2905 0.2900 0.2894
2956.000000 0.2889 0.2883 0.2878 0.2872 0.2866
2961.000000 0.2862 0.2858 0.2858 0.2847 0.2861
2966.000000 0.2864 0.2866 0.2869 0.2871 0.2874
2971.000000 0.2876 0.2878 0.2883 0.2889 0.2896
2976.000000 0.2904 0.2912 0.2920 0.2935 0.2952
2981.000000 0.2966 0.2980 0.2991 0.3002 0.3000
2986.000000 0.2999 0.2997 0.2996 0.2995 0.2994
2991.000000 0.2994 0.2994 0.2984 0.2977 0.2943
2996.000000 0.2910 0.2901 0.2892 0.2883 0.2874
3001.000000 0.2868 0.2863 0.2861 0.2859 0.2859
3006.000000 0.2860 0.2838 0.2816 0.2788 0.2761
3011.000000 0.2734 0.2707 0.2685 0.2666 0.2649
3016.000000 0.2633 0.2630 0.2630 0.2630 0.2632
3021.000000 0.2634 0.2633 0.2632 0.2627 0.2618
3026.000000 0.2609 0.2600 0.2592 0.2584 0.2576
3031.000000 0.2567 0.2558 0.2546 0.2534 0.2524
3036.000000 0.2514 0.2503 0.2493 0.2482 0.2472
3041.000000 0.2461 0.2451 0.2445 0.2440 0.2437
3046.000000 0.2434 0.2434 0.2435 0.2437 0.2439
3051.000000 0.2440 0.2442 0.2443 0.2445 0.2446
3056.000000 0.2470 0.2449 0.2451 0.2452 0.2454
3061.000000 0.2455 0.2457 0.2459 0.2462 0.2464
3066.000000 0.2466 0.2468 0.2471 0.2474 0.2477
3071.000000 0.2480 0.2483 0.2485 0.2489 0.2492
3076.000000 0.2496 0.2500 0.2504 0.2512 0.2521
3081.000000 0.2529 0.2537 0.2545 0.2553 0.2561
3086.000000 0.2569 0.2577 0.2585 0.2599 0.2612
3091.000000 0.2628 0.2644 0.2662 0.2680 0.2682
3096.000000 0.2684 0.2685 0.2688 0.2690 0.2692
3101.000000 0.2694 0.2696 0.2701 0.2707 0.2716
3106.000000 0.2725 0.2733 0.2742 0.2751 0.2760
3111.000000 0.2772 0.2784 0.2798 0.2813 0.2828
3116.000000 0.2843 0.2847 0.2852 0.2853 0.2855
3121.000000 0.2855 0.2855 0.2855 0.2855 0.2854
3126.000000 0.2854 0.2854 0.2854 0.2831 0.2808
3131.000000 0.2776 0.2745 0.2721 0.2698 0.2689
3136.000000 0.2680 0.2670 0.2661 0.2654 0.2648
3141.000000 0.2643 0.2638 0.2631 0.2625 0.2618
3146.000000 0.2612 0.2605 0.2598 0.2591 0.2584
3151.000000 0.2577 0.2571 0.2564 0.2557 0.2549
3156.000000 0.2542 0.2532 0.2523 0.2513 0.2503
3161.000000 0.2493 0.2484 0.2474 0.2465 0.2455
3166.000000 0.2445 0.2432 0.2419 0.2405 0.2392
3171.000000 0.2379 0.2366 0.2352 0.2338 0.2321
3176.000000 0.2304 0.2285 0.2269 0.2251 0.2234
3181.000000 0.2217 0.2200 0.2178 0.2156 0.2134
3186.000000 0.2113 0.2091 0.2069 0.2048 0.2027
3191.000000 0.2012 0.1998 0.1983 0.1968 0.1953
3196.000000 0.1937 0.1923 0.1909 0.1894 0.1879
3201.000000 0.1865 0.1851 0.1844 0.1837 0.1831
3206.000000 0.1825 0.1826 0.1827 0.1827 0.1826
3211.000000 0.1829 0.1831 0.1833 0.1834 0.1836
3216.000000 0.1839 0.1841 0.1843 0.1844 0.1846
3221.000000 0.1854 0.1861 0.1876 0.1892 0.1910
3226.000000 0.1928 0.1945 0.1965 0.1987 0.2011
3231.000000 0.2033 0.2056 0.2078 0.2101 0.2123
3236.000000 0.2146 0.2166 0.2185 0.2202 0.2218
3241.000000 0.2234 0.2250 0.2268 0.2285 0.2312
3246.000000 0.2338 0.2364 0.2391 0.2417 0.2443
3251.000000 0.2469 0.2495 0.2521 0.2548 0.2582
3256.000000 0.2616 0.2671 0.2727 0.2814 0.2902
3261.000000 0.2927 0.2952 0.2976 0.3001 0.3026
3266.000000 0.3051 0.3077 0.3104 0.3130 0.3157
3271.000000 0.3184 0.3210 0.3237 0.3264 0.3291
3276.000000 0.3318 0.3352 0.3386 0.3421 0.3456
3281.000000 0.3490 0.3525 0.3558 0.3591 0.3622
3286.000000 0.3653 0.3705 0.3757 0.3810 0.3866
3291.000000 0.3909 0.3953 0.3987 0.4021 0.4053
3296.000000 0.4086 0.4119 0.4152 0.4192 0.4233
3301.000000 0.4292 0.4351 0.4410 0.4469 0.4593
3306.000000 0.4718 0.4793 0.4868 0.4962 0.5058
3311.000000 0.5204 0.5350 0.5443 0.5537 0.5588
3316.000000 0.5640 0.5691 0.5742 0.5802 0.5862
3321.000000 0.5934 0.6007 0.6074 0.6141 0.6189
3326.000000 0.6237 0.6285 0.6334 0.6382 0.6430
3331.000000 0.6469 0.6511 0.6545 0.6578 0.6612
3336.000000 0.6648 0.6682 0.6717 0.6755 0.6794
3341.000000 0.6846 0.6898 0.6950 0.7003 0.7055
3346.000000 0.7107 0.7160 0.7214 0.7267 0.7321
3351.000000 0.7371 0.7422 0.7462 0.7504 0.7544
3356.000000 0.7585 0.7625 0.7665 0.7705 0.7745
3361.000000 0.7784 0.7822 0.7861 0.7900 0.7925
3366.000000 0.7953 0.7978 0.8005 0.8031 0.8058
3371.000000 0.8078 0.8100 0.8118 0.8138 0.8157
3376.000000 0.8175 0.8195 0.8214 0.8233 0.8253
3381.000000 0.8271 0.8291 0.8310 0.8328 0.8342
3386.000000 0.8355 0.8366 0.8378 0.8390 0.8402
3391.000000 0.8413 0.8425 0.8436 0.8448 0.8460
3396.000000 0.8471 0.8483 0.8495 0.8506 0.8518
3401.000000 0.8528 0.8538 0.8547 0.8557 0.8566
3406.000000 0.8575 0.8584 0.8593 0.8599 0.8605
3411.000000 0.8611 0.8617 0.8623 0.8628 0.8635
3416.000000 0.8641 0.8645 0.8650 0.8654 0.8658
3421.000000 0.8662 0.8666 0.8670 0.8675 0.8678
3426.000000 0.8683 0.8687 0.8691 0.8695 0.8700
3431.000000 0.8704 0.8708 0.8712 0.8716 0.8720
3436.000000 0.8724 0.8727 0.8730 0.8733 0.8736
3441.000000 0.8739 0.8743 0.8746 0.8749 0.8752
3446.000000 0.8756 0.8759 0.8762 0.8765 0.8768
3451.000000 0.8771 0.8775 0.8778 0.8781 0.8784
3456.000000 0.8788 0.8791 0.8794 0.8797 0.8801
3461.000000 0.8804 0.8807 0.8810 0.8813 0.8816
3466.000000 0.8820 0.8823 0.8825 0.8828 0.8832
3471.000000 0.8835 0.8839 0.8842 0.8845 0.8848
3476.000000 0.8851 0.8854 0.8858 0.8861 0.8864
3481.000000 0.8867 0.8870 0.8870 0.8868 0.8868
3486.000000 0.8867 0.8867 0.8867 0.8866 0.8866
3491.000000 0.8866 0.8866 0.8866 0.8866 0.8865
3496.000000 0.8865 0.8865 0.8865 0.8865 0.8865
3501.000000 0.8865 0.8865 0.8865 0.8865 0.8865
3506.000000 0.8865 0.8864 0.8864 0.8863 0.8863
3511.000000 0.8862 0.8862 0.8861 0.8860 0.8859
3516.000000 0.8858 0.8857 0.8857 0.8855 0.8854
3521.000000 0.8852 0.8851 0.8849 0.8848 0.8846
3526.000000 0.8844 0.8842 0.8841 0.8839 0.8838
3531.000000 0.8836 0.8835 0.8833 0.8831 0.8828
3536.000000 0.8827 0.8825 0.8823 0.8821 0.8818
3541.000000 0.8817 0.8816 0.8814 0.8814 0.8814
3546.000000 0.8816 0.8817 0.8818 0.8821 0.8823
3551.000000 0.8825 0.8827 0.8828 0.8831 0.8833
3556.000000 0.8835 0.8837 0.8839 0.8835 0.8831
3561.000000 0.8825 0.8821 0.8817 0.8813 0.8808
3566.000000 0.8804 0.8800 0.8796 0.8793 0.8790
3571.000000 0.8788 0.8786 0.8784 0.8785 0.8785
3576.000000 0.8788 0.8790 0.8793 0.8796 0.8799
3581.000000 0.8802 0.8805 0.8808 0.8811 0.8814
3586.000000 0.8817 0.8818 0.8821 0.8825 0.8828
3591.000000 0.8831 0.8834 0.8836 0.8838 0.8840
3596.000000 0.8842 0.8844 0.8846 0.8848 0.8850
3601.000000 0.8852 0.8855 0.8857 0.8857 0.8857
3606.000000 0.8856 0.8853 0.8850 0.8847 0.8844
3611.000000 0.8840 0.8837 0.8834 0.8831 0.8828
3616.000000 0.8825 0.8821 0.8818 0.8813 0.8808
3621.000000 0.8802 0.8797 0.8791 0.8785 0.8778
3626.000000 0.8774 0.8768 0.8763 0.8759 0.8758
3631.000000 0.8758 0.8758 0.8758 0.8759 0.8760
3636.000000 0.8760 0.8760 0.8760 0.8753 0.8746
3641.000000 0.8739 0.8732 0.8724 0.8717 0.8710
3646.000000 0.8703 0.8702 0.8701 0.8700 0.8699
3651.000000 0.8698 0.8697 0.8696 0.8696 0.8697
3656.000000 0.8699 0.8701 0.8704 0.8707 0.8710
3661.000000 0.8712 0.8715 0.8717 0.8720 0.8723
3666.000000 0.8724 0.8724 0.8724 0.8715 0.8707
3671.000000 0.8698 0.8689 0.8684 0.8680 0.8678
3676.000000 0.8678 0.8678 0.8678 0.8677 0.8677
3681.000000 0.8675 0.8675 0.8675 0.8675 0.8675
3686.000000 0.8675 0.8675 0.8675 0.8675 0.8677
3691.000000 0.8678 0.8678 0.8680 0.8681 0.8682
3696.000000 0.8683 0.8684 0.8685 0.8685 0.8686
3701.000000 0.8687 0.8688 0.8689 0.8690 0.8691
3706.000000 0.8692 0.8692 0.8692 0.8691 0.8691
3711.000000 0.8690 0.8690 0.8689 0.8688 0.8687
3716.000000 0.8687 0.8686 0.8686 0.8685 0.8685
3721.000000 0.8684 0.8684 0.8683 0.8683 0.8681
3726.000000 0.8680 0.8675 0.8671 0.8667 0.8663
3731.000000 0.8659 0.8655 0.8650 0.8646 0.8642
3736.000000 0.8638 0.8633 0.8628 0.8621 0.8616
3741.000000 0.8610 0.8604 0.8597 0.8591 0.8585
3746.000000 0.8578 0.8573 0.8568 0.8566 0.8565
3751.000000 0.8563 0.8561 0.8559 0.8558 0.8556
3756.000000 0.8555 0.8553 0.8551 0.8549 0.8548
3761.000000 0.8546 0.8544 0.8544 0.8544 0.8544
3766.000000 0.8544 0.8543 0.8543 0.8543 0.8544
3771.000000 0.8544 0.8545 0.8546 0.8547 0.8547
3776.000000 0.8548 0.8548 0.8549 0.8549 0.8550
3781.000000 0.8550 0.8551 0.8551 0.8552
##END=
