##TITLE=MORPHOLINE HYDROCHLORIDE
##JCAMP-DX=4.24
$$ By DXEDIT 1.05 (RS McDonald)
##DATA TYPE=INFRARED SPECTRUM
##CLASS=COBLENTZ III
##ORIGIN=DOW CHEMICAL COMPANY
##OWNER=COBLENTZ SOC.
Collection (C) 2018 copyright by the U.S. Secretary of Commerce
on behalf of the United States of America. All rights reserved.
##DATE=1965/04/06
##MOLFORM=C4 H10 Cl N O
##SOURCE REFERENCE=COBLENTZ NO. 05701
##$NIST ID=B6005701
##$NIST SOURCE=COBLENTZ
##$NIST IMAGE=cob5701
##SPECTROMETER/DATA SYSTEM=BECKMAN IR-9 (GRATING)
##INSTRUMENT PARAMETERS=ORDER CHANGES: 670, 1200, 2000 CM^-^1
##STATE=SOLID (SPLIT MULL)
##SAMPLING PROCEDURE=TRANSMISSION
##RESOLUTION=2
##DATA PROCESSING=DIGITIZED BY COBLENTZ SOCIETY (BATCH I) FROM HARD COPY
##XUNITS=1/CM
##YUNITS=TRANSMITTANCE
##XLABEL=Wavenumbers (cm-1)
##YLABEL=% Transmission
##XFACTOR=1
##YFACTOR=1
##DELTAX=1
##FIRSTX=3818
##LASTX=398
##FIRSTY=0.7017
##MAXX=3818
##MINX=398
##MAXY=0.8832
##MINY=0.1036
##NPOINTS=3421
##XYDATA=(X++(Y..Y))
3818.000000 0.7017 0.7018 0.7019 0.7021 0.7024
3813.000000 0.7025 0.7028 0.7030 0.7032 0.7034
3808.000000 0.7036 0.7038 0.7040 0.7042 0.7044
3803.000000 0.7046 0.7048 0.7050 0.7051 0.7053
3798.000000 0.7055 0.7057 0.7058 0.7061 0.7062
3793.000000 0.7065 0.7067 0.7068 0.7069 0.7071
3788.000000 0.7071 0.7072 0.7075 0.7075 0.7076
3783.000000 0.7078 0.7080 0.7081 0.7082 0.7083
3778.000000 0.7085 0.7086 0.7087 0.7088 0.7089
3773.000000 0.7090 0.7092 0.7093 0.7094 0.7095
3768.000000 0.7097 0.7099 0.7101 0.7103 0.7105
3763.000000 0.7107 0.7108 0.7110 0.7111 0.7114
3758.000000 0.7115 0.7118 0.7119 0.7121 0.7124
3753.000000 0.7125 0.7128 0.7128 0.7131 0.7133
3748.000000 0.7135 0.7137 0.7139 0.7141 0.7143
3743.000000 0.7144 0.7146 0.7148 0.7150 0.7151
3738.000000 0.7154 0.7156 0.7158 0.7160 0.7161
3733.000000 0.7164 0.7165 0.7168 0.7169 0.7171
3728.000000 0.7172 0.7175 0.7176 0.7178 0.7181
3723.000000 0.7183 0.7185 0.7187 0.7189 0.7191
3718.000000 0.7193 0.7195 0.7197 0.7199 0.7201
3713.000000 0.7201 0.7204 0.7206 0.7208 0.7210
3708.000000 0.7211 0.7214 0.7215 0.7218 0.7219
3703.000000 0.7221 0.7222 0.7225 0.7226 0.7228
3698.000000 0.7231 0.7233 0.7235 0.7236 0.7238
3693.000000 0.7240 0.7242 0.7244 0.7246 0.7248
3688.000000 0.7250 0.7251 0.7253 0.7255 0.7257
3683.000000 0.7258 0.7261 0.7262 0.7265 0.7265
3678.000000 0.7268 0.7269 0.7271 0.7274 0.7275
3673.000000 0.7276 0.7278 0.7280 0.7282 0.7283
3668.000000 0.7285 0.7286 0.7288 0.7289 0.7290
3663.000000 0.7291 0.7293 0.7294 0.7296 0.7297
3658.000000 0.7299 0.7300 0.7301 0.7303 0.7304
3653.000000 0.7305 0.7307 0.7308 0.7310 0.7311
3648.000000 0.7312 0.7314 0.7315 0.7317 0.7318
3643.000000 0.7318 0.7321 0.7321 0.7324 0.7325
3638.000000 0.7326 0.7328 0.7330 0.7331 0.7332
3633.000000 0.7333 0.7335 0.7336 0.7338 0.7339
3628.000000 0.7341 0.7342 0.7343 0.7343 0.7343
3623.000000 0.7343 0.7343 0.7343 0.7343 0.7343
3618.000000 0.7344 0.7344 0.7344 0.7344 0.7344
3613.000000 0.7344 0.7344 0.7344 0.7344 0.7344
3608.000000 0.7344 0.7344 0.7344 0.7344 0.7345
3603.000000 0.7345 0.7345 0.7345 0.7345 0.7345
3598.000000 0.7345 0.7345 0.7345 0.7345 0.7345
3593.000000 0.7345 0.7346 0.7346 0.7347 0.7347
3588.000000 0.7348 0.7348 0.7349 0.7349 0.7350
3583.000000 0.7350 0.7351 0.7351 0.7351 0.7353
3578.000000 0.7354 0.7354 0.7355 0.7355 0.7356
3573.000000 0.7356 0.7357 0.7357 0.7358 0.7358
3568.000000 0.7358 0.7358 0.7360 0.7360 0.7361
3563.000000 0.7361 0.7361 0.7361 0.7362 0.7362
3558.000000 0.7364 0.7365 0.7365 0.7365 0.7365
3553.000000 0.7365 0.7367 0.7367 0.7367 0.7367
3548.000000 0.7367 0.7367 0.7367 0.7367 0.7368
3543.000000 0.7368 0.7368 0.7368 0.7368 0.7368
3538.000000 0.7368 0.7368 0.7368 0.7368 0.7368
3533.000000 0.7368 0.7369 0.7369 0.7369 0.7369
3528.000000 0.7369 0.7369 0.7369 0.7369 0.7371
3523.000000 0.7371 0.7371 0.7371 0.7371 0.7371
3518.000000 0.7371 0.7371 0.7371 0.7371 0.7372
3513.000000 0.7372 0.7374 0.7375 0.7375 0.7375
3508.000000 0.7376 0.7378 0.7378 0.7378 0.7380
3503.000000 0.7381 0.7382 0.7382 0.7383 0.7384
3498.000000 0.7385 0.7385 0.7386 0.7387 0.7388
3493.000000 0.7388 0.7389 0.7390 0.7391 0.7391
3488.000000 0.7392 0.7393 0.7394 0.7394 0.7395
3483.000000 0.7395 0.7396 0.7397 0.7398 0.7398
3478.000000 0.7399 0.7400 0.7401 0.7401 0.7403
3473.000000 0.7403 0.7404 0.7405 0.7406 0.7407
3468.000000 0.7408 0.7408 0.7408 0.7410 0.7411
3463.000000 0.7411 0.7412 0.7412 0.7414 0.7415
3458.000000 0.7415 0.7417 0.7418 0.7418 0.7419
3453.000000 0.7419 0.7421 0.7421 0.7422 0.7424
3448.000000 0.7425 0.7425 0.7425 0.7426 0.7428
3443.000000 0.7428 0.7430 0.7430 0.7431 0.7432
3438.000000 0.7433 0.7434 0.7435 0.7435 0.7436
3433.000000 0.7437 0.7438 0.7439 0.7440 0.7440
3428.000000 0.7441 0.7443 0.7445 0.7447 0.7449
3423.000000 0.7451 0.7453 0.7455 0.7458 0.7460
3418.000000 0.7461 0.7464 0.7467 0.7468 0.7471
3413.000000 0.7472 0.7475 0.7478 0.7480 0.7482
3408.000000 0.7484 0.7486 0.7489 0.7491 0.7493
3403.000000 0.7495 0.7498 0.7500 0.7501 0.7504
3398.000000 0.7506 0.7508 0.7511 0.7512 0.7515
3393.000000 0.7517 0.7519 0.7521 0.7524 0.7525
3388.000000 0.7528 0.7532 0.7535 0.7538 0.7541
3383.000000 0.7543 0.7546 0.7549 0.7551 0.7554
3378.000000 0.7557 0.7560 0.7562 0.7565 0.7568
3373.000000 0.7571 0.7574 0.7576 0.7580 0.7582
3368.000000 0.7585 0.7588 0.7591 0.7593 0.7596
3363.000000 0.7599 0.7601 0.7604 0.7607 0.7610
3358.000000 0.7612 0.7615 0.7618 0.7621 0.7624
3353.000000 0.7626 0.7630 0.7632 0.7635 0.7638
3348.000000 0.7641 0.7643 0.7646 0.7648 0.7650
3343.000000 0.7651 0.7655 0.7657 0.7658 0.7661
3338.000000 0.7664 0.7665 0.7668 0.7669 0.7672
3333.000000 0.7675 0.7676 0.7678 0.7682 0.7684
3328.000000 0.7686 0.7688 0.7691 0.7693 0.7695
3323.000000 0.7697 0.7700 0.7701 0.7704 0.7706
3318.000000 0.7708 0.7711 0.7712 0.7715 0.7718
3313.000000 0.7721 0.7725 0.7728 0.7732 0.7735
3308.000000 0.7739 0.7742 0.7746 0.7749 0.7753
3303.000000 0.7756 0.7760 0.7761 0.7765 0.7768
3298.000000 0.7771 0.7772 0.7775 0.7778 0.7782
3293.000000 0.7785 0.7788 0.7790 0.7793 0.7795
3288.000000 0.7797 0.7799 0.7801 0.7803 0.7805
3283.000000 0.7807 0.7808 0.7811 0.7812 0.7815
3278.000000 0.7817 0.7817 0.7818 0.7818 0.7818
3273.000000 0.7818 0.7819 0.7819 0.7821 0.7821
3268.000000 0.7821 0.7821 0.7822 0.7822 0.7824
3263.000000 0.7824 0.7825 0.7825 0.7825 0.7825
3258.000000 0.7825 0.7825 0.7825 0.7825 0.7825
3253.000000 0.7824 0.7824 0.7822 0.7821 0.7821
3248.000000 0.7821 0.7819 0.7819 0.7818 0.7818
3243.000000 0.7817 0.7817 0.7815 0.7815 0.7814
3238.000000 0.7812 0.7811 0.7810 0.7808 0.7837
3233.000000 0.7806 0.7805 0.7803 0.7801 0.7801
3228.000000 0.7800 0.7798 0.7797 0.7795 0.7794
3223.000000 0.7793 0.7792 0.7790 0.7789 0.7787
3218.000000 0.7785 0.7783 0.7782 0.7780 0.7778
3213.000000 0.7776 0.7775 0.7772 0.7771 0.7769
3208.000000 0.7768 0.7765 0.7762 0.7760 0.7757
3203.000000 0.7753 0.7750 0.7745 0.7741 0.7736
3198.000000 0.7731 0.7725 0.7721 0.7715 0.7711
3193.000000 0.7706 0.7701 0.7696 0.7691 0.7685
3188.000000 0.7680 0.7672 0.7665 0.7658 0.7651
3183.000000 0.7644 0.7636 0.7625 0.7614 0.7603
3178.000000 0.7592 0.7578 0.7565 0.7547 0.7530
3173.000000 0.7511 0.7494 0.7475 0.7458 0.7441
3168.000000 0.7424 0.7404 0.7385 0.7365 0.7345
3163.000000 0.7324 0.7304 0.7284 0.7264 0.7208
3158.000000 0.7155 0.7107 0.7058 0.7018 0.6976
3153.000000 0.6941 0.6906 0.6868 0.6830 0.6815
3148.000000 0.6788 0.6798 0.6796 0.6794 0.6792
3143.000000 0.6791 0.6791 0.6799 0.6808 0.6818
3138.000000 0.6828 0.6840 0.6851 0.6861 0.6871
3133.000000 0.6875 0.6880 0.6882 0.6883 0.6884
3128.000000 0.6884 0.6883 0.6883 0.6881 0.6878
3123.000000 0.6875 0.6871 0.6868 0.6864 0.6828
3118.000000 0.6795 0.6772 0.6751 0.6730 0.6708
3113.000000 0.6687 0.6665 0.6640 0.6615 0.6589
3108.000000 0.6562 0.6537 0.6511 0.6486 0.6460
3103.000000 0.6431 0.6401 0.6372 0.6343 0.6314
3098.000000 0.6285 0.6256 0.6227 0.6190 0.6154
3093.000000 0.6116 0.6079 0.6041 0.6004 0.5965
3088.000000 0.5927 0.5887 0.5847 0.5806 0.5766
3083.000000 0.5725 0.5685 0.5648 0.5610 0.5579
3078.000000 0.5547 0.5515 0.5483 0.5451 0.5419
3073.000000 0.5387 0.5355 0.5323 0.5291 0.5254
3068.000000 0.5217 0.5180 0.5144 0.5107 0.5070
3063.000000 0.5033 0.4997 0.4960 0.4923 0.4886
3058.000000 0.4850 0.4812 0.4776 0.4742 0.4708
3053.000000 0.4675 0.4643 0.4610 0.4579 0.4546
3048.000000 0.4514 0.4482 0.4450 0.4417 0.4385
3043.000000 0.4349 0.4312 0.4236 0.4160 0.4086
3038.000000 0.4012 0.3966 0.3922 0.3882 0.3842
3033.000000 0.3812 0.3784 0.3757 0.3729 0.3682
3028.000000 0.3634 0.3624 0.3612 0.3609 0.3608
3023.000000 0.3607 0.3607 0.3607 0.3608 0.3608
3018.000000 0.3609 0.3609 0.3609 0.3609 0.3608
3013.000000 0.3607 0.3605 0.3602 0.3600 0.3597
3008.000000 0.3595 0.3595 0.3595 0.3542 0.3490
3003.000000 0.3408 0.3326 0.3243 0.3161 0.3130
2998.000000 0.3100 0.3098 0.3096 0.3124 0.3153
2993.000000 0.3189 0.3225 0.3259 0.3296 0.3332
2988.000000 0.3368 0.3389 0.3409 0.3380 0.3350
2983.000000 0.3322 0.3294 0.3266 0.3238 0.3214
2978.000000 0.3192 0.3160 0.3129 0.3030 0.2932
2973.000000 0.2865 0.2798 0.2759 0.2721 0.2709
2968.000000 0.2697 0.2697 0.2697 0.2697 0.2698
2963.000000 0.2698 0.2699 0.2699 0.2699 0.2699
2958.000000 0.2700 0.2696 0.2692 0.2685 0.2681
2953.000000 0.2675 0.2670 0.2664 0.2659 0.2653
2948.000000 0.2648 0.2620 0.2592 0.2553 0.2514
2943.000000 0.2481 0.2449 0.2424 0.2400 0.2377
2938.000000 0.2354 0.2352 0.2350 0.2350 0.2351
2933.000000 0.2351 0.2353 0.2353 0.2353 0.2354
2928.000000 0.2355 0.2356 0.2357 0.2358 0.2360
2923.000000 0.2384 0.2408 0.2433 0.2459 0.2497
2918.000000 0.2534 0.2571 0.2608 0.2641 0.2674
2913.000000 0.2707 0.2740 0.2770 0.2800 0.2828
2908.000000 0.2857 0.2887 0.2918 0.2951 0.2984
2903.000000 0.3017 0.3050 0.3114 0.3178 0.3222
2898.000000 0.3266 0.3280 0.3293 0.3298 0.3304
2893.000000 0.3304 0.3305 0.3304 0.3303 0.3300
2888.000000 0.3300 0.3299 0.3298 0.3298 0.3298
2883.000000 0.3302 0.3306 0.3309 0.3314 0.3318
2878.000000 0.3323 0.3337 0.3352 0.3368 0.3386
2873.000000 0.3403 0.3420 0.3443 0.3466 0.3495
2868.000000 0.3523 0.3554 0.3584 0.3630 0.3676
2863.000000 0.3718 0.3760 0.3800 0.3840 0.3872
2858.000000 0.3904 0.3934 0.3966 0.3999 0.4030
2853.000000 0.4062 0.4094 0.4125 0.4157 0.4188
2848.000000 0.4220 0.4240 0.4283 0.4264 0.4267
2843.000000 0.4269 0.4271 0.4241 0.4210 0.4094
2838.000000 0.3978 0.3900 0.3823 0.3745 0.3668
2833.000000 0.3591 0.3437 0.3480 0.3447 0.3447
2828.000000 0.3447 0.3454 0.3462 0.3482 0.3505
2823.000000 0.3557 0.3609 0.3636 0.3662 0.3662
2818.000000 0.3664 0.3664 0.3664 0.3659 0.3658
2813.000000 0.3637 0.3621 0.3600 0.3580 0.3554
2808.000000 0.3527 0.3492 0.3458 0.3418 0.3380
2803.000000 0.3309 0.3239 0.3168 0.3098 0.3027
2798.000000 0.2957 0.2885 0.2816 0.2791 0.2750
2793.000000 0.2767 0.2768 0.2769 0.2770 0.2774
2788.000000 0.2778 0.2784 0.2792 0.2799 0.2807
2783.000000 0.2824 0.2841 0.2861 0.2881 0.2903
2778.000000 0.2925 0.2947 0.2969 0.2993 0.3017
2773.000000 0.3046 0.3075 0.3103 0.3132 0.3165
2768.000000 0.3198 0.3232 0.3266 0.3296 0.3327
2763.000000 0.3355 0.3384 0.3408 0.3432 0.3444
2758.000000 0.3457 0.3458 0.3458 0.3459 0.3459
2753.000000 0.3459 0.3459 0.3442 0.3424 0.3320
2748.000000 0.3216 0.3134 0.3051 0.2997 0.2944
2743.000000 0.2913 0.2882 0.2851 0.2821 0.2790
2738.000000 0.2760 0.2723 0.2687 0.2643 0.2599
2733.000000 0.2554 0.2510 0.2461 0.2412 0.2369
2728.000000 0.2327 0.2304 0.2281 0.2274 0.2248
2723.000000 0.2266 0.2265 0.2265 0.2266 0.2276
2718.000000 0.2285 0.2300 0.2314 0.2413 0.2512
2713.000000 0.2581 0.2651 0.2699 0.2747 0.2795
2708.000000 0.2843 0.2946 0.3049 0.3123 0.3198
2703.000000 0.3236 0.3274 0.3310 0.3349 0.3386
2698.000000 0.3424 0.3516 0.3610 0.3666 0.3721
2693.000000 0.3749 0.3778 0.3806 0.3834 0.3862
2688.000000 0.3891 0.3918 0.3948 0.3980 0.4014
2683.000000 0.4047 0.4080 0.4114 0.4148 0.4178
2678.000000 0.4208 0.4237 0.4267 0.4296 0.4326
2673.000000 0.4351 0.4377 0.4400 0.4423 0.4446
2668.000000 0.4469 0.4488 0.4508 0.4525 0.4543
2663.000000 0.4562 0.4582 0.4609 0.4637 0.4646
2658.000000 0.4655 0.4666 0.4678 0.4678 0.4678
2653.000000 0.4678 0.4678 0.4670 0.4662 0.4655
2648.000000 0.4648 0.4645 0.4642 0.4640 0.4639
2643.000000 0.4647 0.4655 0.4670 0.4685 0.4714
2638.000000 0.4744 0.4849 0.4954 0.4998 0.5043
2633.000000 0.5065 0.5087 0.5093 0.5130 0.5104
2628.000000 0.5108 0.5108 0.5108 0.5100 0.5092
2623.000000 0.5081 0.5070 0.5029 0.4989 0.4881
2618.000000 0.4773 0.4692 0.4610 0.4550 0.4490
2613.000000 0.4460 0.4430 0.4419 0.4409 0.4402
2608.000000 0.4396 0.4392 0.4362 0.4387 0.4387
2603.000000 0.4386 0.4386 0.4406 0.4427 0.4528
2598.000000 0.4629 0.4707 0.4786 0.4848 0.4910
2593.000000 0.4972 0.5034 0.5096 0.5158 0.5220
2588.000000 0.5282 0.5344 0.5406 0.5468 0.5530
2583.000000 0.5565 0.5601 0.5633 0.5665 0.5691
2578.000000 0.5718 0.5745 0.5772 0.5798 0.5825
2573.000000 0.5846 0.5868 0.5888 0.5908 0.5928
2568.000000 0.5949 0.5969 0.5990 0.6010 0.6031
2563.000000 0.6048 0.6066 0.6084 0.6102 0.6119
2558.000000 0.6137 0.6152 0.6168 0.6182 0.6197
2553.000000 0.6212 0.6227 0.6241 0.6255 0.6268
2548.000000 0.6282 0.6293 0.6305 0.6310 0.6316
2543.000000 0.6321 0.6327 0.6332 0.6337 0.6342
2538.000000 0.6347 0.6351 0.6356 0.6362 0.6368
2533.000000 0.6379 0.6391 0.6401 0.6412 0.6424
2528.000000 0.6435 0.6446 0.6458 0.6468 0.6478
2523.000000 0.6490 0.6501 0.6511 0.6521 0.6526
2518.000000 0.6534 0.6541 0.6548 0.6554 0.6560
2513.000000 0.6564 0.6568 0.6571 0.6575 0.6580
2508.000000 0.6584 0.6587 0.6590 0.6591 0.6607
2503.000000 0.6593 0.6593 0.6593 0.6592 0.6589
2498.000000 0.6586 0.6583 0.6580 0.6571 0.6561
2493.000000 0.6550 0.6539 0.6526 0.6515 0.6493
2488.000000 0.6469 0.6444 0.6418 0.6389 0.6360
2483.000000 0.6322 0.6284 0.6245 0.6207 0.6059
2478.000000 0.5912 0.5853 0.5795 0.5679 0.5564
2473.000000 0.5374 0.5185 0.4944 0.4703 0.4484
2468.000000 0.4266 0.4260 0.4242 0.4257 0.4257
2463.000000 0.4257 0.4257 0.4265 0.4273 0.4285
2458.000000 0.4297 0.4325 0.4353 0.4387 0.4421
2453.000000 0.4490 0.4560 0.4735 0.4910 0.4980
2448.000000 0.5051 0.5105 0.5159 0.5212 0.5266
2443.000000 0.5319 0.5373 0.5423 0.5474 0.5525
2438.000000 0.5576 0.5628 0.5680 0.5733 0.5787
2433.000000 0.5840 0.5894 0.5938 0.5982 0.6015
2428.000000 0.6049 0.6083 0.6117 0.6151 0.6185
2423.000000 0.6218 0.6252 0.6285 0.6318 0.6351
2418.000000 0.6385 0.6418 0.6451 0.6478 0.6507
2413.000000 0.6534 0.6561 0.6588 0.6615 0.6642
2408.000000 0.6669 0.6694 0.6718 0.6742 0.6765
2403.000000 0.6790 0.6814 0.6832 0.6850 0.6865
2398.000000 0.6883 0.6895 0.6908 0.6918 0.6930
2393.000000 0.6933 0.6937 0.6938 0.6940 0.6941
2388.000000 0.6943 0.6944 0.6946 0.6947 0.6949
2383.000000 0.6950 0.6951 0.6951 0.6954 0.6956
2378.000000 0.6958 0.6961 0.6965 0.6968 0.6971
2373.000000 0.6975 0.6980 0.6983 0.6987 0.6990
2368.000000 0.6994 0.6998 0.7001 0.7005 0.7008
2363.000000 0.7014 0.7018 0.7025 0.7031 0.7037
2358.000000 0.7043 0.7049 0.7055 0.7061 0.7067
2353.000000 0.7071 0.7078 0.7084 0.7090 0.7096
2348.000000 0.7101 0.7107 0.7112 0.7118 0.7125
2343.000000 0.7130 0.7136 0.7142 0.7148 0.7155
2338.000000 0.7161 0.7172 0.7184 0.7194 0.7205
2333.000000 0.7215 0.7225 0.7236 0.7247 0.7258
2328.000000 0.7268 0.7278 0.7288 0.7296 0.7304
2323.000000 0.7311 0.7321 0.7328 0.7338 0.7346
2318.000000 0.7354 0.7361 0.7371 0.7378 0.7388
2313.000000 0.7396 0.7404 0.7407 0.7411 0.7414
2308.000000 0.7417 0.7419 0.7424 0.7426 0.7431
2303.000000 0.7434 0.7438 0.7442 0.7446 0.7449
2298.000000 0.7453 0.7457 0.7461 0.7465 0.7468
2293.000000 0.7471 0.7475 0.7480 0.7484 0.7488
2288.000000 0.7493 0.7500 0.7507 0.7514 0.7521
2283.000000 0.7528 0.7536 0.7543 0.7551 0.7558
2278.000000 0.7565 0.7571 0.7580 0.7587 0.7594
2273.000000 0.7601 0.7608 0.7615 0.7622 0.7631
2268.000000 0.7639 0.7647 0.7655 0.7662 0.7671
2263.000000 0.7680 0.7688 0.7694 0.7700 0.7703
2258.000000 0.7707 0.7710 0.7712 0.7715 0.7719
2253.000000 0.7722 0.7725 0.7728 0.7733 0.7733
2248.000000 0.7733 0.7732 0.7732 0.7731 0.7731
2243.000000 0.7730 0.7730 0.7728 0.7728 0.7732
2238.000000 0.7736 0.7740 0.7744 0.7748 0.7751
2233.000000 0.7758 0.7765 0.7771 0.7780 0.7787
2228.000000 0.7794 0.7801 0.7808 0.7815 0.7822
2223.000000 0.7828 0.7835 0.7841 0.7848 0.7854
2218.000000 0.7860 0.7865 0.7871 0.7876 0.7883
2213.000000 0.7884 0.7886 0.7888 0.7890 0.7892
2208.000000 0.7894 0.7896 0.7896 0.7896 0.7894
2203.000000 0.7888 0.7862 0.7876 0.7871 0.7865
2198.000000 0.7861 0.7858 0.7854 0.7850 0.7847
2193.000000 0.7844 0.7842 0.7838 0.7835 0.7825
2188.000000 0.7818 0.7808 0.7801 0.7787 0.7774
2183.000000 0.7755 0.7736 0.7715 0.7696 0.7675
2178.000000 0.7656 0.7635 0.7614 0.7599 0.7584
2173.000000 0.7582 0.7581 0.7580 0.7580 0.7587
2168.000000 0.7594 0.7637 0.7681 0.7711 0.7741
2163.000000 0.7771 0.7801 0.7828 0.7858 0.7874
2158.000000 0.7890 0.7906 0.7921 0.7938 0.7954
2153.000000 0.7969 0.7986 0.8004 0.8021 0.8039
2148.000000 0.8057 0.8061 0.8068 0.8072 0.8078
2143.000000 0.8083 0.8088 0.8089 0.8090 0.8091
2138.000000 0.8093 0.8094 0.8096 0.8097 0.8098
2133.000000 0.8099 0.8101 0.8101 0.8104 0.8105
2128.000000 0.8106 0.8107 0.8108 0.8110 0.8111
2123.000000 0.8112 0.8115 0.8117 0.8118 0.8119
2118.000000 0.8121 0.8124 0.8125 0.8126 0.8128
2113.000000 0.8131 0.8133 0.8134 0.8136 0.8138
2108.000000 0.8140 0.8142 0.8145 0.8148 0.8151
2103.000000 0.8155 0.8158 0.8161 0.8164 0.8167
2098.000000 0.8171 0.8174 0.8181 0.8180 0.8183
2093.000000 0.8187 0.8191 0.8194 0.8198 0.8202
2088.000000 0.8206 0.8209 0.8213 0.8217 0.8221
2083.000000 0.8224 0.8228 0.8231 0.8235 0.8239
2078.000000 0.8243 0.8246 0.8250 0.8253 0.8257
2073.000000 0.8260 0.8264 0.8267 0.8271 0.8275
2068.000000 0.8278 0.8282 0.8286 0.8289 0.8293
2063.000000 0.8297 0.8302 0.8307 0.8313 0.8318
2058.000000 0.8324 0.8328 0.8335 0.8338 0.8341
2053.000000 0.8343 0.8346 0.8348 0.8351 0.8354
2048.000000 0.8357 0.8359 0.8362 0.8364 0.8367
2043.000000 0.8368 0.8368 0.8368 0.8370 0.8370
2038.000000 0.8371 0.8371 0.8371 0.8371 0.8371
2033.000000 0.8370 0.8368 0.8368 0.8367 0.8365
2028.000000 0.8364 0.8363 0.8362 0.8360 0.8359
2023.000000 0.8358 0.8357 0.8357 0.8357 0.8356
2018.000000 0.8355 0.8353 0.8352 0.8351 0.8350
2013.000000 0.8349 0.8348 0.8347 0.8346 0.8345
2008.000000 0.8344 0.8343 0.8342 0.8341 0.8340
2003.000000 0.8339 0.8338 0.8336 0.8334 0.8332
1998.000000 0.8311 0.8284 0.8265 0.8265 0.8268
1993.000000 0.8281 0.8293 0.8305 0.8316 0.8328
1988.000000 0.8336 0.8343 0.8350 0.8357 0.8365
1983.000000 0.8371 0.8375 0.8375 0.8378 0.8380
1978.000000 0.8375 0.8367 0.8358 0.8342 0.8323
1973.000000 0.8311 0.8304 0.8303 0.8302 0.8305
1968.000000 0.8318 0.8334 0.8355 0.8375 0.8397
1963.000000 0.8415 0.8425 0.8434 0.8444 0.8453
1958.000000 0.8463 0.8471 0.8474 0.8477 0.8480
1953.000000 0.8483 0.8486 0.8489 0.8492 0.8495
1948.000000 0.8498 0.8499 0.8500 0.8501 0.8501
1943.000000 0.8502 0.8503 0.8503 0.8504 0.8504
1938.000000 0.8504 0.8504 0.8502 0.8499 0.8497
1933.000000 0.8494 0.8492 0.8489 0.8486 0.8480
1928.000000 0.8474 0.8467 0.8461 0.8455 0.8455
1923.000000 0.8456 0.8458 0.8459 0.8462 0.8475
1918.000000 0.8488 0.8501 0.8514 0.8527 0.8535
1913.000000 0.8544 0.8553 0.8561 0.8568 0.8571
1908.000000 0.8571 0.8571 0.8566 0.8559 0.8553
1903.000000 0.8547 0.8542 0.8540 0.8538 0.8536
1898.000000 0.8533 0.8531 0.8528 0.8525 0.8524
1893.000000 0.8524 0.8523 0.8525 0.8528 0.8531
1888.000000 0.8533 0.8536 0.8538 0.8540 0.8542
1883.000000 0.8543 0.8545 0.8546 0.8548 0.8548
1878.000000 0.8548 0.8546 0.8544 0.8542 0.8541
1873.000000 0.8539 0.8535 0.8528 0.8521 0.8516
1868.000000 0.8510 0.8503 0.8497 0.8491 0.8485
1863.000000 0.8478 0.8473 0.8467 0.8461 0.8455
1858.000000 0.8453 0.8452 0.8451 0.8451 0.8450
1853.000000 0.8450 0.8451 0.8462 0.8473 0.8484
1848.000000 0.8495 0.8506 0.8516 0.8528 0.8540
1843.000000 0.8551 0.8563 0.8575 0.8575 0.8575
1838.000000 0.8573 0.8570 0.8568 0.8566 0.8564
1833.000000 0.8562 0.8560 0.8558 0.8556 0.8554
1828.000000 0.8554 0.8555 0.8556 0.8557 0.8558
1823.000000 0.8559 0.8560 0.8568 0.8580 0.8592
1818.000000 0.8604 0.8618 0.8637 0.8656 0.8668
1813.000000 0.8677 0.8684 0.8692 0.8700 0.8702
1808.000000 0.8702 0.8702 0.8701 0.8701 0.8701
1803.000000 0.8700 0.8699 0.8698 0.8697 0.8696
1798.000000 0.8695 0.8694 0.8694 0.8693 0.8692
1793.000000 0.8691 0.8690 0.8690 0.8690 0.8689
1788.000000 0.8689 0.8689 0.8689 0.8689 0.8689
1783.000000 0.8689 0.8689 0.8689 0.8691 0.8696
1778.000000 0.8701 0.8705 0.8710 0.8715 0.8720
1773.000000 0.8724 0.8728 0.8730 0.8732 0.8734
1768.000000 0.8736 0.8737 0.8739 0.8741 0.8743
1763.000000 0.8744 0.8746 0.8748 0.8749 0.8751
1758.000000 0.8753 0.8753 0.8752 0.8752 0.8751
1753.000000 0.8750 0.8750 0.8749 0.8749 0.8748
1748.000000 0.8748 0.8747 0.8746 0.8746 0.8745
1743.000000 0.8745 0.8744 0.8744 0.8744 0.8744
1738.000000 0.8743 0.8743 0.8743 0.8742 0.8742
1733.000000 0.8742 0.8741 0.8741 0.8741 0.8740
1728.000000 0.8739 0.8737 0.8735 0.8733 0.8731
1723.000000 0.8728 0.8727 0.8725 0.8717 0.8709
1718.000000 0.8701 0.8693 0.8686 0.8678 0.8673
1713.000000 0.8667 0.8662 0.8657 0.8652 0.8647
1708.000000 0.8643 0.8641 0.8638 0.8636 0.8633
1703.000000 0.8631 0.8628 0.8625 0.8623 0.8621
1698.000000 0.8618 0.8618 0.8618 0.8618 0.8618
1693.000000 0.8618 0.8618 0.8618 0.8617 0.8617
1688.000000 0.8617 0.8617 0.8617 0.8617 0.8616
1683.000000 0.8616 0.8615 0.8615 0.8614 0.8613
1678.000000 0.8613 0.8612 0.8612 0.8611 0.8611
1673.000000 0.8611 0.8610 0.8610 0.8611 0.8612
1668.000000 0.8613 0.8614 0.8614 0.8614 0.8612
1663.000000 0.8609 0.8606 0.8603 0.8600 0.8597
1658.000000 0.8587 0.8578 0.8573 0.8567 0.8561
1653.000000 0.8555 0.8552 0.8550 0.8549 0.8547
1648.000000 0.8545 0.8544 0.8543 0.8544 0.8546
1643.000000 0.8549 0.8551 0.8553 0.8555 0.8559
1638.000000 0.8563 0.8567 0.8571 0.8575 0.8578
1633.000000 0.8583 0.8587 0.8591 0.8595 0.8597
1628.000000 0.8599 0.8600 0.8602 0.8603 0.8605
1623.000000 0.8606 0.8606 0.8606 0.8606 0.8606
1618.000000 0.8606 0.8606 0.8606 0.8605 0.8605
1613.000000 0.8603 0.8600 0.8596 0.8593 0.8589
1608.000000 0.8586 0.8582 0.8608 0.8575 0.8571
1603.000000 0.8567 0.8563 0.8558 0.8553 0.8549
1598.000000 0.8544 0.8539 0.8535 0.8530 0.8525
1593.000000 0.8521 0.8515 0.8501 0.8487 0.8473
1588.000000 0.8459 0.8438 0.8416 0.8393 0.8348
1583.000000 0.8303 0.8252 0.8194 0.8104 0.7825
1578.000000 0.7321 0.6818 0.6314 0.5810 0.5307
1573.000000 0.4804 0.4594 0.4601 0.4623 0.5109
1568.000000 0.5598 0.6087 0.6575 0.7065 0.7356
1563.000000 0.7499 0.7631 0.7760 0.7888 0.8025
1558.000000 0.8144 0.8220 0.8273 0.8316 0.8355
1553.000000 0.8389 0.8414 0.8428 0.8435 0.8439
1548.000000 0.8442 0.8445 0.8446 0.8447 0.8447
1543.000000 0.8446 0.8446 0.8445 0.8445 0.8444
1538.000000 0.8444 0.8445 0.8445 0.8446 0.8447
1533.000000 0.8448 0.8449 0.8450 0.8451 0.8451
1528.000000 0.8451 0.8452 0.8452 0.8452 0.8452
1523.000000 0.8453 0.8453 0.8453 0.8454 0.8455
1518.000000 0.8457 0.8458 0.8459 0.8460 0.8461
1513.000000 0.8463 0.8464 0.8465 0.8466 0.8467
1508.000000 0.8468 0.8468 0.8468 0.8468 0.8468
1503.000000 0.8468 0.8470 0.8470 0.8470 0.8470
1498.000000 0.8467 0.8465 0.8463 0.8460 0.8458
1493.000000 0.8455 0.8453 0.8451 0.8449 0.8447
1488.000000 0.8445 0.8443 0.8440 0.8437 0.8433
1483.000000 0.8430 0.8420 0.8406 0.8392 0.8378
1478.000000 0.8364 0.8362 0.8361 0.8360 0.8360
1473.000000 0.8362 0.8363 0.8364 0.8365 0.8358
1468.000000 0.8327 0.8285 0.8193 0.8119 0.8076
1463.000000 0.8033 0.7990 0.7928 0.7847 0.7765
1458.000000 0.7684 0.6869 0.6344 0.5850 0.5357
1453.000000 0.4862 0.4369 0.3876 0.3630 0.3649
1448.000000 0.3952 0.4380 0.4808 0.5118 0.5090
1443.000000 0.4943 0.4742 0.4487 0.4495 0.4812
1438.000000 0.5480 0.5619 0.5621 0.5643 0.5162
1433.000000 0.4772 0.4380 0.3988 0.3793 0.3870
1428.000000 0.4340 0.4810 0.5281 0.5752 0.6222
1423.000000 0.6693 0.6865 0.6904 0.6869 0.6790
1418.000000 0.6708 0.6628 0.6549 0.6441 0.6458
1413.000000 0.6461 0.6574 0.7015 0.7428 0.7511
1408.000000 0.7595 0.7668 0.7712 0.7724 0.7735
1403.000000 0.7744 0.7757 0.7747 0.7737 0.7728
1398.000000 0.7715 0.7680 0.7515 0.7287 0.7058
1393.000000 0.6928 0.6960 0.7121 0.7618 0.7743
1388.000000 0.7762 0.7771 0.7821 0.7772 0.7756
1383.000000 0.7740 0.7717 0.7684 0.7324 0.6851
1378.000000 0.6861 0.6910 0.7358 0.7711 0.7775
1373.000000 0.7807 0.7825 0.7833 0.7868 0.7815
1368.000000 0.7801 0.7761 0.7719 0.7693 0.7671
1363.000000 0.7649 0.7618 0.7581 0.7489 0.7396
1358.000000 0.7186 0.6836 0.6485 0.6134 0.5693
1353.000000 0.5689 0.5703 0.5839 0.6229 0.6618
1348.000000 0.6969 0.7061 0.7143 0.7188 0.7232
1343.000000 0.7275 0.7317 0.7358 0.7393 0.7415
1338.000000 0.7440 0.7460 0.7475 0.7485 0.7494
1333.000000 0.7501 0.7500 0.7492 0.7482 0.7472
1328.000000 0.7422 0.7324 0.7219 0.7065 0.6704
1323.000000 0.6433 0.6334 0.6235 0.6123 0.6012
1318.000000 0.5805 0.5638 0.5493 0.5110 0.4727
1313.000000 0.4343 0.3959 0.3577 0.3194 0.3045
1308.000000 0.3061 0.3084 0.3366 0.3728 0.4088
1303.000000 0.4448 0.4809 0.5169 0.5529 0.5783
1298.000000 0.6150 0.6390 0.6611 0.6780 0.6942
1293.000000 0.7108 0.7230 0.7345 0.7450 0.7508
1288.000000 0.7519 0.7532 0.7543 0.7555 0.7565
1283.000000 0.7578 0.7608 0.7636 0.7658 0.7675
1278.000000 0.7692 0.7708 0.7725 0.7743 0.7758
1273.000000 0.7775 0.7790 0.7806 0.7821 0.7837
1268.000000 0.7847 0.7856 0.7865 0.7875 0.7884
1263.000000 0.7890 0.7891 0.7893 0.7894 0.7895
1258.000000 0.7895 0.7896 0.7895 0.7908 0.7890
1253.000000 0.7888 0.7883 0.7871 0.7860 0.7848
1248.000000 0.7837 0.7825 0.7811 0.7797 0.7783
1243.000000 0.7768 0.7753 0.7731 0.7708 0.7687
1238.000000 0.7665 0.7624 0.7581 0.7537 0.7460
1233.000000 0.7382 0.7301 0.5159 0.5141 0.5356
1228.000000 0.5770 0.6184 0.6598 0.7011 0.7340
1223.000000 0.7468 0.7618 0.7661 0.7676 0.7692
1218.000000 0.7703 0.7708 0.7712 0.7718 0.7722
1213.000000 0.7722 0.7724 0.7725 0.7725 0.7724
1208.000000 0.7724 0.7717 0.7710 0.7703 0.7695
1203.000000 0.7687 0.7665 0.7644 0.7621 0.7596
1198.000000 0.7571 0.7535 0.7492 0.7448 0.7360
1193.000000 0.7075 0.6978 0.6844 0.6574 0.6160
1188.000000 0.6120 0.6141 0.6345 0.6549 0.6753
1183.000000 0.6814 0.6811 0.6819 0.7045 0.7198
1178.000000 0.7288 0.7381 0.7454 0.7462 0.7472
1173.000000 0.7483 0.7492 0.7501 0.7511 0.7525
1168.000000 0.7537 0.7550 0.7556 0.7560 0.7565
1163.000000 0.7569 0.7574 0.7576 0.7581 0.7584
1158.000000 0.7587 0.7590 0.7593 0.7593 0.7589
1153.000000 0.7585 0.7617 0.7575 0.7574 0.7571
1148.000000 0.7568 0.7567 0.7565 0.7564 0.7561
1143.000000 0.7541 0.7511 0.7481 0.7436 0.7391
1138.000000 0.7343 0.7293 0.7245 0.7205 0.7165
1133.000000 0.7125 0.7086 0.7046 0.7006 0.6955
1128.000000 0.6903 0.6851 0.6799 0.6743 0.6685
1123.000000 0.6628 0.6571 0.6408 0.6234 0.6065
1118.000000 0.5867 0.5627 0.5529 0.5437 0.5346
1113.000000 0.5218 0.5086 0.4896 0.4556 0.3480
1108.000000 0.2949 0.2416 0.1884 0.1352 0.1052
1103.000000 0.1041 0.1036 0.1056 0.1103 0.1179
1098.000000 0.1346 0.1698 0.1964 0.2230 0.2496
1093.000000 0.2762 0.3028 0.3294 0.3559 0.3826
1088.000000 0.4092 0.4358 0.4653 0.5058 0.5284
1083.000000 0.5508 0.5650 0.5792 0.5934 0.6221
1078.000000 0.6332 0.6442 0.6537 0.6624 0.6711
1073.000000 0.6784 0.6858 0.6918 0.6968 0.7018
1068.000000 0.7068 0.7121 0.7167 0.7191 0.7188
1063.000000 0.7210 0.7204 0.7197 0.7191 0.7178
1058.000000 0.7161 0.7132 0.7058 0.6986 0.6500
1053.000000 0.6293 0.6092 0.4962 0.3604 0.2325
1048.000000 0.2345 0.3244 0.3934 0.4625 0.5315
1043.000000 0.6005 0.6165 0.6147 0.5821 0.5065
1038.000000 0.4257 0.4246 0.4246 0.4378 0.4845
1033.000000 0.5310 0.5778 0.6245 0.6711 0.7178
1028.000000 0.7372 0.7384 0.7393 0.7392 0.7391
1023.000000 0.7386 0.7375 0.7375 0.7392 0.7419
1018.000000 0.7471 0.7518 0.7557 0.7595 0.7632
1013.000000 0.7668 0.7704 0.7738 0.7764 0.7790
1008.000000 0.7812 0.7828 0.7844 0.7851 0.7861
1003.000000 0.7868 0.7878 0.7878 0.7851 0.7841
998.000000 0.7840 0.7848 0.7865 0.7897 0.7915
993.000000 0.7933 0.7950 0.7968 0.7980 0.7987
988.000000 0.7995 0.8003 0.8010 0.8011 0.8011
983.000000 0.8012 0.8014 0.8014 0.8015 0.8018
978.000000 0.8021 0.8022 0.8025 0.8028 0.8030
973.000000 0.8033 0.8036 0.8038 0.8041 0.8042
968.000000 0.8042 0.8041 0.8040 0.8035 0.8022
963.000000 0.8022 0.8025 0.8028 0.8036 0.8044
958.000000 0.8051 0.8058 0.8065 0.8068 0.8071
953.000000 0.8075 0.8080 0.8081 0.8081 0.8080
948.000000 0.8080 0.8078 0.8078 0.8069 0.8068
943.000000 0.8068 0.8061 0.8055 0.8049 0.8043
938.000000 0.8032 0.8018 0.8007 0.7994 0.7982
933.000000 0.7968 0.7957 0.7938 0.7915 0.7894
928.000000 0.7871 0.7844 0.7798 0.7753 0.7708
923.000000 0.7661 0.7601 0.7526 0.7453 0.7361
918.000000 0.7268 0.6815 0.6260 0.5703 0.5147
913.000000 0.4591 0.4034 0.3478 0.2531 0.2506
908.000000 0.2506 0.3013 0.3556 0.4099 0.4642
903.000000 0.5185 0.5728 0.6271 0.6814 0.7261
898.000000 0.7394 0.7460 0.7503 0.7551 0.7588
893.000000 0.7601 0.7611 0.7637 0.7615 0.7611
888.000000 0.7601 0.7589 0.7564 0.7539 0.7482
883.000000 0.7424 0.7288 0.6968 0.6601 0.6270
878.000000 0.5938 0.5607 0.5275 0.4988 0.3909
873.000000 0.2633 0.1358 0.1349 0.1346 0.1693
868.000000 0.2655 0.3616 0.4578 0.5539 0.6501
863.000000 0.7164 0.7351 0.7507 0.7635 0.7747
858.000000 0.7848 0.7940 0.7988 0.8022 0.8055
853.000000 0.8084 0.8111 0.8139 0.8157 0.8165
848.000000 0.8168 0.8168 0.8160 0.8140 0.8115
843.000000 0.8111 0.8124 0.8143 0.8178 0.8240
838.000000 0.8264 0.8287 0.8297 0.8315 0.8304
833.000000 0.8304 0.8300 0.8288 0.8275 0.8250
828.000000 0.8223 0.8125 0.7725 0.7325 0.6925
823.000000 0.6487 0.6494 0.6903 0.7368 0.7835
818.000000 0.8242 0.8274 0.8305 0.8337 0.8368
813.000000 0.8401 0.8421 0.8431 0.8441 0.8450
808.000000 0.8459 0.8460 0.8460 0.8461 0.8461
803.000000 0.8462 0.8462 0.8461 0.8460 0.8457
798.000000 0.8470 0.8452 0.8449 0.8447 0.8444
793.000000 0.8441 0.8436 0.8428 0.8421 0.8415
788.000000 0.8407 0.8400 0.8393 0.8385 0.8378
783.000000 0.8370 0.8362 0.8354 0.8346 0.8338
778.000000 0.8330 0.8321 0.8314 0.8310 0.8308
773.000000 0.8307 0.8305 0.8303 0.8301 0.8300
768.000000 0.8298 0.8297 0.8297 0.8297 0.8298
763.000000 0.8298 0.8299 0.8299 0.8299 0.8300
758.000000 0.8302 0.8303 0.8305 0.8306 0.8307
753.000000 0.8309 0.8310 0.8306 0.8302 0.8298
748.000000 0.8294 0.8290 0.8278 0.8261 0.8244
743.000000 0.8227 0.8209 0.8183 0.8157 0.8130
738.000000 0.8103 0.8071 0.8041 0.8008 0.7978
733.000000 0.7947 0.7915 0.7885 0.7855 0.7834
728.000000 0.7814 0.7793 0.7781 0.7772 0.7768
723.000000 0.7764 0.7746 0.7801 0.7900 0.7991
718.000000 0.8061 0.8130 0.8197 0.8256 0.8315
713.000000 0.8344 0.8368 0.8394 0.8418 0.8442
708.000000 0.8463 0.8484 0.8504 0.8525 0.8538
703.000000 0.8545 0.8553 0.8560 0.8568 0.8575
698.000000 0.8583 0.8591 0.8602 0.8625 0.8648
693.000000 0.8677 0.8707 0.8738 0.8762 0.8782
688.000000 0.8801 0.8815 0.8818 0.8823 0.8827
683.000000 0.8832 0.8831 0.8831 0.8828 0.8825
678.000000 0.8820 0.8800 0.8780 0.8760 0.8741
673.000000 0.8710 0.8677 0.8642 0.8607 0.8606
668.000000 0.8605 0.8604 0.8603 0.8602 0.8600
663.000000 0.8599 0.8597 0.8596 0.8594 0.8593
658.000000 0.8591 0.8590 0.8588 0.8583 0.8578
653.000000 0.8574 0.8568 0.8565 0.8560 0.8556
648.000000 0.8551 0.8547 0.8542 0.8536 0.8528
643.000000 0.8520 0.8513 0.8505 0.8498 0.8490
638.000000 0.8483 0.8475 0.8468 0.8461 0.8454
633.000000 0.8446 0.8439 0.8434 0.8428 0.8421
628.000000 0.8416 0.8407 0.8392 0.8375 0.8361
623.000000 0.8345 0.8311 0.8262 0.8212 0.8165
618.000000 0.8137 0.8108 0.8097 0.8087 0.8086
613.000000 0.8092 0.8099 0.8106 0.8110 0.8111
608.000000 0.8115 0.8093 0.8068 0.8044 0.7974
603.000000 0.7884 0.7771 0.7686 0.7615 0.6468
598.000000 0.5177 0.4043 0.4074 0.4025 0.5051
593.000000 0.5539 0.6028 0.6515 0.7005 0.7493
588.000000 0.7982 0.8062 0.8099 0.8128 0.8151
583.000000 0.8164 0.8169 0.8175 0.8182 0.8187
578.000000 0.8191 0.8197 0.8196 0.8196 0.8192
573.000000 0.8188 0.8178 0.8156 0.8134 0.8111
568.000000 0.8091 0.8071 0.8072 0.8072 0.8074
563.000000 0.8075 0.8075 0.8075 0.8075 0.8075
558.000000 0.8076 0.8076 0.8076 0.8078 0.8078
553.000000 0.8078 0.8076 0.8075 0.8072 0.8071
548.000000 0.8068 0.8067 0.8065 0.8064 0.8061
543.000000 0.8060 0.8058 0.8055 0.8048 0.8041
538.000000 0.8033 0.8025 0.8018 0.8008 0.7998
533.000000 0.7986 0.7974 0.7962 0.7951 0.7939
528.000000 0.7928 0.7911 0.7894 0.7875 0.7858
523.000000 0.7842 0.7825 0.7811 0.7795 0.7787
518.000000 0.7785 0.7783 0.7781 0.7778 0.7775
513.000000 0.7772 0.7769 0.7765 0.7762 0.7760
508.000000 0.7757 0.7754 0.7751 0.7748 0.7745
503.000000 0.7742 0.7739 0.7735 0.7728 0.7722
498.000000 0.7717 0.7711 0.7706 0.7700 0.7694
493.000000 0.7688 0.7682 0.7675 0.7669 0.7662
488.000000 0.7657 0.7651 0.7645 0.7638 0.7632
483.000000 0.7625 0.7618 0.7612 0.7603 0.7594
478.000000 0.7585 0.7575 0.7565 0.7557 0.7547
473.000000 0.7539 0.7531 0.7522 0.7515 0.7506
468.000000 0.7483 0.7460 0.7437 0.7414 0.7392
463.000000 0.7368 0.7331 0.7291 0.7251 0.7210
458.000000 0.7169 0.7128 0.7078 0.7018 0.6961
453.000000 0.6903 0.6844 0.6786 0.6675 0.6537
448.000000 0.6369 0.6182 0.5978 0.5835 0.5671
443.000000 0.4968 0.4174 0.3380 0.2523 0.2541
438.000000 0.2616 0.3226 0.3837 0.4792 0.4754
433.000000 0.4744 0.4735 0.4707 0.4676 0.4396
428.000000 0.3998 0.3600 0.3203 0.2806 0.2408
423.000000 0.2378 0.2365 0.2359 0.2373 0.2395
418.000000 0.2504 0.2701 0.2897 0.3094 0.3290
413.000000 0.3487 0.3682 0.3880 0.4030 0.4041
408.000000 0.4050 0.4060 0.4072 0.4080 0.4090
403.000000 0.4099 0.4108 0.4117 0.4131 0.4140
398.000000 0.4167
##END=
