##TITLE=Cyclohexanepropionic acid, 4,4-dimethyl-2,6-dioxo-
##JCAMP-DX=4.24
##DATA TYPE=INFRARED SPECTRUM
##CLASS=COBLENTZ III
##ORIGIN=SOUTHERN RESEARCH INSTITUTE
##OWNER=Copyright (C) 1987 by the Coblentz Society
Collection (C) 2018 copyright by the U.S. Secretary of Commerce
on behalf of the United States of America. All rights reserved.
##DATE=1955/11/04
##NAMES=3-(2-hydroxy-4,4-dimethyl-6-oxo-1-cyclohexen-1-yl)propanoic acid
1-CYCLOHEXENE-1-PROPIONIC ACID, 2-HYDROXY-4,4-DIMETHYL-6-OXO-
##MOLFORM=C11 H16 O4
##MP=172-173 C
##SOURCE REFERENCE=COBLENTZ NO. 7907
##$NIST ID=B6007907
##$NIST SOURCE=COBLENTZ
##$NIST IMAGE=cob7907
##SPECTROMETER/DATA SYSTEM=PERKIN-ELMER 21 (GRATING)
##INSTRUMENT PARAMETERS=FILTER CHANGE ABOUT 1040 CM^-^1
##STATE=SOLID (1.05 mg / 650 mg KBr DISC)
##SAMPLING PROCEDURE=TRANSMISSION
##RESOLUTION=2
##DATA PROCESSING=DIGITIZED BY COBLENTZ SOCIETY (BATCH II) FROM HARD COPY (ADJUSTED \addcm-1\10-5-2\)
##XUNITS=1/CM
##YUNITS=TRANSMITTANCE
##XFACTOR=1.0
##YFACTOR=1
##DELTAX=1.003698
##FIRSTX=651.151
##LASTX=4012.53
##FIRSTY=0.6656
##MAXX=4012.53
##MINX=651.151
##MAXY=0.8215
##MINY=0.106913
##NPOINTS=3350
##XYDATA=(X++(Y..Y))
651.151429 0.6656 0.6646 0.6636 0.6623 0.6604
656.169917 0.6586 0.6565 0.6541 0.6512 0.6478
661.188405 0.6437 0.6393 0.6348 0.6302 0.6257
666.206893 0.6212 0.6161 0.6096 0.6031 0.5966
671.225381 0.5901 0.5776 0.5748 0.5732 0.5754
676.243869 0.5866 0.6059 0.6262 0.6465 0.6611
681.262357 0.6671 0.6719 0.6769 0.6823 0.6890
686.280845 0.6969 0.7053 0.7111 0.7146 0.7177
691.299333 0.7193 0.7194 0.7205 0.7210 0.7209
696.317822 0.7208 0.7206 0.7201 0.7195 0.7188
701.336310 0.7180 0.7170 0.7159 0.7148 0.7132
706.354798 0.7113 0.7094 0.7077 0.7060 0.7043
711.373286 0.7026 0.7010 0.6993 0.6977 0.6961
716.391774 0.6945 0.6929 0.6912 0.6892 0.6871
721.410262 0.6850 0.6830 0.6807 0.6778 0.6746
726.428750 0.6715 0.6683 0.6649 0.6612 0.6576
731.447238 0.6539 0.6500 0.6460 0.6419 0.6379
736.465726 0.6336 0.6287 0.6234 0.6182 0.6135
741.484215 0.6088 0.6028 0.5994 0.5988 0.5981
746.502703 0.5973 0.5965 0.5957 0.5950 0.5943
751.521191 0.5937 0.5931 0.5925 0.5920 0.5917
756.539679 0.5915 0.5915 0.5925 0.5936 0.5969
761.558167 0.6043 0.6133 0.6222 0.6312 0.6402
766.576655 0.6492 0.6582 0.6671 0.6761 0.6844
771.595143 0.6908 0.6958 0.7001 0.7037 0.7068
776.613631 0.7096 0.7119 0.7131 0.7140 0.7149
781.632119 0.7157 0.7163 0.7168 0.7182 0.7191
786.650608 0.7172 0.7171 0.7169 0.7166 0.7161
791.669096 0.7156 0.7151 0.7147 0.7143 0.7140
796.687584 0.7136 0.7133 0.7130 0.7125 0.7121
801.706072 0.7117 0.7115 0.7116 0.7121 0.7130
806.724560 0.7157 0.7177 0.7194 0.7205 0.7216
811.743048 0.7226 0.7235 0.7242 0.7248 0.7256
816.761536 0.7263 0.7268 0.7269 0.7269 0.7268
821.780024 0.7267 0.7268 0.7277 0.7263 0.7262
826.798512 0.7258 0.7253 0.7248 0.7243 0.7238
831.817000 0.7232 0.7227 0.7221 0.7215 0.7209
836.835489 0.7202 0.7196 0.7189 0.7182 0.7175
841.853977 0.7168 0.7161 0.7153 0.7142 0.7132
846.872465 0.7122 0.7111 0.7102 0.7092 0.7081
851.890953 0.7071 0.7061 0.7050 0.7038 0.7026
856.909441 0.7013 0.7001 0.6988 0.6976 0.6963
861.927929 0.6951 0.6934 0.6918 0.6902 0.6885
866.946417 0.6869 0.6852 0.6836 0.6819 0.6802
871.964905 0.6782 0.6759 0.6735 0.6711 0.6687
876.983393 0.6663 0.6639 0.6615 0.6587 0.6558
882.001882 0.6530 0.6501 0.6473 0.6444 0.6408
887.020370 0.6370 0.6333 0.6296 0.6259 0.6216
892.038858 0.6171 0.6126 0.6082 0.6040 0.6001
897.057346 0.5962 0.5924 0.5884 0.5837 0.5789
902.075834 0.5740 0.5692 0.5635 0.5574 0.5512
907.094322 0.5444 0.5374 0.5320 0.5272 0.5250
912.112810 0.5236 0.5222 0.5214 0.5211 0.5211
917.131298 0.5210 0.5220 0.5246 0.5331 0.5439
922.149786 0.5547 0.5655 0.5764 0.5872 0.5980
927.168275 0.6088 0.6196 0.6304 0.6413 0.6537
932.186763 0.6614 0.6661 0.6706 0.6739 0.6759
937.205251 0.6767 0.6772 0.6776 0.6779 0.6760
942.223739 0.6765 0.6775 0.6770 0.6765 0.6756
947.242227 0.6744 0.6728 0.6709 0.6676 0.6627
952.260715 0.6574 0.6522 0.6469 0.6417 0.6364
957.279203 0.6312 0.6273 0.6256 0.6263 0.6284
962.297691 0.6350 0.6460 0.6571 0.6678 0.6754
967.316179 0.6798 0.6833 0.6861 0.6885 0.6907
972.334668 0.6929 0.6949 0.6968 0.6987 0.7006
977.353156 0.7024 0.7038 0.7050 0.7057 0.7060
982.371644 0.7058 0.7056 0.7059 0.7055 0.7051
987.390132 0.7047 0.7041 0.7035 0.7029 0.7022
992.408620 0.7015 0.7007 0.6999 0.6992 0.6983
997.427108 0.6970 0.6958 0.6945 0.6931 0.6914
1002.445596 0.6896 0.6877 0.6859 0.6840 0.6821
1007.464084 0.6796 0.6765 0.6734 0.6703 0.6667
1012.482572 0.6634 0.6612 0.6605 0.6606 0.6614
1017.501061 0.6625 0.6638 0.6651 0.6656 0.6655
1022.519549 0.6651 0.6643 0.6627 0.6606 0.6582
1027.538037 0.6562 0.6542 0.6521 0.6498 0.6474
1032.556525 0.6450 0.6425 0.6401 0.6376 0.6351
1037.575013 0.6322 0.6287 0.6251 0.6216 0.6175
1042.593501 0.6132 0.6089 0.6046 0.5996 0.5936
1047.611989 0.5873 0.5765 0.5626 0.5474 0.5310
1052.630477 0.5126 0.4927 0.4599 0.4365 0.4131
1057.648965 0.3897 0.3664 0.3430 0.3191 0.2790
1062.667454 0.2751 0.2738 0.2730 0.2745 0.2761
1067.685942 0.2921 0.3349 0.3776 0.4205 0.4634
1072.704430 0.5082 0.5300 0.5453 0.6346 0.6525
1077.722918 0.6586 0.6644 0.6693 0.6730 0.6766
1082.741406 0.6783 0.6777 0.6788 0.6788 0.6784
1087.759894 0.6780 0.6773 0.6763 0.6753 0.6742
1092.778382 0.6731 0.6719 0.6677 0.6693 0.6707
1097.796870 0.6740 0.6781 0.6808 0.6817 0.6816
1102.815358 0.6803 0.6804 0.6794 0.6780 0.6768
1107.833846 0.6757 0.6747 0.6737 0.6722 0.6705
1112.852335 0.6686 0.6651 0.6574 0.6479 0.6403
1117.870823 0.6339 0.6264 0.6176 0.6101 0.6029
1122.889311 0.5955 0.5875 0.5806 0.5777 0.5768
1127.907799 0.5770 0.5795 0.5833 0.5859 0.5875
1132.926287 0.5885 0.5885 0.5877 0.5862 0.5840
1137.944775 0.5811 0.5736 0.5557 0.5345 0.5132
1142.963263 0.4920 0.4707 0.4495 0.4283 0.4076
1147.981751 0.3994 0.3982 0.3983 0.4005 0.4080
1153.000239 0.4233 0.4411 0.4590 0.4768 0.4947
1158.018728 0.5126 0.5305 0.5437 0.5475 0.5472
1163.037216 0.5456 0.5443 0.5422 0.5364 0.5277
1168.055704 0.5142 0.4985 0.4827 0.4669 0.4511
1173.074192 0.4354 0.4196 0.4038 0.3880 0.3722
1178.092680 0.3561 0.3476 0.3474 0.3470 0.3522
1183.111168 0.3750 0.4067 0.4384 0.4700 0.5017
1188.129656 0.5348 0.5508 0.5523 0.5524 0.5524
1193.148144 0.5521 0.5516 0.5507 0.5488 0.5455
1198.166632 0.5352 0.5161 0.4944 0.4726 0.4508
1203.185121 0.4291 0.4073 0.3856 0.3638 0.3420
1208.203609 0.3203 0.2986 0.2827 0.2769 0.2768
1213.222097 0.2770 0.2774 0.2811 0.2924 0.3162
1218.240585 0.3467 0.3772 0.4076 0.4381 0.4687
1223.259073 0.4933 0.5037 0.5049 0.5050 0.5057
1228.277561 0.5052 0.5028 0.5015 0.4994 0.4963
1233.296049 0.4921 0.4870 0.4817 0.4759 0.4675
1238.314537 0.4571 0.4453 0.4308 0.4164 0.4019
1243.333025 0.3875 0.3730 0.3570 0.3457 0.3448
1248.351514 0.3486 0.3650 0.3927 0.4205 0.4458
1253.370002 0.4596 0.4613 0.4625 0.4626 0.4622
1258.388490 0.4622 0.4607 0.4578 0.4540 0.4489
1263.406978 0.4423 0.4365 0.4297 0.4216 0.4128
1268.425466 0.4003 0.3862 0.3720 0.3578 0.3437
1273.443954 0.3295 0.3154 0.3014 0.2907 0.2868
1278.462442 0.2847 0.2841 0.2844 0.2913 0.3109
1283.480930 0.3297 0.3486 0.3674 0.3845 0.3937
1288.499418 0.3939 0.3941 0.3919 0.3834 0.3765
1293.517907 0.3696 0.3627 0.3557 0.3487 0.3418
1298.536395 0.3349 0.3277 0.3208 0.3172 0.3149
1303.554883 0.3143 0.3143 0.3152 0.3150 0.3159
1308.573371 0.3176 0.3197 0.3233 0.3267 0.3297
1313.591859 0.3333 0.3364 0.3396 0.3423 0.3446
1318.610347 0.3470 0.3493 0.3513 0.3533 0.3553
1323.628835 0.3572 0.3590 0.3608 0.3625 0.3639
1328.647323 0.3650 0.3661 0.3666 0.3664 0.3651
1333.665811 0.3655 0.3646 0.3630 0.3611 0.3585
1338.684299 0.3551 0.3498 0.3444 0.3403 0.3362
1343.702788 0.3320 0.3265 0.3211 0.3156 0.3101
1348.721276 0.3047 0.2993 0.2938 0.2883 0.2829
1353.739764 0.2774 0.2720 0.2666 0.2611 0.2556
1358.758252 0.2501 0.2447 0.2392 0.2338 0.2284
1363.776740 0.2229 0.2174 0.2120 0.2065 0.2011
1368.795228 0.1956 0.1902 0.1847 0.1790 0.1722
1373.813716 0.1675 0.1628 0.1576 0.1519 0.1472
1378.832204 0.1433 0.1410 0.1394 0.1389 0.1400
1383.850692 0.1396 0.1401 0.1406 0.1417 0.1436
1388.869181 0.1460 0.1545 0.1610 0.1704 0.1821
1393.887669 0.1923 0.2010 0.2092 0.2156 0.2203
1398.906157 0.2480 0.2779 0.3077 0.3321 0.3346
1403.924645 0.3353 0.3359 0.3376 0.3362 0.3321
1408.943133 0.3270 0.3218 0.3167 0.3115 0.3063
1413.961621 0.3015 0.3024 0.3090 0.3219 0.3352
1418.980109 0.3485 0.3619 0.3751 0.3784 0.3801
1423.998597 0.3775 0.3741 0.3708 0.3674 0.3640
1429.017085 0.3607 0.3573 0.3539 0.3505 0.3472
1434.035574 0.3439 0.3405 0.3372 0.3338 0.3307
1439.054062 0.3296 0.3291 0.3298 0.3323 0.3406
1444.072550 0.3497 0.3598 0.3754 0.3916 0.4080
1449.091038 0.4243 0.4407 0.4569 0.4733 0.4896
1454.109526 0.5060 0.5184 0.5230 0.5255 0.5274
1459.128014 0.5279 0.5283 0.5286 0.5281 0.5275
1464.146502 0.5270 0.5265 0.5265 0.5322 0.5392
1469.164990 0.5467 0.5527 0.5593 0.5672 0.5740
1474.183478 0.5785 0.5826 0.5859 0.5887 0.5914
1479.201967 0.5941 0.5967 0.5993 0.6019 0.6043
1484.220455 0.6064 0.6086 0.6107 0.6126 0.6141
1489.238943 0.6155 0.6169 0.6183 0.6195 0.6205
1494.257431 0.6215 0.6225 0.6234 0.6241 0.6249
1499.275919 0.6252 0.6255 0.6256 0.6258 0.6260
1504.294407 0.6237 0.6255 0.6260 0.6260 0.6260
1509.312895 0.6258 0.6254 0.6250 0.6245 0.6240
1514.331383 0.6235 0.6230 0.6225 0.6220 0.6213
1519.349871 0.6206 0.6197 0.6188 0.6176 0.6163
1524.368360 0.6151 0.6139 0.6127 0.6115 0.6102
1529.386848 0.6086 0.6070 0.6054 0.6037 0.6015
1534.405336 0.5992 0.5969 0.5946 0.5925 0.5904
1539.423824 0.5888 0.5873 0.5858 0.5843 0.5829
1544.442312 0.5815 0.5802 0.5786 0.5766 0.5744
1549.460800 0.5696 0.5631 0.5568 0.5518 0.5471
1554.479288 0.5402 0.5326 0.5277 0.5238 0.5198
1559.497776 0.5162 0.5127 0.5093 0.5055 0.5002
1564.516264 0.4948 0.4902 0.4860 0.4817 0.4772
1569.534753 0.4724 0.4675 0.4603 0.4518 0.4433
1574.553241 0.4370 0.4315 0.4259 0.4202 0.4115
1579.571729 0.4015 0.3920 0.3827 0.3735 0.3643
1584.590217 0.3568 0.3500 0.3432 0.3354 0.3257
1589.608705 0.3152 0.2907 0.2653 0.2487 0.2319
1594.627193 0.2120 0.1914 0.1709 0.1504 0.1228
1599.645681 0.1105 0.1084 0.1069 0.1100 0.1143
1604.664169 0.1178 0.1220 0.1257 0.1305 0.1423
1609.682657 0.1568 0.1714 0.1860 0.2006 0.2152
1614.701145 0.2298 0.2444 0.2590 0.2735 0.2882
1619.719634 0.3027 0.3173 0.3319 0.3465 0.3611
1624.738122 0.3757 0.3903 0.4049 0.4194 0.4313
1629.756610 0.4399 0.4452 0.4485 0.4511 0.4538
1634.775098 0.4573 0.4616 0.4661 0.4717 0.4778
1639.793586 0.4843 0.4909 0.4958 0.5000 0.5042
1644.812074 0.5081 0.5119 0.5154 0.5177 0.5196
1649.830562 0.5215 0.5232 0.5243 0.5252 0.5261
1654.849050 0.5271 0.5277 0.5281 0.5283 0.5261
1659.867538 0.5272 0.5278 0.5272 0.5263 0.5255
1664.886027 0.5239 0.5219 0.5192 0.5164 0.5131
1669.904515 0.5096 0.5049 0.4998 0.4952 0.4907
1674.923003 0.4855 0.4777 0.4654 0.4544 0.4451
1679.941491 0.4380 0.4308 0.4214 0.4120 0.3965
1684.959979 0.3804 0.3609 0.3405 0.3200 0.2996
1689.978467 0.2791 0.2586 0.2382 0.2177 0.1972
1694.996955 0.1786 0.1666 0.1600 0.1546 0.1519
1700.015443 0.1513 0.1518 0.1524 0.1541 0.1610
1705.033931 0.1846 0.2118 0.2391 0.2664 0.2936
1710.052420 0.3139 0.3240 0.3316 0.3406 0.3510
1715.070908 0.3625 0.3752 0.3890 0.4007 0.4120
1720.089396 0.4252 0.4390 0.4546 0.4650 0.4722
1725.107884 0.4790 0.4867 0.4977 0.5080 0.5154
1730.126372 0.5223 0.5292 0.5356 0.5415 0.5473
1735.144860 0.5531 0.5594 0.5669 0.5747 0.5825
1740.163348 0.5876 0.5916 0.5956 0.5995 0.6034
1745.181836 0.6072 0.6111 0.6144 0.6174 0.6203
1750.200324 0.6233 0.6263 0.6293 0.6321 0.6349
1755.218813 0.6377 0.6404 0.6431 0.6458 0.6486
1760.237301 0.6511 0.6536 0.6560 0.6585 0.6610
1765.255789 0.6635 0.6660 0.6684 0.6706 0.6726
1770.274277 0.6747 0.6768 0.6788 0.6809 0.6830
1775.292765 0.6848 0.6865 0.6880 0.6895 0.6910
1780.311253 0.6925 0.6940 0.6955 0.6971 0.6986
1785.329741 0.7001 0.7017 0.7032 0.7048 0.7063
1790.348229 0.7079 0.7094 0.7110 0.7126 0.7141
1795.366717 0.7155 0.7170 0.7184 0.7199 0.7214
1800.385206 0.7228 0.7243 0.7253 0.7262 0.7271
1805.403694 0.7280 0.7288 0.7298 0.7308 0.7318
1810.422182 0.7328 0.7341 0.7354 0.7366 0.7377
1815.440670 0.7388 0.7399 0.7409 0.7420 0.7429
1820.459158 0.7438 0.7447 0.7455 0.7462 0.7469
1825.477646 0.7476 0.7482 0.7489 0.7496 0.7503
1830.496134 0.7509 0.7516 0.7522 0.7529 0.7535
1835.514622 0.7542 0.7549 0.7555 0.7561 0.7566
1840.533110 0.7571 0.7576 0.7581 0.7586 0.7591
1845.551598 0.7597 0.7602 0.7607 0.7612 0.7617
1850.570087 0.7621 0.7624 0.7626 0.7629 0.7632
1855.588575 0.7635 0.7638 0.7641 0.7644 0.7647
1860.607063 0.7650 0.7653 0.7656 0.7659 0.7662
1865.625551 0.7665 0.7668 0.7672 0.7675 0.7679
1870.644039 0.7682 0.7686 0.7689 0.7693 0.7696
1875.662527 0.7700 0.7703 0.7707 0.7711 0.7715
1880.681015 0.7719 0.7723 0.7727 0.7731 0.7735
1885.699503 0.7739 0.7743 0.7747 0.7751 0.7755
1890.717991 0.7759 0.7763 0.7767 0.7771 0.7775
1895.736480 0.7779 0.7783 0.7788 0.7792 0.7796
1900.754968 0.7800 0.7804 0.7807 0.7811 0.7815
1905.773456 0.7818 0.7822 0.7826 0.7830 0.7833
1910.791944 0.7837 0.7841 0.7842 0.7842 0.7843
1915.810432 0.7843 0.7844 0.7844 0.7845 0.7845
1920.828920 0.7846 0.7846 0.7847 0.7847 0.7848
1925.847408 0.7848 0.7849 0.7850 0.7851 0.7852
1930.865896 0.7853 0.7854 0.7854 0.7855 0.7856
1935.884384 0.7857 0.7859 0.7861 0.7865 0.7874
1940.902873 0.7883 0.7891 0.7899 0.7906 0.7913
1945.921361 0.7915 0.7916 0.7918 0.7920 0.7922
1950.939849 0.7923 0.7925 0.7927 0.7929 0.7930
1955.958337 0.7932 0.7933 0.7934 0.7936 0.7937
1960.976825 0.7938 0.7940 0.7941 0.7943 0.7945
1965.995313 0.7947 0.7948 0.7950 0.7952 0.7954
1971.013801 0.7955 0.7957 0.7959 0.7960 0.7962
1976.032289 0.7964 0.7966 0.7967 0.7969 0.7971
1981.050777 0.7973 0.7974 0.7976 0.7978 0.7979
1986.069266 0.7981 0.7983 0.7984 0.7985 0.7985
1991.087754 0.7985 0.7985 0.7985 0.7985 0.7985
1996.106242 0.7985 0.7985 0.7985 0.7985 0.7985
2001.124730 0.7985 0.7985 0.7985 0.7985 0.7985
2006.143218 0.7985 0.7985 0.7985 0.7985 0.7985
2011.161706 0.7985 0.7985 0.7985 0.7985 0.7985
2016.180194 0.7985 0.7985 0.7984 0.7984 0.7984
2021.198682 0.7983 0.7985 0.7988 0.7983 0.7982
2026.217170 0.7982 0.7981 0.7980 0.7979 0.7978
2031.235659 0.7977 0.7976 0.7975 0.7974 0.7973
2036.254147 0.7972 0.7970 0.7969 0.7968 0.7967
2041.272635 0.7966 0.7965 0.7964 0.7963 0.7962
2046.291123 0.7962 0.7961 0.7961 0.7961 0.7960
2051.309611 0.7960 0.7959 0.7959 0.7959 0.7959
2056.328099 0.7959 0.7959 0.7959 0.7960 0.7960
2061.346587 0.7961 0.7962 0.7962 0.7963 0.7963
2066.365075 0.7964 0.7965 0.7965 0.7966 0.7966
2071.383563 0.7967 0.7967 0.7967 0.7967 0.7967
2076.402052 0.7967 0.7967 0.7967 0.7967 0.7968
2081.420540 0.7968 0.7967 0.7966 0.7965 0.7964
2086.439028 0.7963 0.7962 0.7961 0.7960 0.7959
2091.457516 0.7958 0.7957 0.7956 0.7955 0.7955
2096.476004 0.7954 0.7953 0.7953 0.7952 0.7951
2101.494492 0.7951 0.7950 0.7949 0.7949 0.7948
2106.512980 0.7947 0.7947 0.7946 0.7945 0.7945
2111.531468 0.7944 0.7944 0.7944 0.7944 0.7943
2116.549956 0.7943 0.7943 0.7942 0.7942 0.7942
2121.568444 0.7942 0.7941 0.7941 0.7939 0.7938
2126.586933 0.7937 0.7936 0.7934 0.7933 0.7932
2131.605421 0.7931 0.7929 0.7928 0.7927 0.7926
2136.623909 0.7924 0.7923 0.7921 0.7919 0.7916
2141.642397 0.7913 0.7910 0.7908 0.7905 0.7902
2146.660885 0.7899 0.7897 0.7894 0.7891 0.7888
2151.679373 0.7885 0.7882 0.7879 0.7876 0.7873
2156.697861 0.7871 0.7868 0.7867 0.7867 0.7867
2161.716349 0.7867 0.7867 0.7868 0.7868 0.7869
2166.734837 0.7873 0.7876 0.7880 0.7883 0.7884
2171.753326 0.7884 0.7885 0.7885 0.7886 0.7887
2176.771814 0.7887 0.7886 0.7884 0.7881 0.7879
2181.790302 0.7877 0.7875 0.7873 0.7871 0.7869
2186.808790 0.7867 0.7865 0.7864 0.7865 0.7865
2191.827278 0.7866 0.7867 0.7867 0.7868 0.7871
2196.845766 0.7878 0.7886 0.7893 0.7898 0.7900
2201.864254 0.7901 0.7902 0.7903 0.7903 0.7904
2206.882742 0.7904 0.7902 0.7899 0.7896 0.7893
2211.901230 0.7890 0.7887 0.7883 0.7878 0.7874
2216.919719 0.7870 0.7865 0.7861 0.7857 0.7853
2221.938207 0.7848 0.7844 0.7842 0.7839 0.7836
2226.956695 0.7834 0.7831 0.7828 0.7826 0.7823
2231.975183 0.7821 0.7818 0.7815 0.7813 0.7811
2236.993671 0.7809 0.7807 0.7806 0.7804 0.7802
2242.012159 0.7800 0.7798 0.7796 0.7794 0.7792
2247.030647 0.7790 0.7788 0.7786 0.7785 0.7785
2252.049135 0.7784 0.7783 0.7782 0.7781 0.7780
2257.067623 0.7779 0.7778 0.7777 0.7776 0.7775
2262.086112 0.7774 0.7773 0.7772 0.7771 0.7770
2267.104600 0.7768 0.7767 0.7764 0.7760 0.7756
2272.123088 0.7753 0.7749 0.7746 0.7742 0.7739
2277.141576 0.7735 0.7731 0.7728 0.7724 0.7721
2282.160064 0.7717 0.7713 0.7707 0.7702 0.7696
2287.178552 0.7690 0.7684 0.7678 0.7672 0.7667
2292.197040 0.7661 0.7655 0.7649 0.7643 0.7636
2297.215528 0.7630 0.7623 0.7617 0.7610 0.7603
2302.234016 0.7597 0.7590 0.7583 0.7577 0.7570
2307.252505 0.7563 0.7557 0.7550 0.7542 0.7535
2312.270993 0.7528 0.7521 0.7514 0.7507 0.7500
2317.289481 0.7493 0.7486 0.7481 0.7477 0.7472
2322.307969 0.7467 0.7462 0.7457 0.7452 0.7448
2327.326457 0.7443 0.7438 0.7433 0.7428 0.7426
2332.344945 0.7424 0.7423 0.7421 0.7420 0.7418
2337.363433 0.7417 0.7415 0.7413 0.7412 0.7411
2342.381921 0.7410 0.7409 0.7409 0.7408 0.7408
2347.400409 0.7407 0.7407 0.7407 0.7406 0.7406
2352.418897 0.7406 0.7405 0.7405 0.7405 0.7404
2357.437386 0.7404 0.7404 0.7404 0.7405 0.7405
2362.455874 0.7404 0.7403 0.7402 0.7401 0.7400
2367.474362 0.7399 0.7399 0.7398 0.7397 0.7396
2372.492850 0.7395 0.7394 0.7393 0.7392 0.7391
2377.511338 0.7390 0.7389 0.7387 0.7386 0.7385
2382.529826 0.7384 0.7383 0.7382 0.7381 0.7376
2387.548314 0.7369 0.7363 0.7357 0.7351 0.7345
2392.566802 0.7338 0.7332 0.7325 0.7318 0.7312
2397.585290 0.7309 0.7307 0.7306 0.7304 0.7302
2402.603779 0.7300 0.7299 0.7297 0.7295 0.7294
2407.622267 0.7293 0.7292 0.7290 0.7289 0.7288
2412.640755 0.7287 0.7285 0.7284 0.7283 0.7282
2417.659243 0.7280 0.7277 0.7273 0.7268 0.7264
2422.677731 0.7259 0.7255 0.7250 0.7243 0.7236
2427.696219 0.7228 0.7219 0.7211 0.7203 0.7195
2432.714707 0.7186 0.7178 0.7169 0.7161 0.7153
2437.733195 0.7145 0.7136 0.7128 0.7120 0.7111
2442.751683 0.7102 0.7094 0.7085 0.7076 0.7067
2447.770172 0.7058 0.7050 0.7042 0.7034 0.7026
2452.788660 0.7019 0.7011 0.7003 0.6995 0.6987
2457.807148 0.6978 0.6968 0.6958 0.6949 0.6939
2462.825636 0.6930 0.6920 0.6911 0.6901 0.6888
2467.844124 0.6875 0.6862 0.6849 0.6836 0.6823
2472.862612 0.6810 0.6797 0.6784 0.6770 0.6756
2477.881100 0.6743 0.6737 0.6732 0.6727 0.6721
2482.899588 0.6716 0.6710 0.6705 0.6699 0.6694
2487.918076 0.6689 0.6685 0.6680 0.6676 0.6671
2492.936565 0.6666 0.6662 0.6657 0.6653 0.6647
2497.955053 0.6642 0.6637 0.6632 0.6627 0.6622
2502.973541 0.6617 0.6613 0.6608 0.6604 0.6600
2507.992029 0.6597 0.6594 0.6590 0.6587 0.6584
2513.010517 0.6580 0.6577 0.6571 0.6554 0.6536
2518.029005 0.6519 0.6501 0.6484 0.6467 0.6452
2523.047493 0.6441 0.6430 0.6419 0.6408 0.6396
2528.065981 0.6385 0.6375 0.6365 0.6356 0.6346
2533.084469 0.6337 0.6327 0.6318 0.6309 0.6303
2538.102958 0.6297 0.6291 0.6284 0.6278 0.6272
2543.121446 0.6269 0.6265 0.6262 0.6259 0.6256
2548.139934 0.6252 0.6249 0.6246 0.6242 0.6239
2553.158422 0.6234 0.6226 0.6218 0.6210 0.6199
2558.176910 0.6187 0.6175 0.6163 0.6151 0.6139
2563.195398 0.6130 0.6120 0.6111 0.6101 0.6091
2568.213886 0.6082 0.6072 0.6063 0.6053 0.6044
2573.232374 0.6037 0.6029 0.6021 0.6014 0.6006
2578.250862 0.5998 0.5990 0.5983 0.5975 0.5967
2583.269351 0.5961 0.5955 0.5949 0.5943 0.5937
2588.287839 0.5931 0.5926 0.5920 0.5914 0.5908
2593.306327 0.5903 0.5900 0.5897 0.5894 0.5892
2598.324815 0.5889 0.5886 0.5883 0.5880 0.5878
2603.343303 0.5875 0.5872 0.5869 0.5868 0.5867
2608.361791 0.5867 0.5866 0.5865 0.5865 0.5864
2613.380279 0.5864 0.5863 0.5862 0.5862 0.5861
2618.398767 0.5861 0.5860 0.5860 0.5860 0.5860
2623.417255 0.5860 0.5859 0.5859 0.5859 0.5859
2628.435743 0.5858 0.5858 0.5858 0.5858 0.5858
2633.454232 0.5857 0.5857 0.5857 0.5857 0.5858
2638.472720 0.5858 0.5858 0.5858 0.5858 0.5858
2643.491208 0.5858 0.5858 0.5859 0.5860 0.5861
2648.509696 0.5862 0.5862 0.5867 0.5893 0.5865
2653.528184 0.5866 0.5866 0.5866 0.5866 0.5866
2658.546672 0.5866 0.5866 0.5866 0.5865 0.5859
2663.565160 0.5852 0.5845 0.5837 0.5827 0.5817
2668.583648 0.5811 0.5807 0.5803 0.5799 0.5798
2673.602136 0.5813 0.5831 0.5853 0.5863 0.5870
2678.620625 0.5878 0.5885 0.5892 0.5897 0.5902
2683.639113 0.5907 0.5911 0.5913 0.5916 0.5919
2688.657601 0.5923 0.5925 0.5927 0.5928 0.5929
2693.676089 0.5931 0.5932 0.5933 0.5934 0.5933
2698.694577 0.5933 0.5932 0.5932 0.5931 0.5931
2703.713065 0.5930 0.5931 0.5931 0.5931 0.5932
2708.731553 0.5932 0.5932 0.5933 0.5933 0.5933
2713.750041 0.5934 0.5934 0.5934 0.5933 0.5932
2718.768529 0.5931 0.5930 0.5929 0.5928 0.5927
2723.787018 0.5926 0.5923 0.5921 0.5918 0.5916
2728.805506 0.5914 0.5911 0.5909 0.5906 0.5903
2733.823994 0.5899 0.5896 0.5893 0.5889 0.5886
2738.842482 0.5883 0.5880 0.5876 0.5873 0.5869
2743.860970 0.5864 0.5859 0.5854 0.5850 0.5845
2748.879458 0.5840 0.5835 0.5830 0.5826 0.5821
2753.897946 0.5816 0.5811 0.5806 0.5800 0.5795
2758.916434 0.5790 0.5785 0.5780 0.5775 0.5769
2763.934922 0.5764 0.5758 0.5751 0.5744 0.5736
2768.953411 0.5729 0.5721 0.5714 0.5706 0.5698
2773.971899 0.5691 0.5683 0.5674 0.5666 0.5657
2778.990387 0.5649 0.5640 0.5632 0.5623 0.5615
2784.008875 0.5610 0.5607 0.5603 0.5599 0.5595
2789.027363 0.5592 0.5588 0.5581 0.5562 0.5532
2794.045851 0.5508 0.5486 0.5465 0.5443 0.5423
2799.064339 0.5404 0.5385 0.5365 0.5346 0.5327
2804.082827 0.5309 0.5290 0.5272 0.5253 0.5234
2809.101315 0.5214 0.5194 0.5173 0.5152 0.5132
2814.119804 0.5112 0.5094 0.5076 0.5058 0.5041
2819.138292 0.5023 0.5005 0.4987 0.4969 0.4951
2824.156780 0.4931 0.4911 0.4892 0.4872 0.4852
2829.175268 0.4832 0.4812 0.4792 0.4772 0.4753
2834.193756 0.4733 0.4714 0.4694 0.4675 0.4655
2839.212244 0.4636 0.4616 0.4598 0.4582 0.4566
2844.230732 0.4550 0.4535 0.4519 0.4504 0.4491
2849.249220 0.4481 0.4472 0.4463 0.4453 0.4444
2854.267708 0.4435 0.4428 0.4423 0.4418 0.4413
2859.286196 0.4409 0.4404 0.4399 0.4394 0.4389
2864.304685 0.4385 0.4380 0.4375 0.4370 0.4366
2869.323173 0.4361 0.4357 0.4352 0.4348 0.4343
2874.341661 0.4338 0.4334 0.4328 0.4321 0.4314
2879.360149 0.4308 0.4301 0.4294 0.4288 0.4281
2884.378637 0.4275 0.4264 0.4249 0.4233 0.4218
2889.397125 0.4202 0.4187 0.4170 0.4153 0.4135
2894.415613 0.4117 0.4099 0.4081 0.4062 0.4042
2899.434101 0.4021 0.4000 0.3979 0.3958 0.3938
2904.452589 0.3917 0.3896 0.3872 0.3845 0.3818
2909.471078 0.3792 0.3765 0.3738 0.3714 0.3696
2914.489566 0.3679 0.3663 0.3646 0.3629 0.3612
2919.508054 0.3595 0.3580 0.3569 0.3559 0.3548
2924.526542 0.3538 0.3527 0.3517 0.3506 0.3498
2929.545030 0.3491 0.3484 0.3477 0.3470 0.3464
2934.563518 0.3460 0.3458 0.3456 0.3454 0.3453
2939.582006 0.3451 0.3451 0.3452 0.3453 0.3455
2944.600494 0.3456 0.3458 0.3446 0.3449 0.3464
2949.618982 0.3467 0.3470 0.3474 0.3480 0.3488
2954.637471 0.3496 0.3508 0.3524 0.3540 0.3557
2959.655959 0.3573 0.3589 0.3605 0.3623 0.3645
2964.674447 0.3667 0.3689 0.3713 0.3739 0.3768
2969.692935 0.3796 0.3819 0.3837 0.3856 0.3874
2974.711423 0.3891 0.3906 0.3920 0.3935 0.3947
2979.729911 0.3959 0.3979 0.3981 0.3976 0.3977
2984.748399 0.3976 0.3974 0.3972 0.3971 0.3967
2989.766887 0.3962 0.3957 0.3952 0.3947 0.3942
2994.785375 0.3937 0.3930 0.3922 0.3914 0.3906
2999.803864 0.3897 0.3889 0.3881 0.3872 0.3863
3004.822352 0.3854 0.3844 0.3835 0.3826 0.3815
3009.840840 0.3804 0.3792 0.3781 0.3770 0.3758
3014.859328 0.3747 0.3736 0.3724 0.3712 0.3700
3019.877816 0.3688 0.3675 0.3663 0.3650 0.3638
3024.896304 0.3626 0.3614 0.3601 0.3589 0.3577
3029.914792 0.3565 0.3553 0.3540 0.3528 0.3516
3034.933280 0.3504 0.3492 0.3480 0.3468 0.3456
3039.951768 0.3444 0.3431 0.3419 0.3407 0.3395
3044.970257 0.3383 0.3371 0.3359 0.3347 0.3335
3049.988745 0.3323 0.3311 0.3299 0.3287 0.3275
3055.007233 0.3263 0.3251 0.3239 0.3227 0.3215
3060.025721 0.3204 0.3194 0.3183 0.3173 0.3162
3065.044209 0.3152 0.3141 0.3131 0.3121 0.3110
3070.062697 0.3100 0.3090 0.3079 0.3069 0.3059
3075.081185 0.3048 0.3038 0.3027 0.3017 0.3006
3080.099673 0.2995 0.2984 0.2973 0.2962 0.2951
3085.118161 0.2940 0.2929 0.2918 0.2907 0.2896
3090.136649 0.2885 0.2874 0.2863 0.2852 0.2837
3095.155138 0.2821 0.2805 0.2789 0.2773 0.2757
3100.173626 0.2741 0.2725 0.2709 0.2693 0.2676
3105.192114 0.2660 0.2644 0.2628 0.2611 0.2595
3110.210602 0.2579 0.2563 0.2551 0.2540 0.2530
3115.229090 0.2519 0.2508 0.2497 0.2487 0.2476
3120.247578 0.2465 0.2454 0.2446 0.2438 0.2429
3125.266066 0.2421 0.2413 0.2404 0.2396 0.2388
3130.284554 0.2380 0.2371 0.2363 0.2356 0.2349
3135.303042 0.2344 0.2338 0.2332 0.2327 0.2321
3140.321531 0.2315 0.2310 0.2306 0.2304 0.2303
3145.340019 0.2301 0.2300 0.2299 0.2298 0.2299
3150.358507 0.2300 0.2301 0.2302 0.2303 0.2305
3155.376995 0.2308 0.2310 0.2313 0.2315 0.2318
3160.395483 0.2302 0.2321 0.2329 0.2332 0.2339
3165.413971 0.2346 0.2353 0.2360 0.2367 0.2374
3170.432459 0.2381 0.2389 0.2396 0.2403 0.2410
3175.450947 0.2419 0.2427 0.2435 0.2444 0.2452
3180.469435 0.2461 0.2469 0.2477 0.2486 0.2497
3185.487924 0.2509 0.2522 0.2534 0.2547 0.2559
3190.506412 0.2572 0.2584 0.2597 0.2610 0.2625
3195.524900 0.2641 0.2657 0.2672 0.2688 0.2704
3200.543388 0.2719 0.2735 0.2751 0.2766 0.2783
3205.561876 0.2800 0.2817 0.2834 0.2851 0.2868
3210.580364 0.2885 0.2903 0.2920 0.2935 0.2950
3215.598852 0.2964 0.2978 0.2993 0.3007 0.3021
3220.617340 0.3035 0.3049 0.3063 0.3077 0.3091
3225.635828 0.3105 0.3121 0.3140 0.3159 0.3177
3230.654317 0.3196 0.3215 0.3234 0.3252 0.3273
3235.672805 0.3297 0.3321 0.3345 0.3369 0.3393
3240.691293 0.3418 0.3443 0.3469 0.3494 0.3520
3245.709781 0.3545 0.3571 0.3596 0.3619 0.3642
3250.728269 0.3665 0.3688 0.3712 0.3736 0.3761
3255.746757 0.3786 0.3810 0.3829 0.3845 0.3862
3260.765245 0.3879 0.3895 0.3912 0.3929 0.3946
3265.783733 0.3962 0.3978 0.3994 0.4009 0.4025
3270.802221 0.4040 0.4055 0.4070 0.4086 0.4101
3275.820710 0.4116 0.4131 0.4145 0.4159 0.4173
3280.839198 0.4187 0.4201 0.4214 0.4228 0.4242
3285.857686 0.4256 0.4270 0.4284 0.4297 0.4311
3290.876174 0.4325 0.4339 0.4353 0.4367 0.4381
3295.894662 0.4394 0.4408 0.4422 0.4436 0.4450
3300.913150 0.4464 0.4478 0.4491 0.4505 0.4519
3305.931638 0.4532 0.4546 0.4559 0.4573 0.4586
3310.950126 0.4599 0.4612 0.4625 0.4638 0.4651
3315.968614 0.4664 0.4676 0.4689 0.4703 0.4716
3320.987103 0.4729 0.4742 0.4755 0.4767 0.4780
3326.005591 0.4793 0.4805 0.4817 0.4829 0.4841
3331.024079 0.4853 0.4865 0.4878 0.4890 0.4902
3336.042567 0.4914 0.4926 0.4938 0.4950 0.4963
3341.061055 0.4974 0.4986 0.4997 0.5009 0.5020
3346.079543 0.5032 0.5043 0.5055 0.5066 0.5078
3351.098031 0.5089 0.5101 0.5114 0.5127 0.5140
3356.116519 0.5154 0.5167 0.5180 0.5193 0.5206
3361.135007 0.5219 0.5233 0.5246 0.5259 0.5272
3366.153495 0.5285 0.5298 0.5312 0.5325 0.5338
3371.171984 0.5351 0.5363 0.5376 0.5388 0.5400
3376.190472 0.5413 0.5425 0.5437 0.5449 0.5461
3381.208960 0.5474 0.5487 0.5499 0.5511 0.5523
3386.227448 0.5536 0.5548 0.5560 0.5572 0.5585
3391.245936 0.5597 0.5609 0.5621 0.5634 0.5646
3396.264424 0.5658 0.5670 0.5683 0.5695 0.5707
3401.282912 0.5719 0.5731 0.5742 0.5754 0.5765
3406.301400 0.5776 0.5787 0.5798 0.5809 0.5820
3411.319888 0.5831 0.5842 0.5853 0.5864 0.5875
3416.338377 0.5886 0.5897 0.5908 0.5919 0.5932
3421.356865 0.5945 0.5957 0.5970 0.5983 0.5995
3426.375353 0.6008 0.6021 0.6033 0.6046 0.6059
3431.393841 0.6072 0.6084 0.6097 0.6110 0.6122
3436.412329 0.6135 0.6147 0.6159 0.6171 0.6183
3441.430817 0.6195 0.6208 0.6220 0.6232 0.6244
3446.449305 0.6256 0.6268 0.6280 0.6292 0.6304
3451.467793 0.6316 0.6328 0.6339 0.6350 0.6360
3456.486281 0.6371 0.6381 0.6391 0.6401 0.6411
3461.504770 0.6421 0.6431 0.6441 0.6450 0.6460
3466.523258 0.6470 0.6479 0.6489 0.6499 0.6509
3471.541746 0.6518 0.6528 0.6537 0.6545 0.6553
3476.560234 0.6560 0.6568 0.6576 0.6583 0.6591
3481.578722 0.6599 0.6606 0.6614 0.6622 0.6630
3486.597210 0.6637 0.6646 0.6657 0.6671 0.6686
3491.615698 0.6700 0.6714 0.6728 0.6741 0.6753
3496.634186 0.6765 0.6777 0.6789 0.6801 0.6813
3501.652674 0.6824 0.6836 0.6848 0.6859 0.6869
3506.671163 0.6878 0.6888 0.6897 0.6906 0.6916
3511.689651 0.6925 0.6935 0.6944 0.6954 0.6963
3516.708139 0.6973 0.6982 0.6992 0.7001 0.7010
3521.726627 0.7020 0.7029 0.7038 0.7048 0.7057
3526.745115 0.7067 0.7076 0.7085 0.7094 0.7102
3531.763603 0.7111 0.7120 0.7128 0.7137 0.7145
3536.782091 0.7154 0.7163 0.7171 0.7180 0.7188
3541.800579 0.7197 0.7206 0.7215 0.7224 0.7233
3546.819067 0.7242 0.7250 0.7259 0.7268 0.7277
3551.837556 0.7286 0.7295 0.7304 0.7313 0.7322
3556.856044 0.7330 0.7338 0.7346 0.7355 0.7363
3561.874532 0.7371 0.7379 0.7387 0.7396 0.7404
3566.893020 0.7412 0.7420 0.7428 0.7436 0.7444
3571.911508 0.7451 0.7459 0.7467 0.7475 0.7482
3576.929996 0.7490 0.7498 0.7506 0.7513 0.7521
3581.948484 0.7529 0.7537 0.7544 0.7552 0.7559
3586.966972 0.7566 0.7574 0.7581 0.7589 0.7596
3591.985460 0.7603 0.7611 0.7618 0.7625 0.7633
3597.003948 0.7640 0.7648 0.7655 0.7662 0.7669
3602.022437 0.7677 0.7684 0.7691 0.7698 0.7705
3607.040925 0.7712 0.7719 0.7727 0.7734 0.7741
3612.059413 0.7748 0.7755 0.7762 0.7769 0.7776
3617.077901 0.7783 0.7789 0.7796 0.7802 0.7809
3622.096389 0.7815 0.7822 0.7828 0.7835 0.7841
3627.114877 0.7848 0.7854 0.7860 0.7867 0.7873
3632.133365 0.7880 0.7886 0.7893 0.7899 0.7906
3637.151853 0.7911 0.7915 0.7919 0.7923 0.7927
3642.170341 0.7931 0.7935 0.7939 0.7943 0.7947
3647.188830 0.7951 0.7955 0.7959 0.7963 0.7967
3652.207318 0.7971 0.7974 0.7976 0.7979 0.7982
3657.225806 0.7985 0.7988 0.7990 0.7993 0.7996
3662.244294 0.7998 0.8001 0.8004 0.8006 0.8009
3667.262782 0.8012 0.8015 0.8017 0.8020 0.8024
3672.281270 0.8027 0.8031 0.8034 0.8037 0.8041
3677.299758 0.8044 0.8048 0.8051 0.8055 0.8058
3682.318246 0.8062 0.8065 0.8069 0.8072 0.8075
3687.336734 0.8079 0.8082 0.8086 0.8089 0.8093
3692.355223 0.8096 0.8100 0.8103 0.8107 0.8110
3697.373711 0.8113 0.8117 0.8120 0.8124 0.8127
3702.392199 0.8131 0.8134 0.8136 0.8138 0.8140
3707.410687 0.8142 0.8144 0.8146 0.8148 0.8150
3712.429175 0.8152 0.8154 0.8156 0.8158 0.8160
3717.447663 0.8162 0.8164 0.8165 0.8165 0.8165
3722.466151 0.8165 0.8165 0.8165 0.8165 0.8165
3727.484639 0.8166 0.8166 0.8166 0.8166 0.8166
3732.503127 0.8166 0.8166 0.8166 0.8166 0.8166
3737.521616 0.8166 0.8166 0.8166 0.8166 0.8166
3742.540104 0.8166 0.8166 0.8165 0.8165 0.8165
3747.558592 0.8164 0.8164 0.8164 0.8163 0.8163
3752.577080 0.8163 0.8162 0.8162 0.8162 0.8161
3757.595568 0.8161 0.8161 0.8161 0.8160 0.8160
3762.614056 0.8160 0.8159 0.8159 0.8159 0.8158
3767.632544 0.8158 0.8158 0.8158 0.8157 0.8157
3772.651032 0.8157 0.8156 0.8156 0.8156 0.8156
3777.669520 0.8155 0.8155 0.8155 0.8154 0.8154
3782.688009 0.8154 0.8154 0.8153 0.8153 0.8153
3787.706497 0.8152 0.8152 0.8152 0.8152 0.8151
3792.724985 0.8151 0.8151 0.8151 0.8151 0.8150
3797.743473 0.8150 0.8150 0.8150 0.8150 0.8149
3802.761961 0.8149 0.8149 0.8149 0.8149 0.8148
3807.780449 0.8148 0.8148 0.8149 0.8149 0.8150
3812.798937 0.8151 0.8151 0.8152 0.8153 0.8154
3817.817425 0.8154 0.8155 0.8156 0.8158 0.8162
3822.835913 0.8167 0.8171 0.8176 0.8180 0.8184
3827.854402 0.8189 0.8193 0.8193 0.8197 0.8200
3832.872890 0.8203 0.8205 0.8206 0.8208 0.8211
3837.891378 0.8213 0.8215 0.8215 0.8214 0.8213
3842.909866 0.8211 0.8210 0.8209 0.8208 0.8206
3847.928354 0.8205 0.8203 0.8199 0.8195 0.8191
3852.946842 0.8186 0.8182 0.8178 0.8174 0.8169
3857.965330 0.8165 0.8161 0.8158 0.8155 0.8154
3862.983818 0.8152 0.8150 0.8149 0.8147 0.8146
3868.002306 0.8144 0.8142 0.8141 0.8139 0.8138
3873.020794 0.8138 0.8139 0.8139 0.8139 0.8140
3878.039283 0.8140 0.8140 0.8141 0.8141 0.8141
3883.057771 0.8142 0.8142 0.8142 0.8142 0.8142
3888.076259 0.8142 0.8142 0.8142 0.8142 0.8142
3893.094747 0.8142 0.8143 0.8143 0.8143 0.8143
3898.113235 0.8143 0.8143 0.8143 0.8143 0.8142
3903.131723 0.8142 0.8142 0.8142 0.8142 0.8141
3908.150211 0.8141 0.8141 0.8141 0.8141 0.8140
3913.168699 0.8140 0.8140 0.8140 0.8140 0.8140
3918.187187 0.8139 0.8139 0.8137 0.8136 0.8135
3923.205676 0.8134 0.8133 0.8132 0.8130 0.8129
3928.224164 0.8128 0.8127 0.8126 0.8124 0.8123
3933.242652 0.8121 0.8119 0.8118 0.8116 0.8114
3938.261140 0.8113 0.8111 0.8109 0.8109 0.8112
3943.279628 0.8114 0.8116 0.8118 0.8120 0.8124
3948.298116 0.8128 0.8132 0.8136 0.8141 0.8144
3953.316604 0.8145 0.8147 0.8148 0.8149 0.8150
3958.335092 0.8151 0.8152 0.8151 0.8150 0.8149
3963.353580 0.8148 0.8147 0.8146 0.8146 0.8145
3968.372069 0.8143 0.8142 0.8141 0.8140 0.8138
3973.390557 0.8137 0.8136 0.8134 0.8133 0.8132
3978.409045 0.8131 0.8129 0.8128 0.8127 0.8125
3983.427533 0.8124 0.8123 0.8122 0.8122 0.8122
3988.446021 0.8122 0.8123 0.8123 0.8123 0.8124
3993.464509 0.8124 0.8124 0.8125 0.8125 0.8125
3998.482997 0.8126 0.8126 0.8126 0.8127 0.8127
4003.501485 0.8127 0.8127 0.8128 0.8128 0.8128
4008.519973 0.8129 0.8129 0.8129 0.8130 0.8130
##END=
