##TITLE=CALCIUM SALICYLATE
##JCAMP-DX=4.24
##DATA TYPE=INFRARED SPECTRUM
##CLASS=COBLENTZ
##ORIGIN=DOW CHEMICAL COMPANY
##OWNER=COBLENTZ SOCIETY
Collection (C) 2018 copyright by the U.S. Secretary of Commerce
on behalf of the United States of America. All rights reserved.
##DATE=Not specified, most likely prior to 1970
##MOLFORM=C14 H10 O6 Ca
##SOURCE REFERENCE=COBLENTZ NO. 2306
##$NIST ID=B6002306
##$NIST SOURCE=COBLENTZ
##$NIST IMAGE=cob2306
##SPECTROMETER/DATA SYSTEM=Not specified, most likely a prism, grating, or hybrid spectrometer.
##STATE=SOLID (MINERAL OIL MULL)
##PATH LENGTH=
$$SPECTRAL CONTAMINATION DUE TO OIL AROUND 2900 CM^-^1
##SAMPLING PROCEDURE=TRANSMISSION
##RESOLUTION=4
##DATA PROCESSING=DIGITIZED BY NIST FROM HARD COPY
##XUNITS=MICROMETERS
##YUNITS=TRANSMITTANCE
##XFACTOR=1.000000
##YFACTOR=1
##DELTAX=000.006667
##FIRSTX=2.02
##LASTX=15.813
##FIRSTY=0.589
##MAXX=15.813
##MINX=2.02
##MAXY=0.847
##MINY=0.054
##NPOINTS=2070
##XYDATA=(X++(Y..Y))
2.020000 0.5890 0.5910 0.5910 0.5940 0.5960
2.053349 0.5960 0.5960 0.5970 0.5970 0.5990
2.087000 0.5990 0.6020 0.6040 0.6040 0.6050
2.120349 0.6050 0.6050 0.6070 0.6070 0.6090
2.153000 0.6090 0.6100 0.6120 0.6140 0.6170
2.186349 0.6190 0.6200 0.6240 0.6240 0.6240
2.220000 0.6240 0.6240 0.6250 0.6270 0.6270
2.253349 0.6270 0.6290 0.6300 0.6300 0.6300
2.287000 0.6300 0.6290 0.6270 0.6270 0.6250
2.320349 0.6250 0.6250 0.6270 0.6290 0.6300
2.353000 0.6300 0.6320 0.6340 0.6350 0.6350
2.386349 0.6390 0.6400 0.6400 0.6420 0.6440
2.420000 0.6440 0.6440 0.6450 0.6450 0.6450
2.453349 0.6450 0.6470 0.6490 0.6500 0.6520
2.487000 0.6520 0.6530 0.6550 0.6570 0.6580
2.520349 0.6620 0.6630 0.6650 0.6680 0.6720
2.553000 0.6730 0.6750 0.6750 0.6770 0.6780
2.586349 0.6820 0.6830 0.6900 0.6930 0.6930
2.620000 0.6950 0.6950 0.6970 0.6970 0.6970
2.653349 0.6980 0.6980 0.6980 0.7000 0.7000
2.687000 0.7000 0.7010 0.7010 0.7030 0.7050
2.720349 0.7100 0.7110 0.7110 0.7130 0.7130
2.753000 0.7130 0.7150 0.7150 0.7150 0.7130
2.786349 0.7110 0.7050 0.6930 0.6800 0.6630
2.820000 0.6420 0.6190 0.5920 0.5620 0.5410
2.853349 0.4950 0.4630 0.4000 0.3520 0.3290
2.887000 0.2880 0.2480 0.2230 0.1970 0.1970
2.920349 0.1980 0.2160 0.2260 0.2400 0.2560
2.953000 0.2740 0.2980 0.3210 0.3460 0.3700
2.986349 0.3950 0.4180 0.4420 0.4630 0.4810
3.020000 0.4960 0.5060 0.5060 0.5140 0.5210
3.053349 0.5260 0.5330 0.5360 0.5410 0.5440
3.087000 0.5460 0.5460 0.5460 0.5410 0.5390
3.120349 0.5380 0.5360 0.5360 0.5380 0.5380
3.153000 0.5390 0.5410 0.5430 0.5460 0.5480
3.186349 0.5510 0.5520 0.5520 0.5540 0.5540
3.220000 0.5570 0.5570 0.5590 0.5590 0.5620
3.253349 0.5620 0.5620 0.5620 0.5620 0.5620
3.287000 0.5610 0.5610 0.5590 0.5560 0.5520
3.320349 0.5490 0.5480 0.5430 0.5410 0.5390
3.353000 0.5340 0.5230 0.4910 0.4470 0.3870
3.386349 0.2260 0.1920 0.1520 0.1120 0.0740
3.420000 0.0710 0.0660 0.0560 0.0540 0.0540
3.453349 0.0570 0.0710 0.0840 0.0990 0.1150
3.487000 0.1300 0.1450 0.1580 0.1700 0.1770
3.520349 0.1780 0.1800 0.1870 0.2000 0.2280
3.553000 0.2840 0.3590 0.4370 0.5060 0.5510
3.586349 0.5740 0.6000 0.6290 0.6520 0.6670
3.620000 0.6680 0.6750 0.6800 0.6850 0.6900
3.653349 0.6920 0.6930 0.6950 0.6970 0.6980
3.687000 0.6980 0.7000 0.7000 0.7010 0.7010
3.720349 0.7030 0.7030 0.7050 0.7060 0.7080
3.753000 0.7110 0.7130 0.7160 0.7180 0.7180
3.786349 0.7200 0.7210 0.7230 0.7260 0.7300
3.820000 0.7310 0.7310 0.7330 0.7330 0.7330
3.853349 0.7350 0.7350 0.7360 0.7360 0.7380
3.887000 0.7380 0.7410 0.7410 0.7450 0.7460
3.920349 0.7480 0.7500 0.7510 0.7510 0.7530
3.953000 0.7540 0.7560 0.7590 0.7610 0.7630
3.986349 0.7660 0.7680 0.7690 0.7710 0.7710
4.020000 0.7710 0.7710 0.7710 0.7710 0.7710
4.053349 0.7710 0.7710 0.7710 0.7710 0.7730
4.087000 0.7740 0.7740 0.7780 0.7790 0.7790
4.120349 0.7810 0.7830 0.7840 0.7860 0.7860
4.153000 0.7860 0.7860 0.7860 0.7860 0.7860
4.186349 0.7880 0.7910 0.7940 0.7990 0.8010
4.220000 0.8020 0.8020 0.8040 0.8040 0.8040
4.253349 0.8040 0.8040 0.8040 0.8040 0.8040
4.287000 0.8040 0.8040 0.8020 0.8010 0.7990
4.320349 0.7980 0.7940 0.7940 0.7930 0.7930
4.353000 0.7930 0.7930 0.7930 0.7930 0.7930
4.386349 0.7930 0.7930 0.7930 0.7930 0.7930
4.420000 0.7930 0.7910 0.7890 0.7890 0.7890
4.453349 0.7890 0.7890 0.7890 0.7910 0.7930
4.487000 0.7930 0.7930 0.7930 0.7930 0.7940
4.520349 0.7940 0.7940 0.7940 0.7940 0.7940
4.553000 0.7960 0.7960 0.7960 0.7960 0.7980
4.586349 0.7980 0.7980 0.7980 0.7990 0.7990
4.620000 0.7990 0.7990 0.8010 0.8010 0.8010
4.653349 0.8010 0.8010 0.8010 0.8010 0.8020
4.687000 0.8020 0.8010 0.8010 0.8010 0.8020
4.720349 0.8020 0.8010 0.8010 0.7990 0.7990
4.753000 0.7990 0.7990 0.7990 0.7990 0.7990
4.786349 0.7990 0.8010 0.8020 0.8040 0.8090
4.820000 0.8110 0.8110 0.8120 0.8140 0.8140
4.853349 0.8140 0.8140 0.8160 0.8160 0.8160
4.887000 0.8160 0.8160 0.8170 0.8170 0.8190
4.920349 0.8190 0.8190 0.8190 0.8210 0.8210
4.953000 0.8220 0.8240 0.8260 0.8260 0.8270
4.986349 0.8270 0.8270 0.8270 0.8270 0.8290
5.020000 0.8290 0.8290 0.8290 0.8290 0.8310
5.053349 0.8310 0.8320 0.8320 0.8320 0.8320
5.087000 0.8320 0.8310 0.8310 0.8290 0.8290
5.120349 0.8290 0.8270 0.8260 0.8240 0.8220
5.153000 0.8210 0.8190 0.8190 0.8190 0.8190
5.186349 0.8190 0.8220 0.8240 0.8260 0.8290
5.220000 0.8310 0.8310 0.8310 0.8320 0.8340
5.253349 0.8340 0.8360 0.8360 0.8390 0.8390
5.287000 0.8410 0.8420 0.8420 0.8420 0.8410
5.320349 0.8390 0.8390 0.8390 0.8410 0.8410
5.353000 0.8420 0.8420 0.8410 0.8410 0.8390
5.386349 0.8360 0.8340 0.8320 0.8320 0.8320
5.420000 0.8340 0.8360 0.8360 0.8360 0.8340
5.453349 0.8320 0.8320 0.8320 0.8310 0.8310
5.487000 0.8310 0.8310 0.8320 0.8340 0.8370
5.520349 0.8420 0.8440 0.8440 0.8460 0.8460
5.553000 0.8460 0.8460 0.8460 0.8460 0.8470
5.586349 0.8470 0.8470 0.8470 0.8470 0.8470
5.620000 0.8470 0.8470 0.8470 0.8470 0.8470
5.653349 0.8440 0.8440 0.8440 0.8420 0.8410
5.687000 0.8410 0.8410 0.8410 0.8410 0.8420
5.720349 0.8420 0.8420 0.8440 0.8440 0.8440
5.753000 0.8440 0.8440 0.8440 0.8420 0.8390
5.786349 0.8370 0.8360 0.8340 0.8320 0.8320
5.820000 0.8320 0.8340 0.8360 0.8370 0.8390
5.853349 0.8390 0.8390 0.8390 0.8390 0.8370
5.887000 0.8370 0.8360 0.8310 0.8270 0.8220
5.920349 0.8190 0.8160 0.8120 0.8090 0.8040
5.953000 0.8020 0.8020 0.7990 0.7980 0.7930
5.986349 0.7890 0.7840 0.7790 0.7730 0.7680
6.020000 0.7590 0.7590 0.7540 0.7460 0.7360
6.053349 0.7200 0.6970 0.6700 0.6340 0.5910
6.087000 0.5390 0.4860 0.4370 0.3900 0.3540
6.120349 0.3290 0.2960 0.2660 0.2430 0.2410
6.153000 0.2430 0.2460 0.2680 0.2860 0.3040
6.186349 0.3270 0.3570 0.3970 0.4470 0.4500
6.220000 0.4500 0.3620 0.2990 0.2400 0.2130
6.253349 0.2130 0.2160 0.2450 0.2610 0.2810
6.287000 0.3070 0.3370 0.3690 0.3920 0.4120
6.320349 0.4280 0.4430 0.4560 0.4660 0.4750
6.353000 0.4780 0.4760 0.4610 0.4470 0.4150
6.386349 0.4000 0.4000 0.3670 0.3190 0.2660
6.420000 0.2260 0.2080 0.1730 0.1450 0.1290
6.453349 0.1240 0.1220 0.1220 0.1290 0.1450
6.487000 0.1570 0.1750 0.1970 0.2250 0.2530
6.520349 0.2810 0.3090 0.3360 0.3550 0.3800
6.553000 0.3990 0.4150 0.4280 0.4450 0.4650
6.586349 0.4750 0.4900 0.5090 0.5260 0.5410
6.620000 0.5460 0.5540 0.5560 0.5640 0.5660
6.653349 0.5670 0.5640 0.5490 0.5130 0.4700
6.687000 0.4300 0.4000 0.3640 0.3360 0.3340
6.720349 0.3360 0.3420 0.3520 0.3670 0.3800
6.753000 0.3890 0.3900 0.3890 0.3720 0.3270
6.786349 0.2780 0.2230 0.1440 0.1050 0.0860
6.820000 0.0770 0.0760 0.0770 0.0910 0.1020
6.853349 0.1200 0.1450 0.1750 0.2100 0.2450
6.887000 0.2730 0.2990 0.3240 0.3460 0.3640
6.920349 0.3820 0.3950 0.4080 0.4170 0.4250
6.953000 0.4350 0.4470 0.4510 0.4560 0.4580
6.986349 0.4580 0.4530 0.4450 0.4400 0.4380
7.020000 0.4320 0.4220 0.4100 0.3920 0.3720
7.053349 0.3500 0.3240 0.2940 0.2560 0.2260
7.087000 0.1870 0.1600 0.1390 0.1200 0.1050
7.120349 0.0990 0.0970 0.0970 0.1000 0.1200
7.153000 0.1350 0.1550 0.1820 0.2100 0.2380
7.186349 0.2630 0.2810 0.2940 0.3160 0.3220
7.220000 0.3220 0.3220 0.3210 0.3140 0.3060
7.253349 0.2980 0.2890 0.2880 0.2880 0.2890
7.287000 0.2960 0.3040 0.3160 0.3260 0.3360
7.320349 0.3460 0.3550 0.3700 0.3800 0.3940
7.353000 0.4050 0.4170 0.4270 0.4370 0.4470
7.386349 0.4550 0.4630 0.4710 0.4800 0.4880
7.420000 0.4960 0.5040 0.5130 0.5210 0.5290
7.453349 0.5380 0.5480 0.5560 0.5670 0.5770
7.487000 0.5870 0.5970 0.6050 0.6150 0.6220
7.520349 0.6290 0.6350 0.6400 0.6450 0.6500
7.553000 0.6530 0.6550 0.6550 0.6550 0.6520
7.586349 0.6420 0.6390 0.6270 0.6150 0.6100
7.620000 0.6090 0.6100 0.6190 0.6250 0.6300
7.653349 0.6350 0.6420 0.6490 0.6570 0.6650
7.687000 0.6720 0.6780 0.6820 0.6870 0.6900
7.720349 0.6950 0.6980 0.7000 0.7030 0.7060
7.753000 0.7110 0.7150 0.7160 0.7200 0.7210
7.786349 0.7230 0.7250 0.7250 0.7280 0.7280
7.820000 0.7250 0.7230 0.7160 0.7100 0.6980
7.853349 0.6920 0.6780 0.6720 0.6630 0.6550
7.887000 0.6420 0.6290 0.6100 0.5910 0.5640
7.920349 0.5360 0.5010 0.4610 0.4150 0.3740
7.953000 0.3220 0.2760 0.2380 0.2060 0.1920
7.986349 0.1900 0.1930 0.2050 0.2230 0.2430
8.020000 0.2640 0.2830 0.3110 0.3390 0.3700
8.053349 0.4000 0.4280 0.4530 0.4760 0.4950
8.087000 0.5040 0.5180 0.5290 0.5380 0.5430
8.120349 0.5490 0.5520 0.5570 0.5620 0.5660
8.153000 0.5690 0.5720 0.5760 0.5790 0.5820
8.186349 0.5870 0.5910 0.5940 0.5990 0.6090
8.220000 0.6170 0.6250 0.6300 0.6390 0.6450
8.253349 0.6500 0.6550 0.6600 0.6650 0.6700
8.287000 0.6730 0.6780 0.6830 0.6880 0.6930
8.320349 0.6970 0.6970 0.7000 0.7010 0.7030
8.353000 0.7050 0.7050 0.7060 0.7060 0.7100
8.386349 0.7100 0.7110 0.7110 0.7130 0.7130
8.420000 0.7150 0.7160 0.7160 0.7180 0.7200
8.453349 0.7210 0.7210 0.7230 0.7250 0.7250
8.487000 0.7260 0.7280 0.7300 0.7300 0.7300
8.520349 0.7250 0.7100 0.6920 0.6650 0.6350
8.553000 0.6020 0.5720 0.5410 0.5130 0.4860
8.586349 0.4650 0.4600 0.4600 0.4650 0.4830
8.620000 0.4950 0.5000 0.5110 0.5410 0.5640
8.653349 0.5820 0.5990 0.6150 0.6370 0.6620
8.687000 0.6820 0.6930 0.6970 0.7030 0.7050
8.720349 0.7080 0.7110 0.7150 0.7180 0.7210
8.753000 0.7260 0.7310 0.7350 0.7360 0.7380
8.786349 0.7400 0.7410 0.7430 0.7450 0.7480
8.820000 0.7480 0.7500 0.7500 0.7510 0.7510
8.853349 0.7530 0.7530 0.7540 0.7590 0.7610
8.887000 0.7630 0.7640 0.7660 0.7680 0.7680
8.920349 0.7690 0.7690 0.7710 0.7710 0.7730
8.953000 0.7730 0.7730 0.7730 0.7730 0.7740
8.986349 0.7740 0.7740 0.7740 0.7740 0.7740
9.020000 0.7740 0.7740 0.7740 0.7740 0.7740
9.053349 0.7740 0.7730 0.7730 0.7730 0.7710
9.087000 0.7710 0.7690 0.7680 0.7660 0.7630
9.120349 0.7630 0.7610 0.7590 0.7590 0.7610
9.153000 0.7610 0.7640 0.7660 0.7680 0.7690
9.186349 0.7710 0.7710 0.7710 0.7730 0.7730
9.220000 0.7740 0.7740 0.7740 0.7740 0.7740
9.253349 0.7740 0.7740 0.7740 0.7760 0.7780
9.287000 0.7780 0.7780 0.7780 0.7780 0.7780
9.320349 0.7780 0.7790 0.7790 0.7790 0.7810
9.353000 0.7810 0.7810 0.7830 0.7830 0.7830
9.386349 0.7830 0.7840 0.7840 0.7840 0.7840
9.420000 0.7860 0.7860 0.7860 0.7860 0.7880
9.453349 0.7880 0.7880 0.7880 0.7890 0.7890
9.487000 0.7890 0.7890 0.7890 0.7910 0.7910
9.520349 0.7910 0.7910 0.7890 0.7880 0.7880
9.553000 0.7840 0.7810 0.7760 0.7660 0.7530
9.586349 0.7280 0.7150 0.7000 0.6830 0.6580
9.620000 0.6570 0.6580 0.6620 0.6680 0.6770
9.653349 0.6870 0.7000 0.7110 0.7250 0.7360
9.687000 0.7460 0.7500 0.7540 0.7590 0.7630
9.720349 0.7660 0.7690 0.7710 0.7730 0.7740
9.753000 0.7760 0.7780 0.7780 0.7790 0.7810
9.786349 0.7840 0.7840 0.7860 0.7860 0.7880
9.820000 0.7880 0.7880 0.7880 0.7880 0.7880
9.853349 0.7880 0.7880 0.7880 0.7880 0.7880
9.887000 0.7880 0.7880 0.7880 0.7890 0.7890
9.920349 0.7890 0.7890 0.7910 0.7910 0.7910
9.953000 0.7910 0.7910 0.7910 0.7910 0.7910
9.986349 0.7910 0.7910 0.7910 0.7910 0.7910
10.020000 0.7910 0.7910 0.7910 0.7910 0.7910
10.053349 0.7910 0.7910 0.7890 0.7890 0.7880
10.087000 0.7860 0.7840 0.7830 0.7810 0.7780
10.120349 0.7740 0.7710 0.7660 0.7630 0.7610
10.153000 0.7590 0.7580 0.7580 0.7610 0.7640
10.186349 0.7690 0.7710 0.7730 0.7780 0.7830
10.220000 0.7840 0.7840 0.7840 0.7840 0.7840
10.253349 0.7840 0.7840 0.7830 0.7830 0.7810
10.287000 0.7810 0.7790 0.7760 0.7730 0.7660
10.320349 0.7590 0.7480 0.7410 0.7250 0.7130
10.353000 0.7050 0.6980 0.6970 0.6980 0.7010
10.386349 0.7050 0.7110 0.7210 0.7330 0.7500
10.420000 0.7590 0.7690 0.7730 0.7780 0.7790
10.453349 0.7790 0.7810 0.7830 0.7830 0.7860
10.487000 0.7880 0.7880 0.7890 0.7890 0.7890
10.520349 0.7910 0.7910 0.7910 0.7930 0.7930
10.553000 0.7930 0.7930 0.7930 0.7930 0.7930
10.586349 0.7940 0.7940 0.7940 0.7940 0.7940
10.620000 0.7940 0.7960 0.7960 0.7960 0.7960
10.653349 0.7960 0.7960 0.7980 0.7980 0.7980
10.687000 0.7980 0.7980 0.7980 0.7980 0.7980
10.720349 0.7980 0.7980 0.7980 0.7980 0.7980
10.753000 0.7990 0.7990 0.8010 0.8010 0.8010
10.786349 0.8020 0.8020 0.8020 0.8020 0.8040
10.820000 0.8040 0.8060 0.8060 0.8060 0.8060
10.853349 0.8060 0.8070 0.8070 0.8070 0.8070
10.887000 0.8070 0.8070 0.8070 0.8070 0.8070
10.920349 0.8070 0.8070 0.8070 0.8070 0.8070
10.953000 0.8070 0.8070 0.8090 0.8090 0.8090
10.986349 0.8090 0.8090 0.8090 0.8110 0.8110
11.020000 0.8110 0.8110 0.8120 0.8120 0.8120
11.053349 0.8120 0.8120 0.8120 0.8120 0.8120
11.087000 0.8120 0.8120 0.8120 0.8120 0.8120
11.120349 0.8120 0.8120 0.8120 0.8120 0.8120
11.153000 0.8120 0.8120 0.8110 0.8110 0.8110
11.186349 0.8110 0.8090 0.8090 0.8090 0.8090
11.220000 0.8070 0.8070 0.8070 0.8060 0.8040
11.253349 0.8040 0.8020 0.8010 0.8010 0.7990
11.287000 0.7980 0.7960 0.7940 0.7910 0.7880
11.320349 0.7810 0.7760 0.7680 0.7580 0.7480
11.353000 0.7360 0.7210 0.7060 0.6850 0.6600
11.386349 0.6300 0.5990 0.5640 0.5290 0.4980
11.420000 0.4780 0.4750 0.4780 0.4850 0.4950
11.453349 0.5110 0.5340 0.5590 0.5840 0.6040
11.487000 0.6250 0.6270 0.6290 0.6250 0.6000
11.520349 0.5840 0.5540 0.5230 0.5180 0.5180
11.553000 0.5190 0.5290 0.5430 0.5590 0.5770
11.586349 0.6000 0.6240 0.6500 0.6780 0.7060
11.620000 0.7360 0.7510 0.7610 0.7690 0.7730
11.653349 0.7780 0.7830 0.7860 0.7880 0.7890
11.687000 0.7910 0.7910 0.7930 0.7930 0.7940
11.720349 0.7960 0.7960 0.7960 0.7960 0.7980
11.753000 0.7980 0.7980 0.7980 0.7990 0.7990
11.786349 0.7990 0.7990 0.7990 0.7990 0.7990
11.820000 0.7990 0.7990 0.7980 0.7960 0.7960
11.853349 0.7940 0.7940 0.7940 0.7930 0.7930
11.887000 0.7930 0.7910 0.7910 0.7910 0.7910
11.920349 0.7910 0.7910 0.7910 0.7910 0.7910
11.953000 0.7910 0.7890 0.7880 0.7880 0.7840
11.986349 0.7830 0.7830 0.7810 0.7790 0.7780
12.020000 0.7760 0.7730 0.7680 0.7640 0.7630
12.053349 0.7590 0.7560 0.7530 0.7500 0.7480
12.087000 0.7460 0.7430 0.7400 0.7380 0.7350
12.120349 0.7310 0.7260 0.7200 0.7080 0.6920
12.153000 0.6730 0.6530 0.6300 0.6090 0.5840
12.186349 0.5610 0.5390 0.5260 0.5160 0.5140
12.220000 0.5160 0.5230 0.5310 0.5340 0.5380
12.253349 0.5410 0.5430 0.5380 0.5310 0.5230
12.287000 0.5130 0.5080 0.5060 0.5060 0.5080
12.320349 0.5130 0.5180 0.5240 0.5360 0.5480
12.353000 0.5640 0.5820 0.6020 0.6170 0.6300
12.386349 0.6400 0.6520 0.6600 0.6680 0.6770
12.420000 0.6850 0.6920 0.6930 0.6980 0.7000
12.453349 0.7010 0.7030 0.7080 0.7080 0.7100
12.487000 0.7110 0.7130 0.7160 0.7180 0.7210
12.520349 0.7230 0.7250 0.7260 0.7280 0.7280
12.553000 0.7300 0.7310 0.7310 0.7330 0.7330
12.586349 0.7330 0.7350 0.7350 0.7350 0.7350
12.620000 0.7350 0.7350 0.7350 0.7350 0.7350
12.653349 0.7330 0.7310 0.7300 0.7300 0.7300
12.687000 0.7300 0.7280 0.7280 0.7280 0.7280
12.720349 0.7260 0.7260 0.7250 0.7230 0.7210
12.753000 0.7200 0.7200 0.7180 0.7160 0.7130
12.786349 0.7110 0.7100 0.7080 0.7050 0.7030
12.820000 0.7010 0.6970 0.6930 0.6900 0.6880
12.853349 0.6870 0.6830 0.6800 0.6770 0.6750
12.887000 0.6720 0.6680 0.6650 0.6630 0.6600
12.920349 0.6550 0.6520 0.6470 0.6400 0.6340
12.953000 0.6270 0.6190 0.6090 0.5990 0.5860
12.986349 0.5720 0.5570 0.5410 0.5230 0.5030
13.020000 0.4810 0.4580 0.4320 0.4200 0.3920
13.053349 0.3650 0.3420 0.3190 0.3010 0.2830
13.087000 0.2660 0.2500 0.2350 0.2200 0.1980
13.120349 0.1920 0.1800 0.1720 0.1630 0.1530
13.153000 0.1450 0.1350 0.1300 0.1290 0.1290
13.186349 0.1300 0.1570 0.1720 0.1770 0.1800
13.220000 0.2150 0.2710 0.2940 0.3240 0.3590
13.253349 0.3920 0.4230 0.4450 0.4710 0.4950
13.287000 0.5160 0.5330 0.5480 0.5620 0.5740
13.320349 0.5840 0.5920 0.6000 0.6090 0.6170
13.353000 0.6250 0.6320 0.6390 0.6420 0.6470
13.386349 0.6500 0.6530 0.6550 0.6570 0.6580
13.420000 0.6600 0.6600 0.6600 0.6600 0.6600
13.453349 0.6600 0.6600 0.6580 0.6580 0.6580
13.487000 0.6580 0.6570 0.6550 0.6520 0.6520
13.520349 0.6490 0.6470 0.6470 0.6470 0.6450
13.553000 0.6450 0.6440 0.6420 0.6390 0.6390
13.586349 0.6350 0.6320 0.6290 0.6270 0.6270
13.620000 0.6250 0.6220 0.6200 0.6200 0.6190
13.653349 0.6150 0.6120 0.6100 0.6090 0.6040
13.687000 0.6020 0.6000 0.5990 0.5970 0.5960
13.720349 0.5890 0.5840 0.5810 0.5770 0.5760
13.753000 0.5720 0.5690 0.5660 0.5610 0.5610
13.786349 0.5590 0.5570 0.5560 0.5540 0.5520
13.820000 0.5510 0.5460 0.5390 0.5360 0.5340
13.853349 0.5330 0.5310 0.5280 0.5260 0.5210
13.887000 0.5190 0.5160 0.5140 0.5090 0.5060
13.920349 0.5000 0.4950 0.4860 0.4800 0.4710
13.953000 0.4630 0.4560 0.4480 0.4420 0.4320
13.986349 0.4220 0.4120 0.3990 0.3840 0.3670
14.020000 0.3620 0.3500 0.3360 0.3210 0.3110
14.053349 0.3060 0.3020 0.3020 0.3020 0.3020
14.087000 0.3020 0.3020 0.3060 0.3170 0.3270
14.120349 0.3370 0.3460 0.3520 0.3590 0.3670
14.153000 0.3740 0.3790 0.3850 0.3940 0.3990
14.186349 0.4050 0.4100 0.4130 0.4180 0.4220
14.220000 0.4250 0.4270 0.4270 0.4270 0.4270
14.253349 0.4270 0.4250 0.4230 0.4230 0.4220
14.287000 0.4220 0.4180 0.4180 0.4150 0.4150
14.320349 0.4130 0.4120 0.4100 0.4080 0.4050
14.353000 0.4030 0.4000 0.3990 0.3970 0.3950
14.386349 0.3920 0.3920 0.3900 0.3890 0.3870
14.420000 0.3850 0.3820 0.3800 0.3790 0.3770
14.453349 0.3740 0.3720 0.3690 0.3690 0.3670
14.487000 0.3670 0.3650 0.3650 0.3640 0.3640
14.520349 0.3620 0.3620 0.3600 0.3600 0.3590
14.553000 0.3590 0.3590 0.3590 0.3570 0.3570
14.586349 0.3570 0.3550 0.3550 0.3550 0.3540
14.620000 0.3540 0.3540 0.3540 0.3540 0.3540
14.653349 0.3500 0.3500 0.3500 0.3490 0.3490
14.687000 0.3470 0.3470 0.3460 0.3440 0.3420
14.720349 0.3390 0.3360 0.3360 0.3320 0.3310
14.753000 0.3270 0.3240 0.3210 0.3190 0.3160
14.786349 0.3120 0.3090 0.3060 0.3020 0.2980
14.820000 0.2930 0.2880 0.2810 0.2740 0.2680
14.853349 0.2640 0.2610 0.2590 0.2580 0.2540
14.887000 0.2530 0.2530 0.2510 0.2510 0.2510
14.920349 0.2510 0.2530 0.2530 0.2540 0.2580
14.953000 0.2610 0.2640 0.2690 0.2740 0.2790
14.986349 0.2840 0.2890 0.2940 0.2990 0.3060
15.020000 0.3090 0.3140 0.3190 0.3210 0.3220
15.053349 0.3240 0.3260 0.3290 0.3310 0.3320
15.087000 0.3340 0.3370 0.3410 0.3440 0.3470
15.120349 0.3490 0.3500 0.3520 0.3520 0.3550
15.153000 0.3590 0.3600 0.3620 0.3640 0.3650
15.186349 0.3670 0.3670 0.3690 0.3700 0.3720
15.220000 0.3720 0.3740 0.3740 0.3740 0.3750
15.253349 0.3750 0.3750 0.3770 0.3770 0.3770
15.287000 0.3770 0.3770 0.3770 0.3770 0.3770
15.320349 0.3770 0.3770 0.3770 0.3750 0.3750
15.353000 0.3750 0.3750 0.3750 0.3750 0.3750
15.386349 0.3740 0.3720 0.3720 0.3720 0.3720
15.420000 0.3700 0.3700 0.3700 0.3700 0.3690
15.453349 0.3690 0.3690 0.3690 0.3670 0.3670
15.487000 0.3670 0.3650 0.3640 0.3620 0.3620
15.520349 0.3600 0.3590 0.3590 0.3590 0.3590
15.553000 0.3570 0.3570 0.3570 0.3550 0.3550
15.586349 0.3550 0.3550 0.3540 0.3540 0.3540
15.620000 0.3520 0.3520 0.3520 0.3520 0.3520
15.653349 0.3520 0.3520 0.3520 0.3520 0.3520
15.687000 0.3520 0.3520 0.3520 0.3520 0.3520
15.720349 0.3520 0.3520 0.3520 0.3520 0.3520
15.753000 0.3520 0.3520 0.3520 0.3520 0.3520
15.786349 0.3520 0.3520 0.3520 0.3520 0.3520
##END=
