##TITLE=ETHANETHIOL, 2-(PURIN-8-YL)-
##JCAMP-DX=4.24
##DATA TYPE=INFRARED SPECTRUM
##CLASS=COBLENTZ III
##ORIGIN=SOUTHERN RESEARCH INSTITUTE
##OWNER=COBLENTZ SOCIETY
Collection (C) 2018 copyright by the U.S. Secretary of Commerce
on behalf of the United States of America. All rights reserved.
##DATE=1960/08/09
##NAMES=2-(7H-purin-8-yl)ethyl hydrosulfide
2-(7H-purin-8-yl)ethanethiol
##MOLFORM=C7 H8 N4 S
##SOURCE REFERENCE=COBLENTZ NO. 8305
##$NIST ID=B6008305
##$NIST SOURCE=COBLENTZ
##$NIST IMAGE=cob8305
##SPECTROMETER/DATA SYSTEM=PERKIN-ELMER 221 (GRATING)
##INSTRUMENT PARAMETERS=FILTER AT 2490, 980 CM^-^1. GRATING 4000-1428 CM^-^1, NaCl PRISM 1428-650 CM^-^1
##STATE=SOLID (0.8 mg / 650 mg KBr DISC)
$$SPECTRAL CONTAMINATION DUE TO H2O AROUND 3400 CM^-^1
##SAMPLING PROCEDURE=TRANSMISSION
##RESOLUTION=2
##DATA PROCESSING=DIGITIZED BY NIST FROM HARD COPY (FROM TWO SEGMENTS)
##XUNITS=1/CM
##YUNITS=TRANSMITTANCE
##XFACTOR=1.000000
##YFACTOR=1
##DELTAX=1.329535
##FIRSTX=652
##LASTX=3809.65
##FIRSTY=0.98
##MAXX=3809.65
##MINX=652
##MAXY=0.981992
##MINY=0.0626323
##NPOINTS=2376
##XYDATA=(X++(Y..Y))
652.000000 0.9800 0.9820 0.9810 0.9800 0.9780
658.647675 0.9770 0.9731 0.9720 0.9691 0.9651
665.295350 0.9611 0.9600 0.9571 0.9560 0.9531
671.943025 0.9501 0.9481 0.9442 0.9402 0.9363
678.590700 0.9332 0.9283 0.9243 0.9175 0.9114
685.238375 0.9018 0.8964 0.8447 0.8281 0.8424
691.886050 0.8586 0.8755 0.9015 0.9040 0.9040
698.533725 0.9040 0.9013 0.8992 0.8972 0.8952
705.181400 0.8923 0.8885 0.8845 0.8805 0.8765
711.829075 0.8743 0.8688 0.8431 0.8219 0.8071
718.476750 0.7930 0.7799 0.7610 0.7343 0.7148
725.124425 0.7095 0.7098 0.7233 0.7359 0.7512
731.772100 0.7697 0.7804 0.7820 0.7795 0.7757
738.419775 0.7734 0.7682 0.7638 0.7558 0.7492
745.067450 0.7368 0.7228 0.7113 0.7003 0.6587
751.715125 0.5589 0.4321 0.3310 0.2206 0.1059
758.362800 0.0767 0.0775 0.1086 0.1986 0.2762
765.010475 0.3359 0.3680 0.4001 0.4335 0.4464
771.658150 0.4095 0.3938 0.3945 0.4792 0.5523
778.305825 0.6108 0.6652 0.7144 0.7544 0.7856
784.953500 0.8054 0.8257 0.8334 0.8340 0.8340
791.601175 0.8340 0.8340 0.8340 0.8326 0.8313
798.248850 0.8303 0.8280 0.8263 0.8246 0.8200
804.896525 0.8153 0.8127 0.8107 0.8093 0.8064
811.544200 0.8004 0.7960 0.7943 0.7914 0.7868
818.191875 0.7812 0.7765 0.7744 0.7671 0.7574
824.839550 0.7490 0.7422 0.7338 0.7238 0.7151
831.487225 0.7102 0.7090 0.7096 0.7118 0.7130
838.134900 0.7172 0.7236 0.7272 0.7262 0.7174
844.782575 0.7056 0.6946 0.6848 0.6764 0.6702
851.430250 0.6663 0.6639 0.6636 0.6702 0.6795
858.077925 0.6913 0.7002 0.7036 0.7077 0.7138
864.725600 0.7175 0.7175 0.7170 0.7170 0.7170
871.373275 0.7170 0.7170 0.7170 0.7175 0.7180
878.020950 0.7190 0.7200 0.7200 0.7205 0.7225
884.668625 0.7240 0.7265 0.7344 0.7444 0.7529
891.316300 0.7666 0.7939 0.8120 0.8106 0.8076
897.963975 0.8046 0.7914 0.7702 0.7450 0.7187
904.611650 0.7023 0.6916 0.6914 0.7055 0.7232
911.259325 0.7273 0.7303 0.7420 0.7559 0.7574
917.907000 0.7584 0.7641 0.7723 0.7786 0.7871
924.554675 0.7921 0.7962 0.7984 0.7986 0.7980
931.202350 0.7968 0.7930 0.7880 0.7823 0.7753
937.850025 0.7687 0.7623 0.7512 0.7393 0.7387
944.497700 0.7510 0.7715 0.7758 0.7834 0.7949
951.145375 0.8109 0.8330 0.8492 0.8590 0.8590
957.793050 0.8587 0.8570 0.8540 0.8513 0.8490
964.440725 0.8467 0.8454 0.8434 0.8414 0.8397
971.088400 0.8387 0.8374 0.8357 0.8350 0.8347
977.736075 0.8334 0.8317 0.8307 0.8294 0.8277
984.383750 0.8262 0.8234 0.8212 0.8182 0.8146
991.031425 0.8099 0.8059 0.8025 0.8005 0.7987
997.679100 0.7942 0.7735 0.6832 0.4963 0.4945
1004.326775 0.5080 0.5576 0.6066 0.6562 0.7163
1010.974450 0.7930 0.7875 0.7639 0.7412 0.7188
1017.622125 0.6951 0.6741 0.6614 0.6160 0.4299
1024.269800 0.3026 0.3002 0.2970 0.3066 0.3728
1030.917475 0.4941 0.5395 0.5422 0.5435 0.5467
1037.565150 0.5513 0.5635 0.6022 0.6705 0.7133
1044.212825 0.7380 0.7499 0.7556 0.7604 0.7714
1050.860500 0.7881 0.8026 0.8135 0.8245 0.8350
1057.508175 0.8428 0.8487 0.8546 0.8595 0.8634
1064.155850 0.8671 0.8680 0.8680 0.8680 0.8680
1070.803525 0.8680 0.8680 0.8680 0.8680 0.8680
1077.451200 0.8679 0.8670 0.8670 0.8670 0.8670
1084.098875 0.8670 0.8670 0.8669 0.8660 0.8660
1090.746550 0.8660 0.8659 0.8640 0.8640 0.8640
1097.394225 0.8640 0.8630 0.8630 0.8630 0.8620
1104.041900 0.8620 0.8620 0.8620 0.8600 0.8600
1110.689575 0.8590 0.8590 0.8580 0.8580 0.8560
1117.337250 0.8560 0.8550 0.8540 0.8540 0.8520
1123.984925 0.8520 0.8510 0.8500 0.8500 0.8481
1130.632600 0.8480 0.8470 0.8460 0.8460 0.8431
1137.280275 0.8430 0.8420 0.8401 0.8391 0.8381
1143.927950 0.8361 0.8351 0.8341 0.8321 0.7826
1150.575625 0.7771 0.7779 0.7789 0.8230 0.8261
1157.223300 0.8242 0.8222 0.8220 0.8184 0.8153
1163.870975 0.8123 0.8102 0.7672 0.7593 0.7608
1170.518650 0.7830 0.8064 0.8099 0.8109 0.8119
1177.166325 0.8120 0.8120 0.8111 0.8110 0.8101
1183.814000 0.8100 0.8074 0.8053 0.7990 0.7904
1190.461675 0.7806 0.7706 0.7573 0.7459 0.7341
1197.109350 0.7205 0.7081 0.6837 0.6765 0.6760
1203.757025 0.6760 0.6760 0.6760 0.6760 0.6768
1210.404700 0.6826 0.6904 0.7024 0.7145 0.7170
1217.052375 0.7170 0.7170 0.7178 0.7134 0.6126
1223.700050 0.5278 0.3901 0.3486 0.3462 0.3460
1230.347725 0.3642 0.5328 0.6265 0.6691 0.6983
1236.995400 0.7190 0.7396 0.7450 0.7457 0.7453
1243.643075 0.7363 0.7236 0.7171 0.7052 0.6832
1250.290750 0.6668 0.6430 0.6329 0.6320 0.6313
1256.938425 0.6296 0.6290 0.6283 0.6239 0.6090
1263.586100 0.5833 0.5418 0.4737 0.3634 0.2696
1270.233775 0.1802 0.1477 0.1477 0.1909 0.2550
1276.881450 0.3181 0.3800 0.4396 0.4958 0.5486
1283.529125 0.5979 0.6418 0.6805 0.7136 0.7394
1290.176800 0.7586 0.7688 0.7729 0.7746 0.7762
1296.824475 0.7776 0.7786 0.7814 0.7854 0.7888
1303.472150 0.7924 0.7946 0.7950 0.7950 0.7950
1310.119825 0.7944 0.7940 0.7772 0.7627 0.7593
1316.767500 0.7535 0.7426 0.6886 0.6085 0.5335
1323.415175 0.4949 0.4540 0.3733 0.3310 0.3353
1330.062850 0.3907 0.4841 0.5612 0.6168 0.6566
1336.710525 0.6858 0.7106 0.7361 0.7614 0.7817
1343.358200 0.7926 0.7950 0.7950 0.7950 0.7950
1350.005875 0.7950 0.7950 0.7950 0.7950 0.7950
1356.653550 0.7950 0.7950 0.7950 0.7931 0.7881
1363.301225 0.7793 0.7674 0.7596 0.7566 0.7486
1369.948900 0.7369 0.7288 0.7214 0.7165 0.7160
1376.596575 0.7151 0.7136 0.7113 0.7077 0.7017
1383.244250 0.6930 0.6869 0.6819 0.6748 0.6623
1389.891925 0.6439 0.6166 0.5760 0.5389 0.5118
1396.539600 0.4684 0.4132 0.3511 0.2871 0.2267
1403.187275 0.1734 0.1314 0.1083 0.1017 0.0850
1409.834950 0.0626 0.0826 0.1424 0.2074 0.2589
1416.482625 0.3010 0.3477 0.3584 0.3590 0.3559
1423.130300 0.3476 0.3349 0.3176 0.3140 0.3127
1429.777975 0.3233 0.3541 0.3913 0.4170 0.4151
1436.425650 0.3814 0.2840 0.2130 0.2130 0.2130
1443.073325 0.2211 0.2477 0.2739 0.3197 0.3850
1449.721000 0.3850 0.3712 0.3272 0.2960 0.2644
1456.368675 0.2253 0.1805 0.1793 0.1818 0.1978
1463.016350 0.2539 0.3692 0.5220 0.6197 0.6792
1469.664025 0.7186 0.7551 0.7877 0.7893 0.7865
1476.311700 0.7836 0.7779 0.7724 0.7666 0.7652
1482.959375 0.7723 0.7980 0.8105 0.8172 0.8224
1489.607050 0.8244 0.8262 0.8276 0.8300 0.8302
1496.254725 0.8308 0.8293 0.8249 0.8189 0.8126
1502.902400 0.8045 0.7953 0.7853 0.7753 0.7654
1509.550075 0.7552 0.7457 0.7440 0.7440 0.7440
1516.197750 0.7425 0.7304 0.7065 0.6557 0.6226
1522.845425 0.6200 0.6199 0.6189 0.6178 0.6116
1529.493100 0.5723 0.5173 0.4379 0.4371 0.4379
1536.140775 0.4375 0.4435 0.4579 0.4670 0.4771
1542.788450 0.4782 0.4801 0.4826 0.5035 0.5461
1549.436125 0.5875 0.6465 0.6947 0.7341 0.7664
1556.083800 0.7900 0.8076 0.8194 0.8261 0.8280
1562.731475 0.8280 0.8280 0.8280 0.8280 0.8280
1569.379150 0.8280 0.8280 0.8270 0.8270 0.8270
1576.026825 0.8260 0.8240 0.8230 0.8220 0.8200
1582.674500 0.8190 0.8190 0.8160 0.8140 0.8110
1589.322175 0.8061 0.7971 0.7548 0.7100 0.7061
1595.969850 0.7079 0.7389 0.7643 0.7960 0.8134
1602.617525 0.8198 0.8200 0.8162 0.8065 0.7918
1609.265200 0.7722 0.7279 0.7137 0.6989 0.6475
1615.912875 0.6328 0.6255 0.6093 0.5933 0.5911
1622.560550 0.5919 0.6138 0.6352 0.6552 0.6770
1629.208225 0.6962 0.7178 0.7379 0.7587 0.7761
1635.855900 0.7824 0.7865 0.7897 0.7944 0.7968
1642.503575 0.7970 0.7979 0.7980 0.7980 0.7980
1649.151250 0.7980 0.7980 0.7980 0.7980 0.7980
1655.798925 0.7980 0.7980 0.7980 0.7980 0.7980
1662.446600 0.7980 0.7980 0.7980 0.7980 0.7980
1669.094275 0.7980 0.7980 0.7980 0.7980 0.7980
1675.741950 0.7980 0.7980 0.7980 0.7988 0.7982
1682.389625 0.7980 0.7980 0.7980 0.7980 0.7980
1689.037300 0.7980 0.7980 0.7988 0.7990 0.7990
1695.684975 0.8005 0.8018 0.8028 0.8045 0.8050
1702.332650 0.8050 0.8057 0.8067 0.8070 0.8070
1708.980325 0.8070 0.8070 0.8085 0.8090 0.8090
1715.628000 0.8090 0.8090 0.8097 0.8100 0.8100
1722.275675 0.8107 0.8110 0.8110 0.8117 0.8120
1728.923350 0.8120 0.8134 0.8140 0.8140 0.8147
1735.571025 0.8150 0.8150 0.8150 0.8157 0.8160
1742.218700 0.8160 0.8160 0.8160 0.8160 0.8173
1748.866375 0.8180 0.8180 0.8180 0.8180 0.8180
1755.514050 0.8180 0.8180 0.8180 0.8180 0.8180
1762.161725 0.8180 0.8168 0.8160 0.8160 0.8160
1768.809400 0.8160 0.8160 0.8154 0.8150 0.8144
1775.457075 0.8140 0.8128 0.8132 0.8128 0.8109
1782.104750 0.8077 0.8043 0.8019 0.8010 0.7993
1788.752425 0.7974 0.7948 0.7919 0.7910 0.7905
1795.400100 0.7895 0.7895 0.7900 0.7905 0.7921
1802.047775 0.7930 0.7951 0.7996 0.8046 0.8096
1808.695450 0.8151 0.8200 0.8230 0.8255 0.8275
1815.343125 0.8290 0.8300 0.8300 0.8300 0.8305
1821.990800 0.8305 0.8300 0.8300 0.8300 0.8300
1828.638475 0.8300 0.8305 0.8315 0.8329 0.8345
1835.286150 0.8355 0.8374 0.8408 0.8430 0.8435
1841.933825 0.8440 0.8449 0.8460 0.8460 0.8460
1848.581500 0.8451 0.8440 0.8436 0.8417 0.8396
1855.229175 0.8377 0.8360 0.8360 0.8360 0.8360
1861.876850 0.8360 0.8360 0.8360 0.8356 0.8350
1868.524525 0.8346 0.8340 0.8332 0.8316 0.8310
1875.172200 0.8310 0.8310 0.8310 0.8310 0.8310
1881.819875 0.8310 0.8310 0.8310 0.8310 0.8310
1888.467550 0.8307 0.8300 0.8300 0.8293 0.8277
1895.115225 0.8267 0.8250 0.8217 0.8180 0.8144
1901.762900 0.8097 0.8058 0.8005 0.7925 0.7864
1908.410575 0.7853 0.7881 0.7945 0.7995 0.8047
1915.058250 0.8104 0.8163 0.8243 0.8306 0.8326
1921.705925 0.8343 0.8350 0.8350 0.8350 0.8350
1928.353600 0.8347 0.8335 0.8317 0.8307 0.8290
1935.001275 0.8253 0.8228 0.8215 0.8200 0.8200
1941.648950 0.8200 0.8205 0.8222 0.8230 0.8255
1948.296625 0.8349 0.8382 0.8396 0.8424 0.8446
1954.944300 0.8472 0.8484 0.8500 0.8502 0.8510
1961.591975 0.8510 0.8510 0.8510 0.8510 0.8510
1968.239650 0.8510 0.8508 0.8502 0.8510 0.8510
1974.887325 0.8510 0.8510 0.8510 0.8512 0.8520
1981.535000 0.8520 0.8520 0.8520 0.8520 0.8520
1988.182675 0.8520 0.8520 0.8520 0.8520 0.8519
1994.830350 0.8509 0.8500 0.8498 0.8480 0.8479
2001.478025 0.8469 0.8460 0.8457 0.8430 0.8430
2008.125700 0.8429 0.8420 0.8420 0.8420 0.8420
2014.773375 0.8420 0.8420 0.8420 0.8420 0.8420
2021.421050 0.8420 0.8421 0.8430 0.8430 0.8430
2028.068725 0.8430 0.8430 0.8429 0.8420 0.8420
2034.716400 0.8420 0.8420 0.8420 0.8420 0.8420
2041.364075 0.8418 0.8400 0.8400 0.8400 0.8399
2048.011750 0.8390 0.8390 0.8390 0.8389 0.8380
2054.659425 0.8380 0.8378 0.8360 0.8360 0.8360
2061.307100 0.8359 0.8350 0.8349 0.8340 0.8340
2067.954775 0.8340 0.8338 0.8320 0.8320 0.8319
2074.602450 0.8310 0.8310 0.8309 0.8300 0.8300
2081.250125 0.8297 0.8270 0.8270 0.8270 0.8270
2087.897800 0.8269 0.8260 0.8260 0.8260 0.8260
2094.545475 0.8258 0.8240 0.8240 0.8239 0.8230
2101.193150 0.8229 0.8220 0.8220 0.8220 0.8220
2107.840825 0.8220 0.8220 0.8220 0.8220 0.8220
2114.488500 0.8220 0.8220 0.8220 0.8218 0.8200
2121.136175 0.8200 0.8200 0.8200 0.8200 0.8200
2127.783850 0.8200 0.8200 0.8200 0.8200 0.8200
2134.431525 0.8200 0.8200 0.8200 0.8200 0.8200
2141.079200 0.8200 0.8200 0.8200 0.8200 0.8200
2147.726875 0.8200 0.8200 0.8200 0.8199 0.8190
2154.374550 0.8190 0.8190 0.8190 0.8190 0.8190
2161.022225 0.8190 0.8189 0.8180 0.8180 0.8180
2167.669900 0.8180 0.8180 0.8180 0.8180 0.8180
2174.317575 0.8180 0.8180 0.8180 0.8180 0.8180
2180.965250 0.8180 0.8180 0.8178 0.8160 0.8160
2187.612925 0.8160 0.8160 0.8160 0.8160 0.8160
2194.260600 0.8160 0.8159 0.8150 0.8150 0.8150
2200.908275 0.8150 0.8150 0.8150 0.8149 0.8140
2207.555950 0.8140 0.8140 0.8140 0.8138 0.8120
2214.203625 0.8120 0.8120 0.8120 0.8119 0.8110
2220.851300 0.8110 0.8110 0.8110 0.8109 0.8100
2227.498975 0.8100 0.8100 0.8099 0.8090 0.8090
2234.146650 0.8090 0.8090 0.8090 0.8088 0.8070
2240.794325 0.8070 0.8070 0.8070 0.8069 0.8060
2247.442000 0.8060 0.8060 0.8059 0.8050 0.8050
2254.089675 0.8050 0.8048 0.8030 0.8030 0.8028
2260.737350 0.8008 0.7990 0.7989 0.7979 0.7970
2267.385025 0.7970 0.7968 0.7950 0.7950 0.7949
2274.032700 0.7940 0.7940 0.7939 0.7928 0.7910
2280.680375 0.7910 0.7910 0.7909 0.7900 0.7900
2287.328050 0.7899 0.7890 0.7888 0.7870 0.7869
2293.975725 0.7859 0.7847 0.7819 0.7808 0.7789
2300.623400 0.7780 0.7779 0.7768 0.7749 0.7739
2307.271075 0.7730 0.7728 0.7710 0.7709 0.7697
2313.918750 0.7669 0.7659 0.7648 0.7629 0.7617
2320.566425 0.7588 0.7568 0.7549 0.7539 0.7530
2327.214100 0.7527 0.7499 0.7490 0.7490 0.7490
2333.861775 0.7490 0.7489 0.7480 0.7480 0.7478
2340.509450 0.7460 0.7460 0.7460 0.7460 0.7459
2347.157125 0.7450 0.7450 0.7450 0.7449 0.7440
2353.804800 0.7440 0.7440 0.7440 0.7440 0.7440
2360.452475 0.7440 0.7440 0.7440 0.7440 0.7440
2367.100150 0.7440 0.7440 0.7440 0.7440 0.7440
2373.747825 0.7440 0.7440 0.7440 0.7440 0.7440
2380.395500 0.7440 0.7440 0.7441 0.7449 0.7440
2387.043175 0.7440 0.7440 0.7438 0.7418 0.7400
2393.690850 0.7398 0.7380 0.7379 0.7370 0.7369
2400.338525 0.7358 0.7340 0.7339 0.7329 0.7320
2406.986200 0.7317 0.7290 0.7289 0.7278 0.7259
2413.633875 0.7249 0.7237 0.7210 0.7209 0.7197
2420.281550 0.7169 0.7157 0.7129 0.7118 0.7098
2426.929225 0.7077 0.7047 0.7020 0.7019 0.7009
2433.576900 0.7000 0.6998 0.6979 0.6969 0.6960
2440.224575 0.6958 0.6939 0.6930 0.6929 0.6917
2446.872250 0.6890 0.6888 0.6870 0.6870 0.6870
2453.519925 0.6870 0.6870 0.6868 0.6852 0.6870
2460.167600 0.6870 0.6870 0.6871 0.6880 0.6880
2466.815275 0.6880 0.6880 0.6880 0.6880 0.6880
2473.462950 0.6880 0.6880 0.6880 0.6880 0.6880
2480.110625 0.6880 0.6880 0.6880 0.6880 0.6876
2486.758300 0.6826 0.6698 0.6593 0.6524 0.6463
2493.405975 0.6404 0.6357 0.6329 0.6319 0.6307
2500.053650 0.6277 0.6248 0.6229 0.6218 0.6199
2506.701325 0.6187 0.6159 0.6149 0.6140 0.6140
2513.349000 0.6140 0.6140 0.6141 0.6150 0.6150
2519.996675 0.6149 0.6140 0.6140 0.6138 0.6119
2526.644350 0.6110 0.6109 0.6100 0.6098 0.6079
2533.292025 0.6069 0.6058 0.6040 0.6039 0.6029
2539.939700 0.6017 0.5987 0.5956 0.5918 0.5898
2546.587375 0.5880 0.5878 0.5857 0.5826 0.5785
2553.235050 0.5736 0.5696 0.5653 0.5575 0.5423
2559.882725 0.5169 0.4822 0.4678 0.4662 0.4693
2566.530400 0.4810 0.4895 0.4946 0.5002 0.5029
2573.178075 0.5104 0.5141 0.5154 0.5193 0.5221
2579.825750 0.5230 0.5230 0.5229 0.5216 0.5179
2586.473425 0.5168 0.5150 0.5148 0.5130 0.5127
2593.121100 0.5099 0.5087 0.5059 0.5048 0.5030
2599.768775 0.5029 0.5020 0.5019 0.5010 0.5009
2606.416450 0.5000 0.4998 0.4979 0.4966 0.4930
2613.064125 0.4927 0.4899 0.4887 0.4859 0.4845
2619.711800 0.4798 0.4774 0.4716 0.4678 0.4659
2626.359475 0.4649 0.4632 0.4565 0.4517 0.4486
2633.007150 0.4449 0.4438 0.4418 0.4397 0.4363
2639.654825 0.4307 0.4280 0.4280 0.4280 0.4280
2646.302500 0.4280 0.4280 0.4279 0.4270 0.4270
2652.950175 0.4270 0.4270 0.4270 0.4270 0.4268
2659.597850 0.4250 0.4246 0.4208 0.4188 0.4170
2666.245525 0.4169 0.4160 0.4159 0.4148 0.4132
2672.893200 0.4148 0.4129 0.4120 0.4119 0.4108
2679.540875 0.4089 0.4079 0.4068 0.4050 0.4049
2686.188550 0.4040 0.4039 0.4030 0.4028 0.4009
2692.836225 0.3999 0.3988 0.3969 0.3957 0.3929
2699.483900 0.3917 0.3889 0.3879 0.3868 0.3848
2706.131575 0.3828 0.3808 0.3788 0.3767 0.3736
2712.779250 0.3694 0.3636 0.3595 0.3547 0.3516
2719.426925 0.3476 0.3438 0.3417 0.3387 0.3356
2726.074600 0.3316 0.3279 0.3270 0.3269 0.3258
2732.722275 0.3239 0.3230 0.3230 0.3230 0.3230
2739.369950 0.3229 0.3220 0.3220 0.3220 0.3220
2746.017625 0.3218 0.3199 0.3189 0.3177 0.3146
2752.665300 0.3108 0.3087 0.3059 0.3048 0.3029
2759.312975 0.3019 0.3010 0.3010 0.3008 0.2990
2765.960650 0.2990 0.2990 0.2990 0.2990 0.2992
2772.608325 0.3010 0.3010 0.3011 0.3020 0.3021
2779.256000 0.3033 0.3063 0.3093 0.3126 0.3186
2785.903675 0.3231 0.3244 0.3282 0.3302 0.3323
2792.551350 0.3350 0.3350 0.3350 0.3350 0.3350
2799.199025 0.3350 0.3349 0.3340 0.3340 0.3337
2805.846700 0.3307 0.3276 0.3238 0.3217 0.3186
2812.494375 0.3147 0.3117 0.3086 0.3046 0.3007
2819.142050 0.2976 0.2937 0.2909 0.2897 0.2869
2825.789725 0.2859 0.2848 0.2829 0.2820 0.2819
2832.437400 0.2810 0.2810 0.2810 0.2810 0.2808
2839.085075 0.2790 0.2790 0.2790 0.2790 0.2790
2845.732750 0.2790 0.2790 0.2790 0.2790 0.2790
2852.380425 0.2790 0.2790 0.2790 0.2790 0.2790
2859.028100 0.2793 0.2820 0.2819 0.2810 0.2810
2865.675775 0.2810 0.2812 0.2830 0.2829 0.2820
2872.323450 0.2819 0.2808 0.2789 0.2779 0.2768
2878.971125 0.2749 0.2739 0.2728 0.2709 0.2699
2885.618800 0.2688 0.2669 0.2657 0.2629 0.2619
2892.266475 0.2607 0.2579 0.2567 0.2537 0.2510
2898.914150 0.2510 0.2510 0.2512 0.2532 0.2552
2905.561825 0.2572 0.2592 0.2612 0.2632 0.2652
2912.209500 0.2672 0.2692 0.2710 0.2713 0.2741
2918.857175 0.2752 0.2772 0.2792 0.2811 0.2820
2925.504850 0.2820 0.2820 0.2820 0.2819 0.2810
2932.152525 0.2808 0.2790 0.2789 0.2780 0.2779
2938.800200 0.2768 0.2750 0.2750 0.2752 0.2770
2945.447875 0.2770 0.2771 0.2781 0.2792 0.2808
2952.095550 0.2790 0.2789 0.2780 0.2780 0.2780
2958.743225 0.2779 0.2771 0.2779 0.2770 0.2770
2965.390900 0.2770 0.2770 0.2768 0.2752 0.2768
2972.038575 0.2749 0.2740 0.2740 0.2740 0.2740
2978.686250 0.2740 0.2740 0.2740 0.2740 0.2740
2985.333925 0.2740 0.2740 0.2740 0.2741 0.2752
2991.981600 0.2770 0.2772 0.2792 0.2811 0.2821
2998.629275 0.2832 0.2851 0.2863 0.2892 0.2913
3005.276950 0.2943 0.2972 0.2992 0.3010 0.3010
3011.924625 0.3008 0.2990 0.2988 0.2970 0.2970
3018.572300 0.2970 0.2970 0.2970 0.2970 0.2970
3025.219975 0.2970 0.2971 0.2981 0.2990 0.2992
3031.867650 0.3012 0.3030 0.3030 0.3032 0.3050
3038.515325 0.3051 0.3060 0.3060 0.3060 0.3059
3045.163000 0.3048 0.3030 0.3030 0.3030 0.3030
3051.810675 0.3030 0.3030 0.3029 0.3021 0.3034
3058.458350 0.3073 0.3101 0.3111 0.3123 0.3151
3065.106025 0.3162 0.3180 0.3181 0.3189 0.3181
3071.753700 0.3190 0.3190 0.3190 0.3190 0.3190
3078.401375 0.3190 0.3190 0.3190 0.3190 0.3191
3085.049050 0.3199 0.3191 0.3203 0.3231 0.3242
3091.696725 0.3261 0.3271 0.3282 0.3301 0.3320
3098.344400 0.3412 0.3514 0.3553 0.3582 0.3602
3104.992075 0.3627 0.3684 0.3723 0.3752 0.3776
3111.639750 0.3840 0.3923 0.3952 0.3974 0.4018
3118.287425 0.4090 0.4179 0.4257 0.4317 0.4374
3124.935100 0.4414 0.4453 0.4481 0.4491 0.4508
3131.582775 0.4576 0.4624 0.4663 0.4694 0.4733
3138.230450 0.4762 0.4782 0.4802 0.4824 0.4863
3144.878125 0.4894 0.4933 0.4962 0.4980 0.4982
3151.525800 0.5001 0.5011 0.5021 0.5032 0.5052
3158.173475 0.5070 0.5072 0.5090 0.5091 0.5101
3164.821150 0.5110 0.5112 0.5130 0.5131 0.5141
3171.468825 0.5152 0.5177 0.5238 0.5308 0.5375
3178.116500 0.5425 0.5476 0.5534 0.5575 0.5624
3184.764175 0.5666 0.5714 0.5754 0.5795 0.5844
3191.411850 0.5884 0.5924 0.5966 0.6024 0.6064
3198.059525 0.6107 0.6164 0.6204 0.6241 0.6252
3204.707200 0.6271 0.6280 0.6280 0.6281 0.6290
3211.354875 0.6293 0.6321 0.6333 0.6361 0.6374
3218.002550 0.6412 0.6432 0.6456 0.6514 0.6554
3224.650225 0.6591 0.6600 0.6601 0.6612 0.6631
3231.297900 0.6643 0.6671 0.6681 0.6690 0.6692
3237.945575 0.6710 0.6712 0.6732 0.6751 0.6761
3244.593250 0.6772 0.6794 0.6832 0.6853 0.6882
3251.240925 0.6902 0.6921 0.6930 0.6930 0.6931
3257.888600 0.6940 0.6942 0.6961 0.6971 0.6980
3264.536275 0.6982 0.7000 0.7000 0.6998 0.6982
3271.183950 0.7000 0.7001 0.7010 0.7011 0.7020
3277.831625 0.7022 0.7040 0.7040 0.7040 0.7040
3284.479300 0.7040 0.7040 0.7040 0.7040 0.7040
3291.126975 0.7040 0.7040 0.7040 0.7040 0.7040
3297.774650 0.7040 0.7040 0.7040 0.7040 0.7040
3304.422325 0.7040 0.7040 0.7038 0.7020 0.7020
3311.070000 0.7020 0.7019 0.7010 0.7010 0.7009
3317.717675 0.7000 0.7000 0.6998 0.6979 0.6970
3324.365350 0.6969 0.6958 0.6939 0.6929 0.6918
3331.013025 0.6900 0.6899 0.6889 0.6879 0.6868
3337.660700 0.6848 0.6830 0.6828 0.6809 0.6799
3344.308375 0.6790 0.6788 0.6769 0.6759 0.6750
3350.956050 0.6748 0.6729 0.6719 0.6710 0.6708
3357.603725 0.6689 0.6676 0.6639 0.6630 0.6628
3364.251400 0.6610 0.6609 0.6599 0.6590 0.6588
3370.899075 0.6569 0.6559 0.6547 0.6520 0.6519
3377.546750 0.6510 0.6508 0.6490 0.6489 0.6479
3384.194425 0.6470 0.6468 0.6450 0.6449 0.6439
3390.842100 0.6430 0.6427 0.6400 0.6400 0.6400
3397.489775 0.6400 0.6397 0.6370 0.6370 0.6369
3404.137450 0.6360 0.6360 0.6360 0.6360 0.6360
3410.785125 0.6360 0.6360 0.6360 0.6360 0.6360
3417.432800 0.6360 0.6361 0.6372 0.6390 0.6391
3424.080475 0.6401 0.6412 0.6430 0.6431 0.6441
3430.728150 0.6452 0.6470 0.6470 0.6470 0.6470
3437.375825 0.6470 0.6470 0.6470 0.6470 0.6470
3444.023500 0.6470 0.6471 0.6480 0.6480 0.6480
3450.671175 0.6480 0.6481 0.6490 0.6490 0.6490
3457.318850 0.6492 0.6510 0.6510 0.6510 0.6511
3463.966525 0.6520 0.6520 0.6520 0.6520 0.6520
3470.614200 0.6521 0.6530 0.6530 0.6530 0.6530
3477.261875 0.6530 0.6530 0.6530 0.6530 0.6530
3483.909550 0.6530 0.6530 0.6532 0.6550 0.6548
3490.557225 0.6530 0.6530 0.6532 0.6551 0.6561
3497.204900 0.6572 0.6591 0.6601 0.6612 0.6631
3503.852575 0.6641 0.6650 0.6652 0.6670 0.6671
3510.500250 0.6680 0.6681 0.6690 0.6692 0.6710
3517.147925 0.6711 0.6720 0.6721 0.6730 0.6732
3523.795600 0.6750 0.6751 0.6761 0.6770 0.6770
3530.443275 0.6772 0.6790 0.6791 0.6800 0.6801
3537.090950 0.6810 0.6812 0.6830 0.6831 0.6840
3543.738625 0.6841 0.6850 0.6852 0.6870 0.6871
3550.386300 0.6880 0.6880 0.6881 0.6891 0.6900
3557.033975 0.6902 0.6920 0.6921 0.6930 0.6931
3563.681650 0.6940 0.6942 0.6960 0.6961 0.6970
3570.329325 0.6971 0.6980 0.6982 0.7000 0.7001
3576.977000 0.7010 0.7011 0.7020 0.7022 0.7041
3583.624675 0.7051 0.7060 0.7060 0.7062 0.7080
3590.272350 0.7080 0.7081 0.7090 0.7090 0.7090
3596.920025 0.7091 0.7100 0.7100 0.7100 0.7100
3603.567700 0.7100 0.7100 0.7100 0.7100 0.7100
3610.215375 0.7100 0.7100 0.7100 0.7102 0.7120
3616.863050 0.7120 0.7120 0.7120 0.7120 0.7120
3623.510725 0.7120 0.7120 0.7120 0.7120 0.7120
3630.158400 0.7120 0.7120 0.7121 0.7130 0.7130
3636.806075 0.7130 0.7130 0.7130 0.7130 0.7130
3643.453750 0.7130 0.7130 0.7131 0.7140 0.7140
3650.101425 0.7140 0.7140 0.7140 0.7140 0.7140
3656.749100 0.7140 0.7140 0.7140 0.7140 0.7140
3663.396775 0.7140 0.7140 0.7140 0.7140 0.7140
3670.044450 0.7140 0.7140 0.7140 0.7140 0.7140
3676.692125 0.7139 0.7130 0.7130 0.7130 0.7130
3683.339800 0.7130 0.7130 0.7130 0.7130 0.7130
3689.987475 0.7130 0.7130 0.7130 0.7130 0.7130
3696.635150 0.7130 0.7130 0.7130 0.7130 0.7130
3703.282825 0.7130 0.7130 0.7130 0.7130 0.7130
3709.930500 0.7130 0.7130 0.7130 0.7130 0.7130
3716.578175 0.7130 0.7129 0.7120 0.7120 0.7120
3723.225850 0.7120 0.7120 0.7118 0.7100 0.7100
3729.873525 0.7100 0.7100 0.7099 0.7090 0.7090
3736.521200 0.7090 0.7089 0.7080 0.7080 0.7080
3743.168875 0.7080 0.7080 0.7080 0.7080 0.7080
3749.816550 0.7080 0.7080 0.7080 0.7080 0.7080
3756.464225 0.7080 0.7080 0.7080 0.7080 0.7080
3763.111900 0.7080 0.7080 0.7078 0.7060 0.7060
3769.759575 0.7060 0.7060 0.7060 0.7060 0.7059
3776.407250 0.7050 0.7050 0.7050 0.7050 0.7049
3783.054925 0.7040 0.7040 0.7040 0.7040 0.7040
3789.702600 0.7038 0.7020 0.7020 0.7020 0.7019
3796.350275 0.7010 0.7010 0.7010 0.7010 0.7010
3802.997950 0.7010 0.7010 0.7010 0.7010 0.7010
3809.645625 0.7010
##END=
