##TITLE=ARGININE, MONOPICRATE
##JCAMP-DX=4.24
##DATA TYPE=INFRARED SPECTRUM
##CLASS=COBLENTZ III
##ORIGIN=UNIVERSITY OF FLORIDA
##OWNER=Copyright (C) 1987 by the Coblentz Society
Collection (C) 2018 copyright by the U.S. Secretary of Commerce
on behalf of the United States of America. All rights reserved.
##DATE=1964/05/05
##MOLFORM=C12 H17 N7 O9
##SOURCE REFERENCE=COBLENTZ NO. 9970
##$NIST ID=B6009970
##$NIST SOURCE=COBLENTZ
##$NIST IMAGE=cob9970
##SPECTROMETER/DATA SYSTEM=BECKMAN IR-4 (HYBRID PRISM-GRATING)
##STATE=SOLID (KBr DISC)
##SAMPLING PROCEDURE=TRANSMISSION
##RESOLUTION=2
##DATA PROCESSING=DIGITIZED BY COBLENTZ SOCIETY (BATCH II) FROM HARD COPY
##XUNITS=1/CM
##YUNITS=TRANSMITTANCE
##XFACTOR=1.0
##YFACTOR=1
##FIRSTX=668
##LASTX=4000
##FIRSTY=0.8351
##MAXX=4000
##MINX=668
##MAXY=0.8792
##MINY=0.0206
##NPOINTS=3333
##XYDATA=(X++(Y..Y))
668.000000 0.8351 0.8333 0.8281 0.8210 0.8144
673.000000 0.8116 0.8117 0.8139 0.8135 0.8150
678.000000 0.8164 0.8177 0.8173 0.8167 0.8156
683.000000 0.8143 0.8125 0.8094 0.8061 0.8025
688.000000 0.7990 0.7934 0.7860 0.7782 0.7698
693.000000 0.7570 0.7427 0.7272 0.7068 0.6703
698.000000 0.6304 0.5738 0.5254 0.4772 0.4331
703.000000 0.3930 0.3840 0.3822 0.3795 0.3653
708.000000 0.3450 0.3237 0.3227 0.3527 0.4139
713.000000 0.4750 0.5215 0.5642 0.6208 0.6564
718.000000 0.6768 0.6930 0.7085 0.7201 0.7266
723.000000 0.7299 0.7309 0.7327 0.7247 0.7179
728.000000 0.7077 0.6942 0.6772 0.6437 0.6089
733.000000 0.5905 0.5872 0.5866 0.6145 0.6240
738.000000 0.6286 0.6315 0.6189 0.5913 0.5127
743.000000 0.4294 0.3464 0.2512 0.2312 0.2308
748.000000 0.3564 0.4545 0.5414 0.5881 0.6254
753.000000 0.6927 0.7246 0.7502 0.7763 0.7924
758.000000 0.8023 0.8108 0.8179 0.8233 0.8274
763.000000 0.8305 0.8325 0.8346 0.8362 0.8377
768.000000 0.8389 0.8397 0.8404 0.8429 0.8406
773.000000 0.8406 0.8400 0.8393 0.8381 0.8362
778.000000 0.8340 0.8306 0.8259 0.8195 0.8114
783.000000 0.8028 0.7966 0.7954 0.7963 0.7969
788.000000 0.7938 0.7830 0.7677 0.7479 0.6794
793.000000 0.6014 0.4324 0.2968 0.2929 0.3949
798.000000 0.4910 0.5867 0.6824 0.7713 0.8191
803.000000 0.8318 0.8399 0.8456 0.8496 0.8530
808.000000 0.8566 0.8604 0.8638 0.8664 0.8672
813.000000 0.8685 0.8659 0.8641 0.8622 0.8599
818.000000 0.8577 0.8551 0.8520 0.8488 0.8457
823.000000 0.8426 0.8394 0.8371 0.8361 0.8340
828.000000 0.8367 0.8376 0.8389 0.8403 0.8412
833.000000 0.8423 0.8437 0.8477 0.8516 0.8553
838.000000 0.8593 0.8632 0.8662 0.8693 0.8718
843.000000 0.8737 0.8745 0.8753 0.8761 0.8768
848.000000 0.8772 0.8777 0.8780 0.8779 0.8777
853.000000 0.8792 0.8772 0.8767 0.8763 0.8759
858.000000 0.8752 0.8743 0.8733 0.8724 0.8714
863.000000 0.8701 0.8687 0.8672 0.8659 0.8645
868.000000 0.8630 0.8619 0.8608 0.8597 0.8585
873.000000 0.8571 0.8556 0.8542 0.8527 0.8513
878.000000 0.8501 0.8490 0.8479 0.8469 0.8454
883.000000 0.8436 0.8418 0.8394 0.8365 0.8335
888.000000 0.8300 0.8258 0.8218 0.8161 0.8090
893.000000 0.8003 0.7915 0.7822 0.7727 0.7612
898.000000 0.7494 0.7376 0.7201 0.6878 0.6457
903.000000 0.5713 0.5154 0.4597 0.4041 0.3372
908.000000 0.3047 0.3046 0.3035 0.3924 0.4595
913.000000 0.5264 0.5932 0.6680 0.7100 0.7252
918.000000 0.7318 0.7370 0.7414 0.7461 0.7509
923.000000 0.7559 0.7611 0.7657 0.7684 0.7686
928.000000 0.7697 0.7646 0.7599 0.7489 0.7275
933.000000 0.6981 0.6625 0.6005 0.5336 0.4668
938.000000 0.4418 0.4479 0.4405 0.5438 0.5929
943.000000 0.6421 0.6909 0.7126 0.7346 0.7601
948.000000 0.7751 0.7861 0.7961 0.8037 0.8095
953.000000 0.8146 0.8194 0.8241 0.8285 0.8312
958.000000 0.8334 0.8345 0.8357 0.8367 0.8389
963.000000 0.8377 0.8377 0.8376 0.8376 0.8374
968.000000 0.8371 0.8369 0.8364 0.8359 0.8353
973.000000 0.8347 0.8340 0.8333 0.8326 0.8321
978.000000 0.8319 0.8315 0.8313 0.8309 0.8305
983.000000 0.8303 0.8299 0.8296 0.8287 0.8278
988.000000 0.8268 0.8255 0.8241 0.8227 0.8210
993.000000 0.8194 0.8178 0.8159 0.8137 0.8114
998.000000 0.8100 0.8088 0.8077 0.8066 0.8060
1003.000000 0.8054 0.8049 0.8043 0.8035 0.8027
1008.000000 0.8018 0.8010 0.7999 0.7987 0.7976
1013.000000 0.7964 0.7953 0.7944 0.7933 0.7923
1018.000000 0.7914 0.7904 0.7891 0.7875 0.7858
1023.000000 0.7841 0.7824 0.7808 0.7791 0.7775
1028.000000 0.7759 0.7742 0.7727 0.7710 0.7694
1033.000000 0.7677 0.7662 0.7646 0.7629 0.7613
1038.000000 0.7598 0.7582 0.7565 0.7549 0.7533
1043.000000 0.7517 0.7501 0.7486 0.7472 0.7457
1048.000000 0.7443 0.7434 0.7426 0.7419 0.7413
1053.000000 0.7412 0.7411 0.7410 0.7409 0.7409
1058.000000 0.7410 0.7410 0.7410 0.7410 0.7409
1063.000000 0.7407 0.7405 0.7398 0.7387 0.7355
1068.000000 0.7314 0.7266 0.7211 0.7151 0.7078
1073.000000 0.6973 0.6855 0.6735 0.6604 0.6297
1078.000000 0.5876 0.5465 0.5116 0.4936 0.4911
1083.000000 0.4919 0.4913 0.5199 0.5386 0.5574
1088.000000 0.5761 0.5948 0.6134 0.6320 0.6488
1093.000000 0.6608 0.6732 0.6813 0.6866 0.6912
1098.000000 0.6951 0.6987 0.7020 0.7036 0.7044
1103.000000 0.7047 0.7050 0.7032 0.7046 0.7038
1108.000000 0.7029 0.7013 0.6998 0.6980 0.6949
1113.000000 0.6916 0.6881 0.6846 0.6811 0.6772
1118.000000 0.6731 0.6701 0.6677 0.6657 0.6637
1123.000000 0.6617 0.6601 0.6593 0.6585 0.6578
1128.000000 0.6571 0.6564 0.6556 0.6548 0.6537
1133.000000 0.6526 0.6512 0.6492 0.6469 0.6439
1138.000000 0.6388 0.6304 0.6205 0.6076 0.5876
1143.000000 0.5718 0.5551 0.5384 0.5217 0.5050
1148.000000 0.4883 0.4718 0.4552 0.4387 0.4221
1153.000000 0.4055 0.3893 0.3797 0.3667 0.3575
1158.000000 0.3540 0.3537 0.3519 0.4005 0.4296
1163.000000 0.4586 0.4876 0.5166 0.5392 0.5513
1168.000000 0.5586 0.5654 0.5712 0.5764 0.5802
1173.000000 0.5832 0.5846 0.5859 0.5871 0.5880
1178.000000 0.5886 0.5888 0.5890 0.5892 0.5893
1183.000000 0.5897 0.5901 0.5904 0.5908 0.5911
1188.000000 0.5911 0.5906 0.5900 0.5891 0.5875
1193.000000 0.5843 0.5811 0.5774 0.5728 0.5682
1198.000000 0.5631 0.5576 0.5509 0.5430 0.5336
1203.000000 0.5271 0.5216 0.5160 0.5109 0.5059
1208.000000 0.5014 0.4973 0.4934 0.4904 0.4875
1213.000000 0.4845 0.4816 0.4786 0.4753 0.4719
1218.000000 0.4686 0.4651 0.4612 0.4573 0.4535
1223.000000 0.4499 0.4461 0.4407 0.4328 0.4215
1228.000000 0.4089 0.3958 0.3752 0.3549 0.3409
1233.000000 0.3259 0.3109 0.2987 0.2898 0.2816
1238.000000 0.2730 0.2630 0.2532 0.2454 0.2392
1243.000000 0.2331 0.2270 0.2206 0.2140 0.2101
1248.000000 0.2070 0.2044 0.2019 0.1992 0.1966
1253.000000 0.1941 0.1907 0.1871 0.1811 0.1698
1258.000000 0.1626 0.1556 0.1481 0.1404 0.1320
1263.000000 0.1230 0.1126 0.1038 0.0959 0.0880
1268.000000 0.0801 0.0713 0.0608 0.0507 0.0415
1273.000000 0.0358 0.0336 0.0315 0.0298 0.0288
1278.000000 0.0280 0.0275 0.0271 0.0271 0.0280
1283.000000 0.0292 0.0348 0.0420 0.0483 0.0765
1288.000000 0.1240 0.1714 0.2187 0.2660 0.3106
1293.000000 0.3325 0.3529 0.3627 0.3758 0.3804
1298.000000 0.3847 0.3877 0.3891 0.3900 0.3905
1303.000000 0.3908 0.3910 0.3913 0.3901 0.3893
1308.000000 0.3882 0.3863 0.3831 0.3752 0.3622
1313.000000 0.3481 0.3340 0.3200 0.3060 0.2919
1318.000000 0.2779 0.2640 0.2501 0.2361 0.2222
1323.000000 0.2083 0.1944 0.1810 0.1703 0.1626
1328.000000 0.1556 0.1459 0.1344 0.1198 0.1089
1333.000000 0.0957 0.0813 0.0693 0.0586 0.0501
1338.000000 0.0434 0.0375 0.0329 0.0295 0.0262
1343.000000 0.0237 0.0213 0.0209 0.0206 0.0208
1348.000000 0.0210 0.0213 0.0222 0.0237 0.0285
1353.000000 0.0407 0.0673 0.1032 0.1389 0.1746
1358.000000 0.2103 0.2459 0.2814 0.3160 0.3218
1363.000000 0.3250 0.3272 0.3281 0.3283 0.3297
1368.000000 0.3263 0.3114 0.2899 0.2686 0.2472
1373.000000 0.2258 0.2097 0.2041 0.2069 0.2055
1378.000000 0.2240 0.2565 0.2898 0.3230 0.3563
1383.000000 0.3893 0.4224 0.4548 0.4698 0.4838
1388.000000 0.4990 0.5159 0.5368 0.5468 0.5627
1393.000000 0.5807 0.5935 0.6040 0.6117 0.6183
1398.000000 0.6237 0.6295 0.6344 0.6387 0.6418
1403.000000 0.6445 0.6471 0.6491 0.6504 0.6516
1408.000000 0.6523 0.6525 0.6522 0.6520 0.6513
1413.000000 0.6508 0.6503 0.6486 0.6469 0.6453
1418.000000 0.6432 0.6410 0.6383 0.6352 0.6320
1423.000000 0.6288 0.6257 0.6173 0.6023 0.5899
1428.000000 0.5816 0.5735 0.5595 0.5395 0.5192
1433.000000 0.4988 0.4785 0.4583 0.4381 0.4178
1438.000000 0.3976 0.3775 0.3573 0.3372 0.3172
1443.000000 0.2971 0.2830 0.2766 0.2748 0.2740
1448.000000 0.2741 0.2723 0.2836 0.2984 0.3137
1453.000000 0.3289 0.3441 0.3593 0.3744 0.3873
1458.000000 0.3902 0.3915 0.3922 0.3924 0.3939
1463.000000 0.3971 0.4047 0.4195 0.4298 0.4346
1468.000000 0.4392 0.4463 0.4510 0.4526 0.4533
1473.000000 0.4538 0.4539 0.4553 0.4535 0.4528
1478.000000 0.4512 0.4490 0.4408 0.4194 0.3958
1483.000000 0.3723 0.3488 0.3253 0.3019 0.2785
1488.000000 0.2551 0.2358 0.2261 0.2190 0.2132
1493.000000 0.2088 0.2061 0.2040 0.2013 0.1979
1498.000000 0.1953 0.1929 0.1910 0.1895 0.1886
1503.000000 0.1883 0.1881 0.1879 0.1866 0.1962
1508.000000 0.2000 0.2038 0.2068 0.2090 0.2103
1513.000000 0.2118 0.2132 0.2157 0.2191 0.2229
1518.000000 0.2279 0.2339 0.2398 0.2436 0.2479
1523.000000 0.2533 0.2602 0.2643 0.2659 0.2674
1528.000000 0.2688 0.2702 0.2711 0.2719 0.2729
1533.000000 0.2738 0.2748 0.2759 0.2769 0.2780
1538.000000 0.2790 0.2800 0.2810 0.2820 0.2827
1543.000000 0.2833 0.2839 0.2847 0.2847 0.2847
1548.000000 0.2845 0.2838 0.2858 0.2816 0.2798
1553.000000 0.2777 0.2748 0.2715 0.2672 0.2629
1558.000000 0.2593 0.2559 0.2527 0.2497 0.2469
1563.000000 0.2440 0.2362 0.2245 0.2127 0.2010
1568.000000 0.1893 0.1768 0.1690 0.1653 0.1635
1573.000000 0.1629 0.1627 0.1629 0.1633 0.1651
1578.000000 0.1743 0.1876 0.2013 0.2149 0.2286
1583.000000 0.2422 0.2558 0.2693 0.2829 0.2965
1588.000000 0.3100 0.3235 0.3309 0.3333 0.3343
1593.000000 0.3349 0.3350 0.3339 0.3342 0.3270
1598.000000 0.3151 0.3029 0.2908 0.2786 0.2665
1603.000000 0.2543 0.2422 0.2302 0.2180 0.2060
1608.000000 0.1939 0.1828 0.1746 0.1673 0.1607
1613.000000 0.1549 0.1487 0.1427 0.1383 0.1338
1618.000000 0.1307 0.1279 0.1252 0.1225 0.1198
1623.000000 0.1172 0.1145 0.1117 0.1086 0.1054
1628.000000 0.1023 0.0993 0.0963 0.0933 0.0901
1633.000000 0.0868 0.0831 0.0803 0.0781 0.0759
1638.000000 0.0737 0.0716 0.0698 0.0684 0.0672
1643.000000 0.0662 0.0653 0.0647 0.0641 0.0635
1648.000000 0.0631 0.0627 0.0609 0.0624 0.0626
1653.000000 0.0631 0.0637 0.0644 0.0652 0.0661
1658.000000 0.0673 0.0685 0.0698 0.0713 0.0726
1663.000000 0.0743 0.0762 0.0781 0.0801 0.0818
1668.000000 0.0833 0.0848 0.0865 0.0883 0.0901
1673.000000 0.0920 0.0940 0.0961 0.0982 0.1003
1678.000000 0.1022 0.1042 0.1084 0.1137 0.1189
1683.000000 0.1262 0.1376 0.1520 0.1649 0.1705
1688.000000 0.1731 0.1843 0.1979 0.2119 0.2259
1693.000000 0.2400 0.2539 0.2678 0.2817 0.2909
1698.000000 0.2951 0.2976 0.2994 0.3008 0.3022
1703.000000 0.3042 0.3063 0.3088 0.3127 0.3186
1708.000000 0.3278 0.3403 0.3501 0.3680 0.3809
1713.000000 0.3899 0.3968 0.4023 0.4065 0.4101
1718.000000 0.4130 0.4148 0.4164 0.4177 0.4187
1723.000000 0.4199 0.4218 0.4242 0.4272 0.4306
1728.000000 0.4339 0.4371 0.4399 0.4425 0.4445
1733.000000 0.4463 0.4477 0.4485 0.4493 0.4500
1738.000000 0.4506 0.4510 0.4512 0.4516 0.4517
1743.000000 0.4518 0.4518 0.4518 0.4519 0.4520
1748.000000 0.4521 0.4523 0.4524 0.4526 0.4528
1753.000000 0.4529 0.4536 0.4585 0.4660 0.4735
1758.000000 0.4809 0.4883 0.4958 0.5032 0.5106
1763.000000 0.5180 0.5254 0.5328 0.5402 0.5475
1768.000000 0.5549 0.5623 0.5696 0.5769 0.5843
1773.000000 0.5916 0.5998 0.6070 0.6128 0.6178
1778.000000 0.6248 0.6330 0.6411 0.6490 0.6572
1783.000000 0.6669 0.6797 0.6917 0.7017 0.7091
1788.000000 0.7133 0.7173 0.7213 0.7254 0.7301
1793.000000 0.7350 0.7404 0.7453 0.7482 0.7505
1798.000000 0.7529 0.7553 0.7577 0.7601 0.7624
1803.000000 0.7648 0.7672 0.7696 0.7719 0.7740
1808.000000 0.7760 0.7781 0.7801 0.7821 0.7840
1813.000000 0.7859 0.7870 0.7881 0.7893 0.7904
1818.000000 0.7914 0.7922 0.7930 0.7938 0.7946
1823.000000 0.7954 0.7961 0.7969 0.7976 0.7982
1828.000000 0.7987 0.7991 0.7997 0.8002 0.8007
1833.000000 0.8011 0.8016 0.8019 0.8022 0.8026
1838.000000 0.8029 0.8032 0.8036 0.8039 0.8042
1843.000000 0.8045 0.8047 0.8049 0.8052 0.8054
1848.000000 0.8104 0.8059 0.8061 0.8063 0.8064
1853.000000 0.8065 0.8066 0.8067 0.8066 0.8061
1858.000000 0.8057 0.8052 0.8048 0.8043 0.8037
1863.000000 0.8029 0.8018 0.8006 0.7994 0.7982
1868.000000 0.7970 0.7958 0.7945 0.7933 0.7919
1873.000000 0.7906 0.7891 0.7878 0.7864 0.7850
1878.000000 0.7835 0.7822 0.7815 0.7815 0.7815
1883.000000 0.7815 0.7794 0.7818 0.7819 0.7821
1888.000000 0.7826 0.7831 0.7837 0.7843 0.7851
1893.000000 0.7858 0.7865 0.7873 0.7881 0.7889
1898.000000 0.7897 0.7905 0.7914 0.7922 0.7929
1903.000000 0.7936 0.7942 0.7946 0.7949 0.7952
1908.000000 0.7954 0.7956 0.7959 0.7961 0.7963
1913.000000 0.7966 0.7968 0.7970 0.7972 0.7974
1918.000000 0.7975 0.7976 0.7976 0.7977 0.7978
1923.000000 0.7978 0.7979 0.7980 0.7980 0.7981
1928.000000 0.7982 0.7982 0.7982 0.7981 0.7979
1933.000000 0.7979 0.7978 0.7977 0.7977 0.7976
1938.000000 0.7975 0.7975 0.7974 0.7972 0.7971
1943.000000 0.7970 0.7969 0.7967 0.7966 0.7965
1948.000000 0.7963 0.7961 0.7960 0.7958 0.7957
1953.000000 0.7956 0.7954 0.7952 0.7950 0.7947
1958.000000 0.7945 0.7943 0.7941 0.7938 0.7935
1963.000000 0.7933 0.7931 0.7929 0.7925 0.7921
1968.000000 0.7917 0.7914 0.7910 0.7906 0.7902
1973.000000 0.7898 0.7894 0.7890 0.7887 0.7883
1978.000000 0.7880 0.7876 0.7872 0.7868 0.7865
1983.000000 0.7861 0.7857 0.7853 0.7849 0.7845
1988.000000 0.7840 0.7835 0.7830 0.7825 0.7821
1993.000000 0.7817 0.7814 0.7812 0.7810 0.7808
1998.000000 0.7806 0.7805 0.7804 0.7802 0.7801
2003.000000 0.7801 0.7800 0.7800 0.7800 0.7799
2008.000000 0.7799 0.7799 0.7800 0.7803 0.7805
2013.000000 0.7808 0.7810 0.7813 0.7816 0.7820
2018.000000 0.7824 0.7828 0.7831 0.7834 0.7837
2023.000000 0.7839 0.7840 0.7841 0.7841 0.7841
2028.000000 0.7842 0.7842 0.7841 0.7840 0.7839
2033.000000 0.7838 0.7837 0.7836 0.7835 0.7834
2038.000000 0.7833 0.7831 0.7829 0.7828 0.7827
2043.000000 0.7826 0.7825 0.7823 0.7822 0.7821
2048.000000 0.7820 0.7819 0.7818 0.7817 0.7816
2053.000000 0.7816 0.7816 0.7817 0.7817 0.7817
2058.000000 0.7818 0.7818 0.7818 0.7818 0.7819
2063.000000 0.7820 0.7820 0.7820 0.7821 0.7823
2068.000000 0.7825 0.7826 0.7827 0.7829 0.7830
2073.000000 0.7832 0.7833 0.7835 0.7838 0.7840
2078.000000 0.7841 0.7843 0.7845 0.7847 0.7849
2083.000000 0.7851 0.7853 0.7854 0.7857 0.7859
2088.000000 0.7862 0.7865 0.7867 0.7869 0.7872
2093.000000 0.7875 0.7877 0.7880 0.7883 0.7886
2098.000000 0.7888 0.7890 0.7892 0.7894 0.7895
2103.000000 0.7896 0.7896 0.7897 0.7898 0.7899
2108.000000 0.7901 0.7902 0.7903 0.7903 0.7904
2113.000000 0.7905 0.7906 0.7907 0.7908 0.7909
2118.000000 0.7909 0.7910 0.7911 0.7912 0.7912
2123.000000 0.7913 0.7913 0.7914 0.7915 0.7916
2128.000000 0.7917 0.7917 0.7917 0.7917 0.7918
2133.000000 0.7918 0.7918 0.7919 0.7919 0.7919
2138.000000 0.7919 0.7920 0.7920 0.7920 0.7920
2143.000000 0.7921 0.7921 0.7921 0.7922 0.7922
2148.000000 0.7921 0.7921 0.7920 0.7920 0.7920
2153.000000 0.7920 0.7919 0.7919 0.7918 0.7918
2158.000000 0.7917 0.7917 0.7917 0.7916 0.7916
2163.000000 0.7915 0.7915 0.7914 0.7914 0.7913
2168.000000 0.7912 0.7911 0.7910 0.7909 0.7908
2173.000000 0.7906 0.7905 0.7904 0.7903 0.7902
2178.000000 0.7901 0.7900 0.7899 0.7898 0.7897
2183.000000 0.7896 0.7895 0.7894 0.7892 0.7890
2188.000000 0.7888 0.7887 0.7885 0.7883 0.7881
2193.000000 0.7878 0.7876 0.7874 0.7873 0.7871
2198.000000 0.7869 0.7867 0.7865 0.7863 0.7861
2203.000000 0.7859 0.7857 0.7856 0.7854 0.7852
2208.000000 0.7849 0.7847 0.7845 0.7843 0.7840
2213.000000 0.7837 0.7834 0.7831 0.7827 0.7824
2218.000000 0.7820 0.7817 0.7813 0.7810 0.7807
2223.000000 0.7804 0.7800 0.7797 0.7794 0.7791
2228.000000 0.7787 0.7784 0.7780 0.7777 0.7774
2233.000000 0.7770 0.7767 0.7763 0.7758 0.7753
2238.000000 0.7748 0.7743 0.7738 0.7733 0.7728
2243.000000 0.7723 0.7718 0.7713 0.7708 0.7703
2248.000000 0.7698 0.7693 0.7688 0.7683 0.7678
2253.000000 0.7672 0.7665 0.7659 0.7653 0.7647
2258.000000 0.7641 0.7634 0.7628 0.7622 0.7616
2263.000000 0.7610 0.7604 0.7600 0.7597 0.7594
2268.000000 0.7591 0.7589 0.7589 0.7588 0.7588
2273.000000 0.7587 0.7586 0.7585 0.7585 0.7584
2278.000000 0.7584 0.7583 0.7582 0.7582 0.7581
2283.000000 0.7581 0.7580 0.7580 0.7579 0.7579
2288.000000 0.7578 0.7578 0.7577 0.7577 0.7576
2293.000000 0.7575 0.7574 0.7574 0.7573 0.7573
2298.000000 0.7572 0.7571 0.7570 0.7570 0.7570
2303.000000 0.7569 0.7569 0.7568 0.7567 0.7566
2308.000000 0.7566 0.7565 0.7564 0.7563 0.7563
2313.000000 0.7562 0.7561 0.7560 0.7559 0.7558
2318.000000 0.7558 0.7558 0.7557 0.7556 0.7555
2323.000000 0.7554 0.7553 0.7552 0.7551 0.7551
2328.000000 0.7550 0.7549 0.7548 0.7548 0.7547
2333.000000 0.7545 0.7544 0.7543 0.7542 0.7541
2338.000000 0.7540 0.7539 0.7538 0.7537 0.7536
2343.000000 0.7536 0.7534 0.7533 0.7532 0.7531
2348.000000 0.7530 0.7529 0.7528 0.7527 0.7526
2353.000000 0.7525 0.7524 0.7523 0.7522 0.7521
2358.000000 0.7520 0.7519 0.7518 0.7517 0.7516
2363.000000 0.7514 0.7514 0.7513 0.7512 0.7511
2368.000000 0.7510 0.7509 0.7507 0.7504 0.7500
2373.000000 0.7496 0.7492 0.7487 0.7482 0.7476
2378.000000 0.7469 0.7462 0.7455 0.7448 0.7440
2383.000000 0.7432 0.7424 0.7416 0.7409 0.7401
2388.000000 0.7394 0.7386 0.7378 0.7371 0.7364
2393.000000 0.7357 0.7349 0.7342 0.7335 0.7328
2398.000000 0.7321 0.7314 0.7307 0.7300 0.7293
2403.000000 0.7287 0.7281 0.7274 0.7268 0.7261
2408.000000 0.7255 0.7248 0.7241 0.7234 0.7228
2413.000000 0.7221 0.7215 0.7208 0.7202 0.7194
2418.000000 0.7187 0.7178 0.7170 0.7161 0.7153
2423.000000 0.7145 0.7137 0.7128 0.7120 0.7111
2428.000000 0.7103 0.7095 0.7087 0.7080 0.7073
2433.000000 0.7066 0.7058 0.7051 0.7044 0.7037
2438.000000 0.7028 0.7020 0.7010 0.7000 0.6989
2443.000000 0.6979 0.6968 0.6958 0.6947 0.6937
2448.000000 0.6927 0.6917 0.6908 0.6898 0.6891
2453.000000 0.6883 0.6876 0.6868 0.6861 0.6853
2458.000000 0.6845 0.6838 0.6830 0.6823 0.6815
2463.000000 0.6808 0.6800 0.6792 0.6785 0.6777
2468.000000 0.6770 0.6763 0.6755 0.6749 0.6742
2473.000000 0.6736 0.6730 0.6724 0.6718 0.6712
2478.000000 0.6706 0.6700 0.6693 0.6687 0.6681
2483.000000 0.6675 0.6669 0.6663 0.6657 0.6651
2488.000000 0.6645 0.6638 0.6632 0.6626 0.6620
2493.000000 0.6614 0.6608 0.6602 0.6596 0.6590
2498.000000 0.6583 0.6577 0.6571 0.6565 0.6559
2503.000000 0.6552 0.6546 0.6540 0.6534 0.6528
2508.000000 0.6521 0.6515 0.6509 0.6503 0.6497
2513.000000 0.6491 0.6486 0.6480 0.6476 0.6471
2518.000000 0.6467 0.6462 0.6457 0.6453 0.6449
2523.000000 0.6444 0.6439 0.6435 0.6430 0.6426
2528.000000 0.6422 0.6417 0.6412 0.6408 0.6403
2533.000000 0.6399 0.6394 0.6390 0.6385 0.6381
2538.000000 0.6377 0.6374 0.6371 0.6367 0.6364
2543.000000 0.6361 0.6358 0.6355 0.6352 0.6349
2548.000000 0.6346 0.6343 0.6340 0.6337 0.6333
2553.000000 0.6330 0.6327 0.6324 0.6321 0.6318
2558.000000 0.6315 0.6312 0.6309 0.6306 0.6303
2563.000000 0.6300 0.6297 0.6293 0.6290 0.6287
2568.000000 0.6284 0.6281 0.6278 0.6275 0.6272
2573.000000 0.6269 0.6266 0.6264 0.6261 0.6259
2578.000000 0.6257 0.6254 0.6251 0.6249 0.6247
2583.000000 0.6245 0.6242 0.6239 0.6237 0.6235
2588.000000 0.6232 0.6229 0.6226 0.6222 0.6219
2593.000000 0.6215 0.6211 0.6208 0.6205 0.6201
2598.000000 0.6198 0.6195 0.6191 0.6188 0.6184
2603.000000 0.6181 0.6177 0.6174 0.6170 0.6167
2608.000000 0.6164 0.6160 0.6157 0.6154 0.6151
2613.000000 0.6147 0.6143 0.6140 0.6136 0.6133
2618.000000 0.6130 0.6127 0.6123 0.6120 0.6116
2623.000000 0.6113 0.6109 0.6105 0.6102 0.6098
2628.000000 0.6094 0.6091 0.6087 0.6084 0.6080
2633.000000 0.6076 0.6073 0.6069 0.6066 0.6062
2638.000000 0.6058 0.6055 0.6051 0.6048 0.6044
2643.000000 0.6040 0.6036 0.6032 0.6028 0.6024
2648.000000 0.6019 0.6014 0.6010 0.6005 0.6000
2653.000000 0.5996 0.5991 0.5987 0.5982 0.5977
2658.000000 0.5973 0.5968 0.5964 0.5959 0.5955
2663.000000 0.5951 0.5946 0.5942 0.5937 0.5932
2668.000000 0.5928 0.5923 0.5919 0.5914 0.5910
2673.000000 0.5905 0.5901 0.5896 0.5891 0.5887
2678.000000 0.5882 0.5878 0.5874 0.5869 0.5865
2683.000000 0.5861 0.5856 0.5852 0.5847 0.5843
2688.000000 0.5838 0.5834 0.5830 0.5826 0.5821
2693.000000 0.5817 0.5812 0.5808 0.5804 0.5800
2698.000000 0.5795 0.5791 0.5787 0.5782 0.5778
2703.000000 0.5773 0.5769 0.5765 0.5761 0.5756
2708.000000 0.5752 0.5747 0.5742 0.5736 0.5731
2713.000000 0.5725 0.5720 0.5714 0.5709 0.5704
2718.000000 0.5698 0.5693 0.5687 0.5682 0.5677
2723.000000 0.5671 0.5666 0.5660 0.5655 0.5650
2728.000000 0.5644 0.5639 0.5634 0.5628 0.5623
2733.000000 0.5617 0.5612 0.5607 0.5601 0.5595
2738.000000 0.5589 0.5583 0.5577 0.5571 0.5565
2743.000000 0.5558 0.5552 0.5546 0.5539 0.5533
2748.000000 0.5527 0.5521 0.5515 0.5509 0.5503
2753.000000 0.5496 0.5490 0.5484 0.5478 0.5472
2758.000000 0.5466 0.5460 0.5454 0.5447 0.5441
2763.000000 0.5435 0.5428 0.5421 0.5413 0.5406
2768.000000 0.5398 0.5390 0.5383 0.5375 0.5368
2773.000000 0.5360 0.5352 0.5344 0.5336 0.5329
2778.000000 0.5321 0.5313 0.5306 0.5298 0.5291
2783.000000 0.5283 0.5275 0.5267 0.5260 0.5252
2788.000000 0.5243 0.5233 0.5224 0.5214 0.5203
2793.000000 0.5193 0.5182 0.5172 0.5161 0.5150
2798.000000 0.5139 0.5128 0.5118 0.5107 0.5097
2803.000000 0.5086 0.5075 0.5065 0.5054 0.5042
2808.000000 0.5031 0.5019 0.5007 0.4995 0.4982
2813.000000 0.4970 0.4957 0.4944 0.4932 0.4920
2818.000000 0.4908 0.4895 0.4883 0.4871 0.4858
2823.000000 0.4846 0.4834 0.4822 0.4810 0.4798
2828.000000 0.4786 0.4774 0.4762 0.4751 0.4739
2833.000000 0.4727 0.4715 0.4701 0.4684 0.4668
2838.000000 0.4651 0.4632 0.4614 0.4596 0.4578
2843.000000 0.4560 0.4542 0.4524 0.4506 0.4488
2848.000000 0.4471 0.4454 0.4436 0.4419 0.4401
2853.000000 0.4384 0.4366 0.4349 0.4332 0.4315
2858.000000 0.4298 0.4281 0.4264 0.4247 0.4230
2863.000000 0.4213 0.4197 0.4181 0.4166 0.4150
2868.000000 0.4137 0.4124 0.4111 0.4098 0.4085
2873.000000 0.4072 0.4059 0.4047 0.4034 0.4022
2878.000000 0.4012 0.4001 0.3990 0.3980 0.3969
2883.000000 0.3959 0.3948 0.3938 0.3927 0.3917
2888.000000 0.3906 0.3896 0.3885 0.3875 0.3864
2893.000000 0.3854 0.3843 0.3833 0.3822 0.3811
2898.000000 0.3797 0.3784 0.3771 0.3757 0.3742
2903.000000 0.3728 0.3714 0.3700 0.3686 0.3672
2908.000000 0.3658 0.3644 0.3630 0.3617 0.3605
2913.000000 0.3593 0.3582 0.3572 0.3561 0.3551
2918.000000 0.3541 0.3530 0.3519 0.3509 0.3498
2923.000000 0.3488 0.3477 0.3467 0.3456 0.3446
2928.000000 0.3436 0.3428 0.3420 0.3411 0.3405
2933.000000 0.3398 0.3391 0.3385 0.3378 0.3371
2938.000000 0.3365 0.3358 0.3351 0.3345 0.3338
2943.000000 0.3332 0.3326 0.3319 0.3312 0.3306
2948.000000 0.3299 0.3293 0.3286 0.3279 0.3273
2953.000000 0.3266 0.3260 0.3253 0.3247 0.3241
2958.000000 0.3235 0.3229 0.3224 0.3219 0.3214
2963.000000 0.3209 0.3204 0.3199 0.3193 0.3188
2968.000000 0.3183 0.3177 0.3172 0.3167 0.3162
2973.000000 0.3157 0.3152 0.3147 0.3141 0.3136
2978.000000 0.3131 0.3125 0.3120 0.3115 0.3110
2983.000000 0.3105 0.3100 0.3095 0.3090 0.3085
2988.000000 0.3080 0.3075 0.3071 0.3066 0.3061
2993.000000 0.3056 0.3052 0.3047 0.3042 0.3037
2998.000000 0.3033 0.3028 0.3023 0.3018 0.3014
3003.000000 0.3009 0.3004 0.3000 0.2995 0.2990
3008.000000 0.2985 0.2981 0.2976 0.2971 0.2967
3013.000000 0.2963 0.2960 0.2956 0.2953 0.2950
3018.000000 0.2947 0.2944 0.2942 0.2939 0.2937
3023.000000 0.2934 0.2932 0.2929 0.2926 0.2924
3028.000000 0.2921 0.2918 0.2915 0.2913 0.2910
3033.000000 0.2908 0.2905 0.2903 0.2901 0.2898
3038.000000 0.2896 0.2894 0.2891 0.2889 0.2887
3043.000000 0.2885 0.2883 0.2881 0.2878 0.2876
3048.000000 0.2873 0.2871 0.2869 0.2867 0.2865
3053.000000 0.2862 0.2860 0.2858 0.2856 0.2852
3058.000000 0.2848 0.2844 0.2840 0.2836 0.2831
3063.000000 0.2827 0.2822 0.2818 0.2814 0.2810
3068.000000 0.2805 0.2799 0.2794 0.2789 0.2780
3073.000000 0.2770 0.2760 0.2750 0.2740 0.2730
3078.000000 0.2720 0.2709 0.2692 0.2676 0.2660
3083.000000 0.2643 0.2626 0.2609 0.2593 0.2577
3088.000000 0.2563 0.2549 0.2535 0.2522 0.2511
3093.000000 0.2499 0.2487 0.2478 0.2470 0.2461
3098.000000 0.2453 0.2452 0.2451 0.2449 0.2449
3103.000000 0.2449 0.2449 0.2449 0.2449 0.2449
3108.000000 0.2450 0.2450 0.2451 0.2452 0.2452
3113.000000 0.2453 0.2455 0.2458 0.2461 0.2464
3118.000000 0.2467 0.2471 0.2475 0.2478 0.2482
3123.000000 0.2487 0.2491 0.2496 0.2500 0.2505
3128.000000 0.2509 0.2514 0.2519 0.2524 0.2529
3133.000000 0.2534 0.2539 0.2545 0.2550 0.2554
3138.000000 0.2559 0.2563 0.2567 0.2570 0.2570
3143.000000 0.2571 0.2572 0.2573 0.2573 0.2574
3148.000000 0.2574 0.2574 0.2574 0.2573 0.2573
3153.000000 0.2572 0.2572 0.2571 0.2571 0.2570
3158.000000 0.2568 0.2567 0.2565 0.2564 0.2561
3163.000000 0.2559 0.2557 0.2554 0.2551 0.2548
3168.000000 0.2544 0.2541 0.2537 0.2533 0.2530
3173.000000 0.2526 0.2523 0.2519 0.2516 0.2512
3178.000000 0.2509 0.2505 0.2502 0.2498 0.2495
3183.000000 0.2491 0.2488 0.2484 0.2480 0.2475
3188.000000 0.2471 0.2467 0.2462 0.2458 0.2453
3193.000000 0.2449 0.2444 0.2440 0.2436 0.2431
3198.000000 0.2427 0.2422 0.2417 0.2413 0.2408
3203.000000 0.2404 0.2400 0.2396 0.2393 0.2390
3208.000000 0.2386 0.2383 0.2380 0.2377 0.2374
3213.000000 0.2372 0.2370 0.2369 0.2369 0.2368
3218.000000 0.2368 0.2370 0.2371 0.2373 0.2374
3223.000000 0.2375 0.2376 0.2378 0.2379 0.2380
3228.000000 0.2381 0.2382 0.2383 0.2384 0.2385
3233.000000 0.2386 0.2387 0.2388 0.2389 0.2390
3238.000000 0.2390 0.2391 0.2392 0.2393 0.2394
3243.000000 0.2395 0.2396 0.2397 0.2399 0.2400
3248.000000 0.2402 0.2403 0.2405 0.2407 0.2408
3253.000000 0.2409 0.2411 0.2412 0.2413 0.2414
3258.000000 0.2415 0.2416 0.2417 0.2418 0.2418
3263.000000 0.2419 0.2420 0.2420 0.2421 0.2422
3268.000000 0.2423 0.2423 0.2424 0.2425 0.2426
3273.000000 0.2427 0.2428 0.2428 0.2429 0.2430
3278.000000 0.2431 0.2431 0.2432 0.2433 0.2433
3283.000000 0.2433 0.2433 0.2433 0.2433 0.2432
3288.000000 0.2432 0.2431 0.2430 0.2429 0.2429
3293.000000 0.2428 0.2427 0.2427 0.2426 0.2425
3298.000000 0.2425 0.2423 0.2422 0.2421 0.2419
3303.000000 0.2417 0.2415 0.2413 0.2411 0.2409
3308.000000 0.2407 0.2406 0.2404 0.2402 0.2399
3313.000000 0.2396 0.2393 0.2390 0.2387 0.2384
3318.000000 0.2380 0.2377 0.2374 0.2370 0.2367
3323.000000 0.2363 0.2360 0.2355 0.2349 0.2342
3328.000000 0.2336 0.2330 0.2323 0.2315 0.2308
3333.000000 0.2301 0.2295 0.2289 0.2283 0.2277
3338.000000 0.2271 0.2267 0.2262 0.2257 0.2252
3343.000000 0.2247 0.2242 0.2237 0.2232 0.2227
3348.000000 0.2222 0.2217 0.2212 0.2208 0.2203
3353.000000 0.2199 0.2194 0.2190 0.2185 0.2181
3358.000000 0.2176 0.2172 0.2167 0.2163 0.2159
3363.000000 0.2155 0.2151 0.2146 0.2142 0.2138
3368.000000 0.2133 0.2129 0.2124 0.2120 0.2116
3373.000000 0.2111 0.2107 0.2102 0.2096 0.2091
3378.000000 0.2086 0.2082 0.2077 0.2072 0.2067
3383.000000 0.2062 0.2058 0.2054 0.2049 0.2045
3388.000000 0.2040 0.2036 0.2032 0.2027 0.2023
3393.000000 0.2019 0.2016 0.2013 0.2009 0.2006
3398.000000 0.2004 0.2002 0.2000 0.1998 0.1996
3403.000000 0.1995 0.1993 0.1991 0.1989 0.1988
3408.000000 0.1986 0.1984 0.1983 0.1982 0.1982
3413.000000 0.1982 0.1982 0.1982 0.1983 0.1983
3418.000000 0.1984 0.1984 0.1985 0.1985 0.1985
3423.000000 0.1985 0.1985 0.1986 0.1987 0.1987
3428.000000 0.1988 0.1989 0.1986 0.1991 0.1992
3433.000000 0.1993 0.1993 0.1994 0.1995 0.1996
3438.000000 0.1997 0.1998 0.2000 0.2001 0.2003
3443.000000 0.2005 0.2006 0.2008 0.2010 0.2012
3448.000000 0.2014 0.2016 0.2019 0.2022 0.2025
3453.000000 0.2027 0.2031 0.2034 0.2038 0.2042
3458.000000 0.2047 0.2059 0.2071 0.2082 0.2094
3463.000000 0.2108 0.2123 0.2138 0.2154 0.2169
3468.000000 0.2185 0.2200 0.2215 0.2231 0.2246
3473.000000 0.2261 0.2277 0.2292 0.2307 0.2323
3478.000000 0.2338 0.2353 0.2369 0.2384 0.2399
3483.000000 0.2414 0.2430 0.2445 0.2460 0.2475
3488.000000 0.2490 0.2505 0.2520 0.2535 0.2550
3493.000000 0.2565 0.2581 0.2596 0.2611 0.2626
3498.000000 0.2641 0.2656 0.2671 0.2686 0.2702
3503.000000 0.2717 0.2732 0.2747 0.2762 0.2777
3508.000000 0.2792 0.2807 0.2822 0.2837 0.2852
3513.000000 0.2867 0.2882 0.2897 0.2912 0.2927
3518.000000 0.2941 0.2956 0.2971 0.2986 0.3000
3523.000000 0.3015 0.3030 0.3044 0.3059 0.3069
3528.000000 0.3079 0.3089 0.3098 0.3108 0.3117
3533.000000 0.3126 0.3135 0.3144 0.3153 0.3162
3538.000000 0.3171 0.3180 0.3189 0.3198 0.3207
3543.000000 0.3215 0.3224 0.3233 0.3242 0.3250
3548.000000 0.3259 0.3268 0.3277 0.3285 0.3294
3553.000000 0.3303 0.3311 0.3320 0.3329 0.3338
3558.000000 0.3347 0.3356 0.3365 0.3374 0.3384
3563.000000 0.3394 0.3404 0.3414 0.3424 0.3434
3568.000000 0.3444 0.3454 0.3463 0.3473 0.3485
3573.000000 0.3497 0.3509 0.3522 0.3534 0.3548
3578.000000 0.3566 0.3583 0.3600 0.3617 0.3634
3583.000000 0.3651 0.3668 0.3684 0.3701 0.3718
3588.000000 0.3734 0.3750 0.3766 0.3782 0.3798
3593.000000 0.3815 0.3831 0.3847 0.3863 0.3880
3598.000000 0.3889 0.3897 0.3906 0.3914 0.3923
3603.000000 0.3931 0.3939 0.3947 0.3955 0.3963
3608.000000 0.3971 0.3979 0.3987 0.3995 0.4003
3613.000000 0.4011 0.4019 0.4027 0.4036 0.4044
3618.000000 0.4052 0.4065 0.4077 0.4090 0.4103
3623.000000 0.4115 0.4128 0.4140 0.4153 0.4165
3628.000000 0.4178 0.4194 0.4212 0.4231 0.4250
3633.000000 0.4268 0.4289 0.4316 0.4344 0.4371
3638.000000 0.4398 0.4425 0.4437 0.4448 0.4459
3643.000000 0.4471 0.4482 0.4493 0.4505 0.4516
3648.000000 0.4528 0.4539 0.4551 0.4562 0.4573
3653.000000 0.4584 0.4596 0.4607 0.4619 0.4631
3658.000000 0.4643 0.4655 0.4668 0.4680 0.4693
3663.000000 0.4705 0.4718 0.4731 0.4743 0.4756
3668.000000 0.4768 0.4781 0.4793 0.4806 0.4818
3673.000000 0.4831 0.4843 0.4856 0.4869 0.4881
3678.000000 0.4894 0.4907 0.4919 0.4932 0.4945
3683.000000 0.4957 0.4970 0.4983 0.4995 0.5008
3688.000000 0.5019 0.5030 0.5041 0.5052 0.5063
3693.000000 0.5074 0.5085 0.5095 0.5106 0.5116
3698.000000 0.5127 0.5138 0.5148 0.5159 0.5169
3703.000000 0.5180 0.5190 0.5200 0.5209 0.5218
3708.000000 0.5227 0.5237 0.5245 0.5254 0.5263
3713.000000 0.5272 0.5280 0.5289 0.5298 0.5307
3718.000000 0.5316 0.5325 0.5333 0.5342 0.5351
3723.000000 0.5359 0.5368 0.5377 0.5385 0.5395
3728.000000 0.5404 0.5413 0.5422 0.5431 0.5441
3733.000000 0.5450 0.5459 0.5469 0.5478 0.5487
3738.000000 0.5497 0.5506 0.5515 0.5524 0.5534
3743.000000 0.5541 0.5547 0.5552 0.5558 0.5563
3748.000000 0.5569 0.5574 0.5578 0.5583 0.5587
3753.000000 0.5592 0.5597 0.5601 0.5606 0.5610
3758.000000 0.5615 0.5620 0.5624 0.5627 0.5630
3763.000000 0.5634 0.5637 0.5640 0.5644 0.5647
3768.000000 0.5650 0.5654 0.5657 0.5660 0.5664
3773.000000 0.5667 0.5670 0.5674 0.5677 0.5680
3778.000000 0.5684 0.5687 0.5690 0.5694 0.5697
3783.000000 0.5700 0.5704 0.5707 0.5710 0.5714
3788.000000 0.5717 0.5723 0.5729 0.5736 0.5742
3793.000000 0.5748 0.5754 0.5760 0.5766 0.5773
3798.000000 0.5779 0.5785 0.5791 0.5798 0.5804
3803.000000 0.5810 0.5816 0.5822 0.5829 0.5835
3808.000000 0.5841 0.5847 0.5853 0.5860 0.5865
3813.000000 0.5871 0.5877 0.5883 0.5889 0.5895
3818.000000 0.5900 0.5906 0.5911 0.5917 0.5922
3823.000000 0.5928 0.5933 0.5938 0.5944 0.5949
3828.000000 0.5955 0.5960 0.5964 0.5968 0.5972
3833.000000 0.5977 0.5981 0.5985 0.5988 0.5991
3838.000000 0.5994 0.5997 0.6001 0.6004 0.6007
3843.000000 0.6011 0.6014 0.6018 0.6021 0.6024
3848.000000 0.6027 0.6030 0.6033 0.6036 0.6039
3853.000000 0.6041 0.6042 0.6044 0.6045 0.6047
3858.000000 0.6048 0.6050 0.6051 0.6053 0.6055
3863.000000 0.6056 0.6058 0.6059 0.6060 0.6062
3868.000000 0.6063 0.6064 0.6066 0.6067 0.6069
3873.000000 0.6070 0.6072 0.6073 0.6075 0.6076
3878.000000 0.6078 0.6079 0.6081 0.6082 0.6084
3883.000000 0.6085 0.6087 0.6088 0.6089 0.6091
3888.000000 0.6092 0.6093 0.6094 0.6095 0.6096
3893.000000 0.6097 0.6098 0.6099 0.6100 0.6101
3898.000000 0.6102 0.6103 0.6103 0.6104 0.6105
3903.000000 0.6106 0.6107 0.6107 0.6108 0.6109
3908.000000 0.6110 0.6111 0.6112 0.6112 0.6113
3913.000000 0.6114 0.6115 0.6116 0.6116 0.6117
3918.000000 0.6118 0.6119 0.6120 0.6121 0.6121
3923.000000 0.6122 0.6123 0.6124 0.6125 0.6125
3928.000000 0.6126 0.6127 0.6128 0.6129 0.6129
3933.000000 0.6130 0.6131 0.6131 0.6132 0.6132
3938.000000 0.6133 0.6134 0.6134 0.6135 0.6136
3943.000000 0.6136 0.6137 0.6138 0.6139 0.6140
3948.000000 0.6140 0.6141 0.6142 0.6142 0.6143
3953.000000 0.6144 0.6144 0.6145 0.6146 0.6147
3958.000000 0.6147 0.6148 0.6149 0.6150 0.6151
3963.000000 0.6151 0.6152 0.6152 0.6153 0.6154
3968.000000 0.6154 0.6155 0.6156 0.6157 0.6157
3973.000000 0.6158 0.6159 0.6160 0.6160 0.6161
3978.000000 0.6162 0.6162 0.6163 0.6164 0.6164
3983.000000 0.6165 0.6165 0.6166 0.6167 0.6167
3988.000000 0.6168 0.6169 0.6170 0.6170 0.6171
3993.000000 0.6172 0.6173 0.6173 0.6174 0.6175
3998.000000 0.6175 0.6176 0.6177
##END=
