##TITLE=MICA
##JCAMP-DX=4.24
##DATA TYPE=INFRARED SPECTRUM
##CLASS=COBLENTZ
##ORIGIN=DESOTO CHEMICAL COATINGS, INC.
##OWNER=COBLENTZ SOCIETY
Collection (C) 2018 copyright by the U.S. Secretary of Commerce
on behalf of the United States of America. All rights reserved.
##DATE=Not specified, most likely prior to 1970
##MOLFORM=K2 O  * 3 Al2 O3  * 6 Si O2  * 2 H2 O
$$ SiO2 48 %, Al2O3 32 %, Fe2O3 3 %
##SOURCE REFERENCE=COBLENTZ NO. 4666
##$NIST ID=B6004666
##$NIST SOURCE=COBLENTZ
##$NIST IMAGE=cob4666
##SPECTROMETER/DATA SYSTEM=Not specified, most likely a grating spectrometer.
##STATE=SOLID (0.5 mg / 300 mg CsI DISC)
##SAMPLING PROCEDURE=TRANSMISSION
##RESOLUTION=4
##DATA PROCESSING=DIGITIZED BY NIST FROM HARD COPY (FROM TWO SEGMENTS)
##XUNITS=1/CM
##YUNITS=TRANSMITTANCE
##XFACTOR=1.000000
##YFACTOR=1
##DELTAX=1.330379
##FIRSTX=200
##LASTX=3988.92
##FIRSTY=0.945
##MAXX=3988.92
##MINX=200
##MAXY=0.961
##MINY=0.111
##NPOINTS=2849
##XYDATA=(X++(Y..Y))
200.000000 0.9450 0.9460 0.9460 0.9460 0.9450
206.651896 0.9460 0.9460 0.9460 0.9460 0.9480
213.303792 0.9480 0.9490 0.9500 0.9520 0.9530
219.955688 0.9530 0.9540 0.9560 0.9570 0.9570
226.607584 0.9570 0.9580 0.9580 0.9580 0.9600
233.259480 0.9600 0.9610 0.9610 0.9610 0.9580
239.911377 0.9570 0.9540 0.9520 0.9490 0.9490
246.563273 0.9480 0.9480 0.9460 0.9450 0.9440
253.215169 0.9380 0.9370 0.9340 0.9280 0.9240
259.867065 0.9200 0.9160 0.8961 0.8811 0.8711
266.518961 0.8680 0.8650 0.8630 0.8600 0.8590
273.170857 0.8590 0.8600 0.8600 0.8630 0.8670
279.822753 0.8680 0.8690 0.8690 0.8720 0.8750
286.474649 0.8760 0.8770 0.8770 0.8780 0.8800
293.126545 0.8810 0.8820 0.8820 0.8820 0.8820
299.778441 0.8820 0.8810 0.8800 0.8780 0.8770
306.430337 0.8750 0.8730 0.8690 0.8690 0.8670
313.082234 0.8630 0.8630 0.8600 0.8570 0.8550
319.734130 0.8530 0.8510 0.8470 0.8400 0.8370
326.386026 0.8310 0.8270 0.8210 0.8190 0.8091
333.037922 0.8050 0.8000 0.7970 0.7920 0.7870
339.689818 0.7810 0.7710 0.7611 0.7521 0.7470
346.341714 0.7380 0.7280 0.7190 0.7100 0.7000
352.993610 0.6880 0.6790 0.6760 0.6740 0.6720
359.645506 0.6710 0.6720 0.6740 0.6760 0.6780
366.297402 0.6820 0.6870 0.6910 0.6920 0.6950
372.949298 0.6980 0.6950 0.6910 0.6880 0.6830
379.601195 0.6800 0.6780 0.6661 0.6590 0.6560
386.253091 0.6510 0.6460 0.6390 0.6280 0.6210
392.904987 0.6110 0.5991 0.5861 0.5691 0.5571
399.556883 0.5450 0.5290 0.5090 0.4890 0.4730
406.208779 0.4610 0.4520 0.4440 0.4360 0.4340
412.860675 0.4340 0.4370 0.4400 0.4460 0.4540
419.512571 0.4580 0.4680 0.4760 0.4810 0.4860
426.164467 0.4890 0.4930 0.4970 0.4980 0.5000
432.816363 0.5010 0.5020 0.5020 0.5000 0.4980
439.468259 0.4970 0.4920 0.4900 0.4890 0.4860
446.120155 0.4820 0.4780 0.4730 0.4581 0.4222
452.772052 0.4170 0.4000 0.3820 0.3730 0.3471
459.423948 0.3271 0.3081 0.2931 0.2791 0.2611
466.075844 0.2480 0.2300 0.2150 0.2100 0.1990
472.727740 0.1960 0.1940 0.1920 0.1940 0.1950
479.379636 0.1980 0.2030 0.2070 0.2220 0.2390
486.031532 0.2669 0.2949 0.3069 0.3468 0.3818
492.683428 0.3980 0.4100 0.4240 0.4300 0.4340
499.335324 0.4380 0.4480 0.4530 0.4560 0.4570
505.987220 0.4570 0.4560 0.4530 0.4520 0.4490
512.639116 0.4301 0.4131 0.4001 0.3881 0.3820
519.291012 0.3610 0.3390 0.3230 0.3110 0.2990
525.942909 0.2880 0.2790 0.2750 0.2611 0.2530
532.594805 0.2510 0.2500 0.2500 0.2510 0.2530
539.246701 0.2570 0.2670 0.2720 0.2790 0.2879
545.898597 0.2990 0.3010 0.3080 0.3130 0.3170
552.550493 0.3210 0.3280 0.3330 0.3439 0.3490
559.202389 0.3630 0.3750 0.3800 0.3960 0.4169
565.854285 0.4290 0.4370 0.4440 0.4559 0.4679
572.506181 0.4810 0.4940 0.5090 0.5300 0.5460
579.158077 0.5570 0.5670 0.5789 0.5899 0.6029
585.809973 0.6180 0.6300 0.6430 0.6560 0.6630
592.461870 0.6700 0.6790 0.6909 0.7069 0.7110
599.113766 0.7220 0.7280 0.7390 0.7480 0.7560
605.765662 0.7570 0.7640 0.7710 0.7750 0.7790
612.417558 0.7920 0.7970 0.7990 0.8000 0.8040
619.069454 0.8050 0.8080 0.8090 0.8130 0.8170
625.721350 0.8200 0.8280 0.8290 0.8310 0.8330
632.373246 0.8400 0.8410 0.8440 0.8480 0.8480
639.025142 0.8570 0.8610 0.8650 0.8710 0.8720
645.677038 0.8780 0.8820 0.8880 0.8900 0.8930
652.328934 0.8930 0.8850 0.8820 0.8810 0.8810
658.980830 0.8820 0.8850 0.8860 0.8890 0.8900
665.632727 0.8900 0.8900 0.8900 0.8900 0.8890
672.284623 0.8890 0.8890 0.8880 0.8880 0.8850
678.936519 0.8850 0.8840 0.8820 0.8810 0.8800
685.588415 0.8800 0.8780 0.8770 0.8750 0.8750
692.240311 0.8720 0.8690 0.8690 0.8680 0.8680
698.892207 0.8680 0.8680 0.8680 0.8690 0.8690
705.544103 0.8690 0.8710 0.8720 0.8730 0.8750
712.195999 0.8780 0.8780 0.8820 0.8820 0.8810
718.847895 0.8800 0.8760 0.8710 0.8690 0.8690
725.499791 0.8680 0.8680 0.8680 0.8650 0.8600
732.151687 0.8590 0.8570 0.8530 0.8510 0.8490
738.803584 0.8430 0.8410 0.8320 0.8191 0.8130
745.455480 0.8090 0.8000 0.7890 0.7830 0.7790
752.107376 0.7720 0.7690 0.7670 0.7650 0.7640
758.759272 0.7640 0.7650 0.7690 0.7790 0.7870
765.411168 0.7910 0.8040 0.8150 0.8240 0.8310
772.063064 0.8520 0.8630 0.8680 0.8750 0.8810
778.714960 0.8850 0.8900 0.8930 0.8970 0.9000
785.366856 0.9010 0.9020 0.9020 0.9040 0.9040
792.018752 0.9040 0.9010 0.9010 0.8980 0.8970
798.670648 0.8930 0.8900 0.8890 0.8820 0.8800
805.322544 0.8780 0.8780 0.8780 0.8780 0.8800
811.974441 0.8810 0.8840 0.8840 0.8880 0.8890
818.626337 0.8890 0.8890 0.8880 0.8820 0.8800
825.278233 0.8720 0.8680 0.8610 0.8550 0.8510
831.930129 0.8360 0.8330 0.8330 0.8350 0.8390
838.582025 0.8430 0.8600 0.8730 0.8900 0.8980
845.233921 0.9050 0.9130 0.9200 0.9210 0.9220
851.885817 0.9240 0.9250 0.9260 0.9280 0.9280
858.537713 0.9280 0.9260 0.9240 0.9210 0.9140
865.189609 0.9100 0.8980 0.8890 0.8880 0.8820
871.841505 0.8710 0.8560 0.8510 0.8401 0.8330
878.493402 0.8230 0.8170 0.8080 0.7990 0.7890
885.145298 0.7810 0.7730 0.7690 0.7610 0.7600
891.797194 0.7500 0.7350 0.7300 0.7220 0.7110
898.449090 0.7000 0.6880 0.6561 0.6381 0.6151
905.100986 0.6090 0.5980 0.5860 0.5780 0.5610
911.752882 0.5500 0.5410 0.5380 0.5370 0.5300
918.404778 0.5290 0.5270 0.5220 0.5190 0.5130
925.056674 0.5100 0.5070 0.5050 0.5030 0.5010
931.708570 0.5000 0.4970 0.4960 0.4940 0.4930
938.360466 0.4920 0.4920 0.4930 0.4940 0.4960
945.012362 0.4970 0.4980 0.5000 0.5010 0.5010
951.664259 0.4980 0.4970 0.4930 0.4900 0.4820
958.316155 0.4780 0.4680 0.4570 0.4131 0.3980
964.968051 0.3801 0.3611 0.3451 0.3231 0.3011
971.619947 0.2830 0.2590 0.2470 0.2310 0.2220
978.271843 0.1951 0.1820 0.1710 0.1630 0.1600
984.923739 0.1520 0.1500 0.1470 0.1420 0.1360
991.575635 0.1340 0.1310 0.1300 0.1270 0.1260
998.227531 0.1250 0.1230 0.1230 0.1220 0.1210
1004.879427 0.1210 0.1190 0.1190 0.1180 0.1180
1011.531323 0.1170 0.1170 0.1170 0.1150 0.1150
1018.183219 0.1140 0.1140 0.1140 0.1130 0.1130
1024.835116 0.1130 0.1130 0.1110 0.1110 0.1110
1031.487012 0.1110 0.1130 0.1140 0.1170 0.1190
1038.138908 0.1210 0.1230 0.1280 0.1320 0.1400
1044.790804 0.1440 0.1510 0.1550 0.1669 0.1750
1051.442700 0.1820 0.1880 0.1910 0.1980 0.1990
1058.094596 0.2000 0.2030 0.2040 0.2060 0.2060
1064.746492 0.2070 0.2080 0.2100 0.2120 0.2150
1071.398388 0.2180 0.2220 0.2300 0.2320 0.2390
1078.050284 0.2430 0.2500 0.2590 0.2680 0.2750
1084.702180 0.2800 0.2910 0.3010 0.3080 0.3110
1091.354076 0.3230 0.3350 0.3400 0.3490 0.3530
1098.005973 0.3600 0.3690 0.3770 0.3840 0.3900
1104.657869 0.3940 0.3980 0.4010 0.4060 0.4090
1111.309765 0.4140 0.4200 0.4210 0.4250 0.4290
1117.961661 0.4290 0.4330 0.4370 0.4420 0.4500
1124.613557 0.4580 0.4650 0.4700 0.4780 0.4879
1131.265453 0.4930 0.5020 0.5100 0.5180 0.5270
1137.917349 0.5390 0.5450 0.5500 0.5580 0.5650
1144.569245 0.5710 0.5790 0.5890 0.5930 0.5980
1151.221141 0.6010 0.6110 0.6190 0.6210 0.6250
1157.873037 0.6300 0.6320 0.6390 0.6430 0.6480
1164.524934 0.6480 0.6510 0.6540 0.6590 0.6620
1171.176830 0.6660 0.6680 0.6720 0.6750 0.6790
1177.828726 0.6800 0.6820 0.6870 0.6900 0.6920
1184.480622 0.6920 0.6980 0.7000 0.7020 0.7030
1191.132518 0.7100 0.7120 0.7180 0.7180 0.7190
1197.784414 0.7220 0.7230 0.7240 0.7260 0.7280
1204.436310 0.7280 0.7300 0.7320 0.7340 0.7350
1211.088206 0.7350 0.7390 0.7420 0.7420 0.7440
1217.740102 0.7460 0.7480 0.7500 0.7500 0.7510
1224.391998 0.7510 0.7520 0.7530 0.7560 0.7590
1231.043894 0.7600 0.7610 0.7640 0.7640 0.7670
1237.695791 0.7690 0.7710 0.7720 0.7750 0.7760
1244.347687 0.7760 0.7770 0.7790 0.7790 0.7790
1250.999583 0.7790 0.7790 0.7790 0.7790 0.7800
1257.651479 0.7800 0.7830 0.7840 0.7840 0.7870
1264.303375 0.7880 0.7880 0.7890 0.7890 0.7920
1270.955271 0.7930 0.7950 0.7950 0.7960 0.7970
1277.607167 0.7990 0.7990 0.8000 0.8000 0.8010
1284.259063 0.8010 0.8030 0.8050 0.8050 0.8070
1290.910959 0.8080 0.8090 0.8090 0.8110 0.8120
1297.562855 0.8120 0.8130 0.8130 0.8150 0.8150
1304.214751 0.8150 0.8160 0.8170 0.8190 0.8200
1310.866648 0.8200 0.8200 0.8200 0.8200 0.8210
1317.518544 0.8210 0.8210 0.8210 0.8230 0.8240
1324.170440 0.8240 0.8250 0.8250 0.8250 0.8270
1330.822336 0.8270 0.8290 0.8290 0.8290 0.8310
1337.474232 0.8310 0.8310 0.8320 0.8330 0.8330
1344.126128 0.8350 0.8350 0.8350 0.8360 0.8360
1350.778024 0.8360 0.8360 0.8360 0.8360 0.8360
1357.429920 0.8360 0.8360 0.8360 0.8370 0.8390
1364.081816 0.8390 0.8390 0.8390 0.8390 0.8390
1370.733712 0.8400 0.8410 0.8410 0.8410 0.8410
1377.385609 0.8410 0.8430 0.8440 0.8440 0.8440
1384.037505 0.8450 0.8450 0.8450 0.8450 0.8450
1390.689401 0.8450 0.8470 0.8480 0.8480 0.8480
1397.341297 0.8490 0.8490 0.8490 0.8490 0.8490
1403.993193 0.8490 0.8480 0.8480 0.8480 0.8480
1410.645089 0.8480 0.8480 0.8480 0.8490 0.8490
1417.296985 0.8490 0.8490 0.8510 0.8510 0.8510
1423.948881 0.8510 0.8510 0.8510 0.8520 0.8520
1430.600777 0.8520 0.8520 0.8520 0.8520 0.8520
1437.252673 0.8520 0.8530 0.8550 0.8560 0.8560
1443.904569 0.8570 0.8570 0.8570 0.8560 0.8560
1450.556466 0.8560 0.8570 0.8570 0.8570 0.8570
1457.208362 0.8570 0.8570 0.8570 0.8570 0.8590
1463.860258 0.8590 0.8590 0.8590 0.8590 0.8590
1470.512154 0.8590 0.8600 0.8610 0.8610 0.8630
1477.164050 0.8630 0.8630 0.8650 0.8650 0.8680
1483.815946 0.8690 0.8710 0.8720 0.8720 0.8710
1490.467842 0.8710 0.8710 0.8710 0.8720 0.8720
1497.119738 0.8720 0.8720 0.8720 0.8720 0.8730
1503.771634 0.8750 0.8750 0.8730 0.8720 0.8720
1510.423530 0.8720 0.8720 0.8720 0.8720 0.8720
1517.075426 0.8720 0.8720 0.8720 0.8720 0.8720
1523.727323 0.8710 0.8710 0.8720 0.8720 0.8720
1530.379219 0.8720 0.8720 0.8720 0.8720 0.8720
1537.031115 0.8720 0.8720 0.8720 0.8720 0.8730
1543.683011 0.8730 0.8730 0.8750 0.8750 0.8750
1550.334907 0.8730 0.8730 0.8730 0.8720 0.8720
1556.986803 0.8720 0.8720 0.8720 0.8720 0.8720
1563.638699 0.8720 0.8720 0.8720 0.8720 0.8720
1570.290595 0.8720 0.8710 0.8710 0.8710 0.8690
1576.942491 0.8690 0.8690 0.8680 0.8670 0.8650
1583.594387 0.8630 0.8610 0.8610 0.8600 0.8600
1590.246283 0.8570 0.8530 0.8520 0.8510 0.8510
1596.898180 0.8490 0.8490 0.8470 0.8440 0.8410
1603.550076 0.8400 0.8390 0.8360 0.8350 0.8330
1610.201972 0.8310 0.8290 0.8280 0.8250 0.8240
1616.853868 0.8240 0.8230 0.8230 0.8230 0.8230
1623.505764 0.8230 0.8240 0.8250 0.8250 0.8290
1630.157660 0.8310 0.8330 0.8350 0.8350 0.8360
1636.809556 0.8360 0.8370 0.8400 0.8410 0.8450
1643.461452 0.8490 0.8510 0.8510 0.8520 0.8520
1650.113348 0.8520 0.8520 0.8520 0.8520 0.8520
1656.765244 0.8520 0.8530 0.8530 0.8530 0.8530
1663.417141 0.8530 0.8530 0.8530 0.8550 0.8550
1670.069037 0.8560 0.8590 0.8600 0.8610 0.8610
1676.720933 0.8610 0.8610 0.8610 0.8610 0.8610
1683.372829 0.8610 0.8630 0.8630 0.8630 0.8630
1690.024725 0.8640 0.8640 0.8670 0.8680 0.8680
1696.676621 0.8680 0.8680 0.8680 0.8680 0.8690
1703.328517 0.8690 0.8690 0.8690 0.8710 0.8710
1709.980413 0.8710 0.8710 0.8710 0.8710 0.8710
1716.632309 0.8710 0.8720 0.8720 0.8720 0.8720
1723.284205 0.8720 0.8720 0.8720 0.8720 0.8720
1729.936101 0.8720 0.8730 0.8730 0.8720 0.8730
1736.587998 0.8730 0.8750 0.8750 0.8750 0.8750
1743.239894 0.8750 0.8750 0.8750 0.8750 0.8750
1749.891790 0.8770 0.8770 0.8760 0.8760 0.8730
1756.543686 0.8720 0.8710 0.8690 0.8690 0.8710
1763.195582 0.8720 0.8720 0.8730 0.8730 0.8750
1769.847478 0.8750 0.8750 0.8750 0.8750 0.8750
1776.499374 0.8750 0.8750 0.8750 0.8750 0.8720
1783.151270 0.8720 0.8720 0.8730 0.8730 0.8730
1789.803166 0.8730 0.8730 0.8720 0.8720 0.8720
1796.455062 0.8720 0.8730 0.8730 0.8730 0.8730
1803.106958 0.8730 0.8730 0.8720 0.8720 0.8720
1809.758855 0.8730 0.8750 0.8750 0.8750 0.8760
1816.410751 0.8760 0.8750 0.8750 0.8730 0.8720
1823.062647 0.8720 0.8720 0.8720 0.8720 0.8720
1829.714543 0.8720 0.8720 0.8720 0.8720 0.8720
1836.366439 0.8720 0.8720 0.8720 0.8720 0.8720
1843.018335 0.8720 0.8720 0.8720 0.8720 0.8720
1849.670231 0.8720 0.8720 0.8720 0.8720 0.8720
1856.322127 0.8730 0.8730 0.8730 0.8750 0.8750
1862.974023 0.8720 0.8720 0.8720 0.8720 0.8720
1869.625919 0.8720 0.8730 0.8730 0.8750 0.8750
1876.277816 0.8750 0.8750 0.8750 0.8750 0.8720
1882.929712 0.8720 0.8710 0.8690 0.8690 0.8710
1889.581608 0.8720 0.8720 0.8720 0.8730 0.8730
1896.233504 0.8730 0.8730 0.8730 0.8750 0.8750
1902.885400 0.8730 0.8720 0.8720 0.8720 0.8720
1909.537296 0.8720 0.8750 0.8750 0.8720 0.8720
1916.189192 0.8720 0.8720 0.8720 0.8720 0.8730
1922.841088 0.8750 0.8750 0.8750 0.8750 0.8750
1929.492984 0.8750 0.8750 0.8730 0.8730 0.8730
1936.144880 0.8730 0.8730 0.8730 0.8730 0.8730
1942.796776 0.8730 0.8730 0.8730 0.8730 0.8730
1949.448673 0.8730 0.8730 0.8730 0.8730 0.8730
1956.100569 0.8730 0.8750 0.8750 0.8750 0.8750
1962.752465 0.8750 0.8750 0.8730 0.8730 0.8730
1969.404361 0.8730 0.8730 0.8730 0.8730 0.8750
1976.056257 0.8750 0.8730 0.8730 0.8720 0.8720
1982.708153 0.8720 0.8710 0.8690 0.8690 0.8690
1989.360049 0.8690 0.8710 0.8710 0.8720 0.8720
1996.011945 0.8720 0.8720 0.8720 0.8730 0.8740
2002.663841 0.8750 0.8755 0.8760 0.8765 0.8770
2009.315737 0.8770 0.8770 0.8785 0.8800 0.8800
2015.967633 0.8800 0.8805 0.8810 0.8810 0.8810
2022.619530 0.8810 0.8810 0.8810 0.8810 0.8810
2029.271426 0.8810 0.8810 0.8810 0.8810 0.8810
2035.923322 0.8810 0.8810 0.8810 0.8810 0.8810
2042.575218 0.8810 0.8810 0.8810 0.8810 0.8810
2049.227114 0.8810 0.8810 0.8805 0.8800 0.8800
2055.879010 0.8800 0.8805 0.8810 0.8810 0.8810
2062.530906 0.8810 0.8810 0.8810 0.8810 0.8810
2069.182802 0.8810 0.8810 0.8810 0.8810 0.8810
2075.834698 0.8810 0.8810 0.8810 0.8810 0.8805
2082.486594 0.8800 0.8800 0.8800 0.8800 0.8800
2089.138490 0.8800 0.8800 0.8800 0.8800 0.8800
2095.790387 0.8800 0.8800 0.8800 0.8800 0.8800
2102.442283 0.8805 0.8810 0.8810 0.8810 0.8810
2109.094179 0.8810 0.8810 0.8810 0.8810 0.8810
2115.746075 0.8810 0.8810 0.8805 0.8800 0.8800
2122.397971 0.8800 0.8800 0.8800 0.8800 0.8800
2129.049867 0.8800 0.8800 0.8800 0.8800 0.8790
2135.701763 0.8780 0.8780 0.8780 0.8780 0.8780
2142.353659 0.8780 0.8780 0.8790 0.8800 0.8800
2149.005555 0.8800 0.8800 0.8800 0.8800 0.8800
2155.657451 0.8800 0.8800 0.8790 0.8780 0.8780
2162.309348 0.8780 0.8780 0.8780 0.8780 0.8780
2168.961244 0.8780 0.8780 0.8780 0.8780 0.8790
2175.613140 0.8800 0.8805 0.8810 0.8810 0.8809
2182.265036 0.8794 0.8780 0.8780 0.8781 0.8791
2188.916932 0.8800 0.8800 0.8800 0.8800 0.8800
2195.568828 0.8800 0.8800 0.8800 0.8800 0.8805
2202.220724 0.8810 0.8805 0.8799 0.8784 0.8770
2208.872620 0.8770 0.8770 0.8770 0.8770 0.8770
2215.524516 0.8770 0.8770 0.8771 0.8786 0.8800
2222.176412 0.8800 0.8800 0.8800 0.8798 0.8773
2228.828308 0.8750 0.8750 0.8750 0.8750 0.8750
2235.480205 0.8755 0.8760 0.8765 0.8770 0.8770
2242.132101 0.8771 0.8786 0.8800 0.8800 0.8799
2248.783997 0.8789 0.8780 0.8775 0.8770 0.8770
2255.435893 0.8770 0.8765 0.8760 0.8760 0.8760
2262.087789 0.8760 0.8760 0.8755 0.8750 0.8750
2268.739685 0.8750 0.8755 0.8760 0.8760 0.8760
2275.391581 0.8760 0.8760 0.8760 0.8760 0.8765
2282.043477 0.8770 0.8775 0.8780 0.8780 0.8780
2288.695373 0.8780 0.8780 0.8780 0.8780 0.8780
2295.347269 0.8780 0.8780 0.8780 0.8775 0.8770
2301.999165 0.8770 0.8770 0.8770 0.8770 0.8765
2308.651062 0.8760 0.8760 0.8760 0.8760 0.8760
2315.302958 0.8760 0.8760 0.8760 0.8759 0.8754
2321.954854 0.8749 0.8739 0.8730 0.8730 0.8729
2328.606750 0.8724 0.8720 0.8720 0.8720 0.8715
2335.258646 0.8710 0.8710 0.8710 0.8710 0.8710
2341.910542 0.8710 0.8709 0.8699 0.8690 0.8690
2348.562438 0.8690 0.8690 0.8691 0.8701 0.8710
2355.214334 0.8710 0.8710 0.8710 0.8710 0.8710
2361.866230 0.8711 0.8716 0.8721 0.8726 0.8730
2368.518126 0.8730 0.8730 0.8730 0.8730 0.8730
2375.170023 0.8730 0.8730 0.8730 0.8730 0.8729
2381.821919 0.8724 0.8719 0.8714 0.8710 0.8710
2388.473815 0.8710 0.8710 0.8710 0.8710 0.8709
2395.125711 0.8699 0.8690 0.8690 0.8690 0.8690
2401.777607 0.8690 0.8690 0.8689 0.8684 0.8680
2408.429503 0.8680 0.8680 0.8680 0.8679 0.8674
2415.081399 0.8670 0.8670 0.8670 0.8670 0.8669
2421.733295 0.8659 0.8650 0.8650 0.8650 0.8650
2428.385191 0.8650 0.8650 0.8650 0.8650 0.8649
2435.037087 0.8644 0.8640 0.8640 0.8640 0.8640
2441.688983 0.8640 0.8640 0.8640 0.8640 0.8640
2448.340880 0.8640 0.8640 0.8640 0.8640 0.8640
2454.992776 0.8639 0.8634 0.8630 0.8630 0.8629
2461.644672 0.8619 0.8611 0.8621 0.8629 0.8619
2468.296568 0.8610 0.8610 0.8610 0.8610 0.8610
2474.948464 0.8610 0.8610 0.8610 0.8610 0.8610
2481.600360 0.8609 0.8604 0.8600 0.8600 0.8600
2488.252256 0.8600 0.8600 0.8600 0.8600 0.8600
2494.904152 0.8600 0.8600 0.8599 0.8594 0.8591
2501.556048 0.8596 0.8599 0.8594 0.8590 0.8590
2508.207944 0.8590 0.8590 0.8590 0.8590 0.8590
2514.859840 0.8590 0.8590 0.8590 0.8588 0.8573
2521.511737 0.8560 0.8560 0.8560 0.8560 0.8560
2528.163633 0.8560 0.8560 0.8560 0.8560 0.8560
2534.815529 0.8559 0.8554 0.8550 0.8550 0.8550
2541.467425 0.8550 0.8550 0.8550 0.8550 0.8550
2548.119321 0.8550 0.8550 0.8550 0.8550 0.8550
2554.771217 0.8550 0.8550 0.8550 0.8548 0.8538
2561.423113 0.8529 0.8524 0.8520 0.8520 0.8520
2568.075009 0.8520 0.8519 0.8514 0.8510 0.8510
2574.726905 0.8510 0.8510 0.8510 0.8510 0.8510
2581.378801 0.8510 0.8510 0.8510 0.8510 0.8510
2588.030697 0.8511 0.8516 0.8519 0.8514 0.8510
2594.682594 0.8510 0.8510 0.8510 0.8508 0.8498
2601.334490 0.8490 0.8490 0.8490 0.8490 0.8492
2607.986386 0.8502 0.8510 0.8510 0.8511 0.8516
2614.638282 0.8520 0.8520 0.8521 0.8526 0.8530
2621.290178 0.8530 0.8528 0.8518 0.8508 0.8498
2627.942074 0.8490 0.8490 0.8490 0.8490 0.8492
2634.593970 0.8502 0.8508 0.8498 0.8490 0.8490
2641.245866 0.8490 0.8490 0.8489 0.8484 0.8480
2647.897762 0.8480 0.8480 0.8480 0.8479 0.8474
2654.549658 0.8470 0.8470 0.8470 0.8470 0.8468
2661.201555 0.8458 0.8450 0.8450 0.8450 0.8450
2667.853451 0.8449 0.8444 0.8440 0.8440 0.8440
2674.505347 0.8440 0.8440 0.8440 0.8440 0.8440
2681.157243 0.8440 0.8440 0.8439 0.8434 0.8430
2687.809139 0.8430 0.8430 0.8430 0.8430 0.8430
2694.461035 0.8430 0.8430 0.8430 0.8430 0.8430
2701.112931 0.8430 0.8428 0.8418 0.8410 0.8410
2707.764827 0.8410 0.8410 0.8410 0.8410 0.8409
2714.416723 0.8404 0.8400 0.8400 0.8400 0.8400
2721.068619 0.8400 0.8400 0.8401 0.8406 0.8409
2727.720515 0.8404 0.8400 0.8400 0.8400 0.8400
2734.372412 0.8400 0.8400 0.8400 0.8400 0.8399
2741.024308 0.8394 0.8390 0.8390 0.8390 0.8390
2747.676204 0.8390 0.8390 0.8388 0.8378 0.8370
2754.328100 0.8370 0.8370 0.8370 0.8370 0.8370
2760.979996 0.8369 0.8364 0.8360 0.8360 0.8360
2767.631892 0.8360 0.8360 0.8360 0.8359 0.8354
2774.283788 0.8350 0.8350 0.8350 0.8350 0.8350
2780.935684 0.8350 0.8350 0.8350 0.8347 0.8337
2787.587580 0.8330 0.8330 0.8330 0.8330 0.8330
2794.239476 0.8330 0.8330 0.8330 0.8330 0.8330
2800.891372 0.8330 0.8330 0.8327 0.8317 0.8310
2807.543269 0.8310 0.8310 0.8310 0.8307 0.8297
2814.195165 0.8289 0.8284 0.8280 0.8280 0.8279
2820.847061 0.8274 0.8270 0.8270 0.8270 0.8270
2827.498957 0.8267 0.8257 0.8250 0.8250 0.8250
2834.150853 0.8250 0.8249 0.8244 0.8240 0.8240
2840.802749 0.8240 0.8240 0.8239 0.8234 0.8230
2847.454645 0.8230 0.8227 0.8217 0.8213 0.8223
2854.106541 0.8227 0.8217 0.8210 0.8210 0.8210
2860.758437 0.8210 0.8209 0.8204 0.8200 0.8200
2867.410333 0.8199 0.8194 0.8190 0.8190 0.8190
2874.062229 0.8190 0.8190 0.8190 0.8187 0.8177
2880.714126 0.8170 0.8170 0.8170 0.8170 0.8173
2887.366022 0.8183 0.8190 0.8190 0.8190 0.8190
2894.017918 0.8190 0.8190 0.8187 0.8177 0.8167
2900.669814 0.8157 0.8146 0.8131 0.8120 0.8120
2907.321710 0.8118 0.8113 0.8110 0.8110 0.8107
2913.973606 0.8097 0.8089 0.8084 0.8076 0.8061
2920.625502 0.8049 0.8044 0.8039 0.8034 0.8027
2927.277398 0.8017 0.8009 0.8003 0.8000 0.8000
2933.929294 0.8000 0.8000 0.8000 0.8000 0.8000
2940.581190 0.8000 0.8000 0.8000 0.8000 0.8000
2947.233087 0.8000 0.8000 0.8000 0.8000 0.8000
2953.884983 0.8000 0.8000 0.8000 0.8000 0.8000
2960.536879 0.8000 0.8000 0.8000 0.8000 0.8000
2967.188775 0.8000 0.8000 0.8000 0.8000 0.8000
2973.840671 0.8000 0.8000 0.8000 0.8000 0.8002
2980.492567 0.8007 0.8010 0.8010 0.8010 0.8010
2987.144463 0.8010 0.8010 0.8010 0.8010 0.8013
2993.796359 0.8023 0.8030 0.8030 0.8030 0.8030
3000.448255 0.8030 0.8030 0.8030 0.8030 0.8030
3007.100151 0.8030 0.8030 0.8030 0.8030 0.8030
3013.752047 0.8030 0.8030 0.8030 0.8030 0.8030
3020.403944 0.8030 0.8030 0.8030 0.8027 0.8017
3027.055840 0.8010 0.8010 0.8010 0.8010 0.8010
3033.707736 0.8010 0.8010 0.8010 0.8010 0.8010
3040.359632 0.8010 0.8010 0.8008 0.8003 0.8000
3047.011528 0.8000 0.8000 0.8000 0.8000 0.8000
3053.663424 0.8000 0.8000 0.8000 0.8000 0.7998
3060.315320 0.7993 0.7990 0.7990 0.7990 0.7990
3066.967216 0.7990 0.7990 0.7990 0.7990 0.7986
3073.619112 0.7976 0.7970 0.7970 0.7970 0.7970
3080.271008 0.7970 0.7970 0.7970 0.7970 0.7968
3086.922904 0.7963 0.7960 0.7960 0.7960 0.7960
3093.574801 0.7958 0.7953 0.7950 0.7950 0.7950
3100.226697 0.7950 0.7950 0.7950 0.7946 0.7936
3106.878593 0.7930 0.7930 0.7928 0.7923 0.7920
3113.530489 0.7920 0.7918 0.7913 0.7910 0.7910
3120.182385 0.7910 0.7910 0.7906 0.7896 0.7890
3126.834281 0.7890 0.7890 0.7890 0.7890 0.7890
3133.486177 0.7890 0.7890 0.7890 0.7890 0.7890
3140.138073 0.7890 0.7890 0.7890 0.7890 0.7890
3146.789969 0.7888 0.7883 0.7882 0.7887 0.7890
3153.441865 0.7890 0.7888 0.7883 0.7878 0.7873
3160.093762 0.7866 0.7856 0.7848 0.7843 0.7840
3166.745658 0.7840 0.7840 0.7840 0.7838 0.7833
3173.397554 0.7830 0.7830 0.7830 0.7830 0.7826
3180.049450 0.7816 0.7810 0.7810 0.7808 0.7803
3186.701346 0.7800 0.7800 0.7800 0.7800 0.7800
3193.353242 0.7800 0.7800 0.7800 0.7800 0.7800
3200.005138 0.7800 0.7800 0.7800 0.7800 0.7798
3206.657034 0.7793 0.7784 0.7769 0.7758 0.7753
3213.308930 0.7750 0.7750 0.7750 0.7750 0.7746
3219.960826 0.7736 0.7730 0.7730 0.7730 0.7730
3226.612722 0.7728 0.7723 0.7720 0.7720 0.7720
3233.264619 0.7720 0.7718 0.7713 0.7710 0.7710
3239.916515 0.7706 0.7696 0.7690 0.7690 0.7690
3246.568411 0.7690 0.7688 0.7683 0.7680 0.7680
3253.220307 0.7680 0.7680 0.7680 0.7680 0.7678
3259.872203 0.7673 0.7670 0.7670 0.7670 0.7670
3266.524099 0.7666 0.7656 0.7650 0.7650 0.7648
3273.175995 0.7643 0.7640 0.7640 0.7640 0.7640
3279.827891 0.7638 0.7633 0.7621 0.7602 0.7590
3286.479787 0.7590 0.7586 0.7576 0.7570 0.7570
3293.131683 0.7566 0.7556 0.7550 0.7550 0.7550
3299.783579 0.7550 0.7546 0.7536 0.7528 0.7523
3306.435476 0.7518 0.7513 0.7508 0.7503 0.7500
3313.087372 0.7500 0.7496 0.7486 0.7480 0.7480
3319.739268 0.7478 0.7473 0.7468 0.7463 0.7456
3326.391164 0.7446 0.7438 0.7433 0.7428 0.7423
3333.043060 0.7416 0.7406 0.7398 0.7393 0.7383
3339.694956 0.7368 0.7356 0.7346 0.7336 0.7326
3346.346852 0.7318 0.7313 0.7310 0.7310 0.7308
3352.998748 0.7303 0.7296 0.7286 0.7280 0.7280
3359.650644 0.7278 0.7273 0.7261 0.7241 0.7223
3366.302540 0.7208 0.7196 0.7186 0.7173 0.7158
3372.954436 0.7148 0.7143 0.7136 0.7126 0.7116
3379.606333 0.7106 0.7096 0.7085 0.7078 0.7073
3386.258229 0.7063 0.7048 0.7035 0.7025 0.7015
3392.910125 0.7005 0.6998 0.6993 0.6983 0.6968
3399.562021 0.6958 0.6953 0.6943 0.6928 0.6918
3406.213917 0.6913 0.6903 0.6888 0.6871 0.6851
3412.865813 0.6838 0.6833 0.6828 0.6823 0.6815
3419.517709 0.6805 0.6795 0.6785 0.6780 0.6780
3426.169605 0.6775 0.6765 0.6758 0.6753 0.6748
3432.821501 0.6743 0.6735 0.6725 0.6715 0.6705
3439.473397 0.6700 0.6700 0.6695 0.6685 0.6680
3446.125294 0.6680 0.6678 0.6673 0.6668 0.6663
3452.777190 0.6660 0.6660 0.6660 0.6660 0.6660
3459.429086 0.6660 0.6660 0.6660 0.6660 0.6660
3466.080982 0.6660 0.6660 0.6660 0.6660 0.6662
3472.732878 0.6667 0.6670 0.6670 0.6670 0.6670
3479.384774 0.6672 0.6677 0.6680 0.6680 0.6685
3486.036670 0.6695 0.6700 0.6700 0.6703 0.6708
3492.688566 0.6710 0.6710 0.6717 0.6732 0.6745
3499.340462 0.6755 0.6765 0.6775 0.6782 0.6787
3505.992358 0.6790 0.6790 0.6792 0.6797 0.6800
3512.644254 0.6800 0.6800 0.6800 0.6805 0.6815
3519.296151 0.6820 0.6820 0.6823 0.6828 0.6833
3525.948047 0.6838 0.6845 0.6855 0.6865 0.6875
3532.599943 0.6887 0.6902 0.6912 0.6917 0.6920
3539.251839 0.6920 0.6927 0.6943 0.6950 0.6950
3545.903735 0.6953 0.6958 0.6968 0.6983 0.6990
3552.555631 0.6990 0.6993 0.6998 0.7005 0.7015
3559.207527 0.7033 0.7058 0.7078 0.7093 0.7103
3565.859423 0.7108 0.7113 0.7118 0.7128 0.7143
3572.511319 0.7153 0.7158 0.7165 0.7175 0.7183
3579.163215 0.7188 0.7190 0.7190 0.7193 0.7198
3585.815111 0.7200 0.7200 0.7200 0.7200 0.7197
3592.467008 0.7192 0.7182 0.7167 0.7144 0.7114
3599.118904 0.7084 0.7054 0.7029 0.7009 0.6984
3605.770800 0.6954 0.6914 0.6864 0.6764 0.6619
3612.422696 0.6495 0.6390 0.6275 0.6150 0.6051
3619.074592 0.5976 0.5898 0.5817 0.5728 0.5633
3625.726488 0.5563 0.5513 0.5468 0.5428 0.5405
3632.378384 0.5395 0.5395 0.5405 0.5415 0.5425
3639.030280 0.5446 0.5476 0.5501 0.5521 0.5533
3645.682176 0.5538 0.5551 0.5571 0.5588 0.5603
3652.334072 0.5621 0.5641 0.5672 0.5712 0.5746
3658.985969 0.5776 0.5823 0.5883 0.5951 0.6026
3665.637865 0.6103 0.6183 0.6263 0.6343 0.6404
3672.289761 0.6449 0.6505 0.6571 0.6628 0.6678
3678.941657 0.6725 0.6770 0.6810 0.6845 0.6863
3685.593553 0.6868 0.6884 0.6909 0.6926 0.6936
3692.245449 0.6940 0.6940 0.6940 0.6940 0.6940
3698.897345 0.6940 0.6943 0.6948 0.6953 0.6958
3705.549241 0.6977 0.7007 0.7034 0.7059 0.7078
3712.201137 0.7093 0.7106 0.7116 0.7137 0.7167
3718.853033 0.7183 0.7188 0.7193 0.7198 0.7200
3725.504929 0.7200 0.7206 0.7216 0.7220 0.7220
3732.156826 0.7220 0.7220 0.7220 0.7220 0.7220
3738.808722 0.7220 0.7220 0.7220 0.7220 0.7220
3745.460618 0.7223 0.7228 0.7230 0.7230 0.7233
3752.112514 0.7238 0.7246 0.7256 0.7266 0.7276
3758.764410 0.7280 0.7280 0.7280 0.7280 0.7280
3765.416306 0.7280 0.7280 0.7280 0.7280 0.7280
3772.068202 0.7286 0.7296 0.7300 0.7300 0.7300
3778.720098 0.7300 0.7300 0.7300 0.7300 0.7300
3785.371994 0.7300 0.7300 0.7300 0.7300 0.7300
3792.023890 0.7300 0.7300 0.7300 0.7294 0.7284
3798.675786 0.7280 0.7280 0.7280 0.7280 0.7280
3805.327683 0.7280 0.7280 0.7280 0.7277 0.7272
3811.979579 0.7270 0.7270 0.7270 0.7270 0.7270
3818.631475 0.7270 0.7270 0.7270 0.7270 0.7270
3825.283371 0.7270 0.7270 0.7270 0.7270 0.7270
3831.935267 0.7270 0.7270 0.7270 0.7270 0.7270
3838.587163 0.7270 0.7270 0.7270 0.7270 0.7270
3845.239059 0.7270 0.7270 0.7270 0.7270 0.7270
3851.890955 0.7270 0.7270 0.7270 0.7270 0.7270
3858.542851 0.7270 0.7270 0.7270 0.7270 0.7270
3865.194747 0.7270 0.7270 0.7270 0.7270 0.7270
3871.846643 0.7270 0.7270 0.7270 0.7270 0.7270
3878.498540 0.7270 0.7270 0.7270 0.7270 0.7270
3885.150436 0.7270 0.7270 0.7270 0.7270 0.7270
3891.802332 0.7270 0.7270 0.7270 0.7270 0.7270
3898.454228 0.7270 0.7270 0.7270 0.7270 0.7270
3905.106124 0.7270 0.7270 0.7270 0.7270 0.7267
3911.758020 0.7262 0.7260 0.7260 0.7260 0.7260
3918.409916 0.7260 0.7260 0.7260 0.7260 0.7260
3925.061812 0.7260 0.7260 0.7260 0.7260 0.7260
3931.713708 0.7260 0.7260 0.7254 0.7244 0.7240
3938.365604 0.7240 0.7240 0.7240 0.7237 0.7232
3945.017501 0.7227 0.7222 0.7220 0.7220 0.7220
3951.669397 0.7220 0.7214 0.7204 0.7200 0.7200
3958.321293 0.7200 0.7200 0.7206 0.7216 0.7220
3964.973189 0.7220 0.7220 0.7220 0.7220 0.7220
3971.625085 0.7223 0.7228 0.7230 0.7230 0.7230
3978.276981 0.7230 0.7230 0.7230 0.7230 0.7230
3984.928877 0.7230 0.7230 0.7230 0.7230
##END=
