##TITLE=1,2-Dodecanediamine dihydrochloride
##JCAMP-DX=4.24
##DATA TYPE=INFRARED SPECTRUM
##CLASS=COBLENTZ III
##ORIGIN=BRITISH PETROLEUM CO. LTD., ENGLAND
##OWNER=Copyright (C) 1987 by the Coblentz Society
Collection (C) 2018 copyright by the U.S. Secretary of Commerce
on behalf of the United States of America. All rights reserved.
##DATE=1972/07/28
##MOLFORM=C12 H30 Cl2 N2
##SOURCE REFERENCE=COBLENTZ NO. 9408
##$NIST ID=B6009408
##$NIST SOURCE=COBLENTZ
##$NIST IMAGE=cob9408
##SPECTROMETER/DATA SYSTEM=PERKIN-ELMER 157
##STATE=SOLID (KBr DISC, 0.8% WT.)
$$ HCl RUN IN KBr MAY CONTAIN SOME HBr
$$ REF. Can. J. Spec., 18,4,101, '73 C. S. DOUSE and P. B. TOOKE
##SAMPLING PROCEDURE=TRANSMISSION
##RESOLUTION=2
##DATA PROCESSING=DIGITIZED BY COBLENTZ SOCIETY (BATCH II) FROM HARD COPY
##XUNITS=1/CM
##YUNITS=TRANSMITTANCE
##XFACTOR=1.0
##YFACTOR=1
##FIRSTX=668
##LASTX=4000
##FIRSTY=0.921
##MAXX=4000
##MINX=668
##MAXY=0.92
##MINY=0.0035
##NPOINTS=3333
##XYDATA=(X++(Y..Y))
668.000000 0.9210 0.9203 0.9201 0.9200 0.9198
673.000000 0.9200 0.9191 0.9187 0.9180 0.9171
678.000000 0.9156 0.9123 0.9081 0.9043 0.9020
683.000000 0.9001 0.8983 0.8965 0.8937 0.8902
688.000000 0.8870 0.8844 0.8817 0.8790 0.8763
693.000000 0.8736 0.8707 0.8677 0.8647 0.8615
698.000000 0.8583 0.8551 0.8507 0.8457 0.8408
703.000000 0.8352 0.8291 0.8221 0.8146 0.8058
708.000000 0.7945 0.7831 0.7712 0.7581 0.7432
713.000000 0.7262 0.7060 0.6703 0.6190 0.5586
718.000000 0.4687 0.3746 0.3282 0.3256 0.3448
723.000000 0.3877 0.4305 0.4718 0.4993 0.5273
728.000000 0.5550 0.5744 0.5888 0.5957 0.5998
733.000000 0.6028 0.6061 0.6095 0.6136 0.6178
738.000000 0.6223 0.6286 0.6418 0.7110 0.7406
743.000000 0.7604 0.7834 0.7947 0.8012 0.8047
748.000000 0.8069 0.8074 0.8065 0.8036 0.7999
753.000000 0.7964 0.7929 0.7895 0.7849 0.7794
758.000000 0.7687 0.7483 0.7288 0.7116 0.6866
763.000000 0.6608 0.6525 0.6510 0.6500 0.6467
768.000000 0.6412 0.6331 0.6194 0.6009 0.5756
773.000000 0.5469 0.5017 0.3685 0.2534 0.2107
778.000000 0.1910 0.1874 0.1854 0.2719 0.3412
783.000000 0.4103 0.4793 0.5479 0.6245 0.6631
788.000000 0.6927 0.7218 0.7487 0.7664 0.7782
793.000000 0.7862 0.7926 0.7973 0.7984 0.7992
798.000000 0.7994 0.7997 0.8010 0.7996 0.7995
803.000000 0.7994 0.7994 0.7994 0.7994 0.7993
808.000000 0.7990 0.7986 0.7970 0.7938 0.7914
813.000000 0.7900 0.7883 0.7862 0.7842 0.7821
818.000000 0.7798 0.7742 0.7670 0.7581 0.7441
823.000000 0.7174 0.6893 0.6443 0.6256 0.6114
828.000000 0.5937 0.5773 0.5793 0.5849 0.6060
833.000000 0.6324 0.6833 0.7254 0.7374 0.7456
838.000000 0.7516 0.7584 0.7663 0.7710 0.7750
843.000000 0.7777 0.7794 0.7796 0.7797 0.7799
848.000000 0.7802 0.7805 0.7807 0.7810 0.7815
853.000000 0.7806 0.7805 0.7802 0.7799 0.7795
858.000000 0.7783 0.7750 0.7720 0.7709 0.7703
863.000000 0.7698 0.7696 0.7686 0.7674 0.7649
868.000000 0.7622 0.7592 0.7560 0.7528 0.7504
873.000000 0.7489 0.7478 0.7463 0.7426 0.7365
878.000000 0.7320 0.7296 0.7284 0.7275 0.7256
883.000000 0.7209 0.7144 0.7073 0.6991 0.6889
888.000000 0.6801 0.6729 0.6640 0.6503 0.6299
893.000000 0.6009 0.5402 0.5061 0.4419 0.3760
898.000000 0.3101 0.2435 0.2126 0.2110 0.2095
903.000000 0.2516 0.2995 0.3473 0.3950 0.4426
908.000000 0.4901 0.5286 0.5431 0.5448 0.5452
913.000000 0.5112 0.4731 0.4350 0.3970 0.3591
918.000000 0.3213 0.2836 0.2459 0.2083 0.1802
923.000000 0.1784 0.2099 0.2657 0.3216 0.3773
928.000000 0.4328 0.4883 0.5296 0.5399 0.5453
933.000000 0.5498 0.5543 0.5595 0.5718 0.6119
938.000000 0.6304 0.6447 0.6599 0.6771 0.6883
943.000000 0.6954 0.6980 0.6988 0.6995 0.7002
948.000000 0.7009 0.7020 0.7031 0.7056 0.7102
953.000000 0.7154 0.7191 0.7201 0.7223 0.7192
958.000000 0.7180 0.7166 0.7151 0.7129 0.7108
963.000000 0.7081 0.7051 0.7021 0.6967 0.6910
968.000000 0.6842 0.6748 0.6379 0.5933 0.5079
973.000000 0.4392 0.3798 0.3750 0.3753 0.3760
978.000000 0.4354 0.4822 0.5289 0.5679 0.5796
983.000000 0.5970 0.6067 0.6102 0.6102 0.6103
988.000000 0.6063 0.5934 0.5792 0.5597 0.5215
993.000000 0.4833 0.4452 0.4072 0.3693 0.2897
998.000000 0.2511 0.2126 0.1743 0.1359 0.1041
1003.000000 0.0998 0.0991 0.1167 0.1595 0.2022
1008.000000 0.2449 0.2875 0.3300 0.3723 0.3946
1013.000000 0.4102 0.4161 0.4184 0.4201 0.4221
1018.000000 0.4814 0.4907 0.4972 0.5035 0.5088
1023.000000 0.5147 0.5222 0.5325 0.5521 0.5873
1028.000000 0.6420 0.6478 0.6483 0.6486 0.6488
1033.000000 0.6498 0.6509 0.6534 0.6604 0.6685
1038.000000 0.6740 0.6770 0.6778 0.6778 0.6774
1043.000000 0.6760 0.6659 0.6459 0.6403 0.6372
1048.000000 0.6339 0.6300 0.6269 0.6245 0.6235
1053.000000 0.6223 0.6176 0.6110 0.6049 0.5991
1058.000000 0.5946 0.5915 0.5901 0.5892 0.5879
1063.000000 0.5788 0.5489 0.5190 0.4892 0.4594
1068.000000 0.4298 0.4145 0.4138 0.4154 0.4596
1073.000000 0.4971 0.5068 0.5076 0.4815 0.4502
1078.000000 0.4188 0.3877 0.3766 0.3772 0.4288
1083.000000 0.5038 0.5786 0.6389 0.6521 0.6742
1088.000000 0.6839 0.6938 0.7039 0.7105 0.7130
1093.000000 0.7143 0.7147 0.7148 0.7152 0.7141
1098.000000 0.7131 0.7120 0.7109 0.7088 0.7069
1103.000000 0.7049 0.7019 0.6976 0.6937 0.6923
1108.000000 0.6914 0.6897 0.6868 0.6822 0.6768
1113.000000 0.6708 0.6651 0.6597 0.6522 0.6380
1118.000000 0.6260 0.6119 0.5889 0.5733 0.5499
1123.000000 0.5348 0.4843 0.4003 0.3604 0.3205
1128.000000 0.2808 0.2411 0.2015 0.1825 0.1821
1133.000000 0.1818 0.2319 0.2673 0.3024 0.3377
1138.000000 0.3727 0.4205 0.4343 0.4463 0.4609
1143.000000 0.4721 0.4783 0.4811 0.4831 0.4848
1148.000000 0.4872 0.4901 0.4952 0.5011 0.5101
1153.000000 0.5217 0.5653 0.6135 0.6257 0.6370
1158.000000 0.6479 0.6602 0.6715 0.6779 0.6839
1163.000000 0.6889 0.6924 0.6936 0.6943 0.6947
1168.000000 0.6949 0.6950 0.6959 0.6950 0.6946
1173.000000 0.6942 0.6933 0.6908 0.6871 0.6831
1178.000000 0.6794 0.6746 0.6688 0.6637 0.6425
1183.000000 0.6076 0.5728 0.5382 0.5035 0.4689
1188.000000 0.4343 0.3998 0.3840 0.3858 0.4244
1193.000000 0.4680 0.5115 0.5548 0.5982 0.6395
1198.000000 0.6545 0.6592 0.6619 0.6627 0.6630
1203.000000 0.6621 0.6624 0.6443 0.6242 0.6041
1208.000000 0.5841 0.5641 0.5441 0.5242 0.5043
1213.000000 0.4844 0.4900 0.4851 0.5762 0.6220
1218.000000 0.6678 0.7148 0.7310 0.7364 0.7402
1223.000000 0.7434 0.7444 0.7453 0.7462 0.7472
1228.000000 0.7465 0.7465 0.7463 0.7461 0.7453
1233.000000 0.7446 0.7433 0.7419 0.7407 0.7402
1238.000000 0.7397 0.7391 0.7382 0.7371 0.7352
1243.000000 0.7322 0.7270 0.7210 0.7130 0.7012
1248.000000 0.6915 0.6767 0.6461 0.6127 0.5795
1253.000000 0.5463 0.5302 0.5320 0.5755 0.6231
1258.000000 0.6700 0.6817 0.6830 0.6834 0.6826
1263.000000 0.6824 0.6812 0.6798 0.6780 0.6760
1268.000000 0.6740 0.6712 0.6684 0.6642 0.6603
1273.000000 0.6542 0.6295 0.5986 0.5678 0.5371
1278.000000 0.5148 0.5131 0.5515 0.5956 0.6396
1283.000000 0.6825 0.7013 0.7038 0.7042 0.7037
1288.000000 0.7032 0.7009 0.6923 0.6808 0.6692
1293.000000 0.6576 0.6461 0.6362 0.6324 0.6305
1298.000000 0.6291 0.6277 0.6264 0.6243 0.6162
1303.000000 0.5991 0.5813 0.5636 0.5460 0.5304
1308.000000 0.5290 0.5293 0.5686 0.5984 0.6250
1313.000000 0.6371 0.6431 0.6465 0.6489 0.6500
1318.000000 0.6505 0.6508 0.6533 0.6505 0.6500
1323.000000 0.6493 0.6483 0.6470 0.6457 0.6442
1328.000000 0.6426 0.6412 0.6399 0.6386 0.6372
1333.000000 0.6352 0.6308 0.6236 0.6101 0.6026
1338.000000 0.6012 0.6009 0.5998 0.6109 0.6185
1343.000000 0.6262 0.6338 0.6403 0.6414 0.6424
1348.000000 0.6405 0.6394 0.6377 0.6336 0.6282
1353.000000 0.6228 0.6174 0.6121 0.6067 0.6041
1358.000000 0.6016 0.6093 0.6174 0.6254 0.6335
1363.000000 0.6409 0.6457 0.6465 0.6466 0.6460
1368.000000 0.6450 0.6435 0.6399 0.6351 0.6315
1373.000000 0.6284 0.6254 0.6220 0.6179 0.6143
1378.000000 0.6131 0.6129 0.6127 0.6125 0.6122
1383.000000 0.6119 0.6109 0.6095 0.6066 0.6040
1388.000000 0.5974 0.5893 0.5821 0.5740 0.5568
1393.000000 0.5382 0.5006 0.4733 0.4461 0.4189
1398.000000 0.3918 0.3647 0.3376 0.3160 0.3104
1403.000000 0.3089 0.3149 0.3406 0.3732 0.4058
1408.000000 0.4383 0.4708 0.5033 0.5357 0.5636
1413.000000 0.5750 0.5788 0.5806 0.5817 0.5834
1418.000000 0.5830 0.5833 0.5827 0.5820 0.5807
1423.000000 0.5793 0.5773 0.5749 0.5720 0.5677
1428.000000 0.5633 0.5591 0.5521 0.5438 0.5373
1433.000000 0.5297 0.5179 0.5068 0.4970 0.4872
1438.000000 0.4775 0.4677 0.4603 0.4533 0.4490
1443.000000 0.4468 0.4446 0.4430 0.4416 0.4402
1448.000000 0.4375 0.4191 0.3943 0.3710 0.3477
1453.000000 0.3245 0.3013 0.2781 0.2550 0.2319
1458.000000 0.2089 0.1859 0.1629 0.1312 0.1196
1463.000000 0.1161 0.1130 0.0899 0.0622 0.0503
1468.000000 0.0440 0.0378 0.0330 0.0316 0.0311
1473.000000 0.0312 0.0317 0.0316 0.0344 0.0361
1478.000000 0.0376 0.0385 0.0386 0.0385 0.0380
1483.000000 0.0377 0.0375 0.0374 0.0380 0.0396
1488.000000 0.0430 0.0471 0.0621 0.1291 0.1395
1493.000000 0.1460 0.1524 0.1885 0.2064 0.2162
1498.000000 0.2190 0.2203 0.2209 0.2213 0.2218
1503.000000 0.2221 0.2223 0.2225 0.2227 0.2230
1508.000000 0.2232 0.2237 0.2257 0.2294 0.2368
1513.000000 0.2434 0.2514 0.2698 0.2880 0.3028
1518.000000 0.3133 0.3237 0.3342 0.3446 0.3550
1523.000000 0.3706 0.3887 0.4007 0.4081 0.4145
1528.000000 0.4223 0.4321 0.4498 0.4655 0.5003
1533.000000 0.5108 0.5148 0.5189 0.5239 0.5312
1538.000000 0.5405 0.5482 0.5528 0.5551 0.5563
1543.000000 0.5577 0.5586 0.5594 0.5602 0.5603
1548.000000 0.5605 0.5607 0.5607 0.5603 0.5604
1553.000000 0.5602 0.5597 0.5591 0.5582 0.5560
1558.000000 0.5523 0.5484 0.5449 0.5406 0.5355
1563.000000 0.5304 0.5253 0.5197 0.5131 0.5068
1568.000000 0.5008 0.4948 0.4880 0.4795 0.4701
1573.000000 0.4606 0.4510 0.4415 0.4320 0.4225
1578.000000 0.4130 0.4035 0.3941 0.3847 0.3752
1583.000000 0.3658 0.3563 0.3469 0.3330 0.3250
1588.000000 0.3209 0.3181 0.3153 0.3043 0.2908
1593.000000 0.2817 0.2754 0.2696 0.2571 0.2396
1598.000000 0.2215 0.2035 0.1856 0.1712 0.1652
1603.000000 0.1646 0.1646 0.1652 0.1728 0.1649
1608.000000 0.2198 0.2451 0.2704 0.2937 0.3052
1613.000000 0.3145 0.3220 0.3279 0.3313 0.3349
1618.000000 0.3442 0.3662 0.3844 0.3951 0.4056
1623.000000 0.4165 0.4274 0.4384 0.4493 0.4602
1628.000000 0.4734 0.4871 0.4955 0.5057 0.5124
1633.000000 0.5166 0.5205 0.5224 0.5244 0.5266
1638.000000 0.5309 0.5389 0.5456 0.5511 0.5601
1643.000000 0.5696 0.5746 0.5794 0.5847 0.5913
1648.000000 0.5990 0.6084 0.6204 0.6305 0.6381
1653.000000 0.6441 0.6494 0.6533 0.6559 0.6585
1658.000000 0.6611 0.6635 0.6655 0.6675 0.6696
1663.000000 0.6716 0.6731 0.6745 0.6759 0.6773
1668.000000 0.6786 0.6800 0.6814 0.6830 0.6842
1673.000000 0.6855 0.6866 0.6873 0.6877 0.6882
1678.000000 0.6886 0.6890 0.6894 0.6901 0.6908
1683.000000 0.6924 0.6946 0.6967 0.6986 0.7003
1688.000000 0.7021 0.7037 0.7045 0.7050 0.7053
1693.000000 0.7056 0.7059 0.7059 0.7059 0.7060
1698.000000 0.7061 0.7061 0.7061 0.7059 0.7057
1703.000000 0.7055 0.7054 0.7053 0.7051 0.7050
1708.000000 0.7048 0.7047 0.7045 0.7045 0.7043
1713.000000 0.7042 0.7042 0.7043 0.7045 0.7046
1718.000000 0.7049 0.7051 0.7053 0.7055 0.7058
1723.000000 0.7063 0.7070 0.7079 0.7087 0.7097
1728.000000 0.7110 0.7126 0.7141 0.7159 0.7179
1733.000000 0.7200 0.7222 0.7250 0.7285 0.7321
1738.000000 0.7358 0.7396 0.7432 0.7466 0.7484
1743.000000 0.7497 0.7509 0.7520 0.7529 0.7534
1748.000000 0.7539 0.7544 0.7547 0.7549 0.7552
1753.000000 0.7554 0.7557 0.7559 0.7561 0.7562
1758.000000 0.7563 0.7564 0.7565 0.7566 0.7567
1763.000000 0.7567 0.7568 0.7569 0.7569 0.7569
1768.000000 0.7569 0.7569 0.7569 0.7569 0.7569
1773.000000 0.7569 0.7569 0.7569 0.7569 0.7569
1778.000000 0.7569 0.7569 0.7569 0.7570 0.7570
1783.000000 0.7570 0.7571 0.7571 0.7572 0.7572
1788.000000 0.7572 0.7573 0.7573 0.7574 0.7574
1793.000000 0.7574 0.7575 0.7575 0.7576 0.7576
1798.000000 0.7576 0.7577 0.7577 0.7577 0.7565
1803.000000 0.7578 0.7578 0.7578 0.7579 0.7579
1808.000000 0.7580 0.7580 0.7580 0.7581 0.7581
1813.000000 0.7582 0.7582 0.7582 0.7582 0.7583
1818.000000 0.7583 0.7583 0.7583 0.7583 0.7583
1823.000000 0.7583 0.7583 0.7583 0.7583 0.7583
1828.000000 0.7583 0.7583 0.7583 0.7583 0.7583
1833.000000 0.7583 0.7583 0.7583 0.7583 0.7582
1838.000000 0.7582 0.7581 0.7580 0.7580 0.7580
1843.000000 0.7579 0.7578 0.7578 0.7570 0.7559
1848.000000 0.7545 0.7526 0.7507 0.7493 0.7483
1853.000000 0.7475 0.7471 0.7467 0.7463 0.7460
1858.000000 0.7456 0.7453 0.7449 0.7445 0.7441
1863.000000 0.7436 0.7429 0.7418 0.7404 0.7389
1868.000000 0.7368 0.7346 0.7323 0.7302 0.7282
1873.000000 0.7262 0.7242 0.7222 0.7202 0.7180
1878.000000 0.7153 0.7128 0.7109 0.7106 0.7104
1883.000000 0.7102 0.7100 0.7098 0.7094 0.7091
1888.000000 0.7086 0.7082 0.7078 0.7072 0.7066
1893.000000 0.7059 0.7053 0.7047 0.7041 0.7034
1898.000000 0.7029 0.7023 0.7017 0.7011 0.7005
1903.000000 0.6999 0.6994 0.6988 0.6982 0.6976
1908.000000 0.6971 0.6965 0.6960 0.6955 0.6951
1913.000000 0.6946 0.6942 0.6937 0.6932 0.6928
1918.000000 0.6924 0.6920 0.6917 0.6914 0.6911
1923.000000 0.6909 0.6906 0.6903 0.6901 0.6899
1928.000000 0.6896 0.6894 0.6891 0.6888 0.6885
1933.000000 0.6882 0.6878 0.6873 0.6869 0.6865
1938.000000 0.6861 0.6857 0.6850 0.6842 0.6834
1943.000000 0.6825 0.6817 0.6808 0.6800 0.6792
1948.000000 0.6784 0.6776 0.6769 0.6761 0.6753
1953.000000 0.6745 0.6738 0.6730 0.6722 0.6714
1958.000000 0.6706 0.6696 0.6686 0.6675 0.6665
1963.000000 0.6654 0.6644 0.6634 0.6623 0.6612
1968.000000 0.6602 0.6591 0.6580 0.6569 0.6558
1973.000000 0.6548 0.6537 0.6526 0.6515 0.6504
1978.000000 0.6493 0.6481 0.6470 0.6459 0.6448
1983.000000 0.6435 0.6421 0.6407 0.6393 0.6379
1988.000000 0.6364 0.6350 0.6335 0.6319 0.6303
1993.000000 0.6287 0.6272 0.6256 0.6240 0.6223
1998.000000 0.6206 0.6180 0.6148 0.6116 0.6085
2003.000000 0.6055 0.6026 0.5997 0.5969 0.5909
2008.000000 0.5827 0.5756 0.5687 0.5619 0.5552
2013.000000 0.5485 0.5417 0.5352 0.5289 0.5220
2018.000000 0.5151 0.5085 0.5023 0.4964 0.4906
2023.000000 0.4856 0.4822 0.4787 0.4753 0.4719
2028.000000 0.4682 0.4640 0.4597 0.4554 0.4511
2033.000000 0.4468 0.4425 0.4377 0.4295 0.4049
2038.000000 0.3918 0.3898 0.3878 0.3859 0.3845
2043.000000 0.3832 0.3820 0.3814 0.3810 0.3808
2048.000000 0.3807 0.3806 0.3805 0.3805 0.3806
2053.000000 0.3807 0.3808 0.3805 0.3813 0.3817
2058.000000 0.3822 0.3829 0.3837 0.3845 0.3860
2063.000000 0.3874 0.3886 0.3897 0.3907 0.3919
2068.000000 0.3931 0.3944 0.3957 0.3972 0.3989
2073.000000 0.4007 0.4032 0.4054 0.4072 0.4100
2078.000000 0.4134 0.4180 0.4229 0.4277 0.4326
2083.000000 0.4374 0.4423 0.4472 0.4520 0.4569
2088.000000 0.4617 0.4665 0.4713 0.4761 0.4809
2093.000000 0.4857 0.4905 0.4953 0.5001 0.5048
2098.000000 0.5097 0.5145 0.5196 0.5245 0.5286
2103.000000 0.5329 0.5375 0.5419 0.5460 0.5502
2108.000000 0.5543 0.5572 0.5601 0.5630 0.5658
2113.000000 0.5688 0.5718 0.5750 0.5781 0.5813
2118.000000 0.5846 0.5878 0.5910 0.5945 0.5983
2123.000000 0.6022 0.6060 0.6099 0.6137 0.6172
2128.000000 0.6206 0.6239 0.6272 0.6305 0.6336
2133.000000 0.6366 0.6394 0.6421 0.6449 0.6476
2138.000000 0.6504 0.6533 0.6564 0.6597 0.6631
2143.000000 0.6666 0.6701 0.6744 0.6789 0.6836
2148.000000 0.6887 0.6954 0.7005 0.7032 0.7054
2153.000000 0.7073 0.7082 0.7088 0.7092 0.7095
2158.000000 0.7098 0.7101 0.7103 0.7111 0.7132
2163.000000 0.7154 0.7177 0.7204 0.7236 0.7271
2168.000000 0.7309 0.7345 0.7381 0.7418 0.7455
2173.000000 0.7491 0.7525 0.7544 0.7560 0.7570
2178.000000 0.7578 0.7583 0.7588 0.7590 0.7592
2183.000000 0.7594 0.7595 0.7596 0.7598 0.7599
2188.000000 0.7601 0.7602 0.7604 0.7605 0.7606
2193.000000 0.7608 0.7608 0.7600 0.7606 0.7604
2198.000000 0.7603 0.7602 0.7601 0.7599 0.7598
2203.000000 0.7597 0.7594 0.7590 0.7585 0.7580
2208.000000 0.7576 0.7571 0.7566 0.7560 0.7553
2213.000000 0.7546 0.7539 0.7533 0.7527 0.7522
2218.000000 0.7516 0.7512 0.7508 0.7507 0.7507
2223.000000 0.7507 0.7507 0.7506 0.7506 0.7506
2228.000000 0.7506 0.7503 0.7500 0.7495 0.7490
2233.000000 0.7472 0.7451 0.7439 0.7429 0.7419
2238.000000 0.7409 0.7399 0.7390 0.7380 0.7371
2243.000000 0.7361 0.7352 0.7346 0.7341 0.7337
2248.000000 0.7333 0.7329 0.7325 0.7319 0.7324
2253.000000 0.7325 0.7326 0.7329 0.7333 0.7337
2258.000000 0.7340 0.7344 0.7348 0.7352 0.7356
2263.000000 0.7360 0.7364 0.7369 0.7374 0.7378
2268.000000 0.7382 0.7386 0.7389 0.7393 0.7396
2273.000000 0.7399 0.7403 0.7406 0.7409 0.7412
2278.000000 0.7413 0.7415 0.7416 0.7417 0.7419
2283.000000 0.7420 0.7420 0.7420 0.7420 0.7418
2288.000000 0.7417 0.7416 0.7413 0.7409 0.7404
2293.000000 0.7398 0.7392 0.7387 0.7382 0.7376
2298.000000 0.7370 0.7362 0.7354 0.7346 0.7339
2303.000000 0.7331 0.7323 0.7313 0.7304 0.7294
2308.000000 0.7284 0.7275 0.7265 0.7255 0.7245
2313.000000 0.7234 0.7219 0.7204 0.7188 0.7172
2318.000000 0.7143 0.7113 0.7080 0.7046 0.7013
2323.000000 0.6980 0.6946 0.6914 0.6881 0.6847
2328.000000 0.6814 0.6781 0.6749 0.6716 0.6682
2333.000000 0.6649 0.6616 0.6584 0.6551 0.6518
2338.000000 0.6485 0.6453 0.6420 0.6388 0.6355
2343.000000 0.6322 0.6290 0.6257 0.6225 0.6192
2348.000000 0.6161 0.6130 0.6097 0.6059 0.6024
2353.000000 0.5999 0.5974 0.5948 0.5923 0.5898
2358.000000 0.5873 0.5848 0.5823 0.5797 0.5772
2363.000000 0.5747 0.5728 0.5710 0.5696 0.5683
2368.000000 0.5670 0.5658 0.5649 0.5647 0.5644
2373.000000 0.5642 0.5640 0.5638 0.5637 0.5637
2378.000000 0.5639 0.5625 0.5641 0.5643 0.5644
2383.000000 0.5645 0.5652 0.5660 0.5669 0.5677
2388.000000 0.5685 0.5694 0.5702 0.5724 0.5748
2393.000000 0.5770 0.5792 0.5812 0.5826 0.5840
2398.000000 0.5850 0.5859 0.5864 0.5868 0.5871
2403.000000 0.5875 0.5878 0.5881 0.5885 0.5888
2408.000000 0.5891 0.5894 0.5897 0.5899 0.5897
2413.000000 0.5896 0.5864 0.5827 0.5791 0.5754
2418.000000 0.5905 0.5681 0.5644 0.5608 0.5571
2423.000000 0.5535 0.5499 0.5462 0.5426 0.5389
2428.000000 0.5353 0.5317 0.5281 0.5244 0.5208
2433.000000 0.5172 0.5136 0.5100 0.5064 0.5028
2438.000000 0.4992 0.4956 0.4920 0.4884 0.4848
2443.000000 0.4813 0.4769 0.4695 0.4621 0.4588
2448.000000 0.4565 0.4546 0.4533 0.4520 0.4509
2453.000000 0.4499 0.4491 0.4485 0.4480 0.4475
2458.000000 0.4470 0.4466 0.4461 0.4457 0.4452
2463.000000 0.4448 0.4444 0.4440 0.4435 0.4427
2468.000000 0.4420 0.4412 0.4404 0.4399 0.4394
2473.000000 0.4390 0.4389 0.4387 0.4386 0.4384
2478.000000 0.4383 0.4381 0.4380 0.4378 0.4377
2483.000000 0.4376 0.4375 0.4375 0.4374 0.4374
2488.000000 0.4373 0.4372 0.4372 0.4371 0.4371
2493.000000 0.4370 0.4369 0.4369 0.4365 0.4362
2498.000000 0.4359 0.4356 0.4354 0.4348 0.4343
2503.000000 0.4335 0.4323 0.4312 0.4297 0.4283
2508.000000 0.4269 0.4255 0.4241 0.4228 0.4214
2513.000000 0.4201 0.4187 0.4174 0.4159 0.4144
2518.000000 0.4129 0.4114 0.4100 0.4085 0.4071
2523.000000 0.4056 0.4041 0.4025 0.4010 0.3995
2528.000000 0.3981 0.3970 0.3959 0.3951 0.3944
2533.000000 0.3939 0.3939 0.3939 0.3940 0.3940
2538.000000 0.3940 0.3943 0.3945 0.3947 0.3950
2543.000000 0.3952 0.3956 0.3960 0.3964 0.3969
2548.000000 0.3974 0.3979 0.3984 0.3989 0.3993
2553.000000 0.3997 0.4001 0.4005 0.4009 0.4012
2558.000000 0.4016 0.4020 0.4024 0.4028 0.4031
2563.000000 0.4035 0.4039 0.4043 0.4047 0.4050
2568.000000 0.4050 0.4051 0.4052 0.4052 0.4052
2573.000000 0.4052 0.4052 0.4043 0.4019 0.3994
2578.000000 0.3967 0.3937 0.3908 0.3878 0.3849
2583.000000 0.3819 0.3789 0.3760 0.3730 0.3701
2588.000000 0.3671 0.3642 0.3612 0.3583 0.3554
2593.000000 0.3524 0.3495 0.3466 0.3437 0.3301
2598.000000 0.3158 0.3044 0.3017 0.2990 0.2968
2603.000000 0.2951 0.2933 0.2916 0.2899 0.2876
2608.000000 0.2815 0.2754 0.2710 0.2695 0.2680
2613.000000 0.2664 0.2649 0.2634 0.2626 0.2618
2618.000000 0.2610 0.2602 0.2594 0.2586 0.2577
2623.000000 0.2569 0.2561 0.2553 0.2545 0.2537
2628.000000 0.2529 0.2521 0.2513 0.2504 0.2493
2633.000000 0.2478 0.2464 0.2447 0.2430 0.2413
2638.000000 0.2396 0.2378 0.2360 0.2334 0.2307
2643.000000 0.2281 0.2255 0.2229 0.2209 0.2197
2648.000000 0.2185 0.2173 0.2162 0.2150 0.2138
2653.000000 0.2126 0.2115 0.2111 0.2107 0.2104
2658.000000 0.2100 0.2097 0.2093 0.2090 0.2087
2663.000000 0.2083 0.2080 0.2076 0.2073 0.2069
2668.000000 0.2066 0.2063 0.2060 0.2057 0.2056
2673.000000 0.2054 0.2052 0.2050 0.2048 0.2046
2678.000000 0.2044 0.2042 0.2040 0.2038 0.2036
2683.000000 0.2034 0.2032 0.2030 0.2028 0.2026
2688.000000 0.2024 0.2013 0.2001 0.1989 0.1974
2693.000000 0.1959 0.1944 0.1923 0.1902 0.1881
2698.000000 0.1853 0.1825 0.1799 0.1777 0.1755
2703.000000 0.1735 0.1722 0.1708 0.1694 0.1680
2708.000000 0.1666 0.1652 0.1637 0.1622 0.1600
2713.000000 0.1572 0.1544 0.1514 0.1484 0.1453
2718.000000 0.1423 0.1392 0.1361 0.1347 0.1340
2723.000000 0.1334 0.1329 0.1324 0.1319 0.1315
2728.000000 0.1312 0.1309 0.1307 0.1304 0.1301
2733.000000 0.1298 0.1295 0.1292 0.1247 0.1190
2738.000000 0.1132 0.1090 0.1051 0.1012 0.0985
2743.000000 0.0961 0.0936 0.0915 0.0895 0.0875
2748.000000 0.0856 0.0838 0.0820 0.0782 0.0736
2753.000000 0.0690 0.0664 0.0646 0.0628 0.0611
2758.000000 0.0594 0.0578 0.0566 0.0557 0.0547
2763.000000 0.0538 0.0529 0.0520 0.0511 0.0502
2768.000000 0.0493 0.0484 0.0476 0.0468 0.0461
2773.000000 0.0455 0.0448 0.0441 0.0435 0.0428
2778.000000 0.0421 0.0415 0.0410 0.0404 0.0402
2783.000000 0.0400 0.0398 0.0396 0.0394 0.0392
2788.000000 0.0390 0.0388 0.0386 0.0384 0.0382
2793.000000 0.0380 0.0378 0.0376 0.0373 0.0371
2798.000000 0.0369 0.0368 0.0366 0.0365 0.0364
2803.000000 0.0363 0.0362 0.0361 0.0360 0.0359
2808.000000 0.0358 0.0357 0.0327 0.0297 0.0267
2813.000000 0.0249 0.0232 0.0216 0.0199 0.0183
2818.000000 0.0167 0.0153 0.0140 0.0127 0.0116
2823.000000 0.0107 0.0099 0.0091 0.0086 0.0082
2828.000000 0.0078 0.0073 0.0069 0.0065 0.0062
2833.000000 0.0060 0.0058 0.0057 0.0056 0.0054
2838.000000 0.0053 0.0052 0.0051 0.0049 0.0048
2843.000000 0.0048 0.0047 0.0046 0.0045 0.0045
2848.000000 0.0044 0.0044 0.0044 0.0043 0.0043
2853.000000 0.0042 0.0041 0.0041 0.0041 0.0041
2858.000000 0.0041 0.0041 0.0041 0.0040 0.0040
2863.000000 0.0040 0.0040 0.0040 0.0040 0.0040
2868.000000 0.0040 0.0040 0.0040 0.0040 0.0040
2873.000000 0.0040 0.0039 0.0039 0.0039 0.0039
2878.000000 0.0039 0.0039 0.0039 0.0039 0.0039
2883.000000 0.0039 0.0039 0.0039 0.0039 0.0039
2888.000000 0.0039 0.0039 0.0039 0.0039 0.0039
2893.000000 0.0039 0.0039 0.0039 0.0039 0.0039
2898.000000 0.0039 0.0039 0.0039 0.0040 0.0040
2903.000000 0.0040 0.0040 0.0040 0.0040 0.0040
2908.000000 0.0040 0.0040 0.0040 0.0035 0.0041
2913.000000 0.0041 0.0041 0.0041 0.0041 0.0041
2918.000000 0.0042 0.0042 0.0042 0.0042 0.0042
2923.000000 0.0042 0.0043 0.0043 0.0043 0.0043
2928.000000 0.0044 0.0044 0.0044 0.0045 0.0045
2933.000000 0.0046 0.0046 0.0047 0.0047 0.0047
2938.000000 0.0048 0.0048 0.0048 0.0048 0.0049
2943.000000 0.0049 0.0049 0.0050 0.0050 0.0050
2948.000000 0.0050 0.0051 0.0052 0.0052 0.0053
2953.000000 0.0053 0.0054 0.0054 0.0055 0.0055
2958.000000 0.0055 0.0056 0.0056 0.0057 0.0057
2963.000000 0.0058 0.0059 0.0060 0.0061 0.0061
2968.000000 0.0062 0.0062 0.0063 0.0064 0.0065
2973.000000 0.0066 0.0067 0.0067 0.0068 0.0069
2978.000000 0.0070 0.0070 0.0071 0.0073 0.0074
2983.000000 0.0076 0.0078 0.0080 0.0082 0.0084
2988.000000 0.0085 0.0087 0.0089 0.0091 0.0093
2993.000000 0.0095 0.0096 0.0098 0.0100 0.0101
2998.000000 0.0103 0.0104 0.0106 0.0107 0.0108
3003.000000 0.0109 0.0111 0.0112 0.0113 0.0115
3008.000000 0.0116 0.0117 0.0118 0.0119 0.0120
3013.000000 0.0122 0.0123 0.0125 0.0126 0.0127
3018.000000 0.0127 0.0128 0.0129 0.0130 0.0131
3023.000000 0.0132 0.0132 0.0133 0.0133 0.0134
3028.000000 0.0135 0.0135 0.0136 0.0137 0.0137
3033.000000 0.0138 0.0139 0.0139 0.0140 0.0141
3038.000000 0.0142 0.0143 0.0143 0.0144 0.0145
3043.000000 0.0146 0.0147 0.0147 0.0148 0.0149
3048.000000 0.0150 0.0151 0.0151 0.0152 0.0153
3053.000000 0.0154 0.0155 0.0156 0.0156 0.0157
3058.000000 0.0158 0.0159 0.0160 0.0160 0.0161
3063.000000 0.0162 0.0163 0.0164 0.0164 0.0165
3068.000000 0.0166 0.0167 0.0168 0.0168 0.0169
3073.000000 0.0170 0.0171 0.0171 0.0172 0.0173
3078.000000 0.0174 0.0175 0.0177 0.0179 0.0181
3083.000000 0.0183 0.0186 0.0188 0.0191 0.0193
3088.000000 0.0195 0.0197 0.0199 0.0202 0.0205
3093.000000 0.0208 0.0211 0.0214 0.0218 0.0221
3098.000000 0.0224 0.0227 0.0230 0.0233 0.0236
3103.000000 0.0239 0.0243 0.0246 0.0249 0.0253
3108.000000 0.0257 0.0261 0.0265 0.0268 0.0272
3113.000000 0.0276 0.0280 0.0285 0.0289 0.0294
3118.000000 0.0300 0.0308 0.0315 0.0323 0.0330
3123.000000 0.0338 0.0346 0.0354 0.0361 0.0368
3128.000000 0.0375 0.0382 0.0390 0.0397 0.0404
3133.000000 0.0412 0.0419 0.0426 0.0434 0.0441
3138.000000 0.0449 0.0456 0.0463 0.0470 0.0477
3143.000000 0.0483 0.0489 0.0496 0.0503 0.0509
3148.000000 0.0516 0.0524 0.0533 0.0542 0.0551
3153.000000 0.0560 0.0569 0.0578 0.0587 0.0595
3158.000000 0.0601 0.0608 0.0614 0.0620 0.0627
3163.000000 0.0633 0.0639 0.0645 0.0651 0.0658
3168.000000 0.0664 0.0671 0.0677 0.0684 0.0691
3173.000000 0.0699 0.0707 0.0715 0.0723 0.0730
3178.000000 0.0738 0.0746 0.0753 0.0763 0.0775
3183.000000 0.0787 0.0800 0.0813 0.0827 0.0841
3188.000000 0.0855 0.0869 0.0881 0.0893 0.0905
3193.000000 0.0917 0.0930 0.0943 0.0956 0.0970
3198.000000 0.0984 0.0999 0.1013 0.1028 0.1043
3203.000000 0.1059 0.1074 0.1090 0.1105 0.1120
3208.000000 0.1135 0.1150 0.1175 0.1203 0.1231
3213.000000 0.1259 0.1282 0.1302 0.1322 0.1342
3218.000000 0.1356 0.1366 0.1375 0.1384 0.1393
3223.000000 0.1399 0.1405 0.1411 0.1442 0.1571
3228.000000 0.1701 0.1831 0.1958 0.1971 0.1984
3233.000000 0.1997 0.2010 0.2067 0.2132 0.2198
3238.000000 0.2263 0.2303 0.2330 0.2356 0.2383
3243.000000 0.2406 0.2423 0.2441 0.2458 0.2475
3248.000000 0.2492 0.2508 0.2524 0.2541 0.2581
3253.000000 0.2622 0.2663 0.2704 0.2735 0.2762
3258.000000 0.2790 0.2818 0.2856 0.2903 0.2950
3263.000000 0.2996 0.3035 0.3054 0.3074 0.3093
3268.000000 0.3113 0.3158 0.3204 0.3249 0.3295
3273.000000 0.3365 0.3442 0.3520 0.3598 0.3655
3278.000000 0.3687 0.3720 0.3753 0.3784 0.3803
3283.000000 0.3822 0.3841 0.3861 0.3883 0.3905
3288.000000 0.3927 0.3950 0.3966 0.3977 0.3988
3293.000000 0.3999 0.4009 0.4016 0.4023 0.4030
3298.000000 0.4036 0.4041 0.4046 0.4051 0.4055
3303.000000 0.4059 0.4063 0.4066 0.4069 0.4073
3308.000000 0.4076 0.4079 0.4082 0.4086 0.4088
3313.000000 0.4089 0.4091 0.4092 0.4094 0.4095
3318.000000 0.4096 0.4097 0.4098 0.4099 0.4100
3323.000000 0.4101 0.4102 0.4107 0.4101 0.4101
3328.000000 0.4100 0.4099 0.4098 0.4097 0.4096
3333.000000 0.4095 0.4092 0.4087 0.4083 0.4079
3338.000000 0.4070 0.4047 0.4023 0.3999 0.3975
3343.000000 0.3958 0.3944 0.3929 0.3914 0.3900
3348.000000 0.3885 0.3871 0.3857 0.3842 0.3826
3353.000000 0.3809 0.3792 0.3775 0.3757 0.3733
3358.000000 0.3710 0.3686 0.3663 0.3638 0.3614
3363.000000 0.3590 0.3565 0.3543 0.3524 0.3505
3368.000000 0.3486 0.3467 0.3453 0.3441 0.3429
3373.000000 0.3416 0.3404 0.3392 0.3380 0.3368
3378.000000 0.3356 0.3333 0.3303 0.3274 0.3244
3383.000000 0.3215 0.3205 0.3194 0.3184 0.3174
3388.000000 0.3164 0.3154 0.3144 0.3134 0.3124
3393.000000 0.3115 0.3106 0.3098 0.3089 0.3080
3398.000000 0.3072 0.3063 0.3054 0.3046 0.3037
3403.000000 0.3028 0.3019 0.3010 0.3000 0.2997
3408.000000 0.2993 0.2990 0.2986 0.2984 0.2984
3413.000000 0.2984 0.2984 0.2984 0.2984 0.2984
3418.000000 0.2984 0.2984 0.2985 0.2985 0.2985
3423.000000 0.2985 0.2985 0.2986 0.2986 0.2987
3428.000000 0.2988 0.2988 0.2990 0.2992 0.2994
3433.000000 0.2995 0.2997 0.3001 0.3004 0.3008
3438.000000 0.3012 0.3015 0.3019 0.3022 0.3025
3443.000000 0.3029 0.3041 0.3062 0.3084 0.3105
3448.000000 0.3127 0.3144 0.3160 0.3176 0.3192
3453.000000 0.3208 0.3225 0.3242 0.3259 0.3277
3458.000000 0.3294 0.3312 0.3330 0.3348 0.3367
3463.000000 0.3389 0.3418 0.3447 0.3477 0.3506
3468.000000 0.3535 0.3564 0.3593 0.3622 0.3651
3473.000000 0.3680 0.3709 0.3738 0.3767 0.3796
3478.000000 0.3825 0.3854 0.3883 0.3912 0.3941
3483.000000 0.3969 0.3998 0.4027 0.4056 0.4085
3488.000000 0.4113 0.4142 0.4170 0.4199 0.4227
3493.000000 0.4256 0.4285 0.4313 0.4342 0.4371
3498.000000 0.4399 0.4428 0.4456 0.4485 0.4514
3503.000000 0.4542 0.4571 0.4599 0.4628 0.4656
3508.000000 0.4685 0.4713 0.4741 0.4770 0.4798
3513.000000 0.4827 0.4855 0.4883 0.4912 0.4940
3518.000000 0.4968 0.4996 0.5025 0.5053 0.5081
3523.000000 0.5109 0.5137 0.5166 0.5194 0.5222
3528.000000 0.5250 0.5278 0.5306 0.5334 0.5362
3533.000000 0.5391 0.5419 0.5447 0.5475 0.5503
3538.000000 0.5531 0.5558 0.5586 0.5614 0.5642
3543.000000 0.5670 0.5698 0.5726 0.5754 0.5778
3548.000000 0.5802 0.5826 0.5849 0.5873 0.5884
3553.000000 0.5893 0.5903 0.5912 0.5921 0.5930
3558.000000 0.5939 0.5948 0.5957 0.5966 0.5982
3563.000000 0.6001 0.6019 0.6038 0.6056 0.6073
3568.000000 0.6089 0.6105 0.6122 0.6138 0.6152
3573.000000 0.6165 0.6178 0.6191 0.6204 0.6218
3578.000000 0.6232 0.6246 0.6259 0.6273 0.6288
3583.000000 0.6302 0.6317 0.6332 0.6347 0.6362
3588.000000 0.6380 0.6399 0.6417 0.6435 0.6454
3593.000000 0.6478 0.6503 0.6527 0.6552 0.6577
3598.000000 0.6599 0.6621 0.6643 0.6666 0.6688
3603.000000 0.6712 0.6738 0.6763 0.6788 0.6814
3608.000000 0.6840 0.6868 0.6896 0.6924 0.6952
3613.000000 0.6977 0.6996 0.7015 0.7034 0.7053
3618.000000 0.7072 0.7092 0.7113 0.7133 0.7154
3623.000000 0.7175 0.7187 0.7197 0.7207 0.7218
3628.000000 0.7228 0.7236 0.7243 0.7249 0.7256
3633.000000 0.7263 0.7270 0.7277 0.7284 0.7291
3638.000000 0.7298 0.7305 0.7338 0.7370 0.7403
3643.000000 0.7436 0.7468 0.7488 0.7502 0.7516
3648.000000 0.7530 0.7545 0.7555 0.7559 0.7564
3653.000000 0.7568 0.7572 0.7577 0.7579 0.7581
3658.000000 0.7583 0.7585 0.7587 0.7589 0.7591
3663.000000 0.7593 0.7595 0.7597 0.7599 0.7600
3668.000000 0.7601 0.7602 0.7603 0.7603 0.7604
3673.000000 0.7605 0.7606 0.7606 0.7607 0.7608
3678.000000 0.7609 0.7609 0.7610 0.7611 0.7612
3683.000000 0.7612 0.7613 0.7613 0.7614 0.7614
3688.000000 0.7615 0.7615 0.7616 0.7617 0.7617
3693.000000 0.7618 0.7618 0.7618 0.7619 0.7619
3698.000000 0.7619 0.7620 0.7620 0.7621 0.7621
3703.000000 0.7621 0.7622 0.7622 0.7622 0.7622
3708.000000 0.7622 0.7622 0.7623 0.7623 0.7623
3713.000000 0.7623 0.7623 0.7624 0.7624 0.7624
3718.000000 0.7624 0.7624 0.7624 0.7625 0.7625
3723.000000 0.7625 0.7625 0.7625 0.7626 0.7626
3728.000000 0.7626 0.7626 0.7626 0.7626 0.7627
3733.000000 0.7627 0.7627 0.7627 0.7627 0.7628
3738.000000 0.7628 0.7628 0.7628 0.7628 0.7628
3743.000000 0.7628 0.7628 0.7628 0.7628 0.7628
3748.000000 0.7628 0.7629 0.7629 0.7629 0.7629
3753.000000 0.7629 0.7629 0.7629 0.7629 0.7629
3758.000000 0.7629 0.7629 0.7630 0.7630 0.7630
3763.000000 0.7630 0.7630 0.7630 0.7630 0.7630
3768.000000 0.7630 0.7630 0.7630 0.7630 0.7630
3773.000000 0.7630 0.7630 0.7630 0.7630 0.7631
3778.000000 0.7631 0.7631 0.7631 0.7631 0.7631
3783.000000 0.7631 0.7631 0.7631 0.7631 0.7631
3788.000000 0.7631 0.7631 0.7631 0.7631 0.7631
3793.000000 0.7631 0.7631 0.7631 0.7631 0.7631
3798.000000 0.7631 0.7631 0.7631 0.7631 0.7631
3803.000000 0.7631 0.7631 0.7631 0.7632 0.7632
3808.000000 0.7632 0.7632 0.7632 0.7632 0.7632
3813.000000 0.7632 0.7632 0.7632 0.7632 0.7633
3818.000000 0.7633 0.7633 0.7633 0.7633 0.7633
3823.000000 0.7633 0.7633 0.7633 0.7633 0.7633
3828.000000 0.7633 0.7634 0.7634 0.7634 0.7634
3833.000000 0.7634 0.7634 0.7634 0.7634 0.7634
3838.000000 0.7634 0.7634 0.7634 0.7633 0.7633
3843.000000 0.7633 0.7633 0.7633 0.7633 0.7633
3848.000000 0.7633 0.7633 0.7633 0.7633 0.7633
3853.000000 0.7632 0.7632 0.7632 0.7632 0.7632
3858.000000 0.7632 0.7631 0.7631 0.7631 0.7631
3863.000000 0.7631 0.7630 0.7630 0.7630 0.7630
3868.000000 0.7630 0.7630 0.7630 0.7630 0.7630
3873.000000 0.7630 0.7630 0.7630 0.7629 0.7629
3878.000000 0.7629 0.7629 0.7629 0.7629 0.7629
3883.000000 0.7629 0.7629 0.7629 0.7629 0.7629
3888.000000 0.7629 0.7628 0.7628 0.7628 0.7628
3893.000000 0.7628 0.7628 0.7628 0.7628 0.7628
3898.000000 0.7628 0.7628 0.7628 0.7627 0.7627
3903.000000 0.7627 0.7627 0.7627 0.7627 0.7627
3908.000000 0.7627 0.7627 0.7627 0.7627 0.7627
3913.000000 0.7627 0.7627 0.7627 0.7627 0.7627
3918.000000 0.7627 0.7626 0.7626 0.7626 0.7626
3923.000000 0.7626 0.7626 0.7626 0.7626 0.7626
3928.000000 0.7626 0.7626 0.7626 0.7625 0.7625
3933.000000 0.7625 0.7625 0.7625 0.7625 0.7625
3938.000000 0.7625 0.7625 0.7625 0.7625 0.7625
3943.000000 0.7625 0.7624 0.7624 0.7624 0.7624
3948.000000 0.7624 0.7624 0.7624 0.7624 0.7624
3953.000000 0.7624 0.7624 0.7624 0.7623 0.7623
3958.000000 0.7623 0.7623 0.7623 0.7623 0.7623
3963.000000 0.7623 0.7623 0.7623 0.7623 0.7623
3968.000000 0.7623 0.7622 0.7622 0.7622 0.7622
3973.000000 0.7622 0.7622 0.7622 0.7622 0.7622
3978.000000 0.7622 0.7622 0.7622 0.7621 0.7621
3983.000000 0.7621 0.7621 0.7621 0.7621 0.7621
3988.000000 0.7621 0.7621 0.7621 0.7621 0.7621
3993.000000 0.7621 0.7621 0.7621 0.7621 0.7621
3998.000000 0.7621 0.7621 0.7621
##END=
