##TITLE=Benzimidazole, 4-amino-5,7-difluoro-, hydrochloride
##JCAMP-DX=4.24
##DATA TYPE=INFRARED SPECTRUM
##CLASS=COBLENTZ III
##ORIGIN=SOUTHERN RESEARCH INSTITUTE
##OWNER=Copyright (C) 1987 by the Coblentz Society
Collection (C) 2018 copyright by the U.S. Secretary of Commerce
on behalf of the United States of America. All rights reserved.
##DATE=1960/03/10
##NAMES=5,7-difluoro-1H-benzimidazol-4-amine hydrochloride
##MOLFORM=C7 H6 Cl F2 N3
##SOURCE REFERENCE=COBLENTZ NO. 8722
##$NIST ID=B6008722
##$NIST SOURCE=COBLENTZ
##$NIST IMAGE=cob8722
##SPECTROMETER/DATA SYSTEM=PERKIN-ELMER 21 (GRATING)
##INSTRUMENT PARAMETERS=FILTER CHANGE ABOUT 1020 CM^-^1
##STATE=SOLID (0.8 mg / 650 mg KBr DISC)
##SAMPLING PROCEDURE=TRANSMISSION
##RESOLUTION=2
##DATA PROCESSING=DIGITIZED BY COBLENTZ SOCIETY (BATCH II) FROM HARD COPY (ADJUSTED \addcm-1\15-12-3\)
##XUNITS=1/CM
##YUNITS=TRANSMITTANCE
##XFACTOR=1.0
##YFACTOR=1
##DELTAX=1.003739
##FIRSTX=604.291
##LASTX=4015
##FIRSTY=0.6432
##MAXX=4015
##MINX=604.291
##MAXY=0.8915
##MINY=0.0636799
##NPOINTS=3399
##XYDATA=(X++(Y..Y))
604.291429 0.6432 0.6426 0.6422 0.6420 0.6418
609.310123 0.6416 0.6414 0.6414 0.6410 0.6408
614.328818 0.6406 0.6404 0.6402 0.6399 0.6397
619.347512 0.6391 0.6385 0.6378 0.6371 0.6365
624.366207 0.6358 0.6352 0.6345 0.6334 0.6322
629.384901 0.6310 0.6298 0.6286 0.6274 0.6259
634.403596 0.6243 0.6228 0.6212 0.6197 0.6181
639.422291 0.6165 0.6149 0.6133 0.6115 0.6090
644.440985 0.6066 0.6042 0.6018 0.6007 0.6001
649.459680 0.5996 0.5990 0.5984 0.5978 0.5972
654.478374 0.5966 0.5964 0.5961 0.5958 0.5956
659.497069 0.5953 0.5950 0.5939 0.5919 0.5898
664.515763 0.5877 0.5846 0.5793 0.5739 0.5687
669.534458 0.5634 0.5564 0.5487 0.5425 0.5362
674.553153 0.5295 0.5210 0.5126 0.5041 0.4956
679.571847 0.4871 0.4787 0.4705 0.4658 0.4663
684.590542 0.4845 0.5091 0.5337 0.5582 0.5827
689.609236 0.6072 0.6303 0.6348 0.6361 0.6366
694.627931 0.6370 0.6375 0.6374 0.6378 0.6378
699.646625 0.6379 0.6379 0.6379 0.6378 0.6377
704.665320 0.6375 0.6373 0.6371 0.6368 0.6358
709.684015 0.6348 0.6338 0.6328 0.6318 0.6308
714.702709 0.6298 0.6288 0.6278 0.6268 0.6258
719.721404 0.6248 0.6238 0.6230 0.6224 0.6217
724.740098 0.6210 0.6202 0.6177 0.6206 0.6211
729.758793 0.6233 0.6284 0.6344 0.6409 0.6473
734.777487 0.6536 0.6596 0.6653 0.6709 0.6765
739.796182 0.6821 0.6869 0.6908 0.6948 0.6987
744.814877 0.7024 0.7046 0.7064 0.7068 0.7050
749.833571 0.7071 0.7068 0.7062 0.7056 0.7049
754.852266 0.7043 0.7036 0.7024 0.7008 0.6992
759.870960 0.6975 0.6959 0.6942 0.6925 0.6907
764.889655 0.6889 0.6872 0.6854 0.6836 0.6818
769.908350 0.6800 0.6781 0.6761 0.6741 0.6722
774.927044 0.6702 0.6682 0.6660 0.6630 0.6598
779.945739 0.6566 0.6533 0.6501 0.6469 0.6437
784.964433 0.6405 0.6370 0.6315 0.6254 0.6192
789.983128 0.6133 0.6085 0.6039 0.5992 0.5945
795.001822 0.5891 0.5827 0.5760 0.5670 0.5558
800.020517 0.5463 0.5408 0.5380 0.5351 0.5325
805.039212 0.5308 0.5294 0.5280 0.5266 0.5252
810.057906 0.5236 0.5217 0.5199 0.5180 0.5161
815.076601 0.5142 0.5123 0.5099 0.5068 0.5028
820.095295 0.4938 0.4833 0.4730 0.4630 0.4561
825.113990 0.4563 0.4584 0.4618 0.4651 0.4685
830.132684 0.4712 0.4713 0.4712 0.4704 0.4665
835.151379 0.4522 0.4380 0.4237 0.4095 0.3952
840.170074 0.3817 0.3727 0.3708 0.3707 0.3708
845.188768 0.3745 0.3810 0.3888 0.3958 0.4093
850.207463 0.4334 0.4575 0.4815 0.5057 0.5298
855.226157 0.5539 0.5779 0.6020 0.6262 0.6503
860.244852 0.6718 0.6840 0.6940 0.7042 0.7153
865.263546 0.7270 0.7380 0.7452 0.7506 0.7532
870.282241 0.7557 0.7583 0.7604 0.7612 0.7618
875.300936 0.7624 0.7630 0.7636 0.7642 0.7647
880.319630 0.7647 0.7649 0.7643 0.7639 0.7632
885.338325 0.7625 0.7618 0.7610 0.7598 0.7584
890.357019 0.7570 0.7551 0.7515 0.7473 0.7406
895.375714 0.7307 0.7208 0.7110 0.7010 0.6911
900.394408 0.6813 0.6714 0.6621 0.6547 0.6481
905.413103 0.6424 0.6375 0.6338 0.6310 0.6286
910.431798 0.6281 0.6284 0.6261 0.6270 0.6294
915.450492 0.6323 0.6366 0.6395 0.6408 0.6418
920.469187 0.6423 0.6428 0.6433 0.6438 0.6442
925.487881 0.6448 0.6456 0.6464 0.6481 0.6537
930.506576 0.6610 0.6626 0.6635 0.6634 0.6634
935.525270 0.6633 0.6632 0.6631 0.6629 0.6627
940.543965 0.6749 0.7082 0.7209 0.7316 0.7411
945.562660 0.7494 0.7569 0.7629 0.7676 0.7698
950.581354 0.7714 0.7729 0.7745 0.7758 0.7764
955.600049 0.7770 0.7777 0.7783 0.7790 0.7799
960.618743 0.7810 0.7820 0.7831 0.7842 0.7852
965.637438 0.7863 0.7875 0.7890 0.7910 0.7930
970.656132 0.7950 0.7974 0.8011 0.8057 0.8092
975.674827 0.8106 0.8116 0.8120 0.8122 0.8123
980.693522 0.8125 0.8127 0.8128 0.8130 0.8132
985.712216 0.8133 0.8133 0.8134 0.8134 0.8135
990.730911 0.8136 0.8136 0.8137 0.8138 0.8138
995.749605 0.8144 0.8150 0.8139 0.8137 0.8135
1000.768300 0.8133 0.8131 0.8129 0.8127 0.8125
1005.786994 0.8123 0.8121 0.8118 0.8116 0.8114
1010.805689 0.8112 0.8110 0.8108 0.8106 0.8103
1015.824384 0.8101 0.8099 0.8097 0.8093 0.8084
1020.843078 0.8074 0.8062 0.8043 0.8021 0.7993
1025.861773 0.7958 0.7923 0.7888 0.7854 0.7822
1030.880467 0.7793 0.7764 0.7734 0.7705 0.7676
1035.899162 0.7645 0.7612 0.7579 0.7556 0.7551
1040.917857 0.7544 0.7540 0.7551 0.7556 0.7562
1045.936551 0.7570 0.7584 0.7607 0.7688 0.7815
1050.955246 0.7875 0.7907 0.7917 0.7921 0.7920
1055.973940 0.7917 0.7915 0.7913 0.7906 0.7898
1060.992635 0.7889 0.7879 0.7868 0.7858 0.7848
1066.011329 0.7838 0.7829 0.7820 0.7811 0.7803
1071.030024 0.7796 0.7791 0.7791 0.7793 0.7795
1076.048719 0.7796 0.7796 0.7794 0.7791 0.7787
1081.067413 0.7780 0.7769 0.7759 0.7748 0.7735
1086.086108 0.7720 0.7705 0.7689 0.7674 0.7659
1091.104802 0.7644 0.7628 0.7611 0.7591 0.7569
1096.123497 0.7545 0.7515 0.7481 0.7444 0.7397
1101.142191 0.7339 0.7282 0.7215 0.7133 0.7046
1106.160886 0.6942 0.6827 0.6717 0.6604 0.6460
1111.179581 0.6296 0.5938 0.5527 0.5336 0.5107
1116.198275 0.4784 0.4156 0.3302 0.2526 0.2116
1121.216970 0.2045 0.1997 0.1980 0.1980 0.2172
1126.235664 0.2652 0.3196 0.3741 0.4286 0.4831
1131.254359 0.5376 0.5921 0.6466 0.7042 0.7400
1136.273053 0.7456 0.7498 0.7530 0.7553 0.7566
1141.291748 0.7570 0.7576 0.7577 0.7568 0.7560
1146.310443 0.7549 0.7534 0.7511 0.7479 0.7444
1151.329137 0.7410 0.7372 0.7319 0.7252 0.7179
1156.347832 0.7099 0.7016 0.6929 0.6823 0.6685
1161.366526 0.6459 0.6190 0.5957 0.5724 0.5490
1166.385221 0.5258 0.5025 0.4792 0.4612 0.4543
1171.403915 0.4539 0.4636 0.4867 0.5139 0.5411
1176.422610 0.5682 0.5954 0.6220 0.6364 0.6405
1181.441305 0.6451 0.6494 0.6547 0.6605 0.6692
1186.459999 0.6851 0.6991 0.7045 0.7069 0.7085
1191.478694 0.7088 0.7081 0.7075 0.7055 0.7026
1196.497388 0.6952 0.6826 0.6694 0.6562 0.6430
1201.516083 0.6332 0.6275 0.6226 0.6175 0.6124
1206.534777 0.6062 0.5930 0.5738 0.5546 0.5353
1211.553472 0.5179 0.5070 0.5019 0.4979 0.4944
1216.572167 0.4924 0.4924 0.4946 0.5106 0.5471
1221.590861 0.5836 0.6202 0.6568 0.6933 0.7289
1226.609556 0.7583 0.7762 0.7885 0.8009 0.8096
1231.628250 0.8136 0.8172 0.8189 0.8204 0.8213
1236.646945 0.8213 0.8212 0.8200 0.8208 0.8205
1241.665639 0.8202 0.8199 0.8195 0.8187 0.8180
1246.684334 0.8173 0.8165 0.8155 0.8144 0.8132
1251.703029 0.8121 0.8107 0.8090 0.8074 0.8058
1256.721723 0.8041 0.8024 0.8004 0.7983 0.7961
1261.740418 0.7940 0.7918 0.7893 0.7869 0.7844
1266.759112 0.7818 0.7796 0.7774 0.7752 0.7730
1271.777807 0.7708 0.7686 0.7651 0.7599 0.7531
1276.796501 0.7437 0.7330 0.7227 0.7127 0.6809
1281.815196 0.6583 0.6468 0.6362 0.6255 0.6123
1286.833891 0.5679 0.5049 0.4618 0.4507 0.4555
1291.852585 0.4855 0.5334 0.5813 0.6292 0.6771
1296.871280 0.7250 0.7720 0.8000 0.8059 0.8089
1301.889974 0.8113 0.8128 0.8136 0.8142 0.8147
1306.908669 0.8150 0.8150 0.8147 0.8145 0.8143
1311.927364 0.8128 0.8120 0.8112 0.8103 0.8094
1316.946058 0.8084 0.8072 0.8058 0.8045 0.8029
1321.964753 0.8006 0.7979 0.7951 0.7928 0.7908
1326.983447 0.7889 0.7867 0.7845 0.7823 0.7801
1332.002142 0.7777 0.7752 0.7727 0.7702 0.7677
1337.020836 0.7651 0.7613 0.7577 0.7538 0.7461
1342.039531 0.7378 0.7130 0.6972 0.6888 0.6823
1347.058226 0.6745 0.6630 0.6503 0.6327 0.5812
1352.076920 0.5264 0.4956 0.4842 0.4771 0.4709
1357.095615 0.4687 0.4695 0.4685 0.4691 0.4860
1362.114309 0.5082 0.5308 0.5534 0.5760 0.5986
1367.133004 0.6202 0.6294 0.6315 0.6324 0.6301
1372.151698 0.6267 0.6211 0.6106 0.5983 0.5860
1377.170393 0.5737 0.5614 0.5490 0.5367 0.5249
1382.189088 0.5191 0.5188 0.5201 0.5250 0.5355
1387.207782 0.5491 0.5626 0.5748 0.5804 0.5812
1392.226477 0.5803 0.5771 0.5727 0.5642 0.5533
1397.245171 0.5391 0.5181 0.4895 0.4608 0.4321
1402.263866 0.4035 0.3748 0.3443 0.3049 0.2619
1407.282560 0.2372 0.2084 0.1702 0.1394 0.1215
1412.301255 0.1008 0.0863 0.0792 0.0724 0.0668
1417.319950 0.0637 0.0639 0.0653 0.0667 0.0694
1422.338644 0.0743 0.0794 0.0860 0.0946 0.1204
1427.357339 0.1748 0.2262 0.2809 0.3356 0.3903
1432.376033 0.4449 0.5004 0.5465 0.5921 0.6599
1437.394728 0.6801 0.6916 0.7031 0.7147 0.7266
1442.413422 0.7374 0.7458 0.7538 0.7614 0.7683
1447.432117 0.7752 0.7805 0.7832 0.7860 0.7888
1452.450812 0.7910 0.7923 0.7932 0.7942 0.7951
1457.469506 0.7960 0.7968 0.7972 0.7973 0.7975
1462.488201 0.7977 0.7980 0.7979 0.7971 0.7965
1467.506895 0.7954 0.7943 0.7932 0.7918 0.7900
1472.525590 0.7881 0.7863 0.7844 0.7825 0.7806
1477.544284 0.7787 0.7768 0.7748 0.7714 0.7658
1482.562979 0.7596 0.7534 0.7472 0.7410 0.7347
1487.581674 0.7278 0.7204 0.7129 0.7061 0.7002
1492.600368 0.6943 0.6884 0.6821 0.6743 0.6652
1497.619063 0.6552 0.6311 0.5899 0.5554 0.5288
1502.637757 0.5002 0.4716 0.4430 0.4144 0.3858
1507.656452 0.3572 0.2984 0.2438 0.2304 0.2164
1512.675146 0.2085 0.2056 0.2038 0.2029 0.2033
1517.693841 0.2040 0.2057 0.2082 0.2123 0.2207
1522.712536 0.2324 0.2447 0.2701 0.3179 0.3756
1527.731230 0.4333 0.4910 0.5484 0.5802 0.5848
1532.749925 0.5862 0.5875 0.5876 0.5864 0.5828
1537.768619 0.5678 0.5451 0.5223 0.4996 0.4768
1542.787314 0.4540 0.4374 0.4290 0.4211 0.4081
1547.806008 0.3778 0.3355 0.2931 0.2507 0.2083
1552.824703 0.1803 0.1733 0.1735 0.1851 0.2127
1557.843398 0.2458 0.2790 0.3121 0.3452 0.3784
1562.862092 0.4115 0.4446 0.4777 0.5109 0.5440
1567.880787 0.5911 0.6281 0.6468 0.6616 0.6716
1572.899481 0.6790 0.6863 0.6936 0.6989 0.7023
1577.918176 0.7039 0.7046 0.7037 0.7025 0.7018
1582.936871 0.7009 0.6997 0.6985 0.6967 0.6947
1587.955565 0.6922 0.6885 0.6845 0.6824 0.6814
1592.974260 0.6807 0.6802 0.6797 0.6787 0.6770
1597.992954 0.6736 0.6683 0.6623 0.6560 0.6486
1603.011649 0.6409 0.6337 0.6266 0.6110 0.5875
1608.030343 0.5623 0.5372 0.5120 0.4868 0.4633
1613.049038 0.4526 0.4516 0.4521 0.4528 0.4540
1618.067733 0.4754 0.5072 0.5392 0.5659 0.5792
1623.086427 0.5854 0.5900 0.5920 0.5927 0.5924
1628.105122 0.5912 0.5937 0.5884 0.5819 0.5776
1633.123816 0.5727 0.5659 0.5574 0.5505 0.5449
1638.142511 0.5390 0.5330 0.5243 0.5127 0.5004
1643.161205 0.4881 0.4758 0.4635 0.4512 0.4390
1648.179900 0.4266 0.4172 0.4123 0.4133 0.4144
1653.198595 0.4187 0.4245 0.4322 0.4441 0.4722
1658.217289 0.5119 0.5537 0.5925 0.6068 0.6132
1663.235984 0.6197 0.6262 0.6375 0.6459 0.6511
1668.254678 0.6558 0.6599 0.6629 0.6655 0.6681
1673.273373 0.6707 0.6730 0.6750 0.6768 0.6787
1678.292067 0.6807 0.6827 0.6847 0.6886 0.6945
1683.310762 0.7038 0.7114 0.7189 0.7271 0.7318
1688.329457 0.7350 0.7381 0.7411 0.7442 0.7471
1693.348151 0.7495 0.7519 0.7542 0.7557 0.7568
1698.366846 0.7578 0.7589 0.7600 0.7610 0.7616
1703.385540 0.7621 0.7632 0.7645 0.7658 0.7672
1708.404235 0.7699 0.7725 0.7736 0.7742 0.7747
1713.422929 0.7753 0.7759 0.7763 0.7767 0.7771
1718.441624 0.7776 0.7783 0.7790 0.7797 0.7812
1723.460319 0.7832 0.7857 0.7882 0.7906 0.7930
1728.479013 0.7947 0.7961 0.7976 0.7990 0.8004
1733.497708 0.8017 0.8023 0.8028 0.8032 0.8037
1738.516402 0.8041 0.8046 0.8057 0.8071 0.8086
1743.535097 0.8099 0.8112 0.8122 0.8130 0.8138
1748.553791 0.8147 0.8155 0.8164 0.8174 0.8184
1753.572486 0.8194 0.8204 0.8214 0.8221 0.8227
1758.591181 0.8232 0.8238 0.8244 0.8250 0.8256
1763.609875 0.8262 0.8267 0.8273 0.8278 0.8284
1768.628570 0.8289 0.8295 0.8300 0.8305 0.8311
1773.647264 0.8318 0.8324 0.8331 0.8337 0.8344
1778.665959 0.8350 0.8358 0.8368 0.8378 0.8389
1783.684653 0.8399 0.8409 0.8419 0.8430 0.8440
1788.703348 0.8450 0.8460 0.8470 0.8480 0.8491
1793.722043 0.8501 0.8511 0.8519 0.8524 0.8528
1798.740737 0.8532 0.8537 0.8541 0.8559 0.8542
1803.759432 0.8541 0.8540 0.8539 0.8538 0.8535
1808.778126 0.8530 0.8526 0.8522 0.8517 0.8513
1813.796821 0.8508 0.8504 0.8497 0.8490 0.8483
1818.815515 0.8476 0.8469 0.8462 0.8455 0.8448
1823.834210 0.8440 0.8427 0.8412 0.8398 0.8384
1828.852905 0.8370 0.8356 0.8342 0.8328 0.8313
1833.871599 0.8301 0.8280 0.8317 0.8324 0.8332
1838.890294 0.8339 0.8347 0.8357 0.8367 0.8377
1843.908988 0.8387 0.8397 0.8408 0.8421 0.8434
1848.927683 0.8447 0.8458 0.8469 0.8480 0.8490
1853.946378 0.8502 0.8517 0.8533 0.8549 0.8565
1858.965072 0.8581 0.8596 0.8611 0.8626 0.8640
1863.983767 0.8654 0.8669 0.8682 0.8690 0.8698
1869.002461 0.8705 0.8708 0.8711 0.8713 0.8716
1874.021156 0.8719 0.8721 0.8724 0.8726 0.8728
1879.039850 0.8730 0.8733 0.8735 0.8737 0.8739
1884.058545 0.8741 0.8743 0.8746 0.8747 0.8747
1889.077240 0.8746 0.8746 0.8746 0.8746 0.8746
1894.095934 0.8746 0.8745 0.8745 0.8745 0.8745
1899.114629 0.8745 0.8745 0.8745 0.8744 0.8744
1904.133323 0.8744 0.8743 0.8742 0.8741 0.8741
1909.152018 0.8740 0.8739 0.8738 0.8738 0.8737
1914.170712 0.8736 0.8735 0.8735 0.8734 0.8733
1919.189407 0.8732 0.8730 0.8728 0.8726 0.8724
1924.208102 0.8722 0.8721 0.8719 0.8717 0.8715
1929.226796 0.8713 0.8711 0.8709 0.8707 0.8705
1934.245491 0.8702 0.8700 0.8697 0.8694 0.8691
1939.264185 0.8689 0.8686 0.8683 0.8681 0.8678
1944.282880 0.8675 0.8673 0.8670 0.8668 0.8670
1949.301574 0.8674 0.8678 0.8682 0.8686 0.8693
1954.320269 0.8704 0.8714 0.8722 0.8727 0.8731
1959.338964 0.8735 0.8739 0.8743 0.8748 0.8752
1964.357658 0.8755 0.8754 0.8754 0.8753 0.8752
1969.376353 0.8752 0.8751 0.8750 0.8749 0.8746
1974.395047 0.8746 0.8746 0.8747 0.8747 0.8747
1979.413742 0.8748 0.8748 0.8749 0.8753 0.8758
1984.432436 0.8763 0.8769 0.8774 0.8779 0.8783
1989.451131 0.8786 0.8788 0.8790 0.8793 0.8790
1994.469826 0.8789 0.8797 0.8799 0.8800 0.8801
1999.488520 0.8800 0.8800 0.8799 0.8799 0.8796
2004.507215 0.8792 0.8787 0.8782 0.8777 0.8772
2009.525909 0.8767 0.8762 0.8757 0.8753 0.8750
2014.544604 0.8746 0.8743 0.8739 0.8736 0.8733
2019.563298 0.8730 0.8727 0.8725 0.8723 0.8720
2024.581993 0.8718 0.8715 0.8713 0.8711 0.8709
2029.600688 0.8707 0.8705 0.8703 0.8701 0.8699
2034.619382 0.8697 0.8695 0.8693 0.8691 0.8689
2039.638077 0.8687 0.8685 0.8683 0.8681 0.8679
2044.656771 0.8677 0.8675 0.8673 0.8671 0.8669
2049.675466 0.8667 0.8665 0.8663 0.8661 0.8658
2054.694160 0.8656 0.8654 0.8652 0.8650 0.8648
2059.712855 0.8647 0.8646 0.8645 0.8645 0.8644
2064.731550 0.8643 0.8642 0.8642 0.8641 0.8640
2069.750244 0.8640 0.8639 0.8637 0.8635 0.8632
2074.768939 0.8629 0.8626 0.8622 0.8619 0.8616
2079.787633 0.8613 0.8611 0.8608 0.8605 0.8601
2084.806328 0.8596 0.8591 0.8586 0.8580 0.8575
2089.825022 0.8570 0.8564 0.8560 0.8558 0.8559
2094.843717 0.8559 0.8559 0.8559 0.8560 0.8561
2099.862412 0.8563 0.8565 0.8567 0.8568 0.8570
2104.881106 0.8572 0.8574 0.8574 0.8575 0.8575
2109.899801 0.8575 0.8576 0.8576 0.8576 0.8576
2114.918495 0.8577 0.8576 0.8575 0.8574 0.8573
2119.937190 0.8571 0.8570 0.8568 0.8567 0.8566
2124.955885 0.8564 0.8563 0.8561 0.8560 0.8559
2129.974579 0.8557 0.8556 0.8554 0.8553 0.8552
2134.993274 0.8550 0.8548 0.8546 0.8544 0.8543
2140.011968 0.8541 0.8539 0.8537 0.8535 0.8533
2145.030663 0.8530 0.8527 0.8523 0.8519 0.8515
2150.049357 0.8512 0.8508 0.8504 0.8500 0.8496
2155.068052 0.8493 0.8489 0.8485 0.8481 0.8478
2160.086747 0.8474 0.8471 0.8468 0.8464 0.8461
2165.105441 0.8457 0.8454 0.8451 0.8447 0.8444
2170.124136 0.8440 0.8437 0.8434 0.8430 0.8425
2175.142830 0.8420 0.8416 0.8411 0.8406 0.8402
2180.161525 0.8397 0.8392 0.8388 0.8383 0.8378
2185.180219 0.8374 0.8368 0.8363 0.8357 0.8352
2190.198914 0.8347 0.8342 0.8337 0.8332 0.8327
2195.217609 0.8322 0.8317 0.8312 0.8307 0.8302
2200.236303 0.8297 0.8292 0.8287 0.8282 0.8277
2205.254998 0.8272 0.8267 0.8262 0.8257 0.8252
2210.273692 0.8247 0.8242 0.8238 0.8233 0.8228
2215.292387 0.8224 0.8219 0.8214 0.8210 0.8205
2220.311081 0.8200 0.8196 0.8191 0.8186 0.8182
2225.329776 0.8177 0.8172 0.8168 0.8163 0.8158
2230.348471 0.8154 0.8149 0.8145 0.8140 0.8135
2235.367165 0.8130 0.8124 0.8119 0.8114 0.8109
2240.385860 0.8104 0.8099 0.8094 0.8089 0.8084
2245.404554 0.8079 0.8074 0.8069 0.8064 0.8059
2250.423249 0.8054 0.8049 0.8044 0.8039 0.8034
2255.441943 0.8030 0.8025 0.8020 0.8015 0.8010
2260.460638 0.8005 0.8000 0.7995 0.7991 0.7984
2265.479333 0.7977 0.7970 0.7963 0.7957 0.7950
2270.498027 0.7943 0.7936 0.7929 0.7922 0.7915
2275.516722 0.7908 0.7899 0.7889 0.7878 0.7868
2280.535416 0.7858 0.7848 0.7838 0.7828 0.7817
2285.554111 0.7807 0.7797 0.7787 0.7777 0.7767
2290.572805 0.7756 0.7746 0.7736 0.7726 0.7716
2295.591500 0.7706 0.7696 0.7685 0.7672 0.7657
2300.610195 0.7641 0.7626 0.7610 0.7595 0.7580
2305.628889 0.7559 0.7532 0.7505 0.7479 0.7452
2310.647584 0.7425 0.7397 0.7369 0.7340 0.7312
2315.666278 0.7283 0.7255 0.7221 0.7161 0.7099
2320.684973 0.7037 0.6972 0.6938 0.6909 0.6883
2325.703667 0.6857 0.6834 0.6825 0.6818 0.6811
2330.722362 0.6804 0.6797 0.6792 0.6786 0.6780
2335.741057 0.6778 0.6775 0.6772 0.6770 0.6766
2340.759751 0.6763 0.6760 0.6758 0.6757 0.6755
2345.778446 0.6753 0.6751 0.6749 0.6748 0.6746
2350.797140 0.6744 0.6742 0.6741 0.6739 0.6739
2355.815835 0.6738 0.6737 0.6737 0.6736 0.6736
2360.834529 0.6735 0.6735 0.6734 0.6733 0.6732
2365.853224 0.6731 0.6730 0.6729 0.6729 0.6728
2370.871919 0.6727 0.6726 0.6723 0.6718 0.6713
2375.890613 0.6708 0.6703 0.6698 0.6691 0.6681
2380.909308 0.6671 0.6662 0.6653 0.6644 0.6636
2385.928002 0.6627 0.6619 0.6611 0.6602 0.6595
2390.946697 0.6589 0.6583 0.6576 0.6565 0.6553
2395.965392 0.6540 0.6528 0.6515 0.6502 0.6490
2400.984086 0.6476 0.6462 0.6447 0.6432 0.6416
2406.002781 0.6400 0.6383 0.6366 0.6349 0.6329
2411.021475 0.6305 0.6280 0.6253 0.6199 0.6119
2416.040170 0.6056 0.6016 0.5976 0.5937 0.5900
2421.058864 0.5864 0.5831 0.5808 0.5785 0.5761
2426.077559 0.5738 0.5715 0.5691 0.5670 0.5650
2431.096254 0.5630 0.5609 0.5589 0.5569 0.5547
2436.114948 0.5525 0.5502 0.5479 0.5457 0.5435
2441.133643 0.5414 0.5398 0.5381 0.5365 0.5350
2446.152337 0.5343 0.5346 0.5349 0.5352 0.5355
2451.171032 0.5358 0.5363 0.5372 0.5381 0.5388
2456.189726 0.5389 0.5390 0.5392 0.5391 0.5388
2461.208421 0.5385 0.5382 0.5379 0.5371 0.5358
2466.227116 0.5342 0.5325 0.5306 0.5286 0.5266
2471.245810 0.5246 0.5226 0.5204 0.5170 0.5136
2476.264505 0.5106 0.5080 0.5054 0.5024 0.4968
2481.283199 0.4912 0.4873 0.4847 0.4821 0.4795
2486.301894 0.4769 0.4743 0.4716 0.4676 0.4633
2491.320588 0.4589 0.4547 0.4509 0.4473 0.4438
2496.339283 0.4402 0.4367 0.4332 0.4297 0.4268
2501.357978 0.4240 0.4211 0.4183 0.4154 0.4126
2506.376672 0.4097 0.4063 0.4023 0.3982 0.3943
2511.395367 0.3903 0.3862 0.3820 0.3778 0.3737
2516.414061 0.3695 0.3653 0.3605 0.3556 0.3506
2521.432756 0.3456 0.3406 0.3359 0.3328 0.3298
2526.451450 0.3269 0.3239 0.3179 0.3112 0.3076
2531.470145 0.3047 0.3018 0.2989 0.2960 0.2926
2536.488840 0.2892 0.2873 0.2857 0.2840 0.2824
2541.507534 0.2808 0.2785 0.2763 0.2740 0.2717
2546.526229 0.2691 0.2663 0.2635 0.2607 0.2579
2551.544923 0.2551 0.2523 0.2494 0.2465 0.2436
2556.563618 0.2408 0.2387 0.2367 0.2348 0.2332
2561.582312 0.2320 0.2311 0.2301 0.2294 0.2288
2566.601007 0.2303 0.2319 0.2336 0.2368 0.2406
2571.619702 0.2452 0.2500 0.2546 0.2590 0.2633
2576.638396 0.2677 0.2718 0.2757 0.2796 0.2836
2581.657091 0.2875 0.2914 0.2954 0.2986 0.3007
2586.675785 0.3026 0.3043 0.3038 0.3031 0.3030
2591.694480 0.3026 0.3020 0.3014 0.3008 0.2999
2596.713174 0.2987 0.2974 0.2961 0.2948 0.2932
2601.731869 0.2909 0.2881 0.2855 0.2830 0.2805
2606.750564 0.2781 0.2760 0.2744 0.2730 0.2717
2611.769258 0.2706 0.2697 0.2689 0.2680 0.2671
2616.787953 0.2662 0.2652 0.2641 0.2631 0.2621
2621.806647 0.2611 0.2600 0.2589 0.2578 0.2567
2626.825342 0.2548 0.2521 0.2493 0.2464 0.2433
2631.844036 0.2402 0.2373 0.2346 0.2319 0.2286
2636.862731 0.2246 0.2206 0.2166 0.2126 0.2087
2641.881426 0.2047 0.2012 0.1985 0.1958 0.1932
2646.900120 0.1906 0.1879 0.1854 0.1828 0.1804
2651.918815 0.1779 0.1754 0.1730 0.1705 0.1680
2656.937509 0.1658 0.1638 0.1618 0.1598 0.1577
2661.956204 0.1557 0.1536 0.1516 0.1495 0.1470
2666.974898 0.1445 0.1419 0.1392 0.1366 0.1341
2671.993593 0.1321 0.1302 0.1283 0.1265 0.1247
2677.012288 0.1230 0.1219 0.1210 0.1205 0.1201
2682.030982 0.1197 0.1193 0.1192 0.1193 0.1194
2687.049677 0.1196 0.1197 0.1198 0.1199 0.1200
2692.068371 0.1201 0.1202 0.1202 0.1203 0.1204
2697.087066 0.1205 0.1205 0.1206 0.1207 0.1207
2702.105761 0.1208 0.1209 0.1207 0.1206 0.1204
2707.124455 0.1203 0.1201 0.1199 0.1198 0.1196
2712.143150 0.1194 0.1192 0.1185 0.1175 0.1164
2717.161844 0.1154 0.1144 0.1134 0.1126 0.1118
2722.180539 0.1110 0.1102 0.1097 0.1098 0.1099
2727.199233 0.1094 0.1101 0.1101 0.1102 0.1103
2732.217928 0.1108 0.1113 0.1118 0.1124 0.1130
2737.236623 0.1137 0.1144 0.1154 0.1165 0.1176
2742.255317 0.1186 0.1193 0.1201 0.1208 0.1217
2747.274012 0.1228 0.1238 0.1249 0.1260 0.1270
2752.292706 0.1282 0.1295 0.1310 0.1324 0.1339
2757.311401 0.1353 0.1369 0.1385 0.1401 0.1417
2762.330095 0.1432 0.1446 0.1455 0.1465 0.1475
2767.348790 0.1488 0.1501 0.1514 0.1532 0.1555
2772.367485 0.1578 0.1602 0.1628 0.1654 0.1680
2777.386179 0.1707 0.1733 0.1758 0.1781 0.1804
2782.404874 0.1828 0.1851 0.1874 0.1897 0.1913
2787.423568 0.1927 0.1941 0.1955 0.1960 0.1965
2792.442263 0.1969 0.1974 0.1977 0.1980 0.1983
2797.460957 0.1985 0.1987 0.1990 0.1992 0.1994
2802.479652 0.2000 0.2006 0.2014 0.2021 0.2032
2807.498347 0.2044 0.2056 0.2069 0.2083 0.2098
2812.517041 0.2112 0.2126 0.2141 0.2155 0.2170
2817.535736 0.2184 0.2199 0.2212 0.2225 0.2239
2822.554430 0.2253 0.2267 0.2279 0.2289 0.2299
2827.573125 0.2308 0.2318 0.2326 0.2330 0.2332
2832.591819 0.2334 0.2337 0.2339 0.2342 0.2344
2837.610514 0.2346 0.2347 0.2348 0.2349 0.2350
2842.629209 0.2352 0.2358 0.2367 0.2376 0.2385
2847.647903 0.2400 0.2420 0.2442 0.2463 0.2485
2852.666598 0.2509 0.2538 0.2570 0.2602 0.2635
2857.685292 0.2668 0.2699 0.2727 0.2754 0.2781
2862.703987 0.2812 0.2851 0.2894 0.2935 0.2973
2867.722681 0.3005 0.3033 0.3061 0.3094 0.3137
2872.741376 0.3187 0.3238 0.3292 0.3342 0.3388
2877.760071 0.3433 0.3472 0.3504 0.3536 0.3567
2882.778765 0.3598 0.3628 0.3658 0.3688 0.3717
2887.797460 0.3755 0.3797 0.3834 0.3874 0.3911
2892.816154 0.3940 0.3962 0.3978 0.3993 0.4005
2897.834849 0.4015 0.4024 0.4033 0.4038 0.4042
2902.853543 0.4046 0.4050 0.4051 0.4052 0.4052
2907.872238 0.4051 0.4047 0.4044 0.4041 0.4033
2912.890933 0.4017 0.3993 0.3956 0.3915 0.3872
2917.909627 0.3829 0.3785 0.3740 0.3696 0.3650
2922.928322 0.3598 0.3540 0.3482 0.3420 0.3347
2927.947016 0.3272 0.3198 0.3119 0.3024 0.2928
2932.965711 0.2838 0.2752 0.2671 0.2594 0.2517
2937.984405 0.2437 0.2363 0.2314 0.2267 0.2225
2943.003100 0.2195 0.2164 0.2136 0.2114 0.2095
2948.021795 0.2076 0.2059 0.2042 0.2025 0.2009
2953.040489 0.1990 0.1970 0.1955 0.1952 0.1949
2958.059184 0.1946 0.1943 0.1941 0.1941 0.1941
2963.077878 0.1931 0.1943 0.1950 0.1959 0.1967
2968.096573 0.1976 0.1988 0.2003 0.2018 0.2032
2973.115268 0.2050 0.2072 0.2094 0.2116 0.2149
2978.133962 0.2186 0.2223 0.2260 0.2298 0.2336
2983.152657 0.2374 0.2412 0.2449 0.2488 0.2526
2988.171351 0.2559 0.2587 0.2616 0.2644 0.2672
2993.190046 0.2703 0.2738 0.2772 0.2807 0.2844
2998.208740 0.2887 0.2930 0.2974 0.3035 0.3101
3003.227435 0.3177 0.3261 0.3356 0.3456 0.3540
3008.246130 0.3623 0.3667 0.3706 0.3745 0.3784
3013.264824 0.3810 0.3831 0.3852 0.3873 0.3890
3018.283519 0.3903 0.3915 0.3927 0.3939 0.3950
3023.302213 0.3962 0.3973 0.3981 0.3988 0.3994
3028.320908 0.4001 0.4008 0.4014 0.4018 0.4021
3033.339602 0.4045 0.4034 0.4032 0.4035 0.4036
3038.358297 0.4036 0.4036 0.4036 0.4036 0.4035
3043.376992 0.4035 0.4034 0.4031 0.4027 0.4023
3048.395686 0.4018 0.4013 0.4006 0.3999 0.3992
3053.414381 0.3985 0.3979 0.3971 0.3960 0.3947
3058.433075 0.3934 0.3922 0.3909 0.3896 0.3883
3063.451770 0.3870 0.3858 0.3845 0.3832 0.3819
3068.470464 0.3806 0.3793 0.3779 0.3763 0.3747
3073.489159 0.3732 0.3716 0.3700 0.3684 0.3670
3078.507854 0.3657 0.3644 0.3630 0.3624 0.3623
3083.526548 0.3622 0.3621 0.3620 0.3620 0.3602
3088.545243 0.3608 0.3627 0.3631 0.3637 0.3645
3093.563937 0.3655 0.3666 0.3676 0.3686 0.3696
3098.582632 0.3707 0.3721 0.3737 0.3754 0.3770
3103.601326 0.3797 0.3850 0.3920 0.3990 0.4060
3108.620021 0.4130 0.4200 0.4270 0.4353 0.4449
3113.638716 0.4537 0.4623 0.4718 0.4839 0.4986
3118.657410 0.5124 0.5229 0.5301 0.5373 0.5438
3123.676105 0.5490 0.5541 0.5592 0.5642 0.5691
3128.694799 0.5740 0.5788 0.5836 0.5885 0.5934
3133.713494 0.5983 0.6026 0.6059 0.6091 0.6124
3138.732188 0.6155 0.6180 0.6200 0.6220 0.6239
3143.750883 0.6258 0.6276 0.6287 0.6298 0.6309
3148.769578 0.6319 0.6328 0.6332 0.6335 0.6338
3153.788272 0.6332 0.6320 0.6348 0.6350 0.6350
3158.806967 0.6349 0.6349 0.6348 0.6346 0.6340
3163.825661 0.6334 0.6328 0.6320 0.6308 0.6296
3168.844356 0.6282 0.6255 0.6228 0.6198 0.6159
3173.863050 0.6111 0.6067 0.6022 0.5980 0.5945
3178.881745 0.5910 0.5875 0.5840 0.5805 0.5768
3183.900440 0.5732 0.5695 0.5659 0.5622 0.5585
3188.919134 0.5548 0.5510 0.5474 0.5439 0.5413
3193.937829 0.5386 0.5360 0.5334 0.5309 0.5286
3198.956523 0.5265 0.5245 0.5228 0.5225 0.5222
3203.975218 0.5219 0.5220 0.5208 0.5229 0.5233
3208.993912 0.5242 0.5255 0.5269 0.5285 0.5303
3214.012607 0.5340 0.5405 0.5497 0.5586 0.5677
3219.031302 0.5762 0.5830 0.5898 0.5961 0.6011
3224.049996 0.6062 0.6112 0.6142 0.6170 0.6198
3229.068691 0.6226 0.6246 0.6266 0.6282 0.6289
3234.087385 0.6295 0.6300 0.6303 0.6307 0.6319
3239.106080 0.6312 0.6311 0.6311 0.6310 0.6305
3244.124775 0.6299 0.6292 0.6280 0.6267 0.6254
3249.143469 0.6237 0.6216 0.6195 0.6172 0.6146
3254.162164 0.6120 0.6093 0.6072 0.6053 0.6033
3259.180858 0.6018 0.6008 0.5999 0.5989 0.5981
3264.199553 0.5974 0.5969 0.5965 0.5960 0.5956
3269.218247 0.5952 0.5947 0.5943 0.5938 0.5933
3274.236942 0.5928 0.5922 0.5916 0.5911 0.5903
3279.255637 0.5889 0.5866 0.5837 0.5804 0.5766
3284.274331 0.5725 0.5684 0.5645 0.5609 0.5572
3289.293026 0.5535 0.5496 0.5451 0.5407 0.5363
3294.311720 0.5322 0.5278 0.5233 0.5187 0.5141
3299.330415 0.5096 0.5051 0.5006 0.4961 0.4915
3304.349109 0.4870 0.4825 0.4780 0.4735 0.4690
3309.367804 0.4644 0.4599 0.4554 0.4509 0.4464
3314.386499 0.4419 0.4373 0.4328 0.4282 0.4237
3319.405193 0.4192 0.4147 0.4101 0.4056 0.4011
3324.423888 0.3966 0.3921 0.3876 0.3830 0.3778
3329.442582 0.3721 0.3670 0.3625 0.3594 0.3573
3334.461277 0.3560 0.3555 0.3555 0.3549 0.3556
3339.479971 0.3583 0.3647 0.3745 0.3812 0.3842
3344.498666 0.3857 0.3869 0.3880 0.3894 0.3911
3349.517361 0.3967 0.4101 0.4273 0.4422 0.4514
3354.536055 0.4583 0.4683 0.4833 0.4970 0.5064
3359.554750 0.5148 0.5229 0.5309 0.5394 0.5482
3364.573444 0.5570 0.5665 0.5763 0.5860 0.5953
3369.592139 0.6032 0.6094 0.6151 0.6187 0.6209
3374.610833 0.6229 0.6249 0.6265 0.6279 0.6294
3379.629528 0.6308 0.6322 0.6337 0.6351 0.6364
3384.648223 0.6378 0.6392 0.6406 0.6419 0.6429
3389.666917 0.6438 0.6446 0.6453 0.6456 0.6459
3394.685612 0.6461 0.6463 0.6466 0.6459 0.6464
3399.704306 0.6468 0.6469 0.6469 0.6469 0.6469
3404.723001 0.6470 0.6470 0.6470 0.6469 0.6467
3409.741695 0.6465 0.6464 0.6462 0.6459 0.6457
3414.760390 0.6453 0.6450 0.6446 0.6443 0.6440
3419.779085 0.6436 0.6433 0.6430 0.6426 0.6421
3424.797779 0.6414 0.6408 0.6401 0.6395 0.6389
3429.816474 0.6382 0.6375 0.6367 0.6359 0.6351
3434.835168 0.6343 0.6335 0.6327 0.6319 0.6311
3439.853863 0.6301 0.6291 0.6281 0.6270 0.6260
3444.872557 0.6249 0.6239 0.6229 0.6218 0.6205
3449.891252 0.6189 0.6173 0.6158 0.6142 0.6126
3454.909947 0.6105 0.6080 0.6055 0.6030 0.6000
3459.928641 0.5963 0.5925 0.5886 0.5848 0.5809
3464.947336 0.5770 0.5731 0.5691 0.5652 0.5613
3469.966030 0.5574 0.5536 0.5498 0.5459 0.5421
3474.984725 0.5378 0.5334 0.5290 0.5247 0.5203
3480.003419 0.5146 0.5088 0.5029 0.4972 0.4908
3485.022114 0.4843 0.4781 0.4735 0.4687 0.4642
3490.040809 0.4606 0.4572 0.4561 0.4555 0.4551
3495.059503 0.4557 0.4565 0.4577 0.4599 0.4632
3500.078198 0.4731 0.4869 0.5006 0.5115 0.5189
3505.096892 0.5270 0.5475 0.5594 0.5670 0.5746
3510.115587 0.5879 0.6083 0.6181 0.6281 0.6385
3515.134282 0.6483 0.6533 0.6580 0.6626 0.6672
3520.152976 0.6719 0.6766 0.6814 0.6862 0.6908
3525.171671 0.6950 0.6990 0.7031 0.7070 0.7106
3530.190365 0.7140 0.7175 0.7210 0.7242 0.7269
3535.209060 0.7295 0.7321 0.7346 0.7370 0.7393
3540.227754 0.7417 0.7440 0.7463 0.7486 0.7504
3545.246449 0.7521 0.7537 0.7554 0.7569 0.7581
3550.265144 0.7591 0.7601 0.7611 0.7621 0.7629
3555.283838 0.7634 0.7638 0.7642 0.7647 0.7648
3560.302533 0.7648 0.7648 0.7678 0.7756 0.7788
3565.321227 0.7795 0.7799 0.7804 0.7809 0.7816
3570.339922 0.7827 0.7848 0.7870 0.7891 0.7911
3575.358616 0.7926 0.7939 0.7948 0.7956 0.7965
3580.377311 0.7973 0.7982 0.7991 0.8001 0.8011
3585.396006 0.8020 0.8030 0.8040 0.8049 0.8060
3590.414700 0.8071 0.8081 0.8092 0.8106 0.8126
3595.433395 0.8145 0.8162 0.8176 0.8190 0.8205
3600.452089 0.8216 0.8222 0.8228 0.8233 0.8239
3605.470784 0.8244 0.8249 0.8253 0.8258 0.8262
3610.489478 0.8266 0.8273 0.8284 0.8296 0.8310
3615.508173 0.8331 0.8345 0.8348 0.8351 0.8353
3620.526868 0.8358 0.8367 0.8379 0.8391 0.8406
3625.545562 0.8429 0.8455 0.8479 0.8504 0.8527
3630.564257 0.8548 0.8569 0.8589 0.8607 0.8624
3635.582951 0.8640 0.8650 0.8654 0.8658 0.8662
3640.601646 0.8666 0.8669 0.8671 0.8673 0.8676
3645.620340 0.8678 0.8681 0.8685 0.8691 0.8699
3650.639035 0.8708 0.8716 0.8725 0.8736 0.8749
3655.657730 0.8758 0.8763 0.8768 0.8773 0.8778
3660.676424 0.8781 0.8782 0.8783 0.8783 0.8783
3665.695119 0.8784 0.8785 0.8786 0.8788 0.8789
3670.713813 0.8790 0.8791 0.8792 0.8793 0.8795
3675.732508 0.8796 0.8797 0.8798 0.8799 0.8800
3680.751202 0.8801 0.8802 0.8803 0.8804 0.8805
3685.769897 0.8806 0.8807 0.8808 0.8809 0.8810
3690.788592 0.8811 0.8812 0.8814 0.8815 0.8816
3695.807286 0.8817 0.8819 0.8820 0.8821 0.8823
3700.825981 0.8824 0.8825 0.8826 0.8827 0.8827
3705.844675 0.8827 0.8828 0.8828 0.8828 0.8829
3710.863370 0.8829 0.8829 0.8830 0.8830 0.8830
3715.882064 0.8830 0.8831 0.8831 0.8831 0.8832
3720.900759 0.8832 0.8832 0.8833 0.8833 0.8834
3725.919454 0.8835 0.8836 0.8837 0.8838 0.8838
3730.938148 0.8839 0.8840 0.8841 0.8842 0.8843
3735.956843 0.8844 0.8845 0.8846 0.8847 0.8848
3740.975537 0.8849 0.8849 0.8850 0.8852 0.8853
3745.994232 0.8855 0.8856 0.8858 0.8859 0.8860
3751.012926 0.8862 0.8863 0.8865 0.8866 0.8868
3756.031621 0.8869 0.8871 0.8872 0.8874 0.8875
3761.050316 0.8878 0.8880 0.8883 0.8886 0.8889
3766.069010 0.8891 0.8894 0.8897 0.8899 0.8902
3771.087705 0.8905 0.8907 0.8910 0.8911 0.8912
3776.106399 0.8912 0.8912 0.8913 0.8913 0.8913
3781.125094 0.8913 0.8914 0.8914 0.8914 0.8915
3786.143789 0.8915 0.8915 0.8912 0.8909 0.8906
3791.162483 0.8903 0.8900 0.8896 0.8892 0.8889
3796.181178 0.8883 0.8877 0.8871 0.8865 0.8859
3801.199872 0.8853 0.8847 0.8841 0.8836 0.8832
3806.218567 0.8828 0.8824 0.8819 0.8815 0.8811
3811.237261 0.8807 0.8803 0.8801 0.8800 0.8799
3816.255956 0.8798 0.8797 0.8795 0.8794 0.8793
3821.274651 0.8792 0.8791 0.8790 0.8789 0.8789
3826.293345 0.8789 0.8789 0.8789 0.8789 0.8789
3831.312040 0.8789 0.8789 0.8789 0.8789 0.8790
3836.330734 0.8790 0.8790 0.8790 0.8790 0.8790
3841.349429 0.8791 0.8793 0.8794 0.8795 0.8797
3846.368123 0.8798 0.8799 0.8801 0.8802 0.8803
3851.386818 0.8804 0.8805 0.8806 0.8806 0.8806
3856.405513 0.8807 0.8807 0.8807 0.8807 0.8808
3861.424207 0.8808 0.8808 0.8809 0.8809 0.8809
3866.442902 0.8810 0.8810 0.8810 0.8811 0.8811
3871.461596 0.8811 0.8812 0.8813 0.8814 0.8815
3876.480291 0.8815 0.8816 0.8817 0.8818 0.8819
3881.498985 0.8820 0.8821 0.8822 0.8822 0.8823
3886.517680 0.8824 0.8825 0.8825 0.8826 0.8826
3891.536375 0.8827 0.8828 0.8828 0.8829 0.8830
3896.555069 0.8830 0.8831 0.8831 0.8831 0.8831
3901.573764 0.8831 0.8830 0.8830 0.8830 0.8830
3906.592458 0.8829 0.8829 0.8829 0.8828 0.8828
3911.611153 0.8828 0.8827 0.8824 0.8822 0.8819
3916.629847 0.8817 0.8814 0.8812 0.8810 0.8806
3921.648542 0.8802 0.8796 0.8790 0.8784 0.8778
3926.667237 0.8772 0.8767 0.8762 0.8757 0.8752
3931.685931 0.8747 0.8743 0.8739 0.8735 0.8733
3936.704626 0.8731 0.8731 0.8730 0.8729 0.8729
3941.723320 0.8728 0.8727 0.8727 0.8726 0.8725
3946.742015 0.8724 0.8724 0.8723 0.8722 0.8722
3951.760709 0.8721 0.8720 0.8720 0.8719 0.8719
3956.779404 0.8719 0.8720 0.8720 0.8720 0.8721
3961.798099 0.8721 0.8721 0.8722 0.8722 0.8722
3966.816793 0.8722 0.8723 0.8723 0.8725 0.8726
3971.835488 0.8728 0.8730 0.8731 0.8733 0.8735
3976.854182 0.8736 0.8738 0.8740 0.8742 0.8743
3981.872877 0.8744 0.8745 0.8746 0.8747 0.8747
3986.891571 0.8748 0.8749 0.8750 0.8751 0.8752
3991.910266 0.8753 0.8754 0.8755 0.8755 0.8756
3996.928961 0.8757 0.8758 0.8758 0.8759 0.8760
4001.947655 0.8761 0.8762 0.8766 0.8770 0.8773
4006.966350 0.8777 0.8781 0.8784 0.8788 0.8792
4011.985044 0.8795 0.8799 0.8803 0.8804
##END=
