##TITLE=1-PROPANETHIOL, 2-[(3-AMINOPROPYL)AMINO]-, DIHYDROCHLORIDE
##JCAMP-DX=4.24
##DATA TYPE=INFRARED SPECTRUM
##CLASS=COBLENTZ III
##ORIGIN=SOUTHERN RESEARCH INSTITUTE
##OWNER=COBLENTZ SOCIETY
Collection (C) 2018 copyright by the U.S. Secretary of Commerce
on behalf of the United States of America. All rights reserved.
##DATE=1966/05/09
##MOLFORM=C6 H18 Cl2 N2 S
##SOURCE REFERENCE=COBLENTZ NO. 8408
##$NIST ID=B6008408
##$NIST SOURCE=COBLENTZ
##$NIST IMAGE=cob8408
##SPECTROMETER/DATA SYSTEM=PERKIN-ELMER 521 (GRATING)
##INSTRUMENT PARAMETERS=FILTER CHANGE AT 3150, 2500, 2000, 1150, 700, 410 CM^-^1, GRATING CHANGES AT 2000, 630 CM^-^1
##STATE=SOLID (1 mg / 650 mg KBr DISC)
##PATH LENGTH=
$$SPECTRAL CONTAMINATION DUE TO H2O AROUND 3430 CM^-^1
##SAMPLING PROCEDURE=TRANSMISSION
##RESOLUTION=4
##DATA PROCESSING=DIGITIZED BY NIST FROM HARD COPY
##XUNITS=1/CM
##YUNITS=TRANSMITTANCE
##XFACTOR=1.000000
##YFACTOR=1
##DELTAX=001.805629
##FIRSTX=246.946
##LASTX=3807.65
##FIRSTY=0.229
##MAXX=3807.65
##MINX=246.946
##MAXY=0.86
##MINY=0.068
##NPOINTS=1973
##XYDATA=(X++(Y..Y))
246.946000 0.2290 0.2290 0.2390 0.2490 0.2510
255.978727 0.2580 0.2650 0.2720 0.2800 0.2880
265.003000 0.2950 0.3000 0.3080 0.3150 0.3340
274.035727 0.3430 0.3520 0.3720 0.3750 0.3830
283.059000 0.3860 0.3880 0.3970 0.4010 0.4030
292.091727 0.4040 0.4080 0.4120 0.4150 0.4200
301.115000 0.4250 0.4310 0.4380 0.4460 0.4530
310.147727 0.4620 0.4700 0.4790 0.4880 0.4970
319.172000 0.5060 0.5150 0.5240 0.5320 0.5410
328.204727 0.5490 0.5520 0.5560 0.5640 0.5700
337.228000 0.5770 0.5820 0.5870 0.5900 0.5960
346.260727 0.6020 0.6050 0.6090 0.6110 0.6130
355.284000 0.6140 0.6140 0.6140 0.6140 0.6140
364.316727 0.6140 0.6130 0.6070 0.6010 0.5950
373.340000 0.5890 0.5830 0.5700 0.5380 0.5190
382.372727 0.5010 0.4810 0.4790 0.4800 0.5020
391.397000 0.5280 0.5400 0.5520 0.5730 0.5930
400.429727 0.6120 0.6310 0.6480 0.6640 0.6680
409.453000 0.6660 0.6550 0.6430 0.6310 0.6090
418.485727 0.6070 0.6080 0.6250 0.6410 0.6570
427.509000 0.6740 0.6880 0.7000 0.7100 0.7190
436.541727 0.7260 0.7310 0.7350 0.7370 0.7370
445.566000 0.7410 0.7420 0.7410 0.7340 0.7230
454.598727 0.7210 0.7180 0.7170 0.7160 0.7170
463.622000 0.7180 0.7290 0.7380 0.7480 0.7540
472.654727 0.7540 0.7550 0.7550 0.7550 0.7540
481.678000 0.7520 0.7460 0.7310 0.7200 0.7100
490.710727 0.7000 0.6890 0.6880 0.6880 0.6890
499.734000 0.6910 0.7000 0.7090 0.7180 0.7260
508.766727 0.7330 0.7390 0.7460 0.7520 0.7570
517.791000 0.7610 0.7840 0.7850 0.7850 0.7840
526.823727 0.7840 0.7830 0.7820 0.7700 0.7600
535.847000 0.7430 0.7260 0.7250 0.7260 0.7410
544.879727 0.7480 0.7610 0.7730 0.7800 0.7850
553.903000 0.7860 0.7870 0.7880 0.7880 0.7890
562.935727 0.7890 0.7890 0.7900 0.7900 0.7910
571.960000 0.7910 0.7910 0.7910 0.7910 0.7920
580.992727 0.7920 0.7930 0.7930 0.7930 0.7930
590.016000 0.7930 0.7930 0.7930 0.7930 0.7940
599.048727 0.7940 0.7940 0.7930 0.7930 0.7920
608.072000 0.7910 0.7890 0.7890 0.7870 0.7870
617.104727 0.7860 0.7860 0.7860 0.7850 0.7850
626.129000 0.7850 0.7850 0.7850 0.7860 0.7860
635.161727 0.7860 0.7860 0.7860 0.7860 0.7860
644.185000 0.7860 0.7850 0.7850 0.7850 0.7850
653.217727 0.7850 0.7840 0.7840 0.7840 0.7830
662.241000 0.7830 0.7830 0.7820 0.7820 0.7820
671.273727 0.7810 0.7810 0.7810 0.7800 0.7800
680.297000 0.7800 0.7800 0.7790 0.7770 0.7770
689.329727 0.7760 0.7750 0.7740 0.7730 0.7730
698.354000 0.7720 0.7710 0.7710 0.7690 0.7670
707.386727 0.7630 0.7610 0.7590 0.7550 0.7510
716.410000 0.7450 0.7380 0.7310 0.7230 0.7140
725.442727 0.7040 0.6930 0.6830 0.6710 0.6580
734.466000 0.6450 0.6310 0.6170 0.6020 0.5870
743.498727 0.5700 0.5370 0.5200 0.5030 0.4850
752.523000 0.4660 0.4570 0.4570 0.4630 0.5020
761.555727 0.5260 0.5510 0.6020 0.6520 0.6960
770.579000 0.7310 0.7500 0.7500 0.7850 0.7870
779.611727 0.7870 0.7830 0.7830 0.7800 0.7740
788.635000 0.7640 0.7540 0.7430 0.7420 0.7420
797.667727 0.7430 0.7450 0.7460 0.7460 0.7450
806.691000 0.7450 0.7450 0.7440 0.7440 0.7450
815.723727 0.7460 0.7490 0.7580 0.7600 0.7620
824.748000 0.7640 0.7670 0.7700 0.7720 0.7730
833.780727 0.7730 0.7720 0.7710 0.7700 0.7660
842.804000 0.7620 0.7560 0.7520 0.7450 0.7400
851.836727 0.7340 0.7280 0.7240 0.7190 0.7150
860.860000 0.7140 0.7140 0.7140 0.7130 0.7130
869.892727 0.7120 0.7110 0.7100 0.7100 0.6990
878.917000 0.6770 0.6620 0.6530 0.6480 0.6430
887.949727 0.6390 0.6310 0.6190 0.6170 0.6180
896.973000 0.6290 0.6360 0.6520 0.6710 0.6870
906.005727 0.7040 0.7300 0.7450 0.7440 0.7370
915.029000 0.7280 0.7010 0.6850 0.6840 0.6850
924.061727 0.6930 0.6990 0.7050 0.7090 0.7100
933.086000 0.7060 0.7030 0.6970 0.6910 0.6860
942.118727 0.6810 0.6580 0.6550 0.6500 0.6280
951.142000 0.6020 0.5900 0.5710 0.5350 0.5090
960.174727 0.5090 0.5400 0.5580 0.5760 0.6100
969.198000 0.6430 0.6750 0.6750 0.6680 0.6650
978.230727 0.6450 0.6240 0.5930 0.5150 0.4750
987.254000 0.4400 0.4290 0.4290 0.4300 0.4410
996.286727 0.4850 0.5200 0.5490 0.5600 0.5700
1005.311000 0.5870 0.6010 0.6120 0.6220 0.6310
1014.343727 0.6400 0.6520 0.6670 0.6860 0.7100
1023.367000 0.7120 0.7120 0.7100 0.7100 0.6820
1032.399727 0.6400 0.6390 0.6390 0.6500 0.6690
1041.423000 0.6660 0.6630 0.6510 0.6340 0.6150
1050.455727 0.5920 0.5770 0.5700 0.5610 0.5410
1059.480000 0.5310 0.5210 0.5190 0.5190 0.5200
1068.512727 0.5310 0.5430 0.5480 0.5520 0.6070
1077.536000 0.6190 0.6510 0.6780 0.6790 0.6790
1086.568727 0.6710 0.6580 0.6520 0.6490 0.6490
1095.592000 0.6500 0.6930 0.7010 0.7070 0.7100
1104.624727 0.7090 0.7080 0.7060 0.7020 0.6910
1113.648000 0.6750 0.6560 0.6350 0.6130 0.5880
1122.680727 0.5370 0.5100 0.4830 0.4560 0.4460
1131.705000 0.4460 0.4480 0.4860 0.5450 0.5490
1140.737727 0.5520 0.5520 0.4990 0.4970 0.4980
1149.761000 0.5220 0.5240 0.5370 0.5510 0.5850
1158.793727 0.6190 0.6220 0.6220 0.6120 0.6030
1167.817000 0.5870 0.5720 0.5430 0.5270 0.5130
1176.849727 0.4980 0.4840 0.4840 0.4910 0.5300
1185.874000 0.5690 0.6610 0.6930 0.7260 0.7310
1194.906727 0.7310 0.7310 0.7300 0.7300 0.7270
1203.930000 0.7220 0.7190 0.7140 0.7100 0.7070
1212.962727 0.6860 0.6780 0.6700 0.6620 0.6550
1221.986000 0.6540 0.6550 0.6680 0.6810 0.7070
1231.018727 0.7070 0.7060 0.7040 0.7020 0.7010
1240.042000 0.7010 0.7010 0.7010 0.6990 0.6970
1249.074727 0.6970 0.6960 0.6960 0.6950 0.6950
1258.099000 0.6950 0.6950 0.6980 0.6980 0.6950
1267.131727 0.6780 0.6720 0.6670 0.6620 0.6610
1276.155000 0.6620 0.6630 0.6670 0.6720 0.6750
1285.187727 0.6670 0.6530 0.6390 0.6240 0.6100
1294.211000 0.5830 0.5820 0.5830 0.6030 0.6660
1303.243727 0.6650 0.6630 0.6470 0.6400 0.6340
1312.268000 0.6340 0.6390 0.6430 0.6440 0.6440
1321.300727 0.6420 0.6340 0.6240 0.6110 0.6010
1330.324000 0.5910 0.5710 0.5520 0.5520 0.5520
1339.356727 0.5610 0.5760 0.5830 0.5890 0.5900
1348.380000 0.5920 0.5980 0.6060 0.6160 0.6230
1357.412727 0.6280 0.6330 0.6380 0.6400 0.6440
1366.437000 0.6400 0.6320 0.6170 0.6060 0.5990
1375.469727 0.5910 0.5780 0.5300 0.5130 0.4980
1384.493000 0.4750 0.4540 0.4310 0.4100 0.3870
1393.525727 0.3780 0.3430 0.3430 0.4230 0.5240
1402.549000 0.5250 0.5240 0.5010 0.4790 0.4560
1411.581727 0.4340 0.4340 0.4550 0.4760 0.5180
1420.605000 0.5190 0.5290 0.5300 0.5310 0.5320
1429.637727 0.5320 0.5310 0.5280 0.5060 0.4810
1438.662000 0.4560 0.4300 0.4050 0.3800 0.3790
1447.694727 0.3720 0.3590 0.3430 0.3240 0.3030
1456.718000 0.2800 0.2590 0.2380 0.2200 0.1940
1465.750727 0.1920 0.1930 0.2190 0.2390 0.2600
1474.774000 0.2910 0.3040 0.3160 0.3260 0.3290
1483.806727 0.3240 0.3180 0.3130 0.3120 0.3130
1492.831000 0.3210 0.3300 0.3390 0.3480 0.3590
1501.863727 0.3680 0.3770 0.3830 0.3900 0.3980
1510.887000 0.4060 0.4170 0.4300 0.4470 0.4680
1519.919727 0.4930 0.5250 0.5410 0.5420 0.5430
1528.943000 0.5430 0.5430 0.5430 0.5390 0.5360
1537.975727 0.5340 0.5250 0.5140 0.4980 0.4950
1547.000000 0.4860 0.4730 0.4560 0.4370 0.4150
1556.032727 0.3940 0.3710 0.3500 0.3300 0.3130
1565.056000 0.2990 0.2900 0.2860 0.2720 0.2710
1574.088727 0.2710 0.2850 0.2950 0.3070 0.3230
1583.112000 0.3350 0.3470 0.3590 0.3690 0.3810
1592.144727 0.3910 0.4020 0.4120 0.4220 0.4320
1601.168000 0.4420 0.4520 0.4630 0.4730 0.4820
1610.200727 0.4920 0.5020 0.5120 0.5360 0.5470
1619.225000 0.5580 0.5770 0.5940 0.6100 0.6230
1628.257727 0.6360 0.6470 0.6570 0.6650 0.6730
1637.281000 0.6810 0.6870 0.6930 0.7000 0.7070
1646.313727 0.7130 0.7190 0.7240 0.7290 0.7350
1655.337000 0.7390 0.7430 0.7470 0.7500 0.7540
1664.369727 0.7570 0.7600 0.7630 0.7640 0.7660
1673.394000 0.7690 0.7700 0.7710 0.7730 0.7740
1682.426727 0.7750 0.7760 0.7770 0.7780 0.7790
1691.450000 0.7790 0.7790 0.7800 0.7800 0.7800
1700.482727 0.7800 0.7820 0.7820 0.7830 0.7830
1709.506000 0.7840 0.7840 0.7860 0.7860 0.7870
1718.538727 0.7880 0.7880 0.7880 0.7890 0.7890
1727.563000 0.7890 0.7900 0.7910 0.7920 0.7930
1736.595727 0.7940 0.7940 0.7950 0.7960 0.7960
1745.619000 0.7970 0.7980 0.7980 0.7980 0.7980
1754.651727 0.7980 0.7970 0.7970 0.7950 0.7950
1763.675000 0.7950 0.7950 0.7940 0.7940 0.7930
1772.707727 0.7910 0.7900 0.7890 0.7870 0.7860
1781.731000 0.7850 0.7840 0.7820 0.7800 0.7800
1790.763727 0.7800 0.7790 0.7780 0.7780 0.7760
1799.788000 0.7750 0.7730 0.7720 0.7710 0.7710
1808.820727 0.7700 0.7690 0.7670 0.7650 0.7630
1817.844000 0.7620 0.7610 0.7610 0.7600 0.7600
1826.876727 0.7590 0.7570 0.7570 0.7560 0.7560
1835.900000 0.7550 0.7550 0.7540 0.7530 0.7520
1844.932727 0.7500 0.7490 0.7480 0.7480 0.7470
1853.957000 0.7460 0.7460 0.7450 0.7450 0.7440
1862.989727 0.7440 0.7430 0.7390 0.7360 0.7360
1872.013000 0.7350 0.7350 0.7330 0.7320 0.7300
1881.045727 0.7290 0.7280 0.7270 0.7260 0.7250
1890.069000 0.7230 0.7220 0.7200 0.7190 0.7190
1899.101727 0.7170 0.7160 0.7140 0.7130 0.7110
1908.125000 0.7100 0.7090 0.7080 0.7060 0.7040
1917.157727 0.7030 0.7010 0.7010 0.6990 0.6980
1926.182000 0.6960 0.6950 0.6930 0.6920 0.6910
1935.214727 0.6890 0.6870 0.6850 0.6840 0.6840
1944.238000 0.6830 0.6820 0.6810 0.6800 0.6790
1953.270727 0.6770 0.6770 0.6760 0.6760 0.6760
1962.294000 0.6770 0.6770 0.6770 0.6780 0.6790
1971.326727 0.6800 0.6820 0.6840 0.6850 0.6860
1980.351000 0.6880 0.6890 0.6890 0.6890 0.6900
1989.383727 0.6900 0.6910 0.6920 0.6920 0.6940
1998.407000 0.6970 0.6990 0.7010 0.7030 0.7050
2007.439727 0.7050 0.7050 0.7060 0.7060 0.7070
2016.463000 0.7070 0.7080 0.7090 0.7100 0.7110
2025.495727 0.7120 0.7130 0.7140 0.7150 0.7160
2034.519000 0.7160 0.7170 0.7180 0.7190 0.7190
2043.551727 0.7200 0.7200 0.7220 0.7220 0.7230
2052.576000 0.7240 0.7240 0.7250 0.7260 0.7260
2061.608727 0.7270 0.7280 0.7280 0.7280 0.7300
2070.632000 0.7300 0.7310 0.7310 0.7320 0.7330
2079.664727 0.7330 0.7340 0.7350 0.7350 0.7360
2088.688000 0.7360 0.7360 0.7360 0.7360 0.7350
2097.720727 0.7350 0.7340 0.7330 0.7330 0.7320
2106.745000 0.7310 0.7310 0.7300 0.7290 0.7290
2115.777727 0.7280 0.7280 0.7280 0.7270 0.7260
2124.801000 0.7260 0.7250 0.7240 0.7240 0.7230
2133.833727 0.7220 0.7210 0.7200 0.7190 0.7190
2142.857000 0.7190 0.7180 0.7170 0.7160 0.7150
2151.889727 0.7150 0.7140 0.7130 0.7120 0.7110
2160.914000 0.7100 0.7100 0.7090 0.7080 0.7070
2169.946727 0.7060 0.7050 0.7040 0.7030 0.7010
2178.970000 0.7000 0.6980 0.6960 0.6940 0.6920
2188.002727 0.6920 0.6900 0.6880 0.6860 0.6850
2197.026000 0.6840 0.6830 0.6810 0.6800 0.6780
2206.058727 0.6770 0.6750 0.6750 0.6740 0.6720
2215.082000 0.6710 0.6700 0.6690 0.6670 0.6660
2224.114727 0.6660 0.6640 0.6620 0.6610 0.6600
2233.139000 0.6590 0.6590 0.6580 0.6570 0.6570
2242.171727 0.6560 0.6530 0.6510 0.6500 0.6480
2251.195000 0.6480 0.6450 0.6420 0.6410 0.6400
2260.227727 0.6380 0.6360 0.6330 0.6310 0.6290
2269.251000 0.6270 0.6240 0.6220 0.6190 0.6160
2278.283727 0.6140 0.6110 0.6070 0.6050 0.6020
2287.308000 0.5980 0.5960 0.5920 0.5890 0.5870
2296.340727 0.5830 0.5800 0.5770 0.5740 0.5710
2305.364000 0.5690 0.5650 0.5620 0.5600 0.5580
2314.396727 0.5550 0.5520 0.5480 0.5460 0.5440
2323.420000 0.5430 0.5410 0.5390 0.5380 0.5360
2332.452727 0.5350 0.5350 0.5340 0.5320 0.5300
2341.476000 0.5280 0.5260 0.5250 0.5220 0.5190
2350.508727 0.5170 0.5150 0.5120 0.5080 0.5060
2359.533000 0.5030 0.5000 0.4960 0.4930 0.4900
2368.565727 0.4860 0.4820 0.4800 0.4760 0.4730
2377.589000 0.4690 0.4650 0.4620 0.4580 0.4550
2386.621727 0.4510 0.4490 0.4470 0.4440 0.4420
2395.645000 0.4390 0.4380 0.4370 0.4360 0.4350
2404.677727 0.4350 0.4350 0.4350 0.4340 0.4340
2413.702000 0.4340 0.4330 0.4320 0.4320 0.4310
2422.734727 0.4300 0.4290 0.4270 0.4230 0.4210
2431.758000 0.4160 0.4120 0.4080 0.4030 0.3990
2440.790727 0.3940 0.3890 0.3840 0.3790 0.3740
2449.814000 0.3690 0.3650 0.3600 0.3570 0.3530
2458.846727 0.3500 0.3460 0.3430 0.3420 0.3400
2467.871000 0.3360 0.3350 0.3330 0.3330 0.3310
2476.903727 0.3290 0.3270 0.3250 0.3240 0.3240
2485.927000 0.3210 0.3190 0.3160 0.3150 0.3130
2494.959727 0.3100 0.3070 0.3070 0.3070 0.3060
2503.983000 0.3060 0.3070 0.3070 0.3070 0.3080
2513.015727 0.3110 0.3150 0.3180 0.3220 0.3240
2522.039000 0.3270 0.3300 0.3310 0.3310 0.3340
2531.071727 0.3380 0.3420 0.3450 0.3490 0.3520
2540.096000 0.3560 0.3590 0.3600 0.3600 0.3600
2549.128727 0.3600 0.3590 0.3570 0.3540 0.3520
2558.152000 0.3500 0.3470 0.3450 0.3450 0.3430
2567.184727 0.3410 0.3390 0.3370 0.3340 0.3330
2576.208000 0.3320 0.3290 0.3270 0.3240 0.3210
2585.240727 0.3200 0.3190 0.3170 0.3150 0.3120
2594.265000 0.3080 0.3050 0.3020 0.3000 0.2980
2603.297727 0.2950 0.2910 0.2900 0.2890 0.2890
2612.321000 0.2890 0.2880 0.2880 0.2870 0.2870
2621.353727 0.2860 0.2860 0.2850 0.2840 0.2840
2630.377000 0.2830 0.2810 0.2800 0.2790 0.2760
2639.409727 0.2730 0.2690 0.2660 0.2630 0.2600
2648.433000 0.2560 0.2530 0.2480 0.2450 0.2400
2657.465727 0.2360 0.2320 0.2280 0.2240 0.2190
2666.490000 0.2160 0.2120 0.2100 0.2060 0.2030
2675.522727 0.2010 0.2000 0.1980 0.1970 0.1970
2684.546000 0.1970 0.1970 0.1950 0.1930 0.1920
2693.578727 0.1910 0.1900 0.1890 0.1860 0.1830
2702.602000 0.1760 0.1740 0.1720 0.1720 0.1700
2711.634727 0.1700 0.1680 0.1670 0.1650 0.1630
2720.659000 0.1610 0.1580 0.1560 0.1540 0.1520
2729.691727 0.1500 0.1490 0.1470 0.1440 0.1440
2738.715000 0.1420 0.1420 0.1420 0.1410 0.1410
2747.747727 0.1400 0.1400 0.1400 0.1400 0.1390
2756.771000 0.1390 0.1390 0.1380 0.1380 0.1380
2765.803727 0.1370 0.1370 0.1360 0.1360 0.1350
2774.827000 0.1340 0.1310 0.1290 0.1280 0.1260
2783.859727 0.1250 0.1240 0.1240 0.1240 0.1250
2792.884000 0.1250 0.1260 0.1270 0.1290 0.1310
2801.916727 0.1320 0.1330 0.1330 0.1340 0.1340
2810.940000 0.1350 0.1350 0.1350 0.1340 0.1340
2819.972727 0.1330 0.1330 0.1320 0.1320 0.1310
2828.996000 0.1310 0.1310 0.1300 0.1300 0.1290
2838.028727 0.1290 0.1280 0.1270 0.1270 0.1260
2847.053000 0.1250 0.1240 0.1240 0.1230 0.1220
2856.085727 0.1220 0.1220 0.1210 0.1200 0.1200
2865.109000 0.1200 0.1190 0.1190 0.1180 0.1180
2874.141727 0.1170 0.1170 0.1160 0.1160 0.1160
2883.165000 0.1150 0.1140 0.1140 0.1130 0.1130
2892.197727 0.1120 0.1120 0.1100 0.1080 0.1060
2901.221000 0.1050 0.1020 0.0970 0.0960 0.0940
2910.253727 0.0920 0.0910 0.0900 0.0890 0.0870
2919.278000 0.0860 0.0840 0.0830 0.0810 0.0780
2928.310727 0.0780 0.0770 0.0760 0.0750 0.0740
2937.334000 0.0730 0.0720 0.0710 0.0700 0.0700
2946.366727 0.0700 0.0700 0.0700 0.0700 0.0690
2955.390000 0.0690 0.0680 0.0680 0.0680 0.0680
2964.422727 0.0680 0.0690 0.0690 0.0690 0.0690
2973.447000 0.0690 0.0690 0.0700 0.0700 0.0700
2982.479727 0.0700 0.0700 0.0710 0.0710 0.0720
2991.503000 0.0720 0.0730 0.0730 0.0730 0.0740
3000.535727 0.0740 0.0750 0.0750 0.0760 0.0760
3009.559000 0.0770 0.0770 0.0780 0.0780 0.0780
3018.591727 0.0790 0.0800 0.0810 0.0820 0.0830
3027.615000 0.0840 0.0850 0.0870 0.0870 0.0870
3036.647727 0.0880 0.0890 0.0910 0.0930 0.0950
3045.672000 0.0960 0.0970 0.0990 0.1000 0.1010
3054.704727 0.1020 0.1040 0.1060 0.1080 0.1100
3063.728000 0.1120 0.1140 0.1150 0.1170 0.1200
3072.760727 0.1220 0.1230 0.1250 0.1270 0.1290
3081.784000 0.1310 0.1330 0.1350 0.1380 0.1400
3090.816727 0.1420 0.1450 0.1480 0.1480 0.1490
3099.841000 0.1490 0.1520 0.1580 0.1620 0.1660
3108.873727 0.1680 0.1700 0.1740 0.1760 0.1790
3117.897000 0.1810 0.1840 0.1840 0.1890 0.1910
3126.929727 0.1930 0.1980 0.2030 0.2050 0.2100
3135.953000 0.2140 0.2190 0.2220 0.2260 0.2300
3144.985727 0.2340 0.2360 0.2400 0.2440 0.2470
3154.010000 0.2510 0.2540 0.2580 0.2620 0.2650
3163.042727 0.2700 0.2740 0.2790 0.2830 0.2880
3172.066000 0.2930 0.2980 0.3040 0.3050 0.3070
3181.098727 0.3110 0.3180 0.3250 0.3320 0.3380
3190.122000 0.3440 0.3500 0.3560 0.3610 0.3670
3199.154727 0.3710 0.3770 0.3810 0.3850 0.3900
3208.178000 0.3940 0.3980 0.4020 0.4060 0.4090
3217.210727 0.4160 0.4220 0.4290 0.4360 0.4420
3226.235000 0.4480 0.4550 0.4610 0.4670 0.4730
3235.267727 0.4800 0.4860 0.4920 0.4990 0.5050
3244.291000 0.5100 0.5170 0.5220 0.5280 0.5340
3253.323727 0.5390 0.5450 0.5480 0.5510 0.5560
3262.347000 0.5610 0.5660 0.5710 0.5760 0.5810
3271.379727 0.5860 0.5900 0.5950 0.5990 0.6040
3280.404000 0.6070 0.6120 0.6150 0.6190 0.6220
3289.436727 0.6260 0.6300 0.6320 0.6350 0.6380
3298.460000 0.6390 0.6400 0.6420 0.6430 0.6450
3307.492727 0.6470 0.6500 0.6530 0.6560 0.6560
3316.516000 0.6570 0.6590 0.6590 0.6600 0.6600
3325.548727 0.6610 0.6620 0.6630 0.6630 0.6630
3334.573000 0.6640 0.6640 0.6640 0.6630 0.6630
3343.605727 0.6620 0.6620 0.6610 0.6610 0.6600
3352.629000 0.6580 0.6570 0.6570 0.6550 0.6540
3361.661727 0.6530 0.6520 0.6500 0.6490 0.6470
3370.685000 0.6450 0.6430 0.6410 0.6400 0.6400
3379.717727 0.6380 0.6360 0.6320 0.6320 0.6310
3388.741000 0.6280 0.6260 0.6230 0.6220 0.6200
3397.773727 0.6190 0.6170 0.6160 0.6150 0.6150
3406.798000 0.6140 0.6140 0.6130 0.6130 0.6130
3415.830727 0.6120 0.6120 0.6120 0.6110 0.6110
3424.854000 0.6110 0.6110 0.6110 0.6110 0.6110
3433.886727 0.6110 0.6120 0.6120 0.6120 0.6120
3442.910000 0.6120 0.6130 0.6130 0.6130 0.6130
3451.942727 0.6140 0.6140 0.6140 0.6150 0.6160
3460.967000 0.6180 0.6190 0.6200 0.6220 0.6240
3469.999727 0.6260 0.6280 0.6300 0.6320 0.6360
3479.023000 0.6380 0.6390 0.6400 0.6410 0.6430
3488.055727 0.6450 0.6480 0.6490 0.6510 0.6540
3497.079000 0.6560 0.6580 0.6600 0.6620 0.6650
3506.111727 0.6660 0.6670 0.6690 0.6700 0.6720
3515.135000 0.6750 0.6760 0.6790 0.6820 0.6840
3524.167727 0.6880 0.6900 0.6920 0.6950 0.6960
3533.192000 0.6970 0.6990 0.7010 0.7030 0.7070
3542.224727 0.7100 0.7110 0.7110 0.7150 0.7190
3551.248000 0.7210 0.7250 0.7280 0.7300 0.7330
3560.280727 0.7350 0.7360 0.7390 0.7400 0.7420
3569.304000 0.7450 0.7470 0.7500 0.7530 0.7550
3578.336727 0.7580 0.7610 0.7630 0.7660 0.7670
3587.361000 0.7690 0.7720 0.7770 0.7800 0.7840
3596.393727 0.7870 0.7890 0.7920 0.7930 0.7940
3605.417000 0.7970 0.7980 0.7990 0.8010 0.8030
3614.449727 0.8060 0.8070 0.8130 0.8170 0.8200
3623.473000 0.8220 0.8240 0.8250 0.8280 0.8300
3632.505727 0.8330 0.8340 0.8380 0.8400 0.8430
3641.530000 0.8440 0.8450 0.8460 0.8480 0.8490
3650.562727 0.8500 0.8510 0.8520 0.8520 0.8530
3659.586000 0.8540 0.8540 0.8540 0.8540 0.8530
3668.618727 0.8530 0.8530 0.8530 0.8520 0.8520
3677.642000 0.8520 0.8520 0.8520 0.8520 0.8520
3686.674727 0.8530 0.8530 0.8540 0.8540 0.8550
3695.698000 0.8560 0.8560 0.8570 0.8580 0.8580
3704.730727 0.8590 0.8590 0.8590 0.8600 0.8600
3713.755000 0.8600 0.8600 0.8590 0.8590 0.8590
3722.787727 0.8590 0.8590 0.8590 0.8590 0.8580
3731.811000 0.8580 0.8580 0.8580 0.8570 0.8570
3740.843727 0.8570 0.8570 0.8570 0.8570 0.8570
3749.867000 0.8570 0.8570 0.8580 0.8580 0.8580
3758.899727 0.8580 0.8580 0.8580 0.8590 0.8590
3767.924000 0.8590 0.8590 0.8590 0.8590 0.8590
3776.956727 0.8590 0.8590 0.8590 0.8590 0.8590
3785.980000 0.8580 0.8580 0.8580 0.8580 0.8570
3795.012727 0.8570 0.8570 0.8570 0.8560 0.8560
3804.036000 0.8560 0.8560 0.8550
##END=
