##TITLE=1,2-ETHANE DISULFONIC ACID, DISODIUM SALT
$$ E.K. (W.L.)
##JCAMP-DX=4.24
##DATA TYPE=INFRARED SPECTRUM
##CLASS=COBLENTZ
##ORIGIN=WYANDOTTE CHEMICALS CORP., WYANDOTTE, MICHIGAN, USA
##OWNER=COBLENTZ SOCIETY
Collection (C) 2018 copyright by the U.S. Secretary of Commerce
on behalf of the United States of America. All rights reserved.
##DATE=Not specified, most likely prior to 1970
##MOLFORM=C2 H4 O6 S2 Na2
##SOURCE REFERENCE=COBLENTZ NO. 1353
##$NIST ID=B6001353
##$NIST SOURCE=COBLENTZ
##$NIST IMAGE=cob1353
##SPECTROMETER/DATA SYSTEM=Not specified, most likely a prism, grating, or hybrid spectrometer.
##STATE=SOLID (MINERAL OIL MULL)
##SAMPLING PROCEDURE=TRANSMISSION
##RESOLUTION=4
##DATA PROCESSING=DIGITIZED BY NIST FROM HARD COPY
##XUNITS=MICROMETERS
##YUNITS=TRANSMITTANCE
##XFACTOR=1.000000
##YFACTOR=1
##DELTAX=000.006813
##FIRSTX=2.014
##LASTX=15.98
##FIRSTY=0.659
##MAXX=15.98
##MINX=2.014
##MAXY=0.959
##MINY=0.028
##NPOINTS=2051
##XYDATA=(X++(Y..Y))
2.014000 0.6590 0.6610 0.6610 0.6630 0.6630
2.048080 0.6660 0.6710 0.6710 0.6730 0.6760
2.082000 0.6780 0.6780 0.6800 0.6810 0.6810
2.116080 0.6810 0.6810 0.6830 0.6830 0.6850
2.150000 0.6850 0.6880 0.6900 0.6930 0.6950
2.184080 0.6950 0.6950 0.6950 0.6930 0.6930
2.218000 0.6920 0.6900 0.6900 0.6900 0.6880
2.252080 0.6880 0.6880 0.6870 0.6870 0.6870
2.286000 0.6870 0.6870 0.6870 0.6870 0.6870
2.320080 0.6870 0.6870 0.6870 0.6870 0.6870
2.354000 0.6870 0.6870 0.6880 0.6880 0.6920
2.388080 0.6980 0.7000 0.7020 0.7070 0.7090
2.422000 0.7100 0.7120 0.7140 0.7170 0.7190
2.456080 0.7210 0.7210 0.7210 0.7220 0.7220
2.491000 0.7270 0.7270 0.7270 0.7290 0.7320
2.525080 0.7380 0.7380 0.7390 0.7390 0.7410
2.559000 0.7430 0.7460 0.7480 0.7500 0.7510
2.593080 0.7510 0.7530 0.7530 0.7550 0.7550
2.627000 0.7560 0.7600 0.7630 0.7680 0.7680
2.661080 0.7700 0.7720 0.7720 0.7730 0.7730
2.695000 0.7720 0.7720 0.7720 0.7720 0.7700
2.729080 0.7700 0.7700 0.7700 0.7700 0.7680
2.763000 0.7680 0.7680 0.7630 0.7610 0.7580
2.797080 0.7500 0.7430 0.7340 0.7290 0.7220
2.831000 0.7190 0.7190 0.7190 0.7190 0.7190
2.865080 0.7190 0.7170 0.7140 0.7120 0.7120
2.899000 0.7120 0.7120 0.7100 0.7100 0.7100
2.933080 0.7100 0.7090 0.7090 0.7050 0.7000
2.967000 0.7000 0.7000 0.7000 0.7020 0.7050
3.001080 0.7070 0.7140 0.7150 0.7170 0.7190
3.036000 0.7210 0.7220 0.7260 0.7260 0.7270
3.070080 0.7270 0.7270 0.7270 0.7290 0.7310
3.104000 0.7320 0.7380 0.7380 0.7380 0.7340
3.138080 0.7310 0.7290 0.7290 0.7270 0.7260
3.172000 0.7220 0.7210 0.7190 0.7190 0.7140
3.206080 0.7120 0.7120 0.7100 0.7090 0.7090
3.240000 0.7020 0.7020 0.7000 0.6970 0.6880
3.274080 0.6760 0.6540 0.6150 0.5570 0.5110
3.308000 0.4720 0.4400 0.4110 0.3800 0.3500
3.342080 0.3110 0.2650 0.2210 0.1900 0.1610
3.376000 0.1420 0.1250 0.1130 0.1020 0.0930
3.410080 0.0850 0.0810 0.0740 0.0680 0.0590
3.444000 0.0560 0.0560 0.0560 0.0570 0.0590
3.478080 0.0610 0.0610 0.0610 0.0520 0.0520
3.512000 0.0520 0.0570 0.0660 0.0810 0.1070
3.546080 0.1460 0.1920 0.2460 0.3020 0.3570
3.581000 0.4040 0.4450 0.4720 0.5080 0.5400
3.615080 0.5690 0.5910 0.6100 0.6240 0.6360
3.649000 0.6460 0.6530 0.6590 0.6610 0.6630
3.683080 0.6640 0.6700 0.6730 0.6780 0.6810
3.717000 0.6880 0.6900 0.6920 0.6950 0.7000
3.751080 0.7020 0.7040 0.7090 0.7120 0.7170
3.785000 0.7220 0.7270 0.7310 0.7340 0.7390
3.819080 0.7410 0.7430 0.7460 0.7500 0.7510
3.853000 0.7530 0.7530 0.7580 0.7600 0.7610
3.887080 0.7670 0.7680 0.7720 0.7780 0.7800
3.921000 0.7820 0.7870 0.7890 0.7920 0.7920
3.955080 0.7940 0.7970 0.8010 0.8010 0.8060
3.989000 0.8070 0.8110 0.8110 0.8140 0.8160
4.023080 0.8180 0.8180 0.8210 0.8230 0.8230
4.057000 0.8230 0.8210 0.8210 0.8210 0.8210
4.091080 0.8210 0.8210 0.8210 0.8210 0.8210
4.126000 0.8210 0.8210 0.8210 0.8230 0.8230
4.160080 0.8240 0.8240 0.8240 0.8260 0.8280
4.194000 0.8310 0.8330 0.8350 0.8350 0.8350
4.228080 0.8350 0.8330 0.8330 0.8330 0.8310
4.262000 0.8290 0.8290 0.8290 0.8310 0.8310
4.296080 0.8350 0.8380 0.8400 0.8410 0.8410
4.330000 0.8450 0.8480 0.8480 0.8500 0.8520
4.364080 0.8520 0.8570 0.8580 0.8580 0.8580
4.398000 0.8580 0.8580 0.8580 0.8530 0.8480
4.432080 0.8480 0.8450 0.8410 0.8410 0.8400
4.466000 0.8380 0.8330 0.8310 0.8310 0.8310
4.500080 0.8310 0.8330 0.8360 0.8360 0.8360
4.534000 0.8400 0.8410 0.8430 0.8430 0.8450
4.568080 0.8460 0.8460 0.8460 0.8480 0.8480
4.602000 0.8500 0.8520 0.8530 0.8530 0.8570
4.636080 0.8580 0.8600 0.8690 0.8690 0.8720
4.671000 0.8790 0.8840 0.8890 0.8960 0.9010
4.705080 0.9060 0.9080 0.9090 0.9110 0.9110
4.739000 0.9130 0.9130 0.9140 0.9130 0.9110
4.773080 0.9080 0.9060 0.9010 0.8990 0.8990
4.807000 0.9010 0.9010 0.9080 0.9090 0.9130
4.841080 0.9180 0.9200 0.9210 0.9250 0.9280
4.875000 0.9300 0.9330 0.9350 0.9370 0.9370
4.909080 0.9380 0.9400 0.9420 0.9420 0.9420
4.943000 0.9430 0.9430 0.9430 0.9430 0.9430
4.977080 0.9430 0.9430 0.9430 0.9430 0.9430
5.011000 0.9430 0.9430 0.9430 0.9430 0.9430
5.045080 0.9430 0.9430 0.9430 0.9430 0.9430
5.079000 0.9430 0.9430 0.9430 0.9430 0.9430
5.113080 0.9430 0.9430 0.9430 0.9430 0.9430
5.147000 0.9430 0.9430 0.9430 0.9430 0.9430
5.181080 0.9430 0.9430 0.9430 0.9430 0.9450
5.216000 0.9450 0.9450 0.9450 0.9450 0.9470
5.250080 0.9470 0.9480 0.9480 0.9500 0.9500
5.284000 0.9520 0.9520 0.9550 0.9570 0.9570
5.318080 0.9570 0.9570 0.9570 0.9570 0.9590
5.352000 0.9590 0.9590 0.9590 0.9590 0.9590
5.386080 0.9590 0.9590 0.9590 0.9590 0.9590
5.420000 0.9590 0.9570 0.9550 0.9520 0.9500
5.454080 0.9500 0.9520 0.9500 0.9500 0.9500
5.488000 0.9480 0.9480 0.9470 0.9450 0.9450
5.522080 0.9450 0.9430 0.9430 0.9430 0.9430
5.556000 0.9430 0.9430 0.9430 0.9420 0.9420
5.590080 0.9420 0.9420 0.9400 0.9400 0.9400
5.624000 0.9380 0.9380 0.9380 0.9350 0.9330
5.658080 0.9310 0.9310 0.9310 0.9300 0.9300
5.692000 0.9280 0.9250 0.9210 0.9130 0.9080
5.726080 0.9060 0.9040 0.9030 0.9030 0.9010
5.761000 0.9010 0.9010 0.8990 0.8920 0.8870
5.795080 0.8770 0.8750 0.8750 0.8740 0.8740
5.829000 0.8720 0.8670 0.8670 0.8650 0.8620
5.863080 0.8580 0.8570 0.8570 0.8530 0.8520
5.897000 0.8450 0.8290 0.8210 0.8190 0.8140
5.931080 0.8090 0.8070 0.8040 0.8040 0.8040
5.965000 0.8020 0.8010 0.7990 0.7950 0.7940
5.999080 0.7890 0.7800 0.7780 0.7750 0.7750
6.033000 0.7750 0.7750 0.7730 0.7680 0.7670
6.067080 0.7600 0.7500 0.7480 0.7480 0.7480
6.101000 0.7480 0.7500 0.7500 0.7510 0.7510
6.135080 0.7550 0.7550 0.7580 0.7610 0.7630
6.169000 0.7650 0.7650 0.7650 0.7650 0.7650
6.203080 0.7650 0.7650 0.7650 0.7650 0.7670
6.237000 0.7670 0.7670 0.7670 0.7670 0.7670
6.271080 0.7670 0.7630 0.7610 0.7610 0.7610
6.306000 0.7630 0.7670 0.7670 0.7670 0.7650
6.340080 0.7650 0.7650 0.7650 0.7670 0.7670
6.374000 0.7680 0.7680 0.7680 0.7680 0.7680
6.408080 0.7680 0.7670 0.7670 0.7630 0.7610
6.442000 0.7610 0.7600 0.7580 0.7580 0.7560
6.476080 0.7550 0.7530 0.7510 0.7500 0.7480
6.510000 0.7480 0.7480 0.7480 0.7460 0.7460
6.544080 0.7460 0.7460 0.7440 0.7430 0.7410
6.578000 0.7380 0.7320 0.7290 0.7270 0.7240
6.612080 0.7220 0.7190 0.7120 0.7090 0.7020
6.646000 0.7000 0.6980 0.6930 0.6810 0.6780
6.680080 0.6700 0.6610 0.6510 0.6410 0.6240
6.714000 0.6000 0.5810 0.5620 0.5420 0.5180
6.748080 0.4910 0.4540 0.4060 0.3460 0.2970
6.782000 0.2550 0.2210 0.1900 0.1610 0.1270
6.816080 0.1190 0.1130 0.1120 0.1120 0.1130
6.851000 0.1150 0.1170 0.1190 0.1200 0.1290
6.885080 0.1360 0.1420 0.1490 0.1560 0.1750
6.919000 0.1850 0.1970 0.2040 0.2120 0.2190
6.953080 0.2290 0.2320 0.2340 0.2310 0.2210
6.987000 0.2100 0.2020 0.1970 0.1900 0.1900
7.021080 0.1870 0.1830 0.1800 0.1760 0.1760
7.055000 0.1760 0.1780 0.2100 0.2550 0.3040
7.089080 0.3360 0.3750 0.4090 0.4310 0.4450
7.123000 0.4520 0.4620 0.4690 0.4720 0.4720
7.157080 0.4690 0.4590 0.4470 0.4400 0.4300
7.191000 0.4030 0.3750 0.3460 0.3110 0.3010
7.225080 0.2700 0.2410 0.2150 0.1970 0.1700
7.259000 0.1680 0.1660 0.1700 0.1710 0.1800
7.293080 0.1900 0.1980 0.1980 0.2000 0.2050
7.327000 0.2100 0.2170 0.2240 0.2290 0.2310
7.361080 0.2310 0.2320 0.2340 0.2340 0.2340
7.396000 0.2340 0.2320 0.2320 0.2310 0.2290
7.430080 0.2240 0.2210 0.2190 0.2120 0.2090
7.464000 0.2050 0.2000 0.1970 0.1900 0.1900
7.498080 0.1880 0.1810 0.1700 0.1610 0.1530
7.532000 0.1440 0.1370 0.1340 0.1300 0.1270
7.566080 0.1220 0.1200 0.1200 0.1220 0.1290
7.600000 0.1290 0.1250 0.1240 0.1200 0.1150
7.634080 0.1130 0.1120 0.1100 0.1050 0.1020
7.668000 0.0960 0.0910 0.0860 0.0830 0.0740
7.702080 0.0680 0.0610 0.0540 0.0510 0.0440
7.736000 0.0420 0.0420 0.0440 0.0440 0.0440
7.770080 0.0440 0.0440 0.0440 0.0440 0.0390
7.804000 0.0390 0.0390 0.0400 0.0420 0.0420
7.838080 0.0400 0.0400 0.0400 0.0400 0.0400
7.873000 0.0390 0.0390 0.0390 0.0390 0.0370
7.907080 0.0370 0.0370 0.0370 0.0350 0.0350
7.941000 0.0340 0.0340 0.0320 0.0320 0.0320
7.975080 0.0320 0.0320 0.0320 0.0320 0.0300
8.009000 0.0320 0.0320 0.0320 0.0320 0.0320
8.043080 0.0340 0.0320 0.0320 0.0320 0.0340
8.077000 0.0320 0.0320 0.0320 0.0320 0.0320
8.111080 0.0320 0.0300 0.0300 0.0280 0.0280
8.145000 0.0280 0.0280 0.0280 0.0280 0.0280
8.179080 0.0280 0.0280 0.0280 0.0280 0.0280
8.213000 0.0280 0.0280 0.0300 0.0280 0.0280
8.247080 0.0280 0.0300 0.0300 0.0300 0.0320
8.281000 0.0320 0.0300 0.0300 0.0300 0.0320
8.315080 0.0320 0.0320 0.0320 0.0320 0.0320
8.349000 0.0320 0.0320 0.0320 0.0320 0.0320
8.383080 0.0320 0.0320 0.0320 0.0320 0.0320
8.418000 0.0320 0.0320 0.0320 0.0320 0.0320
8.452080 0.0300 0.0300 0.0300 0.0300 0.0280
8.486000 0.0300 0.0300 0.0300 0.0300 0.0300
8.520080 0.0300 0.0300 0.0300 0.0300 0.0300
8.554000 0.0300 0.0300 0.0280 0.0280 0.0280
8.588080 0.0300 0.0300 0.0320 0.0320 0.0340
8.622000 0.0350 0.0390 0.0400 0.0400 0.0400
8.656080 0.0350 0.0350 0.0340 0.0340 0.0340
8.690000 0.0340 0.0320 0.0320 0.0320 0.0340
8.724080 0.0350 0.0350 0.0320 0.0280 0.0280
8.758000 0.0300 0.0320 0.0320 0.0340 0.0340
8.792080 0.0340 0.0300 0.0300 0.0300 0.0320
8.826000 0.0320 0.0320 0.0320 0.0300 0.0300
8.860080 0.0300 0.0300 0.0300 0.0320 0.0320
8.894000 0.0340 0.0390 0.0400 0.0420 0.0420
8.928080 0.0440 0.0450 0.0490 0.0510 0.0510
8.963000 0.0490 0.0510 0.0510 0.0510 0.0540
8.997080 0.0610 0.0640 0.0690 0.0760 0.0790
9.031000 0.0810 0.0850 0.0900 0.0880 0.0900
9.065080 0.0910 0.0950 0.1000 0.1000 0.1020
9.099000 0.1030 0.1100 0.1120 0.1150 0.1170
9.133080 0.1190 0.1220 0.1250 0.1320 0.1320
9.167000 0.1320 0.1340 0.1360 0.1360 0.1370
9.201080 0.1370 0.1390 0.1390 0.1390 0.1390
9.235000 0.1390 0.1360 0.1320 0.1220 0.1120
9.269080 0.1050 0.0960 0.0860 0.0790 0.0710
9.303000 0.0680 0.0570 0.0540 0.0510 0.0490
9.337080 0.0450 0.0440 0.0400 0.0390 0.0370
9.371000 0.0350 0.0350 0.0350 0.0350 0.0350
9.405080 0.0340 0.0340 0.0340 0.0340 0.0340
9.439000 0.0340 0.0340 0.0340 0.0340 0.0340
9.473080 0.0340 0.0340 0.0340 0.0320 0.0320
9.508000 0.0340 0.0320 0.0320 0.0320 0.0320
9.542080 0.0320 0.0320 0.0320 0.0320 0.0320
9.576000 0.0320 0.0320 0.0320 0.0300 0.0300
9.610080 0.0280 0.0280 0.0280 0.0300 0.0300
9.644000 0.0300 0.0300 0.0300 0.0300 0.0300
9.678080 0.0340 0.0350 0.0370 0.0400 0.0420
9.712000 0.0440 0.0440 0.0450 0.0470 0.0510
9.746080 0.0540 0.0610 0.0660 0.0710 0.0740
9.780000 0.0790 0.0830 0.0880 0.0950 0.1050
9.814080 0.1150 0.1290 0.1440 0.1560 0.1660
9.848000 0.1760 0.1950 0.2000 0.2070 0.2150
9.882080 0.2240 0.2340 0.2460 0.2580 0.2720
9.916000 0.2840 0.2970 0.3090 0.3210 0.3330
9.950080 0.3410 0.3530 0.3630 0.3720 0.3820
9.984000 0.3920 0.4030 0.4140 0.4250 0.4380
10.018080 0.4480 0.4570 0.4650 0.4740 0.4820
10.053000 0.4910 0.5000 0.5060 0.5150 0.5230
10.087080 0.5300 0.5370 0.5450 0.5520 0.5590
10.121000 0.5740 0.5780 0.5850 0.5930 0.6000
10.155080 0.6030 0.6080 0.6100 0.6120 0.6220
10.189000 0.6250 0.6290 0.6320 0.6360 0.6390
10.223080 0.6420 0.6460 0.6470 0.6510 0.6540
10.257000 0.6580 0.6590 0.6610 0.6630 0.6660
10.291080 0.6710 0.6780 0.6850 0.6880 0.6900
10.325000 0.6950 0.6970 0.6980 0.7020 0.7040
10.359080 0.7070 0.7100 0.7170 0.7170 0.7210
10.393000 0.7220 0.7270 0.7290 0.7310 0.7320
10.427080 0.7340 0.7390 0.7480 0.7500 0.7510
10.461000 0.7550 0.7580 0.7600 0.7630 0.7670
10.495080 0.7700 0.7730 0.7750 0.7770 0.7770
10.529000 0.7780 0.7800 0.7820 0.7850 0.7870
10.563080 0.7900 0.7950 0.7990 0.8020 0.8040
10.598000 0.8060 0.8060 0.8040 0.8010 0.7940
10.632080 0.7730 0.7600 0.7460 0.7310 0.7190
10.666000 0.7000 0.6900 0.6710 0.6540 0.6390
10.700080 0.6250 0.6220 0.6220 0.6250 0.6510
10.734000 0.6700 0.6880 0.7050 0.7210 0.7380
10.768080 0.7510 0.7670 0.7800 0.7920 0.8040
10.802000 0.8140 0.8230 0.8310 0.8400 0.8450
10.836080 0.8500 0.8520 0.8530 0.8550 0.8570
10.870000 0.8580 0.8620 0.8630 0.8650 0.8670
10.904080 0.8690 0.8700 0.8720 0.8740 0.8740
10.938000 0.8770 0.8800 0.8820 0.8860 0.8890
10.972080 0.8910 0.8940 0.8970 0.9010 0.9040
11.006000 0.9080 0.9090 0.9110 0.9130 0.9180
11.040080 0.9200 0.9250 0.9300 0.9310 0.9330
11.074000 0.9350 0.9350 0.9330 0.9310 0.9310
11.108080 0.9300 0.9300 0.9300 0.9300 0.9310
11.143000 0.9310 0.9310 0.9310 0.9310 0.9310
11.177080 0.9310 0.9300 0.9300 0.9300 0.9300
11.211000 0.9300 0.9310 0.9310 0.9310 0.9310
11.245080 0.9330 0.9330 0.9330 0.9350 0.9350
11.279000 0.9350 0.9350 0.9350 0.9350 0.9370
11.313080 0.9370 0.9400 0.9420 0.9420 0.9420
11.347000 0.9400 0.9350 0.9310 0.9300 0.9300
11.381080 0.9310 0.9330 0.9350 0.9380 0.9400
11.415000 0.9400 0.9380 0.9380 0.9380 0.9350
11.449080 0.9310 0.9250 0.9140 0.9040 0.8960
11.483000 0.8840 0.8740 0.8650 0.8620 0.8630
11.517080 0.8670 0.8700 0.8800 0.8910 0.9010
11.551000 0.9090 0.9160 0.9200 0.9210 0.9250
11.585080 0.9300 0.9310 0.9350 0.9370 0.9380
11.619000 0.9400 0.9430 0.9470 0.9500 0.9540
11.653080 0.9570 0.9590 0.9590 0.9590 0.9590
11.688000 0.9590 0.9570 0.9570 0.9570 0.9570
11.722080 0.9550 0.9540 0.9540 0.9520 0.9500
11.756000 0.9500 0.9500 0.9520 0.9540 0.9540
11.790080 0.9550 0.9550 0.9570 0.9570 0.9590
11.824000 0.9590 0.9590 0.9590 0.9590 0.9590
11.858080 0.9590 0.9590 0.9590 0.9590 0.9590
11.892000 0.9590 0.9590 0.9590 0.9590 0.9590
11.926080 0.9540 0.9540 0.9540 0.9540 0.9540
11.960000 0.9540 0.9540 0.9520 0.9520 0.9500
11.994080 0.9500 0.9480 0.9480 0.9470 0.9470
12.028000 0.9450 0.9430 0.9430 0.9420 0.9400
12.062080 0.9400 0.9380 0.9370 0.9370 0.9350
12.096000 0.9330 0.9330 0.9310 0.9300 0.9300
12.130080 0.9300 0.9280 0.9280 0.9280 0.9260
12.164000 0.9260 0.9260 0.9250 0.9230 0.9200
12.198080 0.9160 0.9140 0.9130 0.9090 0.9090
12.233000 0.9080 0.9060 0.9040 0.9030 0.8990
12.267080 0.8970 0.8920 0.8890 0.8860 0.8800
12.301000 0.8790 0.8770 0.8740 0.8740 0.8720
12.335080 0.8690 0.8670 0.8650 0.8630 0.8580
12.369000 0.8550 0.8530 0.8480 0.8450 0.8380
12.403080 0.8330 0.8280 0.8260 0.8210 0.8120
12.437000 0.8070 0.8040 0.8020 0.8010 0.7940
12.471080 0.7920 0.7850 0.7750 0.7650 0.7560
12.505000 0.7460 0.7440 0.7380 0.7320 0.7290
12.539080 0.7240 0.7150 0.7050 0.6970 0.6920
12.573000 0.6850 0.6660 0.6560 0.6490 0.6410
12.607080 0.6290 0.6170 0.6030 0.5910 0.5790
12.641000 0.5740 0.5610 0.5490 0.5350 0.5200
12.675080 0.5030 0.4860 0.4690 0.4520 0.4330
12.709000 0.4130 0.3940 0.3740 0.3550 0.3350
12.743080 0.3160 0.2950 0.2750 0.2560 0.2380
12.778000 0.2190 0.2020 0.1830 0.1750 0.1490
12.812080 0.1320 0.1170 0.1070 0.0960 0.0900
12.846000 0.0850 0.0740 0.0680 0.0660 0.0640
12.880080 0.0620 0.0620 0.0620 0.0610 0.0610
12.914000 0.0560 0.0520 0.0520 0.0520 0.0520
12.948080 0.0520 0.0540 0.0520 0.0520 0.0520
12.982000 0.0520 0.0510 0.0510 0.0510 0.0510
13.016080 0.0490 0.0490 0.0490 0.0470 0.0450
13.050000 0.0450 0.0450 0.0450 0.0470 0.0490
13.084080 0.0510 0.0520 0.0520 0.0520 0.0540
13.118000 0.0540 0.0560 0.0560 0.0570 0.0590
13.152080 0.0590 0.0590 0.0610 0.0610 0.0610
13.186000 0.0610 0.0620 0.0640 0.0660 0.0690
13.220080 0.0710 0.0760 0.0830 0.0860 0.0960
13.255000 0.1050 0.1170 0.1250 0.1340 0.1410
13.289080 0.1510 0.1590 0.1680 0.1800 0.1900
13.323000 0.2020 0.2190 0.2340 0.2480 0.2630
13.357080 0.2770 0.2900 0.3040 0.3180 0.3290
13.391000 0.3430 0.3550 0.3670 0.3790 0.3910
13.425080 0.4010 0.4110 0.4230 0.4310 0.4420
13.459000 0.4520 0.4600 0.4710 0.4790 0.4880
13.493080 0.4940 0.5030 0.5100 0.5170 0.5250
13.527000 0.5370 0.5400 0.5470 0.5510 0.5570
13.561080 0.5680 0.5730 0.5790 0.5810 0.5830
13.595000 0.5850 0.5900 0.5980 0.6050 0.6050
13.629080 0.6170 0.6270 0.6300 0.6320 0.6340
13.663000 0.6390 0.6470 0.6510 0.6530 0.6540
13.697080 0.6590 0.6590 0.6610 0.6630 0.6680
13.731000 0.6710 0.6750 0.6800 0.6800 0.6810
13.765080 0.6810 0.6810 0.6830 0.6850 0.6880
13.800000 0.6900 0.6900 0.6900 0.6930 0.6950
13.834080 0.6980 0.7000 0.7000 0.7020 0.7020
13.868000 0.7040 0.7050 0.7050 0.7100 0.7120
13.902080 0.7190 0.7260 0.7320 0.7410 0.7460
13.936000 0.7500 0.7510 0.7560 0.7610 0.7670
13.970080 0.7720 0.7770 0.7840 0.7900 0.7970
14.004000 0.8020 0.8090 0.8160 0.8210 0.8240
14.038080 0.8280 0.8290 0.8350 0.8410 0.8460
14.072000 0.8500 0.8530 0.8600 0.8650 0.8700
14.106080 0.8720 0.8790 0.8800 0.8840 0.8870
14.140000 0.8890 0.8890 0.8920 0.8970 0.9010
14.174080 0.9030 0.9040 0.9080 0.9110 0.9110
14.208000 0.9110 0.9130 0.9140 0.9140 0.9160
14.242080 0.9180 0.9200 0.9210 0.9230 0.9250
14.276000 0.9260 0.9280 0.9310 0.9370 0.9380
14.310080 0.9400 0.9420 0.9420 0.9420 0.9420
14.345000 0.9400 0.9380 0.9380 0.9380 0.9380
14.379080 0.9380 0.9400 0.9400 0.9400 0.9400
14.413000 0.9400 0.9400 0.9400 0.9380 0.9370
14.447080 0.9330 0.9310 0.9310 0.9300 0.9300
14.481000 0.9300 0.9300 0.9300 0.9310 0.9310
14.515080 0.9310 0.9300 0.9280 0.9280 0.9280
14.549000 0.9280 0.9260 0.9280 0.9280 0.9280
14.583080 0.9260 0.9260 0.9250 0.9250 0.9250
14.617000 0.9230 0.9210 0.9210 0.9210 0.9210
14.651080 0.9210 0.9200 0.9200 0.9200 0.9200
14.685000 0.9180 0.9160 0.9140 0.9140 0.9140
14.719080 0.9140 0.9140 0.9140 0.9140 0.9130
14.753000 0.9130 0.9110 0.9090 0.9090 0.9060
14.787080 0.9060 0.9060 0.9040 0.9030 0.9010
14.821000 0.8990 0.8990 0.8970 0.8970 0.8970
14.855080 0.8970 0.8970 0.8970 0.8970 0.8960
14.890000 0.8960 0.8940 0.8910 0.8890 0.8870
14.924080 0.8870 0.8860 0.8840 0.8820 0.8820
14.958000 0.8800 0.8790 0.8790 0.8770 0.8740
14.992080 0.8700 0.8670 0.8630 0.8600 0.8550
15.026000 0.8520 0.8460 0.8400 0.8330 0.8330
15.060080 0.8310 0.8290 0.8290 0.8280 0.8280
15.094000 0.8280 0.8280 0.8280 0.8290 0.8290
15.128080 0.8290 0.8290 0.8290 0.8290 0.8310
15.162000 0.8310 0.8310 0.8310 0.8310 0.8310
15.196080 0.8310 0.8310 0.8310 0.8290 0.8290
15.230000 0.8290 0.8260 0.8260 0.8240 0.8230
15.264080 0.8210 0.8210 0.8190 0.8180 0.8160
15.298000 0.8140 0.8120 0.8120 0.8110 0.8090
15.332080 0.8070 0.8060 0.8060 0.8040 0.8020
15.366000 0.8020 0.7990 0.7990 0.7970 0.7940
15.400080 0.7920 0.7920 0.7900 0.7890 0.7870
15.435000 0.7850 0.7840 0.7820 0.7800 0.7780
15.469080 0.7780 0.7770 0.7770 0.7750 0.7730
15.503000 0.7720 0.7700 0.7680 0.7670 0.7650
15.537080 0.7630 0.7630 0.7600 0.7580 0.7530
15.571000 0.7500 0.7440 0.7430 0.7390 0.7360
15.605080 0.7320 0.7310 0.7270 0.7210 0.7210
15.639000 0.7210 0.7170 0.7120 0.7070 0.7050
15.673080 0.7020 0.7020 0.7020 0.7020 0.7020
15.707000 0.7020 0.7020 0.7000 0.7000 0.6980
15.741080 0.6980 0.6980 0.6970 0.6970 0.6950
15.775000 0.6950 0.6950 0.6950 0.6930 0.6920
15.809080 0.6900 0.6900 0.6850 0.6830 0.6800
15.843000 0.6800 0.6780 0.6780 0.6780 0.6760
15.877080 0.6760 0.6760 0.6750 0.6750 0.6730
15.911000 0.6710 0.6700 0.6680 0.6660 0.6640
15.945080 0.6630 0.6610 0.6590 0.6580 0.6560
15.980000 0.6540
##END=
