##TITLE=2,4-DIMETHOXYBENZOYL FERROCENE
##JCAMP-DX=4.24
##DATA TYPE=INFRARED SPECTRUM
##CLASS=COBLENTZ
##ORIGIN=WYANDOTTE CHEMICALS CORP., WYANDOTTE, MICHIGAN, USA
##OWNER=COBLENTZ SOCIETY
Collection (C) 2018 copyright by the U.S. Secretary of Commerce
on behalf of the United States of America. All rights reserved.
##DATE=Not specified, most likely prior to 1970
##MOLFORM=C19 H18 O3 Fe
##MP=133.5-133.8 C
##SOURCE REFERENCE=COBLENTZ NO. 3024
##$NIST ID=B6003024
##$NIST SOURCE=COBLENTZ
##$NIST IMAGE=cob3024
##SPECTROMETER/DATA SYSTEM=Not specified, most likely a prism, grating, or hybrid spectrometer.
##STATE=SOLID (MINERAL OIL MULL)
##PATH LENGTH=
$$SPECTRAL CONTAMINATION DUE TO OIL AROUND 2900 CM^-^1
##SAMPLING PROCEDURE=TRANSMISSION
##RESOLUTION=4
##DATA PROCESSING=DIGITIZED BY NIST FROM HARD COPY
##XUNITS=MICROMETERS
##YUNITS=TRANSMITTANCE
##XFACTOR=1.000000
##YFACTOR=1
##DELTAX=000.006806
##FIRSTX=2.02
##LASTX=15.9798
##FIRSTY=0.536
##MAXX=15.9798
##MINX=2.02
##MAXY=0.95
##MINY=0.023
##NPOINTS=2052
##XYDATA=(X++(Y..Y))
2.020000 0.5360 0.5360 0.5380 0.5380 0.5400
2.054047 0.5410 0.5410 0.5410 0.5450 0.5450
2.088000 0.5480 0.5500 0.5500 0.5500 0.5500
2.122047 0.5520 0.5530 0.5570 0.5580 0.5580
2.157000 0.5580 0.5580 0.5570 0.5550 0.5530
2.191047 0.5530 0.5530 0.5530 0.5530 0.5550
2.225000 0.5570 0.5570 0.5580 0.5580 0.5580
2.259047 0.5600 0.5620 0.5640 0.5670 0.5690
2.293000 0.5720 0.5760 0.5790 0.5810 0.5840
2.327047 0.5880 0.5890 0.5890 0.5890 0.5890
2.361000 0.5890 0.5890 0.5890 0.5890 0.5890
2.395047 0.5910 0.5940 0.6000 0.6030 0.6050
2.429000 0.6080 0.6080 0.6050 0.6030 0.6010
2.463047 0.6010 0.6010 0.6010 0.6010 0.6010
2.497000 0.6050 0.6110 0.6130 0.6150 0.6220
2.531047 0.6250 0.6270 0.6290 0.6300 0.6320
2.565000 0.6340 0.6350 0.6350 0.6320 0.6320
2.599047 0.6320 0.6350 0.6390 0.6390 0.6390
2.633000 0.6410 0.6410 0.6410 0.6420 0.6420
2.667047 0.6410 0.6410 0.6410 0.6390 0.6390
2.701000 0.6390 0.6390 0.6390 0.6390 0.6410
2.735047 0.6410 0.6410 0.6390 0.6390 0.6370
2.769000 0.6350 0.6350 0.6350 0.6340 0.6340
2.803047 0.6340 0.6350 0.6350 0.6350 0.6340
2.837000 0.6320 0.6290 0.6270 0.6270 0.6290
2.871047 0.6290 0.6300 0.6320 0.6320 0.6320
2.905000 0.6320 0.6320 0.6300 0.6300 0.6300
2.939047 0.6300 0.6300 0.6300 0.6300 0.6320
2.973000 0.6340 0.6340 0.6340 0.6350 0.6370
3.007047 0.6390 0.6410 0.6420 0.6420 0.6440
3.041000 0.6420 0.6390 0.6340 0.6320 0.6320
3.075047 0.6390 0.6420 0.6420 0.6420 0.6420
3.109000 0.6420 0.6420 0.6390 0.6390 0.6390
3.143047 0.6390 0.6390 0.6390 0.6420 0.6490
3.177000 0.6490 0.6510 0.6510 0.6390 0.6170
3.211047 0.6030 0.5940 0.5770 0.5650 0.5600
3.246000 0.5580 0.5620 0.5910 0.6100 0.6150
3.280047 0.6130 0.6080 0.5880 0.5570 0.5140
3.314000 0.4580 0.4080 0.3650 0.3210 0.2320
3.348047 0.1810 0.1520 0.0760 0.0320 0.0290
3.382000 0.0290 0.0290 0.0300 0.0300 0.0320
3.416047 0.0340 0.0340 0.0410 0.0490 0.0560
3.450000 0.0700 0.0780 0.0920 0.0990 0.1020
3.484047 0.0990 0.0950 0.0780 0.0780 0.0900
3.518000 0.1500 0.2050 0.2710 0.3840 0.4900
3.552047 0.5890 0.6560 0.6850 0.7000 0.7110
3.586000 0.7170 0.7280 0.7410 0.7470 0.7500
3.620047 0.7530 0.7570 0.7620 0.7670 0.7670
3.654000 0.7640 0.7600 0.7550 0.7520 0.7520
3.688047 0.7500 0.7500 0.7580 0.7690 0.7700
3.722000 0.7700 0.7690 0.7670 0.7670 0.7690
3.756047 0.7700 0.7760 0.7810 0.7820 0.7820
3.790000 0.7820 0.7810 0.7810 0.7810 0.7810
3.824047 0.7820 0.7840 0.7860 0.7880 0.7890
3.858000 0.7980 0.8010 0.8010 0.8030 0.8030
3.892047 0.8050 0.8100 0.8100 0.8150 0.8200
3.926000 0.8230 0.8270 0.8300 0.8320 0.8320
3.960047 0.8300 0.8270 0.8220 0.8200 0.8230
3.994000 0.8290 0.8320 0.8340 0.8340 0.8340
4.028047 0.8340 0.8340 0.8340 0.8340 0.8340
4.062000 0.8320 0.8300 0.8320 0.8340 0.8350
4.096047 0.8370 0.8410 0.8410 0.8410 0.8410
4.130000 0.8420 0.8420 0.8420 0.8420 0.8440
4.164047 0.8460 0.8460 0.8460 0.8470 0.8470
4.198000 0.8470 0.8490 0.8490 0.8490 0.8490
4.232047 0.8420 0.8350 0.8320 0.8270 0.8250
4.266000 0.8250 0.8250 0.8270 0.8340 0.8390
4.300047 0.8410 0.8410 0.8410 0.8420 0.8490
4.334000 0.8520 0.8560 0.8610 0.8700 0.8750
4.368047 0.8780 0.8820 0.8820 0.8830 0.8830
4.403000 0.8800 0.8800 0.8820 0.8820 0.8820
4.437047 0.8820 0.8800 0.8800 0.8800 0.8800
4.471000 0.8800 0.8820 0.8830 0.8830 0.8800
4.505047 0.8760 0.8750 0.8750 0.8780 0.8780
4.539000 0.8780 0.8800 0.8800 0.8800 0.8830
4.573047 0.8850 0.8870 0.8880 0.8900 0.8920
4.607000 0.8940 0.8940 0.8940 0.8940 0.8940
4.641047 0.8940 0.8990 0.8990 0.8990 0.8990
4.675000 0.8990 0.8990 0.8990 0.8990 0.8920
4.709047 0.8920 0.8900 0.8900 0.8920 0.9000
4.743000 0.9000 0.9020 0.9020 0.9020 0.9020
4.777047 0.9040 0.9050 0.9090 0.9120 0.9140
4.811000 0.9110 0.9110 0.9120 0.9120 0.9120
4.845047 0.9120 0.9120 0.9120 0.9140 0.9120
4.879000 0.9120 0.9110 0.9110 0.9090 0.9020
4.913047 0.8950 0.8900 0.8850 0.8850 0.8880
4.947000 0.8990 0.9040 0.9070 0.9110 0.9140
4.981047 0.9160 0.9170 0.9190 0.9190 0.9210
5.015000 0.9210 0.9210 0.9210 0.9210 0.9230
5.049047 0.9230 0.9230 0.9230 0.9240 0.9240
5.083000 0.9240 0.9260 0.9280 0.9290 0.9310
5.117047 0.9310 0.9290 0.9290 0.9290 0.9290
5.151000 0.9310 0.9310 0.9290 0.9290 0.9310
5.185047 0.9310 0.9330 0.9330 0.9310 0.9310
5.219000 0.9290 0.9290 0.9260 0.9240 0.9280
5.253047 0.9290 0.9310 0.9310 0.9330 0.9310
5.287000 0.9290 0.9290 0.9290 0.9280 0.9260
5.321047 0.9260 0.9260 0.9280 0.9310 0.9360
5.355000 0.9380 0.9380 0.9400 0.9410 0.9430
5.389047 0.9500 0.9430 0.9430 0.9410 0.9410
5.423000 0.9400 0.9400 0.9400 0.9400 0.9410
5.457047 0.9430 0.9430 0.9400 0.9350 0.9350
5.491000 0.9330 0.9330 0.9330 0.9350 0.9350
5.525047 0.9330 0.9290 0.9280 0.9260 0.9240
5.560000 0.9230 0.9170 0.9120 0.9050 0.9020
5.594047 0.8990 0.8970 0.8990 0.9020 0.9050
5.628000 0.9110 0.9140 0.9120 0.9090 0.9090
5.662047 0.9110 0.9110 0.9110 0.9120 0.9120
5.696000 0.9090 0.9000 0.8970 0.8920 0.8900
5.730047 0.8900 0.8880 0.8870 0.8880 0.8880
5.764000 0.8900 0.8880 0.8870 0.8820 0.8750
5.798047 0.8750 0.8710 0.8750 0.8680 0.8590
5.832000 0.8510 0.8490 0.8470 0.8420 0.8420
5.866047 0.8420 0.8420 0.8410 0.8390 0.8340
5.900000 0.8270 0.8170 0.8060 0.7980 0.7880
5.934047 0.7770 0.7650 0.7550 0.7500 0.7360
5.968000 0.7240 0.7070 0.6900 0.6680 0.6420
6.002047 0.6170 0.5930 0.5650 0.5350 0.4610
6.036000 0.3530 0.2130 0.1600 0.0710 0.0230
6.070047 0.0230 0.0630 0.1550 0.2030 0.2460
6.104000 0.3240 0.3810 0.4170 0.4730 0.4940
6.138047 0.4940 0.4710 0.3980 0.3140 0.2010
6.172000 0.1620 0.0990 0.0520 0.0520 0.1700
6.206047 0.2270 0.2760 0.3410 0.3740 0.3960
6.240000 0.4200 0.4540 0.4660 0.4540 0.4250
6.274047 0.4060 0.3910 0.3860 0.3860 0.4100
6.308000 0.4800 0.5310 0.5640 0.5960 0.6100
6.342047 0.6290 0.6410 0.6560 0.6880 0.7240
6.376000 0.7410 0.7500 0.7530 0.7580 0.7580
6.410047 0.7570 0.7530 0.7520 0.7520 0.7600
6.444000 0.7670 0.7790 0.7890 0.7980 0.8000
6.478047 0.8000 0.8000 0.8000 0.8000 0.7980
6.512000 0.7960 0.7910 0.7880 0.7760 0.7600
6.546047 0.7310 0.7040 0.6660 0.6150 0.5330
6.580000 0.5090 0.5090 0.5110 0.5790 0.6080
6.614047 0.6250 0.6350 0.6370 0.6390 0.6410
6.649000 0.6420 0.6440 0.6510 0.6560 0.6660
6.683047 0.6750 0.6750 0.6610 0.6440 0.6170
6.717000 0.5910 0.5600 0.5330 0.4850 0.4230
6.751047 0.3260 0.2470 0.2270 0.2150 0.2010
6.785000 0.1940 0.1840 0.1760 0.1670 0.1620
6.819047 0.1500 0.1380 0.1230 0.1050 0.0970
6.853000 0.0880 0.0830 0.0780 0.0750 0.0750
6.887047 0.0750 0.0780 0.0950 0.1160 0.1530
6.921000 0.2100 0.2710 0.3500 0.4170 0.4610
6.955047 0.5070 0.5520 0.5930 0.6270 0.6320
6.989000 0.6350 0.6390 0.6370 0.6340 0.6270
7.023047 0.6000 0.5600 0.5240 0.4950 0.4750
7.057000 0.4640 0.4610 0.4610 0.4700 0.5040
7.091047 0.5480 0.5790 0.5980 0.6100 0.6170
7.125000 0.6180 0.6180 0.6180 0.6000 0.6110
7.159047 0.6410 0.6520 0.6540 0.6540 0.6520
7.193000 0.6180 0.5580 0.5090 0.4850 0.4410
7.227047 0.4060 0.3650 0.2490 0.2080 0.2080
7.261000 0.2410 0.2920 0.3810 0.4490 0.5020
7.295047 0.5400 0.5670 0.5820 0.6080 0.6340
7.329000 0.6470 0.6510 0.6540 0.6580 0.6540
7.363047 0.6370 0.6270 0.6220 0.6200 0.6200
7.397000 0.6270 0.6270 0.6230 0.6080 0.5820
7.431047 0.5790 0.5810 0.6030 0.6390 0.6820
7.465000 0.7140 0.7310 0.7360 0.7360 0.7290
7.499047 0.7230 0.7120 0.7000 0.6710 0.6170
7.533000 0.5810 0.5350 0.4640 0.3960 0.3470
7.567047 0.2610 0.1690 0.1520 0.1520 0.1600
7.601000 0.2290 0.2900 0.3470 0.3930 0.4390
7.635047 0.4780 0.5170 0.5230 0.5190 0.4750
7.669000 0.4390 0.3820 0.3110 0.2060 0.2010
7.703047 0.2370 0.2750 0.3380 0.3940 0.4470
7.737000 0.4880 0.5190 0.5350 0.5350 0.5280
7.771047 0.5050 0.4940 0.4750 0.4440 0.4060
7.806000 0.3380 0.2230 0.1790 0.1470 0.1190
7.840047 0.0970 0.0800 0.0640 0.0510 0.0470
7.874000 0.0490 0.0660 0.1040 0.1480 0.1840
7.908047 0.2220 0.2640 0.3190 0.3880 0.4410
7.942000 0.4920 0.5230 0.5400 0.5570 0.5820
7.976047 0.6030 0.6110 0.6300 0.6490 0.6640
8.010000 0.6760 0.6870 0.6950 0.7020 0.7090
8.044047 0.7140 0.7190 0.7230 0.7280 0.7280
8.078000 0.7280 0.7280 0.7240 0.7240 0.7230
8.112047 0.7210 0.7190 0.7040 0.6820 0.6410
8.146000 0.6010 0.5700 0.5310 0.4760 0.4200
8.180047 0.3520 0.2340 0.1740 0.1000 0.0870
8.214000 0.0870 0.1110 0.1740 0.2100 0.2580
8.248047 0.3170 0.3740 0.4370 0.4880 0.5520
8.282000 0.6000 0.6320 0.6560 0.6820 0.6990
8.316047 0.7070 0.7120 0.7160 0.7160 0.7110
8.350000 0.6970 0.6730 0.6300 0.6010 0.5720
8.384047 0.5450 0.5210 0.5120 0.5120 0.5230
8.418000 0.5380 0.5570 0.5910 0.6250 0.6540
8.452047 0.6760 0.6900 0.7000 0.7050 0.7000
8.486000 0.6660 0.6270 0.5880 0.5290 0.4700
8.520047 0.4110 0.3960 0.3960 0.4220 0.5120
8.554000 0.5820 0.6370 0.6760 0.7050 0.7260
8.588047 0.7380 0.7480 0.7550 0.7690 0.7790
8.622000 0.7890 0.8000 0.8080 0.8130 0.8180
8.656047 0.8200 0.8220 0.8200 0.8180 0.8150
8.690000 0.8100 0.8010 0.8010 0.8130 0.8270
8.724047 0.8410 0.8510 0.8630 0.8680 0.8680
8.758000 0.8700 0.8700 0.8700 0.8730 0.8730
8.792047 0.8750 0.8750 0.8700 0.8660 0.8540
8.826000 0.8460 0.8340 0.8180 0.8050 0.7910
8.860047 0.7600 0.7230 0.6730 0.6050 0.5520
8.895000 0.4900 0.4100 0.3110 0.2460 0.2460
8.929047 0.2730 0.3290 0.4010 0.4880 0.5760
8.963000 0.6370 0.6940 0.7090 0.7110 0.6820
8.997047 0.6270 0.5700 0.5160 0.5280 0.5640
9.031000 0.6750 0.7470 0.7740 0.7880 0.7960
9.065047 0.8000 0.8030 0.8080 0.8220 0.8320
9.099000 0.8410 0.8460 0.8490 0.8540 0.8560
9.133047 0.8580 0.8580 0.8590 0.8590 0.8630
9.167000 0.8640 0.8660 0.8680 0.8680 0.8680
9.201047 0.8680 0.8680 0.8660 0.8680 0.8680
9.235000 0.8680 0.8710 0.8760 0.8780 0.8750
9.269047 0.8710 0.8700 0.8700 0.8700 0.8700
9.303000 0.8680 0.8680 0.8640 0.8610 0.8590
9.337047 0.8580 0.8580 0.8580 0.8580 0.8560
9.371000 0.8510 0.8470 0.8460 0.8440 0.8410
9.405047 0.8250 0.8110 0.8000 0.7860 0.7720
9.439000 0.7550 0.7330 0.7040 0.6680 0.6300
9.473047 0.5980 0.5720 0.5310 0.4870 0.4370
9.507000 0.3860 0.3330 0.3230 0.3230 0.3650
9.541047 0.4510 0.5210 0.5860 0.6300 0.6540
9.575000 0.6710 0.6730 0.6730 0.6710 0.6440
9.609047 0.6130 0.5940 0.5650 0.5240 0.4750
9.643000 0.4130 0.3470 0.2710 0.1910 0.1530
9.677047 0.1260 0.1040 0.0900 0.0880 0.0920
9.711000 0.1140 0.1410 0.1650 0.1820 0.1930
9.745047 0.1930 0.1880 0.1810 0.1790 0.1810
9.779000 0.2000 0.2370 0.2900 0.3310 0.4130
9.813047 0.5000 0.5470 0.5790 0.6060 0.6270
9.847000 0.6510 0.6710 0.6880 0.7020 0.7110
9.881047 0.7140 0.7170 0.7210 0.7230 0.7230
9.915000 0.7190 0.7120 0.7040 0.6950 0.6820
9.949047 0.6710 0.6560 0.6490 0.6420 0.6410
9.983000 0.6390 0.6410 0.6460 0.6700 0.6870
10.017047 0.7020 0.7140 0.7290 0.7480 0.7620
10.052000 0.7700 0.7790 0.7880 0.8000 0.8060
10.086047 0.8200 0.8230 0.8270 0.8290 0.8320
10.120000 0.8390 0.8440 0.8470 0.8490 0.8510
10.154047 0.8510 0.8510 0.8510 0.8510 0.8510
10.188000 0.8510 0.8510 0.8510 0.8520 0.8520
10.222047 0.8540 0.8540 0.8560 0.8560 0.8540
10.256000 0.8520 0.8520 0.8520 0.8540 0.8560
10.290047 0.8580 0.8580 0.8590 0.8560 0.8560
10.324000 0.8540 0.8540 0.8520 0.8510 0.8490
10.358047 0.8470 0.8460 0.8440 0.8420 0.8410
10.392000 0.8390 0.8340 0.8170 0.8000 0.7860
10.426047 0.7580 0.7210 0.6820 0.6300 0.5910
10.460000 0.5520 0.5230 0.5210 0.5330 0.5720
10.494047 0.6110 0.6560 0.6900 0.7090 0.7360
10.528000 0.7550 0.7690 0.7740 0.7760 0.7740
10.562047 0.7580 0.7470 0.7310 0.7170 0.7110
10.596000 0.7090 0.7120 0.7450 0.7600 0.7770
10.630047 0.7960 0.8030 0.8150 0.8270 0.8300
10.664000 0.8300 0.8290 0.8220 0.8110 0.7980
10.698047 0.7880 0.7740 0.7450 0.7170 0.6780
10.732000 0.6320 0.6220 0.6080 0.6050 0.6080
10.766047 0.6270 0.6390 0.6660 0.6880 0.7110
10.800000 0.7280 0.7650 0.7860 0.8000 0.8050
10.834047 0.8180 0.8290 0.8300 0.8340 0.8390
10.868000 0.8490 0.8510 0.8560 0.8580 0.8590
10.902047 0.8580 0.8590 0.8610 0.8630 0.8640
10.936000 0.8660 0.8660 0.8640 0.8640 0.8700
10.970047 0.8750 0.8820 0.8870 0.8880 0.8900
11.004000 0.8900 0.8900 0.8900 0.8900 0.8920
11.038047 0.8940 0.8950 0.8950 0.8970 0.8970
11.072000 0.8940 0.8940 0.8920 0.8920 0.8920
11.106047 0.8900 0.8880 0.8880 0.8880 0.8880
11.140000 0.8880 0.8880 0.8880 0.8870 0.8830
11.174047 0.8820 0.8800 0.8820 0.8830 0.8830
11.209000 0.8870 0.8900 0.8900 0.8900 0.8940
11.243047 0.8950 0.8950 0.8970 0.8970 0.8990
11.277000 0.8990 0.8990 0.8990 0.8990 0.9000
11.311047 0.9000 0.9000 0.9020 0.9000 0.8990
11.345000 0.8990 0.8950 0.8940 0.8940 0.8950
11.379047 0.8990 0.8990 0.8920 0.8900 0.8900
11.413000 0.8850 0.8800 0.8700 0.8610 0.8490
11.447047 0.8350 0.8230 0.8050 0.8000 0.7770
11.481000 0.7740 0.7760 0.7770 0.7810 0.7960
11.515047 0.8010 0.8100 0.8150 0.8180 0.8230
11.549000 0.8270 0.8270 0.8250 0.8250 0.8230
11.583047 0.8220 0.8180 0.8180 0.8150 0.8000
11.617000 0.7940 0.7760 0.7600 0.7380 0.7140
11.651047 0.6850 0.6540 0.6180 0.5940 0.5700
11.685000 0.5430 0.5230 0.5040 0.4880 0.4750
11.719047 0.4630 0.4460 0.4270 0.4050 0.3820
11.753000 0.3550 0.3260 0.2940 0.2590 0.2410
11.787047 0.2270 0.2200 0.2180 0.2150 0.2150
11.821000 0.2200 0.2300 0.2460 0.2610 0.2780
11.855047 0.2950 0.3140 0.3290 0.3430 0.3520
11.889000 0.3580 0.3640 0.3740 0.3910 0.4010
11.923047 0.4150 0.4230 0.4350 0.4460 0.4540
11.957000 0.4700 0.4800 0.4880 0.5000 0.5140
11.991047 0.5170 0.5190 0.5190 0.5170 0.5070
12.025000 0.5000 0.4880 0.4710 0.4470 0.4180
12.059047 0.3980 0.3690 0.3330 0.2850 0.2300
12.093000 0.2030 0.1860 0.1700 0.1600 0.1570
12.127047 0.1570 0.1690 0.1880 0.2050 0.2290
12.161000 0.2560 0.2950 0.3230 0.3480 0.3620
12.195047 0.3770 0.3940 0.4010 0.4110 0.4150
12.229000 0.4170 0.4180 0.4220 0.4300 0.4460
12.263047 0.4630 0.4850 0.5050 0.5310 0.5470
12.298000 0.5620 0.5820 0.6030 0.6270 0.6460
12.332047 0.6590 0.6730 0.6850 0.6990 0.7110
12.366000 0.7230 0.7330 0.7500 0.7650 0.7760
12.400047 0.7860 0.7980 0.8010 0.8050 0.8110
12.434000 0.8170 0.8200 0.8250 0.8290 0.8300
12.468047 0.8320 0.8340 0.8390 0.8420 0.8490
12.502000 0.8490 0.8490 0.8490 0.8470 0.8470
12.536047 0.8460 0.8460 0.8510 0.8510 0.8510
12.570000 0.8490 0.8470 0.8460 0.8460 0.8460
12.604047 0.8440 0.8440 0.8460 0.8470 0.8510
12.638000 0.8520 0.8560 0.8590 0.8610 0.8630
12.672047 0.8640 0.8660 0.8660 0.8700 0.8730
12.706000 0.8750 0.8760 0.8760 0.8760 0.8750
12.740047 0.8730 0.8710 0.8700 0.8660 0.8640
12.774000 0.8610 0.8590 0.8590 0.8540 0.8460
12.808047 0.8340 0.8200 0.8050 0.7890 0.7670
12.842000 0.7380 0.7040 0.6630 0.6100 0.5860
12.876047 0.5470 0.5160 0.4830 0.4610 0.4510
12.910000 0.4460 0.4440 0.4440 0.4440 0.4420
12.944047 0.4320 0.4230 0.4180 0.4170 0.4180
12.978000 0.4350 0.4710 0.5140 0.5600 0.6080
13.012047 0.6520 0.6940 0.7280 0.7530 0.7690
13.046000 0.7790 0.7860 0.7980 0.8050 0.8180
13.080047 0.8230 0.8300 0.8320 0.8370 0.8420
13.114000 0.8490 0.8490 0.8510 0.8520 0.8520
13.148047 0.8540 0.8580 0.8590 0.8580 0.8590
13.182000 0.8610 0.8630 0.8640 0.8660 0.8700
13.216047 0.8730 0.8730 0.8710 0.8700 0.8710
13.250000 0.8710 0.8730 0.8780 0.8780 0.8800
13.284047 0.8780 0.8760 0.8760 0.8780 0.8800
13.318000 0.8820 0.8830 0.8820 0.8830 0.8830
13.352047 0.8850 0.8870 0.8880 0.8880 0.8830
13.386000 0.8800 0.8780 0.8780 0.8800 0.8830
13.420047 0.8830 0.8820 0.8800 0.8800 0.8760
13.455000 0.8710 0.8700 0.8700 0.8700 0.8680
13.489047 0.8660 0.8660 0.8640 0.8630 0.8590
13.523000 0.8580 0.8540 0.8490 0.8410 0.8340
13.557047 0.8250 0.8130 0.8000 0.7880 0.7810
13.591000 0.7740 0.7600 0.7470 0.7230 0.7090
13.625047 0.7000 0.6920 0.6920 0.6920 0.6920
13.659000 0.6940 0.7000 0.7090 0.7210 0.7330
13.693047 0.7430 0.7520 0.7620 0.7690 0.7770
13.727000 0.7880 0.7980 0.8010 0.8030 0.8080
13.761047 0.8100 0.8150 0.8220 0.8250 0.8300
13.795000 0.8320 0.8340 0.8340 0.8320 0.8320
13.829047 0.8320 0.8320 0.8320 0.8320 0.8320
13.863000 0.8300 0.8300 0.8300 0.8300 0.8320
13.897047 0.8290 0.8270 0.8250 0.8250 0.8250
13.931000 0.8230 0.8230 0.8230 0.8220 0.8200
13.965047 0.8170 0.8100 0.8000 0.7980 0.7890
13.999000 0.7770 0.7670 0.7550 0.7410 0.7330
14.033047 0.7240 0.7160 0.7120 0.7110 0.7110
14.067000 0.7120 0.7170 0.7230 0.7310 0.7450
14.101047 0.7580 0.7670 0.7770 0.7890 0.8050
14.135000 0.8200 0.8270 0.8340 0.8410 0.8490
14.169047 0.8540 0.8590 0.8680 0.8710 0.8750
14.203000 0.8780 0.8830 0.8850 0.8850 0.8850
14.237047 0.8900 0.8970 0.8990 0.9000 0.9020
14.271000 0.9020 0.9020 0.9020 0.9020 0.9040
14.305047 0.9040 0.9020 0.9020 0.9020 0.9000
14.339000 0.9000 0.9000 0.9050 0.9070 0.9070
14.373047 0.9070 0.9070 0.9070 0.9070 0.9070
14.407000 0.9050 0.9040 0.9020 0.9000 0.9000
14.441047 0.9000 0.9000 0.8990 0.8950 0.8950
14.475000 0.8950 0.8950 0.8950 0.8950 0.8950
14.509047 0.8950 0.8950 0.8950 0.8950 0.8950
14.544000 0.8950 0.8950 0.8970 0.8990 0.9000
14.578047 0.9000 0.9000 0.9000 0.9000 0.8990
14.612000 0.8990 0.8990 0.8990 0.8990 0.8990
14.646047 0.8990 0.8970 0.8950 0.8950 0.8940
14.680000 0.8920 0.8920 0.8900 0.8880 0.8870
14.714047 0.8870 0.8870 0.8870 0.8850 0.8830
14.748000 0.8820 0.8800 0.8800 0.8820 0.8820
14.782047 0.8820 0.8820 0.8820 0.8800 0.8760
14.816000 0.8750 0.8750 0.8750 0.8710 0.8710
14.850047 0.8700 0.8710 0.8710 0.8710 0.8700
14.884000 0.8700 0.8700 0.8700 0.8700 0.8680
14.918047 0.8640 0.8640 0.8630 0.8630 0.8630
14.952000 0.8630 0.8610 0.8580 0.8540 0.8470
14.986047 0.8390 0.8350 0.8290 0.8200 0.8100
15.020000 0.8080 0.8010 0.7940 0.7820 0.7720
15.054047 0.7670 0.7670 0.7690 0.7720 0.7790
15.088000 0.7820 0.7860 0.7910 0.7980 0.8030
15.122047 0.8170 0.8250 0.8320 0.8350 0.8390
15.156000 0.8410 0.8410 0.8410 0.8410 0.8370
15.190047 0.8340 0.8320 0.8290 0.8270 0.8290
15.224000 0.8290 0.8270 0.8250 0.8180 0.8150
15.258047 0.8100 0.8050 0.8030 0.8010 0.8000
15.292000 0.7960 0.8000 0.7980 0.7910 0.7880
15.326047 0.7820 0.7790 0.7770 0.7720 0.7700
15.360000 0.7690 0.7650 0.7640 0.7640 0.7640
15.394047 0.7640 0.7600 0.7530 0.7500 0.7480
15.428000 0.7430 0.7410 0.7330 0.7280 0.7230
15.462047 0.7120 0.7070 0.7000 0.6940 0.6850
15.496000 0.6750 0.6710 0.6680 0.6630 0.6560
15.530047 0.6490 0.6410 0.6340 0.6290 0.6230
15.564000 0.6180 0.6130 0.6110 0.6110 0.6100
15.598047 0.6060 0.6060 0.6050 0.6030 0.6030
15.632000 0.6060 0.6080 0.6100 0.6130 0.6180
15.666047 0.6250 0.6290 0.6300 0.6320 0.6370
15.701000 0.6420 0.6490 0.6490 0.6510 0.6520
15.735047 0.6520 0.6520 0.6520 0.6540 0.6540
15.769000 0.6540 0.6540 0.6540 0.6540 0.6520
15.803047 0.6510 0.6490 0.6490 0.6490 0.6490
15.837000 0.6490 0.6470 0.6470 0.6490 0.6470
15.871047 0.6460 0.6440 0.6390 0.6340 0.6300
15.905000 0.6270 0.6230 0.6220 0.6180 0.6130
15.939047 0.6100 0.6100 0.6050 0.6010 0.5980
15.973000 0.5960 0.5860
##END=
