##TITLE=HYDROUS CHROME OXIDE
##JCAMP-DX=4.24
##DATA TYPE=INFRARED SPECTRUM
##CLASS=COBLENTZ
##ORIGIN=DESOTO CHEMICAL COATINGS, INC.
##OWNER=COBLENTZ SOCIETY
Collection (C) 2018 copyright by the U.S. Secretary of Commerce
on behalf of the United States of America. All rights reserved.
##DATE=Not specified, most likely prior to 1970
##MOLFORM=Cr2 O3  * 2 H2 O
##SOURCE REFERENCE=COBLENTZ NO. 4700
##$NIST ID=B6004700
##$NIST SOURCE=COBLENTZ
##$NIST IMAGE=cob4700
##SPECTROMETER/DATA SYSTEM=Not specified, most likely a grating spectrometer.
##STATE=SOLID (0.5 mg / 300 mg CsI DISC)
##SAMPLING PROCEDURE=TRANSMISSION
##RESOLUTION=4
##DATA PROCESSING=DIGITIZED BY NIST FROM HARD COPY (FROM TWO SEGMENTS)
##XUNITS=1/CM
##YUNITS=TRANSMITTANCE
##XFACTOR=1.000000
##YFACTOR=1
##DELTAX=1.330380
##FIRSTX=198.67
##LASTX=3986.26
##FIRSTY=0.771
##MAXX=3986.26
##MINX=198.67
##MAXY=0.994
##MINY=0.156
##NPOINTS=2848
##XYDATA=(X++(Y..Y))
198.670000 0.7710 0.7720 0.7710 0.7720 0.7730
205.321900 0.7750 0.7750 0.7760 0.7760 0.7770
211.973799 0.7790 0.7790 0.7790 0.7800 0.7810
218.625699 0.7810 0.7850 0.7880 0.7890 0.7890
225.277599 0.7910 0.7910 0.7910 0.7910 0.7910
231.929499 0.7920 0.7920 0.7960 0.7970 0.7970
238.581398 0.7970 0.7970 0.7970 0.7990 0.7990
245.233298 0.7990 0.7990 0.7990 0.7990 0.7990
251.885198 0.7990 0.7990 0.7990 0.7990 0.7990
258.537097 0.7970 0.7970 0.7970 0.7970 0.7970
265.188997 0.7970 0.7970 0.7970 0.7990 0.7990
271.840897 0.7990 0.7990 0.7990 0.7990 0.7990
278.492796 0.7970 0.7960 0.7950 0.7950 0.7950
285.144696 0.7950 0.7950 0.7930 0.7920 0.7920
291.796596 0.7910 0.7910 0.7910 0.7890 0.7890
298.448496 0.7890 0.7870 0.7840 0.7810 0.7810
305.100395 0.7810 0.7800 0.7800 0.7800 0.7790
311.752295 0.7760 0.7750 0.7750 0.7730 0.7730
318.404195 0.7720 0.7720 0.7710 0.7690 0.7690
325.056094 0.7670 0.7670 0.7650 0.7650 0.7650
331.707994 0.7650 0.7650 0.7640 0.7640 0.7610
338.359894 0.7570 0.7550 0.7530 0.7530 0.7530
345.011794 0.7520 0.7520 0.7520 0.7520 0.7510
351.663693 0.7500 0.7500 0.7480 0.7440 0.7430
358.315593 0.7430 0.7430 0.7420 0.7420 0.7400
364.967493 0.7400 0.7400 0.7420 0.7430 0.7430
371.619392 0.7400 0.7390 0.7380 0.7380 0.7350
378.271292 0.7350 0.7350 0.7350 0.7340 0.7340
384.923192 0.7340 0.7320 0.7320 0.7320 0.7320
391.575092 0.7310 0.7310 0.7300 0.7280 0.7280
398.226991 0.7270 0.7260 0.7230 0.7190 0.7160
404.878891 0.7150 0.7120 0.7080 0.7040 0.7000
411.530791 0.6950 0.6920 0.6880 0.6820 0.6750
418.182690 0.6720 0.6700 0.6680 0.6670 0.6680
424.834590 0.6700 0.6720 0.6790 0.6820 0.6870
431.486490 0.6920 0.6990 0.7000 0.7040 0.7080
438.138389 0.7080 0.7100 0.7100 0.7100 0.7080
444.790289 0.7060 0.7000 0.6990 0.6950 0.6900
451.442189 0.6840 0.6700 0.6500 0.6360 0.6180
458.094089 0.6030 0.5910 0.5422 0.5141 0.4971
464.745988 0.4770 0.4520 0.4250 0.3940 0.3641
471.397888 0.3321 0.3011 0.2721 0.2441 0.1983
478.049788 0.1880 0.1790 0.1700 0.1640 0.1600
484.701687 0.1560 0.1560 0.1630 0.1660 0.1720
491.353587 0.1910 0.1980 0.2030 0.2300 0.2430
498.005487 0.2669 0.2989 0.3289 0.3568 0.3749
504.657387 0.3850 0.4010 0.4140 0.4250 0.4340
511.309286 0.4420 0.4500 0.4560 0.4580 0.4600
517.961186 0.4600 0.4610 0.4620 0.4620 0.4610
524.613086 0.4600 0.4560 0.4500 0.4460 0.4400
531.264985 0.4320 0.4290 0.4210 0.4100 0.4010
537.916885 0.3970 0.3850 0.3731 0.3571 0.3451
544.568785 0.3310 0.3200 0.3050 0.2950 0.2770
551.220685 0.2630 0.2510 0.2391 0.2310 0.2201
557.872584 0.2140 0.2080 0.2020 0.2000 0.2000
564.524484 0.2000 0.2020 0.2030 0.2060 0.2070
571.176384 0.2140 0.2160 0.2220 0.2310 0.2420
577.828283 0.2560 0.2759 0.2969 0.3239 0.3409
584.480183 0.3570 0.3720 0.3920 0.3980 0.4040
591.132083 0.4219 0.4379 0.4490 0.4649 0.4779
597.783982 0.4820 0.4890 0.5030 0.5170 0.5230
604.435882 0.5290 0.5350 0.5420 0.5470 0.5500
611.087782 0.5510 0.5590 0.5630 0.5650 0.5670
617.739682 0.5690 0.5690 0.5670 0.5630 0.5620
624.391581 0.5580 0.5490 0.5410 0.5290 0.5170
631.043481 0.5020 0.4940 0.4820 0.4740 0.4641
637.695381 0.4570 0.4520 0.4500 0.4520 0.4580
644.347280 0.4680 0.4839 0.5149 0.5409 0.5529
650.999180 0.5630 0.5820 0.5940 0.6050 0.6210
657.651080 0.6479 0.6699 0.6909 0.7218 0.7339
664.302980 0.7380 0.7420 0.7470 0.7500 0.7510
670.954879 0.7520 0.7560 0.7650 0.7710 0.7760
677.606779 0.7800 0.7840 0.7890 0.7930 0.7990
684.258679 0.8010 0.8050 0.8090 0.8130 0.8170
690.910578 0.8240 0.8310 0.8330 0.8430 0.8480
697.562478 0.8490 0.8520 0.8530 0.8550 0.8590
704.214378 0.8600 0.8610 0.8650 0.8680 0.8690
710.866278 0.8710 0.8730 0.8760 0.8770 0.8780
717.518177 0.8800 0.8820 0.8850 0.8860 0.8880
724.170077 0.8920 0.8920 0.8940 0.8960 0.8980
730.821977 0.9000 0.9010 0.9010 0.9010 0.9020
737.473876 0.9040 0.9040 0.9050 0.9050 0.9060
744.125776 0.9060 0.9080 0.9080 0.9080 0.9090
750.777676 0.9090 0.9090 0.9090 0.9090 0.9090
757.429575 0.9090 0.9090 0.9080 0.9080 0.9080
764.081475 0.9080 0.9080 0.9060 0.9060 0.9050
770.733375 0.9000 0.8980 0.8930 0.8900 0.8880
777.385275 0.8850 0.8810 0.8770 0.8720 0.8680
784.037174 0.8610 0.8560 0.8490 0.8410 0.8350
790.689074 0.8270 0.8190 0.8090 0.8000 0.7970
797.340974 0.7970 0.8000 0.8030 0.8080 0.8130
803.992873 0.8200 0.8240 0.8290 0.8330 0.8390
810.644773 0.8410 0.8450 0.8470 0.8490 0.8490
817.296673 0.8510 0.8510 0.8520 0.8530 0.8560
823.948573 0.8570 0.8590 0.8600 0.8600 0.8610
830.600472 0.8630 0.8670 0.8690 0.8720 0.8730
837.252372 0.8730 0.8750 0.8760 0.8770 0.8810
843.904272 0.8820 0.8840 0.8860 0.8890 0.8900
850.556171 0.8920 0.8970 0.8980 0.9000 0.9010
857.208071 0.9010 0.9020 0.9050 0.9050 0.9060
863.859971 0.9080 0.9090 0.9120 0.9120 0.9140
870.511870 0.9160 0.9160 0.9170 0.9180 0.9200
877.163770 0.9200 0.9200 0.9200 0.9210 0.9220
883.815670 0.9220 0.9220 0.9210 0.9210 0.9210
890.467570 0.9220 0.9240 0.9250 0.9260 0.9260
897.119469 0.9260 0.9260 0.9300 0.9300 0.9320
903.771369 0.9320 0.9320 0.9320 0.9300 0.9300
910.423269 0.9300 0.9320 0.9320 0.9320 0.9320
917.075168 0.9320 0.9330 0.9340 0.9360 0.9370
923.727068 0.9370 0.9370 0.9360 0.9340 0.9340
930.378968 0.9340 0.9360 0.9360 0.9370 0.9370
937.030868 0.9370 0.9400 0.9410 0.9420 0.9420
943.682767 0.9420 0.9440 0.9440 0.9440 0.9440
950.334667 0.9440 0.9440 0.9420 0.9420 0.9420
956.986567 0.9420 0.9410 0.9410 0.9410 0.9420
963.638466 0.9420 0.9440 0.9440 0.9440 0.9440
970.290366 0.9440 0.9440 0.9440 0.9440 0.9440
976.942266 0.9440 0.9420 0.9420 0.9410 0.9410
983.594166 0.9410 0.9400 0.9400 0.9400 0.9400
990.246065 0.9400 0.9380 0.9380 0.9370 0.9360
996.897965 0.9360 0.9330 0.9330 0.9320 0.9320
1003.549865 0.9300 0.9300 0.9300 0.9290 0.9290
1010.201764 0.9290 0.9290 0.9290 0.9280 0.9260
1016.853664 0.9260 0.9260 0.9250 0.9250 0.9240
1023.505564 0.9220 0.9220 0.9210 0.9180 0.9180
1030.157463 0.9160 0.9160 0.9160 0.9140 0.9140
1036.809363 0.9130 0.9120 0.9100 0.9080 0.9060
1043.461263 0.9000 0.8930 0.8900 0.8890 0.8840
1050.113163 0.8810 0.8690 0.8600 0.8530 0.8450
1056.765062 0.8350 0.8151 0.7961 0.7831 0.7681
1063.416962 0.7550 0.7520 0.7520 0.7570 0.7680
1070.068862 0.7810 0.8009 0.8189 0.8280 0.8409
1076.720761 0.8560 0.8650 0.8730 0.8850 0.8920
1083.372661 0.8930 0.8940 0.9000 0.9010 0.9020
1090.024561 0.9080 0.9100 0.9120 0.9130 0.9140
1096.676461 0.9200 0.9200 0.9210 0.9220 0.9240
1103.328360 0.9250 0.9280 0.9300 0.9300 0.9300
1109.980260 0.9300 0.9300 0.9320 0.9330 0.9340
1116.632160 0.9340 0.9340 0.9370 0.9380 0.9380
1123.284059 0.9380 0.9370 0.9370 0.9360 0.9340
1129.935959 0.9360 0.9360 0.9370 0.9370 0.9380
1136.587859 0.9400 0.9410 0.9410 0.9400 0.9400
1143.239759 0.9400 0.9400 0.9400 0.9400 0.9410
1149.891658 0.9410 0.9420 0.9420 0.9420 0.9420
1156.543558 0.9420 0.9410 0.9400 0.9400 0.9400
1163.195458 0.9400 0.9380 0.9370 0.9370 0.9360
1169.847357 0.9360 0.9340 0.9340 0.9340 0.9330
1176.499257 0.9320 0.9300 0.9290 0.9280 0.9250
1183.151157 0.9240 0.9210 0.9180 0.9170 0.9160
1189.803056 0.9140 0.9140 0.9130 0.9120 0.9100
1196.454956 0.9090 0.9080 0.9080 0.9060 0.9050
1203.106856 0.9050 0.9040 0.9040 0.9050 0.9050
1209.758756 0.9050 0.9060 0.9060 0.9060 0.9080
1216.410655 0.9080 0.9090 0.9100 0.9130 0.9140
1223.062555 0.9160 0.9170 0.9180 0.9200 0.9200
1229.714455 0.9220 0.9240 0.9250 0.9260 0.9260
1236.366354 0.9260 0.9260 0.9280 0.9280 0.9280
1243.018254 0.9300 0.9300 0.9290 0.9290 0.9290
1249.670154 0.9300 0.9320 0.9320 0.9280 0.9260
1256.322054 0.9260 0.9260 0.9280 0.9290 0.9290
1262.973953 0.9290 0.9280 0.9280 0.9260 0.9260
1269.625853 0.9260 0.9250 0.9250 0.9240 0.9240
1276.277753 0.9220 0.9220 0.9210 0.9210 0.9200
1282.929652 0.9200 0.9140 0.9120 0.9100 0.9100
1289.581552 0.9090 0.9060 0.9060 0.9040 0.9040
1296.233452 0.9020 0.9020 0.9020 0.9010 0.9010
1302.885352 0.8980 0.8980 0.8970 0.8970 0.8970
1309.537251 0.8970 0.8970 0.8970 0.8980 0.8980
1316.189151 0.9000 0.9000 0.9000 0.8970 0.8970
1322.841051 0.8980 0.9000 0.9000 0.9000 0.9000
1329.492950 0.9000 0.9010 0.9010 0.9010 0.9000
1336.144850 0.9000 0.9000 0.9000 0.8980 0.8980
1342.796750 0.8980 0.8970 0.8970 0.8970 0.8970
1349.448649 0.8970 0.8980 0.8980 0.8980 0.8980
1356.100549 0.8980 0.8970 0.8970 0.8970 0.8970
1362.752449 0.8970 0.8940 0.8940 0.8940 0.8930
1369.404349 0.8930 0.8920 0.8920 0.8920 0.8920
1376.056248 0.8920 0.8920 0.8920 0.8920 0.8900
1382.708148 0.8900 0.8890 0.8890 0.8890 0.8890
1389.360048 0.8890 0.8880 0.8880 0.8880 0.8850
1396.011947 0.8850 0.8850 0.8850 0.8850 0.8850
1402.663847 0.8840 0.8820 0.8810 0.8810 0.8810
1409.315747 0.8810 0.8820 0.8820 0.8820 0.8820
1415.967647 0.8820 0.8840 0.8840 0.8850 0.8850
1422.619546 0.8850 0.8850 0.8850 0.8850 0.8840
1429.271446 0.8820 0.8820 0.8810 0.8800 0.8780
1435.923346 0.8780 0.8770 0.8770 0.8760 0.8760
1442.575245 0.8750 0.8750 0.8750 0.8720 0.8730
1449.227145 0.8720 0.8710 0.8710 0.8690 0.8690
1455.879045 0.8690 0.8680 0.8680 0.8650 0.8650
1462.530944 0.8600 0.8590 0.8560 0.8550 0.8550
1469.182844 0.8530 0.8530 0.8530 0.8550 0.8560
1475.834744 0.8570 0.8590 0.8600 0.8610 0.8650
1482.486644 0.8690 0.8730 0.8800 0.8820 0.8900
1489.138543 0.8930 0.8980 0.9010 0.9040 0.9130
1495.790443 0.9180 0.9200 0.9240 0.9300 0.9330
1502.442343 0.9370 0.9410 0.9460 0.9520 0.9530
1509.094242 0.9560 0.9570 0.9600 0.9610 0.9650
1515.746142 0.9660 0.9660 0.9660 0.9660 0.9680
1522.398042 0.9690 0.9700 0.9700 0.9700 0.9690
1529.049942 0.9680 0.9660 0.9650 0.9650 0.9650
1535.701841 0.9660 0.9660 0.9660 0.9660 0.9660
1542.353741 0.9660 0.9650 0.9640 0.9620 0.9620
1549.005641 0.9640 0.9640 0.9640 0.9640 0.9620
1555.657540 0.9620 0.9610 0.9610 0.9610 0.9610
1562.309440 0.9610 0.9600 0.9610 0.9620 0.9620
1568.961340 0.9620 0.9610 0.9610 0.9610 0.9600
1575.613240 0.9600 0.9600 0.9600 0.9600 0.9580
1582.265139 0.9580 0.9560 0.9540 0.9530 0.9520
1588.917039 0.9500 0.9490 0.9490 0.9480 0.9450
1595.568939 0.9410 0.9380 0.9340 0.9330 0.9320
1602.220838 0.9300 0.9280 0.9240 0.9220 0.9200
1608.872738 0.9170 0.9140 0.9140 0.9120 0.9100
1615.524638 0.9090 0.9080 0.9080 0.9080 0.9080
1622.176537 0.9080 0.9090 0.9090 0.9100 0.9100
1628.828437 0.9120 0.9130 0.9180 0.9180 0.9220
1635.480337 0.9260 0.9260 0.9290 0.9320 0.9330
1642.132237 0.9370 0.9400 0.9410 0.9420 0.9450
1648.784136 0.9480 0.9490 0.9500 0.9530 0.9540
1655.436036 0.9560 0.9560 0.9570 0.9600 0.9600
1662.087936 0.9600 0.9610 0.9620 0.9620 0.9640
1668.739835 0.9650 0.9650 0.9660 0.9680 0.9690
1675.391735 0.9690 0.9700 0.9700 0.9720 0.9730
1682.043635 0.9730 0.9730 0.9730 0.9740 0.9740
1688.695535 0.9740 0.9740 0.9740 0.9740 0.9760
1695.347434 0.9770 0.9780 0.9800 0.9800 0.9780
1701.999334 0.9800 0.9810 0.9810 0.9810 0.9810
1708.651234 0.9800 0.9800 0.9800 0.9810 0.9820
1715.303133 0.9820 0.9840 0.9840 0.9820 0.9820
1721.955033 0.9820 0.9840 0.9850 0.9850 0.9850
1728.606933 0.9850 0.9850 0.9850 0.9850 0.9850
1735.258833 0.9850 0.9860 0.9860 0.9890 0.9890
1741.910732 0.9900 0.9900 0.9920 0.9920 0.9920
1748.562632 0.9920 0.9930 0.9930 0.9930 0.9940
1755.214532 0.9930 0.9930 0.9920 0.9920 0.9920
1761.866431 0.9920 0.9920 0.9920 0.9900 0.9920
1768.518331 0.9930 0.9930 0.9930 0.9940 0.9930
1775.170231 0.9930 0.9930 0.9930 0.9930 0.9930
1781.822130 0.9930 0.9930 0.9930 0.9930 0.9930
1788.474030 0.9930 0.9930 0.9930 0.9930 0.9940
1795.125930 0.9940 0.9940 0.9930 0.9930 0.9930
1801.777830 0.9930 0.9930 0.9930 0.9930 0.9930
1808.429729 0.9930 0.9930 0.9930 0.9930 0.9930
1815.081629 0.9930 0.9940 0.9940 0.9940 0.9930
1821.733529 0.9930 0.9920 0.9900 0.9900 0.9900
1828.385428 0.9900 0.9900 0.9920 0.9930 0.9940
1835.037328 0.9940 0.9930 0.9930 0.9930 0.9930
1841.689228 0.9930 0.9930 0.9930 0.9930 0.9920
1848.341128 0.9900 0.9900 0.9900 0.9920 0.9920
1854.993027 0.9920 0.9920 0.9920 0.9920 0.9920
1861.644927 0.9920 0.9920 0.9900 0.9900 0.9900
1868.296827 0.9900 0.9890 0.9890 0.9890 0.9880
1874.948726 0.9880 0.9880 0.9880 0.9860 0.9860
1881.600626 0.9860 0.9860 0.9860 0.9860 0.9860
1888.252526 0.9850 0.9850 0.9840 0.9840 0.9840
1894.904426 0.9840 0.9820 0.9820 0.9820 0.9820
1901.556325 0.9810 0.9810 0.9810 0.9810 0.9800
1908.208225 0.9800 0.9800 0.9780 0.9780 0.9770
1914.860125 0.9760 0.9760 0.9740 0.9740 0.9740
1921.512024 0.9740 0.9740 0.9760 0.9770 0.9770
1928.163924 0.9780 0.9780 0.9780 0.9770 0.9760
1934.815824 0.9770 0.9770 0.9780 0.9780 0.9770
1941.467723 0.9760 0.9760 0.9740 0.9740 0.9760
1948.119623 0.9760 0.9770 0.9770 0.9770 0.9770
1954.771523 0.9770 0.9770 0.9770 0.9760 0.9740
1961.423423 0.9730 0.9730 0.9720 0.9700 0.9700
1968.075322 0.9700 0.9700 0.9700 0.9700 0.9700
1974.727222 0.9680 0.9680 0.9660 0.9660 0.9650
1981.379122 0.9650 0.9640 0.9640 0.9610 0.9610
1988.031021 0.9610 0.9600 0.9600 0.9600 0.9580
1994.682921 0.9580 0.9580 0.9580 0.9580 0.9580
2001.334821 0.9580 0.9580 0.9580 0.9580 0.9590
2007.986721 0.9600 0.9600 0.9600 0.9600 0.9600
2014.638620 0.9600 0.9600 0.9605 0.9610 0.9610
2021.290520 0.9610 0.9610 0.9610 0.9610 0.9610
2027.942420 0.9615 0.9620 0.9615 0.9610 0.9615
2034.594319 0.9620 0.9620 0.9620 0.9630 0.9640
2041.246219 0.9640 0.9640 0.9640 0.9640 0.9640
2047.898119 0.9640 0.9640 0.9640 0.9640 0.9640
2054.550019 0.9640 0.9640 0.9640 0.9639 0.9629
2061.201918 0.9620 0.9620 0.9620 0.9620 0.9620
2067.853818 0.9615 0.9610 0.9610 0.9610 0.9605
2074.505718 0.9599 0.9589 0.9580 0.9580 0.9580
2081.157617 0.9580 0.9580 0.9580 0.9579 0.9574
2087.809517 0.9570 0.9570 0.9570 0.9570 0.9570
2094.461417 0.9570 0.9571 0.9576 0.9580 0.9580
2101.113316 0.9581 0.9591 0.9600 0.9600 0.9601
2107.765216 0.9606 0.9611 0.9616 0.9620 0.9620
2114.417116 0.9621 0.9631 0.9640 0.9640 0.9641
2121.069016 0.9651 0.9660 0.9660 0.9662 0.9672
2127.720915 0.9680 0.9680 0.9681 0.9686 0.9690
2134.372815 0.9690 0.9691 0.9696 0.9700 0.9700
2141.024715 0.9700 0.9700 0.9700 0.9700 0.9700
2147.676614 0.9700 0.9700 0.9700 0.9700 0.9700
2154.328514 0.9702 0.9712 0.9720 0.9720 0.9720
2160.980414 0.9720 0.9721 0.9726 0.9730 0.9730
2167.632314 0.9730 0.9730 0.9731 0.9736 0.9740
2174.284213 0.9740 0.9740 0.9740 0.9740 0.9740
2180.936113 0.9742 0.9752 0.9760 0.9760 0.9760
2187.588013 0.9760 0.9760 0.9760 0.9761 0.9766
2194.239912 0.9770 0.9770 0.9771 0.9776 0.9780
2200.891812 0.9780 0.9780 0.9780 0.9783 0.9793
2207.543712 0.9800 0.9800 0.9801 0.9806 0.9810
2214.195611 0.9810 0.9810 0.9810 0.9810 0.9810
2220.847511 0.9810 0.9810 0.9811 0.9816 0.9820
2227.499411 0.9820 0.9820 0.9820 0.9820 0.9820
2234.151311 0.9823 0.9833 0.9837 0.9827 0.9820
2240.803210 0.9820 0.9820 0.9820 0.9818 0.9813
2247.455110 0.9810 0.9810 0.9815 0.9830 0.9842
2254.107010 0.9847 0.9850 0.9850 0.9850 0.9850
2260.758909 0.9850 0.9850 0.9848 0.9843 0.9840
2267.410809 0.9840 0.9840 0.9840 0.9840 0.9840
2274.062709 0.9840 0.9840 0.9840 0.9840 0.9842
2280.714609 0.9847 0.9848 0.9843 0.9836 0.9826
2287.366508 0.9820 0.9820 0.9820 0.9820 0.9824
2294.018408 0.9834 0.9840 0.9840 0.9836 0.9826
2300.670308 0.9820 0.9820 0.9820 0.9820 0.9820
2307.322207 0.9820 0.9824 0.9834 0.9840 0.9840
2313.974107 0.9842 0.9847 0.9850 0.9850 0.9844
2320.626007 0.9829 0.9818 0.9813 0.9810 0.9810
2327.277907 0.9816 0.9831 0.9840 0.9840 0.9836
2333.929806 0.9826 0.9820 0.9820 0.9820 0.9820
2340.581706 0.9820 0.9820 0.9820 0.9820 0.9820
2347.233606 0.9820 0.9818 0.9813 0.9810 0.9810
2353.885505 0.9810 0.9810 0.9810 0.9810 0.9810
2360.537405 0.9810 0.9810 0.9810 0.9810 0.9810
2367.189305 0.9808 0.9803 0.9800 0.9800 0.9795
2373.841204 0.9785 0.9778 0.9772 0.9770 0.9770
2380.493104 0.9770 0.9770 0.9770 0.9770 0.9773
2387.145004 0.9778 0.9780 0.9780 0.9780 0.9780
2393.796904 0.9780 0.9780 0.9785 0.9795 0.9803
2400.448803 0.9808 0.9810 0.9810 0.9810 0.9810
2407.100703 0.9810 0.9810 0.9810 0.9810 0.9810
2413.752603 0.9810 0.9810 0.9810 0.9807 0.9802
2420.404502 0.9795 0.9785 0.9780 0.9780 0.9786
2427.056402 0.9796 0.9800 0.9800 0.9794 0.9784
2433.708302 0.9780 0.9780 0.9780 0.9780 0.9780
2440.360202 0.9780 0.9780 0.9780 0.9780 0.9780
2447.012101 0.9786 0.9796 0.9800 0.9800 0.9800
2453.664001 0.9800 0.9800 0.9800 0.9800 0.9800
2460.315901 0.9800 0.9800 0.9794 0.9784 0.9777
2466.967800 0.9772 0.9770 0.9770 0.9767 0.9762
2473.619700 0.9760 0.9760 0.9760 0.9760 0.9754
2480.271600 0.9744 0.9740 0.9740 0.9740 0.9740
2486.923500 0.9740 0.9740 0.9740 0.9740 0.9740
2493.575399 0.9740 0.9740 0.9740 0.9737 0.9732
2500.227299 0.9730 0.9730 0.9730 0.9730 0.9730
2506.879199 0.9730 0.9730 0.9730 0.9727 0.9722
2513.531098 0.9720 0.9720 0.9720 0.9720 0.9713
2520.182998 0.9703 0.9700 0.9700 0.9700 0.9700
2526.834898 0.9697 0.9692 0.9690 0.9690 0.9690
2533.486797 0.9690 0.9690 0.9690 0.9690 0.9690
2540.138697 0.9690 0.9690 0.9690 0.9690 0.9686
2546.790597 0.9681 0.9673 0.9663 0.9656 0.9651
2553.442497 0.9650 0.9650 0.9646 0.9641 0.9640
2560.094396 0.9640 0.9640 0.9640 0.9633 0.9623
2566.746296 0.9620 0.9620 0.9616 0.9611 0.9610
2573.398196 0.9610 0.9610 0.9610 0.9610 0.9610
2580.050095 0.9610 0.9610 0.9610 0.9610 0.9610
2586.701995 0.9610 0.9610 0.9610 0.9606 0.9601
2593.353895 0.9600 0.9600 0.9600 0.9600 0.9592
2600.005795 0.9582 0.9580 0.9580 0.9580 0.9580
2606.657694 0.9580 0.9580 0.9576 0.9571 0.9570
2613.309594 0.9570 0.9566 0.9561 0.9560 0.9560
2619.961494 0.9560 0.9560 0.9548 0.9533 0.9518
2626.613393 0.9503 0.9496 0.9491 0.9490 0.9490
2633.265293 0.9490 0.9490 0.9486 0.9481 0.9480
2639.917193 0.9480 0.9471 0.9461 0.9460 0.9460
2646.569093 0.9456 0.9451 0.9446 0.9441 0.9440
2653.220992 0.9440 0.9431 0.9421 0.9416 0.9411
2659.872892 0.9410 0.9410 0.9406 0.9401 0.9391
2666.524792 0.9381 0.9380 0.9380 0.9380 0.9380
2673.176691 0.9362 0.9342 0.9340 0.9340 0.9336
2679.828591 0.9331 0.9326 0.9321 0.9311 0.9301
2686.480491 0.9296 0.9291 0.9290 0.9290 0.9290
2693.132390 0.9290 0.9285 0.9280 0.9280 0.9280
2699.784290 0.9271 0.9261 0.9260 0.9260 0.9251
2706.436190 0.9241 0.9226 0.9211 0.9196 0.9181
2713.088090 0.9161 0.9141 0.9140 0.9140 0.9130
2719.739989 0.9120 0.9110 0.9100 0.9095 0.9090
2726.391889 0.9071 0.9051 0.9050 0.9050 0.9036
2733.043789 0.9021 0.9015 0.9010 0.8995 0.8980
2739.695688 0.8970 0.8960 0.8950 0.8940 0.8930
2746.347588 0.8920 0.8905 0.8890 0.8885 0.8880
2752.999488 0.8880 0.8880 0.8860 0.8840 0.8830
2759.651388 0.8820 0.8800 0.8780 0.8770 0.8760
2766.303287 0.8740 0.8720 0.8705 0.8689 0.8664
2772.955187 0.8640 0.8635 0.8630 0.8614 0.8599
2779.607087 0.8584 0.8569 0.8544 0.8520 0.8515
2786.258986 0.8509 0.8479 0.8450 0.8445 0.8439
2792.910886 0.8424 0.8410 0.8405 0.8400 0.8395
2799.562786 0.8389 0.8374 0.8359 0.8344 0.8329
2806.214685 0.8319 0.8309 0.8299 0.8290 0.8285
2812.866585 0.8280 0.8275 0.8269 0.8259 0.8250
2819.518485 0.8245 0.8238 0.8218 0.8199 0.8194
2826.170385 0.8190 0.8190 0.8188 0.8168 0.8149
2832.822284 0.8139 0.8129 0.8124 0.8119 0.8114
2839.474184 0.8109 0.8099 0.8090 0.8090 0.8089
2846.126084 0.8084 0.8079 0.8074 0.8069 0.8059
2852.777983 0.8049 0.8044 0.8040 0.8040 0.8039
2859.429883 0.8034 0.8030 0.8030 0.8030 0.8030
2866.081783 0.8031 0.8036 0.8041 0.8046 0.8051
2872.733683 0.8061 0.8070 0.8070 0.8071 0.8076
2879.385582 0.8081 0.8086 0.8090 0.8090 0.8090
2886.037482 0.8090 0.8090 0.8090 0.8092 0.8102
2892.689382 0.8110 0.8110 0.8110 0.8110 0.8110
2899.341281 0.8110 0.8110 0.8110 0.8110 0.8110
2905.993181 0.8110 0.8110 0.8110 0.8110 0.8108
2912.645081 0.8098 0.8090 0.8090 0.8088 0.8078
2919.296981 0.8067 0.8052 0.8037 0.8022 0.8009
2925.948880 0.8004 0.8000 0.8000 0.8000 0.8000
2932.600780 0.8000 0.8000 0.8000 0.8000 0.8000
2939.252680 0.8000 0.8001 0.8006 0.8010 0.8010
2945.904579 0.8010 0.8010 0.8010 0.8010 0.8010
2952.556479 0.8010 0.8010 0.8010 0.8010 0.8010
2959.208379 0.8010 0.8010 0.8010 0.8010 0.8010
2965.860278 0.8010 0.8010 0.8010 0.8010 0.8010
2972.512178 0.8009 0.8004 0.8000 0.8000 0.7999
2979.164078 0.7994 0.7990 0.7990 0.7990 0.7990
2985.815978 0.7987 0.7977 0.7968 0.7963 0.7960
2992.467877 0.7960 0.7958 0.7953 0.7947 0.7937
2999.119777 0.7928 0.7923 0.7915 0.7900 0.7888
3005.771677 0.7883 0.7878 0.7873 0.7863 0.7843
3012.423576 0.7826 0.7816 0.7806 0.7796 0.7786
3019.075476 0.7776 0.7761 0.7736 0.7715 0.7700
3025.727376 0.7688 0.7683 0.7671 0.7646 0.7623
3032.379276 0.7603 0.7586 0.7576 0.7568 0.7563
3039.031175 0.7558 0.7553 0.7542 0.7522 0.7504
3045.683075 0.7489 0.7476 0.7466 0.7454 0.7439
3052.334975 0.7428 0.7423 0.7414 0.7399 0.7388
3058.986874 0.7383 0.7376 0.7366 0.7356 0.7346
3065.638774 0.7336 0.7326 0.7318 0.7313 0.7304
3072.290674 0.7289 0.7269 0.7244 0.7228 0.7223
3078.942574 0.7216 0.7206 0.7191 0.7171 0.7156
3085.594473 0.7146 0.7131 0.7111 0.7100 0.7100
3092.246373 0.7093 0.7078 0.7068 0.7063 0.7053
3098.898273 0.7038 0.7028 0.7023 0.7015 0.7005
3105.550172 0.6998 0.6993 0.6990 0.6990 0.6988
3112.202072 0.6983 0.6975 0.6965 0.6960 0.6960
3118.853972 0.6958 0.6953 0.6948 0.6943 0.6935
3125.505871 0.6925 0.6918 0.6913 0.6910 0.6910
3132.157771 0.6908 0.6903 0.6900 0.6900 0.6895
3138.809671 0.6885 0.6880 0.6880 0.6877 0.6872
3145.461571 0.6870 0.6870 0.6870 0.6870 0.6870
3152.113470 0.6870 0.6870 0.6870 0.6870 0.6870
3158.765370 0.6870 0.6870 0.6870 0.6870 0.6873
3165.417270 0.6878 0.6880 0.6880 0.6880 0.6880
3172.069169 0.6886 0.6896 0.6900 0.6900 0.6903
3178.721069 0.6908 0.6910 0.6910 0.6913 0.6918
3185.372969 0.6920 0.6920 0.6920 0.6920 0.6926
3192.024869 0.6936 0.6943 0.6948 0.6950 0.6950
3198.676768 0.6953 0.6958 0.6966 0.6976 0.6980
3205.328668 0.6980 0.6983 0.6988 0.6990 0.6990
3211.980568 0.6993 0.6998 0.7000 0.7000 0.7006
3218.632467 0.7016 0.7023 0.7028 0.7033 0.7038
3225.284367 0.7046 0.7056 0.7063 0.7068 0.7073
3231.936267 0.7078 0.7080 0.7080 0.7086 0.7096
3238.588167 0.7106 0.7116 0.7126 0.7136 0.7146
3245.240066 0.7156 0.7167 0.7177 0.7183 0.7188
3251.891966 0.7190 0.7190 0.7193 0.7198 0.7210
3258.543866 0.7225 0.7233 0.7238 0.7247 0.7257
3265.195765 0.7267 0.7277 0.7287 0.7297 0.7300
3271.847665 0.7300 0.7303 0.7309 0.7314 0.7319
3278.499565 0.7327 0.7337 0.7340 0.7340 0.7344
3285.151464 0.7349 0.7350 0.7350 0.7350 0.7350
3291.803364 0.7350 0.7350 0.7346 0.7341 0.7340
3298.455264 0.7340 0.7333 0.7323 0.7320 0.7320
3305.107164 0.7320 0.7320 0.7316 0.7311 0.7306
3311.759063 0.7301 0.7293 0.7283 0.7276 0.7271
3318.410963 0.7266 0.7261 0.7249 0.7234 0.7219
3325.062863 0.7204 0.7196 0.7191 0.7186 0.7181
3331.714762 0.7172 0.7162 0.7144 0.7124 0.7116
3338.366662 0.7111 0.7106 0.7101 0.7084 0.7064
3345.018562 0.7037 0.7007 0.6996 0.6991 0.6986
3351.670462 0.6981 0.6972 0.6962 0.6944 0.6924
3358.322361 0.6912 0.6902 0.6888 0.6873 0.6870
3364.974261 0.6870 0.6858 0.6843 0.6820 0.6795
3371.626161 0.6778 0.6763 0.6752 0.6742 0.6728
3378.278060 0.6713 0.6698 0.6682 0.6655 0.6625
3384.929960 0.6607 0.6592 0.6577 0.6562 0.6552
3391.581860 0.6541 0.6523 0.6503 0.6483 0.6463
3398.233759 0.6447 0.6432 0.6413 0.6393 0.6377
3404.885659 0.6362 0.6343 0.6322 0.6302 0.6282
3411.537559 0.6276 0.6271 0.6266 0.6261 0.6260
3418.189459 0.6260 0.6256 0.6251 0.6237 0.6222
3424.841358 0.6216 0.6211 0.6201 0.6191 0.6186
3431.493258 0.6181 0.6180 0.6180 0.6175 0.6170
3438.145158 0.6170 0.6170 0.6170 0.6170 0.6175
3444.797057 0.6180 0.6180 0.6180 0.6180 0.6180
3451.448957 0.6185 0.6190 0.6199 0.6209 0.6210
3458.100857 0.6210 0.6219 0.6230 0.6244 0.6259
3464.752757 0.6270 0.6280 0.6280 0.6280 0.6294
3471.404656 0.6309 0.6310 0.6310 0.6315 0.6320
3478.056556 0.6330 0.6340 0.6350 0.6360 0.6374
3484.708456 0.6389 0.6395 0.6400 0.6415 0.6430
3491.360355 0.6455 0.6480 0.6490 0.6500 0.6510
3498.012255 0.6520 0.6540 0.6560 0.6610 0.6660
3504.664155 0.6670 0.6680 0.6690 0.6700 0.6725
3511.316055 0.6750 0.6765 0.6780 0.6790 0.6801
3517.967954 0.6821 0.6841 0.6861 0.6881 0.6921
3524.619854 0.6960 0.6975 0.6991 0.7026 0.7061
3531.271754 0.7086 0.7111 0.7136 0.7161 0.7181
3537.923653 0.7201 0.7221 0.7244 0.7304 0.7361
3544.575553 0.7376 0.7392 0.7417 0.7442 0.7477
3551.227453 0.7512 0.7542 0.7571 0.7591 0.7612
3557.879352 0.7642 0.7673 0.7718 0.7763 0.7803
3564.531252 0.7841 0.7862 0.7884 0.7924 0.7962
3571.183152 0.7982 0.8004 0.8044 0.8082 0.8107
3577.835052 0.8133 0.8168 0.8206 0.8266 0.8323
3584.486951 0.8348 0.8374 0.8409 0.8443 0.8468
3591.138851 0.8493 0.8524 0.8555 0.8595 0.8634
3597.790751 0.8664 0.8695 0.8730 0.8764 0.8794
3604.442650 0.8828 0.8888 0.8943 0.8963 0.8981
3611.094550 0.8991 0.9001 0.9006 0.9011 0.9016
3617.746450 0.9024 0.9055 0.9087 0.9127 0.9164
3624.398350 0.9189 0.9214 0.9239 0.9263 0.9278
3631.050249 0.9293 0.9313 0.9333 0.9353 0.9371
3637.702149 0.9376 0.9383 0.9398 0.9414 0.9439
3644.354049 0.9463 0.9478 0.9491 0.9496 0.9504
3651.005948 0.9524 0.9544 0.9564 0.9582 0.9592
3657.657848 0.9601 0.9606 0.9613 0.9628 0.9644
3664.309748 0.9664 0.9681 0.9686 0.9691 0.9696
3670.961648 0.9702 0.9712 0.9721 0.9726 0.9731
3677.613547 0.9736 0.9742 0.9752 0.9760 0.9760
3684.265447 0.9761 0.9766 0.9770 0.9770 0.9770
3690.917347 0.9770 0.9771 0.9776 0.9780 0.9780
3697.569246 0.9780 0.9780 0.9783 0.9793 0.9800
3704.221146 0.9800 0.9800 0.9800 0.9800 0.9800
3710.873046 0.9800 0.9800 0.9800 0.9800 0.9800
3717.524945 0.9800 0.9800 0.9800 0.9801 0.9806
3724.176845 0.9810 0.9810 0.9810 0.9810 0.9810
3730.828745 0.9810 0.9810 0.9810 0.9812 0.9817
3737.480645 0.9820 0.9820 0.9820 0.9820 0.9818
3744.132544 0.9813 0.9810 0.9810 0.9808 0.9803
3750.784444 0.9800 0.9800 0.9802 0.9807 0.9810
3757.436344 0.9810 0.9808 0.9803 0.9800 0.9800
3764.088243 0.9802 0.9807 0.9810 0.9810 0.9810
3770.740143 0.9810 0.9810 0.9810 0.9808 0.9803
3777.392043 0.9800 0.9800 0.9802 0.9807 0.9810
3784.043943 0.9810 0.9810 0.9810 0.9810 0.9810
3790.695842 0.9812 0.9817 0.9820 0.9820 0.9818
3797.347742 0.9813 0.9810 0.9810 0.9810 0.9810
3803.999642 0.9810 0.9810 0.9810 0.9810 0.9810
3810.651541 0.9810 0.9810 0.9810 0.9810 0.9810
3817.303441 0.9810 0.9810 0.9812 0.9817 0.9820
3823.955341 0.9820 0.9820 0.9820 0.9820 0.9820
3830.607241 0.9820 0.9820 0.9820 0.9820 0.9820
3837.259140 0.9820 0.9818 0.9813 0.9810 0.9810
3843.911040 0.9810 0.9810 0.9810 0.9810 0.9810
3850.562940 0.9810 0.9810 0.9810 0.9810 0.9810
3857.214839 0.9810 0.9810 0.9812 0.9817 0.9820
3863.866739 0.9820 0.9818 0.9813 0.9810 0.9810
3870.518639 0.9810 0.9810 0.9810 0.9810 0.9810
3877.170538 0.9810 0.9810 0.9810 0.9810 0.9810
3883.822438 0.9810 0.9810 0.9810 0.9810 0.9810
3890.474338 0.9810 0.9810 0.9810 0.9810 0.9810
3897.126238 0.9810 0.9810 0.9810 0.9810 0.9810
3903.778137 0.9810 0.9810 0.9810 0.9810 0.9810
3910.430037 0.9813 0.9818 0.9817 0.9812 0.9810
3917.081937 0.9810 0.9810 0.9810 0.9810 0.9810
3923.733836 0.9810 0.9810 0.9813 0.9818 0.9817
3930.385736 0.9812 0.9810 0.9810 0.9810 0.9810
3937.037636 0.9810 0.9810 0.9810 0.9810 0.9810
3943.689536 0.9810 0.9810 0.9810 0.9810 0.9810
3950.341435 0.9810 0.9810 0.9810 0.9810 0.9810
3956.993335 0.9810 0.9810 0.9810 0.9810 0.9810
3963.645235 0.9810 0.9810 0.9810 0.9810 0.9810
3970.297134 0.9810 0.9810 0.9810 0.9810 0.9810
3976.949034 0.9807 0.9802 0.9800 0.9800 0.9800
3983.600934 0.9800 0.9800 0.9800
##END=
