##TITLE=3-(BENZYLOXY)-5,7,8,13,13b,14-HEXAHYDRO-2-METHOXYBENZ[g]INDOLE[2,3-a]QUINOLIZINE, HYDROCHLORIDE
##JCAMP-DX=4.24
##DATA TYPE=INFRARED SPECTRUM
##CLASS=COBLENTZ
##ORIGIN=ABBOTT LABORATORIES - WASHBURN
##OWNER=COBLENTZ SOCIETY
Collection (C) 2018 copyright by the U.S. Secretary of Commerce
on behalf of the United States of America. All rights reserved.
##DATE=Not specified, most likely prior to 1970
##NAMES=18-(benzyloxy)-17-methoxy-15,16,17,18,19,20-hexadehydroyohimban hydrochloride
18-BENZYLOXY-17-METHOXY-15,16,17,18,19,20-HEXADEHYDRO-YOHIMBANE HYDROCHLORIDE
##MOLFORM=C27 H26 N2 O2  * H Cl
##SOURCE REFERENCE=COBLENTZ NO. 3529
##$NIST ID=B6003529
##$NIST SOURCE=COBLENTZ
##$NIST IMAGE=cob3529
##SPECTROMETER/DATA SYSTEM=PERKIN-ELMER
##STATE=SOLID (NUJOL MULL)
##SAMPLING PROCEDURE=TRANSMISSION
##RESOLUTION=4
##DATA PROCESSING=DIGITIZED BY NIST FROM HARD COPY (FROM TWO SEGMENTS)
##XUNITS=MICROMETERS
##YUNITS=TRANSMITTANCE
##XFACTOR=1.000000
##YFACTOR=1
##DELTAX=0.006667
##FIRSTX=2.027
##LASTX=15.4143
##FIRSTY=0.493
##MAXX=15.4143
##MINX=2.027
##MAXY=0.724
##MINY=0.028
##NPOINTS=2009
##XYDATA=(X++(Y..Y))
2.027000 0.4930 0.4930 0.4960 0.4960 0.4980
2.060335 0.5010 0.5010 0.5010 0.5030 0.5030
2.093670 0.5050 0.5053 0.5082 0.5101 0.5112
2.127005 0.5133 0.5160 0.5163 0.5202 0.5232
2.160340 0.5250 0.5250 0.5262 0.5300 0.5312
2.193675 0.5350 0.5362 0.5400 0.5399 0.5381
2.227010 0.5400 0.5400 0.5410 0.5460 0.5480
2.260345 0.5500 0.5520 0.5530 0.5530 0.5530
2.293680 0.5535 0.5584 0.5620 0.5610 0.5516
2.327015 0.5477 0.5446 0.5396 0.5347 0.5310
2.360350 0.5310 0.5311 0.5331 0.5351 0.5381
2.393685 0.5402 0.5450 0.5461 0.5481 0.5501
2.427020 0.5520 0.5520 0.5520 0.5530 0.5530
2.460355 0.5530 0.5570 0.5580 0.5580 0.5619
2.493690 0.5603 0.5632 0.5653 0.5684 0.5721
2.527025 0.5735 0.5784 0.5820 0.5821 0.5830
2.560360 0.5831 0.5850 0.5851 0.5880 0.5881
2.593695 0.5900 0.5900 0.5900 0.5901 0.5921
2.627030 0.5950 0.5980 0.6000 0.6040 0.6070
2.660365 0.6070 0.6100 0.6100 0.6120 0.6120
2.693700 0.6141 0.6150 0.6150 0.6150 0.6150
2.727035 0.6150 0.6152 0.6172 0.6190 0.6188
2.760370 0.6170 0.6170 0.6170 0.6170 0.6169
2.793705 0.6150 0.6150 0.6140 0.6141 0.6170
2.827040 0.6170 0.6190 0.6220 0.6220 0.6190
2.860375 0.6190 0.6190 0.6190 0.6190 0.6200
2.893710 0.6222 0.6240 0.6241 0.6249 0.6241
2.927045 0.6250 0.6252 0.6272 0.6290 0.6290
2.960380 0.6290 0.6291 0.6301 0.6320 0.6320
2.993715 0.6320 0.6320 0.6319 0.6300 0.6300
3.027050 0.6290 0.6270 0.6270 0.6290 0.6290
3.060385 0.6270 0.6270 0.6250 0.6240 0.6220
3.093720 0.6096 0.5877 0.5674 0.5586 0.5252
3.127055 0.4936 0.4307 0.3965 0.3698 0.3473
3.160390 0.3400 0.3401 0.3426 0.3556 0.3856
3.193725 0.4176 0.4502 0.4769 0.4964 0.5052
3.227060 0.5110 0.5160 0.5200 0.5230 0.5260
3.260395 0.5260 0.5260 0.5250 0.5250 0.5250
3.293730 0.5121 0.5045 0.4991 0.4902 0.4823
3.327065 0.4752 0.4671 0.4582 0.4501 0.4393
3.360400 0.4196 0.3956 0.3708 0.3492 0.3311
3.393735 0.2541 0.1759 0.1116 0.1035 0.0926
3.427070 0.0818 0.0599 0.0520 0.0460 0.0400
3.460405 0.0360 0.0310 0.0300 0.0280 0.0280
3.493740 0.0300 0.0303 0.0332 0.0351 0.0362
3.527075 0.0382 0.0401 0.0412 0.0432 0.0456
3.560410 0.0525 0.0688 0.2131 0.2841 0.3427
3.593745 0.4288 0.4652 0.5088 0.5256 0.5386
3.627080 0.5532 0.5670 0.5702 0.5921 0.6050
3.660415 0.6090 0.6090 0.6090 0.6070 0.6050
3.693750 0.6009 0.5915 0.5866 0.5827 0.5795
3.727085 0.5745 0.5693 0.5629 0.5613 0.5547
3.760420 0.5513 0.5407 0.5354 0.5253 0.5125
3.793755 0.5030 0.5030 0.5036 0.5155 0.5251
3.827090 0.5280 0.5301 0.5350 0.5380 0.5380
3.860425 0.5360 0.5300 0.5260 0.5250 0.5210
3.893760 0.5166 0.5047 0.4913 0.4663 0.4401
3.927095 0.4017 0.3508 0.3083 0.2622 0.2344
3.960430 0.2178 0.2004 0.1903 0.1780 0.1617
3.993765 0.1559 0.1540 0.1541 0.1560 0.1572
4.027100 0.1622 0.1761 0.1813 0.2083 0.2392
4.060435 0.2650 0.2761 0.3220 0.3320 0.3400
4.093770 0.3469 0.3773 0.3808 0.3873 0.3910
4.127105 0.3998 0.4080 0.4179 0.4261 0.4272
4.160440 0.4293 0.4343 0.4392 0.4432 0.4633
4.193775 0.4692 0.4729 0.4709 0.4689 0.4659
4.227110 0.4630 0.4630 0.4660 0.4690 0.4730
4.260445 0.4740 0.4780 0.4790 0.4910 0.5010
4.293780 0.5068 0.5141 0.5232 0.5253 0.5283
4.327115 0.5315 0.5367 0.5452 0.5655 0.5711
4.360450 0.5827 0.5939 0.6072 0.6105 0.6193
4.393785 0.6242 0.6271 0.6290 0.6291 0.6300
4.427120 0.6300 0.6300 0.6320 0.6320 0.6340
4.460455 0.6340 0.6350 0.6350 0.6370 0.6390
4.493790 0.6444 0.6470 0.6470 0.6470 0.6470
4.527125 0.6468 0.6452 0.6470 0.6472 0.6490
4.560460 0.6491 0.6510 0.6510 0.6510 0.6510
4.593795 0.6512 0.6541 0.6561 0.6570 0.6571
4.627130 0.6590 0.6610 0.6610 0.6610 0.6610
4.660465 0.6620 0.6640 0.6640 0.6660 0.6670
4.693800 0.6669 0.6661 0.6670 0.6670 0.6672
4.727135 0.6690 0.6688 0.6672 0.6690 0.6690
4.760470 0.6690 0.6691 0.6711 0.6721 0.6740
4.793805 0.6741 0.6760 0.6759 0.6740 0.6740
4.827140 0.6740 0.6740 0.6760 0.6760 0.6770
4.860475 0.6770 0.6770 0.6770 0.6770 0.6770
4.893810 0.6770 0.6770 0.6770 0.6770 0.6770
4.927145 0.6770 0.6770 0.6770 0.6770 0.6770
4.960480 0.6770 0.6770 0.6770 0.6769 0.6761
4.993815 0.6770 0.6770 0.6769 0.6759 0.6740
5.027150 0.6760 0.6770 0.6789 0.6790 0.6790
5.060485 0.6772 0.6770 0.6770 0.6770 0.6770
5.093820 0.6770 0.6770 0.6770 0.6770 0.6770
5.127155 0.6770 0.6770 0.6770 0.6783 0.6790
5.160490 0.6833 0.6860 0.6820 0.6790 0.6790
5.193825 0.6790 0.6790 0.6790 0.6802 0.6816
5.227160 0.6831 0.6851 0.6860 0.6860 0.6850
5.260495 0.6830 0.6815 0.6802 0.6790 0.6782
5.293830 0.6766 0.6760 0.6760 0.6760 0.6763
5.327165 0.6790 0.6840 0.6844 0.6862 0.6870
5.360500 0.6868 0.6857 0.6840 0.6844 0.6872
5.393835 0.6890 0.6890 0.6890 0.6910 0.6940
5.427170 0.6921 0.6920 0.6920 0.6920 0.6920
5.460505 0.6920 0.6920 0.6920 0.6920 0.6939
5.493840 0.6912 0.6910 0.6892 0.6890 0.6890
5.527175 0.6873 0.6887 0.6906 0.6910 0.6917
5.560510 0.6949 0.6960 0.6960 0.6967 0.6997
5.593845 0.6984 0.6932 0.6886 0.6853 0.6829
5.627180 0.6820 0.6820 0.6830 0.6855 0.6889
5.660515 0.6910 0.6901 0.6890 0.6883 0.6877
5.693850 0.6883 0.6870 0.6867 0.6854 0.6835
5.727185 0.6820 0.6813 0.6785 0.6770 0.6761
5.760520 0.6734 0.6717 0.6710 0.6712 0.6729
5.793855 0.6762 0.6770 0.6768 0.6761 0.6770
5.827190 0.6770 0.6772 0.6790 0.6790 0.6789
5.860525 0.6770 0.6760 0.6770 0.6770 0.6770
5.893860 0.6806 0.6810 0.6775 0.6770 0.6745
5.927195 0.6699 0.6690 0.6706 0.6710 0.6710
5.960530 0.6710 0.6710 0.6717 0.6720 0.6752
5.993865 0.6782 0.6802 0.6810 0.6810 0.6810
6.027200 0.6784 0.6770 0.6764 0.6766 0.6782
6.060535 0.6790 0.6790 0.6790 0.6790 0.6790
6.093870 0.6781 0.6766 0.6760 0.6760 0.6760
6.127205 0.6745 0.6702 0.6667 0.6601 0.6464
6.160540 0.6395 0.6235 0.6191 0.6086 0.5993
6.193875 0.5615 0.5343 0.5250 0.5260 0.5342
6.227210 0.5495 0.5732 0.5974 0.6100 0.6100
6.260545 0.6316 0.6368 0.6436 0.6468 0.6542
6.293880 0.6591 0.6690 0.6710 0.6710 0.6710
6.327215 0.6738 0.6758 0.6769 0.6788 0.6807
6.360550 0.6810 0.6810 0.6810 0.6795 0.6790
6.393885 0.6790 0.6776 0.6770 0.6770 0.6770
6.427220 0.6770 0.6770 0.6782 0.6790 0.6790
6.460555 0.6779 0.6765 0.6740 0.6705 0.6681
6.493890 0.6657 0.6628 0.6575 0.6494 0.6410
6.527225 0.6248 0.6041 0.5878 0.5518 0.5109
6.560560 0.4751 0.4266 0.3767 0.3531 0.3450
6.593895 0.3459 0.3547 0.3785 0.4024 0.4219
6.627230 0.4351 0.4510 0.4628 0.4744 0.4864
6.660565 0.5060 0.5162 0.5302 0.5331 0.5350
6.693900 0.5350 0.5253 0.5260 0.5279 0.5326
6.727235 0.5357 0.5395 0.5443 0.5450 0.5333
6.760570 0.5231 0.4940 0.4656 0.4546 0.4451
6.793905 0.4364 0.3865 0.3153 0.2399 0.2009
6.827240 0.1747 0.1505 0.1347 0.1160 0.1045
6.860575 0.1020 0.0985 0.0960 0.0950 0.0941
6.893910 0.0930 0.0930 0.0940 0.0985 0.1034
6.927245 0.1068 0.1117 0.1193 0.1291 0.1476
6.960580 0.1780 0.2033 0.2213 0.2363 0.2488
6.993915 0.2629 0.2710 0.2837 0.2979 0.3099
7.027250 0.3339 0.3523 0.3541 0.3550 0.3535
7.060585 0.3370 0.3387 0.3707 0.4197 0.4560
7.093920 0.4836 0.5141 0.5298 0.5500 0.5529
7.127255 0.5617 0.5647 0.5692 0.5758 0.5794
7.160590 0.5816 0.5785 0.5771 0.5693 0.5672
7.193925 0.5612 0.5245 0.5041 0.4623 0.4328
7.227260 0.4122 0.3859 0.3648 0.3286 0.3021
7.260595 0.2847 0.2707 0.2541 0.2362 0.2234
7.293930 0.2119 0.2050 0.2088 0.2344 0.2679
7.327265 0.2856 0.2959 0.3028 0.3120 0.3229
7.360600 0.3398 0.3662 0.3818 0.4009 0.4088
7.393935 0.4238 0.4475 0.4560 0.4686 0.4715
7.427270 0.4746 0.4785 0.4817 0.4840 0.4840
7.460605 0.4834 0.4781 0.4632 0.4583 0.4530
7.493940 0.4453 0.4384 0.4316 0.4214 0.3949
7.527275 0.3841 0.3626 0.3601 0.3619 0.3758
7.560610 0.3888 0.4007 0.4096 0.4151 0.4201
7.593945 0.4432 0.4677 0.4890 0.4992 0.5061
7.627280 0.5130 0.5185 0.5200 0.5200 0.5175
7.660615 0.5064 0.4878 0.4632 0.4296 0.3918
7.693950 0.3565 0.3300 0.3189 0.3192 0.3330
7.727285 0.3534 0.3790 0.4084 0.4375 0.4602
7.760620 0.4834 0.5032 0.5102 0.5199 0.5278
7.793955 0.5335 0.5380 0.5370 0.5344 0.5316
7.827290 0.5267 0.5205 0.5073 0.4851 0.4685
7.860625 0.4431 0.4195 0.4021 0.3886 0.3843
7.893960 0.3768 0.3732 0.3590 0.3590 0.3453
7.927295 0.3229 0.3078 0.2968 0.2860 0.2770
7.960630 0.2751 0.2759 0.2794 0.2809 0.2847
7.993965 0.3014 0.3227 0.3549 0.3771 0.3944
8.027300 0.4111 0.4237 0.4347 0.4438 0.4511
8.060635 0.4551 0.4595 0.4624 0.4630 0.4636
8.093970 0.4640 0.4560 0.4330 0.4114 0.3879
8.127305 0.3641 0.3409 0.3129 0.2806 0.2474
8.160640 0.2201 0.2031 0.1990 0.1998 0.2034
8.193975 0.2112 0.2257 0.2555 0.2904 0.3079
8.227310 0.3327 0.3615 0.3815 0.4022 0.4190
8.260645 0.4351 0.4481 0.4586 0.4743 0.4836
8.293980 0.5037 0.5178 0.5316 0.5357 0.5405
8.327315 0.5451 0.5464 0.5531 0.5551 0.5570
8.360650 0.5570 0.5550 0.5483 0.5357 0.5215
8.393985 0.5050 0.4770 0.4603 0.4547 0.4516
8.427320 0.4454 0.4440 0.4547 0.4692 0.4922
8.460655 0.5089 0.5230 0.5293 0.5351 0.5411
8.493990 0.5442 0.5438 0.5419 0.5404 0.5400
8.527325 0.5405 0.5419 0.5444 0.5486 0.5541
8.560660 0.5594 0.5638 0.5661 0.5705 0.5758
8.593995 0.5827 0.5930 0.5970 0.5970 0.5963
8.627330 0.5943 0.5920 0.5868 0.5785 0.5750
8.660665 0.5757 0.5796 0.5854 0.5876 0.5904
8.694000 0.5917 0.5888 0.5817 0.5787 0.5675
8.727335 0.5625 0.5526 0.5409 0.5350 0.5350
8.760670 0.5427 0.5544 0.5625 0.5667 0.5715
8.794005 0.5763 0.5778 0.5796 0.5800 0.5784
8.827340 0.5772 0.5717 0.5685 0.5637 0.5486
8.860675 0.5337 0.5208 0.5049 0.4686 0.4499
8.894010 0.4016 0.3516 0.3119 0.2973 0.2908
8.927345 0.2799 0.2709 0.2651 0.2630 0.2792
8.960680 0.3140 0.3503 0.3758 0.3893 0.3871
8.994015 0.3674 0.3413 0.3220 0.3210 0.3328
9.027350 0.3463 0.3665 0.4073 0.4521 0.4803
9.060685 0.5043 0.5196 0.5398 0.5497 0.5598
9.094020 0.5723 0.5882 0.5977 0.6042 0.6072
9.127355 0.6105 0.6190 0.6197 0.6249 0.6322
9.160690 0.6340 0.6341 0.6352 0.6390 0.6400
9.194025 0.6420 0.6420 0.6420 0.6420 0.6402
9.227360 0.6373 0.6353 0.6307 0.6292 0.6249
9.260695 0.6224 0.6220 0.6220 0.6220 0.6220
9.294030 0.6206 0.6160 0.6074 0.5995 0.5939
9.327365 0.5829 0.5701 0.5579 0.5457 0.5400
9.360700 0.5405 0.5444 0.5503 0.5583 0.5650
9.394035 0.5601 0.5499 0.5410 0.5288 0.5150
9.427370 0.5004 0.4897 0.4880 0.4928 0.5038
9.460705 0.5202 0.5454 0.5636 0.5737 0.5825
9.494040 0.6000 0.6171 0.6251 0.6296 0.6329
9.527375 0.6373 0.6397 0.6441 0.6450 0.6450
9.560710 0.6450 0.6450 0.6450 0.6450 0.6440
9.594045 0.6421 0.6353 0.6295 0.6183 0.6109
9.627380 0.6074 0.6053 0.6050 0.6050 0.6050
9.660715 0.6042 0.6025 0.5961 0.5933 0.5880
9.694050 0.5773 0.5695 0.5657 0.5635 0.5623
9.727385 0.5584 0.5542 0.5449 0.5391 0.5361
9.760720 0.5325 0.5304 0.5300 0.5300 0.5305
9.794055 0.5310 0.5320 0.5330 0.5298 0.5234
9.827390 0.5183 0.5136 0.4962 0.4630 0.4440
9.860725 0.4430 0.4340 0.4137 0.3974 0.3851
9.894060 0.3770 0.3694 0.3655 0.3587 0.3559
9.927395 0.3496 0.3464 0.3420 0.3425 0.3504
9.960730 0.3601 0.3641 0.3739 0.3818 0.3849
9.994065 0.3916 0.4031 0.4203 0.4460 0.4490
10.027400 0.4588 0.4638 0.4706 0.4775 0.4825
10.060735 0.4884 0.4925 0.4939 0.4956 0.4960
10.094070 0.5030 0.5050 0.5072 0.5102 0.5110
10.127405 0.5124 0.5144 0.5137 0.5149 0.5190
10.160740 0.5222 0.5241 0.5256 0.5271 0.5306
10.194075 0.5355 0.5404 0.5463 0.5531 0.5602
10.227410 0.5689 0.5761 0.5794 0.5840 0.5893
10.260745 0.5923 0.5936 0.5950 0.5956 0.5974
10.294080 0.5987 0.6000 0.5985 0.5936 0.5878
10.327415 0.5794 0.5703 0.5623 0.5514 0.5444
10.360750 0.5410 0.5409 0.5401 0.5416 0.5485
10.394085 0.5557 0.5670 0.5682 0.5750 0.5779
10.427420 0.5818 0.5876 0.5898 0.5918 0.5929
10.460755 0.5947 0.5967 0.5970 0.5970 0.5970
10.494090 0.5940 0.5857 0.5758 0.5709 0.5652
10.527425 0.5563 0.5465 0.5417 0.5410 0.5424
10.560760 0.5451 0.5508 0.5610 0.5702 0.5825
10.594095 0.5967 0.6080 0.6161 0.6196 0.6264
10.627430 0.6330 0.6355 0.6394 0.6429 0.6453
10.660765 0.6470 0.6478 0.6498 0.6510 0.6510
10.694100 0.6510 0.6504 0.6490 0.6485 0.6465
10.727435 0.6443 0.6414 0.6390 0.6383 0.6348
10.760770 0.6340 0.6341 0.6350 0.6351 0.6370
10.794105 0.6370 0.6370 0.6340 0.6320 0.6301
10.827440 0.6219 0.6197 0.6138 0.6070 0.6050
10.860775 0.6050 0.6050 0.6041 0.6040 0.6049
10.894110 0.6067 0.6096 0.6117 0.6145 0.6182
10.927445 0.6269 0.6298 0.6330 0.6399 0.6442
10.960780 0.6511 0.6573 0.6609 0.6632 0.6658
10.994115 0.6670 0.6693 0.6716 0.6720 0.6730
11.027450 0.6750 0.6765 0.6766 0.6764 0.6770
11.060785 0.6778 0.6798 0.6814 0.6820 0.6820
11.094120 0.6816 0.6822 0.6840 0.6840 0.6840
11.127455 0.6833 0.6820 0.6817 0.6810 0.6813
11.160790 0.6820 0.6820 0.6818 0.6803 0.6768
11.194125 0.6750 0.6686 0.6652 0.6588 0.6564
11.227460 0.6487 0.6438 0.6320 0.6241 0.6056
11.260795 0.5955 0.5931 0.5948 0.5968 0.5997
11.294130 0.6087 0.6183 0.6281 0.6379 0.6470
11.327465 0.6543 0.6582 0.6576 0.6563 0.6526
11.360800 0.6470 0.6413 0.6362 0.6254 0.6133
11.394135 0.5994 0.5846 0.5733 0.5667 0.5522
11.427470 0.5363 0.5275 0.5228 0.5205 0.5189
11.460805 0.5170 0.5155 0.5140 0.5130 0.5130
11.494140 0.5143 0.5200 0.5304 0.5408 0.5480
11.527475 0.5551 0.5644 0.5728 0.5808 0.5840
11.560810 0.5882 0.5922 0.5937 0.5975 0.6003
11.594145 0.6024 0.6054 0.6093 0.6123 0.6172
11.627480 0.6201 0.6221 0.6269 0.6299 0.6347
11.660815 0.6396 0.6463 0.6506 0.6536 0.6566
11.694150 0.6570 0.6586 0.6590 0.6572 0.6543
11.727485 0.6514 0.6476 0.6445 0.6407 0.6376
11.760820 0.6346 0.6325 0.6335 0.6361 0.6405
11.794155 0.6440 0.6450 0.6444 0.6440 0.6440
11.827490 0.6428 0.6391 0.6343 0.6284 0.6220
11.860825 0.6171 0.6122 0.6072 0.5985 0.5892
11.894160 0.5880 0.5888 0.5911 0.5952 0.6021
11.927495 0.6090 0.6161 0.6245 0.6336 0.6403
11.960830 0.6462 0.6525 0.6600 0.6659 0.6723
11.994165 0.6772 0.6817 0.6846 0.6874 0.6890
12.027500 0.6890 0.6890 0.6893 0.6920 0.6920
12.060835 0.6920 0.6920 0.6920 0.6920 0.6920
12.094170 0.6939 0.6959 0.6988 0.7008 0.7010
12.127505 0.7027 0.7030 0.7038 0.7040 0.7040
12.160840 0.7040 0.7040 0.7040 0.7068 0.7087
12.194175 0.7090 0.7103 0.7122 0.7130 0.7136
12.227510 0.7140 0.7140 0.7135 0.7130 0.7118
12.260845 0.7110 0.7110 0.7110 0.7110 0.7110
12.294180 0.7110 0.7110 0.7120 0.7130 0.7134
12.327515 0.7140 0.7140 0.7140 0.7140 0.7147
12.360850 0.7160 0.7160 0.7166 0.7183 0.7194
12.394185 0.7214 0.7232 0.7238 0.7230 0.7230
12.427520 0.7231 0.7240 0.7239 0.7229 0.7209
12.460855 0.7190 0.7180 0.7160 0.7112 0.7082
12.494190 0.7043 0.7031 0.7012 0.6992 0.7010
12.527525 0.7010 0.7010 0.7029 0.7030 0.7039
12.560860 0.7040 0.7040 0.7032 0.7030 0.7014
12.594195 0.7025 0.7030 0.7037 0.7054 0.7060
12.627530 0.7074 0.7080 0.7086 0.7103 0.7110
12.660865 0.7110 0.7110 0.7110 0.7120 0.7130
12.694200 0.7120 0.7110 0.7110 0.7101 0.7090
12.727535 0.7090 0.7086 0.7080 0.7080 0.7074
12.760870 0.7054 0.7037 0.7025 0.7005 0.6985
12.794205 0.6960 0.6931 0.6904 0.6885 0.6844
12.827540 0.6758 0.6718 0.6695 0.6630 0.6582
12.860875 0.6534 0.6486 0.6447 0.6418 0.6386
12.894210 0.6319 0.6300 0.6300 0.6300 0.6320
12.927545 0.6320 0.6347 0.6368 0.6396 0.6435
12.960880 0.6465 0.6487 0.6506 0.6510 0.6510
12.994215 0.6517 0.6520 0.6513 0.6496 0.6477
13.027550 0.6437 0.6375 0.6313 0.6236 0.6141
13.060885 0.6061 0.5993 0.5905 0.5762 0.5657
13.094220 0.5582 0.5532 0.5509 0.5500 0.5500
13.127555 0.5500 0.5510 0.5520 0.5524 0.5530
13.160890 0.5518 0.5445 0.5300 0.5128 0.4952
13.194225 0.4854 0.4840 0.4840 0.4840 0.4829
13.227560 0.4788 0.4751 0.4591 0.4386 0.4228
13.260895 0.4010 0.3783 0.3573 0.3317 0.3060
13.294230 0.2746 0.2510 0.2461 0.2315 0.2196
13.327565 0.2115 0.2092 0.2090 0.2107 0.2127
13.360900 0.2171 0.2260 0.2327 0.2394 0.2463
13.394235 0.2539 0.2674 0.2741 0.2758 0.2792
13.427570 0.2823 0.2845 0.2850 0.2857 0.2874
13.460905 0.2894 0.2907 0.2923 0.2948 0.3090
13.494240 0.3289 0.3454 0.3612 0.3758 0.3886
13.527575 0.4019 0.4145 0.4257 0.4361 0.4440
13.560910 0.4485 0.4535 0.4601 0.4656 0.4696
13.594245 0.4731 0.4780 0.4775 0.4760 0.4750
13.627580 0.4705 0.4668 0.4588 0.4453 0.4396
13.660915 0.4278 0.4164 0.4088 0.3967 0.3835
13.694250 0.3746 0.3714 0.3670 0.3672 0.3697
13.727585 0.3794 0.3875 0.4008 0.4214 0.4363
13.760920 0.4483 0.4601 0.4682 0.4797 0.4897
13.794255 0.4953 0.4994 0.5024 0.5053 0.5098
13.827590 0.5162 0.5202 0.5210 0.5203 0.5200
13.860925 0.5207 0.5210 0.5265 0.5329 0.5378
13.894260 0.5416 0.5446 0.5470 0.5490 0.5510
13.927595 0.5543 0.5583 0.5624 0.5661 0.5670
13.960930 0.5685 0.5710 0.5725 0.5726 0.5720
13.994265 0.5712 0.5688 0.5663 0.5633 0.5590
14.027600 0.5555 0.5509 0.5472 0.5437 0.5395
14.060935 0.5380 0.5376 0.5360 0.5359 0.5350
14.094270 0.5348 0.5328 0.5309 0.5299 0.5281
14.127605 0.5300 0.5310 0.5359 0.5398 0.5456
14.160940 0.5478 0.5480 0.5480 0.5480 0.5463
14.194275 0.5411 0.5384 0.5364 0.5334 0.5260
14.227610 0.5147 0.4970 0.4816 0.4685 0.4565
14.260945 0.4462 0.4349 0.4246 0.4149 0.4045
14.294280 0.3917 0.3851 0.3827 0.3820 0.3838
14.327615 0.3920 0.4083 0.4247 0.4351 0.4424
14.360950 0.4474 0.4513 0.4570 0.4660 0.4794
14.394285 0.4982 0.5159 0.5217 0.5240 0.5266
14.427620 0.5288 0.5323 0.5370 0.5407 0.5434
14.460955 0.5452 0.5460 0.5466 0.5500 0.5495
14.494290 0.5469 0.5426 0.5410 0.5408 0.5397
14.527625 0.5380 0.5376 0.5346 0.5306 0.5259
14.560960 0.5229 0.5199 0.5130 0.5032 0.4944
14.594295 0.4865 0.4832 0.4766 0.4742 0.4714
14.627630 0.4668 0.4505 0.4430 0.4412 0.4357
14.660965 0.4325 0.4313 0.4281 0.4249 0.4227
14.694300 0.4214 0.4198 0.4190 0.4190 0.4190
14.727635 0.4201 0.4226 0.4276 0.4325 0.4351
14.760970 0.4378 0.4407 0.4459 0.4538 0.4596
14.794305 0.4635 0.4675 0.4732 0.4830 0.4907
14.827640 0.4949 0.5006 0.5086 0.5167 0.5203
14.860975 0.5222 0.5259 0.5299 0.5370 0.5437
14.894310 0.5460 0.5460 0.5463 0.5480 0.5483
14.927645 0.5500 0.5502 0.5521 0.5531 0.5550
14.960980 0.5550 0.5570 0.5580 0.5627 0.5677
14.994315 0.5698 0.5718 0.5729 0.5773 0.5814
15.027650 0.5828 0.5830 0.5822 0.5820 0.5805
15.060985 0.5800 0.5786 0.5780 0.5773 0.5770
15.094320 0.5770 0.5770 0.5770 0.5770 0.5756
15.127655 0.5750 0.5750 0.5750 0.5750 0.5750
15.160990 0.5739 0.5730 0.5730 0.5725 0.5720
15.194325 0.5711 0.5700 0.5691 0.5676 0.5670
15.227660 0.5662 0.5643 0.5630 0.5627 0.5614
15.260995 0.5600 0.5595 0.5580 0.5580 0.5578
15.294330 0.5570 0.5567 0.5547 0.5529 0.5520
15.327665 0.5517 0.5479 0.5459 0.5430 0.5430
15.361000 0.5410 0.5398 0.5380 0.5379 0.5360
15.394335 0.5350 0.5350 0.5330 0.5310
##END=
