##TITLE=ATROPINE SULFATE, HYDRATE
##JCAMP-DX=4.24
$$ By DXEDIT 1.05 (RS McDonald)
##DATA TYPE=INFRARED SPECTRUM
##CLASS=COBLENTZ III
##OWNER=COBLENTZ SOC.
Collection (C) 2018 copyright by the U.S. Secretary of Commerce
on behalf of the United States of America. All rights reserved.
##DATE=1962/05/08
##MOLFORM=C34 H48 N2 O10 S  * H2 O
##MP=190-194 C
##SOURCE REFERENCE=COBLENTZ NO. 05082
##$NIST ID=B6005082
##$NIST SOURCE=COBLENTZ
##$NIST IMAGE=cob5082
##SPECTROMETER/DATA SYSTEM=PERKIN-ELMER 21 (GRATING)
##INSTRUMENT PARAMETERS=FILTER AT ABOUT 10 MICRONS
##STATE=SOLID (KBr DISC)
##SAMPLING PROCEDURE=TRANSMISSION
##RESOLUTION=2
##DATA PROCESSING=DIGITIZED BY COBLENTZ SOCIETY (BATCH I) FROM HARD COPY
##XUNITS=1/CM
##YUNITS=TRANSMITTANCE
##XLABEL=Wavenumbers (cm-1)
##YLABEL=Transmittance
##XFACTOR=1
##YFACTOR=1
##DELTAX=1
##FIRSTX=4000
##LASTX=667
##FIRSTY=0.7605
##MAXX=4000
##MINX=667
##MAXY=0.9258
##MINY=0.0513
##NPOINTS=3334
##XYDATA=(X++(Y..Y))
4000.000000 0.7605 0.7605 0.7606 0.7606 0.7607
3995.000000 0.7608 0.7608 0.7608 0.7610 0.7610
3990.000000 0.7611 0.7611 0.7611 0.7612 0.7612
3985.000000 0.7614 0.7614 0.7615 0.7615 0.7615
3980.000000 0.7615 0.7617 0.7617 0.7618 0.7618
3975.000000 0.7618 0.7619 0.7621 0.7621 0.7622
3970.000000 0.7625 0.7625 0.7626 0.7628 0.7628
3965.000000 0.7630 0.7631 0.7632 0.7633 0.7635
3960.000000 0.7636 0.7637 0.7638 0.7639 0.7640
3955.000000 0.7641 0.7642 0.7644 0.7645 0.7646
3950.000000 0.7647 0.7648 0.7649 0.7650 0.7651
3945.000000 0.7651 0.7653 0.7654 0.7655 0.7656
3940.000000 0.7657 0.7658 0.7658 0.7661 0.7661
3935.000000 0.7662 0.7664 0.7665 0.7665 0.7667
3930.000000 0.7668 0.7669 0.7671 0.7671 0.7672
3925.000000 0.7674 0.7675 0.7675 0.7678 0.7678
3920.000000 0.7680 0.7681 0.7682 0.7683 0.7684
3915.000000 0.7685 0.7687 0.7688 0.7689 0.7690
3910.000000 0.7691 0.7692 0.7693 0.7695 0.7696
3905.000000 0.7697 0.7698 0.7699 0.7700 0.7701
3900.000000 0.7703 0.7704 0.7705 0.7706 0.7707
3895.000000 0.7708 0.7710 0.7710 0.7711 0.7711
3890.000000 0.7712 0.7714 0.7715 0.7715 0.7715
3885.000000 0.7717 0.7718 0.7718 0.7718 0.7719
3880.000000 0.7721 0.7721 0.7722 0.7724 0.7724
3875.000000 0.7725 0.7725 0.7726 0.7728 0.7728
3870.000000 0.7728 0.7730 0.7731 0.7732 0.7733
3865.000000 0.7734 0.7734 0.7735 0.7736 0.7737
3860.000000 0.7738 0.7739 0.7740 0.7740 0.7741
3855.000000 0.7742 0.7743 0.7744 0.7745 0.7745
3850.000000 0.7746 0.7747 0.7748 0.7749 0.7750
3845.000000 0.7750 0.7751 0.7751 0.7753 0.7754
3840.000000 0.7755 0.7756 0.7756 0.7757 0.7758
3835.000000 0.7758 0.7760 0.7761 0.7761 0.7761
3830.000000 0.7762 0.7764 0.7765 0.7765 0.7767
3825.000000 0.7767 0.7768 0.7768 0.7769 0.7771
3820.000000 0.7771 0.7772 0.7772 0.7774 0.7775
3815.000000 0.7775 0.7775 0.7776 0.7778 0.7778
3810.000000 0.7778 0.7780 0.7781 0.7782 0.7783
3805.000000 0.7784 0.7784 0.7785 0.7786 0.7786
3800.000000 0.7787 0.7788 0.7788 0.7789 0.7790
3795.000000 0.7791 0.7791 0.7792 0.7793 0.7794
3790.000000 0.7795 0.7796 0.7796 0.7797 0.7798
3785.000000 0.7799 0.7799 0.7800 0.7801 0.7801
3780.000000 0.7801 0.7803 0.7804 0.7805 0.7806
3775.000000 0.7807 0.7807 0.7808 0.7808 0.7808
3770.000000 0.7810 0.7811 0.7811 0.7811 0.7812
3765.000000 0.7814 0.7814 0.7815 0.7815 0.7817
3760.000000 0.7818 0.7818 0.7818 0.7819 0.7821
3755.000000 0.7821 0.7821 0.7822 0.7824 0.7824
3750.000000 0.7825 0.7825 0.7826 0.7826 0.7828
3745.000000 0.7828 0.7828 0.7830 0.7831 0.7831
3740.000000 0.7832 0.7832 0.7833 0.7833 0.7834
3735.000000 0.7835 0.7835 0.7836 0.7836 0.7837
3730.000000 0.7837 0.7838 0.7838 0.7839 0.7839
3725.000000 0.7840 0.7841 0.7842 0.7842 0.7843
3720.000000 0.7844 0.7844 0.7844 0.7845 0.7845
3715.000000 0.7845 0.7845 0.7844 0.7843 0.7842
3710.000000 0.7841 0.7840 0.7839 0.7838 0.7838
3705.000000 0.7837 0.7836 0.7835 0.7834 0.7834
3700.000000 0.7833 0.7832 0.7831 0.7830 0.7828
3695.000000 0.7828 0.7828 0.7826 0.7825 0.7825
3690.000000 0.7824 0.7822 0.7821 0.7821 0.7817
3685.000000 0.7814 0.7811 0.7808 0.7805 0.7801
3680.000000 0.7798 0.7794 0.7790 0.7786 0.7783
3675.000000 0.7778 0.7775 0.7771 0.7768 0.7764
3670.000000 0.7761 0.7757 0.7753 0.7749 0.7746
3665.000000 0.7742 0.7738 0.7734 0.7731 0.7726
3660.000000 0.7722 0.7719 0.7715 0.7711 0.7708
3655.000000 0.7705 0.7695 0.7685 0.7675 0.7665
3650.000000 0.7655 0.7643 0.7628 0.7615 0.7601
3645.000000 0.7589 0.7575 0.7561 0.7548 0.7535
3640.000000 0.7521 0.7507 0.7472 0.7438 0.7403
3635.000000 0.7368 0.7334 0.7299 0.7262 0.7226
3630.000000 0.7191 0.7155 0.7121 0.7090 0.7058
3625.000000 0.7025 0.6994 0.6961 0.6930 0.6898
3620.000000 0.6865 0.6834 0.6801 0.6769 0.6738
3615.000000 0.6706 0.6674 0.6643 0.6611 0.6578
3610.000000 0.6547 0.6515 0.6483 0.6451 0.6418
3605.000000 0.6388 0.6356 0.6324 0.6293 0.6266
3600.000000 0.6239 0.6212 0.6184 0.6157 0.6130
3595.000000 0.6103 0.6077 0.6050 0.6023 0.5996
3590.000000 0.5969 0.5942 0.5916 0.5889 0.5858
3585.000000 0.5827 0.5795 0.5764 0.5732 0.5695
3580.000000 0.5655 0.5616 0.5576 0.5536 0.5501
3575.000000 0.5471 0.5441 0.5410 0.5380 0.5355
3570.000000 0.5338 0.5322 0.5305 0.5288 0.5271
3565.000000 0.5254 0.5237 0.5220 0.5203 0.5186
3560.000000 0.5169 0.5152 0.5135 0.5118 0.5101
3555.000000 0.5084 0.5067 0.5050 0.5033 0.5016
3550.000000 0.4999 0.4982 0.4965 0.4948 0.4929
3545.000000 0.4895 0.4860 0.4827 0.4793 0.4759
3540.000000 0.4725 0.4691 0.4657 0.4623 0.4590
3535.000000 0.4571 0.4551 0.4531 0.4512 0.4493
3530.000000 0.4479 0.4466 0.4453 0.4440 0.4427
3525.000000 0.4414 0.4401 0.4387 0.4374 0.4360
3520.000000 0.4348 0.4335 0.4321 0.4308 0.4295
3515.000000 0.4282 0.4268 0.4255 0.4242 0.4228
3510.000000 0.4215 0.4201 0.4187 0.4174 0.4159
3505.000000 0.4140 0.4122 0.4104 0.4084 0.4066
3500.000000 0.4049 0.4030 0.4012 0.3994 0.3975
3495.000000 0.3955 0.3936 0.3916 0.3897 0.3872
3490.000000 0.3843 0.3814 0.3784 0.3757 0.3728
3485.000000 0.3699 0.3670 0.3641 0.3612 0.3582
3480.000000 0.3554 0.3525 0.3496 0.3466 0.3438
3475.000000 0.3409 0.3380 0.3350 0.3322 0.3293
3470.000000 0.3262 0.3234 0.3205 0.3176 0.3147
3465.000000 0.3117 0.3088 0.3059 0.3030 0.3001
3460.000000 0.2971 0.2942 0.2913 0.2883 0.2854
3455.000000 0.2824 0.2795 0.2765 0.2735 0.2707
3450.000000 0.2677 0.2648 0.2618 0.2589 0.2559
3445.000000 0.2530 0.2500 0.2478 0.2461 0.2445
3440.000000 0.2428 0.2412 0.2398 0.2385 0.2373
3435.000000 0.2360 0.2348 0.2334 0.2322 0.2309
3430.000000 0.2297 0.2284 0.2271 0.2258 0.2246
3425.000000 0.2233 0.2224 0.2216 0.2209 0.2201
3420.000000 0.2194 0.2185 0.2179 0.2172 0.2165
3415.000000 0.2157 0.2150 0.2142 0.2134 0.2127
3410.000000 0.2121 0.2115 0.2109 0.2103 0.2098
3405.000000 0.2093 0.2088 0.2083 0.2078 0.2073
3400.000000 0.2068 0.2063 0.2058 0.2053 0.2048
3395.000000 0.2044 0.2040 0.2035 0.2032 0.2031
3390.000000 0.2029 0.2028 0.2027 0.2026 0.2024
3385.000000 0.2023 0.2022 0.2021 0.2020 0.2020
3380.000000 0.2020 0.2020 0.2020 0.2020 0.2020
3375.000000 0.2020 0.2019 0.2019 0.2019 0.2019
3370.000000 0.2019 0.2019 0.2021 0.2023 0.2024
3365.000000 0.2026 0.2028 0.2029 0.2032 0.2034
3360.000000 0.2035 0.2037 0.2039 0.2041 0.2043
3355.000000 0.2046 0.2051 0.2056 0.2060 0.2065
3350.000000 0.2071 0.2077 0.2083 0.2089 0.2095
3345.000000 0.2101 0.2107 0.2113 0.2119 0.2125
3340.000000 0.2131 0.2135 0.2142 0.2148 0.2154
3335.000000 0.2160 0.2166 0.2173 0.2179 0.2184
3330.000000 0.2191 0.2197 0.2209 0.2223 0.2235
3325.000000 0.2249 0.2263 0.2277 0.2291 0.2304
3320.000000 0.2318 0.2332 0.2346 0.2360 0.2375
3315.000000 0.2389 0.2402 0.2416 0.2430 0.2446
3310.000000 0.2468 0.2489 0.2510 0.2532 0.2555
3305.000000 0.2577 0.2600 0.2623 0.2646 0.2669
3300.000000 0.2692 0.2715 0.2738 0.2764 0.2790
3295.000000 0.2816 0.2842 0.2869 0.2895 0.2921
3290.000000 0.2947 0.2971 0.2994 0.3017 0.3039
3285.000000 0.3062 0.3082 0.3103 0.3124 0.3144
3280.000000 0.3164 0.3183 0.3203 0.3223 0.3241
3275.000000 0.3259 0.3277 0.3294 0.3312 0.3330
3270.000000 0.3347 0.3364 0.3382 0.3402 0.3421
3265.000000 0.3439 0.3458 0.3477 0.3495 0.3514
3260.000000 0.3532 0.3550 0.3570 0.3589 0.3608
3255.000000 0.3626 0.3645 0.3664 0.3682 0.3700
3250.000000 0.3720 0.3738 0.3757 0.3776 0.3795
3245.000000 0.3814 0.3832 0.3852 0.3871 0.3890
3240.000000 0.3908 0.3927 0.3946 0.3964 0.3984
3235.000000 0.4003 0.4021 0.4041 0.4059 0.4079
3230.000000 0.4098 0.4117 0.4136 0.4155 0.4174
3225.000000 0.4193 0.4212 0.4231 0.4250 0.4269
3220.000000 0.4288 0.4308 0.4327 0.4346 0.4365
3215.000000 0.4384 0.4403 0.4423 0.4442 0.4460
3210.000000 0.4480 0.4499 0.4519 0.4538 0.4558
3205.000000 0.4577 0.4596 0.4615 0.4635 0.4654
3200.000000 0.4674 0.4693 0.4712 0.4732 0.4752
3195.000000 0.4771 0.4790 0.4810 0.4829 0.4848
3190.000000 0.4868 0.4887 0.4907 0.4926 0.4946
3185.000000 0.4966 0.4985 0.5005 0.5024 0.5044
3180.000000 0.5062 0.5083 0.5103 0.5122 0.5142
3175.000000 0.5162 0.5181 0.5201 0.5221 0.5241
3170.000000 0.5260 0.5280 0.5300 0.5319 0.5339
3165.000000 0.5359 0.5379 0.5399 0.5419 0.5439
3160.000000 0.5459 0.5478 0.5498 0.5518 0.5538
3155.000000 0.5558 0.5578 0.5598 0.5618 0.5637
3150.000000 0.5656 0.5675 0.5694 0.5712 0.5731
3145.000000 0.5749 0.5765 0.5781 0.5796 0.5810
3140.000000 0.5822 0.5831 0.5841 0.5850 0.5860
3135.000000 0.5869 0.5879 0.5888 0.5897 0.5905
3130.000000 0.5914 0.5923 0.5929 0.5935 0.5941
3125.000000 0.5947 0.5951 0.5956 0.5960 0.5965
3120.000000 0.5967 0.5969 0.5971 0.5973 0.5975
3115.000000 0.5978 0.5980 0.5982 0.5984 0.5986
3110.000000 0.5972 0.5990 0.5990 0.5991 0.5991
3105.000000 0.5991 0.5991 0.5991 0.5991 0.5990
3100.000000 0.5990 0.5989 0.5989 0.5987 0.5986
3095.000000 0.5984 0.5982 0.5980 0.5977 0.5975
3090.000000 0.5972 0.5969 0.5967 0.5964 0.5960
3085.000000 0.5958 0.5956 0.5953 0.5949 0.5945
3080.000000 0.5940 0.5936 0.5932 0.5928 0.5924
3075.000000 0.5920 0.5916 0.5912 0.5908 0.5903
3070.000000 0.5899 0.5895 0.5891 0.5887 0.5883
3065.000000 0.5879 0.5875 0.5870 0.5866 0.5862
3060.000000 0.5858 0.5851 0.5845 0.5838 0.5832
3055.000000 0.5825 0.5817 0.5810 0.5803 0.5796
3050.000000 0.5788 0.5781 0.5774 0.5767 0.5759
3045.000000 0.5752 0.5744 0.5737 0.5729 0.5720
3040.000000 0.5709 0.5697 0.5685 0.5674 0.5662
3035.000000 0.5650 0.5639 0.5627 0.5615 0.5603
3030.000000 0.5591 0.5579 0.5568 0.5556 0.5544
3025.000000 0.5532 0.5520 0.5508 0.5491 0.5473
3020.000000 0.5456 0.5439 0.5420 0.5402 0.5383
3015.000000 0.5365 0.5346 0.5328 0.5310 0.5291
3010.000000 0.5272 0.5252 0.5233 0.5214 0.5194
3005.000000 0.5174 0.5153 0.5131 0.5110 0.5087
3000.000000 0.5060 0.5033 0.5005 0.4978 0.4950
2995.000000 0.4923 0.4895 0.4873 0.4851 0.4829
2990.000000 0.4807 0.4786 0.4764 0.4743 0.4721
2985.000000 0.4699 0.4677 0.4645 0.4587 0.4530
2980.000000 0.4473 0.4435 0.4406 0.4376 0.4349
2975.000000 0.4335 0.4321 0.4307 0.4293 0.4279
2970.000000 0.4228 0.4252 0.4249 0.4245 0.4242
2965.000000 0.4240 0.4240 0.4240 0.4239 0.4239
2960.000000 0.4238 0.4238 0.4239 0.4243 0.4246
2955.000000 0.4250 0.4254 0.4257 0.4260 0.4267
2950.000000 0.4274 0.4282 0.4290 0.4298 0.4307
2945.000000 0.4316 0.4325 0.4334 0.4343 0.4352
2940.000000 0.4362 0.4374 0.4385 0.4399 0.4414
2935.000000 0.4429 0.4445 0.4460 0.4476 0.4491
2930.000000 0.4506 0.4522 0.4537 0.4553 0.4568
2925.000000 0.4584 0.4599 0.4615 0.4630 0.4646
2920.000000 0.4664 0.4684 0.4704 0.4724 0.4747
2915.000000 0.4769 0.4792 0.4808 0.4822 0.4836
2910.000000 0.4850 0.4862 0.4875 0.4887 0.4898
2905.000000 0.4909 0.4919 0.4929 0.4937 0.4946
2900.000000 0.4954 0.4959 0.4965 0.4971 0.4974
2895.000000 0.4978 0.4981 0.4984 0.4987 0.4990
2890.000000 0.4993 0.4995 0.4997 0.4999 0.4999
2885.000000 0.4998 0.4997 0.4996 0.4995 0.4993
2880.000000 0.4992 0.4991 0.4989 0.4988 0.4984
2875.000000 0.4980 0.4975 0.4971 0.4967 0.4962
2870.000000 0.4960 0.4956 0.4953 0.4950 0.4947
2865.000000 0.4943 0.4940 0.4938 0.4935 0.4933
2860.000000 0.4932 0.4932 0.4933 0.4934 0.4934
2855.000000 0.4935 0.4935 0.4936 0.4937 0.4937
2850.000000 0.4941 0.4947 0.4953 0.4959 0.4965
2845.000000 0.4972 0.4979 0.4986 0.4993 0.5000
2840.000000 0.5007 0.5014 0.5021 0.5027 0.5033
2835.000000 0.5039 0.5043 0.5047 0.5051 0.5055
2830.000000 0.5059 0.5062 0.5067 0.5071 0.5075
2825.000000 0.5079 0.5080 0.5081 0.5082 0.5083
2820.000000 0.5083 0.5083 0.5084 0.5084 0.5084
2815.000000 0.5084 0.5084 0.5084 0.5084 0.5084
2810.000000 0.5083 0.5083 0.5081 0.5079 0.5078
2805.000000 0.5076 0.5073 0.5071 0.5069 0.5066
2800.000000 0.5064 0.5060 0.5060 0.5058 0.5056
2795.000000 0.5055 0.5053 0.5053 0.5057 0.5060
2790.000000 0.5064 0.5072 0.5081 0.5089 0.5100
2785.000000 0.5110 0.5121 0.5135 0.5149 0.5164
2780.000000 0.5174 0.5184 0.5194 0.5201 0.5207
2775.000000 0.5214 0.5217 0.5218 0.5210 0.5221
2770.000000 0.5221 0.5221 0.5221 0.5221 0.5221
2765.000000 0.5218 0.5214 0.5209 0.5203 0.5193
2760.000000 0.5184 0.5168 0.5142 0.5116 0.5094
2755.000000 0.5083 0.5071 0.5059 0.5049 0.5039
2750.000000 0.5029 0.5018 0.5008 0.4998 0.4989
2745.000000 0.4980 0.4971 0.4962 0.4953 0.4944
2740.000000 0.4935 0.4926 0.4916 0.4907 0.4898
2735.000000 0.4889 0.4879 0.4869 0.4859 0.4848
2730.000000 0.4837 0.4827 0.4816 0.4805 0.4795
2725.000000 0.4787 0.4778 0.4771 0.4765 0.4759
2720.000000 0.4754 0.4750 0.4747 0.4743 0.4740
2715.000000 0.4717 0.4734 0.4732 0.4730 0.4729
2710.000000 0.4727 0.4726 0.4731 0.4740 0.4750
2705.000000 0.4773 0.4804 0.4835 0.4876 0.4922
2700.000000 0.4967 0.4988 0.5003 0.5019 0.5034
2695.000000 0.5049 0.5064 0.5079 0.5094 0.5109
2690.000000 0.5124 0.5138 0.5152 0.5164 0.5177
2685.000000 0.5189 0.5202 0.5214 0.5226 0.5239
2680.000000 0.5251 0.5262 0.5276 0.5288 0.5299
2675.000000 0.5310 0.5320 0.5331 0.5342 0.5353
2670.000000 0.5362 0.5374 0.5384 0.5395 0.5406
2665.000000 0.5417 0.5428 0.5438 0.5449 0.5460
2660.000000 0.5471 0.5482 0.5493 0.5505 0.5516
2655.000000 0.5528 0.5540 0.5551 0.5562 0.5575
2650.000000 0.5587 0.5599 0.5610 0.5623 0.5635
2645.000000 0.5647 0.5659 0.5671 0.5683 0.5696
2640.000000 0.5708 0.5721 0.5734 0.5745 0.5752
2635.000000 0.5759 0.5765 0.5770 0.5775 0.5780
2630.000000 0.5785 0.5791 0.5793 0.5794 0.5796
2625.000000 0.5796 0.5796 0.5797 0.5797 0.5797
2620.000000 0.5798 0.5798 0.5798 0.5796 0.5802
2615.000000 0.5793 0.5790 0.5787 0.5784 0.5781
2610.000000 0.5778 0.5775 0.5771 0.5768 0.5760
2605.000000 0.5753 0.5743 0.5723 0.5703 0.5681
2600.000000 0.5657 0.5633 0.5608 0.5584 0.5560
2595.000000 0.5552 0.5544 0.5536 0.5527 0.5519
2590.000000 0.5510 0.5503 0.5495 0.5489 0.5484
2585.000000 0.5479 0.5476 0.5472 0.5469 0.5466
2580.000000 0.5462 0.5462 0.5462 0.5460 0.5460
2575.000000 0.5460 0.5460 0.5460 0.5459 0.5459
2570.000000 0.5459 0.5459 0.5460 0.5460 0.5462
2565.000000 0.5465 0.5467 0.5468 0.5470 0.5473
2560.000000 0.5480 0.5486 0.5494 0.5502 0.5510
2555.000000 0.5524 0.5537 0.5549 0.5560 0.5574
2550.000000 0.5598 0.5622 0.5647 0.5672 0.5697
2545.000000 0.5716 0.5735 0.5752 0.5770 0.5787
2540.000000 0.5804 0.5821 0.5838 0.5855 0.5872
2535.000000 0.5889 0.5906 0.5923 0.5940 0.5958
2530.000000 0.5975 0.5992 0.6009 0.6026 0.6043
2525.000000 0.6060 0.6076 0.6093 0.6109 0.6126
2520.000000 0.6142 0.6159 0.6175 0.6192 0.6208
2515.000000 0.6225 0.6242 0.6259 0.6276 0.6293
2510.000000 0.6309 0.6326 0.6343 0.6360 0.6380
2505.000000 0.6399 0.6418 0.6439 0.6458 0.6478
2500.000000 0.6498 0.6518 0.6538 0.6558 0.6578
2495.000000 0.6598 0.6617 0.6637 0.6657 0.6676
2490.000000 0.6697 0.6715 0.6734 0.6753 0.6769
2485.000000 0.6788 0.6805 0.6822 0.6841 0.6858
2480.000000 0.6875 0.6894 0.6911 0.6928 0.6947
2475.000000 0.6965 0.6982 0.7000 0.7018 0.7036
2470.000000 0.7054 0.7071 0.7089 0.7110 0.7132
2465.000000 0.7157 0.7184 0.7211 0.7235 0.7258
2460.000000 0.7278 0.7294 0.7311 0.7328 0.7344
2455.000000 0.7358 0.7374 0.7387 0.7396 0.7404
2450.000000 0.7412 0.7421 0.7431 0.7440 0.7449
2445.000000 0.7458 0.7467 0.7480 0.7495 0.7510
2440.000000 0.7528 0.7545 0.7562 0.7580 0.7598
2435.000000 0.7615 0.7630 0.7640 0.7651 0.7658
2430.000000 0.7667 0.7675 0.7682 0.7690 0.7698
2425.000000 0.7705 0.7712 0.7721 0.7728 0.7737
2420.000000 0.7745 0.7751 0.7760 0.7771 0.7785
2415.000000 0.7799 0.7811 0.7825 0.7839 0.7851
2410.000000 0.7865 0.7878 0.7893 0.7908 0.7925
2405.000000 0.7947 0.7968 0.7989 0.8010 0.8030
2400.000000 0.8050 0.8068 0.8081 0.8095 0.8108
2395.000000 0.8121 0.8135 0.8148 0.8161 0.8175
2390.000000 0.8188 0.8201 0.8215 0.8223 0.8231
2385.000000 0.8237 0.8243 0.8249 0.8255 0.8261
2380.000000 0.8267 0.8273 0.8278 0.8285 0.8290
2375.000000 0.8292 0.8295 0.8295 0.8295 0.8296
2370.000000 0.8297 0.8298 0.8299 0.8300 0.8300
2365.000000 0.8299 0.8299 0.8299 0.8299 0.8299
2360.000000 0.8299 0.8299 0.8299 0.8299 0.8299
2355.000000 0.8300 0.8301 0.8301 0.8302 0.8303
2350.000000 0.8304 0.8305 0.8306 0.8307 0.8308
2345.000000 0.8309 0.8309 0.8310 0.8310 0.8311
2340.000000 0.8312 0.8313 0.8315 0.8318 0.8321
2335.000000 0.8323 0.8325 0.8328 0.8332 0.8335
2330.000000 0.8337 0.8340 0.8344 0.8347 0.8349
2325.000000 0.8352 0.8355 0.8358 0.8360 0.8363
2320.000000 0.8366 0.8368 0.8371 0.8375 0.8380
2315.000000 0.8384 0.8392 0.8401 0.8409 0.8418
2310.000000 0.8427 0.8436 0.8445 0.8454 0.8463
2305.000000 0.8471 0.8481 0.8490 0.8499 0.8508
2300.000000 0.8517 0.8528 0.8539 0.8550 0.8561
2295.000000 0.8571 0.8583 0.8594 0.8605 0.8616
2290.000000 0.8627 0.8638 0.8649 0.8660 0.8671
2285.000000 0.8681 0.8691 0.8700 0.8710 0.8718
2280.000000 0.8728 0.8738 0.8747 0.8756 0.8766
2275.000000 0.8775 0.8783 0.8791 0.8796 0.8800
2270.000000 0.8804 0.8809 0.8813 0.8818 0.8821
2265.000000 0.8825 0.8831 0.8835 0.8838 0.8840
2260.000000 0.8841 0.8843 0.8845 0.8846 0.8848
2255.000000 0.8849 0.8851 0.8852 0.8854 0.8855
2250.000000 0.8857 0.8859 0.8861 0.8862 0.8864
2245.000000 0.8865 0.8867 0.8868 0.8870 0.8871
2240.000000 0.8873 0.8875 0.8877 0.8880 0.8883
2235.000000 0.8885 0.8888 0.8890 0.8893 0.8896
2230.000000 0.8899 0.8901 0.8904 0.8906 0.8909
2225.000000 0.8912 0.8915 0.8918 0.8920 0.8923
2220.000000 0.8925 0.8928 0.8931 0.8933 0.8935
2215.000000 0.8937 0.8938 0.8940 0.8941 0.8942
2210.000000 0.8943 0.8945 0.8946 0.8948 0.8949
2205.000000 0.8951 0.8952 0.8953 0.8954 0.8956
2200.000000 0.8958 0.8959 0.8961 0.8962 0.8964
2195.000000 0.8965 0.8966 0.8967 0.8968 0.8971
2190.000000 0.8971 0.8974 0.8975 0.8977 0.8978
2185.000000 0.8978 0.8981 0.8982 0.8984 0.8985
2180.000000 0.8987 0.8988 0.8989 0.8991 0.8992
2175.000000 0.8994 0.8995 0.8995 0.8995 0.8995
2170.000000 0.8994 0.8994 0.8993 0.8993 0.8992
2165.000000 0.8992 0.8989 0.8984 0.8978 0.8973
2160.000000 0.8967 0.8962 0.8956 0.8950 0.8945
2155.000000 0.8940 0.8935 0.8933 0.8933 0.8933
2150.000000 0.8933 0.8933 0.8933 0.8932 0.8932
2145.000000 0.8932 0.8932 0.8932 0.8932 0.8932
2140.000000 0.8932 0.8933 0.8934 0.8934 0.8935
2135.000000 0.8936 0.8937 0.8938 0.8939 0.8940
2130.000000 0.8941 0.8942 0.8942 0.8943 0.8944
2125.000000 0.8945 0.8947 0.8947 0.8948 0.8949
2120.000000 0.8950 0.8950 0.8950 0.8950 0.8950
2115.000000 0.8950 0.8950 0.8949 0.8949 0.8947
2110.000000 0.8943 0.8939 0.8935 0.8930 0.8925
2105.000000 0.8921 0.8918 0.8913 0.8909 0.8905
2100.000000 0.8901 0.8896 0.8891 0.8885 0.8878
2095.000000 0.8871 0.8866 0.8859 0.8853 0.8848
2090.000000 0.8844 0.8841 0.8838 0.8834 0.8831
2085.000000 0.8828 0.8825 0.8823 0.8820 0.8818
2080.000000 0.8818 0.8817 0.8817 0.8821 0.8825
2075.000000 0.8831 0.8836 0.8840 0.8845 0.8850
2070.000000 0.8854 0.8859 0.8864 0.8868 0.8873
2065.000000 0.8878 0.8885 0.8892 0.8898 0.8905
2060.000000 0.8911 0.8917 0.8924 0.8928 0.8932
2055.000000 0.8935 0.8938 0.8941 0.8944 0.8947
2050.000000 0.8950 0.8953 0.8956 0.8959 0.8963
2045.000000 0.8966 0.8968 0.8971 0.8975 0.8978
2040.000000 0.8981 0.8984 0.8987 0.8990 0.8994
2035.000000 0.8997 0.9000 0.9003 0.9006 0.9009
2030.000000 0.9012 0.9015 0.9017 0.9020 0.9021
2025.000000 0.9024 0.9025 0.9028 0.9031 0.9034
2020.000000 0.9036 0.9038 0.9040 0.9042 0.9045
2015.000000 0.9046 0.9047 0.9048 0.9050 0.9051
2010.000000 0.9052 0.9053 0.9055 0.9056 0.9057
2005.000000 0.9058 0.9060 0.9061 0.9062 0.9063
2000.000000 0.9065 0.9066 0.9067 0.9067 0.9067
1995.000000 0.9068 0.9068 0.9068 0.9068 0.9068
1990.000000 0.9068 0.9068 0.9070 0.9070 0.9070
1985.000000 0.9071 0.9071 0.9071 0.9070 0.9068
1980.000000 0.9067 0.9065 0.9064 0.9062 0.9060
1975.000000 0.9059 0.9058 0.9056 0.9054 0.9054
1970.000000 0.9053 0.9054 0.9055 0.9057 0.9059
1965.000000 0.9063 0.9068 0.9074 0.9081 0.9087
1960.000000 0.9094 0.9100 0.9107 0.9113 0.9120
1955.000000 0.9125 0.9134 0.9142 0.9152 0.9161
1950.000000 0.9171 0.9181 0.9191 0.9200 0.9210
1945.000000 0.9220 0.9230 0.9236 0.9242 0.9247
1940.000000 0.9253 0.9257 0.9258 0.9258 0.9257
1935.000000 0.9256 0.9254 0.9253 0.9252 0.9250
1930.000000 0.9249 0.9247 0.9246 0.9244 0.9241
1925.000000 0.9239 0.9236 0.9233 0.9230 0.9227
1920.000000 0.9224 0.9221 0.9218 0.9215 0.9211
1915.000000 0.9209 0.9206 0.9202 0.9199 0.9196
1910.000000 0.9193 0.9190 0.9187 0.9185 0.9182
1905.000000 0.9178 0.9175 0.9174 0.9171 0.9168
1900.000000 0.9168 0.9168 0.9168 0.9168 0.9167
1895.000000 0.9167 0.9167 0.9166 0.9166 0.9165
1890.000000 0.9165 0.9165 0.9166 0.9168 0.9170
1885.000000 0.9171 0.9174 0.9177 0.9180 0.9182
1880.000000 0.9184 0.9186 0.9188 0.9189 0.9191
1875.000000 0.9194 0.9196 0.9197 0.9199 0.9201
1870.000000 0.9202 0.9204 0.9206 0.9209 0.9210
1865.000000 0.9212 0.9214 0.9216 0.9218 0.9221
1860.000000 0.9223 0.9225 0.9225 0.9225 0.9225
1855.000000 0.9220 0.9220 0.9220 0.9218 0.9218
1850.000000 0.9217 0.9215 0.9214 0.9212 0.9210
1845.000000 0.9206 0.9200 0.9194 0.9188 0.9181
1840.000000 0.9174 0.9168 0.9162 0.9155 0.9149
1835.000000 0.9143 0.9139 0.9135 0.9132 0.9128
1830.000000 0.9125 0.9121 0.9118 0.9115 0.9112
1825.000000 0.9108 0.9105 0.9102 0.9098 0.9095
1820.000000 0.9092 0.9089 0.9085 0.9082 0.9080
1815.000000 0.9078 0.9077 0.9077 0.9075 0.9074
1810.000000 0.9073 0.9071 0.9071 0.9068 0.9067
1805.000000 0.9064 0.9061 0.9058 0.9054 0.9050
1800.000000 0.9047 0.9043 0.9039 0.9036 0.9033
1795.000000 0.9028 0.9018 0.9008 0.8995 0.8983
1790.000000 0.8970 0.8958 0.8945 0.8934 0.8921
1785.000000 0.8909 0.8896 0.8882 0.8861 0.8835
1780.000000 0.8808 0.8782 0.8755 0.8728 0.8687
1775.000000 0.8641 0.8595 0.8549 0.8504 0.8451
1770.000000 0.8395 0.8338 0.8282 0.8224 0.8168
1765.000000 0.8115 0.8061 0.8008 0.7955 0.7896
1760.000000 0.7834 0.7771 0.7708 0.7633 0.7540
1755.000000 0.7440 0.7321 0.7168 0.6954 0.6641
1750.000000 0.6319 0.5998 0.5676 0.5354 0.5031
1745.000000 0.4708 0.4384 0.4060 0.3736 0.3412
1740.000000 0.3087 0.2762 0.2435 0.2110 0.1783
1735.000000 0.1457 0.1340 0.1307 0.1302 0.1315
1730.000000 0.1314 0.1314 0.1333 0.1365 0.1465
1725.000000 0.1650 0.1884 0.2118 0.2352 0.2585
1720.000000 0.2820 0.3055 0.3291 0.3526 0.3762
1715.000000 0.3998 0.4235 0.4471 0.4708 0.4946
1710.000000 0.5183 0.5421 0.5659 0.5810 0.5906
1705.000000 0.5992 0.6087 0.6221 0.6775 0.6997
1700.000000 0.7126 0.7232 0.7328 0.7421 0.7514
1695.000000 0.7607 0.7657 0.7699 0.7740 0.7780
1690.000000 0.7812 0.7839 0.7865 0.7876 0.7890
1685.000000 0.7901 0.7911 0.7917 0.7921 0.7949
1680.000000 0.7928 0.7928 0.7928 0.7926 0.7926
1675.000000 0.7926 0.7924 0.7918 0.7911 0.7903
1670.000000 0.7895 0.7888 0.7878 0.7864 0.7849
1665.000000 0.7834 0.7818 0.7805 0.7789 0.7768
1660.000000 0.7746 0.7725 0.7703 0.7678 0.7633
1655.000000 0.7582 0.7533 0.7486 0.7439 0.7394
1650.000000 0.7353 0.7317 0.7281 0.7245 0.7210
1645.000000 0.7175 0.7151 0.7131 0.7108 0.7088
1640.000000 0.7069 0.7055 0.7042 0.7028 0.7015
1635.000000 0.7008 0.7005 0.7000 0.6995 0.6978
1630.000000 0.6988 0.6988 0.6995 0.7006 0.7019
1625.000000 0.7039 0.7062 0.7088 0.7115 0.7147
1620.000000 0.7178 0.7207 0.7235 0.7261 0.7286
1615.000000 0.7299 0.7308 0.7317 0.7317 0.7318
1610.000000 0.7317 0.7311 0.7292 0.7268 0.7260
1605.000000 0.7257 0.7230 0.7255 0.7303 0.7396
1600.000000 0.7493 0.7590 0.7687 0.7784 0.7881
1595.000000 0.7978 0.8051 0.8074 0.8071 0.8068
1590.000000 0.8062 0.8054 0.8040 0.8032 0.8034
1585.000000 0.8055 0.8088 0.8124 0.8161 0.8195
1580.000000 0.8223 0.8251 0.8278 0.8307 0.8335
1575.000000 0.8363 0.8390 0.8414 0.8436 0.8458
1570.000000 0.8480 0.8498 0.8509 0.8520 0.8531
1565.000000 0.8542 0.8554 0.8564 0.8575 0.8585
1560.000000 0.8592 0.8600 0.8608 0.8616 0.8621
1555.000000 0.8624 0.8627 0.8630 0.8633 0.8636
1550.000000 0.8639 0.8641 0.8642 0.8643 0.8644
1545.000000 0.8644 0.8645 0.8645 0.8646 0.8646
1540.000000 0.8647 0.8643 0.8633 0.8623 0.8613
1535.000000 0.8603 0.8593 0.8583 0.8570 0.8557
1530.000000 0.8542 0.8528 0.8514 0.8499 0.8484
1525.000000 0.8465 0.8443 0.8421 0.8399 0.8377
1520.000000 0.8354 0.8327 0.8298 0.8270 0.8241
1515.000000 0.8210 0.8161 0.8096 0.8019 0.7915
1510.000000 0.7822 0.7751 0.7676 0.7583 0.7425
1505.000000 0.7214 0.7001 0.6789 0.6575 0.6362
1500.000000 0.6149 0.5935 0.5860 0.5854 0.5853
1495.000000 0.5870 0.5899 0.5926 0.5946 0.5957
1490.000000 0.5960 0.5919 0.5835 0.5750 0.5665
1485.000000 0.5579 0.5494 0.5408 0.5323 0.5302
1480.000000 0.5302 0.5302 0.5305 0.5314 0.5356
1475.000000 0.5396 0.5459 0.5526 0.5592 0.5659
1470.000000 0.5725 0.5792 0.5858 0.5926 0.5993
1465.000000 0.6060 0.6103 0.6108 0.5992 0.5727
1460.000000 0.5459 0.5191 0.4922 0.4654 0.4421
1455.000000 0.4421 0.4421 0.4436 0.4546 0.4777
1450.000000 0.5027 0.5278 0.5529 0.5780 0.6031
1445.000000 0.6119 0.6146 0.6162 0.6172 0.6173
1440.000000 0.6174 0.6169 0.6104 0.5970 0.5835
1435.000000 0.5743 0.5707 0.5686 0.5699 0.5675
1430.000000 0.5683 0.5698 0.5727 0.5760 0.5800
1425.000000 0.5846 0.5891 0.5937 0.5983 0.6028
1420.000000 0.6072 0.6112 0.6152 0.6191 0.6225
1415.000000 0.6255 0.6285 0.6306 0.6324 0.6338
1410.000000 0.6348 0.6358 0.6362 0.6367 0.6371
1405.000000 0.6374 0.6374 0.6374 0.6366 0.6355
1400.000000 0.6337 0.6257 0.6154 0.6045 0.5931
1395.000000 0.5824 0.5705 0.5596 0.5557 0.5538
1390.000000 0.5523 0.5508 0.5494 0.5478 0.5462
1385.000000 0.5447 0.5428 0.5409 0.5389 0.5360
1380.000000 0.5330 0.5302 0.5272 0.5242 0.5212
1375.000000 0.5192 0.5184 0.5182 0.5190 0.5189
1370.000000 0.5212 0.5266 0.5310 0.5349 0.5388
1365.000000 0.5427 0.5466 0.5506 0.5560 0.5616
1360.000000 0.5696 0.5792 0.5862 0.5906 0.5942
1355.000000 0.5982 0.6020 0.6042 0.6060 0.6073
1350.000000 0.6110 0.6084 0.6078 0.6073 0.6067
1345.000000 0.6062 0.6051 0.6039 0.6026 0.6012
1340.000000 0.5999 0.5987 0.5974 0.5962 0.5949
1335.000000 0.5937 0.5925 0.5914 0.5906 0.5903
1330.000000 0.5910 0.5943 0.5988 0.6051 0.6118
1325.000000 0.6178 0.6231 0.6271 0.6295 0.6314
1320.000000 0.6322 0.6328 0.6333 0.6337 0.6342
1315.000000 0.6346 0.6359 0.6375 0.6390 0.6407
1310.000000 0.6433 0.6461 0.6482 0.6496 0.6510
1305.000000 0.6525 0.6530 0.6531 0.6532 0.6532
1300.000000 0.6533 0.6526 0.6518 0.6510 0.6496
1295.000000 0.6481 0.6462 0.6434 0.6405 0.6386
1290.000000 0.6368 0.6336 0.6295 0.6252 0.6205
1285.000000 0.6155 0.6104 0.6044 0.5978 0.5905
1280.000000 0.5805 0.5636 0.5341 0.5264 0.5210
1275.000000 0.5167 0.5134 0.5120 0.5106 0.5092
1270.000000 0.5072 0.5052 0.5031 0.5005 0.4944
1265.000000 0.4828 0.4704 0.4656 0.4636 0.4621
1260.000000 0.4618 0.4618 0.4631 0.4652 0.4669
1255.000000 0.4679 0.4687 0.4696 0.4696 0.4691
1250.000000 0.4673 0.4649 0.4624 0.4580 0.4536
1245.000000 0.4490 0.4435 0.4364 0.4271 0.4199
1240.000000 0.4150 0.4122 0.4109 0.4106 0.4105
1235.000000 0.4103 0.4100 0.4095 0.4091 0.4082
1230.000000 0.4045 0.3973 0.3871 0.3762 0.3696
1225.000000 0.3641 0.3609 0.3599 0.3599 0.3598
1220.000000 0.3609 0.3644 0.3689 0.3725 0.3760
1215.000000 0.3794 0.3823 0.3850 0.3880 0.3907
1210.000000 0.3930 0.3952 0.3971 0.3978 0.3978
1205.000000 0.3977 0.3966 0.3950 0.3914 0.3880
1200.000000 0.3834 0.3784 0.3736 0.3678 0.3618
1195.000000 0.3560 0.3527 0.3509 0.3505 0.3507
1190.000000 0.3509 0.3510 0.3503 0.3490 0.3468
1185.000000 0.3444 0.3407 0.3364 0.3321 0.3272
1180.000000 0.3188 0.3102 0.3029 0.2959 0.2864
1175.000000 0.2767 0.2631 0.2451 0.2241 0.2037
1170.000000 0.1833 0.1629 0.1424 0.1235 0.1146
1165.000000 0.1108 0.1089 0.1090 0.1090 0.1107
1160.000000 0.1124 0.1144 0.1164 0.1184 0.1188
1155.000000 0.1187 0.1186 0.1165 0.1122 0.1066
1150.000000 0.1008 0.0946 0.0883 0.0826 0.0785
1145.000000 0.0744 0.0703 0.0670 0.0646 0.0622
1140.000000 0.0608 0.0600 0.0593 0.0585 0.0579
1135.000000 0.0575 0.0570 0.0565 0.0561 0.0557
1130.000000 0.0552 0.0547 0.0543 0.0538 0.0533
1125.000000 0.0528 0.0524 0.0519 0.0514 0.0513
1120.000000 0.0513 0.0515 0.0516 0.0518 0.0519
1115.000000 0.0524 0.0535 0.0554 0.0574 0.0600
1110.000000 0.0631 0.0676 0.0774 0.0954 0.1172
1105.000000 0.1339 0.1533 0.1781 0.2029 0.2278
1100.000000 0.2527 0.2777 0.3027 0.3278 0.3527
1095.000000 0.3646 0.3748 0.3826 0.3890 0.3950
1090.000000 0.4008 0.4077 0.4057 0.4048 0.4027
1085.000000 0.3962 0.3888 0.3730 0.3541 0.3350
1080.000000 0.3161 0.2971 0.2935 0.2941 0.3037
1075.000000 0.3155 0.3274 0.3392 0.3496 0.3529
1070.000000 0.3512 0.3459 0.3394 0.3329 0.3262
1065.000000 0.3198 0.3150 0.3135 0.3172 0.3271
1060.000000 0.3371 0.3472 0.3573 0.3674 0.3775
1055.000000 0.3877 0.3936 0.3959 0.3977 0.3994
1050.000000 0.3958 0.3914 0.3875 0.3842 0.3809
1045.000000 0.3777 0.3744 0.3708 0.3654 0.3600
1040.000000 0.3548 0.3505 0.3462 0.3422 0.3295
1035.000000 0.3108 0.2921 0.2733 0.2545 0.2356
1030.000000 0.2168 0.1978 0.1787 0.1599 0.1408
1025.000000 0.1185 0.1181 0.1196 0.1278 0.1415
1020.000000 0.1879 0.2432 0.2978 0.3336 0.3591
1015.000000 0.3796 0.4074 0.4420 0.4667 0.4821
1010.000000 0.4925 0.5000 0.5047 0.5074 0.5088
1005.000000 0.5101 0.5191 0.5366 0.5541 0.5749
1000.000000 0.6039 0.6359 0.6543 0.6656 0.6718
995.000000 0.6772 0.6826 0.6876 0.6918 0.6943
990.000000 0.6965 0.6951 0.6972 0.6958 0.6907
985.000000 0.6800 0.6693 0.6618 0.6589 0.6574
980.000000 0.6555 0.6533 0.6421 0.6281 0.6133
975.000000 0.5970 0.5774 0.5610 0.5523 0.5485
970.000000 0.5538 0.5823 0.6030 0.6214 0.6455
965.000000 0.6660 0.6856 0.7075 0.7249 0.7412
960.000000 0.7562 0.7665 0.7724 0.7771 0.7808
955.000000 0.7837 0.7857 0.7865 0.7837 0.7804
950.000000 0.7758 0.7712 0.7665 0.7612 0.7551
945.000000 0.7461 0.7378 0.7310 0.7238 0.7248
940.000000 0.7274 0.7312 0.7354 0.7397 0.7448
935.000000 0.7517 0.7606 0.7628 0.7657 0.7693
930.000000 0.7775 0.7772 0.7751 0.7721 0.7674
925.000000 0.7643 0.7615 0.7595 0.7572 0.7556
920.000000 0.7554 0.7572 0.7571 0.7611 0.7665
915.000000 0.7718 0.7807 0.7898 0.8001 0.8111
910.000000 0.8216 0.8286 0.8355 0.8405 0.8441
905.000000 0.8478 0.8498 0.8516 0.8533 0.8548
900.000000 0.8562 0.8575 0.8589 0.8603 0.8615
895.000000 0.8628 0.8668 0.8646 0.8649 0.8638
890.000000 0.8565 0.8528 0.8518 0.8512 0.8481
885.000000 0.8391 0.8315 0.8250 0.8189 0.8148
880.000000 0.8156 0.8160 0.8193 0.8212 0.8228
875.000000 0.8237 0.8245 0.8263 0.8331 0.8414
870.000000 0.8475 0.8507 0.8538 0.8568 0.8600
865.000000 0.8630 0.8645 0.8686 0.8666 0.8665
860.000000 0.8665 0.8644 0.8606 0.8567 0.8525
855.000000 0.8485 0.8443 0.8400 0.8355 0.8316
850.000000 0.8284 0.8284 0.8284 0.8341 0.8407
845.000000 0.8475 0.8539 0.8583 0.8612 0.8640
840.000000 0.8662 0.8682 0.8702 0.8721 0.8730
835.000000 0.8739 0.8748 0.8753 0.8801 0.8734
830.000000 0.8725 0.8717 0.8704 0.8686 0.8659
825.000000 0.8562 0.8520 0.8491 0.8435 0.8366
820.000000 0.8278 0.8190 0.8108 0.8045 0.7999
815.000000 0.7984 0.7975 0.7991 0.8011 0.8050
810.000000 0.8089 0.8134 0.8180 0.8217 0.8243
805.000000 0.8244 0.8224 0.8155 0.8117 0.8148
800.000000 0.8201 0.8241 0.8277 0.8308 0.8371
795.000000 0.8338 0.8304 0.8194 0.8121 0.8049
790.000000 0.7971 0.7900 0.7836 0.7808 0.7780
785.000000 0.7748 0.7737 0.7751 0.7755 0.7748
780.000000 0.7722 0.7689 0.7628 0.7558 0.7480
775.000000 0.7393 0.7308 0.7232 0.7174 0.7140
770.000000 0.7137 0.7118 0.7139 0.7169 0.7198
765.000000 0.7187 0.7160 0.7128 0.7085 0.6825
760.000000 0.6615 0.6512 0.6360 0.6379 0.6401
755.000000 0.6482 0.6624 0.6775 0.6915 0.7005
750.000000 0.7061 0.7088 0.7057 0.6958 0.6868
745.000000 0.6762 0.6647 0.6522 0.6395 0.6247
740.000000 0.6086 0.5926 0.5800 0.5716 0.5643
735.000000 0.5646 0.5647 0.5677 0.5753 0.5923
730.000000 0.6179 0.6455 0.6668 0.6915 0.7076
725.000000 0.7215 0.7364 0.7418 0.7433 0.7468
720.000000 0.7456 0.7451 0.7378 0.7281 0.7206
715.000000 0.7151 0.7101 0.7047 0.6960 0.6780
710.000000 0.6543 0.6237 0.5929 0.5601 0.5274
705.000000 0.4945 0.4615 0.4316 0.4231 0.4199
700.000000 0.4210 0.4310 0.4591 0.5062 0.5371
695.000000 0.5715 0.6062 0.6515 0.6768 0.6919
690.000000 0.7021 0.7108 0.7191 0.7265 0.7324
685.000000 0.7368 0.7365 0.7340 0.7331 0.7331
680.000000 0.7321 0.7299 0.7289 0.7278 0.7262
675.000000 0.7248 0.7228 0.7205 0.7194 0.7176
670.000000 0.7165 0.7150 0.7132 0.7115
##END=
