##TITLE=9H-Purine, 2-amino-9-Beta-D-ribofuranosyl-,
##JCAMP-DX=4.24
##DATA TYPE=INFRARED SPECTRUM
##CLASS=COBLENTZ III
##ORIGIN=SOUTHERN RESEARCH INSTITUTE
##OWNER=Copyright (C) 1987 by the Coblentz Society
Collection (C) 2018 copyright by the U.S. Secretary of Commerce
on behalf of the United States of America. All rights reserved.
##DATE=1957/02/12
##MOLFORM=C10 H13 N5 O4
##SOURCE REFERENCE=COBLENTZ NO. 6798
##$NIST ID=B6006798
##$NIST SOURCE=COBLENTZ
##$NIST IMAGE=cob6798
##SPECTROMETER/DATA SYSTEM=PERKIN-ELMER 21 (GRATING)
##INSTRUMENT PARAMETERS=FILTER CHANGE ABOUT1070 CM^-^1
##STATE=SOLID (0.8/650 mg KBr DISC)
##RESOLUTION=2
##DATA PROCESSING=(ADJUSTED \addcm-1\10-5-2\)
##XUNITS=1/CM
##YUNITS=TRANSMITTANCE
##XFACTOR=1.0
##YFACTOR=1
##DELTAX=1.000772
##FIRSTX=619.543
##LASTX=3805
##FIRSTY=0.5681
##MAXX=3805
##MINX=619.543
##MAXY=0.8408
##MINY=0.130154
##NPOINTS=3184
##XYDATA=(X++(Y..Y))
619.542500 0.5681 0.5702 0.5719 0.5734 0.5748
624.546359 0.5763 0.5774 0.5786 0.5797 0.5809
629.550218 0.5820 0.5832 0.5843 0.5855 0.5866
634.554077 0.5878 0.5891 0.5906 0.5920 0.5935
639.557937 0.5949 0.5960 0.5969 0.5978 0.5987
644.561796 0.5996 0.6005 0.6012 0.6019 0.6025
649.565655 0.6028 0.6029 0.6029 0.6030 0.6031
654.569514 0.6030 0.6029 0.6028 0.6026 0.6022
659.573373 0.6021 0.6014 0.6009 0.6005 0.5999
664.577232 0.5992 0.5984 0.5977 0.5969 0.5961
669.581091 0.5953 0.5945 0.5936 0.5927 0.5919
674.584951 0.5910 0.5902 0.5893 0.5884 0.5874
679.588810 0.5863 0.5853 0.5842 0.5832 0.5821
684.592669 0.5814 0.5808 0.5801 0.5798 0.5799
689.596528 0.5799 0.5799 0.5799 0.5799 0.5800
694.600387 0.5802 0.5803 0.5805 0.5807 0.5811
699.604246 0.5815 0.5820 0.5824 0.5829 0.5830
704.608105 0.5827 0.5824 0.5821 0.5813 0.5801
709.611965 0.5786 0.5772 0.5757 0.5742 0.5728
714.615824 0.5714 0.5701 0.5688 0.5675 0.5662
719.619683 0.5649 0.5636 0.5622 0.5609 0.5596
724.623542 0.5583 0.5570 0.5557 0.5551 0.5545
729.627401 0.5539 0.5534 0.5528 0.5524 0.5523
734.631260 0.5523 0.5523 0.5523 0.5521 0.5522
739.635119 0.5523 0.5525 0.5529 0.5533 0.5538
744.638978 0.5542 0.5547 0.5551 0.5560 0.5571
749.642838 0.5581 0.5592 0.5603 0.5613 0.5625
754.646697 0.5639 0.5653 0.5667 0.5682 0.5696
759.650556 0.5710 0.5723 0.5735 0.5740 0.5743
764.654415 0.5742 0.5739 0.5734 0.5758 0.5734
769.658274 0.5713 0.5698 0.5679 0.5656 0.5627
774.662133 0.5596 0.5561 0.5527 0.5493 0.5453
779.665992 0.5404 0.5360 0.5321 0.5073 0.4707
784.669852 0.4327 0.3948 0.3765 0.3680 0.3608
789.673711 0.3544 0.3503 0.3497 0.3502 0.3499
794.677570 0.3521 0.3549 0.3738 0.4050 0.4384
799.681429 0.4717 0.5051 0.5385 0.5568 0.5635
804.685288 0.5664 0.5682 0.5700 0.5716 0.5735
809.689147 0.5757 0.5780 0.5797 0.5808 0.5817
814.693006 0.5821 0.5821 0.5820 0.5819 0.5826
819.696866 0.5819 0.5811 0.5807 0.5800 0.5794
824.700725 0.5787 0.5780 0.5774 0.5768 0.5761
829.704584 0.5754 0.5747 0.5739 0.5728 0.5715
834.708443 0.5702 0.5687 0.5668 0.5648 0.5627
839.712302 0.5595 0.5540 0.5476 0.5413 0.5349
844.716161 0.5284 0.5220 0.5156 0.5092 0.5028
849.720020 0.4964 0.4900 0.4836 0.4772 0.4711
854.723880 0.4659 0.4612 0.4582 0.4562 0.4549
859.727739 0.4541 0.4537 0.4540 0.4550 0.4566
864.731598 0.4595 0.4633 0.4679 0.4731 0.4784
869.735457 0.4832 0.4875 0.4918 0.4956 0.4979
874.739316 0.4992 0.4999 0.5002 0.5001 0.4990
879.743175 0.4986 0.4981 0.4964 0.4942 0.4919
884.747034 0.4894 0.4865 0.4834 0.4802 0.4767
889.750894 0.4732 0.4697 0.4669 0.4647 0.4629
894.754753 0.4621 0.4585 0.4592 0.4629 0.4641
899.758612 0.4660 0.4679 0.4727 0.4811 0.4901
904.762471 0.4991 0.5082 0.5172 0.5263 0.5354
909.766330 0.5441 0.5504 0.5545 0.5580 0.5613
914.770189 0.5643 0.5667 0.5682 0.5689 0.5692
919.774048 0.5695 0.5688 0.5686 0.5692 0.5688
924.777908 0.5684 0.5673 0.5638 0.5584 0.5530
929.781767 0.5477 0.5423 0.5370 0.5316 0.5263
934.785626 0.5209 0.5156 0.5103 0.5049 0.4995
939.789485 0.4942 0.4888 0.4835 0.4781 0.4728
944.793344 0.4674 0.4621 0.4570 0.4516 0.4459
949.797203 0.4408 0.4364 0.4323 0.4282 0.4244
954.801062 0.4210 0.4187 0.4167 0.4160 0.4177
959.804921 0.4184 0.4194 0.4208 0.4226 0.4247
964.808781 0.4272 0.4303 0.4341 0.4396 0.4457
969.812640 0.4511 0.4556 0.4597 0.4647 0.4699
974.816499 0.4746 0.4784 0.4815 0.4845 0.4870
979.820358 0.4885 0.4898 0.4911 0.4925 0.4937
984.824217 0.4947 0.4954 0.4961 0.4964 0.4962
989.828076 0.4960 0.4958 0.4961 0.4959 0.4938
994.831935 0.4927 0.4915 0.4901 0.4884 0.4866
999.835795 0.4842 0.4806 0.4763 0.4704 0.4642
1004.839654 0.4583 0.4521 0.4454 0.4387 0.4320
1009.843513 0.4253 0.4183 0.4100 0.3998 0.3905
1014.847372 0.3821 0.3744 0.3684 0.3631 0.3579
1019.851231 0.3527 0.3477 0.3426 0.3376 0.3326
1024.855090 0.3275 0.3224 0.3174 0.3130 0.3090
1029.858949 0.3051 0.3020 0.2999 0.2977 0.2955
1034.862809 0.2934 0.2913 0.2895 0.2879 0.2862
1039.866668 0.2845 0.2829 0.2815 0.2809 0.2799
1044.870527 0.2787 0.2793 0.2796 0.2800 0.2808
1049.874386 0.2818 0.2829 0.2846 0.2864 0.2882
1054.878245 0.2899 0.2917 0.2935 0.2953 0.2969
1059.882104 0.2984 0.2995 0.2996 0.2997 0.2993
1064.885963 0.2989 0.2976 0.2958 0.2794 0.2314
1069.889823 0.2359 0.2615 0.3072 0.3328 0.3274
1074.893682 0.3135 0.2995 0.2857 0.2748 0.2740
1079.897541 0.2738 0.2732 0.2764 0.2777 0.2794
1084.901400 0.2813 0.2833 0.2855 0.2879 0.2909
1089.905259 0.2937 0.2962 0.2978 0.2982 0.2982
1094.909118 0.2982 0.2981 0.2980 0.2979 0.2979
1099.912977 0.2979 0.2980 0.2981 0.2982 0.2983
1104.916837 0.2983 0.2984 0.2985 0.2986 0.2989
1109.920696 0.2994 0.2999 0.3003 0.3010 0.3019
1114.924555 0.3031 0.3044 0.3057 0.3071 0.3088
1119.928414 0.3115 0.3141 0.3164 0.3187 0.3210
1124.932273 0.3233 0.3254 0.3275 0.3296 0.3325
1129.936132 0.3375 0.3425 0.3477 0.3535 0.3599
1134.939991 0.3659 0.3721 0.3858 0.4323 0.4605
1139.943851 0.4851 0.4980 0.5109 0.5238 0.5366
1144.947710 0.5495 0.5624 0.5761 0.5975 0.6165
1149.951569 0.6253 0.6297 0.6320 0.6322 0.6323
1154.955428 0.6323 0.6320 0.6317 0.6317 0.6353
1159.959287 0.6293 0.6283 0.6267 0.6252 0.6230
1164.963146 0.6198 0.6158 0.6104 0.6059 0.5963
1169.967005 0.5847 0.5732 0.5617 0.5503 0.5388
1174.970864 0.5273 0.5158 0.5043 0.4928 0.4813
1179.974724 0.4715 0.4633 0.4559 0.4479 0.4393
1184.978583 0.4306 0.4217 0.4128 0.4062 0.3999
1189.982442 0.3936 0.3884 0.3834 0.3799 0.3771
1194.986301 0.3754 0.3748 0.3748 0.3765 0.3752
1199.990160 0.3756 0.3761 0.3765 0.3771 0.3778
1204.994019 0.3785 0.3792 0.3799 0.3806 0.3813
1209.997878 0.3822 0.3831 0.3840 0.3852 0.3865
1215.001738 0.3878 0.3891 0.3905 0.3925 0.3946
1220.005597 0.4029 0.4134 0.4240 0.4346 0.4452
1225.009456 0.4557 0.4663 0.4769 0.4882 0.4942
1230.013315 0.4983 0.5012 0.5039 0.5058 0.5070
1235.017174 0.5076 0.5078 0.5080 0.5074 0.5072
1240.021033 0.5065 0.5056 0.5040 0.5021 0.5000
1245.024892 0.4978 0.4954 0.4929 0.4904 0.4884
1250.028752 0.4866 0.4848 0.4830 0.4824 0.4809
1255.032611 0.4830 0.4837 0.4841 0.4848 0.4856
1260.036470 0.4864 0.4871 0.4876 0.4880 0.4878
1265.040329 0.4867 0.4869 0.4859 0.4848 0.4835
1270.044188 0.4818 0.4801 0.4779 0.4756 0.4733
1275.048047 0.4686 0.4622 0.4557 0.4492 0.4427
1280.051906 0.4362 0.4296 0.4231 0.4166 0.4101
1285.055766 0.4037 0.3971 0.3906 0.3841 0.3776
1290.059625 0.3713 0.3670 0.3653 0.3641 0.3639
1295.063484 0.3636 0.3643 0.3651 0.3693 0.3820
1300.067343 0.3964 0.4108 0.4252 0.4395 0.4538
1305.071202 0.4673 0.4716 0.4732 0.4745 0.4753
1310.075061 0.4771 0.4759 0.4756 0.4754 0.4749
1315.078920 0.4738 0.4722 0.4707 0.4692 0.4673
1320.082780 0.4652 0.4631 0.4611 0.4591 0.4572
1325.086639 0.4549 0.4516 0.4479 0.4451 0.4430
1330.090498 0.4417 0.4427 0.4438 0.4449 0.4460
1335.094357 0.4472 0.4484 0.4495 0.4505 0.4514
1340.098216 0.4522 0.4524 0.4524 0.4524 0.4522
1345.102075 0.4529 0.4518 0.4509 0.4503 0.4492
1350.105934 0.4481 0.4468 0.4455 0.4441 0.4427
1355.109793 0.4411 0.4394 0.4375 0.4356 0.4336
1360.113653 0.4312 0.4287 0.4262 0.4237 0.4211
1365.117512 0.4183 0.4163 0.4159 0.4148 0.4161
1370.121371 0.4173 0.4181 0.4203 0.4231 0.4262
1375.125230 0.4294 0.4329 0.4370 0.4409 0.4442
1380.129089 0.4458 0.4460 0.4459 0.4460 0.4451
1385.132948 0.4442 0.4427 0.4394 0.4343 0.4288
1390.136807 0.4232 0.4177 0.4122 0.4067 0.4011
1395.140667 0.3956 0.3901 0.3846 0.3791 0.3736
1400.144526 0.3680 0.3625 0.3570 0.3515 0.3459
1405.148385 0.3406 0.3350 0.3289 0.3227 0.3167
1410.152244 0.3107 0.3038 0.2960 0.2878 0.2795
1415.156103 0.2711 0.2627 0.2509 0.2354 0.2221
1420.159962 0.2107 0.2001 0.1909 0.1824 0.1743
1425.163821 0.1683 0.1636 0.1609 0.1600 0.1599
1430.167681 0.1589 0.1610 0.1644 0.1674 0.1738
1435.171540 0.1882 0.2067 0.2253 0.2439 0.2643
1440.175399 0.2774 0.2828 0.2868 0.2975 0.3196
1445.179258 0.3464 0.3733 0.3960 0.4082 0.4144
1450.183117 0.4180 0.4192 0.4193 0.4190 0.4184
1455.186976 0.4177 0.4166 0.4141 0.4088 0.4016
1460.190835 0.3945 0.3873 0.3802 0.3730 0.3659
1465.194695 0.3587 0.3516 0.3444 0.3373 0.3311
1470.198554 0.3279 0.3271 0.3262 0.3265 0.3277
1475.202413 0.3289 0.3311 0.3351 0.3431 0.3515
1480.206272 0.3577 0.3634 0.3691 0.3816 0.3985
1485.210131 0.4295 0.4585 0.4736 0.4902 0.5005
1490.213990 0.5041 0.5056 0.5059 0.5051 0.5044
1495.217849 0.5021 0.4975 0.4897 0.4792 0.4683
1500.221709 0.4573 0.4464 0.4354 0.4244 0.4135
1505.225568 0.4025 0.3915 0.3806 0.3729 0.3710
1510.229427 0.3705 0.3718 0.3766 0.3852 0.3995
1515.233286 0.4152 0.4309 0.4465 0.4622 0.4779
1520.237145 0.4935 0.5092 0.5248 0.5405 0.5561
1525.241004 0.5718 0.5875 0.6032 0.6167 0.6249
1530.244863 0.6285 0.6304 0.6318 0.6330 0.6337
1535.248723 0.6340 0.6333 0.6329 0.6336 0.6333
1540.252582 0.6329 0.6321 0.6308 0.6288 0.6253
1545.256441 0.6195 0.6102 0.5984 0.5865 0.5747
1550.260300 0.5628 0.5510 0.5391 0.5273 0.5155
1555.264159 0.5036 0.4917 0.4782 0.4656 0.4589
1560.268018 0.4516 0.4435 0.4353 0.4276 0.4204
1565.271877 0.4127 0.3990 0.3723 0.3388 0.3054
1570.275736 0.2721 0.2386 0.2052 0.1766 0.1633
1575.279596 0.1623 0.1624 0.1636 0.1649 0.1704
1580.283455 0.1878 0.2092 0.2208 0.2419 0.2708
1585.287314 0.2996 0.3251 0.3384 0.3401 0.3398
1590.291173 0.3402 0.3404 0.3363 0.3298 0.3168
1595.295032 0.3036 0.2904 0.2771 0.2640 0.2508
1600.298891 0.2376 0.2244 0.2112 0.1981 0.1849
1605.302750 0.1717 0.1585 0.1456 0.1363 0.1333
1610.306610 0.1310 0.1303 0.1302 0.1309 0.1322
1615.310469 0.1344 0.1378 0.1415 0.1456 0.1490
1620.314328 0.1527 0.1565 0.1607 0.1654 0.1704
1625.318187 0.1759 0.1818 0.1883 0.1944 0.2000
1630.322046 0.2044 0.2087 0.2136 0.2189 0.2248
1635.325905 0.2320 0.2402 0.2534 0.2737 0.2895
1640.329764 0.2996 0.3086 0.3163 0.3222 0.3283
1645.333624 0.3353 0.3429 0.3520 0.3632 0.3730
1650.337483 0.3815 0.3878 0.3931 0.4004 0.4146
1655.341342 0.4337 0.4528 0.4720 0.4967 0.5216
1660.345201 0.5266 0.5320 0.5385 0.5457 0.5522
1665.349060 0.5585 0.5649 0.5718 0.5789 0.5860
1670.352919 0.5939 0.6031 0.6114 0.6178 0.6232
1675.356778 0.6287 0.6341 0.6393 0.6441 0.6488
1680.360638 0.6536 0.6583 0.6628 0.6672 0.6716
1685.364497 0.6755 0.6793 0.6832 0.6870 0.6908
1690.368356 0.6943 0.6979 0.7014 0.7047 0.7072
1695.372215 0.7096 0.7120 0.7143 0.7167 0.7191
1700.376074 0.7215 0.7238 0.7262 0.7286 0.7309
1705.379933 0.7333 0.7356 0.7380 0.7402 0.7422
1710.383792 0.7442 0.7461 0.7481 0.7500 0.7517
1715.387652 0.7530 0.7541 0.7552 0.7561 0.7567
1720.391511 0.7574 0.7581 0.7588 0.7595 0.7603
1725.395370 0.7614 0.7628 0.7642 0.7658 0.7679
1730.399229 0.7706 0.7733 0.7751 0.7756 0.7762
1735.403088 0.7767 0.7774 0.7783 0.7794 0.7804
1740.406947 0.7814 0.7824 0.7835 0.7845 0.7856
1745.410806 0.7867 0.7877 0.7888 0.7898 0.7908
1750.414666 0.7918 0.7928 0.7938 0.7948 0.7958
1755.418525 0.7967 0.7977 0.7987 0.7996 0.8006
1760.422384 0.8018 0.8032 0.8046 0.8060 0.8073
1765.426243 0.8086 0.8098 0.8111 0.8124 0.8136
1770.430102 0.8148 0.8159 0.8169 0.8178 0.8188
1775.433961 0.8197 0.8206 0.8213 0.8219 0.8226
1780.437820 0.8232 0.8239 0.8246 0.8252 0.8259
1785.441679 0.8265 0.8271 0.8277 0.8282 0.8288
1790.445539 0.8293 0.8299 0.8304 0.8309 0.8313
1795.449398 0.8316 0.8320 0.8323 0.8326 0.8328
1800.453257 0.8331 0.8333 0.8336 0.8338 0.8341
1805.457116 0.8345 0.8348 0.8352 0.8356 0.8360
1810.460975 0.8364 0.8369 0.8373 0.8377 0.8382
1815.464834 0.8387 0.8393 0.8398 0.8402 0.8404
1820.468693 0.8405 0.8406 0.8404 0.8404 0.8408
1825.472553 0.8408 0.8408 0.8408 0.8408 0.8408
1830.476412 0.8408 0.8408 0.8408 0.8406 0.8404
1835.480271 0.8403 0.8401 0.8399 0.8397 0.8395
1840.484130 0.8393 0.8389 0.8385 0.8381 0.8377
1845.487989 0.8373 0.8367 0.8361 0.8354 0.8348
1850.491848 0.8341 0.8335 0.8328 0.8321 0.8317
1855.495707 0.8316 0.8317 0.8317 0.8318 0.8320
1860.499567 0.8321 0.8323 0.8323 0.8323 0.8323
1865.503426 0.8322 0.8320 0.8319 0.8317 0.8316
1870.507285 0.8315 0.8313 0.8309 0.8303 0.8297
1875.511144 0.8291 0.8285 0.8279 0.8271 0.8262
1880.515003 0.8253 0.8244 0.8235 0.8226 0.8220
1885.518862 0.8216 0.8211 0.8207 0.8202 0.8198
1890.522721 0.8195 0.8193 0.8192 0.8191 0.8190
1895.526581 0.8189 0.8188 0.8188 0.8188 0.8188
1900.530440 0.8188 0.8188 0.8188 0.8188 0.8188
1905.534299 0.8188 0.8188 0.8188 0.8189 0.8189
1910.538158 0.8189 0.8190 0.8190 0.8191 0.8191
1915.542017 0.8191 0.8192 0.8192 0.8193 0.8192
1920.545876 0.8192 0.8191 0.8191 0.8191 0.8190
1925.549735 0.8190 0.8190 0.8189 0.8188 0.8188
1930.553595 0.8187 0.8186 0.8185 0.8184 0.8184
1935.557454 0.8183 0.8182 0.8181 0.8181 0.8180
1940.561313 0.8179 0.8178 0.8177 0.8177 0.8176
1945.565172 0.8175 0.8174 0.8174 0.8173 0.8172
1950.569031 0.8170 0.8168 0.8166 0.8164 0.8162
1955.572890 0.8159 0.8157 0.8155 0.8153 0.8151
1960.576749 0.8149 0.8146 0.8144 0.8142 0.8140
1965.580609 0.8138 0.8136 0.8133 0.8131 0.8129
1970.584468 0.8127 0.8125 0.8123 0.8121 0.8119
1975.588327 0.8118 0.8116 0.8115 0.8113 0.8112
1980.592186 0.8110 0.8109 0.8107 0.8106 0.8105
1985.596045 0.8103 0.8101 0.8098 0.8095 0.8092
1990.599904 0.8089 0.8086 0.8083 0.8080 0.8078
1995.603763 0.8075 0.8072 0.8067 0.8061 0.8055
2000.607622 0.8049 0.8043 0.8037 0.8030 0.8021
2005.611482 0.8010 0.7999 0.7989 0.7980 0.7971
2010.615341 0.7966 0.7963 0.7960 0.7959 0.7958
2015.619200 0.7958 0.7957 0.7957 0.7957 0.7956
2020.623059 0.7956 0.7955 0.7954 0.7954 0.7953
2025.626918 0.7952 0.7952 0.7951 0.7951 0.7951
2030.630777 0.7950 0.7950 0.7950 0.7949 0.7948
2035.634636 0.7948 0.7947 0.7946 0.7945 0.7944
2040.638496 0.7943 0.7943 0.7942 0.7940 0.7938
2045.642355 0.7936 0.7934 0.7932 0.7930 0.7928
2050.646214 0.7927 0.7925 0.7924 0.7923 0.7922
2055.650073 0.7921 0.7920 0.7919 0.7917 0.7915
2060.653932 0.7912 0.7909 0.7907 0.7904 0.7901
2065.657791 0.7899 0.7896 0.7893 0.7890 0.7888
2070.661650 0.7885 0.7882 0.7880 0.7877 0.7874
2075.665510 0.7871 0.7869 0.7866 0.7863 0.7861
2080.669369 0.7858 0.7855 0.7853 0.7850 0.7847
2085.673228 0.7844 0.7842 0.7839 0.7836 0.7834
2090.677087 0.7831 0.7828 0.7826 0.7823 0.7820
2095.680946 0.7818 0.7815 0.7812 0.7809 0.7807
2100.684805 0.7804 0.7801 0.7799 0.7796 0.7793
2105.688664 0.7791 0.7788 0.7785 0.7782 0.7780
2110.692524 0.7777 0.7774 0.7772 0.7769 0.7766
2115.696383 0.7764 0.7761 0.7758 0.7755 0.7753
2120.700242 0.7750 0.7747 0.7745 0.7742 0.7739
2125.704101 0.7737 0.7734 0.7731 0.7728 0.7726
2130.707960 0.7723 0.7720 0.7718 0.7715 0.7712
2135.711819 0.7710 0.7707 0.7704 0.7701 0.7699
2140.715678 0.7696 0.7693 0.7691 0.7688 0.7685
2145.719538 0.7683 0.7680 0.7678 0.7677 0.7676
2150.723397 0.7676 0.7675 0.7675 0.7674 0.7674
2155.727256 0.7674 0.7675 0.7675 0.7676 0.7677
2160.731115 0.7678 0.7677 0.7675 0.7673 0.7668
2165.734974 0.7662 0.7656 0.7650 0.7644 0.7638
2170.738833 0.7632 0.7626 0.7619 0.7613 0.7606
2175.742692 0.7599 0.7593 0.7587 0.7581 0.7575
2180.746552 0.7569 0.7563 0.7557 0.7551 0.7545
2185.750411 0.7542 0.7540 0.7539 0.7538 0.7537
2190.754270 0.7537 0.7536 0.7535 0.7534 0.7533
2195.758129 0.7532 0.7532 0.7533 0.7533 0.7534
2200.761988 0.7535 0.7535 0.7536 0.7537 0.7537
2205.765847 0.7538 0.7539 0.7540 0.7540 0.7541
2210.769706 0.7542 0.7542 0.7543 0.7544 0.7545
2215.773565 0.7546 0.7547 0.7548 0.7549 0.7550
2220.777425 0.7551 0.7552 0.7553 0.7554 0.7554
2225.781284 0.7553 0.7552 0.7551 0.7550 0.7549
2230.785143 0.7549 0.7548 0.7547 0.7546 0.7545
2235.789002 0.7544 0.7543 0.7542 0.7540 0.7539
2240.792861 0.7538 0.7536 0.7535 0.7533 0.7532
2245.796720 0.7531 0.7529 0.7528 0.7526 0.7525
2250.800579 0.7523 0.7521 0.7519 0.7517 0.7514
2255.804439 0.7512 0.7509 0.7507 0.7504 0.7502
2260.808298 0.7500 0.7497 0.7494 0.7489 0.7483
2265.812157 0.7477 0.7471 0.7466 0.7460 0.7454
2270.816016 0.7447 0.7440 0.7433 0.7427 0.7420
2275.819875 0.7413 0.7407 0.7400 0.7392 0.7381
2280.823734 0.7370 0.7359 0.7348 0.7336 0.7325
2285.827593 0.7314 0.7303 0.7289 0.7274 0.7258
2290.831453 0.7243 0.7227 0.7212 0.7196 0.7180
2295.835312 0.7169 0.7159 0.7148 0.7137 0.7127
2300.839171 0.7116 0.7105 0.7095 0.7084 0.7075
2305.843030 0.7068 0.7061 0.7054 0.7047 0.7041
2310.846889 0.7034 0.7027 0.7021 0.7017 0.7013
2315.850748 0.7009 0.7005 0.7001 0.6999 0.6998
2320.854607 0.6997 0.6996 0.6995 0.6993 0.6992
2325.858467 0.6991 0.6990 0.6989 0.6988 0.6987
2330.862326 0.6986 0.6984 0.6983 0.6982 0.6981
2335.866185 0.6980 0.6980 0.6980 0.6980 0.6980
2340.870044 0.6981 0.6981 0.6981 0.6981 0.6982
2345.873903 0.6982 0.6982 0.6982 0.6983 0.6983
2350.877762 0.6983 0.6984 0.6984 0.6985 0.6986
2355.881621 0.6987 0.6988 0.6989 0.6990 0.6991
2360.885481 0.6992 0.6992 0.6993 0.6994 0.6995
2365.889340 0.6996 0.6996 0.6997 0.6997 0.6998
2370.893199 0.6998 0.6999 0.6997 0.6993 0.6989
2375.897058 0.6986 0.6982 0.6978 0.6974 0.6968
2380.900917 0.6963 0.6957 0.6952 0.6947 0.6941
2385.904776 0.6936 0.6930 0.6924 0.6917 0.6910
2390.908635 0.6903 0.6896 0.6889 0.6882 0.6875
2395.912495 0.6868 0.6861 0.6855 0.6848 0.6842
2400.916354 0.6835 0.6828 0.6822 0.6815 0.6809
2405.920213 0.6802 0.6796 0.6791 0.6786 0.6782
2410.924072 0.6778 0.6773 0.6769 0.6764 0.6760
2415.927931 0.6756 0.6751 0.6747 0.6743 0.6738
2420.931790 0.6733 0.6729 0.6724 0.6719 0.6714
2425.935649 0.6709 0.6705 0.6700 0.6695 0.6690
2430.939508 0.6685 0.6681 0.6676 0.6671 0.6666
2435.943368 0.6661 0.6657 0.6652 0.6647 0.6642
2440.947227 0.6638 0.6633 0.6628 0.6623 0.6619
2445.951086 0.6615 0.6610 0.6606 0.6601 0.6597
2450.954945 0.6592 0.6588 0.6583 0.6579 0.6574
2455.958804 0.6570 0.6565 0.6561 0.6556 0.6552
2460.962663 0.6548 0.6544 0.6539 0.6535 0.6531
2465.966522 0.6526 0.6522 0.6518 0.6513 0.6509
2470.970382 0.6505 0.6500 0.6495 0.6489 0.6483
2475.974241 0.6477 0.6471 0.6465 0.6459 0.6453
2480.978100 0.6447 0.6441 0.6435 0.6429 0.6423
2485.981959 0.6417 0.6411 0.6405 0.6399 0.6393
2490.985818 0.6386 0.6379 0.6373 0.6366 0.6359
2495.989677 0.6352 0.6346 0.6339 0.6332 0.6325
2500.993536 0.6318 0.6312 0.6305 0.6298 0.6291
2505.997396 0.6285 0.6278 0.6271 0.6264 0.6258
2511.001255 0.6251 0.6244 0.6237 0.6232 0.6226
2516.005114 0.6221 0.6216 0.6211 0.6206 0.6200
2521.008973 0.6195 0.6190 0.6185 0.6179 0.6174
2526.012832 0.6169 0.6164 0.6158 0.6152 0.6146
2531.016691 0.6141 0.6135 0.6129 0.6123 0.6117
2536.020550 0.6111 0.6106 0.6100 0.6094 0.6087
2541.024410 0.6080 0.6072 0.6065 0.6058 0.6050
2546.028269 0.6043 0.6036 0.6028 0.6021 0.6013
2551.032128 0.6006 0.5999 0.5991 0.5984 0.5976
2556.035987 0.5969 0.5961 0.5953 0.5946 0.5938
2561.039846 0.5931 0.5923 0.5915 0.5908 0.5900
2566.043705 0.5891 0.5882 0.5874 0.5865 0.5856
2571.047564 0.5848 0.5839 0.5830 0.5822 0.5813
2576.051424 0.5803 0.5792 0.5782 0.5772 0.5762
2581.055283 0.5751 0.5741 0.5731 0.5720 0.5710
2586.059142 0.5700 0.5690 0.5680 0.5670 0.5660
2591.063001 0.5651 0.5641 0.5631 0.5621 0.5611
2596.066860 0.5601 0.5592 0.5583 0.5575 0.5566
2601.070719 0.5557 0.5548 0.5539 0.5530 0.5521
2606.074578 0.5513 0.5504 0.5495 0.5486 0.5479
2611.078437 0.5473 0.5466 0.5459 0.5453 0.5446
2616.082297 0.5439 0.5433 0.5426 0.5419 0.5412
2621.086156 0.5406 0.5400 0.5395 0.5391 0.5388
2626.090015 0.5384 0.5380 0.5377 0.5373 0.5369
2631.093874 0.5361 0.5351 0.5341 0.5331 0.5322
2636.097733 0.5311 0.5301 0.5290 0.5279 0.5269
2641.101592 0.5260 0.5254 0.5248 0.5242 0.5236
2646.105451 0.5230 0.5224 0.5219 0.5215 0.5210
2651.109311 0.5205 0.5201 0.5196 0.5191 0.5186
2656.113170 0.5180 0.5175 0.5169 0.5164 0.5158
2661.117029 0.5153 0.5147 0.5142 0.5136 0.5131
2666.120888 0.5125 0.5120 0.5115 0.5111 0.5106
2671.124747 0.5101 0.5097 0.5092 0.5087 0.5083
2676.128606 0.5078 0.5074 0.5069 0.5065 0.5060
2681.132465 0.5056 0.5051 0.5046 0.5041 0.5036
2686.136325 0.5032 0.5027 0.5022 0.5017 0.5012
2691.140184 0.5007 0.5003 0.4998 0.4993 0.4989
2696.144043 0.4987 0.4985 0.4983 0.4981 0.4978
2701.147902 0.4976 0.4974 0.4972 0.4970 0.4968
2706.151761 0.4966 0.4964 0.4962 0.4961 0.4959
2711.155620 0.4958 0.4957 0.4955 0.4954 0.4952
2716.159479 0.4951 0.4950 0.4948 0.4945 0.4941
2721.163339 0.4936 0.4932 0.4927 0.4923 0.4919
2726.167198 0.4913 0.4906 0.4900 0.4894 0.4887
2731.171057 0.4881 0.4875 0.4868 0.4862 0.4855
2736.174916 0.4849 0.4843 0.4836 0.4830 0.4824
2741.178775 0.4816 0.4809 0.4801 0.4793 0.4785
2746.182634 0.4777 0.4769 0.4762 0.4754 0.4746
2751.186493 0.4738 0.4729 0.4722 0.4714 0.4706
2756.190353 0.4698 0.4690 0.4682 0.4674 0.4666
2761.194212 0.4657 0.4649 0.4641 0.4633 0.4625
2766.198071 0.4617 0.4607 0.4597 0.4588 0.4578
2771.201930 0.4568 0.4559 0.4549 0.4539 0.4530
2776.205789 0.4520 0.4510 0.4501 0.4491 0.4481
2781.209648 0.4470 0.4459 0.4448 0.4436 0.4425
2786.213507 0.4414 0.4403 0.4392 0.4381 0.4370
2791.217367 0.4359 0.4348 0.4339 0.4330 0.4321
2796.221226 0.4312 0.4302 0.4293 0.4284 0.4275
2801.225085 0.4266 0.4257 0.4248 0.4239 0.4230
2806.228944 0.4222 0.4213 0.4204 0.4195 0.4186
2811.232803 0.4179 0.4173 0.4167 0.4161 0.4155
2816.236662 0.4149 0.4143 0.4137 0.4131 0.4125
2821.240521 0.4121 0.4117 0.4113 0.4108 0.4104
2826.244380 0.4100 0.4096 0.4091 0.4087 0.4084
2831.248240 0.4083 0.4082 0.4081 0.4080 0.4079
2836.252099 0.4078 0.4077 0.4076 0.4075 0.4074
2841.255958 0.4073 0.4073 0.4073 0.4072 0.4072
2846.259817 0.4072 0.4072 0.4071 0.4071 0.4071
2851.263676 0.4069 0.4065 0.4062 0.4058 0.4054
2856.267535 0.4051 0.4045 0.4039 0.4033 0.4027
2861.271394 0.4021 0.4015 0.4010 0.4004 0.3998
2866.275254 0.3993 0.3989 0.3985 0.3981 0.3977
2871.279113 0.3973 0.3968 0.3964 0.3960 0.3958
2876.282972 0.3957 0.3955 0.3954 0.3953 0.3951
2881.286831 0.3950 0.3948 0.3947 0.3952 0.3961
2886.290690 0.3947 0.3948 0.3948 0.3949 0.3950
2891.294549 0.3950 0.3951 0.3952 0.3952 0.3953
2896.298408 0.3955 0.3959 0.3963 0.3968 0.3972
2901.302268 0.3977 0.3985 0.3993 0.4000 0.4009
2906.306127 0.4018 0.4028 0.4038 0.4048 0.4059
2911.309986 0.4069 0.4079 0.4090 0.4100 0.4111
2916.313845 0.4121 0.4132 0.4143 0.4152 0.4162
2921.317704 0.4171 0.4181 0.4190 0.4198 0.4206
2926.321563 0.4214 0.4221 0.4229 0.4236 0.4244
2931.325422 0.4251 0.4257 0.4263 0.4269 0.4275
2936.329282 0.4279 0.4282 0.4284 0.4287 0.4290
2941.333141 0.4291 0.4291 0.4297 0.4303 0.4291
2946.337000 0.4291 0.4290 0.4288 0.4286 0.4284
2951.340859 0.4281 0.4279 0.4277 0.4273 0.4270
2956.344718 0.4266 0.4262 0.4259 0.4254 0.4247
2961.348577 0.4240 0.4233 0.4224 0.4211 0.4199
2966.352436 0.4186 0.4174 0.4161 0.4149 0.4136
2971.356296 0.4123 0.4109 0.4096 0.4083 0.4070
2976.360155 0.4056 0.4043 0.4030 0.4017 0.4003
2981.364014 0.3990 0.3976 0.3963 0.3950 0.3936
2986.367873 0.3924 0.3912 0.3899 0.3887 0.3875
2991.371732 0.3863 0.3850 0.3838 0.3825 0.3812
2996.375591 0.3800 0.3787 0.3777 0.3768 0.3758
3001.379450 0.3749 0.3739 0.3730 0.3720 0.3711
3006.383310 0.3700 0.3689 0.3678 0.3667 0.3656
3011.387169 0.3645 0.3634 0.3623 0.3612 0.3601
3016.391028 0.3590 0.3580 0.3570 0.3559 0.3549
3021.394887 0.3539 0.3528 0.3518 0.3506 0.3494
3026.398746 0.3482 0.3470 0.3458 0.3446 0.3434
3031.402605 0.3422 0.3410 0.3397 0.3385 0.3372
3036.406464 0.3359 0.3346 0.3334 0.3321 0.3308
3041.410323 0.3295 0.3282 0.3270 0.3257 0.3244
3046.414183 0.3231 0.3220 0.3209 0.3198 0.3187
3051.418042 0.3176 0.3164 0.3153 0.3142 0.3131
3056.421901 0.3120 0.3109 0.3096 0.3083 0.3071
3061.425760 0.3058 0.3045 0.3033 0.3020 0.3008
3066.429619 0.2995 0.2982 0.2970 0.2957 0.2944
3071.433478 0.2932 0.2921 0.2911 0.2902 0.2893
3076.437337 0.2884 0.2874 0.2865 0.2856 0.2847
3081.441197 0.2838 0.2828 0.2819 0.2810 0.2801
3086.445056 0.2791 0.2783 0.2776 0.2770 0.2764
3091.448915 0.2757 0.2751 0.2745 0.2738 0.2732
3096.452774 0.2726 0.2719 0.2713 0.2707 0.2700
3101.456633 0.2694 0.2688 0.2681 0.2675 0.2669
3106.460492 0.2662 0.2656 0.2650 0.2643 0.2637
3111.464351 0.2631 0.2625 0.2618 0.2612 0.2606
3116.468211 0.2599 0.2592 0.2584 0.2577 0.2569
3121.472070 0.2562 0.2554 0.2547 0.2539 0.2531
3126.475929 0.2522 0.2513 0.2504 0.2496 0.2487
3131.479788 0.2478 0.2469 0.2460 0.2451 0.2442
3136.483647 0.2434 0.2427 0.2419 0.2412 0.2404
3141.487506 0.2397 0.2392 0.2387 0.2382 0.2376
3146.491365 0.2371 0.2369 0.2375 0.2375 0.2366
3151.495225 0.2364 0.2364 0.2362 0.2361 0.2359
3156.499084 0.2359 0.2359 0.2359 0.2361 0.2362
3161.502943 0.2362 0.2364 0.2364 0.2365 0.2366
3166.506802 0.2367 0.2368 0.2369 0.2370 0.2370
3171.510661 0.2371 0.2372 0.2373 0.2374 0.2375
3176.514520 0.2376 0.2377 0.2378 0.2379 0.2380
3181.518379 0.2381 0.2382 0.2383 0.2384 0.2385
3186.522239 0.2386 0.2387 0.2388 0.2389 0.2389
3191.526098 0.2390 0.2390 0.2390 0.2391 0.2391
3196.529957 0.2391 0.2392 0.2392 0.2392 0.2393
3201.533816 0.2393 0.2393 0.2393 0.2393 0.2393
3206.537675 0.2393 0.2393 0.2393 0.2393 0.2393
3211.541534 0.2393 0.2394 0.2394 0.2394 0.2394
3216.545393 0.2394 0.2394 0.2394 0.2402 0.2400
3221.549253 0.2394 0.2394 0.2394 0.2394 0.2394
3226.553112 0.2394 0.2394 0.2394 0.2394 0.2392
3231.556971 0.2388 0.2384 0.2380 0.2376 0.2371
3236.560830 0.2366 0.2360 0.2354 0.2348 0.2342
3241.564689 0.2336 0.2330 0.2323 0.2315 0.2308
3246.568548 0.2300 0.2292 0.2284 0.2276 0.2269
3251.572407 0.2261 0.2253 0.2245 0.2237 0.2229
3256.576266 0.2220 0.2212 0.2203 0.2195 0.2186
3261.580126 0.2178 0.2169 0.2160 0.2151 0.2141
3266.583985 0.2132 0.2122 0.2112 0.2103 0.2093
3271.587844 0.2083 0.2074 0.2064 0.2054 0.2045
3276.591703 0.2035 0.2026 0.2017 0.2010 0.2002
3281.595562 0.1995 0.1987 0.1980 0.1972 0.1965
3286.599421 0.1957 0.1950 0.1943 0.1938 0.1934
3291.603280 0.1930 0.1925 0.1921 0.1917 0.1912
3296.607140 0.1908 0.1904 0.1901 0.1898 0.1895
3301.610999 0.1892 0.1890 0.1887 0.1884 0.1881
3306.614858 0.1879 0.1880 0.1880 0.1880 0.1881
3311.618717 0.1891 0.1887 0.1882 0.1882 0.1883
3316.622576 0.1883 0.1884 0.1885 0.1888 0.1890
3321.626435 0.1893 0.1895 0.1897 0.1900 0.1902
3326.630294 0.1904 0.1907 0.1909 0.1911 0.1912
3331.634154 0.1914 0.1915 0.1917 0.1918 0.1922
3336.638013 0.1928 0.1938 0.1949 0.1957 0.1961
3341.641872 0.1963 0.1964 0.1965 0.1966 0.1967
3346.645731 0.1969 0.1971 0.1973 0.1975 0.1977
3351.649590 0.1979 0.1982 0.1984 0.1987 0.1990
3356.653449 0.1993 0.1996 0.1999 0.2003 0.2006
3361.657308 0.2010 0.2013 0.2016 0.2020 0.2026
3366.661168 0.2031 0.2037 0.2043 0.2050 0.2057
3371.665027 0.2064 0.2071 0.2078 0.2085 0.2090
3376.668886 0.2095 0.2100 0.2105 0.2110 0.2115
3381.672745 0.2120 0.2125 0.2130 0.2135 0.2140
3386.676604 0.2144 0.2148 0.2153 0.2159 0.2166
3391.680463 0.2172 0.2179 0.2185 0.2191 0.2196
3396.684322 0.2200 0.2204 0.2208 0.2212 0.2216
3401.688182 0.2220 0.2225 0.2230 0.2235 0.2240
3406.692041 0.2245 0.2250 0.2257 0.2263 0.2270
3411.695900 0.2276 0.2284 0.2292 0.2302 0.2311
3416.699759 0.2321 0.2330 0.2340 0.2351 0.2364
3421.703618 0.2376 0.2389 0.2401 0.2414 0.2426
3426.707477 0.2439 0.2452 0.2468 0.2485 0.2502
3431.711336 0.2518 0.2535 0.2552 0.2571 0.2593
3436.715196 0.2615 0.2636 0.2658 0.2680 0.2701
3441.719055 0.2723 0.2745 0.2766 0.2789 0.2814
3446.722914 0.2839 0.2864 0.2890 0.2915 0.2940
3451.726773 0.2966 0.2991 0.3017 0.3043 0.3069
3456.730632 0.3095 0.3121 0.3147 0.3174 0.3200
3461.734491 0.3226 0.3252 0.3286 0.3322 0.3360
3466.738350 0.3397 0.3434 0.3472 0.3509 0.3549
3471.742209 0.3591 0.3633 0.3676 0.3718 0.3753
3476.746069 0.3786 0.3819 0.3852 0.3886 0.3919
3481.749928 0.3952 0.3989 0.4033 0.4079 0.4125
3486.753787 0.4171 0.4217 0.4262 0.4301 0.4334
3491.757646 0.4366 0.4398 0.4431 0.4463 0.4495
3496.761505 0.4528 0.4560 0.4592 0.4627 0.4664
3501.765364 0.4702 0.4740 0.4778 0.4815 0.4854
3506.769223 0.4901 0.4951 0.4979 0.4999 0.5020
3511.773083 0.5040 0.5060 0.5080 0.5103 0.5125
3516.776942 0.5148 0.5171 0.5193 0.5216 0.5254
3521.780801 0.5298 0.5343 0.5387 0.5428 0.5470
3526.784660 0.5511 0.5553 0.5593 0.5628 0.5663
3531.788519 0.5697 0.5731 0.5766 0.5800 0.5836
3536.792378 0.5872 0.5909 0.5945 0.5982 0.6019
3541.796237 0.6056 0.6094 0.6135 0.6176 0.6218
3546.800097 0.6259 0.6300 0.6342 0.6383 0.6422
3551.803956 0.6456 0.6488 0.6521 0.6554 0.6587
3556.807815 0.6620 0.6652 0.6681 0.6708 0.6734
3561.811674 0.6760 0.6786 0.6812 0.6838 0.6864
3566.815533 0.6890 0.6916 0.6945 0.6975 0.7004
3571.819392 0.7034 0.7063 0.7093 0.7122 0.7152
3576.823251 0.7181 0.7210 0.7240 0.7269 0.7298
3581.827111 0.7328 0.7355 0.7382 0.7409 0.7436
3586.830970 0.7463 0.7490 0.7517 0.7539 0.7556
3591.834829 0.7572 0.7589 0.7606 0.7623 0.7640
3596.838688 0.7656 0.7673 0.7687 0.7700 0.7713
3601.842547 0.7726 0.7739 0.7753 0.7765 0.7777
3606.846406 0.7789 0.7801 0.7814 0.7826 0.7838
3611.850265 0.7849 0.7859 0.7870 0.7880 0.7891
3616.854125 0.7902 0.7912 0.7921 0.7925 0.7930
3621.857984 0.7934 0.7938 0.7943 0.7947 0.7951
3626.861843 0.7955 0.7959 0.7962 0.7966 0.7969
3631.865702 0.7973 0.7976 0.7979 0.7983 0.7986
3636.869561 0.7988 0.7990 0.7991 0.7993 0.7995
3641.873420 0.8012 0.8000 0.7999 0.8001 0.8002
3646.877279 0.8002 0.8003 0.8003 0.8004 0.8005
3651.881139 0.8005 0.8006 0.8006 0.8007 0.8007
3656.884998 0.8008 0.8009 0.8009 0.8009 0.8010
3661.888857 0.8010 0.8010 0.8011 0.8011 0.8011
3666.892716 0.8011 0.8012 0.8012 0.8012 0.8013
3671.896575 0.8013 0.8014 0.8014 0.8015 0.8015
3676.900434 0.8016 0.8017 0.8017 0.8018 0.8018
3681.904293 0.8019 0.8019 0.8020 0.8020 0.8021
3686.908152 0.8022 0.8022 0.8023 0.8023 0.8024
3691.912012 0.8024 0.8025 0.8025 0.8025 0.8025
3696.915871 0.8026 0.8026 0.8026 0.8026 0.8026
3701.919730 0.8027 0.8027 0.8027 0.8027 0.8027
3706.923589 0.8028 0.8028 0.8028 0.8028 0.8029
3711.927448 0.8029 0.8029 0.8029 0.8029 0.8029
3716.931307 0.8029 0.8028 0.8028 0.8028 0.8027
3721.935166 0.8027 0.8027 0.8027 0.8026 0.8026
3726.939026 0.8026 0.8025 0.8025 0.8025 0.8024
3731.942885 0.8024 0.8024 0.8024 0.8023 0.8023
3736.946744 0.8022 0.8021 0.8019 0.8018 0.8017
3741.950603 0.8016 0.8015 0.8013 0.8012 0.8011
3746.954462 0.8010 0.8009 0.8008 0.8006 0.8005
3751.958321 0.8004 0.8003 0.8002 0.8001 0.7999
3756.962180 0.7998 0.7995 0.7993 0.7991 0.7988
3761.966040 0.7986 0.7984 0.7981 0.7979 0.7977
3766.969899 0.7975 0.7972 0.7970 0.7968 0.7965
3771.973758 0.7963 0.7961 0.7957 0.7953 0.7949
3776.977617 0.7945 0.7941 0.7937 0.7933 0.7929
3781.981476 0.7925 0.7921 0.7919 0.7917 0.7915
3786.985335 0.7913 0.7911 0.7909 0.7907 0.7905
3791.989194 0.7903 0.7901 0.7899 0.7897 0.7896
3796.993054 0.7894 0.7892 0.7890 0.7888 0.7886
3801.996913 0.7884 0.7882 0.7880 0.7878
##END=
