##TITLE=p,p'-DI-ISO-OCTYLDIPHENYLAMINE HYDROCHLORIDE
##JCAMP-DX=4.24
##DATA TYPE=INFRARED SPECTRUM
##CLASS=COBLENTZ III
##ORIGIN=BRITISH PETROLEUM CO. LTD., ENGLAND
##OWNER=Copyright (C) 1987 by the Coblentz Society
Collection (C) 2018 copyright by the U.S. Secretary of Commerce
on behalf of the United States of America. All rights reserved.
##DATE=1972/06/02
##NAMES=4-(6-methylheptyl)-N-[4-(6-methylheptyl)phenyl]aniline hydrochloride
Diphenylamine, 4,4'-diisooctyl-, hydrochloride
##MOLFORM=C28 H44 Cl N
##SOURCE REFERENCE=COBLENTZ NO. 9383
##$NIST ID=B6009383
##$NIST SOURCE=COBLENTZ
##$NIST IMAGE=cob9383
##SPECTROMETER/DATA SYSTEM=PERKIN-ELMER 157
##STATE=SOLID (KBr DISC, 0.9% WT.)
$$ HCl RUN IN KBr MAY CONTAIN SOME HBr
$$ REF. Can. J. Spec., 18,4,101, '73 C. S. DOUSE and P. B. TOOKE
##SAMPLING PROCEDURE=TRANSMISSION
##RESOLUTION=2
##DATA PROCESSING=DIGITIZED BY COBLENTZ SOCIETY (BATCH II) FROM HARD COPY
##XUNITS=1/CM
##YUNITS=TRANSMITTANCE
##XFACTOR=1.0
##YFACTOR=1
##FIRSTX=668
##LASTX=4000
##FIRSTY=0.3667
##MAXX=4000
##MINX=668
##MAXY=0.7433
##MINY=0.0326
##NPOINTS=3333
##XYDATA=(X++(Y..Y))
668.000000 0.3667 0.3615 0.3584 0.3587 0.3561
673.000000 0.3641 0.3817 0.4039 0.4583 0.4957
678.000000 0.5271 0.5583 0.5903 0.6157 0.6247
683.000000 0.6288 0.6301 0.6304 0.6307 0.6314
688.000000 0.6312 0.6309 0.6367 0.6487 0.6602
693.000000 0.6729 0.6828 0.6892 0.6919 0.6947
698.000000 0.7041 0.7076 0.7079 0.7102 0.7154
703.000000 0.7221 0.7288 0.7359 0.7409 0.7422
708.000000 0.7429 0.7433 0.7432 0.7428 0.7420
713.000000 0.7408 0.7377 0.7330 0.7270 0.7179
718.000000 0.7065 0.6949 0.6831 0.6697 0.6563
723.000000 0.6430 0.6298 0.6165 0.6020 0.5982
728.000000 0.6027 0.6043 0.6133 0.6327 0.6429
733.000000 0.6487 0.6498 0.6497 0.6475 0.6428
738.000000 0.6382 0.6351 0.6340 0.6334 0.6335
743.000000 0.6278 0.6125 0.6081 0.6067 0.6038
748.000000 0.5987 0.5929 0.5885 0.5861 0.5863
753.000000 0.5961 0.6177 0.6391 0.6605 0.6819
758.000000 0.7032 0.7095 0.7163 0.7345 0.7391
763.000000 0.7403 0.7407 0.7410 0.7403 0.7405
768.000000 0.7400 0.7390 0.7371 0.7321 0.7260
773.000000 0.7203 0.7153 0.7124 0.7115 0.7108
778.000000 0.7104 0.7099 0.7083 0.7042 0.6950
783.000000 0.6827 0.6716 0.6569 0.6392 0.6222
788.000000 0.5960 0.5710 0.5196 0.4850 0.4576
793.000000 0.3697 0.2808 0.2114 0.1909 0.1904
798.000000 0.2083 0.2608 0.3134 0.3656 0.4173
803.000000 0.4302 0.4371 0.4392 0.4384 0.4314
808.000000 0.4077 0.3877 0.3703 0.3400 0.3115
813.000000 0.2942 0.2786 0.2557 0.2290 0.2058
818.000000 0.1672 0.1111 0.0917 0.0829 0.0801
823.000000 0.0800 0.0795 0.0863 0.0935 0.0998
828.000000 0.1052 0.1082 0.1097 0.1108 0.1210
833.000000 0.1357 0.1470 0.1561 0.1657 0.1816
838.000000 0.2274 0.2778 0.3272 0.3502 0.3794
843.000000 0.3960 0.4091 0.4223 0.4363 0.4469
848.000000 0.4533 0.4600 0.4669 0.4750 0.4790
853.000000 0.4822 0.4819 0.4812 0.4805 0.4797
858.000000 0.4807 0.4849 0.4937 0.5011 0.5080
863.000000 0.5118 0.5126 0.5131 0.5144 0.5205
868.000000 0.5313 0.5485 0.5788 0.5950 0.6028
873.000000 0.6065 0.6096 0.6292 0.6499 0.6570
878.000000 0.6594 0.6599 0.6594 0.6584 0.6558
883.000000 0.6546 0.6545 0.6546 0.6553 0.6567
888.000000 0.6596 0.6615 0.6630 0.6732 0.6809
893.000000 0.6889 0.6945 0.6964 0.6969 0.6961
898.000000 0.6970 0.6960 0.6948 0.6930 0.6909
903.000000 0.6880 0.6850 0.6807 0.6749 0.6678
908.000000 0.6591 0.6404 0.6270 0.6173 0.6096
913.000000 0.6066 0.6044 0.6025 0.6004 0.5959
918.000000 0.5822 0.5628 0.5436 0.5244 0.5094
923.000000 0.5064 0.5088 0.5254 0.5519 0.5784
928.000000 0.6031 0.6080 0.6101 0.6117 0.6064
933.000000 0.6043 0.6017 0.5988 0.5946 0.5892
938.000000 0.5837 0.5782 0.5701 0.5705 0.5717
943.000000 0.5749 0.5833 0.5984 0.6079 0.6106
948.000000 0.6136 0.6255 0.6303 0.6324 0.6344
953.000000 0.6356 0.6360 0.6361 0.6384 0.6354
958.000000 0.6345 0.6328 0.6305 0.6274 0.6229
963.000000 0.6170 0.6098 0.6019 0.5944 0.5853
968.000000 0.5760 0.5682 0.5554 0.5405 0.5258
973.000000 0.5107 0.4989 0.4837 0.4610 0.4384
978.000000 0.4320 0.4318 0.4433 0.4674 0.4916
983.000000 0.5157 0.5317 0.5584 0.5816 0.6115
988.000000 0.6207 0.6280 0.6339 0.6384 0.6403
993.000000 0.6412 0.6420 0.6423 0.6412 0.6423
998.000000 0.6421 0.6416 0.6408 0.6373 0.6329
1003.000000 0.6263 0.6172 0.6077 0.5952 0.5807
1008.000000 0.5608 0.5405 0.5140 0.4718 0.4383
1013.000000 0.4084 0.3779 0.3227 0.2652 0.2078
1018.000000 0.1505 0.1306 0.1310 0.1304 0.2391
1023.000000 0.3229 0.4066 0.4386 0.4676 0.5081
1028.000000 0.5283 0.5338 0.5433 0.5565 0.5783
1033.000000 0.6105 0.6255 0.6373 0.6434 0.6503
1038.000000 0.6744 0.6794 0.6804 0.6808 0.6812
1043.000000 0.6816 0.6819 0.6820 0.6819 0.6824
1048.000000 0.6817 0.6816 0.6814 0.6812 0.6798
1053.000000 0.6778 0.6751 0.6728 0.6711 0.6698
1058.000000 0.6694 0.6695 0.6696 0.6699 0.6702
1063.000000 0.6706 0.6709 0.6709 0.6704 0.6695
1068.000000 0.6685 0.6674 0.6661 0.6640 0.6599
1073.000000 0.6564 0.6528 0.6492 0.6452 0.6418
1078.000000 0.6389 0.6361 0.6329 0.6293 0.6258
1083.000000 0.6219 0.6178 0.6130 0.6067 0.5975
1088.000000 0.5777 0.5572 0.5124 0.4678 0.4233
1093.000000 0.3789 0.3356 0.3282 0.3278 0.3261
1098.000000 0.3898 0.4272 0.4645 0.5018 0.5355
1103.000000 0.5441 0.5465 0.5466 0.5457 0.5428
1108.000000 0.5328 0.5264 0.5187 0.5161 0.5159
1113.000000 0.5145 0.5251 0.5389 0.5527 0.5693
1118.000000 0.5780 0.5822 0.5839 0.5843 0.5850
1123.000000 0.5822 0.5774 0.5653 0.5498 0.5290
1128.000000 0.5082 0.4874 0.4668 0.4488 0.4409
1133.000000 0.4387 0.4413 0.4506 0.4658 0.4836
1138.000000 0.5013 0.5188 0.5331 0.5392 0.5447
1143.000000 0.5509 0.5604 0.5753 0.5830 0.5858
1148.000000 0.5882 0.5865 0.5860 0.5841 0.5816
1153.000000 0.5783 0.5738 0.5683 0.5614 0.5534
1158.000000 0.5451 0.5369 0.5047 0.4781 0.4583
1163.000000 0.4370 0.4155 0.3943 0.3729 0.3517
1168.000000 0.3336 0.3298 0.3292 0.3292 0.3298
1173.000000 0.3360 0.3437 0.3513 0.3590 0.3666
1178.000000 0.3736 0.3762 0.3749 0.3740 0.3711
1183.000000 0.3635 0.3498 0.3390 0.3217 0.3041
1188.000000 0.2867 0.2692 0.2518 0.2343 0.2234
1193.000000 0.2224 0.2438 0.2583 0.2729 0.2874
1198.000000 0.2936 0.2894 0.2778 0.2659 0.2541
1203.000000 0.2423 0.2357 0.2332 0.2320 0.2364
1208.000000 0.2444 0.2485 0.2523 0.2542 0.2698
1213.000000 0.3011 0.3323 0.3635 0.4037 0.4117
1218.000000 0.4154 0.4173 0.4190 0.4201 0.4210
1223.000000 0.4197 0.4155 0.4053 0.3929 0.3805
1228.000000 0.3681 0.3558 0.3435 0.3311 0.3188
1233.000000 0.3144 0.3075 0.2912 0.2750 0.2587
1238.000000 0.2426 0.2264 0.2102 0.1951 0.1815
1243.000000 0.1420 0.1241 0.1136 0.1060 0.1029
1248.000000 0.1022 0.1022 0.1024 0.1007 0.1040
1253.000000 0.1059 0.1159 0.1253 0.1500 0.2095
1258.000000 0.2712 0.3324 0.3398 0.3488 0.3625
1263.000000 0.4053 0.4170 0.4287 0.4456 0.4522
1268.000000 0.4566 0.4596 0.4605 0.4608 0.4607
1273.000000 0.4603 0.4591 0.4573 0.4547 0.4511
1278.000000 0.4478 0.4443 0.4354 0.4224 0.4090
1283.000000 0.3958 0.3826 0.3694 0.3563 0.3431
1288.000000 0.3300 0.3253 0.3182 0.3146 0.3115
1293.000000 0.3091 0.3026 0.2802 0.2590 0.2504
1298.000000 0.2440 0.2386 0.2332 0.2283 0.2237
1303.000000 0.2198 0.2117 0.1990 0.1881 0.1767
1308.000000 0.1635 0.1542 0.1468 0.1402 0.1341
1313.000000 0.1285 0.1254 0.1231 0.1218 0.1206
1318.000000 0.1193 0.1180 0.1161 0.1109 0.1061
1323.000000 0.1056 0.1058 0.1048 0.1075 0.1100
1328.000000 0.1187 0.1280 0.1374 0.1468 0.1561
1333.000000 0.1654 0.1746 0.1840 0.1933 0.2023
1338.000000 0.2070 0.2080 0.2090 0.2101 0.2139
1343.000000 0.2197 0.2264 0.2380 0.2663 0.2863
1348.000000 0.2922 0.2945 0.2954 0.2961 0.2963
1353.000000 0.2854 0.2960 0.2385 0.2151 0.1917
1358.000000 0.1684 0.1451 0.1218 0.0986 0.0754
1363.000000 0.0525 0.0492 0.0483 0.0499 0.0709
1368.000000 0.0987 0.1264 0.1541 0.1818 0.2095
1373.000000 0.2371 0.2646 0.2908 0.2943 0.2950
1378.000000 0.2853 0.2646 0.2428 0.2209 0.1990
1383.000000 0.1772 0.1554 0.1337 0.1156 0.1082
1388.000000 0.1056 0.1045 0.1045 0.1047 0.1051
1393.000000 0.1064 0.1080 0.1110 0.1218 0.1404
1398.000000 0.1589 0.1775 0.1961 0.2122 0.2195
1403.000000 0.2254 0.2341 0.2375 0.2396 0.2416
1408.000000 0.2405 0.2401 0.2389 0.2374 0.2361
1413.000000 0.2346 0.2330 0.2302 0.2226 0.2117
1418.000000 0.2008 0.1903 0.1834 0.1785 0.1744
1423.000000 0.1703 0.1658 0.1614 0.1572 0.1535
1428.000000 0.1503 0.1477 0.1459 0.1448 0.1437
1433.000000 0.1431 0.1426 0.1421 0.1417 0.1415
1438.000000 0.1413 0.1405 0.1377 0.1342 0.1302
1443.000000 0.1262 0.1225 0.1191 0.1155 0.1104
1448.000000 0.1050 0.1000 0.0951 0.0902 0.0853
1453.000000 0.0804 0.0756 0.0709 0.0669 0.0634
1458.000000 0.0602 0.0574 0.0550 0.0530 0.0513
1463.000000 0.0508 0.0504 0.0505 0.0506 0.0508
1468.000000 0.0511 0.0518 0.0527 0.0544 0.0566
1473.000000 0.0578 0.0582 0.0585 0.0586 0.0586
1478.000000 0.0587 0.0591 0.0609 0.0649 0.0688
1483.000000 0.0720 0.0755 0.0819 0.0962 0.1115
1488.000000 0.1180 0.1212 0.1231 0.1245 0.1255
1493.000000 0.1266 0.1206 0.1136 0.1066 0.0997
1498.000000 0.0927 0.0858 0.0789 0.0719 0.0650
1503.000000 0.0581 0.0512 0.0456 0.0424 0.0399
1508.000000 0.0391 0.0393 0.0394 0.0400 0.0409
1513.000000 0.0419 0.0432 0.0451 0.0486 0.0535
1518.000000 0.0591 0.0648 0.0705 0.0762 0.0811
1523.000000 0.0844 0.0863 0.0877 0.0891 0.0907
1528.000000 0.0923 0.0969 0.1013 0.1167 0.1374
1533.000000 0.1637 0.1783 0.1929 0.2075 0.2220
1538.000000 0.2366 0.2511 0.2657 0.2801 0.2946
1543.000000 0.3090 0.3206 0.3235 0.3244 0.3248
1548.000000 0.3252 0.3256 0.3264 0.3304 0.3414
1553.000000 0.3524 0.3634 0.3743 0.3853 0.3956
1558.000000 0.4035 0.4110 0.4187 0.4227 0.4241
1563.000000 0.4248 0.4253 0.4257 0.4261 0.4261
1568.000000 0.4253 0.4260 0.4258 0.4256 0.4253
1573.000000 0.4249 0.4243 0.4237 0.4229 0.4221
1578.000000 0.4213 0.4205 0.4198 0.4188 0.4179
1583.000000 0.4170 0.4160 0.4138 0.4017 0.3857
1588.000000 0.3697 0.3537 0.3378 0.3219 0.3060
1593.000000 0.2901 0.2743 0.2585 0.2426 0.2269
1598.000000 0.2111 0.1954 0.1797 0.1640 0.1483
1603.000000 0.1326 0.1183 0.1082 0.1027 0.0992
1608.000000 0.0972 0.0961 0.0958 0.0959 0.0962
1613.000000 0.1002 0.1277 0.1551 0.1824 0.2098
1618.000000 0.2371 0.2644 0.2916 0.3189 0.3461
1623.000000 0.3732 0.3924 0.4029 0.4102 0.4264
1628.000000 0.4453 0.4516 0.4573 0.4627 0.4678
1633.000000 0.4727 0.4774 0.4821 0.4867 0.4910
1638.000000 0.4954 0.4997 0.5052 0.5116 0.5178
1643.000000 0.5229 0.5268 0.5302 0.5336 0.5367
1648.000000 0.5392 0.5417 0.5441 0.5465 0.5484
1653.000000 0.5503 0.5522 0.5541 0.5562 0.5585
1658.000000 0.5607 0.5631 0.5658 0.5686 0.5711
1663.000000 0.5736 0.5761 0.5784 0.5807 0.5830
1668.000000 0.5853 0.5877 0.5905 0.5935 0.5951
1673.000000 0.5962 0.5972 0.5983 0.5994 0.6006
1678.000000 0.6018 0.6032 0.6055 0.6075 0.6088
1683.000000 0.6099 0.6109 0.6117 0.6123 0.6128
1688.000000 0.6132 0.6136 0.6139 0.6145 0.6154
1693.000000 0.6167 0.6179 0.6186 0.6190 0.6195
1698.000000 0.6199 0.6202 0.6203 0.6204 0.6206
1703.000000 0.6208 0.6208 0.6208 0.6207 0.6206
1708.000000 0.6205 0.6204 0.6199 0.6195 0.6185
1713.000000 0.6176 0.6168 0.6161 0.6154 0.6152
1718.000000 0.6150 0.6148 0.6148 0.6149 0.6150
1723.000000 0.6151 0.6151 0.6152 0.6153 0.6153
1728.000000 0.6153 0.6151 0.6141 0.6132 0.6124
1733.000000 0.6115 0.6106 0.6098 0.6089 0.6082
1738.000000 0.6075 0.6068 0.6062 0.6056 0.6051
1743.000000 0.6047 0.6042 0.6038 0.6034 0.6032
1748.000000 0.6029 0.6027 0.6025 0.6023 0.6022
1753.000000 0.6022 0.6022 0.6022 0.6023 0.6023
1758.000000 0.6023 0.6024 0.6025 0.6024 0.6024
1763.000000 0.6024 0.6024 0.6022 0.6019 0.6014
1768.000000 0.6010 0.6005 0.6000 0.5994 0.5989
1773.000000 0.5984 0.5979 0.5975 0.5972 0.5971
1778.000000 0.5971 0.5987 0.5971 0.5975 0.5987
1783.000000 0.5999 0.6021 0.6074 0.6134 0.6159
1788.000000 0.6174 0.6182 0.6187 0.6190 0.6190
1793.000000 0.6190 0.6191 0.6191 0.6192 0.6192
1798.000000 0.6192 0.6193 0.6194 0.6194 0.6194
1803.000000 0.6195 0.6195 0.6195 0.6195 0.6196
1808.000000 0.6196 0.6197 0.6197 0.6197 0.6198
1813.000000 0.6198 0.6198 0.6199 0.6199 0.6200
1818.000000 0.6200 0.6200 0.6201 0.6201 0.6201
1823.000000 0.6202 0.6203 0.6203 0.6203 0.6204
1828.000000 0.6204 0.6205 0.6205 0.6205 0.6206
1833.000000 0.6206 0.6206 0.6207 0.6207 0.6208
1838.000000 0.6208 0.6208 0.6207 0.6207 0.6207
1843.000000 0.6207 0.6205 0.6203 0.6199 0.6192
1848.000000 0.6183 0.6173 0.6161 0.6148 0.6132
1853.000000 0.6115 0.6099 0.6082 0.6066 0.6049
1858.000000 0.6033 0.6018 0.6003 0.5989 0.5975
1863.000000 0.5961 0.5947 0.5934 0.5920 0.5906
1868.000000 0.5893 0.5880 0.5866 0.5851 0.5834
1873.000000 0.5818 0.5802 0.5785 0.5769 0.5752
1878.000000 0.5736 0.5715 0.5691 0.5667 0.5643
1883.000000 0.5619 0.5595 0.5572 0.5550 0.5529
1888.000000 0.5507 0.5485 0.5465 0.5448 0.5430
1893.000000 0.5413 0.5396 0.5383 0.5371 0.5359
1898.000000 0.5347 0.5340 0.5334 0.5328 0.5323
1903.000000 0.5320 0.5319 0.5317 0.5315 0.5314
1908.000000 0.5314 0.5313 0.5312 0.5312 0.5312
1913.000000 0.5312 0.5312 0.5314 0.5315 0.5317
1918.000000 0.5312 0.5304 0.5289 0.5274 0.5260
1923.000000 0.5246 0.5231 0.5217 0.5202 0.5188
1928.000000 0.5173 0.5159 0.5145 0.5130 0.5116
1933.000000 0.5102 0.5087 0.5073 0.5059 0.5044
1938.000000 0.5030 0.5016 0.5002 0.4987 0.4973
1943.000000 0.4959 0.4945 0.4931 0.4917 0.4903
1948.000000 0.4889 0.4874 0.4861 0.4846 0.4832
1953.000000 0.4818 0.4804 0.4790 0.4776 0.4762
1958.000000 0.4748 0.4734 0.4717 0.4697 0.4674
1963.000000 0.4654 0.4636 0.4624 0.4611 0.4599
1968.000000 0.4587 0.4571 0.4553 0.4534 0.4515
1973.000000 0.4494 0.4469 0.4442 0.4416 0.4389
1978.000000 0.4363 0.4336 0.4317 0.4301 0.4290
1983.000000 0.4280 0.4270 0.4257 0.4244 0.4227
1988.000000 0.4211 0.4195 0.4180 0.4166 0.4152
1993.000000 0.4139 0.4127 0.4119 0.4113 0.4107
1998.000000 0.4105 0.4102 0.4101 0.4098 0.4097
2003.000000 0.4097 0.4098 0.4099 0.4099 0.4073
2008.000000 0.4103 0.4109 0.4115 0.4122 0.4144
2013.000000 0.4171 0.4203 0.4234 0.4266 0.4298
2018.000000 0.4329 0.4360 0.4392 0.4424 0.4455
2023.000000 0.4486 0.4517 0.4549 0.4581 0.4612
2028.000000 0.4640 0.4663 0.4676 0.4686 0.4694
2033.000000 0.4701 0.4707 0.4710 0.4713 0.4716
2038.000000 0.4719 0.4721 0.4724 0.4727 0.4729
2043.000000 0.4732 0.4734 0.4739 0.4745 0.4757
2048.000000 0.4769 0.4780 0.4789 0.4798 0.4807
2053.000000 0.4816 0.4824 0.4834 0.4844 0.4854
2058.000000 0.4863 0.4873 0.4883 0.4891 0.4900
2063.000000 0.4909 0.4919 0.4928 0.4937 0.4948
2068.000000 0.4957 0.4961 0.4965 0.4967 0.4969
2073.000000 0.4972 0.4974 0.4976 0.4977 0.4980
2078.000000 0.4974 0.4970 0.4966 0.4959 0.4952
2083.000000 0.4944 0.4932 0.4918 0.4905 0.4894
2088.000000 0.4885 0.4876 0.4867 0.4858 0.4848
2093.000000 0.4837 0.4825 0.4815 0.4804 0.4793
2098.000000 0.4782 0.4771 0.4760 0.4748 0.4735
2103.000000 0.4721 0.4708 0.4693 0.4679 0.4663
2108.000000 0.4647 0.4632 0.4617 0.4603 0.4591
2113.000000 0.4580 0.4570 0.4560 0.4550 0.4540
2118.000000 0.4530 0.4520 0.4509 0.4495 0.4479
2123.000000 0.4463 0.4446 0.4431 0.4415 0.4399
2128.000000 0.4383 0.4368 0.4352 0.4337 0.4321
2133.000000 0.4304 0.4286 0.4268 0.4250 0.4232
2138.000000 0.4213 0.4195 0.4177 0.4157 0.4137
2143.000000 0.4114 0.4090 0.4067 0.4043 0.4019
2148.000000 0.3996 0.3973 0.3951 0.3928 0.3905
2153.000000 0.3883 0.3861 0.3839 0.3819 0.3800
2158.000000 0.3781 0.3761 0.3742 0.3723 0.3704
2163.000000 0.3686 0.3668 0.3651 0.3633 0.3615
2168.000000 0.3597 0.3579 0.3562 0.3546 0.3530
2173.000000 0.3515 0.3500 0.3485 0.3470 0.3455
2178.000000 0.3440 0.3427 0.3414 0.3402 0.3389
2183.000000 0.3377 0.3366 0.3354 0.3342 0.3330
2188.000000 0.3318 0.3306 0.3275 0.3242 0.3207
2193.000000 0.3172 0.3141 0.3110 0.3080 0.3052
2198.000000 0.3028 0.3006 0.2985 0.2965 0.2944
2203.000000 0.2916 0.2874 0.2839 0.2812 0.2789
2208.000000 0.2768 0.2748 0.2728 0.2707 0.2686
2213.000000 0.2664 0.2641 0.2619 0.2596 0.2575
2218.000000 0.2554 0.2536 0.2519 0.2502 0.2484
2223.000000 0.2467 0.2450 0.2433 0.2416 0.2400
2228.000000 0.2385 0.2372 0.2358 0.2345 0.2332
2233.000000 0.2319 0.2306 0.2292 0.2277 0.2261
2238.000000 0.2246 0.2230 0.2215 0.2200 0.2185
2243.000000 0.2170 0.2156 0.2141 0.2127 0.2113
2248.000000 0.2099 0.2085 0.2071 0.2056 0.2042
2253.000000 0.2027 0.2011 0.1993 0.1975 0.1957
2258.000000 0.1939 0.1921 0.1903 0.1884 0.1864
2263.000000 0.1844 0.1823 0.1802 0.1780 0.1761
2268.000000 0.1744 0.1728 0.1713 0.1699 0.1684
2273.000000 0.1670 0.1655 0.1641 0.1628 0.1615
2278.000000 0.1602 0.1590 0.1577 0.1564 0.1551
2283.000000 0.1538 0.1524 0.1510 0.1496 0.1482
2288.000000 0.1469 0.1455 0.1443 0.1432 0.1422
2293.000000 0.1413 0.1403 0.1394 0.1385 0.1376
2298.000000 0.1366 0.1357 0.1347 0.1336 0.1325
2303.000000 0.1314 0.1304 0.1293 0.1282 0.1271
2308.000000 0.1260 0.1248 0.1237 0.1225 0.1213
2313.000000 0.1201 0.1189 0.1177 0.1166 0.1154
2318.000000 0.1141 0.1128 0.1111 0.1094 0.1077
2323.000000 0.1060 0.1043 0.1026 0.1006 0.0981
2328.000000 0.0952 0.0910 0.0869 0.0841 0.0813
2333.000000 0.0785 0.0757 0.0739 0.0726 0.0712
2338.000000 0.0698 0.0684 0.0671 0.0657 0.0643
2343.000000 0.0629 0.0623 0.0617 0.0613 0.0609
2348.000000 0.0605 0.0601 0.0597 0.0594 0.0590
2353.000000 0.0587 0.0585 0.0582 0.0580 0.0578
2358.000000 0.0576 0.0573 0.0570 0.0567 0.0564
2363.000000 0.0560 0.0555 0.0550 0.0544 0.0538
2368.000000 0.0532 0.0526 0.0520 0.0513 0.0506
2373.000000 0.0498 0.0491 0.0484 0.0477 0.0469
2378.000000 0.0462 0.0456 0.0449 0.0443 0.0437
2383.000000 0.0431 0.0425 0.0419 0.0413 0.0407
2388.000000 0.0401 0.0395 0.0389 0.0383 0.0377
2393.000000 0.0373 0.0370 0.0368 0.0367 0.0365
2398.000000 0.0364 0.0363 0.0362 0.0361 0.0360
2403.000000 0.0360 0.0360 0.0360 0.0360 0.0360
2408.000000 0.0360 0.0360 0.0360 0.0360 0.0360
2413.000000 0.0360 0.0361 0.0361 0.0361 0.0361
2418.000000 0.0361 0.0361 0.0361 0.0361 0.0361
2423.000000 0.0361 0.0361 0.0362 0.0362 0.0362
2428.000000 0.0362 0.0362 0.0342 0.0362 0.0362
2433.000000 0.0362 0.0362 0.0362 0.0362 0.0363
2438.000000 0.0363 0.0363 0.0363 0.0363 0.0363
2443.000000 0.0363 0.0364 0.0364 0.0364 0.0365
2448.000000 0.0365 0.0366 0.0366 0.0367 0.0367
2453.000000 0.0367 0.0368 0.0369 0.0370 0.0370
2458.000000 0.0370 0.0371 0.0371 0.0372 0.0372
2463.000000 0.0372 0.0373 0.0374 0.0375 0.0376
2468.000000 0.0377 0.0377 0.0378 0.0379 0.0380
2473.000000 0.0381 0.0381 0.0382 0.0384 0.0385
2478.000000 0.0387 0.0389 0.0391 0.0393 0.0395
2483.000000 0.0397 0.0400 0.0402 0.0404 0.0406
2488.000000 0.0409 0.0413 0.0416 0.0420 0.0424
2493.000000 0.0429 0.0435 0.0440 0.0446 0.0452
2498.000000 0.0457 0.0463 0.0470 0.0475 0.0481
2503.000000 0.0486 0.0490 0.0494 0.0496 0.0498
2508.000000 0.0500 0.0502 0.0503 0.0503 0.0503
2513.000000 0.0509 0.0503 0.0503 0.0503 0.0503
2518.000000 0.0502 0.0501 0.0500 0.0498 0.0497
2523.000000 0.0495 0.0493 0.0491 0.0489 0.0486
2528.000000 0.0484 0.0480 0.0477 0.0473 0.0469
2533.000000 0.0465 0.0461 0.0457 0.0453 0.0449
2538.000000 0.0445 0.0441 0.0436 0.0432 0.0428
2543.000000 0.0424 0.0422 0.0419 0.0417 0.0415
2548.000000 0.0412 0.0410 0.0408 0.0407 0.0404
2553.000000 0.0402 0.0400 0.0397 0.0395 0.0393
2558.000000 0.0392 0.0390 0.0388 0.0386 0.0385
2563.000000 0.0384 0.0383 0.0382 0.0382 0.0381
2568.000000 0.0381 0.0380 0.0379 0.0379 0.0379
2573.000000 0.0378 0.0378 0.0377 0.0377 0.0377
2578.000000 0.0376 0.0376 0.0376 0.0376 0.0376
2583.000000 0.0375 0.0375 0.0375 0.0374 0.0374
2588.000000 0.0374 0.0374 0.0374 0.0374 0.0374
2593.000000 0.0374 0.0375 0.0375 0.0375 0.0376
2598.000000 0.0376 0.0376 0.0376 0.0376 0.0377
2603.000000 0.0377 0.0377 0.0378 0.0378 0.0379
2608.000000 0.0379 0.0379 0.0368 0.0380 0.0380
2613.000000 0.0380 0.0382 0.0383 0.0386 0.0389
2618.000000 0.0392 0.0395 0.0398 0.0401 0.0404
2623.000000 0.0407 0.0410 0.0412 0.0415 0.0419
2628.000000 0.0423 0.0427 0.0432 0.0436 0.0440
2633.000000 0.0445 0.0449 0.0454 0.0459 0.0464
2638.000000 0.0469 0.0474 0.0479 0.0484 0.0489
2643.000000 0.0494 0.0499 0.0505 0.0511 0.0519
2648.000000 0.0526 0.0534 0.0542 0.0550 0.0557
2653.000000 0.0564 0.0571 0.0577 0.0584 0.0590
2658.000000 0.0596 0.0602 0.0608 0.0614 0.0620
2663.000000 0.0626 0.0633 0.0640 0.0647 0.0654
2668.000000 0.0661 0.0666 0.0671 0.0676 0.0680
2673.000000 0.0685 0.0689 0.0693 0.0696 0.0699
2678.000000 0.0702 0.0705 0.0707 0.0708 0.0709
2683.000000 0.0710 0.0711 0.0711 0.0712 0.0712
2688.000000 0.0712 0.0713 0.0713 0.0713 0.0713
2693.000000 0.0713 0.0714 0.0714 0.0714 0.0714
2698.000000 0.0714 0.0714 0.0713 0.0713 0.0713
2703.000000 0.0713 0.0713 0.0713 0.0712 0.0712
2708.000000 0.0712 0.0712 0.0713 0.0715 0.0718
2713.000000 0.0722 0.0727 0.0734 0.0743 0.0752
2718.000000 0.0762 0.0773 0.0785 0.0799 0.0815
2723.000000 0.0831 0.0844 0.0855 0.0867 0.0877
2728.000000 0.0887 0.0896 0.0905 0.0914 0.0923
2733.000000 0.0932 0.0940 0.0949 0.0956 0.0963
2738.000000 0.0971 0.0977 0.0984 0.0990 0.0994
2743.000000 0.0998 0.1002 0.1004 0.1006 0.1008
2748.000000 0.1010 0.1011 0.1013 0.1014 0.1016
2753.000000 0.1017 0.1018 0.1020 0.1021 0.1022
2758.000000 0.1023 0.1024 0.1025 0.1025 0.1025
2763.000000 0.1026 0.1027 0.1027 0.1028 0.1028
2768.000000 0.1028 0.1019 0.1029 0.1030 0.1031
2773.000000 0.1031 0.1031 0.1030 0.1030 0.1030
2778.000000 0.1029 0.1029 0.1029 0.1028 0.1026
2783.000000 0.1023 0.1020 0.1014 0.1009 0.1003
2788.000000 0.0991 0.0978 0.0966 0.0954 0.0942
2793.000000 0.0931 0.0920 0.0908 0.0897 0.0886
2798.000000 0.0874 0.0862 0.0850 0.0838 0.0826
2803.000000 0.0813 0.0800 0.0787 0.0775 0.0763
2808.000000 0.0751 0.0739 0.0728 0.0717 0.0706
2813.000000 0.0695 0.0684 0.0673 0.0662 0.0650
2818.000000 0.0638 0.0627 0.0615 0.0603 0.0592
2823.000000 0.0580 0.0569 0.0558 0.0549 0.0539
2828.000000 0.0530 0.0521 0.0511 0.0502 0.0493
2833.000000 0.0483 0.0474 0.0465 0.0456 0.0447
2838.000000 0.0438 0.0430 0.0422 0.0414 0.0406
2843.000000 0.0398 0.0390 0.0385 0.0381 0.0377
2848.000000 0.0374 0.0371 0.0367 0.0364 0.0361
2853.000000 0.0357 0.0354 0.0352 0.0351 0.0349
2858.000000 0.0348 0.0347 0.0346 0.0345 0.0344
2863.000000 0.0343 0.0342 0.0341 0.0340 0.0339
2868.000000 0.0339 0.0338 0.0337 0.0336 0.0335
2873.000000 0.0335 0.0334 0.0333 0.0332 0.0332
2878.000000 0.0332 0.0332 0.0332 0.0331 0.0331
2883.000000 0.0331 0.0330 0.0330 0.0330 0.0329
2888.000000 0.0329 0.0329 0.0329 0.0328 0.0328
2893.000000 0.0328 0.0328 0.0328 0.0328 0.0328
2898.000000 0.0328 0.0328 0.0328 0.0327 0.0327
2903.000000 0.0327 0.0327 0.0327 0.0327 0.0326
2908.000000 0.0326 0.0326 0.0326 0.0326 0.0326
2913.000000 0.0326 0.0326 0.0326 0.0326 0.0326
2918.000000 0.0326 0.0326 0.0326 0.0333 0.0327
2923.000000 0.0327 0.0327 0.0327 0.0327 0.0327
2928.000000 0.0328 0.0328 0.0328 0.0329 0.0329
2933.000000 0.0330 0.0330 0.0331 0.0333 0.0334
2938.000000 0.0335 0.0336 0.0336 0.0337 0.0339
2943.000000 0.0341 0.0342 0.0345 0.0347 0.0350
2948.000000 0.0353 0.0361 0.0369 0.0377 0.0394
2953.000000 0.0425 0.0457 0.0488 0.0519 0.0550
2958.000000 0.0581 0.0613 0.0644 0.0675 0.0706
2963.000000 0.0737 0.0768 0.0799 0.0830 0.0860
2968.000000 0.0891 0.0922 0.0953 0.0984 0.1014
2973.000000 0.1045 0.1076 0.1107 0.1138 0.1168
2978.000000 0.1199 0.1230 0.1261 0.1291 0.1322
2983.000000 0.1353 0.1383 0.1414 0.1444 0.1475
2988.000000 0.1505 0.1535 0.1565 0.1594 0.1622
2993.000000 0.1650 0.1678 0.1688 0.1698 0.1708
2998.000000 0.1717 0.1727 0.1736 0.1746 0.1756
3003.000000 0.1766 0.1777 0.1788 0.1803 0.1817
3008.000000 0.1831 0.1846 0.1861 0.1876 0.1891
3013.000000 0.1908 0.1925 0.1942 0.1960 0.1980
3018.000000 0.2001 0.2021 0.2041 0.2061 0.2081
3023.000000 0.2101 0.2117 0.2134 0.2150 0.2165
3028.000000 0.2179 0.2193 0.2206 0.2224 0.2243
3033.000000 0.2263 0.2282 0.2301 0.2320 0.2340
3038.000000 0.2355 0.2363 0.2371 0.2379 0.2486
3043.000000 0.2651 0.2815 0.2980 0.3002 0.3013
3048.000000 0.3025 0.3038 0.3053 0.3068 0.3084
3053.000000 0.3099 0.3113 0.3127 0.3141 0.3154
3058.000000 0.3166 0.3178 0.3190 0.3204 0.3218
3063.000000 0.3231 0.3245 0.3260 0.3274 0.3289
3068.000000 0.3301 0.3312 0.3324 0.3335 0.3344
3073.000000 0.3354 0.3363 0.3372 0.3380 0.3388
3078.000000 0.3396 0.3404 0.3410 0.3416 0.3422
3083.000000 0.3427 0.3432 0.3436 0.3441 0.3444
3088.000000 0.3447 0.3451 0.3454 0.3456 0.3459
3093.000000 0.3461 0.3463 0.3465 0.3467 0.3468
3098.000000 0.3470 0.3471 0.3472 0.3473 0.3474
3103.000000 0.3475 0.3476 0.3477 0.3478 0.3479
3108.000000 0.3479 0.3480 0.3481 0.3481 0.3482
3113.000000 0.3482 0.3483 0.3483 0.3484 0.3484
3118.000000 0.3485 0.3485 0.3485 0.3485 0.3486
3123.000000 0.3486 0.3486 0.3485 0.3486 0.3485
3128.000000 0.3485 0.3484 0.3484 0.3484 0.3484
3133.000000 0.3483 0.3482 0.3481 0.3480 0.3479
3138.000000 0.3477 0.3476 0.3474 0.3472 0.3469
3143.000000 0.3467 0.3464 0.3461 0.3457 0.3453
3148.000000 0.3449 0.3443 0.3433 0.3424 0.3414
3153.000000 0.3405 0.3396 0.3388 0.3379 0.3370
3158.000000 0.3361 0.3351 0.3342 0.3335 0.3333
3163.000000 0.3330 0.3328 0.3325 0.3323 0.3320
3168.000000 0.3318 0.3316 0.3314 0.3313 0.3311
3173.000000 0.3310 0.3309 0.3308 0.3306 0.3305
3178.000000 0.3304 0.3303 0.3301 0.3300 0.3299
3183.000000 0.3298 0.3296 0.3295 0.3294 0.3293
3188.000000 0.3291 0.3290 0.3289 0.3288 0.3287
3193.000000 0.3285 0.3283 0.3281 0.3279 0.3277
3198.000000 0.3271 0.3265 0.3260 0.3254 0.3246
3203.000000 0.3238 0.3230 0.3222 0.3210 0.3197
3208.000000 0.3185 0.3172 0.3161 0.3150 0.3140
3213.000000 0.3129 0.3120 0.3112 0.3103 0.3095
3218.000000 0.3085 0.3074 0.3063 0.3053 0.3041
3223.000000 0.3029 0.3017 0.3005 0.2990 0.2964
3228.000000 0.2938 0.2912 0.2886 0.2868 0.2850
3233.000000 0.2832 0.2814 0.2799 0.2783 0.2768
3238.000000 0.2753 0.2739 0.2726 0.2713 0.2700
3243.000000 0.2686 0.2673 0.2660 0.2647 0.2629
3248.000000 0.2600 0.2572 0.2543 0.2514 0.2501
3253.000000 0.2488 0.2474 0.2461 0.2444 0.2425
3258.000000 0.2407 0.2388 0.2368 0.2347 0.2326
3263.000000 0.2304 0.2286 0.2273 0.2260 0.2247
3268.000000 0.2234 0.2225 0.2216 0.2206 0.2197
3273.000000 0.2188 0.2179 0.2170 0.2161 0.2154
3278.000000 0.2148 0.2142 0.2136 0.2130 0.2128
3283.000000 0.2126 0.2124 0.2122 0.2122 0.2122
3288.000000 0.2122 0.2122 0.2122 0.2122 0.2122
3293.000000 0.2122 0.2122 0.2123 0.2124 0.2124
3298.000000 0.2125 0.2104 0.2128 0.2129 0.2130
3303.000000 0.2131 0.2132 0.2133 0.2134 0.2135
3308.000000 0.2136 0.2138 0.2139 0.2141 0.2145
3313.000000 0.2150 0.2155 0.2160 0.2165 0.2171
3318.000000 0.2176 0.2182 0.2187 0.2195 0.2203
3323.000000 0.2212 0.2220 0.2228 0.2237 0.2246
3328.000000 0.2255 0.2266 0.2297 0.2328 0.2359
3333.000000 0.2390 0.2411 0.2426 0.2441 0.2456
3338.000000 0.2469 0.2478 0.2486 0.2495 0.2503
3343.000000 0.2510 0.2516 0.2522 0.2528 0.2534
3348.000000 0.2538 0.2543 0.2547 0.2552 0.2555
3353.000000 0.2559 0.2562 0.2566 0.2569 0.2573
3358.000000 0.2576 0.2579 0.2583 0.2585 0.2587
3363.000000 0.2589 0.2591 0.2593 0.2595 0.2597
3368.000000 0.2600 0.2602 0.2604 0.2606 0.2608
3373.000000 0.2610 0.2612 0.2613 0.2613 0.2614
3378.000000 0.2615 0.2616 0.2617 0.2618 0.2619
3383.000000 0.2621 0.2622 0.2623 0.2624 0.2625
3388.000000 0.2626 0.2627 0.2628 0.2629 0.2629
3393.000000 0.2630 0.2632 0.2633 0.2634 0.2635
3398.000000 0.2636 0.2636 0.2637 0.2638 0.2640
3403.000000 0.2641 0.2643 0.2645 0.2647 0.2651
3408.000000 0.2655 0.2659 0.2664 0.2668 0.2670
3413.000000 0.2673 0.2676 0.2679 0.2683 0.2688
3418.000000 0.2693 0.2698 0.2703 0.2708 0.2714
3423.000000 0.2720 0.2726 0.2732 0.2738 0.2743
3428.000000 0.2749 0.2755 0.2763 0.2770 0.2778
3433.000000 0.2786 0.2794 0.2802 0.2810 0.2817
3438.000000 0.2825 0.2833 0.2843 0.2852 0.2861
3443.000000 0.2871 0.2880 0.2889 0.2898 0.2908
3448.000000 0.2917 0.2927 0.2937 0.2947 0.2957
3453.000000 0.2967 0.2977 0.2987 0.2997 0.3007
3458.000000 0.3019 0.3036 0.3053 0.3070 0.3087
3463.000000 0.3107 0.3131 0.3154 0.3178 0.3202
3468.000000 0.3216 0.3224 0.3233 0.3241 0.3249
3473.000000 0.3257 0.3266 0.3274 0.3283 0.3291
3478.000000 0.3300 0.3309 0.3318 0.3327 0.3336
3483.000000 0.3345 0.3354 0.3363 0.3372 0.3381
3488.000000 0.3389 0.3397 0.3406 0.3414 0.3423
3493.000000 0.3431 0.3440 0.3449 0.3457 0.3465
3498.000000 0.3473 0.3481 0.3489 0.3497 0.3505
3503.000000 0.3513 0.3521 0.3528 0.3536 0.3544
3508.000000 0.3551 0.3559 0.3566 0.3574 0.3590
3513.000000 0.3609 0.3628 0.3647 0.3666 0.3687
3518.000000 0.3707 0.3728 0.3749 0.3770 0.3783
3523.000000 0.3795 0.3807 0.3819 0.3830 0.3841
3528.000000 0.3852 0.3862 0.3873 0.3884 0.3892
3533.000000 0.3900 0.3908 0.3916 0.3924 0.3932
3538.000000 0.3940 0.3948 0.3956 0.3964 0.3977
3543.000000 0.3991 0.4004 0.4018 0.4031 0.4045
3548.000000 0.4059 0.4073 0.4087 0.4102 0.4120
3553.000000 0.4140 0.4159 0.4178 0.4198 0.4217
3558.000000 0.4237 0.4256 0.4276 0.4296 0.4311
3563.000000 0.4325 0.4338 0.4352 0.4366 0.4378
3568.000000 0.4390 0.4402 0.4414 0.4426 0.4437
3573.000000 0.4446 0.4456 0.4465 0.4474 0.4484
3578.000000 0.4493 0.4502 0.4511 0.4520 0.4528
3583.000000 0.4536 0.4545 0.4553 0.4561 0.4569
3588.000000 0.4577 0.4585 0.4594 0.4602 0.4610
3593.000000 0.4618 0.4627 0.4635 0.4643 0.4651
3598.000000 0.4658 0.4665 0.4671 0.4678 0.4684
3603.000000 0.4691 0.4697 0.4703 0.4709 0.4715
3608.000000 0.4720 0.4724 0.4728 0.4732 0.4736
3613.000000 0.4740 0.4743 0.4747 0.4750 0.4754
3618.000000 0.4758 0.4760 0.4763 0.4766 0.4768
3623.000000 0.4771 0.4774 0.4776 0.4778 0.4781
3628.000000 0.4783 0.4785 0.4787 0.4788 0.4790
3633.000000 0.4791 0.4793 0.4794 0.4795 0.4796
3638.000000 0.4797 0.4798 0.4800 0.4801 0.4802
3643.000000 0.4804 0.4805 0.4806 0.4807 0.4808
3648.000000 0.4808 0.4809 0.4810 0.4811 0.4811
3653.000000 0.4812 0.4813 0.4814 0.4814 0.4815
3658.000000 0.4815 0.4816 0.4816 0.4817 0.4817
3663.000000 0.4818 0.4819 0.4819 0.4820 0.4820
3668.000000 0.4821 0.4821 0.4822 0.4822 0.4823
3673.000000 0.4824 0.4824 0.4825 0.4825 0.4826
3678.000000 0.4826 0.4826 0.4827 0.4827 0.4827
3683.000000 0.4827 0.4827 0.4827 0.4827 0.4827
3688.000000 0.4827 0.4827 0.4827 0.4827 0.4827
3693.000000 0.4826 0.4826 0.4826 0.4826 0.4826
3698.000000 0.4826 0.4835 0.4826 0.4826 0.4826
3703.000000 0.4826 0.4826 0.4826 0.4826 0.4826
3708.000000 0.4826 0.4826 0.4827 0.4827 0.4827
3713.000000 0.4827 0.4827 0.4827 0.4827 0.4827
3718.000000 0.4827 0.4827 0.4827 0.4826 0.4825
3723.000000 0.4825 0.4824 0.4823 0.4822 0.4822
3728.000000 0.4821 0.4820 0.4819 0.4819 0.4818
3733.000000 0.4817 0.4816 0.4815 0.4814 0.4813
3738.000000 0.4813 0.4812 0.4811 0.4810 0.4809
3743.000000 0.4808 0.4807 0.4807 0.4806 0.4805
3748.000000 0.4805 0.4804 0.4804 0.4803 0.4802
3753.000000 0.4802 0.4801 0.4801 0.4800 0.4800
3758.000000 0.4799 0.4799 0.4799 0.4799 0.4800
3763.000000 0.4800 0.4801 0.4801 0.4802 0.4803
3768.000000 0.4804 0.4805 0.4806 0.4807 0.4808
3773.000000 0.4809 0.4811 0.4812 0.4813 0.4814
3778.000000 0.4815 0.4816 0.4817 0.4817 0.4818
3783.000000 0.4819 0.4820 0.4820 0.4821 0.4822
3788.000000 0.4823 0.4823 0.4823 0.4824 0.4824
3793.000000 0.4824 0.4824 0.4824 0.4823 0.4823
3798.000000 0.4822 0.4822 0.4820 0.4819 0.4817
3803.000000 0.4815 0.4814 0.4812 0.4809 0.4806
3808.000000 0.4804 0.4801 0.4798 0.4795 0.4792
3813.000000 0.4788 0.4785 0.4781 0.4777 0.4774
3818.000000 0.4770 0.4767 0.4763 0.4759 0.4756
3823.000000 0.4752 0.4750 0.4747 0.4744 0.4742
3828.000000 0.4739 0.4735 0.4732 0.4728 0.4724
3833.000000 0.4720 0.4716 0.4714 0.4713 0.4711
3838.000000 0.4710 0.4709 0.4708 0.4707 0.4706
3843.000000 0.4706 0.4705 0.4704 0.4704 0.4703
3848.000000 0.4703 0.4703 0.4703 0.4703 0.4703
3853.000000 0.4702 0.4702 0.4702 0.4702 0.4702
3858.000000 0.4702 0.4701 0.4701 0.4701 0.4701
3863.000000 0.4701 0.4701 0.4701 0.4701 0.4701
3868.000000 0.4701 0.4701 0.4701 0.4701 0.4701
3873.000000 0.4701 0.4701 0.4701 0.4701 0.4701
3878.000000 0.4701 0.4701 0.4701 0.4701 0.4702
3883.000000 0.4702 0.4702 0.4702 0.4702 0.4702
3888.000000 0.4702 0.4703 0.4703 0.4703 0.4703
3893.000000 0.4703 0.4703 0.4703 0.4703 0.4703
3898.000000 0.4703 0.4703 0.4703 0.4703 0.4703
3903.000000 0.4703 0.4703 0.4703 0.4703 0.4704
3908.000000 0.4704 0.4704 0.4704 0.4704 0.4704
3913.000000 0.4704 0.4704 0.4704 0.4704 0.4704
3918.000000 0.4704 0.4704 0.4704 0.4704 0.4704
3923.000000 0.4704 0.4704 0.4704 0.4704 0.4704
3928.000000 0.4704 0.4704 0.4704 0.4704 0.4704
3933.000000 0.4704 0.4704 0.4704 0.4704 0.4704
3938.000000 0.4705 0.4705 0.4705 0.4705 0.4705
3943.000000 0.4705 0.4705 0.4705 0.4705 0.4705
3948.000000 0.4705 0.4705 0.4705 0.4705 0.4705
3953.000000 0.4705 0.4705 0.4705 0.4705 0.4705
3958.000000 0.4705 0.4705 0.4705 0.4705 0.4705
3963.000000 0.4705 0.4705 0.4705 0.4705 0.4705
3968.000000 0.4705 0.4705 0.4705 0.4705 0.4705
3973.000000 0.4705 0.4705 0.4705 0.4705 0.4705
3978.000000 0.4705 0.4705 0.4705 0.4704 0.4704
3983.000000 0.4704 0.4704 0.4704 0.4704 0.4704
3988.000000 0.4704 0.4704 0.4704 0.4704 0.4704
3993.000000 0.4704 0.4704 0.4704 0.4704 0.4704
3998.000000 0.4704 0.4704 0.4704
##END=
