##TITLE=RHODANILIC ACID AMMONIUM SALT
##JCAMP-DX=4.24
##DATA TYPE=INFRARED SPECTRUM
##CLASS=COBLENTZ
##ORIGIN=WYANDOTTE CHEMICALS CORP., WYANDOTTE, MICHIGAN, USA
##OWNER=COBLENTZ SOCIETY
Collection (C) 2018 copyright by the U.S. Secretary of Commerce
on behalf of the United States of America. All rights reserved.
##DATE=Not specified, most likely prior to 1970
##MOLFORM=C16 H18 N7 S4 Cr
##SOURCE REFERENCE=COBLENTZ NO. 3815
##$NIST ID=B6003815
##$NIST SOURCE=COBLENTZ
##$NIST IMAGE=cob3815
##SPECTROMETER/DATA SYSTEM=Not specified, most likely a prism, grating, or hybrid spectrometer.
##STATE=SOLID (MINERAL OIL MULL)
##PATH LENGTH=
$$SPECTRAL CONTAMINATION DUE TO OIL AROUND 2900 CM^-^1
##SAMPLING PROCEDURE=TRANSMISSION
##RESOLUTION=4
##DATA PROCESSING=DIGITIZED BY NIST FROM HARD COPY
##XUNITS=MICROMETERS
##YUNITS=TRANSMITTANCE
##XFACTOR=1.000000
##YFACTOR=1
##DELTAX=000.006192
##FIRSTX=2.019
##LASTX=15.9872
##FIRSTY=0.222
##MAXX=15.9872
##MINX=2.019
##MAXY=0.962
##MINY=0.012
##NPOINTS=2257
##XYDATA=(X++(Y..Y))
2.019000 0.2220 0.2220 0.2220 0.2240 0.2260
2.049973 0.2300 0.2300 0.2290 0.2270 0.2260
2.080000 0.2260 0.2260 0.2240 0.2240 0.2240
2.110973 0.2270 0.2270 0.2270 0.2290 0.2290
2.142000 0.2290 0.2290 0.2290 0.2270 0.2270
2.172973 0.2270 0.2260 0.2260 0.2260 0.2260
2.204000 0.2270 0.2270 0.2290 0.2290 0.2300
2.234973 0.2320 0.2320 0.2330 0.2350 0.2380
2.266000 0.2380 0.2350 0.2330 0.2300 0.2300
2.296973 0.2300 0.2300 0.2320 0.2330 0.2380
2.328000 0.2430 0.2500 0.2520 0.2530 0.2520
2.358973 0.2520 0.2500 0.2490 0.2490 0.2500
2.390000 0.2520 0.2550 0.2580 0.2580 0.2600
2.420973 0.2610 0.2630 0.2640 0.2690 0.2720
2.452000 0.2720 0.2700 0.2700 0.2690 0.2670
2.482973 0.2690 0.2690 0.2670 0.2670 0.2660
2.514000 0.2660 0.2660 0.2640 0.2630 0.2640
2.544973 0.2690 0.2700 0.2750 0.2800 0.2860
2.576000 0.2890 0.2910 0.2910 0.2940 0.2980
2.606973 0.3010 0.3040 0.3080 0.3110 0.3110
2.638000 0.3140 0.3150 0.3150 0.3170 0.3170
2.668973 0.3180 0.3180 0.3180 0.3180 0.3170
2.700000 0.3120 0.3040 0.2940 0.2800 0.2660
2.730973 0.2460 0.2320 0.2150 0.2010 0.1950
2.762000 0.1820 0.1790 0.1760 0.1730 0.1710
2.792973 0.1700 0.1640 0.1620 0.1600 0.1590
2.824000 0.1570 0.1570 0.1530 0.1500 0.1500
2.854973 0.1450 0.1430 0.1420 0.1400 0.1390
2.885000 0.1390 0.1370 0.1330 0.1330 0.1310
2.915973 0.1260 0.1220 0.1200 0.1220 0.1250
2.947000 0.1280 0.1300 0.1300 0.1330 0.1400
2.977973 0.1470 0.1480 0.1560 0.1620 0.1680
3.009000 0.1680 0.1710 0.1790 0.1790 0.1790
3.039973 0.1780 0.1710 0.1680 0.1560 0.1400
3.071000 0.1260 0.1160 0.1020 0.0850 0.0720
3.101973 0.0630 0.0580 0.0520 0.0490 0.0460
3.133000 0.0410 0.0400 0.0400 0.0410 0.0490
3.163973 0.0520 0.0580 0.0630 0.0660 0.0630
3.195000 0.0580 0.0520 0.0460 0.0440 0.0470
3.225973 0.0520 0.0570 0.0660 0.0710 0.0740
3.257000 0.0740 0.0690 0.0690 0.0650 0.0630
3.287973 0.0610 0.0600 0.0580 0.0550 0.0520
3.319000 0.0460 0.0370 0.0270 0.0180 0.0150
3.349973 0.0130 0.0130 0.0120 0.0120 0.0130
3.381000 0.0130 0.0150 0.0170 0.0180 0.0180
3.411973 0.0180 0.0180 0.0170 0.0170 0.0150
3.443000 0.0150 0.0170 0.0170 0.0170 0.0170
3.473973 0.0170 0.0180 0.0180 0.0180 0.0180
3.505000 0.0200 0.0260 0.0350 0.0540 0.0780
3.535973 0.1110 0.1390 0.1600 0.1790 0.1950
3.567000 0.2100 0.2260 0.2380 0.2530 0.2600
3.597973 0.2700 0.2830 0.2890 0.2920 0.3000
3.628000 0.3010 0.3010 0.3030 0.3040 0.3060
3.658973 0.3060 0.3040 0.3040 0.3060 0.3080
3.690000 0.3120 0.3200 0.3260 0.3320 0.3400
3.720973 0.3450 0.3480 0.3490 0.3510 0.3520
3.752000 0.3560 0.3590 0.3620 0.3680 0.3690
3.782973 0.3710 0.3740 0.3820 0.3960 0.4000
3.814000 0.4020 0.4040 0.4040 0.4050 0.4070
3.844973 0.4100 0.4130 0.4210 0.4300 0.4380
3.876000 0.4410 0.4410 0.4440 0.4470 0.4500
3.906973 0.4530 0.4560 0.4590 0.4640 0.4690
3.938000 0.4690 0.4700 0.4760 0.4810 0.4870
3.968973 0.4890 0.4900 0.4920 0.4930 0.4960
4.000000 0.5000 0.5030 0.5060 0.5070 0.5070
4.030973 0.5090 0.5090 0.5100 0.5120 0.5130
4.062000 0.5120 0.5130 0.5150 0.5200 0.5240
4.092973 0.5290 0.5300 0.5300 0.5290 0.5300
4.124000 0.5350 0.5380 0.5350 0.5370 0.5410
4.154973 0.5490 0.5570 0.5630 0.5630 0.5650
4.186000 0.5680 0.5720 0.5770 0.5820 0.5860
4.216973 0.5890 0.5910 0.5920 0.5970 0.5990
4.248000 0.6000 0.6000 0.5990 0.6000 0.6000
4.278973 0.6020 0.6020 0.6030 0.6050 0.6060
4.310000 0.6080 0.6050 0.6050 0.6030 0.6030
4.340973 0.6050 0.6060 0.6080 0.6080 0.6080
4.372000 0.6080 0.6060 0.6080 0.6090 0.6110
4.402973 0.6170 0.6300 0.6400 0.6430 0.6510
4.433000 0.6620 0.6700 0.6730 0.6810 0.6850
4.463973 0.6880 0.6900 0.6960 0.7020 0.7150
4.495000 0.7260 0.7350 0.7460 0.7610 0.7720
4.525973 0.7830 0.7940 0.8060 0.8200 0.8260
4.557000 0.8340 0.8430 0.8520 0.8660 0.8730
4.587973 0.8800 0.8880 0.8970 0.9070 0.9140
4.619000 0.9240 0.9330 0.9410 0.9470 0.9530
4.649973 0.9580 0.9610 0.9620 0.9610 0.9530
4.681000 0.9390 0.9250 0.8960 0.8770 0.8570
4.711973 0.8120 0.7690 0.6950 0.6000 0.5100
4.743000 0.4340 0.3340 0.2360 0.1470 0.0860
4.773973 0.0610 0.0380 0.0240 0.0230 0.0230
4.805000 0.0230 0.0230 0.0230 0.0230 0.0230
4.835973 0.0230 0.0230 0.0230 0.0240 0.0240
4.867000 0.0260 0.0270 0.0270 0.0290 0.0290
4.897973 0.0290 0.0290 0.0300 0.0300 0.0300
4.929000 0.0300 0.0320 0.0380 0.0430 0.0520
4.959973 0.0570 0.0630 0.0710 0.0740 0.0800
4.991000 0.0830 0.0880 0.0940 0.1020 0.1090
5.021973 0.1190 0.1280 0.1340 0.1390 0.1430
5.053000 0.1470 0.1510 0.1570 0.1670 0.1730
5.083973 0.1790 0.1850 0.1910 0.1990 0.2100
5.115000 0.2130 0.2160 0.2210 0.2260 0.2290
5.145973 0.2330 0.2330 0.2350 0.2350 0.2330
5.176000 0.2320 0.2330 0.2390 0.2440 0.2520
5.206973 0.2610 0.2660 0.2690 0.2720 0.2800
5.238000 0.2860 0.2940 0.3000 0.3090 0.3140
5.268973 0.3180 0.3180 0.3210 0.3260 0.3310
5.300000 0.3350 0.3390 0.3400 0.3420 0.3420
5.330973 0.3430 0.3430 0.3450 0.3480 0.3520
5.362000 0.3560 0.3590 0.3590 0.3600 0.3630
5.392973 0.3660 0.3690 0.3730 0.3760 0.3820
5.424000 0.3860 0.3910 0.3930 0.3940 0.3960
5.454973 0.3970 0.3990 0.4020 0.4080 0.4100
5.486000 0.4110 0.4130 0.4160 0.4170 0.4190
5.516973 0.4210 0.4220 0.4240 0.4240 0.4210
5.548000 0.4220 0.4220 0.4240 0.4280 0.4330
5.578973 0.4380 0.4340 0.4340 0.4300 0.4280
5.610000 0.4280 0.4300 0.4340 0.4410 0.4450
5.640973 0.4480 0.4450 0.4480 0.4500 0.4580
5.672000 0.4550 0.4520 0.4550 0.4610 0.4670
5.702973 0.4720 0.4750 0.4760 0.4760 0.4760
5.734000 0.4720 0.4720 0.4720 0.4720 0.4720
5.764973 0.4720 0.4720 0.4720 0.4720 0.4720
5.796000 0.4730 0.4760 0.4780 0.4760 0.4780
5.826973 0.4820 0.4840 0.4840 0.4810 0.4780
5.858000 0.4790 0.4820 0.4870 0.4870 0.4870
5.888973 0.4840 0.4820 0.4820 0.4790 0.4780
5.920000 0.4760 0.4720 0.4780 0.4750 0.4750
5.950973 0.4730 0.4650 0.4610 0.4610 0.4650
5.981000 0.4720 0.4700 0.4690 0.4700 0.4720
6.011973 0.4730 0.4700 0.4730 0.4750 0.4780
6.043000 0.4820 0.4890 0.4900 0.4930 0.4950
6.073973 0.4960 0.5000 0.5000 0.4920 0.4900
6.105000 0.4890 0.4860 0.4750 0.4650 0.4580
6.135973 0.4480 0.4310 0.4040 0.3740 0.3340
6.167000 0.2970 0.2830 0.2660 0.2530 0.2430
6.197973 0.1990 0.1900 0.1880 0.2100 0.2550
6.229000 0.3000 0.3140 0.3140 0.3010 0.2410
6.259973 0.1880 0.1260 0.0690 0.0550 0.0550
6.291000 0.0800 0.1310 0.1990 0.2260 0.2550
6.321973 0.2750 0.2950 0.3260 0.3390 0.3460
6.353000 0.3540 0.3600 0.3660 0.3730 0.3790
6.383973 0.3900 0.3940 0.4000 0.4070 0.4100
6.415000 0.4100 0.4100 0.4110 0.4110 0.4130
6.445973 0.4170 0.4210 0.4270 0.4330 0.4450
6.477000 0.4520 0.4530 0.4550 0.4580 0.4590
6.507973 0.4620 0.4670 0.4690 0.4700 0.4720
6.539000 0.4760 0.4790 0.4840 0.4890 0.4920
6.569973 0.4960 0.5010 0.5000 0.4980 0.5000
6.601000 0.5010 0.5060 0.5070 0.5040 0.4950
6.631973 0.4700 0.4210 0.3740 0.2520 0.1650
6.663000 0.1250 0.1250 0.1470 0.1950 0.2300
6.693973 0.2640 0.2770 0.2770 0.2730 0.2580
6.724000 0.2460 0.2380 0.2260 0.2050 0.1810
6.754973 0.1500 0.0970 0.0520 0.0350 0.0230
6.786000 0.0210 0.0240 0.0270 0.0300 0.0320
6.816973 0.0290 0.0320 0.0340 0.0380 0.0380
6.848000 0.0400 0.0400 0.0380 0.0400 0.0430
6.878973 0.0470 0.0540 0.0540 0.0580 0.0690
6.910000 0.0720 0.0780 0.0830 0.0880 0.0910
6.940973 0.0970 0.1000 0.1050 0.1080 0.1110
6.972000 0.1140 0.1160 0.1200 0.1250 0.1260
7.002973 0.1280 0.1280 0.1280 0.1260 0.1260
7.034000 0.1280 0.1280 0.1300 0.1310 0.1330
7.064973 0.1390 0.1430 0.1470 0.1500 0.1530
7.096000 0.1570 0.1590 0.1620 0.1650 0.1760
7.126973 0.1850 0.1910 0.1960 0.1990 0.2040
7.158000 0.2080 0.2080 0.2080 0.2100 0.2080
7.188973 0.1980 0.1790 0.1570 0.1400 0.1200
7.220000 0.1140 0.1030 0.1000 0.0910 0.0880
7.250973 0.0890 0.0970 0.1110 0.1360 0.1640
7.282000 0.1950 0.2070 0.2210 0.2290 0.2350
7.312973 0.2460 0.2640 0.2860 0.3110 0.3340
7.344000 0.3600 0.3710 0.3820 0.3940 0.4020
7.374973 0.4080 0.4110 0.4130 0.4130 0.4160
7.406000 0.4210 0.4250 0.4300 0.4330 0.4330
7.436973 0.4340 0.4360 0.4410 0.4480 0.4590
7.467000 0.4690 0.4780 0.4840 0.4890 0.4950
7.497973 0.4980 0.5000 0.5030 0.5070 0.5130
7.529000 0.5180 0.5200 0.5210 0.5230 0.5230
7.559973 0.5230 0.5230 0.5230 0.5230 0.5240
7.591000 0.5240 0.5260 0.5270 0.5290 0.5300
7.621973 0.5320 0.5340 0.5300 0.5270 0.5270
7.653000 0.5270 0.5270 0.5290 0.5300 0.5320
7.683973 0.5350 0.5400 0.5490 0.5540 0.5580
7.715000 0.5600 0.5610 0.5630 0.5680 0.5660
7.745973 0.5680 0.5690 0.5770 0.5780 0.5800
7.777000 0.5820 0.5820 0.5830 0.5830 0.5830
7.807973 0.5850 0.5860 0.5880 0.5880 0.5880
7.839000 0.5860 0.5880 0.5880 0.5890 0.5910
7.869973 0.5940 0.5950 0.5990 0.5990 0.6000
7.901000 0.6020 0.6020 0.6020 0.6050 0.6050
7.931973 0.6080 0.6110 0.6130 0.6140 0.6160
7.963000 0.6160 0.6170 0.6170 0.6170 0.6190
7.993973 0.6170 0.6170 0.6200 0.6220 0.6230
8.025000 0.6250 0.6260 0.6260 0.6260 0.6260
8.055973 0.6250 0.6250 0.6260 0.6280 0.6310
8.087000 0.6330 0.6360 0.6370 0.6420 0.6480
8.117973 0.6480 0.6480 0.6420 0.6310 0.6170
8.149000 0.5920 0.5750 0.5580 0.5460 0.5370
8.179973 0.5300 0.5370 0.5550 0.5800 0.5990
8.211000 0.6130 0.6230 0.6300 0.6340 0.6390
8.241973 0.6400 0.6430 0.6480 0.6510 0.6570
8.272000 0.6590 0.6590 0.6620 0.6640 0.6650
8.302973 0.6670 0.6680 0.6680 0.6700 0.6730
8.334000 0.6780 0.6790 0.6810 0.6820 0.6840
8.364973 0.6850 0.6880 0.6880 0.6910 0.6910
8.396000 0.6950 0.6960 0.6980 0.6980 0.6980
8.426973 0.6980 0.6950 0.6930 0.6910 0.6820
8.458000 0.6700 0.6530 0.6300 0.6080 0.5860
8.488973 0.5860 0.5910 0.6050 0.6170 0.6280
8.520000 0.6370 0.6390 0.6390 0.6390 0.6390
8.550973 0.6390 0.6370 0.6340 0.6300 0.6200
8.582000 0.6130 0.6020 0.5940 0.5780 0.5600
8.612973 0.5380 0.5180 0.4980 0.4690 0.4450
8.644000 0.4170 0.3800 0.3400 0.2970 0.2560
8.674973 0.2260 0.1900 0.1560 0.1250 0.1030
8.706000 0.0910 0.0720 0.0580 0.0510 0.0440
8.736973 0.0430 0.0400 0.0400 0.0410 0.0470
8.768000 0.0540 0.0660 0.0750 0.0830 0.0910
8.798973 0.1030 0.1160 0.1280 0.1450 0.1530
8.830000 0.1650 0.1850 0.1980 0.2160 0.2330
8.860973 0.2500 0.2670 0.2860 0.3060 0.3250
8.892000 0.3430 0.3560 0.3650 0.3800 0.4000
8.922973 0.4100 0.4210 0.4330 0.4390 0.4480
8.954000 0.4560 0.4620 0.4700 0.4780 0.4860
8.984973 0.4920 0.4980 0.5030 0.5070 0.5130
9.015000 0.5210 0.5260 0.5270 0.5300 0.5320
9.045973 0.5380 0.5470 0.5570 0.5600 0.5630
9.077000 0.5660 0.5690 0.5750 0.5800 0.5800
9.107973 0.5820 0.5820 0.5820 0.5830 0.5830
9.139000 0.5860 0.5880 0.5880 0.5890 0.5920
9.169973 0.5940 0.5950 0.5990 0.6000 0.6000
9.201000 0.5990 0.6000 0.6030 0.6060 0.6090
9.231973 0.6130 0.6130 0.6080 0.6030 0.5990
9.263000 0.5950 0.5920 0.5780 0.5540 0.5340
9.293973 0.4980 0.4650 0.4310 0.4110 0.3960
9.325000 0.3910 0.3910 0.4100 0.4360 0.4610
9.355973 0.4840 0.5060 0.5230 0.5370 0.5430
9.387000 0.5580 0.5650 0.5740 0.5830 0.5940
9.417973 0.6030 0.6080 0.6110 0.6130 0.6140
9.449000 0.6140 0.6160 0.6190 0.6250 0.6300
9.479973 0.6360 0.6390 0.6420 0.6420 0.6370
9.511000 0.6370 0.6370 0.6370 0.6390 0.6390
9.541973 0.6390 0.6390 0.6390 0.6400 0.6400
9.573000 0.6450 0.6470 0.6450 0.6470 0.6470
9.603973 0.6480 0.6510 0.6530 0.6530 0.6530
9.635000 0.6530 0.6510 0.6480 0.6470 0.6470
9.665973 0.6470 0.6470 0.6500 0.6480 0.6450
9.697000 0.6360 0.6200 0.5830 0.5490 0.5090
9.727973 0.4750 0.4670 0.4700 0.4900 0.5200
9.759000 0.5490 0.5780 0.5970 0.6060 0.6110
9.789973 0.6170 0.6230 0.6300 0.6360 0.6400
9.820000 0.6450 0.6470 0.6470 0.6480 0.6510
9.850973 0.6510 0.6540 0.6500 0.6530 0.6560
9.882000 0.6540 0.6570 0.6590 0.6640 0.6680
9.912973 0.6700 0.6700 0.6700 0.6700 0.6700
9.944000 0.6680 0.6640 0.6540 0.6450 0.6400
9.974973 0.6430 0.6480 0.6530 0.6560 0.6600
10.006000 0.6670 0.6730 0.6730 0.6760 0.6710
10.036973 0.6680 0.6650 0.6620 0.6590 0.6600
10.068000 0.6560 0.6450 0.6400 0.6400 0.6470
10.098973 0.6540 0.6590 0.6560 0.6570 0.6590
10.130000 0.6620 0.6640 0.6670 0.6680 0.6680
10.160973 0.6670 0.6650 0.6590 0.6570 0.6570
10.192000 0.6620 0.6620 0.6570 0.6530 0.6500
10.222973 0.6480 0.6470 0.6420 0.6400 0.6390
10.254000 0.6340 0.6330 0.6300 0.6310 0.6310
10.284973 0.6300 0.6280 0.6220 0.6110 0.6030
10.316000 0.5990 0.5990 0.5940 0.5890 0.5860
10.346973 0.5860 0.5820 0.5780 0.5740 0.5680
10.378000 0.5660 0.5600 0.5580 0.5600 0.5740
10.408973 0.5800 0.5830 0.5860 0.5880 0.5860
10.440000 0.5860 0.5860 0.5800 0.5780 0.5770
10.470973 0.5750 0.5740 0.5740 0.5750 0.5750
10.502000 0.5750 0.5750 0.5750 0.5770 0.5780
10.532973 0.5780 0.5800 0.5830 0.5880 0.5940
10.563000 0.5970 0.5990 0.6000 0.6030 0.6080
10.593973 0.6080 0.6130 0.6200 0.6280 0.6300
10.625000 0.6310 0.6330 0.6340 0.6360 0.6370
10.655973 0.6450 0.6510 0.6510 0.6540 0.6570
10.687000 0.6600 0.6640 0.6650 0.6670 0.6670
10.717973 0.6670 0.6680 0.6710 0.6740 0.6780
10.749000 0.6780 0.6780 0.6810 0.6820 0.6820
10.779973 0.6850 0.6850 0.6870 0.6870 0.6900
10.811000 0.6930 0.6990 0.7070 0.7050 0.7050
10.841973 0.7040 0.6990 0.7040 0.7040 0.7050
10.873000 0.7050 0.7080 0.7120 0.7120 0.7050
10.903973 0.7050 0.7070 0.7080 0.7120 0.7160
10.935000 0.7130 0.7150 0.7160 0.7180 0.7190
10.965973 0.7210 0.7220 0.7270 0.7270 0.7270
10.997000 0.7220 0.7120 0.7070 0.7050 0.6990
11.027973 0.6950 0.6880 0.6850 0.6790 0.6780
11.059000 0.6790 0.6810 0.6870 0.6870 0.6840
11.089973 0.6790 0.6680 0.6540 0.6470 0.6400
11.121000 0.6390 0.6370 0.6400 0.6590 0.6730
11.151973 0.6810 0.6880 0.6960 0.7050 0.7120
11.183000 0.7180 0.7240 0.7270 0.7290 0.7290
11.213973 0.7240 0.7240 0.7240 0.7260 0.7270
11.245000 0.7290 0.7330 0.7390 0.7470 0.7490
11.275973 0.7490 0.7440 0.7440 0.7460 0.7500
11.307000 0.7560 0.7610 0.7610 0.7660 0.7630
11.337973 0.7640 0.7670 0.7700 0.7700 0.7660
11.368000 0.7660 0.7690 0.7700 0.7720 0.7750
11.398973 0.7770 0.7800 0.7810 0.7780 0.7810
11.430000 0.7810 0.7800 0.7810 0.7810 0.7860
11.460973 0.7870 0.7860 0.7860 0.7830 0.7840
11.492000 0.7860 0.7870 0.7860 0.7890 0.7910
11.522973 0.7920 0.7910 0.7910 0.7860 0.7870
11.554000 0.7920 0.7980 0.7980 0.7920 0.7910
11.584973 0.7890 0.7890 0.7890 0.7870 0.7860
11.616000 0.7870 0.7890 0.7920 0.7910 0.7910
11.646973 0.7860 0.7860 0.7890 0.7890 0.7890
11.678000 0.7890 0.7870 0.7860 0.7840 0.7870
11.708973 0.7870 0.7870 0.7860 0.7860 0.7860
11.740000 0.7830 0.7800 0.7830 0.7810 0.7810
11.770973 0.7800 0.7770 0.7730 0.7750 0.7750
11.802000 0.7780 0.7780 0.7770 0.7770 0.7770
11.832973 0.7730 0.7700 0.7720 0.7720 0.7700
11.864000 0.7670 0.7610 0.7560 0.7550 0.7520
11.894973 0.7470 0.7390 0.7360 0.7290 0.7270
11.926000 0.7210 0.7190 0.7190 0.7210 0.7210
11.956973 0.7220 0.7260 0.7290 0.7290 0.7300
11.988000 0.7290 0.7300 0.7300 0.7320 0.7330
12.018973 0.7350 0.7360 0.7380 0.7390 0.7380
12.050000 0.7360 0.7330 0.7330 0.7330 0.7330
12.080973 0.7300 0.7270 0.7260 0.7300 0.7300
12.111000 0.7290 0.7290 0.7240 0.7260 0.7290
12.141973 0.7320 0.7360 0.7380 0.7380 0.7320
12.173000 0.7270 0.7220 0.7210 0.7210 0.7210
12.203973 0.7290 0.7270 0.7240 0.7210 0.7210
12.235000 0.7190 0.7190 0.7190 0.7190 0.7210
12.265973 0.7210 0.7220 0.7240 0.7270 0.7300
12.297000 0.7380 0.7410 0.7470 0.7520 0.7520
12.327973 0.7550 0.7560 0.7560 0.7560 0.7560
12.359000 0.7560 0.7530 0.7520 0.7490 0.7440
12.389973 0.7380 0.7290 0.7150 0.6950 0.6790
12.421000 0.6560 0.6430 0.6160 0.5780 0.5520
12.451973 0.5230 0.4980 0.4810 0.4590 0.4500
12.483000 0.4410 0.4380 0.4410 0.4520 0.4670
12.513973 0.4870 0.5120 0.5340 0.5540 0.5820
12.545000 0.6030 0.6280 0.6480 0.6570 0.6680
12.575973 0.6900 0.6990 0.7130 0.7220 0.7330
12.607000 0.7430 0.7550 0.7610 0.7670 0.7700
12.637973 0.7750 0.7780 0.7800 0.7840 0.7860
12.669000 0.7870 0.7890 0.7950 0.8000 0.8030
12.699973 0.8040 0.8060 0.8060 0.8060 0.8060
12.731000 0.8060 0.8040 0.8040 0.8040 0.8040
12.761973 0.8030 0.8030 0.8010 0.8010 0.8000
12.793000 0.7980 0.7980 0.7970 0.7920 0.7840
12.823973 0.7800 0.7780 0.7750 0.7720 0.7640
12.854000 0.7600 0.7600 0.7560 0.7520 0.7430
12.884973 0.7330 0.7190 0.7020 0.6960 0.6820
12.916000 0.6600 0.6470 0.6250 0.5970 0.5660
12.946973 0.5320 0.4980 0.4670 0.4380 0.4130
12.978000 0.3930 0.3740 0.3630 0.3480 0.3350
13.008973 0.3260 0.3180 0.3140 0.3120 0.3120
13.040000 0.3170 0.3230 0.3340 0.3510 0.3630
13.070973 0.3730 0.3790 0.3850 0.3880 0.3900
13.102000 0.3910 0.3880 0.3820 0.3630 0.3430
13.132973 0.3230 0.2950 0.2730 0.2430 0.2180
13.164000 0.1960 0.1730 0.1510 0.1340 0.1190
13.194973 0.1110 0.1090 0.1090 0.1160 0.1340
13.226000 0.1590 0.1900 0.2190 0.2470 0.2690
13.256973 0.3060 0.3370 0.3650 0.3910 0.4140
13.288000 0.4340 0.4560 0.4760 0.4980 0.5130
13.318973 0.5240 0.5440 0.5570 0.5660 0.5750
13.350000 0.5830 0.5920 0.6030 0.6080 0.6160
13.380973 0.6260 0.6340 0.6400 0.6470 0.6500
13.412000 0.6530 0.6560 0.6590 0.6620 0.6670
13.442973 0.6680 0.6710 0.6760 0.6760 0.6780
13.474000 0.6790 0.6780 0.6760 0.6740 0.6740
13.504973 0.6740 0.6760 0.6790 0.6820 0.6820
13.536000 0.6810 0.6790 0.6810 0.6810 0.6820
13.566973 0.6850 0.6850 0.6880 0.6880 0.6850
13.598000 0.6850 0.6870 0.6900 0.6900 0.6880
13.628973 0.6900 0.6910 0.6910 0.6950 0.6950
13.659000 0.6960 0.6960 0.6950 0.6960 0.6960
13.689973 0.6980 0.7010 0.7040 0.7070 0.7100
13.721000 0.7080 0.7050 0.7020 0.7020 0.6990
13.751973 0.6990 0.6990 0.7010 0.7010 0.7040
13.783000 0.7050 0.7050 0.7040 0.7040 0.7010
13.813973 0.6990 0.6990 0.6980 0.6960 0.6950
13.845000 0.6950 0.6950 0.6960 0.6960 0.6980
13.875973 0.6980 0.6980 0.6980 0.6980 0.6990
13.907000 0.7010 0.7040 0.7050 0.7130 0.7180
13.937973 0.7210 0.7240 0.7270 0.7270 0.7300
13.969000 0.7360 0.7410 0.7460 0.7490 0.7520
13.999973 0.7550 0.7560 0.7600 0.7630 0.7660
14.031000 0.7690 0.7700 0.7720 0.7750 0.7770
14.061973 0.7800 0.7810 0.7830 0.7840 0.7840
14.093000 0.7860 0.7860 0.7870 0.7870 0.7870
14.123973 0.7870 0.7890 0.7910 0.7920 0.7940
14.155000 0.7940 0.7950 0.7950 0.7950 0.7950
14.185973 0.7950 0.7940 0.7940 0.7890 0.7830
14.217000 0.7750 0.7730 0.7630 0.7580 0.7530
14.247973 0.7470 0.7390 0.7320 0.7240 0.7130
14.279000 0.7040 0.6930 0.6820 0.6670 0.6530
14.309973 0.6340 0.6160 0.5920 0.5680 0.5410
14.341000 0.5180 0.4950 0.4640 0.4530 0.4250
14.371973 0.4000 0.3830 0.3590 0.3430 0.3230
14.402000 0.3030 0.2870 0.2730 0.2640 0.2550
14.432973 0.2440 0.2360 0.2300 0.2210 0.2150
14.464000 0.2120 0.2160 0.2190 0.2330 0.2440
14.494973 0.2530 0.2690 0.2840 0.3030 0.3180
14.526000 0.3390 0.3650 0.3910 0.4190 0.4420
14.556973 0.4670 0.4870 0.5030 0.5150 0.5260
14.588000 0.5350 0.5470 0.5610 0.5770 0.5860
14.618973 0.5920 0.5990 0.6030 0.6090 0.6170
14.650000 0.6200 0.6260 0.6280 0.6310 0.6310
14.680973 0.6260 0.6260 0.6260 0.6280 0.6300
14.712000 0.6330 0.6360 0.6340 0.6330 0.6330
14.742973 0.6300 0.6310 0.6330 0.6310 0.6310
14.774000 0.6250 0.6190 0.6160 0.6140 0.6110
14.804973 0.6080 0.6030 0.6000 0.5990 0.5970
14.836000 0.5950 0.5920 0.5910 0.5880 0.5860
14.866973 0.5820 0.5750 0.5690 0.5660 0.5610
14.898000 0.5580 0.5570 0.5510 0.5490 0.5460
14.928973 0.5410 0.5380 0.5370 0.5370 0.5340
14.960000 0.5320 0.5290 0.5260 0.5210 0.5200
14.990973 0.5180 0.5100 0.5000 0.4930 0.4890
15.022000 0.4840 0.4790 0.4720 0.4640 0.4530
15.052973 0.4440 0.4340 0.4250 0.4190 0.4160
15.084000 0.4110 0.4100 0.4080 0.4070 0.4020
15.114973 0.4000 0.3990 0.3990 0.3990 0.3990
15.146000 0.3990 0.4000 0.4000 0.4040 0.4050
15.176973 0.4080 0.4110 0.4160 0.4190 0.4220
15.207000 0.4240 0.4270 0.4300 0.4360 0.4410
15.237973 0.4470 0.4520 0.4530 0.4580 0.4610
15.269000 0.4640 0.4690 0.4720 0.4750 0.4780
15.299973 0.4810 0.4870 0.4920 0.4980 0.5010
15.331000 0.5010 0.5070 0.5090 0.5100 0.5120
15.361973 0.5100 0.5120 0.5130 0.5170 0.5180
15.393000 0.5200 0.5230 0.5260 0.5300 0.5320
15.423973 0.5340 0.5340 0.5350 0.5370 0.5380
15.455000 0.5380 0.5370 0.5370 0.5350 0.5340
15.485973 0.5340 0.5340 0.5340 0.5340 0.5340
15.517000 0.5320 0.5320 0.5340 0.5340 0.5370
15.547973 0.5370 0.5370 0.5370 0.5350 0.5350
15.579000 0.5340 0.5340 0.5340 0.5370 0.5370
15.609973 0.5370 0.5370 0.5370 0.5370 0.5350
15.641000 0.5320 0.5290 0.5260 0.5230 0.5200
15.671973 0.5180 0.5170 0.5150 0.5130 0.5130
15.703000 0.5120 0.5120 0.5100 0.5070 0.5070
15.733973 0.5040 0.5030 0.5030 0.5000 0.4980
15.765000 0.4950 0.4890 0.4870 0.4870 0.4870
15.795973 0.4860 0.4840 0.4820 0.4810 0.4790
15.827000 0.4780 0.4780 0.4780 0.4760 0.4760
15.857973 0.4750 0.4750 0.4750 0.4730 0.4720
15.889000 0.4670 0.4640 0.4610 0.4550 0.4520
15.919973 0.4500 0.4480 0.4470 0.4440 0.4420
15.950000 0.4410 0.4410 0.4410 0.4390 0.4380
15.980973 0.4360 0.4340
##END=
