##TITLE=2-CARBOPHENYL-5-CYANO-6-PHENYL-2,3-DIHYDRO-1,4-PYRAN
##JCAMP-DX=4.24
##DATA TYPE=INFRARED SPECTRUM
##CLASS=COBLENTZ
##ORIGIN=ANDERSON PHYSICAL LABORATORY
##OWNER=COBLENTZ SOCIETY
Collection (C) 2018 copyright by the U.S. Secretary of Commerce
on behalf of the United States of America. All rights reserved.
##DATE=Not specified, most likely prior to 1970
##NAMES=2-benzoyl-6-phenyl-3,4-dihydro-2H-pyran-5-carbonitrile
##MOLFORM=C19 H15 N O2
##SOURCE REFERENCE=COBLENTZ NO. 2760
##$NIST ID=B6002760
##$NIST SOURCE=COBLENTZ
##$NIST IMAGE=cob2760
##SPECTROMETER/DATA SYSTEM=Not specified, most likely a prism, grating, or hybrid spectrometer.
##STATE=SOLID (1.0% IN KBr PELLET)
##PATH LENGTH=0.0355 CM
##SAMPLING PROCEDURE=TRANSMISSION
##RESOLUTION=4
##DATA PROCESSING=DIGITIZED BY NIST FROM HARD COPY (FROM TWO SEGMENTS)
##XUNITS=1/CM
##YUNITS=TRANSMITTANCE
##XFACTOR=1.000000
##YFACTOR=1
##DELTAX=0.934000
##FIRSTX=668.12
##LASTX=3992.23
##FIRSTY=0.275
##MAXX=3992.23
##MINX=668.12
##MAXY=0.956
##MINY=0.037
##NPOINTS=3560
##XYDATA=(X++(Y..Y))
668.120000 0.2750 0.3979 0.3980 0.3950 0.3890
672.790000 0.3850 0.3790 0.3770 0.3790 0.3889
677.459999 0.3970 0.4480 0.4490 0.4490 0.4091
682.129999 0.3911 0.3611 0.2953 0.2562 0.2172
686.799999 0.1870 0.1480 0.1390 0.1360 0.1340
691.469999 0.1310 0.1250 0.1220 0.1210 0.1220
696.139998 0.1240 0.1310 0.1360 0.1810 0.2199
700.809998 0.2230 0.2210 0.2150 0.1971 0.1691
705.479998 0.1420 0.1360 0.1340 0.1340 0.1370
710.149997 0.1639 0.1899 0.2448 0.3007 0.3348
714.819997 0.4421 0.5061 0.6430 0.6490 0.7009
719.489997 0.7718 0.8089 0.8110 0.8329 0.8350
724.159997 0.8450 0.8620 0.8630 0.8710 0.8780
728.829996 0.8860 0.8890 0.8890 0.8920 0.8930
733.499996 0.8960 0.8960 0.8960 0.8960 0.8950
738.169996 0.8950 0.8930 0.8900 0.8890 0.8870
742.839995 0.8840 0.8810 0.8770 0.8720 0.8660
747.509995 0.8600 0.8540 0.8450 0.8331 0.8211
752.179995 0.8050 0.7870 0.7640 0.7490 0.7031
756.849995 0.6461 0.6161 0.6070 0.5622 0.5182
761.519994 0.4730 0.4300 0.3850 0.3341 0.3110
766.189994 0.3080 0.3100 0.3319 0.3678 0.3700
770.859994 0.3700 0.3640 0.3370 0.3260 0.3230
775.529993 0.3230 0.3250 0.3639 0.4088 0.4249
780.199993 0.5422 0.7030 0.8200 0.8779 0.9020
784.869993 0.9070 0.9110 0.9140 0.9140 0.9160
789.539992 0.9160 0.9160 0.9160 0.9160 0.9160
794.209992 0.9160 0.9160 0.9140 0.9140 0.9140
798.879992 0.9130 0.9130 0.9110 0.9110 0.9100
803.549992 0.9100 0.9100 0.9080 0.9080 0.9080
808.219991 0.9080 0.9070 0.9040 0.9020 0.9010
812.889991 0.8990 0.8950 0.8920 0.8870 0.8810
817.559991 0.8720 0.8650 0.8590 0.8510 0.8450
822.229990 0.8380 0.8270 0.8140 0.7971 0.7751
826.899990 0.7520 0.7310 0.7090 0.6850 0.6580
831.569990 0.6141 0.5741 0.5601 0.5570 0.5510
836.239990 0.5450 0.5080 0.4820 0.4570 0.4330
840.909989 0.4071 0.4040 0.4060 0.4478 0.4868
845.579989 0.5662 0.7250 0.8030 0.8090 0.8150
850.249989 0.8170 0.8180 0.8180 0.8230 0.8260
854.919988 0.8350 0.8380 0.8390 0.8380 0.8360
859.589988 0.8270 0.8170 0.8050 0.7911 0.7781
864.259988 0.7630 0.7460 0.7280 0.7100 0.6880
868.929988 0.6641 0.6311 0.5951 0.5562 0.5112
873.599987 0.4599 0.4010 0.3320 0.3140 0.3130
878.269987 0.3140 0.3439 0.3729 0.4009 0.4368
882.939987 0.5080 0.5420 0.6490 0.7579 0.8538
887.609986 0.8740 0.8840 0.8930 0.8990 0.9020
892.279986 0.9020 0.9050 0.9050 0.9050 0.9050
896.949986 0.9040 0.9040 0.9040 0.9020 0.9020
901.619986 0.9020 0.9010 0.8990 0.8990 0.8920
906.289985 0.8870 0.8780 0.8740 0.8710 0.8650
910.959985 0.8560 0.8470 0.8350 0.8290 0.8200
915.629985 0.8060 0.8000 0.7930 0.7731 0.7422
920.299984 0.6970 0.6520 0.6260 0.6200 0.5841
924.969984 0.5481 0.5111 0.5090 0.5110 0.5617
929.639984 0.6070 0.6280 0.6560 0.7119 0.7519
934.309984 0.7999 0.8020 0.8020 0.8020 0.8000
938.979983 0.7990 0.7960 0.7910 0.7880 0.7840
943.649983 0.7810 0.7790 0.7780 0.7760 0.7720
948.319983 0.7610 0.7510 0.7390 0.7190 0.7000
952.989982 0.6791 0.6561 0.6341 0.6101 0.5831
957.659982 0.5510 0.5180 0.4810 0.4390 0.3911
962.329982 0.3311 0.2951 0.2661 0.2600 0.2570
966.999982 0.2590 0.2840 0.3050 0.3340 0.4278
971.669981 0.5627 0.6318 0.7147 0.7638 0.8147
976.339981 0.8240 0.8240 0.8210 0.8200 0.8180
981.009981 0.8140 0.8140 0.8120 0.8110 0.8050
985.679980 0.8000 0.7940 0.7850 0.7750 0.7640
990.349980 0.7540 0.7420 0.7281 0.7151 0.7011
995.019980 0.6940 0.6770 0.6550 0.6250 0.5931
999.689979 0.5601 0.5291 0.5001 0.4751 0.4660
1004.359979 0.4630 0.4600 0.4520 0.4510 0.4520
1009.029979 0.4779 0.5079 0.5498 0.5809 0.6069
1013.699979 0.6260 0.6470 0.6700 0.6940 0.7160
1018.369978 0.7389 0.7400 0.7390 0.7360 0.7330
1023.039978 0.7220 0.7130 0.6790 0.6470 0.6171
1027.709978 0.5811 0.5501 0.5361 0.5350 0.5330
1032.379977 0.5330 0.5330 0.5300 0.5290 0.5210
1037.049977 0.5180 0.5150 0.5140 0.5080 0.4792
1041.719977 0.4720 0.4600 0.4570 0.4600 0.4840
1046.389977 0.5299 0.5320 0.5718 0.6078 0.6528
1051.059976 0.6950 0.7010 0.7030 0.7030 0.7040
1055.729976 0.7040 0.7030 0.7010 0.6980 0.6940
1060.399976 0.6830 0.6740 0.6610 0.6470 0.6320
1065.069975 0.6170 0.5991 0.5801 0.5591 0.5361
1069.739975 0.5150 0.4960 0.4780 0.4640 0.4570
1074.409975 0.4520 0.4450 0.4251 0.4031 0.3771
1079.079975 0.3440 0.3340 0.3290 0.3280 0.3310
1083.749974 0.3380 0.3909 0.4538 0.5118 0.5618
1088.419974 0.6010 0.6050 0.6070 0.6050 0.6020
1093.089974 0.5810 0.5600 0.5331 0.5031 0.4662
1097.759973 0.4520 0.4510 0.4520 0.4610 0.4790
1102.429973 0.5020 0.5080 0.5240 0.5260 0.5260
1107.099973 0.5240 0.5180 0.5170 0.5140 0.5090
1111.769973 0.5060 0.5060 0.5080 0.5090 0.5180
1116.439972 0.5230 0.5290 0.5290 0.5270 0.5210
1121.109972 0.5170 0.5080 0.4930 0.4761 0.4601
1125.779972 0.4420 0.4250 0.4070 0.3880 0.3700
1130.449971 0.3500 0.3310 0.3111 0.2901 0.2691
1135.119971 0.2470 0.2260 0.2020 0.1790 0.1550
1139.789971 0.1300 0.1041 0.0771 0.0710 0.0650
1144.459971 0.0550 0.0470 0.0410 0.0380 0.0370
1149.129970 0.0370 0.0380 0.0410 0.0440 0.0579
1153.799970 0.0730 0.0850 0.0970 0.1070 0.1210
1158.469970 0.1390 0.1639 0.1959 0.2379 0.3047
1163.139969 0.3521 0.3830 0.4040 0.4220 0.4430
1167.809969 0.4690 0.4730 0.4760 0.4750 0.4730
1172.479969 0.4479 0.4099 0.3439 0.2540 0.1940
1177.149969 0.1760 0.1730 0.1730 0.1750 0.1870
1181.819968 0.1960 0.2170 0.2380 0.2840 0.2920
1186.489968 0.2930 0.2930 0.2950 0.2980 0.2980
1191.159968 0.3020 0.3080 0.3260 0.3550 0.3820
1195.829967 0.4100 0.4369 0.4639 0.4879 0.5079
1200.499967 0.5260 0.5420 0.5540 0.5630 0.5650
1205.169967 0.5630 0.5600 0.5470 0.5330 0.5021
1209.839966 0.4399 0.3889 0.3310 0.3290 0.3280
1214.509966 0.3290 0.3350 0.3829 0.4358 0.5047
1219.179966 0.5601 0.5900 0.6220 0.6230 0.6250
1223.849966 0.6230 0.6200 0.6040 0.5960 0.5890
1228.519965 0.5840 0.5630 0.5440 0.5230 0.4810
1233.189965 0.4401 0.3881 0.3312 0.2772 0.2302
1237.859965 0.1970 0.1810 0.1580 0.1570 0.1580
1242.529964 0.1780 0.2019 0.2409 0.2898 0.3497
1247.199964 0.4151 0.4841 0.5530 0.5960 0.6070
1251.869964 0.6100 0.6110 0.6110 0.6110 0.6100
1256.539964 0.6100 0.6100 0.6110 0.6140 0.6190
1261.209963 0.6230 0.6230 0.6250 0.6250 0.6220
1265.879963 0.6160 0.5950 0.5720 0.5470 0.5200
1270.549963 0.4910 0.4611 0.4281 0.3672 0.2953
1275.219962 0.2319 0.1789 0.1300 0.1280 0.1270
1279.889962 0.1280 0.1480 0.1580 0.1630 0.2138
1284.559962 0.2721 0.3321 0.3850 0.4100 0.4300
1289.229962 0.4390 0.4450 0.4490 0.4550 0.4630
1293.899961 0.4720 0.4850 0.5020 0.5240 0.5410
1298.569961 0.5440 0.5480 0.5530 0.5530 0.5540
1303.239961 0.5540 0.5530 0.5480 0.5420 0.5290
1307.909960 0.5080 0.4761 0.4371 0.4011 0.3522
1312.579960 0.3440 0.3410 0.3430 0.3550 0.3590
1317.249960 0.3650 0.3949 0.4249 0.4519 0.4520
1321.919960 0.4449 0.4150 0.3850 0.3550 0.3260
1326.589959 0.2960 0.2711 0.2680 0.2690 0.2800
1331.259959 0.2924 0.4941 0.5811 0.6760 0.7180
1335.929959 0.7510 0.7520 0.7520 0.7510 0.7490
1340.599958 0.7400 0.7330 0.7280 0.7240 0.7150
1345.269958 0.7070 0.6940 0.6830 0.6581 0.6281
1349.939958 0.5949 0.5589 0.5200 0.4810 0.4420
1354.609958 0.4041 0.3651 0.2922 0.2322 0.1404
1359.279957 0.1390 0.1370 0.1390 0.1570 0.1750
1363.949957 0.1930 0.2150 0.2320 0.3047 0.4096
1368.619957 0.4901 0.5481 0.5960 0.6310 0.6640
1373.289956 0.6710 0.6740 0.6710 0.6640 0.6371
1377.959956 0.6170 0.6020 0.5860 0.5650 0.5330
1382.629956 0.4871 0.4311 0.4180 0.4150 0.4160
1387.299956 0.4191 0.4521 0.5120 0.5660 0.6140
1391.969955 0.6579 0.6949 0.7249 0.7489 0.7659
1396.639955 0.7730 0.7930 0.8090 0.8260 0.8380
1401.309955 0.8470 0.8480 0.8540 0.8620 0.8680
1405.979954 0.8720 0.8740 0.8740 0.8740 0.8740
1410.649954 0.8720 0.8710 0.8680 0.8660 0.8650
1415.319954 0.8630 0.8630 0.8620 0.8600 0.8590
1419.989953 0.8570 0.8540 0.8530 0.8480 0.8440
1424.659953 0.8380 0.8330 0.8240 0.8140 0.8080
1429.329953 0.8030 0.7940 0.7790 0.7491 0.7221
1433.999953 0.6859 0.6490 0.6140 0.5900 0.5720
1438.669952 0.5620 0.5530 0.5450 0.5380 0.5270
1443.339952 0.5109 0.4819 0.4400 0.3920 0.3410
1448.009952 0.2931 0.2511 0.2470 0.2470 0.2530
1452.679951 0.2710 0.2861 0.3221 0.3551 0.4070
1457.349951 0.4910 0.5919 0.6908 0.7728 0.8199
1462.019951 0.8500 0.8510 0.8510 0.8510 0.8510
1466.689951 0.8510 0.8510 0.8500 0.8500 0.8500
1471.359950 0.8480 0.8420 0.8330 0.8240 0.8140
1476.029950 0.8060 0.8020 0.7990 0.7970 0.7960
1480.699950 0.7900 0.7840 0.7780 0.7670 0.7550
1485.369949 0.7450 0.7300 0.7010 0.6671 0.6281
1490.039949 0.5889 0.5529 0.5230 0.5200 0.5200
1494.709949 0.5210 0.5500 0.5899 0.6528 0.6949
1499.379949 0.7541 0.7961 0.8210 0.8420 0.8440
1504.049948 0.8440 0.8440 0.8420 0.8420 0.8410
1508.719948 0.8390 0.8380 0.8380 0.8380 0.8360
1513.389948 0.8330 0.8300 0.8260 0.8240 0.8210
1518.059947 0.8200 0.8170 0.8150 0.8120 0.8090
1522.729947 0.8060 0.8050 0.8020 0.8000 0.7990
1527.399947 0.7970 0.7970 0.7960 0.7940 0.7930
1532.069947 0.7900 0.7840 0.7780 0.7730 0.7670
1536.739946 0.7610 0.7550 0.7510 0.7460 0.7420
1541.409946 0.7370 0.7340 0.7330 0.7310 0.7300
1546.079946 0.7280 0.7250 0.7240 0.7210 0.7180
1550.749945 0.7120 0.7060 0.6950 0.6830 0.6710
1555.419945 0.6590 0.6490 0.6410 0.6290 0.6220
1560.089945 0.6190 0.6160 0.6140 0.6110 0.6040
1564.759945 0.5990 0.5919 0.5690 0.5480 0.5210
1569.429944 0.4880 0.4690 0.4670 0.4401 0.4121
1574.099944 0.4040 0.3980 0.3910 0.3880 0.3860
1578.769944 0.3850 0.3850 0.3850 0.3860 0.3880
1583.439943 0.4061 0.4281 0.4510 0.4720 0.4750
1588.109943 0.4700 0.4610 0.4520 0.3951 0.3641
1592.779943 0.3339 0.3039 0.2739 0.2440 0.2140
1597.449943 0.2120 0.2140 0.2200 0.2679 0.3109
1602.119942 0.3642 0.4250 0.4340 0.4340 0.4330
1606.789942 0.4280 0.4220 0.3940 0.3711 0.3471
1611.459942 0.3229 0.2859 0.2439 0.2000 0.1630
1616.129941 0.1330 0.1130 0.1100 0.1090 0.1100
1620.799941 0.1120 0.1210 0.1240 0.1420 0.1600
1625.469941 0.1780 0.1960 0.2140 0.2290 0.2410
1630.139940 0.2952 0.3583 0.4661 0.5451 0.5990
1634.809940 0.6350 0.6590 0.6740 0.6860 0.6940
1639.479940 0.7000 0.7070 0.7120 0.7160 0.7180
1644.149940 0.7190 0.7210 0.7210 0.7210 0.7190
1648.819939 0.7190 0.7190 0.7190 0.7180 0.7180
1653.489939 0.7160 0.7150 0.7130 0.7090 0.7040
1658.159939 0.7000 0.6950 0.6830 0.6710 0.6620
1662.829938 0.6550 0.6470 0.6310 0.6110 0.5871
1667.499938 0.5659 0.5450 0.5270 0.5110 0.4940
1672.169938 0.4810 0.4660 0.4520 0.4370 0.4211
1676.839938 0.4029 0.3830 0.3650 0.3470 0.3320
1681.509937 0.3200 0.3100 0.3040 0.2980 0.2950
1686.179937 0.2930 0.2930 0.2920 0.2920 0.2920
1690.849937 0.2930 0.2950 0.3040 0.3170 0.3379
1695.519936 0.3530 0.3670 0.3790 0.3970 0.4160
1700.189936 0.4390 0.4640 0.4929 0.5209 0.5509
1704.859936 0.5811 0.6131 0.6430 0.6710 0.6980
1709.529936 0.7250 0.7460 0.7640 0.7760 0.7870
1714.199935 0.7930 0.7990 0.8020 0.8080 0.8150
1718.869935 0.8240 0.8350 0.8470 0.8600 0.8740
1723.539935 0.8870 0.8990 0.9110 0.9220 0.9310
1728.209934 0.9350 0.9410 0.9470 0.9490 0.9500
1732.879934 0.9500 0.9500 0.9520 0.9520 0.9520
1737.549934 0.9520 0.9520 0.9520 0.9520 0.9520
1742.219934 0.9520 0.9520 0.9520 0.9520 0.9520
1746.889933 0.9520 0.9520 0.9520 0.9520 0.9520
1751.559933 0.9520 0.9520 0.9520 0.9520 0.9520
1756.229933 0.9520 0.9500 0.9500 0.9500 0.9490
1760.899932 0.9490 0.9470 0.9470 0.9470 0.9470
1765.569932 0.9470 0.9490 0.9490 0.9500 0.9500
1770.239932 0.9500 0.9520 0.9520 0.9550 0.9550
1774.909932 0.9550 0.9550 0.9560 0.9560 0.9550
1779.579931 0.9550 0.9530 0.9530 0.9520 0.9520
1784.249931 0.9500 0.9490 0.9490 0.9470 0.9470
1788.919931 0.9460 0.9460 0.9460 0.9470 0.9470
1793.589930 0.9470 0.9470 0.9470 0.9470 0.9470
1798.259930 0.9460 0.9460 0.9440 0.9430 0.9400
1802.929930 0.9350 0.9310 0.9260 0.9200 0.9160
1807.599930 0.9140 0.9100 0.9040 0.9020 0.9020
1812.269929 0.9010 0.9010 0.9010 0.9010 0.9010
1816.939929 0.9010 0.9010 0.9010 0.9020 0.9020
1821.609929 0.9020 0.9020 0.9020 0.9040 0.9040
1826.279928 0.9050 0.9070 0.9080 0.9080 0.9100
1830.949928 0.9110 0.9130 0.9170 0.9230 0.9260
1835.619928 0.9340 0.9350 0.9370 0.9380 0.9380
1840.289927 0.9400 0.9400 0.9410 0.9430 0.9440
1844.959927 0.9440 0.9440 0.9460 0.9460 0.9470
1849.629927 0.9470 0.9470 0.9470 0.9470 0.9470
1854.299927 0.9470 0.9470 0.9470 0.9470 0.9470
1858.969926 0.9470 0.9460 0.9460 0.9460 0.9460
1863.639926 0.9440 0.9440 0.9430 0.9400 0.9380
1868.309926 0.9370 0.9340 0.9310 0.9280 0.9260
1872.979925 0.9250 0.9230 0.9220 0.9170 0.9140
1877.649925 0.9130 0.9100 0.9070 0.9040 0.9010
1882.319925 0.8980 0.8950 0.8900 0.8860 0.8840
1886.989925 0.8840 0.8830 0.8830 0.8810 0.8810
1891.659924 0.8810 0.8810 0.8810 0.8810 0.8810
1896.329924 0.8810 0.8810 0.8810 0.8800 0.8800
1900.999924 0.8780 0.8780 0.8750 0.8710 0.8660
1905.669923 0.8620 0.8590 0.8560 0.8530 0.8480
1910.339923 0.8420 0.8420 0.8410 0.8390 0.8390
1915.009923 0.8410 0.8410 0.8420 0.8440 0.8440
1919.679923 0.8440 0.8440 0.8440 0.8440 0.8450
1924.349922 0.8470 0.8470 0.8500 0.8510 0.8510
1929.019922 0.8530 0.8560 0.8560 0.8590 0.8590
1933.689922 0.8650 0.8690 0.8710 0.8740 0.8770
1938.359921 0.8780 0.8800 0.8800 0.8800 0.8810
1943.029921 0.8810 0.8810 0.8810 0.8810 0.8810
1947.699921 0.8810 0.8810 0.8800 0.8800 0.8780
1952.369921 0.8780 0.8780 0.8780 0.8770 0.8750
1957.039920 0.8710 0.8680 0.8630 0.8600 0.8560
1961.709920 0.8540 0.8540 0.8510 0.8470 0.8390
1966.379920 0.8360 0.8360 0.8320 0.8270 0.8260
1971.049919 0.8240 0.8210 0.8150 0.8120 0.8080
1975.719919 0.8060 0.8050 0.8030 0.8030 0.8030
1980.389919 0.8050 0.8060 0.8090 0.8110 0.8150
1985.059919 0.8180 0.8240 0.8260 0.8270 0.8320
1989.729918 0.8350 0.8350 0.8360 0.8420 0.8540
1994.399918 0.8620 0.8650 0.8660 0.8680 0.8680
1999.069918 0.8690 0.8690 0.8688 0.8685 0.8683
2003.739917 0.8680 0.8680 0.8680 0.8680 0.8680
2008.409917 0.8680 0.8680 0.8680 0.8680 0.8675
2013.079917 0.8670 0.8665 0.8660 0.8653 0.8646
2017.749917 0.8638 0.8631 0.8628 0.8625 0.8623
2022.419916 0.8620 0.8616 0.8611 0.8606 0.8601
2027.089916 0.8598 0.8595 0.8593 0.8590 0.8586
2031.759916 0.8581 0.8576 0.8571 0.8570 0.8570
2036.429915 0.8570 0.8570 0.8568 0.8565 0.8563
2041.099915 0.8560 0.8560 0.8560 0.8560 0.8560
2045.769915 0.8554 0.8547 0.8539 0.8532 0.8524
2050.439914 0.8517 0.8509 0.8502 0.8495 0.8487
2055.109914 0.8480 0.8472 0.8470 0.8470 0.8470
2059.779914 0.8470 0.8465 0.8457 0.8450 0.8443
2064.449914 0.8440 0.8440 0.8440 0.8440 0.8437
2069.119913 0.8432 0.8427 0.8422 0.8418 0.8416
2073.789913 0.8413 0.8411 0.8402 0.8389 0.8377
2078.459913 0.8365 0.8360 0.8360 0.8360 0.8360
2083.129912 0.8354 0.8344 0.8334 0.8324 0.8313
2087.799912 0.8300 0.8288 0.8276 0.8262 0.8247
2092.469912 0.8232 0.8217 0.8202 0.8187 0.8172
2097.139912 0.8157 0.8142 0.8128 0.8113 0.8098
2101.809911 0.8085 0.8075 0.8065 0.8055 0.8041
2106.479911 0.8021 0.8001 0.7981 0.7966 0.7956
2111.149911 0.7945 0.7935 0.7917 0.7890 0.7862
2115.819910 0.7835 0.7817 0.7809 0.7802 0.7794
2120.489910 0.7786 0.7776 0.7766 0.7756 0.7726
2125.159910 0.7666 0.7607 0.7547 0.7507 0.7500
2129.829910 0.7492 0.7485 0.7477 0.7470 0.7462
2134.499909 0.7455 0.7448 0.7440 0.7433 0.7425
2139.169909 0.7416 0.7404 0.7391 0.7379 0.7365
2143.839909 0.7348 0.7330 0.7313 0.7295 0.7275
2148.509908 0.7254 0.7234 0.7191 0.7094 0.6997
2153.179908 0.6900 0.6805 0.6716 0.6626 0.6537
2157.849908 0.6449 0.6367 0.6285 0.6203 0.6109
2162.519908 0.5975 0.5841 0.5707 0.5571 0.5430
2167.189907 0.5288 0.5146 0.4987 0.4749 0.4510
2171.859907 0.4272 0.4043 0.3869 0.3695 0.3522
2176.529907 0.3323 0.2961 0.2598 0.2235 0.1910
2181.199906 0.1907 0.1905 0.1902 0.1900 0.1903
2185.869906 0.1905 0.1908 0.1929 0.2076 0.2222
2190.539906 0.2369 0.2515 0.2656 0.2798 0.2940
2195.209906 0.3072 0.3102 0.3132 0.3162 0.3206
2199.879905 0.3496 0.3787 0.4078 0.4381 0.5119
2204.549905 0.5857 0.6595 0.7331 0.7592 0.7853
2209.219905 0.8114 0.8375 0.8387 0.8395 0.8402
2213.889904 0.8410 0.8410 0.8410 0.8410 0.8410
2218.559904 0.8403 0.8396 0.8388 0.8381 0.8380
2223.229904 0.8380 0.8380 0.8380 0.8373 0.8365
2227.899904 0.8358 0.8351 0.8345 0.8340 0.8335
2232.569903 0.8330 0.8317 0.8302 0.8287 0.8272
2237.239903 0.8250 0.8228 0.8206 0.8183 0.8174
2241.909903 0.8166 0.8159 0.8151 0.8144 0.8136
2246.579902 0.8129 0.8121 0.8114 0.8107 0.8099
2251.249902 0.8092 0.8084 0.8077 0.8069 0.8062
2255.919902 0.8049 0.8034 0.8019 0.8004 0.7994
2260.589901 0.7987 0.7979 0.7972 0.7968 0.7966
2265.259901 0.7963 0.7961 0.7956 0.7951 0.7946
2269.929901 0.7941 0.7938 0.7936 0.7933 0.7931
2274.599901 0.7930 0.7930 0.7930 0.7930 0.7932
2279.269900 0.7934 0.7937 0.7939 0.7943 0.7948
2283.939900 0.7953 0.7958 0.7960 0.7960 0.7960
2288.609900 0.7960 0.7957 0.7952 0.7947 0.7942
2293.279899 0.7940 0.7940 0.7940 0.7940 0.7936
2297.949899 0.7928 0.7921 0.7913 0.7904 0.7894
2302.619899 0.7884 0.7874 0.7861 0.7846 0.7832
2307.289899 0.7817 0.7803 0.7791 0.7778 0.7766
2311.959898 0.7759 0.7756 0.7754 0.7751 0.7748
2316.629898 0.7743 0.7738 0.7733 0.7730 0.7730
2321.299898 0.7730 0.7730 0.7730 0.7730 0.7730
2325.969897 0.7730 0.7730 0.7730 0.7730 0.7730
2330.639897 0.7732 0.7737 0.7742 0.7747 0.7750
2335.309897 0.7750 0.7750 0.7750 0.7750 0.7750
2339.979897 0.7750 0.7750 0.7750 0.7750 0.7750
2344.649896 0.7750 0.7748 0.7743 0.7738 0.7733
2349.319896 0.7729 0.7727 0.7724 0.7722 0.7720
2353.989896 0.7720 0.7720 0.7720 0.7720 0.7720
2358.659895 0.7720 0.7720 0.7719 0.7714 0.7709
2363.329895 0.7704 0.7700 0.7700 0.7700 0.7700
2367.999895 0.7700 0.7700 0.7700 0.7700 0.7699
2372.669895 0.7697 0.7694 0.7692 0.7690 0.7690
2377.339894 0.7690 0.7690 0.7690 0.7690 0.7690
2382.009894 0.7690 0.7689 0.7684 0.7679 0.7674
2386.679894 0.7669 0.7661 0.7654 0.7646 0.7639
2391.349893 0.7631 0.7624 0.7616 0.7609 0.7602
2396.019893 0.7594 0.7587 0.7580 0.7577 0.7575
2400.689893 0.7572 0.7570 0.7565 0.7560 0.7555
2405.359893 0.7550 0.7547 0.7545 0.7542 0.7540
2410.029892 0.7540 0.7540 0.7540 0.7540 0.7535
2414.699892 0.7530 0.7525 0.7520 0.7520 0.7520
2419.369892 0.7520 0.7520 0.7520 0.7520 0.7520
2424.039891 0.7520 0.7518 0.7515 0.7513 0.7510
2428.709891 0.7505 0.7500 0.7495 0.7490 0.7490
2433.379891 0.7490 0.7490 0.7490 0.7488 0.7485
2438.049891 0.7483 0.7480 0.7476 0.7471 0.7466
2442.719890 0.7461 0.7460 0.7460 0.7460 0.7460
2447.389890 0.7458 0.7455 0.7453 0.7450 0.7450
2452.059890 0.7450 0.7450 0.7450 0.7446 0.7441
2456.729889 0.7436 0.7431 0.7430 0.7430 0.7430
2461.399889 0.7430 0.7430 0.7430 0.7430 0.7430
2466.069889 0.7424 0.7417 0.7409 0.7402 0.7398
2470.739888 0.7396 0.7393 0.7391 0.7390 0.7390
2475.409888 0.7390 0.7390 0.7386 0.7381 0.7376
2480.079888 0.7371 0.7370 0.7370 0.7370 0.7370
2484.749888 0.7370 0.7370 0.7370 0.7370 0.7365
2489.419887 0.7357 0.7350 0.7342 0.7338 0.7336
2494.089887 0.7333 0.7331 0.7327 0.7322 0.7317
2498.759887 0.7312 0.7308 0.7306 0.7303 0.7301
2503.429886 0.7300 0.7300 0.7300 0.7300 0.7300
2508.099886 0.7300 0.7300 0.7300 0.7300 0.7300
2512.769886 0.7300 0.7300 0.7300 0.7300 0.7300
2517.439886 0.7300 0.7297 0.7292 0.7287 0.7282
2522.109885 0.7279 0.7276 0.7274 0.7271 0.7266
2526.779885 0.7258 0.7251 0.7244 0.7237 0.7232
2531.449885 0.7227 0.7222 0.7220 0.7220 0.7220
2536.119884 0.7220 0.7219 0.7216 0.7214 0.7211
2540.789884 0.7210 0.7210 0.7210 0.7210 0.7208
2545.459884 0.7203 0.7198 0.7193 0.7190 0.7190
2550.129884 0.7190 0.7190 0.7189 0.7187 0.7184
2554.799883 0.7182 0.7180 0.7180 0.7180 0.7180
2559.469883 0.7178 0.7173 0.7168 0.7163 0.7159
2564.139883 0.7157 0.7154 0.7152 0.7148 0.7143
2568.809882 0.7138 0.7133 0.7130 0.7130 0.7130
2573.479882 0.7130 0.7129 0.7127 0.7124 0.7122
2578.149882 0.7120 0.7120 0.7120 0.7120 0.7120
2582.819882 0.7120 0.7120 0.7120 0.7119 0.7114
2587.489881 0.7109 0.7104 0.7100 0.7100 0.7100
2592.159881 0.7100 0.7100 0.7100 0.7100 0.7100
2596.829881 0.7100 0.7097 0.7095 0.7092 0.7089
2601.499880 0.7084 0.7079 0.7074 0.7069 0.7061
2606.169880 0.7054 0.7046 0.7040 0.7040 0.7040
2610.839880 0.7040 0.7040 0.7040 0.7040 0.7040
2615.509880 0.7040 0.7037 0.7035 0.7032 0.7030
2620.179879 0.7030 0.7030 0.7030 0.7030 0.7025
2624.849879 0.7020 0.7015 0.7010 0.7007 0.7005
2629.519879 0.7002 0.7000 0.7000 0.7000 0.7000
2634.189878 0.7000 0.6995 0.6990 0.6985 0.6980
2638.859878 0.6980 0.6980 0.6980 0.6980 0.6965
2643.529878 0.6950 0.6935 0.6920 0.6913 0.6905
2648.199878 0.6898 0.6890 0.6888 0.6885 0.6883
2652.869877 0.6880 0.6875 0.6870 0.6865 0.6860
2657.539877 0.6858 0.6855 0.6853 0.6850 0.6846
2662.209877 0.6841 0.6836 0.6831 0.6828 0.6825
2666.879876 0.6823 0.6820 0.6820 0.6820 0.6820
2671.549876 0.6820 0.6820 0.6820 0.6820 0.6820
2676.219876 0.6816 0.6811 0.6806 0.6801 0.6798
2680.889875 0.6795 0.6793 0.6790 0.6786 0.6781
2685.559875 0.6776 0.6771 0.6770 0.6770 0.6770
2690.229875 0.6770 0.6768 0.6766 0.6763 0.6761
2694.899875 0.6751 0.6739 0.6726 0.6714 0.6705
2699.569874 0.6697 0.6690 0.6682 0.6670 0.6655
2704.239874 0.6640 0.6625 0.6610 0.6595 0.6580
2708.909874 0.6566 0.6554 0.6544 0.6533 0.6523
2713.579873 0.6515 0.6507 0.6500 0.6493 0.6485
2718.249873 0.6478 0.6470 0.6463 0.6457 0.6452
2722.919873 0.6447 0.6442 0.6435 0.6428 0.6421
2727.589873 0.6413 0.6406 0.6398 0.6391 0.6383
2732.259872 0.6375 0.6365 0.6355 0.6345 0.6337
2736.929872 0.6332 0.6327 0.6322 0.6320 0.6320
2741.599872 0.6320 0.6320 0.6319 0.6316 0.6314
2746.269871 0.6311 0.6310 0.6310 0.6310 0.6310
2750.939871 0.6310 0.6310 0.6310 0.6310 0.6308
2755.609871 0.6303 0.6298 0.6293 0.6289 0.6286
2760.279871 0.6284 0.6281 0.6274 0.6259 0.6244
2764.949870 0.6229 0.6212 0.6192 0.6172 0.6152
2769.619870 0.6129 0.6099 0.6069 0.6039 0.6014
2774.289870 0.5996 0.5979 0.5962 0.5948 0.5943
2778.959869 0.5938 0.5933 0.5925 0.5907 0.5890
2783.629869 0.5873 0.5856 0.5844 0.5831 0.5818
2788.299869 0.5802 0.5777 0.5752 0.5727 0.5697
2792.969869 0.5655 0.5613 0.5570 0.5532 0.5502
2797.639868 0.5472 0.5442 0.5414 0.5389 0.5364
2802.309868 0.5339 0.5317 0.5305 0.5292 0.5280
2806.979868 0.5269 0.5267 0.5265 0.5262 0.5260
2811.649867 0.5260 0.5260 0.5260 0.5260 0.5260
2816.319867 0.5260 0.5260 0.5260 0.5263 0.5265
2820.989867 0.5268 0.5271 0.5278 0.5286 0.5294
2825.659867 0.5301 0.5306 0.5311 0.5316 0.5320
2830.329866 0.5320 0.5320 0.5320 0.5319 0.5312
2834.999866 0.5304 0.5297 0.5289 0.5274 0.5259
2839.669866 0.5244 0.5229 0.5214 0.5199 0.5184
2844.339865 0.5169 0.5124 0.5079 0.5035 0.4990
2849.009865 0.4970 0.4950 0.4930 0.4910 0.4878
2853.679865 0.4846 0.4814 0.4782 0.4747 0.4712
2858.349865 0.4677 0.4642 0.4612 0.4581 0.4551
2863.019864 0.4521 0.4518 0.4515 0.4513 0.4510
2867.689864 0.4510 0.4510 0.4510 0.4510 0.4510
2872.359864 0.4510 0.4510 0.4510 0.4512 0.4515
2877.029863 0.4517 0.4520 0.4520 0.4520 0.4520
2881.699863 0.4520 0.4537 0.4557 0.4577 0.4597
2886.369863 0.4625 0.4655 0.4684 0.4714 0.4770
2891.039862 0.4832 0.4894 0.4956 0.5026 0.5098
2895.709862 0.5170 0.5242 0.5302 0.5358 0.5413
2900.379862 0.5469 0.5510 0.5547 0.5584 0.5622
2905.049862 0.5642 0.5657 0.5671 0.5686 0.5694
2909.719861 0.5699 0.5704 0.5709 0.5710 0.5710
2914.389861 0.5710 0.5710 0.5712 0.5714 0.5717
2919.059861 0.5719 0.5723 0.5728 0.5733 0.5738
2923.729860 0.5740 0.5740 0.5740 0.5740 0.5740
2928.399860 0.5740 0.5740 0.5740 0.5741 0.5744
2933.069860 0.5746 0.5749 0.5750 0.5750 0.5750
2937.739860 0.5750 0.5748 0.5746 0.5743 0.5741
2942.409859 0.5740 0.5740 0.5740 0.5740 0.5737
2947.079859 0.5732 0.5727 0.5722 0.5720 0.5720
2951.749859 0.5720 0.5720 0.5719 0.5716 0.5714
2956.419858 0.5711 0.5706 0.5699 0.5691 0.5684
2961.089858 0.5678 0.5673 0.5668 0.5663 0.5659
2965.759858 0.5656 0.5654 0.5651 0.5648 0.5643
2970.429858 0.5638 0.5633 0.5626 0.5616 0.5606
2975.099857 0.5596 0.5583 0.5568 0.5553 0.5539
2979.769857 0.5520 0.5498 0.5476 0.5453 0.5437
2984.439857 0.5430 0.5422 0.5415 0.5407 0.5400
2989.109856 0.5392 0.5385 0.5376 0.5363 0.5351
2993.779856 0.5338 0.5323 0.5300 0.5278 0.5256
2998.449856 0.5233 0.5211 0.5189 0.5166 0.5144
3003.119856 0.5121 0.5099 0.5077 0.5056 0.5038
3007.789855 0.5021 0.5003 0.4985 0.4965 0.4945
3012.459855 0.4925 0.4904 0.4881 0.4859 0.4837
3017.129855 0.4816 0.4798 0.4781 0.4763 0.4745
3021.799854 0.4723 0.4700 0.4678 0.4655 0.4633
3026.469854 0.4611 0.4588 0.4569 0.4564 0.4559
3031.139854 0.4554 0.4550 0.4547 0.4545 0.4542
3035.809854 0.4540 0.4540 0.4540 0.4540 0.4540
3040.479853 0.4543 0.4545 0.4548 0.4551 0.4558
3045.149853 0.4565 0.4573 0.4581 0.4604 0.4627
3049.819853 0.4650 0.4674 0.4708 0.4743 0.4778
3054.489852 0.4813 0.4845 0.4877 0.4909 0.4943
3059.159852 0.4995 0.5047 0.5099 0.5152 0.5216
3063.829852 0.5281 0.5346 0.5410 0.5447 0.5485
3068.499852 0.5522 0.5559 0.5582 0.5604 0.5627
3073.169851 0.5649 0.5659 0.5669 0.5679 0.5689
3077.839851 0.5697 0.5704 0.5712 0.5719 0.5724
3082.509851 0.5729 0.5734 0.5739 0.5747 0.5754
3087.179850 0.5762 0.5769 0.5772 0.5775 0.5777
3091.849850 0.5780 0.5780 0.5780 0.5780 0.5780
3096.519850 0.5784 0.5789 0.5794 0.5799 0.5800
3101.189849 0.5800 0.5800 0.5800 0.5800 0.5800
3105.859849 0.5800 0.5800 0.5796 0.5791 0.5786
3110.529849 0.5781 0.5778 0.5776 0.5773 0.5771
3115.199849 0.5770 0.5770 0.5770 0.5770 0.5765
3119.869848 0.5757 0.5750 0.5742 0.5740 0.5740
3124.539848 0.5740 0.5740 0.5736 0.5731 0.5726
3129.209848 0.5721 0.5720 0.5720 0.5720 0.5720
3133.879847 0.5720 0.5720 0.5720 0.5720 0.5723
3138.549847 0.5728 0.5733 0.5738 0.5740 0.5740
3143.219847 0.5740 0.5740 0.5740 0.5740 0.5740
3147.889847 0.5740 0.5737 0.5732 0.5727 0.5722
3152.559846 0.5716 0.5708 0.5701 0.5693 0.5690
3157.229846 0.5690 0.5690 0.5690 0.5689 0.5686
3161.899846 0.5684 0.5681 0.5676 0.5668 0.5661
3166.569845 0.5653 0.5647 0.5642 0.5637 0.5632
3171.239845 0.5629 0.5626 0.5624 0.5621 0.5620
3175.909845 0.5620 0.5620 0.5620 0.5616 0.5609
3180.579845 0.5602 0.5594 0.5587 0.5579 0.5572
3185.249844 0.5564 0.5558 0.5553 0.5548 0.5543
3189.919844 0.5539 0.5537 0.5534 0.5532 0.5528
3194.589844 0.5523 0.5518 0.5513 0.5509 0.5507
3199.259843 0.5504 0.5502 0.5498 0.5493 0.5488
3203.929843 0.5483 0.5479 0.5477 0.5474 0.5472
3208.599843 0.5468 0.5463 0.5458 0.5453 0.5449
3213.269843 0.5447 0.5444 0.5442 0.5438 0.5434
3217.939842 0.5429 0.5424 0.5419 0.5417 0.5414
3222.609842 0.5412 0.5408 0.5401 0.5393 0.5386
3227.279842 0.5378 0.5371 0.5363 0.5356 0.5347
3231.949841 0.5335 0.5323 0.5310 0.5299 0.5291
3236.619841 0.5283 0.5276 0.5270 0.5270 0.5270
3241.289841 0.5270 0.5269 0.5267 0.5265 0.5262
3245.959841 0.5260 0.5260 0.5260 0.5260 0.5259
3250.629840 0.5254 0.5249 0.5244 0.5240 0.5240
3255.299840 0.5240 0.5240 0.5240 0.5237 0.5235
3259.969840 0.5232 0.5229 0.5217 0.5204 0.5192
3264.639839 0.5179 0.5170 0.5160 0.5150 0.5140
3269.309839 0.5127 0.5115 0.5102 0.5090 0.5087
3273.979839 0.5085 0.5082 0.5080 0.5080 0.5080
3278.649839 0.5080 0.5080 0.5067 0.5055 0.5042
3283.319838 0.5030 0.5030 0.5030 0.5030 0.5030
3287.989838 0.5028 0.5025 0.5023 0.5020 0.5008
3292.659838 0.4996 0.4983 0.4971 0.4968 0.4965
3297.329837 0.4963 0.4960 0.4960 0.4960 0.4960
3301.999837 0.4960 0.4949 0.4937 0.4924 0.4912
3306.669837 0.4904 0.4896 0.4889 0.4881 0.4872
3311.339836 0.4861 0.4851 0.4841 0.4836 0.4831
3316.009836 0.4826 0.4821 0.4807 0.4792 0.4777
3320.679836 0.4763 0.4752 0.4742 0.4732 0.4722
3325.349836 0.4710 0.4698 0.4685 0.4673 0.4664
3330.019835 0.4657 0.4649 0.4642 0.4634 0.4627
3334.689835 0.4619 0.4612 0.4603 0.4593 0.4583
3339.359835 0.4573 0.4567 0.4562 0.4557 0.4552
3344.029834 0.4550 0.4550 0.4550 0.4550 0.4550
3348.699834 0.4550 0.4550 0.4550 0.4554 0.4558
3353.369834 0.4563 0.4568 0.4572 0.4574 0.4577
3358.039834 0.4579 0.4583 0.4588 0.4593 0.4598
3362.709833 0.4600 0.4600 0.4600 0.4600 0.4600
3367.379833 0.4600 0.4600 0.4600 0.4600 0.4600
3372.049833 0.4600 0.4600 0.4597 0.4592 0.4587
3376.719832 0.4582 0.4580 0.4580 0.4580 0.4580
3381.389832 0.4579 0.4576 0.4574 0.4571 0.4568
3386.059832 0.4563 0.4557 0.4552 0.4550 0.4550
3390.729832 0.4550 0.4550 0.4549 0.4546 0.4544
3395.399831 0.4541 0.4540 0.4540 0.4540 0.4540
3400.069831 0.4538 0.4533 0.4528 0.4523 0.4520
3404.739831 0.4520 0.4520 0.4520 0.4519 0.4517
3409.409830 0.4514 0.4512 0.4510 0.4510 0.4510
3414.079830 0.4510 0.4508 0.4503 0.4498 0.4493
3418.749830 0.4490 0.4490 0.4490 0.4490 0.4490
3423.419830 0.4490 0.4490 0.4490 0.4489 0.4487
3428.089829 0.4484 0.4482 0.4480 0.4480 0.4480
3432.759829 0.4480 0.4480 0.4480 0.4480 0.4480
3437.429829 0.4480 0.4480 0.4480 0.4480 0.4480
3442.099828 0.4480 0.4480 0.4480 0.4481 0.4483
3446.769828 0.4486 0.4488 0.4490 0.4490 0.4490
3451.439828 0.4490 0.4491 0.4496 0.4501 0.4506
3456.109828 0.4510 0.4510 0.4510 0.4510 0.4511
3460.779827 0.4519 0.4526 0.4534 0.4540 0.4540
3465.449827 0.4540 0.4540 0.4540 0.4543 0.4545
3470.119827 0.4548 0.4551 0.4556 0.4561 0.4566
3474.789826 0.4570 0.4570 0.4570 0.4570 0.4570
3479.459826 0.4573 0.4575 0.4578 0.4580 0.4585
3484.129826 0.4590 0.4595 0.4600 0.4603 0.4605
3488.799826 0.4608 0.4610 0.4610 0.4610 0.4610
3493.469825 0.4610 0.4610 0.4610 0.4610 0.4610
3498.139825 0.4615 0.4620 0.4625 0.4630 0.4630
3502.809825 0.4630 0.4630 0.4630 0.4630 0.4630
3507.479824 0.4630 0.4630 0.4632 0.4635 0.4637
3512.149824 0.4640 0.4640 0.4640 0.4640 0.4640
3516.819824 0.4644 0.4649 0.4654 0.4659 0.4660
3521.489823 0.4660 0.4660 0.4660 0.4660 0.4660
3526.159823 0.4660 0.4660 0.4660 0.4660 0.4660
3530.829823 0.4660 0.4662 0.4664 0.4667 0.4669
3535.499823 0.4670 0.4670 0.4670 0.4670 0.4674
3540.169822 0.4679 0.4684 0.4689 0.4692 0.4694
3544.839822 0.4697 0.4699 0.4706 0.4713 0.4721
3549.509822 0.4728 0.4741 0.4756 0.4771 0.4786
3554.179821 0.4794 0.4799 0.4804 0.4809 0.4812
3558.849821 0.4814 0.4817 0.4819 0.4820 0.4820
3563.519821 0.4820 0.4820 0.4823 0.4828 0.4833
3568.189821 0.4838 0.4842 0.4844 0.4847 0.4849
3572.859820 0.4853 0.4858 0.4863 0.4868 0.4870
3577.529820 0.4870 0.4870 0.4870 0.4870 0.4870
3582.199820 0.4870 0.4870 0.4871 0.4874 0.4876
3586.869819 0.4879 0.4880 0.4880 0.4880 0.4880
3591.539819 0.4880 0.4880 0.4880 0.4880 0.4880
3596.209819 0.4880 0.4880 0.4880 0.4880 0.4880
3600.879819 0.4880 0.4880 0.4880 0.4880 0.4880
3605.549818 0.4880 0.4880 0.4880 0.4880 0.4880
3610.219818 0.4880 0.4880 0.4880 0.4880 0.4880
3614.889818 0.4880 0.4880 0.4880 0.4882 0.4887
3619.559817 0.4892 0.4897 0.4900 0.4900 0.4900
3624.229817 0.4900 0.4900 0.4900 0.4900 0.4900
3628.899817 0.4900 0.4900 0.4900 0.4900 0.4900
3633.569817 0.4900 0.4900 0.4900 0.4900 0.4900
3638.239816 0.4900 0.4900 0.4900 0.4900 0.4900
3642.909816 0.4900 0.4900 0.4900 0.4900 0.4900
3647.579816 0.4900 0.4900 0.4900 0.4900 0.4900
3652.249815 0.4900 0.4900 0.4900 0.4900 0.4900
3656.919815 0.4900 0.4900 0.4900 0.4900 0.4900
3661.589815 0.4900 0.4900 0.4900 0.4900 0.4900
3666.259815 0.4900 0.4900 0.4900 0.4900 0.4899
3670.929814 0.4894 0.4889 0.4884 0.4880 0.4880
3675.599814 0.4880 0.4880 0.4880 0.4880 0.4880
3680.269814 0.4880 0.4880 0.4877 0.4875 0.4872
3684.939813 0.4870 0.4870 0.4870 0.4870 0.4870
3689.609813 0.4870 0.4870 0.4870 0.4869 0.4865
3694.279813 0.4860 0.4855 0.4850 0.4850 0.4850
3698.949813 0.4850 0.4850 0.4847 0.4845 0.4842
3703.619812 0.4840 0.4835 0.4830 0.4825 0.4820
3708.289812 0.4818 0.4815 0.4813 0.4810 0.4810
3712.959812 0.4810 0.4810 0.4810 0.4810 0.4810
3717.629811 0.4810 0.4810 0.4805 0.4800 0.4795
3722.299811 0.4790 0.4790 0.4790 0.4790 0.4790
3726.969811 0.4788 0.4785 0.4783 0.4780 0.4775
3731.639810 0.4770 0.4765 0.4760 0.4760 0.4760
3736.309810 0.4760 0.4760 0.4758 0.4755 0.4753
3740.979810 0.4750 0.4750 0.4750 0.4750 0.4750
3745.649810 0.4746 0.4741 0.4736 0.4731 0.4728
3750.319809 0.4726 0.4723 0.4721 0.4720 0.4720
3754.989809 0.4720 0.4720 0.4716 0.4711 0.4706
3759.659809 0.4701 0.4698 0.4696 0.4693 0.4691
3764.329808 0.4684 0.4677 0.4669 0.4662 0.4656
3768.999808 0.4651 0.4646 0.4641 0.4640 0.4640
3773.669808 0.4640 0.4640 0.4638 0.4636 0.4633
3778.339808 0.4631 0.4627 0.4622 0.4617 0.4612
3783.009807 0.4610 0.4610 0.4610 0.4610 0.4610
3787.679807 0.4610 0.4610 0.4610 0.4610 0.4610
3792.349807 0.4610 0.4610 0.4610 0.4610 0.4610
3797.019806 0.4610 0.4610 0.4610 0.4610 0.4610
3801.689806 0.4609 0.4606 0.4604 0.4601 0.4600
3806.359806 0.4600 0.4600 0.4600 0.4597 0.4592
3811.029806 0.4587 0.4582 0.4579 0.4576 0.4574
3815.699805 0.4571 0.4566 0.4559 0.4551 0.4544
3820.369805 0.4538 0.4533 0.4528 0.4523 0.4520
3825.039805 0.4520 0.4520 0.4520 0.4519 0.4516
3829.709804 0.4514 0.4511 0.4510 0.4510 0.4510
3834.379804 0.4510 0.4510 0.4510 0.4510 0.4510
3839.049804 0.4510 0.4510 0.4510 0.4510 0.4510
3843.719804 0.4510 0.4510 0.4510 0.4510 0.4510
3848.389803 0.4510 0.4510 0.4510 0.4510 0.4510
3853.059803 0.4510 0.4510 0.4510 0.4510 0.4510
3857.729803 0.4510 0.4510 0.4510 0.4510 0.4509
3862.399802 0.4504 0.4499 0.4494 0.4490 0.4490
3867.069802 0.4490 0.4490 0.4490 0.4490 0.4490
3871.739802 0.4490 0.4490 0.4490 0.4490 0.4490
3876.409802 0.4490 0.4490 0.4490 0.4490 0.4490
3881.079801 0.4490 0.4490 0.4490 0.4490 0.4490
3885.749801 0.4490 0.4490 0.4490 0.4490 0.4490
3890.419801 0.4490 0.4490 0.4490 0.4490 0.4490
3895.089800 0.4490 0.4490 0.4490 0.4490 0.4490
3899.759800 0.4487 0.4485 0.4482 0.4480 0.4475
3904.429800 0.4470 0.4465 0.4460 0.4457 0.4455
3909.099800 0.4452 0.4450 0.4442 0.4435 0.4427
3913.769799 0.4420 0.4415 0.4410 0.4405 0.4400
3918.439799 0.4397 0.4395 0.4392 0.4390 0.4385
3923.109799 0.4380 0.4375 0.4370 0.4370 0.4370
3927.779798 0.4370 0.4370 0.4363 0.4355 0.4348
3932.449798 0.4340 0.4340 0.4340 0.4340 0.4340
3937.119798 0.4340 0.4340 0.4340 0.4340 0.4340
3941.789797 0.4340 0.4340 0.4340 0.4340 0.4340
3946.459797 0.4340 0.4340 0.4338 0.4335 0.4333
3951.129797 0.4330 0.4330 0.4330 0.4330 0.4330
3955.799797 0.4330 0.4330 0.4330 0.4330 0.4330
3960.469796 0.4330 0.4330 0.4330 0.4326 0.4321
3965.139796 0.4316 0.4311 0.4310 0.4310 0.4310
3969.809796 0.4310 0.4310 0.4310 0.4310 0.4310
3974.479795 0.4310 0.4310 0.4310 0.4310 0.4310
3979.149795 0.4310 0.4310 0.4310 0.4310 0.4310
3983.819795 0.4310 0.4310 0.4310 0.4310 0.4310
3988.489795 0.4310 0.4310 0.4310 0.4310 0.4310
##END=
