##TITLE=Urea, 1-(2'-tert-butylphenyl)-3,3-dimethyl-
##JCAMP-DX=4.24
##DATA TYPE=INFRARED SPECTRUM
##CLASS=COBLENTZ III
##ORIGIN=MONSANTO (J. FREEMAN)
##OWNER=Copyright (C) 1987 by the Coblentz Society
Collection (C) 2018 copyright by the U.S. Secretary of Commerce
on behalf of the United States of America. All rights reserved.
##DATE=1959/05/19
##NAMES=N'-(2-tert-butylphenyl)-N,N-dimethylurea
##MOLFORM=C13 H20 N2 O
##SOURCE REFERENCE=COBLENTZ NO. 9299
##$NIST ID=B6009299
##$NIST SOURCE=COBLENTZ
##$NIST IMAGE=cob9299
##SPECTROMETER/DATA SYSTEM=BECKMAN IR-4 (HYBRID PRISM-GRATING)
##INSTRUMENT PARAMETERS=NaCl PRISM
##STATE=SOLID (NUJOL MULL)
$$SPECTRAL CONTAMINATION DUE TO OIL AROUND 2900, 1450 CM^-^1
##SAMPLING PROCEDURE=TRANSMISSION
##RESOLUTION=2
##DATA PROCESSING=DIGITIZED BY COBLENTZ SOCIETY (BATCH II) FROM HARD COPY
##XUNITS=1/CM
##YUNITS=TRANSMITTANCE
##XFACTOR=1.0
##YFACTOR=1
##FIRSTX=627
##LASTX=4000
##FIRSTY=0.6785
##MAXX=4000
##MINX=627
##MAXY=0.9323
##MINY=0.0052
##NPOINTS=3374
##XYDATA=(X++(Y..Y))
627.000000 0.6785 0.6833 0.6885 0.6943 0.7008
632.000000 0.7079 0.7140 0.7196 0.7247 0.7298
637.000000 0.7343 0.7372 0.7391 0.7410 0.7388
642.000000 0.7386 0.7383 0.7378 0.7365 0.7351
647.000000 0.7337 0.7310 0.7268 0.7215 0.7158
652.000000 0.7072 0.6985 0.6891 0.6779 0.6661
657.000000 0.6530 0.6408 0.6289 0.6210 0.6177
662.000000 0.6148 0.6123 0.6106 0.6105 0.6118
667.000000 0.6145 0.6200 0.6275 0.6368 0.6472
672.000000 0.6589 0.6688 0.6765 0.6837 0.6900
677.000000 0.6963 0.7019 0.7015 0.6995 0.6979
682.000000 0.6979 0.6997 0.7014 0.7052 0.7103
687.000000 0.7157 0.7224 0.7280 0.7334 0.7365
692.000000 0.7390 0.7406 0.7430 0.7467 0.7543
697.000000 0.7610 0.7664 0.7685 0.7682 0.7611
702.000000 0.7306 0.6900 0.6495 0.6091 0.5792
707.000000 0.5760 0.5743 0.6371 0.6552 0.6762
712.000000 0.7088 0.7159 0.7143 0.7019 0.6693
717.000000 0.6481 0.6308 0.6126 0.6083 0.6256
722.000000 0.6393 0.6538 0.6674 0.6893 0.7107
727.000000 0.7296 0.7323 0.7294 0.7330 0.7378
732.000000 0.7413 0.7405 0.7367 0.7304 0.7189
737.000000 0.7020 0.6753 0.6445 0.4792 0.2964
742.000000 0.2226 0.2205 0.2954 0.3621 0.4103
747.000000 0.4119 0.3417 0.2159 0.1020 0.0912
752.000000 0.0900 0.1789 0.2436 0.3082 0.3725
757.000000 0.4368 0.5008 0.5711 0.6078 0.6398
762.000000 0.6592 0.6807 0.7097 0.7449 0.7760
767.000000 0.7976 0.8140 0.8286 0.8403 0.8520
772.000000 0.8637 0.8715 0.8781 0.8836 0.8875
777.000000 0.8913 0.8938 0.8960 0.8974 0.8981
782.000000 0.8985 0.8982 0.8979 0.8973 0.8967
787.000000 0.8956 0.8934 0.8913 0.8889 0.8860
792.000000 0.8841 0.8843 0.8914 0.8997 0.9101
797.000000 0.9158 0.9192 0.9214 0.9233 0.9245
802.000000 0.9255 0.9259 0.9251 0.9254 0.9247
807.000000 0.9231 0.9210 0.9179 0.9141 0.9100
812.000000 0.9031 0.8959 0.8877 0.8809 0.8759
817.000000 0.8715 0.8754 0.8782 0.8822 0.8858
822.000000 0.8890 0.8904 0.8900 0.8888 0.8861
827.000000 0.8817 0.8698 0.8600 0.8566 0.8545
832.000000 0.8521 0.8448 0.8335 0.8230 0.8103
837.000000 0.8033 0.8040 0.8008 0.8228 0.8420
842.000000 0.8611 0.8802 0.8986 0.9072 0.9115
847.000000 0.9151 0.9139 0.9122 0.9090 0.9042
852.000000 0.8985 0.8918 0.8829 0.8731 0.8679
857.000000 0.8665 0.8853 0.8970 0.9091 0.9208
862.000000 0.9232 0.9234 0.9230 0.9225 0.9216
867.000000 0.9209 0.9198 0.9173 0.9148 0.9131
872.000000 0.9119 0.9125 0.9132 0.9174 0.9213
877.000000 0.9246 0.9274 0.9296 0.9305 0.9323
882.000000 0.9312 0.9307 0.9300 0.9290 0.9280
887.000000 0.9267 0.9253 0.9239 0.9228 0.9219
892.000000 0.9209 0.9202 0.9194 0.9187 0.9180
897.000000 0.9175 0.9169 0.9158 0.9107 0.9027
902.000000 0.8931 0.8817 0.8693 0.8565 0.8406
907.000000 0.8219 0.8020 0.7867 0.7703 0.7663
912.000000 0.7654 0.7911 0.8132 0.8351 0.8560
917.000000 0.8676 0.8731 0.8765 0.8774 0.8761
922.000000 0.8733 0.8673 0.8604 0.8530 0.8476
927.000000 0.8439 0.8424 0.8440 0.8458 0.8484
932.000000 0.8552 0.8607 0.8645 0.8599 0.8520
937.000000 0.8445 0.8379 0.8382 0.8400 0.8417
942.000000 0.8420 0.8379 0.8288 0.8213 0.8196
947.000000 0.8190 0.8251 0.8339 0.8426 0.8502
952.000000 0.8566 0.8622 0.8670 0.8711 0.8751
957.000000 0.8784 0.8818 0.8843 0.8861 0.8873
962.000000 0.8878 0.8881 0.8874 0.8858 0.8834
967.000000 0.8797 0.8762 0.8731 0.8720 0.8732
972.000000 0.8760 0.8790 0.8808 0.8822 0.8832
977.000000 0.8840 0.8842 0.8845 0.8852 0.8872
982.000000 0.8887 0.8902 0.8912 0.8917 0.8923
987.000000 0.8925 0.8926 0.8921 0.8920 0.8917
992.000000 0.8913 0.8908 0.8905 0.8900 0.8897
997.000000 0.8892 0.8888 0.8884 0.8879 0.8870
1002.000000 0.8862 0.8854 0.8845 0.8836 0.8824
1007.000000 0.8808 0.8790 0.8764 0.8732 0.8652
1012.000000 0.8536 0.8430 0.8353 0.8308 0.8300
1017.000000 0.8285 0.8326 0.8366 0.8428 0.8513
1022.000000 0.8587 0.8589 0.8586 0.8586 0.8592
1027.000000 0.8600 0.8614 0.8638 0.8673 0.8704
1032.000000 0.8720 0.8700 0.8705 0.8674 0.8547
1037.000000 0.8361 0.8173 0.7985 0.7798 0.7611
1042.000000 0.7424 0.7238 0.7052 0.6860 0.6558
1047.000000 0.6392 0.6097 0.5715 0.5333 0.4953
1052.000000 0.4642 0.4700 0.5105 0.5774 0.6683
1057.000000 0.7283 0.7500 0.7681 0.7795 0.7871
1062.000000 0.7934 0.7980 0.8017 0.8037 0.8052
1067.000000 0.8054 0.8055 0.8060 0.8028 0.8005
1072.000000 0.7976 0.7928 0.7872 0.7816 0.7750
1077.000000 0.7658 0.7519 0.7273 0.7083 0.6628
1082.000000 0.6193 0.5759 0.5327 0.4986 0.4974
1087.000000 0.5275 0.5851 0.6426 0.7001 0.7344
1092.000000 0.7419 0.7461 0.7511 0.7582 0.7654
1097.000000 0.7724 0.7796 0.7866 0.7908 0.7910
1102.000000 0.7930 0.7891 0.7874 0.7854 0.7833
1107.000000 0.7810 0.7786 0.7776 0.7783 0.7796
1112.000000 0.7809 0.7818 0.7821 0.7816 0.7811
1117.000000 0.7801 0.7788 0.7769 0.7749 0.7715
1122.000000 0.7662 0.7595 0.7504 0.7402 0.7315
1127.000000 0.7236 0.7182 0.7179 0.7185 0.7242
1132.000000 0.7306 0.7373 0.7454 0.7541 0.7618
1137.000000 0.7681 0.7738 0.7772 0.7793 0.7801
1142.000000 0.7801 0.7798 0.7820 0.7788 0.7777
1147.000000 0.7765 0.7754 0.7743 0.7729 0.7708
1152.000000 0.7686 0.7665 0.7629 0.7590 0.7547
1157.000000 0.7494 0.7433 0.7369 0.7277 0.7171
1162.000000 0.7148 0.7131 0.7153 0.7190 0.7246
1167.000000 0.7339 0.7439 0.7504 0.7535 0.7543
1172.000000 0.7549 0.7555 0.7554 0.7552 0.7553
1177.000000 0.7546 0.7538 0.7520 0.7502 0.7482
1182.000000 0.7459 0.7432 0.7399 0.7361 0.7312
1187.000000 0.7237 0.7164 0.7093 0.7010 0.6921
1192.000000 0.6804 0.6660 0.6513 0.6368 0.6222
1197.000000 0.6077 0.5932 0.5787 0.5642 0.5498
1202.000000 0.5354 0.5201 0.5125 0.5082 0.5109
1207.000000 0.5173 0.5261 0.5345 0.5447 0.5523
1212.000000 0.5542 0.5537 0.5525 0.5532 0.5308
1217.000000 0.5052 0.4797 0.4543 0.4288 0.4034
1222.000000 0.3781 0.3529 0.3242 0.2937 0.2632
1227.000000 0.2328 0.2024 0.1721 0.1309 0.1184
1232.000000 0.1139 0.1122 0.1126 0.1164 0.1245
1237.000000 0.1419 0.1551 0.1739 0.2133 0.2556
1242.000000 0.2979 0.3275 0.3376 0.3464 0.3521
1247.000000 0.3534 0.3532 0.3513 0.3394 0.3238
1252.000000 0.3084 0.2929 0.2785 0.2741 0.2743
1257.000000 0.2760 0.2810 0.2965 0.3203 0.3441
1262.000000 0.3679 0.3916 0.4152 0.4389 0.4624
1267.000000 0.4854 0.4961 0.5040 0.5087 0.5126
1272.000000 0.5142 0.5176 0.5137 0.5119 0.5075
1277.000000 0.5013 0.4931 0.4848 0.4775 0.4704
1282.000000 0.4628 0.4542 0.4419 0.4175 0.4004
1287.000000 0.3833 0.3664 0.3494 0.3324 0.3154
1292.000000 0.3024 0.3045 0.3338 0.3757 0.4176
1297.000000 0.4594 0.5012 0.5429 0.5871 0.6132
1302.000000 0.6458 0.6600 0.6672 0.6711 0.6743
1307.000000 0.6757 0.6768 0.6777 0.6713 0.6638
1312.000000 0.6563 0.6488 0.6413 0.6339 0.6265
1317.000000 0.6190 0.6116 0.6076 0.6058 0.6205
1322.000000 0.6451 0.6697 0.6942 0.7220 0.7303
1327.000000 0.7347 0.7384 0.7407 0.7424 0.7439
1332.000000 0.7453 0.7464 0.7458 0.7461 0.7463
1337.000000 0.7462 0.7459 0.7458 0.7452 0.7447
1342.000000 0.7441 0.7434 0.7425 0.7416 0.7407
1347.000000 0.7396 0.7383 0.7371 0.7355 0.7310
1352.000000 0.7236 0.7114 0.6840 0.6498 0.6156
1357.000000 0.5815 0.5474 0.5133 0.4794 0.4467
1362.000000 0.4303 0.4194 0.4100 0.4024 0.3953
1367.000000 0.3891 0.3862 0.3858 0.3850 0.4028
1372.000000 0.4352 0.4676 0.4933 0.4979 0.4878
1377.000000 0.4765 0.4653 0.4540 0.4442 0.4416
1382.000000 0.4524 0.4761 0.4998 0.5236 0.5472
1387.000000 0.5708 0.5944 0.6156 0.6173 0.6168
1392.000000 0.6118 0.6059 0.5999 0.5940 0.5897
1397.000000 0.5904 0.6088 0.6425 0.6767 0.7020
1402.000000 0.7100 0.7126 0.7132 0.7130 0.7130
1407.000000 0.7131 0.7136 0.7145 0.7168 0.7196
1412.000000 0.7231 0.7259 0.7273 0.7267 0.7267
1417.000000 0.7260 0.7250 0.7194 0.7105 0.7032
1422.000000 0.6961 0.6868 0.6708 0.6609 0.6512
1427.000000 0.6379 0.6108 0.5837 0.5566 0.5295
1432.000000 0.5025 0.4756 0.4487 0.4218 0.3950
1437.000000 0.3681 0.3414 0.3147 0.2879 0.2615
1442.000000 0.2406 0.2312 0.2254 0.2205 0.2165
1447.000000 0.2156 0.2162 0.2175 0.2189 0.2207
1452.000000 0.2225 0.2237 0.2242 0.2243 0.2244
1457.000000 0.2237 0.2204 0.2151 0.2098 0.2046
1462.000000 0.1993 0.1940 0.1885 0.1839 0.1814
1467.000000 0.1813 0.1823 0.1835 0.1852 0.1886
1472.000000 0.1933 0.1981 0.2027 0.2074 0.2112
1477.000000 0.2113 0.2108 0.2066 0.1978 0.1884
1482.000000 0.1788 0.1693 0.1598 0.1519 0.1497
1487.000000 0.1508 0.1530 0.1561 0.1598 0.1646
1492.000000 0.1695 0.2052 0.2586 0.2986 0.3385
1497.000000 0.3783 0.3933 0.4003 0.4060 0.4098
1502.000000 0.4127 0.4150 0.4161 0.4164 0.4164
1507.000000 0.4166 0.4158 0.4104 0.3948 0.3785
1512.000000 0.3621 0.3458 0.3295 0.3133 0.2971
1517.000000 0.2809 0.2647 0.2485 0.2323 0.2160
1522.000000 0.2043 0.1987 0.1932 0.1867 0.1796
1527.000000 0.1725 0.1640 0.1551 0.1487 0.1429
1532.000000 0.1370 0.1307 0.1236 0.1103 0.0883
1537.000000 0.0774 0.0723 0.0687 0.0656 0.0628
1542.000000 0.0608 0.0597 0.0591 0.0587 0.0585
1547.000000 0.0583 0.0581 0.0558 0.0584 0.0587
1552.000000 0.0590 0.0598 0.0614 0.0635 0.0658
1557.000000 0.0685 0.0714 0.0749 0.0790 0.0843
1562.000000 0.0947 0.1070 0.1280 0.1644 0.2053
1567.000000 0.2461 0.2869 0.3276 0.3682 0.4089
1572.000000 0.4331 0.4385 0.4387 0.4385 0.4381
1577.000000 0.4377 0.4375 0.4405 0.4571 0.4784
1582.000000 0.4996 0.5208 0.5420 0.5631 0.5734
1587.000000 0.5754 0.5762 0.5559 0.5384 0.5210
1592.000000 0.5036 0.4863 0.4690 0.4517 0.4344
1597.000000 0.4171 0.3998 0.3825 0.3654 0.3482
1602.000000 0.3310 0.3199 0.3184 0.3174 0.3725
1607.000000 0.4101 0.4477 0.4852 0.5226 0.5548
1612.000000 0.5616 0.5661 0.5703 0.5743 0.5758
1617.000000 0.5763 0.5763 0.5771 0.5754 0.5741
1622.000000 0.5670 0.5535 0.5379 0.5222 0.5064
1627.000000 0.4907 0.4751 0.4594 0.4437 0.4281
1632.000000 0.4125 0.3969 0.3812 0.3657 0.3502
1637.000000 0.3367 0.3255 0.3144 0.2823 0.2156
1642.000000 0.1326 0.0815 0.0733 0.0669 0.0600
1647.000000 0.0513 0.0444 0.0420 0.0408 0.0405
1652.000000 0.0404 0.0403 0.0428 0.0407 0.0421
1657.000000 0.0459 0.0574 0.0840 0.1228 0.1616
1662.000000 0.2004 0.2391 0.2778 0.3164 0.3550
1667.000000 0.3936 0.4321 0.4705 0.5089 0.5472
1672.000000 0.6044 0.6304 0.6407 0.6475 0.6533
1677.000000 0.6582 0.6619 0.6655 0.6692 0.6729
1682.000000 0.6766 0.6803 0.6840 0.6877 0.6916
1687.000000 0.6963 0.7010 0.7058 0.7103 0.7147
1692.000000 0.7192 0.7236 0.7280 0.7323 0.7367
1697.000000 0.7412 0.7468 0.7529 0.7589 0.7666
1702.000000 0.7798 0.8035 0.8144 0.8238 0.8376
1707.000000 0.8544 0.8675 0.8721 0.8768 0.8807
1712.000000 0.8842 0.8875 0.8901 0.8919 0.8935
1717.000000 0.8952 0.8968 0.8985 0.8998 0.9007
1722.000000 0.9017 0.9026 0.9035 0.9044 0.9054
1727.000000 0.9063 0.9072 0.9079 0.9085 0.9090
1732.000000 0.9096 0.9101 0.9106 0.9110 0.9110
1737.000000 0.9112 0.9114 0.9115 0.9117 0.9119
1742.000000 0.9119 0.9119 0.9119 0.9119 0.9118
1747.000000 0.9118 0.9118 0.9118 0.9117 0.9117
1752.000000 0.9116 0.9116 0.9116 0.9115 0.9115
1757.000000 0.9114 0.9114 0.9114 0.9113 0.9113
1762.000000 0.9112 0.9112 0.9112 0.9111 0.9111
1767.000000 0.9110 0.9110 0.9109 0.9108 0.9108
1772.000000 0.9107 0.9107 0.9106 0.9105 0.9105
1777.000000 0.9104 0.9104 0.9103 0.9102 0.9101
1782.000000 0.9100 0.9100 0.9100 0.9099 0.9098
1787.000000 0.9097 0.9097 0.9096 0.9095 0.9095
1792.000000 0.9095 0.9095 0.9095 0.9097 0.9099
1797.000000 0.9101 0.9103 0.9104 0.9106 0.9108
1802.000000 0.9110 0.9111 0.9113 0.9115 0.9117
1807.000000 0.9118 0.9120 0.9123 0.9124 0.9126
1812.000000 0.9127 0.9129 0.9131 0.9133 0.9136
1817.000000 0.9138 0.9140 0.9142 0.9145 0.9147
1822.000000 0.9150 0.9152 0.9155 0.9157 0.9159
1827.000000 0.9161 0.9164 0.9166 0.9169 0.9171
1832.000000 0.9174 0.9176 0.9177 0.9179 0.9180
1837.000000 0.9182 0.9182 0.9184 0.9185 0.9187
1842.000000 0.9188 0.9189 0.9190 0.9191 0.9193
1847.000000 0.9194 0.9195 0.9196 0.9197 0.9208
1852.000000 0.9199 0.9199 0.9200 0.9201 0.9201
1857.000000 0.9201 0.9202 0.9203 0.9203 0.9204
1862.000000 0.9203 0.9201 0.9197 0.9193 0.9189
1867.000000 0.9186 0.9181 0.9178 0.9174 0.9170
1872.000000 0.9166 0.9162 0.9158 0.9154 0.9149
1877.000000 0.9144 0.9140 0.9135 0.9131 0.9126
1882.000000 0.9122 0.9118 0.9113 0.9108 0.9104
1887.000000 0.9100 0.9096 0.9092 0.9088 0.9085
1892.000000 0.9081 0.9077 0.9073 0.9069 0.9065
1897.000000 0.9062 0.9058 0.9054 0.9050 0.9047
1902.000000 0.9043 0.9039 0.9036 0.9032 0.9029
1907.000000 0.9026 0.9024 0.9021 0.9018 0.9018
1912.000000 0.9019 0.9021 0.9023 0.9025 0.9026
1917.000000 0.9028 0.9030 0.9032 0.9037 0.9043
1922.000000 0.9050 0.9056 0.9063 0.9069 0.9075
1927.000000 0.9081 0.9085 0.9086 0.9085 0.9082
1932.000000 0.9078 0.9075 0.9071 0.9066 0.9062
1937.000000 0.9057 0.9053 0.9052 0.9052 0.9052
1942.000000 0.9052 0.9052 0.9052 0.9052 0.9053
1947.000000 0.9055 0.9060 0.9064 0.9068 0.9073
1952.000000 0.9077 0.9081 0.9090 0.9100 0.9110
1957.000000 0.9120 0.9130 0.9141 0.9151 0.9162
1962.000000 0.9172 0.9181 0.9190 0.9198 0.9206
1967.000000 0.9214 0.9214 0.9213 0.9213 0.9212
1972.000000 0.9212 0.9212 0.9211 0.9210 0.9210
1977.000000 0.9210 0.9209 0.9209 0.9209 0.9208
1982.000000 0.9208 0.9208 0.9208 0.9207 0.9207
1987.000000 0.9207 0.9206 0.9206 0.9206 0.9206
1992.000000 0.9206 0.9204 0.9203 0.9203 0.9202
1997.000000 0.9200 0.9200 0.9199 0.9198 0.9197
2002.000000 0.9196 0.9195 0.9194 0.9193 0.9192
2007.000000 0.9191 0.9191 0.9189 0.9188 0.9188
2012.000000 0.9186 0.9183 0.9181 0.9180 0.9178
2017.000000 0.9176 0.9174 0.9172 0.9170 0.9169
2022.000000 0.9168 0.9167 0.9166 0.9165 0.9163
2027.000000 0.9163 0.9162 0.9161 0.9160 0.9158
2032.000000 0.9158 0.9157 0.9156 0.9155 0.9153
2037.000000 0.9153 0.9152 0.9151 0.9149 0.9148
2042.000000 0.9148 0.9147 0.9146 0.9147 0.9148
2047.000000 0.9149 0.9150 0.9151 0.9153 0.9155
2052.000000 0.9156 0.9157 0.9158 0.9160 0.9162
2057.000000 0.9163 0.9164 0.9165 0.9166 0.9167
2062.000000 0.9168 0.9169 0.9169 0.9169 0.9169
2067.000000 0.9169 0.9168 0.9168 0.9167 0.9165
2072.000000 0.9164 0.9162 0.9161 0.9159 0.9158
2077.000000 0.9156 0.9155 0.9154 0.9152 0.9151
2082.000000 0.9149 0.9147 0.9145 0.9143 0.9140
2087.000000 0.9138 0.9136 0.9133 0.9131 0.9129
2092.000000 0.9126 0.9123 0.9121 0.9119 0.9116
2097.000000 0.9114 0.9112 0.9110 0.9107 0.9104
2102.000000 0.9102 0.9100 0.9097 0.9095 0.9093
2107.000000 0.9091 0.9088 0.9085 0.9083 0.9081
2112.000000 0.9078 0.9076 0.9074 0.9072 0.9069
2117.000000 0.9067 0.9065 0.9063 0.9060 0.9057
2122.000000 0.9055 0.9053 0.9051 0.9048 0.9046
2127.000000 0.9044 0.9042 0.9040 0.9037 0.9035
2132.000000 0.9033 0.9030 0.9028 0.9025 0.9025
2137.000000 0.9024 0.9024 0.9023 0.9023 0.9023
2142.000000 0.9023 0.9022 0.9022 0.9021 0.9021
2147.000000 0.9021 0.9020 0.9020 0.9020 0.9020
2152.000000 0.9019 0.9019 0.9018 0.9018 0.9018
2157.000000 0.9018 0.9017 0.9016 0.9016 0.9016
2162.000000 0.9016 0.9015 0.9015 0.9014 0.9014
2167.000000 0.9014 0.9014 0.9013 0.9013 0.9013
2172.000000 0.9013 0.9012 0.9011 0.9011 0.9010
2177.000000 0.9010 0.9010 0.9010 0.9009 0.9009
2182.000000 0.9008 0.9008 0.9007 0.9007 0.9007
2187.000000 0.9007 0.9006 0.9006 0.9005 0.9005
2192.000000 0.9004 0.9004 0.9004 0.9003 0.9003
2197.000000 0.9002 0.9002 0.9001 0.9001 0.9001
2202.000000 0.9001 0.9000 0.9000 0.8999 0.8999
2207.000000 0.8998 0.8997 0.8996 0.8995 0.8994
2212.000000 0.8993 0.8992 0.8991 0.8990 0.8988
2217.000000 0.8987 0.8986 0.8985 0.8984 0.8983
2222.000000 0.8982 0.8980 0.8979 0.8978 0.8977
2227.000000 0.8976 0.8975 0.8974 0.8973 0.8971
2232.000000 0.8970 0.8969 0.8968 0.8967 0.8966
2237.000000 0.8965 0.8964 0.8961 0.8958 0.8955
2242.000000 0.8953 0.8950 0.8948 0.8945 0.8943
2247.000000 0.8940 0.8937 0.8935 0.8932 0.8930
2252.000000 0.8927 0.8924 0.8921 0.8919 0.8916
2257.000000 0.8914 0.8911 0.8908 0.8905 0.8901
2262.000000 0.8898 0.8895 0.8891 0.8888 0.8884
2267.000000 0.8881 0.8878 0.8874 0.8871 0.8868
2272.000000 0.8865 0.8862 0.8858 0.8855 0.8851
2277.000000 0.8849 0.8849 0.8849 0.8850 0.8850
2282.000000 0.8851 0.8852 0.8853 0.8854 0.8855
2287.000000 0.8856 0.8857 0.8858 0.8859 0.8860
2292.000000 0.8861 0.8862 0.8863 0.8864 0.8865
2297.000000 0.8866 0.8867 0.8869 0.8871 0.8873
2302.000000 0.8874 0.8876 0.8877 0.8879 0.8881
2307.000000 0.8883 0.8885 0.8886 0.8888 0.8889
2312.000000 0.8891 0.8893 0.8894 0.8896 0.8898
2317.000000 0.8900 0.8901 0.8903 0.8905 0.8906
2322.000000 0.8908 0.8910 0.8911 0.8913 0.8914
2327.000000 0.8915 0.8917 0.8918 0.8920 0.8921
2332.000000 0.8923 0.8925 0.8926 0.8928 0.8929
2337.000000 0.8930 0.8932 0.8933 0.8934 0.8936
2342.000000 0.8937 0.8938 0.8940 0.8941 0.8943
2347.000000 0.8944 0.8945 0.8947 0.8948 0.8950
2352.000000 0.8952 0.8952 0.8952 0.8950 0.8948
2357.000000 0.8947 0.8945 0.8944 0.8942 0.8939
2362.000000 0.8932 0.8926 0.8918 0.8909 0.8901
2367.000000 0.8893 0.8885 0.8876 0.8868 0.8861
2372.000000 0.8854 0.8851 0.8847 0.8843 0.8839
2377.000000 0.8835 0.8831 0.8827 0.8824 0.8820
2382.000000 0.8816 0.8812 0.8808 0.8804 0.8801
2387.000000 0.8797 0.8794 0.8791 0.8789 0.8788
2392.000000 0.8787 0.8786 0.8786 0.8785 0.8784
2397.000000 0.8783 0.8783 0.8783 0.8782 0.8781
2402.000000 0.8780 0.8780 0.8779 0.8779 0.8779
2407.000000 0.8779 0.8779 0.8779 0.8779 0.8779
2412.000000 0.8779 0.8779 0.8779 0.8779 0.8779
2417.000000 0.8779 0.8780 0.8780 0.8780 0.8780
2422.000000 0.8780 0.8780 0.8780 0.8780 0.8780
2427.000000 0.8780 0.8779 0.8778 0.8777 0.8776
2432.000000 0.8775 0.8775 0.8774 0.8773 0.8772
2437.000000 0.8771 0.8770 0.8770 0.8768 0.8767
2442.000000 0.8766 0.8765 0.8764 0.8763 0.8763
2447.000000 0.8762 0.8761 0.8760 0.8759 0.8758
2452.000000 0.8756 0.8753 0.8749 0.8746 0.8743
2457.000000 0.8740 0.8737 0.8734 0.8731 0.8728
2462.000000 0.8726 0.8723 0.8720 0.8717 0.8714
2467.000000 0.8711 0.8707 0.8704 0.8702 0.8699
2472.000000 0.8696 0.8693 0.8690 0.8687 0.8684
2477.000000 0.8681 0.8679 0.8675 0.8672 0.8669
2482.000000 0.8666 0.8663 0.8659 0.8656 0.8653
2487.000000 0.8649 0.8646 0.8643 0.8640 0.8636
2492.000000 0.8632 0.8629 0.8626 0.8623 0.8619
2497.000000 0.8615 0.8611 0.8607 0.8603 0.8599
2502.000000 0.8595 0.8590 0.8586 0.8582 0.8577
2507.000000 0.8573 0.8569 0.8565 0.8561 0.8556
2512.000000 0.8552 0.8548 0.8543 0.8539 0.8535
2517.000000 0.8531 0.8527 0.8523 0.8518 0.8514
2522.000000 0.8510 0.8505 0.8501 0.8497 0.8492
2527.000000 0.8488 0.8484 0.8479 0.8474 0.8470
2532.000000 0.8465 0.8461 0.8457 0.8453 0.8448
2537.000000 0.8444 0.8440 0.8436 0.8431 0.8427
2542.000000 0.8423 0.8418 0.8414 0.8410 0.8406
2547.000000 0.8401 0.8396 0.8392 0.8387 0.8383
2552.000000 0.8378 0.8373 0.8368 0.8363 0.8359
2557.000000 0.8354 0.8349 0.8345 0.8340 0.8336
2562.000000 0.8331 0.8327 0.8322 0.8317 0.8312
2567.000000 0.8307 0.8303 0.8298 0.8295 0.8292
2572.000000 0.8289 0.8286 0.8284 0.8282 0.8279
2577.000000 0.8277 0.8275 0.8273 0.8270 0.8268
2582.000000 0.8266 0.8264 0.8261 0.8259 0.8257
2587.000000 0.8255 0.8252 0.8250 0.8248 0.8246
2592.000000 0.8244 0.8241 0.8239 0.8237 0.8235
2597.000000 0.8233 0.8231 0.8229 0.8227 0.8225
2602.000000 0.8223 0.8222 0.8220 0.8218 0.8216
2607.000000 0.8214 0.8212 0.8211 0.8209 0.8207
2612.000000 0.8205 0.8203 0.8201 0.8199 0.8196
2617.000000 0.8194 0.8191 0.8188 0.8186 0.8183
2622.000000 0.8181 0.8178 0.8175 0.8173 0.8170
2627.000000 0.8167 0.8165 0.8162 0.8159 0.8157
2632.000000 0.8154 0.8151 0.8148 0.8143 0.8139
2637.000000 0.8134 0.8129 0.8124 0.8119 0.8114
2642.000000 0.8110 0.8105 0.8100 0.8095 0.8090
2647.000000 0.8086 0.8081 0.8076 0.8072 0.8067
2652.000000 0.8062 0.8057 0.8052 0.8047 0.8041
2657.000000 0.8036 0.8031 0.8026 0.8020 0.8015
2662.000000 0.8011 0.8005 0.8000 0.7995 0.7990
2667.000000 0.7984 0.7979 0.7974 0.7968 0.7963
2672.000000 0.7958 0.7953 0.7948 0.7943 0.7938
2677.000000 0.7933 0.7927 0.7922 0.7917 0.7911
2682.000000 0.7906 0.7900 0.7894 0.7888 0.7883
2687.000000 0.7877 0.7871 0.7866 0.7860 0.7854
2692.000000 0.7848 0.7842 0.7836 0.7830 0.7825
2697.000000 0.7819 0.7813 0.7808 0.7802 0.7796
2702.000000 0.7791 0.7785 0.7778 0.7772 0.7764
2707.000000 0.7756 0.7748 0.7740 0.7731 0.7723
2712.000000 0.7714 0.7706 0.7698 0.7690 0.7681
2717.000000 0.7673 0.7665 0.7656 0.7648 0.7640
2722.000000 0.7632 0.7624 0.7616 0.7607 0.7599
2727.000000 0.7592 0.7587 0.7581 0.7575 0.7570
2732.000000 0.7564 0.7561 0.7559 0.7557 0.7556
2737.000000 0.7556 0.7556 0.7555 0.7555 0.7555
2742.000000 0.7554 0.7554 0.7554 0.7553 0.7553
2747.000000 0.7553 0.7552 0.7552 0.7552 0.7551
2752.000000 0.7551 0.7551 0.7551 0.7551 0.7551
2757.000000 0.7552 0.7552 0.7552 0.7553 0.7554
2762.000000 0.7554 0.7555 0.7555 0.7555 0.7556
2767.000000 0.7556 0.7556 0.7557 0.7557 0.7558
2772.000000 0.7556 0.7551 0.7545 0.7540 0.7534
2777.000000 0.7529 0.7523 0.7519 0.7514 0.7508
2782.000000 0.7497 0.7486 0.7475 0.7463 0.7451
2787.000000 0.7439 0.7428 0.7416 0.7405 0.7393
2792.000000 0.7381 0.7369 0.7338 0.7300 0.7262
2797.000000 0.7227 0.7196 0.7165 0.7127 0.7081
2802.000000 0.7034 0.6986 0.6934 0.6881 0.6834
2807.000000 0.6813 0.6793 0.6772 0.6752 0.6731
2812.000000 0.6711 0.6678 0.6643 0.6608 0.6563
2817.000000 0.6513 0.6464 0.6417 0.6372 0.6327
2822.000000 0.6275 0.6211 0.6147 0.6079 0.5987
2827.000000 0.5894 0.5802 0.5739 0.5678 0.5617
2832.000000 0.5555 0.5492 0.5430 0.5363 0.5292
2837.000000 0.5221 0.5147 0.5066 0.4985 0.4909
2842.000000 0.4877 0.4846 0.4815 0.4784 0.4753
2847.000000 0.4722 0.4683 0.4639 0.4594 0.4530
2852.000000 0.4431 0.4332 0.4231 0.4115 0.3999
2857.000000 0.3883 0.3767 0.3652 0.3536 0.3421
2862.000000 0.3305 0.3190 0.3075 0.2960 0.2844
2867.000000 0.2729 0.2614 0.2500 0.2385 0.2270
2872.000000 0.2156 0.2041 0.1927 0.1812 0.1698
2877.000000 0.1584 0.1470 0.1356 0.1242 0.1128
2882.000000 0.1014 0.0900 0.0786 0.0673 0.0559
2887.000000 0.0452 0.0375 0.0298 0.0221 0.0208
2892.000000 0.0208 0.0208 0.0208 0.0208 0.0209
2897.000000 0.0212 0.0235 0.0258 0.0281 0.0319
2902.000000 0.0361 0.0403 0.0445 0.0488 0.0530
2907.000000 0.0572 0.0596 0.0620 0.0644 0.0653
2912.000000 0.0653 0.0653 0.0653 0.0653 0.0653
2917.000000 0.0653 0.0650 0.0647 0.0644 0.0635
2922.000000 0.0618 0.0600 0.0583 0.0566 0.0549
2927.000000 0.0532 0.0515 0.0498 0.0481 0.0464
2932.000000 0.0447 0.0430 0.0413 0.0396 0.0379
2937.000000 0.0362 0.0345 0.0328 0.0311 0.0294
2942.000000 0.0277 0.0260 0.0243 0.0226 0.0209
2947.000000 0.0192 0.0175 0.0157 0.0138 0.0120
2952.000000 0.0104 0.0093 0.0082 0.0071 0.0067
2957.000000 0.0063 0.0059 0.0056 0.0055 0.0054
2962.000000 0.0054 0.0053 0.0052 0.0052 0.0052
2967.000000 0.0052 0.0052 0.0052 0.0053 0.0054
2972.000000 0.0055 0.0056 0.0057 0.0057 0.0058
2977.000000 0.0060 0.0062 0.0063 0.0065 0.0068
2982.000000 0.0071 0.0075 0.0079 0.0085 0.0091
2987.000000 0.0099 0.0122 0.0146 0.0169 0.0220
2992.000000 0.0290 0.0360 0.0431 0.0467 0.0502
2997.000000 0.0538 0.0614 0.0752 0.0889 0.1027
3002.000000 0.1173 0.1321 0.1470 0.1618 0.1766
3007.000000 0.1914 0.2063 0.2211 0.2358 0.2506
3012.000000 0.2653 0.2801 0.2948 0.3095 0.3242
3017.000000 0.3390 0.3537 0.3684 0.3831 0.3977
3022.000000 0.4124 0.4270 0.4416 0.4563 0.4709
3027.000000 0.4856 0.5006 0.5156 0.5305 0.5369
3032.000000 0.5394 0.5420 0.5446 0.5456 0.5466
3037.000000 0.5477 0.5485 0.5489 0.5494 0.5498
3042.000000 0.5500 0.5501 0.5502 0.5503 0.5505
3047.000000 0.5506 0.5507 0.5508 0.5509 0.5510
3052.000000 0.5512 0.5513 0.5515 0.5516 0.5517
3057.000000 0.5519 0.5520 0.5521 0.5523 0.5524
3062.000000 0.5525 0.5526 0.5552 0.5644 0.5737
3067.000000 0.5830 0.5895 0.5934 0.5973 0.6013
3072.000000 0.6038 0.6059 0.6080 0.6101 0.6135
3077.000000 0.6170 0.6205 0.6236 0.6251 0.6265
3082.000000 0.6280 0.6293 0.6304 0.6315 0.6326
3087.000000 0.6336 0.6347 0.6357 0.6367 0.6377
3092.000000 0.6386 0.6395 0.6404 0.6413 0.6422
3097.000000 0.6431 0.6440 0.6446 0.6453 0.6459
3102.000000 0.6465 0.6470 0.6475 0.6480 0.6486
3107.000000 0.6491 0.6496 0.6501 0.6506 0.6510
3112.000000 0.6515 0.6519 0.6523 0.6528 0.6532
3117.000000 0.6537 0.6538 0.6538 0.6539 0.6539
3122.000000 0.6539 0.6538 0.6537 0.6536 0.6534
3127.000000 0.6533 0.6532 0.6531 0.6530 0.6528
3132.000000 0.6527 0.6524 0.6518 0.6512 0.6505
3137.000000 0.6498 0.6485 0.6473 0.6461 0.6448
3142.000000 0.6433 0.6418 0.6402 0.6386 0.6369
3147.000000 0.6351 0.6333 0.6318 0.6307 0.6295
3152.000000 0.6284 0.6273 0.6262 0.6250 0.6239
3157.000000 0.6227 0.6213 0.6200 0.6186 0.6172
3162.000000 0.6157 0.6142 0.6128 0.6114 0.6102
3167.000000 0.6090 0.6077 0.6065 0.6053 0.6041
3172.000000 0.6029 0.6015 0.6001 0.5986 0.5972
3177.000000 0.5956 0.5940 0.5923 0.5906 0.5890
3182.000000 0.5874 0.5857 0.5841 0.5826 0.5813
3187.000000 0.5801 0.5788 0.5776 0.5763 0.5751
3192.000000 0.5739 0.5727 0.5714 0.5702 0.5689
3197.000000 0.5676 0.5661 0.5646 0.5630 0.5615
3202.000000 0.5597 0.5579 0.5562 0.5544 0.5526
3207.000000 0.5508 0.5490 0.5472 0.5444 0.5413
3212.000000 0.5383 0.5352 0.5319 0.5285 0.5251
3217.000000 0.5217 0.5187 0.5161 0.5136 0.5110
3222.000000 0.5084 0.5058 0.5032 0.5006 0.4976
3227.000000 0.4932 0.4889 0.4845 0.4802 0.4763
3232.000000 0.4725 0.4687 0.4648 0.4610 0.4572
3237.000000 0.4534 0.4496 0.4457 0.4419 0.4381
3242.000000 0.4343 0.4305 0.4267 0.4229 0.4191
3247.000000 0.4153 0.4115 0.4077 0.4039 0.4002
3252.000000 0.3964 0.3926 0.3888 0.3850 0.3813
3257.000000 0.3775 0.3737 0.3700 0.3662 0.3624
3262.000000 0.3587 0.3549 0.3512 0.3474 0.3437
3267.000000 0.3399 0.3362 0.3324 0.3287 0.3249
3272.000000 0.3212 0.3175 0.3137 0.3100 0.3063
3277.000000 0.3025 0.2988 0.2951 0.2914 0.2877
3282.000000 0.2839 0.2802 0.2765 0.2728 0.2691
3287.000000 0.2654 0.2617 0.2580 0.2552 0.2546
3292.000000 0.2535 0.2523 0.2515 0.2516 0.2518
3297.000000 0.2519 0.2520 0.2534 0.2549 0.2565
3302.000000 0.2581 0.2605 0.2639 0.2672 0.2706
3307.000000 0.2740 0.2773 0.2806 0.2840 0.2873
3312.000000 0.2906 0.2940 0.2973 0.3007 0.3040
3317.000000 0.3074 0.3107 0.3140 0.3174 0.3183
3322.000000 0.3191 0.3200 0.3208 0.3212 0.3213
3327.000000 0.3214 0.3215 0.3203 0.3203 0.3192
3332.000000 0.3181 0.3170 0.3151 0.3127 0.3104
3337.000000 0.3080 0.3056 0.3033 0.3009 0.2985
3342.000000 0.2961 0.2938 0.2914 0.2891 0.2867
3347.000000 0.2975 0.3417 0.3860 0.4303 0.4746
3352.000000 0.4849 0.4865 0.4880 0.4895 0.4910
3357.000000 0.4927 0.4944 0.4960 0.4977 0.5001
3362.000000 0.5027 0.5053 0.5078 0.5107 0.5142
3367.000000 0.5177 0.5213 0.5248 0.2447 0.5411
3372.000000 0.5499 0.5588 0.5673 0.5742 0.5811
3377.000000 0.5880 0.5948 0.5990 0.6014 0.6038
3382.000000 0.6062 0.6087 0.6116 0.6145 0.6174
3387.000000 0.6203 0.6237 0.6276 0.6315 0.6353
3392.000000 0.6392 0.6417 0.6438 0.6460 0.6482
3397.000000 0.6503 0.6522 0.6540 0.6558 0.6577
3402.000000 0.6594 0.6610 0.6626 0.6642 0.6658
3407.000000 0.6669 0.6681 0.6692 0.6704 0.6716
3412.000000 0.6727 0.6738 0.6750 0.6761 0.6775
3417.000000 0.6789 0.6803 0.6818 0.6832 0.6847
3422.000000 0.6863 0.6878 0.6893 0.6914 0.6946
3427.000000 0.6978 0.7010 0.7042 0.7060 0.7070
3432.000000 0.7080 0.7091 0.7101 0.7109 0.7116
3437.000000 0.7124 0.7131 0.7139 0.7146 0.7154
3442.000000 0.7161 0.7169 0.7175 0.7181 0.7188
3447.000000 0.7194 0.7200 0.7204 0.7208 0.7211
3452.000000 0.7215 0.7218 0.7222 0.7225 0.7229
3457.000000 0.7233 0.7236 0.7240 0.7244 0.7247
3462.000000 0.7251 0.7254 0.7257 0.7259 0.7261
3467.000000 0.7264 0.7266 0.7267 0.7269 0.7271
3472.000000 0.7273 0.7275 0.7277 0.7279 0.7281
3477.000000 0.7282 0.7284 0.7286 0.7288 0.7290
3482.000000 0.7292 0.7293 0.7295 0.7297 0.7298
3487.000000 0.7300 0.7301 0.7301 0.7302 0.7303
3492.000000 0.7304 0.7305 0.7305 0.7306 0.7307
3497.000000 0.7308 0.7309 0.7310 0.7310 0.7311
3502.000000 0.7312 0.7313 0.7314 0.7314 0.7315
3507.000000 0.7316 0.7317 0.7318 0.7318 0.7319
3512.000000 0.7320 0.7321 0.7322 0.7323 0.7323
3517.000000 0.7324 0.7325 0.7325 0.7326 0.7326
3522.000000 0.7327 0.7328 0.7328 0.7329 0.7329
3527.000000 0.7330 0.7331 0.7331 0.7332 0.7332
3532.000000 0.7333 0.7334 0.7334 0.7335 0.7335
3537.000000 0.7336 0.7337 0.7337 0.7338 0.7338
3542.000000 0.7339 0.7340 0.7340 0.7341 0.7341
3547.000000 0.7342 0.7343 0.7343 0.7344 0.7344
3552.000000 0.7345 0.7345 0.7345 0.7345 0.7345
3557.000000 0.7345 0.7345 0.7345 0.7345 0.7345
3562.000000 0.7346 0.7346 0.7346 0.7346 0.7346
3567.000000 0.7347 0.7347 0.7347 0.7347 0.7347
3572.000000 0.7347 0.7347 0.7347 0.7347 0.7347
3577.000000 0.7348 0.7348 0.7348 0.7348 0.7348
3582.000000 0.7349 0.7349 0.7349 0.7349 0.7349
3587.000000 0.7350 0.7350 0.7350 0.7350 0.7350
3592.000000 0.7350 0.7350 0.7350 0.7350 0.7350
3597.000000 0.7350 0.7351 0.7351 0.7351 0.7351
3602.000000 0.7351 0.7352 0.7352 0.7352 0.7352
3607.000000 0.7352 0.7353 0.7353 0.7353 0.7353
3612.000000 0.7353 0.7353 0.7353 0.7353 0.7353
3617.000000 0.7353 0.7354 0.7354 0.7354 0.7354
3622.000000 0.7354 0.7354 0.7355 0.7355 0.7355
3627.000000 0.7355 0.7355 0.7356 0.7356 0.7356
3632.000000 0.7356 0.7356 0.7357 0.7357 0.7357
3637.000000 0.7357 0.7357 0.7357 0.7357 0.7357
3642.000000 0.7357 0.7357 0.7357 0.7358 0.7358
3647.000000 0.7358 0.7358 0.7358 0.7359 0.7359
3652.000000 0.7359 0.7359 0.7359 0.7359 0.7359
3657.000000 0.7359 0.7359 0.7359 0.7359 0.7360
3662.000000 0.7360 0.7360 0.7360 0.7360 0.7361
3667.000000 0.7361 0.7361 0.7361 0.7361 0.7361
3672.000000 0.7361 0.7361 0.7362 0.7362 0.7362
3677.000000 0.7363 0.7363 0.7363 0.7363 0.7363
3682.000000 0.7364 0.7364 0.7364 0.7364 0.7364
3687.000000 0.7364 0.7365 0.7365 0.7365 0.7365
3692.000000 0.7365 0.7366 0.7366 0.7366 0.7367
3697.000000 0.7367 0.7367 0.7368 0.7368 0.7368
3702.000000 0.7368 0.7368 0.7398 0.7369 0.7369
3707.000000 0.7369 0.7369 0.7369 0.7370 0.7370
3712.000000 0.7371 0.7371 0.7371 0.7372 0.7372
3717.000000 0.7372 0.7372 0.7372 0.7372 0.7372
3722.000000 0.7371 0.7370 0.7369 0.7368 0.7367
3727.000000 0.7366 0.7365 0.7364 0.7363 0.7362
3732.000000 0.7361 0.7360 0.7359 0.7358 0.7357
3737.000000 0.7356 0.7355 0.7353 0.7351 0.7349
3742.000000 0.7347 0.7346 0.7344 0.7342 0.7340
3747.000000 0.7338 0.7336 0.7334 0.7332 0.7330
3752.000000 0.7328 0.7326 0.7324 0.7322 0.7320
3757.000000 0.7318 0.7316 0.7314 0.7312 0.7310
3762.000000 0.7308 0.7307 0.7305 0.7303 0.7301
3767.000000 0.7299 0.7297 0.7295 0.7293 0.7291
3772.000000 0.7289 0.7287 0.7285 0.7283 0.7281
3777.000000 0.7279 0.7277 0.7275 0.7273 0.7271
3782.000000 0.7269 0.7267 0.7266 0.7264 0.7262
3787.000000 0.7261 0.7260 0.7260 0.7260 0.7261
3792.000000 0.7261 0.7261 0.7262 0.7262 0.7262
3797.000000 0.7263 0.7263 0.7263 0.7264 0.7264
3802.000000 0.7264 0.7265 0.7265 0.7265 0.7266
3807.000000 0.7266 0.7266 0.7267 0.7267 0.7268
3812.000000 0.7268 0.7268 0.7269 0.7269 0.7269
3817.000000 0.7270 0.7270 0.7271 0.7271 0.7272
3822.000000 0.7272 0.7273 0.7274 0.7275 0.7276
3827.000000 0.7277 0.7278 0.7279 0.7280 0.7281
3832.000000 0.7283 0.7284 0.7285 0.7285 0.7283
3837.000000 0.7281 0.7280 0.7278 0.7277 0.7275
3842.000000 0.7273 0.7271 0.7269 0.7267 0.7265
3847.000000 0.7263 0.7260 0.7258 0.7255 0.7253
3852.000000 0.7251 0.7248 0.7246 0.7244 0.7242
3857.000000 0.7240 0.7238 0.7235 0.7233 0.7231
3862.000000 0.7228 0.7226 0.7223 0.7221 0.7219
3867.000000 0.7217 0.7215 0.7213 0.7210 0.7208
3872.000000 0.7206 0.7203 0.7201 0.7199 0.7196
3877.000000 0.7194 0.7191 0.7189 0.7186 0.7184
3882.000000 0.7181 0.7179 0.7176 0.7174 0.7171
3887.000000 0.7168 0.7166 0.7163 0.7161 0.7158
3892.000000 0.7156 0.7153 0.7151 0.7148 0.7145
3897.000000 0.7143 0.7140 0.7138 0.7135 0.7132
3902.000000 0.7130 0.7127 0.7125 0.7123 0.7120
3907.000000 0.7118 0.7115 0.7113 0.7111 0.7109
3912.000000 0.7106 0.7104 0.7102 0.7100 0.7098
3917.000000 0.7096 0.7094 0.7091 0.7089 0.7087
3922.000000 0.7085 0.7082 0.7080 0.7078 0.7075
3927.000000 0.7073 0.7071 0.7069 0.7066 0.7064
3932.000000 0.7062 0.7060 0.7058 0.7056 0.7054
3937.000000 0.7052 0.7049 0.7047 0.7045 0.7042
3942.000000 0.7040 0.7038 0.7036 0.7034 0.7033
3947.000000 0.7031 0.7029 0.7027 0.7025 0.7024
3952.000000 0.7022 0.7020 0.7018 0.7016 0.7014
3957.000000 0.7012 0.7010 0.7009 0.7007 0.7005
3962.000000 0.7003 0.7002 0.7000 0.6998 0.6996
3967.000000 0.6994 0.6992 0.6990 0.6988 0.6987
3972.000000 0.6985 0.6983 0.6981 0.6980 0.6978
3977.000000 0.6976 0.6975 0.6973 0.6971 0.6969
3982.000000 0.6967 0.6966 0.6964 0.6962 0.6960
3987.000000 0.6958 0.6956 0.6954 0.6952 0.6950
3992.000000 0.6949 0.6947 0.6945 0.6943 0.6941
3997.000000 0.6940 0.6938 0.6936 0.6935
##END=
