##TITLE=MALONIC ACID DITHALLOUS SALT
$$ E. K. CO. (WHITE LABEL)
##JCAMP-DX=4.24
##DATA TYPE=INFRARED SPECTRUM
##CLASS=COBLENTZ
##ORIGIN=WYANDOTTE CHEMICALS CORP., WYANDOTTE, MICHIGAN, USA
##OWNER=COBLENTZ SOCIETY
Collection (C) 2018 copyright by the U.S. Secretary of Commerce
on behalf of the United States of America. All rights reserved.
##DATE=Not specified, most likely prior to 1970
##MOLFORM=C3 H2 O4 Tl2
##MP=159-163 C
##SOURCE REFERENCE=COBLENTZ NO. 2883
##$NIST ID=B6002883
##$NIST SOURCE=COBLENTZ
##$NIST IMAGE=cob2883
##SPECTROMETER/DATA SYSTEM=Not specified, most likely a prism, grating, or hybrid spectrometer.
##STATE=SOLID (MINERAL OIL MULL)
##PATH LENGTH=
$$SPECTRAL CONTAMINATION DUE TO OIL AROUND 2900 CM^-^1
##SAMPLING PROCEDURE=TRANSMISSION
##RESOLUTION=4
##DATA PROCESSING=DIGITIZED BY NIST FROM HARD COPY
##XUNITS=MICROMETERS
##YUNITS=TRANSMITTANCE
##XFACTOR=1.000000
##YFACTOR=1
##DELTAX=000.006638
##FIRSTX=2.046
##LASTX=15.9798
##FIRSTY=0.572
##MAXX=15.9798
##MINX=2.046
##MAXY=0.966
##MINY=0.031
##NPOINTS=2100
##XYDATA=(X++(Y..Y))
2.046000 0.5720 0.5740 0.5740 0.5750 0.5770
2.079207 0.5770 0.5770 0.5770 0.5770 0.5790
2.113000 0.5800 0.5800 0.5800 0.5800 0.5820
2.146207 0.5820 0.5820 0.5820 0.5840 0.5840
2.179000 0.5840 0.5850 0.5850 0.5850 0.5850
2.212207 0.5850 0.5850 0.5850 0.5850 0.5850
2.246000 0.5850 0.5850 0.5850 0.5870 0.5870
2.279207 0.5870 0.5870 0.5870 0.5870 0.5890
2.312000 0.5890 0.5900 0.5940 0.5940 0.5940
2.345207 0.5940 0.5950 0.5950 0.5950 0.5970
2.378000 0.5970 0.5970 0.5990 0.5990 0.5990
2.411207 0.5990 0.5990 0.5990 0.5990 0.5990
2.445000 0.5990 0.5990 0.5990 0.5990 0.5990
2.478207 0.6000 0.6000 0.6000 0.6020 0.6020
2.511000 0.6020 0.6030 0.6030 0.6050 0.6050
2.544207 0.6070 0.6070 0.6080 0.6100 0.6100
2.578000 0.6120 0.6120 0.6120 0.6120 0.6120
2.611207 0.6120 0.6120 0.6100 0.6100 0.6080
2.644000 0.6070 0.6070 0.6080 0.6120 0.6120
2.677207 0.6120 0.6120 0.6100 0.6100 0.6080
2.710000 0.6070 0.6050 0.6050 0.6020 0.6020
2.743207 0.6000 0.6000 0.5990 0.5990 0.5990
2.777000 0.5970 0.5950 0.5940 0.5850 0.5790
2.810207 0.5770 0.5720 0.5690 0.5670 0.5620
2.843000 0.5600 0.5570 0.5540 0.5500 0.5490
2.876207 0.5470 0.5420 0.5400 0.5390 0.5370
2.909000 0.5320 0.5320 0.5290 0.5270 0.5250
2.942207 0.5240 0.5220 0.5220 0.5220 0.5200
2.976000 0.5200 0.5190 0.5140 0.5120 0.5090
3.009207 0.5070 0.5070 0.5070 0.5100 0.5100
3.042000 0.5140 0.5140 0.5150 0.5190 0.5240
3.075207 0.5300 0.5370 0.5390 0.5400 0.5400
3.109000 0.5420 0.5470 0.5490 0.5570 0.5590
3.142207 0.5590 0.5600 0.5600 0.5600 0.5620
3.175000 0.5650 0.5700 0.5770 0.5820 0.5850
3.208207 0.5900 0.5920 0.5950 0.5990 0.6020
3.241000 0.6050 0.6100 0.6130 0.6180 0.6180
3.274207 0.6220 0.6280 0.6300 0.6320 0.6320
3.308000 0.6320 0.6320 0.6320 0.6320 0.6320
3.341207 0.6300 0.6180 0.6080 0.5920 0.5570
3.374000 0.4970 0.4020 0.2790 0.2120 0.1530
3.407207 0.1310 0.1140 0.1090 0.1030 0.0960
3.440000 0.0910 0.0890 0.0910 0.1080 0.1310
3.473207 0.1560 0.1810 0.2210 0.2440 0.2570
3.507000 0.2590 0.2590 0.2440 0.2410 0.2390
3.540207 0.2390 0.2420 0.2760 0.3290 0.3890
3.573000 0.4150 0.5440 0.5990 0.6330 0.6420
3.606207 0.6450 0.6520 0.6550 0.6570 0.6630
3.640000 0.6680 0.6700 0.6720 0.6720 0.6720
3.673207 0.6730 0.6750 0.6770 0.6770 0.6770
3.706000 0.6770 0.6770 0.6770 0.6770 0.6770
3.739207 0.6780 0.6820 0.6880 0.6900 0.6900
3.772000 0.6920 0.6920 0.6920 0.6920 0.6920
3.805207 0.6920 0.6930 0.6930 0.6930 0.6930
3.839000 0.6930 0.6950 0.6970 0.6980 0.7000
3.872207 0.7020 0.7050 0.7080 0.7100 0.7120
3.905000 0.7120 0.7130 0.7130 0.7150 0.7170
3.938207 0.7200 0.7230 0.7250 0.7270 0.7280
3.972000 0.7280 0.7300 0.7300 0.7320 0.7330
4.005207 0.7370 0.7370 0.7380 0.7380 0.7400
4.038000 0.7420 0.7420 0.7430 0.7430 0.7420
4.071207 0.7400 0.7350 0.7320 0.7320 0.7320
4.104000 0.7330 0.7350 0.7380 0.7400 0.7420
4.137207 0.7420 0.7430 0.7430 0.7450 0.7450
4.171000 0.7470 0.7470 0.7480 0.7500 0.7520
4.204207 0.7530 0.7570 0.7580 0.7600 0.7620
4.237000 0.7620 0.7620 0.7630 0.7630 0.7630
4.270207 0.7630 0.7620 0.7600 0.7580 0.7470
4.303000 0.7450 0.7450 0.7450 0.7470 0.7520
4.336207 0.7570 0.7580 0.7600 0.7600 0.7620
4.370000 0.7620 0.7630 0.7630 0.7670 0.7750
4.403207 0.7870 0.7880 0.7930 0.7970 0.7980
4.436000 0.8000 0.8000 0.8000 0.8000 0.8000
4.469207 0.8000 0.8000 0.8000 0.8000 0.8010
4.503000 0.8010 0.8030 0.8050 0.8050 0.8060
4.536207 0.8060 0.8080 0.8100 0.8110 0.8130
4.569000 0.8160 0.8180 0.8200 0.8200 0.8210
4.602207 0.8210 0.8210 0.8230 0.8230 0.8230
4.635000 0.8250 0.8250 0.8250 0.8250 0.8260
4.668207 0.8280 0.8300 0.8310 0.8330 0.8330
4.702000 0.8350 0.8350 0.8360 0.8400 0.8400
4.735207 0.8410 0.8430 0.8430 0.8450 0.8460
4.768000 0.8460 0.8480 0.8480 0.8500 0.8500
4.801207 0.8510 0.8550 0.8580 0.8600 0.8610
4.835000 0.8630 0.8630 0.8650 0.8650 0.8650
4.868207 0.8660 0.8660 0.8660 0.8680 0.8680
4.901000 0.8680 0.8700 0.8700 0.8700 0.8710
4.934207 0.8710 0.8710 0.8730 0.8750 0.8780
4.967000 0.8800 0.8800 0.8800 0.8810 0.8810
5.000207 0.8810 0.8830 0.8830 0.8830 0.8850
5.034000 0.8850 0.8850 0.8860 0.8860 0.8860
5.067207 0.8880 0.8880 0.8900 0.8900 0.8910
5.100000 0.8910 0.8910 0.8930 0.8930 0.8930
5.133207 0.8960 0.8980 0.9000 0.9000 0.9010
5.166000 0.9030 0.9050 0.9060 0.9060 0.9060
5.199207 0.9060 0.9060 0.9060 0.9060 0.9080
5.233000 0.9080 0.9100 0.9110 0.9110 0.9130
5.266207 0.9130 0.9130 0.9150 0.9150 0.9160
5.299000 0.9160 0.9180 0.9200 0.9200 0.9210
5.332207 0.9230 0.9250 0.9260 0.9280 0.9300
5.366000 0.9300 0.9310 0.9310 0.9310 0.9310
5.399207 0.9310 0.9310 0.9330 0.9330 0.9350
5.432000 0.9350 0.9360 0.9360 0.9360 0.9380
5.465207 0.9380 0.9400 0.9410 0.9430 0.9460
5.498000 0.9460 0.9480 0.9480 0.9500 0.9510
5.531207 0.9510 0.9530 0.9530 0.9560 0.9600
5.565000 0.9600 0.9610 0.9610 0.9610 0.9610
5.598207 0.9630 0.9630 0.9630 0.9650 0.9650
5.631000 0.9650 0.9650 0.9660 0.9660 0.9660
5.664207 0.9660 0.9660 0.9660 0.9660 0.9660
5.697000 0.9660 0.9660 0.9660 0.9660 0.9660
5.730207 0.9660 0.9660 0.9660 0.9660 0.9660
5.764000 0.9660 0.9660 0.9660 0.9650 0.9650
5.797207 0.9630 0.9610 0.9610 0.9600 0.9600
5.830000 0.9580 0.9550 0.9550 0.9530 0.9530
5.863207 0.9530 0.9510 0.9500 0.9480 0.9430
5.897000 0.9380 0.9360 0.9330 0.9310 0.9300
5.930207 0.9280 0.9250 0.9150 0.9050 0.9000
5.963000 0.8980 0.8980 0.8960 0.8910 0.8860
5.996207 0.8810 0.8730 0.8660 0.8580 0.8500
6.029000 0.8400 0.8280 0.8200 0.8100 0.8030
6.062207 0.7950 0.7900 0.7820 0.7750 0.7630
6.096000 0.7520 0.7330 0.7220 0.7130 0.7000
6.129207 0.6880 0.6600 0.6420 0.6230 0.6070
6.162000 0.5890 0.5640 0.5340 0.4950 0.4450
6.195207 0.3820 0.3020 0.2590 0.2570 0.2590
6.229000 0.2610 0.2620 0.2620 0.2540 0.2470
6.262207 0.2310 0.2120 0.1960 0.1810 0.1660
6.295000 0.1510 0.1360 0.1230 0.1080 0.0930
6.328207 0.0810 0.0680 0.0610 0.0560 0.0490
6.361000 0.0460 0.0430 0.0380 0.0360 0.0360
6.394207 0.0390 0.0410 0.0410 0.0390 0.0390
6.428000 0.0360 0.0340 0.0340 0.0330 0.0310
6.461207 0.0310 0.0330 0.0340 0.0380 0.0410
6.494000 0.0410 0.0390 0.0360 0.0330 0.0310
6.527207 0.0310 0.0330 0.0360 0.0390 0.0390
6.560000 0.0430 0.0440 0.0480 0.0510 0.0560
6.593207 0.0580 0.0590 0.0640 0.0710 0.0880
6.627000 0.1010 0.1130 0.1230 0.1340 0.1430
6.660207 0.1530 0.1610 0.1710 0.1810 0.1930
6.693000 0.2040 0.2110 0.2160 0.2310 0.2460
6.726207 0.2590 0.2710 0.2810 0.2890 0.2960
6.760000 0.2990 0.3010 0.3040 0.3090 0.3090
6.793207 0.3070 0.3020 0.2970 0.2890 0.2820
6.826000 0.2810 0.2790 0.2790 0.2790 0.2810
6.859207 0.2960 0.3110 0.3240 0.3360 0.3460
6.892000 0.3490 0.3560 0.3620 0.3710 0.3810
6.925207 0.3910 0.3990 0.4090 0.4170 0.4220
6.959000 0.4220 0.4270 0.4320 0.4390 0.4390
6.992207 0.4390 0.4400 0.4420 0.4420 0.4400
7.025000 0.4400 0.4390 0.4270 0.4200 0.4150
7.058207 0.4100 0.4040 0.3970 0.3860 0.3740
7.092000 0.3570 0.3520 0.3440 0.3370 0.3310
7.125207 0.3290 0.3290 0.3290 0.3310 0.3310
7.158000 0.3320 0.3320 0.3290 0.3220 0.3110
7.191207 0.2920 0.2720 0.2520 0.2320 0.2140
7.224000 0.2010 0.1930 0.1910 0.1860 0.1840
7.257207 0.1840 0.1840 0.1860 0.1880 0.1980
7.291000 0.2090 0.2270 0.2410 0.2540 0.2640
7.324207 0.2720 0.2770 0.2810 0.2810 0.2820
7.357000 0.2820 0.2840 0.2820 0.2720 0.2610
7.390207 0.2490 0.2370 0.2260 0.2120 0.2010
7.423000 0.1890 0.1790 0.1680 0.1580 0.1490
7.456207 0.1410 0.1340 0.1290 0.1260 0.1230
7.490000 0.1210 0.1210 0.1230 0.1260 0.1330
7.523207 0.1410 0.1530 0.1680 0.1840 0.2040
7.556000 0.2270 0.2490 0.2710 0.2890 0.3090
7.589207 0.3270 0.3440 0.3610 0.3760 0.3920
7.623000 0.4050 0.4200 0.4340 0.4450 0.4590
7.656207 0.4700 0.4800 0.4920 0.5020 0.5120
7.689000 0.5220 0.5320 0.5400 0.5490 0.5570
7.722207 0.5650 0.5750 0.5850 0.5900 0.5970
7.755000 0.6020 0.6070 0.6120 0.6180 0.6230
7.788207 0.6300 0.6350 0.6400 0.6470 0.6520
7.822000 0.6570 0.6600 0.6650 0.6680 0.6720
7.855207 0.6750 0.6780 0.6780 0.6780 0.6780
7.888000 0.6780 0.6780 0.6780 0.6730 0.6630
7.921207 0.6550 0.6450 0.6320 0.6150 0.5900
7.954000 0.5550 0.5090 0.4490 0.3720 0.3570
7.987207 0.3220 0.2760 0.2240 0.1760 0.1510
8.021000 0.1430 0.1410 0.1430 0.1560 0.1730
8.054207 0.1930 0.2170 0.2460 0.2760 0.3060
8.087000 0.3370 0.3670 0.3960 0.4200 0.4550
8.120207 0.4750 0.4950 0.5120 0.5250 0.5390
8.154000 0.5500 0.5620 0.5720 0.5820 0.5900
8.187207 0.5990 0.6070 0.6130 0.6200 0.6220
8.220000 0.6250 0.6300 0.6330 0.6370 0.6380
8.253207 0.6400 0.6420 0.6450 0.6480 0.6520
8.286000 0.6530 0.6550 0.6550 0.6530 0.6520
8.319207 0.6520 0.6500 0.6470 0.6420 0.6350
8.353000 0.6300 0.6250 0.6230 0.6200 0.6150
8.386207 0.6100 0.6000 0.5920 0.5900 0.5890
8.419000 0.5870 0.5850 0.5850 0.5840 0.5840
8.452207 0.5850 0.5870 0.5900 0.5950 0.6000
8.486000 0.6020 0.6050 0.6080 0.6150 0.6230
8.519207 0.6300 0.6370 0.6430 0.6480 0.6550
8.552000 0.6600 0.6650 0.6720 0.6770 0.6830
8.585207 0.6900 0.6970 0.7050 0.7130 0.7230
8.618000 0.7320 0.7370 0.7400 0.7430 0.7450
8.651207 0.7470 0.7500 0.7520 0.7550 0.7580
8.685000 0.7620 0.7630 0.7680 0.7680 0.7720
8.718207 0.7750 0.7820 0.7870 0.7900 0.7920
8.751000 0.7970 0.7980 0.8000 0.8000 0.8030
8.784207 0.8050 0.8080 0.8080 0.8100 0.8100
8.817000 0.8130 0.8150 0.8160 0.8160 0.8160
8.850207 0.8160 0.8180 0.8180 0.8180 0.8180
8.884000 0.8180 0.8180 0.8180 0.8180 0.8180
8.917207 0.8180 0.8160 0.8160 0.8160 0.8160
8.950000 0.8160 0.8160 0.8180 0.8180 0.8200
8.983207 0.8200 0.8210 0.8200 0.8210 0.8210
9.017000 0.8210 0.8210 0.8210 0.8200 0.8200
9.050207 0.8200 0.8180 0.8180 0.8180 0.8160
9.083000 0.8160 0.8160 0.8150 0.8150 0.8150
9.116207 0.8150 0.8150 0.8150 0.8150 0.8150
9.149000 0.8150 0.8150 0.8130 0.8130 0.8130
9.182207 0.8130 0.8110 0.8110 0.8110 0.8110
9.216000 0.8110 0.8110 0.8110 0.8110 0.8110
9.249207 0.8100 0.8100 0.8100 0.8100 0.8100
9.282000 0.8100 0.8100 0.8080 0.8080 0.8060
9.315207 0.8060 0.8050 0.8050 0.8050 0.8030
9.349000 0.8030 0.8030 0.8030 0.8050 0.8050
9.382207 0.8060 0.8080 0.8080 0.8100 0.8110
9.415000 0.8110 0.8110 0.8110 0.8110 0.8110
9.448207 0.8110 0.8110 0.8110 0.8130 0.8130
9.481000 0.8150 0.8160 0.8160 0.8160 0.8160
9.514207 0.8160 0.8160 0.8160 0.8160 0.8180
9.548000 0.8180 0.8180 0.8180 0.8180 0.8180
9.581207 0.8200 0.8200 0.8210 0.8230 0.8260
9.614000 0.8280 0.8280 0.8300 0.8300 0.8300
9.647207 0.8300 0.8300 0.8300 0.8300 0.8300
9.680000 0.8310 0.8310 0.8310 0.8330 0.8330
9.713207 0.8350 0.8350 0.8360 0.8360 0.8380
9.747000 0.8380 0.8400 0.8400 0.8400 0.8410
9.780207 0.8410 0.8430 0.8430 0.8430 0.8450
9.813000 0.8450 0.8450 0.8460 0.8460 0.8480
9.846207 0.8480 0.8500 0.8500 0.8500 0.8510
9.880000 0.8510 0.8510 0.8530 0.8530 0.8550
9.913207 0.8550 0.8550 0.8550 0.8560 0.8560
9.946000 0.8560 0.8560 0.8560 0.8560 0.8580
9.979207 0.8580 0.8600 0.8610 0.8630 0.8630
10.012000 0.8650 0.8650 0.8660 0.8680 0.8680
10.045207 0.8680 0.8680 0.8680 0.8680 0.8680
10.079000 0.8680 0.8680 0.8660 0.8660 0.8660
10.112207 0.8660 0.8660 0.8680 0.8680 0.8680
10.145000 0.8680 0.8680 0.8680 0.8680 0.8680
10.178207 0.8680 0.8680 0.8680 0.8680 0.8660
10.211000 0.8660 0.8660 0.8650 0.8650 0.8630
10.244207 0.8610 0.8610 0.8600 0.8580 0.8550
10.278000 0.8530 0.8530 0.8510 0.8500 0.8480
10.311207 0.8460 0.8450 0.8410 0.8400 0.8350
10.344000 0.8310 0.8280 0.8250 0.8200 0.8130
10.377207 0.8080 0.8010 0.7950 0.7880 0.7820
10.411000 0.7730 0.7670 0.7650 0.7650 0.7670
10.444207 0.7680 0.7720 0.7770 0.7780 0.7800
10.477000 0.7820 0.7870 0.7900 0.7920 0.7930
10.510207 0.7930 0.7950 0.7950 0.7970 0.7980
10.543000 0.7980 0.8000 0.8000 0.8010 0.8060
10.576207 0.8080 0.8100 0.8130 0.8150 0.8180
10.610000 0.8260 0.8310 0.8330 0.8350 0.8350
10.643207 0.8360 0.8360 0.8380 0.8400 0.8410
10.676000 0.8430 0.8430 0.8450 0.8450 0.8460
10.709207 0.8460 0.8460 0.8450 0.8450 0.8430
10.743000 0.8430 0.8410 0.8410 0.8400 0.8400
10.776207 0.8380 0.8380 0.8360 0.8330 0.8280
10.809000 0.8250 0.8200 0.8160 0.8110 0.8060
10.842207 0.8010 0.7970 0.7920 0.7850 0.7780
10.875000 0.7720 0.7630 0.7550 0.7520 0.7470
10.908207 0.7450 0.7450 0.7450 0.7470 0.7500
10.942000 0.7530 0.7550 0.7600 0.7650 0.7680
10.975207 0.7720 0.7780 0.7830 0.7920 0.8000
11.008000 0.8100 0.8200 0.8210 0.8250 0.8330
11.041207 0.8400 0.8460 0.8500 0.8510 0.8530
11.074000 0.8550 0.8560 0.8560 0.8600 0.8610
11.107207 0.8630 0.8660 0.8680 0.8680 0.8700
11.141000 0.8710 0.8730 0.8750 0.8760 0.8780
11.174207 0.8780 0.8800 0.8800 0.8800 0.8810
11.207000 0.8810 0.8810 0.8810 0.8810 0.8810
11.240207 0.8810 0.8810 0.8810 0.8810 0.8810
11.274000 0.8830 0.8830 0.8850 0.8850 0.8850
11.307207 0.8860 0.8860 0.8860 0.8860 0.8860
11.340000 0.8860 0.8860 0.8880 0.8880 0.8900
11.373207 0.8900 0.8900 0.8900 0.8910 0.8930
11.406000 0.8930 0.8930 0.8950 0.8950 0.8950
11.439207 0.8950 0.8960 0.8960 0.8960 0.8960
11.473000 0.8960 0.8960 0.8960 0.8960 0.8960
11.506207 0.8960 0.8960 0.8960 0.8960 0.8960
11.539000 0.8960 0.8960 0.8960 0.8960 0.8960
11.572207 0.8960 0.8980 0.8980 0.8980 0.8980
11.606000 0.8980 0.8980 0.8980 0.8980 0.8980
11.639207 0.8980 0.8980 0.8980 0.8980 0.8980
11.672000 0.8980 0.8980 0.8980 0.8980 0.8980
11.705207 0.8980 0.8980 0.8980 0.8980 0.8980
11.738000 0.8980 0.8980 0.8980 0.8960 0.8960
11.771207 0.8960 0.8960 0.8960 0.8960 0.8960
11.805000 0.8960 0.8980 0.8980 0.8980 0.8980
11.838207 0.8980 0.8980 0.8980 0.8980 0.8960
11.871000 0.8960 0.8960 0.8960 0.8960 0.8960
11.904207 0.8960 0.8960 0.8960 0.8960 0.8960
11.937000 0.8960 0.8960 0.8980 0.8980 0.8980
11.970207 0.8980 0.8980 0.8980 0.8980 0.8980
12.004000 0.8980 0.8980 0.8980 0.8980 0.8980
12.037207 0.8980 0.8980 0.8980 0.8960 0.8960
12.070000 0.8960 0.8960 0.8960 0.8960 0.8960
12.103207 0.8960 0.8960 0.8960 0.8960 0.8950
12.137000 0.8950 0.8950 0.8930 0.8930 0.8910
12.170207 0.8910 0.8910 0.8910 0.8910 0.8910
12.203000 0.8910 0.8910 0.8900 0.8900 0.8880
12.236207 0.8860 0.8850 0.8850 0.8830 0.8810
12.269000 0.8800 0.8780 0.8780 0.8730 0.8710
12.302207 0.8700 0.8680 0.8660 0.8650 0.8610
12.336000 0.8580 0.8550 0.8480 0.8400 0.8380
12.369207 0.8310 0.8250 0.8150 0.8080 0.8050
12.402000 0.7980 0.7970 0.7950 0.7920 0.7900
12.435207 0.7900 0.7880 0.7870 0.7850 0.7830
12.468000 0.7820 0.7820 0.7800 0.7780 0.7750
12.501207 0.7730 0.7700 0.7680 0.7680 0.7670
12.535000 0.7670 0.7650 0.7650 0.7630 0.7600
12.568207 0.7550 0.7550 0.7520 0.7480 0.7480
12.601000 0.7470 0.7420 0.7400 0.7380 0.7330
12.634207 0.7300 0.7270 0.7250 0.7250 0.7230
12.668000 0.7220 0.7200 0.7200 0.7180 0.7180
12.701207 0.7170 0.7170 0.7180 0.7200 0.7200
12.734000 0.7230 0.7270 0.7270 0.7280 0.7280
12.767207 0.7300 0.7330 0.7370 0.7380 0.7430
12.800000 0.7500 0.7520 0.7580 0.7600 0.7620
12.833207 0.7650 0.7680 0.7720 0.7750 0.7780
12.867000 0.7820 0.7850 0.7900 0.7930 0.7970
12.900207 0.7980 0.8000 0.8030 0.8060 0.8080
12.933000 0.8100 0.8100 0.8110 0.8110 0.8150
12.966207 0.8160 0.8200 0.8210 0.8210 0.8250
13.000000 0.8280 0.8280 0.8300 0.8310 0.8310
13.033207 0.8310 0.8330 0.8350 0.8360 0.8380
13.066000 0.8380 0.8400 0.8410 0.8410 0.8410
13.099207 0.8430 0.8430 0.8430 0.8450 0.8450
13.132000 0.8450 0.8460 0.8460 0.8460 0.8480
13.165207 0.8480 0.8480 0.8500 0.8500 0.8500
13.199000 0.8510 0.8510 0.8510 0.8510 0.8500
13.232207 0.8500 0.8500 0.8500 0.8500 0.8500
13.265000 0.8510 0.8510 0.8550 0.8550 0.8560
13.298207 0.8580 0.8580 0.8580 0.8580 0.8580
13.331000 0.8580 0.8580 0.8600 0.8600 0.8600
13.364207 0.8600 0.8600 0.8600 0.8610 0.8610
13.398000 0.8610 0.8610 0.8610 0.8610 0.8610
13.431207 0.8610 0.8610 0.8600 0.8600 0.8600
13.464000 0.8580 0.8580 0.8580 0.8560 0.8560
13.497207 0.8560 0.8550 0.8550 0.8550 0.8550
13.531000 0.8550 0.8550 0.8550 0.8530 0.8530
13.564207 0.8530 0.8530 0.8550 0.8550 0.8560
13.597000 0.8580 0.8580 0.8580 0.8580 0.8580
13.630207 0.8560 0.8550 0.8530 0.8530 0.8530
13.663000 0.8510 0.8510 0.8500 0.8500 0.8500
13.696207 0.8500 0.8500 0.8500 0.8500 0.8500
13.730000 0.8500 0.8500 0.8510 0.8510 0.8510
13.763207 0.8510 0.8510 0.8510 0.8500 0.8500
13.796000 0.8500 0.8500 0.8480 0.8480 0.8480
13.829207 0.8480 0.8460 0.8460 0.8450 0.8450
13.862000 0.8430 0.8430 0.8410 0.8400 0.8400
13.895207 0.8380 0.8380 0.8380 0.8380 0.8380
13.929000 0.8380 0.8380 0.8380 0.8380 0.8380
13.962207 0.8380 0.8400 0.8410 0.8430 0.8430
13.995000 0.8450 0.8450 0.8450 0.8450 0.8450
14.028207 0.8430 0.8430 0.8410 0.8410 0.8400
14.062000 0.8400 0.8380 0.8360 0.8360 0.8330
14.095207 0.8310 0.8300 0.8280 0.8260 0.8250
14.128000 0.8230 0.8210 0.8180 0.8160 0.8150
14.161207 0.8110 0.8080 0.8060 0.8030 0.8000
14.194000 0.7970 0.7920 0.7880 0.7830 0.7780
14.227207 0.7730 0.7670 0.7620 0.7530 0.7470
14.261000 0.7400 0.7320 0.7220 0.7130 0.7030
14.294207 0.6920 0.6820 0.6680 0.6570 0.6430
14.327000 0.6280 0.6170 0.6030 0.5890 0.5750
14.360207 0.5600 0.5440 0.5300 0.5150 0.5020
14.394000 0.4850 0.4690 0.4500 0.4350 0.4240
14.427207 0.4090 0.4000 0.3870 0.3820 0.3740
14.460000 0.3620 0.3540 0.3470 0.3410 0.3370
14.493207 0.3320 0.3290 0.3240 0.3160 0.3110
14.526000 0.3060 0.3020 0.2990 0.2990 0.2970
14.559207 0.2920 0.2890 0.2870 0.2890 0.2970
14.593000 0.3040 0.3160 0.3260 0.3390 0.3520
14.626207 0.3660 0.3810 0.3960 0.4100 0.4270
14.659000 0.4440 0.4600 0.4770 0.4940 0.5100
14.692207 0.5270 0.5420 0.5590 0.5740 0.5870
14.725000 0.6020 0.6130 0.6250 0.6370 0.6450
14.758207 0.6530 0.6580 0.6620 0.6670 0.6730
14.792000 0.6820 0.6930 0.6970 0.7030 0.7080
14.825207 0.7150 0.7170 0.7180 0.7200 0.7220
14.858000 0.7250 0.7280 0.7320 0.7320 0.7370
14.891207 0.7400 0.7430 0.7450 0.7450 0.7470
14.925000 0.7480 0.7520 0.7530 0.7530 0.7550
14.958207 0.7570 0.7570 0.7570 0.7570 0.7530
14.991000 0.7500 0.7420 0.7370 0.7320 0.7270
15.024207 0.7220 0.7170 0.7130 0.7080 0.7070
15.057000 0.7030 0.7020 0.7000 0.7000 0.7020
15.090207 0.7050 0.7080 0.7130 0.7200 0.7230
15.124000 0.7280 0.7320 0.7350 0.7380 0.7420
15.157207 0.7450 0.7470 0.7480 0.7480 0.7500
15.190000 0.7500 0.7500 0.7500 0.7480 0.7470
15.223207 0.7450 0.7450 0.7430 0.7420 0.7400
15.257000 0.7380 0.7370 0.7330 0.7280 0.7280
15.290207 0.7270 0.7250 0.7230 0.7230 0.7220
15.323000 0.7220 0.7200 0.7200 0.7180 0.7180
15.356207 0.7170 0.7150 0.7130 0.7120 0.7120
15.389000 0.7100 0.7080 0.7050 0.7030 0.7020
15.422207 0.7020 0.7000 0.6970 0.6930 0.6900
15.456000 0.6880 0.6880 0.6880 0.6870 0.6830
15.489207 0.6820 0.6800 0.6780 0.6780 0.6780
15.522000 0.6770 0.6770 0.6750 0.6730 0.6700
15.555207 0.6680 0.6670 0.6670 0.6670 0.6650
15.588000 0.6650 0.6630 0.6620 0.6600 0.6580
15.621207 0.6570 0.6550 0.6530 0.6520 0.6500
15.655000 0.6480 0.6470 0.6450 0.6450 0.6430
15.688207 0.6420 0.6400 0.6380 0.6370 0.6370
15.721000 0.6350 0.6330 0.6320 0.6300 0.6280
15.754207 0.6270 0.6230 0.6220 0.6200 0.6200
15.788000 0.6180 0.6170 0.6150 0.6120 0.6100
15.821207 0.6080 0.6080 0.6050 0.6050 0.6030
15.854000 0.6030 0.6020 0.6000 0.6000 0.5990
15.887207 0.5950 0.5940 0.5900 0.5890 0.5870
15.920000 0.5850 0.5800 0.5790 0.5770 0.5740
15.953207 0.5740 0.5720 0.5720 0.5720 0.5720
##END=
