##TITLE=Phenol, 2,4-diamino-, dihydrochloride
##JCAMP-DX=4.24
##DATA TYPE=INFRARED SPECTRUM
##CLASS=COBLENTZ III
##ORIGIN=BRITISH PETROLEUM CO. LTD., ENGLAND
##OWNER=Copyright (C) 1987 by the Coblentz Society
Collection (C) 2018 copyright by the U.S. Secretary of Commerce
on behalf of the United States of America. All rights reserved.
##DATE=1972/05/24
##MOLFORM=C6 H10 Cl2 N2 O
##SOURCE REFERENCE=COBLENTZ NO. 9367
##$NIST ID=B6009367
##$NIST SOURCE=COBLENTZ
##$NIST IMAGE=cob9367
##SPECTROMETER/DATA SYSTEM=PERKIN-ELMER 157
##STATE=SOLID (KBr DISC, 0.9% WT.)
$$ HCl RUN IN KBr MAY CONTAIN SOME HBr
$$ REF. Can. J. Spec., 18,4,101, '73 C. S. DOUSE and P. B. TOOKE
##SAMPLING PROCEDURE=TRANSMISSION
##RESOLUTION=2
##DATA PROCESSING=DIGITIZED BY COBLENTZ SOCIETY (BATCH II) FROM HARD COPY
##XUNITS=1/CM
##YUNITS=TRANSMITTANCE
##XFACTOR=1.0
##YFACTOR=1
##FIRSTX=668
##LASTX=4000
##FIRSTY=0.3417
##MAXX=4000
##MINX=668
##MAXY=0.5917
##MINY=0.0146
##NPOINTS=3333
##XYDATA=(X++(Y..Y))
668.000000 0.3417 0.3397 0.3311 0.3157 0.3076
673.000000 0.3004 0.2949 0.2918 0.2910 0.2904
678.000000 0.2927 0.2950 0.2975 0.3019 0.3068
683.000000 0.3126 0.3197 0.3303 0.3388 0.3463
688.000000 0.3518 0.3552 0.3572 0.3575 0.3579
693.000000 0.3557 0.3522 0.3474 0.3416 0.3350
698.000000 0.3249 0.3141 0.3075 0.2889 0.2653
703.000000 0.2424 0.2239 0.2050 0.1890 0.1759
708.000000 0.1641 0.1517 0.1476 0.1562 0.1875
713.000000 0.2252 0.2627 0.3001 0.3359 0.3621
718.000000 0.3883 0.4145 0.4295 0.4337 0.4348
723.000000 0.4315 0.4272 0.4221 0.4166 0.4105
728.000000 0.4042 0.3977 0.3912 0.3843 0.3773
733.000000 0.3701 0.3627 0.3517 0.3385 0.3238
738.000000 0.3086 0.2943 0.2803 0.2663 0.2512
743.000000 0.2362 0.2243 0.2119 0.2005 0.1919
748.000000 0.1961 0.2035 0.2130 0.2326 0.2528
753.000000 0.2729 0.2930 0.3131 0.3353 0.3512
758.000000 0.3662 0.3825 0.3999 0.4165 0.4293
763.000000 0.4383 0.4496 0.4635 0.4786 0.4853
768.000000 0.4910 0.4945 0.4972 0.4997 0.5016
773.000000 0.5033 0.5029 0.5038 0.5013 0.5000
778.000000 0.4974 0.4944 0.4904 0.4845 0.4750
783.000000 0.4636 0.4503 0.4336 0.4146 0.3879
788.000000 0.3426 0.2925 0.2325 0.1948 0.1855
793.000000 0.2024 0.2909 0.3808 0.4704 0.5623
798.000000 0.5738 0.5766 0.5781 0.5777 0.5764
803.000000 0.5745 0.5721 0.5694 0.5645 0.5586
808.000000 0.5545 0.5519 0.5490 0.5442 0.5386
813.000000 0.5330 0.5269 0.5205 0.5129 0.5040
818.000000 0.4942 0.4820 0.4686 0.4534 0.4245
823.000000 0.3869 0.3483 0.3274 0.3013 0.2664
828.000000 0.2226 0.1713 0.1200 0.0673 0.0457
833.000000 0.0333 0.0320 0.0309 0.0375 0.1100
838.000000 0.1553 0.1753 0.2312 0.2936 0.3559
843.000000 0.3977 0.4177 0.4472 0.4941 0.5256
848.000000 0.5336 0.5408 0.5490 0.5612 0.5682
853.000000 0.5710 0.5725 0.5755 0.5808 0.5865
858.000000 0.5904 0.5912 0.5917 0.5915 0.5916
863.000000 0.5910 0.5907 0.5894 0.5882 0.5869
868.000000 0.5854 0.5840 0.5823 0.5798 0.5772
873.000000 0.5740 0.5707 0.5666 0.5624 0.5561
878.000000 0.5486 0.5391 0.5281 0.5110 0.4391
883.000000 0.3684 0.2978 0.2571 0.2483 0.2425
888.000000 0.2428 0.2546 0.3184 0.3833 0.4480
893.000000 0.5127 0.5631 0.5693 0.5708 0.5711
898.000000 0.5719 0.5717 0.5719 0.5720 0.5721
903.000000 0.5720 0.5719 0.5717 0.5716 0.5713
908.000000 0.5711 0.5709 0.5706 0.5703 0.5692
913.000000 0.5659 0.5617 0.5577 0.5565 0.5561
918.000000 0.5555 0.5547 0.5538 0.5527 0.5510
923.000000 0.5490 0.5455 0.5425 0.5397 0.5388
928.000000 0.5381 0.5375 0.5369 0.5364 0.5362
933.000000 0.5360 0.5358 0.5326 0.5263 0.5201
938.000000 0.5180 0.5109 0.5031 0.5010 0.5001
943.000000 0.5049 0.5214 0.5303 0.5357 0.5388
948.000000 0.5374 0.5369 0.5359 0.5341 0.5314
953.000000 0.5285 0.5248 0.5211 0.5193 0.5180
958.000000 0.5158 0.5029 0.4891 0.4752 0.4614
963.000000 0.4474 0.4440 0.4441 0.4416 0.4697
968.000000 0.4879 0.5060 0.5145 0.5152 0.5137
973.000000 0.5124 0.5101 0.5071 0.5037 0.4998
978.000000 0.4967 0.4948 0.4938 0.4928 0.4907
983.000000 0.4880 0.4835 0.4776 0.4724 0.4708
988.000000 0.4699 0.4695 0.4692 0.4689 0.4687
993.000000 0.4687 0.4688 0.4681 0.4658 0.4635
998.000000 0.4613 0.4575 0.4536 0.4502 0.4471
1003.000000 0.4450 0.4430 0.4408 0.4384 0.4360
1008.000000 0.4332 0.4304 0.4275 0.4246 0.4218
1013.000000 0.4191 0.4170 0.4149 0.4129 0.4108
1018.000000 0.4087 0.4065 0.4042 0.4020 0.3998
1023.000000 0.3976 0.3954 0.3925 0.3895 0.3866
1028.000000 0.3835 0.3805 0.3774 0.3736 0.3685
1033.000000 0.3634 0.3584 0.3523 0.3451 0.3383
1038.000000 0.3340 0.3297 0.3255 0.3203 0.3129
1043.000000 0.3055 0.2978 0.2841 0.2681 0.2535
1048.000000 0.2461 0.2386 0.2311 0.2228 0.2143
1053.000000 0.2022 0.1885 0.1731 0.1590 0.1461
1058.000000 0.1296 0.1127 0.0967 0.0836 0.0755
1063.000000 0.0679 0.0585 0.0508 0.0474 0.0463
1068.000000 0.0482 0.0517 0.0579 0.0657 0.0713
1073.000000 0.0770 0.0857 0.1094 0.1397 0.1699
1078.000000 0.2000 0.2301 0.2596 0.2828 0.2962
1083.000000 0.3056 0.3114 0.3129 0.3141 0.3132
1088.000000 0.3121 0.3088 0.2984 0.2841 0.2698
1093.000000 0.2555 0.2412 0.2270 0.2128 0.1986
1098.000000 0.1844 0.1703 0.1553 0.1412 0.1307
1103.000000 0.1205 0.1113 0.1020 0.0928 0.0837
1108.000000 0.0744 0.0652 0.0579 0.0511 0.0470
1113.000000 0.0447 0.0431 0.0423 0.0422 0.0428
1118.000000 0.0433 0.0450 0.0470 0.0520 0.0655
1123.000000 0.0799 0.0942 0.1085 0.1200 0.1239
1128.000000 0.1261 0.1286 0.1312 0.1361 0.1436
1133.000000 0.1562 0.1732 0.1885 0.1975 0.2038
1138.000000 0.2070 0.2095 0.2122 0.2159 0.2193
1143.000000 0.2221 0.2239 0.2206 0.2138 0.2069
1148.000000 0.2005 0.1994 0.2245 0.3897 0.3977
1153.000000 0.4019 0.4034 0.4038 0.4044 0.4007
1158.000000 0.3925 0.3857 0.3792 0.3735 0.3703
1163.000000 0.3686 0.3675 0.3663 0.3652 0.3641
1168.000000 0.3630 0.3619 0.3602 0.3581 0.3550
1173.000000 0.3511 0.3462 0.3411 0.3360 0.3316
1178.000000 0.3273 0.3228 0.3165 0.3098 0.3027
1183.000000 0.2955 0.2846 0.2714 0.2589 0.2479
1188.000000 0.2364 0.2234 0.2053 0.1846 0.1641
1193.000000 0.1436 0.1231 0.1026 0.0822 0.0707
1198.000000 0.0577 0.0497 0.0481 0.0468 0.0494
1203.000000 0.0517 0.0560 0.0776 0.1246 0.1714
1208.000000 0.2182 0.2648 0.3115 0.3379 0.3432
1213.000000 0.3467 0.3482 0.3488 0.3486 0.3483
1218.000000 0.3478 0.3471 0.3463 0.3454 0.3440
1223.000000 0.3426 0.3412 0.3393 0.3370 0.3346
1228.000000 0.3319 0.3281 0.3244 0.3207 0.3170
1233.000000 0.3134 0.3097 0.3058 0.3012 0.2966
1238.000000 0.2920 0.2875 0.2829 0.2784 0.2736
1243.000000 0.2679 0.2627 0.2577 0.2516 0.2486
1248.000000 0.2471 0.2458 0.2454 0.2437 0.2409
1253.000000 0.2362 0.2297 0.2222 0.2127 0.2027
1258.000000 0.1967 0.1943 0.1927 0.1920 0.1914
1263.000000 0.1903 0.1890 0.1865 0.1817 0.1768
1268.000000 0.1701 0.1619 0.1540 0.1468 0.1404
1273.000000 0.1341 0.1277 0.1206 0.1127 0.1048
1278.000000 0.0979 0.0924 0.0871 0.0818 0.0764
1283.000000 0.0699 0.0631 0.0565 0.0504 0.0451
1288.000000 0.0397 0.0344 0.0256 0.0186 0.0153
1293.000000 0.0146 0.0154 0.0175 0.0193 0.0230
1298.000000 0.0302 0.0371 0.0410 0.0655 0.1140
1303.000000 0.1624 0.2107 0.2590 0.3072 0.3512
1308.000000 0.3647 0.3696 0.3729 0.3733 0.3724
1313.000000 0.3699 0.3652 0.3564 0.3472 0.3380
1318.000000 0.3288 0.3196 0.3106 0.3058 0.2977
1323.000000 0.2910 0.2858 0.2802 0.2722 0.2639
1328.000000 0.2571 0.2488 0.2352 0.2164 0.2060
1333.000000 0.1977 0.1892 0.1811 0.1746 0.1688
1338.000000 0.1614 0.1443 0.1299 0.1159 0.1019
1343.000000 0.0878 0.0738 0.0637 0.0576 0.0441
1348.000000 0.0398 0.0387 0.0377 0.0369 0.0368
1353.000000 0.0356 0.0392 0.0408 0.0439 0.0468
1358.000000 0.0498 0.0628 0.0780 0.0932 0.1084
1363.000000 0.1235 0.1387 0.1538 0.1689 0.1840
1368.000000 0.1980 0.2046 0.2062 0.2072 0.2074
1373.000000 0.2074 0.2094 0.2068 0.2060 0.2042
1378.000000 0.2013 0.1975 0.1938 0.1900 0.1863
1383.000000 0.1826 0.1789 0.1751 0.1714 0.1677
1388.000000 0.1640 0.1603 0.1570 0.1539 0.1509
1393.000000 0.1482 0.1457 0.1440 0.1424 0.1410
1398.000000 0.1401 0.1393 0.1387 0.1383 0.1380
1403.000000 0.1376 0.1373 0.1371 0.1369 0.1367
1408.000000 0.1365 0.1363 0.1362 0.1359 0.1358
1413.000000 0.1357 0.1357 0.1357 0.1357 0.1357
1418.000000 0.1357 0.1357 0.1358 0.1360 0.1361
1423.000000 0.1345 0.1323 0.1305 0.1289 0.1272
1428.000000 0.1243 0.1206 0.1170 0.1133 0.1097
1433.000000 0.1061 0.1028 0.0998 0.0968 0.0939
1438.000000 0.0910 0.0882 0.0857 0.0831 0.0805
1443.000000 0.0780 0.0754 0.0729 0.0704 0.0679
1448.000000 0.0655 0.0631 0.0607 0.0582 0.0559
1453.000000 0.0539 0.0519 0.0499 0.0479 0.0458
1458.000000 0.0430 0.0394 0.0372 0.0359 0.0346
1463.000000 0.0343 0.0340 0.0343 0.0359 0.0334
1468.000000 0.0405 0.0428 0.0450 0.0473 0.0495
1473.000000 0.0515 0.0519 0.0549 0.0505 0.0488
1478.000000 0.0462 0.0434 0.0410 0.0387 0.0363
1483.000000 0.0330 0.0297 0.0279 0.0260 0.0248
1488.000000 0.0241 0.0239 0.0237 0.0236 0.0236
1493.000000 0.0231 0.0237 0.0238 0.0239 0.0240
1498.000000 0.0242 0.0248 0.0253 0.0258 0.0266
1503.000000 0.0278 0.0291 0.0306 0.0322 0.0338
1508.000000 0.0354 0.0373 0.0393 0.0409 0.0413
1513.000000 0.0413 0.0413 0.0413 0.0445 0.0489
1518.000000 0.0527 0.0563 0.0588 0.0609 0.0620
1523.000000 0.0626 0.0629 0.0631 0.0633 0.0631
1528.000000 0.0629 0.0628 0.0663 0.0807 0.0952
1533.000000 0.1096 0.1240 0.1384 0.1528 0.1671
1538.000000 0.1815 0.1958 0.2101 0.2244 0.2369
1543.000000 0.2417 0.2422 0.2422 0.2421 0.2425
1548.000000 0.2414 0.2386 0.2240 0.2093 0.1947
1553.000000 0.1801 0.1655 0.1510 0.1364 0.1219
1558.000000 0.1074 0.0929 0.0785 0.0659 0.0579
1563.000000 0.0539 0.0513 0.0487 0.0470 0.0461
1568.000000 0.0453 0.0443 0.0426 0.0369 0.0308
1573.000000 0.0271 0.0255 0.0250 0.0250 0.0251
1578.000000 0.0261 0.0254 0.0259 0.0269 0.0281
1583.000000 0.0297 0.0314 0.0382 0.0503 0.0639
1588.000000 0.0774 0.0910 0.1045 0.1180 0.1315
1593.000000 0.1449 0.1584 0.1718 0.2197 0.2835
1598.000000 0.3417 0.3998 0.4431 0.4611 0.4671
1603.000000 0.4732 0.4778 0.4799 0.4800 0.4798
1608.000000 0.4796 0.4792 0.4810 0.4769 0.4716
1613.000000 0.4622 0.4563 0.4508 0.4433 0.4285
1618.000000 0.4110 0.3934 0.3757 0.3582 0.3406
1623.000000 0.3231 0.3056 0.2881 0.2706 0.2531
1628.000000 0.2357 0.2216 0.2136 0.2039 0.1932
1633.000000 0.1836 0.1778 0.1721 0.1674 0.1593
1638.000000 0.1496 0.1394 0.1294 0.1193 0.1093
1643.000000 0.1020 0.0996 0.1006 0.1050 0.1354
1648.000000 0.1799 0.2244 0.2687 0.3130 0.3572
1653.000000 0.4014 0.4455 0.4841 0.5069 0.5122
1658.000000 0.5139 0.5155 0.5168 0.5172 0.5176
1663.000000 0.5180 0.5184 0.5186 0.5184 0.5183
1668.000000 0.5182 0.5181 0.5181 0.5178 0.5175
1673.000000 0.5172 0.5168 0.5165 0.5161 0.5158
1678.000000 0.5154 0.5150 0.5147 0.5143 0.5138
1683.000000 0.5131 0.5124 0.5116 0.5107 0.5090
1688.000000 0.5073 0.5053 0.5032 0.5009 0.4987
1693.000000 0.4966 0.4945 0.4926 0.4906 0.4886
1698.000000 0.4863 0.4840 0.4817 0.4800 0.4794
1703.000000 0.4788 0.4783 0.4783 0.4783 0.4783
1708.000000 0.4783 0.4783 0.4783 0.4782 0.4779
1713.000000 0.4773 0.4761 0.4741 0.4715 0.4684
1718.000000 0.4682 0.4681 0.4680 0.4679 0.4678
1723.000000 0.4677 0.4677 0.4677 0.4677 0.4678
1728.000000 0.4678 0.4677 0.4674 0.4665 0.4656
1733.000000 0.4640 0.4617 0.4587 0.4556 0.4522
1738.000000 0.4490 0.4460 0.4432 0.4405 0.4377
1743.000000 0.4310 0.4219 0.4145 0.4111 0.4077
1748.000000 0.4025 0.3964 0.3901 0.3842 0.3789
1753.000000 0.3744 0.3710 0.3690 0.3675 0.3663
1758.000000 0.3662 0.3660 0.3658 0.3658 0.3658
1763.000000 0.3658 0.3658 0.3672 0.3691 0.3708
1768.000000 0.3725 0.3742 0.3760 0.3775 0.3785
1773.000000 0.3786 0.3785 0.3783 0.3782 0.3780
1778.000000 0.3779 0.3773 0.3768 0.3762 0.3756
1783.000000 0.3750 0.3744 0.3738 0.3730 0.3723
1788.000000 0.3717 0.3702 0.3683 0.3664 0.3648
1793.000000 0.3633 0.3619 0.3605 0.3591 0.3576
1798.000000 0.3559 0.3542 0.3525 0.3508 0.3491
1803.000000 0.3474 0.3456 0.3439 0.3420 0.3402
1808.000000 0.3383 0.3365 0.3346 0.3327 0.3309
1813.000000 0.3291 0.3273 0.3253 0.3231 0.3208
1818.000000 0.3186 0.3163 0.3141 0.3119 0.3096
1823.000000 0.3073 0.3049 0.3024 0.2998 0.2972
1828.000000 0.2946 0.2919 0.2885 0.2838 0.2789
1833.000000 0.2741 0.2706 0.2672 0.2639 0.2605
1838.000000 0.2571 0.2543 0.2515 0.2488 0.2461
1843.000000 0.2434 0.2412 0.2400 0.2387 0.2375
1848.000000 0.2363 0.2351 0.2339 0.2327 0.2315
1853.000000 0.2304 0.2296 0.2290 0.2282 0.2276
1858.000000 0.2269 0.2262 0.2255 0.2248 0.2242
1863.000000 0.2236 0.2232 0.2228 0.2224 0.2220
1868.000000 0.2215 0.2211 0.2207 0.2203 0.2199
1873.000000 0.2195 0.2191 0.2187 0.2182 0.2176
1878.000000 0.2160 0.2145 0.2130 0.2115 0.2100
1883.000000 0.2084 0.2064 0.2043 0.2022 0.2001
1888.000000 0.1980 0.1966 0.1956 0.1947 0.1939
1893.000000 0.1932 0.1927 0.1922 0.1917 0.1914
1898.000000 0.1912 0.1910 0.1909 0.1908 0.1906
1903.000000 0.1905 0.1904 0.1902 0.1901 0.1900
1908.000000 0.1899 0.1898 0.1896 0.1896 0.1896
1913.000000 0.1897 0.1901 0.1899 0.1907 0.1911
1918.000000 0.1915 0.1919 0.1922 0.1925 0.1929
1923.000000 0.1932 0.1941 0.1952 0.1963 0.1974
1928.000000 0.1986 0.1998 0.2013 0.2023 0.2029
1933.000000 0.2033 0.2037 0.2041 0.2042 0.2043
1938.000000 0.2043 0.2043 0.2042 0.2042 0.2042
1943.000000 0.2042 0.2042 0.2041 0.2041 0.2041
1948.000000 0.2041 0.2041 0.2042 0.2044 0.2046
1953.000000 0.2048 0.2050 0.2053 0.2059 0.2071
1958.000000 0.2084 0.2101 0.2119 0.2137 0.2160
1963.000000 0.2180 0.2198 0.2213 0.2227 0.2242
1968.000000 0.2257 0.2274 0.2294 0.2316 0.2337
1973.000000 0.2357 0.2378 0.2396 0.2407 0.2419
1978.000000 0.2430 0.2441 0.2452 0.2464 0.2475
1983.000000 0.2488 0.2503 0.2517 0.2532 0.2547
1988.000000 0.2562 0.2578 0.2592 0.2603 0.2612
1993.000000 0.2622 0.2631 0.2640 0.2649 0.2660
1998.000000 0.2676 0.2696 0.2720 0.2737 0.2752
2003.000000 0.2762 0.2773 0.2783 0.2793 0.2801
2008.000000 0.2806 0.2811 0.2815 0.2816 0.2816
2013.000000 0.2815 0.2815 0.2814 0.2814 0.2813
2018.000000 0.2812 0.2812 0.2811 0.2811 0.2838
2023.000000 0.2808 0.2807 0.2806 0.2805 0.2804
2028.000000 0.2803 0.2802 0.2801 0.2799 0.2798
2033.000000 0.2797 0.2797 0.2796 0.2794 0.2790
2038.000000 0.2786 0.2781 0.2777 0.2773 0.2769
2043.000000 0.2764 0.2759 0.2755 0.2752 0.2750
2048.000000 0.2749 0.2747 0.2745 0.2743 0.2741
2053.000000 0.2738 0.2735 0.2733 0.2730 0.2727
2058.000000 0.2725 0.2722 0.2718 0.2713 0.2698
2063.000000 0.2684 0.2670 0.2657 0.2645 0.2634
2068.000000 0.2624 0.2613 0.2603 0.2592 0.2580
2073.000000 0.2568 0.2556 0.2544 0.2532 0.2519
2078.000000 0.2507 0.2496 0.2485 0.2481 0.2477
2083.000000 0.2472 0.2468 0.2464 0.2460 0.2456
2088.000000 0.2452 0.2448 0.2444 0.2441 0.2438
2093.000000 0.2438 0.2438 0.2438 0.2437 0.2437
2098.000000 0.2436 0.2435 0.2434 0.2433 0.2432
2103.000000 0.2431 0.2431 0.2430 0.2429 0.2428
2108.000000 0.2427 0.2427 0.2426 0.2425 0.2424
2113.000000 0.2424 0.2423 0.2422 0.2421 0.2420
2118.000000 0.2419 0.2418 0.2418 0.2417 0.2417
2123.000000 0.2416 0.2415 0.2414 0.2413 0.2412
2128.000000 0.2411 0.2411 0.2410 0.2410 0.2409
2133.000000 0.2408 0.2407 0.2406 0.2405 0.2404
2138.000000 0.2404 0.2403 0.2403 0.2402 0.2402
2143.000000 0.2401 0.2401 0.2400 0.2399 0.2395
2148.000000 0.2390 0.2381 0.2374 0.2366 0.2358
2153.000000 0.2350 0.2341 0.2331 0.2321 0.2310
2158.000000 0.2299 0.2287 0.2277 0.2266 0.2255
2163.000000 0.2242 0.2228 0.2215 0.2202 0.2188
2168.000000 0.2174 0.2160 0.2146 0.2134 0.2123
2173.000000 0.2112 0.2102 0.2091 0.2081 0.2071
2178.000000 0.2061 0.2055 0.2050 0.2048 0.2045
2183.000000 0.2043 0.2040 0.2038 0.2035 0.2032
2188.000000 0.2029 0.2027 0.2024 0.2021 0.2018
2193.000000 0.2014 0.2012 0.2009 0.2002 0.1994
2198.000000 0.1983 0.1970 0.1952 0.1933 0.1915
2203.000000 0.1897 0.1879 0.1861 0.1843 0.1825
2208.000000 0.1806 0.1792 0.1782 0.1771 0.1761
2213.000000 0.1752 0.1745 0.1740 0.1737 0.1733
2218.000000 0.1730 0.1727 0.1723 0.1720 0.1717
2223.000000 0.1714 0.1710 0.1707 0.1704 0.1701
2228.000000 0.1697 0.1694 0.1691 0.1688 0.1684
2233.000000 0.1681 0.1678 0.1674 0.1671 0.1667
2238.000000 0.1664 0.1660 0.1657 0.1654 0.1650
2243.000000 0.1647 0.1643 0.1640 0.1636 0.1633
2248.000000 0.1630 0.1627 0.1623 0.1620 0.1617
2253.000000 0.1614 0.1611 0.1609 0.1606 0.1604
2258.000000 0.1601 0.1599 0.1596 0.1593 0.1591
2263.000000 0.1588 0.1585 0.1582 0.1580 0.1577
2268.000000 0.1574 0.1572 0.1571 0.1570 0.1569
2273.000000 0.1568 0.1567 0.1566 0.1565 0.1564
2278.000000 0.1563 0.1562 0.1559 0.1557 0.1553
2283.000000 0.1549 0.1545 0.1541 0.1537 0.1534
2288.000000 0.1526 0.1517 0.1508 0.1498 0.1489
2293.000000 0.1480 0.1471 0.1462 0.1453 0.1444
2298.000000 0.1436 0.1427 0.1418 0.1409 0.1401
2303.000000 0.1396 0.1392 0.1390 0.1388 0.1386
2308.000000 0.1384 0.1382 0.1381 0.1379 0.1377
2313.000000 0.1376 0.1375 0.1373 0.1372 0.1370
2318.000000 0.1369 0.1368 0.1366 0.1365 0.1363
2323.000000 0.1361 0.1353 0.1340 0.1327 0.1314
2328.000000 0.1301 0.1286 0.1271 0.1254 0.1237
2333.000000 0.1220 0.1203 0.1184 0.1165 0.1144
2338.000000 0.1122 0.1099 0.1077 0.1055 0.1038
2343.000000 0.1021 0.1005 0.0990 0.0974 0.0959
2348.000000 0.0949 0.0943 0.0937 0.0932 0.0927
2353.000000 0.0921 0.0916 0.0911 0.0907 0.0904
2358.000000 0.0901 0.0898 0.0895 0.0893 0.0890
2363.000000 0.0887 0.0885 0.0883 0.0882 0.0882
2368.000000 0.0881 0.0881 0.0880 0.0880 0.0879
2373.000000 0.0879 0.0879 0.0879 0.0879 0.0878
2378.000000 0.0878 0.0877 0.0876 0.0875 0.0874
2383.000000 0.0872 0.0870 0.0868 0.0867 0.0865
2388.000000 0.0863 0.0861 0.0860 0.0858 0.0856
2393.000000 0.0854 0.0853 0.0851 0.0848 0.0845
2398.000000 0.0841 0.0837 0.0832 0.0827 0.0822
2403.000000 0.0816 0.0810 0.0804 0.0797 0.0791
2408.000000 0.0785 0.0779 0.0773 0.0767 0.0761
2413.000000 0.0755 0.0749 0.0743 0.0737 0.0732
2418.000000 0.0726 0.0721 0.0715 0.0710 0.0704
2423.000000 0.0699 0.0693 0.0688 0.0682 0.0677
2428.000000 0.0671 0.0665 0.0660 0.0654 0.0649
2433.000000 0.0643 0.0638 0.0633 0.0627 0.0621
2438.000000 0.0616 0.0610 0.0604 0.0599 0.0593
2443.000000 0.0587 0.0581 0.0575 0.0570 0.0564
2448.000000 0.0558 0.0552 0.0546 0.0540 0.0535
2453.000000 0.0529 0.0523 0.0517 0.0511 0.0504
2458.000000 0.0497 0.0490 0.0482 0.0475 0.0468
2463.000000 0.0461 0.0456 0.0451 0.0447 0.0445
2468.000000 0.0442 0.0440 0.0438 0.0436 0.0434
2473.000000 0.0432 0.0430 0.0427 0.0426 0.0424
2478.000000 0.0423 0.0422 0.0422 0.0420 0.0419
2483.000000 0.0418 0.0417 0.0417 0.0416 0.0415
2488.000000 0.0414 0.0413 0.0413 0.0411 0.0409
2493.000000 0.0406 0.0402 0.0398 0.0393 0.0388
2498.000000 0.0383 0.0378 0.0374 0.0368 0.0363
2503.000000 0.0358 0.0352 0.0347 0.0341 0.0336
2508.000000 0.0328 0.0318 0.0307 0.0293 0.0279
2513.000000 0.0264 0.0250 0.0236 0.0222 0.0209
2518.000000 0.0196 0.0186 0.0175 0.0171 0.0167
2523.000000 0.0165 0.0165 0.0165 0.0164 0.0164
2528.000000 0.0164 0.0164 0.0164 0.0163 0.0163
2533.000000 0.0163 0.0163 0.0163 0.0163 0.0163
2538.000000 0.0163 0.0163 0.0163 0.0163 0.0163
2543.000000 0.0163 0.0163 0.0163 0.0163 0.0163
2548.000000 0.0163 0.0163 0.0163 0.0163 0.0163
2553.000000 0.0163 0.0164 0.0164 0.0164 0.0164
2558.000000 0.0164 0.0164 0.0164 0.0164 0.0164
2563.000000 0.0164 0.0164 0.0165 0.0165 0.0166
2568.000000 0.0166 0.0166 0.0167 0.0167 0.0167
2573.000000 0.0167 0.0167 0.0168 0.0168 0.0168
2578.000000 0.0169 0.0169 0.0170 0.0170 0.0170
2583.000000 0.0171 0.0171 0.0171 0.0172 0.0172
2588.000000 0.0173 0.0173 0.0173 0.0174 0.0174
2593.000000 0.0174 0.0174 0.0174 0.0174 0.0175
2598.000000 0.0175 0.0176 0.0176 0.0176 0.0177
2603.000000 0.0177 0.0177 0.0178 0.0178 0.0179
2608.000000 0.0179 0.0179 0.0180 0.0180 0.0180
2613.000000 0.0180 0.0180 0.0180 0.0180 0.0180
2618.000000 0.0181 0.0181 0.0181 0.0181 0.0181
2623.000000 0.0181 0.0182 0.0182 0.0182 0.0182
2628.000000 0.0182 0.0183 0.0183 0.0183 0.0183
2633.000000 0.0183 0.0183 0.0184 0.0184 0.0184
2638.000000 0.0184 0.0184 0.0185 0.0185 0.0185
2643.000000 0.0185 0.0185 0.0185 0.0186 0.0186
2648.000000 0.0186 0.0186 0.0186 0.0186 0.0187
2653.000000 0.0187 0.0187 0.0187 0.0187 0.0187
2658.000000 0.0187 0.0187 0.0187 0.0187 0.0187
2663.000000 0.0187 0.0187 0.0187 0.0187 0.0187
2668.000000 0.0187 0.0186 0.0186 0.0186 0.0186
2673.000000 0.0186 0.0186 0.0186 0.0186 0.0186
2678.000000 0.0186 0.0186 0.0185 0.0185 0.0185
2683.000000 0.0185 0.0185 0.0185 0.0185 0.0185
2688.000000 0.0185 0.0185 0.0185 0.0185 0.0185
2693.000000 0.0185 0.0184 0.0184 0.0184 0.0184
2698.000000 0.0184 0.0184 0.0184 0.0184 0.0184
2703.000000 0.0184 0.0184 0.0184 0.0183 0.0183
2708.000000 0.0183 0.0183 0.0183 0.0183 0.0183
2713.000000 0.0183 0.0183 0.0183 0.0183 0.0183
2718.000000 0.0182 0.0182 0.0182 0.0181 0.0181
2723.000000 0.0181 0.0181 0.0181 0.0181 0.0180
2728.000000 0.0180 0.0180 0.0180 0.0180 0.0180
2733.000000 0.0179 0.0179 0.0179 0.0178 0.0178
2738.000000 0.0178 0.0178 0.0178 0.0178 0.0177
2743.000000 0.0177 0.0177 0.0155 0.0177 0.0177
2748.000000 0.0176 0.0176 0.0176 0.0175 0.0175
2753.000000 0.0175 0.0175 0.0175 0.0175 0.0174
2758.000000 0.0174 0.0174 0.0174 0.0174 0.0174
2763.000000 0.0173 0.0173 0.0173 0.0172 0.0172
2768.000000 0.0172 0.0172 0.0172 0.0172 0.0171
2773.000000 0.0171 0.0171 0.0171 0.0171 0.0171
2778.000000 0.0171 0.0171 0.0171 0.0171 0.0171
2783.000000 0.0171 0.0171 0.0171 0.0171 0.0171
2788.000000 0.0170 0.0170 0.0170 0.0170 0.0170
2793.000000 0.0170 0.0170 0.0170 0.0170 0.0170
2798.000000 0.0170 0.0170 0.0170 0.0170 0.0170
2803.000000 0.0170 0.0170 0.0170 0.0170 0.0170
2808.000000 0.0170 0.0170 0.0170 0.0170 0.0170
2813.000000 0.0170 0.0170 0.0170 0.0169 0.0169
2818.000000 0.0169 0.0169 0.0169 0.0169 0.0169
2823.000000 0.0169 0.0169 0.0169 0.0169 0.0169
2828.000000 0.0169 0.0169 0.0169 0.0169 0.0169
2833.000000 0.0169 0.0169 0.0169 0.0169 0.0169
2838.000000 0.0169 0.0169 0.0169 0.0169 0.0169
2843.000000 0.0169 0.0169 0.0168 0.0168 0.0168
2848.000000 0.0168 0.0168 0.0168 0.0168 0.0168
2853.000000 0.0168 0.0168 0.0168 0.0168 0.0168
2858.000000 0.0168 0.0168 0.0168 0.0168 0.0168
2863.000000 0.0168 0.0168 0.0168 0.0168 0.0168
2868.000000 0.0168 0.0168 0.0168 0.0168 0.0168
2873.000000 0.0168 0.0168 0.0168 0.0168 0.0168
2878.000000 0.0168 0.0168 0.0168 0.0168 0.0168
2883.000000 0.0168 0.0169 0.0169 0.0169 0.0169
2888.000000 0.0169 0.0169 0.0169 0.0169 0.0169
2893.000000 0.0169 0.0169 0.0169 0.0169 0.0169
2898.000000 0.0169 0.0169 0.0169 0.0169 0.0169
2903.000000 0.0169 0.0169 0.0169 0.0169 0.0169
2908.000000 0.0169 0.0169 0.0169 0.0170 0.0170
2913.000000 0.0170 0.0170 0.0170 0.0170 0.0170
2918.000000 0.0170 0.0170 0.0170 0.0170 0.0170
2923.000000 0.0170 0.0170 0.0170 0.0170 0.0170
2928.000000 0.0170 0.0170 0.0170 0.0170 0.0170
2933.000000 0.0170 0.0170 0.0170 0.0170 0.0170
2938.000000 0.0171 0.0171 0.0171 0.0171 0.0171
2943.000000 0.0171 0.0171 0.0171 0.0171 0.0171
2948.000000 0.0171 0.0171 0.0171 0.0171 0.0171
2953.000000 0.0171 0.0171 0.0171 0.0171 0.0171
2958.000000 0.0171 0.0171 0.0171 0.0171 0.0171
2963.000000 0.0172 0.0172 0.0172 0.0172 0.0172
2968.000000 0.0172 0.0172 0.0173 0.0173 0.0173
2973.000000 0.0174 0.0174 0.0174 0.0174 0.0174
2978.000000 0.0174 0.0174 0.0175 0.0176 0.0177
2983.000000 0.0178 0.0180 0.0182 0.0184 0.0186
2988.000000 0.0188 0.0190 0.0192 0.0194 0.0196
2993.000000 0.0198 0.0199 0.0201 0.0203 0.0204
2998.000000 0.0206 0.0208 0.0210 0.0212 0.0214
3003.000000 0.0215 0.0217 0.0219 0.0220 0.0222
3008.000000 0.0224 0.0225 0.0227 0.0229 0.0230
3013.000000 0.0232 0.0234 0.0236 0.0238 0.0240
3018.000000 0.0241 0.0243 0.0245 0.0247 0.0249
3023.000000 0.0251 0.0253 0.0255 0.0258 0.0260
3028.000000 0.0262 0.0265 0.0267 0.0269 0.0271
3033.000000 0.0273 0.0276 0.0277 0.0279 0.0280
3038.000000 0.0282 0.0284 0.0286 0.0288 0.0290
3043.000000 0.0291 0.0293 0.0294 0.0296 0.0298
3048.000000 0.0300 0.0302 0.0303 0.0305 0.0307
3053.000000 0.0308 0.0310 0.0311 0.0312 0.0313
3058.000000 0.0314 0.0315 0.0316 0.0316 0.0317
3063.000000 0.0318 0.0319 0.0320 0.0320 0.0321
3068.000000 0.0322 0.0322 0.0322 0.0322 0.0323
3073.000000 0.0323 0.0323 0.0323 0.0323 0.0323
3078.000000 0.0323 0.0323 0.0323 0.0323 0.0323
3083.000000 0.0322 0.0322 0.0322 0.0322 0.0322
3088.000000 0.0322 0.0322 0.0322 0.0322 0.0322
3093.000000 0.0322 0.0322 0.0322 0.0322 0.0322
3098.000000 0.0322 0.0322 0.0322 0.0322 0.0322
3103.000000 0.0322 0.0322 0.0322 0.0323 0.0323
3108.000000 0.0323 0.0323 0.0323 0.0323 0.0323
3113.000000 0.0323 0.0323 0.0323 0.0323 0.0323
3118.000000 0.0323 0.0323 0.0323 0.0323 0.0324
3123.000000 0.0324 0.0325 0.0326 0.0327 0.0328
3128.000000 0.0329 0.0330 0.0330 0.0331 0.0332
3133.000000 0.0333 0.0334 0.0335 0.0337 0.0339
3138.000000 0.0343 0.0347 0.0351 0.0356 0.0360
3143.000000 0.0364 0.0368 0.0373 0.0379 0.0385
3148.000000 0.0391 0.0398 0.0406 0.0414 0.0422
3153.000000 0.0430 0.0438 0.0446 0.0454 0.0463
3158.000000 0.0474 0.0484 0.0495 0.0517 0.0554
3163.000000 0.0592 0.0629 0.0659 0.0680 0.0701
3168.000000 0.0722 0.0742 0.0762 0.0782 0.0802
3173.000000 0.0821 0.0840 0.0859 0.0878 0.0895
3178.000000 0.0909 0.0922 0.0936 0.0950 0.0964
3183.000000 0.0978 0.0992 0.1005 0.1019 0.1032
3188.000000 0.1046 0.1059 0.1070 0.1082 0.1093
3193.000000 0.1104 0.1115 0.1126 0.1136 0.1147
3198.000000 0.1158 0.1168 0.1179 0.1189 0.1200
3203.000000 0.1211 0.1221 0.1232 0.1242 0.1251
3208.000000 0.1260 0.1269 0.1278 0.1288 0.1297
3213.000000 0.1306 0.1315 0.1325 0.1334 0.1343
3218.000000 0.1352 0.1361 0.1370 0.1379 0.1395
3223.000000 0.1426 0.1457 0.1488 0.1519 0.1550
3228.000000 0.1581 0.1613 0.1644 0.1676 0.1707
3233.000000 0.1738 0.1770 0.1801 0.1832 0.1864
3238.000000 0.1895 0.1926 0.1957 0.1988 0.2020
3243.000000 0.2051 0.2082 0.2112 0.2143 0.2174
3248.000000 0.2205 0.2236 0.2267 0.2298 0.2329
3253.000000 0.2360 0.2391 0.2422 0.2453 0.2484
3258.000000 0.2515 0.2546 0.2576 0.2607 0.2638
3263.000000 0.2669 0.2699 0.2730 0.2761 0.2792
3268.000000 0.2822 0.2853 0.2883 0.2913 0.2944
3273.000000 0.2980 0.3019 0.3057 0.3096 0.3127
3278.000000 0.3150 0.3174 0.3197 0.3222 0.3253
3283.000000 0.3285 0.3316 0.3348 0.3374 0.3400
3288.000000 0.3426 0.3451 0.3472 0.3487 0.3503
3293.000000 0.3519 0.3533 0.3540 0.3547 0.3554
3298.000000 0.3560 0.3567 0.3574 0.3580 0.3587
3303.000000 0.3594 0.3601 0.3608 0.3614 0.3621
3308.000000 0.3628 0.3634 0.3640 0.3647 0.3653
3313.000000 0.3659 0.3665 0.3671 0.3677 0.3683
3318.000000 0.3689 0.3695 0.3701 0.3706 0.3711
3323.000000 0.3716 0.3720 0.3724 0.3726 0.3728
3328.000000 0.3730 0.3732 0.3734 0.3736 0.3738
3333.000000 0.3741 0.3743 0.3745 0.3747 0.3749
3338.000000 0.3751 0.3751 0.3751 0.3751 0.3751
3343.000000 0.3769 0.3752 0.3753 0.3753 0.3754
3348.000000 0.3754 0.3755 0.3755 0.3755 0.3756
3353.000000 0.3756 0.3756 0.3756 0.3756 0.3756
3358.000000 0.3755 0.3755 0.3755 0.3753 0.3752
3363.000000 0.3751 0.3749 0.3748 0.3747 0.3746
3368.000000 0.3744 0.3743 0.3741 0.3740 0.3738
3373.000000 0.3737 0.3735 0.3734 0.3732 0.3731
3378.000000 0.3729 0.3727 0.3726 0.3724 0.3722
3383.000000 0.3720 0.3719 0.3717 0.3715 0.3713
3388.000000 0.3712 0.3710 0.3709 0.3707 0.3706
3393.000000 0.3705 0.3703 0.3702 0.3701 0.3700
3398.000000 0.3699 0.3698 0.3697 0.3696 0.3696
3403.000000 0.3696 0.3696 0.3696 0.3696 0.3696
3408.000000 0.3696 0.3697 0.3697 0.3698 0.3698
3413.000000 0.3699 0.3699 0.3699 0.3693 0.3701
3418.000000 0.3701 0.3702 0.3703 0.3703 0.3703
3423.000000 0.3704 0.3704 0.3705 0.3705 0.3706
3428.000000 0.3707 0.3707 0.3708 0.3710 0.3711
3433.000000 0.3712 0.3713 0.3715 0.3716 0.3717
3438.000000 0.3718 0.3720 0.3721 0.3722 0.3723
3443.000000 0.3724 0.3725 0.3727 0.3729 0.3730
3448.000000 0.3732 0.3735 0.3738 0.3741 0.3744
3453.000000 0.3747 0.3751 0.3754 0.3757 0.3761
3458.000000 0.3765 0.3770 0.3776 0.3782 0.3788
3463.000000 0.3795 0.3804 0.3812 0.3821 0.3830
3468.000000 0.3839 0.3848 0.3857 0.3866 0.3875
3473.000000 0.3881 0.3886 0.3891 0.3896 0.3901
3478.000000 0.3906 0.3910 0.3914 0.3919 0.3923
3483.000000 0.3924 0.3926 0.3927 0.3928 0.3930
3488.000000 0.3931 0.3932 0.3934 0.3935 0.3936
3493.000000 0.3937 0.3939 0.3940 0.3942 0.3943
3498.000000 0.3945 0.3946 0.3947 0.3949 0.3950
3503.000000 0.3951 0.3953 0.3954 0.3955 0.3957
3508.000000 0.3958 0.3960 0.3961 0.3963 0.3965
3513.000000 0.3966 0.3968 0.3970 0.3971 0.3973
3518.000000 0.3974 0.3976 0.3978 0.3979 0.3981
3523.000000 0.3983 0.3985 0.3987 0.3988 0.3993
3528.000000 0.3998 0.4003 0.4007 0.4012 0.4018
3533.000000 0.4024 0.4029 0.4035 0.4041 0.4056
3538.000000 0.4072 0.4088 0.4104 0.4119 0.4128
3543.000000 0.4135 0.4143 0.4151 0.4159 0.4166
3548.000000 0.4172 0.4179 0.4186 0.4193 0.4198
3553.000000 0.4204 0.4210 0.4216 0.4221 0.4224
3558.000000 0.4227 0.4229 0.4232 0.4234 0.4236
3563.000000 0.4239 0.4241 0.4243 0.4246 0.4248
3568.000000 0.4250 0.4253 0.4255 0.4257 0.4260
3573.000000 0.4262 0.4265 0.4267 0.4269 0.4271
3578.000000 0.4273 0.4275 0.4277 0.4279 0.4281
3583.000000 0.4282 0.4282 0.4283 0.4284 0.4285
3588.000000 0.4285 0.4286 0.4287 0.4288 0.4289
3593.000000 0.4289 0.4290 0.4291 0.4292 0.4292
3598.000000 0.4293 0.4294 0.4295 0.4295 0.4296
3603.000000 0.4297 0.4298 0.4299 0.4299 0.4300
3608.000000 0.4301 0.4302 0.4302 0.4303 0.4304
3613.000000 0.4305 0.4305 0.4306 0.4306 0.4307
3618.000000 0.4308 0.4308 0.4308 0.4308 0.4308
3623.000000 0.4308 0.4309 0.4309 0.4310 0.4310
3628.000000 0.4310 0.4311 0.4311 0.4311 0.4311
3633.000000 0.4311 0.4312 0.4312 0.4312 0.4312
3638.000000 0.4312 0.4312 0.4313 0.4313 0.4314
3643.000000 0.4314 0.4314 0.4324 0.4315 0.4315
3648.000000 0.4315 0.4315 0.4316 0.4316 0.4316
3653.000000 0.4316 0.4316 0.4316 0.4316 0.4316
3658.000000 0.4316 0.4316 0.4316 0.4315 0.4314
3663.000000 0.4314 0.4313 0.4312 0.4311 0.4311
3668.000000 0.4310 0.4309 0.4308 0.4308 0.4307
3673.000000 0.4306 0.4305 0.4305 0.4304 0.4303
3678.000000 0.4302 0.4302 0.4301 0.4300 0.4299
3683.000000 0.4297 0.4295 0.4293 0.4291 0.4289
3688.000000 0.4287 0.4284 0.4282 0.4280 0.4277
3693.000000 0.4275 0.4272 0.4269 0.4266 0.4263
3698.000000 0.4260 0.4257 0.4253 0.4249 0.4246
3703.000000 0.4242 0.4238 0.4235 0.4231 0.4227
3708.000000 0.4223 0.4219 0.4215 0.4210 0.4206
3713.000000 0.4201 0.4197 0.4192 0.4186 0.4179
3718.000000 0.4173 0.4167 0.4161 0.4155 0.4149
3723.000000 0.4143 0.4136 0.4130 0.4124 0.4118
3728.000000 0.4112 0.4106 0.4100 0.4094 0.4086
3733.000000 0.4079 0.4071 0.4063 0.4056 0.4048
3738.000000 0.4038 0.4027 0.4017 0.4007 0.3997
3743.000000 0.3987 0.3978 0.3968 0.3959 0.3950
3748.000000 0.3941 0.3933 0.3926 0.3919 0.3911
3753.000000 0.3904 0.3897 0.3893 0.3888 0.3884
3758.000000 0.3879 0.3874 0.3872 0.3871 0.3870
3763.000000 0.3869 0.3868 0.3868 0.3867 0.3866
3768.000000 0.3865 0.3864 0.3863 0.3862 0.3861
3773.000000 0.3861 0.3860 0.3859 0.3858 0.3857
3778.000000 0.3856 0.3855 0.3854 0.3854 0.3853
3783.000000 0.3852 0.3851 0.3850 0.3849 0.3848
3788.000000 0.3847 0.3846 0.3845 0.3844 0.3843
3793.000000 0.3842 0.3841 0.3840 0.3839 0.3837
3798.000000 0.3836 0.3835 0.3834 0.3833 0.3832
3803.000000 0.3831 0.3830 0.3829 0.3826 0.3824
3808.000000 0.3821 0.3819 0.3816 0.3813 0.3809
3813.000000 0.3805 0.3801 0.3797 0.3793 0.3789
3818.000000 0.3785 0.3780 0.3776 0.3772 0.3768
3823.000000 0.3764 0.3759 0.3755 0.3751 0.3746
3828.000000 0.3742 0.3737 0.3732 0.3727 0.3722
3833.000000 0.3717 0.3712 0.3707 0.3702 0.3697
3838.000000 0.3692 0.3687 0.3682 0.3677 0.3672
3843.000000 0.3667 0.3662 0.3657 0.3652 0.3647
3848.000000 0.3642 0.3638 0.3633 0.3628 0.3623
3853.000000 0.3618 0.3614 0.3610 0.3605 0.3601
3858.000000 0.3597 0.3593 0.3589 0.3586 0.3582
3863.000000 0.3578 0.3574 0.3571 0.3567 0.3563
3868.000000 0.3560 0.3556 0.3552 0.3549 0.3545
3873.000000 0.3541 0.3537 0.3533 0.3529 0.3526
3878.000000 0.3522 0.3518 0.3515 0.3511 0.3507
3883.000000 0.3504 0.3500 0.3496 0.3492 0.3488
3888.000000 0.3485 0.3481 0.3477 0.3474 0.3470
3893.000000 0.3466 0.3463 0.3459 0.3456 0.3452
3898.000000 0.3448 0.3445 0.3441 0.3437 0.3434
3903.000000 0.3430 0.3427 0.3423 0.3419 0.3417
3908.000000 0.3414 0.3411 0.3409 0.3406 0.3403
3913.000000 0.3401 0.3398 0.3396 0.3393 0.3390
3918.000000 0.3388 0.3385 0.3383 0.3380 0.3378
3923.000000 0.3376 0.3373 0.3371 0.3368 0.3365
3928.000000 0.3363 0.3360 0.3358 0.3355 0.3352
3933.000000 0.3350 0.3347 0.3345 0.3342 0.3340
3938.000000 0.3337 0.3335 0.3332 0.3330 0.3327
3943.000000 0.3325 0.3322 0.3319 0.3316 0.3314
3948.000000 0.3311 0.3308 0.3305 0.3302 0.3299
3953.000000 0.3296 0.3293 0.3291 0.3288 0.3285
3958.000000 0.3282 0.3280 0.3277 0.3274 0.3271
3963.000000 0.3269 0.3266 0.3263 0.3260 0.3257
3968.000000 0.3254 0.3251 0.3249 0.3246 0.3243
3973.000000 0.3241 0.3238 0.3235 0.3232 0.3230
3978.000000 0.3227 0.3224 0.3221 0.3218 0.3215
3983.000000 0.3213 0.3210 0.3207 0.3204 0.3201
3988.000000 0.3198 0.3196 0.3193 0.3190 0.3188
3993.000000 0.3185 0.3183 0.3181 0.3179 0.3177
3998.000000 0.3175 0.3173 0.3172
##END=
