##TITLE=2-NORBORNANAMINE, N-BENZYL-
##JCAMP-DX=4.24
##DATA TYPE=INFRARED SPECTRUM
##CLASS=COBLENTZ III
##ORIGIN=DOW CHEMICAL COMPANY
##OWNER=COBLENTZ SOC.
Collection (C) 2018 copyright by the U.S. Secretary of Commerce
on behalf of the United States of America. All rights reserved.
##DATE=1965/06/24
##NAMES=N-benzyl-N-bicyclo[2.2.1]hept-2-ylamine
N-benzylbicyclo[2.2.1]heptan-2-amine
##MOLFORM=C14 H19 N
##BP=105 C AT 0.2 mmHg
##SOURCE REFERENCE=COBLENTZ NO. 06758
##$NIST ID=B6006758
##$NIST SOURCE=COBLENTZ
##$NIST IMAGE=cob6758
##SPECTROMETER/DATA SYSTEM=DOW KBr FOREPRISM-GRATING
##INSTRUMENT PARAMETERS=BLAZED AT 3.5, 12.0, 20.0 MICRON AND CHANGED AT 5.0, 7.5, 14.9 MICRON
##STATE=SOLUTION (10% CCl4 FOR 3800-1330, 10% CS2 FOR 1330-460 CM^-^1)
##PATH LENGTH=0.012 CM, 0.011 CM
$$SPECTRAL CONTAMINATION DUE TO CCl4 AROUND 1550, AND AN UNKNOWN AROUND 2300-2400 CM^-^1
$$ SPECTRAL FEATURES AT 1996 AND 1328 CM^-^1 ARE ARTIFACTS CAUSED BY GRATING CHANGE
##SAMPLING PROCEDURE=TRANSMISSION
##RESOLUTION=2
##DATA PROCESSING=DIGITIZED BY COBLENTZ SOCIETY (BATCH I) FROM HARD COPY
##XUNITS=1/CM
##YUNITS=TRANSMITTANCE
##XLABEL=Wavenumbers (cm-1)
##YLABEL=% Transmission
##XFACTOR=1
##YFACTOR=1
##DELTAX=1
##FIRSTX=430
##LASTX=3800
##FIRSTY=0.7938
##MAXX=3800
##MINX=430
##MAXY=1.0345
##MINY=0.0112
##NPOINTS=3371
##XYDATA=(X++(Y..Y))
430.000000 0.7938 0.7937 0.7936 0.7936 0.7935
435.000000 0.7934 0.7933 0.7932 0.7932 0.7932
440.000000 0.7933 0.7934 0.7935 0.7936 0.7937
445.000000 0.7938 0.7939 0.7940 0.7940 0.7940
450.000000 0.7940 0.7940 0.7940 0.7940 0.7940
455.000000 0.7940 0.7940 0.7940 0.7945 0.7949
460.000000 0.7954 0.7958 0.7961 0.7965 0.7965
465.000000 0.7965 0.7965 0.7965 0.7965 0.7965
470.000000 0.7965 0.7968 0.7972 0.7976 0.7980
475.000000 0.7985 0.7992 0.7998 0.8004 0.8006
480.000000 0.8001 0.7995 0.7978 0.7949 0.7914
485.000000 0.7874 0.7835 0.7807 0.7780 0.7769
490.000000 0.7761 0.7758 0.7768 0.7778 0.7788
495.000000 0.7810 0.7835 0.7858 0.7884 0.7908
500.000000 0.7932 0.7954 0.7976 0.7995 0.8010
505.000000 0.8024 0.8036 0.8046 0.8055 0.8064
510.000000 0.8067 0.8068 0.8071 0.8074 0.8075
515.000000 0.8081 0.8094 0.8139 0.8200 0.8251
520.000000 0.8284 0.8315 0.8337 0.8342 0.8342
525.000000 0.8328 0.8315 0.8292 0.8271 0.8252
530.000000 0.8251 0.8251 0.8251 0.8251 0.8198
535.000000 0.8162 0.8147 0.8140 0.8150 0.8201
540.000000 0.8257 0.8318 0.8392 0.8438 0.8464
545.000000 0.8464 0.8464 0.8443 0.8398 0.8340
550.000000 0.8287 0.8281 0.8297 0.8347 0.8402
555.000000 0.8466 0.8541 0.8603 0.8637 0.8667
560.000000 0.8691 0.8710 0.8696 0.8716 0.8710
565.000000 0.8702 0.8694 0.8686 0.8670 0.8655
570.000000 0.8638 0.8620 0.8603 0.8586 0.8570
575.000000 0.8551 0.8525 0.8500 0.8475 0.8455
580.000000 0.8434 0.8414 0.8393 0.8371 0.8349
585.000000 0.8325 0.8304 0.8280 0.8255 0.8230
590.000000 0.8205 0.8175 0.8144 0.8112 0.8082
595.000000 0.8051 0.8019 0.7989 0.7956 0.7922
600.000000 0.7889 0.7856 0.7831 0.7807 0.7782
605.000000 0.7757 0.7739 0.7714 0.7641 0.7578
610.000000 0.7544 0.7531 0.7532 0.7543 0.7807
615.000000 0.8071 0.8306 0.8388 0.8486 0.8552
620.000000 0.8599 0.8644 0.8670 0.8695 0.8697
625.000000 0.8699 0.8695 0.8704 0.8665 0.8628
630.000000 0.8547 0.8466 0.8378 0.8275 0.8193
635.000000 0.8112 0.8032 0.7957 0.7890 0.7822
640.000000 0.7792 0.7762 0.7746 0.7730 0.7712
645.000000 0.7661 0.7588 0.7475 0.7394 0.7269
650.000000 0.7211 0.7205 0.7191 0.7211 0.7243
655.000000 0.7287 0.7354 0.7424 0.7532 0.7619
660.000000 0.7684 0.7715 0.7715 0.7712 0.7701
665.000000 0.7693 0.7675 0.7658 0.7635 0.7607
670.000000 0.7567 0.7521 0.7476 0.7436 0.7396
675.000000 0.7356 0.7310 0.7261 0.7212 0.7165
680.000000 0.7100 0.7032 0.6946 0.6851 0.6736
685.000000 0.6607 0.6480 0.6373 0.5773 0.5535
690.000000 0.5268 0.4701 0.4131 0.3560 0.2990
695.000000 0.2420 0.1850 0.1280 0.0928 0.0895
700.000000 0.1271 0.1692 0.2114 0.2535 0.2958
705.000000 0.3379 0.3800 0.4223 0.4645 0.4939
710.000000 0.5040 0.5082 0.5098 0.5091 0.5084
715.000000 0.5049 0.5002 0.4938 0.4851 0.4644
720.000000 0.4412 0.4179 0.4050 0.3909 0.3784
725.000000 0.3591 0.3432 0.3316 0.3202 0.3098
730.000000 0.2917 0.2878 0.2862 0.2865 0.2858
735.000000 0.2927 0.2978 0.3033 0.3089 0.3204
740.000000 0.3427 0.3650 0.3689 0.3682 0.3658
745.000000 0.3614 0.3580 0.3566 0.3570 0.3918
750.000000 0.4278 0.4637 0.4967 0.5203 0.5501
755.000000 0.5837 0.5990 0.6130 0.6317 0.6415
760.000000 0.6514 0.6611 0.6711 0.6808 0.6908
765.000000 0.7006 0.7105 0.7203 0.7301 0.7400
770.000000 0.7498 0.7597 0.7695 0.7794 0.7892
775.000000 0.7990 0.8089 0.8187 0.8286 0.8399
780.000000 0.8497 0.8584 0.8641 0.8656 0.8661
785.000000 0.8675 0.8642 0.8624 0.8605 0.8565
790.000000 0.8521 0.8460 0.8375 0.8255 0.8185
795.000000 0.8154 0.8122 0.8098 0.8075 0.8025
800.000000 0.7933 0.7767 0.7649 0.7610 0.7635
805.000000 0.7651 0.7675 0.7703 0.7732 0.7765
810.000000 0.7811 0.7971 0.8133 0.8293 0.8413
815.000000 0.8411 0.8406 0.8459 0.8344 0.8293
820.000000 0.8217 0.8140 0.8061 0.7965 0.7867
825.000000 0.7764 0.7657 0.7580 0.7503 0.7411
830.000000 0.7330 0.7293 0.7261 0.7422 0.7625
835.000000 0.7828 0.7967 0.7989 0.7997 0.7958
840.000000 0.7921 0.7883 0.7828 0.7782 0.7734
845.000000 0.7686 0.7640 0.7595 0.7531 0.7458
850.000000 0.7414 0.7381 0.7380 0.7378 0.7357
855.000000 0.7399 0.7415 0.7433 0.7456 0.7478
860.000000 0.7506 0.7538 0.7569 0.7604 0.7644
865.000000 0.7684 0.7722 0.7756 0.7785 0.7815
870.000000 0.7845 0.7874 0.7901 0.7930 0.7956
875.000000 0.7980 0.7996 0.7975 0.7944 0.7912
880.000000 0.7882 0.7862 0.7855 0.7851 0.7860
885.000000 0.7875 0.7915 0.8243 0.8375 0.8489
890.000000 0.8615 0.8723 0.8756 0.8746 0.8778
895.000000 0.8699 0.8649 0.8600 0.8538 0.8471
900.000000 0.8400 0.8284 0.8211 0.8207 0.8206
905.000000 0.8206 0.8212 0.8230 0.8309 0.8391
910.000000 0.8462 0.8540 0.8577 0.8618 0.8545
915.000000 0.8471 0.8383 0.8335 0.8360 0.8381
920.000000 0.8389 0.8359 0.8301 0.8209 0.8164
925.000000 0.8138 0.8100 0.7968 0.7881 0.7736
930.000000 0.7649 0.7630 0.7614 0.7639 0.7704
935.000000 0.7838 0.7971 0.8105 0.8100 0.8126
940.000000 0.7772 0.7428 0.7087 0.6961 0.6851
945.000000 0.6742 0.6592 0.6376 0.6212 0.6212
950.000000 0.6162 0.6599 0.6799 0.7000 0.7200
955.000000 0.7260 0.7253 0.7225 0.7008 0.6738
960.000000 0.6468 0.6244 0.6207 0.6193 0.6269
965.000000 0.6496 0.6721 0.6954 0.6982 0.6992
970.000000 0.6954 0.6869 0.6784 0.6698 0.6647
975.000000 0.6618 0.6605 0.6634 0.6693 0.6791
980.000000 0.6822 0.6817 0.6803 0.6772 0.6722
985.000000 0.6611 0.6554 0.6525 0.6524 0.6501
990.000000 0.6528 0.6657 0.6795 0.6932 0.7069
995.000000 0.7207 0.7345 0.7483 0.7619 0.7803
1000.000000 0.7917 0.8005 0.8082 0.8146 0.8202
1005.000000 0.8255 0.8307 0.8359 0.8378 0.8371
1010.000000 0.8384 0.8295 0.8217 0.8122 0.7950
1015.000000 0.7810 0.7806 0.7793 0.7868 0.7928
1020.000000 0.7990 0.8025 0.8000 0.8008 0.7889
1025.000000 0.7669 0.6915 0.6127 0.5338 0.4815
1030.000000 0.5512 0.4775 0.6906 0.7603 0.8108
1035.000000 0.8235 0.8278 0.8294 0.8304 0.8306
1040.000000 0.8316 0.8301 0.8291 0.8275 0.8248
1045.000000 0.8218 0.8188 0.8157 0.8106 0.8044
1050.000000 0.7998 0.7957 0.7915 0.7864 0.7795
1055.000000 0.7687 0.7578 0.7565 0.7557 0.7560
1060.000000 0.7560 0.7443 0.7249 0.6887 0.6848
1065.000000 0.6869 0.7190 0.7235 0.7211 0.7200
1070.000000 0.7197 0.7212 0.7237 0.7257 0.7294
1075.000000 0.7333 0.7386 0.7464 0.7571 0.7671
1080.000000 0.7775 0.7885 0.7922 0.7924 0.7924
1085.000000 0.7915 0.7880 0.7843 0.7783 0.7664
1090.000000 0.7532 0.7399 0.7267 0.6905 0.6806
1095.000000 0.6718 0.6640 0.6610 0.6592 0.6578
1100.000000 0.6569 0.6572 0.6584 0.6603 0.6654
1105.000000 0.6751 0.6825 0.6836 0.6830 0.6826
1110.000000 0.6465 0.6250 0.6034 0.5850 0.5810
1115.000000 0.5859 0.6292 0.6608 0.6641 0.6653
1120.000000 0.6651 0.6658 0.6628 0.6525 0.6231
1125.000000 0.5937 0.5643 0.5350 0.5056 0.4834
1130.000000 0.4831 0.4830 0.5604 0.6069 0.6533
1135.000000 0.6997 0.7538 0.7743 0.7861 0.7957
1140.000000 0.8030 0.8076 0.8101 0.8140 0.8094
1145.000000 0.8033 0.7935 0.7841 0.7646 0.7451
1150.000000 0.7255 0.7060 0.6865 0.6669 0.6515
1155.000000 0.6376 0.6260 0.5641 0.5254 0.5068
1160.000000 0.4858 0.4629 0.4312 0.4109 0.3988
1165.000000 0.3924 0.3880 0.3872 0.3872 0.3872
1170.000000 0.4112 0.4505 0.4649 0.4792 0.5012
1175.000000 0.5150 0.5293 0.5458 0.5610 0.6285
1180.000000 0.6547 0.6991 0.7039 0.7055 0.7058
1185.000000 0.7049 0.7084 0.6958 0.6842 0.6732
1190.000000 0.6651 0.6617 0.6758 0.6810 0.6846
1195.000000 0.6862 0.6872 0.6890 0.6853 0.6822
1200.000000 0.6332 0.5691 0.5610 0.5569 0.5549
1205.000000 0.5497 0.5583 0.5878 0.6174 0.6468
1210.000000 0.6765 0.7061 0.7251 0.7399 0.7505
1215.000000 0.7571 0.7612 0.7636 0.7643 0.7644
1220.000000 0.7657 0.7611 0.7576 0.7514 0.7454
1225.000000 0.7385 0.7306 0.7199 0.7021 0.6515
1230.000000 0.6421 0.6411 0.6412 0.6696 0.6728
1235.000000 0.6736 0.6740 0.6744 0.6756 0.6787
1240.000000 0.6900 0.6961 0.6976 0.6982 0.6996
1245.000000 0.6976 0.6948 0.6832 0.6669 0.6214
1250.000000 0.5735 0.5472 0.5462 0.5469 0.5645
1255.000000 0.5920 0.6195 0.6371 0.6397 0.6414
1260.000000 0.6390 0.6257 0.6112 0.6081 0.6080
1265.000000 0.6089 0.6075 0.6223 0.6391 0.6489
1270.000000 0.6545 0.6595 0.6631 0.6665 0.6718
1275.000000 0.7025 0.7165 0.7347 0.7433 0.7492
1280.000000 0.7544 0.7560 0.7561 0.7532 0.7545
1285.000000 0.7504 0.7440 0.7375 0.7303 0.7225
1290.000000 0.7068 0.6978 0.6901 0.6825 0.6747
1295.000000 0.6628 0.6514 0.6414 0.6310 0.6198
1300.000000 0.6064 0.5901 0.5717 0.5516 0.5354
1305.000000 0.5304 0.5304 0.5243 0.5389 0.5698
1310.000000 0.6008 0.6136 0.6136 0.6106 0.6064
1315.000000 0.6045 0.6046 0.6137 0.6310 0.6483
1320.000000 0.6628 0.6635 0.6641 0.6594 0.6537
1325.000000 0.6482 0.6403 0.6312 0.6223 0.6668
1330.000000 0.7314 0.7733 0.7601 0.7528 0.7457
1335.000000 0.7372 0.7285 0.7162 0.7017 0.6881
1340.000000 0.6531 0.6137 0.5744 0.5351 0.4989
1345.000000 0.4873 0.4738 0.4710 0.4710 0.4710
1350.000000 0.4887 0.5362 0.5838 0.6314 0.6789
1355.000000 0.7132 0.7232 0.7348 0.7407 0.7441
1360.000000 0.7453 0.7465 0.7475 0.7475 0.7475
1365.000000 0.7471 0.7471 0.7478 0.7491 0.7608
1370.000000 0.7725 0.7844 0.7961 0.8078 0.8196
1375.000000 0.8314 0.8431 0.8549 0.8666 0.8783
1380.000000 0.8901 0.9018 0.9136 0.9253 0.9371
1385.000000 0.9466 0.9502 0.9560 0.9594 0.9615
1390.000000 0.9635 0.9650 0.9666 0.9674 0.9681
1395.000000 0.9687 0.9695 0.9703 0.9704 0.9706
1400.000000 0.9707 0.9707 0.9707 0.9707 0.9706
1405.000000 0.9701 0.9691 0.9680 0.9665 0.9648
1410.000000 0.9631 0.9615 0.9591 0.9549 0.9508
1415.000000 0.9468 0.9428 0.9387 0.9347 0.9307
1420.000000 0.9264 0.9218 0.9175 0.9130 0.9083
1425.000000 0.9030 0.8977 0.8921 0.8853 0.8768
1430.000000 0.8682 0.8564 0.8441 0.8224 0.7808
1435.000000 0.7267 0.6725 0.6185 0.5555 0.5280
1440.000000 0.5014 0.4562 0.4323 0.4176 0.4046
1445.000000 0.3939 0.3866 0.3779 0.3589 0.3309
1450.000000 0.2904 0.2380 0.2161 0.2107 0.2108
1455.000000 0.2141 0.2333 0.2684 0.3037 0.3389
1460.000000 0.3740 0.4092 0.4444 0.4785 0.5135
1465.000000 0.5401 0.5646 0.5805 0.5979 0.6107
1470.000000 0.6397 0.6686 0.6993 0.7031 0.7051
1475.000000 0.7083 0.7211 0.7358 0.7585 0.7751
1480.000000 0.7933 0.7999 0.8018 0.8026 0.8025
1485.000000 0.8025 0.8028 0.8017 0.7857 0.7476
1490.000000 0.7097 0.6715 0.6336 0.5956 0.5576
1495.000000 0.5195 0.4815 0.4435 0.4055 0.3890
1500.000000 0.3884 0.4885 0.5895 0.6905 0.7733
1505.000000 0.7893 0.7915 0.7906 0.7906 0.7897
1510.000000 0.7880 0.7858 0.7825 0.7776 0.7725
1515.000000 0.7684 0.7628 0.7571 0.7514 0.7458
1520.000000 0.7417 0.7375 0.7333 0.7288 0.7240
1525.000000 0.7193 0.7145 0.7097 0.7049 0.7001
1530.000000 0.6951 0.6901 0.6792 0.6640 0.6501
1535.000000 0.6364 0.6227 0.6089 0.5952 0.5814
1540.000000 0.5676 0.5594 0.5500 0.5397 0.5297
1545.000000 0.5235 0.5174 0.5120 0.5086 0.5083
1550.000000 0.5084 0.5084 0.5098 0.5110 0.5133
1555.000000 0.5207 0.5277 0.5379 0.5462 0.5541
1560.000000 0.5637 0.5734 0.5826 0.5915 0.6005
1565.000000 0.6095 0.6185 0.6275 0.6365 0.6455
1570.000000 0.6534 0.6617 0.6690 0.6701 0.6700
1575.000000 0.6683 0.6654 0.6621 0.6584 0.6540
1580.000000 0.6504 0.6484 0.6475 0.6474 0.6471
1585.000000 0.6478 0.6518 0.6667 0.6806 0.6946
1590.000000 0.7085 0.7224 0.7362 0.7491 0.7568
1595.000000 0.7614 0.7648 0.7667 0.7660 0.7635
1600.000000 0.7558 0.7492 0.7434 0.7406 0.7395
1605.000000 0.7401 0.7531 0.8039 0.8508 0.8635
1610.000000 0.8747 0.8860 0.9064 0.9175 0.9263
1615.000000 0.9335 0.9403 0.9463 0.9512 0.9561
1620.000000 0.9609 0.9634 0.9658 0.9682 0.9703
1625.000000 0.9721 0.9739 0.9756 0.9768 0.9778
1630.000000 0.9790 0.9797 0.9801 0.9804 0.9797
1635.000000 0.9812 0.9780 0.9768 0.9752 0.9737
1640.000000 0.9721 0.9694 0.9666 0.9651 0.9637
1645.000000 0.9623 0.9623 0.9633 0.9645 0.9661
1650.000000 0.9677 0.9696 0.9717 0.9735 0.9752
1655.000000 0.9764 0.9771 0.9768 0.9765 0.9755
1660.000000 0.9744 0.9740 0.9761 0.9786 0.9809
1665.000000 0.9828 0.9845 0.9849 0.9868 0.9856
1670.000000 0.9856 0.9856 0.9846 0.9836 0.9825
1675.000000 0.9808 0.9791 0.9771 0.9748 0.9725
1680.000000 0.9706 0.9688 0.9671 0.9653 0.9641
1685.000000 0.9634 0.9633 0.9633 0.9642 0.9657
1690.000000 0.9671 0.9694 0.9717 0.9741 0.9773
1695.000000 0.9804 0.9836 0.9868 0.9897 0.9924
1700.000000 0.9941 0.9957 0.9963 0.9968 0.9974
1705.000000 0.9978 0.9982 0.9985 0.9987 0.9990
1710.000000 0.9990 0.9991 0.9991 0.9991 0.9986
1715.000000 0.9981 0.9975 0.9970 0.9962 0.9951
1720.000000 0.9940 0.9928 0.9918 0.9902 0.9885
1725.000000 0.9868 0.9852 0.9837 0.9821 0.9808
1730.000000 0.9793 0.9778 0.9762 0.9747 0.9731
1735.000000 0.9716 0.9703 0.9691 0.9678 0.9667
1740.000000 0.9655 0.9644 0.9638 0.9632 0.9625
1745.000000 0.9620 0.9618 0.9604 0.9630 0.9645
1750.000000 0.9660 0.9674 0.9689 0.9713 0.9738
1755.000000 0.9765 0.9797 0.9828 0.9870 0.9918
1760.000000 0.9957 0.9988 0.9995 1.0003 1.0011
1765.000000 1.0012 1.0013 1.0014 1.0014 1.0014
1770.000000 1.0012 1.0011 1.0010 1.0032 1.0007
1775.000000 1.0007 1.0007 1.0007 1.0007 1.0007
1780.000000 1.0007 1.0008 1.0008 1.0007 1.0003
1785.000000 0.9999 0.9995 0.9991 0.9986 0.9970
1790.000000 0.9950 0.9918 0.9881 0.9839 0.9797
1795.000000 0.9770 0.9743 0.9716 0.9689 0.9662
1800.000000 0.9634 0.9605 0.9575 0.9557 0.9559
1805.000000 0.9538 0.9574 0.9589 0.9618 0.9647
1810.000000 0.9677 0.9701 0.9725 0.9755 0.9771
1815.000000 0.9786 0.9785 0.9783 0.9782 0.9780
1820.000000 0.9787 0.9810 0.9834 0.9852 0.9868
1825.000000 0.9885 0.9901 0.9911 0.9920 0.9930
1830.000000 0.9936 0.9942 0.9948 0.9951 0.9953
1835.000000 0.9955 0.9957 0.9959 1.0003 0.9961
1840.000000 0.9961 0.9959 0.9958 0.9956 0.9955
1845.000000 0.9952 0.9946 0.9940 0.9934 0.9927
1850.000000 0.9921 0.9915 0.9905 0.9892 0.9880
1855.000000 0.9867 0.9854 0.9842 0.9828 0.9811
1860.000000 0.9791 0.9771 0.9752 0.9732 0.9712
1865.000000 0.9693 0.9665 0.9636 0.9607 0.9575
1870.000000 0.9575 0.9575 0.9574 0.9597 0.9632
1875.000000 0.9673 0.9711 0.9750 0.9785 0.9796
1880.000000 0.9802 0.9800 0.9797 0.9789 0.9782
1885.000000 0.9775 0.9775 0.9775 0.9789 0.9805
1890.000000 0.9833 0.9864 0.9925 0.9965 0.9982
1895.000000 0.9993 0.9997 1.0001 1.0004 1.0007
1900.000000 1.0011 1.0013 1.0016 1.0018 1.0021
1905.000000 1.0021 1.0021 1.0021 1.0020 1.0018
1910.000000 1.0018 1.0017 1.0016 1.0014 1.0013
1915.000000 1.0012 1.0011 1.0010 1.0009 1.0007
1920.000000 1.0004 1.0000 0.9997 0.9993 0.9987
1925.000000 0.9975 0.9966 0.9956 0.9946 0.9924
1930.000000 0.9901 0.9871 0.9843 0.9814 0.9775
1935.000000 0.9721 0.9671 0.9624 0.9575 0.9527
1940.000000 0.9478 0.9448 0.9451 0.9405 0.9473
1945.000000 0.9503 0.9546 0.9589 0.9638 0.9696
1950.000000 0.9725 0.9744 0.9753 0.9759 0.9762
1955.000000 0.9762 0.9760 0.9755 0.9751 0.9744
1960.000000 0.9737 0.9749 0.9801 0.9853 0.9906
1965.000000 0.9958 0.9988 1.0003 1.0007 1.0011
1970.000000 1.0015 1.0015 1.0016 1.0017 1.0018
1975.000000 1.0018 1.0017 1.0015 1.0013 1.0010
1980.000000 1.0008 1.0005 1.0003 1.0001 0.9999
1985.000000 0.9996 0.9989 0.9978 0.9967 0.9957
1990.000000 0.9933 0.9890 0.9839 0.9789 0.9711
1995.000000 0.9677 0.9673 1.0080 1.0097 1.0100
2000.000000 1.0099 1.0097 1.0096 1.0096 1.0096
2005.000000 1.0096 1.0096 1.0096 1.0097 1.0098
2010.000000 1.0100 1.0102 1.0105 1.0107 1.0110
2015.000000 1.0112 1.0115 1.0118 1.0121 1.0125
2020.000000 1.0130 1.0134 1.0138 1.0141 1.0145
2025.000000 1.0148 1.0152 1.0155 1.0159 1.0161
2030.000000 1.0164 1.0166 1.0168 1.0171 1.0173
2035.000000 1.0173 1.0173 1.0173 1.0171 1.0170
2040.000000 1.0168 1.0167 1.0165 1.0161 1.0158
2045.000000 1.0154 1.0150 1.0146 1.0143 1.0140
2050.000000 1.0138 1.0137 1.0136 1.0135 1.0134
2055.000000 1.0133 1.0132 1.0131 1.0130 1.0130
2060.000000 1.0130 1.0128 1.0128 1.0128 1.0128
2065.000000 1.0128 1.0128 1.0127 1.0127 1.0127
2070.000000 1.0128 1.0128 1.0130 1.0131 1.0132
2075.000000 1.0133 1.0134 1.0135 1.0136 1.0137
2080.000000 1.0139 1.0140 1.0141 1.0142 1.0144
2085.000000 1.0145 1.0147 1.0148 1.0150 1.0151
2090.000000 1.0153 1.0155 1.0157 1.0158 1.0159
2095.000000 1.0160 1.0161 1.0162 1.0163 1.0164
2100.000000 1.0165 1.0166 1.0168 1.0168 1.0170
2105.000000 1.0171 1.0171 1.0173 1.0174 1.0174
2110.000000 1.0175 1.0175 1.0177 1.0177 1.0178
2115.000000 1.0178 1.0178 1.0180 1.0181 1.0181
2120.000000 1.0182 1.0182 1.0182 1.0181 1.0181
2125.000000 1.0181 1.0181 1.0180 1.0180 1.0180
2130.000000 1.0180 1.0180 1.0180 1.0178 1.0178
2135.000000 1.0178 1.0178 1.0178 1.0178 1.0177
2140.000000 1.0177 1.0175 1.0175 1.0175 1.0175
2145.000000 1.0174 1.0174 1.0173 1.0173 1.0171
2150.000000 1.0171 1.0171 1.0171 1.0170 1.0168
2155.000000 1.0168 1.0167 1.0166 1.0165 1.0164
2160.000000 1.0163 1.0162 1.0161 1.0160 1.0159
2165.000000 1.0157 1.0156 1.0154 1.0153 1.0151
2170.000000 1.0149 1.0147 1.0146 1.0144 1.0142
2175.000000 1.0140 1.0139 1.0138 1.0137 1.0136
2180.000000 1.0136 1.0135 1.0135 1.0134 1.0134
2185.000000 1.0133 1.0133 1.0132 1.0132 1.0131
2190.000000 1.0131 1.0131 1.0131 1.0131 1.0131
2195.000000 1.0131 1.0132 1.0132 1.0133 1.0133
2200.000000 1.0134 1.0134 1.0134 1.0134 1.0135
2205.000000 1.0136 1.0137 1.0137 1.0138 1.0139
2210.000000 1.0140 1.0141 1.0142 1.0143 1.0144
2215.000000 1.0144 1.0145 1.0146 1.0147 1.0147
2220.000000 1.0147 1.0147 1.0147 1.0146 1.0146
2225.000000 1.0146 1.0146 1.0145 1.0145 1.0145
2230.000000 1.0145 1.0144 1.0143 1.0140 1.0138
2235.000000 1.0135 1.0133 1.0130 1.0128 1.0125
2240.000000 1.0123 1.0120 1.0117 1.0112 1.0108
2245.000000 1.0103 1.0099 1.0094 1.0089 1.0084
2250.000000 1.0080 1.0075 1.0071 1.0066 1.0062
2255.000000 1.0058 1.0054 1.0050 1.0046 1.0042
2260.000000 1.0038 1.0034 1.0030 1.0027 1.0024
2265.000000 1.0021 1.0018 1.0015 1.0012 1.0009
2270.000000 1.0006 1.0003 1.0000 0.9997 0.9994
2275.000000 0.9991 0.9988 0.9986 0.9985 0.9983
2280.000000 0.9981 0.9978 0.9978 0.9975 0.9974
2285.000000 0.9971 0.9971 0.9968 0.9967 0.9965
2290.000000 0.9965 0.9966 0.9968 0.9968 0.9971
2295.000000 0.9973 0.9975 0.9978 0.9981 0.9985
2300.000000 0.9990 0.9994 0.9999 1.0005 1.0011
2305.000000 1.0018 1.0025 1.0033 1.0041 1.0051
2310.000000 1.0062 1.0071 1.0083 1.0100 1.0118
2315.000000 1.0135 1.0153 1.0170 1.0188 1.0205
2320.000000 1.0221 1.0239 1.0256 1.0271 1.0288
2325.000000 1.0298 1.0308 1.0318 1.0328 1.0333
2330.000000 1.0337 1.0337 1.0338 1.0338 1.0338
2335.000000 1.0337 1.0337 1.0336 1.0336 1.0335
2340.000000 1.0335 1.0334 1.0334 1.0333 1.0333
2345.000000 1.0332 1.0332 1.0331 1.0331 1.0330
2350.000000 1.0330 1.0335 1.0340 1.0345 1.0345
2355.000000 1.0344 1.0339 1.0331 1.0324 1.0315
2360.000000 1.0307 1.0298 1.0290 1.0281 1.0273
2365.000000 1.0264 1.0256 1.0247 1.0239 1.0231
2370.000000 1.0223 1.0211 1.0199 1.0187 1.0175
2375.000000 1.0163 1.0150 1.0134 1.0118 1.0109
2380.000000 1.0099 1.0089 1.0078 1.0070 1.0061
2385.000000 1.0056 1.0051 1.0046 1.0041 1.0036
2390.000000 1.0031 1.0025 1.0021 1.0016 1.0011
2395.000000 1.0007 1.0003 1.0001 0.9999 0.9997
2400.000000 0.9996 0.9994 0.9992 0.9990 0.9988
2405.000000 0.9987 0.9986 0.9985 0.9984 0.9983
2410.000000 0.9982 0.9980 0.9978 0.9978 0.9977
2415.000000 0.9975 0.9975 0.9974 0.9973 0.9971
2420.000000 0.9971 0.9970 0.9968 0.9968 0.9967
2425.000000 0.9965 0.9964 0.9964 0.9965 0.9965
2430.000000 0.9966 0.9966 0.9966 0.9966 0.9967
2435.000000 0.9967 0.9968 0.9968 0.9968 0.9968
2440.000000 0.9970 0.9970 0.9971 0.9971 0.9971
2445.000000 0.9971 0.9973 0.9974 0.9975 0.9978
2450.000000 0.9982 0.9985 0.9988 0.9990 0.9993
2455.000000 0.9996 0.9999 1.0001 1.0004 1.0005
2460.000000 1.0007 1.0008 1.0008 1.0008 1.0008
2465.000000 1.0006 1.0004 1.0002 1.0000 0.9998
2470.000000 0.9996 0.9994 0.9992 0.9990 0.9988
2475.000000 0.9986 0.9984 0.9982 0.9980 0.9978
2480.000000 0.9975 0.9974 0.9971 0.9968 0.9967
2485.000000 0.9964 0.9961 0.9958 0.9956 0.9953
2490.000000 0.9950 0.9947 0.9945 0.9941 0.9938
2495.000000 0.9934 0.9931 0.9927 0.9924 0.9920
2500.000000 0.9917 0.9913 0.9910 0.9907 0.9904
2505.000000 0.9900 0.9896 0.9892 0.9889 0.9885
2510.000000 0.9881 0.9877 0.9874 0.9870 0.9866
2515.000000 0.9862 0.9859 0.9855 0.9851 0.9847
2520.000000 0.9844 0.9840 0.9836 0.9831 0.9827
2525.000000 0.9821 0.9818 0.9813 0.9808 0.9803
2530.000000 0.9799 0.9794 0.9789 0.9784 0.9780
2535.000000 0.9775 0.9770 0.9765 0.9760 0.9754
2540.000000 0.9749 0.9743 0.9737 0.9731 0.9725
2545.000000 0.9720 0.9714 0.9708 0.9703 0.9697
2550.000000 0.9692 0.9686 0.9680 0.9674 0.9668
2555.000000 0.9663 0.9657 0.9651 0.9646 0.9640
2560.000000 0.9634 0.9628 0.9623 0.9617 0.9611
2565.000000 0.9605 0.9599 0.9593 0.9588 0.9582
2570.000000 0.9577 0.9571 0.9566 0.9560 0.9555
2575.000000 0.9549 0.9544 0.9538 0.9533 0.9527
2580.000000 0.9521 0.9516 0.9511 0.9505 0.9499
2585.000000 0.9492 0.9486 0.9478 0.9471 0.9465
2590.000000 0.9458 0.9451 0.9445 0.9438 0.9431
2595.000000 0.9424 0.9418 0.9411 0.9404 0.9397
2600.000000 0.9391 0.9387 0.9384 0.9380 0.9377
2605.000000 0.9373 0.9370 0.9366 0.9363 0.9360
2610.000000 0.9357 0.9353 0.9350 0.9347 0.9345
2615.000000 0.9342 0.9340 0.9337 0.9335 0.9332
2620.000000 0.9330 0.9327 0.9325 0.9321 0.9318
2625.000000 0.9309 0.9300 0.9291 0.9282 0.9273
2630.000000 0.9264 0.9255 0.9246 0.9238 0.9231
2635.000000 0.9225 0.9221 0.9216 0.9211 0.9206
2640.000000 0.9202 0.9197 0.9193 0.9192 0.9192
2645.000000 0.9191 0.9191 0.9190 0.9190 0.9189
2650.000000 0.9189 0.9180 0.9171 0.9163 0.9154
2655.000000 0.9145 0.9136 0.9120 0.9104 0.9086
2660.000000 0.9068 0.9055 0.9041 0.9025 0.9012
2665.000000 0.8997 0.8983 0.8975 0.8967 0.8962
2670.000000 0.8957 0.8952 0.8947 0.8944 0.8941
2675.000000 0.8939 0.8938 0.8937 0.8936 0.8935
2680.000000 0.8934 0.8934 0.8934 0.8934 0.8934
2685.000000 0.8934 0.8934 0.8934 0.8934 0.8934
2690.000000 0.8934 0.8934 0.8934 0.8933 0.8933
2695.000000 0.8932 0.8932 0.8931 0.8931 0.8928
2700.000000 0.8925 0.8918 0.8911 0.8904 0.8897
2705.000000 0.8878 0.8861 0.8841 0.8821 0.8799
2710.000000 0.8777 0.8757 0.8737 0.8718 0.8699
2715.000000 0.8678 0.8660 0.8640 0.8620 0.8603
2720.000000 0.8586 0.8577 0.8568 0.8568 0.8570
2725.000000 0.8571 0.8574 0.8580 0.8587 0.8597
2730.000000 0.8607 0.8618 0.8631 0.8644 0.8658
2735.000000 0.8674 0.8690 0.8708 0.8727 0.8742
2740.000000 0.8757 0.8765 0.8774 0.8771 0.8770
2745.000000 0.8760 0.8750 0.8737 0.8724 0.8709
2750.000000 0.8695 0.8678 0.8663 0.8646 0.8628
2755.000000 0.8600 0.8571 0.8541 0.8511 0.8482
2760.000000 0.8454 0.8407 0.8360 0.8299 0.8238
2765.000000 0.8190 0.8143 0.8100 0.8057 0.7995
2770.000000 0.7934 0.7878 0.7821 0.7768 0.7715
2775.000000 0.7665 0.7615 0.7565 0.7517 0.7412
2780.000000 0.7310 0.7218 0.7128 0.7072 0.7018
2785.000000 0.6949 0.6881 0.6798 0.6715 0.6575
2790.000000 0.6437 0.6286 0.6136 0.5985 0.5835
2795.000000 0.5684 0.5534 0.5383 0.5233 0.5129
2800.000000 0.5025 0.4962 0.4902 0.4850 0.4799
2805.000000 0.4770 0.4742 0.4741 0.4740 0.4740
2810.000000 0.4740 0.4741 0.4742 0.4742 0.4742
2815.000000 0.4741 0.4740 0.4733 0.4726 0.4717
2820.000000 0.4674 0.4698 0.4688 0.4679 0.4671
2825.000000 0.4677 0.4683 0.4706 0.4729 0.4807
2830.000000 0.4885 0.4939 0.4993 0.5032 0.5072
2835.000000 0.5078 0.5084 0.5090 0.5097 0.5101
2840.000000 0.5101 0.5101 0.5100 0.5087 0.5084
2845.000000 0.5054 0.5034 0.4892 0.4750 0.4539
2850.000000 0.4329 0.4118 0.3907 0.3696 0.3486
2855.000000 0.3275 0.3064 0.2853 0.2643 0.2432
2860.000000 0.2221 0.2010 0.1800 0.1589 0.1379
2865.000000 0.1254 0.1129 0.1101 0.1074 0.1057
2870.000000 0.1040 0.1039 0.1044 0.1095 0.1152
2875.000000 0.1409 0.1666 0.1998 0.2331 0.2664
2880.000000 0.2997 0.3329 0.3662 0.3988 0.4314
2885.000000 0.4355 0.4397 0.4398 0.4403 0.4395
2890.000000 0.4391 0.4373 0.4355 0.4331 0.4307
2895.000000 0.4266 0.4226 0.4118 0.4010 0.3882
2900.000000 0.3754 0.3625 0.3496 0.3366 0.3239
2905.000000 0.3135 0.3033 0.2977 0.2922 0.2898
2910.000000 0.2875 0.2860 0.2846 0.2831 0.2816
2915.000000 0.2800 0.2784 0.2765 0.2745 0.2697
2920.000000 0.2650 0.2540 0.2430 0.2297 0.2165
2925.000000 0.2078 0.1991 0.1859 0.1727 0.1599
2930.000000 0.1471 0.1351 0.1231 0.1099 0.0968
2935.000000 0.0845 0.0723 0.0609 0.0495 0.0411
2940.000000 0.0327 0.0287 0.0247 0.0215 0.0184
2945.000000 0.0172 0.0159 0.0155 0.0151 0.0150
2950.000000 0.0150 0.0151 0.0112 0.0155 0.0157
2955.000000 0.0160 0.0164 0.0169 0.0175 0.0188
2960.000000 0.0201 0.0230 0.0260 0.0299 0.0339
2965.000000 0.0371 0.0403 0.0448 0.0494 0.0541
2970.000000 0.0589 0.0659 0.0729 0.1014 0.1299
2975.000000 0.1671 0.2044 0.2416 0.2789 0.3162
2980.000000 0.3534 0.3907 0.4280 0.4802 0.5325
2985.000000 0.5457 0.5590 0.5723 0.5856 0.5989
2990.000000 0.6122 0.6481 0.6840 0.6890 0.6940
2995.000000 0.6957 0.6975 0.6994 0.7012 0.7148
3000.000000 0.7284 0.7383 0.7482 0.7515 0.7550
3005.000000 0.7565 0.7583 0.7611 0.7640 0.7732
3010.000000 0.7889 0.7849 0.7874 0.7872 0.7871
3015.000000 0.7845 0.7818 0.7624 0.7428 0.7208
3020.000000 0.6988 0.6767 0.6547 0.6326 0.6106
3025.000000 0.5885 0.5665 0.5444 0.5223 0.5074
3030.000000 0.4925 0.4965 0.4920 0.5186 0.5368
3035.000000 0.5680 0.5993 0.6306 0.6618 0.6931
3040.000000 0.7244 0.7508 0.7772 0.7807 0.7842
3045.000000 0.7983 0.8125 0.8146 0.8168 0.8161
3050.000000 0.8155 0.8086 0.8018 0.7949 0.7881
3055.000000 0.7861 0.7843 0.7755 0.7667 0.7519
3060.000000 0.7372 0.7225 0.7078 0.6930 0.6783
3065.000000 0.6635 0.6488 0.6407 0.6326 0.6496
3070.000000 0.6303 0.6921 0.7175 0.7430 0.7685
3075.000000 0.7940 0.8195 0.8218 0.8260 0.8184
3080.000000 0.8125 0.8030 0.7934 0.7837 0.7741
3085.000000 0.7645 0.7549 0.7451 0.7356 0.7321
3090.000000 0.7262 0.7462 0.7641 0.7953 0.8265
3095.000000 0.8577 0.8890 0.9053 0.9216 0.9237
3100.000000 0.9258 0.9262 0.9267 0.9268 0.9271
3105.000000 0.9277 0.9284 0.9348 0.9412 0.9444
3110.000000 0.9475 0.9516 0.9557 0.9593 0.9630
3115.000000 0.9651 0.9671 0.9691 0.9711 0.9730
3120.000000 0.9749 0.9766 0.9783 0.9799 0.9815
3125.000000 0.9830 0.9846 0.9854 0.9862 0.9868
3130.000000 0.9877 0.9884 0.9891 0.9896 0.9902
3135.000000 0.9903 0.9904 0.9904 0.9905 0.9905
3140.000000 0.9906 0.9906 0.9906 0.9906 0.9907
3145.000000 0.9907 0.9907 0.9906 0.9905 0.9904
3150.000000 0.9903 0.9902 0.9901 0.9899 0.9898
3155.000000 0.9895 0.9893 0.9890 0.9887 0.9884
3160.000000 0.9882 0.9878 0.9875 0.9871 0.9868
3165.000000 0.9864 0.9860 0.9856 0.9853 0.9849
3170.000000 0.9846 0.9846 0.9847 0.9851 0.9855
3175.000000 0.9866 0.9877 0.9889 0.9902 0.9912
3180.000000 0.9921 0.9924 0.9925 0.9928 0.9931
3185.000000 0.9932 0.9934 0.9934 0.9935 0.9935
3190.000000 0.9936 0.9936 0.9937 0.9937 0.9937
3195.000000 0.9937 0.9938 0.9938 0.9939 0.9939
3200.000000 0.9940 0.9940 0.9941 0.9941 0.9941
3205.000000 0.9941 0.9942 0.9942 0.9942 0.9942
3210.000000 0.9942 0.9941 0.9941 0.9941 0.9941
3215.000000 0.9940 0.9940 0.9940 0.9940 0.9939
3220.000000 0.9939 0.9938 0.9938 0.9937 0.9936
3225.000000 0.9935 0.9934 0.9933 0.9933 0.9932
3230.000000 0.9931 0.9930 0.9928 0.9928 0.9928
3235.000000 0.9925 0.9925 0.9923 0.9921 0.9918
3240.000000 0.9918 0.9916 0.9914 0.9912 0.9910
3245.000000 0.9908 0.9906 0.9904 0.9903 0.9901
3250.000000 0.9899 0.9896 0.9894 0.9892 0.9890
3255.000000 0.9887 0.9885 0.9883 0.9881 0.9878
3260.000000 0.9875 0.9873 0.9871 0.9868 0.9867
3265.000000 0.9864 0.9862 0.9860 0.9858 0.9855
3270.000000 0.9853 0.9850 0.9847 0.9844 0.9841
3275.000000 0.9838 0.9835 0.9832 0.9828 0.9825
3280.000000 0.9823 0.9820 0.9817 0.9814 0.9811
3285.000000 0.9807 0.9804 0.9800 0.9797 0.9794
3290.000000 0.9791 0.9787 0.9784 0.9780 0.9777
3295.000000 0.9773 0.9770 0.9766 0.9762 0.9758
3300.000000 0.9755 0.9751 0.9747 0.9743 0.9740
3305.000000 0.9736 0.9732 0.9728 0.9725 0.9721
3310.000000 0.9717 0.9713 0.9709 0.9705 0.9702
3315.000000 0.9698 0.9695 0.9692 0.9689 0.9686
3320.000000 0.9683 0.9678 0.9675 0.9673 0.9670
3325.000000 0.9667 0.9636 0.9661 0.9658 0.9655
3330.000000 0.9652 0.9648 0.9645 0.9643 0.9642
3335.000000 0.9643 0.9643 0.9645 0.9647 0.9650
3340.000000 0.9654 0.9657 0.9661 0.9664 0.9668
3345.000000 0.9671 0.9675 0.9678 0.9681 0.9683
3350.000000 0.9686 0.9688 0.9691 0.9693 0.9695
3355.000000 0.9698 0.9702 0.9706 0.9710 0.9713
3360.000000 0.9717 0.9721 0.9725 0.9728 0.9732
3365.000000 0.9735 0.9739 0.9742 0.9746 0.9749
3370.000000 0.9752 0.9754 0.9757 0.9759 0.9762
3375.000000 0.9764 0.9766 0.9768 0.9771 0.9773
3380.000000 0.9775 0.9778 0.9780 0.9782 0.9785
3385.000000 0.9787 0.9790 0.9792 0.9794 0.9796
3390.000000 0.9799 0.9801 0.9804 0.9806 0.9808
3395.000000 0.9810 0.9813 0.9815 0.9818 0.9820
3400.000000 0.9821 0.9824 0.9827 0.9828 0.9832
3405.000000 0.9834 0.9837 0.9839 0.9842 0.9844
3410.000000 0.9847 0.9849 0.9852 0.9854 0.9857
3415.000000 0.9859 0.9862 0.9864 0.9867 0.9868
3420.000000 0.9871 0.9874 0.9877 0.9878 0.9880
3425.000000 0.9881 0.9882 0.9883 0.9884 0.9885
3430.000000 0.9887 0.9888 0.9889 0.9890 0.9891
3435.000000 0.9892 0.9893 0.9894 0.9895 0.9896
3440.000000 0.9897 0.9898 0.9899 0.9900 0.9902
3445.000000 0.9903 0.9904 0.9905 0.9907 0.9908
3450.000000 0.9909 0.9910 0.9911 0.9912 0.9914
3455.000000 0.9915 0.9916 0.9917 0.9918 0.9920
3460.000000 0.9921 0.9921 0.9923 0.9923 0.9924
3465.000000 0.9924 0.9925 0.9925 0.9925 0.9925
3470.000000 0.9927 0.9927 0.9928 0.9928 0.9928
3475.000000 0.9928 0.9930 0.9930 0.9930 0.9930
3480.000000 0.9930 0.9930 0.9931 0.9931 0.9931
3485.000000 0.9931 0.9931 0.9931 0.9931 0.9931
3490.000000 0.9931 0.9930 0.9930 0.9930 0.9930
3495.000000 0.9928 0.9928 0.9928 0.9928 0.9928
3500.000000 0.9928 0.9927 0.9927 0.9927 0.9927
3505.000000 0.9927 0.9927 0.9927 0.9927 0.9927
3510.000000 0.9927 0.9933 0.9940 0.9948 0.9956
3515.000000 0.9960 0.9964 0.9967 0.9970 0.9971
3520.000000 0.9973 0.9974 0.9975 0.9975 0.9978
3525.000000 0.9978 0.9978 0.9978 0.9978 0.9978
3530.000000 0.9980 0.9980 0.9980 0.9980 0.9981
3535.000000 0.9981 0.9981 0.9981 0.9981 0.9981
3540.000000 0.9981 0.9980 0.9980 0.9978 0.9978
3545.000000 0.9978 0.9978 0.9978 0.9978 0.9978
3550.000000 0.9978 0.9978 0.9978 0.9978 0.9978
3555.000000 0.9978 0.9978 0.9978 0.9978 0.9978
3560.000000 0.9978 0.9973 0.9968 0.9965 0.9961
3565.000000 0.9954 0.9947 0.9928 0.9910 0.9884
3570.000000 0.9858 0.9833 0.9809 0.9810 0.9811
3575.000000 0.9815 0.9820 0.9844 0.9868 0.9903
3580.000000 0.9937 0.9950 0.9963 0.9965 0.9967
3585.000000 0.9967 0.9967 0.9965 0.9964 0.9960
3590.000000 0.9956 0.9952 0.9949 0.9946 0.9943
3595.000000 0.9938 0.9933 0.9928 0.9924 0.9920
3600.000000 0.9916 0.9912 0.9909 0.9906 0.9903
3605.000000 0.9900 0.9898 0.9896 0.9894 0.9894
3610.000000 0.9894 0.9895 0.9896 0.9896 0.9897
3615.000000 0.9898 0.9900 0.9901 0.9903 0.9904
3620.000000 0.9905 0.9906 0.9907 0.9907 0.9908
3625.000000 0.9908 0.9909 0.9909 0.9909 0.9909
3630.000000 0.9909 0.9909 0.9909 0.9908 0.9908
3635.000000 0.9907 0.9907 0.9907 0.9907 0.9904
3640.000000 0.9902 0.9899 0.9897 0.9894 0.9892
3645.000000 0.9889 0.9887 0.9884 0.9881 0.9877
3650.000000 0.9873 0.9868 0.9866 0.9862 0.9858
3655.000000 0.9854 0.9850 0.9846 0.9843 0.9841
3660.000000 0.9839 0.9836 0.9834 0.9831 0.9828
3665.000000 0.9828 0.9830 0.9831 0.9832 0.9845
3670.000000 0.9858 0.9871 0.9887 0.9892 0.9898
3675.000000 0.9896 0.9894 0.9889 0.9885 0.9880
3680.000000 0.9875 0.9868 0.9862 0.9854 0.9847
3685.000000 0.9840 0.9833 0.9834 0.9835 0.9837
3690.000000 0.9839 0.9841 0.9843 0.9846 0.9849
3695.000000 0.9852 0.9855 0.9857 0.9859 0.9861
3700.000000 0.9863 0.9865 0.9868 0.9870 0.9873
3705.000000 0.9875 0.9878 0.9880 0.9882 0.9884
3710.000000 0.9887 0.9889 0.9892 0.9894 0.9897
3715.000000 0.9899 0.9902 0.9904 0.9907 0.9909
3720.000000 0.9912 0.9914 0.9917 0.9920 0.9924
3725.000000 0.9927 0.9931 0.9934 0.9938 0.9939
3730.000000 0.9940 0.9941 0.9941 0.9941 0.9941
3735.000000 0.9938 0.9936 0.9933 0.9931 0.9928
3740.000000 0.9925 0.9918 0.9913 0.9906 0.9899
3745.000000 0.9892 0.9886 0.9878 0.9871 0.9861
3750.000000 0.9852 0.9853 0.9854 0.9855 0.9856
3755.000000 0.9859 0.9862 0.9865 0.9868 0.9871
3760.000000 0.9875 0.9878 0.9881 0.9881 0.9881
3765.000000 0.9881 0.9881 0.9881 0.9881 0.9880
3770.000000 0.9880 0.9878 0.9878 0.9878 0.9878
3775.000000 0.9878 0.9878 0.9878 0.9880 0.9880
3780.000000 0.9881 0.9881 0.9882 0.9882 0.9882
3785.000000 0.9882 0.9882 0.9882 0.9882 0.9881
3790.000000 0.9881 0.9878 0.9875 0.9873 0.9870
3795.000000 0.9870 0.9870 0.9870 0.9870 0.9870
3800.000000 0.9870
##END=
