##TITLE=CALCIUM CARBONATE
$$ A.R.
##JCAMP-DX=4.24
##DATA TYPE=INFRARED SPECTRUM
##CLASS=COBLENTZ
##ORIGIN=MELLON INSTITUTE
##OWNER=COBLENTZ SOCIETY
Collection (C) 2018 copyright by the U.S. Secretary of Commerce
on behalf of the United States of America. All rights reserved.
##DATE=Not specified, most likely prior to 1970
##MOLFORM=Ca C O3
##SOURCE REFERENCE=COBLENTZ NO. 507
##$NIST ID=B6000507
##$NIST SOURCE=COBLENTZ
##$NIST IMAGE=cob507
##SPECTROMETER/DATA SYSTEM=Not specified, most likely a prism, grating, or hybrid spectrometer.
##STATE=SOLID (NUJOL MULL)
##PATH LENGTH=
$$SPECTRAL CONTAMINATION DUE TO OIL AROUND 2900 CM^-^1
##SAMPLING PROCEDURE=TRANSMISSION
##RESOLUTION=4
##DATA PROCESSING=DIGITIZED BY NIST FROM HARD COPY
##XUNITS=MICROMETERS
##YUNITS=TRANSMITTANCE
##XFACTOR=1.000000
##YFACTOR=1
##DELTAX=000.006828
##FIRSTX=2.024
##LASTX=15.9803
##FIRSTY=0.796
##MAXX=15.9803
##MINX=2.024
##MAXY=0.934
##MINY=0.029
##NPOINTS=2045
##XYDATA=(X++(Y..Y))
2.024000 0.7960 0.7960 0.7950 0.7930 0.7910
2.058157 0.7910 0.7900 0.7900 0.7880 0.7880
2.092000 0.7880 0.7880 0.7880 0.7880 0.7880
2.126157 0.7900 0.7900 0.7900 0.7900 0.7900
2.160000 0.7900 0.7900 0.7900 0.7910 0.7910
2.194157 0.7910 0.7910 0.7900 0.7900 0.7900
2.228000 0.7880 0.7880 0.7880 0.7860 0.7860
2.262157 0.7860 0.7860 0.7840 0.7840 0.7840
2.297000 0.7860 0.7860 0.7860 0.7860 0.7860
2.331157 0.7860 0.7880 0.7880 0.7880 0.7880
2.365000 0.7880 0.7880 0.7900 0.7900 0.7900
2.399157 0.7900 0.7900 0.7900 0.7900 0.7900
2.433000 0.7900 0.7900 0.7900 0.7900 0.7900
2.467157 0.7910 0.7910 0.7910 0.7910 0.7910
2.502000 0.7910 0.7910 0.7930 0.7930 0.7930
2.536157 0.7930 0.7930 0.7930 0.7930 0.7930
2.570000 0.7950 0.7950 0.7950 0.7950 0.7950
2.604157 0.7960 0.7960 0.7960 0.7960 0.7960
2.638000 0.7960 0.7960 0.7960 0.7950 0.7950
2.672157 0.7950 0.7950 0.7950 0.7950 0.7950
2.706000 0.7950 0.7950 0.7950 0.7950 0.7930
2.740157 0.7930 0.7930 0.7930 0.7930 0.7910
2.775000 0.7910 0.7910 0.7910 0.7910 0.7910
2.809157 0.7910 0.7900 0.7900 0.7900 0.7900
2.843000 0.7900 0.7900 0.7900 0.7900 0.7900
2.877157 0.7900 0.7880 0.7880 0.7880 0.7880
2.911000 0.7900 0.7880 0.7880 0.7880 0.7880
2.945157 0.7860 0.7860 0.7840 0.7840 0.7830
2.980000 0.7830 0.7830 0.7830 0.7790 0.7790
3.014157 0.7790 0.7770 0.7770 0.7760 0.7760
3.048000 0.7740 0.7740 0.7740 0.7740 0.7740
3.082157 0.7740 0.7740 0.7760 0.7760 0.7760
3.116000 0.7760 0.7770 0.7790 0.7790 0.7790
3.150157 0.7790 0.7810 0.7810 0.7830 0.7830
3.184000 0.7840 0.7840 0.7860 0.7880 0.7900
3.218157 0.7910 0.7910 0.7910 0.7910 0.7910
3.253000 0.7910 0.7900 0.7900 0.7860 0.7810
3.287157 0.7650 0.7530 0.7090 0.6830 0.6550
3.321000 0.6360 0.5490 0.5000 0.4660 0.4160
3.355157 0.3830 0.3830 0.3950 0.4140 0.4320
3.389000 0.4500 0.4680 0.4920 0.5040 0.5110
3.423157 0.5090 0.4920 0.4920 0.5020 0.5180
3.457000 0.5310 0.5660 0.6020 0.6500 0.6980
3.491157 0.7400 0.7530 0.7670 0.7790 0.7900
3.526000 0.7980 0.8000 0.8050 0.8120 0.8150
3.560157 0.8220 0.8270 0.8290 0.8330 0.8360
3.594000 0.8390 0.8410 0.8430 0.8450 0.8460
3.628157 0.8480 0.8500 0.8510 0.8510 0.8510
3.662000 0.8510 0.8530 0.8530 0.8530 0.8530
3.696157 0.8550 0.8550 0.8550 0.8550 0.8550
3.731000 0.8550 0.8550 0.8550 0.8550 0.8550
3.765157 0.8530 0.8530 0.8530 0.8510 0.8510
3.799000 0.8500 0.8510 0.8510 0.8510 0.8510
3.833157 0.8510 0.8500 0.8500 0.8500 0.8500
3.867000 0.8480 0.8450 0.8450 0.8450 0.8430
3.901157 0.8410 0.8390 0.8380 0.8340 0.8330
3.935000 0.8310 0.8260 0.8260 0.8260 0.8260
3.969157 0.8260 0.8290 0.8290 0.8330 0.8360
4.004000 0.8390 0.8430 0.8450 0.8480 0.8510
4.038157 0.8510 0.8530 0.8530 0.8530 0.8530
4.072000 0.8530 0.8530 0.8530 0.8530 0.8530
4.106157 0.8550 0.8550 0.8550 0.8550 0.8550
4.140000 0.8550 0.8550 0.8550 0.8530 0.8530
4.174157 0.8530 0.8530 0.8510 0.8510 0.8500
4.209000 0.8460 0.8450 0.8410 0.8410 0.8390
4.243157 0.8360 0.8360 0.8340 0.8340 0.8340
4.277000 0.8340 0.8340 0.8330 0.8330 0.8330
4.311157 0.8330 0.8330 0.8330 0.8330 0.8330
4.345000 0.8330 0.8330 0.8330 0.8330 0.8330
4.379157 0.8330 0.8330 0.8330 0.8330 0.8330
4.413000 0.8340 0.8340 0.8360 0.8360 0.8360
4.447157 0.8360 0.8380 0.8390 0.8390 0.8390
4.482000 0.8410 0.8410 0.8410 0.8410 0.8430
4.516157 0.8430 0.8430 0.8430 0.8450 0.8450
4.550000 0.8450 0.8450 0.8460 0.8460 0.8460
4.584157 0.8460 0.8460 0.8460 0.8460 0.8460
4.618000 0.8450 0.8450 0.8450 0.8450 0.8430
4.652157 0.8430 0.8430 0.8450 0.8450 0.8450
4.687000 0.8450 0.8450 0.8430 0.8430 0.8430
4.721157 0.8450 0.8450 0.8450 0.8450 0.8450
4.755000 0.8450 0.8450 0.8460 0.8460 0.8460
4.789157 0.8480 0.8500 0.8500 0.8510 0.8510
4.823000 0.8510 0.8510 0.8510 0.8510 0.8510
4.857157 0.8510 0.8510 0.8510 0.8510 0.8510
4.891000 0.8510 0.8530 0.8530 0.8530 0.8530
4.925157 0.8530 0.8530 0.8550 0.8550 0.8550
4.960000 0.8550 0.8550 0.8550 0.8550 0.8570
4.994157 0.8550 0.8550 0.8570 0.8570 0.8570
5.028000 0.8570 0.8570 0.8600 0.8600 0.8620
5.062157 0.8620 0.8620 0.8620 0.8620 0.8640
5.096000 0.8640 0.8650 0.8650 0.8650 0.8670
5.130157 0.8670 0.8670 0.8670 0.8670 0.8670
5.164000 0.8670 0.8670 0.8670 0.8670 0.8690
5.198157 0.8690 0.8700 0.8700 0.8700 0.8700
5.233000 0.8700 0.8700 0.8700 0.8700 0.8700
5.267157 0.8700 0.8720 0.8720 0.8720 0.8720
5.301000 0.8720 0.8720 0.8720 0.8720 0.8720
5.335157 0.8720 0.8720 0.8720 0.8720 0.8740
5.369000 0.8740 0.8740 0.8740 0.8760 0.8740
5.403157 0.8760 0.8760 0.8740 0.8740 0.8760
5.438000 0.8760 0.8760 0.8760 0.8760 0.8770
5.472157 0.8770 0.8770 0.8790 0.8790 0.8790
5.506000 0.8810 0.8810 0.8810 0.8820 0.8820
5.540157 0.8820 0.8820 0.8760 0.8720 0.8690
5.574000 0.8650 0.8620 0.8570 0.8550 0.8550
5.608157 0.8570 0.8600 0.8650 0.8650 0.8670
5.642000 0.8740 0.8770 0.8820 0.8860 0.8860
5.676157 0.8880 0.8880 0.8890 0.8890 0.8910
5.711000 0.8910 0.8910 0.8910 0.8930 0.8930
5.745157 0.8930 0.8910 0.8910 0.8910 0.8930
5.779000 0.8930 0.8950 0.8950 0.8960 0.8980
5.813157 0.9000 0.9000 0.9000 0.9000 0.9000
5.847000 0.9000 0.9000 0.9000 0.9000 0.9000
5.881157 0.9000 0.9000 0.9000 0.9000 0.9000
5.916000 0.9000 0.8980 0.8960 0.8960 0.8960
5.950157 0.8950 0.8950 0.8950 0.8950 0.8930
5.984000 0.8930 0.8910 0.8930 0.8910 0.8910
6.018157 0.8910 0.8890 0.8890 0.8880 0.8880
6.052000 0.8860 0.8860 0.8840 0.8840 0.8840
6.086157 0.8840 0.8820 0.8820 0.8810 0.8810
6.120000 0.8790 0.8810 0.8810 0.8810 0.8810
6.154157 0.8790 0.8770 0.8770 0.8770 0.8760
6.189000 0.8760 0.8740 0.8690 0.8650 0.8640
6.223157 0.8580 0.8570 0.8530 0.8500 0.8410
6.257000 0.8410 0.8360 0.8360 0.8360 0.8310
6.291157 0.8260 0.8220 0.8190 0.8140 0.8080
6.325000 0.8020 0.7980 0.7880 0.7770 0.7670
6.359157 0.7550 0.7500 0.7410 0.7380 0.7310
6.394000 0.7210 0.7070 0.7030 0.6850 0.6760
6.428157 0.6600 0.6520 0.6280 0.5970 0.5740
6.462000 0.5690 0.5610 0.5570 0.5520 0.5490
6.496157 0.5420 0.5310 0.5210 0.5060 0.4970
6.530000 0.4730 0.4560 0.4450 0.4350 0.4230
6.564157 0.4070 0.4010 0.3990 0.3940 0.3870
6.598000 0.3700 0.3470 0.3270 0.3090 0.2900
6.632157 0.2750 0.2560 0.2390 0.2230 0.2080
6.667000 0.1970 0.1820 0.1770 0.1610 0.1480
6.701157 0.1370 0.1270 0.1170 0.1100 0.1040
6.735000 0.1030 0.1010 0.1010 0.0990 0.0920
6.769157 0.0870 0.0770 0.0750 0.0750 0.0740
6.803000 0.0700 0.0670 0.0670 0.0650 0.0630
6.837157 0.0610 0.0560 0.0550 0.0510 0.0460
6.872000 0.0410 0.0390 0.0370 0.0340 0.0340
6.906157 0.0340 0.0320 0.0300 0.0300 0.0300
6.940000 0.0290 0.0290 0.0290 0.0300 0.0300
6.974157 0.0320 0.0320 0.0320 0.0340 0.0320
7.008000 0.0340 0.0340 0.0340 0.0340 0.0340
7.042157 0.0340 0.0340 0.0390 0.0480 0.0560
7.076000 0.0650 0.0750 0.0860 0.0940 0.1080
7.110157 0.1180 0.1270 0.1440 0.1510 0.1750
7.145000 0.2060 0.2340 0.2540 0.2700 0.2830
7.179157 0.2970 0.3130 0.3330 0.3590 0.3940
7.213000 0.4070 0.4180 0.4260 0.4380 0.4500
7.247157 0.4750 0.4990 0.5180 0.5280 0.5430
7.281000 0.5590 0.5710 0.5850 0.5900 0.6050
7.315157 0.6160 0.6280 0.6350 0.6500 0.6640
7.349000 0.6690 0.6760 0.6810 0.6860 0.6930
7.383157 0.7000 0.7030 0.7100 0.7170 0.7220
7.418000 0.7260 0.7290 0.7330 0.7360 0.7400
7.452157 0.7430 0.7450 0.7520 0.7530 0.7550
7.486000 0.7570 0.7640 0.7650 0.7670 0.7710
7.520157 0.7740 0.7760 0.7770 0.7790 0.7830
7.554000 0.7840 0.7860 0.7860 0.7880 0.7900
7.588157 0.7930 0.8000 0.8020 0.8030 0.8050
7.623000 0.8080 0.8100 0.8120 0.8120 0.8150
7.657157 0.8170 0.8190 0.8200 0.8240 0.8260
7.691000 0.8260 0.8270 0.8270 0.8270 0.8310
7.725157 0.8330 0.8330 0.8340 0.8360 0.8380
7.759000 0.8380 0.8410 0.8410 0.8430 0.8430
7.793157 0.8430 0.8450 0.8460 0.8500 0.8510
7.827000 0.8510 0.8510 0.8530 0.8530 0.8550
7.861157 0.8570 0.8570 0.8570 0.8570 0.8580
7.896000 0.8620 0.8620 0.8640 0.8640 0.8650
7.930157 0.8650 0.8670 0.8690 0.8700 0.8700
7.964000 0.8700 0.8720 0.8720 0.8720 0.8740
7.998157 0.8760 0.8760 0.8760 0.8760 0.8760
8.032000 0.8770 0.8770 0.8770 0.8770 0.8790
8.066157 0.8790 0.8790 0.8810 0.8810 0.8820
8.101000 0.8820 0.8820 0.8840 0.8840 0.8840
8.135157 0.8840 0.8860 0.8860 0.8880 0.8880
8.169000 0.8880 0.8880 0.8880 0.8890 0.8890
8.203157 0.8890 0.8890 0.8910 0.8890 0.8890
8.237000 0.8890 0.8910 0.8910 0.8910 0.8910
8.271157 0.8910 0.8910 0.8910 0.8910 0.8910
8.305000 0.8930 0.8930 0.8910 0.8910 0.8910
8.339157 0.8930 0.8930 0.8930 0.8930 0.8930
8.374000 0.8930 0.8930 0.8930 0.8930 0.8930
8.408157 0.8930 0.8930 0.8930 0.8930 0.8930
8.442000 0.8930 0.8950 0.8950 0.8930 0.8930
8.476157 0.8930 0.8950 0.8950 0.8950 0.8930
8.510000 0.8930 0.8930 0.8930 0.8930 0.8930
8.544157 0.8930 0.8930 0.8930 0.8930 0.8930
8.579000 0.8930 0.8930 0.8930 0.8930 0.8930
8.613157 0.8930 0.8930 0.8950 0.8950 0.8930
8.647000 0.8930 0.8950 0.8950 0.8950 0.8950
8.681157 0.8950 0.8950 0.8950 0.8950 0.8950
8.715000 0.8960 0.8960 0.8960 0.8960 0.8960
8.749157 0.8960 0.8960 0.8960 0.8980 0.9000
8.783000 0.9000 0.9000 0.9000 0.9000 0.9000
8.817157 0.9000 0.9000 0.9000 0.9010 0.9010
8.852000 0.9010 0.9000 0.9010 0.9010 0.9010
8.886157 0.9010 0.9010 0.9010 0.9010 0.9010
8.920000 0.9010 0.9010 0.9010 0.9010 0.9010
8.954157 0.9010 0.9030 0.9030 0.9030 0.9030
8.988000 0.9030 0.9030 0.9030 0.9030 0.9030
9.022157 0.9030 0.9030 0.9030 0.9030 0.9030
9.056000 0.9030 0.9030 0.9030 0.9030 0.9030
9.090157 0.9030 0.9030 0.9030 0.9030 0.9030
9.125000 0.9030 0.9030 0.9030 0.9030 0.9030
9.159157 0.9050 0.9050 0.9030 0.9030 0.9030
9.193000 0.9050 0.9030 0.9030 0.9050 0.9050
9.227157 0.9050 0.9050 0.9050 0.9050 0.9050
9.261000 0.9050 0.9050 0.9050 0.9050 0.9050
9.295157 0.9050 0.9050 0.9050 0.9050 0.9050
9.330000 0.9050 0.9050 0.9050 0.9050 0.9050
9.364157 0.9050 0.9050 0.9070 0.9070 0.9070
9.398000 0.9050 0.9050 0.9070 0.9070 0.9070
9.432157 0.9070 0.9070 0.9070 0.9070 0.9070
9.466000 0.9070 0.9070 0.9070 0.9070 0.9070
9.500157 0.9070 0.9070 0.9070 0.9070 0.9070
9.534000 0.9080 0.9080 0.9080 0.9080 0.9080
9.568157 0.9080 0.9080 0.9080 0.9100 0.9100
9.603000 0.9100 0.9100 0.9100 0.9100 0.9100
9.637157 0.9120 0.9120 0.9120 0.9120 0.9120
9.671000 0.9120 0.9120 0.9120 0.9130 0.9120
9.705157 0.9120 0.9120 0.9120 0.9120 0.9120
9.739000 0.9120 0.9120 0.9120 0.9120 0.9130
9.773157 0.9130 0.9130 0.9130 0.9130 0.9130
9.808000 0.9150 0.9130 0.9130 0.9150 0.9150
9.842157 0.9150 0.9150 0.9150 0.9150 0.9150
9.876000 0.9150 0.9150 0.9150 0.9150 0.9150
9.910157 0.9150 0.9150 0.9150 0.9150 0.9150
9.944000 0.9150 0.9150 0.9150 0.9150 0.9150
9.978157 0.9150 0.9170 0.9170 0.9190 0.9190
10.012000 0.9190 0.9170 0.9170 0.9170 0.9170
10.046157 0.9170 0.9170 0.9170 0.9170 0.9170
10.081000 0.9170 0.9170 0.9170 0.9170 0.9170
10.115157 0.9190 0.9190 0.9190 0.9190 0.9190
10.149000 0.9190 0.9200 0.9200 0.9200 0.9200
10.183157 0.9200 0.9200 0.9200 0.9200 0.9220
10.217000 0.9200 0.9220 0.9200 0.9200 0.9200
10.251157 0.9200 0.9190 0.9190 0.9200 0.9200
10.286000 0.9200 0.9200 0.9200 0.9220 0.9220
10.320157 0.9220 0.9220 0.9200 0.9200 0.9200
10.354000 0.9220 0.9220 0.9220 0.9220 0.9220
10.388157 0.9220 0.9220 0.9220 0.9220 0.9220
10.422000 0.9220 0.9220 0.9220 0.9220 0.9220
10.456157 0.9220 0.9220 0.9220 0.9220 0.9220
10.490000 0.9220 0.9220 0.9220 0.9220 0.9220
10.524157 0.9220 0.9220 0.9220 0.9220 0.9220
10.559000 0.9220 0.9220 0.9240 0.9240 0.9240
10.593157 0.9220 0.9240 0.9220 0.9220 0.9220
10.627000 0.9240 0.9220 0.9220 0.9220 0.9220
10.661157 0.9220 0.9220 0.9220 0.9220 0.9240
10.695000 0.9240 0.9240 0.9240 0.9240 0.9240
10.729157 0.9240 0.9220 0.9220 0.9220 0.9220
10.764000 0.9220 0.9240 0.9240 0.9240 0.9240
10.798157 0.9240 0.9240 0.9240 0.9240 0.9240
10.832000 0.9240 0.9240 0.9240 0.9240 0.9240
10.866157 0.9240 0.9240 0.9240 0.9240 0.9240
10.900000 0.9240 0.9240 0.9240 0.9240 0.9240
10.934157 0.9240 0.9240 0.9240 0.9240 0.9240
10.968000 0.9240 0.9240 0.9240 0.9240 0.9240
11.002157 0.9240 0.9240 0.9250 0.9250 0.9250
11.037000 0.9250 0.9250 0.9250 0.9250 0.9250
11.071157 0.9250 0.9250 0.9250 0.9250 0.9250
11.105000 0.9250 0.9250 0.9250 0.9250 0.9250
11.139157 0.9250 0.9250 0.9250 0.9240 0.9240
11.173000 0.9220 0.9200 0.9190 0.9190 0.9150
11.207157 0.9130 0.9120 0.9070 0.9010 0.8950
11.241000 0.8860 0.8740 0.8450 0.8100 0.7930
11.275157 0.7740 0.7520 0.7400 0.7220 0.6880
11.310000 0.6620 0.6350 0.6090 0.5760 0.5550
11.344157 0.5280 0.5020 0.4800 0.4500 0.4420
11.378000 0.4330 0.4320 0.4260 0.4230 0.4260
11.412157 0.4300 0.4350 0.4420 0.4500 0.4710
11.446000 0.4900 0.5140 0.5430 0.5620 0.6040
11.480157 0.6360 0.6600 0.7070 0.7240 0.7430
11.515000 0.7640 0.7980 0.8080 0.8220 0.8270
11.549157 0.8340 0.8390 0.8510 0.8550 0.8620
11.583000 0.8700 0.8740 0.8810 0.8840 0.8890
11.617157 0.8910 0.8930 0.8950 0.8960 0.9000
11.651000 0.9010 0.9030 0.9030 0.9050 0.9050
11.685157 0.9070 0.9070 0.9070 0.9070 0.9080
11.719000 0.9080 0.9080 0.9100 0.9100 0.9100
11.753157 0.9120 0.9120 0.9130 0.9150 0.9150
11.788000 0.9150 0.9170 0.9190 0.9200 0.9220
11.822157 0.9220 0.9220 0.9220 0.9220 0.9220
11.856000 0.9240 0.9240 0.9220 0.9220 0.9240
11.890157 0.9240 0.9240 0.9240 0.9240 0.9250
11.924000 0.9270 0.9270 0.9270 0.9270 0.9290
11.958157 0.9310 0.9310 0.9310 0.9310 0.9310
11.993000 0.9310 0.9320 0.9320 0.9320 0.9320
12.027157 0.9320 0.9320 0.9320 0.9320 0.9340
12.061000 0.9340 0.9340 0.9340 0.9340 0.9340
12.095157 0.9340 0.9320 0.9320 0.9320 0.9340
12.129000 0.9340 0.9340 0.9340 0.9340 0.9340
12.163157 0.9340 0.9340 0.9340 0.9340 0.9340
12.197000 0.9340 0.9340 0.9340 0.9340 0.9340
12.231157 0.9340 0.9340 0.9340 0.9340 0.9340
12.266000 0.9340 0.9340 0.9340 0.9340 0.9340
12.300157 0.9340 0.9340 0.9340 0.9340 0.9340
12.334000 0.9340 0.9340 0.9340 0.9340 0.9340
12.368157 0.9340 0.9340 0.9340 0.9340 0.9340
12.402000 0.9340 0.9340 0.9340 0.9340 0.9340
12.436157 0.9340 0.9340 0.9320 0.9320 0.9320
12.471000 0.9320 0.9320 0.9320 0.9320 0.9310
12.505157 0.9310 0.9310 0.9310 0.9320 0.9320
12.539000 0.9320 0.9320 0.9310 0.9310 0.9310
12.573157 0.9310 0.9310 0.9310 0.9310 0.9290
12.607000 0.9290 0.9290 0.9290 0.9290 0.9290
12.641157 0.9270 0.9270 0.9270 0.9270 0.9270
12.675000 0.9270 0.9270 0.9250 0.9250 0.9270
12.709157 0.9250 0.9250 0.9250 0.9250 0.9250
12.744000 0.9250 0.9240 0.9240 0.9220 0.9220
12.778157 0.9220 0.9220 0.9220 0.9220 0.9190
12.812000 0.9190 0.9190 0.9190 0.9190 0.9190
12.846157 0.9170 0.9170 0.9170 0.9170 0.9150
12.880000 0.9150 0.9150 0.9130 0.9130 0.9130
12.914157 0.9120 0.9120 0.9120 0.9120 0.9120
12.948000 0.9080 0.9080 0.9070 0.9070 0.9070
12.982157 0.9070 0.9070 0.9070 0.9070 0.9070
13.017000 0.9050 0.9070 0.9050 0.9050 0.9050
13.051157 0.9050 0.9050 0.9050 0.9050 0.9030
13.085000 0.9030 0.9030 0.9030 0.9030 0.9030
13.119157 0.9030 0.9030 0.9030 0.9010 0.9010
13.153000 0.9010 0.9000 0.9000 0.9010 0.9000
13.187157 0.9000 0.8980 0.8980 0.8980 0.8960
13.222000 0.8960 0.8960 0.8950 0.8950 0.8950
13.256157 0.8930 0.8930 0.8910 0.8910 0.8910
13.290000 0.8910 0.8890 0.8890 0.8880 0.8880
13.324157 0.8880 0.8860 0.8860 0.8860 0.8860
13.358000 0.8860 0.8860 0.8840 0.8820 0.8820
13.392157 0.8820 0.8810 0.8810 0.8790 0.8790
13.426000 0.8790 0.8770 0.8770 0.8760 0.8760
13.460157 0.8760 0.8740 0.8740 0.8740 0.8720
13.495000 0.8720 0.8720 0.8700 0.8700 0.8690
13.529157 0.8690 0.8670 0.8670 0.8670 0.8650
13.563000 0.8640 0.8640 0.8620 0.8580 0.8580
13.597157 0.8570 0.8570 0.8570 0.8550 0.8530
13.631000 0.8530 0.8510 0.8500 0.8480 0.8460
13.665157 0.8460 0.8450 0.8430 0.8430 0.8410
13.700000 0.8390 0.8380 0.8380 0.8360 0.8360
13.734157 0.8340 0.8330 0.8310 0.8290 0.8270
13.768000 0.8270 0.8260 0.8240 0.8220 0.8190
13.802157 0.8170 0.8120 0.8100 0.8080 0.8050
13.836000 0.8030 0.8020 0.8020 0.7930 0.7880
13.870157 0.7770 0.7670 0.7500 0.7380 0.7290
13.904000 0.7220 0.7160 0.7050 0.6970 0.6830
13.938157 0.6710 0.6620 0.6550 0.6550 0.6550
13.973000 0.6550 0.6550 0.6590 0.6660 0.6670
14.007157 0.6780 0.6860 0.6930 0.7020 0.7070
14.041000 0.7100 0.7170 0.7210 0.7260 0.7310
14.075157 0.7340 0.7400 0.7430 0.7450 0.7450
14.109000 0.7480 0.7500 0.7500 0.7500 0.7500
14.143157 0.7500 0.7520 0.7520 0.7530 0.7530
14.178000 0.7530 0.7550 0.7550 0.7550 0.7550
14.212157 0.7550 0.7550 0.7530 0.7530 0.7530
14.246000 0.7530 0.7530 0.7530 0.7530 0.7530
14.280157 0.7530 0.7530 0.7520 0.7520 0.7520
14.314000 0.7500 0.7460 0.7450 0.7450 0.7450
14.348157 0.7430 0.7430 0.7410 0.7400 0.7400
14.382000 0.7380 0.7380 0.7380 0.7360 0.7360
14.416157 0.7360 0.7340 0.7340 0.7340 0.7330
14.451000 0.7330 0.7330 0.7310 0.7310 0.7310
14.485157 0.7290 0.7290 0.7280 0.7260 0.7260
14.519000 0.7260 0.7240 0.7220 0.7220 0.7220
14.553157 0.7210 0.7190 0.7170 0.7160 0.7160
14.587000 0.7120 0.7120 0.7100 0.7100 0.7090
14.621157 0.7090 0.7070 0.7070 0.7050 0.7050
14.655000 0.7030 0.7030 0.7030 0.7000 0.7000
14.689157 0.7000 0.7000 0.6970 0.6970 0.6950
14.724000 0.6950 0.6930 0.6930 0.6930 0.6930
14.758157 0.6930 0.6910 0.6910 0.6900 0.6900
14.792000 0.6900 0.6900 0.6900 0.6900 0.6900
14.826157 0.6900 0.6880 0.6880 0.6860 0.6860
14.860000 0.6850 0.6850 0.6850 0.6850 0.6850
14.894157 0.6850 0.6830 0.6830 0.6810 0.6810
14.929000 0.6790 0.6780 0.6780 0.6760 0.6760
14.963157 0.6740 0.6740 0.6740 0.6720 0.6710
14.997000 0.6710 0.6710 0.6690 0.6690 0.6710
15.031157 0.6710 0.6710 0.6690 0.6690 0.6670
15.065000 0.6670 0.6670 0.6670 0.6660 0.6660
15.099157 0.6670 0.6670 0.6670 0.6660 0.6660
15.133000 0.6660 0.6660 0.6640 0.6620 0.6620
15.167157 0.6620 0.6620 0.6620 0.6620 0.6620
15.202000 0.6600 0.6590 0.6570 0.6550 0.6550
15.236157 0.6550 0.6550 0.6540 0.6550 0.6550
15.270000 0.6550 0.6550 0.6550 0.6540 0.6540
15.304157 0.6540 0.6540 0.6540 0.6540 0.6540
15.338000 0.6540 0.6540 0.6540 0.6540 0.6540
15.372157 0.6540 0.6520 0.6520 0.6520 0.6500
15.407000 0.6520 0.6520 0.6520 0.6520 0.6520
15.441157 0.6520 0.6520 0.6520 0.6520 0.6520
15.475000 0.6520 0.6520 0.6500 0.6500 0.6500
15.509157 0.6500 0.6520 0.6520 0.6520 0.6520
15.543000 0.6520 0.6520 0.6540 0.6540 0.6540
15.577157 0.6540 0.6540 0.6540 0.6540 0.6550
15.611000 0.6540 0.6540 0.6540 0.6550 0.6550
15.645157 0.6550 0.6550 0.6570 0.6570 0.6570
15.680000 0.6590 0.6590 0.6590 0.6590 0.6600
15.714157 0.6600 0.6600 0.6600 0.6600 0.6620
15.748000 0.6620 0.6620 0.6640 0.6640 0.6660
15.782157 0.6670 0.6670 0.6690 0.6690 0.6710
15.816000 0.6710 0.6710 0.6720 0.6720 0.6720
15.850157 0.6740 0.6740 0.6740 0.6760 0.6740
15.885000 0.6740 0.6780 0.6780 0.6790 0.6790
15.919157 0.6790 0.6790 0.6810 0.6810 0.6830
15.953000 0.6850 0.6860 0.6860 0.6860 0.6880
##END=
