##TITLE=MONOSODIUM GLUTAMATE, MONOHYDRATE
##JCAMP-DX=4.24
##DATA TYPE=INFRARED SPECTRUM
##CLASS=COBLENTZ III
##ORIGIN=STANDARD OIL OF OHIO
##OWNER=COBLENTZ SOCIETY
Collection (C) 2018 copyright by the U.S. Secretary of Commerce
on behalf of the United States of America. All rights reserved.
##DATE=Not specified, most likely prior to 1970
##MOLFORM=C5 H8 O4 N Na  * H2 0
##SOURCE REFERENCE=COBLENTZ NO. 4640
##$NIST ID=B6004640
##$NIST SOURCE=COBLENTZ
##$NIST IMAGE=cob4640
##SPECTROMETER/DATA SYSTEM=PERKIN-ELMER 180
##STATE=SOLID (SPLIT MULL, FLUOROLUBE FOR 3800-1300 AND NUJOL FOR 1300-270 CM ^-^1)
##PATH LENGTH=(CsI PLATES)
##SAMPLING PROCEDURE=TRANSMISSION
##RESOLUTION=4
##DATA PROCESSING=DIGITIZED BY NIST FROM HARD COPY (FROM TWO SEGMENTS)
##XUNITS=1/CM
##YUNITS=TRANSMITTANCE
##XFACTOR=1.000000
##YFACTOR=1
##DELTAX=1.689189
##FIRSTX=270.388
##LASTX=3892.01
##FIRSTY=0.55
##MAXX=3892.01
##MINX=270.388
##MAXY=0.945
##MINY=0.114
##NPOINTS=2145
##XYDATA=(X++(Y..Y))
270.388000 0.5500 0.5500 0.5500 0.5500 0.5481
278.833945 0.5470 0.5470 0.5451 0.5431 0.5421
287.279890 0.5420 0.5401 0.5400 0.5382 0.5380
295.725835 0.5380 0.5380 0.5398 0.5471 0.5665
304.171780 0.5973 0.6264 0.6387 0.6599 0.6861
312.617725 0.7104 0.7224 0.7365 0.7431 0.7473
321.063670 0.7480 0.7480 0.7480 0.7480 0.7464
329.509615 0.7357 0.7259 0.7178 0.7106 0.6922
337.955560 0.6679 0.6384 0.6121 0.5619 0.5366
346.401505 0.5058 0.4836 0.4660 0.4581 0.4584
354.847450 0.4661 0.4789 0.4935 0.5084 0.5328
363.293395 0.5420 0.5393 0.5360 0.5330 0.4930
371.739340 0.4590 0.4404 0.4027 0.3648 0.3505
380.185285 0.3502 0.3694 0.3973 0.4487 0.5156
388.631230 0.5684 0.6078 0.6486 0.6785 0.6938
397.077175 0.7113 0.7277 0.7385 0.7473 0.7531
405.523120 0.7555 0.7560 0.7555 0.7540 0.7515
413.969065 0.7470 0.7425 0.7400 0.7361 0.7306
422.415010 0.7261 0.7207 0.7165 0.7137 0.7069
430.860955 0.6989 0.6928 0.6896 0.6894 0.6967
439.306900 0.7114 0.7290 0.7442 0.7476 0.7539
447.752845 0.7600 0.7611 0.7630 0.7623 0.7599
456.198790 0.7573 0.7549 0.7530 0.7513 0.7456
464.644735 0.7384 0.7301 0.7215 0.7138 0.7054
473.090680 0.6919 0.6755 0.6641 0.6600 0.6525
481.536625 0.6406 0.6247 0.6205 0.6187 0.6170
489.982570 0.6128 0.6059 0.5873 0.5347 0.4513
498.428515 0.4496 0.4611 0.5044 0.5413 0.5668
506.874460 0.6189 0.6230 0.6218 0.6143 0.6045
515.320405 0.5954 0.5854 0.5733 0.5501 0.4977
523.766350 0.4345 0.3730 0.3166 0.3140 0.3143
532.212295 0.3173 0.3220 0.3438 0.3666 0.4124
540.658240 0.4456 0.4708 0.4966 0.5065 0.5156
549.104185 0.5281 0.5300 0.5300 0.5300 0.5280
557.550130 0.5249 0.5159 0.5100 0.4980 0.4940
565.996075 0.4842 0.4694 0.4622 0.4543 0.4444
574.442020 0.4307 0.4176 0.4076 0.3967 0.3858
582.887965 0.3739 0.3666 0.3633 0.3585 0.3562
591.333910 0.3542 0.3540 0.3540 0.3540 0.3540
599.779855 0.3540 0.3531 0.3530 0.3513 0.3476
608.225800 0.3387 0.3228 0.3150 0.3041 0.2906
616.671745 0.2815 0.2784 0.2780 0.2796 0.2800
625.117690 0.2816 0.2820 0.2828 0.2937 0.3069
633.563635 0.3258 0.3571 0.3675 0.3665 0.3443
642.009580 0.3087 0.2908 0.2809 0.2759 0.2750
650.455525 0.2799 0.2923 0.3126 0.3361 0.3460
658.901470 0.3865 0.4268 0.4422 0.4476 0.4503
667.347415 0.4510 0.4510 0.4510 0.4498 0.4490
675.793360 0.4478 0.4470 0.4470 0.4470 0.4482
684.239305 0.4490 0.4490 0.4507 0.4531 0.4568
692.685250 0.4661 0.4753 0.4807 0.4846 0.4923
701.131195 0.4996 0.5031 0.5065 0.5080 0.5070
709.577140 0.5045 0.5006 0.4970 0.4960 0.4983
718.023085 0.5028 0.5118 0.5321 0.5549 0.5711
726.469030 0.5820 0.5864 0.5857 0.5832 0.5808
734.914975 0.5770 0.5724 0.5708 0.5735 0.5801
743.360920 0.5929 0.6078 0.6215 0.6346 0.6466
751.806865 0.6605 0.6690 0.6743 0.6780 0.6806
760.252810 0.6811 0.6778 0.6741 0.6714 0.6685
768.698755 0.6592 0.6450 0.6505 0.6650 0.6645
777.144700 0.6622 0.6583 0.6512 0.6445 0.6315
785.590645 0.5863 0.5270 0.5298 0.5446 0.5630
794.036590 0.5719 0.5924 0.5873 0.5450 0.4786
802.482535 0.4543 0.4610 0.4906 0.5196 0.5510
810.928480 0.5868 0.5956 0.6255 0.6720 0.7067
819.374425 0.7163 0.7503 0.7532 0.7550 0.7550
827.820370 0.7550 0.7550 0.7550 0.7549 0.7530
836.266315 0.7529 0.7510 0.7498 0.7459 0.7439
844.712260 0.7409 0.7357 0.7188 0.7109 0.7040
853.158205 0.6970 0.6901 0.6900 0.7233 0.7493
861.604150 0.7510 0.7548 0.7550 0.7502 0.7415
870.050095 0.7335 0.7246 0.7175 0.7170 0.7298
878.496040 0.7428 0.7539 0.7559 0.7560 0.7560
886.941985 0.7560 0.7560 0.7560 0.7560 0.7551
895.387930 0.7533 0.7513 0.7502 0.7483 0.7463
903.833875 0.7460 0.7444 0.7391 0.7308 0.7186
912.279820 0.7049 0.6926 0.6641 0.6406 0.6298
920.725765 0.6280 0.6432 0.6631 0.6680 0.6673
929.171710 0.6560 0.6135 0.5794 0.5474 0.4728
937.617655 0.4293 0.4220 0.4526 0.5032 0.5568
946.063600 0.6537 0.7034 0.7190 0.7253 0.7260
954.509545 0.7260 0.7260 0.7260 0.7260 0.7260
962.955490 0.7260 0.7260 0.7272 0.7286 0.7302
971.401435 0.7322 0.7336 0.7352 0.7360 0.7371
979.847380 0.7380 0.7369 0.7349 0.7324 0.7283
988.293325 0.7212 0.7112 0.7003 0.6734 0.6438
996.739270 0.6325 0.6325 0.6463 0.6831 0.7100
1005.185215 0.7110 0.7110 0.7101 0.7081 0.7011
1013.631160 0.6847 0.6717 0.6713 0.6769 0.6884
1022.077105 0.6991 0.7028 0.7032 0.7016 0.6927
1030.523050 0.6750 0.6624 0.6542 0.6538 0.6561
1038.968995 0.6587 0.6600 0.6593 0.6563 0.6513
1047.414940 0.6437 0.6212 0.5917 0.6075 0.6436
1055.860885 0.6444 0.6424 0.6387 0.6282 0.5949
1064.306830 0.5254 0.4718 0.4242 0.3932 0.3680
1072.752775 0.3771 0.4196 0.4765 0.5214 0.5577
1081.198720 0.5594 0.5448 0.4817 0.4125 0.3868
1089.644665 0.3530 0.3698 0.4454 0.4556 0.5059
1098.090610 0.5472 0.5493 0.5573 0.5580 0.5513
1106.536555 0.5403 0.4906 0.4483 0.4165 0.3872
1114.982500 0.3772 0.3510 0.3547 0.4001 0.4572
1123.428445 0.4970 0.5351 0.5370 0.5368 0.5304
1131.874390 0.4737 0.4180 0.4187 0.4479 0.4794
1140.320335 0.4962 0.5115 0.5650 0.5759 0.5760
1148.766280 0.5672 0.5553 0.5473 0.5431 0.5449
1157.212225 0.5498 0.5643 0.5735 0.5806 0.5912
1165.658170 0.6022 0.6039 0.6058 0.6060 0.6060
1174.104115 0.6060 0.6042 0.6013 0.5966 0.5663
1182.550060 0.5516 0.5311 0.5254 0.5276 0.5399
1190.996005 0.5470 0.5597 0.5802 0.5881 0.5890
1199.441950 0.5890 0.5874 0.5870 0.5870 0.5862
1207.887895 0.5860 0.5860 0.5845 0.5817 0.5780
1216.333840 0.5747 0.5703 0.5624 0.5578 0.5570
1224.779785 0.5585 0.5626 0.5661 0.5670 0.5656
1233.225730 0.5650 0.5643 0.5613 0.5566 0.5530
1241.671675 0.5473 0.5450 0.5404 0.5374 0.5338
1250.117620 0.5276 0.5187 0.5119 0.5075 0.5011
1258.563565 0.4968 0.4912 0.4826 0.4719 0.4612
1267.009510 0.4512 0.4385 0.4236 0.4086 0.3986
1275.455455 0.3872 0.3751 0.3683 0.3617 0.3533
1283.901400 0.3428 0.3191 0.2924 0.2569 0.2310
1292.347345 0.2320 0.2335 0.2340 0.2340 0.2349
1300.793290 0.2383 0.2442 0.2511 0.2563 0.2842
1309.239235 0.3406 0.3972 0.4383 0.4478 0.4482
1317.685180 0.4458 0.4420 0.4355 0.4273 0.4191
1326.131125 0.4088 0.3960 0.3769 0.3538 0.3206
1334.577070 0.2830 0.2877 0.3043 0.3288 0.3490
1343.023015 0.3468 0.3357 0.3137 0.2935 0.2733
1351.468960 0.2330 0.2770 0.3982 0.4205 0.4220
1359.914905 0.4215 0.4156 0.4028 0.3937 0.3647
1368.360850 0.3522 0.3422 0.3268 0.3150 0.2968
1376.806795 0.2819 0.2682 0.2566 0.2350 0.2152
1385.252740 0.1833 0.1784 0.1692 0.1647 0.1628
1393.698685 0.1620 0.1621 0.1637 0.1728 0.2098
1402.144630 0.2399 0.2574 0.2800 0.2991 0.3116
1410.590575 0.3278 0.3361 0.3372 0.3391 0.3414
1419.036520 0.3478 0.3616 0.3732 0.3781 0.3801
1427.482465 0.3841 0.4177 0.4472 0.4560 0.4560
1435.928410 0.4540 0.4451 0.4352 0.4184 0.3758
1444.374355 0.3351 0.3108 0.3100 0.3310 0.3311
1452.820300 0.2859 0.2830 0.3126 0.4318 0.4752
1461.266245 0.4826 0.4839 0.4831 0.4785 0.4718
1469.712190 0.4631 0.4567 0.4499 0.4387 0.4327
1478.158135 0.4243 0.4094 0.3994 0.3838 0.3710
1486.604080 0.3566 0.3483 0.3308 0.3125 0.2937
1495.050025 0.2820 0.2705 0.2617 0.2319 0.2031
1503.495970 0.1709 0.1592 0.1580 0.1580 0.1580
1511.941915 0.1595 0.1615 0.1678 0.1714 0.1741
1520.387860 0.1750 0.1736 0.1709 0.1686 0.1673
1528.833805 0.1656 0.1636 0.1623 0.1620 0.1607
1537.279750 0.1600 0.1613 0.1620 0.1626 0.1630
1545.725695 0.1655 0.1676 0.1692 0.1730 0.1774
1554.171640 0.1796 0.1812 0.1808 0.1783 0.1747
1562.617585 0.1713 0.1689 0.1674 0.1670 0.1670
1571.063530 0.1675 0.1680 0.1706 0.1776 0.1856
1579.509475 0.1967 0.2080 0.2165 0.2284 0.2360
1587.955420 0.2350 0.2255 0.2072 0.1856 0.1697
1596.401365 0.1652 0.1554 0.1341 0.1168 0.1140
1604.847310 0.1157 0.1242 0.1371 0.1518 0.1682
1613.293255 0.1813 0.2076 0.2290 0.2260 0.2166
1621.739200 0.2061 0.2010 0.2031 0.2101 0.2187
1630.185145 0.2304 0.2513 0.2709 0.2789 0.2883
1638.631090 0.3058 0.3279 0.3638 0.4082 0.4374
1647.077035 0.4657 0.4885 0.5083 0.5331 0.5696
1655.522980 0.5942 0.6053 0.6229 0.6398 0.6561
1663.968925 0.6670 0.6659 0.6605 0.6530 0.6421
1672.414870 0.6251 0.5951 0.5503 0.5181 0.4677
1680.860815 0.4607 0.4590 0.4594 0.4650 0.4834
1689.306760 0.4891 0.5127 0.5380 0.5886 0.6290
1697.752705 0.6586 0.6918 0.7188 0.7379 0.7597
1706.198650 0.7813 0.7987 0.8095 0.8177 0.8314
1714.644595 0.8396 0.8513 0.8591 0.8631 0.8681
1723.090540 0.8711 0.8800 0.8850 0.8880 0.8900
1731.536485 0.8900 0.8930 0.8998 0.9000 0.9019
1739.982430 0.9030 0.9049 0.9097 0.9147 0.9178
1748.428375 0.9180 0.9199 0.9200 0.9227 0.9230
1756.874320 0.9248 0.9250 0.9268 0.9288 0.9290
1765.320265 0.9299 0.9300 0.9300 0.9317 0.9320
1773.766210 0.9337 0.9340 0.9340 0.9348 0.9350
1782.212155 0.9366 0.9370 0.9386 0.9390 0.9390
1790.658100 0.9398 0.9400 0.9415 0.9420 0.9435
1799.104045 0.9440 0.9440 0.9440 0.9440 0.9440
1807.549990 0.9447 0.9450 0.9450 0.9450 0.9450
1815.995935 0.9450 0.9450 0.9450 0.9450 0.9450
1824.441880 0.9450 0.9443 0.9440 0.9427 0.9420
1832.887825 0.9407 0.9400 0.9400 0.9400 0.9400
1841.333770 0.9400 0.9400 0.9394 0.9390 0.9390
1849.779715 0.9378 0.9370 0.9370 0.9359 0.9350
1858.225660 0.9350 0.9345 0.9329 0.9320 0.9310
1866.671605 0.9300 0.9300 0.9300 0.9300 0.9300
1875.117550 0.9300 0.9300 0.9300 0.9295 0.9290
1883.563495 0.9290 0.9290 0.9290 0.9290 0.9281
1892.009440 0.9270 0.9270 0.9270 0.9270 0.9270
1900.455385 0.9270 0.9270 0.9270 0.9262 0.9250
1908.901330 0.9250 0.9243 0.9230 0.9230 0.9230
1917.347275 0.9227 0.9213 0.9200 0.9193 0.9177
1925.793220 0.9170 0.9164 0.9144 0.9130 0.9127
1934.239165 0.9120 0.9120 0.9114 0.9100 0.9100
1942.685110 0.9100 0.9100 0.9095 0.9080 0.9080
1951.131055 0.9078 0.9070 0.9066 0.9050 0.9046
1959.577000 0.9030 0.9030 0.9030 0.9030 0.9028
1968.022945 0.9020 0.9017 0.8997 0.8977 0.8958
1976.468890 0.8950 0.8950 0.8947 0.8930 0.8930
1984.914835 0.8930 0.8928 0.8910 0.8904 0.8848
1993.360780 0.8828 0.8809 0.8797 0.8759 0.8749
2001.806725 0.8727 0.8689 0.8680 0.8680 0.8679
2010.252670 0.8659 0.8639 0.8628 0.8589 0.8580
2018.698615 0.8577 0.8540 0.8538 0.8507 0.8469
2027.144560 0.8460 0.8459 0.8439 0.8419 0.8410
2035.590505 0.8409 0.8390 0.8389 0.8370 0.8370
2044.036450 0.8370 0.8371 0.8390 0.8390 0.8390
2052.482395 0.8391 0.8410 0.8410 0.8411 0.8423
2060.928340 0.8462 0.8491 0.8510 0.8511 0.8531
2069.374285 0.8541 0.8560 0.8560 0.8561 0.8580
2077.820230 0.8580 0.8580 0.8580 0.8580 0.8579
2086.266175 0.8560 0.8560 0.8560 0.8559 0.8540
2094.712120 0.8539 0.8530 0.8530 0.8529 0.8510
2103.158065 0.8509 0.8490 0.8490 0.8489 0.8470
2111.604010 0.8469 0.8460 0.8459 0.8440 0.8439
2120.049955 0.8419 0.8410 0.8409 0.8390 0.8390
2128.495900 0.8390 0.8390 0.8389 0.8370 0.8370
2136.941845 0.8370 0.8370 0.8370 0.8369 0.8359
2145.387790 0.8339 0.8319 0.8309 0.8290 0.8289
2153.833735 0.8269 0.8257 0.8219 0.8199 0.8189
2162.279680 0.8170 0.8169 0.8150 0.8149 0.8139
2170.725625 0.8119 0.8099 0.8089 0.8068 0.8040
2179.171570 0.8039 0.8020 0.8020 0.8019 0.8000
2187.617515 0.8000 0.7999 0.7980 0.7980 0.7980
2196.063460 0.7980 0.7980 0.7980 0.7980 0.7979
2204.509405 0.7970 0.7970 0.7967 0.7928 0.7898
2212.955350 0.7870 0.7867 0.7829 0.7818 0.7779
2221.401295 0.7769 0.7747 0.7697 0.7647 0.7609
2229.847240 0.7599 0.7578 0.7547 0.7509 0.7496
2238.293185 0.7439 0.7430 0.7430 0.7430 0.7430
2246.739130 0.7429 0.7409 0.7390 0.7389 0.7379
2255.185075 0.7360 0.7359 0.7340 0.7340 0.7339
2263.631020 0.7329 0.7310 0.7309 0.7290 0.7290
2272.076965 0.7290 0.7289 0.7279 0.7260 0.7260
2280.522910 0.7260 0.7259 0.7240 0.7240 0.7239
2288.968855 0.7219 0.7209 0.7190 0.7189 0.7170
2297.414800 0.7169 0.7160 0.7160 0.7160 0.7160
2305.860745 0.7160 0.7159 0.7140 0.7140 0.7140
2314.306690 0.7140 0.7140 0.7140 0.7140 0.7140
2322.752635 0.7140 0.7140 0.7140 0.7140 0.7140
2331.198580 0.7140 0.7140 0.7140 0.7140 0.7140
2339.644525 0.7140 0.7140 0.7140 0.7140 0.7140
2348.090470 0.7140 0.7140 0.7140 0.7140 0.7139
2356.536415 0.7120 0.7120 0.7119 0.7110 0.7110
2364.982360 0.7110 0.7110 0.7110 0.7110 0.7109
2373.428305 0.7090 0.7090 0.7090 0.7090 0.7090
2381.874250 0.7089 0.7070 0.7070 0.7070 0.7070
2390.320195 0.7070 0.7070 0.7070 0.7070 0.7070
2398.766140 0.7069 0.7060 0.7060 0.7059 0.7040
2407.212085 0.7039 0.7019 0.7010 0.7010 0.7010
2415.658030 0.7010 0.7009 0.6990 0.6990 0.6990
2424.103975 0.6987 0.6950 0.6950 0.6949 0.6939
2432.549920 0.6920 0.6919 0.6898 0.6869 0.6849
2440.995865 0.6837 0.6800 0.6799 0.6789 0.6769
2449.441810 0.6750 0.6749 0.6730 0.6730 0.6730
2457.887755 0.6729 0.6720 0.6720 0.6719 0.6700
2466.333700 0.6700 0.6700 0.6699 0.6680 0.6680
2474.779645 0.6678 0.6649 0.6629 0.6620 0.6619
2483.225590 0.6599 0.6578 0.6548 0.6520 0.6519
2491.671535 0.6500 0.6500 0.6499 0.6480 0.6478
2500.117480 0.6447 0.6397 0.6358 0.6329 0.6310
2508.563425 0.6309 0.6297 0.6259 0.6247 0.6210
2517.009370 0.6210 0.6209 0.6189 0.6180 0.6180
2525.455315 0.6180 0.6180 0.6180 0.6180 0.6180
2533.901260 0.6180 0.6180 0.6180 0.6180 0.6179
2542.347205 0.6160 0.6159 0.6139 0.6129 0.6108
2550.793150 0.6077 0.6029 0.6008 0.5970 0.5969
2559.239095 0.5960 0.5959 0.5939 0.5919 0.5910
2567.685040 0.5910 0.5910 0.5909 0.5890 0.5889
2576.130985 0.5869 0.5859 0.5840 0.5839 0.5820
2584.576930 0.5819 0.5807 0.5768 0.5737 0.5687
2593.022875 0.5639 0.5619 0.5599 0.5590 0.5589
2601.468820 0.5570 0.5570 0.5570 0.5570 0.5570
2609.914765 0.5570 0.5570 0.5570 0.5570 0.5570
2618.360710 0.5570 0.5570 0.5571 0.5590 0.5591
2626.806655 0.5601 0.5620 0.5621 0.5640 0.5641
2635.252600 0.5651 0.5670 0.5670 0.5670 0.5670
2643.698545 0.5670 0.5670 0.5670 0.5670 0.5670
2652.144490 0.5670 0.5670 0.5671 0.5690 0.5690
2660.590435 0.5690 0.5690 0.5690 0.5690 0.5690
2669.036380 0.5690 0.5690 0.5690 0.5690 0.5689
2677.482325 0.5667 0.5618 0.5589 0.5569 0.5550
2685.928270 0.5550 0.5549 0.5539 0.5518 0.5478
2694.374215 0.5448 0.5420 0.5420 0.5419 0.5400
2702.820160 0.5399 0.5379 0.5370 0.5370 0.5370
2711.266105 0.5370 0.5369 0.5349 0.5328 0.5299
2719.712050 0.5280 0.5279 0.5270 0.5269 0.5250
2728.157995 0.5249 0.5230 0.5229 0.5210 0.5210
2736.603940 0.5210 0.5210 0.5209 0.5200 0.5200
2745.049885 0.5200 0.5200 0.5200 0.5200 0.5200
2753.495830 0.5200 0.5200 0.5201 0.5209 0.5200
2761.941775 0.5200 0.5200 0.5199 0.5179 0.5159
2770.387720 0.5149 0.5129 0.5110 0.5110 0.5109
2778.833665 0.5097 0.5058 0.5029 0.5009 0.4999
2787.279610 0.4979 0.4959 0.4939 0.4928 0.4887
2795.725555 0.4839 0.4829 0.4808 0.4779 0.4760
2804.171500 0.4757 0.4719 0.4709 0.4689 0.4670
2812.617445 0.4670 0.4670 0.4669 0.4657 0.4618
2821.063390 0.4590 0.4589 0.4569 0.4558 0.4519
2829.509335 0.4509 0.4487 0.4437 0.4387 0.4337
2837.955280 0.4298 0.4269 0.4248 0.4219 0.4200
2846.401225 0.4199 0.4180 0.4180 0.4180 0.4181
2854.847170 0.4200 0.4200 0.4200 0.4200 0.4201
2863.293115 0.4220 0.4220 0.4220 0.4220 0.4220
2871.739060 0.4220 0.4220 0.4219 0.4200 0.4199
2880.185005 0.4179 0.4167 0.4129 0.4119 0.4099
2888.630950 0.4079 0.4067 0.4029 0.4019 0.3997
2897.076895 0.3945 0.3878 0.3849 0.3830 0.3829
2905.522840 0.3807 0.3757 0.3707 0.3656 0.3588
2913.968785 0.3558 0.3530 0.3527 0.3490 0.3489
2922.414730 0.3470 0.3470 0.3470 0.3471 0.3490
2930.860675 0.3490 0.3491 0.3510 0.3509 0.3490
2939.306620 0.3489 0.3469 0.3460 0.3459 0.3439
2947.752565 0.3420 0.3419 0.3410 0.3411 0.3421
2956.198510 0.3441 0.3461 0.3471 0.3492 0.3531
2964.644455 0.3543 0.3581 0.3596 0.3685 0.3752
2973.090400 0.3782 0.3813 0.3851 0.3863 0.3913
2981.536345 0.3961 0.3981 0.4002 0.4033 0.4070
2989.982290 0.4072 0.4102 0.4131 0.4150 0.4150
2998.428235 0.4150 0.4149 0.4129 0.4117 0.4079
3006.874180 0.4069 0.4048 0.4019 0.3999 0.3978
3015.320125 0.3949 0.3929 0.3910 0.3909 0.3900
3023.766070 0.3899 0.3880 0.3879 0.3860 0.3860
3032.212015 0.3860 0.3859 0.3850 0.3850 0.3850
3040.657960 0.3850 0.3850 0.3850 0.3850 0.3850
3049.103905 0.3850 0.3849 0.3830 0.3830 0.3830
3057.549850 0.3830 0.3830 0.3830 0.3830 0.3829
3065.995795 0.3810 0.3809 0.3800 0.3799 0.3778
3074.441740 0.3750 0.3750 0.3749 0.3730 0.3730
3082.887685 0.3729 0.3710 0.3710 0.3710 0.3710
3091.333630 0.3710 0.3711 0.3730 0.3730 0.3730
3099.779575 0.3731 0.3750 0.3751 0.3760 0.3761
3108.225520 0.3781 0.3801 0.3811 0.3832 0.3861
3116.671465 0.3887 0.3983 0.4024 0.4085 0.4160
3125.117410 0.4306 0.4392 0.4424 0.4496 0.4597
3133.563355 0.4698 0.4821 0.4980 0.4981 0.5000
3142.009300 0.5003 0.5052 0.5083 0.5135 0.5216
3150.455245 0.5305 0.5374 0.5433 0.5472 0.5501
3158.901190 0.5521 0.5541 0.5550 0.5550 0.5551
3167.347135 0.5570 0.5570 0.5570 0.5570 0.5570
3175.793080 0.5570 0.5569 0.5550 0.5550 0.5550
3184.239025 0.5550 0.5549 0.5537 0.5499 0.5479
3192.684970 0.5470 0.5469 0.5449 0.5429 0.5417
3201.130915 0.5378 0.5348 0.5319 0.5298 0.5266
3209.576860 0.5208 0.5177 0.5128 0.5097 0.5045
3218.022805 0.4973 0.4875 0.4809 0.4787 0.4738
3226.468750 0.4707 0.4656 0.4584 0.4486 0.4417
3234.914695 0.4367 0.4318 0.4286 0.4228 0.4198
3243.360640 0.4169 0.4149 0.4130 0.4130 0.4130
3251.806585 0.4131 0.4150 0.4152 0.4180 0.4181
3260.252530 0.4203 0.4253 0.4293 0.4342 0.4372
3268.698475 0.4400 0.4405 0.4473 0.4514 0.4576
3277.144420 0.4665 0.4746 0.4835 0.4914 0.4981
3285.590365 0.5001 0.5016 0.5107 0.5205 0.5271
3294.036310 0.5281 0.5302 0.5332 0.5372 0.5401
3302.482255 0.5420 0.5420 0.5420 0.5420 0.5420
3310.928200 0.5419 0.5399 0.5380 0.5379 0.5369
3319.374145 0.5348 0.5317 0.5269 0.5249 0.5229
3327.820090 0.5209 0.5197 0.5148 0.5107 0.5053
3336.266035 0.4959 0.4936 0.4877 0.4827 0.4789
3344.711980 0.4777 0.4739 0.4719 0.4710 0.4709
3353.157925 0.4690 0.4690 0.4690 0.4690 0.4690
3361.603870 0.4690 0.4690 0.4690 0.4689 0.4668
3370.049815 0.4639 0.4620 0.4619 0.4610 0.4607
3378.495760 0.4568 0.4536 0.4464 0.4361 0.4226
3386.941705 0.4167 0.4114 0.4025 0.3955 0.3875
3395.387650 0.3797 0.3760 0.3761 0.3783 0.3832
3403.833595 0.3863 0.3915 0.3983 0.4027 0.4123
3412.279540 0.4180 0.4331 0.4496 0.4598 0.4732
3420.725485 0.4896 0.4983 0.5033 0.5091 0.5258
3429.171430 0.5386 0.5487 0.5594 0.5657 0.5775
3437.617375 0.5849 0.5975 0.6049 0.6183 0.6235
3446.063320 0.6303 0.6352 0.6387 0.6507 0.6620
3454.509265 0.6624 0.6683 0.6734 0.6791 0.6803
3462.955210 0.6853 0.6896 0.6990 0.6995 0.7073
3471.401155 0.7123 0.7173 0.7213 0.7262 0.7295
3479.847100 0.7365 0.7434 0.7502 0.7532 0.7563
3488.293045 0.7605 0.7682 0.7714 0.7772 0.7802
3496.738990 0.7831 0.7853 0.7902 0.7932 0.7972
3505.184935 0.8003 0.8043 0.8092 0.8121 0.8142
3513.630880 0.8173 0.8223 0.8262 0.8293 0.8342
3522.076825 0.8370 0.8371 0.8391 0.8411 0.8423
3530.522770 0.8471 0.8493 0.8532 0.8561 0.8581
3538.968715 0.8593 0.8632 0.8661 0.8681 0.8690
3547.414660 0.8691 0.8711 0.8732 0.8762 0.8803
3555.860605 0.8852 0.8881 0.8901 0.8911 0.8930
3564.306550 0.8931 0.8950 0.8952 0.8980 0.8980
3572.752495 0.8980 0.8981 0.9000 0.9000 0.9001
3581.198440 0.9020 0.9021 0.9031 0.9051 0.9070
3589.644385 0.9070 0.9071 0.9080 0.9081 0.9100
3598.090330 0.9100 0.9101 0.9120 0.9120 0.9120
3606.536275 0.9121 0.9130 0.9130 0.9130 0.9130
3614.982220 0.9130 0.9131 0.9150 0.9150 0.9150
3623.428165 0.9150 0.9150 0.9150 0.9150 0.9150
3631.874110 0.9150 0.9150 0.9149 0.9130 0.9130
3640.320055 0.9130 0.9130 0.9130 0.9130 0.9130
3648.766000 0.9129 0.9120 0.9120 0.9120 0.9120
3657.211945 0.9120 0.9120 0.9120 0.9120 0.9120
3665.657890 0.9120 0.9120 0.9120 0.9120 0.9120
3674.103835 0.9117 0.9078 0.9050 0.9049 0.9030
3682.549780 0.9030 0.9030 0.9030 0.9029 0.9019
3690.995725 0.9000 0.9000 0.9000 0.9000 0.9000
3699.441670 0.9000 0.8999 0.8980 0.8980 0.8980
3707.887615 0.8979 0.8960 0.8959 0.8949 0.8930
3716.333560 0.8929 0.8909 0.8900 0.8900 0.8900
3724.779505 0.8899 0.8880 0.8879 0.8860 0.8860
3733.225450 0.8860 0.8860 0.8860 0.8859 0.8850
3741.671395 0.8849 0.8829 0.8810 0.8810 0.8809
3750.117340 0.8799 0.8779 0.8759 0.8750 0.8749
3758.563285 0.8730 0.8730 0.8730 0.8729 0.8710
3767.009230 0.8710 0.8709 0.8690 0.8690 0.8690
3775.455175 0.8690 0.8690 0.8690 0.8690 0.8690
3783.901120 0.8690 0.8689 0.8680 0.8680 0.8680
3792.347065 0.8680 0.8680 0.8680 0.8680 0.8679
3800.793010 0.8660 0.8660 0.8659 0.8640 0.8640
3809.238955 0.8640 0.8640 0.8640 0.8639 0.8629
3817.684900 0.8610 0.8609 0.8590 0.8590 0.8590
3826.130845 0.8590 0.8590 0.8590 0.8589 0.8579
3834.576790 0.8560 0.8559 0.8540 0.8539 0.8530
3843.022735 0.8529 0.8510 0.8509 0.8490 0.8489
3851.468680 0.8470 0.8470 0.8469 0.8460 0.8460
3859.914625 0.8459 0.8440 0.8440 0.8439 0.8420
3868.360570 0.8420 0.8419 0.8410 0.8409 0.8390
3876.806515 0.8390 0.8390 0.8389 0.8370 0.8370
3885.252460 0.8369 0.8359 0.8340 0.8340 0.8339
##END=
