##TITLE=p-(2-DIMETHYLAMINOETHYL)PHENOL, SULFATE
##JCAMP-DX=4.24
##DATA TYPE=INFRARED SPECTRUM
##CLASS=COBLENTZ
##ORIGIN=CITRUS EXPERIMENT STATION, UNIVERSITY OF FLORIDA (G. EDWARDS)
##OWNER=COBLENTZ SOCIETY
Collection (C) 2018 copyright by the U.S. Secretary of Commerce
on behalf of the United States of America. All rights reserved.
##DATE=Not specified, most likely prior to 1970
##NAMES=sulfuric acid compound with 4-[2-(dimethylamino)ethyl]phenol (1:1)
##MOLFORM=C10 H15 N O  * H2 S O4
##SOURCE REFERENCE=COBLENTZ NO. 3622
##$NIST ID=B6003622
##$NIST SOURCE=COBLENTZ
##$NIST IMAGE=cob3622
##SPECTROMETER/DATA SYSTEM=Not specified, most likely a grating spectrometer.
##STATE=SOLID (1.5 mg / 100 mg KBr PELLET)
##SAMPLING PROCEDURE=TRANSMISSION
##RESOLUTION=4
##DATA PROCESSING=DIGITIZED BY NIST FROM HARD COPY
##XUNITS=MICROMETERS
##YUNITS=TRANSMITTANCE
##XFACTOR=1.000000
##YFACTOR=1
##DELTAX=000.006038
##FIRSTX=2
##LASTX=14.982
##FIRSTY=0.618
##MAXX=14.982
##MINX=2
##MAXY=0.987
##MINY=0.335
##NPOINTS=2151
##XYDATA=(X++(Y..Y))
2.000000 0.6180 0.6180 0.6190 0.6190 0.6200
2.030204 0.6200 0.6210 0.6210 0.6240 0.6240
2.060000 0.6250 0.6250 0.6250 0.6270 0.6270
2.090204 0.6290 0.6300 0.6310 0.6310 0.6330
2.121000 0.6330 0.6350 0.6350 0.6330 0.6330
2.151204 0.6350 0.6360 0.6370 0.6370 0.6370
2.181000 0.6380 0.6410 0.6430 0.6440 0.6470
2.211204 0.6480 0.6490 0.6500 0.6520 0.6530
2.242000 0.6530 0.6540 0.6540 0.6550 0.6550
2.272204 0.6540 0.6540 0.6560 0.6590 0.6610
2.302000 0.6610 0.6640 0.6670 0.6670 0.6690
2.332204 0.6690 0.6690 0.6700 0.6700 0.6700
2.362000 0.6710 0.6710 0.6720 0.6730 0.6750
2.392204 0.6770 0.6780 0.6800 0.6800 0.6810
2.423000 0.6810 0.6820 0.6830 0.6840 0.6860
2.453204 0.6880 0.6880 0.6900 0.6920 0.6920
2.483000 0.6930 0.6930 0.6940 0.6960 0.6990
2.513204 0.6990 0.7000 0.7000 0.7010 0.7010
2.543000 0.7040 0.7040 0.7060 0.7060 0.7060
2.573204 0.7060 0.7060 0.7070 0.7090 0.7090
2.604000 0.7090 0.7090 0.7070 0.7070 0.7090
2.634204 0.7090 0.7090 0.7090 0.7090 0.7090
2.664000 0.7050 0.7050 0.7050 0.7050 0.7040
2.694204 0.7030 0.7000 0.7000 0.6990 0.6990
2.725000 0.6990 0.6980 0.6980 0.6980 0.6980
2.755204 0.6980 0.6980 0.6960 0.6950 0.6940
2.785000 0.6930 0.6900 0.6880 0.6840 0.6830
2.815204 0.6830 0.6820 0.6820 0.6810 0.6810
2.845000 0.6780 0.6750 0.6710 0.6700 0.6690
2.875204 0.6690 0.6670 0.6650 0.6610 0.6590
2.906000 0.6540 0.6500 0.6480 0.6440 0.6400
2.936204 0.6330 0.6300 0.6290 0.6230 0.6150
2.966000 0.6120 0.6090 0.6040 0.5950 0.5870
2.996204 0.5740 0.5580 0.5450 0.5380 0.5230
3.026000 0.5120 0.5000 0.4880 0.4800 0.4710
3.056204 0.4610 0.4600 0.4520 0.4500 0.4500
3.087000 0.4580 0.4630 0.4750 0.4900 0.5030
3.117204 0.5200 0.5350 0.5430 0.5600 0.5730
3.147000 0.5810 0.5900 0.6000 0.6040 0.6120
3.177204 0.6180 0.6250 0.6300 0.6360 0.6410
3.208000 0.6440 0.6460 0.6480 0.6490 0.6490
3.238204 0.6480 0.6470 0.6440 0.6400 0.6380
3.268000 0.6320 0.6240 0.6180 0.6090 0.6020
3.298204 0.6010 0.6000 0.5960 0.5890 0.5750
3.328000 0.5610 0.5490 0.5490 0.5510 0.5580
3.358204 0.5690 0.5790 0.5910 0.6020 0.6090
3.389000 0.6230 0.6300 0.6460 0.6520 0.6590
3.419204 0.6650 0.6710 0.6750 0.6780 0.6800
3.449000 0.6800 0.6830 0.6880 0.6890 0.6900
3.479204 0.6930 0.6940 0.6940 0.6930 0.6900
3.510000 0.6880 0.6880 0.6820 0.6800 0.6720
3.540204 0.6690 0.6590 0.6470 0.6310 0.6120
3.570000 0.5970 0.5790 0.5640 0.5520 0.5390
3.600204 0.5360 0.5360 0.5390 0.5410 0.5500
3.630000 0.5550 0.5620 0.5690 0.5800 0.5900
3.660204 0.6020 0.6200 0.6290 0.6410 0.6520
3.691000 0.6630 0.6730 0.6820 0.6880 0.6920
3.721204 0.6980 0.7000 0.7060 0.7090 0.7100
3.751000 0.7120 0.7150 0.7200 0.7240 0.7280
3.781204 0.7280 0.7290 0.7300 0.7300 0.7300
3.811000 0.7320 0.7330 0.7350 0.7380 0.7400
3.841204 0.7430 0.7450 0.7450 0.7470 0.7490
3.872000 0.7490 0.7490 0.7490 0.7500 0.7580
3.902204 0.7630 0.7660 0.7670 0.7680 0.7680
3.932000 0.7720 0.7730 0.7740 0.7780 0.7780
3.962204 0.7790 0.7780 0.7780 0.7750 0.7730
3.993000 0.7680 0.7670 0.7660 0.7640 0.7660
4.023204 0.7670 0.7680 0.7700 0.7730 0.7780
4.053000 0.7800 0.7850 0.7890 0.7900 0.7910
4.083204 0.7920 0.7930 0.7980 0.8010 0.8040
4.113000 0.8090 0.8120 0.8150 0.8200 0.8230
4.143204 0.8250 0.8300 0.8330 0.8350 0.8380
4.174000 0.8380 0.8410 0.8420 0.8430 0.8440
4.204204 0.8440 0.8470 0.8480 0.8490 0.8500
4.234000 0.8500 0.8520 0.8520 0.8540 0.8540
4.264204 0.8540 0.8550 0.8550 0.8550 0.8560
4.294000 0.8580 0.8590 0.8590 0.8590 0.8590
4.324204 0.8580 0.8580 0.8590 0.8590 0.8600
4.355000 0.8600 0.8600 0.8600 0.8630 0.8640
4.385204 0.8650 0.8650 0.8660 0.8660 0.8690
4.415000 0.8690 0.8690 0.8690 0.8710 0.8720
4.445204 0.8730 0.8730 0.8730 0.8730 0.8750
4.476000 0.8750 0.8750 0.8760 0.8780 0.8800
4.506204 0.8810 0.8810 0.8830 0.8840 0.8860
4.536000 0.8880 0.8880 0.8880 0.8880 0.8880
4.566204 0.8880 0.8880 0.8880 0.8880 0.8890
4.596000 0.8890 0.8890 0.8880 0.8880 0.8880
4.626204 0.8880 0.8880 0.8880 0.8880 0.8880
4.657000 0.8880 0.8880 0.8880 0.8880 0.8880
4.687204 0.8880 0.8880 0.8880 0.8880 0.8880
4.717000 0.8880 0.8880 0.8880 0.8880 0.8880
4.747204 0.8890 0.8900 0.8920 0.8920 0.8920
4.778000 0.8950 0.8980 0.9000 0.9010 0.9010
4.808204 0.9010 0.9010 0.9030 0.9030 0.9030
4.838000 0.9040 0.9040 0.9040 0.9040 0.9040
4.868204 0.9050 0.9050 0.9050 0.9050 0.9050
4.898000 0.9050 0.9050 0.9050 0.9040 0.9040
4.928204 0.9050 0.9050 0.9060 0.9060 0.9060
4.959000 0.9070 0.9070 0.9070 0.9070 0.9090
4.989204 0.9090 0.9100 0.9100 0.9100 0.9100
5.019000 0.9100 0.9100 0.9110 0.9120 0.9120
5.049204 0.9130 0.9130 0.9130 0.9130 0.9130
5.079000 0.9130 0.9130 0.9150 0.9150 0.9150
5.109204 0.9150 0.9150 0.9150 0.9130 0.9130
5.140000 0.9120 0.9120 0.9110 0.9110 0.9100
5.170204 0.9100 0.9100 0.9110 0.9110 0.9100
5.200000 0.9090 0.9090 0.9090 0.9060 0.9030
5.230204 0.9010 0.8990 0.8960 0.8900 0.8900
5.261000 0.8990 0.9010 0.9100 0.9130 0.9170
5.291204 0.9180 0.9210 0.9210 0.9210 0.9210
5.321000 0.9210 0.9220 0.9240 0.9260 0.9270
5.351204 0.9280 0.9280 0.9270 0.9270 0.9270
5.381000 0.9270 0.9270 0.9280 0.9280 0.9280
5.411204 0.9280 0.9280 0.9280 0.9280 0.9280
5.442000 0.9280 0.9280 0.9280 0.9270 0.9270
5.472204 0.9260 0.9260 0.9240 0.9240 0.9230
5.502000 0.9230 0.9220 0.9210 0.9210 0.9210
5.532204 0.9210 0.9210 0.9210 0.9210 0.9220
5.562000 0.9220 0.9220 0.9220 0.9220 0.9220
5.592204 0.9210 0.9210 0.9210 0.9210 0.9220
5.623000 0.9220 0.9210 0.9200 0.9180 0.9170
5.653204 0.9160 0.9150 0.9120 0.9110 0.9100
5.683000 0.9090 0.9090 0.9100 0.9110 0.9110
5.713204 0.9110 0.9110 0.9110 0.9110 0.9110
5.744000 0.9110 0.9120 0.9120 0.9120 0.9110
5.774204 0.9090 0.9090 0.9090 0.9090 0.9090
5.804000 0.9090 0.9070 0.9070 0.9060 0.9040
5.834204 0.9030 0.9030 0.9010 0.9010 0.9010
5.864000 0.9010 0.9000 0.9000 0.8990 0.8980
5.894204 0.8940 0.8900 0.8900 0.8890 0.8890
5.925000 0.8880 0.8860 0.8830 0.8780 0.8760
5.955204 0.8750 0.8750 0.8750 0.8730 0.8720
5.985000 0.8700 0.8670 0.8640 0.8610 0.8600
6.015204 0.8590 0.8560 0.8560 0.8550 0.8530
6.046000 0.8520 0.8500 0.8500 0.8480 0.8480
6.076204 0.8410 0.8350 0.8330 0.8300 0.8270
6.106000 0.8240 0.8140 0.8010 0.7850 0.7720
6.136204 0.7560 0.7430 0.7330 0.7200 0.7070
6.166000 0.7000 0.7010 0.7100 0.7260 0.7520
6.196204 0.7930 0.8120 0.8100 0.8060 0.8000
6.227000 0.7860 0.7760 0.7760 0.7860 0.8200
6.257204 0.8500 0.8660 0.8800 0.8860 0.8890
6.287000 0.8900 0.8900 0.8870 0.8830 0.8780
6.317204 0.8720 0.8710 0.8700 0.8650 0.8600
6.347000 0.8580 0.8520 0.8420 0.8380 0.8290
6.377204 0.8190 0.8130 0.8100 0.8090 0.8090
6.408000 0.8080 0.8030 0.7980 0.7850 0.7750
6.438204 0.7520 0.7360 0.7320 0.7300 0.7300
6.468000 0.7300 0.7290 0.7240 0.7200 0.7110
6.498204 0.7030 0.6950 0.6820 0.6710 0.6660
6.529000 0.6660 0.6670 0.6700 0.6720 0.6760
6.559204 0.6900 0.7060 0.7290 0.7390 0.7610
6.589000 0.7800 0.7950 0.8010 0.8010 0.8010
6.619204 0.8010 0.8000 0.7980 0.7930 0.7920
6.649000 0.7910 0.7890 0.7810 0.7690 0.7510
6.679204 0.7380 0.7330 0.7280 0.7220 0.7180
6.710000 0.7110 0.7000 0.6920 0.6830 0.6770
6.740204 0.6710 0.6690 0.6690 0.6700 0.6710
6.770000 0.6710 0.6710 0.6700 0.6690 0.6690
6.800204 0.6700 0.6760 0.6840 0.7040 0.7210
6.830000 0.7400 0.7440 0.7440 0.7410 0.7390
6.860204 0.7340 0.7220 0.7130 0.7100 0.7090
6.891000 0.7110 0.7260 0.7380 0.7450 0.7600
6.921204 0.7730 0.7800 0.7910 0.7920 0.7910
6.951000 0.7900 0.7850 0.7830 0.7800 0.7760
6.981204 0.7750 0.7690 0.7660 0.7660 0.7720
7.012000 0.7810 0.7920 0.8040 0.8200 0.8300
7.042204 0.8330 0.8420 0.8500 0.8530 0.8600
7.072000 0.8640 0.8720 0.8770 0.8800 0.8800
7.102204 0.8800 0.8760 0.8720 0.8710 0.8700
7.132000 0.8700 0.8700 0.8690 0.8670 0.8660
7.162204 0.8640 0.8600 0.8500 0.8440 0.8440
7.193000 0.8420 0.8410 0.8400 0.8350 0.8310
7.223204 0.8240 0.8210 0.8130 0.8040 0.8010
7.253000 0.8000 0.7950 0.7910 0.7850 0.7810
7.283204 0.7740 0.7730 0.7620 0.7500 0.7460
7.314000 0.7450 0.7450 0.7450 0.7450 0.7460
7.344204 0.7500 0.7520 0.7550 0.7600 0.7620
7.374000 0.7690 0.7740 0.7830 0.7960 0.8100
7.404204 0.8320 0.8420 0.8590 0.8730 0.8800
7.434000 0.8810 0.8820 0.8820 0.8810 0.8760
7.464204 0.8710 0.8670 0.8660 0.8650 0.8630
7.495000 0.8630 0.8660 0.8710 0.8730 0.8810
7.525204 0.8870 0.8900 0.8950 0.8980 0.9000
7.555000 0.9000 0.9000 0.8990 0.8960 0.8930
7.585204 0.8920 0.8900 0.8890 0.8840 0.8810
7.615000 0.8800 0.8730 0.8710 0.8670 0.8640
7.645204 0.8610 0.8600 0.8540 0.8500 0.8470
7.676000 0.8460 0.8440 0.8430 0.8420 0.8410
7.706204 0.8400 0.8380 0.8350 0.8310 0.8300
7.736000 0.8270 0.8250 0.8230 0.8210 0.8200
7.766204 0.8130 0.8020 0.7950 0.7890 0.7850
7.797000 0.7690 0.7550 0.7500 0.7430 0.7340
7.827204 0.7290 0.7200 0.7090 0.6990 0.6880
7.857000 0.6780 0.6700 0.6580 0.6490 0.6400
7.887204 0.6270 0.6210 0.6140 0.6130 0.6120
7.917000 0.6120 0.6130 0.6140 0.6140 0.6130
7.947204 0.6120 0.6120 0.6130 0.6190 0.6290
7.978000 0.6400 0.6500 0.6610 0.6750 0.6870
8.008204 0.6960 0.7100 0.7120 0.7120 0.7110
8.038000 0.7090 0.7090 0.7040 0.7010 0.6890
8.068204 0.6800 0.6700 0.6610 0.6500 0.6430
8.098000 0.6230 0.6080 0.5960 0.5830 0.5720
8.128204 0.5630 0.5560 0.5510 0.5500 0.5510
8.159000 0.5600 0.5690 0.5740 0.5830 0.6010
8.189204 0.6080 0.6160 0.6400 0.6590 0.6720
8.219000 0.6810 0.6900 0.7100 0.7230 0.7290
8.249204 0.7350 0.7400 0.7430 0.7440 0.7450
8.280000 0.7500 0.7520 0.7600 0.7720 0.7790
8.310204 0.7860 0.7930 0.7950 0.7970 0.7970
8.340000 0.7970 0.7970 0.7960 0.7950 0.7930
8.370204 0.7900 0.7850 0.7810 0.7790 0.7730
8.400000 0.7600 0.7490 0.7410 0.7350 0.7290
8.430204 0.7220 0.7120 0.7060 0.6930 0.6830
8.461000 0.6750 0.6640 0.6520 0.6410 0.6300
8.491204 0.6200 0.6100 0.6000 0.5950 0.5930
8.521000 0.5920 0.5900 0.5860 0.5790 0.5760
8.551204 0.5700 0.5610 0.5550 0.5520 0.5500
8.582000 0.5500 0.5460 0.5450 0.5390 0.5290
8.612204 0.5220 0.5150 0.5040 0.4940 0.4840
8.642000 0.4730 0.4700 0.4600 0.4540 0.4490
8.672204 0.4430 0.4400 0.4360 0.4300 0.4290
8.702000 0.4200 0.4160 0.4140 0.4100 0.4090
8.732204 0.4090 0.4040 0.4010 0.4000 0.4000
8.763000 0.3960 0.3950 0.3920 0.3910 0.3910
8.793204 0.3900 0.3900 0.3860 0.3850 0.3830
8.823000 0.3800 0.3750 0.3700 0.3660 0.3660
8.853204 0.3640 0.3640 0.3620 0.3600 0.3520
8.883000 0.3500 0.3440 0.3410 0.3390 0.3390
8.913204 0.3380 0.3360 0.3350 0.3350 0.3350
8.944000 0.3360 0.3360 0.3360 0.3380 0.3400
8.974204 0.3440 0.3460 0.3500 0.3510 0.3610
9.004000 0.3620 0.3670 0.3700 0.3790 0.3800
9.034204 0.3830 0.3900 0.4010 0.4090 0.4120
9.065000 0.4150 0.4200 0.4260 0.4300 0.4370
9.095204 0.4460 0.4520 0.4650 0.4770 0.4840
9.125000 0.5000 0.5010 0.5110 0.5210 0.5300
9.155204 0.5330 0.5410 0.5450 0.5510 0.5600
9.185000 0.5660 0.5700 0.5750 0.5890 0.5930
9.215204 0.6010 0.6030 0.6080 0.6140 0.6210
9.246000 0.6290 0.6310 0.6330 0.6400 0.6430
9.276204 0.6490 0.6520 0.6590 0.6600 0.6690
9.306000 0.6730 0.6780 0.6810 0.6840 0.6890
9.336204 0.6930 0.6990 0.7010 0.7090 0.7100
9.366000 0.7120 0.7130 0.7180 0.7210 0.7230
9.396204 0.7240 0.7270 0.7290 0.7290 0.7350
9.427000 0.7360 0.7390 0.7390 0.7400 0.7400
9.457204 0.7450 0.7500 0.7510 0.7520 0.7530
9.487000 0.7570 0.7620 0.7660 0.7680 0.7690
9.517204 0.7670 0.7660 0.7630 0.7620 0.7610
9.548000 0.7610 0.7610 0.7620 0.7620 0.7630
9.578204 0.7660 0.7690 0.7720 0.7790 0.7810
9.608000 0.7840 0.7860 0.7900 0.7910 0.7950
9.638204 0.8000 0.8000 0.8020 0.8020 0.8030
9.668000 0.8030 0.8030 0.8020 0.8020 0.8010
9.698204 0.8000 0.7960 0.7960 0.7950 0.7950
9.729000 0.7950 0.7960 0.7980 0.8020 0.8070
9.759204 0.8120 0.8190 0.8200 0.8210 0.8260
9.789000 0.8270 0.8270 0.8290 0.8290 0.8270
9.819204 0.8260 0.8260 0.8250 0.8250 0.8250
9.850000 0.8260 0.8260 0.8300 0.8360 0.8420
9.880204 0.8520 0.8550 0.8580 0.8590 0.8590
9.910000 0.8590 0.8590 0.8590 0.8590 0.8580
9.940204 0.8560 0.8550 0.8540 0.8500 0.8490
9.970000 0.8460 0.8410 0.8360 0.8270 0.8150
10.000204 0.8030 0.7910 0.7810 0.7670 0.7550
10.031000 0.7470 0.7470 0.7500 0.7560 0.7600
10.061204 0.7730 0.7900 0.8010 0.8120 0.8210
10.091000 0.8300 0.8430 0.8500 0.8520 0.8590
10.121204 0.8600 0.8600 0.8610 0.8610 0.8610
10.151000 0.8600 0.8600 0.8600 0.8610 0.8650
10.181204 0.8770 0.8800 0.8900 0.9000 0.9010
10.212000 0.9040 0.9100 0.9100 0.9120 0.9150
10.242204 0.9170 0.9180 0.9200 0.9200 0.9200
10.272000 0.9200 0.9200 0.9180 0.9160 0.9120
10.302204 0.9040 0.9010 0.8930 0.8890 0.8800
10.333000 0.8640 0.8500 0.8380 0.8130 0.7930
10.363204 0.7800 0.7520 0.7350 0.7150 0.7000
10.393000 0.6880 0.6690 0.6590 0.6580 0.6580
10.423204 0.6610 0.6700 0.6780 0.6900 0.7000
10.453000 0.7110 0.7230 0.7340 0.7500 0.7580
10.483204 0.7660 0.7780 0.7900 0.8020 0.8120
10.514000 0.8210 0.8300 0.8310 0.8410 0.8440
10.544204 0.8500 0.8550 0.8600 0.8640 0.8710
10.574000 0.8750 0.8780 0.8800 0.8810 0.8820
10.604204 0.8860 0.8890 0.8920 0.8940 0.8960
10.634000 0.9000 0.9010 0.9010 0.9030 0.9030
10.664204 0.9030 0.9010 0.9010 0.9010 0.9010
10.695000 0.9010 0.9030 0.9030 0.9050 0.9050
10.725204 0.9070 0.9100 0.9130 0.9160 0.9200
10.755000 0.9220 0.9240 0.9260 0.9270 0.9290
10.785204 0.9300 0.9320 0.9330 0.9350 0.9360
10.816000 0.9390 0.9400 0.9440 0.9450 0.9460
10.846204 0.9500 0.9510 0.9520 0.9520 0.9530
10.876000 0.9550 0.9550 0.9560 0.9560 0.9560
10.906204 0.9560 0.9560 0.9550 0.9550 0.9550
10.936000 0.9560 0.9560 0.9560 0.9560 0.9570
10.966204 0.9580 0.9580 0.9580 0.9580 0.9580
10.997000 0.9580 0.9600 0.9600 0.9610 0.9610
11.027204 0.9610 0.9620 0.9620 0.9660 0.9660
11.057000 0.9670 0.9690 0.9690 0.9700 0.9720
11.087204 0.9720 0.9730 0.9730 0.9730 0.9720
11.118000 0.9720 0.9720 0.9730 0.9730 0.9720
11.148204 0.9720 0.9730 0.9730 0.9730 0.9740
11.178000 0.9740 0.9750 0.9760 0.9760 0.9780
11.208204 0.9780 0.9790 0.9790 0.9790 0.9790
11.238000 0.9790 0.9790 0.9790 0.9800 0.9810
11.268204 0.9810 0.9830 0.9840 0.9840 0.9840
11.299000 0.9850 0.9840 0.9840 0.9850 0.9850
11.329204 0.9850 0.9860 0.9860 0.9860 0.9860
11.359000 0.9870 0.9870 0.9870 0.9860 0.9860
11.389204 0.9860 0.9850 0.9850 0.9850 0.9850
11.419000 0.9850 0.9850 0.9840 0.9830 0.9810
11.449204 0.9800 0.9790 0.9790 0.9740 0.9700
11.480000 0.9680 0.9660 0.9630 0.9580 0.9530
11.510204 0.9490 0.9400 0.9320 0.9210 0.9120
11.540000 0.9010 0.8900 0.8730 0.8630 0.8540
11.570204 0.8520 0.8500 0.8520 0.8540 0.8590
11.601000 0.8670 0.8750 0.8830 0.8940 0.9010
11.631204 0.9120 0.9220 0.9260 0.9330 0.9400
11.661000 0.9430 0.9470 0.9510 0.9530 0.9570
11.691204 0.9600 0.9610 0.9620 0.9620 0.9620
11.721000 0.9620 0.9610 0.9610 0.9600 0.9600
11.751204 0.9600 0.9570 0.9550 0.9510 0.9450
11.782000 0.9430 0.9410 0.9300 0.9230 0.9200
11.812204 0.9150 0.9100 0.9010 0.9000 0.8920
11.842000 0.8860 0.8810 0.8720 0.8700 0.8640
11.872204 0.8600 0.8550 0.8540 0.8530 0.8500
11.902000 0.8500 0.8480 0.8460 0.8420 0.8410
11.932204 0.8360 0.8310 0.8260 0.8200 0.8130
11.963000 0.8040 0.8000 0.7840 0.7730 0.7610
11.993204 0.7470 0.7320 0.7110 0.6960 0.6760
12.023000 0.6520 0.6320 0.6030 0.5810 0.5610
12.053204 0.5410 0.5230 0.5120 0.5110 0.5110
12.084000 0.5120 0.5150 0.5220 0.5320 0.5350
12.114204 0.5410 0.5510 0.5690 0.5840 0.6020
12.144000 0.6240 0.6440 0.6590 0.6700 0.6900
12.174204 0.7030 0.7200 0.7340 0.7410 0.7600
12.204000 0.7760 0.7800 0.7910 0.8000 0.8090
12.234204 0.8200 0.8300 0.8360 0.8420 0.8490
12.265000 0.8540 0.8610 0.8700 0.8770 0.8800
12.295204 0.8840 0.8890 0.8900 0.8940 0.8990
12.325000 0.9000 0.9000 0.9030 0.9050 0.9060
12.355204 0.9070 0.9070 0.9090 0.9100 0.9110
12.386000 0.9130 0.9160 0.9170 0.9180 0.9200
12.416204 0.9210 0.9220 0.9230 0.9270 0.9290
12.446000 0.9300 0.9320 0.9320 0.9330 0.9340
12.476204 0.9350 0.9360 0.9390 0.9430 0.9470
12.506000 0.9490 0.9500 0.9500 0.9510 0.9520
12.536204 0.9520 0.9530 0.9530 0.9530 0.9530
12.567000 0.9520 0.9520 0.9520 0.9510 0.9510
12.597204 0.9500 0.9500 0.9500 0.9500 0.9500
12.627000 0.9500 0.9460 0.9440 0.9430 0.9430
12.657204 0.9410 0.9400 0.9390 0.9390 0.9350
12.687000 0.9340 0.9300 0.9260 0.9220 0.9200
12.717204 0.9120 0.9100 0.9010 0.8990 0.8900
12.748000 0.8860 0.8830 0.8820 0.8830 0.8830
12.778204 0.8840 0.8870 0.8900 0.8950 0.9000
12.808000 0.9030 0.9040 0.9110 0.9120 0.9160
12.838204 0.9200 0.9210 0.9230 0.9240 0.9270
12.869000 0.9290 0.9300 0.9320 0.9320 0.9330
12.899204 0.9350 0.9360 0.9360 0.9360 0.9380
12.929000 0.9380 0.9390 0.9410 0.9410 0.9430
12.959204 0.9430 0.9430 0.9440 0.9440 0.9440
12.989000 0.9430 0.9430 0.9430 0.9400 0.9400
13.019204 0.9350 0.9320 0.9280 0.9230 0.9210
13.050000 0.9210 0.9170 0.9150 0.9120 0.9100
13.080204 0.9070 0.9040 0.9000 0.8980 0.8980
13.110000 0.8990 0.8990 0.9010 0.9040 0.9100
13.140204 0.9110 0.9130 0.9170 0.9210 0.9220
13.170000 0.9240 0.9270 0.9320 0.9350 0.9410
13.200204 0.9440 0.9450 0.9470 0.9500 0.9500
13.231000 0.9510 0.9520 0.9520 0.9520 0.9530
13.261204 0.9560 0.9570 0.9580 0.9600 0.9600
13.291000 0.9600 0.9600 0.9600 0.9600 0.9600
13.321204 0.9580 0.9580 0.9580 0.9600 0.9600
13.352000 0.9610 0.9610 0.9610 0.9610 0.9610
13.382204 0.9610 0.9610 0.9610 0.9610 0.9610
13.412000 0.9610 0.9610 0.9600 0.9600 0.9600
13.442204 0.9600 0.9600 0.9580 0.9570 0.9570
13.472000 0.9570 0.9570 0.9570 0.9580 0.9580
13.502204 0.9580 0.9570 0.9570 0.9570 0.9570
13.533000 0.9570 0.9570 0.9570 0.9570 0.9560
13.563204 0.9560 0.9560 0.9560 0.9560 0.9550
13.593000 0.9550 0.9550 0.9550 0.9550 0.9550
13.623204 0.9550 0.9550 0.9530 0.9520 0.9510
13.654000 0.9490 0.9490 0.9460 0.9450 0.9440
13.684204 0.9440 0.9410 0.9410 0.9410 0.9410
13.714000 0.9410 0.9410 0.9410 0.9410 0.9400
13.744204 0.9390 0.9390 0.9390 0.9390 0.9360
13.774000 0.9360 0.9350 0.9350 0.9350 0.9350
13.804204 0.9350 0.9350 0.9340 0.9330 0.9330
13.835000 0.9320 0.9320 0.9300 0.9290 0.9270
13.865204 0.9260 0.9240 0.9220 0.9220 0.9220
13.895000 0.9220 0.9220 0.9210 0.9200 0.9170
13.925204 0.9170 0.9160 0.9160 0.9160 0.9150
13.955000 0.9130 0.9120 0.9120 0.9120 0.9120
13.985204 0.9130 0.9130 0.9150 0.9150 0.9170
14.016000 0.9180 0.9200 0.9200 0.9200 0.9210
14.046204 0.9210 0.9210 0.9210 0.9210 0.9210
14.076000 0.9210 0.9210 0.9210 0.9200 0.9200
14.106204 0.9200 0.9200 0.9200 0.9180 0.9180
14.137000 0.9170 0.9170 0.9170 0.9170 0.9170
14.167204 0.9170 0.9170 0.9170 0.9170 0.9170
14.197000 0.9170 0.9170 0.9160 0.9160 0.9160
14.227204 0.9150 0.9130 0.9130 0.9120 0.9120
14.257000 0.9120 0.9120 0.9120 0.9120 0.9120
14.287204 0.9110 0.9100 0.9090 0.9070 0.9070
14.318000 0.9070 0.9060 0.9030 0.9000 0.9000
14.348204 0.9000 0.8980 0.8960 0.8950 0.8930
14.378000 0.8900 0.8880 0.8840 0.8830 0.8820
14.408204 0.8820 0.8810 0.8810 0.8800 0.8760
14.438000 0.8710 0.8700 0.8660 0.8640 0.8630
14.468204 0.8600 0.8560 0.8560 0.8530 0.8530
14.499000 0.8500 0.8490 0.8490 0.8470 0.8440
14.529204 0.8430 0.8420 0.8410 0.8400 0.8370
14.559000 0.8360 0.8350 0.8320 0.8310 0.8300
14.589204 0.8250 0.8210 0.8200 0.8160 0.8150
14.620000 0.8120 0.8100 0.8090 0.8080 0.8060
14.650204 0.8030 0.8010 0.8000 0.7910 0.7890
14.680000 0.7860 0.7830 0.7800 0.7730 0.7690
14.710204 0.7680 0.7620 0.7600 0.7570 0.7520
14.740000 0.7500 0.7450 0.7400 0.7390 0.7350
14.770204 0.7300 0.7260 0.7210 0.7200 0.7110
14.801000 0.7090 0.7040 0.7010 0.6990 0.6920
14.831204 0.6890 0.6820 0.6800 0.6730 0.6700
14.861000 0.6640 0.6600 0.6590 0.6560 0.6530
14.891204 0.6460 0.6420 0.6410 0.6400 0.6400
14.922000 0.6400 0.6400 0.6400 0.6410 0.6430
14.952204 0.6520 0.6550 0.6610 0.6640 0.6690
14.982000 0.6700
##END=
