##TITLE=4-AMINO-2-METHYLPHENOL, SULFATE
##JCAMP-DX=4.24
##DATA TYPE=INFRARED SPECTRUM
##CLASS=COBLENTZ III
##ORIGIN=WYANDOTTE CHEMICALS CORP.
##OWNER=COBLENTZ SOCIETY
Collection (C) 2018 copyright by the U.S. Secretary of Commerce
on behalf of the United States of America. All rights reserved.
##DATE=Not specified, most likely prior to 1970
##MOLFORM=C14 H20 N2 O6 S
##SOURCE REFERENCE=COBLENTZ NO. 6965
##$NIST ID=B6006965
##$NIST SOURCE=COBLENTZ
##$NIST IMAGE=cob6965
##SPECTROMETER/DATA SYSTEM=BAIRD NaCl PRISM
##STATE=SOLID (OIL MULL)
##PATH LENGTH=
$$ SPECTRAL CONTAMINATION DUE TO OIL AROUND 2900, 1460, 1375, 715 CM^-^1
##SAMPLING PROCEDURE=TRANSMISSION
##RESOLUTION=4
##DATA PROCESSING=DIGITIZED BY NIST FROM HARD COPY
##XUNITS=MICROMETERS
##YUNITS=TRANSMITTANCE
##XFACTOR=1.000000
##YFACTOR=1
##DELTAX=000.004888
##FIRSTX=2.022
##LASTX=15.997
##FIRSTY=0.303
##MAXX=15.997
##MINX=2.022
##MAXY=0.848
##MINY=0.02
##NPOINTS=2860
##XYDATA=(X++(Y..Y))
2.022000 0.3030 0.3030 0.3050 0.3050 0.3070
2.046448 0.3070 0.3080 0.3080 0.3100 0.3150
2.071000 0.3190 0.3200 0.3210 0.3230 0.3250
2.095448 0.3260 0.3280 0.3280 0.3290 0.3290
2.120000 0.3300 0.3310 0.3310 0.3300 0.3300
2.144448 0.3290 0.3290 0.3280 0.3260 0.3260
2.169000 0.3290 0.3290 0.3310 0.3350 0.3390
2.193448 0.3400 0.3410 0.3410 0.3420 0.3470
2.218000 0.3500 0.3510 0.3520 0.3530 0.3610
2.242448 0.3640 0.3670 0.3680 0.3680 0.3680
2.267000 0.3680 0.3690 0.3690 0.3690 0.3730
2.291448 0.3760 0.3780 0.3790 0.3790 0.3790
2.316000 0.3800 0.3840 0.3880 0.3910 0.3990
2.340448 0.3990 0.4000 0.4000 0.4020 0.4070
2.365000 0.4080 0.4080 0.4080 0.4100 0.4110
2.389448 0.4130 0.4140 0.4190 0.4240 0.4280
2.413000 0.4330 0.4340 0.4350 0.4360 0.4390
2.437448 0.4400 0.4430 0.4470 0.4490 0.4520
2.462000 0.4570 0.4600 0.4610 0.4670 0.4670
2.486448 0.4680 0.4700 0.4710 0.4770 0.4790
2.511000 0.4820 0.4840 0.4850 0.4880 0.4900
2.535448 0.4920 0.4930 0.4940 0.4990 0.5000
2.560000 0.5030 0.5050 0.5090 0.5120 0.5160
2.584448 0.5180 0.5200 0.5210 0.5220 0.5270
2.609000 0.5320 0.5370 0.5390 0.5470 0.5490
2.633448 0.5500 0.5520 0.5530 0.5540 0.5580
2.658000 0.5600 0.5670 0.5690 0.5720 0.5770
2.682448 0.5800 0.5810 0.5820 0.5830 0.5870
2.707000 0.5880 0.5890 0.5890 0.5910 0.5910
2.731448 0.5910 0.5890 0.5870 0.5820 0.5770
2.756000 0.5670 0.5600 0.5530 0.5430 0.5320
2.780448 0.5150 0.5050 0.4980 0.4810 0.4560
2.804000 0.4390 0.4110 0.3960 0.3760 0.3650
2.828448 0.3460 0.3300 0.3100 0.2910 0.2790
2.853000 0.2690 0.2600 0.2500 0.2430 0.2410
2.877448 0.2380 0.2370 0.2370 0.2380 0.2380
2.902000 0.2390 0.2410 0.2420 0.2420 0.2470
2.926448 0.2490 0.2500 0.2530 0.2540 0.2550
2.951000 0.2590 0.2630 0.2650 0.2680 0.2690
2.975448 0.2700 0.2710 0.2720 0.2720 0.2720
3.000000 0.2710 0.2710 0.2710 0.2700 0.2690
3.024448 0.2680 0.2680 0.2680 0.2660 0.2650
3.049000 0.2610 0.2580 0.2530 0.2520 0.2500
3.073448 0.2490 0.2470 0.2460 0.2440 0.2430
3.098000 0.2430 0.2420 0.2390 0.2360 0.2320
3.122448 0.2270 0.2190 0.2110 0.2080 0.2010
3.147000 0.2000 0.1880 0.1810 0.1770 0.1750
3.171448 0.1710 0.1680 0.1670 0.1640 0.1610
3.196000 0.1590 0.1570 0.1540 0.1480 0.1450
3.220448 0.1400 0.1340 0.1280 0.1210 0.1150
3.244000 0.1110 0.1100 0.1020 0.0990 0.0890
3.268448 0.0790 0.0670 0.0460 0.0340 0.0300
3.293000 0.0260 0.0260 0.0250 0.0250 0.0250
3.317448 0.0250 0.0240 0.0240 0.0230 0.0230
3.342000 0.0230 0.0230 0.0230 0.0230 0.0230
3.366448 0.0230 0.0220 0.0200 0.0200 0.0200
3.391000 0.0200 0.0200 0.0220 0.0220 0.0220
3.415448 0.0220 0.0200 0.0200 0.0200 0.0200
3.440000 0.0200 0.0220 0.0230 0.0250 0.0290
3.464448 0.0340 0.0360 0.0420 0.0500 0.0530
3.489000 0.0590 0.0620 0.0690 0.0730 0.0800
3.513448 0.0880 0.0960 0.1000 0.1040 0.1100
3.538000 0.1130 0.1170 0.1220 0.1230 0.1240
3.562448 0.1260 0.1270 0.1290 0.1320 0.1340
3.587000 0.1380 0.1410 0.1460 0.1460 0.1480
3.611448 0.1490 0.1490 0.1490 0.1480 0.1480
3.635000 0.1480 0.1490 0.1500 0.1540 0.1560
3.659448 0.1560 0.1540 0.1520 0.1520 0.1520
3.684000 0.1510 0.1510 0.1510 0.1510 0.1510
3.708448 0.1500 0.1500 0.1490 0.1480 0.1460
3.733000 0.1390 0.1390 0.1380 0.1380 0.1390
3.757448 0.1390 0.1400 0.1410 0.1410 0.1410
3.782000 0.1410 0.1410 0.1410 0.1430 0.1480
3.806448 0.1490 0.1500 0.1520 0.1570 0.1600
3.831000 0.1670 0.1680 0.1680 0.1700 0.1700
3.855448 0.1730 0.1810 0.1890 0.1940 0.1990
3.880000 0.2000 0.2050 0.2090 0.2120 0.2140
3.904448 0.2190 0.2230 0.2270 0.2310 0.2360
3.929000 0.2390 0.2430 0.2470 0.2490 0.2520
3.953448 0.2570 0.2590 0.2610 0.2690 0.2770
3.978000 0.2820 0.2860 0.2870 0.2910 0.3010
4.002448 0.3030 0.3040 0.3050 0.3090 0.3100
4.026000 0.3190 0.3210 0.3260 0.3290 0.3300
4.050448 0.3320 0.3320 0.3340 0.3350 0.3390
4.075000 0.3480 0.3510 0.3530 0.3570 0.3580
4.099448 0.3610 0.3620 0.3640 0.3670 0.3700
4.124000 0.3750 0.3800 0.3840 0.3890 0.3910
4.148448 0.3940 0.3950 0.3990 0.3990 0.4000
4.173000 0.4000 0.4010 0.4020 0.4020 0.4080
4.197448 0.4120 0.4140 0.4160 0.4170 0.4170
4.222000 0.4180 0.4180 0.4190 0.4190 0.4210
4.246448 0.4220 0.4240 0.4270 0.4280 0.4280
4.271000 0.4290 0.4300 0.4320 0.4340 0.4380
4.295448 0.4390 0.4400 0.4410 0.4430 0.4450
4.320000 0.4500 0.4520 0.4540 0.4560 0.4580
4.344448 0.4610 0.4630 0.4700 0.4760 0.4810
4.369000 0.4820 0.4830 0.4840 0.4890 0.4920
4.393448 0.4990 0.5000 0.5030 0.5040 0.5060
4.418000 0.5100 0.5120 0.5160 0.5180 0.5220
4.442448 0.5250 0.5270 0.5290 0.5290 0.5290
4.466000 0.5310 0.5320 0.5320 0.5320 0.5320
4.490448 0.5320 0.5320 0.5330 0.5370 0.5420
4.515000 0.5440 0.5450 0.5450 0.5470 0.5480
4.539448 0.5490 0.5490 0.5500 0.5500 0.5520
4.564000 0.5520 0.5530 0.5540 0.5560 0.5590
4.588448 0.5600 0.5610 0.5640 0.5670 0.5700
4.613000 0.5720 0.5770 0.5780 0.5810 0.5820
4.637448 0.5830 0.5830 0.5850 0.5860 0.5890
4.662000 0.5930 0.5970 0.5990 0.6000 0.6000
4.686448 0.6020 0.6030 0.6050 0.6090 0.6110
4.711000 0.6130 0.6140 0.6140 0.6150 0.6180
4.735448 0.6190 0.6200 0.6210 0.6210 0.6210
4.760000 0.6210 0.6210 0.6210 0.6210 0.6200
4.784448 0.6200 0.6210 0.6230 0.6240 0.6240
4.809000 0.6240 0.6240 0.6240 0.6240 0.6240
4.833448 0.6250 0.6290 0.6300 0.6290 0.6290
4.857000 0.6290 0.6260 0.6240 0.6230 0.6230
4.881448 0.6210 0.6210 0.6210 0.6210 0.6210
4.906000 0.6230 0.6230 0.6240 0.6240 0.6240
4.930448 0.6250 0.6270 0.6290 0.6300 0.6310
4.955000 0.6320 0.6340 0.6340 0.6340 0.6340
4.979448 0.6350 0.6350 0.6360 0.6380 0.6400
5.004000 0.6410 0.6410 0.6420 0.6430 0.6450
5.028448 0.6450 0.6450 0.6450 0.6450 0.6450
5.053000 0.6490 0.6520 0.6530 0.6560 0.6580
5.077448 0.6590 0.6590 0.6600 0.6600 0.6620
5.102000 0.6630 0.6640 0.6650 0.6670 0.6680
5.126448 0.6680 0.6690 0.6700 0.6700 0.6700
5.151000 0.6710 0.6730 0.6780 0.6810 0.6840
5.175448 0.6890 0.6900 0.6920 0.7000 0.7000
5.200000 0.7010 0.7010 0.7020 0.7020 0.7030
5.224448 0.7060 0.7090 0.7120 0.7140 0.7160
5.248000 0.7180 0.7180 0.7190 0.7200 0.7220
5.272448 0.7300 0.7310 0.7340 0.7390 0.7420
5.297000 0.7450 0.7490 0.7500 0.7510 0.7520
5.321448 0.7530 0.7560 0.7600 0.7610 0.7620
5.346000 0.7620 0.7610 0.7610 0.7620 0.7620
5.370448 0.7630 0.7640 0.7640 0.7660 0.7690
5.395000 0.7720 0.7720 0.7690 0.7680 0.7680
5.419448 0.7670 0.7670 0.7680 0.7690 0.7710
5.444000 0.7730 0.7740 0.7780 0.7800 0.7820
5.468448 0.7870 0.7890 0.7910 0.7930 0.7980
5.493000 0.7990 0.8000 0.8000 0.8010 0.8040
5.517448 0.8060 0.8090 0.8100 0.8110 0.8130
5.542000 0.8170 0.8210 0.8260 0.8290 0.8310
5.566448 0.8320 0.8320 0.8330 0.8320 0.8270
5.591000 0.8270 0.8290 0.8310 0.8320 0.8330
5.615448 0.8350 0.8380 0.8400 0.8420 0.8420
5.640000 0.8420 0.8430 0.8430 0.8430 0.8440
5.664448 0.8450 0.8480 0.8480 0.8450 0.8440
5.688000 0.8440 0.8440 0.8430 0.8430 0.8430
5.712448 0.8430 0.8430 0.8420 0.8390 0.8350
5.737000 0.8330 0.8310 0.8310 0.8290 0.8270
5.761448 0.8260 0.8270 0.8280 0.8310 0.8310
5.786000 0.8320 0.8340 0.8340 0.8330 0.8330
5.810448 0.8330 0.8330 0.8330 0.8330 0.8330
5.835000 0.8330 0.8340 0.8350 0.8350 0.8350
5.859448 0.8370 0.8380 0.8390 0.8400 0.8400
5.884000 0.8400 0.8400 0.8390 0.8380 0.8370
5.908448 0.8370 0.8350 0.8340 0.8330 0.8320
5.933000 0.8290 0.8240 0.8220 0.8200 0.8130
5.957448 0.8100 0.8010 0.7960 0.7840 0.7710
5.982000 0.7560 0.7420 0.7190 0.6940 0.6620
6.006448 0.6180 0.5430 0.5060 0.4890 0.4840
6.031000 0.4810 0.4810 0.4850 0.4940 0.5010
6.055448 0.5100 0.5170 0.5210 0.5210 0.5140
6.079000 0.5030 0.4930 0.4780 0.4600 0.4390
6.103448 0.4110 0.3830 0.3400 0.3120 0.2900
6.128000 0.2820 0.2790 0.2740 0.2710 0.2690
6.152448 0.2680 0.2660 0.2650 0.2660 0.2680
6.177000 0.2700 0.2810 0.3010 0.3200 0.3470
6.201448 0.3620 0.3730 0.3910 0.4100 0.4180
6.226000 0.4230 0.4300 0.4390 0.4430 0.4500
6.250448 0.4520 0.4550 0.4610 0.4680 0.4680
6.275000 0.4650 0.4620 0.4570 0.4510 0.4430
6.299448 0.4330 0.4280 0.4220 0.4140 0.4030
6.324000 0.3890 0.3680 0.3400 0.3140 0.2800
6.348448 0.2680 0.2610 0.2580 0.2570 0.2540
6.373000 0.2570 0.2600 0.2630 0.2690 0.2790
6.397448 0.2880 0.3010 0.3130 0.3310 0.3560
6.422000 0.3730 0.3830 0.3910 0.4010 0.4030
6.446448 0.4010 0.4000 0.3830 0.3780 0.3680
6.470000 0.3510 0.3320 0.3210 0.3010 0.2760
6.494448 0.2740 0.2630 0.2490 0.2310 0.2120
6.519000 0.2000 0.1700 0.1610 0.1600 0.1570
6.543448 0.1570 0.1560 0.1570 0.1600 0.1620
6.568000 0.1640 0.1680 0.1710 0.1840 0.1930
6.592448 0.2000 0.2220 0.2460 0.2530 0.2640
6.617000 0.2710 0.2790 0.2880 0.3010 0.3090
6.641448 0.3130 0.3190 0.3230 0.3240 0.3250
6.666000 0.3230 0.3190 0.3100 0.3030 0.2990
6.690448 0.2790 0.2710 0.2610 0.2490 0.2280
6.715000 0.2030 0.1400 0.1190 0.1020 0.0880
6.739448 0.0730 0.0670 0.0620 0.0590 0.0570
6.764000 0.0530 0.0520 0.0520 0.0510 0.0510
6.788448 0.0520 0.0520 0.0580 0.0590 0.0610
6.813000 0.0630 0.0690 0.0780 0.0840 0.1000
6.837448 0.1010 0.1080 0.1120 0.1280 0.1390
6.862000 0.1500 0.1590 0.1680 0.1780 0.1890
6.886448 0.1950 0.2010 0.2100 0.2210 0.2350
6.910000 0.2500 0.2600 0.2790 0.2990 0.3100
6.934448 0.3390 0.3420 0.3620 0.3800 0.3910
6.959000 0.4060 0.4270 0.4380 0.4580 0.4770
6.983448 0.4980 0.5140 0.5230 0.5320 0.5380
7.008000 0.5470 0.5500 0.5520 0.5540 0.5610
7.032448 0.5650 0.5670 0.5690 0.5710 0.5720
7.057000 0.5720 0.5720 0.5720 0.5720 0.5720
7.081448 0.5710 0.5700 0.5670 0.5640 0.5600
7.106000 0.5550 0.5430 0.5320 0.5230 0.5120
7.130448 0.5010 0.4890 0.4720 0.4610 0.4320
7.155000 0.3850 0.3510 0.3310 0.2800 0.2550
7.179448 0.2470 0.2310 0.2100 0.2000 0.1810
7.204000 0.1790 0.1760 0.1750 0.1760 0.1780
7.228448 0.1790 0.1820 0.1890 0.1950 0.2000
7.253000 0.2030 0.2090 0.2140 0.2210 0.2230
7.277448 0.2300 0.2350 0.2410 0.2490 0.2530
7.301000 0.2600 0.2690 0.2800 0.2850 0.2900
7.325448 0.2920 0.2920 0.2930 0.2940 0.2990
7.350000 0.3020 0.3150 0.3250 0.3400 0.3590
7.374448 0.3680 0.3910 0.4050 0.4120 0.4280
7.399000 0.4350 0.4430 0.4540 0.4700 0.4820
7.423448 0.5050 0.5210 0.5330 0.5450 0.5580
7.448000 0.5760 0.5800 0.5890 0.5960 0.6020
7.472448 0.6050 0.6150 0.6210 0.6260 0.6320
7.497000 0.6350 0.6430 0.6470 0.6510 0.6530
7.521448 0.6540 0.6580 0.6620 0.6650 0.6700
7.546000 0.6700 0.6620 0.6580 0.6540 0.6520
7.570448 0.6480 0.6450 0.6410 0.6360 0.6310
7.595000 0.6310 0.6300 0.6300 0.6300 0.6300
7.619448 0.6310 0.6310 0.6310 0.6300 0.6290
7.644000 0.6290 0.6260 0.6230 0.6130 0.6050
7.668448 0.6020 0.5710 0.5600 0.5420 0.5150
7.692000 0.4940 0.4720 0.4520 0.4230 0.4020
7.716448 0.3720 0.3400 0.3020 0.2750 0.2530
7.741000 0.2390 0.2220 0.2120 0.2060 0.2000
7.765448 0.1810 0.1770 0.1750 0.1620 0.1610
7.790000 0.1570 0.1600 0.1620 0.1710 0.1790
7.814448 0.1890 0.1990 0.2210 0.2490 0.2690
7.839000 0.2990 0.3120 0.3300 0.3500 0.3590
7.863448 0.3700 0.3790 0.3830 0.3890 0.3910
7.888000 0.3990 0.4000 0.4010 0.4050 0.4180
7.912448 0.4240 0.4350 0.4510 0.4720 0.4840
7.937000 0.5000 0.5090 0.5120 0.5220 0.5320
7.961448 0.5390 0.5420 0.5440 0.5520 0.5560
7.986000 0.5630 0.5710 0.5750 0.5770 0.5810
8.010448 0.5830 0.5830 0.5850 0.5860 0.5860
8.035000 0.5860 0.5860 0.5860 0.5860 0.5850
8.059448 0.5830 0.5820 0.5800 0.5760 0.5700
8.084000 0.5630 0.5580 0.5500 0.5430 0.5380
8.108448 0.5290 0.5200 0.5040 0.4930 0.4820
8.132000 0.4730 0.4650 0.4600 0.4510 0.4400
8.156448 0.4290 0.4180 0.4100 0.4000 0.3910
8.181000 0.3760 0.3560 0.3290 0.3040 0.2800
8.205448 0.2600 0.2520 0.2430 0.2410 0.2370
8.230000 0.2210 0.2100 0.2000 0.1780 0.1700
8.254448 0.1680 0.1670 0.1660 0.1660 0.1660
8.279000 0.1670 0.1680 0.1710 0.1780 0.1840
8.303448 0.1980 0.2000 0.2010 0.2090 0.2190
8.328000 0.2310 0.2480 0.2530 0.2610 0.2700
8.352448 0.2770 0.2810 0.2830 0.2880 0.2920
8.377000 0.2990 0.3010 0.3020 0.3070 0.3080
8.401448 0.3090 0.3080 0.3070 0.3040 0.3020
8.426000 0.3020 0.3020 0.3020 0.3010 0.3010
8.450448 0.2980 0.2920 0.2870 0.2820 0.2790
8.475000 0.2720 0.2690 0.2680 0.2640 0.2600
8.499448 0.2530 0.2490 0.2420 0.2330 0.2200
8.523000 0.2140 0.2100 0.2040 0.2000 0.1990
8.547448 0.1880 0.1820 0.1770 0.1710 0.1680
8.572000 0.1610 0.1550 0.1500 0.1350 0.1320
8.596448 0.1290 0.1240 0.1220 0.1190 0.1160
8.621000 0.1110 0.1080 0.1060 0.1050 0.1040
8.645448 0.1020 0.1020 0.1020 0.1020 0.1020
8.670000 0.1010 0.1010 0.1010 0.1000 0.0990
8.694448 0.0970 0.0970 0.0990 0.0990 0.1000
8.719000 0.1000 0.1000 0.0990 0.0990 0.0990
8.743448 0.0960 0.0940 0.0940 0.0930 0.0930
8.768000 0.0910 0.0910 0.0900 0.0900 0.0880
8.792448 0.0880 0.0900 0.0910 0.0930 0.0930
8.817000 0.0930 0.0940 0.0940 0.0940 0.0930
8.841448 0.0930 0.0900 0.0860 0.0840 0.0830
8.866000 0.0820 0.0820 0.0800 0.0820 0.0820
8.890448 0.0820 0.0820 0.0800 0.0790 0.0790
8.914000 0.0770 0.0770 0.0790 0.0790 0.0800
8.938448 0.0800 0.0800 0.0800 0.0800 0.0790
8.963000 0.0790 0.0790 0.0790 0.0790 0.0790
8.987448 0.0790 0.0790 0.0790 0.0790 0.0790
9.012000 0.0790 0.0800 0.0800 0.0800 0.0800
9.036448 0.0820 0.0820 0.0840 0.0860 0.0820
9.061000 0.0800 0.0800 0.0780 0.0770 0.0750
9.085448 0.0750 0.0740 0.0740 0.0750 0.0750
9.110000 0.0750 0.0750 0.0780 0.0780 0.0770
9.134448 0.0770 0.0770 0.0770 0.0780 0.0790
9.159000 0.0790 0.0790 0.0790 0.0790 0.0790
9.183448 0.0790 0.0790 0.0800 0.0800 0.0820
9.208000 0.0830 0.0840 0.0860 0.0860 0.0880
9.232448 0.0880 0.0880 0.0880 0.0880 0.0880
9.257000 0.0910 0.0940 0.0960 0.0970 0.0990
9.281448 0.0990 0.1000 0.1010 0.1010 0.1010
9.305000 0.1010 0.1010 0.1010 0.1020 0.1040
9.329448 0.1040 0.1040 0.1040 0.1050 0.1060
9.354000 0.1070 0.1070 0.1080 0.1100 0.1110
9.378448 0.1120 0.1130 0.1170 0.1170 0.1130
9.403000 0.1130 0.1110 0.1120 0.1130 0.1130
9.427448 0.1160 0.1170 0.1170 0.1170 0.1170
9.452000 0.1170 0.1170 0.1170 0.1160 0.1130
9.476448 0.1120 0.1120 0.1120 0.1110 0.1100
9.501000 0.1100 0.1080 0.1070 0.1040 0.1010
9.525448 0.0990 0.0990 0.0970 0.0970 0.0960
9.550000 0.0960 0.0960 0.0960 0.0960 0.0950
9.574448 0.0950 0.0950 0.0940 0.0930 0.0910
9.599000 0.0900 0.0890 0.0890 0.0890 0.0890
9.623448 0.0890 0.0890 0.0880 0.0880 0.0880
9.648000 0.0890 0.0880 0.0880 0.0880 0.0880
9.672448 0.0880 0.0880 0.0890 0.0900 0.0910
9.697000 0.0910 0.0930 0.0950 0.0950 0.0960
9.721448 0.0960 0.0970 0.0970 0.0990 0.0990
9.745000 0.0990 0.1000 0.1010 0.1010 0.1010
9.769448 0.1020 0.1020 0.1020 0.1040 0.1050
9.794000 0.1050 0.1070 0.1100 0.1120 0.1130
9.818448 0.1170 0.1180 0.1210 0.1240 0.1290
9.843000 0.1330 0.1370 0.1400 0.1430 0.1490
9.867448 0.1510 0.1520 0.1550 0.1570 0.1600
9.892000 0.1620 0.1650 0.1660 0.1670 0.1700
9.916448 0.1710 0.1750 0.1790 0.1820 0.1820
9.941000 0.1830 0.1830 0.1830 0.1840 0.1840
9.965448 0.1840 0.1840 0.1870 0.1880 0.1890
9.990000 0.1930 0.1980 0.2000 0.2010 0.2030
10.014448 0.2030 0.2040 0.2050 0.2060 0.2100
10.039000 0.2140 0.2210 0.2250 0.2280 0.2310
10.063448 0.2350 0.2410 0.2440 0.2490 0.2540
10.088000 0.2600 0.2650 0.2710 0.2770 0.2810
10.112448 0.2820 0.2830 0.2850 0.2860 0.2870
10.136000 0.2900 0.2930 0.3010 0.3040 0.3120
10.160448 0.3180 0.3210 0.3240 0.3250 0.3250
10.185000 0.3250 0.3250 0.3240 0.3210 0.3200
10.209448 0.3210 0.3210 0.3210 0.3230 0.3230
10.234000 0.3230 0.3230 0.3230 0.3210 0.3210
10.258448 0.3210 0.3230 0.3240 0.3260 0.3290
10.283000 0.3300 0.3310 0.3320 0.3360 0.3390
10.307448 0.3430 0.3480 0.3530 0.3580 0.3620
10.332000 0.3650 0.3690 0.3720 0.3740 0.3750
10.356448 0.3750 0.3780 0.3810 0.3830 0.3850
10.381000 0.3990 0.4000 0.4020 0.4080 0.4110
10.405448 0.4120 0.4120 0.4130 0.4130 0.4140
10.430000 0.4160 0.4180 0.4240 0.4280 0.4300
10.454448 0.4330 0.4350 0.4360 0.4380 0.4400
10.479000 0.4430 0.4440 0.4460 0.4490 0.4500
10.503448 0.4510 0.4520 0.4520 0.4540 0.4540
10.527000 0.4560 0.4580 0.4610 0.4630 0.4660
10.551448 0.4670 0.4680 0.4700 0.4710 0.4710
10.576000 0.4720 0.4720 0.4730 0.4730 0.4760
10.600448 0.4790 0.4830 0.4870 0.4870 0.4880
10.625000 0.4880 0.4870 0.4870 0.4870 0.4870
10.649448 0.4870 0.4880 0.4890 0.4900 0.4920
10.674000 0.4940 0.4950 0.4960 0.4960 0.4980
10.698448 0.4990 0.5000 0.5050 0.5090 0.5120
10.723000 0.5140 0.5150 0.5150 0.5160 0.5160
10.747448 0.5170 0.5180 0.5180 0.5200 0.5200
10.772000 0.5200 0.5200 0.5200 0.5180 0.5180
10.796448 0.5180 0.5180 0.5170 0.5180 0.5180
10.821000 0.5200 0.5200 0.5220 0.5230 0.5250
10.845448 0.5250 0.5260 0.5260 0.5260 0.5270
10.870000 0.5280 0.5310 0.5320 0.5320 0.5330
10.894448 0.5340 0.5360 0.5370 0.5390 0.5420
10.919000 0.5430 0.5440 0.5490 0.5530 0.5590
10.943448 0.5610 0.5630 0.5640 0.5660 0.5690
10.967000 0.5690 0.5710 0.5710 0.5710 0.5720
10.991448 0.5740 0.5780 0.5810 0.5820 0.5830
11.016000 0.5850 0.5850 0.5860 0.5860 0.5870
11.040448 0.5890 0.5920 0.5940 0.5970 0.5970
11.065000 0.5980 0.5990 0.5990 0.6000 0.6020
11.089448 0.6030 0.6070 0.6110 0.6130 0.6140
11.114000 0.6160 0.6180 0.6180 0.6180 0.6190
11.138448 0.6190 0.6190 0.6190 0.6190 0.6200
11.163000 0.6210 0.6230 0.6230 0.6230 0.6230
11.187448 0.6210 0.6200 0.6190 0.6160 0.6140
11.212000 0.6110 0.6100 0.6040 0.6020 0.6000
11.236448 0.6000 0.5910 0.5890 0.5880 0.5870
11.261000 0.5860 0.5830 0.5810 0.5780 0.5770
11.285448 0.5770 0.5760 0.5760 0.5760 0.5770
11.310000 0.5770 0.5770 0.5780 0.5800 0.5810
11.334448 0.5810 0.5810 0.5810 0.5810 0.5810
11.358000 0.5800 0.5800 0.5780 0.5770 0.5750
11.382448 0.5750 0.5740 0.5700 0.5640 0.5610
11.407000 0.5550 0.5490 0.5430 0.5410 0.5380
11.431448 0.5310 0.5210 0.5100 0.5010 0.4890
11.456000 0.4830 0.4810 0.4760 0.4720 0.4700
11.480448 0.4680 0.4680 0.4670 0.4670 0.4650
11.505000 0.4630 0.4620 0.4620 0.4620 0.4610
11.529448 0.4610 0.4600 0.4610 0.4600 0.4600
11.554000 0.4600 0.4580 0.4580 0.4580 0.4570
11.578448 0.4570 0.4570 0.4570 0.4580 0.4620
11.603000 0.4630 0.4720 0.4780 0.4840 0.4890
11.627448 0.5000 0.5010 0.5090 0.5110 0.5200
11.652000 0.5280 0.5320 0.5410 0.5500 0.5520
11.676448 0.5540 0.5550 0.5590 0.5630 0.5670
11.701000 0.5700 0.5740 0.5810 0.5850 0.5880
11.725448 0.5890 0.5910 0.5920 0.5980 0.5990
11.749000 0.5990 0.6000 0.6020 0.6030 0.6070
11.773448 0.6090 0.6100 0.6110 0.6130 0.6190
11.798000 0.6200 0.6230 0.6250 0.6270 0.6290
11.822448 0.6290 0.6300 0.6320 0.6340 0.6340
11.847000 0.6340 0.6380 0.6410 0.6420 0.6430
11.871448 0.6430 0.6430 0.6430 0.6430 0.6450
11.896000 0.6450 0.6450 0.6450 0.6460 0.6460
11.920448 0.6480 0.6490 0.6490 0.6490 0.6510
11.945000 0.6510 0.6520 0.6520 0.6530 0.6530
11.969448 0.6540 0.6540 0.6540 0.6560 0.6570
11.994000 0.6570 0.6580 0.6600 0.6620 0.6630
12.018448 0.6630 0.6630 0.6630 0.6630 0.6630
12.043000 0.6630 0.6630 0.6630 0.6630 0.6630
12.067448 0.6630 0.6630 0.6630 0.6630 0.6620
12.092000 0.6600 0.6590 0.6580 0.6570 0.6560
12.116448 0.6540 0.6520 0.6510 0.6490 0.6490
12.141000 0.6480 0.6450 0.6420 0.6400 0.6350
12.165448 0.6320 0.6310 0.6300 0.6290 0.6290
12.189000 0.6250 0.6210 0.6130 0.6050 0.5990
12.213448 0.5910 0.5880 0.5810 0.5740 0.5640
12.238000 0.5530 0.5420 0.5310 0.5070 0.4920
12.262448 0.4710 0.4510 0.4320 0.4060 0.3900
12.287000 0.3650 0.3540 0.3400 0.3170 0.3010
12.311448 0.2800 0.2700 0.2550 0.2380 0.2330
12.336000 0.2330 0.2320 0.2320 0.2310 0.2270
12.360448 0.2220 0.2160 0.2100 0.2060 0.2040
12.385000 0.2010 0.2000 0.2010 0.2050 0.2080
12.409448 0.2160 0.2230 0.2310 0.2380 0.2420
12.434000 0.2500 0.2590 0.2700 0.2830 0.3010
12.458448 0.3200 0.3400 0.3580 0.3720 0.3840
12.483000 0.3970 0.4050 0.4250 0.4460 0.4560
12.507448 0.4700 0.4920 0.5030 0.5110 0.5160
12.532000 0.5210 0.5280 0.5290 0.5330 0.5410
12.556448 0.5490 0.5520 0.5600 0.5660 0.5720
12.580000 0.5760 0.5850 0.5910 0.5920 0.5970
12.604448 0.5980 0.5990 0.5990 0.6000 0.6020
12.629000 0.6040 0.6080 0.6090 0.6110 0.6150
12.653448 0.6190 0.6230 0.6260 0.6290 0.6310
12.678000 0.6380 0.6410 0.6430 0.6430 0.6450
12.702448 0.6450 0.6460 0.6460 0.6460 0.6450
12.727000 0.6450 0.6450 0.6430 0.6420 0.6420
12.751448 0.6410 0.6370 0.6290 0.6210 0.6180
12.776000 0.6150 0.6110 0.6070 0.6030 0.6000
12.800448 0.5820 0.5780 0.5720 0.5710 0.5690
12.825000 0.5690 0.5670 0.5660 0.5670 0.5690
12.849448 0.5700 0.5720 0.5750 0.5770 0.5780
12.874000 0.5830 0.5880 0.5920 0.5940 0.5970
12.898448 0.5990 0.6000 0.6040 0.6080 0.6130
12.923000 0.6150 0.6180 0.6190 0.6190 0.6200
12.947448 0.6210 0.6230 0.6260 0.6300 0.6320
12.971000 0.6340 0.6340 0.6350 0.6360 0.6370
12.995448 0.6370 0.6380 0.6400 0.6420 0.6450
13.020000 0.6460 0.6470 0.6480 0.6480 0.6480
13.044448 0.6490 0.6490 0.6480 0.6480 0.6460
13.069000 0.6460 0.6470 0.6470 0.6480 0.6480
13.093448 0.6480 0.6490 0.6490 0.6510 0.6520
13.118000 0.6520 0.6530 0.6530 0.6530 0.6530
13.142448 0.6530 0.6530 0.6530 0.6530 0.6530
13.167000 0.6530 0.6530 0.6530 0.6530 0.6530
13.191448 0.6530 0.6530 0.6530 0.6530 0.6530
13.216000 0.6530 0.6530 0.6530 0.6530 0.6530
13.240448 0.6530 0.6530 0.6530 0.6530 0.6530
13.265000 0.6530 0.6540 0.6560 0.6570 0.6570
13.289448 0.6570 0.6570 0.6570 0.6580 0.6580
13.314000 0.6590 0.6590 0.6590 0.6620 0.6620
13.338448 0.6600 0.6590 0.6580 0.6540 0.6530
13.363000 0.6520 0.6520 0.6520 0.6520 0.6520
13.387448 0.6520 0.6510 0.6490 0.6460 0.6420
13.411000 0.6410 0.6410 0.6400 0.6400 0.6380
13.435448 0.6380 0.6380 0.6380 0.6370 0.6370
13.460000 0.6380 0.6380 0.6370 0.6370 0.6370
13.484448 0.6370 0.6370 0.6370 0.6370 0.6360
13.509000 0.6350 0.6350 0.6340 0.6320 0.6300
13.533448 0.6290 0.6270 0.6260 0.6260 0.6250
13.558000 0.6250 0.6240 0.6240 0.6210 0.6200
13.582448 0.6180 0.6180 0.6160 0.6150 0.6150
13.607000 0.6140 0.6140 0.6130 0.6110 0.6090
13.631448 0.6050 0.6020 0.5980 0.5960 0.5940
13.656000 0.5930 0.5940 0.5970 0.5980 0.5980
13.680448 0.5980 0.5980 0.5970 0.5960 0.5960
13.705000 0.5940 0.5930 0.5930 0.5920 0.5920
13.729448 0.5920 0.5910 0.5880 0.5870 0.5850
13.754000 0.5820 0.5820 0.5810 0.5800 0.5800
13.778448 0.5780 0.5760 0.5710 0.5630 0.5560
13.802000 0.5530 0.5520 0.5500 0.5500 0.5490
13.826448 0.5480 0.5480 0.5470 0.5450 0.5450
13.851000 0.5430 0.5410 0.5370 0.5360 0.5360
13.875448 0.5360 0.5360 0.5340 0.5340 0.5340
13.900000 0.5340 0.5360 0.5360 0.5370 0.5380
13.924448 0.5410 0.5470 0.5520 0.5550 0.5590
13.949000 0.5630 0.5670 0.5710 0.5750 0.5770
13.973448 0.5820 0.5870 0.5930 0.5970 0.5990
13.998000 0.6030 0.6070 0.6090 0.6110 0.6130
14.022448 0.6150 0.6160 0.6180 0.6190 0.6260
14.047000 0.6370 0.6460 0.6480 0.6490 0.6490
14.071448 0.6510 0.6510 0.6510 0.6510 0.6510
14.096000 0.6520 0.6530 0.6530 0.6540 0.6540
14.120448 0.6540 0.6540 0.6540 0.6560 0.6560
14.145000 0.6570 0.6570 0.6570 0.6570 0.6580
14.169448 0.6580 0.6580 0.6580 0.6570 0.6560
14.193000 0.6540 0.6540 0.6530 0.6530 0.6530
14.217448 0.6530 0.6530 0.6520 0.6520 0.6490
14.242000 0.6470 0.6470 0.6460 0.6450 0.6430
14.266448 0.6420 0.6410 0.6410 0.6410 0.6410
14.291000 0.6410 0.6420 0.6420 0.6410 0.6400
14.315448 0.6400 0.6380 0.6380 0.6380 0.6380
14.340000 0.6370 0.6360 0.6360 0.6340 0.6320
14.364448 0.6320 0.6320 0.6320 0.6340 0.6340
14.389000 0.6350 0.6350 0.6350 0.6350 0.6350
14.413448 0.6340 0.6340 0.6340 0.6320 0.6320
14.438000 0.6320 0.6320 0.6310 0.6310 0.6310
14.462448 0.6300 0.6260 0.6210 0.6200 0.6200
14.487000 0.6210 0.6230 0.6230 0.6230 0.6250
14.511448 0.6250 0.6240 0.6230 0.6210 0.6200
14.536000 0.6200 0.6200 0.6200 0.6200 0.6190
14.560448 0.6180 0.6160 0.6150 0.6140 0.6130
14.585000 0.6110 0.6100 0.6100 0.6100 0.6110
14.609448 0.6140 0.6140 0.6140 0.6140 0.6140
14.633000 0.6140 0.6130 0.6110 0.6090 0.6080
14.657448 0.6080 0.6080 0.6080 0.6080 0.6080
14.682000 0.6080 0.6070 0.6070 0.6050 0.6030
14.706448 0.6000 0.6000 0.5990 0.5990 0.5990
14.731000 0.5990 0.5990 0.5990 0.6000 0.5990
14.755448 0.5990 0.5980 0.5990 0.5990 0.5980
14.780000 0.5970 0.5970 0.5960 0.5940 0.5920
14.804448 0.5890 0.5890 0.5890 0.5910 0.5910
14.829000 0.5930 0.5940 0.5940 0.5940 0.5930
14.853448 0.5930 0.5930 0.5920 0.5880 0.5880
14.878000 0.5890 0.5890 0.5910 0.5910 0.5920
14.902448 0.5920 0.5910 0.5890 0.5880 0.5870
14.927000 0.5860 0.5860 0.5850 0.5830 0.5820
14.951448 0.5820 0.5810 0.5810 0.5810 0.5800
14.976000 0.5780 0.5760 0.5750 0.5740 0.5720
15.000448 0.5710 0.5700 0.5690 0.5660 0.5640
15.024000 0.5580 0.5580 0.5560 0.5550 0.5550
15.048448 0.5550 0.5560 0.5580 0.5580 0.5580
15.073000 0.5560 0.5550 0.5540 0.5530 0.5530
15.097448 0.5530 0.5540 0.5550 0.5560 0.5580
15.122000 0.5590 0.5590 0.5590 0.5590 0.5590
15.146448 0.5590 0.5600 0.5600 0.5600 0.5590
15.171000 0.5590 0.5590 0.5580 0.5560 0.5550
15.195448 0.5540 0.5530 0.5520 0.5500 0.5490
15.220000 0.5490 0.5490 0.5490 0.5490 0.5480
15.244448 0.5480 0.5470 0.5440 0.5440 0.5480
15.269000 0.5480 0.5480 0.5490 0.5480 0.5480
15.293448 0.5470 0.5450 0.5450 0.5440 0.5420
15.318000 0.5410 0.5390 0.5390 0.5390 0.5410
15.342448 0.5410 0.5420 0.5420 0.5410 0.5390
15.367000 0.5380 0.5380 0.5370 0.5370 0.5360
15.391448 0.5360 0.5390 0.5390 0.5370 0.5360
15.415000 0.5320 0.5310 0.5290 0.5290 0.5280
15.439448 0.5280 0.5280 0.5280 0.5280 0.5270
15.464000 0.5270 0.5260 0.5260 0.5250 0.5250
15.488448 0.5230 0.5230 0.5250 0.5250 0.5250
15.513000 0.5230 0.5230 0.5230 0.5200 0.5180
15.537448 0.5170 0.5160 0.5150 0.5150 0.5150
15.562000 0.5140 0.5140 0.5120 0.5120 0.5120
15.586448 0.5120 0.5120 0.5120 0.5120 0.5110
15.611000 0.5110 0.5100 0.5100 0.5070 0.5050
15.635448 0.5030 0.5000 0.5000 0.4980 0.4960
15.660000 0.4960 0.4980 0.4980 0.4990 0.4980
15.684448 0.4960 0.4930 0.4890 0.4850 0.4850
15.709000 0.4840 0.4820 0.4820 0.4810 0.4810
15.733448 0.4790 0.4790 0.4780 0.4780 0.4780
15.758000 0.4770 0.4770 0.4730 0.4720 0.4710
15.782448 0.4710 0.4670 0.4650 0.4630 0.4610
15.807000 0.4570 0.4550 0.4520 0.4510 0.4510
15.831448 0.4500 0.4490 0.4470 0.4460 0.4450
15.855000 0.4450 0.4440 0.4430 0.4390 0.4340
15.879448 0.4320 0.4280 0.4250 0.4220 0.4180
15.904000 0.4160 0.4140 0.4120 0.4110 0.4080
15.928448 0.4070 0.4060 0.4050 0.4030 0.4030
15.953000 0.4030 0.4020 0.4020 0.4020 0.4010
15.977448 0.4010 0.4010 0.4000 0.4000 0.4000
##END=
