##TITLE=Pyridine, 4-diphenylmethyl-, hydrochloride
##JCAMP-DX=4.24
##DATA TYPE=INFRARED SPECTRUM
##CLASS=COBLENTZ III
##ORIGIN=BRITISH PETROLEUM CO. LTD., ENGLAND
##OWNER=Copyright (C) 1987 by the Coblentz Society
Collection (C) 2018 copyright by the U.S. Secretary of Commerce
on behalf of the United States of America. All rights reserved.
##DATE=1972/07/10
##NAMES=4-benzhydrylpyridine hydrochloride
##MOLFORM=C18 H16 Cl N
##SOURCE REFERENCE=COBLENTZ NO. 9338
##$NIST ID=B6009338
##$NIST SOURCE=COBLENTZ
##$NIST IMAGE=cob9338
##SPECTROMETER/DATA SYSTEM=PERKIN-ELMER 157
##STATE=SOLID (KBr DISC, 0.8% WT.)
$$ HCl RUN IN KBr MAY CONTAIN SOME HBr
$$ REF. Can. J. Spec., 18,4,101, '73 C. S. DOUSE and P. B. TOOKE
##SAMPLING PROCEDURE=TRANSMISSION
##RESOLUTION=2
##DATA PROCESSING=DIGITIZED BY COBLENTZ SOCIETY (BATCH II) FROM HARD COPY
##XUNITS=1/CM
##YUNITS=TRANSMITTANCE
##XFACTOR=1.0
##YFACTOR=1
##FIRSTX=667
##LASTX=4000
##FIRSTY=0.642
##MAXX=4000
##MINX=667
##MAXY=0.7805
##MINY=0.0134
##NPOINTS=3334
##XYDATA=(X++(Y..Y))
667.000000 0.6420 0.6398 0.6382 0.6298 0.6224
672.000000 0.6139 0.6045 0.5984 0.5953 0.5880
677.000000 0.5743 0.5594 0.5462 0.5305 0.5127
682.000000 0.4785 0.4310 0.3824 0.3631 0.3476
687.000000 0.3098 0.2613 0.2214 0.1405 0.1023
692.000000 0.0571 0.0354 0.0227 0.0200 0.0186
697.000000 0.0233 0.0350 0.0491 0.0580 0.0596
702.000000 0.0474 0.0406 0.0336 0.0313 0.0293
707.000000 0.0766 0.1158 0.2023 0.3296 0.5114
712.000000 0.5243 0.5207 0.4730 0.3597 0.3245
717.000000 0.3237 0.3402 0.5370 0.6312 0.6969
722.000000 0.7060 0.7070 0.7070 0.6920 0.6799
727.000000 0.6697 0.6597 0.6446 0.6274 0.6082
732.000000 0.5820 0.5453 0.5086 0.4716 0.3701
737.000000 0.3043 0.2431 0.1926 0.1638 0.0987
742.000000 0.0475 0.0468 0.0465 0.0773 0.1492
747.000000 0.2292 0.2844 0.3120 0.3125 0.3102
752.000000 0.2833 0.2251 0.1643 0.1152 0.0695
757.000000 0.0284 0.0200 0.0207 0.0192 0.0742
762.000000 0.1464 0.2788 0.4058 0.4736 0.5092
767.000000 0.5251 0.5262 0.5240 0.5143 0.5008
772.000000 0.4852 0.4676 0.4375 0.4077 0.3463
777.000000 0.3275 0.3058 0.2645 0.2280 0.1961
782.000000 0.0876 0.0461 0.0349 0.0347 0.0434
787.000000 0.0569 0.0974 0.1915 0.2805 0.3536
792.000000 0.4266 0.4912 0.5424 0.5965 0.6237
797.000000 0.6414 0.6609 0.6807 0.7031 0.7276
802.000000 0.7457 0.7578 0.7637 0.7661 0.7671
807.000000 0.7745 0.7787 0.7803 0.7799 0.7805
812.000000 0.7779 0.7726 0.7620 0.7485 0.7314
817.000000 0.7167 0.6931 0.6596 0.6392 0.6233
822.000000 0.5987 0.5728 0.5473 0.5204 0.4991
827.000000 0.4727 0.4526 0.4163 0.3510 0.2979
832.000000 0.2446 0.1914 0.1552 0.1510 0.1496
837.000000 0.1966 0.2844 0.3720 0.4594 0.5984
842.000000 0.6539 0.7067 0.7360 0.7469 0.7476
847.000000 0.7451 0.7285 0.7103 0.6922 0.6738
852.000000 0.6460 0.6445 0.6725 0.6800 0.6822
857.000000 0.6824 0.6507 0.6294 0.6149 0.5719
862.000000 0.5393 0.5314 0.5315 0.5336 0.5355
867.000000 0.5343 0.5229 0.4414 0.3654 0.2896
872.000000 0.2728 0.2729 0.4640 0.5657 0.5849
877.000000 0.6558 0.6916 0.7156 0.7336 0.7494
882.000000 0.7576 0.7598 0.7659 0.7691 0.7700
887.000000 0.7703 0.7704 0.7705 0.7709 0.7693
892.000000 0.7687 0.7676 0.7651 0.7627 0.7618
897.000000 0.7613 0.7610 0.7605 0.7577 0.7509
902.000000 0.7436 0.7409 0.7371 0.7280 0.7133
907.000000 0.7014 0.6901 0.6769 0.6573 0.6558
912.000000 0.6557 0.6635 0.6685 0.6717 0.6732
917.000000 0.6726 0.6730 0.6637 0.6461 0.6289
922.000000 0.5985 0.5607 0.5376 0.4949 0.4515
927.000000 0.4239 0.4185 0.4183 0.4301 0.4665
932.000000 0.5043 0.5421 0.5553 0.5492 0.5413
937.000000 0.5302 0.5226 0.5236 0.5290 0.5354
942.000000 0.5412 0.5745 0.5935 0.6034 0.6076
947.000000 0.6094 0.6102 0.6169 0.6244 0.6335
952.000000 0.6430 0.6534 0.6643 0.6747 0.6800
957.000000 0.6816 0.6827 0.6837 0.6837 0.6838
962.000000 0.6835 0.6836 0.6815 0.6792 0.6757
967.000000 0.6711 0.6656 0.6599 0.6542 0.6448
972.000000 0.6334 0.6171 0.5996 0.5811 0.5607
977.000000 0.4563 0.4402 0.4374 0.4366 0.4646
982.000000 0.4735 0.4941 0.5075 0.5356 0.5428
987.000000 0.5438 0.5434 0.5412 0.5392 0.5352
992.000000 0.5231 0.5207 0.5195 0.5091 0.4918
997.000000 0.4709 0.4440 0.3838 0.3238 0.2650
1002.000000 0.2442 0.2417 0.2416 0.3219 0.4557
1007.000000 0.5766 0.5990 0.6169 0.6177 0.6155
1012.000000 0.6065 0.5997 0.5944 0.5927 0.5924
1017.000000 0.5923 0.5923 0.5916 0.5877 0.5770
1022.000000 0.5621 0.5428 0.4872 0.4316 0.3762
1027.000000 0.3208 0.2744 0.2741 0.3614 0.4732
1032.000000 0.5609 0.5824 0.5999 0.6100 0.6155
1037.000000 0.6192 0.6228 0.6263 0.6299 0.6337
1042.000000 0.6374 0.6404 0.6416 0.6421 0.6410
1047.000000 0.6396 0.6351 0.6299 0.6216 0.6108
1052.000000 0.5955 0.5687 0.5206 0.4720 0.4235
1057.000000 0.3796 0.3763 0.3761 0.4464 0.5159
1062.000000 0.5851 0.6149 0.6167 0.6150 0.6121
1067.000000 0.6043 0.5906 0.5708 0.5487 0.5169
1072.000000 0.4793 0.4417 0.4042 0.3775 0.3765
1077.000000 0.3760 0.4398 0.4947 0.5480 0.5623
1082.000000 0.5629 0.5509 0.5328 0.5147 0.4967
1087.000000 0.4353 0.3738 0.3123 0.2545 0.2389
1092.000000 0.2378 0.2373 0.2934 0.3682 0.4429
1097.000000 0.5173 0.5795 0.6133 0.6299 0.6320
1102.000000 0.6341 0.6354 0.6361 0.6359 0.6372
1107.000000 0.6344 0.6313 0.6272 0.6232 0.6182
1112.000000 0.6124 0.6058 0.5992 0.5943 0.5928
1117.000000 0.5939 0.5972 0.6031 0.6092 0.6149
1122.000000 0.6185 0.6205 0.6216 0.6214 0.6208
1127.000000 0.6202 0.6195 0.6186 0.6177 0.6168
1132.000000 0.6159 0.6148 0.6136 0.6123 0.6111
1137.000000 0.6093 0.6074 0.6055 0.6029 0.5996
1142.000000 0.5960 0.5905 0.5849 0.5795 0.5741
1147.000000 0.5680 0.5598 0.5378 0.5132 0.4908
1152.000000 0.4823 0.4841 0.4817 0.4980 0.5011
1157.000000 0.5037 0.5057 0.5068 0.5079 0.5091
1162.000000 0.5091 0.5075 0.5042 0.5003 0.4964
1167.000000 0.4932 0.4899 0.4855 0.4796 0.4647
1172.000000 0.4414 0.4227 0.4052 0.3851 0.3640
1177.000000 0.3429 0.3218 0.3007 0.2842 0.2677
1182.000000 0.2640 0.2635 0.2610 0.3317 0.3741
1187.000000 0.4162 0.4228 0.4234 0.4240 0.3989
1192.000000 0.3564 0.3140 0.2717 0.2295 0.1872
1197.000000 0.1499 0.1420 0.1409 0.1718 0.2705
1202.000000 0.4540 0.5131 0.5482 0.5486 0.5490
1207.000000 0.5467 0.5458 0.5433 0.5388 0.5344
1212.000000 0.5300 0.5253 0.5206 0.5157 0.5100
1217.000000 0.5043 0.4985 0.4911 0.4833 0.4719
1222.000000 0.4606 0.4517 0.4028 0.3400 0.3071
1227.000000 0.2744 0.2416 0.2089 0.1826 0.1600
1232.000000 0.1499 0.1411 0.1353 0.1296 0.1258
1237.000000 0.1229 0.1223 0.1218 0.1212 0.1207
1242.000000 0.1266 0.1208 0.1825 0.2104 0.2383
1247.000000 0.2661 0.2906 0.2958 0.2848 0.2643
1252.000000 0.2440 0.2237 0.2062 0.2026 0.2027
1257.000000 0.2012 0.2603 0.2973 0.3344 0.3712
1262.000000 0.4082 0.4377 0.4438 0.4477 0.4536
1267.000000 0.4682 0.4745 0.4794 0.4817 0.4824
1272.000000 0.4824 0.4826 0.4812 0.4774 0.4720
1277.000000 0.4653 0.4569 0.4484 0.4368 0.4316
1282.000000 0.4303 0.4297 0.4294 0.4291 0.4282
1287.000000 0.4242 0.4106 0.4005 0.3958 0.3944
1292.000000 0.3937 0.4004 0.4103 0.4202 0.4252
1297.000000 0.4251 0.4249 0.4194 0.3974 0.3720
1302.000000 0.3468 0.3214 0.2962 0.2808 0.2813
1307.000000 0.2804 0.3039 0.3239 0.3419 0.3473
1312.000000 0.3483 0.3486 0.3501 0.3550 0.3603
1317.000000 0.3655 0.3699 0.3714 0.3720 0.3725
1322.000000 0.3731 0.3744 0.3790 0.3872 0.3949
1327.000000 0.4003 0.4041 0.4054 0.4058 0.4057
1332.000000 0.4056 0.4066 0.4105 0.4162 0.4204
1337.000000 0.4241 0.4266 0.4287 0.4300 0.4306
1342.000000 0.4304 0.4258 0.4143 0.4015 0.3917
1347.000000 0.3814 0.3714 0.3654 0.3608 0.3572
1352.000000 0.3555 0.3539 0.3522 0.3504 0.3472
1357.000000 0.3443 0.3424 0.3414 0.3413 0.3413
1362.000000 0.3578 0.3686 0.3794 0.3902 0.4010
1367.000000 0.4118 0.4277 0.4427 0.4670 0.4827
1372.000000 0.4839 0.4838 0.4837 0.4834 0.4830
1377.000000 0.4828 0.4826 0.4825 0.4827 0.4844
1382.000000 0.4830 0.4838 0.4826 0.4796 0.4751
1387.000000 0.4704 0.4659 0.4608 0.4562 0.4525
1392.000000 0.4488 0.4466 0.4444 0.4422 0.4401
1397.000000 0.4386 0.4371 0.4356 0.4341 0.4325
1402.000000 0.4309 0.4284 0.4258 0.4232 0.4205
1407.000000 0.4181 0.4156 0.4134 0.4119 0.4105
1412.000000 0.4095 0.4092 0.4091 0.4089 0.4088
1417.000000 0.4086 0.4085 0.4083 0.4072 0.4042
1422.000000 0.3998 0.3934 0.3865 0.3805 0.3758
1427.000000 0.3712 0.3662 0.3593 0.3516 0.3296
1432.000000 0.3219 0.3150 0.3086 0.3027 0.2967
1437.000000 0.2900 0.2827 0.2737 0.2677 0.2352
1442.000000 0.1895 0.1438 0.1007 0.0905 0.0885
1447.000000 0.1365 0.1683 0.2000 0.2317 0.2633
1452.000000 0.2950 0.3194 0.3253 0.3256 0.3257
1457.000000 0.3268 0.3085 0.2972 0.2859 0.2747
1462.000000 0.2634 0.2522 0.2410 0.2298 0.2186
1467.000000 0.2075 0.1963 0.1852 0.1741 0.1630
1472.000000 0.1519 0.1408 0.1298 0.1187 0.1077
1477.000000 0.0970 0.0852 0.0680 0.0564 0.0481
1482.000000 0.0431 0.0386 0.0341 0.0300 0.0262
1487.000000 0.0224 0.0192 0.0188 0.0188 0.0189
1492.000000 0.0170 0.0197 0.0279 0.0392 0.0472
1497.000000 0.0591 0.0646 0.0918 0.1216 0.1687
1502.000000 0.2156 0.2737 0.2993 0.3069 0.3144
1507.000000 0.3220 0.3327 0.3449 0.3562 0.4031
1512.000000 0.4584 0.4717 0.4802 0.4871 0.4917
1517.000000 0.4956 0.4970 0.4982 0.4990 0.4991
1522.000000 0.5001 0.4988 0.4985 0.4980 0.4973
1527.000000 0.4965 0.4951 0.4932 0.4911 0.4886
1532.000000 0.4831 0.4773 0.4718 0.4668 0.4622
1537.000000 0.4589 0.4561 0.4534 0.4511 0.4495
1542.000000 0.4482 0.4471 0.4460 0.4447 0.4412
1547.000000 0.4343 0.4274 0.4214 0.4156 0.4096
1552.000000 0.4023 0.3949 0.3867 0.3767 0.3651
1557.000000 0.3538 0.3463 0.3388 0.3310 0.3223
1562.000000 0.3125 0.3036 0.2968 0.2900 0.2789
1567.000000 0.2648 0.2506 0.2365 0.2224 0.2083
1572.000000 0.1943 0.1803 0.1663 0.1522 0.1382
1577.000000 0.1243 0.1104 0.0965 0.0858 0.0734
1582.000000 0.0632 0.0513 0.0348 0.0256 0.0208
1587.000000 0.0178 0.0159 0.0149 0.0143 0.0142
1592.000000 0.0142 0.0134 0.0164 0.0293 0.0505
1597.000000 0.0730 0.0956 0.1181 0.1406 0.1630
1602.000000 0.1854 0.2078 0.2243 0.2287 0.2302
1607.000000 0.2251 0.2231 0.2210 0.2175 0.2125
1612.000000 0.2072 0.2019 0.1967 0.1914 0.1861
1617.000000 0.1809 0.1757 0.1704 0.1516 0.1254
1622.000000 0.0979 0.0703 0.0511 0.0451 0.0446
1627.000000 0.0457 0.0513 0.0714 0.1051 0.1387
1632.000000 0.1724 0.2059 0.2394 0.2729 0.3064
1637.000000 0.3328 0.3468 0.3827 0.4471 0.4801
1642.000000 0.4831 0.4855 0.4868 0.4877 0.4885
1647.000000 0.4894 0.4904 0.4913 0.4922 0.4931
1652.000000 0.4940 0.4949 0.4958 0.4967 0.4974
1657.000000 0.4979 0.4998 0.4987 0.4987 0.4977
1662.000000 0.4961 0.4941 0.4920 0.4901 0.4883
1667.000000 0.4868 0.4857 0.4854 0.4853 0.4851
1672.000000 0.4848 0.4846 0.4844 0.4841 0.4837
1677.000000 0.4834 0.4830 0.4826 0.4822 0.4818
1682.000000 0.4813 0.4809 0.4804 0.4800 0.4794
1687.000000 0.4784 0.4761 0.4730 0.4707 0.4686
1692.000000 0.4663 0.4639 0.4612 0.4585 0.4554
1697.000000 0.4533 0.4516 0.4504 0.4495 0.4486
1702.000000 0.4478 0.4471 0.4467 0.4462 0.4458
1707.000000 0.4453 0.4449 0.4444 0.4439 0.4434
1712.000000 0.4430 0.4425 0.4420 0.4416 0.4412
1717.000000 0.4407 0.4402 0.4398 0.4393 0.4388
1722.000000 0.4384 0.4380 0.4377 0.4374 0.4370
1727.000000 0.4367 0.4364 0.4360 0.4357 0.4354
1732.000000 0.4350 0.4347 0.4344 0.4340 0.4337
1737.000000 0.4334 0.4330 0.4326 0.4321 0.4317
1742.000000 0.4313 0.4309 0.4299 0.4285 0.4270
1747.000000 0.4254 0.4238 0.4222 0.4206 0.4187
1752.000000 0.4157 0.4127 0.4098 0.4070 0.4044
1757.000000 0.4020 0.3997 0.3973 0.3950 0.3926
1762.000000 0.3902 0.3878 0.3854 0.3827 0.3795
1767.000000 0.3763 0.3746 0.3744 0.3742 0.3739
1772.000000 0.3737 0.3735 0.3732 0.3730 0.3728
1777.000000 0.3726 0.3726 0.3726 0.3726 0.3727
1782.000000 0.3728 0.3728 0.3728 0.3727 0.3725
1787.000000 0.3724 0.3720 0.3713 0.3706 0.3699
1792.000000 0.3693 0.3684 0.3675 0.3665 0.3653
1797.000000 0.3642 0.3631 0.3622 0.3613 0.3605
1802.000000 0.3597 0.3589 0.3580 0.3572 0.3564
1807.000000 0.3555 0.3545 0.3536 0.3530 0.3527
1812.000000 0.3525 0.3522 0.3521 0.3519 0.3516
1817.000000 0.3515 0.3515 0.3514 0.3514 0.3514
1822.000000 0.3514 0.3513 0.3510 0.3502 0.3486
1827.000000 0.3462 0.3428 0.3381 0.3316 0.3290
1832.000000 0.3271 0.3253 0.3234 0.3217 0.3202
1837.000000 0.3189 0.3177 0.3169 0.3163 0.3160
1842.000000 0.3158 0.3156 0.3154 0.3154 0.3153
1847.000000 0.3152 0.3151 0.3151 0.3150 0.3147
1852.000000 0.3141 0.3131 0.3120 0.3107 0.3090
1857.000000 0.3074 0.3053 0.3028 0.3001 0.2992
1862.000000 0.2987 0.2981 0.2975 0.2969 0.2963
1867.000000 0.2957 0.2952 0.2950 0.2950 0.2950
1872.000000 0.2949 0.2948 0.2948 0.2947 0.2946
1877.000000 0.2945 0.2945 0.2944 0.2944 0.2944
1882.000000 0.2944 0.2945 0.2947 0.2947 0.2948
1887.000000 0.2949 0.2950 0.2951 0.2952 0.2952
1892.000000 0.2953 0.2954 0.2955 0.2955 0.2956
1897.000000 0.2957 0.2957 0.2958 0.2958 0.2958
1902.000000 0.2959 0.2955 0.2948 0.2941 0.2934
1907.000000 0.2926 0.2920 0.2914 0.2908 0.2902
1912.000000 0.2896 0.2890 0.2884 0.2879 0.2875
1917.000000 0.2871 0.2867 0.2863 0.2858 0.2840
1922.000000 0.2820 0.2800 0.2750 0.2699 0.2650
1927.000000 0.2623 0.2599 0.2576 0.2554 0.2531
1932.000000 0.2509 0.2489 0.2469 0.2448 0.2428
1937.000000 0.2408 0.2387 0.2367 0.2347 0.2327
1942.000000 0.2308 0.2288 0.2268 0.2245 0.2232
1947.000000 0.2229 0.2226 0.2224 0.2223 0.2221
1952.000000 0.2220 0.2219 0.2220 0.2194 0.2223
1957.000000 0.2227 0.2233 0.2241 0.2250 0.2259
1962.000000 0.2268 0.2276 0.2285 0.2292 0.2300
1967.000000 0.2309 0.2309 0.2309 0.2309 0.2307
1972.000000 0.2306 0.2305 0.2308 0.2314 0.2324
1977.000000 0.2337 0.2351 0.2366 0.2382 0.2398
1982.000000 0.2414 0.2428 0.2440 0.2451 0.2463
1987.000000 0.2475 0.2486 0.2495 0.2497 0.2500
1992.000000 0.2502 0.2504 0.2505 0.2503 0.2532
1997.000000 0.2498 0.2496 0.2493 0.2488 0.2476
2002.000000 0.2463 0.2449 0.2435 0.2421 0.2407
2007.000000 0.2393 0.2379 0.2359 0.2337 0.2311
2012.000000 0.2286 0.2259 0.2224 0.2187 0.2148
2017.000000 0.2089 0.2030 0.1985 0.1955 0.1934
2022.000000 0.1932 0.1915 0.1932 0.1939 0.1947
2027.000000 0.1962 0.1976 0.1988 0.2000 0.2013
2032.000000 0.2026 0.2039 0.2052 0.2065 0.2078
2037.000000 0.2084 0.2088 0.2090 0.2092 0.2094
2042.000000 0.2096 0.2098 0.2098 0.2097 0.2096
2047.000000 0.2094 0.2087 0.2075 0.2016 0.1954
2052.000000 0.1937 0.1920 0.1903 0.1894 0.1888
2057.000000 0.1884 0.1880 0.1876 0.1895 0.1924
2062.000000 0.1873 0.2007 0.2048 0.2089 0.2130
2067.000000 0.2171 0.2212 0.2253 0.2293 0.2334
2072.000000 0.2368 0.2399 0.2408 0.2416 0.2422
2077.000000 0.2425 0.2426 0.2428 0.2430 0.2431
2082.000000 0.2432 0.2432 0.2433 0.2433 0.2433
2087.000000 0.2433 0.2433 0.2422 0.2433 0.2432
2092.000000 0.2432 0.2432 0.2431 0.2431 0.2430
2097.000000 0.2429 0.2428 0.2428 0.2426 0.2425
2102.000000 0.2420 0.2415 0.2410 0.2405 0.2400
2107.000000 0.2394 0.2387 0.2381 0.2376 0.2374
2112.000000 0.2373 0.2372 0.2370 0.2369 0.2367
2117.000000 0.2366 0.2364 0.2362 0.2359 0.2357
2122.000000 0.2355 0.2352 0.2350 0.2347 0.2345
2127.000000 0.2343 0.2341 0.2339 0.2336 0.2334
2132.000000 0.2332 0.2331 0.2330 0.2328 0.2327
2137.000000 0.2325 0.2324 0.2323 0.2321 0.2320
2142.000000 0.2319 0.2317 0.2316 0.2315 0.2313
2147.000000 0.2311 0.2309 0.2305 0.2302 0.2299
2152.000000 0.2296 0.2293 0.2289 0.2286 0.2283
2157.000000 0.2280 0.2276 0.2273 0.2269 0.2264
2162.000000 0.2258 0.2251 0.2244 0.2237 0.2231
2167.000000 0.2224 0.2217 0.2211 0.2204 0.2198
2172.000000 0.2193 0.2187 0.2181 0.2175 0.2169
2177.000000 0.2164 0.2158 0.2152 0.2146 0.2140
2182.000000 0.2134 0.2128 0.2122 0.2116 0.2110
2187.000000 0.2103 0.2096 0.2089 0.2082 0.2075
2192.000000 0.2068 0.2060 0.2054 0.2047 0.2040
2197.000000 0.2032 0.2026 0.2020 0.2016 0.2011
2202.000000 0.2006 0.2001 0.1996 0.1992 0.1987
2207.000000 0.1982 0.1978 0.1972 0.1965 0.1957
2212.000000 0.1949 0.1942 0.1934 0.1926 0.1918
2217.000000 0.1909 0.1899 0.1890 0.1880 0.1870
2222.000000 0.1861 0.1851 0.1841 0.1832 0.1822
2227.000000 0.1811 0.1798 0.1786 0.1774 0.1762
2232.000000 0.1750 0.1740 0.1730 0.1722 0.1715
2237.000000 0.1708 0.1701 0.1695 0.1689 0.1688
2242.000000 0.1687 0.1686 0.1685 0.1684 0.1683
2247.000000 0.1682 0.1681 0.1680 0.1680 0.1679
2252.000000 0.1678 0.1677 0.1676 0.1675 0.1674
2257.000000 0.1672 0.1670 0.1668 0.1666 0.1664
2262.000000 0.1662 0.1660 0.1658 0.1655 0.1651
2267.000000 0.1645 0.1636 0.1627 0.1618 0.1609
2272.000000 0.1600 0.1591 0.1581 0.1572 0.1562
2277.000000 0.1553 0.1543 0.1533 0.1520 0.1508
2282.000000 0.1495 0.1483 0.1470 0.1457 0.1444
2287.000000 0.1432 0.1420 0.1407 0.1394 0.1381
2292.000000 0.1368 0.1355 0.1342 0.1331 0.1320
2297.000000 0.1313 0.1306 0.1299 0.1292 0.1285
2302.000000 0.1278 0.1271 0.1264 0.1254 0.1245
2307.000000 0.1234 0.1223 0.1212 0.1201 0.1189
2312.000000 0.1178 0.1166 0.1153 0.1140 0.1126
2317.000000 0.1112 0.1098 0.1083 0.1074 0.1066
2322.000000 0.1060 0.1056 0.1052 0.1047 0.1043
2327.000000 0.1039 0.1034 0.1030 0.1026 0.1022
2332.000000 0.1018 0.1013 0.1009 0.1003 0.0998
2337.000000 0.0992 0.0987 0.0981 0.0976 0.0971
2342.000000 0.0966 0.0961 0.0955 0.0950 0.0944
2347.000000 0.0939 0.0934 0.0929 0.0924 0.0919
2352.000000 0.0914 0.0909 0.0904 0.0899 0.0894
2357.000000 0.0889 0.0884 0.0879 0.0874 0.0869
2362.000000 0.0864 0.0859 0.0857 0.0854 0.0852
2367.000000 0.0850 0.0848 0.0847 0.0845 0.0843
2372.000000 0.0841 0.0840 0.0838 0.0836 0.0834
2377.000000 0.0832 0.0829 0.0826 0.0819 0.0813
2382.000000 0.0793 0.0774 0.0752 0.0729 0.0712
2387.000000 0.0701 0.0690 0.0679 0.0668 0.0660
2392.000000 0.0651 0.0645 0.0639 0.0633 0.0627
2397.000000 0.0621 0.0616 0.0611 0.0608 0.0605
2402.000000 0.0602 0.0600 0.0597 0.0594 0.0591
2407.000000 0.0588 0.0586 0.0583 0.0581 0.0578
2412.000000 0.0575 0.0572 0.0569 0.0567 0.0564
2417.000000 0.0561 0.0558 0.0554 0.0551 0.0548
2422.000000 0.0545 0.0542 0.0539 0.0536 0.0533
2427.000000 0.0529 0.0526 0.0523 0.0520 0.0517
2432.000000 0.0514 0.0511 0.0508 0.0505 0.0502
2437.000000 0.0498 0.0495 0.0492 0.0488 0.0484
2442.000000 0.0481 0.0477 0.0474 0.0470 0.0467
2447.000000 0.0464 0.0460 0.0457 0.0454 0.0450
2452.000000 0.0447 0.0443 0.0440 0.0437 0.0434
2457.000000 0.0432 0.0429 0.0426 0.0423 0.0420
2462.000000 0.0418 0.0415 0.0412 0.0409 0.0406
2467.000000 0.0404 0.0401 0.0398 0.0396 0.0393
2472.000000 0.0390 0.0387 0.0384 0.0381 0.0379
2477.000000 0.0376 0.0374 0.0371 0.0368 0.0365
2482.000000 0.0362 0.0359 0.0357 0.0354 0.0351
2487.000000 0.0349 0.0346 0.0343 0.0341 0.0338
2492.000000 0.0335 0.0332 0.0330 0.0328 0.0325
2497.000000 0.0322 0.0319 0.0316 0.0314 0.0311
2502.000000 0.0308 0.0305 0.0303 0.0301 0.0299
2507.000000 0.0298 0.0297 0.0296 0.0295 0.0293
2512.000000 0.0291 0.0290 0.0289 0.0288 0.0286
2517.000000 0.0285 0.0284 0.0283 0.0282 0.0280
2522.000000 0.0279 0.0277 0.0276 0.0275 0.0274
2527.000000 0.0272 0.0271 0.0271 0.0270 0.0269
2532.000000 0.0268 0.0267 0.0266 0.0265 0.0264
2537.000000 0.0263 0.0263 0.0262 0.0261 0.0260
2542.000000 0.0259 0.0258 0.0257 0.0256 0.0255
2547.000000 0.0254 0.0253 0.0252 0.0252 0.0252
2552.000000 0.0252 0.0252 0.0252 0.0252 0.0252
2557.000000 0.0252 0.0252 0.0252 0.0252 0.0252
2562.000000 0.0252 0.0252 0.0252 0.0252 0.0252
2567.000000 0.0252 0.0252 0.0252 0.0252 0.0252
2572.000000 0.0252 0.0252 0.0252 0.0252 0.0252
2577.000000 0.0252 0.0252 0.0252 0.0252 0.0252
2582.000000 0.0252 0.0252 0.0252 0.0252 0.0252
2587.000000 0.0252 0.0252 0.0252 0.0252 0.0251
2592.000000 0.0251 0.0251 0.0251 0.0251 0.0251
2597.000000 0.0251 0.0251 0.0251 0.0251 0.0251
2602.000000 0.0251 0.0251 0.0251 0.0251 0.0251
2607.000000 0.0251 0.0251 0.0251 0.0251 0.0251
2612.000000 0.0251 0.0251 0.0251 0.0251 0.0251
2617.000000 0.0251 0.0251 0.0251 0.0251 0.0256
2622.000000 0.0251 0.0251 0.0251 0.0251 0.0251
2627.000000 0.0251 0.0251 0.0251 0.0251 0.0251
2632.000000 0.0251 0.0251 0.0251 0.0251 0.0251
2637.000000 0.0251 0.0251 0.0251 0.0251 0.0251
2642.000000 0.0251 0.0251 0.0251 0.0251 0.0251
2647.000000 0.0251 0.0251 0.0251 0.0251 0.0251
2652.000000 0.0251 0.0251 0.0251 0.0251 0.0251
2657.000000 0.0251 0.0251 0.0251 0.0251 0.0251
2662.000000 0.0251 0.0251 0.0251 0.0251 0.0251
2667.000000 0.0251 0.0251 0.0251 0.0251 0.0251
2672.000000 0.0251 0.0251 0.0251 0.0251 0.0251
2677.000000 0.0250 0.0250 0.0250 0.0250 0.0251
2682.000000 0.0251 0.0252 0.0253 0.0254 0.0255
2687.000000 0.0255 0.0255 0.0256 0.0257 0.0257
2692.000000 0.0258 0.0259 0.0260 0.0260 0.0260
2697.000000 0.0261 0.0261 0.0262 0.0263 0.0263
2702.000000 0.0263 0.0264 0.0264 0.0265 0.0266
2707.000000 0.0266 0.0266 0.0267 0.0267 0.0268
2712.000000 0.0269 0.0270 0.0270 0.0271 0.0272
2717.000000 0.0273 0.0274 0.0275 0.0275 0.0276
2722.000000 0.0277 0.0277 0.0278 0.0279 0.0279
2727.000000 0.0281 0.0284 0.0286 0.0288 0.0291
2732.000000 0.0294 0.0297 0.0299 0.0302 0.0305
2737.000000 0.0307 0.0310 0.0313 0.0315 0.0318
2742.000000 0.0320 0.0323 0.0325 0.0328 0.0330
2747.000000 0.0333 0.0335 0.0338 0.0340 0.0342
2752.000000 0.0345 0.0348 0.0350 0.0352 0.0355
2757.000000 0.0357 0.0360 0.0362 0.0365 0.0367
2762.000000 0.0370 0.0372 0.0374 0.0376 0.0379
2767.000000 0.0381 0.0383 0.0386 0.0388 0.0390
2772.000000 0.0392 0.0395 0.0397 0.0399 0.0401
2777.000000 0.0404 0.0406 0.0408 0.0411 0.0413
2782.000000 0.0415 0.0417 0.0419 0.0421 0.0422
2787.000000 0.0424 0.0426 0.0428 0.0430 0.0432
2792.000000 0.0433 0.0435 0.0437 0.0439 0.0441
2797.000000 0.0443 0.0445 0.0446 0.0451 0.0459
2802.000000 0.0467 0.0482 0.0511 0.0540 0.0565
2807.000000 0.0567 0.0569 0.0571 0.0573 0.0575
2812.000000 0.0577 0.0579 0.0582 0.0584 0.0586
2817.000000 0.0588 0.0590 0.0591 0.0592 0.0593
2822.000000 0.0594 0.0594 0.0595 0.0596 0.0597
2827.000000 0.0598 0.0598 0.0599 0.0600 0.0600
2832.000000 0.0601 0.0602 0.0603 0.0604 0.0604
2837.000000 0.0605 0.0606 0.0607 0.0608 0.0609
2842.000000 0.0609 0.0610 0.0610 0.0611 0.0612
2847.000000 0.0612 0.0613 0.0613 0.0614 0.0615
2852.000000 0.0615 0.0615 0.0616 0.0616 0.0617
2857.000000 0.0617 0.0618 0.0618 0.0618 0.0619
2862.000000 0.0619 0.0619 0.0620 0.0620 0.0621
2867.000000 0.0622 0.0622 0.0622 0.0622 0.0623
2872.000000 0.0623 0.0623 0.0623 0.0623 0.0623
2877.000000 0.0623 0.0623 0.0623 0.0623 0.0630
2882.000000 0.0622 0.0622 0.0622 0.0622 0.0622
2887.000000 0.0622 0.0622 0.0622 0.0622 0.0621
2892.000000 0.0621 0.0621 0.0620 0.0619 0.0618
2897.000000 0.0617 0.0616 0.0616 0.0615 0.0614
2902.000000 0.0613 0.0612 0.0611 0.0610 0.0609
2907.000000 0.0608 0.0608 0.0607 0.0606 0.0605
2912.000000 0.0604 0.0603 0.0602 0.0601 0.0601
2917.000000 0.0600 0.0599 0.0598 0.0597 0.0596
2922.000000 0.0595 0.0594 0.0593 0.0592 0.0591
2927.000000 0.0590 0.0589 0.0587 0.0586 0.0584
2932.000000 0.0583 0.0581 0.0580 0.0578 0.0577
2937.000000 0.0576 0.0574 0.0573 0.0571 0.0570
2942.000000 0.0568 0.0567 0.0565 0.0564 0.0563
2947.000000 0.0561 0.0560 0.0558 0.0557 0.0555
2952.000000 0.0554 0.0552 0.0551 0.0550 0.0548
2957.000000 0.0546 0.0544 0.0543 0.0541 0.0539
2962.000000 0.0537 0.0535 0.0533 0.0531 0.0529
2967.000000 0.0527 0.0525 0.0523 0.0521 0.0518
2972.000000 0.0516 0.0514 0.0512 0.0510 0.0508
2977.000000 0.0506 0.0504 0.0502 0.0500 0.0498
2982.000000 0.0496 0.0494 0.0493 0.0492 0.0490
2987.000000 0.0489 0.0489 0.0488 0.0487 0.0486
2992.000000 0.0485 0.0484 0.0483 0.0481 0.0480
2997.000000 0.0479 0.0459 0.0479 0.0479 0.0479
3002.000000 0.0482 0.0484 0.0487 0.0490 0.0495
3007.000000 0.0499 0.0504 0.0508 0.0512 0.0517
3012.000000 0.0521 0.0526 0.0531 0.0535 0.0540
3017.000000 0.0544 0.0548 0.0552 0.0556 0.0559
3022.000000 0.0563 0.0567 0.0570 0.0574 0.0578
3027.000000 0.0582 0.0585 0.0589 0.0592 0.0596
3032.000000 0.0600 0.0605 0.0609 0.0613 0.0617
3037.000000 0.0621 0.0625 0.0629 0.0633 0.0637
3042.000000 0.0648 0.0662 0.0676 0.0691 0.0743
3047.000000 0.0799 0.0854 0.0900 0.0912 0.0924
3052.000000 0.0936 0.0944 0.0948 0.0951 0.0955
3057.000000 0.0958 0.0962 0.0965 0.0969 0.0972
3062.000000 0.0975 0.0978 0.0981 0.0985 0.0988
3067.000000 0.0992 0.0994 0.0996 0.0998 0.1000
3072.000000 0.1001 0.1002 0.1003 0.1004 0.1005
3077.000000 0.1006 0.1007 0.1008 0.1009 0.1010
3082.000000 0.1011 0.1012 0.1013 0.1013 0.1014
3087.000000 0.1015 0.1016 0.1017 0.1018 0.1019
3092.000000 0.1020 0.1021 0.1021 0.1022 0.1023
3097.000000 0.1024 0.1025 0.1025 0.1025 0.1025
3102.000000 0.1025 0.1025 0.1025 0.1025 0.1024
3107.000000 0.1024 0.1024 0.1024 0.1024 0.1024
3112.000000 0.1024 0.1024 0.1023 0.1023 0.1023
3117.000000 0.1023 0.1023 0.1023 0.1023 0.1023
3122.000000 0.1022 0.1022 0.1022 0.1022 0.1022
3127.000000 0.1022 0.1022 0.1021 0.1021 0.1021
3132.000000 0.1021 0.1021 0.1021 0.1021 0.1021
3137.000000 0.1020 0.1020 0.1020 0.1020 0.1020
3142.000000 0.1020 0.1020 0.1020 0.1019 0.1019
3147.000000 0.1019 0.1019 0.1018 0.1018 0.1018
3152.000000 0.1018 0.1018 0.1018 0.1018 0.1018
3157.000000 0.1017 0.1017 0.1017 0.1017 0.1017
3162.000000 0.1017 0.1017 0.1017 0.1010 0.1016
3167.000000 0.1016 0.1016 0.1015 0.1015 0.1015
3172.000000 0.1015 0.1014 0.1014 0.1014 0.1014
3177.000000 0.1013 0.1013 0.1012 0.1012 0.1011
3182.000000 0.1011 0.1011 0.1011 0.1010 0.1010
3187.000000 0.1009 0.1009 0.1008 0.1008 0.1007
3192.000000 0.1007 0.1006 0.1006 0.1005 0.1005
3197.000000 0.1004 0.1004 0.1004 0.1004 0.1004
3202.000000 0.1003 0.1003 0.1002 0.1002 0.1001
3207.000000 0.1001 0.1000 0.1000 0.0999 0.0999
3212.000000 0.0998 0.0998 0.0997 0.0996 0.0996
3217.000000 0.0995 0.0994 0.0994 0.0993 0.0993
3222.000000 0.0992 0.0992 0.0991 0.0990 0.0989
3227.000000 0.0989 0.0988 0.0987 0.0986 0.0986
3232.000000 0.0985 0.0984 0.0984 0.0983 0.0982
3237.000000 0.0981 0.0981 0.0979 0.0977 0.0974
3242.000000 0.0972 0.0969 0.0967 0.0965 0.0962
3247.000000 0.0960 0.0958 0.0955 0.0953 0.0950
3252.000000 0.0948 0.0945 0.0943 0.0940 0.0938
3257.000000 0.0935 0.0933 0.0931 0.0928 0.0925
3262.000000 0.0923 0.0920 0.0918 0.0915 0.0913
3267.000000 0.0910 0.0907 0.0905 0.0902 0.0900
3272.000000 0.0897 0.0895 0.0892 0.0889 0.0887
3277.000000 0.0884 0.0882 0.0879 0.0877 0.0874
3282.000000 0.0872 0.0869 0.0866 0.0864 0.0861
3287.000000 0.0858 0.0855 0.0852 0.0849 0.0846
3292.000000 0.0843 0.0840 0.0837 0.0834 0.0831
3297.000000 0.0828 0.0825 0.0822 0.0819 0.0816
3302.000000 0.0813 0.0810 0.0807 0.0804 0.0801
3307.000000 0.0798 0.0795 0.0792 0.0789 0.0786
3312.000000 0.0783 0.0780 0.0777 0.0774 0.0771
3317.000000 0.0769 0.0766 0.0763 0.0760 0.0757
3322.000000 0.0755 0.0752 0.0750 0.0747 0.0745
3327.000000 0.0742 0.0740 0.0737 0.0735 0.0733
3332.000000 0.0731 0.0728 0.0726 0.0724 0.0722
3337.000000 0.0719 0.0717 0.0715 0.0713 0.0710
3342.000000 0.0708 0.0706 0.0703 0.0701 0.0698
3347.000000 0.0696 0.0694 0.0691 0.0689 0.0687
3352.000000 0.0685 0.0683 0.0682 0.0680 0.0678
3357.000000 0.0678 0.0677 0.0676 0.0676 0.0675
3362.000000 0.0675 0.0675 0.0675 0.0674 0.0674
3367.000000 0.0674 0.0674 0.0674 0.0673 0.0673
3372.000000 0.0673 0.0673 0.0672 0.0672 0.0672
3377.000000 0.0672 0.0672 0.0672 0.0672 0.0672
3382.000000 0.0672 0.0671 0.0671 0.0671 0.0671
3387.000000 0.0671 0.0670 0.0670 0.0670 0.0670
3392.000000 0.0670 0.0669 0.0669 0.0669 0.0669
3397.000000 0.0668 0.0668 0.0668 0.0668 0.0668
3402.000000 0.0668 0.0668 0.0668 0.0668 0.0667
3407.000000 0.0667 0.0667 0.0667 0.0667 0.0666
3412.000000 0.0666 0.0666 0.0666 0.0666 0.0665
3417.000000 0.0665 0.0665 0.0665 0.0664 0.0664
3422.000000 0.0664 0.0664 0.0664 0.0663 0.0663
3427.000000 0.0663 0.0663 0.0663 0.0662 0.0662
3432.000000 0.0662 0.0662 0.0662 0.0661 0.0661
3437.000000 0.0661 0.0661 0.0660 0.0660 0.0660
3442.000000 0.0660 0.0660 0.0659 0.0659 0.0659
3447.000000 0.0659 0.0659 0.0659 0.0659 0.0659
3452.000000 0.0659 0.0659 0.0658 0.0658 0.0658
3457.000000 0.0658 0.0658 0.0658 0.0658 0.0658
3462.000000 0.0658 0.0658 0.0658 0.0658 0.0658
3467.000000 0.0658 0.0657 0.0657 0.0657 0.0657
3472.000000 0.0657 0.0657 0.0657 0.0657 0.0657
3477.000000 0.0657 0.0656 0.0656 0.0656 0.0656
3482.000000 0.0656 0.0656 0.0656 0.0656 0.0656
3487.000000 0.0656 0.0656 0.0656 0.0656 0.0656
3492.000000 0.0655 0.0655 0.0655 0.0655 0.0655
3497.000000 0.0655 0.0655 0.0655 0.0655 0.0655
3502.000000 0.0654 0.0654 0.0654 0.0654 0.0654
3507.000000 0.0654 0.0654 0.0654 0.0654 0.0654
3512.000000 0.0653 0.0653 0.0653 0.0653 0.0653
3517.000000 0.0653 0.0653 0.0653 0.0653 0.0653
3522.000000 0.0653 0.0653 0.0653 0.0653 0.0653
3527.000000 0.0652 0.0652 0.0652 0.0652 0.0652
3532.000000 0.0652 0.0652 0.0652 0.0652 0.0652
3537.000000 0.0651 0.0651 0.0651 0.0651 0.0651
3542.000000 0.0651 0.0651 0.0651 0.0651 0.0651
3547.000000 0.0651 0.0651 0.0651 0.0651 0.0651
3552.000000 0.0651 0.0651 0.0651 0.0651 0.0651
3557.000000 0.0651 0.0651 0.0651 0.0651 0.0651
3562.000000 0.0651 0.0651 0.0651 0.0651 0.0651
3567.000000 0.0651 0.0651 0.0651 0.0651 0.0651
3572.000000 0.0651 0.0651 0.0651 0.0651 0.0651
3577.000000 0.0651 0.0651 0.0651 0.0651 0.0651
3582.000000 0.0650 0.0650 0.0650 0.0650 0.0650
3587.000000 0.0650 0.0650 0.0650 0.0650 0.0650
3592.000000 0.0650 0.0650 0.0650 0.0650 0.0650
3597.000000 0.0650 0.0650 0.0650 0.0650 0.0650
3602.000000 0.0650 0.0650 0.0650 0.0650 0.0650
3607.000000 0.0650 0.0650 0.0650 0.0650 0.0650
3612.000000 0.0650 0.0650 0.0650 0.0650 0.0650
3617.000000 0.0650 0.0650 0.0650 0.0650 0.0650
3622.000000 0.0650 0.0650 0.0650 0.0650 0.0650
3627.000000 0.0650 0.0650 0.0650 0.0650 0.0650
3632.000000 0.0650 0.0650 0.0649 0.0649 0.0649
3637.000000 0.0649 0.0649 0.0649 0.0649 0.0649
3642.000000 0.0649 0.0649 0.0649 0.0649 0.0649
3647.000000 0.0649 0.0649 0.0649 0.0649 0.0649
3652.000000 0.0649 0.0649 0.0649 0.0649 0.0649
3657.000000 0.0649 0.0649 0.0649 0.0649 0.0649
3662.000000 0.0649 0.0649 0.0649 0.0649 0.0649
3667.000000 0.0649 0.0649 0.0649 0.0649 0.0649
3672.000000 0.0649 0.0649 0.0649 0.0649 0.0649
3677.000000 0.0649 0.0649 0.0649 0.0649 0.0649
3682.000000 0.0648 0.0648 0.0648 0.0648 0.0648
3687.000000 0.0648 0.0647 0.0647 0.0647 0.0647
3692.000000 0.0647 0.0647 0.0647 0.0647 0.0647
3697.000000 0.0647 0.0647 0.0646 0.0646 0.0646
3702.000000 0.0646 0.0646 0.0646 0.0646 0.0646
3707.000000 0.0646 0.0646 0.0646 0.0645 0.0645
3712.000000 0.0645 0.0645 0.0645 0.0644 0.0644
3717.000000 0.0644 0.0644 0.0644 0.0644 0.0644
3722.000000 0.0644 0.0644 0.0644 0.0644 0.0643
3727.000000 0.0643 0.0643 0.0643 0.0643 0.0643
3732.000000 0.0643 0.0643 0.0643 0.0643 0.0643
3737.000000 0.0642 0.0642 0.0642 0.0642 0.0642
3742.000000 0.0642 0.0641 0.0641 0.0641 0.0641
3747.000000 0.0641 0.0641 0.0641 0.0641 0.0641
3752.000000 0.0641 0.0641 0.0640 0.0640 0.0640
3757.000000 0.0640 0.0640 0.0640 0.0640 0.0640
3762.000000 0.0640 0.0640 0.0640 0.0640 0.0639
3767.000000 0.0639 0.0639 0.0639 0.0639 0.0638
3772.000000 0.0638 0.0638 0.0638 0.0638 0.0638
3777.000000 0.0637 0.0637 0.0637 0.0637 0.0637
3782.000000 0.0637 0.0636 0.0636 0.0635 0.0634
3787.000000 0.0634 0.0633 0.0633 0.0633 0.0632
3792.000000 0.0632 0.0632 0.0631 0.0631 0.0630
3797.000000 0.0630 0.0629 0.0629 0.0628 0.0628
3802.000000 0.0627 0.0627 0.0626 0.0626 0.0625
3807.000000 0.0625 0.0624 0.0624 0.0623 0.0622
3812.000000 0.0622 0.0621 0.0621 0.0620 0.0620
3817.000000 0.0619 0.0619 0.0619 0.0618 0.0618
3822.000000 0.0618 0.0617 0.0617 0.0616 0.0616
3827.000000 0.0615 0.0615 0.0614 0.0614 0.0613
3832.000000 0.0613 0.0612 0.0612 0.0611 0.0611
3837.000000 0.0610 0.0610 0.0609 0.0609 0.0608
3842.000000 0.0607 0.0607 0.0606 0.0605 0.0605
3847.000000 0.0604 0.0603 0.0602 0.0601 0.0600
3852.000000 0.0600 0.0599 0.0598 0.0597 0.0596
3857.000000 0.0595 0.0594 0.0593 0.0592 0.0591
3862.000000 0.0590 0.0589 0.0588 0.0588 0.0587
3867.000000 0.0586 0.0585 0.0584 0.0583 0.0582
3872.000000 0.0581 0.0580 0.0579 0.0578 0.0577
3877.000000 0.0577 0.0576 0.0575 0.0574 0.0573
3882.000000 0.0572 0.0571 0.0570 0.0570 0.0569
3887.000000 0.0568 0.0567 0.0566 0.0565 0.0564
3892.000000 0.0563 0.0562 0.0562 0.0561 0.0560
3897.000000 0.0559 0.0558 0.0557 0.0556 0.0555
3902.000000 0.0554 0.0553 0.0552 0.0552 0.0551
3907.000000 0.0550 0.0548 0.0547 0.0546 0.0545
3912.000000 0.0544 0.0543 0.0542 0.0540 0.0539
3917.000000 0.0538 0.0537 0.0536 0.0535 0.0534
3922.000000 0.0533 0.0531 0.0530 0.0529 0.0528
3927.000000 0.0527 0.0526 0.0525 0.0523 0.0522
3932.000000 0.0521 0.0520 0.0518 0.0517 0.0516
3937.000000 0.0515 0.0513 0.0512 0.0511 0.0510
3942.000000 0.0509 0.0508 0.0507 0.0505 0.0504
3947.000000 0.0503 0.0502 0.0501 0.0500 0.0499
3952.000000 0.0498 0.0497 0.0495 0.0494 0.0493
3957.000000 0.0492 0.0491 0.0489 0.0488 0.0487
3962.000000 0.0485 0.0484 0.0483 0.0482 0.0481
3967.000000 0.0480 0.0479 0.0478 0.0476 0.0475
3972.000000 0.0474 0.0472 0.0471 0.0470 0.0469
3977.000000 0.0468 0.0467 0.0466 0.0464 0.0463
3982.000000 0.0462 0.0461 0.0460 0.0459 0.0458
3987.000000 0.0457 0.0456 0.0454 0.0453 0.0452
3992.000000 0.0451 0.0449 0.0448 0.0447 0.0447
3997.000000 0.0446 0.0445 0.0444 0.0444
##END=
