##TITLE=Acetamide, hydrochloride
##JCAMP-DX=4.24
##DATA TYPE=INFRARED SPECTRUM
##CLASS=COBLENTZ III
##ORIGIN=DOW CORNING CORP.
##OWNER=Copyright (C) 1987 by the Coblentz Society
Collection (C) 2018 copyright by the U.S. Secretary of Commerce
on behalf of the United States of America. All rights reserved.
##DATE=Not specified, most likely prior to 1971
##NAMES=acetamide hydrochloride
##MOLFORM=C2 H6 Cl N O
##SOURCE REFERENCE=COBLENTZ NO. 8638
##$NIST ID=B6008638
##$NIST SOURCE=COBLENTZ
##$NIST IMAGE=cob8638
##SPECTROMETER/DATA SYSTEM=PERKIN-ELMER 521 (GRATING)
##INSTRUMENT PARAMETERS=FILTERS AT 3150, 2500, 2000, 1150, 700, 410. GRATING CHANGES: 2000, 630 CM^-^1
##STATE=SOLID (SPLIT MULL), FLUOROLUBE FOR 3800-1275 CM^-^1, NUJOL FOR 1275-200 CM^-^1
##SAMPLING PROCEDURE=TRANSMISSION
##RESOLUTION=2
##DATA PROCESSING=DIGITIZED BY COBLENTZ SOCIETY (BATCH II) FROM HARD COPY
##XUNITS=1/CM
##YUNITS=TRANSMITTANCE
##XFACTOR=1.0
##YFACTOR=1
##FIRSTX=247
##LASTX=3802
##FIRSTY=0.8527
##MAXX=3802
##MINX=247
##MAXY=0.9847
##MINY=0.2958
##NPOINTS=3556
##XYDATA=(X++(Y..Y))
247.000000 0.8527 0.8555 0.8580 0.8568 0.8610
252.000000 0.8625 0.8641 0.8659 0.8677 0.8695
257.000000 0.8715 0.8745 0.8774 0.8804 0.8845
262.000000 0.8905 0.8958 0.9009 0.9060 0.9131
267.000000 0.9199 0.9242 0.9285 0.9326 0.9361
272.000000 0.9395 0.9426 0.9456 0.9486 0.9517
277.000000 0.9543 0.9564 0.9585 0.9606 0.9627
282.000000 0.9647 0.9659 0.9672 0.9685 0.9696
287.000000 0.9707 0.9718 0.9729 0.9740 0.9746
292.000000 0.9750 0.9754 0.9758 0.9761 0.9765
297.000000 0.9769 0.9773 0.9777 0.9780 0.9781
302.000000 0.9783 0.9784 0.9785 0.9786 0.9788
307.000000 0.9789 0.9788 0.9787 0.9786 0.9801
312.000000 0.9784 0.9783 0.9782 0.9781 0.9780
317.000000 0.9778 0.9777 0.9775 0.9773 0.9772
322.000000 0.9770 0.9768 0.9769 0.9770 0.9771
327.000000 0.9772 0.9773 0.9772 0.9771 0.9769
332.000000 0.9768 0.9767 0.9761 0.9754 0.9748
337.000000 0.9741 0.9735 0.9728 0.9721 0.9713
342.000000 0.9705 0.9696 0.9688 0.9680 0.9672
347.000000 0.9663 0.9655 0.9647 0.9638 0.9630
352.000000 0.9622 0.9613 0.9605 0.9597 0.9587
357.000000 0.9576 0.9566 0.9555 0.9545 0.9535
362.000000 0.9524 0.9513 0.9500 0.9487 0.9473
367.000000 0.9460 0.9446 0.9433 0.9419 0.9405
372.000000 0.9391 0.9377 0.9363 0.9350 0.9334
377.000000 0.9317 0.9301 0.9285 0.9269 0.9253
382.000000 0.9236 0.9220 0.9204 0.9189 0.9176
387.000000 0.9163 0.9150 0.9138 0.9125 0.9112
392.000000 0.9095 0.9075 0.9055 0.9035 0.9016
397.000000 0.8984 0.8951 0.8919 0.8886 0.8854
402.000000 0.8821 0.8788 0.8767 0.8768 0.8768
407.000000 0.8768 0.8768 0.8768 0.8768 0.8764
412.000000 0.8757 0.8749 0.8742 0.8735 0.8726
417.000000 0.8714 0.8703 0.8692 0.8681 0.8668
422.000000 0.8652 0.8636 0.8621 0.8605 0.8589
427.000000 0.8573 0.8551 0.8529 0.8507 0.8486
432.000000 0.8462 0.8421 0.8380 0.8340 0.8294
437.000000 0.8246 0.8197 0.8149 0.8099 0.8046
442.000000 0.7994 0.7942 0.7838 0.7730 0.7622
447.000000 0.7514 0.7358 0.7116 0.7042 0.7053
452.000000 0.7080 0.7025 0.7142 0.7135 0.7150
457.000000 0.7099 0.7031 0.6963 0.6938 0.6949
462.000000 0.7105 0.7261 0.7417 0.7573 0.7729
467.000000 0.7885 0.7990 0.8001 0.8008 0.7994
472.000000 0.7987 0.7976 0.7958 0.7925 0.7893
477.000000 0.7857 0.7822 0.7782 0.7736 0.7690
482.000000 0.7644 0.7599 0.7554 0.7509 0.7462
487.000000 0.7405 0.7348 0.7291 0.7233 0.7176
492.000000 0.7119 0.7062 0.7005 0.6947 0.6890
497.000000 0.6832 0.6775 0.6717 0.6660 0.6602
502.000000 0.6536 0.6470 0.6404 0.6338 0.6272
507.000000 0.6204 0.6135 0.6067 0.5998 0.5916
512.000000 0.5827 0.5738 0.5667 0.5601 0.5575
517.000000 0.5566 0.5568 0.5600 0.5605 0.5642
522.000000 0.5698 0.5796 0.5915 0.6052 0.6136
527.000000 0.6220 0.6303 0.6384 0.6467 0.6733
532.000000 0.6999 0.7265 0.7531 0.7797 0.8064
537.000000 0.8305 0.8418 0.8549 0.8937 0.9119
542.000000 0.9292 0.9445 0.9583 0.9694 0.9764
547.000000 0.9802 0.9824 0.9835 0.9847 0.9845
552.000000 0.9835 0.9821 0.9806 0.9786 0.9762
557.000000 0.9739 0.9703 0.9666 0.9622 0.9562
562.000000 0.9502 0.9392 0.9053 0.8812 0.8570
567.000000 0.8329 0.8249 0.8228 0.8377 0.8837
572.000000 0.8876 0.8873 0.8825 0.8802 0.8829
577.000000 0.8880 0.8913 0.8919 0.8919 0.8916
582.000000 0.8901 0.8905 0.8849 0.8799 0.8750
587.000000 0.8707 0.8663 0.8617 0.8571 0.8525
592.000000 0.8479 0.8433 0.8387 0.8340 0.8290
597.000000 0.8232 0.8175 0.8118 0.8073 0.8032
602.000000 0.7991 0.7949 0.7920 0.7890 0.7860
607.000000 0.7831 0.7801 0.7772 0.7736 0.7698
612.000000 0.7659 0.7620 0.7581 0.7542 0.7505
617.000000 0.7467 0.7430 0.7393 0.7355 0.7317
622.000000 0.7279 0.7239 0.7196 0.7153 0.7107
627.000000 0.7062 0.7017 0.6972 0.6927 0.6882
632.000000 0.6837 0.6792 0.6747 0.6702 0.6657
637.000000 0.6612 0.6567 0.6522 0.6477 0.6432
642.000000 0.6387 0.6342 0.6297 0.6252 0.6207
647.000000 0.6162 0.6116 0.6071 0.6026 0.5981
652.000000 0.5936 0.5891 0.5846 0.5801 0.5756
657.000000 0.5711 0.5666 0.5621 0.5576 0.5531
662.000000 0.5486 0.5437 0.5384 0.5330 0.5278
667.000000 0.5226 0.5174 0.5122 0.5075 0.5030
672.000000 0.4986 0.4941 0.4895 0.4842 0.4789
677.000000 0.4736 0.4683 0.4633 0.4585 0.4537
682.000000 0.4489 0.4441 0.4393 0.4345 0.4305
687.000000 0.4268 0.4231 0.4194 0.4158 0.4121
692.000000 0.4083 0.4045 0.4007 0.3968 0.3930
697.000000 0.3903 0.3876 0.3850 0.3823 0.3797
702.000000 0.3770 0.3746 0.3724 0.3702 0.3679
707.000000 0.3657 0.3635 0.3619 0.3604 0.3589
712.000000 0.3574 0.3560 0.3547 0.3538 0.3530
717.000000 0.3521 0.3512 0.3509 0.3511 0.3539
722.000000 0.3517 0.3531 0.3545 0.3574 0.3637
727.000000 0.3713 0.3805 0.3886 0.3961 0.4051
732.000000 0.4142 0.4196 0.4250 0.4304 0.4347
737.000000 0.4389 0.4431 0.4473 0.4506 0.4533
742.000000 0.4561 0.4588 0.4607 0.4624 0.4641
747.000000 0.4631 0.4650 0.4650 0.4647 0.4637
752.000000 0.4627 0.4613 0.4595 0.4577 0.4556
757.000000 0.4530 0.4505 0.4484 0.4464 0.4442
762.000000 0.4407 0.4371 0.4335 0.4299 0.4262
767.000000 0.4225 0.4187 0.4150 0.4111 0.4068
772.000000 0.4025 0.3982 0.3939 0.3887 0.3834
777.000000 0.3782 0.3729 0.3679 0.3632 0.3585
782.000000 0.3539 0.3492 0.3447 0.3404 0.3360
787.000000 0.3316 0.3272 0.3234 0.3198 0.3161
792.000000 0.3125 0.3089 0.3051 0.3007 0.2974
797.000000 0.2958 0.2979 0.2969 0.2988 0.3011
802.000000 0.3038 0.3068 0.3106 0.3148 0.3192
807.000000 0.3235 0.3284 0.3363 0.3451 0.3514
812.000000 0.3578 0.3635 0.3685 0.3735 0.3787
817.000000 0.3841 0.3896 0.3943 0.3985 0.4026
822.000000 0.4067 0.4103 0.4132 0.4161 0.4191
827.000000 0.4213 0.4233 0.4254 0.4274 0.4293
832.000000 0.4311 0.4328 0.4346 0.4363 0.4380
837.000000 0.4391 0.4402 0.4413 0.4425 0.4436
842.000000 0.4447 0.4459 0.4471 0.4482 0.4494
847.000000 0.4507 0.4520 0.4534 0.4547 0.4560
852.000000 0.4574 0.4595 0.4616 0.4638 0.4687
857.000000 0.4741 0.4799 0.4871 0.5055 0.5238
862.000000 0.5421 0.5604 0.5787 0.5970 0.6154
867.000000 0.6337 0.6520 0.6703 0.6886 0.7070
872.000000 0.7266 0.7298 0.7311 0.7304 0.7297
877.000000 0.7280 0.7254 0.7040 0.6827 0.6614
882.000000 0.6401 0.6188 0.5975 0.5761 0.5569
887.000000 0.5481 0.5383 0.5279 0.5184 0.5032
892.000000 0.4866 0.4726 0.4565 0.4376 0.4285
897.000000 0.4193 0.4095 0.3993 0.3877 0.3760
902.000000 0.3656 0.3540 0.3479 0.3436 0.3407
907.000000 0.3393 0.3387 0.3357 0.3377 0.3381
912.000000 0.3384 0.3386 0.3390 0.3397 0.3405
917.000000 0.3412 0.3420 0.3430 0.3441 0.3451
922.000000 0.3462 0.3473 0.3485 0.3496 0.3507
927.000000 0.3519 0.3531 0.3542 0.3554 0.3566
932.000000 0.3577 0.3591 0.3606 0.3621 0.3636
937.000000 0.3652 0.3667 0.3682 0.3698 0.3714
942.000000 0.3730 0.3745 0.3761 0.3777 0.3793
947.000000 0.3809 0.3826 0.3846 0.3865 0.3885
952.000000 0.3905 0.3924 0.3944 0.3963 0.3983
957.000000 0.4002 0.4020 0.4038 0.4056 0.4074
962.000000 0.4092 0.4109 0.4129 0.4149 0.4168
967.000000 0.4188 0.4207 0.4227 0.4246 0.4266
972.000000 0.4285 0.4303 0.4322 0.4340 0.4359
977.000000 0.4377 0.4397 0.4416 0.4435 0.4454
982.000000 0.4473 0.4492 0.4511 0.4530 0.4549
987.000000 0.4568 0.4587 0.4606 0.4624 0.4641
992.000000 0.4659 0.4677 0.4695 0.4716 0.4738
997.000000 0.4760 0.4781 0.4804 0.4829 0.4854
1002.000000 0.4878 0.4903 0.4941 0.4984 0.5027
1007.000000 0.5078 0.5133 0.5188 0.5248 0.5308
1012.000000 0.5364 0.5418 0.5474 0.5533 0.5592
1017.000000 0.5660 0.5751 0.5847 0.5899 0.5921
1022.000000 0.5924 0.5926 0.5935 0.5707 0.5555
1027.000000 0.5402 0.5249 0.5096 0.4944 0.4791
1032.000000 0.4638 0.4542 0.4517 0.4513 0.4513
1037.000000 0.4513 0.4513 0.4513 0.4513 0.4514
1042.000000 0.4514 0.4514 0.4514 0.4511 0.4502
1047.000000 0.4493 0.4466 0.4435 0.4399 0.4365
1052.000000 0.4331 0.4306 0.4311 0.4323 0.4496
1057.000000 0.4560 0.4625 0.4661 0.4689 0.4713
1062.000000 0.4733 0.4749 0.4760 0.4771 0.4782
1067.000000 0.4792 0.4801 0.4810 0.4819 0.4828
1072.000000 0.4837 0.4848 0.4859 0.4870 0.4881
1077.000000 0.4896 0.4911 0.4926 0.4942 0.4959
1082.000000 0.4976 0.4993 0.5013 0.5035 0.5045
1087.000000 0.5048 0.5045 0.5046 0.5050 0.5055
1092.000000 0.5065 0.5075 0.5088 0.5110 0.5133
1097.000000 0.5161 0.5182 0.5196 0.5204 0.5209
1102.000000 0.5214 0.5217 0.5236 0.5217 0.5205
1107.000000 0.5193 0.5180 0.5163 0.5142 0.5115
1112.000000 0.5082 0.5045 0.5007 0.4956 0.4838
1117.000000 0.4720 0.4602 0.4484 0.4380 0.4395
1122.000000 0.4550 0.4786 0.5022 0.5258 0.5494
1127.000000 0.5651 0.5651 0.5509 0.5291 0.5655
1132.000000 0.4854 0.4635 0.4417 0.4198 0.3980
1137.000000 0.3761 0.3543 0.3353 0.3361 0.3420
1142.000000 0.3484 0.3557 0.3673 0.3789 0.3874
1147.000000 0.3932 0.3990 0.4059 0.4130 0.4226
1152.000000 0.4321 0.4360 0.4399 0.4439 0.4472
1157.000000 0.4501 0.4530 0.4560 0.4589 0.4609
1162.000000 0.4628 0.4647 0.4666 0.4683 0.4692
1167.000000 0.4701 0.4710 0.4719 0.4726 0.4730
1172.000000 0.4733 0.4737 0.4740 0.4744 0.4748
1177.000000 0.4749 0.4749 0.4749 0.4750 0.4750
1182.000000 0.4750 0.4750 0.4750 0.4750 0.4748
1187.000000 0.4746 0.4745 0.4743 0.4741 0.4740
1192.000000 0.4738 0.4736 0.4743 0.4753 0.4772
1197.000000 0.4791 0.4812 0.4834 0.4855 0.4877
1202.000000 0.4898 0.4919 0.4942 0.4965 0.4988
1207.000000 0.5011 0.5034 0.5057 0.5077 0.5097
1212.000000 0.5117 0.5137 0.5157 0.5176 0.5187
1217.000000 0.5194 0.5202 0.5209 0.5217 0.5217
1222.000000 0.5217 0.5217 0.5218 0.5218 0.5218
1227.000000 0.5218 0.5218 0.5218 0.5219 0.5219
1232.000000 0.5219 0.5219 0.5218 0.5217 0.5215
1237.000000 0.5213 0.5212 0.5210 0.5208 0.5207
1242.000000 0.5205 0.5203 0.5201 0.5200 0.5198
1247.000000 0.5194 0.5191 0.5187 0.5183 0.5179
1252.000000 0.5176 0.5172 0.5167 0.5144 0.5121
1257.000000 0.5098 0.5062 0.5023 0.4985 0.4945
1262.000000 0.4877 0.4809 0.4742 0.4674 0.4606
1267.000000 0.4539 0.4471 0.4401 0.4321 0.4242
1272.000000 0.4162 0.4083 0.4023 0.3964 0.3905
1277.000000 0.3845 0.3782 0.3703 0.3625 0.3539
1282.000000 0.3446 0.3403 0.3391 0.3379 0.3377
1287.000000 0.3354 0.3389 0.3464 0.3687 0.3795
1292.000000 0.3902 0.4010 0.4117 0.4225 0.4344
1297.000000 0.4447 0.7210 0.7361 0.7784 0.7939
1302.000000 0.8058 0.8146 0.8226 0.8262 0.8298
1307.000000 0.8318 0.8330 0.8336 0.8340 0.8344
1312.000000 0.8348 0.8353 0.8349 0.8349 0.8349
1317.000000 0.8346 0.8343 0.8339 0.8336 0.8330
1322.000000 0.8323 0.8316 0.8307 0.8295 0.8284
1327.000000 0.8272 0.8264 0.8260 0.8256 0.8252
1332.000000 0.8248 0.8246 0.8245 0.8244 0.8242
1337.000000 0.8241 0.8243 0.8245 0.8248 0.8246
1342.000000 0.8240 0.8234 0.8228 0.8214 0.8199
1347.000000 0.8183 0.8164 0.8138 0.8111 0.8084
1352.000000 0.8051 0.8013 0.7974 0.7926 0.7872
1357.000000 0.7818 0.7765 0.7693 0.7616 0.7539
1362.000000 0.7463 0.7357 0.7247 0.7107 0.6907
1367.000000 0.6742 0.6600 0.6454 0.6224 0.5465
1372.000000 0.5091 0.4717 0.4343 0.4224 0.4488
1377.000000 0.5478 0.6467 0.7456 0.8086 0.8270
1382.000000 0.8346 0.8422 0.8473 0.8511 0.8531
1387.000000 0.8547 0.8525 0.8509 0.8485 0.8448
1392.000000 0.8411 0.8370 0.8322 0.8274 0.8232
1397.000000 0.8192 0.8160 0.8131 0.8120 0.8111
1402.000000 0.8102 0.8094 0.8085 0.8077 0.8069
1407.000000 0.8060 0.8048 0.8029 0.8010 0.7990
1412.000000 0.7955 0.7909 0.7851 0.7790 0.7694
1417.000000 0.7559 0.7492 0.7423 0.7226 0.6859
1422.000000 0.6492 0.6125 0.5758 0.5391 0.5298
1427.000000 0.5303 0.5298 0.6013 0.6817 0.7607
1432.000000 0.7626 0.7629 0.7614 0.7614 0.7582
1437.000000 0.7467 0.7348 0.7228 0.7108 0.6989
1442.000000 0.6869 0.6750 0.6630 0.6560 0.6523
1447.000000 0.6505 0.6510 0.6516 0.6523 0.6530
1452.000000 0.6534 0.6536 0.6535 0.6526 0.6511
1457.000000 0.6416 0.6231 0.6046 0.5860 0.5675
1462.000000 0.5490 0.5305 0.5119 0.4934 0.4749
1467.000000 0.4563 0.4378 0.4193 0.4008 0.3822
1472.000000 0.3637 0.3452 0.3334 0.3249 0.3072
1477.000000 0.3010 0.2992 0.2988 0.2995 0.3009
1482.000000 0.3045 0.3137 0.3368 0.3634 0.3900
1487.000000 0.4165 0.4431 0.4697 0.4963 0.5229
1492.000000 0.5495 0.5761 0.5918 0.5966 0.6057
1497.000000 0.6284 0.6414 0.6581 0.6829 0.7172
1502.000000 0.7292 0.7412 0.7529 0.7645 0.7733
1507.000000 0.7821 0.7863 0.7901 0.7939 0.7977
1512.000000 0.7996 0.8012 0.8028 0.8044 0.8053
1517.000000 0.8059 0.8064 0.8070 0.8075 0.8062
1522.000000 0.8080 0.8081 0.8083 0.8084 0.8086
1527.000000 0.8084 0.8080 0.8077 0.8073 0.8058
1532.000000 0.8018 0.7959 0.7905 0.7862 0.7828
1537.000000 0.7793 0.7756 0.7720 0.7671 0.7615
1542.000000 0.7573 0.7534 0.7496 0.7459 0.7424
1547.000000 0.7390 0.7356 0.7321 0.7289 0.7260
1552.000000 0.7253 0.7248 0.7242 0.7237 0.7231
1557.000000 0.7226 0.7221 0.7216 0.7211 0.7207
1562.000000 0.7202 0.7198 0.7185 0.7173 0.7160
1567.000000 0.7148 0.7133 0.7115 0.7097 0.7079
1572.000000 0.7061 0.7038 0.7015 0.6991 0.6965
1577.000000 0.6937 0.6908 0.6880 0.6849 0.6813
1582.000000 0.6776 0.6740 0.6703 0.6667 0.6631
1587.000000 0.6596 0.6560 0.6524 0.6489 0.6456
1592.000000 0.6423 0.6390 0.6357 0.6325 0.6292
1597.000000 0.6259 0.6225 0.6190 0.6161 0.6167
1602.000000 0.6174 0.6185 0.6208 0.6242 0.6290
1607.000000 0.6340 0.6390 0.6453 0.6522 0.6604
1612.000000 0.6689 0.6779 0.6891 0.7003 0.7270
1617.000000 0.7448 0.7595 0.7713 0.7795 0.7862
1622.000000 0.7891 0.7912 0.7922 0.7925 0.7929
1627.000000 0.7921 0.7906 0.7887 0.7866 0.7839
1632.000000 0.7812 0.7784 0.7757 0.7729 0.7693
1637.000000 0.7654 0.7616 0.7578 0.7540 0.7502
1642.000000 0.7464 0.7426 0.7385 0.7344 0.7303
1647.000000 0.7262 0.7210 0.7148 0.7105 0.7082
1652.000000 0.7059 0.7037 0.7009 0.6975 0.6941
1657.000000 0.6906 0.6874 0.6841 0.6837 0.6835
1662.000000 0.6796 0.6843 0.6847 0.6851 0.6857
1667.000000 0.6869 0.6882 0.6895 0.6906 0.6918
1672.000000 0.6930 0.6931 0.6928 0.6925 0.6942
1677.000000 0.6903 0.6889 0.6869 0.6847 0.6826
1682.000000 0.6804 0.6784 0.6787 0.6789 0.6792
1687.000000 0.6793 0.6793 0.6780 0.6748 0.6712
1692.000000 0.6674 0.6636 0.6587 0.6536 0.6484
1697.000000 0.6428 0.6371 0.6314 0.6244 0.6173
1702.000000 0.6101 0.6030 0.5937 0.5843 0.5739
1707.000000 0.5583 0.5381 0.5134 0.4886 0.4639
1712.000000 0.4391 0.4144 0.3897 0.3753 0.3654
1717.000000 0.3567 0.3546 0.3557 0.3568 0.3788
1722.000000 0.4124 0.4460 0.4796 0.5132 0.5468
1727.000000 0.5804 0.6140 0.6476 0.6812 0.7148
1732.000000 0.7484 0.7820 0.7981 0.8117 0.8234
1737.000000 0.8352 0.8467 0.8583 0.8685 0.8775
1742.000000 0.8821 0.8848 0.8859 0.8866 0.8870
1747.000000 0.8875 0.8883 0.8891 0.8899 0.8905
1752.000000 0.8925 0.8895 0.8868 0.8837 0.8805
1757.000000 0.8761 0.8699 0.8634 0.8561 0.8488
1762.000000 0.8415 0.8353 0.8296 0.8239 0.8182
1767.000000 0.8137 0.8103 0.8061 0.8114 0.8136
1772.000000 0.8168 0.8200 0.8232 0.8264 0.8297
1777.000000 0.8331 0.8366 0.8400 0.8434 0.8468
1782.000000 0.8502 0.8536 0.8570 0.8603 0.8635
1787.000000 0.8666 0.8697 0.8729 0.8760 0.8792
1792.000000 0.8823 0.8855 0.8878 0.8900 0.8921
1797.000000 0.8942 0.8964 0.8985 0.9007 0.9013
1802.000000 0.9017 0.9020 0.9024 0.9027 0.9027
1807.000000 0.9027 0.9027 0.9027 0.9028 0.9049
1812.000000 0.9070 0.9092 0.9096 0.9098 0.9095
1817.000000 0.9090 0.9085 0.9068 0.9075 0.9070
1822.000000 0.9064 0.9059 0.9052 0.9045 0.9038
1827.000000 0.9031 0.9024 0.9017 0.9011 0.9000
1832.000000 0.8987 0.8975 0.8962 0.8949 0.8936
1837.000000 0.8923 0.8909 0.8893 0.8877 0.8861
1842.000000 0.8845 0.8829 0.8817 0.8810 0.8803
1847.000000 0.8796 0.8786 0.8783 0.8792 0.8808
1852.000000 0.8838 0.8867 0.8898 0.8929 0.8961
1857.000000 0.8993 0.9023 0.9052 0.9081 0.9104
1862.000000 0.9124 0.9144 0.9149 0.9153 0.9158
1867.000000 0.9161 0.9161 0.9161 0.9162 0.9162
1872.000000 0.9162 0.9158 0.9153 0.9148 0.9144
1877.000000 0.9139 0.9135 0.9130 0.9126 0.9121
1882.000000 0.9116 0.9112 0.9107 0.9106 0.9121
1887.000000 0.9103 0.9100 0.9096 0.9093 0.9089
1892.000000 0.9086 0.9083 0.9080 0.9077 0.9074
1897.000000 0.9071 0.9068 0.9065 0.9061 0.9058
1902.000000 0.9054 0.9051 0.9048 0.9041 0.9034
1907.000000 0.9027 0.9020 0.9013 0.9006 0.9001
1912.000000 0.8995 0.8990 0.8984 0.8979 0.8974
1917.000000 0.8970 0.8975 0.8992 0.9003 0.8980
1922.000000 0.8957 0.8929 0.8903 0.8887 0.8878
1927.000000 0.8871 0.8864 0.8857 0.8851 0.8845
1932.000000 0.8839 0.8833 0.8827 0.8822 0.8816
1937.000000 0.8810 0.8804 0.8800 0.8797 0.8794
1942.000000 0.8795 0.8796 0.8797 0.8800 0.8805
1947.000000 0.8811 0.8817 0.8823 0.8825 0.8821
1952.000000 0.8817 0.8808 0.8798 0.8790 0.8784
1957.000000 0.8778 0.8772 0.8766 0.8760 0.8754
1962.000000 0.8748 0.8743 0.8737 0.8732 0.8727
1967.000000 0.8722 0.8717 0.8712 0.8707 0.8697
1972.000000 0.8686 0.8674 0.8663 0.8634 0.8610
1977.000000 0.8588 0.8568 0.8553 0.8538 0.8524
1982.000000 0.8516 0.8507 0.8497 0.8487 0.8477
1987.000000 0.8468 0.8463 0.8458 0.8454 0.8450
1992.000000 0.8450 0.8456 0.8461 0.8473 0.8507
1997.000000 0.8542 0.8577 0.8636 0.8668 0.8664
2002.000000 0.8660 0.8658 0.8657 0.8657 0.8657
2007.000000 0.8657 0.8657 0.8657 0.8657 0.8655
2012.000000 0.8654 0.8649 0.8645 0.8633 0.8621
2017.000000 0.8610 0.8600 0.8590 0.8581 0.8569
2022.000000 0.8558 0.8541 0.8524 0.8509 0.8495
2027.000000 0.8482 0.8469 0.8452 0.8436 0.8419
2032.000000 0.8403 0.8388 0.8374 0.8362 0.8350
2037.000000 0.8352 0.8354 0.8357 0.8360 0.8366
2042.000000 0.8372 0.8377 0.8383 0.8386 0.8389
2047.000000 0.8390 0.8391 0.8384 0.8377 0.8364
2052.000000 0.8352 0.8340 0.8328 0.8315 0.8303
2057.000000 0.8291 0.8279 0.8268 0.8258 0.8247
2062.000000 0.8236 0.8225 0.8214 0.8203 0.8192
2067.000000 0.8180 0.8169 0.8156 0.8144 0.8131
2072.000000 0.8119 0.8106 0.8094 0.8080 0.8067
2077.000000 0.8051 0.8036 0.8020 0.8005 0.7989
2082.000000 0.7974 0.7960 0.7946 0.7932 0.7918
2087.000000 0.7904 0.7890 0.7876 0.7863 0.7849
2092.000000 0.7835 0.7821 0.7807 0.7793 0.7779
2097.000000 0.7763 0.7748 0.7732 0.7716 0.7700
2102.000000 0.7685 0.7669 0.7654 0.7638 0.7622
2107.000000 0.7606 0.7591 0.7576 0.7562 0.7547
2112.000000 0.7533 0.7518 0.7504 0.7490 0.7476
2117.000000 0.7461 0.7447 0.7433 0.7419 0.7405
2122.000000 0.7391 0.7377 0.7363 0.7349 0.7335
2127.000000 0.7321 0.7307 0.7293 0.7279 0.7264
2132.000000 0.7250 0.7235 0.7221 0.7206 0.7192
2137.000000 0.7178 0.7164 0.7150 0.7137 0.7123
2142.000000 0.7110 0.7096 0.7083 0.7069 0.7055
2147.000000 0.7041 0.7028 0.7006 0.6984 0.6960
2152.000000 0.6937 0.6915 0.6893 0.6873 0.6853
2157.000000 0.6834 0.6815 0.6799 0.6784 0.6768
2162.000000 0.6753 0.6737 0.6721 0.6709 0.6697
2167.000000 0.6685 0.6674 0.6669 0.6664 0.6663
2172.000000 0.6662 0.6665 0.6668 0.6677 0.6686
2177.000000 0.6698 0.6710 0.6721 0.6732 0.6743
2182.000000 0.6754 0.6754 0.6754 0.6746 0.6739
2187.000000 0.6731 0.6723 0.6709 0.6696 0.6684
2192.000000 0.6672 0.6660 0.6649 0.6636 0.6623
2197.000000 0.6607 0.6591 0.6575 0.6560 0.6539
2202.000000 0.6518 0.6497 0.6477 0.6450 0.6424
2207.000000 0.6397 0.6370 0.6359 0.6349 0.6341
2212.000000 0.6333 0.6325 0.6317 0.6307 0.6297
2217.000000 0.6287 0.6277 0.6255 0.6233 0.6206
2222.000000 0.6179 0.6162 0.6146 0.6130 0.6115
2227.000000 0.6099 0.6084 0.6063 0.6043 0.6016
2232.000000 0.5989 0.5972 0.5955 0.5939 0.5923
2237.000000 0.5917 0.5912 0.5908 0.5904 0.5899
2242.000000 0.5895 0.5891 0.5888 0.5884 0.5881
2247.000000 0.5877 0.5873 0.5869 0.5866 0.5862
2252.000000 0.5859 0.5843 0.5827 0.5809 0.5792
2257.000000 0.5775 0.5758 0.5738 0.5719 0.5699
2262.000000 0.5680 0.5661 0.5642 0.5622 0.5603
2267.000000 0.5583 0.5563 0.5542 0.5521 0.5499
2272.000000 0.5478 0.5457 0.5436 0.5415 0.5394
2277.000000 0.5373 0.5352 0.5337 0.5322 0.5306
2282.000000 0.5291 0.5276 0.5261 0.5245 0.5230
2287.000000 0.5215 0.5200 0.5185 0.5170 0.5154
2292.000000 0.5139 0.5122 0.5105 0.5088 0.5071
2297.000000 0.5054 0.5037 0.5020 0.5003 0.4986
2302.000000 0.4969 0.4952 0.4935 0.4919 0.4904
2307.000000 0.4890 0.4877 0.4863 0.4849 0.4835
2312.000000 0.4822 0.4808 0.4794 0.4788 0.4782
2317.000000 0.4778 0.4775 0.4771 0.4768 0.4764
2322.000000 0.4761 0.4758 0.4755 0.4752 0.4750
2327.000000 0.4747 0.4744 0.4740 0.4737 0.4725
2332.000000 0.4713 0.4693 0.4673 0.4652 0.4632
2337.000000 0.4609 0.4587 0.4562 0.4538 0.4509
2342.000000 0.4481 0.4444 0.4407 0.4393 0.4380
2347.000000 0.4372 0.4365 0.4357 0.4350 0.4342
2352.000000 0.4334 0.4330 0.4326 0.4325 0.4325
2357.000000 0.4324 0.4324 0.4322 0.4321 0.4319
2362.000000 0.4318 0.4316 0.4315 0.4313 0.4312
2367.000000 0.4311 0.4310 0.4309 0.4309 0.4308
2372.000000 0.4307 0.4306 0.4306 0.4305 0.4304
2377.000000 0.4303 0.4266 0.4302 0.4302 0.4304
2382.000000 0.4306 0.4313 0.4320 0.4327 0.4334
2387.000000 0.4346 0.4358 0.4381 0.4404 0.4427
2392.000000 0.4451 0.4490 0.4529 0.4560 0.4591
2397.000000 0.4622 0.4653 0.4681 0.4709 0.4736
2402.000000 0.4763 0.4791 0.4819 0.4851 0.4883
2407.000000 0.4911 0.4940 0.4958 0.4977 0.4989
2412.000000 0.5001 0.5001 0.5001 0.4993 0.4986
2417.000000 0.4971 0.4956 0.4940 0.4925 0.4912
2422.000000 0.4900 0.4897 0.4895 0.4895 0.4896
2427.000000 0.4900 0.4905 0.4911 0.4917 0.4928
2432.000000 0.4939 0.4953 0.4967 0.4983 0.4999
2437.000000 0.5014 0.5029 0.5043 0.5057 0.5073
2442.000000 0.5089 0.5115 0.5141 0.5163 0.5185
2447.000000 0.5206 0.5228 0.5252 0.5277 0.5301
2452.000000 0.5326 0.5345 0.5364 0.5382 0.5401
2457.000000 0.5420 0.5439 0.5457 0.5475 0.5492
2462.000000 0.5509 0.5526 0.5543 0.5560 0.5577
2467.000000 0.5593 0.5610 0.5627 0.5644 0.5660
2472.000000 0.5677 0.5692 0.5708 0.5723 0.5739
2477.000000 0.5754 0.5769 0.5784 0.5800 0.5816
2482.000000 0.5832 0.5848 0.5864 0.5880 0.5897
2487.000000 0.5913 0.5929 0.5940 0.5952 0.5962
2492.000000 0.5973 0.5983 0.5994 0.6007 0.6021
2497.000000 0.6037 0.6053 0.6076 0.6099 0.6134
2502.000000 0.6170 0.6199 0.6229 0.6253 0.6278
2507.000000 0.6302 0.6327 0.6347 0.6367 0.6386
2512.000000 0.6406 0.6425 0.6444 0.6463 0.6483
2517.000000 0.6501 0.6520 0.6537 0.6554 0.6570
2522.000000 0.6587 0.6604 0.6621 0.6637 0.6654
2527.000000 0.6670 0.6687 0.6704 0.6721 0.6739
2532.000000 0.6757 0.6775 0.6793 0.6811 0.6829
2537.000000 0.6847 0.6866 0.6879 0.6893 0.6906
2542.000000 0.6920 0.6932 0.6945 0.6956 0.6968
2547.000000 0.6980 0.6992 0.7004 0.7016 0.7030
2552.000000 0.7044 0.7058 0.7072 0.7089 0.7107
2557.000000 0.7121 0.7136 0.7144 0.7152 0.7159
2562.000000 0.7209 0.7169 0.7171 0.7169 0.7168
2567.000000 0.7162 0.7157 0.7151 0.7145 0.7137
2572.000000 0.7129 0.7120 0.7111 0.7101 0.7092
2577.000000 0.7082 0.7072 0.7062 0.7052 0.7041
2582.000000 0.7031 0.7021 0.7011 0.6994 0.6978
2587.000000 0.6952 0.6926 0.6901 0.6877 0.6855
2592.000000 0.6833 0.6811 0.6789 0.6767 0.6745
2597.000000 0.6719 0.6694 0.6667 0.6641 0.6614
2602.000000 0.6588 0.6556 0.6524 0.6486 0.6449
2607.000000 0.6428 0.6407 0.6393 0.6379 0.6365
2612.000000 0.6351 0.6335 0.6320 0.6304 0.6289
2617.000000 0.6273 0.6257 0.6241 0.6225 0.6209
2622.000000 0.6193 0.6177 0.6161 0.6136 0.6112
2627.000000 0.6093 0.6075 0.6057 0.6040 0.6023
2632.000000 0.6006 0.5988 0.5971 0.5952 0.5933
2637.000000 0.5906 0.5880 0.5853 0.5827 0.5800
2642.000000 0.5774 0.5731 0.5689 0.5635 0.5581
2647.000000 0.5563 0.5545 0.5544 0.5544 0.5556
2652.000000 0.5516 0.5588 0.5607 0.5635 0.5663
2657.000000 0.5697 0.5731 0.5783 0.5836 0.5878
2662.000000 0.5920 0.5975 0.6030 0.6106 0.6183
2667.000000 0.6205 0.6227 0.6235 0.6244 0.6246
2672.000000 0.6249 0.6251 0.6254 0.6257 0.6260
2677.000000 0.6263 0.6266 0.6270 0.6275 0.6280
2682.000000 0.6285 0.6290 0.6296 0.6305 0.6314
2687.000000 0.6324 0.6334 0.6347 0.6361 0.6374
2692.000000 0.6387 0.6410 0.6433 0.6456 0.6479
2697.000000 0.6502 0.6526 0.6548 0.6571 0.6593
2702.000000 0.6616 0.6630 0.6644 0.6658 0.6672
2707.000000 0.6685 0.6699 0.6707 0.6715 0.6722
2712.000000 0.6730 0.6732 0.6735 0.6737 0.6740
2717.000000 0.6742 0.6745 0.6744 0.6744 0.6743
2722.000000 0.6742 0.6741 0.6740 0.6738 0.6736
2727.000000 0.6733 0.6731 0.6728 0.6725 0.6722
2732.000000 0.6719 0.6717 0.6716 0.6717 0.6718
2737.000000 0.6718 0.6719 0.6725 0.6732 0.6758
2742.000000 0.6784 0.6812 0.6840 0.6868 0.6897
2747.000000 0.6922 0.6948 0.6970 0.6992 0.7014
2752.000000 0.7036 0.7060 0.7084 0.7107 0.7131
2757.000000 0.7151 0.7172 0.7184 0.7197 0.7209
2762.000000 0.7222 0.7231 0.7240 0.7246 0.7253
2767.000000 0.7259 0.7265 0.7268 0.7271 0.7273
2772.000000 0.7276 0.7279 0.7282 0.7285 0.7288
2777.000000 0.7288 0.7288 0.7287 0.7320 0.7286
2782.000000 0.7286 0.7285 0.7284 0.7278 0.7273
2787.000000 0.7268 0.7263 0.7257 0.7252 0.7246
2792.000000 0.7240 0.7234 0.7228 0.7222 0.7216
2797.000000 0.7210 0.7204 0.7197 0.7191 0.7184
2802.000000 0.7178 0.7171 0.7165 0.7158 0.7151
2807.000000 0.7142 0.7134 0.7123 0.7112 0.7101
2812.000000 0.7090 0.7075 0.7061 0.7037 0.7014
2817.000000 0.6974 0.6934 0.6884 0.6835 0.6789
2822.000000 0.6743 0.6702 0.6662 0.6634 0.6607
2827.000000 0.6603 0.6600 0.6600 0.6584 0.6610
2832.000000 0.6621 0.6672 0.6724 0.6832 0.6941
2837.000000 0.7041 0.7141 0.7190 0.7240 0.7288
2842.000000 0.7337 0.7379 0.7421 0.7449 0.7478
2847.000000 0.7498 0.7519 0.7532 0.7545 0.7552
2852.000000 0.7559 0.7561 0.7564 0.7566 0.7569
2857.000000 0.7567 0.7551 0.7561 0.7558 0.7554
2862.000000 0.7551 0.7547 0.7544 0.7539 0.7535
2867.000000 0.7528 0.7522 0.7516 0.7510 0.7504
2872.000000 0.7498 0.7489 0.7480 0.7470 0.7460
2877.000000 0.7450 0.7440 0.7428 0.7417 0.7403
2882.000000 0.7389 0.7374 0.7360 0.7345 0.7331
2887.000000 0.7317 0.7303 0.7289 0.7275 0.7260
2892.000000 0.7246 0.7232 0.7218 0.7203 0.7189
2897.000000 0.7171 0.7154 0.7136 0.7119 0.7101
2902.000000 0.7083 0.7060 0.7037 0.7010 0.6983
2907.000000 0.6955 0.6928 0.6900 0.6872 0.6846
2912.000000 0.6820 0.6796 0.6773 0.6772 0.6771
2917.000000 0.6774 0.6778 0.6809 0.6840 0.6900
2922.000000 0.6960 0.6993 0.7027 0.7041 0.7056
2927.000000 0.7060 0.7065 0.7069 0.7073 0.7072
2932.000000 0.7071 0.7068 0.7065 0.7060 0.7055
2937.000000 0.7049 0.7044 0.7037 0.7030 0.7021
2942.000000 0.7012 0.6996 0.6980 0.6957 0.6934
2947.000000 0.6893 0.6853 0.6786 0.6719 0.6576
2952.000000 0.6433 0.6290 0.6147 0.6135 0.6138
2957.000000 0.6124 0.6126 0.6295 0.6464 0.6609
2962.000000 0.6755 0.6764 0.6774 0.6774 0.6774
2967.000000 0.6772 0.6771 0.6768 0.6766 0.6761
2972.000000 0.6757 0.6752 0.6747 0.6740 0.6734
2977.000000 0.6726 0.6718 0.6708 0.6699 0.6689
2982.000000 0.6679 0.6669 0.6659 0.6647 0.6636
2987.000000 0.6625 0.6614 0.6602 0.6591 0.6570
2992.000000 0.6550 0.6529 0.6508 0.6492 0.6476
2997.000000 0.6460 0.6444 0.6427 0.6411 0.6380
3002.000000 0.6349 0.6318 0.6288 0.6260 0.6232
3007.000000 0.6204 0.6176 0.6148 0.6121 0.6093
3012.000000 0.6065 0.6037 0.6010 0.5981 0.5953
3017.000000 0.5924 0.5895 0.5866 0.5838 0.5804
3022.000000 0.5771 0.5734 0.5697 0.5656 0.5615
3027.000000 0.5569 0.5524 0.5479 0.5434 0.5401
3032.000000 0.5368 0.5335 0.5302 0.5269 0.5236
3037.000000 0.5203 0.5170 0.5130 0.5090 0.5049
3042.000000 0.5008 0.4965 0.4923 0.4879 0.4836
3047.000000 0.4792 0.4749 0.4717 0.4685 0.4660
3052.000000 0.4635 0.4610 0.4585 0.4560 0.4535
3057.000000 0.4508 0.4481 0.4452 0.4424 0.4395
3062.000000 0.4367 0.4338 0.4310 0.4274 0.4238
3067.000000 0.4197 0.4156 0.4115 0.4074 0.4036
3072.000000 0.3999 0.3971 0.3944 0.3916 0.3889
3077.000000 0.3861 0.3833 0.3805 0.3778 0.3754
3082.000000 0.3731 0.3708 0.3686 0.3663 0.3641
3087.000000 0.3625 0.3609 0.3594 0.3579 0.3564
3092.000000 0.3549 0.3534 0.3519 0.3506 0.3494
3097.000000 0.3482 0.3470 0.3458 0.3447 0.3435
3102.000000 0.3424 0.3414 0.3405 0.3395 0.3386
3107.000000 0.3376 0.3367 0.3358 0.3349 0.3341
3112.000000 0.3334 0.3327 0.3321 0.3314 0.3307
3117.000000 0.3300 0.3294 0.3287 0.3280 0.3273
3122.000000 0.3267 0.3264 0.3261 0.3257 0.3254
3127.000000 0.3250 0.3237 0.3246 0.3246 0.3247
3132.000000 0.3249 0.3254 0.3260 0.3266 0.3273
3137.000000 0.3288 0.3304 0.3323 0.3343 0.3363
3142.000000 0.3384 0.3407 0.3431 0.3454 0.3478
3147.000000 0.3502 0.3527 0.3555 0.3584 0.3612
3152.000000 0.3641 0.3669 0.3698 0.3726 0.3755
3157.000000 0.3784 0.3813 0.3841 0.3870 0.3899
3162.000000 0.3928 0.3963 0.3998 0.4040 0.4082
3167.000000 0.4134 0.4187 0.4247 0.4307 0.4370
3172.000000 0.4434 0.4483 0.4532 0.4569 0.4606
3177.000000 0.4643 0.4681 0.4714 0.4747 0.4778
3182.000000 0.4809 0.4837 0.4865 0.4868 0.4872
3187.000000 0.4875 0.4878 0.4878 0.4878 0.4877
3192.000000 0.4903 0.4867 0.4859 0.4847 0.4836
3197.000000 0.4823 0.4811 0.4789 0.4767 0.4740
3202.000000 0.4713 0.4693 0.4674 0.4663 0.4652
3207.000000 0.4646 0.4641 0.4641 0.4641 0.4643
3212.000000 0.4622 0.4650 0.4655 0.4663 0.4672
3217.000000 0.4683 0.4694 0.4711 0.4728 0.4746
3222.000000 0.4764 0.4783 0.4802 0.4821 0.4840
3227.000000 0.4859 0.4879 0.4900 0.4922 0.4943
3232.000000 0.4965 0.4985 0.5006 0.5026 0.5046
3237.000000 0.5065 0.5085 0.5105 0.5125 0.5143
3242.000000 0.5161 0.5179 0.5197 0.5215 0.5234
3247.000000 0.5252 0.5270 0.5288 0.5306 0.5328
3252.000000 0.5351 0.5373 0.5396 0.5418 0.5441
3257.000000 0.5469 0.5498 0.5532 0.5567 0.5602
3262.000000 0.5637 0.5671 0.5706 0.5735 0.5764
3267.000000 0.5793 0.5822 0.5851 0.5880 0.5908
3272.000000 0.5937 0.5966 0.5995 0.6023 0.6051
3277.000000 0.6079 0.6107 0.6135 0.6164 0.6192
3282.000000 0.6220 0.6248 0.6276 0.6301 0.6327
3287.000000 0.6349 0.6372 0.6394 0.6417 0.6439
3292.000000 0.6462 0.6484 0.6506 0.6528 0.6551
3297.000000 0.6573 0.6596 0.6618 0.6641 0.6664
3302.000000 0.6688 0.6713 0.6738 0.6763 0.6789
3307.000000 0.6814 0.6840 0.6865 0.6890 0.6915
3312.000000 0.6941 0.6967 0.6993 0.7019 0.7046
3317.000000 0.7073 0.7100 0.7126 0.7153 0.7179
3322.000000 0.7206 0.7232 0.7259 0.7289 0.7319
3327.000000 0.7353 0.7387 0.7421 0.7455 0.7489
3332.000000 0.7523 0.7557 0.7591 0.7620 0.7650
3337.000000 0.7677 0.7705 0.7732 0.7759 0.7786
3342.000000 0.7814 0.7841 0.7868 0.7892 0.7916
3347.000000 0.7937 0.7958 0.7979 0.8001 0.8022
3352.000000 0.8043 0.8064 0.8085 0.8106 0.8127
3357.000000 0.8140 0.8153 0.8164 0.8175 0.8186
3362.000000 0.8197 0.8208 0.8220 0.8231 0.8242
3367.000000 0.8253 0.8264 0.8273 0.8283 0.8291
3372.000000 0.8300 0.8308 0.8317 0.8325 0.8334
3377.000000 0.8342 0.8351 0.8359 0.8368 0.8376
3382.000000 0.8385 0.8393 0.8402 0.8408 0.8414
3387.000000 0.8419 0.8425 0.8430 0.8435 0.8440
3392.000000 0.8445 0.8450 0.8456 0.8460 0.8465
3397.000000 0.8469 0.8473 0.8477 0.8482 0.8486
3402.000000 0.8490 0.8494 0.8498 0.8502 0.8506
3407.000000 0.8510 0.8514 0.8518 0.8522 0.8524
3412.000000 0.8526 0.8528 0.8531 0.8533 0.8535
3417.000000 0.8537 0.8540 0.8542 0.8544 0.8546
3422.000000 0.8548 0.8550 0.8553 0.8560 0.8567
3427.000000 0.8575 0.8584 0.8593 0.8603 0.8612
3432.000000 0.8622 0.8631 0.8641 0.8648 0.8655
3437.000000 0.8659 0.8664 0.8668 0.8673 0.8677
3442.000000 0.8682 0.8686 0.8690 0.8694 0.8699
3447.000000 0.8703 0.8707 0.8710 0.8713 0.8716
3452.000000 0.8720 0.8723 0.8727 0.8730 0.8734
3457.000000 0.8737 0.8741 0.8744 0.8747 0.8747
3462.000000 0.8735 0.8749 0.8750 0.8750 0.8751
3467.000000 0.8752 0.8753 0.8753 0.8754 0.8754
3472.000000 0.8755 0.8754 0.8754 0.8753 0.8753
3477.000000 0.8752 0.8752 0.8751 0.8751 0.8750
3482.000000 0.8749 0.8748 0.8748 0.8747 0.8747
3487.000000 0.8746 0.8746 0.8745 0.8744 0.8742
3492.000000 0.8741 0.8740 0.8739 0.8737 0.8736
3497.000000 0.8734 0.8733 0.8731 0.8730 0.8728
3502.000000 0.8727 0.8726 0.8725 0.8723 0.8722
3507.000000 0.8720 0.8719 0.8717 0.8716 0.8715
3512.000000 0.8714 0.8713 0.8712 0.8710 0.8709
3517.000000 0.8708 0.8707 0.8706 0.8705 0.8704
3522.000000 0.8703 0.8701 0.8700 0.8699 0.8698
3527.000000 0.8697 0.8696 0.8694 0.8693 0.8692
3532.000000 0.8691 0.8690 0.8689 0.8688 0.8687
3537.000000 0.8686 0.8685 0.8684 0.8683 0.8682
3542.000000 0.8681 0.8680 0.8679 0.8678 0.8677
3547.000000 0.8676 0.8675 0.8674 0.8673 0.8671
3552.000000 0.8670 0.8669 0.8668 0.8667 0.8666
3557.000000 0.8665 0.8664 0.8663 0.8662 0.8660
3562.000000 0.8659 0.8658 0.8657 0.8655 0.8654
3567.000000 0.8653 0.8652 0.8651 0.8650 0.8648
3572.000000 0.8647 0.8646 0.8645 0.8643 0.8642
3577.000000 0.8641 0.8640 0.8638 0.8637 0.8636
3582.000000 0.8635 0.8634 0.8633 0.8631 0.8630
3587.000000 0.8628 0.8626 0.8623 0.8620 0.8617
3592.000000 0.8615 0.8612 0.8610 0.8607 0.8604
3597.000000 0.8601 0.8599 0.8596 0.8594 0.8591
3602.000000 0.8588 0.8585 0.8583 0.8581 0.8579
3607.000000 0.8578 0.8577 0.8576 0.8575 0.8573
3612.000000 0.8572 0.8571 0.8570 0.8569 0.8568
3617.000000 0.8566 0.8565 0.8564 0.8563 0.8562
3622.000000 0.8561 0.8559 0.8558 0.8557 0.8556
3627.000000 0.8554 0.8553 0.8551 0.8550 0.8549
3632.000000 0.8548 0.8546 0.8545 0.8543 0.8542
3637.000000 0.8540 0.8539 0.8537 0.8535 0.8532
3642.000000 0.8530 0.8528 0.8526 0.8524 0.8522
3647.000000 0.8520 0.8518 0.8516 0.8514 0.8511
3652.000000 0.8508 0.8504 0.8501 0.8497 0.8494
3657.000000 0.8490 0.8486 0.8482 0.8479 0.8475
3662.000000 0.8472 0.8468 0.8465 0.8462 0.8459
3667.000000 0.8456 0.8454 0.8451 0.8449 0.8446
3672.000000 0.8443 0.8440 0.8438 0.8435 0.8432
3677.000000 0.8430 0.8429 0.8427 0.8425 0.8423
3682.000000 0.8422 0.8420 0.8419 0.8417 0.8415
3687.000000 0.8413 0.8412 0.8410 0.8408 0.8406
3692.000000 0.8405 0.8402 0.8400 0.8397 0.8394
3697.000000 0.8391 0.8389 0.8386 0.8384 0.8381
3702.000000 0.8379 0.8376 0.8374 0.8371 0.8369
3707.000000 0.8366 0.8364 0.8361 0.8358 0.8355
3712.000000 0.8353 0.8350 0.8347 0.8344 0.8342
3717.000000 0.8339 0.8336 0.8333 0.8330 0.8327
3722.000000 0.8324 0.8321 0.8318 0.8315 0.8312
3727.000000 0.8309 0.8307 0.8304 0.8301 0.8298
3732.000000 0.8295 0.8292 0.8289 0.8286 0.8283
3737.000000 0.8280 0.8278 0.8275 0.8273 0.8270
3742.000000 0.8268 0.8265 0.8262 0.8259 0.8257
3747.000000 0.8254 0.8252 0.8249 0.8247 0.8244
3752.000000 0.8242 0.8239 0.8237 0.8233 0.8230
3757.000000 0.8227 0.8224 0.8220 0.8210 0.8213
3762.000000 0.8210 0.8207 0.8204 0.8200 0.8197
3767.000000 0.8194 0.8192 0.8189 0.8187 0.8184
3772.000000 0.8182 0.8179 0.8177 0.8174 0.8172
3777.000000 0.8170 0.8169 0.8167 0.8166 0.8163
3782.000000 0.8160 0.8157 0.8155 0.8152 0.8150
3787.000000 0.8148 0.8146 0.8144 0.8142 0.8140
3792.000000 0.8138 0.8136 0.8134 0.8132 0.8130
3797.000000 0.8128 0.8126 0.8124 0.8122 0.8121
3802.000000 0.8121
##END=
