##TITLE=3-oxa-9-aza-bicyclo[3.3.1]nonan-7-ol, 9-methyl-, benzillic acid ester, maleate (1 to 1)
##JCAMP-DX=4.24
##DATA TYPE=INFRARED SPECTRUM
##CLASS=COBLENTZ III
##ORIGIN=SMITH KLINE & FRENCH LABS.
##OWNER=Copyright (C) 1987 by the Coblentz Society
Collection (C) 2018 copyright by the U.S. Secretary of Commerce
on behalf of the United States of America. All rights reserved.
##DATE=1958/12/29
##MOLFORM=C26 H29 N O8
##SOURCE REFERENCE=COBLENTZ NO. 9095
##$NIST ID=B6009095
##$NIST SOURCE=COBLENTZ
##$NIST IMAGE=cob9095
##SPECTROMETER/DATA SYSTEM=PERKIN-ELMER 21 (GRATING)
##INSTRUMENT PARAMETERS=NaCl PRISM
##STATE=SOLID (KBr DISC)
$$ PURITY - 99 PLUS %
##SAMPLING PROCEDURE=TRANSMISSION
##RESOLUTION=2
##DATA PROCESSING=DIGITIZED BY COBLENTZ SOCIETY (BATCH II) FROM HARD COPY
##XUNITS=1/CM
##YUNITS=TRANSMITTANCE
##XFACTOR=1.0
##YFACTOR=1
##FIRSTX=670
##LASTX=4000
##FIRSTY=0.5866
##MAXX=4000
##MINX=670
##MAXY=0.9091
##MINY=0.153
##NPOINTS=3331
##XYDATA=(X++(Y..Y))
670.000000 0.5866 0.5804 0.5616 0.5361 0.5276
675.000000 0.5304 0.5351 0.5469 0.5739 0.5997
680.000000 0.6126 0.6197 0.6253 0.6279 0.6226
685.000000 0.6230 0.6194 0.6107 0.5973 0.5803
690.000000 0.5523 0.5006 0.4389 0.3773 0.3226
695.000000 0.3002 0.2983 0.3547 0.3986 0.4260
700.000000 0.4384 0.4468 0.4499 0.4486 0.4398
705.000000 0.4418 0.4830 0.5109 0.5425 0.5864
710.000000 0.6257 0.6707 0.7062 0.7114 0.7121
715.000000 0.7054 0.7015 0.6979 0.6930 0.6794
720.000000 0.6586 0.6265 0.5908 0.5537 0.5407
725.000000 0.5457 0.5587 0.5782 0.5914 0.5936
730.000000 0.5918 0.5849 0.5762 0.5656 0.5519
735.000000 0.5330 0.5142 0.4886 0.4802 0.4816
740.000000 0.5080 0.5305 0.5534 0.5687 0.5746
745.000000 0.5802 0.5736 0.5663 0.5576 0.5472
750.000000 0.5298 0.5041 0.4724 0.4391 0.4172
755.000000 0.4037 0.3982 0.3966 0.4011 0.4052
760.000000 0.4115 0.4179 0.4246 0.4307 0.4369
765.000000 0.4450 0.4553 0.4660 0.4760 0.4791
770.000000 0.4895 0.5283 0.5609 0.5934 0.6258
775.000000 0.6510 0.6804 0.7092 0.7474 0.7994
780.000000 0.8099 0.8182 0.8242 0.8302 0.8365
785.000000 0.8433 0.8486 0.8532 0.8549 0.8538
790.000000 0.8516 0.8483 0.8355 0.8218 0.7988
795.000000 0.7768 0.7607 0.7552 0.7789 0.8005
800.000000 0.8223 0.8438 0.8576 0.8585 0.8592
805.000000 0.8598 0.8597 0.8619 0.8589 0.8579
810.000000 0.8570 0.8553 0.8523 0.8494 0.8462
815.000000 0.8427 0.8392 0.8344 0.8294 0.8233
820.000000 0.8164 0.8082 0.7999 0.7892 0.7794
825.000000 0.7710 0.7627 0.7545 0.7466 0.7428
830.000000 0.7415 0.7411 0.7410 0.7400 0.7409
835.000000 0.7380 0.7314 0.7294 0.7289 0.7292
840.000000 0.7311 0.7334 0.7355 0.7375 0.7350
845.000000 0.7321 0.7275 0.7216 0.7155 0.7093
850.000000 0.7024 0.6952 0.6857 0.6759 0.6614
855.000000 0.6426 0.6271 0.6010 0.5577 0.5246
860.000000 0.4643 0.4345 0.3965 0.3365 0.3096
865.000000 0.2847 0.2651 0.2601 0.2600 0.2768
870.000000 0.3329 0.3890 0.4470 0.4662 0.4776
875.000000 0.4825 0.4870 0.4907 0.4943 0.4987
880.000000 0.5009 0.5032 0.5080 0.5147 0.5219
885.000000 0.5334 0.5491 0.5648 0.5821 0.6036
890.000000 0.6318 0.6604 0.6753 0.6882 0.6992
895.000000 0.7069 0.7127 0.7161 0.7178 0.7151
900.000000 0.7129 0.7080 0.7002 0.6918 0.6825
905.000000 0.6728 0.6654 0.6581 0.6483 0.6340
910.000000 0.6190 0.6056 0.5925 0.5747 0.5620
915.000000 0.5613 0.5640 0.5670 0.5700 0.5717
920.000000 0.5700 0.5681 0.5626 0.5521 0.5396
925.000000 0.5210 0.5232 0.5222 0.5406 0.5657
930.000000 0.5818 0.5831 0.5776 0.5693 0.5630
935.000000 0.5403 0.5121 0.4837 0.4529 0.4283
940.000000 0.4107 0.3930 0.3721 0.3511 0.3529
945.000000 0.3507 0.3597 0.3869 0.4309 0.4468
950.000000 0.4496 0.4500 0.4502 0.4536 0.4853
955.000000 0.5039 0.5151 0.5236 0.5274 0.5282
960.000000 0.5261 0.5218 0.5163 0.5104 0.5046
965.000000 0.4989 0.4946 0.4933 0.4954 0.4974
970.000000 0.4970 0.4961 0.4938 0.4864 0.4770
975.000000 0.4678 0.4592 0.4523 0.4458 0.4401
980.000000 0.4346 0.4257 0.4193 0.4135 0.4087
985.000000 0.4054 0.4022 0.3974 0.3911 0.3801
990.000000 0.3682 0.3511 0.3416 0.3322 0.3238
995.000000 0.3175 0.3112 0.3087 0.3071 0.3062
1000.000000 0.3056 0.2930 0.2855 0.2718 0.2609
1005.000000 0.2515 0.2418 0.2216 0.2133 0.2097
1010.000000 0.2180 0.2397 0.2628 0.2819 0.3169
1015.000000 0.3333 0.3543 0.3686 0.3741 0.3793
1020.000000 0.3799 0.3801 0.3771 0.3723 0.3644
1025.000000 0.3575 0.3509 0.3443 0.3378 0.3346
1030.000000 0.3328 0.3310 0.3290 0.3258 0.3202
1035.000000 0.3159 0.3142 0.3139 0.3143 0.3146
1040.000000 0.3148 0.3138 0.3114 0.3070 0.3026
1045.000000 0.2954 0.2864 0.2772 0.2673 0.2552
1050.000000 0.2426 0.2299 0.2179 0.2106 0.2041
1055.000000 0.1977 0.1975 0.1945 0.2025 0.2067
1060.000000 0.2132 0.2234 0.2366 0.2628 0.2791
1065.000000 0.2921 0.3027 0.3096 0.3116 0.3130
1070.000000 0.3143 0.3104 0.3081 0.3044 0.2917
1075.000000 0.2745 0.2574 0.2402 0.2362 0.2370
1080.000000 0.2338 0.2416 0.2453 0.2500 0.2551
1085.000000 0.2601 0.2671 0.2789 0.2918 0.2985
1090.000000 0.3064 0.3146 0.3202 0.3213 0.3216
1095.000000 0.3219 0.3221 0.3228 0.3225 0.3226
1100.000000 0.3226 0.3227 0.3228 0.3228 0.3229
1105.000000 0.3222 0.3199 0.3176 0.3153 0.3121
1110.000000 0.3093 0.3068 0.3051 0.3032 0.3090
1115.000000 0.3135 0.3231 0.3341 0.3842 0.4012
1120.000000 0.4032 0.4043 0.4050 0.3997 0.3944
1125.000000 0.3867 0.3773 0.3634 0.3599 0.3593
1130.000000 0.3629 0.3568 0.3933 0.4046 0.4147
1135.000000 0.4255 0.4391 0.4498 0.4589 0.4665
1140.000000 0.4677 0.4655 0.4626 0.4586 0.4540
1145.000000 0.4490 0.4440 0.4386 0.4334 0.4286
1150.000000 0.4243 0.4201 0.4153 0.4096 0.4040
1155.000000 0.3996 0.3953 0.3911 0.3870 0.3839
1160.000000 0.3810 0.3792 0.3790 0.3789 0.3799
1165.000000 0.3815 0.3830 0.3835 0.3822 0.3758
1170.000000 0.3653 0.3491 0.3321 0.3162 0.2994
1175.000000 0.2821 0.2670 0.2661 0.2651 0.2707
1180.000000 0.2757 0.2824 0.2910 0.2989 0.3093
1185.000000 0.3276 0.3458 0.3676 0.3840 0.3922
1190.000000 0.3953 0.3954 0.3968 0.3951 0.3940
1195.000000 0.3912 0.3873 0.3821 0.3750 0.3676
1200.000000 0.3603 0.3518 0.3515 0.3524 0.3555
1205.000000 0.3598 0.3640 0.3650 0.3648 0.3637
1210.000000 0.3623 0.3591 0.3494 0.3360 0.3215
1215.000000 0.3051 0.2884 0.2708 0.2539 0.2399
1220.000000 0.2265 0.2143 0.2049 0.1940 0.1787
1225.000000 0.1719 0.1670 0.1649 0.1649 0.1641
1230.000000 0.1701 0.1755 0.1822 0.1889 0.1960
1235.000000 0.2034 0.2464 0.2710 0.2871 0.3001
1240.000000 0.3140 0.3308 0.3475 0.3614 0.3747
1245.000000 0.4044 0.4257 0.4447 0.4636 0.4825
1250.000000 0.5014 0.5202 0.5359 0.5436 0.5524
1255.000000 0.5657 0.5796 0.5938 0.6134 0.6260
1260.000000 0.6335 0.6361 0.6384 0.6407 0.6422
1265.000000 0.6423 0.6423 0.6423 0.6427 0.6410
1270.000000 0.6396 0.6377 0.6345 0.6313 0.6270
1275.000000 0.6185 0.6135 0.6090 0.6067 0.6047
1280.000000 0.6041 0.6039 0.6037 0.5979 0.6036
1285.000000 0.6041 0.6048 0.6059 0.6093 0.6215
1290.000000 0.6337 0.6458 0.6580 0.6700 0.6808
1295.000000 0.6918 0.7025 0.7056 0.7071 0.7076
1300.000000 0.7051 0.7028 0.7001 0.6959 0.6900
1305.000000 0.6822 0.6693 0.6573 0.6496 0.6427
1310.000000 0.6323 0.6192 0.6100 0.6009 0.5839
1315.000000 0.5746 0.5670 0.5599 0.5531 0.5463
1320.000000 0.5394 0.5322 0.5249 0.5109 0.4951
1325.000000 0.4792 0.4635 0.4477 0.4319 0.4162
1330.000000 0.3971 0.3739 0.3591 0.3465 0.3399
1335.000000 0.3349 0.3299 0.3251 0.3204 0.3157
1340.000000 0.3108 0.3049 0.2832 0.2577 0.2323
1345.000000 0.2095 0.1992 0.1890 0.1760 0.1672
1350.000000 0.1652 0.1657 0.1638 0.1725 0.1906
1355.000000 0.2104 0.2301 0.2498 0.2695 0.2891
1360.000000 0.3087 0.3283 0.3450 0.3532 0.3568
1365.000000 0.3577 0.3628 0.3567 0.3545 0.3512
1370.000000 0.3466 0.3409 0.3331 0.3245 0.3182
1375.000000 0.3121 0.3061 0.3012 0.2966 0.2937
1380.000000 0.2930 0.2924 0.2912 0.2925 0.2937
1385.000000 0.2955 0.3107 0.3264 0.3421 0.3578
1390.000000 0.3734 0.3890 0.4046 0.4202 0.4358
1395.000000 0.4514 0.4669 0.4823 0.5006 0.5097
1400.000000 0.5153 0.5200 0.5234 0.5244 0.5250
1405.000000 0.5254 0.5253 0.5277 0.5248 0.5238
1410.000000 0.5227 0.5216 0.5198 0.5171 0.5137
1415.000000 0.5089 0.5028 0.4559 0.4258 0.4104
1420.000000 0.3962 0.3819 0.3686 0.3498 0.3341
1425.000000 0.3215 0.2982 0.2681 0.2430 0.2278
1430.000000 0.2192 0.2135 0.2098 0.2070 0.2060
1435.000000 0.2030 0.1958 0.1805 0.1700 0.1637
1440.000000 0.1580 0.1550 0.1530 0.1531 0.1537
1445.000000 0.1543 0.1551 0.1563 0.1574 0.1591
1450.000000 0.1612 0.1634 0.1682 0.1747 0.1846
1455.000000 0.1902 0.1906 0.1921 0.1882 0.1848
1460.000000 0.1806 0.1763 0.1724 0.1693 0.1661
1465.000000 0.1630 0.1606 0.1597 0.1611 0.1606
1470.000000 0.1625 0.1671 0.1712 0.1737 0.1754
1475.000000 0.1769 0.1785 0.1799 0.1813 0.1827
1480.000000 0.1840 0.1855 0.1871 0.1888 0.1904
1485.000000 0.1924 0.1947 0.1983 0.2021 0.2047
1490.000000 0.2063 0.2078 0.2090 0.2099 0.2109
1495.000000 0.2129 0.2153 0.2203 0.2275 0.2360
1500.000000 0.2486 0.2609 0.2710 0.2808 0.2885
1505.000000 0.2944 0.2974 0.3000 0.3027 0.3053
1510.000000 0.3071 0.3079 0.3086 0.3094 0.3102
1515.000000 0.3110 0.3115 0.3118 0.3119 0.3120
1520.000000 0.3122 0.3123 0.3124 0.3123 0.3121
1525.000000 0.3120 0.3119 0.3117 0.3114 0.3104
1530.000000 0.3094 0.3090 0.3089 0.3092 0.3111
1535.000000 0.3137 0.3168 0.3219 0.3296 0.3364
1540.000000 0.3422 0.3478 0.3537 0.3604 0.3672
1545.000000 0.3705 0.3709 0.3734 0.3701 0.3698
1550.000000 0.3693 0.3680 0.3666 0.3654 0.3633
1555.000000 0.3591 0.3547 0.3502 0.3454 0.3405
1560.000000 0.3357 0.3308 0.3256 0.3204 0.3152
1565.000000 0.3100 0.3048 0.2984 0.2910 0.2834
1570.000000 0.2758 0.2659 0.2536 0.2406 0.2302
1575.000000 0.2217 0.2149 0.2107 0.2090 0.2082
1580.000000 0.2070 0.2081 0.2082 0.2086 0.2102
1585.000000 0.2121 0.2158 0.2207 0.2330 0.2470
1590.000000 0.2580 0.2679 0.2777 0.2874 0.2970
1595.000000 0.3044 0.3098 0.3147 0.3195 0.3244
1600.000000 0.3293 0.3342 0.3400 0.3468 0.3536
1605.000000 0.3604 0.3667 0.3702 0.3694 0.3738
1610.000000 0.3657 0.3626 0.3581 0.3538 0.3503
1615.000000 0.3468 0.3434 0.3393 0.3331 0.3318
1620.000000 0.3316 0.3322 0.3322 0.3344 0.3437
1625.000000 0.3568 0.3699 0.3830 0.3961 0.4092
1630.000000 0.4223 0.4354 0.4484 0.4614 0.4744
1635.000000 0.4874 0.5004 0.5134 0.5264 0.5380
1640.000000 0.5498 0.5585 0.5630 0.5661 0.5707
1645.000000 0.5793 0.5897 0.5950 0.6002 0.6054
1650.000000 0.6159 0.6301 0.6440 0.6562 0.6671
1655.000000 0.6769 0.6854 0.6939 0.7012 0.7031
1660.000000 0.7050 0.7069 0.7088 0.7109 0.7131
1665.000000 0.7158 0.7210 0.7277 0.7319 0.7349
1670.000000 0.7358 0.7361 0.7363 0.7361 0.7325
1675.000000 0.7269 0.7205 0.7141 0.7078 0.7015
1680.000000 0.6956 0.6897 0.6837 0.6780 0.6727
1685.000000 0.6676 0.6625 0.6574 0.6523 0.6472
1690.000000 0.6421 0.6369 0.6315 0.6261 0.6207
1695.000000 0.6154 0.6100 0.6046 0.5983 0.5914
1700.000000 0.5844 0.5788 0.5764 0.5745 0.5726
1705.000000 0.5706 0.5689 0.5683 0.5682 0.5696
1710.000000 0.5711 0.5745 0.5790 0.5850 0.5903
1715.000000 0.5932 0.5943 0.5954 0.5966 0.5974
1720.000000 0.5975 0.5973 0.5969 0.5964 0.5945
1725.000000 0.5932 0.5908 0.5878 0.5843 0.5795
1730.000000 0.5741 0.5694 0.5647 0.5602 0.5553
1735.000000 0.5497 0.5440 0.5383 0.5326 0.5246
1740.000000 0.5138 0.5015 0.4834 0.4542 0.4229
1745.000000 0.3917 0.3604 0.3292 0.2981 0.2669
1750.000000 0.2358 0.2076 0.1876 0.1876 0.1924
1755.000000 0.1887 0.2689 0.3150 0.3609 0.4069
1760.000000 0.4527 0.4985 0.5548 0.6538 0.6676
1765.000000 0.6761 0.6833 0.6896 0.6958 0.7021
1770.000000 0.7079 0.7133 0.7185 0.7238 0.7290
1775.000000 0.7345 0.7401 0.7459 0.7517 0.7568
1780.000000 0.7605 0.7636 0.7667 0.7698 0.7729
1785.000000 0.7755 0.7774 0.7784 0.7794 0.7804
1790.000000 0.7814 0.7823 0.7828 0.7827 0.7825
1795.000000 0.7823 0.7821 0.7820 0.7818 0.7816
1800.000000 0.7814 0.7813 0.7811 0.7809 0.7807
1805.000000 0.7806 0.7803 0.7801 0.7799 0.7796
1810.000000 0.7794 0.7793 0.7793 0.7793 0.7793
1815.000000 0.7792 0.7793 0.7795 0.7801 0.7807
1820.000000 0.7814 0.7821 0.7827 0.7833 0.7840
1825.000000 0.7846 0.7853 0.7865 0.7878 0.7890
1830.000000 0.7902 0.7914 0.7926 0.7938 0.7950
1835.000000 0.7962 0.7970 0.7976 0.7983 0.7989
1840.000000 0.7995 0.8002 0.8008 0.8014 0.8021
1845.000000 0.8026 0.8033 0.8039 0.8044 0.8048
1850.000000 0.8037 0.8051 0.8053 0.8054 0.8056
1855.000000 0.8057 0.8059 0.8060 0.8062 0.8064
1860.000000 0.8065 0.8067 0.8066 0.8063 0.8060
1865.000000 0.8057 0.8053 0.8050 0.8047 0.8044
1870.000000 0.8040 0.8037 0.8034 0.8031 0.8028
1875.000000 0.8024 0.8021 0.8018 0.8015 0.8011
1880.000000 0.8008 0.8005 0.8002 0.7999 0.7995
1885.000000 0.7993 0.7989 0.7986 0.7983 0.7980
1890.000000 0.7977 0.7974 0.7970 0.7967 0.7964
1895.000000 0.7963 0.7962 0.7962 0.7962 0.7962
1900.000000 0.7961 0.7961 0.7961 0.7962 0.7965
1905.000000 0.7970 0.7975 0.7980 0.7985 0.7989
1910.000000 0.7993 0.7998 0.8003 0.8008 0.8012
1915.000000 0.8017 0.8022 0.8027 0.8031 0.8037
1920.000000 0.8043 0.8048 0.8046 0.8035 0.8024
1925.000000 0.8013 0.8002 0.7991 0.7980 0.7969
1930.000000 0.7958 0.7947 0.7936 0.7924 0.7909
1935.000000 0.7891 0.7874 0.7856 0.7838 0.7821
1940.000000 0.7805 0.7791 0.7783 0.7774 0.7766
1945.000000 0.7757 0.7748 0.7740 0.7731 0.7726
1950.000000 0.7724 0.7724 0.7725 0.7725 0.7725
1955.000000 0.7726 0.7728 0.7730 0.7732 0.7733
1960.000000 0.7735 0.7737 0.7738 0.7741 0.7745
1965.000000 0.7752 0.7759 0.7766 0.7772 0.7779
1970.000000 0.7786 0.7794 0.7802 0.7809 0.7817
1975.000000 0.7825 0.7832 0.7840 0.7848 0.7855
1980.000000 0.7862 0.7869 0.7871 0.7874 0.7876
1985.000000 0.7879 0.7881 0.7885 0.7887 0.7890
1990.000000 0.7892 0.7895 0.7897 0.7897 0.7897
1995.000000 0.7897 0.7897 0.7897 0.7897 0.7896
2000.000000 0.7896 0.7896 0.7895 0.7894 0.7892
2005.000000 0.7890 0.7888 0.7886 0.7884 0.7882
2010.000000 0.7880 0.7878 0.7876 0.7874 0.7872
2015.000000 0.7870 0.7868 0.7865 0.7863 0.7859
2020.000000 0.7856 0.7853 0.7849 0.7846 0.7843
2025.000000 0.7839 0.7836 0.7833 0.7829 0.7826
2030.000000 0.7823 0.7819 0.7815 0.7811 0.7807
2035.000000 0.7804 0.7800 0.7796 0.7792 0.7788
2040.000000 0.7784 0.7781 0.7777 0.7773 0.7769
2045.000000 0.7765 0.7761 0.7757 0.7754 0.7750
2050.000000 0.7746 0.7742 0.7738 0.7735 0.7730
2055.000000 0.7727 0.7723 0.7720 0.7716 0.7712
2060.000000 0.7708 0.7705 0.7700 0.7696 0.7693
2065.000000 0.7689 0.7686 0.7682 0.7678 0.7674
2070.000000 0.7670 0.7666 0.7661 0.7656 0.7651
2075.000000 0.7646 0.7641 0.7636 0.7631 0.7627
2080.000000 0.7622 0.7617 0.7612 0.7607 0.7602
2085.000000 0.7597 0.7592 0.7588 0.7582 0.7577
2090.000000 0.7573 0.7568 0.7563 0.7559 0.7556
2095.000000 0.7552 0.7549 0.7546 0.7542 0.7539
2100.000000 0.7535 0.7532 0.7529 0.7526 0.7523
2105.000000 0.7519 0.7516 0.7513 0.7509 0.7506
2110.000000 0.7503 0.7499 0.7496 0.7492 0.7489
2115.000000 0.7487 0.7483 0.7480 0.7477 0.7473
2120.000000 0.7470 0.7467 0.7463 0.7460 0.7457
2125.000000 0.7454 0.7451 0.7448 0.7444 0.7441
2130.000000 0.7438 0.7434 0.7431 0.7428 0.7425
2135.000000 0.7422 0.7419 0.7416 0.7412 0.7409
2140.000000 0.7406 0.7403 0.7400 0.7397 0.7394
2145.000000 0.7391 0.7387 0.7384 0.7381 0.7377
2150.000000 0.7374 0.7372 0.7369 0.7366 0.7362
2155.000000 0.7359 0.7356 0.7353 0.7350 0.7347
2160.000000 0.7343 0.7340 0.7336 0.7332 0.7328
2165.000000 0.7325 0.7321 0.7317 0.7313 0.7310
2170.000000 0.7306 0.7302 0.7299 0.7295 0.7291
2175.000000 0.7287 0.7284 0.7281 0.7276 0.7267
2180.000000 0.7258 0.7249 0.7240 0.7230 0.7221
2185.000000 0.7212 0.7203 0.7195 0.7188 0.7183
2190.000000 0.7180 0.7177 0.7174 0.7171 0.7168
2195.000000 0.7165 0.7163 0.7160 0.7157 0.7153
2200.000000 0.7147 0.7141 0.7134 0.7128 0.7122
2205.000000 0.7116 0.7111 0.7105 0.7098 0.7092
2210.000000 0.7086 0.7080 0.7074 0.7066 0.7058
2215.000000 0.7049 0.7040 0.7032 0.7023 0.7014
2220.000000 0.7005 0.6996 0.6987 0.6979 0.6970
2225.000000 0.6967 0.6965 0.6965 0.6965 0.6966
2230.000000 0.6966 0.6966 0.6966 0.6967 0.6967
2235.000000 0.6968 0.6968 0.6969 0.6969 0.6963
2240.000000 0.6957 0.6950 0.6943 0.6935 0.6927
2245.000000 0.6919 0.6912 0.6904 0.6896 0.6888
2250.000000 0.6880 0.6867 0.6851 0.6836 0.6822
2255.000000 0.6807 0.6792 0.6777 0.6763 0.6752
2260.000000 0.6744 0.6735 0.6726 0.6718 0.6709
2265.000000 0.6700 0.6692 0.6685 0.6680 0.6675
2270.000000 0.6670 0.6665 0.6660 0.6655 0.6650
2275.000000 0.6646 0.6641 0.6636 0.6632 0.6627
2280.000000 0.6622 0.6618 0.6613 0.6608 0.6601
2285.000000 0.6594 0.6587 0.6580 0.6572 0.6564
2290.000000 0.6557 0.6550 0.6543 0.6536 0.6528
2295.000000 0.6521 0.6513 0.6507 0.6500 0.6494
2300.000000 0.6488 0.6482 0.6476 0.6470 0.6463
2305.000000 0.6457 0.6450 0.6444 0.6438 0.6432
2310.000000 0.6426 0.6420 0.6414 0.6408 0.6401
2315.000000 0.6395 0.6389 0.6383 0.6377 0.6371
2320.000000 0.6366 0.6361 0.6356 0.6352 0.6348
2325.000000 0.6344 0.6340 0.6336 0.6331 0.6327
2330.000000 0.6323 0.6319 0.6315 0.6312 0.6308
2335.000000 0.6306 0.6305 0.6304 0.6303 0.6302
2340.000000 0.6301 0.6300 0.6299 0.6298 0.6297
2345.000000 0.6296 0.6296 0.6296 0.6298 0.6299
2350.000000 0.6301 0.6303 0.6306 0.6318 0.6329
2355.000000 0.6344 0.6359 0.6373 0.6387 0.6397
2360.000000 0.6401 0.6406 0.6410 0.6415 0.6420
2365.000000 0.6425 0.6425 0.6425 0.6424 0.6422
2370.000000 0.6439 0.6419 0.6416 0.6414 0.6411
2375.000000 0.6409 0.6406 0.6404 0.6401 0.6397
2380.000000 0.6391 0.6384 0.6378 0.6371 0.6364
2385.000000 0.6358 0.6352 0.6347 0.6343 0.6340
2390.000000 0.6338 0.6335 0.6332 0.6331 0.6331
2395.000000 0.6331 0.6332 0.6334 0.6335 0.6336
2400.000000 0.6338 0.6341 0.6344 0.6348 0.6351
2405.000000 0.6355 0.6359 0.6361 0.6363 0.6363
2410.000000 0.6363 0.6363 0.6363 0.6363 0.6362
2415.000000 0.6362 0.6362 0.6362 0.6361 0.6359
2420.000000 0.6358 0.6354 0.6350 0.6345 0.6340
2425.000000 0.6336 0.6334 0.6331 0.6332 0.6334
2430.000000 0.6335 0.6336 0.6338 0.6339 0.6340
2435.000000 0.6342 0.6343 0.6345 0.6346 0.6347
2440.000000 0.6349 0.6350 0.6351 0.6353 0.6355
2445.000000 0.6356 0.6357 0.6359 0.6360 0.6362
2450.000000 0.6365 0.6369 0.6372 0.6375 0.6379
2455.000000 0.6382 0.6385 0.6388 0.6392 0.6395
2460.000000 0.6398 0.6401 0.6404 0.6407 0.6411
2465.000000 0.6414 0.6418 0.6424 0.6429 0.6435
2470.000000 0.6440 0.6446 0.6452 0.6458 0.6463
2475.000000 0.6469 0.6475 0.6481 0.6486 0.6492
2480.000000 0.6498 0.6503 0.6508 0.6513 0.6518
2485.000000 0.6522 0.6527 0.6532 0.6536 0.6541
2490.000000 0.6545 0.6547 0.6549 0.6550 0.6551
2495.000000 0.6552 0.6554 0.6556 0.6557 0.6558
2500.000000 0.6560 0.6561 0.6562 0.6563 0.6564
2505.000000 0.6565 0.6567 0.6569 0.6570 0.6571
2510.000000 0.6572 0.6575 0.6577 0.6580 0.6582
2515.000000 0.6585 0.6588 0.6591 0.6594 0.6597
2520.000000 0.6600 0.6603 0.6606 0.6608 0.6611
2525.000000 0.6614 0.6619 0.6624 0.6630 0.6636
2530.000000 0.6641 0.6647 0.6652 0.6658 0.6664
2535.000000 0.6670 0.6675 0.6681 0.6686 0.6692
2540.000000 0.6698 0.6704 0.6712 0.6720 0.6728
2545.000000 0.6737 0.6746 0.6755 0.6764 0.6773
2550.000000 0.6781 0.6790 0.6799 0.6808 0.6817
2555.000000 0.6826 0.6835 0.6845 0.6854 0.6864
2560.000000 0.6874 0.6884 0.6894 0.6904 0.6914
2565.000000 0.6925 0.6935 0.6945 0.6955 0.6966
2570.000000 0.6976 0.6986 0.6996 0.7008 0.7020
2575.000000 0.7031 0.7043 0.7055 0.7066 0.7078
2580.000000 0.7090 0.7101 0.7113 0.7124 0.7133
2585.000000 0.7143 0.7149 0.7154 0.7160 0.7165
2590.000000 0.7170 0.7175 0.7180 0.7186 0.7191
2595.000000 0.7196 0.7201 0.7206 0.7212 0.7217
2600.000000 0.7222 0.7227 0.7232 0.7235 0.7239
2605.000000 0.7243 0.7246 0.7250 0.7254 0.7257
2610.000000 0.7261 0.7265 0.7268 0.7272 0.7276
2615.000000 0.7279 0.7283 0.7287 0.7290 0.7294
2620.000000 0.7298 0.7301 0.7306 0.7310 0.7315
2625.000000 0.7319 0.7323 0.7327 0.7331 0.7335
2630.000000 0.7340 0.7344 0.7348 0.7353 0.7357
2635.000000 0.7361 0.7366 0.7370 0.7374 0.7378
2640.000000 0.7382 0.7386 0.7390 0.7394 0.7397
2645.000000 0.7399 0.7402 0.7404 0.7406 0.7408
2650.000000 0.7410 0.7411 0.7413 0.7416 0.7418
2655.000000 0.7420 0.7422 0.7424 0.7426 0.7428
2660.000000 0.7430 0.7432 0.7434 0.7436 0.7438
2665.000000 0.7440 0.7442 0.7444 0.7445 0.7447
2670.000000 0.7448 0.7450 0.7451 0.7452 0.7454
2675.000000 0.7455 0.7456 0.7457 0.7458 0.7460
2680.000000 0.7461 0.7462 0.7463 0.7464 0.7466
2685.000000 0.7467 0.7468 0.7470 0.7471 0.7472
2690.000000 0.7473 0.7474 0.7476 0.7477 0.7479
2695.000000 0.7480 0.7481 0.7483 0.7484 0.7485
2700.000000 0.7487 0.7489 0.7490 0.7492 0.7493
2705.000000 0.7495 0.7496 0.7498 0.7500 0.7501
2710.000000 0.7502 0.7504 0.7505 0.7507 0.7509
2715.000000 0.7510 0.7512 0.7513 0.7514 0.7516
2720.000000 0.7517 0.7520 0.7525 0.7529 0.7534
2725.000000 0.7539 0.7544 0.7549 0.7554 0.7559
2730.000000 0.7564 0.7569 0.7574 0.7582 0.7591
2735.000000 0.7600 0.7611 0.7623 0.7634 0.7645
2740.000000 0.7657 0.7668 0.7677 0.7685 0.7694
2745.000000 0.7702 0.7710 0.7717 0.7725 0.7733
2750.000000 0.7741 0.7749 0.7757 0.7765 0.7770
2755.000000 0.7775 0.7779 0.7783 0.7787 0.7790
2760.000000 0.7794 0.7797 0.7801 0.7805 0.7808
2765.000000 0.7812 0.7837 0.7819 0.7823 0.7826
2770.000000 0.7827 0.7829 0.7829 0.7829 0.7828
2775.000000 0.7827 0.7827 0.7827 0.7826 0.7826
2780.000000 0.7825 0.7824 0.7823 0.7822 0.7820
2785.000000 0.7818 0.7817 0.7815 0.7813 0.7811
2790.000000 0.7810 0.7808 0.7806 0.7804 0.7802
2795.000000 0.7800 0.7798 0.7796 0.7794 0.7793
2800.000000 0.7790 0.7787 0.7784 0.7780 0.7776
2805.000000 0.7772 0.7768 0.7764 0.7760 0.7755
2810.000000 0.7751 0.7747 0.7743 0.7739 0.7735
2815.000000 0.7731 0.7725 0.7719 0.7713 0.7706
2820.000000 0.7700 0.7695 0.7689 0.7683 0.7677
2825.000000 0.7671 0.7665 0.7659 0.7653 0.7647
2830.000000 0.7641 0.7635 0.7629 0.7623 0.7616
2835.000000 0.7610 0.7604 0.7598 0.7592 0.7586
2840.000000 0.7580 0.7574 0.7568 0.7562 0.7555
2845.000000 0.7549 0.7543 0.7537 0.7531 0.7525
2850.000000 0.7518 0.7512 0.7506 0.7500 0.7494
2855.000000 0.7489 0.7483 0.7478 0.7475 0.7471
2860.000000 0.7468 0.7465 0.7462 0.7459 0.7456
2865.000000 0.7455 0.7453 0.7452 0.7455 0.7458
2870.000000 0.7461 0.7463 0.7464 0.7466 0.7467
2875.000000 0.7469 0.7471 0.7473 0.7475 0.7476
2880.000000 0.7478 0.7479 0.7479 0.7479 0.7476
2885.000000 0.7471 0.7466 0.7460 0.7452 0.7443
2890.000000 0.7435 0.7422 0.7407 0.7393 0.7378
2895.000000 0.7363 0.7347 0.7332 0.7316 0.7301
2900.000000 0.7285 0.7269 0.7254 0.7238 0.7223
2905.000000 0.7210 0.7197 0.7183 0.7172 0.7160
2910.000000 0.7149 0.7142 0.7137 0.7133 0.7130
2915.000000 0.7131 0.7131 0.7132 0.7133 0.7134
2920.000000 0.7135 0.7137 0.7139 0.7142 0.7151
2925.000000 0.7148 0.7152 0.7155 0.7158 0.7162
2930.000000 0.7165 0.7169 0.7180 0.7190 0.7201
2935.000000 0.7212 0.7224 0.7235 0.7247 0.7258
2940.000000 0.7269 0.7281 0.7291 0.7301 0.7312
2945.000000 0.7321 0.7329 0.7336 0.7344 0.7351
2950.000000 0.7359 0.7367 0.7375 0.7382 0.7389
2955.000000 0.7397 0.7405 0.7412 0.7420 0.7428
2960.000000 0.7435 0.7442 0.7450 0.7460 0.7470
2965.000000 0.7480 0.7490 0.7502 0.7514 0.7526
2970.000000 0.7538 0.7549 0.7561 0.7569 0.7570
2975.000000 0.7570 0.7571 0.7570 0.7568 0.7566
2980.000000 0.7564 0.7562 0.7559 0.7557 0.7555
2985.000000 0.7553 0.7550 0.7548 0.7546 0.7544
2990.000000 0.7541 0.7539 0.7536 0.7533 0.7531
2995.000000 0.7527 0.7524 0.7521 0.7517 0.7514
3000.000000 0.7511 0.7508 0.7505 0.7502 0.7498
3005.000000 0.7495 0.7492 0.7489 0.7486 0.7483
3010.000000 0.7481 0.7478 0.7476 0.7473 0.7471
3015.000000 0.7468 0.7466 0.7463 0.7461 0.7458
3020.000000 0.7456 0.7454 0.7452 0.7449 0.7447
3025.000000 0.7445 0.7442 0.7441 0.7442 0.7442
3030.000000 0.7443 0.7444 0.7445 0.7446 0.7447
3035.000000 0.7447 0.7448 0.7449 0.7450 0.7452
3040.000000 0.7454 0.7456 0.7459 0.7463 0.7467
3045.000000 0.7471 0.7476 0.7480 0.7484 0.7489
3050.000000 0.7494 0.7500 0.7506 0.7516 0.7532
3055.000000 0.7547 0.7563 0.7578 0.7594 0.7609
3060.000000 0.7625 0.7650 0.7675 0.7700 0.7727
3065.000000 0.7757 0.7787 0.7817 0.7846 0.7873
3070.000000 0.7901 0.7929 0.7955 0.7982 0.8008
3075.000000 0.8035 0.8065 0.8096 0.8127 0.8156
3080.000000 0.8178 0.8199 0.8220 0.8235 0.8239
3085.000000 0.8243 0.8247 0.8251 0.8255 0.8259
3090.000000 0.8264 0.8268 0.8272 0.8276 0.8280
3095.000000 0.8288 0.8296 0.8304 0.8313 0.8336
3100.000000 0.8358 0.8381 0.8401 0.8416 0.8431
3105.000000 0.8446 0.8457 0.8462 0.8467 0.8472
3110.000000 0.8477 0.8482 0.8488 0.8493 0.8497
3115.000000 0.8501 0.8504 0.8508 0.8509 0.8509
3120.000000 0.8510 0.8510 0.8511 0.8511 0.8512
3125.000000 0.8513 0.8513 0.8514 0.8514 0.8498
3130.000000 0.8515 0.8516 0.8517 0.8518 0.8518
3135.000000 0.8519 0.8519 0.8519 0.8519 0.8518
3140.000000 0.8517 0.8516 0.8515 0.8514 0.8513
3145.000000 0.8512 0.8511 0.8510 0.8509 0.8508
3150.000000 0.8507 0.8506 0.8505 0.8504 0.8502
3155.000000 0.8500 0.8498 0.8495 0.8492 0.8489
3160.000000 0.8485 0.8482 0.8479 0.8476 0.8472
3165.000000 0.8469 0.8465 0.8462 0.8458 0.8455
3170.000000 0.8452 0.8449 0.8445 0.8441 0.8435
3175.000000 0.8429 0.8423 0.8417 0.8411 0.8405
3180.000000 0.8399 0.8393 0.8387 0.8381 0.8375
3185.000000 0.8369 0.8363 0.8357 0.8351 0.8345
3190.000000 0.8338 0.8331 0.8324 0.8316 0.8310
3195.000000 0.8303 0.8296 0.8289 0.8282 0.8275
3200.000000 0.8269 0.8262 0.8255 0.8248 0.8240
3205.000000 0.8233 0.8227 0.8220 0.8213 0.8206
3210.000000 0.8198 0.8189 0.8180 0.8171 0.8162
3215.000000 0.8152 0.8143 0.8134 0.8125 0.8116
3220.000000 0.8107 0.8097 0.8088 0.8079 0.8070
3225.000000 0.8061 0.8052 0.8043 0.8033 0.8024
3230.000000 0.8015 0.8006 0.7997 0.7988 0.7979
3235.000000 0.7970 0.7961 0.7952 0.7943 0.7933
3240.000000 0.7924 0.7914 0.7905 0.7895 0.7885
3245.000000 0.7876 0.7866 0.7856 0.7846 0.7837
3250.000000 0.7827 0.7817 0.7808 0.7798 0.7788
3255.000000 0.7779 0.7769 0.7759 0.7750 0.7740
3260.000000 0.7730 0.7721 0.7711 0.7701 0.7692
3265.000000 0.7682 0.7672 0.7663 0.7653 0.7638
3270.000000 0.7622 0.7607 0.7591 0.7575 0.7559
3275.000000 0.7542 0.7525 0.7509 0.7493 0.7476
3280.000000 0.7460 0.7444 0.7427 0.7411 0.7394
3285.000000 0.7378 0.7348 0.7315 0.7282 0.7249
3290.000000 0.7217 0.7186 0.7155 0.7124 0.7095
3295.000000 0.7076 0.7057 0.7038 0.7018 0.6993
3300.000000 0.6967 0.6941 0.6915 0.6888 0.6862
3305.000000 0.6835 0.6809 0.6782 0.6756 0.6729
3310.000000 0.6702 0.6675 0.6649 0.6622 0.6596
3315.000000 0.6570 0.6543 0.6517 0.6491 0.6464
3320.000000 0.6438 0.6411 0.6385 0.6358 0.6332
3325.000000 0.6306 0.6279 0.6253 0.6227 0.6201
3330.000000 0.6174 0.6148 0.6122 0.6095 0.6069
3335.000000 0.6043 0.6017 0.5991 0.5965 0.5939
3340.000000 0.5913 0.5887 0.5861 0.5835 0.5809
3345.000000 0.5782 0.5756 0.5730 0.5704 0.5679
3350.000000 0.5653 0.5627 0.5601 0.5575 0.5549
3355.000000 0.5524 0.5498 0.5472 0.5446 0.5420
3360.000000 0.5394 0.5368 0.5343 0.5317 0.5291
3365.000000 0.5266 0.5240 0.5214 0.5188 0.5163
3370.000000 0.5140 0.5119 0.5098 0.5077 0.5056
3375.000000 0.5039 0.5021 0.5004 0.4986 0.4969
3380.000000 0.4952 0.4935 0.4918 0.4902 0.4896
3385.000000 0.4890 0.4885 0.4879 0.4861 0.4876
3390.000000 0.4876 0.4876 0.4876 0.4877 0.4877
3395.000000 0.4877 0.4877 0.4878 0.4880 0.4882
3400.000000 0.4885 0.4887 0.4895 0.4907 0.4919
3405.000000 0.4931 0.4944 0.4968 0.4992 0.5016
3410.000000 0.5040 0.5064 0.5088 0.5112 0.5136
3415.000000 0.5160 0.5184 0.5208 0.5232 0.5255
3420.000000 0.5279 0.5303 0.5327 0.5351 0.5375
3425.000000 0.5399 0.5423 0.5446 0.5470 0.5494
3430.000000 0.5518 0.5541 0.5565 0.5588 0.5612
3435.000000 0.5636 0.5659 0.5683 0.5707 0.5730
3440.000000 0.5754 0.5778 0.5801 0.5825 0.5849
3445.000000 0.5872 0.5895 0.5919 0.5942 0.5966
3450.000000 0.5989 0.6013 0.6036 0.6060 0.6083
3455.000000 0.6106 0.6130 0.6153 0.6177 0.6200
3460.000000 0.6223 0.6246 0.6270 0.6293 0.6316
3465.000000 0.6339 0.6363 0.6386 0.6409 0.6433
3470.000000 0.6456 0.6479 0.6502 0.6525 0.6548
3475.000000 0.6571 0.6594 0.6617 0.6640 0.6664
3480.000000 0.6687 0.6710 0.6733 0.6756 0.6779
3485.000000 0.6802 0.6825 0.6848 0.6871 0.6894
3490.000000 0.6917 0.6939 0.6962 0.6985 0.7008
3495.000000 0.7031 0.7054 0.7079 0.7105 0.7131
3500.000000 0.7158 0.7184 0.7207 0.7227 0.7248
3505.000000 0.7269 0.7289 0.7304 0.7316 0.7328
3510.000000 0.7340 0.7353 0.7365 0.7377 0.7389
3515.000000 0.7400 0.7412 0.7425 0.7437 0.7449
3520.000000 0.7461 0.7473 0.7485 0.7497 0.7509
3525.000000 0.7521 0.7533 0.7544 0.7555 0.7566
3530.000000 0.7577 0.7588 0.7597 0.7606 0.7615
3535.000000 0.7625 0.7634 0.7643 0.7653 0.7662
3540.000000 0.7671 0.7681 0.7690 0.7700 0.7709
3545.000000 0.7718 0.7728 0.7737 0.7746 0.7755
3550.000000 0.7764 0.7773 0.7783 0.7792 0.7801
3555.000000 0.7810 0.7820 0.7829 0.7838 0.7848
3560.000000 0.7857 0.7866 0.7880 0.7896 0.7912
3565.000000 0.7927 0.7943 0.7961 0.7980 0.7998
3570.000000 0.8017 0.8036 0.8054 0.8073 0.8091
3575.000000 0.8110 0.8129 0.8147 0.8166 0.8185
3580.000000 0.8203 0.8222 0.8243 0.8268 0.8293
3585.000000 0.8318 0.8343 0.8369 0.8394 0.8419
3590.000000 0.8445 0.8470 0.8496 0.8521 0.8546
3595.000000 0.8572 0.8597 0.8622 0.8642 0.8660
3600.000000 0.8679 0.8697 0.8716 0.8730 0.8742
3605.000000 0.8754 0.8766 0.8777 0.8790 0.8802
3610.000000 0.8814 0.8826 0.8838 0.8850 0.8861
3615.000000 0.8872 0.8884 0.8895 0.8906 0.8910
3620.000000 0.8914 0.8918 0.8923 0.8927 0.8931
3625.000000 0.8935 0.8940 0.8944 0.8949 0.8953
3630.000000 0.8957 0.8962 0.8966 0.8970 0.8975
3635.000000 0.8979 0.8983 0.8987 0.8991 0.8995
3640.000000 0.9000 0.9004 0.9008 0.9013 0.9017
3645.000000 0.9021 0.9024 0.9027 0.9030 0.9033
3650.000000 0.9035 0.9038 0.9040 0.9043 0.9045
3655.000000 0.9048 0.9050 0.9052 0.9055 0.9057
3660.000000 0.9060 0.9062 0.9065 0.9067 0.9069
3665.000000 0.9072 0.9074 0.9076 0.9079 0.9081
3670.000000 0.9083 0.9085 0.9085 0.9085 0.9085
3675.000000 0.9085 0.9085 0.9084 0.9084 0.9084
3680.000000 0.9083 0.9083 0.9082 0.9082 0.9082
3685.000000 0.9082 0.9082 0.9082 0.9081 0.9081
3690.000000 0.9081 0.9081 0.9081 0.9091 0.9080
3695.000000 0.9080 0.9079 0.9079 0.9079 0.9078
3700.000000 0.9078 0.9078 0.9078 0.9078 0.9077
3705.000000 0.9077 0.9076 0.9076 0.9075 0.9075
3710.000000 0.9074 0.9074 0.9073 0.9073 0.9073
3715.000000 0.9072 0.9072 0.9071 0.9071 0.9070
3720.000000 0.9070 0.9069 0.9069 0.9068 0.9067
3725.000000 0.9067 0.9066 0.9066 0.9066 0.9065
3730.000000 0.9065 0.9065 0.9064 0.9064 0.9063
3735.000000 0.9063 0.9062 0.9061 0.9061 0.9060
3740.000000 0.9060 0.9059 0.9059 0.9058 0.9058
3745.000000 0.9057 0.9057 0.9056 0.9056 0.9055
3750.000000 0.9054 0.9053 0.9052 0.9051 0.9050
3755.000000 0.9049 0.9049 0.9048 0.9047 0.9046
3760.000000 0.9045 0.9044 0.9043 0.9042 0.9041
3765.000000 0.9041 0.9040 0.9039 0.9038 0.9037
3770.000000 0.9036 0.9035 0.9035 0.9034 0.9033
3775.000000 0.9033 0.9032 0.9031 0.9030 0.9029
3780.000000 0.9028 0.9028 0.9027 0.9026 0.9025
3785.000000 0.9024 0.9023 0.9022 0.9021 0.9021
3790.000000 0.9020 0.9019 0.9018 0.9017 0.9016
3795.000000 0.9015 0.9014 0.9012 0.9011 0.9010
3800.000000 0.9008 0.9006 0.9004 0.9001 0.8999
3805.000000 0.8997 0.8995 0.8992 0.8990 0.8988
3810.000000 0.8986 0.8983 0.8981 0.8979 0.8977
3815.000000 0.8975 0.8972 0.8970 0.8968 0.8966
3820.000000 0.8963 0.8961 0.8959 0.8957 0.8954
3825.000000 0.8952 0.8950 0.8948 0.8946 0.8944
3830.000000 0.8943 0.8942 0.8940 0.8939 0.8938
3835.000000 0.8937 0.8937 0.8937 0.8936 0.8936
3840.000000 0.8936 0.8935 0.8935 0.8934 0.8934
3845.000000 0.8933 0.8933 0.8932 0.8932 0.8932
3850.000000 0.8931 0.8931 0.8931 0.8930 0.8930
3855.000000 0.8930 0.8929 0.8929 0.8929 0.8928
3860.000000 0.8928 0.8928 0.8927 0.8927 0.8926
3865.000000 0.8926 0.8925 0.8925 0.8924 0.8924
3870.000000 0.8923 0.8922 0.8921 0.8919 0.8918
3875.000000 0.8917 0.8915 0.8913 0.8911 0.8909
3880.000000 0.8907 0.8905 0.8902 0.8900 0.8898
3885.000000 0.8897 0.8895 0.8893 0.8891 0.8889
3890.000000 0.8887 0.8885 0.8883 0.8881 0.8880
3895.000000 0.8878 0.8876 0.8874 0.8872 0.8871
3900.000000 0.8869 0.8867 0.8865 0.8863 0.8862
3905.000000 0.8860 0.8858 0.8856 0.8855 0.8853
3910.000000 0.8851 0.8850 0.8848 0.8846 0.8845
3915.000000 0.8843 0.8841 0.8839 0.8837 0.8836
3920.000000 0.8834 0.8832 0.8830 0.8828 0.8827
3925.000000 0.8825 0.8824 0.8823 0.8822 0.8821
3930.000000 0.8820 0.8819 0.8819 0.8818 0.8817
3935.000000 0.8816 0.8815 0.8815 0.8814 0.8813
3940.000000 0.8812 0.8811 0.8810 0.8810 0.8809
3945.000000 0.8808 0.8807 0.8806 0.8806 0.8805
3950.000000 0.8804 0.8803 0.8802 0.8802 0.8801
3955.000000 0.8800 0.8799 0.8798 0.8798 0.8797
3960.000000 0.8796 0.8795 0.8794 0.8794 0.8793
3965.000000 0.8792 0.8791 0.8790 0.8790 0.8789
3970.000000 0.8788 0.8787 0.8787 0.8786 0.8785
3975.000000 0.8784 0.8783 0.8783 0.8782 0.8781
3980.000000 0.8780 0.8779 0.8779 0.8778 0.8777
3985.000000 0.8776 0.8775 0.8775 0.8774 0.8773
3990.000000 0.8772 0.8772 0.8771 0.8770 0.8769
3995.000000 0.8769 0.8768 0.8767 0.8767 0.8766
4000.000000 0.8766
##END=
