##TITLE=Dicalcium phosphate, anhydrous
##JCAMP-DX=4.24
##DATA TYPE=INFRARED SPECTRUM
##CLASS=COBLENTZ
##ORIGIN=COLGATE-PALMOLIVE COMPANY (KELLENBACH)
##OWNER=Copyright (C) 1987 by the Coblentz Society
Collection (C) 2018 copyright by the U.S. Secretary of Commerce
on behalf of the United States of America. All rights reserved.
##DATE=1973/07/25
##NAMES=LUSTRE PHOS A (COMMERCIAL)
##MOLFORM=H O4 P Ca
##SOURCE REFERENCE=COBLENTZ NO. 9796
##$NIST ID=B6009796
##$NIST SOURCE=COBLENTZ
##$NIST IMAGE=cob9796
##SPECTROMETER/DATA SYSTEM=BECKMAN IR-12 (GRATING)
##INSTRUMENT PARAMETERS=GRATING
##STATE=SOLID (1 mg / 100 mg, KBr DISC)
##SAMPLING PROCEDURE=TRANSMISSION
##RESOLUTION=2
##DATA PROCESSING=DIGITIZED BY COBLENTZ SOCIETY (BATCH II) FROM HARD COPY
##XUNITS=1/CM
##YUNITS=TRANSMITTANCE
##XFACTOR=1.0
##YFACTOR=1
##FIRSTX=202
##LASTX=4000
##FIRSTY=0.0892
##MAXX=4000
##MINX=202
##MAXY=0.9116
##MINY=0.0653
##NPOINTS=3799
##XYDATA=(X++(Y..Y))
202.000000 0.0892 0.0881 0.0870 0.0858 0.0835
207.000000 0.0812 0.0776 0.0726 0.0698 0.0689
212.000000 0.0690 0.0691 0.0693 0.0703 0.0733
217.000000 0.0772 0.0808 0.0839 0.0862 0.0873
222.000000 0.0881 0.0889 0.0896 0.0912 0.0930
227.000000 0.0992 0.1065 0.1139 0.1212 0.1285
232.000000 0.1358 0.1432 0.1505 0.1578 0.1652
237.000000 0.1725 0.1798 0.1872 0.1945 0.2018
242.000000 0.2073 0.2073 0.2072 0.2072 0.2072
247.000000 0.2073 0.2075 0.2077 0.2081 0.2092
252.000000 0.2102 0.2119 0.2136 0.2153 0.2169
257.000000 0.2184 0.2199 0.2204 0.2209 0.2213
262.000000 0.2218 0.2223 0.2224 0.2225 0.2225
267.000000 0.2243 0.2226 0.2226 0.2225 0.2223
272.000000 0.2221 0.2219 0.2216 0.2207 0.2196
277.000000 0.2185 0.2174 0.2171 0.2178 0.2188
282.000000 0.2198 0.2213 0.2232 0.2258 0.2284
287.000000 0.2308 0.2331 0.2616 0.2917 0.3091
292.000000 0.3152 0.3192 0.3232 0.3260 0.3288
297.000000 0.3316 0.3339 0.3363 0.3386 0.3410
302.000000 0.3433 0.3447 0.3462 0.3476 0.3491
307.000000 0.3509 0.3536 0.3564 0.3592 0.3644
312.000000 0.3704 0.3772 0.3859 0.3947 0.4039
317.000000 0.4130 0.4225 0.4340 0.4455 0.4570
322.000000 0.4690 0.4813 0.4927 0.5014 0.5096
327.000000 0.5178 0.5260 0.5342 0.5424 0.5506
332.000000 0.5588 0.5670 0.5752 0.5834 0.5915
337.000000 0.5997 0.6079 0.6161 0.6243 0.6391
342.000000 0.6477 0.6548 0.6620 0.6695 0.6771
347.000000 0.6846 0.6905 0.6956 0.7007 0.7058
352.000000 0.7110 0.7165 0.7220 0.7274 0.7324
357.000000 0.7372 0.7421 0.7468 0.7509 0.7550
362.000000 0.7591 0.7641 0.7691 0.7741 0.7793
367.000000 0.7853 0.7913 0.7969 0.8024 0.8052
372.000000 0.8070 0.8069 0.8068 0.8071 0.8078
377.000000 0.8086 0.8103 0.8120 0.8131 0.8132
382.000000 0.8126 0.8118 0.8103 0.8082 0.8050
387.000000 0.8009 0.7962 0.7913 0.7861 0.7807
392.000000 0.7740 0.7652 0.7564 0.7477 0.7389
397.000000 0.7301 0.7214 0.7126 0.7038 0.6951
402.000000 0.6863 0.6775 0.6703 0.6693 0.6685
407.000000 0.6690 0.6680 0.6708 0.6772 0.6835
412.000000 0.6899 0.6963 0.7026 0.7090 0.7154
417.000000 0.7217 0.7281 0.7345 0.7408 0.7472
422.000000 0.7541 0.7602 0.7651 0.7701 0.7742
427.000000 0.7769 0.7796 0.7823 0.7850 0.7875
432.000000 0.7892 0.7910 0.7927 0.7945 0.7962
437.000000 0.7973 0.7984 0.7994 0.8005 0.8015
442.000000 0.8022 0.8025 0.8027 0.8030 0.8032
447.000000 0.8046 0.8037 0.8036 0.8034 0.8030
452.000000 0.8022 0.8015 0.8007 0.7996 0.7983
457.000000 0.7970 0.7954 0.7935 0.7916 0.7898
462.000000 0.7879 0.7860 0.7841 0.7822 0.7802
467.000000 0.7781 0.7760 0.7739 0.7718 0.7697
472.000000 0.7676 0.7653 0.7631 0.7608 0.7586
477.000000 0.7564 0.7541 0.7519 0.7497 0.7474
482.000000 0.7448 0.7418 0.7389 0.7359 0.7329
487.000000 0.7299 0.7270 0.7240 0.7207 0.7170
492.000000 0.7133 0.7096 0.7060 0.7023 0.6986
497.000000 0.6950 0.6912 0.6875 0.6838 0.6800
502.000000 0.6763 0.6722 0.6666 0.6611 0.6555
507.000000 0.6490 0.6356 0.6247 0.6173 0.6099
512.000000 0.6025 0.5951 0.5877 0.5804 0.5730
517.000000 0.5656 0.5582 0.5508 0.5434 0.5360
522.000000 0.5286 0.5212 0.5138 0.5064 0.4991
527.000000 0.4917 0.4843 0.4769 0.4695 0.4640
532.000000 0.4596 0.4555 0.4526 0.4496 0.4477
537.000000 0.4466 0.4455 0.4446 0.4439 0.4433
542.000000 0.4426 0.4420 0.4413 0.4406 0.4399
547.000000 0.4380 0.4329 0.4262 0.4192 0.4137
552.000000 0.4081 0.4021 0.3959 0.3897 0.3832
557.000000 0.3766 0.3701 0.3636 0.3570 0.3505
562.000000 0.3440 0.3378 0.3319 0.3260 0.3201
567.000000 0.3141 0.3082 0.3033 0.2985 0.2937
572.000000 0.2889 0.2841 0.2793 0.2746 0.2698
577.000000 0.2651 0.2623 0.2596 0.2569 0.2556
582.000000 0.2551 0.2557 0.2551 0.2556 0.2562
587.000000 0.2579 0.2599 0.2794 0.3032 0.3270
592.000000 0.3508 0.3746 0.3984 0.4222 0.4460
597.000000 0.4698 0.4936 0.5174 0.5412 0.5649
602.000000 0.5887 0.6351 0.6463 0.6574 0.6679
607.000000 0.6783 0.6919 0.7153 0.7366 0.7549
612.000000 0.7656 0.7764 0.7868 0.7968 0.8068
617.000000 0.8140 0.8193 0.8246 0.8299 0.8352
622.000000 0.8405 0.8458 0.8507 0.8552 0.8597
627.000000 0.8643 0.8688 0.8733 0.8776 0.8807
632.000000 0.8838 0.8870 0.8899 0.8928 0.8957
637.000000 0.8987 0.9016 0.9038 0.9056 0.9075
642.000000 0.9093 0.9102 0.9107 0.9111 0.9116
647.000000 0.9113 0.9108 0.9109 0.9100 0.9095
652.000000 0.9091 0.9087 0.9080 0.9073 0.9066
657.000000 0.9059 0.9052 0.9045 0.9035 0.9024
662.000000 0.9013 0.9002 0.8990 0.8979 0.8968
667.000000 0.8957 0.8945 0.8933 0.8920 0.8908
672.000000 0.8895 0.8883 0.8870 0.8857 0.8842
677.000000 0.8827 0.8812 0.8797 0.8782 0.8767
682.000000 0.8753 0.8738 0.8719 0.8701 0.8683
687.000000 0.8664 0.8646 0.8627 0.8609 0.8591
692.000000 0.8572 0.8551 0.8529 0.8507 0.8486
697.000000 0.8464 0.8443 0.8421 0.8400 0.8380
702.000000 0.8361 0.8341 0.8322 0.8302 0.8283
707.000000 0.8264 0.8244 0.8223 0.8202 0.8182
712.000000 0.8161 0.8140 0.8119 0.8098 0.8077
717.000000 0.8057 0.8036 0.8015 0.7994 0.7973
722.000000 0.7952 0.7932 0.7909 0.7887 0.7864
727.000000 0.7842 0.7819 0.7797 0.7774 0.7752
732.000000 0.7730 0.7707 0.7685 0.7662 0.7640
737.000000 0.7617 0.7594 0.7572 0.7549 0.7526
742.000000 0.7503 0.7481 0.7458 0.7435 0.7413
747.000000 0.7390 0.7367 0.7344 0.7322 0.7298
752.000000 0.7274 0.7249 0.7224 0.7200 0.7175
757.000000 0.7151 0.7126 0.7102 0.7077 0.7053
762.000000 0.7028 0.7003 0.6978 0.6952 0.6926
767.000000 0.6901 0.6875 0.6849 0.6824 0.6798
772.000000 0.6772 0.6747 0.6721 0.6695 0.6670
777.000000 0.6647 0.6624 0.6601 0.6578 0.6555
782.000000 0.6531 0.6508 0.6485 0.6462 0.6439
787.000000 0.6416 0.6393 0.6370 0.6347 0.6325
792.000000 0.6304 0.6283 0.6262 0.6241 0.6220
797.000000 0.6199 0.6178 0.6157 0.6136 0.6115
802.000000 0.6094 0.6073 0.6052 0.6029 0.6005
807.000000 0.5981 0.5957 0.5933 0.5909 0.5885
812.000000 0.5861 0.5837 0.5813 0.5789 0.5766
817.000000 0.5742 0.5718 0.5694 0.5671 0.5647
822.000000 0.5623 0.5599 0.5575 0.5547 0.5518
827.000000 0.5490 0.5462 0.5434 0.5406 0.5380
832.000000 0.5353 0.5327 0.5301 0.5275 0.5249
837.000000 0.5223 0.5197 0.5173 0.5153 0.5132
842.000000 0.5112 0.5091 0.5070 0.5050 0.5029
847.000000 0.5009 0.4988 0.4968 0.4947 0.4927
852.000000 0.4906 0.4877 0.4849 0.4820 0.4791
857.000000 0.4762 0.4723 0.4683 0.4644 0.4604
862.000000 0.4565 0.4525 0.4486 0.4446 0.4403
867.000000 0.4359 0.4314 0.4270 0.4226 0.4181
872.000000 0.4137 0.4092 0.4043 0.3990 0.3936
877.000000 0.3883 0.3830 0.3776 0.3713 0.3650
882.000000 0.3588 0.3525 0.3462 0.3401 0.3340
887.000000 0.3279 0.3228 0.3182 0.3142 0.3125
892.000000 0.3108 0.3093 0.3080 0.3070 0.3072
897.000000 0.3076 0.3094 0.3088 0.3099 0.3125
902.000000 0.3167 0.3196 0.3197 0.3198 0.3199
907.000000 0.3199 0.3198 0.3198 0.3219 0.3245
912.000000 0.3282 0.3325 0.3374 0.3428 0.3481
917.000000 0.3537 0.3593 0.3659 0.3732 0.3803
922.000000 0.3871 0.3939 0.4012 0.4088 0.4153
927.000000 0.4209 0.4265 0.4330 0.4394 0.4446
932.000000 0.4491 0.4529 0.4562 0.4596 0.4624
937.000000 0.4652 0.4680 0.4703 0.4720 0.4737
942.000000 0.4753 0.4765 0.4770 0.4776 0.4792
947.000000 0.4781 0.4778 0.4774 0.4771 0.4768
952.000000 0.4753 0.4738 0.4723 0.4707 0.4683
957.000000 0.4659 0.4600 0.4535 0.4471 0.4407
962.000000 0.4343 0.4279 0.4214 0.4150 0.4086
967.000000 0.4022 0.3957 0.3893 0.3829 0.3765
972.000000 0.3701 0.3636 0.3572 0.3508 0.3444
977.000000 0.3379 0.3315 0.3251 0.3187 0.3122
982.000000 0.3058 0.2994 0.2930 0.2866 0.2801
987.000000 0.2737 0.2673 0.2609 0.2557 0.2519
992.000000 0.2490 0.2461 0.2432 0.2422 0.2416
997.000000 0.2402 0.2415 0.2419 0.2422 0.2431
1002.000000 0.2443 0.2480 0.2519 0.2590 0.2663
1007.000000 0.2734 0.2805 0.2876 0.2947 0.3027
1012.000000 0.3111 0.3195 0.3270 0.3339 0.3402
1017.000000 0.3451 0.3501 0.3550 0.3588 0.3624
1022.000000 0.3660 0.3696 0.3724 0.3750 0.3775
1027.000000 0.3801 0.3812 0.3809 0.3808 0.3801
1032.000000 0.3793 0.3783 0.3769 0.3745 0.3660
1037.000000 0.3576 0.3491 0.3406 0.3321 0.3236
1042.000000 0.3152 0.3067 0.2982 0.2897 0.2812
1047.000000 0.2728 0.2643 0.2558 0.2473 0.2388
1052.000000 0.2304 0.2219 0.2134 0.2049 0.1964
1057.000000 0.1880 0.1795 0.1710 0.1625 0.1540
1062.000000 0.1456 0.1371 0.1286 0.1202 0.1120
1067.000000 0.1033 0.0945 0.0875 0.0824 0.0772
1072.000000 0.0729 0.0714 0.0699 0.0684 0.0678
1077.000000 0.0674 0.0670 0.0668 0.0653 0.0673
1082.000000 0.0675 0.0678 0.0697 0.0718 0.0778
1087.000000 0.0838 0.0898 0.0958 0.1017 0.1077
1092.000000 0.1137 0.1197 0.1257 0.1317 0.1376
1097.000000 0.1436 0.1496 0.1556 0.1616 0.1664
1102.000000 0.1689 0.1708 0.1712 0.1716 0.1719
1107.000000 0.1718 0.1737 0.1715 0.1710 0.1703
1112.000000 0.1685 0.1644 0.1603 0.1562 0.1521
1117.000000 0.1480 0.1439 0.1398 0.1357 0.1316
1122.000000 0.1275 0.1234 0.1193 0.1152 0.1111
1127.000000 0.1070 0.1029 0.0988 0.0947 0.0910
1132.000000 0.0900 0.0891 0.0890 0.0893 0.0880
1137.000000 0.0956 0.1011 0.1066 0.1122 0.1177
1142.000000 0.1233 0.1288 0.1344 0.1399 0.1455
1147.000000 0.1510 0.1566 0.1621 0.1676 0.1732
1152.000000 0.1787 0.1843 0.1898 0.1959 0.1994
1157.000000 0.2029 0.2062 0.2093 0.2125 0.2157
1162.000000 0.2191 0.2226 0.2260 0.2284 0.2303
1167.000000 0.2323 0.2342 0.2362 0.2376 0.2390
1172.000000 0.2404 0.2417 0.2431 0.2445 0.2458
1177.000000 0.2469 0.2480 0.2491 0.2503 0.2527
1182.000000 0.2559 0.2595 0.2634 0.2674 0.2721
1187.000000 0.2778 0.2836 0.2896 0.2960 0.3025
1192.000000 0.3088 0.3150 0.3212 0.3275 0.3343
1197.000000 0.3411 0.3477 0.3537 0.3597 0.3658
1202.000000 0.3732 0.3828 0.3918 0.3963 0.4007
1207.000000 0.4052 0.4096 0.4140 0.4185 0.4229
1212.000000 0.4274 0.4318 0.4362 0.4407 0.4451
1217.000000 0.4494 0.4533 0.4572 0.4611 0.4651
1222.000000 0.4690 0.4735 0.4785 0.4835 0.4885
1227.000000 0.4935 0.4980 0.5024 0.5069 0.5113
1232.000000 0.5157 0.5201 0.5244 0.5287 0.5330
1237.000000 0.5381 0.5440 0.5499 0.5563 0.5629
1242.000000 0.5696 0.5758 0.5806 0.5854 0.5902
1247.000000 0.5950 0.5990 0.6026 0.6062 0.6098
1252.000000 0.6135 0.6176 0.6218 0.6259 0.6297
1257.000000 0.6326 0.6356 0.6385 0.6413 0.6438
1262.000000 0.6463 0.6488 0.6509 0.6526 0.6543
1267.000000 0.6561 0.6576 0.6586 0.6596 0.6606
1272.000000 0.6616 0.6626 0.6632 0.6637 0.6642
1277.000000 0.6648 0.6653 0.6658 0.6663 0.6668
1282.000000 0.6672 0.6676 0.6680 0.6684 0.6688
1287.000000 0.6691 0.6692 0.6693 0.6693 0.6694
1292.000000 0.6695 0.6695 0.6717 0.6697 0.6695
1297.000000 0.6693 0.6691 0.6689 0.6687 0.6676
1302.000000 0.6665 0.6654 0.6643 0.6632 0.6621
1307.000000 0.6610 0.6599 0.6572 0.6545 0.6515
1312.000000 0.6483 0.6450 0.6418 0.6387 0.6355
1317.000000 0.6324 0.6293 0.6261 0.6198 0.6134
1322.000000 0.6087 0.6050 0.6013 0.5977 0.5940
1327.000000 0.5903 0.5856 0.5807 0.5759 0.5710
1332.000000 0.5667 0.5629 0.5590 0.5552 0.5514
1337.000000 0.5474 0.5430 0.5387 0.5344 0.5299
1342.000000 0.5250 0.5201 0.5151 0.5126 0.5102
1347.000000 0.5079 0.5056 0.5036 0.5018 0.5000
1352.000000 0.4984 0.4974 0.4975 0.4975 0.4975
1357.000000 0.4964 0.4976 0.4976 0.4977 0.4980
1362.000000 0.4983 0.4986 0.4991 0.4999 0.5009
1367.000000 0.5021 0.5033 0.5048 0.5063 0.5078
1372.000000 0.5093 0.5109 0.5124 0.5139 0.5151
1377.000000 0.5162 0.5174 0.5185 0.5188 0.5191
1382.000000 0.5194 0.5197 0.5199 0.5200 0.5200
1387.000000 0.5201 0.5202 0.5203 0.5203 0.5204
1392.000000 0.5206 0.5208 0.5210 0.5212 0.5214
1397.000000 0.5216 0.5218 0.5220 0.5223 0.5228
1402.000000 0.5233 0.5238 0.5243 0.5248 0.5253
1407.000000 0.5259 0.5267 0.5275 0.5282 0.5290
1412.000000 0.5298 0.5306 0.5314 0.5321 0.5334
1417.000000 0.5348 0.5363 0.5378 0.5394 0.5410
1422.000000 0.5426 0.5442 0.5462 0.5486 0.5510
1427.000000 0.5540 0.5571 0.5602 0.5655 0.5699
1432.000000 0.5729 0.5759 0.5820 0.5849 0.5877
1437.000000 0.5904 0.5930 0.5956 0.5982 0.6004
1442.000000 0.6024 0.6045 0.6072 0.6099 0.6119
1447.000000 0.6139 0.6159 0.6179 0.6199 0.6219
1452.000000 0.6239 0.6245 0.6242 0.6242 0.6241
1457.000000 0.6241 0.6241 0.6244 0.6248 0.6255
1462.000000 0.6267 0.6282 0.6314 0.6351 0.6455
1467.000000 0.6521 0.6546 0.6563 0.6581 0.6587
1472.000000 0.6590 0.6593 0.6595 0.6599 0.6613
1477.000000 0.6627 0.6645 0.6667 0.6688 0.6693
1482.000000 0.6699 0.6704 0.6705 0.6706 0.6707
1487.000000 0.6708 0.6710 0.6711 0.6712 0.6712
1492.000000 0.6712 0.6730 0.6713 0.6713 0.6714
1497.000000 0.6714 0.6712 0.6707 0.6703 0.6699
1502.000000 0.6693 0.6675 0.6657 0.6639 0.6620
1507.000000 0.6601 0.6581 0.6562 0.6545 0.6541
1512.000000 0.6536 0.6532 0.6527 0.6526 0.6525
1517.000000 0.6525 0.6524 0.6523 0.6522 0.6522
1522.000000 0.6521 0.6520 0.6520 0.6519 0.6523
1527.000000 0.6527 0.6531 0.6539 0.6547 0.6555
1532.000000 0.6559 0.6558 0.6557 0.6548 0.6532
1537.000000 0.6511 0.6488 0.6465 0.6440 0.6413
1542.000000 0.6392 0.6379 0.6365 0.6351 0.6347
1547.000000 0.6348 0.6348 0.6350 0.6351 0.6352
1552.000000 0.6345 0.6336 0.6327 0.6317 0.6308
1557.000000 0.6299 0.6290 0.6284 0.6279 0.6275
1562.000000 0.6270 0.6265 0.6261 0.6256 0.6251
1567.000000 0.6247 0.6242 0.6238 0.6235 0.6231
1572.000000 0.6227 0.6224 0.6220 0.6216 0.6213
1577.000000 0.6209 0.6206 0.6201 0.6197 0.6193
1582.000000 0.6189 0.6185 0.6181 0.6176 0.6172
1587.000000 0.6168 0.6164 0.6160 0.6156 0.6151
1592.000000 0.6147 0.6142 0.6138 0.6133 0.6129
1597.000000 0.6124 0.6120 0.6112 0.6098 0.6084
1602.000000 0.6070 0.6050 0.6030 0.6009 0.5989
1607.000000 0.5972 0.5960 0.5949 0.5937 0.5926
1612.000000 0.5914 0.5902 0.5890 0.5878 0.5865
1617.000000 0.5853 0.5841 0.5831 0.5823 0.5815
1622.000000 0.5806 0.5798 0.5789 0.5781 0.5773
1627.000000 0.5764 0.5756 0.5747 0.5742 0.5738
1632.000000 0.5733 0.5729 0.5724 0.5720 0.5715
1637.000000 0.5711 0.5706 0.5704 0.5715 0.5728
1642.000000 0.5738 0.5744 0.5749 0.5750 0.5745
1647.000000 0.5740 0.5729 0.5717 0.5705 0.5694
1652.000000 0.5684 0.5673 0.5663 0.5664 0.5659
1657.000000 0.5660 0.5668 0.5686 0.5702 0.5717
1662.000000 0.5732 0.5745 0.5759 0.5770 0.5776
1667.000000 0.5782 0.5789 0.5795 0.5802 0.5808
1672.000000 0.5814 0.5821 0.5827 0.5834 0.5841
1677.000000 0.5848 0.5855 0.5862 0.5869 0.5876
1682.000000 0.5883 0.5890 0.5897 0.5905 0.5912
1687.000000 0.5919 0.5927 0.5933 0.5938 0.5943
1692.000000 0.5949 0.5954 0.5959 0.5965 0.5970
1697.000000 0.5970 0.5967 0.5964 0.5966 0.5968
1702.000000 0.5970 0.5972 0.5974 0.5976 0.5978
1707.000000 0.5986 0.5994 0.6003 0.6011 0.6019
1712.000000 0.6030 0.6043 0.6056 0.6070 0.6083
1717.000000 0.6096 0.6105 0.6111 0.6118 0.6125
1722.000000 0.6132 0.6139 0.6146 0.6153 0.6159
1727.000000 0.6168 0.6176 0.6185 0.6189 0.6190
1732.000000 0.6192 0.6193 0.6194 0.6195 0.6196
1737.000000 0.6198 0.6199 0.6200 0.6204 0.6210
1742.000000 0.6217 0.6223 0.6229 0.6238 0.6249
1747.000000 0.6259 0.6270 0.6281 0.6291 0.6303
1752.000000 0.6318 0.6333 0.6348 0.6363 0.6378
1757.000000 0.6393 0.6408 0.6423 0.6437 0.6451
1762.000000 0.6465 0.6479 0.6487 0.6492 0.6497
1767.000000 0.6501 0.6506 0.6505 0.6504 0.6503
1772.000000 0.6503 0.6520 0.6538 0.6555 0.6572
1777.000000 0.6590 0.6608 0.6629 0.6651 0.6673
1782.000000 0.6694 0.6716 0.6730 0.6744 0.6759
1787.000000 0.6773 0.6779 0.6783 0.6787 0.6790
1792.000000 0.6790 0.6790 0.6791 0.6791 0.6791
1797.000000 0.6792 0.6793 0.6800 0.6806 0.6813
1802.000000 0.6820 0.6827 0.6834 0.6841 0.6848
1807.000000 0.6855 0.6862 0.6872 0.6882 0.6892
1812.000000 0.6902 0.6912 0.6922 0.6931 0.6941
1817.000000 0.6950 0.6956 0.6963 0.6969 0.6976
1822.000000 0.6982 0.6988 0.6995 0.7001 0.7008
1827.000000 0.7014 0.7021 0.7027 0.7033 0.7037
1832.000000 0.7040 0.7044 0.7048 0.7052 0.7056
1837.000000 0.7060 0.7064 0.7068 0.7071 0.7074
1842.000000 0.7078 0.7081 0.7085 0.7088 0.7092
1847.000000 0.7095 0.7098 0.7100 0.7102 0.7104
1852.000000 0.7106 0.7108 0.7110 0.7124 0.7145
1857.000000 0.7163 0.7174 0.7185 0.7197 0.7206
1862.000000 0.7211 0.7217 0.7223 0.7229 0.7235
1867.000000 0.7240 0.7245 0.7248 0.7250 0.7253
1872.000000 0.7255 0.7258 0.7260 0.7263 0.7266
1877.000000 0.7269 0.7273 0.7278 0.7283 0.7287
1882.000000 0.7292 0.7304 0.7320 0.7335 0.7350
1887.000000 0.7365 0.7379 0.7393 0.7398 0.7398
1892.000000 0.7399 0.7399 0.7399 0.7398 0.7396
1897.000000 0.7395 0.7393 0.7392 0.7390 0.7389
1902.000000 0.7387 0.7386 0.7384 0.7383 0.7381
1907.000000 0.7381 0.7384 0.7386 0.7388 0.7390
1912.000000 0.7393 0.7395 0.7397 0.7400 0.7402
1917.000000 0.7404 0.7408 0.7412 0.7416 0.7421
1922.000000 0.7425 0.7429 0.7433 0.7438 0.7442
1927.000000 0.7446 0.7450 0.7454 0.7459 0.7463
1932.000000 0.7467 0.7471 0.7474 0.7478 0.7482
1937.000000 0.7485 0.7489 0.7493 0.7496 0.7500
1942.000000 0.7504 0.7507 0.7511 0.7516 0.7520
1947.000000 0.7525 0.7529 0.7534 0.7536 0.7536
1952.000000 0.7536 0.7536 0.7536 0.7536 0.7536
1957.000000 0.7536 0.7535 0.7535 0.7535 0.7535
1962.000000 0.7535 0.7535 0.7535 0.7535 0.7535
1967.000000 0.7534 0.7534 0.7534 0.7566 0.7538
1972.000000 0.7542 0.7546 0.7549 0.7553 0.7557
1977.000000 0.7557 0.7557 0.7558 0.7558 0.7558
1982.000000 0.7558 0.7555 0.7551 0.7548 0.7545
1987.000000 0.7542 0.7539 0.7536 0.7533 0.7530
1992.000000 0.7527 0.7524 0.7520 0.7517 0.7514
1997.000000 0.7511 0.7506 0.7502 0.7497 0.7492
2002.000000 0.7487 0.7485 0.7483 0.7480 0.7478
2007.000000 0.7475 0.7473 0.7470 0.7468 0.7466
2012.000000 0.7464 0.7461 0.7459 0.7456 0.7454
2017.000000 0.7452 0.7450 0.7447 0.7445 0.7442
2022.000000 0.7440 0.7437 0.7435 0.7432 0.7430
2027.000000 0.7428 0.7426 0.7423 0.7421 0.7418
2032.000000 0.7416 0.7413 0.7411 0.7409 0.7407
2037.000000 0.7404 0.7402 0.7399 0.7397 0.7394
2042.000000 0.7392 0.7390 0.7388 0.7385 0.7383
2047.000000 0.7380 0.7378 0.7376 0.7374 0.7372
2052.000000 0.7370 0.7368 0.7366 0.7364 0.7362
2057.000000 0.7360 0.7358 0.7356 0.7354 0.7352
2062.000000 0.7350 0.7348 0.7346 0.7344 0.7342
2067.000000 0.7340 0.7338 0.7336 0.7334 0.7332
2072.000000 0.7330 0.7328 0.7326 0.7324 0.7322
2077.000000 0.7320 0.7318 0.7316 0.7314 0.7312
2082.000000 0.7310 0.7308 0.7306 0.7304 0.7302
2087.000000 0.7300 0.7298 0.7296 0.7294 0.7292
2092.000000 0.7290 0.7288 0.7286 0.7284 0.7282
2097.000000 0.7280 0.7278 0.7276 0.7274 0.7271
2102.000000 0.7269 0.7266 0.7264 0.7262 0.7260
2107.000000 0.7257 0.7255 0.7253 0.7251 0.7248
2112.000000 0.7246 0.7243 0.7241 0.7239 0.7237
2117.000000 0.7234 0.7232 0.7230 0.7228 0.7225
2122.000000 0.7223 0.7220 0.7218 0.7216 0.7214
2127.000000 0.7211 0.7209 0.7207 0.7205 0.7203
2132.000000 0.7201 0.7200 0.7199 0.7198 0.7198
2137.000000 0.7197 0.7196 0.7195 0.7194 0.7193
2142.000000 0.7193 0.7192 0.7191 0.7190 0.7189
2147.000000 0.7188 0.7188 0.7187 0.7186 0.7185
2152.000000 0.7184 0.7183 0.7183 0.7182 0.7181
2157.000000 0.7179 0.7178 0.7174 0.7170 0.7166
2162.000000 0.7162 0.7157 0.7152 0.7142 0.7132
2167.000000 0.7122 0.7112 0.7102 0.7092 0.7082
2172.000000 0.7072 0.7065 0.7058 0.7051 0.7045
2177.000000 0.7039 0.7033 0.7029 0.7025 0.7021
2182.000000 0.7018 0.7014 0.7011 0.7007 0.7004
2187.000000 0.7000 0.6996 0.6992 0.6989 0.6985
2192.000000 0.6982 0.6978 0.6975 0.6971 0.6967
2197.000000 0.6963 0.6960 0.6956 0.6953 0.6949
2202.000000 0.6946 0.6942 0.6938 0.6934 0.6931
2207.000000 0.6927 0.6924 0.6920 0.6917 0.6912
2212.000000 0.6908 0.6903 0.6899 0.6894 0.6890
2217.000000 0.6885 0.6881 0.6876 0.6872 0.6867
2222.000000 0.6862 0.6857 0.6853 0.6848 0.6844
2227.000000 0.6839 0.6835 0.6830 0.6826 0.6821
2232.000000 0.6817 0.6812 0.6808 0.6803 0.6799
2237.000000 0.6794 0.6790 0.6785 0.6781 0.6776
2242.000000 0.6772 0.6768 0.6764 0.6759 0.6755
2247.000000 0.6750 0.6746 0.6742 0.6738 0.6733
2252.000000 0.6729 0.6724 0.6720 0.6716 0.6712
2257.000000 0.6707 0.6703 0.6698 0.6694 0.6690
2262.000000 0.6686 0.6681 0.6677 0.6672 0.6668
2267.000000 0.6664 0.6660 0.6655 0.6651 0.6646
2272.000000 0.6642 0.6638 0.6634 0.6629 0.6625
2277.000000 0.6620 0.6616 0.6612 0.6608 0.6603
2282.000000 0.6599 0.6594 0.6590 0.6585 0.6581
2287.000000 0.6575 0.6570 0.6564 0.6559 0.6553
2292.000000 0.6548 0.6543 0.6538 0.6532 0.6527
2297.000000 0.6521 0.6516 0.6510 0.6505 0.6500
2302.000000 0.6495 0.6489 0.6484 0.6478 0.6473
2307.000000 0.6468 0.6463 0.6457 0.6452 0.6446
2312.000000 0.6441 0.6435 0.6430 0.6425 0.6420
2317.000000 0.6414 0.6409 0.6403 0.6398 0.6392
2322.000000 0.6387 0.6382 0.6377 0.6371 0.6366
2327.000000 0.6360 0.6354 0.6348 0.6342 0.6336
2332.000000 0.6330 0.6324 0.6318 0.6311 0.6305
2337.000000 0.6299 0.6293 0.6287 0.6281 0.6275
2342.000000 0.6269 0.6263 0.6257 0.6251 0.6246
2347.000000 0.6242 0.6238 0.6234 0.6230 0.6226
2352.000000 0.6222 0.6218 0.6214 0.6210 0.6206
2357.000000 0.6202 0.6198 0.6194 0.6190 0.6189
2362.000000 0.6188 0.6189 0.6190 0.6190 0.6191
2367.000000 0.6192 0.6193 0.6194 0.6195 0.6195
2372.000000 0.6196 0.6197 0.6162 0.6199 0.6200
2377.000000 0.6200 0.6201 0.6202 0.6203 0.6203
2382.000000 0.6204 0.6206 0.6208 0.6210 0.6213
2387.000000 0.6215 0.6218 0.6221 0.6224 0.6226
2392.000000 0.6229 0.6232 0.6235 0.6237 0.6240
2397.000000 0.6242 0.6245 0.6248 0.6251 0.6254
2402.000000 0.6257 0.6260 0.6263 0.6266 0.6269
2407.000000 0.6272 0.6275 0.6276 0.6278 0.6278
2412.000000 0.6279 0.6280 0.6281 0.6281 0.6282
2417.000000 0.6283 0.6284 0.6284 0.6285 0.6300
2422.000000 0.6316 0.6326 0.6336 0.6337 0.6338
2427.000000 0.6339 0.6340 0.6341 0.6342 0.6342
2432.000000 0.6343 0.6344 0.6345 0.6346 0.6348
2437.000000 0.6349 0.6351 0.6353 0.6355 0.6357
2442.000000 0.6359 0.6360 0.6362 0.6364 0.6366
2447.000000 0.6367 0.6369 0.6372 0.6375 0.6378
2452.000000 0.6381 0.6384 0.6387 0.6390 0.6393
2457.000000 0.6396 0.6399 0.6402 0.6405 0.6408
2462.000000 0.6411 0.6414 0.6417 0.6420 0.6423
2467.000000 0.6426 0.6429 0.6433 0.6438 0.6442
2472.000000 0.6446 0.6450 0.6454 0.6458 0.6462
2477.000000 0.6466 0.6470 0.6474 0.6478 0.6480
2482.000000 0.6483 0.6485 0.6487 0.6489 0.6491
2487.000000 0.6493 0.6495 0.6497 0.6499 0.6501
2492.000000 0.6504 0.6506 0.6508 0.6510 0.6512
2497.000000 0.6513 0.6515 0.6516 0.6518 0.6520
2502.000000 0.6522 0.6523 0.6525 0.6526 0.6528
2507.000000 0.6529 0.6531 0.6533 0.6535 0.6536
2512.000000 0.6538 0.6539 0.6541 0.6543 0.6545
2517.000000 0.6551 0.6558 0.6565 0.6573 0.6580
2522.000000 0.6587 0.6594 0.6602 0.6609 0.6616
2527.000000 0.6623 0.6631 0.6637 0.6644 0.6651
2532.000000 0.6658 0.6664 0.6671 0.6675 0.6679
2537.000000 0.6681 0.6684 0.6686 0.6688 0.6690
2542.000000 0.6693 0.6695 0.6697 0.6699 0.6701
2547.000000 0.6703 0.6706 0.6707 0.6709 0.6709
2552.000000 0.6709 0.6709 0.6710 0.6710 0.6710
2557.000000 0.6710 0.6710 0.6710 0.6711 0.6711
2562.000000 0.6711 0.6713 0.6716 0.6720 0.6725
2567.000000 0.6730 0.6735 0.6740 0.6745 0.6752
2572.000000 0.6760 0.6768 0.6776 0.6783 0.6791
2577.000000 0.6799 0.6808 0.6816 0.6825 0.6833
2582.000000 0.6842 0.6850 0.6859 0.6868 0.6877
2587.000000 0.6887 0.6898 0.6909 0.6920 0.6930
2592.000000 0.6941 0.6950 0.6959 0.6967 0.6976
2597.000000 0.6985 0.6994 0.7003 0.7012 0.7020
2602.000000 0.7029 0.7038 0.7047 0.7056 0.7065
2607.000000 0.7076 0.7087 0.7098 0.7109 0.7120
2612.000000 0.7132 0.7143 0.7155 0.7166 0.7177
2617.000000 0.7188 0.7200 0.7211 0.7223 0.7234
2622.000000 0.7245 0.7256 0.7267 0.7276 0.7285
2627.000000 0.7294 0.7303 0.7312 0.7321 0.7330
2632.000000 0.7339 0.7348 0.7357 0.7366 0.7375
2637.000000 0.7384 0.7393 0.7401 0.7409 0.7412
2642.000000 0.7416 0.7420 0.7424 0.7427 0.7431
2647.000000 0.7434 0.7438 0.7439 0.7440 0.7441
2652.000000 0.7442 0.7443 0.7444 0.7445 0.7446
2657.000000 0.7446 0.7447 0.7448 0.7449 0.7450
2662.000000 0.7499 0.7452 0.7453 0.7454 0.7455
2667.000000 0.7456 0.7457 0.7458 0.7459 0.7457
2672.000000 0.7456 0.7454 0.7453 0.7451 0.7450
2677.000000 0.7448 0.7447 0.7445 0.7443 0.7441
2682.000000 0.7439 0.7436 0.7434 0.7431 0.7429
2687.000000 0.7427 0.7425 0.7422 0.7420 0.7417
2692.000000 0.7415 0.7413 0.7411 0.7410 0.7409
2697.000000 0.7408 0.7408 0.7407 0.7407 0.7406
2702.000000 0.7406 0.7405 0.7405 0.7404 0.7404
2707.000000 0.7404 0.7405 0.7406 0.7407 0.7408
2712.000000 0.7410 0.7409 0.7408 0.7405 0.7403
2717.000000 0.7400 0.7398 0.7395 0.7392 0.7386
2722.000000 0.7381 0.7374 0.7368 0.7362 0.7356
2727.000000 0.7349 0.7343 0.7335 0.7327 0.7318
2732.000000 0.7310 0.7301 0.7293 0.7284 0.7276
2737.000000 0.7267 0.7258 0.7249 0.7241 0.7230
2742.000000 0.7220 0.7209 0.7199 0.7188 0.7178
2747.000000 0.7167 0.7157 0.7146 0.7136 0.7125
2752.000000 0.7115 0.7105 0.7095 0.7086 0.7077
2757.000000 0.7067 0.7058 0.7049 0.7040 0.7031
2762.000000 0.7022 0.7012 0.7003 0.6994 0.6985
2767.000000 0.6975 0.6966 0.6957 0.6948 0.6939
2772.000000 0.6930 0.6921 0.6912 0.6904 0.6897
2777.000000 0.6890 0.6883 0.6875 0.6868 0.6860
2782.000000 0.6853 0.6846 0.6839 0.6831 0.6824
2787.000000 0.6816 0.6809 0.6802 0.6795 0.6788
2792.000000 0.6782 0.6776 0.6771 0.6765 0.6760
2797.000000 0.6754 0.6749 0.6744 0.6739 0.6733
2802.000000 0.6728 0.6722 0.6717 0.6711 0.6706
2807.000000 0.6705 0.6704 0.6702 0.6701 0.6700
2812.000000 0.6699 0.6697 0.6696 0.6695 0.6694
2817.000000 0.6692 0.6691 0.6690 0.6689 0.6687
2822.000000 0.6686 0.6686 0.6687 0.6687 0.6688
2827.000000 0.6688 0.6689 0.6689 0.6690 0.6691
2832.000000 0.6692 0.6692 0.6693 0.6693 0.6694
2837.000000 0.6694 0.6695 0.6696 0.6697 0.6697
2842.000000 0.6695 0.6698 0.6699 0.6699 0.6700
2847.000000 0.6701 0.6702 0.6703 0.6704 0.6705
2852.000000 0.6706 0.6707 0.6709 0.6710 0.6711
2857.000000 0.6712 0.6714 0.6715 0.6716 0.6717
2862.000000 0.6719 0.6720 0.6721 0.6722 0.6724
2867.000000 0.6725 0.6726 0.6727 0.6729 0.6730
2872.000000 0.6731 0.6734 0.6737 0.6741 0.6745
2877.000000 0.6749 0.6753 0.6757 0.6761 0.6765
2882.000000 0.6769 0.6773 0.6777 0.6780 0.6784
2887.000000 0.6790 0.6796 0.6802 0.6809 0.6815
2892.000000 0.6822 0.6829 0.6836 0.6842 0.6849
2897.000000 0.6857 0.6866 0.6879 0.6893 0.6906
2902.000000 0.6920 0.6923 0.6927 0.6930 0.6934
2907.000000 0.6937 0.6940 0.6938 0.6936 0.6933
2912.000000 0.6931 0.6928 0.6926 0.6924 0.6922
2917.000000 0.6919 0.6917 0.6913 0.6910 0.6906
2922.000000 0.6903 0.6899 0.6896 0.6896 0.6897
2927.000000 0.6899 0.6901 0.6903 0.6905 0.6907
2932.000000 0.6909 0.6911 0.6913 0.6916 0.6920
2937.000000 0.6924 0.6928 0.6931 0.6935 0.6939
2942.000000 0.6944 0.6948 0.6953 0.6957 0.6962
2947.000000 0.6966 0.6970 0.6974 0.6979 0.6983
2952.000000 0.6988 0.6992 0.6997 0.7001 0.7006
2957.000000 0.7010 0.7014 0.7018 0.7023 0.7028
2962.000000 0.7033 0.7038 0.7043 0.7048 0.7053
2967.000000 0.7057 0.7062 0.7067 0.7072 0.7077
2972.000000 0.7082 0.7087 0.7092 0.7097 0.7102
2977.000000 0.7105 0.7109 0.7112 0.7116 0.7119
2982.000000 0.7123 0.7126 0.7130 0.7133 0.7137
2987.000000 0.7140 0.7143 0.7146 0.7150 0.7153
2992.000000 0.7157 0.7160 0.7164 0.7167 0.7171
2997.000000 0.7174 0.7177 0.7180 0.7184 0.7187
3002.000000 0.7191 0.7194 0.7197 0.7199 0.7202
3007.000000 0.7205 0.7208 0.7211 0.7214 0.7216
3012.000000 0.7219 0.7222 0.7225 0.7227 0.7230
3017.000000 0.7233 0.7236 0.7239 0.7242 0.7244
3022.000000 0.7247 0.7250 0.7253 0.7255 0.7258
3027.000000 0.7261 0.7264 0.7266 0.7268 0.7270
3032.000000 0.7272 0.7274 0.7277 0.7279 0.7281
3037.000000 0.7283 0.7285 0.7287 0.7289 0.7291
3042.000000 0.7294 0.7296 0.7298 0.7300 0.7302
3047.000000 0.7304 0.7306 0.7308 0.7311 0.7313
3052.000000 0.7315 0.7317 0.7319 0.7321 0.7323
3057.000000 0.7325 0.7328 0.7330 0.7332 0.7334
3062.000000 0.7336 0.7338 0.7340 0.7342 0.7344
3067.000000 0.7346 0.7348 0.7350 0.7352 0.7353
3072.000000 0.7355 0.7357 0.7359 0.7361 0.7363
3077.000000 0.7364 0.7366 0.7368 0.7370 0.7372
3082.000000 0.7374 0.7376 0.7378 0.7379 0.7381
3087.000000 0.7383 0.7385 0.7387 0.7389 0.7390
3092.000000 0.7392 0.7394 0.7396 0.7398 0.7400
3097.000000 0.7401 0.7403 0.7405 0.7407 0.7408
3102.000000 0.7409 0.7409 0.7410 0.7410 0.7411
3107.000000 0.7411 0.7412 0.7413 0.7414 0.7414
3112.000000 0.7415 0.7415 0.7416 0.7416 0.7417
3117.000000 0.7417 0.7418 0.7419 0.7420 0.7420
3122.000000 0.7421 0.7421 0.7422 0.7422 0.7423
3127.000000 0.7423 0.7424 0.7424 0.7425 0.7425
3132.000000 0.7426 0.7426 0.7426 0.7426 0.7427
3137.000000 0.7427 0.7428 0.7428 0.7429 0.7429
3142.000000 0.7429 0.7429 0.7430 0.7430 0.7431
3147.000000 0.7431 0.7431 0.7431 0.7432 0.7432
3152.000000 0.7433 0.7433 0.7434 0.7434 0.7434
3157.000000 0.7434 0.7435 0.7437 0.7439 0.7441
3162.000000 0.7444 0.7446 0.7449 0.7451 0.7454
3167.000000 0.7456 0.7459 0.7461 0.7463 0.7465
3172.000000 0.7467 0.7468 0.7470 0.7472 0.7474
3177.000000 0.7475 0.7477 0.7478 0.7480 0.7481
3182.000000 0.7483 0.7483 0.7484 0.7484 0.7485
3187.000000 0.7485 0.7486 0.7486 0.7487 0.7487
3192.000000 0.7488 0.7488 0.7488 0.7487 0.7487
3197.000000 0.7486 0.7486 0.7485 0.7485 0.7485
3202.000000 0.7485 0.7484 0.7484 0.7483 0.7483
3207.000000 0.7482 0.7482 0.7482 0.7482 0.7481
3212.000000 0.7481 0.7480 0.7480 0.7481 0.7482
3217.000000 0.7482 0.7483 0.7484 0.7485 0.7485
3222.000000 0.7486 0.7487 0.7488 0.7488 0.7489
3227.000000 0.7489 0.7490 0.7491 0.7492 0.7492
3232.000000 0.7493 0.7494 0.7495 0.7497 0.7499
3237.000000 0.7501 0.7504 0.7506 0.7509 0.7511
3242.000000 0.7514 0.7517 0.7520 0.7522 0.7525
3247.000000 0.7527 0.7530 0.7532 0.7535 0.7537
3252.000000 0.7540 0.7542 0.7545 0.7547 0.7550
3257.000000 0.7552 0.7555 0.7558 0.7562 0.7566
3262.000000 0.7571 0.7575 0.7579 0.7583 0.7588
3267.000000 0.7591 0.7594 0.7592 0.7591 0.7589
3272.000000 0.7587 0.7585 0.7584 0.7582 0.7580
3277.000000 0.7578 0.7576 0.7574 0.7573 0.7573
3282.000000 0.7573 0.7572 0.7572 0.7572 0.7572
3287.000000 0.7571 0.7571 0.7571 0.7571 0.7570
3292.000000 0.7570 0.7570 0.7570 0.7570 0.7570
3297.000000 0.7569 0.7569 0.7569 0.7569 0.7568
3302.000000 0.7568 0.7568 0.7568 0.7567 0.7567
3307.000000 0.7567 0.7567 0.7566 0.7566 0.7566
3312.000000 0.7566 0.7566 0.7566 0.7566 0.7566
3317.000000 0.7566 0.7566 0.7565 0.7565 0.7565
3322.000000 0.7565 0.7565 0.7565 0.7565 0.7565
3327.000000 0.7564 0.7564 0.7564 0.7564 0.7564
3332.000000 0.7564 0.7564 0.7564 0.7564 0.7564
3337.000000 0.7563 0.7563 0.7563 0.7564 0.7564
3342.000000 0.7565 0.7565 0.7566 0.7566 0.7567
3347.000000 0.7567 0.7568 0.7568 0.7569 0.7569
3352.000000 0.7570 0.7570 0.7571 0.7571 0.7572
3357.000000 0.7572 0.7573 0.7573 0.7574 0.7574
3362.000000 0.7575 0.7575 0.7575 0.7572 0.7570
3367.000000 0.7568 0.7566 0.7563 0.7561 0.7559
3372.000000 0.7557 0.7554 0.7552 0.7545 0.7538
3377.000000 0.7530 0.7522 0.7514 0.7506 0.7498
3382.000000 0.7490 0.7485 0.7481 0.7477 0.7474
3387.000000 0.7470 0.7467 0.7463 0.7460 0.7456
3392.000000 0.7453 0.7452 0.7451 0.7451 0.7451
3397.000000 0.7450 0.7450 0.7449 0.7449 0.7448
3402.000000 0.7448 0.7447 0.7447 0.7446 0.7446
3407.000000 0.7446 0.7446 0.7446 0.7447 0.7447
3412.000000 0.7447 0.7447 0.7447 0.7447 0.7448
3417.000000 0.7448 0.7448 0.7448 0.7448 0.7448
3422.000000 0.7449 0.7449 0.7449 0.7450 0.7451
3427.000000 0.7452 0.7447 0.7455 0.7456 0.7457
3432.000000 0.7458 0.7459 0.7460 0.7461 0.7462
3437.000000 0.7463 0.7464 0.7465 0.7467 0.7468
3442.000000 0.7469 0.7470 0.7471 0.7472 0.7473
3447.000000 0.7474 0.7475 0.7476 0.7478 0.7479
3452.000000 0.7480 0.7482 0.7484 0.7486 0.7489
3457.000000 0.7499 0.7509 0.7518 0.7528 0.7541
3462.000000 0.7554 0.7562 0.7570 0.7570 0.7571
3467.000000 0.7571 0.7572 0.7572 0.7573 0.7573
3472.000000 0.7573 0.7573 0.7574 0.7574 0.7575
3477.000000 0.7576 0.7577 0.7579 0.7581 0.7583
3482.000000 0.7586 0.7588 0.7591 0.7593 0.7595
3487.000000 0.7597 0.7600 0.7602 0.7605 0.7607
3492.000000 0.7609 0.7611 0.7614 0.7618 0.7622
3497.000000 0.7626 0.7630 0.7634 0.7638 0.7642
3502.000000 0.7646 0.7650 0.7654 0.7658 0.7662
3507.000000 0.7666 0.7670 0.7674 0.7678 0.7682
3512.000000 0.7686 0.7689 0.7693 0.7697 0.7701
3517.000000 0.7705 0.7709 0.7713 0.7717 0.7721
3522.000000 0.7725 0.7729 0.7733 0.7737 0.7741
3527.000000 0.7745 0.7749 0.7753 0.7757 0.7763
3532.000000 0.7770 0.7777 0.7784 0.7791 0.7798
3537.000000 0.7805 0.7813 0.7820 0.7827 0.7834
3542.000000 0.7841 0.7848 0.7856 0.7865 0.7875
3547.000000 0.7884 0.7894 0.7904 0.7914 0.7923
3552.000000 0.7933 0.7940 0.7948 0.7954 0.7960
3557.000000 0.7966 0.7972 0.7978 0.7984 0.7989
3562.000000 0.7995 0.8001 0.8007 0.8013 0.8019
3567.000000 0.8026 0.8033 0.8039 0.8046 0.8053
3572.000000 0.8060 0.8066 0.8073 0.8080 0.8087
3577.000000 0.8094 0.8101 0.8107 0.8114 0.8121
3582.000000 0.8128 0.8134 0.8141 0.8148 0.8156
3587.000000 0.8163 0.8170 0.8177 0.8184 0.8191
3592.000000 0.8199 0.8206 0.8213 0.8220 0.8227
3597.000000 0.8234 0.8242 0.8249 0.8256 0.8263
3602.000000 0.8271 0.8278 0.8285 0.8293 0.8301
3607.000000 0.8309 0.8317 0.8325 0.8333 0.8341
3612.000000 0.8349 0.8357 0.8365 0.8373 0.8381
3617.000000 0.8389 0.8397 0.8405 0.8413 0.8422
3622.000000 0.8432 0.8442 0.8453 0.8462 0.8471
3627.000000 0.8476 0.8482 0.8488 0.8494 0.8502
3632.000000 0.8510 0.8520 0.8531 0.8545 0.8559
3637.000000 0.8570 0.8582 0.8590 0.8598 0.8601
3642.000000 0.8604 0.8602 0.8601 0.8598 0.8596
3647.000000 0.8594 0.8592 0.8589 0.8587 0.8585
3652.000000 0.8584 0.8583 0.8582 0.8580 0.8579
3657.000000 0.8577 0.8576 0.8576 0.8576 0.8575
3662.000000 0.8575 0.8574 0.8574 0.8574 0.8574
3667.000000 0.8573 0.8573 0.8573 0.8573 0.8574
3672.000000 0.8575 0.8576 0.8578 0.8579 0.8580
3677.000000 0.8582 0.8584 0.8586 0.8588 0.8590
3682.000000 0.8592 0.8594 0.8597 0.8599 0.8601
3687.000000 0.8603 0.8605 0.8607 0.8610 0.8612
3692.000000 0.8614 0.8617 0.8621 0.8624 0.8627
3697.000000 0.8630 0.8634 0.8637 0.8641 0.8643
3702.000000 0.8646 0.8647 0.8649 0.8651 0.8653
3707.000000 0.8655 0.8658 0.8660 0.8663 0.8669
3712.000000 0.8675 0.8683 0.8692 0.8698 0.8705
3717.000000 0.8711 0.8717 0.8723 0.8730 0.8736
3722.000000 0.8742 0.8747 0.8752 0.8757 0.8763
3727.000000 0.8768 0.8774 0.8777 0.8780 0.8782
3732.000000 0.8785 0.8783 0.8781 0.8778 0.8775
3737.000000 0.8771 0.8767 0.8762 0.8758 0.8754
3742.000000 0.8750 0.8745 0.8741 0.8738 0.8735
3747.000000 0.8733 0.8732 0.8730 0.8728 0.8726
3752.000000 0.8724 0.8725 0.8726 0.8726 0.8727
3757.000000 0.8727 0.8728 0.8729 0.8731 0.8733
3762.000000 0.8736 0.8738 0.8741 0.8743 0.8746
3767.000000 0.8748 0.8751 0.8754 0.8758 0.8762
3772.000000 0.8766 0.8770 0.8775 0.8779 0.8783
3777.000000 0.8788 0.8793 0.8800 0.8807 0.8810
3782.000000 0.8813 0.8811 0.8809 0.8807 0.8806
3787.000000 0.8804 0.8802 0.8799 0.8797 0.8795
3792.000000 0.8793 0.8790 0.8788 0.8786 0.8784
3797.000000 0.8783 0.8782 0.8782 0.8783 0.8783
3802.000000 0.8783 0.8783 0.8783 0.8783 0.8784
3807.000000 0.8784 0.8785 0.8786 0.8787 0.8788
3812.000000 0.8789 0.8790 0.8791 0.8792 0.8793
3817.000000 0.8794 0.8795 0.8796 0.8797 0.8798
3822.000000 0.8799 0.8800 0.8801 0.8802 0.8804
3827.000000 0.8805 0.8806 0.8807 0.8808 0.8809
3832.000000 0.8810 0.8811 0.8812 0.8813 0.8814
3837.000000 0.8815 0.8816 0.8817 0.8818 0.8819
3842.000000 0.8820 0.8821 0.8822 0.8822 0.8823
3847.000000 0.8824 0.8825 0.8826 0.8827 0.8828
3852.000000 0.8829 0.8830 0.8831 0.8832 0.8833
3857.000000 0.8833 0.8833 0.8833 0.8833 0.8833
3862.000000 0.8833 0.8833 0.8833 0.8833 0.8833
3867.000000 0.8833 0.8833 0.8833 0.8833 0.8833
3872.000000 0.8833 0.8833 0.8833 0.8832 0.8832
3877.000000 0.8831 0.8830 0.8829 0.8829 0.8828
3882.000000 0.8827 0.8826 0.8826 0.8825 0.8824
3887.000000 0.8824 0.8825 0.8825 0.8826 0.8826
3892.000000 0.8827 0.8827 0.8828 0.8829 0.8830
3897.000000 0.8831 0.8833 0.8834 0.8836 0.8837
3902.000000 0.8839 0.8840 0.8842 0.8843 0.8845
3907.000000 0.8845 0.8827 0.8847 0.8848 0.8849
3912.000000 0.8850 0.8851 0.8852 0.8852 0.8853
3917.000000 0.8853 0.8854 0.8854 0.8854 0.8854
3922.000000 0.8855 0.8855 0.8856 0.8856 0.8857
3927.000000 0.8857 0.8857 0.8856 0.8856 0.8855
3932.000000 0.8855 0.8854 0.8854 0.8853 0.8853
3937.000000 0.8852 0.8852 0.8851 0.8851 0.8850
3942.000000 0.8850 0.8850 0.8850 0.8849 0.8849
3947.000000 0.8848 0.8848 0.8848 0.8848 0.8847
3952.000000 0.8847 0.8847 0.8848 0.8848 0.8848
3957.000000 0.8848 0.8849 0.8849 0.8850 0.8850
3962.000000 0.8850 0.8850 0.8851 0.8851 0.8852
3967.000000 0.8853 0.8854 0.8856 0.8859 0.8862
3972.000000 0.8865 0.8867 0.8870 0.8872 0.8875
3977.000000 0.8877 0.8880 0.8887 0.8894 0.8902
3982.000000 0.8910 0.8918 0.8927 0.8936 0.8945
3987.000000 0.8948 0.8951 0.8951 0.8952 0.8952
3992.000000 0.8952 0.8951 0.8951 0.8950 0.8950
3997.000000 0.8950 0.8950 0.8949 0.8949
##END=
