##TITLE=1,3,4,6-TETRACHLORO-3Alpha,6Alpha-DIPHENYL-GLYCOLURIL
##JCAMP-DX=4.24
##DATA TYPE=INFRARED SPECTRUM
##CLASS=COBLENTZ
##ORIGIN=ANDERSON PHYSICAL LABORATORY
##OWNER=COBLENTZ SOCIETY
Collection (C) 2018 copyright by the U.S. Secretary of Commerce
on behalf of the United States of America. All rights reserved.
##DATE=Not specified, most likely prior to 1970
##NAMES=1,3,4,6-tetrachloro-3a,6a-diphenyltetrahydroimidazo[4,5-d]imidazole-2,5(1H,3H)-dione
##MOLFORM=C16 H10 Cl4 N4 O2
##SOURCE REFERENCE=COBLENTZ NO. 2584
##$NIST ID=B6002584
##$NIST SOURCE=COBLENTZ
##$NIST IMAGE=cob2584
##SPECTROMETER/DATA SYSTEM=Not specified, most likely a prism, grating, or hybrid spectrometer.
##STATE=SOLID (1.0% IN KBr PELLET)
##PATH LENGTH=0.0355 CM THICK
##SAMPLING PROCEDURE=TRANSMISSION
##RESOLUTION=4
##DATA PROCESSING=DIGITIZED BY NIST FROM HARD COPY (FROM TWO SEGMENTS)
##XUNITS=1/CM
##YUNITS=TRANSMITTANCE
##XFACTOR=1.000000
##YFACTOR=1
##DELTAX=0.936331
##FIRSTX=667.603
##LASTX=3988.77
##FIRSTY=0.73
##MAXX=3988.77
##MINX=667.603
##MAXY=0.985
##MINY=0.038
##NPOINTS=3548
##XYDATA=(X++(Y..Y))
667.603000 0.7300 0.7280 0.7280 0.7270 0.7250
672.284655 0.7250 0.7240 0.7220 0.7160 0.7120
676.966310 0.7030 0.6950 0.6830 0.6740 0.6640
681.647964 0.6530 0.6341 0.6141 0.5951 0.5771
686.329619 0.5590 0.5420 0.5240 0.5050 0.4851
691.011274 0.4641 0.4431 0.4181 0.3922 0.3642
695.692929 0.3310 0.2980 0.2650 0.2450 0.2261
700.374584 0.2170 0.1901 0.1870 0.1870 0.1880
705.056239 0.1900 0.1970 0.2120 0.2320 0.2649
709.737893 0.3109 0.3767 0.4636 0.5376 0.5807
714.419548 0.6340 0.6640 0.6860 0.7010 0.7060
719.101203 0.7120 0.7160 0.7180 0.7180 0.7180
723.782858 0.7150 0.7120 0.7070 0.6980 0.6801
728.464513 0.6561 0.6311 0.6081 0.5802 0.5562
733.146168 0.5320 0.5110 0.5080 0.5060 0.5060
737.827822 0.5090 0.5180 0.5707 0.6038 0.6338
742.509477 0.6370 0.6370 0.6160 0.6010 0.5920
747.191132 0.5840 0.5710 0.5591 0.5481 0.5351
751.872787 0.5330 0.5350 0.5360 0.5440 0.5480
756.554442 0.5689 0.6307 0.6996 0.7398 0.7688
761.236097 0.7850 0.7970 0.8000 0.8020 0.8050
765.917751 0.8060 0.8050 0.8050 0.8030 0.8000
770.599406 0.8000 0.7990 0.7960 0.7930 0.7910
775.281061 0.7900 0.7900 0.7900 0.7910 0.7910
779.962716 0.7930 0.7990 0.7990 0.7990 0.7990
784.644371 0.7990 0.7930 0.7910 0.7870 0.7820
789.326026 0.7730 0.7600 0.7460 0.7310 0.7160
794.007680 0.6981 0.6791 0.6521 0.5923 0.5185
798.689335 0.4430 0.4310 0.4250 0.4010 0.3771
803.370990 0.3531 0.3520 0.3530 0.3679 0.3819
808.052645 0.3970 0.4060 0.4090 0.4300 0.4520
812.734300 0.4729 0.4790 0.4840 0.4850 0.4840
817.415954 0.4820 0.4790 0.4720 0.4461 0.4001
822.097609 0.3731 0.3700 0.3700 0.3730 0.5042
826.779264 0.5720 0.6020 0.6519 0.7279 0.7789
831.460919 0.8109 0.8359 0.8420 0.8440 0.8440
836.142574 0.8450 0.8450 0.8450 0.8450 0.8440
840.824229 0.8440 0.8420 0.8360 0.8330 0.8300
845.505883 0.8260 0.8210 0.8150 0.8090 0.8020
850.187538 0.7990 0.7970 0.7880 0.7850 0.7820
854.869193 0.7780 0.7720 0.7630 0.7520 0.7430
859.550848 0.7330 0.7240 0.7210 0.7210 0.7270
864.232503 0.7420 0.7610 0.7880 0.8110 0.8290
868.914158 0.8469 0.8570 0.8630 0.8769 0.8869
873.595812 0.9010 0.9130 0.9190 0.9220 0.9220
878.277467 0.9230 0.9260 0.9280 0.9290 0.9290
882.959122 0.9290 0.9290 0.9290 0.9290 0.9290
887.640777 0.9290 0.9290 0.9290 0.9290 0.9290
892.322432 0.9280 0.9260 0.9260 0.9230 0.9220
897.004087 0.9190 0.9190 0.9170 0.9160 0.9140
901.685741 0.9140 0.9130 0.9110 0.9100 0.9100
906.367396 0.9080 0.9050 0.9020 0.9020 0.8960
911.049051 0.8950 0.8920 0.8840 0.8800 0.8770
915.730706 0.8750 0.8720 0.8720 0.8710 0.8680
920.412361 0.8590 0.8540 0.8500 0.8450 0.8410
925.094016 0.8320 0.8230 0.8150 0.8080 0.8030
929.775670 0.7960 0.7870 0.7760 0.7670 0.7570
934.457325 0.7480 0.7251 0.7101 0.6911 0.6651
939.138980 0.6440 0.6080 0.5740 0.5501 0.5330
943.820635 0.5181 0.5150 0.5170 0.5240 0.5319
948.502290 0.5480 0.5980 0.6619 0.7429 0.7969
953.183945 0.8329 0.8529 0.8649 0.8740 0.8770
957.865599 0.8780 0.8780 0.8770 0.8770 0.8770
962.547254 0.8770 0.8750 0.8750 0.8740 0.8740
967.228909 0.8720 0.8720 0.8720 0.8720 0.8720
971.910564 0.8720 0.8720 0.8720 0.8720 0.8720
976.592219 0.8720 0.8710 0.8710 0.8710 0.8710
981.273873 0.8710 0.8710 0.8710 0.8710 0.8710
985.955528 0.8690 0.8680 0.8660 0.8660 0.8650
990.637183 0.8650 0.8630 0.8630 0.8630 0.8630
995.318838 0.8630 0.8630 0.8630 0.8600 0.8570
1000.000493 0.8540 0.8530 0.8500 0.8480 0.8470
1004.682148 0.8470 0.8480 0.8530 0.8570 0.8620
1009.363802 0.8660 0.8680 0.8690 0.8710 0.8710
1014.045457 0.8710 0.8690 0.8690 0.8680 0.8660
1018.727112 0.8630 0.8590 0.8540 0.8470 0.8410
1023.408767 0.8380 0.8270 0.8170 0.8060 0.7970
1028.090422 0.7840 0.7691 0.7580 0.7421 0.7161
1032.772077 0.6980 0.6850 0.6820 0.6820 0.6860
1037.453731 0.7129 0.7369 0.7749 0.8019 0.8199
1042.135386 0.8350 0.8410 0.8420 0.8410 0.8390
1046.817041 0.8380 0.8330 0.8270 0.8240 0.8210
1051.498696 0.8180 0.8150 0.8120 0.8060 0.8020
1056.180351 0.7990 0.7930 0.7900 0.7870 0.7850
1060.862006 0.7780 0.7700 0.7630 0.7580 0.7540
1065.543660 0.7460 0.7370 0.7300 0.7190 0.7061
1070.225315 0.6970 0.6830 0.6680 0.6520 0.6340
1074.906970 0.6171 0.6011 0.5841 0.5711 0.5591
1079.588625 0.5480 0.5360 0.5320 0.5300 0.5300
1084.270280 0.5320 0.5330 0.5350 0.5390 0.5410
1088.951935 0.5420 0.5420 0.5420 0.5420 0.5420
1093.633589 0.5390 0.5380 0.5350 0.5320 0.5260
1098.315244 0.5240 0.5230 0.5230 0.5210 0.5210
1102.996899 0.5210 0.5230 0.5230 0.5260 0.5260
1107.678554 0.5260 0.5270 0.5270 0.5270 0.5270
1112.360209 0.5270 0.5270 0.5290 0.5290 0.5300
1117.041863 0.5350 0.5390 0.5480 0.5540 0.5570
1121.723518 0.5630 0.5650 0.5630 0.5600 0.5530
1126.405173 0.5330 0.5120 0.5030 0.4910 0.4631
1131.086828 0.4421 0.4101 0.3762 0.3531 0.3291
1135.768483 0.3140 0.2930 0.2750 0.2540 0.2410
1140.450138 0.2320 0.2240 0.2200 0.2200 0.2230
1145.131792 0.2300 0.2500 0.2720 0.3100 0.3140
1149.813447 0.3349 0.3490 0.3729 0.4058 0.4299
1154.495102 0.4460 0.4630 0.4840 0.5000 0.5170
1159.176757 0.5300 0.5499 0.5600 0.5690 0.5889
1163.858412 0.5960 0.6070 0.6200 0.6340 0.6470
1168.540067 0.6580 0.6700 0.6800 0.6880 0.6979
1173.221721 0.7100 0.7190 0.7270 0.7360 0.7360
1177.903376 0.7450 0.7480 0.7490 0.7510 0.7510
1182.585031 0.7520 0.7520 0.7520 0.7520 0.7520
1187.266686 0.7520 0.7540 0.7550 0.7580 0.7610
1191.948341 0.7630 0.7660 0.7670 0.7700 0.7720
1196.629996 0.7750 0.7760 0.7780 0.7780 0.7790
1201.311650 0.7790 0.7780 0.7780 0.7780 0.7760
1205.993305 0.7750 0.7720 0.7690 0.7640 0.7600
1210.674960 0.7550 0.7490 0.7400 0.7340 0.7280
1215.356615 0.7210 0.7060 0.7010 0.6980 0.6881
1220.038270 0.6800 0.6710 0.6590 0.6430 0.6250
1224.719925 0.6040 0.5831 0.5601 0.5301 0.5181
1229.401579 0.5020 0.4850 0.4690 0.4510 0.4340
1234.083234 0.4161 0.3981 0.3821 0.3651 0.3471
1238.764889 0.3320 0.3200 0.3130 0.3070 0.3040
1243.446544 0.3020 0.3020 0.3020 0.3020 0.3020
1248.128199 0.3020 0.3020 0.3010 0.2990 0.2990
1252.809854 0.2980 0.2960 0.2960 0.2960 0.2980
1257.491508 0.2990 0.2990 0.3010 0.3020 0.3040
1262.173163 0.3080 0.3170 0.3289 0.3439 0.3609
1266.854818 0.3880 0.4130 0.4430 0.4820 0.5199
1271.536473 0.5559 0.5989 0.6070 0.6140 0.6190
1276.218128 0.6530 0.6760 0.7040 0.7090 0.7130
1280.899782 0.7150 0.7150 0.7150 0.7130 0.7130
1285.581437 0.7120 0.7070 0.7060 0.7030 0.6950
1290.263092 0.6830 0.6730 0.6640 0.6550 0.6461
1294.944747 0.6370 0.6280 0.6200 0.6110 0.6040
1299.626402 0.5950 0.5810 0.5710 0.5601 0.5501
1304.308057 0.5390 0.5270 0.5120 0.4930 0.4670
1308.989711 0.4391 0.4011 0.3711 0.3471 0.3221
1313.671366 0.3020 0.2870 0.2560 0.2320 0.2050
1318.353021 0.1761 0.1491 0.1301 0.1190 0.1100
1323.034676 0.1030 0.0890 0.0850 0.0820 0.0820
1327.716331 0.0820 0.0830 0.0830 0.0860 0.0890
1332.397986 0.0910 0.0940 0.1030 0.1070 0.1150
1337.079640 0.1210 0.1270 0.1360 0.1479 0.1629
1341.761295 0.1820 0.2050 0.2200 0.2300 0.2390
1346.442950 0.2470 0.2560 0.2660 0.2829 0.3049
1351.124605 0.3220 0.3400 0.3580 0.3680 0.3850
1355.806260 0.4059 0.4249 0.4399 0.4519 0.4580
1360.487915 0.4750 0.4880 0.5000 0.5120 0.5270
1365.169569 0.5450 0.5590 0.5739 0.5830 0.5949
1369.851224 0.5990 0.6040 0.6100 0.6160 0.6250
1374.532879 0.6320 0.6400 0.6460 0.6520 0.6560
1379.214534 0.6640 0.6670 0.6730 0.6760 0.6790
1383.896189 0.6800 0.6850 0.6880 0.6940 0.7010
1388.577844 0.7040 0.7070 0.7150 0.7180 0.7190
1393.259498 0.7220 0.7250 0.7270 0.7300 0.7330
1397.941153 0.7340 0.7390 0.7400 0.7420 0.7450
1402.622808 0.7450 0.7460 0.7460 0.7480 0.7480
1407.304463 0.7490 0.7490 0.7510 0.7510 0.7510
1411.986118 0.7520 0.7520 0.7520 0.7540 0.7540
1416.667772 0.7540 0.7550 0.7550 0.7570 0.7570
1421.349427 0.7580 0.7630 0.7660 0.7690 0.7700
1426.031082 0.7730 0.7750 0.7790 0.7790 0.7790
1430.712737 0.7790 0.7790 0.7780 0.7760 0.7750
1435.394392 0.7730 0.7730 0.7720 0.7700 0.7660
1440.076047 0.7630 0.7600 0.7540 0.7490 0.7400
1444.757701 0.7310 0.7250 0.7210 0.7100 0.6950
1449.439356 0.6830 0.6531 0.6082 0.5473 0.4734
1454.121011 0.3880 0.3740 0.3610 0.3610 0.3680
1458.802666 0.4219 0.5117 0.5797 0.6706 0.7327
1463.484321 0.7990 0.8300 0.8410 0.8420 0.8440
1468.165976 0.8440 0.8450 0.8470 0.8470 0.8470
1472.847630 0.8470 0.8470 0.8420 0.8420 0.8410
1477.529285 0.8410 0.8410 0.8410 0.8410 0.8410
1482.210940 0.8390 0.8390 0.8390 0.8360 0.8330
1486.892595 0.8270 0.8210 0.8180 0.8150 0.8110
1491.574250 0.8030 0.7970 0.7900 0.7870 0.7870
1496.255905 0.7850 0.7850 0.7850 0.7850 0.7880
1500.937559 0.7960 0.8030 0.8080 0.8150 0.8200
1505.619214 0.8230 0.8290 0.8380 0.8500 0.8590
1510.300869 0.8740 0.8870 0.8990 0.9020 0.9020
1514.982524 0.9040 0.9040 0.9040 0.9050 0.9050
1519.664179 0.9050 0.9050 0.9050 0.9050 0.9050
1524.345834 0.9050 0.9050 0.9050 0.9050 0.9050
1529.027488 0.9050 0.9050 0.9040 0.9040 0.9040
1533.709143 0.9020 0.9010 0.9010 0.9010 0.8990
1538.390798 0.8990 0.8990 0.8980 0.8980 0.8980
1543.072453 0.8980 0.8980 0.8980 0.8980 0.8980
1547.754108 0.8980 0.8990 0.8990 0.8990 0.8990
1552.435763 0.8990 0.8990 0.8990 0.9010 0.9010
1557.117417 0.9020 0.9020 0.9040 0.9040 0.9040
1561.799072 0.9040 0.9040 0.9040 0.9040 0.9040
1566.480727 0.9020 0.9020 0.9010 0.9010 0.8950
1571.162382 0.8930 0.8900 0.8890 0.8860 0.8840
1575.844037 0.8810 0.8810 0.8780 0.8750 0.8740
1580.525691 0.8720 0.8710 0.8710 0.8690 0.8680
1585.207346 0.8650 0.8590 0.8530 0.8470 0.8420
1589.889001 0.8420 0.8410 0.8380 0.8380 0.8380
1594.570656 0.8380 0.8380 0.8360 0.8360 0.8350
1599.252311 0.8320 0.8290 0.8240 0.8200 0.8150
1603.933966 0.8120 0.8090 0.8050 0.8030 0.8030
1608.615620 0.8020 0.8020 0.8000 0.8000 0.7990
1613.297275 0.7990 0.7930 0.7870 0.7820 0.7790
1617.978930 0.7780 0.7760 0.7730 0.7720 0.7700
1622.660585 0.7700 0.7700 0.7700 0.7690 0.7670
1627.342240 0.7670 0.7660 0.7660 0.7660 0.7660
1632.023895 0.7640 0.7640 0.7640 0.7640 0.7630
1636.705549 0.7610 0.7600 0.7580 0.7580 0.7580
1641.387204 0.7580 0.7570 0.7570 0.7550 0.7520
1646.068859 0.7510 0.7480 0.7460 0.7460 0.7450
1650.750514 0.7430 0.7420 0.7390 0.7370 0.7340
1655.432169 0.7340 0.7340 0.7330 0.7330 0.7310
1660.113824 0.7300 0.7270 0.7250 0.7210 0.7150
1664.795478 0.7100 0.7060 0.7010 0.6940 0.6850
1669.477133 0.6740 0.6610 0.6520 0.6460 0.6380
1674.158788 0.6340 0.6280 0.6200 0.6130 0.6040
1678.840443 0.5980 0.5930 0.5840 0.5780 0.5690
1683.522098 0.5630 0.5570 0.5540 0.5500 0.5450
1688.203753 0.5410 0.5380 0.5330 0.5270 0.5210
1692.885407 0.5140 0.5050 0.4990 0.4930 0.4850
1697.567062 0.4750 0.4660 0.4630 0.4630 0.4610
1702.248717 0.4600 0.4550 0.4540 0.4510 0.4430
1706.930372 0.4360 0.4280 0.4220 0.4190 0.4160
1711.612027 0.4040 0.3910 0.3820 0.3701 0.3591
1716.293681 0.3520 0.3490 0.3430 0.3410 0.3410
1720.975336 0.3400 0.3370 0.3350 0.3340 0.3290
1725.656991 0.3250 0.3230 0.3200 0.3190 0.3160
1730.338646 0.3130 0.3110 0.3050 0.3010 0.2930
1735.020301 0.2860 0.2800 0.2720 0.2630 0.2540
1739.701956 0.2470 0.2330 0.2200 0.2031 0.1881
1744.383610 0.1730 0.1570 0.1400 0.1250 0.1120
1749.065265 0.0980 0.0850 0.0760 0.0670 0.0610
1753.746920 0.0560 0.0500 0.0460 0.0410 0.0400
1758.428575 0.0400 0.0380 0.0380 0.0380 0.0380
1763.110230 0.0380 0.0380 0.0380 0.0400 0.0400
1767.791885 0.0400 0.0410 0.0410 0.0410 0.0410
1772.473539 0.0410 0.0410 0.0410 0.0430 0.0430
1777.155194 0.0460 0.0500 0.0550 0.0590 0.0670
1781.836849 0.0760 0.0860 0.0970 0.1090 0.1220
1786.518504 0.1400 0.1659 0.1909 0.2319 0.2688
1791.200159 0.3131 0.3551 0.3950 0.4220 0.4540
1795.881814 0.4989 0.5379 0.5739 0.6049 0.6339
1800.563468 0.6610 0.6830 0.7040 0.7220 0.7400
1805.245123 0.7550 0.7690 0.7820 0.7959 0.8079
1809.926778 0.8240 0.8330 0.8420 0.8530 0.8660
1814.608433 0.8740 0.8740 0.8770 0.8830 0.8870
1819.290088 0.8950 0.9010 0.9020 0.9080 0.9130
1823.971743 0.9170 0.9200 0.9230 0.9260 0.9260
1828.653397 0.9280 0.9290 0.9290 0.9290 0.9290
1833.335052 0.9310 0.9340 0.9370 0.9380 0.9400
1838.016707 0.9410 0.9440 0.9470 0.9520 0.9530
1842.698362 0.9530 0.9550 0.9550 0.9550 0.9560
1847.380017 0.9560 0.9560 0.9560 0.9560 0.9560
1852.061672 0.9560 0.9560 0.9560 0.9550 0.9550
1856.743326 0.9550 0.9550 0.9550 0.9550 0.9550
1861.424981 0.9550 0.9530 0.9530 0.9530 0.9530
1866.106636 0.9530 0.9530 0.9530 0.9530 0.9530
1870.788291 0.9530 0.9520 0.9520 0.9500 0.9490
1875.469946 0.9460 0.9430 0.9400 0.9380 0.9380
1880.151600 0.9370 0.9370 0.9370 0.9370 0.9370
1884.833255 0.9370 0.9370 0.9370 0.9370 0.9370
1889.514910 0.9370 0.9380 0.9380 0.9380 0.9380
1894.196565 0.9380 0.9370 0.9370 0.9370 0.9370
1898.878220 0.9380 0.9380 0.9380 0.9410 0.9440
1903.559875 0.9460 0.9460 0.9470 0.9470 0.9470
1908.241529 0.9470 0.9470 0.9470 0.9470 0.9470
1912.923184 0.9470 0.9490 0.9500 0.9520 0.9580
1917.604839 0.9640 0.9700 0.9710 0.9730 0.9730
1922.286494 0.9740 0.9760 0.9760 0.9760 0.9770
1926.968149 0.9790 0.9790 0.9800 0.9800 0.9800
1931.649804 0.9800 0.9800 0.9800 0.9800 0.9790
1936.331458 0.9790 0.9790 0.9770 0.9760 0.9740
1941.013113 0.9710 0.9700 0.9700 0.9700 0.9680
1945.694768 0.9680 0.9680 0.9670 0.9670 0.9670
1950.376423 0.9670 0.9650 0.9640 0.9620 0.9610
1955.058078 0.9590 0.9580 0.9550 0.9520 0.9500
1959.739733 0.9500 0.9500 0.9490 0.9490 0.9470
1964.421387 0.9470 0.9470 0.9490 0.9490 0.9490
1969.103042 0.9490 0.9500 0.9500 0.9520 0.9530
1973.784697 0.9590 0.9620 0.9650 0.9670 0.9680
1978.466352 0.9700 0.9700 0.9700 0.9700 0.9700
1983.148007 0.9700 0.9700 0.9700 0.9710 0.9730
1987.829662 0.9740 0.9760 0.9760 0.9760 0.9760
1992.511316 0.9760 0.9790 0.9820 0.9830 0.9830
1997.192971 0.9850 0.9850 0.9850 0.9850 0.9850
2001.874626 0.9850 0.9850 0.9850 0.9850 0.9850
2006.556281 0.9850 0.9850 0.9845 0.9840 0.9835
2011.237936 0.9830 0.9830 0.9830 0.9830 0.9830
2015.919590 0.9830 0.9830 0.9830 0.9830 0.9828
2020.601245 0.9825 0.9823 0.9820 0.9820 0.9820
2025.282900 0.9820 0.9820 0.9820 0.9820 0.9820
2029.964555 0.9820 0.9815 0.9810 0.9805 0.9800
2034.646210 0.9800 0.9800 0.9800 0.9800 0.9800
2039.327865 0.9800 0.9800 0.9800 0.9797 0.9795
2044.009519 0.9792 0.9790 0.9785 0.9780 0.9775
2048.691174 0.9770 0.9770 0.9770 0.9770 0.9770
2053.372829 0.9767 0.9765 0.9762 0.9760 0.9760
2058.054484 0.9760 0.9760 0.9760 0.9763 0.9765
2062.736139 0.9768 0.9770 0.9770 0.9770 0.9770
2067.417794 0.9770 0.9775 0.9780 0.9785 0.9790
2072.099448 0.9790 0.9790 0.9790 0.9790 0.9793
2076.781103 0.9795 0.9798 0.9800 0.9800 0.9800
2081.462758 0.9800 0.9800 0.9800 0.9800 0.9800
2086.144413 0.9800 0.9800 0.9800 0.9800 0.9800
2090.826068 0.9800 0.9800 0.9800 0.9800 0.9800
2095.507723 0.9800 0.9800 0.9800 0.9800 0.9800
2100.189377 0.9800 0.9800 0.9800 0.9800 0.9800
2104.871032 0.9800 0.9800 0.9800 0.9800 0.9800
2109.552687 0.9800 0.9800 0.9800 0.9799 0.9797
2114.234342 0.9794 0.9792 0.9790 0.9790 0.9790
2118.915997 0.9790 0.9789 0.9784 0.9779 0.9774
2123.597652 0.9770 0.9770 0.9770 0.9770 0.9769
2128.279306 0.9767 0.9764 0.9762 0.9759 0.9754
2132.960961 0.9749 0.9744 0.9739 0.9737 0.9734
2137.642616 0.9732 0.9730 0.9730 0.9730 0.9730
2142.324271 0.9729 0.9724 0.9719 0.9714 0.9710
2147.005926 0.9710 0.9710 0.9710 0.9710 0.9710
2151.687581 0.9710 0.9710 0.9710 0.9710 0.9710
2156.369235 0.9710 0.9710 0.9710 0.9710 0.9710
2161.050890 0.9709 0.9707 0.9704 0.9702 0.9700
2165.732545 0.9700 0.9700 0.9700 0.9700 0.9700
2170.414200 0.9700 0.9700 0.9698 0.9694 0.9688
2175.095855 0.9684 0.9679 0.9677 0.9674 0.9672
2179.777509 0.9669 0.9664 0.9659 0.9654 0.9650
2184.459164 0.9650 0.9650 0.9650 0.9650 0.9650
2189.140819 0.9650 0.9650 0.9650 0.9650 0.9650
2193.822474 0.9650 0.9653 0.9660 0.9668 0.9675
2198.504129 0.9680 0.9680 0.9680 0.9680 0.9679
2203.185784 0.9677 0.9674 0.9672 0.9668 0.9663
2207.867438 0.9658 0.9653 0.9649 0.9647 0.9644
2212.549093 0.9642 0.9638 0.9633 0.9628 0.9623
2217.230748 0.9620 0.9620 0.9620 0.9620 0.9620
2221.912403 0.9620 0.9620 0.9620 0.9620 0.9620
2226.594058 0.9620 0.9620 0.9620 0.9620 0.9620
2231.275713 0.9620 0.9622 0.9627 0.9632 0.9637
2235.957367 0.9641 0.9644 0.9646 0.9649 0.9650
2240.639022 0.9650 0.9650 0.9650 0.9650 0.9650
2245.320677 0.9650 0.9650 0.9652 0.9657 0.9662
2250.002332 0.9667 0.9670 0.9670 0.9670 0.9670
2254.683987 0.9670 0.9670 0.9670 0.9670 0.9670
2259.365642 0.9670 0.9670 0.9670 0.9670 0.9670
2264.047296 0.9670 0.9670 0.9667 0.9662 0.9657
2268.728951 0.9652 0.9650 0.9650 0.9650 0.9650
2273.410606 0.9649 0.9646 0.9644 0.9641 0.9637
2278.092261 0.9632 0.9627 0.9622 0.9620 0.9620
2282.773916 0.9620 0.9620 0.9619 0.9616 0.9614
2287.455571 0.9611 0.9610 0.9610 0.9610 0.9610
2292.137225 0.9610 0.9610 0.9610 0.9610 0.9610
2296.818880 0.9610 0.9610 0.9610 0.9610 0.9610
2301.500535 0.9610 0.9610 0.9607 0.9602 0.9597
2306.182190 0.9592 0.9590 0.9590 0.9590 0.9590
2310.863845 0.9590 0.9590 0.9590 0.9590 0.9590
2315.545499 0.9590 0.9590 0.9590 0.9590 0.9590
2320.227154 0.9590 0.9590 0.9590 0.9590 0.9590
2324.908809 0.9590 0.9590 0.9590 0.9590 0.9590
2329.590464 0.9590 0.9590 0.9590 0.9590 0.9590
2334.272119 0.9590 0.9590 0.9590 0.9590 0.9590
2338.953774 0.9590 0.9590 0.9590 0.9590 0.9590
2343.635428 0.9590 0.9590 0.9590 0.9590 0.9590
2348.317083 0.9588 0.9586 0.9583 0.9581 0.9580
2352.998738 0.9580 0.9580 0.9580 0.9580 0.9580
2357.680393 0.9580 0.9580 0.9580 0.9580 0.9580
2362.362048 0.9580 0.9580 0.9580 0.9580 0.9580
2367.043703 0.9580 0.9580 0.9580 0.9580 0.9580
2371.725357 0.9580 0.9580 0.9580 0.9580 0.9580
2376.407012 0.9580 0.9580 0.9580 0.9580 0.9580
2381.088667 0.9580 0.9576 0.9571 0.9566 0.9561
2385.770322 0.9560 0.9560 0.9560 0.9560 0.9558
2390.451977 0.9556 0.9553 0.9551 0.9550 0.9550
2395.133632 0.9550 0.9550 0.9546 0.9541 0.9536
2399.815286 0.9531 0.9530 0.9530 0.9530 0.9530
2404.496941 0.9528 0.9526 0.9523 0.9521 0.9516
2409.178596 0.9511 0.9506 0.9501 0.9500 0.9500
2413.860251 0.9500 0.9500 0.9498 0.9495 0.9493
2418.541906 0.9490 0.9490 0.9490 0.9490 0.9490
2423.223561 0.9486 0.9481 0.9476 0.9471 0.9470
2427.905215 0.9470 0.9470 0.9470 0.9468 0.9465
2432.586870 0.9463 0.9460 0.9460 0.9460 0.9460
2437.268525 0.9460 0.9460 0.9460 0.9460 0.9460
2441.950180 0.9456 0.9451 0.9446 0.9441 0.9438
2446.631835 0.9435 0.9433 0.9430 0.9423 0.9416
2451.313490 0.9408 0.9401 0.9400 0.9400 0.9400
2455.995144 0.9400 0.9400 0.9400 0.9400 0.9400
2460.676799 0.9400 0.9400 0.9400 0.9400 0.9396
2465.358454 0.9390 0.9386 0.9380 0.9378 0.9375
2470.040109 0.9373 0.9370 0.9365 0.9360 0.9355
2474.721764 0.9350 0.9350 0.9350 0.9350 0.9350
2479.403418 0.9348 0.9345 0.9343 0.9340 0.9340
2484.085073 0.9340 0.9340 0.9340 0.9340 0.9340
2488.766728 0.9340 0.9340 0.9340 0.9340 0.9340
2493.448383 0.9340 0.9340 0.9340 0.9340 0.9340
2498.130038 0.9340 0.9340 0.9340 0.9340 0.9340
2502.811693 0.9340 0.9340 0.9340 0.9340 0.9340
2507.493347 0.9340 0.9340 0.9340 0.9340 0.9340
2512.175002 0.9340 0.9340 0.9340 0.9340 0.9340
2516.856657 0.9340 0.9340 0.9340 0.9340 0.9342
2521.538312 0.9345 0.9348 0.9350 0.9350 0.9350
2526.219967 0.9350 0.9350 0.9355 0.9360 0.9365
2530.901622 0.9370 0.9373 0.9375 0.9378 0.9380
2535.583276 0.9388 0.9395 0.9403 0.9410 0.9418
2540.264931 0.9425 0.9433 0.9440 0.9440 0.9440
2544.946586 0.9440 0.9440 0.9448 0.9455 0.9463
2549.628241 0.9470 0.9478 0.9485 0.9493 0.9500
2554.309896 0.9505 0.9510 0.9515 0.9520 0.9520
2558.991551 0.9520 0.9520 0.9519 0.9512 0.9504
2563.673205 0.9497 0.9488 0.9476 0.9463 0.9451
2568.354860 0.9438 0.9423 0.9408 0.9393 0.9379
2573.036515 0.9372 0.9364 0.9357 0.9350 0.9350
2577.718170 0.9350 0.9350 0.9350 0.9350 0.9350
2582.399825 0.9350 0.9350 0.9347 0.9345 0.9342
2587.081480 0.9340 0.9340 0.9340 0.9340 0.9340
2591.763134 0.9340 0.9340 0.9340 0.9340 0.9343
2596.444789 0.9345 0.9348 0.9350 0.9350 0.9350
2601.126444 0.9350 0.9350 0.9350 0.9350 0.9350
2605.808099 0.9350 0.9350 0.9350 0.9350 0.9350
2610.489754 0.9350 0.9350 0.9350 0.9350 0.9350
2615.171408 0.9350 0.9350 0.9350 0.9350 0.9350
2619.853063 0.9350 0.9350 0.9350 0.9350 0.9350
2624.534718 0.9350 0.9350 0.9350 0.9350 0.9350
2629.216373 0.9350 0.9350 0.9350 0.9350 0.9350
2633.898028 0.9350 0.9350 0.9350 0.9350 0.9350
2638.579683 0.9350 0.9351 0.9356 0.9361 0.9366
2643.261337 0.9370 0.9370 0.9370 0.9370 0.9370
2647.942992 0.9370 0.9370 0.9370 0.9370 0.9370
2652.624647 0.9370 0.9370 0.9370 0.9370 0.9370
2657.306302 0.9370 0.9369 0.9364 0.9359 0.9354
2661.987957 0.9349 0.9347 0.9344 0.9342 0.9340
2666.669612 0.9340 0.9340 0.9340 0.9339 0.9334
2671.351266 0.9328 0.9323 0.9320 0.9320 0.9320
2676.032921 0.9320 0.9319 0.9317 0.9314 0.9312
2680.714576 0.9310 0.9310 0.9310 0.9310 0.9310
2685.396231 0.9310 0.9310 0.9310 0.9307 0.9300
2690.077886 0.9292 0.9285 0.9278 0.9273 0.9268
2694.759541 0.9263 0.9257 0.9247 0.9237 0.9227
2699.441195 0.9220 0.9220 0.9220 0.9220 0.9218
2704.122850 0.9213 0.9208 0.9203 0.9199 0.9197
2708.804505 0.9194 0.9191 0.9190 0.9190 0.9190
2713.486160 0.9190 0.9190 0.9190 0.9190 0.9190
2718.167815 0.9190 0.9190 0.9190 0.9190 0.9188
2722.849470 0.9183 0.9178 0.9173 0.9169 0.9166
2727.531124 0.9164 0.9161 0.9157 0.9149 0.9142
2732.212779 0.9134 0.9124 0.9109 0.9094 0.9079
2736.894434 0.9065 0.9052 0.9040 0.9027 0.9019
2741.576089 0.9016 0.9014 0.9011 0.9004 0.8988
2746.257744 0.8973 0.8958 0.8950 0.8950 0.8950
2750.939399 0.8950 0.8948 0.8943 0.8938 0.8933
2755.621053 0.8929 0.8926 0.8924 0.8921 0.8918
2760.302708 0.8913 0.8908 0.8903 0.8900 0.8900
2764.984363 0.8900 0.8900 0.8899 0.8896 0.8894
2769.666018 0.8891 0.8888 0.8883 0.8878 0.8873
2774.347673 0.8869 0.8866 0.8864 0.8861 0.8858
2779.029327 0.8853 0.8848 0.8843 0.8840 0.8840
2783.710982 0.8840 0.8840 0.8839 0.8836 0.8834
2788.392637 0.8831 0.8830 0.8830 0.8830 0.8830
2793.074292 0.8827 0.8822 0.8817 0.8812 0.8810
2797.755947 0.8810 0.8810 0.8810 0.8813 0.8818
2802.437602 0.8823 0.8828 0.8830 0.8830 0.8830
2807.119256 0.8830 0.8834 0.8842 0.8849 0.8857
2811.800911 0.8861 0.8864 0.8866 0.8869 0.8870
2816.482566 0.8870 0.8870 0.8870 0.8873 0.8878
2821.164221 0.8883 0.8888 0.8890 0.8890 0.8890
2825.845876 0.8890 0.8890 0.8890 0.8890 0.8890
2830.527531 0.8887 0.8882 0.8877 0.8872 0.8870
2835.209185 0.8870 0.8870 0.8870 0.8868 0.8866
2839.890840 0.8863 0.8861 0.8857 0.8852 0.8847
2844.572495 0.8842 0.8835 0.8828 0.8820 0.8813
2849.254150 0.8810 0.8810 0.8810 0.8810 0.8808
2853.935805 0.8806 0.8803 0.8801 0.8800 0.8800
2858.617460 0.8800 0.8800 0.8800 0.8800 0.8800
2863.299114 0.8800 0.8800 0.8800 0.8800 0.8800
2867.980769 0.8796 0.8791 0.8786 0.8781 0.8780
2872.662424 0.8780 0.8780 0.8780 0.8775 0.8767
2877.344079 0.8760 0.8752 0.8743 0.8733 0.8723
2882.025734 0.8713 0.8706 0.8701 0.8696 0.8691
2886.707389 0.8688 0.8686 0.8683 0.8681 0.8680
2891.389043 0.8680 0.8680 0.8680 0.8680 0.8680
2896.070698 0.8680 0.8680 0.8676 0.8671 0.8666
2900.752353 0.8661 0.8660 0.8660 0.8660 0.8660
2905.434008 0.8658 0.8655 0.8653 0.8650 0.8650
2910.115663 0.8650 0.8650 0.8650 0.8650 0.8650
2914.797317 0.8650 0.8650 0.8650 0.8650 0.8650
2919.478972 0.8650 0.8650 0.8650 0.8650 0.8650
2924.160627 0.8646 0.8641 0.8636 0.8631 0.8630
2928.842282 0.8630 0.8630 0.8630 0.8624 0.8616
2933.523937 0.8609 0.8601 0.8598 0.8595 0.8593
2938.205592 0.8590 0.8586 0.8581 0.8576 0.8571
2942.887246 0.8568 0.8565 0.8563 0.8560 0.8556
2947.568901 0.8551 0.8546 0.8541 0.8533 0.8526
2952.250556 0.8518 0.8511 0.8501 0.8491 0.8481
2956.932211 0.8471 0.8457 0.8442 0.8427 0.8412
2961.613866 0.8397 0.8382 0.8367 0.8352 0.8343
2966.295521 0.8336 0.8328 0.8321 0.8313 0.8306
2970.977175 0.8298 0.8290 0.8278 0.8266 0.8253
2975.658830 0.8241 0.8226 0.8211 0.8196 0.8181
2980.340485 0.8171 0.8161 0.8151 0.8141 0.8126
2985.022140 0.8111 0.8096 0.8081 0.8066 0.8051
2989.703795 0.8036 0.8021 0.8006 0.7991 0.7976
2994.385450 0.7961 0.7946 0.7931 0.7916 0.7901
2999.067104 0.7886 0.7871 0.7856 0.7841 0.7821
3003.748759 0.7801 0.7781 0.7761 0.7743 0.7725
3008.430414 0.7707 0.7690 0.7670 0.7650 0.7630
3013.112069 0.7610 0.7587 0.7565 0.7542 0.7520
3017.793724 0.7497 0.7475 0.7452 0.7429 0.7399
3022.475379 0.7369 0.7339 0.7310 0.7287 0.7265
3027.157033 0.7242 0.7220 0.7197 0.7175 0.7152
3031.838688 0.7130 0.7112 0.7095 0.7077 0.7060
3036.520343 0.7060 0.7060 0.7060 0.7060 0.7055
3041.201998 0.7050 0.7045 0.7040 0.7040 0.7040
3045.883653 0.7040 0.7040 0.7045 0.7050 0.7055
3050.565308 0.7061 0.7068 0.7076 0.7083 0.7090
3055.246962 0.7093 0.7095 0.7098 0.7101 0.7116
3059.928617 0.7131 0.7146 0.7161 0.7176 0.7191
3064.610272 0.7206 0.7221 0.7234 0.7246 0.7259
3069.291927 0.7271 0.7278 0.7286 0.7293 0.7300
3073.973582 0.7303 0.7305 0.7308 0.7310 0.7310
3078.655236 0.7310 0.7310 0.7310 0.7310 0.7310
3083.336891 0.7310 0.7310 0.7307 0.7305 0.7302
3088.018546 0.7299 0.7291 0.7284 0.7276 0.7269
3092.700201 0.7261 0.7254 0.7246 0.7238 0.7225
3097.381856 0.7213 0.7200 0.7190 0.7190 0.7190
3102.063511 0.7190 0.7190 0.7187 0.7185 0.7182
3106.745165 0.7180 0.7180 0.7180 0.7180 0.7180
3111.426820 0.7180 0.7180 0.7180 0.7179 0.7174
3116.108475 0.7169 0.7164 0.7160 0.7157 0.7154
3120.790130 0.7152 0.7149 0.7144 0.7139 0.7134
3125.471785 0.7129 0.7127 0.7124 0.7122 0.7119
3130.153440 0.7114 0.7109 0.7104 0.7099 0.7097
3134.835094 0.7094 0.7092 0.7088 0.7081 0.7073
3139.516749 0.7066 0.7059 0.7054 0.7049 0.7044
3144.198404 0.7039 0.7037 0.7034 0.7032 0.7029
3148.880059 0.7024 0.7019 0.7014 0.7010 0.7010
3153.561714 0.7010 0.7010 0.7009 0.7007 0.7004
3158.243369 0.7002 0.7000 0.7000 0.7000 0.7000
3162.925023 0.6998 0.6993 0.6988 0.6983 0.6980
3167.606678 0.6980 0.6980 0.6980 0.6979 0.6977
3172.288333 0.6974 0.6972 0.6968 0.6963 0.6958
3176.969988 0.6953 0.6950 0.6950 0.6950 0.6950
3181.651643 0.6950 0.6950 0.6950 0.6950 0.6952
3186.333298 0.6957 0.6962 0.6967 0.6971 0.6973
3191.014952 0.6976 0.6978 0.6980 0.6980 0.6980
3195.696607 0.6980 0.6982 0.6987 0.6992 0.6997
3200.378262 0.7000 0.7000 0.7000 0.7000 0.7001
3205.059917 0.7003 0.7006 0.7008 0.7012 0.7017
3209.741572 0.7022 0.7027 0.7031 0.7033 0.7036
3214.423226 0.7038 0.7040 0.7040 0.7040 0.7040
3219.104881 0.7042 0.7047 0.7052 0.7057 0.7064
3223.786536 0.7074 0.7084 0.7094 0.7103 0.7110
3228.468191 0.7118 0.7125 0.7132 0.7137 0.7142
3233.149846 0.7147 0.7151 0.7154 0.7156 0.7159
3237.831501 0.7162 0.7167 0.7172 0.7177 0.7184
3242.513155 0.7191 0.7199 0.7206 0.7210 0.7210
3247.194810 0.7210 0.7210 0.7210 0.7210 0.7210
3251.876465 0.7210 0.7210 0.7210 0.7210 0.7210
3256.558120 0.7210 0.7210 0.7210 0.7210 0.7210
3261.239775 0.7210 0.7210 0.7210 0.7208 0.7203
3265.921430 0.7198 0.7193 0.7189 0.7186 0.7184
3270.603084 0.7181 0.7177 0.7172 0.7167 0.7162
3275.284739 0.7156 0.7148 0.7141 0.7133 0.7130
3279.966394 0.7130 0.7130 0.7130 0.7129 0.7126
3284.648049 0.7124 0.7121 0.7120 0.7120 0.7120
3289.329704 0.7120 0.7120 0.7120 0.7120 0.7120
3294.011359 0.7117 0.7112 0.7107 0.7102 0.7096
3298.693013 0.7088 0.7081 0.7073 0.7066 0.7058
3303.374668 0.7051 0.7043 0.7034 0.7024 0.7014
3308.056323 0.7004 0.6986 0.6964 0.6941 0.6919
3312.737978 0.6905 0.6898 0.6890 0.6883 0.6875
3317.419633 0.6868 0.6860 0.6853 0.6845 0.6838
3322.101288 0.6830 0.6823 0.6817 0.6812 0.6807
3326.782942 0.6802 0.6798 0.6796 0.6793 0.6791
3331.464597 0.6782 0.6770 0.6757 0.6745 0.6734
3336.146252 0.6724 0.6714 0.6704 0.6695 0.6688
3340.827907 0.6680 0.6673 0.6657 0.6637 0.6617
3345.509562 0.6596 0.6583 0.6573 0.6563 0.6553
3350.191217 0.6545 0.6537 0.6530 0.6522 0.6515
3354.872871 0.6507 0.6500 0.6492 0.6487 0.6482
3359.554526 0.6477 0.6472 0.6460 0.6445 0.6430
3364.236181 0.6415 0.6403 0.6393 0.6383 0.6373
3368.917836 0.6361 0.6349 0.6336 0.6324 0.6310
3373.599491 0.6295 0.6280 0.6265 0.6258 0.6256
3378.281145 0.6253 0.6251 0.6246 0.6241 0.6236
3382.962800 0.6231 0.6228 0.6226 0.6223 0.6221
3387.644455 0.6220 0.6220 0.6220 0.6220 0.6220
3392.326110 0.6220 0.6220 0.6220 0.6220 0.6220
3397.007765 0.6220 0.6220 0.6216 0.6211 0.6206
3401.689420 0.6201 0.6194 0.6187 0.6179 0.6172
3406.371074 0.6170 0.6170 0.6170 0.6170 0.6168
3411.052729 0.6166 0.6163 0.6161 0.6160 0.6160
3415.734384 0.6160 0.6160 0.6160 0.6160 0.6160
3420.416039 0.6160 0.6160 0.6160 0.6160 0.6160
3425.097694 0.6160 0.6160 0.6160 0.6160 0.6162
3429.779349 0.6165 0.6167 0.6170 0.6176 0.6184
3434.461003 0.6191 0.6199 0.6211 0.6223 0.6236
3439.142658 0.6248 0.6252 0.6255 0.6257 0.6260
3443.824313 0.6260 0.6260 0.6260 0.6260 0.6264
3448.505968 0.6269 0.6274 0.6279 0.6282 0.6285
3453.187623 0.6287 0.6290 0.6290 0.6290 0.6290
3457.869278 0.6290 0.6295 0.6300 0.6305 0.6310
3462.550932 0.6310 0.6310 0.6310 0.6310 0.6310
3467.232587 0.6310 0.6310 0.6310 0.6310 0.6310
3471.914242 0.6310 0.6310 0.6310 0.6310 0.6310
3476.595897 0.6310 0.6317 0.6324 0.6332 0.6339
3481.277552 0.6342 0.6345 0.6347 0.6350 0.6357
3485.959207 0.6364 0.6372 0.6379 0.6394 0.6409
3490.640861 0.6424 0.6439 0.6454 0.6469 0.6485
3495.322516 0.6500 0.6505 0.6510 0.6515 0.6520
3500.004171 0.6527 0.6535 0.6542 0.6550 0.6560
3504.685826 0.6570 0.6580 0.6590 0.6620 0.6650
3509.367481 0.6680 0.6710 0.6730 0.6750 0.6770
3514.049135 0.6790 0.6797 0.6805 0.6812 0.6820
3518.730790 0.6827 0.6835 0.6842 0.6850 0.6852
3523.412445 0.6855 0.6857 0.6860 0.6882 0.6905
3528.094100 0.6927 0.6950 0.6955 0.6960 0.6965
3532.775755 0.6971 0.6978 0.6986 0.6993 0.7001
3537.457410 0.7008 0.7016 0.7023 0.7030 0.7033
3542.139064 0.7035 0.7038 0.7040 0.7040 0.7040
3546.820719 0.7040 0.7041 0.7056 0.7071 0.7086
3551.502374 0.7102 0.7124 0.7147 0.7169 0.7191
3556.184029 0.7203 0.7216 0.7228 0.7241 0.7251
3560.865684 0.7261 0.7271 0.7280 0.7285 0.7290
3565.547339 0.7295 0.7301 0.7311 0.7321 0.7331
3570.228993 0.7342 0.7354 0.7367 0.7379 0.7395
3574.910648 0.7427 0.7460 0.7492 0.7522 0.7534
3579.592303 0.7547 0.7559 0.7572 0.7587 0.7602
3584.273958 0.7617 0.7631 0.7641 0.7651 0.7661
3588.955613 0.7672 0.7687 0.7702 0.7717 0.7732
3593.637268 0.7747 0.7762 0.7777 0.7792 0.7807
3598.318922 0.7822 0.7837 0.7852 0.7867 0.7882
3603.000577 0.7897 0.7912 0.7927 0.7943 0.7958
3607.682232 0.7973 0.7985 0.7998 0.8010 0.8025
3612.363887 0.8047 0.8070 0.8092 0.8112 0.8122
3617.045542 0.8132 0.8142 0.8153 0.8168 0.8183
3621.727197 0.8198 0.8214 0.8234 0.8254 0.8274
3626.408851 0.8291 0.8293 0.8296 0.8298 0.8300
3631.090506 0.8300 0.8300 0.8300 0.8300 0.8300
3635.772161 0.8300 0.8300 0.8299 0.8297 0.8294
3640.453816 0.8292 0.8288 0.8281 0.8273 0.8265
3645.135471 0.8259 0.8254 0.8249 0.8244 0.8239
3649.817126 0.8237 0.8234 0.8232 0.8230 0.8230
3654.498780 0.8230 0.8230 0.8230 0.8230 0.8230
3659.180435 0.8230 0.8232 0.8240 0.8247 0.8255
3663.862090 0.8262 0.8270 0.8277 0.8285 0.8294
3668.543745 0.8309 0.8324 0.8339 0.8351 0.8353
3673.225400 0.8356 0.8358 0.8362 0.8370 0.8377
3677.907054 0.8385 0.8391 0.8397 0.8402 0.8407
3682.588709 0.8410 0.8410 0.8410 0.8410 0.8410
3687.270364 0.8410 0.8410 0.8410 0.8408 0.8403
3691.952019 0.8398 0.8393 0.8390 0.8390 0.8390
3696.633674 0.8390 0.8390 0.8390 0.8390 0.8390
3701.315329 0.8386 0.8376 0.8366 0.8356 0.8348
3705.996983 0.8343 0.8338 0.8333 0.8329 0.8327
3710.678638 0.8324 0.8322 0.8320 0.8320 0.8320
3715.360293 0.8320 0.8320 0.8320 0.8320 0.8320
3720.041948 0.8320 0.8320 0.8320 0.8320 0.8321
3724.723603 0.8324 0.8326 0.8329 0.8336 0.8348
3729.405258 0.8361 0.8373 0.8383 0.8391 0.8398
3734.086912 0.8406 0.8411 0.8414 0.8416 0.8419
3738.768567 0.8422 0.8427 0.8432 0.8437 0.8441
3743.450222 0.8444 0.8446 0.8449 0.8450 0.8450
3748.131877 0.8450 0.8450 0.8452 0.8457 0.8462
3752.813532 0.8467 0.8470 0.8470 0.8470 0.8470
3757.495187 0.8470 0.8470 0.8470 0.8470 0.8470
3762.176841 0.8470 0.8470 0.8470 0.8470 0.8470
3766.858496 0.8470 0.8470 0.8470 0.8470 0.8470
3771.540151 0.8470 0.8467 0.8462 0.8457 0.8452
3776.221806 0.8450 0.8450 0.8450 0.8450 0.8449
3780.903461 0.8446 0.8444 0.8441 0.8436 0.8429
3785.585116 0.8421 0.8414 0.8406 0.8399 0.8391
3790.266770 0.8384 0.8376 0.8368 0.8361 0.8353
3794.948425 0.8347 0.8342 0.8337 0.8332 0.8330
3799.630080 0.8330 0.8330 0.8330 0.8330 0.8330
3804.311735 0.8330 0.8330 0.8333 0.8338 0.8343
3808.993390 0.8348 0.8359 0.8374 0.8389 0.8404
3813.675044 0.8414 0.8422 0.8429 0.8437 0.8440
3818.356699 0.8440 0.8440 0.8440 0.8437 0.8432
3823.038354 0.8427 0.8422 0.8411 0.8396 0.8381
3827.720009 0.8366 0.8349 0.8332 0.8314 0.8296
3832.401664 0.8287 0.8282 0.8277 0.8272 0.8263
3837.083319 0.8253 0.8243 0.8233 0.8227 0.8222
3841.764973 0.8217 0.8212 0.8210 0.8210 0.8210
3846.446628 0.8210 0.8213 0.8218 0.8223 0.8228
3851.128283 0.8232 0.8234 0.8237 0.8239 0.8240
3855.809938 0.8240 0.8240 0.8240 0.8250 0.8265
3860.491593 0.8280 0.8295 0.8310 0.8325 0.8340
3865.173248 0.8355 0.8365 0.8373 0.8380 0.8388
3869.854902 0.8394 0.8399 0.8404 0.8409 0.8410
3874.536557 0.8410 0.8410 0.8410 0.8404 0.8397
3879.218212 0.8389 0.8382 0.8371 0.8358 0.8346
3883.899867 0.8333 0.8330 0.8330 0.8330 0.8330
3888.581522 0.8328 0.8326 0.8323 0.8321 0.8320
3893.263177 0.8320 0.8320 0.8320 0.8320 0.8320
3897.944831 0.8320 0.8320 0.8326 0.8333 0.8341
3902.626486 0.8348 0.8352 0.8354 0.8357 0.8360
3907.308141 0.8360 0.8360 0.8360 0.8360 0.8360
3911.989796 0.8360 0.8360 0.8360 0.8358 0.8355
3916.671451 0.8353 0.8350 0.8340 0.8327 0.8315
3921.353106 0.8302 0.8282 0.8259 0.8237 0.8214
3926.034760 0.8204 0.8196 0.8189 0.8181 0.8168
3930.716415 0.8153 0.8138 0.8123 0.8118 0.8115
3935.398070 0.8113 0.8110 0.8106 0.8101 0.8096
3940.079725 0.8091 0.8090 0.8090 0.8090 0.8090
3944.761380 0.8090 0.8090 0.8090 0.8090 0.8090
3949.443034 0.8090 0.8090 0.8090 0.8090 0.8090
3954.124689 0.8090 0.8090 0.8094 0.8099 0.8104
3958.806344 0.8109 0.8110 0.8110 0.8110 0.8110
3963.487999 0.8112 0.8115 0.8117 0.8120 0.8120
3968.169654 0.8120 0.8120 0.8120 0.8124 0.8129
3972.851309 0.8134 0.8139 0.8142 0.8145 0.8147
3977.532963 0.8150 0.8150 0.8150 0.8150 0.8150
3982.214618 0.8150 0.8150 0.8150 0.8150 0.8155
3986.896273 0.8160 0.8165 0.8170
##END=
