##TITLE=Imidazole-5-sulfonic acid,1-methyl-4-nitro-, sodium salt
##JCAMP-DX=4.24
##DATA TYPE=INFRARED SPECTRUM
##CLASS=COBLENTZ III
##ORIGIN=SOUTHERN RESEARCH INSTITUTE
##OWNER=Copyright (C) 1987 by the Coblentz Society
Collection (C) 2018 copyright by the U.S. Secretary of Commerce
on behalf of the United States of America. All rights reserved.
##DATE=1955/08/18
##MOLFORM=C4 H4 Na N3 O5 S
##MP=312 C
##SOURCE REFERENCE=COBLENTZ NO. 7883
##$NIST ID=B6007883
##$NIST SOURCE=COBLENTZ
##$NIST IMAGE=cob7883
##SPECTROMETER/DATA SYSTEM=PERKIN-ELMER 21 (GRATING)
##INSTRUMENT PARAMETERS=FILTER CHANGE ABOUT 1030 CM^-^1
##STATE=SOLID (0.9 mg / 650 mg KBr DISC)
##SAMPLING PROCEDURE=TRANSMISSION
##RESOLUTION=2
##DATA PROCESSING=DIGITIZED BY COBLENTZ SOCIETY (BATCH II) FROM HARD COPY (ADJUSTED \addcm-1\15-5-2\)
##XUNITS=1/CM
##YUNITS=TRANSMITTANCE
##XFACTOR=1.0
##YFACTOR=1
##DELTAX=1.005700
##FIRSTX=635.117
##LASTX=3818.16
##FIRSTY=0.7813
##MAXX=3818.16
##MINX=635.117
##MAXY=0.878286
##MINY=0.124804
##NPOINTS=3166
##XYDATA=(X++(Y..Y))
635.116667 0.7813 0.7074 0.6336 0.5631 0.5418
640.145164 0.5306 0.5217 0.5135 0.5038 0.4863
645.173662 0.4753 0.4664 0.4557 0.4352 0.3930
650.202159 0.3507 0.3084 0.2665 0.2315 0.2180
655.230657 0.2015 0.1750 0.1667 0.1646 0.1651
660.259154 0.1680 0.2243 0.2641 0.3039 0.3437
665.287652 0.3834 0.4232 0.4630 0.5032 0.5450
670.316149 0.5517 0.5624 0.5896 0.6156 0.6306
675.344647 0.6600 0.6889 0.7103 0.7233 0.7338
680.373144 0.7399 0.7448 0.7497 0.7539 0.7573
685.401642 0.7607 0.7640 0.7674 0.7704 0.7734
690.430139 0.7761 0.7786 0.7812 0.7837 0.7860
695.458637 0.7878 0.7895 0.7912 0.7929 0.7944
700.487134 0.7958 0.7971 0.7986 0.7996 0.7996
705.515632 0.7995 0.7992 0.7997 0.7940 0.7886
710.544129 0.7832 0.7747 0.7650 0.7544 0.7468
715.572627 0.7371 0.7160 0.6736 0.6267 0.5798
720.601124 0.5330 0.4849 0.4428 0.4442 0.4601
725.629622 0.5261 0.5920 0.6580 0.7281 0.7974
730.658119 0.8092 0.8163 0.8201 0.8228 0.8253
735.686617 0.8277 0.8302 0.8328 0.8354 0.8379
740.715114 0.8403 0.8428 0.8452 0.8472 0.8489
745.743612 0.8507 0.8524 0.8537 0.8546 0.8555
750.772109 0.8564 0.8571 0.8575 0.8593 0.8655
755.800607 0.8726 0.8783 0.8757 0.8606 0.8322
760.829104 0.8038 0.7797 0.7729 0.7964 0.8405
765.857602 0.8517 0.8538 0.8559 0.8576 0.8592
770.886099 0.8603 0.8612 0.8621 0.8629 0.8635
775.914597 0.8639 0.8643 0.8646 0.8647 0.8640
780.943094 0.8634 0.8642 0.8640 0.8637 0.8633
785.971592 0.8624 0.8616 0.8608 0.8600 0.8592
791.000089 0.8585 0.8577 0.8569 0.8562 0.8554
796.028587 0.8547 0.8539 0.8532 0.8524 0.8517
801.057085 0.8509 0.8502 0.8494 0.8487 0.8480
806.085582 0.8473 0.8466 0.8459 0.8452 0.8445
811.114080 0.8438 0.8431 0.8423 0.8415 0.8405
816.142577 0.8385 0.8350 0.8308 0.8269 0.8231
821.171075 0.8188 0.8139 0.8089 0.8038 0.7989
826.199572 0.7940 0.7892 0.7843 0.7792 0.7740
831.228070 0.7678 0.7600 0.7505 0.7362 0.7196
836.256567 0.7061 0.6900 0.6718 0.6600 0.6373
841.285065 0.5990 0.5602 0.5214 0.4827 0.4439
846.313562 0.4240 0.4233 0.4546 0.5288 0.6135
851.342060 0.6982 0.7829 0.8407 0.8588 0.8634
856.370557 0.8669 0.8695 0.8710 0.8719 0.8725
861.399055 0.8726 0.8726 0.8727 0.8725 0.8727
866.427552 0.8730 0.8730 0.8730 0.8730 0.8728
871.456050 0.8719 0.8700 0.8679 0.8661 0.8642
876.484547 0.8624 0.8601 0.8575 0.8549 0.8523
881.513045 0.8497 0.8471 0.8441 0.8405 0.8367
886.541542 0.8325 0.8280 0.8238 0.8203 0.8176
891.570040 0.8155 0.8125 0.7860 0.7447 0.7034
896.598537 0.6621 0.6208 0.5920 0.6083 0.6001
901.627035 0.7286 0.8196 0.8242 0.8272 0.8293
906.655532 0.8309 0.8320 0.8328 0.8336 0.8343
911.684030 0.8347 0.8346 0.8348 0.8349 0.8348
916.712527 0.8347 0.8346 0.8344 0.8340 0.8336
921.741025 0.8332 0.8328 0.8323 0.8319 0.8314
926.769522 0.8307 0.8300 0.8293 0.8286 0.8280
931.798020 0.8272 0.8264 0.8255 0.8247 0.8238
936.826517 0.8230 0.8221 0.8212 0.8204 0.8195
941.855015 0.8186 0.8178 0.8168 0.8159 0.8150
946.883512 0.8141 0.8132 0.8122 0.8113 0.8106
951.912010 0.8100 0.8094 0.8088 0.8081 0.8076
956.940507 0.8077 0.8082 0.8088 0.8096 0.8098
961.969005 0.8087 0.8074 0.8061 0.8046 0.8031
966.997502 0.8015 0.7995 0.7975 0.7956 0.7937
972.026000 0.7921 0.7904 0.7886 0.7869 0.7853
977.054497 0.7838 0.7824 0.7809 0.7794 0.7778
982.082995 0.7762 0.7742 0.7723 0.7703 0.7683
987.111492 0.7663 0.7641 0.7619 0.7597 0.7575
992.139990 0.7553 0.7530 0.7502 0.7473 0.7445
997.168487 0.7416 0.7387 0.7356 0.7316 0.7275
1002.196985 0.7234 0.7193 0.7147 0.7089 0.7030
1007.225482 0.6962 0.6869 0.6770 0.6612 0.6332
1012.253980 0.6041 0.5751 0.5460 0.5188 0.5056
1017.282477 0.5058 0.5153 0.6035 0.7366 0.7370
1022.310975 0.7372 0.7379 0.7357 0.7336 0.7305
1027.339472 0.7267 0.7222 0.7181 0.7141 0.7100
1032.367970 0.7064 0.7026 0.6980 0.6933 0.6886
1037.396468 0.6836 0.6773 0.6711 0.6630 0.6476
1042.424965 0.6305 0.6176 0.6049 0.5912 0.5778
1047.453463 0.5657 0.5223 0.3315 0.3057 0.3050
1052.481960 0.3067 0.3146 0.3584 0.4030 0.4475
1057.510458 0.4921 0.5368 0.5814 0.6260 0.6706
1062.538955 0.6925 0.6959 0.6970 0.6988 0.6968
1067.567453 0.6957 0.6826 0.6331 0.5803 0.5275
1072.595950 0.4748 0.4220 0.3692 0.3163 0.3071
1077.624448 0.3388 0.3847 0.4319 0.4792 0.5264
1082.652945 0.5736 0.6208 0.6570 0.6727 0.6956
1087.681443 0.7097 0.7229 0.7327 0.7400 0.7449
1092.709940 0.7487 0.7508 0.7522 0.7536 0.7549
1097.738438 0.7559 0.7569 0.7575 0.7577 0.7579
1102.766935 0.7587 0.7569 0.7548 0.7529 0.7509
1107.795433 0.7489 0.7469 0.7445 0.7417 0.7384
1112.823930 0.7350 0.7313 0.7266 0.7217 0.7161
1117.852428 0.7102 0.7043 0.6989 0.6939 0.6888
1122.880925 0.6841 0.6803 0.6766 0.6733 0.6622
1127.909423 0.6517 0.6423 0.6322 0.6243 0.6206
1132.937920 0.6190 0.6170 0.5889 0.5666 0.5582
1137.966418 0.5520 0.5466 0.5415 0.5327 0.5089
1142.994915 0.4770 0.4451 0.4131 0.3855 0.3752
1148.023413 0.5572 0.6969 0.7044 0.7082 0.7105
1153.051910 0.7121 0.7135 0.7145 0.7155 0.7161
1158.080408 0.7161 0.7157 0.7148 0.7132 0.7111
1163.108905 0.7085 0.7057 0.7029 0.6998 0.6963
1168.137403 0.6922 0.6877 0.6832 0.6791 0.6762
1173.165900 0.6745 0.6727 0.6708 0.6689 0.6664
1178.194398 0.6623 0.6560 0.6483 0.6417 0.6362
1183.222895 0.6304 0.6249 0.6203 0.6162 0.6119
1188.251393 0.6072 0.6025 0.5976 0.5928 0.5880
1193.279890 0.5816 0.5725 0.5639 0.5564 0.5482
1198.308388 0.5384 0.5289 0.5206 0.5124 0.5029
1203.336885 0.4918 0.4825 0.4765 0.4704 0.4641
1208.365383 0.4575 0.4509 0.4432 0.4322 0.4105
1213.393880 0.3769 0.3609 0.3483 0.3356 0.3230
1218.422378 0.3103 0.2977 0.2851 0.2724 0.2598
1223.450875 0.2471 0.2313 0.2069 0.1867 0.1736
1228.479373 0.1608 0.1493 0.1409 0.1337 0.1291
1233.507870 0.1267 0.1252 0.1248 0.1249 0.1249
1238.536368 0.1313 0.1420 0.1576 0.1734 0.1891
1243.564865 0.2048 0.2205 0.2362 0.2519 0.2676
1248.593363 0.2833 0.2990 0.3147 0.3304 0.3446
1253.621860 0.3489 0.3512 0.3551 0.3614 0.3627
1258.650358 0.3630 0.3564 0.3463 0.3361 0.3260
1263.678855 0.3158 0.3056 0.2955 0.2857 0.2776
1268.707353 0.2429 0.2153 0.2047 0.2020 0.2005
1273.735851 0.1995 0.2007 0.2020 0.2049 0.2101
1278.764348 0.2323 0.2546 0.2768 0.2991 0.3214
1283.792846 0.3436 0.3658 0.3880 0.4103 0.4151
1288.821343 0.4156 0.4113 0.3952 0.3915 0.3910
1293.849841 0.3893 0.3753 0.3609 0.3465 0.3320
1298.878338 0.3299 0.3291 0.3828 0.4214 0.4259
1303.906836 0.4282 0.4314 0.4367 0.4422 0.4445
1308.935333 0.4449 0.4342 0.4192 0.4039 0.3904
1313.963831 0.3836 0.3781 0.3732 0.3549 0.3351
1318.992328 0.3254 0.3219 0.3221 0.3232 0.3249
1324.020826 0.3272 0.3593 0.3731 0.3784 0.3849
1329.049323 0.4069 0.4322 0.4576 0.4776 0.4903
1334.077821 0.4958 0.4997 0.5032 0.5253 0.5400
1339.106318 0.5462 0.5491 0.5513 0.5534 0.5554
1344.134816 0.5578 0.5605 0.5634 0.5665 0.5704
1349.163313 0.5741 0.5755 0.5761 0.5762 0.5762
1354.191811 0.5761 0.5760 0.5759 0.6100 0.6418
1359.220308 0.6719 0.6968 0.7101 0.7158 0.7183
1364.248806 0.7190 0.7184 0.7190 0.7139 0.7048
1369.277303 0.6902 0.6791 0.6714 0.6651 0.6427
1374.305801 0.6035 0.5603 0.5171 0.4739 0.4306
1379.334298 0.3900 0.3724 0.3707 0.3764 0.3987
1384.362796 0.4296 0.4605 0.4914 0.5223 0.5532
1389.391293 0.5841 0.6150 0.6380 0.6472 0.6495
1394.419791 0.6512 0.6529 0.6546 0.6563 0.6585
1399.448288 0.6758 0.6945 0.6999 0.7035 0.7068
1404.476786 0.7101 0.7131 0.7154 0.7175 0.7196
1409.505283 0.7213 0.7232 0.7237 0.7220 0.7209
1414.533781 0.7195 0.7179 0.7163 0.7145 0.7121
1419.562278 0.7093 0.7067 0.7042 0.7017 0.6992
1424.590776 0.6966 0.6934 0.6898 0.6860 0.6816
1429.619273 0.6771 0.6715 0.6635 0.6561 0.6480
1434.647771 0.6366 0.6278 0.6206 0.6183 0.6201
1439.676268 0.6206 0.6280 0.6368 0.6457 0.6546
1444.704766 0.6635 0.6713 0.6736 0.6734 0.6733
1449.733263 0.6735 0.6738 0.6742 0.6757 0.6782
1454.761761 0.6804 0.6800 0.6727 0.6778 0.6366
1459.790258 0.6200 0.6037 0.5926 0.5925 0.5921
1464.818756 0.5903 0.5701 0.5364 0.5026 0.4689
1469.847253 0.4352 0.4055 0.4022 0.4010 0.4012
1474.875751 0.4020 0.4159 0.4238 0.4379 0.4635
1479.904248 0.4896 0.5158 0.5419 0.5681 0.5943
1484.932746 0.6204 0.6306 0.6298 0.6245 0.5949
1489.961243 0.5617 0.5285 0.5034 0.4928 0.4878
1494.989741 0.4836 0.4793 0.4750 0.4712 0.4677
1500.018238 0.4643 0.4599 0.4573 0.4561 0.4555
1505.046736 0.4554 0.4540 0.4551 0.4560 0.4567
1510.075233 0.4584 0.4628 0.4720 0.4923 0.5171
1515.103731 0.5422 0.5672 0.5923 0.6167 0.6315
1520.132229 0.6394 0.6436 0.6456 0.6463 0.6479
1525.160726 0.6471 0.6457 0.6454 0.6449 0.6444
1530.189224 0.6430 0.6383 0.6302 0.6212 0.6105
1535.217721 0.5660 0.5221 0.4833 0.4181 0.3614
1540.246219 0.3328 0.3233 0.3172 0.3135 0.3108
1545.274716 0.3084 0.3064 0.3055 0.3051 0.3055
1550.303214 0.3082 0.3262 0.3686 0.4159 0.4632
1555.331711 0.5154 0.5567 0.5636 0.5688 0.5723
1560.360209 0.5758 0.5795 0.5834 0.5878 0.5931
1565.388706 0.5993 0.6060 0.6135 0.6229 0.6353
1570.417204 0.6493 0.6589 0.6651 0.6712 0.6776
1575.445701 0.6854 0.6935 0.6987 0.7045 0.7096
1580.474199 0.7134 0.7157 0.7170 0.7181 0.7192
1585.502696 0.7203 0.7215 0.7231 0.7252 0.7271
1590.531194 0.7289 0.7304 0.7315 0.7320 0.7325
1595.559691 0.7330 0.7335 0.7340 0.7345 0.7351
1600.588189 0.7356 0.7361 0.7367 0.7373 0.7379
1605.616686 0.7385 0.7390 0.7396 0.7401 0.7405
1610.645184 0.7409 0.7413 0.7417 0.7421 0.7424
1615.673681 0.7426 0.7428 0.7430 0.7432 0.7434
1620.702179 0.7437 0.7439 0.7441 0.7445 0.7450
1625.730676 0.7458 0.7465 0.7472 0.7481 0.7493
1630.759174 0.7505 0.7517 0.7530 0.7542 0.7554
1635.787671 0.7567 0.7579 0.7591 0.7603 0.7615
1640.816169 0.7626 0.7637 0.7648 0.7658 0.7666
1645.844666 0.7672 0.7677 0.7692 0.7719 0.7745
1650.873164 0.7767 0.7784 0.7801 0.7817 0.7833
1655.901661 0.7848 0.7863 0.7877 0.7892 0.7906
1660.930159 0.7919 0.7931 0.7943 0.7955 0.7967
1665.958656 0.7979 0.7992 0.8004 0.8016 0.8028
1670.987154 0.8039 0.8049 0.8060 0.8070 0.8080
1676.015651 0.8091 0.8101 0.8111 0.8122 0.8130
1681.044149 0.8137 0.8144 0.8151 0.8158 0.8165
1686.072646 0.8172 0.8179 0.8184 0.8186 0.8190
1691.101144 0.8194 0.8197 0.8200 0.8203 0.8206
1696.129641 0.8209 0.8211 0.8214 0.8216 0.8219
1701.158139 0.8221 0.8224 0.8226 0.8228 0.8231
1706.186636 0.8233 0.8235 0.8237 0.8238 0.8240
1711.215134 0.8242 0.8244 0.8246 0.8247 0.8247
1716.243631 0.8247 0.8247 0.8247 0.8247 0.8243
1721.272129 0.8237 0.8247 0.8236 0.8210 0.8202
1726.300626 0.8202 0.8205 0.8210 0.8215 0.8219
1731.329124 0.8223 0.8226 0.8229 0.8232 0.8236
1736.357621 0.8240 0.8244 0.8248 0.8253 0.8257
1741.386119 0.8261 0.8265 0.8270 0.8275 0.8281
1746.414616 0.8287 0.8288 0.8284 0.8280 0.8272
1751.443114 0.8257 0.8239 0.8220 0.8200 0.8180
1756.471612 0.8156 0.8128 0.8098 0.8066 0.8034
1761.500109 0.8001 0.7965 0.7930 0.7895 0.7853
1766.528607 0.7819 0.7803 0.7792 0.7779 0.7755
1771.557104 0.7716 0.7646 0.7428 0.7242 0.7169
1776.585602 0.7141 0.7120 0.7210 0.7320 0.7401
1781.614099 0.7563 0.7748 0.7896 0.8010 0.8102
1786.642597 0.8173 0.8232 0.8282 0.8322 0.8350
1791.671094 0.8370 0.8383 0.8393 0.8393 0.8397
1796.699592 0.8401 0.8400 0.8399 0.8397 0.8396
1801.728089 0.8395 0.8393 0.8391 0.8391 0.8396
1806.756587 0.8400 0.8400 0.8400 0.8398 0.8394
1811.785084 0.8390 0.8386 0.8380 0.8373 0.8366
1816.813582 0.8362 0.8359 0.8357 0.8354 0.8352
1821.842079 0.8353 0.8356 0.8358 0.8363 0.8370
1826.870577 0.8377 0.8381 0.8383 0.8385 0.8387
1831.899074 0.8389 0.8391 0.8393 0.8395 0.8397
1836.927572 0.8398 0.8398 0.8399 0.8399 0.8399
1841.956069 0.8399 0.8399 0.8398 0.8394 0.8390
1846.984567 0.8387 0.8383 0.8379 0.8375 0.8372
1852.013064 0.8369 0.8366 0.8364 0.8361 0.8358
1857.041562 0.8355 0.8351 0.8348 0.8345 0.8342
1862.070059 0.8339 0.8335 0.8332 0.8329 0.8326
1867.098557 0.8323 0.8320 0.8317 0.8314 0.8312
1872.127054 0.8311 0.8310 0.8311 0.8313 0.8315
1877.155552 0.8317 0.8319 0.8321 0.8323 0.8325
1882.184049 0.8327 0.8329 0.8331 0.8333 0.8334
1887.212547 0.8336 0.8338 0.8341 0.8344 0.8347
1892.241044 0.8350 0.8352 0.8354 0.8355 0.8356
1897.269542 0.8352 0.8342 0.8330 0.8299 0.8285
1902.298039 0.8290 0.8301 0.8311 0.8321 0.8330
1907.326537 0.8337 0.8340 0.8341 0.8343 0.8344
1912.355034 0.8339 0.8329 0.8318 0.8306 0.8291
1917.383532 0.8275 0.8263 0.8272 0.8289 0.8305
1922.412029 0.8322 0.8338 0.8343 0.8343 0.8341
1927.440527 0.8339 0.8337 0.8336 0.8335 0.8334
1932.469024 0.8332 0.8329 0.8324 0.8320 0.8315
1937.497522 0.8311 0.8307 0.8304 0.8302 0.8300
1942.526019 0.8298 0.8296 0.8294 0.8292 0.8289
1947.554517 0.8285 0.8281 0.8278 0.8274 0.8271
1952.583014 0.8267 0.8269 0.8279 0.8290 0.8301
1957.611512 0.8312 0.8320 0.8320 0.8312 0.8300
1962.640009 0.8285 0.8270 0.8260 0.8256 0.8252
1967.668507 0.8248 0.8254 0.8260 0.8267 0.8272
1972.697004 0.8276 0.8278 0.8280 0.8281 0.8283
1977.725502 0.8284 0.8286 0.8288 0.8291 0.8293
1982.753999 0.8295 0.8297 0.8298 0.8300 0.8302
1987.782497 0.8304 0.8305 0.8307 0.8309 0.8309
1992.810995 0.8308 0.8307 0.8307 0.8306 0.8305
1997.839492 0.8303 0.8301 0.8298 0.8295 0.8292
2002.867990 0.8289 0.8286 0.8282 0.8278 0.8274
2007.896487 0.8269 0.8266 0.8263 0.8258 0.8254
2012.924985 0.8250 0.8246 0.8242 0.8237 0.8232
2017.953482 0.8228 0.8223 0.8218 0.8213 0.8209
2022.981980 0.8205 0.8201 0.8196 0.8192 0.8188
2028.010477 0.8184 0.8180 0.8177 0.8173 0.8170
2033.038975 0.8167 0.8171 0.8175 0.8180 0.8185
2038.067472 0.8190 0.8196 0.8208 0.8218 0.8220
2043.095970 0.8221 0.8221 0.8218 0.8215 0.8212
2048.124467 0.8209 0.8206 0.8203 0.8200 0.8197
2053.152965 0.8193 0.8194 0.8197 0.8202 0.8208
2058.181462 0.8214 0.8220 0.8226 0.8232 0.8236
2063.209960 0.8241 0.8242 0.8238 0.8235 0.8231
2068.238457 0.8227 0.8223 0.8218 0.8214 0.8210
2073.266955 0.8205 0.8201 0.8196 0.8192 0.8187
2078.295452 0.8183 0.8178 0.8174 0.8171 0.8168
2083.323950 0.8166 0.8163 0.8160 0.8158 0.8155
2088.352447 0.8153 0.8151 0.8148 0.8146 0.8143
2093.380945 0.8141 0.8138 0.8136 0.8133 0.8131
2098.409442 0.8132 0.8132 0.8133 0.8133 0.8134
2103.437940 0.8134 0.8138 0.8144 0.8150 0.8157
2108.466437 0.8164 0.8175 0.8186 0.8196 0.8207
2113.494935 0.8217 0.8225 0.8234 0.8231 0.8227
2118.523432 0.8207 0.8186 0.8166 0.8141 0.8115
2123.551930 0.8090 0.8075 0.8075 0.8075 0.8075
2128.580427 0.8077 0.8078 0.8080 0.8082 0.8085
2133.608925 0.8088 0.8090 0.8093 0.8096 0.8099
2138.637422 0.8102 0.8105 0.8108 0.8111 0.8114
2143.665920 0.8117 0.8119 0.8121 0.8123 0.8125
2148.694417 0.8126 0.8128 0.8129 0.8129 0.8129
2153.722915 0.8128 0.8128 0.8127 0.8127 0.8126
2158.751412 0.8125 0.8122 0.8119 0.8116 0.8115
2163.779910 0.8117 0.8119 0.8123 0.8131 0.8142
2168.808407 0.8153 0.8165 0.8183 0.8201 0.8212
2173.836905 0.8192 0.8172 0.8151 0.8121 0.8088
2178.865402 0.8057 0.8061 0.8074 0.8088 0.8099
2183.893900 0.8102 0.8099 0.8095 0.8090 0.8083
2188.922397 0.8077 0.8074 0.8079 0.8084 0.8090
2193.950895 0.8100 0.8112 0.8123 0.8135 0.8139
2198.979392 0.8142 0.8145 0.8147 0.8148 0.8150
2204.007890 0.8151 0.8151 0.8152 0.8153 0.8154
2209.036387 0.8154 0.8154 0.8154 0.8154 0.8153
2214.064885 0.8150 0.8147 0.8139 0.8124 0.8109
2219.093382 0.8094 0.8080 0.8067 0.8059 0.8057
2224.121880 0.8054 0.8052 0.8049 0.8049 0.8049
2229.150377 0.8049 0.8049 0.8049 0.8049 0.8049
2234.178875 0.8049 0.8049 0.8049 0.8049 0.8050
2239.207373 0.8050 0.8051 0.8051 0.8051 0.8052
2244.235870 0.8052 0.8052 0.8049 0.8047 0.8044
2249.264368 0.8041 0.8038 0.8034 0.8030 0.8023
2254.292865 0.8016 0.8008 0.8001 0.7995 0.7990
2259.321363 0.7986 0.7982 0.7978 0.7975 0.7972
2264.349860 0.7969 0.7966 0.7963 0.7960 0.7957
2269.378358 0.7954 0.7951 0.7948 0.7945 0.7942
2274.406855 0.7939 0.7936 0.7933 0.7930 0.7927
2279.435353 0.7923 0.7920 0.7916 0.7914 0.7913
2284.463850 0.7911 0.7910 0.7909 0.7908 0.7907
2289.492348 0.7907 0.7909 0.7911 0.7914 0.7916
2294.520845 0.7917 0.7916 0.7915 0.7913 0.7908
2299.549343 0.7902 0.7895 0.7885 0.7876 0.7869
2304.577840 0.7864 0.7861 0.7861 0.7861 0.7861
2309.606338 0.7861 0.7861 0.7860 0.7859 0.7858
2314.634835 0.7856 0.7855 0.7853 0.7850 0.7846
2319.663333 0.7843 0.7841 0.7844 0.7854 0.7864
2324.691830 0.7874 0.7881 0.7875 0.7867 0.7853
2329.720328 0.7837 0.7819 0.7801 0.7781 0.7764
2334.748825 0.7750 0.7738 0.7734 0.7733 0.7742
2339.777323 0.7756 0.7771 0.7787 0.7797 0.7803
2344.805820 0.7805 0.7808 0.7811 0.7813 0.7816
2349.834318 0.7819 0.7821 0.7824 0.7826 0.7829
2354.862815 0.7832 0.7834 0.7837 0.7840 0.7842
2359.891313 0.7845 0.7847 0.7850 0.7853 0.7855
2364.919810 0.7858 0.7861 0.7863 0.7866 0.7869
2369.948308 0.7871 0.7875 0.7881 0.7884 0.7888
2374.976805 0.7892 0.7895 0.7899 0.7902 0.7906
2380.005303 0.7909 0.7911 0.7912 0.7913 0.7913
2385.033800 0.7913 0.7911 0.7908 0.7906 0.7902
2390.062298 0.7897 0.7891 0.7885 0.7878 0.7871
2395.090795 0.7863 0.7856 0.7850 0.7847 0.7847
2400.119293 0.7849 0.7852 0.7854 0.7857 0.7860
2405.147790 0.7863 0.7865 0.7868 0.7871 0.7873
2410.176288 0.7875 0.7877 0.7878 0.7880 0.7881
2415.204785 0.7883 0.7884 0.7886 0.7887 0.7887
2420.233283 0.7886 0.7885 0.7884 0.7884 0.7883
2425.261780 0.7882 0.7880 0.7872 0.7858 0.7845
2430.290278 0.7832 0.7821 0.7817 0.7819 0.7822
2435.318775 0.7828 0.7832 0.7832 0.7830 0.7826
2440.347273 0.7819 0.7811 0.7806 0.7808 0.7811
2445.375770 0.7813 0.7816 0.7819 0.7821 0.7825
2450.404268 0.7830 0.7834 0.7839 0.7842 0.7844
2455.432765 0.7846 0.7848 0.7850 0.7851 0.7852
2460.461263 0.7853 0.7854 0.7855 0.7856 0.7857
2465.489760 0.7858 0.7859 0.7860 0.7860 0.7859
2470.518258 0.7859 0.7858 0.7858 0.7857 0.7857
2475.546756 0.7857 0.7856 0.7857 0.7858 0.7859
2480.575253 0.7861 0.7862 0.7866 0.7872 0.7878
2485.603751 0.7884 0.7886 0.7881 0.7872 0.7860
2490.632248 0.7842 0.7825 0.7808 0.7793 0.7780
2495.660746 0.7771 0.7766 0.7762 0.7759 0.7757
2500.689243 0.7755 0.7753 0.7751 0.7749 0.7744
2505.717741 0.7738 0.7732 0.7726 0.7721 0.7719
2510.746238 0.7721 0.7723 0.7724 0.7724 0.7724
2515.774736 0.7723 0.7722 0.7719 0.7714 0.7708
2520.803233 0.7703 0.7697 0.7691 0.7686 0.7680
2525.831731 0.7677 0.7677 0.7677 0.7678 0.7679
2530.860228 0.7681 0.7687 0.7695 0.7702 0.7707
2535.888726 0.7709 0.7708 0.7707 0.7706 0.7705
2540.917223 0.7702 0.7699 0.7695 0.7692 0.7691
2545.945721 0.7692 0.7693 0.7694 0.7696 0.7698
2550.974218 0.7700 0.7700 0.7699 0.7697 0.7694
2556.002716 0.7691 0.7688 0.7684 0.7681 0.7678
2561.031213 0.7674 0.7671 0.7667 0.7664 0.7660
2566.059711 0.7657 0.7653 0.7650 0.7646 0.7642
2571.088208 0.7638 0.7634 0.7630 0.7625 0.7621
2576.116706 0.7617 0.7612 0.7607 0.7601 0.7596
2581.145203 0.7591 0.7585 0.7580 0.7574 0.7569
2586.173701 0.7563 0.7558 0.7552 0.7547 0.7543
2591.202198 0.7542 0.7544 0.7547 0.7551 0.7554
2596.230696 0.7558 0.7564 0.7570 0.7576 0.7582
2601.259193 0.7587 0.7593 0.7597 0.7600 0.7604
2606.287691 0.7608 0.7611 0.7615 0.7618 0.7620
2611.316188 0.7622 0.7624 0.7626 0.7628 0.7631
2616.344686 0.7632 0.7632 0.7632 0.7632 0.7632
2621.373183 0.7632 0.7632 0.7632 0.7632 0.7633
2626.401681 0.7635 0.7637 0.7639 0.7653 0.7665
2631.430178 0.7668 0.7668 0.7667 0.7667 0.7666
2636.458676 0.7664 0.7661 0.7658 0.7654 0.7651
2641.487173 0.7647 0.7644 0.7641 0.7640 0.7639
2646.515671 0.7638 0.7636 0.7635 0.7635 0.7635
2651.544168 0.7635 0.7635 0.7636 0.7636 0.7637
2656.572666 0.7638 0.7638 0.7639 0.7642 0.7645
2661.601163 0.7647 0.7650 0.7652 0.7654 0.7656
2666.629661 0.7658 0.7660 0.7662 0.7663 0.7665
2671.658158 0.7667 0.7670 0.7673 0.7677 0.7680
2676.686656 0.7684 0.7687 0.7690 0.7693 0.7697
2681.715153 0.7700 0.7703 0.7705 0.7708 0.7710
2686.743651 0.7710 0.7707 0.7704 0.7700 0.7693
2691.772148 0.7687 0.7680 0.7674 0.7669 0.7663
2696.800646 0.7657 0.7651 0.7646 0.7642 0.7638
2701.829143 0.7634 0.7630 0.7626 0.7624 0.7621
2706.857641 0.7618 0.7616 0.7613 0.7610 0.7608
2711.886139 0.7606 0.7604 0.7603 0.7601 0.7600
2716.914636 0.7598 0.7597 0.7595 0.7594 0.7592
2721.943134 0.7591 0.7589 0.7588 0.7587 0.7585
2726.971631 0.7584 0.7583 0.7582 0.7580 0.7579
2732.000129 0.7578 0.7577 0.7576 0.7576 0.7575
2737.028626 0.7575 0.7575 0.7574 0.7574 0.7573
2742.057124 0.7573 0.7572 0.7570 0.7568 0.7565
2747.085621 0.7562 0.7560 0.7557 0.7555 0.7552
2752.114119 0.7549 0.7546 0.7541 0.7535 0.7530
2757.142616 0.7523 0.7518 0.7513 0.7511 0.7509
2762.171114 0.7508 0.7507 0.7505 0.7504 0.7502
2767.199611 0.7502 0.7504 0.7505 0.7506 0.7508
2772.228109 0.7509 0.7510 0.7512 0.7513 0.7515
2777.256606 0.7517 0.7519 0.7520 0.7522 0.7520
2782.285104 0.7513 0.7504 0.7496 0.7488 0.7480
2787.313601 0.7473 0.7465 0.7465 0.7466 0.7468
2792.342099 0.7469 0.7470 0.7472 0.7477 0.7482
2797.370596 0.7487 0.7492 0.7495 0.7497 0.7499
2802.399094 0.7499 0.7493 0.7485 0.7479 0.7473
2807.427591 0.7467 0.7461 0.7455 0.7449 0.7443
2812.456089 0.7437 0.7434 0.7434 0.7434 0.7435
2817.484586 0.7435 0.7436 0.7436 0.7436 0.7436
2822.513084 0.7435 0.7434 0.7434 0.7433 0.7432
2827.541581 0.7430 0.7429 0.7427 0.7426 0.7427
2832.570079 0.7430 0.7432 0.7435 0.7438 0.7440
2837.598576 0.7443 0.7445 0.7448 0.7450 0.7450
2842.627074 0.7448 0.7447 0.7445 0.7444 0.7441
2847.655571 0.7437 0.7434 0.7430 0.7427 0.7423
2852.684069 0.7420 0.7416 0.7412 0.7408 0.7403
2857.712566 0.7399 0.7395 0.7390 0.7386 0.7381
2862.741064 0.7377 0.7372 0.7368 0.7364 0.7360
2867.769561 0.7356 0.7351 0.7347 0.7343 0.7339
2872.798059 0.7334 0.7328 0.7322 0.7315 0.7308
2877.826556 0.7301 0.7295 0.7290 0.7286 0.7284
2882.855054 0.7281 0.7279 0.7279 0.7280 0.7281
2887.883551 0.7281 0.7282 0.7285 0.7289 0.7292
2892.912049 0.7296 0.7301 0.7306 0.7306 0.7303
2897.940546 0.7299 0.7296 0.7291 0.7285 0.7280
2902.969044 0.7275 0.7269 0.7269 0.7271 0.7274
2907.997541 0.7282 0.7290 0.7299 0.7309 0.7319
2913.026039 0.7329 0.7339 0.7340 0.7339 0.7338
2918.054536 0.7336 0.7333 0.7330 0.7328 0.7325
2923.083034 0.7322 0.7318 0.7314 0.7310 0.7306
2928.111531 0.7302 0.7297 0.7293 0.7289 0.7282
2933.140029 0.7274 0.7266 0.7258 0.7248 0.7239
2938.168526 0.7229 0.7220 0.7210 0.7200 0.7191
2943.197024 0.7184 0.7177 0.7170 0.7163 0.7156
2948.225522 0.7149 0.7142 0.7138 0.7135 0.7133
2953.254019 0.7130 0.7127 0.7125 0.7122 0.7120
2958.282517 0.7117 0.7117 0.7117 0.7117 0.7117
2963.311014 0.7117 0.7117 0.7117 0.7117 0.7118
2968.339512 0.7118 0.7119 0.7119 0.7120 0.7119
2973.368009 0.7118 0.7116 0.7115 0.7113 0.7112
2978.396507 0.7110 0.7109 0.7107 0.7106 0.7104
2983.425004 0.7103 0.7101 0.7100 0.7098 0.7096
2988.453502 0.7094 0.7092 0.7091 0.7089 0.7087
2993.481999 0.7085 0.7083 0.7081 0.7080 0.7078
2998.510497 0.7076 0.7074 0.7070 0.7066 0.7062
3003.538994 0.7058 0.7054 0.7051 0.7047 0.7043
3008.567492 0.7039 0.7035 0.7032 0.7028 0.7024
3013.595989 0.7020 0.7015 0.7011 0.7006 0.7002
3018.624487 0.6998 0.6993 0.6989 0.6984 0.6977
3023.652984 0.6967 0.6957 0.6947 0.6937 0.6927
3028.681482 0.6911 0.6895 0.6886 0.6881 0.6876
3033.709979 0.6871 0.6867 0.6862 0.6855 0.6847
3038.738477 0.6839 0.6830 0.6822 0.6813 0.6805
3043.766974 0.6793 0.6778 0.6763 0.6747 0.6725
3048.795472 0.6702 0.6679 0.6651 0.6606 0.6560
3053.823969 0.6518 0.6477 0.6437 0.6396 0.6355
3058.852467 0.6314 0.6273 0.6231 0.6187 0.6123
3063.880964 0.6054 0.5985 0.5916 0.5835 0.5741
3068.909462 0.5648 0.5556 0.5466 0.5376 0.5285
3073.937959 0.5189 0.5044 0.4894 0.4801 0.4721
3078.966457 0.4674 0.4669 0.4675 0.4690 0.4660
3083.994954 0.5025 0.5104 0.5144 0.5184 0.5225
3089.023452 0.5285 0.5437 0.5653 0.5869 0.6085
3094.051949 0.6302 0.6518 0.6734 0.6946 0.7115
3099.080447 0.7184 0.7228 0.7258 0.7284 0.7303
3104.108944 0.7323 0.7341 0.7351 0.7361 0.7371
3109.137442 0.7380 0.7384 0.7388 0.7392 0.7396
3114.165939 0.7398 0.7397 0.7399 0.7412 0.7390
3119.194437 0.7386 0.7381 0.7377 0.7373 0.7369
3124.222934 0.7364 0.7359 0.7354 0.7348 0.7343
3129.251432 0.7338 0.7332 0.7328 0.7323 0.7319
3134.279929 0.7314 0.7310 0.7305 0.7301 0.7299
3139.308427 0.7297 0.7295 0.7293 0.7293 0.7292
3144.336924 0.7291 0.7291 0.7290 0.7290 0.7289
3149.365422 0.7289 0.7289 0.7289 0.7289 0.7289
3154.393919 0.7289 0.7289 0.7289 0.7288 0.7286
3159.422417 0.7284 0.7282 0.7280 0.7277 0.7275
3164.450914 0.7273 0.7270 0.7267 0.7263 0.7259
3169.479412 0.7255 0.7251 0.7247 0.7243 0.7239
3174.507909 0.7235 0.7231 0.7227 0.7222 0.7218
3179.536407 0.7214 0.7208 0.7203 0.7196 0.7187
3184.564904 0.7176 0.7165 0.7154 0.7146 0.7141
3189.593402 0.7137 0.7132 0.7129 0.7127 0.7124
3194.621900 0.7122 0.7120 0.7117 0.7116 0.7114
3199.650397 0.7113 0.7111 0.7110 0.7108 0.7107
3204.678895 0.7105 0.7104 0.7102 0.7101 0.7099
3209.707392 0.7098 0.7096 0.7094 0.7093 0.7091
3214.735890 0.7089 0.7088 0.7086 0.7085 0.7083
3219.764387 0.7081 0.7079 0.7077 0.7075 0.7073
3224.792885 0.7071 0.7070 0.7068 0.7066 0.7064
3229.821382 0.7061 0.7058 0.7055 0.7052 0.7049
3234.849880 0.7046 0.7043 0.7040 0.7037 0.7034
3239.878377 0.7031 0.7028 0.7025 0.7022 0.7019
3244.906875 0.7015 0.7012 0.7009 0.7006 0.7003
3249.935372 0.7000 0.6996 0.6993 0.6989 0.6984
3254.963870 0.6980 0.6975 0.6970 0.6966 0.6961
3259.992367 0.6957 0.6955 0.6956 0.6956 0.6957
3265.020865 0.6957 0.6957 0.6958 0.6959 0.6964
3270.049362 0.6970 0.6972 0.6960 0.6940 0.6920
3275.077860 0.6901 0.6883 0.6865 0.6849 0.6838
3280.106357 0.6828 0.6818 0.6809 0.6801 0.6794
3285.134855 0.6787 0.6780 0.6773 0.6765 0.6758
3290.163352 0.6751 0.6743 0.6735 0.6728 0.6720
3295.191850 0.6713 0.6705 0.6699 0.6693 0.6688
3300.220347 0.6683 0.6678 0.6672 0.6667 0.6662
3305.248845 0.6657 0.6650 0.6644 0.6637 0.6631
3310.277342 0.6624 0.6618 0.6611 0.6605 0.6598
3315.305840 0.6592 0.6585 0.6579 0.6573 0.6566
3320.334337 0.6560 0.6554 0.6547 0.6541 0.6534
3325.362835 0.6528 0.6521 0.6515 0.6508 0.6502
3330.391332 0.6497 0.6492 0.6487 0.6483 0.6479
3335.419830 0.6474 0.6470 0.6466 0.6462 0.6457
3340.448327 0.6454 0.6450 0.6447 0.6444 0.6440
3345.476825 0.6437 0.6432 0.6421 0.6406 0.6390
3350.505322 0.6375 0.6361 0.6350 0.6342 0.6334
3355.533820 0.6326 0.6318 0.6310 0.6302 0.6296
3360.562317 0.6292 0.6288 0.6283 0.6279 0.6275
3365.590815 0.6271 0.6265 0.6258 0.6250 0.6243
3370.619312 0.6236 0.6229 0.6221 0.6211 0.6201
3375.647810 0.6191 0.6181 0.6171 0.6161 0.6151
3380.676307 0.6141 0.6131 0.6122 0.6114 0.6107
3385.704805 0.6100 0.6092 0.6085 0.6078 0.6070
3390.733302 0.6063 0.6056 0.6051 0.6048 0.6046
3395.761800 0.6043 0.6040 0.6038 0.6035 0.6034
3400.790297 0.6035 0.6036 0.6037 0.6037 0.6037
3405.818795 0.6037 0.6036 0.6036 0.6035 0.6035
3410.847292 0.6034 0.6034 0.6034 0.6033 0.6033
3415.875790 0.6034 0.6036 0.6037 0.6038 0.6039
3420.904287 0.6040 0.6042 0.6043 0.6044 0.6045
3425.932785 0.6047 0.6048 0.6050 0.6051 0.6053
3430.961283 0.6054 0.6056 0.6057 0.6059 0.6060
3435.989780 0.6061 0.6062 0.6063 0.6064 0.6065
3441.018278 0.6066 0.6067 0.6068 0.6070 0.6073
3446.046775 0.6077 0.6080 0.6084 0.6088 0.6092
3451.075273 0.6095 0.6100 0.6106 0.6112 0.6119
3456.103770 0.6125 0.6132 0.6138 0.6144 0.6151
3461.132268 0.6157 0.6164 0.6170 0.6179 0.6190
3466.160765 0.6200 0.6210 0.6221 0.6231 0.6242
3471.189263 0.6252 0.6262 0.6273 0.6283 0.6292
3476.217760 0.6302 0.6312 0.6322 0.6332 0.6340
3481.246258 0.6346 0.6353 0.6359 0.6366 0.6372
3486.274755 0.6379 0.6386 0.6392 0.6399 0.6405
3491.303253 0.6409 0.6412 0.6415 0.6419 0.6422
3496.331750 0.6426 0.6432 0.6438 0.6444 0.6450
3501.360248 0.6456 0.6460 0.6463 0.6467 0.6470
3506.388745 0.6472 0.6475 0.6478 0.6481 0.6483
3511.417243 0.6486 0.6492 0.6500 0.6508 0.6517
3516.445740 0.6528 0.6539 0.6550 0.6560 0.6571
3521.474238 0.6582 0.6593 0.6600 0.6604 0.6608
3526.502735 0.6612 0.6615 0.6618 0.6621 0.6623
3531.531233 0.6626 0.6629 0.6632 0.6636 0.6641
3536.559730 0.6645 0.6650 0.6654 0.6658 0.6663
3541.588228 0.6667 0.6671 0.6675 0.6680 0.6685
3546.616725 0.6693 0.6701 0.6710 0.6718 0.6726
3551.645223 0.6735 0.6745 0.6757 0.6770 0.6782
3556.673720 0.6795 0.6808 0.6820 0.6832 0.6844
3561.702218 0.6855 0.6865 0.6876 0.6887 0.6898
3566.730715 0.6908 0.6916 0.6924 0.6931 0.6938
3571.759213 0.6946 0.6953 0.6961 0.6968 0.6975
3576.787710 0.6982 0.6988 0.6994 0.7000 0.7006
3581.816208 0.7012 0.7018 0.7024 0.7030 0.7036
3586.844705 0.7042 0.7048 0.7054 0.7061 0.7067
3591.873203 0.7073 0.7080 0.7086 0.7092 0.7099
3596.901700 0.7105 0.7111 0.7118 0.7124 0.7130
3601.930198 0.7137 0.7144 0.7151 0.7158 0.7165
3606.958695 0.7172 0.7178 0.7185 0.7190 0.7195
3611.987193 0.7200 0.7206 0.7211 0.7216 0.7219
3617.015690 0.7223 0.7226 0.7229 0.7231 0.7232
3622.044188 0.7232 0.7233 0.7234 0.7233 0.7232
3627.072685 0.7232 0.7231 0.7230 0.7230 0.7229
3632.101183 0.7228 0.7227 0.7226 0.7228 0.7230
3637.129680 0.7233 0.7236 0.7239 0.7242 0.7245
3642.158178 0.7247 0.7249 0.7251 0.7249 0.7245
3647.186675 0.7241 0.7236 0.7232 0.7227 0.7223
3652.215173 0.7219 0.7217 0.7216 0.7215 0.7215
3657.243670 0.7217 0.7220 0.7222 0.7225 0.7228
3662.272168 0.7230 0.7233 0.7235 0.7238 0.7240
3667.300666 0.7243 0.7245 0.7247 0.7248 0.7248
3672.329163 0.7249 0.7249 0.7250 0.7250 0.7251
3677.357661 0.7252 0.7253 0.7254 0.7255 0.7256
3682.386158 0.7258 0.7261 0.7267 0.7274 0.7284
3687.414656 0.7296 0.7310 0.7332 0.7355 0.7362
3692.443153 0.7365 0.7360 0.7351 0.7342 0.7333
3697.471651 0.7320 0.7306 0.7292 0.7279 0.7268
3702.500148 0.7257 0.7246 0.7237 0.7233 0.7229
3707.528646 0.7225 0.7224 0.7225 0.7226 0.7226
3712.557143 0.7227 0.7229 0.7230 0.7232 0.7234
3717.585641 0.7235 0.7237 0.7240 0.7244 0.7248
3722.614138 0.7253 0.7258 0.7262 0.7267 0.7272
3727.642636 0.7277 0.7281 0.7285 0.7288 0.7292
3732.671133 0.7296 0.7300 0.7299 0.7296 0.7294
3737.699631 0.7289 0.7285 0.7280 0.7276 0.7271
3742.728128 0.7265 0.7260 0.7254 0.7248 0.7243
3747.756626 0.7240 0.7239 0.7238 0.7236 0.7235
3752.785123 0.7234 0.7235 0.7239 0.7243 0.7247
3757.813621 0.7251 0.7260 0.7283 0.7310 0.7326
3762.842118 0.7329 0.7328 0.7324 0.7317 0.7310
3767.870616 0.7303 0.7296 0.7289 0.7280 0.7272
3772.899113 0.7263 0.7254 0.7245 0.7240 0.7236
3777.927611 0.7233 0.7235 0.7237 0.7239 0.7246
3782.956108 0.7258 0.7273 0.7288 0.7304 0.7319
3787.984606 0.7332 0.7345 0.7353 0.7360 0.7363
3793.013103 0.7347 0.7328 0.7309 0.7289 0.7267
3798.041601 0.7247 0.7233 0.7220 0.7215 0.7213
3803.070098 0.7213 0.7217 0.7226 0.7235 0.7243
3808.098596 0.7250 0.7257 0.7263 0.7268 0.7273
3813.127093 0.7274 0.7270 0.7266 0.7261 0.7257
3818.155591 0.7254
##END=
