##TITLE=ALUMINUM PALMITATE
##JCAMP-DX=4.24
##DATA TYPE=INFRARED SPECTRUM
##CLASS=COBLENTZ
##ORIGIN=WYANDOTTE CHEMICALS CORP., WYANDOTTE, MICHIGAN, USA
##OWNER=COBLENTZ SOCIETY
Collection (C) 2018 copyright by the U.S. Secretary of Commerce
on behalf of the United States of America. All rights reserved.
##DATE=Not specified, most likely prior to 1970
##MOLFORM=C36 H70 O4 Pb
##SOURCE REFERENCE=COBLENTZ NO. 1341
##$NIST ID=B6001341
##$NIST SOURCE=COBLENTZ
##$NIST IMAGE=cob1341
##SPECTROMETER/DATA SYSTEM=Not specified, most likely a prism, grating, or hybrid spectrometer.
##STATE=SOLID (MINERAL OIL MULL)
##SAMPLING PROCEDURE=TRANSMISSION
##RESOLUTION=4
##DATA PROCESSING=DIGITIZED BY NIST FROM HARD COPY
##XUNITS=MICROMETERS
##YUNITS=TRANSMITTANCE
##XFACTOR=1.000000
##YFACTOR=1
##DELTAX=000.006816
##FIRSTX=2.068
##LASTX=16.0139
##FIRSTY=0.831
##MAXX=16.0139
##MINX=2.068
##MAXY=0.955
##MINY=0.032
##NPOINTS=2047
##XYDATA=(X++(Y..Y))
2.068000 0.8310 0.8310 0.8310 0.8330 0.8330
2.102097 0.8330 0.8330 0.8340 0.8340 0.8340
2.136000 0.8360 0.8360 0.8360 0.8360 0.8340
2.170097 0.8310 0.8310 0.8270 0.8240 0.8170
2.204000 0.8100 0.8040 0.7970 0.7950 0.7980
2.238097 0.8020 0.8050 0.8070 0.8090 0.8090
2.273000 0.8090 0.8090 0.8090 0.8100 0.8100
2.307097 0.8100 0.8120 0.8160 0.8190 0.8190
2.341000 0.8210 0.8220 0.8220 0.8260 0.8290
2.375097 0.8330 0.8340 0.8380 0.8390 0.8430
2.409000 0.8440 0.8480 0.8500 0.8500 0.8510
2.443097 0.8510 0.8530 0.8550 0.8580 0.8580
2.477000 0.8600 0.8600 0.8620 0.8620 0.8620
2.511097 0.8630 0.8630 0.8630 0.8620 0.8620
2.545000 0.8620 0.8650 0.8670 0.8720 0.8750
2.579097 0.8750 0.8730 0.8720 0.8720 0.8720
2.613000 0.8770 0.8790 0.8800 0.8800 0.8820
2.647097 0.8820 0.8840 0.8840 0.8850 0.8850
2.682000 0.8870 0.8870 0.8870 0.8870 0.8890
2.716097 0.8890 0.8890 0.8890 0.8890 0.8890
2.750000 0.8890 0.8890 0.8890 0.8890 0.8890
2.784097 0.8870 0.8840 0.8800 0.8770 0.8770
2.818000 0.8800 0.8820 0.8840 0.8840 0.8840
2.852097 0.8840 0.8840 0.8850 0.8840 0.8840
2.886000 0.8820 0.8820 0.8800 0.8800 0.8800
2.920097 0.8800 0.8800 0.8800 0.8800 0.8800
2.954000 0.8800 0.8800 0.8800 0.8800 0.8800
2.988097 0.8820 0.8820 0.8840 0.8850 0.8850
3.022000 0.8850 0.8850 0.8850 0.8850 0.8850
3.056097 0.8840 0.8840 0.8850 0.8850 0.8840
3.091000 0.8840 0.8840 0.8800 0.8770 0.8750
3.125097 0.8730 0.8700 0.8680 0.8680 0.8680
3.159000 0.8680 0.8700 0.8700 0.8700 0.8700
3.193097 0.8700 0.8680 0.8650 0.8630 0.8600
3.227000 0.8560 0.8460 0.8380 0.8270 0.8190
3.261097 0.8140 0.8050 0.7930 0.7730 0.7540
3.295000 0.7350 0.6880 0.6230 0.5570 0.4710
3.329097 0.3860 0.2990 0.2110 0.1220 0.0340
3.363000 0.0320 0.0340 0.0340 0.0370 0.0400
3.397097 0.0440 0.0440 0.0450 0.0450 0.0450
3.431000 0.0450 0.0450 0.0470 0.0540 0.0630
3.465097 0.0630 0.0660 0.0680 0.0680 0.0680
3.500000 0.0690 0.0810 0.1090 0.1990 0.3160
3.534097 0.4340 0.4820 0.5820 0.6140 0.6640
3.568000 0.6840 0.7030 0.7240 0.7460 0.7750
3.602097 0.7800 0.7830 0.7870 0.7920 0.7970
3.636000 0.8020 0.8020 0.8040 0.8040 0.8040
3.670097 0.8040 0.8070 0.8100 0.8160 0.8240
3.704000 0.8290 0.8290 0.8310 0.8290 0.8290
3.738097 0.8270 0.8270 0.8290 0.8290 0.8310
3.772000 0.8310 0.8310 0.8330 0.8360 0.8410
3.806097 0.8440 0.8500 0.8530 0.8550 0.8600
3.840000 0.8630 0.8670 0.8680 0.8700 0.8730
3.874097 0.8800 0.8820 0.8850 0.8890 0.8920
3.908000 0.8940 0.9010 0.9020 0.9040 0.9110
3.942097 0.9130 0.9140 0.9160 0.9180 0.9190
3.977000 0.9190 0.9210 0.9190 0.9190 0.9190
4.011097 0.9190 0.9190 0.9190 0.9180 0.9160
4.045000 0.9160 0.9140 0.9140 0.9140 0.9140
4.079097 0.9140 0.9140 0.9140 0.9140 0.9190
4.113000 0.9190 0.9180 0.9180 0.9160 0.9160
4.147097 0.9160 0.9160 0.9160 0.9140 0.9140
4.181000 0.9140 0.9140 0.9140 0.9130 0.9140
4.215097 0.9140 0.9140 0.9130 0.9140 0.9140
4.249000 0.9160 0.9190 0.9210 0.9230 0.9280
4.283097 0.9300 0.9300 0.9310 0.9310 0.9310
4.317000 0.9310 0.9310 0.9330 0.9330 0.9350
4.351097 0.9350 0.9360 0.9400 0.9360 0.9300
4.386000 0.9250 0.9230 0.9230 0.9230 0.9280
4.420097 0.9300 0.9300 0.9310 0.9310 0.9310
4.454000 0.9310 0.9310 0.9330 0.9330 0.9330
4.488097 0.9350 0.9380 0.9400 0.9400 0.9380
4.522000 0.9400 0.9400 0.9380 0.9380 0.9380
4.556097 0.9380 0.9380 0.9400 0.9420 0.9400
4.590000 0.9420 0.9430 0.9430 0.9420 0.9420
4.624097 0.9420 0.9420 0.9400 0.9400 0.9380
4.658000 0.9380 0.9400 0.9450 0.9470 0.9470
4.692097 0.9430 0.9430 0.9450 0.9450 0.9470
4.726000 0.9470 0.9500 0.9520 0.9520 0.9540
4.760097 0.9540 0.9540 0.9540 0.9520 0.9500
4.795000 0.9500 0.9500 0.9500 0.9500 0.9500
4.829097 0.9500 0.9500 0.9500 0.9500 0.9500
4.863000 0.9500 0.9500 0.9500 0.9520 0.9520
4.897097 0.9520 0.9520 0.9500 0.9500 0.9480
4.931000 0.9500 0.9480 0.9480 0.9470 0.9450
4.965097 0.9450 0.9450 0.9430 0.9430 0.9430
4.999000 0.9450 0.9480 0.9500 0.9520 0.9520
5.033097 0.9520 0.9520 0.9540 0.9520 0.9520
5.067000 0.9500 0.9500 0.9500 0.9520 0.9520
5.101097 0.9520 0.9520 0.9500 0.9500 0.9520
5.135000 0.9520 0.9500 0.9500 0.9500 0.9480
5.169097 0.9470 0.9470 0.9480 0.9500 0.9540
5.204000 0.9550 0.9550 0.9540 0.9480 0.9450
5.238097 0.9430 0.9450 0.9500 0.9540 0.9540
5.272000 0.9520 0.9520 0.9500 0.9500 0.9480
5.306097 0.9500 0.9500 0.9500 0.9500 0.9500
5.340000 0.9500 0.9500 0.9500 0.9500 0.9500
5.374097 0.9520 0.9540 0.9540 0.9540 0.9520
5.408000 0.9520 0.9500 0.9520 0.9520 0.9500
5.442097 0.9500 0.9480 0.9480 0.9500 0.9500
5.476000 0.9500 0.9500 0.9520 0.9520 0.9520
5.510097 0.9520 0.9470 0.9470 0.9480 0.9520
5.544000 0.9540 0.9540 0.9500 0.9500 0.9500
5.578097 0.9480 0.9480 0.9480 0.9480 0.9500
5.612000 0.9500 0.9500 0.9500 0.9500 0.9480
5.646097 0.9480 0.9480 0.9480 0.9480 0.9470
5.681000 0.9470 0.9420 0.9400 0.9330 0.9330
5.715097 0.9310 0.9310 0.9300 0.9300 0.9300
5.749000 0.9310 0.9330 0.9360 0.9420 0.9420
5.783097 0.9420 0.9420 0.9420 0.9420 0.9420
5.817000 0.9420 0.9400 0.9380 0.9380 0.9380
5.851097 0.9380 0.9400 0.9400 0.9400 0.9400
5.885000 0.9400 0.9380 0.9380 0.9360 0.9360
5.919097 0.9360 0.9360 0.9350 0.9350 0.9330
5.953000 0.9330 0.9310 0.9310 0.9300 0.9280
5.987097 0.9260 0.9230 0.9190 0.9140 0.9130
6.021000 0.9110 0.9110 0.9110 0.9090 0.9040
6.055097 0.9010 0.8970 0.8900 0.8840 0.8800
6.090000 0.8770 0.8750 0.8750 0.8730 0.8730
6.124097 0.8720 0.8720 0.8700 0.8680 0.8680
6.158000 0.8650 0.8650 0.8650 0.8650 0.8620
6.192097 0.8620 0.8600 0.8560 0.8530 0.8500
6.226000 0.8500 0.8460 0.8360 0.8310 0.8290
6.260097 0.8220 0.8170 0.8140 0.8120 0.8020
6.294000 0.7870 0.7700 0.7640 0.7580 0.7520
6.328097 0.7470 0.7300 0.7080 0.6980 0.6810
6.362000 0.6520 0.6210 0.5190 0.4610 0.4030
6.396097 0.3640 0.3230 0.2720 0.2190 0.1650
6.430000 0.1390 0.1140 0.1100 0.1150 0.2400
6.464097 0.3160 0.3450 0.3670 0.3960 0.4050
6.499000 0.4100 0.4070 0.3880 0.3760 0.3620
6.533097 0.3300 0.3010 0.2790 0.2580 0.2530
6.567000 0.2470 0.2330 0.2230 0.2090 0.1900
6.601097 0.1680 0.1410 0.1220 0.1020 0.0900
6.635000 0.0760 0.0640 0.0520 0.0470 0.0450
6.669097 0.0440 0.0440 0.0420 0.0420 0.0420
6.703000 0.0420 0.0420 0.0420 0.0420 0.0420
6.737097 0.0440 0.0470 0.0520 0.0640 0.0640
6.771000 0.0630 0.0590 0.0560 0.0540 0.0520
6.805097 0.0540 0.0610 0.0660 0.0730 0.0780
6.839000 0.0830 0.0900 0.0970 0.1050 0.1100
6.873097 0.1140 0.1140 0.1220 0.1360 0.1410
6.907000 0.1430 0.1480 0.1580 0.1680 0.1770
6.941097 0.1890 0.2020 0.2180 0.2330 0.2470
6.976000 0.2690 0.2720 0.2790 0.2890 0.2960
7.010097 0.3030 0.3080 0.3180 0.3250 0.3280
7.044000 0.3300 0.3280 0.3180 0.3010 0.2770
7.078097 0.2570 0.2530 0.2480 0.2350 0.2230
7.112000 0.2070 0.2010 0.1990 0.2010 0.2040
7.146097 0.2120 0.2230 0.2350 0.2470 0.2550
7.180000 0.2600 0.2580 0.2530 0.2500 0.2470
7.214097 0.2430 0.2360 0.2330 0.2230 0.2190
7.248000 0.2190 0.2230 0.2770 0.3080 0.3320
7.282097 0.3490 0.3610 0.3670 0.3930 0.4020
7.316000 0.4150 0.4270 0.4410 0.4490 0.4560
7.350097 0.4580 0.4580 0.4590 0.4610 0.4650
7.385000 0.4700 0.4770 0.4820 0.4900 0.4990
7.419097 0.5160 0.5260 0.5360 0.5450 0.5530
7.453000 0.5650 0.5740 0.5860 0.5920 0.6010
7.487097 0.6110 0.6230 0.6490 0.6600 0.6710
7.521000 0.6740 0.6760 0.6760 0.6760 0.6740
7.555097 0.6670 0.6640 0.6640 0.6720 0.6840
7.589000 0.6910 0.6950 0.6950 0.6930 0.6910
7.623097 0.6910 0.6890 0.6860 0.6830 0.6810
7.657000 0.6790 0.6790 0.6780 0.6790 0.6830
7.691097 0.6890 0.6960 0.7010 0.7010 0.6960
7.725000 0.6930 0.6890 0.6890 0.6930 0.6980
7.759097 0.7050 0.7120 0.7120 0.7100 0.7100
7.794000 0.7120 0.7100 0.7100 0.7010 0.7000
7.828097 0.7030 0.7120 0.7200 0.7340 0.7410
7.862000 0.7540 0.7560 0.7540 0.7510 0.7470
7.896097 0.7370 0.7340 0.7340 0.7340 0.7370
7.930000 0.7460 0.7590 0.7610 0.7630 0.7640
7.964097 0.7660 0.7700 0.7710 0.7710 0.7730
7.998000 0.7710 0.7580 0.7510 0.7420 0.7420
8.032097 0.7410 0.7410 0.7440 0.7760 0.7800
8.066000 0.7810 0.7810 0.7800 0.7710 0.7700
8.100097 0.7700 0.7710 0.7730 0.7750 0.7750
8.134000 0.7730 0.7630 0.7610 0.7630 0.7700
8.168097 0.7730 0.7800 0.7880 0.7950 0.8000
8.203000 0.8090 0.8100 0.8120 0.8120 0.8100
8.237097 0.7970 0.7850 0.7780 0.7730 0.7730
8.271000 0.7710 0.7730 0.7760 0.7780 0.7800
8.305097 0.7870 0.7970 0.8070 0.8190 0.8310
8.339000 0.8330 0.8310 0.8310 0.8310 0.8290
8.373097 0.8240 0.8210 0.8190 0.8140 0.8100
8.407000 0.8050 0.8020 0.8020 0.8020 0.8140
8.441097 0.8270 0.8310 0.8330 0.8330 0.8340
8.475000 0.8380 0.8430 0.8460 0.8510 0.8530
8.509097 0.8530 0.8530 0.8550 0.8560 0.8580
8.543000 0.8580 0.8580 0.8600 0.8620 0.8650
8.577097 0.8670 0.8700 0.8720 0.8720 0.8670
8.611000 0.8670 0.8670 0.8700 0.8720 0.8730
8.645097 0.8730 0.8730 0.8720 0.8720 0.8730
8.680000 0.8770 0.8790 0.8800 0.8820 0.8870
8.714097 0.8900 0.8920 0.8970 0.9010 0.9090
8.748000 0.9130 0.9130 0.9110 0.9110 0.9110
8.782097 0.9130 0.9130 0.9130 0.9110 0.9060
8.816000 0.9040 0.8990 0.8940 0.8900 0.8900
8.850097 0.8890 0.8890 0.8890 0.8840 0.8800
8.884000 0.8790 0.8790 0.8770 0.8730 0.8680
8.918097 0.8620 0.8560 0.8500 0.8440 0.8340
8.952000 0.8220 0.8050 0.7780 0.7610 0.7440
8.986097 0.6960 0.6400 0.6210 0.6010 0.5990
9.020000 0.5970 0.5970 0.5960 0.5910 0.5700
9.054097 0.5680 0.5700 0.5990 0.6690 0.7000
9.089000 0.7240 0.7410 0.7630 0.7730 0.7850
9.123097 0.7970 0.8000 0.8070 0.8170 0.8240
9.157000 0.8240 0.8260 0.8290 0.8310 0.8330
9.191097 0.8360 0.8380 0.8380 0.8390 0.8410
9.225000 0.8410 0.8430 0.8500 0.8500 0.8500
9.259097 0.8500 0.8430 0.8430 0.8440 0.8530
9.293000 0.8530 0.8510 0.8500 0.8500 0.8500
9.327097 0.8500 0.8500 0.8500 0.8500 0.8500
9.361000 0.8500 0.8460 0.8460 0.8480 0.8480
9.395097 0.8510 0.8510 0.8510 0.8440 0.8440
9.429000 0.8480 0.8530 0.8580 0.8600 0.8600
9.463097 0.8580 0.8550 0.8530 0.8500 0.8460
9.498000 0.8480 0.8480 0.8500 0.8530 0.8550
9.532097 0.8560 0.8580 0.8600 0.8600 0.8580
9.566000 0.8580 0.8580 0.8580 0.8580 0.8620
9.600097 0.8630 0.8650 0.8630 0.8650 0.8650
9.634000 0.8650 0.8670 0.8670 0.8670 0.8700
9.668097 0.8700 0.8700 0.8700 0.8700 0.8700
9.702000 0.8700 0.8680 0.8650 0.8650 0.8650
9.736097 0.8650 0.8650 0.8650 0.8650 0.8650
9.770000 0.8670 0.8670 0.8700 0.8700 0.8700
9.804097 0.8680 0.8700 0.8700 0.8700 0.8700
9.838000 0.8700 0.8720 0.8720 0.8720 0.8720
9.872097 0.8720 0.8720 0.8700 0.8700 0.8680
9.907000 0.8680 0.8700 0.8720 0.8770 0.8770
9.941097 0.8790 0.8790 0.8770 0.8790 0.8790
9.975000 0.8800 0.8820 0.8820 0.8820 0.8800
10.009097 0.8800 0.8790 0.8770 0.8770 0.8770
10.043000 0.8770 0.8750 0.8750 0.8730 0.8730
10.077097 0.8720 0.8720 0.8720 0.8700 0.8680
10.111000 0.8670 0.8670 0.8650 0.8650 0.8670
10.145097 0.8670 0.8680 0.8700 0.8720 0.8730
10.179000 0.8730 0.8730 0.8720 0.8700 0.8680
10.213097 0.8650 0.8650 0.8650 0.8620 0.8620
10.247000 0.8620 0.8620 0.8600 0.8620 0.8580
10.281097 0.8550 0.8510 0.8480 0.8500 0.8530
10.315000 0.8550 0.8580 0.8620 0.8630 0.8630
10.349097 0.8650 0.8650 0.8650 0.8630 0.8650
10.384000 0.8650 0.8650 0.8650 0.8680 0.8700
10.418097 0.8700 0.8700 0.8670 0.8670 0.8670
10.452000 0.8650 0.8650 0.8650 0.8630 0.8630
10.486097 0.8620 0.8620 0.8620 0.8620 0.8620
10.520000 0.8630 0.8630 0.8630 0.8630 0.8630
10.554097 0.8630 0.8630 0.8630 0.8630 0.8670
10.588000 0.8700 0.8700 0.8680 0.8670 0.8670
10.622097 0.8670 0.8670 0.8670 0.8670 0.8670
10.656000 0.8670 0.8650 0.8630 0.8630 0.8620
10.690097 0.8600 0.8600 0.8600 0.8600 0.8600
10.724000 0.8560 0.8550 0.8530 0.8480 0.8360
10.758097 0.8310 0.8260 0.8240 0.8220 0.8220
10.793000 0.8240 0.8270 0.8310 0.8340 0.8380
10.827097 0.8390 0.8410 0.8410 0.8430 0.8430
10.861000 0.8440 0.8500 0.8510 0.8530 0.8530
10.895097 0.8550 0.8560 0.8560 0.8500 0.8500
10.929000 0.8510 0.8510 0.8500 0.8440 0.8440
10.963097 0.8440 0.8500 0.8560 0.8580 0.8600
10.997000 0.8600 0.8630 0.8630 0.8650 0.8650
11.031097 0.8670 0.8670 0.8680 0.8700 0.8700
11.065000 0.8680 0.8680 0.8680 0.8680 0.8680
11.099097 0.8680 0.8670 0.8670 0.8670 0.8670
11.133000 0.8670 0.8630 0.8630 0.8630 0.8630
11.167097 0.8630 0.8630 0.8630 0.8630 0.8630
11.202000 0.8560 0.8550 0.8510 0.8500 0.8440
11.236097 0.8390 0.8360 0.8330 0.8310 0.8290
11.270000 0.8290 0.8290 0.8310 0.8330 0.8340
11.304097 0.8390 0.8430 0.8480 0.8530 0.8550
11.338000 0.8550 0.8560 0.8580 0.8600 0.8600
11.372097 0.8600 0.8600 0.8600 0.8580 0.8560
11.406000 0.8550 0.8530 0.8510 0.8510 0.8510
11.440097 0.8530 0.8550 0.8550 0.8600 0.8620
11.474000 0.8620 0.8600 0.8530 0.8530 0.8550
11.508097 0.8620 0.8620 0.8620 0.8620 0.8620
11.542000 0.8620 0.8620 0.8580 0.8560 0.8560
11.576097 0.8560 0.8560 0.8560 0.8530 0.8530
11.611000 0.8530 0.8620 0.8620 0.8620 0.8580
11.645097 0.8560 0.8560 0.8560 0.8560 0.8550
11.679000 0.8530 0.8530 0.8530 0.8530 0.8510
11.713097 0.8510 0.8500 0.8440 0.8440 0.8440
11.747000 0.8440 0.8510 0.8510 0.8510 0.8460
11.781097 0.8430 0.8390 0.8380 0.8360 0.8340
11.815000 0.8330 0.8310 0.8310 0.8290 0.8270
11.849097 0.8270 0.8270 0.8260 0.8260 0.8240
11.883000 0.8240 0.8260 0.8290 0.8290 0.8270
11.917097 0.8270 0.8270 0.8270 0.8290 0.8290
11.951000 0.8310 0.8310 0.8330 0.8330 0.8340
11.985097 0.8360 0.8380 0.8380 0.8380 0.8410
12.019000 0.8410 0.8410 0.8410 0.8410 0.8410
12.053097 0.8410 0.8410 0.8410 0.8410 0.8390
12.088000 0.8390 0.8390 0.8410 0.8410 0.8430
12.122097 0.8430 0.8430 0.8430 0.8430 0.8430
12.156000 0.8430 0.8410 0.8410 0.8410 0.8410
12.190097 0.8410 0.8390 0.8380 0.8390 0.8380
12.224000 0.8380 0.8360 0.8340 0.8340 0.8340
12.258097 0.8330 0.8330 0.8330 0.8330 0.8330
12.292000 0.8330 0.8310 0.8310 0.8310 0.8290
12.326097 0.8310 0.8310 0.8310 0.8270 0.8270
12.360000 0.8270 0.8260 0.8260 0.8240 0.8220
12.394097 0.8220 0.8210 0.8220 0.8220 0.8220
12.428000 0.8210 0.8210 0.8210 0.8210 0.8220
12.462097 0.8270 0.8270 0.8260 0.8260 0.8260
12.497000 0.8260 0.8240 0.8240 0.8240 0.8220
12.531097 0.8240 0.8240 0.8240 0.8240 0.8240
12.565000 0.8240 0.8240 0.8220 0.8220 0.8210
12.599097 0.8240 0.8240 0.8220 0.8220 0.8220
12.633000 0.8220 0.8220 0.8220 0.8220 0.8220
12.667097 0.8220 0.8220 0.8220 0.8210 0.8210
12.701000 0.8210 0.8190 0.8170 0.8160 0.8120
12.735097 0.8120 0.8120 0.8100 0.8100 0.8090
12.769000 0.8090 0.8050 0.8020 0.8000 0.8000
12.803097 0.7980 0.7970 0.7930 0.7920 0.7920
12.837000 0.7920 0.7920 0.7930 0.7930 0.7950
12.871097 0.7950 0.7970 0.7950 0.7950 0.7950
12.906000 0.7950 0.7950 0.7950 0.7930 0.7930
12.940097 0.7930 0.7950 0.7930 0.7930 0.7930
12.974000 0.7930 0.7930 0.7930 0.7930 0.7930
13.008097 0.7900 0.7880 0.7850 0.7830 0.7780
13.042000 0.7780 0.7810 0.7800 0.7800 0.7750
13.076097 0.7730 0.7730 0.7730 0.7760 0.7760
13.110000 0.7730 0.7710 0.7710 0.7710 0.7730
13.144097 0.7730 0.7730 0.7730 0.7730 0.7730
13.178000 0.7730 0.7750 0.7760 0.7800 0.7810
13.212097 0.7830 0.7850 0.7850 0.7830 0.7810
13.246000 0.7810 0.7830 0.7830 0.7830 0.7830
13.280097 0.7850 0.7870 0.7880 0.7880 0.7870
13.315000 0.7850 0.7850 0.7850 0.7850 0.7830
13.349097 0.7810 0.7810 0.7800 0.7800 0.7780
13.383000 0.7760 0.7710 0.7700 0.7680 0.7700
13.417097 0.7700 0.7680 0.7660 0.7660 0.7660
13.451000 0.7640 0.7610 0.7590 0.7560 0.7560
13.485097 0.7540 0.7520 0.7510 0.7510 0.7510
13.519000 0.7490 0.7490 0.7470 0.7490 0.7470
13.553097 0.7460 0.7460 0.7440 0.7440 0.7420
13.587000 0.7410 0.7390 0.7350 0.7320 0.7300
13.621097 0.7290 0.7270 0.7200 0.7150 0.7080
13.655000 0.7030 0.6930 0.6810 0.6660 0.6470
13.689097 0.6300 0.6210 0.6110 0.5920 0.5750
13.723000 0.5600 0.5450 0.5310 0.5210 0.5170
13.757097 0.5190 0.5220 0.5280 0.5360 0.5460
13.792000 0.5530 0.5670 0.5770 0.5870 0.5970
13.826097 0.6010 0.6030 0.6090 0.6140 0.6160
13.860000 0.6180 0.6210 0.6230 0.6250 0.6250
13.894097 0.6230 0.6200 0.6140 0.6060 0.5970
13.928000 0.5910 0.5840 0.5770 0.5700 0.5630
13.962097 0.5580 0.5510 0.5480 0.5480 0.5570
13.996000 0.5630 0.5750 0.5910 0.6030 0.6140
14.030097 0.6380 0.6540 0.6690 0.6830 0.6950
14.064000 0.7030 0.7120 0.7180 0.7250 0.7320
14.098097 0.7370 0.7410 0.7460 0.7540 0.7560
14.132000 0.7590 0.7610 0.7630 0.7630 0.7630
14.166097 0.7630 0.7640 0.7660 0.7680 0.7680
14.201000 0.7680 0.7700 0.7710 0.7710 0.7710
14.235097 0.7730 0.7730 0.7730 0.7730 0.7750
14.269000 0.7800 0.7810 0.7810 0.7780 0.7780
14.303097 0.7780 0.7780 0.7780 0.7780 0.7780
14.337000 0.7800 0.7830 0.7850 0.7850 0.7830
14.371097 0.7830 0.7830 0.7830 0.7830 0.7850
14.405000 0.7850 0.7830 0.7830 0.7830 0.7830
14.439097 0.7830 0.7830 0.7810 0.7800 0.7750
14.473000 0.7730 0.7750 0.7750 0.7750 0.7750
14.507097 0.7750 0.7750 0.7760 0.7760 0.7760
14.541000 0.7760 0.7730 0.7710 0.7710 0.7700
14.575097 0.7700 0.7700 0.7680 0.7660 0.7640
14.610000 0.7610 0.7590 0.7580 0.7540 0.7520
14.644097 0.7510 0.7490 0.7460 0.7390 0.7340
14.678000 0.7300 0.7250 0.7240 0.7220 0.7170
14.712097 0.7130 0.7120 0.7100 0.7060 0.7050
14.746000 0.7050 0.7050 0.7060 0.7060 0.7060
14.780097 0.7080 0.7100 0.7120 0.7130 0.7180
14.814000 0.7240 0.7290 0.7300 0.7340 0.7370
14.848097 0.7410 0.7460 0.7540 0.7580 0.7610
14.882000 0.7610 0.7630 0.7630 0.7640 0.7660
14.916097 0.7660 0.7660 0.7660 0.7680 0.7680
14.950000 0.7680 0.7680 0.7680 0.7660 0.7640
14.984097 0.7630 0.7590 0.7560 0.7520 0.7510
15.019000 0.7510 0.7490 0.7460 0.7440 0.7420
15.053097 0.7390 0.7320 0.7270 0.7270 0.7290
15.087000 0.7300 0.7300 0.7320 0.7340 0.7370
15.121097 0.7410 0.7420 0.7460 0.7490 0.7520
15.155000 0.7540 0.7520 0.7510 0.7510 0.7490
15.189097 0.7440 0.7420 0.7370 0.7350 0.7320
15.223000 0.7300 0.7290 0.7270 0.7250 0.7240
15.257097 0.7220 0.7200 0.7200 0.7180 0.7150
15.291000 0.7120 0.7060 0.7060 0.7030 0.7030
15.325097 0.7030 0.7030 0.7030 0.7030 0.7010
15.359000 0.7010 0.7000 0.6980 0.6960 0.6960
15.393097 0.6950 0.6910 0.6890 0.6890 0.6910
15.427000 0.6910 0.6910 0.6910 0.6930 0.6930
15.461097 0.6930 0.6910 0.6910 0.6910 0.6910
15.496000 0.6890 0.6910 0.6910 0.6910 0.6910
15.530097 0.6910 0.6910 0.6910 0.6910 0.6930
15.564000 0.6930 0.6930 0.6930 0.6950 0.6950
15.598097 0.6960 0.6980 0.7000 0.7010 0.7010
15.632000 0.7010 0.7010 0.7030 0.7010 0.7010
15.666097 0.7000 0.7000 0.6980 0.6980 0.6980
15.700000 0.6980 0.6980 0.6980 0.6980 0.6980
15.734097 0.6980 0.6980 0.6980 0.6980 0.6980
15.768000 0.6980 0.6960 0.6960 0.6950 0.6950
15.802097 0.6950 0.6930 0.6930 0.6910 0.6910
15.836000 0.6930 0.6930 0.6930 0.6930 0.6910
15.870097 0.6890 0.6890 0.6880 0.6880 0.6880
15.905000 0.6860 0.6840 0.6810 0.6810 0.6810
15.939097 0.6840 0.6840 0.6860 0.6860 0.6860
15.973000 0.6830 0.6810 0.6840 0.6860 0.6860
16.007097 0.6860 0.6830
##END=
