##TITLE=3,3'-ETHYLENE BIS-(4-METHYL-2-THIAZOLE)-THIONE
##JCAMP-DX=4.24
##DATA TYPE=INFRARED SPECTRUM
##CLASS=COBLENTZ
##ORIGIN=DOW CHEMICAL COMPANY
##OWNER=COBLENTZ SOCIETY
Collection (C) 2018 copyright by the U.S. Secretary of Commerce
on behalf of the United States of America. All rights reserved.
##DATE=Not specified, most likely prior to 1970
##MOLFORM=C10 H10 N2 S4
##SOURCE REFERENCE=COBLENTZ NO. 1655
##$NIST ID=B6001655
##$NIST SOURCE=COBLENTZ
##$NIST IMAGE=cob1655
##SPECTROMETER/DATA SYSTEM=Not specified, most likely a prism, grating, or hybrid spectrometer.
##STATE=SOLID (MINERAL OIL MULL)
##PATH LENGTH=
$$SPECTRAL CONTAMINATION DUE TO OIL AROUND 2900 CM^-^1
##SAMPLING PROCEDURE=TRANSMISSION
##RESOLUTION=4
##DATA PROCESSING=DIGITIZED BY NIST FROM HARD COPY
##XUNITS=MICROMETERS
##YUNITS=TRANSMITTANCE
##XFACTOR=1.000000
##YFACTOR=1
##DELTAX=000.006869
##FIRSTX=2
##LASTX=15.8966
##FIRSTY=0.646
##MAXX=15.8966
##MINX=2
##MAXY=0.915
##MINY=0.111
##NPOINTS=2024
##XYDATA=(X++(Y..Y))
2.000000 0.6460 0.6460 0.6460 0.6460 0.6460
2.034364 0.6470 0.6470 0.6490 0.6490 0.6510
2.069000 0.6510 0.6520 0.6540 0.6560 0.6580
2.103364 0.6590 0.6610 0.6630 0.6660 0.6680
2.137000 0.6680 0.6710 0.6730 0.6750 0.6750
2.171364 0.6780 0.6780 0.6780 0.6780 0.6780
2.206000 0.6780 0.6780 0.6800 0.6800 0.6800
2.240364 0.6800 0.6800 0.6800 0.6820 0.6820
2.275000 0.6820 0.6830 0.6850 0.6850 0.6870
2.309364 0.6870 0.6890 0.6900 0.6920 0.6940
2.343000 0.6970 0.6990 0.6990 0.7010 0.7020
2.377364 0.7020 0.7040 0.7040 0.7070 0.7090
2.412000 0.7090 0.7130 0.7140 0.7160 0.7160
2.446364 0.7180 0.7180 0.7190 0.7190 0.7210
2.481000 0.7210 0.7250 0.7260 0.7280 0.7300
2.515364 0.7300 0.7310 0.7310 0.7330 0.7330
2.550000 0.7330 0.7350 0.7370 0.7370 0.7380
2.584364 0.7380 0.7400 0.7400 0.7430 0.7430
2.618000 0.7450 0.7470 0.7470 0.7490 0.7490
2.652364 0.7520 0.7560 0.7570 0.7610 0.7620
2.687000 0.7620 0.7620 0.7620 0.7620 0.7620
2.721364 0.7620 0.7640 0.7640 0.7640 0.7660
2.756000 0.7680 0.7690 0.7690 0.7690 0.7710
2.790364 0.7710 0.7740 0.7740 0.7740 0.7740
2.824000 0.7740 0.7740 0.7740 0.7740 0.7740
2.858364 0.7740 0.7760 0.7760 0.7780 0.7800
2.893000 0.7800 0.7810 0.7810 0.7830 0.7830
2.927364 0.7850 0.7850 0.7850 0.7860 0.7860
2.962000 0.7860 0.7880 0.7880 0.7880 0.7900
2.996364 0.7900 0.7900 0.7920 0.7930 0.7950
3.030000 0.7950 0.7970 0.7980 0.7980 0.8000
3.064364 0.8020 0.8020 0.8020 0.8020 0.8040
3.099000 0.8040 0.8040 0.8040 0.8020 0.8000
3.133364 0.8000 0.7980 0.7970 0.7920 0.7900
3.168000 0.7880 0.7810 0.7740 0.7660 0.7610
3.202364 0.7540 0.7490 0.7450 0.7470 0.7490
3.237000 0.7540 0.7640 0.7730 0.7800 0.7810
3.271364 0.7830 0.7830 0.7780 0.7690 0.7570
3.305000 0.7450 0.7310 0.7180 0.6990 0.6680
3.339364 0.5770 0.5180 0.4450 0.3950 0.3400
3.374000 0.2380 0.2040 0.1730 0.1560 0.1150
3.408364 0.1110 0.1150 0.1540 0.2040 0.2520
3.443000 0.2780 0.2970 0.3000 0.3020 0.3050
3.477364 0.3090 0.3470 0.3840 0.5290 0.6440
3.511000 0.6730 0.7020 0.7490 0.7690 0.7860
3.545364 0.7970 0.8000 0.8040 0.8090 0.8120
3.580000 0.8170 0.8230 0.8260 0.8280 0.8280
3.614364 0.8280 0.8290 0.8290 0.8310 0.8310
3.649000 0.8310 0.8290 0.8290 0.8280 0.8280
3.683364 0.8280 0.8290 0.8310 0.8330 0.8350
3.717000 0.8350 0.8350 0.8360 0.8360 0.8380
3.751364 0.8380 0.8380 0.8400 0.8410 0.8430
3.786000 0.8450 0.8480 0.8500 0.8500 0.8520
3.820364 0.8520 0.8520 0.8520 0.8530 0.8530
3.855000 0.8530 0.8530 0.8570 0.8570 0.8590
3.889364 0.8600 0.8620 0.8620 0.8650 0.8650
3.923000 0.8690 0.8690 0.8710 0.8710 0.8720
3.957364 0.8720 0.8740 0.8760 0.8760 0.8760
3.992000 0.8780 0.8780 0.8780 0.8780 0.8780
4.026364 0.8780 0.8780 0.8780 0.8780 0.8780
4.061000 0.8780 0.8780 0.8780 0.8760 0.8760
4.095364 0.8760 0.8760 0.8760 0.8760 0.8760
4.130000 0.8760 0.8760 0.8760 0.8740 0.8740
4.164364 0.8720 0.8720 0.8720 0.8720 0.8710
4.198000 0.8710 0.8710 0.8710 0.8720 0.8740
4.232364 0.8740 0.8740 0.8760 0.8760 0.8780
4.267000 0.8790 0.8810 0.8830 0.8840 0.8880
4.301364 0.8880 0.8900 0.8900 0.8900 0.8900
4.336000 0.8900 0.8880 0.8860 0.8860 0.8860
4.370364 0.8860 0.8860 0.8860 0.8860 0.8860
4.404000 0.8860 0.8880 0.8880 0.8880 0.8880
4.438364 0.8880 0.8900 0.8900 0.8900 0.8900
4.473000 0.8900 0.8900 0.8910 0.8910 0.8900
4.507364 0.8900 0.8900 0.8900 0.8900 0.8900
4.542000 0.8900 0.8900 0.8900 0.8900 0.8900
4.576364 0.8900 0.8900 0.8900 0.8900 0.8900
4.610000 0.8900 0.8900 0.8900 0.8900 0.8910
4.644364 0.8910 0.8910 0.8930 0.8930 0.8930
4.679000 0.8930 0.8950 0.8950 0.8960 0.8980
4.713364 0.8980 0.8980 0.9000 0.9000 0.9000
4.748000 0.9000 0.9000 0.9000 0.9000 0.8980
4.782364 0.8980 0.8980 0.9000 0.9000 0.8980
4.816000 0.8980 0.8980 0.8980 0.8980 0.8960
4.850364 0.8960 0.8980 0.8980 0.8980 0.8980
4.885000 0.9000 0.9020 0.9020 0.9020 0.9030
4.919364 0.9030 0.9030 0.9030 0.9030 0.9030
4.954000 0.9030 0.9030 0.9030 0.9030 0.9030
4.988364 0.9030 0.9030 0.9020 0.9000 0.9000
5.023000 0.9000 0.9000 0.9000 0.9000 0.9000
5.057364 0.9020 0.9020 0.9030 0.9030 0.9030
5.091000 0.9030 0.9030 0.9030 0.9030 0.9030
5.125364 0.9050 0.9050 0.9070 0.9070 0.9080
5.160000 0.9100 0.9120 0.9140 0.9150 0.9150
5.194364 0.9140 0.9120 0.9120 0.9100 0.9100
5.229000 0.9100 0.9100 0.9100 0.9100 0.9100
5.263364 0.9100 0.9100 0.9100 0.9100 0.9100
5.297000 0.9100 0.9100 0.9080 0.9080 0.9080
5.331364 0.9080 0.9100 0.9100 0.9080 0.9080
5.366000 0.9070 0.9070 0.9070 0.9050 0.9050
5.400364 0.9030 0.9020 0.9020 0.9020 0.9030
5.435000 0.9030 0.9050 0.9070 0.9080 0.9080
5.469364 0.9080 0.9100 0.9120 0.9120 0.9120
5.503000 0.9120 0.9120 0.9100 0.9100 0.9080
5.537364 0.9080 0.9080 0.9100 0.9100 0.9100
5.572000 0.9100 0.9100 0.9080 0.9080 0.9080
5.606364 0.9100 0.9100 0.9100 0.9100 0.9120
5.641000 0.9150 0.9150 0.9150 0.9120 0.9100
5.675364 0.9080 0.9070 0.9020 0.8980 0.8960
5.710000 0.8950 0.8950 0.8930 0.8930 0.8930
5.744364 0.8930 0.8950 0.8950 0.8960 0.8960
5.778000 0.8960 0.8960 0.8980 0.8960 0.8980
5.812364 0.8980 0.8980 0.8980 0.8980 0.8980
5.847000 0.8980 0.8980 0.8980 0.9000 0.9000
5.881364 0.9000 0.9000 0.9000 0.9000 0.9000
5.916000 0.9000 0.9000 0.8980 0.8980 0.8960
5.950364 0.8960 0.8960 0.8960 0.8960 0.8980
5.984000 0.8980 0.8980 0.8980 0.9000 0.9000
6.018364 0.9000 0.9020 0.9030 0.9030 0.9050
6.053000 0.9050 0.9070 0.9080 0.9080 0.9080
6.087364 0.9100 0.9100 0.9100 0.9080 0.9080
6.122000 0.9080 0.9070 0.9070 0.9070 0.9050
6.156364 0.9050 0.9050 0.9020 0.9020 0.9000
6.190000 0.8980 0.8910 0.8900 0.8830 0.8740
6.224364 0.8600 0.8450 0.8240 0.8040 0.7810
6.259000 0.7570 0.7350 0.7110 0.6890 0.6590
6.293364 0.6590 0.6590 0.6700 0.6780 0.7500
6.328000 0.8070 0.8480 0.8640 0.8740 0.8780
6.362364 0.8810 0.8830 0.8830 0.8830 0.8830
6.396000 0.8830 0.8830 0.8830 0.8830 0.8830
6.430364 0.8830 0.8840 0.8860 0.8860 0.8880
6.465000 0.8880 0.8900 0.8950 0.8980 0.9000
6.499364 0.9000 0.9000 0.9000 0.9000 0.9000
6.534000 0.9000 0.9000 0.9000 0.9000 0.9000
6.568364 0.9000 0.9000 0.9000 0.9000 0.9000
6.603000 0.9000 0.8980 0.8960 0.8950 0.8930
6.637364 0.8910 0.8880 0.8860 0.8810 0.8790
6.671000 0.8780 0.8780 0.8740 0.8670 0.8650
6.705364 0.8590 0.8520 0.8430 0.8310 0.8160
6.740000 0.8020 0.7880 0.7690 0.7470 0.7210
6.774364 0.6920 0.6320 0.6030 0.5800 0.5580
6.809000 0.5460 0.5420 0.5390 0.5390 0.5410
6.843364 0.5440 0.5490 0.5540 0.5560 0.5560
6.877000 0.5540 0.5480 0.5420 0.5370 0.5360
6.911364 0.5360 0.5370 0.5650 0.5890 0.6200
6.946000 0.6420 0.6510 0.6560 0.6560 0.6560
6.980364 0.6560 0.6560 0.6590 0.6830 0.7070
7.015000 0.7300 0.7490 0.8120 0.8410 0.8500
7.049364 0.8550 0.8550 0.8550 0.8550 0.8550
7.083000 0.8570 0.8570 0.8590 0.8590 0.8590
7.117364 0.8570 0.8550 0.8480 0.8360 0.8280
7.152000 0.8190 0.8050 0.7920 0.7780 0.7620
7.186364 0.7450 0.7280 0.7110 0.6920 0.6700
7.221000 0.6470 0.6390 0.6320 0.6250 0.6150
7.255364 0.5990 0.5790 0.5510 0.5200 0.4860
7.289000 0.4320 0.3930 0.3520 0.2470 0.2280
7.323364 0.2210 0.2250 0.3160 0.3760 0.4360
7.358000 0.5410 0.5770 0.6090 0.6200 0.6200
7.392364 0.6160 0.5940 0.5680 0.5370 0.5170
7.427000 0.4960 0.4810 0.4460 0.4410 0.4410
7.461364 0.4460 0.5220 0.6010 0.6390 0.6760
7.496000 0.7210 0.7470 0.7660 0.7760 0.7850
7.530364 0.7860 0.7850 0.7830 0.7730 0.7570
7.564000 0.7400 0.7180 0.6970 0.6800 0.6470
7.598364 0.6230 0.5870 0.5580 0.5530 0.5530
7.633000 0.5560 0.5840 0.6180 0.6610 0.6830
7.667364 0.7040 0.7300 0.7520 0.7690 0.7850
7.702000 0.7970 0.8050 0.8120 0.8170 0.8210
7.736364 0.8240 0.8280 0.8290 0.8310 0.8310
7.770000 0.8310 0.8310 0.8310 0.8330 0.8330
7.804364 0.8330 0.8350 0.8350 0.8360 0.8360
7.839000 0.8360 0.8380 0.8360 0.8360 0.8360
7.873364 0.8360 0.8360 0.8380 0.8380 0.8380
7.908000 0.8380 0.8380 0.8400 0.8400 0.8400
7.942364 0.8400 0.8400 0.8410 0.8410 0.8410
7.976000 0.8410 0.8410 0.8410 0.8410 0.8430
8.010364 0.8430 0.8430 0.8430 0.8430 0.8430
8.045000 0.8430 0.8430 0.8430 0.8430 0.8430
8.079364 0.8430 0.8430 0.8410 0.8410 0.8400
8.114000 0.8380 0.8360 0.8350 0.8280 0.8240
8.148364 0.8190 0.8160 0.8090 0.8020 0.7970
8.183000 0.7810 0.7760 0.7610 0.7420 0.7250
8.217364 0.7130 0.7070 0.6990 0.6870 0.6820
8.251000 0.6820 0.6820 0.6850 0.7110 0.7370
8.285364 0.7610 0.7860 0.7980 0.8040 0.8120
8.320000 0.8140 0.8160 0.8160 0.8160 0.8160
8.354364 0.8170 0.8170 0.8160 0.8140 0.8090
8.389000 0.8040 0.7920 0.7780 0.7660 0.7560
8.423364 0.7420 0.7280 0.7070 0.6800 0.6110
8.457000 0.5560 0.5200 0.4770 0.4270 0.3740
8.491364 0.2660 0.2190 0.1800 0.1540 0.1440
8.526000 0.1280 0.1210 0.1200 0.1210 0.1440
8.560364 0.1580 0.1850 0.2280 0.3050 0.3520
8.595000 0.3980 0.4190 0.4320 0.5510 0.5910
8.629364 0.6230 0.6560 0.6700 0.6830 0.7010
8.663000 0.7180 0.7280 0.7370 0.7400 0.7400
8.697364 0.7380 0.7310 0.7130 0.6920 0.6680
8.732000 0.6160 0.5920 0.5610 0.5320 0.5010
8.766364 0.4720 0.4570 0.4450 0.4410 0.4450
8.801000 0.4860 0.5290 0.5870 0.6420 0.6660
8.835364 0.6900 0.7450 0.7710 0.7920 0.7980
8.869000 0.8020 0.8050 0.8070 0.8070 0.8070
8.903364 0.8090 0.8090 0.8140 0.8190 0.8210
8.938000 0.8230 0.8240 0.8240 0.8240 0.8240
8.972364 0.8240 0.8260 0.8260 0.8240 0.8260
9.007000 0.8260 0.8260 0.8240 0.8240 0.8240
9.041364 0.8240 0.8240 0.8240 0.8240 0.8240
9.076000 0.8240 0.8260 0.8290 0.8290 0.8310
9.110364 0.8310 0.8330 0.8350 0.8350 0.8350
9.144000 0.8350 0.8350 0.8350 0.8350 0.8350
9.178364 0.8350 0.8350 0.8360 0.8360 0.8360
9.213000 0.8360 0.8360 0.8360 0.8360 0.8360
9.247364 0.8360 0.8350 0.8350 0.8350 0.8350
9.282000 0.8350 0.8360 0.8360 0.8360 0.8360
9.316364 0.8360 0.8360 0.8360 0.8360 0.8380
9.350000 0.8380 0.8380 0.8400 0.8400 0.8400
9.384364 0.8410 0.8430 0.8430 0.8450 0.8450
9.419000 0.8470 0.8470 0.8470 0.8470 0.8470
9.453364 0.8470 0.8450 0.8430 0.8430 0.8430
9.488000 0.8410 0.8410 0.8410 0.8410 0.8410
9.522364 0.8410 0.8410 0.8410 0.8400 0.8400
9.556000 0.8380 0.8360 0.8290 0.8280 0.8210
9.590364 0.8160 0.8090 0.8050 0.7980 0.7970
9.625000 0.7930 0.7860 0.7850 0.7830 0.7850
9.659364 0.7860 0.7970 0.8020 0.8140 0.8260
9.694000 0.8360 0.8380 0.8400 0.8410 0.8430
9.728364 0.8430 0.8430 0.8430 0.8430 0.8410
9.763000 0.8410 0.8400 0.8400 0.8380 0.8350
9.797364 0.8280 0.8190 0.8070 0.8020 0.7860
9.831000 0.7710 0.7590 0.7420 0.7230 0.6950
9.865364 0.6730 0.6230 0.6030 0.5870 0.5790
9.900000 0.5790 0.5800 0.5970 0.6180 0.6460
9.934364 0.6610 0.6660 0.6660 0.6630 0.6460
9.969000 0.6230 0.6010 0.5670 0.5390 0.5100
10.003364 0.4810 0.4550 0.4320 0.4220 0.4150
10.037000 0.4070 0.3960 0.3950 0.3960 0.4020
10.071364 0.4150 0.4380 0.4670 0.5120 0.5530
10.106000 0.5850 0.6200 0.6540 0.6730 0.6900
10.140364 0.7230 0.7520 0.7740 0.7850 0.7930
10.175000 0.8000 0.8050 0.8120 0.8210 0.8290
10.209364 0.8350 0.8360 0.8360 0.8380 0.8400
10.243000 0.8400 0.8410 0.8410 0.8430 0.8430
10.277364 0.8430 0.8430 0.8430 0.8430 0.8430
10.312000 0.8410 0.8410 0.8410 0.8400 0.8400
10.346364 0.8400 0.8410 0.8430 0.8450 0.8470
10.381000 0.8480 0.8500 0.8530 0.8530 0.8550
10.415364 0.8550 0.8570 0.8590 0.8600 0.8600
10.449000 0.8620 0.8650 0.8670 0.8670 0.8690
10.483364 0.8690 0.8690 0.8690 0.8710 0.8710
10.518000 0.8710 0.8710 0.8710 0.8690 0.8690
10.552364 0.8690 0.8690 0.8710 0.8710 0.8720
10.587000 0.8720 0.8740 0.8760 0.8760 0.8760
10.621364 0.8760 0.8760 0.8760 0.8780 0.8780
10.656000 0.8780 0.8780 0.8780 0.8780 0.8780
10.690364 0.8790 0.8780 0.8780 0.8780 0.8780
10.724000 0.8780 0.8780 0.8780 0.8780 0.8780
10.758364 0.8780 0.8780 0.8780 0.8780 0.8790
10.793000 0.8810 0.8810 0.8810 0.8810 0.8810
10.827364 0.8810 0.8830 0.8830 0.8830 0.8840
10.862000 0.8840 0.8860 0.8860 0.8860 0.8860
10.896364 0.8860 0.8860 0.8840 0.8860 0.8860
10.930000 0.8860 0.8860 0.8860 0.8860 0.8860
10.964364 0.8860 0.8860 0.8860 0.8880 0.8900
10.999000 0.8900 0.8900 0.8900 0.8910 0.8910
11.033364 0.8910 0.8910 0.8910 0.8910 0.8910
11.068000 0.8910 0.8910 0.8910 0.8910 0.8900
11.102364 0.8900 0.8900 0.8900 0.8900 0.8900
11.136000 0.8900 0.8900 0.8900 0.8900 0.8900
11.170364 0.8900 0.8900 0.8880 0.8880 0.8880
11.205000 0.8880 0.8880 0.8880 0.8880 0.8880
11.239364 0.8880 0.8880 0.8880 0.8900 0.8900
11.274000 0.8910 0.8910 0.8910 0.8910 0.8950
11.308364 0.8950 0.8960 0.8960 0.8980 0.8980
11.342000 0.8980 0.8960 0.8960 0.8960 0.8960
11.376364 0.8960 0.8980 0.8980 0.8980 0.8980
11.411000 0.8980 0.8980 0.8980 0.8960 0.8980
11.445364 0.8980 0.8960 0.8960 0.8960 0.8960
11.480000 0.8960 0.8950 0.8950 0.8930 0.8910
11.514364 0.8880 0.8880 0.8880 0.8880 0.8880
11.549000 0.8880 0.8880 0.8880 0.8880 0.8880
11.583364 0.8900 0.8930 0.8950 0.8950 0.8950
11.617000 0.8960 0.8960 0.8960 0.8960 0.8960
11.651364 0.8960 0.8960 0.8960 0.8960 0.8960
11.686000 0.8960 0.8960 0.8950 0.8930 0.8930
11.720364 0.8930 0.8930 0.8930 0.8930 0.8930
11.755000 0.8930 0.8910 0.8900 0.8900 0.8860
11.789364 0.8790 0.8710 0.8600 0.8470 0.8330
11.823000 0.8170 0.7980 0.7810 0.7660 0.7520
11.857364 0.7400 0.7230 0.7160 0.7140 0.7160
11.892000 0.7280 0.7490 0.7780 0.8040 0.8280
11.926364 0.8450 0.8570 0.8600 0.8670 0.8740
11.961000 0.8780 0.8810 0.8830 0.8880 0.8900
11.995364 0.8900 0.8910 0.8910 0.8930 0.8950
12.029000 0.8950 0.8950 0.8950 0.8950 0.8950
12.063364 0.8950 0.8950 0.8950 0.8950 0.8950
12.098000 0.8950 0.8960 0.8960 0.8960 0.8960
12.132364 0.8960 0.8960 0.8960 0.8980 0.8980
12.167000 0.8980 0.8980 0.8980 0.8980 0.8980
12.201364 0.8980 0.8980 0.8980 0.8980 0.8980
12.236000 0.8980 0.8980 0.8980 0.8980 0.8980
12.270364 0.8980 0.8980 0.8980 0.8980 0.8980
12.304000 0.8980 0.8980 0.8980 0.8980 0.8980
12.338364 0.8960 0.8960 0.8960 0.8950 0.8950
12.373000 0.8950 0.8930 0.8930 0.8930 0.8910
12.407364 0.8910 0.8910 0.8910 0.8910 0.8910
12.442000 0.8910 0.8910 0.8910 0.8910 0.8910
12.476364 0.8910 0.8910 0.8910 0.8900 0.8900
12.510000 0.8900 0.8880 0.8860 0.8860 0.8860
12.544364 0.8860 0.8860 0.8860 0.8860 0.8860
12.579000 0.8860 0.8830 0.8830 0.8810 0.8810
12.613364 0.8810 0.8810 0.8810 0.8810 0.8810
12.648000 0.8810 0.8810 0.8810 0.8810 0.8810
12.682364 0.8780 0.8760 0.8760 0.8760 0.8760
12.716000 0.8760 0.8760 0.8760 0.8760 0.8740
12.750364 0.8760 0.8760 0.8760 0.8760 0.8760
12.785000 0.8760 0.8760 0.8760 0.8760 0.8760
12.819364 0.8740 0.8740 0.8740 0.8720 0.8720
12.854000 0.8710 0.8710 0.8690 0.8690 0.8690
12.888364 0.8690 0.8670 0.8670 0.8670 0.8670
12.922000 0.8650 0.8650 0.8650 0.8640 0.8640
12.956364 0.8640 0.8640 0.8620 0.8620 0.8620
12.991000 0.8600 0.8590 0.8590 0.8570 0.8570
13.025364 0.8550 0.8530 0.8530 0.8530 0.8520
13.060000 0.8500 0.8500 0.8500 0.8520 0.8500
13.094364 0.8500 0.8500 0.8500 0.8480 0.8480
13.129000 0.8470 0.8470 0.8450 0.8410 0.8400
13.163364 0.8380 0.8360 0.8350 0.8330 0.8330
13.197000 0.8310 0.8310 0.8290 0.8280 0.8280
13.231364 0.8260 0.8260 0.8240 0.8240 0.8230
13.266000 0.8210 0.8190 0.8170 0.8160 0.8140
13.300364 0.8120 0.8090 0.8090 0.8070 0.8050
13.335000 0.8040 0.8020 0.8000 0.7980 0.7970
13.369364 0.7950 0.7920 0.7860 0.7830 0.7810
13.403000 0.7780 0.7760 0.7690 0.7680 0.7610
13.437364 0.7540 0.7490 0.7430 0.7330 0.7230
13.472000 0.7130 0.7020 0.6920 0.6780 0.6680
13.506364 0.6420 0.6300 0.6160 0.6030 0.5910
13.541000 0.5770 0.5610 0.5460 0.5340 0.5240
13.575364 0.5130 0.5030 0.4810 0.4580 0.4450
13.609000 0.4290 0.4100 0.4030 0.3980 0.3900
13.643364 0.3790 0.3720 0.3710 0.3710 0.3740
13.678000 0.3900 0.4080 0.4360 0.4550 0.4870
13.712364 0.5130 0.5370 0.5560 0.5730 0.5890
13.747000 0.6030 0.6150 0.6280 0.6370 0.6470
13.781364 0.6590 0.6640 0.6700 0.6800 0.6830
13.816000 0.6900 0.6920 0.6970 0.6990 0.7010
13.850364 0.7060 0.7070 0.7090 0.7140 0.7160
13.884000 0.7210 0.7250 0.7250 0.7260 0.7280
13.918364 0.7280 0.7330 0.7350 0.7370 0.7370
13.953000 0.7380 0.7380 0.7380 0.7380 0.7420
13.987364 0.7450 0.7470 0.7470 0.7470 0.7470
14.022000 0.7470 0.7470 0.7470 0.7470 0.7470
14.056364 0.7470 0.7470 0.7490 0.7470 0.7470
14.090000 0.7470 0.7470 0.7470 0.7490 0.7500
14.124364 0.7500 0.7500 0.7500 0.7500 0.7500
14.159000 0.7490 0.7490 0.7470 0.7470 0.7470
14.193364 0.7450 0.7470 0.7470 0.7470 0.7470
14.228000 0.7470 0.7470 0.7450 0.7450 0.7430
14.262364 0.7400 0.7400 0.7380 0.7380 0.7380
14.296000 0.7380 0.7380 0.7380 0.7370 0.7370
14.330364 0.7370 0.7370 0.7370 0.7370 0.7350
14.365000 0.7350 0.7330 0.7310 0.7310 0.7300
14.399364 0.7280 0.7280 0.7260 0.7250 0.7250
14.434000 0.7230 0.7210 0.7190 0.7190 0.7190
14.468364 0.7190 0.7190 0.7180 0.7180 0.7180
14.502000 0.7160 0.7140 0.7130 0.7130 0.7110
14.536364 0.7110 0.7090 0.7090 0.7070 0.7070
14.571000 0.7060 0.7060 0.7040 0.7040 0.7020
14.605364 0.7020 0.7010 0.6990 0.6970 0.6950
14.640000 0.6940 0.6920 0.6900 0.6900 0.6890
14.674364 0.6870 0.6850 0.6850 0.6830 0.6820
14.709000 0.6800 0.6780 0.6760 0.6760 0.6750
14.743364 0.6750 0.6730 0.6730 0.6730 0.6710
14.777000 0.6700 0.6700 0.6680 0.6640 0.6640
14.811364 0.6630 0.6590 0.6590 0.6580 0.6560
14.846000 0.6520 0.6520 0.6510 0.6490 0.6470
14.880364 0.6470 0.6460 0.6460 0.6440 0.6440
14.915000 0.6420 0.6420 0.6400 0.6390 0.6390
14.949364 0.6370 0.6370 0.6350 0.6340 0.6340
14.983000 0.6320 0.6300 0.6280 0.6270 0.6250
15.017364 0.6230 0.6180 0.6160 0.6130 0.6090
15.052000 0.6090 0.6080 0.6080 0.6060 0.6040
15.086364 0.6030 0.6030 0.6030 0.6010 0.6010
15.121000 0.5990 0.5990 0.5990 0.5970 0.5960
15.155364 0.5940 0.5940 0.5920 0.5890 0.5890
15.189000 0.5870 0.5850 0.5850 0.5850 0.5840
15.223364 0.5840 0.5820 0.5820 0.5800 0.5790
15.258000 0.5790 0.5770 0.5770 0.5750 0.5750
15.292364 0.5750 0.5750 0.5750 0.5750 0.5750
15.327000 0.5730 0.5730 0.5720 0.5700 0.5680
15.361364 0.5670 0.5650 0.5600 0.5580 0.5580
15.395000 0.5580 0.5560 0.5530 0.5490 0.5480
15.429364 0.5460 0.5440 0.5420 0.5410 0.5390
15.464000 0.5390 0.5390 0.5370 0.5370 0.5360
15.498364 0.5360 0.5320 0.5300 0.5300 0.5290
15.533000 0.5290 0.5270 0.5250 0.5250 0.5240
15.567364 0.5240 0.5220 0.5200 0.5200 0.5180
15.602000 0.5170 0.5170 0.5150 0.5130 0.5130
15.636364 0.5130 0.5120 0.5120 0.5120 0.5080
15.670000 0.5050 0.5000 0.5000 0.4980 0.4980
15.704364 0.4980 0.4960 0.4960 0.4940 0.4940
15.739000 0.4940 0.4940 0.4910 0.4890 0.4870
15.773364 0.4860 0.4820 0.4820 0.4790 0.4770
15.808000 0.4750 0.4740 0.4740 0.4720 0.4720
15.842364 0.4700 0.4700 0.4700 0.4700 0.4700
15.876000 0.4700 0.4700 0.4700 0.4700
##END=
