##TITLE=Chromium, tricarbonyl(mesitylene)-
##JCAMP-DX=4.24
$$ By DXEDIT 1.05 (RS McDonald)
##DATA TYPE=INFRARED SPECTRUM
##CLASS=COBLENTZ III
##ORIGIN=DOW CHEMICAL COMPANY
##OWNER=COPYRIGHT (C) 1988 by COBLENTZ SOCIETY INC.
Collection (C) 2018 copyright by the U.S. Secretary of Commerce
on behalf of the United States of America. All rights reserved.
##DATE=1968/10/23
##MOLFORM=C12 H12 Cr O3
##SOURCE REFERENCE=COBLENTZ NO. 07188
##$NIST ID=B6007188
##$NIST SOURCE=COBLENTZ
##$NIST IMAGE=cob7188
##SPECTROMETER/DATA SYSTEM=DOW KBr FOREPRISM-GRATING
##INSTRUMENT PARAMETERS=BLAZED AT 3.5, 12.0, 20.0 MICRON AND CHANGED AT 5.0, 7.5, 14.9 MICRON
##STATE=SOLID (SPLIT MULL), FLUOROLUBE FOR 3800-1330 CM^-^1, NUJOL FOR 1330-470 CM^-^1
##SAMPLING PROCEDURE=TRANSMISSION
##RESOLUTION=2
##DATA PROCESSING=DIGITIZED BY COBLENTZ SOCIETY (BATCH I) FROM HARD COPY
##XUNITS=1/CM
##YUNITS=TRANSMITTANCE
##XFACTOR=1
##YFACTOR=1
##DELTAX=1
##FIRSTX=3796
##LASTX=466
##FIRSTY=0.6451
##MAXX=3796
##MINX=466
##MAXY=0.8821
##MINY=0.0497
##NPOINTS=3331
##XYDATA=(X++(Y..Y))
3796.000000 0.6451 0.6451 0.6451 0.6450 0.6450
3791.000000 0.6449 0.6449 0.6448 0.6448 0.6447
3786.000000 0.6447 0.6446 0.6446 0.6446 0.6446
3781.000000 0.6445 0.6445 0.6446 0.6447 0.6448
3776.000000 0.6449 0.6450 0.6451 0.6451 0.6453
3771.000000 0.6454 0.6455 0.6457 0.6460 0.6462
3766.000000 0.6465 0.6468 0.6471 0.6474 0.6476
3761.000000 0.6480 0.6483 0.6486 0.6489 0.6491
3756.000000 0.6494 0.6495 0.6497 0.6498 0.6500
3751.000000 0.6501 0.6504 0.6505 0.6507 0.6508
3746.000000 0.6511 0.6511 0.6514 0.6515 0.6518
3741.000000 0.6519 0.6522 0.6525 0.6526 0.6528
3736.000000 0.6532 0.6534 0.6536 0.6538 0.6541
3731.000000 0.6543 0.6546 0.6547 0.6548 0.6548
3726.000000 0.6549 0.6550 0.6551 0.6551 0.6553
3721.000000 0.6553 0.6554 0.6554 0.6554 0.6554
3716.000000 0.6554 0.6553 0.6553 0.6551 0.6551
3711.000000 0.6550 0.6550 0.6546 0.6542 0.6538
3706.000000 0.6534 0.6526 0.6521 0.6512 0.6506
3701.000000 0.6499 0.6492 0.6484 0.6476 0.6475
3696.000000 0.6475 0.6476 0.6478 0.6480 0.6481
3691.000000 0.6482 0.6484 0.6487 0.6490 0.6493
3686.000000 0.6496 0.6499 0.6501 0.6505 0.6508
3681.000000 0.6511 0.6514 0.6517 0.6519 0.6522
3676.000000 0.6525 0.6528 0.6530 0.6532 0.6535
3671.000000 0.6537 0.6539 0.6541 0.6544 0.6546
3666.000000 0.6548 0.6550 0.6553 0.6555 0.6557
3661.000000 0.6558 0.6561 0.6564 0.6565 0.6568
3656.000000 0.6571 0.6572 0.6575 0.6576 0.6578
3651.000000 0.6581 0.6583 0.6585 0.6587 0.6589
3646.000000 0.6591 0.6592 0.6594 0.6596 0.6598
3641.000000 0.6600 0.6601 0.6604 0.6606 0.6607
3636.000000 0.6608 0.6611 0.6612 0.6615 0.6617
3631.000000 0.6618 0.6621 0.6621 0.6624 0.6625
3626.000000 0.6628 0.6630 0.6632 0.6633 0.6635
3621.000000 0.6636 0.6638 0.6639 0.6641 0.6642
3616.000000 0.6644 0.6645 0.6647 0.6648 0.6650
3611.000000 0.6651 0.6653 0.6654 0.6656 0.6657
3606.000000 0.6658 0.6660 0.6661 0.6662 0.6665
3601.000000 0.6665 0.6668 0.6668 0.6671 0.6671
3596.000000 0.6674 0.6675 0.6676 0.6678 0.6680
3591.000000 0.6681 0.6682 0.6683 0.6685 0.6686
3586.000000 0.6687 0.6688 0.6689 0.6690 0.6692
3581.000000 0.6693 0.6694 0.6695 0.6696 0.6697
3576.000000 0.6699 0.6700 0.6701 0.6701 0.6704
3571.000000 0.6705 0.6706 0.6707 0.6708 0.6708
3566.000000 0.6711 0.6711 0.6712 0.6714 0.6715
3561.000000 0.6715 0.6718 0.6718 0.6719 0.6721
3556.000000 0.6721 0.6722 0.6725 0.6725 0.6726
3551.000000 0.6728 0.6728 0.6728 0.6730 0.6730
3546.000000 0.6731 0.6731 0.6732 0.6733 0.6734
3541.000000 0.6734 0.6735 0.6735 0.6736 0.6736
3536.000000 0.6737 0.6738 0.6739 0.6739 0.6740
3531.000000 0.6740 0.6741 0.6741 0.6742 0.6743
3526.000000 0.6744 0.6744 0.6745 0.6745 0.6746
3521.000000 0.6747 0.6748 0.6748 0.6749 0.6749
3516.000000 0.6750 0.6750 0.6751 0.6751 0.6751
3511.000000 0.6751 0.6751 0.6751 0.6751 0.6751
3506.000000 0.6753 0.6753 0.6753 0.6753 0.6754
3501.000000 0.6754 0.6755 0.6755 0.6755 0.6755
3496.000000 0.6756 0.6756 0.6756 0.6756 0.6757
3491.000000 0.6757 0.6757 0.6757 0.6758 0.6758
3486.000000 0.6758 0.6758 0.6758 0.6760 0.6761
3481.000000 0.6761 0.6762 0.6764 0.6765 0.6765
3476.000000 0.6767 0.6768 0.6768 0.6768 0.6769
3471.000000 0.6771 0.6771 0.6772 0.6774 0.6775
3466.000000 0.6775 0.6776 0.6778 0.6778 0.6780
3461.000000 0.6781 0.6782 0.6783 0.6784 0.6784
3456.000000 0.6785 0.6786 0.6787 0.6787 0.6788
3451.000000 0.6789 0.6790 0.6791 0.6792 0.6792
3446.000000 0.6793 0.6794 0.6795 0.6795 0.6796
3441.000000 0.6797 0.6798 0.6799 0.6800 0.6800
3436.000000 0.6801 0.6801 0.6803 0.6803 0.6804
3431.000000 0.6805 0.6806 0.6807 0.6808 0.6808
3426.000000 0.6808 0.6810 0.6811 0.6811 0.6812
3421.000000 0.6814 0.6815 0.6815 0.6815 0.6817
3416.000000 0.6818 0.6818 0.6819 0.6819 0.6821
3411.000000 0.6821 0.6822 0.6824 0.6825 0.6825
3406.000000 0.6826 0.6826 0.6828 0.6828 0.6831
3401.000000 0.6832 0.6833 0.6834 0.6836 0.6837
3396.000000 0.6839 0.6840 0.6841 0.6842 0.6844
3391.000000 0.6845 0.6846 0.6847 0.6849 0.6850
3386.000000 0.6851 0.6853 0.6854 0.6855 0.6857
3381.000000 0.6857 0.6858 0.6858 0.6858 0.6858
3376.000000 0.6860 0.6860 0.6861 0.6861 0.6861
3371.000000 0.6861 0.6861 0.6861 0.6862 0.6862
3366.000000 0.6864 0.6864 0.6864 0.6864 0.6865
3361.000000 0.6865 0.6865 0.6865 0.6867 0.6867
3356.000000 0.6867 0.6867 0.6868 0.6868 0.6868
3351.000000 0.6868 0.6869 0.6869 0.6869 0.6869
3346.000000 0.6871 0.6871 0.6871 0.6871 0.6872
3341.000000 0.6872 0.6874 0.6875 0.6876 0.6878
3336.000000 0.6878 0.6880 0.6881 0.6882 0.6884
3331.000000 0.6885 0.6886 0.6887 0.6888 0.6889
3326.000000 0.6890 0.6891 0.6893 0.6894 0.6895
3321.000000 0.6896 0.6897 0.6898 0.6900 0.6900
3316.000000 0.6901 0.6901 0.6901 0.6901 0.6903
3311.000000 0.6903 0.6903 0.6903 0.6904 0.6904
3306.000000 0.6905 0.6905 0.6905 0.6905 0.6906
3301.000000 0.6906 0.6907 0.6907 0.6908 0.6908
3296.000000 0.6908 0.6908 0.6908 0.6908 0.6908
3291.000000 0.6908 0.6910 0.6910 0.6910 0.6910
3286.000000 0.6910 0.6910 0.6911 0.6911 0.6911
3281.000000 0.6911 0.6911 0.6911 0.6911 0.6911
3276.000000 0.6911 0.6911 0.6912 0.6912 0.6912
3271.000000 0.6912 0.6914 0.6914 0.6914 0.6914
3266.000000 0.6914 0.6914 0.6915 0.6915 0.6915
3261.000000 0.6915 0.6915 0.6915 0.6915 0.6917
3256.000000 0.6918 0.6919 0.6921 0.6922 0.6925
3251.000000 0.6925 0.6926 0.6928 0.6930 0.6931
3246.000000 0.6933 0.6934 0.6936 0.6937 0.6939
3241.000000 0.6940 0.6942 0.6943 0.6945 0.6946
3236.000000 0.6948 0.6949 0.6950 0.6951 0.6953
3231.000000 0.6954 0.6956 0.6957 0.6958 0.6960
3226.000000 0.6961 0.6962 0.6965 0.6965 0.6967
3221.000000 0.6968 0.6968 0.6969 0.6971 0.6972
3216.000000 0.6974 0.6975 0.6975 0.6976 0.6978
3211.000000 0.6978 0.6981 0.6982 0.6983 0.6984
3206.000000 0.6985 0.6986 0.6988 0.6989 0.6990
3201.000000 0.6991 0.6992 0.6993 0.6994 0.6995
3196.000000 0.6997 0.6998 0.6999 0.7000 0.7001
3191.000000 0.7001 0.7004 0.7005 0.7006 0.7007
3186.000000 0.7008 0.7008 0.7011 0.7011 0.7012
3181.000000 0.7014 0.7015 0.7017 0.7018 0.7018
3176.000000 0.7019 0.7021 0.7044 0.7024 0.7025
3171.000000 0.7025 0.7028 0.7028 0.7030 0.7031
3166.000000 0.7032 0.7032 0.7033 0.7034 0.7035
3161.000000 0.7036 0.7037 0.7038 0.7039 0.7040
3156.000000 0.7041 0.7042 0.7043 0.7043 0.7044
3151.000000 0.7045 0.7046 0.7047 0.7048 0.7049
3146.000000 0.7050 0.7051 0.7051 0.7053 0.7054
3141.000000 0.7055 0.7056 0.7057 0.7058 0.7058
3136.000000 0.7060 0.7061 0.7062 0.7064 0.7065
3131.000000 0.7065 0.7067 0.7068 0.7068 0.7068
3126.000000 0.7069 0.7069 0.7071 0.7071 0.7071
3121.000000 0.7071 0.7072 0.7072 0.7074 0.7074
3116.000000 0.7075 0.7075 0.7075 0.7075 0.7075
3111.000000 0.7075 0.7075 0.7075 0.7075 0.7074
3106.000000 0.7074 0.7072 0.7072 0.7071 0.7071
3101.000000 0.7058 0.7046 0.7033 0.7021 0.7014
3096.000000 0.7007 0.7000 0.6994 0.6990 0.6986
3091.000000 0.6983 0.6981 0.6978 0.6975 0.6974
3086.000000 0.6972 0.6971 0.6971 0.6972 0.6975
3081.000000 0.6976 0.6980 0.6984 0.6988 0.6994
3076.000000 0.7000 0.7006 0.7011 0.7019 0.7028
3071.000000 0.7040 0.7051 0.7056 0.7061 0.7065
3066.000000 0.7069 0.7074 0.7078 0.7080 0.7081
3061.000000 0.7080 0.7075 0.7071 0.7068 0.7065
3056.000000 0.7062 0.7060 0.7057 0.7054 0.7051
3051.000000 0.7049 0.7047 0.7047 0.7048 0.7048
3046.000000 0.7049 0.7051 0.7053 0.7056 0.7058
3041.000000 0.7061 0.7065 0.7068 0.7071 0.7074
3036.000000 0.7076 0.7080 0.7084 0.7088 0.7093
3031.000000 0.7097 0.7101 0.7106 0.7111 0.7115
3026.000000 0.7119 0.7124 0.7128 0.7132 0.7136
3021.000000 0.7138 0.7141 0.7143 0.7146 0.7148
3016.000000 0.7150 0.7151 0.7155 0.7157 0.7160
3011.000000 0.7160 0.7160 0.7158 0.7156 0.7154
3006.000000 0.7151 0.7149 0.7147 0.7139 0.7132
3001.000000 0.7119 0.7108 0.7093 0.7078 0.7062
2996.000000 0.7048 0.7018 0.6990 0.6968 0.6828
2991.000000 0.6932 0.6917 0.6903 0.6889 0.6875
2986.000000 0.6864 0.6856 0.6848 0.6845 0.6843
2981.000000 0.6847 0.6851 0.6855 0.6858 0.6861
2976.000000 0.6865 0.6869 0.6874 0.6878 0.6882
2971.000000 0.6887 0.6892 0.6897 0.6903 0.6908
2966.000000 0.6912 0.6918 0.6924 0.6930 0.6937
2961.000000 0.6943 0.6950 0.6956 0.6962 0.6969
2956.000000 0.6976 0.6983 0.6990 0.6996 0.7003
2951.000000 0.7008 0.7015 0.7022 0.7043 0.7043
2946.000000 0.7043 0.7047 0.7051 0.7038 0.7025
2941.000000 0.7003 0.6981 0.6961 0.6941 0.6924
2936.000000 0.6908 0.6894 0.6825 0.6869 0.6860
2931.000000 0.6861 0.6865 0.6871 0.6878 0.6885
2926.000000 0.6892 0.6899 0.6907 0.6914 0.6921
2921.000000 0.6932 0.6943 0.6955 0.6967 0.6978
2916.000000 0.6990 0.7001 0.7011 0.7022 0.7034
2911.000000 0.7045 0.7056 0.7067 0.7078 0.7089
2906.000000 0.7101 0.7105 0.7110 0.7112 0.7115
2901.000000 0.7118 0.7121 0.7125 0.7128 0.7131
2896.000000 0.7134 0.7137 0.7140 0.7143 0.7146
2891.000000 0.7148 0.7151 0.7153 0.7155 0.7157
2886.000000 0.7160 0.7161 0.7164 0.7165 0.7167
2881.000000 0.7167 0.7167 0.7164 0.7161 0.7160
2876.000000 0.7158 0.7155 0.7153 0.7151 0.7149
2871.000000 0.7146 0.7144 0.7142 0.7140 0.7140
2866.000000 0.7140 0.7141 0.7143 0.7148 0.7153
2861.000000 0.7158 0.7162 0.7167 0.7171 0.7176
2856.000000 0.7182 0.7187 0.7192 0.7197 0.7203
2851.000000 0.7208 0.7214 0.7219 0.7225 0.7231
2846.000000 0.7236 0.7240 0.7245 0.7249 0.7253
2841.000000 0.7257 0.7261 0.7265 0.7269 0.7274
2836.000000 0.7278 0.7282 0.7286 0.7289 0.7292
2831.000000 0.7294 0.7296 0.7298 0.7301 0.7303
2826.000000 0.7306 0.7308 0.7310 0.7311 0.7315
2821.000000 0.7317 0.7318 0.7321 0.7324 0.7325
2816.000000 0.7328 0.7331 0.7333 0.7335 0.7338
2811.000000 0.7340 0.7342 0.7343 0.7345 0.7346
2806.000000 0.7348 0.7349 0.7351 0.7351 0.7354
2801.000000 0.7355 0.7357 0.7358 0.7360 0.7361
2796.000000 0.7362 0.7364 0.7365 0.7367 0.7368
2791.000000 0.7371 0.7372 0.7375 0.7376 0.7378
2786.000000 0.7380 0.7382 0.7384 0.7384 0.7385
2781.000000 0.7385 0.7385 0.7385 0.7385 0.7385
2776.000000 0.7385 0.7385 0.7386 0.7386 0.7386
2771.000000 0.7386 0.7386 0.7386 0.7387 0.7388
2766.000000 0.7390 0.7392 0.7394 0.7395 0.7397
2761.000000 0.7398 0.7400 0.7401 0.7403 0.7405
2756.000000 0.7407 0.7408 0.7410 0.7411 0.7414
2751.000000 0.7415 0.7417 0.7418 0.7421 0.7422
2746.000000 0.7425 0.7426 0.7428 0.7431 0.7433
2741.000000 0.7435 0.7437 0.7439 0.7441 0.7443
2736.000000 0.7445 0.7447 0.7449 0.7451 0.7453
2731.000000 0.7455 0.7457 0.7458 0.7461 0.7462
2726.000000 0.7465 0.7467 0.7468 0.7471 0.7472
2721.000000 0.7474 0.7475 0.7478 0.7480 0.7482
2716.000000 0.7484 0.7486 0.7488 0.7490 0.7492
2711.000000 0.7494 0.7496 0.7498 0.7500 0.7501
2706.000000 0.7504 0.7505 0.7507 0.7508 0.7511
2701.000000 0.7512 0.7515 0.7515 0.7518 0.7519
2696.000000 0.7521 0.7524 0.7525 0.7526 0.7528
2691.000000 0.7531 0.7533 0.7535 0.7537 0.7538
2686.000000 0.7540 0.7542 0.7544 0.7546 0.7548
2681.000000 0.7549 0.7551 0.7553 0.7555 0.7557
2676.000000 0.7558 0.7560 0.7561 0.7564 0.7565
2671.000000 0.7568 0.7569 0.7571 0.7572 0.7575
2666.000000 0.7576 0.7578 0.7580 0.7582 0.7584
2661.000000 0.7585 0.7587 0.7589 0.7591 0.7592
2656.000000 0.7594 0.7595 0.7597 0.7599 0.7601
2651.000000 0.7601 0.7604 0.7605 0.7607 0.7608
2646.000000 0.7611 0.7611 0.7614 0.7615 0.7617
2641.000000 0.7618 0.7621 0.7621 0.7624 0.7625
2636.000000 0.7628 0.7628 0.7631 0.7632 0.7634
2631.000000 0.7636 0.7638 0.7639 0.7641 0.7642
2626.000000 0.7644 0.7645 0.7647 0.7647 0.7648
2621.000000 0.7648 0.7649 0.7650 0.7651 0.7651
2616.000000 0.7651 0.7651 0.7653 0.7653 0.7654
2611.000000 0.7654 0.7655 0.7656 0.7657 0.7657
2606.000000 0.7658 0.7658 0.7658 0.7658 0.7660
2601.000000 0.7660 0.7661 0.7661 0.7661 0.7662
2596.000000 0.7664 0.7664 0.7665 0.7665 0.7665
2591.000000 0.7665 0.7667 0.7667 0.7668 0.7668
2586.000000 0.7669 0.7669 0.7671 0.7671 0.7672
2581.000000 0.7672 0.7674 0.7675 0.7675 0.7676
2576.000000 0.7678 0.7678 0.7678 0.7680 0.7681
2571.000000 0.7682 0.7683 0.7683 0.7684 0.7685
2566.000000 0.7686 0.7686 0.7687 0.7688 0.7689
2561.000000 0.7690 0.7691 0.7691 0.7692 0.7693
2556.000000 0.7694 0.7694 0.7695 0.7696 0.7697
2551.000000 0.7698 0.7700 0.7701 0.7701 0.7703
2546.000000 0.7704 0.7705 0.7706 0.7707 0.7708
2541.000000 0.7708 0.7710 0.7711 0.7711 0.7712
2536.000000 0.7715 0.7715 0.7717 0.7718 0.7718
2531.000000 0.7719 0.7721 0.7721 0.7722 0.7724
2526.000000 0.7725 0.7725 0.7726 0.7728 0.7728
2521.000000 0.7730 0.7731 0.7732 0.7733 0.7733
2516.000000 0.7734 0.7735 0.7736 0.7737 0.7738
2511.000000 0.7739 0.7740 0.7740 0.7741 0.7742
2506.000000 0.7743 0.7744 0.7745 0.7745 0.7746
2501.000000 0.7746 0.7747 0.7747 0.7748 0.7749
2496.000000 0.7750 0.7750 0.7751 0.7751 0.7751
2491.000000 0.7751 0.7753 0.7753 0.7754 0.7754
2486.000000 0.7755 0.7755 0.7756 0.7756 0.7757
2481.000000 0.7757 0.7757 0.7757 0.7757 0.7757
2476.000000 0.7757 0.7757 0.7757 0.7757 0.7758
2471.000000 0.7758 0.7758 0.7758 0.7758 0.7758
2466.000000 0.7758 0.7758 0.7758 0.7758 0.7760
2461.000000 0.7760 0.7761 0.7761 0.7761 0.7761
2456.000000 0.7762 0.7762 0.7762 0.7761 0.7761
2451.000000 0.7761 0.7761 0.7761 0.7761 0.7758
2446.000000 0.7758 0.7757 0.7756 0.7754 0.7753
2441.000000 0.7749 0.7746 0.7740 0.7735 0.7728
2436.000000 0.7722 0.7722 0.7724 0.7724 0.7725
2431.000000 0.7725 0.7726 0.7730 0.7733 0.7735
2426.000000 0.7738 0.7740 0.7743 0.7746 0.7749
2421.000000 0.7750 0.7751 0.7751 0.7754 0.7755
2416.000000 0.7756 0.7757 0.7758 0.7760 0.7761
2411.000000 0.7761 0.7764 0.7765 0.7765 0.7767
2406.000000 0.7767 0.7767 0.7767 0.7765 0.7765
2401.000000 0.7765 0.7764 0.7762 0.7762 0.7761
2396.000000 0.7761 0.7761 0.7761 0.7760 0.7758
2391.000000 0.7758 0.7758 0.7757 0.7756 0.7755
2386.000000 0.7754 0.7753 0.7751 0.7751 0.7750
2381.000000 0.7749 0.7748 0.7747 0.7746 0.7745
2376.000000 0.7744 0.7743 0.7742 0.7741 0.7740
2371.000000 0.7739 0.7738 0.7737 0.7736 0.7734
2366.000000 0.7733 0.7731 0.7730 0.7728 0.7728
2361.000000 0.7725 0.7725 0.7722 0.7721 0.7719
2356.000000 0.7718 0.7718 0.7718 0.7717 0.7717
2351.000000 0.7715 0.7715 0.7715 0.7715 0.7715
2346.000000 0.7715 0.7714 0.7714 0.7712 0.7712
2341.000000 0.7711 0.7711 0.7711 0.7711 0.7711
2336.000000 0.7711 0.7711 0.7711 0.7711 0.7711
2331.000000 0.7711 0.7711 0.7711 0.7712 0.7712
2326.000000 0.7714 0.7715 0.7718 0.7721 0.7724
2321.000000 0.7726 0.7730 0.7732 0.7735 0.7737
2316.000000 0.7740 0.7743 0.7746 0.7748 0.7751
2311.000000 0.7754 0.7757 0.7761 0.7765 0.7769
2306.000000 0.7774 0.7778 0.7782 0.7786 0.7790
2301.000000 0.7794 0.7799 0.7803 0.7807 0.7811
2296.000000 0.7815 0.7818 0.7824 0.7828 0.7832
2291.000000 0.7837 0.7843 0.7848 0.7854 0.7858
2286.000000 0.7865 0.7869 0.7875 0.7881 0.7887
2281.000000 0.7892 0.7898 0.7903 0.7908 0.7914
2276.000000 0.7919 0.7925 0.7931 0.7936 0.7942
2271.000000 0.7947 0.7953 0.7958 0.7964 0.7968
2266.000000 0.7975 0.7980 0.7986 0.7991 0.7997
2261.000000 0.8001 0.8008 0.8012 0.8018 0.8024
2256.000000 0.8030 0.8036 0.8042 0.8048 0.8054
2251.000000 0.8060 0.8065 0.8071 0.8078 0.8083
2246.000000 0.8089 0.8095 0.8101 0.8107 0.8112
2241.000000 0.8118 0.8125 0.8131 0.8137 0.8142
2236.000000 0.8148 0.8151 0.8157 0.8161 0.8165
2231.000000 0.8168 0.8174 0.8178 0.8183 0.8187
2226.000000 0.8192 0.8196 0.8201 0.8205 0.8209
2221.000000 0.8213 0.8218 0.8221 0.8227 0.8231
2216.000000 0.8236 0.8240 0.8244 0.8248 0.8253
2211.000000 0.8257 0.8262 0.8266 0.8271 0.8275
2206.000000 0.8280 0.8284 0.8288 0.8292 0.8297
2201.000000 0.8301 0.8306 0.8310 0.8315 0.8318
2196.000000 0.8324 0.8328 0.8332 0.8336 0.8341
2191.000000 0.8344 0.8348 0.8351 0.8354 0.8357
2186.000000 0.8360 0.8363 0.8367 0.8370 0.8373
2181.000000 0.8375 0.8378 0.8382 0.8385 0.8388
2176.000000 0.8391 0.8394 0.8397 0.8400 0.8403
2171.000000 0.8406 0.8409 0.8412 0.8415 0.8418
2166.000000 0.8421 0.8425 0.8430 0.8434 0.8438
2161.000000 0.8442 0.8446 0.8450 0.8454 0.8458
2156.000000 0.8462 0.8465 0.8468 0.8473 0.8477
2151.000000 0.8481 0.8485 0.8489 0.8493 0.8497
2146.000000 0.8501 0.8505 0.8509 0.8513 0.8517
2141.000000 0.8521 0.8525 0.8528 0.8533 0.8536
2136.000000 0.8540 0.8544 0.8548 0.8552 0.8556
2131.000000 0.8560 0.8564 0.8567 0.8571 0.8574
2126.000000 0.8578 0.8581 0.8585 0.8588 0.8592
2121.000000 0.8595 0.8599 0.8602 0.8606 0.8609
2116.000000 0.8613 0.8616 0.8618 0.8621 0.8625
2111.000000 0.8628 0.8633 0.8636 0.8640 0.8643
2106.000000 0.8647 0.8650 0.8653 0.8656 0.8660
2101.000000 0.8663 0.8667 0.8670 0.8674 0.8677
2096.000000 0.8680 0.8683 0.8687 0.8689 0.8692
2091.000000 0.8694 0.8697 0.8699 0.8701 0.8703
2086.000000 0.8706 0.8708 0.8710 0.8712 0.8715
2081.000000 0.8717 0.8718 0.8721 0.8724 0.8725
2076.000000 0.8728 0.8730 0.8732 0.8734 0.8737
2071.000000 0.8739 0.8741 0.8743 0.8745 0.8747
2066.000000 0.8749 0.8751 0.8754 0.8756 0.8758
2061.000000 0.8760 0.8762 0.8764 0.8766 0.8768
2056.000000 0.8773 0.8775 0.8778 0.8782 0.8786
2051.000000 0.8789 0.8793 0.8796 0.8799 0.8800
2046.000000 0.8802 0.8803 0.8805 0.8806 0.8808
2041.000000 0.8810 0.8812 0.8813 0.8815 0.8816
2036.000000 0.8818 0.8818 0.8820 0.8821 0.8821
2031.000000 0.8821 0.8820 0.8815 0.8810 0.8797
2026.000000 0.8784 0.8768 0.8753 0.8737 0.8721
2021.000000 0.8704 0.8686 0.8665 0.8644 0.8625
2016.000000 0.8606 0.8590 0.8574 0.8560 0.8546
2011.000000 0.8531 0.8517 0.8505 0.8493 0.8481
2006.000000 0.8470 0.8452 0.8434 0.8412 0.8390
2001.000000 0.8340 0.8290 0.8237 0.8183 0.8128
1996.000000 0.8072 0.8015 0.7954 0.7893 0.7832
1991.000000 0.7751 0.7646 0.7528 0.7368 0.7228
1986.000000 0.7101 0.6951 0.6780 0.6546 0.5487
1981.000000 0.4767 0.4626 0.4453 0.4125 0.3962
1976.000000 0.3822 0.3593 0.3179 0.2950 0.2721
1971.000000 0.2491 0.2297 0.2111 0.1958 0.1837
1966.000000 0.1706 0.1578 0.1525 0.1475 0.1448
1961.000000 0.1422 0.1388 0.1357 0.1332 0.1303
1956.000000 0.1279 0.1278 0.1278 0.1312 0.1464
1951.000000 0.1653 0.1814 0.2370 0.2650 0.2930
1946.000000 0.3209 0.3491 0.3771 0.4050 0.4331
1941.000000 0.4610 0.4730 0.4822 0.4918 0.5023
1936.000000 0.5118 0.5231 0.5362 0.5484 0.5594
1931.000000 0.5635 0.5654 0.5658 0.5638 0.5662
1926.000000 0.5662 0.5660 0.5643 0.5620 0.5588
1921.000000 0.5552 0.5510 0.5460 0.5381 0.5278
1916.000000 0.5134 0.5017 0.4885 0.4694 0.4538
1911.000000 0.4400 0.4010 0.3597 0.3139 0.2805
1906.000000 0.2405 0.2004 0.1606 0.1206 0.0859
1901.000000 0.0808 0.0753 0.0704 0.0668 0.0596
1896.000000 0.0628 0.0613 0.0605 0.0596 0.0588
1891.000000 0.0588 0.0589 0.0599 0.0608 0.0658
1886.000000 0.0613 0.0603 0.0577 0.0551 0.0537
1881.000000 0.0529 0.0497 0.0518 0.0515 0.0528
1876.000000 0.0547 0.0577 0.0607 0.0666 0.0737
1871.000000 0.0782 0.0824 0.0850 0.0860 0.0889
1866.000000 0.0981 0.1119 0.1272 0.1844 0.2026
1861.000000 0.2025 0.1912 0.1779 0.1648 0.1604
1856.000000 0.1606 0.1814 0.2192 0.2476 0.2639
1851.000000 0.2785 0.2958 0.3090 0.3223 0.3352
1846.000000 0.3443 0.3504 0.3559 0.3609 0.3666
1841.000000 0.3734 0.3809 0.3900 0.4043 0.4050
1836.000000 0.4057 0.4064 0.4074 0.4086 0.4098
1831.000000 0.4360 0.4507 0.4633 0.4749 0.4832
1826.000000 0.4882 0.4902 0.4912 0.4916 0.4919
1821.000000 0.4922 0.5195 0.5273 0.5352 0.5404
1816.000000 0.5445 0.5486 0.5522 0.5558 0.5594
1811.000000 0.5629 0.5665 0.5701 0.5733 0.5762
1806.000000 0.5792 0.5822 0.5852 0.5881 0.5910
1801.000000 0.5941 0.5970 0.5997 0.6025 0.6053
1796.000000 0.6080 0.6107 0.6134 0.6160 0.6188
1791.000000 0.6214 0.6241 0.6270 0.6298 0.6326
1786.000000 0.6347 0.6369 0.6390 0.6405 0.6412
1781.000000 0.6421 0.6430 0.6439 0.6454 0.6468
1776.000000 0.6484 0.6501 0.6542 0.6581 0.6612
1771.000000 0.6645 0.6676 0.6700 0.6721 0.6745
1766.000000 0.6761 0.6771 0.6784 0.6784 0.6782
1761.000000 0.6781 0.6780 0.6778 0.6775 0.6774
1756.000000 0.6771 0.6768 0.6765 0.6762 0.6760
1751.000000 0.6769 0.6792 0.6814 0.6835 0.6857
1746.000000 0.6878 0.6900 0.6919 0.6940 0.6960
1741.000000 0.6980 0.7000 0.7019 0.7040 0.7057
1736.000000 0.7071 0.7087 0.7103 0.7118 0.7133
1731.000000 0.7148 0.7162 0.7178 0.7194 0.7208
1726.000000 0.7224 0.7239 0.7254 0.7269 0.7283
1721.000000 0.7296 0.7308 0.7321 0.7335 0.7348
1716.000000 0.7361 0.7374 0.7387 0.7400 0.7412
1711.000000 0.7425 0.7439 0.7451 0.7465 0.7476
1706.000000 0.7489 0.7501 0.7512 0.7525 0.7537
1701.000000 0.7549 0.7561 0.7574 0.7583 0.7591
1696.000000 0.7599 0.7607 0.7615 0.7624 0.7632
1691.000000 0.7640 0.7649 0.7657 0.7665 0.7672
1686.000000 0.7682 0.7690 0.7698 0.7707 0.7715
1681.000000 0.7724 0.7732 0.7740 0.7749 0.7757
1676.000000 0.7765 0.7774 0.7783 0.7791 0.7800
1671.000000 0.7808 0.7815 0.7824 0.7831 0.7839
1666.000000 0.7847 0.7855 0.7862 0.7871 0.7878
1661.000000 0.7887 0.7895 0.7901 0.7908 0.7915
1656.000000 0.7921 0.7928 0.7936 0.7943 0.7950
1651.000000 0.7957 0.7964 0.7971 0.7978 0.7984
1646.000000 0.7991 0.7996 0.8000 0.8004 0.8008
1641.000000 0.8011 0.8015 0.8021 0.8025 0.8028
1636.000000 0.8033 0.8036 0.8038 0.8040 0.8041
1631.000000 0.8043 0.8044 0.8046 0.8048 0.8049
1626.000000 0.8051 0.8051 0.8054 0.8056 0.8057
1621.000000 0.8058 0.8058 0.8058 0.8060 0.8061
1616.000000 0.8061 0.8061 0.8062 0.8064 0.8064
1611.000000 0.8064 0.8062 0.8062 0.8062 0.8061
1606.000000 0.8061 0.8061 0.8061 0.8061 0.8060
1601.000000 0.8060 0.8055 0.8050 0.8044 0.8039
1596.000000 0.8034 0.8028 0.8022 0.8018 0.8011
1591.000000 0.8006 0.8000 0.7993 0.7987 0.7980
1586.000000 0.7974 0.7968 0.7961 0.7955 0.7948
1581.000000 0.7944 0.7940 0.7937 0.7934 0.7930
1576.000000 0.7926 0.7922 0.7919 0.7917 0.7912
1571.000000 0.7910 0.7906 0.7901 0.7896 0.7891
1566.000000 0.7886 0.7881 0.7875 0.7871 0.7869
1561.000000 0.7868 0.7867 0.7865 0.7865 0.7865
1556.000000 0.7865 0.7868 0.7871 0.7875 0.7878
1551.000000 0.7878 0.7880 0.7880 0.7881 0.7881
1546.000000 0.7880 0.7878 0.7875 0.7856 0.7815
1541.000000 0.7774 0.7732 0.7689 0.7590 0.7589
1536.000000 0.7588 0.7584 0.7586 0.7596 0.7606
1531.000000 0.7615 0.7626 0.7636 0.7644 0.7651
1526.000000 0.7660 0.7668 0.7676 0.7685 0.7693
1521.000000 0.7701 0.7708 0.7718 0.7726 0.7736
1516.000000 0.7745 0.7754 0.7762 0.7771 0.7781
1511.000000 0.7790 0.7799 0.7808 0.7817 0.7826
1506.000000 0.7836 0.7840 0.7845 0.7849 0.7854
1501.000000 0.7856 0.7856 0.7856 0.7855 0.7855
1496.000000 0.7856 0.7856 0.7856 0.7856 0.7856
1491.000000 0.7856 0.7856 0.7856 0.7858 0.7860
1486.000000 0.7861 0.7862 0.7865 0.7867 0.7869
1481.000000 0.7872 0.7875 0.7878 0.7882 0.7882
1476.000000 0.7883 0.7884 0.7885 0.7886 0.7882
1471.000000 0.7865 0.7847 0.7821 0.7795 0.7769
1466.000000 0.7744 0.7708 0.7668 0.7628 0.7547
1461.000000 0.7465 0.7237 0.6947 0.6658 0.6369
1456.000000 0.6228 0.6162 0.6170 0.6170 0.6176
1451.000000 0.6412 0.6625 0.6721 0.6772 0.6825
1446.000000 0.6878 0.6930 0.6974 0.7018 0.7061
1441.000000 0.7099 0.7136 0.7171 0.7208 0.7245
1436.000000 0.7281 0.7314 0.7347 0.7380 0.7408
1431.000000 0.7434 0.7458 0.7484 0.7501 0.7518
1426.000000 0.7536 0.7551 0.7568 0.7586 0.7601
1421.000000 0.7618 0.7634 0.7650 0.7665 0.7681
1416.000000 0.7697 0.7711 0.7726 0.7742 0.7757
1411.000000 0.7769 0.7783 0.7797 0.7810 0.7822
1406.000000 0.7831 0.7837 0.7844 0.7850 0.7856
1401.000000 0.7861 0.7868 0.7885 0.7872 0.7875
1396.000000 0.7875 0.7868 0.7861 0.7839 0.7798
1391.000000 0.6748 0.6750 0.6762 0.6958 0.7231
1386.000000 0.7215 0.7208 0.6786 0.5767 0.5756
1381.000000 0.5750 0.5960 0.6436 0.6911 0.7161
1376.000000 0.7247 0.7317 0.7387 0.7438 0.7486
1371.000000 0.7534 0.7568 0.7595 0.7621 0.7649
1366.000000 0.7668 0.7682 0.7695 0.7706 0.7710
1361.000000 0.7714 0.7718 0.7722 0.7726 0.7731
1356.000000 0.7732 0.7733 0.7733 0.7733 0.7733
1351.000000 0.7733 0.7733 0.7733 0.7733 0.7737
1346.000000 0.7741 0.7744 0.7748 0.7760 0.7776
1341.000000 0.7794 0.7811 0.7847 0.7888 0.7928
1336.000000 0.7962 0.7996 0.8030 0.8065 0.8100
1331.000000 0.8128 0.8151 0.8162 0.8174 0.8183
1326.000000 0.8185 0.8186 0.8188 0.8189 0.8191
1321.000000 0.8191 0.8190 0.8190 0.8189 0.8188
1316.000000 0.8178 0.8186 0.8185 0.8185 0.8185
1311.000000 0.8178 0.8168 0.8158 0.8128 0.8098
1306.000000 0.7887 0.7615 0.7342 0.7096 0.7096
1301.000000 0.7165 0.7431 0.7682 0.7768 0.7826
1296.000000 0.7878 0.7908 0.7932 0.7955 0.7976
1291.000000 0.7994 0.8011 0.8026 0.8040 0.8053
1286.000000 0.8065 0.8080 0.8095 0.8110 0.8110
1281.000000 0.8111 0.8110 0.8108 0.8106 0.8105
1276.000000 0.8105 0.8104 0.8104 0.8104 0.8104
1271.000000 0.8104 0.8104 0.8104 0.8105 0.8105
1266.000000 0.8111 0.8121 0.8135 0.8156 0.8178
1261.000000 0.8200 0.8221 0.8244 0.8267 0.8278
1256.000000 0.8290 0.8300 0.8310 0.8320 0.8323
1251.000000 0.8325 0.8327 0.8328 0.8328 0.8330
1246.000000 0.8330 0.8328 0.8328 0.8328 0.8336
1241.000000 0.8345 0.8354 0.8362 0.8371 0.8377
1236.000000 0.8382 0.8388 0.8393 0.8398 0.8395
1231.000000 0.8391 0.8388 0.8384 0.8380 0.8375
1226.000000 0.8368 0.8361 0.8354 0.8347 0.8341
1221.000000 0.8335 0.8336 0.8347 0.8359 0.8370
1216.000000 0.8378 0.8382 0.8385 0.8387 0.8390
1211.000000 0.8390 0.8390 0.8390 0.8389 0.8389
1206.000000 0.8389 0.8389 0.8389 0.8389 0.8390
1201.000000 0.8391 0.8391 0.8392 0.8392 0.8395
1196.000000 0.8399 0.8402 0.8417 0.8410 0.8414
1191.000000 0.8417 0.8421 0.8428 0.8435 0.8442
1186.000000 0.8448 0.8455 0.8463 0.8470 0.8478
1181.000000 0.8490 0.8498 0.8486 0.8474 0.8461
1176.000000 0.8453 0.8446 0.8439 0.8432 0.8425
1171.000000 0.8418 0.8413 0.8407 0.8400 0.8396
1166.000000 0.8392 0.8388 0.8384 0.8367 0.8331
1161.000000 0.8291 0.8238 0.8188 0.8139 0.8042
1156.000000 0.8060 0.8058 0.8058 0.8115 0.8171
1151.000000 0.8205 0.8238 0.8271 0.8303 0.8333
1146.000000 0.8362 0.8392 0.8420 0.8444 0.8468
1141.000000 0.8492 0.8513 0.8535 0.8530 0.8523
1136.000000 0.8520 0.8518 0.8516 0.8514 0.8512
1131.000000 0.8510 0.8510 0.8509 0.8510 0.8511
1126.000000 0.8512 0.8514 0.8515 0.8516 0.8516
1121.000000 0.8517 0.8517 0.8518 0.8518 0.8518
1116.000000 0.8520 0.8520 0.8520 0.8518 0.8516
1111.000000 0.8513 0.8511 0.8509 0.8507 0.8505
1106.000000 0.8503 0.8499 0.8493 0.8488 0.8482
1101.000000 0.8477 0.8471 0.8465 0.8460 0.8455
1096.000000 0.8449 0.8444 0.8439 0.8434 0.8428
1091.000000 0.8421 0.8416 0.8409 0.8403 0.8397
1086.000000 0.8390 0.8384 0.8377 0.8371 0.8367
1081.000000 0.8362 0.8358 0.8354 0.8349 0.8345
1076.000000 0.8347 0.8350 0.8352 0.8355 0.8356
1071.000000 0.8352 0.8349 0.8345 0.8342 0.8337
1066.000000 0.8332 0.8325 0.8321 0.8314 0.8300
1061.000000 0.8287 0.8273 0.8258 0.8241 0.8224
1056.000000 0.8207 0.8190 0.8172 0.8156 0.8140
1051.000000 0.8122 0.8107 0.8091 0.8075 0.8056
1046.000000 0.8031 0.8006 0.7981 0.7925 0.7812
1041.000000 0.7688 0.7495 0.7301 0.7151 0.7033
1036.000000 0.6834 0.6833 0.6832 0.6819 0.6808
1031.000000 0.6822 0.6865 0.7237 0.7346 0.7528
1026.000000 0.7684 0.7814 0.7906 0.7934 0.7961
1021.000000 0.7974 0.7984 0.7995 0.8001 0.8004
1016.000000 0.8007 0.8055 0.8004 0.7984 0.7951
1011.000000 0.7911 0.7862 0.7817 0.7778 0.7744
1006.000000 0.7722 0.7695 0.7725 0.7782 0.7854
1001.000000 0.7899 0.7939 0.7967 0.7978 0.7978
996.000000 0.7989 0.8033 0.8074 0.8115 0.8147
991.000000 0.8169 0.8193 0.8200 0.8207 0.8214
986.000000 0.8221 0.8227 0.8234 0.8240 0.8241
981.000000 0.8233 0.8225 0.8218 0.8211 0.8203
976.000000 0.8196 0.8188 0.8181 0.8171 0.8160
971.000000 0.8149 0.8143 0.8142 0.8141 0.8144
966.000000 0.8147 0.8150 0.8153 0.8156 0.8158
961.000000 0.8162 0.8168 0.8172 0.8178 0.8183
956.000000 0.8188 0.8193 0.8197 0.8202 0.8207
951.000000 0.8212 0.8217 0.8221 0.8225 0.8228
946.000000 0.8232 0.8236 0.8240 0.8244 0.8248
941.000000 0.8252 0.8256 0.8260 0.8264 0.8268
936.000000 0.8273 0.8277 0.8281 0.8285 0.8290
931.000000 0.8294 0.8298 0.8302 0.8307 0.8314
926.000000 0.8301 0.8297 0.8294 0.8292 0.8289
921.000000 0.8286 0.8291 0.8297 0.8303 0.8309
916.000000 0.8316 0.8321 0.8325 0.8330 0.8334
911.000000 0.8339 0.8344 0.8345 0.8346 0.8344
906.000000 0.8343 0.8341 0.8339 0.8337 0.8333
901.000000 0.8328 0.8325 0.8321 0.8316 0.8311
896.000000 0.8305 0.8299 0.8253 0.8205 0.8175
891.000000 0.8071 0.8112 0.8087 0.8078 0.8078
886.000000 0.8172 0.8254 0.8254 0.8254 0.8257
881.000000 0.8260 0.8307 0.8331 0.8353 0.8364
876.000000 0.8374 0.8382 0.8416 0.8390 0.8391
871.000000 0.8392 0.8375 0.8282 0.8203 0.8021
866.000000 0.8092 0.8065 0.8068 0.8124 0.8182
861.000000 0.8217 0.8232 0.8247 0.8262 0.8270
856.000000 0.8278 0.8286 0.8294 0.8301 0.8309
851.000000 0.8317 0.8325 0.8333 0.8340 0.8348
846.000000 0.8356 0.8364 0.8371 0.8378 0.8387
841.000000 0.8395 0.8393 0.8390 0.8387 0.8384
836.000000 0.8378 0.8375 0.8371 0.8384 0.8396
831.000000 0.8408 0.8415 0.8420 0.8424 0.8428
826.000000 0.8434 0.8439 0.8440 0.8442 0.8444
821.000000 0.8445 0.8447 0.8448 0.8450 0.8452
816.000000 0.8453 0.8455 0.8457 0.8458 0.8460
811.000000 0.8461 0.8462 0.8463 0.8464 0.8465
806.000000 0.8467 0.8468 0.8468 0.8470 0.8471
801.000000 0.8471 0.8473 0.8474 0.8475 0.8475
796.000000 0.8475 0.8474 0.8473 0.8473 0.8471
791.000000 0.8471 0.8470 0.8468 0.8468 0.8468
786.000000 0.8468 0.8468 0.8467 0.8467 0.8467
781.000000 0.8466 0.8466 0.8465 0.8465 0.8465
776.000000 0.8463 0.8462 0.8460 0.8459 0.8457
771.000000 0.8456 0.8455 0.8453 0.8452 0.8450
766.000000 0.8448 0.8447 0.8445 0.8443 0.8441
761.000000 0.8439 0.8438 0.8436 0.8431 0.8425
756.000000 0.8420 0.8415 0.8407 0.8393 0.8380
751.000000 0.8367 0.8354 0.8341 0.8330 0.8318
746.000000 0.8309 0.8298 0.8285 0.8271 0.8257
741.000000 0.8243 0.8228 0.8215 0.8202 0.8189
736.000000 0.8175 0.8164 0.8149 0.8134 0.8119
731.000000 0.8101 0.8080 0.8058 0.8037 0.8015
726.000000 0.7995 0.7975 0.7919 0.7934 0.7925
721.000000 0.7915 0.7937 0.7964 0.7995 0.8025
716.000000 0.8057 0.8088 0.8117 0.8146 0.8175
711.000000 0.8197 0.8212 0.8228 0.8243 0.8259
706.000000 0.8268 0.8278 0.8288 0.8297 0.8304
701.000000 0.8304 0.8336 0.8306 0.8305 0.8301
696.000000 0.8297 0.8293 0.8289 0.8285 0.8273
691.000000 0.8261 0.8239 0.8207 0.8165 0.8097
686.000000 0.7921 0.7411 0.7289 0.7185 0.7081
681.000000 0.7007 0.6771 0.6133 0.5496 0.4858
676.000000 0.4093 0.4074 0.4077 0.4175 0.4547
671.000000 0.4939 0.5332 0.5725 0.6118 0.6510
666.000000 0.6903 0.7296 0.7601 0.7701 0.7760
661.000000 0.7818 0.7874 0.7928 0.7971 0.8004
656.000000 0.8038 0.8065 0.8090 0.8115 0.8138
651.000000 0.8157 0.8171 0.8221 0.8189 0.8191
646.000000 0.8180 0.8168 0.8117 0.7034 0.6207
641.000000 0.5380 0.4552 0.3725 0.3163 0.3111
636.000000 0.3128 0.3142 0.3195 0.3623 0.4444
631.000000 0.5265 0.6086 0.6647 0.6767 0.6887
626.000000 0.6995 0.7099 0.7203 0.7303 0.7401
621.000000 0.7500 0.7580 0.7656 0.7732 0.7790
616.000000 0.7848 0.7904 0.7932 0.7960 0.7987
611.000000 0.8014 0.8032 0.8050 0.8068 0.8086
606.000000 0.8099 0.8107 0.8115 0.8125 0.8133
601.000000 0.8142 0.8150 0.8157 0.8162 0.8168
596.000000 0.8174 0.8180 0.8185 0.8185 0.8185
591.000000 0.8185 0.8184 0.8182 0.8178 0.8172
586.000000 0.8168 0.8160 0.8149 0.8139 0.8128
581.000000 0.8118 0.8108 0.8099 0.8099 0.8098
576.000000 0.8111 0.8117 0.8126 0.8136 0.8139
571.000000 0.8142 0.8142 0.8142 0.8140 0.8138
566.000000 0.8132 0.8125 0.8119 0.8098 0.8071
561.000000 0.8021 0.7917 0.7801 0.7624 0.7446
556.000000 0.7268 0.7090 0.6911 0.6601 0.6641
551.000000 0.6645 0.6701 0.6987 0.7161 0.7293
546.000000 0.7408 0.7478 0.7549 0.7618 0.7715
541.000000 0.7775 0.7817 0.7858 0.7896 0.7930
536.000000 0.7962 0.7986 0.8008 0.8032 0.8055
531.000000 0.8065 0.8075 0.8081 0.8065 0.8083
526.000000 0.8075 0.8069 0.8062 0.8045 0.8018
521.000000 0.7993 0.7958 0.7917 0.7864 0.7800
516.000000 0.7717 0.7644 0.7598 0.7621 0.7636
511.000000 0.7755 0.7794 0.7805 0.7821 0.7817
506.000000 0.7795 0.7661 0.7586 0.7468 0.7336
501.000000 0.7344 0.7345 0.7394 0.7501 0.7555
496.000000 0.7580 0.7591 0.7598 0.7601 0.7592
491.000000 0.7569 0.7517 0.7451 0.7380 0.7317
486.000000 0.7304 0.7278 0.7278 0.7294 0.7344
481.000000 0.7395 0.7445 0.7490 0.7521 0.7551
476.000000 0.7581 0.7612 0.7646 0.7669 0.7691
471.000000 0.7711 0.7731 0.7749 0.7767 0.7783
466.000000 0.7798
##END=
