##TITLE=SODIUM, (2-BIPHENYLYLOXY)-, TETRAHYDRATE
##JCAMP-DX=4.24
##DATA TYPE=INFRARED SPECTRUM
##CLASS=COBLENTZ III
##ORIGIN=WYANDOTTE CHEMICALS CORP.
##OWNER=COBLENTZ SOCIETY
Collection (C) 2018 copyright by the U.S. Secretary of Commerce
on behalf of the United States of America. All rights reserved.
##DATE=1956/03/08
##NAMES=DOWICIDE A
##MOLFORM=C12 H9 Na O  * 4 H2 O
##SOURCE REFERENCE=COBLENTZ NO. 6981
##$NIST ID=B6006981
##$NIST SOURCE=COBLENTZ
##$NIST IMAGE=cob6981
##SPECTROMETER/DATA SYSTEM=BAIRD NaCl PRISM
##STATE=SOLID (OIL MULL)
##PATH LENGTH=
$$ SPECTRAL CONTAMINATION DUE TO OIL AROUND 2900, 1460, 1375 CM^-^1
##SAMPLING PROCEDURE=TRANSMISSION
##RESOLUTION=4
##DATA PROCESSING=DIGITIZED BY NIST FROM HARD COPY
##XUNITS=MICROMETERS
##YUNITS=TRANSMITTANCE
##XFACTOR=1.000000
##YFACTOR=1
##DELTAX=000.004876
##FIRSTX=2.02
##LASTX=15.9943
##FIRSTY=0.564
##MAXX=15.9943
##MINX=2.02
##MAXY=1.004
##MINY=0.02
##NPOINTS=2867
##XYDATA=(X++(Y..Y))
2.020000 0.5640 0.5640 0.5650 0.5650 0.5670
2.044389 0.5670 0.5670 0.5680 0.5690 0.5700
2.069000 0.5730 0.5750 0.5780 0.5800 0.5810
2.093389 0.5820 0.5850 0.5870 0.5890 0.5900
2.117000 0.5910 0.5980 0.6000 0.6010 0.6020
2.141389 0.6060 0.6080 0.6100 0.6130 0.6140
2.166000 0.6170 0.6180 0.6200 0.6280 0.6300
2.190389 0.6320 0.6350 0.6360 0.6370 0.6370
2.215000 0.6370 0.6370 0.6370 0.6360 0.6320
2.239389 0.6310 0.6310 0.6310 0.6320 0.6340
2.264000 0.6360 0.6360 0.6370 0.6390 0.6400
2.288389 0.6400 0.6410 0.6420 0.6480 0.6500
2.312000 0.6520 0.6580 0.6590 0.6630 0.6640
2.336389 0.6670 0.6690 0.6730 0.6760 0.6780
2.361000 0.6810 0.6850 0.6870 0.6910 0.6910
2.385389 0.6920 0.6950 0.6960 0.6960 0.6960
2.410000 0.6960 0.6970 0.6970 0.6970 0.6980
2.434389 0.7000 0.7010 0.7030 0.7120 0.7170
2.459000 0.7210 0.7250 0.7280 0.7300 0.7310
2.483389 0.7340 0.7370 0.7400 0.7410 0.7470
2.508000 0.7480 0.7500 0.7530 0.7570 0.7580
2.532389 0.7600 0.7620 0.7630 0.7650 0.7670
2.556000 0.7700 0.7740 0.7760 0.7790 0.7820
2.580389 0.7860 0.7890 0.7960 0.7960 0.8040
2.605000 0.8100 0.8180 0.8180 0.8150 0.8140
2.629389 0.8140 0.8150 0.8180 0.8200 0.8240
2.654000 0.8280 0.8310 0.8320 0.8370 0.8420
2.678389 0.8420 0.8430 0.8430 0.8430 0.8420
2.703000 0.8400 0.8360 0.8250 0.8120 0.7910
2.727389 0.7730 0.7370 0.6960 0.6840 0.6560
2.751000 0.5910 0.5700 0.5400 0.4900 0.4710
2.775389 0.4520 0.4510 0.4520 0.4600 0.4810
2.800000 0.4900 0.5020 0.5130 0.5200 0.5290
2.824389 0.5290 0.5280 0.5260 0.5230 0.5190
2.849000 0.5140 0.5080 0.5030 0.4960 0.4930
2.873389 0.4850 0.4800 0.4780 0.4740 0.4690
2.898000 0.4630 0.4580 0.4530 0.4480 0.4460
2.922389 0.4450 0.4430 0.4400 0.4350 0.4290
2.946000 0.4230 0.4170 0.4100 0.4040 0.4000
2.970389 0.3960 0.3930 0.3920 0.3890 0.3860
2.995000 0.3840 0.3810 0.3750 0.3640 0.3450
3.019389 0.3360 0.3290 0.3230 0.3180 0.3140
3.044000 0.3100 0.3080 0.3030 0.3000 0.2950
3.068389 0.2870 0.2790 0.2750 0.2700 0.2650
3.093000 0.2620 0.2580 0.2540 0.2520 0.2500
3.117389 0.2470 0.2460 0.2420 0.2400 0.2370
3.141000 0.2340 0.2290 0.2240 0.2200 0.2150
3.165389 0.2120 0.2080 0.2060 0.2030 0.2030
3.190000 0.2020 0.2010 0.1980 0.1930 0.1920
3.214389 0.1910 0.1910 0.1890 0.1870 0.1870
3.239000 0.1860 0.1840 0.1810 0.1790 0.1740
3.263389 0.1670 0.1600 0.1540 0.1470 0.1420
3.288000 0.1370 0.1350 0.1310 0.1290 0.1260
3.312389 0.1250 0.1240 0.1210 0.1180 0.1090
3.336000 0.1030 0.0960 0.0910 0.0840 0.0740
3.360389 0.0650 0.0560 0.0460 0.0390 0.0310
3.385000 0.0250 0.0210 0.0200 0.0200 0.0200
3.409389 0.0200 0.0210 0.0210 0.0210 0.0230
3.434000 0.0230 0.0230 0.0240 0.0240 0.0250
3.458389 0.0260 0.0280 0.0290 0.0300 0.0310
3.483000 0.0310 0.0310 0.0320 0.0320 0.0320
3.507389 0.0340 0.0340 0.0340 0.0350 0.0360
3.531000 0.0480 0.0650 0.0850 0.1200 0.1560
3.555389 0.1960 0.2320 0.2620 0.2860 0.3060
3.580000 0.3200 0.3340 0.3460 0.3560 0.3670
3.604389 0.3790 0.3920 0.4000 0.4040 0.4060
3.629000 0.4120 0.4180 0.4210 0.4280 0.4310
3.653389 0.4340 0.4360 0.4390 0.4400 0.4420
3.678000 0.4470 0.4480 0.4500 0.4520 0.4570
3.702389 0.4590 0.4640 0.4680 0.4700 0.4740
3.727000 0.4790 0.4800 0.4860 0.4890 0.4920
3.751389 0.4970 0.5000 0.5040 0.5100 0.5180
3.775000 0.5200 0.5240 0.5260 0.5310 0.5360
3.799389 0.5410 0.5460 0.5480 0.5520 0.5530
3.824000 0.5560 0.5590 0.5620 0.5630 0.5650
3.848389 0.5690 0.5710 0.5750 0.5790 0.5820
3.873000 0.5860 0.5890 0.5910 0.5960 0.5980
3.897389 0.6000 0.6010 0.6020 0.6040 0.6100
3.922000 0.6140 0.6190 0.6210 0.6230 0.6240
3.946389 0.6250 0.6260 0.6260 0.6280 0.6290
3.970000 0.6310 0.6340 0.6360 0.6400 0.6430
3.994389 0.6470 0.6500 0.6510 0.6530 0.6540
4.019000 0.6540 0.6560 0.6570 0.6570 0.6590
4.043389 0.6590 0.6600 0.6620 0.6640 0.6680
4.068000 0.6700 0.6750 0.6790 0.6810 0.6840
4.092389 0.6860 0.6890 0.6900 0.6900 0.6910
4.117000 0.6920 0.6960 0.6980 0.7010 0.7020
4.141389 0.7030 0.7040 0.7060 0.7080 0.7080
4.165000 0.7080 0.7090 0.7090 0.7100 0.7100
4.189389 0.7100 0.7100 0.7120 0.7170 0.7210
4.214000 0.7230 0.7240 0.7240 0.7230 0.7200
4.238389 0.7200 0.7180 0.7140 0.7090 0.7060
4.263000 0.7030 0.7030 0.7030 0.7060 0.7080
4.287389 0.7100 0.7140 0.7190 0.7200 0.7230
4.312000 0.7250 0.7260 0.7290 0.7300 0.7310
4.336389 0.7320 0.7340 0.7370 0.7400 0.7430
4.360000 0.7500 0.7510 0.7530 0.7570 0.7620
4.384389 0.7640 0.7670 0.7690 0.7700 0.7730
4.409000 0.7730 0.7730 0.7740 0.7740 0.7740
4.433389 0.7740 0.7740 0.7750 0.7750 0.7750
4.458000 0.7740 0.7740 0.7750 0.7750 0.7750
4.482389 0.7760 0.7760 0.7780 0.7790 0.7790
4.507000 0.7790 0.7790 0.7790 0.7790 0.7790
4.531389 0.7790 0.7800 0.7800 0.7810 0.7820
4.555000 0.7840 0.7840 0.7850 0.7860 0.7890
4.579389 0.7910 0.7920 0.7960 0.7980 0.7980
4.604000 0.8000 0.8000 0.8000 0.8000 0.8000
4.628389 0.8010 0.8020 0.8020 0.8030 0.8060
4.653000 0.8100 0.8140 0.8190 0.8210 0.8230
4.677389 0.8230 0.8210 0.8210 0.8210 0.8200
4.702000 0.8190 0.8190 0.8200 0.8200 0.8200
4.726389 0.8210 0.8230 0.8230 0.8230 0.8230
4.751000 0.8230 0.8230 0.8230 0.8230 0.8240
4.775389 0.8240 0.8240 0.8260 0.8280 0.8290
4.799000 0.8290 0.8300 0.8300 0.8310 0.8320
4.823389 0.8350 0.8350 0.8370 0.8410 0.8430
4.848000 0.8480 0.8500 0.8510 0.8520 0.8530
4.872389 0.8540 0.8580 0.8590 0.8620 0.8640
4.897000 0.8690 0.8710 0.8750 0.8790 0.8800
4.921389 0.8810 0.8840 0.8850 0.8860 0.8890
4.946000 0.8910 0.8920 0.8930 0.8930 0.8950
4.970389 0.8950 0.8950 0.8960 0.8980 0.8980
4.994000 0.8980 0.8980 0.9000 0.9000 0.9000
5.018389 0.9000 0.9000 0.9010 0.9010 0.9010
5.043000 0.9010 0.9010 0.9020 0.9020 0.9030
5.067389 0.9030 0.9040 0.9040 0.9060 0.9060
5.092000 0.9070 0.9070 0.9080 0.9080 0.9080
5.116389 0.9060 0.9040 0.9030 0.9020 0.9010
5.141000 0.8980 0.8980 0.8960 0.8930 0.8920
5.165389 0.8850 0.8810 0.8790 0.8780 0.8790
5.189000 0.8810 0.8850 0.8920 0.8950 0.8960
5.213389 0.8970 0.8970 0.8980 0.9000 0.8980
5.238000 0.8970 0.8960 0.8920 0.8890 0.8860
5.262389 0.8850 0.8840 0.8820 0.8820 0.8810
5.287000 0.8780 0.8740 0.8700 0.8680 0.8670
5.311389 0.8650 0.8640 0.8640 0.8640 0.8640
5.336000 0.8630 0.8630 0.8640 0.8650 0.8680
5.360389 0.8690 0.8700 0.8710 0.8710 0.8750
5.384000 0.8800 0.8850 0.8890 0.8900 0.8910
5.408389 0.8900 0.8900 0.8900 0.8890 0.8890
5.433000 0.8860 0.8850 0.8820 0.8790 0.8840
5.457389 0.8840 0.8840 0.8840 0.8840 0.8820
5.482000 0.8810 0.8800 0.8790 0.8790 0.8790
5.506389 0.8800 0.8810 0.8840 0.8840 0.8860
5.531000 0.8870 0.8870 0.8860 0.8800 0.8800
5.555389 0.8820 0.8860 0.8890 0.8910 0.8960
5.579000 0.8970 0.8980 0.8980 0.9010 0.9060
5.603389 0.9140 0.9150 0.9190 0.9140 0.9120
5.628000 0.9090 0.9070 0.9060 0.9040 0.9040
5.652389 0.9040 0.9060 0.9060 0.9080 0.9090
5.677000 0.9090 0.9100 0.9100 0.9120 0.9140
5.701389 0.9150 0.9170 0.9170 0.9180 0.9180
5.726000 0.9180 0.9190 0.9190 0.9190 0.9200
5.750389 0.9200 0.9200 0.9190 0.9190 0.9200
5.774000 0.9300 0.9320 0.9340 0.9340 0.9300
5.798389 0.9170 0.9070 0.9020 0.9020 0.9190
5.823000 0.9190 0.9190 0.9150 0.9140 0.9120
5.847389 0.9120 0.9100 0.9090 0.9080 0.9080
5.872000 0.9080 0.9070 0.9060 0.9020 0.8980
5.896389 0.8930 0.8870 0.8840 0.8800 0.8700
5.921000 0.8640 0.8590 0.8580 0.8540 0.8460
5.945389 0.8350 0.8230 0.8090 0.7950 0.7790
5.970000 0.7600 0.7420 0.7210 0.7010 0.6740
5.994389 0.6370 0.6200 0.6030 0.5870 0.5740
6.018000 0.5650 0.5640 0.5620 0.5640 0.5670
6.042389 0.5750 0.5870 0.6000 0.6100 0.6180
6.067000 0.6210 0.6230 0.6240 0.6260 0.6240
6.091389 0.6190 0.6120 0.6020 0.6020 0.5980
6.116000 0.5980 0.6020 0.6180 0.6290 0.6450
6.140389 0.6580 0.6740 0.6910 0.6930 0.6950
6.165000 0.6920 0.6900 0.6760 0.6740 0.6630
6.189389 0.6400 0.6150 0.5900 0.5480 0.5260
6.213000 0.5240 0.5230 0.5250 0.5280 0.5290
6.237389 0.5300 0.5310 0.5320 0.5320 0.5340
6.262000 0.5350 0.5430 0.5560 0.5700 0.5810
6.286389 0.5930 0.6070 0.6210 0.6360 0.6500
6.311000 0.6600 0.6690 0.6740 0.6800 0.6840
6.335389 0.6870 0.6870 0.6840 0.6810 0.6730
6.360000 0.6690 0.6630 0.6600 0.6580 0.6560
6.384389 0.6540 0.6530 0.6530 0.6630 0.6820
6.408000 0.6930 0.7020 0.7070 0.7140 0.7240
6.432389 0.7310 0.7370 0.7420 0.7510 0.7580
6.457000 0.7700 0.7930 0.8070 0.8210 0.8340
6.481389 0.8410 0.8430 0.8450 0.8470 0.8480
6.506000 0.8500 0.8510 0.8510 0.8510 0.8520
6.530389 0.8520 0.8540 0.8580 0.8630 0.8670
6.555000 0.8740 0.8820 0.8860 0.8890 0.8890
6.579389 0.8870 0.8850 0.8780 0.8710 0.8670
6.603000 0.8570 0.8520 0.8430 0.8310 0.8120
6.627389 0.7870 0.7540 0.7130 0.6520 0.6260
6.652000 0.5740 0.5540 0.5520 0.5530 0.6010
6.676389 0.6130 0.6370 0.6640 0.7120 0.7200
6.701000 0.7230 0.7210 0.7120 0.6630 0.6310
6.725389 0.6020 0.5620 0.5210 0.4710 0.4360
6.750000 0.3920 0.3460 0.2800 0.2300 0.1740
6.774389 0.1250 0.0800 0.0400 0.0350 0.0410
6.798000 0.0500 0.0740 0.0860 0.0960 0.1010
6.822389 0.1120 0.1250 0.1430 0.1630 0.1840
6.847000 0.2030 0.2180 0.2260 0.2300 0.2310
6.871389 0.2320 0.2340 0.2340 0.2350 0.2370
6.896000 0.2410 0.2480 0.2510 0.2530 0.2570
6.920389 0.2590 0.2630 0.2670 0.2680 0.2700
6.945000 0.2680 0.2640 0.2590 0.2540 0.2510
6.969389 0.2390 0.2300 0.2280 0.2260 0.2290
6.993000 0.2390 0.2760 0.3120 0.3450 0.3740
7.017389 0.4030 0.4310 0.4570 0.4820 0.5080
7.042000 0.5340 0.5600 0.5860 0.6040 0.6170
7.066389 0.6320 0.6480 0.6620 0.6740 0.6820
7.091000 0.6910 0.7000 0.7080 0.7150 0.7250
7.115389 0.7360 0.7420 0.7510 0.7520 0.7520
7.140000 0.7530 0.7540 0.7580 0.7600 0.7630
7.164389 0.7630 0.7600 0.7510 0.7460 0.7370
7.189000 0.7130 0.6860 0.6620 0.6390 0.6180
7.213389 0.5980 0.5790 0.5580 0.5370 0.5150
7.237000 0.4900 0.4730 0.4670 0.4630 0.4670
7.261389 0.4970 0.5210 0.5600 0.6040 0.6370
7.286000 0.6540 0.6730 0.6850 0.6970 0.7020
7.310389 0.7060 0.7170 0.7290 0.7480 0.7730
7.335000 0.7960 0.8180 0.8280 0.8400 0.8480
7.359389 0.8520 0.8560 0.8560 0.8580 0.8600
7.384000 0.8640 0.8700 0.8750 0.8820 0.8890
7.408389 0.8900 0.8910 0.8910 0.8920 0.8950
7.432000 0.9010 0.9030 0.9060 0.9120 0.9150
7.456389 0.9200 0.9240 0.9280 0.9300 0.9310
7.481000 0.9350 0.9390 0.9420 0.9430 0.9480
7.505389 0.9520 0.9520 0.9530 0.9540 0.9560
7.530000 0.9580 0.9630 0.9670 0.9670 0.9650
7.554389 0.9640 0.9630 0.9620 0.9580 0.9570
7.579000 0.9520 0.9410 0.9310 0.9080 0.8970
7.603389 0.8840 0.8750 0.8670 0.8620 0.8560
7.627000 0.8520 0.8480 0.8430 0.8360 0.8280
7.651389 0.8200 0.8140 0.8060 0.7910 0.7680
7.676000 0.7320 0.7020 0.6710 0.6310 0.5920
7.700389 0.5480 0.5260 0.5130 0.5070 0.4890
7.725000 0.4850 0.4810 0.4810 0.4800 0.4800
7.749389 0.4790 0.4750 0.4710 0.4680 0.4510
7.774000 0.4400 0.4240 0.4070 0.3860 0.3670
7.798389 0.3450 0.3250 0.3060 0.2890 0.2730
7.822000 0.2540 0.2350 0.2150 0.1950 0.1730
7.846389 0.1510 0.1360 0.1290 0.1260 0.1260
7.871000 0.1280 0.1310 0.1370 0.1400 0.1470
7.895389 0.1540 0.1690 0.1850 0.2030 0.2230
7.920000 0.2430 0.2540 0.2740 0.2910 0.3030
7.944389 0.3180 0.3210 0.3250 0.3260 0.3240
7.969000 0.3230 0.3120 0.2920 0.2850 0.2820
7.993389 0.2810 0.2820 0.2850 0.3080 0.3190
8.017000 0.3300 0.3410 0.3430 0.3690 0.4000
8.041389 0.4280 0.4480 0.4690 0.4860 0.5000
8.066000 0.5150 0.5290 0.5430 0.5520 0.5620
8.090389 0.5750 0.5850 0.5930 0.6020 0.6120
8.115000 0.6190 0.6230 0.6250 0.6280 0.6290
8.139389 0.6310 0.6370 0.6450 0.6520 0.6600
8.164000 0.6690 0.6750 0.6840 0.6930 0.7010
8.188389 0.7070 0.7240 0.7320 0.7430 0.7500
8.213000 0.7510 0.7530 0.7560 0.7630 0.7670
8.237389 0.7740 0.7790 0.7820 0.7840 0.7850
8.261000 0.7860 0.7890 0.7960 0.8000 0.8030
8.285389 0.8100 0.8150 0.8210 0.8260 0.8300
8.310000 0.8350 0.8390 0.8430 0.8460 0.8510
8.334389 0.8520 0.8540 0.8570 0.8590 0.8630
8.359000 0.8670 0.8710 0.8750 0.8790 0.8810
8.383389 0.8820 0.8840 0.8870 0.8910 0.8970
8.408000 0.9000 0.9010 0.9030 0.9040 0.9070
8.432389 0.9120 0.9120 0.9140 0.9130 0.9120
8.456000 0.9120 0.9100 0.9060 0.9040 0.9020
8.480389 0.8980 0.8910 0.8850 0.8790 0.8750
8.505000 0.8730 0.8700 0.8670 0.8640 0.8640
8.529389 0.8630 0.8640 0.8670 0.8710 0.8750
8.554000 0.8810 0.8870 0.8980 0.9030 0.9120
8.578389 0.9150 0.9190 0.9190 0.9150 0.9130
8.603000 0.9030 0.8980 0.8910 0.8850 0.8750
8.627389 0.8650 0.8560 0.8470 0.8370 0.8290
8.651000 0.8190 0.8080 0.7970 0.7930 0.7920
8.675389 0.7910 0.7950 0.7980 0.8080 0.8190
8.700000 0.8350 0.8470 0.8580 0.8710 0.8850
8.724389 0.9000 0.9090 0.9230 0.9320 0.9400
8.749000 0.9460 0.9470 0.9480 0.9480 0.9500
8.773389 0.9500 0.9500 0.9510 0.9510 0.9520
8.798000 0.9530 0.9540 0.9560 0.9570 0.9620
8.822389 0.9650 0.9690 0.9710 0.9730 0.9740
8.846000 0.9750 0.9780 0.9790 0.9800 0.9810
8.870389 0.9820 0.9840 0.9850 0.9870 0.9870
8.895000 0.9860 0.9850 0.9810 0.9760 0.9710
8.919389 0.9640 0.9540 0.9430 0.9290 0.9120
8.944000 0.8910 0.8630 0.8390 0.8070 0.7680
8.968389 0.7320 0.6810 0.6520 0.6340 0.6340
8.993000 0.6420 0.6760 0.7070 0.7300 0.7520
9.017389 0.7700 0.7900 0.8080 0.8290 0.8520
9.041000 0.8690 0.8810 0.8950 0.9040 0.9130
9.065389 0.9190 0.9280 0.9370 0.9420 0.9450
9.090000 0.9470 0.9510 0.9520 0.9520 0.9520
9.114389 0.9530 0.9530 0.9540 0.9540 0.9540
9.139000 0.9560 0.9560 0.9570 0.9590 0.9620
9.163389 0.9640 0.9670 0.9680 0.9690 0.9700
9.188000 0.9700 0.9700 0.9710 0.9710 0.9730
9.212389 0.9740 0.9740 0.9730 0.9730 0.9730
9.236000 0.9710 0.9700 0.9670 0.9640 0.9590
9.260389 0.9540 0.9480 0.9360 0.9200 0.9040
9.285000 0.8850 0.8650 0.8450 0.8230 0.8000
9.309389 0.7760 0.7600 0.7540 0.7530 0.7560
9.334000 0.7950 0.8070 0.8150 0.8310 0.8460
9.358389 0.8620 0.8860 0.9040 0.9240 0.9360
9.383000 0.9410 0.9480 0.9620 0.9710 0.9750
9.407389 0.9800 0.9820 0.9850 0.9850 0.9860
9.432000 0.9900 0.9920 0.9930 0.9970 1.0010
9.456389 1.0010 1.0020 1.0020 1.0020 1.0010
9.480000 1.0000 0.9980 0.9970 0.9930 0.9890
9.504389 0.9840 0.9740 0.9590 0.9430 0.9300
9.529000 0.9170 0.9080 0.9040 0.9030 0.9000
9.553389 0.8960 0.8920 0.8900 0.8890 0.8890
9.578000 0.8900 0.8910 0.8930 0.9030 0.9120
9.602389 0.9250 0.9370 0.9480 0.9520 0.9530
9.627000 0.9530 0.9540 0.9570 0.9580 0.9580
9.651389 0.9590 0.9590 0.9600 0.9600 0.9600
9.675000 0.9590 0.9590 0.9590 0.9590 0.9590
9.699389 0.9590 0.9590 0.9600 0.9620 0.9640
9.724000 0.9700 0.9760 0.9810 0.9820 0.9850
9.748389 0.9890 0.9920 0.9950 0.9960 0.9970
9.773000 0.9980 1.0000 1.0010 1.0030 1.0030
9.797389 1.0040 1.0040 1.0040 1.0030 1.0030
9.822000 1.0010 0.9950 0.9900 0.9860 0.9790
9.846389 0.9700 0.9540 0.9350 0.9140 0.8920
9.870000 0.8640 0.8300 0.7840 0.7340 0.6820
9.894389 0.6390 0.5900 0.5700 0.5640 0.5640
9.919000 0.5730 0.6210 0.6530 0.6930 0.7390
9.943389 0.7790 0.8150 0.8500 0.8730 0.8970
9.968000 0.9060 0.9150 0.9170 0.9190 0.9210
9.992389 0.9240 0.9250 0.9240 0.9230 0.9030
10.017000 0.8920 0.8820 0.8710 0.8600 0.8600
10.041389 0.8410 0.8300 0.8170 0.8140 0.8060
10.065000 0.8060 0.8080 0.8130 0.8190 0.8340
10.089389 0.8430 0.8560 0.8680 0.8730 0.8840
10.114000 0.8930 0.9080 0.9100 0.9130 0.9150
10.138389 0.9180 0.9190 0.9190 0.9180 0.9130
10.163000 0.9120 0.9100 0.9100 0.9100 0.9120
10.187389 0.9120 0.9130 0.9130 0.9150 0.9140
10.212000 0.9120 0.9120 0.9120 0.9120 0.9120
10.236389 0.9120 0.9120 0.9120 0.9130 0.9130
10.260000 0.9140 0.9140 0.9140 0.9150 0.9170
10.284389 0.9180 0.9190 0.9200 0.9210 0.9230
10.309000 0.9230 0.9240 0.9240 0.9240 0.9230
10.333389 0.9210 0.9200 0.9200 0.9230 0.9230
10.358000 0.9230 0.9210 0.9210 0.9210 0.9210
10.382389 0.9200 0.9200 0.9200 0.9190 0.9210
10.407000 0.9210 0.9210 0.9210 0.9210 0.9210
10.431389 0.9210 0.9210 0.9210 0.9200 0.9200
10.456000 0.9200 0.9200 0.9200 0.9200 0.9210
10.480389 0.9210 0.9210 0.9230 0.9230 0.9240
10.504000 0.9250 0.9250 0.9250 0.9250 0.9250
10.528389 0.9260 0.9250 0.9250 0.9230 0.9210
10.553000 0.9190 0.9170 0.9120 0.9090 0.9080
10.577389 0.9070 0.9060 0.9030 0.9010 0.8980
10.602000 0.8920 0.8850 0.8810 0.8780 0.8750
10.626389 0.8710 0.8650 0.8600 0.8590 0.8540
10.651000 0.8540 0.8620 0.8630 0.8680 0.8710
10.675389 0.8740 0.8800 0.8860 0.8910 0.8930
10.699000 0.8950 0.8980 0.9000 0.9000 0.9000
10.723389 0.8980 0.8970 0.8960 0.8950 0.8930
10.748000 0.8910 0.8900 0.8860 0.8840 0.8820
10.772389 0.8810 0.8800 0.8800 0.8790 0.8780
10.797000 0.8790 0.8800 0.8810 0.8840 0.8870
10.821389 0.8890 0.8900 0.8920 0.8930 0.8960
10.846000 0.8970 0.9000 0.9000 0.9010 0.9020
10.870389 0.9020 0.9020 0.9010 0.9000 0.8970
10.894000 0.8930 0.8890 0.8840 0.8790 0.8760
10.918389 0.8740 0.8740 0.8750 0.8750 0.8760
10.943000 0.8800 0.8810 0.8840 0.8890 0.8910
10.967389 0.8920 0.8950 0.8970 0.9000 0.9010
10.992000 0.9060 0.9090 0.9100 0.9140 0.9140
11.016389 0.9200 0.9230 0.9250 0.9280 0.9310
11.041000 0.9340 0.9360 0.9360 0.9370 0.9360
11.065389 0.9360 0.9360 0.9360 0.9350 0.9340
11.089000 0.9340 0.9340 0.9340 0.9340 0.9340
11.113389 0.9340 0.9350 0.9350 0.9340 0.9340
11.138000 0.9340 0.9340 0.9340 0.9320 0.9340
11.162389 0.9340 0.9320 0.9320 0.9320 0.9310
11.187000 0.9320 0.9320 0.9320 0.9310 0.9300
11.211389 0.9290 0.9260 0.9250 0.9240 0.9230
11.236000 0.9210 0.9200 0.9210 0.9210 0.9210
11.260389 0.9210 0.9210 0.9210 0.9200 0.9200
11.284000 0.9200 0.9190 0.9180 0.9170 0.9150
11.308389 0.9140 0.9140 0.9140 0.9140 0.9130
11.333000 0.9130 0.9130 0.9130 0.9130 0.9120
11.357389 0.9070 0.9060 0.9030 0.9020 0.9010
11.382000 0.9000 0.8970 0.8950 0.8890 0.8810
11.406389 0.8760 0.8750 0.8740 0.8730 0.8710
11.431000 0.8710 0.8700 0.8700 0.8690 0.8680
11.455389 0.8670 0.8650 0.8640 0.8620 0.8570
11.479000 0.8530 0.8530 0.8520 0.8500 0.8500
11.503389 0.8500 0.8510 0.8510 0.8510 0.8510
11.528000 0.8500 0.8500 0.8480 0.8480 0.8470
11.552389 0.8470 0.8460 0.8430 0.8420 0.8410
11.577000 0.8410 0.8400 0.8400 0.8390 0.8370
11.601389 0.8370 0.8360 0.8340 0.8320 0.8310
11.626000 0.8310 0.8300 0.8290 0.8280 0.8250
11.650389 0.8240 0.8210 0.8200 0.8170 0.8100
11.675000 0.8060 0.8020 0.7970 0.7920 0.7860
11.699389 0.7790 0.7730 0.7640 0.7540 0.7450
11.723000 0.7350 0.7250 0.7150 0.7030 0.6910
11.747389 0.6790 0.6640 0.6480 0.6310 0.6210
11.772000 0.6100 0.5980 0.5860 0.5710 0.5570
11.796389 0.5410 0.5240 0.5100 0.4980 0.4870
11.821000 0.4760 0.4670 0.4570 0.4480 0.4370
11.845389 0.4260 0.4100 0.4000 0.3910 0.3760
11.870000 0.3680 0.3570 0.3510 0.3390 0.3360
11.894389 0.3340 0.3340 0.3360 0.3400 0.3520
11.918000 0.3650 0.3800 0.3980 0.4170 0.4370
11.942389 0.4580 0.4790 0.5010 0.5210 0.5420
11.967000 0.5630 0.5810 0.5980 0.6140 0.6280
11.991389 0.6400 0.6470 0.6760 0.6980 0.7170
12.016000 0.7300 0.7420 0.7510 0.7580 0.7640
12.040389 0.7710 0.7790 0.7870 0.7980 0.8020
12.065000 0.8030 0.8060 0.8080 0.8130 0.8190
12.089389 0.8230 0.8250 0.8300 0.8320 0.8340
12.113000 0.8350 0.8360 0.8360 0.8370 0.8390
12.137389 0.8400 0.8410 0.8420 0.8450 0.8470
12.162000 0.8480 0.8480 0.8500 0.8500 0.8500
12.186389 0.8480 0.8480 0.8480 0.8470 0.8460
12.211000 0.8450 0.8450 0.8430 0.8430 0.8430
12.235389 0.8430 0.8420 0.8420 0.8420 0.8410
12.260000 0.8400 0.8400 0.8390 0.8360 0.8360
12.284389 0.8350 0.8350 0.8350 0.8350 0.8340
12.308000 0.8340 0.8340 0.8340 0.8340 0.8320
12.332389 0.8320 0.8320 0.8320 0.8310 0.8310
12.357000 0.8310 0.8300 0.8280 0.8260 0.8250
12.381389 0.8240 0.8240 0.8230 0.8210 0.8210
12.406000 0.8210 0.8210 0.8200 0.8190 0.8180
12.430389 0.8180 0.8140 0.8130 0.8120 0.8090
12.455000 0.8090 0.8080 0.8070 0.8040 0.8040
12.479389 0.8030 0.8020 0.8000 0.8000 0.7960
12.503000 0.7930 0.7910 0.7910 0.7890 0.7850
12.527389 0.7820 0.7810 0.7810 0.7800 0.7790
12.552000 0.7750 0.7740 0.7710 0.7690 0.7650
12.576389 0.7630 0.7630 0.7620 0.7600 0.7590
12.601000 0.7590 0.7580 0.7580 0.7560 0.7540
12.625389 0.7520 0.7500 0.7470 0.7450 0.7420
12.650000 0.7400 0.7390 0.7370 0.7350 0.7340
12.674389 0.7320 0.7320 0.7310 0.7290 0.7260
12.698000 0.7230 0.7210 0.7200 0.7180 0.7180
12.722389 0.7150 0.7140 0.7100 0.7070 0.7030
12.747000 0.7000 0.6970 0.6910 0.6840 0.6790
12.771389 0.6740 0.6680 0.6630 0.6580 0.6520
12.796000 0.6460 0.6370 0.6290 0.6190 0.6070
12.820389 0.5930 0.5760 0.5650 0.5580 0.5520
12.845000 0.5450 0.5390 0.5340 0.5290 0.5240
12.869389 0.5200 0.5180 0.5140 0.5120 0.5090
12.894000 0.5070 0.5070 0.5060 0.5040 0.5030
12.918389 0.5000 0.4920 0.4840 0.4700 0.4530
12.942000 0.4300 0.4090 0.3820 0.3750 0.3640
12.966389 0.3580 0.3460 0.3370 0.3290 0.3200
12.991000 0.3120 0.2900 0.2860 0.2820 0.2790
13.015389 0.2780 0.2780 0.2790 0.2790 0.2810
13.040000 0.2820 0.2860 0.2870 0.2900 0.2900
13.064389 0.2930 0.2960 0.2970 0.2970 0.2980
13.089000 0.2980 0.2980 0.2980 0.2980 0.2970
13.113389 0.2970 0.2960 0.2920 0.2910 0.2900
13.137000 0.2890 0.2870 0.2860 0.2850 0.2810
13.161389 0.2800 0.2790 0.2760 0.2750 0.2750
13.186000 0.2740 0.2730 0.2700 0.2700 0.2690
13.210389 0.2680 0.2680 0.2680 0.2690 0.2690
13.235000 0.2700 0.2700 0.2710 0.2750 0.2800
13.259389 0.2900 0.3000 0.3090 0.3200 0.3320
13.284000 0.3450 0.3590 0.3730 0.3860 0.3980
13.308389 0.4100 0.4200 0.4280 0.4310 0.4360
13.332000 0.4410 0.4430 0.4470 0.4500 0.4520
13.356389 0.4540 0.4560 0.4560 0.4560 0.4570
13.381000 0.4570 0.4570 0.4560 0.4540 0.4520
13.405389 0.4460 0.4390 0.4340 0.4280 0.4230
13.430000 0.4180 0.4130 0.4090 0.4040 0.4010
13.454389 0.3980 0.3950 0.3910 0.3860 0.3850
13.479000 0.3790 0.3780 0.3760 0.3780 0.3790
13.503389 0.3800 0.3820 0.3860 0.3910 0.3970
13.527000 0.4040 0.4100 0.4170 0.4210 0.4280
13.551389 0.4320 0.4370 0.4430 0.4480 0.4520
13.576000 0.4540 0.4590 0.4640 0.4700 0.4760
13.600389 0.4840 0.4910 0.4980 0.5040 0.5100
13.625000 0.5150 0.5200 0.5210 0.5210 0.5230
13.649389 0.5230 0.5250 0.5260 0.5260 0.5240
13.674000 0.5200 0.5150 0.5070 0.4980 0.4890
13.698389 0.4790 0.4690 0.4590 0.4510 0.4420
13.722000 0.4360 0.4280 0.4230 0.4230 0.4240
13.746389 0.4260 0.4360 0.4460 0.4540 0.4640
13.771000 0.4740 0.4840 0.4930 0.5030 0.5130
13.795389 0.5230 0.5340 0.5430 0.5530 0.5630
13.820000 0.5670 0.5680 0.5680 0.5680 0.5670
13.844389 0.5650 0.5580 0.5570 0.5540 0.5520
13.869000 0.5500 0.5470 0.5460 0.5410 0.5390
13.893389 0.5350 0.5320 0.5290 0.5250 0.5230
13.918000 0.5230 0.5210 0.5200 0.5200 0.5210
13.942389 0.5240 0.5290 0.5340 0.5390 0.5450
13.966000 0.5510 0.5560 0.5620 0.5650 0.5740
13.990389 0.5800 0.5860 0.5910 0.5930 0.5970
14.015000 0.6000 0.6010 0.6020 0.6030 0.6040
14.039389 0.6040 0.6040 0.6010 0.5960 0.5950
14.064000 0.5900 0.5820 0.5730 0.5630 0.5510
14.088389 0.5400 0.5280 0.5140 0.5010 0.4860
14.113000 0.4670 0.4560 0.4500 0.4470 0.4260
14.137389 0.4230 0.4170 0.4090 0.4020 0.3930
14.161000 0.3850 0.3760 0.3700 0.3630 0.3510
14.185389 0.3480 0.3460 0.3430 0.3450 0.3470
14.210000 0.3510 0.3560 0.3600 0.3670 0.3740
14.234389 0.3810 0.3890 0.3970 0.4040 0.4120
14.259000 0.4180 0.4240 0.4310 0.4390 0.4470
14.283389 0.4530 0.4590 0.4600 0.4600 0.4630
14.308000 0.4640 0.4650 0.4650 0.4670 0.4680
14.332389 0.4680 0.4690 0.4690 0.4690 0.4690
14.356000 0.4690 0.4700 0.4710 0.4710 0.4730
14.380389 0.4750 0.4800 0.4840 0.4890 0.4920
14.405000 0.4960 0.5010 0.5040 0.5090 0.5140
14.429389 0.5190 0.5240 0.5300 0.5350 0.5420
14.454000 0.5480 0.5560 0.5600 0.5630 0.5670
14.478389 0.5690 0.5710 0.5730 0.5750 0.5780
14.503000 0.5790 0.5800 0.5810 0.5810 0.5820
14.527389 0.5860 0.5890 0.5910 0.5910 0.5920
14.551000 0.5930 0.5960 0.5960 0.5960 0.5970
14.575389 0.5970 0.5970 0.5980 0.5980 0.6000
14.600000 0.6000 0.6010 0.6010 0.6020 0.6030
14.624389 0.6040 0.6040 0.6040 0.6040 0.6060
14.649000 0.6060 0.6060 0.6060 0.6060 0.6070
14.673389 0.6070 0.6080 0.6080 0.6090 0.6100
14.698000 0.6100 0.6120 0.6130 0.6130 0.6130
14.722389 0.6140 0.6140 0.6140 0.6150 0.6150
14.746000 0.6150 0.6150 0.6150 0.6150 0.6150
14.770389 0.6150 0.6150 0.6150 0.6150 0.6130
14.795000 0.6100 0.6100 0.6090 0.6080 0.6080
14.819389 0.6080 0.6090 0.6090 0.6090 0.6120
14.844000 0.6120 0.6140 0.6140 0.6140 0.6140
14.868389 0.6140 0.6140 0.6140 0.6140 0.6150
14.893000 0.6170 0.6180 0.6180 0.6180 0.6170
14.917389 0.6150 0.6150 0.6140 0.6120 0.6090
14.941000 0.6080 0.6080 0.6070 0.6070 0.6070
14.965389 0.6060 0.6060 0.6040 0.6030 0.5980
14.990000 0.5960 0.5930 0.5930 0.5920 0.5900
15.014389 0.5890 0.5870 0.5860 0.5850 0.5840
15.039000 0.5820 0.5810 0.5800 0.5790 0.5780
15.063389 0.5780 0.5780 0.5790 0.5790 0.5800
15.088000 0.5800 0.5820 0.5850 0.5870 0.5870
15.112389 0.5890 0.5890 0.5900 0.5900 0.5910
15.137000 0.5910 0.5920 0.5920 0.5920 0.5930
15.161389 0.5930 0.5950 0.5950 0.5950 0.5930
15.185000 0.5920 0.5900 0.5890 0.5870 0.5850
15.209389 0.5840 0.5840 0.5840 0.5840 0.5840
15.234000 0.5840 0.5840 0.5840 0.5840 0.5840
15.258389 0.5820 0.5820 0.5820 0.5810 0.5800
15.283000 0.5790 0.5790 0.5780 0.5780 0.5760
15.307389 0.5760 0.5760 0.5750 0.5750 0.5750
15.332000 0.5740 0.5730 0.5730 0.5710 0.5700
15.356389 0.5690 0.5690 0.5680 0.5670 0.5650
15.380000 0.5650 0.5640 0.5640 0.5640 0.5630
15.404389 0.5630 0.5630 0.5630 0.5630 0.5630
15.429000 0.5620 0.5620 0.5620 0.5620 0.5620
15.453389 0.5600 0.5590 0.5590 0.5580 0.5580
15.478000 0.5560 0.5560 0.5540 0.5540 0.5530
15.502389 0.5530 0.5520 0.5520 0.5510 0.5480
15.527000 0.5470 0.5450 0.5450 0.5450 0.5430
15.551389 0.5420 0.5410 0.5400 0.5400 0.5390
15.575000 0.5360 0.5350 0.5340 0.5340 0.5320
15.599389 0.5320 0.5310 0.5310 0.5300 0.5300
15.624000 0.5290 0.5280 0.5260 0.5260 0.5260
15.648389 0.5260 0.5260 0.5260 0.5260 0.5250
15.673000 0.5250 0.5240 0.5240 0.5230 0.5210
15.697389 0.5190 0.5180 0.5150 0.5130 0.5090
15.722000 0.5080 0.5070 0.5060 0.5060 0.5060
15.746389 0.5070 0.5070 0.5090 0.5100 0.5100
15.770000 0.5120 0.5120 0.5100 0.5100 0.5090
15.794389 0.5090 0.5090 0.5080 0.5070 0.5070
15.819000 0.5070 0.5060 0.5060 0.5060 0.5040
15.843389 0.5030 0.5020 0.5020 0.5010 0.5000
15.868000 0.5000 0.5010 0.5010 0.5010 0.5000
15.892389 0.5000 0.5000 0.4980 0.4980 0.4980
15.917000 0.4980 0.4970 0.4970 0.4970 0.4970
15.941389 0.4960 0.4960 0.4960 0.4960 0.4950
15.965000 0.4950 0.4950 0.4950 0.4950 0.4950
15.989389 0.4950 0.4950
##END=
