##TITLE=POTASSIUM ORTHOARSENATE, MONOBASIC
$$ A.R.
##JCAMP-DX=4.24
##DATA TYPE=INFRARED SPECTRUM
##CLASS=COBLENTZ
##ORIGIN=MELLON INSTITUTE
##OWNER=COBLENTZ SOCIETY
Collection (C) 2018 copyright by the U.S. Secretary of Commerce
on behalf of the United States of America. All rights reserved.
##DATE=Not specified, most likely prior to 1970
##MOLFORM=K H2 As O4
##SOURCE REFERENCE=COBLENTZ NO. 499
##$NIST ID=B6000499
##$NIST SOURCE=COBLENTZ
##$NIST IMAGE=cob499
##SPECTROMETER/DATA SYSTEM=Not specified, most likely a prism, grating, or hybrid spectrometer.
##STATE=SOLID (NUJOL MULL)
##PATH LENGTH=
$$SPECTRAL CONTAMINATION DUE TO OIL AROUND 2900, 1450, 1380 CM^-^1
##SAMPLING PROCEDURE=TRANSMISSION
##RESOLUTION=4
##DATA PROCESSING=DIGITIZED BY NIST FROM HARD COPY
##XUNITS=MICROMETERS
##YUNITS=TRANSMITTANCE
##XFACTOR=1.000000
##YFACTOR=1
##DELTAX=000.006837
##FIRSTX=2.05
##LASTX=16.0097
##FIRSTY=0.897
##MAXX=16.0097
##MINX=2.05
##MAXY=0.9
##MINY=0.283
##NPOINTS=2043
##XYDATA=(X++(Y..Y))
2.050000 0.8970 0.8980 0.8980 0.8980 0.8980
2.084199 0.8980 0.8980 0.8980 0.8980 0.8980
2.118000 0.8980 0.8980 0.8980 0.8980 0.8980
2.152199 0.8980 0.8980 0.8980 0.9000 0.9000
2.186000 0.9000 0.9000 0.9000 0.9000 0.9000
2.220199 0.9000 0.9000 0.9000 0.9000 0.9000
2.255000 0.9000 0.9000 0.9000 0.9000 0.9000
2.289199 0.9000 0.9000 0.9000 0.9000 0.9000
2.323000 0.9000 0.9000 0.9000 0.9000 0.9000
2.357199 0.9000 0.9000 0.9000 0.9000 0.9000
2.392000 0.9000 0.9000 0.9000 0.9000 0.9000
2.426199 0.9000 0.9000 0.9000 0.9000 0.9000
2.460000 0.9000 0.9000 0.8980 0.8980 0.8980
2.494199 0.8980 0.8980 0.8980 0.8980 0.8980
2.528000 0.8980 0.8980 0.8980 0.8980 0.8980
2.562199 0.8980 0.8980 0.8980 0.8980 0.8980
2.597000 0.8980 0.8980 0.8980 0.8980 0.8980
2.631199 0.8980 0.8980 0.8980 0.8970 0.8970
2.665000 0.8970 0.8970 0.8970 0.8970 0.8970
2.699199 0.8970 0.8970 0.8970 0.8950 0.8950
2.733000 0.8950 0.8950 0.8950 0.8930 0.8930
2.767199 0.8930 0.8930 0.8910 0.8910 0.8910
2.802000 0.8910 0.8900 0.8900 0.8900 0.8900
2.836199 0.8900 0.8880 0.8860 0.8860 0.8850
2.870000 0.8850 0.8830 0.8850 0.8830 0.8830
2.904199 0.8830 0.8810 0.8810 0.8810 0.8810
2.938000 0.8790 0.8790 0.8780 0.8790 0.8780
2.972199 0.8780 0.8760 0.8760 0.8760 0.8760
3.007000 0.8740 0.8740 0.8740 0.8730 0.8730
3.041199 0.8710 0.8710 0.8710 0.8710 0.8690
3.075000 0.8690 0.8670 0.8660 0.8640 0.8640
3.109199 0.8640 0.8640 0.8640 0.8620 0.8620
3.144000 0.8610 0.8610 0.8590 0.8590 0.8570
3.178199 0.8550 0.8550 0.8550 0.8540 0.8520
3.212000 0.8500 0.8490 0.8490 0.8470 0.8450
3.246199 0.8430 0.8400 0.8380 0.8350 0.8310
3.280000 0.8250 0.8180 0.8020 0.8010 0.7870
3.314199 0.7650 0.7390 0.7110 0.6820 0.5740
3.349000 0.5230 0.4710 0.4200 0.3960 0.3010
3.383199 0.2890 0.2880 0.2840 0.2830 0.2830
3.417000 0.2930 0.2950 0.2880 0.2860 0.2840
3.451199 0.2830 0.2830 0.2830 0.2830 0.2980
3.485000 0.3490 0.3770 0.4660 0.5160 0.5360
3.519199 0.5540 0.5880 0.5980 0.6020 0.6150
3.554000 0.6260 0.6290 0.6360 0.6410 0.6430
3.588199 0.6440 0.6460 0.6460 0.6460 0.6480
3.622000 0.6480 0.6480 0.6480 0.6480 0.6480
3.656199 0.6460 0.6440 0.6440 0.6440 0.6460
3.690000 0.6460 0.6460 0.6480 0.6500 0.6500
3.724199 0.6510 0.6510 0.6510 0.6530 0.6550
3.759000 0.6550 0.6600 0.6620 0.6620 0.6620
3.793199 0.6650 0.6650 0.6700 0.6700 0.6700
3.827000 0.6720 0.6740 0.6740 0.6740 0.6740
3.861199 0.6740 0.6750 0.6750 0.6750 0.6770
3.896000 0.6770 0.6770 0.6750 0.6750 0.6740
3.930199 0.6740 0.6720 0.6700 0.6670 0.6630
3.964000 0.6620 0.6560 0.6550 0.6510 0.6460
3.998199 0.6440 0.6410 0.6380 0.6360 0.6320
4.032000 0.6310 0.6290 0.6290 0.6240 0.6200
4.066199 0.6190 0.6150 0.6140 0.6120 0.6070
4.101000 0.6030 0.6000 0.5980 0.5980 0.5960
4.135199 0.5900 0.5840 0.5810 0.5790 0.5780
4.169000 0.5740 0.5740 0.5740 0.5720 0.5720
4.203199 0.5710 0.5710 0.5710 0.5710 0.5710
4.237000 0.5710 0.5710 0.5710 0.5690 0.5710
4.271199 0.5710 0.5720 0.5720 0.5720 0.5720
4.306000 0.5720 0.5720 0.5720 0.5720 0.5720
4.340199 0.5720 0.5720 0.5720 0.5720 0.5720
4.374000 0.5720 0.5720 0.5720 0.5720 0.5720
4.408199 0.5710 0.5710 0.5710 0.5710 0.5710
4.443000 0.5710 0.5710 0.5710 0.5710 0.5710
4.477199 0.5720 0.5740 0.5760 0.5760 0.5780
4.511000 0.5790 0.5790 0.5810 0.5810 0.5840
4.545199 0.5880 0.5880 0.5880 0.5900 0.5910
4.579000 0.5910 0.5930 0.5930 0.5950 0.5950
4.613199 0.5960 0.5960 0.6000 0.6000 0.6020
4.648000 0.6030 0.6030 0.6030 0.6050 0.6050
4.682199 0.6070 0.6080 0.6100 0.6120 0.6120
4.716000 0.6150 0.6170 0.6170 0.6190 0.6190
4.750199 0.6200 0.6220 0.6220 0.6220 0.6220
4.784000 0.6240 0.6240 0.6260 0.6260 0.6260
4.818199 0.6270 0.6270 0.6270 0.6290 0.6290
4.853000 0.6320 0.6320 0.6340 0.6360 0.6360
4.887199 0.6380 0.6380 0.6380 0.6390 0.6390
4.921000 0.6390 0.6410 0.6410 0.6410 0.6410
4.955199 0.6430 0.6440 0.6440 0.6440 0.6440
4.989000 0.6440 0.6440 0.6440 0.6440 0.6440
5.023199 0.6440 0.6440 0.6440 0.6440 0.6440
5.058000 0.6440 0.6430 0.6430 0.6430 0.6410
5.092199 0.6410 0.6390 0.6390 0.6390 0.6390
5.126000 0.6380 0.6380 0.6380 0.6360 0.6340
5.160199 0.6320 0.6320 0.6310 0.6310 0.6290
5.195000 0.6270 0.6260 0.6240 0.6220 0.6200
5.229199 0.6200 0.6190 0.6150 0.6120 0.6120
5.263000 0.6100 0.6080 0.6080 0.6070 0.6070
5.297199 0.6050 0.6030 0.6030 0.6020 0.6030
5.331000 0.6020 0.6000 0.6000 0.5980 0.5980
5.365199 0.5980 0.5960 0.5950 0.5950 0.5930
5.400000 0.5900 0.5900 0.5880 0.5860 0.5860
5.434199 0.5840 0.5830 0.5830 0.5810 0.5790
5.468000 0.5780 0.5760 0.5740 0.5740 0.5720
5.502199 0.5720 0.5710 0.5690 0.5690 0.5660
5.536000 0.5640 0.5640 0.5620 0.5600 0.5570
5.570199 0.5550 0.5550 0.5540 0.5520 0.5480
5.605000 0.5470 0.5470 0.5450 0.5430 0.5420
5.639199 0.5400 0.5380 0.5350 0.5350 0.5330
5.673000 0.5330 0.5330 0.5310 0.5300 0.5260
5.707199 0.5260 0.5240 0.5230 0.5230 0.5230
5.741000 0.5210 0.5190 0.5180 0.5180 0.5140
5.775199 0.5120 0.5110 0.5090 0.5040 0.5020
5.810000 0.5000 0.4990 0.4990 0.4990 0.4950
5.844199 0.4920 0.4920 0.4900 0.4880 0.4850
5.878000 0.4830 0.4810 0.4810 0.4810 0.4800
5.912199 0.4780 0.4780 0.4760 0.4750 0.4730
5.947000 0.4730 0.4730 0.4730 0.4730 0.4710
5.981199 0.4710 0.4710 0.4710 0.4690 0.4680
6.015000 0.4680 0.4680 0.4680 0.4680 0.4680
6.049199 0.4640 0.4640 0.4640 0.4640 0.4630
6.083000 0.4630 0.4630 0.4630 0.4610 0.4590
6.117199 0.4610 0.4610 0.4570 0.4570 0.4560
6.152000 0.4560 0.4560 0.4570 0.4560 0.4540
6.186199 0.4540 0.4540 0.4540 0.4540 0.4540
6.220000 0.4540 0.4540 0.4540 0.4540 0.4540
6.254199 0.4540 0.4540 0.4540 0.4540 0.4540
6.288000 0.4560 0.4560 0.4560 0.4560 0.4560
6.322199 0.4560 0.4560 0.4560 0.4560 0.4560
6.357000 0.4560 0.4560 0.4560 0.4560 0.4570
6.391199 0.4570 0.4570 0.4570 0.4590 0.4590
6.425000 0.4610 0.4610 0.4610 0.4630 0.4630
6.459199 0.4630 0.4630 0.4630 0.4640 0.4640
6.493000 0.4640 0.4640 0.4660 0.4680 0.4680
6.527199 0.4690 0.4690 0.4690 0.4710 0.4710
6.562000 0.4710 0.4710 0.4710 0.4730 0.4730
6.596199 0.4730 0.4730 0.4730 0.4730 0.4730
6.630000 0.4730 0.4730 0.4710 0.4710 0.4710
6.664199 0.4710 0.4690 0.4690 0.4680 0.4640
6.699000 0.4630 0.4630 0.4610 0.4570 0.4540
6.733199 0.4510 0.4470 0.4420 0.4390 0.4330
6.767000 0.4300 0.4250 0.4150 0.4010 0.4010
6.801199 0.3940 0.3870 0.3800 0.3790 0.3730
6.835000 0.3720 0.3700 0.3670 0.3670 0.3670
6.869199 0.3670 0.3670 0.3680 0.3700 0.3720
6.904000 0.3730 0.3790 0.3850 0.3910 0.3940
6.938199 0.3970 0.4030 0.4090 0.4150 0.4230
6.972000 0.4320 0.4330 0.4350 0.4390 0.4420
7.006199 0.4440 0.4450 0.4470 0.4490 0.4490
7.040000 0.4510 0.4510 0.4520 0.4520 0.4520
7.074199 0.4540 0.4570 0.4590 0.4590 0.4610
7.109000 0.4610 0.4630 0.4630 0.4630 0.4640
7.143199 0.4640 0.4610 0.4590 0.4540 0.4440
7.177000 0.4350 0.4280 0.4280 0.4270 0.4250
7.211199 0.4210 0.4210 0.4210 0.4210 0.4210
7.245000 0.4210 0.4230 0.4250 0.4250 0.4300
7.279199 0.4320 0.4330 0.4350 0.4370 0.4400
7.314000 0.4420 0.4470 0.4490 0.4510 0.4520
7.348199 0.4520 0.4540 0.4560 0.4560 0.4560
7.382000 0.4570 0.4570 0.4570 0.4590 0.4590
7.416199 0.4610 0.4610 0.4610 0.4610 0.4590
7.451000 0.4590 0.4570 0.4540 0.4540 0.4540
7.485199 0.4520 0.4520 0.4510 0.4490 0.4440
7.519000 0.4420 0.4400 0.4370 0.4330 0.4320
7.553199 0.4280 0.4270 0.4250 0.4230 0.4210
7.587000 0.4200 0.4180 0.4150 0.4110 0.4060
7.621199 0.4060 0.4030 0.4030 0.3990 0.3970
7.656000 0.3970 0.3960 0.3940 0.3920 0.3910
7.690199 0.3890 0.3890 0.3850 0.3840 0.3840
7.724000 0.3820 0.3820 0.3800 0.3790 0.3770
7.758199 0.3750 0.3750 0.3730 0.3730 0.3730
7.792000 0.3730 0.3720 0.3720 0.3700 0.3700
7.826199 0.3700 0.3700 0.3720 0.3700 0.3700
7.861000 0.3700 0.3700 0.3700 0.3700 0.3700
7.895199 0.3720 0.3720 0.3720 0.3730 0.3750
7.929000 0.3750 0.3770 0.3770 0.3790 0.3800
7.963199 0.3800 0.3820 0.3820 0.3840 0.3850
7.998000 0.3870 0.3890 0.3890 0.3910 0.3920
8.032199 0.3940 0.3940 0.3960 0.3970 0.3970
8.066000 0.3990 0.4010 0.4010 0.4030 0.4030
8.100199 0.4040 0.4040 0.4060 0.4060 0.4080
8.134000 0.4090 0.4110 0.4110 0.4110 0.4130
8.168199 0.4130 0.4130 0.4150 0.4160 0.4180
8.203000 0.4180 0.4200 0.4200 0.4210 0.4210
8.237199 0.4210 0.4230 0.4230 0.4230 0.4250
8.271000 0.4270 0.4280 0.4280 0.4300 0.4320
8.305199 0.4320 0.4320 0.4330 0.4330 0.4330
8.339000 0.4370 0.4370 0.4370 0.4390 0.4390
8.373199 0.4400 0.4420 0.4420 0.4440 0.4440
8.408000 0.4450 0.4450 0.4450 0.4470 0.4470
8.442199 0.4490 0.4510 0.4510 0.4520 0.4520
8.476000 0.4540 0.4540 0.4560 0.4560 0.4570
8.510199 0.4590 0.4610 0.4610 0.4630 0.4630
8.544000 0.4630 0.4630 0.4640 0.4640 0.4660
8.578199 0.4660 0.4680 0.4690 0.4710 0.4730
8.613000 0.4730 0.4730 0.4730 0.4750 0.4750
8.647199 0.4750 0.4800 0.4800 0.4800 0.4810
8.681000 0.4810 0.4830 0.4830 0.4850 0.4830
8.715199 0.4850 0.4850 0.4880 0.4880 0.4900
8.750000 0.4900 0.4920 0.4920 0.4930 0.4930
8.784199 0.4950 0.4950 0.4970 0.4990 0.4990
8.818000 0.5000 0.5000 0.5020 0.5020 0.5040
8.852199 0.5060 0.5060 0.5070 0.5070 0.5090
8.886000 0.5090 0.5110 0.5110 0.5120 0.5140
8.920199 0.5140 0.5160 0.5180 0.5190 0.5190
8.955000 0.5210 0.5230 0.5230 0.5240 0.5240
8.989199 0.5260 0.5280 0.5280 0.5300 0.5300
9.023000 0.5310 0.5310 0.5330 0.5330 0.5330
9.057199 0.5330 0.5350 0.5360 0.5360 0.5380
9.091000 0.5400 0.5400 0.5400 0.5420 0.5420
9.125199 0.5420 0.5430 0.5430 0.5430 0.5430
9.160000 0.5430 0.5470 0.5470 0.5470 0.5500
9.194199 0.5500 0.5520 0.5520 0.5520 0.5540
9.228000 0.5540 0.5540 0.5550 0.5550 0.5550
9.262199 0.5590 0.5590 0.5590 0.5600 0.5600
9.296000 0.5600 0.5600 0.5620 0.5600 0.5620
9.330199 0.5620 0.5640 0.5640 0.5660 0.5660
9.365000 0.5660 0.5660 0.5660 0.5670 0.5670
9.399199 0.5670 0.5670 0.5690 0.5690 0.5710
9.433000 0.5710 0.5710 0.5710 0.5710 0.5710
9.467199 0.5720 0.5720 0.5740 0.5740 0.5740
9.502000 0.5740 0.5740 0.5740 0.5740 0.5740
9.536199 0.5740 0.5740 0.5740 0.5740 0.5740
9.570000 0.5740 0.5740 0.5740 0.5740 0.5760
9.604199 0.5760 0.5760 0.5760 0.5760 0.5740
9.638000 0.5760 0.5760 0.5760 0.5760 0.5760
9.672199 0.5760 0.5760 0.5760 0.5760 0.5760
9.707000 0.5760 0.5790 0.5790 0.5790 0.5810
9.741199 0.5810 0.5810 0.5810 0.5830 0.5830
9.775000 0.5840 0.5840 0.5840 0.5840 0.5860
9.809199 0.5880 0.5880 0.5900 0.5910 0.5930
9.843000 0.5950 0.5960 0.5980 0.6000 0.6000
9.877199 0.6020 0.6020 0.6020 0.6030 0.6030
9.912000 0.6030 0.6080 0.6100 0.6120 0.6140
9.946199 0.6170 0.6190 0.6190 0.6190 0.6200
9.980000 0.6200 0.6240 0.6260 0.6260 0.6270
10.014199 0.6270 0.6310 0.6320 0.6320 0.6360
10.048000 0.6360 0.6380 0.6410 0.6430 0.6430
10.082199 0.6440 0.6440 0.6460 0.6500 0.6500
10.117000 0.6510 0.6530 0.6530 0.6550 0.6550
10.151199 0.6550 0.6550 0.6560 0.6580 0.6580
10.185000 0.6600 0.6600 0.6620 0.6630 0.6630
10.219199 0.6650 0.6650 0.6650 0.6670 0.6670
10.254000 0.6680 0.6720 0.6720 0.6740 0.6750
10.288199 0.6750 0.6750 0.6770 0.6800 0.6820
10.322000 0.6840 0.6840 0.6840 0.6860 0.6890
10.356199 0.6910 0.6920 0.6940 0.6940 0.6990
10.390000 0.6990 0.7010 0.7030 0.7040 0.7040
10.424199 0.7040 0.7060 0.7060 0.7060 0.7080
10.459000 0.7080 0.7100 0.7130 0.7130 0.7150
10.493199 0.7160 0.7180 0.7200 0.7220 0.7220
10.527000 0.7230 0.7230 0.7250 0.7250 0.7300
10.561199 0.7320 0.7320 0.7320 0.7340 0.7340
10.595000 0.7340 0.7350 0.7370 0.7370 0.7390
10.629199 0.7390 0.7400 0.7400 0.7400 0.7400
10.664000 0.7420 0.7440 0.7460 0.7440 0.7440
10.698199 0.7420 0.7440 0.7460 0.7460 0.7460
10.732000 0.7470 0.7470 0.7470 0.7490 0.7490
10.766199 0.7490 0.7490 0.7510 0.7510 0.7530
10.800000 0.7530 0.7510 0.7530 0.7540 0.7540
10.834199 0.7540 0.7540 0.7540 0.7540 0.7560
10.869000 0.7560 0.7560 0.7560 0.7560 0.7560
10.903199 0.7560 0.7540 0.7540 0.7540 0.7540
10.937000 0.7540 0.7540 0.7540 0.7540 0.7530
10.971199 0.7510 0.7510 0.7490 0.7490 0.7470
11.006000 0.7470 0.7440 0.7420 0.7390 0.7370
11.040199 0.7350 0.7340 0.7320 0.7300 0.7300
11.074000 0.7250 0.7200 0.7180 0.7150 0.7130
11.108199 0.7110 0.7060 0.7040 0.6990 0.6960
11.142000 0.6890 0.6870 0.6840 0.6820 0.6790
11.176199 0.6770 0.6740 0.6700 0.6650 0.6600
11.211000 0.6580 0.6560 0.6530 0.6510 0.6500
11.245199 0.6480 0.6430 0.6390 0.6380 0.6360
11.279000 0.6320 0.6310 0.6270 0.6260 0.6220
11.313199 0.6200 0.6190 0.6150 0.6140 0.6120
11.347000 0.6080 0.6030 0.6030 0.6020 0.6000
11.381199 0.5960 0.5950 0.5910 0.5900 0.5880
11.416000 0.5840 0.5840 0.5830 0.5810 0.5790
11.450199 0.5780 0.5740 0.5720 0.5720 0.5710
11.484000 0.5690 0.5670 0.5660 0.5620 0.5620
11.518199 0.5590 0.5550 0.5540 0.5520 0.5520
11.553000 0.5500 0.5480 0.5480 0.5450 0.5430
11.587199 0.5420 0.5400 0.5400 0.5400 0.5380
11.621000 0.5380 0.5360 0.5360 0.5350 0.5350
11.655199 0.5350 0.5330 0.5310 0.5310 0.5300
11.689000 0.5280 0.5280 0.5260 0.5240 0.5230
11.723199 0.5230 0.5230 0.5230 0.5240 0.5240
11.758000 0.5260 0.5260 0.5260 0.5260 0.5280
11.792199 0.5300 0.5300 0.5310 0.5330 0.5330
11.826000 0.5330 0.5350 0.5350 0.5350 0.5350
11.860199 0.5350 0.5360 0.5380 0.5400 0.5400
11.894000 0.5420 0.5420 0.5420 0.5430 0.5430
11.928199 0.5450 0.5450 0.5450 0.5450 0.5450
11.963000 0.5470 0.5470 0.5470 0.5450 0.5470
11.997199 0.5480 0.5480 0.5480 0.5480 0.5480
12.031000 0.5500 0.5500 0.5500 0.5500 0.5480
12.065199 0.5480 0.5480 0.5480 0.5480 0.5480
12.099000 0.5480 0.5480 0.5480 0.5480 0.5480
12.133199 0.5480 0.5480 0.5480 0.5480 0.5480
12.168000 0.5470 0.5470 0.5480 0.5480 0.5480
12.202199 0.5470 0.5480 0.5480 0.5480 0.5480
12.236000 0.5480 0.5480 0.5480 0.5480 0.5470
12.270199 0.5450 0.5450 0.5450 0.5450 0.5450
12.305000 0.5430 0.5430 0.5430 0.5430 0.5430
12.339199 0.5430 0.5430 0.5430 0.5430 0.5430
12.373000 0.5430 0.5430 0.5420 0.5430 0.5430
12.407199 0.5430 0.5430 0.5430 0.5430 0.5420
12.441000 0.5420 0.5420 0.5420 0.5420 0.5420
12.475199 0.5400 0.5400 0.5400 0.5420 0.5400
12.510000 0.5400 0.5380 0.5400 0.5380 0.5380
12.544199 0.5360 0.5350 0.5350 0.5350 0.5330
12.578000 0.5330 0.5310 0.5310 0.5310 0.5310
12.612199 0.5300 0.5300 0.5300 0.5300 0.5280
12.646000 0.5280 0.5280 0.5260 0.5260 0.5260
12.680199 0.5240 0.5240 0.5240 0.5230 0.5230
12.715000 0.5230 0.5210 0.5210 0.5190 0.5190
12.749199 0.5190 0.5180 0.5180 0.5160 0.5140
12.783000 0.5140 0.5140 0.5120 0.5110 0.5090
12.817199 0.5070 0.5070 0.5060 0.5060 0.5040
12.851000 0.5040 0.5040 0.5020 0.5020 0.5020
12.885199 0.5020 0.5000 0.4990 0.4990 0.4970
12.920000 0.4970 0.4950 0.4950 0.4930 0.4920
12.954199 0.4900 0.4880 0.4870 0.4850 0.4830
12.988000 0.4830 0.4810 0.4800 0.4780 0.4760
13.022199 0.4750 0.4730 0.4730 0.4710 0.4710
13.057000 0.4690 0.4690 0.4680 0.4680 0.4660
13.091199 0.4660 0.4640 0.4630 0.4630 0.4630
13.125000 0.4630 0.4610 0.4610 0.4610 0.4610
13.159199 0.4610 0.4590 0.4570 0.4570 0.4560
13.193000 0.4560 0.4560 0.4560 0.4570 0.4570
13.227199 0.4560 0.4570 0.4560 0.4540 0.4540
13.262000 0.4540 0.4540 0.4520 0.4520 0.4520
13.296199 0.4520 0.4520 0.4510 0.4510 0.4510
13.330000 0.4510 0.4510 0.4510 0.4510 0.4510
13.364199 0.4510 0.4510 0.4520 0.4510 0.4510
13.398000 0.4510 0.4490 0.4510 0.4510 0.4510
13.432199 0.4510 0.4510 0.4510 0.4510 0.4510
13.467000 0.4510 0.4510 0.4510 0.4520 0.4520
13.501199 0.4520 0.4520 0.4520 0.4520 0.4520
13.535000 0.4520 0.4520 0.4540 0.4540 0.4540
13.569199 0.4540 0.4560 0.4560 0.4570 0.4590
13.603000 0.4610 0.4610 0.4610 0.4630 0.4640
13.637199 0.4640 0.4640 0.4660 0.4680 0.4690
13.672000 0.4690 0.4710 0.4710 0.4730 0.4750
13.706199 0.4750 0.4750 0.4760 0.4780 0.4800
13.740000 0.4810 0.4810 0.4830 0.4830 0.4850
13.774199 0.4850 0.4870 0.4880 0.4900 0.4920
13.809000 0.4930 0.4950 0.4970 0.4970 0.4970
13.843199 0.4990 0.4970 0.5000 0.5020 0.5040
13.877000 0.5040 0.5070 0.5070 0.5110 0.5110
13.911199 0.5120 0.5160 0.5180 0.5190 0.5190
13.945000 0.5210 0.5210 0.5230 0.5260 0.5280
13.979199 0.5300 0.5310 0.5310 0.5330 0.5350
14.014000 0.5360 0.5380 0.5380 0.5400 0.5420
14.048199 0.5420 0.5420 0.5430 0.5450 0.5450
14.082000 0.5450 0.5470 0.5500 0.5500 0.5520
14.116199 0.5520 0.5520 0.5540 0.5540 0.5540
14.150000 0.5550 0.5550 0.5570 0.5600 0.5600
14.184199 0.5600 0.5590 0.5590 0.5620 0.5640
14.219000 0.5660 0.5660 0.5670 0.5690 0.5690
14.253199 0.5690 0.5710 0.5710 0.5740 0.5740
14.287000 0.5740 0.5740 0.5760 0.5790 0.5810
14.321199 0.5810 0.5830 0.5840 0.5840 0.5840
14.356000 0.5860 0.5880 0.5900 0.5910 0.5910
14.390199 0.5930 0.5950 0.5950 0.5960 0.5960
14.424000 0.5980 0.5980 0.5980 0.6000 0.6000
14.458199 0.6020 0.6020 0.6020 0.6020 0.6030
14.492000 0.6050 0.6050 0.6050 0.6050 0.6050
14.526199 0.6070 0.6050 0.6080 0.6080 0.6100
14.561000 0.6120 0.6120 0.6140 0.6140 0.6140
14.595199 0.6150 0.6150 0.6170 0.6170 0.6190
14.629000 0.6200 0.6200 0.6200 0.6200 0.6200
14.663199 0.6220 0.6220 0.6240 0.6240 0.6260
14.697000 0.6270 0.6290 0.6290 0.6290 0.6290
14.731199 0.6310 0.6310 0.6320 0.6340 0.6340
14.766000 0.6340 0.6360 0.6360 0.6380 0.6390
14.800199 0.6390 0.6390 0.6410 0.6390 0.6410
14.834000 0.6410 0.6430 0.6430 0.6430 0.6440
14.868199 0.6440 0.6440 0.6440 0.6460 0.6460
14.902000 0.6460 0.6460 0.6480 0.6480 0.6480
14.936199 0.6480 0.6480 0.6480 0.6500 0.6500
14.971000 0.6500 0.6510 0.6500 0.6500 0.6480
15.005199 0.6480 0.6510 0.6530 0.6510 0.6510
15.039000 0.6530 0.6530 0.6530 0.6530 0.6530
15.073199 0.6530 0.6550 0.6550 0.6550 0.6550
15.108000 0.6550 0.6550 0.6550 0.6560 0.6560
15.142199 0.6560 0.6560 0.6560 0.6560 0.6560
15.176000 0.6580 0.6580 0.6580 0.6580 0.6600
15.210199 0.6600 0.6620 0.6620 0.6620 0.6600
15.244000 0.6600 0.6620 0.6620 0.6620 0.6620
15.278199 0.6620 0.6630 0.6630 0.6630 0.6630
15.313000 0.6630 0.6630 0.6630 0.6630 0.6630
15.347199 0.6630 0.6630 0.6630 0.6650 0.6650
15.381000 0.6650 0.6650 0.6650 0.6670 0.6670
15.415199 0.6650 0.6650 0.6650 0.6650 0.6670
15.449000 0.6670 0.6670 0.6670 0.6670 0.6670
15.483199 0.6680 0.6680 0.6680 0.6680 0.6680
15.518000 0.6680 0.6700 0.6700 0.6720 0.6720
15.552199 0.6720 0.6740 0.6740 0.6740 0.6750
15.586000 0.6750 0.6740 0.6750 0.6750 0.6750
15.620199 0.6770 0.6750 0.6750 0.6770 0.6770
15.654000 0.6790 0.6790 0.6790 0.6790 0.6790
15.688199 0.6790 0.6790 0.6800 0.6800 0.6800
15.723000 0.6820 0.6820 0.6800 0.6820 0.6820
15.757199 0.6820 0.6820 0.6820 0.6820 0.6840
15.791000 0.6840 0.6840 0.6820 0.6840 0.6840
15.825199 0.6840 0.6840 0.6840 0.6840 0.6840
15.860000 0.6840 0.6840 0.6840 0.6840 0.6860
15.894199 0.6860 0.6860 0.6860 0.6860 0.6870
15.928000 0.6860 0.6870 0.6870 0.6890 0.6890
15.962199 0.6870 0.6870 0.6870 0.6890 0.6890
15.996000 0.6870 0.6870 0.6870
##END=
