##TITLE=9Alpha-FLUORO-16Alpha-METHYLPREDNISOLONE-21-PHOSPHATE DISODIUM SALT
##JCAMP-DX=4.24
##DATA TYPE=INFRARED SPECTRUM
##CLASS=COBLENTZ III
##ORIGIN=MERCK SHARPE & DOHME RESEARCH LABORATORIES, Nelson Trenner
##OWNER=COBLENTZ SOCIETY
Collection (C) 2018 copyright by the U.S. Secretary of Commerce
on behalf of the United States of America. All rights reserved.
##DATE=1967
##NAMES=DEXAMETHASONE-21-PHOSPHATE DISODIUM SALT
##MOLFORM=C22 H28 F Na2 O8 P
##SOURCE REFERENCE=COBLENTZ NO. 5226
##$NIST ID=B6005226
##$NIST SOURCE=COBLENTZ
##$NIST IMAGE=cob5226
##SPECTROMETER/DATA SYSTEM=PERKIN-ELMER 521 (GRATING)
##INSTRUMENT PARAMETERS=GRATING CHANGE AT 1996 CM^-^1
##STATE=SOLID (NUJOL MULL)
##PATH LENGTH=
$$SPECTRAL CONTAMINATIN DUE TO OIL AROUND 2900, 1450, 1370 CM^-^1
##SAMPLING PROCEDURE=TRANSMISSION
##RESOLUTION=4
##DATA PROCESSING=DIGITIZED BY NIST FROM HARD COPY (FROM TWO SEGMENTS)
##XUNITS=1/CM
##YUNITS=TRANSMITTANCE
##XFACTOR=1.000000
##YFACTOR=1
##DELTAX=0.755532
##FIRSTX=601.511
##LASTX=4003.67
##FIRSTY=0.308
##MAXX=4003.67
##MINX=601.511
##MAXY=0.91
##MINY=0.033
##NPOINTS=4504
##XYDATA=(X++(Y..Y))
601.511000 0.3080 0.3110 0.3130 0.3140 0.3160
605.288658 0.3180 0.3200 0.3210 0.3220 0.3230
609.066316 0.3240 0.3270 0.3290 0.3310 0.3340
612.843974 0.3380 0.3410 0.3410 0.3420 0.3420
616.621631 0.3420 0.3420 0.3420 0.3420 0.3420
620.399289 0.3420 0.3420 0.3420 0.3420 0.3420
624.176947 0.3420 0.3420 0.3420 0.3420 0.3430
627.954605 0.3430 0.3440 0.3440 0.3440 0.3440
631.732263 0.3440 0.3450 0.3450 0.3450 0.3450
635.509921 0.3450 0.3450 0.3450 0.3450 0.3450
639.287579 0.3450 0.3450 0.3440 0.3440 0.3440
643.065236 0.3430 0.3430 0.3430 0.3440 0.3440
646.842894 0.3440 0.3440 0.3440 0.3440 0.3430
650.620552 0.3430 0.3430 0.3440 0.3440 0.3440
654.398210 0.3440 0.3430 0.3430 0.3420 0.3420
658.175868 0.3420 0.3410 0.3400 0.3400 0.3400
661.953526 0.3390 0.3390 0.3390 0.3390 0.3380
665.731184 0.3380 0.3380 0.3380 0.3380 0.3380
669.508841 0.3380 0.3380 0.3380 0.3380 0.3380
673.286499 0.3380 0.3380 0.3360 0.3350 0.3350
677.064157 0.3350 0.3350 0.3350 0.3340 0.3330
680.841815 0.3330 0.3330 0.3330 0.3330 0.3320
684.619473 0.3310 0.3300 0.3300 0.3290 0.3270
688.397131 0.3250 0.3230 0.3220 0.3210 0.3200
692.174789 0.3170 0.3150 0.3150 0.3140 0.3140
695.952447 0.3140 0.3140 0.3140 0.3140 0.3140
699.730104 0.3130 0.3130 0.3130 0.3120 0.3110
703.507762 0.3100 0.3060 0.3030 0.2970 0.2950
707.285420 0.2950 0.2940 0.2940 0.2940 0.2940
711.063078 0.2950 0.2950 0.2950 0.2960 0.2980
714.840736 0.3000 0.3010 0.3030 0.3040 0.3070
718.618394 0.3120 0.3140 0.3180 0.3359 0.3430
722.396052 0.3490 0.3530 0.3560 0.3590 0.3610
726.173709 0.3610 0.3610 0.3620 0.3640 0.3700
729.951367 0.3710 0.3760 0.3800 0.3820 0.3870
733.729025 0.3900 0.3980 0.4000 0.4020 0.4030
737.506683 0.4080 0.4100 0.4110 0.4110 0.4130
741.284341 0.4140 0.4140 0.4150 0.4140 0.4140
745.061999 0.4150 0.4160 0.4170 0.4190 0.4190
748.839657 0.4190 0.4190 0.4190 0.4190 0.4200
752.617314 0.4200 0.4200 0.4210 0.4200 0.4210
756.394972 0.4210 0.4210 0.4210 0.4210 0.4220
760.172630 0.4220 0.4240 0.4260 0.4280 0.4290
763.950288 0.4300 0.4300 0.4310 0.4320 0.4340
767.727946 0.4340 0.4330 0.4330 0.4330 0.4340
771.505604 0.4340 0.4330 0.4330 0.4330 0.4330
775.283262 0.4330 0.4330 0.4330 0.4330 0.4330
779.060919 0.4330 0.4330 0.4340 0.4350 0.4360
782.838577 0.4370 0.4370 0.4370 0.4370 0.4370
786.616235 0.4370 0.4370 0.4370 0.4370 0.4370
790.393893 0.4370 0.4370 0.4370 0.4370 0.4370
794.171551 0.4360 0.4360 0.4340 0.4310 0.4270
797.949209 0.4220 0.4190 0.4170 0.4150 0.4100
801.726867 0.4090 0.4070 0.4050 0.4030 0.4020
805.504524 0.4020 0.4020 0.4030 0.4050 0.4080
809.282182 0.4090 0.4110 0.4120 0.4140 0.4140
813.059840 0.4140 0.4140 0.4130 0.4120 0.4100
816.837498 0.4050 0.4040 0.4010 0.3990 0.3960
820.615156 0.3940 0.3920 0.3910 0.3900 0.3900
824.392814 0.3900 0.3900 0.3890 0.3870 0.3850
828.170472 0.3850 0.3840 0.3840 0.3830 0.3820
831.948129 0.3820 0.3820 0.3820 0.3820 0.3820
835.725787 0.3830 0.3820 0.3820 0.3810 0.3800
839.503445 0.3730 0.3710 0.3680 0.3660 0.3650
843.281103 0.3640 0.3630 0.3630 0.3630 0.3630
847.058761 0.3630 0.3630 0.3630 0.3620 0.3620
850.836419 0.3620 0.3620 0.3620 0.3620 0.3620
854.614077 0.3630 0.3630 0.3630 0.3640 0.3640
858.391735 0.3650 0.3660 0.3660 0.3680 0.3690
862.169392 0.3710 0.3740 0.3800 0.3850 0.3920
865.947050 0.3980 0.4040 0.4070 0.4090 0.4090
869.724708 0.4100 0.4100 0.4100 0.4090 0.4070
873.502366 0.4040 0.3760 0.3520 0.3410 0.3290
877.280024 0.3061 0.2841 0.2601 0.2381 0.2151
881.057682 0.1930 0.1930 0.2120 0.2320 0.2519
884.835340 0.2689 0.2780 0.3477 0.3848 0.4089
888.612997 0.4370 0.4510 0.4580 0.4660 0.4790
892.390655 0.4800 0.4820 0.4820 0.4800 0.4700
896.168313 0.4610 0.4510 0.4390 0.4280 0.4190
899.945971 0.4110 0.4060 0.4030 0.4020 0.4030
903.723629 0.4040 0.4050 0.4060 0.4060 0.4050
907.501287 0.4050 0.4020 0.3990 0.3970 0.3950
911.278945 0.3910 0.3850 0.3800 0.3760 0.3710
915.056602 0.3710 0.3730 0.3850 0.3940 0.4089
918.834260 0.4230 0.4380 0.4530 0.4670 0.4800
922.611918 0.4920 0.5010 0.5060 0.5110 0.5130
926.389576 0.5140 0.5190 0.5230 0.5300 0.5400
930.167234 0.5450 0.5520 0.5520 0.5520 0.5530
933.944892 0.5540 0.5540 0.5530 0.5530 0.5510
937.722550 0.5321 0.5190 0.5041 0.4901 0.4751
941.500207 0.4590 0.4440 0.4290 0.4290 0.4380
945.277865 0.4470 0.4560 0.4630 0.4789 0.4949
949.055523 0.4950 0.5140 0.5150 0.5210 0.5220
952.833181 0.5220 0.5240 0.5240 0.5240 0.5230
956.610839 0.5230 0.5220 0.5180 0.5120 0.4821
960.388497 0.4621 0.4421 0.4051 0.3731 0.3471
964.166155 0.3360 0.3240 0.3060 0.2900 0.2770
967.943812 0.2660 0.2550 0.2510 0.2490 0.2470
971.721470 0.2420 0.2290 0.2250 0.2210 0.2180
975.499128 0.2100 0.2060 0.2000 0.1980 0.1980
979.276786 0.1970 0.1970 0.1970 0.1980 0.1990
983.054444 0.2000 0.2000 0.2030 0.2080 0.2150
986.832102 0.2220 0.2260 0.2330 0.2480 0.2809
990.609760 0.3339 0.3440 0.3649 0.3839 0.3999
994.387417 0.4110 0.4200 0.4280 0.4330 0.4390
998.165075 0.4460 0.4530 0.4849 0.4880 0.4890
1001.942733 0.4870 0.4860 0.4850 0.4790 0.4700
1005.720391 0.4620 0.4570 0.4570 0.4540 0.4510
1009.498049 0.4490 0.4470 0.4450 0.4440 0.4430
1013.275707 0.4430 0.4430 0.4410 0.4400 0.4390
1017.053365 0.4340 0.4300 0.4150 0.4030 0.3840
1020.831023 0.3700 0.3690 0.3690 0.3690 0.3700
1024.608680 0.3700 0.3700 0.3700 0.3690 0.3690
1028.386338 0.3680 0.3670 0.3650 0.3630 0.3630
1032.163996 0.3620 0.3610 0.3610 0.3620 0.3630
1035.941654 0.3630 0.3650 0.3670 0.3690 0.3710
1039.719312 0.3710 0.3710 0.3700 0.3700 0.3680
1043.496970 0.3660 0.3600 0.3520 0.3420 0.3350
1047.274628 0.3260 0.3160 0.3010 0.2860 0.2730
1051.052285 0.2551 0.2351 0.2121 0.1971 0.1940
1054.829943 0.1920 0.1920 0.1920 0.1910 0.1910
1058.607601 0.1910 0.1910 0.1910 0.1900 0.1900
1062.385259 0.1880 0.1830 0.1790 0.1720 0.1690
1066.162917 0.1620 0.1590 0.1560 0.1540 0.1520
1069.940575 0.1510 0.1490 0.1490 0.1480 0.1470
1073.718233 0.1470 0.1470 0.1470 0.1470 0.1470
1077.495890 0.1460 0.1460 0.1460 0.1460 0.1460
1081.273548 0.1460 0.1460 0.1460 0.1460 0.1460
1085.051206 0.1460 0.1460 0.1460 0.1460 0.1470
1088.828864 0.1470 0.1470 0.1470 0.1480 0.1480
1092.606522 0.1480 0.1480 0.1490 0.1500 0.1510
1096.384180 0.1520 0.1520 0.1530 0.1530 0.1560
1100.161838 0.1570 0.1600 0.1620 0.1670 0.1710
1103.939495 0.1740 0.1790 0.1820 0.1860 0.1890
1107.717153 0.1900 0.1910 0.1920 0.1930 0.1950
1111.494811 0.1960 0.1960 0.1970 0.1970 0.1960
1115.272469 0.1960 0.1950 0.1930 0.1910 0.1900
1119.050127 0.1790 0.1750 0.1610 0.1590 0.1550
1122.827785 0.1470 0.1450 0.1410 0.1390 0.1380
1126.605443 0.1380 0.1390 0.1400 0.1410 0.1420
1130.383100 0.1420 0.1440 0.1450 0.1470 0.1500
1134.160758 0.1520 0.1550 0.1590 0.1600 0.1640
1137.938416 0.1670 0.1700 0.1750 0.1790 0.1810
1141.716074 0.1890 0.2000 0.2070 0.2090 0.2140
1145.493732 0.2200 0.2230 0.2240 0.2280 0.2340
1149.271390 0.2380 0.2440 0.2470 0.2510 0.2609
1153.049048 0.2710 0.2770 0.2820 0.2880 0.2960
1156.826706 0.3030 0.3110 0.3170 0.3339 0.3519
1160.604363 0.3570 0.3680 0.3740 0.3790 0.3800
1164.382021 0.3880 0.3960 0.3990 0.4070 0.4209
1168.159679 0.4320 0.4430 0.4570 0.4660 0.4760
1171.937337 0.4850 0.4900 0.4990 0.4990 0.5010
1175.714995 0.4990 0.4970 0.4960 0.4960 0.4970
1179.492653 0.4980 0.5000 0.5040 0.5060 0.5120
1183.270311 0.5200 0.5280 0.5350 0.5390 0.5420
1187.047968 0.5460 0.5510 0.5530 0.5540 0.5540
1190.825626 0.5530 0.5520 0.5500 0.5490 0.5460
1194.603284 0.5430 0.5410 0.5400 0.5410 0.5470
1198.380942 0.5530 0.5600 0.5660 0.5720 0.5770
1202.158600 0.5850 0.5910 0.6069 0.6150 0.6230
1205.936258 0.6280 0.6360 0.6380 0.6390 0.6400
1209.713916 0.6400 0.6410 0.6410 0.6410 0.6420
1213.491573 0.6420 0.6420 0.6420 0.6430 0.6430
1217.269231 0.6430 0.6420 0.6420 0.6420 0.6420
1221.046889 0.6420 0.6410 0.6400 0.6400 0.6380
1224.824547 0.6370 0.6330 0.6290 0.6250 0.6190
1228.602205 0.5900 0.5690 0.5450 0.5330 0.5300
1232.379863 0.5100 0.4901 0.4701 0.4531 0.4530
1236.157521 0.4630 0.4750 0.4850 0.4970 0.5060
1239.935178 0.5150 0.5240 0.5250 0.5300 0.5330
1243.712836 0.5360 0.5420 0.5470 0.5530 0.5590
1247.490494 0.5700 0.5790 0.5949 0.5990 0.6050
1251.268152 0.6160 0.6220 0.6240 0.6270 0.6270
1255.045810 0.6280 0.6280 0.6280 0.6270 0.6220
1258.823468 0.6140 0.6070 0.6010 0.5980 0.5950
1262.601126 0.5920 0.5900 0.5890 0.5860 0.5820
1266.378783 0.5790 0.5770 0.5690 0.5620 0.5580
1270.156441 0.5550 0.5530 0.5520 0.5520 0.5510
1273.934099 0.5490 0.5480 0.5430 0.5380 0.5360
1277.711757 0.5290 0.5150 0.5050 0.5000 0.4980
1281.489415 0.4940 0.4920 0.4910 0.4910 0.4890
1285.267073 0.4870 0.4820 0.4770 0.4740 0.4660
1289.044731 0.4570 0.4490 0.4320 0.4240 0.4170
1292.822388 0.4090 0.4090 0.4090 0.4110 0.4180
1296.600046 0.4240 0.4300 0.4370 0.4390 0.4460
1300.377704 0.4520 0.4620 0.4660 0.4710 0.4800
1304.155362 0.4850 0.4870 0.4880 0.4880 0.4880
1307.933020 0.4870 0.4870 0.4870 0.4860 0.4850
1311.710678 0.4850 0.4840 0.4840 0.4850 0.4870
1315.488336 0.4910 0.4990 0.5040 0.5110 0.5150
1319.265994 0.5220 0.5280 0.5310 0.5310 0.5290
1323.043651 0.5280 0.5250 0.5170 0.5100 0.5030
1326.821309 0.4950 0.4900 0.4860 0.4840 0.4820
1330.598967 0.4800 0.4780 0.4760 0.4730 0.4720
1334.376625 0.4720 0.4710 0.4700 0.4690 0.4660
1338.154283 0.4640 0.4600 0.4540 0.4510 0.4490
1341.931941 0.4480 0.4470 0.4470 0.4480 0.4480
1345.709599 0.4490 0.4490 0.4490 0.4510 0.4520
1349.487256 0.4550 0.4550 0.4530 0.4490 0.4440
1353.264914 0.4350 0.4220 0.4031 0.3920 0.3820
1357.042572 0.3520 0.3200 0.3170 0.3100 0.2980
1360.820230 0.2910 0.2900 0.2900 0.2880 0.2840
1364.597888 0.2740 0.2660 0.2510 0.2390 0.2280
1368.375546 0.2101 0.2000 0.1910 0.1900 0.1900
1372.153204 0.1980 0.2040 0.2090 0.2280 0.2440
1375.930861 0.2610 0.2949 0.3139 0.3349 0.3539
1379.708519 0.3730 0.3900 0.3970 0.4060 0.4070
1383.486177 0.4090 0.4090 0.4090 0.4090 0.4090
1387.263835 0.4090 0.4090 0.4090 0.4110 0.4160
1391.041493 0.4220 0.4290 0.4340 0.4400 0.4440
1394.819151 0.4470 0.4480 0.4500 0.4510 0.4520
1398.596809 0.4530 0.4550 0.4570 0.4580 0.4600
1402.374466 0.4600 0.4610 0.4620 0.4620 0.4620
1406.152124 0.4630 0.4640 0.4640 0.4630 0.4620
1409.929782 0.4610 0.4580 0.4570 0.4510 0.4480
1413.707440 0.4470 0.4410 0.4340 0.4280 0.4220
1417.485098 0.4160 0.4090 0.4000 0.3860 0.3640
1421.262756 0.3490 0.3331 0.3260 0.3250 0.3230
1425.040414 0.3210 0.3200 0.3190 0.3170 0.3150
1428.818071 0.3090 0.2990 0.2910 0.2771 0.2651
1432.595729 0.2510 0.2440 0.2400 0.2390 0.2340
1436.373387 0.2250 0.2091 0.1990 0.1920 0.1641
1440.151045 0.1450 0.1360 0.1310 0.1290 0.1280
1443.928703 0.1270 0.1240 0.1230 0.1200 0.1190
1447.706361 0.1180 0.1170 0.1150 0.1150 0.1150
1451.484019 0.1140 0.1140 0.1140 0.1140 0.1140
1455.261676 0.1150 0.1150 0.1160 0.1170 0.1180
1459.039334 0.1210 0.1230 0.1290 0.1360 0.1708
1462.816992 0.1940 0.2000 0.2240 0.2350 0.2799
1466.594650 0.3039 0.3429 0.3609 0.3769 0.3919
1470.372308 0.4060 0.4200 0.4330 0.4490 0.4640
1474.149966 0.4760 0.4850 0.4950 0.5040 0.5130
1477.927624 0.5210 0.5310 0.5410 0.5520 0.5660
1481.705282 0.5800 0.5900 0.5950 0.5990 0.6010
1485.482939 0.6030 0.6050 0.6090 0.6100 0.6130
1489.260597 0.6170 0.6200 0.6240 0.6270 0.6290
1493.038255 0.6310 0.6340 0.6370 0.6380 0.6390
1496.815913 0.6390 0.6390 0.6400 0.6390 0.6390
1500.593571 0.6390 0.6380 0.6380 0.6390 0.6390
1504.371229 0.6390 0.6390 0.6390 0.6390 0.6390
1508.148887 0.6390 0.6380 0.6380 0.6380 0.6360
1511.926544 0.6370 0.6360 0.6360 0.6350 0.6350
1515.704202 0.6350 0.6350 0.6340 0.6340 0.6340
1519.481860 0.6330 0.6320 0.6310 0.6300 0.6290
1523.259518 0.6290 0.6280 0.6280 0.6290 0.6280
1527.037176 0.6250 0.6240 0.6230 0.6230 0.6220
1530.814834 0.6210 0.6190 0.6150 0.6060 0.6040
1534.592492 0.6010 0.6000 0.5970 0.5950 0.5900
1538.370149 0.5870 0.5850 0.5840 0.5830 0.5840
1542.147807 0.5830 0.5830 0.5830 0.5830 0.5820
1545.925465 0.5820 0.5820 0.5820 0.5810 0.5810
1549.703123 0.5800 0.5800 0.5800 0.5790 0.5770
1553.480781 0.5730 0.5710 0.5700 0.5700 0.5690
1557.258439 0.5690 0.5690 0.5660 0.5630 0.5610
1561.036097 0.5590 0.5580 0.5570 0.5560 0.5530
1564.813754 0.5510 0.5490 0.5480 0.5420 0.5400
1568.591412 0.5380 0.5340 0.5320 0.5270 0.5210
1572.369070 0.5160 0.5120 0.5100 0.5100 0.5090
1576.146728 0.5070 0.5040 0.4980 0.4940 0.4890
1579.924386 0.4850 0.4810 0.4770 0.4740 0.4730
1583.702044 0.4720 0.4710 0.4670 0.4620 0.4540
1587.479702 0.4470 0.4380 0.4290 0.4250 0.4091
1591.257359 0.3900 0.3690 0.3490 0.3440 0.3420
1595.035017 0.3360 0.3310 0.3210 0.3100 0.2990
1598.812675 0.2890 0.2880 0.2890 0.2950 0.3000
1602.590333 0.3050 0.3090 0.3100 0.3120 0.3130
1606.367991 0.3140 0.3140 0.3140 0.3130 0.3110
1610.145649 0.3040 0.2950 0.2850 0.2740 0.2670
1613.923307 0.2610 0.2580 0.2540 0.2470 0.2460
1617.700964 0.2450 0.2460 0.2470 0.2520 0.2560
1621.478622 0.2610 0.2660 0.2750 0.2840 0.2850
1625.256280 0.2890 0.3069 0.3369 0.3519 0.3629
1629.033938 0.3710 0.3780 0.3800 0.3810 0.3830
1632.811596 0.3840 0.3830 0.3830 0.3820 0.3800
1636.589254 0.3800 0.3780 0.3690 0.3600 0.3520
1640.366912 0.3430 0.3370 0.3330 0.3300 0.3210
1644.144570 0.3100 0.3030 0.2940 0.2850 0.2690
1647.922227 0.2421 0.2281 0.2190 0.2140 0.2060
1651.699885 0.1970 0.1890 0.1810 0.1720 0.1700
1655.477543 0.1660 0.1600 0.1540 0.1490 0.1470
1659.255201 0.1470 0.1490 0.1520 0.1550 0.1600
1663.032859 0.1640 0.1690 0.1740 0.1850 0.1940
1666.810517 0.2080 0.2210 0.2340 0.2540 0.2620
1670.588175 0.2650 0.2859 0.3338 0.3519 0.3629
1674.365832 0.3760 0.3890 0.4000 0.4120 0.4240
1678.143490 0.4350 0.4460 0.4540 0.4620 0.4680
1681.921148 0.4720 0.4740 0.4750 0.4760 0.4760
1685.698806 0.4760 0.4760 0.4770 0.4760 0.4750
1689.476464 0.4720 0.4660 0.4580 0.4510 0.4480
1693.254122 0.4360 0.4180 0.3981 0.3801 0.3710
1697.031780 0.3610 0.3560 0.3540 0.3520 0.3500
1700.809437 0.3470 0.3450 0.3440 0.3430 0.3420
1704.587095 0.3420 0.3410 0.3400 0.3390 0.3390
1708.364753 0.3390 0.3400 0.3410 0.3420 0.3490
1712.142411 0.3610 0.3700 0.3790 0.3830 0.3870
1715.920069 0.3890 0.3900 0.3900 0.3900 0.3910
1719.697727 0.3980 0.4000 0.4040 0.4110 0.4200
1723.475385 0.4330 0.4470 0.4629 0.4799 0.4999
1727.253042 0.5210 0.5420 0.5630 0.5810 0.5960
1731.030700 0.6090 0.6200 0.6290 0.6380 0.6440
1734.808358 0.6480 0.6710 0.6810 0.6880 0.6960
1738.586016 0.7040 0.7080 0.7130 0.7170 0.7230
1742.363674 0.7280 0.7330 0.7400 0.7450 0.7500
1746.141332 0.7520 0.7580 0.7610 0.7630 0.7690
1749.918990 0.7740 0.7800 0.7830 0.7890 0.7970
1753.696647 0.8000 0.8020 0.8080 0.8120 0.8160
1757.474305 0.8200 0.8240 0.8280 0.8320 0.8360
1761.251963 0.8380 0.8390 0.8390 0.8380 0.8380
1765.029621 0.8380 0.8390 0.8390 0.8390 0.8400
1768.807279 0.8410 0.8420 0.8420 0.8420 0.8430
1772.584937 0.8440 0.8440 0.8450 0.8470 0.8480
1776.362595 0.8490 0.8500 0.8500 0.8510 0.8520
1780.140252 0.8530 0.8540 0.8570 0.8630 0.8650
1783.917910 0.8690 0.8730 0.8750 0.8760 0.8760
1787.695568 0.8780 0.8780 0.8780 0.8790 0.8790
1791.473226 0.8790 0.8790 0.8790 0.8800 0.8800
1795.250884 0.8810 0.8820 0.8830 0.8840 0.8840
1799.028542 0.8840 0.8850 0.8850 0.8850 0.8850
1802.806200 0.8850 0.8850 0.8850 0.8850 0.8850
1806.583858 0.8860 0.8870 0.8870 0.8880 0.8900
1810.361515 0.8920 0.8940 0.8950 0.8960 0.8970
1814.139173 0.8990 0.8990 0.9000 0.9000 0.9010
1817.916831 0.9010 0.9010 0.9010 0.9020 0.9030
1821.694489 0.9040 0.9040 0.9040 0.9040 0.9040
1825.472147 0.9040 0.9040 0.9040 0.9040 0.9040
1829.249805 0.9050 0.9050 0.9050 0.9060 0.9050
1833.027463 0.9050 0.9050 0.9050 0.9050 0.9050
1836.805120 0.9050 0.9050 0.9050 0.9050 0.9050
1840.582778 0.9060 0.9060 0.9060 0.9060 0.9070
1844.360436 0.9060 0.9070 0.9070 0.9070 0.9070
1848.138094 0.9060 0.9060 0.9070 0.9080 0.9080
1851.915752 0.9090 0.9100 0.9100 0.9100 0.9100
1855.693410 0.9100 0.9100 0.9100 0.9100 0.9100
1859.471068 0.9100 0.9100 0.9100 0.9100 0.9100
1863.248725 0.9100 0.9100 0.9100 0.9100 0.9100
1867.026383 0.9100 0.9100 0.9100 0.9100 0.9100
1870.804041 0.9100 0.9100 0.9100 0.9100 0.9100
1874.581699 0.9100 0.9090 0.9080 0.9080 0.9090
1878.359357 0.9080 0.9080 0.9070 0.9080 0.9080
1882.137015 0.9090 0.9090 0.9090 0.9090 0.9090
1885.914673 0.9080 0.9080 0.9080 0.9080 0.9080
1889.692330 0.9080 0.9080 0.9080 0.9080 0.9080
1893.469988 0.9080 0.9090 0.9100 0.9090 0.9090
1897.247646 0.9090 0.9090 0.9080 0.9080 0.9070
1901.025304 0.9060 0.9060 0.9060 0.9060 0.9060
1904.802962 0.9070 0.9060 0.9050 0.9070 0.9070
1908.580620 0.9070 0.9070 0.9070 0.9070 0.9070
1912.358278 0.9070 0.9070 0.9070 0.9070 0.9070
1916.135935 0.9070 0.9070 0.9070 0.9070 0.9070
1919.913593 0.9060 0.9060 0.9060 0.9050 0.9050
1923.691251 0.9040 0.9040 0.9040 0.9040 0.9030
1927.468909 0.9030 0.9020 0.9020 0.9020 0.9010
1931.246567 0.9010 0.9000 0.8990 0.8990 0.8990
1935.024225 0.9000 0.9000 0.9000 0.8990 0.8990
1938.801883 0.8980 0.8980 0.8980 0.8980 0.8980
1942.579540 0.8980 0.8980 0.8980 0.8980 0.8970
1946.357198 0.8970 0.8970 0.8970 0.8980 0.8980
1950.134856 0.8970 0.8970 0.8960 0.8950 0.8950
1953.912514 0.8950 0.8950 0.8950 0.8950 0.8950
1957.690172 0.8950 0.8950 0.8950 0.8950 0.8950
1961.467830 0.8950 0.8950 0.8950 0.8940 0.8930
1965.245488 0.8930 0.8920 0.8920 0.8910 0.8910
1969.023146 0.8900 0.8900 0.8890 0.8890 0.8900
1972.800803 0.8900 0.8900 0.8900 0.8900 0.8900
1976.578461 0.8900 0.8900 0.8900 0.8900 0.8900
1980.356119 0.8890 0.8890 0.8890 0.8880 0.8880
1984.133777 0.8870 0.8860 0.8850 0.8850 0.8850
1987.911435 0.8850 0.8840 0.8840 0.8830 0.8830
1991.689093 0.8830 0.8820 0.8820 0.8820 0.8820
1995.466751 0.8820 0.8830 0.8840 0.8840 0.8850
1999.244408 0.8850 0.8850 0.8850 0.8850 0.8850
2003.022066 0.8850 0.8850 0.8850 0.8850 0.8850
2006.799724 0.8850 0.8850 0.8850 0.8850 0.8850
2010.577382 0.8850 0.8850 0.8847 0.8843 0.8840
2014.355040 0.8840 0.8840 0.8837 0.8833 0.8829
2018.132698 0.8825 0.8821 0.8817 0.8813 0.8808
2021.910356 0.8800 0.8792 0.8787 0.8783 0.8778
2025.688013 0.8770 0.8762 0.8760 0.8760 0.8759
2029.465671 0.8755 0.8751 0.8745 0.8737 0.8729
2033.243329 0.8721 0.8713 0.8705 0.8697 0.8689
2037.020987 0.8681 0.8673 0.8668 0.8664 0.8659
2040.798645 0.8643 0.8627 0.8618 0.8614 0.8610
2044.576303 0.8602 0.8594 0.8586 0.8578 0.8570
2048.353961 0.8570 0.8570 0.8570 0.8570 0.8570
2052.131618 0.8566 0.8562 0.8560 0.8560 0.8560
2055.909276 0.8557 0.8553 0.8550 0.8550 0.8550
2059.686934 0.8550 0.8550 0.8550 0.8550 0.8550
2063.464592 0.8547 0.8543 0.8539 0.8535 0.8531
2067.242250 0.8530 0.8530 0.8529 0.8525 0.8521
2071.019908 0.8514 0.8507 0.8499 0.8495 0.8491
2074.797566 0.8485 0.8477 0.8469 0.8461 0.8453
2078.575223 0.8445 0.8437 0.8430 0.8426 0.8422
2082.352881 0.8418 0.8414 0.8410 0.8410 0.8410
2086.130539 0.8408 0.8404 0.8400 0.8396 0.8392
2089.908197 0.8390 0.8390 0.8390 0.8386 0.8382
2093.685855 0.8380 0.8380 0.8380 0.8380 0.8380
2097.463513 0.8380 0.8380 0.8380 0.8376 0.8372
2101.241171 0.8370 0.8370 0.8370 0.8367 0.8363
2105.018828 0.8359 0.8355 0.8351 0.8344 0.8336
2108.796486 0.8329 0.8325 0.8321 0.8317 0.8313
2112.574144 0.8309 0.8305 0.8301 0.8300 0.8300
2116.351802 0.8300 0.8300 0.8300 0.8300 0.8300
2120.129460 0.8299 0.8295 0.8291 0.8290 0.8290
2123.907118 0.8290 0.8290 0.8290 0.8288 0.8284
2127.684776 0.8280 0.8276 0.8272 0.8266 0.8258
2131.462434 0.8250 0.8250 0.8250 0.8248 0.8244
2135.240091 0.8240 0.8240 0.8240 0.8238 0.8234
2139.017749 0.8230 0.8222 0.8215 0.8207 0.8199
2142.795407 0.8191 0.8176 0.8160 0.8145 0.8134
2146.573065 0.8122 0.8117 0.8113 0.8107 0.8099
2150.350723 0.8091 0.8090 0.8090 0.8088 0.8080
2154.128381 0.8072 0.8070 0.8070 0.8069 0.8065
2157.906039 0.8061 0.8060 0.8060 0.8060 0.8060
2161.683696 0.8060 0.8054 0.8047 0.8040 0.8040
2165.461354 0.8040 0.8040 0.8040 0.8040 0.8036
2169.239012 0.8032 0.8030 0.8030 0.8029 0.8017
2173.016670 0.8005 0.7993 0.7981 0.7970 0.7962
2176.794328 0.7954 0.7944 0.7932 0.7920 0.7916
2180.571986 0.7912 0.7908 0.7904 0.7900 0.7896
2184.349644 0.7892 0.7887 0.7879 0.7871 0.7870
2188.127301 0.7870 0.7867 0.7859 0.7851 0.7850
2191.904959 0.7850 0.7850 0.7850 0.7850 0.7847
2195.682617 0.7843 0.7839 0.7835 0.7831 0.7830
2199.460275 0.7830 0.7829 0.7825 0.7821 0.7820
2203.237933 0.7820 0.7819 0.7815 0.7811 0.7810
2207.015591 0.7810 0.7810 0.7810 0.7810 0.7813
2210.793249 0.7817 0.7820 0.7820 0.7820 0.7820
2214.570906 0.7820 0.7820 0.7820 0.7820 0.7818
2218.348564 0.7814 0.7810 0.7810 0.7810 0.7808
2222.126222 0.7804 0.7800 0.7800 0.7800 0.7800
2225.903880 0.7800 0.7800 0.7800 0.7800 0.7800
2229.681538 0.7800 0.7800 0.7800 0.7800 0.7800
2233.459196 0.7800 0.7800 0.7800 0.7800 0.7800
2237.236854 0.7800 0.7800 0.7800 0.7800 0.7800
2241.014511 0.7800 0.7800 0.7800 0.7800 0.7800
2244.792169 0.7800 0.7800 0.7800 0.7800 0.7799
2248.569827 0.7795 0.7791 0.7793 0.7797 0.7800
2252.347485 0.7800 0.7800 0.7800 0.7800 0.7800
2256.125143 0.7800 0.7800 0.7800 0.7800 0.7800
2259.902801 0.7800 0.7800 0.7800 0.7800 0.7800
2263.680459 0.7804 0.7808 0.7814 0.7822 0.7830
2267.458117 0.7826 0.7822 0.7822 0.7826 0.7830
2271.235774 0.7830 0.7830 0.7830 0.7830 0.7830
2275.013432 0.7830 0.7830 0.7832 0.7836 0.7840
2278.791090 0.7840 0.7840 0.7840 0.7840 0.7840
2282.568748 0.7840 0.7840 0.7840 0.7840 0.7840
2286.346406 0.7837 0.7833 0.7830 0.7830 0.7830
2290.124064 0.7830 0.7830 0.7830 0.7830 0.7830
2293.901722 0.7830 0.7830 0.7830 0.7830 0.7830
2297.679379 0.7830 0.7830 0.7830 0.7830 0.7830
2301.457037 0.7830 0.7830 0.7831 0.7835 0.7839
2305.234695 0.7840 0.7840 0.7840 0.7840 0.7840
2309.012353 0.7840 0.7840 0.7840 0.7840 0.7840
2312.790011 0.7840 0.7840 0.7840 0.7832 0.7824
2316.567669 0.7820 0.7820 0.7820 0.7824 0.7828
2320.345327 0.7830 0.7830 0.7830 0.7830 0.7830
2324.122984 0.7830 0.7830 0.7830 0.7830 0.7830
2327.900642 0.7829 0.7825 0.7821 0.7820 0.7820
2331.678300 0.7820 0.7820 0.7820 0.7820 0.7820
2335.455958 0.7820 0.7820 0.7820 0.7823 0.7827
2339.233616 0.7830 0.7830 0.7830 0.7830 0.7830
2343.011274 0.7830 0.7830 0.7830 0.7830 0.7830
2346.788932 0.7831 0.7835 0.7839 0.7840 0.7840
2350.566589 0.7840 0.7840 0.7840 0.7840 0.7840
2354.344247 0.7840 0.7840 0.7840 0.7840 0.7840
2358.121905 0.7840 0.7840 0.7840 0.7840 0.7840
2361.899563 0.7840 0.7840 0.7840 0.7840 0.7840
2365.677221 0.7840 0.7840 0.7840 0.7840 0.7840
2369.454879 0.7840 0.7840 0.7840 0.7840 0.7840
2373.232537 0.7840 0.7840 0.7840 0.7840 0.7840
2377.010194 0.7840 0.7840 0.7840 0.7840 0.7840
2380.787852 0.7840 0.7840 0.7840 0.7840 0.7840
2384.565510 0.7840 0.7840 0.7840 0.7840 0.7840
2388.343168 0.7840 0.7840 0.7840 0.7840 0.7840
2392.120826 0.7840 0.7840 0.7840 0.7840 0.7840
2395.898484 0.7840 0.7840 0.7840 0.7840 0.7836
2399.676142 0.7832 0.7830 0.7830 0.7830 0.7830
2403.453799 0.7830 0.7830 0.7830 0.7830 0.7830
2407.231457 0.7830 0.7828 0.7824 0.7820 0.7820
2411.009115 0.7820 0.7820 0.7820 0.7820 0.7816
2414.786773 0.7812 0.7808 0.7805 0.7801 0.7797
2418.564431 0.7793 0.7789 0.7785 0.7781 0.7780
2422.342089 0.7780 0.7780 0.7780 0.7780 0.7780
2426.119747 0.7780 0.7780 0.7780 0.7780 0.7780
2429.897405 0.7780 0.7780 0.7780 0.7780 0.7780
2433.675062 0.7780 0.7780 0.7780 0.7780 0.7777
2437.452720 0.7773 0.7770 0.7770 0.7770 0.7770
2441.230378 0.7770 0.7770 0.7766 0.7762 0.7760
2445.008036 0.7760 0.7760 0.7756 0.7752 0.7748
2448.785694 0.7744 0.7740 0.7736 0.7732 0.7728
2452.563352 0.7724 0.7720 0.7716 0.7712 0.7710
2456.341010 0.7710 0.7710 0.7710 0.7710 0.7708
2460.118667 0.7704 0.7700 0.7700 0.7700 0.7699
2463.896325 0.7695 0.7691 0.7687 0.7683 0.7679
2467.673983 0.7675 0.7671 0.7664 0.7656 0.7648
2471.451641 0.7640 0.7632 0.7630 0.7630 0.7629
2475.229299 0.7625 0.7621 0.7620 0.7620 0.7620
2479.006957 0.7620 0.7620 0.7617 0.7613 0.7610
2482.784615 0.7610 0.7610 0.7610 0.7610 0.7610
2486.562272 0.7610 0.7610 0.7610 0.7610 0.7610
2490.339930 0.7610 0.7610 0.7608 0.7604 0.7600
2494.117588 0.7596 0.7592 0.7588 0.7584 0.7580
2497.895246 0.7576 0.7572 0.7566 0.7558 0.7550
2501.672904 0.7542 0.7535 0.7525 0.7513 0.7501
2505.450562 0.7482 0.7462 0.7446 0.7434 0.7422
2509.228220 0.7420 0.7420 0.7419 0.7415 0.7411
2513.005877 0.7407 0.7403 0.7399 0.7395 0.7391
2516.783535 0.7384 0.7376 0.7367 0.7355 0.7343
2520.561193 0.7328 0.7313 0.7298 0.7290 0.7282
2524.338851 0.7277 0.7273 0.7269 0.7265 0.7261
2528.116509 0.7255 0.7247 0.7239 0.7231 0.7223
2531.894167 0.7210 0.7194 0.7178 0.7163 0.7147
2535.671825 0.7135 0.7128 0.7120 0.7116 0.7112
2539.449482 0.7108 0.7104 0.7100 0.7096 0.7092
2543.227140 0.7088 0.7084 0.7080 0.7080 0.7080
2547.004798 0.7078 0.7074 0.7070 0.7063 0.7055
2550.782456 0.7045 0.7033 0.7021 0.7009 0.6998
2554.560114 0.6986 0.6974 0.6962 0.6947 0.6931
2558.337772 0.6914 0.6894 0.6874 0.6861 0.6849
2562.115430 0.6837 0.6825 0.6813 0.6804 0.6796
2565.893087 0.6788 0.6780 0.6772 0.6767 0.6763
2569.670745 0.6758 0.6746 0.6734 0.6719 0.6703
2573.448403 0.6688 0.6676 0.6664 0.6658 0.6654
2577.226061 0.6649 0.6641 0.6633 0.6623 0.6611
2581.003719 0.6599 0.6587 0.6576 0.6564 0.6552
2584.781377 0.6540 0.6516 0.6492 0.6463 0.6427
2588.559035 0.6391 0.6355 0.6319 0.6278 0.6230
2592.336693 0.6183 0.6147 0.6111 0.6080 0.6056
2596.114350 0.6033 0.6016 0.6000 0.5989 0.5985
2599.892008 0.5981 0.5977 0.5973 0.5970 0.5970
2603.669666 0.5970 0.5970 0.5970 0.5969 0.5965
2607.447324 0.5961 0.5960 0.5960 0.5960 0.5960
2611.224982 0.5960 0.5957 0.5953 0.5948 0.5936
2615.002640 0.5924 0.5920 0.5920 0.5919 0.5911
2618.780298 0.5903 0.5895 0.5887 0.5879 0.5871
2622.557955 0.5863 0.5848 0.5829 0.5810 0.5802
2626.335613 0.5794 0.5784 0.5772 0.5760 0.5748
2630.113271 0.5736 0.5726 0.5718 0.5710 0.5706
2633.890929 0.5702 0.5696 0.5688 0.5680 0.5673
2637.668587 0.5665 0.5655 0.5643 0.5631 0.5623
2641.446245 0.5615 0.5606 0.5594 0.5582 0.5563
2645.223903 0.5543 0.5523 0.5503 0.5483 0.5460
2649.001560 0.5436 0.5410 0.5379 0.5347 0.5334
2652.779218 0.5326 0.5319 0.5315 0.5311 0.5307
2656.556876 0.5303 0.5297 0.5281 0.5265 0.5246
2660.334534 0.5227 0.5209 0.5205 0.5201 0.5197
2664.112192 0.5193 0.5189 0.5181 0.5173 0.5158
2667.889850 0.5138 0.5119 0.5107 0.5095 0.5085
2671.667508 0.5078 0.5070 0.5062 0.5054 0.5044
2675.445165 0.5032 0.5020 0.5012 0.5004 0.4994
2679.222823 0.4982 0.4971 0.4962 0.4955 0.4947
2683.000481 0.4939 0.4931 0.4926 0.4922 0.4920
2686.778139 0.4920 0.4920 0.4916 0.4913 0.4909
2690.555797 0.4905 0.4901 0.4897 0.4893 0.4889
2694.333455 0.4885 0.4881 0.4880 0.4880 0.4878
2698.111113 0.4870 0.4862 0.4857 0.4853 0.4848
2701.888770 0.4840 0.4832 0.4816 0.4796 0.4775
2705.666428 0.4752 0.4728 0.4704 0.4680 0.4656
2709.444086 0.4633 0.4609 0.4593 0.4581 0.4568
2713.221744 0.4553 0.4537 0.4521 0.4505 0.4489
2716.999402 0.4477 0.4466 0.4454 0.4442 0.4430
2720.777060 0.4418 0.4406 0.4396 0.4388 0.4380
2724.554718 0.4372 0.4364 0.4356 0.4348 0.4340
2728.332375 0.4336 0.4332 0.4328 0.4324 0.4320
2732.110033 0.4316 0.4313 0.4310 0.4310 0.4310
2735.887691 0.4307 0.4303 0.4300 0.4300 0.4300
2739.665349 0.4297 0.4293 0.4291 0.4295 0.4299
2743.443007 0.4297 0.4293 0.4290 0.4290 0.4290
2747.220665 0.4287 0.4283 0.4280 0.4280 0.4280
2750.998323 0.4264 0.4240 0.4219 0.4211 0.4203
2754.775981 0.4197 0.4194 0.4189 0.4181 0.4173
2758.553638 0.4168 0.4164 0.4160 0.4160 0.4160
2762.331296 0.4158 0.4154 0.4150 0.4146 0.4142
2766.108954 0.4138 0.4134 0.4130 0.4110 0.4091
2769.886612 0.4065 0.4033 0.4002 0.3974 0.3946
2773.664270 0.3915 0.3879 0.3844 0.3811 0.3780
2777.441928 0.3748 0.3716 0.3685 0.3656 0.3628
2781.219586 0.3602 0.3578 0.3554 0.3537 0.3521
2784.997243 0.3508 0.3500 0.3492 0.3487 0.3483
2788.774901 0.3471 0.3435 0.3399 0.3372 0.3349
2792.552559 0.3324 0.3296 0.3269 0.3230 0.3186
2796.330217 0.3149 0.3145 0.3141 0.3137 0.3133
2800.107875 0.3129 0.3121 0.3113 0.3103 0.3091
2803.885533 0.3078 0.3063 0.3047 0.3026 0.3003
2807.663191 0.2979 0.2959 0.2939 0.2903 0.2851
2811.440848 0.2800 0.2772 0.2744 0.2722 0.2707
2815.218506 0.2691 0.2690 0.2690 0.2687 0.2679
2818.996164 0.2671 0.2659 0.2647 0.2625 0.2590
2822.773822 0.2554 0.2455 0.2348 0.2277 0.2269
2826.551480 0.2261 0.2204 0.2136 0.2065 0.1986
2830.329138 0.1907 0.1827 0.1748 0.1667 0.1580
2834.106796 0.1492 0.1408 0.1325 0.1242 0.1162
2837.884453 0.1082 0.1009 0.0937 0.0867 0.0804
2841.662111 0.0741 0.0685 0.0634 0.0584 0.0544
2845.439769 0.0505 0.0480 0.0464 0.0450 0.0446
2849.217427 0.0442 0.0438 0.0434 0.0430 0.0426
2852.995085 0.0422 0.0420 0.0420 0.0420 0.0424
2856.772743 0.0428 0.0432 0.0436 0.0440 0.0444
2860.550401 0.0448 0.0452 0.0456 0.0460 0.0460
2864.328058 0.0460 0.0462 0.0466 0.0470 0.0470
2868.105716 0.0470 0.0470 0.0470 0.0470 0.0473
2871.883374 0.0477 0.0480 0.0480 0.0480 0.0480
2875.661032 0.0480 0.0479 0.0475 0.0471 0.0470
2879.438690 0.0470 0.0470 0.0470 0.0470 0.0470
2883.216348 0.0470 0.0469 0.0465 0.0461 0.0457
2886.994006 0.0453 0.0449 0.0445 0.0441 0.0437
2890.771663 0.0434 0.0428 0.0412 0.0397 0.0388
2894.549321 0.0384 0.0380 0.0376 0.0372 0.0368
2898.326979 0.0364 0.0360 0.0356 0.0352 0.0348
2902.104637 0.0344 0.0340 0.0340 0.0340 0.0338
2905.882295 0.0334 0.0330 0.0330 0.0330 0.0330
2909.659953 0.0330 0.0330 0.0334 0.0338 0.0342
2913.437611 0.0346 0.0350 0.0350 0.0350 0.0350
2917.215269 0.0350 0.0350 0.0350 0.0350 0.0351
2920.992926 0.0355 0.0359 0.0360 0.0360 0.0360
2924.770584 0.0360 0.0360 0.0360 0.0360 0.0360
2928.548242 0.0360 0.0360 0.0357 0.0353 0.0350
2932.325900 0.0350 0.0350 0.0350 0.0350 0.0350
2936.103558 0.0350 0.0350 0.0350 0.0350 0.0350
2939.881216 0.0350 0.0350 0.0350 0.0350 0.0350
2943.658874 0.0354 0.0358 0.0360 0.0360 0.0360
2947.436531 0.0364 0.0368 0.0372 0.0376 0.0380
2951.214189 0.0388 0.0396 0.0409 0.0429 0.0449
2954.991847 0.0461 0.0473 0.0486 0.0502 0.0518
2958.769505 0.0534 0.0550 0.0564 0.0576 0.0588
2962.547163 0.0600 0.0612 0.0625 0.0641 0.0657
2966.324821 0.0666 0.0674 0.0682 0.0690 0.0698
2970.102479 0.0706 0.0714 0.0726 0.0750 0.0773
2973.880136 0.0791 0.0807 0.0833 0.0896 0.0959
2977.657794 0.1015 0.1066 0.1115 0.1151 0.1187
2981.435452 0.1217 0.1245 0.1272 0.1292 0.1312
2985.213110 0.1327 0.1339 0.1351 0.1367 0.1383
2988.990768 0.1396 0.1408 0.1421 0.1436 0.1452
2992.768426 0.1472 0.1496 0.1520 0.1555 0.1591
2996.546084 0.1628 0.1668 0.1708 0.1766 0.1825
3000.323741 0.1870 0.1894 0.1917 0.1938 0.1958
3004.101399 0.1971 0.1975 0.1979 0.1987 0.1995
3007.879057 0.2000 0.2000 0.2000 0.2000 0.2000
3011.656715 0.2001 0.2005 0.2009 0.2013 0.2017
3015.434373 0.2021 0.2025 0.2029 0.2033 0.2037
3019.212031 0.2041 0.2045 0.2049 0.2050 0.2050
3022.989689 0.2051 0.2055 0.2059 0.2060 0.2060
3026.767346 0.2060 0.2060 0.2060 0.2058 0.2054
3030.545004 0.2050 0.2050 0.2050 0.2048 0.2044
3034.322662 0.2040 0.2040 0.2040 0.2040 0.2040
3038.100320 0.2040 0.2044 0.2048 0.2050 0.2050
3041.877978 0.2050 0.2050 0.2050 0.2053 0.2061
3045.655636 0.2069 0.2074 0.2078 0.2082 0.2086
3049.433294 0.2090 0.2090 0.2090 0.2090 0.2090
3053.210951 0.2090 0.2090 0.2090 0.2090 0.2090
3056.988609 0.2090 0.2090 0.2090 0.2090 0.2090
3060.766267 0.2090 0.2090 0.2090 0.2090 0.2090
3064.543925 0.2090 0.2090 0.2090 0.2090 0.2090
3068.321583 0.2090 0.2087 0.2083 0.2079 0.2071
3072.099241 0.2063 0.2058 0.2054 0.2050 0.2046
3075.876899 0.2042 0.2038 0.2034 0.2030 0.2026
3079.654557 0.2022 0.2020 0.2020 0.2020 0.2016
3083.432214 0.2012 0.2010 0.2010 0.2010 0.2006
3087.209872 0.2002 0.2000 0.2000 0.2000 0.2000
3090.987530 0.2000 0.2000 0.2000 0.2000 0.1996
3094.765188 0.1993 0.1989 0.1985 0.1981 0.1980
3098.542846 0.1980 0.1980 0.1980 0.1980 0.1977
3102.320504 0.1973 0.1969 0.1965 0.1961 0.1954
3106.098162 0.1946 0.1940 0.1940 0.1940 0.1937
3109.875819 0.1933 0.1930 0.1930 0.1930 0.1927
3113.653477 0.1923 0.1919 0.1915 0.1911 0.1910
3117.431135 0.1910 0.1910 0.1910 0.1910 0.1910
3121.208793 0.1910 0.1910 0.1910 0.1910 0.1910
3124.986451 0.1910 0.1910 0.1910 0.1910 0.1910
3128.764109 0.1910 0.1910 0.1906 0.1902 0.1900
3132.541767 0.1900 0.1900 0.1900 0.1900 0.1900
3136.319424 0.1900 0.1900 0.1900 0.1900 0.1900
3140.097082 0.1900 0.1900 0.1897 0.1893 0.1887
3143.874740 0.1879 0.1871 0.1860 0.1848 0.1836
3147.652398 0.1825 0.1813 0.1807 0.1803 0.1798
3151.430056 0.1790 0.1782 0.1777 0.1773 0.1769
3155.207714 0.1765 0.1761 0.1760 0.1760 0.1759
3158.985372 0.1755 0.1751 0.1747 0.1743 0.1739
3162.763029 0.1736 0.1732 0.1728 0.1724 0.1720
3166.540687 0.1720 0.1720 0.1720 0.1720 0.1720
3170.318345 0.1716 0.1712 0.1710 0.1710 0.1710
3174.096003 0.1710 0.1710 0.1710 0.1710 0.1710
3177.873661 0.1706 0.1702 0.1700 0.1700 0.1700
3181.651319 0.1696 0.1692 0.1690 0.1690 0.1690
3185.428977 0.1687 0.1683 0.1680 0.1680 0.1680
3189.206634 0.1680 0.1680 0.1680 0.1680 0.1680
3192.984292 0.1677 0.1673 0.1670 0.1670 0.1670
3196.761950 0.1670 0.1670 0.1670 0.1670 0.1670
3200.539608 0.1670 0.1670 0.1670 0.1670 0.1670
3204.317266 0.1670 0.1670 0.1670 0.1670 0.1670
3208.094924 0.1670 0.1670 0.1670 0.1670 0.1670
3211.872582 0.1670 0.1670 0.1670 0.1670 0.1670
3215.650239 0.1670 0.1670 0.1670 0.1670 0.1670
3219.427897 0.1670 0.1670 0.1670 0.1670 0.1670
3223.205555 0.1670 0.1670 0.1670 0.1670 0.1670
3226.983213 0.1670 0.1670 0.1670 0.1670 0.1670
3230.760871 0.1670 0.1670 0.1670 0.1670 0.1670
3234.538529 0.1670 0.1670 0.1670 0.1670 0.1670
3238.316187 0.1670 0.1670 0.1670 0.1670 0.1670
3242.093845 0.1670 0.1670 0.1670 0.1670 0.1670
3245.871502 0.1670 0.1670 0.1670 0.1670 0.1670
3249.649160 0.1670 0.1670 0.1670 0.1672 0.1676
3253.426818 0.1680 0.1680 0.1680 0.1680 0.1680
3257.204476 0.1680 0.1680 0.1680 0.1680 0.1680
3260.982134 0.1680 0.1680 0.1680 0.1680 0.1680
3264.759792 0.1680 0.1676 0.1672 0.1670 0.1670
3268.537450 0.1670 0.1670 0.1670 0.1670 0.1670
3272.315107 0.1670 0.1670 0.1670 0.1670 0.1670
3276.092765 0.1670 0.1667 0.1663 0.1660 0.1660
3279.870423 0.1660 0.1660 0.1660 0.1659 0.1655
3283.648081 0.1651 0.1650 0.1650 0.1650 0.1650
3287.425739 0.1650 0.1647 0.1643 0.1640 0.1640
3291.203397 0.1640 0.1637 0.1633 0.1630 0.1630
3294.981055 0.1630 0.1630 0.1630 0.1629 0.1626
3298.758712 0.1622 0.1620 0.1620 0.1620 0.1620
3302.536370 0.1620 0.1618 0.1614 0.1610 0.1610
3306.314028 0.1610 0.1610 0.1610 0.1610 0.1610
3310.091686 0.1610 0.1610 0.1610 0.1610 0.1610
3313.869344 0.1610 0.1610 0.1610 0.1610 0.1610
3317.647002 0.1610 0.1610 0.1610 0.1610 0.1607
3321.424660 0.1603 0.1600 0.1600 0.1600 0.1600
3325.202317 0.1600 0.1600 0.1600 0.1600 0.1600
3328.979975 0.1600 0.1600 0.1600 0.1600 0.1597
3332.757633 0.1593 0.1590 0.1590 0.1590 0.1587
3336.535291 0.1583 0.1580 0.1580 0.1580 0.1580
3340.312949 0.1580 0.1579 0.1575 0.1572 0.1570
3344.090607 0.1570 0.1570 0.1570 0.1570 0.1570
3347.868265 0.1570 0.1570 0.1570 0.1570 0.1570
3351.645922 0.1570 0.1570 0.1570 0.1570 0.1568
3355.423580 0.1564 0.1560 0.1560 0.1560 0.1560
3359.201238 0.1560 0.1560 0.1560 0.1560 0.1560
3362.978896 0.1560 0.1560 0.1560 0.1560 0.1560
3366.756554 0.1560 0.1560 0.1560 0.1560 0.1560
3370.534212 0.1560 0.1560 0.1560 0.1560 0.1560
3374.311870 0.1560 0.1560 0.1560 0.1560 0.1560
3378.089528 0.1560 0.1560 0.1560 0.1560 0.1560
3381.867185 0.1560 0.1560 0.1560 0.1560 0.1560
3385.644843 0.1560 0.1560 0.1560 0.1560 0.1560
3389.422501 0.1564 0.1568 0.1570 0.1570 0.1570
3393.200159 0.1570 0.1570 0.1572 0.1576 0.1580
3396.977817 0.1580 0.1580 0.1580 0.1580 0.1580
3400.755475 0.1580 0.1580 0.1580 0.1580 0.1580
3404.533133 0.1584 0.1588 0.1590 0.1590 0.1590
3408.310790 0.1590 0.1590 0.1592 0.1596 0.1599
3412.088448 0.1600 0.1600 0.1600 0.1600 0.1600
3415.866106 0.1603 0.1607 0.1610 0.1610 0.1610
3419.643764 0.1610 0.1610 0.1611 0.1615 0.1619
3423.421422 0.1623 0.1627 0.1631 0.1635 0.1639
3427.199080 0.1643 0.1647 0.1651 0.1655 0.1659
3430.976738 0.1663 0.1667 0.1672 0.1688 0.1704
3434.754395 0.1720 0.1736 0.1751 0.1763 0.1775
3438.532053 0.1787 0.1799 0.1810 0.1814 0.1818
3442.309711 0.1826 0.1838 0.1850 0.1882 0.1913
3446.087369 0.1936 0.1948 0.1960 0.1972 0.1983
3449.865027 0.1992 0.1996 0.2000 0.2004 0.2008
3453.642685 0.2012 0.2016 0.2020 0.2023 0.2027
3457.420343 0.2031 0.2035 0.2039 0.2040 0.2040
3461.198000 0.2042 0.2050 0.2058 0.2066 0.2074
3464.975658 0.2081 0.2085 0.2089 0.2096 0.2104
3468.753316 0.2111 0.2115 0.2119 0.2126 0.2134
3472.530974 0.2141 0.2145 0.2149 0.2153 0.2157
3476.308632 0.2160 0.2160 0.2160 0.2162 0.2166
3480.086290 0.2170 0.2174 0.2178 0.2182 0.2186
3483.863948 0.2190 0.2190 0.2190 0.2190 0.2190
3487.641605 0.2190 0.2190 0.2190 0.2196 0.2208
3491.419263 0.2220 0.2228 0.2236 0.2245 0.2257
3495.196921 0.2269 0.2274 0.2278 0.2287 0.2302
3498.974579 0.2318 0.2338 0.2357 0.2373 0.2381
3502.752237 0.2389 0.2397 0.2405 0.2413 0.2421
3506.529895 0.2429 0.2443 0.2459 0.2470 0.2470
3510.307553 0.2470 0.2473 0.2477 0.2481 0.2485
3514.085210 0.2489 0.2501 0.2517 0.2532 0.2540
3517.862868 0.2547 0.2555 0.2563 0.2572 0.2584
3521.640526 0.2596 0.2613 0.2633 0.2652 0.2668
3525.418184 0.2684 0.2692 0.2696 0.2702 0.2721
3529.195842 0.2741 0.2752 0.2756 0.2760 0.2772
3532.973500 0.2784 0.2802 0.2826 0.2850 0.2850
3536.751158 0.2850 0.2857 0.2873 0.2889 0.2901
3540.528816 0.2913 0.2925 0.2937 0.2949 0.2968
3544.306473 0.2988 0.3008 0.3028 0.3047 0.3078
3548.084131 0.3109 0.3138 0.3162 0.3186 0.3242
3551.861789 0.3306 0.3358 0.3386 0.3414 0.3445
3555.639447 0.3476 0.3507 0.3535 0.3563 0.3587
3559.417105 0.3611 0.3635 0.3659 0.3683 0.3701
3563.194763 0.3717 0.3732 0.3744 0.3756 0.3765
3566.972421 0.3773 0.3781 0.3785 0.3788 0.3822
3570.750078 0.3873 0.3922 0.3942 0.3961 0.3981
3574.527736 0.4001 0.4021 0.4045 0.4069 0.4082
3578.305394 0.4086 0.4090 0.4090 0.4090 0.4092
3582.083052 0.4096 0.4100 0.4104 0.4108 0.4112
3585.860710 0.4116 0.4120 0.4120 0.4120 0.4122
3589.638368 0.4126 0.4130 0.4130 0.4130 0.4130
3593.416026 0.4130 0.4130 0.4133 0.4137 0.4141
3597.193683 0.4145 0.4149 0.4175 0.4207 0.4242
3600.971341 0.4286 0.4330 0.4376 0.4424 0.4472
3604.748999 0.4524 0.4575 0.4633 0.4692 0.4751
3608.526657 0.4806 0.4862 0.4922 0.4986 0.5049
3612.304315 0.5108 0.5167 0.5227 0.5286 0.5346
3616.081973 0.5410 0.5473 0.5532 0.5588 0.5644
3619.859631 0.5704 0.5763 0.5816 0.5864 0.5911
3623.637288 0.5959 0.6006 0.6052 0.6096 0.6139
3627.414946 0.6175 0.6211 0.6241 0.6265 0.6288
3631.192604 0.6345 0.6405 0.6458 0.6501 0.6545
3634.970262 0.6606 0.6670 0.6719 0.6743 0.6767
3638.747920 0.6791 0.6814 0.6837 0.6857 0.6876
3642.525578 0.6906 0.6938 0.6969 0.7001 0.7033
3646.303236 0.7067 0.7103 0.7138 0.7170 0.7201
3650.080893 0.7236 0.7271 0.7306 0.7338 0.7370
3653.858551 0.7401 0.7433 0.7465 0.7501 0.7538
3657.636209 0.7571 0.7602 0.7634 0.7666 0.7698
3661.413867 0.7732 0.7767 0.7803 0.7834 0.7866
3665.191525 0.7898 0.7929 0.7961 0.7993 0.8025
3668.969183 0.8054 0.8082 0.8110 0.8141 0.8173
3672.746841 0.8201 0.8225 0.8249 0.8273 0.8297
3676.524498 0.8322 0.8350 0.8378 0.8402 0.8426
3680.302156 0.8446 0.8462 0.8478 0.8490 0.8502
3684.079814 0.8514 0.8526 0.8538 0.8550 0.8562
3687.857472 0.8572 0.8580 0.8588 0.8599 0.8611
3691.635130 0.8621 0.8625 0.8629 0.8639 0.8651
3695.412788 0.8660 0.8660 0.8660 0.8668 0.8680
3699.190446 0.8690 0.8690 0.8690 0.8693 0.8697
3702.968104 0.8701 0.8705 0.8708 0.8710 0.8710
3706.745761 0.8710 0.8710 0.8710 0.8712 0.8716
3710.523419 0.8720 0.8720 0.8720 0.8720 0.8720
3714.301077 0.8720 0.8724 0.8728 0.8730 0.8730
3718.078735 0.8730 0.8730 0.8730 0.8730 0.8730
3721.856393 0.8730 0.8730 0.8730 0.8730 0.8730
3725.634051 0.8730 0.8730 0.8730 0.8730 0.8730
3729.411709 0.8730 0.8730 0.8730 0.8729 0.8725
3733.189366 0.8721 0.8720 0.8720 0.8719 0.8715
3736.967024 0.8711 0.8710 0.8710 0.8709 0.8705
3740.744682 0.8701 0.8700 0.8700 0.8699 0.8695
3744.522340 0.8691 0.8690 0.8690 0.8689 0.8685
3748.299998 0.8681 0.8678 0.8674 0.8670 0.8670
3752.077656 0.8670 0.8668 0.8664 0.8660 0.8660
3755.855314 0.8660 0.8656 0.8648 0.8640 0.8632
3759.632971 0.8624 0.8614 0.8602 0.8590 0.8586
3763.410629 0.8582 0.8580 0.8580 0.8580 0.8580
3767.188287 0.8580 0.8578 0.8574 0.8570 0.8570
3770.965945 0.8570 0.8570 0.8570 0.8570 0.8567
3774.743603 0.8563 0.8560 0.8560 0.8560 0.8560
3778.521261 0.8560 0.8560 0.8560 0.8560 0.8560
3782.298919 0.8560 0.8560 0.8560 0.8560 0.8560
3786.076576 0.8560 0.8560 0.8560 0.8560 0.8557
3789.854234 0.8553 0.8550 0.8550 0.8550 0.8550
3793.631892 0.8550 0.8550 0.8550 0.8550 0.8548
3797.409550 0.8544 0.8540 0.8536 0.8532 0.8530
3801.187208 0.8530 0.8530 0.8526 0.8522 0.8518
3804.964866 0.8514 0.8510 0.8506 0.8502 0.8496
3808.742524 0.8488 0.8480 0.8480 0.8480 0.8480
3812.520181 0.8480 0.8480 0.8476 0.8472 0.8470
3816.297839 0.8470 0.8470 0.8470 0.8470 0.8470
3820.075497 0.8470 0.8470 0.8470 0.8470 0.8470
3823.853155 0.8470 0.8470 0.8470 0.8470 0.8470
3827.630813 0.8470 0.8470 0.8470 0.8470 0.8470
3831.408471 0.8470 0.8470 0.8470 0.8470 0.8470
3835.186129 0.8470 0.8470 0.8470 0.8470 0.8469
3838.963786 0.8465 0.8462 0.8460 0.8460 0.8460
3842.741444 0.8460 0.8460 0.8458 0.8454 0.8450
3846.519102 0.8450 0.8450 0.8448 0.8444 0.8440
3850.296760 0.8440 0.8440 0.8436 0.8428 0.8420
3854.074418 0.8416 0.8412 0.8410 0.8410 0.8410
3857.852076 0.8406 0.8402 0.8398 0.8394 0.8390
3861.629734 0.8387 0.8383 0.8380 0.8380 0.8380
3865.407392 0.8377 0.8373 0.8369 0.8365 0.8361
3869.185049 0.8360 0.8360 0.8359 0.8355 0.8351
3872.962707 0.8350 0.8350 0.8350 0.8350 0.8350
3876.740365 0.8350 0.8350 0.8349 0.8345 0.8341
3880.518023 0.8340 0.8340 0.8340 0.8340 0.8340
3884.295681 0.8338 0.8334 0.8330 0.8326 0.8322
3888.073339 0.8318 0.8314 0.8310 0.8306 0.8302
3891.850997 0.8298 0.8294 0.8290 0.8290 0.8290
3895.628654 0.8288 0.8284 0.8280 0.8280 0.8280
3899.406312 0.8280 0.8280 0.8280 0.8276 0.8272
3903.183970 0.8268 0.8264 0.8260 0.8256 0.8252
3906.961628 0.8248 0.8245 0.8241 0.8237 0.8233
3910.739286 0.8227 0.8219 0.8211 0.8210 0.8210
3914.516944 0.8209 0.8205 0.8201 0.8197 0.8193
3918.294602 0.8190 0.8190 0.8190 0.8190 0.8190
3922.072259 0.8190 0.8190 0.8190 0.8190 0.8190
3925.849917 0.8189 0.8185 0.8181 0.8180 0.8180
3929.627575 0.8179 0.8176 0.8172 0.8170 0.8170
3933.405233 0.8170 0.8166 0.8162 0.8158 0.8154
3937.182891 0.8150 0.8142 0.8134 0.8130 0.8130
3940.960549 0.8130 0.8126 0.8122 0.8120 0.8120
3944.738207 0.8120 0.8116 0.8112 0.8110 0.8110
3948.515864 0.8110 0.8106 0.8102 0.8100 0.8100
3952.293522 0.8100 0.8097 0.8093 0.8090 0.8090
3956.071180 0.8090 0.8087 0.8083 0.8078 0.8070
3959.848838 0.8062 0.8054 0.8046 0.8038 0.8030
3963.626496 0.8022 0.8020 0.8020 0.8019 0.8015
3967.404154 0.8011 0.8007 0.8003 0.8000 0.8000
3971.181812 0.8000 0.8000 0.8000 0.8000 0.8000
3974.959469 0.8000 0.8000 0.8000 0.8000 0.8000
3978.737127 0.8000 0.8000 0.8000 0.8000 0.8000
3982.514785 0.8000 0.8000 0.8000 0.8000 0.8000
3986.292443 0.8000 0.8000 0.8000 0.8000 0.8000
3990.070101 0.8000 0.8000 0.8000 0.8000 0.8000
3993.847759 0.8000 0.8000 0.8000 0.8000 0.8000
3997.625417 0.8000 0.8000 0.8000 0.8000 0.8000
4001.403074 0.8000 0.8000 0.8000 0.8000
##END=
