##TITLE=BRILLIANT YELLOW
##JCAMP-DX=4.24
##DATA TYPE=INFRARED SPECTRUM
##CLASS=COBLENTZ
##ORIGIN=WYANDOTTE CHEMICALS CORP., WYANDOTTE, MICHIGAN, USA
##OWNER=COBLENTZ SOCIETY
Collection (C) 2018 copyright by the U.S. Secretary of Commerce
on behalf of the United States of America. All rights reserved.
##DATE=Not specified, most likely prior to 1970
##MOLFORM=C26 H18 N4 O8 S2 Na2
##SOURCE REFERENCE=COBLENTZ NO. 3760
##$NIST ID=B6003760
##$NIST SOURCE=COBLENTZ
##$NIST IMAGE=cob3760
##SPECTROMETER/DATA SYSTEM=Not specified, most likely a prism, grating, or hybrid spectrometer.
##STATE=SOLID (MINERAL OIL MULL)
##PATH LENGTH=
$$SPECTRAL CONTAMINATION DUE TO OIL AROUND 2900, 1450, 1380 CM^-^1
##SAMPLING PROCEDURE=TRANSMISSION
##RESOLUTION=4
##DATA PROCESSING=DIGITIZED BY NIST FROM HARD COPY
##XUNITS=MICROMETERS
##YUNITS=TRANSMITTANCE
##XFACTOR=1.000000
##YFACTOR=1
##DELTAX=000.006186
##FIRSTX=2.012
##LASTX=16.0064
##FIRSTY=0.15
##MAXX=16.0064
##MINX=2.012
##MAXY=0.941
##MINY=0.009
##NPOINTS=2263
##XYDATA=(X++(Y..Y))
2.012000 0.1500 0.1500 0.1510 0.1500 0.1500
2.042946 0.1500 0.1510 0.1530 0.1560 0.1620
2.074000 0.1670 0.1720 0.1730 0.1730 0.1760
2.104946 0.1760 0.1750 0.1750 0.1750 0.1730
2.136000 0.1720 0.1700 0.1700 0.1730 0.1730
2.166946 0.1780 0.1790 0.1790 0.1810 0.1820
2.198000 0.1820 0.1820 0.1810 0.1810 0.1810
2.228946 0.1780 0.1750 0.1750 0.1730 0.1730
2.260000 0.1730 0.1730 0.1750 0.1750 0.1760
2.290946 0.1780 0.1790 0.1810 0.1810 0.1820
2.322000 0.1840 0.1870 0.1890 0.1900 0.1900
2.352946 0.1920 0.1930 0.1930 0.1930 0.1950
2.384000 0.1950 0.1950 0.1950 0.1950 0.1950
2.414946 0.1960 0.1960 0.2000 0.2010 0.2030
2.445000 0.2040 0.2070 0.2100 0.2120 0.2120
2.475946 0.2150 0.2150 0.2150 0.2150 0.2150
2.507000 0.2150 0.2150 0.2150 0.2130 0.2130
2.537946 0.2130 0.2130 0.2150 0.2150 0.2170
2.569000 0.2230 0.2290 0.2350 0.2410 0.2460
2.599946 0.2490 0.2490 0.2510 0.2520 0.2520
2.631000 0.2550 0.2600 0.2630 0.2630 0.2660
2.661946 0.2660 0.2680 0.2680 0.2680 0.2690
2.693000 0.2710 0.2710 0.2710 0.2710 0.2710
2.723946 0.2710 0.2690 0.2680 0.2660 0.2620
2.755000 0.2570 0.2550 0.2510 0.2430 0.2400
2.785946 0.2290 0.2210 0.2150 0.2070 0.1960
2.817000 0.1920 0.1840 0.1760 0.1720 0.1640
2.847946 0.1560 0.1500 0.1420 0.1370 0.1330
2.878000 0.1300 0.1280 0.1240 0.1170 0.1160
2.908946 0.1130 0.1110 0.1080 0.1030 0.1030
2.940000 0.1000 0.0990 0.0960 0.0960 0.0940
2.970946 0.0930 0.0930 0.0930 0.0930 0.0930
3.002000 0.0930 0.0940 0.0940 0.0960 0.0970
3.032946 0.0990 0.1000 0.1000 0.1020 0.1020
3.064000 0.1020 0.1000 0.0990 0.0970 0.0960
3.094946 0.0960 0.0960 0.0940 0.0930 0.0910
3.126000 0.0910 0.0910 0.0910 0.0890 0.0880
3.156946 0.0860 0.0860 0.0860 0.0850 0.0850
3.188000 0.0850 0.0860 0.0860 0.0880 0.0880
3.218946 0.0910 0.0930 0.0930 0.0960 0.0990
3.250000 0.1000 0.1000 0.1020 0.1030 0.1060
3.280946 0.1080 0.1100 0.1100 0.1110 0.1110
3.312000 0.1110 0.1110 0.1100 0.1020 0.0930
3.342946 0.0830 0.0720 0.0630 0.0540 0.0440
3.373000 0.0350 0.0290 0.0240 0.0210 0.0200
3.403946 0.0200 0.0230 0.0260 0.0260 0.0260
3.435000 0.0240 0.0230 0.0200 0.0200 0.0180
3.465946 0.0180 0.0170 0.0130 0.0130 0.0120
3.497000 0.0100 0.0100 0.0090 0.0090 0.0100
3.527946 0.0150 0.0200 0.0310 0.0480 0.0660
3.559000 0.0890 0.1140 0.1410 0.1640 0.1870
3.589946 0.2070 0.2230 0.2320 0.2490 0.2620
3.621000 0.2690 0.2740 0.2770 0.2800 0.2820
3.651946 0.2850 0.2890 0.2960 0.3000 0.3020
3.683000 0.3020 0.2970 0.2930 0.2910 0.2890
3.713946 0.2910 0.2990 0.3000 0.3020 0.3020
3.745000 0.3030 0.3030 0.3060 0.3080 0.3110
3.775946 0.3160 0.3220 0.3240 0.3250 0.3270
3.806000 0.3300 0.3330 0.3370 0.3410 0.3440
3.836946 0.3470 0.3480 0.3500 0.3510 0.3530
3.868000 0.3550 0.3560 0.3590 0.3610 0.3650
3.898946 0.3750 0.3810 0.3840 0.3860 0.3890
3.930000 0.3930 0.3980 0.4030 0.4060 0.4100
3.960946 0.4120 0.4130 0.4150 0.4170 0.4200
3.992000 0.4240 0.4310 0.4380 0.4460 0.4490
4.022946 0.4510 0.4510 0.4510 0.4510 0.4520
4.054000 0.4520 0.4540 0.4540 0.4550 0.4580
4.084946 0.4580 0.4620 0.4620 0.4660 0.4680
4.116000 0.4690 0.4690 0.4740 0.4770 0.4770
4.146946 0.4770 0.4790 0.4820 0.4820 0.4850
4.178000 0.4860 0.4860 0.4890 0.4930 0.4930
4.208946 0.4960 0.5000 0.5020 0.5030 0.5050
4.240000 0.5050 0.5020 0.5020 0.5000 0.5000
4.270946 0.5000 0.5020 0.5020 0.5020 0.5030
4.301000 0.5030 0.5050 0.5060 0.5060 0.5080
4.331946 0.5110 0.5140 0.5160 0.5190 0.5220
4.363000 0.5310 0.5370 0.5440 0.5500 0.5530
4.393946 0.5580 0.5590 0.5610 0.5640 0.5650
4.425000 0.5680 0.5700 0.5700 0.5700 0.5700
4.455946 0.5700 0.5680 0.5680 0.5680 0.5670
4.487000 0.5670 0.5680 0.5700 0.5730 0.5760
4.517946 0.5790 0.5820 0.5840 0.5840 0.5860
4.549000 0.5860 0.5870 0.5870 0.5870 0.5890
4.579946 0.5890 0.5900 0.5920 0.5950 0.5960
4.611000 0.6000 0.6000 0.6010 0.6010 0.6010
4.641946 0.6010 0.6010 0.6010 0.6030 0.6030
4.673000 0.6040 0.6040 0.6060 0.6070 0.6120
4.703946 0.6170 0.6230 0.6290 0.6350 0.6370
4.734000 0.6410 0.6430 0.6490 0.6510 0.6510
4.764946 0.6510 0.6490 0.6460 0.6440 0.6440
4.796000 0.6440 0.6460 0.6480 0.6490 0.6540
4.826946 0.6580 0.6600 0.6620 0.6630 0.6650
4.858000 0.6650 0.6650 0.6620 0.6620 0.6620
4.888946 0.6630 0.6680 0.6690 0.6710 0.6720
4.920000 0.6740 0.6740 0.6750 0.6770 0.6800
4.950946 0.6820 0.6850 0.6860 0.6890 0.6930
4.982000 0.6940 0.6960 0.6970 0.6970 0.6990
5.012946 0.7000 0.7000 0.7000 0.7000 0.7020
5.044000 0.7020 0.7060 0.7100 0.7140 0.7140
5.074946 0.7190 0.7250 0.7280 0.7300 0.7310
5.106000 0.7310 0.7330 0.7330 0.7330 0.7340
5.136946 0.7360 0.7390 0.7410 0.7440 0.7500
5.167000 0.7510 0.7550 0.7560 0.7560 0.7580
5.197946 0.7580 0.7590 0.7590 0.7590 0.7590
5.229000 0.7590 0.7580 0.7580 0.7560 0.7550
5.259946 0.7550 0.7550 0.7550 0.7550 0.7550
5.291000 0.7560 0.7560 0.7560 0.7580 0.7580
5.321946 0.7610 0.7620 0.7640 0.7670 0.7720
5.353000 0.7780 0.7790 0.7810 0.7840 0.7860
5.383946 0.7860 0.7870 0.7890 0.7920 0.7950
5.415000 0.8000 0.8010 0.8010 0.8030 0.8030
5.445946 0.8040 0.8070 0.8100 0.8150 0.8210
5.477000 0.8210 0.8230 0.8210 0.8170 0.8130
5.507946 0.8130 0.8150 0.8240 0.8260 0.8260
5.539000 0.8200 0.8200 0.8210 0.8210 0.8270
5.569946 0.8270 0.8260 0.8230 0.8260 0.8270
5.601000 0.8290 0.8320 0.8350 0.8350 0.8380
5.631946 0.8380 0.8400 0.8380 0.8380 0.8380
5.662000 0.8350 0.8350 0.8410 0.8490 0.8540
5.692946 0.8580 0.8580 0.8580 0.8550 0.8570
5.724000 0.8580 0.8630 0.8660 0.8690 0.8720
5.754946 0.8690 0.8710 0.8720 0.8800 0.8880
5.786000 0.8880 0.8830 0.8710 0.8650 0.8630
5.816946 0.8650 0.8650 0.8680 0.8660 0.8570
5.848000 0.8520 0.8430 0.8410 0.8400 0.8380
5.878946 0.8380 0.8380 0.8370 0.8310 0.8230
5.910000 0.8170 0.8100 0.8010 0.7890 0.7820
5.940946 0.7780 0.7650 0.7510 0.7310 0.7100
5.972000 0.6930 0.6750 0.6620 0.6440 0.6240
6.002946 0.6090 0.6010 0.5960 0.5920 0.5890
6.034000 0.5870 0.5890 0.6030 0.6100 0.6230
6.064946 0.6320 0.6540 0.6600 0.6630 0.6710
6.095000 0.6820 0.6970 0.7110 0.7170 0.7200
6.125946 0.7220 0.7280 0.7280 0.7220 0.7110
6.157000 0.6930 0.6550 0.5860 0.5190 0.4660
6.187946 0.4090 0.3790 0.3390 0.3100 0.2970
6.219000 0.2960 0.2940 0.3050 0.3050 0.2930
6.249946 0.2690 0.2580 0.2570 0.2600 0.3020
6.281000 0.3510 0.4010 0.4410 0.4890 0.5310
6.311946 0.5670 0.6010 0.6210 0.6370 0.6510
6.343000 0.6650 0.6720 0.6740 0.6740 0.6750
6.373946 0.6770 0.6800 0.6850 0.6930 0.7030
6.405000 0.7160 0.7270 0.7310 0.7310 0.7300
6.435946 0.7300 0.7220 0.7200 0.7200 0.7220
6.467000 0.7360 0.7450 0.7560 0.7650 0.7720
6.497946 0.7810 0.7890 0.7920 0.7920 0.7860
6.529000 0.7860 0.7870 0.7920 0.7950 0.8010
6.559946 0.8030 0.8040 0.8040 0.8010 0.7610
6.590000 0.7500 0.7050 0.6600 0.5860 0.5160
6.620946 0.4710 0.4520 0.4520 0.4690 0.5270
6.652000 0.5810 0.6090 0.6340 0.6400 0.6410
6.682946 0.6400 0.6240 0.6010 0.5650 0.5340
6.714000 0.4960 0.4520 0.4060 0.3620 0.3220
6.744946 0.2890 0.2680 0.2570 0.2440 0.1980
6.776000 0.1560 0.1250 0.0990 0.0850 0.0770
6.806946 0.0690 0.0660 0.0650 0.0660 0.0690
6.838000 0.0720 0.0750 0.0790 0.0860 0.0940
6.868946 0.1050 0.1190 0.1360 0.1560 0.1750
6.900000 0.1960 0.2130 0.2410 0.2710 0.2940
6.930946 0.3080 0.3270 0.3500 0.3760 0.4060
6.962000 0.4370 0.4660 0.4960 0.5250 0.5500
6.992946 0.5720 0.5890 0.6150 0.6340 0.6490
7.023000 0.6630 0.6750 0.6880 0.7000 0.7170
7.053946 0.7370 0.7470 0.7560 0.7610 0.7620
7.085000 0.7610 0.7560 0.7530 0.7530 0.7530
7.115946 0.7550 0.7550 0.7510 0.7440 0.7410
7.147000 0.7360 0.7300 0.7160 0.6960 0.6740
7.177946 0.6510 0.6240 0.6010 0.5790 0.5590
7.209000 0.4290 0.3420 0.3200 0.2960 0.2680
7.239946 0.2400 0.2180 0.2000 0.1900 0.1890
7.271000 0.1960 0.2270 0.2720 0.3030 0.3330
7.301946 0.3480 0.3550 0.3590 0.3680 0.3860
7.333000 0.4180 0.4550 0.4910 0.5100 0.5250
7.363946 0.5330 0.5390 0.5410 0.5410 0.5360
7.395000 0.5360 0.5420 0.5440 0.5450 0.5480
7.425946 0.5480 0.5500 0.5500 0.5510 0.5550
7.456000 0.5620 0.5730 0.5890 0.6060 0.6230
7.486946 0.6370 0.6480 0.6600 0.6710 0.6800
7.518000 0.6930 0.7030 0.7160 0.7270 0.7340
7.548946 0.7370 0.7390 0.7440 0.7470 0.7560
7.580000 0.7640 0.7650 0.7620 0.7590 0.7550
7.610946 0.7530 0.7530 0.7530 0.7550 0.7610
7.642000 0.7640 0.7680 0.7730 0.7790 0.7820
7.672946 0.7860 0.7890 0.7920 0.7930 0.7920
7.704000 0.7900 0.7890 0.7820 0.7750 0.7680
7.734946 0.7610 0.7510 0.7420 0.7300 0.7140
7.766000 0.6960 0.6710 0.6550 0.6490 0.6320
7.796946 0.6120 0.5920 0.5760 0.5680 0.5650
7.828000 0.5560 0.5470 0.5360 0.5270 0.5190
7.858946 0.5080 0.5020 0.4970 0.4890 0.4850
7.890000 0.4790 0.4720 0.4600 0.4440 0.4210
7.920946 0.4010 0.3780 0.3510 0.3220 0.2940
7.951000 0.2650 0.2400 0.2170 0.1960 0.1790
7.981946 0.1610 0.1510 0.1370 0.1250 0.1110
8.013000 0.1020 0.0970 0.0890 0.0860 0.0860
8.043946 0.0890 0.0930 0.0930 0.0940 0.0940
8.075000 0.0930 0.0910 0.0910 0.0880 0.0880
8.105946 0.0860 0.0880 0.0890 0.0910 0.0940
8.137000 0.0960 0.0990 0.1020 0.1020 0.1000
8.167946 0.0990 0.1000 0.1020 0.1020 0.1030
8.199000 0.1030 0.1030 0.1030 0.1020 0.1020
8.229946 0.1000 0.0970 0.0960 0.0960 0.0910
8.261000 0.0860 0.0750 0.0680 0.0650 0.0630
8.291946 0.0620 0.0580 0.0540 0.0540 0.0520
8.323000 0.0510 0.0510 0.0510 0.0490 0.0490
8.353946 0.0510 0.0510 0.0520 0.0550 0.0600
8.384000 0.0630 0.0660 0.0680 0.0660 0.0630
8.414946 0.0620 0.0600 0.0600 0.0600 0.0580
8.446000 0.0550 0.0520 0.0510 0.0490 0.0490
8.476946 0.0480 0.0430 0.0370 0.0370 0.0350
8.508000 0.0350 0.0370 0.0370 0.0380 0.0400
8.538946 0.0400 0.0410 0.0410 0.0430 0.0510
8.570000 0.0580 0.0680 0.0770 0.0880 0.1000
8.600946 0.1130 0.1270 0.1420 0.1590 0.1780
8.632000 0.1980 0.2200 0.2410 0.2600 0.2710
8.662946 0.2830 0.2860 0.2880 0.2850 0.2720
8.694000 0.2580 0.2320 0.2180 0.2030 0.1790
8.724946 0.1700 0.1470 0.1360 0.1300 0.1220
8.756000 0.1190 0.1170 0.1190 0.1240 0.1330
8.786946 0.1420 0.1550 0.1640 0.1730 0.1790
8.817000 0.1870 0.1870 0.1920 0.2030 0.2180
8.847946 0.2380 0.2600 0.2850 0.3130 0.3410
8.879000 0.3680 0.3980 0.4260 0.4520 0.4750
8.909946 0.4960 0.5000 0.5050 0.5110 0.5200
8.941000 0.5360 0.5410 0.5440 0.5480 0.5510
8.971946 0.5530 0.5510 0.5500 0.5470 0.5420
9.003000 0.5360 0.5280 0.5190 0.5100 0.4960
9.033946 0.4750 0.4510 0.4270 0.4070 0.3950
9.065000 0.3810 0.3730 0.3730 0.3760 0.3870
9.095946 0.4090 0.4440 0.4650 0.4860 0.4990
9.127000 0.5140 0.5190 0.5220 0.5190 0.5080
9.157946 0.4930 0.4690 0.4430 0.4120 0.3760
9.189000 0.3410 0.3020 0.2490 0.1980 0.1680
9.219946 0.1390 0.1310 0.1190 0.1060 0.1020
9.251000 0.1000 0.1020 0.1130 0.1250 0.1330
9.281946 0.1410 0.1480 0.1530 0.1560 0.1580
9.312000 0.1580 0.1560 0.1560 0.1670 0.1950
9.342946 0.2180 0.2380 0.2580 0.2790 0.3000
9.374000 0.3220 0.3470 0.3730 0.3920 0.4230
9.404946 0.4550 0.4860 0.5060 0.5220 0.5310
9.436000 0.5420 0.5560 0.5720 0.5840 0.5930
9.466946 0.6030 0.6100 0.6180 0.6270 0.6370
9.498000 0.6480 0.6520 0.6540 0.6570 0.6580
9.528946 0.6600 0.6600 0.6630 0.6650 0.6660
9.560000 0.6680 0.6660 0.6650 0.6650 0.6630
9.590946 0.6620 0.6510 0.6400 0.6260 0.6030
9.622000 0.5720 0.5510 0.5200 0.4800 0.4460
9.652946 0.3860 0.3450 0.2970 0.2550 0.2260
9.684000 0.2060 0.1950 0.1730 0.1620 0.1500
9.714946 0.1410 0.1240 0.1060 0.1020 0.0970
9.745000 0.0940 0.0930 0.0930 0.0940 0.0970
9.775946 0.1030 0.1110 0.1390 0.1510 0.2010
9.807000 0.2510 0.3060 0.3550 0.3870 0.4240
9.837946 0.4520 0.4910 0.5050 0.5310 0.5510
9.869000 0.5680 0.5780 0.5860 0.5900 0.5960
9.899946 0.6030 0.6040 0.6120 0.6210 0.6320
9.931000 0.6410 0.6490 0.6680 0.6820 0.6910
9.961946 0.7020 0.7050 0.7130 0.7220 0.7310
9.993000 0.7340 0.7390 0.7410 0.7470 0.7550
10.023946 0.7610 0.7650 0.7670 0.7680 0.7720
10.055000 0.7730 0.7760 0.7780 0.7790 0.7810
10.085946 0.7820 0.7820 0.7860 0.7870 0.7890
10.117000 0.7900 0.7900 0.7920 0.7950 0.7960
10.147946 0.7980 0.7980 0.7980 0.8000 0.8000
10.179000 0.8000 0.8000 0.7980 0.7960 0.7950
10.209946 0.7920 0.7890 0.7820 0.7810 0.7780
10.240000 0.7730 0.7670 0.7580 0.7530 0.7500
10.270946 0.7410 0.7330 0.7250 0.7080 0.6990
10.302000 0.6890 0.6830 0.6800 0.6790 0.6740
10.332946 0.6710 0.6630 0.6550 0.6480 0.6370
10.364000 0.6270 0.6210 0.6170 0.6060 0.6010
10.394946 0.6000 0.6000 0.5980 0.5980 0.5980
10.426000 0.5960 0.5950 0.5950 0.5930 0.5950
10.456946 0.5980 0.6060 0.6130 0.6180 0.6340
10.488000 0.6480 0.6580 0.6680 0.6790 0.6860
10.518946 0.6960 0.7030 0.7100 0.7100 0.7110
10.550000 0.7100 0.7020 0.7020 0.7080 0.7160
10.580946 0.7250 0.7330 0.7370 0.7510 0.7670
10.612000 0.7810 0.7870 0.7930 0.8010 0.8070
10.642946 0.8180 0.8230 0.8240 0.8240 0.8230
10.673000 0.8240 0.8270 0.8320 0.8350 0.8440
10.703946 0.8510 0.8540 0.8600 0.8600 0.8650
10.735000 0.8690 0.8710 0.8720 0.8720 0.8740
10.765946 0.8750 0.8770 0.8800 0.8820 0.8850
10.797000 0.8890 0.8910 0.8910 0.8890 0.8890
10.827946 0.8860 0.8860 0.8880 0.8890 0.8910
10.859000 0.8940 0.8960 0.8990 0.8990 0.8970
10.889946 0.8960 0.8940 0.8890 0.8880 0.8880
10.921000 0.8860 0.8850 0.8800 0.8710 0.8660
10.951946 0.8600 0.8540 0.8370 0.8120 0.7930
10.983000 0.7790 0.7720 0.7590 0.7580 0.7560
11.013946 0.7550 0.7550 0.7550 0.7560 0.7560
11.045000 0.7580 0.7610 0.7720 0.7840 0.8000
11.075946 0.8210 0.8320 0.8480 0.8520 0.8570
11.106000 0.8600 0.8650 0.8680 0.8710 0.8740
11.136946 0.8740 0.8720 0.8720 0.8740 0.8740
11.168000 0.8750 0.8770 0.8800 0.8800 0.8800
11.198946 0.8820 0.8820 0.8830 0.8830 0.8830
11.230000 0.8830 0.8830 0.8830 0.8830 0.8830
11.260946 0.8850 0.8880 0.8970 0.9060 0.9140
11.292000 0.9200 0.9240 0.9280 0.9310 0.9360
11.322946 0.9370 0.9370 0.9390 0.9410 0.9410
11.354000 0.9410 0.9410 0.9410 0.9370 0.9360
11.384946 0.9300 0.9280 0.9270 0.9250 0.9240
11.416000 0.9220 0.9200 0.9200 0.9160 0.9110
11.446946 0.9100 0.9110 0.9130 0.9190 0.9190
11.478000 0.9170 0.9130 0.9130 0.9140 0.9200
11.508946 0.9190 0.9170 0.9130 0.9110 0.9110
11.540000 0.9130 0.9130 0.9140 0.9140 0.9160
11.570946 0.9140 0.9130 0.9100 0.9050 0.9030
11.601000 0.8990 0.8940 0.8930 0.8890 0.8890
11.631946 0.8850 0.8820 0.8800 0.8790 0.8750
11.663000 0.8720 0.8660 0.8620 0.8570 0.8460
11.693946 0.8370 0.8270 0.8210 0.8070 0.7980
11.725000 0.7840 0.7760 0.7590 0.7510 0.7390
11.755946 0.7270 0.6990 0.6820 0.6620 0.6430
11.787000 0.6210 0.5950 0.5670 0.5620 0.5500
11.817946 0.5270 0.5000 0.4720 0.4480 0.4260
11.849000 0.4070 0.3870 0.3650 0.3420 0.3190
11.879946 0.2970 0.2770 0.2600 0.2430 0.2260
11.911000 0.2060 0.1980 0.1840 0.1790 0.1730
11.941946 0.1700 0.1670 0.1650 0.1640 0.1680
11.973000 0.1870 0.2100 0.2370 0.2490 0.2800
12.003946 0.3170 0.3450 0.3670 0.3810 0.3920
12.034000 0.4010 0.4060 0.4120 0.4170 0.4210
12.064946 0.4240 0.4290 0.4370 0.4460 0.4520
12.096000 0.4600 0.4720 0.4850 0.4990 0.5160
12.126946 0.5310 0.5480 0.5650 0.5870 0.6040
12.158000 0.6230 0.6370 0.6510 0.6650 0.6770
12.188946 0.6910 0.7030 0.7190 0.7340 0.7500
12.220000 0.7620 0.7670 0.7780 0.7840 0.7890
12.250946 0.7980 0.8060 0.8170 0.8320 0.8370
12.282000 0.8460 0.8520 0.8600 0.8660 0.8690
12.312946 0.8690 0.8710 0.8710 0.8710 0.8710
12.344000 0.8690 0.8690 0.8680 0.8680 0.8680
12.374946 0.8680 0.8680 0.8690 0.8690 0.8690
12.406000 0.8690 0.8690 0.8690 0.8710 0.8710
12.436946 0.8720 0.8720 0.8740 0.8750 0.8740
12.468000 0.8710 0.8690 0.8660 0.8630 0.8630
12.498946 0.8620 0.8620 0.8630 0.8630 0.8630
12.529000 0.8680 0.8720 0.8790 0.8830 0.8890
12.559946 0.8940 0.8970 0.9000 0.9020 0.9060
12.591000 0.9130 0.9160 0.9160 0.9170 0.9190
12.621946 0.9190 0.9190 0.9190 0.9190 0.9170
12.653000 0.9170 0.9170 0.9160 0.9140 0.9130
12.683946 0.9060 0.9030 0.9020 0.8970 0.8890
12.715000 0.8850 0.8820 0.8770 0.8750 0.8720
12.745946 0.8690 0.8680 0.8660 0.8710 0.8770
12.777000 0.8800 0.8830 0.8860 0.8890 0.8910
12.807946 0.8940 0.8990 0.9020 0.9020 0.9030
12.839000 0.9050 0.9050 0.9060 0.9080 0.9100
12.869946 0.9110 0.9130 0.9140 0.9160 0.9140
12.901000 0.9130 0.9130 0.9110 0.9110 0.9100
12.931946 0.9080 0.9080 0.9080 0.9050 0.9050
12.962000 0.9050 0.9050 0.9030 0.9020 0.9020
12.992946 0.9000 0.8990 0.8970 0.8960 0.8940
13.024000 0.8940 0.8970 0.8990 0.8990 0.8990
13.054946 0.8990 0.8990 0.8990 0.8970 0.8960
13.086000 0.8940 0.8930 0.8930 0.8960 0.8970
13.116946 0.8970 0.8990 0.8970 0.8970 0.8960
13.148000 0.8960 0.8940 0.8930 0.8930 0.8930
13.178946 0.8930 0.8910 0.8930 0.8930 0.8960
13.210000 0.8960 0.8970 0.8970 0.8990 0.8970
13.240946 0.8970 0.8960 0.8940 0.8910 0.8930
13.272000 0.8930 0.8910 0.8910 0.8910 0.8890
13.302946 0.8890 0.8880 0.8880 0.8890 0.8910
13.334000 0.8890 0.8890 0.8880 0.8860 0.8850
13.364946 0.8830 0.8830 0.8820 0.8800 0.8800
13.395000 0.8750 0.8620 0.8480 0.8370 0.8240
13.425946 0.8120 0.8030 0.7930 0.7860 0.7760
13.457000 0.7670 0.7610 0.7560 0.7550 0.7510
13.487946 0.7470 0.7440 0.7420 0.7410 0.7410
13.519000 0.7390 0.7360 0.7360 0.7340 0.7330
13.549946 0.7310 0.7310 0.7300 0.7250 0.7250
13.581000 0.7310 0.7310 0.7310 0.7310 0.7300
13.611946 0.7280 0.7280 0.7280 0.7280 0.7280
13.643000 0.7280 0.7270 0.7270 0.7270 0.7250
13.673946 0.7250 0.7240 0.7200 0.7190 0.7140
13.705000 0.7110 0.7100 0.7030 0.7020 0.6990
13.735946 0.6940 0.6930 0.6890 0.6850 0.6850
13.767000 0.6830 0.6800 0.6770 0.6720 0.6690
13.797946 0.6620 0.6490 0.6350 0.6290 0.6210
13.829000 0.6200 0.6120 0.6010 0.5960 0.5870
13.859946 0.5810 0.5760 0.5670 0.5640 0.5560
13.890000 0.5450 0.5360 0.5330 0.5270 0.5200
13.920946 0.4990 0.4850 0.4710 0.4570 0.4490
13.952000 0.4380 0.4180 0.4060 0.3980 0.3870
13.982946 0.3760 0.3650 0.3550 0.3450 0.3370
14.014000 0.3280 0.3250 0.3240 0.3250 0.3280
14.044946 0.3340 0.3370 0.3480 0.3560 0.3670
14.076000 0.3720 0.3760 0.3810 0.3890 0.3960
14.106946 0.4070 0.4170 0.4230 0.4290 0.4340
14.138000 0.4400 0.4460 0.4540 0.4650 0.4790
14.168946 0.4960 0.5060 0.5200 0.5270 0.5410
14.200000 0.5470 0.5750 0.5950 0.6120 0.6240
14.230946 0.6340 0.6440 0.6540 0.6650 0.6770
14.262000 0.6910 0.7020 0.7170 0.7340 0.7420
14.292946 0.7500 0.7560 0.7620 0.7670 0.7730
14.323000 0.7790 0.7840 0.7870 0.7900 0.7960
14.353946 0.8060 0.8120 0.8130 0.8100 0.8100
14.385000 0.8100 0.8120 0.8210 0.8230 0.8130
14.415946 0.8130 0.8130 0.8130 0.8210 0.8260
14.447000 0.8270 0.8290 0.8260 0.8230 0.8210
14.477946 0.8210 0.8200 0.8200 0.8180 0.8170
14.509000 0.8170 0.8200 0.8200 0.8200 0.8200
14.539946 0.8200 0.8200 0.8200 0.8200 0.8200
14.571000 0.8200 0.8200 0.8180 0.8170 0.8130
14.601946 0.8100 0.8090 0.8060 0.8040 0.8030
14.633000 0.8010 0.8000 0.8000 0.7960 0.7950
14.663946 0.7920 0.7920 0.7900 0.7890 0.7890
14.695000 0.7870 0.7870 0.7840 0.7810 0.7780
14.725946 0.7750 0.7730 0.7730 0.7730 0.7720
14.757000 0.7700 0.7680 0.7650 0.7640 0.7620
14.787946 0.7580 0.7530 0.7510 0.7500 0.7470
14.818000 0.7450 0.7440 0.7450 0.7450 0.7450
14.848946 0.7420 0.7390 0.7340 0.7340 0.7330
14.880000 0.7330 0.7300 0.7240 0.7200 0.7190
14.910946 0.7220 0.7220 0.7200 0.7190 0.7190
14.942000 0.7190 0.7190 0.7190 0.7130 0.7060
14.972946 0.6970 0.6890 0.6830 0.6790 0.6720
15.004000 0.6650 0.6580 0.6440 0.6260 0.6230
15.034946 0.6090 0.6000 0.5860 0.5700 0.5580
15.066000 0.5470 0.5330 0.5250 0.5110 0.5080
15.096946 0.5080 0.5080 0.5080 0.5100 0.5100
15.128000 0.5110 0.5160 0.5190 0.5200 0.5270
15.158946 0.5330 0.5370 0.5470 0.5530 0.5560
15.190000 0.5620 0.5670 0.5680 0.5730 0.5790
15.220946 0.5840 0.5870 0.5890 0.5890 0.5900
15.251000 0.5900 0.5890 0.5860 0.5840 0.5810
15.281946 0.5760 0.5720 0.5680 0.5670 0.5650
15.313000 0.5640 0.5610 0.5560 0.5530 0.5500
15.343946 0.5450 0.5420 0.5410 0.5340 0.5310
15.375000 0.5200 0.5130 0.5060 0.5020 0.5000
15.405946 0.4990 0.4970 0.4940 0.4910 0.4860
15.437000 0.4830 0.4800 0.4740 0.4710 0.4660
15.467946 0.4570 0.4480 0.4400 0.4310 0.4240
15.499000 0.4130 0.4040 0.4010 0.3930 0.3860
15.529946 0.3730 0.3680 0.3640 0.3610 0.3560
15.561000 0.3480 0.3410 0.3390 0.3340 0.3300
15.591946 0.3270 0.3270 0.3240 0.3200 0.3200
15.623000 0.3190 0.3190 0.3190 0.3190 0.3200
15.653946 0.3200 0.3220 0.3240 0.3240 0.3250
15.684000 0.3270 0.3310 0.3360 0.3410 0.3450
15.714946 0.3450 0.3410 0.3390 0.3370 0.3370
15.746000 0.3370 0.3390 0.3360 0.3330 0.3300
15.776946 0.3280 0.3270 0.3240 0.3220 0.3200
15.808000 0.3190 0.3170 0.3160 0.3160 0.3140
15.838946 0.3110 0.3100 0.3030 0.3020 0.2990
15.870000 0.2930 0.2860 0.2830 0.2820 0.2800
15.900946 0.2770 0.2740 0.2690 0.2650 0.2630
15.932000 0.2620 0.2600 0.2600 0.2620 0.2620
15.962946 0.2620 0.2620 0.2600 0.2600 0.2580
15.994000 0.2600 0.2600 0.2600
##END=
