##TITLE=Oxadiazole, 1,2,4-, 5-(Alpha-bromopentadecyl)-3-(5-nitrofuran-2-yl)-
##JCAMP-DX=4.24
##DATA TYPE=INFRARED SPECTRUM
##CLASS=COBLENTZ III
##ORIGIN=ABBOTT LABORATORIES - WASHBURN
##OWNER=Copyright (C) 1987 by the Coblentz Society
Collection (C) 2018 copyright by the U.S. Secretary of Commerce
on behalf of the United States of America. All rights reserved.
##DATE=1965/03/02
##NAMES=5-(1-bromopentadecyl)-3-(5-nitro-2-furyl)-1,2,4-oxadiazole
Oxadiazole, 1,2,4-, 5-(1-bromo-pentadecyl(-3-)5-nitro-2-furyl)-
##MOLFORM=C21 H32 Br N3 O4
##SOURCE REFERENCE=COBLENTZ NO. 9051
##$NIST ID=B6009051
##$NIST SOURCE=COBLENTZ
##$NIST IMAGE=cob9051
##SPECTROMETER/DATA SYSTEM=PERKIN-ELMER 421 (GRATING)
##INSTRUMENT PARAMETERS=GRATINGS: 1999 CM^-^1
##STATE=SOLUTION (7% CHCl3) VS SOLVENT
$$ PURITY MORE THAN 95%
##PATH LENGTH=0.01 CM
$$SPECTRAL CONTAMINATION DUE TO INACTIVE CHCl3 AROUND 1200, 700-800 CM^-^1
##SAMPLING PROCEDURE=TRANSMISSION
##RESOLUTION=2
##DATA PROCESSING=DIGITIZED BY COBLENTZ SOCIETY (BATCH II) FROM HARD COPY
##XUNITS=1/CM
##YUNITS=TRANSMITTANCE
##XFACTOR=1.0
##YFACTOR=1
##FIRSTX=684
##LASTX=4000
##FIRSTY=0.817
##MAXX=4000
##MINX=684
##MAXY=0.9542
##MINY=0.0623
##NPOINTS=3317
##XYDATA=(X++(Y..Y))
684.000000 0.8170 0.8133 0.8097 0.8059 0.8015
689.000000 0.7970 0.7926 0.7882 0.7837 0.7800
694.000000 0.7770 0.7739 0.7709 0.7679 0.7648
699.000000 0.7618 0.7586 0.7555 0.7523 0.7491
704.000000 0.7469 0.7451 0.7432 0.7413 0.7402
709.000000 0.7394 0.7387 0.7379 0.7375 0.7372
714.000000 0.7370 0.7367 0.7365 0.7362 0.7360
719.000000 0.7359 0.7357 0.7356 0.7354 0.7353
724.000000 0.7351 0.7350 0.7348 0.7347 0.7347
729.000000 0.7347 0.7347 0.7348 0.7348 0.7348
734.000000 0.7348 0.7349 0.7349 0.7349 0.7350
739.000000 0.7351 0.7352 0.7352 0.7353 0.7354
744.000000 0.7354 0.7355 0.7354 0.7353 0.7353
749.000000 0.7352 0.7351 0.7351 0.7350 0.7348
754.000000 0.7347 0.7345 0.7343 0.7341 0.7340
759.000000 0.7338 0.7336 0.7335 0.7334 0.7332
764.000000 0.7331 0.7330 0.7329 0.7328 0.7327
769.000000 0.7324 0.7321 0.7318 0.7315 0.7312
774.000000 0.7309 0.7306 0.7303 0.7300 0.7297
779.000000 0.7294 0.7291 0.7288 0.7285 0.7281
784.000000 0.7271 0.7275 0.7272 0.7256 0.7240
789.000000 0.7224 0.7202 0.7169 0.7135 0.7095
794.000000 0.7032 0.6955 0.6856 0.6688 0.5930
799.000000 0.5173 0.4417 0.3661 0.3649 0.3648
804.000000 0.3648 0.3837 0.4215 0.4594 0.4972
809.000000 0.5351 0.5729 0.6108 0.6486 0.6865
814.000000 0.7243 0.8037 0.8234 0.8410 0.8507
819.000000 0.8605 0.8716 0.8819 0.8886 0.8953
824.000000 0.8983 0.9011 0.9040 0.9060 0.9077
829.000000 0.9094 0.9111 0.9127 0.9144 0.9153
834.000000 0.9163 0.9172 0.9181 0.9190 0.9193
839.000000 0.9195 0.9206 0.9199 0.9193 0.9187
844.000000 0.9181 0.9175 0.9163 0.9150 0.9140
849.000000 0.9131 0.9124 0.9122 0.9120 0.9119
854.000000 0.9121 0.9122 0.9123 0.9123 0.9124
859.000000 0.9124 0.9119 0.9114 0.9109 0.9100
864.000000 0.9090 0.9079 0.9069 0.9059 0.9048
869.000000 0.9036 0.9017 0.8997 0.8978 0.8957
874.000000 0.8934 0.8911 0.8883 0.8851 0.8820
879.000000 0.8785 0.8757 0.8728 0.8700 0.8662
884.000000 0.8616 0.8569 0.8510 0.8450 0.8321
889.000000 0.8128 0.7878 0.7730 0.7410 0.7096
894.000000 0.6781 0.6467 0.6153 0.5838 0.5615
899.000000 0.5605 0.5632 0.5859 0.6397 0.6935
904.000000 0.7473 0.8011 0.8402 0.8403 0.8399
909.000000 0.8385 0.8298 0.8211 0.8124 0.8036
914.000000 0.8026 0.8028 0.8050 0.8114 0.8179
919.000000 0.8243 0.8307 0.8372 0.8436 0.8501
924.000000 0.8565 0.8630 0.8693 0.8730 0.8769
929.000000 0.8823 0.8875 0.8922 0.8946 0.8962
934.000000 0.8969 0.8973 0.8978 0.8978 0.8976
939.000000 0.8975 0.8972 0.8969 0.8966 0.8959
944.000000 0.8951 0.8944 0.8933 0.8921 0.8908
949.000000 0.8891 0.8874 0.8858 0.8839 0.8803
954.000000 0.8767 0.8711 0.8641 0.8512 0.8128
959.000000 0.7743 0.7359 0.6975 0.6762 0.6963
964.000000 0.7359 0.7754 0.8150 0.8545 0.8785
969.000000 0.8818 0.8851 0.8870 0.8884 0.8888
974.000000 0.8911 0.8879 0.8868 0.8822 0.8671
979.000000 0.8520 0.8369 0.8217 0.8212 0.8219
984.000000 0.8297 0.8398 0.8500 0.8601 0.8702
989.000000 0.8714 0.8734 0.8716 0.8710 0.8703
994.000000 0.8696 0.8685 0.8663 0.8639 0.8602
999.000000 0.8558 0.8499 0.8431 0.8351 0.8221
1004.000000 0.8069 0.7915 0.7690 0.7241 0.6245
1009.000000 0.4624 0.3781 0.3761 0.3778 0.4484
1014.000000 0.5487 0.6490 0.7492 0.8181 0.8328
1019.000000 0.8416 0.8518 0.8609 0.8665 0.8703
1024.000000 0.8736 0.8759 0.8773 0.8788 0.8799
1029.000000 0.8809 0.8820 0.8830 0.8837 0.8841
1034.000000 0.8846 0.8850 0.8855 0.8859 0.8864
1039.000000 0.8867 0.8868 0.8868 0.8869 0.8870
1044.000000 0.8871 0.8872 0.8871 0.8870 0.8870
1049.000000 0.8869 0.8868 0.8868 0.8867 0.8864
1054.000000 0.8860 0.8857 0.8853 0.8849 0.8846
1059.000000 0.8845 0.8843 0.8841 0.8840 0.8839
1064.000000 0.8843 0.8847 0.8851 0.8854 0.8860
1069.000000 0.8868 0.8876 0.8885 0.8893 0.8902
1074.000000 0.8913 0.8923 0.8934 0.8944 0.8955
1079.000000 0.8965 0.8989 0.9014 0.9037 0.9060
1084.000000 0.9082 0.9105 0.9136 0.9167 0.9197
1089.000000 0.9229 0.9266 0.9303 0.9339 0.9388
1094.000000 0.9436 0.9482 0.9508 0.9523 0.9523
1099.000000 0.9542 0.9503 0.9478 0.9435 0.9392
1104.000000 0.9357 0.9346 0.9339 0.9342 0.9344
1109.000000 0.9348 0.9354 0.9361 0.9367 0.9374
1114.000000 0.9387 0.9405 0.9430 0.9450 0.9459
1119.000000 0.9468 0.9465 0.9456 0.9429 0.9395
1124.000000 0.9357 0.9317 0.9273 0.9224 0.9168
1129.000000 0.9118 0.9071 0.9024 0.8976 0.8944
1134.000000 0.8923 0.8901 0.8879 0.8863 0.8847
1139.000000 0.8832 0.8821 0.8810 0.8799 0.8788
1144.000000 0.8771 0.8722 0.8650 0.8578 0.8516
1149.000000 0.8494 0.8473 0.8468 0.8469 0.8476
1154.000000 0.8488 0.8500 0.8516 0.8532 0.8547
1159.000000 0.8562 0.8576 0.8591 0.8605 0.8615
1164.000000 0.8624 0.8628 0.8632 0.8628 0.8621
1169.000000 0.8614 0.8599 0.8579 0.8555 0.8531
1174.000000 0.8506 0.8480 0.8454 0.8426 0.8396
1179.000000 0.8366 0.8312 0.8281 0.8263 0.8259
1184.000000 0.8256 0.8253 0.8251 0.8249 0.8206
1189.000000 0.8140 0.8044 0.7945 0.7841 0.7749
1194.000000 0.7686 0.7655 0.7624 0.7593 0.7562
1199.000000 0.7544 0.7527 0.7517 0.7511 0.7504
1204.000000 0.7498 0.7494 0.7491 0.7487 0.7483
1209.000000 0.7479 0.7476 0.7474 0.7473 0.7471
1214.000000 0.7470 0.7468 0.7467 0.7466 0.7465
1219.000000 0.7464 0.7463 0.7463 0.7461 0.7453
1224.000000 0.7445 0.7322 0.7198 0.7074 0.6950
1229.000000 0.6826 0.6701 0.6577 0.6453 0.6329
1234.000000 0.6205 0.6101 0.6058 0.6052 0.6046
1239.000000 0.6374 0.6690 0.7006 0.7322 0.7638
1244.000000 0.7955 0.8135 0.8247 0.8286 0.8312
1249.000000 0.8332 0.8339 0.8346 0.8345 0.8344
1254.000000 0.8353 0.8340 0.8337 0.8328 0.8315
1259.000000 0.8300 0.8283 0.8265 0.8241 0.8217
1264.000000 0.8183 0.8144 0.8094 0.8045 0.7990
1269.000000 0.7933 0.7874 0.7807 0.7741 0.7674
1274.000000 0.7607 0.7540 0.7448 0.7340 0.7242
1279.000000 0.7148 0.7076 0.7005 0.6953 0.6902
1284.000000 0.6858 0.6814 0.6779 0.6752 0.6726
1289.000000 0.6706 0.6687 0.6666 0.6644 0.6621
1294.000000 0.6570 0.6415 0.6130 0.5891 0.5652
1299.000000 0.5413 0.5175 0.4936 0.4728 0.4554
1304.000000 0.4325 0.4171 0.4018 0.3750 0.3342
1309.000000 0.3161 0.2990 0.2871 0.2810 0.2785
1314.000000 0.2772 0.2763 0.2756 0.2750 0.2737
1319.000000 0.2719 0.2688 0.2628 0.2589 0.2582
1324.000000 0.2576 0.2591 0.2584 0.2620 0.2720
1329.000000 0.2992 0.3239 0.3485 0.3731 0.3977
1334.000000 0.4084 0.4091 0.4040 0.3553 0.3065
1339.000000 0.2578 0.2090 0.1603 0.1115 0.0678
1344.000000 0.0633 0.0623 0.0646 0.0631 0.0984
1349.000000 0.1453 0.1922 0.2392 0.2861 0.3330
1354.000000 0.3799 0.4268 0.4737 0.5206 0.5738
1359.000000 0.5777 0.5773 0.5773 0.5659 0.5481
1364.000000 0.5303 0.5125 0.4948 0.4770 0.4592
1369.000000 0.4414 0.4237 0.4157 0.4157 0.4409
1374.000000 0.4911 0.5414 0.5917 0.6419 0.6922
1379.000000 0.7425 0.7785 0.7901 0.7980 0.8019
1384.000000 0.8037 0.8034 0.8041 0.8014 0.7988
1389.000000 0.7954 0.7915 0.7872 0.7822 0.7775
1394.000000 0.7719 0.7622 0.7457 0.7328 0.6967
1399.000000 0.6579 0.6192 0.5804 0.5648 0.5682
1404.000000 0.5870 0.6188 0.6505 0.6822 0.7139
1409.000000 0.7456 0.7714 0.7776 0.7837 0.7863
1414.000000 0.7883 0.7906 0.7884 0.7865 0.7782
1419.000000 0.7699 0.7616 0.7533 0.7450 0.7366
1424.000000 0.7292 0.7247 0.7222 0.7225 0.7230
1429.000000 0.7245 0.7268 0.7284 0.7293 0.7293
1434.000000 0.7287 0.7281 0.7270 0.7258 0.7238
1439.000000 0.7215 0.7184 0.7144 0.7031 0.6841
1444.000000 0.6651 0.6461 0.6271 0.6107 0.6047
1449.000000 0.5995 0.5954 0.5915 0.5881 0.5844
1454.000000 0.5799 0.5728 0.5652 0.5583 0.5565
1459.000000 0.5563 0.5577 0.5987 0.6559 0.7131
1464.000000 0.7594 0.7780 0.7907 0.8032 0.8161
1469.000000 0.8293 0.8372 0.8445 0.8494 0.8539
1474.000000 0.8565 0.8583 0.8591 0.8593 0.8600
1479.000000 0.8594 0.8587 0.8579 0.8566 0.8553
1484.000000 0.8536 0.8515 0.8495 0.8470 0.8441
1489.000000 0.8405 0.8363 0.8318 0.8260 0.8202
1494.000000 0.8117 0.8008 0.7709 0.7322 0.6936
1499.000000 0.6550 0.6218 0.6143 0.6057 0.5996
1504.000000 0.5930 0.5683 0.5057 0.4431 0.3805
1509.000000 0.3218 0.2724 0.2690 0.2677 0.2674
1514.000000 0.2688 0.2680 0.2696 0.2903 0.3232
1519.000000 0.3562 0.3891 0.4221 0.4550 0.4880
1524.000000 0.5209 0.5539 0.5868 0.6144 0.6289
1529.000000 0.6311 0.6292 0.6281 0.6268 0.6256
1534.000000 0.6240 0.6217 0.6188 0.6156 0.6118
1539.000000 0.6075 0.6022 0.5949 0.5547 0.5285
1544.000000 0.5024 0.4762 0.4501 0.4240 0.3978
1549.000000 0.3745 0.3752 0.3812 0.3876 0.3930
1554.000000 0.3969 0.4009 0.4178 0.4712 0.4883
1559.000000 0.4886 0.4871 0.4803 0.4734 0.4665
1564.000000 0.4597 0.4531 0.4534 0.4767 0.5130
1569.000000 0.5349 0.5400 0.5443 0.5708 0.6021
1574.000000 0.6334 0.6647 0.6960 0.7273 0.7586
1579.000000 0.7800 0.8057 0.8216 0.8322 0.8397
1584.000000 0.8456 0.8500 0.8541 0.8568 0.8585
1589.000000 0.8602 0.8614 0.8626 0.8637 0.8639
1594.000000 0.8653 0.8639 0.8637 0.8631 0.8625
1599.000000 0.8617 0.8602 0.8586 0.8555 0.8524
1604.000000 0.8490 0.8454 0.8411 0.8347 0.8242
1609.000000 0.8138 0.8033 0.7936 0.7936 0.7908
1614.000000 0.7942 0.8015 0.8297 0.8512 0.8550
1619.000000 0.8586 0.8622 0.8668 0.8713 0.8747
1624.000000 0.8779 0.8808 0.8835 0.8861 0.8887
1629.000000 0.8910 0.8932 0.8954 0.8976 0.8992
1634.000000 0.9008 0.9024 0.9041 0.9052 0.9062
1639.000000 0.9071 0.9081 0.9086 0.9089 0.9092
1644.000000 0.9094 0.9097 0.9099 0.9102 0.9104
1649.000000 0.9107 0.9109 0.9112 0.9113 0.9115
1654.000000 0.9117 0.9118 0.9120 0.9121 0.9123
1659.000000 0.9124 0.9128 0.9132 0.9136 0.9140
1664.000000 0.9146 0.9154 0.9162 0.9170 0.9178
1669.000000 0.9183 0.9186 0.9190 0.9193 0.9197
1674.000000 0.9197 0.9196 0.9194 0.9192 0.9184
1679.000000 0.9176 0.9168 0.9160 0.9154 0.9150
1684.000000 0.9146 0.9141 0.9137 0.9133 0.9129
1689.000000 0.9127 0.9126 0.9124 0.9122 0.9120
1694.000000 0.9118 0.9116 0.9114 0.9112 0.9110
1699.000000 0.9108 0.9106 0.9104 0.9102 0.9100
1704.000000 0.9098 0.9096 0.9094 0.9092 0.9090
1709.000000 0.9087 0.9082 0.9077 0.9072 0.9067
1714.000000 0.9062 0.9055 0.9047 0.9040 0.9033
1719.000000 0.9026 0.9019 0.9012 0.9004 0.8996
1724.000000 0.8988 0.8980 0.8972 0.8973 0.8980
1729.000000 0.8987 0.8995 0.9002 0.9010 0.9018
1734.000000 0.9026 0.9032 0.9036 0.9040 0.9044
1739.000000 0.9047 0.9049 0.9052 0.9053 0.9054
1744.000000 0.9054 0.9054 0.9054 0.9055 0.9054
1749.000000 0.9054 0.9054 0.9053 0.9053 0.9052
1754.000000 0.9047 0.9043 0.9038 0.9033 0.9030
1759.000000 0.9026 0.9022 0.9023 0.9029 0.9036
1764.000000 0.9044 0.9054 0.9064 0.9073 0.9083
1769.000000 0.9094 0.9104 0.9115 0.9125 0.9136
1774.000000 0.9146 0.9156 0.9164 0.9173 0.9181
1779.000000 0.9190 0.9198 0.9204 0.9210 0.9217
1784.000000 0.9223 0.9229 0.9230 0.9231 0.9231
1789.000000 0.9232 0.9233 0.9233 0.9234 0.9235
1794.000000 0.9235 0.9234 0.9234 0.9234 0.9233
1799.000000 0.9233 0.9233 0.9232 0.9232 0.9232
1804.000000 0.9231 0.9230 0.9229 0.9227 0.9226
1809.000000 0.9224 0.9223 0.9221 0.9220 0.9217
1814.000000 0.9214 0.9211 0.9208 0.9205 0.9202
1819.000000 0.9199 0.9196 0.9194 0.9195 0.9198
1824.000000 0.9201 0.9203 0.9206 0.9209 0.9212
1829.000000 0.9215 0.9217 0.9220 0.9223 0.9226
1834.000000 0.9229 0.9231 0.9232 0.9231 0.9230
1839.000000 0.9229 0.9228 0.9227 0.9228 0.9228
1844.000000 0.9229 0.9229 0.9230 0.9230 0.9231
1849.000000 0.9231 0.9232 0.9232 0.9233 0.9233
1854.000000 0.9234 0.9234 0.9235 0.9235 0.9236
1859.000000 0.9236 0.9237 0.9238 0.9238 0.9239
1864.000000 0.9239 0.9240 0.9241 0.9241 0.9242
1869.000000 0.9242 0.9243 0.9244 0.9244 0.9245
1874.000000 0.9245 0.9246 0.9247 0.9247 0.9248
1879.000000 0.9248 0.9249 0.9249 0.9250 0.9250
1884.000000 0.9251 0.9251 0.9252 0.9252 0.9253
1889.000000 0.9253 0.9254 0.9254 0.9255 0.9255
1894.000000 0.9256 0.9256 0.9256 0.9256 0.9255
1899.000000 0.9255 0.9254 0.9254 0.9254 0.9253
1904.000000 0.9253 0.9253 0.9252 0.9252 0.9252
1909.000000 0.9251 0.9251 0.9250 0.9250 0.9249
1914.000000 0.9249 0.9248 0.9248 0.9247 0.9247
1919.000000 0.9246 0.9245 0.9245 0.9244 0.9244
1924.000000 0.9243 0.9243 0.9242 0.9241 0.9241
1929.000000 0.9240 0.9240 0.9239 0.9239 0.9238
1934.000000 0.9237 0.9237 0.9236 0.9236 0.9235
1939.000000 0.9235 0.9234 0.9234 0.9233 0.9233
1944.000000 0.9233 0.9232 0.9232 0.9232 0.9231
1949.000000 0.9231 0.9231 0.9231 0.9230 0.9230
1954.000000 0.9230 0.9229 0.9229 0.9229 0.9228
1959.000000 0.9228 0.9229 0.9229 0.9229 0.9229
1964.000000 0.9230 0.9230 0.9230 0.9231 0.9231
1969.000000 0.9231 0.9231 0.9230 0.9229 0.9227
1974.000000 0.9226 0.9224 0.9223 0.9221 0.9219
1979.000000 0.9218 0.9216 0.9209 0.9202 0.9194
1984.000000 0.9187 0.9180 0.9173 0.9165 0.9157
1989.000000 0.9148 0.9138 0.9129 0.9123 0.9118
1994.000000 0.9113 0.9107 0.9110 0.9122 0.9135
1999.000000 0.9154 0.9174 0.9184 0.9190 0.9192
2004.000000 0.9192 0.9192 0.9192 0.9193 0.9193
2009.000000 0.9193 0.9194 0.9193 0.9193 0.9193
2014.000000 0.9192 0.9192 0.9192 0.9191 0.9191
2019.000000 0.9191 0.9191 0.9191 0.9191 0.9190
2024.000000 0.9190 0.9190 0.9190 0.9190 0.9189
2029.000000 0.9189 0.9189 0.9189 0.9191 0.9192
2034.000000 0.9194 0.9196 0.9197 0.9199 0.9201
2039.000000 0.9203 0.9205 0.9208 0.9210 0.9213
2044.000000 0.9217 0.9222 0.9226 0.9231 0.9235
2049.000000 0.9240 0.9243 0.9244 0.9245 0.9246
2054.000000 0.9246 0.9247 0.9248 0.9248 0.9247
2059.000000 0.9247 0.9247 0.9247 0.9246 0.9245
2064.000000 0.9244 0.9243 0.9242 0.9241 0.9240
2069.000000 0.9239 0.9238 0.9237 0.9236 0.9234
2074.000000 0.9233 0.9232 0.9232 0.9232 0.9231
2079.000000 0.9231 0.9231 0.9230 0.9230 0.9230
2084.000000 0.9229 0.9229 0.9229 0.9229 0.9228
2089.000000 0.9228 0.9228 0.9227 0.9227 0.9227
2094.000000 0.9227 0.9227 0.9227 0.9226 0.9226
2099.000000 0.9226 0.9226 0.9226 0.9226 0.9226
2104.000000 0.9226 0.9226 0.9226 0.9226 0.9226
2109.000000 0.9226 0.9226 0.9226 0.9226 0.9226
2114.000000 0.9225 0.9224 0.9223 0.9222 0.9222
2119.000000 0.9221 0.9220 0.9219 0.9218 0.9217
2124.000000 0.9216 0.9215 0.9214 0.9213 0.9212
2129.000000 0.9212 0.9211 0.9210 0.9208 0.9207
2134.000000 0.9205 0.9204 0.9203 0.9201 0.9200
2139.000000 0.9198 0.9197 0.9195 0.9194 0.9193
2144.000000 0.9191 0.9190 0.9188 0.9187 0.9185
2149.000000 0.9184 0.9183 0.9184 0.9184 0.9184
2154.000000 0.9184 0.9186 0.9189 0.9192 0.9194
2159.000000 0.9197 0.9200 0.9202 0.9205 0.9207
2164.000000 0.9209 0.9211 0.9213 0.9215 0.9217
2169.000000 0.9219 0.9220 0.9221 0.9222 0.9223
2174.000000 0.9223 0.9224 0.9225 0.9225 0.9226
2179.000000 0.9226 0.9226 0.9226 0.9226 0.9226
2184.000000 0.9226 0.9226 0.9226 0.9226 0.9226
2189.000000 0.9226 0.9226 0.9227 0.9227 0.9227
2194.000000 0.9226 0.9225 0.9224 0.9223 0.9223
2199.000000 0.9222 0.9221 0.9220 0.9219 0.9218
2204.000000 0.9217 0.9216 0.9215 0.9214 0.9213
2209.000000 0.9212 0.9211 0.9210 0.9209 0.9208
2214.000000 0.9207 0.9206 0.9205 0.9204 0.9203
2219.000000 0.9202 0.9201 0.9200 0.9199 0.9198
2224.000000 0.9197 0.9196 0.9195 0.9194 0.9193
2229.000000 0.9192 0.9191 0.9190 0.9189 0.9188
2234.000000 0.9187 0.9186 0.9185 0.9184 0.9183
2239.000000 0.9182 0.9181 0.9180 0.9179 0.9178
2244.000000 0.9177 0.9176 0.9175 0.9174 0.9173
2249.000000 0.9172 0.9171 0.9169 0.9168 0.9166
2254.000000 0.9165 0.9163 0.9162 0.9160 0.9159
2259.000000 0.9158 0.9156 0.9155 0.9153 0.9152
2264.000000 0.9150 0.9149 0.9147 0.9146 0.9144
2269.000000 0.9143 0.9141 0.9140 0.9139 0.9137
2274.000000 0.9136 0.9134 0.9133 0.9131 0.9130
2279.000000 0.9128 0.9127 0.9125 0.9123 0.9122
2284.000000 0.9120 0.9119 0.9117 0.9116 0.9114
2289.000000 0.9113 0.9111 0.9109 0.9108 0.9106
2294.000000 0.9105 0.9103 0.9102 0.9100 0.9098
2299.000000 0.9097 0.9095 0.9094 0.9092 0.9092
2304.000000 0.9091 0.9090 0.9089 0.9088 0.9088
2309.000000 0.9087 0.9086 0.9085 0.9084 0.9084
2314.000000 0.9083 0.9082 0.9081 0.9080 0.9080
2319.000000 0.9079 0.9079 0.9079 0.9079 0.9079
2324.000000 0.9079 0.9079 0.9079 0.9079 0.9078
2329.000000 0.9078 0.9078 0.9078 0.9078 0.9078
2334.000000 0.9078 0.9078 0.9078 0.9078 0.9079
2339.000000 0.9079 0.9080 0.9080 0.9081 0.9081
2344.000000 0.9082 0.9082 0.9083 0.9083 0.9083
2349.000000 0.9084 0.9084 0.9085 0.9086 0.9087
2354.000000 0.9088 0.9089 0.9091 0.9092 0.9093
2359.000000 0.9094 0.9095 0.9097 0.9098 0.9099
2364.000000 0.9100 0.9101 0.9103 0.9104 0.9107
2369.000000 0.9110 0.9113 0.9115 0.9118 0.9118
2374.000000 0.9118 0.9117 0.9117 0.9116 0.9115
2379.000000 0.9115 0.9114 0.9112 0.9110 0.9108
2384.000000 0.9107 0.9105 0.9103 0.9101 0.9099
2389.000000 0.9097 0.9095 0.9093 0.9091 0.9089
2394.000000 0.9087 0.9085 0.9083 0.9081 0.9079
2399.000000 0.9077 0.9077 0.9077 0.9076 0.9076
2404.000000 0.9075 0.9075 0.9074 0.9074 0.9073
2409.000000 0.9073 0.9072 0.9072 0.9071 0.9071
2414.000000 0.9071 0.9071 0.9071 0.9071 0.9071
2419.000000 0.9071 0.9070 0.9070 0.9070 0.9070
2424.000000 0.9070 0.9070 0.9070 0.9069 0.9069
2429.000000 0.9068 0.9068 0.9068 0.9067 0.9067
2434.000000 0.9067 0.9066 0.9065 0.9064 0.9063
2439.000000 0.9062 0.9062 0.9061 0.9060 0.9059
2444.000000 0.9058 0.9057 0.9056 0.9055 0.9055
2449.000000 0.9054 0.9053 0.9052 0.9051 0.9049
2454.000000 0.9048 0.9047 0.9046 0.9045 0.9044
2459.000000 0.9043 0.9042 0.9041 0.9040 0.9038
2464.000000 0.9035 0.9033 0.9031 0.9028 0.9026
2469.000000 0.9024 0.9021 0.9019 0.9017 0.9014
2474.000000 0.9012 0.9007 0.9001 0.8995 0.8988
2479.000000 0.8982 0.8976 0.8969 0.8968 0.8968
2484.000000 0.8974 0.8979 0.8990 0.9016 0.9040
2489.000000 0.9064 0.9063 0.9062 0.9062 0.9061
2494.000000 0.9061 0.9060 0.9060 0.9059 0.9058
2499.000000 0.9056 0.9055 0.9053 0.9052 0.9051
2504.000000 0.9049 0.9048 0.9047 0.9047 0.9047
2509.000000 0.9047 0.9047 0.9047 0.9047 0.9047
2514.000000 0.9046 0.9046 0.9046 0.9045 0.9045
2519.000000 0.9044 0.9044 0.9043 0.9043 0.9042
2524.000000 0.9042 0.9041 0.9041 0.9040 0.9040
2529.000000 0.9040 0.9039 0.9039 0.9038 0.9038
2534.000000 0.9038 0.9037 0.9037 0.9036 0.9036
2539.000000 0.9036 0.9035 0.9035 0.9034 0.9034
2544.000000 0.9034 0.9034 0.9035 0.9035 0.9036
2549.000000 0.9037 0.9037 0.9038 0.9038 0.9039
2554.000000 0.9039 0.9040 0.9037 0.9031 0.9026
2559.000000 0.9020 0.9015 0.9009 0.9005 0.9001
2564.000000 0.8996 0.8992 0.8988 0.8987 0.8986
2569.000000 0.8986 0.8985 0.8984 0.8984 0.8983
2574.000000 0.8983 0.8985 0.8987 0.8989 0.8992
2579.000000 0.8994 0.8994 0.8992 0.8990 0.8988
2584.000000 0.8987 0.8985 0.8982 0.8980 0.8978
2589.000000 0.8977 0.8980 0.8983 0.8985 0.8985
2594.000000 0.8986 0.8987 0.8988 0.8988 0.8985
2599.000000 0.8982 0.8979 0.8976 0.8974 0.8971
2604.000000 0.8969 0.8968 0.8967 0.8967 0.8966
2609.000000 0.8965 0.8964 0.8964 0.8963 0.8962
2614.000000 0.8962 0.8961 0.8961 0.8960 0.8960
2619.000000 0.8958 0.8957 0.8956 0.8955 0.8954
2624.000000 0.8953 0.8952 0.8951 0.8950 0.8949
2629.000000 0.8946 0.8943 0.8941 0.8938 0.8935
2634.000000 0.8933 0.8930 0.8928 0.8925 0.8922
2639.000000 0.8920 0.8917 0.8914 0.8911 0.8909
2644.000000 0.8906 0.8903 0.8900 0.8897 0.8893
2649.000000 0.8887 0.8880 0.8873 0.8866 0.8859
2654.000000 0.8851 0.8843 0.8835 0.8826 0.8818
2659.000000 0.8810 0.8807 0.8804 0.8800 0.8797
2664.000000 0.8794 0.8791 0.8787 0.8785 0.8784
2669.000000 0.8784 0.8784 0.8783 0.8783 0.8782
2674.000000 0.8782 0.8781 0.8781 0.8781 0.8781
2679.000000 0.8781 0.8782 0.8782 0.8782 0.8782
2684.000000 0.8783 0.8784 0.8784 0.8785 0.8785
2689.000000 0.8786 0.8787 0.8787 0.8788 0.8788
2694.000000 0.8791 0.8794 0.8797 0.8800 0.8803
2699.000000 0.8806 0.8809 0.8811 0.8813 0.8815
2704.000000 0.8817 0.8820 0.8822 0.8824 0.8826
2709.000000 0.8828 0.8829 0.8830 0.8831 0.8832
2714.000000 0.8833 0.8833 0.8832 0.8832 0.8832
2719.000000 0.8832 0.8831 0.8830 0.8826 0.8822
2724.000000 0.8818 0.8814 0.8810 0.8807 0.8802
2729.000000 0.8798 0.8793 0.8788 0.8784 0.8779
2734.000000 0.8774 0.8769 0.8764 0.8759 0.8753
2739.000000 0.8748 0.8745 0.8743 0.8741 0.8740
2744.000000 0.8738 0.8736 0.8735 0.8733 0.8731
2749.000000 0.8730 0.8730 0.8729 0.8728 0.8728
2754.000000 0.8727 0.8727 0.8726 0.8726 0.8726
2759.000000 0.8726 0.8725 0.8725 0.8725 0.8725
2764.000000 0.8725 0.8725 0.8721 0.8717 0.8713
2769.000000 0.8708 0.8704 0.8698 0.8689 0.8680
2774.000000 0.8671 0.8662 0.8653 0.8644 0.8636
2779.000000 0.8629 0.8621 0.8613 0.8600 0.8587
2784.000000 0.8575 0.8562 0.8549 0.8536 0.8523
2789.000000 0.8510 0.8496 0.8483 0.8470 0.8455
2794.000000 0.8439 0.8423 0.8407 0.8391 0.8375
2799.000000 0.8358 0.8341 0.8324 0.8306 0.8289
2804.000000 0.8272 0.8252 0.8232 0.8212 0.8191
2809.000000 0.8171 0.8151 0.8128 0.8098 0.8068
2814.000000 0.8038 0.8008 0.7970 0.7928 0.7887
2819.000000 0.7843 0.7781 0.7720 0.7658 0.7587
2824.000000 0.7513 0.7438 0.7356 0.7238 0.7109
2829.000000 0.6974 0.6816 0.6614 0.6434 0.6261
2834.000000 0.6038 0.5841 0.5672 0.5455 0.5034
2839.000000 0.4702 0.4371 0.4039 0.3707 0.3376
2844.000000 0.3044 0.2712 0.2381 0.1929 0.1812
2849.000000 0.1804 0.1804 0.1811 0.1982 0.2250
2854.000000 0.2519 0.2788 0.3056 0.3325 0.3593
2859.000000 0.3862 0.4131 0.4262 0.4361 0.4434
2864.000000 0.4523 0.4653 0.4734 0.4813 0.4937
2869.000000 0.5154 0.5333 0.5464 0.5524 0.5535
2874.000000 0.5544 0.5555 0.5540 0.5527 0.5506
2879.000000 0.5427 0.5343 0.5282 0.5193 0.5076
2884.000000 0.4964 0.4851 0.4739 0.4627 0.4515
2889.000000 0.4403 0.4290 0.4178 0.4066 0.3954
2894.000000 0.3842 0.3730 0.3617 0.3505 0.3393
2899.000000 0.3281 0.3169 0.3058 0.2947 0.2640
2904.000000 0.2504 0.2251 0.2105 0.1997 0.1887
2909.000000 0.1776 0.1649 0.1461 0.1326 0.1211
2914.000000 0.1108 0.1013 0.0937 0.0879 0.0855
2919.000000 0.0842 0.0839 0.0851 0.0862 0.0874
2924.000000 0.0889 0.0916 0.0955 0.1039 0.1134
2929.000000 0.1277 0.1384 0.1586 0.1807 0.2027
2934.000000 0.2248 0.2469 0.2690 0.2910 0.3131
2939.000000 0.3339 0.3441 0.3529 0.3574 0.3618
2944.000000 0.3666 0.3720 0.3756 0.3775 0.3794
2949.000000 0.3813 0.3833 0.3853 0.3892 0.3976
2954.000000 0.4073 0.4363 0.4601 0.4838 0.5075
2959.000000 0.5312 0.5550 0.5614 0.5677 0.5756
2964.000000 0.5918 0.6201 0.6297 0.6401 0.6516
2969.000000 0.6598 0.6680 0.6812 0.7029 0.7182
2974.000000 0.7288 0.7412 0.7534 0.7688 0.7827
2979.000000 0.7883 0.7919 0.7933 0.7948 0.7955
2984.000000 0.7960 0.7965 0.7969 0.7968 0.7968
2989.000000 0.7967 0.7966 0.7964 0.7962 0.7960
2994.000000 0.7958 0.7955 0.7949 0.7944 0.7939
2999.000000 0.7933 0.7929 0.7925 0.7921 0.7917
3004.000000 0.7916 0.7921 0.7925 0.7930 0.7934
3009.000000 0.7938 0.7941 0.7943 0.7945 0.7947
3014.000000 0.7949 0.7950 0.7952 0.7953 0.7954
3019.000000 0.7956 0.7957 0.7961 0.7966 0.7972
3024.000000 0.7978 0.7983 0.7992 0.8006 0.8019
3029.000000 0.8044 0.8068 0.8095 0.8124 0.8160
3034.000000 0.8195 0.8231 0.8266 0.8296 0.8326
3039.000000 0.8354 0.8377 0.8401 0.8424 0.8450
3044.000000 0.8480 0.8509 0.8529 0.8546 0.8563
3049.000000 0.8580 0.8597 0.8610 0.8621 0.8633
3054.000000 0.8644 0.8652 0.8661 0.8669 0.8678
3059.000000 0.8686 0.8692 0.8698 0.8704 0.8709
3064.000000 0.8711 0.8713 0.8715 0.8716 0.8718
3069.000000 0.8720 0.8722 0.8722 0.8723 0.8724
3074.000000 0.8725 0.8726 0.8727 0.8748 0.8730
3079.000000 0.8732 0.8733 0.8735 0.8737 0.8739
3084.000000 0.8740 0.8740 0.8741 0.8742 0.8743
3089.000000 0.8743 0.8744 0.8745 0.8745 0.8744
3094.000000 0.8744 0.8744 0.8744 0.8743 0.8743
3099.000000 0.8740 0.8736 0.8733 0.8729 0.8722
3104.000000 0.8716 0.8709 0.8702 0.8695 0.8685
3109.000000 0.8673 0.8662 0.8649 0.8627 0.8604
3114.000000 0.8582 0.8555 0.8527 0.8498 0.8470
3119.000000 0.8437 0.8404 0.8370 0.8337 0.8301
3124.000000 0.8264 0.8227 0.8189 0.8153 0.8117
3129.000000 0.8081 0.8045 0.8009 0.7975 0.7940
3134.000000 0.7906 0.7872 0.7836 0.7798 0.7760
3139.000000 0.7722 0.7690 0.7660 0.7652 0.7647
3144.000000 0.7650 0.7625 0.7678 0.7699 0.7730
3149.000000 0.7825 0.7958 0.8095 0.8230 0.8303
3154.000000 0.8352 0.8396 0.8427 0.8457 0.8487
3159.000000 0.8508 0.8528 0.8549 0.8569 0.8584
3164.000000 0.8596 0.8608 0.8620 0.8632 0.8646
3169.000000 0.8660 0.8674 0.8688 0.8696 0.8703
3174.000000 0.8710 0.8717 0.8724 0.8731 0.8737
3179.000000 0.8743 0.8749 0.8755 0.8760 0.8765
3184.000000 0.8769 0.8773 0.8776 0.8780 0.8784
3189.000000 0.8788 0.8791 0.8793 0.8791 0.8790
3194.000000 0.8789 0.8788 0.8786 0.8785 0.8785
3199.000000 0.8786 0.8787 0.8788 0.8790 0.8791
3204.000000 0.8792 0.8793 0.8794 0.8795 0.8796
3209.000000 0.8797 0.8798 0.8799 0.8799 0.8799
3214.000000 0.8800 0.8800 0.8800 0.8800 0.8801
3219.000000 0.8801 0.8801 0.8802 0.8802 0.8803
3224.000000 0.8804 0.8805 0.8805 0.8806 0.8807
3229.000000 0.8808 0.8809 0.8810 0.8811 0.8812
3234.000000 0.8814 0.8815 0.8816 0.8817 0.8818
3239.000000 0.8819 0.8820 0.8822 0.8823 0.8824
3244.000000 0.8825 0.8825 0.8825 0.8825 0.8825
3249.000000 0.8825 0.8825 0.8825 0.8825 0.8825
3254.000000 0.8825 0.8825 0.8825 0.8825 0.8826
3259.000000 0.8826 0.8826 0.8827 0.8827 0.8827
3264.000000 0.8827 0.8828 0.8828 0.8828 0.8829
3269.000000 0.8829 0.8830 0.8830 0.8831 0.8831
3274.000000 0.8832 0.8832 0.8833 0.8833 0.8834
3279.000000 0.8834 0.8835 0.8835 0.8836 0.8835
3284.000000 0.8835 0.8835 0.8835 0.8834 0.8834
3289.000000 0.8834 0.8834 0.8833 0.8833 0.8833
3294.000000 0.8833 0.8832 0.8832 0.8831 0.8831
3299.000000 0.8830 0.8830 0.8829 0.8829 0.8828
3304.000000 0.8828 0.8827 0.8826 0.8826 0.8825
3309.000000 0.8825 0.8824 0.8824 0.8823 0.8823
3314.000000 0.8822 0.8821 0.8821 0.8821 0.8820
3319.000000 0.8820 0.8820 0.8819 0.8819 0.8819
3324.000000 0.8819 0.8818 0.8818 0.8818 0.8818
3329.000000 0.8817 0.8817 0.8817 0.8817 0.8816
3334.000000 0.8816 0.8816 0.8815 0.8815 0.8815
3339.000000 0.8815 0.8814 0.8814 0.8814 0.8814
3344.000000 0.8813 0.8813 0.8813 0.8812 0.8812
3349.000000 0.8812 0.8813 0.8813 0.8813 0.8814
3354.000000 0.8814 0.8814 0.8814 0.8815 0.8815
3359.000000 0.8815 0.8815 0.8816 0.8816 0.8816
3364.000000 0.8817 0.8817 0.8817 0.8817 0.8818
3369.000000 0.8818 0.8819 0.8820 0.8821 0.8821
3374.000000 0.8822 0.8823 0.8824 0.8825 0.8825
3379.000000 0.8826 0.8827 0.8828 0.8829 0.8829
3384.000000 0.8830 0.8831 0.8832 0.8833 0.8833
3389.000000 0.8834 0.8835 0.8836 0.8837 0.8838
3394.000000 0.8839 0.8839 0.8840 0.8841 0.8842
3399.000000 0.8843 0.8844 0.8844 0.8845 0.8845
3404.000000 0.8846 0.8846 0.8847 0.8847 0.8847
3409.000000 0.8848 0.8848 0.8849 0.8849 0.8850
3414.000000 0.8850 0.8851 0.8851 0.8852 0.8852
3419.000000 0.8852 0.8853 0.8854 0.8855 0.8856
3424.000000 0.8856 0.8857 0.8858 0.8859 0.8860
3429.000000 0.8861 0.8862 0.8863 0.8864 0.8865
3434.000000 0.8866 0.8866 0.8867 0.8868 0.8869
3439.000000 0.8870 0.8871 0.8872 0.8873 0.8873
3444.000000 0.8874 0.8874 0.8874 0.8874 0.8875
3449.000000 0.8875 0.8875 0.8875 0.8876 0.8876
3454.000000 0.8876 0.8877 0.8877 0.8877 0.8877
3459.000000 0.8878 0.8878 0.8878 0.8879 0.8879
3464.000000 0.8879 0.8879 0.8880 0.8880 0.8880
3469.000000 0.8880 0.8881 0.8881 0.8882 0.8882
3474.000000 0.8883 0.8884 0.8884 0.8885 0.8885
3479.000000 0.8886 0.8887 0.8887 0.8888 0.8889
3484.000000 0.8889 0.8890 0.8891 0.8891 0.8892
3489.000000 0.8893 0.8893 0.8894 0.8894 0.8895
3494.000000 0.8896 0.8896 0.8897 0.8898 0.8898
3499.000000 0.8899 0.8900 0.8901 0.8902 0.8903
3504.000000 0.8904 0.8905 0.8906 0.8907 0.8908
3509.000000 0.8909 0.8910 0.8911 0.8911 0.8912
3514.000000 0.8913 0.8914 0.8915 0.8916 0.8917
3519.000000 0.8918 0.8919 0.8920 0.8921 0.8922
3524.000000 0.8923 0.8924 0.8924 0.8924 0.8924
3529.000000 0.8924 0.8924 0.8924 0.8925 0.8925
3534.000000 0.8925 0.8925 0.8925 0.8925 0.8925
3539.000000 0.8926 0.8926 0.8926 0.8926 0.8926
3544.000000 0.8926 0.8926 0.8926 0.8927 0.8927
3549.000000 0.8927 0.8927 0.8927 0.8927 0.8927
3554.000000 0.8927 0.8928 0.8928 0.8928 0.8928
3559.000000 0.8928 0.8928 0.8928 0.8928 0.8928
3564.000000 0.8928 0.8929 0.8929 0.8929 0.8929
3569.000000 0.8929 0.8929 0.8929 0.8929 0.8929
3574.000000 0.8929 0.8928 0.8928 0.8928 0.8928
3579.000000 0.8928 0.8927 0.8927 0.8927 0.8926
3584.000000 0.8926 0.8925 0.8925 0.8925 0.8924
3589.000000 0.8924 0.8923 0.8923 0.8923 0.8922
3594.000000 0.8922 0.8921 0.8921 0.8920 0.8920
3599.000000 0.8919 0.8918 0.8918 0.8917 0.8916
3604.000000 0.8916 0.8915 0.8914 0.8913 0.8912
3609.000000 0.8911 0.8910 0.8909 0.8909 0.8909
3614.000000 0.8909 0.8909 0.8909 0.8909 0.8909
3619.000000 0.8908 0.8908 0.8908 0.8908 0.8907
3624.000000 0.8906 0.8906 0.8905 0.8904 0.8904
3629.000000 0.8903 0.8902 0.8901 0.8901 0.8901
3634.000000 0.8901 0.8901 0.8901 0.8901 0.8901
3639.000000 0.8901 0.8901 0.8901 0.8901 0.8901
3644.000000 0.8902 0.8902 0.8902 0.8902 0.8901
3649.000000 0.8900 0.8900 0.8899 0.8898 0.8897
3654.000000 0.8896 0.8895 0.8894 0.8893 0.8892
3659.000000 0.8891 0.8890 0.8889 0.8889 0.8888
3664.000000 0.8887 0.8886 0.8885 0.8884 0.8883
3669.000000 0.8883 0.8882 0.8882 0.8881 0.8881
3674.000000 0.8880 0.8880 0.8880 0.8879 0.8879
3679.000000 0.8878 0.8878 0.8877 0.8877 0.8876
3684.000000 0.8876 0.8876 0.8875 0.8875 0.8874
3689.000000 0.8874 0.8873 0.8873 0.8873 0.8872
3694.000000 0.8873 0.8873 0.8873 0.8874 0.8874
3699.000000 0.8874 0.8874 0.8875 0.8875 0.8875
3704.000000 0.8875 0.8876 0.8876 0.8876 0.8877
3709.000000 0.8877 0.8877 0.8877 0.8878 0.8878
3714.000000 0.8878 0.8878 0.8879 0.8879 0.8879
3719.000000 0.8880 0.8880 0.8880 0.8880 0.8881
3724.000000 0.8881 0.8882 0.8882 0.8882 0.8883
3729.000000 0.8883 0.8884 0.8884 0.8884 0.8885
3734.000000 0.8885 0.8886 0.8886 0.8886 0.8887
3739.000000 0.8887 0.8888 0.8888 0.8888 0.8889
3744.000000 0.8889 0.8890 0.8890 0.8890 0.8891
3749.000000 0.8891 0.8891 0.8890 0.8890 0.8889
3754.000000 0.8888 0.8888 0.8887 0.8887 0.8886
3759.000000 0.8885 0.8885 0.8884 0.8883 0.8883
3764.000000 0.8882 0.8881 0.8881 0.8880 0.8879
3769.000000 0.8879 0.8878 0.8877 0.8877 0.8876
3774.000000 0.8876 0.8875 0.8874 0.8874 0.8874
3779.000000 0.8874 0.8875 0.8875 0.8875 0.8875
3784.000000 0.8875 0.8875 0.8875 0.8875 0.8875
3789.000000 0.8875 0.8875 0.8875 0.8875 0.8874
3794.000000 0.8873 0.8872 0.8872 0.8871 0.8870
3799.000000 0.8869 0.8869 0.8868 0.8867 0.8866
3804.000000 0.8865 0.8864 0.8862 0.8861 0.8860
3809.000000 0.8859 0.8858 0.8857 0.8856 0.8855
3814.000000 0.8854 0.8851 0.8848 0.8845 0.8842
3819.000000 0.8839 0.8836 0.8833 0.8830 0.8828
3824.000000 0.8830 0.8832 0.8834 0.8836 0.8838
3829.000000 0.8840 0.8846 0.8852 0.8858 0.8863
3834.000000 0.8866 0.8869 0.8873 0.8873 0.8872
3839.000000 0.8871 0.8870 0.8869 0.8868 0.8867
3844.000000 0.8866 0.8865 0.8863 0.8862 0.8861
3849.000000 0.8860 0.8859 0.8858 0.8857 0.8856
3854.000000 0.8855 0.8854 0.8853 0.8853 0.8853
3859.000000 0.8852 0.8852 0.8851 0.8851 0.8850
3864.000000 0.8850 0.8849 0.8847 0.8846 0.8844
3869.000000 0.8843 0.8841 0.8840 0.8838 0.8836
3874.000000 0.8835 0.8834 0.8833 0.8831 0.8830
3879.000000 0.8829 0.8828 0.8827 0.8825 0.8824
3884.000000 0.8825 0.8827 0.8829 0.8831 0.8833
3889.000000 0.8834 0.8836 0.8838 0.8840 0.8842
3894.000000 0.8843 0.8845 0.8847 0.8848 0.8847
3899.000000 0.8846 0.8845 0.8844 0.8843 0.8842
3904.000000 0.8841 0.8840 0.8838 0.8836 0.8834
3909.000000 0.8832 0.8830 0.8827 0.8825 0.8823
3914.000000 0.8821 0.8818 0.8815 0.8813 0.8810
3919.000000 0.8808 0.8805 0.8802 0.8800 0.8799
3924.000000 0.8798 0.8797 0.8796 0.8795 0.8794
3929.000000 0.8793 0.8792 0.8791 0.8790 0.8789
3934.000000 0.8790 0.8792 0.8794 0.8796 0.8798
3939.000000 0.8800 0.8801 0.8803 0.8805 0.8807
3944.000000 0.8809 0.8810 0.8810 0.8811 0.8812
3949.000000 0.8812 0.8813 0.8814 0.8814 0.8815
3954.000000 0.8814 0.8812 0.8814 0.8813 0.8813
3959.000000 0.8812 0.8812 0.8811 0.8811 0.8810
3964.000000 0.8809 0.8809 0.8808 0.8807 0.8807
3969.000000 0.8806 0.8805 0.8805 0.8804 0.8803
3974.000000 0.8804 0.8804 0.8805 0.8806 0.8806
3979.000000 0.8807 0.8808 0.8809 0.8809 0.8810
3984.000000 0.8811 0.8812 0.8813 0.8813 0.8811
3989.000000 0.8810 0.8809 0.8807 0.8806 0.8805
3994.000000 0.8803 0.8802 0.8801 0.8799 0.8798
3999.000000 0.8797 0.8796
##END=
