##TITLE=Phosphoric acid, cresyl diphenyl ester
##JCAMP-DX=4.24
##DATA TYPE=INFRARED SPECTRUM
##CLASS=COBLENTZ III
##ORIGIN=DOW CHEMICAL COMPANY
##OWNER=COBLENTZ SOC.
Collection (C) 2018 copyright by the U.S. Secretary of Commerce
on behalf of the United States of America. All rights reserved.
##DATE=1970/01/19
##NAMES=Santicizer 140 (MONSANTO)
##MOLFORM=C19 H17 O4 P
##SOURCE REFERENCE=COBLENTZ NO. 09553
##$NIST ID=B6009553
##$NIST SOURCE=COBLENTZ
##$NIST IMAGE=cob9553
##SPECTROMETER/DATA SYSTEM=DOW KBr FOREPRISM-GRATING
##INSTRUMENT PARAMETERS=BLAZED AT 3.5, 12.0, 20.0 MICRON AND CHANGED AT 5.0, 7.5, 14.9 MICRON
##STATE=SOLUTION (10% CCl4 FOR 2.7-7.5, 10% CS2 FOR 7.5-26 MICRON) VS SOLVENT
##PATH LENGTH=0.011 CM, 0.011 CM
$$SPECTRAL CONTAMINATION DUE TO AN UNKNOWN AT 3350 CM^-^1
##SAMPLING PROCEDURE=TRANSMISSION
##RESOLUTION=2
##DATA PROCESSING=DIGITIZED BY COBLENTZ SOCIETY (BATCH I) FROM HARD COPY
##XUNITS=1/CM
##YUNITS=TRANSMITTANCE
##XLABEL=Wavenumbers (cm-1)
##YLABEL=% Transmission
##XFACTOR=1
##YFACTOR=1
##DELTAX=1
##FIRSTX=389
##LASTX=3792
##FIRSTY=0.6669
##MAXX=3792
##MINX=389
##MAXY=0.884
##MINY=0
##NPOINTS=3404
##XYDATA=(X++(Y..Y))
389.000000 0.6669 0.6671 0.6671 0.6671 0.6671
394.000000 0.6671 0.6669 0.6668 0.6668 0.6667
399.000000 0.6665 0.6665 0.6662 0.6661 0.6661
404.000000 0.6660 0.6658 0.6657 0.6655 0.6651
409.000000 0.6650 0.6646 0.6644 0.6641 0.6638
414.000000 0.6636 0.6630 0.6625 0.6618 0.6614
419.000000 0.6608 0.6601 0.6597 0.6587 0.6576
424.000000 0.6567 0.6556 0.6546 0.6536 0.6521
429.000000 0.6508 0.6495 0.6481 0.6467 0.6450
434.000000 0.6433 0.6415 0.6400 0.6383 0.6366
439.000000 0.6356 0.6346 0.6336 0.6326 0.6316
444.000000 0.6306 0.6296 0.6289 0.6281 0.6274
449.000000 0.6266 0.6259 0.6247 0.6233 0.6220
454.000000 0.6206 0.6192 0.6177 0.6159 0.6141
459.000000 0.6124 0.6106 0.6088 0.6070 0.6048
464.000000 0.6018 0.5988 0.5957 0.5927 0.5897
469.000000 0.5867 0.5820 0.5762 0.5704 0.5646
474.000000 0.5590 0.5534 0.5478 0.5422 0.5365
479.000000 0.5298 0.5223 0.5147 0.5071 0.4954
484.000000 0.4832 0.4709 0.4585 0.4460 0.4329
489.000000 0.4199 0.4071 0.3948 0.3825 0.3709
494.000000 0.3598 0.3502 0.3447 0.3392 0.3337
499.000000 0.3296 0.3256 0.3216 0.3195 0.3173
504.000000 0.3160 0.3157 0.3155 0.3152 0.3149
509.000000 0.3146 0.3146 0.3147 0.3149 0.3151
514.000000 0.3161 0.3180 0.3200 0.3218 0.3254
519.000000 0.3309 0.3364 0.3416 0.3516 0.3646
524.000000 0.3774 0.3903 0.4030 0.4159 0.4288
529.000000 0.4416 0.4545 0.4673 0.4802 0.4930
534.000000 0.5059 0.5187 0.5316 0.5444 0.5560
539.000000 0.5646 0.5747 0.5801 0.5832 0.5864
544.000000 0.5884 0.5885 0.5887 0.5894 0.5871
549.000000 0.5862 0.5842 0.5822 0.5797 0.5746
554.000000 0.5695 0.5655 0.5615 0.5574 0.5534
559.000000 0.5494 0.5453 0.5412 0.5373 0.5333
564.000000 0.5293 0.5250 0.5198 0.5146 0.5060
569.000000 0.4972 0.4895 0.4818 0.4750 0.4681
574.000000 0.4622 0.4567 0.4542 0.4519 0.4517
579.000000 0.4514 0.4512 0.4502 0.4527 0.4545
584.000000 0.4579 0.4687 0.4832 0.4978 0.5123
589.000000 0.5269 0.5414 0.5560 0.5706 0.5795
594.000000 0.5948 0.6055 0.6160 0.6235 0.6309
599.000000 0.6371 0.6418 0.6467 0.6486 0.6501
604.000000 0.6543 0.6515 0.6511 0.6501 0.6472
609.000000 0.6431 0.6388 0.6203 0.6005 0.5900
614.000000 0.5895 0.5925 0.6537 0.6983 0.7121
619.000000 0.7228 0.7308 0.7383 0.7417 0.7451
624.000000 0.7472 0.7486 0.7485 0.7484 0.7481
629.000000 0.7472 0.7462 0.7451 0.7438 0.7438
634.000000 0.7438 0.7445 0.7472 0.7494 0.7508
639.000000 0.7521 0.7537 0.7525 0.7521 0.7518
644.000000 0.7512 0.7488 0.7468 0.7450 0.7432
649.000000 0.7424 0.7418 0.7418 0.7418 0.7425
654.000000 0.7451 0.7476 0.7498 0.7514 0.7518
659.000000 0.7522 0.7522 0.7412 0.6845 0.6532
664.000000 0.6528 0.6567 0.6751 0.6935 0.6953
669.000000 0.6944 0.6765 0.6490 0.6216 0.5941
674.000000 0.5667 0.5392 0.5118 0.4843 0.4774
679.000000 0.3574 0.1073 0.0485 0.0467 0.0593
684.000000 0.1121 0.1648 0.2176 0.2703 0.3230
689.000000 0.3758 0.4286 0.4812 0.5341 0.5868
694.000000 0.6154 0.6257 0.6356 0.6569 0.6694
699.000000 0.6787 0.6819 0.6851 0.6885 0.6911
704.000000 0.6925 0.6939 0.6953 0.6967 0.6975
709.000000 0.6981 0.6987 0.6992 0.7001 0.7014
714.000000 0.7026 0.7043 0.7065 0.7088 0.7107
719.000000 0.7122 0.7135 0.7135 0.7135 0.7121
724.000000 0.7096 0.7065 0.7034 0.6990 0.6942
729.000000 0.6878 0.6811 0.6739 0.6665 0.6590
734.000000 0.6515 0.6394 0.6273 0.6134 0.5966
739.000000 0.5794 0.5605 0.5423 0.5143 0.4666
744.000000 0.4240 0.4055 0.3099 0.2237 0.1375
749.000000 0.0932 0.0932 0.1064 0.1322 0.1580
754.000000 0.1836 0.2095 0.2262 0.2305 0.2257
759.000000 0.2247 0.2158 0.2050 0.1943 0.1834
764.000000 0.1728 0.1634 0.1584 0.1538 0.1499
769.000000 0.1461 0.1436 0.1414 0.1391 0.1369
774.000000 0.1354 0.1342 0.1331 0.1333 0.1307
779.000000 0.1370 0.1789 0.2272 0.2756 0.3239
784.000000 0.3722 0.4205 0.4688 0.5172 0.5655
789.000000 0.6138 0.6464 0.6671 0.6798 0.6840
794.000000 0.6869 0.6880 0.6889 0.6858 0.6842
799.000000 0.6825 0.6793 0.6718 0.6528 0.6339
804.000000 0.6149 0.5959 0.5755 0.5676 0.5598
809.000000 0.5520 0.5450 0.4933 0.4759 0.4620
814.000000 0.4490 0.4380 0.4326 0.4302 0.4301
819.000000 0.4302 0.4302 0.4330 0.5001 0.5874
824.000000 0.6031 0.6190 0.6339 0.6465 0.6582
829.000000 0.6680 0.6775 0.6821 0.6868 0.6904
834.000000 0.6911 0.6911 0.6911 0.6911 0.6894
839.000000 0.6881 0.6865 0.6839 0.6793 0.6730
844.000000 0.6667 0.6604 0.6541 0.6478 0.6415
849.000000 0.6352 0.6289 0.6226 0.6162 0.6100
854.000000 0.6037 0.5974 0.5910 0.5848 0.5785
859.000000 0.5734 0.5698 0.5662 0.5624 0.5586
864.000000 0.5542 0.5541 0.5537 0.5546 0.5564
869.000000 0.5597 0.5645 0.5692 0.5736 0.5780
874.000000 0.5825 0.5869 0.5912 0.5957 0.6001
879.000000 0.6046 0.6090 0.6127 0.6149 0.6145
884.000000 0.6143 0.6082 0.5997 0.5826 0.5656
889.000000 0.5485 0.5315 0.5144 0.4974 0.4683
894.000000 0.4541 0.4459 0.4353 0.4170 0.3986
899.000000 0.3859 0.3864 0.4174 0.4794 0.5415
904.000000 0.5664 0.5676 0.5671 0.5659 0.5619
909.000000 0.5573 0.5517 0.5462 0.5405 0.5314
914.000000 0.5224 0.5133 0.5039 0.4945 0.4787
919.000000 0.4666 0.4559 0.4390 0.3928 0.3339
924.000000 0.2833 0.2728 0.2624 0.2515 0.2365
929.000000 0.2216 0.2037 0.1850 0.1619 0.1227
934.000000 0.1056 0.0912 0.0782 0.0652 0.0574
939.000000 0.0497 0.0421 0.0341 0.0259 0.0183
944.000000 0.0112 0.0087 0.0064 0.0041 0.0018
949.000000 0.0002 0.0002 0.0001 0.0001 0.0001
954.000000 0.0001 0.0001 0.0001 0.0000 0.0000
959.000000 0.0000 0.0000 0.0000 0.0000 0.0000
964.000000 0.0000 0.0000 0.0004 0.0017 0.0030
969.000000 0.0043 0.0056 0.0068 0.0084 0.0107
974.000000 0.0163 0.0253 0.0366 0.0487 0.0611
979.000000 0.0735 0.0858 0.0982 0.1105 0.1229
984.000000 0.1353 0.1476 0.1599 0.1689 0.1807
989.000000 0.1834 0.1833 0.1833 0.1833 0.1834
994.000000 0.1854 0.1883 0.2031 0.2223 0.2415
999.000000 0.2480 0.2482 0.1811 0.0733 0.0310
1004.000000 0.0311 0.0324 0.0525 0.0724 0.0922
1009.000000 0.1122 0.1310 0.1398 0.1460 0.1511
1014.000000 0.1552 0.1564 0.1548 0.1560 0.1433
1019.000000 0.1196 0.0960 0.0723 0.0656 0.0762
1024.000000 0.1086 0.1411 0.1735 0.2061 0.2384
1029.000000 0.2710 0.3034 0.3359 0.3628 0.3849
1034.000000 0.3977 0.4133 0.4323 0.4565 0.4757
1039.000000 0.4938 0.5088 0.5238 0.5333 0.5427
1044.000000 0.5522 0.5694 0.5912 0.6032 0.6138
1049.000000 0.6215 0.6245 0.6249 0.6253 0.6260
1054.000000 0.6222 0.6182 0.6138 0.6093 0.6048
1059.000000 0.6003 0.5843 0.5550 0.5258 0.4965
1064.000000 0.4652 0.4474 0.4365 0.4216 0.4171
1069.000000 0.4152 0.4152 0.5112 0.5991 0.6434
1074.000000 0.6439 0.6442 0.6442 0.6441 0.6440
1079.000000 0.6460 0.6434 0.6428 0.6418 0.6407
1084.000000 0.6396 0.6376 0.6351 0.6312 0.6278
1089.000000 0.6246 0.6214 0.6176 0.6122 0.6069
1094.000000 0.6005 0.5941 0.5873 0.5799 0.5724
1099.000000 0.5572 0.5340 0.5108 0.4875 0.4643
1104.000000 0.4397 0.4242 0.4125 0.4047 0.3970
1109.000000 0.3894 0.3818 0.3762 0.3736 0.3739
1114.000000 0.3742 0.3803 0.4059 0.4331 0.4602
1119.000000 0.4873 0.5144 0.5414 0.5518 0.5527
1124.000000 0.5552 0.5505 0.5475 0.5392 0.5338
1129.000000 0.5267 0.4916 0.4451 0.3986 0.3521
1134.000000 0.3056 0.2591 0.2126 0.1661 0.1454
1139.000000 0.1352 0.1351 0.1352 0.1353 0.1417
1144.000000 0.1481 0.1545 0.1609 0.1673 0.1736
1149.000000 0.1767 0.1767 0.1670 0.1461 0.1253
1154.000000 0.1044 0.0835 0.0626 0.0523 0.0515
1159.000000 0.0526 0.0661 0.0847 0.1034 0.1220
1164.000000 0.1406 0.1592 0.1778 0.1965 0.2151
1169.000000 0.2277 0.2279 0.2272 0.2273 0.1719
1174.000000 0.0999 0.0667 0.0563 0.0421 0.0343
1179.000000 0.0265 0.0125 0.0044 0.0029 0.0024
1184.000000 0.0025 0.0025 0.0026 0.0034 0.0042
1189.000000 0.0060 0.0102 0.0209 0.0318 0.0427
1194.000000 0.0536 0.0645 0.0754 0.0862 0.0968
1199.000000 0.1073 0.1121 0.1137 0.1140 0.1135
1204.000000 0.1135 0.1135 0.1142 0.1150 0.1164
1209.000000 0.1178 0.1206 0.1242 0.1292 0.1344
1214.000000 0.1419 0.1508 0.1596 0.1683 0.1769
1219.000000 0.1852 0.1928 0.2004 0.2078 0.2123
1224.000000 0.2142 0.2154 0.2154 0.2154 0.2154
1229.000000 0.2154 0.2154 0.2154 0.2158 0.2164
1234.000000 0.2184 0.2216 0.2268 0.2330 0.2424
1239.000000 0.2526 0.2589 0.2590 0.2593 0.2598
1244.000000 0.2604 0.2616 0.2632 0.2656 0.2685
1249.000000 0.2735 0.2800 0.2888 0.2984 0.3080
1254.000000 0.3200 0.3318 0.3410 0.3482 0.3503
1259.000000 0.3520 0.3534 0.3548 0.3562 0.3592
1264.000000 0.3705 0.3818 0.3879 0.3900 0.3906
1269.000000 0.3918 0.3877 0.3762 0.3647 0.3530
1274.000000 0.3416 0.3300 0.3185 0.3070 0.2955
1279.000000 0.2840 0.2725 0.2609 0.2493 0.2383
1284.000000 0.2251 0.2081 0.1910 0.1740 0.1569
1289.000000 0.1399 0.1228 0.1042 0.0945 0.0930
1294.000000 0.0936 0.0946 0.1022 0.1099 0.1173
1299.000000 0.1218 0.1228 0.1228 0.1229 0.1161
1304.000000 0.1099 0.1041 0.0978 0.0964 0.0969
1309.000000 0.0941 0.1009 0.1284 0.1641 0.1998
1314.000000 0.2355 0.2711 0.3068 0.3425 0.3782
1319.000000 0.4139 0.4496 0.4855 0.5047 0.5130
1324.000000 0.5194 0.5226 0.5243 0.5256 0.5268
1329.000000 0.5283 0.5567 0.5962 0.6358 0.6503
1334.000000 0.6480 0.6415 0.6386 0.6571 0.6811
1339.000000 0.7051 0.7292 0.7408 0.7431 0.7443
1344.000000 0.7442 0.7442 0.7440 0.7438 0.7434
1349.000000 0.7428 0.7424 0.7418 0.7411 0.7404
1354.000000 0.7396 0.7388 0.7380 0.7374 0.7367
1359.000000 0.7361 0.7361 0.7361 0.7365 0.7368
1364.000000 0.7368 0.7369 0.7368 0.7368 0.7361
1369.000000 0.7354 0.7344 0.7328 0.7312 0.7299
1374.000000 0.7286 0.7271 0.7268 0.7280 0.7290
1379.000000 0.7324 0.7358 0.7393 0.7431 0.7471
1384.000000 0.7501 0.7526 0.7551 0.7557 0.7564
1389.000000 0.7564 0.7564 0.7562 0.7561 0.7558
1394.000000 0.7554 0.7546 0.7537 0.7528 0.7519
1399.000000 0.7508 0.7494 0.7480 0.7472 0.7468
1404.000000 0.7468 0.7468 0.7475 0.7483 0.7492
1409.000000 0.7501 0.7511 0.7519 0.7528 0.7530
1414.000000 0.7531 0.7526 0.7511 0.7478 0.7450
1419.000000 0.7404 0.7351 0.7296 0.7239 0.7182
1424.000000 0.7122 0.7065 0.7007 0.6948 0.6889
1429.000000 0.6831 0.6771 0.6714 0.6660 0.6605
1434.000000 0.6550 0.6489 0.6408 0.6328 0.6259
1439.000000 0.6210 0.6162 0.6112 0.6067 0.6022
1444.000000 0.5978 0.5932 0.5886 0.5839 0.5793
1449.000000 0.5717 0.5641 0.5545 0.5432 0.5293
1454.000000 0.3857 0.3838 0.3916 0.4276 0.4635
1459.000000 0.4994 0.5353 0.5388 0.5388 0.5226
1464.000000 0.5060 0.4895 0.4729 0.4562 0.4397
1469.000000 0.4232 0.4023 0.3906 0.3821 0.3728
1474.000000 0.3628 0.3527 0.3342 0.3181 0.3049
1479.000000 0.2834 0.2350 0.0522 0.0362 0.0248
1484.000000 0.0146 0.0104 0.0080 0.0078 0.0074
1489.000000 0.0109 0.0184 0.0406 0.0711 0.1017
1494.000000 0.1323 0.1629 0.1934 0.2241 0.2434
1499.000000 0.2432 0.2367 0.2248 0.2130 0.2029
1504.000000 0.2027 0.2220 0.2717 0.3214 0.3712
1509.000000 0.4209 0.4707 0.5204 0.5399 0.5789
1514.000000 0.6008 0.6284 0.6633 0.6808 0.6942
1519.000000 0.7044 0.7140 0.7234 0.7293 0.7353
1524.000000 0.7411 0.7446 0.7472 0.7501 0.7528
1529.000000 0.7546 0.7553 0.7560 0.7568 0.7568
1534.000000 0.7565 0.7561 0.7581 0.7547 0.7538
1539.000000 0.7528 0.7521 0.7512 0.7505 0.7497
1544.000000 0.7487 0.7475 0.7464 0.7453 0.7442
1549.000000 0.7425 0.7404 0.7383 0.7361 0.7335
1554.000000 0.7300 0.7265 0.7231 0.7195 0.7153
1559.000000 0.7111 0.7068 0.6989 0.6904 0.6811
1564.000000 0.6711 0.6611 0.6393 0.6160 0.5918
1569.000000 0.5521 0.5262 0.5085 0.4958 0.4833
1574.000000 0.4703 0.4571 0.4145 0.3992 0.3536
1579.000000 0.3014 0.2491 0.1969 0.1692 0.1546
1584.000000 0.1441 0.1357 0.1281 0.1240 0.1240
1589.000000 0.1240 0.1241 0.1607 0.1941 0.2275
1594.000000 0.2529 0.2568 0.2610 0.2911 0.3750
1599.000000 0.4181 0.4309 0.4435 0.4560 0.4640
1604.000000 0.4712 0.4785 0.4976 0.5053 0.5129
1609.000000 0.5199 0.5630 0.6815 0.7004 0.7099
1614.000000 0.7274 0.7461 0.7541 0.7578 0.7614
1619.000000 0.7650 0.7686 0.7711 0.7735 0.7758
1624.000000 0.7782 0.7805 0.7828 0.7853 0.7868
1629.000000 0.7875 0.7882 0.7888 0.7890 0.7892
1634.000000 0.7894 0.7894 0.7894 0.7893 0.7892
1639.000000 0.7892 0.7891 0.7891 0.7890 0.7890
1644.000000 0.7889 0.7889 0.7889 0.7890 0.7892
1649.000000 0.7894 0.7896 0.7910 0.7900 0.7901
1654.000000 0.7904 0.7906 0.7908 0.7910 0.7911
1659.000000 0.7914 0.7914 0.7915 0.7915 0.7917
1664.000000 0.7917 0.7918 0.7918 0.7919 0.7919
1669.000000 0.7921 0.7921 0.7921 0.7922 0.7924
1674.000000 0.7925 0.7925 0.7924 0.7924 0.7922
1679.000000 0.7922 0.7921 0.7921 0.7921 0.7921
1684.000000 0.7919 0.7919 0.7918 0.7918 0.7918
1689.000000 0.7914 0.7911 0.7907 0.7903 0.7900
1694.000000 0.7896 0.7892 0.7888 0.7885 0.7876
1699.000000 0.7867 0.7857 0.7847 0.7837 0.7825
1704.000000 0.7815 0.7806 0.7795 0.7784 0.7774
1709.000000 0.7762 0.7753 0.7742 0.7730 0.7717
1714.000000 0.7712 0.7703 0.7718 0.7722 0.7737
1719.000000 0.7753 0.7771 0.7789 0.7807 0.7825
1724.000000 0.7847 0.7868 0.7883 0.7897 0.7911
1729.000000 0.7925 0.7939 0.7953 0.7967 0.7981
1734.000000 0.7995 0.8007 0.8018 0.8028 0.8040
1739.000000 0.8051 0.8057 0.8060 0.8062 0.8065
1744.000000 0.8068 0.8069 0.8071 0.8071 0.8072
1749.000000 0.8074 0.8075 0.8075 0.8076 0.8076
1754.000000 0.8068 0.8058 0.8049 0.8039 0.8030
1759.000000 0.8021 0.8011 0.8001 0.7995 0.7991
1764.000000 0.7987 0.7987 0.7989 0.7996 0.7986
1769.000000 0.8017 0.8031 0.8046 0.8061 0.8078
1774.000000 0.8099 0.8119 0.8141 0.8164 0.8196
1779.000000 0.8227 0.8255 0.8263 0.8271 0.8281
1784.000000 0.8289 0.8293 0.8296 0.8300 0.8304
1789.000000 0.8307 0.8311 0.8314 0.8314 0.8314
1794.000000 0.8314 0.8314 0.8314 0.8314 0.8314
1799.000000 0.8314 0.8314 0.8314 0.8314 0.8314
1804.000000 0.8314 0.8314 0.8314 0.8314 0.8314
1809.000000 0.8314 0.8315 0.8315 0.8315 0.8315
1814.000000 0.8315 0.8315 0.8315 0.8314 0.8312
1819.000000 0.8311 0.8310 0.8308 0.8307 0.8305
1824.000000 0.8304 0.8303 0.8301 0.8290 0.8277
1829.000000 0.8263 0.8250 0.8237 0.8213 0.8184
1834.000000 0.8156 0.8126 0.8091 0.8055 0.8018
1839.000000 0.7986 0.7954 0.7922 0.7891 0.7864
1844.000000 0.7844 0.7825 0.7811 0.7811 0.7811
1849.000000 0.7801 0.7840 0.7861 0.7886 0.7908
1854.000000 0.7922 0.7937 0.7951 0.7961 0.7969
1859.000000 0.7975 0.7974 0.7971 0.7967 0.7958
1864.000000 0.7951 0.7945 0.7938 0.7931 0.7925
1869.000000 0.7919 0.7918 0.7918 0.7919 0.7921
1874.000000 0.7931 0.7940 0.7950 0.7958 0.7971
1879.000000 0.7982 0.7994 0.8005 0.8017 0.8026
1884.000000 0.8034 0.8042 0.8049 0.8056 0.8061
1889.000000 0.8061 0.8061 0.8061 0.8061 0.8061
1894.000000 0.8061 0.8056 0.8050 0.8043 0.8037
1899.000000 0.8031 0.8024 0.8014 0.8001 0.7991
1904.000000 0.7978 0.7968 0.7956 0.7944 0.7933
1909.000000 0.7918 0.7904 0.7889 0.7874 0.7858
1914.000000 0.7844 0.7830 0.7801 0.7774 0.7745
1919.000000 0.7715 0.7672 0.7628 0.7589 0.7564
1924.000000 0.7539 0.7530 0.7532 0.7518 0.7546
1929.000000 0.7575 0.7618 0.7661 0.7710 0.7760
1934.000000 0.7804 0.7848 0.7872 0.7897 0.7919
1939.000000 0.7934 0.7941 0.7942 0.7943 0.7943
1944.000000 0.7942 0.7939 0.7933 0.7946 0.7967
1949.000000 0.7989 0.8010 0.8031 0.8051 0.8071
1954.000000 0.8090 0.8108 0.8128 0.8146 0.8164
1959.000000 0.8178 0.8192 0.8206 0.8216 0.8224
1964.000000 0.8231 0.8239 0.8243 0.8244 0.8245
1969.000000 0.8245 0.8246 0.8246 0.8246 0.8245
1974.000000 0.8245 0.8244 0.8244 0.8244 0.8244
1979.000000 0.8245 0.8245 0.8246 0.8247 0.8252
1984.000000 0.8264 0.8275 0.8288 0.8305 0.8320
1989.000000 0.8327 0.8334 0.8336 0.8336 0.8336
1994.000000 0.8332 0.8328 0.8325 0.8321 0.8318
1999.000000 0.8317 0.8314 0.8311 0.8309 0.8307
2004.000000 0.8306 0.8305 0.8304 0.8302 0.8301
2009.000000 0.8301 0.8301 0.8301 0.8301 0.8301
2014.000000 0.8301 0.8301 0.8301 0.8301 0.8302
2019.000000 0.8304 0.8306 0.8308 0.8310 0.8312
2024.000000 0.8314 0.8316 0.8318 0.8321 0.8325
2029.000000 0.8331 0.8336 0.8341 0.8346 0.8351
2034.000000 0.8356 0.8360 0.8365 0.8368 0.8373
2039.000000 0.8377 0.8382 0.8386 0.8390 0.8394
2044.000000 0.8399 0.8402 0.8405 0.8405 0.8405
2049.000000 0.8405 0.8405 0.8405 0.8405 0.8405
2054.000000 0.8405 0.8405 0.8405 0.8404 0.8404
2059.000000 0.8403 0.8403 0.8403 0.8403 0.8402
2064.000000 0.8402 0.8402 0.8402 0.8402 0.8402
2069.000000 0.8401 0.8401 0.8401 0.8401 0.8401
2074.000000 0.8401 0.8401 0.8401 0.8401 0.8401
2079.000000 0.8400 0.8400 0.8400 0.8400 0.8400
2084.000000 0.8400 0.8400 0.8400 0.8400 0.8400
2089.000000 0.8399 0.8399 0.8399 0.8399 0.8399
2094.000000 0.8399 0.8398 0.8398 0.8397 0.8397
2099.000000 0.8397 0.8397 0.8396 0.8396 0.8395
2104.000000 0.8395 0.8394 0.8394 0.8393 0.8393
2109.000000 0.8393 0.8393 0.8392 0.8392 0.8391
2114.000000 0.8391 0.8390 0.8390 0.8389 0.8389
2119.000000 0.8389 0.8389 0.8388 0.8388 0.8387
2124.000000 0.8387 0.8386 0.8386 0.8386 0.8386
2129.000000 0.8386 0.8386 0.8386 0.8386 0.8386
2134.000000 0.8386 0.8386 0.8386 0.8386 0.8386
2139.000000 0.8386 0.8386 0.8386 0.8386 0.8385
2144.000000 0.8384 0.8383 0.8383 0.8382 0.8382
2149.000000 0.8383 0.8384 0.8385 0.8387 0.8389
2154.000000 0.8391 0.8392 0.8394 0.8396 0.8398
2159.000000 0.8399 0.8401 0.8403 0.8405 0.8407
2164.000000 0.8410 0.8412 0.8411 0.8411 0.8408
2169.000000 0.8403 0.8399 0.8391 0.8383 0.8377
2174.000000 0.8371 0.8365 0.8359 0.8352 0.8346
2179.000000 0.8340 0.8334 0.8328 0.8321 0.8320
2184.000000 0.8318 0.8318 0.8317 0.8315 0.8314
2189.000000 0.8313 0.8313 0.8313 0.8314 0.8315
2194.000000 0.8316 0.8316 0.8317 0.8317 0.8318
2199.000000 0.8318 0.8320 0.8320 0.8321 0.8321
2204.000000 0.8323 0.8324 0.8325 0.8325 0.8325
2209.000000 0.8325 0.8325 0.8323 0.8321 0.8320
2214.000000 0.8318 0.8317 0.8315 0.8311 0.8307
2219.000000 0.8303 0.8300 0.8295 0.8291 0.8287
2224.000000 0.8283 0.8278 0.8274 0.8270 0.8266
2229.000000 0.8261 0.8257 0.8253 0.8249 0.8244
2234.000000 0.8240 0.8235 0.8231 0.8227 0.8223
2239.000000 0.8218 0.8215 0.8211 0.8207 0.8203
2244.000000 0.8199 0.8195 0.8191 0.8187 0.8183
2249.000000 0.8178 0.8175 0.8171 0.8167 0.8162
2254.000000 0.8158 0.8156 0.8153 0.8150 0.8148
2259.000000 0.8145 0.8142 0.8139 0.8136 0.8133
2264.000000 0.8130 0.8126 0.8124 0.8121 0.8118
2269.000000 0.8115 0.8111 0.8108 0.8106 0.8103
2274.000000 0.8100 0.8097 0.8094 0.8092 0.8090
2279.000000 0.8088 0.8086 0.8084 0.8082 0.8080
2284.000000 0.8078 0.8075 0.8074 0.8071 0.8069
2289.000000 0.8068 0.8065 0.8065 0.8064 0.8062
2294.000000 0.8062 0.8061 0.8061 0.8061 0.8060
2299.000000 0.8058 0.8058 0.8058 0.8058 0.8057
2304.000000 0.8056 0.8055 0.8055 0.8056 0.8058
2309.000000 0.8058 0.8061 0.8061 0.8064 0.8065
2314.000000 0.8068 0.8074 0.8080 0.8085 0.8091
2319.000000 0.8096 0.8101 0.8104 0.8107 0.8107
2324.000000 0.8107 0.8106 0.8104 0.8101 0.8101
2329.000000 0.8099 0.8098 0.8094 0.8090 0.8086
2334.000000 0.8082 0.8078 0.8074 0.8069 0.8067
2339.000000 0.8064 0.8061 0.8058 0.8058 0.8058
2344.000000 0.8060 0.8061 0.8065 0.8068 0.8071
2349.000000 0.8076 0.8082 0.8087 0.8092 0.8091
2354.000000 0.8090 0.8089 0.8089 0.8088 0.8088
2359.000000 0.8086 0.8084 0.8082 0.8081 0.8078
2364.000000 0.8078 0.8075 0.8075 0.8072 0.8071
2369.000000 0.8069 0.8068 0.8068 0.8067 0.8065
2374.000000 0.8065 0.8064 0.8064 0.8064 0.8064
2379.000000 0.8064 0.8064 0.8064 0.8064 0.8064
2384.000000 0.8064 0.8065 0.8068 0.8068 0.8071
2389.000000 0.8071 0.8074 0.8075 0.8078 0.8078
2394.000000 0.8081 0.8083 0.8085 0.8088 0.8091
2399.000000 0.8094 0.8097 0.8100 0.8104 0.8107
2404.000000 0.8110 0.8112 0.8117 0.8119 0.8124
2409.000000 0.8126 0.8130 0.8133 0.8137 0.8140
2414.000000 0.8144 0.8147 0.8150 0.8154 0.8158
2419.000000 0.8161 0.8165 0.8169 0.8174 0.8178
2424.000000 0.8183 0.8187 0.8191 0.8195 0.8199
2429.000000 0.8203 0.8208 0.8212 0.8216 0.8220
2434.000000 0.8224 0.8228 0.8233 0.8237 0.8242
2439.000000 0.8246 0.8251 0.8256 0.8261 0.8265
2444.000000 0.8270 0.8274 0.8278 0.8282 0.8285
2449.000000 0.8287 0.8289 0.8291 0.8293 0.8294
2454.000000 0.8296 0.8298 0.8300 0.8300 0.8300
2459.000000 0.8299 0.8299 0.8299 0.8299 0.8298
2464.000000 0.8298 0.8298 0.8298 0.8298 0.8298
2469.000000 0.8297 0.8297 0.8297 0.8297 0.8296
2474.000000 0.8295 0.8294 0.8293 0.8292 0.8292
2479.000000 0.8291 0.8290 0.8289 0.8288 0.8287
2484.000000 0.8287 0.8286 0.8285 0.8284 0.8283
2489.000000 0.8282 0.8281 0.8280 0.8280 0.8278
2494.000000 0.8278 0.8277 0.8275 0.8275 0.8275
2499.000000 0.8274 0.8273 0.8271 0.8271 0.8271
2504.000000 0.8270 0.8268 0.8268 0.8267 0.8267
2509.000000 0.8266 0.8265 0.8264 0.8263 0.8262
2514.000000 0.8261 0.8259 0.8258 0.8256 0.8254
2519.000000 0.8252 0.8250 0.8248 0.8246 0.8244
2524.000000 0.8243 0.8241 0.8239 0.8237 0.8235
2529.000000 0.8233 0.8231 0.8228 0.8228 0.8225
2534.000000 0.8224 0.8218 0.8213 0.8207 0.8202
2539.000000 0.8196 0.8191 0.8185 0.8180 0.8174
2544.000000 0.8168 0.8164 0.8158 0.8154 0.8150
2549.000000 0.8145 0.8140 0.8135 0.8131 0.8125
2554.000000 0.8121 0.8121 0.8121 0.8122 0.8124
2559.000000 0.8124 0.8125 0.8125 0.8126 0.8126
2564.000000 0.8128 0.8128 0.8128 0.8130 0.8131
2569.000000 0.8132 0.8133 0.8135 0.8137 0.8138
2574.000000 0.8140 0.8141 0.8143 0.8144 0.8146
2579.000000 0.8146 0.8146 0.8146 0.8146 0.8146
2584.000000 0.8146 0.8146 0.8146 0.8146 0.8146
2589.000000 0.8146 0.8146 0.8146 0.8146 0.8146
2594.000000 0.8146 0.8146 0.8146 0.8146 0.8147
2599.000000 0.8147 0.8147 0.8147 0.8147 0.8147
2604.000000 0.8147 0.8147 0.8147 0.8148 0.8150
2609.000000 0.8151 0.8153 0.8154 0.8156 0.8157
2614.000000 0.8158 0.8160 0.8161 0.8162 0.8164
2619.000000 0.8165 0.8165 0.8165 0.8165 0.8165
2624.000000 0.8167 0.8167 0.8168 0.8168 0.8169
2629.000000 0.8171 0.8171 0.8171 0.8172 0.8174
2634.000000 0.8175 0.8175 0.8176 0.8178 0.8178
2639.000000 0.8178 0.8180 0.8181 0.8182 0.8182
2644.000000 0.8183 0.8184 0.8185 0.8185 0.8186
2649.000000 0.8186 0.8186 0.8186 0.8186 0.8185
2654.000000 0.8185 0.8184 0.8184 0.8183 0.8183
2659.000000 0.8183 0.8183 0.8182 0.8182 0.8181
2664.000000 0.8181 0.8181 0.8181 0.8180 0.8180
2669.000000 0.8178 0.8178 0.8178 0.8178 0.8178
2674.000000 0.8178 0.8176 0.8176 0.8175 0.8175
2679.000000 0.8175 0.8175 0.8175 0.8175 0.8174
2684.000000 0.8174 0.8172 0.8172 0.8171 0.8168
2689.000000 0.8167 0.8165 0.8162 0.8161 0.8158
2694.000000 0.8157 0.8155 0.8153 0.8151 0.8149
2699.000000 0.8147 0.8145 0.8143 0.8141 0.8139
2704.000000 0.8137 0.8134 0.8131 0.8125 0.8121
2709.000000 0.8115 0.8111 0.8106 0.8101 0.8097
2714.000000 0.8092 0.8087 0.8082 0.8078 0.8074
2719.000000 0.8072 0.8072 0.8071 0.8071 0.8074
2724.000000 0.8076 0.8082 0.8087 0.8096 0.8105
2729.000000 0.8115 0.8125 0.8134 0.8144 0.8151
2734.000000 0.8160 0.8165 0.8172 0.8178 0.8186
2739.000000 0.8189 0.8193 0.8194 0.8195 0.8196
2744.000000 0.8198 0.8198 0.8199 0.8199 0.8199
2749.000000 0.8198 0.8198 0.8197 0.8197 0.8197
2754.000000 0.8197 0.8196 0.8196 0.8194 0.8193
2759.000000 0.8191 0.8190 0.8189 0.8188 0.8186
2764.000000 0.8185 0.8183 0.8182 0.8180 0.8178
2769.000000 0.8176 0.8175 0.8174 0.8172 0.8171
2774.000000 0.8169 0.8168 0.8167 0.8165 0.8164
2779.000000 0.8162 0.8161 0.8161 0.8160 0.8158
2784.000000 0.8157 0.8156 0.8155 0.8154 0.8153
2789.000000 0.8151 0.8150 0.8148 0.8147 0.8145
2794.000000 0.8144 0.8142 0.8141 0.8139 0.8138
2799.000000 0.8136 0.8134 0.8132 0.8131 0.8128
2804.000000 0.8128 0.8125 0.8125 0.8121 0.8119
2809.000000 0.8112 0.8107 0.8101 0.8095 0.8088
2814.000000 0.8082 0.8072 0.8064 0.8051 0.8038
2819.000000 0.8025 0.8011 0.7998 0.7984 0.7969
2824.000000 0.7956 0.7942 0.7928 0.7912 0.7899
2829.000000 0.7884 0.7869 0.7850 0.7831 0.7811
2834.000000 0.7793 0.7772 0.7754 0.7734 0.7715
2839.000000 0.7693 0.7671 0.7650 0.7628 0.7606
2844.000000 0.7585 0.7572 0.7561 0.7551 0.7542
2849.000000 0.7532 0.7522 0.7522 0.7522 0.7528
2854.000000 0.7535 0.7541 0.7548 0.7555 0.7562
2859.000000 0.7571 0.7578 0.7587 0.7596 0.7607
2864.000000 0.7618 0.7628 0.7641 0.7647 0.7653
2869.000000 0.7658 0.7664 0.7665 0.7668 0.7668
2874.000000 0.7668 0.7668 0.7668 0.7667 0.7665
2879.000000 0.7661 0.7657 0.7650 0.7644 0.7636
2884.000000 0.7628 0.7618 0.7610 0.7600 0.7591
2889.000000 0.7575 0.7561 0.7542 0.7524 0.7501
2894.000000 0.7480 0.7456 0.7433 0.7391 0.7350
2899.000000 0.7295 0.7240 0.7186 0.7133 0.7081
2904.000000 0.7028 0.6967 0.6906 0.6884 0.6861
2909.000000 0.6862 0.6865 0.6869 0.6875 0.6908
2914.000000 0.6858 0.6994 0.7048 0.7100 0.7153
2919.000000 0.7192 0.7231 0.7249 0.7268 0.7285
2924.000000 0.7303 0.7312 0.7324 0.7331 0.7339
2929.000000 0.7345 0.7351 0.7357 0.7361 0.7364
2934.000000 0.7365 0.7367 0.7368 0.7368 0.7369
2939.000000 0.7369 0.7371 0.7374 0.7378 0.7381
2944.000000 0.7385 0.7389 0.7394 0.7400 0.7407
2949.000000 0.7412 0.7419 0.7426 0.7434 0.7441
2954.000000 0.7449 0.7456 0.7464 0.7469 0.7476
2959.000000 0.7482 0.7488 0.7494 0.7500 0.7501
2964.000000 0.7503 0.7504 0.7506 0.7510 0.7515
2969.000000 0.7524 0.7533 0.7542 0.7551 0.7558
2974.000000 0.7567 0.7575 0.7584 0.7592 0.7600
2979.000000 0.7604 0.7608 0.7612 0.7617 0.7621
2984.000000 0.7625 0.7625 0.7624 0.7622 0.7619
2989.000000 0.7617 0.7643 0.7607 0.7600 0.7589
2994.000000 0.7578 0.7561 0.7546 0.7524 0.7501
2999.000000 0.7478 0.7455 0.7428 0.7403 0.7376
3004.000000 0.7351 0.7321 0.7292 0.7260 0.7228
3009.000000 0.7155 0.7081 0.6999 0.6917 0.6835
3014.000000 0.6754 0.6671 0.6591 0.6561 0.6533
3019.000000 0.6507 0.6481 0.6448 0.6415 0.6357
3024.000000 0.6299 0.6218 0.6137 0.6066 0.5996
3029.000000 0.5970 0.5945 0.5936 0.5927 0.5929
3034.000000 0.5919 0.6106 0.6281 0.6456 0.6631
3039.000000 0.6650 0.6669 0.6665 0.6680 0.6653
3044.000000 0.6644 0.6626 0.6610 0.6585 0.6561
3049.000000 0.6533 0.6506 0.6476 0.6449 0.6428
3054.000000 0.6408 0.6389 0.6369 0.6348 0.6328
3059.000000 0.6309 0.6291 0.6274 0.6257 0.6246
3064.000000 0.6236 0.6269 0.6226 0.6448 0.6594
3069.000000 0.6739 0.6884 0.7028 0.7175 0.7319
3074.000000 0.7465 0.7554 0.7643 0.7654 0.7665
3079.000000 0.7675 0.7688 0.7701 0.7715 0.7728
3084.000000 0.7743 0.7761 0.7778 0.7797 0.7815
3089.000000 0.7872 0.7931 0.8028 0.8128 0.8171
3094.000000 0.8214 0.8249 0.8284 0.8318 0.8352
3099.000000 0.8378 0.8407 0.8421 0.8435 0.8449
3104.000000 0.8463 0.8477 0.8491 0.8500 0.8510
3109.000000 0.8518 0.8527 0.8535 0.8544 0.8552
3114.000000 0.8560 0.8568 0.8575 0.8583 0.8591
3119.000000 0.8598 0.8605 0.8609 0.8614 0.8618
3124.000000 0.8623 0.8627 0.8632 0.8636 0.8641
3129.000000 0.8642 0.8644 0.8645 0.8646 0.8647
3134.000000 0.8649 0.8650 0.8651 0.8652 0.8654
3139.000000 0.8655 0.8656 0.8656 0.8656 0.8656
3144.000000 0.8656 0.8656 0.8656 0.8656 0.8656
3149.000000 0.8656 0.8656 0.8656 0.8656 0.8656
3154.000000 0.8656 0.8656 0.8657 0.8657 0.8657
3159.000000 0.8657 0.8658 0.8658 0.8658 0.8658
3164.000000 0.8659 0.8659 0.8659 0.8659 0.8658
3169.000000 0.8658 0.8657 0.8656 0.8655 0.8653
3174.000000 0.8652 0.8651 0.8650 0.8648 0.8647
3179.000000 0.8644 0.8641 0.8635 0.8628 0.8621
3184.000000 0.8616 0.8604 0.8592 0.8580 0.8568
3189.000000 0.8563 0.8559 0.8575 0.8591 0.8614
3194.000000 0.8638 0.8656 0.8675 0.8675 0.8675
3199.000000 0.8659 0.8644 0.8627 0.8610 0.8593
3204.000000 0.8577 0.8560 0.8543 0.8539 0.8536
3209.000000 0.8553 0.8570 0.8603 0.8636 0.8661
3214.000000 0.8686 0.8682 0.8678 0.8677 0.8675
3219.000000 0.8671 0.8668 0.8666 0.8663 0.8659
3224.000000 0.8656 0.8652 0.8648 0.8644 0.8641
3229.000000 0.8636 0.8631 0.8625 0.8618 0.8613
3234.000000 0.8608 0.8602 0.8597 0.8591 0.8585
3239.000000 0.8578 0.8571 0.8565 0.8559 0.8553
3244.000000 0.8547 0.8540 0.8534 0.8528 0.8521
3249.000000 0.8516 0.8510 0.8504 0.8499 0.8493
3254.000000 0.8488 0.8482 0.8477 0.8471 0.8466
3259.000000 0.8460 0.8454 0.8447 0.8441 0.8434
3264.000000 0.8428 0.8421 0.8416 0.8409 0.8403
3269.000000 0.8396 0.8390 0.8384 0.8378 0.8367
3274.000000 0.8356 0.8345 0.8335 0.8324 0.8313
3279.000000 0.8302 0.8292 0.8280 0.8268 0.8253
3284.000000 0.8238 0.8223 0.8209 0.8194 0.8178
3289.000000 0.8164 0.8149 0.8134 0.8119 0.8103
3294.000000 0.8087 0.8069 0.8053 0.8036 0.8018
3299.000000 0.8001 0.7986 0.7969 0.7954 0.7938
3304.000000 0.7921 0.7906 0.7890 0.7874 0.7858
3309.000000 0.7842 0.7825 0.7810 0.7794 0.7776
3314.000000 0.7760 0.7743 0.7726 0.7710 0.7694
3319.000000 0.7676 0.7661 0.7649 0.7637 0.7625
3324.000000 0.7615 0.7605 0.7595 0.7584 0.7574
3329.000000 0.7565 0.7556 0.7547 0.7539 0.7530
3334.000000 0.7521 0.7512 0.7504 0.7494 0.7485
3339.000000 0.7475 0.7467 0.7462 0.7460 0.7458
3344.000000 0.7457 0.7455 0.7454 0.7451 0.7453
3349.000000 0.7453 0.7455 0.7456 0.7458 0.7460
3354.000000 0.7462 0.7467 0.7471 0.7475 0.7481
3359.000000 0.7490 0.7499 0.7508 0.7518 0.7528
3364.000000 0.7539 0.7550 0.7561 0.7574 0.7587
3369.000000 0.7600 0.7612 0.7630 0.7648 0.7665
3374.000000 0.7684 0.7699 0.7715 0.7730 0.7745
3379.000000 0.7758 0.7774 0.7788 0.7801 0.7815
3384.000000 0.7830 0.7844 0.7858 0.7874 0.7891
3389.000000 0.7908 0.7926 0.7945 0.7964 0.7983
3394.000000 0.8001 0.8024 0.8046 0.8068 0.8090
3399.000000 0.8108 0.8128 0.8148 0.8167 0.8186
3404.000000 0.8205 0.8224 0.8244 0.8263 0.8282
3409.000000 0.8301 0.8321 0.8334 0.8347 0.8358
3414.000000 0.8370 0.8382 0.8394 0.8406 0.8418
3419.000000 0.8428 0.8439 0.8449 0.8459 0.8468
3424.000000 0.8478 0.8489 0.8500 0.8510 0.8520
3429.000000 0.8528 0.8537 0.8544 0.8551 0.8558
3434.000000 0.8566 0.8573 0.8581 0.8588 0.8595
3439.000000 0.8601 0.8608 0.8614 0.8621 0.8627
3444.000000 0.8634 0.8638 0.8642 0.8646 0.8651
3449.000000 0.8655 0.8659 0.8663 0.8668 0.8671
3454.000000 0.8675 0.8680 0.8684 0.8687 0.8690
3459.000000 0.8692 0.8695 0.8698 0.8701 0.8703
3464.000000 0.8706 0.8709 0.8712 0.8714 0.8717
3469.000000 0.8718 0.8721 0.8725 0.8728 0.8730
3474.000000 0.8733 0.8736 0.8739 0.8741 0.8743
3479.000000 0.8744 0.8746 0.8747 0.8749 0.8750
3484.000000 0.8752 0.8753 0.8755 0.8756 0.8758
3489.000000 0.8760 0.8762 0.8763 0.8765 0.8766
3494.000000 0.8768 0.8768 0.8771 0.8771 0.8774
3499.000000 0.8775 0.8777 0.8778 0.8780 0.8781
3504.000000 0.8783 0.8785 0.8787 0.8789 0.8791
3509.000000 0.8793 0.8795 0.8798 0.8802 0.8808
3514.000000 0.8815 0.8821 0.8827 0.8833 0.8840
3519.000000 0.8836 0.8833 0.8828 0.8825 0.8823
3524.000000 0.8821 0.8818 0.8816 0.8813 0.8811
3529.000000 0.8808 0.8806 0.8804 0.8803 0.8801
3534.000000 0.8800 0.8799 0.8798 0.8796 0.8795
3539.000000 0.8793 0.8792 0.8791 0.8791 0.8790
3544.000000 0.8789 0.8788 0.8788 0.8787 0.8786
3549.000000 0.8785 0.8785 0.8784 0.8784 0.8783
3554.000000 0.8782 0.8780 0.8778 0.8777 0.8775
3559.000000 0.8773 0.8771 0.8768 0.8767 0.8763
3564.000000 0.8759 0.8753 0.8747 0.8740 0.8733
3569.000000 0.8724 0.8715 0.8706 0.8697 0.8687
3574.000000 0.8678 0.8667 0.8657 0.8647 0.8637
3579.000000 0.8628 0.8620 0.8614 0.8608 0.8605
3584.000000 0.8604 0.8604 0.8605 0.8606 0.8608
3589.000000 0.8621 0.8635 0.8654 0.8673 0.8694
3594.000000 0.8715 0.8724 0.8733 0.8738 0.8743
3599.000000 0.8747 0.8752 0.8754 0.8755 0.8756
3604.000000 0.8756 0.8755 0.8754 0.8752 0.8750
3609.000000 0.8747 0.8745 0.8742 0.8740 0.8737
3614.000000 0.8735 0.8733 0.8731 0.8728 0.8725
3619.000000 0.8723 0.8721 0.8718 0.8717 0.8714
3624.000000 0.8711 0.8708 0.8706 0.8703 0.8701
3629.000000 0.8699 0.8698 0.8697 0.8697 0.8696
3634.000000 0.8696 0.8695 0.8695 0.8695 0.8695
3639.000000 0.8695 0.8696 0.8697 0.8698 0.8699
3644.000000 0.8701 0.8702 0.8703 0.8704 0.8705
3649.000000 0.8706 0.8707 0.8707 0.8708 0.8708
3654.000000 0.8709 0.8711 0.8713 0.8715 0.8717
3659.000000 0.8718 0.8721 0.8724 0.8725 0.8728
3664.000000 0.8730 0.8732 0.8734 0.8736 0.8738
3669.000000 0.8740 0.8742 0.8744 0.8746 0.8747
3674.000000 0.8748 0.8748 0.8748 0.8748 0.8748
3679.000000 0.8747 0.8747 0.8747 0.8747 0.8746
3684.000000 0.8746 0.8746 0.8746 0.8745 0.8745
3689.000000 0.8745 0.8745 0.8744 0.8744 0.8744
3694.000000 0.8744 0.8743 0.8743 0.8743 0.8743
3699.000000 0.8742 0.8742 0.8742 0.8742 0.8741
3704.000000 0.8741 0.8741 0.8741 0.8740 0.8740
3709.000000 0.8740 0.8740 0.8739 0.8739 0.8739
3714.000000 0.8739 0.8738 0.8738 0.8737 0.8737
3719.000000 0.8736 0.8746 0.8734 0.8734 0.8733
3724.000000 0.8733 0.8732 0.8731 0.8730 0.8730
3729.000000 0.8728 0.8728 0.8728 0.8727 0.8725
3734.000000 0.8725 0.8725 0.8725 0.8724 0.8723
3739.000000 0.8721 0.8721 0.8721 0.8721 0.8721
3744.000000 0.8721 0.8721 0.8721 0.8721 0.8721
3749.000000 0.8721 0.8721 0.8721 0.8721 0.8721
3754.000000 0.8721 0.8721 0.8721 0.8721 0.8721
3759.000000 0.8721 0.8721 0.8721 0.8721 0.8721
3764.000000 0.8721 0.8721 0.8721 0.8721 0.8721
3769.000000 0.8721 0.8721 0.8721 0.8721 0.8720
3774.000000 0.8720 0.8720 0.8720 0.8720 0.8720
3779.000000 0.8720 0.8720 0.8720 0.8720 0.8720
3784.000000 0.8720 0.8718 0.8718 0.8718 0.8718
3789.000000 0.8718 0.8718 0.8718 0.8718
##END=
