##TITLE=Aniline, 2-chloro-6-(1',1'-dimethylpropyl)-
##JCAMP-DX=4.24
##DATA TYPE=INFRARED SPECTRUM
##CLASS=COBLENTZ III
##ORIGIN=MONSANTO (J. FREEMAN)
##OWNER=Copyright (C) 1987 by the Coblentz Society
Collection (C) 2018 copyright by the U.S. Secretary of Commerce
on behalf of the United States of America. All rights reserved.
##DATE=1959/12/20
##NAMES=2-chloro-6-tert-pentylphenylamine
2-chloro-6-tert-pentylaniline
BENZENAMINE,2-CHLORO-6-(1',1'-DIMETHYLPROPYL)-
##MOLFORM=C11 H16 Cl N
##SOURCE REFERENCE=COBLENTZ NO. 9281
##$NIST ID=B6009281
##$NIST SOURCE=COBLENTZ
##$NIST IMAGE=cob9281
##SPECTROMETER/DATA SYSTEM=BECKMAN IR-4 (HYBRID PRISM-GRATING)
##INSTRUMENT PARAMETERS=NaCl PRISM
##STATE=LIQUID (NEAT)
##PATH LENGTH=CAPILLARY
##SAMPLING PROCEDURE=TRANSMISSION
##RESOLUTION=2
##DATA PROCESSING=DIGITIZED BY COBLENTZ SOCIETY (BATCH II) FROM HARD COPY
##XUNITS=1/CM
##YUNITS=TRANSMITTANCE
##XFACTOR=1.0
##YFACTOR=1
##FIRSTX=626
##LASTX=4000
##FIRSTY=0.5717
##MAXX=4000
##MINX=626
##MAXY=0.9464
##MINY=0.0474
##NPOINTS=3375
##XYDATA=(X++(Y..Y))
626.000000 0.5717 0.5723 0.5722 0.5717 0.5710
631.000000 0.5696 0.5646 0.5606 0.5609 0.5603
636.000000 0.5573 0.5541 0.5538 0.5543 0.5532
641.000000 0.5485 0.5387 0.5297 0.5248 0.5206
646.000000 0.5149 0.5171 0.5202 0.5238 0.5264
651.000000 0.5231 0.5165 0.5157 0.5177 0.5193
656.000000 0.5203 0.5212 0.5210 0.5208 0.5200
661.000000 0.5193 0.5185 0.5177 0.5172 0.5169
666.000000 0.5174 0.5216 0.5254 0.5286 0.5308
671.000000 0.5314 0.5281 0.5231 0.5199 0.5204
676.000000 0.5220 0.5240 0.5268 0.5292 0.5314
681.000000 0.5326 0.5331 0.5323 0.5325 0.5337
686.000000 0.5359 0.5389 0.5420 0.5444 0.5464
691.000000 0.5454 0.5433 0.5412 0.5400 0.5394
696.000000 0.5411 0.5431 0.5461 0.5507 0.5518
701.000000 0.5522 0.5519 0.5506 0.5478 0.5449
706.000000 0.5405 0.5345 0.5260 0.5153 0.5053
711.000000 0.4954 0.4853 0.4725 0.4513 0.4289
716.000000 0.4066 0.3854 0.3667 0.3473 0.3375
721.000000 0.3304 0.3231 0.3160 0.3058 0.2913
726.000000 0.2666 0.1961 0.1443 0.1179 0.0987
731.000000 0.0880 0.0802 0.0750 0.0732 0.0737
736.000000 0.0764 0.0830 0.0927 0.1113 0.1451
741.000000 0.1786 0.2121 0.2432 0.2683 0.2919
746.000000 0.3147 0.3396 0.3614 0.3772 0.3938
751.000000 0.4109 0.4263 0.4332 0.4389 0.4425
756.000000 0.4454 0.4463 0.4459 0.4381 0.4244
761.000000 0.4104 0.3651 0.3182 0.2715 0.2351
766.000000 0.2007 0.1652 0.1529 0.1455 0.1556
771.000000 0.1716 0.1934 0.2152 0.2368 0.2584
776.000000 0.2799 0.2993 0.3075 0.3077 0.3074
781.000000 0.3092 0.3193 0.3327 0.3590 0.3853
786.000000 0.4115 0.4485 0.4693 0.4853 0.5016
791.000000 0.5158 0.5260 0.5356 0.5449 0.5544
796.000000 0.5601 0.5655 0.5699 0.5722 0.5745
801.000000 0.5754 0.5721 0.5735 0.5682 0.5569
806.000000 0.5414 0.5204 0.4928 0.4676 0.4451
811.000000 0.4200 0.4014 0.3883 0.3852 0.3865
816.000000 0.3905 0.4005 0.4092 0.4222 0.4367
821.000000 0.4512 0.4657 0.4802 0.4945 0.5089
826.000000 0.5232 0.5484 0.5618 0.5695 0.5752
831.000000 0.5796 0.5812 0.5823 0.5820 0.5851
836.000000 0.5783 0.5745 0.5700 0.5643 0.5584
841.000000 0.5525 0.5466 0.5390 0.5314 0.5262
846.000000 0.5307 0.5481 0.5711 0.5918 0.6082
851.000000 0.6224 0.6355 0.6490 0.6609 0.6707
856.000000 0.6769 0.6817 0.6843 0.6856 0.6790
861.000000 0.6711 0.6630 0.6545 0.6459 0.6375
866.000000 0.6292 0.6215 0.6144 0.6106 0.6062
871.000000 0.6018 0.5959 0.5903 0.5849 0.5796
876.000000 0.5740 0.5709 0.5691 0.5741 0.5829
881.000000 0.5968 0.6106 0.6244 0.6381 0.6519
886.000000 0.6699 0.6808 0.6881 0.6914 0.6918
891.000000 0.6915 0.6908 0.6905 0.6900 0.6895
896.000000 0.6908 0.6948 0.7000 0.7091 0.7174
901.000000 0.7229 0.7289 0.7337 0.7364 0.7370
906.000000 0.7359 0.7330 0.7283 0.7207 0.7124
911.000000 0.7040 0.6960 0.6874 0.6785 0.6695
916.000000 0.6609 0.6565 0.6555 0.6673 0.6847
921.000000 0.7094 0.7204 0.7278 0.7348 0.7407
926.000000 0.7427 0.7405 0.7393 0.7369 0.7332
931.000000 0.7277 0.7205 0.7117 0.7028 0.6962
936.000000 0.6923 0.6906 0.6921 0.6935 0.6964
941.000000 0.7006 0.7034 0.7033 0.7043 0.7020
946.000000 0.6994 0.6968 0.6934 0.6895 0.6892
951.000000 0.6883 0.6900 0.6937 0.6988 0.7068
956.000000 0.7169 0.7276 0.7422 0.7540 0.7611
961.000000 0.7659 0.7693 0.7705 0.7709 0.7709
966.000000 0.7708 0.7693 0.7706 0.7701 0.7697
971.000000 0.7693 0.7688 0.7683 0.7678 0.7672
976.000000 0.7661 0.7652 0.7641 0.7614 0.7570
981.000000 0.7516 0.7450 0.7376 0.7293 0.7203
986.000000 0.7098 0.6996 0.6886 0.6843 0.6830
991.000000 0.6879 0.6944 0.7023 0.7080 0.7078
996.000000 0.7051 0.7098 0.6803 0.6609 0.6415
1001.000000 0.6220 0.6026 0.5835 0.5717 0.5625
1006.000000 0.5651 0.5670 0.5730 0.5833 0.5992
1011.000000 0.6140 0.6388 0.6577 0.6744 0.6888
1016.000000 0.7003 0.7090 0.7150 0.7203 0.7250
1021.000000 0.7265 0.7269 0.7247 0.7253 0.7233
1026.000000 0.7169 0.7068 0.6914 0.6758 0.6603
1031.000000 0.6447 0.6292 0.6137 0.5982 0.5828
1036.000000 0.5674 0.5520 0.5367 0.5214 0.5061
1041.000000 0.4909 0.4757 0.4605 0.4484 0.4343
1046.000000 0.4194 0.4055 0.3917 0.3778 0.3593
1051.000000 0.3336 0.3163 0.3004 0.2861 0.2732
1056.000000 0.2634 0.2582 0.2563 0.2560 0.2571
1061.000000 0.2563 0.2566 0.2570 0.2577 0.2583
1066.000000 0.2593 0.2615 0.2651 0.2680 0.2709
1071.000000 0.2740 0.2783 0.2860 0.2938 0.3014
1076.000000 0.3058 0.3075 0.3077 0.3074 0.3072
1081.000000 0.3075 0.3082 0.3103 0.3149 0.3275
1086.000000 0.3438 0.3560 0.3648 0.3749 0.3894
1091.000000 0.3945 0.3977 0.3991 0.4003 0.4027
1096.000000 0.4058 0.4122 0.4245 0.4464 0.4682
1101.000000 0.4900 0.5118 0.5335 0.5551 0.5729
1106.000000 0.5819 0.5921 0.6128 0.6323 0.6469
1111.000000 0.6654 0.6764 0.6823 0.6870 0.6909
1116.000000 0.6937 0.6980 0.6957 0.6954 0.6927
1121.000000 0.6870 0.6774 0.6649 0.6525 0.6482
1126.000000 0.6485 0.6732 0.6907 0.7082 0.7257
1131.000000 0.7432 0.7602 0.7708 0.7757 0.7820
1136.000000 0.7883 0.7921 0.7935 0.7947 0.7940
1141.000000 0.7934 0.7910 0.7862 0.7798 0.7673
1146.000000 0.7537 0.7402 0.7266 0.7131 0.6996
1151.000000 0.6865 0.6791 0.6787 0.6808 0.6833
1156.000000 0.6845 0.6850 0.6845 0.6761 0.6663
1161.000000 0.6564 0.6466 0.6368 0.6270 0.6142
1166.000000 0.6012 0.5881 0.5607 0.5469 0.5433
1171.000000 0.5390 0.5429 0.5465 0.5706 0.5980
1176.000000 0.6252 0.6525 0.6818 0.7213 0.7312
1181.000000 0.7378 0.7413 0.7443 0.7463 0.7529
1186.000000 0.7485 0.7487 0.7473 0.7437 0.7337
1191.000000 0.7153 0.6968 0.6784 0.6600 0.6417
1196.000000 0.6355 0.6321 0.6306 0.6355 0.6529
1201.000000 0.6705 0.6882 0.7058 0.7234 0.7410
1206.000000 0.7581 0.7595 0.7602 0.7575 0.7574
1211.000000 0.7404 0.7224 0.7045 0.6865 0.6686
1216.000000 0.6508 0.6366 0.6294 0.6270 0.6256
1221.000000 0.6279 0.6319 0.6358 0.6397 0.6434
1226.000000 0.6437 0.6416 0.6369 0.6283 0.6223
1231.000000 0.6165 0.6130 0.6114 0.6139 0.6215
1236.000000 0.6291 0.6367 0.6429 0.6434 0.6424
1241.000000 0.6412 0.6393 0.6355 0.6308 0.6236
1246.000000 0.6086 0.5652 0.5158 0.4665 0.4173
1251.000000 0.3681 0.3192 0.2898 0.2824 0.2772
1256.000000 0.2742 0.2733 0.2726 0.2855 0.3171
1261.000000 0.3487 0.3802 0.3966 0.3969 0.3971
1266.000000 0.3893 0.3797 0.3701 0.3606 0.3539
1271.000000 0.3550 0.3839 0.4201 0.4563 0.4775
1276.000000 0.4901 0.5146 0.5586 0.5827 0.5897
1281.000000 0.5928 0.5953 0.5967 0.5973 0.5953
1286.000000 0.5775 0.5993 0.5306 0.5071 0.4837
1291.000000 0.4603 0.4370 0.4137 0.3905 0.3668
1296.000000 0.3444 0.3373 0.3303 0.3254 0.3225
1301.000000 0.3214 0.3233 0.3262 0.3369 0.3526
1306.000000 0.3684 0.3843 0.4000 0.4157 0.4315
1311.000000 0.4472 0.4629 0.4786 0.4942 0.5098
1316.000000 0.5254 0.5496 0.5691 0.5855 0.6022
1321.000000 0.6136 0.6236 0.6312 0.6371 0.6415
1326.000000 0.6447 0.6471 0.6485 0.6498 0.6508
1331.000000 0.6518 0.6535 0.6574 0.6661 0.6959
1336.000000 0.7252 0.7407 0.7502 0.7588 0.7661
1341.000000 0.7720 0.7779 0.7842 0.7915 0.7981
1346.000000 0.8028 0.8069 0.8087 0.8104 0.8111
1351.000000 0.8100 0.8110 0.8098 0.8081 0.8063
1356.000000 0.8030 0.7987 0.7903 0.7779 0.7655
1361.000000 0.7489 0.7270 0.7070 0.6935 0.6788
1366.000000 0.6574 0.6153 0.5708 0.5263 0.4935
1371.000000 0.4926 0.5019 0.5209 0.5404 0.5568
1376.000000 0.5587 0.5581 0.5284 0.4790 0.4296
1381.000000 0.3804 0.3621 0.3675 0.3885 0.4095
1386.000000 0.4304 0.4454 0.4483 0.4481 0.4415
1391.000000 0.4348 0.4281 0.4233 0.4293 0.4503
1396.000000 0.4744 0.4987 0.5229 0.5470 0.5857
1401.000000 0.5850 0.5851 0.5845 0.5772 0.5684
1406.000000 0.5595 0.5506 0.5417 0.5405 0.5376
1411.000000 0.5459 0.5580 0.5701 0.5821 0.5925
1416.000000 0.5942 0.5949 0.5919 0.5670 0.5412
1421.000000 0.5156 0.4899 0.4645 0.4443 0.4344
1426.000000 0.4264 0.4043 0.3511 0.2980 0.2449
1431.000000 0.1918 0.1459 0.0811 0.0714 0.0637
1436.000000 0.0575 0.0541 0.0511 0.0490 0.0479
1441.000000 0.0474 0.0485 0.0510 0.0617 0.0726
1446.000000 0.0836 0.0945 0.1055 0.1164 0.1273
1451.000000 0.1382 0.1482 0.1529 0.1538 0.1540
1456.000000 0.1540 0.1538 0.1536 0.1529 0.1514
1461.000000 0.1494 0.1468 0.1422 0.1373 0.1309
1466.000000 0.1261 0.1233 0.1223 0.1221 0.1224
1471.000000 0.1230 0.1241 0.1260 0.1466 0.1712
1476.000000 0.1918 0.2124 0.2329 0.2535 0.2740
1481.000000 0.3132 0.3413 0.3576 0.3816 0.4037
1486.000000 0.4122 0.4179 0.4235 0.4292 0.4349
1491.000000 0.4405 0.4462 0.4518 0.4574 0.4631
1496.000000 0.4687 0.4743 0.4762 0.4763 0.4752
1501.000000 0.4757 0.4680 0.4550 0.4419 0.4289
1506.000000 0.4159 0.4029 0.3899 0.3769 0.3640
1511.000000 0.3510 0.3381 0.3252 0.3124 0.3065
1516.000000 0.3059 0.3063 0.3045 0.3368 0.3620
1521.000000 0.3872 0.4123 0.4374 0.4625 0.5779
1526.000000 0.6447 0.6546 0.6624 0.6721 0.6823
1531.000000 0.6919 0.6955 0.6990 0.7017 0.7034
1536.000000 0.7051 0.7067 0.7080 0.7092 0.7101
1541.000000 0.7103 0.7104 0.7105 0.7104 0.7125
1546.000000 0.7099 0.7096 0.7090 0.7081 0.7071
1551.000000 0.7053 0.7026 0.6980 0.6936 0.6894
1556.000000 0.6853 0.6801 0.6728 0.6658 0.6593
1561.000000 0.6527 0.6461 0.6396 0.6331 0.6260
1566.000000 0.6175 0.5997 0.5671 0.5289 0.5084
1571.000000 0.5028 0.5009 0.4999 0.4993 0.5056
1576.000000 0.5158 0.5265 0.5308 0.5313 0.5312
1581.000000 0.5293 0.5187 0.5049 0.4912 0.4774
1586.000000 0.4637 0.4500 0.4363 0.4227 0.4086
1591.000000 0.4019 0.3992 0.3966 0.3939 0.3918
1596.000000 0.3901 0.3878 0.3747 0.3520 0.3282
1601.000000 0.3043 0.2806 0.2569 0.2332 0.2095
1606.000000 0.1859 0.1623 0.1383 0.1118 0.0847
1611.000000 0.0758 0.0711 0.0682 0.0655 0.0632
1616.000000 0.0629 0.0631 0.0641 0.0600 0.0743
1621.000000 0.0793 0.0836 0.0874 0.0909 0.0944
1626.000000 0.0989 0.1042 0.1098 0.1209 0.1412
1631.000000 0.1615 0.1819 0.2022 0.2225 0.2427
1636.000000 0.2629 0.2832 0.3033 0.3235 0.3436
1641.000000 0.3637 0.3838 0.4038 0.4239 0.4548
1646.000000 0.5090 0.5302 0.5453 0.5563 0.5625
1651.000000 0.5682 0.5740 0.5797 0.5890 0.6019
1656.000000 0.6155 0.6286 0.6408 0.6527 0.6636
1661.000000 0.6745 0.6884 0.6987 0.7048 0.7096
1666.000000 0.7143 0.7188 0.7226 0.7253 0.7279
1671.000000 0.7306 0.7332 0.7359 0.7382 0.7404
1676.000000 0.7425 0.7445 0.7466 0.7487 0.7507
1681.000000 0.7528 0.7555 0.7588 0.7623 0.7658
1686.000000 0.7694 0.7729 0.7766 0.7807 0.7848
1691.000000 0.7890 0.7928 0.7960 0.7987 0.8014
1696.000000 0.8041 0.8067 0.8094 0.8123 0.8156
1701.000000 0.8190 0.8224 0.8258 0.8291 0.8322
1706.000000 0.8352 0.8382 0.8412 0.8443 0.8474
1711.000000 0.8509 0.8544 0.8579 0.8614 0.8649
1716.000000 0.8683 0.8714 0.8746 0.8776 0.8807
1721.000000 0.8837 0.8861 0.8879 0.8899 0.8918
1726.000000 0.8937 0.8954 0.8965 0.8975 0.8985
1731.000000 0.8995 0.9001 0.9031 0.9005 0.9006
1736.000000 0.9007 0.9008 0.9009 0.9009 0.9007
1741.000000 0.9005 0.9004 0.9002 0.9000 0.8998
1746.000000 0.8995 0.8991 0.8987 0.8984 0.8981
1751.000000 0.8978 0.8974 0.8971 0.8968 0.8965
1756.000000 0.8961 0.8958 0.8955 0.8952 0.8949
1761.000000 0.8946 0.8944 0.8943 0.8941 0.8939
1766.000000 0.8939 0.8939 0.8939 0.8939 0.8940
1771.000000 0.8940 0.8943 0.8949 0.8956 0.8961
1776.000000 0.8967 0.8972 0.8972 0.8970 0.8968
1781.000000 0.8964 0.8959 0.8953 0.8947 0.8937
1786.000000 0.8922 0.8908 0.8893 0.8874 0.8853
1791.000000 0.8836 0.8818 0.8801 0.8782 0.8764
1796.000000 0.8745 0.8726 0.8708 0.8621 0.8677
1801.000000 0.8673 0.8676 0.8681 0.8687 0.8694
1806.000000 0.8701 0.8708 0.8717 0.8728 0.8738
1811.000000 0.8748 0.8758 0.8771 0.8783 0.8795
1816.000000 0.8807 0.8820 0.8835 0.8849 0.8864
1821.000000 0.8877 0.8888 0.8898 0.8909 0.8918
1826.000000 0.8925 0.8930 0.8935 0.8939 0.8942
1831.000000 0.8943 0.8942 0.8965 0.8932 0.8920
1836.000000 0.8908 0.8895 0.8869 0.8842 0.8818
1841.000000 0.8796 0.8774 0.8749 0.8722 0.8695
1846.000000 0.8666 0.8637 0.8608 0.8581 0.8563
1851.000000 0.8546 0.8530 0.8517 0.8507 0.8497
1856.000000 0.8488 0.8488 0.8474 0.8496 0.8513
1861.000000 0.8536 0.8568 0.8606 0.8634 0.8665
1866.000000 0.8697 0.8728 0.8761 0.8791 0.8819
1871.000000 0.8838 0.8850 0.8859 0.8862 0.8865
1876.000000 0.8865 0.8864 0.8864 0.8862 0.8878
1881.000000 0.8859 0.8857 0.8855 0.8852 0.8850
1886.000000 0.8848 0.8846 0.8843 0.8840 0.8838
1891.000000 0.8835 0.8831 0.8827 0.8822 0.8813
1896.000000 0.8800 0.8786 0.8770 0.8745 0.8714
1901.000000 0.8671 0.8647 0.8626 0.8604 0.8583
1906.000000 0.8563 0.8544 0.8528 0.8514 0.8501
1911.000000 0.8492 0.8491 0.8504 0.8498 0.8504
1916.000000 0.8516 0.8539 0.8582 0.8634 0.8697
1921.000000 0.8753 0.8793 0.8813 0.8832 0.8851
1926.000000 0.8871 0.8890 0.8909 0.8928 0.8948
1931.000000 0.8967 0.8986 0.9005 0.9024 0.9044
1936.000000 0.9059 0.9073 0.9087 0.9100 0.9111
1941.000000 0.9119 0.9126 0.9133 0.9140 0.9146
1946.000000 0.9153 0.9159 0.9165 0.9171 0.9177
1951.000000 0.9184 0.9191 0.9199 0.9206 0.9213
1956.000000 0.9220 0.9225 0.9229 0.9233 0.9236
1961.000000 0.9239 0.9243 0.9247 0.9250 0.9253
1966.000000 0.9256 0.9260 0.9261 0.9262 0.9264
1971.000000 0.9266 0.9268 0.9269 0.9271 0.9273
1976.000000 0.9275 0.9276 0.9278 0.9279 0.9280
1981.000000 0.9281 0.9282 0.9283 0.9283 0.9285
1986.000000 0.9286 0.9286 0.9287 0.9289 0.9289
1991.000000 0.9290 0.9290 0.9292 0.9293 0.9293
1996.000000 0.9294 0.9296 0.9296 0.9297 0.9298
2001.000000 0.9298 0.9299 0.9299 0.9300 0.9301
2006.000000 0.9301 0.9302 0.9302 0.9303 0.9303
2011.000000 0.9303 0.9304 0.9305 0.9305 0.9305
2016.000000 0.9305 0.9305 0.9305 0.9305 0.9304
2021.000000 0.9304 0.9304 0.9304 0.9304 0.9304
2026.000000 0.9304 0.9304 0.9304 0.9304 0.9304
2031.000000 0.9304 0.9304 0.9304 0.9304 0.9304
2036.000000 0.9305 0.9305 0.9305 0.9305 0.9305
2041.000000 0.9305 0.9305 0.9305 0.9305 0.9306
2046.000000 0.9306 0.9306 0.9306 0.9306 0.9307
2051.000000 0.9307 0.9307 0.9308 0.9308 0.9308
2056.000000 0.9309 0.9309 0.9309 0.9309 0.9310
2061.000000 0.9310 0.9310 0.9311 0.9311 0.9311
2066.000000 0.9311 0.9312 0.9312 0.9312 0.9313
2071.000000 0.9313 0.9313 0.9313 0.9313 0.9313
2076.000000 0.9313 0.9314 0.9314 0.9314 0.9314
2081.000000 0.9314 0.9314 0.9314 0.9314 0.9314
2086.000000 0.9315 0.9315 0.9315 0.9315 0.9315
2091.000000 0.9315 0.9315 0.9316 0.9316 0.9316
2096.000000 0.9315 0.9315 0.9315 0.9315 0.9315
2101.000000 0.9314 0.9314 0.9314 0.9314 0.9314
2106.000000 0.9314 0.9313 0.9313 0.9313 0.9313
2111.000000 0.9313 0.9312 0.9312 0.9312 0.9312
2116.000000 0.9312 0.9312 0.9312 0.9312 0.9312
2121.000000 0.9313 0.9313 0.9313 0.9313 0.9314
2126.000000 0.9315 0.9315 0.9316 0.9316 0.9317
2131.000000 0.9317 0.9317 0.9317 0.9318 0.9319
2136.000000 0.9319 0.9320 0.9320 0.9321 0.9321
2141.000000 0.9321 0.9322 0.9323 0.9323 0.9324
2146.000000 0.9325 0.9326 0.9327 0.9327 0.9328
2151.000000 0.9329 0.9330 0.9330 0.9331 0.9331
2156.000000 0.9332 0.9333 0.9334 0.9335 0.9335
2161.000000 0.9336 0.9337 0.9338 0.9338 0.9339
2166.000000 0.9339 0.9340 0.9340 0.9341 0.9341
2171.000000 0.9342 0.9342 0.9343 0.9344 0.9344
2176.000000 0.9344 0.9344 0.9345 0.9345 0.9346
2181.000000 0.9346 0.9346 0.9346 0.9347 0.9347
2186.000000 0.9348 0.9348 0.9348 0.9348 0.9349
2191.000000 0.9349 0.9351 0.9353 0.9354 0.9356
2196.000000 0.9357 0.9328 0.9359 0.9361 0.9362
2201.000000 0.9364 0.9366 0.9367 0.9369 0.9370
2206.000000 0.9372 0.9373 0.9375 0.9376 0.9378
2211.000000 0.9379 0.9381 0.9382 0.9383 0.9384
2216.000000 0.9384 0.9385 0.9386 0.9387 0.9388
2221.000000 0.9389 0.9390 0.9391 0.9392 0.9393
2226.000000 0.9394 0.9395 0.9396 0.9397 0.9398
2231.000000 0.9399 0.9400 0.9401 0.9402 0.9403
2236.000000 0.9404 0.9405 0.9405 0.9406 0.9407
2241.000000 0.9408 0.9408 0.9408 0.9408 0.9407
2246.000000 0.9407 0.9406 0.9405 0.9404 0.9404
2251.000000 0.9403 0.9403 0.9402 0.9402 0.9401
2256.000000 0.9400 0.9399 0.9399 0.9398 0.9398
2261.000000 0.9397 0.9396 0.9395 0.9394 0.9393
2266.000000 0.9392 0.9391 0.9390 0.9389 0.9388
2271.000000 0.9387 0.9384 0.9382 0.9379 0.9377
2276.000000 0.9375 0.9372 0.9370 0.9367 0.9365
2281.000000 0.9363 0.9360 0.9358 0.9355 0.9353
2286.000000 0.9350 0.9347 0.9344 0.9341 0.9337
2291.000000 0.9334 0.9331 0.9327 0.9324 0.9321
2296.000000 0.9317 0.9314 0.9311 0.9308 0.9304
2301.000000 0.9300 0.9297 0.9292 0.9287 0.9282
2306.000000 0.9278 0.9273 0.9268 0.9264 0.9259
2311.000000 0.9254 0.9250 0.9245 0.9241 0.9237
2316.000000 0.9232 0.9227 0.9227 0.9227 0.9228
2321.000000 0.9230 0.9232 0.9233 0.9235 0.9237
2326.000000 0.9240 0.9243 0.9246 0.9249 0.9252
2331.000000 0.9254 0.9257 0.9260 0.9263 0.9266
2336.000000 0.9269 0.9272 0.9275 0.9278 0.9280
2341.000000 0.9283 0.9285 0.9286 0.9288 0.9290
2346.000000 0.9292 0.9294 0.9296 0.9298 0.9300
2351.000000 0.9302 0.9304 0.9306 0.9307 0.9309
2356.000000 0.9311 0.9313 0.9315 0.9317 0.9319
2361.000000 0.9321 0.9323 0.9325 0.9326 0.9328
2366.000000 0.9330 0.9332 0.9334 0.9335 0.9337
2371.000000 0.9339 0.9341 0.9342 0.9344 0.9346
2376.000000 0.9348 0.9349 0.9351 0.9352 0.9354
2381.000000 0.9356 0.9357 0.9359 0.9361 0.9363
2386.000000 0.9364 0.9366 0.9368 0.9370 0.9371
2391.000000 0.9373 0.9375 0.9376 0.9378 0.9379
2396.000000 0.9380 0.9382 0.9383 0.9385 0.9386
2401.000000 0.9388 0.9389 0.9391 0.9393 0.9394
2406.000000 0.9395 0.9397 0.9399 0.9400 0.9401
2411.000000 0.9403 0.9404 0.9405 0.9407 0.9408
2416.000000 0.9409 0.9410 0.9411 0.9412 0.9412
2421.000000 0.9414 0.9415 0.9416 0.9417 0.9418
2426.000000 0.9419 0.9420 0.9421 0.9422 0.9423
2431.000000 0.9424 0.9426 0.9426 0.9427 0.9428
2436.000000 0.9430 0.9431 0.9432 0.9432 0.9434
2441.000000 0.9436 0.9437 0.9439 0.9441 0.9443
2446.000000 0.9444 0.9446 0.9448 0.9450 0.9452
2451.000000 0.9454 0.9455 0.9457 0.9458 0.9460
2456.000000 0.9461 0.9461 0.9461 0.9461 0.9461
2461.000000 0.9462 0.9462 0.9462 0.9463 0.9463
2466.000000 0.9464 0.9464 0.9464 0.9464 0.9464
2471.000000 0.9463 0.9461 0.9460 0.9459 0.9458
2476.000000 0.9457 0.9456 0.9455 0.9453 0.9452
2481.000000 0.9450 0.9449 0.9448 0.9446 0.9445
2486.000000 0.9443 0.9441 0.9440 0.9438 0.9437
2491.000000 0.9435 0.9433 0.9431 0.9429 0.9427
2496.000000 0.9425 0.9423 0.9422 0.9420 0.9418
2501.000000 0.9415 0.9413 0.9410 0.9407 0.9405
2506.000000 0.9402 0.9400 0.9397 0.9395 0.9393
2511.000000 0.9390 0.9388 0.9385 0.9383 0.9380
2516.000000 0.9376 0.9371 0.9367 0.9361 0.9356
2521.000000 0.9351 0.9345 0.9340 0.9335 0.9330
2526.000000 0.9325 0.9320 0.9314 0.9308 0.9301
2531.000000 0.9294 0.9288 0.9281 0.9274 0.9268
2536.000000 0.9261 0.9255 0.9249 0.9242 0.9236
2541.000000 0.9229 0.9223 0.9216 0.9210 0.9205
2546.000000 0.9200 0.9195 0.9190 0.9188 0.9188
2551.000000 0.9188 0.9187 0.9187 0.9186 0.9186
2556.000000 0.9186 0.9185 0.9183 0.9182 0.9179
2561.000000 0.9177 0.9174 0.9171 0.9168 0.9165
2566.000000 0.9162 0.9160 0.9157 0.9154 0.9145
2571.000000 0.9134 0.9123 0.9113 0.9104 0.9095
2576.000000 0.9088 0.9082 0.9077 0.9073 0.9068
2581.000000 0.9067 0.9066 0.9065 0.9063 0.9062
2586.000000 0.9061 0.9060 0.9058 0.9057 0.9056
2591.000000 0.9055 0.9054 0.9053 0.9053 0.9053
2596.000000 0.9053 0.9052 0.9052 0.9052 0.9052
2601.000000 0.9052 0.9051 0.9051 0.9051 0.9052
2606.000000 0.9053 0.9055 0.9057 0.9058 0.9060
2611.000000 0.9062 0.9064 0.9066 0.9068 0.9069
2616.000000 0.9071 0.9073 0.9075 0.9077 0.9079
2621.000000 0.9080 0.9083 0.9085 0.9087 0.9089
2626.000000 0.9090 0.9092 0.9093 0.9095 0.9096
2631.000000 0.9098 0.9099 0.9100 0.9101 0.9102
2636.000000 0.9104 0.9105 0.9107 0.9108 0.9110
2641.000000 0.9111 0.9112 0.9113 0.9114 0.9116
2646.000000 0.9117 0.9119 0.9120 0.9121 0.9123
2651.000000 0.9124 0.9125 0.9127 0.9128 0.9129
2656.000000 0.9130 0.9132 0.9133 0.9135 0.9136
2661.000000 0.9137 0.9138 0.9139 0.9141 0.9142
2666.000000 0.9144 0.9145 0.9146 0.9147 0.9149
2671.000000 0.9150 0.9151 0.9152 0.9154 0.9155
2676.000000 0.9157 0.9158 0.9159 0.9160 0.9161
2681.000000 0.9163 0.9164 0.9165 0.9167 0.9168
2686.000000 0.9169 0.9170 0.9170 0.9171 0.9171
2691.000000 0.9171 0.9172 0.9172 0.9173 0.9173
2696.000000 0.9174 0.9175 0.9175 0.9175 0.9176
2701.000000 0.9176 0.9176 0.9177 0.9177 0.9177
2706.000000 0.9178 0.9178 0.9178 0.9178 0.9176
2711.000000 0.9174 0.9171 0.9168 0.9166 0.9163
2716.000000 0.9160 0.9158 0.9155 0.9152 0.9149
2721.000000 0.9147 0.9144 0.9141 0.9137 0.9133
2726.000000 0.9128 0.9123 0.9118 0.9113 0.9108
2731.000000 0.9103 0.9099 0.9094 0.9089 0.9084
2736.000000 0.9079 0.9074 0.9070 0.9065 0.9060
2741.000000 0.9056 0.9051 0.9046 0.9041 0.9037
2746.000000 0.9034 0.9031 0.9029 0.9026 0.9024
2751.000000 0.9022 0.9019 0.9016 0.9014 0.9012
2756.000000 0.9009 0.9009 0.9009 0.9009 0.9010
2761.000000 0.9010 0.9010 0.9011 0.9011 0.9011
2766.000000 0.9011 0.9011 0.9011 0.9010 0.9010
2771.000000 0.9010 0.9009 0.9009 0.9008 0.9007
2776.000000 0.9007 0.9007 0.9006 0.9005 0.9004
2781.000000 0.9002 0.9001 0.8999 0.8997 0.8994
2786.000000 0.8990 0.8987 0.8982 0.8977 0.8972
2791.000000 0.8964 0.8955 0.8945 0.8928 0.8908
2796.000000 0.8887 0.8873 0.8864 0.8855 0.8847
2801.000000 0.8839 0.8830 0.8824 0.8820 0.8817
2806.000000 0.8814 0.8811 0.8808 0.8805 0.8803
2811.000000 0.8800 0.8798 0.8795 0.8792 0.8789
2816.000000 0.8786 0.8782 0.8778 0.8773 0.8767
2821.000000 0.8761 0.8753 0.8739 0.8725 0.8710
2826.000000 0.8682 0.8655 0.8627 0.8602 0.8577
2831.000000 0.8552 0.8527 0.8503 0.8478 0.8454
2836.000000 0.8430 0.8407 0.8383 0.8360 0.8337
2841.000000 0.8315 0.8294 0.8273 0.8252 0.8235
2846.000000 0.8218 0.8201 0.8149 0.8074 0.8000
2851.000000 0.7909 0.7791 0.7672 0.7553 0.7435
2856.000000 0.7316 0.7197 0.7079 0.6961 0.6843
2861.000000 0.6725 0.6607 0.6489 0.6371 0.6253
2866.000000 0.6136 0.6018 0.5901 0.5784 0.5666
2871.000000 0.5549 0.5432 0.5315 0.5197 0.5081
2876.000000 0.4964 0.4847 0.4731 0.4614 0.4498
2881.000000 0.4381 0.4265 0.4148 0.4032 0.3916
2886.000000 0.3800 0.3690 0.3611 0.3532 0.3452
2891.000000 0.3410 0.3375 0.3340 0.3299 0.3252
2896.000000 0.3205 0.3161 0.3134 0.3106 0.3079
2901.000000 0.3058 0.3039 0.3020 0.3001 0.2984
2906.000000 0.2966 0.2948 0.2932 0.2917 0.2901
2911.000000 0.2883 0.2863 0.2843 0.2826 0.2822
2916.000000 0.2818 0.2813 0.2809 0.2804 0.2800
2921.000000 0.2795 0.2790 0.2785 0.2780 0.2775
2926.000000 0.2769 0.2764 0.2758 0.2753 0.2747
2931.000000 0.2741 0.2734 0.2726 0.2719 0.2711
2936.000000 0.2704 0.2697 0.2689 0.2682 0.2674
2941.000000 0.2667 0.2653 0.2637 0.2621 0.2602
2946.000000 0.2577 0.2552 0.2527 0.2498 0.2468
2951.000000 0.2437 0.2369 0.2244 0.2119 0.1995
2956.000000 0.1959 0.1931 0.1904 0.1880 0.1861
2961.000000 0.1843 0.1824 0.1809 0.1794 0.1779
2966.000000 0.1762 0.1744 0.1726 0.1708 0.1602
2971.000000 0.1484 0.1365 0.1256 0.1163 0.1070
2976.000000 0.0976 0.0957 0.0956 0.0955 0.0953
2981.000000 0.0952 0.0950 0.0949 0.0948 0.0947
2986.000000 0.0946 0.0945 0.0945 0.0944 0.0943
2991.000000 0.0943 0.0943 0.0944 0.0944 0.0945
2996.000000 0.0946 0.0946 0.0947 0.0948 0.0948
3001.000000 0.0949 0.0925 0.0957 0.0961 0.0986
3006.000000 0.1101 0.1215 0.1329 0.1447 0.1568
3011.000000 0.1689 0.1810 0.1930 0.2051 0.2171
3016.000000 0.2292 0.2412 0.2532 0.2653 0.2773
3021.000000 0.2893 0.3013 0.3133 0.3252 0.3372
3026.000000 0.3492 0.3611 0.3731 0.3850 0.3969
3031.000000 0.4089 0.4208 0.4327 0.4446 0.4565
3036.000000 0.4683 0.4802 0.4921 0.5040 0.5159
3041.000000 0.5277 0.5396 0.5514 0.5632 0.5751
3046.000000 0.5869 0.5987 0.6104 0.6222 0.6340
3051.000000 0.6458 0.6575 0.6693 0.6810 0.6928
3056.000000 0.7045 0.7131 0.7207 0.7284 0.7359
3061.000000 0.7360 0.7361 0.7363 0.7364 0.7365
3066.000000 0.7367 0.7368 0.7365 0.7358 0.7351
3071.000000 0.7344 0.7334 0.7322 0.7310 0.7298
3076.000000 0.7286 0.7274 0.7261 0.7249 0.7237
3081.000000 0.7226 0.7214 0.7202 0.7190 0.7178
3086.000000 0.7166 0.7154 0.7142 0.7130 0.7118
3091.000000 0.7107 0.7095 0.7084 0.7072 0.7071
3096.000000 0.7071 0.7071 0.7070 0.7070 0.7069
3101.000000 0.7069 0.7072 0.7084 0.7096 0.7107
3106.000000 0.7133 0.7178 0.7222 0.7267 0.7312
3111.000000 0.7357 0.7401 0.7446 0.7490 0.7535
3116.000000 0.7579 0.7623 0.7668 0.7712 0.7757
3121.000000 0.7801 0.7845 0.7890 0.7934 0.7979
3126.000000 0.8023 0.8067 0.8111 0.8155 0.8200
3131.000000 0.8244 0.8288 0.8332 0.8376 0.8420
3136.000000 0.8464 0.8512 0.8575 0.8637 0.8700
3141.000000 0.8744 0.8747 0.8750 0.8754 0.8756
3146.000000 0.8759 0.8762 0.8765 0.8756 0.8769
3151.000000 0.8771 0.8773 0.8775 0.8775 0.8776
3156.000000 0.8776 0.8777 0.8777 0.8778 0.8778
3161.000000 0.8778 0.8778 0.8777 0.8777 0.8776
3166.000000 0.8775 0.8773 0.8772 0.8771 0.8770
3171.000000 0.8768 0.8767 0.8766 0.8763 0.8761
3176.000000 0.8759 0.8756 0.8751 0.8746 0.8742
3181.000000 0.8736 0.8727 0.8719 0.8710 0.8702
3186.000000 0.8693 0.8684 0.8675 0.8665 0.8656
3191.000000 0.8646 0.8637 0.8626 0.8613 0.8600
3196.000000 0.8586 0.8573 0.8566 0.8560 0.8553
3201.000000 0.8547 0.8540 0.8534 0.8528 0.8521
3206.000000 0.8520 0.8519 0.8518 0.8517 0.8516
3211.000000 0.8516 0.8515 0.8515 0.8514 0.8514
3216.000000 0.8513 0.8513 0.8513 0.8514 0.8516
3221.000000 0.8517 0.8528 0.8530 0.8540 0.8549
3226.000000 0.8558 0.8569 0.8579 0.8589 0.8599
3231.000000 0.8610 0.8622 0.8633 0.8645 0.8661
3236.000000 0.8677 0.8694 0.8711 0.8725 0.8739
3241.000000 0.8753 0.8766 0.8779 0.8789 0.8800
3246.000000 0.8811 0.8821 0.8828 0.8835 0.8843
3251.000000 0.8850 0.8855 0.8861 0.8867 0.8872
3256.000000 0.8875 0.8878 0.8880 0.8882 0.8885
3261.000000 0.8887 0.8889 0.8892 0.8894 0.8897
3266.000000 0.8899 0.8901 0.8904 0.8906 0.8908
3271.000000 0.8911 0.8913 0.8915 0.8916 0.8917
3276.000000 0.8919 0.8920 0.8922 0.8923 0.8924
3281.000000 0.8926 0.8927 0.8928 0.8929 0.8930
3286.000000 0.8931 0.8932 0.8933 0.8934 0.8921
3291.000000 0.8934 0.8934 0.8934 0.8933 0.8933
3296.000000 0.8933 0.8933 0.8933 0.8932 0.8932
3301.000000 0.8932 0.8932 0.8931 0.8930 0.8929
3306.000000 0.8928 0.8927 0.8926 0.8925 0.8924
3311.000000 0.8923 0.8922 0.8921 0.8919 0.8918
3316.000000 0.8917 0.8916 0.8915 0.8914 0.8913
3321.000000 0.8911 0.8909 0.8906 0.8904 0.8902
3326.000000 0.8900 0.8897 0.8895 0.8892 0.8885
3331.000000 0.8879 0.8872 0.8866 0.8858 0.8850
3336.000000 0.8841 0.8833 0.8824 0.8810 0.8796
3341.000000 0.8783 0.8769 0.8722 0.8665 0.8608
3346.000000 0.8551 0.8494 0.8437 0.8380 0.8324
3351.000000 0.8267 0.8211 0.8155 0.8098 0.8042
3356.000000 0.7986 0.7930 0.7873 0.7817 0.7761
3361.000000 0.7704 0.7648 0.7592 0.7536 0.7480
3366.000000 0.7424 0.7368 0.7312 0.7256 0.7200
3371.000000 0.7144 0.7089 0.7033 0.6977 0.6922
3376.000000 0.6866 0.6810 0.6755 0.6699 0.6643
3381.000000 0.6588 0.6532 0.6477 0.6421 0.6366
3386.000000 0.6310 0.6255 0.6200 0.6145 0.6090
3391.000000 0.6035 0.5980 0.5925 0.5869 0.5814
3396.000000 0.5759 0.5704 0.5649 0.5594 0.5539
3401.000000 0.5484 0.5429 0.5375 0.5320 0.5265
3406.000000 0.5210 0.5156 0.5101 0.5047 0.4992
3411.000000 0.4938 0.4883 0.4829 0.4774 0.4720
3416.000000 0.4665 0.4611 0.4557 0.4502 0.4448
3421.000000 0.4394 0.4340 0.4285 0.4231 0.4177
3426.000000 0.4123 0.4069 0.4015 0.3962 0.3921
3431.000000 0.3887 0.3854 0.3820 0.3787 0.3788
3436.000000 0.3785 0.3786 0.3786 0.3798 0.3851
3441.000000 0.3904 0.3957 0.4010 0.4084 0.4184
3446.000000 0.4283 0.4382 0.4481 0.4580 0.4679
3451.000000 0.4778 0.4877 0.4976 0.5074 0.5173
3456.000000 0.5272 0.5370 0.5469 0.5567 0.5665
3461.000000 0.5764 0.5862 0.5960 0.6058 0.6157
3466.000000 0.6255 0.6353 0.6451 0.6548 0.6646
3471.000000 0.6744 0.6842 0.6864 0.6864 0.6865
3476.000000 0.6865 0.6865 0.6855 0.6821 0.6798
3481.000000 0.6775 0.6750 0.6711 0.6672 0.6633
3486.000000 0.6594 0.6555 0.6516 0.6477 0.6438
3491.000000 0.6399 0.6360 0.6321 0.6282 0.6243
3496.000000 0.6204 0.6165 0.6127 0.6088 0.6050
3501.000000 0.6011 0.5972 0.5934 0.5895 0.5856
3506.000000 0.5818 0.5779 0.5740 0.5702 0.5663
3511.000000 0.5625 0.5586 0.5548 0.5509 0.5471
3516.000000 0.5432 0.5394 0.5356 0.5318 0.5279
3521.000000 0.5241 0.5203 0.5165 0.5127 0.5088
3526.000000 0.5050 0.5012 0.4974 0.4936 0.4897
3531.000000 0.4859 0.4821 0.4783 0.4745 0.4707
3536.000000 0.4669 0.4631 0.4594 0.4556 0.4518
3541.000000 0.4480 0.4443 0.4405 0.4367 0.4329
3546.000000 0.4291 0.4260 0.4231 0.4201 0.4171
3551.000000 0.4141 0.4137 0.4138 0.4138 0.4139
3556.000000 0.4139 0.4158 0.4141 0.4141 0.4142
3561.000000 0.4142 0.4235 0.4360 0.4484 0.4609
3566.000000 0.4733 0.4865 0.5001 0.5137 0.5273
3571.000000 0.5409 0.5545 0.5681 0.5816 0.5952
3576.000000 0.6088 0.6223 0.6358 0.6493 0.6628
3581.000000 0.6763 0.6898 0.7033 0.7168 0.7303
3586.000000 0.7438 0.7572 0.7705 0.7839 0.7972
3591.000000 0.8105 0.8234 0.8256 0.8278 0.8301
3596.000000 0.8323 0.8346 0.8367 0.8388 0.8410
3601.000000 0.8431 0.8452 0.8475 0.8499 0.8522
3606.000000 0.8546 0.8570 0.8594 0.8618 0.8643
3611.000000 0.8667 0.8692 0.8717 0.8742 0.8767
3616.000000 0.8792 0.8817 0.8841 0.8852 0.8864
3621.000000 0.8875 0.8886 0.8897 0.8904 0.8909
3626.000000 0.8914 0.8920 0.8925 0.8930 0.8936
3631.000000 0.8941 0.8946 0.8952 0.8957 0.8962
3636.000000 0.8968 0.8973 0.8978 0.8983 0.8988
3641.000000 0.8992 0.8996 0.9001 0.9005 0.9009
3646.000000 0.9012 0.9015 0.9018 0.9021 0.9025
3651.000000 0.9028 0.9031 0.9034 0.9037 0.9041
3656.000000 0.9044 0.9047 0.9050 0.9053 0.9056
3661.000000 0.9059 0.9062 0.9065 0.9068 0.9071
3666.000000 0.9073 0.9073 0.9073 0.9074 0.9074
3671.000000 0.9074 0.9075 0.9076 0.9076 0.9077
3676.000000 0.9077 0.9078 0.9078 0.9078 0.9079
3681.000000 0.9079 0.9080 0.9080 0.9080 0.9081
3686.000000 0.9081 0.9081 0.9095 0.9082 0.9083
3691.000000 0.9084 0.9084 0.9085 0.9085 0.9085
3696.000000 0.9086 0.9086 0.9086 0.9087 0.9087
3701.000000 0.9087 0.9087 0.9087 0.9087 0.9087
3706.000000 0.9087 0.9086 0.9086 0.9086 0.9085
3711.000000 0.9085 0.9085 0.9085 0.9085 0.9084
3716.000000 0.9084 0.9084 0.9083 0.9083 0.9083
3721.000000 0.9082 0.9082 0.9082 0.9081 0.9081
3726.000000 0.9080 0.9080 0.9080 0.9080 0.9080
3731.000000 0.9080 0.9079 0.9079 0.9079 0.9078
3736.000000 0.9078 0.9077 0.9077 0.9077 0.9076
3741.000000 0.9076 0.9076 0.9075 0.9075 0.9075
3746.000000 0.9075 0.9075 0.9075 0.9074 0.9074
3751.000000 0.9073 0.9073 0.9073 0.9072 0.9072
3756.000000 0.9072 0.9072 0.9072 0.9072 0.9071
3761.000000 0.9071 0.9071 0.9071 0.9071 0.9071
3766.000000 0.9070 0.9070 0.9069 0.9069 0.9069
3771.000000 0.9068 0.9068 0.9068 0.9068 0.9068
3776.000000 0.9068 0.9067 0.9067 0.9067 0.9067
3781.000000 0.9067 0.9067 0.9066 0.9066 0.9066
3786.000000 0.9066 0.9066 0.9065 0.9065 0.9065
3791.000000 0.9065 0.9065 0.9065 0.9065 0.9065
3796.000000 0.9065 0.9065 0.9065 0.9065 0.9064
3801.000000 0.9064 0.9064 0.9064 0.9064 0.9064
3806.000000 0.9063 0.9063 0.9063 0.9063 0.9063
3811.000000 0.9063 0.9063 0.9063 0.9063 0.9063
3816.000000 0.9063 0.9062 0.9062 0.9062 0.9062
3821.000000 0.9062 0.9062 0.9061 0.9061 0.9061
3826.000000 0.9061 0.9061 0.9061 0.9061 0.9061
3831.000000 0.9061 0.9061 0.9061 0.9061 0.9060
3836.000000 0.9060 0.9060 0.9060 0.9060 0.9060
3841.000000 0.9060 0.9060 0.9060 0.9060 0.9060
3846.000000 0.9060 0.9060 0.9060 0.9060 0.9060
3851.000000 0.9060 0.9060 0.9059 0.9059 0.9059
3856.000000 0.9059 0.9059 0.9059 0.9059 0.9059
3861.000000 0.9059 0.9059 0.9059 0.9058 0.9058
3866.000000 0.9057 0.9057 0.9056 0.9056 0.9055
3871.000000 0.9055 0.9054 0.9054 0.9053 0.9053
3876.000000 0.9052 0.9052 0.9052 0.9051 0.9051
3881.000000 0.9051 0.9050 0.9050 0.9049 0.9049
3886.000000 0.9049 0.9048 0.9048 0.9047 0.9047
3891.000000 0.9046 0.9046 0.9045 0.9045 0.9044
3896.000000 0.9044 0.9043 0.9043 0.9042 0.9042
3901.000000 0.9041 0.9041 0.9041 0.9040 0.9040
3906.000000 0.9040 0.9039 0.9038 0.9038 0.9037
3911.000000 0.9036 0.9036 0.9035 0.9034 0.9033
3916.000000 0.9033 0.9032 0.9031 0.9030 0.9029
3921.000000 0.9028 0.9028 0.9027 0.9026 0.9025
3926.000000 0.9024 0.9024 0.9023 0.9022 0.9021
3931.000000 0.9020 0.9020 0.9019 0.9018 0.9017
3936.000000 0.9016 0.9016 0.9015 0.9014 0.9013
3941.000000 0.9012 0.9011 0.9011 0.9009 0.9008
3946.000000 0.9006 0.9005 0.9004 0.9002 0.9001
3951.000000 0.8999 0.8998 0.8996 0.8995 0.8994
3956.000000 0.8992 0.8991 0.8989 0.8988 0.8986
3961.000000 0.8985 0.8983 0.8982 0.8980 0.8979
3966.000000 0.8977 0.8975 0.8974 0.8972 0.8971
3971.000000 0.8970 0.8968 0.8967 0.8965 0.8964
3976.000000 0.8961 0.8959 0.8957 0.8955 0.8952
3981.000000 0.8950 0.8948 0.8945 0.8943 0.8940
3986.000000 0.8938 0.8935 0.8933 0.8930 0.8928
3991.000000 0.8925 0.8923 0.8920 0.8917 0.8915
3996.000000 0.8912 0.8909 0.8907 0.8904 0.8902
##END=
