##TITLE=TRIS ETHYLENE DIAMINE COBALT CHLORIDE
##JCAMP-DX=4.24
##DATA TYPE=INFRARED SPECTRUM
##CLASS=COBLENTZ
##OWNER=COBLENTZ SOCIETY
Collection (C) 2018 copyright by the U.S. Secretary of Commerce
on behalf of the United States of America. All rights reserved.
##DATE=Not specified, most likely prior to 1970
##MOLFORM=C6 H24 Cl3 Co N6
##SOURCE REFERENCE=COBLENTZ NO. 427
##$NIST ID=B6000427
##$NIST SOURCE=COBLENTZ
##$NIST IMAGE=cob427
##SPECTROMETER/DATA SYSTEM=Not specified, most likely a prism, grating, or hybrid spectrometer.
##STATE=SOLID (2.2% KBr PELLET)
##PATH LENGTH=0.0031 CM THICK
##SAMPLING PROCEDURE=TRANSMISSION
##RESOLUTION=4
##DATA PROCESSING=DIGITIZED BY NIST FROM HARD COPY
##XUNITS=MICROMETERS
##YUNITS=TRANSMITTANCE
##XFACTOR=1.000000
##YFACTOR=1
##DELTAX=000.006667
##FIRSTX=2.04
##LASTX=16.0063
##FIRSTY=0.133
##MAXX=16.0063
##MINX=2.04
##MAXY=0.986
##MINY=0.013
##NPOINTS=2096
##XYDATA=(X++(Y..Y))
2.040000 0.1330 0.1430 0.1480 0.1530 0.1650
2.073349 0.1730 0.1780 0.1830 0.1860 0.1910
2.107000 0.1960 0.2010 0.2100 0.2110 0.2150
2.140349 0.2180 0.2230 0.2300 0.2330 0.2360
2.173000 0.2400 0.2430 0.2460 0.2510 0.2550
2.206349 0.2600 0.2630 0.2660 0.2680 0.2710
2.240000 0.2730 0.2750 0.2780 0.2800 0.2800
2.273349 0.2810 0.2830 0.2860 0.2900 0.2910
2.307000 0.2960 0.3000 0.3010 0.3010 0.3010
2.340349 0.3010 0.3030 0.3030 0.3060 0.3080
2.373000 0.3100 0.3110 0.3130 0.3180 0.3260
2.406349 0.3280 0.3280 0.3280 0.3280 0.3260
2.440000 0.3260 0.3260 0.3260 0.3280 0.3300
2.473349 0.3330 0.3350 0.3380 0.3410 0.3450
2.507000 0.3480 0.3530 0.3580 0.3650 0.3710
2.540349 0.3780 0.3830 0.3910 0.3960 0.4030
2.573000 0.4100 0.4130 0.4150 0.4160 0.4210
2.606349 0.4300 0.4330 0.4350 0.4350 0.4360
2.640000 0.4350 0.4330 0.4310 0.4260 0.4230
2.673349 0.4180 0.4050 0.3960 0.3860 0.3650
2.707000 0.3380 0.3100 0.2800 0.2500 0.2180
2.740349 0.2030 0.1860 0.1560 0.1300 0.1050
2.773000 0.0830 0.0650 0.0510 0.0460 0.0430
2.806349 0.0380 0.0360 0.0350 0.0350 0.0350
2.840000 0.0330 0.0330 0.0330 0.0350 0.0400
2.873349 0.0460 0.0560 0.0660 0.0780 0.0880
2.907000 0.1030 0.1300 0.1410 0.1610 0.1760
2.940349 0.1910 0.2110 0.2210 0.2300 0.2350
2.973000 0.2400 0.2410 0.2430 0.2480 0.2360
3.006349 0.2180 0.2080 0.1960 0.1760 0.1460
3.040000 0.1150 0.0830 0.0600 0.0460 0.0310
3.073349 0.0280 0.0280 0.0260 0.0250 0.0230
3.107000 0.0230 0.0210 0.0210 0.0200 0.0200
3.140349 0.0180 0.0180 0.0160 0.0150 0.0150
3.173000 0.0150 0.0150 0.0130 0.0150 0.0150
3.206349 0.0180 0.0200 0.0230 0.0300 0.0380
3.240000 0.0500 0.0560 0.0780 0.0910 0.1130
3.273349 0.1280 0.1410 0.1500 0.1550 0.1600
3.307000 0.1610 0.1630 0.1650 0.1660 0.1700
3.340349 0.1750 0.1810 0.1910 0.2160 0.2250
3.373000 0.2310 0.2360 0.2410 0.2480 0.2560
3.406349 0.2680 0.2830 0.2860 0.2950 0.3080
3.440000 0.3250 0.3410 0.3580 0.3710 0.3810
3.473349 0.3910 0.4100 0.4180 0.4280 0.4360
3.507000 0.4450 0.4530 0.4630 0.4710 0.4780
3.540349 0.4860 0.4930 0.5010 0.5060 0.5150
3.573000 0.5200 0.5250 0.5280 0.5310 0.5350
3.606349 0.5360 0.5380 0.5410 0.5450 0.5480
3.640000 0.5500 0.5560 0.5650 0.5730 0.5810
3.673349 0.5810 0.5800 0.5760 0.5700 0.5680
3.707000 0.5680 0.5700 0.5760 0.5800 0.5800
3.740349 0.5760 0.5680 0.5660 0.5630 0.5650
3.773000 0.5680 0.5730 0.5780 0.5780 0.5810
3.806349 0.5850 0.5910 0.5980 0.6130 0.6200
3.840000 0.6260 0.6300 0.6330 0.6350 0.6360
3.873349 0.6380 0.6400 0.6400 0.6360 0.6300
3.907000 0.6260 0.6230 0.6210 0.6180 0.6180
3.940349 0.6200 0.6210 0.6250 0.6260 0.6280
3.973000 0.6300 0.6330 0.6350 0.6380 0.6400
4.006349 0.6430 0.6450 0.6450 0.6480 0.6500
4.040000 0.6550 0.6550 0.6510 0.6450 0.6380
4.073349 0.6280 0.6200 0.6180 0.6180 0.6200
4.107000 0.6300 0.6300 0.6280 0.6230 0.6200
4.140349 0.6150 0.6130 0.6110 0.6100 0.6030
4.173000 0.6000 0.5960 0.5860 0.5460 0.5430
4.206349 0.5430 0.5450 0.5510 0.5750 0.5880
4.240000 0.6110 0.6180 0.6230 0.6230 0.6300
4.273349 0.6360 0.6430 0.6500 0.6550 0.6610
4.307000 0.6650 0.6700 0.6730 0.6750 0.6760
4.340349 0.6760 0.6780 0.6780 0.6750 0.6660
4.373000 0.6610 0.6600 0.6600 0.6650 0.6750
4.406349 0.6830 0.6910 0.7000 0.7060 0.7150
4.440000 0.7210 0.7280 0.7350 0.7430 0.7500
4.473349 0.7560 0.7650 0.7710 0.7800 0.7860
4.507000 0.7900 0.7910 0.7910 0.7930 0.7930
4.540349 0.7930 0.7900 0.7850 0.7780 0.7730
4.573000 0.7650 0.7610 0.7600 0.7560 0.7550
4.606349 0.7530 0.7510 0.7510 0.7500 0.7500
4.640000 0.7460 0.7410 0.7400 0.7400 0.7400
4.673349 0.7400 0.7400 0.7410 0.7510 0.7530
4.707000 0.7530 0.7510 0.7460 0.7460 0.7480
4.740349 0.7550 0.7480 0.7430 0.7410 0.7410
4.773000 0.7400 0.7400 0.7380 0.7380 0.7360
4.806349 0.7360 0.7330 0.7310 0.7310 0.7300
4.840000 0.7300 0.7300 0.7300 0.7300 0.7280
4.873349 0.7280 0.7280 0.7280 0.7300 0.7310
4.907000 0.7350 0.7380 0.7430 0.7460 0.7510
4.940349 0.7560 0.7610 0.7660 0.7680 0.7710
4.973000 0.7800 0.7860 0.7950 0.8130 0.8230
5.006349 0.8310 0.8380 0.8430 0.8460 0.8480
5.040000 0.8480 0.8510 0.8530 0.8580 0.8650
5.073349 0.8700 0.8730 0.8750 0.8710 0.8660
5.107000 0.8650 0.8610 0.8600 0.8580 0.8580
5.140349 0.8560 0.8550 0.8550 0.8530 0.8550
5.173000 0.8610 0.8650 0.8730 0.8810 0.8880
5.206349 0.8960 0.9030 0.9100 0.9160 0.9230
5.240000 0.9280 0.9350 0.9400 0.9450 0.9510
5.273349 0.9550 0.9560 0.9580 0.9600 0.9610
5.307000 0.9630 0.9630 0.9630 0.9650 0.9630
5.340349 0.9660 0.9700 0.9700 0.9700 0.9710
5.373000 0.9710 0.9730 0.9730 0.9730 0.9730
5.406349 0.9710 0.9730 0.9780 0.9850 0.9860
5.440000 0.9850 0.9800 0.9760 0.9730 0.9730
5.473349 0.9750 0.9750 0.9730 0.9710 0.9660
5.507000 0.9630 0.9600 0.9580 0.9550 0.9530
5.540349 0.9510 0.9510 0.9530 0.9560 0.9610
5.573000 0.9660 0.9700 0.9700 0.9710 0.9610
5.606349 0.9610 0.9700 0.9730 0.9760 0.9800
5.640000 0.9810 0.9830 0.9810 0.9810 0.9800
5.673349 0.9760 0.9700 0.9650 0.9610 0.9630
5.707000 0.9700 0.9700 0.9610 0.9550 0.9500
5.740349 0.9450 0.9380 0.9260 0.9230 0.9230
5.773000 0.9310 0.9300 0.9280 0.9230 0.9160
5.806349 0.9060 0.9010 0.9010 0.9010 0.9150
5.840000 0.9330 0.9330 0.9310 0.9310 0.9260
5.873349 0.9230 0.9230 0.9260 0.9400 0.9530
5.907000 0.9560 0.9580 0.9550 0.9350 0.9330
5.940349 0.9330 0.9510 0.9510 0.9480 0.9330
5.973000 0.9250 0.9210 0.9200 0.9160 0.9080
6.006349 0.8910 0.8850 0.8730 0.8610 0.8500
6.040000 0.8410 0.8360 0.8330 0.8260 0.8160
6.073349 0.8050 0.7930 0.7750 0.7580 0.7230
6.107000 0.6780 0.6200 0.5880 0.5550 0.4830
6.140349 0.4060 0.3680 0.3300 0.2530 0.2230
6.173000 0.1910 0.1580 0.1530 0.1530 0.1650
6.206349 0.1780 0.2010 0.2000 0.1860 0.1710
6.240000 0.1600 0.1510 0.1360 0.1230 0.1110
6.273349 0.0860 0.0780 0.0610 0.0580 0.0580
6.307000 0.0600 0.0710 0.0830 0.0980 0.1100
6.340349 0.1300 0.1330 0.1330 0.1330 0.1300
6.373000 0.1160 0.1130 0.1060 0.1030 0.0880
6.406349 0.0800 0.0860 0.1060 0.1230 0.1380
6.440000 0.1550 0.1750 0.2300 0.2660 0.3130
6.473349 0.3560 0.3950 0.4580 0.4860 0.5100
6.507000 0.5300 0.5480 0.5650 0.5760 0.5880
6.540349 0.5960 0.6130 0.6260 0.6450 0.6610
6.573000 0.6800 0.6930 0.7010 0.7080 0.7250
6.606349 0.7450 0.7660 0.7800 0.7880 0.7930
6.640000 0.7910 0.7860 0.7750 0.7630 0.7500
6.673349 0.7410 0.7410 0.7450 0.7650 0.7730
6.707000 0.7800 0.7830 0.7850 0.7650 0.7150
6.740349 0.6860 0.6550 0.6250 0.6100 0.5930
6.773000 0.5550 0.5080 0.4500 0.4110 0.3730
6.806349 0.2750 0.2200 0.2100 0.2110 0.2410
6.840000 0.2780 0.3210 0.3710 0.4760 0.5260
6.873349 0.5660 0.6310 0.6580 0.6800 0.6980
6.907000 0.7150 0.7300 0.7410 0.7510 0.7610
6.940349 0.7710 0.7810 0.7950 0.8080 0.8210
6.973000 0.8230 0.8280 0.8350 0.8430 0.8530
7.006349 0.8610 0.8680 0.8730 0.8860 0.8930
7.040000 0.8980 0.9010 0.9060 0.9100 0.9110
7.073349 0.9110 0.9110 0.9110 0.9110 0.9100
7.107000 0.9060 0.9010 0.9000 0.8980 0.9000
7.140349 0.9000 0.8980 0.8960 0.8930 0.8910
7.173000 0.8900 0.8880 0.8900 0.8910 0.8930
7.206349 0.9000 0.9010 0.9010 0.9000 0.8910
7.240000 0.8800 0.8680 0.8600 0.8310 0.8080
7.273349 0.7850 0.7150 0.6260 0.5710 0.5150
7.307000 0.4550 0.3930 0.3850 0.3850 0.3950
7.340349 0.5230 0.5760 0.6850 0.7460 0.7830
7.373000 0.8380 0.8610 0.8800 0.8980 0.9130
7.406349 0.9160 0.9210 0.9230 0.9230 0.9210
7.440000 0.9160 0.9110 0.9050 0.8930 0.8650
7.473349 0.8160 0.7780 0.7400 0.6250 0.5850
7.507000 0.5450 0.4680 0.4230 0.4210 0.4250
7.540349 0.4630 0.4960 0.5280 0.5580 0.5860
7.573000 0.6430 0.6710 0.7030 0.7360 0.7730
7.606349 0.8330 0.8350 0.8350 0.8330 0.8200
7.640000 0.8060 0.8010 0.7950 0.7780 0.7760
7.673349 0.7780 0.7930 0.8150 0.8300 0.8430
7.707000 0.8510 0.8610 0.8630 0.8610 0.8510
7.740349 0.8330 0.8250 0.8060 0.7950 0.7810
7.773000 0.7530 0.7210 0.6900 0.6580 0.6280
7.806349 0.6100 0.6080 0.6100 0.6200 0.6360
7.840000 0.6530 0.6700 0.6880 0.7060 0.7280
7.873349 0.7480 0.7680 0.7800 0.7810 0.7830
7.907000 0.7810 0.7700 0.7600 0.7410 0.7260
7.940349 0.7100 0.6910 0.6660 0.6350 0.6130
7.973000 0.5910 0.5600 0.5580 0.5600 0.5980
8.006349 0.6080 0.6210 0.6410 0.6650 0.6910
8.040000 0.7200 0.7480 0.7750 0.8210 0.8380
8.073349 0.8500 0.8530 0.8630 0.8730 0.8810
8.107000 0.8900 0.8910 0.8900 0.8900 0.8850
8.140349 0.8810 0.8760 0.8710 0.8680 0.8610
8.173000 0.8550 0.8450 0.8330 0.8160 0.8060
8.206349 0.8030 0.8060 0.8110 0.8200 0.8280
8.240000 0.8400 0.8500 0.8610 0.8730 0.8830
8.273349 0.8910 0.8980 0.9060 0.9150 0.9230
8.307000 0.9250 0.9260 0.9300 0.9310 0.9330
8.340349 0.9350 0.9350 0.9350 0.9350 0.9350
8.373000 0.9350 0.9310 0.9250 0.9230 0.9180
8.406349 0.9110 0.9050 0.8980 0.8900 0.8850
8.440000 0.8800 0.8780 0.8780 0.8800 0.8800
8.473349 0.8850 0.8880 0.8930 0.9000 0.9000
8.507000 0.8930 0.8850 0.8700 0.8500 0.8230
8.540349 0.8050 0.7860 0.7400 0.6810 0.6100
8.573000 0.5660 0.5230 0.4700 0.4200 0.4000
8.606349 0.3800 0.3600 0.3480 0.3410 0.3410
8.640000 0.3480 0.3800 0.4380 0.4680 0.4960
8.673349 0.5260 0.5580 0.5900 0.6560 0.6900
8.707000 0.7160 0.7380 0.7550 0.7700 0.7830
8.740349 0.7930 0.8080 0.8150 0.8230 0.8310
8.773000 0.8330 0.8330 0.8310 0.8260 0.8210
8.806349 0.8130 0.8030 0.7950 0.7860 0.7650
8.840000 0.7350 0.6950 0.6450 0.6130 0.5810
8.873349 0.5330 0.4900 0.4650 0.4560 0.4560
8.907000 0.4610 0.4830 0.5080 0.5350 0.5630
8.940349 0.5910 0.6430 0.6560 0.6650 0.6710
8.973000 0.6800 0.6860 0.6960 0.7080 0.7250
9.006349 0.7460 0.7730 0.7800 0.7900 0.8150
9.040000 0.8280 0.8400 0.8500 0.8600 0.8660
9.073349 0.8710 0.8730 0.8760 0.8800 0.8830
9.107000 0.8880 0.8910 0.8950 0.8960 0.8960
9.140349 0.9000 0.9010 0.9010 0.9010 0.9010
9.173000 0.9010 0.9000 0.8980 0.8980 0.8960
9.206349 0.8930 0.8900 0.8850 0.8800 0.8760
9.240000 0.8710 0.8680 0.8630 0.8580 0.8530
9.273349 0.8480 0.8410 0.8350 0.8280 0.8180
9.307000 0.8050 0.7980 0.7910 0.7730 0.7530
9.340349 0.7300 0.7010 0.6680 0.6300 0.6080
9.373000 0.5860 0.5380 0.4850 0.4230 0.3900
9.406349 0.3550 0.3180 0.2760 0.2380 0.2010
9.440000 0.1900 0.1760 0.1630 0.1550 0.1510
9.473349 0.1510 0.1560 0.1710 0.1880 0.2250
9.507000 0.2450 0.2660 0.2910 0.3200 0.3500
9.540349 0.3810 0.4580 0.5000 0.5230 0.5480
9.573000 0.5730 0.5960 0.6450 0.6660 0.6850
9.606349 0.7030 0.7160 0.7280 0.7350 0.7430
9.640000 0.7500 0.7560 0.7600 0.7630 0.7630
9.673349 0.7610 0.7630 0.7630 0.7630 0.7650
9.707000 0.7650 0.7650 0.7650 0.7660 0.7650
9.740349 0.7650 0.7650 0.7650 0.7630 0.7600
9.773000 0.7560 0.7560 0.7550 0.7550 0.7510
9.806349 0.7500 0.7480 0.7500 0.7510 0.7550
9.840000 0.7580 0.7600 0.7610 0.7650 0.7680
9.873349 0.7700 0.7680 0.7560 0.7530 0.7460
9.907000 0.7400 0.7280 0.7150 0.6960 0.6800
9.940349 0.6760 0.6760 0.6800 0.6880 0.7000
9.973000 0.7110 0.7250 0.7400 0.7530 0.7660
10.006349 0.7780 0.7880 0.8000 0.8000 0.7980
10.040000 0.8030 0.8100 0.8160 0.8230 0.8250
10.073349 0.8280 0.8260 0.8280 0.8300 0.8300
10.107000 0.8300 0.8310 0.8310 0.8350 0.8400
10.140349 0.8410 0.8400 0.8410 0.8410 0.8410
10.173000 0.8410 0.8430 0.8430 0.8450 0.8460
10.206349 0.8460 0.8480 0.8500 0.8510 0.8510
10.240000 0.8500 0.8510 0.8510 0.8530 0.8550
10.273349 0.8550 0.8560 0.8560 0.8560 0.8560
10.307000 0.8510 0.8510 0.8510 0.8510 0.8530
10.340349 0.8530 0.8580 0.8600 0.8600 0.8600
10.373000 0.8530 0.8530 0.8530 0.8530 0.8580
10.406349 0.8580 0.8580 0.8580 0.8580 0.8580
10.440000 0.8580 0.8580 0.8580 0.8580 0.8580
10.473349 0.8600 0.8610 0.8630 0.8650 0.8660
10.507000 0.8680 0.8700 0.8700 0.8700 0.8700
10.540349 0.8660 0.8680 0.8680 0.8700 0.8700
10.573000 0.8710 0.8710 0.8730 0.8730 0.8710
10.606349 0.8710 0.8710 0.8710 0.8710 0.8680
10.640000 0.8680 0.8680 0.8680 0.8680 0.8700
10.673349 0.8700 0.8700 0.8700 0.8700 0.8710
10.707000 0.8710 0.8730 0.8730 0.8750 0.8800
10.740349 0.8830 0.8830 0.8810 0.8810 0.8810
10.773000 0.8810 0.8810 0.8800 0.8800 0.8780
10.806349 0.8710 0.8700 0.8700 0.8700 0.8700
10.840000 0.8710 0.8750 0.8760 0.8760 0.8760
10.873349 0.8760 0.8750 0.8700 0.8680 0.8660
10.907000 0.8660 0.8660 0.8710 0.8710 0.8700
10.940349 0.8660 0.8630 0.8630 0.8610 0.8630
10.973000 0.8610 0.8610 0.8650 0.8650 0.8630
11.006349 0.8610 0.8600 0.8610 0.8600 0.8580
11.040000 0.8580 0.8560 0.8580 0.8560 0.8560
11.073349 0.8560 0.8550 0.8530 0.8510 0.8480
11.107000 0.8430 0.8300 0.8160 0.8030 0.7880
11.140349 0.7750 0.7600 0.7450 0.7310 0.7080
11.173000 0.7050 0.7060 0.7080 0.7130 0.7200
11.206349 0.7330 0.7480 0.7600 0.7710 0.7830
11.240000 0.7930 0.8130 0.8230 0.8330 0.8350
11.273349 0.8350 0.8350 0.8350 0.8350 0.8330
11.307000 0.8260 0.8180 0.8080 0.8050 0.8030
11.340349 0.8000 0.8000 0.7980 0.7980 0.8030
11.373000 0.8060 0.8100 0.8130 0.8160 0.8200
11.406349 0.8250 0.8280 0.8330 0.8380 0.8410
11.440000 0.8480 0.8530 0.8600 0.8660 0.8730
11.473349 0.8780 0.8800 0.8830 0.8850 0.8860
11.507000 0.8880 0.8900 0.8900 0.8900 0.8880
11.540349 0.8900 0.8900 0.8910 0.8910 0.8910
11.573000 0.8930 0.8930 0.8960 0.8980 0.8980
11.606349 0.8980 0.9000 0.9000 0.9000 0.9000
11.640000 0.9010 0.9010 0.9010 0.9010 0.9010
11.673349 0.9010 0.9010 0.9010 0.9030 0.9010
11.707000 0.9000 0.9000 0.9000 0.9000 0.9010
11.740349 0.9030 0.9010 0.9030 0.9050 0.9050
11.773000 0.9050 0.9050 0.9030 0.9050 0.9050
11.806349 0.9050 0.9050 0.9030 0.9010 0.9030
11.840000 0.9060 0.9060 0.9100 0.9100 0.9110
11.873349 0.9110 0.9100 0.9080 0.9080 0.9080
11.907000 0.9060 0.9080 0.9080 0.9080 0.9100
11.940349 0.9110 0.9130 0.9130 0.9150 0.9150
11.973000 0.9150 0.9150 0.9130 0.9110 0.9100
12.006349 0.9100 0.9080 0.9080 0.9060 0.9060
12.040000 0.9060 0.9050 0.9050 0.9050 0.9050
12.073349 0.9050 0.9050 0.9060 0.9060 0.9080
12.107000 0.9080 0.9080 0.9080 0.9100 0.9100
12.140349 0.9100 0.9080 0.9080 0.9060 0.9030
12.173000 0.9030 0.9010 0.9010 0.9010 0.9000
12.206349 0.9000 0.9000 0.8980 0.8960 0.8960
12.240000 0.8950 0.8930 0.8930 0.8910 0.8880
12.273349 0.8880 0.8860 0.8850 0.8810 0.8800
12.307000 0.8750 0.8730 0.8710 0.8700 0.8660
12.340349 0.8650 0.8650 0.8630 0.8610 0.8610
12.373000 0.8600 0.8580 0.8560 0.8530 0.8480
12.406349 0.8460 0.8430 0.8360 0.8330 0.8260
12.440000 0.8230 0.8200 0.8180 0.8150 0.8110
12.473349 0.8050 0.8000 0.7960 0.7930 0.7860
12.507000 0.7810 0.7730 0.7660 0.7580 0.7500
12.540349 0.7450 0.7380 0.7350 0.7300 0.7250
12.573000 0.7180 0.7100 0.6980 0.6860 0.6700
12.606349 0.6480 0.6260 0.6030 0.5930 0.5810
12.640000 0.5600 0.5400 0.5180 0.5000 0.4800
12.673349 0.4610 0.4430 0.4250 0.4080 0.4000
12.707000 0.3910 0.3750 0.3600 0.3450 0.3310
12.740349 0.3160 0.3030 0.2910 0.2780 0.2650
12.773000 0.2580 0.2480 0.2450 0.2360 0.2210
12.806349 0.2110 0.2060 0.2010 0.2000 0.1980
12.840000 0.1950 0.1880 0.1830 0.1780 0.1730
12.873349 0.1700 0.1680 0.1680 0.1680 0.1680
12.907000 0.1680 0.1700 0.1730 0.1780 0.1850
12.940349 0.1930 0.2130 0.2260 0.2400 0.2550
12.973000 0.2710 0.2810 0.2860 0.2910 0.2950
13.006349 0.3150 0.3350 0.3530 0.3700 0.3830
13.040000 0.3980 0.4230 0.4350 0.4480 0.4610
13.073349 0.4760 0.4910 0.4980 0.5030 0.5080
13.107000 0.5110 0.5180 0.5230 0.5300 0.5360
13.140349 0.5450 0.5530 0.5610 0.5680 0.5750
13.173000 0.5810 0.5860 0.5910 0.5950 0.6030
13.206349 0.6060 0.6110 0.6130 0.6130 0.6160
13.240000 0.6180 0.6200 0.6230 0.6280 0.6330
13.273349 0.6380 0.6450 0.6480 0.6500 0.6510
13.307000 0.6530 0.6530 0.6550 0.6510 0.6510
13.340349 0.6510 0.6510 0.6530 0.6580 0.6560
13.373000 0.6510 0.6500 0.6500 0.6560 0.6600
13.406349 0.6610 0.6630 0.6650 0.6660 0.6630
13.440000 0.6630 0.6630 0.6630 0.6630 0.6630
13.473349 0.6630 0.6650 0.6700 0.6730 0.6760
13.507000 0.6750 0.6780 0.6810 0.6880 0.6930
13.540349 0.7000 0.7060 0.7180 0.7260 0.7330
13.573000 0.7400 0.7450 0.7500 0.7550 0.7610
13.606349 0.7660 0.7750 0.7810 0.7900 0.7960
13.640000 0.7980 0.8060 0.8130 0.8150 0.8160
13.673349 0.8200 0.8230 0.8280 0.8330 0.8380
13.707000 0.8450 0.8500 0.8530 0.8560 0.8610
13.740349 0.8630 0.8650 0.8660 0.8680 0.8700
13.773000 0.8710 0.8730 0.8780 0.8810 0.8830
13.806349 0.8830 0.8800 0.8800 0.8800 0.8760
13.840000 0.8730 0.8730 0.8730 0.8750 0.8750
13.873349 0.8800 0.8800 0.8800 0.8800 0.8780
13.907000 0.8780 0.8780 0.8800 0.8800 0.8800
13.940349 0.8810 0.8810 0.8800 0.8810 0.8810
13.973000 0.8830 0.8830 0.8830 0.8830 0.8830
14.006349 0.8810 0.8750 0.8700 0.8700 0.8680
14.040000 0.8660 0.8580 0.8560 0.8530 0.8500
14.073349 0.8480 0.8380 0.8350 0.8280 0.8210
14.107000 0.8110 0.8000 0.7960 0.7910 0.7830
14.140349 0.7780 0.7730 0.7700 0.7630 0.7560
14.173000 0.7480 0.7380 0.7280 0.7160 0.7050
14.206349 0.6930 0.6810 0.6680 0.6550 0.6430
14.240000 0.6300 0.6160 0.6030 0.5980 0.5910
14.273349 0.5800 0.5680 0.5580 0.5480 0.5400
14.307000 0.5310 0.5250 0.5110 0.5060 0.5010
14.340349 0.5000 0.4950 0.4910 0.4900 0.4900
14.373000 0.4900 0.4910 0.5000 0.5000 0.5110
14.406349 0.5230 0.5330 0.5450 0.5560 0.5700
14.440000 0.5850 0.6180 0.6380 0.6600 0.6830
14.473349 0.7010 0.7180 0.7310 0.7430 0.7550
14.507000 0.7630 0.7710 0.7800 0.7860 0.7910
14.540349 0.7960 0.8050 0.8100 0.8130 0.8180
14.573000 0.8210 0.8260 0.8300 0.8330 0.8350
14.606349 0.8380 0.8400 0.8430 0.8450 0.8460
14.640000 0.8480 0.8500 0.8510 0.8510 0.8510
14.673349 0.8510 0.8510 0.8530 0.8530 0.8530
14.707000 0.8530 0.8530 0.8530 0.8530 0.8530
14.740349 0.8510 0.8510 0.8510 0.8510 0.8510
14.773000 0.8510 0.8510 0.8510 0.8510 0.8530
14.806349 0.8530 0.8530 0.8530 0.8550 0.8550
14.840000 0.8550 0.8580 0.8580 0.8600 0.8610
14.873349 0.8610 0.8600 0.8600 0.8560 0.8550
14.907000 0.8510 0.8500 0.8500 0.8500 0.8500
14.940349 0.8500 0.8500 0.8510 0.8530 0.8550
14.973000 0.8580 0.8580 0.8550 0.8530 0.8500
15.006349 0.8480 0.8430 0.8380 0.8350 0.8330
15.040000 0.8310 0.8300 0.8300 0.8300 0.8300
15.073349 0.8350 0.8330 0.8300 0.8280 0.8250
15.107000 0.8210 0.8150 0.8130 0.8130 0.8130
15.140349 0.8130 0.8160 0.8180 0.8200 0.8200
15.173000 0.8200 0.8180 0.8160 0.8150 0.8110
15.206349 0.8100 0.8080 0.8060 0.8060 0.8050
15.240000 0.8050 0.8050 0.8050 0.8050 0.8050
15.273349 0.8050 0.8050 0.8050 0.8030 0.8030
15.307000 0.8010 0.8000 0.8000 0.7980 0.7960
15.340349 0.7960 0.7950 0.7950 0.7930 0.7930
15.373000 0.7910 0.7910 0.7900 0.7900 0.7880
15.406349 0.7860 0.7850 0.7850 0.7830 0.7810
15.440000 0.7810 0.7810 0.7800 0.7800 0.7780
15.473349 0.7780 0.7760 0.7760 0.7760 0.7750
15.507000 0.7730 0.7710 0.7700 0.7660 0.7660
15.540349 0.7650 0.7630 0.7610 0.7580 0.7560
15.573000 0.7550 0.7530 0.7510 0.7530 0.7510
15.606349 0.7510 0.7510 0.7500 0.7480 0.7460
15.640000 0.7450 0.7430 0.7430 0.7410 0.7400
15.673349 0.7350 0.7330 0.7310 0.7300 0.7280
15.707000 0.7250 0.7230 0.7210 0.7160 0.7160
15.740349 0.7150 0.7150 0.7150 0.7150 0.7150
15.773000 0.7150 0.7150 0.7150 0.7130 0.7110
15.806349 0.7100 0.7080 0.7050 0.7030 0.7010
15.840000 0.7000 0.6960 0.6950 0.6950 0.6930
15.873349 0.6930 0.6930 0.6910 0.6900 0.6860
15.907000 0.6850 0.6810 0.6800 0.6760 0.6730
15.940349 0.6730 0.6710 0.6710 0.6710 0.6700
15.973000 0.6700 0.6700 0.6700 0.6700 0.6700
16.006349 0.6700
##END=
