##TITLE=STRONTIUM OXALATE
##JCAMP-DX=4.24
##DATA TYPE=INFRARED SPECTRUM
##CLASS=COBLENTZ
##OWNER=COBLENTZ SOCIETY
Collection (C) 2018 copyright by the U.S. Secretary of Commerce
on behalf of the United States of America. All rights reserved.
##DATE=Not specified, most likely prior to 1970
##MOLFORM=Sr C2 O4  * H2 O
##SOURCE REFERENCE=COBLENTZ NO. 66
##$NIST ID=B6000066
##$NIST SOURCE=COBLENTZ
##$NIST IMAGE=cob66
##SPECTROMETER/DATA SYSTEM=Not specified, most likely a prism, grating, or hybrid spectrometer.
##STATE=SOLID (KBr DISC)
##SAMPLING PROCEDURE=TRANSMISSION
##RESOLUTION=4
##DATA PROCESSING=DIGITIZED BY NIST FROM HARD COPY
##XUNITS=MICROMETERS
##YUNITS=TRANSMITTANCE
##XFACTOR=1.000000
##YFACTOR=1
##DELTAX=000.007601
##FIRSTX=2.024
##LASTX=15.0524
##FIRSTY=0.776
##MAXX=15.0524
##MINX=2.024
##MAXY=0.915
##MINY=0.063
##NPOINTS=1715
##XYDATA=(X++(Y..Y))
2.024000 0.7760 0.7780 0.7790 0.7810 0.7820
2.062029 0.7820 0.7840 0.7840 0.7850 0.7870
2.100000 0.7880 0.7880 0.7900 0.7910 0.7930
2.138029 0.7940 0.7960 0.7970 0.7990 0.7990
2.176000 0.7990 0.7990 0.8000 0.8020 0.8050
2.214029 0.8060 0.8060 0.8070 0.8100 0.8100
2.252000 0.8120 0.8130 0.8150 0.8160 0.8180
2.290029 0.8190 0.8210 0.8220 0.8250 0.8250
2.328000 0.8270 0.8280 0.8280 0.8300 0.8310
2.366029 0.8330 0.8340 0.8340 0.8360 0.8360
2.404000 0.8370 0.8370 0.8380 0.8380 0.8400
2.442029 0.8410 0.8430 0.8440 0.8460 0.8470
2.480000 0.8490 0.8500 0.8500 0.8520 0.8520
2.518029 0.8520 0.8520 0.8520 0.8520 0.8530
2.556000 0.8530 0.8530 0.8550 0.8550 0.8560
2.594029 0.8560 0.8560 0.8580 0.8590 0.8590
2.632000 0.8590 0.8590 0.8590 0.8590 0.8610
2.670029 0.8610 0.8620 0.8620 0.8620 0.8620
2.708000 0.8610 0.8580 0.8500 0.8410 0.8310
2.746029 0.8120 0.7880 0.7740 0.7510 0.7320
2.784000 0.6910 0.6660 0.6390 0.6210 0.5960
2.822029 0.5730 0.5490 0.5210 0.4910 0.4750
2.860000 0.4500 0.4400 0.4370 0.4370 0.4380
2.898029 0.4510 0.4570 0.4630 0.4690 0.4750
2.936000 0.4850 0.4990 0.4990 0.4990 0.4970
2.974029 0.4940 0.4940 0.4930 0.4930 0.4940
3.012000 0.4960 0.5110 0.5210 0.5310 0.5420
3.050029 0.5550 0.5580 0.5680 0.5760 0.5800
3.088000 0.5860 0.5890 0.5950 0.6010 0.6020
3.126029 0.6020 0.6020 0.6020 0.6020 0.6020
3.164000 0.6020 0.5960 0.5920 0.5870 0.5840
3.202029 0.5810 0.5790 0.5790 0.5790 0.5790
3.240000 0.5790 0.5790 0.5800 0.5840 0.5870
3.278029 0.5980 0.6080 0.6180 0.6270 0.6350
3.316000 0.6420 0.6510 0.6580 0.6660 0.6800
3.354029 0.6950 0.7000 0.7070 0.7100 0.7130
3.392000 0.7160 0.7220 0.7230 0.7250 0.7280
3.430029 0.7310 0.7410 0.7530 0.7600 0.7660
3.468000 0.7750 0.7790 0.7850 0.7880 0.7940
3.506029 0.7990 0.8030 0.8070 0.8090 0.8120
3.544000 0.8150 0.8160 0.8190 0.8240 0.8270
3.582029 0.8300 0.8310 0.8310 0.8330 0.8340
3.620000 0.8360 0.8370 0.8400 0.8440 0.8460
3.658029 0.8470 0.8490 0.8500 0.8520 0.8550
3.696000 0.8580 0.8610 0.8620 0.8650 0.8670
3.734029 0.8700 0.8710 0.8720 0.8740 0.8750
3.772000 0.8750 0.8770 0.8780 0.8780 0.8800
3.810029 0.8810 0.8810 0.8830 0.8840 0.8860
3.848000 0.8900 0.8900 0.8900 0.8920 0.8920
3.886029 0.8930 0.8930 0.8930 0.8950 0.8950
3.924000 0.8960 0.8950 0.8950 0.8950 0.8960
3.962029 0.8960 0.8960 0.8980 0.8990 0.8990
4.000000 0.9010 0.9010 0.9020 0.9030 0.9030
4.038029 0.9050 0.9050 0.9050 0.9060 0.9060
4.076000 0.9060 0.9060 0.9060 0.9060 0.9080
4.114029 0.9110 0.9110 0.9120 0.9120 0.9120
4.152000 0.9140 0.9140 0.9150 0.9140 0.9140
4.190029 0.9140 0.9150 0.9150 0.9150 0.9140
4.228000 0.9140 0.9120 0.9110 0.9110 0.9090
4.266029 0.9080 0.9080 0.9080 0.9080 0.9080
4.304000 0.9080 0.9080 0.9080 0.9090 0.9090
4.342029 0.9110 0.9110 0.9120 0.9120 0.9140
4.380000 0.9150 0.9150 0.9150 0.9150 0.9150
4.418029 0.9150 0.9150 0.9150 0.9150 0.9150
4.456000 0.9150 0.9140 0.9140 0.9140 0.9140
4.494029 0.9140 0.9140 0.9120 0.9090 0.9090
4.532000 0.9090 0.9090 0.9090 0.9090 0.9090
4.570029 0.9090 0.9090 0.9090 0.9090 0.9090
4.608000 0.9090 0.9090 0.9110 0.9110 0.9110
4.646029 0.9110 0.9110 0.9110 0.9110 0.9110
4.684000 0.9110 0.9110 0.9110 0.9110 0.9110
4.722029 0.9110 0.9110 0.9110 0.9110 0.9110
4.760000 0.9110 0.9110 0.9110 0.9110 0.9110
4.798029 0.9120 0.9120 0.9120 0.9120 0.9120
4.836000 0.9140 0.9140 0.9140 0.9140 0.9140
4.874029 0.9140 0.9140 0.9140 0.9140 0.9140
4.912000 0.9140 0.9140 0.9140 0.9140 0.9140
4.950029 0.9140 0.9120 0.9120 0.9120 0.9120
4.988000 0.9120 0.9120 0.9120 0.9120 0.9110
5.026029 0.9110 0.9090 0.9090 0.9090 0.9080
5.064000 0.9080 0.9060 0.9050 0.9050 0.9050
5.102029 0.9030 0.9020 0.9020 0.9010 0.8990
5.140000 0.8980 0.8960 0.8950 0.8930 0.8920
5.178029 0.8900 0.8890 0.8870 0.8860 0.8830
5.216000 0.8800 0.8780 0.8770 0.8740 0.8720
5.254029 0.8710 0.8680 0.8670 0.8650 0.8650
5.292000 0.8650 0.8650 0.8640 0.8640 0.8640
5.330029 0.8640 0.8620 0.8590 0.8580 0.8530
5.368000 0.8500 0.8470 0.8470 0.8460 0.8430
5.406029 0.8380 0.8340 0.8330 0.8310 0.8300
5.444000 0.8270 0.8270 0.8240 0.8190 0.8150
5.482029 0.8120 0.8070 0.8000 0.7970 0.7930
5.520000 0.7900 0.7870 0.7840 0.7820 0.7760
5.558029 0.7710 0.7660 0.7600 0.7590 0.7560
5.596000 0.7500 0.7400 0.7370 0.7310 0.7250
5.634029 0.7160 0.7100 0.7060 0.7000 0.6910
5.672000 0.6860 0.6800 0.6730 0.6670 0.6660
5.710029 0.6630 0.6570 0.6510 0.6450 0.6390
5.748000 0.6290 0.6180 0.6120 0.6050 0.5930
5.786029 0.5840 0.5760 0.5640 0.5580 0.5520
5.824000 0.5460 0.5300 0.5180 0.5000 0.4910
5.862029 0.4810 0.4720 0.4560 0.4430 0.4190
5.900000 0.4000 0.3880 0.3810 0.3610 0.3420
5.938029 0.3300 0.3190 0.2990 0.2830 0.2640
5.976000 0.2610 0.2450 0.2280 0.2110 0.1960
6.014029 0.1840 0.1770 0.1710 0.1590 0.1490
6.052000 0.1310 0.1100 0.1040 0.1040 0.1010
6.090029 0.0980 0.0930 0.0900 0.0840 0.0780
6.128000 0.0720 0.0700 0.0670 0.0660 0.0660
6.166029 0.0640 0.0640 0.0640 0.0630 0.0630
6.204000 0.0640 0.0670 0.0760 0.0850 0.0960
6.242029 0.1060 0.1190 0.1270 0.1380 0.1470
6.280000 0.1590 0.1690 0.1830 0.1900 0.2020
6.318029 0.2150 0.2250 0.2340 0.2400 0.2480
6.356000 0.2590 0.2640 0.2820 0.2890 0.2950
6.394029 0.2950 0.3040 0.3220 0.3450 0.3570
6.432000 0.3630 0.3730 0.3790 0.3840 0.3870
6.470029 0.3920 0.3980 0.4070 0.4160 0.4260
6.508000 0.4380 0.4440 0.4490 0.4540 0.4560
6.546029 0.4600 0.4620 0.4680 0.4770 0.4870
6.584000 0.4990 0.5060 0.5160 0.5190 0.5240
6.622029 0.5310 0.5420 0.5480 0.5580 0.5640
6.660000 0.5680 0.5730 0.5800 0.5860 0.5890
6.698029 0.5920 0.5960 0.6050 0.6110 0.6140
6.736000 0.6180 0.6210 0.6230 0.6240 0.6260
6.774029 0.6260 0.6270 0.6290 0.6300 0.6330
6.813000 0.6350 0.6360 0.6390 0.6390 0.6390
6.851029 0.6390 0.6390 0.6420 0.6450 0.6540
6.889000 0.6600 0.6730 0.6770 0.6790 0.6830
6.927029 0.6830 0.6850 0.6880 0.6890 0.6910
6.965000 0.6940 0.7000 0.7040 0.7090 0.7110
7.003029 0.7160 0.7170 0.7170 0.7170 0.7190
7.041000 0.7220 0.7230 0.7250 0.7260 0.7290
7.079029 0.7310 0.7310 0.7310 0.7310 0.7310
7.117000 0.7310 0.7310 0.7310 0.7260 0.7250
7.155029 0.7200 0.7130 0.7060 0.6950 0.6850
7.193000 0.6790 0.6730 0.6670 0.6640 0.6600
7.231029 0.6480 0.6380 0.6350 0.6330 0.6330
7.269000 0.6330 0.6320 0.6320 0.6320 0.6330
7.307029 0.6330 0.6350 0.6350 0.6350 0.6350
7.345000 0.6350 0.6330 0.6330 0.6290 0.6260
7.383029 0.6210 0.6200 0.6140 0.6120 0.6050
7.421000 0.6020 0.5960 0.5900 0.5810 0.5730
7.459029 0.5610 0.5460 0.5340 0.5180 0.5020
7.497000 0.4740 0.4340 0.4000 0.3750 0.3410
7.535029 0.3230 0.3040 0.2670 0.2370 0.2180
7.573000 0.1870 0.1550 0.1460 0.1400 0.1350
7.611029 0.1340 0.1370 0.1660 0.1740 0.2090
7.649000 0.2300 0.2540 0.2730 0.2900 0.3080
7.687029 0.3230 0.3660 0.3970 0.4100 0.4290
7.725000 0.4470 0.4660 0.4850 0.5050 0.5220
7.763029 0.5390 0.5500 0.5670 0.5740 0.5840
7.801000 0.5920 0.6010 0.6080 0.6180 0.6270
7.839029 0.6330 0.6350 0.6390 0.6420 0.6520
7.877000 0.6550 0.6580 0.6640 0.6750 0.6790
7.915029 0.6830 0.6890 0.6950 0.7010 0.7070
7.953000 0.7110 0.7140 0.7170 0.7200 0.7250
7.991029 0.7260 0.7290 0.7320 0.7370 0.7410
8.029000 0.7440 0.7470 0.7500 0.7530 0.7540
8.067029 0.7560 0.7570 0.7620 0.7650 0.7660
8.105000 0.7680 0.7690 0.7710 0.7720 0.7740
8.143029 0.7750 0.7780 0.7810 0.7820 0.7850
8.181000 0.7880 0.7900 0.7900 0.7910 0.7930
8.219029 0.7930 0.7940 0.7960 0.7970 0.7970
8.257000 0.7990 0.8000 0.8020 0.8020 0.8020
8.295029 0.8030 0.8060 0.8070 0.8090 0.8100
8.333000 0.8100 0.8100 0.8100 0.8120 0.8130
8.371029 0.8150 0.8160 0.8190 0.8210 0.8210
8.409000 0.8220 0.8240 0.8250 0.8270 0.8270
8.447029 0.8270 0.8270 0.8280 0.8280 0.8310
8.485000 0.8330 0.8330 0.8340 0.8360 0.8360
8.523029 0.8370 0.8370 0.8380 0.8380 0.8380
8.561000 0.8400 0.8400 0.8410 0.8410 0.8410
8.599029 0.8430 0.8430 0.8440 0.8440 0.8440
8.637000 0.8460 0.8460 0.8460 0.8460 0.8460
8.675029 0.8470 0.8470 0.8470 0.8490 0.8500
8.713000 0.8520 0.8520 0.8530 0.8530 0.8530
8.751029 0.8530 0.8530 0.8530 0.8550 0.8550
8.789000 0.8550 0.8550 0.8550 0.8550 0.8560
8.827029 0.8560 0.8560 0.8560 0.8560 0.8560
8.865000 0.8560 0.8560 0.8560 0.8560 0.8560
8.903029 0.8580 0.8580 0.8590 0.8590 0.8590
8.941000 0.8590 0.8590 0.8590 0.8590 0.8590
8.979029 0.8610 0.8610 0.8610 0.8610 0.8610
9.017000 0.8610 0.8620 0.8620 0.8620 0.8620
9.055029 0.8620 0.8640 0.8640 0.8640 0.8640
9.093000 0.8650 0.8650 0.8650 0.8650 0.8650
9.131029 0.8650 0.8650 0.8650 0.8670 0.8670
9.169000 0.8670 0.8670 0.8670 0.8670 0.8670
9.207029 0.8670 0.8670 0.8680 0.8680 0.8680
9.245000 0.8700 0.8700 0.8700 0.8700 0.8700
9.283029 0.8700 0.8710 0.8710 0.8720 0.8740
9.321000 0.8740 0.8750 0.8770 0.8770 0.8780
9.359029 0.8780 0.8780 0.8780 0.8780 0.8780
9.397000 0.8780 0.8780 0.8780 0.8780 0.8800
9.435029 0.8800 0.8800 0.8800 0.8800 0.8800
9.473000 0.8810 0.8810 0.8810 0.8810 0.8810
9.511029 0.8810 0.8810 0.8810 0.8810 0.8810
9.549000 0.8830 0.8830 0.8830 0.8830 0.8840
9.587029 0.8840 0.8840 0.8840 0.8840 0.8860
9.625000 0.8860 0.8860 0.8860 0.8870 0.8870
9.663029 0.8890 0.8890 0.8890 0.8890 0.8890
9.701000 0.8900 0.8900 0.8900 0.8900 0.8920
9.739029 0.8920 0.8920 0.8930 0.8930 0.8930
9.777000 0.8950 0.8950 0.8950 0.8950 0.8950
9.815029 0.8950 0.8950 0.8950 0.8950 0.8950
9.853000 0.8950 0.8950 0.8960 0.8960 0.8960
9.891029 0.8960 0.8960 0.8960 0.8960 0.8960
9.929000 0.8960 0.8960 0.8960 0.8960 0.8980
9.967029 0.8980 0.8980 0.8980 0.8990 0.8990
10.005000 0.8990 0.8990 0.8990 0.8990 0.8990
10.043029 0.8990 0.9010 0.9010 0.9010 0.9010
10.081000 0.9010 0.9010 0.9010 0.9020 0.9010
10.119029 0.9010 0.9010 0.9010 0.9020 0.9020
10.157000 0.9020 0.9020 0.9020 0.9020 0.9030
10.195029 0.9030 0.9030 0.9050 0.9050 0.9050
10.233000 0.9060 0.9060 0.9050 0.9050 0.9050
10.271029 0.9050 0.9050 0.9050 0.9050 0.9050
10.309000 0.9050 0.9050 0.9050 0.9050 0.9050
10.347029 0.9050 0.9050 0.9050 0.9060 0.9060
10.385000 0.9060 0.9060 0.9060 0.9060 0.9060
10.423029 0.9060 0.9060 0.9060 0.9060 0.9060
10.461000 0.9060 0.9060 0.9060 0.9060 0.9060
10.499029 0.9060 0.9060 0.9060 0.9060 0.9060
10.537000 0.9060 0.9060 0.9060 0.9060 0.9050
10.575029 0.9050 0.9050 0.9050 0.9050 0.9050
10.613000 0.9050 0.9060 0.9050 0.9050 0.9050
10.651029 0.9050 0.9050 0.9050 0.9050 0.9050
10.689000 0.9050 0.9050 0.9050 0.9050 0.9030
10.727029 0.9050 0.9050 0.9050 0.9050 0.9050
10.765000 0.9050 0.9050 0.9030 0.9030 0.9030
10.803029 0.9030 0.9020 0.9010 0.9010 0.8980
10.841000 0.8960 0.8950 0.8950 0.8930 0.8930
10.879029 0.8930 0.8930 0.8930 0.8920 0.8920
10.917000 0.8890 0.8890 0.8870 0.8870 0.8860
10.955029 0.8860 0.8860 0.8860 0.8860 0.8860
10.993000 0.8860 0.8860 0.8870 0.8870 0.8890
11.031029 0.8890 0.8900 0.8900 0.8900 0.8900
11.069000 0.8920 0.8920 0.8930 0.8950 0.8950
11.107029 0.8950 0.8950 0.8950 0.8950 0.8950
11.145000 0.8950 0.8950 0.8960 0.8960 0.8960
11.183029 0.8960 0.8960 0.8960 0.8960 0.8960
11.221000 0.8960 0.8960 0.8960 0.8960 0.8960
11.259029 0.8960 0.8950 0.8930 0.8930 0.8920
11.297000 0.8920 0.8920 0.8920 0.8900 0.8900
11.335029 0.8900 0.8900 0.8900 0.8890 0.8870
11.373000 0.8860 0.8840 0.8830 0.8830 0.8810
11.411029 0.8800 0.8800 0.8800 0.8780 0.8780
11.449000 0.8770 0.8750 0.8750 0.8740 0.8720
11.487029 0.8710 0.8700 0.8700 0.8680 0.8670
11.525000 0.8670 0.8640 0.8640 0.8620 0.8620
11.563029 0.8620 0.8620 0.8620 0.8610 0.8610
11.601000 0.8610 0.8610 0.8590 0.8590 0.8580
11.639029 0.8560 0.8560 0.8550 0.8550 0.8530
11.677000 0.8530 0.8520 0.8520 0.8520 0.8520
11.715029 0.8500 0.8500 0.8500 0.8500 0.8490
11.753000 0.8470 0.8470 0.8470 0.8470 0.8460
11.791029 0.8470 0.8470 0.8460 0.8460 0.8460
11.829000 0.8460 0.8470 0.8460 0.8460 0.8460
11.867029 0.8460 0.8460 0.8460 0.8460 0.8470
11.905000 0.8470 0.8470 0.8470 0.8470 0.8470
11.943029 0.8490 0.8500 0.8500 0.8520 0.8520
11.981000 0.8530 0.8530 0.8530 0.8530 0.8550
12.019029 0.8550 0.8560 0.8560 0.8560 0.8580
12.057000 0.8580 0.8560 0.8560 0.8580 0.8580
12.095029 0.8590 0.8610 0.8610 0.8640 0.8650
12.133000 0.8650 0.8650 0.8650 0.8670 0.8670
12.171029 0.8680 0.8680 0.8680 0.8680 0.8680
12.209000 0.8680 0.8680 0.8680 0.8680 0.8680
12.247029 0.8680 0.8700 0.8700 0.8700 0.8700
12.285000 0.8700 0.8700 0.8700 0.8700 0.8700
12.323029 0.8700 0.8700 0.8700 0.8700 0.8710
12.361000 0.8710 0.8710 0.8710 0.8710 0.8710
12.399029 0.8710 0.8710 0.8700 0.8700 0.8700
12.438000 0.8680 0.8680 0.8670 0.8640 0.8610
12.476029 0.8580 0.8560 0.8550 0.8530 0.8500
12.514000 0.8490 0.8440 0.8410 0.8380 0.8360
12.552029 0.8330 0.8280 0.8250 0.8220 0.8150
12.590000 0.8100 0.8050 0.7990 0.7960 0.7910
12.628029 0.7840 0.7790 0.7740 0.7690 0.7620
12.666000 0.7510 0.7450 0.7370 0.7230 0.7160
12.704029 0.7090 0.6950 0.6850 0.6770 0.6720
12.742000 0.6660 0.6580 0.6490 0.6440 0.6300
12.780029 0.6180 0.6070 0.5930 0.5650 0.5370
12.818000 0.5180 0.4880 0.4400 0.4030 0.3890
12.856029 0.3570 0.3420 0.3260 0.3110 0.3080
12.894000 0.3070 0.3070 0.3110 0.3260 0.3600
12.932029 0.3730 0.3980 0.4510 0.4680 0.4830
12.970000 0.5020 0.5120 0.5310 0.5420 0.5480
13.008029 0.5590 0.5680 0.5740 0.5790 0.5840
13.046000 0.5900 0.5950 0.5980 0.6020 0.6050
13.084029 0.6070 0.6110 0.6120 0.6150 0.6180
13.122000 0.6200 0.6230 0.6230 0.6240 0.6260
13.160029 0.6270 0.6270 0.6270 0.6290 0.6300
13.198000 0.6320 0.6320 0.6330 0.6330 0.6330
13.236029 0.6330 0.6350 0.6350 0.6350 0.6350
13.274000 0.6350 0.6350 0.6350 0.6350 0.6350
13.312029 0.6330 0.6330 0.6320 0.6300 0.6290
13.350000 0.6290 0.6290 0.6270 0.6260 0.6260
13.388029 0.6260 0.6260 0.6260 0.6270 0.6270
13.426000 0.6270 0.6290 0.6290 0.6290 0.6300
13.464029 0.6320 0.6350 0.6360 0.6360 0.6360
13.502000 0.6390 0.6440 0.6450 0.6480 0.6490
13.540029 0.6520 0.6570 0.6600 0.6610 0.6640
13.578000 0.6700 0.6720 0.6750 0.6760 0.6790
13.616029 0.6800 0.6850 0.6880 0.6920 0.6920
13.654000 0.6950 0.6950 0.6980 0.7010 0.7030
13.692029 0.7070 0.7100 0.7130 0.7140 0.7170
13.730000 0.7200 0.7230 0.7250 0.7260 0.7280
13.768029 0.7290 0.7310 0.7340 0.7350 0.7370
13.806000 0.7370 0.7400 0.7440 0.7450 0.7480
13.844029 0.7500 0.7500 0.7510 0.7530 0.7560
13.882000 0.7570 0.7590 0.7600 0.7620 0.7630
13.920029 0.7630 0.7650 0.7660 0.7680 0.7690
13.958000 0.7710 0.7710 0.7720 0.7720 0.7740
13.996029 0.7740 0.7750 0.7750 0.7760 0.7760
14.034000 0.7780 0.7790 0.7810 0.7820 0.7820
14.072029 0.7840 0.7840 0.7840 0.7840 0.7840
14.110000 0.7840 0.7840 0.7850 0.7850 0.7850
14.148029 0.7850 0.7850 0.7850 0.7850 0.7850
14.186000 0.7870 0.7880 0.7880 0.7900 0.7880
14.224029 0.7880 0.7880 0.7870 0.7870 0.7870
14.262000 0.7870 0.7870 0.7870 0.7870 0.7870
14.300029 0.7880 0.7880 0.7880 0.7880 0.7880
14.338000 0.7880 0.7880 0.7880 0.7880 0.7880
14.376029 0.7880 0.7880 0.7880 0.7880 0.7880
14.414000 0.7880 0.7880 0.7880 0.7880 0.7880
14.452029 0.7880 0.7880 0.7880 0.7880 0.7880
14.490000 0.7880 0.7880 0.7880 0.7880 0.7880
14.528029 0.7880 0.7880 0.7880 0.7880 0.7880
14.566000 0.7880 0.7880 0.7880 0.7880 0.7880
14.604029 0.7870 0.7870 0.7870 0.7870 0.7870
14.642000 0.7880 0.7880 0.7880 0.7880 0.7880
14.680029 0.7880 0.7880 0.7880 0.7880 0.7880
14.718000 0.7880 0.7880 0.7880 0.7880 0.7880
14.756029 0.7880 0.7880 0.7870 0.7870 0.7870
14.794000 0.7870 0.7870 0.7870 0.7870 0.7870
14.832029 0.7870 0.7870 0.7870 0.7850 0.7850
14.870000 0.7850 0.7840 0.7840 0.7840 0.7820
14.908029 0.7820 0.7820 0.7810 0.7810 0.7810
14.946000 0.7810 0.7810 0.7810 0.7810 0.7810
14.984029 0.7790 0.7790 0.7810 0.7810 0.7810
15.022000 0.7810 0.7810 0.7810 0.7810 0.7810
##END=
