##TITLE=SODIUM BISULFATE
$$ A.R.
##JCAMP-DX=4.24
##DATA TYPE=INFRARED SPECTRUM
##CLASS=COBLENTZ
##ORIGIN=MELLON INSTITUTE
##OWNER=COBLENTZ SOCIETY
Collection (C) 2018 copyright by the U.S. Secretary of Commerce
on behalf of the United States of America. All rights reserved.
##DATE=Not specified, most likely prior to 1970
##MOLFORM=Na H S O4
##SOURCE REFERENCE=COBLENTZ NO. 551
##$NIST ID=B6000551
##$NIST SOURCE=COBLENTZ
##$NIST IMAGE=cob551
##SPECTROMETER/DATA SYSTEM=Not specified, most likely a prism, grating, or hybrid spectrometer.
##STATE=SOLID (NUJOL MULL)
##PATH LENGTH=
$$SPECTRAL CONTAMINATION DUE TO OIL AROUND 2900, 1450, 1380 CM^-^1
##SAMPLING PROCEDURE=TRANSMISSION
##RESOLUTION=4
##DATA PROCESSING=DIGITIZED BY NIST FROM HARD COPY
##XUNITS=MICROMETERS
##YUNITS=TRANSMITTANCE
##XFACTOR=1.000000
##YFACTOR=1
##DELTAX=000.006663
##FIRSTX=2.014
##LASTX=15.999
##FIRSTY=0.907
##MAXX=15.999
##MINX=2.014
##MAXY=0.912
##MINY=0.3
##NPOINTS=2100
##XYDATA=(X++(Y..Y))
2.014000 0.9070 0.9070 0.9070 0.9070 0.9070
2.047329 0.9070 0.9070 0.9070 0.9070 0.9090
2.081000 0.9090 0.9090 0.9090 0.9090 0.9090
2.114329 0.9090 0.9090 0.9090 0.9090 0.9090
2.147000 0.9090 0.9090 0.9090 0.9090 0.9090
2.180329 0.9090 0.9090 0.9090 0.9090 0.9090
2.214000 0.9090 0.9090 0.9090 0.9090 0.9090
2.247329 0.9090 0.9090 0.9090 0.9090 0.9090
2.280000 0.9090 0.9090 0.9090 0.9090 0.9070
2.313329 0.9070 0.9070 0.9070 0.9070 0.9070
2.347000 0.9070 0.9070 0.9060 0.9070 0.9060
2.380329 0.9060 0.9060 0.9040 0.9040 0.9040
2.414000 0.9040 0.9040 0.9040 0.9040 0.9040
2.447329 0.9040 0.9040 0.9040 0.9040 0.9020
2.480000 0.9020 0.9020 0.9020 0.9020 0.9020
2.513329 0.9020 0.9010 0.9010 0.9010 0.8990
2.547000 0.8990 0.8990 0.8990 0.8990 0.8990
2.580329 0.8970 0.8950 0.8950 0.8950 0.8940
2.614000 0.8940 0.8920 0.8900 0.8900 0.8890
2.647329 0.8870 0.8850 0.8840 0.8820 0.8800
2.680000 0.8770 0.8740 0.8700 0.8690 0.8640
2.713329 0.8600 0.8540 0.8450 0.8370 0.8280
2.747000 0.8170 0.8000 0.7780 0.7680 0.7410
2.780329 0.7310 0.7040 0.6790 0.6660 0.6320
2.813000 0.5920 0.5570 0.5380 0.5250 0.5080
2.846329 0.4790 0.4730 0.4690 0.4660 0.4660
2.880000 0.4660 0.4680 0.4730 0.4840 0.4960
2.913329 0.5060 0.5130 0.5230 0.5330 0.5400
2.947000 0.5500 0.5530 0.5600 0.5670 0.5750
2.980329 0.5830 0.5870 0.5880 0.5880 0.5930
3.013000 0.5950 0.6020 0.6090 0.6150 0.6190
3.046329 0.6220 0.6250 0.6300 0.6340 0.6370
3.080000 0.6390 0.6420 0.6420 0.6450 0.6470
3.113329 0.6470 0.6490 0.6490 0.6510 0.6510
3.147000 0.6520 0.6520 0.6520 0.6520 0.6560
3.180329 0.6560 0.6560 0.6570 0.6570 0.6570
3.213000 0.6570 0.6570 0.6570 0.6560 0.6560
3.246329 0.6560 0.6540 0.6520 0.6510 0.6510
3.280000 0.6490 0.6450 0.6390 0.6220 0.6000
3.313329 0.5670 0.5480 0.5060 0.4490 0.4160
3.346000 0.3740 0.3570 0.3350 0.3170 0.3000
3.379329 0.3000 0.3030 0.3080 0.3100 0.3250
3.413000 0.3430 0.3540 0.3650 0.3700 0.3720
3.446329 0.3720 0.3740 0.3750 0.3770 0.3850
3.480000 0.4060 0.4370 0.4560 0.5050 0.5330
3.513329 0.5630 0.5950 0.6020 0.6250 0.6470
3.546000 0.6610 0.6740 0.6860 0.7010 0.7080
3.579329 0.7130 0.7160 0.7190 0.7240 0.7280
3.613000 0.7340 0.7410 0.7440 0.7460 0.7480
3.646329 0.7530 0.7530 0.7580 0.7610 0.7630
3.680000 0.7660 0.7680 0.7730 0.7750 0.7750
3.713329 0.7760 0.7780 0.7780 0.7800 0.7800
3.746000 0.7800 0.7800 0.7800 0.7800 0.7800
3.779329 0.7780 0.7760 0.7750 0.7730 0.7700
3.813000 0.7680 0.7660 0.7650 0.7630 0.7610
3.846329 0.7580 0.7580 0.7560 0.7560 0.7560
3.879000 0.7580 0.7580 0.7610 0.7610 0.7630
3.912329 0.7650 0.7650 0.7660 0.7700 0.7700
3.946000 0.7710 0.7710 0.7710 0.7710 0.7710
3.979329 0.7710 0.7710 0.7710 0.7710 0.7730
4.013000 0.7730 0.7730 0.7730 0.7750 0.7750
4.046329 0.7760 0.7780 0.7800 0.7810 0.7810
4.079000 0.7830 0.7830 0.7830 0.7830 0.7850
4.112329 0.7860 0.7900 0.7900 0.7910 0.7930
4.146000 0.7950 0.7950 0.7950 0.7930 0.7930
4.179329 0.7930 0.7910 0.7880 0.7860 0.7860
4.213000 0.7850 0.7830 0.7830 0.7830 0.7830
4.246329 0.7830 0.7830 0.7830 0.7830 0.7850
4.279000 0.7850 0.7850 0.7850 0.7860 0.7880
4.312329 0.7880 0.7910 0.7950 0.8000 0.8000
4.346000 0.8020 0.8030 0.8050 0.8080 0.8130
4.379329 0.8130 0.8150 0.8180 0.8200 0.8220
4.412000 0.8250 0.8270 0.8280 0.8300 0.8320
4.445329 0.8330 0.8330 0.8350 0.8350 0.8380
4.479000 0.8380 0.8400 0.8420 0.8430 0.8450
4.512329 0.8450 0.8500 0.8520 0.8540 0.8550
4.546000 0.8550 0.8550 0.8590 0.8600 0.8620
4.579329 0.8640 0.8640 0.8650 0.8650 0.8650
4.612000 0.8670 0.8670 0.8670 0.8670 0.8670
4.645329 0.8670 0.8670 0.8670 0.8650 0.8650
4.679000 0.8650 0.8670 0.8670 0.8670 0.8670
4.712329 0.8670 0.8670 0.8690 0.8690 0.8700
4.746000 0.8700 0.8720 0.8720 0.8740 0.8740
4.779329 0.8740 0.8750 0.8770 0.8770 0.8770
4.812000 0.8790 0.8770 0.8770 0.8790 0.8770
4.845329 0.8770 0.8790 0.8790 0.8790 0.8800
4.879000 0.8800 0.8800 0.8820 0.8820 0.8840
4.912329 0.8840 0.8850 0.8850 0.8870 0.8890
4.945000 0.8890 0.8900 0.8900 0.8900 0.8920
4.978329 0.8920 0.8940 0.8940 0.8940 0.8950
5.012000 0.8950 0.8970 0.8990 0.8970 0.8990
5.045329 0.8990 0.8990 0.8990 0.8990 0.9010
5.079000 0.9010 0.9010 0.9010 0.9020 0.9020
5.112329 0.9020 0.9020 0.9020 0.9020 0.9020
5.145000 0.9020 0.9040 0.9040 0.9040 0.9040
5.178329 0.9040 0.9040 0.9060 0.9060 0.9070
5.212000 0.9070 0.9090 0.9090 0.9110 0.9110
5.245329 0.9110 0.9090 0.9090 0.9110 0.9110
5.279000 0.9110 0.9090 0.9090 0.9090 0.9090
5.312329 0.9090 0.9110 0.9110 0.9110 0.9110
5.345000 0.9110 0.9110 0.9110 0.9120 0.9120
5.378329 0.9120 0.9120 0.9120 0.9120 0.9120
5.412000 0.9120 0.9120 0.9120 0.9110 0.9110
5.445329 0.9110 0.9090 0.9090 0.9090 0.9070
5.478000 0.9070 0.9060 0.9040 0.9060 0.9060
5.511329 0.9060 0.9040 0.9040 0.9040 0.9020
5.545000 0.9020 0.9020 0.9010 0.9010 0.9010
5.578329 0.8990 0.8990 0.9010 0.9010 0.9010
5.612000 0.9010 0.9010 0.9010 0.9020 0.9020
5.645329 0.9020 0.9010 0.9010 0.9010 0.9010
5.678000 0.9010 0.8990 0.8990 0.8990 0.8970
5.711329 0.8990 0.8990 0.8990 0.8970 0.8950
5.745000 0.8950 0.8950 0.8950 0.8940 0.8940
5.778329 0.8940 0.8940 0.8920 0.8900 0.8870
5.812000 0.8870 0.8850 0.8850 0.8840 0.8820
5.845329 0.8800 0.8770 0.8750 0.8720 0.8690
5.878000 0.8650 0.8640 0.8600 0.8570 0.8520
5.911329 0.8480 0.8430 0.8380 0.8330 0.8270
5.945000 0.8120 0.8000 0.7810 0.7660 0.7530
5.978329 0.7310 0.7130 0.6870 0.6740 0.6540
6.012000 0.6390 0.6340 0.6340 0.6340 0.6350
6.045329 0.6350 0.6370 0.6470 0.6560 0.6690
6.078000 0.6770 0.6940 0.7080 0.7280 0.7460
6.111329 0.7660 0.7810 0.7960 0.8020 0.8080
6.145000 0.8230 0.8320 0.8400 0.8500 0.8600
6.178329 0.8690 0.8720 0.8750 0.8790 0.8820
6.211000 0.8840 0.8870 0.8890 0.8900 0.8900
6.244329 0.8920 0.8920 0.8940 0.8940 0.8950
6.278000 0.8950 0.8970 0.8970 0.8990 0.8990
6.311329 0.8990 0.8990 0.8990 0.8990 0.8990
6.345000 0.8990 0.9010 0.9010 0.9010 0.9010
6.378329 0.9010 0.9010 0.9010 0.9010 0.9010
6.411000 0.9010 0.9010 0.9010 0.9010 0.9010
6.444329 0.9010 0.9010 0.9010 0.9010 0.9010
6.478000 0.9010 0.9010 0.9010 0.9010 0.9010
6.511329 0.9010 0.9010 0.9010 0.9010 0.9010
6.545000 0.9010 0.9010 0.9010 0.9010 0.9010
6.578329 0.9010 0.9010 0.9010 0.9010 0.9010
6.611000 0.9010 0.9010 0.9010 0.9010 0.9010
6.644329 0.9010 0.9010 0.9010 0.9010 0.8990
6.678000 0.8990 0.8990 0.8990 0.8970 0.8940
6.711329 0.8920 0.8870 0.8840 0.8770 0.8590
6.744000 0.8480 0.8400 0.8300 0.8180 0.8030
6.777329 0.7980 0.7910 0.7810 0.7730 0.7600
6.811000 0.7510 0.7440 0.7410 0.7390 0.7380
6.844329 0.7380 0.7380 0.7390 0.7410 0.7430
6.878000 0.7440 0.7460 0.7500 0.7530 0.7600
6.911329 0.7650 0.7700 0.7730 0.7760 0.7810
6.944000 0.7830 0.7860 0.7900 0.7930 0.8000
6.977329 0.8000 0.8020 0.8020 0.8020 0.8020
7.011000 0.8030 0.8030 0.8050 0.8050 0.8050
7.044329 0.8050 0.8050 0.8050 0.8030 0.8030
7.078000 0.8030 0.8020 0.8020 0.8020 0.8000
7.111329 0.8000 0.7980 0.7930 0.7910 0.7880
7.144000 0.7850 0.7810 0.7730 0.7610 0.7480
7.177329 0.7110 0.6840 0.6760 0.6740 0.6740
7.211000 0.6740 0.6740 0.6740 0.6740 0.6720
7.244329 0.6740 0.6740 0.6740 0.6720 0.6720
7.277000 0.6710 0.6710 0.6690 0.6690 0.6660
7.310329 0.6640 0.6620 0.6590 0.6540 0.6520
7.344000 0.6490 0.6450 0.6440 0.6400 0.6370
7.377329 0.6350 0.6290 0.6240 0.6170 0.6090
7.411000 0.6040 0.6000 0.5980 0.5900 0.5820
7.444329 0.5780 0.5730 0.5680 0.5630 0.5550
7.477000 0.5520 0.5480 0.5430 0.5380 0.5330
7.510329 0.5230 0.5180 0.5110 0.5060 0.5030
7.544000 0.4980 0.4910 0.4880 0.4840 0.4810
7.577329 0.4780 0.4760 0.4730 0.4690 0.4680
7.611000 0.4630 0.4610 0.4590 0.4580 0.4540
7.644329 0.4530 0.4510 0.4490 0.4470 0.4460
7.677000 0.4440 0.4420 0.4370 0.4370 0.4360
7.710329 0.4340 0.4320 0.4310 0.4290 0.4270
7.744000 0.4260 0.4240 0.4220 0.4210 0.4190
7.777329 0.4170 0.4160 0.4160 0.4140 0.4120
7.810000 0.4110 0.4090 0.4090 0.4070 0.4060
7.843329 0.4040 0.4020 0.4020 0.4010 0.3990
7.877000 0.3970 0.3950 0.3950 0.3940 0.3920
7.910329 0.3900 0.3890 0.3890 0.3870 0.3850
7.944000 0.3850 0.3840 0.3820 0.3820 0.3800
7.977329 0.3790 0.3790 0.3770 0.3770 0.3750
8.010000 0.3750 0.3750 0.3740 0.3740 0.3740
8.043329 0.3740 0.3740 0.3740 0.3740 0.3720
8.077000 0.3720 0.3740 0.3740 0.3740 0.3750
8.110329 0.3750 0.3800 0.3820 0.3840 0.3850
8.144000 0.3890 0.3920 0.3940 0.3940 0.3950
8.177329 0.3970 0.4010 0.4060 0.4090 0.4120
8.210000 0.4140 0.4170 0.4210 0.4240 0.4290
8.243329 0.4310 0.4320 0.4320 0.4340 0.4370
8.277000 0.4410 0.4410 0.4420 0.4420 0.4460
8.310329 0.4470 0.4470 0.4490 0.4490 0.4490
8.343000 0.4490 0.4470 0.4470 0.4460 0.4440
8.376329 0.4440 0.4420 0.4410 0.4390 0.4370
8.410000 0.4360 0.4340 0.4320 0.4310 0.4310
8.443329 0.4290 0.4270 0.4260 0.4260 0.4260
8.477000 0.4260 0.4260 0.4270 0.4270 0.4270
8.510329 0.4290 0.4290 0.4310 0.4320 0.4340
8.543000 0.4370 0.4390 0.4440 0.4490 0.4530
8.576329 0.4540 0.4590 0.4630 0.4680 0.4730
8.610000 0.4790 0.4840 0.4890 0.4940 0.4980
8.643329 0.5010 0.5050 0.5110 0.5200 0.5230
8.677000 0.5260 0.5330 0.5380 0.5480 0.5520
8.710329 0.5550 0.5620 0.5700 0.5750 0.5800
8.743000 0.5850 0.5880 0.5980 0.6020 0.6040
8.776329 0.6070 0.6120 0.6170 0.6240 0.6290
8.810000 0.6320 0.6370 0.6400 0.6440 0.6470
8.843329 0.6510 0.6540 0.6570 0.6610 0.6620
8.876000 0.6660 0.6690 0.6710 0.6720 0.6740
8.909329 0.6760 0.6810 0.6820 0.6840 0.6860
8.943000 0.6860 0.6890 0.6910 0.6920 0.6920
8.976329 0.6940 0.6960 0.6990 0.6990 0.7030
9.010000 0.7040 0.7040 0.7040 0.7060 0.7060
9.043329 0.7080 0.7080 0.7090 0.7090 0.7090
9.076000 0.7090 0.7090 0.7110 0.7110 0.7110
9.109329 0.7090 0.7090 0.7060 0.7040 0.7040
9.143000 0.7030 0.6990 0.6940 0.6910 0.6870
9.176329 0.6790 0.6710 0.6590 0.6510 0.6350
9.210000 0.6240 0.6140 0.6040 0.6000 0.5870
9.243329 0.5800 0.5720 0.5630 0.5570 0.5520
9.276000 0.5460 0.5430 0.5430 0.5430 0.5430
9.309329 0.5430 0.5430 0.5430 0.5450 0.5450
9.343000 0.5450 0.5450 0.5430 0.5430 0.5430
9.376329 0.5430 0.5410 0.5410 0.5400 0.5380
9.409000 0.5360 0.5350 0.5350 0.5330 0.5330
9.442329 0.5310 0.5300 0.5300 0.5300 0.5280
9.476000 0.5280 0.5250 0.5250 0.5230 0.5210
9.509329 0.5210 0.5200 0.5200 0.5180 0.5180
9.543000 0.5180 0.5180 0.5180 0.5180 0.5180
9.576329 0.5180 0.5200 0.5210 0.5230 0.5250
9.609000 0.5260 0.5300 0.5330 0.5360 0.5380
9.642329 0.5410 0.5460 0.5520 0.5570 0.5630
9.676000 0.5700 0.5800 0.5870 0.5930 0.6000
9.709329 0.6070 0.6220 0.6270 0.6400 0.6510
9.743000 0.6560 0.6620 0.6690 0.6720 0.6810
9.776329 0.6860 0.6920 0.7010 0.7060 0.7160
9.809000 0.7230 0.7280 0.7330 0.7380 0.7410
9.842329 0.7440 0.7510 0.7560 0.7630 0.7660
9.876000 0.7730 0.7750 0.7800 0.7830 0.7860
9.909329 0.7910 0.7950 0.8020 0.8020 0.8030
9.942000 0.8070 0.8100 0.8130 0.8170 0.8200
9.975329 0.8220 0.8230 0.8270 0.8300 0.8350
10.009000 0.8420 0.8430 0.8450 0.8450 0.8480
10.042329 0.8520 0.8540 0.8550 0.8570 0.8600
10.076000 0.8620 0.8620 0.8650 0.8670 0.8690
10.109329 0.8700 0.8720 0.8740 0.8740 0.8750
10.142000 0.8750 0.8770 0.8770 0.8790 0.8790
10.175329 0.8800 0.8820 0.8840 0.8850 0.8850
10.209000 0.8870 0.8870 0.8870 0.8890 0.8890
10.242329 0.8890 0.8900 0.8900 0.8900 0.8920
10.276000 0.8920 0.8940 0.8940 0.8940 0.8950
10.309329 0.8950 0.8950 0.8950 0.8970 0.8950
10.342000 0.8970 0.8970 0.8970 0.8970 0.8970
10.375329 0.8970 0.8970 0.8970 0.8970 0.8990
10.409000 0.8990 0.8990 0.9010 0.8990 0.8990
10.442329 0.8990 0.9010 0.9010 0.9010 0.9010
10.475000 0.9010 0.8990 0.8990 0.8990 0.9010
10.508329 0.9010 0.9010 0.9010 0.9010 0.9010
10.542000 0.9010 0.9010 0.9010 0.9010 0.9010
10.575329 0.9010 0.9010 0.8990 0.8990 0.8990
10.609000 0.8990 0.8990 0.8990 0.8990 0.8990
10.642329 0.8990 0.8970 0.8950 0.8940 0.8940
10.675000 0.8940 0.8940 0.8940 0.8920 0.8920
10.708329 0.8900 0.8900 0.8900 0.8890 0.8890
10.742000 0.8870 0.8870 0.8870 0.8850 0.8850
10.775329 0.8850 0.8840 0.8840 0.8840 0.8840
10.809000 0.8820 0.8800 0.8800 0.8770 0.8750
10.842329 0.8750 0.8740 0.8720 0.8720 0.8700
10.875000 0.8670 0.8670 0.8650 0.8640 0.8620
10.908329 0.8620 0.8620 0.8590 0.8590 0.8550
10.942000 0.8550 0.8540 0.8540 0.8540 0.8520
10.975329 0.8500 0.8480 0.8470 0.8450 0.8430
11.008000 0.8400 0.8380 0.8350 0.8350 0.8330
11.041329 0.8320 0.8280 0.8270 0.8220 0.8180
11.075000 0.8170 0.8130 0.8100 0.8050 0.8020
11.108329 0.8000 0.7930 0.7880 0.7830 0.7800
11.142000 0.7710 0.7660 0.7600 0.7550 0.7500
11.175329 0.7440 0.7410 0.7380 0.7310 0.7240
11.208000 0.7180 0.7130 0.7080 0.7030 0.6970
11.241329 0.6860 0.6790 0.6740 0.6690 0.6660
11.275000 0.6570 0.6490 0.6420 0.6390 0.6290
11.308329 0.6220 0.6140 0.6050 0.6020 0.5980
11.342000 0.5870 0.5800 0.5730 0.5630 0.5550
11.375329 0.5480 0.5450 0.5400 0.5300 0.5210
11.408000 0.5150 0.5100 0.5050 0.5050 0.5010
11.441329 0.5000 0.5000 0.4960 0.4940 0.4930
11.475000 0.4910 0.4890 0.4880 0.4860 0.4840
11.508329 0.4830 0.4830 0.4810 0.4810 0.4810
11.541000 0.4790 0.4790 0.4780 0.4780 0.4780
11.574329 0.4760 0.4760 0.4760 0.4760 0.4760
11.608000 0.4760 0.4760 0.4780 0.4780 0.4790
11.641329 0.4790 0.4810 0.4830 0.4840 0.4890
11.675000 0.4930 0.4960 0.5000 0.5030 0.5060
11.708329 0.5110 0.5150 0.5200 0.5250 0.5300
11.741000 0.5330 0.5380 0.5430 0.5480 0.5520
11.774329 0.5620 0.5670 0.5720 0.5730 0.5800
11.808000 0.5880 0.5930 0.6020 0.6000 0.6070
11.841329 0.6150 0.6220 0.6290 0.6350 0.6400
11.875000 0.6520 0.6570 0.6660 0.6740 0.6840
11.908329 0.6890 0.6920 0.7010 0.7030 0.7090
11.941000 0.7130 0.7160 0.7210 0.7310 0.7330
11.974329 0.7340 0.7380 0.7410 0.7480 0.7510
12.008000 0.7550 0.7580 0.7610 0.7650 0.7660
12.041329 0.7680 0.7710 0.7750 0.7760 0.7800
12.075000 0.7830 0.7850 0.7880 0.7910 0.7930
12.108329 0.8000 0.8020 0.8020 0.8030 0.8050
12.141000 0.8080 0.8100 0.8130 0.8150 0.8150
12.174329 0.8180 0.8180 0.8200 0.8220 0.8230
12.208000 0.8230 0.8250 0.8270 0.8270 0.8280
12.241329 0.8280 0.8300 0.8300 0.8300 0.8320
12.274000 0.8320 0.8330 0.8330 0.8330 0.8330
12.307329 0.8350 0.8350 0.8350 0.8370 0.8370
12.341000 0.8370 0.8370 0.8370 0.8350 0.8350
12.374329 0.8350 0.8350 0.8350 0.8350 0.8330
12.408000 0.8320 0.8320 0.8320 0.8320 0.8300
12.441329 0.8300 0.8300 0.8280 0.8280 0.8280
12.474000 0.8270 0.8270 0.8250 0.8250 0.8230
12.507329 0.8230 0.8230 0.8230 0.8220 0.8220
12.541000 0.8200 0.8200 0.8180 0.8180 0.8150
12.574329 0.8150 0.8150 0.8120 0.8100 0.8080
12.608000 0.8100 0.8080 0.8080 0.8080 0.8070
12.641329 0.8050 0.8050 0.8030 0.8020 0.8020
12.674000 0.8000 0.8000 0.7980 0.7980 0.7950
12.707329 0.7930 0.7930 0.7910 0.7900 0.7850
12.741000 0.7830 0.7830 0.7810 0.7800 0.7780
12.774329 0.7760 0.7760 0.7750 0.7750 0.7730
12.807000 0.7730 0.7710 0.7700 0.7680 0.7680
12.840329 0.7680 0.7660 0.7660 0.7660 0.7650
12.874000 0.7630 0.7630 0.7630 0.7630 0.7630
12.907329 0.7630 0.7630 0.7610 0.7610 0.7610
12.941000 0.7610 0.7610 0.7610 0.7610 0.7610
12.974329 0.7600 0.7600 0.7600 0.7600 0.7600
13.007000 0.7600 0.7600 0.7600 0.7600 0.7600
13.040329 0.7600 0.7610 0.7630 0.7610 0.7610
13.074000 0.7630 0.7630 0.7630 0.7650 0.7630
13.107329 0.7630 0.7650 0.7650 0.7650 0.7650
13.141000 0.7650 0.7650 0.7660 0.7660 0.7660
13.174329 0.7680 0.7680 0.7700 0.7700 0.7700
13.207000 0.7700 0.7700 0.7700 0.7700 0.7700
13.240329 0.7700 0.7700 0.7710 0.7710 0.7700
13.274000 0.7700 0.7710 0.7710 0.7710 0.7710
13.307329 0.7710 0.7710 0.7710 0.7710 0.7710
13.340000 0.7710 0.7700 0.7700 0.7700 0.7710
13.373329 0.7700 0.7700 0.7710 0.7700 0.7700
13.407000 0.7700 0.7680 0.7680 0.7660 0.7660
13.440329 0.7660 0.7650 0.7660 0.7660 0.7660
13.474000 0.7660 0.7650 0.7650 0.7650 0.7650
13.507329 0.7630 0.7630 0.7630 0.7630 0.7630
13.540000 0.7610 0.7610 0.7610 0.7600 0.7600
13.573329 0.7600 0.7580 0.7580 0.7580 0.7560
13.607000 0.7560 0.7550 0.7530 0.7530 0.7510
13.640329 0.7510 0.7510 0.7500 0.7500 0.7500
13.674000 0.7480 0.7480 0.7460 0.7460 0.7440
13.707329 0.7440 0.7440 0.7440 0.7440 0.7440
13.740000 0.7430 0.7430 0.7410 0.7410 0.7390
13.773329 0.7390 0.7390 0.7390 0.7390 0.7380
13.807000 0.7360 0.7360 0.7360 0.7360 0.7360
13.840329 0.7340 0.7340 0.7340 0.7330 0.7330
13.873000 0.7330 0.7310 0.7310 0.7290 0.7290
13.906329 0.7290 0.7260 0.7260 0.7260 0.7260
13.940000 0.7240 0.7240 0.7240 0.7230 0.7230
13.973329 0.7230 0.7230 0.7210 0.7190 0.7190
14.007000 0.7160 0.7160 0.7160 0.7160 0.7140
14.040329 0.7130 0.7130 0.7130 0.7110 0.7110
14.073000 0.7110 0.7090 0.7080 0.7060 0.7030
14.106329 0.7030 0.7030 0.7010 0.7010 0.7010
14.140000 0.6990 0.6990 0.6990 0.6990 0.6960
14.173329 0.6940 0.6920 0.6920 0.6920 0.6910
14.207000 0.6890 0.6890 0.6870 0.6860 0.6840
14.240329 0.6820 0.6820 0.6820 0.6820 0.6810
14.273000 0.6790 0.6770 0.6760 0.6760 0.6760
14.306329 0.6760 0.6740 0.6720 0.6720 0.6710
14.340000 0.6710 0.6670 0.6670 0.6660 0.6640
14.373329 0.6640 0.6640 0.6620 0.6620 0.6620
14.406000 0.6610 0.6590 0.6570 0.6540 0.6560
14.439329 0.6540 0.6520 0.6520 0.6510 0.6510
14.473000 0.6510 0.6490 0.6450 0.6450 0.6440
14.506329 0.6420 0.6420 0.6420 0.6420 0.6400
14.540000 0.6390 0.6370 0.6370 0.6350 0.6340
14.573329 0.6320 0.6300 0.6300 0.6270 0.6240
14.606000 0.6240 0.6220 0.6200 0.6220 0.6200
14.639329 0.6200 0.6190 0.6170 0.6170 0.6150
14.673000 0.6150 0.6140 0.6140 0.6140 0.6120
14.706329 0.6100 0.6070 0.6050 0.6050 0.6040
14.740000 0.6020 0.6040 0.6040 0.6020 0.6020
14.773329 0.6000 0.6000 0.6000 0.5980 0.5950
14.806000 0.5920 0.5920 0.5920 0.5900 0.5880
14.839329 0.5870 0.5870 0.5850 0.5830 0.5830
14.873000 0.5830 0.5820 0.5800 0.5800 0.5800
14.906329 0.5770 0.5770 0.5730 0.5730 0.5730
14.939000 0.5720 0.5700 0.5700 0.5700 0.5680
14.972329 0.5670 0.5670 0.5670 0.5650 0.5650
15.006000 0.5630 0.5630 0.5630 0.5620 0.5620
15.039329 0.5620 0.5600 0.5570 0.5570 0.5580
15.073000 0.5570 0.5570 0.5550 0.5550 0.5550
15.106329 0.5550 0.5550 0.5530 0.5550 0.5530
15.139000 0.5530 0.5530 0.5530 0.5530 0.5530
15.172329 0.5530 0.5530 0.5530 0.5520 0.5520
15.206000 0.5520 0.5520 0.5520 0.5520 0.5520
15.239329 0.5520 0.5520 0.5520 0.5520 0.5520
15.273000 0.5520 0.5530 0.5530 0.5530 0.5530
15.306329 0.5520 0.5520 0.5530 0.5530 0.5530
15.339000 0.5530 0.5550 0.5550 0.5550 0.5530
15.372329 0.5550 0.5550 0.5550 0.5550 0.5550
15.406000 0.5570 0.5580 0.5570 0.5580 0.5580
15.439329 0.5600 0.5620 0.5620 0.5620 0.5630
15.472000 0.5630 0.5650 0.5650 0.5650 0.5650
15.505329 0.5670 0.5680 0.5680 0.5680 0.5700
15.539000 0.5700 0.5700 0.5720 0.5720 0.5730
15.572329 0.5730 0.5730 0.5730 0.5750 0.5750
15.606000 0.5770 0.5770 0.5800 0.5800 0.5800
15.639329 0.5820 0.5820 0.5830 0.5850 0.5850
15.672000 0.5850 0.5870 0.5870 0.5880 0.5880
15.705329 0.5880 0.5900 0.5900 0.5900 0.5920
15.739000 0.5920 0.5930 0.5950 0.5970 0.5980
15.772329 0.6000 0.6000 0.6000 0.6020 0.6020
15.806000 0.6020 0.6020 0.6040 0.6040 0.6050
15.839329 0.6040 0.6050 0.6070 0.6100 0.6120
15.872000 0.6120 0.6140 0.6140 0.6150 0.6170
15.905329 0.6190 0.6200 0.6200 0.6220 0.6240
15.939000 0.6250 0.6270 0.6300 0.6340 0.6350
15.972329 0.6350 0.6390 0.6420 0.6440 0.6470
##END=
