##TITLE=Aniline, N-tert-butyl-2-ethyl-
##JCAMP-DX=4.24
##DATA TYPE=INFRARED SPECTRUM
##CLASS=COBLENTZ III
##ORIGIN=MONSANTO (J. FREEMAN)
##OWNER=Copyright (C) 1987 by the Coblentz Society
Collection (C) 2018 copyright by the U.S. Secretary of Commerce
on behalf of the United States of America. All rights reserved.
##DATE=1959/11/20
##NAMES=N-(tert-butyl)-N-(2-ethylphenyl)amine
N-(tert-butyl)-2-ethylaniline
##MOLFORM=C12 H19 N
##SOURCE REFERENCE=COBLENTZ NO. 9251
##$NIST ID=B6009251
##$NIST SOURCE=COBLENTZ
##$NIST IMAGE=cob9251
##SPECTROMETER/DATA SYSTEM=BECKMAN IR-4 (HYBRID PRISM-GRATING)
##INSTRUMENT PARAMETERS=NaCl PRISM
##STATE=LIQUID (NEAT)
##PATH LENGTH=CAPILLARY
##SAMPLING PROCEDURE=TRANSMISSION
##RESOLUTION=2
##DATA PROCESSING=DIGITIZED BY COBLENTZ SOCIETY (BATCH II) FROM HARD COPY (ADJUSTED \0.03-0.03-0)
##XUNITS=1/CM
##YUNITS=TRANSMITTANCE
##XFACTOR=1.0
##YFACTOR=1
##DELTAX=0.985947
##FIRSTX=625.997
##LASTX=3952.58
##FIRSTY=0.6792
##MAXX=3952.58
##MINX=625.997
##MAXY=0.9802
##MINY=0.0477693
##NPOINTS=3375
##XYDATA=(X++(Y..Y))
625.996918 0.6792 0.6790 0.6784 0.6783 0.6781
630.926655 0.6772 0.6751 0.6728 0.6701 0.6677
635.856392 0.6670 0.6678 0.6677 0.6677 0.6683
640.786128 0.6670 0.6649 0.6612 0.6577 0.6559
645.715865 0.6558 0.6566 0.6576 0.6585 0.6605
650.645602 0.6631 0.6658 0.6684 0.6708 0.6733
655.575338 0.6757 0.6772 0.6784 0.6794 0.6809
660.505075 0.6824 0.6836 0.6843 0.6845 0.6840
665.434812 0.6836 0.6837 0.6856 0.6900 0.6955
670.364548 0.7009 0.7057 0.7087 0.7094 0.7090
675.294285 0.7088 0.7104 0.7140 0.7193 0.7253
680.224022 0.7315 0.7373 0.7427 0.7479 0.7520
685.153758 0.7545 0.7572 0.7602 0.7642 0.7674
690.083495 0.7694 0.7712 0.7729 0.7747 0.7765
695.013232 0.7785 0.7804 0.7821 0.7836 0.7848
699.942968 0.7861 0.7874 0.7836 0.7796 0.7746
704.872705 0.7689 0.7604 0.7510 0.7423 0.7355
709.802442 0.7298 0.7275 0.7278 0.7305 0.7341
714.732178 0.7390 0.7432 0.7452 0.7445 0.7420
719.661915 0.7380 0.7320 0.7250 0.7158 0.7052
724.591652 0.6884 0.6701 0.6469 0.6211 0.5946
729.521388 0.5550 0.4994 0.4427 0.3715 0.2947
734.451125 0.2158 0.1693 0.1388 0.1111 0.0905
739.380862 0.0748 0.0592 0.0497 0.0478 0.0483
744.310598 0.0530 0.0628 0.0783 0.0932 0.1138
749.240335 0.1415 0.1711 0.2126 0.2745 0.3157
754.170072 0.3435 0.3715 0.3994 0.4273 0.4552
759.099808 0.4828 0.5105 0.5472 0.5803 0.6076
764.029545 0.6362 0.6628 0.6845 0.7017 0.7181
768.959282 0.7340 0.7488 0.7619 0.7725 0.7810
773.889018 0.7881 0.7964 0.8063 0.8148 0.8212
778.818755 0.8258 0.8290 0.8314 0.8331 0.8344
783.748492 0.8354 0.8366 0.8368 0.8349 0.8338
788.678228 0.8323 0.8305 0.8279 0.8247 0.8209
793.607965 0.8155 0.8093 0.8026 0.7955 0.7881
798.537702 0.7816 0.7754 0.7715 0.7721 0.7756
803.467438 0.7841 0.7937 0.8059 0.8168 0.8292
808.397175 0.8401 0.8542 0.8652 0.8694 0.8717
813.326912 0.8731 0.8739 0.8745 0.8742 0.8738
818.256648 0.8731 0.8794 0.8702 0.8687 0.8665
823.186385 0.8640 0.8615 0.8589 0.8556 0.8521
828.116122 0.8483 0.8435 0.8374 0.8305 0.8237
833.045858 0.8170 0.8105 0.8054 0.8096 0.8184
837.975595 0.8291 0.8394 0.8489 0.8568 0.8644
842.905332 0.8709 0.8739 0.8757 0.8777 0.8800
847.835068 0.8837 0.8886 0.8948 0.9025 0.9077
852.764805 0.9113 0.9141 0.9167 0.9190 0.9209
857.694542 0.9225 0.9241 0.9258 0.9273 0.9289
862.624278 0.9304 0.9319 0.9334 0.9351 0.9369
867.554015 0.9384 0.9397 0.9409 0.9422 0.9435
872.483752 0.9447 0.9456 0.9465 0.9475 0.9482
877.413488 0.9487 0.9492 0.9497 0.9501 0.9506
882.343225 0.9510 0.9513 0.9516 0.9518 0.9521
887.272962 0.9523 0.9525 0.9524 0.9509 0.9497
892.202698 0.9501 0.9493 0.9484 0.9474 0.9463
897.132435 0.9451 0.9439 0.9424 0.9410 0.9393
902.062172 0.9370 0.9346 0.9322 0.9290 0.9251
906.991908 0.9205 0.9155 0.9099 0.9033 0.8964
911.921645 0.8895 0.8825 0.8750 0.8654 0.8525
916.851382 0.8337 0.8146 0.7967 0.7843 0.7737
921.781118 0.7629 0.7629 0.7647 0.7727 0.7838
926.710855 0.7950 0.8062 0.8172 0.8283 0.8393
931.640592 0.8503 0.8613 0.8671 0.8709 0.8739
936.570328 0.8749 0.8754 0.8753 0.8745 0.8760
941.500065 0.8714 0.8666 0.8607 0.8514 0.8410
946.429802 0.8309 0.8209 0.8120 0.8036 0.7950
951.359538 0.7861 0.7780 0.7708 0.7660 0.7620
956.289275 0.7596 0.7575 0.7564 0.7556 0.7548
961.219012 0.7536 0.7511 0.7387 0.7221 0.7073
966.148748 0.6931 0.6863 0.6850 0.6863 0.6890
971.078485 0.6988 0.7246 0.7556 0.7867 0.8088
976.008222 0.8200 0.8269 0.8313 0.8333 0.8344
980.937958 0.8350 0.8363 0.8410 0.8487 0.8575
985.867695 0.8662 0.8757 0.8890 0.9019 0.9102
990.797432 0.9148 0.9176 0.9198 0.9217 0.9232
995.727168 0.9244 0.9252 0.9257 0.9262 0.9265
1000.656905 0.9276 0.9275 0.9264 0.9261 0.9255
1005.586642 0.9249 0.9241 0.9231 0.9220 0.9203
1010.516378 0.9178 0.9149 0.9118 0.9083 0.9041
1015.446115 0.8991 0.8931 0.8868 0.8789 0.8685
1020.375852 0.8573 0.8462 0.8352 0.8241 0.8141
1025.305588 0.8064 0.7997 0.7931 0.7867 0.7802
1030.235325 0.7728 0.7667 0.7655 0.7650 0.7690
1035.165062 0.7880 0.7964 0.8049 0.8115 0.8163
1040.094798 0.8197 0.8221 0.8227 0.8221 0.8214
1045.024535 0.8215 0.8101 0.7939 0.7753 0.7547
1049.954272 0.7319 0.6863 0.6378 0.5896 0.5418
1054.884008 0.5033 0.5064 0.5272 0.5754 0.5938
1059.813745 0.6019 0.6088 0.6145 0.6265 0.6544
1064.743482 0.6827 0.7110 0.7392 0.7687 0.8069
1069.673218 0.8254 0.8364 0.8490 0.8669 0.8793
1074.602955 0.8869 0.8916 0.8956 0.8996 0.9036
1079.532692 0.9072 0.9107 0.9141 0.9169 0.9193
1084.462428 0.9216 0.9230 0.9239 0.9246 0.9251
1089.392165 0.9255 0.9254 0.9256 0.9256 0.9255
1094.321902 0.9253 0.9249 0.9235 0.9212 0.9178
1099.251638 0.9140 0.9092 0.9043 0.8996 0.8944
1104.181375 0.8857 0.8754 0.8657 0.8569 0.8485
1109.111112 0.8404 0.8335 0.8272 0.8230 0.8193
1114.040848 0.8169 0.8148 0.8017 0.7861 0.7703
1118.970585 0.7605 0.7587 0.7573 0.7793 0.8191
1123.900322 0.8529 0.8669 0.8780 0.8880 0.8944
1128.830058 0.8982 0.9009 0.9026 0.9043 0.9055
1133.759795 0.9066 0.9084 0.9077 0.9078 0.9074
1138.689532 0.9068 0.9060 0.9047 0.9032 0.9014
1143.619268 0.8996 0.8978 0.8958 0.8938 0.8917
1148.549005 0.8889 0.8860 0.8827 0.8788 0.8745
1153.478742 0.8694 0.8618 0.8404 0.8186 0.7968
1158.408478 0.7751 0.7564 0.7497 0.7474 0.7512
1163.338215 0.7601 0.7696 0.7791 0.7857 0.7862
1168.267952 0.7839 0.7777 0.7590 0.7386 0.7181
1173.197688 0.6976 0.6772 0.6568 0.6366 0.6163
1178.127425 0.5979 0.5955 0.6017 0.6150 0.6291
1183.057162 0.6434 0.6574 0.6687 0.6706 0.6696
1187.986898 0.6661 0.6528 0.6328 0.6120 0.5913
1192.916635 0.5707 0.5500 0.5294 0.5049 0.4803
1197.846372 0.4453 0.4051 0.3642 0.3243 0.2948
1202.776108 0.2746 0.2583 0.2337 0.2133 0.2009
1207.705845 0.1918 0.1841 0.1769 0.1683 0.1534
1212.635582 0.1390 0.1243 0.1100 0.0973 0.0869
1217.565318 0.0788 0.0766 0.0761 0.0773 0.0785
1222.495055 0.0806 0.0842 0.1027 0.1269 0.1516
1227.424792 0.1763 0.2009 0.2255 0.2501 0.2745
1232.354528 0.2990 0.3235 0.3462 0.3618 0.3768
1237.284265 0.3909 0.4048 0.4187 0.4326 0.4463
1242.214002 0.4602 0.4740 0.4805 0.4810 0.4808
1247.143739 0.4530 0.4303 0.4099 0.3895 0.3691
1252.073475 0.3487 0.3284 0.3081 0.2878 0.2676
1257.003212 0.2474 0.2272 0.2071 0.1869 0.1760
1261.932949 0.1756 0.1885 0.2172 0.2504 0.2836
1266.862685 0.3167 0.3499 0.3829 0.4160 0.4489
1271.792422 0.4818 0.5146 0.5474 0.5802 0.6129
1276.722159 0.6398 0.6522 0.6563 0.6587 0.6598
1281.651895 0.6581 0.6581 0.6564 0.6460 0.6295
1286.581632 0.6118 0.5941 0.5765 0.5589 0.5432
1291.511369 0.5346 0.5300 0.5245 0.5187 0.5119
1296.441105 0.4990 0.4795 0.4587 0.4378 0.4170
1301.370842 0.3962 0.3755 0.3546 0.3362 0.3270
1306.300579 0.3274 0.3287 0.3303 0.3351 0.3386
1311.230315 0.3390 0.3375 0.3372 0.3330 0.3202
1316.160052 0.3137 0.3129 0.3148 0.3194 0.3242
1321.089789 0.3289 0.3335 0.3386 0.3438 0.3491
1326.019525 0.3645 0.3970 0.4216 0.4460 0.4703
1330.949262 0.4947 0.5190 0.5433 0.5675 0.5917
1335.878999 0.6160 0.6398 0.6581 0.6671 0.6779
1340.808735 0.6911 0.6988 0.7029 0.7032 0.7069
1345.738472 0.7066 0.7056 0.7026 0.6942 0.6770
1350.668209 0.6643 0.6532 0.6434 0.6366 0.6312
1355.597945 0.6259 0.6204 0.6117 0.5942 0.5572
1360.527682 0.5184 0.4878 0.4424 0.3687 0.2951
1365.457419 0.2227 0.1674 0.1653 0.1801 0.2219
1370.387155 0.2637 0.3053 0.3470 0.3886 0.4302
1375.316892 0.4716 0.5130 0.5543 0.5957 0.6367
1380.246629 0.6589 0.6591 0.6553 0.6149 0.6570
1385.176365 0.5268 0.4768 0.4309 0.3851 0.3393
1390.106102 0.2935 0.2566 0.2463 0.2445 0.3076
1395.035839 0.3640 0.4189 0.4737 0.5285 0.5831
1399.965575 0.6377 0.6915 0.7313 0.7497 0.7630
1404.895312 0.7700 0.7752 0.7788 0.7822 0.7852
1409.825049 0.7881 0.7879 0.7870 0.7853 0.7816
1414.754785 0.7772 0.7719 0.7650 0.7583 0.7517
1419.684522 0.7447 0.7378 0.7324 0.7275 0.7225
1424.614259 0.7175 0.7123 0.7032 0.6865 0.6675
1429.543995 0.6484 0.6294 0.6104 0.5914 0.5725
1434.473732 0.5536 0.5347 0.5158 0.4970 0.4782
1439.403469 0.4594 0.4406 0.4219 0.4032 0.3860
1444.333205 0.3742 0.3644 0.3478 0.3161 0.2760
1449.262942 0.2351 0.1954 0.1676 0.1539 0.1465
1454.192679 0.1427 0.1386 0.1379 0.1391 0.1387
1459.122415 0.1390 0.1397 0.1411 0.1440 0.1496
1464.052152 0.1566 0.1637 0.1708 0.1778 0.1849
1468.981889 0.1920 0.1990 0.2049 0.2078 0.2083
1473.911625 0.2065 0.2022 0.1975 0.1928 0.1880
1478.841362 0.1833 0.1786 0.1744 0.1724 0.1741
1483.771099 0.1839 0.2021 0.2203 0.2384 0.2565
1488.700835 0.2746 0.2927 0.3107 0.3285 0.3438
1493.630572 0.3511 0.3513 0.3518 0.3456 0.3280
1498.560309 0.3159 0.3038 0.2918 0.2797 0.2677
1503.490045 0.2557 0.2437 0.2318 0.2199 0.2079
1508.419782 0.1960 0.1840 0.1721 0.1603 0.1484
1513.349519 0.1366 0.1248 0.1137 0.1066 0.1050
1518.279255 0.1048 0.1051 0.1076 0.1204 0.1421
1523.208992 0.1647 0.1875 0.2100 0.2326 0.2552
1528.138729 0.2777 0.3003 0.3227 0.3452 0.3676
1533.068465 0.3899 0.4123 0.4347 0.4570 0.4793
1537.998202 0.5015 0.5237 0.5459 0.5680 0.5902
1542.927939 0.6123 0.6354 0.6693 0.7271 0.7386
1547.857675 0.7465 0.7542 0.7622 0.7705 0.7763
1552.787412 0.7797 0.7831 0.7857 0.7872 0.7888
1557.717149 0.7902 0.7915 0.7924 0.7933 0.7939
1562.646885 0.7941 0.7940 0.7923 0.7914 0.7848
1567.576622 0.7700 0.7583 0.7508 0.7456 0.7347
1572.506359 0.7058 0.6701 0.6344 0.5986 0.5627
1577.436095 0.5271 0.4914 0.4558 0.4202 0.3846
1582.365832 0.3492 0.3138 0.2783 0.2480 0.2345
1587.295569 0.2321 0.2321 0.2302 0.2570 0.2848
1592.225305 0.3122 0.3394 0.3561 0.3574 0.3603
1597.155042 0.3269 0.2997 0.2749 0.2500 0.2253
1602.084779 0.2005 0.1758 0.1518 0.1336 0.1321
1607.014515 0.1315 0.1494 0.1907 0.2373 0.2840
1611.944252 0.3307 0.3773 0.4238 0.4636 0.5252
1616.873989 0.5880 0.6236 0.6412 0.6527 0.6627
1621.803725 0.6718 0.6808 0.6908 0.7013 0.7117
1626.733462 0.7221 0.7325 0.7428 0.7532 0.7636
1631.663199 0.7739 0.7842 0.7946 0.8049 0.8161
1636.592935 0.8302 0.8446 0.8516 0.8550 0.8584
1641.522672 0.8614 0.8641 0.8668 0.8693 0.8715
1646.452409 0.8736 0.8756 0.8776 0.8796 0.8817
1651.382145 0.8839 0.8861 0.8878 0.8892 0.8902
1656.311882 0.8908 0.8912 0.8917 0.8921 0.8924
1661.241619 0.8927 0.8930 0.8933 0.8936 0.8938
1666.171355 0.8941 0.8944 0.8949 0.8953 0.8958
1671.101092 0.8962 0.8970 0.8981 0.8991 0.9002
1676.030829 0.9013 0.9026 0.9045 0.9068 0.9092
1680.960565 0.9116 0.9131 0.9138 0.9144 0.9150
1685.890302 0.9155 0.9160 0.9164 0.9169 0.9174
1690.820039 0.9178 0.9183 0.9187 0.9191 0.9196
1695.749775 0.9201 0.9205 0.9209 0.9214 0.9218
1700.679512 0.9222 0.9226 0.9229 0.9233 0.9236
1705.609249 0.9240 0.9243 0.9246 0.9249 0.9253
1710.538985 0.9256 0.9260 0.9265 0.9270 0.9275
1715.468722 0.9280 0.9285 0.9290 0.9295 0.9300
1720.398459 0.9305 0.9310 0.9316 0.9321 0.9326
1725.328195 0.9332 0.9337 0.9343 0.9348 0.9353
1730.257932 0.9359 0.9365 0.9371 0.9379 0.9388
1735.187669 0.9397 0.9405 0.9413 0.9422 0.9432
1740.117405 0.9442 0.9451 0.9457 0.9459 0.9461
1745.047142 0.9462 0.9461 0.9459 0.9457 0.9456
1749.976879 0.9453 0.9449 0.9442 0.9435 0.9429
1754.906615 0.9421 0.9412 0.9401 0.9389 0.9378
1759.836352 0.9366 0.9353 0.9341 0.9329 0.9317
1764.766089 0.9304 0.9295 0.9287 0.9278 0.9269
1769.695825 0.9261 0.9250 0.9232 0.9242 0.9242
1774.625562 0.9246 0.9251 0.9256 0.9260 0.9264
1779.555299 0.9269 0.9274 0.9280 0.9287 0.9292
1784.485035 0.9297 0.9300 0.9304 0.9307 0.9309
1789.414772 0.9311 0.9311 0.9311 0.9310 0.9309
1794.344509 0.9308 0.9308 0.9307 0.9306 0.9305
1799.274245 0.9304 0.9304 0.9303 0.9302 0.9301
1804.203982 0.9301 0.9300 0.9299 0.9298 0.9298
1809.133719 0.9296 0.9295 0.9295 0.9296 0.9298
1814.063455 0.9302 0.9307 0.9315 0.9324 0.9332
1818.993192 0.9341 0.9349 0.9357 0.9363 0.9367
1823.922929 0.9372 0.9376 0.9380 0.9384 0.9388
1828.852665 0.9392 0.9396 0.9401 0.9404 0.9405
1833.782402 0.9404 0.9403 0.9400 0.9399 0.9397
1838.712139 0.9396 0.9394 0.9392 0.9390 0.9389
1843.641875 0.9387 0.9385 0.9383 0.9381 0.9380
1848.571612 0.9378 0.9377 0.9376 0.9375 0.9374
1853.501349 0.9374 0.9374 0.9373 0.9373 0.9372
1858.431085 0.9372 0.9372 0.9373 0.9375 0.9376
1863.360822 0.9377 0.9379 0.9380 0.9381 0.9382
1868.290559 0.9380 0.9374 0.9365 0.9352 0.9338
1873.220296 0.9325 0.9311 0.9290 0.9261 0.9228
1878.150032 0.9194 0.9165 0.9146 0.9129 0.9113
1883.079769 0.9098 0.9083 0.9072 0.9036 0.9053
1888.009506 0.9057 0.9052 0.9047 0.9045 0.9045
1892.939242 0.9045 0.9047 0.9051 0.9056 0.9061
1897.868979 0.9065 0.9070 0.9081 0.9092 0.9102
1902.798716 0.9112 0.9120 0.9128 0.9137 0.9144
1907.728452 0.9150 0.9154 0.9156 0.9158 0.9158
1912.658189 0.9158 0.9157 0.9156 0.9155 0.9153
1917.587926 0.9151 0.9149 0.9149 0.9148 0.9148
1922.517662 0.9148 0.9148 0.9149 0.9152 0.9161
1927.447399 0.9170 0.9179 0.9188 0.9199 0.9210
1932.377136 0.9222 0.9235 0.9249 0.9265 0.9279
1937.306872 0.9292 0.9305 0.9318 0.9333 0.9350
1942.236609 0.9367 0.9382 0.9395 0.9405 0.9415
1947.166346 0.9426 0.9437 0.9448 0.9458 0.9470
1952.096082 0.9483 0.9499 0.9515 0.9529 0.9539
1957.025819 0.9547 0.9556 0.9564 0.9573 0.9582
1961.955556 0.9593 0.9605 0.9616 0.9626 0.9635
1966.885292 0.9643 0.9651 0.9658 0.9662 0.9663
1971.815029 0.9664 0.9665 0.9666 0.9666 0.9667
1976.744766 0.9668 0.9668 0.9669 0.9669 0.9670
1981.674502 0.9671 0.9671 0.9672 0.9672 0.9672
1986.604239 0.9672 0.9672 0.9672 0.9671 0.9671
1991.533976 0.9671 0.9671 0.9671 0.9671 0.9671
1996.463712 0.9671 0.9671 0.9671 0.9671 0.9671
2001.393449 0.9671 0.9671 0.9672 0.9672 0.9672
2006.323186 0.9672 0.9672 0.9672 0.9672 0.9672
2011.252922 0.9673 0.9673 0.9673 0.9673 0.9673
2016.182659 0.9673 0.9673 0.9674 0.9674 0.9674
2021.112396 0.9674 0.9674 0.9674 0.9674 0.9674
2026.042132 0.9674 0.9674 0.9674 0.9674 0.9674
2030.971869 0.9674 0.9674 0.9674 0.9674 0.9674
2035.901606 0.9674 0.9674 0.9674 0.9674 0.9674
2040.831342 0.9674 0.9674 0.9674 0.9674 0.9674
2045.761079 0.9674 0.9674 0.9674 0.9674 0.9674
2050.690816 0.9674 0.9674 0.9674 0.9674 0.9674
2055.620552 0.9674 0.9674 0.9674 0.9674 0.9674
2060.550289 0.9674 0.9674 0.9674 0.9674 0.9674
2065.480026 0.9674 0.9673 0.9673 0.9673 0.9673
2070.409762 0.9673 0.9673 0.9673 0.9673 0.9673
2075.339499 0.9673 0.9673 0.9673 0.9673 0.9673
2080.269236 0.9673 0.9673 0.9673 0.9673 0.9673
2085.198972 0.9673 0.9673 0.9673 0.9672 0.9672
2090.128709 0.9671 0.9670 0.9669 0.9669 0.9667
2095.058446 0.9666 0.9666 0.9665 0.9664 0.9663
2099.988182 0.9662 0.9661 0.9660 0.9659 0.9658
2104.917919 0.9658 0.9657 0.9656 0.9655 0.9655
2109.847656 0.9654 0.9652 0.9651 0.9650 0.9650
2114.777392 0.9649 0.9648 0.9647 0.9647 0.9646
2119.707129 0.9645 0.9644 0.9643 0.9642 0.9641
2124.636866 0.9641 0.9640 0.9639 0.9638 0.9638
2129.566602 0.9637 0.9636 0.9634 0.9633 0.9633
2134.496339 0.9632 0.9631 0.9630 0.9630 0.9629
2139.426076 0.9628 0.9627 0.9627 0.9626 0.9625
2144.355812 0.9625 0.9626 0.9626 0.9626 0.9626
2149.285549 0.9627 0.9627 0.9628 0.9631 0.9638
2154.215286 0.9628 0.9629 0.9629 0.9630 0.9630
2159.145022 0.9630 0.9631 0.9631 0.9632 0.9633
2164.074759 0.9634 0.9634 0.9635 0.9635 0.9636
2169.004496 0.9637 0.9638 0.9638 0.9639 0.9639
2173.934232 0.9640 0.9641 0.9642 0.9642 0.9643
2178.863969 0.9644 0.9645 0.9646 0.9646 0.9647
2183.793706 0.9647 0.9648 0.9648 0.9649 0.9649
2188.723442 0.9650 0.9650 0.9651 0.9651 0.9652
2193.653179 0.9652 0.9653 0.9653 0.9654 0.9654
2198.582916 0.9654 0.9654 0.9655 0.9655 0.9656
2203.512652 0.9656 0.9657 0.9657 0.9658 0.9658
2208.442389 0.9659 0.9659 0.9660 0.9660 0.9661
2213.372126 0.9661 0.9662 0.9662 0.9662 0.9662
2218.301862 0.9663 0.9663 0.9664 0.9664 0.9665
2223.231599 0.9665 0.9666 0.9666 0.9667 0.9667
2228.161336 0.9668 0.9668 0.9668 0.9668 0.9669
2233.091072 0.9669 0.9669 0.9669 0.9670 0.9670
2238.020809 0.9670 0.9670 0.9671 0.9671 0.9671
2242.950546 0.9671 0.9672 0.9672 0.9672 0.9672
2247.880282 0.9673 0.9673 0.9673 0.9673 0.9674
2252.810019 0.9674 0.9674 0.9674 0.9674 0.9673
2257.739756 0.9671 0.9669 0.9667 0.9665 0.9663
2262.669492 0.9661 0.9659 0.9657 0.9656 0.9653
2267.599229 0.9651 0.9648 0.9646 0.9644 0.9642
2272.528966 0.9640 0.9637 0.9635 0.9633 0.9631
2277.458702 0.9629 0.9628 0.9628 0.9627 0.9627
2282.388439 0.9626 0.9626 0.9625 0.9625 0.9625
2287.318176 0.9624 0.9624 0.9624 0.9625 0.9626
2292.247912 0.9627 0.9628 0.9630 0.9632 0.9634
2297.177649 0.9636 0.9639 0.9641 0.9643 0.9646
2302.107386 0.9648 0.9650 0.9653 0.9655 0.9657
2307.037122 0.9660 0.9662 0.9664 0.9666 0.9669
2311.966859 0.9671 0.9674 0.9677 0.9679 0.9681
2316.896596 0.9684 0.9686 0.9688 0.9690 0.9692
2321.826332 0.9693 0.9695 0.9697 0.9699 0.9701
2326.756069 0.9702 0.9705 0.9707 0.9709 0.9711
2331.685806 0.9713 0.9714 0.9716 0.9717 0.9719
2336.615542 0.9721 0.9722 0.9724 0.9726 0.9728
2341.545279 0.9730 0.9731 0.9731 0.9731 0.9731
2346.475016 0.9731 0.9731 0.9731 0.9732 0.9732
2351.404752 0.9732 0.9732 0.9732 0.9732 0.9733
2356.334489 0.9734 0.9736 0.9738 0.9740 0.9742
2361.264226 0.9743 0.9747 0.9754 0.9760 0.9769
2366.193962 0.9778 0.9788 0.9797 0.9801 0.9801
2371.123699 0.9802 0.9802 0.9802 0.9802 0.9802
2376.053436 0.9801 0.9799 0.9798 0.9796 0.9794
2380.983172 0.9793 0.9790 0.9785 0.9778 0.9769
2385.912909 0.9757 0.9745 0.9733 0.9719 0.9702
2390.842646 0.9684 0.9672 0.9666 0.9661 0.9658
2395.772382 0.9656 0.9653 0.9651 0.9649 0.9648
2400.702119 0.9646 0.9645 0.9645 0.9643 0.9642
2405.631856 0.9641 0.9639 0.9637 0.9636 0.9634
2410.561592 0.9632 0.9630 0.9628 0.9625 0.9623
2415.491329 0.9621 0.9619 0.9616 0.9611 0.9607
2420.421066 0.9604 0.9600 0.9597 0.9593 0.9588
2425.350802 0.9585 0.9581 0.9577 0.9573 0.9569
2430.280539 0.9565 0.9561 0.9557 0.9552 0.9548
2435.210276 0.9544 0.9540 0.9536 0.9533 0.9531
2440.140012 0.9528 0.9528 0.9529 0.9530 0.9531
2445.069749 0.9531 0.9532 0.9533 0.9534 0.9535
2449.999486 0.9536 0.9536 0.9537 0.9538 0.9540
2454.929222 0.9542 0.9547 0.9552 0.9557 0.9562
2459.858959 0.9567 0.9572 0.9576 0.9579 0.9582
2464.788696 0.9585 0.9587 0.9590 0.9593 0.9596
2469.718432 0.9599 0.9601 0.9603 0.9606 0.9608
2474.648169 0.9609 0.9609 0.9609 0.9608 0.9608
2479.577906 0.9607 0.9606 0.9606 0.9605 0.9604
2484.507643 0.9603 0.9602 0.9602 0.9601 0.9600
2489.437379 0.9599 0.9598 0.9598 0.9596 0.9595
2494.367116 0.9594 0.9593 0.9592 0.9590 0.9589
2499.296853 0.9588 0.9587 0.9586 0.9585 0.9583
2504.226589 0.9582 0.9581 0.9580 0.9579 0.9577
2509.156326 0.9576 0.9575 0.9574 0.9573 0.9572
2514.086063 0.9571 0.9570 0.9569 0.9568 0.9566
2519.015799 0.9565 0.9563 0.9562 0.9560 0.9558
2523.945536 0.9557 0.9555 0.9554 0.9552 0.9551
2528.875273 0.9549 0.9548 0.9546 0.9545 0.9543
2533.805009 0.9541 0.9540 0.9538 0.9537 0.9535
2538.734746 0.9533 0.9530 0.9527 0.9523 0.9520
2543.664483 0.9516 0.9513 0.9510 0.9507 0.9504
2548.594219 0.9500 0.9497 0.9493 0.9490 0.9487
2553.523956 0.9482 0.9478 0.9474 0.9469 0.9464
2558.453693 0.9459 0.9454 0.9448 0.9443 0.9438
2563.383429 0.9431 0.9424 0.9417 0.9408 0.9398
2568.313166 0.9389 0.9380 0.9371 0.9362 0.9353
2573.242903 0.9343 0.9333 0.9322 0.9311 0.9300
2578.172639 0.9289 0.9279 0.9270 0.9260 0.9251
2583.102376 0.9242 0.9234 0.9230 0.9227 0.9224
2588.032113 0.9222 0.9219 0.9217 0.9214 0.9213
2592.961849 0.9214 0.9215 0.9217 0.9219 0.9221
2597.891586 0.9223 0.9226 0.9229 0.9234 0.9239
2602.821323 0.9245 0.9249 0.9253 0.9257 0.9261
2607.751059 0.9265 0.9269 0.9273 0.9277 0.9282
2612.680796 0.9286 0.9291 0.9295 0.9300 0.9304
2617.610533 0.9308 0.9312 0.9316 0.9318 0.9320
2622.540269 0.9322 0.9325 0.9327 0.9330 0.9332
2627.470006 0.9333 0.9334 0.9335 0.9335 0.9336
2632.399743 0.9337 0.9338 0.9338 0.9338 0.9339
2637.329479 0.9339 0.9339 0.9340 0.9341 0.9341
2642.259216 0.9342 0.9342 0.9343 0.9344 0.9345
2647.188953 0.9347 0.9348 0.9350 0.9351 0.9352
2652.118689 0.9354 0.9355 0.9357 0.9358 0.9359
2657.048426 0.9361 0.9362 0.9364 0.9365 0.9366
2661.978163 0.9368 0.9369 0.9371 0.9373 0.9376
2666.907899 0.9379 0.9382 0.9385 0.9388 0.9391
2671.837636 0.9394 0.9397 0.9399 0.9402 0.9405
2676.767373 0.9408 0.9411 0.9414 0.9417 0.9420
2681.697109 0.9422 0.9425 0.9427 0.9429 0.9432
2686.626846 0.9434 0.9435 0.9435 0.9435 0.9433
2691.556583 0.9432 0.9431 0.9430 0.9429 0.9428
2696.486319 0.9426 0.9425 0.9424 0.9422 0.9421
2701.416056 0.9419 0.9417 0.9415 0.9412 0.9410
2706.345793 0.9407 0.9405 0.9402 0.9399 0.9396
2711.275529 0.9393 0.9390 0.9387 0.9384 0.9380
2716.205266 0.9376 0.9373 0.9370 0.9366 0.9361
2721.135003 0.9357 0.9351 0.9345 0.9338 0.9332
2726.064739 0.9325 0.9318 0.9311 0.9304 0.9297
2730.994476 0.9290 0.9283 0.9276 0.9269 0.9261
2735.924213 0.9254 0.9247 0.9240 0.9233 0.9227
2740.853949 0.9220 0.9213 0.9207 0.9203 0.9200
2745.783686 0.9196 0.9194 0.9192 0.9190 0.9189
2750.713423 0.9188 0.9187 0.9187 0.9187 0.9186
2755.643159 0.9186 0.9186 0.9186 0.9186 0.9186
2760.572896 0.9186 0.9186 0.9186 0.9186 0.9187
2765.502633 0.9187 0.9187 0.9186 0.9186 0.9186
2770.432369 0.9185 0.9185 0.9185 0.9184 0.9183
2775.362106 0.9183 0.9182 0.9181 0.9180 0.9179
2780.291843 0.9178 0.9177 0.9176 0.9174 0.9171
2785.221579 0.9168 0.9164 0.9160 0.9156 0.9150
2790.151316 0.9144 0.9137 0.9126 0.9113 0.9098
2795.081053 0.9081 0.9062 0.9043 0.9024 0.9009
2800.010789 0.8995 0.8981 0.8968 0.8954 0.8941
2804.940526 0.8927 0.8913 0.8898 0.8883 0.8868
2809.870263 0.8853 0.8838 0.8823 0.8807 0.8791
2814.799999 0.8773 0.8755 0.8737 0.8719 0.8700
2819.729736 0.8682 0.8665 0.8648 0.8630 0.8613
2824.659473 0.8596 0.8579 0.8561 0.8539 0.8516
2829.589209 0.8489 0.8427 0.8357 0.8286 0.8245
2834.518946 0.8213 0.8183 0.8152 0.8121 0.8090
2839.448683 0.8053 0.8001 0.7947 0.7893 0.7835
2844.378419 0.7777 0.7720 0.7588 0.7418 0.7243
2849.308156 0.7119 0.7065 0.7019 0.6973 0.6908
2854.237893 0.6841 0.6775 0.6626 0.6447 0.6267
2859.167629 0.6086 0.5906 0.5725 0.5545 0.5365
2864.097366 0.5184 0.5005 0.4824 0.4645 0.4465
2869.027103 0.4286 0.4107 0.3928 0.3752 0.3595
2873.956839 0.3439 0.3282 0.3235 0.3237 0.3237
2878.886576 0.3237 0.3237 0.3237 0.3237 0.3254
2883.816313 0.3272 0.3289 0.3325 0.3372 0.3419
2888.746049 0.3466 0.3513 0.3560 0.3607 0.3764
2893.675786 0.3684 0.3721 0.3742 0.3742 0.3742
2898.605523 0.3741 0.3741 0.3741 0.3740 0.3728
2903.535259 0.3709 0.3690 0.3663 0.3613 0.3562
2908.464996 0.3512 0.3462 0.3411 0.3361 0.3310
2913.394733 0.3260 0.3210 0.3159 0.3108 0.3058
2918.324469 0.3008 0.2959 0.2909 0.2858 0.2808
2923.254206 0.2758 0.2709 0.2659 0.2609 0.2559
2928.183943 0.2509 0.2460 0.2410 0.2361 0.2311
2933.113679 0.2261 0.2211 0.2161 0.2112 0.2062
2938.043416 0.2013 0.1964 0.1914 0.1865 0.1816
2942.973153 0.1766 0.1717 0.1667 0.1618 0.1569
2947.902889 0.1521 0.1472 0.1423 0.1373 0.1324
2952.832626 0.1275 0.1227 0.1178 0.1128 0.1079
2957.762363 0.1030 0.0982 0.0934 0.0900 0.0892
2962.692099 0.0884 0.0876 0.0874 0.0874 0.0874
2967.621836 0.0874 0.0874 0.0875 0.0870 0.0864
2972.551573 0.0876 0.0877 0.0885 0.0913 0.0945
2977.481309 0.0983 0.1047 0.1151 0.1255 0.1360
2982.411046 0.1464 0.1568 0.1672 0.1776 0.1879
2987.340783 0.1983 0.2087 0.2190 0.2294 0.2397
2992.270519 0.2501 0.2604 0.2707 0.2811 0.2914
2997.200256 0.3017 0.3120 0.3223 0.3325 0.3428
3002.129993 0.3531 0.3634 0.3737 0.3839 0.3941
3007.059729 0.4043 0.4146 0.4248 0.4350 0.4453
3011.989466 0.4555 0.4657 0.4759 0.4861 0.4962
3016.919203 0.5064 0.5166 0.5268 0.5369 0.5471
3021.848939 0.5572 0.5673 0.5775 0.5860 0.5915
3026.778676 0.5954 0.5993 0.6016 0.6022 0.6023
3031.708413 0.6024 0.6026 0.6027 0.6028 0.6027
3036.638149 0.6019 0.6007 0.5995 0.5984 0.5974
3041.567886 0.5964 0.5954 0.5949 0.5948 0.5948
3046.497623 0.5948 0.5949 0.5950 0.5951 0.5954
3051.427359 0.5970 0.5992 0.6014 0.6040 0.6075
3056.357096 0.6114 0.6152 0.6191 0.6230 0.6269
3061.286833 0.6307 0.6346 0.6384 0.6423 0.6462
3066.216569 0.6500 0.6538 0.6576 0.6615 0.6654
3071.146306 0.6692 0.6730 0.6769 0.6807 0.6845
3076.076043 0.6884 0.6922 0.6960 0.6998 0.7036
3081.005779 0.7074 0.7113 0.7151 0.7189 0.7223
3085.935516 0.7255 0.7286 0.7317 0.7335 0.7345
3090.865253 0.7354 0.7363 0.7371 0.7379 0.7387
3095.794989 0.7396 0.7406 0.7417 0.7428 0.7439
3100.724726 0.7452 0.7466 0.7479 0.7505 0.7595
3105.654463 0.7695 0.7795 0.7906 0.8055 0.8210
3110.584200 0.8364 0.8482 0.8507 0.8520 0.8534
3115.513936 0.8548 0.8562 0.8576 0.8590 0.8604
3120.443673 0.8618 0.8632 0.8645 0.8659 0.8671
3125.373410 0.8684 0.8697 0.8710 0.8722 0.8734
3130.303146 0.8747 0.8759 0.8772 0.8784 0.8797
3135.232883 0.8808 0.8818 0.8828 0.8838 0.8847
3140.162620 0.8855 0.8862 0.8870 0.8878 0.8885
3145.092356 0.8892 0.8900 0.8907 0.8915 0.8922
3150.022093 0.8929 0.8935 0.8941 0.8947 0.8952
3154.951830 0.8957 0.8961 0.8965 0.8968 0.8972
3159.881566 0.8974 0.8976 0.8979 0.8981 0.8983
3164.811303 0.8986 0.8988 0.8991 0.8993 0.8996
3169.741040 0.8998 0.9001 0.9003 0.9005 0.9007
3174.670776 0.9010 0.9012 0.9014 0.9017 0.9019
3179.600513 0.9021 0.9023 0.9025 0.9027 0.9029
3184.530250 0.9031 0.9033 0.9035 0.9037 0.9039
3189.459986 0.9040 0.9042 0.9044 0.9046 0.9048
3194.389723 0.9050 0.9052 0.9054 0.9056 0.9058
3199.319460 0.9059 0.9061 0.9063 0.9064 0.9066
3204.249196 0.9069 0.9071 0.9073 0.9076 0.9078
3209.178933 0.9080 0.9083 0.9085 0.9088 0.9090
3214.108670 0.9093 0.9096 0.9098 0.9100 0.9103
3219.038406 0.9105 0.9108 0.9110 0.9113 0.9115
3223.968143 0.9118 0.9121 0.9124 0.9126 0.9129
3228.897880 0.9132 0.9135 0.9138 0.9141 0.9145
3233.827616 0.9148 0.9151 0.9155 0.9158 0.9161
3238.757353 0.9164 0.9167 0.9170 0.9173 0.9176
3243.687090 0.9179 0.9181 0.9183 0.9184 0.9185
3248.616826 0.9187 0.9187 0.9188 0.9188 0.9188
3253.546563 0.9189 0.9190 0.9190 0.9191 0.9192
3258.476300 0.9192 0.9193 0.9193 0.9194 0.9194
3263.406036 0.9195 0.9196 0.9196 0.9197 0.9197
3268.335773 0.9198 0.9198 0.9199 0.9199 0.9199
3273.265510 0.9199 0.9198 0.9198 0.9198 0.9197
3278.195246 0.9197 0.9211 0.9200 0.9195 0.9194
3283.124983 0.9193 0.9193 0.9192 0.9192 0.9192
3288.054720 0.9191 0.9190 0.9189 0.9189 0.9188
3292.984456 0.9187 0.9186 0.9185 0.9184 0.9183
3297.914193 0.9181 0.9179 0.9177 0.9175 0.9174
3302.843930 0.9172 0.9170 0.9168 0.9166 0.9164
3307.773666 0.9162 0.9160 0.9158 0.9156 0.9155
3312.703403 0.9153 0.9151 0.9149 0.9147 0.9146
3317.633140 0.9144 0.9141 0.9139 0.9136 0.9133
3322.562876 0.9131 0.9128 0.9125 0.9123 0.9120
3327.492613 0.9117 0.9115 0.9112 0.9109 0.9107
3332.422350 0.9104 0.9102 0.9100 0.9097 0.9094
3337.352086 0.9090 0.9087 0.9083 0.9079 0.9073
3342.281823 0.9068 0.9063 0.9057 0.9052 0.9047
3347.211560 0.9042 0.9036 0.9031 0.9025 0.9019
3352.141296 0.9012 0.9006 0.8999 0.8993 0.8985
3357.071033 0.8978 0.8972 0.8965 0.8958 0.8951
3362.000770 0.8944 0.8938 0.8930 0.8923 0.8916
3366.930506 0.8909 0.8902 0.8894 0.8887 0.8880
3371.860243 0.8872 0.8864 0.8856 0.8848 0.8841
3376.789980 0.8833 0.8825 0.8817 0.8810 0.8802
3381.719716 0.8794 0.8786 0.8779 0.8771 0.8762
3386.649453 0.8750 0.8739 0.8728 0.8717 0.8706
3391.579190 0.8695 0.8684 0.8673 0.8662 0.8652
3396.508926 0.8643 0.8633 0.8623 0.8614 0.8605
3401.438663 0.8595 0.8587 0.8578 0.8570 0.8562
3406.368400 0.8555 0.8547 0.8530 0.8496 0.8453
3411.298136 0.8411 0.8369 0.8327 0.8284 0.8242
3416.227873 0.8199 0.8156 0.8114 0.8072 0.8030
3421.157610 0.7988 0.7946 0.7904 0.7862 0.7819
3426.087346 0.7778 0.7736 0.7693 0.7652 0.7610
3431.017083 0.7568 0.7526 0.7484 0.7442 0.7400
3435.946820 0.7359 0.7317 0.7275 0.7233 0.7191
3440.876556 0.7150 0.7136 0.7133 0.7131 0.7128
3445.806293 0.7126 0.7126 0.7126 0.7126 0.7126
3450.736030 0.7123 0.7141 0.7158 0.7174 0.7189
3455.665766 0.7226 0.7301 0.7381 0.7461 0.7541
3460.595503 0.7622 0.7703 0.7782 0.7863 0.7943
3465.525240 0.8026 0.8111 0.8196 0.8282 0.8368
3470.454976 0.8414 0.8440 0.8467 0.8493 0.8519
3475.384713 0.8549 0.8579 0.8610 0.8642 0.8672
3480.314450 0.8698 0.8723 0.8748 0.8773 0.8798
3485.244186 0.8809 0.8818 0.8827 0.8836 0.8845
3490.173923 0.8853 0.8862 0.8871 0.8879 0.8888
3495.103660 0.8896 0.8904 0.8913 0.8921 0.8929
3500.033396 0.8936 0.8942 0.8949 0.8955 0.8962
3504.963133 0.8969 0.8976 0.8982 0.8989 0.8995
3509.892870 0.9001 0.9008 0.9014 0.9020 0.9025
3514.822606 0.9030 0.9034 0.9039 0.9044 0.9049
3519.752343 0.9054 0.9059 0.9064 0.9068 0.9073
3524.682080 0.9078 0.9082 0.9087 0.9092 0.9097
3529.611816 0.9101 0.9104 0.9108 0.9112 0.9115
3534.541553 0.9118 0.9122 0.9125 0.9128 0.9131
3539.471290 0.9134 0.9137 0.9140 0.9143 0.9146
3544.401026 0.9148 0.9152 0.9155 0.9158 0.9161
3549.330763 0.9164 0.9166 0.9169 0.9171 0.9174
3554.260500 0.9176 0.9179 0.9181 0.9184 0.9186
3559.190236 0.9189 0.9191 0.9193 0.9195 0.9198
3564.119973 0.9200 0.9201 0.9202 0.9203 0.9204
3569.049710 0.9205 0.9206 0.9206 0.9207 0.9208
3573.979446 0.9209 0.9210 0.9211 0.9212 0.9213
3578.909183 0.9214 0.9215 0.9215 0.9216 0.9217
3583.838920 0.9218 0.9219 0.9220 0.9221 0.9221
3588.768656 0.9222 0.9223 0.9223 0.9223 0.9224
3593.698393 0.9224 0.9225 0.9225 0.9225 0.9225
3598.628130 0.9225 0.9225 0.9226 0.9226 0.9227
3603.557866 0.9227 0.9227 0.9228 0.9228 0.9228
3608.487603 0.9228 0.9228 0.9229 0.9229 0.9229
3613.417340 0.9230 0.9230 0.9228 0.9231 0.9231
3618.347076 0.9231 0.9231 0.9231 0.9232 0.9232
3623.276813 0.9232 0.9233 0.9233 0.9234 0.9234
3628.206550 0.9234 0.9234 0.9234 0.9234 0.9235
3633.136286 0.9235 0.9235 0.9235 0.9235 0.9236
3638.066023 0.9236 0.9236 0.9236 0.9236 0.9237
3642.995760 0.9237 0.9237 0.9237 0.9237 0.9237
3647.925496 0.9238 0.9238 0.9238 0.9239 0.9239
3652.855233 0.9240 0.9240 0.9240 0.9240 0.9240
3657.784970 0.9240 0.9241 0.9241 0.9241 0.9241
3662.714706 0.9241 0.9241 0.9241 0.9241 0.9241
3667.644443 0.9241 0.9241 0.9242 0.9242 0.9242
3672.574180 0.9242 0.9242 0.9242 0.9242 0.9242
3677.503916 0.9242 0.9242 0.9243 0.9243 0.9243
3682.433653 0.9243 0.9243 0.9243 0.9243 0.9243
3687.363390 0.9243 0.9243 0.9243 0.9244 0.9244
3692.293126 0.9244 0.9244 0.9244 0.9244 0.9244
3697.222863 0.9244 0.9244 0.9244 0.9244 0.9245
3702.152600 0.9245 0.9245 0.9245 0.9245 0.9245
3707.082336 0.9246 0.9246 0.9246 0.9246 0.9246
3712.012073 0.9246 0.9246 0.9246 0.9246 0.9246
3716.941810 0.9246 0.9247 0.9247 0.9247 0.9247
3721.871547 0.9247 0.9247 0.9247 0.9247 0.9247
3726.801283 0.9247 0.9247 0.9247 0.9247 0.9247
3731.731020 0.9247 0.9247 0.9247 0.9247 0.9247
3736.660757 0.9247 0.9247 0.9247 0.9247 0.9248
3741.590493 0.9248 0.9248 0.9248 0.9248 0.9248
3746.520230 0.9248 0.9248 0.9248 0.9248 0.9248
3751.449967 0.9248 0.9248 0.9248 0.9248 0.9248
3756.379703 0.9248 0.9247 0.9247 0.9247 0.9247
3761.309440 0.9247 0.9247 0.9246 0.9246 0.9246
3766.239177 0.9245 0.9245 0.9244 0.9244 0.9244
3771.168913 0.9243 0.9243 0.9243 0.9242 0.9242
3776.098650 0.9242 0.9242 0.9242 0.9242 0.9241
3781.028387 0.9241 0.9241 0.9240 0.9240 0.9240
3785.958123 0.9239 0.9239 0.9239 0.9238 0.9238
3790.887860 0.9237 0.9237 0.9237 0.9236 0.9236
3795.817597 0.9236 0.9235 0.9235 0.9235 0.9235
3800.747333 0.9235 0.9235 0.9234 0.9234 0.9233
3805.677070 0.9233 0.9232 0.9232 0.9231 0.9231
3810.606807 0.9231 0.9230 0.9230 0.9230 0.9229
3815.536543 0.9229 0.9229 0.9228 0.9228 0.9227
3820.466280 0.9227 0.9226 0.9226 0.9225 0.9225
3825.396017 0.9224 0.9224 0.9224 0.9223 0.9223
3830.325753 0.9223 0.9222 0.9222 0.9222 0.9221
3835.255490 0.9221 0.9221 0.9220 0.9220 0.9220
3840.185227 0.9220 0.9219 0.9219 0.9219 0.9218
3845.114963 0.9218 0.9217 0.9217 0.9216 0.9216
3850.044700 0.9215 0.9215 0.9215 0.9214 0.9214
3854.974437 0.9214 0.9213 0.9213 0.9213 0.9212
3859.904173 0.9212 0.9212 0.9211 0.9211 0.9210
3864.833910 0.9210 0.9209 0.9209 0.9208 0.9207
3869.763647 0.9207 0.9206 0.9205 0.9205 0.9204
3874.693383 0.9204 0.9203 0.9203 0.9202 0.9202
3879.623120 0.9201 0.9201 0.9200 0.9200 0.9199
3884.552857 0.9199 0.9198 0.9198 0.9197 0.9197
3889.482593 0.9196 0.9196 0.9196 0.9195 0.9195
3894.412330 0.9194 0.9194 0.9193 0.9193 0.9192
3899.342067 0.9192 0.9191 0.9190 0.9190 0.9189
3904.271803 0.9189 0.9188 0.9188 0.9187 0.9187
3909.201540 0.9186 0.9186 0.9185 0.9185 0.9184
3914.131277 0.9184 0.9183 0.9182 0.9181 0.9180
3919.061013 0.9179 0.9178 0.9177 0.9176 0.9174
3923.990750 0.9173 0.9172 0.9170 0.9168 0.9167
3928.920487 0.9165 0.9164 0.9163 0.9161 0.9160
3933.850223 0.9158 0.9157 0.9156 0.9154 0.9153
3938.779960 0.9151 0.9150 0.9148 0.9147 0.9146
3943.709697 0.9144 0.9143 0.9141 0.9140 0.9138
3948.639433 0.9137 0.9135 0.9134 0.9132 0.9132
##END=
