##TITLE=2-Propanamine, 1-phenyl-, sulfate
##JCAMP-DX=4.24
##DATA TYPE=INFRARED SPECTRUM
##CLASS=COBLENTZ III
##ORIGIN=SMITH, KLINE & FRENCH LABS.
##OWNER=Copyright (C) 1987 by the Coblentz Society
Collection (C) 2018 copyright by the U.S. Secretary of Commerce
on behalf of the United States of America. All rights reserved.
##DATE=1959/03/19
##NAMES=sulfuric acid compound with 1-methyl-2-phenylethylamine (1:1)
AMPHETAMINE SULFATE
##MOLFORM=C9 H15 N O4 S
##SOURCE REFERENCE=COBLENTZ NO. 9835
##$NIST ID=B6009835
##$NIST SOURCE=COBLENTZ
##$NIST IMAGE=cob9835
##SPECTROMETER/DATA SYSTEM=PERKIN-ELMER 21 (GRATING)
##INSTRUMENT PARAMETERS=NaCl PRISM
##STATE=SOLID (OIL MULL)
$$SPECTRAL CONTAMINATION DUE TO OIL AROUND 2900, 1460 CM^-^1
##SAMPLING PROCEDURE=TRANSMISSION
##RESOLUTION=2
##DATA PROCESSING=DIGITIZED BY COBLENTZ SOCIETY (BATCH II) FROM HARD COPY
##XUNITS=1/CM
##YUNITS=TRANSMITTANCE
##XFACTOR=1.0
##YFACTOR=1
##FIRSTX=671
##LASTX=4000
##FIRSTY=0.7145
##MAXX=4000
##MINX=671
##MAXY=0.8138
##MINY=0.0091
##NPOINTS=3330
##XYDATA=(X++(Y..Y))
671.000000 0.7145 0.7167 0.7167 0.7112 0.7105
676.000000 0.7106 0.7093 0.7078 0.7063 0.7028
681.000000 0.6991 0.6910 0.6795 0.6662 0.6512
686.000000 0.6362 0.6170 0.5956 0.5653 0.5232
691.000000 0.4700 0.3999 0.3375 0.2475 0.2266
696.000000 0.2259 0.2487 0.2688 0.3026 0.3309
701.000000 0.3875 0.4518 0.4997 0.5357 0.5771
706.000000 0.6139 0.6508 0.6782 0.7023 0.7140
711.000000 0.7163 0.7108 0.7149 0.7156 0.7048
716.000000 0.6910 0.6763 0.6625 0.6516 0.6442
721.000000 0.6451 0.6315 0.6310 0.6302 0.6271
726.000000 0.6191 0.6059 0.5869 0.5472 0.5008
731.000000 0.4473 0.3897 0.3208 0.2787 0.2612
736.000000 0.2600 0.2908 0.3088 0.3226 0.3345
741.000000 0.3442 0.3645 0.4089 0.4923 0.5426
746.000000 0.5920 0.6253 0.6437 0.6521 0.6569
751.000000 0.6874 0.7101 0.7270 0.7400 0.7522
756.000000 0.7602 0.7651 0.7689 0.7714 0.7734
761.000000 0.7751 0.7759 0.7756 0.7801 0.7847
766.000000 0.7860 0.7865 0.7867 0.7869 0.7886
771.000000 0.7901 0.7913 0.7895 0.7880 0.7895
776.000000 0.7916 0.7930 0.7934 0.7995 0.8013
781.000000 0.7999 0.8007 0.8035 0.8064 0.8095
786.000000 0.8128 0.8138 0.8129 0.8135 0.8073
791.000000 0.8092 0.8111 0.8109 0.8104 0.8103
796.000000 0.8103 0.8098 0.8087 0.8074 0.8061
801.000000 0.8047 0.8032 0.8013 0.7990 0.7967
806.000000 0.7947 0.7928 0.7917 0.7924 0.7932
811.000000 0.7940 0.7946 0.7951 0.7925 0.7900
816.000000 0.7886 0.7872 0.7855 0.7836 0.7837
821.000000 0.7855 0.7806 0.7742 0.7701 0.7709
826.000000 0.7719 0.7731 0.7737 0.7708 0.7672
831.000000 0.7634 0.7597 0.7554 0.7506 0.7450
836.000000 0.7482 0.7516 0.7557 0.7585 0.7603
841.000000 0.7608 0.7611 0.7614 0.7615 0.7617
846.000000 0.7586 0.7545 0.7504 0.7503 0.7511
851.000000 0.7519 0.7517 0.7516 0.7515 0.7515
856.000000 0.7516 0.7516 0.7523 0.7530 0.7537
861.000000 0.7549 0.7590 0.7586 0.7556 0.7498
866.000000 0.7456 0.7477 0.7512 0.7480 0.7449
871.000000 0.7445 0.7441 0.7432 0.7422 0.7412
876.000000 0.7392 0.7371 0.7349 0.7327 0.7299
881.000000 0.7263 0.7227 0.7194 0.7172 0.7150
886.000000 0.7126 0.7104 0.7081 0.7059 0.7052
891.000000 0.7006 0.6949 0.6897 0.6879 0.6869
896.000000 0.6860 0.6864 0.6881 0.6898 0.6918
901.000000 0.6940 0.6960 0.6916 0.6780 0.6660
906.000000 0.6576 0.6536 0.6497 0.6491 0.6494
911.000000 0.6496 0.6498 0.6512 0.6527 0.6542
916.000000 0.6578 0.6617 0.6626 0.6620 0.6530
921.000000 0.6506 0.6514 0.6535 0.6479 0.6435
926.000000 0.6402 0.6368 0.6334 0.6285 0.6244
931.000000 0.6207 0.6170 0.6112 0.6046 0.6023
936.000000 0.6021 0.6013 0.5999 0.5992 0.5984
941.000000 0.5973 0.5962 0.5944 0.5909 0.5875
946.000000 0.5839 0.5792 0.5746 0.5699 0.5650
951.000000 0.5600 0.5551 0.5480 0.5393 0.5365
956.000000 0.5337 0.5310 0.5277 0.5243 0.5196
961.000000 0.5150 0.5102 0.5053 0.5004 0.4955
966.000000 0.4906 0.4845 0.4781 0.4668 0.4543
971.000000 0.4389 0.4227 0.4059 0.3983 0.3989
976.000000 0.4195 0.4439 0.4606 0.4672 0.4681
981.000000 0.4666 0.4655 0.4610 0.4567 0.4516
986.000000 0.4457 0.4391 0.4347 0.4287 0.4215
991.000000 0.4167 0.4142 0.3933 0.3801 0.3722
996.000000 0.3649 0.3578 0.3507 0.3383 0.3258
1001.000000 0.3188 0.3133 0.3085 0.3034 0.2947
1006.000000 0.2838 0.2739 0.2650 0.2566 0.2498
1011.000000 0.2497 0.2500 0.2483 0.2450 0.2399
1016.000000 0.2334 0.2268 0.2203 0.2138 0.2073
1021.000000 0.2006 0.1940 0.1870 0.1796 0.1731
1026.000000 0.1682 0.1633 0.1617 0.1643 0.1601
1031.000000 0.1618 0.1645 0.1681 0.1718 0.1750
1036.000000 0.1761 0.1790 0.1714 0.1660 0.1650
1041.000000 0.1553 0.1369 0.1144 0.0948 0.0865
1046.000000 0.0829 0.0814 0.0785 0.0842 0.0885
1051.000000 0.1067 0.1309 0.1386 0.1434 0.1477
1056.000000 0.1512 0.1528 0.1541 0.1553 0.1566
1061.000000 0.1570 0.1574 0.1578 0.1609 0.1583
1066.000000 0.1582 0.1567 0.1503 0.1415 0.1304
1071.000000 0.1181 0.1072 0.1007 0.0955 0.0923
1076.000000 0.0892 0.0869 0.0859 0.0860 0.0843
1081.000000 0.0903 0.0960 0.1058 0.1155 0.1253
1086.000000 0.1354 0.1437 0.1514 0.1585 0.1644
1091.000000 0.1697 0.1744 0.1783 0.1813 0.1843
1096.000000 0.1870 0.1893 0.1915 0.1952 0.1996
1101.000000 0.2041 0.2120 0.2213 0.2319 0.2435
1106.000000 0.2545 0.2653 0.2732 0.2798 0.2864
1111.000000 0.2930 0.2995 0.3060 0.3111 0.3155
1116.000000 0.3200 0.3246 0.3292 0.3333 0.3358
1121.000000 0.3348 0.3334 0.3384 0.3295 0.3268
1126.000000 0.3241 0.3205 0.3167 0.3124 0.3072
1131.000000 0.3012 0.2936 0.2890 0.2870 0.2863
1136.000000 0.2841 0.2801 0.2758 0.2715 0.2678
1141.000000 0.2665 0.2661 0.2658 0.2654 0.2641
1146.000000 0.2628 0.2635 0.2631 0.2658 0.2782
1151.000000 0.2975 0.3107 0.3279 0.3305 0.3327
1156.000000 0.3350 0.3373 0.3407 0.3471 0.3563
1161.000000 0.3690 0.3856 0.4057 0.4191 0.4304
1166.000000 0.4388 0.4470 0.4558 0.4654 0.4761
1171.000000 0.4882 0.5000 0.5106 0.5212 0.5328
1176.000000 0.5454 0.5581 0.5708 0.5815 0.5920
1181.000000 0.6015 0.6090 0.6165 0.6234 0.6290
1186.000000 0.6344 0.6399 0.6438 0.6472 0.6506
1191.000000 0.6539 0.6564 0.6590 0.6614 0.6640
1196.000000 0.6651 0.6660 0.6694 0.6654 0.6622
1201.000000 0.6590 0.6553 0.6506 0.6458 0.6393
1206.000000 0.6336 0.6303 0.6286 0.6293 0.6315
1211.000000 0.6336 0.6343 0.6305 0.6243 0.6177
1216.000000 0.6103 0.5980 0.5748 0.5508 0.5378
1221.000000 0.5256 0.5208 0.5193 0.4773 0.4626
1226.000000 0.4512 0.4433 0.4380 0.4374 0.4378
1231.000000 0.4404 0.4547 0.4757 0.4958 0.5160
1236.000000 0.5360 0.5571 0.5695 0.5789 0.5891
1241.000000 0.6012 0.6107 0.6196 0.6270 0.6324
1246.000000 0.6358 0.6374 0.6374 0.6365 0.6346
1251.000000 0.6313 0.6270 0.6246 0.6238 0.6239
1256.000000 0.6249 0.6278 0.6358 0.6440 0.6511
1261.000000 0.6577 0.6642 0.6709 0.6767 0.6805
1266.000000 0.6842 0.6863 0.6884 0.6894 0.6897
1271.000000 0.6904 0.6911 0.6911 0.6900 0.6901
1276.000000 0.6905 0.6911 0.6919 0.6926 0.6939
1281.000000 0.6968 0.6983 0.6990 0.6979 0.6965
1286.000000 0.6946 0.6928 0.6908 0.6890 0.6871
1291.000000 0.6852 0.6833 0.6809 0.6783 0.6759
1296.000000 0.6743 0.6727 0.6712 0.6702 0.6696
1301.000000 0.6690 0.6683 0.6679 0.6683 0.6688
1306.000000 0.6693 0.6698 0.6703 0.6707 0.6712
1311.000000 0.6717 0.6721 0.6725 0.6730 0.6734
1316.000000 0.6721 0.6703 0.6685 0.6668 0.6651
1321.000000 0.6625 0.6590 0.6555 0.6521 0.6485
1326.000000 0.6449 0.6413 0.6377 0.6329 0.6271
1331.000000 0.6209 0.6143 0.6087 0.6053 0.6020
1336.000000 0.5987 0.5959 0.5929 0.5902 0.5884
1341.000000 0.5866 0.5864 0.5867 0.5872 0.5877
1346.000000 0.5867 0.5842 0.5816 0.5788 0.5756
1351.000000 0.5718 0.5671 0.5627 0.5587 0.5546
1356.000000 0.5488 0.5244 0.4879 0.4514 0.4150
1361.000000 0.3736 0.3056 0.2888 0.2739 0.2600
1366.000000 0.2454 0.2299 0.2164 0.2063 0.1963
1371.000000 0.1846 0.1698 0.1601 0.1529 0.1490
1376.000000 0.1464 0.1470 0.1479 0.1572 0.1690
1381.000000 0.1816 0.1996 0.2283 0.2535 0.2788
1386.000000 0.3040 0.3292 0.3543 0.3794 0.3971
1391.000000 0.3981 0.3971 0.3948 0.3902 0.3891
1396.000000 0.4028 0.4779 0.5529 0.6106 0.6206
1401.000000 0.6284 0.6444 0.6761 0.6847 0.6897
1406.000000 0.6936 0.6965 0.6984 0.6989 0.6986
1411.000000 0.6988 0.6979 0.6963 0.6944 0.6892
1416.000000 0.6837 0.6784 0.6733 0.6681 0.6622
1421.000000 0.6573 0.6533 0.6488 0.6412 0.6329
1426.000000 0.6235 0.6132 0.5996 0.5854 0.5455
1431.000000 0.5093 0.4783 0.4474 0.4164 0.3855
1436.000000 0.3547 0.3238 0.2931 0.2624 0.2317
1441.000000 0.2108 0.2043 0.1990 0.1953 0.1607
1446.000000 0.1192 0.0995 0.0885 0.0797 0.0738
1451.000000 0.0690 0.0642 0.0597 0.0555 0.0522
1456.000000 0.0497 0.0496 0.0496 0.0499 0.0505
1461.000000 0.0519 0.0538 0.0555 0.0571 0.0589
1466.000000 0.0615 0.0658 0.0904 0.1181 0.1458
1471.000000 0.1734 0.2010 0.2286 0.2561 0.2836
1476.000000 0.3110 0.3384 0.3658 0.3931 0.4204
1481.000000 0.4477 0.4749 0.5021 0.5292 0.5625
1486.000000 0.5842 0.5886 0.5908 0.5915 0.5914
1491.000000 0.5913 0.5910 0.5903 0.5879 0.5820
1496.000000 0.5751 0.5682 0.5637 0.5679 0.5905
1501.000000 0.6167 0.6428 0.6689 0.6927 0.7015
1506.000000 0.7056 0.7065 0.7072 0.7074 0.7095
1511.000000 0.7070 0.7052 0.7017 0.6977 0.6937
1516.000000 0.6897 0.6859 0.6821 0.6783 0.6745
1521.000000 0.6706 0.6668 0.6628 0.6585 0.6540
1526.000000 0.6501 0.6467 0.6376 0.6283 0.6142
1531.000000 0.6029 0.5927 0.5854 0.5809 0.5773
1536.000000 0.5753 0.5738 0.5728 0.5713 0.5673
1541.000000 0.5611 0.5577 0.5557 0.5546 0.5537
1546.000000 0.5530 0.5525 0.5518 0.5512 0.5507
1551.000000 0.5501 0.5495 0.5481 0.5498 0.5507
1556.000000 0.5538 0.5648 0.5860 0.6018 0.6113
1561.000000 0.6174 0.6223 0.6258 0.6273 0.6287
1566.000000 0.6299 0.6473 0.6636 0.6686 0.6717
1571.000000 0.6747 0.6778 0.6808 0.6838 0.6870
1576.000000 0.6901 0.6916 0.6909 0.6920 0.6914
1581.000000 0.6905 0.6897 0.6888 0.6874 0.6857
1586.000000 0.6840 0.6820 0.6810 0.6815 0.6825
1591.000000 0.6829 0.6828 0.6827 0.6823 0.6800
1596.000000 0.6761 0.6715 0.6669 0.6624 0.6579
1601.000000 0.6531 0.6483 0.6433 0.6383 0.6330
1606.000000 0.6272 0.6210 0.6152 0.6097 0.6046
1611.000000 0.6017 0.6011 0.6005 0.5999 0.5993
1616.000000 0.5988 0.5982 0.5922 0.5874 0.5836
1621.000000 0.5820 0.5810 0.5801 0.5795 0.5789
1626.000000 0.5783 0.5776 0.5769 0.5761 0.5753
1631.000000 0.5745 0.5731 0.5696 0.5659 0.5621
1636.000000 0.5588 0.5571 0.5561 0.5560 0.5561
1641.000000 0.5562 0.5559 0.5574 0.5593 0.5619
1646.000000 0.5651 0.5694 0.5767 0.5851 0.6022
1651.000000 0.6389 0.6582 0.6654 0.6689 0.6713
1656.000000 0.6728 0.6740 0.6751 0.6762 0.6772
1661.000000 0.6786 0.6821 0.6913 0.6988 0.7046
1666.000000 0.7105 0.7161 0.7209 0.7255 0.7299
1671.000000 0.7332 0.7363 0.7394 0.7424 0.7451
1676.000000 0.7474 0.7497 0.7519 0.7533 0.7545
1681.000000 0.7557 0.7569 0.7589 0.7619 0.7654
1686.000000 0.7686 0.7714 0.7730 0.7741 0.7753
1691.000000 0.7762 0.7771 0.7779 0.7787 0.7795
1696.000000 0.7804 0.7809 0.7811 0.7812 0.7813
1701.000000 0.7811 0.7806 0.7800 0.7795 0.7789
1706.000000 0.7793 0.7804 0.7817 0.7830 0.7843
1711.000000 0.7855 0.7867 0.7879 0.7889 0.7897
1716.000000 0.7906 0.7913 0.7915 0.7916 0.7918
1721.000000 0.7919 0.7922 0.7929 0.7935 0.7941
1726.000000 0.7946 0.7951 0.7957 0.7961 0.7955
1731.000000 0.7950 0.7945 0.7939 0.7931 0.7923
1736.000000 0.7915 0.7909 0.7904 0.7899 0.7894
1741.000000 0.7889 0.7888 0.7887 0.7886 0.7886
1746.000000 0.7885 0.7883 0.7878 0.7873 0.7868
1751.000000 0.7863 0.7860 0.7860 0.7865 0.7870
1756.000000 0.7874 0.7877 0.7879 0.7882 0.7885
1761.000000 0.7890 0.7897 0.7903 0.7910 0.7917
1766.000000 0.7923 0.7930 0.7935 0.7941 0.7946
1771.000000 0.7948 0.7946 0.7945 0.7943 0.7941
1776.000000 0.7940 0.7939 0.7939 0.7939 0.7938
1781.000000 0.7938 0.7938 0.7938 0.7937 0.7937
1786.000000 0.7937 0.7937 0.7937 0.7937 0.7937
1791.000000 0.7938 0.7938 0.7938 0.7938 0.7967
1796.000000 0.7945 0.7948 0.7953 0.7957 0.7961
1801.000000 0.7962 0.7964 0.7966 0.7968 0.7970
1806.000000 0.7973 0.7974 0.7976 0.7979 0.7979
1811.000000 0.7980 0.7980 0.7980 0.7980 0.7980
1816.000000 0.7980 0.7980 0.7980 0.7978 0.7976
1821.000000 0.7974 0.7973 0.7971 0.7970 0.7968
1826.000000 0.7966 0.7964 0.7963 0.7961 0.7960
1831.000000 0.7958 0.7956 0.7954 0.7953 0.7951
1836.000000 0.7950 0.7948 0.7947 0.7945 0.7943
1841.000000 0.7941 0.7940 0.7938 0.7937 0.7937
1846.000000 0.7937 0.7938 0.7939 0.7939 0.7940
1851.000000 0.7941 0.7942 0.7942 0.7943 0.7944
1856.000000 0.7945 0.7945 0.7944 0.7942 0.7941
1861.000000 0.7939 0.7937 0.7934 0.7916 0.7898
1866.000000 0.7881 0.7865 0.7850 0.7835 0.7820
1871.000000 0.7805 0.7783 0.7757 0.7727 0.7704
1876.000000 0.7680 0.7660 0.7654 0.7650 0.7650
1881.000000 0.7653 0.7656 0.7661 0.7670 0.7684
1886.000000 0.7697 0.7709 0.7723 0.7731 0.7736
1891.000000 0.7741 0.7745 0.7750 0.7755 0.7758
1896.000000 0.7762 0.7765 0.7768 0.7771 0.7775
1901.000000 0.7778 0.7781 0.7784 0.7786 0.7790
1906.000000 0.7793 0.7796 0.7798 0.7801 0.7804
1911.000000 0.7807 0.7810 0.7813 0.7817 0.7820
1916.000000 0.7822 0.7826 0.7829 0.7831 0.7834
1921.000000 0.7839 0.7844 0.7851 0.7857 0.7863
1926.000000 0.7869 0.7872 0.7872 0.7869 0.7841
1931.000000 0.7814 0.7786 0.7758 0.7728 0.7698
1936.000000 0.7656 0.7618 0.7582 0.7553 0.7524
1941.000000 0.7494 0.7467 0.7454 0.7454 0.7454
1946.000000 0.7454 0.7455 0.7458 0.7464 0.7475
1951.000000 0.7501 0.7537 0.7585 0.7610 0.7630
1956.000000 0.7647 0.7662 0.7672 0.7672 0.7672
1961.000000 0.7672 0.7672 0.7672 0.7671 0.7669
1966.000000 0.7666 0.7663 0.7658 0.7653 0.7647
1971.000000 0.7640 0.7634 0.7628 0.7622 0.7616
1976.000000 0.7609 0.7603 0.7598 0.7591 0.7585
1981.000000 0.7579 0.7573 0.7567 0.7560 0.7555
1986.000000 0.7549 0.7542 0.7536 0.7531 0.7524
1991.000000 0.7518 0.7513 0.7506 0.7500 0.7494
1996.000000 0.7488 0.7482 0.7476 0.7470 0.7465
2001.000000 0.7458 0.7452 0.7447 0.7441 0.7434
2006.000000 0.7428 0.7422 0.7416 0.7410 0.7403
2011.000000 0.7397 0.7391 0.7385 0.7379 0.7372
2016.000000 0.7366 0.7360 0.7354 0.7348 0.7342
2021.000000 0.7337 0.7331 0.7326 0.7320 0.7315
2026.000000 0.7309 0.7304 0.7298 0.7293 0.7287
2031.000000 0.7282 0.7276 0.7271 0.7265 0.7260
2036.000000 0.7255 0.7249 0.7244 0.7238 0.7233
2041.000000 0.7228 0.7222 0.7216 0.7210 0.7205
2046.000000 0.7200 0.7194 0.7189 0.7183 0.7178
2051.000000 0.7173 0.7167 0.7161 0.7156 0.7150
2056.000000 0.7145 0.7140 0.7136 0.7133 0.7129
2061.000000 0.7127 0.7127 0.7127 0.7127 0.7127
2066.000000 0.7127 0.7128 0.7127 0.7124 0.7121
2071.000000 0.7117 0.7114 0.7110 0.7105 0.7095
2076.000000 0.7078 0.7053 0.7021 0.6995 0.6970
2081.000000 0.6950 0.6931 0.6911 0.6892 0.6873
2086.000000 0.6855 0.6840 0.6834 0.6828 0.6821
2091.000000 0.6816 0.6812 0.6807 0.6802 0.6792
2096.000000 0.6779 0.6762 0.6744 0.6727 0.6703
2101.000000 0.6679 0.6654 0.6630 0.6607 0.6585
2106.000000 0.6565 0.6544 0.6523 0.6503 0.6485
2111.000000 0.6468 0.6452 0.6437 0.6421 0.6404
2116.000000 0.6388 0.6372 0.6357 0.6341 0.6325
2121.000000 0.6309 0.6293 0.6278 0.6262 0.6247
2126.000000 0.6232 0.6217 0.6201 0.6187 0.6171
2131.000000 0.6156 0.6143 0.6131 0.6120 0.6109
2136.000000 0.6098 0.6087 0.6077 0.6066 0.6055
2141.000000 0.6044 0.6034 0.6027 0.6020 0.6010
2146.000000 0.5999 0.5986 0.5972 0.5951 0.5938
2151.000000 0.5937 0.5938 0.5941 0.5975 0.5945
2156.000000 0.5948 0.5950 0.5953 0.5955 0.5957
2161.000000 0.5960 0.5962 0.5967 0.5976 0.5985
2166.000000 0.5995 0.6006 0.6018 0.6032 0.6047
2171.000000 0.6066 0.6087 0.6115 0.6143 0.6167
2176.000000 0.6191 0.6215 0.6239 0.6264 0.6290
2181.000000 0.6316 0.6341 0.6367 0.6396 0.6428
2186.000000 0.6462 0.6497 0.6525 0.6551 0.6572
2191.000000 0.6593 0.6614 0.6635 0.6653 0.6671
2196.000000 0.6690 0.6708 0.6727 0.6745 0.6762
2201.000000 0.6779 0.6793 0.6806 0.6820 0.6834
2206.000000 0.6848 0.6862 0.6875 0.6889 0.6903
2211.000000 0.6918 0.6933 0.6947 0.6962 0.6976
2216.000000 0.6991 0.7006 0.7020 0.7034 0.7047
2221.000000 0.7060 0.7072 0.7084 0.7097 0.7109
2226.000000 0.7121 0.7127 0.7132 0.7135 0.7138
2231.000000 0.7141 0.7145 0.7144 0.7143 0.7141
2236.000000 0.7140 0.7138 0.7137 0.7135 0.7133
2241.000000 0.7130 0.7126 0.7123 0.7120 0.7118
2246.000000 0.7116 0.7114 0.7113 0.7112 0.7111
2251.000000 0.7111 0.7111 0.7111 0.7111 0.7111
2256.000000 0.7111 0.7112 0.7112 0.7113 0.7115
2261.000000 0.7117 0.7119 0.7122 0.7124 0.7127
2266.000000 0.7130 0.7133 0.7136 0.7140 0.7143
2271.000000 0.7145 0.7146 0.7148 0.7149 0.7151
2276.000000 0.7152 0.7171 0.7155 0.7155 0.7152
2281.000000 0.7150 0.7147 0.7144 0.7141 0.7138
2286.000000 0.7135 0.7132 0.7129 0.7127 0.7123
2291.000000 0.7118 0.7113 0.7109 0.7104 0.7100
2296.000000 0.7095 0.7091 0.7087 0.7082 0.7077
2301.000000 0.7072 0.7068 0.7061 0.7054 0.7048
2306.000000 0.7041 0.7035 0.7028 0.7021 0.7014
2311.000000 0.7007 0.7001 0.6994 0.6987 0.6980
2316.000000 0.6974 0.6967 0.6960 0.6953 0.6946
2321.000000 0.6939 0.6933 0.6926 0.6919 0.6913
2326.000000 0.6905 0.6897 0.6889 0.6881 0.6873
2331.000000 0.6865 0.6857 0.6849 0.6842 0.6830
2336.000000 0.6816 0.6803 0.6790 0.6777 0.6763
2341.000000 0.6750 0.6737 0.6724 0.6705 0.6687
2346.000000 0.6662 0.6636 0.6612 0.6590 0.6569
2351.000000 0.6552 0.6535 0.6517 0.6500 0.6469
2356.000000 0.6437 0.6427 0.6425 0.6423 0.6421
2361.000000 0.6419 0.6417 0.6414 0.6413 0.6412
2366.000000 0.6411 0.6410 0.6409 0.6407 0.6406
2371.000000 0.6405 0.6404 0.6404 0.6403 0.6401
2376.000000 0.6400 0.6399 0.6397 0.6396 0.6395
2381.000000 0.6393 0.6392 0.6391 0.6389 0.6388
2386.000000 0.6387 0.6386 0.6384 0.6382 0.6380
2391.000000 0.6376 0.6372 0.6368 0.6363 0.6359
2396.000000 0.6355 0.6351 0.6347 0.6343 0.6339
2401.000000 0.6335 0.6330 0.6326 0.6321 0.6314
2406.000000 0.6306 0.6298 0.6289 0.6281 0.6273
2411.000000 0.6265 0.6257 0.6249 0.6240 0.6232
2416.000000 0.6226 0.6223 0.6219 0.6217 0.6215
2421.000000 0.6213 0.6211 0.6209 0.6205 0.6202
2426.000000 0.6199 0.6195 0.6192 0.6188 0.6185
2431.000000 0.6182 0.6177 0.6165 0.6153 0.6137
2436.000000 0.6119 0.6101 0.6082 0.6064 0.6046
2441.000000 0.6028 0.6010 0.5992 0.5974 0.5956
2446.000000 0.5938 0.5920 0.5902 0.5882 0.5858
2451.000000 0.5835 0.5808 0.5781 0.5754 0.5726
2456.000000 0.5700 0.5676 0.5652 0.5632 0.5611
2461.000000 0.5595 0.5587 0.5578 0.5570 0.5561
2466.000000 0.5553 0.5544 0.5536 0.5528 0.5519
2471.000000 0.5511 0.5502 0.5494 0.5486 0.5478
2476.000000 0.5469 0.5461 0.5454 0.5448 0.5441
2481.000000 0.5437 0.5432 0.5426 0.5418 0.5409
2486.000000 0.5395 0.5380 0.5365 0.5350 0.5335
2491.000000 0.5310 0.5284 0.5258 0.5233 0.5208
2496.000000 0.5043 0.4876 0.4773 0.4733 0.4694
2501.000000 0.4662 0.4631 0.4600 0.4569 0.4538
2506.000000 0.4508 0.4478 0.4448 0.4419 0.4390
2511.000000 0.4361 0.4332 0.4302 0.4272 0.4241
2516.000000 0.4208 0.4174 0.4141 0.4107 0.4074
2521.000000 0.4034 0.3993 0.3953 0.3918 0.3882
2526.000000 0.3859 0.3839 0.3820 0.3800 0.3780
2531.000000 0.3760 0.3740 0.3720 0.3704 0.3688
2536.000000 0.3673 0.3661 0.3648 0.3636 0.3624
2541.000000 0.3612 0.3600 0.3588 0.3577 0.3565
2546.000000 0.3554 0.3545 0.3535 0.3526 0.3518
2551.000000 0.3509 0.3500 0.3491 0.3482 0.3473
2556.000000 0.3465 0.3457 0.3450 0.3443 0.3443
2561.000000 0.3443 0.3442 0.3442 0.3442 0.3443
2566.000000 0.3444 0.3446 0.3448 0.3450 0.3452
2571.000000 0.3455 0.3457 0.3461 0.3465 0.3469
2576.000000 0.3473 0.3476 0.3480 0.3483 0.3487
2581.000000 0.3488 0.3489 0.3490 0.3492 0.3493
2586.000000 0.3494 0.3495 0.3495 0.3487 0.3479
2591.000000 0.3470 0.3461 0.3451 0.3438 0.3422
2596.000000 0.3406 0.3386 0.3365 0.3344 0.3322
2601.000000 0.3300 0.3277 0.3253 0.3229 0.3205
2606.000000 0.3181 0.3158 0.3135 0.3111 0.3089
2611.000000 0.3067 0.3046 0.3027 0.3010 0.2994
2616.000000 0.2977 0.2961 0.2944 0.2927 0.2911
2621.000000 0.2894 0.2876 0.2859 0.2840 0.2821
2626.000000 0.2801 0.2782 0.2763 0.2742 0.2716
2631.000000 0.2689 0.2669 0.2659 0.2649 0.2646
2636.000000 0.2647 0.2647 0.2648 0.2649 0.2635
2641.000000 0.2650 0.2650 0.2651 0.2651 0.2652
2646.000000 0.2654 0.2656 0.2658 0.2661 0.2665
2651.000000 0.2669 0.2674 0.2678 0.2683 0.2690
2656.000000 0.2696 0.2703 0.2710 0.2717 0.2724
2661.000000 0.2729 0.2733 0.2738 0.2741 0.2745
2666.000000 0.2748 0.2751 0.2754 0.2756 0.2759
2671.000000 0.2760 0.2760 0.2760 0.2759 0.2758
2676.000000 0.2757 0.2756 0.2755 0.2753 0.2751
2681.000000 0.2746 0.2742 0.2737 0.2732 0.2727
2686.000000 0.2718 0.2708 0.2698 0.2684 0.2669
2691.000000 0.2653 0.2637 0.2620 0.2603 0.2581
2696.000000 0.2559 0.2537 0.2513 0.2490 0.2467
2701.000000 0.2444 0.2421 0.2401 0.2384 0.2368
2706.000000 0.2352 0.2336 0.2320 0.2305 0.2289
2711.000000 0.2273 0.2258 0.2243 0.2227 0.2212
2716.000000 0.2196 0.2181 0.2165 0.2150 0.2135
2721.000000 0.2122 0.2111 0.2100 0.2091 0.2084
2726.000000 0.2077 0.2070 0.2063 0.2056 0.2051
2731.000000 0.2045 0.2040 0.2035 0.2030 0.2025
2736.000000 0.2022 0.2020 0.2018 0.2016 0.2015
2741.000000 0.2013 0.2011 0.2010 0.2008 0.2006
2746.000000 0.2005 0.2003 0.2001 0.2000 0.1998
2751.000000 0.1996 0.1995 0.1993 0.1992 0.1990
2756.000000 0.1989 0.1987 0.1986 0.1984 0.1982
2761.000000 0.1981 0.1979 0.1978 0.1976 0.1974
2766.000000 0.1973 0.1972 0.1970 0.1968 0.1966
2771.000000 0.1964 0.1962 0.1959 0.1956 0.1954
2776.000000 0.1951 0.1949 0.1946 0.1943 0.1940
2781.000000 0.1937 0.1935 0.1932 0.1929 0.1923
2786.000000 0.1916 0.1910 0.1903 0.1896 0.1889
2791.000000 0.1866 0.1841 0.1815 0.1731 0.1622
2796.000000 0.1512 0.1406 0.1303 0.1199 0.1116
2801.000000 0.1058 0.1000 0.0947 0.0908 0.0869
2806.000000 0.0832 0.0806 0.0780 0.0754 0.0728
2811.000000 0.0702 0.0676 0.0650 0.0625 0.0599
2816.000000 0.0575 0.0551 0.0528 0.0505 0.0481
2821.000000 0.0458 0.0436 0.0415 0.0394 0.0374
2826.000000 0.0356 0.0338 0.0319 0.0301 0.0283
2831.000000 0.0265 0.0249 0.0234 0.0219 0.0205
2836.000000 0.0194 0.0182 0.0172 0.0165 0.0157
2841.000000 0.0150 0.0143 0.0137 0.0130 0.0126
2846.000000 0.0123 0.0119 0.0117 0.0116 0.0114
2851.000000 0.0113 0.0112 0.0111 0.0109 0.0108
2856.000000 0.0107 0.0106 0.0104 0.0102 0.0100
2861.000000 0.0099 0.0097 0.0096 0.0094 0.0093
2866.000000 0.0092 0.0091 0.0091 0.0091 0.0091
2871.000000 0.0091 0.0091 0.0091 0.0091 0.0091
2876.000000 0.0091 0.0092 0.0092 0.0092 0.0092
2881.000000 0.0092 0.0092 0.0092 0.0092 0.0092
2886.000000 0.0092 0.0093 0.0093 0.0094 0.0094
2891.000000 0.0095 0.0095 0.0095 0.0096 0.0096
2896.000000 0.0097 0.0098 0.0098 0.0098 0.0098
2901.000000 0.0106 0.0116 0.0126 0.0135 0.0142
2906.000000 0.0149 0.0156 0.0159 0.0162 0.0165
2911.000000 0.0167 0.0168 0.0169 0.0170 0.0171
2916.000000 0.0171 0.0172 0.0173 0.0174 0.0175
2921.000000 0.0176 0.0176 0.0176 0.0177 0.0177
2926.000000 0.0177 0.0177 0.0177 0.0177 0.0177
2931.000000 0.0177 0.0177 0.0177 0.0177 0.0177
2936.000000 0.0177 0.0177 0.0177 0.0177 0.0177
2941.000000 0.0177 0.0178 0.0178 0.0178 0.0179
2946.000000 0.0180 0.0181 0.0181 0.0182 0.0183
2951.000000 0.0184 0.0185 0.0186 0.0187 0.0188
2956.000000 0.0189 0.0190 0.0191 0.0192 0.0195
2961.000000 0.0197 0.0199 0.0202 0.0205 0.0208
2966.000000 0.0211 0.0213 0.0216 0.0219 0.0225
2971.000000 0.0231 0.0237 0.0245 0.0255 0.0265
2976.000000 0.0276 0.0291 0.0307 0.0323 0.0348
2981.000000 0.0394 0.0440 0.0487 0.0540 0.0597
2986.000000 0.0653 0.0713 0.0794 0.0874 0.0955
2991.000000 0.1014 0.1058 0.1102 0.1146 0.1170
2996.000000 0.1194 0.1217 0.1241 0.1264 0.1287
3001.000000 0.1310 0.1333 0.1355 0.1378 0.1401
3006.000000 0.1424 0.1446 0.1469 0.1499 0.1535
3011.000000 0.1570 0.1606 0.1654 0.1703 0.1751
3016.000000 0.1798 0.1839 0.1880 0.1921 0.1952
3021.000000 0.1978 0.2004 0.2030 0.2050 0.2070
3026.000000 0.2090 0.2108 0.2123 0.2137 0.2152
3031.000000 0.2163 0.2172 0.2181 0.2190 0.2223
3036.000000 0.2256 0.2289 0.2316 0.2333 0.2349
3041.000000 0.2366 0.2382 0.2398 0.2414 0.2430
3046.000000 0.2448 0.2466 0.2484 0.2501 0.2519
3051.000000 0.2537 0.2555 0.2574 0.2592 0.2610
3056.000000 0.2628 0.2648 0.2667 0.2687 0.2707
3061.000000 0.2727 0.2746 0.2766 0.2786 0.2805
3066.000000 0.2823 0.2842 0.2861 0.2879 0.2897
3071.000000 0.2915 0.2936 0.2958 0.2981 0.3003
3076.000000 0.3029 0.3055 0.3081 0.3112 0.3167
3081.000000 0.3221 0.3275 0.3322 0.3357 0.3393
3086.000000 0.3428 0.3463 0.3498 0.3533 0.3568
3091.000000 0.3603 0.3638 0.3673 0.3708 0.3743
3096.000000 0.3778 0.3813 0.3848 0.3883 0.3918
3101.000000 0.3953 0.3988 0.4022 0.4057 0.4091
3106.000000 0.4126 0.4160 0.4195 0.4230 0.4264
3111.000000 0.4299 0.4334 0.4368 0.4396 0.4420
3116.000000 0.4445 0.4469 0.4487 0.4503 0.4518
3121.000000 0.4534 0.4555 0.4577 0.4599 0.4621
3126.000000 0.4645 0.4669 0.4693 0.4717 0.4748
3131.000000 0.4778 0.4809 0.4840 0.4870 0.4900
3136.000000 0.4930 0.4960 0.4988 0.5015 0.5043
3141.000000 0.5069 0.5091 0.5112 0.5134 0.5154
3146.000000 0.5171 0.5188 0.5205 0.5222 0.5239
3151.000000 0.5256 0.5273 0.5289 0.5303 0.5318
3156.000000 0.5332 0.5344 0.5353 0.5362 0.5371
3161.000000 0.5379 0.5388 0.5397 0.5406 0.5414
3166.000000 0.5423 0.5432 0.5441 0.5449 0.5458
3171.000000 0.5467 0.5475 0.5484 0.5493 0.5501
3176.000000 0.5510 0.5519 0.5528 0.5537 0.5546
3181.000000 0.5555 0.5566 0.5577 0.5589 0.5600
3186.000000 0.5610 0.5621 0.5632 0.5643 0.5654
3191.000000 0.5665 0.5676 0.5688 0.5701 0.5714
3196.000000 0.5728 0.5745 0.5813 0.5882 0.5950
3201.000000 0.6018 0.6039 0.6059 0.6080 0.6100
3206.000000 0.6120 0.6140 0.6160 0.6181 0.6207
3211.000000 0.6235 0.6263 0.6291 0.6325 0.6362
3216.000000 0.6399 0.6436 0.6472 0.6507 0.6542
3221.000000 0.6578 0.6605 0.6619 0.6633 0.6646
3226.000000 0.6659 0.6669 0.6679 0.6688 0.6698
3231.000000 0.6707 0.6717 0.6726 0.6736 0.6748
3236.000000 0.6761 0.6774 0.6787 0.6803 0.6820
3241.000000 0.6838 0.6855 0.6872 0.6888 0.6904
3246.000000 0.6920 0.6933 0.6942 0.6950 0.6958
3251.000000 0.6966 0.6973 0.6981 0.6989 0.6997
3256.000000 0.7005 0.7013 0.7021 0.7029 0.7036
3261.000000 0.7044 0.7051 0.7058 0.7065 0.7072
3266.000000 0.7079 0.7086 0.7093 0.7100 0.7107
3271.000000 0.7114 0.7121 0.7128 0.7134 0.7141
3276.000000 0.7148 0.7154 0.7160 0.7165 0.7171
3281.000000 0.7176 0.7182 0.7187 0.7192 0.7198
3286.000000 0.7203 0.7208 0.7214 0.7219 0.7223
3291.000000 0.7225 0.7227 0.7229 0.7231 0.7233
3296.000000 0.7235 0.7237 0.7239 0.7241 0.7243
3301.000000 0.7245 0.7247 0.7248 0.7250 0.7251
3306.000000 0.7252 0.7254 0.7261 0.7267 0.7273
3311.000000 0.7280 0.7287 0.7294 0.7301 0.7308
3316.000000 0.7315 0.7321 0.7328 0.7335 0.7341
3321.000000 0.7346 0.7352 0.7357 0.7362 0.7366
3326.000000 0.7368 0.7370 0.7372 0.7375 0.7375
3331.000000 0.7375 0.7376 0.7376 0.7377 0.7377
3336.000000 0.7377 0.7377 0.7377 0.7377 0.7377
3341.000000 0.7376 0.7376 0.7375 0.7375 0.7374
3346.000000 0.7374 0.7373 0.7372 0.7370 0.7369
3351.000000 0.7368 0.7367 0.7366 0.7364 0.7363
3356.000000 0.7362 0.7361 0.7359 0.7358 0.7357
3361.000000 0.7357 0.7357 0.7357 0.7357 0.7357
3366.000000 0.7358 0.7359 0.7360 0.7361 0.7363
3371.000000 0.7365 0.7367 0.7369 0.7371 0.7373
3376.000000 0.7375 0.7377 0.7379 0.7381 0.7383
3381.000000 0.7385 0.7387 0.7389 0.7392 0.7395
3386.000000 0.7398 0.7402 0.7405 0.7409 0.7412
3391.000000 0.7416 0.7419 0.7421 0.7424 0.7426
3396.000000 0.7428 0.7430 0.7432 0.7434 0.7436
3401.000000 0.7438 0.7440 0.7442 0.7444 0.7446
3406.000000 0.7448 0.7449 0.7451 0.7453 0.7454
3411.000000 0.7456 0.7458 0.7460 0.7461 0.7463
3416.000000 0.7465 0.7466 0.7468 0.7469 0.7471
3421.000000 0.7472 0.7474 0.7475 0.7477 0.7478
3426.000000 0.7481 0.7483 0.7486 0.7489 0.7491
3431.000000 0.7494 0.7497 0.7500 0.7502 0.7505
3436.000000 0.7508 0.7511 0.7513 0.7517 0.7522
3441.000000 0.7527 0.7532 0.7537 0.7542 0.7547
3446.000000 0.7552 0.7557 0.7562 0.7566 0.7570
3451.000000 0.7574 0.7578 0.7581 0.7585 0.7589
3456.000000 0.7593 0.7596 0.7600 0.7602 0.7604
3461.000000 0.7606 0.7608 0.7610 0.7610 0.7610
3466.000000 0.7610 0.7610 0.7609 0.7608 0.7607
3471.000000 0.7607 0.7606 0.7605 0.7604 0.7603
3476.000000 0.7602 0.7602 0.7601 0.7600 0.7599
3481.000000 0.7598 0.7597 0.7597 0.7596 0.7595
3486.000000 0.7594 0.7593 0.7593 0.7592 0.7591
3491.000000 0.7591 0.7590 0.7589 0.7589 0.7588
3496.000000 0.7587 0.7586 0.7586 0.7585 0.7584
3501.000000 0.7584 0.7583 0.7582 0.7581 0.7581
3506.000000 0.7580 0.7579 0.7578 0.7578 0.7577
3511.000000 0.7577 0.7576 0.7575 0.7574 0.7573
3516.000000 0.7573 0.7572 0.7571 0.7570 0.7569
3521.000000 0.7569 0.7568 0.7567 0.7566 0.7565
3526.000000 0.7565 0.7564 0.7563 0.7562 0.7561
3531.000000 0.7560 0.7559 0.7558 0.7557 0.7556
3536.000000 0.7556 0.7555 0.7554 0.7553 0.7552
3541.000000 0.7552 0.7551 0.7550 0.7549 0.7548
3546.000000 0.7547 0.7546 0.7545 0.7544 0.7543
3551.000000 0.7543 0.7542 0.7541 0.7540 0.7539
3556.000000 0.7539 0.7538 0.7537 0.7536 0.7535
3561.000000 0.7534 0.7533 0.7533 0.7533 0.7533
3566.000000 0.7533 0.7532 0.7532 0.7532 0.7532
3571.000000 0.7532 0.7532 0.7532 0.7532 0.7532
3576.000000 0.7532 0.7531 0.7531 0.7531 0.7531
3581.000000 0.7531 0.7531 0.7533 0.7535 0.7537
3586.000000 0.7539 0.7541 0.7543 0.7545 0.7547
3591.000000 0.7549 0.7552 0.7554 0.7556 0.7558
3596.000000 0.7560 0.7562 0.7564 0.7566 0.7569
3601.000000 0.7571 0.7573 0.7576 0.7578 0.7581
3606.000000 0.7584 0.7587 0.7590 0.7593 0.7595
3611.000000 0.7598 0.7601 0.7571 0.7605 0.7607
3616.000000 0.7609 0.7611 0.7613 0.7613 0.7613
3621.000000 0.7613 0.7613 0.7613 0.7612 0.7612
3626.000000 0.7611 0.7611 0.7611 0.7610 0.7610
3631.000000 0.7610 0.7609 0.7609 0.7608 0.7608
3636.000000 0.7608 0.7607 0.7607 0.7607 0.7606
3641.000000 0.7605 0.7605 0.7604 0.7604 0.7603
3646.000000 0.7603 0.7602 0.7601 0.7601 0.7600
3651.000000 0.7600 0.7600 0.7599 0.7599 0.7598
3656.000000 0.7598 0.7598 0.7597 0.7597 0.7597
3661.000000 0.7596 0.7596 0.7596 0.7595 0.7595
3666.000000 0.7594 0.7594 0.7594 0.7593 0.7593
3671.000000 0.7593 0.7592 0.7592 0.7592 0.7592
3676.000000 0.7592 0.7591 0.7590 0.7588 0.7587
3681.000000 0.7586 0.7584 0.7583 0.7581 0.7579
3686.000000 0.7578 0.7576 0.7574 0.7573 0.7571
3691.000000 0.7569 0.7568 0.7566 0.7565 0.7563
3696.000000 0.7562 0.7560 0.7559 0.7557 0.7556
3701.000000 0.7554 0.7552 0.7551 0.7549 0.7547
3706.000000 0.7545 0.7544 0.7542 0.7540 0.7538
3711.000000 0.7536 0.7534 0.7533 0.7531 0.7529
3716.000000 0.7527 0.7526 0.7524 0.7523 0.7521
3721.000000 0.7519 0.7517 0.7516 0.7514 0.7512
3726.000000 0.7510 0.7509 0.7507 0.7505 0.7504
3731.000000 0.7502 0.7500 0.7499 0.7497 0.7495
3736.000000 0.7493 0.7491 0.7490 0.7488 0.7486
3741.000000 0.7484 0.7482 0.7481 0.7479 0.7478
3746.000000 0.7476 0.7474 0.7473 0.7471 0.7469
3751.000000 0.7467 0.7466 0.7464 0.7462 0.7461
3756.000000 0.7459 0.7457 0.7456 0.7454 0.7452
3761.000000 0.7451 0.7449 0.7447 0.7445 0.7444
3766.000000 0.7442 0.7440 0.7439 0.7437 0.7436
3771.000000 0.7434 0.7433 0.7431 0.7429 0.7428
3776.000000 0.7426 0.7425 0.7423 0.7421 0.7420
3781.000000 0.7418 0.7417 0.7415 0.7414 0.7412
3786.000000 0.7410 0.7409 0.7407 0.7406 0.7404
3791.000000 0.7403 0.7401 0.7399 0.7398 0.7396
3796.000000 0.7395 0.7393 0.7392 0.7390 0.7389
3801.000000 0.7388 0.7387 0.7386 0.7386 0.7385
3806.000000 0.7384 0.7383 0.7382 0.7381 0.7380
3811.000000 0.7379 0.7379 0.7378 0.7377 0.7377
3816.000000 0.7376 0.7375 0.7375 0.7374 0.7373
3821.000000 0.7373 0.7372 0.7372 0.7372 0.7372
3826.000000 0.7372 0.7372 0.7372 0.7372 0.7372
3831.000000 0.7372 0.7372 0.7372 0.7372 0.7372
3836.000000 0.7372 0.7372 0.7372 0.7372 0.7372
3841.000000 0.7373 0.7373 0.7373 0.7373 0.7373
3846.000000 0.7373 0.7373 0.7373 0.7373 0.7373
3851.000000 0.7373 0.7373 0.7373 0.7373 0.7373
3856.000000 0.7373 0.7373 0.7373 0.7373 0.7373
3861.000000 0.7373 0.7373 0.7373 0.7373 0.7373
3866.000000 0.7373 0.7373 0.7373 0.7373 0.7373
3871.000000 0.7373 0.7374 0.7374 0.7375 0.7375
3876.000000 0.7376 0.7376 0.7376 0.7377 0.7377
3881.000000 0.7377 0.7378 0.7378 0.7379 0.7379
3886.000000 0.7379 0.7380 0.7380 0.7381 0.7381
3891.000000 0.7382 0.7382 0.7383 0.7383 0.7384
3896.000000 0.7384 0.7384 0.7385 0.7385 0.7385
3901.000000 0.7386 0.7386 0.7387 0.7387 0.7388
3906.000000 0.7388 0.7388 0.7388 0.7388 0.7388
3911.000000 0.7388 0.7388 0.7388 0.7388 0.7388
3916.000000 0.7388 0.7388 0.7388 0.7387 0.7387
3921.000000 0.7387 0.7387 0.7387 0.7387 0.7387
3926.000000 0.7387 0.7387 0.7387 0.7387 0.7387
3931.000000 0.7386 0.7386 0.7386 0.7386 0.7386
3936.000000 0.7386 0.7386 0.7385 0.7384 0.7383
3941.000000 0.7382 0.7381 0.7381 0.7379 0.7378
3946.000000 0.7376 0.7375 0.7374 0.7372 0.7371
3951.000000 0.7369 0.7368 0.7366 0.7365 0.7364
3956.000000 0.7362 0.7361 0.7360 0.7358 0.7357
3961.000000 0.7356 0.7354 0.7353 0.7351 0.7350
3966.000000 0.7348 0.7346 0.7345 0.7343 0.7340
3971.000000 0.7338 0.7335 0.7332 0.7330 0.7327
3976.000000 0.7325 0.7322 0.7319 0.7317 0.7314
3981.000000 0.7311 0.7309 0.7306 0.7304 0.7301
3986.000000 0.7299 0.7296 0.7294 0.7291 0.7289
3991.000000 0.7286 0.7284 0.7281 0.7278 0.7275
3996.000000 0.7272 0.7269 0.7266 0.7263 0.7260
##END=
