##TITLE=Benzoic acid, p-sulfo-, s-potassium salt
##JCAMP-DX=4.24
$$ By DXEDIT 1.05 (RS McDonald)
##DATA TYPE=INFRARED SPECTRUM
##CLASS=COBLENTZ III
##ORIGIN=DOW CHEMICAL COMPANY
##OWNER=COPYRIGHT (C) 1988 by COBLENTZ SOCIETY INC.
Collection (C) 2018 copyright by the U.S. Secretary of Commerce
on behalf of the United States of America. All rights reserved.
##DATE=1964/07/22
##MOLFORM=C7 H5 K O5 S
##SOURCE REFERENCE=COBLENTZ NO. 06543
##$NIST ID=B6006543
##$NIST SOURCE=COBLENTZ
##$NIST IMAGE=cob6543
##SPECTROMETER/DATA SYSTEM=BECKMAN IR-9 (GRATING)
##INSTRUMENT PARAMETERS=ORDER CHANGES: 670, 1200, 2000 CM^-^1
##STATE=SOLID (SPLIT MULL)
##SAMPLING PROCEDURE=TRANSMISSION
##RESOLUTION=2
##DATA PROCESSING=DIGITIZED BY COBLENTZ SOCIETY (BATCH I) FROM HARD COPY
##XUNITS=1/CM
##YUNITS=TRANSMITTANCE
##XFACTOR=1
##YFACTOR=1
##DELTAX=1
##FIRSTX=3800
##LASTX=402
##FIRSTY=0.7271
##MAXX=3800
##MINX=402
##MAXY=0.8975
##MINY=0.0034
##NPOINTS=3399
##XYDATA=(X++(Y..Y))
3800.000000 0.7271 0.7271 0.7272 0.7274 0.7275
3795.000000 0.7275 0.7276 0.7278 0.7280 0.7281
3790.000000 0.7282 0.7283 0.7284 0.7285 0.7286
3785.000000 0.7287 0.7289 0.7290 0.7291 0.7292
3780.000000 0.7293 0.7294 0.7295 0.7296 0.7298
3775.000000 0.7299 0.7300 0.7301 0.7301 0.7303
3770.000000 0.7304 0.7305 0.7307 0.7308 0.7308
3765.000000 0.7310 0.7311 0.7311 0.7312 0.7314
3760.000000 0.7315 0.7315 0.7317 0.7318 0.7318
3755.000000 0.7319 0.7321 0.7321 0.7322 0.7324
3750.000000 0.7325 0.7325 0.7328 0.7328 0.7331
3745.000000 0.7333 0.7335 0.7336 0.7338 0.7340
3740.000000 0.7342 0.7343 0.7345 0.7347 0.7349
3735.000000 0.7351 0.7353 0.7354 0.7356 0.7358
3730.000000 0.7360 0.7361 0.7362 0.7365 0.7367
3725.000000 0.7368 0.7369 0.7371 0.7372 0.7374
3720.000000 0.7375 0.7376 0.7378 0.7380 0.7382
3715.000000 0.7383 0.7385 0.7386 0.7388 0.7390
3710.000000 0.7392 0.7393 0.7395 0.7396 0.7398
3705.000000 0.7399 0.7401 0.7401 0.7403 0.7404
3700.000000 0.7406 0.7407 0.7408 0.7410 0.7411
3695.000000 0.7411 0.7414 0.7415 0.7417 0.7418
3690.000000 0.7418 0.7419 0.7421 0.7422 0.7425
3685.000000 0.7425 0.7426 0.7428 0.7430 0.7431
3680.000000 0.7432 0.7433 0.7434 0.7434 0.7435
3675.000000 0.7435 0.7435 0.7435 0.7436 0.7436
3670.000000 0.7437 0.7437 0.7437 0.7437 0.7437
3665.000000 0.7437 0.7437 0.7437 0.7437 0.7437
3660.000000 0.7437 0.7437 0.7437 0.7436 0.7436
3655.000000 0.7436 0.7436 0.7436 0.7436 0.7435
3650.000000 0.7435 0.7435 0.7435 0.7434 0.7434
3645.000000 0.7433 0.7433 0.7433 0.7433 0.7432
3640.000000 0.7432 0.7432 0.7432 0.7428 0.7426
3635.000000 0.7424 0.7421 0.7418 0.7415 0.7412
3630.000000 0.7410 0.7407 0.7405 0.7401 0.7399
3625.000000 0.7393 0.7388 0.7382 0.7375 0.7369
3620.000000 0.7364 0.7358 0.7351 0.7346 0.7340
3615.000000 0.7334 0.7328 0.7324 0.7318 0.7326
3610.000000 0.7335 0.7340 0.7346 0.7350 0.7355
3605.000000 0.7358 0.7364 0.7365 0.7368 0.7368
3600.000000 0.7369 0.7365 0.7362 0.7354 0.7346
3595.000000 0.7337 0.7328 0.7321 0.7314 0.7306
3590.000000 0.7299 0.7293 0.7288 0.7284 0.7284
3585.000000 0.7284 0.7288 0.7297 0.7307 0.7315
3580.000000 0.7325 0.7328 0.7334 0.7335 0.7337
3575.000000 0.7339 0.7341 0.7342 0.7344 0.7344
3570.000000 0.7345 0.7345 0.7346 0.7346 0.7347
3565.000000 0.7347 0.7348 0.7349 0.7350 0.7350
3560.000000 0.7351 0.7351 0.7351 0.7351 0.7351
3555.000000 0.7350 0.7350 0.7349 0.7349 0.7349
3550.000000 0.7349 0.7348 0.7348 0.7347 0.7347
3545.000000 0.7347 0.7347 0.7346 0.7345 0.7344
3540.000000 0.7343 0.7342 0.7341 0.7340 0.7339
3535.000000 0.7337 0.7336 0.7335 0.7334 0.7333
3530.000000 0.7332 0.7330 0.7328 0.7326 0.7325
3525.000000 0.7324 0.7322 0.7321 0.7319 0.7318
3520.000000 0.7317 0.7315 0.7314 0.7311 0.7311
3515.000000 0.7308 0.7308 0.7306 0.7305 0.7303
3510.000000 0.7301 0.7301 0.7300 0.7299 0.7298
3505.000000 0.7297 0.7296 0.7295 0.7294 0.7293
3500.000000 0.7296 0.7291 0.7290 0.7289 0.7288
3495.000000 0.7286 0.7285 0.7284 0.7283 0.7282
3490.000000 0.7281 0.7280 0.7278 0.7276 0.7275
3485.000000 0.7275 0.7274 0.7272 0.7271 0.7271
3480.000000 0.7269 0.7268 0.7267 0.7265 0.7264
3475.000000 0.7261 0.7258 0.7257 0.7255 0.7253
3470.000000 0.7251 0.7249 0.7247 0.7244 0.7242
3465.000000 0.7240 0.7238 0.7235 0.7232 0.7228
3460.000000 0.7224 0.7219 0.7217 0.7212 0.7210
3455.000000 0.7205 0.7200 0.7194 0.7189 0.7183
3450.000000 0.7178 0.7171 0.7165 0.7158 0.7151
3445.000000 0.7144 0.7137 0.7130 0.7122 0.7112
3440.000000 0.7104 0.7094 0.7085 0.7075 0.7065
3435.000000 0.7060 0.7054 0.7053 0.7053 0.7053
3430.000000 0.7045 0.7056 0.7058 0.7068 0.7080
3425.000000 0.7093 0.7107 0.7117 0.7128 0.7135
3420.000000 0.7143 0.7150 0.7158 0.7164 0.7171
3415.000000 0.7175 0.7180 0.7184 0.7189 0.7193
3410.000000 0.7198 0.7200 0.7203 0.7204 0.7205
3405.000000 0.7206 0.7208 0.7208 0.7211 0.7211
3400.000000 0.7212 0.7214 0.7215 0.7217 0.7218
3395.000000 0.7218 0.7221 0.7221 0.7224 0.7225
3390.000000 0.7225 0.7226 0.7228 0.7228 0.7228
3385.000000 0.7228 0.7228 0.7228 0.7228 0.7228
3380.000000 0.7228 0.7228 0.7228 0.7225 0.7225
3375.000000 0.7222 0.7221 0.7218 0.7215 0.7214
3370.000000 0.7211 0.7210 0.7208 0.7206 0.7204
3365.000000 0.7201 0.7200 0.7197 0.7195 0.7193
3360.000000 0.7191 0.7189 0.7187 0.7185 0.7183
3355.000000 0.7180 0.7178 0.7175 0.7172 0.7169
3350.000000 0.7167 0.7164 0.7161 0.7158 0.7155
3345.000000 0.7151 0.7149 0.7146 0.7143 0.7140
3340.000000 0.7137 0.7133 0.7130 0.7126 0.7124
3335.000000 0.7121 0.7118 0.7115 0.7111 0.7108
3330.000000 0.7105 0.7101 0.7097 0.7093 0.7089
3325.000000 0.7085 0.7081 0.7076 0.7072 0.7068
3320.000000 0.7064 0.7060 0.7056 0.7051 0.7048
3315.000000 0.7043 0.7038 0.7033 0.7028 0.7024
3310.000000 0.7018 0.7014 0.7010 0.7005 0.7000
3305.000000 0.6993 0.6987 0.6980 0.6974 0.6967
3300.000000 0.6961 0.6954 0.6948 0.6941 0.6934
3295.000000 0.6926 0.6921 0.6914 0.6907 0.6900
3290.000000 0.6893 0.6886 0.6880 0.6872 0.6865
3285.000000 0.6858 0.6851 0.6845 0.6838 0.6831
3280.000000 0.6824 0.6815 0.6807 0.6797 0.6788
3275.000000 0.6778 0.6768 0.6758 0.6750 0.6740
3270.000000 0.6731 0.6721 0.6711 0.6701 0.6693
3265.000000 0.6683 0.6674 0.6664 0.6655 0.6645
3260.000000 0.6635 0.6625 0.6615 0.6605 0.6595
3255.000000 0.6585 0.6575 0.6565 0.6555 0.6545
3250.000000 0.6535 0.6525 0.6515 0.6505 0.6495
3245.000000 0.6483 0.6471 0.6458 0.6447 0.6435
3240.000000 0.6422 0.6411 0.6399 0.6387 0.6375
3235.000000 0.6362 0.6351 0.6338 0.6326 0.6312
3230.000000 0.6301 0.6288 0.6276 0.6262 0.6251
3225.000000 0.6238 0.6226 0.6212 0.6201 0.6187
3220.000000 0.6173 0.6158 0.6143 0.6127 0.6112
3215.000000 0.6097 0.6082 0.6066 0.6051 0.6033
3210.000000 0.6016 0.5996 0.5977 0.5957 0.5938
3205.000000 0.5919 0.5900 0.5880 0.5860 0.5841
3200.000000 0.5822 0.5802 0.5783 0.5762 0.5743
3195.000000 0.5723 0.5704 0.5684 0.5664 0.5644
3190.000000 0.5625 0.5605 0.5585 0.5564 0.5543
3185.000000 0.5522 0.5501 0.5480 0.5459 0.5437
3180.000000 0.5416 0.5395 0.5374 0.5352 0.5330
3175.000000 0.5307 0.5284 0.5260 0.5237 0.5214
3170.000000 0.5191 0.5167 0.5144 0.5125 0.5106
3165.000000 0.5086 0.5067 0.5047 0.5028 0.5009
3160.000000 0.4990 0.4965 0.4941 0.4916 0.4892
3155.000000 0.4866 0.4840 0.4809 0.4778 0.4757
3150.000000 0.4736 0.4716 0.4696 0.4676 0.4657
3145.000000 0.4636 0.4616 0.4604 0.4593 0.4589
3140.000000 0.4585 0.4580 0.4576 0.4572 0.4568
3135.000000 0.4562 0.4559 0.4554 0.4549 0.4544
3130.000000 0.4539 0.4531 0.4524 0.4517 0.4510
3125.000000 0.4502 0.4495 0.4488 0.4481 0.4469
3120.000000 0.4458 0.4446 0.4434 0.4421 0.4409
3115.000000 0.4396 0.4384 0.4373 0.4362 0.4353
3110.000000 0.4343 0.4332 0.4322 0.4310 0.4301
3105.000000 0.4284 0.4267 0.4246 0.4225 0.4182
3100.000000 0.4140 0.4110 0.4082 0.4053 0.4025
3095.000000 0.3999 0.3973 0.3953 0.3934 0.3914
3090.000000 0.3895 0.3875 0.3856 0.3837 0.3818
3085.000000 0.3802 0.3784 0.3766 0.3750 0.3732
3080.000000 0.3716 0.3700 0.3682 0.3666 0.3650
3075.000000 0.3632 0.3616 0.3599 0.3582 0.3566
3070.000000 0.3549 0.3532 0.3516 0.3499 0.3482
3065.000000 0.3464 0.3446 0.3427 0.3408 0.3392
3060.000000 0.3376 0.3360 0.3346 0.3330 0.3316
3055.000000 0.3300 0.3287 0.3275 0.3262 0.3254
3050.000000 0.3246 0.3238 0.3230 0.3223 0.3216
3045.000000 0.3210 0.3206 0.3200 0.3194 0.3188
3040.000000 0.3183 0.3181 0.3179 0.3178 0.3177
3035.000000 0.3176 0.3176 0.3176 0.3177 0.3177
3030.000000 0.3177 0.3177 0.3178 0.3179 0.3181
3025.000000 0.3182 0.3184 0.3185 0.3189 0.3200
3020.000000 0.3210 0.3222 0.3232 0.3242 0.3252
3015.000000 0.3260 0.3271 0.3280 0.3290 0.3298
3010.000000 0.3307 0.3314 0.3324 0.3332 0.3340
3005.000000 0.3348 0.3357 0.3364 0.3373 0.3380
3000.000000 0.3388 0.3395 0.3402 0.3409 0.3416
2995.000000 0.3424 0.3430 0.3438 0.3445 0.3452
2990.000000 0.3459 0.3466 0.3473 0.3476 0.3480
2985.000000 0.3482 0.3486 0.3488 0.3491 0.3492
2980.000000 0.3492 0.3492 0.3491 0.3490 0.3489
2975.000000 0.3488 0.3488 0.3487 0.3487 0.3486
2970.000000 0.3486 0.3484 0.3484 0.3484 0.3482
2965.000000 0.3482 0.3482 0.3482 0.3484 0.3494
2960.000000 0.3504 0.3512 0.3522 0.3532 0.3543
2955.000000 0.3559 0.3577 0.3595 0.3612 0.3630
2950.000000 0.3649 0.3666 0.3686 0.3704 0.3722
2945.000000 0.3741 0.3760 0.3780 0.3800 0.3821
2940.000000 0.3841 0.3859 0.3880 0.3900 0.3920
2935.000000 0.3940 0.3959 0.3980 0.4000 0.4018
2930.000000 0.4036 0.4052 0.4068 0.4086 0.4103
2925.000000 0.4119 0.4136 0.4152 0.4169 0.4186
2920.000000 0.4203 0.4219 0.4236 0.4253 0.4270
2915.000000 0.4287 0.4304 0.4321 0.4338 0.4355
2910.000000 0.4372 0.4389 0.4406 0.4422 0.4439
2905.000000 0.4456 0.4473 0.4491 0.4509 0.4527
2900.000000 0.4546 0.4564 0.4582 0.4600 0.4618
2895.000000 0.4636 0.4654 0.4672 0.4690 0.4706
2890.000000 0.4723 0.4738 0.4753 0.4768 0.4783
2885.000000 0.4798 0.4812 0.4828 0.4843 0.4857
2880.000000 0.4872 0.4887 0.4902 0.4917 0.4932
2875.000000 0.4948 0.4965 0.4981 0.4997 0.5012
2870.000000 0.5030 0.5046 0.5062 0.5079 0.5095
2865.000000 0.5110 0.5128 0.5143 0.5159 0.5173
2860.000000 0.5188 0.5203 0.5218 0.5233 0.5248
2855.000000 0.5262 0.5278 0.5294 0.5310 0.5326
2850.000000 0.5343 0.5359 0.5375 0.5391 0.5408
2845.000000 0.5425 0.5443 0.5460 0.5479 0.5497
2840.000000 0.5516 0.5531 0.5547 0.5562 0.5577
2835.000000 0.5591 0.5606 0.5618 0.5631 0.5642
2830.000000 0.5654 0.5662 0.5672 0.5681 0.5690
2825.000000 0.5697 0.5705 0.5710 0.5716 0.5722
2820.000000 0.5728 0.5731 0.5771 0.5737 0.5740
2815.000000 0.5741 0.5742 0.5742 0.5742 0.5741
2810.000000 0.5741 0.5735 0.5730 0.5722 0.5715
2805.000000 0.5705 0.5696 0.5686 0.5677 0.5667
2800.000000 0.5657 0.5651 0.5645 0.5642 0.5640
2795.000000 0.5637 0.5635 0.5632 0.5630 0.5628
2790.000000 0.5614 0.5624 0.5622 0.5622 0.5623
2785.000000 0.5624 0.5625 0.5627 0.5630 0.5643
2780.000000 0.5657 0.5670 0.5684 0.5699 0.5714
2775.000000 0.5729 0.5744 0.5765 0.5787 0.5828
2770.000000 0.5869 0.5891 0.5912 0.5935 0.5957
2765.000000 0.5979 0.6001 0.6023 0.6046 0.6068
2760.000000 0.6090 0.6112 0.6134 0.6156 0.6178
2755.000000 0.6193 0.6208 0.6219 0.6231 0.6242
2750.000000 0.6254 0.6266 0.6279 0.6292 0.6305
2745.000000 0.6318 0.6332 0.6345 0.6358 0.6371
2740.000000 0.6385 0.6399 0.6414 0.6428 0.6443
2735.000000 0.6457 0.6471 0.6485 0.6499 0.6511
2730.000000 0.6525 0.6539 0.6553 0.6564 0.6575
2725.000000 0.6587 0.6599 0.6610 0.6621 0.6632
2720.000000 0.6644 0.6654 0.6664 0.6672 0.6683
2715.000000 0.6693 0.6703 0.6712 0.6722 0.6734
2710.000000 0.6746 0.6754 0.6762 0.6771 0.6780
2705.000000 0.6783 0.6787 0.6790 0.6794 0.6796
2700.000000 0.6797 0.6797 0.6796 0.6795 0.6794
2695.000000 0.6792 0.6844 0.6787 0.6785 0.6783
2690.000000 0.6781 0.6778 0.6775 0.6771 0.6768
2685.000000 0.6765 0.6761 0.6755 0.6749 0.6741
2680.000000 0.6733 0.6725 0.6717 0.6708 0.6701
2675.000000 0.6690 0.6680 0.6668 0.6656 0.6644
2670.000000 0.6632 0.6619 0.6608 0.6594 0.6581
2665.000000 0.6567 0.6554 0.6540 0.6526 0.6512
2660.000000 0.6499 0.6483 0.6467 0.6451 0.6436
2655.000000 0.6418 0.6400 0.6374 0.6348 0.6314
2650.000000 0.6281 0.6250 0.6220 0.6192 0.6164
2645.000000 0.6136 0.6108 0.6071 0.6035 0.6003
2640.000000 0.5971 0.5957 0.5943 0.5939 0.5936
2635.000000 0.5936 0.5946 0.5938 0.5940 0.5951
2630.000000 0.5962 0.5984 0.6007 0.6043 0.6080
2625.000000 0.6138 0.6197 0.6254 0.6312 0.6365
2620.000000 0.6418 0.6467 0.6515 0.6565 0.6615
2615.000000 0.6668 0.6722 0.6761 0.6800 0.6825
2610.000000 0.6851 0.6875 0.6901 0.6924 0.6946
2605.000000 0.6965 0.6987 0.7006 0.7025 0.7043
2600.000000 0.7060 0.7076 0.7095 0.7111 0.7128
2595.000000 0.7137 0.7146 0.7154 0.7162 0.7171
2590.000000 0.7181 0.7189 0.7197 0.7203 0.7210
2585.000000 0.7215 0.7222 0.7228 0.7236 0.7242
2580.000000 0.7248 0.7253 0.7258 0.7265 0.7271
2575.000000 0.7275 0.7282 0.7287 0.7293 0.7299
2570.000000 0.7305 0.7311 0.7317 0.7321 0.7328
2565.000000 0.7334 0.7340 0.7346 0.7351 0.7358
2560.000000 0.7364 0.7369 0.7375 0.7380 0.7385
2555.000000 0.7388 0.7392 0.7395 0.7401 0.7403
2550.000000 0.7403 0.7404 0.7405 0.7406 0.7407
2545.000000 0.7400 0.7394 0.7386 0.7378 0.7368
2540.000000 0.7361 0.7351 0.7344 0.7328 0.7315
2535.000000 0.7300 0.7286 0.7272 0.7261 0.7249
2530.000000 0.7237 0.7225 0.7212 0.7201 0.7189
2525.000000 0.7175 0.7164 0.7151 0.7139 0.7128
2520.000000 0.7118 0.7108 0.7100 0.7090 0.7081
2515.000000 0.7071 0.7061 0.7053 0.7044 0.7035
2510.000000 0.7026 0.7018 0.7011 0.7001 0.6994
2505.000000 0.6991 0.6989 0.6987 0.6985 0.6983
2500.000000 0.6983 0.6982 0.6990 0.6990 0.6990
2495.000000 0.6997 0.7005 0.7015 0.7025 0.7035
2490.000000 0.7045 0.7058 0.7071 0.7093 0.7115
2485.000000 0.7138 0.7160 0.7185 0.7210 0.7235
2480.000000 0.7261 0.7286 0.7311 0.7333 0.7355
2475.000000 0.7374 0.7393 0.7411 0.7430 0.7449
2470.000000 0.7468 0.7487 0.7506 0.7521 0.7537
2465.000000 0.7550 0.7562 0.7575 0.7589 0.7601
2460.000000 0.7615 0.7628 0.7641 0.7653 0.7665
2455.000000 0.7678 0.7691 0.7703 0.7715 0.7726
2450.000000 0.7739 0.7750 0.7761 0.7765 0.7771
2445.000000 0.7775 0.7778 0.7783 0.7788 0.7792
2440.000000 0.7796 0.7800 0.7805 0.7808 0.7814
2435.000000 0.7818 0.7821 0.7825 0.7831 0.7833
2430.000000 0.7835 0.7835 0.7836 0.7837 0.7838
2425.000000 0.7838 0.7838 0.7837 0.7836 0.7835
2420.000000 0.7834 0.7834 0.7834 0.7835 0.7837
2415.000000 0.7838 0.7839 0.7840 0.7842 0.7843
2410.000000 0.7844 0.7847 0.7850 0.7854 0.7858
2405.000000 0.7862 0.7868 0.7871 0.7876 0.7882
2400.000000 0.7888 0.7896 0.7905 0.7914 0.7922
2395.000000 0.7930 0.7937 0.7941 0.7946 0.7948
2390.000000 0.7951 0.7951 0.7953 0.7953 0.7954
2385.000000 0.7954 0.7954 0.7954 0.7954 0.7953
2380.000000 0.7951 0.7951 0.7950 0.7949 0.7949
2375.000000 0.7949 0.7949 0.7949 0.7949 0.7949
2370.000000 0.7950 0.7950 0.7951 0.7951 0.7951
2365.000000 0.7951 0.7953 0.7953 0.7954 0.7954
2360.000000 0.7955 0.7955 0.7956 0.7956 0.7957
2355.000000 0.7957 0.7957 0.7957 0.7958 0.7958
2350.000000 0.7958 0.7958 0.7960 0.7960 0.7961
2345.000000 0.7961 0.7961 0.7961 0.7962 0.7962
2340.000000 0.7964 0.7964 0.7965 0.7965 0.7965
2335.000000 0.7968 0.7971 0.7976 0.7982 0.7987
2330.000000 0.7992 0.7999 0.8007 0.8014 0.8021
2325.000000 0.8028 0.8036 0.8042 0.8048 0.8049
2320.000000 0.8051 0.8053 0.8055 0.8056 0.8058
2315.000000 0.8060 0.8061 0.8061 0.8062 0.8062
2310.000000 0.8062 0.8062 0.8062 0.8062 0.8062
2305.000000 0.8062 0.8062 0.8062 0.8062 0.8064
2300.000000 0.8065 0.8068 0.8069 0.8071 0.8074
2295.000000 0.8075 0.8078 0.8080 0.8082 0.8084
2290.000000 0.8086 0.8088 0.8090 0.8092 0.8094
2285.000000 0.8096 0.8099 0.8101 0.8106 0.8110
2280.000000 0.8114 0.8117 0.8121 0.8124 0.8128
2275.000000 0.8132 0.8136 0.8139 0.8143 0.8147
2270.000000 0.8151 0.8154 0.8158 0.8161 0.8165
2265.000000 0.8168 0.8172 0.8175 0.8180 0.8183
2260.000000 0.8187 0.8191 0.8195 0.8198 0.8202
2255.000000 0.8207 0.8213 0.8218 0.8224 0.8228
2250.000000 0.8235 0.8240 0.8246 0.8252 0.8258
2245.000000 0.8263 0.8268 0.8274 0.8280 0.8284
2240.000000 0.8289 0.8294 0.8299 0.8303 0.8308
2235.000000 0.8313 0.8318 0.8324 0.8331 0.8338
2230.000000 0.8345 0.8352 0.8359 0.8365 0.8371
2225.000000 0.8380 0.8389 0.8397 0.8405 0.8413
2220.000000 0.8421 0.8425 0.8432 0.8431 0.8431
2215.000000 0.8430 0.8430 0.8430 0.8430 0.8428
2210.000000 0.8428 0.8428 0.8428 0.8425 0.8424
2205.000000 0.8421 0.8421 0.8418 0.8417 0.8415
2200.000000 0.8414 0.8414 0.8414 0.8415 0.8418
2195.000000 0.8420 0.8423 0.8425 0.8428 0.8431
2190.000000 0.8434 0.8437 0.8440 0.8445 0.8450
2185.000000 0.8455 0.8460 0.8465 0.8471 0.8475
2180.000000 0.8481 0.8486 0.8491 0.8496 0.8502
2175.000000 0.8507 0.8512 0.8517 0.8521 0.8527
2170.000000 0.8533 0.8538 0.8543 0.8548 0.8553
2165.000000 0.8558 0.8563 0.8568 0.8573 0.8577
2160.000000 0.8582 0.8587 0.8592 0.8597 0.8602
2155.000000 0.8607 0.8612 0.8617 0.8621 0.8627
2150.000000 0.8632 0.8635 0.8639 0.8640 0.8641
2145.000000 0.8642 0.8643 0.8643 0.8644 0.8644
2140.000000 0.8645 0.8646 0.8647 0.8648 0.8649
2135.000000 0.8650 0.8652 0.8653 0.8655 0.8656
2130.000000 0.8657 0.8658 0.8660 0.8661 0.8663
2125.000000 0.8664 0.8665 0.8666 0.8668 0.8668
2120.000000 0.8671 0.8671 0.8673 0.8674 0.8675
2115.000000 0.8675 0.8678 0.8678 0.8680 0.8681
2110.000000 0.8682 0.8683 0.8685 0.8686 0.8687
2105.000000 0.8688 0.8689 0.8689 0.8690 0.8691
2100.000000 0.8692 0.8692 0.8693 0.8693 0.8694
2095.000000 0.8695 0.8696 0.8696 0.8697 0.8697
2090.000000 0.8697 0.8697 0.8697 0.8696 0.8696
2085.000000 0.8695 0.8695 0.8694 0.8693 0.8692
2080.000000 0.8692 0.8691 0.8691 0.8691 0.8691
2075.000000 0.8690 0.8690 0.8690 0.8690 0.8690
2070.000000 0.8690 0.8690 0.8690 0.8690 0.8690
2065.000000 0.8690 0.8690 0.8690 0.8690 0.8690
2060.000000 0.8691 0.8691 0.8691 0.8691 0.8691
2055.000000 0.8691 0.8692 0.8693 0.8694 0.8695
2050.000000 0.8696 0.8697 0.8698 0.8699 0.8701
2045.000000 0.8703 0.8705 0.8707 0.8709 0.8710
2040.000000 0.8712 0.8720 0.8728 0.8736 0.8744
2035.000000 0.8753 0.8762 0.8771 0.8783 0.8793
2030.000000 0.8804 0.8813 0.8821 0.8830 0.8839
2025.000000 0.8845 0.8851 0.8853 0.8856 0.8858
2020.000000 0.8861 0.8861 0.8862 0.8862 0.8863
2015.000000 0.8863 0.8864 0.8864 0.8865 0.8865
2010.000000 0.8865 0.8860 0.8856 0.8851 0.8846
2005.000000 0.8841 0.8837 0.8831 0.8825 0.8814
2000.000000 0.8803 0.8791 0.8783 0.8775 0.8768
1995.000000 0.8763 0.8756 0.8749 0.8742 0.8741
1990.000000 0.8739 0.8738 0.8737 0.8735 0.8734
1985.000000 0.8733 0.8731 0.8730 0.8728 0.8728
1980.000000 0.8730 0.8731 0.8732 0.8733 0.8733
1975.000000 0.8733 0.8733 0.8733 0.8733 0.8733
1970.000000 0.8734 0.8734 0.8734 0.8734 0.8733
1965.000000 0.8733 0.8732 0.8725 0.8715 0.8705
1960.000000 0.8687 0.8671 0.8662 0.8653 0.8654
1955.000000 0.8660 0.8666 0.8673 0.8671 0.8668
1950.000000 0.8665 0.8655 0.8639 0.8621 0.8612
1945.000000 0.8603 0.8594 0.8585 0.8577 0.8568
1940.000000 0.8561 0.8557 0.8583 0.8553 0.8567
1935.000000 0.8613 0.8649 0.8673 0.8686 0.8690
1930.000000 0.8695 0.8699 0.8702 0.8705 0.8708
1925.000000 0.8711 0.8721 0.8735 0.8751 0.8771
1920.000000 0.8791 0.8806 0.8820 0.8824 0.8828
1915.000000 0.8832 0.8835 0.8839 0.8842 0.8846
1910.000000 0.8849 0.8849 0.8848 0.8848 0.8847
1905.000000 0.8847 0.8846 0.8846 0.8846 0.8846
1900.000000 0.8846 0.8846 0.8846 0.8846 0.8846
1895.000000 0.8846 0.8846 0.8846 0.8845 0.8844
1890.000000 0.8843 0.8842 0.8841 0.8840 0.8839
1885.000000 0.8837 0.8835 0.8833 0.8830 0.8828
1880.000000 0.8820 0.8809 0.8799 0.8790 0.8785
1875.000000 0.8780 0.8778 0.8777 0.8775 0.8775
1870.000000 0.8773 0.8771 0.8771 0.8770 0.8768
1865.000000 0.8767 0.8766 0.8764 0.8763 0.8762
1860.000000 0.8760 0.8759 0.8758 0.8758 0.8758
1855.000000 0.8758 0.8758 0.8758 0.8758 0.8757
1850.000000 0.8753 0.8748 0.8745 0.8741 0.8737
1845.000000 0.8733 0.8730 0.8725 0.8721 0.8706
1840.000000 0.8690 0.8675 0.8660 0.8646 0.8637
1835.000000 0.8628 0.8630 0.8630 0.8628 0.8625
1830.000000 0.8623 0.8621 0.8618 0.8615 0.8611
1825.000000 0.8609 0.8609 0.8610 0.8611 0.8611
1820.000000 0.8611 0.8612 0.8604 0.8596 0.8588
1815.000000 0.8577 0.8566 0.8568 0.8575 0.8581
1810.000000 0.8587 0.8593 0.8592 0.8590 0.8588
1805.000000 0.8585 0.8583 0.8580 0.8578 0.8577
1800.000000 0.8575 0.8573 0.8571 0.8568 0.8567
1795.000000 0.8564 0.8561 0.8557 0.8553 0.8549
1790.000000 0.8544 0.8540 0.8536 0.8533 0.8530
1785.000000 0.8527 0.8524 0.8518 0.8510 0.8502
1780.000000 0.8487 0.8467 0.8447 0.8425 0.8404
1775.000000 0.8382 0.8358 0.8331 0.8303 0.8275
1770.000000 0.8251 0.8225 0.8201 0.8171 0.8141
1765.000000 0.8110 0.8078 0.8034 0.7987 0.7938
1760.000000 0.7884 0.7828 0.7775 0.7728 0.7684
1755.000000 0.7639 0.7594 0.7531 0.7418 0.7296
1750.000000 0.7162 0.7028 0.6876 0.6696 0.6412
1745.000000 0.6258 0.6103 0.5987 0.5872 0.5537
1740.000000 0.5226 0.4776 0.4280 0.3782 0.3287
1735.000000 0.2790 0.2294 0.1798 0.1301 0.0805
1730.000000 0.0309 0.0130 0.0121 0.0138 0.0139
1725.000000 0.0139 0.0170 0.0227 0.0374 0.0897
1720.000000 0.1471 0.1856 0.2240 0.2625 0.3010
1715.000000 0.3394 0.3779 0.4332 0.4801 0.5196
1710.000000 0.5510 0.5679 0.5891 0.6112 0.6215
1705.000000 0.6302 0.6371 0.6440 0.6499 0.6554
1700.000000 0.6611 0.6669 0.6718 0.6767 0.6814
1695.000000 0.6855 0.6901 0.6951 0.6995 0.7006
1690.000000 0.7010 0.7010 0.6984 0.6949 0.6922
1685.000000 0.6924 0.6930 0.6949 0.6972 0.7051
1680.000000 0.7143 0.7221 0.7292 0.7369 0.7426
1675.000000 0.7464 0.7501 0.7535 0.7565 0.7597
1670.000000 0.7626 0.7658 0.7686 0.7711 0.7736
1665.000000 0.7760 0.7785 0.7810 0.7834 0.7858
1660.000000 0.7881 0.7905 0.7928 0.7951 0.7975
1655.000000 0.7998 0.8021 0.8041 0.8061 0.8082
1650.000000 0.8103 0.8121 0.8137 0.8151 0.8167
1645.000000 0.8183 0.8198 0.8211 0.8221 0.8231
1640.000000 0.8242 0.8251 0.8260 0.8268 0.8278
1635.000000 0.8286 0.8292 0.8298 0.8304 0.8309
1630.000000 0.8311 0.8313 0.8315 0.8317 0.8320
1625.000000 0.8320 0.8325 0.8325 0.8324 0.8316
1620.000000 0.8309 0.8291 0.8268 0.8244 0.8217
1615.000000 0.8180 0.8137 0.8078 0.8018 0.7839
1610.000000 0.7071 0.6411 0.6411 0.6418 0.6639
1605.000000 0.6864 0.7090 0.7315 0.7540 0.7765
1600.000000 0.7928 0.8021 0.8111 0.8182 0.8228
1595.000000 0.8273 0.8320 0.8367 0.8414 0.8461
1590.000000 0.8509 0.8567 0.8556 0.8550 0.8538
1585.000000 0.8470 0.8094 0.7718 0.7341 0.6925
1580.000000 0.6921 0.6932 0.7468 0.8014 0.8111
1575.000000 0.8193 0.8268 0.8331 0.8383 0.8431
1570.000000 0.8475 0.8514 0.8552 0.8582 0.8602
1565.000000 0.8621 0.8642 0.8662 0.8678 0.8693
1560.000000 0.8707 0.8721 0.8735 0.8749 0.8759
1555.000000 0.8768 0.8778 0.8789 0.8799 0.8805
1550.000000 0.8811 0.8816 0.8821 0.8828 0.8837
1545.000000 0.8844 0.8851 0.8857 0.8862 0.8868
1540.000000 0.8874 0.8874 0.8874 0.8873 0.8871
1535.000000 0.8871 0.8868 0.8866 0.8863 0.8863
1530.000000 0.8863 0.8866 0.8868 0.8871 0.8874
1525.000000 0.8878 0.8882 0.8932 0.8890 0.8892
1520.000000 0.8894 0.8896 0.8898 0.8899 0.8894
1515.000000 0.8890 0.8886 0.8878 0.8859 0.8828
1510.000000 0.8806 0.8796 0.8794 0.8793 0.8790
1505.000000 0.8783 0.8768 0.8718 0.8612 0.8525
1500.000000 0.8439 0.8352 0.8265 0.8069 0.8092
1495.000000 0.8072 0.8139 0.8275 0.8411 0.8546
1490.000000 0.8682 0.8818 0.8909 0.8940 0.8955
1485.000000 0.8962 0.8968 0.8975 0.8974 0.8974
1480.000000 0.8971 0.8968 0.8966 0.8958 0.8950
1475.000000 0.8943 0.8935 0.8930 0.8925 0.8920
1470.000000 0.8908 0.8894 0.8880 0.8864 0.8840
1465.000000 0.8816 0.8786 0.8749 0.8710 0.8685
1460.000000 0.8660 0.8644 0.8632 0.8627 0.8621
1455.000000 0.8621 0.8621 0.8625 0.8631 0.8638
1450.000000 0.8645 0.8650 0.8656 0.8662 0.8668
1445.000000 0.8668 0.8667 0.8665 0.8658 0.8649
1440.000000 0.8640 0.8631 0.8617 0.8599 0.8581
1435.000000 0.8563 0.8545 0.8527 0.8507 0.8483
1430.000000 0.8460 0.8436 0.8411 0.8382 0.8353
1425.000000 0.8323 0.8289 0.8254 0.8201 0.8132
1420.000000 0.7622 0.7340 0.6940 0.6812 0.6712
1415.000000 0.6475 0.5912 0.5350 0.4787 0.4224
1410.000000 0.3438 0.3432 0.3432 0.3442 0.3464
1405.000000 0.3654 0.3980 0.4306 0.4632 0.4959
1400.000000 0.5285 0.5610 0.5852 0.6133 0.6267
1395.000000 0.6401 0.6542 0.6657 0.6772 0.6891
1390.000000 0.7008 0.7126 0.7245 0.7362 0.7481
1385.000000 0.7557 0.7618 0.7689 0.7751 0.7792
1380.000000 0.7811 0.7818 0.7818 0.7815 0.7810
1375.000000 0.7803 0.7772 0.7737 0.7682 0.7668
1370.000000 0.7695 0.7671 0.7686 0.7728 0.7788
1365.000000 0.7848 0.7908 0.7976 0.8035 0.8069
1360.000000 0.8069 0.8069 0.8069 0.8068 0.8056
1355.000000 0.8035 0.8004 0.7961 0.7907 0.7832
1350.000000 0.7737 0.7661 0.7585 0.7518 0.7461
1345.000000 0.7425 0.7418 0.7415 0.7414 0.7411
1340.000000 0.7411 0.7410 0.7404 0.7393 0.7368
1335.000000 0.7337 0.7308 0.7282 0.7255 0.7222
1330.000000 0.7192 0.7160 0.7130 0.7099 0.7068
1325.000000 0.7032 0.6984 0.6931 0.6833 0.6747
1320.000000 0.6674 0.6618 0.6565 0.6455 0.6224
1315.000000 0.5993 0.5762 0.5712 0.5723 0.6003
1310.000000 0.6293 0.6583 0.6696 0.6696 0.6698
1305.000000 0.6680 0.6653 0.6615 0.6562 0.6501
1300.000000 0.5834 0.5394 0.5419 0.5452 0.5532
1295.000000 0.5612 0.5693 0.5742 0.5752 0.5787
1290.000000 0.5715 0.5666 0.5594 0.5439 0.5239
1285.000000 0.5058 0.4780 0.4352 0.4060 0.3768
1280.000000 0.3477 0.3185 0.2894 0.2603 0.2311
1275.000000 0.2019 0.1728 0.1436 0.1170 0.1035
1270.000000 0.0845 0.0699 0.0560 0.0469 0.0414
1265.000000 0.0366 0.0325 0.0286 0.0246 0.0200
1260.000000 0.0164 0.0139 0.0120 0.0102 0.0088
1255.000000 0.0075 0.0065 0.0034 0.0068 0.0070
1250.000000 0.0081 0.0092 0.0121 0.0168 0.0233
1245.000000 0.0340 0.0454 0.0577 0.0716 0.0931
1240.000000 0.1180 0.1657 0.1884 0.2131 0.2582
1235.000000 0.2741 0.2881 0.3000 0.3146 0.3324
1230.000000 0.3502 0.3680 0.3858 0.4036 0.4215
1225.000000 0.4393 0.4571 0.4749 0.4927 0.5106
1220.000000 0.5284 0.5462 0.5640 0.5732 0.5807
1215.000000 0.5881 0.5939 0.5979 0.6000 0.6010
1210.000000 0.6021 0.6024 0.6016 0.6017 0.6005
1205.000000 0.5993 0.5971 0.5944 0.5898 0.5850
1200.000000 0.5794 0.5733 0.5667 0.5594 0.5512
1195.000000 0.5358 0.5210 0.5062 0.4900 0.4612
1190.000000 0.4357 0.3941 0.3524 0.3108 0.2760
1185.000000 0.2700 0.2551 0.2471 0.2370 0.2293
1180.000000 0.2134 0.1907 0.1564 0.1275 0.1011
1175.000000 0.0746 0.0662 0.0598 0.0397 0.0350
1170.000000 0.0317 0.0335 0.0335 0.0362 0.0391
1165.000000 0.0437 0.0501 0.0577 0.0665 0.0895
1160.000000 0.1318 0.1711 0.2103 0.2495 0.2888
1155.000000 0.3280 0.3672 0.4064 0.4457 0.4849
1150.000000 0.5242 0.5634 0.6026 0.6321 0.6419
1145.000000 0.6590 0.6612 0.6625 0.6628 0.6622
1140.000000 0.6610 0.6515 0.6049 0.5749 0.4999
1135.000000 0.4249 0.3499 0.2749 0.1999 0.1249
1130.000000 0.0839 0.0992 0.1604 0.2216 0.2828
1125.000000 0.3440 0.4052 0.4664 0.5177 0.5212
1120.000000 0.5202 0.5188 0.5162 0.4962 0.4660
1115.000000 0.4358 0.4056 0.3754 0.3452 0.3150
1110.000000 0.2853 0.2681 0.2558 0.1729 0.0735
1105.000000 0.0473 0.0483 0.0510 0.0939 0.1525
1100.000000 0.2110 0.2694 0.3279 0.3864 0.4219
1095.000000 0.4438 0.4594 0.4880 0.5096 0.5292
1090.000000 0.5701 0.6109 0.6517 0.6711 0.6815
1085.000000 0.6924 0.7085 0.7195 0.7267 0.7330
1080.000000 0.7371 0.7415 0.7453 0.7487 0.7521
1075.000000 0.7548 0.7571 0.7594 0.7615 0.7637
1070.000000 0.7653 0.7667 0.7681 0.7699 0.7718
1065.000000 0.7715 0.7722 0.7724 0.7724 0.7717
1060.000000 0.7698 0.7678 0.7649 0.7614 0.7580
1055.000000 0.7545 0.7510 0.7457 0.7401 0.7344
1050.000000 0.7287 0.7212 0.7139 0.7037 0.6907
1045.000000 0.6765 0.6530 0.6238 0.5952 0.5695
1040.000000 0.5529 0.5366 0.5206 0.3932 0.2830
1035.000000 0.1728 0.0627 0.0213 0.0221 0.0244
1030.000000 0.0718 0.1405 0.2092 0.2779 0.3466
1025.000000 0.4153 0.4840 0.5527 0.6214 0.6783
1020.000000 0.6822 0.6865 0.6836 0.6815 0.6530
1015.000000 0.5520 0.4509 0.3498 0.2488 0.1477
1010.000000 0.0467 0.0143 0.0143 0.0152 0.0199
1005.000000 0.0341 0.0600 0.0970 0.2138 0.3576
1000.000000 0.5015 0.5865 0.6022 0.6131 0.6220
995.000000 0.6344 0.6453 0.6556 0.6680 0.6787
990.000000 0.6881 0.6968 0.7086 0.7180 0.7205
985.000000 0.7235 0.7267 0.7295 0.7321 0.7353
980.000000 0.7375 0.7395 0.7461 0.7412 0.7407
975.000000 0.7401 0.7397 0.7383 0.7365 0.7322
970.000000 0.7301 0.7294 0.7292 0.7321 0.7334
965.000000 0.7368 0.7400 0.7430 0.7461 0.7491
960.000000 0.7517 0.7539 0.7544 0.7574 0.7555
955.000000 0.7561 0.7558 0.7554 0.7550 0.7547
950.000000 0.7542 0.7536 0.7528 0.7522 0.7515
945.000000 0.7508 0.7503 0.7496 0.7489 0.7482
940.000000 0.7475 0.7468 0.7461 0.7450 0.7438
935.000000 0.7425 0.7414 0.7401 0.7390 0.7378
930.000000 0.7365 0.7348 0.7331 0.7314 0.7297
925.000000 0.7276 0.7256 0.7236 0.7210 0.7182
920.000000 0.7154 0.7125 0.7078 0.7033 0.6981
915.000000 0.6925 0.6868 0.6803 0.6725 0.6642
910.000000 0.6555 0.6448 0.6328 0.6262 0.6197
905.000000 0.6143 0.6091 0.6034 0.5949 0.5859
900.000000 0.5768 0.5678 0.5588 0.5497 0.5407
895.000000 0.5328 0.5354 0.5310 0.5321 0.5405
890.000000 0.5460 0.5516 0.5627 0.5726 0.5824
885.000000 0.5923 0.6022 0.6120 0.6219 0.6317
880.000000 0.6415 0.6515 0.6612 0.6711 0.6811
875.000000 0.6908 0.7008 0.7107 0.7205 0.7304
870.000000 0.7403 0.7492 0.7551 0.7599 0.7618
865.000000 0.7626 0.7628 0.7628 0.7614 0.7131
860.000000 0.6282 0.5176 0.4070 0.2963 0.2564
855.000000 0.2593 0.2573 0.3009 0.3916 0.4823
850.000000 0.5730 0.6415 0.6565 0.6656 0.6696
845.000000 0.6712 0.6730 0.6738 0.6745 0.6751
840.000000 0.6764 0.6818 0.6928 0.7121 0.7306
835.000000 0.7456 0.7550 0.7634 0.7678 0.7721
830.000000 0.7762 0.7789 0.7814 0.7839 0.7864
825.000000 0.7888 0.7908 0.7926 0.7947 0.7967
820.000000 0.7986 0.8006 0.8022 0.8040 0.8058
815.000000 0.8075 0.8089 0.8096 0.8103 0.8108
810.000000 0.8110 0.8111 0.8101 0.8103 0.8097
805.000000 0.8080 0.8061 0.7988 0.7835 0.7681
800.000000 0.7528 0.7530 0.7504 0.7503 0.7628
795.000000 0.7761 0.7892 0.8022 0.8124 0.8178
790.000000 0.8198 0.8214 0.8210 0.8210 0.8208
785.000000 0.8206 0.8197 0.8181 0.8164 0.8148
780.000000 0.8131 0.8114 0.8098 0.8034 0.7971
775.000000 0.7924 0.7876 0.7784 0.7698 0.7615
770.000000 0.7233 0.7017 0.6025 0.5131 0.4237
765.000000 0.3343 0.3049 0.3034 0.4066 0.5653
760.000000 0.7238 0.8146 0.8224 0.8288 0.8343
755.000000 0.8405 0.8441 0.8443 0.8443 0.8443
750.000000 0.8438 0.8412 0.8386 0.8359 0.8318
745.000000 0.8275 0.8232 0.8189 0.8146 0.8104
740.000000 0.8062 0.8021 0.7978 0.7932 0.7871
735.000000 0.7812 0.7754 0.7681 0.7597 0.7512
730.000000 0.7417 0.7269 0.7122 0.6972 0.6821
725.000000 0.6662 0.6500 0.6317 0.6126 0.5895
720.000000 0.5644 0.5308 0.5010 0.4746 0.4360
715.000000 0.3997 0.3491 0.2810 0.2129 0.1449
710.000000 0.0768 0.0279 0.0284 0.0321 0.0330
705.000000 0.0404 0.0475 0.0630 0.0836 0.1588
700.000000 0.2526 0.3464 0.4402 0.5152 0.5171
695.000000 0.5181 0.4764 0.4191 0.3618 0.3045
690.000000 0.2870 0.2899 0.2920 0.4575 0.4624
685.000000 0.4723 0.4885 0.7300 0.7882 0.7988
680.000000 0.8090 0.8178 0.8266 0.8340 0.8415
675.000000 0.8491 0.8544 0.8596 0.8638 0.8675
670.000000 0.8699 0.8716 0.8732 0.8743 0.8754
665.000000 0.8765 0.8771 0.8773 0.8774 0.8766
660.000000 0.8771 0.8768 0.8759 0.8749 0.8733
655.000000 0.8718 0.8703 0.8684 0.8657 0.8630
650.000000 0.8602 0.8559 0.8490 0.8411 0.8292
645.000000 0.8153 0.7276 0.6824 0.6546 0.5415
640.000000 0.4372 0.3330 0.2287 0.1244 0.0332
635.000000 0.0334 0.0323 0.0344 0.0441 0.0581
630.000000 0.2606 0.5988 0.6114 0.6282 0.6387
625.000000 0.6662 0.7668 0.8128 0.8218 0.8312
620.000000 0.8386 0.8447 0.8490 0.8517 0.8543
615.000000 0.8566 0.8584 0.8603 0.8618 0.8631
610.000000 0.8642 0.8654 0.8664 0.8673 0.8682
605.000000 0.8691 0.8698 0.8705 0.8712 0.8718
600.000000 0.8725 0.8727 0.8728 0.8728 0.8728
595.000000 0.8725 0.8721 0.8718 0.8714 0.8708
590.000000 0.8700 0.8692 0.8670 0.8648 0.8621
585.000000 0.8584 0.8513 0.8434 0.8355 0.8275
580.000000 0.8182 0.8086 0.7853 0.7734 0.7621
575.000000 0.7515 0.7222 0.6715 0.5666 0.4862
570.000000 0.4060 0.3258 0.2885 0.2863 0.3268
565.000000 0.3700 0.4132 0.4412 0.4385 0.4165
560.000000 0.3900 0.3634 0.3477 0.3470 0.3890
555.000000 0.4710 0.5531 0.6351 0.7171 0.7950
550.000000 0.8182 0.8313 0.8402 0.8457 0.8491
545.000000 0.8516 0.8525 0.8531 0.8521 0.8540
540.000000 0.8534 0.8528 0.8523 0.8511 0.8488
535.000000 0.8465 0.8420 0.8373 0.8307 0.8210
530.000000 0.8111 0.8014 0.7917 0.7821 0.7733
525.000000 0.7655 0.7551 0.7144 0.6736 0.6329
520.000000 0.6066 0.6049 0.6048 0.6074 0.6365
515.000000 0.6678 0.6993 0.7307 0.7621 0.7869
510.000000 0.8099 0.8306 0.8382 0.8425 0.8457
505.000000 0.8484 0.8504 0.8515 0.8556 0.8521
500.000000 0.8518 0.8518 0.8513 0.8507 0.8500
495.000000 0.8485 0.8470 0.8454 0.8423 0.8391
490.000000 0.8312 0.8214 0.8151 0.8112 0.8086
485.000000 0.8062 0.8053 0.8047 0.8041 0.8019
480.000000 0.7998 0.7960 0.7917 0.7862 0.7801
475.000000 0.7745 0.7694 0.7619 0.7332 0.7137
470.000000 0.6778 0.6421 0.6062 0.5704 0.5346
465.000000 0.5101 0.5081 0.5104 0.5172 0.5793
460.000000 0.6675 0.7425 0.7469 0.7495 0.7512
455.000000 0.7544 0.7526 0.7525 0.7515 0.7505
450.000000 0.7492 0.7468 0.7444 0.7419 0.7380
445.000000 0.7339 0.7299 0.7255 0.7211 0.7160
440.000000 0.7096 0.7033 0.6942 0.6846 0.6754
435.000000 0.6680 0.6604 0.6499 0.6393 0.6305
430.000000 0.6219 0.6135 0.6057 0.5978 0.5902
425.000000 0.5826 0.5750 0.5681 0.5627 0.5574
420.000000 0.5522 0.5476 0.5430 0.5389 0.5357
415.000000 0.5326 0.5294 0.5266 0.5241 0.5217
410.000000 0.5197 0.5177 0.5157 0.5143 0.5129
405.000000 0.5116 0.5102 0.5084 0.5076
##END=
