##TITLE=Saccharin, sodium salt, dihydrate
##JCAMP-DX=4.24
##DATA TYPE=INFRARED SPECTRUM
##CLASS=COBLENTZ III
##ORIGIN=THE SQUIBB INSTITUTE FOR MEDICAL RESEARCH
##OWNER=Copyright (C) 1987 by the Coblentz Society
Collection (C) 2018 copyright by the U.S. Secretary of Commerce
on behalf of the United States of America. All rights reserved.
##DATE=1966/01/25
##NAMES=KRISTALLOSE
##MOLFORM=C7 H4 N Na O3 S  * 2 H2 O
##SOURCE REFERENCE=COBLENTZ NO. 5419
##$NIST ID=B6005419
##$NIST SOURCE=COBLENTZ
##$NIST IMAGE=cob5419
##SPECTROMETER/DATA SYSTEM=PERKIN-ELMER 21 (GRATING)
##STATE=SOLID (1.5 mg / 300 mg KBr DISC)
##RESOLUTION=2
##XUNITS=1/CM
##YUNITS=TRANSMITTANCE
##XFACTOR=1.0
##YFACTOR=1
##FIRSTX=665
##LASTX=4000
##FIRSTY=0.4946
##MAXX=4000
##MINX=665
##MAXY=0.7565
##MINY=0
##NPOINTS=3336
##XYDATA=(X++(Y..Y))
665.000000 0.4946 0.4647 0.4260 0.4025 0.3845
670.000000 0.3571 0.2739 0.2108 0.1478 0.0866
675.000000 0.0732 0.1161 0.1644 0.2126 0.2658
680.000000 0.3028 0.3427 0.3847 0.4196 0.4462
685.000000 0.4721 0.4808 0.4825 0.4797 0.4763
690.000000 0.4724 0.4681 0.4630 0.4540 0.4466
695.000000 0.4411 0.4304 0.4180 0.4070 0.3907
700.000000 0.3677 0.3334 0.2963 0.2654 0.2555
705.000000 0.2716 0.2924 0.3132 0.3164 0.3198
710.000000 0.3443 0.3689 0.3934 0.4065 0.4105
715.000000 0.4132 0.4146 0.4153 0.4151 0.4148
720.000000 0.4143 0.4139 0.4141 0.4145 0.4162
725.000000 0.4180 0.4211 0.4278 0.4364 0.4405
730.000000 0.4416 0.4423 0.4425 0.4415 0.4419
735.000000 0.4401 0.4381 0.4346 0.4291 0.4162
740.000000 0.3979 0.3776 0.3324 0.2405 0.1169
745.000000 0.0362 0.0340 0.0556 0.0808 0.1502
750.000000 0.1513 0.1535 0.0863 0.0860 0.1743
755.000000 0.2487 0.3229 0.3501 0.3536 0.3695
760.000000 0.4316 0.4654 0.4719 0.4733 0.4617
765.000000 0.4537 0.4409 0.4206 0.3749 0.3105
770.000000 0.2477 0.2044 0.1861 0.1854 0.1931
775.000000 0.2065 0.2372 0.2980 0.3496 0.4009
780.000000 0.4622 0.5046 0.5355 0.5567 0.5690
785.000000 0.5742 0.5707 0.5676 0.5431 0.5094
790.000000 0.5081 0.5440 0.5851 0.6361 0.6518
795.000000 0.6590 0.6625 0.6638 0.6645 0.6649
800.000000 0.6662 0.6855 0.7012 0.7122 0.7247
805.000000 0.7312 0.7337 0.7360 0.7381 0.7400
810.000000 0.7410 0.7422 0.7433 0.7441 0.7451
815.000000 0.7460 0.7471 0.7483 0.7493 0.7504
820.000000 0.7511 0.7516 0.7522 0.7527 0.7530
825.000000 0.7530 0.7544 0.7532 0.7532 0.7532
830.000000 0.7531 0.7530 0.7529 0.7529 0.7530
835.000000 0.7531 0.7533 0.7534 0.7535 0.7524
840.000000 0.7512 0.7500 0.7492 0.7494 0.7498
845.000000 0.7507 0.7516 0.7526 0.7536 0.7546
850.000000 0.7549 0.7549 0.7544 0.7536 0.7527
855.000000 0.7517 0.7500 0.7481 0.7464 0.7445
860.000000 0.7419 0.7393 0.7367 0.7339 0.7311
865.000000 0.7284 0.7259 0.7234 0.7210 0.7189
870.000000 0.7174 0.7168 0.7159 0.7111 0.7003
875.000000 0.6902 0.6811 0.6747 0.6752 0.6758
880.000000 0.6967 0.7102 0.7113 0.7113 0.7113
885.000000 0.7113 0.7111 0.7134 0.7123 0.7127
890.000000 0.7122 0.7116 0.7108 0.7099 0.7089
895.000000 0.7078 0.7066 0.7055 0.7040 0.7024
900.000000 0.7007 0.7006 0.7010 0.7014 0.7014
905.000000 0.7000 0.6974 0.6947 0.6910 0.6869
910.000000 0.6838 0.6808 0.6779 0.6752 0.6726
915.000000 0.6699 0.6659 0.6618 0.6578 0.6536
920.000000 0.6496 0.6453 0.6410 0.6368 0.6325
925.000000 0.6275 0.6218 0.6162 0.6102 0.6033
930.000000 0.5965 0.5882 0.5785 0.5682 0.5570
935.000000 0.5450 0.5321 0.5181 0.4978 0.4767
940.000000 0.4536 0.4281 0.4015 0.3507 0.2959
945.000000 0.2412 0.2145 0.2046 0.1918 0.1891
950.000000 0.1883 0.2037 0.2177 0.2204 0.2204
955.000000 0.2206 0.2228 0.2272 0.2306 0.2312
960.000000 0.2293 0.2244 0.2099 0.1808 0.1519
965.000000 0.1230 0.0946 0.0758 0.0704 0.0704
970.000000 0.0700 0.0739 0.0791 0.0877 0.1149
975.000000 0.1905 0.2460 0.3015 0.3504 0.3766
980.000000 0.3919 0.4144 0.4562 0.5017 0.5471
985.000000 0.5924 0.6269 0.6401 0.6436 0.6450
990.000000 0.6452 0.6452 0.6451 0.6445 0.6439
995.000000 0.6432 0.6425 0.6417 0.6410 0.6405
1000.000000 0.6402 0.6398 0.6394 0.6390 0.6387
1005.000000 0.6383 0.6381 0.6377 0.6373 0.6366
1010.000000 0.6358 0.6347 0.6326 0.6305 0.6283
1015.000000 0.6209 0.6076 0.6013 0.6002 0.5999
1020.000000 0.6069 0.6268 0.6446 0.6536 0.6570
1025.000000 0.6583 0.6553 0.6520 0.6478 0.6433
1030.000000 0.6385 0.6335 0.6269 0.6197 0.6120
1035.000000 0.6036 0.5948 0.5760 0.5506 0.5239
1040.000000 0.4959 0.4720 0.4393 0.3879 0.3359
1045.000000 0.2840 0.2277 0.2126 0.2093 0.2194
1050.000000 0.2432 0.2983 0.3534 0.4084 0.4634
1055.000000 0.5182 0.5673 0.5825 0.5860 0.5861
1060.000000 0.5860 0.5855 0.5833 0.5811 0.5785
1065.000000 0.5760 0.5728 0.5694 0.5656 0.5584
1070.000000 0.5461 0.5379 0.5347 0.5317 0.5267
1075.000000 0.5201 0.5114 0.5011 0.4945 0.4879
1080.000000 0.4814 0.4735 0.4651 0.4548 0.4435
1085.000000 0.4316 0.4159 0.3875 0.3736 0.3613
1090.000000 0.3507 0.3403 0.3308 0.3231 0.3154
1095.000000 0.3095 0.3062 0.3030 0.3001 0.2935
1100.000000 0.2790 0.2636 0.2499 0.2406 0.2308
1105.000000 0.2164 0.1978 0.1755 0.1485 0.1200
1110.000000 0.0851 0.0396 0.0221 0.0212 0.0214
1115.000000 0.0190 0.0220 0.0237 0.0293 0.0384
1120.000000 0.0494 0.0626 0.0723 0.0899 0.1270
1125.000000 0.1615 0.1646 0.1656 0.1351 0.1056
1130.000000 0.0762 0.0468 0.0175 0.0045 0.0025
1135.000000 0.0007 0.0001 0.0001 0.0000 0.0000
1140.000000 0.0000 0.0000 0.0000 0.0000 0.0001
1145.000000 0.0001 0.0001 0.0001 0.0002 0.0022
1150.000000 0.0062 0.0101 0.0138 0.0177 0.0214
1155.000000 0.0240 0.0422 0.0496 0.0535 0.0571
1160.000000 0.0604 0.0669 0.0790 0.1045 0.1327
1165.000000 0.1609 0.1891 0.2172 0.2453 0.2732
1170.000000 0.3011 0.3274 0.3459 0.3871 0.4203
1175.000000 0.4374 0.4643 0.4950 0.5211 0.5372
1180.000000 0.5484 0.5575 0.5666 0.5750 0.5813
1185.000000 0.5876 0.5918 0.5943 0.5962 0.5968
1190.000000 0.5965 0.5977 0.5975 0.5971 0.5958
1195.000000 0.5940 0.5896 0.5848 0.5775 0.5706
1200.000000 0.5627 0.5546 0.5460 0.5367 0.5275
1205.000000 0.5196 0.5121 0.5052 0.4992 0.4932
1210.000000 0.4873 0.4809 0.4743 0.4677 0.4610
1215.000000 0.4537 0.4463 0.4389 0.4291 0.4176
1220.000000 0.4024 0.3877 0.3750 0.3563 0.3366
1225.000000 0.3169 0.2972 0.2776 0.2581 0.2386
1230.000000 0.2191 0.1996 0.1802 0.1607 0.1413
1235.000000 0.1182 0.0963 0.0732 0.0564 0.0438
1240.000000 0.0308 0.0210 0.0134 0.0078 0.0045
1245.000000 0.0021 0.0011 0.0007 0.0004 0.0002
1250.000000 0.0011 0.0017 0.0023 0.0036 0.0059
1255.000000 0.0075 0.0090 0.0106 0.0132 0.0188
1260.000000 0.0283 0.0422 0.0566 0.0633 0.0669
1265.000000 0.0684 0.0698 0.0719 0.1063 0.1240
1270.000000 0.1364 0.1510 0.1722 0.1739 0.1743
1275.000000 0.1727 0.1639 0.1346 0.1025 0.0929
1280.000000 0.0860 0.0810 0.0773 0.0758 0.0747
1285.000000 0.0738 0.0731 0.0727 0.0794 0.0725
1290.000000 0.1215 0.1425 0.1634 0.1843 0.2052
1295.000000 0.2260 0.2469 0.2677 0.2884 0.3091
1300.000000 0.3299 0.3505 0.3711 0.3917 0.4123
1305.000000 0.4328 0.4534 0.4716 0.4766 0.4789
1310.000000 0.4795 0.4797 0.4790 0.4777 0.4715
1315.000000 0.4520 0.4312 0.4105 0.3899 0.3692
1320.000000 0.3486 0.3280 0.3075 0.2870 0.2665
1325.000000 0.2461 0.2256 0.2055 0.1961 0.1930
1330.000000 0.1951 0.1930 0.1995 0.2267 0.2538
1335.000000 0.2801 0.2940 0.2978 0.3012 0.3049
1340.000000 0.3097 0.3241 0.3417 0.3554 0.3681
1345.000000 0.3784 0.3883 0.3985 0.4088 0.4181
1350.000000 0.4269 0.4361 0.4460 0.4560 0.4656
1355.000000 0.4757 0.4875 0.5065 0.5248 0.5393
1360.000000 0.5699 0.5999 0.6052 0.6105 0.6139
1365.000000 0.6162 0.6177 0.6186 0.6195 0.6207
1370.000000 0.6218 0.6226 0.6233 0.6240 0.6262
1375.000000 0.6312 0.6369 0.6444 0.6516 0.6587
1380.000000 0.6708 0.6838 0.6887 0.6932 0.6961
1385.000000 0.6984 0.7004 0.7016 0.7023 0.7029
1390.000000 0.7035 0.7040 0.7045 0.7048 0.7053
1395.000000 0.7057 0.7061 0.7072 0.7104 0.7133
1400.000000 0.7140 0.7145 0.7146 0.7147 0.7148
1405.000000 0.7149 0.7151 0.7153 0.7154 0.7155
1410.000000 0.7154 0.7170 0.7151 0.7151 0.7150
1415.000000 0.7148 0.7146 0.7142 0.7139 0.7135
1420.000000 0.7132 0.7128 0.7122 0.7112 0.7102
1425.000000 0.7093 0.7083 0.7073 0.7059 0.7039
1430.000000 0.7020 0.6990 0.6959 0.6926 0.6893
1435.000000 0.6854 0.6808 0.6756 0.6690 0.6619
1440.000000 0.6528 0.6432 0.6322 0.6221 0.6145
1445.000000 0.6076 0.5804 0.5473 0.5142 0.4812
1450.000000 0.4483 0.4154 0.3825 0.3497 0.3300
1455.000000 0.3258 0.3246 0.3251 0.3763 0.4348
1460.000000 0.4932 0.5515 0.6098 0.6647 0.6944
1465.000000 0.7077 0.7194 0.7262 0.7275 0.7280
1470.000000 0.7262 0.7288 0.7288 0.7289 0.7290
1475.000000 0.7287 0.7281 0.7275 0.7269 0.7262
1480.000000 0.7256 0.7249 0.7241 0.7234 0.7227
1485.000000 0.7220 0.7213 0.7206 0.7199 0.7193
1490.000000 0.7188 0.7182 0.7177 0.7172 0.7166
1495.000000 0.7161 0.7155 0.7150 0.7145 0.7140
1500.000000 0.7135 0.7129 0.7124 0.7119 0.7114
1505.000000 0.7109 0.7104 0.7099 0.7094 0.7088
1510.000000 0.7080 0.7071 0.7064 0.7055 0.7047
1515.000000 0.7039 0.7031 0.7023 0.7015 0.7007
1520.000000 0.6999 0.6990 0.6978 0.6964 0.6950
1525.000000 0.6936 0.6910 0.6873 0.6824 0.6772
1530.000000 0.6720 0.6665 0.6604 0.6545 0.6494
1535.000000 0.6450 0.6406 0.6361 0.6323 0.6291
1540.000000 0.6260 0.6236 0.6222 0.6214 0.6209
1545.000000 0.6205 0.6201 0.6190 0.6171 0.6150
1550.000000 0.6127 0.6065 0.5933 0.5732 0.5591
1555.000000 0.5505 0.5436 0.5376 0.5325 0.5287
1560.000000 0.5250 0.5163 0.4962 0.4703 0.4445
1565.000000 0.4191 0.4006 0.3895 0.3798 0.3714
1570.000000 0.3638 0.3566 0.3497 0.3376 0.3081
1575.000000 0.2720 0.2360 0.2000 0.1641 0.1282
1580.000000 0.1037 0.0924 0.0831 0.0771 0.0734
1585.000000 0.0714 0.0712 0.0822 0.1152 0.1547
1590.000000 0.1943 0.2337 0.2732 0.3126 0.3519
1595.000000 0.3912 0.4304 0.4693 0.4878 0.4897
1600.000000 0.4926 0.4823 0.4643 0.4439 0.4236
1605.000000 0.4032 0.3829 0.3626 0.3423 0.3220
1610.000000 0.3018 0.2816 0.2615 0.2413 0.2212
1615.000000 0.2011 0.1811 0.1610 0.1410 0.1210
1620.000000 0.1010 0.0842 0.0724 0.0611 0.0484
1625.000000 0.0372 0.0299 0.0250 0.0210 0.0178
1630.000000 0.0150 0.0126 0.0102 0.0079 0.0056
1635.000000 0.0054 0.0052 0.0051 0.0025 0.0063
1640.000000 0.0082 0.0108 0.0138 0.0171 0.0206
1645.000000 0.0240 0.0275 0.0309 0.0344 0.0378
1650.000000 0.0413 0.0447 0.0481 0.0515 0.0549
1655.000000 0.0584 0.0618 0.0652 0.0686 0.0721
1660.000000 0.0757 0.0788 0.0817 0.0867 0.0941
1665.000000 0.1045 0.1153 0.1268 0.1431 0.1620
1670.000000 0.1813 0.1894 0.1942 0.1982 0.2019
1675.000000 0.2065 0.2139 0.2239 0.2327 0.2431
1680.000000 0.2959 0.3151 0.3238 0.3306 0.3360
1685.000000 0.3401 0.3442 0.3481 0.3511 0.3541
1690.000000 0.3571 0.3642 0.4029 0.4556 0.4884
1695.000000 0.5233 0.5418 0.5535 0.5634 0.5726
1700.000000 0.5817 0.5901 0.5973 0.6043 0.6112
1705.000000 0.6167 0.6221 0.6273 0.6321 0.6359
1710.000000 0.6397 0.6435 0.6474 0.6510 0.6542
1715.000000 0.6571 0.6600 0.6629 0.6657 0.6683
1720.000000 0.6708 0.6733 0.6757 0.6777 0.6794
1725.000000 0.6810 0.6827 0.6844 0.6860 0.6877
1730.000000 0.6894 0.6910 0.6926 0.6947 0.6973
1735.000000 0.6997 0.7020 0.7093 0.7144 0.7176
1740.000000 0.7204 0.7231 0.7254 0.7274 0.7293
1745.000000 0.7313 0.7331 0.7346 0.7360 0.7374
1750.000000 0.7388 0.7402 0.7416 0.7428 0.7437
1755.000000 0.7446 0.7455 0.7464 0.7472 0.7481
1760.000000 0.7489 0.7498 0.7507 0.7512 0.7517
1765.000000 0.7522 0.7527 0.7532 0.7536 0.7541
1770.000000 0.7545 0.7548 0.7549 0.7549 0.7550
1775.000000 0.7551 0.7552 0.7554 0.7554 0.7555
1780.000000 0.7556 0.7557 0.7557 0.7556 0.7554
1785.000000 0.7551 0.7549 0.7547 0.7545 0.7543
1790.000000 0.7540 0.7537 0.7535 0.7532 0.7529
1795.000000 0.7527 0.7523 0.7520 0.7518 0.7515
1800.000000 0.7512 0.7510 0.7507 0.7504 0.7503
1805.000000 0.7503 0.7502 0.7502 0.7501 0.7500
1810.000000 0.7500 0.7500 0.7500 0.7482 0.7501
1815.000000 0.7501 0.7502 0.7503 0.7503 0.7503
1820.000000 0.7504 0.7505 0.7505 0.7505 0.7506
1825.000000 0.7507 0.7508 0.7510 0.7511 0.7513
1830.000000 0.7514 0.7516 0.7517 0.7518 0.7519
1835.000000 0.7521 0.7522 0.7524 0.7525 0.7527
1840.000000 0.7528 0.7530 0.7531 0.7532 0.7533
1845.000000 0.7534 0.7536 0.7537 0.7538 0.7539
1850.000000 0.7540 0.7541 0.7541 0.7540 0.7538
1855.000000 0.7537 0.7536 0.7535 0.7534 0.7533
1860.000000 0.7532 0.7530 0.7529 0.7528 0.7526
1865.000000 0.7523 0.7519 0.7516 0.7512 0.7509
1870.000000 0.7505 0.7502 0.7499 0.7495 0.7492
1875.000000 0.7488 0.7485 0.7481 0.7478 0.7474
1880.000000 0.7470 0.7467 0.7464 0.7460 0.7455
1885.000000 0.7451 0.7447 0.7443 0.7438 0.7434
1890.000000 0.7430 0.7426 0.7421 0.7416 0.7412
1895.000000 0.7408 0.7404 0.7400 0.7396 0.7391
1900.000000 0.7386 0.7382 0.7378 0.7372 0.7365
1905.000000 0.7357 0.7350 0.7342 0.7334 0.7327
1910.000000 0.7319 0.7312 0.7310 0.7310 0.7310
1915.000000 0.7313 0.7317 0.7321 0.7267 0.7333
1920.000000 0.7339 0.7345 0.7351 0.7356 0.7361
1925.000000 0.7366 0.7370 0.7375 0.7380 0.7384
1930.000000 0.7389 0.7394 0.7398 0.7402 0.7407
1935.000000 0.7411 0.7415 0.7419 0.7425 0.7431
1940.000000 0.7438 0.7445 0.7451 0.7458 0.7464
1945.000000 0.7470 0.7477 0.7483 0.7489 0.7495
1950.000000 0.7501 0.7508 0.7514 0.7520 0.7525
1955.000000 0.7529 0.7533 0.7536 0.7539 0.7543
1960.000000 0.7546 0.7549 0.7552 0.7556 0.7560
1965.000000 0.7563 0.7565 0.7565 0.7565 0.7565
1970.000000 0.7565 0.7564 0.7564 0.7564 0.7562
1975.000000 0.7563 0.7563 0.7563 0.7562 0.7562
1980.000000 0.7561 0.7560 0.7559 0.7558 0.7557
1985.000000 0.7555 0.7554 0.7552 0.7551 0.7549
1990.000000 0.7548 0.7547 0.7546 0.7544 0.7543
1995.000000 0.7542 0.7541 0.7539 0.7537 0.7535
2000.000000 0.7534 0.7530 0.7527 0.7524 0.7521
2005.000000 0.7517 0.7514 0.7511 0.7508 0.7505
2010.000000 0.7501 0.7498 0.7495 0.7492 0.7489
2015.000000 0.7486 0.7482 0.7479 0.7476 0.7473
2020.000000 0.7470 0.7467 0.7463 0.7459 0.7456
2025.000000 0.7452 0.7448 0.7445 0.7442 0.7438
2030.000000 0.7435 0.7431 0.7427 0.7424 0.7420
2035.000000 0.7417 0.7414 0.7410 0.7407 0.7403
2040.000000 0.7399 0.7396 0.7392 0.7389 0.7386
2045.000000 0.7382 0.7379 0.7375 0.7372 0.7368
2050.000000 0.7365 0.7361 0.7358 0.7355 0.7351
2055.000000 0.7348 0.7344 0.7341 0.7337 0.7334
2060.000000 0.7330 0.7327 0.7323 0.7319 0.7316
2065.000000 0.7313 0.7310 0.7306 0.7303 0.7299
2070.000000 0.7296 0.7292 0.7289 0.7285 0.7283
2075.000000 0.7281 0.7279 0.7277 0.7275 0.7273
2080.000000 0.7270 0.7269 0.7267 0.7264 0.7262
2085.000000 0.7260 0.7258 0.7256 0.7256 0.7255
2090.000000 0.7254 0.7253 0.7253 0.7252 0.7251
2095.000000 0.7251 0.7250 0.7249 0.7248 0.7248
2100.000000 0.7247 0.7246 0.7243 0.7239 0.7234
2105.000000 0.7228 0.7222 0.7217 0.7211 0.7202
2110.000000 0.7194 0.7185 0.7176 0.7167 0.7158
2115.000000 0.7148 0.7139 0.7130 0.7123 0.7116
2120.000000 0.7110 0.7104 0.7099 0.7093 0.7087
2125.000000 0.7081 0.7075 0.7069 0.7064 0.7058
2130.000000 0.7053 0.7047 0.7042 0.7036 0.7031
2135.000000 0.7025 0.7020 0.7015 0.7011 0.7008
2140.000000 0.7004 0.7000 0.6996 0.6993 0.6989
2145.000000 0.6985 0.6981 0.6978 0.6975 0.6971
2150.000000 0.6967 0.6963 0.6959 0.6956 0.6951
2155.000000 0.6946 0.6942 0.6938 0.6933 0.6928
2160.000000 0.6924 0.6919 0.6915 0.6911 0.6906
2165.000000 0.6901 0.6897 0.6893 0.6888 0.6884
2170.000000 0.6880 0.6878 0.6877 0.6875 0.6874
2175.000000 0.6873 0.6871 0.6870 0.6869 0.6867
2180.000000 0.6866 0.6866 0.6866 0.6866 0.6867
2185.000000 0.6867 0.6867 0.6867 0.6868 0.6868
2190.000000 0.6869 0.6869 0.6870 0.6870 0.6870
2195.000000 0.6871 0.6871 0.6872 0.6872 0.6872
2200.000000 0.6873 0.6874 0.6876 0.6877 0.6879
2205.000000 0.6880 0.6882 0.6883 0.6884 0.6885
2210.000000 0.6887 0.6888 0.6890 0.6891 0.6893
2215.000000 0.6894 0.6895 0.6897 0.6899 0.6901
2220.000000 0.6903 0.6905 0.6908 0.6910 0.6912
2225.000000 0.6914 0.6916 0.6919 0.6921 0.6927
2230.000000 0.6933 0.6938 0.6944 0.6946 0.6947
2235.000000 0.6949 0.6950 0.6952 0.6953 0.6955
2240.000000 0.6956 0.6957 0.6958 0.6959 0.6959
2245.000000 0.6959 0.6959 0.6959 0.6959 0.6958
2250.000000 0.6958 0.6957 0.6956 0.6955 0.6954
2255.000000 0.6953 0.6952 0.6951 0.6950 0.6949
2260.000000 0.6948 0.6947 0.6946 0.6945 0.6944
2265.000000 0.6943 0.6942 0.6941 0.6939 0.6938
2270.000000 0.6937 0.6936 0.6936 0.6935 0.6935
2275.000000 0.6934 0.6934 0.6933 0.6933 0.6932
2280.000000 0.6932 0.6932 0.6931 0.6931 0.6930
2285.000000 0.6930 0.6929 0.6929 0.6928 0.6928
2290.000000 0.6928 0.6928 0.6927 0.6927 0.6926
2295.000000 0.6926 0.6925 0.6925 0.6924 0.6924
2300.000000 0.6923 0.6923 0.6923 0.6922 0.6922
2305.000000 0.6921 0.6921 0.6920 0.6919 0.6918
2310.000000 0.6918 0.6917 0.6917 0.6916 0.6916
2315.000000 0.6915 0.6914 0.6913 0.6913 0.6913
2320.000000 0.6912 0.6912 0.6911 0.6911 0.6910
2325.000000 0.6910 0.6909 0.6908 0.6907 0.6907
2330.000000 0.6906 0.6906 0.6906 0.6905 0.6905
2335.000000 0.6904 0.6904 0.6903 0.6903 0.6903
2340.000000 0.6903 0.6902 0.6902 0.6902 0.6902
2345.000000 0.6902 0.6901 0.6901 0.6901 0.6901
2350.000000 0.6900 0.6900 0.6900 0.6900 0.6900
2355.000000 0.6900 0.6900 0.6899 0.6899 0.6899
2360.000000 0.6899 0.6898 0.6898 0.6898 0.6898
2365.000000 0.6898 0.6897 0.6897 0.6897 0.6897
2370.000000 0.6897 0.6897 0.6896 0.6896 0.6896
2375.000000 0.6896 0.6896 0.6895 0.6895 0.6895
2380.000000 0.6895 0.6894 0.6894 0.6894 0.6894
2385.000000 0.6894 0.6893 0.6893 0.6893 0.6893
2390.000000 0.6893 0.6892 0.6892 0.6892 0.6892
2395.000000 0.6891 0.6891 0.6891 0.6891 0.6891
2400.000000 0.6891 0.6891 0.6890 0.6890 0.6890
2405.000000 0.6890 0.6890 0.6889 0.6889 0.6889
2410.000000 0.6889 0.6888 0.6888 0.6888 0.6887
2415.000000 0.6886 0.6885 0.6884 0.6883 0.6882
2420.000000 0.6882 0.6880 0.6879 0.6878 0.6877
2425.000000 0.6876 0.6876 0.6875 0.6873 0.6872
2430.000000 0.6871 0.6870 0.6869 0.6869 0.6869
2435.000000 0.6869 0.6869 0.6868 0.6868 0.6868
2440.000000 0.6868 0.6868 0.6867 0.6867 0.6867
2445.000000 0.6867 0.6867 0.6866 0.6866 0.6866
2450.000000 0.6866 0.6866 0.6866 0.6866 0.6866
2455.000000 0.6866 0.6866 0.6866 0.6866 0.6866
2460.000000 0.6866 0.6866 0.6866 0.6866 0.6866
2465.000000 0.6866 0.6866 0.6866 0.6866 0.6866
2470.000000 0.6866 0.6863 0.6859 0.6856 0.6852
2475.000000 0.6848 0.6845 0.6841 0.6838 0.6834
2480.000000 0.6831 0.6827 0.6824 0.6820 0.6817
2485.000000 0.6814 0.6811 0.6808 0.6805 0.6802
2490.000000 0.6800 0.6797 0.6794 0.6791 0.6788
2495.000000 0.6786 0.6783 0.6780 0.6777 0.6774
2500.000000 0.6772 0.6769 0.6766 0.6763 0.6760
2505.000000 0.6758 0.6756 0.6754 0.6753 0.6751
2510.000000 0.6750 0.6748 0.6747 0.6746 0.6744
2515.000000 0.6743 0.6741 0.6740 0.6739 0.6737
2520.000000 0.6736 0.6734 0.6733 0.6731 0.6730
2525.000000 0.6729 0.6727 0.6726 0.6724 0.6723
2530.000000 0.6722 0.6721 0.6719 0.6717 0.6716
2535.000000 0.6714 0.6713 0.6712 0.6711 0.6709
2540.000000 0.6708 0.6706 0.6705 0.6704 0.6702
2545.000000 0.6701 0.6699 0.6698 0.6696 0.6695
2550.000000 0.6694 0.6693 0.6691 0.6689 0.6688
2555.000000 0.6687 0.6686 0.6685 0.6683 0.6682
2560.000000 0.6682 0.6681 0.6680 0.6679 0.6678
2565.000000 0.6676 0.6675 0.6674 0.6674 0.6673
2570.000000 0.6672 0.6671 0.6670 0.6668 0.6667
2575.000000 0.6666 0.6665 0.6664 0.6663 0.6662
2580.000000 0.6661 0.6660 0.6659 0.6658 0.6657
2585.000000 0.6656 0.6655 0.6654 0.6652 0.6652
2590.000000 0.6651 0.6650 0.6649 0.6648 0.6647
2595.000000 0.6646 0.6645 0.6643 0.6642 0.6641
2600.000000 0.6641 0.6640 0.6639 0.6638 0.6637
2605.000000 0.6636 0.6634 0.6633 0.6633 0.6632
2610.000000 0.6631 0.6629 0.6628 0.6626 0.6624
2615.000000 0.6623 0.6621 0.6620 0.6618 0.6616
2620.000000 0.6614 0.6613 0.6611 0.6609 0.6607
2625.000000 0.6606 0.6605 0.6603 0.6601 0.6599
2630.000000 0.6598 0.6596 0.6595 0.6593 0.6591
2635.000000 0.6589 0.6588 0.6586 0.6584 0.6583
2640.000000 0.6581 0.6580 0.6578 0.6576 0.6574
2645.000000 0.6572 0.6571 0.6569 0.6568 0.6566
2650.000000 0.6564 0.6563 0.6561 0.6559 0.6557
2655.000000 0.6556 0.6555 0.6553 0.6551 0.6550
2660.000000 0.6548 0.6546 0.6545 0.6543 0.6541
2665.000000 0.6538 0.6536 0.6533 0.6531 0.6528
2670.000000 0.6526 0.6523 0.6521 0.6518 0.6516
2675.000000 0.6514 0.6511 0.6509 0.6506 0.6504
2680.000000 0.6501 0.6499 0.6496 0.6494 0.6492
2685.000000 0.6489 0.6487 0.6484 0.6482 0.6479
2690.000000 0.6477 0.6475 0.6472 0.6470 0.6467
2695.000000 0.6465 0.6463 0.6460 0.6458 0.6455
2700.000000 0.6453 0.6450 0.6447 0.6444 0.6441
2705.000000 0.6437 0.6433 0.6430 0.6426 0.6423
2710.000000 0.6419 0.6415 0.6412 0.6408 0.6404
2715.000000 0.6401 0.6397 0.6394 0.6390 0.6387
2720.000000 0.6383 0.6379 0.6375 0.6372 0.6368
2725.000000 0.6365 0.6361 0.6358 0.6354 0.6350
2730.000000 0.6347 0.6343 0.6339 0.6336 0.6333
2735.000000 0.6329 0.6326 0.6322 0.6318 0.6315
2740.000000 0.6311 0.6307 0.6304 0.6301 0.6297
2745.000000 0.6294 0.6290 0.6286 0.6283 0.6279
2750.000000 0.6276 0.6272 0.6269 0.6266 0.6262
2755.000000 0.6257 0.6253 0.6249 0.6245 0.6241
2760.000000 0.6237 0.6233 0.6228 0.6224 0.6220
2765.000000 0.6216 0.6212 0.6209 0.6205 0.6201
2770.000000 0.6196 0.6192 0.6188 0.6184 0.6180
2775.000000 0.6176 0.6172 0.6168 0.6164 0.6160
2780.000000 0.6156 0.6152 0.6148 0.6144 0.6139
2785.000000 0.6135 0.6132 0.6128 0.6124 0.6119
2790.000000 0.6115 0.6111 0.6107 0.6104 0.6100
2795.000000 0.6095 0.6091 0.6087 0.6083 0.6080
2800.000000 0.6076 0.6072 0.6067 0.6063 0.6057
2805.000000 0.6052 0.6047 0.6040 0.6034 0.6028
2810.000000 0.6022 0.6016 0.6009 0.6003 0.5997
2815.000000 0.5991 0.5985 0.5979 0.5973 0.5967
2820.000000 0.5961 0.5955 0.5949 0.5943 0.5937
2825.000000 0.5931 0.5925 0.5919 0.5913 0.5907
2830.000000 0.5900 0.5894 0.5888 0.5882 0.5876
2835.000000 0.5870 0.5864 0.5859 0.5853 0.5846
2840.000000 0.5840 0.5834 0.5828 0.5822 0.5816
2845.000000 0.5810 0.5805 0.5799 0.5793 0.5787
2850.000000 0.5780 0.5774 0.5768 0.5763 0.5757
2855.000000 0.5751 0.5745 0.5739 0.5734 0.5728
2860.000000 0.5722 0.5716 0.5710 0.5704 0.5698
2865.000000 0.5692 0.5687 0.5681 0.5677 0.5673
2870.000000 0.5669 0.5664 0.5660 0.5656 0.5652
2875.000000 0.5647 0.5643 0.5639 0.5635 0.5631
2880.000000 0.5626 0.5622 0.5618 0.5614 0.5609
2885.000000 0.5605 0.5601 0.5597 0.5592 0.5588
2890.000000 0.5583 0.5580 0.5576 0.5572 0.5570
2895.000000 0.5568 0.5566 0.5564 0.5562 0.5560
2900.000000 0.5558 0.5556 0.5554 0.5552 0.5550
2905.000000 0.5548 0.5546 0.5544 0.5542 0.5540
2910.000000 0.5538 0.5536 0.5534 0.5532 0.5530
2915.000000 0.5528 0.5527 0.5525 0.5522 0.5520
2920.000000 0.5517 0.5514 0.5511 0.5508 0.5505
2925.000000 0.5503 0.5500 0.5497 0.5494 0.5491
2930.000000 0.5488 0.5485 0.5482 0.5479 0.5476
2935.000000 0.5469 0.5460 0.5451 0.5442 0.5433
2940.000000 0.5423 0.5414 0.5405 0.5396 0.5387
2945.000000 0.5378 0.5369 0.5360 0.5351 0.5336
2950.000000 0.5321 0.5306 0.5291 0.5276 0.5261
2955.000000 0.5246 0.5231 0.5216 0.5201 0.5186
2960.000000 0.5171 0.5155 0.5140 0.5123 0.5106
2965.000000 0.5089 0.5072 0.5054 0.5037 0.5020
2970.000000 0.5004 0.4989 0.4973 0.4960 0.4950
2975.000000 0.4940 0.4929 0.4919 0.4909 0.4899
2980.000000 0.4889 0.4879 0.4869 0.4858 0.4848
2985.000000 0.4838 0.4828 0.4818 0.4808 0.4798
2990.000000 0.4788 0.4778 0.4768 0.4758 0.4749
2995.000000 0.4739 0.4729 0.4719 0.4709 0.4699
3000.000000 0.4689 0.4679 0.4670 0.4660 0.4650
3005.000000 0.4640 0.4630 0.4620 0.4611 0.4601
3010.000000 0.4591 0.4581 0.4571 0.4559 0.4548
3015.000000 0.4536 0.4524 0.4510 0.4495 0.4481
3020.000000 0.4467 0.4453 0.4438 0.4424 0.4416
3025.000000 0.4408 0.4401 0.4394 0.4391 0.4388
3030.000000 0.4384 0.4382 0.4380 0.4378 0.4376
3035.000000 0.4376 0.4376 0.4376 0.4375 0.4375
3040.000000 0.4375 0.4375 0.4374 0.4374 0.4374
3045.000000 0.4374 0.4374 0.4374 0.4374 0.4374
3050.000000 0.4374 0.4374 0.4374 0.4374 0.4374
3055.000000 0.4374 0.4374 0.4375 0.4375 0.4375
3060.000000 0.4376 0.4376 0.4376 0.4376 0.4376
3065.000000 0.4376 0.4376 0.4376 0.4375 0.4375
3070.000000 0.4374 0.4374 0.4373 0.4373 0.4372
3075.000000 0.4372 0.4371 0.4370 0.4370 0.4369
3080.000000 0.4364 0.4360 0.4355 0.4350 0.4344
3085.000000 0.4337 0.4331 0.4324 0.4317 0.4310
3090.000000 0.4302 0.4295 0.4288 0.4280 0.4273
3095.000000 0.4266 0.4259 0.4252 0.4245 0.4238
3100.000000 0.4231 0.4224 0.4215 0.4203 0.4191
3105.000000 0.4180 0.4168 0.4156 0.4144 0.4132
3110.000000 0.4121 0.4110 0.4100 0.4089 0.4078
3115.000000 0.4067 0.4057 0.4046 0.4035 0.4025
3120.000000 0.4014 0.4004 0.3990 0.3976 0.3962
3125.000000 0.3949 0.3935 0.3921 0.3907 0.3893
3130.000000 0.3880 0.3866 0.3853 0.3839 0.3825
3135.000000 0.3812 0.3798 0.3784 0.3767 0.3751
3140.000000 0.3734 0.3717 0.3699 0.3681 0.3663
3145.000000 0.3645 0.3627 0.3609 0.3591 0.3572
3150.000000 0.3553 0.3534 0.3515 0.3495 0.3476
3155.000000 0.3457 0.3437 0.3418 0.3399 0.3380
3160.000000 0.3360 0.3341 0.3320 0.3300 0.3280
3165.000000 0.3258 0.3235 0.3212 0.3190 0.3167
3170.000000 0.3144 0.3121 0.3098 0.3073 0.3046
3175.000000 0.3018 0.2991 0.2946 0.2872 0.2799
3180.000000 0.2725 0.2666 0.2637 0.2607 0.2577
3185.000000 0.2547 0.2517 0.2487 0.2458 0.2426
3190.000000 0.2388 0.2350 0.2312 0.2275 0.2246
3195.000000 0.2217 0.2188 0.2159 0.2137 0.2115
3200.000000 0.2093 0.2071 0.2050 0.2029 0.2008
3205.000000 0.1987 0.1976 0.1965 0.1955 0.1945
3210.000000 0.1936 0.1928 0.1920 0.1912 0.1908
3215.000000 0.1905 0.1902 0.1899 0.1896 0.1894
3220.000000 0.1891 0.1888 0.1886 0.1884 0.1881
3225.000000 0.1879 0.1877 0.1876 0.1875 0.1874
3230.000000 0.1872 0.1872 0.1871 0.1870 0.1870
3235.000000 0.1870 0.1870 0.1870 0.1870 0.1871
3240.000000 0.1871 0.1871 0.1871 0.1872 0.1872
3245.000000 0.1873 0.1873 0.1874 0.1874 0.1874
3250.000000 0.1874 0.1875 0.1875 0.1875 0.1875
3255.000000 0.1875 0.1876 0.1877 0.1877 0.1878
3260.000000 0.1879 0.1880 0.1881 0.1882 0.1883
3265.000000 0.1884 0.1885 0.1886 0.1862 0.1887
3270.000000 0.1888 0.1889 0.1890 0.1891 0.1892
3275.000000 0.1893 0.1894 0.1895 0.1897 0.1898
3280.000000 0.1899 0.1901 0.1902 0.1904 0.1906
3285.000000 0.1907 0.1909 0.1910 0.1912 0.1914
3290.000000 0.1915 0.1917 0.1919 0.1920 0.1922
3295.000000 0.1925 0.1927 0.1930 0.1932 0.1935
3300.000000 0.1938 0.1942 0.1945 0.1948 0.1952
3305.000000 0.1955 0.1958 0.1962 0.1967 0.1972
3310.000000 0.1976 0.1981 0.1987 0.1993 0.1999
3315.000000 0.2005 0.2011 0.2017 0.2023 0.2029
3320.000000 0.2035 0.2041 0.2047 0.2054 0.2060
3325.000000 0.2066 0.2071 0.2077 0.2083 0.2089
3330.000000 0.2097 0.2105 0.2113 0.2121 0.2129
3335.000000 0.2137 0.2146 0.2154 0.2162 0.2171
3340.000000 0.2179 0.2188 0.2196 0.2205 0.2214
3345.000000 0.2223 0.2231 0.2240 0.2249 0.2258
3350.000000 0.2267 0.2277 0.2286 0.2294 0.2303
3355.000000 0.2312 0.2323 0.2336 0.2350 0.2364
3360.000000 0.2378 0.2392 0.2407 0.2422 0.2437
3365.000000 0.2454 0.2478 0.2501 0.2525 0.2549
3370.000000 0.2569 0.2588 0.2607 0.2626 0.2644
3375.000000 0.2659 0.2673 0.2688 0.2702 0.2716
3380.000000 0.2731 0.2745 0.2760 0.2774 0.2792
3385.000000 0.2810 0.2827 0.2845 0.2863 0.2880
3390.000000 0.2898 0.2916 0.2933 0.2970 0.3010
3395.000000 0.3049 0.3089 0.3123 0.3142 0.3161
3400.000000 0.3179 0.3198 0.3216 0.3233 0.3250
3405.000000 0.3267 0.3285 0.3296 0.3307 0.3319
3410.000000 0.3330 0.3341 0.3351 0.3361 0.3371
3415.000000 0.3381 0.3388 0.3394 0.3401 0.3407
3420.000000 0.3414 0.3417 0.3420 0.3424 0.3427
3425.000000 0.3430 0.3430 0.3431 0.3432 0.3432
3430.000000 0.3433 0.3434 0.3435 0.3436 0.3436
3435.000000 0.3437 0.3437 0.3437 0.3437 0.3437
3440.000000 0.3436 0.3436 0.3435 0.3434 0.3450
3445.000000 0.3431 0.3429 0.3428 0.3426 0.3423
3450.000000 0.3420 0.3417 0.3414 0.3411 0.3395
3455.000000 0.3379 0.3363 0.3347 0.3329 0.3307
3460.000000 0.3284 0.3261 0.3238 0.3216 0.3193
3465.000000 0.3170 0.3147 0.3125 0.3102 0.3079
3470.000000 0.3057 0.3034 0.3012 0.2989 0.2966
3475.000000 0.2943 0.2920 0.2898 0.2875 0.2853
3480.000000 0.2830 0.2808 0.2785 0.2763 0.2740
3485.000000 0.2718 0.2695 0.2678 0.2674 0.2671
3490.000000 0.2668 0.2665 0.2663 0.2663 0.2663
3495.000000 0.2664 0.2664 0.2682 0.2716 0.2751
3500.000000 0.2785 0.2820 0.2659 0.2966 0.3048
3505.000000 0.3131 0.3214 0.3296 0.3379 0.3461
3510.000000 0.3544 0.3626 0.3708 0.3791 0.3873
3515.000000 0.3955 0.4037 0.4119 0.4201 0.4283
3520.000000 0.4365 0.4447 0.4529 0.4611 0.4692
3525.000000 0.4774 0.4856 0.4944 0.5033 0.5122
3530.000000 0.5211 0.5300 0.5332 0.5360 0.5388
3535.000000 0.5416 0.5444 0.5464 0.5483 0.5503
3540.000000 0.5522 0.5542 0.5560 0.5577 0.5595
3545.000000 0.5612 0.5630 0.5647 0.5664 0.5682
3550.000000 0.5699 0.5716 0.5733 0.5750 0.5767
3555.000000 0.5784 0.5800 0.5817 0.5834 0.5850
3560.000000 0.5867 0.5883 0.5900 0.5916 0.5932
3565.000000 0.5949 0.5965 0.5981 0.5996 0.6012
3570.000000 0.6027 0.6043 0.6058 0.6073 0.6089
3575.000000 0.6104 0.6119 0.6132 0.6141 0.6150
3580.000000 0.6159 0.6168 0.6177 0.6185 0.6192
3585.000000 0.6200 0.6207 0.6214 0.6216 0.6218
3590.000000 0.6220 0.6222 0.6224 0.6226 0.6227
3595.000000 0.6229 0.6231 0.6233 0.6235 0.6237
3600.000000 0.6239 0.6241 0.6243 0.6223 0.6244
3605.000000 0.6245 0.6245 0.6245 0.6246 0.6246
3610.000000 0.6246 0.6246 0.6246 0.6247 0.6247
3615.000000 0.6247 0.6247 0.6247 0.6247 0.6247
3620.000000 0.6246 0.6246 0.6245 0.6245 0.6244
3625.000000 0.6244 0.6243 0.6243 0.6243 0.6242
3630.000000 0.6242 0.6241 0.6240 0.6240 0.6239
3635.000000 0.6239 0.6239 0.6238 0.6238 0.6238
3640.000000 0.6236 0.6235 0.6234 0.6233 0.6232
3645.000000 0.6231 0.6229 0.6228 0.6227 0.6225
3650.000000 0.6224 0.6222 0.6221 0.6219 0.6218
3655.000000 0.6216 0.6215 0.6214 0.6213 0.6211
3660.000000 0.6210 0.6209 0.6207 0.6206 0.6205
3665.000000 0.6203 0.6202 0.6201 0.6199 0.6198
3670.000000 0.6197 0.6196 0.6194 0.6193 0.6191
3675.000000 0.6190 0.6188 0.6187 0.6185 0.6183
3680.000000 0.6181 0.6179 0.6177 0.6176 0.6174
3685.000000 0.6172 0.6171 0.6169 0.6167 0.6165
3690.000000 0.6164 0.6162 0.6160 0.6158 0.6156
3695.000000 0.6155 0.6153 0.6152 0.6150 0.6148
3700.000000 0.6146 0.6144 0.6143 0.6141 0.6139
3705.000000 0.6137 0.6135 0.6134 0.6132 0.6130
3710.000000 0.6128 0.6127 0.6125 0.6123 0.6122
3715.000000 0.6120 0.6118 0.6116 0.6115 0.6113
3720.000000 0.6111 0.6109 0.6107 0.6105 0.6102
3725.000000 0.6100 0.6098 0.6096 0.6094 0.6092
3730.000000 0.6090 0.6088 0.6086 0.6084 0.6082
3735.000000 0.6080 0.6078 0.6076 0.6074 0.6072
3740.000000 0.6070 0.6068 0.6067 0.6064 0.6062
3745.000000 0.6060 0.6058 0.6056 0.6054 0.6052
3750.000000 0.6051 0.6049 0.6047 0.6046 0.6044
3755.000000 0.6043 0.6042 0.6040 0.6039 0.6038
3760.000000 0.6037 0.6036 0.6034 0.6033 0.6032
3765.000000 0.6031 0.6029 0.6028 0.6026 0.6025
3770.000000 0.6024 0.6022 0.6022 0.6021 0.6020
3775.000000 0.6020 0.6019 0.6018 0.6018 0.6017
3780.000000 0.6017 0.6016 0.6016 0.6015 0.6015
3785.000000 0.6015 0.6014 0.6014 0.6013 0.6013
3790.000000 0.6013 0.6012 0.6012 0.6012 0.6011
3795.000000 0.6011 0.6011 0.6010 0.6010 0.6010
3800.000000 0.6009 0.6009 0.6009 0.6008 0.6008
3805.000000 0.6008 0.6007 0.6007 0.6007 0.6006
3810.000000 0.6006 0.6005 0.6005 0.6004 0.6003
3815.000000 0.6002 0.6001 0.6000 0.5997 0.5995
3820.000000 0.5992 0.5990 0.5987 0.5985 0.5982
3825.000000 0.5979 0.5977 0.5974 0.5972 0.5969
3830.000000 0.5966 0.5963 0.5960 0.5957 0.5955
3835.000000 0.5952 0.5948 0.5945 0.5942 0.5939
3840.000000 0.5936 0.5933 0.5930 0.5928 0.5925
3845.000000 0.5922 0.5919 0.5917 0.5914 0.5912
3850.000000 0.5909 0.5907 0.5905 0.5903 0.5901
3855.000000 0.5899 0.5897 0.5895 0.5893 0.5891
3860.000000 0.5889 0.5887 0.5885 0.5883 0.5881
3865.000000 0.5879 0.5877 0.5875 0.5873 0.5871
3870.000000 0.5869 0.5868 0.5866 0.5864 0.5862
3875.000000 0.5860 0.5858 0.5856 0.5854 0.5852
3880.000000 0.5850 0.5848 0.5846 0.5845 0.5843
3885.000000 0.5841 0.5839 0.5837 0.5836 0.5834
3890.000000 0.5832 0.5830 0.5828 0.5826 0.5824
3895.000000 0.5822 0.5820 0.5819 0.5817 0.5815
3900.000000 0.5814 0.5812 0.5810 0.5808 0.5807
3905.000000 0.5805 0.5803 0.5801 0.5799 0.5798
3910.000000 0.5796 0.5794 0.5792 0.5790 0.5789
3915.000000 0.5787 0.5785 0.5783 0.5781 0.5780
3920.000000 0.5778 0.5776 0.5774 0.5772 0.5771
3925.000000 0.5769 0.5767 0.5765 0.5764 0.5762
3930.000000 0.5760 0.5758 0.5756 0.5755 0.5753
3935.000000 0.5751 0.5749 0.5748 0.5746 0.5744
3940.000000 0.5743 0.5741 0.5739 0.5738 0.5737
3945.000000 0.5736 0.5735 0.5734 0.5733 0.5732
3950.000000 0.5731 0.5730 0.5729 0.5729 0.5728
3955.000000 0.5727 0.5726 0.5725 0.5725 0.5724
3960.000000 0.5723 0.5722 0.5721 0.5721 0.5720
3965.000000 0.5719 0.5718 0.5717 0.5717 0.5716
3970.000000 0.5715 0.5714 0.5714 0.5713 0.5712
3975.000000 0.5711 0.5710 0.5710 0.5709 0.5708
3980.000000 0.5707 0.5706 0.5706 0.5705 0.5704
3985.000000 0.5703 0.5702 0.5702 0.5701 0.5700
3990.000000 0.5699 0.5699 0.5698 0.5697 0.5696
3995.000000 0.5695 0.5695 0.5694 0.5693 0.5692
4000.000000 0.5692
##END=
