##TITLE=ISOQUINOLINE, 6,7-DIMETHOXY-8-HYDROXY-1,2,3,4-TETRAHYDRO-,HYDROCHLORIDE
##JCAMP-DX=4.24
$$ By DXEDIT 1.05 (RS McDonald)
##DATA TYPE=INFRARED SPECTRUM
##CLASS=COBLENTZ III
##OWNER=COBLENTZ SOC.
Collection (C) 2018 copyright by the U.S. Secretary of Commerce
on behalf of the United States of America. All rights reserved.
##DATE=1963/01/11
##NAMES=6,7-dimethoxy-1,2,3,4-tetrahydro-8-isoquinolinol hydrochloride
ANHALAMINE HYDROCHLORIDE
##MOLFORM=C11 H16 Cl N O3
##SOURCE REFERENCE=COBLENTZ NO. 05392
##$NIST ID=B6005392
##$NIST SOURCE=COBLENTZ
##$NIST IMAGE=cob5392
##SPECTROMETER/DATA SYSTEM=PERKIN-ELMER 21 (GRATING)
##INSTRUMENT PARAMETERS=FILTER AT ABOUT 10 MICRONS
##STATE=SOLID (KBr DISC)
##SAMPLING PROCEDURE=TRANSMISSION
##RESOLUTION=2
##DATA PROCESSING=DIGITIZED BY COBLENTZ SOCIETY (BATCH I) FROM HARD COPY
##XUNITS=1/CM
##YUNITS=TRANSMITTANCE
##XLABEL=Wavenumbers (cm-1)
##YLABEL=Transmittance
##XFACTOR=1
##YFACTOR=1
##DELTAX=1
##FIRSTX=4000
##LASTX=671
##FIRSTY=0.572
##MAXX=4000
##MINX=671
##MAXY=0.8164
##MINY=0.0938
##NPOINTS=3330
##XYDATA=(X++(Y..Y))
4000.000000 0.5720 0.5721 0.5722 0.5723 0.5725
3995.000000 0.5726 0.5727 0.5728 0.5730 0.5731
3990.000000 0.5733 0.5734 0.5735 0.5737 0.5738
3985.000000 0.5739 0.5741 0.5742 0.5743 0.5744
3980.000000 0.5746 0.5747 0.5749 0.5750 0.5751
3975.000000 0.5753 0.5754 0.5756 0.5757 0.5759
3970.000000 0.5760 0.5760 0.5762 0.5764 0.5765
3965.000000 0.5767 0.5768 0.5769 0.5770 0.5772
3960.000000 0.5773 0.5775 0.5776 0.5778 0.5779
3955.000000 0.5781 0.5782 0.5783 0.5785 0.5786
3950.000000 0.5788 0.5789 0.5790 0.5792 0.5793
3945.000000 0.5794 0.5795 0.5797 0.5798 0.5800
3940.000000 0.5801 0.5803 0.5804 0.5806 0.5807
3935.000000 0.5808 0.5810 0.5810 0.5812 0.5814
3930.000000 0.5816 0.5817 0.5818 0.5819 0.5821
3925.000000 0.5822 0.5823 0.5825 0.5826 0.5828
3920.000000 0.5829 0.5831 0.5832 0.5834 0.5835
3915.000000 0.5837 0.5838 0.5840 0.5841 0.5842
3910.000000 0.5844 0.5845 0.5846 0.5848 0.5849
3905.000000 0.5850 0.5852 0.5853 0.5855 0.5856
3900.000000 0.5858 0.5859 0.5860 0.5862 0.5864
3895.000000 0.5865 0.5867 0.5868 0.5870 0.5871
3890.000000 0.5873 0.5874 0.5876 0.5877 0.5879
3885.000000 0.5880 0.5881 0.5883 0.5884 0.5886
3880.000000 0.5887 0.5889 0.5890 0.5892 0.5893
3875.000000 0.5895 0.5896 0.5897 0.5899 0.5900
3870.000000 0.5901 0.5903 0.5904 0.5906 0.5907
3865.000000 0.5909 0.5910 0.5912 0.5912 0.5915
3860.000000 0.5917 0.5918 0.5920 0.5921 0.5923
3855.000000 0.5924 0.5926 0.5927 0.5929 0.5930
3850.000000 0.5932 0.5933 0.5935 0.5936 0.5938
3845.000000 0.5939 0.5941 0.5942 0.5944 0.5945
3840.000000 0.5947 0.5948 0.5950 0.5951 0.5953
3835.000000 0.5955 0.5956 0.5958 0.5959 0.5960
3830.000000 0.5962 0.5964 0.5965 0.5967 0.5968
3825.000000 0.5970 0.5971 0.5973 0.5974 0.5976
3820.000000 0.5978 0.5979 0.5981 0.5982 0.5984
3815.000000 0.5985 0.5986 0.5988 0.5989 0.5990
3810.000000 0.5992 0.5994 0.5995 0.5997 0.5998
3805.000000 0.6000 0.6001 0.6003 0.6004 0.6005
3800.000000 0.6007 0.6008 0.6009 0.6010 0.6012
3795.000000 0.6014 0.6015 0.6016 0.6018 0.6020
3790.000000 0.6021 0.6023 0.6024 0.6026 0.6027
3785.000000 0.6029 0.6030 0.6031 0.6033 0.6034
3780.000000 0.6036 0.6037 0.6038 0.6040 0.6041
3775.000000 0.6042 0.6043 0.6045 0.6046 0.6047
3770.000000 0.6048 0.6050 0.6051 0.6052 0.6053
3765.000000 0.6055 0.6056 0.6057 0.6058 0.6059
3760.000000 0.6060 0.6060 0.6062 0.6062 0.6065
3755.000000 0.6066 0.6067 0.6068 0.6070 0.6071
3750.000000 0.6072 0.6073 0.6075 0.6076 0.6077
3745.000000 0.6078 0.6080 0.6081 0.6082 0.6083
3740.000000 0.6084 0.6085 0.6086 0.6086 0.6087
3735.000000 0.6088 0.6089 0.6089 0.6090 0.6091
3730.000000 0.6091 0.6092 0.6092 0.6093 0.6093
3725.000000 0.6094 0.6095 0.6096 0.6096 0.6097
3720.000000 0.6098 0.6098 0.6099 0.6099 0.6100
3715.000000 0.6100 0.6101 0.6102 0.6102 0.6103
3710.000000 0.6104 0.6105 0.6105 0.6106 0.6107
3705.000000 0.6108 0.6108 0.6109 0.6110 0.6110
3700.000000 0.6110 0.6112 0.6112 0.6112 0.6114
3695.000000 0.6115 0.6116 0.6116 0.6117 0.6117
3690.000000 0.6118 0.6119 0.6119 0.6120 0.6120
3685.000000 0.6121 0.6122 0.6123 0.6123 0.6124
3680.000000 0.6125 0.6126 0.6126 0.6127 0.6128
3675.000000 0.6128 0.6129 0.6129 0.6130 0.6131
3670.000000 0.6131 0.6131 0.6132 0.6132 0.6132
3665.000000 0.6133 0.6133 0.6134 0.6135 0.6135
3660.000000 0.6136 0.6136 0.6136 0.6136 0.6136
3655.000000 0.6136 0.6135 0.6134 0.6133 0.6132
3650.000000 0.6131 0.6130 0.6129 0.6128 0.6126
3645.000000 0.6125 0.6124 0.6123 0.6122 0.6121
3640.000000 0.6120 0.6118 0.6117 0.6116 0.6115
3635.000000 0.6114 0.6112 0.6110 0.6106 0.6102
3630.000000 0.6098 0.6094 0.6089 0.6085 0.6080
3625.000000 0.6075 0.6070 0.6065 0.6058 0.6051
3620.000000 0.6043 0.6036 0.6029 0.6022 0.6014
3615.000000 0.6007 0.6000 0.5993 0.5985 0.5978
3610.000000 0.5970 0.5962 0.5955 0.5948 0.5941
3605.000000 0.5933 0.5926 0.5919 0.5910 0.5903
3600.000000 0.5895 0.5887 0.5879 0.5870 0.5862
3595.000000 0.5853 0.5844 0.5836 0.5827 0.5818
3590.000000 0.5809 0.5801 0.5792 0.5783 0.5775
3585.000000 0.5766 0.5758 0.5749 0.5740 0.5732
3580.000000 0.5723 0.5714 0.5705 0.5697 0.5688
3575.000000 0.5679 0.5671 0.5662 0.5653 0.5645
3570.000000 0.5636 0.5627 0.5618 0.5609 0.5600
3565.000000 0.5590 0.5580 0.5569 0.5559 0.5549
3560.000000 0.5539 0.5529 0.5519 0.5509 0.5499
3555.000000 0.5488 0.5478 0.5468 0.5457 0.5447
3550.000000 0.5437 0.5426 0.5416 0.5406 0.5395
3545.000000 0.5385 0.5375 0.5365 0.5355 0.5345
3540.000000 0.5334 0.5324 0.5312 0.5302 0.5292
3535.000000 0.5278 0.5264 0.5250 0.5235 0.5221
3530.000000 0.5207 0.5193 0.5179 0.5165 0.5151
3525.000000 0.5137 0.5123 0.5110 0.5096 0.5082
3520.000000 0.5068 0.5053 0.5039 0.5025 0.5012
3515.000000 0.5003 0.4994 0.4985 0.4975 0.4966
3510.000000 0.4958 0.4949 0.4941 0.4932 0.4924
3505.000000 0.4915 0.4906 0.4898 0.4889 0.4880
3500.000000 0.4871 0.4862 0.4854 0.4846 0.4837
3495.000000 0.4828 0.4819 0.4810 0.4802 0.4793
3490.000000 0.4785 0.4776 0.4767 0.4759 0.4746
3485.000000 0.4731 0.4716 0.4702 0.4687 0.4669
3480.000000 0.4651 0.4634 0.4616 0.4598 0.4580
3475.000000 0.4562 0.4544 0.4526 0.4507 0.4486
3470.000000 0.4466 0.4445 0.4425 0.4403 0.4381
3465.000000 0.4358 0.4336 0.4312 0.4292 0.4271
3460.000000 0.4250 0.4229 0.4207 0.4193 0.4180
3455.000000 0.4167 0.4154 0.4141 0.4128 0.4115
3450.000000 0.4103 0.4090 0.4078 0.4068 0.4059
3445.000000 0.4049 0.4040 0.4030 0.4024 0.4016
3440.000000 0.4008 0.4000 0.3992 0.3984 0.3976
3435.000000 0.3968 0.3959 0.3953 0.3946 0.3938
3430.000000 0.3930 0.3925 0.3920 0.3914 0.3910
3425.000000 0.3906 0.3900 0.3897 0.3892 0.3887
3420.000000 0.3882 0.3878 0.3873 0.3868 0.3864
3415.000000 0.3859 0.3855 0.3850 0.3846 0.3842
3410.000000 0.3839 0.3836 0.3832 0.3830 0.3827
3405.000000 0.3823 0.3820 0.3816 0.3814 0.3810
3400.000000 0.3809 0.3809 0.3809 0.3808 0.3807
3395.000000 0.3806 0.3806 0.3805 0.3804 0.3804
3390.000000 0.3803 0.3802 0.3802 0.3800 0.3800
3385.000000 0.3800 0.3799 0.3799 0.3798 0.3797
3380.000000 0.3797 0.3796 0.3795 0.3795 0.3794
3375.000000 0.3793 0.3793 0.3792 0.3790 0.3789
3370.000000 0.3788 0.3787 0.3786 0.3784 0.3782
3365.000000 0.3782 0.3780 0.3779 0.3778 0.3777
3360.000000 0.3775 0.3771 0.3766 0.3762 0.3759
3355.000000 0.3753 0.3748 0.3742 0.3736 0.3725
3350.000000 0.3691 0.3657 0.3623 0.3589 0.3560
3345.000000 0.3536 0.3510 0.3486 0.3459 0.3434
3340.000000 0.3409 0.3384 0.3358 0.3332 0.3307
3335.000000 0.3282 0.3256 0.3230 0.3205 0.3180
3330.000000 0.3154 0.3128 0.3103 0.3077 0.3052
3325.000000 0.3026 0.3001 0.2975 0.2949 0.2924
3320.000000 0.2898 0.2872 0.2846 0.2820 0.2766
3315.000000 0.2781 0.2773 0.2766 0.2759 0.2753
3310.000000 0.2753 0.2753 0.2753 0.2753 0.2752
3305.000000 0.2752 0.2752 0.2752 0.2752 0.2752
3300.000000 0.2753 0.2753 0.2755 0.2761 0.2768
3295.000000 0.2775 0.2781 0.2794 0.2809 0.2824
3290.000000 0.2839 0.2854 0.2868 0.2883 0.2898
3285.000000 0.2913 0.2928 0.2942 0.2957 0.2972
3280.000000 0.2987 0.3002 0.3017 0.3032 0.3047
3275.000000 0.3061 0.3076 0.3091 0.3106 0.3121
3270.000000 0.3135 0.3151 0.3166 0.3181 0.3196
3265.000000 0.3209 0.3225 0.3240 0.3255 0.3270
3260.000000 0.3284 0.3300 0.3314 0.3330 0.3346
3255.000000 0.3360 0.3376 0.3391 0.3406 0.3421
3250.000000 0.3436 0.3450 0.3466 0.3482 0.3497
3245.000000 0.3512 0.3527 0.3543 0.3558 0.3573
3240.000000 0.3588 0.3603 0.3618 0.3634 0.3649
3235.000000 0.3664 0.3680 0.3695 0.3709 0.3725
3230.000000 0.3740 0.3755 0.3771 0.3786 0.3802
3225.000000 0.3816 0.3832 0.3848 0.3862 0.3879
3220.000000 0.3894 0.3909 0.3925 0.3940 0.3956
3215.000000 0.3971 0.3987 0.4002 0.4018 0.4032
3210.000000 0.4049 0.4064 0.4080 0.4095 0.4110
3205.000000 0.4126 0.4142 0.4157 0.4173 0.4188
3200.000000 0.4204 0.4219 0.4235 0.4250 0.4266
3195.000000 0.4282 0.4297 0.4312 0.4329 0.4345
3190.000000 0.4360 0.4376 0.4392 0.4407 0.4423
3185.000000 0.4439 0.4455 0.4471 0.4486 0.4502
3180.000000 0.4518 0.4534 0.4550 0.4565 0.4581
3175.000000 0.4597 0.4612 0.4628 0.4644 0.4660
3170.000000 0.4676 0.4692 0.4708 0.4724 0.4739
3165.000000 0.4755 0.4771 0.4787 0.4803 0.4819
3160.000000 0.4835 0.4851 0.4867 0.4884 0.4900
3155.000000 0.4916 0.4932 0.4948 0.4964 0.4980
3150.000000 0.4996 0.5012 0.5025 0.5037 0.5048
3145.000000 0.5060 0.5068 0.5075 0.5082 0.5088
3140.000000 0.5095 0.5103 0.5110 0.5117 0.5124
3135.000000 0.5130 0.5137 0.5143 0.5149 0.5155
3130.000000 0.5160 0.5167 0.5173 0.5178 0.5184
3125.000000 0.5190 0.5195 0.5201 0.5207 0.5212
3120.000000 0.5219 0.5225 0.5231 0.5236 0.5240
3115.000000 0.5245 0.5249 0.5252 0.5255 0.5258
3110.000000 0.5260 0.5264 0.5267 0.5270 0.5273
3105.000000 0.5276 0.5278 0.5280 0.5282 0.5284
3100.000000 0.5286 0.5287 0.5289 0.5291 0.5293
3095.000000 0.5310 0.5297 0.5298 0.5300 0.5301
3090.000000 0.5302 0.5302 0.5302 0.5302 0.5301
3085.000000 0.5301 0.5301 0.5301 0.5300 0.5300
3080.000000 0.5300 0.5300 0.5299 0.5299 0.5299
3075.000000 0.5298 0.5291 0.5283 0.5275 0.5267
3070.000000 0.5258 0.5249 0.5239 0.5229 0.5219
3065.000000 0.5209 0.5198 0.5172 0.5139 0.5107
3060.000000 0.5074 0.5041 0.5007 0.4974 0.4938
3055.000000 0.4891 0.4845 0.4799 0.4752 0.4706
3050.000000 0.4659 0.4612 0.4566 0.4520 0.4474
3045.000000 0.4427 0.4381 0.4334 0.4287 0.4241
3040.000000 0.4194 0.4147 0.4100 0.4053 0.4006
3035.000000 0.3959 0.3912 0.3864 0.3818 0.3771
3030.000000 0.3724 0.3677 0.3630 0.3582 0.3536
3025.000000 0.3489 0.3442 0.3395 0.3347 0.3300
3020.000000 0.3253 0.3205 0.3158 0.3110 0.3063
3015.000000 0.3015 0.2967 0.2920 0.2872 0.2824
3010.000000 0.2777 0.2729 0.2681 0.2633 0.2585
3005.000000 0.2538 0.2490 0.2442 0.2395 0.2347
3000.000000 0.2299 0.2251 0.2203 0.2154 0.2106
2995.000000 0.2058 0.2010 0.1962 0.1913 0.1865
2990.000000 0.1833 0.1821 0.1810 0.1799 0.1794
2985.000000 0.1791 0.1787 0.1784 0.1783 0.1779
2980.000000 0.1778 0.1776 0.1774 0.1726 0.1770
2975.000000 0.1769 0.1769 0.1768 0.1768 0.1768
2970.000000 0.1768 0.1768 0.1768 0.1768 0.1768
2965.000000 0.1769 0.1771 0.1773 0.1775 0.1782
2960.000000 0.1789 0.1796 0.1809 0.1827 0.1844
2955.000000 0.1861 0.1884 0.1908 0.1931 0.1954
2950.000000 0.1978 0.2001 0.2024 0.2046 0.2071
2945.000000 0.2094 0.2118 0.2141 0.2165 0.2189
2940.000000 0.2212 0.2235 0.2259 0.2282 0.2306
2935.000000 0.2329 0.2353 0.2376 0.2400 0.2424
2930.000000 0.2447 0.2471 0.2495 0.2519 0.2543
2925.000000 0.2566 0.2590 0.2614 0.2637 0.2661
2920.000000 0.2684 0.2709 0.2732 0.2756 0.2780
2915.000000 0.2804 0.2829 0.2834 0.2837 0.2838
2910.000000 0.2839 0.2840 0.2841 0.2842 0.2843
2905.000000 0.2844 0.2844 0.2844 0.2842 0.2839
2900.000000 0.2837 0.2833 0.2830 0.2827 0.2824
2895.000000 0.2820 0.2817 0.2813 0.2809 0.2805
2890.000000 0.2800 0.2794 0.2788 0.2782 0.2775
2885.000000 0.2769 0.2763 0.2756 0.2750 0.2744
2880.000000 0.2737 0.2731 0.2725 0.2718 0.2712
2875.000000 0.2705 0.2698 0.2692 0.2684 0.2678
2870.000000 0.2672 0.2665 0.2658 0.2652 0.2645
2865.000000 0.2638 0.2632 0.2627 0.2623 0.2619
2860.000000 0.2615 0.2612 0.2608 0.2605 0.2602
2855.000000 0.2598 0.2595 0.2592 0.2588 0.2584
2850.000000 0.2581 0.2578 0.2575 0.2571 0.2568
2845.000000 0.2564 0.2561 0.2557 0.2554 0.2550
2840.000000 0.2546 0.2542 0.2539 0.2532 0.2524
2835.000000 0.2517 0.2503 0.2482 0.2461 0.2439
2830.000000 0.2416 0.2392 0.2368 0.2345 0.2321
2825.000000 0.2298 0.2278 0.2258 0.2238 0.2218
2820.000000 0.2198 0.2179 0.2160 0.2142 0.2125
2815.000000 0.2107 0.2090 0.2073 0.2056 0.2039
2810.000000 0.2022 0.2004 0.1991 0.1977 0.1964
2805.000000 0.1951 0.1937 0.1925 0.1914 0.1904
2800.000000 0.1895 0.1891 0.1889 0.1885 0.1883
2795.000000 0.1879 0.1878 0.1875 0.1875 0.1844
2790.000000 0.1873 0.1872 0.1871 0.1870 0.1870
2785.000000 0.1869 0.1869 0.1868 0.1867 0.1866
2780.000000 0.1876 0.1887 0.1901 0.1917 0.1934
2775.000000 0.1952 0.1972 0.1994 0.2015 0.2039
2770.000000 0.2063 0.2087 0.2111 0.2134 0.2157
2765.000000 0.2178 0.2196 0.2215 0.2234 0.2253
2760.000000 0.2272 0.2291 0.2309 0.2328 0.2347
2755.000000 0.2365 0.2384 0.2402 0.2420 0.2438
2750.000000 0.2456 0.2474 0.2492 0.2510 0.2526
2745.000000 0.2543 0.2559 0.2576 0.2592 0.2607
2740.000000 0.2617 0.2627 0.2635 0.2641 0.2646
2735.000000 0.2650 0.2655 0.2659 0.2663 0.2666
2730.000000 0.2669 0.2672 0.2675 0.2678 0.2681
2725.000000 0.2684 0.2687 0.2690 0.2693 0.2697
2720.000000 0.2700 0.2704 0.2708 0.2712 0.2716
2715.000000 0.2719 0.2723 0.2727 0.2731 0.2734
2710.000000 0.2739 0.2743 0.2750 0.2760 0.2770
2705.000000 0.2781 0.2792 0.2803 0.2817 0.2832
2700.000000 0.2846 0.2863 0.2880 0.2896 0.2913
2695.000000 0.2930 0.2947 0.2962 0.2977 0.2991
2690.000000 0.3006 0.3020 0.3034 0.3048 0.3062
2685.000000 0.3076 0.3090 0.3104 0.3118 0.3133
2680.000000 0.3148 0.3162 0.3177 0.3192 0.3208
2675.000000 0.3223 0.3238 0.3253 0.3266 0.3282
2670.000000 0.3290 0.3299 0.3307 0.3314 0.3323
2665.000000 0.3330 0.3340 0.3348 0.3356 0.3364
2660.000000 0.3375 0.3386 0.3400 0.3412 0.3427
2655.000000 0.3440 0.3454 0.3470 0.3487 0.3506
2650.000000 0.3534 0.3564 0.3593 0.3618 0.3646
2645.000000 0.3672 0.3698 0.3724 0.3747 0.3770
2640.000000 0.3793 0.3812 0.3832 0.3853 0.3874
2635.000000 0.3894 0.3914 0.3934 0.3955 0.3975
2630.000000 0.3995 0.4016 0.4032 0.4048 0.4062
2625.000000 0.4077 0.4092 0.4106 0.4120 0.4135
2620.000000 0.4149 0.4162 0.4178 0.4194 0.4210
2615.000000 0.4227 0.4246 0.4266 0.4285 0.4304
2610.000000 0.4323 0.4340 0.4357 0.4374 0.4388
2605.000000 0.4401 0.4415 0.4429 0.4443 0.4457
2600.000000 0.4470 0.4484 0.4498 0.4512 0.4525
2595.000000 0.4536 0.4547 0.4559 0.4570 0.4582
2590.000000 0.4592 0.4601 0.4610 0.4618 0.4626
2585.000000 0.4634 0.4642 0.4650 0.4656 0.4662
2580.000000 0.4667 0.4673 0.4678 0.4683 0.4689
2575.000000 0.4695 0.4700 0.4706 0.4712 0.4714
2570.000000 0.4716 0.4718 0.4720 0.4721 0.4723
2565.000000 0.4724 0.4726 0.4726 0.4727 0.4727
2560.000000 0.4725 0.4724 0.4723 0.4721 0.4720
2555.000000 0.4719 0.4717 0.4716 0.4714 0.4712
2550.000000 0.4710 0.4709 0.4709 0.4712 0.4717
2545.000000 0.4722 0.4727 0.4732 0.4737 0.4742
2540.000000 0.4749 0.4758 0.4766 0.4775 0.4784
2535.000000 0.4793 0.4802 0.4810 0.4820 0.4829
2530.000000 0.4837 0.4845 0.4853 0.4859 0.4864
2525.000000 0.4870 0.4875 0.4881 0.4886 0.4892
2520.000000 0.4897 0.4903 0.4908 0.4912 0.4918
2515.000000 0.4923 0.4926 0.4929 0.4932 0.4935
2510.000000 0.4939 0.4942 0.4945 0.4948 0.4951
2505.000000 0.4955 0.4958 0.4960 0.4962 0.4962
2500.000000 0.4962 0.4962 0.4962 0.4962 0.4962
2495.000000 0.4962 0.4962 0.4962 0.4962 0.4960
2490.000000 0.4960 0.4959 0.4958 0.4957 0.4956
2485.000000 0.4955 0.4954 0.4953 0.4952 0.4951
2480.000000 0.4950 0.4950 0.4949 0.4949 0.4949
2475.000000 0.4950 0.4951 0.4952 0.4953 0.4955
2470.000000 0.4956 0.4958 0.4959 0.4964 0.4970
2465.000000 0.4975 0.4980 0.4985 0.4990 0.4996
2460.000000 0.5004 0.5015 0.5027 0.5043 0.5059
2455.000000 0.5076 0.5092 0.5109 0.5125 0.5141
2450.000000 0.5158 0.5175 0.5192 0.5209 0.5226
2445.000000 0.5242 0.5259 0.5276 0.5293 0.5309
2440.000000 0.5327 0.5344 0.5360 0.5378 0.5395
2435.000000 0.5412 0.5429 0.5447 0.5465 0.5482
2430.000000 0.5500 0.5517 0.5534 0.5552 0.5570
2425.000000 0.5587 0.5601 0.5612 0.5625 0.5638
2420.000000 0.5650 0.5662 0.5675 0.5687 0.5700
2415.000000 0.5712 0.5725 0.5737 0.5750 0.5762
2410.000000 0.5773 0.5783 0.5793 0.5803 0.5812
2405.000000 0.5823 0.5833 0.5843 0.5853 0.5862
2400.000000 0.5870 0.5878 0.5885 0.5891 0.5898
2395.000000 0.5904 0.5910 0.5917 0.5924 0.5931
2390.000000 0.5938 0.5944 0.5951 0.5958 0.5964
2385.000000 0.5970 0.5975 0.5979 0.5983 0.5987
2380.000000 0.5991 0.5995 0.5999 0.6003 0.6007
2375.000000 0.6010 0.6015 0.6019 0.6022 0.6026
2370.000000 0.6029 0.6033 0.6037 0.6041 0.6045
2365.000000 0.6048 0.6052 0.6055 0.6059 0.6062
2360.000000 0.6065 0.6067 0.6070 0.6072 0.6074
2355.000000 0.6076 0.6079 0.6081 0.6083 0.6085
2350.000000 0.6088 0.6090 0.6092 0.6095 0.6097
2345.000000 0.6100 0.6103 0.6106 0.6108 0.6110
2340.000000 0.6114 0.6116 0.6120 0.6123 0.6127
2335.000000 0.6131 0.6135 0.6140 0.6146 0.6154
2330.000000 0.6160 0.6168 0.6176 0.6183 0.6190
2325.000000 0.6198 0.6205 0.6212 0.6221 0.6228
2320.000000 0.6236 0.6243 0.6252 0.6260 0.6269
2315.000000 0.6279 0.6288 0.6297 0.6307 0.6316
2310.000000 0.6325 0.6334 0.6343 0.6353 0.6362
2305.000000 0.6371 0.6381 0.6390 0.6400 0.6410
2300.000000 0.6419 0.6428 0.6439 0.6448 0.6458
2295.000000 0.6468 0.6478 0.6488 0.6498 0.6507
2290.000000 0.6517 0.6526 0.6537 0.6546 0.6556
2285.000000 0.6565 0.6571 0.6578 0.6585 0.6592
2280.000000 0.6598 0.6605 0.6611 0.6619 0.6625
2275.000000 0.6633 0.6640 0.6647 0.6653 0.6660
2270.000000 0.6667 0.6674 0.6681 0.6687 0.6694
2265.000000 0.6701 0.6708 0.6714 0.6719 0.6725
2260.000000 0.6728 0.6734 0.6739 0.6744 0.6749
2255.000000 0.6754 0.6758 0.6764 0.6768 0.6771
2250.000000 0.6775 0.6780 0.6784 0.6788 0.6792
2245.000000 0.6796 0.6800 0.6804 0.6808 0.6811
2240.000000 0.6815 0.6819 0.6824 0.6828 0.6832
2235.000000 0.6836 0.6840 0.6841 0.6843 0.6844
2230.000000 0.6846 0.6847 0.6848 0.6849 0.6851
2225.000000 0.6851 0.6854 0.6855 0.6856 0.6857
2220.000000 0.6858 0.6860 0.6861 0.6861 0.6864
2215.000000 0.6865 0.6865 0.6868 0.6868 0.6869
2210.000000 0.6871 0.6872 0.6875 0.6880 0.6883
2205.000000 0.6887 0.6891 0.6894 0.6897 0.6901
2200.000000 0.6904 0.6908 0.6911 0.6914 0.6918
2195.000000 0.6921 0.6924 0.6926 0.6931 0.6934
2190.000000 0.6937 0.6941 0.6943 0.6945 0.6946
2185.000000 0.6948 0.6949 0.6950 0.6951 0.6951
2180.000000 0.6954 0.6955 0.6956 0.6958 0.6958
2175.000000 0.6960 0.6961 0.6962 0.6965 0.6965
2170.000000 0.6965 0.6967 0.6968 0.6968 0.6969
2165.000000 0.6971 0.6971 0.6974 0.6975 0.6978
2160.000000 0.6980 0.6982 0.6984 0.6986 0.6988
2155.000000 0.6990 0.6991 0.6993 0.6995 0.6998
2150.000000 0.7000 0.7005 0.7011 0.7017 0.7022
2145.000000 0.7031 0.7038 0.7048 0.7057 0.7065
2140.000000 0.7074 0.7082 0.7087 0.7092 0.7097
2135.000000 0.7101 0.7106 0.7110 0.7114 0.7117
2130.000000 0.7118 0.7121 0.7122 0.7125 0.7125
2125.000000 0.7128 0.7128 0.7128 0.7126 0.7122
2120.000000 0.7119 0.7117 0.7112 0.7110 0.7105
2115.000000 0.7100 0.7096 0.7091 0.7086 0.7081
2110.000000 0.7076 0.7072 0.7068 0.7065 0.7061
2105.000000 0.7056 0.7051 0.7048 0.7044 0.7040
2100.000000 0.7036 0.7032 0.7028 0.7024 0.7019
2095.000000 0.7015 0.7011 0.7008 0.7005 0.7005
2090.000000 0.7005 0.7005 0.7005 0.7005 0.7005
2085.000000 0.7005 0.7005 0.7005 0.7005 0.7005
2080.000000 0.7005 0.7018 0.7035 0.7044 0.7053
2075.000000 0.7061 0.7068 0.7076 0.7085 0.7094
2070.000000 0.7101 0.7110 0.7118 0.7124 0.7128
2065.000000 0.7134 0.7138 0.7143 0.7148 0.7153
2060.000000 0.7157 0.7161 0.7165 0.7169 0.7175
2055.000000 0.7178 0.7183 0.7188 0.7192 0.7196
2050.000000 0.7201 0.7205 0.7208 0.7214 0.7219
2045.000000 0.7224 0.7228 0.7232 0.7235 0.7239
2040.000000 0.7242 0.7245 0.7249 0.7251 0.7255
2035.000000 0.7258 0.7261 0.7265 0.7268 0.7271
2030.000000 0.7275 0.7278 0.7282 0.7286 0.7289
2025.000000 0.7292 0.7296 0.7299 0.7303 0.7307
2020.000000 0.7310 0.7312 0.7317 0.7319 0.7322
2015.000000 0.7326 0.7330 0.7333 0.7337 0.7340
2010.000000 0.7344 0.7348 0.7351 0.7354 0.7358
2005.000000 0.7361 0.7365 0.7368 0.7371 0.7375
2000.000000 0.7378 0.7382 0.7386 0.7389 0.7393
1995.000000 0.7396 0.7399 0.7403 0.7407 0.7410
1990.000000 0.7414 0.7417 0.7421 0.7424 0.7428
1985.000000 0.7431 0.7435 0.7438 0.7442 0.7445
1980.000000 0.7449 0.7453 0.7456 0.7460 0.7462
1975.000000 0.7467 0.7471 0.7475 0.7482 0.7488
1970.000000 0.7495 0.7501 0.7507 0.7512 0.7518
1965.000000 0.7525 0.7530 0.7536 0.7541 0.7547
1960.000000 0.7553 0.7558 0.7564 0.7568 0.7572
1955.000000 0.7578 0.7582 0.7587 0.7591 0.7595
1950.000000 0.7600 0.7604 0.7608 0.7614 0.7617
1945.000000 0.7619 0.7621 0.7624 0.7625 0.7628
1940.000000 0.7630 0.7632 0.7634 0.7635 0.7635
1935.000000 0.7635 0.7635 0.7635 0.7635 0.7635
1930.000000 0.7635 0.7634 0.7633 0.7632 0.7630
1925.000000 0.7628 0.7628 0.7625 0.7625 0.7624
1920.000000 0.7622 0.7622 0.7621 0.7621 0.7621
1915.000000 0.7619 0.7618 0.7618 0.7618 0.7618
1910.000000 0.7628 0.7639 0.7650 0.7660 0.7671
1905.000000 0.7682 0.7692 0.7701 0.7710 0.7718
1900.000000 0.7728 0.7737 0.7746 0.7754 0.7762
1895.000000 0.7771 0.7781 0.7789 0.7796 0.7801
1890.000000 0.7808 0.7815 0.7821 0.7826 0.7833
1885.000000 0.7839 0.7845 0.7849 0.7851 0.7855
1880.000000 0.7858 0.7860 0.7862 0.7865 0.7867
1875.000000 0.7868 0.7871 0.7871 0.7871 0.7872
1870.000000 0.7872 0.7872 0.7872 0.7869 0.7864
1865.000000 0.7858 0.7855 0.7851 0.7850 0.7847
1860.000000 0.7844 0.7844 0.7845 0.7846 0.7848
1855.000000 0.7851 0.7856 0.7860 0.7865 0.7869
1850.000000 0.7875 0.7878 0.7883 0.7888 0.7893
1845.000000 0.7898 0.7903 0.7907 0.7911 0.7915
1840.000000 0.7921 0.7924 0.7926 0.7931 0.7935
1835.000000 0.7938 0.7941 0.7945 0.7949 0.7951
1830.000000 0.7955 0.7958 0.7962 0.7965 0.7968
1825.000000 0.7972 0.7975 0.7978 0.7982 0.7985
1820.000000 0.7988 0.7991 0.7994 0.7997 0.8000
1815.000000 0.8003 0.8006 0.8008 0.8011 0.8015
1810.000000 0.8018 0.8021 0.8024 0.8028 0.8031
1805.000000 0.8034 0.8036 0.8039 0.8042 0.8045
1800.000000 0.8048 0.8051 0.8054 0.8057 0.8060
1795.000000 0.8062 0.8065 0.8068 0.8072 0.8075
1790.000000 0.8078 0.8082 0.8085 0.8088 0.8092
1785.000000 0.8095 0.8098 0.8101 0.8104 0.8108
1780.000000 0.8114 0.8118 0.8124 0.8128 0.8133
1775.000000 0.8138 0.8142 0.8146 0.8149 0.8151
1770.000000 0.8156 0.8158 0.8162 0.8162 0.8164
1765.000000 0.8164 0.8164 0.8164 0.8164 0.8164
1760.000000 0.8161 0.8160 0.8157 0.8155 0.8151
1755.000000 0.8150 0.8148 0.8145 0.8143 0.8140
1750.000000 0.8137 0.8134 0.8132 0.8128 0.8125
1745.000000 0.8122 0.8119 0.8115 0.8112 0.8110
1740.000000 0.8106 0.8101 0.8099 0.8095 0.8091
1735.000000 0.8087 0.8083 0.8078 0.8074 0.8069
1730.000000 0.8065 0.8061 0.8058 0.8055 0.8051
1725.000000 0.8049 0.8048 0.8048 0.8051 0.8055
1720.000000 0.8060 0.8064 0.8068 0.8072 0.8076
1715.000000 0.8080 0.8084 0.8087 0.8091 0.8095
1710.000000 0.8098 0.8101 0.8105 0.8107 0.8108
1705.000000 0.8111 0.8112 0.8114 0.8115 0.8118
1700.000000 0.8118 0.8118 0.8118 0.8118 0.8117
1695.000000 0.8115 0.8112 0.8106 0.8097 0.8086
1690.000000 0.8071 0.8056 0.8040 0.8024 0.8007
1685.000000 0.7991 0.7965 0.7936 0.7906 0.7875
1680.000000 0.7844 0.7811 0.7780 0.7753 0.7728
1675.000000 0.7704 0.7680 0.7657 0.7638 0.7621
1670.000000 0.7605 0.7592 0.7578 0.7567 0.7561
1665.000000 0.7557 0.7551 0.7548 0.7544 0.7540
1660.000000 0.7534 0.7528 0.7518 0.7508 0.7499
1655.000000 0.7486 0.7469 0.7449 0.7424 0.7395
1650.000000 0.7367 0.7337 0.7290 0.7241 0.7196
1645.000000 0.7151 0.7091 0.7000 0.6874 0.6686
1640.000000 0.6425 0.6132 0.5838 0.5543 0.5247
1635.000000 0.4952 0.4656 0.4360 0.4062 0.3766
1630.000000 0.3624 0.3582 0.3593 0.3671 0.3818
1625.000000 0.3977 0.4136 0.4296 0.4456 0.4616
1620.000000 0.4776 0.4936 0.5097 0.5258 0.5419
1615.000000 0.5580 0.5615 0.5614 0.5507 0.5207
1610.000000 0.4879 0.4551 0.4223 0.3893 0.3562
1605.000000 0.3232 0.2903 0.2572 0.2241 0.1909
1600.000000 0.1578 0.1258 0.1092 0.1092 0.1092
1595.000000 0.1190 0.1439 0.1712 0.1985 0.2259
1590.000000 0.2533 0.2808 0.3083 0.3358 0.3634
1585.000000 0.3909 0.4186 0.4462 0.4740 0.4982
1580.000000 0.5114 0.5194 0.5305 0.5566 0.5925
1575.000000 0.6077 0.6219 0.6332 0.6397 0.6431
1570.000000 0.6454 0.6474 0.6496 0.6518 0.6565
1565.000000 0.6642 0.6715 0.6791 0.6868 0.6954
1560.000000 0.7041 0.7142 0.7241 0.7318 0.7378
1555.000000 0.7425 0.7468 0.7501 0.7533 0.7557
1550.000000 0.7578 0.7601 0.7624 0.7647 0.7668
1545.000000 0.7692 0.7714 0.7732 0.7751 0.7771
1540.000000 0.7787 0.7797 0.7801 0.7804 0.7787
1535.000000 0.7800 0.7790 0.7774 0.7753 0.7714
1530.000000 0.7668 0.7433 0.6958 0.6453 0.5947
1525.000000 0.5440 0.4933 0.4425 0.3916 0.3407
1520.000000 0.2897 0.2385 0.1875 0.1704 0.1685
1515.000000 0.1696 0.1800 0.2067 0.2334 0.2601
1510.000000 0.2869 0.3137 0.3405 0.3674 0.3943
1505.000000 0.4212 0.4482 0.4752 0.5023 0.5293
1500.000000 0.5481 0.5545 0.5577 0.5601 0.5616
1495.000000 0.5633 0.5646 0.5657 0.5668 0.5702
1490.000000 0.5771 0.5847 0.5924 0.6000 0.6064
1485.000000 0.6072 0.6098 0.6102 0.6103 0.6096
1480.000000 0.5912 0.5633 0.5353 0.5073 0.4792
1475.000000 0.4510 0.4229 0.3946 0.3680 0.3492
1470.000000 0.3353 0.3199 0.3008 0.3042 0.3029
1465.000000 0.3019 0.3025 0.3072 0.3131 0.3190
1460.000000 0.3250 0.3289 0.3288 0.3287 0.3242
1455.000000 0.3197 0.3178 0.3177 0.3300 0.3492
1450.000000 0.3684 0.3877 0.4045 0.4108 0.4105
1445.000000 0.3989 0.3729 0.3468 0.3209 0.2948
1440.000000 0.2685 0.2425 0.2162 0.1900 0.1637
1435.000000 0.1569 0.1585 0.1590 0.1778 0.2037
1430.000000 0.2298 0.2560 0.2821 0.3082 0.3344
1425.000000 0.3606 0.3868 0.4132 0.4394 0.4649
1420.000000 0.4910 0.5065 0.5176 0.5288 0.5407
1415.000000 0.5527 0.5634 0.5709 0.5785 0.5860
1410.000000 0.5937 0.6015 0.6099 0.6181 0.6233
1405.000000 0.6282 0.6330 0.6373 0.6415 0.6461
1400.000000 0.6504 0.6530 0.6555 0.6572 0.6586
1395.000000 0.6594 0.6598 0.6598 0.6488 0.6176
1390.000000 0.5862 0.5546 0.5230 0.4954 0.4862
1385.000000 0.4853 0.4848 0.4838 0.4666 0.4441
1380.000000 0.4216 0.3990 0.3764 0.3538 0.3312
1375.000000 0.3084 0.2858 0.2652 0.2657 0.2649
1370.000000 0.2870 0.3175 0.3480 0.3788 0.4094
1365.000000 0.4401 0.4576 0.4664 0.4752 0.4841
1360.000000 0.4934 0.5027 0.5127 0.5238 0.5345
1355.000000 0.5444 0.5532 0.5595 0.5657 0.5712
1350.000000 0.5762 0.5802 0.5809 0.5817 0.5829
1345.000000 0.5841 0.5856 0.5902 0.5960 0.6012
1340.000000 0.6064 0.6112 0.6130 0.6137 0.6145
1335.000000 0.6160 0.6215 0.6290 0.6344 0.6408
1330.000000 0.6410 0.6418 0.6421 0.6415 0.6390
1325.000000 0.6326 0.6133 0.5980 0.5793 0.5604
1320.000000 0.5415 0.5225 0.5035 0.4845 0.4655
1315.000000 0.4465 0.4274 0.4157 0.4133 0.4129
1310.000000 0.4190 0.4280 0.4372 0.4462 0.4491
1305.000000 0.4519 0.4271 0.3809 0.3347 0.2884
1300.000000 0.2421 0.1957 0.1551 0.1570 0.1691
1295.000000 0.2014 0.2335 0.2660 0.2983 0.3308
1290.000000 0.3632 0.3958 0.4280 0.4425 0.4596
1285.000000 0.4858 0.5180 0.5410 0.5538 0.5674
1280.000000 0.5743 0.5810 0.5868 0.5918 0.5952
1275.000000 0.5973 0.5989 0.6002 0.6006 0.6010
1270.000000 0.6017 0.6019 0.6012 0.5817 0.5549
1265.000000 0.5280 0.5010 0.4741 0.4472 0.4201
1260.000000 0.3930 0.3659 0.3388 0.2734 0.2850
1255.000000 0.2749 0.2741 0.2802 0.2933 0.3065
1250.000000 0.3197 0.3329 0.3460 0.3582 0.3689
1245.000000 0.3779 0.3857 0.3918 0.3977 0.4016
1240.000000 0.4048 0.4034 0.4036 0.4032 0.4009
1235.000000 0.3966 0.3918 0.3850 0.3784 0.3725
1230.000000 0.3670 0.3637 0.3609 0.3594 0.3579
1225.000000 0.3570 0.3562 0.3573 0.3552 0.3553
1220.000000 0.3676 0.3848 0.4020 0.4193 0.4365
1215.000000 0.4539 0.4712 0.4885 0.5059 0.5233
1210.000000 0.5367 0.5337 0.5347 0.5277 0.4968
1205.000000 0.4659 0.4348 0.4038 0.3727 0.3414
1200.000000 0.3103 0.2799 0.2795 0.2814 0.2889
1195.000000 0.2967 0.3045 0.3094 0.3058 0.2865
1190.000000 0.2653 0.2465 0.2438 0.2566 0.2812
1185.000000 0.3059 0.3306 0.3554 0.3802 0.4050
1180.000000 0.4299 0.4548 0.4789 0.4958 0.5106
1175.000000 0.5244 0.5371 0.5487 0.5603 0.5719
1170.000000 0.5836 0.5932 0.6020 0.6105 0.6187
1165.000000 0.6262 0.6324 0.6386 0.6445 0.6500
1160.000000 0.6551 0.6598 0.6639 0.6682 0.6705
1155.000000 0.6741 0.6725 0.6728 0.6728 0.6710
1150.000000 0.6665 0.6588 0.6510 0.6372 0.6202
1145.000000 0.5977 0.5572 0.5162 0.4753 0.4343
1140.000000 0.3930 0.3518 0.3105 0.2692 0.2277
1135.000000 0.1862 0.1446 0.1030 0.0938 0.1123
1130.000000 0.1395 0.1668 0.1941 0.2215 0.2490
1125.000000 0.2739 0.2782 0.2449 0.2166 0.1883
1120.000000 0.1599 0.1314 0.1041 0.1011 0.0992
1115.000000 0.1022 0.1092 0.1170 0.1251 0.1379
1110.000000 0.1533 0.1728 0.1991 0.2255 0.2456
1105.000000 0.2624 0.2779 0.2900 0.3007 0.3099
1100.000000 0.3189 0.3286 0.3424 0.3566 0.3707
1095.000000 0.3849 0.3991 0.4133 0.4276 0.4422
1090.000000 0.4571 0.4721 0.4862 0.5000 0.5097
1085.000000 0.5188 0.5268 0.5336 0.5405 0.5468
1080.000000 0.5523 0.5577 0.5632 0.5686 0.5739
1075.000000 0.5792 0.5846 0.5896 0.5944 0.5993
1070.000000 0.6042 0.6094 0.6146 0.6200 0.6249
1065.000000 0.6299 0.6341 0.6377 0.6407 0.6437
1060.000000 0.6464 0.6491 0.6518 0.6544 0.6540
1055.000000 0.6565 0.6555 0.6496 0.6105 0.5612
1050.000000 0.5117 0.4622 0.4189 0.4142 0.4264
1045.000000 0.4520 0.4778 0.5036 0.5295 0.5553
1040.000000 0.5812 0.5997 0.6098 0.6166 0.6201
1035.000000 0.6217 0.6217 0.6195 0.6076 0.5743
1030.000000 0.5281 0.4818 0.4355 0.3891 0.3573
1025.000000 0.3532 0.3520 0.3503 0.3416 0.3250
1020.000000 0.2925 0.2738 0.2672 0.2670 0.2696
1015.000000 0.2812 0.3030 0.3277 0.3524 0.3772
1010.000000 0.4021 0.4270 0.4751 0.4725 0.4746
1005.000000 0.4686 0.4295 0.3908 0.3862 0.3959
1000.000000 0.4215 0.4469 0.4724 0.4947 0.5137
995.000000 0.5316 0.5483 0.5632 0.5762 0.5877
990.000000 0.5965 0.6036 0.6096 0.6149 0.6195
985.000000 0.6234 0.6264 0.6290 0.6314 0.6337
980.000000 0.6350 0.6362 0.6372 0.6417 0.6329
975.000000 0.6226 0.6037 0.5938 0.5880 0.5854
970.000000 0.5860 0.5884 0.5967 0.6078 0.6223
965.000000 0.6359 0.6460 0.6535 0.6585 0.6593
960.000000 0.6604 0.6578 0.6510 0.6410 0.6260
955.000000 0.6121 0.6017 0.5891 0.5902 0.5895
950.000000 0.5907 0.5984 0.6109 0.6226 0.6340
945.000000 0.6446 0.6551 0.6628 0.6697 0.6764
940.000000 0.6812 0.6857 0.6900 0.6944 0.6971
935.000000 0.6999 0.7024 0.7051 0.7075 0.7095
930.000000 0.7114 0.7133 0.7151 0.7167 0.7180
925.000000 0.7192 0.7205 0.7215 0.7225 0.7235
920.000000 0.7244 0.7258 0.7281 0.7311 0.7342
915.000000 0.7369 0.7391 0.7405 0.7418 0.7432
910.000000 0.7444 0.7456 0.7467 0.7478 0.7488
905.000000 0.7491 0.7480 0.7454 0.7422 0.7394
900.000000 0.7387 0.7403 0.7418 0.7437 0.7457
895.000000 0.7475 0.7491 0.7503 0.7511 0.7511
890.000000 0.7539 0.7504 0.7458 0.7376 0.7274
885.000000 0.7221 0.7171 0.7203 0.7222 0.7285
880.000000 0.7338 0.7381 0.7417 0.7435 0.7451
875.000000 0.7475 0.7440 0.7415 0.7353 0.7234
870.000000 0.7021 0.6706 0.6152 0.5609 0.5065
865.000000 0.4793 0.4752 0.4799 0.5132 0.5612
860.000000 0.6096 0.6403 0.6583 0.6741 0.6868
855.000000 0.6980 0.7048 0.7115 0.7183 0.7228
850.000000 0.7272 0.7317 0.7354 0.7386 0.7418
845.000000 0.7451 0.7480 0.7507 0.7534 0.7560
840.000000 0.7569 0.7581 0.7591 0.7601 0.7611
835.000000 0.7618 0.7626 0.7634 0.7642 0.7651
830.000000 0.7661 0.7671 0.7680 0.7690 0.7700
825.000000 0.7707 0.7714 0.7717 0.7717 0.7710
820.000000 0.7696 0.7680 0.7665 0.7646 0.7621
815.000000 0.7590 0.7547 0.7483 0.7394 0.7278
810.000000 0.7130 0.6934 0.6650 0.6126 0.5382
805.000000 0.4631 0.3540 0.3507 0.3591 0.3804
800.000000 0.3982 0.3998 0.4010 0.4049 0.4499
795.000000 0.5195 0.5573 0.5799 0.5997 0.6208
790.000000 0.6431 0.6644 0.6794 0.6921 0.7015
785.000000 0.7078 0.7134 0.7169 0.7206 0.7243
780.000000 0.7276 0.7307 0.7337 0.7368 0.7398
775.000000 0.7428 0.7457 0.7487 0.7512 0.7536
770.000000 0.7555 0.7575 0.7567 0.7511 0.7372
765.000000 0.7190 0.6876 0.6911 0.6971 0.7065
760.000000 0.7154 0.7242 0.7328 0.7400 0.7467
755.000000 0.7525 0.7561 0.7596 0.7615 0.7636
750.000000 0.7651 0.7651 0.7651 0.7647 0.7672
745.000000 0.7696 0.7712 0.7712 0.7712 0.7708
740.000000 0.7701 0.7694 0.7678 0.7660 0.7628
735.000000 0.7556 0.7380 0.7172 0.6951 0.6756
730.000000 0.6781 0.6849 0.6926 0.7003 0.7088
725.000000 0.7175 0.7251 0.7319 0.7378 0.7431
720.000000 0.7478 0.7511 0.7544 0.7568 0.7587
715.000000 0.7606 0.7615 0.7625 0.7635 0.7645
710.000000 0.7651 0.7651 0.7650 0.7649 0.7637
705.000000 0.7619 0.7597 0.7574 0.7543 0.7511
700.000000 0.7474 0.7383 0.7287 0.7225 0.7247
695.000000 0.7240 0.7258 0.7275 0.7285 0.7294
690.000000 0.7296 0.7288 0.7275 0.7253 0.7228
685.000000 0.7200 0.7205 0.7128 0.7084 0.7039
680.000000 0.6983 0.6926 0.6868 0.6815 0.6767
675.000000 0.6715 0.6660 0.6583 0.6484 0.6368
##END=
