##TITLE=ANISONITRILE
$$ E.K. (W.L.)
##JCAMP-DX=4.24
##DATA TYPE=INFRARED SPECTRUM
##CLASS=COBLENTZ
##ORIGIN=WYANDOTTE CHEMICALS CORP., WYANDOTTE, MICHIGAN, USA
##OWNER=COBLENTZ SOCIETY
Collection (C) 2018 copyright by the U.S. Secretary of Commerce
on behalf of the United States of America. All rights reserved.
##DATE=Not specified, most likely prior to 1970
##MOLFORM=C8 H7 N O
##MP=58.5-60.5 C
##SOURCE REFERENCE=COBLENTZ NO. 381
##$NIST ID=B6000381
##$NIST SOURCE=COBLENTZ
##$NIST IMAGE=cob381
##SPECTROMETER/DATA SYSTEM=Not specified, most likely a prism, grating, or hybrid spectrometer.
##STATE=SOLID (OIL MULL)
##SAMPLING PROCEDURE=TRANSMISSION
##RESOLUTION=4
##DATA PROCESSING=DIGITIZED BY NIST FROM HARD COPY
##XUNITS=MICROMETERS
##YUNITS=TRANSMITTANCE
##XFACTOR=1.000000
##YFACTOR=1
##DELTAX=000.006632
##FIRSTX=2.032
##LASTX=16.0187
##FIRSTY=0.408
##MAXX=16.0187
##MINX=2.032
##MAXY=0.96
##MINY=0.026
##NPOINTS=2110
##XYDATA=(X++(Y..Y))
2.032000 0.4080 0.4080 0.4080 0.4060 0.4060
2.065177 0.4060 0.4060 0.4060 0.4060 0.4060
2.098000 0.4060 0.4060 0.4080 0.4080 0.4050
2.131177 0.4030 0.4000 0.3980 0.3980 0.3930
2.164000 0.3910 0.3900 0.3880 0.3880 0.3880
2.197177 0.3880 0.3860 0.3850 0.3830 0.3810
2.231000 0.3800 0.3800 0.3800 0.3810 0.3810
2.264177 0.3830 0.3830 0.3850 0.3860 0.3860
2.297000 0.3860 0.3880 0.3880 0.3900 0.3900
2.330177 0.3900 0.3900 0.3900 0.3900 0.3900
2.363000 0.3900 0.3900 0.3910 0.3930 0.3950
2.396177 0.3950 0.4000 0.4000 0.3980 0.3980
2.430000 0.3950 0.3950 0.3950 0.3950 0.3950
2.463177 0.3930 0.3930 0.3960 0.3980 0.3980
2.496000 0.3980 0.3980 0.3980 0.3980 0.4000
2.529177 0.4000 0.4010 0.4030 0.4050 0.4100
2.562000 0.4110 0.4110 0.4100 0.4100 0.4080
2.595177 0.4080 0.4100 0.4150 0.4150 0.4160
2.629000 0.4160 0.4180 0.4200 0.4200 0.4200
2.662177 0.4180 0.4180 0.4180 0.4200 0.4200
2.695000 0.4210 0.4210 0.4210 0.4210 0.4210
2.728177 0.4230 0.4230 0.4210 0.4200 0.4200
2.761000 0.4200 0.4200 0.4180 0.4180 0.4180
2.794177 0.4160 0.4160 0.4150 0.4130 0.4130
2.828000 0.4130 0.4110 0.4100 0.4100 0.4100
2.861177 0.4100 0.4100 0.4110 0.4130 0.4150
2.894000 0.4150 0.4130 0.4110 0.4100 0.4100
2.927177 0.4080 0.4010 0.4000 0.4000 0.4000
2.960000 0.3980 0.3980 0.3980 0.4000 0.4010
2.993177 0.4010 0.4010 0.4010 0.4010 0.4010
3.027000 0.4010 0.4010 0.4010 0.4000 0.4000
3.060177 0.3980 0.3950 0.3930 0.3910 0.3880
3.093000 0.3850 0.3810 0.3800 0.3780 0.3760
3.126177 0.3750 0.3730 0.3700 0.3680 0.3600
3.159000 0.3500 0.3450 0.3410 0.3360 0.3350
3.192177 0.3330 0.3260 0.3230 0.3200 0.3180
3.225000 0.3110 0.3030 0.3010 0.2980 0.2880
3.258177 0.2800 0.2630 0.2430 0.2110 0.1850
3.292000 0.1650 0.1450 0.1030 0.0650 0.0400
3.325177 0.0330 0.0300 0.0300 0.0300 0.0280
3.358000 0.0260 0.0260 0.0260 0.0280 0.0300
3.391177 0.0310 0.0310 0.0300 0.0300 0.0300
3.424000 0.0310 0.0350 0.0360 0.0360 0.0360
3.457177 0.0350 0.0330 0.0330 0.0360 0.0450
3.491000 0.0530 0.0710 0.1000 0.1280 0.1560
3.524177 0.2060 0.2400 0.2610 0.2850 0.3060
3.557000 0.3310 0.3600 0.3680 0.3760 0.3810
3.590177 0.3860 0.3930 0.3960 0.4000 0.4000
3.623000 0.4050 0.4060 0.4060 0.4060 0.4050
3.656177 0.4000 0.4000 0.4000 0.4010 0.4010
3.690000 0.4080 0.4100 0.4110 0.4130 0.4150
3.723177 0.4150 0.4160 0.4180 0.4180 0.4210
3.756000 0.4210 0.4230 0.4230 0.4250 0.4260
3.789177 0.4260 0.4230 0.4210 0.4200 0.4160
3.822000 0.4160 0.4200 0.4210 0.4230 0.4300
3.855177 0.4330 0.4360 0.4360 0.4360 0.4310
3.889000 0.4230 0.4230 0.4210 0.4210 0.4250
3.922177 0.4380 0.4450 0.4500 0.4580 0.4610
3.955000 0.4630 0.4630 0.4650 0.4630 0.4630
3.988177 0.4630 0.4660 0.4750 0.4780 0.4810
4.021000 0.4830 0.4860 0.4900 0.4910 0.4950
4.054177 0.5000 0.5000 0.5030 0.5050 0.5080
4.088000 0.5110 0.5110 0.5080 0.5010 0.5010
4.121177 0.5010 0.5010 0.5000 0.4980 0.4980
4.154000 0.4980 0.4980 0.5000 0.4980 0.4950
4.187177 0.4950 0.4930 0.4910 0.4910 0.4950
4.220000 0.4950 0.4930 0.4930 0.4930 0.4950
4.253177 0.4980 0.5030 0.5080 0.5080 0.5100
4.287000 0.5100 0.5100 0.5110 0.5130 0.5160
4.320177 0.5210 0.5250 0.5300 0.5380 0.5450
4.353000 0.5510 0.5560 0.5600 0.5630 0.5700
4.386177 0.5730 0.5750 0.5760 0.5760 0.5760
4.419000 0.5760 0.5760 0.5800 0.5860 0.5900
4.452177 0.6010 0.6180 0.6350 0.6500 0.6550
4.486000 0.6630 0.6960 0.7150 0.7430 0.7900
4.519177 0.7900 0.7610 0.7110 0.6600 0.5350
4.552000 0.4080 0.3530 0.2980 0.2710 0.2700
4.585177 0.2760 0.2960 0.3200 0.3680 0.3810
4.618000 0.3980 0.4060 0.4180 0.4230 0.4300
4.651177 0.4330 0.4380 0.4450 0.4510 0.4600
4.685000 0.4650 0.4760 0.4850 0.4910 0.4960
4.718177 0.5110 0.5130 0.5130 0.5160 0.5180
4.751000 0.5200 0.5200 0.5230 0.5250 0.5300
4.784177 0.5350 0.5380 0.5400 0.5400 0.5360
4.817000 0.5310 0.5280 0.5250 0.5260 0.5300
4.850177 0.5330 0.5350 0.5360 0.5400 0.5430
4.884000 0.5430 0.5480 0.5480 0.5430 0.5410
4.917177 0.5400 0.5310 0.5230 0.5210 0.5200
4.950000 0.5210 0.5230 0.5280 0.5310 0.5360
4.983177 0.5410 0.5500 0.5530 0.5550 0.5580
5.016000 0.5580 0.5560 0.5560 0.5560 0.5560
5.049177 0.5560 0.5580 0.5580 0.5610 0.5630
5.083000 0.5650 0.5680 0.5710 0.5730 0.5750
5.116177 0.5760 0.5760 0.5780 0.5830 0.5830
5.149000 0.5850 0.5850 0.5830 0.5810 0.5810
5.182177 0.5800 0.5810 0.5800 0.5780 0.5780
5.215000 0.5780 0.5760 0.5750 0.5700 0.5560
5.248177 0.5400 0.5230 0.5230 0.5300 0.5350
5.282000 0.5400 0.5500 0.5630 0.5680 0.5710
5.315177 0.5750 0.5750 0.5760 0.5760 0.5780
5.348000 0.5830 0.5900 0.6000 0.6030 0.6080
5.381177 0.6100 0.6110 0.6130 0.6160 0.6180
5.414000 0.6210 0.6260 0.6330 0.6360 0.6410
5.447177 0.6410 0.6410 0.6430 0.6460 0.6510
5.480000 0.6530 0.6560 0.6600 0.6600 0.6580
5.513177 0.6580 0.6580 0.6580 0.6580 0.6580
5.547000 0.6530 0.6510 0.6510 0.6530 0.6650
5.580177 0.6730 0.6730 0.6730 0.6700 0.6660
5.613000 0.6630 0.6500 0.6480 0.6460 0.6460
5.646177 0.6460 0.6450 0.6460 0.6510 0.6550
5.679000 0.6600 0.6630 0.6750 0.6780 0.6850
5.712177 0.6900 0.6980 0.7060 0.7280 0.7380
5.746000 0.7400 0.7400 0.7400 0.7410 0.7410
5.779177 0.7450 0.7480 0.7500 0.7500 0.7480
5.812000 0.7480 0.7480 0.7460 0.7450 0.7450
5.845177 0.7500 0.7600 0.7630 0.7650 0.7650
5.878000 0.7660 0.7700 0.7780 0.7880 0.8010
5.911177 0.8060 0.8110 0.8130 0.8150 0.8180
5.945000 0.8300 0.8530 0.8580 0.8610 0.8550
5.978177 0.8450 0.8330 0.8330 0.8650 0.8880
6.011000 0.9050 0.9050 0.9030 0.8960 0.8860
6.044177 0.8860 0.8950 0.9030 0.9080 0.9050
6.077000 0.8750 0.8200 0.7630 0.6560 0.5480
6.110177 0.4860 0.4230 0.3210 0.2180 0.1660
6.144000 0.1150 0.1100 0.1100 0.1150 0.1400
6.177177 0.1560 0.1950 0.2180 0.2460 0.2750
6.210000 0.2900 0.3200 0.3500 0.3550 0.3510
6.243177 0.3410 0.3310 0.3010 0.2850 0.2660
6.276000 0.2650 0.2660 0.2810 0.2980 0.3050
6.309177 0.3130 0.3280 0.3510 0.3730 0.3860
6.343000 0.4280 0.4550 0.4930 0.5460 0.5650
6.376177 0.5750 0.5830 0.5900 0.5980 0.6060
6.409000 0.6180 0.6350 0.7010 0.7410 0.7780
6.442177 0.8100 0.8710 0.8750 0.8910 0.8780
6.475000 0.8560 0.8330 0.7630 0.7000 0.6360
6.508177 0.5680 0.5000 0.3530 0.2800 0.2060
6.542000 0.1800 0.1510 0.1360 0.1330 0.1310
6.575177 0.1350 0.1410 0.1430 0.1480 0.1550
6.608000 0.1560 0.1660 0.1910 0.1960 0.2010
6.641177 0.2010 0.2060 0.2080 0.2100 0.2110
6.674000 0.2060 0.2000 0.1950 0.1880 0.1800
6.707177 0.1730 0.1650 0.1350 0.1010 0.0710
6.741000 0.0450 0.0310 0.0300 0.0310 0.0350
6.774177 0.0360 0.0360 0.0380 0.0380 0.0400
6.807000 0.0430 0.0460 0.0460 0.0430 0.0400
6.840177 0.0400 0.0430 0.0530 0.0600 0.0660
6.873000 0.0730 0.0800 0.0860 0.1050 0.1330
6.906177 0.1630 0.2260 0.2630 0.2950 0.3130
6.940000 0.3660 0.3700 0.3660 0.3400 0.3110
6.973177 0.2860 0.2650 0.2630 0.2660 0.3050
7.006000 0.3230 0.3700 0.3930 0.4050 0.4250
7.039177 0.4310 0.4360 0.4450 0.4510 0.4610
7.072000 0.4660 0.4700 0.4730 0.4760 0.4780
7.105177 0.4800 0.4800 0.4800 0.4760 0.4700
7.139000 0.4350 0.4010 0.3530 0.3280 0.3010
7.172177 0.2450 0.2100 0.1880 0.1680 0.1630
7.205000 0.1560 0.1500 0.1510 0.1610 0.1910
7.238177 0.2230 0.2430 0.2560 0.2650 0.2810
7.271000 0.2910 0.3080 0.3180 0.4010 0.4280
7.304177 0.4610 0.4800 0.4980 0.5280 0.5460
7.338000 0.5560 0.5680 0.5930 0.6050 0.6200
7.371177 0.6310 0.6410 0.6510 0.6630 0.6850
7.404000 0.6930 0.7000 0.7150 0.7300 0.7460
7.437177 0.7650 0.7710 0.7730 0.7750 0.7750
7.470000 0.7780 0.7900 0.7980 0.8080 0.8130
7.503177 0.8130 0.8010 0.7360 0.6760 0.6150
7.536000 0.5050 0.4600 0.4130 0.3430 0.3230
7.569177 0.3010 0.2910 0.2610 0.2250 0.1880
7.603000 0.1730 0.1580 0.1510 0.1510 0.1510
7.636177 0.1580 0.2050 0.2180 0.2380 0.2530
7.669000 0.2710 0.2850 0.2950 0.3010 0.3080
7.702177 0.3130 0.3200 0.3480 0.3810 0.4250
7.735000 0.4480 0.4800 0.5450 0.5780 0.6000
7.768177 0.6030 0.6030 0.6010 0.5350 0.4750
7.802000 0.4150 0.3360 0.3100 0.2810 0.2080
7.835177 0.1830 0.1660 0.1480 0.1350 0.1300
7.868000 0.1200 0.1100 0.0980 0.0950 0.0810
7.901177 0.0680 0.0580 0.0580 0.0610 0.0730
7.934000 0.0830 0.0930 0.1010 0.1110 0.1230
7.967177 0.1280 0.1330 0.1410 0.1510 0.1550
8.001000 0.1650 0.1780 0.1830 0.1860 0.1910
8.034177 0.1980 0.2050 0.2150 0.2210 0.2250
8.067000 0.2300 0.2330 0.2360 0.2400 0.2460
8.100177 0.2550 0.2600 0.2650 0.2710 0.2780
8.133000 0.2800 0.2830 0.2880 0.2950 0.3000
8.166177 0.3010 0.3050 0.3130 0.3180 0.3230
8.200000 0.3330 0.3450 0.3500 0.3530 0.3530
8.233177 0.3580 0.3680 0.3760 0.3860 0.3960
8.266000 0.4080 0.4160 0.4210 0.4310 0.4400
8.299177 0.4460 0.4550 0.4650 0.4800 0.4950
8.332000 0.5280 0.5450 0.5610 0.5780 0.6000
8.365177 0.6100 0.6100 0.6060 0.5830 0.5210
8.399000 0.4600 0.3910 0.3210 0.2100 0.1880
8.432177 0.1650 0.1350 0.1150 0.1060 0.1000
8.465000 0.1000 0.1000 0.1060 0.1110 0.1180
8.498177 0.1300 0.1410 0.1550 0.1650 0.1810
8.531000 0.1910 0.1960 0.2030 0.2080 0.2130
8.564177 0.2200 0.2260 0.2350 0.2450 0.2450
8.598000 0.2480 0.2500 0.2500 0.2510 0.2550
8.631177 0.2610 0.2660 0.2730 0.2780 0.2830
8.664000 0.2900 0.3000 0.3050 0.3100 0.3110
8.697177 0.3180 0.3210 0.3280 0.3410 0.3510
8.730000 0.3580 0.3580 0.3550 0.3530 0.3550
8.763177 0.3550 0.3530 0.3500 0.3460 0.3430
8.797000 0.3360 0.3360 0.3360 0.3360 0.3360
8.830177 0.3380 0.3410 0.3430 0.3430 0.3430
8.863000 0.3430 0.3410 0.3380 0.3330 0.3230
8.896177 0.3080 0.2910 0.2900 0.2900 0.2980
8.929000 0.3160 0.3250 0.3460 0.3610 0.3700
8.962177 0.3780 0.3850 0.3900 0.3980 0.4050
8.996000 0.4110 0.4150 0.4180 0.4180 0.4210
9.029177 0.4250 0.4280 0.4310 0.4350 0.4360
9.062000 0.4410 0.4430 0.4450 0.4460 0.4480
9.095177 0.4500 0.4510 0.4510 0.4510 0.4510
9.128000 0.4530 0.4510 0.4550 0.4560 0.4580
9.161177 0.4580 0.4600 0.4630 0.4630 0.4650
9.195000 0.4660 0.4700 0.4710 0.4760 0.4800
9.228177 0.4830 0.4850 0.4860 0.4860 0.4900
9.261000 0.4950 0.5010 0.5000 0.4960 0.5000
9.294177 0.5000 0.5050 0.5100 0.5130 0.5150
9.327000 0.5160 0.5200 0.5210 0.5250 0.5280
9.360177 0.5310 0.5380 0.5380 0.5410 0.5480
9.394000 0.5530 0.5580 0.5600 0.5610 0.5630
9.427177 0.5650 0.5700 0.5710 0.5730 0.5780
9.460000 0.5880 0.5950 0.6010 0.6060 0.6130
9.493177 0.6180 0.6200 0.6210 0.6280 0.6350
9.526000 0.6380 0.6400 0.6400 0.6380 0.6360
9.559177 0.6310 0.6160 0.6000 0.5830 0.5450
9.592000 0.5200 0.4930 0.4300 0.3650 0.3330
9.625177 0.3010 0.2450 0.2030 0.1800 0.1680
9.659000 0.1550 0.1360 0.1130 0.1060 0.0950
9.692177 0.0850 0.0780 0.0730 0.0710 0.0700
9.725000 0.0680 0.0680 0.0660 0.0650 0.0610
9.758177 0.0600 0.0610 0.0710 0.0800 0.0830
9.791000 0.0950 0.1050 0.1110 0.1150 0.1160
9.824177 0.1180 0.1210 0.1260 0.1330 0.1450
9.858000 0.1530 0.1630 0.1850 0.1950 0.2000
9.891177 0.2050 0.2160 0.2230 0.2300 0.2380
9.924000 0.2450 0.2530 0.2600 0.2660 0.2760
9.957177 0.2780 0.2850 0.2950 0.2980 0.3010
9.990000 0.3050 0.3080 0.3110 0.3150 0.3200
10.023177 0.3210 0.3230 0.3260 0.3300 0.3310
10.057000 0.3360 0.3380 0.3400 0.3400 0.3400
10.090177 0.3410 0.3410 0.3430 0.3450 0.3460
10.123000 0.3480 0.3500 0.3500 0.3510 0.3530
10.156177 0.3560 0.3580 0.3560 0.3530 0.3550
10.189000 0.3550 0.3580 0.3610 0.3610 0.3610
10.222177 0.3610 0.3610 0.3610 0.3610 0.3610
10.256000 0.3630 0.3650 0.3660 0.3660 0.3680
10.289177 0.3680 0.3710 0.3750 0.3750 0.3760
10.322000 0.3760 0.3730 0.3710 0.3700 0.3650
10.355177 0.3610 0.3550 0.3500 0.3430 0.3360
10.388000 0.3350 0.3330 0.3310 0.3310 0.3310
10.421177 0.3300 0.3300 0.3300 0.3310 0.3460
10.455000 0.3530 0.3600 0.3660 0.3710 0.3730
10.488177 0.3730 0.3750 0.3760 0.3800 0.3810
10.521000 0.3800 0.3800 0.3800 0.3800 0.3800
10.554177 0.3800 0.3810 0.3830 0.3850 0.3860
10.587000 0.3880 0.3910 0.3980 0.4000 0.4000
10.620177 0.4010 0.4010 0.4000 0.4000 0.4000
10.654000 0.4000 0.4010 0.4050 0.4080 0.4100
10.687177 0.4110 0.4130 0.4130 0.4160 0.4180
10.720000 0.4200 0.4200 0.4210 0.4230 0.4260
10.753177 0.4280 0.4300 0.4310 0.4330 0.4330
10.786000 0.4330 0.4350 0.4360 0.4380 0.4400
10.819177 0.4380 0.4400 0.4400 0.4400 0.4410
10.853000 0.4430 0.4450 0.4450 0.4450 0.4430
10.886177 0.4410 0.4400 0.4400 0.4410 0.4430
10.919000 0.4450 0.4460 0.4460 0.4460 0.4480
10.952177 0.4480 0.4480 0.4480 0.4510 0.4550
10.985000 0.4550 0.4550 0.4560 0.4580 0.4600
11.018177 0.4600 0.4600 0.4610 0.4610 0.4610
11.052000 0.4630 0.4630 0.4630 0.4630 0.4630
11.085177 0.4630 0.4630 0.4610 0.4600 0.4600
11.118000 0.4580 0.4580 0.4560 0.4550 0.4530
11.151177 0.4530 0.4500 0.4480 0.4500 0.4530
11.184000 0.4550 0.4550 0.4560 0.4580 0.4560
11.217177 0.4560 0.4560 0.4530 0.4510 0.4500
11.251000 0.4500 0.4480 0.4450 0.4450 0.4430
11.284177 0.4410 0.4450 0.4450 0.4450 0.4450
11.317000 0.4450 0.4430 0.4430 0.4410 0.4410
11.350177 0.4410 0.4400 0.4400 0.4360 0.4330
11.383000 0.4310 0.4310 0.4300 0.4310 0.4310
11.416177 0.4300 0.4300 0.4280 0.4250 0.4210
11.450000 0.4200 0.4180 0.4150 0.4130 0.4110
11.483177 0.4100 0.4050 0.4030 0.4010 0.4000
11.516000 0.4000 0.3980 0.3950 0.3930 0.3910
11.549177 0.3860 0.3830 0.3810 0.3800 0.3800
11.582000 0.3780 0.3750 0.3730 0.3710 0.3710
11.615177 0.3700 0.3680 0.3650 0.3580 0.3530
11.648000 0.3510 0.3460 0.3430 0.3360 0.3350
11.681177 0.3310 0.3280 0.3260 0.3250 0.3230
11.715000 0.3210 0.3180 0.3150 0.3100 0.3030
11.748177 0.3000 0.2930 0.2850 0.2780 0.2750
11.781000 0.2710 0.2660 0.2600 0.2530 0.2480
11.814177 0.2430 0.2360 0.2310 0.2260 0.2210
11.847000 0.2150 0.2050 0.1960 0.1860 0.1730
11.880177 0.1680 0.1630 0.1510 0.1450 0.1400
11.914000 0.1360 0.1310 0.1280 0.1250 0.1200
11.947177 0.1050 0.1010 0.0910 0.0860 0.0780
11.980000 0.0710 0.0660 0.0580 0.0580 0.0550
12.013177 0.0550 0.0530 0.0530 0.0530 0.0530
12.046000 0.0530 0.0530 0.0530 0.0530 0.0530
12.079177 0.0560 0.0560 0.0580 0.0630 0.0700
12.113000 0.0750 0.0800 0.0850 0.0930 0.1050
12.146177 0.1180 0.1330 0.1450 0.1580 0.1830
12.179000 0.1950 0.2010 0.2150 0.2360 0.2530
12.212177 0.2660 0.2760 0.2880 0.2960 0.3050
12.245000 0.3130 0.3210 0.3300 0.3430 0.3500
12.278177 0.3500 0.3460 0.3400 0.3360 0.3310
12.312000 0.3260 0.3100 0.2980 0.2800 0.2730
12.345177 0.2630 0.2560 0.2510 0.2500 0.2510
12.378000 0.2600 0.2700 0.2810 0.2980 0.3150
12.411177 0.3600 0.3750 0.3930 0.4160 0.4360
12.444000 0.4530 0.4600 0.4710 0.4810 0.4950
12.477177 0.5160 0.5260 0.5360 0.5460 0.5530
12.511000 0.5600 0.5630 0.5680 0.5710 0.5780
12.544177 0.5850 0.5880 0.5960 0.6010 0.6030
12.577000 0.6050 0.6160 0.6210 0.6230 0.6250
12.610177 0.6260 0.6250 0.6280 0.6310 0.6350
12.643000 0.6380 0.6410 0.6480 0.6530 0.6580
12.676177 0.6610 0.6630 0.6630 0.6650 0.6710
12.710000 0.6750 0.6750 0.6780 0.6800 0.6810
12.743177 0.6830 0.6830 0.6830 0.6850 0.6850
12.776000 0.6860 0.6880 0.6860 0.6880 0.6900
12.809177 0.6910 0.6910 0.6900 0.6860 0.6860
12.842000 0.6860 0.6900 0.6980 0.7010 0.7010
12.875177 0.7010 0.7010 0.7010 0.7000 0.7000
12.909000 0.7010 0.7030 0.7030 0.7030 0.7030
12.942177 0.7050 0.7030 0.7000 0.7010 0.7010
12.975000 0.7030 0.7050 0.7100 0.7110 0.7130
13.008177 0.7160 0.7160 0.7160 0.7180 0.7180
13.041000 0.7200 0.7210 0.7230 0.7250 0.7260
13.074177 0.7260 0.7280 0.7280 0.7300 0.7300
13.108000 0.7310 0.7300 0.7310 0.7310 0.7330
13.141177 0.7360 0.7360 0.7360 0.7380 0.7380
13.174000 0.7360 0.7360 0.7360 0.7360 0.7380
13.207177 0.7380 0.7310 0.7310 0.7310 0.7350
13.240000 0.7380 0.7380 0.7380 0.7380 0.7380
13.273177 0.7400 0.7400 0.7400 0.7380 0.7380
13.307000 0.7400 0.7430 0.7450 0.7450 0.7410
13.340177 0.7410 0.7410 0.7430 0.7450 0.7450
13.373000 0.7450 0.7430 0.7430 0.7410 0.7400
13.406177 0.7380 0.7360 0.7350 0.7360 0.7380
13.439000 0.7400 0.7400 0.7400 0.7400 0.7360
13.472177 0.7310 0.7280 0.7260 0.7260 0.7260
13.506000 0.7250 0.7250 0.7230 0.7230 0.7230
13.539177 0.7230 0.7210 0.7210 0.7210 0.7230
13.572000 0.7230 0.7230 0.7230 0.7250 0.7250
13.605177 0.7260 0.7260 0.7260 0.7280 0.7260
13.638000 0.7260 0.7260 0.7260 0.7280 0.7330
13.671177 0.7360 0.7380 0.7360 0.7360 0.7350
13.704000 0.7330 0.7350 0.7360 0.7380 0.7400
13.737177 0.7400 0.7350 0.7330 0.7310 0.7330
13.771000 0.7330 0.7350 0.7350 0.7350 0.7360
13.804177 0.7380 0.7400 0.7400 0.7400 0.7410
13.837000 0.7410 0.7410 0.7430 0.7450 0.7480
13.870177 0.7500 0.7510 0.7510 0.7530 0.7580
13.903000 0.7600 0.7610 0.7630 0.7630 0.7610
13.936177 0.7610 0.7610 0.7600 0.7600 0.7580
13.970000 0.7550 0.7530 0.7530 0.7560 0.7610
14.003177 0.7680 0.7730 0.7810 0.7850 0.7900
14.036000 0.7930 0.7980 0.8100 0.8160 0.8210
14.069177 0.8260 0.8300 0.8450 0.8480 0.8530
14.102000 0.8560 0.8600 0.8650 0.8680 0.8700
14.135177 0.8730 0.8760 0.8810 0.8850 0.8900
14.169000 0.8910 0.8930 0.8950 0.8960 0.8980
14.202177 0.9010 0.9050 0.9060 0.9080 0.9100
14.235000 0.9130 0.9150 0.9180 0.9210 0.9250
14.268177 0.9280 0.9300 0.9310 0.9330 0.9350
14.301000 0.9380 0.9380 0.9400 0.9400 0.9400
14.334177 0.9410 0.9450 0.9460 0.9480 0.9500
14.368000 0.9510 0.9530 0.9530 0.9550 0.9560
14.401177 0.9580 0.9600 0.9600 0.9600 0.9580
14.434000 0.9580 0.9550 0.9480 0.9430 0.9410
14.467177 0.9400 0.9360 0.9330 0.9230 0.9150
14.500000 0.9030 0.8910 0.8730 0.8480 0.8350
14.533177 0.8200 0.7880 0.7530 0.7180 0.6800
14.567000 0.6610 0.6430 0.6030 0.5650 0.5280
14.600177 0.5100 0.4900 0.4550 0.4210 0.3880
14.633000 0.3600 0.3460 0.3330 0.3100 0.2900
14.666177 0.2750 0.2610 0.2550 0.2500 0.2480
14.699000 0.2400 0.2360 0.2360 0.2360 0.2360
14.732177 0.2380 0.2430 0.2530 0.2630 0.2750
14.766000 0.2830 0.2910 0.3000 0.3080 0.3160
14.799177 0.3250 0.3330 0.3500 0.3580 0.3680
14.832000 0.3760 0.3850 0.3950 0.4030 0.4130
14.865177 0.4230 0.4330 0.4360 0.4400 0.4430
14.898000 0.4480 0.4550 0.4650 0.4710 0.4780
14.931177 0.4830 0.4860 0.4910 0.4930 0.4960
14.965000 0.4980 0.4980 0.4980 0.4980 0.5000
14.998177 0.5000 0.5000 0.5000 0.5000 0.5000
15.031000 0.5000 0.5000 0.5000 0.5000 0.5030
15.064177 0.5030 0.5050 0.5050 0.5080 0.5110
15.097000 0.5160 0.5210 0.5260 0.5330 0.5380
15.130177 0.5410 0.5480 0.5510 0.5560 0.5580
15.164000 0.5610 0.5630 0.5660 0.5680 0.5700
15.197177 0.5710 0.5750 0.5780 0.5810 0.5850
15.230000 0.5860 0.5860 0.5880 0.5900 0.5900
15.263177 0.5900 0.5910 0.5910 0.5910 0.5910
15.296000 0.5910 0.5910 0.5900 0.5900 0.5900
15.329177 0.5900 0.5900 0.5900 0.5900 0.5880
15.363000 0.5860 0.5850 0.5850 0.5850 0.5850
15.396177 0.5860 0.5860 0.5880 0.5880 0.5900
15.429000 0.5900 0.5930 0.5930 0.5930 0.5930
15.462177 0.5910 0.5860 0.5830 0.5810 0.5800
15.495000 0.5750 0.5710 0.5700 0.5660 0.5650
15.528177 0.5630 0.5610 0.5600 0.5580 0.5580
15.562000 0.5560 0.5550 0.5550 0.5550 0.5550
15.595177 0.5560 0.5580 0.5600 0.5630 0.5650
15.628000 0.5660 0.5680 0.5680 0.5680 0.5680
15.661177 0.5680 0.5680 0.5680 0.5660 0.5630
15.694000 0.5630 0.5650 0.5660 0.5680 0.5710
15.727177 0.5710 0.5700 0.5650 0.5630 0.5630
15.761000 0.5630 0.5630 0.5630 0.5630 0.5660
15.794177 0.5660 0.5660 0.5660 0.5660 0.5650
15.827000 0.5630 0.5610 0.5610 0.5610 0.5600
15.860177 0.5600 0.5580 0.5560 0.5560 0.5560
15.893000 0.5550 0.5530 0.5510 0.5500 0.5460
15.926177 0.5450 0.5410 0.5400 0.5350 0.5310
15.959000 0.5260 0.5250 0.5200 0.5200 0.5180
15.992177 0.5160 0.5150 0.6400 0.5180 0.5160
##END=
