##TITLE=FORMAMIDE, N-(6-AMINO-3,4-DIHYDRO-4-OXO-5-PYRIMIDINYL)-N-BENZYL-
##JCAMP-DX=4.24
##DATA TYPE=INFRARED SPECTRUM
##CLASS=COBLENTZ III
##ORIGIN=SOUTHERN RESEARCH INST.
##OWNER=COBLENTZ SOCIETY
Collection (C) 2018 copyright by the U.S. Secretary of Commerce
on behalf of the United States of America. All rights reserved.
##DATE=1965/10/11
##NAMES=4-amino-6-oxo-1,6-dihydro-5-pyrimidinyl(benzyl)formamide
##MOLFORM=C12 H12 N4 O2
##SOURCE REFERENCE=COBLENTZ NO. 9947
##$NIST ID=B6009947
##$NIST SOURCE=COBLENTZ
##$NIST IMAGE=cob9947
##SPECTROMETER/DATA SYSTEM=PERKIN-ELMER 521 (GRATING)
##INSTRUMENT PARAMETERS=FILTER CHANGES AT 3130, 2475, 2000, 1150, 700, 410 CM^-^1, GRATING CHANGES AT 2000, 620 CM^-^1
##STATE=SOLID (1 mg / 650 mg KBr DISC)
##SAMPLING PROCEDURE=TRANSMISSION
##RESOLUTION=4
##DATA PROCESSING=DIGITIZED BY NIST FROM HARD COPY
##XUNITS=1/CM
##YUNITS=TRANSMITTANCE
##XFACTOR=1.000000
##YFACTOR=1
##DELTAX=001.598837
##FIRSTX=274.419
##LASTX=3790.27
##FIRSTY=0.512
##MAXX=3790.27
##MINX=274.419
##MAXY=0.89
##MINY=0.124
##NPOINTS=2200
##XYDATA=(X++(Y..Y))
274.419000 0.5120 0.5170 0.5220 0.5220 0.5230
282.416823 0.5120 0.5170 0.5220 0.5220 0.5230
290.407000 0.5290 0.5340 0.5400 0.5450 0.5520
298.404823 0.5570 0.5630 0.5670 0.5700 0.5730
306.395000 0.5740 0.5780 0.5810 0.5850 0.5890
314.392823 0.5940 0.5970 0.6000 0.6150 0.6260
322.384000 0.6330 0.6380 0.6410 0.6430 0.6450
330.381823 0.6480 0.6520 0.6590 0.6600 0.6670
338.372000 0.6690 0.6710 0.6710 0.6720 0.6750
346.369823 0.6810 0.6860 0.6890 0.6920 0.6940
354.360000 0.6950 0.6970 0.6970 0.6970 0.6980
362.357823 0.6980 0.6990 0.6990 0.7000 0.7000
370.349000 0.7010 0.7010 0.7020 0.7030 0.7050
378.346823 0.7050 0.7060 0.7070 0.7080 0.7080
386.337000 0.7080 0.7090 0.7090 0.7080 0.7060
394.334823 0.7050 0.6990 0.6970 0.6980 0.7010
402.326000 0.7020 0.7050 0.7080 0.7120 0.7180
410.323823 0.7240 0.7270 0.7280 0.7280 0.7300
418.314000 0.7300 0.7220 0.7160 0.7110 0.7050
426.311823 0.6980 0.6990 0.7030 0.7060 0.7130
434.302000 0.7200 0.7210 0.7250 0.7250 0.7240
442.299823 0.7180 0.7150 0.7120 0.7080 0.6940
450.291000 0.6920 0.6910 0.6920 0.6930 0.6970
458.288823 0.7010 0.7030 0.7080 0.7220 0.7280
466.279000 0.7300 0.7300 0.7290 0.7280 0.7270
474.276823 0.7230 0.7190 0.7170 0.7140 0.7090
482.267000 0.6990 0.6940 0.6900 0.6890 0.6880
490.264823 0.6880 0.6890 0.6900 0.6920 0.6970
498.256000 0.7010 0.7050 0.7110 0.7240 0.7270
506.253823 0.7300 0.7330 0.7380 0.7450 0.7470
514.244000 0.7470 0.7460 0.7460 0.7440 0.7430
522.241823 0.7410 0.7380 0.7350 0.7320 0.7290
530.233000 0.7250 0.7210 0.7180 0.7140 0.7100
538.230823 0.6900 0.6820 0.6780 0.6730 0.6720
546.221000 0.6730 0.6790 0.6830 0.6890 0.6940
554.218823 0.6970 0.7000 0.7050 0.7110 0.7160
562.209000 0.7210 0.7200 0.7200 0.7190 0.7160
570.206823 0.7120 0.6960 0.6850 0.6730 0.6650
578.198000 0.6610 0.6600 0.6600 0.6640 0.6790
586.195823 0.6930 0.6970 0.6990 0.7010 0.7020
594.186000 0.7030 0.7040 0.6970 0.6940 0.6860
602.183823 0.6800 0.6750 0.6710 0.6680 0.6650
610.174000 0.6610 0.6600 0.6600 0.6600 0.6660
618.171823 0.6710 0.6750 0.6790 0.6800 0.6820
626.163000 0.6860 0.6860 0.6870 0.6870 0.6870
634.160823 0.6870 0.6870 0.6870 0.6880 0.6890
642.151000 0.6930 0.6980 0.7010 0.7030 0.7060
650.148823 0.7090 0.7120 0.7140 0.7160 0.7190
658.140000 0.7210 0.7240 0.7280 0.7330 0.7390
666.137823 0.7440 0.7490 0.7530 0.7570 0.7580
674.128000 0.7630 0.7630 0.7630 0.7620 0.7620
682.125823 0.7560 0.7460 0.7380 0.7300 0.6980
690.116000 0.6820 0.6660 0.6580 0.6440 0.6300
698.113823 0.6290 0.6300 0.6450 0.6590 0.6770
706.105000 0.6950 0.7070 0.7190 0.7330 0.7540
714.102823 0.7550 0.7550 0.7530 0.7520 0.7390
722.093000 0.7350 0.7250 0.7150 0.7080 0.7040
730.090823 0.6960 0.6950 0.6950 0.6960 0.6970
738.081000 0.6990 0.7010 0.7120 0.7220 0.7340
746.078823 0.7450 0.7570 0.7670 0.7770 0.7860
754.070000 0.7920 0.7980 0.8020 0.8050 0.8060
762.067823 0.8050 0.8040 0.7950 0.7830 0.7700
770.058000 0.7640 0.7590 0.7570 0.7570 0.7550
778.055823 0.7540 0.7400 0.7270 0.7190 0.6970
786.047000 0.6780 0.6760 0.6750 0.6750 0.6760
794.044823 0.6770 0.6820 0.6870 0.6990 0.7110
802.035000 0.7350 0.7460 0.7550 0.7560 0.7550
810.032823 0.7520 0.7480 0.7430 0.7370 0.7320
818.023000 0.7300 0.7290 0.7280 0.7290 0.7320
826.020823 0.7350 0.7370 0.7400 0.7470 0.7530
834.012000 0.7570 0.7620 0.7640 0.7640 0.7650
842.009823 0.7660 0.7680 0.7680 0.7690 0.7700
850.000000 0.7710 0.7750 0.7790 0.7800 0.7820
857.997823 0.7840 0.7850 0.7850 0.7840 0.7820
865.988000 0.7790 0.7780 0.7570 0.7420 0.7400
873.985823 0.7410 0.7470 0.7530 0.7570 0.7680
881.977000 0.7830 0.7970 0.8010 0.8050 0.8090
889.974823 0.8110 0.8130 0.8130 0.8130 0.8090
897.965000 0.8080 0.8050 0.8040 0.8020 0.8000
905.962823 0.7990 0.7980 0.7980 0.7980 0.7990
913.953000 0.7990 0.7990 0.8000 0.8000 0.8010
921.950823 0.8010 0.8020 0.8010 0.8010 0.7990
929.942000 0.7990 0.7980 0.7980 0.7970 0.7950
937.939823 0.7930 0.7900 0.7870 0.7840 0.7830
945.930000 0.7830 0.7820 0.7810 0.7810 0.7800
953.927823 0.7790 0.7790 0.7780 0.7770 0.7760
961.919000 0.7760 0.7740 0.7740 0.7710 0.7690
969.916823 0.7670 0.7640 0.7610 0.7600 0.7570
977.907000 0.7520 0.7380 0.7230 0.6860 0.6680
985.904823 0.6560 0.6510 0.6340 0.6330 0.6340
993.895000 0.6410 0.6540 0.6720 0.6890 0.6970
1001.892823 0.7050 0.7180 0.7310 0.7410 0.7470
1009.884000 0.7520 0.7550 0.7580 0.7580 0.7610
1017.881823 0.7670 0.7680 0.7710 0.7720 0.7720
1025.872000 0.7740 0.7750 0.7760 0.7780 0.7840
1033.869823 0.7870 0.7900 0.7930 0.7940 0.7940
1041.860000 0.7960 0.7960 0.7960 0.7960 0.7950
1049.857823 0.7950 0.7940 0.7940 0.7940 0.7920
1057.849000 0.7910 0.7900 0.7880 0.7870 0.7830
1065.846823 0.7820 0.7710 0.7610 0.7550 0.7460
1073.837000 0.7160 0.7140 0.7150 0.7200 0.7240
1081.834823 0.7350 0.7540 0.7720 0.7820 0.7850
1089.826000 0.7870 0.7870 0.7840 0.7830 0.7800
1097.823823 0.7780 0.7760 0.7730 0.7670 0.7580
1105.814000 0.7480 0.7370 0.7270 0.7170 0.7110
1113.811823 0.7070 0.7060 0.7050 0.7060 0.7100
1121.802000 0.7120 0.7210 0.7290 0.7360 0.7420
1129.799823 0.7470 0.7510 0.7550 0.7570 0.7600
1137.791000 0.7620 0.7630 0.7640 0.7640 0.7640
1145.788823 0.7650 0.7650 0.7640 0.7640 0.7640
1153.779000 0.7630 0.7610 0.7610 0.7590 0.7570
1161.776823 0.7550 0.7520 0.7490 0.7430 0.7390
1169.767000 0.7360 0.7310 0.7290 0.7230 0.7200
1177.764823 0.7160 0.7150 0.7080 0.6970 0.6940
1185.756000 0.6920 0.6900 0.6880 0.6850 0.6810
1193.753823 0.6750 0.6670 0.6610 0.6550 0.6490
1201.744000 0.6450 0.6410 0.6380 0.6360 0.6340
1209.741823 0.6340 0.6330 0.6320 0.6330 0.6340
1217.733000 0.6360 0.6380 0.6410 0.6440 0.6480
1225.730823 0.6520 0.6590 0.6690 0.6720 0.6730
1233.721000 0.6740 0.6720 0.6700 0.6650 0.6640
1241.718823 0.6610 0.6600 0.6570 0.6560 0.6530
1249.709000 0.6510 0.6500 0.6490 0.6490 0.6500
1257.706823 0.6520 0.6520 0.6560 0.6600 0.6650
1265.698000 0.6710 0.6750 0.6810 0.6850 0.6890
1273.695823 0.6900 0.6920 0.6930 0.6920 0.6910
1281.686000 0.6910 0.6900 0.6880 0.6840 0.6810
1289.683823 0.6790 0.6770 0.6760 0.6750 0.6760
1297.674000 0.6770 0.6790 0.6820 0.6850 0.6860
1305.671823 0.6870 0.6880 0.6890 0.6890 0.6890
1313.663000 0.6870 0.6870 0.6860 0.6840 0.6830
1321.660823 0.6820 0.6820 0.6820 0.6820 0.6810
1329.651000 0.6810 0.6800 0.6780 0.6760 0.6730
1337.648823 0.6670 0.6520 0.6390 0.6290 0.6210
1345.640000 0.6140 0.6080 0.6040 0.5970 0.5930
1353.637823 0.5820 0.5710 0.5590 0.5410 0.5230
1361.628000 0.5220 0.5220 0.5220 0.5230 0.5270
1369.625823 0.5320 0.5460 0.5540 0.5820 0.5930
1377.616000 0.6030 0.6100 0.6170 0.6210 0.6280
1385.613823 0.6580 0.6880 0.7010 0.7150 0.7160
1393.605000 0.7150 0.7130 0.6960 0.6820 0.6720
1401.602823 0.6600 0.6550 0.6490 0.6480 0.6490
1409.593000 0.6590 0.6670 0.6740 0.6730 0.6690
1417.590823 0.6640 0.6600 0.6520 0.6450 0.6440
1425.581000 0.6430 0.6420 0.6320 0.6260 0.6190
1433.578823 0.6110 0.5910 0.5810 0.5700 0.5600
1441.570000 0.5500 0.5400 0.5290 0.5190 0.4990
1449.567823 0.4880 0.4880 0.4880 0.4990 0.5080
1457.558000 0.5170 0.5180 0.5220 0.5260 0.5310
1465.555823 0.5340 0.5350 0.5370 0.5530 0.5670
1473.547000 0.5800 0.5930 0.5990 0.6050 0.6190
1481.544823 0.6340 0.6530 0.6750 0.6920 0.7090
1489.535000 0.7220 0.7310 0.7320 0.7310 0.7130
1497.532823 0.7030 0.7030 0.7040 0.7120 0.7170
1505.523000 0.7680 0.7700 0.7700 0.7680 0.7670
1513.520823 0.7660 0.7610 0.7540 0.7520 0.7480
1521.512000 0.7410 0.7360 0.7330 0.7220 0.7190
1529.509823 0.6970 0.6920 0.6820 0.6640 0.6450
1537.500000 0.6350 0.6300 0.5960 0.5780 0.5610
1545.497823 0.5440 0.5400 0.4900 0.4740 0.4550
1553.488000 0.4520 0.4550 0.4620 0.4820 0.5010
1561.485823 0.5190 0.5510 0.5810 0.5890 0.5990
1569.477000 0.6010 0.6030 0.5950 0.5910 0.5850
1577.474823 0.5780 0.5700 0.5600 0.5490 0.5370
1585.465000 0.5220 0.4910 0.4730 0.4550 0.4360
1593.462823 0.3950 0.3730 0.3500 0.3280 0.2850
1601.453000 0.2680 0.2520 0.2420 0.2380 0.2350
1609.450823 0.2300 0.2210 0.1920 0.1780 0.1660
1617.442000 0.1570 0.1510 0.1380 0.1260 0.1250
1625.439823 0.1240 0.1240 0.1250 0.1260 0.1290
1633.430000 0.1330 0.1380 0.1510 0.1600 0.1680
1641.427823 0.1750 0.1810 0.1870 0.1940 0.1980
1649.419000 0.2020 0.2050 0.2060 0.2070 0.2070
1657.416823 0.2080 0.2080 0.2070 0.2070 0.2060
1665.407000 0.2060 0.2060 0.2070 0.2090 0.2130
1673.404823 0.2260 0.2410 0.2600 0.2790 0.2910
1681.395000 0.3020 0.3240 0.3480 0.3710 0.3940
1689.392823 0.4040 0.4140 0.4340 0.4500 0.4820
1697.384000 0.4970 0.5110 0.5380 0.5630 0.5850
1705.381823 0.5970 0.6070 0.6260 0.6430 0.6590
1713.372000 0.6730 0.6860 0.6990 0.7050 0.7100
1721.369823 0.7210 0.7310 0.7310 0.7380 0.7420
1729.360000 0.7420 0.7500 0.7580 0.7660 0.7720
1737.357823 0.7750 0.7790 0.7870 0.7910 0.7960
1745.349000 0.7980 0.8000 0.8040 0.8080 0.8120
1753.346823 0.8160 0.8190 0.8220 0.8240 0.8280
1761.337000 0.8300 0.8320 0.8340 0.8350 0.8390
1769.334823 0.8430 0.8460 0.8480 0.8500 0.8530
1777.326000 0.8540 0.8560 0.8580 0.8580 0.8590
1785.323823 0.8590 0.8600 0.8610 0.8610 0.8620
1793.314000 0.8630 0.8640 0.8650 0.8650 0.8650
1801.311823 0.8660 0.8670 0.8680 0.8690 0.8690
1809.302000 0.8700 0.8710 0.8710 0.8720 0.8730
1817.299823 0.8730 0.8740 0.8750 0.8760 0.8760
1825.291000 0.8770 0.8780 0.8790 0.8800 0.8800
1833.288823 0.8810 0.8820 0.8840 0.8840 0.8840
1841.279000 0.8850 0.8850 0.8860 0.8870 0.8870
1849.276823 0.8870 0.8880 0.8880 0.8880 0.8880
1857.267000 0.8880 0.8880 0.8880 0.8890 0.8890
1865.264823 0.8890 0.8890 0.8890 0.8900 0.8900
1873.256000 0.8900 0.8900 0.8900 0.8900 0.8900
1881.253823 0.8900 0.8900 0.8900 0.8900 0.8900
1889.244000 0.8900 0.8900 0.8900 0.8900 0.8900
1897.241823 0.8900 0.8890 0.8890 0.8890 0.8890
1905.233000 0.8890 0.8890 0.8880 0.8880 0.8880
1913.230823 0.8880 0.8880 0.8880 0.8880 0.8870
1921.221000 0.8870 0.8860 0.8850 0.8840 0.8840
1929.218823 0.8830 0.8820 0.8810 0.8800 0.8800
1937.209000 0.8790 0.8780 0.8770 0.8770 0.8770
1945.206823 0.8770 0.8770 0.8780 0.8780 0.8780
1953.198000 0.8780 0.8780 0.8780 0.8790 0.8790
1961.195823 0.8800 0.8810 0.8820 0.8820 0.8830
1969.186000 0.8830 0.8830 0.8830 0.8830 0.8830
1977.183823 0.8830 0.8830 0.8830 0.8830 0.8820
1985.174000 0.8770 0.8760 0.8750 0.8750 0.8740
1993.171823 0.8740 0.8740 0.8730 0.8720 0.8720
2001.163000 0.8710 0.8710 0.8710 0.8710 0.8710
2009.160823 0.8710 0.8720 0.8720 0.8720 0.8720
2017.151000 0.8720 0.8720 0.8720 0.8720 0.8720
2025.148823 0.8720 0.8720 0.8720 0.8720 0.8720
2033.140000 0.8720 0.8720 0.8720 0.8720 0.8720
2041.137823 0.8720 0.8720 0.8720 0.8720 0.8720
2049.128000 0.8720 0.8720 0.8720 0.8720 0.8720
2057.125823 0.8720 0.8720 0.8720 0.8720 0.8710
2065.116000 0.8710 0.8710 0.8710 0.8720 0.8720
2073.113823 0.8720 0.8720 0.8720 0.8720 0.8720
2081.105000 0.8720 0.8720 0.8720 0.8720 0.8720
2089.102823 0.8720 0.8720 0.8710 0.8710 0.8710
2097.093000 0.8710 0.8710 0.8710 0.8710 0.8710
2105.090823 0.8710 0.8710 0.8710 0.8710 0.8710
2113.082000 0.8710 0.8710 0.8710 0.8710 0.8710
2121.079823 0.8710 0.8710 0.8710 0.8700 0.8700
2129.070000 0.8700 0.8700 0.8700 0.8700 0.8700
2137.067823 0.8700 0.8700 0.8700 0.8700 0.8700
2145.058000 0.8700 0.8700 0.8700 0.8700 0.8700
2153.055823 0.8700 0.8700 0.8700 0.8700 0.8700
2161.047000 0.8700 0.8700 0.8690 0.8690 0.8690
2169.044823 0.8690 0.8690 0.8690 0.8690 0.8690
2177.035000 0.8680 0.8680 0.8680 0.8680 0.8670
2185.032823 0.8670 0.8670 0.8660 0.8660 0.8660
2193.023000 0.8650 0.8650 0.8650 0.8650 0.8650
2201.020823 0.8650 0.8650 0.8640 0.8640 0.8640
2209.012000 0.8630 0.8630 0.8630 0.8630 0.8630
2217.009823 0.8630 0.8620 0.8620 0.8620 0.8620
2225.000000 0.8620 0.8620 0.8610 0.8610 0.8610
2232.997823 0.8610 0.8610 0.8610 0.8610 0.8610
2240.989000 0.8610 0.8610 0.8610 0.8610 0.8610
2248.986823 0.8610 0.8610 0.8610 0.8600 0.8600
2256.977000 0.8600 0.8600 0.8600 0.8600 0.8590
2264.974823 0.8590 0.8590 0.8590 0.8590 0.8590
2272.965000 0.8590 0.8590 0.8590 0.8590 0.8590
2280.962823 0.8590 0.8590 0.8590 0.8590 0.8580
2288.954000 0.8580 0.8580 0.8580 0.8580 0.8580
2296.951823 0.8580 0.8580 0.8580 0.8570 0.8570
2304.942000 0.8570 0.8560 0.8560 0.8560 0.8550
2312.939823 0.8550 0.8540 0.8540 0.8540 0.8540
2320.930000 0.8540 0.8540 0.8530 0.8530 0.8530
2328.927823 0.8520 0.8520 0.8510 0.8510 0.8510
2336.919000 0.8510 0.8510 0.8510 0.8510 0.8510
2344.916823 0.8510 0.8510 0.8510 0.8510 0.8510
2352.907000 0.8510 0.8510 0.8510 0.8510 0.8510
2360.904823 0.8510 0.8510 0.8510 0.8510 0.8510
2368.896000 0.8510 0.8500 0.8500 0.8500 0.8500
2376.893823 0.8500 0.8500 0.8500 0.8500 0.8500
2384.884000 0.8500 0.8500 0.8500 0.8490 0.8490
2392.881823 0.8490 0.8490 0.8490 0.8480 0.8480
2400.872000 0.8480 0.8480 0.8480 0.8480 0.8470
2408.869823 0.8470 0.8470 0.8470 0.8470 0.8470
2416.861000 0.8470 0.8470 0.8470 0.8460 0.8460
2424.858823 0.8460 0.8460 0.8450 0.8450 0.8450
2432.849000 0.8450 0.8440 0.8440 0.8430 0.8430
2440.846823 0.8430 0.8430 0.8430 0.8420 0.8420
2448.837000 0.8410 0.8410 0.8410 0.8400 0.8390
2456.834823 0.8390 0.8390 0.8390 0.8390 0.8390
2464.826000 0.8390 0.8390 0.8380 0.8380 0.8370
2472.823823 0.8370 0.8360 0.8360 0.8350 0.8350
2480.814000 0.8350 0.8340 0.8340 0.8330 0.8330
2488.811823 0.8320 0.8320 0.8320 0.8320 0.8320
2496.802000 0.8320 0.8320 0.8320 0.8320 0.8310
2504.799823 0.8310 0.8310 0.8310 0.8310 0.8300
2512.791000 0.8300 0.8300 0.8290 0.8290 0.8280
2520.788823 0.8280 0.8270 0.8270 0.8260 0.8250
2528.779000 0.8250 0.8240 0.8240 0.8230 0.8230
2536.776823 0.8220 0.8210 0.8210 0.8200 0.8200
2544.768000 0.8190 0.8190 0.8180 0.8180 0.8170
2552.765823 0.8170 0.8170 0.8170 0.8160 0.8160
2560.756000 0.8150 0.8150 0.8140 0.8140 0.8130
2568.753823 0.8130 0.8130 0.8130 0.8120 0.8120
2576.744000 0.8110 0.8110 0.8100 0.8090 0.8090
2584.741823 0.8090 0.8080 0.8080 0.8070 0.8070
2592.733000 0.8060 0.8050 0.8050 0.8040 0.8020
2600.730823 0.8020 0.8020 0.8010 0.7990 0.7980
2608.721000 0.7980 0.7970 0.7960 0.7950 0.7940
2616.718823 0.7940 0.7930 0.7920 0.7910 0.7910
2624.709000 0.7900 0.7900 0.7890 0.7880 0.7870
2632.706823 0.7860 0.7860 0.7850 0.7850 0.7840
2640.698000 0.7840 0.7830 0.7830 0.7820 0.7820
2648.695823 0.7810 0.7810 0.7800 0.7800 0.7790
2656.686000 0.7790 0.7790 0.7790 0.7790 0.7800
2664.683823 0.7800 0.7800 0.7800 0.7810 0.7810
2672.675000 0.7810 0.7810 0.7810 0.7810 0.7810
2680.672823 0.7810 0.7810 0.7810 0.7810 0.7810
2688.663000 0.7800 0.7800 0.7800 0.7800 0.7800
2696.660823 0.7790 0.7790 0.7790 0.7790 0.7780
2704.651000 0.7780 0.7770 0.7760 0.7760 0.7750
2712.648823 0.7750 0.7740 0.7730 0.7720 0.7720
2720.640000 0.7720 0.7720 0.7710 0.7700 0.7670
2728.637823 0.7640 0.7630 0.7630 0.7620 0.7610
2736.628000 0.7610 0.7600 0.7590 0.7570 0.7560
2744.625823 0.7550 0.7540 0.7530 0.7530 0.7520
2752.616000 0.7510 0.7500 0.7500 0.7500 0.7500
2760.613823 0.7500 0.7490 0.7480 0.7480 0.7460
2768.605000 0.7460 0.7460 0.7460 0.7460 0.7450
2776.602823 0.7450 0.7440 0.7440 0.7440 0.7430
2784.593000 0.7420 0.7420 0.7420 0.7420 0.7420
2792.590823 0.7420 0.7420 0.7410 0.7400 0.7390
2800.582000 0.7380 0.7370 0.7360 0.7350 0.7350
2808.579823 0.7340 0.7330 0.7310 0.7310 0.7280
2816.570000 0.7260 0.7230 0.7230 0.7220 0.7210
2824.567823 0.7200 0.7190 0.7180 0.7160 0.7160
2832.558000 0.7150 0.7130 0.7120 0.7110 0.7080
2840.555823 0.7050 0.7010 0.6990 0.6980 0.6980
2848.547000 0.6980 0.6980 0.6990 0.6990 0.7000
2856.544823 0.7000 0.7000 0.7000 0.7000 0.6990
2864.535000 0.6990 0.6980 0.6970 0.6970 0.6970
2872.532823 0.6970 0.6970 0.6960 0.6960 0.6950
2880.523000 0.6940 0.6930 0.6910 0.6900 0.6900
2888.520823 0.6890 0.6890 0.6890 0.6880 0.6880
2896.512000 0.6870 0.6860 0.6860 0.6860 0.6850
2904.509823 0.6850 0.6840 0.6840 0.6830 0.6820
2912.500000 0.6820 0.6820 0.6820 0.6830 0.6830
2920.497823 0.6840 0.6850 0.6860 0.6860 0.6860
2928.489000 0.6860 0.6860 0.6870 0.6870 0.6870
2936.486823 0.6870 0.6870 0.6860 0.6860 0.6860
2944.477000 0.6850 0.6840 0.6820 0.6810 0.6790
2952.474823 0.6780 0.6760 0.6750 0.6740 0.6730
2960.465000 0.6720 0.6710 0.6710 0.6700 0.6680
2968.462823 0.6650 0.6630 0.6620 0.6610 0.6600
2976.454000 0.6600 0.6570 0.6550 0.6520 0.6520
2984.451823 0.6520 0.6510 0.6510 0.6510 0.6510
2992.442000 0.6510 0.6520 0.6520 0.6550 0.6560
3000.439823 0.6560 0.6560 0.6560 0.6570 0.6570
3008.430000 0.6570 0.6560 0.6560 0.6540 0.6520
3016.427823 0.6490 0.6390 0.6320 0.6270 0.6240
3024.419000 0.6230 0.6220 0.6210 0.6190 0.6190
3032.416823 0.6190 0.6180 0.6160 0.6150 0.6120
3040.407000 0.6100 0.6080 0.6050 0.5990 0.5960
3048.404823 0.5920 0.5910 0.5890 0.5890 0.5890
3056.396000 0.5890 0.5880 0.5880 0.5880 0.5870
3064.393823 0.5870 0.5870 0.5870 0.5870 0.5860
3072.384000 0.5860 0.5850 0.5850 0.5850 0.5850
3080.381823 0.5850 0.5840 0.5840 0.5840 0.5840
3088.372000 0.5830 0.5820 0.5810 0.5790 0.5780
3096.369823 0.5760 0.5740 0.5700 0.5670 0.5630
3104.361000 0.5600 0.5590 0.5590 0.5590 0.5590
3112.358823 0.5580 0.5580 0.5560 0.5550 0.5540
3120.349000 0.5520 0.5490 0.5480 0.5450 0.5350
3128.346823 0.5290 0.5280 0.5230 0.5180 0.5140
3136.337000 0.5130 0.5080 0.4990 0.4970 0.4940
3144.334823 0.4910 0.4880 0.4850 0.4810 0.4780
3152.326000 0.4750 0.4720 0.4700 0.4690 0.4690
3160.323823 0.4680 0.4680 0.4680 0.4680 0.4680
3168.314000 0.4690 0.4690 0.4700 0.4720 0.4740
3176.311823 0.4760 0.4770 0.4790 0.4820 0.4840
3184.302000 0.4850 0.4880 0.4920 0.4960 0.4980
3192.299823 0.5010 0.5040 0.5080 0.5130 0.5180
3200.291000 0.5230 0.5290 0.5350 0.5410 0.5450
3208.288823 0.5500 0.5580 0.5640 0.5700 0.5740
3216.279000 0.5780 0.5820 0.5860 0.5910 0.5980
3224.276823 0.6030 0.6070 0.6130 0.6150 0.6200
3232.268000 0.6210 0.6220 0.6250 0.6270 0.6290
3240.265823 0.6330 0.6340 0.6380 0.6380 0.6410
3248.256000 0.6410 0.6420 0.6420 0.6420 0.6420
3256.253823 0.6410 0.6410 0.6410 0.6380 0.6370
3264.244000 0.6350 0.6300 0.6300 0.6280 0.6260
3272.241823 0.6230 0.6230 0.6190 0.6170 0.6140
3280.233000 0.6110 0.6060 0.6040 0.6030 0.5990
3288.230823 0.5930 0.5910 0.5880 0.5840 0.5810
3296.221000 0.5770 0.5740 0.5700 0.5670 0.5630
3304.218823 0.5590 0.5550 0.5520 0.5480 0.5440
3312.209000 0.5410 0.5370 0.5310 0.5300 0.5260
3320.206823 0.5210 0.5170 0.5110 0.4980 0.4940
3328.198000 0.4910 0.4850 0.4830 0.4830 0.4830
3336.195823 0.4840 0.4850 0.4860 0.4880 0.4900
3344.186000 0.4920 0.4920 0.4930 0.4930 0.4930
3352.183823 0.4930 0.4930 0.4940 0.4950 0.4970
3360.175000 0.4990 0.5000 0.5020 0.5070 0.5180
3368.172823 0.5340 0.5500 0.5610 0.5680 0.5740
3376.163000 0.5770 0.5780 0.5800 0.5820 0.5830
3384.160823 0.5850 0.5880 0.5890 0.5890 0.5910
3392.151000 0.5970 0.6000 0.6040 0.6110 0.6190
3400.148823 0.6260 0.6320 0.6380 0.6420 0.6450
3408.140000 0.6480 0.6500 0.6520 0.6540 0.6560
3416.137823 0.6580 0.6600 0.6610 0.6620 0.6630
3424.128000 0.6640 0.6640 0.6640 0.6650 0.6650
3432.125823 0.6660 0.6660 0.6670 0.6670 0.6670
3440.116000 0.6670 0.6680 0.6680 0.6690 0.6690
3448.113823 0.6700 0.6700 0.6710 0.6710 0.6710
3456.105000 0.6710 0.6720 0.6730 0.6730 0.6750
3464.102823 0.6770 0.6780 0.6790 0.6800 0.6800
3472.093000 0.6800 0.6810 0.6810 0.6820 0.6820
3480.090823 0.6830 0.6850 0.6900 0.6930 0.6950
3488.082000 0.6970 0.6990 0.7000 0.7010 0.7030
3496.079823 0.7050 0.7070 0.7090 0.7120 0.7150
3504.070000 0.7190 0.7220 0.7250 0.7260 0.7270
3512.067823 0.7270 0.7280 0.7310 0.7320 0.7350
3520.058000 0.7370 0.7400 0.7420 0.7430 0.7460
3528.055823 0.7480 0.7490 0.7500 0.7500 0.7530
3536.047000 0.7540 0.7550 0.7550 0.7570 0.7600
3544.044823 0.7620 0.7660 0.7680 0.7710 0.7720
3552.035000 0.7730 0.7750 0.7760 0.7760 0.7780
3560.032823 0.7790 0.7800 0.7810 0.7810 0.7820
3568.023000 0.7830 0.7870 0.7890 0.7910 0.7930
3576.020823 0.7960 0.7980 0.7990 0.8000 0.8010
3584.012000 0.8020 0.8030 0.8050 0.8060 0.8090
3592.009823 0.8100 0.8130 0.8140 0.8170 0.8180
3600.000000 0.8200 0.8210 0.8230 0.8250 0.8270
3607.997823 0.8280 0.8300 0.8310 0.8300 0.8320
3615.989000 0.8330 0.8340 0.8350 0.8360 0.8370
3623.986823 0.8370 0.8380 0.8390 0.8390 0.8400
3631.977000 0.8420 0.8430 0.8430 0.8440 0.8450
3639.974823 0.8460 0.8460 0.8470 0.8470 0.8470
3647.965000 0.8470 0.8480 0.8480 0.8480 0.8480
3655.962823 0.8480 0.8480 0.8480 0.8480 0.8480
3663.954000 0.8480 0.8490 0.8490 0.8490 0.8490
3671.951823 0.8490 0.8490 0.8500 0.8500 0.8500
3679.942000 0.8500 0.8500 0.8500 0.8500 0.8500
3687.939823 0.8500 0.8510 0.8510 0.8510 0.8520
3695.930000 0.8520 0.8530 0.8530 0.8530 0.8540
3703.927823 0.8540 0.8540 0.8540 0.8540 0.8540
3711.919000 0.8530 0.8530 0.8530 0.8520 0.8520
3719.916823 0.8520 0.8510 0.8510 0.8500 0.8500
3727.907000 0.8500 0.8500 0.8500 0.8490 0.8490
3735.904823 0.8490 0.8500 0.8500 0.8500 0.8500
3743.896000 0.8500 0.8500 0.8500 0.8500 0.8510
3751.893823 0.8510 0.8510 0.8510 0.8520 0.8520
3759.884000 0.8520 0.8520 0.8530 0.8540 0.8540
3767.881823 0.8540 0.8540 0.8540 0.8550 0.8550
3775.872000 0.8550 0.8550 0.8550 0.8550 0.8540
3783.869823 0.8540 0.8540 0.8540 0.8540 0.8540
##END=
