##TITLE=ACETIC ACID, SODIUM SALT
##JCAMP-DX=4.24
##DATA TYPE=INFRARED SPECTRUM
##CLASS=COBLENTZ III
##ORIGIN=SOUTHERN RESEARCH INSTITUTE
##OWNER=COBLENTZ SOCIETY
Collection (C) 2018 copyright by the U.S. Secretary of Commerce
on behalf of the United States of America. All rights reserved.
##DATE=1964/09/01
##MOLFORM=C2 H3 Na O2
##SOURCE REFERENCE=COBLENTZ NO. 8022
##$NIST ID=B6008022
##$NIST SOURCE=COBLENTZ
##$NIST IMAGE=cob8022
##SPECTROMETER/DATA SYSTEM=PERKIN-ELMER 221 (GRATING)
##INSTRUMENT PARAMETERS=FILTER AT 2490, 980 CM^-^1. GRATING 4000-1428 CM^-^1, NaCl PRISM 1428-650 CM^-^1
##STATE=SOLID (1 mg / 650 mg KBr DISC)
$$ PURITY - ANALYTICAL
$$SPECTRAL CONTAMINATION DUE TO H2O AROUND 3400 CM^-^1
##SAMPLING PROCEDURE=TRANSMISSION
##RESOLUTION=2
##DATA PROCESSING=DIGITIZED BY NIST FROM HARD COPY (FROM TWO SEGMENTS)
##XUNITS=1/CM
##YUNITS=TRANSMITTANCE
##XFACTOR=1.000000
##YFACTOR=1
##DELTAX=1.283148
##FIRSTX=591.731
##LASTX=4006.19
##FIRSTY=0.706
##MAXX=4006.19
##MINX=591.731
##MAXY=0.963
##MINY=0.014
##NPOINTS=2662
##XYDATA=(X++(Y..Y))
591.731000 0.7060 0.6723 0.6602 0.6473 0.6422
598.146740 0.6401 0.6400 0.6400 0.6409 0.6410
604.562480 0.6419 0.6420 0.6438 0.6449 0.6657
610.978220 0.6796 0.6943 0.7030 0.7188 0.7408
617.393960 0.7552 0.7656 0.7746 0.7794 0.7808
623.809700 0.7826 0.7830 0.7806 0.7792 0.7734
630.225440 0.7696 0.7674 0.7335 0.6978 0.6625
636.641180 0.5709 0.5066 0.4562 0.3646 0.3280
643.056920 0.3156 0.3091 0.3492 0.4054 0.5089
649.472660 0.5862 0.6720 0.7322 0.7706 0.8014
655.888400 0.8319 0.8495 0.8601 0.8716 0.8791
662.304140 0.8835 0.8893 0.8938 0.8962 0.8994
668.719880 0.9028 0.9063 0.9097 0.9133 0.9172
675.135620 0.9207 0.9225 0.9246 0.9260 0.9265
681.551360 0.9275 0.9285 0.9300 0.9315 0.9325
687.967100 0.9330 0.9330 0.9330 0.9335 0.9335
694.382840 0.9334 0.9349 0.9360 0.9364 0.9374
700.798580 0.9380 0.9388 0.9404 0.9414 0.9420
707.214320 0.9420 0.9424 0.9430 0.9437 0.9450
713.630060 0.9453 0.9460 0.9463 0.9470 0.9470
720.045800 0.9473 0.9480 0.9486 0.9500 0.9503
726.461540 0.9510 0.9513 0.9520 0.9520 0.9520
732.877280 0.9520 0.9520 0.9520 0.9520 0.9520
739.293020 0.9520 0.9520 0.9520 0.9520 0.9520
745.708760 0.9520 0.9520 0.9523 0.9540 0.9540
752.124500 0.9540 0.9540 0.9541 0.9550 0.9550
758.540240 0.9550 0.9550 0.9550 0.9551 0.9560
764.955980 0.9560 0.9560 0.9561 0.9570 0.9570
771.371720 0.9571 0.9590 0.9590 0.9590 0.9590
777.787460 0.9590 0.9590 0.9590 0.9590 0.9590
784.203200 0.9590 0.9600 0.9600 0.9600 0.9600
790.618940 0.9600 0.9600 0.9600 0.9600 0.9600
797.034680 0.9609 0.9610 0.9610 0.9610 0.9610
803.450420 0.9610 0.9610 0.9627 0.9630 0.9630
809.866160 0.9630 0.9630 0.9630 0.9630 0.9630
816.281900 0.9630 0.9630 0.9630 0.9630 0.9630
822.697640 0.9630 0.9630 0.9630 0.9630 0.9630
829.113380 0.9630 0.9630 0.9630 0.9630 0.9630
835.529120 0.9630 0.9616 0.9610 0.9610 0.9610
841.944860 0.9610 0.9610 0.9610 0.9610 0.9610
848.360600 0.9610 0.9610 0.9610 0.9610 0.9604
854.776340 0.9594 0.9590 0.9578 0.9570 0.9564
861.192080 0.9554 0.9550 0.9550 0.9545 0.9540
867.607820 0.9529 0.9515 0.9510 0.9510 0.9510
874.023560 0.9505 0.9500 0.9500 0.9491 0.9480
880.439300 0.9480 0.9476 0.9470 0.9470 0.9466
886.855040 0.9460 0.9456 0.9450 0.9450 0.9450
893.270780 0.9450 0.9450 0.9443 0.9426 0.9416
899.686520 0.9406 0.9393 0.9377 0.9367 0.9353
906.102260 0.9321 0.9239 0.8992 0.8577 0.8395
912.518000 0.8055 0.7312 0.6627 0.6223 0.5725
918.933740 0.5135 0.5127 0.5686 0.7541 0.8102
925.349480 0.8700 0.8974 0.9196 0.9262 0.9270
931.765220 0.9270 0.9270 0.9270 0.9270 0.9270
938.180960 0.9270 0.9269 0.9260 0.9260 0.9258
944.596700 0.9239 0.9230 0.9229 0.9218 0.9199
951.012440 0.9190 0.9189 0.9179 0.9169 0.9150
957.428180 0.9150 0.9140 0.9129 0.9110 0.9110
963.843920 0.9100 0.9080 0.9050 0.9030 0.9000
970.259660 0.8990 0.8961 0.8941 0.8873 0.8813
976.675400 0.8772 0.8723 0.8664 0.8604 0.8545
983.091140 0.8495 0.8436 0.8385 0.8353 0.8315
989.506880 0.8266 0.8208 0.8140 0.7796 0.7324
995.922620 0.6854 0.6622 0.6433 0.5958 0.5439
1002.338360 0.5316 0.5302 0.5324 0.5401 0.5600
1008.754100 0.5696 0.5917 0.6162 0.6565 0.6828
1015.169840 0.7034 0.7221 0.7393 0.7555 0.7700
1021.585580 0.7754 0.7760 0.7753 0.7750 0.7689
1028.001320 0.7620 0.7534 0.7323 0.7002 0.6777
1034.417060 0.6605 0.6377 0.6224 0.5877 0.5674
1040.832800 0.5670 0.5741 0.5849 0.5919 0.6072
1047.248540 0.6295 0.6625 0.6915 0.7103 0.7276
1053.664280 0.7429 0.7557 0.7698 0.7842 0.7981
1060.080020 0.8120 0.8259 0.8364 0.8409 0.8444
1066.495760 0.8488 0.8547 0.8620 0.8688 0.8714
1072.911500 0.8733 0.8754 0.8768 0.8788 0.8808
1079.327240 0.8832 0.8858 0.8881 0.8904 0.8914
1085.742980 0.8920 0.8927 0.8940 0.8940 0.8940
1092.158720 0.8940 0.8940 0.8940 0.8940 0.8940
1098.574460 0.8940 0.8940 0.8940 0.8943 0.8950
1104.990200 0.8950 0.8952 0.8960 0.8960 0.8962
1111.405940 0.8970 0.8974 0.8990 0.8992 0.9002
1117.821680 0.9014 0.9032 0.9042 0.9052 0.9063
1124.237420 0.9082 0.9092 0.9100 0.9100 0.9100
1130.653160 0.9100 0.9101 0.9110 0.9110 0.9112
1137.068900 0.9130 0.9130 0.9130 0.9130 0.9130
1143.484640 0.9130 0.9130 0.9140 0.9140 0.9140
1149.900380 0.9140 0.9140 0.9140 0.9140 0.9140
1156.316120 0.9140 0.9140 0.9140 0.9150 0.9150
1162.731860 0.9150 0.9169 0.9170 0.9151 0.9168
1169.147600 0.9179 0.9189 0.9199 0.9218 0.9220
1175.563340 0.9220 0.9229 0.9221 0.9220 0.9220
1181.979080 0.9220 0.9220 0.9220 0.9220 0.9220
1188.394820 0.9220 0.9220 0.9204 0.9200 0.9200
1194.810560 0.9200 0.9200 0.9200 0.9192 0.9190
1201.226300 0.9183 0.9180 0.9180 0.9180 0.9173
1207.642040 0.9170 0.9156 0.9150 0.9150 0.9150
1214.057780 0.9150 0.9150 0.9143 0.9133 0.9130
1220.473520 0.9117 0.9104 0.9094 0.9090 0.9084
1226.889260 0.9068 0.9048 0.9034 0.9018 0.9004
1233.305000 0.8994 0.8973 0.8949 0.8940 0.8929
1239.720740 0.8920 0.8920 0.8920 0.8930 0.8940
1246.136480 0.8945 0.8950 0.8955 0.8960 0.8965
1252.552220 0.8970 0.8970 0.8970 0.8970 0.8970
1258.967960 0.8970 0.8970 0.8970 0.8970 0.8970
1265.383700 0.8966 0.8960 0.8960 0.8960 0.8956
1271.799440 0.8950 0.8946 0.8933 0.8917 0.8910
1278.215180 0.8897 0.8863 0.8837 0.8807 0.8800
1284.630920 0.8791 0.8770 0.8770 0.8767 0.8760
1291.046660 0.8760 0.8757 0.8750 0.8745 0.8728
1297.462400 0.8718 0.8703 0.8671 0.8638 0.8628
1303.878140 0.8616 0.8594 0.8564 0.8533 0.8493
1310.293880 0.8457 0.8434 0.8397 0.8376 0.8343
1316.709620 0.8293 0.8215 0.7966 0.7939 0.7929
1323.125360 0.7917 0.7887 0.7860 0.7859 0.7849
1329.541100 0.7840 0.7839 0.7829 0.7810 0.7800
1335.956840 0.7789 0.7759 0.7699 0.7600 0.7520
1342.372580 0.7500 0.7470 0.7460 0.7421 0.7391
1348.788320 0.7342 0.7169 0.7113 0.7073 0.6986
1355.204060 0.6878 0.6796 0.6772 0.6689 0.6599
1361.619800 0.6439 0.6279 0.6120 0.5979 0.5830
1368.035540 0.5698 0.5561 0.5422 0.5283 0.5144
1374.451280 0.5071 0.4995 0.4867 0.4720 0.4571
1380.867020 0.4414 0.4239 0.4068 0.3877 0.3678
1387.282760 0.3465 0.3269 0.3073 0.2787 0.2533
1393.698500 0.2333 0.2180 0.2041 0.1902 0.1736
1400.114240 0.1598 0.1486 0.1256 0.1107 0.1027
1406.529980 0.0967 0.0924 0.0897 0.0884 0.0868
1412.945720 0.0860 0.0860 0.0860 0.0854 0.0850
1419.361460 0.0844 0.0840 0.0840 0.0829 0.0820
1425.777200 0.0815 0.0799 0.0769 0.0734 0.0715
1432.192940 0.0705 0.0690 0.0670 0.0660 0.0660
1438.608680 0.0660 0.0660 0.0665 0.0670 0.0670
1445.024420 0.0683 0.0713 0.0756 0.0892 0.1318
1451.440160 0.1859 0.2149 0.2335 0.2470 0.2623
1457.855900 0.2987 0.3494 0.3754 0.3971 0.4163
1464.271640 0.4331 0.4487 0.4649 0.4855 0.5121
1470.687380 0.5241 0.5334 0.5405 0.5454 0.5498
1477.103120 0.5534 0.5581 0.5615 0.5640 0.5677
1483.518860 0.5712 0.5752 0.5762 0.5770 0.5774
1489.934600 0.5790 0.5790 0.5790 0.5786 0.5768
1496.350340 0.5753 0.5717 0.5694 0.5655 0.5621
1502.766080 0.5565 0.5529 0.5510 0.5431 0.5353
1509.181820 0.5281 0.5203 0.5130 0.5028 0.4995
1515.597560 0.4933 0.4822 0.4683 0.4544 0.4404
1522.013300 0.4236 0.4126 0.4007 0.3867 0.3679
1528.429040 0.3480 0.3381 0.3262 0.3045 0.2817
1534.844780 0.2587 0.2388 0.2208 0.2049 0.1918
1541.260520 0.1780 0.1641 0.1584 0.1544 0.1342
1547.676260 0.1023 0.0731 0.0629 0.0576 0.0492
1554.092000 0.0394 0.0303 0.0256 0.0225 0.0220
1560.507740 0.0212 0.0202 0.0192 0.0174 0.0162
1566.923480 0.0160 0.0160 0.0160 0.0152 0.0150
1573.339220 0.0150 0.0150 0.0143 0.0140 0.0140
1579.754960 0.0140 0.0140 0.0140 0.0140 0.0147
1586.170700 0.0150 0.0157 0.0160 0.0167 0.0170
1592.586440 0.0170 0.0183 0.0196 0.0206 0.0229
1599.002180 0.0240 0.0252 0.0291 0.0364 0.0454
1605.417920 0.0561 0.0668 0.0756 0.0824 0.0867
1611.833660 0.0941 0.1051 0.1122 0.1215 0.1296
1618.249400 0.1393 0.1588 0.1766 0.1890 0.2009
1624.665140 0.2133 0.2268 0.2402 0.2531 0.2646
1631.080880 0.2745 0.2853 0.2964 0.3067 0.3223
1637.496620 0.3388 0.3482 0.3573 0.3648 0.3714
1643.912360 0.3754 0.3809 0.3897 0.3953 0.4072
1650.328100 0.4188 0.4298 0.4384 0.4427 0.4486
1656.743840 0.4556 0.4618 0.4710 0.4786 0.4820
1663.159580 0.4873 0.4894 0.4938 0.4973 0.5043
1669.575320 0.5155 0.5219 0.5294 0.5342 0.5350
1675.991060 0.5369 0.5442 0.5458 0.5500 0.5557
1682.406800 0.5637 0.5670 0.5680 0.5733 0.5756
1688.822540 0.5791 0.5806 0.5843 0.5864 0.5895
1695.238280 0.5932 0.5954 0.5991 0.6004 0.6042
1701.654020 0.6071 0.6092 0.6121 0.6142 0.6171
1708.069760 0.6191 0.6221 0.6251 0.6271 0.6300
1714.485500 0.6330 0.6350 0.6370 0.6400 0.6420
1720.901240 0.6449 0.6469 0.6499 0.6538 0.6549
1727.316980 0.6578 0.6589 0.6609 0.6628 0.6667
1733.732720 0.6688 0.6699 0.6718 0.6738 0.6757
1740.148460 0.6777 0.6789 0.6816 0.6837 0.6857
1746.564200 0.6868 0.6878 0.6905 0.6918 0.6944
1752.979940 0.6958 0.6976 0.6996 0.7016 0.7036
1759.395680 0.7055 0.7068 0.7093 0.7107 0.7132
1765.811420 0.7147 0.7150 0.7172 0.7187 0.7190
1772.227160 0.7197 0.7207 0.7224 0.7237 0.7247
1778.642900 0.7263 0.7270 0.7277 0.7286 0.7296
1785.058640 0.7313 0.7320 0.7326 0.7336 0.7340
1791.474380 0.7346 0.7362 0.7370 0.7376 0.7386
1797.890120 0.7390 0.7401 0.7415 0.7420 0.7425
1804.305860 0.7435 0.7450 0.7460 0.7470 0.7490
1810.721600 0.7505 0.7515 0.7525 0.7539 0.7550
1817.137340 0.7555 0.7565 0.7570 0.7574 0.7580
1823.553080 0.7580 0.7580 0.7588 0.7600 0.7600
1829.968820 0.7600 0.7600 0.7600 0.7600 0.7600
1836.384560 0.7600 0.7600 0.7600 0.7603 0.7613
1842.800300 0.7620 0.7620 0.7626 0.7643 0.7653
1849.216040 0.7663 0.7676 0.7693 0.7700 0.7703
1855.631780 0.7713 0.7720 0.7725 0.7740 0.7740
1862.047520 0.7740 0.7740 0.7742 0.7750 0.7750
1868.463260 0.7750 0.7750 0.7752 0.7760 0.7760
1874.879000 0.7760 0.7760 0.7760 0.7763 0.7780
1881.294740 0.7780 0.7780 0.7780 0.7780 0.7781
1887.710480 0.7790 0.7790 0.7790 0.7790 0.7791
1894.126220 0.7800 0.7800 0.7800 0.7800 0.7800
1900.541960 0.7810 0.7810 0.7810 0.7810 0.7830
1906.957700 0.7830 0.7830 0.7830 0.7830 0.7830
1913.373440 0.7830 0.7830 0.7830 0.7830 0.7830
1919.789180 0.7830 0.7830 0.7839 0.7840 0.7840
1926.204920 0.7840 0.7840 0.7840 0.7849 0.7850
1932.620660 0.7850 0.7850 0.7850 0.7850 0.7858
1939.036400 0.7852 0.7850 0.7858 0.7860 0.7860
1945.452140 0.7875 0.7880 0.7880 0.7880 0.7880
1951.867880 0.7880 0.7887 0.7890 0.7890 0.7890
1958.283620 0.7890 0.7890 0.7897 0.7900 0.7900
1964.699360 0.7900 0.7900 0.7900 0.7913 0.7920
1971.115100 0.7920 0.7920 0.7920 0.7920 0.7920
1977.530840 0.7920 0.7920 0.7920 0.7920 0.7920
1983.946580 0.7920 0.7920 0.7920 0.7920 0.7920
1990.362320 0.7920 0.7925 0.7930 0.7930 0.7930
1996.778060 0.7930 0.7930 0.7930 0.7930 0.7930
2003.193800 0.7930 0.7930 0.7930 0.7930 0.7930
2009.609540 0.7930 0.7930 0.7930 0.7930 0.7930
2016.025280 0.7930 0.7935 0.7935 0.7925 0.7925
2022.441020 0.7930 0.7930 0.7930 0.7930 0.7930
2028.856760 0.7930 0.7930 0.7930 0.7930 0.7930
2035.272500 0.7930 0.7930 0.7930 0.7930 0.7930
2041.688240 0.7930 0.7930 0.7930 0.7930 0.7935
2048.103980 0.7940 0.7940 0.7940 0.7940 0.7940
2054.519720 0.7940 0.7940 0.7940 0.7940 0.7940
2060.935460 0.7940 0.7940 0.7940 0.7940 0.7945
2067.351200 0.7950 0.7950 0.7950 0.7950 0.7950
2073.766940 0.7950 0.7950 0.7950 0.7950 0.7950
2080.182680 0.7950 0.7950 0.7950 0.7950 0.7960
2086.598420 0.7970 0.7970 0.7970 0.7970 0.7970
2093.014160 0.7970 0.7970 0.7970 0.7970 0.7970
2099.429900 0.7970 0.7970 0.7970 0.7970 0.7970
2105.845640 0.7970 0.7970 0.7970 0.7970 0.7970
2112.261380 0.7970 0.7970 0.7970 0.7970 0.7970
2118.677120 0.7970 0.7970 0.7970 0.7970 0.7970
2125.092860 0.7970 0.7975 0.7980 0.7980 0.7980
2131.508600 0.7980 0.7980 0.7980 0.7980 0.7980
2137.924340 0.7980 0.7980 0.7980 0.7985 0.7990
2144.340080 0.7990 0.7990 0.7990 0.7990 0.7990
2150.755820 0.7990 0.7990 0.7990 0.7990 0.7990
2157.171560 0.8000 0.8010 0.8010 0.8010 0.8010
2163.587300 0.8010 0.8010 0.8010 0.8010 0.8010
2170.003040 0.8010 0.8010 0.8010 0.8010 0.8010
2176.418780 0.8010 0.8010 0.8010 0.8010 0.8010
2182.834520 0.8010 0.8010 0.8010 0.8010 0.8010
2189.250260 0.8010 0.8010 0.8010 0.8010 0.8010
2195.666000 0.8010 0.8010 0.8010 0.8010 0.8010
2202.081740 0.8010 0.8010 0.8010 0.8010 0.8010
2208.497480 0.8010 0.8010 0.8000 0.7990 0.7990
2214.913220 0.7990 0.7990 0.7990 0.7990 0.7990
2221.328960 0.7990 0.7990 0.7990 0.7990 0.7990
2227.744700 0.7990 0.7990 0.7990 0.7985 0.7985
2234.160440 0.7990 0.7990 0.7990 0.7990 0.7990
2240.576180 0.7990 0.7990 0.7990 0.7990 0.7990
2246.991920 0.7990 0.8000 0.8010 0.8010 0.8010
2253.407660 0.8010 0.8010 0.8010 0.8010 0.8010
2259.823400 0.8010 0.8010 0.8010 0.8010 0.8010
2266.239140 0.8010 0.8010 0.8010 0.8010 0.8010
2272.654880 0.8010 0.8010 0.8010 0.8010 0.8010
2279.070620 0.8010 0.8010 0.8010 0.8010 0.8010
2285.486360 0.8010 0.8010 0.8010 0.8010 0.8010
2291.902100 0.8010 0.8010 0.8010 0.8010 0.8010
2298.317840 0.8010 0.8010 0.8010 0.8010 0.8000
2304.733580 0.7990 0.7990 0.7990 0.7985 0.7980
2311.149320 0.7980 0.7980 0.7975 0.7970 0.7970
2317.565060 0.7970 0.7960 0.7950 0.7950 0.7945
2323.980800 0.7945 0.7950 0.7950 0.7945 0.7940
2330.396540 0.7940 0.7935 0.7935 0.7940 0.7940
2336.812280 0.7940 0.7940 0.7940 0.7940 0.7940
2343.228020 0.7940 0.7945 0.7950 0.7950 0.7950
2349.643760 0.7950 0.7950 0.7950 0.7950 0.7950
2356.059500 0.7950 0.7950 0.7950 0.7950 0.7950
2362.475240 0.7950 0.7950 0.7950 0.7950 0.7950
2368.890980 0.7950 0.7950 0.7950 0.7950 0.7950
2375.306720 0.7950 0.7950 0.7950 0.7950 0.7950
2381.722460 0.7950 0.7950 0.7950 0.7950 0.7950
2388.138200 0.7950 0.7950 0.7950 0.7950 0.7950
2394.553940 0.7945 0.7940 0.7940 0.7940 0.7940
2400.969680 0.7940 0.7935 0.7930 0.7930 0.7930
2407.385420 0.7930 0.7925 0.7920 0.7920 0.7920
2413.801160 0.7920 0.7910 0.7900 0.7900 0.7895
2420.216900 0.7890 0.7885 0.7870 0.7855 0.7845
2426.632640 0.7840 0.7840 0.7845 0.7850 0.7855
2433.048380 0.7860 0.7870 0.7880 0.7880 0.7880
2439.464120 0.7880 0.7885 0.7890 0.7890 0.7890
2445.879860 0.7890 0.7895 0.7900 0.7900 0.7900
2452.295600 0.7900 0.7910 0.7920 0.7920 0.7920
2458.711340 0.7920 0.7920 0.7920 0.7920 0.7920
2465.127080 0.7920 0.7910 0.7900 0.7900 0.7900
2471.542820 0.7895 0.7890 0.7890 0.7885 0.7880
2477.958560 0.7880 0.7870 0.7860 0.7860 0.7855
2484.374300 0.7850 0.7850 0.7845 0.7840 0.7835
2490.790040 0.7830 0.7830 0.7830 0.7830 0.7830
2497.205780 0.7830 0.7830 0.7830 0.7830 0.7830
2503.621520 0.7830 0.7830 0.7830 0.7830 0.7830
2510.037260 0.7830 0.7830 0.7830 0.7830 0.7830
2516.453000 0.7830 0.7830 0.7830 0.7835 0.7840
2522.868740 0.7840 0.7840 0.7845 0.7850 0.7850
2529.284480 0.7850 0.7855 0.7860 0.7860 0.7860
2535.700220 0.7860 0.7860 0.7860 0.7860 0.7860
2542.115960 0.7860 0.7860 0.7860 0.7860 0.7860
2548.531700 0.7860 0.7860 0.7860 0.7860 0.7860
2554.947440 0.7860 0.7860 0.7860 0.7860 0.7860
2561.363180 0.7860 0.7860 0.7860 0.7860 0.7860
2567.778920 0.7860 0.7860 0.7860 0.7860 0.7860
2574.194660 0.7860 0.7860 0.7860 0.7860 0.7860
2580.610400 0.7860 0.7860 0.7860 0.7860 0.7860
2587.026140 0.7860 0.7860 0.7860 0.7860 0.7860
2593.441880 0.7860 0.7860 0.7860 0.7860 0.7860
2599.857620 0.7870 0.7880 0.7880 0.7880 0.7880
2606.273360 0.7880 0.7880 0.7880 0.7880 0.7880
2612.689100 0.7880 0.7880 0.7880 0.7880 0.7880
2619.104840 0.7880 0.7880 0.7880 0.7880 0.7870
2625.520580 0.7860 0.7860 0.7860 0.7860 0.7860
2631.936320 0.7860 0.7860 0.7860 0.7860 0.7860
2638.352060 0.7860 0.7860 0.7860 0.7860 0.7860
2644.767800 0.7860 0.7860 0.7860 0.7860 0.7855
2651.183540 0.7850 0.7850 0.7850 0.7850 0.7850
2657.599280 0.7850 0.7850 0.7850 0.7850 0.7850
2664.015020 0.7850 0.7850 0.7850 0.7850 0.7850
2670.430760 0.7850 0.7850 0.7850 0.7850 0.7850
2676.846500 0.7850 0.7850 0.7850 0.7850 0.7850
2683.262240 0.7850 0.7850 0.7850 0.7850 0.7850
2689.677980 0.7850 0.7850 0.7850 0.7845 0.7840
2696.093720 0.7840 0.7835 0.7830 0.7830 0.7830
2702.509460 0.7830 0.7830 0.7820 0.7810 0.7810
2708.925200 0.7810 0.7810 0.7805 0.7800 0.7800
2715.340940 0.7800 0.7800 0.7800 0.7800 0.7800
2721.756680 0.7800 0.7800 0.7795 0.7790 0.7790
2728.172420 0.7785 0.7780 0.7780 0.7770 0.7760
2734.588160 0.7755 0.7750 0.7750 0.7750 0.7750
2741.003900 0.7745 0.7740 0.7740 0.7740 0.7740
2747.419640 0.7740 0.7740 0.7740 0.7740 0.7745
2753.835380 0.7750 0.7750 0.7750 0.7750 0.7755
2760.251120 0.7755 0.7750 0.7755 0.7755 0.7750
2766.666860 0.7745 0.7745 0.7755 0.7760 0.7760
2773.082600 0.7760 0.7760 0.7770 0.7780 0.7780
2779.498340 0.7780 0.7780 0.7780 0.7780 0.7780
2785.914080 0.7770 0.7760 0.7760 0.7760 0.7760
2792.329820 0.7760 0.7760 0.7760 0.7760 0.7760
2798.745560 0.7760 0.7755 0.7750 0.7750 0.7745
2805.161300 0.7725 0.7710 0.7715 0.7720 0.7720
2811.577040 0.7715 0.7710 0.7710 0.7705 0.7700
2817.992780 0.7700 0.7695 0.7680 0.7670 0.7670
2824.408520 0.7665 0.7660 0.7660 0.7655 0.7645
2830.824260 0.7640 0.7630 0.7615 0.7605 0.7590
2837.240000 0.7570 0.7555 0.7540 0.7525 0.7515
2843.655740 0.7505 0.7490 0.7470 0.7460 0.7460
2850.071480 0.7460 0.7450 0.7440 0.7440 0.7440
2856.487220 0.7440 0.7440 0.7440 0.7440 0.7440
2862.902960 0.7440 0.7440 0.7440 0.7440 0.7440
2869.318700 0.7440 0.7440 0.7450 0.7460 0.7460
2875.734440 0.7460 0.7460 0.7460 0.7450 0.7440
2882.150180 0.7440 0.7435 0.7430 0.7425 0.7420
2888.565920 0.7420 0.7415 0.7410 0.7400 0.7385
2894.981660 0.7380 0.7380 0.7380 0.7375 0.7370
2901.397400 0.7370 0.7360 0.7345 0.7340 0.7335
2907.813140 0.7325 0.7310 0.7295 0.7280 0.7255
2914.228880 0.7211 0.7165 0.7126 0.7071 0.6996
2920.644620 0.6916 0.6861 0.6835 0.6806 0.6726
2927.060360 0.6636 0.6566 0.6467 0.6313 0.6205
2933.476100 0.6185 0.6185 0.6205 0.6235 0.6265
2939.891840 0.6304 0.6369 0.6449 0.6582 0.6704
2946.307580 0.6735 0.6750 0.6760 0.6760 0.6760
2952.723320 0.6750 0.6735 0.6715 0.6695 0.6685
2959.139060 0.6675 0.6641 0.6586 0.6555 0.6521
2965.554800 0.6475 0.6441 0.6367 0.6271 0.6206
2971.970540 0.6175 0.6165 0.6116 0.6046 0.5976
2978.386280 0.5886 0.5821 0.5795 0.5790 0.5790
2984.802020 0.5780 0.5770 0.5765 0.5755 0.5740
2991.217760 0.5725 0.5710 0.5685 0.5646 0.5581
2997.633500 0.5535 0.5525 0.5515 0.5510 0.5510
3004.049240 0.5510 0.5515 0.5530 0.5555 0.5594
3010.464980 0.5649 0.5733 0.5858 0.5940 0.5965
3016.880720 0.5990 0.6010 0.6044 0.6085 0.6119
3023.296460 0.6159 0.6185 0.6224 0.6314 0.6394
3029.712200 0.6440 0.6465 0.6480 0.6495 0.6505
3036.127940 0.6520 0.6530 0.6559 0.6629 0.6680
3042.543680 0.6695 0.6715 0.6745 0.6784 0.6815
3048.959420 0.6825 0.6835 0.6850 0.6865 0.6875
3055.375160 0.6890 0.6905 0.6915 0.6925 0.6940
3061.790900 0.6955 0.6965 0.6975 0.6990 0.7000
3068.206640 0.7005 0.7015 0.7030 0.7040 0.7045
3074.622380 0.7055 0.7065 0.7070 0.7080 0.7090
3081.038120 0.7095 0.7100 0.7100 0.7105 0.7110
3087.453860 0.7110 0.7120 0.7135 0.7140 0.7140
3093.869600 0.7140 0.7140 0.7140 0.7140 0.7140
3100.285340 0.7140 0.7140 0.7140 0.7140 0.7140
3106.701080 0.7140 0.7140 0.7140 0.7140 0.7140
3113.116820 0.7140 0.7140 0.7140 0.7140 0.7140
3119.532560 0.7140 0.7140 0.7140 0.7140 0.7140
3125.948300 0.7140 0.7140 0.7140 0.7140 0.7140
3132.364040 0.7140 0.7140 0.7140 0.7140 0.7140
3138.779780 0.7140 0.7140 0.7140 0.7140 0.7140
3145.195520 0.7140 0.7140 0.7140 0.7140 0.7140
3151.611260 0.7140 0.7140 0.7140 0.7140 0.7140
3158.027000 0.7135 0.7135 0.7140 0.7140 0.7140
3164.442740 0.7140 0.7135 0.7130 0.7130 0.7130
3170.858480 0.7120 0.7110 0.7110 0.7105 0.7100
3177.274220 0.7100 0.7100 0.7100 0.7100 0.7100
3183.689960 0.7100 0.7100 0.7100 0.7100 0.7095
3190.105700 0.7090 0.7090 0.7080 0.7070 0.7070
3196.521440 0.7065 0.7055 0.7050 0.7050 0.7045
3202.937180 0.7040 0.7030 0.7020 0.7015 0.7010
3209.352920 0.7005 0.7000 0.7000 0.6990 0.6980
3215.768660 0.6975 0.6970 0.6965 0.6960 0.6955
3222.184400 0.6950 0.6940 0.6930 0.6925 0.6920
3228.600140 0.6915 0.6910 0.6910 0.6910 0.6905
3235.015880 0.6900 0.6900 0.6890 0.6880 0.6880
3241.431620 0.6880 0.6880 0.6880 0.6875 0.6870
3247.847360 0.6870 0.6870 0.6865 0.6860 0.6860
3254.263100 0.6860 0.6860 0.6860 0.6860 0.6860
3260.678840 0.6860 0.6860 0.6860 0.6860 0.6860
3267.094580 0.6860 0.6850 0.6840 0.6835 0.6830
3273.510320 0.6825 0.6820 0.6805 0.6790 0.6790
3279.926060 0.6790 0.6790 0.6790 0.6790 0.6785
3286.341800 0.6780 0.6780 0.6780 0.6780 0.6780
3292.757540 0.6780 0.6780 0.6780 0.6780 0.6780
3299.173280 0.6780 0.6780 0.6775 0.6770 0.6770
3305.589020 0.6770 0.6765 0.6760 0.6760 0.6750
3312.004760 0.6740 0.6740 0.6735 0.6730 0.6730
3318.420500 0.6725 0.6720 0.6710 0.6690 0.6675
3324.836240 0.6670 0.6670 0.6670 0.6660 0.6650
3331.251980 0.6645 0.6640 0.6635 0.6620 0.6610
3337.667720 0.6605 0.6595 0.6590 0.6585 0.6570
3344.083460 0.6555 0.6545 0.6540 0.6535 0.6530
3350.499200 0.6520 0.6505 0.6495 0.6480 0.6465
3356.914940 0.6455 0.6450 0.6445 0.6430 0.6415
3363.330680 0.6405 0.6395 0.6380 0.6370 0.6365
3369.746420 0.6360 0.6355 0.6340 0.6330 0.6325
3376.162160 0.6320 0.6310 0.6300 0.6290 0.6280
3382.577900 0.6275 0.6270 0.6265 0.6260 0.6255
3388.993640 0.6250 0.6240 0.6230 0.6225 0.6220
3395.409380 0.6205 0.6190 0.6190 0.6185 0.6180
3401.825120 0.6175 0.6170 0.6170 0.6165 0.6150
3408.240860 0.6140 0.6140 0.6140 0.6140 0.6140
3414.656600 0.6140 0.6140 0.6135 0.6130 0.6130
3421.072340 0.6130 0.6125 0.6120 0.6120 0.6110
3427.488080 0.6100 0.6100 0.6100 0.6100 0.6100
3433.903820 0.6100 0.6100 0.6100 0.6100 0.6100
3440.319560 0.6100 0.6100 0.6110 0.6120 0.6120
3446.735300 0.6120 0.6120 0.6120 0.6120 0.6120
3453.151040 0.6120 0.6120 0.6120 0.6125 0.6130
3459.566780 0.6135 0.6140 0.6140 0.6140 0.6150
3465.982520 0.6160 0.6160 0.6160 0.6165 0.6170
3472.398260 0.6170 0.6170 0.6175 0.6180 0.6180
3478.814000 0.6185 0.6190 0.6200 0.6210 0.6215
3485.229740 0.6220 0.6225 0.6230 0.6240 0.6250
3491.645480 0.6250 0.6250 0.6255 0.6260 0.6265
3498.061220 0.6275 0.6280 0.6280 0.6290 0.6300
3504.476960 0.6300 0.6305 0.6310 0.6305 0.6305
3510.892700 0.6310 0.6315 0.6320 0.6325 0.6330
3517.308440 0.6340 0.6350 0.6355 0.6360 0.6365
3523.724180 0.6380 0.6395 0.6400 0.6405 0.6415
3530.139920 0.6430 0.6440 0.6445 0.6460 0.6485
3536.555660 0.6500 0.6505 0.6520 0.6530 0.6535
3542.971400 0.6535 0.6535 0.6545 0.6550 0.6555
3549.387140 0.6560 0.6570 0.6580 0.6585 0.6595
3555.802880 0.6600 0.6605 0.6610 0.6620 0.6630
3562.218620 0.6635 0.6640 0.6645 0.6660 0.6670
3568.634360 0.6675 0.6680 0.6685 0.6695 0.6700
3575.050100 0.6710 0.6720 0.6725 0.6735 0.6740
3581.465840 0.6750 0.6760 0.6765 0.6770 0.6775
3587.881580 0.6780 0.6795 0.6810 0.6815 0.6820
3594.297320 0.6820 0.6825 0.6835 0.6840 0.6850
3600.713060 0.6860 0.6865 0.6870 0.6875 0.6880
3607.128800 0.6890 0.6900 0.6905 0.6910 0.6915
3613.544540 0.6925 0.6940 0.6955 0.6960 0.6970
3619.960280 0.6990 0.7005 0.7015 0.7020 0.7030
3626.376020 0.7045 0.7050 0.7055 0.7060 0.7065
3632.791760 0.7080 0.7090 0.7095 0.7105 0.7110
3639.207500 0.7120 0.7130 0.7130 0.7135 0.7140
3645.623240 0.7140 0.7140 0.7145 0.7150 0.7150
3652.038980 0.7150 0.7150 0.7150 0.7150 0.7150
3658.454720 0.7150 0.7150 0.7150 0.7150 0.7150
3664.870460 0.7150 0.7150 0.7150 0.7150 0.7150
3671.286200 0.7150 0.7145 0.7140 0.7140 0.7140
3677.701940 0.7140 0.7140 0.7140 0.7140 0.7140
3684.117680 0.7140 0.7145 0.7150 0.7150 0.7150
3690.533420 0.7150 0.7155 0.7160 0.7160 0.7160
3696.949160 0.7160 0.7170 0.7180 0.7180 0.7180
3703.364900 0.7185 0.7190 0.7190 0.7190 0.7190
3709.780640 0.7195 0.7200 0.7200 0.7200 0.7200
3716.196380 0.7200 0.7200 0.7200 0.7200 0.7200
3722.612120 0.7200 0.7200 0.7200 0.7200 0.7200
3729.027860 0.7200 0.7200 0.7200 0.7200 0.7195
3735.443600 0.7190 0.7190 0.7190 0.7190 0.7190
3741.859340 0.7190 0.7190 0.7190 0.7190 0.7190
3748.275080 0.7190 0.7190 0.7190 0.7190 0.7190
3754.690820 0.7190 0.7190 0.7190 0.7190 0.7190
3761.106560 0.7190 0.7190 0.7190 0.7190 0.7190
3767.522300 0.7190 0.7195 0.7200 0.7200 0.7200
3773.938040 0.7200 0.7200 0.7200 0.7195 0.7190
3780.353780 0.7190 0.7190 0.7190 0.7185 0.7180
3786.769520 0.7180 0.7180 0.7180 0.7185 0.7195
3793.185260 0.7205 0.7210 0.7210 0.7210 0.7210
3799.601000 0.7210 0.7205 0.7200 0.7200 0.7205
3806.016740 0.7210 0.7210 0.7210 0.7210 0.7220
3812.432480 0.7220 0.7210 0.7210 0.7210 0.7210
3818.848220 0.7205 0.7200 0.7200 0.7200 0.7195
3825.263960 0.7190 0.7190 0.7185 0.7170 0.7160
3831.679700 0.7160 0.7160 0.7160 0.7160 0.7160
3838.095440 0.7160 0.7160 0.7155 0.7150 0.7150
3844.511180 0.7150 0.7150 0.7150 0.7150 0.7150
3850.926920 0.7145 0.7140 0.7140 0.7140 0.7140
3857.342660 0.7140 0.7140 0.7140 0.7145 0.7140
3863.758400 0.7130 0.7130 0.7130 0.7130 0.7130
3870.174140 0.7130 0.7130 0.7130 0.7130 0.7130
3876.589880 0.7130 0.7130 0.7130 0.7130 0.7135
3883.005620 0.7140 0.7140 0.7140 0.7140 0.7140
3889.421360 0.7140 0.7140 0.7135 0.7130 0.7130
3895.837100 0.7130 0.7130 0.7130 0.7130 0.7130
3902.252840 0.7130 0.7130 0.7130 0.7130 0.7120
3908.668580 0.7110 0.7105 0.7081 0.7060 0.7055
3915.084320 0.7050 0.7050 0.7050 0.7045 0.7045
3921.500060 0.7050 0.7050 0.7050 0.7050 0.7050
3927.915800 0.7045 0.7040 0.7040 0.7040 0.7040
3934.331540 0.7040 0.7030 0.7020 0.7020 0.7020
3940.747280 0.7020 0.7020 0.7020 0.7020 0.7020
3947.163020 0.7020 0.7020 0.7020 0.7015 0.7010
3953.578760 0.7010 0.7010 0.7010 0.7010 0.7010
3959.994500 0.7010 0.7010 0.7010 0.7010 0.7010
3966.410240 0.7015 0.7015 0.7010 0.7010 0.7010
3972.825980 0.7005 0.7000 0.7000 0.7000 0.7000
3979.241720 0.7000 0.7000 0.7000 0.7005 0.7010
3985.657460 0.7010 0.7010 0.7010 0.7010 0.7005
3992.073200 0.7000 0.7000 0.7000 0.7000 0.7000
3998.488940 0.7000 0.7000 0.7000 0.7000 0.7000
4004.904680 0.7000 0.7000
##END=
