##TITLE=CALCIUM PANTOTHENATE DEXTRO
##JCAMP-DX=4.24
$$ By DXEDIT 1.05 (RS McDonald)
##DATA TYPE=INFRARED SPECTRUM
##CLASS=COBLENTZ III
##OWNER=COBLENTZ SOC.
Collection (C) 2018 copyright by the U.S. Secretary of Commerce
on behalf of the United States of America. All rights reserved.
##DATE=1961/07/10
##NAMES=CALCIUM D(+)-N-(Alpha,Gamma-DIHYDROXY-Beta,Beta-DIMETHYLBUTYRYL)-Beta-ALANINATE
##MOLFORM=C18 H32 Ca N2 O10
##MP=195-196 C DECOMPOSE
##SOURCE REFERENCE=COBLENTZ NO. 05081
##$NIST ID=B6005081
##$NIST SOURCE=COBLENTZ
##$NIST IMAGE=cob5081
##SPECTROMETER/DATA SYSTEM=PERKIN-ELMER 21 (GRATING)
##INSTRUMENT PARAMETERS=FILTER AT ABOUT 10 MICRONS
##STATE=SOLID (0.9 mg / 200 mg KBr DISC)
##SAMPLING PROCEDURE=TRANSMISSION
##RESOLUTION=2
##DATA PROCESSING=DIGITIZED BY COBLENTZ SOCIETY (BATCH I) FROM HARD COPY
##XUNITS=1/CM
##YUNITS=TRANSMITTANCE
##XLABEL=Wavenumbers (cm-1)
##YLABEL=Transmittance
##XFACTOR=1
##YFACTOR=1
##DELTAX=1
##FIRSTX=4000
##LASTX=651
##FIRSTY=0.7489
##MAXX=4000
##MINX=651
##MAXY=0.8283
##MINY=0.1498
##NPOINTS=3350
##XYDATA=(X++(Y..Y))
4000.000000 0.7489 0.7488 0.7487 0.7487 0.7486
3995.000000 0.7485 0.7485 0.7484 0.7483 0.7482
3990.000000 0.7482 0.7481 0.7480 0.7478 0.7478
3985.000000 0.7478 0.7476 0.7476 0.7475 0.7475
3980.000000 0.7475 0.7474 0.7472 0.7471 0.7471
3975.000000 0.7471 0.7469 0.7469 0.7468 0.7468
3970.000000 0.7468 0.7467 0.7465 0.7465 0.7465
3965.000000 0.7464 0.7462 0.7461 0.7461 0.7461
3960.000000 0.7460 0.7460 0.7458 0.7458 0.7458
3955.000000 0.7457 0.7456 0.7455 0.7455 0.7454
3950.000000 0.7453 0.7451 0.7451 0.7451 0.7450
3945.000000 0.7450 0.7449 0.7448 0.7448 0.7447
3940.000000 0.7446 0.7445 0.7444 0.7443 0.7443
3935.000000 0.7442 0.7441 0.7440 0.7439 0.7439
3930.000000 0.7438 0.7437 0.7436 0.7435 0.7435
3925.000000 0.7434 0.7433 0.7432 0.7431 0.7431
3920.000000 0.7430 0.7428 0.7428 0.7426 0.7425
3915.000000 0.7425 0.7425 0.7424 0.7422 0.7421
3910.000000 0.7421 0.7421 0.7419 0.7418 0.7418
3905.000000 0.7417 0.7417 0.7415 0.7415 0.7414
3900.000000 0.7412 0.7412 0.7411 0.7411 0.7410
3895.000000 0.7408 0.7408 0.7408 0.7407 0.7406
3890.000000 0.7405 0.7404 0.7403 0.7403 0.7401
3885.000000 0.7401 0.7400 0.7399 0.7399 0.7398
3880.000000 0.7397 0.7396 0.7395 0.7394 0.7394
3875.000000 0.7393 0.7392 0.7391 0.7390 0.7389
3870.000000 0.7389 0.7388 0.7387 0.7386 0.7385
3865.000000 0.7384 0.7384 0.7383 0.7382 0.7381
3860.000000 0.7380 0.7378 0.7378 0.7376 0.7375
3855.000000 0.7375 0.7374 0.7372 0.7371 0.7371
3850.000000 0.7368 0.7368 0.7365 0.7365 0.7362
3845.000000 0.7361 0.7360 0.7358 0.7357 0.7356
3840.000000 0.7354 0.7351 0.7351 0.7349 0.7347
3835.000000 0.7346 0.7344 0.7342 0.7340 0.7339
3830.000000 0.7337 0.7335 0.7334 0.7332 0.7330
3825.000000 0.7328 0.7326 0.7325 0.7322 0.7321
3820.000000 0.7319 0.7318 0.7317 0.7315 0.7312
3815.000000 0.7311 0.7310 0.7308 0.7307 0.7306
3810.000000 0.7304 0.7301 0.7300 0.7299 0.7297
3805.000000 0.7295 0.7293 0.7292 0.7290 0.7288
3800.000000 0.7287 0.7285 0.7283 0.7281 0.7280
3795.000000 0.7278 0.7275 0.7274 0.7272 0.7271
3790.000000 0.7268 0.7267 0.7265 0.7264 0.7261
3785.000000 0.7258 0.7257 0.7255 0.7253 0.7251
3780.000000 0.7248 0.7246 0.7243 0.7241 0.7238
3775.000000 0.7236 0.7233 0.7230 0.7228 0.7225
3770.000000 0.7222 0.7219 0.7218 0.7215 0.7212
3765.000000 0.7210 0.7208 0.7205 0.7201 0.7200
3760.000000 0.7197 0.7194 0.7192 0.7189 0.7186
3755.000000 0.7184 0.7181 0.7178 0.7175 0.7174
3750.000000 0.7171 0.7168 0.7165 0.7162 0.7161
3745.000000 0.7158 0.7155 0.7153 0.7150 0.7148
3740.000000 0.7145 0.7143 0.7140 0.7138 0.7134
3735.000000 0.7130 0.7126 0.7122 0.7118 0.7115
3730.000000 0.7111 0.7106 0.7101 0.7098 0.7093
3725.000000 0.7089 0.7085 0.7080 0.7075 0.7071
3720.000000 0.7067 0.7062 0.7058 0.7054 0.7050
3715.000000 0.7046 0.7041 0.7037 0.7033 0.7028
3710.000000 0.7024 0.7019 0.7015 0.7010 0.7006
3705.000000 0.7001 0.6997 0.6992 0.6988 0.6984
3700.000000 0.6978 0.6975 0.6969 0.6961 0.6954
3695.000000 0.6947 0.6939 0.6931 0.6922 0.6915
3690.000000 0.6907 0.6899 0.6891 0.6883 0.6875
3685.000000 0.6867 0.6858 0.6851 0.6843 0.6835
3680.000000 0.6826 0.6818 0.6811 0.6803 0.6795
3675.000000 0.6787 0.6778 0.6771 0.6762 0.6755
3670.000000 0.6747 0.6739 0.6731 0.6722 0.6715
3665.000000 0.6704 0.6692 0.6680 0.6668 0.6657
3660.000000 0.6643 0.6624 0.6606 0.6588 0.6568
3655.000000 0.6551 0.6533 0.6515 0.6496 0.6478
3650.000000 0.6460 0.6445 0.6431 0.6418 0.6404
3645.000000 0.6391 0.6378 0.6366 0.6354 0.6343
3640.000000 0.6331 0.6319 0.6308 0.6296 0.6285
3635.000000 0.6273 0.6262 0.6250 0.6238 0.6227
3630.000000 0.6215 0.6203 0.6191 0.6179 0.6168
3625.000000 0.6156 0.6144 0.6132 0.6117 0.6102
3620.000000 0.6086 0.6071 0.6056 0.6039 0.6021
3615.000000 0.6003 0.5985 0.5968 0.5950 0.5932
3610.000000 0.5914 0.5896 0.5878 0.5860 0.5844
3605.000000 0.5828 0.5810 0.5794 0.5778 0.5762
3600.000000 0.5746 0.5730 0.5714 0.5698 0.5681
3595.000000 0.5665 0.5649 0.5633 0.5617 0.5601
3590.000000 0.5585 0.5569 0.5553 0.5537 0.5520
3585.000000 0.5503 0.5486 0.5468 0.5451 0.5434
3580.000000 0.5417 0.5400 0.5383 0.5366 0.5349
3575.000000 0.5332 0.5315 0.5298 0.5280 0.5258
3570.000000 0.5228 0.5198 0.5168 0.5138 0.5107
3565.000000 0.5074 0.5041 0.5008 0.4974 0.4944
3560.000000 0.4924 0.4903 0.4882 0.4860 0.4841
3555.000000 0.4823 0.4804 0.4786 0.4767 0.4750
3550.000000 0.4735 0.4721 0.4706 0.4692 0.4677
3545.000000 0.4667 0.4656 0.4646 0.4635 0.4625
3540.000000 0.4614 0.4604 0.4593 0.4582 0.4572
3535.000000 0.4560 0.4551 0.4540 0.4529 0.4519
3530.000000 0.4508 0.4497 0.4487 0.4476 0.4465
3525.000000 0.4450 0.4434 0.4419 0.4403 0.4387
3520.000000 0.4369 0.4351 0.4333 0.4315 0.4297
3515.000000 0.4279 0.4260 0.4243 0.4225 0.4208
3510.000000 0.4191 0.4174 0.4157 0.4140 0.4124
3505.000000 0.4110 0.4096 0.4080 0.4066 0.4053
3500.000000 0.4038 0.4024 0.4009 0.3995 0.3980
3495.000000 0.3966 0.3952 0.3937 0.3923 0.3909
3490.000000 0.3894 0.3880 0.3864 0.3850 0.3837
3485.000000 0.3823 0.3809 0.3796 0.3782 0.3768
3480.000000 0.3754 0.3740 0.3726 0.3712 0.3698
3475.000000 0.3684 0.3670 0.3655 0.3642 0.3628
3470.000000 0.3614 0.3600 0.3588 0.3574 0.3559
3465.000000 0.3546 0.3532 0.3518 0.3505 0.3490
3460.000000 0.3476 0.3462 0.3447 0.3426 0.3404
3455.000000 0.3380 0.3359 0.3337 0.3324 0.3309
3450.000000 0.3297 0.3282 0.3270 0.3258 0.3246
3445.000000 0.3234 0.3222 0.3212 0.3203 0.3194
3440.000000 0.3184 0.3175 0.3166 0.3156 0.3146
3435.000000 0.3137 0.3127 0.3116 0.3104 0.3093
3430.000000 0.3082 0.3071 0.3059 0.3048 0.3037
3425.000000 0.3026 0.3015 0.3003 0.2991 0.2980
3420.000000 0.2968 0.2954 0.2939 0.2925 0.2911
3415.000000 0.2896 0.2882 0.2868 0.2854 0.2840
3410.000000 0.2825 0.2810 0.2796 0.2781 0.2767
3405.000000 0.2757 0.2748 0.2739 0.2729 0.2721
3400.000000 0.2713 0.2706 0.2699 0.2691 0.2678
3395.000000 0.2662 0.2646 0.2629 0.2615 0.2611
3390.000000 0.2607 0.2603 0.2599 0.2595 0.2591
3385.000000 0.2588 0.2584 0.2580 0.2577 0.2575
3380.000000 0.2573 0.2571 0.2569 0.2567 0.2565
3375.000000 0.2564 0.2543 0.2561 0.2561 0.2561
3370.000000 0.2561 0.2561 0.2561 0.2561 0.2561
3365.000000 0.2561 0.2561 0.2562 0.2564 0.2565
3360.000000 0.2566 0.2568 0.2569 0.2571 0.2573
3355.000000 0.2575 0.2577 0.2579 0.2581 0.2583
3350.000000 0.2587 0.2590 0.2594 0.2598 0.2601
3345.000000 0.2605 0.2608 0.2612 0.2615 0.2619
3340.000000 0.2623 0.2626 0.2630 0.2633 0.2637
3335.000000 0.2641 0.2644 0.2648 0.2651 0.2655
3330.000000 0.2659 0.2662 0.2666 0.2669 0.2673
3325.000000 0.2677 0.2680 0.2684 0.2687 0.2691
3320.000000 0.2695 0.2698 0.2702 0.2706 0.2709
3315.000000 0.2713 0.2717 0.2721 0.2725 0.2728
3310.000000 0.2732 0.2735 0.2739 0.2743 0.2747
3305.000000 0.2752 0.2756 0.2760 0.2766 0.2773
3300.000000 0.2779 0.2785 0.2792 0.2799 0.2805
3295.000000 0.2812 0.2818 0.2825 0.2832 0.2838
3290.000000 0.2845 0.2852 0.2858 0.2865 0.2871
3285.000000 0.2877 0.2884 0.2890 0.2897 0.2903
3280.000000 0.2910 0.2916 0.2922 0.2929 0.2934
3275.000000 0.2942 0.2948 0.2955 0.2961 0.2967
3270.000000 0.2974 0.2980 0.2985 0.2993 0.2999
3265.000000 0.3005 0.3012 0.3018 0.3024 0.3031
3260.000000 0.3037 0.3043 0.3050 0.3056 0.3062
3255.000000 0.3069 0.3079 0.3088 0.3097 0.3106
3250.000000 0.3116 0.3125 0.3134 0.3143 0.3152
3245.000000 0.3161 0.3170 0.3179 0.3189 0.3198
3240.000000 0.3207 0.3216 0.3226 0.3234 0.3245
3235.000000 0.3254 0.3264 0.3275 0.3286 0.3296
3230.000000 0.3307 0.3318 0.3329 0.3340 0.3350
3225.000000 0.3360 0.3372 0.3382 0.3394 0.3405
3220.000000 0.3416 0.3427 0.3438 0.3450 0.3462
3215.000000 0.3476 0.3489 0.3502 0.3514 0.3528
3210.000000 0.3542 0.3555 0.3568 0.3580 0.3594
3205.000000 0.3607 0.3620 0.3632 0.3644 0.3657
3200.000000 0.3668 0.3680 0.3692 0.3704 0.3716
3195.000000 0.3728 0.3740 0.3752 0.3762 0.3775
3190.000000 0.3787 0.3799 0.3810 0.3822 0.3834
3185.000000 0.3846 0.3858 0.3871 0.3884 0.3896
3180.000000 0.3909 0.3923 0.3937 0.3950 0.3964
3175.000000 0.3978 0.3991 0.4005 0.4018 0.4032
3170.000000 0.4046 0.4059 0.4073 0.4087 0.4101
3165.000000 0.4115 0.4129 0.4144 0.4158 0.4172
3160.000000 0.4186 0.4201 0.4215 0.4229 0.4244
3155.000000 0.4258 0.4272 0.4287 0.4298 0.4308
3150.000000 0.4318 0.4328 0.4337 0.4346 0.4355
3145.000000 0.4364 0.4373 0.4383 0.4392 0.4401
3140.000000 0.4410 0.4419 0.4429 0.4438 0.4448
3135.000000 0.4458 0.4468 0.4478 0.4487 0.4496
3130.000000 0.4506 0.4515 0.4523 0.4532 0.4541
3125.000000 0.4550 0.4558 0.4566 0.4575 0.4583
3120.000000 0.4592 0.4601 0.4610 0.4618 0.4627
3115.000000 0.4635 0.4644 0.4652 0.4660 0.4670
3110.000000 0.4679 0.4689 0.4701 0.4712 0.4725
3105.000000 0.4738 0.4753 0.4768 0.4784 0.4798
3100.000000 0.4812 0.4828 0.4843 0.4857 0.4870
3095.000000 0.4884 0.4897 0.4910 0.4922 0.4934
3090.000000 0.4946 0.4958 0.4970 0.4983 0.4995
3085.000000 0.5007 0.5019 0.5032 0.5044 0.5056
3080.000000 0.5069 0.5081 0.5093 0.5106 0.5118
3075.000000 0.5130 0.5142 0.5154 0.5166 0.5178
3070.000000 0.5189 0.5201 0.5212 0.5225 0.5238
3065.000000 0.5250 0.5262 0.5274 0.5287 0.5299
3060.000000 0.5310 0.5323 0.5336 0.5348 0.5360
3055.000000 0.5373 0.5385 0.5397 0.5410 0.5424
3050.000000 0.5438 0.5451 0.5462 0.5473 0.5483
3045.000000 0.5493 0.5502 0.5510 0.5520 0.5529
3040.000000 0.5540 0.5550 0.5560 0.5568 0.5574
3035.000000 0.5580 0.5586 0.5591 0.5595 0.5599
3030.000000 0.5603 0.5606 0.5609 0.5612 0.5614
3025.000000 0.5616 0.5617 0.5618 0.5620 0.5621
3020.000000 0.5623 0.5624 0.5624 0.5624 0.5624
3015.000000 0.5623 0.5623 0.5623 0.5622 0.5622
3010.000000 0.5622 0.5622 0.5621 0.5620 0.5618
3005.000000 0.5617 0.5608 0.5598 0.5588 0.5575
3000.000000 0.5548 0.5521 0.5494 0.5462 0.5430
2995.000000 0.5396 0.5362 0.5309 0.5257 0.5204
2990.000000 0.5140 0.5060 0.4981 0.4902 0.4870
2985.000000 0.4847 0.4823 0.4800 0.4777 0.4754
2980.000000 0.4731 0.4710 0.4689 0.4668 0.4649
2975.000000 0.4637 0.4626 0.4614 0.4604 0.4596
2970.000000 0.4588 0.4581 0.4576 0.4572 0.4567
2965.000000 0.4562 0.4560 0.4557 0.4553 0.4551
2960.000000 0.4548 0.4540 0.4541 0.4542 0.4540
2955.000000 0.4538 0.4538 0.4537 0.4537 0.4537
2950.000000 0.4537 0.4537 0.4538 0.4539 0.4541
2945.000000 0.4542 0.4546 0.4552 0.4559 0.4565
2940.000000 0.4571 0.4577 0.4583 0.4589 0.4595
2935.000000 0.4601 0.4608 0.4619 0.4630 0.4641
2930.000000 0.4653 0.4665 0.4678 0.4691 0.4706
2925.000000 0.4721 0.4735 0.4759 0.4783 0.4807
2920.000000 0.4827 0.4845 0.4862 0.4879 0.4892
2915.000000 0.4906 0.4920 0.4935 0.4951 0.4967
2910.000000 0.4983 0.5000 0.5016 0.5032 0.5043
2905.000000 0.5054 0.5065 0.5075 0.5083 0.5092
2900.000000 0.5100 0.5106 0.5112 0.5119 0.5124
2895.000000 0.5128 0.5133 0.5137 0.5139 0.5141
2890.000000 0.5143 0.5145 0.5147 0.5149 0.5151
2885.000000 0.5152 0.5154 0.5155 0.5156 0.5158
2880.000000 0.5159 0.5160 0.5162 0.5162 0.5165
2875.000000 0.5166 0.5167 0.5169 0.5173 0.5176
2870.000000 0.5182 0.5196 0.5209 0.5223 0.5266
2865.000000 0.5310 0.5354 0.5392 0.5428 0.5464
2860.000000 0.5497 0.5525 0.5553 0.5579 0.5594
2855.000000 0.5609 0.5624 0.5638 0.5653 0.5668
2850.000000 0.5683 0.5698 0.5712 0.5727 0.5742
2845.000000 0.5758 0.5773 0.5787 0.5802 0.5817
2840.000000 0.5832 0.5848 0.5862 0.5878 0.5894
2835.000000 0.5910 0.5926 0.5942 0.5958 0.5974
2830.000000 0.5990 0.6006 0.6022 0.6038 0.6054
2825.000000 0.6070 0.6086 0.6102 0.6118 0.6134
2820.000000 0.6149 0.6164 0.6179 0.6193 0.6208
2815.000000 0.6222 0.6237 0.6251 0.6266 0.6280
2810.000000 0.6295 0.6309 0.6326 0.6344 0.6360
2805.000000 0.6381 0.6401 0.6421 0.6437 0.6451
2800.000000 0.6465 0.6480 0.6494 0.6508 0.6521
2795.000000 0.6537 0.6551 0.6565 0.6578 0.6593
2790.000000 0.6607 0.6622 0.6640 0.6656 0.6671
2785.000000 0.6686 0.6701 0.6712 0.6725 0.6736
2780.000000 0.6747 0.6757 0.6768 0.6776 0.6785
2775.000000 0.6794 0.6801 0.6810 0.6818 0.6824
2770.000000 0.6828 0.6833 0.6837 0.6841 0.6845
2765.000000 0.6850 0.6854 0.6858 0.6861 0.6867
2760.000000 0.6871 0.6875 0.6880 0.6885 0.6888
2755.000000 0.6890 0.6892 0.6894 0.6895 0.6896
2750.000000 0.6897 0.6899 0.6900 0.6901 0.6904
2745.000000 0.6905 0.6907 0.6908 0.6910 0.6911
2740.000000 0.6914 0.6915 0.6917 0.6918 0.6921
2735.000000 0.6922 0.6925 0.6926 0.6930 0.6934
2730.000000 0.6939 0.6944 0.6948 0.6953 0.6958
2725.000000 0.6962 0.6967 0.6971 0.6976 0.6981
2720.000000 0.6986 0.6991 0.6996 0.7000 0.7005
2715.000000 0.7010 0.7015 0.7018 0.7024 0.7028
2710.000000 0.7034 0.7038 0.7043 0.7048 0.7053
2705.000000 0.7058 0.7064 0.7069 0.7075 0.7081
2700.000000 0.7086 0.7092 0.7098 0.7104 0.7110
2695.000000 0.7115 0.7121 0.7126 0.7133 0.7139
2690.000000 0.7144 0.7150 0.7156 0.7161 0.7167
2685.000000 0.7172 0.7178 0.7185 0.7191 0.7197
2680.000000 0.7203 0.7208 0.7215 0.7219 0.7226
2675.000000 0.7234 0.7240 0.7247 0.7254 0.7261
2670.000000 0.7268 0.7274 0.7281 0.7288 0.7295
2665.000000 0.7301 0.7308 0.7315 0.7324 0.7331
2660.000000 0.7339 0.7347 0.7355 0.7362 0.7371
2655.000000 0.7380 0.7389 0.7397 0.7405 0.7414
2650.000000 0.7422 0.7433 0.7442 0.7451 0.7461
2645.000000 0.7471 0.7480 0.7490 0.7499 0.7508
2640.000000 0.7518 0.7526 0.7535 0.7543 0.7551
2635.000000 0.7558 0.7565 0.7571 0.7575 0.7580
2630.000000 0.7581 0.7583 0.7585 0.7587 0.7589
2625.000000 0.7590 0.7592 0.7594 0.7596 0.7598
2620.000000 0.7600 0.7601 0.7604 0.7606 0.7608
2615.000000 0.7611 0.7612 0.7615 0.7617 0.7618
2610.000000 0.7621 0.7624 0.7628 0.7631 0.7635
2605.000000 0.7640 0.7644 0.7649 0.7653 0.7658
2600.000000 0.7661 0.7665 0.7671 0.7675 0.7680
2595.000000 0.7684 0.7689 0.7693 0.7698 0.7701
2590.000000 0.7706 0.7710 0.7714 0.7718 0.7722
2585.000000 0.7728 0.7733 0.7738 0.7742 0.7747
2580.000000 0.7751 0.7756 0.7760 0.7765 0.7769
2575.000000 0.7775 0.7780 0.7784 0.7789 0.7793
2570.000000 0.7798 0.7801 0.7807 0.7811 0.7817
2565.000000 0.7821 0.7825 0.7831 0.7835 0.7839
2560.000000 0.7844 0.7848 0.7851 0.7856 0.7858
2555.000000 0.7864 0.7868 0.7871 0.7875 0.7881
2550.000000 0.7884 0.7888 0.7892 0.7897 0.7901
2545.000000 0.7905 0.7908 0.7911 0.7917 0.7921
2540.000000 0.7925 0.7930 0.7934 0.7938 0.7942
2535.000000 0.7946 0.7950 0.7954 0.7958 0.7962
2530.000000 0.7967 0.7971 0.7975 0.7978 0.7983
2525.000000 0.7987 0.7991 0.7995 0.7999 0.8003
2520.000000 0.8007 0.8011 0.8015 0.8019 0.8024
2515.000000 0.8028 0.8032 0.8036 0.8040 0.8044
2510.000000 0.8049 0.8051 0.8056 0.8058 0.8061
2505.000000 0.8064 0.8065 0.8068 0.8071 0.8074
2500.000000 0.8076 0.8078 0.8081 0.8084 0.8086
2495.000000 0.8089 0.8091 0.8093 0.8095 0.8096
2490.000000 0.8097 0.8098 0.8099 0.8100 0.8101
2485.000000 0.8103 0.8103 0.8104 0.8105 0.8106
2480.000000 0.8108 0.8108 0.8110 0.8111 0.8111
2475.000000 0.8112 0.8114 0.8115 0.8115 0.8118
2470.000000 0.8118 0.8119 0.8119 0.8121 0.8122
2465.000000 0.8124 0.8125 0.8125 0.8125 0.8126
2460.000000 0.8128 0.8128 0.8130 0.8131 0.8131
2455.000000 0.8132 0.8133 0.8134 0.8135 0.8135
2450.000000 0.8136 0.8137 0.8138 0.8139 0.8141
2445.000000 0.8143 0.8146 0.8148 0.8151 0.8154
2440.000000 0.8156 0.8158 0.8161 0.8164 0.8165
2435.000000 0.8168 0.8171 0.8175 0.8176 0.8180
2430.000000 0.8183 0.8186 0.8188 0.8191 0.8194
2425.000000 0.8197 0.8200 0.8202 0.8205 0.8208
2420.000000 0.8211 0.8213 0.8216 0.8218 0.8220
2415.000000 0.8223 0.8225 0.8228 0.8230 0.8232
2410.000000 0.8234 0.8236 0.8239 0.8241 0.8243
2405.000000 0.8245 0.8247 0.8249 0.8251 0.8254
2400.000000 0.8256 0.8258 0.8260 0.8261 0.8263
2395.000000 0.8264 0.8265 0.8266 0.8267 0.8268
2390.000000 0.8270 0.8271 0.8271 0.8274 0.8275
2385.000000 0.8275 0.8277 0.8278 0.8280 0.8281
2380.000000 0.8282 0.8282 0.8283 0.8283 0.8283
2375.000000 0.8283 0.8283 0.8283 0.8283 0.8283
2370.000000 0.8283 0.8283 0.8283 0.8283 0.8283
2365.000000 0.8282 0.8281 0.8280 0.8277 0.8275
2360.000000 0.8273 0.8271 0.8268 0.8266 0.8264
2355.000000 0.8262 0.8259 0.8253 0.8247 0.8239
2350.000000 0.8230 0.8221 0.8213 0.8206 0.8200
2345.000000 0.8194 0.8189 0.8183 0.8178 0.8172
2340.000000 0.8169 0.8168 0.8165 0.8162 0.8160
2335.000000 0.8158 0.8156 0.8154 0.8151 0.8151
2330.000000 0.8150 0.8149 0.8148 0.8146 0.8145
2325.000000 0.8144 0.8143 0.8143 0.8143 0.8143
2320.000000 0.8143 0.8144 0.8144 0.8144 0.8145
2315.000000 0.8145 0.8147 0.8150 0.8151 0.8154
2310.000000 0.8157 0.8158 0.8161 0.8164 0.8165
2305.000000 0.8168 0.8171 0.8172 0.8175 0.8178
2300.000000 0.8180 0.8183 0.8185 0.8187 0.8190
2295.000000 0.8192 0.8194 0.8197 0.8199 0.8202
2290.000000 0.8204 0.8206 0.8209 0.8211 0.8214
2285.000000 0.8217 0.8218 0.8221 0.8224 0.8227
2280.000000 0.8228 0.8230 0.8232 0.8234 0.8237
2275.000000 0.8239 0.8241 0.8242 0.8244 0.8245
2270.000000 0.8246 0.8247 0.8248 0.8250 0.8251
2265.000000 0.8253 0.8254 0.8255 0.8256 0.8258
2260.000000 0.8259 0.8260 0.8261 0.8261 0.8262
2255.000000 0.8262 0.8261 0.8261 0.8261 0.8261
2250.000000 0.8260 0.8260 0.8259 0.8259 0.8259
2245.000000 0.8259 0.8258 0.8258 0.8257 0.8256
2240.000000 0.8254 0.8252 0.8250 0.8248 0.8246
2235.000000 0.8243 0.8240 0.8237 0.8233 0.8228
2230.000000 0.8225 0.8224 0.8221 0.8221 0.8218
2225.000000 0.8217 0.8215 0.8214 0.8212 0.8211
2220.000000 0.8209 0.8208 0.8206 0.8205 0.8203
2215.000000 0.8201 0.8200 0.8200 0.8200 0.8200
2210.000000 0.8201 0.8201 0.8202 0.8202 0.8202
2205.000000 0.8202 0.8203 0.8203 0.8203 0.8203
2200.000000 0.8204 0.8204 0.8205 0.8205 0.8205
2195.000000 0.8205 0.8206 0.8206 0.8204 0.8203
2190.000000 0.8202 0.8201 0.8200 0.8198 0.8197
2185.000000 0.8196 0.8195 0.8194 0.8193 0.8192
2180.000000 0.8191 0.8190 0.8189 0.8188 0.8187
2175.000000 0.8185 0.8184 0.8183 0.8181 0.8180
2170.000000 0.8178 0.8178 0.8175 0.8175 0.8174
2165.000000 0.8171 0.8171 0.8169 0.8168 0.8167
2160.000000 0.8165 0.8165 0.8162 0.8161 0.8160
2155.000000 0.8158 0.8158 0.8156 0.8155 0.8154
2150.000000 0.8151 0.8151 0.8150 0.8148 0.8147
2145.000000 0.8145 0.8144 0.8143 0.8141 0.8140
2140.000000 0.8139 0.8138 0.8137 0.8136 0.8135
2135.000000 0.8135 0.8134 0.8133 0.8133 0.8133
2130.000000 0.8133 0.8132 0.8132 0.8131 0.8131
2125.000000 0.8130 0.8128 0.8128 0.8128 0.8128
2120.000000 0.8128 0.8128 0.8126 0.8126 0.8125
2115.000000 0.8125 0.8125 0.8124 0.8124 0.8122
2110.000000 0.8122 0.8121 0.8121 0.8121 0.8119
2105.000000 0.8119 0.8118 0.8118 0.8118 0.8118
2100.000000 0.8117 0.8115 0.8115 0.8115 0.8115
2095.000000 0.8114 0.8114 0.8112 0.8111 0.8111
2090.000000 0.8111 0.8111 0.8110 0.8110 0.8108
2085.000000 0.8107 0.8107 0.8106 0.8106 0.8105
2080.000000 0.8105 0.8104 0.8103 0.8103 0.8101
2075.000000 0.8101 0.8101 0.8100 0.8099 0.8098
2070.000000 0.8098 0.8097 0.8096 0.8095 0.8094
2065.000000 0.8093 0.8092 0.8091 0.8090 0.8088
2060.000000 0.8088 0.8087 0.8086 0.8085 0.8084
2055.000000 0.8082 0.8081 0.8081 0.8080 0.8078
2050.000000 0.8076 0.8075 0.8075 0.8074 0.8074
2045.000000 0.8072 0.8071 0.8069 0.8068 0.8068
2040.000000 0.8067 0.8065 0.8065 0.8064 0.8062
2035.000000 0.8061 0.8060 0.8058 0.8058 0.8058
2030.000000 0.8056 0.8055 0.8054 0.8053 0.8051
2025.000000 0.8050 0.8049 0.8048 0.8047 0.8045
2020.000000 0.8044 0.8043 0.8042 0.8040 0.8038
2015.000000 0.8037 0.8036 0.8035 0.8033 0.8032
2010.000000 0.8031 0.8030 0.8028 0.8028 0.8028
2005.000000 0.8026 0.8025 0.8025 0.8025 0.8024
2000.000000 0.8022 0.8021 0.8021 0.8021 0.8019
1995.000000 0.8018 0.8018 0.8017 0.8015 0.8015
1990.000000 0.8015 0.8014 0.8012 0.8011 0.8010
1985.000000 0.8008 0.8006 0.8004 0.8001 0.8000
1980.000000 0.7997 0.7995 0.7993 0.7990 0.7988
1975.000000 0.7986 0.7984 0.7981 0.7978 0.7976
1970.000000 0.7974 0.7971 0.7968 0.7967 0.7964
1965.000000 0.7961 0.7958 0.7956 0.7953 0.7950
1960.000000 0.7947 0.7945 0.7942 0.7939 0.7936
1955.000000 0.7933 0.7931 0.7928 0.7925 0.7921
1950.000000 0.7918 0.7917 0.7914 0.7911 0.7908
1945.000000 0.7905 0.7901 0.7900 0.7897 0.7894
1940.000000 0.7890 0.7887 0.7884 0.7880 0.7876
1935.000000 0.7874 0.7869 0.7867 0.7864 0.7860
1930.000000 0.7857 0.7853 0.7849 0.7846 0.7842
1925.000000 0.7839 0.7836 0.7832 0.7828 0.7825
1920.000000 0.7821 0.7818 0.7815 0.7811 0.7808
1915.000000 0.7804 0.7800 0.7795 0.7792 0.7788
1910.000000 0.7784 0.7780 0.7775 0.7771 0.7768
1905.000000 0.7764 0.7760 0.7756 0.7751 0.7748
1900.000000 0.7744 0.7740 0.7736 0.7732 0.7728
1895.000000 0.7724 0.7719 0.7715 0.7711 0.7706
1890.000000 0.7701 0.7696 0.7690 0.7686 0.7680
1885.000000 0.7674 0.7668 0.7664 0.7658 0.7653
1880.000000 0.7648 0.7643 0.7637 0.7632 0.7626
1875.000000 0.7621 0.7615 0.7610 0.7605 0.7600
1870.000000 0.7594 0.7589 0.7583 0.7578 0.7572
1865.000000 0.7568 0.7562 0.7558 0.7554 0.7549
1860.000000 0.7545 0.7540 0.7535 0.7530 0.7525
1855.000000 0.7521 0.7515 0.7511 0.7506 0.7501
1850.000000 0.7497 0.7492 0.7487 0.7482 0.7478
1845.000000 0.7471 0.7468 0.7462 0.7458 0.7454
1840.000000 0.7449 0.7443 0.7437 0.7430 0.7422
1835.000000 0.7415 0.7408 0.7401 0.7394 0.7387
1830.000000 0.7378 0.7371 0.7365 0.7358 0.7350
1825.000000 0.7343 0.7336 0.7328 0.7321 0.7314
1820.000000 0.7307 0.7300 0.7292 0.7285 0.7275
1815.000000 0.7268 0.7258 0.7248 0.7239 0.7230
1810.000000 0.7221 0.7211 0.7203 0.7193 0.7183
1805.000000 0.7174 0.7165 0.7156 0.7146 0.7137
1800.000000 0.7126 0.7117 0.7107 0.7097 0.7087
1795.000000 0.7076 0.7067 0.7057 0.7047 0.7037
1790.000000 0.7026 0.7017 0.7007 0.6997 0.6986
1785.000000 0.6976 0.6965 0.6954 0.6942 0.6928
1780.000000 0.6917 0.6904 0.6891 0.6878 0.6865
1775.000000 0.6853 0.6841 0.6828 0.6815 0.6801
1770.000000 0.6790 0.6776 0.6764 0.6750 0.6734
1765.000000 0.6717 0.6701 0.6684 0.6667 0.6650
1760.000000 0.6632 0.6615 0.6598 0.6581 0.6561
1755.000000 0.6541 0.6519 0.6499 0.6478 0.6457
1750.000000 0.6436 0.6414 0.6393 0.6372 0.6353
1745.000000 0.6335 0.6316 0.6297 0.6278 0.6260
1740.000000 0.6241 0.6222 0.6203 0.6184 0.6165
1735.000000 0.6146 0.6128 0.6109 0.6090 0.6071
1730.000000 0.6051 0.6030 0.6010 0.5990 0.5970
1725.000000 0.5949 0.5925 0.5903 0.5879 0.5856
1720.000000 0.5833 0.5809 0.5783 0.5755 0.5727
1715.000000 0.5689 0.5645 0.5597 0.5545 0.5494
1710.000000 0.5447 0.5403 0.5360 0.5318 0.5275
1705.000000 0.5230 0.5179 0.5118 0.5056 0.4994
1700.000000 0.4933 0.4873 0.4812 0.4746 0.4660
1695.000000 0.4552 0.4462 0.4390 0.4322 0.4255
1690.000000 0.4187 0.4118 0.4047 0.3971 0.3897
1685.000000 0.3821 0.3757 0.3703 0.3652 0.3600
1680.000000 0.3550 0.3500 0.3396 0.3264 0.3151
1675.000000 0.3047 0.2952 0.2867 0.2788 0.2718
1670.000000 0.2647 0.2563 0.2468 0.2380 0.2313
1665.000000 0.2256 0.2199 0.2143 0.2093 0.2057
1660.000000 0.2012 0.1971 0.1934 0.1902 0.1882
1655.000000 0.1868 0.1857 0.1848 0.1842 0.1837
1650.000000 0.1837 0.1837 0.1840 0.1843 0.1846
1645.000000 0.1861 0.1896 0.1941 0.1984 0.2027
1640.000000 0.2070 0.2119 0.2180 0.2240 0.2301
1635.000000 0.2362 0.2426 0.2489 0.2551 0.2610
1630.000000 0.2669 0.2722 0.2763 0.2800 0.2833
1625.000000 0.2860 0.2878 0.2914 0.2893 0.2894
1620.000000 0.2889 0.2883 0.2873 0.2839 0.2797
1615.000000 0.2751 0.2693 0.2618 0.2542 0.2471
1610.000000 0.2403 0.2334 0.2277 0.2227 0.2178
1605.000000 0.2128 0.2075 0.2021 0.1976 0.1945
1600.000000 0.1926 0.1904 0.1884 0.1865 0.1848
1595.000000 0.1834 0.1820 0.1804 0.1792 0.1777
1590.000000 0.1763 0.1749 0.1734 0.1720 0.1707
1585.000000 0.1694 0.1684 0.1672 0.1660 0.1650
1580.000000 0.1640 0.1629 0.1619 0.1609 0.1599
1575.000000 0.1588 0.1579 0.1570 0.1561 0.1551
1570.000000 0.1542 0.1535 0.1498 0.1525 0.1521
1565.000000 0.1518 0.1517 0.1517 0.1518 0.1518
1560.000000 0.1524 0.1533 0.1542 0.1551 0.1561
1555.000000 0.1569 0.1578 0.1596 0.1620 0.1644
1550.000000 0.1669 0.1694 0.1729 0.1764 0.1801
1545.000000 0.1868 0.1942 0.2012 0.2075 0.2138
1540.000000 0.2200 0.2264 0.2330 0.2397 0.2465
1535.000000 0.2532 0.2622 0.2727 0.2824 0.2916
1530.000000 0.3006 0.3092 0.3173 0.3255 0.3347
1525.000000 0.3455 0.3562 0.3671 0.3775 0.3864
1520.000000 0.3946 0.4022 0.4080 0.4134 0.4188
1515.000000 0.4245 0.4331 0.4451 0.4564 0.4647
1510.000000 0.4729 0.4810 0.4893 0.4976 0.5057
1505.000000 0.5140 0.5223 0.5306 0.5383 0.5440
1500.000000 0.5479 0.5510 0.5543 0.5574 0.5600
1495.000000 0.5607 0.5628 0.5612 0.5605 0.5585
1490.000000 0.5558 0.5532 0.5462 0.5368 0.5214
1485.000000 0.5040 0.4912 0.4795 0.4694 0.4600
1480.000000 0.4532 0.4465 0.4398 0.4332 0.4266
1475.000000 0.4200 0.4126 0.4037 0.3953 0.3887
1470.000000 0.3829 0.3772 0.3714 0.3662 0.3618
1465.000000 0.3575 0.3530 0.3486 0.3440 0.3395
1460.000000 0.3356 0.3320 0.3284 0.3245 0.3203
1455.000000 0.3162 0.3121 0.3079 0.3039 0.3003
1450.000000 0.2971 0.2945 0.2926 0.2911 0.2883
1445.000000 0.2894 0.2889 0.2884 0.2881 0.2879
1440.000000 0.2879 0.2879 0.2882 0.2897 0.2915
1435.000000 0.2941 0.2968 0.2990 0.3025 0.3022
1430.000000 0.3028 0.3029 0.3023 0.3012 0.3002
1425.000000 0.2990 0.2969 0.2947 0.2925 0.2915
1420.000000 0.2911 0.2906 0.2906 0.2908 0.2911
1415.000000 0.2915 0.2920 0.2926 0.2932 0.2938
1410.000000 0.2947 0.2956 0.2964 0.2982 0.3006
1405.000000 0.3029 0.3059 0.3101 0.3147 0.3194
1400.000000 0.3270 0.3364 0.3487 0.3607 0.3707
1395.000000 0.3799 0.3891 0.3984 0.4079 0.4229
1390.000000 0.4368 0.4425 0.4477 0.4543 0.4610
1385.000000 0.4665 0.4715 0.4762 0.4805 0.4836
1380.000000 0.4850 0.4860 0.4867 0.4872 0.4869
1375.000000 0.4857 0.4827 0.4788 0.4739 0.4688
1370.000000 0.4639 0.4594 0.4549 0.4556 0.4558
1365.000000 0.4564 0.4592 0.4646 0.4719 0.4790
1360.000000 0.4862 0.4931 0.4993 0.5052 0.5110
1355.000000 0.5171 0.5234 0.5301 0.5368 0.5440
1350.000000 0.5522 0.5609 0.5702 0.5768 0.5823
1345.000000 0.5858 0.5889 0.5914 0.5930 0.5958
1340.000000 0.5947 0.5947 0.5946 0.5932 0.5914
1335.000000 0.5896 0.5869 0.5809 0.5737 0.5638
1330.000000 0.5539 0.5446 0.5362 0.5301 0.5241
1325.000000 0.5168 0.5098 0.5044 0.4991 0.4957
1320.000000 0.4932 0.4912 0.4896 0.4884 0.4874
1315.000000 0.4862 0.4851 0.4838 0.4828 0.4821
1310.000000 0.4800 0.4808 0.4824 0.4849 0.4884
1305.000000 0.4920 0.4957 0.4994 0.5031 0.5067
1300.000000 0.5105 0.5137 0.5169 0.5202 0.5233
1295.000000 0.5259 0.5285 0.5312 0.5338 0.5355
1290.000000 0.5372 0.5388 0.5398 0.5400 0.5410
1285.000000 0.5410 0.5401 0.5391 0.5378 0.5364
1280.000000 0.5351 0.5338 0.5325 0.5308 0.5293
1275.000000 0.5278 0.5262 0.5250 0.5240 0.5229
1270.000000 0.5218 0.5207 0.5196 0.5184 0.5174
1265.000000 0.5165 0.5156 0.5147 0.5137 0.5109
1260.000000 0.5135 0.5136 0.5138 0.5150 0.5169
1255.000000 0.5200 0.5235 0.5274 0.5314 0.5354
1250.000000 0.5399 0.5447 0.5495 0.5545 0.5604
1245.000000 0.5665 0.5723 0.5775 0.5827 0.5879
1240.000000 0.5932 0.6002 0.6091 0.6146 0.6181
1235.000000 0.6217 0.6253 0.6289 0.6318 0.6347
1230.000000 0.6374 0.6398 0.6419 0.6438 0.6451
1225.000000 0.6465 0.6478 0.6488 0.6491 0.6501
1220.000000 0.6506 0.6512 0.6508 0.6496 0.6480
1215.000000 0.6458 0.6434 0.6410 0.6386 0.6359
1210.000000 0.6331 0.6303 0.6276 0.6253 0.6241
1205.000000 0.6227 0.6220 0.6214 0.6214 0.6208
1200.000000 0.6208 0.6209 0.6210 0.6218 0.6239
1195.000000 0.6260 0.6285 0.6309 0.6334 0.6360
1190.000000 0.6389 0.6426 0.6464 0.6503 0.6541
1185.000000 0.6580 0.6617 0.6648 0.6678 0.6708
1180.000000 0.6739 0.6769 0.6801 0.6833 0.6865
1175.000000 0.6897 0.6930 0.6961 0.6994 0.7025
1170.000000 0.7056 0.7088 0.7118 0.7151 0.7180
1165.000000 0.7207 0.7234 0.7251 0.7268 0.7311
1160.000000 0.7291 0.7294 0.7296 0.7299 0.7294
1155.000000 0.7287 0.7281 0.7275 0.7271 0.7265
1150.000000 0.7261 0.7258 0.7251 0.7253 0.7255
1145.000000 0.7271 0.7294 0.7317 0.7340 0.7361
1140.000000 0.7383 0.7404 0.7426 0.7449 0.7475
1135.000000 0.7503 0.7532 0.7547 0.7556 0.7555
1130.000000 0.7554 0.7578 0.7551 0.7549 0.7548
1125.000000 0.7547 0.7545 0.7530 0.7489 0.7449
1120.000000 0.7400 0.7351 0.7301 0.7214 0.7119
1115.000000 0.7026 0.6936 0.6845 0.6753 0.6660
1110.000000 0.6568 0.6486 0.6403 0.6310 0.6218
1105.000000 0.6118 0.5992 0.5893 0.5800 0.5708
1100.000000 0.5582 0.5425 0.5281 0.5162 0.5075
1095.000000 0.4996 0.4930 0.4867 0.4830 0.4812
1090.000000 0.4789 0.4756 0.4706 0.4654 0.4614
1085.000000 0.4575 0.4545 0.4524 0.4512 0.4505
1080.000000 0.4503 0.4466 0.4499 0.4505 0.4514
1075.000000 0.4529 0.4549 0.4569 0.4590 0.4612
1070.000000 0.4643 0.4676 0.4710 0.4751 0.4770
1065.000000 0.4785 0.4785 0.4784 0.4748 0.4706
1060.000000 0.4650 0.4596 0.4552 0.4510 0.4442
1055.000000 0.4342 0.4283 0.4233 0.4183 0.4139
1050.000000 0.4096 0.4066 0.4042 0.4023 0.4006
1045.000000 0.3976 0.3982 0.3988 0.4005 0.4029
1040.000000 0.4068 0.4106 0.4184 0.4283 0.4383
1035.000000 0.4482 0.4583 0.4672 0.4747 0.4822
1030.000000 0.4898 0.4986 0.5083 0.5178 0.5264
1025.000000 0.5345 0.5412 0.5453 0.5481 0.5508
1020.000000 0.5538 0.5574 0.5610 0.5670 0.5739
1015.000000 0.5809 0.5922 0.6036 0.6128 0.6210
1010.000000 0.6293 0.6394 0.6484 0.6561 0.6625
1005.000000 0.6684 0.6735 0.6781 0.6828 0.6874
1000.000000 0.6915 0.6944 0.6999 0.6971 0.6967
995.000000 0.6951 0.6898 0.6831 0.6761 0.6699
990.000000 0.6642 0.6601 0.6568 0.6575 0.6581
985.000000 0.6681 0.6793 0.6871 0.6947 0.7011
980.000000 0.7075 0.7139 0.7199 0.7255 0.7311
975.000000 0.7368 0.7421 0.7474 0.7524 0.7561
970.000000 0.7581 0.7599 0.7600 0.7601 0.7601
965.000000 0.7601 0.7603 0.7601 0.7601 0.7599
960.000000 0.7589 0.7578 0.7556 0.7517 0.7475
955.000000 0.7432 0.7389 0.7351 0.7317 0.7287
950.000000 0.7265 0.7246 0.7224 0.7204 0.7210
945.000000 0.7236 0.7264 0.7301 0.7350 0.7400
940.000000 0.7448 0.7493 0.7539 0.7585 0.7628
935.000000 0.7669 0.7712 0.7755 0.7783 0.7806
930.000000 0.7815 0.7831 0.7821 0.7818 0.7810
925.000000 0.7792 0.7768 0.7741 0.7701 0.7662
920.000000 0.7622 0.7583 0.7539 0.7491 0.7442
915.000000 0.7392 0.7342 0.7300 0.7250 0.7258
910.000000 0.7267 0.7281 0.7290 0.7300 0.7308
905.000000 0.7308 0.7307 0.7312 0.7294 0.7282
900.000000 0.7268 0.7248 0.7226 0.7197 0.7154
895.000000 0.7108 0.7051 0.6990 0.6918 0.6853
890.000000 0.6804 0.6781 0.6758 0.6739 0.6744
885.000000 0.6769 0.6836 0.6910 0.6986 0.7060
880.000000 0.7121 0.7183 0.7247 0.7310 0.7365
875.000000 0.7421 0.7475 0.7565 0.7555 0.7558
870.000000 0.7542 0.7508 0.7497 0.7489 0.7487
865.000000 0.7484 0.7481 0.7478 0.7468 0.7456
860.000000 0.7445 0.7434 0.7424 0.7414 0.7404
855.000000 0.7395 0.7384 0.7378 0.7372 0.7368
850.000000 0.7364 0.7360 0.7355 0.7351 0.7342
845.000000 0.7332 0.7321 0.7312 0.7303 0.7293
840.000000 0.7280 0.7265 0.7250 0.7235 0.7222
835.000000 0.7211 0.7201 0.7191 0.7175 0.7160
830.000000 0.7143 0.7125 0.7107 0.7089 0.7069
825.000000 0.7053 0.7035 0.7015 0.6998 0.6980
820.000000 0.6961 0.6945 0.6928 0.6911 0.6892
815.000000 0.6874 0.6848 0.6821 0.6796 0.6771
810.000000 0.6747 0.6728 0.6714 0.6699 0.6696
805.000000 0.6693 0.6690 0.6687 0.6698 0.6708
800.000000 0.6721 0.6731 0.6743 0.6754 0.6758
795.000000 0.6757 0.6755 0.6751 0.6743 0.6732
790.000000 0.6721 0.6710 0.6697 0.6683 0.6669
785.000000 0.6656 0.6641 0.6624 0.6608 0.6590
780.000000 0.6572 0.6556 0.6538 0.6517 0.6495
775.000000 0.6472 0.6451 0.6428 0.6411 0.6395
770.000000 0.6377 0.6358 0.6331 0.6306 0.6280
765.000000 0.6260 0.6247 0.6242 0.6237 0.6230
760.000000 0.6218 0.6205 0.6190 0.6175 0.6160
755.000000 0.6129 0.6102 0.6088 0.6087 0.6087
750.000000 0.6089 0.6090 0.6083 0.6077 0.6071
745.000000 0.6065 0.6058 0.6052 0.6046 0.6040
740.000000 0.6033 0.6026 0.6017 0.6010 0.6003
735.000000 0.5995 0.5990 0.5986 0.5983 0.5981
730.000000 0.5978 0.5975 0.5972 0.5969 0.5966
725.000000 0.5964 0.5959 0.5954 0.5948 0.5942
720.000000 0.5936 0.5929 0.5920 0.5909 0.5897
715.000000 0.5886 0.5875 0.5864 0.5852 0.5840
710.000000 0.5829 0.5819 0.5812 0.5804 0.5796
705.000000 0.5788 0.5780 0.5772 0.5764 0.5757
700.000000 0.5751 0.5745 0.5739 0.5732 0.5726
695.000000 0.5718 0.5710 0.5703 0.5696 0.5689
690.000000 0.5680 0.5676 0.5673 0.5668 0.5664
685.000000 0.5660 0.5654 0.5646 0.5638 0.5630
680.000000 0.5623 0.5615 0.5610 0.5608 0.5606
675.000000 0.5604 0.5602 0.5600 0.5589 0.5523
670.000000 0.5559 0.5544 0.5528 0.5512 0.5495
665.000000 0.5468 0.5440 0.5412 0.5386 0.5370
660.000000 0.5393 0.5409 0.5397 0.5396 0.5400
655.000000 0.5403 0.5406 0.5416 0.5428 0.5436
##END=
