##TITLE=7H-PYRROLO[2,3-d]PYRIMIDINE, 4-AMINO-7-[3-(HYDROXYMETHYL)CYCLOPENTYL]-
##JCAMP-DX=4.24
##DATA TYPE=INFRARED SPECTRUM
##CLASS=COBLENTZ III
##ORIGIN=SOUTHERN RESEARCH INST.
##OWNER=COBLENTZ SOCIETY
Collection (C) 2018 copyright by the U.S. Secretary of Commerce
on behalf of the United States of America. All rights reserved.
##DATE=1966/08/26
##NAMES=[3-(4-amino-7H-pyrrolo[2,3-d]pyrimidin-7-yl)cyclopentyl]methanol
##MOLFORM=C12 H16 N4 O
##SOURCE REFERENCE=COBLENTZ NO. 9940
##$NIST ID=B6009940
##$NIST SOURCE=COBLENTZ
##$NIST IMAGE=cob9940
##SPECTROMETER/DATA SYSTEM=PERKIN-ELMER 521 (GRATING)
##INSTRUMENT PARAMETERS=FILTER CHANGES AT 3130, 2475, 2000, 1150, 700, 410 CM^-^1, GRATING CHANGES AT 2000, 620 CM^-^1
##STATE=SOLID (1 mg / 650 mg KBr DISC)
##SAMPLING PROCEDURE=TRANSMISSION
##RESOLUTION=4
##DATA PROCESSING=DIGITIZED BY NIST FROM HARD COPY
##XUNITS=1/CM
##YUNITS=TRANSMITTANCE
##XFACTOR=1.000000
##YFACTOR=1
##DELTAX=001.603725
##FIRSTX=280.29
##LASTX=3811.69
##FIRSTY=0.529
##MAXX=3811.69
##MINX=280.29
##MAXY=0.998
##MINY=0.074
##NPOINTS=2203
##XYDATA=(X++(Y..Y))
280.290000 0.5290 0.5360 0.5430 0.5500 0.5570
288.312268 0.5650 0.5720 0.5800 0.5880 0.5950
296.327000 0.6030 0.6110 0.6180 0.6260 0.6330
304.349268 0.6410 0.6480 0.6520 0.6530 0.6550
312.364000 0.6570 0.6630 0.6670 0.6700 0.6710
320.386268 0.6730 0.6740 0.6750 0.6750 0.6750
328.401000 0.6750 0.6760 0.6760 0.6750 0.6740
336.423268 0.6730 0.6720 0.6720 0.6730 0.6740
344.439000 0.6780 0.6840 0.6900 0.7050 0.7130
352.461268 0.7190 0.7230 0.7410 0.7420 0.7420
360.476000 0.7360 0.7360 0.7380 0.7400 0.7430
368.498268 0.7460 0.7470 0.7470 0.7470 0.7550
376.513000 0.7650 0.7700 0.7740 0.7760 0.7770
384.535268 0.7770 0.7770 0.7770 0.7780 0.7790
392.550000 0.7790 0.7800 0.7800 0.7810 0.7810
400.572268 0.7810 0.7810 0.7810 0.7810 0.7810
408.588000 0.7800 0.7790 0.7770 0.7770 0.7770
416.610268 0.7770 0.7760 0.7760 0.7750 0.7750
424.625000 0.7740 0.7740 0.7730 0.7700 0.7690
432.647268 0.7660 0.7650 0.7610 0.7570 0.7520
440.662000 0.7490 0.7460 0.7430 0.7420 0.7420
448.684268 0.7440 0.7460 0.7470 0.7470 0.7470
456.699000 0.7470 0.7470 0.7470 0.7460 0.7450
464.721268 0.7430 0.7430 0.7390 0.7340 0.7320
472.737000 0.7290 0.7260 0.7220 0.7170 0.7130
480.759268 0.7080 0.7020 0.7000 0.6970 0.6910
488.774000 0.6850 0.6790 0.6730 0.6670 0.6610
496.796268 0.6550 0.6540 0.6520 0.6520 0.6500
504.811000 0.6480 0.6450 0.6410 0.6370 0.6330
512.833268 0.6290 0.6240 0.6200 0.6160 0.6120
520.848000 0.6080 0.6000 0.5980 0.5940 0.5880
528.870268 0.5840 0.5770 0.5690 0.5610 0.5370
536.886000 0.5200 0.5020 0.5020 0.5270 0.5600
544.908268 0.5900 0.5910 0.6040 0.6110 0.6140
552.923000 0.6200 0.6240 0.6260 0.6260 0.6220
560.945268 0.6180 0.6140 0.6030 0.5920 0.5920
568.960000 0.5920 0.5930 0.5930 0.5950 0.5950
576.982268 0.5930 0.5890 0.5680 0.5680 0.5640
584.997000 0.5420 0.5400 0.5400 0.5530 0.5740
593.019268 0.5830 0.5960 0.6080 0.6180 0.6260
601.035000 0.6330 0.6370 0.6490 0.6600 0.6700
609.057268 0.6700 0.6710 0.6710 0.6710 0.6720
617.072000 0.6750 0.6770 0.6840 0.6880 0.7120
625.094268 0.7120 0.7110 0.7100 0.7100 0.7100
633.109000 0.7110 0.7130 0.7140 0.7160 0.7180
641.131268 0.7200 0.7200 0.7210 0.7220 0.7230
649.146000 0.7240 0.7240 0.7250 0.7250 0.7260
657.168268 0.7270 0.7280 0.7280 0.7280 0.7290
665.184000 0.7290 0.7290 0.7280 0.7270 0.7160
673.206268 0.7060 0.6970 0.6710 0.6430 0.6150
681.221000 0.5880 0.5600 0.5600 0.5950 0.6300
689.243268 0.6640 0.7050 0.7240 0.7250 0.7220
697.258000 0.7200 0.7090 0.6980 0.6860 0.6630
705.280268 0.6370 0.6000 0.5500 0.4770 0.4090
713.295000 0.4080 0.4070 0.4070 0.4060 0.4010
721.317268 0.3960 0.3840 0.3750 0.3730 0.4020
729.333000 0.4700 0.5240 0.5590 0.6030 0.6520
737.355268 0.6860 0.6940 0.7090 0.7230 0.7340
745.370000 0.7440 0.7540 0.7620 0.7680 0.7740
753.392268 0.7800 0.7840 0.7890 0.7940 0.7980
761.407000 0.8030 0.8070 0.8110 0.8170 0.8220
769.429268 0.8250 0.8260 0.8280 0.8310 0.8340
777.444000 0.8370 0.8390 0.8390 0.8390 0.8390
785.466268 0.8380 0.8370 0.8330 0.8300 0.8270
793.482000 0.8240 0.7580 0.6930 0.6450 0.6450
801.504268 0.6660 0.7090 0.7300 0.7510 0.7730
809.519000 0.7940 0.8130 0.8340 0.8450 0.8620
817.541268 0.8640 0.8640 0.8640 0.8630 0.8600
825.556000 0.8570 0.8550 0.8540 0.8530 0.8520
833.578268 0.8520 0.8510 0.8510 0.8510 0.8510
841.593000 0.8500 0.8490 0.8470 0.8450 0.8450
849.615268 0.8450 0.8460 0.8490 0.8500 0.8520
857.631000 0.8530 0.8550 0.8560 0.8580 0.8580
865.653268 0.8580 0.8570 0.8560 0.8530 0.8520
873.668000 0.8500 0.8470 0.8410 0.8350 0.8280
881.690268 0.8190 0.8110 0.8000 0.7910 0.7800
889.705000 0.7570 0.7320 0.7090 0.6990 0.6880
897.727268 0.6730 0.6650 0.6530 0.6140 0.6120
905.742000 0.6130 0.6260 0.6380 0.7020 0.7230
913.764268 0.7430 0.7630 0.7840 0.8040 0.8220
921.780000 0.8370 0.8410 0.8420 0.8440 0.8420
929.802268 0.8340 0.8210 0.8120 0.8020 0.7920
937.817000 0.7820 0.7730 0.7660 0.7620 0.7620
945.839268 0.7500 0.7500 0.7500 0.7510 0.7540
953.854000 0.7560 0.7580 0.7580 0.7580 0.7580
961.876268 0.7560 0.7540 0.7530 0.7500 0.7480
969.891000 0.7430 0.7380 0.7290 0.7190 0.7060
977.913268 0.6980 0.6900 0.6690 0.6670 0.6650
985.929000 0.6410 0.6110 0.5960 0.5920 0.5860
993.951268 0.5810 0.5580 0.5390 0.5210 0.5030
1001.966000 0.4210 0.3390 0.3370 0.3380 0.3560
1009.988268 0.3740 0.4110 0.4300 0.4900 0.5660
1018.003000 0.6170 0.6510 0.6730 0.7060 0.7280
1026.025268 0.7500 0.7500 0.7500 0.7280 0.7190
1034.040000 0.7090 0.6980 0.6790 0.6670 0.6520
1042.062268 0.6510 0.6520 0.6610 0.6670 0.6710
1050.078000 0.6630 0.6520 0.6350 0.6160 0.5960
1058.100268 0.5780 0.5770 0.5780 0.5880 0.5970
1066.115000 0.6070 0.6170 0.6260 0.6360 0.6440
1074.137268 0.6570 0.6580 0.6560 0.6560 0.6580
1082.152000 0.6640 0.6710 0.6780 0.6860 0.7020
1090.174268 0.7110 0.7200 0.7290 0.7380 0.7470
1098.189000 0.7540 0.7540 0.7540 0.7540 0.7540
1106.211268 0.7530 0.7500 0.7370 0.7280 0.7180
1114.227000 0.7160 0.7090 0.7090 0.7230 0.7340
1122.249268 0.7350 0.7360 0.7380 0.7390 0.7400
1130.264000 0.7400 0.7410 0.7410 0.7410 0.7400
1138.286268 0.7390 0.7350 0.7160 0.7050 0.6940
1146.301000 0.6700 0.6440 0.6070 0.6060 0.6070
1154.323268 0.6190 0.6320 0.6450 0.6560 0.6560
1162.338000 0.6630 0.6690 0.6810 0.6820 0.7130
1170.360268 0.7140 0.7290 0.7290 0.7280 0.7280
1178.376000 0.7200 0.7120 0.7050 0.7010 0.6970
1186.398268 0.6950 0.7020 0.7090 0.7160 0.7240
1194.413000 0.7280 0.7280 0.7280 0.7230 0.7130
1202.435268 0.7030 0.6860 0.6700 0.6360 0.6270
1210.450000 0.6190 0.6110 0.6050 0.6010 0.6070
1218.472268 0.6110 0.6160 0.6190 0.6220 0.6240
1226.487000 0.6220 0.6210 0.6160 0.6120 0.6090
1234.509268 0.6060 0.6040 0.6030 0.6000 0.5960
1242.525000 0.5920 0.5850 0.5770 0.5690 0.5610
1250.547268 0.5520 0.5430 0.5340 0.5250 0.4940
1258.562000 0.4700 0.4470 0.4240 0.4010 0.3870
1266.584268 0.3720 0.3700 0.3720 0.3800 0.3880
1274.599000 0.4020 0.4180 0.4220 0.4640 0.4970
1282.621268 0.5220 0.5410 0.5540 0.5660 0.5750
1290.636000 0.5850 0.5960 0.6110 0.6140 0.6140
1298.658268 0.6030 0.6000 0.5860 0.5660 0.5410
1306.674000 0.5140 0.4860 0.4570 0.4310 0.4080
1314.696268 0.4000 0.3900 0.3470 0.3270 0.3260
1322.711000 0.3270 0.3880 0.4200 0.4800 0.5220
1330.733268 0.5500 0.5690 0.5810 0.5930 0.6060
1338.748000 0.6220 0.6330 0.6340 0.6330 0.6260
1346.770268 0.6090 0.5990 0.5960 0.5920 0.5890
1354.785000 0.5860 0.5580 0.5010 0.4690 0.4370
1362.807268 0.4060 0.3900 0.3730 0.3730 0.3750
1370.823000 0.3830 0.4030 0.4120 0.4190 0.4670
1378.845268 0.5010 0.5270 0.5470 0.5660 0.5880
1386.860000 0.6050 0.6250 0.6530 0.6520 0.6450
1394.882268 0.6350 0.6260 0.6160 0.6070 0.5980
1402.897000 0.5890 0.5800 0.5700 0.5610 0.5510
1410.919268 0.5410 0.5290 0.5160 0.5000 0.4860
1418.934000 0.4510 0.4110 0.4030 0.3930 0.3770
1426.956268 0.4160 0.5200 0.5470 0.5730 0.5730
1434.972000 0.5920 0.6110 0.6480 0.6490 0.6580
1442.994268 0.6580 0.6550 0.6490 0.6330 0.6110
1451.009000 0.5790 0.5450 0.5240 0.5060 0.4900
1459.031268 0.4760 0.4640 0.4520 0.4410 0.4300
1467.046000 0.4160 0.4020 0.3940 0.3850 0.3650
1475.068268 0.3410 0.2870 0.2710 0.2550 0.2390
1483.083000 0.2390 0.2520 0.2630 0.3250 0.4690
1491.105268 0.4920 0.5130 0.5140 0.5160 0.5460
1499.121000 0.5760 0.6890 0.6900 0.6900 0.6850
1507.143268 0.6300 0.6040 0.5780 0.5770 0.5770
1515.158000 0.5890 0.6140 0.6660 0.6810 0.6910
1523.180268 0.6940 0.6900 0.6810 0.6690 0.6600
1531.195000 0.6530 0.6420 0.6270 0.6110 0.6000
1539.217268 0.5860 0.5730 0.5490 0.5350 0.5010
1547.232000 0.4410 0.3240 0.2060 0.1970 0.1970
1555.254268 0.2140 0.2660 0.3020 0.3320 0.4530
1563.270000 0.5120 0.5130 0.5120 0.4980 0.4830
1571.292268 0.4450 0.4160 0.3870 0.3130 0.2370
1579.307000 0.1870 0.1320 0.1040 0.0760 0.0750
1587.329268 0.0740 0.1000 0.1260 0.1860 0.2320
1595.344000 0.2900 0.3380 0.4150 0.4480 0.4810
1603.366268 0.5150 0.5610 0.5690 0.5700 0.5690
1611.381000 0.5690 0.5660 0.5480 0.5320 0.5170
1619.403268 0.5000 0.4800 0.4560 0.4260 0.4070
1627.419000 0.3880 0.3390 0.2800 0.2500 0.2180
1635.441268 0.1860 0.1850 0.1860 0.1870 0.1930
1643.456000 0.2000 0.2070 0.2140 0.2210 0.2350
1651.478268 0.2610 0.3060 0.3460 0.4180 0.4520
1659.493000 0.4860 0.5210 0.5580 0.5990 0.6420
1667.515268 0.7030 0.7290 0.7520 0.7720 0.7890
1675.530000 0.8030 0.8150 0.8250 0.8320 0.8370
1683.552268 0.8400 0.8400 0.8450 0.8490 0.8550
1691.568000 0.8620 0.8690 0.8760 0.8840 0.8930
1699.590268 0.9010 0.9090 0.9170 0.9240 0.9320
1707.605000 0.9390 0.9430 0.9470 0.9510 0.9540
1715.627268 0.9580 0.9620 0.9660 0.9690 0.9720
1723.642000 0.9750 0.9770 0.9780 0.9790 0.9800
1731.664268 0.9810 0.9840 0.9840 0.9860 0.9870
1739.679000 0.9880 0.9900 0.9910 0.9920 0.9920
1747.701268 0.9930 0.9940 0.9940 0.9950 0.9960
1755.717000 0.9960 0.9970 0.9980 0.9980 0.9980
1763.739268 0.9970 0.9970 0.9960 0.9960 0.9960
1771.754000 0.9960 0.9950 0.9950 0.9940 0.9930
1779.776268 0.9920 0.9920 0.9910 0.9900 0.9890
1787.791000 0.9880 0.9880 0.9870 0.9860 0.9850
1795.813268 0.9840 0.9840 0.9820 0.9820 0.9810
1803.828000 0.9810 0.9800 0.9800 0.9790 0.9790
1811.850268 0.9790 0.9780 0.9780 0.9770 0.9770
1819.866000 0.9770 0.9750 0.9730 0.9730 0.9710
1827.888268 0.9700 0.9690 0.9690 0.9680 0.9670
1835.903000 0.9670 0.9660 0.9660 0.9660 0.9660
1843.925268 0.9660 0.9640 0.9600 0.9570 0.9540
1851.940000 0.9520 0.9500 0.9480 0.9470 0.9450
1859.962268 0.9440 0.9430 0.9430 0.9420 0.9420
1867.977000 0.9400 0.9390 0.9380 0.9370 0.9370
1875.999268 0.9360 0.9350 0.9350 0.9340 0.9350
1884.015000 0.9360 0.9380 0.9400 0.9430 0.9440
1892.037268 0.9470 0.9490 0.9500 0.9500 0.9510
1900.052000 0.9510 0.9510 0.9510 0.9510 0.9500
1908.074268 0.9500 0.9500 0.9500 0.9490 0.9490
1916.089000 0.9490 0.9480 0.9480 0.9470 0.9470
1924.111268 0.9470 0.9460 0.9460 0.9450 0.9450
1932.126000 0.9440 0.9440 0.9430 0.9430 0.9430
1940.148268 0.9430 0.9430 0.9430 0.9420 0.9410
1948.164000 0.9410 0.9410 0.9400 0.9400 0.9390
1956.186268 0.9380 0.9370 0.9350 0.9350 0.9340
1964.201000 0.9330 0.9330 0.9320 0.9320 0.9320
1972.223268 0.9310 0.9300 0.9290 0.9290 0.9280
1980.238000 0.9280 0.9270 0.9210 0.9160 0.9140
1988.260268 0.9130 0.9130 0.9130 0.9130 0.9130
1996.275000 0.9130 0.9130 0.9130 0.9130 0.9130
2004.297268 0.9130 0.9130 0.9120 0.9120 0.9120
2012.313000 0.9120 0.9120 0.9110 0.9110 0.9110
2020.335268 0.9110 0.9110 0.9110 0.9100 0.9100
2028.350000 0.9100 0.9090 0.9090 0.9090 0.9090
2036.372268 0.9080 0.9080 0.9070 0.9050 0.9010
2044.387000 0.9000 0.8990 0.8990 0.8980 0.8980
2052.409268 0.8980 0.8970 0.8960 0.8960 0.8960
2060.424000 0.8950 0.8950 0.8940 0.8940 0.8940
2068.446268 0.8940 0.8940 0.8940 0.8940 0.8940
2076.461000 0.8940 0.8940 0.8940 0.8940 0.8940
2084.483268 0.8940 0.8940 0.8940 0.8940 0.8940
2092.499000 0.8940 0.8940 0.8940 0.8940 0.8930
2100.521268 0.8930 0.8930 0.8930 0.8930 0.8930
2108.536000 0.8930 0.8920 0.8920 0.8920 0.8920
2116.558268 0.8920 0.8920 0.8910 0.8900 0.8900
2124.573000 0.8900 0.8900 0.8890 0.8880 0.8880
2132.595268 0.8870 0.8860 0.8860 0.8850 0.8850
2140.611000 0.8840 0.8840 0.8840 0.8840 0.8830
2148.633268 0.8830 0.8830 0.8830 0.8830 0.8830
2156.648000 0.8820 0.8820 0.8820 0.8810 0.8810
2164.670268 0.8810 0.8800 0.8800 0.8790 0.8790
2172.685000 0.8790 0.8790 0.8790 0.8790 0.8790
2180.707268 0.8780 0.8770 0.8770 0.8760 0.8760
2188.722000 0.8750 0.8750 0.8750 0.8740 0.8740
2196.744268 0.8730 0.8720 0.8710 0.8680 0.8670
2204.760000 0.8670 0.8660 0.8650 0.8640 0.8630
2212.782268 0.8620 0.8610 0.8600 0.8600 0.8600
2220.797000 0.8590 0.8580 0.8580 0.8570 0.8570
2228.819268 0.8570 0.8570 0.8570 0.8560 0.8560
2236.834000 0.8560 0.8560 0.8560 0.8560 0.8560
2244.856268 0.8560 0.8560 0.8560 0.8560 0.8560
2252.871000 0.8560 0.8560 0.8560 0.8560 0.8560
2260.893268 0.8560 0.8560 0.8550 0.8550 0.8550
2268.908000 0.8540 0.8540 0.8540 0.8540 0.8530
2276.930268 0.8510 0.8490 0.8490 0.8480 0.8470
2284.946000 0.8460 0.8450 0.8450 0.8450 0.8450
2292.968268 0.8440 0.8440 0.8430 0.8430 0.8430
2300.983000 0.8430 0.8420 0.8420 0.8420 0.8420
2309.005268 0.8410 0.8410 0.8410 0.8410 0.8410
2317.020000 0.8410 0.8410 0.8410 0.8410 0.8410
2325.042268 0.8410 0.8410 0.8410 0.8410 0.8410
2333.057000 0.8400 0.8400 0.8390 0.8370 0.8360
2341.079268 0.8340 0.8330 0.8330 0.8330 0.8330
2349.095000 0.8320 0.8320 0.8320 0.8330 0.8330
2357.117268 0.8330 0.8340 0.8350 0.8350 0.8360
2365.132000 0.8360 0.8370 0.8370 0.8370 0.8370
2373.154268 0.8370 0.8370 0.8370 0.8370 0.8370
2381.169000 0.8370 0.8370 0.8370 0.8370 0.8360
2389.191268 0.8360 0.8350 0.8350 0.8340 0.8340
2397.207000 0.8330 0.8330 0.8330 0.8330 0.8320
2405.229268 0.8320 0.8310 0.8310 0.8300 0.8300
2413.244000 0.8300 0.8300 0.8290 0.8290 0.8280
2421.266268 0.8270 0.8260 0.8260 0.8250 0.8250
2429.281000 0.8240 0.8230 0.8220 0.8220 0.8220
2437.303268 0.8210 0.8190 0.8180 0.8170 0.8150
2445.318000 0.8140 0.8130 0.8120 0.8120 0.8110
2453.340268 0.8110 0.8110 0.8100 0.8100 0.8100
2461.355000 0.8100 0.8090 0.8090 0.8080 0.8080
2469.377268 0.8070 0.8070 0.8070 0.8070 0.8060
2477.393000 0.8050 0.8030 0.8030 0.8030 0.8020
2485.415268 0.8020 0.8010 0.8000 0.8000 0.8000
2493.430000 0.7990 0.7980 0.7970 0.7970 0.7960
2501.452268 0.7960 0.7960 0.7950 0.7950 0.7950
2509.467000 0.7950 0.7950 0.7950 0.7940 0.7940
2517.489268 0.7940 0.7940 0.7940 0.7940 0.7940
2525.504000 0.7940 0.7930 0.7930 0.7920 0.7910
2533.526268 0.7890 0.7880 0.7870 0.7850 0.7830
2541.542000 0.7810 0.7800 0.7780 0.7770 0.7770
2549.564268 0.7760 0.7740 0.7730 0.7720 0.7710
2557.579000 0.7710 0.7710 0.7700 0.7700 0.7690
2565.601268 0.7690 0.7690 0.7690 0.7690 0.7690
2573.616000 0.7670 0.7650 0.7650 0.7630 0.7630
2581.638268 0.7620 0.7620 0.7620 0.7620 0.7610
2589.654000 0.7610 0.7590 0.7580 0.7550 0.7540
2597.676268 0.7530 0.7520 0.7520 0.7520 0.7520
2605.691000 0.7520 0.7510 0.7510 0.7500 0.7500
2613.713268 0.7500 0.7500 0.7500 0.7490 0.7480
2621.728000 0.7470 0.7460 0.7450 0.7430 0.7430
2629.750268 0.7420 0.7400 0.7390 0.7370 0.7350
2637.765000 0.7340 0.7320 0.7310 0.7280 0.7260
2645.787268 0.7240 0.7210 0.7190 0.7170 0.7160
2653.802000 0.7160 0.7150 0.7140 0.7140 0.7140
2661.824268 0.7140 0.7140 0.7140 0.7140 0.7130
2669.840000 0.7130 0.7130 0.7130 0.7130 0.7130
2677.862268 0.7130 0.7130 0.7130 0.7120 0.7120
2685.877000 0.7110 0.7110 0.7100 0.7100 0.7090
2693.899268 0.7080 0.7070 0.7050 0.7040 0.7020
2701.914000 0.7010 0.7000 0.6990 0.6970 0.6950
2709.936268 0.6930 0.6910 0.6890 0.6860 0.6840
2717.951000 0.6810 0.6790 0.6750 0.6740 0.6740
2725.973268 0.6730 0.6730 0.6720 0.6720 0.6720
2733.989000 0.6730 0.6750 0.6760 0.6770 0.6790
2742.011268 0.6790 0.6810 0.6810 0.6830 0.6830
2750.026000 0.6830 0.6850 0.6850 0.6860 0.6860
2758.048268 0.6850 0.6850 0.6840 0.6830 0.6830
2766.063000 0.6790 0.6760 0.6730 0.6710 0.6700
2774.085268 0.6680 0.6670 0.6670 0.6670 0.6660
2782.100000 0.6640 0.6620 0.6600 0.6570 0.6550
2790.122268 0.6520 0.6500 0.6480 0.6450 0.6420
2798.138000 0.6400 0.6370 0.6340 0.6310 0.6290
2806.160268 0.6260 0.6230 0.6210 0.6180 0.6150
2814.175000 0.6130 0.6100 0.6070 0.6050 0.6030
2822.197268 0.6010 0.5990 0.5960 0.5950 0.5930
2830.212000 0.5910 0.5890 0.5880 0.5870 0.5850
2838.234268 0.5820 0.5770 0.5730 0.5640 0.5490
2846.250000 0.5400 0.5360 0.5290 0.5220 0.5150
2854.272268 0.5080 0.5010 0.4940 0.4860 0.4670
2862.287000 0.4520 0.4520 0.4520 0.4590 0.4640
2870.309268 0.4720 0.4810 0.4900 0.4990 0.5050
2878.324000 0.5070 0.5130 0.5160 0.5170 0.5150
2886.346268 0.5130 0.5100 0.5050 0.5000 0.4940
2894.361000 0.4890 0.4850 0.4810 0.4760 0.4700
2902.383268 0.4650 0.4640 0.4640 0.4630 0.4610
2910.398000 0.4600 0.4600 0.4590 0.4580 0.4570
2918.420268 0.4540 0.4520 0.4490 0.4460 0.4430
2926.436000 0.4400 0.4370 0.4340 0.4310 0.4270
2934.458268 0.4240 0.4210 0.4180 0.4150 0.4140
2942.473000 0.4140 0.4150 0.4150 0.4180 0.4180
2950.495268 0.4230 0.4290 0.4350 0.4410 0.4490
2958.510000 0.4560 0.4640 0.4710 0.4790 0.4860
2966.532268 0.4920 0.4970 0.5010 0.5010 0.5160
2974.547000 0.5260 0.5330 0.5370 0.5410 0.5440
2982.569268 0.5490 0.5500 0.5500 0.5490 0.5490
2990.585000 0.5480 0.5450 0.5420 0.5380 0.5340
2998.607268 0.5310 0.5280 0.5240 0.5200 0.5180
3006.622000 0.5160 0.5130 0.5110 0.5080 0.5050
3014.644268 0.5010 0.4970 0.4940 0.4900 0.4860
3022.659000 0.4840 0.4830 0.4820 0.4790 0.4750
3030.681268 0.4710 0.4680 0.4650 0.4620 0.4590
3038.697000 0.4560 0.4520 0.4490 0.4460 0.4430
3046.719268 0.4400 0.4370 0.4340 0.4310 0.4290
3054.734000 0.4260 0.4220 0.4200 0.4170 0.4140
3062.756268 0.4110 0.4080 0.4050 0.4030 0.4000
3070.771000 0.3990 0.3970 0.3940 0.3910 0.3880
3078.793268 0.3850 0.3820 0.3790 0.3760 0.3720
3086.808000 0.3680 0.3650 0.3630 0.3620 0.3600
3094.830268 0.3550 0.3520 0.3490 0.3460 0.3430
3102.845000 0.3400 0.3380 0.3350 0.3330 0.3310
3110.867268 0.3280 0.3260 0.3240 0.3220 0.3200
3118.883000 0.3180 0.3160 0.3140 0.3130 0.3100
3126.905268 0.3080 0.3060 0.3050 0.3050 0.3050
3134.920000 0.3050 0.3050 0.3050 0.3060 0.3060
3142.942268 0.3070 0.3080 0.3090 0.3090 0.3090
3150.957000 0.3110 0.3120 0.3130 0.3140 0.3160
3158.979268 0.3180 0.3200 0.3220 0.3240 0.3260
3166.994000 0.3280 0.3320 0.3340 0.3370 0.3390
3175.016268 0.3430 0.3460 0.3500 0.3530 0.3560
3183.032000 0.3600 0.3640 0.3670 0.3710 0.3750
3191.054268 0.3790 0.3830 0.3880 0.3920 0.4000
3199.069000 0.4040 0.4090 0.4140 0.4180 0.4220
3207.091268 0.4270 0.4320 0.4360 0.4390 0.4400
3215.106000 0.4410 0.4410 0.4420 0.4420 0.4430
3223.128268 0.4440 0.4440 0.4440 0.4420 0.4410
3231.143000 0.4400 0.4380 0.4370 0.4350 0.4350
3239.165268 0.4330 0.4290 0.4250 0.4220 0.4180
3247.181000 0.4150 0.4110 0.4090 0.4060 0.4030
3255.203268 0.4010 0.4000 0.3990 0.3970 0.3950
3263.218000 0.3930 0.3910 0.3890 0.3870 0.3850
3271.240268 0.3840 0.3810 0.3800 0.3770 0.3760
3279.255000 0.3730 0.3710 0.3690 0.3660 0.3630
3287.277268 0.3600 0.3570 0.3540 0.3500 0.3470
3295.292000 0.3420 0.3350 0.3290 0.3240 0.3180
3303.314268 0.3130 0.3090 0.3040 0.2990 0.2940
3311.330000 0.2860 0.2860 0.2780 0.2760 0.2680
3319.352268 0.2670 0.2670 0.2670 0.2680 0.2710
3327.367000 0.2740 0.2770 0.2810 0.2830 0.2900
3335.389268 0.2990 0.3090 0.3190 0.3290 0.3390
3343.404000 0.3500 0.3580 0.3660 0.3730 0.3770
3351.426268 0.3770 0.3770 0.3770 0.3770 0.3740
3359.441000 0.3730 0.3710 0.3650 0.3590 0.3550
3367.463268 0.3520 0.3500 0.3470 0.3460 0.3430
3375.479000 0.3410 0.3380 0.3370 0.3370 0.3380
3383.501268 0.3390 0.3400 0.3410 0.3430 0.3440
3391.516000 0.3460 0.3480 0.3510 0.3540 0.3570
3399.538268 0.3610 0.3650 0.3690 0.3750 0.3810
3407.553000 0.3880 0.4010 0.4090 0.4160 0.4240
3415.575268 0.4320 0.4400 0.4480 0.4560 0.4630
3423.590000 0.4710 0.4780 0.4840 0.4910 0.4980
3431.612268 0.5050 0.5110 0.5160 0.5230 0.5290
3439.628000 0.5350 0.5400 0.5460 0.5510 0.5570
3447.650268 0.5620 0.5670 0.5720 0.5770 0.5810
3455.665000 0.5860 0.5900 0.5950 0.6000 0.6030
3463.687268 0.6070 0.6110 0.6150 0.6190 0.6230
3471.702000 0.6270 0.6300 0.6340 0.6370 0.6410
3479.724268 0.6450 0.6480 0.6510 0.6540 0.6570
3487.739000 0.6600 0.6640 0.6670 0.6690 0.6720
3495.761268 0.6750 0.6790 0.6810 0.6840 0.6860
3503.777000 0.6900 0.6920 0.6950 0.7010 0.7030
3511.799268 0.7060 0.7090 0.7110 0.7140 0.7160
3519.814000 0.7200 0.7220 0.7250 0.7280 0.7310
3527.836268 0.7340 0.7360 0.7390 0.7430 0.7460
3535.851000 0.7480 0.7510 0.7540 0.7550 0.7580
3543.873268 0.7590 0.7620 0.7630 0.7650 0.7660
3551.888000 0.7680 0.7690 0.7710 0.7730 0.7740
3559.910268 0.7760 0.7770 0.7790 0.7810 0.7820
3567.926000 0.7840 0.7870 0.7890 0.7910 0.7910
3575.948268 0.7920 0.7930 0.7950 0.7960 0.7980
3583.963000 0.8000 0.8000 0.8000 0.8030 0.8030
3591.985268 0.8070 0.8100 0.8110 0.8110 0.8130
3600.000000 0.8150 0.8160 0.8200 0.8210 0.8220
3608.022268 0.8220 0.8230 0.8240 0.8250 0.8260
3616.037000 0.8280 0.8290 0.8300 0.8300 0.8310
3624.059268 0.8310 0.8320 0.8330 0.8330 0.8330
3632.075000 0.8330 0.8340 0.8340 0.8350 0.8350
3640.097268 0.8360 0.8370 0.8370 0.8370 0.8370
3648.112000 0.8370 0.8370 0.8370 0.8370 0.8370
3656.134268 0.8370 0.8370 0.8380 0.8380 0.8380
3664.149000 0.8380 0.8380 0.8380 0.8370 0.8370
3672.171268 0.8370 0.8370 0.8370 0.8370 0.8360
3680.186000 0.8360 0.8350 0.8350 0.8350 0.8350
3688.208268 0.8350 0.8350 0.8350 0.8350 0.8360
3696.224000 0.8360 0.8370 0.8370 0.8370 0.8370
3704.246268 0.8370 0.8360 0.8350 0.8340 0.8330
3712.261000 0.8330 0.8330 0.8330 0.8330 0.8330
3720.283268 0.8330 0.8340 0.8340 0.8340 0.8330
3728.298000 0.8330 0.8330 0.8330 0.8320 0.8320
3736.320268 0.8310 0.8300 0.8300 0.8300 0.8300
3744.335000 0.8290 0.8290 0.8290 0.8280 0.8280
3752.357268 0.8270 0.8270 0.8270 0.8270 0.8270
3760.373000 0.8270 0.8270 0.8270 0.8270 0.8270
3768.395268 0.8260 0.8260 0.8260 0.8260 0.8260
3776.410000 0.8260 0.8250 0.8250 0.8250 0.8250
3784.432268 0.8250 0.8250 0.8250 0.8250 0.8250
3792.447000 0.8250 0.8250 0.8250 0.8250 0.8250
3800.469268 0.8240 0.8240 0.8230 0.8230 0.8220
3808.484000 0.8220 0.8220 0.8220
##END=
