##TITLE=Pentachlorophenol sodium salt, hydrate
##JCAMP-DX=4.24
$$ By DXEDIT 1.05 (RS McDonald)
##DATA TYPE=INFRARED SPECTRUM
##CLASS=COBLENTZ II
##ORIGIN=DOW CHEMICAL COMPANY
##OWNER=COPYRIGHT (C) 1988 by COBLENTZ SOCIETY INC.
Collection (C) 2018 copyright by the U.S. Secretary of Commerce
on behalf of the United States of America. All rights reserved.
##DATE=1964/03/05
##MOLFORM=C6 Cl5 O Na  * H2 O
##SOURCE REFERENCE=COBLENTZ NO. 08966
##$NIST ID=B6008966
##$NIST SOURCE=COBLENTZ
##$NIST IMAGE=cob8966
##SPECTROMETER/DATA SYSTEM=DOW KBr FOREPRISM-GRATING
##INSTRUMENT PARAMETERS=BLAZED AT 3.5, 12.0, 20.0 MICRON AND CHANGED AT 5.0, 7.5, 14.9 MICRON
##STATE=SOLID (SPLIT MULL), FLUOROLUBE FOR 3800-1330 CM^-^1, NUJOL FOR 1330-400 CM^-^1
##SAMPLING PROCEDURE=TRANSMISSION
##RESOLUTION=2
##DATA PROCESSING=DIGITIZED BY COBLENTZ SOCIETY (BATCH I) FROM HARD COPY
##XUNITS=1/CM
##YUNITS=TRANSMITTANCE
##XFACTOR=1
##YFACTOR=1
##DELTAX=1
##FIRSTX=3800
##LASTX=402
##FIRSTY=0.5869
##MAXX=3800
##MINX=402
##MAXY=0.8717
##MINY=0.1508
##NPOINTS=3399
##XYDATA=(X++(Y..Y))
3800.000000 0.5869 0.5869 0.5869 0.5868 0.5867
3795.000000 0.5866 0.5865 0.5864 0.5862 0.5862
3790.000000 0.5862 0.5862 0.5864 0.5866 0.5869
3785.000000 0.5871 0.5873 0.5875 0.5877 0.5878
3780.000000 0.5880 0.5881 0.5883 0.5884 0.5886
3775.000000 0.5888 0.5890 0.5891 0.5893 0.5895
3770.000000 0.5898 0.5901 0.5904 0.5907 0.5910
3765.000000 0.5912 0.5916 0.5919 0.5923 0.5928
3760.000000 0.5933 0.5938 0.5943 0.5948 0.5953
3755.000000 0.5959 0.5965 0.5972 0.5979 0.5986
3750.000000 0.5993 0.6000 0.6007 0.6012 0.6017
3745.000000 0.6022 0.6027 0.6031 0.6036 0.6040
3740.000000 0.6045 0.6048 0.6051 0.6052 0.6054
3735.000000 0.6055 0.6056 0.6057 0.6059 0.6060
3730.000000 0.6060 0.6060 0.6059 0.6058 0.6057
3725.000000 0.6055 0.6054 0.6054 0.6054 0.6054
3720.000000 0.6055 0.6055 0.6056 0.6058 0.6060
3715.000000 0.6064 0.6068 0.6077 0.6086 0.6095
3710.000000 0.6104 0.6112 0.6122 0.6131 0.6141
3705.000000 0.6150 0.6159 0.6168 0.6177 0.6186
3700.000000 0.6196 0.6205 0.6214 0.6222 0.6230
3695.000000 0.6238 0.6247 0.6255 0.6262 0.6271
3690.000000 0.6279 0.6287 0.6295 0.6303 0.6310
3685.000000 0.6319 0.6327 0.6335 0.6343 0.6351
3680.000000 0.6360 0.6364 0.6368 0.6371 0.6371
3675.000000 0.6374 0.6374 0.6372 0.6371 0.6354
3670.000000 0.6337 0.6290 0.6243 0.6208 0.6173
3665.000000 0.6137 0.6101 0.5888 0.5676 0.4619
3660.000000 0.3562 0.3266 0.2968 0.2981 0.2994
3655.000000 0.3101 0.3208 0.3314 0.3422 0.3528
3650.000000 0.3634 0.3742 0.3849 0.3956 0.4062
3645.000000 0.4169 0.4276 0.4383 0.4490 0.4596
3640.000000 0.4703 0.4788 0.4874 0.4904 0.4934
3635.000000 0.4966 0.4998 0.5041 0.5084 0.5117
3630.000000 0.5151 0.5172 0.5194 0.5215 0.5236
3625.000000 0.5257 0.5279 0.5298 0.5318 0.5336
3620.000000 0.5354 0.5372 0.5390 0.5407 0.5424
3615.000000 0.5440 0.5457 0.5474 0.5491 0.5507
3610.000000 0.5523 0.5539 0.5555 0.5569 0.5584
3605.000000 0.5595 0.5607 0.5618 0.5630 0.5640
3600.000000 0.5651 0.5654 0.5658 0.5662 0.5675
3595.000000 0.5668 0.5669 0.5670 0.5670 0.5669
3590.000000 0.5669 0.5668 0.5667 0.5659 0.5652
3585.000000 0.5644 0.5636 0.5618 0.5600 0.5576
3580.000000 0.5552 0.5439 0.5327 0.5155 0.4984
3575.000000 0.4812 0.4642 0.4502 0.4341 0.4374
3570.000000 0.4385 0.4467 0.4549 0.4630 0.4712
3565.000000 0.4794 0.4876 0.4967 0.5059 0.5185
3560.000000 0.5312 0.5375 0.5438 0.5462 0.5489
3555.000000 0.5506 0.5523 0.5537 0.5551 0.5562
3550.000000 0.5575 0.5584 0.5594 0.5601 0.5608
3545.000000 0.5614 0.5620 0.5626 0.5632 0.5638
3540.000000 0.5644 0.5650 0.5656 0.5662 0.5669
3535.000000 0.5675 0.5681 0.5685 0.5689 0.5693
3530.000000 0.5697 0.5700 0.5704 0.5708 0.5712
3525.000000 0.5715 0.5719 0.5723 0.5727 0.5730
3520.000000 0.5734 0.5738 0.5742 0.5744 0.5746
3515.000000 0.5746 0.5746 0.5746 0.5747 0.5747
3510.000000 0.5748 0.5748 0.5749 0.5749 0.5749
3505.000000 0.5749 0.5750 0.5750 0.5751 0.5751
3500.000000 0.5752 0.5752 0.5752 0.5752 0.5753
3495.000000 0.5753 0.5754 0.5754 0.5754 0.5754
3490.000000 0.5755 0.5756 0.5758 0.5759 0.5760
3485.000000 0.5760 0.5762 0.5764 0.5766 0.5767
3480.000000 0.5768 0.5769 0.5771 0.5772 0.5773
3475.000000 0.5774 0.5776 0.5777 0.5779 0.5780
3470.000000 0.5781 0.5782 0.5784 0.5785 0.5786
3465.000000 0.5787 0.5789 0.5790 0.5792 0.5793
3460.000000 0.5794 0.5795 0.5796 0.5797 0.5799
3455.000000 0.5800 0.5801 0.5802 0.5803 0.5804
3450.000000 0.5806 0.5807 0.5808 0.5809 0.5810
3445.000000 0.5810 0.5812 0.5814 0.5815 0.5816
3440.000000 0.5817 0.5818 0.5820 0.5821 0.5822
3435.000000 0.5823 0.5824 0.5825 0.5827 0.5828
3430.000000 0.5829 0.5830 0.5831 0.5832 0.5834
3425.000000 0.5835 0.5836 0.5837 0.5838 0.5839
3420.000000 0.5841 0.5842 0.5843 0.5844 0.5845
3415.000000 0.5846 0.5848 0.5850 0.5852 0.5853
3410.000000 0.5855 0.5857 0.5859 0.5860 0.5862
3405.000000 0.5864 0.5866 0.5867 0.5869 0.5871
3400.000000 0.5873 0.5874 0.5876 0.5878 0.5880
3395.000000 0.5881 0.5883 0.5885 0.5887 0.5889
3390.000000 0.5891 0.5892 0.5894 0.5896 0.5898
3385.000000 0.5899 0.5901 0.5903 0.5905 0.5906
3380.000000 0.5908 0.5910 0.5912 0.5912 0.5915
3375.000000 0.5917 0.5919 0.5921 0.5923 0.5924
3370.000000 0.5926 0.5928 0.5930 0.5931 0.5933
3365.000000 0.5935 0.5937 0.5938 0.5940 0.5942
3360.000000 0.5944 0.5945 0.5947 0.5949 0.5951
3355.000000 0.5952 0.5954 0.5955 0.5957 0.5959
3350.000000 0.5960 0.5962 0.5964 0.5965 0.5967
3345.000000 0.5969 0.5971 0.5972 0.5974 0.5976
3340.000000 0.5978 0.5979 0.5981 0.5982 0.5984
3335.000000 0.5986 0.5988 0.5989 0.5991 0.5993
3330.000000 0.5995 0.5996 0.5998 0.5999 0.6001
3325.000000 0.6003 0.6005 0.6006 0.6008 0.6009
3320.000000 0.6010 0.6012 0.6015 0.6016 0.6018
3315.000000 0.6020 0.6022 0.6023 0.6025 0.6026
3310.000000 0.6028 0.6030 0.6032 0.6033 0.6035
3305.000000 0.6036 0.6038 0.6040 0.6042 0.6043
3300.000000 0.6045 0.6047 0.6049 0.6051 0.6053
3295.000000 0.6054 0.6056 0.6058 0.6060 0.6062
3290.000000 0.6064 0.6066 0.6068 0.6070 0.6072
3285.000000 0.6073 0.6075 0.6077 0.6079 0.6081
3280.000000 0.6083 0.6085 0.6087 0.6089 0.6091
3275.000000 0.6092 0.6094 0.6096 0.6098 0.6100
3270.000000 0.6102 0.6104 0.6106 0.6108 0.6110
3265.000000 0.6110 0.6112 0.6115 0.6117 0.6119
3260.000000 0.6121 0.6123 0.6125 0.6127 0.6129
3255.000000 0.6130 0.6132 0.6134 0.6136 0.6138
3250.000000 0.6140 0.6142 0.6144 0.6146 0.6148
3245.000000 0.6149 0.6151 0.6153 0.6155 0.6157
3240.000000 0.6159 0.6160 0.6162 0.6165 0.6167
3235.000000 0.6169 0.6171 0.6173 0.6175 0.6177
3230.000000 0.6179 0.6181 0.6183 0.6185 0.6187
3225.000000 0.6189 0.6191 0.6193 0.6195 0.6197
3220.000000 0.6199 0.6201 0.6203 0.6205 0.6207
3215.000000 0.6209 0.6210 0.6212 0.6215 0.6217
3210.000000 0.6219 0.6221 0.6223 0.6225 0.6227
3205.000000 0.6229 0.6231 0.6233 0.6235 0.6237
3200.000000 0.6239 0.6241 0.6243 0.6245 0.6247
3195.000000 0.6249 0.6251 0.6253 0.6255 0.6257
3190.000000 0.6259 0.6260 0.6262 0.6264 0.6266
3185.000000 0.6267 0.6269 0.6270 0.6272 0.6273
3180.000000 0.6274 0.6275 0.6277 0.6278 0.6280
3175.000000 0.6281 0.6283 0.6284 0.6286 0.6287
3170.000000 0.6289 0.6290 0.6291 0.6292 0.6294
3165.000000 0.6295 0.6297 0.6298 0.6300 0.6301
3160.000000 0.6303 0.6304 0.6305 0.6306 0.6308
3155.000000 0.6309 0.6310 0.6312 0.6314 0.6315
3150.000000 0.6317 0.6318 0.6320 0.6321 0.6322
3145.000000 0.6323 0.6325 0.6326 0.6328 0.6329
3140.000000 0.6331 0.6332 0.6334 0.6335 0.6337
3135.000000 0.6338 0.6340 0.6341 0.6343 0.6344
3130.000000 0.6346 0.6347 0.6349 0.6350 0.6352
3125.000000 0.6353 0.6355 0.6356 0.6358 0.6359
3120.000000 0.6360 0.6362 0.6364 0.6365 0.6367
3115.000000 0.6368 0.6370 0.6371 0.6373 0.6374
3110.000000 0.6376 0.6377 0.6379 0.6380 0.6382
3105.000000 0.6383 0.6385 0.6386 0.6388 0.6390
3100.000000 0.6392 0.6393 0.6395 0.6397 0.6399
3095.000000 0.6400 0.6401 0.6404 0.6406 0.6407
3090.000000 0.6408 0.6411 0.6412 0.6414 0.6415
3085.000000 0.6418 0.6419 0.6421 0.6424 0.6425
3080.000000 0.6428 0.6430 0.6433 0.6435 0.6437
3075.000000 0.6439 0.6442 0.6446 0.6451 0.6455
3070.000000 0.6460 0.6465 0.6469 0.6474 0.6478
3065.000000 0.6484 0.6489 0.6492 0.6495 0.6497
3060.000000 0.6499 0.6500 0.6501 0.6504 0.6506
3055.000000 0.6507 0.6508 0.6511 0.6512 0.6514
3050.000000 0.6515 0.6518 0.6519 0.6521 0.6522
3045.000000 0.6525 0.6526 0.6528 0.6530 0.6530
3040.000000 0.6531 0.6532 0.6533 0.6534 0.6535
3035.000000 0.6535 0.6536 0.6537 0.6538 0.6539
3030.000000 0.6540 0.6540 0.6541 0.6542 0.6543
3025.000000 0.6543 0.6544 0.6545 0.6546 0.6547
3020.000000 0.6548 0.6548 0.6549 0.6550 0.6551
3015.000000 0.6551 0.6553 0.6553 0.6554 0.6555
3010.000000 0.6556 0.6556 0.6557 0.6558 0.6558
3005.000000 0.6558 0.6560 0.6560 0.6561 0.6561
3000.000000 0.6562 0.6562 0.6564 0.6565 0.6565
2995.000000 0.6567 0.6568 0.6568 0.6571 0.6571
2990.000000 0.6572 0.6574 0.6575 0.6575 0.6578
2985.000000 0.6578 0.6580 0.6581 0.6583 0.6584
2980.000000 0.6585 0.6586 0.6587 0.6588 0.6590
2975.000000 0.6591 0.6592 0.6593 0.6594 0.6594
2970.000000 0.6595 0.6596 0.6597 0.6597 0.6598
2965.000000 0.6598 0.6599 0.6600 0.6601 0.6601
2960.000000 0.6601 0.6603 0.6604 0.6604 0.6605
2955.000000 0.6605 0.6606 0.6607 0.6608 0.6610
2950.000000 0.6611 0.6612 0.6615 0.6615 0.6618
2945.000000 0.6618 0.6619 0.6621 0.6622 0.6624
2940.000000 0.6625 0.6626 0.6628 0.6630 0.6632
2935.000000 0.6633 0.6635 0.6638 0.6641 0.6644
2930.000000 0.6648 0.6651 0.6654 0.6657 0.6661
2925.000000 0.6664 0.6668 0.6671 0.6674 0.6676
2920.000000 0.6681 0.6684 0.6688 0.6691 0.6694
2915.000000 0.6697 0.6701 0.6704 0.6708 0.6708
2910.000000 0.6711 0.6711 0.6714 0.6715 0.6717
2905.000000 0.6718 0.6719 0.6721 0.6722 0.6724
2900.000000 0.6725 0.6728 0.6730 0.6731 0.6733
2895.000000 0.6734 0.6736 0.6737 0.6739 0.6740
2890.000000 0.6742 0.6743 0.6745 0.6746 0.6748
2885.000000 0.6749 0.6751 0.6753 0.6755 0.6756
2880.000000 0.6757 0.6758 0.6760 0.6761 0.6761
2875.000000 0.6762 0.6765 0.6765 0.6767 0.6768
2870.000000 0.6769 0.6771 0.6772 0.6775 0.6778
2865.000000 0.6780 0.6782 0.6784 0.6787 0.6789
2860.000000 0.6791 0.6793 0.6796 0.6798 0.6801
2855.000000 0.6803 0.6805 0.6807 0.6810 0.6811
2850.000000 0.6815 0.6817 0.6819 0.6821 0.6824
2845.000000 0.6825 0.6828 0.6831 0.6834 0.6836
2840.000000 0.6839 0.6841 0.6843 0.6845 0.6848
2835.000000 0.6850 0.6853 0.6855 0.6858 0.6860
2830.000000 0.6861 0.6864 0.6867 0.6868 0.6871
2825.000000 0.6874 0.6875 0.6878 0.6881 0.6883
2820.000000 0.6886 0.6888 0.6891 0.6893 0.6895
2815.000000 0.6897 0.6900 0.6901 0.6905 0.6907
2810.000000 0.6908 0.6911 0.6914 0.6915 0.6918
2805.000000 0.6921 0.6924 0.6925 0.6928 0.6930
2800.000000 0.6933 0.6935 0.6938 0.6940 0.6942
2795.000000 0.6944 0.6947 0.6949 0.6951 0.6951
2790.000000 0.6954 0.6955 0.6957 0.6958 0.6960
2785.000000 0.6961 0.6962 0.6964 0.6965 0.6967
2780.000000 0.6968 0.6969 0.6971 0.6972 0.6975
2775.000000 0.6975 0.6978 0.6980 0.6982 0.6983
2770.000000 0.6985 0.6986 0.6988 0.6989 0.6991
2765.000000 0.6992 0.6994 0.6995 0.6997 0.6998
2760.000000 0.7000 0.7001 0.7003 0.7004 0.7006
2755.000000 0.7007 0.7008 0.7010 0.7011 0.7012
2750.000000 0.7015 0.7015 0.7018 0.7019 0.7021
2745.000000 0.7022 0.7025 0.7025 0.7028 0.7028
2740.000000 0.7030 0.7031 0.7033 0.7034 0.7036
2735.000000 0.7037 0.7039 0.7040 0.7042 0.7043
2730.000000 0.7045 0.7046 0.7048 0.7049 0.7051
2725.000000 0.7051 0.7054 0.7055 0.7057 0.7058
2720.000000 0.7060 0.7061 0.7062 0.7064 0.7065
2715.000000 0.7067 0.7068 0.7069 0.7071 0.7072
2710.000000 0.7074 0.7075 0.7076 0.7078 0.7080
2705.000000 0.7081 0.7082 0.7083 0.7084 0.7085
2700.000000 0.7087 0.7088 0.7089 0.7090 0.7091
2695.000000 0.7092 0.7093 0.7094 0.7096 0.7097
2690.000000 0.7098 0.7099 0.7100 0.7101 0.7103
2685.000000 0.7104 0.7105 0.7106 0.7107 0.7108
2680.000000 0.7108 0.7110 0.7111 0.7112 0.7114
2675.000000 0.7115 0.7115 0.7117 0.7118 0.7118
2670.000000 0.7121 0.7121 0.7122 0.7125 0.7126
2665.000000 0.7128 0.7131 0.7133 0.7135 0.7137
2660.000000 0.7139 0.7140 0.7142 0.7144 0.7146
2655.000000 0.7148 0.7150 0.7151 0.7154 0.7156
2650.000000 0.7158 0.7160 0.7161 0.7164 0.7165
2645.000000 0.7168 0.7169 0.7171 0.7174 0.7175
2640.000000 0.7178 0.7180 0.7182 0.7184 0.7186
2635.000000 0.7188 0.7190 0.7191 0.7193 0.7195
2630.000000 0.7197 0.7199 0.7201 0.7203 0.7205
2625.000000 0.7206 0.7207 0.7208 0.7210 0.7211
2620.000000 0.7212 0.7214 0.7215 0.7217 0.7218
2615.000000 0.7219 0.7221 0.7222 0.7225 0.7225
2610.000000 0.7228 0.7228 0.7230 0.7231 0.7233
2605.000000 0.7234 0.7236 0.7237 0.7239 0.7240
2600.000000 0.7242 0.7243 0.7245 0.7246 0.7248
2595.000000 0.7249 0.7251 0.7251 0.7253 0.7254
2590.000000 0.7256 0.7257 0.7258 0.7261 0.7262
2585.000000 0.7265 0.7267 0.7268 0.7271 0.7274
2580.000000 0.7275 0.7278 0.7280 0.7282 0.7284
2575.000000 0.7286 0.7289 0.7291 0.7293 0.7295
2570.000000 0.7297 0.7299 0.7301 0.7303 0.7305
2565.000000 0.7307 0.7310 0.7311 0.7311 0.7312
2560.000000 0.7315 0.7315 0.7318 0.7318 0.7321
2555.000000 0.7321 0.7322 0.7324 0.7325 0.7326
2550.000000 0.7328 0.7330 0.7331 0.7332 0.7334
2545.000000 0.7335 0.7337 0.7338 0.7339 0.7340
2540.000000 0.7341 0.7342 0.7344 0.7345 0.7346
2535.000000 0.7347 0.7348 0.7349 0.7350 0.7351
2530.000000 0.7353 0.7354 0.7355 0.7356 0.7357
2525.000000 0.7358 0.7358 0.7360 0.7361 0.7361
2520.000000 0.7362 0.7362 0.7364 0.7365 0.7365
2515.000000 0.7365 0.7367 0.7367 0.7368 0.7368
2510.000000 0.7368 0.7368 0.7369 0.7369 0.7371
2505.000000 0.7371 0.7371 0.7371 0.7372 0.7372
2500.000000 0.7374 0.7374 0.7375 0.7375 0.7375
2495.000000 0.7375 0.7376 0.7376 0.7378 0.7378
2490.000000 0.7378 0.7378 0.7378 0.7378 0.7380
2485.000000 0.7380 0.7380 0.7380 0.7381 0.7381
2480.000000 0.7382 0.7382 0.7382 0.7382 0.7383
2475.000000 0.7383 0.7383 0.7383 0.7384 0.7384
2470.000000 0.7384 0.7384 0.7384 0.7384 0.7385
2465.000000 0.7385 0.7385 0.7385 0.7385 0.7385
2460.000000 0.7386 0.7386 0.7386 0.7385 0.7385
2455.000000 0.7384 0.7384 0.7383 0.7383 0.7382
2450.000000 0.7382 0.7378 0.7375 0.7371 0.7368
2445.000000 0.7364 0.7361 0.7355 0.7350 0.7344
2440.000000 0.7339 0.7333 0.7328 0.7322 0.7318
2435.000000 0.7315 0.7311 0.7307 0.7303 0.7299
2430.000000 0.7295 0.7292 0.7289 0.7286 0.7284
2425.000000 0.7282 0.7281 0.7280 0.7278 0.7278
2420.000000 0.7278 0.7280 0.7282 0.7283 0.7285
2415.000000 0.7287 0.7289 0.7292 0.7296 0.7300
2410.000000 0.7304 0.7307 0.7311 0.7314 0.7317
2405.000000 0.7319 0.7322 0.7324 0.7325 0.7326
2400.000000 0.7328 0.7328 0.7328 0.7330 0.7331
2395.000000 0.7332 0.7333 0.7334 0.7336 0.7337
2390.000000 0.7338 0.7339 0.7340 0.7341 0.7343
2385.000000 0.7344 0.7345 0.7345 0.7346 0.7346
2380.000000 0.7346 0.7345 0.7345 0.7345 0.7345
2375.000000 0.7345 0.7346 0.7346 0.7347 0.7347
2370.000000 0.7348 0.7348 0.7349 0.7349 0.7350
2365.000000 0.7350 0.7351 0.7351 0.7351 0.7351
2360.000000 0.7353 0.7353 0.7354 0.7354 0.7355
2355.000000 0.7355 0.7355 0.7354 0.7354 0.7353
2350.000000 0.7353 0.7351 0.7351 0.7351 0.7351
2345.000000 0.7351 0.7351 0.7351 0.7351 0.7351
2340.000000 0.7351 0.7351 0.7351 0.7351 0.7351
2335.000000 0.7351 0.7353 0.7354 0.7356 0.7357
2330.000000 0.7358 0.7360 0.7361 0.7362 0.7365
2325.000000 0.7367 0.7368 0.7369 0.7371 0.7372
2320.000000 0.7375 0.7375 0.7378 0.7378 0.7381
2315.000000 0.7382 0.7384 0.7386 0.7388 0.7389
2310.000000 0.7391 0.7393 0.7408 0.7398 0.7401
2305.000000 0.7403 0.7406 0.7408 0.7411 0.7412
2300.000000 0.7415 0.7418 0.7421 0.7422 0.7425
2295.000000 0.7428 0.7431 0.7433 0.7436 0.7438
2290.000000 0.7441 0.7443 0.7446 0.7448 0.7451
2285.000000 0.7454 0.7457 0.7460 0.7464 0.7467
2280.000000 0.7471 0.7474 0.7478 0.7481 0.7485
2275.000000 0.7488 0.7492 0.7495 0.7499 0.7501
2270.000000 0.7506 0.7510 0.7514 0.7517 0.7521
2265.000000 0.7525 0.7528 0.7532 0.7536 0.7540
2260.000000 0.7544 0.7548 0.7551 0.7555 0.7558
2255.000000 0.7562 0.7568 0.7572 0.7578 0.7584
2250.000000 0.7590 0.7595 0.7601 0.7606 0.7611
2245.000000 0.7617 0.7622 0.7630 0.7637 0.7644
2240.000000 0.7651 0.7657 0.7664 0.7671 0.7678
2235.000000 0.7685 0.7692 0.7698 0.7705 0.7711
2230.000000 0.7718 0.7725 0.7733 0.7740 0.7747
2225.000000 0.7753 0.7758 0.7765 0.7771 0.7776
2220.000000 0.7783 0.7788 0.7794 0.7800 0.7806
2215.000000 0.7811 0.7817 0.7819 0.7824 0.7826
2210.000000 0.7831 0.7833 0.7835 0.7836 0.7837
2205.000000 0.7837 0.7838 0.7838 0.7839 0.7840
2200.000000 0.7841 0.7841 0.7842 0.7843 0.7844
2195.000000 0.7844 0.7845 0.7846 0.7848 0.7849
2190.000000 0.7851 0.7851 0.7854 0.7855 0.7857
2185.000000 0.7858 0.7860 0.7861 0.7862 0.7864
2180.000000 0.7865 0.7867 0.7868 0.7869 0.7871
2175.000000 0.7874 0.7875 0.7878 0.7881 0.7883
2170.000000 0.7886 0.7888 0.7891 0.7893 0.7896
2165.000000 0.7899 0.7901 0.7904 0.7907 0.7908
2160.000000 0.7911 0.7914 0.7917 0.7918 0.7921
2155.000000 0.7924 0.7926 0.7928 0.7932 0.7934
2150.000000 0.7937 0.7939 0.7941 0.7943 0.7946
2145.000000 0.7948 0.7951 0.7953 0.7955 0.7957
2140.000000 0.7960 0.7961 0.7964 0.7965 0.7968
2135.000000 0.7971 0.7974 0.7975 0.7978 0.7980
2130.000000 0.7983 0.7985 0.7987 0.7988 0.7990
2125.000000 0.7992 0.7994 0.7996 0.7998 0.8000
2120.000000 0.8001 0.8004 0.8006 0.8007 0.8008
2115.000000 0.8011 0.8012 0.8015 0.8017 0.8018
2110.000000 0.8021 0.8021 0.8024 0.8025 0.8028
2105.000000 0.8030 0.8032 0.8034 0.8036 0.8038
2100.000000 0.8040 0.8041 0.8043 0.8045 0.8048
2095.000000 0.8050 0.8051 0.8054 0.8057 0.8058
2090.000000 0.8061 0.8064 0.8065 0.8068 0.8071
2085.000000 0.8072 0.8075 0.8076 0.8080 0.8082
2080.000000 0.8084 0.8086 0.8089 0.8091 0.8093
2075.000000 0.8095 0.8098 0.8100 0.8101 0.8104
2070.000000 0.8107 0.8108 0.8111 0.8112 0.8115
2065.000000 0.8118 0.8121 0.8124 0.8126 0.8128
2060.000000 0.8132 0.8135 0.8138 0.8140 0.8143
2055.000000 0.8145 0.8148 0.8151 0.8154 0.8156
2050.000000 0.8158 0.8161 0.8164 0.8165 0.8168
2045.000000 0.8168 0.8171 0.8172 0.8175 0.8176
2040.000000 0.8178 0.8180 0.8182 0.8183 0.8185
2035.000000 0.8186 0.8187 0.8188 0.8190 0.8193
2030.000000 0.8196 0.8201 0.8207 0.8213 0.8218
2025.000000 0.8225 0.8231 0.8235 0.8239 0.8243
2020.000000 0.8248 0.8252 0.8257 0.8258 0.8260
2015.000000 0.8261 0.8263 0.8264 0.8266 0.8268
2010.000000 0.8270 0.8271 0.8273 0.8274 0.8275
2005.000000 0.8277 0.8278 0.8281 0.8283 0.8286
2000.000000 0.8289 0.8292 0.8295 0.8298 0.8301
1995.000000 0.8303 0.8306 0.8308 0.8311 0.8313
1990.000000 0.8316 0.8318 0.8321 0.8324 0.8325
1985.000000 0.8328 0.8331 0.8334 0.8337 0.8339
1980.000000 0.8342 0.8343 0.8345 0.8347 0.8348
1975.000000 0.8350 0.8352 0.8353 0.8355 0.8356
1970.000000 0.8358 0.8360 0.8361 0.8363 0.8364
1965.000000 0.8366 0.8368 0.8368 0.8371 0.8371
1960.000000 0.8374 0.8375 0.8377 0.8378 0.8380
1955.000000 0.8382 0.8384 0.8385 0.8387 0.8388
1950.000000 0.8389 0.8391 0.8392 0.8394 0.8395
1945.000000 0.8396 0.8398 0.8399 0.8401 0.8402
1940.000000 0.8403 0.8405 0.8407 0.8409 0.8412
1935.000000 0.8414 0.8416 0.8418 0.8421 0.8421
1930.000000 0.8421 0.8421 0.8420 0.8420 0.8418
1925.000000 0.8418 0.8418 0.8417 0.8415 0.8412
1920.000000 0.8410 0.8408 0.8406 0.8406 0.8406
1915.000000 0.8406 0.8406 0.8405 0.8403 0.8402
1910.000000 0.8402 0.8401 0.8401 0.8400 0.8400
1905.000000 0.8400 0.8399 0.8399 0.8398 0.8398
1900.000000 0.8398 0.8397 0.8397 0.8399 0.8401
1895.000000 0.8404 0.8407 0.8410 0.8412 0.8415
1890.000000 0.8418 0.8421 0.8423 0.8425 0.8428
1885.000000 0.8430 0.8432 0.8434 0.8435 0.8437
1880.000000 0.8438 0.8440 0.8441 0.8443 0.8445
1875.000000 0.8446 0.8448 0.8449 0.8451 0.8452
1870.000000 0.8454 0.8456 0.8457 0.8459 0.8461
1865.000000 0.8463 0.8465 0.8467 0.8468 0.8471
1860.000000 0.8473 0.8475 0.8477 0.8478 0.8481
1855.000000 0.8483 0.8485 0.8487 0.8489 0.8491
1850.000000 0.8493 0.8495 0.8497 0.8499 0.8501
1845.000000 0.8502 0.8504 0.8505 0.8507 0.8508
1840.000000 0.8510 0.8511 0.8513 0.8514 0.8516
1835.000000 0.8517 0.8518 0.8520 0.8521 0.8523
1830.000000 0.8525 0.8525 0.8528 0.8528 0.8530
1825.000000 0.8531 0.8531 0.8531 0.8531 0.8531
1820.000000 0.8531 0.8532 0.8532 0.8532 0.8532
1815.000000 0.8532 0.8533 0.8533 0.8533 0.8533
1810.000000 0.8533 0.8533 0.8534 0.8534 0.8534
1805.000000 0.8534 0.8534 0.8535 0.8535 0.8535
1800.000000 0.8535 0.8536 0.8537 0.8538 0.8539
1795.000000 0.8540 0.8541 0.8542 0.8543 0.8544
1790.000000 0.8545 0.8546 0.8546 0.8546 0.8547
1785.000000 0.8547 0.8547 0.8548 0.8548 0.8549
1780.000000 0.8549 0.8549 0.8550 0.8550 0.8550
1775.000000 0.8551 0.8552 0.8554 0.8556 0.8559
1770.000000 0.8561 0.8563 0.8566 0.8568 0.8570
1765.000000 0.8573 0.8575 0.8577 0.8580 0.8582
1760.000000 0.8585 0.8588 0.8591 0.8593 0.8596
1755.000000 0.8599 0.8602 0.8604 0.8606 0.8607
1750.000000 0.8608 0.8609 0.8610 0.8611 0.8613
1745.000000 0.8614 0.8615 0.8616 0.8617 0.8618
1740.000000 0.8618 0.8620 0.8621 0.8621 0.8623
1735.000000 0.8624 0.8624 0.8623 0.8621 0.8618
1730.000000 0.8618 0.8618 0.8621 0.8623 0.8625
1725.000000 0.8632 0.8638 0.8644 0.8650 0.8655
1720.000000 0.8661 0.8667 0.8671 0.8670 0.8668
1715.000000 0.8668 0.8667 0.8666 0.8665 0.8663
1710.000000 0.8662 0.8660 0.8659 0.8658 0.8656
1705.000000 0.8656 0.8656 0.8656 0.8656 0.8657
1700.000000 0.8657 0.8657 0.8658 0.8658 0.8658
1695.000000 0.8659 0.8659 0.8659 0.8660 0.8660
1690.000000 0.8660 0.8661 0.8661 0.8661 0.8662
1685.000000 0.8662 0.8662 0.8663 0.8663 0.8663
1680.000000 0.8664 0.8664 0.8664 0.8665 0.8665
1675.000000 0.8665 0.8666 0.8666 0.8666 0.8667
1670.000000 0.8668 0.8668 0.8668 0.8670 0.8671
1665.000000 0.8671 0.8673 0.8673 0.8673 0.8673
1660.000000 0.8668 0.8663 0.8658 0.8653 0.8649
1655.000000 0.8645 0.8643 0.8640 0.8637 0.8633
1650.000000 0.8628 0.8625 0.8621 0.8617 0.8615
1645.000000 0.8613 0.8611 0.8610 0.8608 0.8607
1640.000000 0.8607 0.8607 0.8609 0.8610 0.8612
1635.000000 0.8614 0.8614 0.8614 0.8612 0.8610
1630.000000 0.8608 0.8604 0.8599 0.8594 0.8587
1625.000000 0.8578 0.8568 0.8553 0.8530 0.8507
1620.000000 0.8453 0.8375 0.8312 0.8248 0.8192
1615.000000 0.8139 0.8087 0.8034 0.7826 0.7315
1610.000000 0.6804 0.6293 0.5782 0.5271 0.4760
1605.000000 0.4249 0.4098 0.4098 0.4376 0.4856
1600.000000 0.5335 0.5815 0.6455 0.7107 0.7378
1595.000000 0.7534 0.7640 0.7740 0.7835 0.7892
1590.000000 0.7938 0.7983 0.8017 0.8047 0.8081
1585.000000 0.8119 0.8158 0.8197 0.8233 0.8267
1580.000000 0.8302 0.8337 0.8371 0.8402 0.8428
1575.000000 0.8455 0.8482 0.8506 0.8527 0.8549
1570.000000 0.8570 0.8592 0.8614 0.8636 0.8653
1565.000000 0.8667 0.8677 0.8686 0.8691 0.8694
1560.000000 0.8697 0.8708 0.8708 0.8708 0.8712
1555.000000 0.8717 0.8715 0.8708 0.8698 0.8673
1550.000000 0.8649 0.8620 0.8547 0.8465 0.8044
1545.000000 0.7791 0.7367 0.7261 0.7164 0.6461
1540.000000 0.4504 0.4505 0.4536 0.4621 0.4871
1535.000000 0.5151 0.5340 0.5470 0.5576 0.6131
1530.000000 0.6451 0.6774 0.7095 0.7294 0.7388
1525.000000 0.7580 0.7676 0.7772 0.7883 0.7942
1520.000000 0.7998 0.8032 0.8058 0.8074 0.8088
1515.000000 0.8099 0.8108 0.8108 0.8108 0.8108
1510.000000 0.8115 0.8172 0.8250 0.8296 0.8324
1505.000000 0.8342 0.8353 0.8364 0.8368 0.8360
1500.000000 0.8370 0.8363 0.8328 0.8268 0.8156
1495.000000 0.8018 0.7882 0.7745 0.7586 0.7597
1490.000000 0.7624 0.7681 0.7771 0.7835 0.7894
1485.000000 0.7961 0.8034 0.8103 0.8151 0.8175
1480.000000 0.8199 0.8210 0.8221 0.8243 0.8242
1475.000000 0.8241 0.8237 0.8234 0.8221 0.8197
1470.000000 0.8160 0.8105 0.8012 0.7735 0.7392
1465.000000 0.7518 0.7640 0.7745 0.7722 0.7743
1460.000000 0.7734 0.7655 0.7218 0.7130 0.7056
1455.000000 0.7000 0.6944 0.6886 0.6819 0.6747
1450.000000 0.6441 0.6041 0.5641 0.5240 0.4840
1445.000000 0.4439 0.4039 0.3449 0.2896 0.2343
1440.000000 0.1791 0.1743 0.1742 0.1742 0.1732
1435.000000 0.1610 0.1559 0.1527 0.1508 0.1514
1430.000000 0.1552 0.1673 0.2048 0.2450 0.2851
1425.000000 0.3253 0.3655 0.4057 0.4496 0.4946
1420.000000 0.5226 0.5336 0.5472 0.5620 0.5762
1415.000000 0.5859 0.5946 0.6030 0.6109 0.6172
1410.000000 0.6235 0.6316 0.6389 0.6430 0.6450
1405.000000 0.6461 0.6469 0.6406 0.6329 0.6324
1400.000000 0.6368 0.6465 0.6564 0.6661 0.6757
1395.000000 0.6787 0.6818 0.6835 0.6846 0.6856
1390.000000 0.6865 0.6875 0.6885 0.6894 0.6904
1385.000000 0.6912 0.6924 0.6935 0.6946 0.6956
1380.000000 0.6967 0.6976 0.6985 0.6992 0.6999
1375.000000 0.7000 0.7015 0.7021 0.7019 0.7018
1370.000000 0.6988 0.6942 0.6667 0.5836 0.5005
1365.000000 0.4974 0.5060 0.5340 0.5619 0.5898
1360.000000 0.6186 0.6243 0.6274 0.6296 0.6288
1355.000000 0.6303 0.6303 0.6289 0.6273 0.6243
1350.000000 0.6212 0.6183 0.6153 0.6124 0.6099
1345.000000 0.6096 0.6092 0.6107 0.6129 0.6169
1340.000000 0.6209 0.6238 0.6258 0.6272 0.6282
1335.000000 0.6288 0.6293 0.6293 0.6287 0.6280
1330.000000 0.6274 0.6275 0.6323 0.6362 0.6397
1325.000000 0.6418 0.6441 0.6462 0.6472 0.6481
1320.000000 0.6489 0.6496 0.6503 0.6511 0.6515
1315.000000 0.6514 0.6512 0.6511 0.6511 0.6511
1310.000000 0.6507 0.6497 0.6471 0.6438 0.6385
1305.000000 0.6341 0.6320 0.6312 0.6308 0.6338
1300.000000 0.6392 0.6446 0.6487 0.6518 0.6541
1295.000000 0.6548 0.6551 0.6551 0.6551 0.6503
1290.000000 0.6245 0.6053 0.6071 0.6146 0.6316
1285.000000 0.6487 0.6565 0.6615 0.6656 0.6691
1280.000000 0.6718 0.6732 0.6745 0.6758 0.6764
1275.000000 0.6774 0.6771 0.6775 0.6780 0.6778
1270.000000 0.6774 0.6762 0.6718 0.6672 0.6628
1265.000000 0.6571 0.6512 0.6475 0.6482 0.6484
1260.000000 0.6543 0.6628 0.6678 0.6728 0.6776
1255.000000 0.6819 0.6862 0.6901 0.6931 0.6934
1250.000000 0.6936 0.6936 0.6937 0.6928 0.6955
1245.000000 0.6893 0.6883 0.6871 0.6862 0.6861
1240.000000 0.6860 0.6858 0.6853 0.6848 0.6841
1235.000000 0.6832 0.6821 0.6811 0.6801 0.6744
1230.000000 0.6682 0.6614 0.6546 0.6451 0.6355
1225.000000 0.6229 0.6110 0.5994 0.5862 0.5394
1220.000000 0.5249 0.4831 0.4238 0.3645 0.3052
1215.000000 0.2459 0.2252 0.2249 0.2441 0.2789
1210.000000 0.3138 0.3486 0.3834 0.4183 0.4406
1205.000000 0.5014 0.5312 0.5482 0.5670 0.5880
1200.000000 0.6101 0.6193 0.6284 0.6355 0.6421
1195.000000 0.6489 0.6556 0.6603 0.6644 0.6690
1190.000000 0.6734 0.6767 0.6797 0.6821 0.6851
1185.000000 0.6880 0.6895 0.6904 0.6912 0.6918
1180.000000 0.6922 0.6924 0.6924 0.6921 0.6918
1175.000000 0.6917 0.6915 0.6915 0.6917 0.6917
1170.000000 0.6918 0.6918 0.6919 0.6922 0.6925
1165.000000 0.6930 0.6933 0.6936 0.6939 0.6945
1160.000000 0.6951 0.6956 0.6961 0.6968 0.6974
1155.000000 0.6978 0.6985 0.6991 0.6997 0.7005
1150.000000 0.7014 0.7022 0.7032 0.7042 0.7049
1145.000000 0.7071 0.7056 0.7058 0.7061 0.7065
1140.000000 0.7068 0.7071 0.7074 0.7075 0.7078
1135.000000 0.7082 0.7085 0.7088 0.7091 0.7095
1130.000000 0.7096 0.7096 0.7048 0.6956 0.6862
1125.000000 0.6769 0.6701 0.6715 0.6825 0.6941
1120.000000 0.6982 0.7015 0.7046 0.7065 0.7075
1115.000000 0.7085 0.7095 0.7104 0.7110 0.7115
1110.000000 0.7115 0.7115 0.7112 0.7107 0.7101
1105.000000 0.7095 0.7089 0.7083 0.7076 0.7071
1100.000000 0.7062 0.7055 0.7051 0.7051 0.7053
1095.000000 0.7053 0.7054 0.7054 0.7055 0.7057
1090.000000 0.7060 0.7064 0.7067 0.7069 0.7074
1085.000000 0.7076 0.7080 0.7083 0.7087 0.7092
1080.000000 0.7097 0.7101 0.7107 0.7111 0.7117
1075.000000 0.7121 0.7126 0.7133 0.7138 0.7142
1070.000000 0.7145 0.7147 0.7150 0.7153 0.7155
1065.000000 0.7158 0.7161 0.7164 0.7165 0.7168
1060.000000 0.7171 0.7172 0.7174 0.7174 0.7174
1055.000000 0.7174 0.7175 0.7175 0.7175 0.7175
1050.000000 0.7175 0.7175 0.7175 0.7172 0.7169
1045.000000 0.7168 0.7165 0.7165 0.7165 0.7165
1040.000000 0.7167 0.7167 0.7168 0.7171 0.7172
1035.000000 0.7174 0.7175 0.7178 0.7178 0.7178
1030.000000 0.7178 0.7178 0.7178 0.7178 0.7176
1025.000000 0.7176 0.7175 0.7174 0.7171 0.7169
1020.000000 0.7168 0.7165 0.7164 0.7162 0.7161
1015.000000 0.7160 0.7158 0.7153 0.7145 0.7137
1010.000000 0.7128 0.7119 0.7111 0.7098 0.7084
1005.000000 0.7068 0.7054 0.7032 0.6999 0.6943
1000.000000 0.6882 0.6712 0.6250 0.5788 0.5325
995.000000 0.4862 0.4697 0.4692 0.4712 0.4782
990.000000 0.5181 0.5992 0.6622 0.6692 0.6764
985.000000 0.6830 0.6884 0.6924 0.6962 0.6975
980.000000 0.6978 0.6982 0.6984 0.6987 0.6992
975.000000 0.7000 0.7008 0.7015 0.7025 0.7033
970.000000 0.7042 0.7053 0.7064 0.7074 0.7085
965.000000 0.7091 0.7096 0.7100 0.7105 0.7110
960.000000 0.7115 0.7121 0.7126 0.7131 0.7134
955.000000 0.7137 0.7140 0.7141 0.7141 0.7121
950.000000 0.7093 0.7068 0.7050 0.7038 0.7041
945.000000 0.7044 0.7071 0.7118 0.7148 0.7165
940.000000 0.7168 0.7168 0.7165 0.7161 0.7158
935.000000 0.7157 0.7156 0.7155 0.7154 0.7162
930.000000 0.7175 0.7189 0.7201 0.7212 0.7225
925.000000 0.7238 0.7242 0.7246 0.7251 0.7255
920.000000 0.7258 0.7262 0.7267 0.7271 0.7271
915.000000 0.7274 0.7275 0.7275 0.7278 0.7278
910.000000 0.7281 0.7281 0.7282 0.7283 0.7283
905.000000 0.7284 0.7284 0.7285 0.7286 0.7286
900.000000 0.7287 0.7287 0.7286 0.7286 0.7285
895.000000 0.7285 0.7284 0.7283 0.7283 0.7283
890.000000 0.7281 0.7278 0.7276 0.7274 0.7271
885.000000 0.7269 0.7268 0.7262 0.7258 0.7251
880.000000 0.7247 0.7241 0.7232 0.7222 0.7212
875.000000 0.7201 0.7192 0.7175 0.7150 0.7122
870.000000 0.7089 0.7051 0.7019 0.7015 0.7038
865.000000 0.7065 0.7114 0.7140 0.7151 0.7154
860.000000 0.7142 0.7117 0.7095 0.7075 0.7067
855.000000 0.7058 0.7065 0.7094 0.7155 0.7194
850.000000 0.7228 0.7244 0.7258 0.7272 0.7286
845.000000 0.7291 0.7295 0.7299 0.7304 0.7308
840.000000 0.7311 0.7312 0.7315 0.7317 0.7318
835.000000 0.7319 0.7321 0.7324 0.7325 0.7326
830.000000 0.7328 0.7328 0.7326 0.7325 0.7325
825.000000 0.7322 0.7317 0.7311 0.7304 0.7298
820.000000 0.7286 0.7272 0.7258 0.7241 0.7207
815.000000 0.7174 0.7135 0.7088 0.7040 0.7001
810.000000 0.6985 0.6980 0.7005 0.7031 0.7058
805.000000 0.7086 0.7095 0.7103 0.7111 0.7118
800.000000 0.7125 0.7131 0.7136 0.7141 0.7145
795.000000 0.7147 0.7149 0.7151 0.7137 0.7115
790.000000 0.7076 0.7039 0.7004 0.6968 0.6934
785.000000 0.6896 0.6854 0.6811 0.6769 0.6718
780.000000 0.6668 0.6604 0.6535 0.6467 0.6403
775.000000 0.5017 0.4208 0.3398 0.2588 0.1778
770.000000 0.1652 0.1633 0.2268 0.2913 0.3557
765.000000 0.4202 0.4847 0.5717 0.5834 0.6020
760.000000 0.6151 0.6239 0.6319 0.6397 0.6515
755.000000 0.6600 0.6651 0.6703 0.6749 0.6790
750.000000 0.6818 0.6839 0.6851 0.6857 0.6846
745.000000 0.6838 0.6831 0.6803 0.6774 0.6701
740.000000 0.6604 0.6501 0.6362 0.6225 0.5814
735.000000 0.5599 0.5438 0.3703 0.3707 0.3982
730.000000 0.4042 0.2362 0.2329 0.2311 0.2712
725.000000 0.3170 0.3628 0.4086 0.4545 0.5003
720.000000 0.5460 0.5720 0.5930 0.6085 0.6210
715.000000 0.6330 0.6471 0.6608 0.6708 0.6807
710.000000 0.6887 0.6965 0.7026 0.7067 0.7110
705.000000 0.7154 0.7195 0.7221 0.7248 0.7274
700.000000 0.7286 0.7298 0.7308 0.7318 0.7325
695.000000 0.7333 0.7340 0.7347 0.7354 0.7360
690.000000 0.7367 0.7372 0.7380 0.7386 0.7393
685.000000 0.7401 0.7411 0.7419 0.7418 0.7418
680.000000 0.7418 0.7393 0.7381 0.7364 0.7335
675.000000 0.7297 0.7201 0.7090 0.7001 0.6990
670.000000 0.7056 0.7128 0.7155 0.7111 0.7084
665.000000 0.7058 0.7032 0.6999 0.6965 0.6931
660.000000 0.6893 0.6856 0.6814 0.6771 0.6692
655.000000 0.6386 0.6079 0.5773 0.5504 0.5490
650.000000 0.5854 0.6346 0.6838 0.7058 0.7090
645.000000 0.7110 0.7121 0.7132 0.7142 0.7151
640.000000 0.7161 0.7161 0.7151 0.7125 0.7090
635.000000 0.7071 0.7062 0.7064 0.7065 0.7090
630.000000 0.7124 0.7158 0.7168 0.7178 0.7188
625.000000 0.7198 0.7205 0.7208 0.7211 0.7215
620.000000 0.7219 0.7224 0.7228 0.7232 0.7236
615.000000 0.7240 0.7244 0.7247 0.7250 0.7254
610.000000 0.7257 0.7260 0.7264 0.7267 0.7271
605.000000 0.7274 0.7276 0.7282 0.7287 0.7292
600.000000 0.7298 0.7303 0.7308 0.7312 0.7318
595.000000 0.7322 0.7328 0.7333 0.7339 0.7344
590.000000 0.7350 0.7355 0.7361 0.7365 0.7371
585.000000 0.7375 0.7378 0.7378 0.7381 0.7382
580.000000 0.7382 0.7382 0.7382 0.7382 0.7381
575.000000 0.7380 0.7371 0.7376 0.7375 0.7368
570.000000 0.7357 0.7345 0.7337 0.7330 0.7324
565.000000 0.7318 0.7318 0.7317 0.7317 0.7315
560.000000 0.7315 0.7315 0.7315 0.7314 0.7314
555.000000 0.7312 0.7312 0.7311 0.7311 0.7311
550.000000 0.7311 0.7310 0.7310 0.7310 0.7308
545.000000 0.7304 0.7301 0.7297 0.7293 0.7290
540.000000 0.7286 0.7283 0.7278 0.7275 0.7271
535.000000 0.7267 0.7262 0.7258 0.7254 0.7250
530.000000 0.7245 0.7241 0.7237 0.7232 0.7228
525.000000 0.7224 0.7217 0.7211 0.7204 0.7198
520.000000 0.7192 0.7185 0.7178 0.7171 0.7165
515.000000 0.7157 0.7146 0.7135 0.7124 0.7112
510.000000 0.7100 0.7086 0.7072 0.7058 0.7046
505.000000 0.7032 0.7015 0.6994 0.6972 0.6951
500.000000 0.6931 0.6910 0.6851 0.6795 0.6726
495.000000 0.6644 0.6537 0.6380 0.6256 0.6131
490.000000 0.6007 0.5883 0.5758 0.5724 0.5701
485.000000 0.5699 0.5725 0.5790 0.5888 0.6010
480.000000 0.6079 0.6148 0.6238 0.6300 0.6349
475.000000 0.6388 0.6425 0.6444 0.6465 0.6483
470.000000 0.6485 0.6467 0.6457 0.6444 0.6428
465.000000 0.6414 0.6400 0.6385 0.6370 0.6352
460.000000 0.6328 0.6305 0.6281 0.6258 0.6235
455.000000 0.6210 0.6184 0.6155 0.6126 0.6097
450.000000 0.6068 0.6036 0.5989 0.5943 0.5896
445.000000 0.5849 0.5802 0.5754 0.5707 0.5659
440.000000 0.5618 0.5580 0.5541 0.5503 0.5468
435.000000 0.5435 0.5402 0.5370 0.5342 0.5312
430.000000 0.5285 0.5267 0.5253 0.5238 0.5224
425.000000 0.5219 0.5215 0.5212 0.5208 0.5206
420.000000 0.5206 0.5206 0.5206 0.5216 0.5235
415.000000 0.5254 0.5273 0.5296 0.5328 0.5360
410.000000 0.5392 0.5425 0.5460 0.5498 0.5534
405.000000 0.5571 0.5607 0.5653 0.5705
##END=
