##TITLE=SODIUM TETRABORATE
$$ C. P.
##JCAMP-DX=4.24
##DATA TYPE=INFRARED SPECTRUM
##CLASS=COBLENTZ
##ORIGIN=MELLON INSTITUTE
##OWNER=COBLENTZ SOCIETY
Collection (C) 2018 copyright by the U.S. Secretary of Commerce
on behalf of the United States of America. All rights reserved.
##DATE=Not specified, most likely prior to 1970
##MOLFORM=Na2 B4 O7  * 10 H2 O
##SOURCE REFERENCE=COBLENTZ NO. 455
##$NIST ID=B6000455
##$NIST SOURCE=COBLENTZ
##$NIST IMAGE=cob455
##SPECTROMETER/DATA SYSTEM=Not specified, most likely a prism, grating, or hybrid spectrometer.
##STATE=SOLID (NUJOL AND FLUOROLUBE MULLS)
##SAMPLING PROCEDURE=TRANSMISSION
##RESOLUTION=4
##DATA PROCESSING=DIGITIZED BY NIST FROM HARD COPY
##XUNITS=MICROMETERS
##YUNITS=TRANSMITTANCE
##XFACTOR=1.000000
##YFACTOR=1
##DELTAX=000.006655
##FIRSTX=2.042
##LASTX=16.0099
##FIRSTY=0.919
##MAXX=16.0099
##MINX=2.042
##MAXY=0.969
##MINY=0.112
##NPOINTS=2100
##XYDATA=(X++(Y..Y))
2.042000 0.9190 0.9210 0.9220 0.9220 0.9240
2.075289 0.9260 0.9270 0.9270 0.9290 0.9290
2.108000 0.9310 0.9310 0.9320 0.9320 0.9340
2.141289 0.9340 0.9340 0.9320 0.9320 0.9320
2.175000 0.9320 0.9340 0.9340 0.9340 0.9360
2.208289 0.9360 0.9390 0.9390 0.9390 0.9410
2.241000 0.9430 0.9430 0.9440 0.9460 0.9480
2.274289 0.9480 0.9490 0.9490 0.9510 0.9510
2.308000 0.9530 0.9530 0.9530 0.9530 0.9530
2.341289 0.9530 0.9540 0.9540 0.9540 0.9560
2.374000 0.9580 0.9580 0.9590 0.9610 0.9630
2.407289 0.9630 0.9630 0.9640 0.9630 0.9630
2.441000 0.9630 0.9640 0.9640 0.9640 0.9630
2.474289 0.9630 0.9640 0.9640 0.9660 0.9680
2.508000 0.9680 0.9690 0.9690 0.9690 0.9690
2.541289 0.9680 0.9680 0.9680 0.9660 0.9660
2.574000 0.9660 0.9680 0.9680 0.9680 0.9680
2.607289 0.9680 0.9680 0.9680 0.9680 0.9680
2.641000 0.9680 0.9680 0.9680 0.9680 0.9660
2.674289 0.9640 0.9630 0.9610 0.9560 0.9530
2.707000 0.9490 0.9440 0.9340 0.9160 0.8960
2.740289 0.8600 0.8400 0.8070 0.7850 0.7420
2.774000 0.6980 0.6010 0.5810 0.5710 0.5170
2.807289 0.4820 0.4470 0.3710 0.3510 0.3280
2.840000 0.3190 0.3160 0.3110 0.3060 0.3030
2.873289 0.3010 0.2980 0.2930 0.2830 0.2740
2.907000 0.2620 0.2510 0.2460 0.2410 0.2240
2.940289 0.2020 0.1990 0.1890 0.1840 0.1820
2.973000 0.1800 0.1790 0.1800 0.1800 0.1840
3.006289 0.1850 0.1890 0.1920 0.1970 0.2010
3.040000 0.2060 0.2120 0.2190 0.2260 0.2310
3.073289 0.2340 0.2410 0.2440 0.2470 0.2590
3.106000 0.2620 0.2690 0.2810 0.2890 0.2990
3.139289 0.3040 0.3130 0.3190 0.3240 0.3310
3.173000 0.3360 0.3430 0.3480 0.3600 0.3680
3.206289 0.3730 0.3850 0.3950 0.4030 0.4120
3.240000 0.4170 0.4230 0.4300 0.4400 0.4480
3.273289 0.4550 0.4690 0.4720 0.4770 0.4890
3.306000 0.4950 0.4990 0.5170 0.5270 0.5370
3.339289 0.5490 0.5590 0.5670 0.5740 0.5890
3.373000 0.5990 0.6060 0.6140 0.6210 0.6330
3.406289 0.6410 0.6490 0.6580 0.6640 0.6710
3.439000 0.6780 0.6830 0.6960 0.6980 0.7010
3.472289 0.7060 0.7110 0.7160 0.7210 0.7250
3.506000 0.7300 0.7350 0.7380 0.7420 0.7480
3.539289 0.7530 0.7550 0.7620 0.7630 0.7700
3.572000 0.7730 0.7750 0.7770 0.7820 0.7880
3.605289 0.7980 0.8020 0.8050 0.8100 0.8140
3.639000 0.8190 0.8220 0.8270 0.8290 0.8370
3.672289 0.8390 0.8420 0.8450 0.8470 0.8490
3.705000 0.8490 0.8490 0.8490 0.8490 0.8490
3.738289 0.8490 0.8490 0.8490 0.8490 0.8490
3.772000 0.8490 0.8490 0.8490 0.8490 0.8490
3.805289 0.8470 0.8490 0.8490 0.8500 0.8520
3.838000 0.8520 0.8540 0.8550 0.8600 0.8620
3.871289 0.8640 0.8640 0.8670 0.8710 0.8720
3.905000 0.8740 0.8760 0.8770 0.8770 0.8790
3.938289 0.8790 0.8810 0.8810 0.8810 0.8790
3.972000 0.8770 0.8770 0.8740 0.8720 0.8710
4.005289 0.8690 0.8670 0.8650 0.8640 0.8620
4.038000 0.8620 0.8600 0.8620 0.8620 0.8620
4.071289 0.8620 0.8620 0.8620 0.8620 0.8620
4.105000 0.8640 0.8640 0.8690 0.8690 0.8710
4.138289 0.8720 0.8740 0.8740 0.8770 0.8790
4.171000 0.8810 0.8810 0.8820 0.8820 0.8860
4.204289 0.8860 0.8820 0.8840 0.8840 0.8840
4.238000 0.8820 0.8820 0.8810 0.8810 0.8790
4.271289 0.8790 0.8790 0.8760 0.8760 0.8760
4.304000 0.8760 0.8760 0.8760 0.8770 0.8770
4.337289 0.8790 0.8790 0.8790 0.8790 0.8810
4.371000 0.8810 0.8820 0.8840 0.8860 0.8860
4.404289 0.8860 0.8860 0.8870 0.8890 0.8890
4.437000 0.8910 0.8910 0.8920 0.8920 0.8940
4.470289 0.8940 0.8940 0.8940 0.8940 0.8940
4.504000 0.8920 0.8920 0.8920 0.8920 0.8920
4.537289 0.8920 0.8920 0.8940 0.8940 0.8940
4.570000 0.8960 0.8970 0.8960 0.8960 0.8960
4.603289 0.8960 0.8960 0.8970 0.8990 0.9010
4.637000 0.9010 0.9010 0.9010 0.9010 0.9010
4.670289 0.9020 0.9020 0.9020 0.9040 0.9040
4.704000 0.9040 0.9040 0.9060 0.9060 0.9060
4.737289 0.9070 0.9090 0.9090 0.9090 0.9110
4.770000 0.9110 0.9120 0.9140 0.9140 0.9140
4.803289 0.9160 0.9170 0.9170 0.9190 0.9190
4.837000 0.9210 0.9210 0.9210 0.9220 0.9220
4.870289 0.9220 0.9220 0.9240 0.9260 0.9260
4.903000 0.9260 0.9270 0.9290 0.9310 0.9310
4.936289 0.9310 0.9310 0.9310 0.9320 0.9340
4.970000 0.9340 0.9360 0.9360 0.9360 0.9380
5.003289 0.9390 0.9390 0.9410 0.9410 0.9410
5.036000 0.9410 0.9410 0.9410 0.9430 0.9430
5.069289 0.9430 0.9440 0.9440 0.9440 0.9440
5.103000 0.9460 0.9460 0.9460 0.9480 0.9480
5.136289 0.9460 0.9460 0.9460 0.9460 0.9460
5.169000 0.9480 0.9480 0.9460 0.9480 0.9480
5.202289 0.9480 0.9490 0.9510 0.9510 0.9510
5.236000 0.9510 0.9530 0.9530 0.9530 0.9530
5.269289 0.9540 0.9540 0.9540 0.9540 0.9530
5.302000 0.9540 0.9540 0.9530 0.9530 0.9530
5.335289 0.9530 0.9540 0.9540 0.9540 0.9540
5.369000 0.9540 0.9530 0.9540 0.9530 0.9530
5.402289 0.9510 0.9490 0.9490 0.9480 0.9460
5.436000 0.9480 0.9480 0.9490 0.9490 0.9480
5.469289 0.9480 0.9480 0.9460 0.9440 0.9440
5.502000 0.9440 0.9440 0.9440 0.9430 0.9410
5.535289 0.9410 0.9410 0.9410 0.9410 0.9410
5.569000 0.9410 0.9410 0.9410 0.9390 0.9390
5.602289 0.9390 0.9390 0.9390 0.9390 0.9410
5.635000 0.9410 0.9410 0.9410 0.9410 0.9410
5.668289 0.9410 0.9410 0.9410 0.9410 0.9410
5.702000 0.9410 0.9410 0.9390 0.9390 0.9360
5.735289 0.9340 0.9340 0.9340 0.9340 0.9320
5.768000 0.9320 0.9310 0.9310 0.9310 0.9290
5.801289 0.9240 0.9170 0.9120 0.9060 0.8970
5.835000 0.8970 0.8890 0.8860 0.8790 0.8760
5.868289 0.8690 0.8640 0.8590 0.8550 0.8490
5.901000 0.8290 0.7970 0.7720 0.7570 0.7500
5.934289 0.7430 0.7370 0.7310 0.7260 0.7230
5.968000 0.7230 0.7200 0.7150 0.7110 0.7060
6.001289 0.7030 0.6960 0.6880 0.6880 0.6850
6.034000 0.6830 0.6830 0.6830 0.6830 0.6830
6.067289 0.6830 0.6830 0.6830 0.6850 0.6960
6.101000 0.7060 0.7210 0.7400 0.7670 0.7820
6.134289 0.7900 0.8070 0.8200 0.8370 0.8450
6.168000 0.8500 0.8540 0.8600 0.8640 0.8690
6.201289 0.8720 0.8770 0.8820 0.8840 0.8860
6.234000 0.8860 0.8860 0.8860 0.8840 0.8840
6.267289 0.8840 0.8840 0.8840 0.8840 0.8840
6.301000 0.8820 0.8770 0.8760 0.8740 0.8720
6.334289 0.8720 0.8720 0.8720 0.8710 0.8670
6.367000 0.8640 0.8590 0.8550 0.8520 0.8470
6.400289 0.8440 0.8400 0.8400 0.8390 0.8390
6.434000 0.8390 0.8370 0.8350 0.8340 0.8320
6.467289 0.8300 0.8270 0.8220 0.8200 0.8190
6.500000 0.8150 0.8140 0.8090 0.8050 0.8020
6.533289 0.8000 0.7920 0.7870 0.7800 0.7670
6.567000 0.7580 0.7520 0.7480 0.7450 0.7150
6.600289 0.6980 0.6810 0.6380 0.6340 0.5890
6.633000 0.5420 0.5140 0.5050 0.4950 0.4820
6.666289 0.4700 0.4400 0.4220 0.3950 0.3750
6.700000 0.3580 0.3500 0.3310 0.3240 0.3210
6.733289 0.3180 0.3140 0.3130 0.3110 0.3060
6.766000 0.3040 0.3040 0.3030 0.3030 0.3030
6.799289 0.3010 0.3010 0.2990 0.2980 0.2960
6.833000 0.2940 0.2930 0.2930 0.2910 0.2880
6.866289 0.2840 0.2790 0.2710 0.2690 0.2610
6.900000 0.2540 0.2520 0.2490 0.2410 0.2320
6.933289 0.2270 0.2210 0.2060 0.1900 0.1790
6.966000 0.1700 0.1650 0.1640 0.1600 0.1540
6.999289 0.1540 0.1520 0.1500 0.1490 0.1500
7.033000 0.1540 0.1550 0.1570 0.1620 0.1650
7.066289 0.1690 0.1700 0.1740 0.1750 0.1800
7.099000 0.1840 0.1850 0.1870 0.1900 0.1950
7.132289 0.1990 0.2010 0.2010 0.2040 0.2070
7.166000 0.2090 0.2090 0.2110 0.2110 0.2110
7.199289 0.2110 0.2110 0.2090 0.2090 0.2070
7.232000 0.2060 0.2020 0.1970 0.1970 0.1940
7.265289 0.1900 0.1870 0.1820 0.1770 0.1740
7.299000 0.1690 0.1590 0.1520 0.1490 0.1370
7.332289 0.1320 0.1250 0.1220 0.1200 0.1150
7.365000 0.1150 0.1130 0.1120 0.1120 0.1120
7.398289 0.1120 0.1130 0.1220 0.1250 0.1300
7.432000 0.1450 0.1550 0.1670 0.1770 0.1890
7.465289 0.1970 0.2010 0.2340 0.2640 0.3210
7.498000 0.3330 0.3510 0.3660 0.3860 0.4100
7.531289 0.4270 0.4480 0.4720 0.4970 0.5220
7.565000 0.5290 0.5360 0.5440 0.5560 0.5620
7.598289 0.5740 0.5790 0.5840 0.5890 0.5910
7.632000 0.5910 0.5910 0.5910 0.5910 0.5890
7.665289 0.5890 0.5870 0.5840 0.5770 0.5710
7.698000 0.5660 0.5570 0.5540 0.5470 0.5320
7.731289 0.5200 0.5140 0.5070 0.5000 0.4940
7.765000 0.4870 0.4790 0.4690 0.4620 0.4550
7.798289 0.4470 0.4450 0.4400 0.4380 0.4370
7.831000 0.4350 0.4350 0.4330 0.4330 0.4330
7.864289 0.4320 0.4300 0.4330 0.4330 0.4370
7.898000 0.4380 0.4400 0.4400 0.4400 0.4380
7.931289 0.4380 0.4370 0.4350 0.4350 0.4350
7.964000 0.4350 0.4350 0.4370 0.4400 0.4430
7.997289 0.4470 0.4500 0.4570 0.4630 0.4700
8.031000 0.4750 0.4820 0.5100 0.5190 0.5290
8.064289 0.5360 0.5440 0.5490 0.5560 0.5640
8.097000 0.5690 0.5760 0.5760 0.5760 0.5760
8.130289 0.5760 0.5740 0.5720 0.5740 0.5740
8.164000 0.5760 0.5760 0.5760 0.5790 0.5810
8.197289 0.5820 0.5840 0.5870 0.5890 0.5910
8.230000 0.5920 0.5940 0.5940 0.5940 0.5960
8.263289 0.5960 0.5970 0.6010 0.6010 0.6030
8.297000 0.6040 0.6060 0.6080 0.6090 0.6090
8.330289 0.6110 0.6110 0.6110 0.6110 0.6090
8.364000 0.6090 0.6080 0.6060 0.6030 0.6010
8.397289 0.5940 0.5890 0.5860 0.5810 0.5740
8.430000 0.5660 0.5590 0.5520 0.5440 0.5390
8.463289 0.5320 0.5250 0.5190 0.5140 0.5070
8.497000 0.5020 0.5000 0.4990 0.4900 0.4890
8.530289 0.4770 0.4700 0.4650 0.4570 0.4530
8.563000 0.4500 0.4380 0.4320 0.4250 0.4200
8.596289 0.4150 0.4050 0.4000 0.3930 0.3880
8.630000 0.3830 0.3810 0.3800 0.3780 0.3760
8.663289 0.3750 0.3730 0.3710 0.3650 0.3630
8.696000 0.3600 0.3550 0.3510 0.3480 0.3450
8.729289 0.3380 0.3330 0.3260 0.3180 0.3140
8.763000 0.3080 0.3010 0.2990 0.2930 0.2860
8.796289 0.2780 0.2760 0.2690 0.2570 0.2560
8.829000 0.2510 0.2440 0.2390 0.2370 0.2360
8.862289 0.2370 0.2370 0.2390 0.2410 0.2410
8.896000 0.2440 0.2490 0.2590 0.2690 0.2760
8.929289 0.2880 0.2980 0.3080 0.3180 0.3210
8.962000 0.3260 0.3310 0.3400 0.3550 0.3610
8.995289 0.3700 0.3750 0.3800 0.3810 0.3810
9.029000 0.3830 0.3830 0.3830 0.3850 0.3850
9.062289 0.3850 0.3830 0.3830 0.3810 0.3810
9.096000 0.3800 0.3780 0.3750 0.3730 0.3710
9.129289 0.3660 0.3650 0.3610 0.3580 0.3530
9.162000 0.3500 0.3500 0.3460 0.3450 0.3410
9.195289 0.3400 0.3380 0.3350 0.3350 0.3330
9.229000 0.3330 0.3310 0.3310 0.3290 0.3280
9.262289 0.3280 0.3280 0.3280 0.3260 0.3260
9.295000 0.3260 0.3260 0.3260 0.3260 0.3260
9.328289 0.3260 0.3260 0.3280 0.3280 0.3290
9.362000 0.3290 0.3310 0.3350 0.3350 0.3380
9.395289 0.3410 0.3450 0.3500 0.3550 0.3560
9.428000 0.3610 0.3660 0.3700 0.3710 0.3730
9.461289 0.3730 0.3750 0.3750 0.3750 0.3750
9.495000 0.3750 0.3730 0.3730 0.3710 0.3700
9.528289 0.3680 0.3650 0.3600 0.3560 0.3510
9.561000 0.3500 0.3430 0.3400 0.3350 0.3280
9.594289 0.3230 0.3180 0.3080 0.3040 0.3010
9.628000 0.2990 0.2880 0.2840 0.2810 0.2760
9.661289 0.2740 0.2710 0.2690 0.2660 0.2640
9.694000 0.2610 0.2520 0.2510 0.2490 0.2470
9.727289 0.2440 0.2410 0.2360 0.2340 0.2310
9.761000 0.2290 0.2270 0.2260 0.2260 0.2240
9.794289 0.2220 0.2210 0.2210 0.2210 0.2190
9.828000 0.2160 0.2140 0.2120 0.2090 0.2040
9.861289 0.2020 0.2010 0.1990 0.1900 0.1840
9.894000 0.1820 0.1800 0.1790 0.1770 0.1770
9.927289 0.1750 0.1740 0.1700 0.1690 0.1670
9.961000 0.1650 0.1650 0.1650 0.1650 0.1650
9.994289 0.1650 0.1650 0.1650 0.1650 0.1650
10.027000 0.1650 0.1670 0.1670 0.1690 0.1700
10.060289 0.1720 0.1750 0.1790 0.1820 0.1890
10.094000 0.1990 0.2020 0.2190 0.2260 0.2360
10.127289 0.2470 0.2640 0.2730 0.2830 0.2890
10.160000 0.3010 0.3090 0.3160 0.3350 0.3410
10.193289 0.3600 0.3760 0.3910 0.4120 0.4270
10.227000 0.4370 0.4470 0.4600 0.4690 0.4770
10.260289 0.4820 0.4890 0.4990 0.5190 0.5250
10.293000 0.5300 0.5370 0.5460 0.5520 0.5560
10.326289 0.5610 0.5620 0.5620 0.5660 0.5660
10.360000 0.5660 0.5660 0.5670 0.5670 0.5670
10.393289 0.5640 0.5590 0.5560 0.5510 0.5470
10.426000 0.5420 0.5360 0.5270 0.5190 0.5090
10.459289 0.5000 0.4940 0.4850 0.4650 0.4480
10.493000 0.4400 0.4270 0.4050 0.3910 0.3810
10.526289 0.3700 0.3600 0.3510 0.3400 0.3290
10.560000 0.3230 0.3180 0.3160 0.3130 0.3110
10.593289 0.3090 0.3110 0.3110 0.3130 0.3130
10.626000 0.3130 0.3140 0.3160 0.3230 0.3230
10.659289 0.3240 0.3280 0.3330 0.3400 0.3460
10.693000 0.3510 0.3610 0.3730 0.3900 0.3980
10.726289 0.4130 0.4250 0.4320 0.4480 0.4580
10.759000 0.4740 0.4790 0.4900 0.5150 0.5220
10.792289 0.5240 0.5290 0.5300 0.5390 0.5470
10.826000 0.5560 0.5670 0.5740 0.5820 0.5890
10.859289 0.5970 0.6010 0.6090 0.6140 0.6240
10.892000 0.6290 0.6340 0.6360 0.6390 0.6440
10.925289 0.6460 0.6480 0.6490 0.6510 0.6540
10.959000 0.6560 0.6580 0.6610 0.6630 0.6640
10.992289 0.6660 0.6660 0.6660 0.6680 0.6710
11.025000 0.6750 0.6750 0.6780 0.6800 0.6810
11.058289 0.6830 0.6850 0.6860 0.6860 0.6880
11.092000 0.6880 0.6900 0.6900 0.6900 0.6900
11.125289 0.6900 0.6900 0.6910 0.6910 0.6930
11.158000 0.6930 0.6950 0.6950 0.6950 0.6950
11.191289 0.6960 0.6960 0.6960 0.6960 0.6960
11.225000 0.6960 0.6960 0.6960 0.6960 0.6960
11.258289 0.6960 0.6960 0.6980 0.6980 0.6980
11.292000 0.6980 0.6960 0.6960 0.6950 0.6950
11.325289 0.6950 0.6950 0.6950 0.6930 0.6930
11.358000 0.6930 0.6930 0.6910 0.6910 0.6900
11.391289 0.6880 0.6860 0.6860 0.6860 0.6850
11.425000 0.6850 0.6830 0.6810 0.6810 0.6810
11.458289 0.6800 0.6800 0.6800 0.6780 0.6760
11.491000 0.6760 0.6750 0.6730 0.6710 0.6710
11.524289 0.6710 0.6700 0.6700 0.6700 0.6680
11.558000 0.6660 0.6640 0.6640 0.6640 0.6630
11.591289 0.6630 0.6610 0.6590 0.6580 0.6580
11.624000 0.6560 0.6560 0.6560 0.6540 0.6530
11.657289 0.6510 0.6510 0.6490 0.6490 0.6440
11.691000 0.6390 0.6380 0.6360 0.6340 0.6330
11.724289 0.6290 0.6260 0.6230 0.6160 0.6160
11.757000 0.6130 0.5920 0.5910 0.5860 0.5820
11.790289 0.5710 0.5620 0.5540 0.5490 0.5390
11.824000 0.5300 0.5200 0.5100 0.5040 0.4970
11.857289 0.4890 0.4820 0.4700 0.4620 0.4530
11.891000 0.4450 0.4320 0.4280 0.4150 0.4080
11.924289 0.4020 0.3900 0.3880 0.3710 0.3610
11.957000 0.3510 0.3330 0.3240 0.3110 0.3040
11.990289 0.2990 0.2940 0.2890 0.2880 0.2860
12.024000 0.2790 0.2730 0.2690 0.2660 0.2620
12.057289 0.2610 0.2590 0.2590 0.2570 0.2570
12.090000 0.2540 0.2540 0.2540 0.2540 0.2540
12.123289 0.2540 0.2540 0.2540 0.2560 0.2560
12.157000 0.2570 0.2590 0.2610 0.2620 0.2660
12.190289 0.2710 0.2740 0.2760 0.2780 0.2790
12.223000 0.2810 0.2810 0.2840 0.2880 0.2910
12.256289 0.2940 0.3010 0.3030 0.3110 0.3180
12.290000 0.3210 0.3240 0.3280 0.3310 0.3360
12.323289 0.3410 0.3450 0.3510 0.3510 0.3550
12.356000 0.3610 0.3650 0.3700 0.3730 0.3760
12.389289 0.3800 0.3810 0.3880 0.3980 0.4020
12.423000 0.4030 0.4070 0.4120 0.4170 0.4220
12.456289 0.4250 0.4300 0.4370 0.4400 0.4450
12.489000 0.4470 0.4520 0.4600 0.4630 0.4650
12.522289 0.4720 0.4740 0.4770 0.4820 0.4840
12.556000 0.4870 0.4900 0.4940 0.4950 0.4950
12.589289 0.4990 0.5020 0.5090 0.5120 0.5140
12.623000 0.5170 0.5200 0.5220 0.5240 0.5270
12.656289 0.5290 0.5320 0.5340 0.5340 0.5370
12.689000 0.5410 0.5420 0.5440 0.5460 0.5460
12.722289 0.5490 0.5490 0.5510 0.5520 0.5520
12.756000 0.5520 0.5540 0.5560 0.5560 0.5560
12.789289 0.5570 0.5570 0.5590 0.5590 0.5590
12.822000 0.5590 0.5590 0.5590 0.5590 0.5590
12.855289 0.5590 0.5590 0.5590 0.5590 0.5590
12.889000 0.5590 0.5610 0.5610 0.5610 0.5620
12.922289 0.5620 0.5620 0.5640 0.5640 0.5640
12.955000 0.5660 0.5670 0.5690 0.5690 0.5710
12.988289 0.5720 0.5740 0.5770 0.5790 0.5790
13.022000 0.5810 0.5810 0.5810 0.5820 0.5840
13.055289 0.5860 0.5860 0.5890 0.5910 0.5920
13.088000 0.5940 0.5960 0.5990 0.6010 0.6030
13.121289 0.6030 0.6040 0.6060 0.6090 0.6110
13.155000 0.6130 0.6160 0.6180 0.6180 0.6190
13.188289 0.6230 0.6290 0.6330 0.6340 0.6360
13.221000 0.6380 0.6380 0.6390 0.6390 0.6390
13.254289 0.6410 0.6410 0.6430 0.6430 0.6440
13.288000 0.6440 0.6460 0.6460 0.6480 0.6490
13.321289 0.6510 0.6530 0.6560 0.6560 0.6580
13.355000 0.6580 0.6590 0.6590 0.6590 0.6590
13.388289 0.6610 0.6610 0.6630 0.6640 0.6640
13.421000 0.6640 0.6640 0.6680 0.6680 0.6680
13.454289 0.6700 0.6700 0.6700 0.6700 0.6710
13.488000 0.6700 0.6700 0.6700 0.6710 0.6710
13.521289 0.6710 0.6710 0.6710 0.6710 0.6710
13.554000 0.6700 0.6700 0.6700 0.6680 0.6680
13.587289 0.6660 0.6660 0.6640 0.6640 0.6630
13.621000 0.6630 0.6630 0.6610 0.6610 0.6590
13.654289 0.6580 0.6580 0.6560 0.6540 0.6530
13.687000 0.6530 0.6530 0.6510 0.6480 0.6440
13.720289 0.6430 0.6410 0.6390 0.6390 0.6380
13.754000 0.6360 0.6340 0.6310 0.6290 0.6280
13.787289 0.6260 0.6260 0.6240 0.6210 0.6210
13.820000 0.6190 0.6180 0.6160 0.6130 0.6110
13.853289 0.6110 0.6090 0.6040 0.6040 0.5990
13.887000 0.5970 0.5960 0.5940 0.5940 0.5920
13.920289 0.5910 0.5890 0.5870 0.5870 0.5860
13.953000 0.5860 0.5840 0.5820 0.5810 0.5810
13.986289 0.5810 0.5790 0.5790 0.5790 0.5770
14.020000 0.5760 0.5740 0.5720 0.5710 0.5710
14.053289 0.5710 0.5710 0.5710 0.5690 0.5710
14.087000 0.5690 0.5690 0.5690 0.5690 0.5690
14.120289 0.5690 0.5690 0.5710 0.5710 0.5710
14.153000 0.5710 0.5720 0.5720 0.5740 0.5740
14.186289 0.5760 0.5760 0.5770 0.5770 0.5770
14.220000 0.5770 0.5810 0.5820 0.5840 0.5860
14.253289 0.5890 0.5910 0.5910 0.5920 0.5940
14.286000 0.5940 0.5960 0.5960 0.5940 0.5940
14.319289 0.5960 0.5960 0.5970 0.5990 0.6010
14.353000 0.6010 0.6030 0.6030 0.6030 0.6040
14.386289 0.6040 0.6080 0.6080 0.6110 0.6130
14.419000 0.6140 0.6160 0.6160 0.6180 0.6180
14.452289 0.6180 0.6180 0.6180 0.6180 0.6190
14.486000 0.6180 0.6160 0.6160 0.6180 0.6190
14.519289 0.6190 0.6190 0.6210 0.6230 0.6230
14.552000 0.6230 0.6240 0.6240 0.6240 0.6240
14.585289 0.6240 0.6240 0.6240 0.6240 0.6240
14.619000 0.6230 0.6210 0.6190 0.6190 0.6190
14.652289 0.6180 0.6180 0.6180 0.6190 0.6180
14.685000 0.6160 0.6160 0.6140 0.6140 0.6140
14.718289 0.6140 0.6130 0.6130 0.6130 0.6110
14.752000 0.6110 0.6110 0.6110 0.6090 0.6090
14.785289 0.6090 0.6080 0.6080 0.6080 0.6080
14.819000 0.6080 0.6080 0.6080 0.6080 0.6080
14.852289 0.6080 0.6080 0.6080 0.6090 0.6080
14.885000 0.6080 0.6080 0.6080 0.6090 0.6110
14.918289 0.6090 0.6090 0.6110 0.6110 0.6110
14.952000 0.6110 0.6090 0.6090 0.6110 0.6130
14.985289 0.6130 0.6130 0.6130 0.6130 0.6130
15.018000 0.6130 0.6130 0.6140 0.6140 0.6160
15.051289 0.6160 0.6160 0.6160 0.6160 0.6160
15.085000 0.6160 0.6160 0.6180 0.6180 0.6180
15.118289 0.6180 0.6180 0.6180 0.6180 0.6190
15.151000 0.6180 0.6180 0.6190 0.6190 0.6190
15.184289 0.6210 0.6210 0.6210 0.6210 0.6230
15.218000 0.6230 0.6240 0.6240 0.6240 0.6260
15.251289 0.6260 0.6260 0.6260 0.6280 0.6280
15.284000 0.6280 0.6280 0.6280 0.6280 0.6290
15.317289 0.6310 0.6310 0.6310 0.6330 0.6330
15.351000 0.6330 0.6330 0.6340 0.6340 0.6360
15.384289 0.6340 0.6340 0.6340 0.6340 0.6360
15.417000 0.6360 0.6360 0.6380 0.6380 0.6380
15.450289 0.6380 0.6380 0.6390 0.6390 0.6390
15.484000 0.6390 0.6390 0.6390 0.6390 0.6390
15.517289 0.6410 0.6410 0.6410 0.6430 0.6430
15.551000 0.6440 0.6460 0.6460 0.6480 0.6490
15.584289 0.6490 0.6490 0.6510 0.6530 0.6530
15.617000 0.6510 0.6510 0.6530 0.6530 0.6530
15.650289 0.6540 0.6540 0.6540 0.6560 0.6580
15.684000 0.6580 0.6580 0.6580 0.6580 0.6580
15.717289 0.6590 0.6590 0.6590 0.6610 0.6610
15.750000 0.6630 0.6630 0.6640 0.6640 0.6660
15.783289 0.6680 0.6700 0.6700 0.6700 0.6710
15.817000 0.6710 0.6730 0.6730 0.6730 0.6750
15.850289 0.6750 0.6760 0.6780 0.6780 0.6800
15.883000 0.6800 0.6800 0.6800 0.6800 0.6810
15.916289 0.6810 0.6810 0.6830 0.6850 0.6850
15.950000 0.6850 0.6860 0.6860 0.6880 0.6880
15.983289 0.6900 0.6900 0.6910 0.6900 0.6900
##END=
