##TITLE=4-Dibenzofuransulfonic acid, sodium salt, hydrate
##JCAMP-DX=4.24
$$ By DXEDIT 1.05 (RS McDonald)
##DATA TYPE=INFRARED SPECTRUM
##CLASS=COBLENTZ III
##ORIGIN=DOW CHEMICAL COMPANY
##OWNER=COPYRIGHT (C) 1988 by COBLENTZ SOCIETY INC.
Collection (C) 2018 copyright by the U.S. Secretary of Commerce
on behalf of the United States of America. All rights reserved.
##DATE=1968/10/29
##MOLFORM=C12 H7 Na O4 S  * H2 O
##SOURCE REFERENCE=COBLENTZ NO. 07203
##$NIST ID=B6007203
##$NIST SOURCE=COBLENTZ
##$NIST IMAGE=cob7203
##SPECTROMETER/DATA SYSTEM=DOW KBr FOREPRISM-GRATING
##INSTRUMENT PARAMETERS=BLAZED AT 3.5, 12.0, 20.0 MICRON AND CHANGED AT 5.0, 7.5, 14.9 MICRON
##STATE=SOLID (SPLIT MULL), FLUOROLUBE FOR 3800-1330 CM^-^1, NUJOL FOR 1330-400 CM^-^1
##SAMPLING PROCEDURE=TRANSMISSION
##RESOLUTION=2
##DATA PROCESSING=DIGITIZED BY COBLENTZ SOCIETY (BATCH I) FROM HARD COPY
##XUNITS=1/CM
##YUNITS=TRANSMITTANCE
##XFACTOR=1
##YFACTOR=1
##DELTAX=1
##FIRSTX=3798
##LASTX=384
##FIRSTY=0.6364
##MAXX=3798
##MINX=384
##MAXY=0.9142
##MINY=0.0119
##NPOINTS=3415
##XYDATA=(X++(Y..Y))
3798.000000 0.6364 0.6365 0.6366 0.6367 0.6369
3793.000000 0.6371 0.6373 0.6374 0.6376 0.6377
3788.000000 0.6379 0.6380 0.6382 0.6384 0.6386
3783.000000 0.6387 0.6389 0.6390 0.6392 0.6393
3778.000000 0.6395 0.6397 0.6399 0.6400 0.6401
3773.000000 0.6401 0.6404 0.6405 0.6407 0.6408
3768.000000 0.6410 0.6411 0.6412 0.6414 0.6415
3763.000000 0.6417 0.6418 0.6421 0.6422 0.6425
3758.000000 0.6426 0.6428 0.6432 0.6434 0.6436
3753.000000 0.6438 0.6440 0.6442 0.6444 0.6446
3748.000000 0.6448 0.6450 0.6451 0.6453 0.6455
3743.000000 0.6456 0.6457 0.6458 0.6460 0.6461
3738.000000 0.6462 0.6464 0.6465 0.6467 0.6468
3733.000000 0.6469 0.6471 0.6472 0.6475 0.6475
3728.000000 0.6476 0.6478 0.6478 0.6480 0.6481
3723.000000 0.6482 0.6483 0.6484 0.6485 0.6486
3718.000000 0.6487 0.6488 0.6489 0.6490 0.6491
3713.000000 0.6492 0.6493 0.6494 0.6496 0.6497
3708.000000 0.6498 0.6498 0.6499 0.6499 0.6500
3703.000000 0.6500 0.6501 0.6501 0.6503 0.6503
3698.000000 0.6504 0.6504 0.6505 0.6505 0.6506
3693.000000 0.6506 0.6506 0.6506 0.6506 0.6506
3688.000000 0.6506 0.6506 0.6506 0.6505 0.6505
3683.000000 0.6501 0.6500 0.6497 0.6495 0.6493
3678.000000 0.6491 0.6488 0.6486 0.6483 0.6481
3673.000000 0.6478 0.6475 0.6471 0.6465 0.6460
3668.000000 0.6455 0.6449 0.6443 0.6437 0.6432
3663.000000 0.6425 0.6418 0.6407 0.6395 0.6383
3658.000000 0.6372 0.6360 0.6348 0.6336 0.6324
3653.000000 0.6312 0.6300 0.6284 0.6269 0.6253
3648.000000 0.6238 0.6222 0.6207 0.6190 0.6173
3643.000000 0.6150 0.6127 0.6104 0.6081 0.6053
3638.000000 0.6026 0.5992 0.5959 0.5925 0.5891
3633.000000 0.5854 0.5818 0.5771 0.5725 0.5678
3628.000000 0.5632 0.5586 0.5540 0.5494 0.5449
3623.000000 0.5393 0.5337 0.5277 0.5217 0.5142
3618.000000 0.5068 0.4990 0.4912 0.4822 0.4733
3613.000000 0.4531 0.4329 0.4084 0.3841 0.3706
3608.000000 0.3572 0.3470 0.3368 0.2943 0.2518
3603.000000 0.2307 0.2097 0.1996 0.1898 0.1885
3598.000000 0.1874 0.1871 0.1869 0.1866 0.1840
3593.000000 0.1861 0.1859 0.1886 0.1916 0.1984
3588.000000 0.2055 0.2134 0.2214 0.2302 0.2391
3583.000000 0.2503 0.2616 0.2732 0.2849 0.2931
3578.000000 0.3013 0.3094 0.3176 0.3236 0.3296
3573.000000 0.3346 0.3396 0.3446 0.3496 0.3547
3568.000000 0.3598 0.3656 0.3714 0.3772 0.3830
3563.000000 0.3882 0.3934 0.3982 0.4030 0.4058
3558.000000 0.4087 0.4112 0.4137 0.4162 0.4187
3553.000000 0.4212 0.4239 0.4268 0.4297 0.4310
3548.000000 0.4324 0.4326 0.4328 0.4328 0.4350
3543.000000 0.4323 0.4319 0.4298 0.4278 0.4234
3538.000000 0.4190 0.4134 0.4079 0.4014 0.3950
3533.000000 0.3866 0.3782 0.3680 0.3577 0.3079
3528.000000 0.2582 0.2478 0.2282 0.2327 0.2279
3523.000000 0.2299 0.2320 0.2426 0.2532 0.2668
3518.000000 0.2805 0.2948 0.3091 0.3185 0.3280
3513.000000 0.3380 0.3480 0.3579 0.3677 0.3759
3508.000000 0.3842 0.3929 0.4016 0.4109 0.4202
3503.000000 0.4297 0.4393 0.4456 0.4520 0.4577
3498.000000 0.4635 0.4683 0.4732 0.4765 0.4799
3493.000000 0.4832 0.4866 0.4899 0.4933 0.4966
3488.000000 0.5000 0.5024 0.5048 0.5070 0.5092
3483.000000 0.5114 0.5136 0.5158 0.5180 0.5202
3478.000000 0.5224 0.5244 0.5264 0.5276 0.5289
3473.000000 0.5301 0.5314 0.5326 0.5339 0.5351
3468.000000 0.5364 0.5376 0.5388 0.5399 0.5410
3463.000000 0.5421 0.5431 0.5441 0.5451 0.5460
3458.000000 0.5471 0.5481 0.5491 0.5501 0.5510
3453.000000 0.5521 0.5531 0.5541 0.5551 0.5560
3448.000000 0.5571 0.5581 0.5591 0.5601 0.5610
3443.000000 0.5619 0.5628 0.5636 0.5645 0.5654
3438.000000 0.5662 0.5671 0.5680 0.5688 0.5697
3433.000000 0.5706 0.5715 0.5723 0.5732 0.5740
3428.000000 0.5749 0.5757 0.5766 0.5775 0.5784
3423.000000 0.5792 0.5800 0.5808 0.5817 0.5825
3418.000000 0.5833 0.5841 0.5849 0.5857 0.5866
3413.000000 0.5874 0.5882 0.5890 0.5898 0.5906
3408.000000 0.5915 0.5923 0.5931 0.5939 0.5947
3403.000000 0.5955 0.5962 0.5971 0.5980 0.5987
3398.000000 0.5994 0.6001 0.6008 0.6015 0.6022
3393.000000 0.6029 0.6036 0.6043 0.6050 0.6057
3388.000000 0.6064 0.6071 0.6078 0.6085 0.6092
3383.000000 0.6099 0.6106 0.6112 0.6120 0.6127
3378.000000 0.6134 0.6141 0.6148 0.6155 0.6162
3373.000000 0.6168 0.6175 0.6182 0.6189 0.6196
3368.000000 0.6204 0.6210 0.6219 0.6226 0.6234
3363.000000 0.6241 0.6249 0.6256 0.6264 0.6271
3358.000000 0.6279 0.6286 0.6294 0.6301 0.6309
3353.000000 0.6316 0.6324 0.6331 0.6338 0.6344
3348.000000 0.6350 0.6355 0.6360 0.6366 0.6371
3343.000000 0.6376 0.6382 0.6387 0.6393 0.6398
3338.000000 0.6404 0.6408 0.6414 0.6418 0.6425
3333.000000 0.6430 0.6436 0.6441 0.6446 0.6451
3328.000000 0.6457 0.6461 0.6468 0.6472 0.6478
3323.000000 0.6483 0.6487 0.6490 0.6494 0.6497
3318.000000 0.6501 0.6504 0.6508 0.6511 0.6515
3313.000000 0.6518 0.6521 0.6525 0.6528 0.6533
3308.000000 0.6537 0.6540 0.6544 0.6547 0.6551
3303.000000 0.6554 0.6558 0.6561 0.6565 0.6568
3298.000000 0.6571 0.6575 0.6578 0.6581 0.6585
3293.000000 0.6588 0.6591 0.6594 0.6597 0.6600
3288.000000 0.6604 0.6607 0.6610 0.6612 0.6617
3283.000000 0.6619 0.6622 0.6625 0.6628 0.6632
3278.000000 0.6636 0.6639 0.6642 0.6645 0.6648
3273.000000 0.6650 0.6653 0.6655 0.6658 0.6660
3268.000000 0.6662 0.6665 0.6668 0.6669 0.6672
3263.000000 0.6675 0.6676 0.6678 0.6682 0.6684
3258.000000 0.6687 0.6689 0.6692 0.6694 0.6696
3253.000000 0.6698 0.6701 0.6703 0.6706 0.6708
3248.000000 0.6711 0.6712 0.6715 0.6718 0.6721
3243.000000 0.6724 0.6726 0.6728 0.6732 0.6734
3238.000000 0.6737 0.6739 0.6742 0.6745 0.6748
3233.000000 0.6750 0.6753 0.6755 0.6758 0.6760
3228.000000 0.6762 0.6765 0.6768 0.6771 0.6775
3223.000000 0.6778 0.6781 0.6784 0.6788 0.6791
3218.000000 0.6794 0.6797 0.6801 0.6804 0.6807
3213.000000 0.6810 0.6812 0.6815 0.6819 0.6822
3208.000000 0.6825 0.6828 0.6833 0.6836 0.6839
3203.000000 0.6842 0.6846 0.6849 0.6851 0.6855
3198.000000 0.6858 0.6861 0.6865 0.6868 0.6872
3193.000000 0.6875 0.6880 0.6883 0.6887 0.6890
3188.000000 0.6894 0.6897 0.6901 0.6904 0.6908
3183.000000 0.6911 0.6915 0.6918 0.6921 0.6925
3178.000000 0.6928 0.6932 0.6936 0.6939 0.6943
3173.000000 0.6946 0.6950 0.6954 0.6958 0.6961
3168.000000 0.6965 0.6968 0.6972 0.6975 0.6980
3163.000000 0.6983 0.6987 0.6991 0.6995 0.6998
3158.000000 0.7001 0.7006 0.7010 0.7011 0.7014
3153.000000 0.7015 0.7018 0.7021 0.7022 0.7025
3148.000000 0.7026 0.7028 0.7031 0.7033 0.7036
3143.000000 0.7038 0.7040 0.7042 0.7044 0.7046
3138.000000 0.7048 0.7050 0.7053 0.7054 0.7056
3133.000000 0.7057 0.7058 0.7061 0.7062 0.7064
3128.000000 0.7065 0.7067 0.7068 0.7071 0.7072
3123.000000 0.7074 0.7075 0.7076 0.7078 0.7080
3118.000000 0.7081 0.7081 0.7082 0.7082 0.7083
3113.000000 0.7083 0.7084 0.7084 0.7085 0.7085
3108.000000 0.7086 0.7086 0.7087 0.7087 0.7087
3103.000000 0.7087 0.7088 0.7088 0.7089 0.7089
3098.000000 0.7089 0.7082 0.7075 0.7068 0.7061
3093.000000 0.7051 0.7042 0.7028 0.7015 0.6999
3088.000000 0.6983 0.6965 0.6950 0.6919 0.6890
3083.000000 0.6868 0.6846 0.6826 0.6808 0.6788
3078.000000 0.6768 0.6750 0.6731 0.6711 0.6693
3073.000000 0.6672 0.6654 0.6634 0.6615 0.6595
3068.000000 0.6575 0.6555 0.6536 0.6525 0.6514
3063.000000 0.6512 0.6511 0.6512 0.6517 0.6521
3058.000000 0.6525 0.6528 0.6532 0.6537 0.6542
3053.000000 0.6551 0.6561 0.6575 0.6590 0.6608
3048.000000 0.6626 0.6645 0.6662 0.6681 0.6699
3043.000000 0.6715 0.6734 0.6754 0.6774 0.6795
3038.000000 0.6817 0.6841 0.6865 0.6894 0.6922
3033.000000 0.6934 0.6945 0.6944 0.6944 0.6944
3028.000000 0.6944 0.6932 0.6919 0.6914 0.6908
3023.000000 0.6910 0.6911 0.6921 0.6932 0.6942
3018.000000 0.6953 0.6964 0.6975 0.6985 0.6996
3013.000000 0.7007 0.7018 0.7030 0.7041 0.7051
3008.000000 0.7062 0.7074 0.7085 0.7095 0.7105
3003.000000 0.7115 0.7125 0.7136 0.7146 0.7156
2998.000000 0.7167 0.7175 0.7184 0.7190 0.7197
2993.000000 0.7203 0.7208 0.7215 0.7221 0.7226
2988.000000 0.7233 0.7239 0.7246 0.7250 0.7255
2983.000000 0.7258 0.7261 0.7264 0.7267 0.7268
2978.000000 0.7271 0.7275 0.7278 0.7281 0.7284
2973.000000 0.7287 0.7290 0.7293 0.7296 0.7299
2968.000000 0.7301 0.7304 0.7307 0.7310 0.7312
2963.000000 0.7315 0.7317 0.7318 0.7319 0.7321
2958.000000 0.7321 0.7322 0.7325 0.7325 0.7326
2953.000000 0.7328 0.7330 0.7331 0.7332 0.7333
2948.000000 0.7335 0.7336 0.7337 0.7338 0.7339
2943.000000 0.7340 0.7342 0.7343 0.7344 0.7344
2938.000000 0.7345 0.7346 0.7347 0.7348 0.7349
2933.000000 0.7349 0.7350 0.7351 0.7351 0.7351
2928.000000 0.7353 0.7354 0.7355 0.7355 0.7356
2923.000000 0.7357 0.7358 0.7358 0.7360 0.7360
2918.000000 0.7361 0.7361 0.7361 0.7361 0.7362
2913.000000 0.7362 0.7364 0.7364 0.7365 0.7365
2908.000000 0.7365 0.7365 0.7367 0.7367 0.7368
2903.000000 0.7368 0.7368 0.7368 0.7368 0.7368
2898.000000 0.7369 0.7369 0.7371 0.7371 0.7371
2893.000000 0.7371 0.7372 0.7372 0.7374 0.7375
2888.000000 0.7375 0.7375 0.7376 0.7378 0.7378
2883.000000 0.7380 0.7381 0.7382 0.7383 0.7384
2878.000000 0.7385 0.7386 0.7387 0.7388 0.7389
2873.000000 0.7390 0.7391 0.7392 0.7393 0.7394
2868.000000 0.7395 0.7396 0.7397 0.7399 0.7401
2863.000000 0.7405 0.7408 0.7410 0.7412 0.7415
2858.000000 0.7418 0.7421 0.7424 0.7425 0.7428
2853.000000 0.7431 0.7434 0.7436 0.7439 0.7442
2848.000000 0.7445 0.7447 0.7450 0.7451 0.7455
2843.000000 0.7458 0.7461 0.7462 0.7465 0.7467
2838.000000 0.7468 0.7471 0.7474 0.7475 0.7478
2833.000000 0.7480 0.7483 0.7485 0.7487 0.7489
2828.000000 0.7491 0.7493 0.7494 0.7494 0.7494
2823.000000 0.7494 0.7494 0.7493 0.7493 0.7492
2818.000000 0.7492 0.7492 0.7492 0.7491 0.7491
2813.000000 0.7490 0.7490 0.7490 0.7490 0.7489
2808.000000 0.7489 0.7489 0.7490 0.7490 0.7491
2803.000000 0.7491 0.7492 0.7493 0.7494 0.7494
2798.000000 0.7495 0.7495 0.7496 0.7497 0.7498
2793.000000 0.7498 0.7499 0.7499 0.7500 0.7500
2788.000000 0.7501 0.7501 0.7503 0.7503 0.7504
2783.000000 0.7504 0.7505 0.7506 0.7507 0.7507
2778.000000 0.7508 0.7508 0.7510 0.7511 0.7511
2773.000000 0.7512 0.7514 0.7515 0.7515 0.7517
2768.000000 0.7518 0.7518 0.7519 0.7521 0.7521
2763.000000 0.7522 0.7524 0.7525 0.7525 0.7526
2758.000000 0.7528 0.7528 0.7530 0.7531 0.7532
2753.000000 0.7533 0.7534 0.7535 0.7536 0.7537
2748.000000 0.7538 0.7539 0.7540 0.7541 0.7543
2743.000000 0.7544 0.7546 0.7547 0.7549 0.7550
2738.000000 0.7551 0.7553 0.7555 0.7556 0.7558
2733.000000 0.7558 0.7561 0.7561 0.7564 0.7565
2728.000000 0.7567 0.7568 0.7569 0.7571 0.7572
2723.000000 0.7574 0.7575 0.7576 0.7578 0.7580
2718.000000 0.7582 0.7583 0.7585 0.7586 0.7588
2713.000000 0.7589 0.7591 0.7592 0.7594 0.7595
2708.000000 0.7597 0.7598 0.7599 0.7600 0.7601
2703.000000 0.7603 0.7604 0.7605 0.7606 0.7607
2698.000000 0.7608 0.7608 0.7610 0.7611 0.7611
2693.000000 0.7612 0.7614 0.7615 0.7617 0.7618
2688.000000 0.7618 0.7619 0.7621 0.7621 0.7622
2683.000000 0.7624 0.7625 0.7625 0.7626 0.7628
2678.000000 0.7630 0.7631 0.7632 0.7633 0.7634
2673.000000 0.7635 0.7636 0.7636 0.7637 0.7637
2668.000000 0.7638 0.7638 0.7639 0.7639 0.7640
2663.000000 0.7640 0.7641 0.7642 0.7643 0.7643
2658.000000 0.7644 0.7644 0.7645 0.7645 0.7646
2653.000000 0.7646 0.7647 0.7647 0.7648 0.7648
2648.000000 0.7649 0.7650 0.7651 0.7651 0.7651
2643.000000 0.7651 0.7653 0.7654 0.7655 0.7656
2638.000000 0.7658 0.7658 0.7661 0.7661 0.7664
2633.000000 0.7665 0.7668 0.7668 0.7671 0.7671
2628.000000 0.7674 0.7675 0.7676 0.7678 0.7680
2623.000000 0.7681 0.7683 0.7684 0.7686 0.7687
2618.000000 0.7689 0.7690 0.7692 0.7693 0.7695
2613.000000 0.7696 0.7698 0.7699 0.7701 0.7701
2608.000000 0.7704 0.7705 0.7707 0.7708 0.7710
2603.000000 0.7711 0.7712 0.7714 0.7715 0.7717
2598.000000 0.7718 0.7719 0.7721 0.7722 0.7725
2593.000000 0.7725 0.7728 0.7728 0.7731 0.7732
2588.000000 0.7734 0.7735 0.7737 0.7738 0.7740
2583.000000 0.7741 0.7743 0.7744 0.7746 0.7747
2578.000000 0.7749 0.7750 0.7751 0.7753 0.7755
2573.000000 0.7756 0.7758 0.7758 0.7761 0.7761
2568.000000 0.7764 0.7765 0.7765 0.7765 0.7767
2563.000000 0.7767 0.7767 0.7767 0.7768 0.7768
2558.000000 0.7768 0.7768 0.7768 0.7768 0.7768
2553.000000 0.7768 0.7769 0.7769 0.7769 0.7769
2548.000000 0.7771 0.7771 0.7771 0.7771 0.7771
2543.000000 0.7771 0.7771 0.7771 0.7772 0.7772
2538.000000 0.7772 0.7772 0.7772 0.7772 0.7772
2533.000000 0.7772 0.7772 0.7771 0.7771 0.7771
2528.000000 0.7771 0.7771 0.7771 0.7771 0.7771
2523.000000 0.7771 0.7771 0.7769 0.7769 0.7769
2518.000000 0.7769 0.7768 0.7768 0.7768 0.7768
2513.000000 0.7768 0.7768 0.7768 0.7768 0.7767
2508.000000 0.7767 0.7767 0.7767 0.7765 0.7765
2503.000000 0.7765 0.7765 0.7765 0.7765 0.7764
2498.000000 0.7764 0.7762 0.7762 0.7761 0.7761
2493.000000 0.7761 0.7761 0.7760 0.7760 0.7758
2488.000000 0.7758 0.7758 0.7758 0.7757 0.7757
2483.000000 0.7756 0.7756 0.7755 0.7755 0.7754
2478.000000 0.7754 0.7753 0.7753 0.7751 0.7751
2473.000000 0.7751 0.7751 0.7751 0.7751 0.7751
2468.000000 0.7751 0.7751 0.7751 0.7751 0.7751
2463.000000 0.7750 0.7750 0.7750 0.7750 0.7750
2458.000000 0.7750 0.7750 0.7750 0.7749 0.7749
2453.000000 0.7749 0.7749 0.7749 0.7749 0.7749
2448.000000 0.7749 0.7749 0.7749 0.7748 0.7748
2443.000000 0.7748 0.7748 0.7748 0.7748 0.7748
2438.000000 0.7748 0.7747 0.7747 0.7747 0.7748
2433.000000 0.7748 0.7748 0.7748 0.7748 0.7748
2428.000000 0.7748 0.7748 0.7748 0.7748 0.7748
2423.000000 0.7748 0.7748 0.7748 0.7749 0.7749
2418.000000 0.7749 0.7749 0.7750 0.7751 0.7753
2413.000000 0.7754 0.7756 0.7757 0.7758 0.7760
2408.000000 0.7761 0.7762 0.7765 0.7765 0.7768
2403.000000 0.7768 0.7771 0.7771 0.7774 0.7775
2398.000000 0.7776 0.7778 0.7780 0.7781 0.7783
2393.000000 0.7784 0.7786 0.7787 0.7789 0.7791
2388.000000 0.7793 0.7795 0.7797 0.7799 0.7801
2383.000000 0.7803 0.7805 0.7807 0.7808 0.7810
2378.000000 0.7811 0.7814 0.7815 0.7818 0.7819
2373.000000 0.7821 0.7822 0.7824 0.7825 0.7826
2368.000000 0.7828 0.7830 0.7832 0.7833 0.7835
2363.000000 0.7837 0.7839 0.7840 0.7842 0.7843
2358.000000 0.7845 0.7846 0.7848 0.7849 0.7851
2353.000000 0.7853 0.7855 0.7857 0.7858 0.7861
2348.000000 0.7862 0.7864 0.7865 0.7868 0.7869
2343.000000 0.7871 0.7874 0.7875 0.7875 0.7876
2338.000000 0.7878 0.7878 0.7878 0.7878 0.7880
2333.000000 0.7880 0.7881 0.7881 0.7882 0.7882
2328.000000 0.7883 0.7883 0.7883 0.7883 0.7882
2323.000000 0.7875 0.7869 0.7864 0.7858 0.7854
2318.000000 0.7849 0.7844 0.7839 0.7834 0.7830
2313.000000 0.7825 0.7822 0.7821 0.7819 0.7818
2308.000000 0.7815 0.7814 0.7812 0.7811 0.7808
2303.000000 0.7808 0.7808 0.7808 0.7808 0.7808
2298.000000 0.7808 0.7808 0.7808 0.7808 0.7808
2293.000000 0.7808 0.7808 0.7808 0.7808 0.7808
2288.000000 0.7808 0.7808 0.7810 0.7810 0.7810
2283.000000 0.7810 0.7810 0.7810 0.7811 0.7811
2278.000000 0.7811 0.7811 0.7811 0.7811 0.7811
2273.000000 0.7811 0.7812 0.7812 0.7812 0.7811
2268.000000 0.7811 0.7811 0.7811 0.7811 0.7811
2263.000000 0.7811 0.7811 0.7811 0.7811 0.7811
2258.000000 0.7811 0.7811 0.7811 0.7811 0.7812
2253.000000 0.7812 0.7814 0.7814 0.7815 0.7815
2248.000000 0.7815 0.7817 0.7818 0.7818 0.7821
2243.000000 0.7822 0.7825 0.7825 0.7828 0.7831
2238.000000 0.7834 0.7840 0.7846 0.7851 0.7858
2233.000000 0.7864 0.7869 0.7875 0.7882 0.7888
2228.000000 0.7894 0.7901 0.7908 0.7911 0.7917
2223.000000 0.7919 0.7922 0.7925 0.7928 0.7931
2218.000000 0.7934 0.7937 0.7940 0.7943 0.7946
2213.000000 0.7949 0.7951 0.7955 0.7958 0.7961
2208.000000 0.7964 0.7967 0.7969 0.7972 0.7975
2203.000000 0.7978 0.7982 0.7985 0.7988 0.7991
2198.000000 0.7994 0.7998 0.8001 0.8006 0.8011
2193.000000 0.8015 0.8019 0.8024 0.8028 0.8033
2188.000000 0.8038 0.8042 0.8047 0.8051 0.8056
2183.000000 0.8060 0.8065 0.8068 0.8074 0.8078
2178.000000 0.8083 0.8087 0.8092 0.8095 0.8099
2173.000000 0.8101 0.8106 0.8108 0.8111 0.8115
2168.000000 0.8118 0.8121 0.8125 0.8128 0.8132
2163.000000 0.8135 0.8138 0.8141 0.8145 0.8148
2158.000000 0.8151 0.8154 0.8158 0.8161 0.8165
2153.000000 0.8168 0.8171 0.8174 0.8178 0.8181
2148.000000 0.8184 0.8187 0.8190 0.8192 0.8195
2143.000000 0.8197 0.8200 0.8202 0.8205 0.8207
2138.000000 0.8210 0.8212 0.8215 0.8217 0.8220
2133.000000 0.8221 0.8225 0.8227 0.8230 0.8232
2128.000000 0.8234 0.8236 0.8239 0.8241 0.8244
2123.000000 0.8246 0.8249 0.8251 0.8254 0.8256
2118.000000 0.8259 0.8261 0.8263 0.8265 0.8268
2113.000000 0.8270 0.8271 0.8274 0.8277 0.8278
2108.000000 0.8281 0.8283 0.8286 0.8288 0.8290
2103.000000 0.8292 0.8295 0.8297 0.8299 0.8301
2098.000000 0.8304 0.8306 0.8308 0.8310 0.8313
2093.000000 0.8315 0.8317 0.8318 0.8321 0.8323
2088.000000 0.8325 0.8328 0.8330 0.8332 0.8334
2083.000000 0.8336 0.8339 0.8341 0.8343 0.8344
2078.000000 0.8346 0.8348 0.8350 0.8351 0.8353
2073.000000 0.8353 0.8353 0.8353 0.8353 0.8353
2068.000000 0.8353 0.8353 0.8354 0.8354 0.8354
2063.000000 0.8354 0.8354 0.8354 0.8354 0.8354
2058.000000 0.8354 0.8355 0.8357 0.8359 0.8362
2053.000000 0.8364 0.8366 0.8368 0.8371 0.8373
2048.000000 0.8375 0.8377 0.8380 0.8383 0.8387
2043.000000 0.8390 0.8393 0.8396 0.8400 0.8403
2038.000000 0.8406 0.8409 0.8412 0.8415 0.8418
2033.000000 0.8421 0.8425 0.8428 0.8433 0.8436
2028.000000 0.8440 0.8444 0.8448 0.8451 0.8455
2023.000000 0.8459 0.8463 0.8467 0.8471 0.8477
2018.000000 0.8482 0.8486 0.8491 0.8495 0.8500
2013.000000 0.8504 0.8508 0.8508 0.8508 0.8508
2008.000000 0.8509 0.8509 0.8510 0.8510 0.8510
2003.000000 0.8510 0.8510 0.8510 0.8510 0.8508
1998.000000 0.8505 0.8502 0.8499 0.8482 0.8456
1993.000000 0.8431 0.8399 0.8362 0.8352 0.8346
1988.000000 0.8350 0.8375 0.8397 0.8417 0.8424
1983.000000 0.8428 0.8432 0.8435 0.8439 0.8442
1978.000000 0.8442 0.8442 0.8441 0.8441 0.8441
1973.000000 0.8441 0.8440 0.8440 0.8440 0.8440
1968.000000 0.8441 0.8441 0.8441 0.8441 0.8441
1963.000000 0.8442 0.8442 0.8441 0.8441 0.8440
1958.000000 0.8434 0.8425 0.8416 0.8407 0.8398
1953.000000 0.8392 0.8393 0.8394 0.8395 0.8396
1948.000000 0.8397 0.8400 0.8405 0.8411 0.8416
1943.000000 0.8421 0.8428 0.8440 0.8452 0.8463
1938.000000 0.8475 0.8487 0.8496 0.8505 0.8513
1933.000000 0.8521 0.8531 0.8539 0.8548 0.8557
1928.000000 0.8566 0.8575 0.8585 0.8594 0.8602
1923.000000 0.8603 0.8604 0.8603 0.8602 0.8601
1918.000000 0.8595 0.8588 0.8582 0.8575 0.8568
1913.000000 0.8562 0.8585 0.8553 0.8550 0.8547
1908.000000 0.8545 0.8542 0.8539 0.8539 0.8539
1903.000000 0.8538 0.8538 0.8541 0.8545 0.8549
1898.000000 0.8552 0.8557 0.8563 0.8570 0.8578
1893.000000 0.8588 0.8588 0.8571 0.8554 0.8536
1888.000000 0.8518 0.8503 0.8488 0.8477 0.8431
1883.000000 0.8455 0.8448 0.8441 0.8440 0.8439
1878.000000 0.8441 0.8457 0.8473 0.8489 0.8505
1873.000000 0.8518 0.8531 0.8544 0.8557 0.8570
1868.000000 0.8583 0.8593 0.8602 0.8610 0.8618
1863.000000 0.8625 0.8634 0.8642 0.8650 0.8656
1858.000000 0.8661 0.8666 0.8671 0.8677 0.8682
1853.000000 0.8684 0.8685 0.8687 0.8689 0.8690
1848.000000 0.8692 0.8694 0.8695 0.8695 0.8696
1843.000000 0.8696 0.8697 0.8697 0.8698 0.8698
1838.000000 0.8699 0.8699 0.8700 0.8700 0.8700
1833.000000 0.8700 0.8701 0.8701 0.8701 0.8702
1828.000000 0.8704 0.8706 0.8708 0.8710 0.8713
1823.000000 0.8715 0.8717 0.8718 0.8721 0.8725
1818.000000 0.8728 0.8731 0.8732 0.8733 0.8733
1813.000000 0.8733 0.8733 0.8725 0.8718 0.8710
1808.000000 0.8703 0.8697 0.8692 0.8686 0.8681
1803.000000 0.8677 0.8675 0.8674 0.8673 0.8671
1798.000000 0.8671 0.8671 0.8671 0.8671 0.8671
1793.000000 0.8671 0.8674 0.8675 0.8678 0.8682
1788.000000 0.8685 0.8689 0.8694 0.8698 0.8702
1783.000000 0.8706 0.8710 0.8715 0.8718 0.8724
1778.000000 0.8728 0.8733 0.8738 0.8741 0.8743
1773.000000 0.8745 0.8747 0.8749 0.8752 0.8754
1768.000000 0.8756 0.8758 0.8761 0.8764 0.8767
1763.000000 0.8770 0.8774 0.8777 0.8780 0.8780
1758.000000 0.8778 0.8778 0.8777 0.8775 0.8771
1753.000000 0.8770 0.8767 0.8767 0.8768 0.8775
1748.000000 0.8784 0.8791 0.8799 0.8806 0.8813
1743.000000 0.8818 0.8825 0.8832 0.8839 0.8845
1738.000000 0.8852 0.8858 0.8863 0.8867 0.8871
1733.000000 0.8875 0.8880 0.8884 0.8888 0.8893
1728.000000 0.8897 0.8902 0.8907 0.8911 0.8931
1723.000000 0.8918 0.8920 0.8921 0.8925 0.8927
1718.000000 0.8927 0.8927 0.8924 0.8918 0.8915
1713.000000 0.8910 0.8900 0.8890 0.8875 0.8859
1708.000000 0.8844 0.8830 0.8818 0.8808 0.8797
1703.000000 0.8786 0.8787 0.8789 0.8790 0.8792
1698.000000 0.8793 0.8795 0.8797 0.8800 0.8803
1693.000000 0.8806 0.8809 0.8812 0.8815 0.8818
1688.000000 0.8818 0.8818 0.8818 0.8817 0.8817
1683.000000 0.8816 0.8815 0.8815 0.8814 0.8813
1678.000000 0.8811 0.8807 0.8804 0.8801 0.8798
1673.000000 0.8795 0.8788 0.8778 0.8770 0.8761
1668.000000 0.8752 0.8741 0.8730 0.8718 0.8707
1663.000000 0.8683 0.8659 0.8635 0.8611 0.8585
1658.000000 0.8554 0.8523 0.8493 0.8462 0.8428
1653.000000 0.8386 0.8339 0.8280 0.8220 0.8150
1648.000000 0.8081 0.8000 0.7915 0.7839 0.7762
1643.000000 0.7688 0.7591 0.7464 0.7268 0.7086
1638.000000 0.6991 0.6875 0.6714 0.6541 0.6360
1633.000000 0.6205 0.6050 0.5762 0.5504 0.4908
1628.000000 0.4584 0.4465 0.4369 0.4290 0.4234
1623.000000 0.4229 0.4220 0.4321 0.4532 0.4676
1618.000000 0.4786 0.4912 0.5084 0.5270 0.5456
1613.000000 0.5641 0.5827 0.6012 0.6199 0.6385
1608.000000 0.6571 0.6757 0.6942 0.7128 0.7314
1603.000000 0.7500 0.7686 0.7841 0.7901 0.7928
1598.000000 0.7921 0.7899 0.7648 0.7484 0.6783
1593.000000 0.6778 0.6776 0.6912 0.7132 0.7276
1588.000000 0.7480 0.7510 0.7522 0.7525 0.7484
1583.000000 0.7446 0.7437 0.7506 0.7687 0.7846
1578.000000 0.7993 0.8081 0.8168 0.8249 0.8303
1573.000000 0.8358 0.8410 0.8447 0.8484 0.8521
1568.000000 0.8553 0.8573 0.8593 0.8614 0.8634
1563.000000 0.8654 0.8665 0.8674 0.8683 0.8693
1558.000000 0.8702 0.8711 0.8721 0.8730 0.8739
1553.000000 0.8749 0.8758 0.8767 0.8777 0.8786
1548.000000 0.8796 0.8805 0.8813 0.8821 0.8830
1543.000000 0.8838 0.8844 0.8847 0.8849 0.8851
1538.000000 0.8854 0.8856 0.8856 0.8852 0.8849
1533.000000 0.8845 0.8839 0.8834 0.8828 0.8828
1528.000000 0.8827 0.8831 0.8835 0.8839 0.8843
1523.000000 0.8850 0.8856 0.8863 0.8868 0.8875
1518.000000 0.8882 0.8889 0.8895 0.8897 0.8898
1513.000000 0.8903 0.8902 0.8901 0.8902 0.8902
1508.000000 0.8901 0.8900 0.8900 0.8899 0.8898
1503.000000 0.8897 0.8897 0.8897 0.8897 0.8896
1498.000000 0.8896 0.8896 0.8893 0.8887 0.8881
1493.000000 0.8875 0.8857 0.8830 0.8797 0.8750
1488.000000 0.8693 0.8637 0.8563 0.8475 0.8366
1483.000000 0.8119 0.8028 0.7982 0.7986 0.8062
1478.000000 0.8164 0.8172 0.8202 0.6897 0.6045
1473.000000 0.5192 0.4340 0.3487 0.2946 0.2964
1468.000000 0.3307 0.3939 0.4572 0.5205 0.5837
1463.000000 0.6469 0.7103 0.7314 0.7708 0.7788
1458.000000 0.7840 0.7876 0.7898 0.7914 0.7936
1453.000000 0.7928 0.7922 0.7904 0.7834 0.3232
1448.000000 0.3199 0.3428 0.3993 0.4559 0.5124
1443.000000 0.5690 0.6255 0.6821 0.7386 0.7625
1438.000000 0.7728 0.7833 0.8008 0.8080 0.8097
1433.000000 0.8101 0.8107 0.8144 0.8069 0.7982
1428.000000 0.7839 0.7400 0.6961 0.6522 0.6085
1423.000000 0.5646 0.5208 0.4956 0.5035 0.5471
1418.000000 0.5908 0.6345 0.6781 0.7187 0.7306
1413.000000 0.7637 0.7871 0.8024 0.8118 0.8192
1408.000000 0.8257 0.8292 0.8318 0.8328 0.8340
1403.000000 0.8352 0.8363 0.8371 0.8378 0.8386
1398.000000 0.8394 0.8399 0.8402 0.8405 0.8409
1393.000000 0.8413 0.8418 0.8421 0.8423 0.8425
1388.000000 0.8425 0.8424 0.8409 0.8378 0.8345
1383.000000 0.8346 0.8346 0.8333 0.8353 0.8373
1378.000000 0.8394 0.8415 0.8436 0.8449 0.8461
1373.000000 0.8471 0.8483 0.8484 0.8484 0.8484
1368.000000 0.8485 0.8485 0.8485 0.8486 0.8486
1363.000000 0.8486 0.8486 0.8487 0.8487 0.8487
1358.000000 0.8487 0.8485 0.8482 0.8478 0.8475
1353.000000 0.8473 0.8467 0.8458 0.8448 0.8439
1348.000000 0.8413 0.8384 0.8311 0.8078 0.7962
1343.000000 0.7805 0.7689 0.7578 0.7462 0.7496
1338.000000 0.7540 0.7611 0.7669 0.7721 0.7734
1333.000000 0.7728 0.7722 0.7717 0.7701 0.7680
1328.000000 0.7653 0.7615 0.7556 0.7318 0.7057
1323.000000 0.6795 0.6533 0.6340 0.6295 0.6538
1318.000000 0.6748 0.6958 0.7167 0.7376 0.7556
1313.000000 0.7636 0.7697 0.7754 0.7801 0.7839
1308.000000 0.7861 0.7886 0.7878 0.7871 0.7889
1303.000000 0.7843 0.7825 0.7805 0.7780 0.7749
1298.000000 0.7693 0.7589 0.7390 0.7261 0.7154
1293.000000 0.7047 0.7068 0.7090 0.7196 0.7296
1288.000000 0.7444 0.7596 0.7724 0.7783 0.7800
1283.000000 0.7790 0.7775 0.7708 0.7407 0.7311
1278.000000 0.7304 0.7301 0.7272 0.7205 0.7067
1273.000000 0.6851 0.6872 0.6871 0.6928 0.7011
1268.000000 0.7097 0.7218 0.7331 0.7425 0.7500
1263.000000 0.7575 0.7661 0.7661 0.7661 0.7692
1258.000000 0.7694 0.7681 0.7668 0.7650 0.7630
1253.000000 0.7611 0.7558 0.7500 0.7222 0.7100
1248.000000 0.6976 0.6844 0.6682 0.5348 0.5307
1243.000000 0.5249 0.5249 0.5249 0.5314 0.5371
1238.000000 0.5474 0.5492 0.5493 0.5493 0.5425
1233.000000 0.5319 0.4650 0.4407 0.4210 0.4000
1228.000000 0.3736 0.3318 0.3114 0.2920 0.2761
1223.000000 0.2570 0.2063 0.1800 0.1536 0.1273
1218.000000 0.1009 0.0746 0.0477 0.0367 0.0261
1213.000000 0.0210 0.0177 0.0158 0.0141 0.0137
1208.000000 0.0119 0.0141 0.0146 0.0168 0.0223
1203.000000 0.0265 0.0340 0.0475 0.0595 0.0700
1198.000000 0.0741 0.0749 0.0771 0.0719 0.0649
1193.000000 0.0567 0.0527 0.0477 0.0473 0.0475
1188.000000 0.0491 0.0707 0.0825 0.0960 0.1096
1183.000000 0.1187 0.1199 0.1242 0.1222 0.1196
1178.000000 0.1069 0.0876 0.0693 0.0554 0.0429
1173.000000 0.0322 0.0282 0.0228 0.0266 0.0260
1168.000000 0.0270 0.0406 0.0563 0.0671 0.0761
1163.000000 0.0938 0.1162 0.1669 0.1993 0.2202
1158.000000 0.2365 0.2514 0.2656 0.2774 0.2884
1153.000000 0.3020 0.3166 0.3307 0.3441 0.3576
1148.000000 0.4290 0.4412 0.4631 0.4871 0.4995
1143.000000 0.5115 0.5290 0.5331 0.5358 0.5376
1138.000000 0.5392 0.5409 0.5426 0.5452 0.5445
1133.000000 0.5449 0.5453 0.5452 0.5422 0.5352
1128.000000 0.5173 0.3730 0.3112 0.2492 0.1873
1123.000000 0.1253 0.0942 0.0949 0.1114 0.1549
1118.000000 0.1983 0.2417 0.2851 0.3284 0.3718
1113.000000 0.4153 0.4587 0.5021 0.5455 0.5567
1108.000000 0.5571 0.5585 0.5140 0.4434 0.3728
1103.000000 0.3021 0.2315 0.1608 0.1257 0.1240
1098.000000 0.1305 0.1865 0.2425 0.2984 0.3545
1093.000000 0.4105 0.4665 0.5420 0.5867 0.6048
1088.000000 0.6196 0.6307 0.6418 0.6515 0.6592
1083.000000 0.6669 0.6747 0.6811 0.6848 0.6885
1078.000000 0.6921 0.6953 0.6978 0.7005 0.7031
1073.000000 0.7057 0.7085 0.7114 0.7142 0.7171
1068.000000 0.7200 0.7228 0.7250 0.7272 0.7296
1063.000000 0.7318 0.7338 0.7356 0.7375 0.7384
1058.000000 0.7391 0.7397 0.7404 0.7411 0.7411
1053.000000 0.7411 0.7404 0.7365 0.7319 0.7237
1048.000000 0.7068 0.5696 0.5223 0.4919 0.4801
1043.000000 0.4636 0.3912 0.3111 0.2311 0.1510
1038.000000 0.1224 0.1489 0.1902 0.2316 0.2730
1033.000000 0.3144 0.3558 0.3971 0.4385 0.4799
1028.000000 0.5212 0.5626 0.5854 0.5837 0.5248
1023.000000 0.4326 0.2119 0.2484 0.2144 0.2492
1018.000000 0.3071 0.3649 0.4228 0.4806 0.5385
1013.000000 0.5964 0.6542 0.7121 0.7255 0.7278
1008.000000 0.6932 0.6587 0.6243 0.5900 0.5900
1003.000000 0.6285 0.6689 0.7093 0.7414 0.7569
998.000000 0.7703 0.7800 0.7896 0.7989 0.8053
993.000000 0.8114 0.8149 0.8184 0.8218 0.8252
988.000000 0.8275 0.8300 0.8315 0.8321 0.8328
983.000000 0.8334 0.8340 0.8347 0.8353 0.8359
978.000000 0.8364 0.8368 0.8374 0.8378 0.8378
973.000000 0.8380 0.8371 0.8364 0.8367 0.8371
968.000000 0.8375 0.8388 0.8415 0.8434 0.8450
963.000000 0.8466 0.8482 0.8490 0.8497 0.8504
958.000000 0.8513 0.8524 0.8534 0.8545 0.8550
953.000000 0.8554 0.8557 0.8559 0.8553 0.8547
948.000000 0.8524 0.8191 0.7849 0.7858 0.7864
943.000000 0.8015 0.8148 0.8198 0.8214 0.8218
938.000000 0.8211 0.8182 0.8180 0.8198 0.8265
933.000000 0.8352 0.8448 0.8549 0.8628 0.8671
928.000000 0.8715 0.8749 0.8765 0.8781 0.8797
923.000000 0.8809 0.8810 0.8810 0.8810 0.8809
918.000000 0.8806 0.8798 0.8774 0.8750 0.8693
913.000000 0.8588 0.8375 0.7967 0.7238 0.7225
908.000000 0.7468 0.7894 0.8100 0.8284 0.8400
903.000000 0.8462 0.8520 0.8574 0.8623 0.8652
898.000000 0.8662 0.8655 0.8656 0.8656 0.8575
893.000000 0.8172 0.8168 0.8158 0.7578 0.7883
888.000000 0.7581 0.7655 0.8430 0.8581 0.8716
883.000000 0.8756 0.8765 0.8751 0.8780 0.8759
878.000000 0.8738 0.8717 0.8684 0.8575 0.8383
873.000000 0.8184 0.7985 0.7788 0.7768 0.7724
868.000000 0.7425 0.7430 0.7421 0.7417 0.7626
863.000000 0.8128 0.8184 0.8225 0.8267 0.8315
858.000000 0.8365 0.8410 0.8453 0.8471 0.8471
853.000000 0.8471 0.8458 0.8440 0.8366 0.8291
848.000000 0.8114 0.7833 0.7045 0.6256 0.5467
843.000000 0.4679 0.4012 0.4012 0.4012 0.5859
838.000000 0.7193 0.7501 0.7694 0.7886 0.8078
833.000000 0.8270 0.8452 0.8492 0.8287 0.7448
828.000000 0.6610 0.5771 0.4932 0.4094 0.3255
823.000000 0.2733 0.2676 0.3843 0.4889 0.5935
818.000000 0.6908 0.7689 0.7988 0.8210 0.8368
813.000000 0.8470 0.8571 0.8659 0.8728 0.8800
808.000000 0.8862 0.8906 0.8949 0.8975 0.9003
803.000000 0.9021 0.9039 0.9057 0.9071 0.9083
798.000000 0.9096 0.9099 0.9102 0.9105 0.9109
793.000000 0.9112 0.9115 0.9142 0.9118 0.9116
788.000000 0.9112 0.9093 0.9073 0.9043 0.8994
783.000000 0.8909 0.7718 0.6951 0.6725 0.6694
778.000000 0.6817 0.7001 0.7322 0.7318 0.7315
773.000000 0.3462 0.3462 0.3462 0.4057 0.4883
768.000000 0.5709 0.6534 0.7360 0.7825 0.7825
763.000000 0.7825 0.5510 0.4030 0.2549 0.0989
758.000000 0.0967 0.1129 0.1580 0.2032 0.2337
753.000000 0.2383 0.2447 0.3290 0.4790 0.6290
748.000000 0.6930 0.7041 0.7238 0.7436 0.7633
743.000000 0.7830 0.8028 0.8225 0.8386 0.8398
738.000000 0.8399 0.8400 0.8384 0.8360 0.8314
733.000000 0.7269 0.6771 0.6782 0.6911 0.7096
728.000000 0.7278 0.7455 0.7469 0.7244 0.6236
723.000000 0.5227 0.4219 0.3210 0.1580 0.1573
718.000000 0.1954 0.2628 0.3300 0.3974 0.4647
713.000000 0.5320 0.5992 0.7219 0.7461 0.7655
708.000000 0.7848 0.8018 0.8132 0.8228 0.8317
703.000000 0.8402 0.8483 0.8560 0.8634 0.8688
698.000000 0.8723 0.8743 0.8763 0.8768 0.8771
693.000000 0.8774 0.8777 0.8777 0.8777 0.8774
688.000000 0.8770 0.8766 0.8751 0.8737 0.8723
683.000000 0.8697 0.8668 0.8635 0.8587 0.8540
678.000000 0.8482 0.8421 0.8352 0.8275 0.8199
673.000000 0.8117 0.8035 0.7928 0.7793 0.7693
668.000000 0.7592 0.7489 0.7380 0.7311 0.7251
663.000000 0.7192 0.7106 0.6978 0.4852 0.4422
658.000000 0.3991 0.3559 0.3129 0.2698 0.2267
653.000000 0.1836 0.1406 0.1133 0.1085 0.1069
648.000000 0.1079 0.1102 0.1221 0.1516 0.2282
643.000000 0.2562 0.3553 0.4732 0.5191 0.5542
638.000000 0.5894 0.6245 0.6597 0.6949 0.7300
633.000000 0.7539 0.7654 0.7764 0.7928 0.7962
628.000000 0.7978 0.7980 0.7972 0.7943 0.7869
623.000000 0.7734 0.7448 0.6352 0.4966 0.4144
618.000000 0.4094 0.4054 0.4012 0.3986 0.3164
613.000000 0.3160 0.3157 0.3934 0.4944 0.5954
608.000000 0.6811 0.7089 0.7197 0.7271 0.7311
603.000000 0.7326 0.7336 0.7351 0.7308 0.7260
598.000000 0.7210 0.7128 0.7028 0.6893 0.6671
593.000000 0.6517 0.6359 0.6033 0.5576 0.5045
588.000000 0.4514 0.3982 0.3452 0.2920 0.2698
583.000000 0.2697 0.2961 0.3514 0.4066 0.4619
578.000000 0.5171 0.5724 0.6271 0.6304 0.6295
573.000000 0.6227 0.6130 0.6032 0.5935 0.5838
568.000000 0.5775 0.5762 0.5591 0.5312 0.4935
563.000000 0.4928 0.4928 0.4928 0.5432 0.5937
558.000000 0.6524 0.6641 0.6730 0.6800 0.6842
553.000000 0.6868 0.6878 0.6883 0.6884 0.6884
548.000000 0.6884 0.6868 0.6841 0.6808 0.6778
543.000000 0.6758 0.6775 0.6749 0.6757 0.6765
538.000000 0.6792 0.6795 0.6798 0.6806 0.6815
533.000000 0.6855 0.6949 0.7178 0.7282 0.7358
528.000000 0.7428 0.7493 0.7565 0.7571 0.7581
523.000000 0.7584 0.7333 0.7524 0.7450 0.7310
518.000000 0.7308 0.7306 0.7595 0.7687 0.7781
513.000000 0.7875 0.7925 0.7961 0.7997 0.8032
508.000000 0.8061 0.8080 0.8098 0.8115 0.8134
503.000000 0.8151 0.8169 0.8188 0.8203 0.8218
498.000000 0.8233 0.8248 0.8257 0.8266 0.8275
493.000000 0.8284 0.8293 0.8302 0.8311 0.8318
488.000000 0.8324 0.8330 0.8336 0.8342 0.8348
483.000000 0.8348 0.8348 0.8347 0.8347 0.8347
478.000000 0.8346 0.8345 0.8342 0.8340 0.8337
473.000000 0.8332 0.8311 0.8290 0.8271 0.8258
468.000000 0.8245 0.8237 0.8231 0.8225 0.8218
463.000000 0.8212 0.8201 0.8190 0.8176 0.8148
458.000000 0.8114 0.8056 0.7687 0.7318 0.6949
453.000000 0.6799 0.6800 0.6800 0.6851 0.6989
448.000000 0.7125 0.7219 0.7282 0.7337 0.7372
443.000000 0.7408 0.7442 0.7464 0.7487 0.7500
438.000000 0.7510 0.7519 0.7524 0.7528 0.7532
433.000000 0.7531 0.7525 0.7525 0.7521 0.7501
428.000000 0.7482 0.7446 0.7364 0.7230 0.7086
423.000000 0.6954 0.6853 0.6775 0.6698 0.6681
418.000000 0.6671 0.6661 0.6658 0.6656 0.6654
413.000000 0.6651 0.6650 0.6648 0.6646 0.6644
408.000000 0.6642 0.6639 0.6637 0.6635 0.6634
403.000000 0.6632 0.6631 0.6628 0.6628 0.6625
398.000000 0.6625 0.6622 0.6621 0.6619 0.6618
393.000000 0.6618 0.6618 0.6618 0.6618 0.6618
388.000000 0.6618 0.6619 0.6619 0.6618 0.6617
##END=
