##TITLE=Propionamidine, 3,3'-dithiodi-,dihydrochloride
##JCAMP-DX=4.24
##DATA TYPE=INFRARED SPECTRUM
##CLASS=COBLENTZ III
##ORIGIN=SOUTHERN RESEARCH INSTITUTE
##OWNER=Copyright (C) 1987 by the Coblentz Society
Collection (C) 2018 copyright by the U.S. Secretary of Commerce
on behalf of the United States of America. All rights reserved.
##DATE=1961/11/21
##MOLFORM=C6 H16 Cl2 N4 S2
##SOURCE REFERENCE=COBLENTZ NO. 7822
##$NIST ID=B6007822
##$NIST SOURCE=COBLENTZ
##$NIST IMAGE=cob7822
##SPECTROMETER/DATA SYSTEM=PERKIN-ELMER 221 (GRATING)
##INSTRUMENT PARAMETERS=FILTER AT 980 CM^-^1. GRATING 4000-1428 CM^-^1, NaCl PRISM 1428-650 CM^-^1
##STATE=SOLID (1 mg / 650 mg KBr DISC)
$$ PURITY - ANALYTICAL
$$ SPECTRAL FEATURE AT 1410 CM^-^1 IS AN ARTIFACT CAUSED BY GRATING/PRISM CHANGE
##SAMPLING PROCEDURE=TRANSMISSION
##RESOLUTION=2
##DATA PROCESSING=DIGITIZED BY COBLENTZ SOCIETY (BATCH II) FROM HARD COPY
##XUNITS=1/CM
##YUNITS=TRANSMITTANCE
##XFACTOR=1.0
##YFACTOR=1
##FIRSTX=632
##LASTX=3950
##FIRSTY=0.3704
##MAXX=3950
##MINX=632
##MAXY=0.8909
##MINY=0.0244
##NPOINTS=3319
##XYDATA=(X++(Y..Y))
632.000000 0.3704 0.3666 0.3629 0.3597 0.3566
637.000000 0.3536 0.3510 0.3483 0.3472 0.3461
642.000000 0.3448 0.3430 0.3412 0.3394 0.3356
647.000000 0.3300 0.3213 0.3137 0.3076 0.3014
652.000000 0.2951 0.2894 0.2849 0.2805 0.2760
657.000000 0.2716 0.2678 0.2650 0.2643 0.2636
662.000000 0.2629 0.2621 0.2614 0.2608 0.2603
667.000000 0.2599 0.2594 0.2567 0.2523 0.2443
672.000000 0.2341 0.2329 0.2317 0.2305 0.2294
677.000000 0.2291 0.2292 0.2292 0.2292 0.2293
682.000000 0.2296 0.2299 0.2303 0.2306 0.2310
687.000000 0.2315 0.2320 0.2325 0.2330 0.2327
692.000000 0.2322 0.2317 0.2312 0.2303 0.2294
697.000000 0.2285 0.2276 0.2267 0.2257 0.2247
702.000000 0.2237 0.2226 0.2217 0.2209 0.2202
707.000000 0.2195 0.2188 0.2183 0.2201 0.2184
712.000000 0.2184 0.2188 0.2195 0.2203 0.2211
717.000000 0.2221 0.2236 0.2278 0.2327 0.2366
722.000000 0.2404 0.2443 0.2484 0.2526 0.2575
727.000000 0.2618 0.2657 0.2696 0.2737 0.2778
732.000000 0.2812 0.2831 0.2835 0.2839 0.2841
737.000000 0.2843 0.2847 0.2859 0.2874 0.2962
742.000000 0.3112 0.3263 0.3413 0.3563 0.3713
747.000000 0.3863 0.4013 0.4185 0.4356 0.4499
752.000000 0.4649 0.4820 0.4981 0.5072 0.5162
757.000000 0.5262 0.5364 0.5451 0.5527 0.5614
762.000000 0.5701 0.5789 0.5876 0.5963 0.6051
767.000000 0.6138 0.6226 0.6313 0.6400 0.6488
772.000000 0.6575 0.6662 0.6750 0.6814 0.6864
777.000000 0.6914 0.6978 0.7012 0.7046 0.7077
782.000000 0.7090 0.7104 0.7115 0.7121 0.7127
787.000000 0.7134 0.7156 0.7215 0.7297 0.7404
792.000000 0.7423 0.7430 0.7437 0.7444 0.7451
797.000000 0.7462 0.7481 0.7526 0.7571 0.7590
802.000000 0.7598 0.7605 0.7614 0.7624 0.7635
807.000000 0.7645 0.7671 0.7698 0.7761 0.7823
812.000000 0.7882 0.7933 0.7981 0.8028 0.8074
817.000000 0.8119 0.8163 0.8203 0.8242 0.8282
822.000000 0.8325 0.8377 0.8428 0.8479 0.8511
827.000000 0.8542 0.8574 0.8606 0.8637 0.8658
832.000000 0.8678 0.8698 0.8719 0.8736 0.8751
837.000000 0.8765 0.8779 0.8794 0.8808 0.8822
842.000000 0.8836 0.8849 0.8859 0.8863 0.8867
847.000000 0.8871 0.8875 0.8879 0.8883 0.8887
852.000000 0.8891 0.8892 0.8891 0.8891 0.8891
857.000000 0.8891 0.8890 0.8890 0.8890 0.8889
862.000000 0.8909 0.8886 0.8885 0.8884 0.8883
867.000000 0.8881 0.8879 0.8877 0.8874 0.8871
872.000000 0.8869 0.8866 0.8864 0.8861 0.8858
877.000000 0.8856 0.8852 0.8847 0.8842 0.8837
882.000000 0.8832 0.8825 0.8817 0.8810 0.8802
887.000000 0.8794 0.8787 0.8780 0.8773 0.8766
892.000000 0.8758 0.8747 0.8735 0.8722 0.8706
897.000000 0.8689 0.8673 0.8656 0.8639 0.8625
902.000000 0.8624 0.8623 0.8622 0.8627 0.8631
907.000000 0.8636 0.8641 0.8650 0.8659 0.8650
912.000000 0.8608 0.8538 0.8487 0.8457 0.8441
917.000000 0.8430 0.8453 0.8471 0.8507 0.8629
922.000000 0.8691 0.8743 0.8758 0.8759 0.8775
927.000000 0.8758 0.8749 0.8737 0.8725 0.8709
932.000000 0.8689 0.8662 0.8634 0.8594 0.8555
937.000000 0.8489 0.8412 0.8342 0.8299 0.8282
942.000000 0.8274 0.8275 0.8267 0.8283 0.8289
947.000000 0.8296 0.8317 0.8351 0.8407 0.8495
952.000000 0.8544 0.8550 0.8549 0.8548 0.8544
957.000000 0.8566 0.8534 0.8529 0.8520 0.8510
962.000000 0.8484 0.8456 0.8422 0.8389 0.8347
967.000000 0.8301 0.8253 0.8195 0.8137 0.8079
972.000000 0.8000 0.7894 0.7773 0.7629 0.7599
977.000000 0.7584 0.7588 0.7689 0.7878 0.8067
982.000000 0.8255 0.8346 0.8340 0.8327 0.8314
987.000000 0.8345 0.8292 0.8278 0.8263 0.8246
992.000000 0.8229 0.8205 0.8181 0.8160 0.8138
997.000000 0.8117 0.8096 0.8075 0.8055 0.8031
1002.000000 0.8005 0.7959 0.7901 0.7844 0.7786
1007.000000 0.7745 0.7724 0.7700 0.7672 0.7650
1012.000000 0.7628 0.7613 0.7611 0.7627 0.7665
1017.000000 0.7702 0.7735 0.7764 0.7778 0.7793
1022.000000 0.7803 0.7830 0.7801 0.7796 0.7792
1027.000000 0.7788 0.7784 0.7779 0.7775 0.7770
1032.000000 0.7766 0.7762 0.7757 0.7752 0.7747
1037.000000 0.7743 0.7738 0.7733 0.7729 0.7724
1042.000000 0.7720 0.7715 0.7711 0.7706 0.7702
1047.000000 0.7697 0.7693 0.7687 0.7682 0.7676
1052.000000 0.7670 0.7665 0.7659 0.7653 0.7646
1057.000000 0.7638 0.7629 0.7621 0.7608 0.7594
1062.000000 0.7580 0.7566 0.7547 0.7525 0.7503
1067.000000 0.7481 0.7459 0.7437 0.7414 0.7387
1072.000000 0.7360 0.7334 0.7307 0.7280 0.7253
1077.000000 0.7225 0.7197 0.7168 0.7140 0.7112
1082.000000 0.7083 0.7050 0.7017 0.6983 0.6949
1087.000000 0.6889 0.6826 0.6759 0.6690 0.6634
1092.000000 0.6600 0.6607 0.6609 0.6613 0.6622
1097.000000 0.6632 0.6666 0.6753 0.7029 0.7092
1102.000000 0.7120 0.7122 0.7125 0.7126 0.7113
1107.000000 0.7116 0.7110 0.7101 0.7092 0.7081
1112.000000 0.7069 0.7058 0.7039 0.7007 0.6985
1117.000000 0.6963 0.6942 0.6920 0.6886 0.6844
1122.000000 0.6801 0.6758 0.6721 0.6685 0.6618
1127.000000 0.6549 0.6481 0.6411 0.6334 0.6262
1132.000000 0.6201 0.6098 0.5866 0.5634 0.5402
1137.000000 0.5103 0.5002 0.4954 0.4906 0.4857
1142.000000 0.4803 0.4746 0.4711 0.4691 0.4692
1147.000000 0.4677 0.4716 0.4858 0.5040 0.5223
1152.000000 0.5405 0.5588 0.5770 0.5953 0.6135
1157.000000 0.6318 0.6500 0.6683 0.6865 0.7202
1162.000000 0.7237 0.7262 0.7268 0.7275 0.7276
1167.000000 0.7272 0.7267 0.7262 0.7279 0.7246
1172.000000 0.7237 0.7228 0.7216 0.7204 0.7192
1177.000000 0.7179 0.7157 0.7135 0.7114 0.7094
1182.000000 0.7073 0.7052 0.7018 0.6983 0.6907
1187.000000 0.6830 0.6754 0.6677 0.6611 0.6604
1192.000000 0.6595 0.6586 0.6576 0.6567 0.6559
1197.000000 0.6551 0.6546 0.6542 0.6539 0.6524
1202.000000 0.6553 0.6578 0.6620 0.6708 0.6743
1207.000000 0.6764 0.6786 0.6777 0.6774 0.6767
1212.000000 0.6757 0.6738 0.6712 0.6677 0.6639
1217.000000 0.6598 0.6526 0.6348 0.6171 0.5993
1222.000000 0.5815 0.5777 0.5770 0.5761 0.5793
1227.000000 0.5904 0.6015 0.6126 0.6237 0.6286
1232.000000 0.6307 0.6317 0.6326 0.6312 0.6302
1237.000000 0.6289 0.6274 0.6260 0.6246 0.6232
1242.000000 0.6221 0.6205 0.6188 0.6170 0.6151
1247.000000 0.6127 0.6100 0.6064 0.6014 0.5960
1252.000000 0.5908 0.5857 0.5777 0.5695 0.5607
1257.000000 0.5518 0.5458 0.5401 0.5343 0.5280
1262.000000 0.5213 0.5148 0.5088 0.5028 0.4891
1267.000000 0.4790 0.4682 0.4669 0.4667 0.4659
1272.000000 0.4684 0.4838 0.4993 0.5148 0.5304
1277.000000 0.5403 0.5434 0.5439 0.5441 0.5437
1282.000000 0.5449 0.5419 0.5408 0.5396 0.5382
1287.000000 0.5368 0.5348 0.5327 0.5296 0.5259
1292.000000 0.5221 0.5176 0.5130 0.5060 0.4979
1297.000000 0.4864 0.4773 0.4707 0.4676 0.4660
1302.000000 0.4653 0.4650 0.4647 0.4643 0.4630
1307.000000 0.4545 0.4445 0.4428 0.4425 0.4423
1312.000000 0.4452 0.4517 0.4662 0.4807 0.4878
1317.000000 0.4902 0.4912 0.4917 0.4891 0.4924
1322.000000 0.4922 0.4920 0.4918 0.4914 0.4905
1327.000000 0.4896 0.4888 0.4880 0.4871 0.4863
1332.000000 0.4855 0.4847 0.4839 0.4830 0.4822
1337.000000 0.4812 0.4802 0.4792 0.4782 0.4772
1342.000000 0.4762 0.4752 0.4740 0.4728 0.4715
1347.000000 0.4703 0.4690 0.4678 0.4665 0.4653
1352.000000 0.4640 0.4629 0.4620 0.4611 0.4602
1357.000000 0.4593 0.4585 0.4578 0.4571 0.4564
1362.000000 0.4557 0.4551 0.4544 0.4538 0.4532
1367.000000 0.4525 0.4519 0.4513 0.4506 0.4500
1372.000000 0.4496 0.4491 0.4486 0.4482 0.4477
1377.000000 0.4472 0.4467 0.4463 0.4458 0.4448
1382.000000 0.4436 0.4424 0.4405 0.4384 0.4363
1387.000000 0.4330 0.4295 0.4259 0.4221 0.4182
1392.000000 0.4143 0.4106 0.4074 0.4051 0.4039
1397.000000 0.4037 0.4042 0.4048 0.4055 0.4074
1402.000000 0.4093 0.4154 0.4288 0.4422 0.4520
1407.000000 0.4522 0.3459 0.3670 0.3470 0.3568
1412.000000 0.3710 0.3853 0.3996 0.4139 0.4240
1417.000000 0.4305 0.4337 0.4363 0.4385 0.4393
1422.000000 0.4391 0.4389 0.4391 0.4352 0.4298
1427.000000 0.4268 0.4241 0.4224 0.4212 0.4209
1432.000000 0.4212 0.4206 0.4233 0.4256 0.4366
1437.000000 0.4496 0.4626 0.4756 0.4887 0.4985
1442.000000 0.5027 0.5050 0.5062 0.5064 0.5066
1447.000000 0.5080 0.5068 0.5066 0.5064 0.5059
1452.000000 0.5049 0.5038 0.5028 0.5017 0.5005
1457.000000 0.4994 0.4983 0.4967 0.4947 0.4927
1462.000000 0.4905 0.4881 0.4858 0.4835 0.4809
1467.000000 0.4782 0.4755 0.4728 0.4701 0.4675
1472.000000 0.4649 0.4622 0.4596 0.4570 0.4541
1477.000000 0.4503 0.4466 0.4423 0.4332 0.4277
1482.000000 0.4234 0.4190 0.4149 0.4121 0.4093
1487.000000 0.4065 0.4037 0.4018 0.4006 0.3995
1492.000000 0.3985 0.3983 0.3982 0.3980 0.3979
1497.000000 0.3977 0.3975 0.3976 0.3969 0.3979
1502.000000 0.3983 0.3987 0.3991 0.3999 0.4007
1507.000000 0.4015 0.4037 0.4065 0.4101 0.4136
1512.000000 0.4165 0.4191 0.4216 0.4351 0.4492
1517.000000 0.4633 0.4774 0.4915 0.5055 0.5196
1522.000000 0.5337 0.5478 0.5619 0.5711 0.5777
1527.000000 0.5840 0.5878 0.5898 0.5911 0.5920
1532.000000 0.5923 0.5922 0.5921 0.5920 0.5920
1537.000000 0.5917 0.5912 0.5906 0.5900 0.5883
1542.000000 0.5864 0.5845 0.5820 0.5789 0.5753
1547.000000 0.5712 0.5670 0.5617 0.5564 0.5495
1552.000000 0.5418 0.5361 0.5347 0.5332 0.5308
1557.000000 0.5261 0.5169 0.5080 0.4997 0.4980
1562.000000 0.4984 0.4959 0.4994 0.5000 0.5016
1567.000000 0.5036 0.5063 0.5098 0.5134 0.5185
1572.000000 0.5254 0.5341 0.5421 0.5501 0.5588
1577.000000 0.5647 0.5679 0.5711 0.5731 0.5732
1582.000000 0.5739 0.5736 0.5732 0.5724 0.5713
1587.000000 0.5696 0.5678 0.5661 0.5644 0.5614
1592.000000 0.5581 0.5530 0.5477 0.5424 0.5371
1597.000000 0.5318 0.5265 0.5212 0.5159 0.5107
1602.000000 0.5054 0.5001 0.4948 0.4895 0.4842
1607.000000 0.4789 0.4736 0.4683 0.4630 0.4577
1612.000000 0.4524 0.4468 0.4415 0.4362 0.4309
1617.000000 0.4259 0.4209 0.4159 0.4100 0.4036
1622.000000 0.3972 0.3909 0.3834 0.3756 0.3681
1627.000000 0.3622 0.3563 0.3504 0.3445 0.3386
1632.000000 0.3341 0.3302 0.3263 0.3225 0.3183
1637.000000 0.3137 0.3090 0.3044 0.2997 0.2951
1642.000000 0.2903 0.2854 0.2805 0.2757 0.2708
1647.000000 0.2659 0.2612 0.2565 0.2518 0.2471
1652.000000 0.2420 0.2365 0.2310 0.2252 0.2177
1657.000000 0.2101 0.1982 0.1861 0.1743 0.1625
1662.000000 0.1485 0.1247 0.0980 0.0808 0.0725
1667.000000 0.0642 0.0546 0.0405 0.0296 0.0266
1672.000000 0.0250 0.0247 0.0244 0.0246 0.0254
1677.000000 0.0253 0.0359 0.0460 0.0541 0.0623
1682.000000 0.0704 0.0786 0.0806 0.0808 0.0803
1687.000000 0.0785 0.0743 0.0713 0.0693 0.0685
1692.000000 0.0685 0.0690 0.0696 0.0713 0.0864
1697.000000 0.1263 0.1662 0.2061 0.2236 0.2461
1702.000000 0.2848 0.3107 0.3332 0.3556 0.3781
1707.000000 0.4006 0.4231 0.4456 0.4680 0.4905
1712.000000 0.5130 0.5355 0.5707 0.5798 0.5889
1717.000000 0.6008 0.6194 0.6495 0.6634 0.6766
1722.000000 0.6853 0.6940 0.7023 0.7086 0.7149
1727.000000 0.7211 0.7274 0.7318 0.7362 0.7407
1732.000000 0.7451 0.7495 0.7540 0.7584 0.7628
1737.000000 0.7675 0.7723 0.7771 0.7819 0.7867
1742.000000 0.7915 0.7974 0.8034 0.8093 0.8147
1747.000000 0.8180 0.8214 0.8247 0.8280 0.8311
1752.000000 0.8332 0.8354 0.8375 0.8396 0.8417
1757.000000 0.8431 0.8441 0.8450 0.8460 0.8470
1762.000000 0.8475 0.8478 0.8481 0.8484 0.8487
1767.000000 0.8490 0.8494 0.8496 0.8498 0.8499
1772.000000 0.8500 0.8501 0.8503 0.8504 0.8505
1777.000000 0.8507 0.8510 0.8512 0.8515 0.8517
1782.000000 0.8520 0.8522 0.8524 0.8527 0.8531
1787.000000 0.8534 0.8537 0.8541 0.8544 0.8547
1792.000000 0.8550 0.8557 0.8566 0.8576 0.8586
1797.000000 0.8597 0.8615 0.8634 0.8651 0.8668
1802.000000 0.8681 0.8692 0.8694 0.8696 0.8698
1807.000000 0.8700 0.8700 0.8701 0.8701 0.8702
1812.000000 0.8703 0.8704 0.8706 0.8709 0.8712
1817.000000 0.8717 0.8723 0.8729 0.8736 0.8742
1822.000000 0.8749 0.8757 0.8764 0.8771 0.8777
1827.000000 0.8781 0.8786 0.8791 0.8795 0.8800
1832.000000 0.8807 0.8798 0.8797 0.8796 0.8794
1837.000000 0.8792 0.8790 0.8788 0.8784 0.8780
1842.000000 0.8776 0.8772 0.8768 0.8764 0.8760
1847.000000 0.8756 0.8752 0.8748 0.8744 0.8740
1852.000000 0.8736 0.8732 0.8728 0.8724 0.8719
1857.000000 0.8714 0.8709 0.8704 0.8700 0.8695
1862.000000 0.8690 0.8685 0.8680 0.8675 0.8670
1867.000000 0.8665 0.8659 0.8653 0.8648 0.8642
1872.000000 0.8637 0.8631 0.8625 0.8620 0.8614
1877.000000 0.8608 0.8603 0.8599 0.8595 0.8590
1882.000000 0.8586 0.8582 0.8578 0.8573 0.8569
1887.000000 0.8565 0.8561 0.8556 0.8552 0.8548
1892.000000 0.8543 0.8539 0.8535 0.8531 0.8528
1897.000000 0.8524 0.8520 0.8516 0.8512 0.8509
1902.000000 0.8505 0.8501 0.8497 0.8494 0.8490
1907.000000 0.8486 0.8479 0.8472 0.8464 0.8457
1912.000000 0.8449 0.8442 0.8434 0.8427 0.8420
1917.000000 0.8413 0.8408 0.8404 0.8400 0.8396
1922.000000 0.8391 0.8387 0.8383 0.8381 0.8378
1927.000000 0.8375 0.8373 0.8370 0.8367 0.8364
1932.000000 0.8361 0.8357 0.8354 0.8351 0.8347
1937.000000 0.8344 0.8341 0.8337 0.8334 0.8331
1942.000000 0.8327 0.8324 0.8321 0.8317 0.8313
1947.000000 0.8308 0.8304 0.8300 0.8296 0.8292
1952.000000 0.8287 0.8282 0.8278 0.8273 0.8269
1957.000000 0.8264 0.8260 0.8255 0.8251 0.8246
1962.000000 0.8238 0.8228 0.8219 0.8209 0.8199
1967.000000 0.8190 0.8181 0.8173 0.8166 0.8158
1972.000000 0.8150 0.8142 0.8135 0.8127 0.8119
1977.000000 0.8111 0.8104 0.8098 0.8092 0.8085
1982.000000 0.8079 0.8073 0.8066 0.8060 0.8054
1987.000000 0.8047 0.8041 0.8035 0.8028 0.8022
1992.000000 0.8016 0.8011 0.8006 0.8001 0.7997
1997.000000 0.7992 0.7987 0.7982 0.7977 0.7972
2002.000000 0.7966 0.7961 0.7955 0.7950 0.7944
2007.000000 0.7939 0.7933 0.7928 0.7922 0.7916
2012.000000 0.7911 0.7905 0.7900 0.7894 0.7889
2017.000000 0.7883 0.7878 0.7872 0.7867 0.7861
2022.000000 0.7855 0.7850 0.7845 0.7841 0.7836
2027.000000 0.7831 0.7826 0.7821 0.7816 0.7811
2032.000000 0.7806 0.7801 0.7796 0.7791 0.7786
2037.000000 0.7781 0.7777 0.7772 0.7766 0.7761
2042.000000 0.7756 0.7751 0.7745 0.7740 0.7735
2047.000000 0.7730 0.7724 0.7719 0.7714 0.7709
2052.000000 0.7703 0.7697 0.7691 0.7684 0.7678
2057.000000 0.7672 0.7665 0.7659 0.7653 0.7647
2062.000000 0.7642 0.7638 0.7633 0.7629 0.7624
2067.000000 0.7620 0.7615 0.7613 0.7613 0.7613
2072.000000 0.7614 0.7614 0.7615 0.7617 0.7618
2077.000000 0.7619 0.7620 0.7622 0.7620 0.7610
2082.000000 0.7601 0.7592 0.7585 0.7578 0.7572
2087.000000 0.7567 0.7562 0.7556 0.7551 0.7546
2092.000000 0.7541 0.7535 0.7530 0.7525 0.7519
2097.000000 0.7514 0.7508 0.7503 0.7497 0.7492
2102.000000 0.7486 0.7481 0.7475 0.7470 0.7464
2107.000000 0.7459 0.7454 0.7450 0.7446 0.7442
2112.000000 0.7438 0.7434 0.7429 0.7425 0.7421
2117.000000 0.7417 0.7413 0.7409 0.7408 0.7408
2122.000000 0.7409 0.7409 0.7409 0.7408 0.7407
2127.000000 0.7406 0.7407 0.7408 0.7409 0.7410
2132.000000 0.7411 0.7412 0.7413 0.7415 0.7416
2137.000000 0.7419 0.7423 0.7426 0.7430 0.7433
2142.000000 0.7435 0.7436 0.7437 0.7438 0.7439
2147.000000 0.7433 0.7424 0.7415 0.7407 0.7398
2152.000000 0.7387 0.7375 0.7364 0.7352 0.7341
2157.000000 0.7329 0.7318 0.7308 0.7299 0.7290
2162.000000 0.7281 0.7272 0.7263 0.7254 0.7246
2167.000000 0.7237 0.7228 0.7219 0.7210 0.7200
2172.000000 0.7191 0.7182 0.7173 0.7163 0.7154
2177.000000 0.7145 0.7135 0.7126 0.7117 0.7108
2182.000000 0.7098 0.7089 0.7081 0.7072 0.7064
2187.000000 0.7055 0.7046 0.7038 0.7029 0.7021
2192.000000 0.7012 0.7004 0.6995 0.6987 0.6978
2197.000000 0.6970 0.6965 0.6960 0.6955 0.6949
2202.000000 0.6944 0.6939 0.6934 0.6928 0.6923
2207.000000 0.6918 0.6913 0.6907 0.6902 0.6899
2212.000000 0.6897 0.6894 0.6891 0.6889 0.6886
2217.000000 0.6883 0.6881 0.6878 0.6876 0.6873
2222.000000 0.6870 0.6868 0.6866 0.6866 0.6867
2227.000000 0.6868 0.6868 0.6869 0.6852 0.6871
2232.000000 0.6874 0.6879 0.6883 0.6887 0.6891
2237.000000 0.6895 0.6899 0.6903 0.6907 0.6911
2242.000000 0.6915 0.6921 0.6930 0.6938 0.6947
2247.000000 0.6955 0.6964 0.6973 0.6982 0.6991
2252.000000 0.7000 0.7009 0.7018 0.7023 0.7027
2257.000000 0.7032 0.7037 0.7042 0.7047 0.7052
2262.000000 0.7055 0.7054 0.7073 0.7053 0.7052
2267.000000 0.7050 0.7048 0.7046 0.7044 0.7042
2272.000000 0.7040 0.7036 0.7029 0.7022 0.7015
2277.000000 0.7008 0.7000 0.6994 0.6987 0.6980
2282.000000 0.6974 0.6967 0.6964 0.6961 0.6958
2287.000000 0.6955 0.6953 0.6950 0.6947 0.6944
2292.000000 0.6942 0.6940 0.6938 0.6936 0.6933
2297.000000 0.6931 0.6929 0.6927 0.6925 0.6923
2302.000000 0.6920 0.6918 0.6915 0.6912 0.6909
2307.000000 0.6907 0.6904 0.6901 0.6898 0.6896
2312.000000 0.6893 0.6890 0.6887 0.6885 0.6881
2317.000000 0.6876 0.6871 0.6866 0.6861 0.6856
2322.000000 0.6851 0.6845 0.6839 0.6833 0.6827
2327.000000 0.6821 0.6815 0.6809 0.6803 0.6797
2332.000000 0.6791 0.6787 0.6782 0.6777 0.6773
2337.000000 0.6768 0.6763 0.6759 0.6754 0.6751
2342.000000 0.6749 0.6747 0.6745 0.6743 0.6741
2347.000000 0.6739 0.6737 0.6735 0.6733 0.6731
2352.000000 0.6729 0.6727 0.6726 0.6725 0.6724
2357.000000 0.6723 0.6723 0.6722 0.6721 0.6721
2362.000000 0.6721 0.6721 0.6720 0.6719 0.6718
2367.000000 0.6716 0.6715 0.6713 0.6711 0.6709
2372.000000 0.6707 0.6705 0.6703 0.6701 0.6698
2377.000000 0.6695 0.6693 0.6690 0.6687 0.6685
2382.000000 0.6682 0.6679 0.6676 0.6673 0.6670
2387.000000 0.6666 0.6661 0.6656 0.6651 0.6647
2392.000000 0.6642 0.6637 0.6632 0.6627 0.6621
2397.000000 0.6615 0.6609 0.6604 0.6598 0.6592
2402.000000 0.6585 0.6578 0.6571 0.6564 0.6557
2407.000000 0.6550 0.6543 0.6536 0.6528 0.6522
2412.000000 0.6516 0.6510 0.6504 0.6498 0.6492
2417.000000 0.6486 0.6480 0.6475 0.6469 0.6463
2422.000000 0.6457 0.6451 0.6445 0.6439 0.6433
2427.000000 0.6427 0.6421 0.6415 0.6409 0.6401
2432.000000 0.6394 0.6387 0.6379 0.6372 0.6365
2437.000000 0.6358 0.6350 0.6343 0.6336 0.6328
2442.000000 0.6323 0.6317 0.6311 0.6305 0.6300
2447.000000 0.6294 0.6288 0.6284 0.6281 0.6278
2452.000000 0.6275 0.6272 0.6269 0.6266 0.6263
2457.000000 0.6260 0.6258 0.6256 0.6254 0.6253
2462.000000 0.6251 0.6249 0.6248 0.6245 0.6237
2467.000000 0.6230 0.6223 0.6208 0.6193 0.6171
2472.000000 0.6149 0.6114 0.6078 0.6043 0.6012
2477.000000 0.6003 0.6028 0.6067 0.6107 0.6146
2482.000000 0.6183 0.6187 0.6189 0.6187 0.6184
2487.000000 0.6182 0.6181 0.6179 0.6177 0.6174
2492.000000 0.6167 0.6161 0.6154 0.6147 0.6140
2497.000000 0.6132 0.6124 0.6116 0.6108 0.6101
2502.000000 0.6095 0.6089 0.6083 0.6077 0.6071
2507.000000 0.6065 0.6058 0.6050 0.6043 0.6035
2512.000000 0.6027 0.6020 0.6012 0.6005 0.5997
2517.000000 0.5989 0.5981 0.5973 0.5966 0.5958
2522.000000 0.5950 0.5942 0.5934 0.5925 0.5917
2527.000000 0.5908 0.5900 0.5891 0.5884 0.5877
2532.000000 0.5871 0.5864 0.5858 0.5851 0.5844
2537.000000 0.5838 0.5830 0.5821 0.5812 0.5803
2542.000000 0.5793 0.5784 0.5775 0.5766 0.5757
2547.000000 0.5748 0.5739 0.5729 0.5720 0.5711
2552.000000 0.5702 0.5693 0.5684 0.5675 0.5666
2557.000000 0.5659 0.5652 0.5645 0.5637 0.5630
2562.000000 0.5623 0.5615 0.5608 0.5600 0.5593
2567.000000 0.5586 0.5578 0.5571 0.5563 0.5558
2572.000000 0.5552 0.5546 0.5541 0.5535 0.5529
2577.000000 0.5524 0.5518 0.5513 0.5507 0.5501
2582.000000 0.5496 0.5490 0.5484 0.5476 0.5468
2587.000000 0.5460 0.5451 0.5443 0.5434 0.5426
2592.000000 0.5418 0.5409 0.5401 0.5393 0.5384
2597.000000 0.5376 0.5367 0.5359 0.5351 0.5342
2602.000000 0.5334 0.5326 0.5317 0.5309 0.5301
2607.000000 0.5293 0.5284 0.5276 0.5268 0.5259
2612.000000 0.5251 0.5243 0.5234 0.5226 0.5214
2617.000000 0.5202 0.5189 0.5177 0.5165 0.5153
2622.000000 0.5141 0.5129 0.5117 0.5104 0.5092
2627.000000 0.5080 0.5068 0.5056 0.5044 0.5032
2632.000000 0.5017 0.5001 0.4985 0.4969 0.4953
2637.000000 0.4937 0.4921 0.4905 0.4889 0.4873
2642.000000 0.4858 0.4842 0.4829 0.4817 0.4804
2647.000000 0.4792 0.4779 0.4768 0.4764 0.4760
2652.000000 0.4756 0.4752 0.4748 0.4744 0.4741
2657.000000 0.4737 0.4733 0.4728 0.4722 0.4716
2662.000000 0.4711 0.4705 0.4700 0.4694 0.4689
2667.000000 0.4683 0.4677 0.4672 0.4666 0.4661
2672.000000 0.4655 0.4644 0.4624 0.4603 0.4584
2677.000000 0.4564 0.4544 0.4524 0.4506 0.4495
2682.000000 0.4484 0.4473 0.4462 0.4451 0.4440
2687.000000 0.4429 0.4418 0.4406 0.4395 0.4384
2692.000000 0.4375 0.4366 0.4357 0.4348 0.4339
2697.000000 0.4330 0.4321 0.4312 0.4303 0.4294
2702.000000 0.4286 0.4277 0.4267 0.4254 0.4240
2707.000000 0.4227 0.4213 0.4200 0.4186 0.4173
2712.000000 0.4160 0.4146 0.4132 0.4111 0.4090
2717.000000 0.4068 0.4047 0.4026 0.4004 0.3983
2722.000000 0.3962 0.3940 0.3919 0.3901 0.3882
2727.000000 0.3863 0.3844 0.3825 0.3806 0.3795
2732.000000 0.3785 0.3776 0.3767 0.3758 0.3749
2737.000000 0.3739 0.3730 0.3721 0.3712 0.3704
2742.000000 0.3697 0.3689 0.3682 0.3674 0.3669
2747.000000 0.3664 0.3659 0.3655 0.3650 0.3645
2752.000000 0.3640 0.3631 0.3621 0.3611 0.3602
2757.000000 0.3592 0.3583 0.3576 0.3572 0.3574
2762.000000 0.3576 0.3579 0.3582 0.3592 0.3602
2767.000000 0.3612 0.3622 0.3631 0.3641 0.3648
2772.000000 0.3656 0.3664 0.3672 0.3676 0.3681
2777.000000 0.3685 0.3690 0.3694 0.3696 0.3698
2782.000000 0.3695 0.3709 0.3690 0.3687 0.3684
2787.000000 0.3682 0.3680 0.3678 0.3674 0.3670
2792.000000 0.3665 0.3661 0.3656 0.3652 0.3648
2797.000000 0.3644 0.3641 0.3637 0.3635 0.3633
2802.000000 0.3630 0.3628 0.3626 0.3624 0.3621
2807.000000 0.3619 0.3617 0.3615 0.3616 0.3618
2812.000000 0.3619 0.3621 0.3623 0.3625 0.3626
2817.000000 0.3609 0.3632 0.3635 0.3638 0.3640
2822.000000 0.3643 0.3646 0.3649 0.3649 0.3647
2827.000000 0.3645 0.3643 0.3641 0.3637 0.3631
2832.000000 0.3626 0.3621 0.3615 0.3610 0.3605
2837.000000 0.3599 0.3593 0.3585 0.3577 0.3569
2842.000000 0.3561 0.3553 0.3545 0.3533 0.3520
2847.000000 0.3507 0.3493 0.3480 0.3467 0.3453
2852.000000 0.3439 0.3424 0.3409 0.3393 0.3378
2857.000000 0.3363 0.3348 0.3331 0.3314 0.3297
2862.000000 0.3280 0.3262 0.3245 0.3228 0.3211
2867.000000 0.3192 0.3167 0.3142 0.3117 0.3092
2872.000000 0.3067 0.3043 0.3018 0.2994 0.2969
2877.000000 0.2945 0.2913 0.2876 0.2841 0.2824
2882.000000 0.2806 0.2789 0.2772 0.2754 0.2737
2887.000000 0.2720 0.2702 0.2684 0.2658 0.2633
2892.000000 0.2607 0.2581 0.2557 0.2535 0.2513
2897.000000 0.2491 0.2468 0.2446 0.2424 0.2403
2902.000000 0.2381 0.2359 0.2338 0.2316 0.2295
2907.000000 0.2273 0.2252 0.2230 0.2209 0.2192
2912.000000 0.2176 0.2159 0.2142 0.2126 0.2109
2917.000000 0.2092 0.2076 0.2059 0.2043 0.2027
2922.000000 0.2011 0.1995 0.1979 0.1963 0.1947
2927.000000 0.1931 0.1915 0.1898 0.1884 0.1869
2932.000000 0.1854 0.1840 0.1825 0.1810 0.1796
2937.000000 0.1781 0.1766 0.1750 0.1734 0.1718
2942.000000 0.1702 0.1688 0.1673 0.1658 0.1644
2947.000000 0.1629 0.1614 0.1600 0.1585 0.1571
2952.000000 0.1561 0.1550 0.1539 0.1528 0.1517
2957.000000 0.1503 0.1488 0.1473 0.1457 0.1442
2962.000000 0.1426 0.1411 0.1395 0.1380 0.1365
2967.000000 0.1349 0.1334 0.1319 0.1303 0.1288
2972.000000 0.1273 0.1258 0.1243 0.1229 0.1214
2977.000000 0.1199 0.1184 0.1165 0.1146 0.1127
2982.000000 0.1108 0.1083 0.1057 0.1030 0.0998
2987.000000 0.0970 0.0956 0.0941 0.0927 0.0913
2992.000000 0.0899 0.0884 0.0869 0.0854 0.0839
2997.000000 0.0823 0.0808 0.0798 0.0791 0.0784
3002.000000 0.0777 0.0770 0.0763 0.0756 0.0750
3007.000000 0.0743 0.0736 0.0729 0.0724 0.0719
3012.000000 0.0714 0.0708 0.0703 0.0698 0.0693
3017.000000 0.0688 0.0683 0.0678 0.0674 0.0669
3022.000000 0.0665 0.0660 0.0656 0.0652 0.0647
3027.000000 0.0643 0.0639 0.0634 0.0630 0.0627
3032.000000 0.0624 0.0621 0.0618 0.0614 0.0611
3037.000000 0.0608 0.0605 0.0608 0.0610 0.0609
3042.000000 0.0615 0.0617 0.0620 0.0622 0.0625
3047.000000 0.0627 0.0630 0.0633 0.0636 0.0638
3052.000000 0.0641 0.0644 0.0647 0.0649 0.0652
3057.000000 0.0654 0.0656 0.0658 0.0660 0.0662
3062.000000 0.0663 0.0665 0.0667 0.0669 0.0671
3067.000000 0.0673 0.0675 0.0677 0.0678 0.0680
3072.000000 0.0682 0.0684 0.0686 0.0690 0.0693
3077.000000 0.0697 0.0701 0.0704 0.0708 0.0711
3082.000000 0.0715 0.0719 0.0722 0.0726 0.0730
3087.000000 0.0735 0.0739 0.0744 0.0749 0.0754
3092.000000 0.0759 0.0763 0.0768 0.0773 0.0778
3097.000000 0.0783 0.0788 0.0793 0.0799 0.0804
3102.000000 0.0809 0.0815 0.0820 0.0826 0.0832
3107.000000 0.0838 0.0844 0.0850 0.0856 0.0862
3112.000000 0.0868 0.0874 0.0880 0.0886 0.0892
3117.000000 0.0899 0.0905 0.0911 0.0917 0.0924
3122.000000 0.0930 0.0936 0.0943 0.0949 0.0960
3127.000000 0.0973 0.0985 0.0997 0.1005 0.1013
3132.000000 0.1021 0.1029 0.1037 0.1045 0.1052
3137.000000 0.1059 0.1066 0.1073 0.1080 0.1087
3142.000000 0.1094 0.1102 0.1110 0.1118 0.1126
3147.000000 0.1133 0.1141 0.1149 0.1157 0.1165
3152.000000 0.1172 0.1181 0.1190 0.1199 0.1207
3157.000000 0.1216 0.1225 0.1234 0.1241 0.1249
3162.000000 0.1256 0.1263 0.1271 0.1278 0.1307
3167.000000 0.1279 0.1280 0.1281 0.1281 0.1282
3172.000000 0.1283 0.1282 0.1277 0.1272 0.1267
3177.000000 0.1262 0.1257 0.1252 0.1244 0.1235
3182.000000 0.1226 0.1216 0.1207 0.1198 0.1189
3187.000000 0.1179 0.1169 0.1158 0.1148 0.1137
3192.000000 0.1126 0.1116 0.1105 0.1095 0.1084
3197.000000 0.1072 0.1060 0.1047 0.1034 0.1021
3202.000000 0.1009 0.0996 0.0983 0.0971 0.0960
3207.000000 0.0948 0.0938 0.0930 0.0923 0.0915
3212.000000 0.0907 0.0900 0.0892 0.0885 0.0877
3217.000000 0.0869 0.0862 0.0855 0.0852 0.0848
3222.000000 0.0844 0.0840 0.0836 0.0833 0.0829
3227.000000 0.0825 0.0821 0.0819 0.0817 0.0816
3232.000000 0.0815 0.0813 0.0812 0.0811 0.0809
3237.000000 0.0808 0.0807 0.0806 0.0804 0.0804
3242.000000 0.0803 0.0802 0.0802 0.0801 0.0800
3247.000000 0.0800 0.0799 0.0799 0.0798 0.0797
3252.000000 0.0797 0.0796 0.0795 0.0795 0.0794
3257.000000 0.0793 0.0793 0.0790 0.0791 0.0791
3262.000000 0.0790 0.0789 0.0789 0.0788 0.0787
3267.000000 0.0787 0.0786 0.0786 0.0787 0.0788
3272.000000 0.0789 0.0791 0.0792 0.0793 0.0794
3277.000000 0.0796 0.0797 0.0798 0.0799 0.0801
3282.000000 0.0803 0.0804 0.0806 0.0808 0.0810
3287.000000 0.0811 0.0813 0.0815 0.0816 0.0818
3292.000000 0.0819 0.0826 0.0835 0.0845 0.0855
3297.000000 0.0865 0.0875 0.0887 0.0899 0.0911
3302.000000 0.0923 0.0936 0.0951 0.0966 0.0981
3307.000000 0.0995 0.1010 0.1029 0.1054 0.1079
3312.000000 0.1103 0.1128 0.1153 0.1178 0.1204
3317.000000 0.1229 0.1254 0.1280 0.1304 0.1328
3322.000000 0.1352 0.1376 0.1400 0.1424 0.1448
3327.000000 0.1476 0.1505 0.1535 0.1564 0.1594
3332.000000 0.1624 0.1651 0.1672 0.1692 0.1713
3337.000000 0.1734 0.1754 0.1775 0.1796 0.1818
3342.000000 0.1840 0.1863 0.1885 0.1907 0.1930
3347.000000 0.1948 0.1963 0.1978 0.1992 0.2007
3352.000000 0.2020 0.2033 0.2047 0.2060 0.2075
3357.000000 0.2089 0.2105 0.2122 0.2140 0.2428
3362.000000 0.2453 0.2479 0.2504 0.2530 0.2551
3367.000000 0.2572 0.2592 0.2612 0.2633 0.2651
3372.000000 0.2669 0.2688 0.2705 0.2721 0.2751
3377.000000 0.2782 0.2799 0.2816 0.2832 0.2849
3382.000000 0.2869 0.2891 0.2931 0.2975 0.3023
3387.000000 0.3048 0.3074 0.3100 0.3138 0.3181
3392.000000 0.3224 0.3266 0.3306 0.3347 0.3386
3397.000000 0.3424 0.3461 0.3499 0.3537 0.3575
3402.000000 0.3617 0.3659 0.3702 0.3744 0.3786
3407.000000 0.3829 0.3872 0.3915 0.3958 0.4002
3412.000000 0.4045 0.4088 0.4127 0.4164 0.4201
3417.000000 0.4239 0.4276 0.4313 0.4350 0.4387
3422.000000 0.4419 0.4452 0.4484 0.4517 0.4549
3427.000000 0.4582 0.4614 0.4647 0.4679 0.4710
3432.000000 0.4739 0.4768 0.4797 0.4827 0.4856
3437.000000 0.4885 0.4913 0.4939 0.4965 0.4991
3442.000000 0.5018 0.5044 0.5070 0.5096 0.5122
3447.000000 0.5149 0.5176 0.5203 0.5231 0.5258
3452.000000 0.5285 0.5306 0.5323 0.5339 0.5356
3457.000000 0.5372 0.5389 0.5405 0.5422 0.5438
3462.000000 0.5455 0.5471 0.5488 0.5506 0.5526
3467.000000 0.5546 0.5566 0.5586 0.5606 0.5626
3472.000000 0.5646 0.5666 0.5686 0.5707 0.5728
3477.000000 0.5750 0.5771 0.5792 0.5813 0.5834
3482.000000 0.5856 0.5877 0.5899 0.5920 0.5942
3487.000000 0.5964 0.5985 0.6007 0.6029 0.6050
3492.000000 0.6071 0.6091 0.6111 0.6132 0.6152
3497.000000 0.6172 0.6192 0.6212 0.6233 0.6253
3502.000000 0.6274 0.6294 0.6314 0.6335 0.6355
3507.000000 0.6376 0.6395 0.6411 0.6428 0.6444
3512.000000 0.6461 0.6477 0.6494 0.6510 0.6527
3517.000000 0.6546 0.6565 0.6583 0.6602 0.6621
3522.000000 0.6645 0.6676 0.6706 0.6737 0.6768
3527.000000 0.6787 0.6802 0.6816 0.6831 0.6846
3532.000000 0.6860 0.6876 0.6892 0.6909 0.6927
3537.000000 0.6944 0.6962 0.6979 0.6997 0.7014
3542.000000 0.7038 0.7063 0.7087 0.7111 0.7135
3547.000000 0.7159 0.7210 0.7231 0.7251 0.7268
3552.000000 0.7274 0.7281 0.7288 0.7294 0.7301
3557.000000 0.7307 0.7314 0.7324 0.7336 0.7348
3562.000000 0.7365 0.7382 0.7399 0.7418 0.7437
3567.000000 0.7456 0.7474 0.7496 0.7524 0.7553
3572.000000 0.7618 0.7630 0.7642 0.7653 0.7659
3577.000000 0.7663 0.7667 0.7672 0.7676 0.7680
3582.000000 0.7684 0.7688 0.7695 0.7703 0.7721
3587.000000 0.7740 0.7761 0.7782 0.7803 0.7825
3592.000000 0.7846 0.7867 0.7889 0.7910 0.7929
3597.000000 0.7949 0.7969 0.7989 0.8009 0.8024
3602.000000 0.8038 0.8052 0.8065 0.8079 0.8092
3607.000000 0.8106 0.8119 0.8133 0.8147 0.8163
3612.000000 0.8179 0.8195 0.8211 0.8227 0.8243
3617.000000 0.8259 0.8275 0.8291 0.8308 0.8325
3622.000000 0.8342 0.8360 0.8377 0.8394 0.8411
3627.000000 0.8428 0.8444 0.8459 0.8474 0.8490
3632.000000 0.8505 0.8520 0.8535 0.8550 0.8563
3637.000000 0.8573 0.8584 0.8594 0.8605 0.8615
3642.000000 0.8623 0.8628 0.8632 0.8637 0.8642
3647.000000 0.8647 0.8652 0.8655 0.8655 0.8654
3652.000000 0.8654 0.8654 0.8654 0.8654 0.8654
3657.000000 0.8654 0.8653 0.8652 0.8651 0.8650
3662.000000 0.8649 0.8648 0.8647 0.8646 0.8645
3667.000000 0.8644 0.8643 0.8642 0.8640 0.8638
3672.000000 0.8636 0.8634 0.8632 0.8631 0.8629
3677.000000 0.8627 0.8626 0.8629 0.8631 0.8634
3682.000000 0.8636 0.8639 0.8641 0.8648 0.8655
3687.000000 0.8662 0.8668 0.8675 0.8681 0.8687
3692.000000 0.8689 0.8692 0.8723 0.8697 0.8699
3697.000000 0.8701 0.8703 0.8705 0.8706 0.8708
3702.000000 0.8710 0.8710 0.8708 0.8706 0.8704
3707.000000 0.8703 0.8701 0.8699 0.8697 0.8695
3712.000000 0.8694 0.8692 0.8688 0.8683 0.8679
3717.000000 0.8674 0.8669 0.8664 0.8660 0.8655
3722.000000 0.8650 0.8645 0.8640 0.8635 0.8630
3727.000000 0.8625 0.8620 0.8615 0.8610 0.8605
3732.000000 0.8600 0.8596 0.8592 0.8588 0.8585
3737.000000 0.8581 0.8577 0.8573 0.8570 0.8566
3742.000000 0.8565 0.8565 0.8565 0.8565 0.8566
3747.000000 0.8566 0.8566 0.8567 0.8568 0.8568
3752.000000 0.8569 0.8570 0.8571 0.8571 0.8571
3757.000000 0.8571 0.8570 0.8570 0.8569 0.8569
3762.000000 0.8567 0.8566 0.8564 0.8563 0.8561
3767.000000 0.8560 0.8558 0.8556 0.8555 0.8553
3772.000000 0.8550 0.8547 0.8544 0.8541 0.8538
3777.000000 0.8532 0.8524 0.8516 0.8508 0.8500
3782.000000 0.8492 0.8484 0.8476 0.8467 0.8459
3787.000000 0.8451 0.8442 0.8434 0.8426 0.8418
3792.000000 0.8409 0.8401 0.8393 0.8385 0.8382
3797.000000 0.8380 0.8377 0.8374 0.8372 0.8373
3802.000000 0.8373 0.8373 0.8373 0.8374 0.8374
3807.000000 0.8373 0.8370 0.8366 0.8362 0.8359
3812.000000 0.8355 0.8352 0.8343 0.8331 0.8320
3817.000000 0.8308 0.8296 0.8290 0.8286 0.8282
3822.000000 0.8278 0.8274 0.8270 0.8267 0.8263
3827.000000 0.8260 0.8257 0.8253 0.8250 0.8249
3832.000000 0.8248 0.8247 0.8246 0.8246 0.8245
3837.000000 0.8244 0.8244 0.8244 0.8244 0.8245
3842.000000 0.8245 0.8245 0.8245 0.8246 0.8246
3847.000000 0.8245 0.8245 0.8244 0.8244 0.8239
3852.000000 0.8231 0.8223 0.8206 0.8188 0.8170
3857.000000 0.8149 0.8129 0.8121 0.8113 0.8111
3862.000000 0.8109 0.8108 0.8107 0.8105 0.8102
3867.000000 0.8100 0.8097 0.8095 0.8093 0.8090
3872.000000 0.8088 0.8086 0.8084 0.8081 0.8079
3877.000000 0.8077 0.8075 0.8072 0.8070 0.8068
3882.000000 0.8066 0.8063 0.8061 0.8059 0.8057
3887.000000 0.8055 0.8053 0.8051 0.8049 0.8047
3892.000000 0.8045 0.8042 0.8039 0.8035 0.8032
3897.000000 0.8029 0.8025 0.8022 0.8019 0.8016
3902.000000 0.8012 0.8009 0.8006 0.8003 0.8001
3907.000000 0.7998 0.7995 0.7992 0.7989 0.7986
3912.000000 0.7984 0.7981 0.7977 0.7974 0.7971
3917.000000 0.7968 0.7964 0.7961 0.7958 0.7954
3922.000000 0.7949 0.7943 0.7938 0.7933 0.7928
3927.000000 0.7922 0.7918 0.7914 0.7911 0.7907
3932.000000 0.7903 0.7899 0.7896 0.7894 0.7891
3937.000000 0.7889 0.7888 0.7889 0.7910 0.7890
3942.000000 0.7890 0.7891 0.7892 0.7892 0.7893
3947.000000 0.7893 0.7894 0.7894 0.7895
##END=
