##TITLE=O-NITRO CARBANILIC ACID, METHYL HEPTENOL ESTER
##JCAMP-DX=4.24
##DATA TYPE=INFRARED SPECTRUM
##CLASS=COBLENTZ
##ORIGIN=CITRUS EXPERIMENT STATION, UNIVERSITY OF FLORIDA (G. EDWARDS)
##OWNER=COBLENTZ SOCIETY
Collection (C) 2018 copyright by the U.S. Secretary of Commerce
on behalf of the United States of America. All rights reserved.
##DATE=Not specified, most likely prior to 1970
##MOLFORM=C15 H20 N2 O4
##SOURCE REFERENCE=COBLENTZ NO. 2507
##$NIST ID=B6002507
##$NIST SOURCE=COBLENTZ
##$NIST IMAGE=cob2507
##SPECTROMETER/DATA SYSTEM=Not specified, most likely a grating spectrometer.
##PATH LENGTH=CAPILLARY
##SAMPLING PROCEDURE=TRANSMISSION
##RESOLUTION=4
##DATA PROCESSING=DIGITIZED BY NIST FROM HARD COPY
##XUNITS=MICROMETERS
##YUNITS=TRANSMITTANCE
##XFACTOR=1.000000
##YFACTOR=1
##DELTAX=000.006632
##FIRSTX=2.033
##LASTX=15.0181
##FIRSTY=0.85
##MAXX=15.0181
##MINX=2.033
##MAXY=0.869
##MINY=0.042
##NPOINTS=1959
##XYDATA=(X++(Y..Y))
2.033000 0.8500 0.8500 0.8500 0.8520 0.8530
2.066177 0.8560 0.8580 0.8580 0.8580 0.8580
2.099000 0.8580 0.8580 0.8580 0.8560 0.8560
2.132177 0.8560 0.8560 0.8560 0.8560 0.8560
2.166000 0.8560 0.8560 0.8560 0.8560 0.8540
2.199177 0.8540 0.8540 0.8540 0.8530 0.8530
2.232000 0.8530 0.8520 0.8520 0.8520 0.8520
2.265177 0.8520 0.8520 0.8520 0.8530 0.8530
2.298000 0.8530 0.8530 0.8540 0.8540 0.8540
2.331177 0.8540 0.8540 0.8540 0.8560 0.8560
2.365000 0.8560 0.8560 0.8560 0.8570 0.8580
2.398177 0.8580 0.8580 0.8580 0.8580 0.8580
2.431000 0.8600 0.8600 0.8600 0.8600 0.8600
2.464177 0.8610 0.8610 0.8610 0.8620 0.8620
2.497000 0.8620 0.8620 0.8620 0.8620 0.8640
2.530177 0.8640 0.8650 0.8680 0.8680 0.8680
2.564000 0.8680 0.8690 0.8690 0.8690 0.8690
2.597177 0.8690 0.8690 0.8690 0.8690 0.8680
2.630000 0.8680 0.8680 0.8680 0.8680 0.8680
2.663177 0.8680 0.8650 0.8650 0.8640 0.8620
2.696000 0.8620 0.8610 0.8610 0.8610 0.8610
2.729177 0.8600 0.8600 0.8600 0.8600 0.8600
2.763000 0.8600 0.8600 0.8580 0.8580 0.8580
2.796177 0.8570 0.8570 0.8570 0.8570 0.8570
2.829000 0.8560 0.8540 0.8540 0.8540 0.8530
2.862177 0.8490 0.8450 0.8410 0.8370 0.8330
2.895000 0.8280 0.8220 0.8210 0.8100 0.8000
2.928177 0.7780 0.7450 0.6730 0.5960 0.5480
2.962000 0.5210 0.5210 0.5580 0.6200 0.6740
2.995177 0.7170 0.7540 0.7840 0.8130 0.8240
3.028000 0.8330 0.8370 0.8410 0.8460 0.8500
3.061177 0.8520 0.8520 0.8530 0.8530 0.8530
3.094000 0.8530 0.8530 0.8530 0.8530 0.8520
3.127177 0.8520 0.8500 0.8490 0.8480 0.8410
3.161000 0.8380 0.8380 0.8290 0.8240 0.8160
3.194177 0.8140 0.8120 0.8100 0.8100 0.8100
3.227000 0.8100 0.8100 0.8100 0.8100 0.8090
3.260177 0.8090 0.8080 0.8080 0.8080 0.8040
3.293000 0.8010 0.7970 0.7890 0.7760 0.7530
3.326177 0.7180 0.6170 0.5370 0.5160 0.5160
3.360000 0.5290 0.5490 0.5490 0.5180 0.5060
3.393177 0.4930 0.4900 0.4900 0.5330 0.5650
3.426000 0.6080 0.6410 0.6450 0.6450 0.6450
3.459177 0.6420 0.6410 0.6410 0.6440 0.6730
3.492000 0.7050 0.7370 0.7700 0.7960 0.8080
3.525177 0.8200 0.8260 0.8290 0.8300 0.8330
3.559000 0.8380 0.8410 0.8410 0.8420 0.8420
3.592177 0.8420 0.8410 0.8400 0.8380 0.8370
3.625000 0.8370 0.8380 0.8400 0.8480 0.8490
3.658177 0.8520 0.8530 0.8540 0.8560 0.8560
3.691000 0.8560 0.8560 0.8560 0.8560 0.8540
3.724177 0.8540 0.8540 0.8540 0.8540 0.8540
3.757000 0.8540 0.8540 0.8540 0.8540 0.8540
3.790177 0.8540 0.8540 0.8540 0.8540 0.8540
3.824000 0.8530 0.8500 0.8490 0.8490 0.8490
3.857177 0.8490 0.8490 0.8500 0.8500 0.8500
3.890000 0.8500 0.8520 0.8520 0.8520 0.8500
3.923177 0.8460 0.8410 0.8410 0.8410 0.8410
3.956000 0.8410 0.8400 0.8400 0.8380 0.8380
3.989177 0.8380 0.8380 0.8360 0.8360 0.8340
4.023000 0.8340 0.8340 0.8340 0.8360 0.8380
4.056177 0.8380 0.8380 0.8360 0.8360 0.8340
4.089000 0.8330 0.8300 0.8300 0.8300 0.8300
4.122177 0.8300 0.8300 0.8290 0.8290 0.8290
4.155000 0.8290 0.8300 0.8300 0.8290 0.8290
4.188177 0.8290 0.8280 0.8280 0.8280 0.8290
4.222000 0.8290 0.8290 0.8290 0.8290 0.8290
4.255177 0.8290 0.8290 0.8290 0.8290 0.8290
4.288000 0.8290 0.8290 0.8290 0.8290 0.8280
4.321177 0.8280 0.8280 0.8260 0.8260 0.8260
4.354000 0.8260 0.8260 0.8260 0.8260 0.8260
4.387177 0.8260 0.8250 0.8250 0.8240 0.8220
4.421000 0.8210 0.8210 0.8200 0.8200 0.8180
4.454177 0.8180 0.8180 0.8180 0.8200 0.8210
4.487000 0.8220 0.8220 0.8240 0.8240 0.8240
4.520177 0.8240 0.8240 0.8240 0.8240 0.8250
4.553000 0.8250 0.8240 0.8240 0.8240 0.8240
4.586177 0.8240 0.8240 0.8240 0.8220 0.8220
4.620000 0.8220 0.8220 0.8210 0.8210 0.8210
4.653177 0.8210 0.8200 0.8200 0.8200 0.8200
4.686000 0.8200 0.8180 0.8180 0.8180 0.8180
4.719177 0.8200 0.8200 0.8200 0.8200 0.8200
4.752000 0.8200 0.8200 0.8200 0.8200 0.8200
4.785177 0.8200 0.8180 0.8180 0.8180 0.8170
4.819000 0.8170 0.8170 0.8170 0.8170 0.8170
4.852177 0.8170 0.8170 0.8160 0.8160 0.8160
4.885000 0.8160 0.8160 0.8140 0.8140 0.8140
4.918177 0.8140 0.8140 0.8130 0.8130 0.8120
4.951000 0.8120 0.8120 0.8120 0.8100 0.8090
4.984177 0.8080 0.8080 0.8060 0.8050 0.8050
5.018000 0.8040 0.8010 0.8000 0.8000 0.7980
5.051177 0.7980 0.7980 0.7980 0.7980 0.7980
5.084000 0.7980 0.7980 0.7980 0.7980 0.7980
5.117177 0.7980 0.7980 0.8000 0.8000 0.8000
5.150000 0.8000 0.8000 0.8000 0.8000 0.8000
5.183177 0.8000 0.8000 0.8000 0.8000 0.8000
5.216000 0.8000 0.7980 0.7980 0.7980 0.7970
5.249177 0.7970 0.7970 0.7970 0.7970 0.7970
5.283000 0.7960 0.7960 0.7960 0.7940 0.7930
5.316177 0.7920 0.7920 0.7900 0.7900 0.7890
5.349000 0.7880 0.7860 0.7850 0.7840 0.7820
5.382177 0.7800 0.7800 0.7780 0.7780 0.7770
5.415000 0.7760 0.7740 0.7730 0.7700 0.7690
5.448177 0.7620 0.7580 0.7560 0.7560 0.7540
5.482000 0.7540 0.7530 0.7530 0.7540 0.7540
5.515177 0.7560 0.7560 0.7560 0.7560 0.7560
5.548000 0.7560 0.7540 0.7540 0.7530 0.7520
5.581177 0.7500 0.7490 0.7410 0.7370 0.7330
5.614000 0.7290 0.7200 0.7050 0.7000 0.6890
5.647177 0.6800 0.6700 0.6410 0.5960 0.5400
5.681000 0.5020 0.4650 0.3370 0.2020 0.1200
5.714177 0.0880 0.0880 0.0920 0.1090 0.1370
5.747000 0.1700 0.2200 0.2620 0.2920 0.3210
5.780177 0.3650 0.4020 0.4360 0.5920 0.6140
5.813000 0.6520 0.6620 0.6660 0.6720 0.6780
5.846177 0.6920 0.7010 0.7050 0.7120 0.7140
5.880000 0.7160 0.7170 0.7170 0.7200 0.7180
5.913177 0.7180 0.7180 0.7180 0.7180 0.7170
5.946000 0.7160 0.7140 0.7130 0.7130 0.7130
5.979177 0.7130 0.7130 0.7120 0.7100 0.7080
6.012000 0.7040 0.7020 0.7010 0.6890 0.6820
6.045177 0.6820 0.6820 0.6810 0.6810 0.6800
6.079000 0.6800 0.6740 0.6660 0.6530 0.6410
6.112177 0.6400 0.6340 0.6210 0.6020 0.5620
6.145000 0.5210 0.4900 0.4600 0.4140 0.3740
6.178177 0.1860 0.1760 0.1740 0.1740 0.1770
6.211000 0.2500 0.3260 0.3810 0.4060 0.4840
6.244177 0.5000 0.5000 0.4900 0.4560 0.4120
6.278000 0.3300 0.1370 0.1340 0.1340 0.1370
6.311177 0.2640 0.3500 0.3540 0.4530 0.5860
6.344000 0.6020 0.6220 0.6400 0.6400 0.6400
6.377177 0.6300 0.6100 0.5880 0.5700 0.5690
6.410000 0.5620 0.5520 0.5380 0.5140 0.5020
6.443177 0.4900 0.4700 0.4500 0.4500 0.4490
6.477000 0.4490 0.4460 0.4460 0.4440 0.4260
6.510177 0.3920 0.3520 0.3210 0.2300 0.1610
6.543000 0.1100 0.0820 0.0690 0.0610 0.0560
6.576177 0.0540 0.0540 0.0520 0.0520 0.0520
6.609000 0.0520 0.0520 0.0530 0.0560 0.0690
6.642177 0.1000 0.1340 0.1700 0.2050 0.2300
6.676000 0.2600 0.3020 0.3460 0.4180 0.4690
6.709177 0.4840 0.4960 0.5200 0.5290 0.5290
6.742000 0.5210 0.5200 0.5090 0.4970 0.4800
6.775177 0.4720 0.4640 0.4560 0.4380 0.4160
6.808000 0.3540 0.2900 0.2560 0.2220 0.1960
6.841177 0.1760 0.1730 0.1730 0.1760 0.1890
6.874000 0.2000 0.2210 0.2330 0.2330 0.2200
6.907177 0.2080 0.1900 0.1610 0.1240 0.1100
6.941000 0.1080 0.1090 0.1120 0.1220 0.1380
6.974177 0.1520 0.1730 0.1880 0.2140 0.2380
7.007000 0.2660 0.3010 0.3320 0.3530 0.3810
7.040177 0.4040 0.4290 0.4320 0.4410 0.4530
7.073000 0.4620 0.4720 0.4860 0.4970 0.5160
7.106177 0.5200 0.5200 0.5170 0.5160 0.5160
7.140000 0.5140 0.5130 0.5120 0.5100 0.5090
7.173177 0.5010 0.4930 0.4800 0.4540 0.4300
7.206000 0.4020 0.3800 0.3770 0.3770 0.3770
7.239177 0.3810 0.3900 0.4000 0.4220 0.4620
7.272000 0.4820 0.5000 0.5100 0.5200 0.5200
7.305177 0.5140 0.5090 0.5010 0.4930 0.4780
7.339000 0.4700 0.4520 0.4330 0.4130 0.3720
7.372177 0.3260 0.2970 0.2610 0.2290 0.1850
7.405000 0.1210 0.1060 0.0890 0.0680 0.0600
7.438177 0.0600 0.0700 0.0800 0.0980 0.1200
7.471000 0.1460 0.1730 0.2060 0.2490 0.2900
7.504177 0.3260 0.3580 0.3900 0.3940 0.3940
7.538000 0.3920 0.3820 0.3620 0.3340 0.3000
7.571177 0.3000 0.3010 0.3040 0.3200 0.3330
7.604000 0.3640 0.3850 0.3890 0.3900 0.4010
7.637177 0.4020 0.4050 0.4100 0.4140 0.4170
7.670000 0.4200 0.4200 0.4170 0.4160 0.4140
7.703177 0.4060 0.3960 0.3900 0.3850 0.3800
7.737000 0.3580 0.3460 0.3300 0.3180 0.3010
7.770177 0.2840 0.2650 0.2490 0.2400 0.2260
7.803000 0.2140 0.2090 0.2080 0.2090 0.2180
7.836177 0.2290 0.2320 0.2500 0.2610 0.2740
7.869000 0.2840 0.3010 0.3120 0.3240 0.3330
7.902177 0.3490 0.3540 0.3570 0.3560 0.3530
7.936000 0.3460 0.3360 0.3220 0.3020 0.2980
7.969177 0.2890 0.2730 0.2060 0.1860 0.1420
8.002000 0.1080 0.0810 0.0570 0.0500 0.0420
8.035177 0.0420 0.0420 0.0460 0.0520 0.0530
8.068000 0.0700 0.0820 0.1040 0.1300 0.1450
8.101177 0.1820 0.2260 0.2500 0.2800 0.3010
8.135000 0.3290 0.3450 0.3660 0.3810 0.3860
8.168177 0.3900 0.3900 0.3860 0.3840 0.3730
8.201000 0.3610 0.3410 0.3220 0.3040 0.2900
8.234177 0.2620 0.2410 0.2120 0.1820 0.1540
8.267000 0.1260 0.1020 0.0900 0.0770 0.0680
8.300177 0.0580 0.0570 0.0570 0.0610 0.0700
8.333000 0.0800 0.0930 0.1060 0.1330 0.1500
8.366177 0.1640 0.1860 0.2120 0.2300 0.2520
8.400000 0.2740 0.3090 0.3360 0.3530 0.3730
8.433177 0.3850 0.4010 0.4180 0.4320 0.4420
8.466000 0.4610 0.4700 0.4800 0.4880 0.4980
8.499177 0.5160 0.5200 0.5240 0.5220 0.5210
8.532000 0.5140 0.5120 0.5040 0.4940 0.4810
8.565177 0.4620 0.4440 0.4320 0.4160 0.4060
8.599000 0.4060 0.4080 0.4130 0.4220 0.4340
8.632177 0.4560 0.4720 0.4810 0.4940 0.4960
8.665000 0.4930 0.4880 0.4690 0.4490 0.4360
8.698177 0.4080 0.3820 0.3760 0.3760 0.3820
8.731000 0.3920 0.4090 0.4210 0.4300 0.4330
8.764177 0.4320 0.4300 0.4220 0.4160 0.4120
8.798000 0.4020 0.3860 0.3660 0.3570 0.3410
8.831177 0.3240 0.3120 0.2930 0.2850 0.2800
8.864000 0.2780 0.2780 0.2800 0.2820 0.2980
8.897177 0.3140 0.3340 0.3540 0.3760 0.3810
8.930000 0.3930 0.4100 0.4160 0.4280 0.4320
8.963177 0.4410 0.4440 0.4500 0.4570 0.4640
8.997000 0.4680 0.4800 0.4920 0.4980 0.5180
9.030177 0.5260 0.5330 0.5380 0.5400 0.5490
9.063000 0.5490 0.5500 0.5500 0.5500 0.5500
9.096177 0.5490 0.5410 0.5360 0.5290 0.5210
9.129000 0.5130 0.5050 0.5000 0.4940 0.4840
9.162177 0.4780 0.4690 0.4540 0.4440 0.4320
9.196000 0.4250 0.4080 0.4000 0.3980 0.4000
9.229177 0.4020 0.4170 0.4300 0.4500 0.4690
9.262000 0.4810 0.4920 0.5140 0.5140 0.5130
9.295177 0.5050 0.5000 0.4930 0.4820 0.4700
9.328000 0.4560 0.4340 0.4180 0.4010 0.3740
9.361177 0.3620 0.3500 0.3380 0.3360 0.3370
9.395000 0.3380 0.3400 0.3460 0.3520 0.3600
9.428177 0.3690 0.3800 0.3890 0.3930 0.4040
9.461000 0.4140 0.4210 0.4320 0.4360 0.4410
9.494177 0.4440 0.4490 0.4520 0.4520 0.4490
9.527000 0.4440 0.4410 0.4320 0.4220 0.4100
9.560177 0.4000 0.3690 0.3500 0.3220 0.3000
9.594000 0.2840 0.2580 0.2370 0.2360 0.2370
9.627177 0.2400 0.2490 0.2600 0.2700 0.2890
9.660000 0.3100 0.3380 0.3600 0.3810 0.4050
9.693177 0.4210 0.4530 0.4800 0.4970 0.5300
9.726000 0.5420 0.5560 0.5720 0.5820 0.5890
9.759177 0.5980 0.6040 0.6100 0.6140 0.6220
9.793000 0.6280 0.6300 0.6360 0.6380 0.6420
9.826177 0.6490 0.6520 0.6580 0.6600 0.6610
9.859000 0.6690 0.6700 0.6780 0.6800 0.6810
9.892177 0.6820 0.6840 0.6850 0.6850 0.6880
9.925000 0.6880 0.6900 0.6930 0.6960 0.6980
9.958177 0.7000 0.7010 0.7010 0.7020 0.7020
9.991000 0.7040 0.7040 0.7040 0.7040 0.7040
10.024177 0.7040 0.7040 0.7040 0.7040 0.7020
10.058000 0.7020 0.7020 0.7010 0.7010 0.7000
10.091177 0.6970 0.6940 0.6920 0.6900 0.6890
10.124000 0.6840 0.6810 0.6800 0.6800 0.6760
10.157177 0.6760 0.6740 0.6740 0.6740 0.6740
10.190000 0.6740 0.6760 0.6770 0.6780 0.6800
10.223177 0.6810 0.6850 0.6920 0.7000 0.7000
10.257000 0.7020 0.7090 0.7100 0.7120 0.7130
10.290177 0.7160 0.7180 0.7200 0.7200 0.7200
10.323000 0.7210 0.7210 0.7210 0.7210 0.7210
10.356177 0.7200 0.7200 0.7180 0.7170 0.7170
10.389000 0.7140 0.7120 0.7090 0.7090 0.7060
10.422177 0.7020 0.7010 0.7010 0.7000 0.7000
10.456000 0.7000 0.7000 0.7000 0.7000 0.7000
10.489177 0.7010 0.7020 0.7050 0.7080 0.7090
10.522000 0.7130 0.7170 0.7200 0.7200 0.7210
10.555177 0.7220 0.7240 0.7240 0.7250 0.7250
10.588000 0.7250 0.7250 0.7250 0.7240 0.7240
10.621177 0.7220 0.7210 0.7210 0.7210 0.7210
10.655000 0.7210 0.7210 0.7220 0.7220 0.7210
10.688177 0.7210 0.7210 0.7200 0.7200 0.7170
10.721000 0.7140 0.7130 0.7120 0.7100 0.7020
10.754177 0.7000 0.6930 0.6890 0.6840 0.6800
10.787000 0.6760 0.6700 0.6690 0.6690 0.6690
10.820177 0.6690 0.6700 0.6720 0.6740 0.6800
10.854000 0.6820 0.6930 0.7000 0.7010 0.7050
10.887177 0.7100 0.7200 0.7240 0.7290 0.7300
10.920000 0.7360 0.7400 0.7400 0.7400 0.7410
10.953177 0.7410 0.7410 0.7410 0.7410 0.7400
10.986000 0.7380 0.7360 0.7330 0.7320 0.7290
11.019177 0.7260 0.7240 0.7210 0.7200 0.7170
11.053000 0.7160 0.7160 0.7170 0.7170 0.7200
11.086177 0.7210 0.7240 0.7260 0.7280 0.7290
11.119000 0.7320 0.7370 0.7400 0.7400 0.7400
11.152177 0.7410 0.7410 0.7400 0.7400 0.7400
11.185000 0.7380 0.7370 0.7370 0.7360 0.7360
11.218177 0.7300 0.7300 0.7290 0.7290 0.7280
11.252000 0.7280 0.7280 0.7290 0.7290 0.7290
11.285177 0.7300 0.7300 0.7320 0.7330 0.7340
11.318000 0.7360 0.7360 0.7370 0.7400 0.7440
11.351177 0.7450 0.7450 0.7460 0.7460 0.7480
11.384000 0.7460 0.7450 0.7420 0.7410 0.7400
11.417177 0.7400 0.7370 0.7360 0.7330 0.7300
11.450000 0.7250 0.7210 0.7160 0.7120 0.7090
11.483177 0.7000 0.6930 0.6810 0.6690 0.6560
11.517000 0.6490 0.6330 0.6200 0.6010 0.5820
11.550177 0.5650 0.5490 0.5320 0.5160 0.5080
11.583000 0.5000 0.4850 0.4760 0.4740 0.4760
11.616177 0.4820 0.4920 0.5240 0.5440 0.5620
11.649000 0.5840 0.6020 0.6210 0.6340 0.6420
11.682177 0.6560 0.6570 0.6650 0.6700 0.6740
11.716000 0.6760 0.6770 0.6800 0.6800 0.6810
11.749177 0.6810 0.6820 0.6820 0.6860 0.6900
11.782000 0.6940 0.6960 0.7000 0.7010 0.7020
11.815177 0.7040 0.7080 0.7100 0.7100 0.7130
11.848000 0.7140 0.7160 0.7170 0.7170 0.7200
11.881177 0.7200 0.7200 0.7200 0.7170 0.7140
11.915000 0.7130 0.7120 0.7120 0.7100 0.7100
11.948177 0.7080 0.7050 0.7020 0.7010 0.6960
11.981000 0.6940 0.6920 0.6850 0.6810 0.6760
12.014177 0.6730 0.6700 0.6650 0.6610 0.6570
12.047000 0.6500 0.6420 0.6400 0.6360 0.6330
12.080177 0.6300 0.6250 0.6220 0.6210 0.6200
12.114000 0.6200 0.6200 0.6200 0.6200 0.6220
12.147177 0.6260 0.6300 0.6300 0.6340 0.6400
12.180000 0.6410 0.6460 0.6520 0.6570 0.6610
12.213177 0.6640 0.6690 0.6760 0.6800 0.6820
12.246000 0.6890 0.6920 0.6940 0.7010 0.7020
12.279177 0.7040 0.7100 0.7100 0.7130 0.7140
12.313000 0.7160 0.7170 0.7180 0.7180 0.7200
12.346177 0.7210 0.7210 0.7210 0.7210 0.7210
12.379000 0.7200 0.7180 0.7170 0.7160 0.7140
12.412177 0.7130 0.7130 0.7120 0.7120 0.7090
12.445000 0.7080 0.7050 0.7040 0.7040 0.7020
12.478177 0.7010 0.6980 0.6960 0.6930 0.6920
12.512000 0.6900 0.6900 0.6880 0.6850 0.6840
12.545177 0.6820 0.6810 0.6780 0.6760 0.6740
12.578000 0.6720 0.6720 0.6690 0.6660 0.6640
12.611177 0.6610 0.6600 0.6560 0.6520 0.6500
12.644000 0.6440 0.6410 0.6330 0.6250 0.6200
12.677177 0.6060 0.5980 0.5850 0.5700 0.5620
12.711000 0.5520 0.5410 0.5260 0.5100 0.5040
12.744177 0.4970 0.4820 0.4730 0.4620 0.4540
12.777000 0.4490 0.4420 0.4410 0.4420 0.4490
12.810177 0.4560 0.4640 0.4700 0.4820 0.4980
12.843000 0.5240 0.5400 0.5520 0.5640 0.5770
12.876177 0.5820 0.5880 0.6010 0.6020 0.6020
12.910000 0.6010 0.6010 0.5980 0.5970 0.5960
12.943177 0.5930 0.5920 0.5840 0.5810 0.5740
12.976000 0.5700 0.5690 0.5620 0.5540 0.5500
13.009177 0.5450 0.5410 0.5370 0.5300 0.5260
13.042000 0.5260 0.5260 0.5260 0.5280 0.5300
13.075177 0.5300 0.5300 0.5320 0.5330 0.5400
13.108000 0.5440 0.5490 0.5530 0.5540 0.5600
13.141177 0.5620 0.5660 0.5730 0.5770 0.5840
13.175000 0.5900 0.5920 0.5970 0.6040 0.6100
13.208177 0.6100 0.6120 0.6130 0.6160 0.6180
13.241000 0.6200 0.6210 0.6210 0.6210 0.6200
13.274177 0.6200 0.6170 0.6160 0.6130 0.6060
13.307000 0.6010 0.5940 0.5920 0.5810 0.5720
13.340177 0.5600 0.5450 0.5320 0.5100 0.4980
13.374000 0.4860 0.4690 0.4520 0.4400 0.4140
13.407177 0.3890 0.3610 0.3410 0.3220 0.3060
13.440000 0.2890 0.2690 0.2520 0.2400 0.2290
13.473177 0.2140 0.2090 0.2010 0.2010 0.2000
13.506000 0.2000 0.2010 0.2080 0.2130 0.2220
13.539177 0.2330 0.2420 0.2560 0.2730 0.2920
13.573000 0.3100 0.3320 0.3500 0.3690 0.3840
13.606177 0.4060 0.4300 0.4530 0.4720 0.4900
13.639000 0.5210 0.5340 0.5440 0.5610 0.5700
13.672177 0.5810 0.5890 0.5940 0.6020 0.6120
13.705000 0.6170 0.6210 0.6260 0.6320 0.6340
13.738177 0.6410 0.6440 0.6450 0.6460 0.6520
13.772000 0.6540 0.6570 0.6570 0.6610 0.6610
13.805177 0.6620 0.6620 0.6620 0.6640 0.6650
13.838000 0.6660 0.6680 0.6680 0.6690 0.6690
13.871177 0.6690 0.6690 0.6690 0.6690 0.6690
13.904000 0.6690 0.6690 0.6690 0.6690 0.6690
13.937177 0.6690 0.6690 0.6690 0.6690 0.6680
13.971000 0.6680 0.6680 0.6680 0.6680 0.6660
14.004177 0.6660 0.6650 0.6650 0.6640 0.6620
14.037000 0.6620 0.6620 0.6610 0.6610 0.6610
14.070177 0.6610 0.6580 0.6580 0.6570 0.6570
14.103000 0.6540 0.6540 0.6530 0.6520 0.6500
14.136177 0.6500 0.6490 0.6460 0.6450 0.6450
14.170000 0.6440 0.6440 0.6440 0.6420 0.6420
14.203177 0.6420 0.6410 0.6410 0.6370 0.6360
14.236000 0.6340 0.6300 0.6280 0.6260 0.6250
14.269177 0.6240 0.6240 0.6220 0.6220 0.6200
14.302000 0.6170 0.6160 0.6140 0.6130 0.6100
14.335177 0.6080 0.6050 0.6020 0.6010 0.6000
14.369000 0.5960 0.5930 0.5920 0.5900 0.5850
14.402177 0.5800 0.5720 0.5650 0.5610 0.5530
14.435000 0.5500 0.5500 0.5440 0.5330 0.5290
14.468177 0.5240 0.5130 0.5100 0.5040 0.5010
14.501000 0.4980 0.4920 0.4900 0.4880 0.4860
14.534177 0.4860 0.4860 0.4860 0.4860 0.4860
14.568000 0.4880 0.4880 0.4900 0.4930 0.4940
14.601177 0.4970 0.4980 0.5000 0.5000 0.5000
14.634000 0.5000 0.4980 0.4970 0.4960 0.4940
14.667177 0.4930 0.4920 0.4900 0.4890 0.4880
14.700000 0.4860 0.4810 0.4800 0.4740 0.4720
14.733177 0.4700 0.4660 0.4650 0.4620 0.4600
14.766000 0.4540 0.4520 0.4500 0.4460 0.4440
14.799177 0.4420 0.4380 0.4370 0.4370 0.4370
14.833000 0.4370 0.4370 0.4380 0.4380 0.4400
14.866177 0.4400 0.4410 0.4410 0.4420 0.4440
14.899000 0.4460 0.4490 0.4500 0.4500 0.4520
14.932177 0.4520 0.4520 0.4520 0.4530 0.4530
14.965000 0.4540 0.4540 0.4540 0.4530 0.4530
14.998177 0.4520 0.4490 0.4460 0.4440
##END=
