##TITLE=SODIUM PHOSPHATE DIBASIC HEPTAHYDRATE
##JCAMP-DX=4.24
##DATA TYPE=INFRARED SPECTRUM
##CLASS=COBLENTZ
##ORIGIN=DOW CHEMICAL COMPANY
##OWNER=COBLENTZ SOCIETY
Collection (C) 2018 copyright by the U.S. Secretary of Commerce
on behalf of the United States of America. All rights reserved.
##DATE=Not specified, most likely prior to 1970
##MOLFORM=Na2 H P O4  * 7 H2 O
##SOURCE REFERENCE=COBLENTZ NO. 1557
##$NIST ID=B6001557
##$NIST SOURCE=COBLENTZ
##$NIST IMAGE=cob1557
##SPECTROMETER/DATA SYSTEM=Not specified, most likely a prism, grating, or hybrid spectrometer.
##STATE=SOLID (MINERAL OIL MULL)
##PATH LENGTH=
$$SPECTRAL CONTAMINATION DUE TO OIL AROUND 2900, 1450 CM^-^1
##SAMPLING PROCEDURE=TRANSMISSION
##RESOLUTION=4
##DATA PROCESSING=DIGITIZED BY NIST FROM HARD COPY
##XUNITS=MICROMETERS
##YUNITS=TRANSMITTANCE
##XFACTOR=1.000000
##YFACTOR=1
##DELTAX=000.006856
##FIRSTX=2.041
##LASTX=15.9106
##FIRSTY=0.965
##MAXX=15.9106
##MINX=2.041
##MAXY=1
##MINY=0.054
##NPOINTS=2024
##XYDATA=(X++(Y..Y))
2.041000 0.9650 0.9650 0.9650 0.9650 0.9650
2.075297 0.9650 0.9670 0.9690 0.9690 0.9700
2.110000 0.9740 0.9750 0.9770 0.9770 0.9810
2.144297 0.9820 0.9820 0.9820 0.9820 0.9820
2.178000 0.9820 0.9810 0.9790 0.9770 0.9750
2.212297 0.9740 0.9720 0.9690 0.9670 0.9630
2.247000 0.9620 0.9570 0.9510 0.9480 0.9450
2.281297 0.9430 0.9430 0.9410 0.9410 0.9410
2.315000 0.9430 0.9450 0.9450 0.9460 0.9460
2.349297 0.9480 0.9480 0.9480 0.9500 0.9530
2.384000 0.9550 0.9550 0.9570 0.9580 0.9580
2.418297 0.9580 0.9600 0.9600 0.9600 0.9600
2.452000 0.9600 0.9620 0.9650 0.9690 0.9720
2.486297 0.9770 0.9810 0.9840 0.9860 0.9870
2.521000 0.9870 0.9870 0.9870 0.9870 0.9890
2.555297 0.9890 0.9910 0.9910 0.9930 0.9930
2.590000 0.9930 0.9960 0.9980 1.0000 1.0000
2.624297 1.0000 1.0000 1.0000 1.0000 1.0000
2.658000 1.0000 1.0000 1.0000 1.0000 1.0000
2.692297 1.0000 1.0000 1.0000 1.0000 1.0000
2.727000 1.0000 1.0000 1.0000 1.0000 1.0000
2.761297 1.0000 0.9980 0.9980 0.9960 0.9940
2.795000 0.9930 0.9930 0.9930 0.9930 0.9910
2.829297 0.9890 0.9870 0.9810 0.9740 0.9670
2.864000 0.9620 0.9550 0.9510 0.9500 0.9500
2.898297 0.9480 0.9460 0.9430 0.9410 0.9390
2.932000 0.9390 0.9380 0.9360 0.9360 0.9340
2.966297 0.9340 0.9330 0.9330 0.9330 0.9310
3.001000 0.9310 0.9310 0.9310 0.9310 0.9310
3.035297 0.9290 0.9290 0.9260 0.9220 0.9190
3.070000 0.9140 0.9100 0.9050 0.9030 0.9000
3.104297 0.8980 0.8970 0.8950 0.8930 0.8910
3.138000 0.8900 0.8880 0.8810 0.8760 0.8710
3.172297 0.8660 0.8620 0.8590 0.8550 0.8520
3.207000 0.8490 0.8450 0.8400 0.8330 0.8280
3.241297 0.8250 0.8160 0.8110 0.8070 0.8020
3.275000 0.7950 0.7830 0.7730 0.7590 0.7440
3.309297 0.7250 0.7040 0.6800 0.6600 0.6390
3.344000 0.5760 0.4970 0.4110 0.3680 0.3240
3.378297 0.2410 0.1730 0.1250 0.1010 0.0630
3.412000 0.0580 0.0540 0.0540 0.0560 0.0610
3.446297 0.0660 0.0730 0.0800 0.0850 0.0970
3.481000 0.1010 0.1020 0.1080 0.1080 0.1180
3.515297 0.1380 0.1680 0.2050 0.2170 0.4560
3.549000 0.4880 0.5180 0.5470 0.5720 0.5950
3.583297 0.6100 0.6260 0.6500 0.6650 0.6750
3.618000 0.6860 0.6990 0.7010 0.7030 0.7030
3.652297 0.7030 0.7030 0.7030 0.7030 0.7030
3.687000 0.7030 0.7030 0.7030 0.7030 0.7030
3.721297 0.7010 0.7010 0.6960 0.6940 0.6940
3.755000 0.6890 0.6870 0.6840 0.6790 0.6700
3.789297 0.6670 0.6630 0.6550 0.6480 0.6430
3.824000 0.6380 0.6340 0.6310 0.6260 0.6200
3.858297 0.6190 0.6170 0.6150 0.6140 0.6100
3.892000 0.6050 0.6020 0.5960 0.5930 0.5910
3.926297 0.5910 0.5910 0.5910 0.5910 0.5910
3.961000 0.5910 0.5910 0.5910 0.5880 0.5840
3.995297 0.5810 0.5790 0.5620 0.5550 0.5500
4.029000 0.5480 0.5470 0.5430 0.5420 0.5400
4.063297 0.5400 0.5380 0.5380 0.5380 0.5380
4.098000 0.5360 0.5360 0.5350 0.5350 0.5350
4.132297 0.5350 0.5350 0.5350 0.5360 0.5360
4.167000 0.5380 0.5380 0.5400 0.5400 0.5420
4.201297 0.5430 0.5450 0.5470 0.5480 0.5500
4.235000 0.5520 0.5540 0.5550 0.5570 0.5590
4.269297 0.5590 0.5600 0.5620 0.5640 0.5670
4.304000 0.5710 0.5740 0.5780 0.5810 0.5840
4.338297 0.5900 0.5930 0.5960 0.6000 0.6020
4.372000 0.6030 0.6080 0.6100 0.6120 0.6140
4.406297 0.6200 0.6220 0.6240 0.6260 0.6270
4.441000 0.6290 0.6290 0.6310 0.6320 0.6360
4.475297 0.6390 0.6410 0.6440 0.6460 0.6480
4.509000 0.6500 0.6510 0.6530 0.6560 0.6580
4.543297 0.6600 0.6620 0.6630 0.6700 0.6740
4.578000 0.6770 0.6800 0.6840 0.6870 0.6910
4.612297 0.6920 0.6940 0.6980 0.6990 0.7010
4.646000 0.7010 0.7030 0.7040 0.7080 0.7080
4.680297 0.7100 0.7130 0.7150 0.7180 0.7220
4.715000 0.7230 0.7280 0.7320 0.7340 0.7370
4.749297 0.7390 0.7390 0.7400 0.7420 0.7440
4.784000 0.7440 0.7440 0.7460 0.7460 0.7460
4.818297 0.7460 0.7460 0.7460 0.7460 0.7460
4.852000 0.7460 0.7440 0.7420 0.7400 0.7400
4.886297 0.7390 0.7370 0.7370 0.7370 0.7370
4.921000 0.7370 0.7370 0.7350 0.7350 0.7340
4.955297 0.7340 0.7340 0.7320 0.7320 0.7300
4.989000 0.7300 0.7300 0.7280 0.7270 0.7250
5.023297 0.7230 0.7220 0.7200 0.7160 0.7130
5.058000 0.7100 0.7040 0.7030 0.7010 0.6990
5.092297 0.6990 0.6980 0.6980 0.6960 0.6940
5.126000 0.6920 0.6890 0.6890 0.6870 0.6820
5.160297 0.6790 0.6750 0.6720 0.6670 0.6650
5.195000 0.6630 0.6620 0.6580 0.6550 0.6510
5.229297 0.6500 0.6430 0.6410 0.6380 0.6360
5.263000 0.6360 0.6340 0.6310 0.6270 0.6220
5.297297 0.6200 0.6190 0.6190 0.6170 0.6170
5.332000 0.6150 0.6140 0.6100 0.6080 0.6030
5.366297 0.6000 0.5950 0.5910 0.5880 0.5840
5.401000 0.5790 0.5710 0.5690 0.5670 0.5660
5.435297 0.5600 0.5590 0.5550 0.5540 0.5520
5.469000 0.5500 0.5480 0.5480 0.5470 0.5450
5.503297 0.5430 0.5400 0.5400 0.5380 0.5380
5.538000 0.5380 0.5380 0.5380 0.5360 0.5360
5.572297 0.5360 0.5360 0.5360 0.5350 0.5350
5.606000 0.5330 0.5330 0.5330 0.5310 0.5310
5.640297 0.5310 0.5350 0.5380 0.5450 0.5450
5.675000 0.5470 0.5480 0.5480 0.5500 0.5520
5.709297 0.5540 0.5550 0.5570 0.5590 0.5600
5.743000 0.5640 0.5670 0.5710 0.5720 0.5720
5.777297 0.5760 0.5780 0.5810 0.5810 0.5830
5.812000 0.5830 0.5860 0.5860 0.5880 0.5900
5.846297 0.5910 0.5950 0.5960 0.5960 0.5980
5.881000 0.6000 0.6020 0.6050 0.6080 0.6100
5.915297 0.6150 0.6220 0.6270 0.6320 0.6360
5.949000 0.6380 0.6410 0.6430 0.6460 0.6480
5.983297 0.6500 0.6530 0.6550 0.6580 0.6620
6.018000 0.6650 0.6740 0.6750 0.6770 0.6770
6.052297 0.6770 0.6790 0.6790 0.6790 0.6800
6.086000 0.6800 0.6840 0.6840 0.6870 0.6920
6.120297 0.6980 0.6990 0.7010 0.7030 0.7040
6.155000 0.7060 0.7080 0.7100 0.7110 0.7160
6.189297 0.7230 0.7250 0.7250 0.7270 0.7280
6.223000 0.7300 0.7320 0.7350 0.7370 0.7390
6.257297 0.7390 0.7390 0.7390 0.7390 0.7400
6.292000 0.7420 0.7420 0.7420 0.7420 0.7420
6.326297 0.7420 0.7440 0.7440 0.7460 0.7460
6.360000 0.7460 0.7470 0.7470 0.7490 0.7490
6.394297 0.7490 0.7490 0.7490 0.7490 0.7490
6.429000 0.7490 0.7490 0.7490 0.7490 0.7490
6.463297 0.7490 0.7490 0.7490 0.7490 0.7510
6.498000 0.7510 0.7510 0.7510 0.7510 0.7510
6.532297 0.7510 0.7530 0.7530 0.7530 0.7530
6.566000 0.7530 0.7530 0.7530 0.7530 0.7530
6.600297 0.7530 0.7530 0.7530 0.7530 0.7510
6.635000 0.7490 0.7490 0.7470 0.7470 0.7460
6.669297 0.7440 0.7390 0.7350 0.7300 0.7250
6.703000 0.7180 0.7100 0.7010 0.6910 0.6800
6.737297 0.6740 0.6650 0.6460 0.6200 0.5900
6.772000 0.5480 0.5300 0.5000 0.4680 0.4300
6.806297 0.3940 0.3580 0.3430 0.3270 0.3030
6.840000 0.2830 0.2790 0.2790 0.2830 0.2890
6.874297 0.2950 0.3120 0.3200 0.3310 0.3910
6.909000 0.3970 0.4040 0.4370 0.4590 0.4710
6.943297 0.4830 0.5160 0.5330 0.5690 0.5880
6.977000 0.6080 0.6200 0.6320 0.6410 0.6440
7.011297 0.6500 0.6500 0.6510 0.6510 0.6500
7.046000 0.6480 0.6410 0.6380 0.6310 0.6240
7.080297 0.6120 0.6030 0.6000 0.5900 0.5790
7.115000 0.5690 0.5590 0.5500 0.5420 0.5330
7.149297 0.5240 0.5180 0.5110 0.5060 0.4990
7.183000 0.4870 0.4710 0.4570 0.4420 0.4270
7.217297 0.4090 0.3960 0.3800 0.3600 0.3440
7.252000 0.3340 0.3290 0.3220 0.3190 0.3220
7.286297 0.3310 0.3490 0.3560 0.3680 0.3750
7.320000 0.3820 0.3870 0.3910 0.3960 0.3990
7.354297 0.4060 0.4110 0.4180 0.4250 0.4320
7.389000 0.4390 0.4470 0.4540 0.4640 0.4750
7.423297 0.4880 0.5000 0.5000 0.5160 0.5400
7.457000 0.5620 0.5740 0.5900 0.6030 0.6150
7.491297 0.6270 0.6360 0.6460 0.6550 0.6620
7.526000 0.6770 0.6820 0.6870 0.6940 0.6990
7.560297 0.7030 0.7030 0.6940 0.6890 0.6870
7.595000 0.6890 0.6990 0.7030 0.7030 0.7060
7.629297 0.7100 0.7130 0.7160 0.7180 0.7200
7.663000 0.7220 0.7250 0.7270 0.7280 0.7300
7.697297 0.7350 0.7370 0.7370 0.7440 0.7460
7.732000 0.7470 0.7490 0.7510 0.7530 0.7530
7.766297 0.7540 0.7540 0.7560 0.7560 0.7560
7.800000 0.7580 0.7590 0.7590 0.7590 0.7590
7.834297 0.7610 0.7610 0.7610 0.7630 0.7630
7.869000 0.7630 0.7650 0.7650 0.7650 0.7650
7.903297 0.7650 0.7650 0.7650 0.7630 0.7650
7.937000 0.7630 0.7630 0.7590 0.7580 0.7580
7.971297 0.7560 0.7540 0.7540 0.7530 0.7530
8.006000 0.7510 0.7490 0.7490 0.7470 0.7460
8.040297 0.7440 0.7400 0.7390 0.7370 0.7350
8.074000 0.7340 0.7300 0.7280 0.7270 0.7230
8.108297 0.7200 0.7160 0.7130 0.7080 0.7010
8.143000 0.6980 0.6960 0.6910 0.6870 0.6860
8.177297 0.6820 0.6770 0.6720 0.6670 0.6630
8.212000 0.6600 0.6550 0.6480 0.6430 0.6360
8.246297 0.6290 0.6200 0.6140 0.6070 0.5980
8.280000 0.5900 0.5810 0.5710 0.5620 0.5520
8.314297 0.5420 0.5310 0.5190 0.5090 0.4970
8.349000 0.4850 0.4710 0.4590 0.4450 0.4320
8.383297 0.4160 0.4030 0.3870 0.3700 0.3550
8.417000 0.3440 0.3370 0.3310 0.3150 0.3010
8.451297 0.2860 0.2720 0.2600 0.2460 0.2340
8.486000 0.2240 0.2140 0.2050 0.1970 0.1950
8.520297 0.1850 0.1760 0.1690 0.1570 0.1560
8.554000 0.1490 0.1470 0.1400 0.1400 0.1380
8.588297 0.1370 0.1350 0.1320 0.1280 0.1260
8.623000 0.1250 0.1250 0.1250 0.1250 0.1250
8.657297 0.1250 0.1250 0.1260 0.1260 0.1280
8.691000 0.1320 0.1330 0.1330 0.1350 0.1380
8.725297 0.1420 0.1450 0.1500 0.1540 0.1590
8.760000 0.1620 0.1660 0.1740 0.1800 0.1880
8.794297 0.1920 0.1980 0.2050 0.2120 0.2190
8.829000 0.2260 0.2290 0.2400 0.2480 0.2550
8.863297 0.2620 0.2690 0.2770 0.2880 0.2890
8.897000 0.2950 0.2950 0.3000 0.3010 0.3030
8.931297 0.3080 0.3080 0.3100 0.3120 0.3120
8.966000 0.3120 0.3120 0.3120 0.3120 0.3100
9.000297 0.3080 0.3050 0.3030 0.3000 0.2980
9.034000 0.2950 0.2880 0.2840 0.2770 0.2740
9.068297 0.2670 0.2620 0.2600 0.2590 0.2530
9.103000 0.2460 0.2410 0.2340 0.2280 0.2210
9.137297 0.2160 0.2100 0.2040 0.2020 0.1980
9.171000 0.1930 0.1880 0.1860 0.1810 0.1780
9.205297 0.1690 0.1660 0.1610 0.1590 0.1540
9.240000 0.1470 0.1420 0.1350 0.1330 0.1300
9.274297 0.1260 0.1250 0.1250 0.1230 0.1230
9.309000 0.1210 0.1210 0.1210 0.1200 0.1200
9.343297 0.1200 0.1200 0.1210 0.1210 0.1230
9.377000 0.1230 0.1230 0.1250 0.1260 0.1260
9.411297 0.1280 0.1350 0.1350 0.1380 0.1400
9.446000 0.1440 0.1450 0.1470 0.1470 0.1490
9.480297 0.1520 0.1560 0.1590 0.1660 0.1690
9.514000 0.1760 0.1800 0.1860 0.1900 0.1920
9.548297 0.1950 0.1980 0.2050 0.2160 0.2190
9.583000 0.2210 0.2240 0.2290 0.2330 0.2380
9.617297 0.2430 0.2500 0.2570 0.2640 0.2710
9.651000 0.2790 0.2860 0.2950 0.2960 0.3030
9.685297 0.3120 0.3190 0.3240 0.3270 0.3290
9.720000 0.3320 0.3480 0.3530 0.3580 0.3610
9.754297 0.3670 0.3730 0.3790 0.3840 0.3890
9.788000 0.3940 0.3970 0.4030 0.4060 0.4090
9.822297 0.4110 0.4180 0.4200 0.4230 0.4270
9.857000 0.4280 0.4300 0.4320 0.4330 0.4350
9.891297 0.4370 0.4390 0.4400 0.4420 0.4440
9.926000 0.4440 0.4440 0.4440 0.4440 0.4440
9.960297 0.4420 0.4400 0.4390 0.4350 0.4330
9.994000 0.4320 0.4280 0.4160 0.4090 0.4040
10.028297 0.3960 0.3960 0.3890 0.3840 0.3790
10.063000 0.3730 0.3720 0.3680 0.3670 0.3670
10.097297 0.3650 0.3630 0.3610 0.3580 0.3550
10.131000 0.3510 0.3490 0.3460 0.3430 0.3410
10.165297 0.3360 0.3340 0.3310 0.3270 0.3250
10.200000 0.3220 0.3170 0.3080 0.3030 0.3010
10.234297 0.2960 0.2950 0.2840 0.2790 0.2760
10.268000 0.2710 0.2690 0.2620 0.2600 0.2550
10.302297 0.2500 0.2480 0.2410 0.2400 0.2340
10.337000 0.2330 0.2290 0.2260 0.2210 0.2190
10.371297 0.2160 0.2100 0.2100 0.2090 0.2070
10.405000 0.2050 0.2040 0.2020 0.2000 0.1980
10.439297 0.1950 0.1920 0.1880 0.1850 0.1810
10.474000 0.1800 0.1800 0.1780 0.1780 0.1760
10.508297 0.1740 0.1730 0.1730 0.1730 0.1730
10.543000 0.1730 0.1730 0.1730 0.1710 0.1710
10.577297 0.1710 0.1710 0.1710 0.1730 0.1740
10.611000 0.1740 0.1780 0.1800 0.1830 0.1900
10.645297 0.1930 0.1950 0.1970 0.1980 0.2040
10.680000 0.2120 0.2170 0.2190 0.2220 0.2260
10.714297 0.2290 0.2330 0.2380 0.2450 0.2520
10.748000 0.2570 0.2640 0.2710 0.2760 0.2830
10.782297 0.2890 0.2960 0.3030 0.3120 0.3190
10.817000 0.3250 0.3430 0.3490 0.3580 0.3670
10.851297 0.3750 0.3840 0.3870 0.3910 0.3970
10.885000 0.4040 0.4150 0.4230 0.4270 0.4320
10.919297 0.4390 0.4450 0.4540 0.4630 0.4690
10.954000 0.4750 0.4800 0.4850 0.4900 0.4970
10.988297 0.5040 0.5110 0.5160 0.5230 0.5280
11.023000 0.5330 0.5350 0.5420 0.5450 0.5500
11.057297 0.5540 0.5590 0.5640 0.5670 0.5710
11.091000 0.5720 0.5780 0.5790 0.5810 0.5810
11.125297 0.5840 0.5860 0.5880 0.5860 0.5900
11.160000 0.5900 0.5910 0.5910 0.5930 0.5930
11.194297 0.5930 0.5930 0.5930 0.5930 0.5900
11.228000 0.5900 0.5880 0.5830 0.5790 0.5720
11.262297 0.5670 0.5640 0.5550 0.5480 0.5430
11.297000 0.5360 0.5300 0.5180 0.5040 0.4970
11.331297 0.4930 0.4690 0.4640 0.4560 0.4470
11.365000 0.4350 0.4160 0.4110 0.4010 0.3890
11.399297 0.3750 0.3600 0.3430 0.3340 0.3250
11.434000 0.3080 0.2930 0.2760 0.2670 0.2550
11.468297 0.2410 0.2290 0.2240 0.2100 0.2020
11.502000 0.1970 0.1950 0.1850 0.1780 0.1710
11.536297 0.1640 0.1590 0.1540 0.1490 0.1420
11.571000 0.1370 0.1320 0.1280 0.1250 0.1230
11.605297 0.1200 0.1180 0.1160 0.1140 0.1130
11.640000 0.1130 0.1130 0.1130 0.1130 0.1130
11.674297 0.1140 0.1140 0.1140 0.1180 0.1210
11.708000 0.1300 0.1330 0.1350 0.1380 0.1440
11.742297 0.1470 0.1540 0.1590 0.1660 0.1730
11.777000 0.1800 0.1860 0.1930 0.2020 0.2090
11.811297 0.2160 0.2210 0.2280 0.2340 0.2400
11.845000 0.2450 0.2480 0.2530 0.2690 0.2720
11.879297 0.2810 0.2860 0.2950 0.3010 0.3100
11.914000 0.3150 0.3220 0.3290 0.3320 0.3480
11.948297 0.3550 0.3600 0.3670 0.3700 0.3750
11.982000 0.3790 0.3870 0.3970 0.3990 0.4040
12.016297 0.4080 0.4090 0.4160 0.4210 0.4250
12.051000 0.4300 0.4350 0.4390 0.4440 0.4490
12.085297 0.4540 0.4590 0.4610 0.4680 0.4680
12.119000 0.4710 0.4730 0.4760 0.4800 0.4830
12.153297 0.4850 0.4880 0.4950 0.4990 0.4990
12.188000 0.5020 0.5040 0.5070 0.5110 0.5120
12.222297 0.5140 0.5160 0.5190 0.5230 0.5280
12.257000 0.5310 0.5350 0.5380 0.5400 0.5420
12.291297 0.5450 0.5480 0.5500 0.5520 0.5550
12.325000 0.5570 0.5590 0.5590 0.5600 0.5620
12.359297 0.5670 0.5690 0.5710 0.5720 0.5760
12.394000 0.5790 0.5830 0.5840 0.5860 0.5880
12.428297 0.5880 0.5900 0.5910 0.5930 0.5950
12.462000 0.5950 0.5960 0.5980 0.6000 0.6020
12.496297 0.6030 0.6080 0.6100 0.6120 0.6140
12.531000 0.6150 0.6170 0.6190 0.6200 0.6220
12.565297 0.6240 0.6260 0.6270 0.6290 0.6310
12.599000 0.6320 0.6340 0.6360 0.6380 0.6380
12.633297 0.6390 0.6390 0.6410 0.6430 0.6440
12.668000 0.6440 0.6460 0.6460 0.6480 0.6500
12.702297 0.6500 0.6500 0.6500 0.6510 0.6510
12.737000 0.6510 0.6510 0.6530 0.6530 0.6560
12.771297 0.6580 0.6600 0.6600 0.6600 0.6620
12.805000 0.6620 0.6630 0.6630 0.6650 0.6650
12.839297 0.6670 0.6680 0.6680 0.6680 0.6680
12.874000 0.6680 0.6680 0.6680 0.6680 0.6680
12.908297 0.6700 0.6720 0.6720 0.6720 0.6750
12.942000 0.6750 0.6750 0.6770 0.6770 0.6770
12.976297 0.6770 0.6790 0.6790 0.6790 0.6800
13.011000 0.6800 0.6820 0.6840 0.6860 0.6860
13.045297 0.6860 0.6870 0.6870 0.6870 0.6890
13.079000 0.6870 0.6870 0.6870 0.6890 0.6910
13.113297 0.6910 0.6910 0.6910 0.6910 0.6910
13.148000 0.6910 0.6910 0.6920 0.6920 0.6920
13.182297 0.6920 0.6920 0.6920 0.6920 0.6920
13.216000 0.6920 0.6940 0.6940 0.6940 0.6940
13.250297 0.6940 0.6960 0.6960 0.6980 0.6980
13.285000 0.6980 0.6980 0.6990 0.6990 0.6990
13.319297 0.6990 0.6990 0.6990 0.6990 0.6990
13.354000 0.6990 0.6990 0.6990 0.6990 0.6990
13.388297 0.6990 0.6990 0.6990 0.6990 0.6990
13.422000 0.6990 0.6990 0.6990 0.7010 0.6990
13.456297 0.6990 0.6980 0.6980 0.6980 0.6980
13.491000 0.6980 0.6980 0.6980 0.6980 0.6960
13.525297 0.6960 0.6960 0.6940 0.6920 0.6920
13.559000 0.6910 0.6910 0.6890 0.6890 0.6890
13.593297 0.6890 0.6870 0.6870 0.6870 0.6870
13.628000 0.6870 0.6870 0.6870 0.6870 0.6860
13.662297 0.6860 0.6840 0.6820 0.6820 0.6820
13.696000 0.6820 0.6820 0.6820 0.6820 0.6800
13.730297 0.6790 0.6790 0.6770 0.6770 0.6750
13.765000 0.6740 0.6720 0.6700 0.6700 0.6680
13.799297 0.6680 0.6670 0.6670 0.6670 0.6670
13.833000 0.6670 0.6670 0.6670 0.6680 0.6700
13.867297 0.6700 0.6720 0.6720 0.6740 0.6750
13.902000 0.6750 0.6770 0.6770 0.6790 0.6800
13.936297 0.6840 0.6870 0.6870 0.6890 0.6910
13.971000 0.6920 0.6940 0.6940 0.6960 0.6960
14.005297 0.6980 0.6980 0.6990 0.6990 0.6990
14.039000 0.6990 0.6990 0.6990 0.6990 0.6990
14.073297 0.7010 0.7010 0.7010 0.7010 0.7030
14.108000 0.7030 0.7030 0.7040 0.7040 0.7040
14.142297 0.7040 0.7040 0.7040 0.7040 0.7040
14.176000 0.7040 0.7040 0.7030 0.7030 0.7010
14.210297 0.7010 0.6990 0.6980 0.6980 0.6980
14.245000 0.6960 0.6960 0.6960 0.6940 0.6940
14.279297 0.6940 0.6940 0.6920 0.6920 0.6920
14.313000 0.6920 0.6920 0.6920 0.6910 0.6910
14.347297 0.6910 0.6910 0.6910 0.6910 0.6910
14.382000 0.6890 0.6890 0.6890 0.6890 0.6890
14.416297 0.6890 0.6890 0.6890 0.6890 0.6890
14.451000 0.6890 0.6890 0.6890 0.6890 0.6890
14.485297 0.6890 0.6890 0.6890 0.6890 0.6870
14.519000 0.6860 0.6860 0.6860 0.6840 0.6820
14.553297 0.6800 0.6800 0.6800 0.6820 0.6800
14.588000 0.6790 0.6770 0.6790 0.6770 0.6770
14.622297 0.6740 0.6740 0.6720 0.6720 0.6700
14.656000 0.6700 0.6670 0.6670 0.6670 0.6670
14.690297 0.6670 0.6670 0.6650 0.6650 0.6630
14.725000 0.6630 0.6620 0.6630 0.6600 0.6600
14.759297 0.6620 0.6620 0.6600 0.6600 0.6600
14.793000 0.6580 0.6580 0.6580 0.6580 0.6560
14.827297 0.6560 0.6560 0.6550 0.6550 0.6530
14.862000 0.6510 0.6500 0.6500 0.6500 0.6500
14.896297 0.6500 0.6480 0.6480 0.6460 0.6460
14.930000 0.6440 0.6440 0.6430 0.6410 0.6390
14.964297 0.6380 0.6340 0.6340 0.6340 0.6320
14.999000 0.6320 0.6310 0.6310 0.6290 0.6270
15.033297 0.6260 0.6260 0.6260 0.6240 0.6240
15.068000 0.6220 0.6220 0.6200 0.6200 0.6200
15.102297 0.6200 0.6200 0.6200 0.6200 0.6200
15.136000 0.6190 0.6190 0.6190 0.6170 0.6170
15.170297 0.6150 0.6140 0.6120 0.6100 0.6080
15.205000 0.6080 0.6070 0.6050 0.6050 0.6050
15.239297 0.6030 0.6030 0.6020 0.6020 0.6000
15.273000 0.6000 0.5980 0.5960 0.5950 0.5930
15.307297 0.5930 0.5910 0.5910 0.5900 0.5900
15.342000 0.5880 0.5880 0.5860 0.5840 0.5830
15.376297 0.5830 0.5810 0.5810 0.5810 0.5790
15.410000 0.5790 0.5780 0.5780 0.5780 0.5760
15.444297 0.5760 0.5740 0.5740 0.5740 0.5710
15.479000 0.5690 0.5670 0.5670 0.5670 0.5670
15.513297 0.5670 0.5690 0.5670 0.5660 0.5660
15.548000 0.5640 0.5640 0.5620 0.5620 0.5600
15.582297 0.5590 0.5590 0.5570 0.5550 0.5550
15.616000 0.5550 0.5550 0.5550 0.5550 0.5540
15.650297 0.5540 0.5540 0.5540 0.5540 0.5520
15.685000 0.5520 0.5520 0.5520 0.5520 0.5500
15.719297 0.5500 0.5500 0.5500 0.5500 0.5500
15.753000 0.5480 0.5480 0.5480 0.5470 0.5470
15.787297 0.5450 0.5450 0.5450 0.5450 0.5450
15.822000 0.5450 0.5450 0.5450 0.5450 0.5450
15.856297 0.5450 0.5450 0.5450 0.5450 0.5450
15.890000 0.5470 0.5470 0.5470 0.5470
##END=
