##TITLE=1-CARBOXY-1'-CARBETHOXY FERROCENE
##JCAMP-DX=4.24
##DATA TYPE=INFRARED SPECTRUM
##CLASS=COBLENTZ
##ORIGIN=WYANDOTTE CHEMICALS CORP., WYANDOTTE, MICHIGAN, USA
##OWNER=COBLENTZ SOCIETY
Collection (C) 2018 copyright by the U.S. Secretary of Commerce
on behalf of the United States of America. All rights reserved.
##DATE=Not specified, most likely prior to 1970
##MOLFORM=C14 H14 O4 Fe
##MP=144-145 C
##SOURCE REFERENCE=COBLENTZ NO. 3003
##$NIST ID=B6003003
##$NIST SOURCE=COBLENTZ
##$NIST IMAGE=cob3003
##SPECTROMETER/DATA SYSTEM=Not specified, most likely a prism, grating, or hybrid spectrometer.
##STATE=SOLID (MINERAL OIL MULL)
##PATH LENGTH=
$$SPECTRAL CONTAMINATION DUE TO OIL AROUND 2900 CM^-^1
##SAMPLING PROCEDURE=TRANSMISSION
##RESOLUTION=4
##DATA PROCESSING=DIGITIZED BY NIST FROM HARD COPY
##XUNITS=MICROMETERS
##YUNITS=TRANSMITTANCE
##XFACTOR=1.000000
##YFACTOR=1
##DELTAX=000.006796
##FIRSTX=2.014
##LASTX=15.9936
##FIRSTY=0.664
##MAXX=15.9936
##MINX=2.014
##MAXY=0.96
##MINY=0.028
##NPOINTS=2058
##XYDATA=(X++(Y..Y))
2.014000 0.6640 0.6710 0.6740 0.6760 0.6760
2.047997 0.6760 0.6790 0.6830 0.6840 0.6840
2.082000 0.6860 0.6910 0.6980 0.7000 0.7030
2.115997 0.7050 0.7030 0.7000 0.6980 0.6960
2.150000 0.6960 0.7000 0.7000 0.7000 0.6980
2.183997 0.6980 0.6960 0.6950 0.6930 0.6910
2.217000 0.6910 0.6930 0.6950 0.6950 0.6960
2.250997 0.6960 0.7000 0.7130 0.7170 0.7200
2.285000 0.7250 0.7250 0.7250 0.7250 0.7250
2.318997 0.7250 0.7270 0.7290 0.7300 0.7320
2.353000 0.7320 0.7320 0.7340 0.7370 0.7390
2.386997 0.7420 0.7440 0.7440 0.7420 0.7410
2.421000 0.7390 0.7410 0.7420 0.7440 0.7460
2.454997 0.7460 0.7460 0.7470 0.7490 0.7520
2.489000 0.7580 0.7610 0.7610 0.7630 0.7640
2.522997 0.7730 0.7780 0.7800 0.7810 0.7830
2.557000 0.7870 0.7880 0.7880 0.7880 0.7870
2.590997 0.7850 0.7830 0.7810 0.7830 0.7870
2.625000 0.7920 0.7970 0.7980 0.8000 0.8040
2.658997 0.8040 0.7980 0.7950 0.7930 0.7930
2.693000 0.7950 0.7950 0.7950 0.7970 0.7980
2.726997 0.7980 0.7980 0.8000 0.8000 0.8000
2.761000 0.7980 0.7980 0.7970 0.7970 0.7970
2.794997 0.7970 0.7970 0.7950 0.7930 0.7920
2.829000 0.7900 0.7880 0.7850 0.7830 0.7810
2.862997 0.7810 0.7800 0.7800 0.7800 0.7800
2.897000 0.7800 0.7800 0.7800 0.7800 0.7780
2.930997 0.7760 0.7750 0.7730 0.7700 0.7660
2.965000 0.7660 0.7680 0.7680 0.7700 0.7710
2.998997 0.7710 0.7700 0.7610 0.7560 0.7510
3.033000 0.7470 0.7410 0.7390 0.7350 0.7340
3.066997 0.7290 0.7200 0.7060 0.6980 0.6890
3.101000 0.6840 0.6790 0.6670 0.6490 0.6350
3.134997 0.6300 0.6230 0.6160 0.6040 0.5960
3.169000 0.5820 0.5670 0.5550 0.5380 0.4990
3.202997 0.4610 0.4390 0.4240 0.4250 0.4310
3.237000 0.4510 0.4540 0.4510 0.4410 0.4340
3.270997 0.4250 0.4170 0.4050 0.3850 0.3590
3.305000 0.3200 0.2280 0.1870 0.1430 0.0970
3.338997 0.0610 0.0370 0.0300 0.0300 0.0320
3.373000 0.0320 0.0320 0.0280 0.0280 0.0320
3.406997 0.0400 0.0450 0.0490 0.0520 0.0590
3.441000 0.0610 0.0630 0.0630 0.0630 0.0630
3.474997 0.0570 0.0590 0.0850 0.1100 0.1430
3.509000 0.1750 0.2090 0.2450 0.3010 0.3450
3.542997 0.3660 0.3910 0.4050 0.4190 0.4290
3.577000 0.4360 0.4420 0.4530 0.4530 0.4530
3.610997 0.4510 0.4510 0.4510 0.4530 0.4700
3.645000 0.4830 0.4970 0.5050 0.5210 0.5240
3.678997 0.5220 0.5220 0.5220 0.5190 0.5000
3.713000 0.4710 0.4530 0.4480 0.4420 0.4410
3.746997 0.4410 0.4410 0.4370 0.4250 0.4130
3.781000 0.4020 0.4000 0.4100 0.4270 0.4420
3.814997 0.4560 0.4710 0.4850 0.5050 0.5140
3.849000 0.5160 0.5160 0.5120 0.4920 0.4680
3.882997 0.4490 0.4290 0.4190 0.4020 0.4000
3.917000 0.4000 0.4120 0.4510 0.4700 0.4750
3.950997 0.4780 0.4800 0.4830 0.4950 0.5040
3.984000 0.5140 0.5240 0.5340 0.5460 0.5580
4.017997 0.5700 0.5840 0.5990 0.6010 0.6040
4.052000 0.6140 0.6250 0.6260 0.6250 0.6180
4.085997 0.6160 0.6200 0.6280 0.6350 0.6370
4.120000 0.6380 0.6420 0.6500 0.6590 0.6660
4.153997 0.6720 0.6740 0.6760 0.6810 0.6860
4.188000 0.6930 0.7000 0.7060 0.7080 0.7080
4.221997 0.7100 0.7060 0.6930 0.6780 0.6690
4.256000 0.6660 0.6640 0.6620 0.6670 0.6830
4.289997 0.6930 0.7000 0.7050 0.7130 0.7220
4.324000 0.7340 0.7470 0.7560 0.7660 0.7850
4.357997 0.8020 0.8190 0.8310 0.8330 0.8330
4.392000 0.8360 0.8380 0.8390 0.8410 0.8410
4.425997 0.8390 0.8390 0.8380 0.8390 0.8430
4.460000 0.8430 0.8440 0.8440 0.8460 0.8480
4.493997 0.8500 0.8510 0.8510 0.8550 0.8560
4.528000 0.8630 0.8680 0.8700 0.8680 0.8670
4.561997 0.8670 0.8720 0.8750 0.8800 0.8820
4.596000 0.8790 0.8790 0.8800 0.8820 0.8840
4.629997 0.8850 0.8890 0.8920 0.8990 0.9040
4.664000 0.9080 0.9080 0.9020 0.9020 0.9020
4.697997 0.9090 0.9140 0.9190 0.9250 0.9250
4.732000 0.9210 0.9210 0.9210 0.9210 0.9210
4.765997 0.9230 0.9230 0.9280 0.9300 0.9310
4.800000 0.9350 0.9360 0.9360 0.9380 0.9400
4.833997 0.9450 0.9500 0.9540 0.9550 0.9570
4.868000 0.9550 0.9540 0.9500 0.9480 0.9500
4.901997 0.9500 0.9500 0.9480 0.9430 0.9380
4.936000 0.9360 0.9330 0.9300 0.9260 0.9230
4.969997 0.9130 0.9080 0.9080 0.9130 0.9160
5.004000 0.9180 0.9190 0.9210 0.9250 0.9280
5.037997 0.9300 0.9260 0.9210 0.9210 0.9250
5.072000 0.9330 0.9420 0.9520 0.9600 0.9600
5.105997 0.9590 0.9590 0.9590 0.9540 0.9600
5.140000 0.9600 0.9570 0.9540 0.9520 0.9500
5.173997 0.9450 0.9420 0.9420 0.9400 0.9430
5.208000 0.9420 0.9380 0.9330 0.9300 0.9260
5.241997 0.9260 0.9230 0.9130 0.9060 0.9020
5.276000 0.8990 0.8900 0.8850 0.8840 0.8800
5.309997 0.8790 0.8840 0.8940 0.9010 0.9040
5.344000 0.9090 0.9110 0.9130 0.9140 0.9190
5.377997 0.9230 0.9250 0.9250 0.9230 0.9210
5.412000 0.9190 0.9210 0.9190 0.9190 0.9160
5.445997 0.9140 0.9160 0.9160 0.9160 0.9060
5.480000 0.8960 0.8820 0.8840 0.8840 0.8820
5.513997 0.8800 0.8720 0.8630 0.8480 0.8390
5.548000 0.8340 0.8330 0.8330 0.8330 0.8340
5.581997 0.8410 0.8510 0.8530 0.8530 0.8510
5.616000 0.8510 0.8430 0.8460 0.8560 0.8670
5.649997 0.8790 0.8920 0.9010 0.9010 0.8960
5.683000 0.8920 0.8890 0.8770 0.8630 0.8500
5.716997 0.8270 0.7970 0.7640 0.7220 0.6710
5.751000 0.6030 0.5210 0.4170 0.3400 0.2410
5.784997 0.1990 0.1870 0.1100 0.0280 0.0300
5.819000 0.0340 0.0440 0.0660 0.0850 0.1140
5.852997 0.1530 0.1950 0.2310 0.2990 0.3200
5.887000 0.3210 0.3110 0.2790 0.2430 0.2010
5.920997 0.1600 0.0830 0.0400 0.0340 0.0320
5.955000 0.0300 0.0300 0.0340 0.0370 0.0520
5.988997 0.0660 0.0980 0.1310 0.1480 0.1650
6.023000 0.1950 0.2500 0.3440 0.3950 0.4370
6.056997 0.4710 0.4880 0.5070 0.5340 0.5630
6.091000 0.6040 0.6230 0.6300 0.6380 0.6520
6.124997 0.6640 0.6720 0.6760 0.6880 0.7050
6.159000 0.7170 0.7300 0.7320 0.7340 0.7390
6.192997 0.7510 0.7680 0.7850 0.7880 0.7930
6.227000 0.8020 0.8100 0.8160 0.8240 0.8310
6.260997 0.8430 0.8500 0.8530 0.8560 0.8600
6.295000 0.8620 0.8600 0.8440 0.8430 0.8460
6.328997 0.8460 0.8460 0.8440 0.8440 0.8410
6.363000 0.8410 0.8500 0.8600 0.8650 0.8670
6.396997 0.8680 0.8670 0.8650 0.8620 0.8560
6.431000 0.8500 0.8440 0.8440 0.8440 0.8430
6.464997 0.8390 0.8290 0.8210 0.8190 0.8170
6.499000 0.8160 0.8090 0.8070 0.8040 0.8020
6.532997 0.8040 0.8190 0.8240 0.8290 0.8290
6.567000 0.8260 0.8210 0.8140 0.8100 0.8070
6.600997 0.8040 0.8000 0.7920 0.7780 0.7610
6.635000 0.7340 0.6980 0.6110 0.5570 0.4880
6.668997 0.4120 0.3320 0.2140 0.1700 0.0860
6.703000 0.0490 0.0510 0.0660 0.0760 0.0800
6.736997 0.0830 0.0810 0.0710 0.0610 0.0610
6.771000 0.0780 0.1150 0.1290 0.1390 0.1490
6.804997 0.1560 0.1630 0.1680 0.1940 0.2180
6.839000 0.2360 0.2520 0.2620 0.2700 0.2750
6.872997 0.2820 0.3010 0.3230 0.3520 0.3860
6.907000 0.4150 0.4530 0.4940 0.5410 0.5770
6.940997 0.6590 0.6840 0.7050 0.7240 0.7410
6.975000 0.7640 0.7800 0.7880 0.7950 0.7930
7.008997 0.7900 0.7830 0.7760 0.7560 0.7100
7.043000 0.6590 0.6180 0.5860 0.5460 0.5090
7.076997 0.4770 0.4510 0.4310 0.4100 0.4020
7.111000 0.4020 0.4190 0.4490 0.4750 0.5220
7.144997 0.5510 0.5510 0.5290 0.4560 0.3960
7.179000 0.3500 0.3230 0.3200 0.3110 0.3250
7.212997 0.3180 0.3130 0.2960 0.2840 0.2750
7.247000 0.2690 0.2580 0.2430 0.2310 0.2310
7.280997 0.2430 0.2640 0.2810 0.3080 0.3660
7.315000 0.4250 0.4800 0.5510 0.5530 0.5480
7.348997 0.5310 0.5220 0.5170 0.5210 0.5920
7.383000 0.6200 0.6370 0.6490 0.6600 0.6780
7.416997 0.7050 0.7340 0.7510 0.7660 0.7780
7.450000 0.7900 0.7930 0.7980 0.8000 0.8000
7.483997 0.8000 0.8000 0.8000 0.8000 0.7980
7.518000 0.7980 0.7920 0.7880 0.7700 0.7490
7.551997 0.7290 0.7080 0.6840 0.6570 0.6250
7.586000 0.5870 0.5450 0.4320 0.3350 0.2670
7.619997 0.2040 0.1750 0.1460 0.1100 0.0810
7.654000 0.0440 0.0390 0.0390 0.0400 0.0420
7.687997 0.0490 0.0540 0.0690 0.0970 0.1170
7.722000 0.1360 0.1480 0.1550 0.1680 0.1750
7.755997 0.1750 0.1700 0.1370 0.1070 0.0800
7.790000 0.0630 0.0440 0.0390 0.0390 0.0440
7.823997 0.0630 0.0850 0.1190 0.1610 0.1970
7.858000 0.2260 0.2720 0.3270 0.3740 0.4190
7.891997 0.4560 0.4920 0.5140 0.5460 0.5680
7.926000 0.5960 0.6110 0.6200 0.6300 0.6400
7.959997 0.6520 0.6690 0.6810 0.6930 0.7030
7.994000 0.7100 0.7350 0.7510 0.7630 0.7710
8.027997 0.7800 0.7870 0.7930 0.8020 0.8100
8.062000 0.8190 0.8260 0.8380 0.8430 0.8500
8.095997 0.8560 0.8580 0.8600 0.8620 0.8650
8.130000 0.8790 0.8870 0.8890 0.8890 0.8870
8.163997 0.8840 0.8750 0.8620 0.8460 0.8260
8.198000 0.8020 0.7730 0.7520 0.7610 0.7870
8.231997 0.8160 0.8460 0.8650 0.8790 0.8890
8.266000 0.9010 0.9040 0.9040 0.9040 0.9040
8.299997 0.9040 0.9040 0.9040 0.9040 0.9010
8.334000 0.8940 0.8820 0.8700 0.8620 0.8550
8.367997 0.8500 0.8500 0.8390 0.8310 0.8270
8.402000 0.8260 0.8260 0.8240 0.8210 0.8140
8.435997 0.8020 0.7830 0.7630 0.7410 0.7010
8.470000 0.6450 0.5940 0.5290 0.4610 0.3910
8.503997 0.3100 0.2190 0.1870 0.1660 0.1480
8.538000 0.1410 0.1440 0.1720 0.1970 0.2330
8.571997 0.2820 0.3400 0.3930 0.4270 0.4900
8.606000 0.5670 0.5920 0.6110 0.6400 0.6570
8.639997 0.6790 0.6930 0.7060 0.7220 0.7350
8.674000 0.7460 0.7510 0.7520 0.7510 0.7350
8.707997 0.7130 0.6960 0.6550 0.6130 0.5860
8.742000 0.5410 0.4820 0.4030 0.3130 0.1950
8.775997 0.1490 0.0910 0.0440 0.0390 0.0370
8.810000 0.0440 0.0520 0.0830 0.1270 0.1750
8.843997 0.2070 0.2480 0.3030 0.3620 0.4150
8.878000 0.4650 0.5050 0.5430 0.5750 0.6060
8.911997 0.6430 0.6760 0.7000 0.7240 0.7490
8.946000 0.7640 0.7750 0.7880 0.7980 0.8050
8.979997 0.8140 0.8210 0.8340 0.8510 0.8580
9.014000 0.8630 0.8680 0.8700 0.8700 0.8630
9.047997 0.8480 0.8310 0.8190 0.8040 0.7810
9.082000 0.7560 0.7420 0.7240 0.7010 0.6740
9.115997 0.6470 0.6140 0.5970 0.5770 0.5650
9.150000 0.5570 0.5570 0.5720 0.6080 0.6490
9.183997 0.6860 0.7200 0.7420 0.7710 0.7970
9.217000 0.8020 0.8140 0.8220 0.8290 0.8390
9.250997 0.8530 0.8620 0.8700 0.8750 0.8790
9.285000 0.8790 0.8800 0.8800 0.8790 0.8720
9.318997 0.8510 0.8260 0.7950 0.7510 0.7180
9.353000 0.6930 0.6890 0.6890 0.7270 0.7610
9.386997 0.7710 0.7700 0.7180 0.6420 0.6380
9.421000 0.6400 0.6520 0.6910 0.7520 0.8090
9.454997 0.8430 0.8680 0.8850 0.8970 0.8990
9.489000 0.9010 0.9020 0.9040 0.9010 0.8990
9.522997 0.8900 0.8820 0.8600 0.8240 0.7760
9.557000 0.7220 0.6780 0.6250 0.6210 0.6300
9.590997 0.6470 0.6780 0.7170 0.7250 0.7250
9.625000 0.7130 0.6910 0.6570 0.6160 0.5750
9.658997 0.5310 0.4710 0.4100 0.3610 0.3300
9.693000 0.3300 0.3500 0.4020 0.4580 0.5090
9.726997 0.5620 0.6110 0.6520 0.6790 0.7080
9.761000 0.7410 0.7750 0.8020 0.8140 0.8290
9.794997 0.8380 0.8560 0.8750 0.8800 0.8800
9.829000 0.8820 0.8820 0.8840 0.8850 0.8850
9.862997 0.8850 0.8850 0.8840 0.8770 0.8560
9.897000 0.8330 0.8140 0.7880 0.7540 0.7170
9.930997 0.6670 0.6080 0.5700 0.5280 0.4970
9.965000 0.4730 0.4680 0.4680 0.4780 0.5280
9.998997 0.5700 0.6110 0.6540 0.6880 0.7050
10.033000 0.7270 0.7440 0.7540 0.7630 0.7700
10.066997 0.7780 0.7810 0.7850 0.7920 0.8000
10.101000 0.8020 0.8040 0.8040 0.8040 0.8070
10.134997 0.8070 0.8090 0.8090 0.8100 0.8100
10.169000 0.8090 0.8090 0.8050 0.8020 0.8000
10.202997 0.8000 0.7980 0.7950 0.7930 0.7900
10.237000 0.7830 0.7760 0.7760 0.7730 0.7710
10.270997 0.7680 0.7610 0.7510 0.7460 0.7460
10.305000 0.7440 0.7420 0.7370 0.7240 0.7150
10.338997 0.7120 0.7100 0.7050 0.7010 0.6910
10.373000 0.6780 0.6710 0.6670 0.6670 0.6640
10.406997 0.6620 0.6590 0.6520 0.6430 0.6350
10.441000 0.6280 0.6250 0.6230 0.6160 0.6110
10.474997 0.6030 0.5990 0.5920 0.5870 0.5820
10.509000 0.5790 0.5700 0.5630 0.5580 0.5530
10.542997 0.5500 0.5450 0.5410 0.5360 0.5340
10.577000 0.5310 0.5290 0.5290 0.5290 0.5310
10.610997 0.5380 0.5400 0.5430 0.5550 0.5600
10.645000 0.5620 0.5680 0.5740 0.5840 0.5940
10.678997 0.6030 0.6090 0.6140 0.6250 0.6330
10.713000 0.6490 0.6550 0.6710 0.6810 0.6950
10.746997 0.7030 0.7120 0.7200 0.7300 0.7420
10.781000 0.7520 0.7580 0.7640 0.7700 0.7810
10.814997 0.7850 0.7900 0.7930 0.7970 0.8000
10.849000 0.7980 0.7880 0.7560 0.7240 0.6910
10.882997 0.6300 0.6030 0.5770 0.5510 0.5310
10.917000 0.5210 0.5140 0.5090 0.5020 0.5000
10.950997 0.5020 0.5110 0.5190 0.5310 0.5500
10.984000 0.5670 0.5890 0.6330 0.6710 0.6930
11.017997 0.7010 0.7080 0.7030 0.7060 0.7100
11.052000 0.7180 0.7250 0.7470 0.7700 0.7880
11.085997 0.8070 0.8170 0.8240 0.8270 0.8270
11.120000 0.8140 0.8040 0.8020 0.8050 0.8140
11.153997 0.8220 0.8310 0.8410 0.8550 0.8600
11.188000 0.8700 0.8820 0.8900 0.9020 0.9060
11.221997 0.9090 0.9110 0.9140 0.9140 0.9160
11.256000 0.9180 0.9190 0.9190 0.9190 0.9180
11.289997 0.9140 0.9080 0.9010 0.8900 0.8800
11.324000 0.8630 0.8480 0.8390 0.8390 0.8510
11.357997 0.8600 0.8720 0.8800 0.8850 0.8920
11.392000 0.9010 0.9090 0.9160 0.9250 0.9280
11.425997 0.9300 0.9300 0.9280 0.9260 0.9190
11.460000 0.9090 0.9020 0.9010 0.8990 0.8990
11.493997 0.9010 0.9040 0.9110 0.9190 0.9300
11.528000 0.9310 0.9350 0.9380 0.9380 0.9360
11.561997 0.9310 0.9210 0.9090 0.8960 0.8800
11.596000 0.8650 0.8440 0.8070 0.7950 0.7920
11.629997 0.7900 0.7980 0.8160 0.8380 0.8530
11.664000 0.8650 0.8720 0.8820 0.8890 0.8990
11.697997 0.8990 0.9010 0.9040 0.9090 0.9090
11.732000 0.9010 0.8970 0.8870 0.8720 0.8510
11.765997 0.8270 0.7970 0.7490 0.7100 0.6720
11.800000 0.6370 0.6010 0.5750 0.5670 0.5600
11.833997 0.5580 0.5600 0.5840 0.6040 0.6180
11.868000 0.6330 0.6520 0.6810 0.7170 0.7460
11.901997 0.7630 0.7750 0.7750 0.7700 0.7540
11.936000 0.7240 0.6710 0.6160 0.5840 0.5550
11.969997 0.5310 0.5260 0.5360 0.5620 0.5860
12.004000 0.6280 0.6320 0.6320 0.6200 0.5800
12.037997 0.5450 0.4970 0.4480 0.4000 0.3470
12.072000 0.3110 0.2980 0.2980 0.3080 0.3280
12.105997 0.3560 0.3850 0.4050 0.4360 0.4540
12.140000 0.4610 0.4660 0.4660 0.4590 0.4490
12.173997 0.4420 0.4420 0.4490 0.4710 0.5020
12.208000 0.5550 0.6040 0.6320 0.6660 0.6930
12.241997 0.7150 0.7460 0.7630 0.7810 0.7970
12.276000 0.8040 0.8100 0.8120 0.8140 0.8190
12.309997 0.8270 0.8340 0.8380 0.8410 0.8430
12.344000 0.8440 0.8440 0.8480 0.8500 0.8510
12.377997 0.8530 0.8530 0.8510 0.8530 0.8550
12.412000 0.8600 0.8620 0.8630 0.8650 0.8680
12.445997 0.8720 0.8800 0.8840 0.8850 0.8870
12.480000 0.8890 0.8940 0.8970 0.9010 0.9040
12.513997 0.9080 0.9090 0.9110 0.9130 0.9140
12.548000 0.9180 0.9190 0.9210 0.9230 0.9250
12.581997 0.9260 0.9280 0.9300 0.9300 0.9330
12.616000 0.9380 0.9380 0.9350 0.9350 0.9350
12.649997 0.9350 0.9350 0.9350 0.9350 0.9310
12.683000 0.9300 0.9280 0.9260 0.9250 0.9230
12.716997 0.9190 0.9140 0.9020 0.8900 0.8750
12.751000 0.8530 0.8310 0.8210 0.8190 0.8170
12.784997 0.8160 0.8120 0.8020 0.7830 0.7320
12.819000 0.6960 0.6400 0.5960 0.5460 0.4830
12.852997 0.4340 0.3810 0.3420 0.3370 0.3420
12.887000 0.3760 0.4340 0.4990 0.5670 0.6200
12.920997 0.6600 0.7050 0.7390 0.7700 0.7850
12.955000 0.8000 0.8050 0.8120 0.8210 0.8290
12.988997 0.8340 0.8360 0.8380 0.8390 0.8430
13.023000 0.8430 0.8410 0.8390 0.8340 0.8190
13.056997 0.8040 0.7970 0.7870 0.7810 0.7730
13.091000 0.7560 0.7320 0.7010 0.6720 0.6320
13.124997 0.6110 0.5990 0.5820 0.5670 0.5460
13.159000 0.5360 0.5360 0.5430 0.5650 0.5960
13.192997 0.6160 0.6450 0.6710 0.6840 0.6910
13.227000 0.7000 0.7030 0.7080 0.7080 0.7120
13.260997 0.7120 0.7060 0.7050 0.7030 0.7010
13.295000 0.7030 0.7030 0.7010 0.7000 0.6890
13.328997 0.6810 0.6600 0.6450 0.6210 0.6010
13.363000 0.5750 0.5450 0.5070 0.4820 0.4560
13.396997 0.4390 0.4170 0.4080 0.4080 0.4220
13.431000 0.4460 0.4710 0.4990 0.5330 0.5670
13.464997 0.5970 0.6260 0.6500 0.6760 0.6980
13.499000 0.7120 0.7300 0.7470 0.7590 0.7730
13.532997 0.7800 0.7920 0.8020 0.8100 0.8140
13.567000 0.8190 0.8210 0.8220 0.8290 0.8360
13.600997 0.8390 0.8410 0.8430 0.8430 0.8480
13.635000 0.8500 0.8510 0.8510 0.8510 0.8510
13.668997 0.8500 0.8500 0.8510 0.8510 0.8510
13.703000 0.8510 0.8510 0.8510 0.8510 0.8530
13.736997 0.8550 0.8530 0.8530 0.8530 0.8550
13.771000 0.8580 0.8600 0.8620 0.8650 0.8650
13.804997 0.8600 0.8600 0.8600 0.8600 0.8620
13.839000 0.8630 0.8650 0.8670 0.8670 0.8670
13.872997 0.8650 0.8630 0.8600 0.8600 0.8630
13.907000 0.8650 0.8680 0.8720 0.8720 0.8730
13.940997 0.8730 0.8730 0.8770 0.8800 0.8820
13.975000 0.8820 0.8850 0.8900 0.8970 0.9010
14.008997 0.9020 0.9020 0.9040 0.9060 0.9060
14.043000 0.9060 0.9080 0.9090 0.9110 0.9110
14.076997 0.9110 0.9180 0.9210 0.9230 0.9230
14.111000 0.9230 0.9230 0.9230 0.9230 0.9250
14.144997 0.9260 0.9280 0.9280 0.9300 0.9300
14.179000 0.9300 0.9300 0.9300 0.9300 0.9300
14.212997 0.9300 0.9300 0.9280 0.9260 0.9260
14.247000 0.9300 0.9330 0.9330 0.9330 0.9330
14.280997 0.9310 0.9310 0.9330 0.9330 0.9330
14.315000 0.9330 0.9330 0.9310 0.9310 0.9310
14.348997 0.9330 0.9330 0.9300 0.9260 0.9260
14.383000 0.9250 0.9230 0.9210 0.9160 0.9160
14.416997 0.9210 0.9230 0.9230 0.9210 0.9210
14.450000 0.9190 0.9180 0.9140 0.9090 0.9080
14.483997 0.9060 0.9040 0.9060 0.9080 0.9130
14.518000 0.9160 0.9140 0.9140 0.9140 0.9140
14.551997 0.9140 0.9140 0.9160 0.9140 0.9140
14.586000 0.9130 0.9130 0.9130 0.9110 0.9110
14.619997 0.9110 0.9110 0.9130 0.9130 0.9130
14.654000 0.9130 0.9110 0.9090 0.9080 0.9080
14.687997 0.9080 0.9080 0.9080 0.9090 0.9090
14.722000 0.9080 0.9020 0.9020 0.9020 0.9020
14.755997 0.9060 0.9060 0.9020 0.8990 0.8970
14.790000 0.8960 0.8960 0.8970 0.8970 0.8970
14.823997 0.8970 0.8970 0.8960 0.8970 0.8970
14.858000 0.8970 0.8970 0.8970 0.8970 0.8990
14.891997 0.9010 0.9010 0.8990 0.8990 0.8970
14.926000 0.8940 0.8940 0.8940 0.8940 0.8940
14.959997 0.8940 0.8920 0.8900 0.8890 0.8800
14.994000 0.8750 0.8680 0.8620 0.8550 0.8500
15.027997 0.8430 0.8360 0.8210 0.8120 0.8090
15.062000 0.8050 0.8040 0.8040 0.8040 0.8040
15.095997 0.8050 0.8090 0.8170 0.8310 0.8480
15.130000 0.8580 0.8630 0.8700 0.8730 0.8730
15.163997 0.8750 0.8750 0.8750 0.8750 0.8730
15.198000 0.8700 0.8680 0.8680 0.8700 0.8680
15.231997 0.8680 0.8670 0.8650 0.8650 0.8620
15.266000 0.8580 0.8500 0.8500 0.8500 0.8480
15.299997 0.8480 0.8430 0.8380 0.8340 0.8330
15.334000 0.8330 0.8310 0.8290 0.8240 0.8220
15.367997 0.8210 0.8190 0.8170 0.8170 0.8170
15.402000 0.8160 0.8140 0.8140 0.8100 0.8070
15.435997 0.8070 0.8040 0.8040 0.8040 0.8000
15.470000 0.7980 0.7970 0.7950 0.7920 0.7900
15.503997 0.7870 0.7850 0.7830 0.7800 0.7780
15.538000 0.7760 0.7760 0.7750 0.7730 0.7700
15.571997 0.7700 0.7730 0.7780 0.7780 0.7760
15.606000 0.7750 0.7710 0.7700 0.7680 0.7660
15.639997 0.7660 0.7640 0.7630 0.7580 0.7520
15.674000 0.7510 0.7510 0.7510 0.7520 0.7490
15.707997 0.7490 0.7440 0.7390 0.7350 0.7340
15.742000 0.7320 0.7340 0.7340 0.7340 0.7320
15.775997 0.7290 0.7250 0.7220 0.7180 0.7170
15.810000 0.7150 0.7150 0.7150 0.7130 0.7120
15.843997 0.7100 0.7030 0.7010 0.7000 0.7000
15.878000 0.7000 0.6930 0.6910 0.6890 0.6880
15.911997 0.6880 0.6860 0.6860 0.6840 0.6830
15.946000 0.6790 0.6760 0.6740 0.6720 0.6710
15.979997 0.6710 0.6710 0.6720
##END=
