##TITLE=(-)-3-MENTHOXYACETOXY-(-)-ESTRA-1,3,5(10),6,8-PENTAEN-17-ONE
##JCAMP-DX=4.24
##DATA TYPE=INFRARED SPECTRUM
##CLASS=COBLENTZ III
##ORIGIN=THE WORCESTER FOUNDATION FOR EXPERIMENTAL BIOLOGY, Neal L. McNiven
##OWNER=COBLENTZ SOCIETY
Collection (C) 2018 copyright by the U.S. Secretary of Commerce
on behalf of the United States of America. All rights reserved.
##DATE=1964/08/05
##NAMES=17-oxoestra-1,3,5(10),6,8-pentaen-3-yl [(2-isopropyl-5-methylcyclohexyl)oxy]acetate
##MOLFORM=C30 H38 O4
##SOURCE REFERENCE=COBLENTZ NO. 5470
##$NIST ID=B6005470
##$NIST SOURCE=COBLENTZ
##$NIST IMAGE=cob5470
##SPECTROMETER/DATA SYSTEM=BECKMAN IR-7
##STATE=SOLID (KBr DISC)
##SAMPLING PROCEDURE=TRANSMISSION
##RESOLUTION=4
##DATA PROCESSING=DIGITIZED BY NIST FROM HARD COPY (FROM TWO SEGMENTS)
##XUNITS=1/CM
##YUNITS=TRANSMITTANCE
##XFACTOR=1.000000
##YFACTOR=1
##DELTAX=0.729168
##FIRSTX=646.667
##LASTX=4000.84
##FIRSTY=1.001
##MAXX=4000.84
##MINX=646.667
##MAXY=1.026
##MINY=0.034
##NPOINTS=4601
##XYDATA=(X++(Y..Y))
646.667000 1.0010 1.0000 1.0000 0.9980 0.9970
650.312839 0.9870 0.9691 0.9411 0.9300 0.9300
653.958678 0.9591 1.0140 1.0150 1.0160 1.0180
657.604516 1.0190 1.0210 1.0220 1.0240 1.0240
661.250355 1.0240 1.0250 1.0260 1.0260 1.0260
664.896194 1.0260 1.0260 1.0260 1.0260 1.0260
668.542033 1.0260 1.0260 1.0260 1.0260 1.0260
672.187872 1.0260 1.0260 1.0260 1.0260 1.0260
675.833710 1.0250 1.0240 1.0240 1.0240 1.0230
679.479549 1.0220 1.0220 1.0210 1.0210 1.0200
683.125388 1.0190 1.0180 1.0180 1.0170 1.0160
686.771227 1.0160 1.0140 1.0130 1.0110 1.0100
690.417065 1.0090 1.0080 1.0050 1.0050 1.0000
694.062904 1.0000 0.9990 0.9950 0.9910 0.9860
697.708743 0.9810 0.9750 0.9680 0.9620 0.9570
701.354582 0.9500 0.9430 0.9360 0.9290 0.9220
705.000421 0.9130 0.9080 0.9030 0.9030 0.9120
708.646259 0.9130 0.9170 0.9180 0.9210 0.9230
712.292098 0.9270 0.9280 0.9290 0.9290 0.9290
715.937937 0.9290 0.9280 0.9200 0.9200 0.9150
719.583776 0.9090 0.9000 0.8900 0.8810 0.8720
723.229615 0.8650 0.8590 0.8550 0.8500 0.8500
726.875453 0.8500 0.8510 0.8530 0.8560 0.8600
730.521292 0.8640 0.8660 0.8680 0.8690 0.8690
734.167131 0.8670 0.8660 0.8650 0.8640 0.8610
737.812970 0.8560 0.8530 0.8500 0.8450 0.8400
741.458809 0.8350 0.8300 0.8240 0.8190 0.8140
745.104647 0.8090 0.8050 0.8010 0.7980 0.7960
748.750486 0.7940 0.7900 0.7860 0.7810 0.7750
752.396325 0.7680 0.7610 0.7540 0.7450 0.7360
756.042164 0.7280 0.7180 0.7080 0.6970 0.6790
759.688002 0.6770 0.6780 0.6880 0.6940 0.7040
763.333841 0.7170 0.7290 0.7410 0.7500 0.7580
766.979680 0.7660 0.7780 0.7910 0.7910 0.7890
770.625519 0.7810 0.7680 0.7590 0.7580 0.7590
774.271358 0.7760 0.7810 0.7860 0.7890 0.7910
777.917196 0.7910 0.7910 0.7890 0.7860 0.7730
781.563035 0.7720 0.7730 0.7760 0.7800 0.7840
785.208874 0.7850 0.7890 0.7900 0.7900 0.7900
788.854713 0.7900 0.7900 0.7890 0.7820 0.7810
792.500552 0.7790 0.7760 0.7710 0.7650 0.7570
796.146390 0.7480 0.7380 0.7260 0.7180 0.6961
799.792229 0.6660 0.6300 0.5920 0.5560 0.5251
803.438068 0.4941 0.4940 0.5010 0.5070 0.5199
807.083907 0.5330 0.5520 0.5680 0.6070 0.6520
810.729745 0.6530 0.6530 0.6530 0.6520 0.6131
814.375584 0.5860 0.5360 0.4750 0.3681 0.3261
818.021423 0.2821 0.2391 0.2370 0.1951 0.1960
821.667262 0.3460 0.4110 0.4939 0.5359 0.5759
825.313101 0.6289 0.6529 0.6919 0.7109 0.7269
828.958939 0.7310 0.7370 0.7460 0.7470 0.7460
832.604778 0.7460 0.7440 0.7420 0.7370 0.7310
836.250617 0.7240 0.7170 0.7100 0.7030 0.6970
839.896456 0.6910 0.6760 0.6610 0.6610 0.6690
843.542295 0.6820 0.6880 0.7000 0.7120 0.7190
847.188133 0.7200 0.7170 0.7070 0.6941 0.6821
850.833972 0.6410 0.6210 0.6210 0.6400 0.6420
854.479811 0.6640 0.6989 0.7579 0.7650 0.7730
858.125650 0.7840 0.7840 0.7850 0.7840 0.7830
861.771489 0.7820 0.7810 0.7790 0.7780 0.7750
865.417327 0.7710 0.7680 0.7620 0.7550 0.7460
869.063166 0.7280 0.7150 0.7060 0.7000 0.6960
872.709005 0.6920 0.6880 0.6820 0.6740 0.6640
876.354844 0.6480 0.6260 0.5971 0.5810 0.5202
880.000682 0.4820 0.4420 0.4040 0.4040 0.4230
883.646521 0.4420 0.4610 0.4799 0.4969 0.5637
887.292360 0.5960 0.6530 0.7050 0.7290 0.7320
890.938199 0.7350 0.7380 0.7440 0.7450 0.7460
894.584038 0.7460 0.7450 0.7450 0.7440 0.7440
898.229876 0.7410 0.7350 0.7220 0.7120 0.7020
901.875715 0.6930 0.6840 0.6760 0.6690 0.6610
905.521554 0.6520 0.6271 0.6021 0.5861 0.5730
909.167393 0.5470 0.5120 0.4770 0.4560 0.4340
912.813232 0.4130 0.3921 0.3711 0.3501 0.3301
916.459070 0.3300 0.3550 0.4080 0.4400 0.4710
920.104909 0.5469 0.5999 0.6319 0.6420 0.6530
923.750748 0.6640 0.6740 0.6800 0.6830 0.6850
927.396587 0.6850 0.6860 0.6870 0.6900 0.6960
931.042426 0.6970 0.6980 0.6980 0.6980 0.6980
934.688264 0.6950 0.6890 0.6850 0.6820 0.6780
938.334103 0.6640 0.6530 0.6420 0.6320 0.6310
941.979942 0.6340 0.6380 0.6460 0.6470 0.6480
945.625781 0.6480 0.6450 0.6310 0.6180 0.6070
949.271619 0.5251 0.4851 0.4690 0.4640 0.4510
952.917458 0.4180 0.4180 0.4180 0.4190 0.4460
956.563297 0.4739 0.4900 0.5030 0.5090 0.5110
960.209136 0.5120 0.5120 0.5150 0.5210 0.5410
963.854975 0.5520 0.5849 0.5860 0.6049 0.6060
967.500813 0.6060 0.6050 0.6030 0.5990 0.5930
971.146652 0.5850 0.5760 0.5650 0.5550 0.5440
974.792491 0.5280 0.5150 0.5010 0.5010 0.5000
978.438330 0.5010 0.5319 0.5599 0.5839 0.5880
982.084169 0.6080 0.6270 0.6280 0.6230 0.6180
985.730007 0.6150 0.6110 0.6000 0.5860 0.5710
989.375846 0.5570 0.5430 0.5420 0.5430 0.5510
993.021685 0.5590 0.5680 0.5770 0.5860 0.5930
996.667524 0.5970 0.6000 0.5990 0.5970 0.5890
1000.313363 0.5810 0.5730 0.5660 0.5550 0.5361
1003.959201 0.5220 0.5050 0.4850 0.4600 0.4360
1007.605040 0.4130 0.3950 0.3840 0.3571 0.3570
1011.250879 0.3570 0.3580 0.3620 0.3650 0.3700
1014.896718 0.3760 0.3820 0.3910 0.4050 0.4209
1018.542556 0.4410 0.4610 0.4810 0.4990 0.5140
1022.188395 0.5230 0.5320 0.5330 0.5320 0.5250
1025.834234 0.5200 0.5050 0.4880 0.4640 0.4370
1029.480073 0.4200 0.4000 0.3990 0.4000 0.4199
1033.125912 0.4380 0.4530 0.4740 0.5010 0.5100
1036.771750 0.5190 0.5170 0.5120 0.5040 0.4950
1040.417589 0.4850 0.4840 0.4760 0.4760 0.4770
1044.063428 0.5020 0.5170 0.5409 0.5480 0.5520
1047.709267 0.5540 0.5560 0.5570 0.5560 0.5560
1051.355106 0.5550 0.5510 0.5490 0.5430 0.5310
1055.000944 0.5140 0.5010 0.4850 0.4690 0.4540
1058.646783 0.4390 0.4320 0.4160 0.3971 0.3801
1062.292622 0.3780 0.3780 0.3810 0.3890 0.4000
1065.938461 0.4160 0.4270 0.4310 0.4420 0.4440
1069.584300 0.4450 0.4440 0.4350 0.4340 0.4290
1073.230138 0.4160 0.4020 0.3970 0.3840 0.3730
1076.875977 0.3610 0.3610 0.3650 0.3780 0.3910
1080.521816 0.4050 0.4140 0.4210 0.4260 0.4300
1084.167655 0.4310 0.4310 0.4310 0.4300 0.4260
1087.813493 0.4180 0.4090 0.3990 0.3880 0.3770
1091.459332 0.3650 0.3530 0.3410 0.3280 0.3150
1095.105171 0.3030 0.2900 0.2790 0.2680 0.2570
1098.751010 0.2480 0.2380 0.2300 0.2280 0.2260
1102.396849 0.2240 0.2230 0.2210 0.2210 0.2190
1106.042687 0.2120 0.2000 0.1850 0.1680 0.1510
1109.688526 0.1330 0.1170 0.1040 0.0930 0.0880
1113.334365 0.0850 0.0800 0.0760 0.0720 0.0670
1116.980204 0.0630 0.0580 0.0570 0.0580 0.0610
1120.626043 0.0640 0.0690 0.0750 0.0840 0.0960
1124.271881 0.1090 0.1250 0.1410 0.1580 0.1759
1127.917720 0.1940 0.2110 0.2270 0.2420 0.2420
1131.563559 0.2420 0.2420 0.2400 0.2370 0.2290
1135.209398 0.2250 0.2230 0.2210 0.2160 0.2100
1138.855236 0.2100 0.2130 0.2210 0.2210 0.2200
1142.501075 0.2030 0.1890 0.1750 0.1630 0.1520
1146.146914 0.1430 0.1350 0.1280 0.1220 0.1170
1149.792753 0.1120 0.1080 0.1050 0.1020 0.0990
1153.438592 0.0960 0.0940 0.0920 0.0890 0.0860
1157.084430 0.0830 0.0800 0.0750 0.0700 0.0640
1160.730269 0.0580 0.0500 0.0480 0.0460 0.0440
1164.376108 0.0420 0.0400 0.0370 0.0350 0.0340
1168.021947 0.0340 0.0340 0.0360 0.0400 0.0450
1171.667786 0.0500 0.0560 0.0610 0.0640 0.0740
1175.313624 0.0880 0.0940 0.1010 0.1169 0.1300
1178.959463 0.1490 0.1650 0.1790 0.1920 0.2050
1182.605302 0.2160 0.2250 0.2320 0.2410 0.2530
1186.251141 0.2650 0.2800 0.2960 0.3120 0.3300
1189.896980 0.3490 0.3670 0.3860 0.4040 0.4180
1193.542818 0.4310 0.4410 0.4500 0.4580 0.4650
1197.188657 0.4710 0.4750 0.4790 0.4820 0.4820
1200.834496 0.4820 0.4720 0.4620 0.4530 0.4440
1204.480335 0.4340 0.4240 0.4140 0.4020 0.3761
1208.126173 0.3500 0.3250 0.3010 0.2460 0.2230
1211.772012 0.2220 0.2230 0.2380 0.2540 0.2660
1215.417851 0.2910 0.3170 0.3410 0.3660 0.3830
1219.063690 0.3840 0.3850 0.3850 0.3850 0.3621
1222.709529 0.2840 0.2690 0.2460 0.2230 0.2020
1226.355367 0.1890 0.1890 0.1890 0.2239 0.2449
1230.001206 0.2690 0.2930 0.3150 0.3360 0.3540
1233.647045 0.3720 0.3890 0.4070 0.4080 0.4080
1237.292884 0.4080 0.4120 0.4190 0.4310 0.4460
1240.938723 0.4610 0.4740 0.4820 0.4910 0.5079
1244.584561 0.5090 0.5080 0.4970 0.4920 0.4880
1248.230400 0.4830 0.4830 0.4920 0.5150 0.5349
1251.876239 0.5520 0.5670 0.5800 0.5900 0.5990
1255.522078 0.6060 0.6120 0.6170 0.6210 0.6240
1259.167917 0.6260 0.6290 0.6320 0.6320 0.6330
1262.813755 0.6320 0.6260 0.6180 0.6050 0.5940
1266.459594 0.5730 0.5600 0.5490 0.5470 0.5490
1270.105433 0.5600 0.5700 0.5750 0.5800 0.5840
1273.751272 0.5870 0.5900 0.5970 0.5980 0.6000
1277.397110 0.6000 0.6010 0.6000 0.6000 0.5950
1281.042949 0.5860 0.5770 0.5680 0.5570 0.5460
1284.688788 0.5360 0.5250 0.5140 0.5040 0.4920
1288.334627 0.4910 0.4920 0.5190 0.5440 0.5680
1291.980466 0.5910 0.6100 0.6260 0.6400 0.6500
1295.626304 0.6540 0.6580 0.6590 0.6590 0.6590
1299.272143 0.6580 0.6500 0.6400 0.6290 0.6210
1302.917982 0.6120 0.6040 0.5970 0.5890 0.5810
1306.563821 0.5740 0.5670 0.5590 0.5500 0.5410
1310.209660 0.5310 0.5200 0.5080 0.4980 0.4970
1313.855498 0.4980 0.5110 0.5210 0.5410 0.5619
1317.501337 0.5840 0.6060 0.6310 0.6580 0.6750
1321.147176 0.6850 0.6880 0.6910 0.6940 0.6960
1324.793015 0.6960 0.6960 0.6950 0.6920 0.6890
1328.438854 0.6870 0.6790 0.6690 0.6580 0.6480
1332.084692 0.6390 0.6320 0.6270 0.6260 0.6200
1335.730531 0.6130 0.6090 0.6060 0.6000 0.5940
1339.376370 0.5840 0.5640 0.5440 0.5280 0.5020
1343.022209 0.4990 0.4930 0.4451 0.3991 0.3761
1346.668047 0.3540 0.3330 0.3110 0.2890 0.2680
1350.313886 0.2680 0.2700 0.3039 0.3339 0.3619
1353.959725 0.3871 0.4100 0.4310 0.4480 0.4630
1357.605564 0.4750 0.4840 0.4840 0.4850 0.4830
1361.251403 0.4489 0.4089 0.3690 0.3280 0.3240
1364.897241 0.2960 0.2870 0.2780 0.2660 0.2580
1368.543080 0.2570 0.2580 0.2800 0.3070 0.3290
1372.188919 0.3490 0.3680 0.3870 0.4099 0.4369
1375.834758 0.4400 0.4400 0.4370 0.4340 0.4190
1379.480597 0.4120 0.4060 0.3960 0.3810 0.3601
1383.126435 0.3590 0.3600 0.3810 0.3970 0.4320
1386.772274 0.4560 0.4660 0.4860 0.5060 0.5249
1390.418113 0.5280 0.5450 0.5460 0.5460 0.5460
1394.063952 0.5220 0.4970 0.4721 0.4461 0.4221
1397.709791 0.4000 0.3810 0.3660 0.3550 0.3490
1401.355629 0.3490 0.3170 0.3080 0.3080 0.3100
1405.001468 0.3701 0.4231 0.4680 0.5060 0.5360
1408.647307 0.5600 0.5780 0.5890 0.6149 0.6290
1412.293146 0.6380 0.6410 0.6430 0.6450 0.6510
1415.938984 0.6520 0.6530 0.6530 0.6520 0.6500
1419.584823 0.6500 0.6490 0.6480 0.6470 0.6460
1423.230662 0.6440 0.6350 0.6270 0.6200 0.6130
1426.876501 0.5850 0.5630 0.5429 0.4820 0.4750
1430.522340 0.4530 0.4530 0.4750 0.4860 0.5249
1434.168178 0.5280 0.5380 0.5450 0.5520 0.5520
1437.814017 0.5490 0.5400 0.5300 0.5071 0.4881
1441.459856 0.4529 0.4270 0.4110 0.4020 0.3960
1445.105695 0.3890 0.3780 0.3760 0.3700 0.3660
1448.751534 0.3600 0.3570 0.3550 0.3540 0.3540
1452.397372 0.3520 0.3500 0.3490 0.3470 0.3430
1456.043211 0.3410 0.3380 0.3300 0.3210 0.3210
1459.689050 0.3440 0.3690 0.3770 0.3850 0.3920
1463.334889 0.4040 0.4130 0.4210 0.4260 0.4300
1466.980727 0.4330 0.4360 0.4370 0.4400 0.4420
1470.626566 0.4560 0.4660 0.4730 0.4780 0.4820
1474.272405 0.4850 0.4880 0.4900 0.4960 0.5010
1477.918244 0.5100 0.5221 0.5700 0.6060 0.6320
1481.564083 0.6490 0.6590 0.6640 0.6660 0.6680
1485.209921 0.6690 0.6730 0.6740 0.6750 0.6750
1488.855760 0.6750 0.6750 0.6740 0.6740 0.6730
1492.501599 0.6710 0.6680 0.6640 0.6580 0.6500
1496.147438 0.6420 0.6340 0.6250 0.6160 0.6080
1499.793277 0.6000 0.5930 0.5860 0.5810 0.5730
1503.439115 0.5640 0.5620 0.5610 0.5600 0.5570
1507.084954 0.5500 0.5380 0.5170 0.5170 0.5180
1510.730793 0.5330 0.5490 0.5660 0.5740 0.5870
1514.376632 0.6000 0.6190 0.6320 0.6400 0.6610
1518.022471 0.6630 0.6630 0.6640 0.6710 0.6740
1521.668309 0.6880 0.6990 0.7090 0.7150 0.7180
1525.314148 0.7330 0.7380 0.7410 0.7410 0.7410
1528.959987 0.7410 0.7420 0.7420 0.7420 0.7420
1532.605826 0.7410 0.7400 0.7390 0.7380 0.7380
1536.251664 0.7380 0.7370 0.7360 0.7360 0.7350
1539.897503 0.7340 0.7340 0.7350 0.7360 0.7370
1543.543342 0.7380 0.7380 0.7380 0.7380 0.7370
1547.189181 0.7360 0.7360 0.7360 0.7360 0.7330
1550.835020 0.7310 0.7290 0.7280 0.7280 0.7250
1554.480858 0.7210 0.7170 0.7140 0.7100 0.7060
1558.126697 0.7010 0.6960 0.6910 0.6850 0.6790
1561.772536 0.6720 0.6630 0.6530 0.6420 0.6320
1565.418375 0.6180 0.6040 0.5900 0.5760 0.5620
1569.064214 0.5610 0.5630 0.5730 0.5830 0.5880
1572.710052 0.5970 0.6050 0.6210 0.6300 0.6390
1576.355891 0.6460 0.6520 0.6610 0.6710 0.6720
1580.001730 0.6720 0.6700 0.6640 0.6450 0.6320
1583.647569 0.6210 0.6130 0.6050 0.5970 0.5880
1587.293408 0.5760 0.5600 0.5380 0.5050 0.4820
1590.939246 0.4610 0.4380 0.4160 0.3931 0.3701
1594.585085 0.3469 0.3249 0.3020 0.2800 0.2800
1598.230924 0.3120 0.3460 0.4979 0.5330 0.5580
1601.876763 0.5770 0.5900 0.5990 0.6050 0.6100
1605.522601 0.6140 0.6230 0.6240 0.6240 0.6230
1609.168440 0.6160 0.6140 0.6090 0.6070 0.6020
1612.814279 0.5970 0.5950 0.5940 0.5950 0.6000
1616.460118 0.6040 0.6080 0.6130 0.6190 0.6250
1620.105957 0.6310 0.6370 0.6430 0.6500 0.6560
1623.751795 0.6610 0.6650 0.6690 0.6720 0.6740
1627.397634 0.6750 0.6750 0.6760 0.6760 0.6760
1631.043473 0.6760 0.6740 0.6670 0.6660 0.6660
1634.689312 0.6670 0.6680 0.6710 0.6710 0.6720
1638.335151 0.6740 0.6750 0.6750 0.6750 0.6750
1641.980989 0.6740 0.6740 0.6720 0.6720 0.6720
1645.626828 0.6710 0.6700 0.6700 0.6700 0.6700
1649.272667 0.6700 0.6710 0.6720 0.6720 0.6720
1652.918506 0.6720 0.6720 0.6710 0.6700 0.6690
1656.564345 0.6690 0.6680 0.6660 0.6650 0.6620
1660.210183 0.6590 0.6570 0.6550 0.6530 0.6530
1663.856022 0.6510 0.6500 0.6480 0.6470 0.6460
1667.501861 0.6450 0.6450 0.6440 0.6440 0.6430
1671.147700 0.6420 0.6410 0.6400 0.6380 0.6360
1674.793538 0.6360 0.6340 0.6330 0.6310 0.6280
1678.439377 0.6250 0.6220 0.6180 0.6140 0.6100
1682.085216 0.6050 0.6000 0.5950 0.5900 0.5840
1685.731055 0.5780 0.5730 0.5670 0.5560 0.5550
1689.376894 0.5560 0.5570 0.5570 0.5600 0.5600
1693.022732 0.5610 0.5610 0.5600 0.5600 0.5570
1696.668571 0.5550 0.5520 0.5490 0.5460 0.5410
1700.314410 0.5360 0.5300 0.5230 0.5150 0.5060
1703.960249 0.4970 0.4860 0.4740 0.4610 0.4470
1707.606088 0.4270 0.4120 0.4020 0.3940 0.3890
1711.251926 0.3850 0.3810 0.3760 0.3700 0.3610
1714.897765 0.3490 0.3310 0.3080 0.2771 0.2401
1718.543604 0.1939 0.1369 0.0700 0.0590 0.0390
1722.189443 0.0380 0.0380 0.0390 0.0410 0.0420
1725.835282 0.0430 0.0460 0.0490 0.0520 0.0550
1729.481120 0.0580 0.0650 0.0840 0.0850 0.1100
1733.126959 0.1320 0.1500 0.1690 0.1890 0.2080
1736.772798 0.2270 0.2440 0.2750 0.3040 0.3279
1740.418637 0.3490 0.3690 0.3860 0.4000 0.4130
1744.064475 0.4240 0.4340 0.4420 0.4500 0.4580
1747.710314 0.4640 0.4720 0.4800 0.4870 0.4960
1751.356153 0.4960 0.4960 0.4950 0.4890 0.4780
1755.001992 0.4640 0.4480 0.4340 0.4210 0.4130
1758.647831 0.4100 0.3620 0.3240 0.2940 0.2691
1762.293669 0.2459 0.2230 0.1960 0.1620 0.1330
1765.939508 0.1240 0.1130 0.1020 0.0910 0.0800
1769.585347 0.0690 0.0580 0.0580 0.0660 0.0690
1773.231186 0.0980 0.1230 0.1490 0.1730 0.1970
1776.877025 0.2211 0.2450 0.2670 0.2900 0.3120
1780.522863 0.3330 0.3530 0.3730 0.3920 0.4100
1784.168702 0.4260 0.4430 0.4580 0.4720 0.4850
1787.814541 0.4980 0.5090 0.5180 0.5469 0.5699
1791.460380 0.5870 0.6000 0.6090 0.6150 0.6180
1795.106218 0.6190 0.6200 0.6220 0.6260 0.6330
1798.752057 0.6520 0.6640 0.6720 0.6770 0.6800
1802.397896 0.6830 0.6870 0.6880 0.6880 0.6900
1806.043735 0.6900 0.6920 0.6950 0.6960 0.6980
1809.689574 0.6980 0.6990 0.6990 0.6990 0.7000
1813.335412 0.7000 0.7010 0.7010 0.7010 0.7010
1816.981251 0.7020 0.7020 0.7020 0.7030 0.7030
1820.627090 0.7040 0.7070 0.7080 0.7090 0.7100
1824.272929 0.7110 0.7120 0.7120 0.7120 0.7120
1827.918768 0.7120 0.7180 0.7220 0.7250 0.7250
1831.564606 0.7270 0.7280 0.7290 0.7290 0.7300
1835.210445 0.7300 0.7310 0.7320 0.7320 0.7330
1838.856284 0.7330 0.7330 0.7330 0.7330 0.7330
1842.502123 0.7330 0.7330 0.7330 0.7340 0.7340
1846.147962 0.7340 0.7340 0.7340 0.7330 0.7330
1849.793800 0.7330 0.7330 0.7330 0.7330 0.7330
1853.439639 0.7320 0.7320 0.7320 0.7320 0.7310
1857.085478 0.7310 0.7300 0.7300 0.7310 0.7310
1860.731317 0.7310 0.7310 0.7320 0.7320 0.7320
1864.377155 0.7320 0.7330 0.7330 0.7330 0.7330
1868.022994 0.7330 0.7330 0.7330 0.7330 0.7330
1871.668833 0.7330 0.7340 0.7340 0.7340 0.7340
1875.314672 0.7340 0.7340 0.7340 0.7340 0.7340
1878.960511 0.7340 0.7340 0.7340 0.7330 0.7330
1882.606349 0.7330 0.7330 0.7330 0.7330 0.7320
1886.252188 0.7320 0.7320 0.7310 0.7310 0.7300
1889.898027 0.7300 0.7300 0.7300 0.7290 0.7290
1893.543866 0.7280 0.7280 0.7280 0.7280 0.7270
1897.189705 0.7270 0.7250 0.7230 0.7230 0.7220
1900.835543 0.7220 0.7220 0.7210 0.7210 0.7200
1904.481382 0.7200 0.7200 0.7200 0.7200 0.7200
1908.127221 0.7190 0.7190 0.7180 0.7180 0.7180
1911.773060 0.7180 0.7180 0.7180 0.7180 0.7170
1915.418899 0.7170 0.7170 0.7170 0.7170 0.7170
1919.064737 0.7180 0.7200 0.7210 0.7220 0.7230
1922.710576 0.7250 0.7260 0.7280 0.7290 0.7300
1926.356415 0.7310 0.7320 0.7330 0.7350 0.7360
1930.002254 0.7360 0.7360 0.7360 0.7370 0.7370
1933.648092 0.7370 0.7370 0.7380 0.7380 0.7380
1937.293931 0.7380 0.7380 0.7380 0.7380 0.7380
1940.939770 0.7380 0.7370 0.7370 0.7370 0.7370
1944.585609 0.7360 0.7360 0.7360 0.7360 0.7360
1948.231448 0.7360 0.7360 0.7360 0.7360 0.7360
1951.877286 0.7360 0.7360 0.7360 0.7360 0.7360
1955.523125 0.7360 0.7360 0.7360 0.7360 0.7360
1959.168964 0.7360 0.7360 0.7360 0.7350 0.7350
1962.814803 0.7350 0.7340 0.7340 0.7340 0.7340
1966.460642 0.7330 0.7330 0.7330 0.7330 0.7330
1970.106480 0.7330 0.7330 0.7330 0.7330 0.7330
1973.752319 0.7330 0.7330 0.7330 0.7330 0.7330
1977.398158 0.7330 0.7330 0.7330 0.7330 0.7330
1981.043997 0.7330 0.7330 0.7330 0.7330 0.7330
1984.689836 0.7330 0.7330 0.7330 0.7340 0.7340
1988.335674 0.7340 0.7340 0.7340 0.7340 0.7340
1991.981513 0.7340 0.7340 0.7330 0.7330 0.7330
1995.627352 0.7330 0.7330 0.7330 0.7330 0.7330
1999.273191 0.7330 0.7330 0.7327 0.7325 0.7322
2002.919029 0.7320 0.7320 0.7320 0.7320 0.7320
2006.564868 0.7320 0.7320 0.7320 0.7320 0.7320
2010.210707 0.7320 0.7320 0.7320 0.7317 0.7315
2013.856546 0.7312 0.7310 0.7310 0.7310 0.7310
2017.502385 0.7310 0.7310 0.7310 0.7310 0.7310
2021.148223 0.7310 0.7310 0.7310 0.7309 0.7307
2024.794062 0.7304 0.7302 0.7300 0.7300 0.7300
2028.439901 0.7300 0.7300 0.7300 0.7300 0.7300
2032.085740 0.7300 0.7300 0.7300 0.7300 0.7300
2035.731579 0.7300 0.7300 0.7300 0.7300 0.7300
2039.377417 0.7300 0.7300 0.7300 0.7300 0.7300
2043.023256 0.7300 0.7300 0.7300 0.7300 0.7300
2046.669095 0.7299 0.7296 0.7293 0.7291 0.7290
2050.314934 0.7290 0.7290 0.7290 0.7290 0.7290
2053.960773 0.7290 0.7290 0.7288 0.7286 0.7283
2057.606611 0.7281 0.7280 0.7280 0.7280 0.7280
2061.252450 0.7280 0.7280 0.7280 0.7280 0.7280
2064.898289 0.7280 0.7280 0.7280 0.7280 0.7280
2068.544128 0.7280 0.7280 0.7280 0.7280 0.7280
2072.189966 0.7280 0.7280 0.7280 0.7280 0.7280
2075.835805 0.7278 0.7275 0.7272 0.7270 0.7270
2079.481644 0.7270 0.7270 0.7270 0.7270 0.7270
2083.127483 0.7270 0.7270 0.7267 0.7265 0.7262
2086.773322 0.7260 0.7260 0.7260 0.7260 0.7259
2090.419160 0.7257 0.7254 0.7252 0.7250 0.7250
2094.064999 0.7250 0.7250 0.7250 0.7250 0.7250
2097.710838 0.7250 0.7250 0.7250 0.7250 0.7250
2101.356677 0.7250 0.7250 0.7250 0.7250 0.7250
2105.002516 0.7250 0.7250 0.7250 0.7249 0.7246
2108.648354 0.7244 0.7241 0.7240 0.7240 0.7240
2112.294193 0.7240 0.7240 0.7240 0.7240 0.7240
2115.940032 0.7239 0.7236 0.7234 0.7231 0.7228
2119.585871 0.7226 0.7223 0.7221 0.7220 0.7220
2123.231709 0.7220 0.7220 0.7220 0.7220 0.7220
2126.877548 0.7220 0.7218 0.7216 0.7213 0.7211
2130.523387 0.7210 0.7210 0.7210 0.7210 0.7208
2134.169226 0.7206 0.7203 0.7200 0.7200 0.7200
2137.815065 0.7200 0.7200 0.7200 0.7200 0.7200
2141.460903 0.7200 0.7198 0.7195 0.7193 0.7190
2145.106742 0.7190 0.7190 0.7190 0.7190 0.7187
2148.752581 0.7185 0.7182 0.7180 0.7177 0.7175
2152.398420 0.7172 0.7170 0.7167 0.7165 0.7162
2156.044259 0.7160 0.7157 0.7155 0.7152 0.7150
2159.690097 0.7147 0.7145 0.7142 0.7140 0.7137
2163.335936 0.7135 0.7132 0.7130 0.7127 0.7124
2166.981775 0.7122 0.7120 0.7120 0.7120 0.7120
2170.627614 0.7119 0.7117 0.7114 0.7112 0.7108
2174.273453 0.7103 0.7098 0.7093 0.7089 0.7087
2177.919291 0.7084 0.7081 0.7078 0.7073 0.7068
2181.565130 0.7063 0.7060 0.7060 0.7060 0.7060
2185.210969 0.7058 0.7052 0.7047 0.7042 0.7040
2188.856808 0.7040 0.7040 0.7040 0.7039 0.7036
2192.502646 0.7034 0.7031 0.7027 0.7022 0.7017
2196.148485 0.7012 0.7010 0.7010 0.7010 0.7010
2199.794324 0.7010 0.7010 0.7010 0.7010 0.7008
2203.440163 0.7006 0.7003 0.7001 0.7000 0.7000
2207.086002 0.7000 0.7000 0.6998 0.6995 0.6993
2210.731840 0.6990 0.6990 0.6990 0.6990 0.6990
2214.377679 0.6988 0.6985 0.6983 0.6980 0.6978
2218.023518 0.6975 0.6973 0.6970 0.6968 0.6965
2221.669357 0.6963 0.6960 0.6960 0.6960 0.6960
2225.315196 0.6960 0.6960 0.6960 0.6960 0.6960
2228.961034 0.6960 0.6960 0.6960 0.6960 0.6957
2232.606873 0.6955 0.6952 0.6950 0.6947 0.6945
2236.252712 0.6942 0.6939 0.6937 0.6934 0.6932
2239.898551 0.6930 0.6930 0.6930 0.6930 0.6930
2243.544390 0.6930 0.6930 0.6930 0.6929 0.6927
2247.190228 0.6924 0.6922 0.6919 0.6917 0.6914
2250.836067 0.6912 0.6909 0.6907 0.6904 0.6901
2254.481906 0.6900 0.6900 0.6900 0.6900 0.6900
2258.127745 0.6900 0.6900 0.6900 0.6899 0.6896
2261.773583 0.6894 0.6891 0.6889 0.6886 0.6884
2265.419422 0.6881 0.6878 0.6876 0.6873 0.6871
2269.065261 0.6868 0.6866 0.6863 0.6861 0.6858
2272.711100 0.6856 0.6853 0.6851 0.6850 0.6850
2276.356939 0.6850 0.6850 0.6848 0.6846 0.6843
2280.002777 0.6841 0.6838 0.6836 0.6833 0.6831
2283.648616 0.6828 0.6825 0.6823 0.6820 0.6820
2287.294455 0.6820 0.6820 0.6820 0.6818 0.6815
2290.940294 0.6813 0.6810 0.6808 0.6805 0.6803
2294.586133 0.6800 0.6797 0.6795 0.6792 0.6790
2298.231971 0.6787 0.6785 0.6782 0.6780 0.6777
2301.877810 0.6775 0.6772 0.6770 0.6770 0.6770
2305.523649 0.6770 0.6770 0.6767 0.6765 0.6762
2309.169488 0.6760 0.6757 0.6755 0.6752 0.6750
2312.815327 0.6747 0.6744 0.6742 0.6740 0.6740
2316.461165 0.6740 0.6740 0.6740 0.6740 0.6740
2320.107004 0.6740 0.6739 0.6737 0.6734 0.6732
2323.752843 0.6730 0.6730 0.6730 0.6730 0.6729
2327.398682 0.6726 0.6724 0.6721 0.6719 0.6716
2331.044520 0.6714 0.6711 0.6710 0.6710 0.6710
2334.690359 0.6710 0.6709 0.6706 0.6704 0.6701
2338.336198 0.6700 0.6700 0.6700 0.6700 0.6699
2341.982037 0.6696 0.6693 0.6691 0.6690 0.6690
2345.627876 0.6690 0.6690 0.6690 0.6690 0.6690
2349.273714 0.6690 0.6690 0.6690 0.6690 0.6690
2352.919553 0.6688 0.6686 0.6683 0.6680 0.6678
2356.565392 0.6675 0.6673 0.6670 0.6670 0.6670
2360.211231 0.6670 0.6670 0.6668 0.6665 0.6663
2363.857070 0.6660 0.6660 0.6660 0.6660 0.6660
2367.502908 0.6660 0.6660 0.6660 0.6660 0.6660
2371.148747 0.6660 0.6660 0.6660 0.6660 0.6660
2374.794586 0.6660 0.6660 0.6660 0.6660 0.6660
2378.440425 0.6660 0.6660 0.6660 0.6660 0.6660
2382.086263 0.6660 0.6660 0.6660 0.6660 0.6663
2385.732102 0.6666 0.6668 0.6670 0.6670 0.6670
2389.377941 0.6670 0.6671 0.6673 0.6676 0.6678
2393.023780 0.6680 0.6680 0.6680 0.6680 0.6680
2396.669619 0.6680 0.6680 0.6680 0.6680 0.6680
2400.315457 0.6680 0.6680 0.6680 0.6680 0.6680
2403.961296 0.6680 0.6680 0.6680 0.6680 0.6680
2407.607135 0.6680 0.6680 0.6680 0.6680 0.6680
2411.252974 0.6680 0.6680 0.6680 0.6680 0.6680
2414.898813 0.6680 0.6680 0.6680 0.6680 0.6680
2418.544651 0.6680 0.6680 0.6680 0.6680 0.6680
2422.190490 0.6680 0.6680 0.6680 0.6680 0.6680
2425.836329 0.6680 0.6680 0.6680 0.6680 0.6680
2429.482168 0.6680 0.6680 0.6680 0.6680 0.6680
2433.128007 0.6680 0.6678 0.6675 0.6673 0.6670
2436.773845 0.6670 0.6670 0.6670 0.6670 0.6668
2440.419684 0.6665 0.6663 0.6660 0.6660 0.6660
2444.065523 0.6660 0.6660 0.6660 0.6660 0.6660
2447.711362 0.6660 0.6660 0.6660 0.6660 0.6660
2451.357200 0.6657 0.6655 0.6652 0.6650 0.6650
2455.003039 0.6650 0.6650 0.6650 0.6647 0.6645
2458.648878 0.6642 0.6640 0.6640 0.6640 0.6640
2462.294717 0.6640 0.6640 0.6640 0.6640 0.6640
2465.940556 0.6640 0.6640 0.6640 0.6639 0.6637
2469.586394 0.6634 0.6632 0.6629 0.6627 0.6624
2473.232233 0.6621 0.6619 0.6616 0.6614 0.6611
2476.878072 0.6610 0.6610 0.6610 0.6610 0.6609
2480.523911 0.6606 0.6604 0.6601 0.6599 0.6596
2484.169750 0.6594 0.6591 0.6590 0.6590 0.6590
2487.815588 0.6590 0.6589 0.6586 0.6583 0.6581
2491.461427 0.6580 0.6580 0.6580 0.6580 0.6580
2495.107266 0.6580 0.6580 0.6580 0.6580 0.6580
2498.753105 0.6580 0.6580 0.6578 0.6576 0.6573
2502.398944 0.6571 0.6570 0.6570 0.6570 0.6570
2506.044782 0.6568 0.6565 0.6563 0.6560 0.6560
2509.690621 0.6560 0.6560 0.6560 0.6560 0.6560
2513.336460 0.6560 0.6560 0.6560 0.6560 0.6560
2516.982299 0.6560 0.6555 0.6550 0.6545 0.6540
2520.628137 0.6537 0.6535 0.6532 0.6530 0.6530
2524.273976 0.6530 0.6530 0.6530 0.6527 0.6525
2527.919815 0.6522 0.6520 0.6517 0.6515 0.6512
2531.565654 0.6510 0.6507 0.6504 0.6502 0.6500
2535.211493 0.6500 0.6500 0.6500 0.6500 0.6500
2538.857331 0.6500 0.6500 0.6500 0.6500 0.6500
2542.503170 0.6500 0.6500 0.6500 0.6500 0.6500
2546.149009 0.6500 0.6500 0.6500 0.6500 0.6500
2549.794848 0.6500 0.6500 0.6500 0.6499 0.6496
2553.440687 0.6494 0.6491 0.6490 0.6490 0.6490
2557.086525 0.6490 0.6489 0.6486 0.6484 0.6481
2560.732364 0.6479 0.6476 0.6473 0.6471 0.6468
2564.378203 0.6466 0.6463 0.6461 0.6458 0.6456
2568.024042 0.6453 0.6451 0.6450 0.6450 0.6450
2571.669881 0.6450 0.6448 0.6446 0.6443 0.6441
2575.315719 0.6436 0.6431 0.6426 0.6421 0.6418
2578.961558 0.6415 0.6413 0.6410 0.6408 0.6405
2582.607397 0.6403 0.6400 0.6393 0.6386 0.6378
2586.253236 0.6370 0.6363 0.6355 0.6348 0.6340
2589.899074 0.6340 0.6340 0.6340 0.6340 0.6335
2593.544913 0.6330 0.6325 0.6320 0.6312 0.6305
2597.190752 0.6297 0.6289 0.6282 0.6274 0.6267
2600.836591 0.6259 0.6254 0.6249 0.6244 0.6239
2604.482430 0.6234 0.6229 0.6224 0.6219 0.6217
2608.128268 0.6214 0.6212 0.6209 0.6207 0.6204
2611.774107 0.6202 0.6200 0.6200 0.6200 0.6200
2615.419946 0.6200 0.6200 0.6200 0.6200 0.6200
2619.065785 0.6200 0.6200 0.6200 0.6200 0.6200
2622.711624 0.6200 0.6200 0.6200 0.6200 0.6200
2626.357462 0.6200 0.6199 0.6196 0.6194 0.6191
2630.003301 0.6190 0.6190 0.6190 0.6190 0.6189
2633.649140 0.6186 0.6184 0.6181 0.6180 0.6180
2637.294979 0.6180 0.6180 0.6178 0.6176 0.6173
2640.940818 0.6171 0.6165 0.6157 0.6150 0.6142
2644.586656 0.6134 0.6127 0.6119 0.6112 0.6108
2648.232495 0.6106 0.6103 0.6101 0.6100 0.6100
2651.878334 0.6100 0.6100 0.6100 0.6100 0.6100
2655.524173 0.6100 0.6098 0.6095 0.6093 0.6090
2659.170011 0.6090 0.6090 0.6090 0.6090 0.6088
2662.815850 0.6085 0.6083 0.6080 0.6080 0.6080
2666.461689 0.6080 0.6080 0.6077 0.6075 0.6072
2670.107528 0.6070 0.6067 0.6065 0.6062 0.6060
2673.753367 0.6057 0.6055 0.6052 0.6050 0.6050
2677.399205 0.6050 0.6050 0.6049 0.6044 0.6039
2681.045044 0.6034 0.6029 0.6027 0.6024 0.6022
2684.690883 0.6020 0.6020 0.6020 0.6020 0.6020
2688.336722 0.6020 0.6020 0.6020 0.6019 0.6017
2691.982561 0.6014 0.6012 0.6010 0.6010 0.6010
2695.628399 0.6010 0.6009 0.6006 0.6004 0.6001
2699.274238 0.5999 0.5996 0.5994 0.5991 0.5987
2702.920077 0.5982 0.5977 0.5972 0.5966 0.5958
2706.565916 0.5951 0.5943 0.5939 0.5936 0.5934
2710.211754 0.5931 0.5918 0.5897 0.5877 0.5857
2713.857593 0.5847 0.5842 0.5837 0.5832 0.5823
2717.503432 0.5813 0.5803 0.5793 0.5785 0.5777
2721.149271 0.5769 0.5762 0.5760 0.5760 0.5760
2724.795110 0.5760 0.5760 0.5760 0.5760 0.5760
2728.440948 0.5760 0.5760 0.5760 0.5760 0.5762
2732.086787 0.5765 0.5767 0.5770 0.5772 0.5775
2735.732626 0.5777 0.5780 0.5782 0.5785 0.5787
2739.378465 0.5790 0.5793 0.5795 0.5798 0.5800
2743.024304 0.5800 0.5800 0.5800 0.5800 0.5795
2746.670142 0.5790 0.5785 0.5780 0.5780 0.5780
2750.315981 0.5780 0.5780 0.5777 0.5774 0.5772
2753.961820 0.5769 0.5767 0.5764 0.5762 0.5759
2757.607659 0.5757 0.5754 0.5752 0.5749 0.5743
2761.253498 0.5738 0.5733 0.5728 0.5723 0.5718
2764.899336 0.5713 0.5708 0.5703 0.5698 0.5693
2768.545175 0.5688 0.5683 0.5678 0.5673 0.5667
2772.191014 0.5659 0.5652 0.5644 0.5636 0.5629
2775.836853 0.5621 0.5614 0.5607 0.5602 0.5597
2779.482691 0.5592 0.5584 0.5574 0.5564 0.5554
2783.128530 0.5545 0.5538 0.5530 0.5523 0.5515
2786.774369 0.5507 0.5500 0.5492 0.5481 0.5469
2790.420208 0.5456 0.5444 0.5429 0.5414 0.5399
2794.066047 0.5384 0.5370 0.5358 0.5345 0.5333
2797.711885 0.5320 0.5307 0.5295 0.5282 0.5270
2801.357724 0.5257 0.5244 0.5232 0.5217 0.5202
2805.003563 0.5187 0.5172 0.5154 0.5136 0.5118
2808.649402 0.5100 0.5078 0.5055 0.5032 0.5010
2812.295241 0.4987 0.4964 0.4942 0.4919 0.4888
2815.941079 0.4858 0.4828 0.4797 0.4759 0.4721
2819.586918 0.4684 0.4645 0.4602 0.4559 0.4517
2823.232757 0.4473 0.4422 0.4372 0.4321 0.4259
2826.878596 0.4140 0.4022 0.3903 0.3784 0.3663
2830.524435 0.3542 0.3421 0.3321 0.3286 0.3251
2834.170273 0.3215 0.3177 0.3131 0.3085 0.3039
2837.816112 0.2970 0.2861 0.2753 0.2644 0.2550
2841.461951 0.2477 0.2404 0.2331 0.2288 0.2283
2845.107790 0.2278 0.2273 0.2297 0.2355 0.2413
2848.753628 0.2471 0.2500 0.2500 0.2500 0.2500
2852.399467 0.2427 0.2290 0.2154 0.2018 0.1922
2856.045306 0.1857 0.1791 0.1726 0.1700 0.1700
2859.691145 0.1700 0.1700 0.1727 0.1770 0.1813
2863.336984 0.1856 0.1899 0.1943 0.1986 0.2030
2866.982822 0.2073 0.2116 0.2158 0.2201 0.2284
2870.628661 0.2378 0.2471 0.2564 0.2580 0.2580
2874.274500 0.2580 0.2580 0.2582 0.2585 0.2587
2877.920339 0.2590 0.2590 0.2590 0.2590 0.2590
2881.566178 0.2583 0.2575 0.2568 0.2560 0.2541
2885.212016 0.2520 0.2500 0.2480 0.2455 0.2430
2888.857855 0.2404 0.2379 0.2338 0.2298 0.2258
2892.503694 0.2219 0.2206 0.2194 0.2181 0.2167
2896.149533 0.2147 0.2127 0.2106 0.2084 0.2054
2899.795372 0.2024 0.1994 0.1963 0.1930 0.1897
2903.441210 0.1864 0.1833 0.1805 0.1777 0.1750
2907.087049 0.1721 0.1688 0.1655 0.1622 0.1598
2910.732888 0.1590 0.1582 0.1575 0.1551 0.1498
2914.378727 0.1445 0.1392 0.1360 0.1360 0.1360
2918.024565 0.1360 0.1408 0.1521 0.1635 0.1748
2921.670404 0.1812 0.1817 0.1823 0.1828 0.1827
2925.316243 0.1822 0.1817 0.1812 0.1770 0.1702
2928.962082 0.1634 0.1566 0.1525 0.1499 0.1474
2932.607921 0.1449 0.1422 0.1394 0.1367 0.1339
2936.253759 0.1315 0.1292 0.1269 0.1246 0.1222
2939.899598 0.1197 0.1172 0.1146 0.1121 0.1096
2943.545437 0.1071 0.1046 0.1022 0.1000 0.0977
2947.191276 0.0954 0.0950 0.0950 0.0950 0.0950
2950.837115 0.1046 0.1158 0.1271 0.1383 0.1494
2954.482953 0.1605 0.1716 0.1827 0.1837 0.1845
2958.128792 0.1852 0.1860 0.1918 0.1976 0.2034
2961.774631 0.2093 0.2179 0.2265 0.2351 0.2437
2965.420470 0.2536 0.2634 0.2732 0.2829 0.2918
2969.066309 0.3006 0.3094 0.3182 0.3268 0.3353
2972.712147 0.3439 0.3523 0.3599 0.3674 0.3750
2976.357986 0.3825 0.3895 0.3966 0.4036 0.4105
2980.003825 0.4169 0.4233 0.4297 0.4358 0.4414
2983.649664 0.4469 0.4525 0.4579 0.4632 0.4685
2987.295502 0.4738 0.4787 0.4830 0.4873 0.4916
2990.941341 0.4957 0.4998 0.5038 0.5078 0.5114
2994.587180 0.5144 0.5175 0.5205 0.5234 0.5262
2998.233019 0.5289 0.5317 0.5341 0.5361 0.5381
3001.878858 0.5401 0.5419 0.5434 0.5449 0.5464
3005.524696 0.5476 0.5486 0.5496 0.5506 0.5518
3009.170535 0.5531 0.5544 0.5556 0.5560 0.5560
3012.816374 0.5560 0.5560 0.5558 0.5556 0.5553
3016.462213 0.5551 0.5546 0.5541 0.5536 0.5531
3020.108052 0.5509 0.5484 0.5459 0.5434 0.5402
3023.753890 0.5369 0.5336 0.5304 0.5271 0.5238
3027.399729 0.5205 0.5172 0.5170 0.5170 0.5170
3031.045568 0.5170 0.5182 0.5195 0.5207 0.5220
3034.691407 0.5255 0.5290 0.5326 0.5361 0.5389
3038.337245 0.5417 0.5445 0.5471 0.5484 0.5497
3041.983084 0.5509 0.5521 0.5529 0.5536 0.5544
3045.628923 0.5550 0.5553 0.5555 0.5558 0.5559
3049.274762 0.5557 0.5554 0.5552 0.5549 0.5547
3052.920601 0.5544 0.5542 0.5539 0.5534 0.5528
3056.566439 0.5523 0.5514 0.5493 0.5473 0.5453
3060.212278 0.5434 0.5416 0.5399 0.5381 0.5363
3063.858117 0.5346 0.5328 0.5310 0.5293 0.5275
3067.503956 0.5257 0.5239 0.5222 0.5207 0.5192
3071.149795 0.5177 0.5170 0.5170 0.5170 0.5170
3074.795633 0.5192 0.5230 0.5267 0.5305 0.5341
3078.441472 0.5377 0.5412 0.5447 0.5462 0.5464
3082.087311 0.5467 0.5469 0.5475 0.5483 0.5490
3085.733150 0.5498 0.5505 0.5513 0.5520 0.5528
3089.378989 0.5532 0.5534 0.5537 0.5539 0.5546
3093.024827 0.5553 0.5561 0.5569 0.5576 0.5584
3096.670666 0.5592 0.5599 0.5605 0.5610 0.5615
3100.316505 0.5620 0.5625 0.5630 0.5635 0.5640
3103.962344 0.5642 0.5645 0.5647 0.5650 0.5650
3107.608182 0.5650 0.5650 0.5650 0.5650 0.5650
3111.254021 0.5650 0.5650 0.5653 0.5655 0.5658
3114.899860 0.5660 0.5660 0.5660 0.5660 0.5660
3118.545699 0.5657 0.5655 0.5652 0.5650 0.5650
3122.191538 0.5650 0.5650 0.5650 0.5650 0.5650
3125.837376 0.5650 0.5650 0.5650 0.5650 0.5650
3129.483215 0.5650 0.5650 0.5650 0.5650 0.5649
3133.129054 0.5647 0.5644 0.5642 0.5640 0.5640
3136.774893 0.5640 0.5640 0.5640 0.5640 0.5640
3140.420732 0.5640 0.5639 0.5636 0.5634 0.5631
3144.066570 0.5630 0.5630 0.5630 0.5630 0.5630
3147.712409 0.5630 0.5630 0.5630 0.5630 0.5630
3151.358248 0.5630 0.5630 0.5630 0.5630 0.5630
3155.004087 0.5630 0.5628 0.5626 0.5623 0.5621
3158.649926 0.5620 0.5620 0.5620 0.5620 0.5620
3162.295764 0.5620 0.5620 0.5620 0.5620 0.5620
3165.941603 0.5620 0.5620 0.5620 0.5620 0.5620
3169.587442 0.5620 0.5620 0.5620 0.5620 0.5620
3173.233281 0.5620 0.5620 0.5620 0.5620 0.5620
3176.879119 0.5620 0.5620 0.5620 0.5620 0.5620
3180.524958 0.5620 0.5620 0.5620 0.5620 0.5620
3184.170797 0.5620 0.5623 0.5625 0.5628 0.5630
3187.816636 0.5633 0.5635 0.5638 0.5640 0.5640
3191.462475 0.5640 0.5640 0.5640 0.5640 0.5640
3195.108313 0.5640 0.5640 0.5640 0.5640 0.5640
3198.754152 0.5640 0.5640 0.5640 0.5640 0.5641
3202.399991 0.5643 0.5646 0.5648 0.5650 0.5650
3206.045830 0.5650 0.5650 0.5650 0.5650 0.5650
3209.691669 0.5650 0.5650 0.5650 0.5650 0.5650
3213.337507 0.5650 0.5650 0.5650 0.5650 0.5650
3216.983346 0.5650 0.5650 0.5650 0.5650 0.5650
3220.629185 0.5650 0.5650 0.5650 0.5650 0.5650
3224.275024 0.5650 0.5650 0.5650 0.5650 0.5650
3227.920863 0.5652 0.5654 0.5657 0.5659 0.5660
3231.566701 0.5660 0.5660 0.5660 0.5660 0.5660
3235.212540 0.5660 0.5660 0.5660 0.5660 0.5660
3238.858379 0.5660 0.5660 0.5660 0.5660 0.5660
3242.504218 0.5660 0.5660 0.5660 0.5660 0.5660
3246.150056 0.5660 0.5660 0.5660 0.5660 0.5660
3249.795895 0.5660 0.5660 0.5660 0.5660 0.5660
3253.441734 0.5660 0.5660 0.5660 0.5660 0.5660
3257.087573 0.5660 0.5660 0.5660 0.5660 0.5660
3260.733412 0.5660 0.5660 0.5660 0.5660 0.5660
3264.379250 0.5660 0.5660 0.5660 0.5660 0.5660
3268.025089 0.5660 0.5660 0.5660 0.5660 0.5660
3271.670928 0.5660 0.5660 0.5660 0.5660 0.5660
3275.316767 0.5660 0.5660 0.5659 0.5657 0.5654
3278.962606 0.5652 0.5650 0.5650 0.5650 0.5650
3282.608444 0.5650 0.5650 0.5650 0.5650 0.5650
3286.254283 0.5650 0.5650 0.5650 0.5650 0.5650
3289.900122 0.5650 0.5650 0.5650 0.5650 0.5650
3293.545961 0.5650 0.5650 0.5650 0.5650 0.5650
3297.191800 0.5649 0.5646 0.5643 0.5641 0.5640
3300.837638 0.5640 0.5640 0.5640 0.5640 0.5640
3304.483477 0.5640 0.5640 0.5638 0.5636 0.5633
3308.129316 0.5631 0.5630 0.5630 0.5630 0.5630
3311.775155 0.5630 0.5630 0.5630 0.5630 0.5630
3315.420993 0.5630 0.5630 0.5630 0.5628 0.5625
3319.066832 0.5623 0.5620 0.5620 0.5620 0.5620
3322.712671 0.5620 0.5615 0.5610 0.5605 0.5600
3326.358510 0.5600 0.5600 0.5600 0.5600 0.5597
3330.004349 0.5595 0.5592 0.5590 0.5590 0.5590
3333.650187 0.5590 0.5590 0.5587 0.5585 0.5582
3337.296026 0.5580 0.5580 0.5580 0.5580 0.5580
3340.941865 0.5580 0.5580 0.5580 0.5579 0.5577
3344.587704 0.5574 0.5572 0.5570 0.5570 0.5570
3348.233543 0.5570 0.5570 0.5570 0.5570 0.5570
3351.879381 0.5570 0.5570 0.5570 0.5570 0.5570
3355.525220 0.5570 0.5570 0.5570 0.5569 0.5566
3359.171059 0.5564 0.5561 0.5560 0.5560 0.5560
3362.816898 0.5560 0.5559 0.5556 0.5554 0.5551
3366.462736 0.5550 0.5550 0.5550 0.5550 0.5549
3370.108575 0.5546 0.5544 0.5541 0.5540 0.5540
3373.754414 0.5540 0.5540 0.5540 0.5540 0.5540
3377.400253 0.5540 0.5538 0.5536 0.5533 0.5531
3381.046092 0.5528 0.5526 0.5523 0.5521 0.5520
3384.691930 0.5520 0.5520 0.5520 0.5520 0.5520
3388.337769 0.5520 0.5520 0.5518 0.5515 0.5513
3391.983608 0.5510 0.5510 0.5510 0.5510 0.5510
3395.629447 0.5508 0.5505 0.5503 0.5500 0.5498
3399.275286 0.5495 0.5493 0.5490 0.5490 0.5490
3402.921124 0.5490 0.5490 0.5490 0.5490 0.5490
3406.566963 0.5490 0.5487 0.5485 0.5482 0.5480
3410.212802 0.5477 0.5475 0.5472 0.5470 0.5470
3413.858641 0.5470 0.5470 0.5469 0.5467 0.5464
3417.504480 0.5462 0.5459 0.5454 0.5449 0.5444
3421.150318 0.5437 0.5427 0.5417 0.5407 0.5397
3424.796157 0.5387 0.5377 0.5367 0.5358 0.5353
3428.441996 0.5348 0.5343 0.5335 0.5323 0.5310
3432.087835 0.5297 0.5285 0.5272 0.5260 0.5247
3435.733673 0.5233 0.5218 0.5203 0.5188 0.5179
3439.379512 0.5176 0.5174 0.5171 0.5173 0.5178
3443.025351 0.5183 0.5188 0.5201 0.5218 0.5236
3446.671190 0.5254 0.5268 0.5281 0.5293 0.5306
3450.317029 0.5315 0.5323 0.5330 0.5338 0.5344
3453.962867 0.5349 0.5354 0.5359 0.5362 0.5364
3457.608706 0.5367 0.5369 0.5374 0.5379 0.5384
3461.254545 0.5389 0.5392 0.5395 0.5397 0.5400
3464.900384 0.5402 0.5405 0.5407 0.5410 0.5414
3468.546223 0.5419 0.5424 0.5430 0.5435 0.5440
3472.192061 0.5445 0.5450 0.5455 0.5460 0.5465
3475.837900 0.5470 0.5470 0.5470 0.5470 0.5470
3479.483739 0.5475 0.5480 0.5485 0.5490 0.5490
3483.129578 0.5490 0.5490 0.5490 0.5490 0.5490
3486.775417 0.5490 0.5490 0.5493 0.5495 0.5498
3490.421255 0.5500 0.5500 0.5500 0.5500 0.5499
3494.067094 0.5497 0.5494 0.5492 0.5490 0.5490
3497.712933 0.5490 0.5490 0.5490 0.5490 0.5490
3501.358772 0.5490 0.5488 0.5483 0.5478 0.5473
3505.004610 0.5469 0.5466 0.5464 0.5461 0.5459
3508.650449 0.5456 0.5454 0.5451 0.5445 0.5435
3512.296288 0.5425 0.5415 0.5407 0.5402 0.5397
3515.942127 0.5392 0.5389 0.5386 0.5384 0.5381
3519.587966 0.5379 0.5376 0.5373 0.5371 0.5370
3523.233804 0.5370 0.5370 0.5370 0.5372 0.5374
3526.879643 0.5377 0.5379 0.5380 0.5380 0.5380
3530.525482 0.5380 0.5384 0.5389 0.5394 0.5399
3534.171321 0.5402 0.5405 0.5407 0.5410 0.5414
3537.817160 0.5419 0.5424 0.5429 0.5432 0.5435
3541.462998 0.5437 0.5440 0.5445 0.5450 0.5455
3545.108837 0.5460 0.5460 0.5460 0.5460 0.5460
3548.754676 0.5460 0.5460 0.5460 0.5460 0.5463
3552.400515 0.5465 0.5468 0.5470 0.5473 0.5475
3556.046354 0.5478 0.5480 0.5483 0.5485 0.5488
3559.692192 0.5490 0.5490 0.5490 0.5490 0.5491
3563.338031 0.5493 0.5496 0.5498 0.5501 0.5503
3566.983870 0.5506 0.5508 0.5511 0.5513 0.5516
3570.629709 0.5518 0.5520 0.5520 0.5520 0.5520
3574.275547 0.5520 0.5520 0.5520 0.5520 0.5521
3577.921386 0.5523 0.5526 0.5529 0.5531 0.5534
3581.567225 0.5536 0.5539 0.5540 0.5540 0.5540
3585.213064 0.5540 0.5540 0.5540 0.5540 0.5540
3588.858903 0.5540 0.5540 0.5540 0.5540 0.5540
3592.504741 0.5540 0.5540 0.5540 0.5540 0.5540
3596.150580 0.5540 0.5540 0.5540 0.5540 0.5540
3599.796419 0.5540 0.5540 0.5540 0.5540 0.5540
3603.442258 0.5540 0.5540 0.5540 0.5540 0.5540
3607.088097 0.5540 0.5540 0.5540 0.5540 0.5540
3610.733935 0.5540 0.5540 0.5540 0.5540 0.5540
3614.379774 0.5540 0.5540 0.5540 0.5540 0.5540
3618.025613 0.5540 0.5540 0.5540 0.5540 0.5540
3621.671452 0.5540 0.5540 0.5540 0.5537 0.5535
3625.317290 0.5532 0.5530 0.5530 0.5530 0.5530
3628.963129 0.5530 0.5530 0.5530 0.5530 0.5530
3632.608968 0.5530 0.5530 0.5530 0.5530 0.5530
3636.254807 0.5530 0.5530 0.5530 0.5530 0.5530
3639.900646 0.5530 0.5530 0.5530 0.5530 0.5530
3643.546484 0.5530 0.5530 0.5530 0.5530 0.5531
3647.192323 0.5533 0.5536 0.5538 0.5540 0.5540
3650.838162 0.5540 0.5540 0.5540 0.5540 0.5540
3654.484001 0.5540 0.5540 0.5540 0.5540 0.5540
3658.129840 0.5540 0.5540 0.5540 0.5540 0.5540
3661.775678 0.5540 0.5540 0.5540 0.5540 0.5540
3665.421517 0.5540 0.5540 0.5540 0.5540 0.5540
3669.067356 0.5540 0.5540 0.5540 0.5540 0.5540
3672.713195 0.5540 0.5540 0.5540 0.5540 0.5540
3676.359034 0.5540 0.5540 0.5540 0.5538 0.5536
3680.004872 0.5533 0.5530 0.5530 0.5530 0.5530
3683.650711 0.5530 0.5530 0.5530 0.5530 0.5530
3687.296550 0.5530 0.5530 0.5530 0.5530 0.5528
3690.942389 0.5525 0.5523 0.5520 0.5520 0.5520
3694.588227 0.5520 0.5520 0.5520 0.5520 0.5520
3698.234066 0.5520 0.5520 0.5520 0.5520 0.5520
3701.879905 0.5520 0.5520 0.5520 0.5520 0.5520
3705.525744 0.5520 0.5520 0.5520 0.5520 0.5520
3709.171583 0.5520 0.5520 0.5520 0.5520 0.5520
3712.817421 0.5520 0.5520 0.5520 0.5520 0.5520
3716.463260 0.5520 0.5520 0.5520 0.5520 0.5520
3720.109099 0.5520 0.5520 0.5520 0.5520 0.5520
3723.754938 0.5520 0.5520 0.5520 0.5520 0.5520
3727.400777 0.5519 0.5516 0.5514 0.5511 0.5510
3731.046615 0.5510 0.5510 0.5510 0.5510 0.5510
3734.692454 0.5510 0.5510 0.5510 0.5510 0.5510
3738.338293 0.5510 0.5510 0.5510 0.5510 0.5510
3741.984132 0.5510 0.5510 0.5510 0.5510 0.5510
3745.629971 0.5510 0.5510 0.5510 0.5510 0.5510
3749.275809 0.5510 0.5510 0.5510 0.5510 0.5510
3752.921648 0.5510 0.5510 0.5510 0.5510 0.5510
3756.567487 0.5508 0.5505 0.5503 0.5500 0.5500
3760.213326 0.5500 0.5500 0.5500 0.5498 0.5495
3763.859164 0.5493 0.5490 0.5490 0.5490 0.5490
3767.505003 0.5490 0.5488 0.5485 0.5482 0.5480
3771.150842 0.5477 0.5475 0.5472 0.5470 0.5467
3774.796681 0.5465 0.5462 0.5460 0.5460 0.5460
3778.442520 0.5460 0.5460 0.5460 0.5460 0.5460
3782.088358 0.5460 0.5457 0.5455 0.5452 0.5450
3785.734197 0.5447 0.5444 0.5442 0.5440 0.5440
3789.380036 0.5440 0.5440 0.5438 0.5433 0.5428
3793.025875 0.5423 0.5419 0.5417 0.5414 0.5412
3796.671714 0.5410 0.5410 0.5410 0.5410 0.5409
3800.317552 0.5406 0.5404 0.5401 0.5399 0.5396
3803.963391 0.5394 0.5391 0.5389 0.5386 0.5384
3807.609230 0.5381 0.5379 0.5376 0.5374 0.5371
3811.255069 0.5370 0.5370 0.5370 0.5370 0.5370
3814.900908 0.5370 0.5370 0.5370 0.5368 0.5366
3818.546746 0.5363 0.5361 0.5360 0.5360 0.5360
3822.192585 0.5360 0.5360 0.5360 0.5360 0.5360
3825.838424 0.5360 0.5360 0.5360 0.5360 0.5360
3829.484263 0.5360 0.5360 0.5360 0.5358 0.5355
3833.130101 0.5353 0.5350 0.5350 0.5350 0.5350
3836.775940 0.5350 0.5350 0.5350 0.5350 0.5350
3840.421779 0.5350 0.5350 0.5350 0.5350 0.5350
3844.067618 0.5350 0.5350 0.5350 0.5350 0.5350
3847.713457 0.5350 0.5350 0.5350 0.5350 0.5350
3851.359295 0.5350 0.5350 0.5350 0.5350 0.5350
3855.005134 0.5350 0.5350 0.5350 0.5350 0.5350
3858.650973 0.5350 0.5350 0.5350 0.5350 0.5350
3862.296812 0.5350 0.5350 0.5350 0.5350 0.5350
3865.942651 0.5350 0.5350 0.5350 0.5350 0.5350
3869.588489 0.5350 0.5350 0.5350 0.5349 0.5347
3873.234328 0.5344 0.5342 0.5341 0.5344 0.5346
3876.880167 0.5349 0.5350 0.5350 0.5350 0.5350
3880.526006 0.5350 0.5350 0.5350 0.5350 0.5350
3884.171845 0.5350 0.5350 0.5350 0.5350 0.5350
3887.817683 0.5350 0.5350 0.5350 0.5350 0.5350
3891.463522 0.5350 0.5350 0.5350 0.5350 0.5350
3895.109361 0.5350 0.5350 0.5350 0.5350 0.5350
3898.755200 0.5350 0.5350 0.5350 0.5350 0.5350
3902.401038 0.5350 0.5350 0.5350 0.5350 0.5350
3906.046877 0.5350 0.5350 0.5350 0.5350 0.5350
3909.692716 0.5348 0.5345 0.5343 0.5340 0.5340
3913.338555 0.5340 0.5340 0.5340 0.5340 0.5340
3916.984394 0.5340 0.5340 0.5340 0.5340 0.5340
3920.630232 0.5340 0.5340 0.5340 0.5340 0.5340
3924.276071 0.5337 0.5335 0.5332 0.5330 0.5330
3927.921910 0.5330 0.5330 0.5330 0.5330 0.5330
3931.567749 0.5330 0.5330 0.5330 0.5330 0.5330
3935.213588 0.5330 0.5330 0.5330 0.5330 0.5330
3938.859426 0.5330 0.5330 0.5330 0.5330 0.5330
3942.505265 0.5330 0.5330 0.5330 0.5330 0.5330
3946.151104 0.5330 0.5330 0.5330 0.5330 0.5330
3949.796943 0.5329 0.5326 0.5324 0.5321 0.5319
3953.442781 0.5316 0.5314 0.5311 0.5309 0.5306
3957.088620 0.5304 0.5301 0.5300 0.5300 0.5300
3960.734459 0.5300 0.5300 0.5300 0.5300 0.5300
3964.380298 0.5300 0.5300 0.5300 0.5300 0.5298
3968.026137 0.5296 0.5293 0.5291 0.5290 0.5290
3971.671975 0.5290 0.5290 0.5288 0.5286 0.5283
3975.317814 0.5281 0.5280 0.5280 0.5280 0.5280
3978.963653 0.5280 0.5280 0.5280 0.5280 0.5280
3982.609492 0.5280 0.5280 0.5280 0.5280 0.5280
3986.255331 0.5280 0.5280 0.5280 0.5280 0.5280
3989.901169 0.5280 0.5280 0.5280 0.5280 0.5280
3993.547008 0.5280 0.5280 0.5280 0.5280 0.5280
3997.192847 0.5280 0.5280 0.5280 0.5280 0.5280
4000.838686 0.5280
##END=
