##TITLE=9H-Purine-6(1H)-thione, 1-[3-(p-tolylthio)propyl]-
##JCAMP-DX=4.24
##DATA TYPE=INFRARED SPECTRUM
##CLASS=COBLENTZ III
##ORIGIN=SOUTHERN RESEARCH INSTITUTE
##OWNER=Copyright (C) 1987 by the Coblentz Society
Collection (C) 2018 copyright by the U.S. Secretary of Commerce
on behalf of the United States of America. All rights reserved.
##DATE=1961/11/02
##NAMES=1-(3-[(4-methylphenyl)sulfanyl]propyl)-1,9-dihydro-6H-purine-6-thione
##MOLFORM=C15 H16 N4 S2
##SOURCE REFERENCE=COBLENTZ NO. 8677
##$NIST ID=B6008677
##$NIST SOURCE=COBLENTZ
##$NIST IMAGE=cob8677
##SPECTROMETER/DATA SYSTEM=PERKIN-ELMER 221 (GRATING)
##INSTRUMENT PARAMETERS=FILTER AT 2490, 980 CM^-^1. GRATING 4000-1428 CM^-^1, NaCl PRISM 1428-650 CM^-^1
##STATE=SOLID (1 mg / 650 mg KBr DISC)
##SAMPLING PROCEDURE=TRANSMISSION
##RESOLUTION=2
##DATA PROCESSING=DIGITIZED BY COBLENTZ SOCIETY (BATCH II) FROM HARD COPY
##XUNITS=1/CM
##YUNITS=TRANSMITTANCE
##XFACTOR=1.0
##YFACTOR=1
##FIRSTX=632
##LASTX=4000
##FIRSTY=0.9459
##MAXX=4000
##MINX=632
##MAXY=0.9812
##MINY=0.0812
##NPOINTS=3369
##XYDATA=(X++(Y..Y))
632.000000 0.9459 0.9458 0.9455 0.9453 0.9451
637.000000 0.9449 0.9447 0.9443 0.9431 0.9420
642.000000 0.9408 0.9378 0.9349 0.9289 0.9116
647.000000 0.8899 0.8682 0.8465 0.8248 0.8031
652.000000 0.7832 0.7835 0.7847 0.8298 0.8595
657.000000 0.8892 0.9188 0.9485 0.9639 0.9670
662.000000 0.9685 0.9687 0.9685 0.9681 0.9672
667.000000 0.9659 0.9641 0.9624 0.9605 0.9585
672.000000 0.9564 0.9512 0.9437 0.9345 0.9092
677.000000 0.8847 0.8722 0.8664 0.8640 0.8662
682.000000 0.8632 0.8644 0.8659 0.8675 0.8692
687.000000 0.8747 0.9029 0.9312 0.9594 0.9807
692.000000 0.9810 0.9812 0.9811 0.9809 0.9805
697.000000 0.9801 0.9789 0.9776 0.9763 0.9750
702.000000 0.9724 0.9684 0.9643 0.9549 0.9491
707.000000 0.9465 0.9474 0.9478 0.9488 0.9561
712.000000 0.9675 0.9760 0.9781 0.9783 0.9784
717.000000 0.9785 0.9783 0.9780 0.9794 0.9767
722.000000 0.9750 0.9730 0.9706 0.9682 0.9658
727.000000 0.9626 0.9592 0.9559 0.9526 0.9497
732.000000 0.9467 0.9438 0.9409 0.9380 0.9355
737.000000 0.9341 0.9333 0.9325 0.9317 0.9308
742.000000 0.9300 0.9259 0.9205 0.9085 0.8961
747.000000 0.8838 0.8715 0.8592 0.8469 0.8345
752.000000 0.8222 0.7983 0.7998 0.7999 0.7999
757.000000 0.8141 0.8423 0.8705 0.8987 0.9269
762.000000 0.9392 0.9414 0.9425 0.9429 0.9428
767.000000 0.9434 0.9421 0.9415 0.9402 0.9383
772.000000 0.9364 0.9342 0.9311 0.9280 0.9249
777.000000 0.9212 0.9174 0.9137 0.8920 0.8599
782.000000 0.8277 0.8059 0.8063 0.8065 0.8421
787.000000 0.8777 0.9010 0.9003 0.9001 0.8985
792.000000 0.8821 0.8656 0.8543 0.8448 0.8329
797.000000 0.8170 0.7886 0.7603 0.7320 0.7211
802.000000 0.7201 0.7249 0.7323 0.7397 0.7471
807.000000 0.7545 0.7579 0.7374 0.6785 0.6197
812.000000 0.5609 0.5021 0.4433 0.4378 0.4356
817.000000 0.4535 0.5476 0.6417 0.7358 0.8299
822.000000 0.8981 0.9031 0.9037 0.9038 0.9038
827.000000 0.9039 0.9039 0.9031 0.9005 0.8970
832.000000 0.8918 0.8860 0.8801 0.8743 0.8685
837.000000 0.8626 0.8568 0.8509 0.8451 0.8392
842.000000 0.8334 0.8284 0.8323 0.8372 0.8422
847.000000 0.8472 0.8521 0.8534 0.8529 0.8526
852.000000 0.8521 0.8513 0.8505 0.8496 0.8480
857.000000 0.8463 0.8445 0.8427 0.8401 0.8372
862.000000 0.8342 0.8311 0.8278 0.8229 0.8180
867.000000 0.8117 0.8039 0.7925 0.7773 0.7682
872.000000 0.7594 0.7518 0.7484 0.7468 0.7465
877.000000 0.7465 0.7467 0.7474 0.7483 0.7502
882.000000 0.7540 0.7624 0.7925 0.8206 0.8418
887.000000 0.8554 0.8649 0.8707 0.8744 0.8750
892.000000 0.8747 0.8779 0.8729 0.8705 0.8624
897.000000 0.8443 0.8261 0.8080 0.7898 0.7717
902.000000 0.7535 0.7354 0.7172 0.6990 0.6954
907.000000 0.6958 0.6940 0.6967 0.7000 0.7050
912.000000 0.7345 0.7490 0.7658 0.7832 0.7938
917.000000 0.7968 0.7985 0.8002 0.8019 0.8036
922.000000 0.8061 0.8137 0.8400 0.8625 0.8847
927.000000 0.8948 0.9012 0.9020 0.9029 0.9028
932.000000 0.9027 0.9025 0.9024 0.9023 0.9069
937.000000 0.9013 0.9008 0.9003 0.8995 0.8987
942.000000 0.8979 0.8972 0.8964 0.8956 0.8948
947.000000 0.8940 0.8931 0.8920 0.8908 0.8897
952.000000 0.8885 0.8874 0.8856 0.8828 0.8799
957.000000 0.8770 0.8730 0.8653 0.8579 0.8511
962.000000 0.8440 0.8333 0.8227 0.8121 0.8014
967.000000 0.7908 0.7847 0.7847 0.7848 0.7959
972.000000 0.8108 0.8181 0.8179 0.8032 0.7782
977.000000 0.7533 0.7344 0.6749 0.6513 0.6354
982.000000 0.6177 0.5970 0.5460 0.4649 0.4647
987.000000 0.4880 0.5685 0.6491 0.7296 0.8102
992.000000 0.8500 0.8616 0.8708 0.8795 0.8840
997.000000 0.8883 0.8927 0.8957 0.8972 0.8979
1002.000000 0.8966 0.8982 0.8976 0.8970 0.8964
1007.000000 0.8958 0.8947 0.8934 0.8917 0.8894
1012.000000 0.8853 0.8807 0.8762 0.8716 0.8670
1017.000000 0.8619 0.8546 0.8469 0.8386 0.8241
1022.000000 0.7799 0.7328 0.7328 0.7373 0.7471
1027.000000 0.7570 0.7599 0.7592 0.7389 0.7119
1032.000000 0.6945 0.6874 0.6799 0.6710 0.6638
1037.000000 0.6571 0.6493 0.6403 0.6168 0.5921
1042.000000 0.5673 0.5426 0.5179 0.4931 0.4684
1047.000000 0.4437 0.4189 0.4117 0.4075 0.4083
1052.000000 0.4636 0.5234 0.5832 0.6431 0.7029
1057.000000 0.7627 0.8237 0.8500 0.8670 0.8782
1062.000000 0.8816 0.8843 0.8861 0.8868 0.8875
1067.000000 0.8881 0.8886 0.8885 0.8884 0.8883
1072.000000 0.8880 0.8876 0.8872 0.8864 0.8856
1077.000000 0.8841 0.8824 0.8801 0.8776 0.8751
1082.000000 0.8724 0.8689 0.8654 0.8618 0.8582
1087.000000 0.8543 0.8504 0.8465 0.8426 0.8387
1092.000000 0.8330 0.8271 0.8212 0.8160 0.8109
1097.000000 0.8059 0.8008 0.7971 0.7936 0.7901
1102.000000 0.7866 0.7831 0.7805 0.7781 0.7757
1107.000000 0.7728 0.7698 0.7623 0.7496 0.7309
1112.000000 0.7043 0.6777 0.6511 0.6245 0.5980
1117.000000 0.5712 0.5350 0.5294 0.5259 0.5151
1122.000000 0.4992 0.4832 0.4673 0.4660 0.4834
1127.000000 0.5413 0.5993 0.6572 0.7152 0.7660
1132.000000 0.7735 0.7778 0.7807 0.7833 0.7848
1137.000000 0.7858 0.7861 0.7858 0.7722 0.7640
1142.000000 0.7559 0.7491 0.7434 0.7407 0.7392
1147.000000 0.7389 0.7378 0.7422 0.7507 0.7582
1152.000000 0.7624 0.7636 0.7644 0.7646 0.7643
1157.000000 0.7632 0.7549 0.7115 0.6681 0.6247
1162.000000 0.5813 0.5379 0.4945 0.4511 0.4077
1167.000000 0.3825 0.3776 0.3764 0.3761 0.3791
1172.000000 0.3769 0.3785 0.3983 0.4323 0.4663
1177.000000 0.5003 0.5343 0.5683 0.6023 0.6363
1182.000000 0.6703 0.7042 0.7382 0.7722 0.8351
1187.000000 0.8463 0.8564 0.8668 0.8763 0.8814
1192.000000 0.8864 0.8884 0.8896 0.8900 0.8910
1197.000000 0.8895 0.8892 0.8885 0.8877 0.8868
1202.000000 0.8857 0.8828 0.8792 0.8742 0.8661
1207.000000 0.8476 0.8319 0.8202 0.8132 0.8085
1212.000000 0.8062 0.8053 0.8045 0.7865 0.7675
1217.000000 0.7485 0.7294 0.7104 0.7095 0.7091
1222.000000 0.7091 0.7108 0.7202 0.7297 0.7391
1227.000000 0.7486 0.7516 0.7518 0.7491 0.7319
1232.000000 0.7147 0.6975 0.6802 0.6630 0.6458
1237.000000 0.6277 0.6283 0.6290 0.6430 0.6815
1242.000000 0.7201 0.7586 0.7971 0.8217 0.8223
1247.000000 0.8229 0.8231 0.8241 0.8216 0.8204
1252.000000 0.8180 0.8141 0.7995 0.7828 0.7660
1257.000000 0.7493 0.7326 0.7159 0.7045 0.7034
1262.000000 0.7028 0.7063 0.7118 0.7173 0.7207
1267.000000 0.7206 0.7204 0.6949 0.6534 0.6119
1272.000000 0.5704 0.5289 0.4989 0.4957 0.4977
1277.000000 0.4957 0.4963 0.5189 0.5541 0.5894
1282.000000 0.6247 0.6600 0.6952 0.7305 0.7658
1287.000000 0.8010 0.8363 0.8462 0.8465 0.8464
1292.000000 0.8463 0.8451 0.8449 0.8441 0.8431
1297.000000 0.8401 0.8338 0.8274 0.8269 0.8265
1302.000000 0.8260 0.8032 0.8234 0.8304 0.8151
1307.000000 0.8101 0.8048 0.7961 0.7910 0.7884
1312.000000 0.7862 0.7864 0.7858 0.7909 0.7995
1317.000000 0.8080 0.8166 0.8252 0.8296 0.8293
1322.000000 0.8289 0.8283 0.8253 0.8122 0.7991
1327.000000 0.7860 0.7729 0.7598 0.7467 0.7380
1332.000000 0.7345 0.7338 0.7339 0.7346 0.7362
1337.000000 0.7392 0.7431 0.7458 0.7474 0.7476
1342.000000 0.7478 0.7474 0.7467 0.7331 0.7078
1347.000000 0.6825 0.6573 0.6320 0.6067 0.5815
1352.000000 0.4922 0.5309 0.5057 0.4988 0.4992
1357.000000 0.5008 0.5252 0.5497 0.5741 0.5985
1362.000000 0.6229 0.6473 0.6717 0.6961 0.7166
1367.000000 0.7229 0.7251 0.7251 0.7229 0.7219
1372.000000 0.7211 0.7202 0.7193 0.7181 0.7141
1377.000000 0.7103 0.7065 0.6998 0.6878 0.6637
1382.000000 0.6331 0.6025 0.5718 0.5412 0.5105
1387.000000 0.4799 0.4493 0.4186 0.3725 0.3724
1392.000000 0.3726 0.3732 0.4047 0.4423 0.4800
1397.000000 0.5176 0.5553 0.5929 0.6305 0.6682
1402.000000 0.6975 0.6969 0.6962 0.6973 0.6945
1407.000000 0.6926 0.6889 0.6855 0.6823 0.6791
1412.000000 0.6745 0.6699 0.6653 0.6556 0.6378
1417.000000 0.6300 0.6253 0.6205 0.6083 0.5938
1422.000000 0.5906 0.5885 0.5865 0.5853 0.5845
1427.000000 0.5837 0.5829 0.5823 0.5817 0.5810
1432.000000 0.5804 0.5789 0.5773 0.5680 0.5459
1437.000000 0.5230 0.5001 0.4773 0.4544 0.4315
1442.000000 0.4087 0.3858 0.3629 0.3400 0.3243
1447.000000 0.3212 0.3245 0.3214 0.3222 0.3288
1452.000000 0.3641 0.3995 0.4349 0.4702 0.5056
1457.000000 0.5234 0.5284 0.5327 0.5364 0.5401
1462.000000 0.5447 0.5510 0.5572 0.6038 0.6272
1467.000000 0.6421 0.6579 0.6962 0.7007 0.7015
1472.000000 0.7020 0.7024 0.7013 0.7008 0.6987
1477.000000 0.6916 0.6828 0.6691 0.6577 0.6370
1482.000000 0.6122 0.5874 0.5626 0.5378 0.5130
1487.000000 0.4882 0.4634 0.4424 0.4427 0.4393
1492.000000 0.4916 0.5079 0.5013 0.5083 0.4445
1497.000000 0.4161 0.3877 0.3593 0.3309 0.3024
1502.000000 0.2832 0.2795 0.2783 0.2811 0.2792
1507.000000 0.2822 0.2861 0.2911 0.2969 0.3028
1512.000000 0.3308 0.3907 0.4506 0.5105 0.5704
1517.000000 0.6111 0.6204 0.6272 0.6339 0.6468
1522.000000 0.6604 0.6739 0.6874 0.7009 0.7144
1527.000000 0.7280 0.7415 0.7550 0.7728 0.7988
1532.000000 0.8056 0.8122 0.8176 0.8209 0.8241
1537.000000 0.8259 0.8275 0.8284 0.8281 0.8285
1542.000000 0.8282 0.8272 0.8262 0.8251 0.8239
1547.000000 0.8223 0.8207 0.8182 0.8139 0.8103
1552.000000 0.8065 0.8026 0.7984 0.7917 0.7856
1557.000000 0.7808 0.7761 0.7728 0.7714 0.7705
1562.000000 0.7697 0.7689 0.7685 0.7681 0.7672
1567.000000 0.7647 0.7604 0.7547 0.7462 0.7408
1572.000000 0.7357 0.7285 0.7157 0.7041 0.6899
1577.000000 0.6757 0.6645 0.6534 0.6413 0.6252
1582.000000 0.6072 0.5852 0.5675 0.5512 0.5308
1587.000000 0.5115 0.4943 0.4592 0.4241 0.3891
1592.000000 0.3540 0.3189 0.2839 0.2488 0.2137
1597.000000 0.1787 0.1297 0.1154 0.0992 0.0920
1602.000000 0.0852 0.0818 0.0815 0.0812 0.0828
1607.000000 0.0842 0.0904 0.0984 0.1186 0.1568
1612.000000 0.1950 0.2332 0.2715 0.3097 0.3479
1617.000000 0.3861 0.4243 0.4625 0.5007 0.5389
1622.000000 0.5771 0.6153 0.6536 0.6918 0.7300
1627.000000 0.7682 0.8064 0.8305 0.8346 0.8373
1632.000000 0.8384 0.8388 0.8388 0.8388 0.8386
1637.000000 0.8383 0.8381 0.8378 0.8377 0.8377
1642.000000 0.8376 0.8376 0.8375 0.8378 0.8381
1647.000000 0.8383 0.8386 0.8390 0.8401 0.8411
1652.000000 0.8422 0.8432 0.8442 0.8451 0.8461
1657.000000 0.8471 0.8480 0.8488 0.8496 0.8504
1662.000000 0.8512 0.8514 0.8515 0.8529 0.8517
1667.000000 0.8518 0.8519 0.8520 0.8521 0.8522
1672.000000 0.8523 0.8524 0.8522 0.8520 0.8518
1677.000000 0.8516 0.8514 0.8512 0.8510 0.8508
1682.000000 0.8506 0.8504 0.8502 0.8500 0.8498
1687.000000 0.8495 0.8489 0.8483 0.8478 0.8472
1692.000000 0.8467 0.8461 0.8455 0.8450 0.8444
1697.000000 0.8438 0.8433 0.8427 0.8421 0.8414
1702.000000 0.8407 0.8401 0.8394 0.8388 0.8381
1707.000000 0.8374 0.8368 0.8361 0.8355 0.8348
1712.000000 0.8341 0.8335 0.8328 0.8320 0.8312
1717.000000 0.8304 0.8296 0.8288 0.8280 0.8272
1722.000000 0.8264 0.8256 0.8248 0.8239 0.8231
1727.000000 0.8223 0.8217 0.8210 0.8204 0.8197
1732.000000 0.8190 0.8184 0.8177 0.8171 0.8164
1737.000000 0.8158 0.8151 0.8145 0.8138 0.8133
1742.000000 0.8128 0.8124 0.8120 0.8116 0.8111
1747.000000 0.8107 0.8103 0.8099 0.8095 0.8090
1752.000000 0.8086 0.8082 0.8078 0.8073 0.8069
1757.000000 0.8069 0.8070 0.8070 0.8070 0.8070
1762.000000 0.8070 0.8071 0.8071 0.8071 0.8071
1767.000000 0.8072 0.8075 0.8080 0.8084 0.8088
1772.000000 0.8092 0.8096 0.8101 0.8105 0.8109
1777.000000 0.8113 0.8117 0.8122 0.8126 0.8130
1782.000000 0.8134 0.8136 0.8135 0.8134 0.8132
1787.000000 0.8131 0.8130 0.8129 0.8127 0.8131
1792.000000 0.8137 0.8143 0.8149 0.8154 0.8163
1797.000000 0.8173 0.8182 0.8192 0.8189 0.8181
1802.000000 0.8173 0.8165 0.8150 0.8125 0.8101
1807.000000 0.8075 0.8045 0.8014 0.7984 0.7956
1812.000000 0.7960 0.7964 0.7968 0.7972 0.7978
1817.000000 0.7985 0.7992 0.8009 0.8028 0.8047
1822.000000 0.8070 0.8092 0.8119 0.8151 0.8182
1827.000000 0.8222 0.8266 0.8312 0.8351 0.8352
1832.000000 0.8352 0.8352 0.8353 0.8355 0.8357
1837.000000 0.8359 0.8361 0.8363 0.8366 0.8369
1842.000000 0.8372 0.8374 0.8377 0.8379 0.8380
1847.000000 0.8381 0.8382 0.8383 0.8384 0.8386
1852.000000 0.8387 0.8387 0.8387 0.8387 0.8387
1857.000000 0.8387 0.8387 0.8387 0.8387 0.8387
1862.000000 0.8387 0.8387 0.8387 0.8387 0.8386
1867.000000 0.8385 0.8384 0.8383 0.8382 0.8381
1872.000000 0.8380 0.8379 0.8379 0.8378 0.8377
1877.000000 0.8376 0.8375 0.8372 0.8368 0.8365
1882.000000 0.8361 0.8358 0.8354 0.8351 0.8347
1887.000000 0.8344 0.8338 0.8331 0.8324 0.8317
1892.000000 0.8310 0.8303 0.8296 0.8290 0.8288
1897.000000 0.8285 0.8283 0.8280 0.8278 0.8284
1902.000000 0.8304 0.8324 0.8342 0.8360 0.8378
1907.000000 0.8396 0.8409 0.8423 0.8437 0.8449
1912.000000 0.8459 0.8459 0.8457 0.8455 0.8454
1917.000000 0.8453 0.8452 0.8451 0.8450 0.8449
1922.000000 0.8448 0.8447 0.8445 0.8444 0.8443
1927.000000 0.8442 0.8441 0.8440 0.8439 0.8438
1932.000000 0.8437 0.8436 0.8435 0.8434 0.8433
1937.000000 0.8431 0.8430 0.8429 0.8428 0.8427
1942.000000 0.8426 0.8425 0.8424 0.8423 0.8422
1947.000000 0.8421 0.8420 0.8419 0.8420 0.8421
1952.000000 0.8422 0.8423 0.8423 0.8423 0.8422
1957.000000 0.8422 0.8422 0.8422 0.8422 0.8421
1962.000000 0.8421 0.8421 0.8420 0.8420 0.8420
1967.000000 0.8419 0.8419 0.8418 0.8416 0.8415
1972.000000 0.8414 0.8412 0.8411 0.8410 0.8407
1977.000000 0.8405 0.8403 0.8400 0.8398 0.8396
1982.000000 0.8393 0.8391 0.8389 0.8387 0.8384
1987.000000 0.8382 0.8380 0.8377 0.8375 0.8373
1992.000000 0.8370 0.8368 0.8366 0.8363 0.8360
1997.000000 0.8358 0.8355 0.8353 0.8350 0.8347
2002.000000 0.8345 0.8342 0.8339 0.8337 0.8334
2007.000000 0.8332 0.8329 0.8326 0.8323 0.8320
2012.000000 0.8318 0.8315 0.8312 0.8309 0.8306
2017.000000 0.8304 0.8301 0.8298 0.8295 0.8293
2022.000000 0.8290 0.8287 0.8284 0.8281 0.8279
2027.000000 0.8276 0.8273 0.8270 0.8268 0.8265
2032.000000 0.8262 0.8259 0.8257 0.8254 0.8251
2037.000000 0.8248 0.8246 0.8243 0.8240 0.8237
2042.000000 0.8235 0.8232 0.8229 0.8226 0.8224
2047.000000 0.8221 0.8218 0.8216 0.8213 0.8210
2052.000000 0.8207 0.8205 0.8202 0.8199 0.8196
2057.000000 0.8193 0.8191 0.8188 0.8185 0.8182
2062.000000 0.8179 0.8177 0.8174 0.8171 0.8168
2067.000000 0.8165 0.8163 0.8160 0.8157 0.8154
2072.000000 0.8151 0.8149 0.8146 0.8143 0.8140
2077.000000 0.8137 0.8134 0.8132 0.8129 0.8126
2082.000000 0.8123 0.8120 0.8118 0.8115 0.8112
2087.000000 0.8109 0.8106 0.8102 0.8098 0.8094
2092.000000 0.8090 0.8087 0.8083 0.8079 0.8075
2097.000000 0.8071 0.8067 0.8063 0.8059 0.8055
2102.000000 0.8052 0.8048 0.8044 0.8040 0.8036
2107.000000 0.8032 0.8028 0.8024 0.8020 0.8017
2112.000000 0.8013 0.8009 0.8004 0.8000 0.7996
2117.000000 0.7992 0.7988 0.7983 0.7979 0.7975
2122.000000 0.7971 0.7966 0.7962 0.7958 0.7954
2127.000000 0.7949 0.7945 0.7941 0.7937 0.7932
2132.000000 0.7928 0.7924 0.7920 0.7916 0.7911
2137.000000 0.7907 0.7903 0.7899 0.7894 0.7890
2142.000000 0.7886 0.7882 0.7878 0.7873 0.7869
2147.000000 0.7865 0.7861 0.7857 0.7852 0.7848
2152.000000 0.7844 0.7840 0.7835 0.7831 0.7827
2157.000000 0.7823 0.7819 0.7814 0.7810 0.7806
2162.000000 0.7801 0.7797 0.7792 0.7788 0.7783
2167.000000 0.7779 0.7774 0.7770 0.7766 0.7761
2172.000000 0.7757 0.7752 0.7748 0.7743 0.7739
2177.000000 0.7734 0.7730 0.7726 0.7722 0.7718
2182.000000 0.7714 0.7710 0.7706 0.7703 0.7699
2187.000000 0.7695 0.7691 0.7688 0.7684 0.7680
2192.000000 0.7676 0.7673 0.7669 0.7665 0.7661
2197.000000 0.7658 0.7654 0.7650 0.7646 0.7643
2202.000000 0.7639 0.7635 0.7631 0.7627 0.7624
2207.000000 0.7620 0.7615 0.7609 0.7604 0.7598
2212.000000 0.7593 0.7587 0.7582 0.7577 0.7571
2217.000000 0.7566 0.7560 0.7555 0.7549 0.7544
2222.000000 0.7538 0.7533 0.7527 0.7522 0.7517
2227.000000 0.7511 0.7506 0.7500 0.7495 0.7489
2232.000000 0.7484 0.7478 0.7473 0.7468 0.7463
2237.000000 0.7458 0.7453 0.7448 0.7443 0.7438
2242.000000 0.7433 0.7428 0.7423 0.7418 0.7413
2247.000000 0.7408 0.7403 0.7398 0.7393 0.7388
2252.000000 0.7383 0.7378 0.7373 0.7368 0.7363
2257.000000 0.7358 0.7353 0.7348 0.7343 0.7338
2262.000000 0.7333 0.7328 0.7323 0.7318 0.7313
2267.000000 0.7309 0.7304 0.7299 0.7295 0.7290
2272.000000 0.7285 0.7280 0.7276 0.7271 0.7266
2277.000000 0.7262 0.7257 0.7252 0.7247 0.7243
2282.000000 0.7238 0.7233 0.7229 0.7224 0.7219
2287.000000 0.7214 0.7210 0.7205 0.7200 0.7195
2292.000000 0.7189 0.7183 0.7177 0.7171 0.7164
2297.000000 0.7158 0.7152 0.7146 0.7139 0.7133
2302.000000 0.7127 0.7121 0.7114 0.7108 0.7102
2307.000000 0.7096 0.7090 0.7083 0.7077 0.7071
2312.000000 0.7065 0.7058 0.7050 0.7041 0.7031
2317.000000 0.7021 0.7011 0.7002 0.6992 0.6982
2322.000000 0.6972 0.6962 0.6953 0.6943 0.6933
2327.000000 0.6923 0.6914 0.6904 0.6894 0.6884
2332.000000 0.6876 0.6868 0.6860 0.6853 0.6845
2337.000000 0.6837 0.6829 0.6821 0.6813 0.6806
2342.000000 0.6798 0.6793 0.6788 0.6783 0.6778
2347.000000 0.6773 0.6768 0.6763 0.6758 0.6753
2352.000000 0.6749 0.6744 0.6739 0.6734 0.6729
2357.000000 0.6724 0.6719 0.6714 0.6709 0.6704
2362.000000 0.6699 0.6693 0.6688 0.6683 0.6678
2367.000000 0.6672 0.6667 0.6662 0.6657 0.6651
2372.000000 0.6646 0.6641 0.6636 0.6630 0.6624
2377.000000 0.6617 0.6611 0.6605 0.6598 0.6592
2382.000000 0.6585 0.6579 0.6573 0.6566 0.6560
2387.000000 0.6554 0.6547 0.6541 0.6534 0.6527
2392.000000 0.6519 0.6512 0.6505 0.6497 0.6490
2397.000000 0.6482 0.6475 0.6468 0.6460 0.6453
2402.000000 0.6445 0.6438 0.6431 0.6423 0.6416
2407.000000 0.6408 0.6401 0.6394 0.6386 0.6379
2412.000000 0.6371 0.6364 0.6357 0.6349 0.6342
2417.000000 0.6334 0.6326 0.6318 0.6311 0.6303
2422.000000 0.6295 0.6288 0.6280 0.6272 0.6264
2427.000000 0.6257 0.6249 0.6241 0.6233 0.6226
2432.000000 0.6218 0.6211 0.6205 0.6198 0.6191
2437.000000 0.6185 0.6178 0.6171 0.6165 0.6158
2442.000000 0.6151 0.6145 0.6139 0.6134 0.6129
2447.000000 0.6124 0.6119 0.6114 0.6110 0.6105
2452.000000 0.6100 0.6095 0.6090 0.6085 0.6080
2457.000000 0.6077 0.6075 0.6072 0.6070 0.6067
2462.000000 0.6065 0.6062 0.6060 0.6058 0.6055
2467.000000 0.6055 0.6055 0.6055 0.6055 0.6056
2472.000000 0.6056 0.6056 0.6056 0.6056 0.6057
2477.000000 0.6057 0.6053 0.6034 0.6015 0.5976
2482.000000 0.5937 0.5899 0.5861 0.5801 0.5764
2487.000000 0.5753 0.5745 0.5736 0.5728 0.5719
2492.000000 0.5711 0.5703 0.5697 0.5690 0.5684
2497.000000 0.5678 0.5671 0.5666 0.5661 0.5656
2502.000000 0.5651 0.5647 0.5642 0.5637 0.5630
2507.000000 0.5621 0.5611 0.5601 0.5592 0.5582
2512.000000 0.5573 0.5563 0.5547 0.5532 0.5516
2517.000000 0.5500 0.5485 0.5470 0.5455 0.5440
2522.000000 0.5425 0.5410 0.5395 0.5380 0.5365
2527.000000 0.5350 0.5331 0.5308 0.5284 0.5260
2532.000000 0.5236 0.5210 0.5183 0.5157 0.5134
2537.000000 0.5110 0.5095 0.5084 0.5075 0.5072
2542.000000 0.5068 0.5064 0.5061 0.5057 0.5053
2547.000000 0.5051 0.5049 0.5047 0.5045 0.5044
2552.000000 0.5042 0.5040 0.5039 0.5038 0.5036
2557.000000 0.5035 0.5034 0.5032 0.5031 0.5029
2562.000000 0.5028 0.5026 0.5025 0.5024 0.5022
2567.000000 0.5021 0.5019 0.5018 0.5016 0.5015
2572.000000 0.5013 0.5012 0.5011 0.5010 0.5009
2577.000000 0.5008 0.5007 0.5006 0.5005 0.5004
2582.000000 0.5003 0.5002 0.5001 0.5000 0.5003
2587.000000 0.4996 0.4994 0.4992 0.4990 0.4989
2592.000000 0.4987 0.4985 0.4983 0.4981 0.4979
2597.000000 0.4977 0.4975 0.4974 0.4972 0.4970
2602.000000 0.4968 0.4966 0.4963 0.4960 0.4957
2607.000000 0.4954 0.4951 0.4948 0.4945 0.4942
2612.000000 0.4939 0.4936 0.4932 0.4929 0.4926
2617.000000 0.4923 0.4919 0.4916 0.4912 0.4909
2622.000000 0.4905 0.4902 0.4899 0.4895 0.4895
2627.000000 0.4896 0.4896 0.4897 0.4898 0.4899
2632.000000 0.4900 0.4903 0.4906 0.4909 0.4914
2637.000000 0.4919 0.4924 0.4928 0.4933 0.4938
2642.000000 0.4943 0.4948 0.4953 0.4959 0.4964
2647.000000 0.4969 0.4975 0.4980 0.4985 0.4991
2652.000000 0.4996 0.5001 0.5007 0.5010 0.5012
2657.000000 0.5015 0.5017 0.5020 0.5021 0.5020
2662.000000 0.5019 0.5018 0.5017 0.5017 0.5016
2667.000000 0.5015 0.5014 0.5013 0.5012 0.5009
2672.000000 0.5006 0.5002 0.4999 0.4996 0.4992
2677.000000 0.4989 0.4985 0.4982 0.4977 0.4970
2682.000000 0.4964 0.4957 0.4950 0.4943 0.4936
2687.000000 0.4929 0.4922 0.4910 0.4898 0.4886
2692.000000 0.4873 0.4861 0.4849 0.4836 0.4824
2697.000000 0.4812 0.4798 0.4783 0.4767 0.4752
2702.000000 0.4736 0.4720 0.4705 0.4689 0.4674
2707.000000 0.4661 0.4650 0.4638 0.4627 0.4616
2712.000000 0.4604 0.4593 0.4582 0.4570 0.4559
2717.000000 0.4548 0.4540 0.4532 0.4523 0.4515
2722.000000 0.4507 0.4499 0.4490 0.4482 0.4474
2727.000000 0.4466 0.4457 0.4451 0.4444 0.4438
2732.000000 0.4431 0.4425 0.4418 0.4412 0.4405
2737.000000 0.4399 0.4393 0.4387 0.4380 0.4374
2742.000000 0.4368 0.4362 0.4356 0.4350 0.4343
2747.000000 0.4337 0.4331 0.4324 0.4315 0.4306
2752.000000 0.4297 0.4288 0.4279 0.4270 0.4261
2757.000000 0.4251 0.4235 0.4219 0.4203 0.4187
2762.000000 0.4171 0.4155 0.4136 0.4115 0.4095
2767.000000 0.4074 0.4056 0.4043 0.4029 0.4016
2772.000000 0.4003 0.3990 0.3977 0.3976 0.3976
2777.000000 0.3975 0.3975 0.3975 0.3974 0.3974
2782.000000 0.3973 0.3986 0.3973 0.3972 0.3972
2787.000000 0.3976 0.3979 0.3982 0.3985 0.3989
2792.000000 0.3992 0.3995 0.4001 0.4008 0.4015
2797.000000 0.4022 0.4030 0.4037 0.4044 0.4055
2802.000000 0.4073 0.4090 0.4107 0.4124 0.4147
2807.000000 0.4173 0.4198 0.4224 0.4250 0.4275
2812.000000 0.4300 0.4326 0.4351 0.4376 0.4402
2817.000000 0.4427 0.4453 0.4478 0.4508 0.4539
2822.000000 0.4569 0.4599 0.4630 0.4660 0.4691
2827.000000 0.4728 0.4767 0.4805 0.4838 0.4863
2832.000000 0.4887 0.4901 0.4914 0.4926 0.4938
2837.000000 0.4947 0.4950 0.4953 0.4957 0.4960
2842.000000 0.4963 0.4966 0.4970 0.4972 0.4975
2847.000000 0.4978 0.4980 0.4983 0.4985 0.4988
2852.000000 0.4991 0.4993 0.4996 0.4998 0.5023
2857.000000 0.5001 0.5001 0.5002 0.5003 0.5003
2862.000000 0.5004 0.5005 0.5005 0.5006 0.5005
2867.000000 0.5003 0.5002 0.5000 0.4999 0.4998
2872.000000 0.4996 0.4995 0.4993 0.4989 0.4985
2877.000000 0.4981 0.4976 0.4972 0.4967 0.4963
2882.000000 0.4958 0.4947 0.4932 0.4918 0.4903
2887.000000 0.4889 0.4874 0.4852 0.4827 0.4801
2892.000000 0.4776 0.4751 0.4726 0.4677 0.4628
2897.000000 0.4581 0.4537 0.4492 0.4447 0.4416
2902.000000 0.4393 0.4371 0.4349 0.4329 0.4321
2907.000000 0.4314 0.4306 0.4299 0.4292 0.4288
2912.000000 0.4287 0.4286 0.4285 0.4283 0.4282
2917.000000 0.4281 0.4280 0.4272 0.4285 0.4287
2922.000000 0.4290 0.4293 0.4299 0.4304 0.4310
2927.000000 0.4316 0.4333 0.4351 0.4375 0.4401
2932.000000 0.4430 0.4465 0.4501 0.4532 0.4556
2937.000000 0.4580 0.4593 0.4598 0.4602 0.4607
2942.000000 0.4611 0.4611 0.4610 0.4610 0.4609
2947.000000 0.4609 0.4609 0.4607 0.4605 0.4602
2952.000000 0.4600 0.4598 0.4596 0.4594 0.4592
2957.000000 0.4589 0.4585 0.4582 0.4579 0.4576
2962.000000 0.4572 0.4569 0.4566 0.4562 0.4559
2967.000000 0.4556 0.4552 0.4549 0.4545 0.4542
2972.000000 0.4541 0.4540 0.4539 0.4538 0.4537
2977.000000 0.4536 0.4535 0.4534 0.4533 0.4532
2982.000000 0.4532 0.4532 0.4531 0.4531 0.4531
2987.000000 0.4531 0.4531 0.4530 0.4529 0.4527
2992.000000 0.4526 0.4525 0.4523 0.4522 0.4521
2997.000000 0.4519 0.4518 0.4515 0.4512 0.4508
3002.000000 0.4505 0.4501 0.4498 0.4494 0.4491
3007.000000 0.4487 0.4484 0.4480 0.4474 0.4469
3012.000000 0.4444 0.4458 0.4458 0.4461 0.4465
3017.000000 0.4468 0.4482 0.4498 0.4519 0.4542
3022.000000 0.4575 0.4609 0.4644 0.4701 0.4743
3027.000000 0.4784 0.4826 0.4867 0.4912 0.4957
3032.000000 0.5002 0.5034 0.5064 0.5093 0.5122
3037.000000 0.5150 0.5168 0.5186 0.5204 0.5223
3042.000000 0.5243 0.5264 0.5284 0.5305 0.5323
3047.000000 0.5338 0.5354 0.5369 0.5384 0.5397
3052.000000 0.5404 0.5410 0.5417 0.5423 0.5428
3057.000000 0.5429 0.5430 0.5431 0.5432 0.5433
3062.000000 0.5434 0.5435 0.5437 0.5438 0.5439
3067.000000 0.5441 0.5442 0.5444 0.5446 0.5456
3072.000000 0.5475 0.5510 0.5552 0.5615 0.5680
3077.000000 0.5716 0.5731 0.5744 0.5756 0.5768
3082.000000 0.5781 0.5793 0.5801 0.5806 0.5811
3087.000000 0.5816 0.5821 0.5826 0.5831 0.5836
3092.000000 0.5841 0.5846 0.5851 0.5853 0.5856
3097.000000 0.5858 0.5861 0.5863 0.5866 0.5868
3102.000000 0.5871 0.5872 0.5873 0.5875 0.5876
3107.000000 0.5877 0.5878 0.5879 0.5880 0.5881
3112.000000 0.5884 0.5888 0.5892 0.5896 0.5900
3117.000000 0.5904 0.5908 0.5914 0.5925 0.5935
3122.000000 0.5945 0.5956 0.5966 0.5979 0.5994
3127.000000 0.6009 0.6024 0.6040 0.6055 0.6071
3132.000000 0.6089 0.6107 0.6125 0.6143 0.6161
3137.000000 0.6179 0.6197 0.6215 0.6233 0.6244
3142.000000 0.6255 0.6266 0.6277 0.6289 0.6300
3147.000000 0.6311 0.6318 0.6323 0.6327 0.6332
3152.000000 0.6336 0.6341 0.6346 0.6350 0.6355
3157.000000 0.6359 0.6364 0.6368 0.6373 0.6377
3162.000000 0.6380 0.6382 0.6385 0.6388 0.6391
3167.000000 0.6393 0.6396 0.6399 0.6401 0.6404
3172.000000 0.6407 0.6410 0.6412 0.6415 0.6418
3177.000000 0.6420 0.6423 0.6426 0.6428 0.6429
3182.000000 0.6430 0.6432 0.6433 0.6434 0.6436
3187.000000 0.6437 0.6438 0.6440 0.6441 0.6442
3192.000000 0.6444 0.6445 0.6447 0.6448 0.6477
3197.000000 0.6449 0.6449 0.6448 0.6448 0.6447
3202.000000 0.6447 0.6446 0.6446 0.6445 0.6445
3207.000000 0.6444 0.6444 0.6443 0.6443 0.6442
3212.000000 0.6441 0.6440 0.6438 0.6437 0.6436
3217.000000 0.6434 0.6433 0.6432 0.6430 0.6429
3222.000000 0.6428 0.6426 0.6425 0.6424 0.6422
3227.000000 0.6421 0.6420 0.6418 0.6417 0.6416
3232.000000 0.6414 0.6413 0.6412 0.6410 0.6409
3237.000000 0.6408 0.6406 0.6402 0.6398 0.6394
3242.000000 0.6390 0.6386 0.6382 0.6378 0.6374
3247.000000 0.6370 0.6366 0.6361 0.6357 0.6353
3252.000000 0.6349 0.6345 0.6341 0.6337 0.6333
3257.000000 0.6329 0.6324 0.6320 0.6316 0.6312
3262.000000 0.6308 0.6304 0.6300 0.6296 0.6293
3267.000000 0.6289 0.6285 0.6281 0.6277 0.6273
3272.000000 0.6270 0.6266 0.6262 0.6258 0.6254
3277.000000 0.6250 0.6247 0.6243 0.6239 0.6235
3282.000000 0.6231 0.6227 0.6224 0.6220 0.6216
3287.000000 0.6212 0.6208 0.6204 0.6201 0.6197
3292.000000 0.6193 0.6189 0.6185 0.6181 0.6176
3297.000000 0.6171 0.6166 0.6161 0.6156 0.6152
3302.000000 0.6147 0.6142 0.6137 0.6132 0.6127
3307.000000 0.6122 0.6117 0.6112 0.6107 0.6102
3312.000000 0.6097 0.6092 0.6087 0.6082 0.6078
3317.000000 0.6073 0.6068 0.6063 0.6058 0.6052
3322.000000 0.6046 0.6040 0.6034 0.6028 0.6022
3327.000000 0.6016 0.6009 0.6003 0.5997 0.5991
3332.000000 0.5985 0.5979 0.5973 0.5967 0.5960
3337.000000 0.5954 0.5948 0.5941 0.5934 0.5927
3342.000000 0.5920 0.5913 0.5906 0.5898 0.5891
3347.000000 0.5884 0.5877 0.5870 0.5863 0.5856
3352.000000 0.5849 0.5842 0.5835 0.5827 0.5820
3357.000000 0.5813 0.5806 0.5801 0.5796 0.5791
3362.000000 0.5786 0.5781 0.5775 0.5770 0.5765
3367.000000 0.5760 0.5755 0.5749 0.5744 0.5739
3372.000000 0.5734 0.5729 0.5724 0.5718 0.5713
3377.000000 0.5708 0.5703 0.5700 0.5698 0.5696
3382.000000 0.5694 0.5693 0.5691 0.5689 0.5687
3387.000000 0.5685 0.5684 0.5682 0.5680 0.5678
3392.000000 0.5676 0.5674 0.5673 0.5671 0.5669
3397.000000 0.5667 0.5665 0.5664 0.5662 0.5660
3402.000000 0.5658 0.5657 0.5656 0.5656 0.5655
3407.000000 0.5655 0.5654 0.5653 0.5653 0.5652
3412.000000 0.5652 0.5651 0.5650 0.5650 0.5649
3417.000000 0.5649 0.5648 0.5673 0.5647 0.5647
3422.000000 0.5648 0.5649 0.5650 0.5652 0.5653
3427.000000 0.5654 0.5656 0.5657 0.5658 0.5659
3432.000000 0.5661 0.5662 0.5663 0.5665 0.5666
3437.000000 0.5667 0.5668 0.5670 0.5671 0.5672
3442.000000 0.5674 0.5675 0.5677 0.5679 0.5681
3447.000000 0.5682 0.5684 0.5686 0.5688 0.5690
3452.000000 0.5692 0.5694 0.5696 0.5698 0.5700
3457.000000 0.5701 0.5703 0.5705 0.5707 0.5709
3462.000000 0.5711 0.5713 0.5715 0.5717 0.5719
3467.000000 0.5720 0.5722 0.5724 0.5726 0.5728
3472.000000 0.5730 0.5732 0.5735 0.5737 0.5739
3477.000000 0.5741 0.5743 0.5745 0.5748 0.5750
3482.000000 0.5752 0.5754 0.5756 0.5758 0.5760
3487.000000 0.5763 0.5765 0.5767 0.5769 0.5771
3492.000000 0.5773 0.5775 0.5778 0.5780 0.5782
3497.000000 0.5784 0.5786 0.5788 0.5790 0.5793
3502.000000 0.5795 0.5797 0.5799 0.5801 0.5804
3507.000000 0.5808 0.5811 0.5814 0.5817 0.5820
3512.000000 0.5823 0.5826 0.5829 0.5832 0.5835
3517.000000 0.5839 0.5842 0.5845 0.5848 0.5851
3522.000000 0.5854 0.5857 0.5860 0.5863 0.5866
3527.000000 0.5870 0.5873 0.5876 0.5879 0.5882
3532.000000 0.5885 0.5888 0.5891 0.5894 0.5897
3537.000000 0.5901 0.5904 0.5907 0.5910 0.5914
3542.000000 0.5917 0.5921 0.5924 0.5928 0.5931
3547.000000 0.5935 0.5938 0.5942 0.5945 0.5949
3552.000000 0.5953 0.5956 0.5960 0.5963 0.5967
3557.000000 0.5970 0.5974 0.5977 0.5981 0.5984
3562.000000 0.5988 0.5992 0.5995 0.5999 0.6002
3567.000000 0.6006 0.6009 0.6013 0.6016 0.6020
3572.000000 0.6024 0.6027 0.6031 0.6034 0.6038
3577.000000 0.6041 0.6045 0.6048 0.6051 0.6054
3582.000000 0.6057 0.6060 0.6063 0.6066 0.6069
3587.000000 0.6072 0.6075 0.6078 0.6081 0.6084
3592.000000 0.6087 0.6090 0.6093 0.6096 0.6099
3597.000000 0.6102 0.6105 0.6108 0.6111 0.6114
3602.000000 0.6117 0.6121 0.6124 0.6127 0.6130
3607.000000 0.6133 0.6136 0.6139 0.6142 0.6145
3612.000000 0.6146 0.6147 0.6148 0.6149 0.6150
3617.000000 0.6151 0.6152 0.6153 0.6154 0.6155
3622.000000 0.6156 0.6157 0.6158 0.6159 0.6160
3627.000000 0.6162 0.6163 0.6164 0.6165 0.6166
3632.000000 0.6167 0.6168 0.6169 0.6170 0.6171
3637.000000 0.6172 0.6173 0.6174 0.6175 0.6176
3642.000000 0.6177 0.6178 0.6179 0.6179 0.6179
3647.000000 0.6179 0.6178 0.6178 0.6178 0.6178
3652.000000 0.6178 0.6178 0.6178 0.6177 0.6177
3657.000000 0.6177 0.6177 0.6177 0.6177 0.6176
3662.000000 0.6176 0.6176 0.6176 0.6173 0.6176
3667.000000 0.6176 0.6175 0.6175 0.6175 0.6175
3672.000000 0.6175 0.6173 0.6170 0.6166 0.6163
3677.000000 0.6160 0.6156 0.6153 0.6149 0.6146
3682.000000 0.6142 0.6139 0.6136 0.6132 0.6129
3687.000000 0.6125 0.6122 0.6118 0.6115 0.6111
3692.000000 0.6108 0.6105 0.6101 0.6098 0.6095
3697.000000 0.6092 0.6089 0.6086 0.6083 0.6080
3702.000000 0.6077 0.6074 0.6071 0.6068 0.6065
3707.000000 0.6062 0.6059 0.6056 0.6053 0.6050
3712.000000 0.6047 0.6044 0.6041 0.6038 0.6035
3717.000000 0.6032 0.6029 0.6026 0.6023 0.6021
3722.000000 0.6020 0.6020 0.6019 0.6019 0.6018
3727.000000 0.6017 0.6017 0.6016 0.6015 0.6015
3732.000000 0.6014 0.6013 0.6013 0.6012 0.6012
3737.000000 0.6011 0.6010 0.6010 0.6009 0.6008
3742.000000 0.6008 0.6007 0.6006 0.6006 0.6005
3747.000000 0.6005 0.6004 0.6003 0.6003 0.6002
3752.000000 0.6001 0.6001 0.6000 0.5999 0.5998
3757.000000 0.5997 0.5996 0.5994 0.5993 0.5992
3762.000000 0.5990 0.5989 0.5988 0.5986 0.5985
3767.000000 0.5984 0.5982 0.5981 0.5980 0.5978
3772.000000 0.5977 0.5976 0.5975 0.5973 0.5972
3777.000000 0.5971 0.5969 0.5968 0.5967 0.5965
3782.000000 0.5964 0.5963 0.5961 0.5960 0.5959
3787.000000 0.5957 0.5956 0.5955 0.5953 0.5952
3792.000000 0.5951 0.5950 0.5948 0.5947 0.5946
3797.000000 0.5944 0.5943 0.5942 0.5940 0.5939
3802.000000 0.5938 0.5937 0.5936 0.5934 0.5933
3807.000000 0.5932 0.5931 0.5930 0.5929 0.5928
3812.000000 0.5927 0.5926 0.5925 0.5924 0.5922
3817.000000 0.5921 0.5920 0.5919 0.5918 0.5917
3822.000000 0.5916 0.5915 0.5914 0.5913 0.5912
3827.000000 0.5910 0.5909 0.5908 0.5907 0.5906
3832.000000 0.5905 0.5904 0.5903 0.5902 0.5901
3837.000000 0.5900 0.5898 0.5897 0.5896 0.5895
3842.000000 0.5894 0.5893 0.5891 0.5890 0.5888
3847.000000 0.5887 0.5886 0.5884 0.5883 0.5881
3852.000000 0.5880 0.5879 0.5877 0.5876 0.5875
3857.000000 0.5873 0.5872 0.5870 0.5869 0.5868
3862.000000 0.5866 0.5865 0.5863 0.5862 0.5861
3867.000000 0.5859 0.5858 0.5856 0.5855 0.5854
3872.000000 0.5852 0.5851 0.5849 0.5848 0.5847
3877.000000 0.5845 0.5844 0.5843 0.5841 0.5840
3882.000000 0.5838 0.5837 0.5836 0.5834 0.5833
3887.000000 0.5836 0.5829 0.5828 0.5826 0.5825
3892.000000 0.5823 0.5822 0.5820 0.5819 0.5817
3897.000000 0.5816 0.5814 0.5812 0.5811 0.5809
3902.000000 0.5808 0.5806 0.5805 0.5803 0.5802
3907.000000 0.5800 0.5799 0.5797 0.5796 0.5794
3912.000000 0.5792 0.5791 0.5789 0.5788 0.5786
3917.000000 0.5785 0.5783 0.5782 0.5780 0.5779
3922.000000 0.5777 0.5776 0.5775 0.5774 0.5773
3927.000000 0.5772 0.5771 0.5770 0.5769 0.5768
3932.000000 0.5767 0.5766 0.5765 0.5764 0.5763
3937.000000 0.5762 0.5761 0.5760 0.5759 0.5758
3942.000000 0.5757 0.5756 0.5755 0.5754 0.5753
3947.000000 0.5752 0.5751 0.5750 0.5749 0.5748
3952.000000 0.5747 0.5746 0.5745 0.5744 0.5743
3957.000000 0.5742 0.5742 0.5742 0.5741 0.5741
3962.000000 0.5741 0.5741 0.5741 0.5740 0.5740
3967.000000 0.5740 0.5740 0.5739 0.5739 0.5739
3972.000000 0.5739 0.5739 0.5738 0.5738 0.5738
3977.000000 0.5738 0.5738 0.5737 0.5737 0.5737
3982.000000 0.5737 0.5736 0.5736 0.5736 0.5736
3987.000000 0.5736 0.5735 0.5735 0.5735 0.5735
3992.000000 0.5735 0.5734 0.5734 0.5734 0.5734
3997.000000 0.5734 0.5733 0.5733 0.5733
##END=
