##TITLE=ETHANETHIOL, 2-DIETHYLAMINO-,HYDROCHLORIDE
##JCAMP-DX=4.24
##DATA TYPE=INFRARED SPECTRUM
##CLASS=COBLENTZ III
##ORIGIN=DOW CHEMICAL COMPANY
##OWNER=COBLENTZ SOC.
Collection (C) 2018 copyright by the U.S. Secretary of Commerce
on behalf of the United States of America. All rights reserved.
##DATE=1967/10/19
##NAMES=2-(diethylamino)ethanethiol hydrochloride
##MOLFORM=C6 H16 Cl N S
##MP=170 C
##SOURCE REFERENCE=COBLENTZ NO. 06373
##$NIST ID=B6006373
##$NIST SOURCE=COBLENTZ
##$NIST IMAGE=cob6373
##SPECTROMETER/DATA SYSTEM=DOW KBr FOREPRISM-GRATING
##INSTRUMENT PARAMETERS=BLAZED AT 3.5, 12.0, 20.0 MICRON AND CHANGED AT 5.0, 7.5, 14.9 MICRON
##STATE=SOLID (SPLIT MULL)
##SAMPLING PROCEDURE=TRANSMISSION
##RESOLUTION=2
##DATA PROCESSING=DIGITIZED BY COBLENTZ SOCIETY (BATCH I) FROM HARD COPY
##XUNITS=1/CM
##YUNITS=TRANSMITTANCE
##XLABEL=Wavenumbers (cm-1)
##YLABEL=% Transmission
##XFACTOR=1
##YFACTOR=1
##DELTAX=1
##FIRSTX=390
##LASTX=3742
##FIRSTY=0.7115
##MAXX=3742
##MINX=390
##MAXY=0.8828
##MINY=0.0834
##NPOINTS=3353
##XYDATA=(X++(Y..Y))
390.000000 0.7115 0.7124 0.7135 0.7146 0.7161
395.000000 0.7175 0.7191 0.7206 0.7221 0.7236
400.000000 0.7251 0.7264 0.7276 0.7291 0.7304
405.000000 0.7318 0.7331 0.7348 0.7365 0.7382
410.000000 0.7399 0.7417 0.7437 0.7457 0.7471
415.000000 0.7485 0.7497 0.7510 0.7522 0.7535
420.000000 0.7543 0.7547 0.7551 0.7557 0.7561
425.000000 0.7564 0.7565 0.7568 0.7569 0.7571
430.000000 0.7572 0.7575 0.7612 0.7665 0.7734
435.000000 0.7805 0.7875 0.7918 0.7960 0.8003
440.000000 0.8030 0.8054 0.8076 0.8101 0.8121
445.000000 0.8131 0.8140 0.8149 0.8158 0.8165
450.000000 0.8165 0.8164 0.8162 0.8162 0.8161
455.000000 0.8154 0.8147 0.8139 0.8132 0.8118
460.000000 0.8096 0.8046 0.7926 0.7818 0.7710
465.000000 0.7601 0.7500 0.7504 0.7511 0.7951
470.000000 0.8352 0.8392 0.8421 0.8446 0.8461
475.000000 0.8470 0.8474 0.8478 0.8484 0.8489
480.000000 0.8489 0.8488 0.8488 0.8494 0.8478
485.000000 0.8471 0.8466 0.8460 0.8451 0.8425
490.000000 0.8384 0.8340 0.8278 0.8144 0.7982
495.000000 0.7818 0.7657 0.7533 0.7506 0.7486
500.000000 0.7725 0.8134 0.8543 0.8613 0.8641
505.000000 0.8667 0.8686 0.8706 0.8725 0.8741
510.000000 0.8757 0.8771 0.8778 0.8784 0.8790
515.000000 0.8793 0.8797 0.8801 0.8805 0.8828
520.000000 0.8810 0.8811 0.8813 0.8814 0.8815
525.000000 0.8816 0.8817 0.8818 0.8818 0.8820
530.000000 0.8821 0.8821 0.8821 0.8823 0.8823
535.000000 0.8824 0.8824 0.8823 0.8820 0.8817
540.000000 0.8814 0.8811 0.8808 0.8805 0.8802
545.000000 0.8797 0.8792 0.8787 0.8782 0.8777
550.000000 0.8771 0.8766 0.8761 0.8756 0.8751
555.000000 0.8744 0.8737 0.8730 0.8723 0.8716
560.000000 0.8709 0.8702 0.8696 0.8689 0.8690
565.000000 0.8692 0.8696 0.8702 0.8708 0.8714
570.000000 0.8721 0.8723 0.8723 0.8723 0.8717
575.000000 0.8712 0.8707 0.8703 0.8699 0.8695
580.000000 0.8691 0.8687 0.8683 0.8678 0.8675
585.000000 0.8671 0.8668 0.8665 0.8662 0.8659
590.000000 0.8655 0.8652 0.8649 0.8645 0.8640
595.000000 0.8636 0.8631 0.8627 0.8621 0.8618
600.000000 0.8613 0.8609 0.8604 0.8600 0.8595
605.000000 0.8591 0.8586 0.8581 0.8577 0.8571
610.000000 0.8568 0.8565 0.8562 0.8559 0.8555
615.000000 0.8552 0.8549 0.8545 0.8542 0.8539
620.000000 0.8535 0.8532 0.8528 0.8525 0.8521
625.000000 0.8518 0.8516 0.8513 0.8511 0.8509
630.000000 0.8508 0.8506 0.8504 0.8503 0.8501
635.000000 0.8500 0.8498 0.8496 0.8495 0.8493
640.000000 0.8491 0.8490 0.8488 0.8487 0.8485
645.000000 0.8483 0.8482 0.8478 0.8475 0.8473
650.000000 0.8470 0.8467 0.8464 0.8461 0.8457
655.000000 0.8454 0.8451 0.8448 0.8445 0.8442
660.000000 0.8439 0.8436 0.8433 0.8430 0.8425
665.000000 0.8421 0.8417 0.8413 0.8409 0.8404
670.000000 0.8400 0.8396 0.8392 0.8387 0.8383
675.000000 0.8378 0.8375 0.8371 0.8366 0.8362
680.000000 0.8355 0.8347 0.8340 0.8332 0.8324
685.000000 0.8316 0.8308 0.8300 0.8292 0.8284
690.000000 0.8277 0.8268 0.8261 0.8255 0.8248
695.000000 0.8241 0.8233 0.8221 0.8208 0.8196
700.000000 0.8180 0.8155 0.8128 0.8101 0.8064
705.000000 0.8026 0.7990 0.7953 0.7915 0.7875
710.000000 0.7834 0.7792 0.7750 0.7707 0.7661
715.000000 0.7615 0.7571 0.7525 0.7480 0.7434
720.000000 0.7175 0.6887 0.6783 0.6707 0.6599
725.000000 0.6543 0.6514 0.6485 0.6469 0.6491
730.000000 0.6496 0.6525 0.6592 0.6815 0.7032
735.000000 0.7182 0.7265 0.7328 0.7372 0.7410
740.000000 0.7431 0.7465 0.7501 0.7538 0.7575
745.000000 0.7608 0.7637 0.7649 0.7661 0.7674
750.000000 0.7678 0.7671 0.7665 0.7661 0.7651
755.000000 0.7634 0.7617 0.7588 0.7555 0.7495
760.000000 0.7325 0.7154 0.6983 0.6887 0.6891
765.000000 0.6957 0.7061 0.7165 0.7271 0.7375
770.000000 0.7478 0.7547 0.7601 0.7618 0.7630
775.000000 0.7638 0.7656 0.7643 0.7645 0.7645
780.000000 0.7632 0.7605 0.7535 0.7462 0.7390
785.000000 0.7318 0.7258 0.7265 0.7265 0.7407
790.000000 0.7564 0.7676 0.7685 0.7692 0.7691
795.000000 0.7685 0.7675 0.7641 0.7611 0.7574
800.000000 0.7518 0.7456 0.7391 0.7271 0.7004
805.000000 0.6738 0.6471 0.6205 0.5939 0.5812
810.000000 0.5832 0.5997 0.6334 0.6669 0.7006
815.000000 0.7342 0.7440 0.7510 0.7548 0.7558
820.000000 0.7568 0.7574 0.7591 0.7561 0.7521
825.000000 0.7488 0.7454 0.7419 0.7367 0.7310
830.000000 0.7239 0.6884 0.6528 0.6175 0.5820
835.000000 0.5465 0.5110 0.4999 0.4985 0.5321
840.000000 0.5942 0.6561 0.6998 0.7097 0.7396
845.000000 0.7508 0.7598 0.7653 0.7668 0.7686
850.000000 0.7703 0.7710 0.7717 0.7722 0.7728
855.000000 0.7728 0.7728 0.7728 0.7722 0.7715
860.000000 0.7708 0.7701 0.7690 0.7678 0.7665
865.000000 0.7651 0.7639 0.7625 0.7604 0.7582
870.000000 0.7557 0.7521 0.7487 0.7455 0.7443
875.000000 0.7431 0.7411 0.7391 0.7314 0.7224
880.000000 0.7121 0.6965 0.6832 0.6698 0.6480
885.000000 0.6258 0.6035 0.5812 0.5590 0.5528
890.000000 0.5484 0.5690 0.5935 0.6180 0.6425
895.000000 0.6671 0.6915 0.7161 0.7362 0.7460
900.000000 0.7518 0.7536 0.7567 0.7550 0.7507
905.000000 0.7451 0.7396 0.7340 0.7285 0.7228
910.000000 0.7201 0.7208 0.7278 0.7383 0.7465
915.000000 0.7545 0.7581 0.7611 0.7639 0.7657
920.000000 0.7657 0.7664 0.7654 0.7646 0.7637
925.000000 0.7621 0.7605 0.7588 0.7575 0.7565
930.000000 0.7554 0.7544 0.7533 0.7522 0.7512
935.000000 0.7504 0.7494 0.7485 0.7478 0.7471
940.000000 0.7464 0.7458 0.7443 0.7394 0.7342
945.000000 0.7290 0.7211 0.7125 0.7046 0.6975
950.000000 0.6904 0.6832 0.6739 0.6644 0.6549
955.000000 0.6362 0.6129 0.5895 0.5660 0.5427
960.000000 0.5193 0.5167 0.5210 0.5444 0.5678
965.000000 0.5910 0.6144 0.6377 0.6642 0.6958
970.000000 0.7095 0.7156 0.7206 0.7255 0.7303
975.000000 0.7345 0.7378 0.7410 0.7442 0.7468
980.000000 0.7489 0.7506 0.7514 0.7522 0.7530
985.000000 0.7551 0.7536 0.7536 0.7528 0.7522
990.000000 0.7517 0.7510 0.7501 0.7486 0.7471
995.000000 0.7456 0.7440 0.7424 0.7407 0.7391
1000.000000 0.7369 0.7343 0.7315 0.7282 0.7247
1005.000000 0.7211 0.7178 0.7141 0.7068 0.6996
1010.000000 0.6924 0.6853 0.6783 0.6711 0.6642
1015.000000 0.6571 0.6462 0.6353 0.6226 0.6080
1020.000000 0.5898 0.5619 0.5462 0.5255 0.5016
1025.000000 0.4776 0.4536 0.4296 0.4056 0.4009
1030.000000 0.3996 0.3996 0.4077 0.4358 0.4639
1035.000000 0.4920 0.5201 0.5220 0.5242 0.5227
1040.000000 0.5136 0.4965 0.4794 0.4629 0.4652
1045.000000 0.4675 0.5076 0.5477 0.5879 0.6280
1050.000000 0.6681 0.6937 0.6939 0.6926 0.6944
1055.000000 0.6900 0.6874 0.6717 0.6558 0.6401
1060.000000 0.6244 0.6206 0.6215 0.6229 0.6238
1065.000000 0.6245 0.6193 0.6141 0.6089 0.6037
1070.000000 0.6012 0.6017 0.6020 0.6350 0.6718
1075.000000 0.7085 0.7238 0.7321 0.7358 0.7385
1080.000000 0.7399 0.7408 0.7412 0.7411 0.7411
1085.000000 0.7398 0.7384 0.7368 0.7350 0.7330
1090.000000 0.7310 0.7282 0.7254 0.7215 0.7178
1095.000000 0.7134 0.7065 0.6976 0.6882 0.6797
1100.000000 0.6711 0.6561 0.6408 0.6314 0.6220
1105.000000 0.5849 0.5438 0.5028 0.4617 0.4206
1110.000000 0.3795 0.3384 0.3332 0.3303 0.3622
1115.000000 0.4079 0.4536 0.4992 0.5449 0.5906
1120.000000 0.6362 0.6818 0.7128 0.7217 0.7255
1125.000000 0.7285 0.7305 0.7319 0.7328 0.7330
1130.000000 0.7330 0.7339 0.7321 0.7315 0.7311
1135.000000 0.7306 0.7300 0.7294 0.7287 0.7278
1140.000000 0.7271 0.7262 0.7255 0.7248 0.7228
1145.000000 0.7207 0.7182 0.7150 0.7118 0.7087
1150.000000 0.7054 0.6917 0.6748 0.6578 0.6411
1155.000000 0.6242 0.6074 0.6020 0.6002 0.6060
1160.000000 0.6181 0.6303 0.6425 0.6546 0.6600
1165.000000 0.6648 0.6571 0.6532 0.6465 0.6310
1170.000000 0.6154 0.5999 0.5844 0.5689 0.5575
1175.000000 0.5576 0.5539 0.5657 0.6099 0.6542
1180.000000 0.6984 0.7215 0.7339 0.7371 0.7389
1185.000000 0.7398 0.7404 0.7408 0.7411 0.7411
1190.000000 0.7411 0.7411 0.7410 0.7408 0.7405
1195.000000 0.7400 0.7395 0.7389 0.7384 0.7378
1200.000000 0.7372 0.7367 0.7361 0.7354 0.7348
1205.000000 0.7341 0.7335 0.7328 0.7321 0.7315
1210.000000 0.7310 0.7304 0.7298 0.7311 0.7287
1215.000000 0.7281 0.7282 0.7284 0.7286 0.7291
1220.000000 0.7298 0.7304 0.7311 0.7311 0.7311
1225.000000 0.7305 0.7299 0.7292 0.7283 0.7261
1230.000000 0.7239 0.7219 0.7199 0.7176 0.7156
1235.000000 0.7135 0.7117 0.7100 0.7082 0.7065
1240.000000 0.7047 0.7031 0.7015 0.7000 0.6984
1245.000000 0.6968 0.6953 0.6938 0.6908 0.6874
1250.000000 0.6841 0.6801 0.6743 0.6682 0.6610
1255.000000 0.6539 0.6464 0.6386 0.6309 0.6232
1260.000000 0.6155 0.6078 0.6001 0.5966 0.5952
1265.000000 0.6078 0.6323 0.6486 0.6540 0.6591
1270.000000 0.6642 0.6678 0.6708 0.6721 0.6732
1275.000000 0.6740 0.6740 0.6740 0.6728 0.6718
1280.000000 0.6700 0.6674 0.6634 0.6595 0.6556
1285.000000 0.6517 0.6478 0.6440 0.6392 0.6338
1290.000000 0.6277 0.6176 0.6177 0.6177 0.6198
1295.000000 0.6240 0.6276 0.6314 0.6352 0.6384
1300.000000 0.6395 0.6401 0.6398 0.6393 0.6415
1305.000000 0.6376 0.6366 0.6355 0.6327 0.6291
1310.000000 0.6241 0.6186 0.6132 0.6075 0.6019
1315.000000 0.5962 0.5884 0.5810 0.5789 0.5794
1320.000000 0.5767 0.5843 0.5894 0.5952 0.6038
1325.000000 0.6095 0.6150 0.6193 0.6196 0.6199
1330.000000 0.6202 0.6190 0.6170 0.6141 0.6112
1335.000000 0.6083 0.6051 0.6025 0.6000 0.5970
1340.000000 0.5936 0.5896 0.5859 0.5824 0.5789
1345.000000 0.5754 0.5719 0.5679 0.5620 0.5562
1350.000000 0.5503 0.5418 0.5309 0.5231 0.5164
1355.000000 0.5093 0.5016 0.4937 0.4826 0.4716
1360.000000 0.4628 0.4578 0.4543 0.4508 0.4473
1365.000000 0.4462 0.4455 0.4448 0.4441 0.4375
1370.000000 0.4269 0.4185 0.4108 0.4012 0.3928
1375.000000 0.3859 0.3793 0.3725 0.3646 0.3514
1380.000000 0.3384 0.3252 0.3121 0.2989 0.2901
1385.000000 0.2916 0.2947 0.3307 0.3666 0.4027
1390.000000 0.4416 0.4398 0.4398 0.4236 0.4049
1395.000000 0.3862 0.3676 0.3490 0.3490 0.3566
1400.000000 0.3479 0.4570 0.5072 0.5573 0.6075
1405.000000 0.6575 0.6596 0.6596 0.6595 0.6586
1410.000000 0.6562 0.6518 0.6491 0.6438 0.6386
1415.000000 0.6340 0.6295 0.6251 0.6210 0.6170
1420.000000 0.6130 0.6073 0.6012 0.5953 0.5884
1425.000000 0.5810 0.5738 0.5662 0.5587 0.5501
1430.000000 0.5376 0.5256 0.5148 0.5040 0.4912
1435.000000 0.4781 0.4532 0.4277 0.4021 0.3766
1440.000000 0.3766 0.3766 0.3812 0.3864 0.3916
1445.000000 0.3957 0.3948 0.3950 0.4177 0.4404
1450.000000 0.4632 0.4683 0.4687 0.4689 0.4693
1455.000000 0.4655 0.4612 0.4569 0.4509 0.4239
1460.000000 0.3960 0.3682 0.3404 0.3202 0.3107
1465.000000 0.3011 0.2916 0.2821 0.2749 0.2735
1470.000000 0.2721 0.2728 0.2859 0.3227 0.3596
1475.000000 0.3964 0.4191 0.4232 0.4278 0.4360
1480.000000 0.4528 0.5190 0.5852 0.6512 0.7175
1485.000000 0.7837 0.8498 0.8597 0.8607 0.8607
1490.000000 0.8603 0.8599 0.8593 0.8586 0.8578
1495.000000 0.8568 0.8560 0.8552 0.8544 0.8537
1500.000000 0.8530 0.8521 0.8512 0.8502 0.8492
1505.000000 0.8482 0.8474 0.8465 0.8456 0.8447
1510.000000 0.8438 0.8430 0.8421 0.8414 0.8407
1515.000000 0.8399 0.8391 0.8383 0.8375 0.8374
1520.000000 0.8374 0.8374 0.8375 0.8375 0.8375
1525.000000 0.8375 0.8375 0.8375 0.8375 0.8375
1530.000000 0.8377 0.8377 0.8378 0.8378 0.8380
1535.000000 0.8381 0.8383 0.8386 0.8388 0.8391
1540.000000 0.8394 0.8396 0.8399 0.8402 0.8409
1545.000000 0.8417 0.8425 0.8434 0.8442 0.8449
1550.000000 0.8457 0.8464 0.8471 0.8481 0.8490
1555.000000 0.8500 0.8509 0.8518 0.8528 0.8537
1560.000000 0.8547 0.8556 0.8565 0.8575 0.8584
1565.000000 0.8594 0.8600 0.8603 0.8605 0.8607
1570.000000 0.8609 0.8612 0.8612 0.8616 0.8615
1575.000000 0.8615 0.8614 0.8613 0.8613 0.8612
1580.000000 0.8611 0.8611 0.8609 0.8607 0.8605
1585.000000 0.8603 0.8601 0.8599 0.8597 0.8595
1590.000000 0.8593 0.8591 0.8589 0.8587 0.8585
1595.000000 0.8583 0.8580 0.8575 0.8571 0.8568
1600.000000 0.8564 0.8560 0.8556 0.8551 0.8545
1605.000000 0.8540 0.8534 0.8528 0.8523 0.8518
1610.000000 0.8513 0.8507 0.8502 0.8498 0.8493
1615.000000 0.8489 0.8485 0.8480 0.8475 0.8470
1620.000000 0.8465 0.8460 0.8454 0.8449 0.8444
1625.000000 0.8438 0.8433 0.8428 0.8421 0.8417
1630.000000 0.8411 0.8406 0.8401 0.8395 0.8390
1635.000000 0.8385 0.8378 0.8374 0.8368 0.8363
1640.000000 0.8358 0.8352 0.8347 0.8342 0.8336
1645.000000 0.8331 0.8325 0.8320 0.8315 0.8309
1650.000000 0.8304 0.8299 0.8294 0.8289 0.8284
1655.000000 0.8280 0.8275 0.8271 0.8266 0.8261
1660.000000 0.8257 0.8252 0.8247 0.8243 0.8238
1665.000000 0.8233 0.8228 0.8223 0.8217 0.8211
1670.000000 0.8205 0.8200 0.8194 0.8188 0.8182
1675.000000 0.8176 0.8171 0.8165 0.8158 0.8154
1680.000000 0.8148 0.8142 0.8136 0.8131 0.8125
1685.000000 0.8118 0.8115 0.8110 0.8106 0.8101
1690.000000 0.8097 0.8093 0.8089 0.8084 0.8080
1695.000000 0.8075 0.8071 0.8067 0.8062 0.8058
1700.000000 0.8054 0.8050 0.8045 0.8041 0.8037
1705.000000 0.8032 0.8028 0.8024 0.8021 0.8018
1710.000000 0.8017 0.8014 0.8011 0.8008 0.8007
1715.000000 0.8004 0.8001 0.7999 0.7997 0.7994
1720.000000 0.7992 0.7989 0.7987 0.7984 0.7982
1725.000000 0.7978 0.7975 0.7969 0.7964 0.7958
1730.000000 0.7951 0.7946 0.7941 0.7935 0.7928
1735.000000 0.7922 0.7918 0.7911 0.7906 0.7900
1740.000000 0.7895 0.7889 0.7883 0.7876 0.7871
1745.000000 0.7865 0.7860 0.7854 0.7849 0.7844
1750.000000 0.7840 0.7835 0.7831 0.7825 0.7821
1755.000000 0.7817 0.7811 0.7808 0.7803 0.7799
1760.000000 0.7794 0.7788 0.7782 0.7775 0.7769
1765.000000 0.7764 0.7758 0.7751 0.7746 0.7740
1770.000000 0.7734 0.7728 0.7721 0.7715 0.7710
1775.000000 0.7704 0.7697 0.7691 0.7685 0.7678
1780.000000 0.7672 0.7667 0.7661 0.7655 0.7649
1785.000000 0.7643 0.7637 0.7631 0.7625 0.7618
1790.000000 0.7612 0.7607 0.7601 0.7595 0.7591
1795.000000 0.7587 0.7584 0.7581 0.7576 0.7572
1800.000000 0.7569 0.7565 0.7561 0.7558 0.7555
1805.000000 0.7551 0.7547 0.7544 0.7540 0.7536
1810.000000 0.7533 0.7528 0.7525 0.7521 0.7521
1815.000000 0.7519 0.7518 0.7518 0.7517 0.7515
1820.000000 0.7515 0.7514 0.7512 0.7506 0.7498
1825.000000 0.7491 0.7483 0.7475 0.7467 0.7458
1830.000000 0.7451 0.7444 0.7436 0.7428 0.7421
1835.000000 0.7415 0.7410 0.7404 0.7398 0.7392
1840.000000 0.7386 0.7380 0.7374 0.7368 0.7361
1845.000000 0.7356 0.7350 0.7344 0.7338 0.7332
1850.000000 0.7326 0.7321 0.7315 0.7311 0.7306
1855.000000 0.7301 0.7295 0.7290 0.7282 0.7274
1860.000000 0.7265 0.7257 0.7249 0.7241 0.7233
1865.000000 0.7224 0.7215 0.7208 0.7200 0.7191
1870.000000 0.7183 0.7175 0.7167 0.7158 0.7150
1875.000000 0.7142 0.7136 0.7128 0.7122 0.7115
1880.000000 0.7110 0.7103 0.7097 0.7090 0.7084
1885.000000 0.7076 0.7071 0.7064 0.7058 0.7051
1890.000000 0.7045 0.7038 0.7032 0.7025 0.7018
1895.000000 0.7011 0.7006 0.7000 0.6995 0.6991
1900.000000 0.6986 0.6981 0.6976 0.6971 0.6968
1905.000000 0.6962 0.6958 0.6954 0.6949 0.6944
1910.000000 0.6940 0.6935 0.6931 0.6925 0.6921
1915.000000 0.6917 0.6911 0.6908 0.6901 0.6895
1920.000000 0.6889 0.6883 0.6875 0.6869 0.6864
1925.000000 0.6858 0.6851 0.6845 0.6839 0.6833
1930.000000 0.6825 0.6818 0.6811 0.6803 0.6796
1935.000000 0.6788 0.6781 0.6774 0.6765 0.6758
1940.000000 0.6751 0.6744 0.6737 0.6728 0.6721
1945.000000 0.6715 0.6711 0.6707 0.6701 0.6697
1950.000000 0.6692 0.6687 0.6682 0.6676 0.6671
1955.000000 0.6668 0.6662 0.6658 0.6653 0.6648
1960.000000 0.6643 0.6638 0.6633 0.6628 0.6622
1965.000000 0.6618 0.6608 0.6600 0.6592 0.6584
1970.000000 0.6575 0.6568 0.6560 0.6551 0.6544
1975.000000 0.6538 0.6536 0.6533 0.6530 0.6528
1980.000000 0.6525 0.6522 0.6519 0.6515 0.6508
1985.000000 0.6503 0.6496 0.6490 0.6484 0.6478
1990.000000 0.6471 0.6465 0.6460 0.6454 0.6448
1995.000000 0.6442 0.6436 0.6430 0.6421 0.6414
2000.000000 0.6406 0.6398 0.6390 0.6386 0.6382
2005.000000 0.6377 0.6373 0.6369 0.6365 0.6358
2010.000000 0.6352 0.6346 0.6340 0.6334 0.6328
2015.000000 0.6322 0.6316 0.6310 0.6304 0.6298
2020.000000 0.6292 0.6286 0.6280 0.6274 0.6268
2025.000000 0.6260 0.6255 0.6249 0.6243 0.6237
2030.000000 0.6231 0.6225 0.6219 0.6212 0.6207
2035.000000 0.6199 0.6191 0.6183 0.6176 0.6168
2040.000000 0.6160 0.6152 0.6144 0.6136 0.6129
2045.000000 0.6121 0.6112 0.6105 0.6098 0.6089
2050.000000 0.6081 0.6072 0.6064 0.6056 0.6048
2055.000000 0.6039 0.6031 0.6023 0.6015 0.6006
2060.000000 0.5998 0.5989 0.5981 0.5973 0.5965
2065.000000 0.5956 0.5948 0.5940 0.5933 0.5925
2070.000000 0.5917 0.5909 0.5901 0.5893 0.5886
2075.000000 0.5878 0.5870 0.5862 0.5855 0.5847
2080.000000 0.5840 0.5833 0.5826 0.5818 0.5810
2085.000000 0.5803 0.5796 0.5788 0.5781 0.5774
2090.000000 0.5767 0.5759 0.5752 0.5744 0.5737
2095.000000 0.5727 0.5717 0.5707 0.5698 0.5688
2100.000000 0.5678 0.5668 0.5659 0.5649 0.5639
2105.000000 0.5629 0.5619 0.5609 0.5600 0.5588
2110.000000 0.5576 0.5564 0.5553 0.5541 0.5529
2115.000000 0.5517 0.5506 0.5494 0.5482 0.5470
2120.000000 0.5459 0.5447 0.5436 0.5424 0.5412
2125.000000 0.5400 0.5389 0.5378 0.5368 0.5358
2130.000000 0.5348 0.5337 0.5327 0.5316 0.5306
2135.000000 0.5298 0.5290 0.5286 0.5282 0.5278
2140.000000 0.5275 0.5272 0.5269 0.5265 0.5262
2145.000000 0.5258 0.5255 0.5252 0.5249 0.5245
2150.000000 0.5242 0.5238 0.5235 0.5232 0.5229
2155.000000 0.5225 0.5221 0.5209 0.5198 0.5186
2160.000000 0.5175 0.5162 0.5152 0.5141 0.5131
2165.000000 0.5120 0.5109 0.5098 0.5088 0.5076
2170.000000 0.5064 0.5049 0.5034 0.5018 0.5003
2175.000000 0.4987 0.4972 0.4959 0.4947 0.4935
2180.000000 0.4924 0.4912 0.4900 0.4888 0.4877
2185.000000 0.4865 0.4854 0.4842 0.4830 0.4815
2190.000000 0.4801 0.4783 0.4765 0.4747 0.4730
2195.000000 0.4712 0.4697 0.4681 0.4665 0.4649
2200.000000 0.4633 0.4617 0.4601 0.4585 0.4569
2205.000000 0.4553 0.4537 0.4521 0.4505 0.4489
2210.000000 0.4473 0.4457 0.4441 0.4425 0.4409
2215.000000 0.4393 0.4377 0.4360 0.4345 0.4330
2220.000000 0.4315 0.4301 0.4287 0.4273 0.4260
2225.000000 0.4246 0.4232 0.4218 0.4204 0.4190
2230.000000 0.4177 0.4162 0.4149 0.4135 0.4122
2235.000000 0.4108 0.4094 0.4080 0.4066 0.4052
2240.000000 0.4039 0.4025 0.4010 0.3997 0.3982
2245.000000 0.3966 0.3952 0.3937 0.3922 0.3907
2250.000000 0.3892 0.3876 0.3860 0.3846 0.3830
2255.000000 0.3816 0.3800 0.3786 0.3771 0.3756
2260.000000 0.3742 0.3728 0.3714 0.3699 0.3684
2265.000000 0.3671 0.3657 0.3642 0.3628 0.3612
2270.000000 0.3599 0.3584 0.3571 0.3556 0.3542
2275.000000 0.3528 0.3514 0.3499 0.3484 0.3470
2280.000000 0.3456 0.3442 0.3428 0.3414 0.3400
2285.000000 0.3387 0.3375 0.3362 0.3350 0.3338
2290.000000 0.3326 0.3310 0.3297 0.3282 0.3266
2295.000000 0.3252 0.3238 0.3223 0.3208 0.3193
2300.000000 0.3178 0.3163 0.3149 0.3122 0.3095
2305.000000 0.3064 0.3034 0.3003 0.2973 0.2914
2310.000000 0.2856 0.2792 0.2728 0.2681 0.2634
2315.000000 0.2608 0.2582 0.2559 0.2535 0.2513
2320.000000 0.2491 0.2465 0.2439 0.2410 0.2382
2325.000000 0.2353 0.2324 0.2295 0.2267 0.2241
2330.000000 0.2216 0.2202 0.2188 0.2173 0.2159
2335.000000 0.2146 0.2134 0.2123 0.2113 0.2102
2340.000000 0.2091 0.2080 0.2069 0.2058 0.2046
2345.000000 0.2035 0.2025 0.2014 0.2004 0.2000
2350.000000 0.1995 0.1991 0.1985 0.1979 0.1975
2355.000000 0.1970 0.1965 0.1960 0.1954 0.1950
2360.000000 0.1944 0.1940 0.1934 0.1929 0.1924
2365.000000 0.1919 0.1914 0.1909 0.1904 0.1901
2370.000000 0.1899 0.1895 0.1894 0.1891 0.1889
2375.000000 0.1886 0.1884 0.1879 0.1873 0.1860
2380.000000 0.1848 0.1835 0.1824 0.1811 0.1799
2385.000000 0.1784 0.1772 0.1758 0.1744 0.1729
2390.000000 0.1717 0.1703 0.1689 0.1673 0.1658
2395.000000 0.1642 0.1627 0.1611 0.1595 0.1579
2400.000000 0.1564 0.1549 0.1535 0.1521 0.1507
2405.000000 0.1488 0.1469 0.1450 0.1431 0.1411
2410.000000 0.1392 0.1372 0.1352 0.1332 0.1313
2415.000000 0.1292 0.1273 0.1253 0.1234 0.1214
2420.000000 0.1195 0.1176 0.1157 0.1137 0.1118
2425.000000 0.1096 0.1075 0.1050 0.1026 0.1001
2430.000000 0.0976 0.0952 0.0928 0.0913 0.0899
2435.000000 0.0887 0.0876 0.0865 0.0854 0.0847
2440.000000 0.0842 0.0839 0.0837 0.0835 0.0834
2445.000000 0.0837 0.0841 0.0863 0.0886 0.0913
2450.000000 0.0939 0.0966 0.0992 0.1020 0.1046
2455.000000 0.1072 0.1096 0.1114 0.1132 0.1146
2460.000000 0.1161 0.1174 0.1187 0.1196 0.1207
2465.000000 0.1215 0.1223 0.1231 0.1240 0.1249
2470.000000 0.1258 0.1267 0.1277 0.1286 0.1296
2475.000000 0.1305 0.1315 0.1324 0.1333 0.1342
2480.000000 0.1351 0.1359 0.1368 0.1376 0.1385
2485.000000 0.1392 0.1402 0.1410 0.1419 0.1427
2490.000000 0.1436 0.1444 0.1453 0.1462 0.1471
2495.000000 0.1479 0.1487 0.1560 0.1634 0.1745
2500.000000 0.1859 0.1971 0.2083 0.2162 0.2242
2505.000000 0.2268 0.2294 0.2307 0.2320 0.2326
2510.000000 0.2332 0.2334 0.2334 0.2335 0.2337
2515.000000 0.2326 0.2316 0.2264 0.2212 0.2160
2520.000000 0.2108 0.2056 0.2004 0.1994 0.1985
2525.000000 0.1984 0.1984 0.1984 0.1985 0.1985
2530.000000 0.1986 0.1990 0.1993 0.1995 0.1995
2535.000000 0.1995 0.1994 0.1984 0.1977 0.1957
2540.000000 0.1936 0.1916 0.1895 0.1873 0.1850
2545.000000 0.1822 0.1794 0.1758 0.1722 0.1683
2550.000000 0.1644 0.1606 0.1569 0.1532 0.1495
2555.000000 0.1465 0.1435 0.1408 0.1382 0.1356
2560.000000 0.1330 0.1306 0.1283 0.1260 0.1237
2565.000000 0.1214 0.1191 0.1176 0.1162 0.1146
2570.000000 0.1132 0.1119 0.1107 0.1098 0.1090
2575.000000 0.1081 0.1073 0.1065 0.1057 0.1054
2580.000000 0.1051 0.1050 0.1050 0.1050 0.1050
2585.000000 0.1070 0.1082 0.1098 0.1115 0.1133
2590.000000 0.1152 0.1173 0.1195 0.1216 0.1238
2595.000000 0.1259 0.1281 0.1302 0.1323 0.1344
2600.000000 0.1366 0.1385 0.1404 0.1408 0.1412
2605.000000 0.1416 0.1421 0.1424 0.1427 0.1428
2610.000000 0.1430 0.1432 0.1434 0.1435 0.1437
2615.000000 0.1439 0.1441 0.1442 0.1444 0.1445
2620.000000 0.1446 0.1448 0.1448 0.1448 0.1446
2625.000000 0.1445 0.1444 0.1442 0.1442 0.1440
2630.000000 0.1439 0.1438 0.1437 0.1435 0.1435
2635.000000 0.1435 0.1437 0.1455 0.1473 0.1492
2640.000000 0.1514 0.1535 0.1556 0.1588 0.1620
2645.000000 0.1652 0.1684 0.1879 0.2077 0.2175
2650.000000 0.2274 0.2339 0.2404 0.2455 0.2506
2655.000000 0.2515 0.2525 0.2534 0.2544 0.2557
2660.000000 0.2571 0.2585 0.2601 0.2616 0.2631
2665.000000 0.2646 0.2661 0.2677 0.2693 0.2715
2670.000000 0.2737 0.2759 0.2781 0.2801 0.2821
2675.000000 0.2841 0.2861 0.2879 0.2897 0.2915
2680.000000 0.2934 0.2952 0.2970 0.2985 0.3002
2685.000000 0.3017 0.3032 0.3062 0.3092 0.3134
2690.000000 0.3177 0.3243 0.3309 0.3434 0.3560
2695.000000 0.3684 0.3807 0.3871 0.3936 0.3991
2700.000000 0.4047 0.4100 0.4154 0.4179 0.4204
2705.000000 0.4223 0.4243 0.4258 0.4274 0.4303
2710.000000 0.4333 0.4474 0.4616 0.4685 0.4755
2715.000000 0.4810 0.4867 0.4896 0.4926 0.4926
2720.000000 0.4926 0.4923 0.4974 0.4872 0.4824
2725.000000 0.4775 0.4727 0.4679 0.4631 0.4582
2730.000000 0.4534 0.4486 0.4438 0.4435 0.4435
2735.000000 0.4436 0.4442 0.4447 0.4455 0.4467
2740.000000 0.4480 0.4494 0.4508 0.4523 0.4538
2745.000000 0.4558 0.4579 0.4594 0.4609 0.4609
2750.000000 0.4609 0.4608 0.4608 0.4607 0.4607
2755.000000 0.4606 0.4606 0.4605 0.4604 0.4604
2760.000000 0.4605 0.4615 0.4625 0.4649 0.4674
2765.000000 0.4702 0.4730 0.4777 0.4825 0.4867
2770.000000 0.4909 0.4950 0.4992 0.5050 0.5108
2775.000000 0.5154 0.5201 0.5237 0.5273 0.5308
2780.000000 0.5344 0.5373 0.5402 0.5430 0.5458
2785.000000 0.5484 0.5510 0.5533 0.5556 0.5577
2790.000000 0.5599 0.5618 0.5637 0.5656 0.5675
2795.000000 0.5694 0.5712 0.5732 0.5752 0.5764
2800.000000 0.5777 0.5787 0.5797 0.5806 0.5816
2805.000000 0.5825 0.5835 0.5844 0.5854 0.5860
2810.000000 0.5869 0.5875 0.5882 0.5888 0.5895
2815.000000 0.5895 0.5896 0.5896 0.5896 0.5896
2820.000000 0.5897 0.5897 0.5897 0.5895 0.5894
2825.000000 0.5890 0.5887 0.5882 0.5878 0.5870
2830.000000 0.5862 0.5854 0.5846 0.5835 0.5824
2835.000000 0.5808 0.5792 0.5766 0.5740 0.5712
2840.000000 0.5684 0.5653 0.5622 0.5591 0.5560
2845.000000 0.5533 0.5506 0.5480 0.5455 0.5430
2850.000000 0.5405 0.5379 0.5354 0.5329 0.5304
2855.000000 0.5260 0.5219 0.5176 0.5133 0.5089
2860.000000 0.5046 0.5003 0.4960 0.4901 0.4842
2865.000000 0.4766 0.4690 0.4620 0.4550 0.4486
2870.000000 0.4422 0.4336 0.4251 0.4174 0.4098
2875.000000 0.4086 0.4074 0.4068 0.4064 0.4059
2880.000000 0.4055 0.4046 0.4038 0.4029 0.4021
2885.000000 0.3991 0.3962 0.3907 0.3853 0.3806
2890.000000 0.3759 0.3709 0.3659 0.3632 0.3606
2895.000000 0.3580 0.3554 0.3527 0.3500 0.3475
2900.000000 0.3449 0.3418 0.3388 0.3352 0.3316
2905.000000 0.3280 0.3244 0.3208 0.3172 0.3135
2910.000000 0.3101 0.3065 0.3029 0.2993 0.2957
2915.000000 0.2916 0.2876 0.2834 0.2792 0.2750
2920.000000 0.2708 0.2666 0.2624 0.2582 0.2540
2925.000000 0.2500 0.2460 0.2421 0.2382 0.2343
2930.000000 0.2305 0.2270 0.2234 0.2200 0.2166
2935.000000 0.2161 0.2160 0.2160 0.2152 0.2171
2940.000000 0.2177 0.2184 0.2192 0.2199 0.2206
2945.000000 0.2213 0.2221 0.2302 0.2384 0.2437
2950.000000 0.2491 0.2747 0.3003 0.3206 0.3409
2955.000000 0.3470 0.3532 0.3562 0.3562 0.3562
2960.000000 0.3530 0.3512 0.3496 0.3484 0.3473
2965.000000 0.3468 0.3466 0.3534 0.3603 0.3656
2970.000000 0.3709 0.3822 0.3934 0.3934 0.3934
2975.000000 0.3930 0.3925 0.3897 0.3870 0.3838
2980.000000 0.3806 0.3782 0.3758 0.3760 0.3764
2985.000000 0.3766 0.3770 0.3784 0.3798 0.3898
2990.000000 0.3998 0.4087 0.4176 0.4298 0.4421
2995.000000 0.4582 0.4743 0.4905 0.5068 0.5262
3000.000000 0.5457 0.5616 0.5776 0.6185 0.6594
3005.000000 0.6674 0.6755 0.6775 0.6796 0.6796
3010.000000 0.6796 0.6795 0.6783 0.6783 0.6771
3015.000000 0.6760 0.6748 0.6736 0.6724 0.6711
3020.000000 0.6701 0.6689 0.6678 0.6665 0.6651
3025.000000 0.6638 0.6625 0.6611 0.6598 0.6587
3030.000000 0.6575 0.6567 0.6558 0.6550 0.6541
3035.000000 0.6531 0.6521 0.6511 0.6501 0.6492
3040.000000 0.6482 0.6475 0.6468 0.6461 0.6457
3045.000000 0.6451 0.6445 0.6439 0.6433 0.6426
3050.000000 0.6421 0.6415 0.6408 0.6401 0.6396
3055.000000 0.6390 0.6384 0.6377 0.6371 0.6365
3060.000000 0.6359 0.6352 0.6346 0.6338 0.6330
3065.000000 0.6320 0.6310 0.6302 0.6293 0.6284
3070.000000 0.6275 0.6266 0.6257 0.6249 0.6241
3075.000000 0.6233 0.6226 0.6218 0.6210 0.6202
3080.000000 0.6194 0.6186 0.6179 0.6171 0.6162
3085.000000 0.6155 0.6148 0.6140 0.6133 0.6125
3090.000000 0.6118 0.6110 0.6103 0.6095 0.6088
3095.000000 0.6081 0.6074 0.6066 0.6059 0.6051
3100.000000 0.6044 0.6037 0.6030 0.6023 0.6017
3105.000000 0.6010 0.6004 0.5997 0.5991 0.5984
3110.000000 0.5977 0.5970 0.5964 0.5957 0.5951
3115.000000 0.5944 0.5938 0.5931 0.5925 0.5918
3120.000000 0.5912 0.5905 0.5898 0.5892 0.5886
3125.000000 0.5881 0.5876 0.5871 0.5866 0.5860
3130.000000 0.5856 0.5851 0.5846 0.5841 0.5836
3135.000000 0.5831 0.5826 0.5821 0.5816 0.5810
3140.000000 0.5806 0.5801 0.5796 0.5791 0.5786
3145.000000 0.5781 0.5776 0.5771 0.5766 0.5760
3150.000000 0.5756 0.5751 0.5746 0.5741 0.5736
3155.000000 0.5731 0.5726 0.5721 0.5716 0.5710
3160.000000 0.5706 0.5701 0.5696 0.5692 0.5688
3165.000000 0.5685 0.5682 0.5679 0.5676 0.5673
3170.000000 0.5670 0.5667 0.5664 0.5660 0.5658
3175.000000 0.5655 0.5652 0.5649 0.5646 0.5643
3180.000000 0.5640 0.5637 0.5634 0.5629 0.5624
3185.000000 0.5615 0.5607 0.5598 0.5590 0.5581
3190.000000 0.5573 0.5565 0.5558 0.5551 0.5544
3195.000000 0.5536 0.5529 0.5521 0.5514 0.5506
3200.000000 0.5499 0.5492 0.5486 0.5479 0.5473
3205.000000 0.5466 0.5460 0.5453 0.5446 0.5439
3210.000000 0.5433 0.5426 0.5420 0.5412 0.5407
3215.000000 0.5400 0.5393 0.5386 0.5380 0.5373
3220.000000 0.5367 0.5360 0.5354 0.5347 0.5340
3225.000000 0.5333 0.5327 0.5320 0.5314 0.5308
3230.000000 0.5302 0.5295 0.5289 0.5283 0.5277
3235.000000 0.5271 0.5265 0.5259 0.5253 0.5246
3240.000000 0.5240 0.5234 0.5228 0.5222 0.5216
3245.000000 0.5210 0.5204 0.5197 0.5191 0.5185
3250.000000 0.5179 0.5173 0.5167 0.5160 0.5155
3255.000000 0.5148 0.5142 0.5136 0.5130 0.5124
3260.000000 0.5118 0.5112 0.5106 0.5099 0.5093
3265.000000 0.5087 0.5081 0.5075 0.5069 0.5062
3270.000000 0.5057 0.5051 0.5046 0.5040 0.5034
3275.000000 0.5028 0.5023 0.5017 0.5012 0.5006
3280.000000 0.5001 0.4995 0.4989 0.4983 0.4978
3285.000000 0.4972 0.4967 0.4960 0.4956 0.4950
3290.000000 0.4945 0.4939 0.4933 0.4927 0.4922
3295.000000 0.4916 0.4910 0.4905 0.4900 0.4894
3300.000000 0.4889 0.4883 0.4877 0.4871 0.4866
3305.000000 0.4860 0.4855 0.4849 0.4844 0.4838
3310.000000 0.4832 0.4826 0.4821 0.4815 0.4810
3315.000000 0.4804 0.4799 0.4793 0.4788 0.4782
3320.000000 0.4776 0.4770 0.4765 0.4759 0.4754
3325.000000 0.4748 0.4743 0.4737 0.4732 0.4726
3330.000000 0.4720 0.4715 0.4710 0.4706 0.4702
3335.000000 0.4697 0.4693 0.4688 0.4684 0.4679
3340.000000 0.4675 0.4670 0.4665 0.4660 0.4656
3345.000000 0.4651 0.4647 0.4642 0.4638 0.4633
3350.000000 0.4629 0.4624 0.4619 0.4614 0.4610
3355.000000 0.4605 0.4601 0.4596 0.4592 0.4587
3360.000000 0.4583 0.4578 0.4574 0.4569 0.4564
3365.000000 0.4559 0.4555 0.4550 0.4546 0.4541
3370.000000 0.4537 0.4532 0.4528 0.4523 0.4519
3375.000000 0.4514 0.4509 0.4504 0.4500 0.4495
3380.000000 0.4491 0.4486 0.4482 0.4477 0.4473
3385.000000 0.4469 0.4465 0.4462 0.4459 0.4456
3390.000000 0.4453 0.4450 0.4447 0.4444 0.4441
3395.000000 0.4438 0.4435 0.4432 0.4429 0.4426
3400.000000 0.4423 0.4420 0.4417 0.4414 0.4410
3405.000000 0.4408 0.4405 0.4402 0.4400 0.4397
3410.000000 0.4394 0.4391 0.4388 0.4385 0.4382
3415.000000 0.4379 0.4376 0.4373 0.4370 0.4367
3420.000000 0.4364 0.4360 0.4358 0.4355 0.4352
3425.000000 0.4349 0.4346 0.4343 0.4340 0.4337
3430.000000 0.4334 0.4331 0.4328 0.4325 0.4322
3435.000000 0.4319 0.4317 0.4314 0.4310 0.4308
3440.000000 0.4305 0.4302 0.4299 0.4296 0.4293
3445.000000 0.4290 0.4287 0.4284 0.4281 0.4278
3450.000000 0.4275 0.4272 0.4269 0.4266 0.4264
3455.000000 0.4260 0.4258 0.4255 0.4252 0.4249
3460.000000 0.4247 0.4244 0.4241 0.4238 0.4235
3465.000000 0.4232 0.4229 0.4226 0.4224 0.4221
3470.000000 0.4218 0.4215 0.4212 0.4209 0.4206
3475.000000 0.4203 0.4201 0.4198 0.4195 0.4192
3480.000000 0.4189 0.4186 0.4183 0.4180 0.4178
3485.000000 0.4175 0.4172 0.4169 0.4166 0.4162
3490.000000 0.4160 0.4157 0.4155 0.4152 0.4149
3495.000000 0.4146 0.4143 0.4140 0.4137 0.4134
3500.000000 0.4132 0.4129 0.4126 0.4123 0.4120
3505.000000 0.4117 0.4115 0.4112 0.4109 0.4106
3510.000000 0.4103 0.4100 0.4097 0.4094 0.4092
3515.000000 0.4089 0.4086 0.4082 0.4080 0.4077
3520.000000 0.4074 0.4071 0.4068 0.4066 0.4062
3525.000000 0.4059 0.4058 0.4055 0.4052 0.4049
3530.000000 0.4047 0.4044 0.4042 0.4039 0.4036
3535.000000 0.4032 0.4030 0.4028 0.4026 0.4023
3540.000000 0.4020 0.4016 0.4014 0.4012 0.4009
3545.000000 0.4007 0.4004 0.4000 0.3999 0.3996
3550.000000 0.3993 0.3990 0.3988 0.3984 0.3982
3555.000000 0.3980 0.3977 0.3974 0.3972 0.3968
3560.000000 0.3966 0.3964 0.3960 0.3958 0.3956
3565.000000 0.3953 0.3950 0.3947 0.3945 0.3942
3570.000000 0.3940 0.3937 0.3934 0.3930 0.3929
3575.000000 0.3926 0.3924 0.3921 0.3918 0.3914
3580.000000 0.3912 0.3909 0.3908 0.3905 0.3902
3585.000000 0.3899 0.3897 0.3894 0.3891 0.3888
3590.000000 0.3886 0.3882 0.3880 0.3878 0.3875
3595.000000 0.3872 0.3870 0.3866 0.3864 0.3862
3600.000000 0.3859 0.3856 0.3854 0.3850 0.3849
3605.000000 0.3846 0.3843 0.3840 0.3838 0.3834
3610.000000 0.3832 0.3830 0.3828 0.3825 0.3822
3615.000000 0.3818 0.3816 0.3814 0.3812 0.3809
3620.000000 0.3806 0.3803 0.3800 0.3798 0.3796
3625.000000 0.3793 0.3790 0.3787 0.3784 0.3782
3630.000000 0.3780 0.3777 0.3774 0.3772 0.3770
3635.000000 0.3766 0.3764 0.3762 0.3760 0.3758
3640.000000 0.3756 0.3753 0.3750 0.3749 0.3747
3645.000000 0.3744 0.3742 0.3740 0.3738 0.3734
3650.000000 0.3732 0.3730 0.3729 0.3726 0.3724
3655.000000 0.3722 0.3720 0.3716 0.3714 0.3712
3660.000000 0.3710 0.3708 0.3706 0.3704 0.3702
3665.000000 0.3699 0.3697 0.3695 0.3693 0.3690
3670.000000 0.3688 0.3686 0.3684 0.3682 0.3680
3675.000000 0.3677 0.3675 0.3673 0.3671 0.3668
3680.000000 0.3666 0.3664 0.3662 0.3659 0.3658
3685.000000 0.3655 0.3653 0.3650 0.3649 0.3647
3690.000000 0.3645 0.3642 0.3640 0.3638 0.3636
3695.000000 0.3634 0.3632 0.3630 0.3630 0.3629
3700.000000 0.3628 0.3627 0.3626 0.3625 0.3624
3705.000000 0.3622 0.3621 0.3620 0.3618 0.3618
3710.000000 0.3616 0.3616 0.3614 0.3612 0.3612
3715.000000 0.3610 0.3609 0.3609 0.3608 0.3607
3720.000000 0.3606 0.3605 0.3604 0.3603 0.3602
3725.000000 0.3600 0.3600 0.3600 0.3599 0.3598
3730.000000 0.3598 0.3597 0.3596 0.3595 0.3594
3735.000000 0.3593 0.3593 0.3592 0.3591 0.3590
3740.000000 0.3590 0.3589 0.3588
##END=
