##TITLE=2-Chloro-10-(3'-dimethylaminopropyl)phenothiazine, 5-oxide, hydrochloride, monohydrate
##JCAMP-DX=4.24
$$ By DXEDIT 1.05 (RS McDonald)
##DATA TYPE=INFRARED SPECTRUM
##CLASS=COBLENTZ III
##ORIGIN=SMITH KLINE & FRENCH LABS.
##OWNER=COPYRIGHT (C) 1988 by COBLENTZ SOCIETY INC.
Collection (C) 2018 copyright by the U.S. Secretary of Commerce
on behalf of the United States of America. All rights reserved.
##DATE=1962/12/10
##MOLFORM=C17 H20 Cl2 N2 O S  * H2 O
##SOURCE REFERENCE=COBLENTZ NO. 08400
##$NIST ID=B6008400
##$NIST SOURCE=COBLENTZ
##$NIST IMAGE=cob8400
##SPECTROMETER/DATA SYSTEM=PERKIN-ELMER 21 (GRATING)
##INSTRUMENT PARAMETERS=NaCl PRISM
##STATE=SOLID (OIL MULL)
$$SPECTRAL CONTAMINATION DUE TO OIL AROUND 2900, 1460, 722 CM^-^1
##SAMPLING PROCEDURE=TRANSMISSION
##RESOLUTION=2
##DATA PROCESSING=DIGITIZED BY COBLENTZ SOCIETY (BATCH I) FROM HARD COPY
##XUNITS=1/CM
##YUNITS=TRANSMITTANCE
##XFACTOR=1
##YFACTOR=1
##DELTAX=1
##FIRSTX=4000
##LASTX=667
##FIRSTY=0.4151
##MAXX=4000
##MINX=667
##MAXY=0.944
##MINY=0.0649
##NPOINTS=3334
##XYDATA=(X++(Y..Y))
4000.000000 0.4151 0.4156 0.4160 0.4167 0.4172
3995.000000 0.4178 0.4183 0.4189 0.4195 0.4200
3990.000000 0.4206 0.4212 0.4217 0.4222 0.4226
3985.000000 0.4230 0.4234 0.4238 0.4241 0.4245
3980.000000 0.4248 0.4251 0.4254 0.4257 0.4260
3975.000000 0.4262 0.4266 0.4269 0.4272 0.4275
3970.000000 0.4278 0.4281 0.4284 0.4287 0.4290
3965.000000 0.4292 0.4295 0.4298 0.4300 0.4302
3960.000000 0.4303 0.4305 0.4306 0.4308 0.4309
3955.000000 0.4310 0.4312 0.4314 0.4315 0.4317
3950.000000 0.4319 0.4320 0.4322 0.4323 0.4325
3945.000000 0.4327 0.4328 0.4330 0.4331 0.4333
3940.000000 0.4335 0.4336 0.4338 0.4340 0.4342
3935.000000 0.4344 0.4346 0.4349 0.4351 0.4353
3930.000000 0.4355 0.4358 0.4360 0.4362 0.4365
3925.000000 0.4368 0.4370 0.4372 0.4375 0.4377
3920.000000 0.4379 0.4381 0.4384 0.4386 0.4389
3915.000000 0.4391 0.4393 0.4396 0.4402 0.4415
3910.000000 0.4428 0.4440 0.4453 0.4466 0.4478
3905.000000 0.4486 0.4494 0.4502 0.4510 0.4518
3900.000000 0.4526 0.4534 0.4542 0.4550 0.4558
3895.000000 0.4566 0.4574 0.4582 0.4589 0.4596
3890.000000 0.4604 0.4610 0.4619 0.4621 0.4623
3885.000000 0.4625 0.4626 0.4628 0.4630 0.4632
3880.000000 0.4634 0.4636 0.4638 0.4640 0.4641
3875.000000 0.4643 0.4645 0.4647 0.4649 0.4651
3870.000000 0.4652 0.4654 0.4655 0.4656 0.4658
3865.000000 0.4659 0.4660 0.4662 0.4662 0.4664
3860.000000 0.4665 0.4666 0.4668 0.4669 0.4670
3855.000000 0.4672 0.4673 0.4674 0.4676 0.4677
3850.000000 0.4678 0.4679 0.4680 0.4682 0.4683
3845.000000 0.4684 0.4685 0.4687 0.4688 0.4689
3840.000000 0.4691 0.4693 0.4695 0.4698 0.4700
3835.000000 0.4702 0.4704 0.4707 0.4709 0.4710
3830.000000 0.4712 0.4715 0.4718 0.4720 0.4722
3825.000000 0.4724 0.4726 0.4729 0.4731 0.4733
3820.000000 0.4735 0.4738 0.4740 0.4742 0.4743
3815.000000 0.4744 0.4745 0.4746 0.4747 0.4748
3810.000000 0.4749 0.4750 0.4751 0.4752 0.4753
3805.000000 0.4754 0.4755 0.4756 0.4757 0.4758
3800.000000 0.4759 0.4760 0.4760 0.4762 0.4762
3795.000000 0.4764 0.4765 0.4765 0.4765 0.4765
3790.000000 0.4765 0.4765 0.4765 0.4762 0.4759
3785.000000 0.4756 0.4754 0.4751 0.4748 0.4745
3780.000000 0.4742 0.4739 0.4736 0.4733 0.4730
3775.000000 0.4726 0.4723 0.4719 0.4715 0.4710
3770.000000 0.4708 0.4704 0.4700 0.4697 0.4693
3765.000000 0.4689 0.4688 0.4686 0.4684 0.4682
3760.000000 0.4681 0.4679 0.4679 0.4678 0.4677
3755.000000 0.4676 0.4676 0.4675 0.4674 0.4674
3750.000000 0.4673 0.4672 0.4672 0.4675 0.4677
3745.000000 0.4680 0.4683 0.4685 0.4688 0.4692
3740.000000 0.4696 0.4700 0.4703 0.4707 0.4714
3735.000000 0.4722 0.4729 0.4737 0.4745 0.4752
3730.000000 0.4760 0.4768 0.4777 0.4785 0.4793
3725.000000 0.4799 0.4805 0.4810 0.4816 0.4822
3720.000000 0.4828 0.4833 0.4838 0.4843 0.4848
3715.000000 0.4853 0.4858 0.4862 0.4869 0.4874
3710.000000 0.4879 0.4885 0.4890 0.4895 0.4900
3705.000000 0.4906 0.4910 0.4916 0.4920 0.4925
3700.000000 0.4929 0.4934 0.4938 0.4942 0.4946
3695.000000 0.4950 0.4955 0.4959 0.4962 0.4967
3690.000000 0.4971 0.4975 0.4979 0.4983 0.4987
3685.000000 0.4991 0.4995 0.4999 0.5003 0.5006
3680.000000 0.5008 0.5010 0.5014 0.5016 0.5018
3675.000000 0.5020 0.5023 0.5025 0.5027 0.5029
3670.000000 0.5031 0.5033 0.5035 0.5038 0.5040
3665.000000 0.5042 0.5044 0.5046 0.5048 0.5050
3660.000000 0.5052 0.5054 0.5057 0.5059 0.5060
3655.000000 0.5062 0.5065 0.5067 0.5069 0.5071
3650.000000 0.5073 0.5074 0.5075 0.5076 0.5077
3645.000000 0.5078 0.5079 0.5079 0.5080 0.5081
3640.000000 0.5082 0.5083 0.5083 0.5084 0.5085
3635.000000 0.5086 0.5087 0.5088 0.5089 0.5090
3630.000000 0.5090 0.5091 0.5092 0.5093 0.5093
3625.000000 0.5094 0.5095 0.5096 0.5096 0.5096
3620.000000 0.5097 0.5097 0.5097 0.5098 0.5098
3615.000000 0.5098 0.5098 0.5098 0.5097 0.5097
3610.000000 0.5097 0.5097 0.5097 0.5097 0.5097
3605.000000 0.5097 0.5097 0.5097 0.5097 0.5097
3600.000000 0.5097 0.5097 0.5097 0.5096 0.5096
3595.000000 0.5096 0.5096 0.5096 0.5096 0.5094
3590.000000 0.5093 0.5092 0.5091 0.5090 0.5088
3585.000000 0.5087 0.5086 0.5084 0.5083 0.5082
3580.000000 0.5081 0.5079 0.5078 0.5077 0.5076
3575.000000 0.5074 0.5073 0.5071 0.5069 0.5068
3570.000000 0.5065 0.5062 0.5060 0.5059 0.5057
3565.000000 0.5055 0.5053 0.5051 0.5049 0.5047
3560.000000 0.5045 0.5043 0.5041 0.5039 0.5037
3555.000000 0.5036 0.5035 0.5034 0.5033 0.5031
3550.000000 0.5030 0.5029 0.5028 0.5027 0.5025
3545.000000 0.5024 0.5023 0.5022 0.5021 0.5019
3540.000000 0.5019 0.5018 0.5017 0.5016 0.5016
3535.000000 0.5016 0.5016 0.5016 0.5016 0.5016
3530.000000 0.5017 0.5019 0.5020 0.5022 0.5024
3525.000000 0.5026 0.5029 0.5032 0.5034 0.5037
3520.000000 0.5040 0.5043 0.5046 0.5049 0.5052
3515.000000 0.5055 0.5058 0.5060 0.5064 0.5067
3510.000000 0.5070 0.5073 0.5076 0.5079 0.5082
3505.000000 0.5085 0.5088 0.5090 0.5093 0.5095
3500.000000 0.5096 0.5097 0.5098 0.5099 0.5100
3495.000000 0.5101 0.5102 0.5103 0.5104 0.5105
3490.000000 0.5106 0.5107 0.5108 0.5109 0.5110
3485.000000 0.5110 0.5112 0.5112 0.5114 0.5116
3480.000000 0.5117 0.5118 0.5119 0.5121 0.5121
3475.000000 0.5122 0.5122 0.5123 0.5124 0.5124
3470.000000 0.5124 0.5125 0.5125 0.5126 0.5126
3465.000000 0.5127 0.5127 0.5127 0.5128 0.5129
3460.000000 0.5129 0.5130 0.5130 0.5131 0.5131
3455.000000 0.5132 0.5132 0.5133 0.5133 0.5133
3450.000000 0.5134 0.5134 0.5134 0.5134 0.5134
3445.000000 0.5134 0.5134 0.5133 0.5133 0.5133
3440.000000 0.5133 0.5133 0.5132 0.5132 0.5132
3435.000000 0.5132 0.5131 0.5131 0.5131 0.5131
3430.000000 0.5131 0.5130 0.5129 0.5128 0.5128
3425.000000 0.5127 0.5126 0.5124 0.5123 0.5122
3420.000000 0.5121 0.5116 0.5110 0.5106 0.5101
3415.000000 0.5096 0.5090 0.5085 0.5079 0.5074
3410.000000 0.5068 0.5062 0.5058 0.5053 0.5049
3405.000000 0.5044 0.5039 0.5034 0.5029 0.5024
3400.000000 0.5019 0.5014 0.5009 0.5004 0.4999
3395.000000 0.4993 0.4988 0.4983 0.4978 0.4978
3390.000000 0.4977 0.4976 0.4975 0.4975 0.4976
3385.000000 0.4976 0.4977 0.4977 0.4978 0.4979
3380.000000 0.4979 0.4980 0.4984 0.4994 0.5004
3375.000000 0.5014 0.5024 0.5032 0.5041 0.5049
3370.000000 0.5057 0.5066 0.5074 0.5083 0.5092
3365.000000 0.5100 0.5108 0.5116 0.5123 0.5131
3360.000000 0.5138 0.5145 0.5152 0.5159 0.5165
3355.000000 0.5171 0.5177 0.5183 0.5188 0.5193
3350.000000 0.5195 0.5197 0.5200 0.5202 0.5204
3345.000000 0.5207 0.5209 0.5212 0.5214 0.5216
3340.000000 0.5219 0.5221 0.5223 0.5225 0.5228
3335.000000 0.5230 0.5232 0.5234 0.5235 0.5236
3330.000000 0.5237 0.5237 0.5238 0.5239 0.5239
3325.000000 0.5240 0.5241 0.5241 0.5242 0.5242
3320.000000 0.5243 0.5243 0.5243 0.5244 0.5244
3315.000000 0.5244 0.5244 0.5244 0.5244 0.5243
3310.000000 0.5241 0.5239 0.5238 0.5236 0.5234
3305.000000 0.5232 0.5231 0.5229 0.5229 0.5230
3300.000000 0.5230 0.5231 0.5232 0.5233 0.5234
3295.000000 0.5235 0.5236 0.5237 0.5239 0.5240
3290.000000 0.5241 0.5242 0.5243 0.5244 0.5246
3285.000000 0.5247 0.5248 0.5248 0.5249 0.5250
3280.000000 0.5251 0.5253 0.5254 0.5255 0.5256
3275.000000 0.5257 0.5258 0.5260 0.5260 0.5262
3270.000000 0.5262 0.5264 0.5265 0.5267 0.5269
3265.000000 0.5270 0.5272 0.5274 0.5276 0.5278
3260.000000 0.5280 0.5282 0.5284 0.5286 0.5288
3255.000000 0.5290 0.5292 0.5294 0.5296 0.5298
3250.000000 0.5300 0.5302 0.5304 0.5306 0.5308
3245.000000 0.5310 0.5312 0.5314 0.5316 0.5318
3240.000000 0.5320 0.5322 0.5324 0.5326 0.5328
3235.000000 0.5330 0.5332 0.5334 0.5336 0.5338
3230.000000 0.5339 0.5342 0.5344 0.5346 0.5348
3225.000000 0.5350 0.5352 0.5354 0.5356 0.5358
3220.000000 0.5360 0.5362 0.5364 0.5367 0.5369
3215.000000 0.5371 0.5373 0.5375 0.5378 0.5380
3210.000000 0.5383 0.5385 0.5388 0.5390 0.5392
3205.000000 0.5395 0.5397 0.5399 0.5401 0.5404
3200.000000 0.5406 0.5408 0.5410 0.5412 0.5416
3195.000000 0.5418 0.5421 0.5423 0.5425 0.5428
3190.000000 0.5430 0.5432 0.5434 0.5437 0.5439
3185.000000 0.5442 0.5444 0.5446 0.5449 0.5451
3180.000000 0.5453 0.5456 0.5458 0.5460 0.5462
3175.000000 0.5466 0.5468 0.5470 0.5473 0.5475
3170.000000 0.5477 0.5480 0.5482 0.5484 0.5487
3165.000000 0.5489 0.5492 0.5494 0.5497 0.5499
3160.000000 0.5502 0.5504 0.5506 0.5509 0.5510
3155.000000 0.5512 0.5516 0.5518 0.5521 0.5523
3150.000000 0.5525 0.5528 0.5530 0.5532 0.5534
3145.000000 0.5557 0.5537 0.5539 0.5540 0.5541
3140.000000 0.5542 0.5544 0.5545 0.5546 0.5546
3135.000000 0.5546 0.5545 0.5545 0.5543 0.5540
3130.000000 0.5538 0.5536 0.5533 0.5531 0.5529
3125.000000 0.5527 0.5521 0.5515 0.5509 0.5503
3120.000000 0.5497 0.5491 0.5485 0.5479 0.5473
3115.000000 0.5467 0.5460 0.5454 0.5448 0.5442
3110.000000 0.5436 0.5430 0.5423 0.5417 0.5410
3105.000000 0.5405 0.5399 0.5394 0.5388 0.5382
3100.000000 0.5377 0.5371 0.5365 0.5359 0.5354
3095.000000 0.5348 0.5342 0.5336 0.5331 0.5325
3090.000000 0.5319 0.5312 0.5308 0.5302 0.5296
3085.000000 0.5290 0.5285 0.5279 0.5273 0.5267
3080.000000 0.5260 0.5256 0.5248 0.5241 0.5234
3075.000000 0.5226 0.5219 0.5212 0.5205 0.5198
3070.000000 0.5191 0.5183 0.5176 0.5169 0.5160
3065.000000 0.5154 0.5147 0.5137 0.5127 0.5117
3060.000000 0.5107 0.5096 0.5085 0.5075 0.5064
3055.000000 0.5053 0.5043 0.5032 0.5021 0.5010
3050.000000 0.4999 0.4988 0.4976 0.4964 0.4952
3045.000000 0.4940 0.4928 0.4915 0.4903 0.4891
3040.000000 0.4879 0.4867 0.4855 0.4840 0.4825
3035.000000 0.4810 0.4795 0.4773 0.4752 0.4730
3030.000000 0.4708 0.4683 0.4658 0.4633 0.4604
3025.000000 0.4574 0.4544 0.4512 0.4472 0.4431
3020.000000 0.4390 0.4355 0.4332 0.4310 0.4287
3015.000000 0.4267 0.4250 0.4232 0.4215 0.4197
3010.000000 0.4180 0.4162 0.4145 0.4127 0.4110
3005.000000 0.4092 0.4078 0.4064 0.4052 0.4039
3000.000000 0.4027 0.4014 0.4002 0.3990 0.3978
2995.000000 0.3966 0.3954 0.3942 0.3930 0.3916
2990.000000 0.3859 0.3740 0.3621 0.3502 0.3447
2985.000000 0.3400 0.3356 0.3308 0.3255 0.3202
2980.000000 0.3149 0.3097 0.3044 0.2991 0.2938
2975.000000 0.2884 0.2832 0.2779 0.2726 0.2673
2970.000000 0.2619 0.2566 0.2513 0.2460 0.2407
2965.000000 0.2353 0.2300 0.2246 0.2193 0.2139
2960.000000 0.2085 0.2032 0.1978 0.1925 0.1872
2955.000000 0.1818 0.1764 0.1710 0.1656 0.1602
2950.000000 0.1548 0.1494 0.1440 0.1386 0.1332
2945.000000 0.1278 0.1224 0.1170 0.1116 0.1062
2940.000000 0.1008 0.0953 0.0899 0.0871 0.0854
2935.000000 0.0837 0.0821 0.0808 0.0795 0.0782
2930.000000 0.0771 0.0761 0.0751 0.0742 0.0734
2925.000000 0.0725 0.0717 0.0713 0.0710 0.0706
2920.000000 0.0702 0.0699 0.0695 0.0691 0.0687
2915.000000 0.0683 0.0679 0.0677 0.0675 0.0673
2910.000000 0.0671 0.0668 0.0666 0.0664 0.0661
2905.000000 0.0659 0.0656 0.0654 0.0652 0.0650
2900.000000 0.0649 0.0649 0.0649 0.0649 0.0650
2895.000000 0.0650 0.0650 0.0650 0.0650 0.0650
2890.000000 0.0651 0.0652 0.0652 0.0653 0.0654
2885.000000 0.0655 0.0656 0.0657 0.0657 0.0658
2880.000000 0.0659 0.0660 0.0660 0.0661 0.0662
2875.000000 0.0663 0.0664 0.0665 0.0666 0.0667
2870.000000 0.0668 0.0669 0.0670 0.0670 0.0671
2865.000000 0.0672 0.0673 0.0674 0.0676 0.0677
2860.000000 0.0679 0.0682 0.0685 0.0688 0.0691
2855.000000 0.0693 0.0696 0.0704 0.0713 0.0722
2850.000000 0.0731 0.0740 0.0748 0.0759 0.0774
2845.000000 0.0790 0.0805 0.0822 0.0842 0.0860
2840.000000 0.0887 0.0915 0.0942 0.0975 0.1009
2835.000000 0.1042 0.1130 0.1279 0.1429 0.1569
2830.000000 0.1683 0.1796 0.1912 0.2026 0.2141
2825.000000 0.2255 0.2370 0.2484 0.2599 0.2714
2820.000000 0.2829 0.2944 0.3059 0.3174 0.3290
2815.000000 0.3405 0.3521 0.3636 0.3749 0.3850
2810.000000 0.3950 0.4050 0.4084 0.4116 0.4148
2805.000000 0.4180 0.4212 0.4245 0.4277 0.4309
2800.000000 0.4342 0.4374 0.4407 0.4439 0.4469
2795.000000 0.4496 0.4523 0.4550 0.4575 0.4600
2790.000000 0.4625 0.4650 0.4674 0.4700 0.4736
2785.000000 0.4771 0.4807 0.4847 0.4887 0.4927
2780.000000 0.4960 0.4993 0.5025 0.5056 0.5087
2775.000000 0.5118 0.5165 0.5218 0.5272 0.5310
2770.000000 0.5340 0.5370 0.5392 0.5408 0.5424
2765.000000 0.5439 0.5451 0.5464 0.5477 0.5490
2760.000000 0.5503 0.5515 0.5524 0.5533 0.5541
2755.000000 0.5550 0.5559 0.5567 0.5576 0.5584
2750.000000 0.5593 0.5603 0.5612 0.5623 0.5635
2745.000000 0.5647 0.5658 0.5670 0.5682 0.5693
2740.000000 0.5702 0.5712 0.5721 0.5728 0.5735
2735.000000 0.5742 0.5749 0.5756 0.5762 0.5770
2730.000000 0.5777 0.5782 0.5782 0.5782 0.5782
2725.000000 0.5781 0.5841 0.5778 0.5775 0.5773
2720.000000 0.5771 0.5768 0.5765 0.5760 0.5749
2715.000000 0.5739 0.5729 0.5718 0.5707 0.5697
2710.000000 0.5687 0.5677 0.5667 0.5657 0.5647
2705.000000 0.5637 0.5628 0.5618 0.5607 0.5594
2700.000000 0.5582 0.5567 0.5552 0.5536 0.5521
2695.000000 0.5505 0.5489 0.5474 0.5458 0.5442
2690.000000 0.5416 0.5390 0.5362 0.5333 0.5303
2685.000000 0.5273 0.5243 0.5212 0.5182 0.5153
2680.000000 0.5123 0.5094 0.5065 0.5037 0.5012
2675.000000 0.4991 0.4969 0.4947 0.4925 0.4903
2670.000000 0.4880 0.4858 0.4836 0.4812 0.4791
2665.000000 0.4768 0.4744 0.4719 0.4694 0.4670
2660.000000 0.4645 0.4620 0.4594 0.4569 0.4539
2655.000000 0.4507 0.4475 0.4443 0.4410 0.4378
2650.000000 0.4349 0.4320 0.4293 0.4271 0.4249
2645.000000 0.4227 0.4205 0.4183 0.4160 0.4136
2640.000000 0.4112 0.4084 0.4056 0.4028 0.4000
2635.000000 0.3975 0.3949 0.3924 0.3899 0.3880
2630.000000 0.3868 0.3856 0.3846 0.3836 0.3826
2625.000000 0.3816 0.3809 0.3800 0.3794 0.3787
2620.000000 0.3784 0.3782 0.3782 0.3782 0.3782
2615.000000 0.3782 0.3782 0.3784 0.3784 0.3784
2610.000000 0.3784 0.3784 0.3784 0.3784 0.3784
2605.000000 0.3786 0.3787 0.3789 0.3790 0.3792
2600.000000 0.3794 0.3795 0.3797 0.3798 0.3800
2595.000000 0.3800 0.3803 0.3806 0.3809 0.3812
2590.000000 0.3818 0.3822 0.3826 0.3830 0.3836
2585.000000 0.3841 0.3845 0.3850 0.3858 0.3868
2580.000000 0.3877 0.3888 0.3898 0.3909 0.3918
2575.000000 0.3929 0.3940 0.3950 0.3960 0.3973
2570.000000 0.3986 0.3999 0.4012 0.4026 0.4040
2565.000000 0.4053 0.4066 0.4080 0.4095 0.4107
2560.000000 0.4115 0.4124 0.4132 0.4140 0.4147
2555.000000 0.4155 0.4162 0.4169 0.4177 0.4185
2550.000000 0.4192 0.4200 0.4208 0.4215 0.4222
2545.000000 0.4229 0.4235 0.4242 0.4247 0.4253
2540.000000 0.4258 0.4264 0.4270 0.4276 0.4282
2535.000000 0.4287 0.4293 0.4298 0.4304 0.4310
2530.000000 0.4316 0.4322 0.4328 0.4335 0.4342
2525.000000 0.4348 0.4354 0.4360 0.4367 0.4373
2520.000000 0.4378 0.4382 0.4386 0.4390 0.4395
2515.000000 0.4399 0.4403 0.4407 0.4410 0.4415
2510.000000 0.4419 0.4422 0.4426 0.4428 0.4428
2505.000000 0.4428 0.4428 0.4428 0.4428 0.4428
2500.000000 0.4471 0.4419 0.4410 0.4399 0.4386
2495.000000 0.4373 0.4360 0.4348 0.4335 0.4323
2490.000000 0.4310 0.4299 0.4287 0.4275 0.4264
2485.000000 0.4253 0.4242 0.4230 0.4216 0.4201
2480.000000 0.4186 0.4172 0.4159 0.4148 0.4104
2475.000000 0.4131 0.4127 0.4123 0.4123 0.4125
2470.000000 0.4126 0.4127 0.4128 0.4136 0.4145
2465.000000 0.4155 0.4166 0.4177 0.4189 0.4200
2460.000000 0.4212 0.4223 0.4237 0.4260 0.4283
2455.000000 0.4307 0.4331 0.4355 0.4379 0.4404
2450.000000 0.4429 0.4454 0.4481 0.4509 0.4537
2445.000000 0.4565 0.4594 0.4626 0.4660 0.4697
2440.000000 0.4740 0.4782 0.4807 0.4832 0.4845
2435.000000 0.4852 0.4859 0.4867 0.4874 0.4881
2430.000000 0.4888 0.4895 0.4903 0.4910 0.4921
2425.000000 0.4932 0.4944 0.4957 0.4970 0.4982
2420.000000 0.4995 0.5008 0.5021 0.5034 0.5047
2415.000000 0.5060 0.5073 0.5086 0.5099 0.5112
2410.000000 0.5125 0.5138 0.5151 0.5164 0.5178
2405.000000 0.5195 0.5210 0.5229 0.5247 0.5265
2400.000000 0.5283 0.5301 0.5319 0.5337 0.5358
2395.000000 0.5378 0.5402 0.5428 0.5453 0.5479
2390.000000 0.5505 0.5530 0.5556 0.5575 0.5593
2385.000000 0.5610 0.5624 0.5639 0.5653 0.5668
2380.000000 0.5682 0.5697 0.5710 0.5725 0.5738
2375.000000 0.5748 0.5758 0.5765 0.5772 0.5779
2370.000000 0.5787 0.5794 0.5801 0.5809 0.5816
2365.000000 0.5823 0.5830 0.5837 0.5845 0.5852
2360.000000 0.5860 0.5867 0.5874 0.5881 0.5890
2355.000000 0.5902 0.5914 0.5926 0.5938 0.5951
2350.000000 0.5964 0.5976 0.5988 0.6001 0.6012
2345.000000 0.6025 0.6037 0.6050 0.6062 0.6075
2340.000000 0.6091 0.6107 0.6126 0.6145 0.6164
2335.000000 0.6183 0.6203 0.6222 0.6241 0.6260
2330.000000 0.6280 0.6299 0.6319 0.6338 0.6357
2325.000000 0.6377 0.6398 0.6418 0.6439 0.6460
2320.000000 0.6480 0.6501 0.6521 0.6542 0.6560
2315.000000 0.6578 0.6594 0.6608 0.6625 0.6641
2310.000000 0.6657 0.6671 0.6688 0.6704 0.6718
2305.000000 0.6734 0.6749 0.6762 0.6778 0.6792
2300.000000 0.6806 0.6821 0.6835 0.6850 0.6865
2295.000000 0.6880 0.6894 0.6908 0.6919 0.6932
2290.000000 0.6943 0.6955 0.6965 0.6976 0.6988
2285.000000 0.7000 0.7011 0.7021 0.7033 0.7045
2280.000000 0.7056 0.7067 0.7078 0.7091 0.7103
2275.000000 0.7115 0.7126 0.7139 0.7151 0.7162
2270.000000 0.7175 0.7188 0.7199 0.7210 0.7221
2265.000000 0.7232 0.7243 0.7254 0.7265 0.7275
2260.000000 0.7287 0.7300 0.7311 0.7325 0.7340
2255.000000 0.7353 0.7365 0.7374 0.7382 0.7387
2250.000000 0.7393 0.7398 0.7401 0.7407 0.7411
2245.000000 0.7417 0.7421 0.7428 0.7433 0.7439
2240.000000 0.7444 0.7450 0.7455 0.7461 0.7467
2235.000000 0.7472 0.7478 0.7484 0.7489 0.7495
2230.000000 0.7501 0.7507 0.7511 0.7518 0.7524
2225.000000 0.7530 0.7536 0.7542 0.7548 0.7555
2220.000000 0.7561 0.7567 0.7572 0.7578 0.7586
2215.000000 0.7592 0.7599 0.7605 0.7611 0.7617
2210.000000 0.7622 0.7628 0.7635 0.7642 0.7648
2205.000000 0.7653 0.7658 0.7665 0.7671 0.7678
2200.000000 0.7684 0.7690 0.7696 0.7701 0.7708
2195.000000 0.7712 0.7718 0.7721 0.7728 0.7733
2190.000000 0.7738 0.7743 0.7748 0.7753 0.7758
2185.000000 0.7762 0.7768 0.7771 0.7776 0.7781
2180.000000 0.7785 0.7789 0.7792 0.7796 0.7801
2175.000000 0.7804 0.7808 0.7811 0.7815 0.7818
2170.000000 0.7822 0.7826 0.7831 0.7833 0.7836
2165.000000 0.7838 0.7841 0.7843 0.7845 0.7847
2160.000000 0.7850 0.7851 0.7854 0.7857 0.7858
2155.000000 0.7861 0.7864 0.7865 0.7868 0.7871
2150.000000 0.7872 0.7875 0.7878 0.7880 0.7882
2145.000000 0.7892 0.7903 0.7921 0.7941 0.7960
2140.000000 0.7974 0.7982 0.7989 0.7996 0.8003
2135.000000 0.8010 0.8011 0.8011 0.8011 0.8011
2130.000000 0.8011 0.8011 0.8011 0.8011 0.8011
2125.000000 0.8012 0.8012 0.8012 0.8012 0.8012
2120.000000 0.8014 0.8014 0.8014 0.8014 0.8015
2115.000000 0.8015 0.8015 0.8015 0.8018 0.8019
2110.000000 0.8021 0.8024 0.8025 0.8028 0.8032
2105.000000 0.8035 0.8039 0.8043 0.8047 0.8051
2100.000000 0.8055 0.8060 0.8064 0.8067 0.8068
2095.000000 0.8071 0.8074 0.8075 0.8078 0.8080
2090.000000 0.8082 0.8084 0.8084 0.8083 0.8080
2085.000000 0.8076 0.8074 0.8071 0.8068 0.8065
2080.000000 0.8064 0.8061 0.8058 0.8056 0.8054
2075.000000 0.8051 0.8050 0.8050 0.8053 0.8057
2070.000000 0.8061 0.8065 0.8068 0.8071 0.8075
2065.000000 0.8084 0.8093 0.8105 0.8117 0.8130
2060.000000 0.8142 0.8155 0.8168 0.8184 0.8200
2055.000000 0.8206 0.8210 0.8210 0.8210 0.8210
2050.000000 0.8210 0.8209 0.8209 0.8208 0.8206
2045.000000 0.8204 0.8202 0.8200 0.8199 0.8197
2040.000000 0.8196 0.8196 0.8200 0.8205 0.8209
2035.000000 0.8217 0.8225 0.8237 0.8244 0.8246
2030.000000 0.8246 0.8245 0.8244 0.8243 0.8243
2025.000000 0.8241 0.8240 0.8240 0.8239 0.8237
2020.000000 0.8236 0.8235 0.8234 0.8233 0.8232
2015.000000 0.8231 0.8230 0.8228 0.8228 0.8231
2010.000000 0.8235 0.8240 0.8245 0.8249 0.8253
2005.000000 0.8258 0.8264 0.8271 0.8278 0.8286
2000.000000 0.8294 0.8300 0.8308 0.8315 0.8323
1995.000000 0.8330 0.8339 0.8351 0.8365 0.8378
1990.000000 0.8391 0.8401 0.8411 0.8420 0.8427
1985.000000 0.8432 0.8434 0.8434 0.8433 0.8432
1980.000000 0.8430 0.8428 0.8428 0.8430 0.8431
1975.000000 0.8432 0.8433 0.8434 0.8439 0.8447
1970.000000 0.8457 0.8467 0.8477 0.8487 0.8497
1965.000000 0.8505 0.8510 0.8514 0.8518 0.8524
1960.000000 0.8527 0.8527 0.8527 0.8525 0.8525
1955.000000 0.8525 0.8524 0.8523 0.8521 0.8513
1950.000000 0.8500 0.8487 0.8470 0.8451 0.8431
1945.000000 0.8414 0.8398 0.8385 0.8375 0.8368
1940.000000 0.8368 0.8367 0.8366 0.8366 0.8366
1935.000000 0.8370 0.8378 0.8387 0.8395 0.8404
1930.000000 0.8411 0.8417 0.8423 0.8428 0.8435
1925.000000 0.8439 0.8443 0.8447 0.8450 0.8454
1920.000000 0.8457 0.8460 0.8464 0.8467 0.8470
1915.000000 0.8473 0.8475 0.8480 0.8483 0.8487
1910.000000 0.8490 0.8493 0.8497 0.8500 0.8504
1905.000000 0.8510 0.8518 0.8528 0.8539 0.8549
1900.000000 0.8560 0.8570 0.8578 0.8587 0.8595
1895.000000 0.8603 0.8611 0.8618 0.8627 0.8635
1890.000000 0.8644 0.8651 0.8659 0.8668 0.8675
1885.000000 0.8684 0.8692 0.8700 0.8708 0.8716
1880.000000 0.8724 0.8731 0.8737 0.8742 0.8747
1875.000000 0.8752 0.8757 0.8762 0.8767 0.8773
1870.000000 0.8777 0.8782 0.8786 0.8791 0.8795
1865.000000 0.8800 0.8805 0.8809 0.8814 0.8818
1860.000000 0.8821 0.8821 0.8818 0.8818 0.8818
1855.000000 0.8816 0.8815 0.8813 0.8812 0.8810
1850.000000 0.8808 0.8806 0.8805 0.8803 0.8802
1845.000000 0.8800 0.8799 0.8802 0.8808 0.8814
1840.000000 0.8821 0.8827 0.8833 0.8839 0.8847
1835.000000 0.8857 0.8866 0.8875 0.8885 0.8894
1830.000000 0.8903 0.8908 0.8913 0.8918 0.8921
1825.000000 0.8928 0.8932 0.8936 0.8938 0.8940
1820.000000 0.8942 0.8943 0.8943 0.8943 0.8942
1815.000000 0.8941 0.8941 0.8941 0.8941 0.8943
1810.000000 0.8946 0.8949 0.8952 0.8955 0.8961
1805.000000 0.8975 0.8989 0.9003 0.9017 0.9030
1800.000000 0.9040 0.9050 0.9060 0.9068 0.9071
1795.000000 0.9071 0.9071 0.9056 0.9031 0.8993
1790.000000 0.8955 0.8918 0.8888 0.8860 0.8841
1785.000000 0.8828 0.8821 0.8821 0.8823 0.8825
1780.000000 0.8828 0.8841 0.8875 0.8908 0.8923
1775.000000 0.8935 0.8947 0.8959 0.8971 0.8984
1770.000000 0.8996 0.9008 0.9020 0.9033 0.9041
1765.000000 0.9048 0.9054 0.9061 0.9066 0.9073
1760.000000 0.9078 0.9085 0.9091 0.9098 0.9104
1755.000000 0.9112 0.9120 0.9130 0.9141 0.9145
1750.000000 0.9149 0.9152 0.9155 0.9159 0.9162
1745.000000 0.9166 0.9168 0.9173 0.9175 0.9178
1740.000000 0.9181 0.9182 0.9183 0.9183 0.9183
1735.000000 0.9182 0.9178 0.9177 0.9174 0.9171
1730.000000 0.9168 0.9167 0.9163 0.9159 0.9154
1725.000000 0.9150 0.9146 0.9142 0.9143 0.9143
1720.000000 0.9146 0.9150 0.9154 0.9158 0.9162
1715.000000 0.9165 0.9168 0.9171 0.9171 0.9174
1710.000000 0.9175 0.9175 0.9171 0.9168 0.9165
1705.000000 0.9161 0.9158 0.9157 0.9156 0.9159
1700.000000 0.9161 0.9164 0.9166 0.9170 0.9175
1695.000000 0.9185 0.9194 0.9204 0.9213 0.9223
1690.000000 0.9233 0.9245 0.9258 0.9270 0.9284
1685.000000 0.9298 0.9311 0.9327 0.9337 0.9330
1680.000000 0.9313 0.9295 0.9278 0.9270 0.9262
1675.000000 0.9254 0.9246 0.9238 0.9231 0.9227
1670.000000 0.9225 0.9225 0.9225 0.9223 0.9221
1665.000000 0.9221 0.9221 0.9221 0.9223 0.9225
1660.000000 0.9225 0.9227 0.9228 0.9230 0.9232
1655.000000 0.9233 0.9234 0.9235 0.9236 0.9237
1650.000000 0.9239 0.9240 0.9241 0.9243 0.9245
1645.000000 0.9247 0.9249 0.9251 0.9253 0.9254
1640.000000 0.9256 0.9258 0.9260 0.9263 0.9268
1635.000000 0.9278 0.9286 0.9296 0.9305 0.9315
1630.000000 0.9325 0.9336 0.9346 0.9357 0.9366
1625.000000 0.9375 0.9384 0.9392 0.9395 0.9410
1620.000000 0.9370 0.9321 0.9218 0.9116 0.9012
1615.000000 0.8909 0.8805 0.8702 0.8599 0.8495
1610.000000 0.8391 0.8286 0.8189 0.8098 0.8022
1605.000000 0.7961 0.7917 0.7885 0.7856 0.7821
1600.000000 0.7634 0.7283 0.6906 0.6528 0.6152
1595.000000 0.5774 0.5396 0.5017 0.4637 0.4257
1590.000000 0.3877 0.3496 0.3114 0.2776 0.2627
1585.000000 0.2602 0.2635 0.2751 0.2881 0.3010
1580.000000 0.3103 0.3109 0.3119 0.3140 0.3189
1575.000000 0.3368 0.3788 0.4187 0.4586 0.4986
1570.000000 0.5386 0.5787 0.6188 0.6478 0.6584
1565.000000 0.6676 0.6788 0.6900 0.7011 0.7103
1560.000000 0.7118 0.7122 0.7008 0.6737 0.6421
1555.000000 0.6103 0.5786 0.5637 0.5623 0.5718
1550.000000 0.5937 0.6171 0.6406 0.6640 0.6875
1545.000000 0.7111 0.7347 0.7555 0.7650 0.7734
1540.000000 0.7830 0.7943 0.8061 0.8145 0.8204
1535.000000 0.8251 0.8289 0.8324 0.8358 0.8392
1530.000000 0.8425 0.8456 0.8487 0.8515 0.8537
1525.000000 0.8561 0.8583 0.8606 0.8630 0.8655
1520.000000 0.8682 0.8710 0.8734 0.8747 0.8770
1515.000000 0.8759 0.8759 0.8756 0.8747 0.8733
1510.000000 0.8703 0.8650 0.8474 0.8296 0.8210
1505.000000 0.8128 0.8046 0.7960 0.7869 0.7761
1500.000000 0.7497 0.7083 0.6644 0.6204 0.5764
1495.000000 0.5323 0.4881 0.4546 0.4459 0.4489
1490.000000 0.4546 0.4607 0.4657 0.4632 0.4474
1485.000000 0.4258 0.4041 0.3824 0.3607 0.3389
1480.000000 0.3172 0.2954 0.2735 0.2517 0.2298
1475.000000 0.2079 0.1859 0.1639 0.1419 0.1198
1470.000000 0.1031 0.0996 0.1002 0.1012 0.1024
1465.000000 0.1042 0.1054 0.1064 0.1074 0.1081
1460.000000 0.1087 0.1094 0.1099 0.1102 0.1106
1455.000000 0.1110 0.1117 0.1128 0.1146 0.1173
1450.000000 0.1232 0.1298 0.1384 0.1505 0.1686
1445.000000 0.1939 0.2195 0.2452 0.2709 0.2966
1440.000000 0.3224 0.3482 0.3742 0.4000 0.4260
1435.000000 0.4520 0.4780 0.4916 0.4923 0.4716
1430.000000 0.4160 0.3604 0.3047 0.2490 0.2122
1425.000000 0.2127 0.2132 0.2299 0.2554 0.2811
1420.000000 0.3068 0.3326 0.3584 0.3842 0.4101
1415.000000 0.4360 0.4620 0.4880 0.5140 0.5400
1410.000000 0.5662 0.5923 0.6177 0.6324 0.6401
1405.000000 0.6428 0.6450 0.6458 0.6457 0.6450
1400.000000 0.6434 0.6400 0.6319 0.6183 0.5977
1395.000000 0.5669 0.5347 0.5025 0.4702 0.4378
1390.000000 0.4055 0.3748 0.3696 0.3684 0.3668
1385.000000 0.3654 0.3634 0.3614 0.3530 0.3410
1380.000000 0.3291 0.3171 0.3069 0.3065 0.3087
1375.000000 0.3099 0.3147 0.3432 0.3804 0.4168
1370.000000 0.4365 0.4443 0.4537 0.4727 0.4957
1365.000000 0.5187 0.5418 0.5648 0.5879 0.5994
1360.000000 0.5985 0.5780 0.5555 0.5329 0.5103
1355.000000 0.4637 0.4679 0.4619 0.4907 0.5270
1350.000000 0.5633 0.6017 0.6368 0.6521 0.6628
1345.000000 0.6695 0.6755 0.6815 0.6875 0.6934
1340.000000 0.6990 0.7037 0.7080 0.7124 0.7168
1335.000000 0.7210 0.7249 0.7290 0.7325 0.7360
1330.000000 0.7394 0.7428 0.7469 0.7514 0.7538
1325.000000 0.7561 0.7581 0.7601 0.7641 0.7628
1320.000000 0.7632 0.7619 0.7485 0.7298 0.7110
1315.000000 0.6921 0.6638 0.6642 0.6665 0.6780
1310.000000 0.6918 0.7057 0.7156 0.7183 0.7182
1305.000000 0.7181 0.7160 0.7111 0.7045 0.7011
1300.000000 0.7015 0.7075 0.7165 0.7238 0.7301
1295.000000 0.7336 0.7336 0.7336 0.7261 0.7157
1290.000000 0.7054 0.6951 0.6875 0.6901 0.6961
1285.000000 0.7182 0.7353 0.7443 0.7547 0.7689
1280.000000 0.7771 0.7828 0.7868 0.7903 0.7932
1275.000000 0.7967 0.8006 0.8045 0.8084 0.8121
1270.000000 0.8146 0.8161 0.8175 0.8187 0.8198
1265.000000 0.8198 0.8198 0.8225 0.8233 0.8231
1260.000000 0.8213 0.8151 0.7938 0.7408 0.6980
1255.000000 0.6551 0.6124 0.5694 0.5264 0.4833
1250.000000 0.4402 0.4218 0.4195 0.4412 0.4865
1245.000000 0.5322 0.5780 0.6238 0.6598 0.6761
1240.000000 0.6908 0.6975 0.7008 0.7025 0.7047
1235.000000 0.7000 0.6725 0.6451 0.6177 0.5901
1230.000000 0.5633 0.5607 0.5620 0.5782 0.6099
1225.000000 0.6297 0.6461 0.6722 0.7050 0.7380
1220.000000 0.7541 0.7580 0.7645 0.7731 0.7830
1215.000000 0.7890 0.7931 0.7958 0.7982 0.8001
1210.000000 0.8018 0.8043 0.8075 0.8108 0.8141
1205.000000 0.8171 0.8199 0.8225 0.8250 0.8275
1200.000000 0.8302 0.8331 0.8358 0.8381 0.8408
1195.000000 0.8401 0.8370 0.8349 0.8330 0.8311
1190.000000 0.8290 0.8270 0.8216 0.8153 0.8071
1185.000000 0.7964 0.7810 0.7551 0.7232 0.6911
1180.000000 0.6590 0.6269 0.5946 0.5624 0.5300
1175.000000 0.4976 0.4804 0.4852 0.5097 0.5342
1170.000000 0.5587 0.5833 0.6080 0.6326 0.6572
1165.000000 0.6819 0.7068 0.7317 0.7590 0.7545
1160.000000 0.7022 0.6437 0.6256 0.6212 0.6389
1155.000000 0.6711 0.7034 0.7351 0.7568 0.7704
1150.000000 0.7828 0.7951 0.8053 0.8135 0.8207
1145.000000 0.8274 0.8323 0.8343 0.8360 0.8375
1140.000000 0.8390 0.8405 0.8421 0.8439 0.8458
1135.000000 0.8478 0.8504 0.8531 0.8568 0.8625
1130.000000 0.8723 0.8820 0.8844 0.8863 0.8858
1125.000000 0.8811 0.8778 0.8759 0.8732 0.8612
1120.000000 0.8231 0.7850 0.7468 0.7086 0.6712
1115.000000 0.6626 0.6751 0.7054 0.7357 0.7658
1110.000000 0.7942 0.8031 0.8068 0.8110 0.8097
1105.000000 0.8097 0.8091 0.8051 0.8018 0.7992
1100.000000 0.7975 0.7961 0.7947 0.7949 0.7933
1095.000000 0.7951 0.8012 0.8081 0.8155 0.8233
1090.000000 0.8304 0.8371 0.8437 0.8498 0.8552
1085.000000 0.8594 0.8632 0.8668 0.8720 0.8760
1080.000000 0.8788 0.8810 0.8778 0.8768 0.8749
1075.000000 0.8742 0.8734 0.8725 0.8709 0.8690
1070.000000 0.8668 0.8634 0.8591 0.8425 0.8175
1065.000000 0.7924 0.7671 0.7625 0.7668 0.7734
1060.000000 0.7789 0.7778 0.7660 0.7531 0.7228
1055.000000 0.6544 0.5853 0.5160 0.4466 0.3771
1050.000000 0.3480 0.3789 0.4485 0.5181 0.5623
1045.000000 0.5782 0.5957 0.6568 0.6478 0.6578
1040.000000 0.6340 0.5615 0.5669 0.5765 0.6176
1035.000000 0.6588 0.6846 0.6964 0.7042 0.7086
1030.000000 0.7071 0.7076 0.7061 0.6771 0.6522
1025.000000 0.6408 0.6186 0.5948 0.5315 0.4643
1020.000000 0.3970 0.3296 0.2620 0.1984 0.1586
1015.000000 0.1453 0.1457 0.1809 0.2411 0.2988
1010.000000 0.3329 0.3839 0.4376 0.4915 0.5242
1005.000000 0.5469 0.5686 0.5998 0.6262 0.6336
1000.000000 0.6424 0.6538 0.6568 0.6657 0.6903
995.000000 0.7128 0.7226 0.7401 0.7564 0.7644
990.000000 0.7661 0.7671 0.7687 0.7728 0.7824
985.000000 0.7907 0.7951 0.8014 0.8086 0.8141
980.000000 0.8164 0.8158 0.8130 0.8051 0.7924
975.000000 0.7795 0.7665 0.7537 0.7408 0.7276
970.000000 0.7147 0.7017 0.6921 0.6915 0.7057
965.000000 0.7380 0.7606 0.7832 0.8058 0.8140
960.000000 0.8213 0.8321 0.8452 0.8604 0.8559
955.000000 0.8568 0.8556 0.8507 0.8536 0.8536
950.000000 0.8562 0.8594 0.8665 0.8618 0.8568
945.000000 0.8459 0.8314 0.8157 0.7975 0.7558
940.000000 0.6869 0.6182 0.5491 0.4800 0.4106
935.000000 0.3780 0.3812 0.4216 0.4782 0.5350
930.000000 0.5918 0.6412 0.6775 0.7125 0.7383
925.000000 0.7654 0.7918 0.8065 0.8151 0.8165
920.000000 0.8178 0.8228 0.8331 0.8400 0.8460
915.000000 0.8518 0.8577 0.8634 0.8696 0.8761
910.000000 0.8848 0.8924 0.8938 0.8958 0.9011
905.000000 0.9067 0.9106 0.9144 0.9171 0.9197
900.000000 0.9221 0.9247 0.9271 0.9280 0.9250
895.000000 0.9191 0.9166 0.9205 0.9277 0.9253
890.000000 0.9267 0.9285 0.9301 0.9307 0.9314
885.000000 0.9320 0.9325 0.9308 0.9285 0.9234
880.000000 0.9154 0.9058 0.8954 0.8612 0.8165
875.000000 0.7715 0.7265 0.6739 0.6778 0.7134
870.000000 0.7494 0.7854 0.8214 0.8485 0.8605
865.000000 0.8646 0.8668 0.8668 0.8638 0.8561
860.000000 0.8167 0.7832 0.7700 0.7490 0.7017
855.000000 0.6253 0.6239 0.6496 0.6915 0.7334
850.000000 0.7747 0.8005 0.8148 0.8254 0.8458
845.000000 0.8683 0.8838 0.8903 0.8937 0.8996
840.000000 0.9071 0.9118 0.9150 0.9180 0.9212
835.000000 0.9257 0.9305 0.9338 0.9337 0.9324
830.000000 0.9320 0.9341 0.9375 0.9402 0.9440
825.000000 0.9413 0.9390 0.9367 0.9324 0.9278
820.000000 0.9200 0.9095 0.8916 0.8627 0.8075
815.000000 0.6717 0.4426 0.4399 0.4520 0.5604
810.000000 0.6719 0.7540 0.7936 0.8250 0.8551
805.000000 0.8739 0.8895 0.9003 0.9049 0.9074
800.000000 0.9123 0.9085 0.9060 0.8971 0.8837
795.000000 0.8585 0.7818 0.7001 0.6141 0.6378
790.000000 0.6951 0.7528 0.8104 0.8471 0.8642
785.000000 0.8811 0.8941 0.9037 0.9016 0.8966
780.000000 0.8928 0.8850 0.8702 0.8474 0.8148
775.000000 0.7686 0.7101 0.6386 0.5505 0.4621
770.000000 0.3734 0.2882 0.2953 0.3742 0.4533
765.000000 0.5325 0.6120 0.6918 0.7772 0.7772
760.000000 0.7604 0.7528 0.7407 0.7081 0.6932
755.000000 0.6939 0.7030 0.7275 0.7542 0.7808
750.000000 0.8075 0.8327 0.8453 0.8495 0.8607
745.000000 0.8767 0.8725 0.8714 0.8715 0.8718
740.000000 0.8690 0.8638 0.8607 0.8621 0.8610
735.000000 0.8591 0.8573 0.8547 0.8500 0.8418
730.000000 0.8315 0.8248 0.8249 0.8250 0.8164
725.000000 0.8045 0.7941 0.7701 0.7575 0.7724
720.000000 0.7943 0.8105 0.8252 0.8340 0.8390
715.000000 0.8423 0.8452 0.8285 0.8014 0.7604
710.000000 0.6987 0.6949 0.7160 0.7675 0.8118
705.000000 0.8309 0.8466 0.8549 0.8571 0.8596
700.000000 0.8639 0.8677 0.8711 0.8735 0.8753
695.000000 0.8748 0.8765 0.8758 0.8727 0.8691
690.000000 0.8654 0.8621 0.8595 0.8582 0.8560
685.000000 0.8534 0.8505 0.8471 0.8432 0.8389
680.000000 0.8325 0.8251 0.8169 0.8083 0.8000
675.000000 0.7915 0.7815 0.7761 0.7810 0.7919
670.000000 0.7961 0.7942 0.7868 0.7798
##END=
