##TITLE=2-(m-CARBOMETHOXY PHENOXY)-3-METHYL PYRAZINE
##JCAMP-DX=4.24
##DATA TYPE=INFRARED SPECTRUM
##CLASS=COBLENTZ
##ORIGIN=WYANDOTTE CHEMICALS CORP., WYANDOTTE, MICHIGAN, USA
##OWNER=COBLENTZ SOCIETY
Collection (C) 2018 copyright by the U.S. Secretary of Commerce
on behalf of the United States of America. All rights reserved.
##DATE=Not specified, most likely prior to 1970
##NAMES=methyl 3-[(3-methyl-2-pyrazinyl)oxy]benzoate
##MOLFORM=C13 H12 N2 O3
##MP=74.5 C
##SOURCE REFERENCE=COBLENTZ NO. 3290
##$NIST ID=B6003290
##$NIST SOURCE=COBLENTZ
##$NIST IMAGE=cob3290
##SPECTROMETER/DATA SYSTEM=Not specified, most likely a prism, grating, or hybrid spectrometer.
##STATE=SOLID (MINERAL OIL MULL)
##PATH LENGTH=
$$SPECTRAL CONTAMINATION DUE TO OIL AROUND 2900 CM^-^1
##SAMPLING PROCEDURE=TRANSMISSION
##RESOLUTION=4
##DATA PROCESSING=DIGITIZED BY NIST FROM HARD COPY
##XUNITS=MICROMETERS
##YUNITS=TRANSMITTANCE
##XFACTOR=1.000000
##YFACTOR=1
##DELTAX=000.006819
##FIRSTX=2.02
##LASTX=15.9866
##FIRSTY=0.791
##MAXX=15.9866
##MINX=2.02
##MAXY=1
##MINY=0.078
##NPOINTS=2049
##XYDATA=(X++(Y..Y))
2.020000 0.7910 0.7930 0.7940 0.7960 0.7980
2.054113 0.7980 0.7980 0.7980 0.8000 0.8000
2.089000 0.8000 0.8010 0.8030 0.8060 0.8080
2.123113 0.8100 0.8100 0.8080 0.8080 0.8050
2.157000 0.8050 0.8050 0.8030 0.8030 0.8030
2.191113 0.8050 0.8050 0.8050 0.8030 0.8010
2.225000 0.8010 0.8000 0.8000 0.8010 0.8010
2.259113 0.8050 0.8060 0.8110 0.8130 0.8130
2.293000 0.8150 0.8200 0.8270 0.8270 0.8270
2.327113 0.8220 0.8220 0.8230 0.8230 0.8230
2.361000 0.8220 0.8220 0.8220 0.8220 0.8250
2.395113 0.8270 0.8350 0.8390 0.8390 0.8390
2.430000 0.8390 0.8390 0.8390 0.8390 0.8390
2.464113 0.8370 0.8370 0.8350 0.8340 0.8320
2.498000 0.8320 0.8390 0.8460 0.8470 0.8490
2.532113 0.8520 0.8520 0.8490 0.8490 0.8510
2.566000 0.8540 0.8580 0.8580 0.8580 0.8560
2.600113 0.8540 0.8520 0.8510 0.8520 0.8560
2.634000 0.8590 0.8630 0.8660 0.8660 0.8610
2.668113 0.8610 0.8610 0.8610 0.8610 0.8610
2.702000 0.8630 0.8630 0.8630 0.8630 0.8630
2.736113 0.8630 0.8630 0.8630 0.8630 0.8630
2.771000 0.8630 0.8630 0.8610 0.8580 0.8520
2.805113 0.8470 0.8440 0.8440 0.8460 0.8470
2.839000 0.8460 0.8440 0.8410 0.8390 0.8390
2.873113 0.8390 0.8390 0.8350 0.8320 0.8300
2.907000 0.8290 0.8270 0.8230 0.8220 0.8220
2.941113 0.8220 0.8220 0.8220 0.8220 0.8230
2.975000 0.8250 0.8250 0.8230 0.8230 0.8220
3.009113 0.8200 0.8200 0.8180 0.8180 0.8180
3.043000 0.8180 0.8180 0.8180 0.8200 0.8200
3.077113 0.8220 0.8200 0.8200 0.8180 0.8130
3.112000 0.8110 0.8110 0.8130 0.8170 0.8180
3.146113 0.8180 0.8180 0.8150 0.8130 0.8110
3.180000 0.8110 0.8110 0.8110 0.8100 0.8080
3.214113 0.8060 0.8050 0.7960 0.7720 0.7580
3.248000 0.7550 0.7580 0.7620 0.7700 0.7690
3.282113 0.7620 0.7500 0.7290 0.7050 0.6730
3.316000 0.6350 0.5930 0.5470 0.4940 0.4350
3.350113 0.3620 0.2820 0.2050 0.1430 0.1410
3.384000 0.1410 0.1410 0.1400 0.1330 0.1290
3.418113 0.1310 0.1650 0.1960 0.2250 0.2560
3.453000 0.2880 0.3140 0.3190 0.3190 0.3140
3.487113 0.2880 0.2850 0.2870 0.3160 0.3700
3.521000 0.4440 0.5350 0.6350 0.7140 0.7620
3.555113 0.7910 0.8000 0.8060 0.8170 0.8230
3.589000 0.8290 0.8350 0.8410 0.8440 0.8470
3.623113 0.8490 0.8510 0.8510 0.8520 0.8520
3.657000 0.8540 0.8520 0.8510 0.8490 0.8490
3.691113 0.8520 0.8560 0.8610 0.8630 0.8660
3.725000 0.8710 0.8730 0.8760 0.8750 0.8750
3.759113 0.8730 0.8730 0.8760 0.8780 0.8800
3.793000 0.8820 0.8850 0.8880 0.8880 0.8880
3.827113 0.8880 0.8880 0.8880 0.8880 0.8900
3.862000 0.8940 0.8990 0.9000 0.9020 0.9020
3.896113 0.9020 0.9020 0.9020 0.9020 0.9020
3.930000 0.9040 0.9040 0.9090 0.9110 0.9120
3.964113 0.9120 0.9120 0.9120 0.9120 0.9110
3.998000 0.9110 0.9170 0.9170 0.9110 0.9070
4.032113 0.9070 0.9050 0.9020 0.9020 0.9050
4.066000 0.9090 0.9000 0.9000 0.8970 0.8940
4.100113 0.8950 0.8990 0.9000 0.9020 0.9020
4.134000 0.9020 0.9000 0.9000 0.9000 0.9000
4.168113 0.9000 0.9020 0.9040 0.9040 0.9050
4.203000 0.9070 0.9050 0.9040 0.9000 0.8950
4.237113 0.8900 0.8870 0.8830 0.8830 0.8880
4.271000 0.8950 0.9000 0.9110 0.9170 0.9230
4.305113 0.9240 0.9260 0.9310 0.9330 0.9350
4.339000 0.9360 0.9380 0.9380 0.9400 0.9400
4.373113 0.9400 0.9410 0.9410 0.9410 0.9410
4.407000 0.9410 0.9400 0.9400 0.9380 0.9330
4.441113 0.9310 0.9290 0.9290 0.9310 0.9330
4.475000 0.9360 0.9360 0.9350 0.9330 0.9330
4.509113 0.9360 0.9410 0.9430 0.9450 0.9450
4.544000 0.9480 0.9480 0.9480 0.9430 0.9450
4.578113 0.9470 0.9470 0.9480 0.9480 0.9500
4.612000 0.9500 0.9500 0.9480 0.9430 0.9410
4.646113 0.9430 0.9430 0.9430 0.9430 0.9430
4.680000 0.9430 0.9430 0.9430 0.9430 0.9450
4.714113 0.9450 0.9480 0.9470 0.9480 0.9480
4.748000 0.9480 0.9500 0.9530 0.9570 0.9600
4.782113 0.9640 0.9690 0.9700 0.9700 0.9700
4.816000 0.9700 0.9700 0.9690 0.9690 0.9670
4.850113 0.9650 0.9650 0.9650 0.9670 0.9670
4.885000 0.9690 0.9700 0.9690 0.9640 0.9640
4.919113 0.9720 0.9720 0.9740 0.9740 0.9760
4.953000 0.9760 0.9760 0.9760 0.9760 0.9770
4.987113 0.9770 0.9770 0.9790 0.9810 0.9860
5.021000 0.9880 0.9880 0.9860 0.9810 0.9770
5.055113 0.9760 0.9770 0.9790 0.9810 0.9810
5.089000 0.9820 0.9820 0.9770 0.9700 0.9700
5.123113 0.9720 0.9720 0.9720 0.9720 0.9720
5.157000 0.9700 0.9700 0.9700 0.9700 0.9720
5.191113 0.9760 0.9760 0.9720 0.9720 0.9720
5.226000 0.9700 0.9720 0.9720 0.9740 0.9740
5.260113 0.9740 0.9740 0.9740 0.9740 0.9740
5.294000 0.9740 0.9740 0.9760 0.9790 0.9840
5.328113 0.9890 0.9910 0.9930 0.9910 0.9860
5.362000 0.9840 0.9840 0.9860 0.9930 1.0000
5.396113 0.9930 0.9890 0.9860 0.9890 0.9880
5.430000 0.9840 0.9820 0.9820 0.9820 0.9820
5.464113 0.9810 0.9760 0.9700 0.9700 0.9740
5.498000 0.9810 0.9810 0.9770 0.9740 0.9700
5.532113 0.9690 0.9650 0.9620 0.9570 0.9520
5.566000 0.9480 0.9450 0.9410 0.9400 0.9410
5.600113 0.9410 0.9400 0.9360 0.9350 0.9310
5.635000 0.9290 0.9310 0.9350 0.9400 0.9410
5.669113 0.9400 0.9330 0.9260 0.9160 0.9040
5.703000 0.8830 0.8560 0.8230 0.7720 0.6900
5.737113 0.6060 0.5040 0.3890 0.2940 0.1700
5.771000 0.1530 0.1700 0.3050 0.3450 0.5020
5.805113 0.6200 0.6640 0.7160 0.7410 0.7500
5.839000 0.7570 0.7690 0.7790 0.7960 0.8050
5.873113 0.8200 0.8290 0.8370 0.8390 0.8350
5.907000 0.8290 0.8270 0.8270 0.8250 0.8200
5.941113 0.8150 0.8150 0.8220 0.8290 0.8350
5.976000 0.8410 0.8420 0.8440 0.8510 0.8520
6.010113 0.8520 0.8420 0.8420 0.8460 0.8580
6.044000 0.8580 0.8580 0.8510 0.8510 0.8510
6.078113 0.8560 0.8630 0.8640 0.8660 0.8660
6.112000 0.8680 0.8710 0.8710 0.8730 0.8730
6.146113 0.8730 0.8710 0.8610 0.8540 0.8520
6.180000 0.8460 0.8370 0.8250 0.7860 0.7360
6.214113 0.7110 0.6700 0.6150 0.5620 0.4990
6.248000 0.4870 0.4870 0.5380 0.6320 0.6870
6.282113 0.7170 0.7480 0.7890 0.8130 0.8250
6.317000 0.8470 0.8640 0.8710 0.8730 0.8730
6.351113 0.8750 0.8750 0.8780 0.8780 0.8780
6.385000 0.8780 0.8750 0.8660 0.8490 0.8300
6.419113 0.8080 0.7890 0.7580 0.7110 0.6590
6.453000 0.6030 0.5190 0.4920 0.4920 0.5360
6.487113 0.6440 0.7190 0.7620 0.7840 0.8010
6.521000 0.8130 0.8250 0.8390 0.8510 0.8630
6.555113 0.8760 0.8780 0.8730 0.8710 0.8700
6.589000 0.8680 0.8630 0.8420 0.8390 0.8230
6.623113 0.8110 0.8050 0.7980 0.7840 0.7600
6.658000 0.7430 0.7210 0.6830 0.6250 0.5600
6.692113 0.4750 0.3700 0.3520 0.3700 0.4510
6.726000 0.5190 0.5650 0.6010 0.6080 0.6080
6.760113 0.6000 0.5520 0.5140 0.4880 0.4610
6.794000 0.4370 0.4100 0.3980 0.3890 0.3880
6.828113 0.3820 0.3790 0.3760 0.3700 0.3530
6.862000 0.3350 0.3070 0.2640 0.2270 0.1980
6.896113 0.1760 0.1720 0.1790 0.2030 0.2230
6.930000 0.2470 0.2820 0.3160 0.3500 0.3740
6.964113 0.3880 0.4010 0.4030 0.4010 0.3810
6.999000 0.3700 0.3550 0.3430 0.3280 0.3160
7.033113 0.3070 0.2900 0.2710 0.2470 0.2230
7.067000 0.1960 0.1690 0.1530 0.1360 0.1210
7.101113 0.0990 0.0970 0.0990 0.1070 0.1260
7.135000 0.1580 0.1930 0.2460 0.3160 0.3640
7.169113 0.3910 0.4220 0.4470 0.4630 0.4780
7.203000 0.4850 0.4850 0.4800 0.4640 0.4470
7.237113 0.4270 0.3940 0.3790 0.3740 0.3810
7.271000 0.4370 0.5050 0.5600 0.6060 0.6300
7.305113 0.6440 0.6680 0.6920 0.7170 0.7400
7.340000 0.7600 0.7740 0.7770 0.7810 0.7890
7.374113 0.7910 0.7930 0.7930 0.7930 0.7910
7.408000 0.7910 0.7910 0.7910 0.7890 0.7840
7.442113 0.7770 0.7700 0.7620 0.7520 0.7410
7.476000 0.7290 0.7140 0.6970 0.6760 0.6520
7.510113 0.6320 0.6130 0.5960 0.5820 0.5690
7.544000 0.5550 0.5400 0.5260 0.5090 0.4940
7.578113 0.4660 0.4320 0.4010 0.3410 0.2920
7.612000 0.2750 0.2630 0.2510 0.2370 0.2130
7.646113 0.1810 0.1470 0.1210 0.1040 0.0950
7.680000 0.0820 0.0780 0.0800 0.0820 0.0950
7.714113 0.1050 0.1210 0.1350 0.1400 0.1410
7.749000 0.1400 0.1380 0.1350 0.1350 0.1480
7.783113 0.1940 0.2320 0.2900 0.3650 0.4200
7.817000 0.4290 0.4290 0.4100 0.3120 0.2490
7.851113 0.1840 0.1240 0.0880 0.0830 0.0880
7.885000 0.1280 0.1580 0.1820 0.2100 0.2460
7.919113 0.2900 0.3410 0.3880 0.4250 0.4440
7.953000 0.4680 0.4850 0.4990 0.5000 0.5050
7.987113 0.5170 0.5330 0.5450 0.5580 0.5720
8.021000 0.5860 0.6000 0.6110 0.6270 0.6440
8.055113 0.6510 0.6510 0.6520 0.6560 0.6590
8.090000 0.6630 0.6610 0.6580 0.6490 0.6410
8.124113 0.6300 0.6100 0.5790 0.5470 0.5110
8.158000 0.4760 0.4490 0.4300 0.4220 0.4060
8.192113 0.3980 0.3790 0.3210 0.2830 0.2390
8.226000 0.1930 0.1580 0.1360 0.1350 0.1400
8.260113 0.1620 0.1930 0.2290 0.2590 0.2830
8.294000 0.2970 0.3190 0.3580 0.3940 0.4300
8.328113 0.4700 0.5000 0.5290 0.5530 0.5770
8.362000 0.6010 0.6250 0.6390 0.6460 0.6490
8.396113 0.6540 0.6590 0.6580 0.6560 0.6460
8.431000 0.6300 0.6050 0.5690 0.5240 0.4800
8.465113 0.4290 0.3760 0.3640 0.3670 0.4130
8.499000 0.4730 0.5350 0.5770 0.6080 0.6130
8.533113 0.6130 0.6080 0.5640 0.5170 0.4490
8.567000 0.3760 0.3050 0.2560 0.2350 0.2300
8.601113 0.2290 0.2290 0.2200 0.2000 0.1980
8.635000 0.1980 0.2000 0.2490 0.2920 0.3330
8.669113 0.3640 0.3960 0.4340 0.4700 0.5070
8.703000 0.5400 0.5700 0.5940 0.6100 0.6290
8.737113 0.6420 0.6560 0.6660 0.6760 0.6870
8.772000 0.6950 0.7050 0.7170 0.7210 0.7240
8.806113 0.7290 0.7350 0.7380 0.7410 0.7430
8.840000 0.7430 0.7410 0.7430 0.7480 0.7500
8.874113 0.7520 0.7520 0.7520 0.7530 0.7570
8.908000 0.7620 0.7690 0.7740 0.7740 0.7760
8.942113 0.7760 0.7740 0.7740 0.7740 0.7760
8.976000 0.7770 0.7790 0.7810 0.7790 0.7770
9.010113 0.7720 0.7670 0.7600 0.7520 0.7350
9.044000 0.6970 0.6590 0.6100 0.5740 0.5240
9.078113 0.5120 0.5120 0.5210 0.5760 0.6130
9.113000 0.6510 0.6750 0.6920 0.7000 0.7050
9.147113 0.7070 0.7050 0.6950 0.6710 0.6340
9.181000 0.5930 0.5360 0.4940 0.4130 0.3450
9.215113 0.3140 0.2940 0.2900 0.2940 0.3170
9.249000 0.3550 0.4030 0.4580 0.5110 0.5600
9.283113 0.5930 0.6150 0.6340 0.6470 0.6610
9.317000 0.6730 0.6830 0.6880 0.6970 0.7040
9.351113 0.7140 0.7230 0.7330 0.7400 0.7470
9.385000 0.7500 0.7530 0.7570 0.7580 0.7600
9.419113 0.7620 0.7670 0.7700 0.7720 0.7770
9.453000 0.7790 0.7770 0.7790 0.7820 0.7840
9.487113 0.7840 0.7840 0.7860 0.7910 0.8000
9.522000 0.7910 0.7890 0.7890 0.7890 0.7910
9.556113 0.7910 0.7890 0.7890 0.7880 0.7860
9.590000 0.7860 0.7860 0.7860 0.7860 0.7840
9.624113 0.7810 0.7740 0.7720 0.7690 0.7650
9.658000 0.7620 0.7600 0.7580 0.7570 0.7530
9.692113 0.7520 0.7520 0.7580 0.7620 0.7620
9.726000 0.7650 0.7670 0.7690 0.7700 0.7700
9.760113 0.7720 0.7760 0.7770 0.7790 0.7840
9.794000 0.7880 0.7910 0.7890 0.7880 0.7860
9.828113 0.7810 0.7820 0.7860 0.7880 0.7880
9.863000 0.7890 0.7890 0.7890 0.7890 0.7910
9.897113 0.7890 0.7880 0.7860 0.7860 0.7840
9.931000 0.7740 0.7620 0.7500 0.7350 0.7190
9.965113 0.7090 0.7050 0.7090 0.7160 0.7310
9.999000 0.7430 0.7530 0.7650 0.7650 0.7600
10.033113 0.7500 0.7400 0.7360 0.7360 0.7380
10.067000 0.7380 0.7380 0.7380 0.7400 0.7400
10.101113 0.7380 0.7330 0.7210 0.7040 0.6870
10.135000 0.6640 0.6370 0.6050 0.5690 0.5290
10.169113 0.4870 0.4320 0.3890 0.3380 0.3090
10.204000 0.2640 0.2540 0.2560 0.2660 0.2850
10.238113 0.3090 0.3350 0.3600 0.3880 0.4130
10.272000 0.4410 0.4660 0.4920 0.5160 0.5400
10.306113 0.5600 0.5770 0.5940 0.6060 0.6150
10.340000 0.6270 0.6370 0.6420 0.6490 0.6560
10.374113 0.6610 0.6660 0.6750 0.6820 0.6880
10.408000 0.6970 0.6990 0.7020 0.7160 0.7230
10.442113 0.7280 0.7290 0.7310 0.7350 0.7380
10.476000 0.7450 0.7480 0.7500 0.7500 0.7520
10.510113 0.7530 0.7570 0.7640 0.7670 0.7670
10.545000 0.7670 0.7670 0.7670 0.7690 0.7720
10.579113 0.7760 0.7770 0.7790 0.7810 0.7820
10.613000 0.7840 0.7860 0.7860 0.7860 0.7880
10.647113 0.7880 0.7860 0.7840 0.7840 0.7860
10.681000 0.7880 0.7880 0.7860 0.7760 0.7690
10.715113 0.7580 0.7450 0.7260 0.7050 0.6920
10.749000 0.6700 0.6660 0.6660 0.6780 0.7000
10.783113 0.7230 0.7360 0.7470 0.7640 0.7760
10.817000 0.7820 0.7910 0.7980 0.8010 0.8050
10.851113 0.8170 0.8180 0.8200 0.8230 0.8250
10.886000 0.8270 0.8270 0.8270 0.8270 0.8290
10.920113 0.8300 0.8320 0.8320 0.8340 0.8350
10.954000 0.8370 0.8390 0.8390 0.8390 0.8410
10.988113 0.8420 0.8440 0.8460 0.8470 0.8490
11.022000 0.8510 0.8540 0.8540 0.8540 0.8560
11.056113 0.8580 0.8590 0.8590 0.8580 0.8540
11.090000 0.8540 0.8520 0.8510 0.8490 0.8470
11.124113 0.8440 0.8410 0.8370 0.8340 0.8270
11.158000 0.8180 0.8030 0.7890 0.7580 0.7240
11.192113 0.6850 0.6300 0.5690 0.5050 0.4580
11.226000 0.4410 0.4390 0.4510 0.5280 0.5940
11.260113 0.6730 0.7290 0.7700 0.7940 0.8080
11.295000 0.8170 0.8250 0.8340 0.8440 0.8510
11.329113 0.8540 0.8580 0.8590 0.8610 0.8630
11.363000 0.8640 0.8660 0.8680 0.8700 0.8680
11.397113 0.8680 0.8660 0.8660 0.8640 0.8630
11.431000 0.8560 0.8470 0.8410 0.8370 0.8340
11.465113 0.8300 0.8250 0.8200 0.8080 0.7940
11.499000 0.7760 0.7550 0.7450 0.7260 0.7190
11.533113 0.7170 0.7190 0.7260 0.7400 0.7520
11.567000 0.7570 0.7640 0.7670 0.7670 0.7640
11.601113 0.7450 0.7190 0.6950 0.6610 0.6250
11.636000 0.5910 0.5470 0.5120 0.4830 0.4780
11.670113 0.4820 0.5020 0.5350 0.5760 0.6300
11.704000 0.6900 0.7240 0.7580 0.7840 0.8060
11.738113 0.8270 0.8390 0.8470 0.8510 0.8610
11.772000 0.8700 0.8730 0.8820 0.8920 0.8970
11.806113 0.9000 0.9020 0.9040 0.9070 0.9090
11.840000 0.9090 0.9070 0.9070 0.9070 0.9070
11.874113 0.9070 0.9090 0.9110 0.9110 0.9120
11.908000 0.9140 0.9170 0.9190 0.9190 0.9190
11.942113 0.9190 0.9190 0.9210 0.9230 0.9230
11.977000 0.9230 0.9240 0.9260 0.9290 0.9280
12.011113 0.9260 0.9230 0.9190 0.9170 0.9170
12.045000 0.9190 0.9230 0.9260 0.9290 0.9290
12.079113 0.9280 0.9280 0.9280 0.9280 0.9280
12.113000 0.9260 0.9260 0.9240 0.9240 0.9240
12.147113 0.9260 0.9290 0.9330 0.9330 0.9280
12.181000 0.9240 0.9210 0.9190 0.9190 0.9190
12.215113 0.9190 0.9170 0.9160 0.9120 0.9070
12.249000 0.9020 0.8970 0.8950 0.8900 0.8780
12.283113 0.8700 0.8520 0.8390 0.8290 0.8110
12.318000 0.7940 0.7860 0.7770 0.7690 0.7620
12.352113 0.7620 0.7770 0.7960 0.8100 0.8250
12.386000 0.8370 0.8440 0.8470 0.8470 0.8510
12.420113 0.8540 0.8580 0.8680 0.8750 0.8780
12.454000 0.8760 0.8730 0.8610 0.8460 0.8230
12.488113 0.7930 0.7450 0.6830 0.6300 0.5790
12.522000 0.5310 0.4950 0.4750 0.4710 0.4710
12.556113 0.5190 0.5790 0.6420 0.6940 0.7380
12.590000 0.7690 0.7930 0.8180 0.8350 0.8470
12.624113 0.8540 0.8630 0.8710 0.8780 0.8820
12.659000 0.8850 0.8900 0.8940 0.8940 0.8940
12.693113 0.8940 0.8950 0.8970 0.8970 0.8940
12.727000 0.8880 0.8830 0.8760 0.8710 0.8640
12.761113 0.8460 0.8130 0.7880 0.7720 0.7620
12.795000 0.7450 0.7120 0.7000 0.7000 0.7070
12.829113 0.7170 0.7310 0.7520 0.7740 0.8000
12.863000 0.8200 0.8350 0.8510 0.8610 0.8660
12.897113 0.8710 0.8750 0.8760 0.8780 0.8780
12.931000 0.8820 0.8830 0.8830 0.8850 0.8870
12.965113 0.8880 0.8880 0.8880 0.8900 0.8880
13.000000 0.8870 0.8830 0.8760 0.8730 0.8700
13.034113 0.8680 0.8590 0.8490 0.8370 0.8200
13.068000 0.8000 0.7820 0.7650 0.7480 0.7290
13.102113 0.7190 0.7160 0.7160 0.7210 0.7290
13.136000 0.7470 0.7620 0.7790 0.8010 0.8170
13.170113 0.8200 0.8270 0.8300 0.8370 0.8420
13.204000 0.8460 0.8460 0.8460 0.8460 0.8460
13.238113 0.8420 0.8370 0.8290 0.8230 0.8180
13.272000 0.8130 0.8060 0.8000 0.7890 0.7760
13.306113 0.7640 0.7450 0.7170 0.6900 0.6660
13.340000 0.6410 0.6150 0.5820 0.5570 0.5330
13.374113 0.5040 0.4850 0.4590 0.4320 0.4130
13.409000 0.3860 0.3530 0.3330 0.3040 0.2730
13.443113 0.2470 0.2300 0.2220 0.2150 0.2110
13.477000 0.2080 0.2110 0.2270 0.2540 0.2870
13.511113 0.3230 0.3620 0.3940 0.4250 0.4640
13.545000 0.5120 0.5360 0.5690 0.6000 0.6350
13.579113 0.6580 0.6760 0.7040 0.7260 0.7480
13.613000 0.7740 0.7860 0.8000 0.8100 0.8200
13.647113 0.8340 0.8510 0.8540 0.8560 0.8580
13.681000 0.8660 0.8710 0.8800 0.8830 0.8830
13.715113 0.8850 0.8850 0.8880 0.8920 0.8950
13.750000 0.8940 0.8950 0.8970 0.8970 0.8990
13.784113 0.9000 0.9050 0.9070 0.9070 0.9070
13.818000 0.9090 0.9090 0.9090 0.9090 0.9110
13.852113 0.9110 0.9070 0.9070 0.9090 0.9110
13.886000 0.9120 0.9140 0.9120 0.9120 0.9120
13.920113 0.9110 0.9110 0.9120 0.9140 0.9160
13.954000 0.9170 0.9170 0.9210 0.9240 0.9290
13.988113 0.9290 0.9290 0.9280 0.9290 0.9280
14.022000 0.9290 0.9290 0.9290 0.9310 0.9290
14.056113 0.9310 0.9330 0.9350 0.9350 0.9350
14.091000 0.9350 0.9350 0.9350 0.9350 0.9360
14.125113 0.9360 0.9380 0.9380 0.9380 0.9380
14.159000 0.9380 0.9400 0.9430 0.9430 0.9410
14.193113 0.9410 0.9400 0.9380 0.9380 0.9380
14.227000 0.9400 0.9400 0.9410 0.9410 0.9430
14.261113 0.9400 0.9380 0.9350 0.9330 0.9330
14.295000 0.9350 0.9350 0.9350 0.9350 0.9350
14.329113 0.9330 0.9330 0.9330 0.9330 0.9310
14.363000 0.9310 0.9330 0.9290 0.9260 0.9260
14.397113 0.9280 0.9290 0.9310 0.9290 0.9260
14.432000 0.9230 0.9210 0.9210 0.9190 0.9190
14.466113 0.9190 0.9170 0.9160 0.9090 0.9070
14.500000 0.9040 0.8940 0.8850 0.8730 0.8640
14.534113 0.8590 0.8490 0.8350 0.8220 0.8110
14.568000 0.7930 0.7650 0.7430 0.7260 0.7140
14.602113 0.7000 0.6870 0.6700 0.6580 0.6520
14.636000 0.6510 0.6510 0.6520 0.6580 0.6680
14.670113 0.6870 0.7000 0.7160 0.7310 0.7550
14.704000 0.7760 0.7840 0.7960 0.8060 0.8230
14.738113 0.8410 0.8490 0.8520 0.8540 0.8560
14.773000 0.8580 0.8610 0.8610 0.8590 0.8580
14.807113 0.8560 0.8470 0.8410 0.8300 0.8220
14.841000 0.8130 0.8060 0.7980 0.7930 0.7910
14.875113 0.7860 0.7720 0.7640 0.7600 0.7570
14.909000 0.7550 0.7520 0.7470 0.7400 0.7380
14.943113 0.7380 0.7380 0.7380 0.7400 0.7410
14.977000 0.7410 0.7430 0.7470 0.7520 0.7580
15.011113 0.7670 0.7690 0.7690 0.7700 0.7720
15.045000 0.7810 0.7960 0.8010 0.8080 0.8130
15.079113 0.8200 0.8270 0.8370 0.8470 0.8560
15.113000 0.8610 0.8700 0.8800 0.8880 0.8900
15.147113 0.8900 0.8900 0.8900 0.8900 0.8920
15.182000 0.8920 0.8900 0.8900 0.8920 0.8940
15.216113 0.8940 0.8900 0.8880 0.8880 0.8870
15.250000 0.8870 0.8850 0.8830 0.8780 0.8750
15.284113 0.8730 0.8700 0.8680 0.8640 0.8630
15.318000 0.8630 0.8630 0.8630 0.8640 0.8660
15.352113 0.8680 0.8680 0.8680 0.8680 0.8680
15.386000 0.8680 0.8660 0.8640 0.8630 0.8630
15.420113 0.8630 0.8630 0.8630 0.8610 0.8610
15.454000 0.8590 0.8560 0.8520 0.8510 0.8510
15.488113 0.8490 0.8470 0.8460 0.8440 0.8440
15.523000 0.8420 0.8420 0.8410 0.8390 0.8350
15.557113 0.8340 0.8340 0.8340 0.8320 0.8290
15.591000 0.8270 0.8250 0.8250 0.8250 0.8250
15.625113 0.8270 0.8270 0.8250 0.8230 0.8230
15.659000 0.8230 0.8220 0.8200 0.8180 0.8170
15.693113 0.8170 0.8150 0.8130 0.8110 0.8100
15.727000 0.8100 0.8080 0.8060 0.8050 0.8010
15.761113 0.8010 0.8000 0.7980 0.7940 0.7940
15.795000 0.7910 0.7860 0.7790 0.7770 0.7770
15.829113 0.7760 0.7760 0.7760 0.7760 0.7740
15.864000 0.7720 0.7720 0.7720 0.7720 0.7720
15.898113 0.7720 0.7720 0.7720 0.7720 0.7700
15.932000 0.7700 0.7700 0.7670 0.7650 0.7650
15.966113 0.7650 0.7650 0.7670 0.7690
##END=
