##TITLE=ETHYLDIBORANE
##JCAMP-DX=4.24
##DATA TYPE=INFRARED SPECTRUM
##CLASS=COBLENTZ
##ORIGIN=KALLERY CHEMICAL COMPANY
##OWNER=COBLENTZ SOCIETY
Collection (C) 2018 copyright by the U.S. Secretary of Commerce
on behalf of the United States of America. All rights reserved.
##DATE=1960
##MOLFORM=C2 H10 B2
##SOURCE REFERENCE=COBLENTZ NO. 831
##$NIST ID=B6000831
##$NIST SOURCE=COBLENTZ
##$NIST IMAGE=cob831
##SPECTROMETER/DATA SYSTEM=Not specified, most likely a prism, grating, or hybrid spectrometer.
##STATE=VAPOR AT 30 mmHg PRESSURE; $$ B2H6 IMPURITY
##PATH LENGTH=5 CM
##SAMPLING PROCEDURE=TRANSMISSION
##RESOLUTION=4
##DATA PROCESSING=DIGITIZED BY NIST FROM HARD COPY
##XUNITS=MICROMETERS
##YUNITS=TRANSMITTANCE
##XFACTOR=1.000000
##YFACTOR=1
##DELTAX=000.006780
##FIRSTX=2.014
##LASTX=15.4845
##FIRSTY=0.841
##MAXX=15.4845
##MINX=2.014
##MAXY=0.859
##MINY=0.006
##NPOINTS=1988
##XYDATA=(X++(Y..Y))
2.014000 0.8410 0.8410 0.8410 0.8410 0.8420
2.047915 0.8420 0.8420 0.8420 0.8420 0.8420
2.081000 0.8440 0.8440 0.8440 0.8440 0.8440
2.114915 0.8440 0.8440 0.8460 0.8460 0.8460
2.149000 0.8470 0.8460 0.8460 0.8460 0.8470
2.182915 0.8460 0.8460 0.8440 0.8460 0.8440
2.217000 0.8440 0.8440 0.8440 0.8420 0.8420
2.250915 0.8420 0.8440 0.8440 0.8460 0.8460
2.285000 0.8460 0.8470 0.8460 0.8460 0.8460
2.318915 0.8460 0.8460 0.8460 0.8460 0.8460
2.353000 0.8460 0.8460 0.8460 0.8460 0.8460
2.386915 0.8460 0.8460 0.8460 0.8460 0.8460
2.420000 0.8460 0.8460 0.8460 0.8460 0.8460
2.453915 0.8460 0.8460 0.8440 0.8460 0.8460
2.488000 0.8460 0.8460 0.8460 0.8460 0.8460
2.521915 0.8460 0.8460 0.8460 0.8460 0.8460
2.556000 0.8460 0.8460 0.8460 0.8460 0.8460
2.589915 0.8460 0.8460 0.8460 0.8460 0.8460
2.624000 0.8440 0.8420 0.8410 0.8210 0.8110
2.657915 0.8020 0.7940 0.7890 0.7840 0.7700
2.692000 0.7690 0.7700 0.7740 0.7750 0.7800
2.725915 0.7890 0.7940 0.7970 0.8040 0.8090
2.759000 0.8160 0.8210 0.8270 0.8310 0.8340
2.792915 0.8360 0.8370 0.8410 0.8410 0.8410
2.827000 0.8410 0.8410 0.8410 0.8440 0.8460
2.860915 0.8460 0.8470 0.8460 0.8460 0.8460
2.895000 0.8440 0.8440 0.8440 0.8420 0.8420
2.928915 0.8470 0.8470 0.8490 0.8490 0.8490
2.963000 0.8470 0.8470 0.8490 0.8490 0.8490
2.996915 0.8490 0.8490 0.8490 0.8510 0.8520
3.031000 0.8520 0.8590 0.8590 0.8540 0.8510
3.064915 0.8470 0.8460 0.8460 0.8460 0.8440
3.098000 0.8420 0.8420 0.8440 0.8470 0.8470
3.131915 0.8460 0.8460 0.8420 0.8410 0.8390
3.166000 0.8390 0.8390 0.8370 0.8360 0.8360
3.199915 0.8320 0.8340 0.8340 0.8360 0.8360
3.234000 0.8370 0.8370 0.8360 0.8360 0.8220
3.267915 0.7900 0.7440 0.6970 0.6500 0.6030
3.302000 0.5560 0.5100 0.4590 0.4610 0.4960
3.335915 0.5050 0.5130 0.5300 0.5450 0.5550
3.369000 0.5650 0.5680 0.5700 0.5750 0.5780
3.402915 0.5850 0.5930 0.6170 0.6520 0.6780
3.437000 0.7290 0.7450 0.7540 0.7590 0.7790
3.470915 0.7940 0.7990 0.8040 0.8090 0.8090
3.505000 0.8060 0.8060 0.8060 0.8090 0.8110
3.538915 0.8140 0.8160 0.8170 0.8190 0.8190
3.573000 0.8190 0.8190 0.8170 0.8140 0.8140
3.606915 0.8140 0.8140 0.8140 0.8160 0.8210
3.641000 0.8260 0.8260 0.8270 0.8260 0.8210
3.674915 0.8170 0.8060 0.7950 0.7840 0.7690
3.708000 0.7590 0.7470 0.7370 0.7050 0.6720
3.741915 0.6650 0.6250 0.6000 0.5810 0.5110
3.776000 0.4330 0.4190 0.4040 0.4030 0.2970
3.809915 0.2600 0.2600 0.2620 0.2790 0.3490
3.844000 0.3820 0.4040 0.4180 0.4190 0.4190
3.877915 0.4110 0.3970 0.3770 0.3190 0.2970
3.912000 0.2800 0.2670 0.2490 0.2340 0.2200
3.945915 0.2150 0.2100 0.2070 0.2100 0.2400
3.980000 0.2650 0.2920 0.3890 0.5560 0.7240
4.013915 0.7370 0.7500 0.7640 0.7770 0.7900
4.047000 0.8010 0.8090 0.8190 0.8240 0.8270
4.080915 0.8310 0.8320 0.8360 0.8370 0.8370
4.115000 0.8370 0.8390 0.8390 0.8390 0.8390
4.148915 0.8390 0.8410 0.8410 0.8420 0.8420
4.183000 0.8420 0.8420 0.8420 0.8420 0.8420
4.216915 0.8420 0.8420 0.8440 0.8440 0.8440
4.251000 0.8440 0.8440 0.8440 0.8440 0.8440
4.284915 0.8420 0.8420 0.8410 0.8410 0.8410
4.319000 0.8420 0.8420 0.8440 0.8470 0.8490
4.352915 0.8490 0.8510 0.8510 0.8510 0.8510
4.386000 0.8510 0.8510 0.8510 0.8510 0.8520
4.419915 0.8520 0.8520 0.8520 0.8540 0.8540
4.454000 0.8540 0.8540 0.8540 0.8560 0.8560
4.487915 0.8570 0.8570 0.8570 0.8570 0.8570
4.522000 0.8570 0.8570 0.8570 0.8570 0.8560
4.555915 0.8560 0.8540 0.8560 0.8560 0.8560
4.590000 0.8560 0.8560 0.8560 0.8540 0.8540
4.623915 0.8520 0.8520 0.8490 0.8460 0.8420
4.658000 0.8420 0.8410 0.8390 0.8390 0.8370
4.691915 0.8360 0.8320 0.8320 0.8320 0.8340
4.725000 0.8360 0.8360 0.8370 0.8390 0.8390
4.758915 0.8390 0.8410 0.8420 0.8420 0.8420
4.793000 0.8420 0.8410 0.8390 0.8390 0.8390
4.826915 0.8370 0.8360 0.8360 0.8360 0.8340
4.861000 0.8360 0.8370 0.8390 0.8410 0.8410
4.894915 0.8420 0.8440 0.8440 0.8440 0.8420
4.929000 0.8420 0.8420 0.8410 0.8390 0.8410
4.962915 0.8420 0.8420 0.8440 0.8460 0.8460
4.997000 0.8460 0.8470 0.8460 0.8460 0.8460
5.030915 0.8460 0.8460 0.8460 0.8460 0.8460
5.064000 0.8460 0.8460 0.8460 0.8440 0.8440
5.097915 0.8420 0.8390 0.8390 0.8370 0.8360
5.132000 0.8340 0.8310 0.8290 0.8240 0.8190
5.165915 0.8110 0.8060 0.8040 0.8040 0.8020
5.200000 0.8020 0.8010 0.8010 0.8020 0.8020
5.233915 0.8020 0.8040 0.8060 0.8110 0.8160
5.268000 0.8160 0.8120 0.8120 0.8090 0.8060
5.301915 0.8020 0.8010 0.8010 0.8010 0.7990
5.336000 0.7990 0.7990 0.7970 0.7970 0.7970
5.369915 0.7950 0.7950 0.7950 0.7950 0.7950
5.403000 0.7950 0.7950 0.7970 0.7970 0.7990
5.436915 0.7990 0.7990 0.8010 0.8010 0.8060
5.471000 0.8090 0.8120 0.8170 0.8190 0.8220
5.504915 0.8240 0.8240 0.8260 0.8260 0.8260
5.539000 0.8260 0.8260 0.8240 0.8190 0.8160
5.572915 0.8140 0.8110 0.8090 0.8060 0.7940
5.607000 0.7790 0.7770 0.7700 0.7650 0.7600
5.640915 0.7600 0.7590 0.7570 0.7590 0.7620
5.675000 0.7620 0.7700 0.7750 0.7800 0.7900
5.708915 0.7950 0.8010 0.8060 0.8140 0.8160
5.742000 0.8170 0.8170 0.8170 0.8170 0.8190
5.775915 0.8210 0.8220 0.8220 0.8210 0.8210
5.810000 0.8190 0.8170 0.8160 0.8110 0.8060
5.843915 0.8020 0.7990 0.7900 0.7890 0.7820
5.878000 0.7750 0.7690 0.7590 0.7550 0.7470
5.911915 0.7440 0.7420 0.7420 0.7440 0.7440
5.946000 0.7440 0.7440 0.7470 0.7490 0.7550
5.979915 0.7570 0.7590 0.7600 0.7600 0.7540
6.014000 0.7470 0.7470 0.7370 0.7320 0.7240
6.047915 0.7090 0.6850 0.6650 0.6480 0.6250
6.081000 0.5950 0.5510 0.4030 0.2870 0.2740
6.114915 0.2650 0.2540 0.2420 0.2300 0.2170
6.149000 0.2170 0.2050 0.1750 0.1500 0.1250
6.182915 0.0980 0.0830 0.0710 0.0580 0.0480
6.217000 0.0380 0.0260 0.0210 0.0080 0.0060
6.250915 0.0060 0.0060 0.0060 0.0060 0.0060
6.285000 0.0060 0.0060 0.0060 0.0060 0.0080
6.318915 0.0100 0.0130 0.0160 0.0210 0.0260
6.353000 0.0350 0.0630 0.0850 0.1000 0.1150
6.386915 0.1270 0.1420 0.1580 0.1780 0.2070
6.420000 0.2300 0.2500 0.2720 0.2870 0.2940
6.453915 0.2970 0.3170 0.3420 0.3520 0.3590
6.488000 0.3820 0.4140 0.4390 0.4510 0.4540
6.521915 0.4680 0.4790 0.4940 0.5030 0.5110
6.556000 0.5280 0.5500 0.5700 0.5880 0.6050
6.589915 0.6220 0.6370 0.6500 0.6620 0.6730
6.624000 0.6780 0.6900 0.6980 0.7050 0.7200
6.657915 0.7250 0.7300 0.7350 0.7370 0.7400
6.692000 0.7450 0.7470 0.7470 0.7490 0.7490
6.725915 0.7490 0.7490 0.7490 0.7470 0.7450
6.759000 0.7400 0.7350 0.7340 0.7320 0.7320
6.792915 0.7300 0.7300 0.7270 0.7240 0.7190
6.827000 0.7170 0.7140 0.7140 0.7120 0.7100
6.860915 0.7100 0.7100 0.7100 0.7140 0.7190
6.895000 0.7190 0.7220 0.7270 0.7300 0.7340
6.928915 0.7390 0.7420 0.7450 0.7470 0.7490
6.963000 0.7490 0.7500 0.7490 0.7490 0.7500
6.996915 0.7500 0.7550 0.7570 0.7570 0.7590
7.031000 0.7600 0.7590 0.7590 0.7570 0.7550
7.064915 0.7540 0.7520 0.7500 0.7450 0.7420
7.098000 0.7420 0.7420 0.7420 0.7420 0.7420
7.131915 0.7420 0.7420 0.7420 0.7420 0.7420
7.166000 0.7440 0.7450 0.7470 0.7500 0.7540
7.199915 0.7570 0.7590 0.7620 0.7640 0.7670
7.234000 0.7690 0.7740 0.7790 0.7820 0.7850
7.267915 0.7870 0.7890 0.7900 0.7920 0.7940
7.302000 0.7940 0.7950 0.7940 0.7940 0.7970
7.335915 0.8010 0.8040 0.8070 0.8110 0.8110
7.369000 0.8110 0.8140 0.8190 0.8210 0.8210
7.402915 0.8220 0.8220 0.8220 0.8240 0.8220
7.437000 0.8240 0.8240 0.8260 0.8260 0.8270
7.470915 0.8270 0.8270 0.8270 0.8270 0.8270
7.505000 0.8270 0.8260 0.8240 0.8240 0.8260
7.538915 0.8260 0.8270 0.8290 0.8310 0.8310
7.573000 0.8310 0.8290 0.8290 0.8290 0.8270
7.606915 0.8260 0.8220 0.8170 0.8020 0.7920
7.641000 0.7870 0.7740 0.7700 0.7640 0.7570
7.674915 0.7490 0.7440 0.7390 0.7370 0.7370
7.708000 0.7390 0.7390 0.7400 0.7400 0.7440
7.741915 0.7470 0.7470 0.7400 0.7400 0.7400
7.776000 0.7400 0.7420 0.7420 0.7440 0.7440
7.809915 0.7450 0.7490 0.7520 0.7620 0.7750
7.844000 0.7890 0.7970 0.7990 0.8010 0.8020
7.877915 0.8040 0.8070 0.8070 0.8110 0.8160
7.912000 0.8210 0.8240 0.8260 0.8270 0.8270
7.945915 0.8290 0.8290 0.8310 0.8310 0.8310
7.980000 0.8320 0.8320 0.8340 0.8340 0.8360
8.013915 0.8370 0.8390 0.8410 0.8420 0.8420
8.047000 0.8420 0.8420 0.8420 0.8420 0.8420
8.080915 0.8420 0.8410 0.8410 0.8410 0.8370
8.115000 0.8370 0.8370 0.8360 0.8340 0.8340
8.148915 0.8340 0.8340 0.8320 0.8320 0.8320
8.183000 0.8310 0.8290 0.8270 0.8240 0.8220
8.216915 0.8210 0.8190 0.8120 0.8060 0.8010
8.251000 0.7970 0.7920 0.7840 0.7790 0.7750
8.284915 0.7740 0.7590 0.7520 0.7450 0.7390
8.319000 0.7300 0.7270 0.7200 0.7140 0.7050
8.352915 0.6970 0.6900 0.6830 0.6730 0.6650
8.386000 0.6580 0.6480 0.6430 0.6380 0.6370
8.419915 0.6330 0.6180 0.6100 0.5980 0.5900
8.454000 0.5850 0.5730 0.5680 0.5630 0.5580
8.487915 0.5530 0.5480 0.5450 0.5360 0.5300
8.522000 0.5180 0.4580 0.4540 0.4560 0.4630
8.555915 0.4930 0.5050 0.5160 0.5210 0.5360
8.590000 0.5360 0.5310 0.5280 0.5160 0.5050
8.623915 0.5010 0.4790 0.4690 0.4610 0.4490
8.658000 0.4410 0.4310 0.4280 0.4280 0.4260
8.691915 0.4240 0.4230 0.4210 0.4190 0.4160
8.725000 0.4130 0.4090 0.4080 0.4040 0.4030
8.758915 0.3960 0.3920 0.3920 0.3910 0.3910
8.793000 0.3890 0.3870 0.3840 0.3760 0.3660
8.826915 0.3570 0.3420 0.3290 0.3160 0.3090
8.861000 0.3060 0.3070 0.3170 0.3270 0.3340
8.894915 0.3460 0.3620 0.3660 0.3690 0.3760
8.929000 0.3990 0.4130 0.4180 0.4230 0.4230
8.962915 0.4230 0.4240 0.4240 0.4240 0.4240
8.997000 0.4260 0.4260 0.4290 0.4480 0.4760
9.030915 0.4890 0.5030 0.5280 0.5480 0.5610
9.064000 0.5900 0.6100 0.6270 0.6420 0.6570
9.097915 0.6680 0.6800 0.6880 0.6980 0.7050
9.132000 0.7220 0.7250 0.7340 0.7370 0.7440
9.165915 0.7450 0.7470 0.7520 0.7540 0.7570
9.200000 0.7590 0.7650 0.7650 0.7670 0.7670
9.233915 0.7690 0.7670 0.7490 0.7440 0.7290
9.268000 0.7490 0.7600 0.7650 0.7650 0.7670
9.301915 0.7670 0.7670 0.7670 0.7670 0.7670
9.336000 0.7670 0.7670 0.7670 0.7670 0.7670
9.369915 0.7650 0.7600 0.7600 0.7670 0.7690
9.403000 0.7690 0.7690 0.7690 0.7690 0.7670
9.436915 0.7670 0.7670 0.7650 0.7650 0.7640
9.471000 0.7650 0.7650 0.7670 0.7690 0.7690
9.504915 0.7700 0.7700 0.7720 0.7740 0.7740
9.539000 0.7790 0.7850 0.7870 0.7850 0.7820
9.572915 0.7820 0.7820 0.7800 0.7820 0.7820
9.607000 0.7820 0.7850 0.7870 0.7870 0.7900
9.640915 0.7940 0.7950 0.7950 0.7950 0.7940
9.675000 0.7940 0.7920 0.7920 0.7920 0.7920
9.708915 0.7940 0.7940 0.7950 0.7950 0.7950
9.742000 0.7950 0.7950 0.7890 0.7890 0.7870
9.775915 0.7870 0.7850 0.7850 0.7840 0.7800
9.810000 0.7790 0.7770 0.7770 0.7750 0.7750
9.843915 0.7750 0.7750 0.7750 0.7750 0.7750
9.878000 0.7750 0.7750 0.7790 0.7770 0.7750
9.911915 0.7740 0.7720 0.7700 0.7670 0.7670
9.946000 0.7650 0.7640 0.7620 0.7620 0.7620
9.979915 0.7620 0.7640 0.7640 0.7670 0.7670
10.014000 0.7670 0.7720 0.7770 0.7790 0.7800
10.047915 0.7840 0.7840 0.7850 0.7850 0.7840
10.081000 0.7840 0.7850 0.7850 0.7850 0.7870
10.114915 0.7870 0.7870 0.7890 0.7890 0.7890
10.149000 0.7900 0.7900 0.7900 0.7920 0.7940
10.182915 0.7940 0.7950 0.7970 0.7970 0.7990
10.217000 0.7970 0.7990 0.8010 0.8040 0.8070
10.250915 0.8090 0.8090 0.8070 0.8040 0.7990
10.285000 0.7950 0.7900 0.7890 0.7740 0.7670
10.318915 0.7640 0.7650 0.7670 0.7720 0.7750
10.353000 0.7800 0.7900 0.7940 0.7940 0.7970
10.386915 0.7990 0.8010 0.8010 0.8010 0.8020
10.420000 0.8020 0.8020 0.8040 0.8020 0.8010
10.453915 0.7990 0.7990 0.7970 0.7970 0.7970
10.488000 0.7970 0.7970 0.7970 0.7970 0.7970
10.521915 0.7970 0.7970 0.7970 0.7990 0.7970
10.556000 0.7970 0.7970 0.7940 0.7940 0.7920
10.589915 0.7920 0.7890 0.7890 0.7890 0.7870
10.624000 0.7850 0.7870 0.7870 0.7870 0.7870
10.657915 0.7850 0.7840 0.7840 0.7840 0.7820
10.692000 0.7800 0.7790 0.7770 0.7750 0.7720
10.725915 0.7720 0.7690 0.7690 0.7690 0.7690
10.759000 0.7670 0.7650 0.7650 0.7650 0.7650
10.792915 0.7640 0.7640 0.7640 0.7640 0.7640
10.827000 0.7640 0.7650 0.7650 0.7650 0.7650
10.860915 0.7650 0.7640 0.7620 0.7620 0.7600
10.895000 0.7600 0.7600 0.7600 0.7590 0.7590
10.928915 0.7570 0.7590 0.7590 0.7600 0.7600
10.963000 0.7590 0.7570 0.7570 0.7570 0.7550
10.996915 0.7540 0.7540 0.7540 0.7550 0.7570
11.031000 0.7590 0.7600 0.7640 0.7640 0.7650
11.064915 0.7670 0.7700 0.7740 0.7750 0.7770
11.098000 0.7800 0.7840 0.7850 0.7850 0.7870
11.131915 0.7870 0.7870 0.7870 0.7870 0.7870
11.166000 0.7870 0.7850 0.7850 0.7870 0.7900
11.199915 0.7900 0.7920 0.7920 0.7940 0.7950
11.234000 0.7970 0.7990 0.8010 0.8010 0.8010
11.267915 0.7990 0.8010 0.8010 0.8010 0.8010
11.302000 0.8010 0.8010 0.8010 0.8010 0.8010
11.335915 0.7990 0.7990 0.7990 0.7990 0.7990
11.369000 0.8010 0.7990 0.7950 0.7950 0.7950
11.402915 0.7950 0.7950 0.7950 0.7970 0.7970
11.437000 0.8010 0.8010 0.8010 0.8010 0.7990
11.470915 0.7990 0.7990 0.7990 0.7990 0.8010
11.505000 0.8010 0.7990 0.7970 0.7950 0.7950
11.538915 0.7950 0.7950 0.7950 0.7970 0.7970
11.573000 0.7990 0.8010 0.8020 0.8020 0.8020
11.606915 0.8040 0.8040 0.8060 0.8060 0.8070
11.641000 0.8070 0.8110 0.8110 0.8120 0.8140
11.674915 0.8140 0.8140 0.8140 0.8140 0.8140
11.708000 0.8140 0.8120 0.8120 0.8120 0.8110
11.741915 0.8110 0.8090 0.8110 0.8110 0.8140
11.776000 0.8140 0.8140 0.8160 0.8140 0.8120
11.809915 0.8120 0.8120 0.8120 0.8120 0.8120
11.844000 0.8120 0.8120 0.8140 0.8140 0.8160
11.877915 0.8160 0.8170 0.8170 0.8190 0.8190
11.912000 0.8210 0.8220 0.8240 0.8260 0.8260
11.945915 0.8260 0.8270 0.8270 0.8290 0.8290
11.980000 0.8310 0.8310 0.8310 0.8310 0.8310
12.013915 0.8320 0.8310 0.8320 0.8320 0.8310
12.047000 0.8310 0.8310 0.8310 0.8310 0.8310
12.080915 0.8310 0.8310 0.8310 0.8310 0.8310
12.115000 0.8290 0.8290 0.8270 0.8260 0.8240
12.148915 0.8220 0.8260 0.8240 0.8240 0.8240
12.183000 0.8240 0.8220 0.8220 0.8220 0.8220
12.216915 0.8220 0.8210 0.8210 0.8190 0.8160
12.251000 0.8120 0.8110 0.8090 0.8090 0.8070
12.284915 0.8070 0.8070 0.8070 0.8070 0.8070
12.319000 0.8070 0.8090 0.8090 0.8090 0.8110
12.352915 0.8110 0.8110 0.8110 0.8120 0.8140
12.386000 0.8140 0.8160 0.8160 0.8160 0.8160
12.419915 0.8160 0.8170 0.8170 0.8160 0.8160
12.454000 0.8140 0.8140 0.8140 0.8140 0.8160
12.487915 0.8160 0.8170 0.8170 0.8190 0.8190
12.522000 0.8190 0.8210 0.8210 0.8210 0.8210
12.555915 0.8210 0.8210 0.8210 0.8210 0.8220
12.590000 0.8220 0.8240 0.8240 0.8260 0.8270
12.623915 0.8290 0.8310 0.8340 0.8340 0.8360
12.658000 0.8360 0.8360 0.8370 0.8370 0.8370
12.691915 0.8390 0.8390 0.8390 0.8390 0.8410
12.725000 0.8410 0.8420 0.8420 0.8420 0.8460
12.758915 0.8460 0.8440 0.8440 0.8460 0.8460
12.793000 0.8460 0.8460 0.8460 0.8460 0.8460
12.826915 0.8460 0.8460 0.8460 0.8460 0.8460
12.861000 0.8460 0.8460 0.8460 0.8440 0.8440
12.894915 0.8440 0.8440 0.8460 0.8460 0.8460
12.929000 0.8470 0.8470 0.8470 0.8470 0.8470
12.962915 0.8470 0.8460 0.8470 0.8470 0.8490
12.997000 0.8490 0.8490 0.8490 0.8490 0.8510
13.030915 0.8510 0.8520 0.8520 0.8520 0.8540
13.064000 0.8520 0.8520 0.8520 0.8540 0.8560
13.097915 0.8540 0.8520 0.8520 0.8520 0.8510
13.132000 0.8510 0.8460 0.8460 0.8460 0.8460
13.165915 0.8460 0.8460 0.8460 0.8460 0.8460
13.200000 0.8460 0.8460 0.8460 0.8460 0.8460
13.233915 0.8460 0.8460 0.8460 0.8460 0.8460
13.268000 0.8460 0.8470 0.8470 0.8490 0.8490
13.301915 0.8490 0.8470 0.8470 0.8470 0.8470
13.336000 0.8470 0.8460 0.8460 0.8460 0.8460
13.369915 0.8460 0.8460 0.8440 0.8440 0.8420
13.403000 0.8420 0.8420 0.8410 0.8410 0.8410
13.436915 0.8410 0.8410 0.8390 0.8390 0.8370
13.471000 0.8370 0.8360 0.8370 0.8370 0.8360
13.504915 0.8360 0.8360 0.8360 0.8360 0.8360
13.539000 0.8360 0.8360 0.8340 0.8360 0.8360
13.572915 0.8360 0.8360 0.8340 0.8340 0.8320
13.607000 0.8340 0.8340 0.8340 0.8310 0.8290
13.640915 0.8270 0.8260 0.8220 0.8210 0.8210
13.675000 0.8170 0.8170 0.8170 0.8190 0.8210
13.708915 0.8220 0.8220 0.8240 0.8240 0.8220
13.742000 0.8220 0.8220 0.8220 0.8220 0.8220
13.775915 0.8220 0.8220 0.8220 0.8220 0.8220
13.810000 0.8220 0.8220 0.8220 0.8220 0.8220
13.843915 0.8220 0.8220 0.8220 0.8220 0.8220
13.878000 0.8220 0.8220 0.8240 0.8240 0.8240
13.911915 0.8240 0.8240 0.8220 0.8210 0.8190
13.946000 0.8170 0.8160 0.8140 0.8140 0.8120
13.979915 0.8110 0.8110 0.8090 0.8060 0.8060
14.014000 0.8020 0.8040 0.8040 0.8060 0.8060
14.047915 0.8070 0.8070 0.8070 0.8090 0.8110
14.081000 0.8120 0.8120 0.8140 0.8140 0.8160
14.114915 0.8160 0.8160 0.8160 0.8160 0.8120
14.149000 0.8120 0.8120 0.8120 0.8140 0.8140
14.182915 0.8140 0.8140 0.8140 0.8140 0.8120
14.217000 0.8120 0.8120 0.8120 0.8120 0.8120
14.250915 0.8120 0.8120 0.8120 0.8120 0.8120
14.285000 0.8120 0.8120 0.8120 0.8120 0.8120
14.318915 0.8140 0.8140 0.8140 0.8140 0.8140
14.353000 0.8120 0.8110 0.8110 0.8110 0.8090
14.386915 0.8090 0.8070 0.8070 0.8070 0.8070
14.420000 0.8110 0.8110 0.8110 0.8110 0.8110
14.453915 0.8110 0.8090 0.8090 0.8070 0.8090
14.488000 0.8090 0.8090 0.8090 0.8090 0.8090
14.521915 0.8070 0.8060 0.8060 0.8090 0.8090
14.556000 0.8070 0.8070 0.8070 0.8070 0.8070
14.589915 0.8070 0.8090 0.8070 0.8070 0.8060
14.624000 0.8040 0.8020 0.8020 0.8040 0.8020
14.657915 0.8020 0.8020 0.8010 0.8010 0.7990
14.692000 0.7970 0.7990 0.7990 0.7990 0.7970
14.725915 0.7970 0.7970 0.7970 0.7970 0.7970
14.759000 0.7970 0.7950 0.7970 0.7950 0.7950
14.792915 0.7940 0.7950 0.7950 0.7950 0.7950
14.827000 0.7950 0.7940 0.7940 0.7940 0.7940
14.860915 0.7920 0.7920 0.7920 0.7900 0.7900
14.895000 0.7900 0.7890 0.7900 0.7900 0.7900
14.928915 0.7890 0.7890 0.7870 0.7870 0.7870
14.963000 0.7870 0.7870 0.7870 0.7850 0.7850
14.996915 0.7850 0.7850 0.7850 0.7840 0.7840
15.031000 0.7840 0.7840 0.7840 0.7840 0.7820
15.064915 0.7820 0.7820 0.7820 0.7820 0.7800
15.098000 0.7790 0.7790 0.7790 0.7790 0.7790
15.131915 0.7790 0.7790 0.7790 0.7790 0.7790
15.166000 0.7790 0.7790 0.7790 0.7790 0.7770
15.199915 0.7770 0.7770 0.7770 0.7770 0.7770
15.234000 0.7750 0.7740 0.7740 0.7720 0.7720
15.267915 0.7700 0.7670 0.7650 0.7650 0.7620
15.302000 0.7600 0.7590 0.7550 0.7550 0.7540
15.335915 0.7520 0.7500 0.7490 0.7490 0.7470
15.369000 0.7470 0.7470 0.7450 0.7450 0.7450
15.402915 0.7440 0.7440 0.7450 0.7440 0.7440
15.437000 0.7440 0.7440 0.7440 0.7440 0.7440
15.470915 0.7440 0.7440 0.7440
##END=
