##TITLE=Aniline, 2-tert-butyl-4,5-dichloro-
##JCAMP-DX=4.24
##DATA TYPE=INFRARED SPECTRUM
##CLASS=COBLENTZ III
##ORIGIN=MONSANTO (J. FREEMAN)
##OWNER=Copyright (C) 1987 by the Coblentz Society
Collection (C) 2018 copyright by the U.S. Secretary of Commerce
on behalf of the United States of America. All rights reserved.
##DATE=1959/05/13
##NAMES=2-tert-butyl-4,5-dichlorophenylamine
2-tert-butyl-4,5-dichloroaniline
BENZENAMINE,4,5-DICHLORO-2-(2'-METHYL-2'-PROPYL)
##MOLFORM=C10 H13 Cl2 N
##SOURCE REFERENCE=COBLENTZ NO. 9256
##$NIST ID=B6009256
##$NIST SOURCE=COBLENTZ
##$NIST IMAGE=cob9256
##SPECTROMETER/DATA SYSTEM=BECKMAN IR-4 (HYBRID PRISM-GRATING)
##INSTRUMENT PARAMETERS=NaCl PRISM
##STATE=LIQUID (NEAT)
##PATH LENGTH=CAPILLARY
##SAMPLING PROCEDURE=TRANSMISSION
##RESOLUTION=2
##DATA PROCESSING=DIGITIZED BY COBLENTZ SOCIETY (BATCH II) FROM HARD COPY (ADJUSTED \addmicron\0.06um\)
##XUNITS=1/CM
##YUNITS=TRANSMITTANCE
##XFACTOR=1.0
##YFACTOR=1
##DELTAX=0.962323
##FIRSTX=626.339
##LASTX=3872.25
##FIRSTY=0.7055
##MAXX=3872.25
##MINX=626.339
##MAXY=0.9624
##MINY=0
##NPOINTS=3374
##XYDATA=(X++(Y..Y))
626.338795 0.7055 0.7087 0.7105 0.7113 0.7116
631.150410 0.7113 0.7109 0.7105 0.7099 0.7091
635.962026 0.7084 0.7082 0.7088 0.7111 0.7149
640.773641 0.7189 0.7211 0.7217 0.7222 0.7224
645.585256 0.7226 0.7225 0.7220 0.7211 0.7194
650.396872 0.7175 0.7155 0.7132 0.7111 0.7086
655.208487 0.7058 0.7030 0.7000 0.6962 0.6923
660.020103 0.6888 0.6856 0.6825 0.6789 0.6750
664.831718 0.6707 0.6648 0.6576 0.6488 0.6387
669.643333 0.6278 0.6163 0.6033 0.5883 0.5718
674.454949 0.5519 0.5255 0.4927 0.4552 0.4180
679.266564 0.3811 0.3474 0.3253 0.3179 0.3201
684.078179 0.3306 0.3648 0.4044 0.4437 0.4750
688.889795 0.5037 0.5386 0.5836 0.6158 0.6448
693.701410 0.6663 0.6798 0.6894 0.6962 0.7007
698.513026 0.7042 0.7062 0.7070 0.7070 0.7092
703.324641 0.7089 0.7050 0.7040 0.7028 0.7013
708.136256 0.6998 0.6982 0.6963 0.6941 0.6917
712.947872 0.6888 0.6851 0.6814 0.6774 0.6696
717.759487 0.6618 0.6497 0.6371 0.6222 0.6128
722.571102 0.6156 0.6194 0.6284 0.6498 0.6768
727.382718 0.7028 0.7272 0.7481 0.7629 0.7704
732.194333 0.7731 0.7741 0.7745 0.7747 0.7749
737.005948 0.7750 0.7748 0.7745 0.7742 0.7739
741.817564 0.7735 0.7732 0.7730 0.7727 0.7723
746.629179 0.7725 0.7730 0.7734 0.7739 0.7743
751.440795 0.7748 0.7755 0.7761 0.7768 0.7774
756.252410 0.7779 0.7784 0.7788 0.7792 0.7795
761.064025 0.7799 0.7803 0.7807 0.7811 0.7818
765.875641 0.7825 0.7833 0.7841 0.7848 0.7856
770.687256 0.7863 0.7870 0.7879 0.7887 0.7899
775.498871 0.7911 0.7922 0.7935 0.7947 0.7959
780.310487 0.7972 0.7982 0.7990 0.7998 0.8006
785.122102 0.8014 0.8021 0.8022 0.8021 0.8020
789.933717 0.8019 0.8017 0.8016 0.8015 0.8010
794.745333 0.7999 0.7987 0.7974 0.7962 0.7950
799.556948 0.7936 0.7922 0.7910 0.7896 0.7883
804.368564 0.7875 0.7877 0.7879 0.7882 0.7887
809.180179 0.7894 0.7901 0.7902 0.7894 0.7886
813.991794 0.7867 0.7846 0.7820 0.7771 0.7718
818.803410 0.7629 0.7486 0.7225 0.6922 0.6617
823.615025 0.6313 0.6020 0.5791 0.5665 0.5654
828.426640 0.5755 0.5931 0.6133 0.6312 0.6391
833.238256 0.6352 0.6254 0.6055 0.5855 0.5656
838.049871 0.5456 0.5257 0.5058 0.4860 0.4659
842.861486 0.4442 0.4235 0.4198 0.4215 0.4281
847.673102 0.4429 0.4634 0.4839 0.5043 0.5246
852.484717 0.5449 0.5646 0.5805 0.5956 0.6131
857.296333 0.6319 0.6502 0.6681 0.6867 0.7059
862.107948 0.7224 0.7355 0.7464 0.7538 0.7575
866.919563 0.7591 0.7589 0.7563 0.7515 0.7420
871.731179 0.7244 0.6964 0.6489 0.5819 0.5150
876.542794 0.4483 0.3822 0.3243 0.3059 0.2954
881.354409 0.2939 0.2907 0.3021 0.3294 0.3651
886.166025 0.4014 0.4375 0.4737 0.5097 0.5456
890.977640 0.5815 0.6148 0.6362 0.6518 0.6739
895.789256 0.7151 0.7527 0.7730 0.7840 0.7917
900.600871 0.7980 0.8028 0.8062 0.8089 0.8111
905.412486 0.8125 0.8136 0.8142 0.8132 0.8114
910.224102 0.8130 0.8118 0.8101 0.8078 0.8045
915.035717 0.7996 0.7926 0.7822 0.7682 0.7521
919.847332 0.7358 0.7212 0.7066 0.6920 0.6782
924.658948 0.6655 0.6324 0.5880 0.5420 0.4960
929.470563 0.4502 0.4156 0.3942 0.3827 0.3785
934.282178 0.3789 0.3836 0.3976 0.4210 0.4475
939.093794 0.4741 0.5006 0.5270 0.5533 0.5797
943.905409 0.6047 0.6264 0.6461 0.6655 0.6829
948.717025 0.6977 0.7109 0.7238 0.7370 0.7503
953.528640 0.7635 0.7757 0.7851 0.7936 0.7998
958.340255 0.8060 0.8114 0.8151 0.8189 0.8217
963.151871 0.8235 0.8251 0.8268 0.8284 0.8300
967.963486 0.8315 0.8331 0.8347 0.8363 0.8379
972.775101 0.8395 0.8411 0.8427 0.8443 0.8459
977.586717 0.8474 0.8488 0.8502 0.8516 0.8530
982.398332 0.8545 0.8558 0.8570 0.8581 0.8593
987.209947 0.8605 0.8614 0.8620 0.8626 0.8633
992.021563 0.8638 0.8641 0.8640 0.8639 0.8637
996.833178 0.8625 0.8631 0.8621 0.8611 0.8602
1001.644794 0.8592 0.8575 0.8557 0.8537 0.8503
1006.456409 0.8462 0.8410 0.8354 0.8280 0.8197
1011.268024 0.8100 0.7969 0.7743 0.7440 0.7117
1016.079640 0.6794 0.6471 0.6156 0.5969 0.5964
1020.891255 0.5966 0.6181 0.6640 0.6900 0.7161
1025.702870 0.7421 0.7681 0.7960 0.8230 0.8334
1030.514486 0.8420 0.8476 0.8519 0.8544 0.8564
1035.326101 0.8581 0.8590 0.8598 0.8601 0.8551
1040.137717 0.8599 0.8593 0.8586 0.8576 0.8565
1044.949332 0.8553 0.8542 0.8528 0.8514 0.8499
1049.760947 0.8484 0.8468 0.8453 0.8435 0.8416
1054.572563 0.8396 0.8377 0.8357 0.8336 0.8313
1059.384178 0.8289 0.8266 0.8243 0.8217 0.8191
1064.195793 0.8165 0.8138 0.8112 0.8084 0.8051
1069.007409 0.8018 0.7985 0.7952 0.7919 0.7887
1073.819024 0.7855 0.7825 0.7794 0.7764 0.7731
1078.630639 0.7695 0.7659 0.7622 0.7585 0.7528
1083.442255 0.7472 0.7414 0.7336 0.7254 0.7138
1088.253870 0.7008 0.6886 0.6762 0.6608 0.6444
1093.065486 0.6223 0.5874 0.5468 0.5055 0.4642
1097.877101 0.4231 0.3849 0.3551 0.3418 0.3380
1102.688716 0.3390 0.3485 0.3718 0.4036 0.4352
1107.500332 0.4667 0.4981 0.5296 0.5610 0.5922
1112.311947 0.6235 0.6529 0.6806 0.7116 0.7341
1117.123562 0.7500 0.7627 0.7733 0.7804 0.7870
1121.935178 0.7923 0.7963 0.7983 0.7995 0.8007
1126.746793 0.8011 0.8015 0.8018 0.8033 0.8010
1131.558408 0.7994 0.7978 0.7952 0.7915 0.7864
1136.370024 0.7794 0.7711 0.7599 0.7428 0.7124
1141.181639 0.6705 0.6257 0.5809 0.5362 0.4915
1145.993255 0.4470 0.4026 0.3578 0.3269 0.3162
1150.804870 0.3139 0.3131 0.3143 0.3340 0.3774
1155.616485 0.4238 0.4701 0.5163 0.5624 0.6085
1160.428101 0.6537 0.6931 0.7183 0.7345 0.7472
1165.239716 0.7589 0.7696 0.7801 0.7894 0.7983
1170.051331 0.8066 0.8122 0.8177 0.8230 0.8277
1174.862947 0.8321 0.8358 0.8384 0.8455 0.8413
1179.674562 0.8404 0.8395 0.8358 0.8280 0.8187
1184.486177 0.8090 0.7992 0.7895 0.7797 0.7700
1189.297793 0.7603 0.7506 0.7410 0.7313 0.7216
1194.109408 0.7126 0.7056 0.7000 0.6963 0.6925
1198.921024 0.6982 0.7118 0.7214 0.7309 0.7404
1203.732639 0.7499 0.7593 0.7684 0.7771 0.7857
1208.544254 0.7943 0.8022 0.7991 0.8013 0.8026
1213.355870 0.8030 0.8027 0.8024 0.8020 0.8015
1218.167485 0.7998 0.7964 0.7931 0.7894 0.7852
1222.979100 0.7796 0.7729 0.7671 0.7610 0.7537
1227.790716 0.7467 0.7394 0.7314 0.7220 0.7076
1232.602331 0.6859 0.6636 0.6472 0.6351 0.6212
1237.413947 0.5866 0.5191 0.4411 0.3640 0.3164
1242.225562 0.3026 0.2985 0.2973 0.2979 0.2986
1247.037177 0.3168 0.3602 0.4132 0.4660 0.5182
1251.848793 0.5489 0.5516 0.5538 0.5548 0.5509
1256.660408 0.5475 0.5384 0.5273 0.5161 0.5050
1261.472023 0.4938 0.4830 0.4747 0.4711 0.4698
1266.283639 0.4697 0.4719 0.4742 0.4775 0.4818
1271.095254 0.4868 0.4917 0.5090 0.5367 0.5644
1275.906869 0.5921 0.6197 0.6473 0.6749 0.7024
1280.718485 0.7299 0.7492 0.7539 0.7551 0.7551
1285.530100 0.7548 0.7539 0.7532 0.7455 0.7357
1290.341716 0.7260 0.7163 0.7066 0.6968 0.6871
1295.153331 0.6775 0.6701 0.6696 0.6742 0.6923
1299.964946 0.7218 0.7525 0.7832 0.8081 0.8217
1304.776562 0.8299 0.8381 0.8445 0.8496 0.8541
1309.588177 0.8595 0.8639 0.8614 0.8627 0.8636
1314.399792 0.8638 0.8639 0.8637 0.8634 0.8631
1319.211408 0.8624 0.8616 0.8608 0.8601 0.8592
1324.023023 0.8580 0.8560 0.8570 0.8571 0.8573
1328.834638 0.8575 0.8579 0.8590 0.8599 0.8608
1333.646254 0.8617 0.8626 0.8635 0.8619 0.8638
1338.457869 0.8637 0.8626 0.8613 0.8601 0.8586
1343.269485 0.8563 0.8536 0.8507 0.8472 0.8435
1348.081100 0.8397 0.8359 0.8319 0.8253 0.8178
1352.892715 0.8111 0.8046 0.7973 0.7889 0.7802
1357.704331 0.7708 0.7606 0.7500 0.7394 0.6174
1362.515946 0.4551 0.4154 0.3757 0.3360 0.2965
1367.327561 0.2569 0.2175 0.1788 0.1504 0.1441
1372.139177 0.1429 0.1418 0.1406 0.1494 0.1919
1376.950792 0.2262 0.2604 0.2947 0.3289 0.3630
1381.762408 0.3971 0.4311 0.4651 0.4990 0.5329
1386.574023 0.5674 0.6259 0.6262 0.6261 0.6260
1391.385638 0.6179 0.5962 0.5738 0.5514 0.5291
1396.197254 0.5068 0.4845 0.4622 0.4568 0.4587
1401.008869 0.4560 0.5086 0.5536 0.5918 0.6299
1405.820484 0.6680 0.7060 0.7389 0.7568 0.7654
1410.632100 0.7720 0.7780 0.7835 0.7887 0.7927
1415.443715 0.7957 0.7986 0.8011 0.8032 0.8051
1420.255330 0.8070 0.8089 0.8104 0.8110 0.8113
1425.066946 0.8118 0.8114 0.8111 0.8106 0.8095
1429.878561 0.8080 0.8060 0.8026 0.7970 0.7905
1434.690177 0.7785 0.7566 0.7324 0.7082 0.6840
1439.501792 0.6599 0.6358 0.6118 0.5878 0.5637
1444.313407 0.5397 0.5158 0.4919 0.4681 0.4442
1449.125023 0.4204 0.3966 0.3728 0.3492 0.3254
1453.936638 0.3018 0.2782 0.2649 0.2576 0.2510
1458.748253 0.2439 0.2359 0.2275 0.2190 0.2102
1463.559869 0.1985 0.1829 0.1708 0.1625 0.1552
1468.371484 0.1480 0.1405 0.1313 0.1223 0.1156
1473.183099 0.1100 0.1049 0.1008 0.0972 0.0936
1477.994715 0.0899 0.0865 0.0836 0.0812 0.0796
1482.806330 0.0785 0.0777 0.0776 0.0772 0.0874
1487.617946 0.1109 0.1297 0.1484 0.1671 0.1858
1492.429561 0.2045 0.2232 0.2419 0.2605 0.2790
1497.241176 0.2976 0.3161 0.3347 0.3532 0.3716
1502.052792 0.3912 0.4136 0.4245 0.4362 0.4498
1506.864407 0.4628 0.4737 0.4854 0.5072 0.5268
1511.676022 0.5399 0.5503 0.5596 0.5697 0.5829
1516.487638 0.5974 0.6220 0.6401 0.6510 0.6592
1521.299253 0.6667 0.6741 0.6815 0.6888 0.6962
1526.110868 0.7035 0.7109 0.7182 0.7254 0.7328
1530.922484 0.7404 0.7445 0.7464 0.7470 0.7471
1535.734099 0.7470 0.7477 0.7472 0.7466 0.7464
1540.545715 0.7457 0.7428 0.7341 0.7220 0.7095
1545.357330 0.6971 0.6847 0.6722 0.6598 0.6474
1550.168945 0.6350 0.6225 0.6101 0.5978 0.5766
1554.980561 0.5606 0.5635 0.5595 0.5593 0.5624
1559.792176 0.5725 0.5880 0.6047 0.6214 0.6380
1564.603791 0.6547 0.6713 0.6879 0.7044 0.7189
1569.415407 0.7246 0.7252 0.7250 0.7246 0.7246
1574.227022 0.7239 0.7220 0.7114 0.6962 0.6807
1579.038638 0.6651 0.6496 0.6342 0.6187 0.6033
1583.850253 0.5879 0.5724 0.5571 0.5418 0.5264
1588.661868 0.5111 0.4958 0.4805 0.4668 0.4594
1593.473484 0.4587 0.4605 0.4673 0.4747 0.4822
1598.285099 0.4896 0.4910 0.4827 0.4667 0.4488
1603.096714 0.4308 0.4127 0.3947 0.3768 0.3589
1607.908330 0.3409 0.3230 0.3051 0.2873 0.2695
1612.719945 0.2516 0.2338 0.2160 0.1983 0.1698
1617.531560 0.1564 0.1577 0.1571 0.1571 0.1572
1622.343176 0.1618 0.1754 0.1954 0.2171 0.2388
1627.154791 0.2604 0.2820 0.3037 0.3253 0.3468
1631.966407 0.3683 0.3898 0.4113 0.4327 0.4542
1636.778022 0.4756 0.4963 0.5145 0.5311 0.5510
1641.589637 0.5741 0.5909 0.6023 0.6128 0.6221
1646.401253 0.6303 0.6365 0.6427 0.6532 0.6690
1651.212868 0.6847 0.7004 0.7162 0.7321 0.7500
1656.024483 0.7619 0.7695 0.7763 0.7823 0.7866
1660.836099 0.7908 0.7950 0.7998 0.8047 0.8097
1665.647714 0.8141 0.8178 0.8214 0.8250 0.8287
1670.459329 0.8324 0.8360 0.8393 0.8423 0.8451
1675.270945 0.8480 0.8508 0.8536 0.8557 0.8577
1680.082560 0.8598 0.8618 0.8637 0.8656 0.8675
1684.894176 0.8689 0.8701 0.8713 0.8725 0.8737
1689.705791 0.8749 0.8760 0.8771 0.8780 0.8789
1694.517406 0.8799 0.8809 0.8819 0.8828 0.8838
1699.329022 0.8848 0.8858 0.8867 0.8876 0.8887
1704.140637 0.8897 0.8907 0.8918 0.8928 0.8938
1708.952252 0.8948 0.8959 0.8969 0.8982 0.9037
1713.763868 0.9161 0.9254 0.9270 0.9281 0.9291
1718.575483 0.9302 0.9310 0.9316 0.9320 0.9323
1723.387099 0.9324 0.9325 0.9325 0.9326 0.9326
1728.198714 0.9326 0.9326 0.9326 0.9326 0.9325
1733.010329 0.9325 0.9324 0.9323 0.9322 0.9321
1737.821945 0.9321 0.9320 0.9318 0.9316 0.9314
1742.633560 0.9313 0.9311 0.9309 0.9305 0.9299
1747.445175 0.9294 0.9288 0.9283 0.9277 0.9271
1752.256791 0.9263 0.9255 0.9246 0.9238 0.9229
1757.068406 0.9220 0.9215 0.9210 0.9205 0.9200
1761.880021 0.9195 0.9190 0.9186 0.9183 0.9183
1766.691637 0.9186 0.9190 0.9194 0.9198 0.9202
1771.503252 0.9208 0.9215 0.9223 0.9233 0.9241
1776.314868 0.9250 0.9260 0.9269 0.9278 0.9288
1781.126483 0.9297 0.9306 0.9315 0.9324 0.9332
1785.938098 0.9342 0.9351 0.9359 0.9368 0.9375
1790.749714 0.9382 0.9389 0.9393 0.9396 0.9396
1795.561329 0.9396 0.9396 0.9395 0.9394 0.9394
1800.372944 0.9393 0.9392 0.9391 0.9391 0.9391
1805.184560 0.9391 0.9390 0.9389 0.9388 0.9386
1809.996175 0.9384 0.9383 0.9381 0.9379 0.9377
1814.807790 0.9375 0.9373 0.9371 0.9368 0.9365
1819.619406 0.9363 0.9360 0.9358 0.9356 0.9353
1824.431021 0.9350 0.9347 0.9343 0.9340 0.9337
1829.242637 0.9334 0.9331 0.9328 0.9325 0.9323
1834.054252 0.9320 0.9316 0.9312 0.9308 0.9305
1838.865867 0.9306 0.9310 0.9313 0.9316 0.9321
1843.677483 0.9327 0.9334 0.9340 0.9347 0.9354
1848.489098 0.9361 0.9369 0.9379 0.9388 0.9398
1853.300713 0.9407 0.9415 0.9422 0.9428 0.9435
1858.112329 0.9442 0.9447 0.9450 0.9451 0.9452
1862.923944 0.9454 0.9455 0.9456 0.9457 0.9458
1867.735559 0.9459 0.9460 0.9461 0.9462 0.9463
1872.547175 0.9464 0.9464 0.9464 0.9464 0.9464
1877.358790 0.9464 0.9464 0.9464 0.9464 0.9464
1882.170406 0.9464 0.9464 0.9464 0.9464 0.9464
1886.982021 0.9464 0.9465 0.9465 0.9465 0.9465
1891.793636 0.9465 0.9465 0.9464 0.9464 0.9464
1896.605252 0.9464 0.9464 0.9463 0.9463 0.9463
1901.416867 0.9462 0.9462 0.9462 0.9462 0.9462
1906.228482 0.9463 0.9463 0.9463 0.9464 0.9464
1911.040098 0.9464 0.9465 0.9465 0.9466 0.9466
1915.851713 0.9466 0.9466 0.9466 0.9467 0.9467
1920.663329 0.9467 0.9467 0.9468 0.9468 0.9468
1925.474944 0.9468 0.9468 0.9469 0.9469 0.9469
1930.286559 0.9469 0.9470 0.9470 0.9470 0.9470
1935.098175 0.9470 0.9470 0.9471 0.9471 0.9471
1939.909790 0.9472 0.9472 0.9472 0.9473 0.9473
1944.721405 0.9473 0.9474 0.9474 0.9474 0.9474
1949.533021 0.9474 0.9475 0.9475 0.9475 0.9476
1954.344636 0.9476 0.9476 0.9477 0.9477 0.9477
1959.156251 0.9478 0.9478 0.9478 0.9479 0.9479
1963.967867 0.9479 0.9479 0.9480 0.9481 0.9481
1968.779482 0.9483 0.9484 0.9484 0.9485 0.9486
1973.591098 0.9487 0.9488 0.9488 0.9489 0.9490
1978.402713 0.9491 0.9492 0.9492 0.9493 0.9494
1983.214328 0.9496 0.9499 0.9501 0.9503 0.9505
1988.025944 0.9507 0.9509 0.9511 0.9514 0.9516
1992.837559 0.9517 0.9520 0.9522 0.9524 0.9526
1997.649174 0.9529 0.9532 0.9535 0.9539 0.9542
2002.460790 0.9545 0.9548 0.9551 0.9554 0.9557
2007.272405 0.9560 0.9562 0.9565 0.9567 0.9569
2012.084020 0.9571 0.9573 0.9575 0.9575 0.9576
2016.895636 0.9577 0.9577 0.9578 0.9578 0.9579
2021.707251 0.9579 0.9579 0.9579 0.9579 0.9579
2026.518867 0.9579 0.9579 0.9579 0.9579 0.9580
2031.330482 0.9580 0.9580 0.9580 0.9580 0.9580
2036.142097 0.9580 0.9580 0.9580 0.9580 0.9579
2040.953713 0.9579 0.9579 0.9578 0.9578 0.9578
2045.765328 0.9578 0.9577 0.9577 0.9577 0.9576
2050.576943 0.9576 0.9576 0.9576 0.9575 0.9575
2055.388559 0.9575 0.9574 0.9574 0.9574 0.9574
2060.200174 0.9573 0.9572 0.9571 0.9570 0.9570
2065.011790 0.9569 0.9569 0.9568 0.9567 0.9566
2069.823405 0.9565 0.9565 0.9564 0.9564 0.9563
2074.635020 0.9563 0.9562 0.9560 0.9560 0.9559
2079.446636 0.9559 0.9558 0.9557 0.9556 0.9556
2084.258251 0.9555 0.9554 0.9553 0.9552 0.9552
2089.069866 0.9551 0.9550 0.9549 0.9549 0.9548
2093.881482 0.9547 0.9546 0.9545 0.9545 0.9544
2098.693097 0.9544 0.9543 0.9542 0.9541 0.9554
2103.504712 0.9546 0.9538 0.9538 0.9537 0.9536
2108.316328 0.9535 0.9535 0.9534 0.9533 0.9532
2113.127943 0.9531 0.9531 0.9530 0.9529 0.9528
2117.939559 0.9528 0.9527 0.9526 0.9525 0.9525
2122.751174 0.9524 0.9523 0.9522 0.9521 0.9521
2127.562789 0.9520 0.9519 0.9518 0.9518 0.9517
2132.374405 0.9517 0.9516 0.9516 0.9515 0.9515
2137.186020 0.9514 0.9513 0.9512 0.9511 0.9511
2141.997635 0.9510 0.9510 0.9509 0.9508 0.9507
2146.809251 0.9507 0.9506 0.9506 0.9505 0.9505
2151.620866 0.9504 0.9504 0.9503 0.9502 0.9502
2156.432481 0.9502 0.9502 0.9502 0.9502 0.9502
2161.244097 0.9502 0.9502 0.9502 0.9501 0.9501
2166.055712 0.9501 0.9501 0.9501 0.9501 0.9501
2170.867328 0.9501 0.9501 0.9501 0.9501 0.9500
2175.678943 0.9500 0.9500 0.9500 0.9500 0.9500
2180.490558 0.9500 0.9500 0.9502 0.9505 0.9507
2185.302174 0.9510 0.9513 0.9516 0.9518 0.9521
2190.113789 0.9523 0.9525 0.9527 0.9529 0.9531
2194.925404 0.9533 0.9536 0.9538 0.9541 0.9543
2199.737020 0.9546 0.9548 0.9551 0.9553 0.9556
2204.548635 0.9558 0.9561 0.9564 0.9567 0.9570
2209.360251 0.9574 0.9577 0.9580 0.9583 0.9587
2214.171866 0.9590 0.9593 0.9596 0.9598 0.9601
2218.983481 0.9603 0.9606 0.9609 0.9611 0.9614
2223.795097 0.9617 0.9619 0.9620 0.9621 0.9621
2228.606712 0.9622 0.9622 0.9623 0.9623 0.9624
2233.418327 0.9624 0.9624 0.9624 0.9624 0.9624
2238.229943 0.9624 0.9624 0.9624 0.9624 0.9624
2243.041558 0.9624 0.9624 0.9623 0.9623 0.9622
2247.853173 0.9622 0.9621 0.9620 0.9619 0.9618
2252.664789 0.9616 0.9615 0.9613 0.9612 0.9611
2257.476404 0.9610 0.9609 0.9607 0.9606 0.9604
2262.288020 0.9603 0.9602 0.9600 0.9599 0.9597
2267.099635 0.9595 0.9593 0.9592 0.9591 0.9589
2271.911250 0.9588 0.9586 0.9585 0.9584 0.9583
2276.722866 0.9582 0.9582 0.9581 0.9581 0.9581
2281.534481 0.9580 0.9580 0.9580 0.9580 0.9579
2286.346096 0.9579 0.9578 0.9578 0.9578 0.9578
2291.157712 0.9577 0.9577 0.9577 0.9576 0.9576
2295.969327 0.9576 0.9576 0.9576 0.9576 0.9576
2300.780942 0.9576 0.9576 0.9576 0.9576 0.9577
2305.592558 0.9577 0.9577 0.9577 0.9577 0.9577
2310.404173 0.9577 0.9577 0.9577 0.9577 0.9577
2315.215789 0.9577 0.9577 0.9577 0.9577 0.9577
2320.027404 0.9577 0.9577 0.9577 0.9577 0.9577
2324.839019 0.9577 0.9578 0.9578 0.9578 0.9578
2329.650635 0.9579 0.9579 0.9579 0.9579 0.9579
2334.462250 0.9580 0.9580 0.9581 0.9581 0.9581
2339.273865 0.9581 0.9580 0.9580 0.9580 0.9580
2344.085481 0.9580 0.9579 0.9579 0.9579 0.9579
2348.897096 0.9578 0.9577 0.9577 0.9575 0.9574
2353.708711 0.9573 0.9571 0.9570 0.9569 0.9568
2358.520327 0.9566 0.9563 0.9560 0.9556 0.9552
2363.331942 0.9547 0.9543 0.9539 0.9535 0.9531
2368.143558 0.9527 0.9522 0.9518 0.9514 0.9510
2372.955173 0.9506 0.9502 0.9499 0.9495 0.9491
2377.766788 0.9490 0.9491 0.9492 0.9494 0.9496
2382.578404 0.9498 0.9500 0.9502 0.9504 0.9507
2387.390019 0.9512 0.9518 0.9524 0.9529 0.9534
2392.201634 0.9540 0.9545 0.9550 0.9555 0.9561
2397.013250 0.9566 0.9571 0.9576 0.9580 0.9585
2401.824865 0.9589 0.9592 0.9594 0.9596 0.9597
2406.636481 0.9598 0.9599 0.9600 0.9601 0.9602
2411.448096 0.9603 0.9604 0.9605 0.9606 0.9607
2416.259711 0.9608 0.9609 0.9610 0.9611 0.9612
2421.071327 0.9612 0.9612 0.9612 0.9612 0.9612
2425.882942 0.9612 0.9612 0.9611 0.9611 0.9611
2430.694557 0.9611 0.9611 0.9610 0.9610 0.9610
2435.506173 0.9610 0.9610 0.9609 0.9609 0.9609
2440.317788 0.9608 0.9608 0.9607 0.9607 0.9607
2445.129403 0.9606 0.9606 0.9605 0.9605 0.9605
2449.941019 0.9604 0.9604 0.9603 0.9603 0.9603
2454.752634 0.9602 0.9601 0.9600 0.9599 0.9598
2459.564250 0.9596 0.9595 0.9594 0.9593 0.9593
2464.375865 0.9591 0.9590 0.9589 0.9588 0.9587
2469.187480 0.9585 0.9584 0.9583 0.9582 0.9582
2473.999096 0.9581 0.9579 0.9578 0.9577 0.9576
2478.810711 0.9575 0.9573 0.9572 0.9572 0.9571
2483.622326 0.9570 0.9570 0.9569 0.9569 0.9568
2488.433942 0.9567 0.9567 0.9567 0.9566 0.9565
2493.245557 0.9564 0.9564 0.9564 0.9563 0.9562
2498.057172 0.9561 0.9561 0.9561 0.9560 0.9559
2502.868788 0.9559 0.9558 0.9557 0.9556 0.9555
2507.680403 0.9555 0.9554 0.9552 0.9551 0.9550
2512.492019 0.9549 0.9548 0.9547 0.9546 0.9544
2517.303634 0.9543 0.9542 0.9542 0.9541 0.9540
2522.115249 0.9539 0.9538 0.9536 0.9535 0.9534
2526.926865 0.9531 0.9528 0.9525 0.9521 0.9518
2531.738480 0.9515 0.9511 0.9507 0.9504 0.9501
2536.550095 0.9497 0.9493 0.9489 0.9486 0.9482
2541.361711 0.9478 0.9475 0.9471 0.9467 0.9463
2546.173326 0.9459 0.9455 0.9451 0.9448 0.9444
2550.984942 0.9440 0.9436 0.9432 0.9428 0.9424
2555.796557 0.9420 0.9416 0.9411 0.9407 0.9406
2560.608172 0.9406 0.9406 0.9408 0.9410 0.9412
2565.419788 0.9415 0.9417 0.9420 0.9423 0.9425
2570.231403 0.9428 0.9430 0.9433 0.9435 0.9438
2575.043018 0.9441 0.9444 0.9447 0.9450 0.9454
2579.854634 0.9457 0.9460 0.9463 0.9467 0.9470
2584.666249 0.9473 0.9477 0.9481 0.9486 0.9490
2589.477864 0.9493 0.9497 0.9499 0.9500 0.9502
2594.289480 0.9503 0.9505 0.9507 0.9508 0.9510
2599.101095 0.9511 0.9512 0.9514 0.9514 0.9514
2603.912711 0.9514 0.9514 0.9514 0.9515 0.9515
2608.724326 0.9515 0.9515 0.9515 0.9515 0.9514
2613.535941 0.9514 0.9514 0.9514 0.9514 0.9513
2618.347557 0.9513 0.9513 0.9513 0.9513 0.9513
2623.159172 0.9512 0.9512 0.9512 0.9511 0.9511
2627.970787 0.9511 0.9510 0.9509 0.9509 0.9508
2632.782403 0.9507 0.9507 0.9506 0.9505 0.9505
2637.594018 0.9504 0.9504 0.9503 0.9503 0.9502
2642.405633 0.9501 0.9501 0.9500 0.9499 0.9499
2647.217249 0.9498 0.9497 0.9497 0.9496 0.9495
2652.028864 0.9495 0.9494 0.9493 0.9492 0.9491
2656.840480 0.9490 0.9489 0.9489 0.9488 0.9487
2661.652095 0.9487 0.9486 0.9485 0.9485 0.9484
2666.463710 0.9483 0.9483 0.9482 0.9481 0.9480
2671.275326 0.9479 0.9478 0.9478 0.9477 0.9476
2676.086941 0.9476 0.9475 0.9474 0.9474 0.9471
2680.898556 0.9469 0.9467 0.9465 0.9463 0.9461
2685.710172 0.9458 0.9456 0.9454 0.9452 0.9449
2690.521787 0.9447 0.9445 0.9443 0.9441 0.9439
2695.333402 0.9436 0.9433 0.9430 0.9426 0.9422
2700.145018 0.9417 0.9414 0.9410 0.9407 0.9403
2704.956633 0.9399 0.9395 0.9391 0.9388 0.9384
2709.768249 0.9380 0.9377 0.9373 0.9370 0.9366
2714.579864 0.9362 0.9358 0.9354 0.9350 0.9347
2719.391479 0.9343 0.9340 0.9336 0.9333 0.9329
2724.203095 0.9325 0.9322 0.9318 0.9315 0.9311
2729.014710 0.9308 0.9306 0.9303 0.9301 0.9300
2733.826325 0.9300 0.9299 0.9299 0.9299 0.9299
2738.637941 0.9299 0.9299 0.9299 0.9299 0.9299
2743.449556 0.9299 0.9299 0.9299 0.9300 0.9301
2748.261172 0.9302 0.9303 0.9303 0.9304 0.9305
2753.072787 0.9306 0.9307 0.9308 0.9309 0.9309
2757.884402 0.9309 0.9310 0.9310 0.9310 0.9310
2762.696018 0.9310 0.9310 0.9310 0.9310 0.9310
2767.507633 0.9310 0.9308 0.9307 0.9306 0.9304
2772.319248 0.9303 0.9301 0.9300 0.9299 0.9297
2777.130864 0.9294 0.9288 0.9283 0.9277 0.9271
2781.942479 0.9265 0.9258 0.9252 0.9245 0.9238
2786.754094 0.9232 0.9225 0.9218 0.9211 0.9204
2791.565710 0.9197 0.9188 0.9177 0.9167 0.9155
2796.377325 0.9144 0.9132 0.9122 0.9112 0.9103
2801.188941 0.9095 0.9085 0.9076 0.9067 0.9058
2806.000556 0.9050 0.9041 0.9031 0.9018 0.9006
2810.812171 0.8993 0.8981 0.8968 0.8956 0.8945
2815.623787 0.8935 0.8924 0.8914 0.8904 0.8894
2820.435402 0.8884 0.8874 0.8864 0.8853 0.8839
2825.247017 0.8824 0.8809 0.8793 0.8775 0.8757
2830.058633 0.8740 0.8722 0.8703 0.8685 0.8666
2834.870248 0.8648 0.8629 0.8609 0.8589 0.8569
2839.681863 0.8546 0.8520 0.8493 0.8467 0.8445
2844.493479 0.8424 0.8403 0.8384 0.8366 0.8346
2849.305094 0.8279 0.8056 0.7823 0.7589 0.7287
2854.116710 0.6971 0.6653 0.6345 0.6048 0.5751
2858.928325 0.5475 0.5472 0.5469 0.5466 0.5463
2863.739940 0.5461 0.5458 0.5456 0.5454 0.5451
2868.551556 0.5449 0.5447 0.5445 0.5443 0.5440
2873.363171 0.5436 0.5433 0.5430 0.5427 0.5424
2878.174786 0.5421 0.5417 0.5413 0.5410 0.5405
2882.986402 0.5401 0.5396 0.5390 0.5380 0.5365
2887.798017 0.5351 0.5335 0.5317 0.5299 0.5280
2892.609633 0.5259 0.5236 0.5214 0.5189 0.5160
2897.421248 0.5132 0.5104 0.5076 0.5050 0.5023
2902.232863 0.4997 0.4972 0.4947 0.4921 0.4892
2907.044479 0.4861 0.4828 0.4784 0.4732 0.4678
2911.856094 0.4625 0.4575 0.4525 0.4476 0.4431
2916.667709 0.4389 0.4347 0.4300 0.4214 0.4119
2921.479325 0.4025 0.3915 0.3792 0.3667 0.3543
2926.290940 0.3418 0.3294 0.3169 0.3044 0.2920
2931.102555 0.2795 0.2670 0.2609 0.2562 0.2516
2935.914171 0.2480 0.2480 0.2479 0.2479 0.2482
2940.725786 0.2478 0.2478 0.2478 0.2477 0.2477
2945.537402 0.2480 0.2500 0.2545 0.2591 0.2644
2950.349017 0.2724 0.2816 0.2908 0.3000 0.3091
2955.160632 0.3183 0.3274 0.3365 0.3457 0.3549
2959.972248 0.3640 0.3731 0.3822 0.3913 0.4004
2964.783863 0.4095 0.4186 0.4277 0.4368 0.4458
2969.595478 0.4549 0.4640 0.4730 0.4820 0.4911
2974.407094 0.5002 0.5092 0.5182 0.5273 0.5363
2979.218709 0.5452 0.5542 0.5633 0.5722 0.5812
2984.030324 0.5902 0.5992 0.6081 0.6170 0.6260
2988.841940 0.6350 0.6439 0.6528 0.6619 0.6707
2993.653555 0.6796 0.6886 0.6975 0.7064 0.7152
2998.465171 0.7242 0.7331 0.7420 0.7508 0.7599
3003.276786 0.7790 0.7985 0.8178 0.8333 0.8359
3008.088401 0.8385 0.8412 0.8434 0.8450 0.8467
3012.900017 0.8484 0.8499 0.8513 0.8528 0.8542
3017.711632 0.8557 0.8572 0.8586 0.8601 0.8616
3022.523247 0.8630 0.8645 0.8659 0.8671 0.8684
3027.334863 0.8696 0.8709 0.8721 0.8733 0.8745
3032.146478 0.8755 0.8764 0.8773 0.8782 0.8788
3036.958093 0.8794 0.8799 0.8805 0.8811 0.8816
3041.769709 0.8821 0.8827 0.8832 0.8838 0.8843
3046.581324 0.8848 0.8852 0.8856 0.8860 0.8863
3051.392940 0.8865 0.8867 0.8869 0.8872 0.8874
3056.204555 0.8877 0.8879 0.8881 0.8883 0.8886
3061.016170 0.8888 0.8889 0.8890 0.8892 0.8893
3065.827786 0.8893 0.8893 0.8893 0.8894 0.8894
3070.639401 0.8894 0.8894 0.8894 0.8894 0.8894
3075.451016 0.8894 0.8894 0.8894 0.8894 0.8894
3080.262632 0.8894 0.8894 0.8894 0.8894 0.8894
3085.074247 0.8895 0.8895 0.8896 0.8898 0.8899
3089.885863 0.8901 0.8902 0.8904 0.8905 0.8907
3094.697478 0.8908 0.8910 0.8912 0.8913 0.8915
3099.509093 0.8918 0.8921 0.8924 0.8928 0.8934
3104.320709 0.8940 0.8946 0.8952 0.8958 0.8963
3109.132324 0.8969 0.8974 0.8977 0.8980 0.8982
3113.943939 0.8984 0.8987 0.8989 0.8991 0.8993
3118.755555 0.8993 0.8992 0.8991 0.8991 0.8989
3123.567170 0.8988 0.8987 0.8986 0.8984 0.8983
3128.378785 0.8982 0.8981 0.8980 0.8978 0.8977
3133.190401 0.8976 0.8975 0.8974 0.8973 0.8972
3138.002016 0.8971 0.8969 0.8968 0.8973 0.8981
3142.813632 0.8965 0.8963 0.8962 0.8960 0.8958
3147.625247 0.8955 0.8953 0.8950 0.8947 0.8944
3152.436862 0.8940 0.8937 0.8932 0.8928 0.8923
3157.248478 0.8918 0.8913 0.8908 0.8902 0.8897
3162.060093 0.8892 0.8886 0.8881 0.8876 0.8871
3166.871708 0.8866 0.8861 0.8856 0.8851 0.8846
3171.683324 0.8841 0.8836 0.8830 0.8825 0.8820
3176.494939 0.8816 0.8811 0.8806 0.8802 0.8797
3181.306554 0.8792 0.8787 0.8783 0.8777 0.8773
3186.118170 0.8768 0.8763 0.8758 0.8754 0.8749
3190.929785 0.8744 0.8740 0.8734 0.8728 0.8720
3195.741401 0.8711 0.8703 0.8695 0.8687 0.8678
3200.553016 0.8670 0.8663 0.8660 0.8656 0.8653
3205.364631 0.8649 0.8646 0.8644 0.8641 0.8639
3210.176247 0.8639 0.8640 0.8642 0.8643 0.8645
3214.987862 0.8648 0.8651 0.8654 0.8659 0.8666
3219.799477 0.8674 0.8682 0.8628 0.8685 0.8703
3224.611093 0.8709 0.8716 0.8723 0.8728 0.8734
3229.422708 0.8740 0.8745 0.8751 0.8756 0.8762
3234.234324 0.8767 0.8774 0.8780 0.8785 0.8791
3239.045939 0.8797 0.8802 0.8808 0.8814 0.8820
3243.857554 0.8825 0.8829 0.8835 0.8839 0.8840
3248.669170 0.8840 0.8841 0.8841 0.8842 0.8842
3253.480785 0.8843 0.8844 0.8844 0.8845 0.8846
3258.292400 0.8846 0.8846 0.8846 0.8845 0.8844
3263.104016 0.8844 0.8843 0.8842 0.8842 0.8841
3267.915631 0.8840 0.8838 0.8836 0.8835 0.8833
3272.727246 0.8831 0.8829 0.8826 0.8824 0.8860
3277.538862 0.8820 0.8815 0.8811 0.8807 0.8804
3282.350477 0.8800 0.8796 0.8793 0.8788 0.8783
3287.162093 0.8779 0.8775 0.8770 0.8765 0.8760
3291.973708 0.8755 0.8750 0.8744 0.8737 0.8730
3296.785323 0.8722 0.8714 0.8707 0.8699 0.8690
3301.596939 0.8682 0.8674 0.8665 0.8657 0.8649
3306.408554 0.8640 0.8629 0.8617 0.8605 0.8594
3311.220169 0.8582 0.8569 0.8556 0.8544 0.8531
3316.031785 0.8519 0.8506 0.8493 0.8481 0.8468
3320.843400 0.8455 0.8441 0.8428 0.8415 0.8402
3325.655015 0.8389 0.8376 0.8364 0.8350 0.8319
3330.466631 0.8288 0.8258 0.8224 0.8162 0.8060
3335.278246 0.7958 0.7856 0.7750 0.7633 0.7510
3340.089862 0.7387 0.7264 0.7141 0.7018 0.6896
3344.901477 0.6773 0.6650 0.6527 0.6405 0.6282
3349.713092 0.6160 0.6038 0.5916 0.5794 0.5672
3354.524708 0.5550 0.5428 0.5306 0.5184 0.5062
3359.336323 0.4940 0.4864 0.4806 0.4749 0.4691
3364.147938 0.4643 0.4636 0.4636 0.4636 0.4636
3368.959554 0.4643 0.4638 0.4639 0.4640 0.4642
3373.771169 0.4678 0.4736 0.4795 0.4853 0.4913
3378.582784 0.4984 0.5058 0.5132 0.5206 0.5280
3383.394400 0.5354 0.5428 0.5502 0.5576 0.5649
3388.206015 0.5723 0.5797 0.5870 0.5944 0.6017
3393.017631 0.6091 0.6165 0.6238 0.6312 0.6385
3397.829246 0.6458 0.6532 0.6605 0.6678 0.6751
3402.640861 0.6824 0.6897 0.6970 0.7043 0.7117
3407.452477 0.7189 0.7262 0.7335 0.7370 0.7382
3412.264092 0.7393 0.7404 0.7415 0.7409 0.7418
3417.075707 0.7419 0.7419 0.7419 0.7420 0.7420
3421.887323 0.7420 0.7420 0.7414 0.7388 0.7359
3426.698938 0.7331 0.7302 0.7269 0.7227 0.7183
3431.510554 0.7140 0.7097 0.7053 0.7010 0.6966
3436.322169 0.6923 0.6879 0.6836 0.6793 0.6749
3441.133784 0.6706 0.6663 0.6620 0.6577 0.6534
3445.945400 0.6491 0.6448 0.6405 0.6361 0.6318
3450.757015 0.6275 0.6232 0.6189 0.6147 0.6104
3455.568630 0.6061 0.6018 0.5976 0.5933 0.5890
3460.380246 0.5847 0.5804 0.5761 0.5719 0.5677
3465.191861 0.5634 0.5598 0.5588 0.5588 0.5587
3470.003476 0.5586 0.5586 0.5586 0.5586 0.5586
3474.815092 0.5586 0.5590 0.5604 0.5623 0.5642
3479.626707 0.5661 0.5619 0.5716 0.5841 0.5924
3484.438323 0.6006 0.6089 0.6171 0.6253 0.6335
3489.249938 0.6418 0.6500 0.6581 0.6663 0.6745
3494.061553 0.6827 0.6909 0.6991 0.7072 0.7154
3498.873169 0.7236 0.7318 0.7400 0.7481 0.7563
3503.684784 0.7644 0.7724 0.7795 0.7861 0.7927
3508.496399 0.7993 0.8055 0.8101 0.8130 0.8159
3513.308015 0.8188 0.8217 0.8245 0.8271 0.8297
3518.119630 0.8324 0.8350 0.8374 0.8395 0.8416
3522.931245 0.8437 0.8457 0.8477 0.8494 0.8511
3527.742861 0.8527 0.8544 0.8561 0.8578 0.8595
3532.554476 0.8612 0.8629 0.8646 0.8663 0.8681
3537.366092 0.8697 0.8715 0.8731 0.8747 0.8764
3542.177707 0.8780 0.8796 0.8812 0.8827 0.8840
3546.989322 0.8853 0.8866 0.8879 0.8891 0.8901
3551.800938 0.8912 0.8921 0.8931 0.8941 0.8952
3556.612553 0.8962 0.8972 0.8982 0.8992 0.9000
3561.424168 0.9008 0.9015 0.9023 0.9031 0.9036
3566.235784 0.9042 0.9047 0.9052 0.9058 0.9063
3571.047399 0.9068 0.9074 0.9079 0.9084 0.9089
3575.859015 0.9094 0.9100 0.9106 0.9111 0.9116
3580.670630 0.9120 0.9125 0.9129 0.9133 0.9137
3585.482245 0.9141 0.9145 0.9149 0.9152 0.9156
3590.293861 0.9159 0.9163 0.9167 0.9170 0.9174
3595.105476 0.9177 0.9179 0.9181 0.9183 0.9184
3599.917091 0.9187 0.9189 0.9191 0.9193 0.9194
3604.728707 0.9196 0.9198 0.9200 0.9202 0.9203
3609.540322 0.9205 0.9207 0.9209 0.9211 0.9212
3614.351937 0.9214 0.9216 0.9218 0.9219 0.9219
3619.163553 0.9220 0.9221 0.9222 0.9223 0.9224
3623.975168 0.9225 0.9226 0.9227 0.9228 0.9230
3628.786784 0.9231 0.9232 0.9233 0.9234 0.9235
3633.598399 0.9235 0.9236 0.9237 0.9237 0.9238
3638.410014 0.9238 0.9239 0.9240 0.9240 0.9241
3643.221630 0.9241 0.9242 0.9243 0.9244 0.9244
3648.033245 0.9245 0.9245 0.9246 0.9246 0.9247
3652.844860 0.9247 0.9248 0.9249 0.9249 0.9250
3657.656476 0.9250 0.9251 0.9251 0.9252 0.9253
3662.468091 0.9254 0.9255 0.9255 0.9256 0.9256
3667.279706 0.9257 0.9257 0.9258 0.9259 0.9259
3672.091322 0.9260 0.9261 0.9262 0.9262 0.9263
3676.902937 0.9264 0.9264 0.9265 0.9266 0.9266
3681.714553 0.9267 0.9267 0.9268 0.9268 0.9269
3686.526168 0.9269 0.9270 0.9270 0.9271 0.9271
3691.337783 0.9272 0.9272 0.9272 0.9273 0.9273
3696.149399 0.9274 0.9274 0.9275 0.9275 0.9275
3700.961014 0.9276 0.9276 0.9276 0.9277 0.9277
3705.772629 0.9277 0.9278 0.9278 0.9278 0.9278
3710.584245 0.9278 0.9278 0.9279 0.9279 0.9279
3715.395860 0.9280 0.9280 0.9280 0.9281 0.9281
3720.207475 0.9281 0.9281 0.9281 0.9281 0.9282
3725.019091 0.9282 0.9282 0.9282 0.9282 0.9282
3729.830706 0.9282 0.9282 0.9282 0.9282 0.9282
3734.642322 0.9282 0.9282 0.9282 0.9282 0.9282
3739.453937 0.9282 0.9282 0.9282 0.9282 0.9282
3744.265552 0.9282 0.9282 0.9282 0.9282 0.9282
3749.077168 0.9282 0.9282 0.9282 0.9282 0.9282
3753.888783 0.9282 0.9282 0.9282 0.9283 0.9283
3758.700398 0.9283 0.9283 0.9283 0.9283 0.9284
3763.512014 0.9284 0.9284 0.9284 0.9284 0.9284
3768.323629 0.9285 0.9285 0.9285 0.9285 0.9285
3773.135245 0.9285 0.9286 0.9287 0.9287 0.9288
3777.946860 0.9289 0.9289 0.9290 0.9291 0.9292
3782.758475 0.9293 0.9293 0.9294 0.9295 0.9296
3787.570091 0.9297 0.9298 0.9298 0.9299 0.9300
3792.381706 0.9301 0.9302 0.9303 0.9304 0.9305
3797.193321 0.9305 0.9305 0.9305 0.9305 0.9305
3802.004937 0.9306 0.9306 0.9306 0.9307 0.9307
3806.816552 0.9307 0.9307 0.9307 0.9306 0.9306
3811.628167 0.9305 0.9305 0.9305 0.9304 0.9303
3816.439783 0.9302 0.9301 0.9300 0.9300 0.9299
3821.251398 0.9298 0.9298 0.9297 0.9296 0.9296
3826.063014 0.9295 0.9294 0.9293 0.9293 0.9292
3830.874629 0.9291 0.9290 0.9290 0.9289 0.9288
3835.686244 0.9287 0.9286 0.9286 0.9285 0.9284
3840.497860 0.9283 0.9282 0.9281 0.9280 0.9279
3845.309475 0.9278 0.9277 0.9276 0.9275 0.9274
3850.121090 0.9273 0.9272 0.9271 0.9270 0.9269
3854.932706 0.9268 0.9267 0.9266 0.9265 0.9264
3859.744321 0.9263 0.9262 0.9261 0.9260 0.9259
3864.555936 0.9258 0.9257 0.9256 0.9256 0.9255
3869.367552 0.9254 0.9254 0.9253 0.0000
##END=
