##TITLE=Copper,bis(hydrogen 2-hydroxy-e-oxo-1-cyclohexene-1-hexanato)-, dimethyl ester
##JCAMP-DX=4.24
##DATA TYPE=INFRARED SPECTRUM
##CLASS=COBLENTZ III
##ORIGIN=SOUTHERN RESEARCH INSTITUTE, W.C. Coburn, Jr.
##OWNER=Copyright (C) 1987 by the Coblentz Society
Collection (C) 2018 copyright by the U.S. Secretary of Commerce
on behalf of the United States of America. All rights reserved.
##DATE=1958/01/10
##MOLFORM=C26 H38 O8 Cu
##SOURCE REFERENCE=COBLENTZ NO. 9245
##$NIST ID=B6009245
##$NIST SOURCE=COBLENTZ
##$NIST IMAGE=cob9245
##SPECTROMETER/DATA SYSTEM=PERKIN-ELMER 21 (GRATING)
##INSTRUMENT PARAMETERS=FILTER CHANGE AT 1090 CM^-^1
##STATE=SOLID (0.6 mg / 650 mg KBr DISC)
##SAMPLING PROCEDURE=TRANSMISSION
##RESOLUTION=2
##DATA PROCESSING=DIGITIZED BY COBLENTZ SOCIETY (BATCH II) FROM HARD COPY (ADJUSTED \addcm-1\10-8-2\)
##XUNITS=1/CM
##YUNITS=TRANSMITTANCE
##XFACTOR=1.0
##YFACTOR=1
##DELTAX=1.003297
##FIRSTX=597.776
##LASTX=4012
##FIRSTY=1.0112
##MAXX=4012
##MINX=597.776
##MAXY=1.012
##MINY=0.154851
##NPOINTS=3404
##XYDATA=(X++(Y..Y))
597.776000 1.0112 1.0115 1.0118 1.0120 1.0119
602.792486 1.0118 1.0117 1.0116 1.0115 1.0114
607.808973 1.0110 1.0105 1.0101 1.0096 1.0073
612.825459 1.0046 1.0022 1.0000 0.9978 0.9955
617.841946 0.9933 0.9911 0.9881 0.9849 0.9818
622.858432 0.9786 0.9755 0.9726 0.9696 0.9667
627.874919 0.9638 0.9608 0.9579 0.9546 0.9512
632.891405 0.9478 0.9450 0.9431 0.9414 0.9396
637.907892 0.9390 0.9389 0.9390 0.9390 0.9390
642.924378 0.9391 0.9389 0.9386 0.9383 0.9369
647.940865 0.9351 0.9334 0.9315 0.9295 0.9276
652.957351 0.9259 0.9247 0.9235 0.9223 0.9211
657.973838 0.9196 0.9176 0.9031 0.8804 0.8640
662.990324 0.8542 0.8462 0.8395 0.8358 0.8317
668.006811 0.8320 0.8334 0.8370 0.8450 0.8547
673.023297 0.8642 0.8739 0.8835 0.8928 0.8985
678.039784 0.9008 0.9008 0.9017 0.9021 0.9014
683.056270 0.9005 0.8995 0.8978 0.8950 0.8918
688.072757 0.8894 0.8881 0.8875 0.8874 0.8878
693.089243 0.8882 0.8888 0.8896 0.8903 0.8911
698.105730 0.8917 0.8922 0.8927 0.8931 0.8933
703.122216 0.8932 0.8932 0.8932 0.8931 0.8931
708.138703 0.8929 0.8916 0.8894 0.8869 0.8843
713.155189 0.8817 0.8791 0.8765 0.8740 0.8716
718.171676 0.8693 0.8670 0.8645 0.8618 0.8592
723.188162 0.8562 0.8525 0.8482 0.8431 0.8362
728.204649 0.8258 0.8062 0.7772 0.7477 0.7288
733.221135 0.7229 0.7208 0.7197 0.7252 0.7469
738.237622 0.7785 0.8028 0.8105 0.8115 0.8115
743.254108 0.8120 0.8117 0.8107 0.8082 0.8017
748.270595 0.7901 0.7802 0.7743 0.7683 0.7624
753.287081 0.7570 0.7533 0.7530 0.7535 0.7531
758.303568 0.7535 0.7543 0.7566 0.7608 0.7694
763.320054 0.7874 0.8043 0.8246 0.8329 0.8407
768.336541 0.8432 0.8435 0.8437 0.8439 0.8441
773.353027 0.8438 0.8434 0.8435 0.8432 0.8424
778.369514 0.8416 0.8408 0.8400 0.8390 0.8377
783.386000 0.8365 0.8352 0.8339 0.8327 0.8315
788.402486 0.8303 0.8290 0.8277 0.8262 0.8246
793.418973 0.8230 0.8202 0.8174 0.8170 0.8170
798.435459 0.8170 0.8172 0.8181 0.8190 0.8201
803.451946 0.8213 0.8219 0.8220 0.8220 0.8211
808.468432 0.8189 0.8165 0.8141 0.8115 0.8089
813.484919 0.8057 0.8025 0.8006 0.7866 0.7740
818.501405 0.7642 0.7573 0.7519 0.7414 0.7175
823.517892 0.6930 0.6685 0.6441 0.6218 0.6205
828.534378 0.6208 0.6378 0.6810 0.7264 0.7718
833.550865 0.8216 0.8318 0.8330 0.8332 0.8327
838.567351 0.8321 0.8331 0.8301 0.8260 0.8230
843.583838 0.8200 0.8170 0.8141 0.8114 0.8104
848.600324 0.8097 0.8091 0.8084 0.8077 0.8070
853.616811 0.8063 0.8046 0.8019 0.7974 0.7928
858.633297 0.7893 0.7866 0.7844 0.7822 0.7798
863.649784 0.7768 0.7737 0.7626 0.7519 0.7423
868.666270 0.7325 0.7229 0.7023 0.6921 0.6870
873.682757 0.6826 0.6804 0.6806 0.6804 0.6822
878.699243 0.6953 0.7128 0.7304 0.7480 0.7623
883.715730 0.7662 0.7658 0.7650 0.7612 0.7577
888.732216 0.7578 0.7658 0.7746 0.7853 0.7920
893.748703 0.7948 0.7949 0.7937 0.7898 0.7822
898.765189 0.7733 0.7644 0.7555 0.7467 0.7378
903.781676 0.7315 0.7297 0.7299 0.7307 0.7405
908.798162 0.7700 0.7937 0.8022 0.8077 0.8118
913.814649 0.8146 0.8168 0.8186 0.8198 0.8206
918.831135 0.8211 0.8214 0.8215 0.8216 0.8219
923.847622 0.8216 0.8209 0.8205 0.8201 0.8197
928.864108 0.8193 0.8188 0.8184 0.8180 0.8170
933.880595 0.8155 0.8137 0.8117 0.8097 0.8076
938.897081 0.8058 0.8044 0.8030 0.8016 0.8003
943.913568 0.7991 0.7982 0.7972 0.7963 0.7954
948.930054 0.7944 0.7935 0.7924 0.7909 0.7893
953.946541 0.7877 0.7862 0.7847 0.7830 0.7810
958.963027 0.7789 0.7768 0.7747 0.7727 0.7704
963.979514 0.7679 0.7653 0.7627 0.7534 0.7329
968.996000 0.7267 0.7205 0.7148 0.7091 0.7033
974.012486 0.6973 0.6895 0.6801 0.6712 0.6618
979.028973 0.6552 0.6484 0.6410 0.6342 0.6293
984.045459 0.6258 0.6253 0.6249 0.6248 0.6336
989.061946 0.6825 0.7108 0.7191 0.7173 0.7186
994.078432 0.7151 0.7021 0.6892 0.6762 0.6633
999.094919 0.6504 0.6374 0.6259 0.6240 0.6266
1004.111405 0.6761 0.7121 0.7478 0.7777 0.7813
1009.127892 0.7849 0.7881 0.7903 0.7924 0.7930
1014.144378 0.7922 0.7922 0.7921 0.7921 0.7918
1019.160865 0.7913 0.7907 0.7893 0.7878 0.7864
1024.177351 0.7850 0.7835 0.7820 0.7805 0.7790
1029.193838 0.7775 0.7760 0.7745 0.7731 0.7714
1034.210324 0.7698 0.7681 0.7665 0.7648 0.7632
1039.226811 0.7626 0.7619 0.7612 0.7605 0.7599
1044.243297 0.7594 0.7592 0.7591 0.7589 0.7581
1049.259784 0.7568 0.7554 0.7539 0.7524 0.7509
1054.276270 0.7494 0.7479 0.7464 0.7449 0.7434
1059.292757 0.7419 0.7404 0.7389 0.7375 0.7360
1064.309243 0.7330 0.7289 0.7192 0.7129 0.7093
1069.325730 0.7089 0.7090 0.7092 0.7095 0.7105
1074.342216 0.7117 0.7129 0.7141 0.7158 0.7175
1079.358703 0.7192 0.7209 0.7226 0.7243 0.7260
1084.375189 0.7292 0.7403 0.7516 0.7629 0.7665
1089.391676 0.7663 0.7080 0.7053 0.7054 0.7060
1094.408162 0.7066 0.7079 0.7101 0.7122 0.7130
1099.424649 0.7132 0.7133 0.7124 0.7116 0.7107
1104.441135 0.7094 0.7080 0.7066 0.7031 0.6993
1109.457622 0.6956 0.6922 0.6888 0.6854 0.6812
1114.474108 0.6768 0.6719 0.6670 0.6620 0.6570
1119.490595 0.6520 0.6472 0.6428 0.6384 0.6341
1124.507081 0.6297 0.6245 0.6178 0.6110 0.6025
1129.523568 0.5909 0.5789 0.5716 0.5655 0.5595
1134.540054 0.5536 0.5477 0.5404 0.5321 0.5237
1139.556541 0.5152 0.4986 0.4831 0.4802 0.4788
1144.573027 0.4781 0.4774 0.4760 0.4561 0.4341
1149.589514 0.4106 0.3938 0.3813 0.3701 0.3594
1154.606000 0.3488 0.3376 0.3261 0.3123 0.2957
1159.622486 0.2861 0.2850 0.2853 0.2845 0.2873
1164.638973 0.2919 0.3066 0.3235 0.3405 0.3575
1169.655459 0.3744 0.3914 0.4123 0.4207 0.4256
1174.671946 0.4295 0.4333 0.4381 0.4610 0.5245
1179.688432 0.5961 0.6240 0.6302 0.6331 0.6339
1184.704919 0.6361 0.6353 0.6343 0.6295 0.6213
1189.721405 0.6126 0.6038 0.5951 0.5877 0.5860
1194.737892 0.5859 0.5861 0.5864 0.5855 0.6457
1199.754378 0.6707 0.6778 0.6839 0.6887 0.6927
1204.770865 0.6960 0.6979 0.6994 0.7000 0.6999
1209.787351 0.6995 0.6985 0.6948 0.6871 0.6784
1214.803838 0.6697 0.6609 0.6523 0.6436 0.6366
1219.820324 0.6341 0.6349 0.6433 0.6608 0.6805
1224.836811 0.7003 0.7116 0.7178 0.7208 0.7210
1229.853297 0.7206 0.7193 0.7173 0.7143 0.7099
1234.869784 0.7045 0.6991 0.6906 0.6821 0.6745
1239.886270 0.6653 0.6579 0.6544 0.6528 0.6509
1244.902757 0.6480 0.6439 0.6387 0.6326 0.6259
1249.919243 0.6086 0.5932 0.5832 0.5751 0.5672
1254.935730 0.5587 0.5501 0.5349 0.5122 0.4876
1259.952216 0.4629 0.4383 0.4136 0.3890 0.3642
1264.968703 0.3395 0.3149 0.2902 0.2803 0.2808
1269.985189 0.2839 0.3069 0.3397 0.3725 0.4054
1275.001676 0.4382 0.4710 0.5038 0.5366 0.5695
1280.018162 0.5946 0.6091 0.6247 0.6373 0.6467
1285.034649 0.6561 0.6671 0.6781 0.6844 0.6881
1290.051135 0.6908 0.6919 0.6936 0.6927 0.6908
1295.067622 0.6886 0.6847 0.6802 0.6756 0.6703
1300.084108 0.6646 0.6589 0.6523 0.6446 0.6365
1305.100595 0.6249 0.6091 0.5918 0.5744 0.5570
1310.117081 0.5397 0.5223 0.5049 0.4964 0.4959
1315.133568 0.4965 0.4973 0.5005 0.5354 0.6015
1320.150054 0.6322 0.6324 0.6322 0.6296 0.6235
1325.166541 0.6145 0.5982 0.5769 0.5555 0.5341
1330.183027 0.5127 0.4846 0.4664 0.4604 0.4560
1335.199514 0.4538 0.4523 0.4516 0.4510 0.4529
1340.216000 0.4597 0.4789 0.5083 0.5397 0.5642
1345.232486 0.5762 0.5833 0.5895 0.5935 0.5944
1350.248973 0.5933 0.5869 0.5739 0.5590 0.5441
1355.265459 0.5292 0.5143 0.4993 0.4844 0.4695
1360.281946 0.4478 0.4284 0.4226 0.4220 0.4213
1365.298432 0.4224 0.4329 0.4587 0.4924 0.5261
1370.314919 0.5497 0.5571 0.5578 0.5580 0.5567
1375.331405 0.5572 0.5471 0.5288 0.5182 0.5076
1380.347892 0.4970 0.4882 0.4832 0.4799 0.4759
1385.364378 0.4705 0.4564 0.4330 0.4101 0.3886
1390.380865 0.3709 0.3630 0.3616 0.3588 0.3445
1395.397351 0.3183 0.2966 0.2863 0.2834 0.2819
1400.413838 0.2827 0.2851 0.2943 0.3101 0.3259
1405.430324 0.3414 0.3517 0.3531 0.3497 0.3439
1410.446811 0.3369 0.3301 0.3234 0.3199 0.3245
1415.463297 0.3409 0.3710 0.4012 0.4313 0.4614
1420.479784 0.4915 0.5170 0.5280 0.5347 0.5383
1425.496270 0.5423 0.5484 0.5702 0.6288 0.6325
1430.512757 0.6327 0.6327 0.6325 0.6327 0.6269
1435.529243 0.6221 0.6078 0.5853 0.5629 0.5405
1440.545730 0.5181 0.4957 0.4732 0.4509 0.4341
1445.562216 0.4263 0.4153 0.3929 0.3564 0.3394
1450.578703 0.3238 0.3081 0.3005 0.2998 0.3012
1455.595189 0.3115 0.3270 0.3431 0.3593 0.3735
1460.611676 0.3755 0.3773 0.3274 0.2887 0.2570
1465.628162 0.2376 0.2302 0.2283 0.2258 0.2268
1470.644649 0.2282 0.2310 0.2425 0.2609 0.2790
1475.661135 0.2893 0.2926 0.2940 0.2958 0.3162
1480.677622 0.3534 0.4012 0.4322 0.4454 0.4579
1485.694108 0.4690 0.4797 0.4910 0.5205 0.5517
1490.710595 0.5631 0.5735 0.5850 0.5974 0.6091
1495.727081 0.6199 0.6291 0.6351 0.6402 0.6452
1500.743568 0.6503 0.6555 0.6615 0.6683 0.6748
1505.760054 0.6799 0.6837 0.6876 0.6917 0.6962
1510.776541 0.7012 0.7053 0.7073 0.7080 0.7086
1515.793027 0.7093 0.7100 0.7107 0.7114 0.7120
1520.809514 0.7126 0.7132 0.7135 0.7120 0.7132
1525.826000 0.7128 0.7124 0.7120 0.7116 0.7109
1530.842486 0.7102 0.7095 0.7083 0.7057 0.7030
1535.858973 0.7003 0.6950 0.6885 0.6820 0.6756
1540.875459 0.6691 0.6626 0.6554 0.6464 0.6371
1545.891946 0.6277 0.6189 0.6105 0.6023 0.5940
1550.908432 0.5858 0.5775 0.5690 0.5606 0.5535
1555.924919 0.5489 0.5450 0.5411 0.5322 0.5134
1560.941405 0.4910 0.4686 0.4461 0.4102 0.3812
1565.957892 0.3683 0.3597 0.3513 0.3432 0.3305
1570.974378 0.2998 0.2191 0.1606 0.1559 0.1549
1575.990865 0.1549 0.1549 0.1552 0.1567 0.1586
1581.007351 0.1668 0.1903 0.2234 0.2560 0.2791
1586.023838 0.2864 0.2916 0.2962 0.3014 0.3098
1591.040324 0.3242 0.3476 0.3786 0.4060 0.4279
1596.056811 0.4456 0.4562 0.4833 0.5505 0.5665
1601.073297 0.5846 0.6017 0.6102 0.6137 0.6172
1606.089784 0.6208 0.6241 0.6266 0.6285 0.6304
1611.106270 0.6325 0.6388 0.6645 0.6718 0.6788
1616.122757 0.6839 0.6888 0.6936 0.6984 0.7031
1621.139243 0.7076 0.7116 0.7152 0.7188 0.7225
1626.155730 0.7261 0.7297 0.7326 0.7352 0.7378
1631.172216 0.7404 0.7430 0.7458 0.7487 0.7529
1636.188703 0.7571 0.7613 0.7655 0.7700 0.7762
1641.205189 0.7825 0.7884 0.7917 0.7948 0.7960
1646.221676 0.7970 0.7980 0.7990 0.8000 0.8012
1651.238162 0.8031 0.8053 0.8070 0.8087 0.8103
1656.254649 0.8120 0.8136 0.8152 0.8169 0.8185
1661.271135 0.8194 0.8201 0.8209 0.8216 0.8224
1666.287622 0.8229 0.8231 0.8234 0.8237 0.8239
1671.304108 0.8241 0.8246 0.8261 0.8241 0.8238
1676.320595 0.8234 0.8229 0.8220 0.8210 0.8200
1681.337081 0.8190 0.8179 0.8168 0.8158 0.8147
1686.353568 0.8137 0.8128 0.8118 0.8107 0.8094
1691.370054 0.8081 0.8067 0.8051 0.8030 0.8008
1696.386541 0.7985 0.7963 0.7940 0.7918 0.7896
1701.403027 0.7874 0.7855 0.7836 0.7816 0.7797
1706.419514 0.7778 0.7758 0.7735 0.7711 0.7687
1711.436000 0.7659 0.7613 0.7548 0.7434 0.7223
1716.452486 0.7065 0.6992 0.6917 0.6824 0.6680
1721.468973 0.6475 0.6145 0.5908 0.5657 0.5406
1726.485459 0.5155 0.4903 0.4652 0.4401 0.4149
1731.501946 0.3910 0.3729 0.3615 0.3540 0.3491
1736.518432 0.3489 0.3491 0.3505 0.3523 0.3610
1741.534919 0.3857 0.4116 0.4375 0.4634 0.4893
1746.551405 0.5152 0.5411 0.5669 0.5924 0.6200
1751.567892 0.6511 0.6598 0.6645 0.6682 0.6715
1756.584378 0.6733 0.6758 0.6803 0.6895 0.7099
1761.600865 0.7271 0.7417 0.7496 0.7562 0.7604
1766.617351 0.7641 0.7674 0.7706 0.7795 0.7987
1771.633838 0.8050 0.8091 0.8133 0.8171 0.8198
1776.650324 0.8220 0.8241 0.8259 0.8273 0.8287
1781.666811 0.8301 0.8315 0.8328 0.8341 0.8354
1786.683297 0.8367 0.8379 0.8392 0.8406 0.8420
1791.699784 0.8434 0.8449 0.8463 0.8477 0.8491
1796.716270 0.8505 0.8519 0.8531 0.8541 0.8551
1801.732757 0.8561 0.8571 0.8581 0.8590 0.8600
1806.749243 0.8610 0.8620 0.8630 0.8639 0.8649
1811.765730 0.8659 0.8669 0.8678 0.8685 0.8692
1816.782216 0.8699 0.8707 0.8714 0.8721 0.8728
1821.798703 0.8736 0.8743 0.8750 0.8755 0.8760
1826.815189 0.8764 0.8768 0.8773 0.8777 0.8781
1831.831676 0.8786 0.8790 0.8794 0.8799 0.8803
1836.848162 0.8807 0.8812 0.8817 0.8822 0.8827
1841.864649 0.8832 0.8837 0.8842 0.8846 0.8848
1846.881135 0.8850 0.8852 0.8855 0.8857 0.8859
1851.897622 0.8861 0.8863 0.8865 0.8867 0.8868
1856.914108 0.8870 0.8872 0.8873 0.8875 0.8877
1861.930595 0.8878 0.8878 0.8878 0.8877 0.8877
1866.947081 0.8877 0.8876 0.8877 0.8877 0.8878
1871.963568 0.8881 0.8883 0.8880 0.8881 0.8881
1876.980054 0.8882 0.8883 0.8883 0.8884 0.8885
1881.996541 0.8886 0.8886 0.8887 0.8888 0.8888
1887.013027 0.8889 0.8890 0.8890 0.8891 0.8892
1892.029514 0.8892 0.8893 0.8894 0.8895 0.8895
1897.046000 0.8896 0.8897 0.8897 0.8896 0.8894
1902.062486 0.8892 0.8890 0.8888 0.8886 0.8884
1907.078973 0.8884 0.8883 0.8883 0.8882 0.8882
1912.095459 0.8882 0.8882 0.8882 0.8882 0.8882
1917.111946 0.8882 0.8882 0.8882 0.8882 0.8882
1922.128432 0.8882 0.8882 0.8882 0.8883 0.8884
1927.144919 0.8885 0.8886 0.8887 0.8888 0.8889
1932.161405 0.8890 0.8891 0.8892 0.8893 0.8893
1937.177892 0.8892 0.8891 0.8890 0.8889 0.8888
1942.194378 0.8887 0.8886 0.8885 0.8884 0.8884
1947.210865 0.8883 0.8880 0.8876 0.8872 0.8868
1952.227351 0.8864 0.8860 0.8855 0.8847 0.8838
1957.243838 0.8828 0.8819 0.8811 0.8806 0.8803
1962.260324 0.8799 0.8795 0.8792 0.8788 0.8785
1967.276811 0.8783 0.8782 0.8784 0.8785 0.8786
1972.293297 0.8787 0.8788 0.8790 0.8791 0.8793
1977.309784 0.8794 0.8796 0.8799 0.8800 0.8802
1982.326270 0.8804 0.8806 0.8808 0.8810 0.8812
1987.342757 0.8813 0.8814 0.8816 0.8818 0.8819
1992.359243 0.8821 0.8822 0.8823 0.8825 0.8826
1997.375730 0.8829 0.8833 0.8836 0.8840 0.8843
2002.392216 0.8847 0.8850 0.8853 0.8856 0.8859
2007.408703 0.8859 0.8858 0.8855 0.8852 0.8849
2012.425189 0.8846 0.8842 0.8838 0.8833 0.8828
2017.441676 0.8824 0.8820 0.8816 0.8812 0.8808
2022.458162 0.8804 0.8800 0.8796 0.8793 0.8790
2027.474649 0.8787 0.8785 0.8782 0.8779 0.8777
2032.491135 0.8773 0.8768 0.8763 0.8758 0.8752
2037.507622 0.8747 0.8741 0.8736 0.8730 0.8723
2042.524108 0.8716 0.8709 0.8702 0.8695 0.8688
2047.540595 0.8681 0.8676 0.8675 0.8676 0.8677
2052.557081 0.8678 0.8679 0.8681 0.8683 0.8686
2057.573568 0.8688 0.8691 0.8693 0.8696 0.8698
2062.590054 0.8699 0.8701 0.8702 0.8703 0.8705
2067.606541 0.8706 0.8708 0.8710 0.8712 0.8714
2072.623027 0.8716 0.8719 0.8721 0.8723 0.8725
2077.639514 0.8726 0.8726 0.8726 0.8727 0.8727
2082.656000 0.8727 0.8728 0.8728 0.8728 0.8729
2087.672486 0.8729 0.8729 0.8729 0.8729 0.8729
2092.688973 0.8729 0.8729 0.8729 0.8729 0.8729
2097.705459 0.8729 0.8729 0.8729 0.8729 0.8730
2102.721946 0.8730 0.8731 0.8732 0.8732 0.8733
2107.738432 0.8734 0.8734 0.8735 0.8736 0.8736
2112.754919 0.8737 0.8736 0.8736 0.8736 0.8736
2117.771405 0.8736 0.8736 0.8736 0.8736 0.8735
2122.787892 0.8735 0.8735 0.8735 0.8735 0.8735
2127.804378 0.8735 0.8735 0.8735 0.8734 0.8733
2132.820865 0.8731 0.8730 0.8728 0.8726 0.8724
2137.837351 0.8723 0.8721 0.8719 0.8718 0.8716
2142.853838 0.8714 0.8712 0.8710 0.8709 0.8708
2147.870324 0.8707 0.8705 0.8704 0.8703 0.8702
2152.886811 0.8703 0.8704 0.8706 0.8707 0.8709
2157.903297 0.8710 0.8712 0.8713 0.8714 0.8716
2162.919784 0.8717 0.8716 0.8716 0.8716 0.8716
2167.936270 0.8715 0.8715 0.8715 0.8714 0.8714
2172.952757 0.8714 0.8714 0.8713 0.8714 0.8715
2177.969243 0.8717 0.8719 0.8721 0.8723 0.8724
2182.985730 0.8726 0.8728 0.8730 0.8731 0.8730
2188.002216 0.8728 0.8726 0.8721 0.8715 0.8709
2193.018703 0.8702 0.8696 0.8689 0.8686 0.8686
2198.035189 0.8688 0.8689 0.8691 0.8692 0.8697
2203.051676 0.8704 0.8711 0.8719 0.8726 0.8731
2208.068162 0.8733 0.8736 0.8738 0.8738 0.8737
2213.084649 0.8735 0.8731 0.8727 0.8723 0.8719
2218.101135 0.8715 0.8711 0.8707 0.8703 0.8700
2223.117622 0.8696 0.8693 0.8689 0.8685 0.8682
2228.134108 0.8679 0.8676 0.8674 0.8672 0.8676
2233.150595 0.8680 0.8684 0.8688 0.8692 0.8696
2238.167081 0.8700 0.8705 0.8708 0.8712 0.8716
2243.183568 0.8719 0.8722 0.8720 0.8717 0.8713
2248.200054 0.8707 0.8701 0.8696 0.8690 0.8684
2253.216541 0.8678 0.8672 0.8668 0.8664 0.8660
2258.233027 0.8656 0.8652 0.8646 0.8638 0.8628
2263.249514 0.8619 0.8611 0.8603 0.8595 0.8588
2268.266000 0.8588 0.8591 0.8595 0.8599 0.8603
2273.282486 0.8610 0.8622 0.8636 0.8650 0.8664
2278.298973 0.8676 0.8686 0.8691 0.8694 0.8695
2283.315459 0.8696 0.8696 0.8696 0.8697 0.8696
2288.331946 0.8694 0.8693 0.8692 0.8691 0.8688
2293.348432 0.8684 0.8680 0.8677 0.8673 0.8668
2298.364919 0.8660 0.8652 0.8644 0.8637 0.8629
2303.381405 0.8621 0.8613 0.8604 0.8593 0.8583
2308.397892 0.8573 0.8562 0.8552 0.8541 0.8530
2313.414378 0.8520 0.8508 0.8497 0.8486 0.8475
2318.430865 0.8464 0.8453 0.8441 0.8419 0.8393
2323.447351 0.8366 0.8352 0.8347 0.8341 0.8345
2328.463838 0.8351 0.8357 0.8363 0.8369 0.8375
2333.480324 0.8381 0.8388 0.8396 0.8404 0.8411
2338.496811 0.8419 0.8424 0.8429 0.8433 0.8437
2343.513297 0.8440 0.8440 0.8440 0.8441 0.8440
2348.529784 0.8436 0.8431 0.8425 0.8420 0.8412
2353.546270 0.8400 0.8388 0.8376 0.8364 0.8352
2358.562757 0.8337 0.8321 0.8305 0.8300 0.8297
2363.579243 0.8302 0.8309 0.8315 0.8321 0.8330
2368.595730 0.8340 0.8351 0.8362 0.8372 0.8382
2373.612216 0.8392 0.8402 0.8412 0.8422 0.8432
2378.628703 0.8442 0.8451 0.8461 0.8471 0.8480
2383.645189 0.8490 0.8500 0.8510 0.8518 0.8526
2388.661676 0.8534 0.8543 0.8551 0.8559 0.8566
2393.678162 0.8572 0.8579 0.8584 0.8588 0.8592
2398.694649 0.8596 0.8598 0.8597 0.8596 0.8595
2403.711135 0.8594 0.8593 0.8592 0.8591 0.8591
2408.727622 0.8590 0.8587 0.8585 0.8582 0.8580
2413.744108 0.8577 0.8575 0.8572 0.8569 0.8566
2418.760595 0.8563 0.8559 0.8555 0.8552 0.8548
2423.777081 0.8540 0.8531 0.8521 0.8512 0.8509
2428.793568 0.8509 0.8510 0.8512 0.8514 0.8516
2433.810054 0.8518 0.8519 0.8519 0.8520 0.8520
2438.826541 0.8520 0.8517 0.8514 0.8511 0.8508
2443.843027 0.8505 0.8502 0.8499 0.8495 0.8491
2448.859514 0.8487 0.8483 0.8479 0.8477 0.8478
2453.876000 0.8478 0.8479 0.8481 0.8483 0.8486
2458.892486 0.8490 0.8495 0.8499 0.8503 0.8504
2463.908973 0.8505 0.8505 0.8505 0.8506 0.8506
2468.925459 0.8506 0.8507 0.8507 0.8507 0.8506
2473.941946 0.8504 0.8503 0.8502 0.8500 0.8499
2478.958432 0.8497 0.8496 0.8495 0.8493 0.8492
2483.974919 0.8489 0.8485 0.8481 0.8477 0.8473
2488.991405 0.8469 0.8465 0.8461 0.8457 0.8454
2494.007892 0.8451 0.8449 0.8446 0.8444 0.8441
2499.024378 0.8439 0.8436 0.8434 0.8432 0.8431
2504.040865 0.8431 0.8431 0.8431 0.8432 0.8432
2509.057351 0.8434 0.8436 0.8438 0.8441 0.8441
2514.073838 0.8442 0.8442 0.8442 0.8443 0.8443
2519.090324 0.8443 0.8444 0.8444 0.8445 0.8447
2524.106811 0.8449 0.8451 0.8453 0.8453 0.8453
2529.123297 0.8453 0.8453 0.8452 0.8452 0.8452
2534.139784 0.8450 0.8448 0.8446 0.8444 0.8441
2539.156270 0.8439 0.8437 0.8435 0.8432 0.8430
2544.172757 0.8428 0.8429 0.8433 0.8436 0.8438
2549.189243 0.8439 0.8441 0.8442 0.8444 0.8445
2554.205730 0.8447 0.8448 0.8450 0.8451 0.8451
2559.222216 0.8450 0.8449 0.8448 0.8445 0.8441
2564.238703 0.8437 0.8434 0.8430 0.8426 0.8423
2569.255189 0.8420 0.8420 0.8420 0.8421 0.8421
2574.271676 0.8421 0.8422 0.8422 0.8422 0.8420
2579.288162 0.8412 0.8403 0.8395 0.8384 0.8369
2584.304649 0.8353 0.8339 0.8330 0.8327 0.8324
2589.321135 0.8321 0.8319 0.8316 0.8315 0.8314
2594.337622 0.8313 0.8311 0.8309 0.8305 0.8301
2599.354108 0.8297 0.8293 0.8288 0.8281 0.8274
2604.370595 0.8267 0.8271 0.8277 0.8280 0.8284
2609.387081 0.8287 0.8290 0.8294 0.8297 0.8300
2614.403568 0.8304 0.8307 0.8309 0.8311 0.8313
2619.420054 0.8315 0.8317 0.8319 0.8321 0.8322
2624.436541 0.8324 0.8326 0.8327 0.8328 0.8329
2629.453027 0.8329 0.8330 0.8331 0.8331 0.8332
2634.469514 0.8333 0.8333 0.8334 0.8334 0.8335
2639.486000 0.8336 0.8334 0.8333 0.8332 0.8330
2644.502486 0.8329 0.8328 0.8326 0.8325 0.8324
2649.518973 0.8323 0.8321 0.8319 0.8316 0.8312
2654.535459 0.8308 0.8304 0.8301 0.8297 0.8293
2659.551946 0.8290 0.8286 0.8282 0.8279 0.8275
2664.568432 0.8271 0.8268 0.8264 0.8260 0.8257
2669.584919 0.8253 0.8249 0.8246 0.8243 0.8240
2674.601405 0.8237 0.8234 0.8231 0.8228 0.8225
2679.617892 0.8222 0.8219 0.8216 0.8213 0.8210
2684.634378 0.8208 0.8209 0.8209 0.8209 0.8210
2689.650865 0.8210 0.8211 0.8215 0.8224 0.8233
2694.667351 0.8242 0.8250 0.8255 0.8258 0.8261
2699.683838 0.8264 0.8264 0.8263 0.8263 0.8262
2704.700324 0.8261 0.8258 0.8253 0.8249 0.8244
2709.716811 0.8240 0.8235 0.8231 0.8227 0.8222
2714.733297 0.8218 0.8214 0.8210 0.8207 0.8203
2719.749784 0.8199 0.8195 0.8189 0.8179 0.8170
2724.766270 0.8161 0.8151 0.8142 0.8133 0.8127
2729.782757 0.8126 0.8125 0.8123 0.8122 0.8120
2734.799243 0.8119 0.8118 0.8116 0.8115 0.8114
2739.815730 0.8112 0.8107 0.8100 0.8092 0.8085
2744.832216 0.8077 0.8071 0.8069 0.8067 0.8066
2749.848703 0.8064 0.8063 0.8062 0.8065 0.8072
2754.865189 0.8075 0.8072 0.8068 0.8064 0.8062
2759.881676 0.8061 0.8061 0.8060 0.8059 0.8059
2764.898162 0.8058 0.8057 0.8056 0.8056 0.8055
2769.914649 0.8054 0.8054 0.8053 0.8052 0.8052
2774.931135 0.8052 0.8052 0.8053 0.8047 0.8029
2779.947622 0.8009 0.7988 0.7968 0.7945 0.7918
2784.964108 0.7892 0.7872 0.7856 0.7840 0.7824
2789.980595 0.7809 0.7793 0.7777 0.7761 0.7745
2794.997081 0.7729 0.7712 0.7695 0.7679 0.7662
2800.013568 0.7646 0.7628 0.7610 0.7593 0.7575
2805.030054 0.7558 0.7544 0.7535 0.7527 0.7520
2810.046541 0.7516 0.7512 0.7508 0.7504 0.7500
2815.063027 0.7493 0.7485 0.7476 0.7457 0.7424
2820.079514 0.7390 0.7362 0.7346 0.7337 0.7326
2825.096000 0.7304 0.7252 0.7170 0.7107 0.7063
2830.112486 0.7031 0.6999 0.6967 0.6937 0.6910
2835.128973 0.6883 0.6855 0.6828 0.6801 0.6775
2840.145459 0.6749 0.6724 0.6699 0.6673 0.6647
2845.161946 0.6622 0.6597 0.6571 0.6546 0.6521
2850.178432 0.6496 0.6470 0.6446 0.6422 0.6399
2855.194919 0.6377 0.6359 0.6347 0.6336 0.6324
2860.211405 0.6313 0.6307 0.6306 0.6301 0.6303
2865.227892 0.6313 0.6317 0.6322 0.6326 0.6334
2870.244378 0.6349 0.6367 0.6392 0.6430 0.6470
2875.260865 0.6506 0.6540 0.6568 0.6590 0.6611
2880.277351 0.6624 0.6630 0.6637 0.6643 0.6647
2885.293838 0.6650 0.6653 0.6656 0.6659 0.6656
2890.310324 0.6658 0.6664 0.6660 0.6656 0.6651
2895.326811 0.6642 0.6629 0.6611 0.6585 0.6559
2900.343297 0.6532 0.6504 0.6466 0.6420 0.6370
2905.359784 0.6317 0.6265 0.6213 0.6162 0.6111
2910.376270 0.6061 0.6016 0.5974 0.5930 0.5875
2915.392757 0.5811 0.5746 0.5679 0.5608 0.5523
2920.409243 0.5428 0.5344 0.5287 0.5246 0.5216
2925.425730 0.5195 0.5173 0.5154 0.5138 0.5124
2930.442216 0.5111 0.5098 0.5086 0.5075 0.5066
2935.458703 0.5057 0.5047 0.5038 0.5026 0.5013
2940.475189 0.4999 0.4985 0.4971 0.4956 0.4941
2945.491676 0.4925 0.4911 0.4897 0.4884 0.4874
2950.508162 0.4875 0.4881 0.4886 0.4892 0.4899
2955.524649 0.4909 0.4930 0.4975 0.5038 0.5110
2960.541135 0.5187 0.5294 0.5425 0.5558 0.5692
2965.557622 0.5825 0.5959 0.6092 0.6225 0.6359
2970.574108 0.6519 0.6705 0.6861 0.6987 0.7098
2975.590595 0.7190 0.7269 0.7332 0.7388 0.7446
2980.607081 0.7512 0.7580 0.7629 0.7667 0.7686
2985.623568 0.7692 0.7700 0.7712 0.7744 0.7782
2990.640054 0.7806 0.7818 0.7820 0.7819 0.7814
2995.656541 0.7807 0.7798 0.7789 0.7780 0.7770
3000.673027 0.7764 0.7763 0.7764 0.7765 0.7766
3005.689514 0.7767 0.7770 0.7776 0.7784 0.7793
3010.706000 0.7800 0.7807 0.7814 0.7821 0.7827
3015.722486 0.7833 0.7838 0.7843 0.7848 0.7853
3020.738973 0.7859 0.7868 0.7878 0.7888 0.7899
3025.755459 0.7908 0.7915 0.7922 0.7929 0.7936
3030.771946 0.7937 0.7935 0.7933 0.7930 0.7927
3035.788432 0.7925 0.7925 0.7925 0.7924 0.7924
3040.804919 0.7924 0.7924 0.7927 0.7932 0.7937
3045.821405 0.7942 0.7950 0.7959 0.7963 0.7966
3050.837892 0.7969 0.7968 0.7966 0.7964 0.7962
3055.854378 0.7960 0.7958 0.7956 0.7954 0.7952
3060.870865 0.7950 0.7948 0.7945 0.7943 0.7954
3065.887351 0.7972 0.7994 0.8017 0.8041 0.8062
3070.903838 0.8084 0.8091 0.8096 0.8101 0.8106
3075.920324 0.8111 0.8137 0.8114 0.8112 0.8112
3080.936811 0.8112 0.8113 0.8113 0.8112 0.8111
3085.953297 0.8110 0.8109 0.8108 0.8107 0.8106
3090.969784 0.8105 0.8103 0.8100 0.8096 0.8093
3095.986270 0.8089 0.8086 0.8083 0.8080 0.8077
3101.002757 0.8074 0.8075 0.8084 0.8091 0.8097
3106.019243 0.8103 0.8109 0.8110 0.8112 0.8114
3111.035730 0.8114 0.8114 0.8115 0.8115 0.8113
3116.052216 0.8110 0.8106 0.8103 0.8099 0.8092
3121.068703 0.8081 0.8071 0.8061 0.8055 0.8051
3126.085189 0.8046 0.8042 0.8037 0.8032 0.8028
3131.101676 0.8024 0.8020 0.8016 0.8012 0.8006
3136.118162 0.7989 0.7969 0.7954 0.7942 0.7930
3141.134649 0.7919 0.7912 0.7908 0.7904 0.7901
3146.151135 0.7898 0.7896 0.7895 0.7898 0.7901
3151.167622 0.7905 0.7909 0.7913 0.7918 0.7922
3156.184108 0.7925 0.7928 0.7932 0.7936 0.7941
3161.200595 0.7947 0.7952 0.7957 0.7962 0.7966
3166.217081 0.7966 0.7967 0.7967 0.7967 0.7968
3171.233568 0.7968 0.7968 0.7968 0.7968 0.7968
3176.250054 0.7968 0.7968 0.7968 0.7967 0.7967
3181.266541 0.7967 0.7966 0.7965 0.7963 0.7962
3186.283027 0.7960 0.7959 0.7957 0.7955 0.7952
3191.299514 0.7950 0.7948 0.7945 0.7943 0.7940
3196.316000 0.7938 0.7936 0.7932 0.7929 0.7926
3201.332486 0.7922 0.7919 0.7916 0.7912 0.7908
3206.348973 0.7903 0.7898 0.7894 0.7889 0.7885
3211.365459 0.7880 0.7875 0.7871 0.7866 0.7861
3216.381946 0.7856 0.7852 0.7847 0.7843 0.7840
3221.398432 0.7837 0.7834 0.7832 0.7829 0.7827
3226.414919 0.7824 0.7821 0.7819 0.7816 0.7814
3231.431405 0.7812 0.7811 0.7809 0.7808 0.7806
3236.447892 0.7805 0.7803 0.7802 0.7800 0.7799
3241.464378 0.7796 0.7792 0.7788 0.7783 0.7777
3246.480865 0.7770 0.7764 0.7757 0.7750 0.7741
3251.497351 0.7731 0.7719 0.7708 0.7697 0.7690
3256.513838 0.7687 0.7687 0.7687 0.7686 0.7686
3261.530324 0.7685 0.7682 0.7680 0.7677 0.7674
3266.546811 0.7669 0.7660 0.7649 0.7642 0.7638
3271.563297 0.7634 0.7630 0.7628 0.7629 0.7630
3276.579784 0.7631 0.7632 0.7633 0.7635 0.7636
3281.596270 0.7637 0.7640 0.7646 0.7652 0.7659
3286.612757 0.7664 0.7666 0.7665 0.7664 0.7662
3291.629243 0.7648 0.7630 0.7611 0.7592 0.7574
3296.645730 0.7555 0.7543 0.7540 0.7539 0.7539
3301.662216 0.7539 0.7538 0.7538 0.7537 0.7536
3306.678703 0.7534 0.7533 0.7532 0.7531 0.7529
3311.695189 0.7528 0.7526 0.7524 0.7522 0.7521
3316.711676 0.7519 0.7517 0.7514 0.7512 0.7509
3321.728162 0.7506 0.7503 0.7498 0.7488 0.7478
3326.744649 0.7467 0.7458 0.7450 0.7441 0.7433
3331.761135 0.7425 0.7417 0.7410 0.7403 0.7396
3336.777622 0.7390 0.7383 0.7376 0.7369 0.7362
3341.794108 0.7357 0.7351 0.7345 0.7339 0.7334
3346.810595 0.7328 0.7322 0.7317 0.7312 0.7308
3351.827081 0.7303 0.7299 0.7294 0.7290 0.7286
3356.843568 0.7281 0.7277 0.7273 0.7271 0.7268
3361.860054 0.7265 0.7262 0.7255 0.7247 0.7239
3366.876541 0.7231 0.7223 0.7215 0.7199 0.7181
3371.893027 0.7164 0.7147 0.7132 0.7118 0.7104
3376.909514 0.7095 0.7086 0.7078 0.7069 0.7057
3381.926000 0.7044 0.7031 0.7018 0.7005 0.6992
3386.942486 0.6980 0.6968 0.6955 0.6943 0.6931
3391.958973 0.6918 0.6905 0.6893 0.6880 0.6868
3396.975459 0.6856 0.6843 0.6831 0.6819 0.6806
3401.991946 0.6787 0.6769 0.6750 0.6728 0.6721
3407.008432 0.6715 0.6709 0.6703 0.6699 0.6697
3412.024919 0.6695 0.6693 0.6692 0.6692 0.6692
3417.041405 0.6692 0.6692 0.6691 0.6691 0.6692
3422.057892 0.6693 0.6695 0.6696 0.6698 0.6699
3427.074378 0.6700 0.6697 0.6690 0.6683 0.6675
3432.090865 0.6662 0.6649 0.6638 0.6627 0.6622
3437.107351 0.6619 0.6615 0.6611 0.6608 0.6604
3442.123838 0.6600 0.6595 0.6591 0.6588 0.6584
3447.140324 0.6581 0.6579 0.6577 0.6573 0.6561
3452.156811 0.6572 0.6573 0.6574 0.6576 0.6577
3457.173297 0.6579 0.6581 0.6584 0.6588 0.6592
3462.189784 0.6596 0.6600 0.6603 0.6607 0.6611
3467.206270 0.6615 0.6619 0.6623 0.6627 0.6631
3472.222757 0.6635 0.6640 0.6645 0.6651 0.6656
3477.239243 0.6661 0.6666 0.6671 0.6677 0.6686
3482.255730 0.6697 0.6707 0.6717 0.6725 0.6732
3487.272216 0.6738 0.6743 0.6747 0.6751 0.6756
3492.288703 0.6760 0.6764 0.6769 0.6773 0.6778
3497.305189 0.6782 0.6787 0.6792 0.6796 0.6801
3502.321676 0.6805 0.6808 0.6812 0.6815 0.6819
3507.338162 0.6822 0.6826 0.6829 0.6833 0.6837
3512.354649 0.6841 0.6852 0.6869 0.6890 0.6908
3517.371135 0.6919 0.6929 0.6939 0.6947 0.6953
3522.387622 0.6959 0.6965 0.6971 0.6975 0.6979
3527.404108 0.6983 0.6985 0.6986 0.6987 0.6989
3532.420595 0.6990 0.6991 0.6992 0.6994 0.6996
3537.437081 0.6998 0.6999 0.7001 0.7003 0.7005
3542.453568 0.7007 0.7009 0.7011 0.7012 0.7014
3547.470054 0.7017 0.7019 0.7021 0.7024 0.7029
3552.486541 0.7035 0.7042 0.7051 0.7058 0.7064
3557.503027 0.7070 0.7076 0.7082 0.7088 0.7093
3562.519514 0.7098 0.7102 0.7107 0.7111 0.7116
3567.536000 0.7120 0.7124 0.7127 0.7129 0.7131
3572.552486 0.7133 0.7135 0.7143 0.7156 0.7169
3577.568973 0.7178 0.7185 0.7191 0.7197 0.7202
3582.585459 0.7210 0.7239 0.7276 0.7291 0.7296
3587.601946 0.7300 0.7304 0.7307 0.7311 0.7314
3592.618432 0.7317 0.7320 0.7323 0.7327 0.7330
3597.634919 0.7334 0.7337 0.7341 0.7346 0.7352
3602.651405 0.7358 0.7365 0.7371 0.7380 0.7390
3607.667892 0.7400 0.7411 0.7422 0.7434 0.7446
3612.684378 0.7458 0.7471 0.7483 0.7502 0.7524
3617.700865 0.7546 0.7567 0.7590 0.7611 0.7624
3622.717351 0.7633 0.7638 0.7640 0.7642 0.7643
3627.733838 0.7645 0.7647 0.7649 0.7650 0.7652
3632.750324 0.7655 0.7667 0.7685 0.7703 0.7718
3637.766811 0.7731 0.7736 0.7738 0.7741 0.7744
3642.783297 0.7746 0.7749 0.7751 0.7754 0.7757
3647.799784 0.7765 0.7774 0.7785 0.7795 0.7807
3652.816270 0.7818 0.7830 0.7842 0.7851 0.7855
3657.832757 0.7857 0.7857 0.7856 0.7855 0.7855
3662.849243 0.7854 0.7853 0.7852 0.7851 0.7848
3667.865730 0.7844 0.7841 0.7838 0.7834 0.7831
3672.882216 0.7828 0.7825 0.7822 0.7819 0.7816
3677.898703 0.7813 0.7811 0.7810 0.7813 0.7818
3682.915189 0.7823 0.7828 0.7833 0.7838 0.7844
3687.931676 0.7848 0.7849 0.7850 0.7851 0.7852
3692.948162 0.7853 0.7854 0.7854 0.7855 0.7856
3697.964649 0.7857 0.7858 0.7859 0.7863 0.7868
3702.981135 0.7873 0.7878 0.7883 0.7889 0.7895
3707.997622 0.7902 0.7909 0.7916 0.7917 0.7917
3713.014108 0.7917 0.7915 0.7913 0.7912 0.7910
3718.030595 0.7908 0.7906 0.7903 0.7900 0.7897
3723.047081 0.7894 0.7891 0.7889 0.7887 0.7885
3728.063568 0.7883 0.7881 0.7879 0.7877 0.7877
3733.080054 0.7877 0.7878 0.7879 0.7880 0.7880
3738.096541 0.7881 0.7882 0.7883 0.7883 0.7885
3743.113027 0.7887 0.7888 0.7890 0.7892 0.7894
3748.129514 0.7895 0.7897 0.7899 0.7900 0.7902
3753.146000 0.7904 0.7905 0.7907 0.7909 0.7912
3758.162486 0.7914 0.7917 0.7920 0.7922 0.7925
3763.178973 0.7927 0.7930 0.7932 0.7935 0.7937
3768.195459 0.7940 0.7942 0.7945 0.7947 0.7950
3773.211946 0.7953 0.7955 0.7958 0.7960 0.7963
3778.228432 0.7965 0.7965 0.7965 0.7964 0.7963
3783.244919 0.7960 0.7956 0.7953 0.7949 0.7945
3788.261405 0.7941 0.7937 0.7933 0.7929 0.7925
3793.277892 0.7922 0.7918 0.7914 0.7912 0.7913
3798.294378 0.7913 0.7913 0.7914 0.7919 0.7928
3803.310865 0.7937 0.7946 0.7953 0.7954 0.7954
3808.327351 0.7954 0.7953 0.7953 0.7952 0.7950
3813.343838 0.7946 0.7942 0.7938 0.7934 0.7929
3818.360324 0.7923 0.7916 0.7910 0.7903 0.7898
3823.376811 0.7896 0.7895 0.7894 0.7894 0.7893
3828.393297 0.7893 0.7892 0.7892 0.7891 0.7891
3833.409784 0.7890 0.7890 0.7888 0.7886 0.7883
3838.426270 0.7880 0.7876 0.7873 0.7870 0.7868
3843.442757 0.7867 0.7867 0.7867 0.7867 0.7866
3848.459243 0.7868 0.7874 0.7882 0.7891 0.7899
3853.475730 0.7902 0.7901 0.7901 0.7898 0.7894
3858.492216 0.7890 0.7885 0.7879 0.7872 0.7866
3863.508703 0.7861 0.7856 0.7850 0.7846 0.7843
3868.525189 0.7841 0.7840 0.7838 0.7839 0.7840
3873.541676 0.7841 0.7842 0.7844 0.7846 0.7848
3878.558162 0.7850 0.7852 0.7854 0.7856 0.7858
3883.574649 0.7860 0.7862 0.7862 0.7862 0.7863
3888.591135 0.7863 0.7863 0.7863 0.7864 0.7863
3893.607622 0.7862 0.7861 0.7859 0.7858 0.7857
3898.624108 0.7856 0.7854 0.7853 0.7852 0.7850
3903.640595 0.7849 0.7848 0.7847 0.7846 0.7845
3908.657081 0.7844 0.7843 0.7841 0.7840 0.7839
3913.673568 0.7838 0.7837 0.7836 0.7835 0.7834
3918.690054 0.7833 0.7834 0.7835 0.7835 0.7836
3923.706541 0.7837 0.7838 0.7839 0.7840 0.7842
3928.723027 0.7845 0.7847 0.7850 0.7852 0.7855
3933.739514 0.7857 0.7856 0.7855 0.7855 0.7850
3938.756000 0.7841 0.7831 0.7821 0.7810 0.7803
3943.772486 0.7797 0.7795 0.7796 0.7797 0.7799
3948.788973 0.7804 0.7811 0.7822 0.7839 0.7859
3953.805459 0.7876 0.7880 0.7878 0.7870 0.7861
3958.821946 0.7848 0.7831 0.7812 0.7800 0.7796
3963.838432 0.7796 0.7796 0.7797 0.7798 0.7800
3968.854919 0.7803 0.7805 0.7808 0.7813 0.7819
3973.871405 0.7825 0.7830 0.7838 0.7847 0.7856
3978.887892 0.7862 0.7867 0.7872 0.7875 0.7869
3983.904378 0.7859 0.7850 0.7839 0.7828 0.7819
3988.920865 0.7815 0.7812 0.7816 0.7818 0.7820
3993.937351 0.7826 0.7833 0.7841 0.7850 0.7859
3998.953838 0.7867 0.7874 0.7883 0.7893 0.7902
4003.970324 0.7912 0.7921 0.7931 0.7940 0.7950
4008.986811 0.7959 0.7968 0.7978 0.7980
##END=
