##TITLE=GLUTARIC ACID, 2-OXO-, 1-SODIUM SALT
##JCAMP-DX=4.24
##DATA TYPE=INFRARED SPECTRUM
##CLASS=COBLENTZ III
##ORIGIN=DOW CHEMICAL COMPANY
##OWNER=COBLENTZ SOC.
Collection (C) 2018 copyright by the U.S. Secretary of Commerce
on behalf of the United States of America. All rights reserved.
##DATE=1965/10/27
##MOLFORM=C5 H5 Na O5
##SOURCE REFERENCE=COBLENTZ NO. 07077
##$NIST ID=B6007077
##$NIST SOURCE=COBLENTZ
##$NIST IMAGE=cob7077
##SPECTROMETER/DATA SYSTEM=DOW KBr FOREPRISM-GRATING
##INSTRUMENT PARAMETERS=BLAZED AT 3.5, 12.0, 20.0 MICRON AND CHANGED AT 5.0, 7.5, 14.9 MICRON
##STATE=SOLID (SPLIT MULL), FLUOROLUBE FOR 3800-1330 CM^-^1, NUJOL FOR 1330-400 CM^-^1
##SAMPLING PROCEDURE=TRANSMISSION
##RESOLUTION=2
##DATA PROCESSING=DIGITIZED BY COBLENTZ SOCIETY (BATCH I) FROM HARD COPY
##XUNITS=1/CM
##YUNITS=TRANSMITTANCE
##XLABEL=Wavenumbers (cm-1)
##YLABEL=% Transmission
##XFACTOR=1
##YFACTOR=1
##DELTAX=1
##FIRSTX=382
##LASTX=3784
##FIRSTY=0.7018
##MAXX=3784
##MINX=382
##MAXY=0.8901
##MINY=0.0613
##NPOINTS=3403
##XYDATA=(X++(Y..Y))
382.000000 0.7018 0.7018 0.7018 0.7022 0.7030
387.000000 0.7032 0.7035 0.7043 0.7051 0.7060
392.000000 0.7071 0.7081 0.7091 0.7101 0.7111
397.000000 0.7121 0.7134 0.7146 0.7157 0.7165
402.000000 0.7175 0.7183 0.7190 0.7200 0.7210
407.000000 0.7218 0.7230 0.7242 0.7256 0.7269
412.000000 0.7282 0.7292 0.7301 0.7308 0.7314
417.000000 0.7314 0.7311 0.7310 0.7305 0.7300
422.000000 0.7293 0.7278 0.7264 0.7262 0.7262
427.000000 0.7262 0.7262 0.7262 0.7262 0.7283
432.000000 0.7318 0.7372 0.7422 0.7471 0.7531
437.000000 0.7607 0.7658 0.7711 0.7761 0.7805
442.000000 0.7847 0.7884 0.7911 0.7937 0.7961
447.000000 0.7987 0.8008 0.8031 0.8053 0.8067
452.000000 0.8081 0.8095 0.8108 0.8121 0.8135
457.000000 0.8147 0.8158 0.8168 0.8174 0.8178
462.000000 0.8185 0.8190 0.8195 0.8200 0.8205
467.000000 0.8210 0.8215 0.8220 0.8225 0.8232
472.000000 0.8238 0.8242 0.8246 0.8315 0.8252
477.000000 0.8250 0.8247 0.8244 0.8242 0.8239
482.000000 0.8234 0.8225 0.8216 0.8203 0.8186
487.000000 0.8168 0.8151 0.8128 0.8106 0.8084
492.000000 0.8040 0.7996 0.7951 0.7891 0.7817
497.000000 0.7750 0.7682 0.7608 0.7528 0.7444
502.000000 0.7346 0.7225 0.7328 0.7401 0.7499
507.000000 0.7600 0.7840 0.7991 0.8081 0.8150
512.000000 0.8206 0.8249 0.8282 0.8314 0.8342
517.000000 0.8356 0.8370 0.8385 0.8399 0.8407
522.000000 0.8414 0.8421 0.8428 0.8437 0.8441
527.000000 0.8444 0.8448 0.8451 0.8455 0.8459
532.000000 0.8463 0.8467 0.8537 0.8474 0.8477
537.000000 0.8480 0.8483 0.8486 0.8488 0.8491
542.000000 0.8494 0.8497 0.8498 0.8500 0.8501
547.000000 0.8502 0.8503 0.8505 0.8505 0.8505
552.000000 0.8505 0.8505 0.8493 0.8465 0.8433
557.000000 0.8404 0.8378 0.8358 0.8337 0.8346
562.000000 0.8350 0.8362 0.8380 0.8399 0.8413
567.000000 0.8423 0.8434 0.8425 0.8445 0.8447
572.000000 0.8447 0.8447 0.8445 0.8439 0.8432
577.000000 0.8425 0.8418 0.8410 0.8330 0.8397
582.000000 0.8394 0.8399 0.8418 0.8435 0.8451
587.000000 0.8467 0.8483 0.8500 0.8516 0.8533
592.000000 0.8549 0.8565 0.8581 0.8596 0.8609
597.000000 0.8620 0.8631 0.8643 0.8654 0.8662
602.000000 0.8668 0.8674 0.8680 0.8686 0.8691
607.000000 0.8709 0.8695 0.8697 0.8697 0.8696
612.000000 0.8694 0.8692 0.8690 0.8688 0.8680
617.000000 0.8671 0.8663 0.8655 0.8646 0.8638
622.000000 0.8623 0.8606 0.8589 0.8573 0.8548
627.000000 0.8523 0.8497 0.8468 0.8427 0.8386
632.000000 0.8344 0.8303 0.8245 0.8185 0.8101
637.000000 0.8007 0.7868 0.7767 0.7672 0.7576
642.000000 0.7462 0.7348 0.7018 0.6537 0.6056
647.000000 0.5575 0.5094 0.4910 0.4977 0.5337
652.000000 0.5697 0.6058 0.6418 0.6778 0.7138
657.000000 0.7498 0.7815 0.7938 0.8100 0.8271
662.000000 0.8367 0.8421 0.8459 0.8485 0.8510
667.000000 0.8531 0.8550 0.8562 0.8574 0.8586
672.000000 0.8594 0.8599 0.8603 0.8608 0.8632
677.000000 0.8605 0.8602 0.8599 0.8596 0.8589
682.000000 0.8582 0.8571 0.8549 0.8525 0.8501
687.000000 0.8475 0.8452 0.8428 0.8404 0.8380
692.000000 0.8346 0.8303 0.8259 0.8210 0.8161
697.000000 0.8106 0.8024 0.7908 0.7231 0.7275
702.000000 0.7328 0.7395 0.7461 0.7526 0.7592
707.000000 0.7658 0.7724 0.7790 0.7856 0.7921
712.000000 0.8050 0.8028 0.8025 0.8024 0.8007
717.000000 0.7981 0.7955 0.7921 0.7878 0.7815
722.000000 0.7601 0.7475 0.7511 0.7501 0.7537
727.000000 0.7590 0.7654 0.7721 0.7789 0.7824
732.000000 0.7858 0.7892 0.7912 0.7934 0.7955
737.000000 0.7975 0.7983 0.7990 0.7996 0.8001
742.000000 0.8010 0.8024 0.8038 0.8057 0.8078
747.000000 0.8096 0.8098 0.8101 0.8151 0.8098
752.000000 0.8093 0.8086 0.8071 0.8053 0.8021
757.000000 0.7986 0.7925 0.7862 0.7784 0.7691
762.000000 0.7587 0.7484 0.7303 0.6817 0.6519
767.000000 0.6223 0.5926 0.5629 0.5332 0.5066
772.000000 0.5059 0.5602 0.6281 0.6961 0.7361
777.000000 0.7492 0.7593 0.7704 0.7795 0.7865
782.000000 0.7930 0.7985 0.8041 0.8075 0.8107
787.000000 0.8139 0.8161 0.8175 0.8188 0.8201
792.000000 0.8210 0.8218 0.8225 0.8227 0.8227
797.000000 0.8227 0.8225 0.8221 0.8216 0.8211
802.000000 0.8204 0.8197 0.8190 0.8182 0.8172
807.000000 0.8161 0.8149 0.8139 0.8128 0.8119
812.000000 0.8110 0.8101 0.8091 0.8078 0.8061
817.000000 0.8046 0.8030 0.8017 0.8003 0.7989
822.000000 0.7978 0.7974 0.7968 0.7964 0.7961
827.000000 0.7958 0.7956 0.7926 0.7878 0.7818
832.000000 0.7775 0.7733 0.7701 0.7675 0.7655
837.000000 0.7639 0.7621 0.7590 0.7554 0.7511
842.000000 0.7467 0.7421 0.7356 0.7267 0.7178
847.000000 0.7075 0.6968 0.6483 0.5966 0.5712
852.000000 0.5908 0.6288 0.6668 0.7036 0.7069
857.000000 0.7074 0.7062 0.7076 0.7021 0.6982
862.000000 0.6915 0.6825 0.6717 0.6618 0.6519
867.000000 0.6421 0.6321 0.6220 0.6076 0.5935
872.000000 0.5904 0.5902 0.5907 0.5926 0.5904
877.000000 0.5982 0.6025 0.6086 0.6147 0.6244
882.000000 0.6345 0.6444 0.6543 0.6661 0.6745
887.000000 0.6814 0.6844 0.6868 0.6882 0.6887
892.000000 0.6878 0.6864 0.6842 0.6821 0.6789
897.000000 0.6748 0.6697 0.6645 0.6591 0.6536
902.000000 0.6480 0.6412 0.6354 0.6320 0.6331
907.000000 0.6330 0.6345 0.6414 0.6662 0.6776
912.000000 0.6892 0.7006 0.7119 0.7247 0.7325
917.000000 0.7381 0.7412 0.7445 0.7486 0.7528
922.000000 0.7565 0.7591 0.7617 0.7626 0.7628
927.000000 0.7628 0.7624 0.7614 0.7605 0.7595
932.000000 0.7591 0.7603 0.7621 0.7641 0.7661
937.000000 0.7683 0.7715 0.7743 0.7760 0.7778
942.000000 0.7792 0.7800 0.7808 0.7815 0.7815
947.000000 0.7817 0.7818 0.7819 0.7821 0.7821
952.000000 0.7821 0.7819 0.7818 0.7818 0.7812
957.000000 0.7808 0.7803 0.7798 0.7793 0.7791
962.000000 0.7790 0.7788 0.7786 0.7785 0.7783
967.000000 0.7782 0.7781 0.7780 0.7780 0.7778
972.000000 0.7787 0.7796 0.7807 0.7818 0.7830
977.000000 0.7842 0.7853 0.7862 0.7872 0.7882
982.000000 0.7892 0.7901 0.7905 0.7908 0.7911
987.000000 0.7914 0.7915 0.7910 0.7906 0.7894
992.000000 0.7894 0.7893 0.7887 0.7882 0.7875
997.000000 0.7871 0.7865 0.7861 0.7860 0.7857
1002.000000 0.7855 0.7849 0.7842 0.7835 0.7826
1007.000000 0.7819 0.7812 0.7806 0.7798 0.7775
1012.000000 0.7685 0.7624 0.7624 0.7624 0.7633
1017.000000 0.7648 0.7675 0.7717 0.7761 0.7799
1022.000000 0.7834 0.7865 0.7884 0.7884 0.7880
1027.000000 0.7878 0.7876 0.7872 0.7861 0.7854
1032.000000 0.7849 0.7845 0.7841 0.7838 0.7834
1037.000000 0.7828 0.7819 0.7794 0.7733 0.7701
1042.000000 0.7668 0.7637 0.7610 0.7583 0.7557
1047.000000 0.7511 0.7458 0.7391 0.7305 0.7171
1052.000000 0.6844 0.6515 0.6188 0.5860 0.5532
1057.000000 0.5409 0.5447 0.5728 0.6445 0.7162
1062.000000 0.7665 0.7795 0.7865 0.7885 0.7890
1067.000000 0.7890 0.7890 0.7888 0.7885 0.7882
1072.000000 0.7876 0.7871 0.7861 0.7835 0.7808
1077.000000 0.7798 0.7798 0.7798 0.7800 0.7800
1082.000000 0.7800 0.7796 0.7785 0.7768 0.7744
1087.000000 0.7719 0.7682 0.7642 0.7594 0.7545
1092.000000 0.7492 0.7428 0.7354 0.7267 0.7168
1097.000000 0.7041 0.6815 0.6681 0.6536 0.5884
1102.000000 0.5233 0.4581 0.3930 0.3278 0.3133
1107.000000 0.3133 0.4816 0.6234 0.7418 0.7536
1112.000000 0.7595 0.7676 0.7718 0.7751 0.7774
1117.000000 0.7792 0.7808 0.7817 0.7822 0.7830
1122.000000 0.7830 0.7830 0.7830 0.7825 0.7819
1127.000000 0.7812 0.7805 0.7797 0.7788 0.7781
1132.000000 0.7774 0.7768 0.7761 0.7754 0.7746
1137.000000 0.7738 0.7730 0.7721 0.7701 0.7682
1142.000000 0.7653 0.7628 0.7626 0.7645 0.7658
1147.000000 0.7658 0.7658 0.7650 0.7642 0.7625
1152.000000 0.7592 0.7557 0.7541 0.7561 0.7576
1157.000000 0.7596 0.7615 0.7633 0.7655 0.7674
1162.000000 0.7707 0.7732 0.7725 0.7704 0.7684
1167.000000 0.7664 0.7644 0.7628 0.7622 0.7622
1172.000000 0.7622 0.7626 0.7630 0.7632 0.7632
1177.000000 0.7632 0.7624 0.7611 0.7597 0.7571
1182.000000 0.7593 0.7615 0.7640 0.7660 0.7671
1187.000000 0.7669 0.7668 0.7665 0.7660 0.7654
1192.000000 0.7648 0.7642 0.7636 0.7628 0.7619
1197.000000 0.7611 0.7601 0.7593 0.7585 0.7576
1202.000000 0.7568 0.7561 0.7550 0.7537 0.7524
1207.000000 0.7511 0.7498 0.7485 0.7472 0.7460
1212.000000 0.7447 0.7435 0.7421 0.7406 0.7388
1217.000000 0.7371 0.7353 0.7325 0.7296 0.7265
1222.000000 0.7221 0.7167 0.7112 0.7018 0.6912
1227.000000 0.6699 0.6468 0.6238 0.6007 0.5862
1232.000000 0.5839 0.6241 0.6482 0.6749 0.6697
1237.000000 0.6680 0.6546 0.6408 0.6272 0.6135
1242.000000 0.6173 0.6012 0.7290 0.7303 0.7308
1247.000000 0.7311 0.7311 0.7310 0.7307 0.7304
1252.000000 0.7299 0.7291 0.7284 0.7271 0.7256
1257.000000 0.7241 0.7225 0.7204 0.7182 0.7154
1262.000000 0.7118 0.7084 0.7039 0.6982 0.6925
1267.000000 0.6858 0.6765 0.6671 0.6468 0.6497
1272.000000 0.6501 0.6508 0.6528 0.6554 0.6578
1277.000000 0.6611 0.6648 0.6691 0.6711 0.6728
1282.000000 0.6740 0.6747 0.6721 0.6721 0.6721
1287.000000 0.6701 0.6683 0.6664 0.6645 0.6618
1292.000000 0.6591 0.6545 0.6499 0.6430 0.6357
1297.000000 0.6254 0.6109 0.5993 0.5903 0.5814
1302.000000 0.5667 0.5383 0.5099 0.4816 0.4532
1307.000000 0.4248 0.3964 0.3680 0.3397 0.3113
1312.000000 0.2830 0.2546 0.2262 0.1979 0.1606
1317.000000 0.1575 0.1576 0.1576 0.1587 0.1640
1322.000000 0.1929 0.2229 0.2530 0.2830 0.3131
1327.000000 0.3430 0.3732 0.4032 0.4333 0.4633
1332.000000 0.4934 0.5156 0.5201 0.5212 0.5227
1337.000000 0.5241 0.5269 0.5356 0.5443 0.5502
1342.000000 0.5524 0.5534 0.5544 0.5553 0.5562
1347.000000 0.5583 0.5604 0.5630 0.5657 0.5687
1352.000000 0.5718 0.5736 0.5739 0.5740 0.5736
1357.000000 0.5734 0.5734 0.5754 0.5778 0.5823
1362.000000 0.5893 0.5960 0.6044 0.6132 0.6218
1367.000000 0.6303 0.6381 0.6456 0.6505 0.6549
1372.000000 0.6583 0.6625 0.6597 0.6592 0.6588
1377.000000 0.6584 0.6575 0.6565 0.6532 0.6400
1382.000000 0.6291 0.6216 0.6138 0.6060 0.5953
1387.000000 0.5776 0.5620 0.5458 0.5306 0.5210
1392.000000 0.5251 0.5337 0.5396 0.5439 0.5469
1397.000000 0.5497 0.5493 0.5516 0.5488 0.5416
1402.000000 0.5290 0.5146 0.5020 0.4862 0.4612
1407.000000 0.4479 0.4242 0.3966 0.3752 0.3723
1412.000000 0.3925 0.4026 0.4128 0.4135 0.4148
1417.000000 0.3947 0.3800 0.3655 0.3509 0.3364
1422.000000 0.3084 0.3100 0.3353 0.3741 0.4129
1427.000000 0.4516 0.4904 0.5292 0.5680 0.5916
1432.000000 0.5873 0.5801 0.5729 0.5760 0.5843
1437.000000 0.5925 0.6053 0.6042 0.5987 0.5874
1442.000000 0.5762 0.5649 0.5536 0.5423 0.5310
1447.000000 0.5198 0.5085 0.5040 0.5038 0.5222
1452.000000 0.5398 0.5575 0.5751 0.5927 0.6103
1457.000000 0.6279 0.6456 0.6632 0.6947 0.7128
1462.000000 0.7245 0.7326 0.7388 0.7415 0.7444
1467.000000 0.7471 0.7499 0.7514 0.7528 0.7544
1472.000000 0.7558 0.7571 0.7586 0.7597 0.7607
1477.000000 0.7618 0.7628 0.7636 0.7642 0.7647
1482.000000 0.7649 0.7651 0.7653 0.7653 0.7653
1487.000000 0.7653 0.7651 0.7651 0.7651 0.7651
1492.000000 0.7651 0.7651 0.7651 0.7651 0.7651
1497.000000 0.7649 0.7649 0.7647 0.7645 0.7642
1502.000000 0.7640 0.7638 0.7635 0.7633 0.7631
1507.000000 0.7628 0.7625 0.7622 0.7619 0.7617
1512.000000 0.7614 0.7611 0.7608 0.7604 0.7601
1517.000000 0.7596 0.7591 0.7586 0.7581 0.7575
1522.000000 0.7571 0.7565 0.7556 0.7547 0.7539
1527.000000 0.7530 0.7521 0.7511 0.7504 0.7495
1532.000000 0.7486 0.7478 0.7468 0.7458 0.7448
1537.000000 0.7436 0.7424 0.7412 0.7401 0.7389
1542.000000 0.7375 0.7361 0.7348 0.7335 0.7321
1547.000000 0.7307 0.7293 0.7278 0.7265 0.7251
1552.000000 0.7235 0.7215 0.7197 0.7176 0.7158
1557.000000 0.7138 0.7118 0.7098 0.7068 0.7033
1562.000000 0.6999 0.6965 0.6931 0.6896 0.6861
1567.000000 0.6825 0.6788 0.6749 0.6708 0.6669
1572.000000 0.6631 0.6596 0.6561 0.6526 0.6492
1577.000000 0.6457 0.6421 0.6381 0.6339 0.6297
1582.000000 0.6255 0.6212 0.6168 0.6117 0.6066
1587.000000 0.6015 0.5959 0.5901 0.5844 0.5786
1592.000000 0.5723 0.5649 0.5588 0.5532 0.5532
1597.000000 0.5537 0.5620 0.5675 0.5700 0.5694
1602.000000 0.5684 0.5674 0.5632 0.5541 0.5475
1607.000000 0.5390 0.5302 0.5205 0.5109 0.5024
1612.000000 0.4942 0.4875 0.4809 0.4736 0.4662
1617.000000 0.4589 0.4436 0.4295 0.4193 0.4068
1622.000000 0.3866 0.3499 0.3044 0.2799 0.2562
1627.000000 0.2320 0.2078 0.1835 0.1592 0.0901
1632.000000 0.0693 0.0621 0.0613 0.0614 0.0614
1637.000000 0.0617 0.0622 0.0625 0.0632 0.0638
1642.000000 0.0644 0.0654 0.0669 0.0689 0.0712
1647.000000 0.0742 0.0785 0.0842 0.0924 0.1040
1652.000000 0.1403 0.1811 0.2219 0.2627 0.3034
1657.000000 0.3443 0.3850 0.4259 0.4667 0.5075
1662.000000 0.5279 0.5407 0.5502 0.5514 0.5517
1667.000000 0.5509 0.5499 0.5488 0.5468 0.5435
1672.000000 0.5388 0.5344 0.5256 0.5187 0.5110
1677.000000 0.5039 0.4952 0.4862 0.4741 0.4610
1682.000000 0.4480 0.4149 0.3880 0.3644 0.3406
1687.000000 0.3212 0.3020 0.2828 0.2480 0.2333
1692.000000 0.2112 0.1827 0.1700 0.1607 0.1514
1697.000000 0.1369 0.1115 0.0981 0.0886 0.0792
1702.000000 0.0759 0.0759 0.0765 0.0764 0.0779
1707.000000 0.0788 0.0809 0.0835 0.0861 0.0893
1712.000000 0.0956 0.1207 0.1380 0.1554 0.1728
1717.000000 0.1901 0.2075 0.2248 0.2422 0.2595
1722.000000 0.2769 0.3105 0.3297 0.3572 0.3810
1727.000000 0.4104 0.4240 0.4371 0.4478 0.4585
1732.000000 0.4788 0.5278 0.5957 0.6149 0.6300
1737.000000 0.6439 0.6800 0.6901 0.7032 0.7171
1742.000000 0.7228 0.7285 0.7342 0.7395 0.7440
1747.000000 0.7486 0.7531 0.7576 0.7612 0.7649
1752.000000 0.7684 0.7718 0.7748 0.7774 0.7800
1757.000000 0.7825 0.7851 0.7875 0.7900 0.7925
1762.000000 0.7949 0.7971 0.7993 0.8011 0.8019
1767.000000 0.8028 0.8035 0.8043 0.8053 0.8061
1772.000000 0.8071 0.8078 0.8082 0.8085 0.8088
1777.000000 0.8090 0.8093 0.8108 0.8125 0.8162
1782.000000 0.8189 0.8205 0.8223 0.8240 0.8257
1787.000000 0.8270 0.8281 0.8291 0.8302 0.8314
1792.000000 0.8328 0.8341 0.8351 0.8362 0.8371
1797.000000 0.8382 0.8393 0.8404 0.8414 0.8423
1802.000000 0.8432 0.8440 0.8449 0.8458 0.8467
1807.000000 0.8475 0.8484 0.8492 0.8500 0.8508
1812.000000 0.8516 0.8524 0.8532 0.8536 0.8541
1817.000000 0.8545 0.8549 0.8553 0.8557 0.8562
1822.000000 0.8566 0.8570 0.8574 0.8578 0.8582
1827.000000 0.8586 0.8589 0.8593 0.8597 0.8601
1832.000000 0.8604 0.8608 0.8612 0.8615 0.8618
1837.000000 0.8623 0.8627 0.8628 0.8630 0.8632
1842.000000 0.8633 0.8634 0.8636 0.8636 0.8636
1847.000000 0.8636 0.8636 0.8636 0.8636 0.8636
1852.000000 0.8635 0.8635 0.8634 0.8634 0.8633
1857.000000 0.8633 0.8628 0.8624 0.8618 0.8614
1862.000000 0.8609 0.8604 0.8605 0.8605 0.8609
1867.000000 0.8613 0.8625 0.8639 0.8653 0.8664
1872.000000 0.8674 0.8684 0.8693 0.8696 0.8700
1877.000000 0.8703 0.8705 0.8707 0.8709 0.8710
1882.000000 0.8712 0.8714 0.8716 0.8718 0.8720
1887.000000 0.8723 0.8725 0.8727 0.8728 0.8731
1892.000000 0.8733 0.8736 0.8738 0.8740 0.8742
1897.000000 0.8744 0.8746 0.8748 0.8750 0.8751
1902.000000 0.8753 0.8755 0.8757 0.8758 0.8760
1907.000000 0.8762 0.8764 0.8765 0.8767 0.8768
1912.000000 0.8768 0.8770 0.8771 0.8771 0.8771
1917.000000 0.8773 0.8774 0.8775 0.8775 0.8775
1922.000000 0.8775 0.8775 0.8775 0.8775 0.8775
1927.000000 0.8775 0.8775 0.8775 0.8775 0.8778
1932.000000 0.8780 0.8782 0.8784 0.8786 0.8787
1937.000000 0.8789 0.8791 0.8793 0.8795 0.8797
1942.000000 0.8799 0.8801 0.8803 0.8805 0.8807
1947.000000 0.8809 0.8787 0.8814 0.8816 0.8818
1952.000000 0.8823 0.8827 0.8831 0.8835 0.8839
1957.000000 0.8844 0.8848 0.8854 0.8863 0.8871
1962.000000 0.8881 0.8901 0.8871 0.8846 0.8825
1967.000000 0.8807 0.8796 0.8787 0.8784 0.8784
1972.000000 0.8784 0.8784 0.8783 0.8783 0.8781
1977.000000 0.8778 0.8777 0.8777 0.8775 0.8775
1982.000000 0.8775 0.8775 0.8774 0.8773 0.8771
1987.000000 0.8771 0.8770 0.8768 0.8767 0.8766
1992.000000 0.8765 0.8763 0.8762 0.8761 0.8753
1997.000000 0.8685 0.8617 0.8549 0.8481 0.8413
2002.000000 0.8345 0.8345 0.8345 0.8347 0.8349
2007.000000 0.8349 0.8349 0.8348 0.8347 0.8346
2012.000000 0.8346 0.8345 0.8344 0.8343 0.8342
2017.000000 0.8340 0.8339 0.8337 0.8336 0.8334
2022.000000 0.8333 0.8331 0.8330 0.8328 0.8325
2027.000000 0.8324 0.8321 0.8318 0.8317 0.8313
2032.000000 0.8310 0.8306 0.8303 0.8299 0.8296
2037.000000 0.8293 0.8291 0.8289 0.8287 0.8285
2042.000000 0.8283 0.8280 0.8278 0.8275 0.8274
2047.000000 0.8271 0.8268 0.8267 0.8265 0.8263
2052.000000 0.8261 0.8258 0.8256 0.8254 0.8252
2057.000000 0.8251 0.8250 0.8249 0.8248 0.8247
2062.000000 0.8246 0.8245 0.8244 0.8243 0.8242
2067.000000 0.8241 0.8240 0.8238 0.8236 0.8234
2072.000000 0.8233 0.8231 0.8230 0.8228 0.8227
2077.000000 0.8225 0.8211 0.8221 0.8220 0.8218
2082.000000 0.8217 0.8215 0.8214 0.8212 0.8211
2087.000000 0.8209 0.8207 0.8205 0.8204 0.8202
2092.000000 0.8200 0.8198 0.8197 0.8195 0.8194
2097.000000 0.8192 0.8190 0.8188 0.8187 0.8185
2102.000000 0.8184 0.8182 0.8180 0.8178 0.8176
2107.000000 0.8175 0.8174 0.8171 0.8171 0.8168
2112.000000 0.8168 0.8167 0.8165 0.8164 0.8162
2117.000000 0.8161 0.8160 0.8158 0.8157 0.8156
2122.000000 0.8155 0.8153 0.8151 0.8150 0.8149
2127.000000 0.8147 0.8146 0.8145 0.8144 0.8142
2132.000000 0.8141 0.8139 0.8138 0.8136 0.8135
2137.000000 0.8133 0.8132 0.8130 0.8128 0.8125
2142.000000 0.8124 0.8121 0.8119 0.8118 0.8115
2147.000000 0.8114 0.8111 0.8110 0.8108 0.8106
2152.000000 0.8105 0.8103 0.8101 0.8099 0.8097
2157.000000 0.8095 0.8093 0.8091 0.8089 0.8087
2162.000000 0.8085 0.8083 0.8082 0.8080 0.8078
2167.000000 0.8075 0.8074 0.8071 0.8071 0.8068
2172.000000 0.8067 0.8065 0.8062 0.8061 0.8060
2177.000000 0.8058 0.8056 0.8054 0.8051 0.8048
2182.000000 0.8045 0.8041 0.8038 0.8034 0.8031
2187.000000 0.8026 0.8024 0.8019 0.8017 0.8012
2192.000000 0.8010 0.8006 0.8003 0.7999 0.7995
2197.000000 0.7991 0.7988 0.7984 0.7981 0.7976
2202.000000 0.7974 0.7969 0.7967 0.7962 0.7960
2207.000000 0.7956 0.7953 0.7949 0.7945 0.7941
2212.000000 0.7938 0.7934 0.7930 0.7925 0.7921
2217.000000 0.7917 0.7912 0.7908 0.7904 0.7900
2222.000000 0.7896 0.7891 0.7887 0.7880 0.7872
2227.000000 0.7865 0.7860 0.7853 0.7846 0.7839
2232.000000 0.7832 0.7825 0.7818 0.7814 0.7811
2237.000000 0.7808 0.7806 0.7803 0.7801 0.7800
2242.000000 0.7799 0.7798 0.7797 0.7796 0.7796
2247.000000 0.7795 0.7794 0.7792 0.7791 0.7788
2252.000000 0.7785 0.7782 0.7780 0.7776 0.7774
2257.000000 0.7771 0.7768 0.7765 0.7761 0.7758
2262.000000 0.7756 0.7753 0.7750 0.7748 0.7746
2267.000000 0.7745 0.7745 0.7744 0.7744 0.7744
2272.000000 0.7744 0.7743 0.7743 0.7743 0.7744
2277.000000 0.7744 0.7745 0.7745 0.7746 0.7747
2282.000000 0.7748 0.7748 0.7749 0.7749 0.7749
2287.000000 0.7748 0.7747 0.7741 0.7736 0.7728
2292.000000 0.7719 0.7711 0.7705 0.7697 0.7689
2297.000000 0.7681 0.7674 0.7668 0.7668 0.7668
2302.000000 0.7671 0.7675 0.7680 0.7685 0.7690
2307.000000 0.7696 0.7701 0.7707 0.7712 0.7719
2312.000000 0.7726 0.7735 0.7743 0.7748 0.7754
2317.000000 0.7754 0.7755 0.7755 0.7755 0.7755
2322.000000 0.7756 0.7756 0.7756 0.7756 0.7757
2327.000000 0.7757 0.7758 0.7758 0.7758 0.7758
2332.000000 0.7758 0.7758 0.7758 0.7758 0.7758
2337.000000 0.7758 0.7758 0.7758 0.7758 0.7758
2342.000000 0.7758 0.7758 0.7758 0.7758 0.7758
2347.000000 0.7758 0.7758 0.7758 0.7758 0.7758
2352.000000 0.7758 0.7758 0.7758 0.7758 0.7758
2357.000000 0.7758 0.7758 0.7758 0.7758 0.7758
2362.000000 0.7758 0.7757 0.7757 0.7757 0.7757
2367.000000 0.7757 0.7757 0.7756 0.7756 0.7756
2372.000000 0.7756 0.7756 0.7756 0.7754 0.7751
2377.000000 0.7750 0.7748 0.7746 0.7745 0.7743
2382.000000 0.7741 0.7739 0.7738 0.7736 0.7734
2387.000000 0.7732 0.7730 0.7728 0.7725 0.7722
2392.000000 0.7721 0.7719 0.7718 0.7718 0.7717
2397.000000 0.7715 0.7715 0.7715 0.7714 0.7712
2402.000000 0.7712 0.7711 0.7711 0.7710 0.7710
2407.000000 0.7708 0.7708 0.7707 0.7707 0.7706
2412.000000 0.7705 0.7703 0.7701 0.7698 0.7696
2417.000000 0.7694 0.7692 0.7690 0.7688 0.7686
2422.000000 0.7684 0.7681 0.7678 0.7676 0.7675
2427.000000 0.7671 0.7669 0.7668 0.7668 0.7667
2432.000000 0.7667 0.7667 0.7667 0.7665 0.7665
2437.000000 0.7665 0.7665 0.7665 0.7665 0.7665
2442.000000 0.7667 0.7667 0.7668 0.7668 0.7668
2447.000000 0.7665 0.7664 0.7661 0.7661 0.7658
2452.000000 0.7658 0.7656 0.7655 0.7653 0.7651
2457.000000 0.7649 0.7647 0.7645 0.7643 0.7641
2462.000000 0.7639 0.7637 0.7635 0.7633 0.7631
2467.000000 0.7628 0.7625 0.7621 0.7618 0.7615
2472.000000 0.7611 0.7608 0.7606 0.7603 0.7600
2477.000000 0.7597 0.7594 0.7591 0.7588 0.7584
2482.000000 0.7581 0.7578 0.7575 0.7571 0.7568
2487.000000 0.7565 0.7561 0.7557 0.7551 0.7546
2492.000000 0.7541 0.7536 0.7531 0.7525 0.7519
2497.000000 0.7512 0.7506 0.7498 0.7491 0.7483
2502.000000 0.7475 0.7467 0.7458 0.7449 0.7440
2507.000000 0.7431 0.7422 0.7415 0.7407 0.7408
2512.000000 0.7410 0.7411 0.7415 0.7418 0.7421
2517.000000 0.7428 0.7435 0.7442 0.7449 0.7454
2522.000000 0.7460 0.7465 0.7471 0.7476 0.7482
2527.000000 0.7485 0.7489 0.7492 0.7496 0.7499
2532.000000 0.7503 0.7505 0.7508 0.7510 0.7512
2537.000000 0.7511 0.7511 0.7511 0.7510 0.7501
2542.000000 0.7495 0.7486 0.7476 0.7468 0.7460
2547.000000 0.7443 0.7425 0.7408 0.7391 0.7372
2552.000000 0.7355 0.7324 0.7294 0.7286 0.7278
2557.000000 0.7271 0.7265 0.7258 0.7251 0.7251
2562.000000 0.7250 0.7250 0.7250 0.7250 0.7250
2567.000000 0.7250 0.7251 0.7251 0.7254 0.7255
2572.000000 0.7257 0.7258 0.7260 0.7260 0.7261
2577.000000 0.7261 0.7261 0.7257 0.7254 0.7249
2582.000000 0.7244 0.7238 0.7232 0.7221 0.7212
2587.000000 0.7205 0.7197 0.7190 0.7183 0.7175
2592.000000 0.7168 0.7161 0.7154 0.7146 0.7139
2597.000000 0.7133 0.7128 0.7124 0.7119 0.7115
2602.000000 0.7111 0.7108 0.7107 0.7105 0.7104
2607.000000 0.7101 0.7101 0.7099 0.7098 0.7097
2612.000000 0.7096 0.7093 0.7090 0.7082 0.7074
2617.000000 0.7065 0.7057 0.7044 0.7032 0.7015
2622.000000 0.7001 0.6978 0.6958 0.6933 0.6908
2627.000000 0.6885 0.6861 0.6843 0.6825 0.6806
2632.000000 0.6788 0.6772 0.6758 0.6756 0.6754
2637.000000 0.6754 0.6755 0.6757 0.6760 0.6762
2642.000000 0.6734 0.6781 0.6795 0.6815 0.6838
2647.000000 0.6856 0.6875 0.6893 0.6911 0.6928
2652.000000 0.6947 0.6961 0.6975 0.6978 0.6984
2657.000000 0.6988 0.6993 0.6997 0.7001 0.7006
2662.000000 0.7011 0.7011 0.7011 0.7011 0.7010
2667.000000 0.7008 0.7007 0.7005 0.7004 0.7001
2672.000000 0.7001 0.6999 0.7014 0.6996 0.6995
2677.000000 0.6993 0.6992 0.6990 0.6988 0.6987
2682.000000 0.6986 0.6985 0.6984 0.6983 0.6982
2687.000000 0.6980 0.6978 0.6976 0.6975 0.6971
2692.000000 0.6968 0.6964 0.6960 0.6951 0.6945
2697.000000 0.6937 0.6930 0.6915 0.6901 0.6886
2702.000000 0.6869 0.6848 0.6825 0.6821 0.6818
2707.000000 0.6812 0.6808 0.6808 0.6807 0.6806
2712.000000 0.6805 0.6804 0.6804 0.6804 0.6806
2717.000000 0.6808 0.6812 0.6812 0.6812 0.6808
2722.000000 0.6806 0.6801 0.6835 0.6794 0.6790
2727.000000 0.6781 0.6772 0.6765 0.6758 0.6750
2732.000000 0.6743 0.6735 0.6728 0.6721 0.6714
2737.000000 0.6707 0.6701 0.6694 0.6688 0.6681
2742.000000 0.6675 0.6667 0.6660 0.6651 0.6643
2747.000000 0.6637 0.6631 0.6633 0.6601 0.6638
2752.000000 0.6640 0.6651 0.6664 0.6682 0.6700
2757.000000 0.6715 0.6731 0.6746 0.6761 0.6775
2762.000000 0.6790 0.6804 0.6818 0.6824 0.6831
2767.000000 0.6833 0.6835 0.6835 0.6835 0.6833
2772.000000 0.6825 0.6830 0.6828 0.6822 0.6818
2777.000000 0.6812 0.6808 0.6804 0.6799 0.6791
2782.000000 0.6784 0.6775 0.6767 0.6758 0.6749
2787.000000 0.6740 0.6732 0.6724 0.6715 0.6707
2792.000000 0.6699 0.6690 0.6682 0.6675 0.6668
2797.000000 0.6664 0.6658 0.6653 0.6648 0.6643
2802.000000 0.6638 0.6637 0.6636 0.6634 0.6633
2807.000000 0.6631 0.6630 0.6628 0.6628 0.6628
2812.000000 0.6630 0.6630 0.6631 0.6631 0.6631
2817.000000 0.6631 0.6630 0.6626 0.6625 0.6622
2822.000000 0.6621 0.6618 0.6617 0.6612 0.6610
2827.000000 0.6603 0.6597 0.6591 0.6585 0.6578
2832.000000 0.6571 0.6562 0.6555 0.6547 0.6539
2837.000000 0.6531 0.6524 0.6514 0.6504 0.6492
2842.000000 0.6480 0.6467 0.6455 0.6445 0.6435
2847.000000 0.6424 0.6414 0.6404 0.6395 0.6387
2852.000000 0.6380 0.6372 0.6365 0.6358 0.6351
2857.000000 0.6344 0.6337 0.6330 0.6323 0.6316
2862.000000 0.6309 0.6302 0.6295 0.6288 0.6281
2867.000000 0.6274 0.6267 0.6259 0.6251 0.6242
2872.000000 0.6234 0.6225 0.6216 0.6207 0.6199
2877.000000 0.6190 0.6181 0.6172 0.6164 0.6153
2882.000000 0.6142 0.6129 0.6116 0.6103 0.6091
2887.000000 0.6078 0.6065 0.6052 0.6040 0.6024
2892.000000 0.6008 0.5989 0.5971 0.5952 0.5934
2897.000000 0.5915 0.5897 0.5878 0.5859 0.5832
2902.000000 0.5806 0.5783 0.5760 0.5749 0.5738
2907.000000 0.5736 0.5736 0.5736 0.5737 0.5746
2912.000000 0.5755 0.5760 0.5768 0.5770 0.5770
2917.000000 0.5770 0.5770 0.5768 0.5766 0.5764
2922.000000 0.5762 0.5760 0.5758 0.5742 0.5726
2927.000000 0.5670 0.5614 0.5607 0.5600 0.5597
2932.000000 0.5594 0.5592 0.5591 0.5598 0.5605
2937.000000 0.5660 0.5717 0.5750 0.5784 0.5792
2942.000000 0.5800 0.5805 0.5810 0.5812 0.5816
2947.000000 0.5818 0.5818 0.5817 0.5814 0.5810
2952.000000 0.5807 0.5803 0.5799 0.5790 0.5781
2957.000000 0.5771 0.5760 0.5748 0.5736 0.5724
2962.000000 0.5712 0.5702 0.5691 0.5682 0.5673
2967.000000 0.5670 0.5667 0.5665 0.5662 0.5660
2972.000000 0.5658 0.5655 0.5652 0.5649 0.5647
2977.000000 0.5644 0.5641 0.5637 0.5633 0.5629
2982.000000 0.5625 0.5620 0.5616 0.5610 0.5607
2987.000000 0.5602 0.5598 0.5593 0.5588 0.5583
2992.000000 0.5579 0.5574 0.5569 0.5564 0.5559
2997.000000 0.5554 0.5550 0.5545 0.5541 0.5536
3002.000000 0.5531 0.5526 0.5522 0.5516 0.5510
3007.000000 0.5503 0.5497 0.5490 0.5484 0.5477
3012.000000 0.5471 0.5464 0.5457 0.5450 0.5443
3017.000000 0.5436 0.5430 0.5423 0.5416 0.5409
3022.000000 0.5402 0.5391 0.5381 0.5369 0.5357
3027.000000 0.5344 0.5332 0.5317 0.5303 0.5283
3032.000000 0.5264 0.5254 0.5245 0.5235 0.5226
3037.000000 0.5223 0.5221 0.5221 0.5222 0.5222
3042.000000 0.5223 0.5223 0.5224 0.5224 0.5224
3047.000000 0.5222 0.5221 0.5218 0.5217 0.5218
3052.000000 0.5218 0.5221 0.5224 0.5227 0.5239
3057.000000 0.5233 0.5236 0.5239 0.5242 0.5244
3062.000000 0.5246 0.5248 0.5251 0.5253 0.5256
3067.000000 0.5258 0.5260 0.5262 0.5267 0.5271
3072.000000 0.5275 0.5278 0.5282 0.5284 0.5287
3077.000000 0.5289 0.5292 0.5294 0.5297 0.5300
3082.000000 0.5303 0.5305 0.5308 0.5310 0.5314
3087.000000 0.5317 0.5320 0.5323 0.5326 0.5329
3092.000000 0.5333 0.5336 0.5339 0.5342 0.5346
3097.000000 0.5349 0.5353 0.5357 0.5362 0.5367
3102.000000 0.5372 0.5376 0.5381 0.5386 0.5391
3107.000000 0.5396 0.5401 0.5406 0.5410 0.5416
3112.000000 0.5421 0.5426 0.5431 0.5436 0.5442
3117.000000 0.5449 0.5456 0.5465 0.5475 0.5489
3122.000000 0.5503 0.5517 0.5531 0.5545 0.5559
3127.000000 0.5574 0.5589 0.5603 0.5618 0.5632
3132.000000 0.5647 0.5659 0.5671 0.5682 0.5694
3137.000000 0.5705 0.5716 0.5727 0.5738 0.5749
3142.000000 0.5760 0.5771 0.5783 0.5794 0.5805
3147.000000 0.5816 0.5828 0.5841 0.5855 0.5868
3152.000000 0.5882 0.5895 0.5909 0.5922 0.5936
3157.000000 0.5949 0.5962 0.5975 0.5989 0.6003
3162.000000 0.6017 0.6031 0.6045 0.6059 0.6073
3167.000000 0.6087 0.6101 0.6115 0.6130 0.6144
3172.000000 0.6158 0.6172 0.6186 0.6200 0.6214
3177.000000 0.6228 0.6242 0.6255 0.6268 0.6281
3182.000000 0.6295 0.6308 0.6321 0.6334 0.6348
3187.000000 0.6360 0.6374 0.6387 0.6401 0.6414
3192.000000 0.6426 0.6441 0.6455 0.6468 0.6483
3197.000000 0.6496 0.6510 0.6524 0.6538 0.6551
3202.000000 0.6565 0.6578 0.6593 0.6607 0.6621
3207.000000 0.6637 0.6654 0.6671 0.6688 0.6704
3212.000000 0.6721 0.6737 0.6754 0.6771 0.6788
3217.000000 0.6803 0.6818 0.6835 0.6851 0.6865
3222.000000 0.6882 0.6898 0.6914 0.6928 0.6945
3227.000000 0.6961 0.6976 0.6993 0.7010 0.7026
3232.000000 0.7044 0.7061 0.7078 0.7095 0.7111
3237.000000 0.7128 0.7145 0.7161 0.7178 0.7192
3242.000000 0.7206 0.7218 0.7231 0.7244 0.7257
3247.000000 0.7268 0.7282 0.7295 0.7308 0.7319
3252.000000 0.7333 0.7343 0.7354 0.7364 0.7374
3257.000000 0.7384 0.7395 0.7405 0.7415 0.7422
3262.000000 0.7431 0.7437 0.7443 0.7449 0.7455
3267.000000 0.7461 0.7468 0.7474 0.7480 0.7486
3272.000000 0.7492 0.7498 0.7504 0.7510 0.7517
3277.000000 0.7522 0.7528 0.7535 0.7541 0.7547
3282.000000 0.7553 0.7558 0.7565 0.7571 0.7576
3287.000000 0.7582 0.7588 0.7593 0.7598 0.7603
3292.000000 0.7608 0.7612 0.7618 0.7624 0.7628
3297.000000 0.7634 0.7640 0.7645 0.7650 0.7655
3302.000000 0.7661 0.7667 0.7672 0.7678 0.7684
3307.000000 0.7689 0.7695 0.7700 0.7706 0.7711
3312.000000 0.7718 0.7722 0.7728 0.7734 0.7739
3317.000000 0.7744 0.7750 0.7755 0.7761 0.7765
3322.000000 0.7771 0.7776 0.7783 0.7788 0.7793
3327.000000 0.7797 0.7801 0.7806 0.7811 0.7815
3332.000000 0.7818 0.7822 0.7826 0.7831 0.7835
3337.000000 0.7839 0.7843 0.7847 0.7851 0.7855
3342.000000 0.7860 0.7861 0.7865 0.7867 0.7869
3347.000000 0.7871 0.7874 0.7875 0.7878 0.7881
3352.000000 0.7884 0.7886 0.7888 0.7890 0.7893
3357.000000 0.7895 0.7898 0.7899 0.7901 0.7901
3362.000000 0.7903 0.7903 0.7903 0.7903 0.7904
3367.000000 0.7904 0.7905 0.7905 0.7906 0.7906
3372.000000 0.7906 0.7905 0.7905 0.7904 0.7904
3377.000000 0.7904 0.7904 0.7903 0.7903 0.7901
3382.000000 0.7901 0.7900 0.7900 0.7899 0.7898
3387.000000 0.7897 0.7896 0.7895 0.7895 0.7894
3392.000000 0.7894 0.7893 0.7893 0.7895 0.7897
3397.000000 0.7903 0.7908 0.7915 0.7921 0.7928
3402.000000 0.7937 0.7944 0.7951 0.7958 0.7967
3407.000000 0.7971 0.7975 0.7980 0.7984 0.7987
3412.000000 0.7991 0.7993 0.7996 0.7999 0.8001
3417.000000 0.8004 0.8007 0.8008 0.8011 0.8012
3422.000000 0.8015 0.8015 0.8017 0.8018 0.8019
3427.000000 0.8021 0.8021 0.8022 0.8024 0.8025
3432.000000 0.8025 0.8026 0.8028 0.8028 0.8030
3437.000000 0.8031 0.8032 0.8032 0.8032 0.8032
3442.000000 0.8033 0.8033 0.8033 0.8033 0.8033
3447.000000 0.8033 0.8033 0.8033 0.8033 0.8033
3452.000000 0.8033 0.8033 0.8033 0.8033 0.8033
3457.000000 0.8033 0.8033 0.8033 0.8033 0.8033
3462.000000 0.8033 0.8033 0.8033 0.8033 0.8034
3467.000000 0.8034 0.8034 0.8034 0.8035 0.8035
3472.000000 0.8035 0.8035 0.8035 0.8035 0.8036
3477.000000 0.8036 0.8036 0.8036 0.8037 0.8037
3482.000000 0.8037 0.8036 0.8035 0.8034 0.8034
3487.000000 0.8033 0.8033 0.8032 0.8032 0.8031
3492.000000 0.8030 0.8028 0.8028 0.8028 0.8028
3497.000000 0.8026 0.8026 0.8025 0.8025 0.8024
3502.000000 0.8024 0.8022 0.8022 0.8021 0.8021
3507.000000 0.8021 0.8019 0.8019 0.8019 0.8022
3512.000000 0.8026 0.8031 0.8035 0.8038 0.8042
3517.000000 0.8042 0.8042 0.8042 0.8042 0.8042
3522.000000 0.8042 0.8042 0.8042 0.8042 0.8042
3527.000000 0.8042 0.8042 0.8042 0.8042 0.8043
3532.000000 0.8044 0.8045 0.8046 0.8047 0.8048
3537.000000 0.8049 0.8051 0.8051 0.8053 0.8054
3542.000000 0.8056 0.8056 0.8057 0.8058 0.8058
3547.000000 0.8058 0.8060 0.8060 0.8061 0.8061
3552.000000 0.8061 0.8061 0.8062 0.8064 0.8065
3557.000000 0.8065 0.8065 0.8065 0.8067 0.8067
3562.000000 0.8067 0.8067 0.8067 0.8067 0.8067
3567.000000 0.8065 0.8065 0.8065 0.8065 0.8064
3572.000000 0.8064 0.8064 0.8064 0.8062 0.8062
3577.000000 0.8061 0.8061 0.8061 0.8061 0.8061
3582.000000 0.8061 0.8065 0.8054 0.8082 0.8093
3587.000000 0.8099 0.8106 0.8107 0.8108 0.8110
3592.000000 0.8111 0.8111 0.8112 0.8114 0.8115
3597.000000 0.8115 0.8117 0.8117 0.8117 0.8117
3602.000000 0.8117 0.8117 0.8117 0.8117 0.8117
3607.000000 0.8117 0.8117 0.8117 0.8117 0.8117
3612.000000 0.8117 0.8117 0.8118 0.8118 0.8119
3617.000000 0.8119 0.8121 0.8121 0.8121 0.8121
3622.000000 0.8122 0.8122 0.8124 0.8124 0.8125
3627.000000 0.8125 0.8125 0.8125 0.8125 0.8125
3632.000000 0.8125 0.8125 0.8125 0.8125 0.8125
3637.000000 0.8125 0.8126 0.8126 0.8126 0.8126
3642.000000 0.8126 0.8126 0.8128 0.8128 0.8128
3647.000000 0.8128 0.8128 0.8128 0.8128 0.8128
3652.000000 0.8128 0.8128 0.8130 0.8130 0.8131
3657.000000 0.8131 0.8132 0.8132 0.8133 0.8133
3662.000000 0.8134 0.8134 0.8135 0.8135 0.8136
3667.000000 0.8136 0.8137 0.8137 0.8138 0.8138
3672.000000 0.8139 0.8139 0.8140 0.8140 0.8141
3677.000000 0.8141 0.8142 0.8142 0.8143 0.8143
3682.000000 0.8143 0.8143 0.8144 0.8144 0.8145
3687.000000 0.8145 0.8145 0.8145 0.8145 0.8145
3692.000000 0.8145 0.8145 0.8146 0.8146 0.8146
3697.000000 0.8146 0.8146 0.8146 0.8146 0.8146
3702.000000 0.8147 0.8147 0.8147 0.8147 0.8147
3707.000000 0.8147 0.8147 0.8147 0.8148 0.8148
3712.000000 0.8148 0.8148 0.8148 0.8148 0.8148
3717.000000 0.8148 0.8148 0.8147 0.8147 0.8146
3722.000000 0.8146 0.8145 0.8145 0.8144 0.8143
3727.000000 0.8142 0.8142 0.8141 0.8141 0.8140
3732.000000 0.8140 0.8139 0.8139 0.8138 0.8137
3737.000000 0.8136 0.8136 0.8135 0.8135 0.8134
3742.000000 0.8134 0.8133 0.8133 0.8132 0.8131
3747.000000 0.8130 0.8130 0.8128 0.8128 0.8126
3752.000000 0.8126 0.8125 0.8125 0.8125 0.8124
3757.000000 0.8122 0.8122 0.8121 0.8121 0.8119
3762.000000 0.8119 0.8118 0.8118 0.8117 0.8117
3767.000000 0.8117 0.8118 0.8118 0.8118 0.8118
3772.000000 0.8118 0.8118 0.8119 0.8119 0.8121
3777.000000 0.8121 0.8121 0.8121 0.8122 0.8122
3782.000000 0.8124 0.8124 0.8124
##END=
