##TITLE=1-Piperazine ethanol, 4-[3-(2-trifluoromethyl-10-phenoxazinyl)propyl]-, dihydrochloride
##JCAMP-DX=4.24
##DATA TYPE=INFRARED SPECTRUM
##CLASS=COBLENTZ III
##ORIGIN=SMITH KLINE & FRENCH LABS.
##OWNER=Copyright (C) 1987 by the Coblentz Society
Collection (C) 2018 copyright by the U.S. Secretary of Commerce
on behalf of the United States of America. All rights reserved.
##DATE=1960/04/28
##MOLFORM=C22 H28 Cl2 F3 N3 O2
##SOURCE REFERENCE=COBLENTZ NO. 9089
##$NIST ID=B6009089
##$NIST SOURCE=COBLENTZ
##$NIST IMAGE=cob9089
##SPECTROMETER/DATA SYSTEM=PERKIN-ELMER 21 (GRATING)
##INSTRUMENT PARAMETERS=NaCl PRISM
##STATE=SOLID (KBr DISC)
##SAMPLING PROCEDURE=TRANSMISSION
##RESOLUTION=2
##DATA PROCESSING=DIGITIZED BY COBLENTZ SOCIETY (BATCH II) FROM HARD COPY
##XUNITS=1/CM
##YUNITS=TRANSMITTANCE
##XFACTOR=1.0
##YFACTOR=1
##FIRSTX=651
##LASTX=4000
##FIRSTY=0.5873
##MAXX=4000
##MINX=651
##MAXY=0.8591
##MINY=0.0925
##NPOINTS=3350
##XYDATA=(X++(Y..Y))
651.000000 0.5873 0.6013 0.6155 0.6275 0.6357
656.000000 0.6436 0.6510 0.6555 0.6599 0.6613
661.000000 0.6639 0.6671 0.6712 0.6735 0.6745
666.000000 0.6663 0.6586 0.6690 0.6677 0.6619
671.000000 0.6549 0.6481 0.6268 0.6120 0.5930
676.000000 0.5675 0.5657 0.5854 0.6093 0.6411
681.000000 0.6957 0.7108 0.7182 0.7228 0.7263
686.000000 0.7285 0.7300 0.7306 0.7310 0.7315
691.000000 0.7409 0.7430 0.7442 0.7451 0.7468
696.000000 0.7437 0.7425 0.7405 0.7376 0.7345
701.000000 0.7314 0.7272 0.7221 0.7143 0.7070
706.000000 0.6998 0.6893 0.6858 0.6868 0.6861
711.000000 0.6774 0.6673 0.6614 0.6610 0.6613
716.000000 0.6589 0.6405 0.6147 0.5878 0.5826
721.000000 0.6003 0.6288 0.6351 0.6356 0.6180
726.000000 0.6001 0.5724 0.5455 0.5013 0.4258
731.000000 0.3577 0.2804 0.2405 0.2095 0.2089
736.000000 0.2207 0.2322 0.2395 0.2438 0.2518
741.000000 0.2946 0.3470 0.3924 0.4630 0.5376
746.000000 0.5623 0.5771 0.5879 0.5911 0.5898
751.000000 0.5863 0.5808 0.5806 0.5871 0.6153
756.000000 0.6459 0.6582 0.6651 0.6683 0.6704
761.000000 0.6745 0.6799 0.6873 0.7059 0.7361
766.000000 0.7478 0.7556 0.7607 0.7639 0.7650
771.000000 0.7656 0.7657 0.7658 0.7665 0.7671
776.000000 0.7673 0.7672 0.7641 0.7550 0.7550
781.000000 0.7575 0.7618 0.7658 0.7696 0.7721
786.000000 0.7730 0.7707 0.7669 0.7625 0.7593
791.000000 0.7574 0.7538 0.7499 0.7465 0.7396
796.000000 0.7246 0.7067 0.6990 0.6724 0.6424
801.000000 0.5997 0.5573 0.5149 0.4749 0.4380
806.000000 0.4176 0.4169 0.4599 0.4900 0.5093
811.000000 0.5202 0.5302 0.5401 0.5495 0.5626
816.000000 0.5806 0.5985 0.6165 0.6310 0.6392
821.000000 0.6425 0.6365 0.6313 0.6282 0.6289
826.000000 0.6316 0.6372 0.6532 0.6965 0.7124
831.000000 0.7110 0.7081 0.7007 0.6915 0.6772
836.000000 0.6698 0.6674 0.6616 0.6393 0.6096
841.000000 0.5959 0.5803 0.5621 0.5417 0.5194
846.000000 0.4768 0.4427 0.4144 0.3851 0.3790
851.000000 0.4035 0.4257 0.4477 0.4699 0.4919
856.000000 0.5138 0.5358 0.5581 0.5758 0.5920
861.000000 0.6087 0.6297 0.6571 0.6852 0.7204
866.000000 0.7397 0.7466 0.7500 0.7585 0.7592
871.000000 0.7592 0.7576 0.7583 0.7574 0.7565
876.000000 0.7553 0.7536 0.7511 0.7485 0.7454
881.000000 0.7420 0.7377 0.7316 0.7262 0.7227
886.000000 0.7196 0.7168 0.7145 0.7125 0.7113
891.000000 0.7025 0.6903 0.6790 0.6561 0.6224
896.000000 0.6003 0.5886 0.5791 0.5802 0.5825
901.000000 0.5870 0.6093 0.6375 0.6728 0.6847
906.000000 0.6882 0.6877 0.6877 0.6750 0.6648
911.000000 0.6544 0.6494 0.6452 0.6310 0.6173
916.000000 0.6119 0.6103 0.6093 0.6073 0.6043
921.000000 0.5976 0.5846 0.5753 0.5702 0.5629
926.000000 0.5489 0.5332 0.5139 0.4914 0.4749
931.000000 0.4365 0.3975 0.3873 0.3877 0.4075
936.000000 0.4451 0.4827 0.5167 0.5215 0.5119
941.000000 0.4913 0.4517 0.4122 0.3728 0.3335
946.000000 0.3228 0.3306 0.3730 0.4333 0.4880
951.000000 0.4945 0.4876 0.4650 0.4387 0.4124
956.000000 0.3862 0.3601 0.3340 0.3192 0.3222
961.000000 0.3710 0.4319 0.4926 0.5533 0.6061
966.000000 0.6395 0.6551 0.6653 0.6823 0.7155
971.000000 0.7236 0.7275 0.7301 0.7308 0.7295
976.000000 0.7247 0.7211 0.7179 0.7149 0.7120
981.000000 0.7091 0.7059 0.7027 0.6978 0.6920
986.000000 0.6861 0.6801 0.6715 0.6614 0.6488
991.000000 0.6355 0.6271 0.6225 0.5970 0.5785
996.000000 0.5599 0.5416 0.5231 0.5076 0.5000
1001.000000 0.4997 0.5005 0.4989 0.5225 0.5295
1006.000000 0.5309 0.5302 0.5271 0.5201 0.5030
1011.000000 0.4852 0.4673 0.4589 0.4635 0.4692
1016.000000 0.4809 0.4975 0.5141 0.5434 0.5615
1021.000000 0.5656 0.5673 0.5718 0.5657 0.5634
1026.000000 0.5604 0.5571 0.5537 0.5501 0.5448
1031.000000 0.5377 0.5283 0.5185 0.5077 0.4860
1036.000000 0.4544 0.4229 0.3914 0.3557 0.3405
1041.000000 0.3381 0.3529 0.3735 0.3938 0.4126
1046.000000 0.4283 0.4397 0.4444 0.4449 0.4433
1051.000000 0.4418 0.4326 0.4137 0.4079 0.3918
1056.000000 0.3734 0.3552 0.3369 0.3187 0.3005
1061.000000 0.2839 0.2723 0.2624 0.2544 0.2461
1066.000000 0.2369 0.2272 0.2159 0.2040 0.1898
1071.000000 0.1743 0.1567 0.1424 0.1301 0.1204
1076.000000 0.1140 0.1093 0.1055 0.1047 0.1029
1081.000000 0.1081 0.1217 0.1428 0.1556 0.1557
1086.000000 0.1582 0.1527 0.1461 0.1329 0.1213
1091.000000 0.1075 0.1021 0.1012 0.1012 0.1018
1096.000000 0.1013 0.1068 0.1122 0.1239 0.1395
1101.000000 0.1603 0.1788 0.1905 0.1995 0.2065
1106.000000 0.2127 0.2156 0.2167 0.2162 0.2152
1111.000000 0.2138 0.2127 0.2122 0.2143 0.2199
1116.000000 0.2278 0.2390 0.2553 0.2721 0.2759
1121.000000 0.2778 0.2751 0.2716 0.2684 0.2670
1126.000000 0.2639 0.2578 0.2507 0.2442 0.2395
1131.000000 0.2356 0.1614 0.1445 0.1309 0.1206
1136.000000 0.1141 0.1133 0.1605 0.1995 0.2385
1141.000000 0.2729 0.2746 0.2687 0.2534 0.2380
1146.000000 0.2227 0.2074 0.1922 0.1847 0.1840
1151.000000 0.1857 0.1911 0.2121 0.2334 0.2421
1156.000000 0.2499 0.2671 0.2845 0.3020 0.3194
1161.000000 0.3368 0.3541 0.3715 0.3887 0.4061
1166.000000 0.4233 0.4384 0.4525 0.4651 0.4771
1171.000000 0.4904 0.5073 0.5273 0.5430 0.5481
1176.000000 0.5502 0.5515 0.5525 0.5531 0.5541
1181.000000 0.5594 0.5743 0.5851 0.5939 0.5998
1186.000000 0.6018 0.6020 0.5980 0.5948 0.5910
1191.000000 0.5866 0.5807 0.5714 0.5609 0.5444
1196.000000 0.5282 0.5171 0.5086 0.5006 0.4928
1201.000000 0.4861 0.4801 0.4763 0.4741 0.4737
1206.000000 0.4719 0.4791 0.4869 0.5058 0.5263
1211.000000 0.5466 0.5643 0.5665 0.5661 0.5663
1216.000000 0.5628 0.5552 0.5479 0.5415 0.5331
1221.000000 0.5227 0.5026 0.4783 0.4539 0.4296
1226.000000 0.4054 0.3814 0.3707 0.3738 0.3770
1231.000000 0.3894 0.4170 0.4444 0.4718 0.4992
1236.000000 0.5063 0.5077 0.5039 0.4962 0.4835
1241.000000 0.4676 0.4522 0.4406 0.4324 0.4246
1246.000000 0.4192 0.4170 0.4147 0.3997 0.3830
1251.000000 0.3662 0.3495 0.3328 0.3162 0.3013
1256.000000 0.2892 0.2736 0.2597 0.2480 0.2367
1261.000000 0.2258 0.1501 0.1220 0.1072 0.1012
1266.000000 0.0976 0.0945 0.0936 0.0934 0.0925
1271.000000 0.0979 0.1017 0.1059 0.1108 0.1164
1276.000000 0.1213 0.1265 0.1359 0.1670 0.1772
1281.000000 0.1882 0.1946 0.2003 0.2059 0.2135
1286.000000 0.2239 0.2792 0.2960 0.3156 0.3562
1291.000000 0.3654 0.3679 0.3684 0.3694 0.3687
1296.000000 0.3684 0.3672 0.3657 0.3638 0.3612
1301.000000 0.3555 0.3477 0.3058 0.2801 0.2544
1306.000000 0.2288 0.2032 0.1776 0.1520 0.1265
1311.000000 0.1017 0.1026 0.1022 0.1213 0.1453
1316.000000 0.1693 0.1932 0.2029 0.1862 0.1730
1321.000000 0.1598 0.1466 0.1335 0.1203 0.1103
1326.000000 0.1106 0.1093 0.1118 0.1328 0.1654
1331.000000 0.1978 0.2175 0.2341 0.2617 0.2904
1336.000000 0.3191 0.3302 0.3302 0.3252 0.3088
1341.000000 0.2919 0.2751 0.2586 0.2521 0.2522
1346.000000 0.2525 0.2609 0.2787 0.2965 0.3144
1351.000000 0.3321 0.3499 0.3676 0.3853 0.4030
1356.000000 0.4207 0.4383 0.4553 0.4571 0.4564
1361.000000 0.4564 0.4254 0.4083 0.3912 0.3741
1366.000000 0.3570 0.3400 0.3230 0.3061 0.2931
1371.000000 0.2861 0.2774 0.2669 0.2563 0.2458
1376.000000 0.2398 0.2379 0.2387 0.2371 0.2529
1381.000000 0.2640 0.2750 0.2861 0.2971 0.3082
1386.000000 0.3192 0.3302 0.3413 0.3523 0.3633
1391.000000 0.3768 0.3895 0.3974 0.4051 0.4114
1396.000000 0.4160 0.4204 0.4246 0.4286 0.4320
1401.000000 0.4346 0.4372 0.4391 0.4417 0.4511
1406.000000 0.4714 0.4803 0.4837 0.4850 0.4852
1411.000000 0.4861 0.4795 0.4754 0.4730 0.4711
1416.000000 0.4694 0.4662 0.4582 0.4498 0.4440
1421.000000 0.4369 0.4280 0.4194 0.4116 0.4033
1426.000000 0.3948 0.3857 0.3753 0.3658 0.3577
1431.000000 0.3497 0.3417 0.3330 0.3235 0.3147
1436.000000 0.3063 0.2967 0.2790 0.2584 0.2470
1441.000000 0.2384 0.2302 0.2227 0.2165 0.2123
1446.000000 0.1764 0.1569 0.1354 0.1165 0.1082
1451.000000 0.1026 0.0994 0.0975 0.0986 0.1008
1456.000000 0.1199 0.1422 0.1644 0.1866 0.2087
1461.000000 0.2309 0.2528 0.2638 0.2747 0.2904
1466.000000 0.3018 0.3078 0.3216 0.3367 0.3517
1471.000000 0.3667 0.3817 0.3967 0.4116 0.4371
1476.000000 0.4486 0.4524 0.4542 0.4548 0.4546
1481.000000 0.4576 0.4533 0.4515 0.4493 0.4437
1486.000000 0.4289 0.4068 0.3837 0.3605 0.3374
1491.000000 0.3144 0.2914 0.2684 0.2454 0.2225
1496.000000 0.1996 0.1767 0.1538 0.1330 0.1218
1501.000000 0.1146 0.1089 0.1034 0.1004 0.0991
1506.000000 0.0997 0.0983 0.1121 0.1528 0.1607
1511.000000 0.1649 0.1676 0.1700 0.1728 0.1761
1516.000000 0.1827 0.1962 0.2379 0.2717 0.3055
1521.000000 0.3393 0.3730 0.4075 0.4324 0.4491
1526.000000 0.4654 0.4815 0.4923 0.4987 0.5048
1531.000000 0.5106 0.5159 0.5214 0.5288 0.5364
1536.000000 0.5443 0.5535 0.5649 0.5796 0.5945
1541.000000 0.6065 0.6184 0.6341 0.6523 0.6937
1546.000000 0.7139 0.7184 0.7217 0.7238 0.7259
1551.000000 0.7280 0.7302 0.7324 0.7341 0.7356
1556.000000 0.7369 0.7377 0.7383 0.7389 0.7397
1561.000000 0.7404 0.7409 0.7412 0.7413 0.7413
1566.000000 0.7406 0.7399 0.7372 0.7334 0.7294
1571.000000 0.7253 0.7217 0.7182 0.7148 0.7113
1576.000000 0.7078 0.7043 0.7007 0.6973 0.6938
1581.000000 0.6903 0.6868 0.6832 0.6794 0.6757
1586.000000 0.6720 0.6678 0.6634 0.6589 0.6544
1591.000000 0.6481 0.6408 0.6347 0.6293 0.6177
1596.000000 0.6014 0.5846 0.5678 0.5529 0.5462
1601.000000 0.5461 0.5475 0.5556 0.5643 0.5731
1606.000000 0.5818 0.5905 0.5992 0.6079 0.6150
1611.000000 0.6158 0.6155 0.6192 0.6134 0.6118
1616.000000 0.6103 0.6086 0.6066 0.6046 0.6026
1621.000000 0.6007 0.5987 0.5966 0.5944 0.5923
1626.000000 0.5891 0.5847 0.5797 0.5738 0.5653
1631.000000 0.5543 0.5440 0.5303 0.5167 0.5030
1636.000000 0.4894 0.4757 0.4713 0.4709 0.4706
1641.000000 0.4783 0.4869 0.4955 0.5041 0.5127
1646.000000 0.5213 0.5299 0.5384 0.5470 0.5529
1651.000000 0.5575 0.5618 0.5756 0.5886 0.5960
1656.000000 0.6023 0.6103 0.6228 0.6344 0.6448
1661.000000 0.6593 0.6768 0.6928 0.7049 0.7172
1666.000000 0.7274 0.7326 0.7373 0.7418 0.7455
1671.000000 0.7488 0.7520 0.7553 0.7586 0.7621
1676.000000 0.7655 0.7688 0.7719 0.7742 0.7764
1681.000000 0.7786 0.7811 0.7839 0.7869 0.7898
1686.000000 0.7925 0.7951 0.7977 0.8002 0.8019
1691.000000 0.8033 0.8048 0.8063 0.8077 0.8092
1696.000000 0.8107 0.8119 0.8130 0.8140 0.8150
1701.000000 0.8159 0.8166 0.8173 0.8179 0.8185
1706.000000 0.8192 0.8198 0.8204 0.8209 0.8214
1711.000000 0.8219 0.8224 0.8229 0.8234 0.8238
1716.000000 0.8243 0.8248 0.8253 0.8256 0.8260
1721.000000 0.8263 0.8266 0.8270 0.8273 0.8276
1726.000000 0.8280 0.8283 0.8286 0.8290 0.8293
1731.000000 0.8296 0.8299 0.8301 0.8303 0.8306
1736.000000 0.8308 0.8310 0.8312 0.8315 0.8317
1741.000000 0.8321 0.8324 0.8327 0.8331 0.8334
1746.000000 0.8337 0.8340 0.8341 0.8342 0.8342
1751.000000 0.8344 0.8352 0.8361 0.8369 0.8376
1756.000000 0.8384 0.8392 0.8404 0.8417 0.8429
1761.000000 0.8438 0.8447 0.8457 0.8466 0.8474
1766.000000 0.8481 0.8489 0.8496 0.8503 0.8511
1771.000000 0.8519 0.8526 0.8532 0.8538 0.8543
1776.000000 0.8548 0.8552 0.8557 0.8561 0.8565
1781.000000 0.8568 0.8570 0.8571 0.8573 0.8574
1786.000000 0.8591 0.8577 0.8577 0.8579 0.8580
1791.000000 0.8581 0.8581 0.8583 0.8584 0.8585
1796.000000 0.8585 0.8585 0.8584 0.8583 0.8582
1801.000000 0.8582 0.8581 0.8580 0.8579 0.8579
1806.000000 0.8578 0.8576 0.8574 0.8571 0.8569
1811.000000 0.8567 0.8566 0.8563 0.8561 0.8555
1816.000000 0.8547 0.8538 0.8531 0.8521 0.8510
1821.000000 0.8497 0.8485 0.8471 0.8456 0.8441
1826.000000 0.8426 0.8410 0.8394 0.8379 0.8366
1831.000000 0.8353 0.8341 0.8329 0.8316 0.8307
1836.000000 0.8300 0.8296 0.8292 0.8287 0.8283
1841.000000 0.8278 0.8274 0.8269 0.8265 0.8263
1846.000000 0.8261 0.8260 0.8258 0.8256 0.8254
1851.000000 0.8252 0.8250 0.8249 0.8247 0.8246
1856.000000 0.8243 0.8242 0.8240 0.8238 0.8238
1861.000000 0.8236 0.8235 0.8233 0.8232 0.8230
1866.000000 0.8229 0.8229 0.8227 0.8226 0.8224
1871.000000 0.8223 0.8222 0.8221 0.8220 0.8218
1876.000000 0.8217 0.8215 0.8215 0.8213 0.8212
1881.000000 0.8211 0.8209 0.8208 0.8207 0.8206
1886.000000 0.8205 0.8204 0.8203 0.8201 0.8200
1891.000000 0.8200 0.8198 0.8197 0.8196 0.8194
1896.000000 0.8191 0.8189 0.8186 0.8183 0.8181
1901.000000 0.8178 0.8175 0.8171 0.8169 0.8165
1906.000000 0.8162 0.8158 0.8155 0.8151 0.8148
1911.000000 0.8145 0.8142 0.8139 0.8135 0.8132
1916.000000 0.8129 0.8127 0.8125 0.8123 0.8121
1921.000000 0.8119 0.8120 0.8122 0.8126 0.8129
1926.000000 0.8131 0.8133 0.8133 0.8133 0.8133
1931.000000 0.8132 0.8132 0.8132 0.8131 0.8130
1936.000000 0.8128 0.8127 0.8125 0.8120 0.8115
1941.000000 0.8109 0.8104 0.8099 0.8093 0.8087
1946.000000 0.8082 0.8077 0.8071 0.8065 0.8058
1951.000000 0.8052 0.8046 0.8039 0.8033 0.8026
1956.000000 0.8021 0.8014 0.8008 0.8002 0.7996
1961.000000 0.7989 0.7983 0.7977 0.7971 0.7964
1966.000000 0.7958 0.7951 0.7945 0.7938 0.7932
1971.000000 0.7925 0.7919 0.7913 0.7907 0.7901
1976.000000 0.7895 0.7889 0.7884 0.7878 0.7872
1981.000000 0.7866 0.7861 0.7855 0.7849 0.7844
1986.000000 0.7838 0.7832 0.7827 0.7822 0.7817
1991.000000 0.7812 0.7807 0.7802 0.7797 0.7792
1996.000000 0.7787 0.7783 0.7778 0.7773 0.7768
2001.000000 0.7763 0.7758 0.7753 0.7748 0.7743
2006.000000 0.7738 0.7734 0.7729 0.7724 0.7719
2011.000000 0.7715 0.7710 0.7705 0.7701 0.7696
2016.000000 0.7691 0.7686 0.7681 0.7677 0.7672
2021.000000 0.7668 0.7663 0.7659 0.7654 0.7649
2026.000000 0.7645 0.7640 0.7636 0.7631 0.7627
2031.000000 0.7623 0.7619 0.7614 0.7610 0.7606
2036.000000 0.7602 0.7597 0.7592 0.7588 0.7585
2041.000000 0.7582 0.7580 0.7577 0.7574 0.7571
2046.000000 0.7568 0.7566 0.7563 0.7560 0.7558
2051.000000 0.7555 0.7553 0.7552 0.7552 0.7552
2056.000000 0.7551 0.7551 0.7551 0.7551 0.7549
2061.000000 0.7547 0.7544 0.7540 0.7537 0.7534
2066.000000 0.7531 0.7527 0.7522 0.7516 0.7510
2071.000000 0.7503 0.7497 0.7490 0.7483 0.7476
2076.000000 0.7468 0.7460 0.7453 0.7445 0.7437
2081.000000 0.7429 0.7421 0.7414 0.7407 0.7399
2086.000000 0.7391 0.7383 0.7376 0.7369 0.7363
2091.000000 0.7356 0.7349 0.7342 0.7335 0.7328
2096.000000 0.7321 0.7315 0.7308 0.7301 0.7294
2101.000000 0.7287 0.7281 0.7274 0.7267 0.7260
2106.000000 0.7252 0.7243 0.7235 0.7226 0.7218
2111.000000 0.7210 0.7201 0.7193 0.7185 0.7177
2116.000000 0.7169 0.7160 0.7151 0.7142 0.7133
2121.000000 0.7125 0.7116 0.7108 0.7101 0.7095
2126.000000 0.7090 0.7084 0.7079 0.7073 0.7068
2131.000000 0.7062 0.7057 0.7053 0.7048 0.7043
2136.000000 0.7039 0.7034 0.7030 0.7026 0.7022
2141.000000 0.7018 0.7014 0.7010 0.7005 0.6999
2146.000000 0.6992 0.6985 0.6977 0.6967 0.6958
2151.000000 0.6948 0.6937 0.6924 0.6911 0.6896
2156.000000 0.6881 0.6867 0.6845 0.6822 0.6797
2161.000000 0.6772 0.6748 0.6726 0.6706 0.6685
2166.000000 0.6665 0.6646 0.6626 0.6607 0.6588
2171.000000 0.6570 0.6551 0.6532 0.6513 0.6494
2176.000000 0.6475 0.6456 0.6438 0.6421 0.6406
2181.000000 0.6391 0.6376 0.6361 0.6347 0.6332
2186.000000 0.6317 0.6303 0.6287 0.6272 0.6254
2191.000000 0.6236 0.6218 0.6200 0.6185 0.6170
2196.000000 0.6160 0.6149 0.6137 0.6126 0.6115
2201.000000 0.6104 0.6093 0.6083 0.6073 0.6063
2206.000000 0.6055 0.6046 0.6038 0.6029 0.6020
2211.000000 0.6012 0.6004 0.5995 0.5987 0.5977
2216.000000 0.5966 0.5954 0.5942 0.5930 0.5918
2221.000000 0.5905 0.5893 0.5880 0.5866 0.5849
2226.000000 0.5830 0.5811 0.5793 0.5774 0.5755
2231.000000 0.5737 0.5719 0.5701 0.5683 0.5665
2236.000000 0.5647 0.5629 0.5612 0.5594 0.5575
2241.000000 0.5556 0.5536 0.5517 0.5498 0.5478
2246.000000 0.5459 0.5440 0.5420 0.5403 0.5385
2251.000000 0.5369 0.5352 0.5335 0.5317 0.5304
2256.000000 0.5293 0.5285 0.5279 0.5272 0.5265
2261.000000 0.5258 0.5252 0.5245 0.5238 0.5231
2266.000000 0.5225 0.5218 0.5212 0.5204 0.5195
2271.000000 0.5184 0.5169 0.5154 0.5139 0.5117
2276.000000 0.5070 0.5026 0.4996 0.4966 0.4939
2281.000000 0.4912 0.4888 0.4864 0.4844 0.4825
2286.000000 0.4816 0.4809 0.4803 0.4797 0.4790
2291.000000 0.4784 0.4777 0.4770 0.4760 0.4746
2296.000000 0.4730 0.4708 0.4686 0.4661 0.4635
2301.000000 0.4598 0.4561 0.4537 0.4512 0.4487
2306.000000 0.4462 0.4436 0.4410 0.4375 0.4335
2311.000000 0.4295 0.4255 0.4207 0.4143 0.4076
2316.000000 0.4000 0.3924 0.3863 0.3802 0.3761
2321.000000 0.3722 0.3684 0.3648 0.3617 0.3589
2326.000000 0.3562 0.3535 0.3507 0.3478 0.3449
2331.000000 0.3419 0.3388 0.3358 0.3328 0.3291
2336.000000 0.3251 0.3207 0.3160 0.3113 0.3070
2341.000000 0.3027 0.2989 0.2951 0.2913 0.2876
2346.000000 0.2833 0.2789 0.2757 0.2733 0.2711
2351.000000 0.2691 0.2672 0.2656 0.2639 0.2630
2356.000000 0.2621 0.2612 0.2604 0.2595 0.2586
2361.000000 0.2577 0.2568 0.2559 0.2551 0.2542
2366.000000 0.2532 0.2521 0.2510 0.2499 0.2488
2371.000000 0.2477 0.2466 0.2454 0.2443 0.2432
2376.000000 0.2421 0.2410 0.2399 0.2388 0.2378
2381.000000 0.2368 0.2359 0.2350 0.2340 0.2330
2386.000000 0.2321 0.2312 0.2302 0.2293 0.2284
2391.000000 0.2275 0.2266 0.2256 0.2247 0.2238
2396.000000 0.2229 0.2220 0.2211 0.2202 0.2193
2401.000000 0.2184 0.2175 0.2166 0.2157 0.2148
2406.000000 0.2139 0.2131 0.2122 0.2115 0.2109
2411.000000 0.2103 0.2097 0.2090 0.2084 0.2077
2416.000000 0.2071 0.2065 0.2059 0.2056 0.2053
2421.000000 0.2052 0.2051 0.2051 0.2052 0.2050
2426.000000 0.2056 0.2058 0.2061 0.2064 0.2068
2431.000000 0.2075 0.2081 0.2092 0.2102 0.2111
2436.000000 0.2119 0.2127 0.2136 0.2144 0.2154
2441.000000 0.2164 0.2173 0.2184 0.2193 0.2203
2446.000000 0.2212 0.2221 0.2231 0.2241 0.2252
2451.000000 0.2264 0.2276 0.2288 0.2300 0.2312
2456.000000 0.2324 0.2336 0.2348 0.2361 0.2373
2461.000000 0.2386 0.2399 0.2412 0.2418 0.2425
2466.000000 0.2431 0.2437 0.2443 0.2450 0.2456
2471.000000 0.2460 0.2463 0.2466 0.2468 0.2471
2476.000000 0.2473 0.2475 0.2477 0.2480 0.2482
2481.000000 0.2484 0.2485 0.2487 0.2488 0.2489
2486.000000 0.2491 0.2493 0.2494 0.2495 0.2496
2491.000000 0.2498 0.2500 0.2502 0.2505 0.2507
2496.000000 0.2510 0.2512 0.2515 0.2518 0.2522
2501.000000 0.2526 0.2530 0.2534 0.2538 0.2542
2506.000000 0.2547 0.2551 0.2555 0.2558 0.2561
2511.000000 0.2564 0.2566 0.2569 0.2571 0.2573
2516.000000 0.2575 0.2577 0.2579 0.2582 0.2584
2521.000000 0.2586 0.2589 0.2591 0.2594 0.2596
2526.000000 0.2598 0.2600 0.2602 0.2604 0.2607
2531.000000 0.2609 0.2611 0.2617 0.2671 0.2724
2536.000000 0.2754 0.2760 0.2766 0.2770 0.2774
2541.000000 0.2778 0.2781 0.2785 0.2788 0.2792
2546.000000 0.2796 0.2800 0.2804 0.2807 0.2810
2551.000000 0.2812 0.2822 0.2832 0.2844 0.2857
2556.000000 0.2871 0.2885 0.2899 0.2913 0.2931
2561.000000 0.2949 0.2967 0.2985 0.3004 0.3033
2566.000000 0.3063 0.3095 0.3129 0.3164 0.3188
2571.000000 0.3207 0.3225 0.3244 0.3263 0.3282
2576.000000 0.3300 0.3319 0.3340 0.3364 0.3387
2581.000000 0.3411 0.3436 0.3460 0.3484 0.3508
2586.000000 0.3532 0.3556 0.3581 0.3605 0.3630
2591.000000 0.3654 0.3677 0.3699 0.3721 0.3743
2596.000000 0.3764 0.3782 0.3799 0.3815 0.3826
2601.000000 0.3837 0.3842 0.3842 0.3842 0.3841
2606.000000 0.3839 0.3838 0.3838 0.3838 0.3837
2611.000000 0.3836 0.3836 0.3835 0.3835 0.3835
2616.000000 0.3834 0.3834 0.3833 0.3833 0.3833
2621.000000 0.3832 0.3832 0.3832 0.3832 0.3832
2626.000000 0.3832 0.3831 0.3831 0.3831 0.3831
2631.000000 0.3831 0.3832 0.3834 0.3837 0.3841
2636.000000 0.3846 0.3852 0.3864 0.3877 0.3891
2641.000000 0.3918 0.3945 0.3973 0.4001 0.4029
2646.000000 0.4059 0.4089 0.4120 0.4180 0.4253
2651.000000 0.4326 0.4375 0.4420 0.4464 0.4494
2656.000000 0.4524 0.4552 0.4572 0.4593 0.4609
2661.000000 0.4619 0.4628 0.4638 0.4648 0.4658
2666.000000 0.4669 0.4680 0.4691 0.4705 0.4719
2671.000000 0.4733 0.4747 0.4761 0.4775 0.4790
2676.000000 0.4804 0.4818 0.4833 0.4848 0.4862
2681.000000 0.4876 0.4891 0.4905 0.4920 0.4934
2686.000000 0.4954 0.4975 0.4997 0.5019 0.5042
2691.000000 0.5065 0.5088 0.5111 0.5134 0.5157
2696.000000 0.5180 0.5202 0.5224 0.5246 0.5268
2701.000000 0.5291 0.5313 0.5335 0.5356 0.5377
2706.000000 0.5398 0.5418 0.5438 0.5458 0.5478
2711.000000 0.5498 0.5516 0.5533 0.5550 0.5566
2716.000000 0.5581 0.5596 0.5610 0.5625 0.5639
2721.000000 0.5654 0.5668 0.5683 0.5698 0.5714
2726.000000 0.5729 0.5744 0.5759 0.5775 0.5790
2731.000000 0.5805 0.5820 0.5835 0.5850 0.5865
2736.000000 0.5880 0.5895 0.5909 0.5924 0.5939
2741.000000 0.5953 0.5969 0.5985 0.6002 0.6018
2746.000000 0.6034 0.6050 0.6067 0.6084 0.6101
2751.000000 0.6133 0.6170 0.6207 0.6228 0.6242
2756.000000 0.6256 0.6269 0.6281 0.6293 0.6300
2761.000000 0.6303 0.6306 0.6309 0.6312 0.6315
2766.000000 0.6316 0.6316 0.6316 0.6315 0.6315
2771.000000 0.6314 0.6313 0.6313 0.6312 0.6315
2776.000000 0.6308 0.6305 0.6302 0.6298 0.6295
2781.000000 0.6291 0.6287 0.6284 0.6280 0.6276
2786.000000 0.6272 0.6268 0.6264 0.6259 0.6255
2791.000000 0.6251 0.6247 0.6243 0.6237 0.6232
2796.000000 0.6226 0.6219 0.6211 0.6204 0.6196
2801.000000 0.6188 0.6180 0.6172 0.6163 0.6155
2806.000000 0.6146 0.6137 0.6128 0.6118 0.6108
2811.000000 0.6097 0.6087 0.6076 0.6064 0.6052
2816.000000 0.6040 0.6028 0.6016 0.6000 0.5982
2821.000000 0.5964 0.5946 0.5928 0.5910 0.5893
2826.000000 0.5881 0.5868 0.5856 0.5844 0.5832
2831.000000 0.5821 0.5811 0.5802 0.5794 0.5785
2836.000000 0.5777 0.5769 0.5761 0.5752 0.5744
2841.000000 0.5736 0.5727 0.5719 0.5711 0.5702
2846.000000 0.5693 0.5685 0.5672 0.5658 0.5643
2851.000000 0.5628 0.5613 0.5598 0.5583 0.5568
2856.000000 0.5553 0.5538 0.5514 0.5489 0.5464
2861.000000 0.5414 0.5346 0.5278 0.5212 0.5149
2866.000000 0.5086 0.5023 0.4971 0.4919 0.4866
2871.000000 0.4841 0.4825 0.4809 0.4794 0.4778
2876.000000 0.4763 0.4748 0.4732 0.4717 0.4702
2881.000000 0.4691 0.4680 0.4670 0.4660 0.4652
2886.000000 0.4644 0.4635 0.4629 0.4623 0.4617
2891.000000 0.4614 0.4612 0.4610 0.4608 0.4606
2896.000000 0.4605 0.4603 0.4602 0.4602 0.4601
2901.000000 0.4601 0.4601 0.4601 0.4602 0.4602
2906.000000 0.4602 0.4603 0.4603 0.4603 0.4603
2911.000000 0.4604 0.4604 0.4604 0.4602 0.4606
2916.000000 0.4608 0.4609 0.4611 0.4613 0.4615
2921.000000 0.4616 0.4618 0.4619 0.4621 0.4622
2926.000000 0.4624 0.4626 0.4628 0.4631 0.4633
2931.000000 0.4636 0.4638 0.4641 0.4643 0.4645
2936.000000 0.4648 0.4651 0.4654 0.4657 0.4661
2941.000000 0.4665 0.4669 0.4673 0.4678 0.4684
2946.000000 0.4694 0.4704 0.4713 0.4723 0.4733
2951.000000 0.4744 0.4762 0.4794 0.4826 0.4858
2956.000000 0.4882 0.4905 0.4929 0.4971 0.5039
2961.000000 0.5106 0.5174 0.5185 0.5191 0.5197
2966.000000 0.5201 0.5203 0.5205 0.5207 0.5208
2971.000000 0.5210 0.5211 0.5212 0.5212 0.5212
2976.000000 0.5212 0.5213 0.5213 0.5213 0.5214
2981.000000 0.5214 0.5215 0.5215 0.5216 0.5216
2986.000000 0.5216 0.5216 0.5216 0.5216 0.5216
2991.000000 0.5217 0.5217 0.5218 0.5218 0.5222
2996.000000 0.5225 0.5228 0.5231 0.5233 0.5236
3001.000000 0.5239 0.5246 0.5253 0.5261 0.5269
3006.000000 0.5279 0.5289 0.5299 0.5334 0.5388
3011.000000 0.5441 0.5495 0.5533 0.5571 0.5608
3016.000000 0.5640 0.5661 0.5682 0.5703 0.5715
3021.000000 0.5724 0.5733 0.5742 0.5750 0.5758
3026.000000 0.5765 0.5773 0.5780 0.5787 0.5793
3031.000000 0.5798 0.5802 0.5806 0.5810 0.5811
3036.000000 0.5812 0.5814 0.5815 0.5816 0.5817
3041.000000 0.5818 0.5819 0.5819 0.5819 0.5819
3046.000000 0.5820 0.5820 0.5820 0.5821 0.5821
3051.000000 0.5821 0.5821 0.5822 0.5822 0.5822
3056.000000 0.5822 0.5823 0.5823 0.5823 0.5824
3061.000000 0.5824 0.5824 0.5824 0.5824 0.5824
3066.000000 0.5824 0.5824 0.5817 0.5824 0.5824
3071.000000 0.5824 0.5824 0.5824 0.5824 0.5824
3076.000000 0.5825 0.5825 0.5825 0.5824 0.5824
3081.000000 0.5823 0.5823 0.5822 0.5822 0.5821
3086.000000 0.5821 0.5820 0.5819 0.5818 0.5818
3091.000000 0.5817 0.5817 0.5816 0.5816 0.5813
3096.000000 0.5811 0.5809 0.5806 0.5803 0.5800
3101.000000 0.5797 0.5794 0.5790 0.5787 0.5783
3106.000000 0.5780 0.5775 0.5770 0.5766 0.5761
3111.000000 0.5756 0.5752 0.5747 0.5741 0.5733
3116.000000 0.5726 0.5719 0.5708 0.5697 0.5685
3121.000000 0.5674 0.5664 0.5655 0.5646 0.5638
3126.000000 0.5629 0.5620 0.5611 0.5602 0.5594
3131.000000 0.5585 0.5577 0.5569 0.5562 0.5554
3136.000000 0.5546 0.5539 0.5530 0.5522 0.5513
3141.000000 0.5504 0.5493 0.5481 0.5470 0.5451
3146.000000 0.5419 0.5387 0.5354 0.5321 0.5286
3151.000000 0.5252 0.5217 0.5182 0.5147 0.5113
3156.000000 0.5078 0.5043 0.5009 0.4974 0.4940
3161.000000 0.4905 0.4871 0.4836 0.4802 0.4767
3166.000000 0.4733 0.4698 0.4664 0.4630 0.4595
3171.000000 0.4561 0.4527 0.4492 0.4458 0.4423
3176.000000 0.4389 0.4355 0.4320 0.4286 0.4252
3181.000000 0.4218 0.4184 0.4150 0.4116 0.4082
3186.000000 0.4048 0.4014 0.3980 0.3946 0.3912
3191.000000 0.3878 0.3844 0.3810 0.3777 0.3743
3196.000000 0.3709 0.3675 0.3641 0.3608 0.3574
3201.000000 0.3540 0.3507 0.3473 0.3439 0.3406
3206.000000 0.3372 0.3339 0.3305 0.3272 0.3238
3211.000000 0.3205 0.3171 0.3138 0.3100 0.3060
3216.000000 0.3020 0.2981 0.2948 0.2922 0.2896
3221.000000 0.2870 0.2846 0.2826 0.2806 0.2786
3226.000000 0.2766 0.2746 0.2726 0.2707 0.2687
3231.000000 0.2666 0.2644 0.2623 0.2602 0.2579
3236.000000 0.2555 0.2532 0.2508 0.2481 0.2451
3241.000000 0.2421 0.2391 0.2357 0.2317 0.2278
3246.000000 0.2239 0.2206 0.2192 0.2178 0.2164
3251.000000 0.2150 0.2144 0.2139 0.2133 0.2127
3256.000000 0.2123 0.2121 0.2118 0.2116 0.2113
3261.000000 0.2111 0.2109 0.2106 0.2105 0.2105
3266.000000 0.2105 0.2105 0.2123 0.2105 0.2105
3271.000000 0.2105 0.2105 0.2107 0.2109 0.2111
3276.000000 0.2112 0.2115 0.2117 0.2119 0.2122
3281.000000 0.2124 0.2127 0.2130 0.2133 0.2136
3286.000000 0.2141 0.2146 0.2151 0.2156 0.2163
3291.000000 0.2171 0.2179 0.2187 0.2195 0.2203
3296.000000 0.2212 0.2220 0.2228 0.2236 0.2244
3301.000000 0.2252 0.2260 0.2270 0.2282 0.2293
3306.000000 0.2304 0.2315 0.2319 0.2323 0.2327
3311.000000 0.2331 0.2336 0.2340 0.2344 0.2349
3316.000000 0.2352 0.2355 0.2357 0.2359 0.2361
3321.000000 0.2362 0.2363 0.2364 0.2364 0.2365
3326.000000 0.2366 0.2366 0.2367 0.2367 0.2367
3331.000000 0.2367 0.2367 0.2367 0.2390 0.2366
3336.000000 0.2366 0.2366 0.2365 0.2365 0.2365
3341.000000 0.2365 0.2365 0.2364 0.2363 0.2362
3346.000000 0.2361 0.2360 0.2359 0.2358 0.2357
3351.000000 0.2356 0.2355 0.2354 0.2352 0.2351
3356.000000 0.2350 0.2347 0.2345 0.2342 0.2340
3361.000000 0.2338 0.2336 0.2333 0.2331 0.2329
3366.000000 0.2326 0.2324 0.2322 0.2319 0.2315
3371.000000 0.2310 0.2305 0.2300 0.2294 0.2287
3376.000000 0.2280 0.2273 0.2266 0.2258 0.2250
3381.000000 0.2241 0.2233 0.2224 0.2215 0.2206
3386.000000 0.2197 0.2188 0.2182 0.2178 0.2174
3391.000000 0.2171 0.2167 0.2163 0.2160 0.2156
3396.000000 0.2152 0.2149 0.2149 0.2149 0.2148
3401.000000 0.2148 0.2148 0.2148 0.2148 0.2148
3406.000000 0.2148 0.2148 0.2148 0.2149 0.2149
3411.000000 0.2148 0.2150 0.2150 0.2150 0.2150
3416.000000 0.2151 0.2153 0.2154 0.2155 0.2157
3421.000000 0.2158 0.2160 0.2162 0.2164 0.2167
3426.000000 0.2173 0.2178 0.2184 0.2190 0.2195
3431.000000 0.2201 0.2206 0.2212 0.2217 0.2222
3436.000000 0.2228 0.2233 0.2238 0.2244 0.2253
3441.000000 0.2262 0.2271 0.2280 0.2290 0.2302
3446.000000 0.2314 0.2325 0.2337 0.2349 0.2361
3451.000000 0.2374 0.2386 0.2398 0.2406 0.2415
3456.000000 0.2423 0.2431 0.2439 0.2444 0.2449
3461.000000 0.2455 0.2460 0.2464 0.2467 0.2469
3466.000000 0.2471 0.2474 0.2476 0.2478 0.2481
3471.000000 0.2483 0.2486 0.2488 0.2491 0.2493
3476.000000 0.2496 0.2498 0.2504 0.2510 0.2516
3481.000000 0.2522 0.2529 0.2542 0.2556 0.2569
3486.000000 0.2582 0.2596 0.2609 0.2623 0.2637
3491.000000 0.2650 0.2679 0.2731 0.2784 0.2837
3496.000000 0.2890 0.2951 0.3020 0.3089 0.3159
3501.000000 0.3228 0.3267 0.3287 0.3306 0.3326
3506.000000 0.3345 0.3371 0.3401 0.3430 0.3459
3511.000000 0.3488 0.3517 0.3546 0.3576 0.3605
3516.000000 0.3634 0.3664 0.3693 0.3723 0.3752
3521.000000 0.3782 0.3811 0.3840 0.3869 0.3899
3526.000000 0.3928 0.3957 0.3986 0.4015 0.4044
3531.000000 0.4073 0.4102 0.4131 0.4160 0.4189
3536.000000 0.4219 0.4248 0.4277 0.4306 0.4335
3541.000000 0.4364 0.4393 0.4422 0.4451 0.4480
3546.000000 0.4509 0.4537 0.4566 0.4595 0.4624
3551.000000 0.4653 0.4681 0.4710 0.4739 0.4767
3556.000000 0.4796 0.4851 0.4911 0.4971 0.5032
3561.000000 0.5092 0.5138 0.5179 0.5220 0.5262
3566.000000 0.5303 0.5343 0.5383 0.5423 0.5463
3571.000000 0.5503 0.5536 0.5563 0.5590 0.5617
3576.000000 0.5644 0.5667 0.5686 0.5705 0.5724
3581.000000 0.5743 0.5762 0.5782 0.5801 0.5821
3586.000000 0.5841 0.5860 0.5880 0.5900 0.5920
3591.000000 0.5940 0.5959 0.5976 0.5992 0.6008
3596.000000 0.6024 0.6041 0.6056 0.6071 0.6086
3601.000000 0.6101 0.6116 0.6131 0.6145 0.6159
3606.000000 0.6174 0.6188 0.6203 0.6218 0.6233
3611.000000 0.6248 0.6263 0.6280 0.6302 0.6324
3616.000000 0.6346 0.6369 0.6393 0.6465 0.6536
3621.000000 0.6607 0.6678 0.6749 0.6778 0.6796
3626.000000 0.6815 0.6834 0.6852 0.6867 0.6879
3631.000000 0.6891 0.6903 0.6915 0.6926 0.6933
3636.000000 0.6940 0.6947 0.6954 0.6961 0.6967
3641.000000 0.6972 0.6978 0.6983 0.6989 0.6993
3646.000000 0.6997 0.7002 0.7006 0.7010 0.7013
3651.000000 0.7014 0.7016 0.7017 0.7018 0.7020
3656.000000 0.7021 0.7022 0.7023 0.7024 0.7025
3661.000000 0.7026 0.7026 0.7026 0.7027 0.7027
3666.000000 0.7028 0.7028 0.7028 0.7029 0.7029
3671.000000 0.7029 0.7030 0.7030 0.7031 0.7031
3676.000000 0.7031 0.7032 0.7032 0.7032 0.7033
3681.000000 0.7033 0.7034 0.7034 0.7034 0.7034
3686.000000 0.7034 0.7034 0.7035 0.7035 0.7035
3691.000000 0.7035 0.7035 0.7035 0.7035 0.7035
3696.000000 0.7035 0.7035 0.7035 0.7035 0.7035
3701.000000 0.7035 0.7035 0.7035 0.7036 0.7036
3706.000000 0.7037 0.7037 0.7038 0.7038 0.7039
3711.000000 0.7039 0.7040 0.7041 0.7041 0.7042
3716.000000 0.7042 0.7043 0.7043 0.7044 0.7044
3721.000000 0.7045 0.7046 0.7046 0.7047 0.7048
3726.000000 0.7049 0.7050 0.7052 0.7053 0.7055
3731.000000 0.7056 0.7058 0.7059 0.7061 0.7062
3736.000000 0.7064 0.7066 0.7068 0.7070 0.7072
3741.000000 0.7074 0.7076 0.7079 0.7081 0.7084
3746.000000 0.7086 0.7089 0.7091 0.7094 0.7096
3751.000000 0.7098 0.7100 0.7103 0.7104 0.7104
3756.000000 0.7104 0.7104 0.7104 0.7104 0.7103
3761.000000 0.7102 0.7101 0.7100 0.7099 0.7099
3766.000000 0.7072 0.7097 0.7096 0.7095 0.7094
3771.000000 0.7093 0.7092 0.7092 0.7091 0.7090
3776.000000 0.7089 0.7088 0.7087 0.7086 0.7085
3781.000000 0.7085 0.7084 0.7082 0.7081 0.7079
3786.000000 0.7077 0.7076 0.7074 0.7072 0.7069
3791.000000 0.7067 0.7064 0.7062 0.7059 0.7056
3796.000000 0.7052 0.7049 0.7045 0.7042 0.7038
3801.000000 0.7035 0.7031 0.7027 0.7024 0.7020
3806.000000 0.7017 0.7013 0.7010 0.7006 0.7003
3811.000000 0.6999 0.6996 0.6993 0.6990 0.6986
3816.000000 0.6983 0.6980 0.6977 0.6973 0.6970
3821.000000 0.6967 0.6964 0.6960 0.6957 0.6954
3826.000000 0.6951 0.6948 0.6945 0.6942 0.6939
3831.000000 0.6935 0.6932 0.6929 0.6926 0.6924
3836.000000 0.6922 0.6920 0.6919 0.6917 0.6916
3841.000000 0.6916 0.6916 0.6916 0.6917 0.6917
3846.000000 0.6917 0.6918 0.6918 0.6918 0.6919
3851.000000 0.6919 0.6919 0.6920 0.6920 0.6920
3856.000000 0.6920 0.6920 0.6920 0.6920 0.6920
3861.000000 0.6920 0.6920 0.6920 0.6920 0.6920
3866.000000 0.6920 0.6920 0.6920 0.6920 0.6921
3871.000000 0.6921 0.6921 0.6921 0.6921 0.6921
3876.000000 0.6921 0.6921 0.6921 0.6921 0.6921
3881.000000 0.6921 0.6920 0.6920 0.6919 0.6919
3886.000000 0.6919 0.6918 0.6918 0.6917 0.6917
3891.000000 0.6917 0.6916 0.6916 0.6916 0.6915
3896.000000 0.6914 0.6914 0.6913 0.6912 0.6912
3901.000000 0.6911 0.6909 0.6908 0.6907 0.6906
3906.000000 0.6905 0.6903 0.6901 0.6899 0.6897
3911.000000 0.6895 0.6893 0.6891 0.6888 0.6886
3916.000000 0.6883 0.6880 0.6878 0.6875 0.6872
3921.000000 0.6870 0.6867 0.6864 0.6861 0.6858
3926.000000 0.6856 0.6853 0.6850 0.6847 0.6844
3931.000000 0.6841 0.6837 0.6833 0.6829 0.6825
3936.000000 0.6821 0.6818 0.6817 0.6817 0.6817
3941.000000 0.6816 0.6816 0.6816 0.6815 0.6815
3946.000000 0.6815 0.6814 0.6814 0.6814 0.6813
3951.000000 0.6813 0.6813 0.6812 0.6812 0.6812
3956.000000 0.6812 0.6812 0.6812 0.6813 0.6813
3961.000000 0.6813 0.6814 0.6814 0.6814 0.6814
3966.000000 0.6814 0.6814 0.6814 0.6815 0.6815
3971.000000 0.6815 0.6816 0.6816 0.6816 0.6816
3976.000000 0.6813 0.6811 0.6809 0.6807 0.6804
3981.000000 0.6802 0.6798 0.6795 0.6791 0.6787
3986.000000 0.6783 0.6779 0.6774 0.6768 0.6762
3991.000000 0.6757 0.6751 0.6745 0.6739 0.6733
3996.000000 0.6727 0.6721 0.6715 0.6709 0.6704
##END=
