##TITLE=HEXOCYCLIUM (TRAL)
##JCAMP-DX=4.24
$$ By DXEDIT 1.05 (RS McDonald)
##DATA TYPE=INFRARED SPECTRUM
##CLASS=COBLENTZ III
##OWNER=COBLENTZ SOC.
Collection (C) 2018 copyright by the U.S. Secretary of Commerce
on behalf of the United States of America. All rights reserved.
##DATE=1962/12/21
##NAMES=N-(Beta-CYCLOHEXYL-Beta-HYDROXY-Beta-PHENYL-ETHYL)-N'-METHYLPIPERAZINE METHOSULFATE
##MOLFORM=C21 H36 N2 O5 S
##MP=200-210 C
##SOURCE REFERENCE=COBLENTZ NO. 05039
##$NIST ID=B6005039
##$NIST SOURCE=COBLENTZ
##$NIST IMAGE=cob5039
##SPECTROMETER/DATA SYSTEM=PERKIN-ELMER 21 (GRATING)
##INSTRUMENT PARAMETERS=FILTER AT ABOUT 10 MICRONS
##STATE=SOLID (KBr DISC)
##SAMPLING PROCEDURE=TRANSMISSION
##RESOLUTION=2
##DATA PROCESSING=DIGITIZED BY COBLENTZ SOCIETY (BATCH I) FROM HARD COPY
##XUNITS=1/CM
##YUNITS=TRANSMITTANCE
##XLABEL=Wavenumbers (cm-1)
##YLABEL=Transmittance
##XFACTOR=1
##YFACTOR=1
##DELTAX=1
##FIRSTX=4000
##LASTX=671
##FIRSTY=0.972
##MAXX=4000
##MINX=671
##MAXY=1.0108
##MINY=0.0427
##NPOINTS=3330
##XYDATA=(X++(Y..Y))
4000.000000 0.9720 0.9720 0.9720 0.9720 0.9720
3995.000000 0.9720 0.9720 0.9720 0.9720 0.9720
3990.000000 0.9720 0.9720 0.9720 0.9720 0.9720
3985.000000 0.9720 0.9720 0.9720 0.9720 0.9720
3980.000000 0.9721 0.9721 0.9721 0.9721 0.9721
3975.000000 0.9721 0.9721 0.9721 0.9721 0.9721
3970.000000 0.9721 0.9721 0.9721 0.9721 0.9721
3965.000000 0.9721 0.9721 0.9721 0.9721 0.9721
3960.000000 0.9721 0.9721 0.9721 0.9721 0.9721
3955.000000 0.9721 0.9721 0.9721 0.9723 0.9723
3950.000000 0.9723 0.9724 0.9724 0.9725 0.9725
3945.000000 0.9725 0.9725 0.9727 0.9727 0.9728
3940.000000 0.9728 0.9728 0.9728 0.9730 0.9730
3935.000000 0.9730 0.9730 0.9731 0.9731 0.9731
3930.000000 0.9732 0.9732 0.9733 0.9733 0.9734
3925.000000 0.9734 0.9735 0.9735 0.9736 0.9736
3920.000000 0.9737 0.9737 0.9738 0.9738 0.9738
3915.000000 0.9739 0.9739 0.9739 0.9740 0.9740
3910.000000 0.9741 0.9741 0.9742 0.9742 0.9743
3905.000000 0.9744 0.9745 0.9746 0.9747 0.9749
3900.000000 0.9750 0.9751 0.9752 0.9753 0.9754
3895.000000 0.9755 0.9757 0.9758 0.9759 0.9761
3890.000000 0.9762 0.9763 0.9765 0.9766 0.9767
3885.000000 0.9768 0.9768 0.9770 0.9771 0.9773
3880.000000 0.9774 0.9775 0.9775 0.9777 0.9778
3875.000000 0.9780 0.9781 0.9783 0.9784 0.9786
3870.000000 0.9787 0.9789 0.9791 0.9793 0.9795
3865.000000 0.9797 0.9798 0.9800 0.9802 0.9805
3860.000000 0.9807 0.9809 0.9811 0.9813 0.9815
3855.000000 0.9817 0.9818 0.9821 0.9823 0.9825
3850.000000 0.9827 0.9828 0.9831 0.9833 0.9835
3845.000000 0.9837 0.9840 0.9843 0.9845 0.9848
3840.000000 0.9850 0.9853 0.9855 0.9858 0.9860
3835.000000 0.9863 0.9865 0.9867 0.9868 0.9870
3830.000000 0.9871 0.9874 0.9875 0.9875 0.9875
3825.000000 0.9875 0.9875 0.9875 0.9877 0.9877
3820.000000 0.9877 0.9878 0.9878 0.9878 0.9878
3815.000000 0.9878 0.9878 0.9880 0.9880 0.9880
3810.000000 0.9881 0.9881 0.9882 0.9882 0.9882
3805.000000 0.9883 0.9883 0.9884 0.9884 0.9885
3800.000000 0.9885 0.9886 0.9886 0.9886 0.9887
3795.000000 0.9887 0.9887 0.9888 0.9888 0.9889
3790.000000 0.9889 0.9890 0.9890 0.9891 0.9891
3785.000000 0.9892 0.9893 0.9893 0.9894 0.9894
3780.000000 0.9895 0.9895 0.9896 0.9896 0.9897
3775.000000 0.9898 0.9898 0.9899 0.9900 0.9900
3770.000000 0.9901 0.9901 0.9902 0.9902 0.9903
3765.000000 0.9904 0.9904 0.9905 0.9905 0.9906
3760.000000 0.9906 0.9907 0.9907 0.9908 0.9908
3755.000000 0.9909 0.9909 0.9910 0.9910 0.9911
3750.000000 0.9912 0.9912 0.9913 0.9913 0.9913
3745.000000 0.9913 0.9913 0.9913 0.9914 0.9914
3740.000000 0.9914 0.9914 0.9914 0.9914 0.9915
3735.000000 0.9915 0.9915 0.9915 0.9915 0.9916
3730.000000 0.9916 0.9916 0.9916 0.9916 0.9916
3725.000000 0.9917 0.9917 0.9917 0.9917 0.9917
3720.000000 0.9918 0.9918 0.9918 0.9918 0.9918
3715.000000 0.9918 0.9918 0.9918 0.9918 0.9918
3710.000000 0.9918 0.9918 0.9918 0.9918 0.9918
3705.000000 0.9918 0.9918 0.9918 0.9918 0.9918
3700.000000 0.9918 0.9918 0.9918 0.9918 0.9918
3695.000000 0.9918 0.9918 0.9918 0.9918 0.9918
3690.000000 0.9918 0.9918 0.9918 0.9918 0.9918
3685.000000 0.9918 0.9918 0.9918 0.9918 0.9918
3680.000000 0.9918 0.9918 0.9918 0.9918 0.9917
3675.000000 0.9917 0.9917 0.9917 0.9917 0.9916
3670.000000 0.9916 0.9916 0.9915 0.9915 0.9915
3665.000000 0.9914 0.9914 0.9913 0.9913 0.9913
3660.000000 0.9912 0.9912 0.9912 0.9911 0.9911
3655.000000 0.9911 0.9910 0.9910 0.9909 0.9909
3650.000000 0.9909 0.9908 0.9908 0.9907 0.9906
3645.000000 0.9906 0.9905 0.9903 0.9901 0.9899
3640.000000 0.9897 0.9894 0.9892 0.9890 0.9888
3635.000000 0.9885 0.9883 0.9881 0.9878 0.9875
3630.000000 0.9873 0.9870 0.9867 0.9863 0.9859
3625.000000 0.9855 0.9852 0.9848 0.9844 0.9840
3620.000000 0.9836 0.9833 0.9828 0.9825 0.9821
3615.000000 0.9817 0.9813 0.9809 0.9803 0.9796
3610.000000 0.9789 0.9783 0.9775 0.9768 0.9761
3605.000000 0.9753 0.9746 0.9738 0.9730 0.9721
3600.000000 0.9715 0.9707 0.9699 0.9692 0.9683
3595.000000 0.9675 0.9667 0.9659 0.9651 0.9641
3590.000000 0.9632 0.9621 0.9612 0.9602 0.9593
3585.000000 0.9583 0.9574 0.9564 0.9555 0.9545
3580.000000 0.9535 0.9525 0.9516 0.9506 0.9496
3575.000000 0.9487 0.9477 0.9468 0.9458 0.9448
3570.000000 0.9438 0.9428 0.9418 0.9409 0.9399
3565.000000 0.9389 0.9380 0.9370 0.9360 0.9350
3560.000000 0.9340 0.9330 0.9320 0.9311 0.9301
3555.000000 0.9291 0.9281 0.9271 0.9262 0.9252
3550.000000 0.9240 0.9228 0.9217 0.9206 0.9194
3545.000000 0.9182 0.9168 0.9157 0.9144 0.9132
3540.000000 0.9118 0.9107 0.9094 0.9082 0.9070
3535.000000 0.9057 0.9044 0.9032 0.9018 0.9007
3530.000000 0.8995 0.8983 0.8970 0.8958 0.8946
3525.000000 0.8934 0.8921 0.8910 0.8898 0.8886
3520.000000 0.8874 0.8862 0.8850 0.8838 0.8825
3515.000000 0.8814 0.8802 0.8790 0.8778 0.8766
3510.000000 0.8754 0.8742 0.8730 0.8718 0.8707
3505.000000 0.8699 0.8690 0.8682 0.8674 0.8665
3500.000000 0.8657 0.8649 0.8641 0.8633 0.8624
3495.000000 0.8616 0.8608 0.8600 0.8592 0.8583
3490.000000 0.8575 0.8567 0.8559 0.8551 0.8542
3485.000000 0.8534 0.8525 0.8517 0.8508 0.8498
3480.000000 0.8488 0.8478 0.8467 0.8457 0.8443
3475.000000 0.8428 0.8416 0.8402 0.8388 0.8375
3470.000000 0.8361 0.8347 0.8334 0.8317 0.8296
3465.000000 0.8275 0.8255 0.8234 0.8210 0.8185
3460.000000 0.8160 0.8134 0.8108 0.8081 0.8053
3455.000000 0.8024 0.7996 0.7967 0.7915 0.7865
3450.000000 0.7815 0.7765 0.7715 0.7665 0.7614
3445.000000 0.7562 0.7512 0.7461 0.7411 0.7360
3440.000000 0.7308 0.7258 0.7207 0.7157 0.7106
3435.000000 0.7055 0.7004 0.6953 0.6901 0.6851
3430.000000 0.6799 0.6753 0.6715 0.6678 0.6640
3425.000000 0.6601 0.6587 0.6582 0.6578 0.6574
3420.000000 0.6569 0.6567 0.6564 0.6561 0.6558
3415.000000 0.6556 0.6555 0.6554 0.6553 0.6551
3410.000000 0.6551 0.6550 0.6549 0.6548 0.6547
3405.000000 0.6547 0.6547 0.6547 0.6547 0.6547
3400.000000 0.6547 0.6547 0.6547 0.6547 0.6547
3395.000000 0.6549 0.6550 0.6551 0.6553 0.6555
3390.000000 0.6558 0.6561 0.6562 0.6569 0.6581
3385.000000 0.6592 0.6603 0.6614 0.6635 0.6657
3380.000000 0.6678 0.6701 0.6722 0.6745 0.6767
3375.000000 0.6789 0.6811 0.6832 0.6854 0.6875
3370.000000 0.6898 0.6919 0.6942 0.6964 0.6986
3365.000000 0.7008 0.7030 0.7051 0.7074 0.7096
3360.000000 0.7118 0.7140 0.7161 0.7184 0.7206
3355.000000 0.7228 0.7250 0.7272 0.7295 0.7317
3350.000000 0.7339 0.7361 0.7384 0.7406 0.7428
3345.000000 0.7451 0.7472 0.7495 0.7517 0.7539
3340.000000 0.7561 0.7584 0.7607 0.7628 0.7651
3335.000000 0.7674 0.7697 0.7718 0.7741 0.7764
3330.000000 0.7786 0.7808 0.7831 0.7853 0.7875
3325.000000 0.7898 0.7925 0.7958 0.7990 0.8022
3320.000000 0.8055 0.8080 0.8104 0.8128 0.8154
3315.000000 0.8171 0.8184 0.8197 0.8210 0.8223
3310.000000 0.8236 0.8249 0.8262 0.8275 0.8288
3305.000000 0.8301 0.8314 0.8327 0.8340 0.8353
3300.000000 0.8366 0.8378 0.8392 0.8405 0.8418
3295.000000 0.8431 0.8444 0.8457 0.8470 0.8483
3290.000000 0.8496 0.8509 0.8521 0.8535 0.8548
3285.000000 0.8561 0.8571 0.8583 0.8595 0.8606
3280.000000 0.8616 0.8625 0.8635 0.8645 0.8655
3275.000000 0.8665 0.8674 0.8684 0.8694 0.8704
3270.000000 0.8714 0.8723 0.8733 0.8743 0.8752
3265.000000 0.8761 0.8771 0.8778 0.8784 0.8789
3260.000000 0.8795 0.8801 0.8807 0.8814 0.8820
3255.000000 0.8825 0.8832 0.8838 0.8843 0.8849
3250.000000 0.8856 0.8862 0.8868 0.8874 0.8880
3245.000000 0.8886 0.8892 0.8898 0.8904 0.8911
3240.000000 0.8917 0.8924 0.8931 0.8938 0.8945
3235.000000 0.8952 0.8959 0.8965 0.8971 0.8978
3230.000000 0.8985 0.8992 0.8999 0.9006 0.9013
3225.000000 0.9020 0.9027 0.9034 0.9041 0.9047
3220.000000 0.9052 0.9058 0.9063 0.9068 0.9071
3215.000000 0.9075 0.9081 0.9085 0.9089 0.9094
3210.000000 0.9098 0.9103 0.9107 0.9112 0.9116
3205.000000 0.9121 0.9125 0.9130 0.9134 0.9139
3200.000000 0.9142 0.9146 0.9150 0.9153 0.9156
3195.000000 0.9160 0.9163 0.9166 0.9168 0.9171
3190.000000 0.9175 0.9178 0.9182 0.9185 0.9188
3185.000000 0.9191 0.9194 0.9197 0.9200 0.9203
3180.000000 0.9207 0.9210 0.9213 0.9216 0.9218
3175.000000 0.9221 0.9225 0.9228 0.9231 0.9234
3170.000000 0.9237 0.9240 0.9243 0.9246 0.9249
3165.000000 0.9252 0.9255 0.9257 0.9260 0.9262
3160.000000 0.9264 0.9266 0.9267 0.9268 0.9270
3155.000000 0.9271 0.9273 0.9275 0.9275 0.9278
3150.000000 0.9278 0.9281 0.9282 0.9284 0.9285
3145.000000 0.9287 0.9288 0.9290 0.9292 0.9293
3140.000000 0.9294 0.9294 0.9294 0.9295 0.9295
3135.000000 0.9295 0.9296 0.9296 0.9297 0.9297
3130.000000 0.9297 0.9297 0.9298 0.9298 0.9299
3125.000000 0.9300 0.9300 0.9300 0.9300 0.9300
3120.000000 0.9299 0.9297 0.9296 0.9294 0.9293
3115.000000 0.9291 0.9290 0.9288 0.9286 0.9285
3110.000000 0.9283 0.9281 0.9278 0.9275 0.9274
3105.000000 0.9270 0.9266 0.9262 0.9258 0.9253
3100.000000 0.9249 0.9244 0.9240 0.9236 0.9231
3095.000000 0.9227 0.9221 0.9218 0.9213 0.9208
3090.000000 0.9203 0.9194 0.9186 0.9178 0.9170
3085.000000 0.9162 0.9154 0.9147 0.9137 0.9125
3080.000000 0.9116 0.9105 0.9090 0.9074 0.9057
3075.000000 0.9041 0.9021 0.9004 0.8985 0.8966
3070.000000 0.8946 0.8925 0.8905 0.8887 0.8870
3065.000000 0.8854 0.8837 0.8823 0.8809 0.8796
3060.000000 0.8783 0.8768 0.8756 0.8743 0.8728
3055.000000 0.8716 0.8702 0.8688 0.8674 0.8659
3050.000000 0.8645 0.8630 0.8615 0.8600 0.8585
3045.000000 0.8568 0.8547 0.8525 0.8503 0.8480
3040.000000 0.8454 0.8428 0.8402 0.8375 0.8350
3035.000000 0.8324 0.8298 0.8271 0.8246 0.8220
3030.000000 0.8193 0.8167 0.8141 0.8114 0.8088
3025.000000 0.8061 0.8035 0.8008 0.7983 0.7957
3020.000000 0.7930 0.7911 0.7905 0.7898 0.7892
3015.000000 0.7889 0.7886 0.7884 0.7881 0.7880
3010.000000 0.7878 0.7875 0.7875 0.7874 0.7871
3005.000000 0.7871 0.7871 0.7871 0.7871 0.7871
3000.000000 0.7872 0.7874 0.7875 0.7878 0.7881
2995.000000 0.7883 0.7886 0.7886 0.7887 0.7887
2990.000000 0.7888 0.7889 0.7890 0.7890 0.7889
2985.000000 0.7888 0.7886 0.7885 0.7882 0.7878
2980.000000 0.7875 0.7868 0.7861 0.7851 0.7841
2975.000000 0.7815 0.7789 0.7762 0.7738 0.7711
2970.000000 0.7687 0.7661 0.7642 0.7621 0.7601
2965.000000 0.7575 0.7548 0.7519 0.7491 0.7449
2960.000000 0.7406 0.7364 0.7321 0.7276 0.7233
2955.000000 0.7189 0.7145 0.7101 0.7056 0.7011
2950.000000 0.6968 0.6922 0.6871 0.6765 0.6661
2945.000000 0.6555 0.6437 0.6312 0.6187 0.6062
2940.000000 0.5937 0.5810 0.5686 0.5560 0.5434
2935.000000 0.5309 0.5183 0.5057 0.4931 0.4806
2930.000000 0.4679 0.4553 0.4427 0.4330 0.4277
2925.000000 0.4223 0.4170 0.4154 0.4139 0.4124
2920.000000 0.4112 0.4101 0.4090 0.4080 0.4077
2915.000000 0.4074 0.4059 0.4068 0.4068 0.4068
2910.000000 0.4066 0.4066 0.4066 0.4066 0.4088
2905.000000 0.4110 0.4133 0.4189 0.4266 0.4343
2900.000000 0.4421 0.4498 0.4576 0.4654 0.4731
2895.000000 0.4809 0.4886 0.4964 0.5042 0.5119
2890.000000 0.5197 0.5275 0.5353 0.5431 0.5509
2885.000000 0.5587 0.5665 0.5743 0.5822 0.5900
2880.000000 0.5979 0.6057 0.6136 0.6650 0.6293
2875.000000 0.6372 0.6450 0.6512 0.6564 0.6615
2870.000000 0.6653 0.6653 0.6653 0.6653 0.6641
2865.000000 0.6628 0.6617 0.6575 0.6521 0.6467
2860.000000 0.6411 0.6357 0.6302 0.6248 0.6193
2855.000000 0.6138 0.6083 0.6028 0.5973 0.5918
2850.000000 0.5885 0.5865 0.5846 0.5833 0.5833
2845.000000 0.5832 0.5836 0.5866 0.5896 0.5836
2840.000000 0.5981 0.6039 0.6096 0.6154 0.6212
2835.000000 0.6270 0.6328 0.6386 0.6443 0.6501
2830.000000 0.6558 0.6618 0.6675 0.6734 0.6792
2825.000000 0.6850 0.6908 0.6967 0.7025 0.7084
2820.000000 0.7142 0.7201 0.7258 0.7318 0.7375
2815.000000 0.7435 0.7494 0.7551 0.7611 0.7669
2810.000000 0.7728 0.7788 0.7875 0.7964 0.8051
2805.000000 0.8097 0.8133 0.8168 0.8206 0.8244
2800.000000 0.8282 0.8328 0.8381 0.8434 0.8482
2795.000000 0.8524 0.8566 0.8605 0.8636 0.8667
2790.000000 0.8698 0.8728 0.8760 0.8791 0.8808
2785.000000 0.8825 0.8843 0.8858 0.8873 0.8888
2780.000000 0.8904 0.8920 0.8935 0.8951 0.8966
2775.000000 0.8982 0.8997 0.9012 0.9028 0.9041
2770.000000 0.9052 0.9064 0.9075 0.9086 0.9096
2765.000000 0.9106 0.9117 0.9127 0.9137 0.9148
2760.000000 0.9158 0.9168 0.9178 0.9190 0.9200
2755.000000 0.9211 0.9221 0.9231 0.9241 0.9251
2750.000000 0.9260 0.9268 0.9277 0.9286 0.9295
2745.000000 0.9304 0.9313 0.9321 0.9331 0.9340
2740.000000 0.9349 0.9358 0.9367 0.9375 0.9385
2735.000000 0.9393 0.9402 0.9411 0.9420 0.9428
2730.000000 0.9436 0.9445 0.9453 0.9461 0.9468
2725.000000 0.9477 0.9486 0.9494 0.9502 0.9510
2720.000000 0.9517 0.9523 0.9528 0.9534 0.9539
2715.000000 0.9544 0.9550 0.9555 0.9560 0.9565
2710.000000 0.9571 0.9575 0.9578 0.9581 0.9583
2705.000000 0.9584 0.9585 0.9585 0.9586 0.9587
2700.000000 0.9588 0.9589 0.9590 0.9590 0.9591
2695.000000 0.9592 0.9592 0.9593 0.9595 0.9596
2690.000000 0.9597 0.9598 0.9599 0.9600 0.9601
2685.000000 0.9602 0.9603 0.9604 0.9605 0.9606
2680.000000 0.9607 0.9608 0.9610 0.9611 0.9612
2675.000000 0.9614 0.9615 0.9616 0.9617 0.9618
2670.000000 0.9620 0.9621 0.9623 0.9624 0.9625
2665.000000 0.9627 0.9628 0.9630 0.9631 0.9632
2660.000000 0.9633 0.9634 0.9636 0.9637 0.9639
2655.000000 0.9640 0.9641 0.9643 0.9644 0.9646
2650.000000 0.9648 0.9651 0.9653 0.9655 0.9657
2645.000000 0.9660 0.9662 0.9665 0.9667 0.9668
2640.000000 0.9671 0.9674 0.9675 0.9678 0.9681
2635.000000 0.9683 0.9686 0.9690 0.9694 0.9698
2630.000000 0.9703 0.9708 0.9713 0.9718 0.9723
2625.000000 0.9728 0.9734 0.9741 0.9747 0.9754
2620.000000 0.9761 0.9768 0.9775 0.9783 0.9790
2615.000000 0.9797 0.9804 0.9810 0.9817 0.9823
2610.000000 0.9830 0.9836 0.9843 0.9850 0.9856
2605.000000 0.9862 0.9867 0.9871 0.9875 0.9878
2600.000000 0.9883 0.9887 0.9891 0.9895 0.9899
2595.000000 0.9901 0.9903 0.9905 0.9908 0.9910
2590.000000 0.9912 0.9915 0.9917 0.9918 0.9920
2585.000000 0.9921 0.9921 0.9921 0.9921 0.9921
2580.000000 0.9921 0.9923 0.9923 0.9924 0.9924
2575.000000 0.9924 0.9924 0.9924 0.9923 0.9923
2570.000000 0.9923 0.9921 0.9921 0.9921 0.9921
2565.000000 0.9921 0.9921 0.9921 0.9921 0.9921
2560.000000 0.9921 0.9921 0.9921 0.9921 0.9923
2555.000000 0.9923 0.9923 0.9924 0.9924 0.9925
2550.000000 0.9925 0.9925 0.9927 0.9928 0.9930
2545.000000 0.9933 0.9936 0.9939 0.9942 0.9945
2540.000000 0.9949 0.9952 0.9955 0.9957 0.9960
2535.000000 0.9963 0.9966 0.9968 0.9971 0.9973
2530.000000 0.9975 0.9978 0.9980 0.9982 0.9984
2525.000000 0.9986 0.9988 0.9990 0.9992 0.9993
2520.000000 0.9995 0.9995 0.9996 0.9997 0.9998
2515.000000 0.9999 0.9999 1.0000 1.0001 1.0002
2510.000000 1.0003 1.0003 1.0004 1.0005 1.0005
2505.000000 1.0005 1.0005 1.0005 1.0005 1.0005
2500.000000 1.0005 1.0005 1.0005 1.0005 1.0005
2495.000000 1.0005 1.0005 1.0005 1.0003 1.0001
2490.000000 0.9999 0.9997 0.9995 0.9994 0.9992
2485.000000 0.9990 0.9988 0.9986 0.9983 0.9980
2480.000000 0.9975 0.9971 0.9968 0.9965 0.9961
2475.000000 0.9958 0.9955 0.9952 0.9949 0.9946
2470.000000 0.9944 0.9941 0.9939 0.9938 0.9937
2465.000000 0.9937 0.9938 0.9939 0.9939 0.9940
2460.000000 0.9941 0.9941 0.9942 0.9943 0.9944
2455.000000 0.9946 0.9949 0.9951 0.9954 0.9956
2450.000000 0.9959 0.9961 0.9963 0.9965 0.9968
2445.000000 0.9970 0.9971 0.9974 0.9977 0.9978
2440.000000 0.9981 0.9984 0.9986 0.9989 0.9991
2435.000000 0.9992 0.9994 0.9996 0.9997 0.9999
2430.000000 1.0002 1.0003 1.0005 1.0007 1.0009
2425.000000 1.0010 1.0012 1.0014 1.0016 1.0018
2420.000000 1.0020 1.0021 1.0023 1.0025 1.0027
2415.000000 1.0028 1.0030 1.0032 1.0033 1.0035
2410.000000 1.0037 1.0039 1.0040 1.0042 1.0044
2405.000000 1.0046 1.0047 1.0049 1.0050 1.0051
2400.000000 1.0052 1.0053 1.0054 1.0054 1.0056
2395.000000 1.0057 1.0058 1.0059 1.0060 1.0061
2390.000000 1.0062 1.0063 1.0065 1.0067 1.0068
2385.000000 1.0068 1.0071 1.0073 1.0075 1.0075
2380.000000 1.0078 1.0080 1.0082 1.0083 1.0085
2375.000000 1.0086 1.0087 1.0087 1.0087 1.0088
2370.000000 1.0088 1.0089 1.0089 1.0089 1.0089
2365.000000 1.0090 1.0090 1.0090 1.0088 1.0086
2360.000000 1.0084 1.0082 1.0078 1.0077 1.0075
2355.000000 1.0073 1.0070 1.0068 1.0067 1.0065
2350.000000 1.0063 1.0062 1.0060 1.0059 1.0058
2345.000000 1.0056 1.0055 1.0054 1.0053 1.0052
2340.000000 1.0050 1.0049 1.0048 1.0046 1.0045
2335.000000 1.0044 1.0043 1.0043 1.0042 1.0042
2330.000000 1.0042 1.0042 1.0042 1.0041 1.0041
2325.000000 1.0041 1.0041 1.0040 1.0040 1.0040
2320.000000 1.0040 1.0040 1.0040 1.0040 1.0040
2315.000000 1.0040 1.0041 1.0041 1.0041 1.0041
2310.000000 1.0042 1.0042 1.0042 1.0042 1.0043
2305.000000 1.0043 1.0043 1.0043 1.0043 1.0043
2300.000000 1.0043 1.0043 1.0043 1.0039 1.0036
2295.000000 1.0031 1.0027 1.0021 1.0016 1.0010
2290.000000 1.0004 0.9997 0.9991 0.9985 0.9978
2285.000000 0.9971 0.9966 0.9960 0.9956 0.9951
2280.000000 0.9947 0.9943 0.9941 0.9940 0.9940
2275.000000 0.9941 0.9943 0.9944 0.9945 0.9946
2270.000000 0.9947 0.9948 0.9950 0.9952 0.9955
2265.000000 0.9957 0.9960 0.9962 0.9965 0.9967
2260.000000 0.9968 0.9971 0.9974 0.9977 0.9978
2255.000000 0.9982 0.9984 0.9987 0.9989 0.9992
2250.000000 0.9994 0.9997 0.9999 1.0002 1.0005
2245.000000 1.0006 1.0008 1.0009 1.0011 1.0013
2240.000000 1.0015 1.0016 1.0018 1.0018 1.0021
2235.000000 1.0023 1.0025 1.0025 1.0028 1.0028
2230.000000 1.0031 1.0032 1.0034 1.0036 1.0038
2225.000000 1.0039 1.0041 1.0042 1.0044 1.0045
2220.000000 1.0047 1.0048 1.0050 1.0051 1.0053
2215.000000 1.0055 1.0056 1.0058 1.0059 1.0061
2210.000000 1.0062 1.0064 1.0065 1.0067 1.0068
2205.000000 1.0070 1.0071 1.0073 1.0074 1.0075
2200.000000 1.0078 1.0078 1.0081 1.0082 1.0083
2195.000000 1.0083 1.0084 1.0084 1.0085 1.0086
2190.000000 1.0087 1.0088 1.0088 1.0089 1.0089
2185.000000 1.0090 1.0090 1.0091 1.0092 1.0093
2180.000000 1.0093 1.0094 1.0094 1.0095 1.0095
2175.000000 1.0096 1.0097 1.0098 1.0099 1.0099
2170.000000 1.0100 1.0100 1.0101 1.0102 1.0103
2165.000000 1.0103 1.0103 1.0103 1.0103 1.0103
2160.000000 1.0103 1.0103 1.0103 1.0103 1.0103
2155.000000 1.0103 1.0103 1.0103 1.0103 1.0103
2150.000000 1.0103 1.0103 1.0103 1.0102 1.0102
2145.000000 1.0102 1.0102 1.0102 1.0102 1.0102
2140.000000 1.0102 1.0102 1.0102 1.0102 1.0102
2135.000000 1.0102 1.0102 1.0103 1.0103 1.0103
2130.000000 1.0103 1.0104 1.0104 1.0104 1.0104
2125.000000 1.0105 1.0105 1.0105 1.0105 1.0105
2120.000000 1.0106 1.0106 1.0106 1.0106 1.0107
2115.000000 1.0107 1.0107 1.0108 1.0108 1.0108
2110.000000 1.0108 1.0108 1.0108 1.0108 1.0108
2105.000000 1.0108 1.0107 1.0107 1.0107 1.0107
2100.000000 1.0107 1.0107 1.0107 1.0106 1.0106
2095.000000 1.0106 1.0106 1.0106 1.0105 1.0105
2090.000000 1.0105 1.0105 1.0105 1.0105 1.0105
2085.000000 1.0104 1.0104 1.0104 1.0104 1.0104
2080.000000 1.0104 1.0104 1.0104 1.0104 1.0104
2075.000000 1.0104 1.0104 1.0104 1.0104 1.0104
2070.000000 1.0104 1.0104 1.0104 1.0104 1.0104
2065.000000 1.0104 1.0104 1.0104 1.0104 1.0104
2060.000000 1.0104 1.0105 1.0105 1.0105 1.0105
2055.000000 1.0105 1.0105 1.0105 1.0106 1.0106
2050.000000 1.0106 1.0106 1.0106 1.0106 1.0106
2045.000000 1.0106 1.0106 1.0106 1.0106 1.0106
2040.000000 1.0106 1.0106 1.0106 1.0106 1.0106
2035.000000 1.0106 1.0105 1.0105 1.0105 1.0105
2030.000000 1.0104 1.0103 1.0103 1.0103 1.0103
2025.000000 1.0101 1.0100 1.0100 1.0099 1.0097
2020.000000 1.0096 1.0095 1.0094 1.0093 1.0091
2015.000000 1.0090 1.0088 1.0085 1.0082 1.0080
2010.000000 1.0077 1.0074 1.0071 1.0068 1.0066
2005.000000 1.0065 1.0063 1.0061 1.0060 1.0059
2000.000000 1.0058 1.0056 1.0054 1.0053 1.0051
1995.000000 1.0050 1.0048 1.0047 1.0045 1.0044
1990.000000 1.0043 1.0041 1.0039 1.0037 1.0035
1985.000000 1.0033 1.0030 1.0028 1.0025 1.0024
1980.000000 1.0021 1.0018 1.0017 1.0015 1.0014
1975.000000 1.0014 1.0013 1.0013 1.0013 1.0012
1970.000000 1.0011 1.0011 1.0010 1.0010 1.0009
1965.000000 1.0009 1.0009 1.0008 1.0007 1.0007
1960.000000 1.0006 1.0005 1.0005 1.0005 1.0004
1955.000000 1.0004 1.0004 1.0004 1.0004 1.0004
1950.000000 1.0004 1.0004 1.0004 1.0004 1.0004
1945.000000 1.0004 1.0004 1.0004 1.0004 1.0004
1940.000000 1.0004 1.0005 1.0005 1.0006 1.0007
1935.000000 1.0007 1.0008 1.0009 1.0010 1.0012
1930.000000 1.0015 1.0017 1.0018 1.0021 1.0023
1925.000000 1.0025 1.0027 1.0030 1.0031 1.0032
1920.000000 1.0033 1.0034 1.0035 1.0036 1.0037
1915.000000 1.0038 1.0039 1.0040 1.0040 1.0040
1910.000000 1.0040 1.0040 1.0039 1.0039 1.0038
1905.000000 1.0037 1.0036 1.0036 1.0036 1.0035
1900.000000 1.0035 1.0034 1.0033 1.0030 1.0027
1895.000000 1.0024 1.0021 1.0018 1.0016 1.0013
1890.000000 1.0010 1.0008 1.0006 1.0004 1.0002
1885.000000 1.0001 0.9999 0.9997 0.9996 0.9995
1880.000000 0.9995 0.9995 0.9996 0.9996 0.9997
1875.000000 0.9998 0.9998 0.9998 0.9999 1.0000
1870.000000 1.0000 1.0001 1.0002 1.0003 1.0003
1865.000000 1.0004 1.0006 1.0007 1.0009 1.0011
1860.000000 1.0013 1.0014 1.0016 1.0017 1.0018
1855.000000 1.0021 1.0021 1.0024 1.0024 1.0024
1850.000000 1.0024 1.0024 1.0024 1.0023 1.0023
1845.000000 1.0021 1.0021 1.0021 1.0021 1.0021
1840.000000 1.0021 1.0021 1.0021 1.0021 1.0021
1835.000000 1.0021 1.0021 1.0021 1.0021 1.0023
1830.000000 1.0023 1.0023 1.0023 1.0023 1.0023
1825.000000 1.0023 1.0021 1.0018 1.0016 1.0013
1820.000000 1.0011 1.0008 1.0006 1.0004 1.0002
1815.000000 1.0002 1.0001 1.0001 1.0001 1.0000
1810.000000 1.0000 1.0000 0.9999 0.9999 0.9998
1805.000000 0.9998 0.9998 0.9999 0.9999 1.0000
1800.000000 1.0000 1.0000 1.0000 1.0001 1.0001
1795.000000 1.0001 1.0002 1.0002 1.0003 1.0003
1790.000000 1.0003 1.0004 1.0004 1.0004 1.0000
1785.000000 0.9996 0.9991 0.9987 0.9982 0.9977
1780.000000 0.9973 0.9968 0.9964 0.9959 0.9955
1775.000000 0.9954 0.9953 0.9952 0.9952 0.9951
1770.000000 0.9951 0.9949 0.9945 0.9941 0.9937
1765.000000 0.9932 0.9928 0.9923 0.9916 0.9909
1760.000000 0.9901 0.9894 0.9887 0.9880 0.9871
1755.000000 0.9865 0.9858 0.9852 0.9846 0.9840
1750.000000 0.9834 0.9828 0.9823 0.9823 0.9823
1745.000000 0.9824 0.9825 0.9827 0.9828 0.9828
1740.000000 0.9830 0.9831 0.9832 0.9834 0.9834
1735.000000 0.9834 0.9833 0.9832 0.9831 0.9828
1730.000000 0.9828 0.9824 0.9815 0.9805 0.9796
1725.000000 0.9788 0.9782 0.9775 0.9768 0.9762
1720.000000 0.9759 0.9757 0.9755 0.9752 0.9751
1715.000000 0.9749 0.9747 0.9746 0.9744 0.9742
1710.000000 0.9740 0.9738 0.9736 0.9734 0.9733
1705.000000 0.9732 0.9730 0.9728 0.9727 0.9725
1700.000000 0.9723 0.9721 0.9720 0.9718 0.9715
1695.000000 0.9712 0.9709 0.9706 0.9704 0.9701
1690.000000 0.9698 0.9695 0.9691 0.9686 0.9681
1685.000000 0.9675 0.9671 0.9666 0.9661 0.9655
1680.000000 0.9650 0.9644 0.9637 0.9630 0.9624
1675.000000 0.9617 0.9610 0.9604 0.9597 0.9591
1670.000000 0.9583 0.9577 0.9571 0.9564 0.9557
1665.000000 0.9550 0.9543 0.9535 0.9527 0.9518
1660.000000 0.9510 0.9502 0.9492 0.9481 0.9470
1655.000000 0.9458 0.9446 0.9431 0.9414 0.9398
1650.000000 0.9382 0.9368 0.9355 0.9342 0.9328
1645.000000 0.9314 0.9301 0.9287 0.9271 0.9259
1640.000000 0.9249 0.9239 0.9231 0.9227 0.9221
1635.000000 0.9217 0.9213 0.9208 0.9203 0.9200
1630.000000 0.9198 0.9237 0.9206 0.9211 0.9216
1625.000000 0.9221 0.9227 0.9232 0.9238 0.9244
1620.000000 0.9251 0.9258 0.9264 0.9271 0.9278
1615.000000 0.9283 0.9289 0.9295 0.9301 0.9305
1610.000000 0.9308 0.9311 0.9314 0.9353 0.9318
1605.000000 0.9321 0.9323 0.9324 0.9325 0.9321
1600.000000 0.9309 0.9292 0.9228 0.9252 0.9241
1595.000000 0.9242 0.9242 0.9254 0.9275 0.9302
1590.000000 0.9328 0.9356 0.9387 0.9416 0.9441
1585.000000 0.9462 0.9482 0.9503 0.9523 0.9538
1580.000000 0.9546 0.9554 0.9562 0.9570 0.9577
1575.000000 0.9582 0.9587 0.9591 0.9595 0.9598
1570.000000 0.9598 0.9598 0.9598 0.9597 0.9596
1565.000000 0.9594 0.9599 0.9582 0.9575 0.9568
1560.000000 0.9563 0.9560 0.9558 0.9555 0.9551
1555.000000 0.9549 0.9546 0.9546 0.9546 0.9546
1550.000000 0.9547 0.9547 0.9548 0.9548 0.9548
1545.000000 0.9547 0.9546 0.9546 0.9545 0.9544
1540.000000 0.9541 0.9538 0.9534 0.9527 0.9518
1535.000000 0.9503 0.9484 0.9471 0.9460 0.9457
1530.000000 0.9454 0.9451 0.9448 0.9445 0.9442
1525.000000 0.9438 0.9435 0.9432 0.9428 0.9423
1520.000000 0.9418 0.9410 0.9397 0.9383 0.9368
1515.000000 0.9352 0.9325 0.9301 0.9277 0.9252
1510.000000 0.9228 0.9208 0.9187 0.9165 0.9118
1505.000000 0.9056 0.8958 0.8846 0.8689 0.8458
1500.000000 0.8221 0.7985 0.7749 0.7511 0.7275
1495.000000 0.7037 0.6800 0.6561 0.6324 0.6085
1490.000000 0.5918 0.5857 0.5803 0.5744 0.5677
1485.000000 0.5576 0.5588 0.5580 0.5579 0.5599
1480.000000 0.5648 0.5697 0.5745 0.5794 0.5843
1475.000000 0.5893 0.5942 0.5991 0.6040 0.6090
1470.000000 0.6140 0.6189 0.6238 0.6288 0.6338
1465.000000 0.6388 0.6438 0.6488 0.6538 0.6585
1460.000000 0.6611 0.6637 0.6631 0.6631 0.6631
1455.000000 0.6605 0.6460 0.6250 0.6039 0.5827
1450.000000 0.5616 0.5436 0.5385 0.5371 0.5378
1445.000000 0.5410 0.5517 0.5786 0.6069 0.6354
1440.000000 0.6639 0.6924 0.7210 0.7495 0.7782
1435.000000 0.8000 0.8086 0.8184 0.8296 0.8370
1430.000000 0.8440 0.8520 0.8596 0.8640 0.8664
1425.000000 0.8668 0.8667 0.8662 0.8655 0.8647
1420.000000 0.8637 0.8628 0.8627 0.8625 0.8632
1415.000000 0.8643 0.8657 0.8671 0.8688 0.8687
1410.000000 0.8687 0.8705 0.8697 0.8667 0.8609
1405.000000 0.8540 0.8473 0.8421 0.8384 0.8355
1400.000000 0.8338 0.8328 0.8320 0.8311 0.8305
1395.000000 0.8301 0.8299 0.8299 0.8299 0.8299
1390.000000 0.8283 0.8232 0.8175 0.8117 0.8058
1385.000000 0.8001 0.7944 0.7886 0.7828 0.7769
1380.000000 0.7711 0.7654 0.7596 0.7543 0.7519
1375.000000 0.7511 0.7508 0.7515 0.7534 0.7568
1370.000000 0.7624 0.7711 0.7747 0.7756 0.7762
1365.000000 0.7764 0.7765 0.7758 0.7743 0.7696
1360.000000 0.7536 0.7468 0.7458 0.7458 0.7458
1355.000000 0.7460 0.7462 0.7461 0.7461 0.7450
1350.000000 0.7432 0.7404 0.7374 0.7341 0.7307
1345.000000 0.7267 0.7232 0.7203 0.7174 0.7148
1340.000000 0.7124 0.7101 0.7082 0.7064 0.7051
1335.000000 0.7051 0.7051 0.7051 0.7054 0.7055
1330.000000 0.7056 0.7056 0.7050 0.7039 0.6997
1325.000000 0.6874 0.6751 0.6628 0.6505 0.6381
1320.000000 0.6197 0.6219 0.6212 0.6209 0.6236
1315.000000 0.6314 0.6433 0.6551 0.6671 0.6791
1310.000000 0.6910 0.7030 0.7150 0.7269 0.7391
1305.000000 0.7496 0.7551 0.7591 0.7625 0.7658
1300.000000 0.7686 0.7711 0.7737 0.7764 0.7786
1295.000000 0.7804 0.7821 0.7838 0.7851 0.7851
1290.000000 0.7851 0.7851 0.7844 0.7832 0.7805
1285.000000 0.7764 0.7704 0.7642 0.7501 0.7319
1280.000000 0.7158 0.6932 0.6695 0.6528 0.6331
1275.000000 0.6127 0.5936 0.5769 0.5601 0.5387
1270.000000 0.5227 0.5072 0.4947 0.4849 0.4782
1265.000000 0.4730 0.4686 0.4645 0.4601 0.4545
1260.000000 0.4488 0.4418 0.4327 0.4141 0.3947
1255.000000 0.3752 0.3556 0.3359 0.3164 0.2968
1250.000000 0.2784 0.2469 0.2088 0.1871 0.1728
1245.000000 0.1595 0.1467 0.1336 0.1189 0.1104
1240.000000 0.1044 0.0997 0.0962 0.0939 0.0908
1235.000000 0.0851 0.0772 0.0674 0.0610 0.0557
1230.000000 0.0529 0.0503 0.0483 0.0463 0.0444
1225.000000 0.0443 0.0427 0.0431 0.0448 0.0475
1220.000000 0.0511 0.0576 0.0660 0.0760 0.0884
1215.000000 0.1135 0.1377 0.1609 0.1840 0.2025
1210.000000 0.2195 0.2494 0.2793 0.3093 0.3394
1205.000000 0.3695 0.3998 0.4295 0.4485 0.4626
1200.000000 0.4781 0.4891 0.5002 0.5129 0.5265
1195.000000 0.5427 0.5589 0.5747 0.5875 0.5967
1190.000000 0.6084 0.6232 0.6333 0.6430 0.6547
1185.000000 0.6682 0.6814 0.6868 0.6910 0.6930
1180.000000 0.6946 0.6955 0.6967 0.6986 0.7006
1175.000000 0.7047 0.7092 0.7150 0.7212 0.7271
1170.000000 0.7328 0.7390 0.7462 0.7534 0.7592
1165.000000 0.7651 0.7714 0.7767 0.7811 0.7805
1160.000000 0.7804 0.7743 0.7600 0.7437 0.7272
1155.000000 0.7146 0.7050 0.6984 0.6939 0.6971
1150.000000 0.6975 0.7024 0.7121 0.7211 0.7282
1145.000000 0.7332 0.7378 0.7405 0.7414 0.7421
1140.000000 0.7421 0.7419 0.7419 0.7418 0.7404
1135.000000 0.7365 0.7251 0.7049 0.6847 0.6642
1130.000000 0.6444 0.6343 0.6294 0.6251 0.6200
1125.000000 0.6149 0.6087 0.6081 0.6089 0.6162
1120.000000 0.6238 0.6312 0.6389 0.6464 0.6538
1115.000000 0.6564 0.6551 0.6525 0.6488 0.6458
1110.000000 0.6476 0.6518 0.6656 0.6821 0.6965
1105.000000 0.7111 0.7255 0.7401 0.7546 0.7692
1100.000000 0.7838 0.7984 0.8128 0.8183 0.8203
1095.000000 0.8213 0.8234 0.8228 0.8224 0.8174
1090.000000 0.8100 0.8038 0.8008 0.7998 0.8001
1085.000000 0.8018 0.8033 0.8048 0.8051 0.8015
1080.000000 0.7850 0.7801 0.7780 0.7761 0.7741
1075.000000 0.7585 0.7237 0.7030 0.6861 0.6741
1070.000000 0.6661 0.6603 0.6553 0.6512 0.6468
1065.000000 0.6411 0.6328 0.6227 0.5646 0.4969
1060.000000 0.4292 0.3612 0.3329 0.3321 0.3745
1055.000000 0.4264 0.4784 0.5305 0.5827 0.6349
1050.000000 0.6748 0.6831 0.6881 0.6915 0.6946
1045.000000 0.6982 0.7021 0.7071 0.7122 0.7175
1040.000000 0.7230 0.7272 0.7307 0.7307 0.7291
1035.000000 0.7204 0.6997 0.6780 0.6561 0.6344
1030.000000 0.6126 0.5908 0.5688 0.5469 0.5248
1025.000000 0.5028 0.4815 0.4722 0.4679 0.4640
1020.000000 0.4526 0.4299 0.4071 0.3843 0.3614
1015.000000 0.3384 0.3156 0.2925 0.2735 0.2580
1010.000000 0.2423 0.2304 0.2229 0.2178 0.2179
1005.000000 0.2180 0.2210 0.2284 0.2433 0.2644
1000.000000 0.3349 0.3668 0.3837 0.3984 0.4156
995.000000 0.4348 0.4559 0.4768 0.4988 0.5208
990.000000 0.5429 0.5651 0.5872 0.6094 0.6317
985.000000 0.6540 0.6762 0.6878 0.6898 0.6908
980.000000 0.6934 0.7094 0.7255 0.7415 0.7578
975.000000 0.7740 0.7860 0.7874 0.7864 0.7728
970.000000 0.7415 0.7098 0.6781 0.6462 0.6199
965.000000 0.6203 0.6286 0.6641 0.7028 0.7417
960.000000 0.7805 0.8095 0.8253 0.8400 0.8549
955.000000 0.8674 0.8791 0.8894 0.8986 0.9062
950.000000 0.9141 0.9186 0.9202 0.9208 0.9212
945.000000 0.9210 0.9220 0.9199 0.9192 0.9180
940.000000 0.9168 0.9159 0.9151 0.9141 0.9130
935.000000 0.9113 0.9054 0.8668 0.8261 0.8003
930.000000 0.7544 0.7084 0.6622 0.6170 0.5766
925.000000 0.5795 0.5923 0.6144 0.6365 0.6586
920.000000 0.6808 0.7030 0.7253 0.7475 0.7700
915.000000 0.7848 0.7900 0.7918 0.7914 0.7868
910.000000 0.7775 0.7668 0.7601 0.7561 0.7597
905.000000 0.7751 0.7975 0.8200 0.8425 0.8651
900.000000 0.8725 0.8724 0.8702 0.8540 0.8172
895.000000 0.7806 0.7437 0.7065 0.7083 0.7324
890.000000 0.7687 0.8047 0.8408 0.8657 0.8789
885.000000 0.8921 0.9068 0.9193 0.9259 0.9335
880.000000 0.9405 0.9447 0.9455 0.9442 0.9316
875.000000 0.9302 0.9278 0.9212 0.9018 0.8973
870.000000 0.8968 0.9034 0.9151 0.9197 0.9234
865.000000 0.9320 0.9425 0.9530 0.9583 0.9581
860.000000 0.9581 0.9595 0.9636 0.9631 0.9613
855.000000 0.9553 0.9500 0.9450 0.9391 0.9321
850.000000 0.9221 0.9235 0.9255 0.9388 0.9447
845.000000 0.9463 0.9475 0.9497 0.9563 0.9620
840.000000 0.9621 0.9616 0.9615 0.9650 0.9756
835.000000 0.9745 0.9703 0.9663 0.9631 0.9613
830.000000 0.9598 0.9563 0.9394 0.9300 0.9245
825.000000 0.9205 0.9147 0.9086 0.9010 0.9037
820.000000 0.9054 0.9086 0.9193 0.9209 0.9225
815.000000 0.9263 0.9337 0.9433 0.9454 0.9445
810.000000 0.9431 0.9437 0.9471 0.9512 0.9523
805.000000 0.9464 0.9438 0.9440 0.9434 0.9406
800.000000 0.9371 0.9323 0.9301 0.9297 0.9216
795.000000 0.9128 0.9040 0.8943 0.8824 0.8595
790.000000 0.8337 0.8107 0.7965 0.7965 0.7965
785.000000 0.7965 0.7808 0.7640 0.7471 0.7419
780.000000 0.7401 0.7376 0.7303 0.7239 0.7217
775.000000 0.7146 0.6985 0.6660 0.6346 0.6031
770.000000 0.5715 0.5458 0.5332 0.5318 0.5441
765.000000 0.5627 0.5810 0.6038 0.6005 0.5981
760.000000 0.5803 0.5388 0.4969 0.4667 0.4366
755.000000 0.4062 0.3759 0.3289 0.2998 0.2849
750.000000 0.2787 0.2795 0.2800 0.2866 0.2970
745.000000 0.3117 0.3326 0.3607 0.3860 0.4104
740.000000 0.4364 0.4591 0.4862 0.5130 0.5415
735.000000 0.5743 0.6007 0.6273 0.6539 0.6805
730.000000 0.7019 0.7168 0.7301 0.7454 0.7606
725.000000 0.7730 0.7844 0.7872 0.7882 0.8017
720.000000 0.8008 0.8008 0.7821 0.7488 0.7060
715.000000 0.6598 0.6131 0.5662 0.5192 0.4902
710.000000 0.4893 0.5114 0.5479 0.5824 0.6116
705.000000 0.6362 0.6592 0.6841 0.7132 0.7372
700.000000 0.7597 0.7888 0.8153 0.8345 0.8537
695.000000 0.8671 0.8799 0.8943 0.9030 0.9008
690.000000 0.8990 0.8973 0.8955 0.8925 0.8835
685.000000 0.8601 0.8385 0.8198 0.8021 0.7872
680.000000 0.7771 0.7725 0.7751 0.7982 0.8244
675.000000 0.8451 0.8567 0.8653 0.8763 0.9033
##END=
