##TITLE=Acridan, 10-(3-dimethylaminopropyl)-, maleate (1 to 1)
##JCAMP-DX=4.24
##DATA TYPE=INFRARED SPECTRUM
##CLASS=COBLENTZ III
##ORIGIN=SMITH KLINE & FRENCH LABS.
##OWNER=Copyright (C) 1987 by the Coblentz Society
Collection (C) 2018 copyright by the U.S. Secretary of Commerce
on behalf of the United States of America. All rights reserved.
##DATE=1957/01/14
##MOLFORM=C22 H26 N2 O4
##SOURCE REFERENCE=COBLENTZ NO. 9082
##$NIST ID=B6009082
##$NIST SOURCE=COBLENTZ
##$NIST IMAGE=cob9082
##SPECTROMETER/DATA SYSTEM=PERKIN-ELMER 21 (GRATING)
##INSTRUMENT PARAMETERS=NaCl PRISM
##STATE=SOLID (NUJOL MULL)
$$SPECTRAL CONTAMINATION DUE TO OIL AROUND 2900 CM^-^1
##SAMPLING PROCEDURE=TRANSMISSION
##RESOLUTION=2
##DATA PROCESSING=DIGITIZED BY COBLENTZ SOCIETY (BATCH II) FROM HARD COPY
##XUNITS=1/CM
##YUNITS=TRANSMITTANCE
##XFACTOR=1.0
##YFACTOR=1
##FIRSTX=666
##LASTX=4000
##FIRSTY=0.6163
##MAXX=4000
##MINX=666
##MAXY=0.7564
##MINY=0.0228
##NPOINTS=3335
##XYDATA=(X++(Y..Y))
666.000000 0.6163 0.6201 0.6215 0.6245 0.6296
671.000000 0.6374 0.6452 0.6519 0.6568 0.6603
676.000000 0.6650 0.6703 0.6747 0.6788 0.6822
681.000000 0.6794 0.6809 0.6875 0.6880 0.6928
686.000000 0.6927 0.6926 0.6929 0.6931 0.6914
691.000000 0.6864 0.6768 0.6691 0.6667 0.6642
696.000000 0.6648 0.6682 0.6754 0.6834 0.6872
701.000000 0.6891 0.6906 0.6922 0.6948 0.6961
706.000000 0.6975 0.6984 0.6966 0.6931 0.6881
711.000000 0.6825 0.6768 0.6708 0.6648 0.6609
716.000000 0.6658 0.6696 0.6747 0.6798 0.6833
721.000000 0.6861 0.6873 0.6879 0.6880 0.6876
726.000000 0.6861 0.6858 0.6833 0.6807 0.6783
731.000000 0.6763 0.6752 0.6744 0.6684 0.6620
736.000000 0.6557 0.6479 0.6374 0.6236 0.5967
741.000000 0.5525 0.5116 0.4791 0.4124 0.3006
746.000000 0.2424 0.2785 0.3379 0.3674 0.4091
751.000000 0.4426 0.4603 0.4690 0.4714 0.4138
756.000000 0.3710 0.3525 0.4476 0.5322 0.5700
761.000000 0.6366 0.6495 0.6526 0.6523 0.6510
766.000000 0.6501 0.6492 0.6484 0.6475 0.6450
771.000000 0.6424 0.6495 0.6635 0.6789 0.6959
776.000000 0.7188 0.7322 0.7404 0.7450 0.7488
781.000000 0.7502 0.7512 0.7512 0.7507 0.7493
786.000000 0.7478 0.7462 0.7445 0.7429 0.7414
791.000000 0.7398 0.7382 0.7365 0.7347 0.7329
796.000000 0.7311 0.7294 0.7278 0.7292 0.7322
801.000000 0.7379 0.7451 0.7504 0.7528 0.7541
806.000000 0.7546 0.7552 0.7553 0.7555 0.7553
811.000000 0.7564 0.7539 0.7532 0.7524 0.7514
816.000000 0.7505 0.7495 0.7484 0.7471 0.7458
821.000000 0.7451 0.7452 0.7470 0.7513 0.7534
826.000000 0.7502 0.7459 0.7427 0.7425 0.7425
831.000000 0.7406 0.7364 0.7311 0.7269 0.7244
836.000000 0.7228 0.7218 0.7211 0.7211 0.7211
841.000000 0.7209 0.7204 0.7198 0.7173 0.7142
846.000000 0.7111 0.7077 0.7044 0.7022 0.7011
851.000000 0.6995 0.6976 0.6955 0.6925 0.6893
856.000000 0.6837 0.6757 0.6644 0.6509 0.6338
861.000000 0.6137 0.5872 0.5576 0.5031 0.4667
866.000000 0.4305 0.4013 0.4013 0.4582 0.5062
871.000000 0.5537 0.5723 0.5759 0.5670 0.5548
876.000000 0.5435 0.5350 0.5348 0.5640 0.5850
881.000000 0.6060 0.6284 0.6491 0.6659 0.6758
886.000000 0.6827 0.6880 0.6923 0.6964 0.6979
891.000000 0.6992 0.7006 0.7019 0.7032 0.7044
896.000000 0.7051 0.7083 0.7038 0.7003 0.6951
901.000000 0.6897 0.6841 0.6785 0.6725 0.6661
906.000000 0.6596 0.6529 0.6473 0.6464 0.6438
911.000000 0.6521 0.6572 0.6632 0.6699 0.6750
916.000000 0.6788 0.6806 0.6809 0.6808 0.6789
921.000000 0.6769 0.6749 0.6730 0.6712 0.6695
926.000000 0.6674 0.6661 0.6650 0.6640 0.6629
931.000000 0.6619 0.6610 0.6602 0.6593 0.6576
936.000000 0.6560 0.6519 0.6454 0.6377 0.6318
941.000000 0.6305 0.6314 0.6334 0.6373 0.6426
946.000000 0.6470 0.6459 0.6404 0.6350 0.6281
951.000000 0.6158 0.6025 0.5893 0.5839 0.5887
956.000000 0.6034 0.6129 0.6033 0.5893 0.5754
961.000000 0.5625 0.5597 0.5644 0.5770 0.5935
966.000000 0.6079 0.6166 0.6249 0.6319 0.6361
971.000000 0.6385 0.6401 0.6413 0.6423 0.6428
976.000000 0.6434 0.6440 0.6441 0.6491 0.6434
981.000000 0.6430 0.6426 0.6421 0.6416 0.6410
986.000000 0.6404 0.6399 0.6388 0.6376 0.6363
991.000000 0.6350 0.6331 0.6305 0.6278 0.6247
996.000000 0.6194 0.6141 0.6081 0.6018 0.5975
1001.000000 0.5966 0.5987 0.6007 0.6024 0.6041
1006.000000 0.6065 0.6089 0.6090 0.6097 0.6061
1011.000000 0.6044 0.6013 0.5962 0.5880 0.5796
1016.000000 0.5728 0.5675 0.5620 0.5557 0.5499
1021.000000 0.5440 0.5368 0.5278 0.5238 0.5226
1026.000000 0.5244 0.5286 0.5344 0.5398 0.5426
1031.000000 0.5429 0.5436 0.5442 0.5453 0.5471
1036.000000 0.5476 0.5485 0.5457 0.5393 0.5320
1041.000000 0.5249 0.5151 0.5006 0.4840 0.4760
1046.000000 0.4765 0.4729 0.4964 0.5140 0.5246
1051.000000 0.5253 0.5255 0.5251 0.5245 0.5256
1056.000000 0.5228 0.5213 0.5198 0.5173 0.5145
1061.000000 0.5086 0.5001 0.4904 0.4805 0.4695
1066.000000 0.4597 0.4575 0.4590 0.4651 0.4715
1071.000000 0.4783 0.4844 0.4872 0.4873 0.4845
1076.000000 0.4805 0.4748 0.4720 0.4696 0.4674
1081.000000 0.4673 0.4676 0.4693 0.4703 0.4694
1086.000000 0.4666 0.4620 0.4558 0.4486 0.4424
1091.000000 0.4403 0.4394 0.4381 0.4367 0.4366
1096.000000 0.4377 0.4386 0.4401 0.4413 0.4424
1101.000000 0.4438 0.4447 0.4454 0.4463 0.4474
1106.000000 0.4507 0.4557 0.4567 0.4559 0.4546
1111.000000 0.4531 0.4529 0.4534 0.4548 0.4565
1116.000000 0.4581 0.4597 0.4612 0.4620 0.4622
1121.000000 0.4621 0.4613 0.4600 0.4594 0.4589
1126.000000 0.4586 0.4591 0.4609 0.4634 0.4658
1131.000000 0.4665 0.4658 0.4645 0.4620 0.4597
1136.000000 0.4575 0.4560 0.4555 0.4590 0.4648
1141.000000 0.4668 0.4674 0.4652 0.4611 0.4569
1146.000000 0.4528 0.4487 0.4431 0.4357 0.4261
1151.000000 0.4162 0.4053 0.3945 0.3884 0.3887
1156.000000 0.3997 0.4117 0.4237 0.4356 0.4476
1161.000000 0.4572 0.4618 0.4624 0.4652 0.4604
1166.000000 0.4584 0.4530 0.4446 0.4410 0.4373
1171.000000 0.4282 0.4192 0.4135 0.4138 0.4350
1176.000000 0.4539 0.4728 0.4894 0.4982 0.5021
1181.000000 0.5037 0.5046 0.5069 0.5052 0.5050
1186.000000 0.5046 0.5042 0.5038 0.5030 0.5021
1191.000000 0.5011 0.5000 0.4991 0.4974 0.4955
1196.000000 0.4936 0.4917 0.4896 0.4869 0.4842
1201.000000 0.4814 0.4788 0.4765 0.4743 0.4723
1206.000000 0.4705 0.4693 0.4694 0.4702 0.4724
1211.000000 0.4756 0.4805 0.4875 0.4974 0.5049
1216.000000 0.5119 0.5164 0.5210 0.5246 0.5274
1221.000000 0.5303 0.5315 0.5320 0.5343 0.5312
1226.000000 0.5288 0.5234 0.5176 0.5092 0.4982
1231.000000 0.4921 0.4927 0.4903 0.5097 0.5282
1236.000000 0.5348 0.5394 0.5429 0.5448 0.5455
1241.000000 0.5460 0.5456 0.5462 0.5425 0.5390
1246.000000 0.5347 0.5268 0.5096 0.4864 0.4630
1251.000000 0.4394 0.4167 0.4077 0.4086 0.4105
1256.000000 0.4342 0.4514 0.4685 0.4856 0.5027
1261.000000 0.5127 0.5165 0.5157 0.5152 0.5129
1266.000000 0.5010 0.4853 0.4697 0.4541 0.4386
1271.000000 0.4230 0.4075 0.3920 0.3766 0.3675
1276.000000 0.3708 0.3732 0.3788 0.3883 0.3998
1281.000000 0.4403 0.4686 0.4968 0.5106 0.5314
1286.000000 0.5373 0.5398 0.5416 0.5396 0.5366
1291.000000 0.5313 0.5261 0.5209 0.5161 0.5154
1296.000000 0.5163 0.5147 0.5377 0.5484 0.5568
1301.000000 0.5572 0.5549 0.5464 0.5375 0.5287
1306.000000 0.5198 0.5134 0.5157 0.5214 0.5283
1311.000000 0.5352 0.5398 0.5376 0.5393 0.5385
1316.000000 0.5364 0.5305 0.5233 0.5141 0.5052
1321.000000 0.4964 0.4892 0.4831 0.4790 0.4767
1326.000000 0.4752 0.4744 0.4736 0.4725 0.4714
1331.000000 0.4693 0.4650 0.4584 0.4499 0.4394
1336.000000 0.4270 0.4146 0.4021 0.3894 0.3771
1341.000000 0.3661 0.3557 0.3454 0.3334 0.3171
1346.000000 0.2714 0.2356 0.2147 0.1939 0.1730
1351.000000 0.1536 0.1461 0.1451 0.1454 0.1682
1356.000000 0.1860 0.1965 0.1974 0.1922 0.1963
1361.000000 0.1691 0.1576 0.1461 0.1345 0.1271
1366.000000 0.1272 0.1247 0.1306 0.1443 0.1559
1371.000000 0.1639 0.1706 0.1771 0.1834 0.1969
1376.000000 0.2195 0.2430 0.2664 0.2912 0.3243
1381.000000 0.3346 0.3450 0.3639 0.3838 0.4042
1386.000000 0.4292 0.4444 0.4563 0.4682 0.4802
1391.000000 0.4904 0.4964 0.5018 0.5058 0.5067
1396.000000 0.5066 0.5053 0.5028 0.4994 0.4958
1401.000000 0.4928 0.4905 0.4882 0.4860 0.4835
1406.000000 0.4801 0.4707 0.4633 0.4558 0.4493
1411.000000 0.4432 0.4373 0.4319 0.4248 0.4133
1416.000000 0.4075 0.4017 0.3778 0.3661 0.3578
1421.000000 0.3469 0.3330 0.3140 0.2954 0.2849
1426.000000 0.2755 0.2664 0.2587 0.2514 0.2441
1431.000000 0.2328 0.2158 0.2011 0.1891 0.1748
1436.000000 0.1567 0.1446 0.1341 0.1262 0.1187
1441.000000 0.1113 0.1035 0.0958 0.0887 0.0827
1446.000000 0.0767 0.0707 0.0651 0.0605 0.0563
1451.000000 0.0522 0.0480 0.0440 0.0410 0.0388
1456.000000 0.0366 0.0345 0.0329 0.0331 0.0319
1461.000000 0.0327 0.0340 0.0353 0.0377 0.0414
1466.000000 0.0460 0.0521 0.0594 0.0705 0.0746
1471.000000 0.0749 0.0748 0.0747 0.0746 0.0748
1476.000000 0.0763 0.0782 0.0857 0.1044 0.1269
1481.000000 0.1495 0.1719 0.1915 0.1990 0.2046
1486.000000 0.2088 0.2125 0.2161 0.2200 0.2251
1491.000000 0.2303 0.2393 0.2548 0.2673 0.2770
1496.000000 0.2844 0.2913 0.2982 0.3049 0.3110
1501.000000 0.3169 0.3228 0.3286 0.3344 0.3402
1506.000000 0.3457 0.3503 0.3549 0.3595 0.3643
1511.000000 0.3693 0.3743 0.3799 0.3875 0.3957
1516.000000 0.3996 0.4028 0.4044 0.4040 0.4034
1521.000000 0.4026 0.4007 0.3983 0.3959 0.3947
1526.000000 0.3943 0.3949 0.3957 0.3966 0.3977
1531.000000 0.3987 0.3998 0.4009 0.4022 0.4035
1536.000000 0.4048 0.4062 0.4078 0.4094 0.4110
1541.000000 0.4121 0.4126 0.4131 0.4124 0.4114
1546.000000 0.4103 0.4093 0.4078 0.4062 0.4045
1551.000000 0.4028 0.4013 0.3998 0.3986 0.3973
1556.000000 0.3960 0.3950 0.3947 0.3945 0.3944
1561.000000 0.3946 0.3955 0.3966 0.3977 0.3988
1566.000000 0.4002 0.4015 0.4028 0.4042 0.4056
1571.000000 0.4075 0.4097 0.4120 0.4139 0.4150
1576.000000 0.4156 0.4158 0.4130 0.4041 0.3932
1581.000000 0.3823 0.3713 0.3604 0.3512 0.3491
1586.000000 0.3503 0.3574 0.3665 0.3755 0.3846
1591.000000 0.3936 0.4025 0.4116 0.4206 0.4295
1596.000000 0.4385 0.4475 0.4555 0.4588 0.4587
1601.000000 0.4587 0.4574 0.4538 0.4489 0.4440
1606.000000 0.4391 0.4342 0.4293 0.4244 0.4195
1611.000000 0.4152 0.4138 0.4140 0.4156 0.4269
1616.000000 0.4383 0.4496 0.4610 0.4722 0.4835
1621.000000 0.4948 0.5060 0.5173 0.5285 0.5397
1626.000000 0.5509 0.5621 0.5733 0.5845 0.5956
1631.000000 0.6061 0.6141 0.6211 0.6267 0.6279
1636.000000 0.6292 0.6304 0.6317 0.6331 0.6346
1641.000000 0.6386 0.6482 0.6566 0.6586 0.6602
1646.000000 0.6609 0.6616 0.6623 0.6630 0.6636
1651.000000 0.6638 0.6638 0.6639 0.6639 0.6639
1656.000000 0.6618 0.6632 0.6628 0.6623 0.6618
1661.000000 0.6606 0.6589 0.6572 0.6556 0.6539
1666.000000 0.6522 0.6503 0.6476 0.6448 0.6410
1671.000000 0.6364 0.6309 0.6241 0.6153 0.6044
1676.000000 0.5944 0.5884 0.5844 0.5804 0.5764
1681.000000 0.5722 0.5676 0.5630 0.5588 0.5553
1686.000000 0.5520 0.5487 0.5454 0.5425 0.5396
1691.000000 0.5381 0.5373 0.5367 0.5364 0.5364
1696.000000 0.5364 0.5365 0.5369 0.5409 0.5431
1701.000000 0.5455 0.5483 0.5530 0.5606 0.5787
1706.000000 0.5989 0.6129 0.6198 0.6240 0.6278
1711.000000 0.6317 0.6356 0.6394 0.6429 0.6463
1716.000000 0.6497 0.6537 0.6582 0.6627 0.6673
1721.000000 0.6720 0.6768 0.6816 0.6866 0.6929
1726.000000 0.6995 0.7047 0.7086 0.7121 0.7155
1731.000000 0.7182 0.7198 0.7209 0.7220 0.7230
1736.000000 0.7240 0.7250 0.7257 0.7263 0.7267
1741.000000 0.7262 0.7265 0.7264 0.7262 0.7261
1746.000000 0.7260 0.7259 0.7257 0.7256 0.7255
1751.000000 0.7253 0.7251 0.7249 0.7246 0.7245
1756.000000 0.7242 0.7238 0.7233 0.7229 0.7225
1761.000000 0.7221 0.7217 0.7213 0.7209 0.7205
1766.000000 0.7201 0.7197 0.7193 0.7189 0.7185
1771.000000 0.7181 0.7177 0.7174 0.7170 0.7167
1776.000000 0.7163 0.7159 0.7154 0.7149 0.7144
1781.000000 0.7140 0.7136 0.7131 0.7127 0.7122
1786.000000 0.7117 0.7112 0.7109 0.7104 0.7099
1791.000000 0.7095 0.7090 0.7085 0.7081 0.7077
1796.000000 0.7072 0.7069 0.7065 0.7060 0.7056
1801.000000 0.7052 0.7048 0.7044 0.7040 0.7036
1806.000000 0.7032 0.7029 0.7027 0.7025 0.7023
1811.000000 0.7021 0.7020 0.7018 0.7016 0.7014
1816.000000 0.7013 0.7011 0.7010 0.7009 0.7009
1821.000000 0.7010 0.7011 0.7013 0.7014 0.7016
1826.000000 0.7017 0.7019 0.7020 0.7021 0.7022
1831.000000 0.7024 0.7025 0.7027 0.7027 0.7029
1836.000000 0.7030 0.7032 0.7032 0.7034 0.7034
1841.000000 0.7031 0.7029 0.7022 0.7013 0.7004
1846.000000 0.6994 0.6985 0.6975 0.6966 0.6956
1851.000000 0.6947 0.6939 0.6930 0.6922 0.6913
1856.000000 0.6905 0.6897 0.6889 0.6882 0.6876
1861.000000 0.6870 0.6863 0.6857 0.6850 0.6844
1866.000000 0.6837 0.6831 0.6825 0.6819 0.6814
1871.000000 0.6809 0.6803 0.6798 0.6793 0.6787
1876.000000 0.6782 0.6777 0.6771 0.6766 0.6762
1881.000000 0.6759 0.6755 0.6752 0.6749 0.6747
1886.000000 0.6743 0.6740 0.6737 0.6734 0.6731
1891.000000 0.6728 0.6724 0.6719 0.6715 0.6710
1896.000000 0.6706 0.6702 0.6698 0.6693 0.6688
1901.000000 0.6684 0.6680 0.6676 0.6671 0.6667
1906.000000 0.6662 0.6658 0.6654 0.6651 0.6649
1911.000000 0.6648 0.6646 0.6644 0.6642 0.6643
1916.000000 0.6645 0.6649 0.6653 0.6658 0.6662
1921.000000 0.6667 0.6675 0.6685 0.6695 0.6706
1926.000000 0.6716 0.6723 0.6729 0.6735 0.6742
1931.000000 0.6749 0.6756 0.6762 0.6770 0.6778
1936.000000 0.6786 0.6792 0.6795 0.6795 0.6795
1941.000000 0.6795 0.6795 0.6796 0.6796 0.6796
1946.000000 0.6794 0.6791 0.6787 0.6784 0.6780
1951.000000 0.6776 0.6772 0.6768 0.6765 0.6761
1956.000000 0.6757 0.6752 0.6747 0.6741 0.6736
1961.000000 0.6730 0.6724 0.6719 0.6713 0.6708
1966.000000 0.6702 0.6695 0.6688 0.6681 0.6675
1971.000000 0.6668 0.6662 0.6656 0.6649 0.6643
1976.000000 0.6636 0.6630 0.6623 0.6613 0.6609
1981.000000 0.6609 0.6616 0.6624 0.6632 0.6640
1986.000000 0.6648 0.6657 0.6665 0.6671 0.6676
1991.000000 0.6681 0.6686 0.6694 0.6702 0.6711
1996.000000 0.6718 0.6725 0.6730 0.6735 0.6741
2001.000000 0.6745 0.6749 0.6752 0.6755 0.6758
2006.000000 0.6761 0.6764 0.6765 0.6767 0.6769
2011.000000 0.6771 0.6772 0.6773 0.6774 0.6774
2016.000000 0.6774 0.6772 0.6771 0.6769 0.6768
2021.000000 0.6767 0.6765 0.6762 0.6759 0.6755
2026.000000 0.6750 0.6745 0.6740 0.6736 0.6731
2031.000000 0.6726 0.6721 0.6716 0.6712 0.6709
2036.000000 0.6705 0.6701 0.6696 0.6692 0.6694
2041.000000 0.6696 0.6701 0.6706 0.6710 0.6713
2046.000000 0.6715 0.6715 0.6713 0.6711 0.6709
2051.000000 0.6706 0.6704 0.6702 0.6700 0.6698
2056.000000 0.6695 0.6694 0.6692 0.6689 0.6687
2061.000000 0.6686 0.6684 0.6682 0.6680 0.6679
2066.000000 0.6678 0.6676 0.6675 0.6674 0.6673
2071.000000 0.6671 0.6671 0.6673 0.6674 0.6675
2076.000000 0.6676 0.6677 0.6678 0.6682 0.6686
2081.000000 0.6691 0.6696 0.6701 0.6706 0.6710
2086.000000 0.6713 0.6715 0.6717 0.6718 0.6719
2091.000000 0.6720 0.6721 0.6718 0.6715 0.6710
2096.000000 0.6705 0.6701 0.6697 0.6693 0.6689
2101.000000 0.6685 0.6681 0.6677 0.6673 0.6669
2106.000000 0.6665 0.6661 0.6657 0.6653 0.6649
2111.000000 0.6645 0.6641 0.6637 0.6632 0.6628
2116.000000 0.6623 0.6619 0.6615 0.6611 0.6606
2121.000000 0.6602 0.6598 0.6593 0.6589 0.6584
2126.000000 0.6580 0.6576 0.6572 0.6568 0.6563
2131.000000 0.6559 0.6554 0.6550 0.6546 0.6542
2136.000000 0.6540 0.6537 0.6534 0.6531 0.6528
2141.000000 0.6525 0.6522 0.6519 0.6517 0.6514
2146.000000 0.6511 0.6510 0.6508 0.6507 0.6506
2151.000000 0.6504 0.6503 0.6502 0.6501 0.6500
2156.000000 0.6498 0.6497 0.6495 0.6494 0.6493
2161.000000 0.6491 0.6490 0.6489 0.6488 0.6487
2166.000000 0.6486 0.6485 0.6483 0.6482 0.6481
2171.000000 0.6480 0.6479 0.6477 0.6475 0.6474
2176.000000 0.6473 0.6468 0.6463 0.6458 0.6454
2181.000000 0.6449 0.6444 0.6439 0.6433 0.6426
2186.000000 0.6417 0.6407 0.6396 0.6386 0.6376
2191.000000 0.6365 0.6355 0.6345 0.6336 0.6327
2196.000000 0.6318 0.6310 0.6302 0.6294 0.6285
2201.000000 0.6277 0.6269 0.6262 0.6253 0.6245
2206.000000 0.6237 0.6229 0.6223 0.6217 0.6212
2211.000000 0.6207 0.6202 0.6197 0.6192 0.6188
2216.000000 0.6183 0.6178 0.6173 0.6168 0.6163
2221.000000 0.6158 0.6154 0.6149 0.6144 0.6139
2226.000000 0.6134 0.6129 0.6124 0.6120 0.6115
2231.000000 0.6110 0.6104 0.6097 0.6090 0.6083
2236.000000 0.6076 0.6068 0.6061 0.6054 0.6048
2241.000000 0.6040 0.6033 0.6026 0.6019 0.6012
2246.000000 0.6005 0.5998 0.5991 0.5984 0.5976
2251.000000 0.5969 0.5962 0.5953 0.5943 0.5933
2256.000000 0.5923 0.5913 0.5903 0.5893 0.5883
2261.000000 0.5873 0.5863 0.5853 0.5843 0.5832
2266.000000 0.5822 0.5812 0.5802 0.5792 0.5782
2271.000000 0.5772 0.5763 0.5753 0.5743 0.5732
2276.000000 0.5722 0.5712 0.5702 0.5692 0.5682
2281.000000 0.5672 0.5662 0.5653 0.5642 0.5632
2286.000000 0.5622 0.5612 0.5602 0.5592 0.5582
2291.000000 0.5572 0.5562 0.5552 0.5542 0.5533
2296.000000 0.5523 0.5513 0.5503 0.5494 0.5484
2301.000000 0.5474 0.5464 0.5454 0.5444 0.5434
2306.000000 0.5424 0.5414 0.5404 0.5395 0.5386
2311.000000 0.5376 0.5366 0.5357 0.5349 0.5341
2316.000000 0.5334 0.5327 0.5320 0.5313 0.5306
2321.000000 0.5299 0.5294 0.5289 0.5286 0.5283
2326.000000 0.5280 0.5278 0.5275 0.5272 0.5269
2331.000000 0.5267 0.5264 0.5259 0.5255 0.5250
2336.000000 0.5246 0.5245 0.5247 0.5249 0.5252
2341.000000 0.5256 0.5259 0.5262 0.5247 0.5269
2346.000000 0.5272 0.5275 0.5278 0.5282 0.5285
2351.000000 0.5287 0.5290 0.5293 0.5295 0.5298
2356.000000 0.5300 0.5302 0.5305 0.5306 0.5304
2361.000000 0.5302 0.5299 0.5296 0.5294 0.5291
2366.000000 0.5288 0.5286 0.5283 0.5280 0.5278
2371.000000 0.5276 0.5273 0.5271 0.5269 0.5267
2376.000000 0.5264 0.5262 0.5260 0.5258 0.5256
2381.000000 0.5254 0.5253 0.5251 0.5249 0.5247
2386.000000 0.5246 0.5244 0.5242 0.5242 0.5242
2391.000000 0.5241 0.5241 0.5243 0.5247 0.5251
2396.000000 0.5256 0.5261 0.5266 0.5270 0.5275
2401.000000 0.5280 0.5286 0.5292 0.5298 0.5305
2406.000000 0.5311 0.5314 0.5316 0.5318 0.5318
2411.000000 0.5317 0.5317 0.5317 0.5317 0.5317
2416.000000 0.5316 0.5316 0.5315 0.5313 0.5312
2421.000000 0.5310 0.5309 0.5308 0.5307 0.5305
2426.000000 0.5304 0.5302 0.5300 0.5299 0.5298
2431.000000 0.5297 0.5296 0.5296 0.5295 0.5294
2436.000000 0.5294 0.5293 0.5293 0.5293 0.5292
2441.000000 0.5292 0.5291 0.5291 0.5290 0.5290
2446.000000 0.5290 0.5289 0.5289 0.5290 0.5292
2451.000000 0.5295 0.5299 0.5304 0.5308 0.5313
2456.000000 0.5317 0.5321 0.5326 0.5327 0.5328
2461.000000 0.5328 0.5327 0.5327 0.5326 0.5326
2466.000000 0.5325 0.5324 0.5323 0.5312 0.5300
2471.000000 0.5288 0.5276 0.5264 0.5258 0.5252
2476.000000 0.5254 0.5258 0.5262 0.5265 0.5269
2481.000000 0.5274 0.5279 0.5285 0.5290 0.5296
2486.000000 0.5303 0.5310 0.5317 0.5323 0.5330
2491.000000 0.5337 0.5345 0.5352 0.5359 0.5365
2496.000000 0.5373 0.5380 0.5387 0.5394 0.5402
2501.000000 0.5409 0.5416 0.5423 0.5431 0.5439
2506.000000 0.5448 0.5457 0.5466 0.5475 0.5484
2511.000000 0.5493 0.5502 0.5510 0.5517 0.5524
2516.000000 0.5528 0.5531 0.5535 0.5538 0.5541
2521.000000 0.5544 0.5547 0.5549 0.5550 0.5550
2526.000000 0.5551 0.5552 0.5553 0.5553 0.5554
2531.000000 0.5555 0.5556 0.5556 0.5556 0.5556
2536.000000 0.5555 0.5554 0.5554 0.5553 0.5553
2541.000000 0.5552 0.5551 0.5551 0.5550 0.5548
2546.000000 0.5547 0.5546 0.5545 0.5538 0.5526
2551.000000 0.5515 0.5503 0.5492 0.5480 0.5467
2556.000000 0.5454 0.5441 0.5429 0.5417 0.5407
2561.000000 0.5396 0.5386 0.5376 0.5366 0.5356
2566.000000 0.5346 0.5339 0.5336 0.5333 0.5329
2571.000000 0.5326 0.5323 0.5320 0.5317 0.5313
2576.000000 0.5310 0.5307 0.5304 0.5302 0.5299
2581.000000 0.5297 0.5295 0.5293 0.5291 0.5289
2586.000000 0.5287 0.5285 0.5283 0.5281 0.5279
2591.000000 0.5277 0.5275 0.5273 0.5271 0.5269
2596.000000 0.5268 0.5267 0.5266 0.5266 0.5266
2601.000000 0.5267 0.5268 0.5269 0.5269 0.5270
2606.000000 0.5271 0.5272 0.5272 0.5273 0.5274
2611.000000 0.5274 0.5274 0.5274 0.5274 0.5274
2616.000000 0.5275 0.5275 0.5275 0.5275 0.5275
2621.000000 0.5275 0.5275 0.5275 0.5276 0.5276
2626.000000 0.5276 0.5271 0.5266 0.5260 0.5255
2631.000000 0.5249 0.5243 0.5238 0.5232 0.5228
2636.000000 0.5225 0.5221 0.5219 0.5217 0.5215
2641.000000 0.5214 0.5213 0.5211 0.5211 0.5211
2646.000000 0.5211 0.5212 0.5212 0.5213 0.5214
2651.000000 0.5214 0.5215 0.5216 0.5217 0.5219
2656.000000 0.5221 0.5223 0.5227 0.5230 0.5234
2661.000000 0.5238 0.5241 0.5244 0.5248 0.5251
2666.000000 0.5255 0.5260 0.5265 0.5273 0.5280
2671.000000 0.5288 0.5296 0.5304 0.5312 0.5320
2676.000000 0.5327 0.5336 0.5346 0.5355 0.5366
2681.000000 0.5377 0.5389 0.5400 0.5411 0.5422
2686.000000 0.5433 0.5445 0.5456 0.5465 0.5475
2691.000000 0.5484 0.5493 0.5502 0.5511 0.5520
2696.000000 0.5529 0.5539 0.5548 0.5557 0.5565
2701.000000 0.5574 0.5583 0.5592 0.5598 0.5605
2706.000000 0.5612 0.5619 0.5626 0.5633 0.5639
2711.000000 0.5646 0.5652 0.5658 0.5664 0.5668
2716.000000 0.5670 0.5672 0.5674 0.5675 0.5677
2721.000000 0.5679 0.5680 0.5682 0.5684 0.5686
2726.000000 0.5688 0.5688 0.5687 0.5687 0.5686
2731.000000 0.5685 0.5684 0.5680 0.5675 0.5671
2736.000000 0.5665 0.5658 0.5652 0.5646 0.5639
2741.000000 0.5633 0.5623 0.5612 0.5601 0.5590
2746.000000 0.5578 0.5566 0.5555 0.5544 0.5533
2751.000000 0.5517 0.5500 0.5483 0.5466 0.5449
2756.000000 0.5432 0.5411 0.5388 0.5365 0.5341
2761.000000 0.5316 0.5291 0.5257 0.5216 0.5175
2766.000000 0.5131 0.5086 0.5041 0.5001 0.4967
2771.000000 0.4933 0.4902 0.4874 0.4846 0.4818
2776.000000 0.4790 0.4762 0.4721 0.4635 0.4548
2781.000000 0.4464 0.4396 0.4328 0.4259 0.4170
2786.000000 0.4080 0.3991 0.3901 0.3811 0.3722
2791.000000 0.3632 0.3543 0.3454 0.3365 0.3276
2796.000000 0.3187 0.3098 0.3009 0.2921 0.2832
2801.000000 0.2743 0.2654 0.2565 0.2477 0.2388
2806.000000 0.2300 0.2212 0.2124 0.2035 0.1948
2811.000000 0.1860 0.1772 0.1683 0.1595 0.1507
2816.000000 0.1420 0.1332 0.1244 0.1157 0.1069
2821.000000 0.0982 0.0895 0.0807 0.0720 0.0641
2826.000000 0.0614 0.0588 0.0562 0.0551 0.0542
2831.000000 0.0532 0.0529 0.0529 0.0529 0.0529
2836.000000 0.0531 0.0533 0.0535 0.0536 0.0537
2841.000000 0.0539 0.0539 0.0539 0.0539 0.0540
2846.000000 0.0540 0.0540 0.0541 0.0541 0.0541
2851.000000 0.0540 0.0536 0.0533 0.0528 0.0519
2856.000000 0.0509 0.0500 0.0490 0.0480 0.0471
2861.000000 0.0461 0.0451 0.0440 0.0430 0.0420
2866.000000 0.0410 0.0399 0.0388 0.0377 0.0366
2871.000000 0.0355 0.0343 0.0331 0.0320 0.0309
2876.000000 0.0298 0.0288 0.0281 0.0274 0.0268
2881.000000 0.0261 0.0254 0.0247 0.0242 0.0239
2886.000000 0.0236 0.0233 0.0231 0.0230 0.0228
2891.000000 0.0228 0.0228 0.0228 0.0228 0.0230
2896.000000 0.0232 0.0234 0.0236 0.0237 0.0239
2901.000000 0.0242 0.0244 0.0247 0.0250 0.0254
2906.000000 0.0258 0.0263 0.0267 0.0271 0.0275
2911.000000 0.0280 0.0284 0.0289 0.0294 0.0301
2916.000000 0.0308 0.0314 0.0321 0.0328 0.0335
2921.000000 0.0343 0.0352 0.0362 0.0372 0.0385
2926.000000 0.0398 0.0410 0.0434 0.0465 0.0496
2931.000000 0.0531 0.0585 0.0639 0.0693 0.0735
2936.000000 0.0773 0.0810 0.0865 0.0961 0.1058
2941.000000 0.1154 0.1252 0.1349 0.1447 0.1545
2946.000000 0.1642 0.1740 0.1837 0.1935 0.2032
2951.000000 0.2130 0.2227 0.2324 0.2421 0.2518
2956.000000 0.2614 0.2711 0.2808 0.2905 0.3002
2961.000000 0.3099 0.3195 0.3332 0.3473 0.3614
2966.000000 0.3710 0.3739 0.3767 0.3796 0.3898
2971.000000 0.4009 0.4121 0.4211 0.4262 0.4312
2976.000000 0.4363 0.4390 0.4411 0.4433 0.4452
2981.000000 0.4464 0.4476 0.4488 0.4500 0.4512
2986.000000 0.4523 0.4535 0.4547 0.4559 0.4570
2991.000000 0.4582 0.4594 0.4606 0.4617 0.4629
2996.000000 0.4641 0.4653 0.4665 0.4676 0.4687
3001.000000 0.4698 0.4709 0.4720 0.4732 0.4743
3006.000000 0.4753 0.4764 0.4775 0.4786 0.4797
3011.000000 0.4808 0.4819 0.4830 0.4840 0.4851
3016.000000 0.4862 0.4873 0.4884 0.4895 0.4908
3021.000000 0.4922 0.4936 0.4950 0.4966 0.4982
3026.000000 0.4997 0.5013 0.5029 0.5046 0.5062
3031.000000 0.5077 0.5093 0.5109 0.5125 0.5140
3036.000000 0.5156 0.5171 0.5185 0.5196 0.5207
3041.000000 0.5218 0.5230 0.5241 0.5252 0.5264
3046.000000 0.5275 0.5286 0.5297 0.5308 0.5319
3051.000000 0.5330 0.5341 0.5352 0.5363 0.5374
3056.000000 0.5385 0.5395 0.5404 0.5414 0.5424
3061.000000 0.5430 0.5436 0.5443 0.5449 0.5455
3066.000000 0.5461 0.5468 0.5474 0.5480 0.5487
3071.000000 0.5493 0.5499 0.5505 0.5511 0.5517
3076.000000 0.5524 0.5530 0.5536 0.5542 0.5547
3081.000000 0.5552 0.5557 0.5561 0.5565 0.5569
3086.000000 0.5573 0.5575 0.5577 0.5578 0.5579
3091.000000 0.5579 0.5578 0.5577 0.5577 0.5571
3096.000000 0.5575 0.5574 0.5573 0.5573 0.5572
3101.000000 0.5571 0.5570 0.5569 0.5567 0.5565
3106.000000 0.5564 0.5562 0.5561 0.5559 0.5558
3111.000000 0.5556 0.5555 0.5553 0.5551 0.5548
3116.000000 0.5546 0.5543 0.5540 0.5538 0.5535
3121.000000 0.5533 0.5530 0.5528 0.5525 0.5523
3126.000000 0.5520 0.5517 0.5515 0.5512 0.5511
3131.000000 0.5509 0.5508 0.5506 0.5505 0.5504
3136.000000 0.5502 0.5501 0.5500 0.5498 0.5497
3141.000000 0.5495 0.5494 0.5493 0.5491 0.5490
3146.000000 0.5488 0.5487 0.5485 0.5484 0.5483
3151.000000 0.5482 0.5481 0.5480 0.5480 0.5479
3156.000000 0.5479 0.5478 0.5478 0.5477 0.5477
3161.000000 0.5476 0.5476 0.5475 0.5475 0.5474
3166.000000 0.5474 0.5473 0.5473 0.5473 0.5473
3171.000000 0.5473 0.5473 0.5473 0.5473 0.5473
3176.000000 0.5473 0.5474 0.5474 0.5474 0.5474
3181.000000 0.5474 0.5474 0.5475 0.5475 0.5476
3186.000000 0.5476 0.5476 0.5476 0.5477 0.5477
3191.000000 0.5478 0.5478 0.5479 0.5479 0.5480
3196.000000 0.5480 0.5481 0.5481 0.5482 0.5482
3201.000000 0.5482 0.5484 0.5485 0.5486 0.5487
3206.000000 0.5489 0.5490 0.5491 0.5492 0.5494
3211.000000 0.5495 0.5497 0.5498 0.5499 0.5500
3216.000000 0.5502 0.5503 0.5504 0.5505 0.5507
3221.000000 0.5508 0.5509 0.5510 0.5511 0.5513
3226.000000 0.5514 0.5515 0.5516 0.5517 0.5518
3231.000000 0.5518 0.5518 0.5517 0.5517 0.5514
3236.000000 0.5512 0.5510 0.5507 0.5505 0.5503
3241.000000 0.5500 0.5498 0.5496 0.5493 0.5491
3246.000000 0.5489 0.5487 0.5485 0.5482 0.5480
3251.000000 0.5477 0.5475 0.5473 0.5470 0.5468
3256.000000 0.5466 0.5463 0.5461 0.5459 0.5456
3261.000000 0.5454 0.5452 0.5450 0.5448 0.5446
3266.000000 0.5444 0.5442 0.5439 0.5437 0.5435
3271.000000 0.5432 0.5430 0.5428 0.5426 0.5424
3276.000000 0.5422 0.5420 0.5417 0.5415 0.5413
3281.000000 0.5411 0.5409 0.5407 0.5405 0.5403
3286.000000 0.5401 0.5400 0.5399 0.5397 0.5396
3291.000000 0.5395 0.5394 0.5392 0.5391 0.5390
3296.000000 0.5389 0.5389 0.5388 0.5387 0.5386
3301.000000 0.5385 0.5384 0.5383 0.5382 0.5381
3306.000000 0.5380 0.5378 0.5377 0.5377 0.5376
3311.000000 0.5375 0.5374 0.5373 0.5372 0.5371
3316.000000 0.5370 0.5369 0.5368 0.5367 0.5366
3321.000000 0.5365 0.5364 0.5363 0.5362 0.5361
3326.000000 0.5360 0.5359 0.5358 0.5358 0.5358
3331.000000 0.5359 0.5360 0.5360 0.5362 0.5363
3336.000000 0.5365 0.5366 0.5368 0.5369 0.5371
3341.000000 0.5373 0.5374 0.5376 0.5377 0.5378
3346.000000 0.5380 0.5381 0.5382 0.5384 0.5385
3351.000000 0.5386 0.5388 0.5389 0.5390 0.5392
3356.000000 0.5393 0.5394 0.5395 0.5396 0.5397
3361.000000 0.5399 0.5400 0.5401 0.5403 0.5404
3366.000000 0.5405 0.5406 0.5408 0.5409 0.5410
3371.000000 0.5411 0.5412 0.5414 0.5415 0.5416
3376.000000 0.5417 0.5419 0.5420 0.5421 0.5423
3381.000000 0.5424 0.5425 0.5427 0.5428 0.5429
3386.000000 0.5430 0.5431 0.5432 0.5433 0.5435
3391.000000 0.5436 0.5437 0.5438 0.5440 0.5441
3396.000000 0.5442 0.5443 0.5444 0.5445 0.5447
3401.000000 0.5448 0.5449 0.5450 0.5451 0.5452
3406.000000 0.5454 0.5455 0.5456 0.5457 0.5459
3411.000000 0.5460 0.5461 0.5462 0.5463 0.5464
3416.000000 0.5465 0.5467 0.5468 0.5469 0.5471
3421.000000 0.5472 0.5473 0.5474 0.5475 0.5476
3426.000000 0.5477 0.5478 0.5480 0.5481 0.5482
3431.000000 0.5483 0.5484 0.5485 0.5485 0.5486
3436.000000 0.5487 0.5487 0.5488 0.5489 0.5489
3441.000000 0.5490 0.5491 0.5491 0.5492 0.5493
3446.000000 0.5494 0.5494 0.5495 0.5496 0.5497
3451.000000 0.5497 0.5498 0.5498 0.5499 0.5500
3456.000000 0.5500 0.5501 0.5502 0.5502 0.5503
3461.000000 0.5504 0.5505 0.5506 0.5506 0.5507
3466.000000 0.5508 0.5508 0.5509 0.5509 0.5510
3471.000000 0.5511 0.5511 0.5512 0.5513 0.5514
3476.000000 0.5515 0.5515 0.5516 0.5517 0.5517
3481.000000 0.5518 0.5519 0.5519 0.5519 0.5520
3486.000000 0.5520 0.5521 0.5521 0.5522 0.5523
3491.000000 0.5523 0.5524 0.5524 0.5524 0.5525
3496.000000 0.5525 0.5526 0.5526 0.5527 0.5528
3501.000000 0.5528 0.5529 0.5529 0.5530 0.5530
3506.000000 0.5530 0.5531 0.5531 0.5532 0.5532
3511.000000 0.5532 0.5533 0.5534 0.5534 0.5535
3516.000000 0.5535 0.5536 0.5536 0.5537 0.5537
3521.000000 0.5537 0.5538 0.5539 0.5539 0.5540
3526.000000 0.5540 0.5541 0.5541 0.5542 0.5542
3531.000000 0.5542 0.5543 0.5543 0.5544 0.5544
3536.000000 0.5544 0.5545 0.5546 0.5546 0.5547
3541.000000 0.5547 0.5548 0.5548 0.5549 0.5549
3546.000000 0.5549 0.5550 0.5550 0.5551 0.5551
3551.000000 0.5551 0.5552 0.5552 0.5552 0.5552
3556.000000 0.5552 0.5552 0.5552 0.5552 0.5552
3561.000000 0.5552 0.5552 0.5552 0.5552 0.5552
3566.000000 0.5552 0.5552 0.5552 0.5552 0.5552
3571.000000 0.5552 0.5552 0.5552 0.5552 0.5552
3576.000000 0.5552 0.5552 0.5552 0.5552 0.5552
3581.000000 0.5552 0.5552 0.5552 0.5552 0.5552
3586.000000 0.5552 0.5551 0.5551 0.5551 0.5550
3591.000000 0.5550 0.5549 0.5549 0.5549 0.5548
3596.000000 0.5548 0.5548 0.5547 0.5547 0.5547
3601.000000 0.5547 0.5547 0.5546 0.5546 0.5545
3606.000000 0.5545 0.5545 0.5544 0.5544 0.5544
3611.000000 0.5543 0.5543 0.5542 0.5542 0.5542
3616.000000 0.5541 0.5541 0.5540 0.5540 0.5540
3621.000000 0.5540 0.5540 0.5540 0.5539 0.5537
3626.000000 0.5536 0.5535 0.5534 0.5533 0.5531
3631.000000 0.5530 0.5529 0.5527 0.5526 0.5525
3636.000000 0.5524 0.5523 0.5522 0.5521 0.5519
3641.000000 0.5518 0.5517 0.5516 0.5515 0.5514
3646.000000 0.5513 0.5511 0.5510 0.5509 0.5508
3651.000000 0.5507 0.5505 0.5504 0.5503 0.5501
3656.000000 0.5500 0.5499 0.5498 0.5497 0.5496
3661.000000 0.5495 0.5494 0.5493 0.5491 0.5490
3666.000000 0.5489 0.5488 0.5487 0.5486 0.5485
3671.000000 0.5484 0.5482 0.5481 0.5480 0.5479
3676.000000 0.5478 0.5477 0.5476 0.5474 0.5473
3681.000000 0.5472 0.5470 0.5469 0.5468 0.5467
3686.000000 0.5466 0.5465 0.5464 0.5463 0.5462
3691.000000 0.5460 0.5459 0.5458 0.5457 0.5456
3696.000000 0.5455 0.5454 0.5453 0.5452 0.5450
3701.000000 0.5449 0.5448 0.5446 0.5445 0.5444
3706.000000 0.5443 0.5442 0.5441 0.5440 0.5439
3711.000000 0.5438 0.5436 0.5435 0.5434 0.5433
3716.000000 0.5432 0.5431 0.5430 0.5429 0.5428
3721.000000 0.5426 0.5425 0.5424 0.5422 0.5421
3726.000000 0.5419 0.5417 0.5415 0.5413 0.5410
3731.000000 0.5408 0.5406 0.5404 0.5402 0.5400
3736.000000 0.5397 0.5395 0.5393 0.5391 0.5389
3741.000000 0.5387 0.5385 0.5382 0.5380 0.5378
3746.000000 0.5376 0.5374 0.5372 0.5370 0.5368
3751.000000 0.5365 0.5363 0.5361 0.5359 0.5357
3756.000000 0.5355 0.5353 0.5350 0.5348 0.5346
3761.000000 0.5344 0.5342 0.5340 0.5338 0.5336
3766.000000 0.5332 0.5329 0.5326 0.5322 0.5319
3771.000000 0.5315 0.5312 0.5308 0.5304 0.5300
3776.000000 0.5296 0.5292 0.5289 0.5285 0.5281
3781.000000 0.5278 0.5274 0.5270 0.5267 0.5263
3786.000000 0.5259 0.5256 0.5253 0.5253 0.5253
3791.000000 0.5253 0.5253 0.5253 0.5254 0.5254
3796.000000 0.5254 0.5254 0.5254 0.5254 0.5254
3801.000000 0.5254 0.5254 0.5254 0.5254 0.5254
3806.000000 0.5254 0.5254 0.5254 0.5254 0.5254
3811.000000 0.5255 0.5255 0.5255 0.5255 0.5255
3816.000000 0.5255 0.5255 0.5256 0.5256 0.5257
3821.000000 0.5258 0.5259 0.5260 0.5261 0.5262
3826.000000 0.5262 0.5263 0.5264 0.5265 0.5266
3831.000000 0.5267 0.5267 0.5268 0.5269 0.5270
3836.000000 0.5271 0.5272 0.5273 0.5273 0.5274
3841.000000 0.5275 0.5276 0.5277 0.5278 0.5279
3846.000000 0.5279 0.5280 0.5281 0.5282 0.5283
3851.000000 0.5284 0.5284 0.5285 0.5286 0.5287
3856.000000 0.5288 0.5289 0.5289 0.5290 0.5291
3861.000000 0.5292 0.5293 0.5294 0.5295 0.5295
3866.000000 0.5295 0.5296 0.5296 0.5296 0.5296
3871.000000 0.5296 0.5296 0.5296 0.5296 0.5296
3876.000000 0.5295 0.5295 0.5295 0.5295 0.5295
3881.000000 0.5295 0.5294 0.5294 0.5294 0.5294
3886.000000 0.5294 0.5294 0.5294 0.5293 0.5293
3891.000000 0.5293 0.5293 0.5293 0.5293 0.5292
3896.000000 0.5292 0.5291 0.5291 0.5290 0.5290
3901.000000 0.5289 0.5287 0.5286 0.5285 0.5284
3906.000000 0.5283 0.5282 0.5280 0.5279 0.5278
3911.000000 0.5276 0.5275 0.5274 0.5272 0.5271
3916.000000 0.5270 0.5268 0.5267 0.5266 0.5265
3921.000000 0.5263 0.5262 0.5261 0.5259 0.5258
3926.000000 0.5257 0.5255 0.5254 0.5253 0.5252
3931.000000 0.5250 0.5248 0.5246 0.5244 0.5242
3936.000000 0.5240 0.5239 0.5237 0.5235 0.5233
3941.000000 0.5231 0.5230 0.5228 0.5226 0.5224
3946.000000 0.5222 0.5220 0.5218 0.5216 0.5215
3951.000000 0.5213 0.5211 0.5209 0.5207 0.5206
3956.000000 0.5204 0.5202 0.5200 0.5198 0.5196
3961.000000 0.5194 0.5192 0.5191 0.5189 0.5187
3966.000000 0.5185 0.5183 0.5181 0.5179 0.5177
3971.000000 0.5176 0.5174 0.5172 0.5170 0.5169
3976.000000 0.5167 0.5165 0.5163 0.5161 0.5159
3981.000000 0.5157 0.5156 0.5154 0.5152 0.5150
3986.000000 0.5149 0.5147 0.5145 0.5143 0.5141
3991.000000 0.5139 0.5138 0.5136 0.5134 0.5132
3996.000000 0.5130 0.5129 0.5127 0.5125 0.5124
##END=
