##TITLE=4-ImidazoleCarboxylic acid, 5-amino-, butyl ester, monohydrochloride
##JCAMP-DX=4.24
##DATA TYPE=INFRARED SPECTRUM
##CLASS=COBLENTZ III
##ORIGIN=SOUTHERN RESEARCH INSTITUTE
##OWNER=Copyright (C) 1987 by the Coblentz Society
Collection (C) 2018 copyright by the U.S. Secretary of Commerce
on behalf of the United States of America. All rights reserved.
##DATE=1967/05/09
##NAMES=butyl 5-amino-1H-imidazole-4-carboxylate hydrochloride
##MOLFORM=C8 H14 Cl N3 O2
##SOURCE REFERENCE=COBLENTZ NO. 8205
##$NIST ID=B6008205
##$NIST SOURCE=COBLENTZ
##$NIST IMAGE=cob8205
##SPECTROMETER/DATA SYSTEM=PERKIN-ELMER 521 (GRATING)
##INSTRUMENT PARAMETERS=FILTERS AT 3130, 2475, 2000, 1150, 700, 410. GRATING CHANGES: 2000, 630 CM^-^1
##STATE=SOLID (1 mg / 650 mg KBr DISC)
##SAMPLING PROCEDURE=TRANSMISSION
##RESOLUTION=2
##DATA PROCESSING=DIGITIZED BY COBLENTZ SOCIETY (BATCH II) FROM HARD COPY (ADJUSTED \addcm-1\10-8-2\)
##XUNITS=1/CM
##YUNITS=TRANSMITTANCE
##XFACTOR=1.0
##YFACTOR=1
##DELTAX=1.003199
##FIRSTX=250
##LASTX=4012
##FIRSTY=0.3242
##MAXX=4012
##MINX=250
##MAXY=0.8819
##MINY=0.00545838
##NPOINTS=3751
##XYDATA=(X++(Y..Y))
250.000000 0.3242 0.3321 0.3399 0.3478 0.3556
255.015996 0.3634 0.3713 0.3792 0.3870 0.3948
260.031991 0.4026 0.4097 0.4151 0.4203 0.4245
265.047987 0.4288 0.4332 0.4377 0.4424 0.4469
270.063983 0.4518 0.4572 0.4624 0.4668 0.4704
275.079979 0.4741 0.4778 0.4815 0.4845 0.4874
280.095974 0.4902 0.4931 0.4960 0.4990 0.5024
285.111970 0.5059 0.5095 0.5131 0.5167 0.5198
290.127966 0.5229 0.5259 0.5286 0.5295 0.5305
295.143962 0.5308 0.5298 0.5289 0.5279 0.5268
300.159957 0.5248 0.5225 0.5190 0.5134 0.5064
305.175953 0.4981 0.4899 0.4819 0.4752 0.4691
310.191949 0.4641 0.4611 0.4612 0.4620 0.4636
315.207945 0.4677 0.4781 0.4894 0.5008 0.5122
320.223940 0.5235 0.5349 0.5462 0.5575 0.5689
325.239936 0.5803 0.5916 0.6030 0.6143 0.6257
330.255932 0.6367 0.6460 0.6550 0.6690 0.6877
335.271927 0.6944 0.6968 0.6989 0.7006 0.7019
340.287923 0.7017 0.7020 0.7018 0.7012 0.7002
345.303919 0.6990 0.6977 0.6958 0.6926 0.6882
350.319915 0.6831 0.6776 0.6678 0.6536 0.6448
355.335910 0.6353 0.6243 0.6124 0.6001 0.5878
360.351906 0.5756 0.5633 0.5516 0.5448 0.5452
365.367902 0.5458 0.5527 0.5701 0.5876 0.6051
370.383898 0.6226 0.6400 0.6575 0.6750 0.6925
375.399893 0.7100 0.7274 0.7449 0.7588 0.7645
380.415889 0.7653 0.7632 0.7618 0.7642 0.7630
385.431885 0.7610 0.7576 0.7540 0.7521 0.7511
390.447881 0.7505 0.7502 0.7500 0.7498 0.7497
395.463876 0.7495 0.7493 0.7491 0.7487 0.7483
400.479872 0.7480 0.7476 0.7472 0.7467 0.7459
405.495868 0.7452 0.7444 0.7436 0.7428 0.7419
410.511864 0.7406 0.7392 0.7378 0.7363 0.7349
415.527859 0.7332 0.7314 0.7295 0.7276 0.7256
420.543855 0.7233 0.7211 0.7188 0.7166 0.7143
425.559851 0.7121 0.7099 0.7078 0.7057 0.7037
430.575846 0.7016 0.6999 0.6987 0.6976 0.6966
435.591842 0.6954 0.6943 0.6932 0.6917 0.6901
440.607838 0.6885 0.6869 0.6852 0.6829 0.6801
445.623834 0.6774 0.6745 0.6712 0.6673 0.6634
450.639829 0.6595 0.6555 0.6510 0.6462 0.6414
455.655825 0.6366 0.6317 0.6269 0.6220 0.6171
460.671821 0.6123 0.6074 0.6027 0.5981 0.5935
465.687817 0.5889 0.5843 0.5797 0.5751 0.5698
470.703812 0.5641 0.5584 0.5528 0.5471 0.5414
475.719808 0.5354 0.5293 0.5232 0.5171 0.5109
480.735804 0.5041 0.4950 0.4853 0.4756 0.4675
485.751800 0.4605 0.4537 0.4469 0.4409 0.4350
490.767795 0.4291 0.4242 0.4206 0.4187 0.4178
495.783791 0.4175 0.4158 0.4170 0.4180 0.4189
500.799787 0.4205 0.4223 0.4244 0.4274 0.4312
505.815782 0.4367 0.4430 0.4512 0.4576 0.4594
510.831778 0.4603 0.4607 0.4610 0.4618 0.4649
515.847774 0.4722 0.4801 0.4881 0.4961 0.5041
520.863770 0.5120 0.5200 0.5281 0.5360 0.5440
525.879765 0.5520 0.5600 0.5679 0.5759 0.5825
530.895761 0.5859 0.5886 0.5893 0.5897 0.5901
535.911757 0.5896 0.5890 0.5883 0.5867 0.5850
540.927753 0.5802 0.5700 0.5596 0.5491 0.5385
545.943748 0.5281 0.5176 0.5070 0.4966 0.4861
550.959744 0.4762 0.4774 0.4916 0.5147 0.5381
555.975740 0.5615 0.5849 0.6083 0.6191 0.6235
560.991736 0.6267 0.6298 0.6330 0.6361 0.6403
566.007731 0.6447 0.6491 0.6534 0.6574 0.6615
571.023727 0.6655 0.6696 0.6730 0.6764 0.6798
576.039723 0.6832 0.6865 0.6901 0.6940 0.6979
581.055718 0.7018 0.7057 0.7096 0.7135 0.7167
586.071714 0.7198 0.7227 0.7228 0.7228 0.7222
591.087710 0.7214 0.7191 0.7162 0.7132 0.7088
596.103706 0.7039 0.6984 0.6903 0.6824 0.6750
601.119701 0.6677 0.6584 0.6294 0.5976 0.5658
606.135697 0.5341 0.5023 0.4704 0.4387 0.4077
611.151693 0.4032 0.4005 0.4253 0.4849 0.5446
616.167689 0.6042 0.6638 0.7143 0.7240 0.7288
621.183684 0.7346 0.7421 0.7476 0.7523 0.7568
626.199680 0.7600 0.7628 0.7655 0.7681 0.7707
631.215676 0.7731 0.7753 0.7773 0.7802 0.7844
636.231672 0.7888 0.7922 0.7954 0.7975 0.7985
641.247667 0.7993 0.7998 0.8002 0.8006 0.8011
646.263663 0.8016 0.8022 0.8027 0.8033 0.8036
651.279659 0.8039 0.8041 0.8045 0.8046 0.8036
656.295654 0.8022 0.8008 0.7999 0.7992 0.7989
661.311650 0.7994 0.8001 0.8009 0.8016 0.8024
666.327646 0.8030 0.8026 0.8017 0.8007 0.7998
671.343642 0.7988 0.7979 0.7969 0.7959 0.7948
676.359637 0.7936 0.7924 0.7913 0.7902 0.7891
681.375633 0.7881 0.7871 0.7860 0.7846 0.7829
686.391629 0.7811 0.7794 0.7776 0.7759 0.7739
691.407625 0.7715 0.7690 0.7666 0.7642 0.7617
696.423620 0.7592 0.7568 0.7544 0.7520 0.7496
701.439616 0.7470 0.7439 0.7401 0.7309 0.7095
706.455612 0.6881 0.6668 0.6454 0.6241 0.6028
711.471608 0.5814 0.5625 0.5590 0.5620 0.5736
716.487603 0.6155 0.6573 0.6992 0.7410 0.7816
721.503599 0.8029 0.8013 0.8007 0.7999 0.7989
726.519595 0.7969 0.7934 0.7884 0.7813 0.7738
731.535591 0.7715 0.7692 0.7672 0.7659 0.7641
736.551586 0.7614 0.7586 0.7553 0.7509 0.7466
741.567582 0.7425 0.7383 0.7343 0.7303 0.7265
746.583578 0.7234 0.7209 0.7185 0.7162 0.7139
751.599573 0.7116 0.7095 0.7074 0.7052 0.6859
756.615569 0.6458 0.6009 0.5560 0.5110 0.4661
761.631565 0.4212 0.4010 0.4000 0.5177 0.6591
766.647561 0.7008 0.6991 0.6924 0.6835 0.6746
771.663556 0.6657 0.6569 0.6531 0.6564 0.6677
776.679552 0.6828 0.6980 0.7060 0.7067 0.7061
781.695548 0.7054 0.7036 0.7008 0.6968 0.6920
786.711544 0.6873 0.6821 0.6755 0.6695 0.6647
791.727539 0.6601 0.6554 0.6505 0.6456 0.6394
796.743535 0.6310 0.6218 0.6125 0.6032 0.5940
801.759531 0.5847 0.5755 0.5662 0.5569 0.5477
806.775527 0.5385 0.5292 0.5200 0.5107 0.5014
811.791522 0.4924 0.4850 0.4801 0.4764 0.4742
816.807518 0.4732 0.4740 0.4745 0.4752 0.4766
821.823514 0.4797 0.4840 0.4892 0.4965 0.5017
826.839509 0.5057 0.5094 0.5119 0.5139 0.5097
831.855505 0.5088 0.5073 0.5049 0.5015 0.4961
836.871501 0.4873 0.4777 0.4726 0.4675 0.4625
841.887497 0.4574 0.4523 0.4466 0.4430 0.4432
846.903492 0.4432 0.4434 0.4439 0.4446 0.4486
851.919488 0.4648 0.4819 0.4988 0.5157 0.5326
856.935484 0.5496 0.5665 0.5834 0.6003 0.6172
861.951480 0.6341 0.6511 0.6682 0.6813 0.6893
866.967475 0.6923 0.6936 0.6937 0.6934 0.6928
871.983471 0.6919 0.6911 0.6902 0.6893 0.6880
876.999467 0.6866 0.6847 0.6824 0.6796 0.6759
882.015463 0.6711 0.6648 0.6574 0.6501 0.6430
887.031458 0.6359 0.6288 0.6217 0.6143 0.6062
892.047454 0.5979 0.5881 0.5737 0.5593 0.5448
897.063450 0.5304 0.5160 0.4989 0.4734 0.4744
902.079445 0.4722 0.4742 0.4852 0.5045 0.5238
907.095441 0.5429 0.5622 0.5814 0.6006 0.6198
912.111437 0.6253 0.6224 0.6213 0.6098 0.5977
917.127433 0.5857 0.5736 0.5616 0.5495 0.5375
922.143428 0.5254 0.5134 0.5013 0.4893 0.4773
927.159424 0.4652 0.4532 0.4411 0.4291 0.4170
932.175420 0.4050 0.3929 0.3809 0.3608 0.3532
937.191416 0.3531 0.3531 0.3644 0.3877 0.4145
942.207411 0.4412 0.4678 0.4945 0.5212 0.5479
947.223407 0.5746 0.6013 0.6280 0.6469 0.6525
952.239403 0.6516 0.6480 0.6422 0.6363 0.6305
957.255399 0.6254 0.6234 0.6267 0.6379 0.6554
962.271394 0.6696 0.6763 0.6804 0.6844 0.6878
967.287390 0.6906 0.6931 0.6966 0.7007 0.6980
972.303386 0.6987 0.6981 0.6968 0.6944 0.6911
977.319381 0.6867 0.6815 0.6755 0.6657 0.6541
982.335377 0.6424 0.6308 0.6192 0.6077 0.5995
987.351373 0.5992 0.5992 0.6003 0.6075 0.6146
992.367369 0.6217 0.6289 0.6360 0.6411 0.6411
997.383364 0.6406 0.6402 0.6396 0.6389 0.6379
1002.399360 0.6368 0.6348 0.6325 0.6302 0.6278
1007.415356 0.6256 0.6240 0.6226 0.6213 0.6200
1012.431352 0.6187 0.6177 0.6171 0.6165 0.6159
1017.447347 0.6153 0.6148 0.6143 0.6140 0.6136
1022.463343 0.6132 0.6129 0.6127 0.6126 0.6124
1027.479339 0.6123 0.6121 0.6120 0.6119 0.6117
1032.495335 0.6114 0.6110 0.6105 0.6100 0.6095
1037.511330 0.6088 0.6076 0.6060 0.6045 0.6030
1042.527326 0.6014 0.5997 0.5975 0.5952 0.5928
1047.543322 0.5905 0.5882 0.5862 0.5842 0.5822
1052.559318 0.5802 0.5782 0.5762 0.5741 0.5720
1057.575313 0.5700 0.5680 0.5655 0.5660 0.5662
1062.591309 0.5685 0.5725 0.5798 0.5882 0.5941
1067.607305 0.6014 0.6098 0.6159 0.6162 0.6159
1072.623300 0.6153 0.6147 0.6139 0.6127 0.6114
1077.639296 0.6096 0.6077 0.6057 0.6035 0.6014
1082.655292 0.5990 0.5964 0.5937 0.5910 0.5880
1087.671288 0.5848 0.5815 0.5781 0.5742 0.5699
1092.687283 0.5655 0.5610 0.5564 0.5511 0.5456
1097.703279 0.5400 0.5332 0.5251 0.5154 0.5028
1102.719275 0.4897 0.4779 0.4665 0.4552 0.4438
1107.735271 0.4324 0.4211 0.4097 0.3984 0.3870
1112.751266 0.3772 0.3710 0.3675 0.3645 0.3612
1117.767262 0.3551 0.3437 0.3295 0.3152 0.3010
1122.783258 0.2867 0.2725 0.2583 0.2441 0.2299
1127.799254 0.2182 0.2144 0.2140 0.2135 0.2146
1132.815249 0.2176 0.2313 0.2471 0.2629 0.2788
1137.831245 0.2946 0.3105 0.3260 0.3321 0.3381
1142.847241 0.3431 0.3472 0.3506 0.3530 0.3559
1147.863236 0.3602 0.3649 0.3772 0.3818 0.3865
1152.879232 0.3893 0.3908 0.3923 0.3935 0.3935
1157.895228 0.3950 0.3935 0.3931 0.3925 0.3908
1162.911224 0.3886 0.3845 0.3742 0.3627 0.3512
1167.927219 0.3397 0.3282 0.3167 0.3053 0.2937
1172.943215 0.2822 0.2708 0.2592 0.2477 0.2363
1177.959211 0.2247 0.2209 0.2203 0.2207 0.2357
1182.975207 0.2614 0.2885 0.3155 0.3426 0.3696
1187.991202 0.3967 0.4237 0.4508 0.4779 0.5049
1193.007198 0.5320 0.5590 0.5861 0.6132 0.6402
1198.023194 0.6619 0.6739 0.6816 0.6898 0.6973
1203.039190 0.7011 0.7037 0.7058 0.7070 0.7073
1208.055185 0.7068 0.7061 0.7045 0.7024 0.6957
1213.071181 0.6781 0.6599 0.6418 0.6237 0.6056
1218.087177 0.5876 0.5695 0.5514 0.5333 0.5151
1223.103172 0.4970 0.4789 0.4608 0.4428 0.4247
1228.119168 0.4066 0.3885 0.3719 0.3752 0.3764
1233.135164 0.3973 0.4383 0.4794 0.5203 0.5613
1238.151160 0.6022 0.6432 0.6842 0.7252 0.7434
1243.167155 0.7486 0.7497 0.7510 0.7499 0.7493
1248.183151 0.7483 0.7469 0.7453 0.7417 0.7385
1253.199147 0.7351 0.7279 0.7198 0.7116 0.7035
1258.215143 0.6953 0.6893 0.6879 0.6911 0.7003
1263.231138 0.7114 0.7224 0.7336 0.7399 0.7411
1268.247134 0.7420 0.7411 0.7397 0.7389 0.7375
1273.263130 0.7358 0.7333 0.7302 0.7269 0.7235
1278.279126 0.7198 0.7159 0.7117 0.7066 0.7008
1283.295121 0.6948 0.6874 0.6781 0.6656 0.6513
1288.311117 0.6398 0.6283 0.6168 0.6055 0.5948
1293.327113 0.5843 0.5728 0.5515 0.5187 0.5036
1298.343109 0.4886 0.4735 0.4584 0.4433 0.4283
1303.359104 0.4132 0.3982 0.3830 0.3680 0.3529
1308.375100 0.3379 0.3228 0.3077 0.2926 0.2786
1313.391096 0.2737 0.2745 0.2788 0.2831 0.2864
1318.407091 0.2857 0.2743 0.2630 0.2518 0.2404
1323.423087 0.2291 0.2179 0.1852 0.1940 0.1851
1328.439083 0.1839 0.1835 0.2019 0.2283 0.2555
1333.455079 0.2827 0.3099 0.3371 0.3643 0.3914
1338.471074 0.4186 0.4458 0.4730 0.5002 0.5273
1343.487070 0.5544 0.5972 0.6077 0.6066 0.6063
1348.503066 0.6062 0.5936 0.5723 0.5495 0.5267
1353.519062 0.5039 0.4810 0.4582 0.4354 0.4126
1358.535057 0.3898 0.3670 0.3441 0.3212 0.2902
1363.551053 0.2733 0.2736 0.2748 0.3074 0.3659
1368.567049 0.4243 0.4828 0.5413 0.5854 0.6072
1373.583045 0.6238 0.6413 0.6632 0.6841 0.6989
1378.599040 0.7127 0.7219 0.7275 0.7326 0.7351
1383.615036 0.7316 0.7344 0.7264 0.7102 0.7031
1388.631032 0.6960 0.6889 0.6818 0.6753 0.6712
1393.647027 0.6680 0.6636 0.6577 0.6511 0.6445
1398.663023 0.6379 0.6313 0.6247 0.6135 0.6072
1403.679019 0.6071 0.6060 0.6062 0.6143 0.6312
1408.695015 0.6459 0.6519 0.6532 0.6435 0.6231
1413.711010 0.6038 0.5844 0.5652 0.5458 0.5265
1418.727006 0.5072 0.4879 0.4686 0.4493 0.4300
1423.743002 0.4107 0.3914 0.3720 0.3527 0.3334
1428.758998 0.3141 0.2948 0.2755 0.2546 0.2430
1433.774993 0.2433 0.2447 0.2543 0.2732 0.2931
1438.790989 0.3131 0.3330 0.3529 0.3729 0.3928
1443.806985 0.4127 0.4327 0.4526 0.4726 0.4904
1448.822981 0.5017 0.5009 0.4889 0.4738 0.4588
1453.838976 0.4437 0.4286 0.4135 0.3985 0.3758
1458.854972 0.3596 0.3659 0.4086 0.4770 0.5100
1463.870968 0.5150 0.5200 0.5251 0.5333 0.5764
1468.886963 0.6477 0.6947 0.7151 0.7236 0.7304
1473.902959 0.7349 0.7392 0.7435 0.7469 0.7492
1478.918955 0.7514 0.7548 0.7562 0.7544 0.7542
1483.934951 0.7534 0.7523 0.7512 0.7500 0.7488
1488.950946 0.7473 0.7454 0.7434 0.7414 0.7392
1493.966942 0.7364 0.7335 0.7306 0.7271 0.7229
1498.982938 0.7186 0.7143 0.7093 0.7035 0.6976
1503.998934 0.6918 0.6859 0.6795 0.6718 0.6636
1509.014929 0.6548 0.6450 0.6316 0.6095 0.5883
1514.030925 0.5758 0.5582 0.5339 0.5099 0.4861
1519.046921 0.4623 0.4385 0.4147 0.3908 0.3670
1524.062917 0.3328 0.3045 0.3048 0.3041 0.3113
1529.078912 0.3321 0.3593 0.3863 0.4134 0.4405
1534.094908 0.4573 0.4626 0.4744 0.4879 0.4990
1539.110904 0.5047 0.5058 0.5017 0.4923 0.4811
1544.126899 0.4698 0.4586 0.4473 0.4361 0.4215
1549.142895 0.4102 0.4114 0.4180 0.4358 0.4556
1554.158891 0.4754 0.4953 0.5152 0.5350 0.5548
1559.174887 0.5747 0.5945 0.6129 0.6239 0.6272
1564.190882 0.6283 0.6264 0.6260 0.6248 0.6229
1569.206878 0.6201 0.6161 0.6105 0.6038 0.5969
1574.222874 0.5883 0.5778 0.5673 0.5567 0.5461
1579.238870 0.5356 0.5254 0.5154 0.5044 0.4916
1584.254865 0.4777 0.4614 0.4449 0.4282 0.4116
1589.270861 0.3950 0.3784 0.3641 0.3558 0.3539
1594.286857 0.3608 0.3751 0.3894 0.4038 0.4182
1599.302853 0.4323 0.4417 0.4417 0.4408 0.4369
1604.318848 0.4256 0.4133 0.4010 0.3888 0.3765
1609.334844 0.3643 0.3520 0.3397 0.3274 0.3150
1614.350840 0.3027 0.2903 0.2780 0.2657 0.2533
1619.366836 0.2410 0.2290 0.2207 0.2177 0.2143
1624.382831 0.2088 0.1998 0.1898 0.1798 0.1697
1629.398827 0.1597 0.1497 0.1396 0.1296 0.1196
1634.414823 0.1096 0.0995 0.0895 0.0795 0.0696
1639.430818 0.0615 0.0556 0.0497 0.0456 0.0442
1644.446814 0.0431 0.0428 0.0439 0.0442 0.0445
1649.462810 0.0453 0.0467 0.0486 0.0515 0.0624
1654.478806 0.0811 0.0998 0.1186 0.1373 0.1560
1659.494801 0.1747 0.1934 0.2122 0.2309 0.2496
1664.510797 0.2684 0.2871 0.3058 0.3294 0.3401
1669.526793 0.3381 0.3342 0.3253 0.3159 0.3064
1674.542789 0.2969 0.2874 0.2779 0.2703 0.2669
1679.558784 0.2658 0.2649 0.2642 0.2635 0.2628
1684.574780 0.2607 0.2520 0.2393 0.2266 0.2139
1689.590776 0.2012 0.1885 0.1758 0.1631 0.1504
1694.606772 0.1377 0.1250 0.1123 0.0996 0.0869
1699.622767 0.0742 0.0679 0.0666 0.0656 0.0662
1704.638763 0.0678 0.0694 0.0712 0.0735 0.0771
1709.654759 0.0892 0.1055 0.1217 0.1380 0.1542
1714.670754 0.1705 0.1867 0.2030 0.2192 0.2355
1719.686750 0.2517 0.2680 0.2875 0.3017 0.3101
1724.702746 0.3242 0.3553 0.3722 0.3796 0.3866
1729.718742 0.3936 0.4220 0.4453 0.4594 0.4659
1734.734737 0.4702 0.4744 0.4786 0.4828 0.4870
1739.750733 0.4913 0.4956 0.5003 0.5060 0.5119
1744.766729 0.5179 0.5238 0.5305 0.5379 0.5455
1749.782725 0.5531 0.5603 0.5674 0.5744 0.5815
1754.798720 0.5880 0.5935 0.5988 0.6040 0.6093
1759.814716 0.6141 0.6184 0.6225 0.6266 0.6307
1764.830712 0.6348 0.6385 0.6421 0.6457 0.6494
1769.846708 0.6530 0.6567 0.6603 0.6640 0.6676
1774.862703 0.6712 0.6749 0.6782 0.6811 0.6840
1779.878699 0.6868 0.6896 0.6923 0.6950 0.6977
1784.894695 0.7004 0.7031 0.7058 0.7083 0.7106
1789.910690 0.7130 0.7153 0.7177 0.7201 0.7225
1794.926686 0.7250 0.7276 0.7302 0.7327 0.7353
1799.942682 0.7375 0.7395 0.7415 0.7435 0.7452
1804.958678 0.7467 0.7482 0.7497 0.7513 0.7528
1809.974673 0.7543 0.7558 0.7568 0.7577 0.7585
1814.990669 0.7594 0.7600 0.7603 0.7605 0.7608
1820.006665 0.7611 0.7611 0.7610 0.7610 0.7610
1825.022661 0.7609 0.7609 0.7609 0.7608 0.7607
1830.038656 0.7609 0.7603 0.7602 0.7600 0.7599
1835.054652 0.7597 0.7595 0.7594 0.7594 0.7593
1840.070648 0.7592 0.7592 0.7591 0.7590 0.7590
1845.086644 0.7589 0.7590 0.7591 0.7592 0.7593
1850.102639 0.7595 0.7605 0.7621 0.7637 0.7656
1855.118635 0.7682 0.7708 0.7734 0.7757 0.7779
1860.134631 0.7802 0.7824 0.7850 0.7875 0.7900
1865.150626 0.7924 0.7948 0.7972 0.7995 0.8018
1870.166622 0.8041 0.8065 0.8087 0.8109 0.8130
1875.182618 0.8152 0.8174 0.8195 0.8213 0.8228
1880.198614 0.8244 0.8259 0.8274 0.8290 0.8305
1885.214609 0.8320 0.8336 0.8352 0.8367 0.8380
1890.230605 0.8393 0.8407 0.8420 0.8433 0.8446
1895.246601 0.8460 0.8473 0.8486 0.8498 0.8510
1900.262597 0.8522 0.8534 0.8543 0.8551 0.8559
1905.278592 0.8567 0.8573 0.8579 0.8584 0.8589
1910.294588 0.8594 0.8599 0.8605 0.8609 0.8614
1915.310584 0.8618 0.8623 0.8628 0.8632 0.8637
1920.326580 0.8641 0.8645 0.8648 0.8651 0.8654
1925.342575 0.8658 0.8661 0.8664 0.8667 0.8670
1930.358571 0.8673 0.8674 0.8675 0.8676 0.8675
1935.374567 0.8674 0.8673 0.8673 0.8672 0.8671
1940.390563 0.8670 0.8669 0.8669 0.8668 0.8666
1945.406558 0.8663 0.8659 0.8656 0.8652 0.8650
1950.422554 0.8649 0.8650 0.8651 0.8652 0.8653
1955.438550 0.8654 0.8655 0.8656 0.8657 0.8659
1960.454545 0.8662 0.8666 0.8670 0.8674 0.8678
1965.470541 0.8682 0.8686 0.8690 0.8696 0.8702
1970.486537 0.8708 0.8714 0.8722 0.8729 0.8737
1975.502533 0.8743 0.8748 0.8753 0.8758 0.8763
1980.518528 0.8768 0.8773 0.8777 0.8782 0.8786
1985.534524 0.8790 0.8794 0.8798 0.8802 0.8806
1990.550520 0.8810 0.8814 0.8818 0.8819 0.8819
1995.566516 0.8817 0.8812 0.8806 0.8799 0.8792
2000.582511 0.8784 0.8777 0.8769 0.8760 0.8751
2005.598507 0.8741 0.8731 0.8722 0.8717 0.8714
2010.614503 0.8712 0.8712 0.8712 0.8733 0.8724
2015.630499 0.8710 0.8710 0.8711 0.8711 0.8711
2020.646494 0.8711 0.8711 0.8711 0.8710 0.8710
2025.662490 0.8709 0.8709 0.8708 0.8708 0.8707
2030.678486 0.8707 0.8706 0.8706 0.8705 0.8704
2035.694481 0.8703 0.8703 0.8702 0.8701 0.8700
2040.710477 0.8699 0.8699 0.8698 0.8697 0.8696
2045.726473 0.8696 0.8695 0.8694 0.8693 0.8693
2050.742469 0.8692 0.8691 0.8690 0.8690 0.8689
2055.758464 0.8688 0.8687 0.8687 0.8686 0.8685
2060.774460 0.8684 0.8682 0.8681 0.8679 0.8678
2065.790456 0.8676 0.8674 0.8673 0.8671 0.8670
2070.806452 0.8668 0.8667 0.8665 0.8664 0.8662
2075.822447 0.8660 0.8659 0.8657 0.8656 0.8654
2080.838443 0.8653 0.8651 0.8649 0.8647 0.8645
2085.854439 0.8643 0.8641 0.8639 0.8637 0.8635
2090.870435 0.8633 0.8631 0.8629 0.8627 0.8625
2095.886430 0.8623 0.8621 0.8619 0.8616 0.8613
2100.902426 0.8609 0.8606 0.8603 0.8600 0.8596
2105.918422 0.8593 0.8590 0.8586 0.8583 0.8580
2110.934417 0.8577 0.8573 0.8569 0.8565 0.8560
2115.950413 0.8556 0.8552 0.8548 0.8543 0.8539
2120.966409 0.8535 0.8531 0.8526 0.8522 0.8518
2125.982405 0.8514 0.8509 0.8505 0.8501 0.8497
2130.998400 0.8492 0.8488 0.8484 0.8479 0.8475
2136.014396 0.8471 0.8467 0.8463 0.8459 0.8454
2141.030392 0.8450 0.8446 0.8442 0.8438 0.8434
2146.046388 0.8430 0.8426 0.8422 0.8417 0.8412
2151.062383 0.8407 0.8401 0.8396 0.8391 0.8385
2156.078379 0.8380 0.8374 0.8369 0.8369 0.8369
2161.094375 0.8370 0.8371 0.8373 0.8375 0.8377
2166.110371 0.8378 0.8379 0.8380 0.8381 0.8382
2171.126366 0.8383 0.8382 0.8381 0.8380 0.8376
2176.142362 0.8373 0.8369 0.8366 0.8362 0.8358
2181.158358 0.8355 0.8351 0.8348 0.8344 0.8340
2186.174354 0.8335 0.8330 0.8326 0.8321 0.8317
2191.190349 0.8312 0.8308 0.8303 0.8299 0.8294
2196.206345 0.8289 0.8283 0.8278 0.8272 0.8267
2201.222341 0.8261 0.8256 0.8251 0.8245 0.8240
2206.238336 0.8234 0.8229 0.8222 0.8215 0.8208
2211.254332 0.8201 0.8194 0.8187 0.8180 0.8173
2216.270328 0.8166 0.8159 0.8151 0.8144 0.8137
2221.286324 0.8130 0.8123 0.8116 0.8109 0.8102
2226.302319 0.8095 0.8087 0.8080 0.8073 0.8064
2231.318315 0.8056 0.8048 0.8040 0.8032 0.8023
2236.334311 0.8015 0.8007 0.7999 0.7991 0.7983
2241.350307 0.7975 0.7966 0.7957 0.7948 0.7938
2246.366302 0.7929 0.7920 0.7911 0.7902 0.7892
2251.382298 0.7883 0.7873 0.7863 0.7852 0.7842
2256.398294 0.7831 0.7820 0.7809 0.7798 0.7787
2261.414290 0.7776 0.7765 0.7754 0.7744 0.7733
2266.430285 0.7721 0.7710 0.7699 0.7688 0.7676
2271.446281 0.7665 0.7653 0.7641 0.7629 0.7616
2276.462277 0.7603 0.7591 0.7578 0.7566 0.7554
2281.478272 0.7541 0.7529 0.7517 0.7505 0.7493
2286.494268 0.7480 0.7468 0.7456 0.7444 0.7434
2291.510264 0.7429 0.7427 0.7424 0.7421 0.7419
2296.526260 0.7416 0.7414 0.7411 0.7409 0.7406
2301.542255 0.7403 0.7401 0.7402 0.7405 0.7408
2306.558251 0.7412 0.7416 0.7420 0.7423 0.7422
2311.574247 0.7419 0.7416 0.7409 0.7400 0.7388
2316.590243 0.7374 0.7358 0.7343 0.7328 0.7312
2321.606238 0.7293 0.7274 0.7254 0.7235 0.7215
2326.622234 0.7196 0.7176 0.7158 0.7143 0.7127
2331.638230 0.7111 0.7096 0.7081 0.7065 0.7050
2336.654226 0.7036 0.7021 0.7007 0.6993 0.6979
2341.670221 0.6964 0.6950 0.6936 0.6922 0.6910
2346.686217 0.6899 0.6888 0.6877 0.6866 0.6855
2351.702213 0.6844 0.6835 0.6829 0.6826 0.6822
2356.718208 0.6818 0.6814 0.6811 0.6807 0.6804
2361.734204 0.6801 0.6799 0.6796 0.6794 0.6791
2366.750200 0.6788 0.6785 0.6783 0.6780 0.6778
2371.766196 0.6775 0.6772 0.6770 0.6767 0.6764
2376.782191 0.6761 0.6757 0.6752 0.6748 0.6744
2381.798187 0.6740 0.6735 0.6730 0.6725 0.6719
2386.814183 0.6708 0.6697 0.6685 0.6674 0.6663
2391.830179 0.6651 0.6640 0.6629 0.6617 0.6606
2396.846174 0.6594 0.6583 0.6572 0.6560 0.6549
2401.862170 0.6538 0.6525 0.6508 0.6492 0.6475
2406.878166 0.6458 0.6441 0.6424 0.6409 0.6397
2411.894162 0.6386 0.6375 0.6364 0.6353 0.6347
2416.910157 0.6342 0.6336 0.6330 0.6324 0.6318
2421.926153 0.6312 0.6305 0.6298 0.6292 0.6285
2426.942149 0.6279 0.6272 0.6263 0.6253 0.6241
2431.958144 0.6230 0.6219 0.6207 0.6192 0.6176
2436.974140 0.6161 0.6145 0.6130 0.6112 0.6095
2441.990136 0.6077 0.6060 0.6042 0.6022 0.5997
2447.006132 0.5972 0.5946 0.5921 0.5895 0.5870
2452.022127 0.5844 0.5818 0.5796 0.5776 0.5757
2457.038123 0.5737 0.5718 0.5698 0.5679 0.5659
2462.054119 0.5640 0.5620 0.5601 0.5581 0.5561
2467.070115 0.5537 0.5513 0.5488 0.5464 0.5440
2472.086110 0.5416 0.5391 0.5362 0.5332 0.5303
2477.102106 0.5274 0.5244 0.5215 0.5184 0.5151
2482.118102 0.5115 0.5079 0.5043 0.5006 0.4970
2487.134098 0.4934 0.4897 0.4863 0.4834 0.4805
2492.150093 0.4777 0.4748 0.4720 0.4692 0.4664
2497.166089 0.4636 0.4608 0.4581 0.4553 0.4516
2502.182085 0.4475 0.4447 0.4426 0.4406 0.4385
2507.198081 0.4365 0.4348 0.4333 0.4322 0.4317
2512.214076 0.4312 0.4308 0.4303 0.4301 0.4299
2517.230072 0.4297 0.4296 0.4294 0.4292 0.4289
2522.246068 0.4285 0.4280 0.4269 0.4240 0.4208
2527.262063 0.4166 0.4122 0.4075 0.4023 0.3964
2532.278059 0.3929 0.3904 0.3880 0.3860 0.3843
2537.294055 0.3834 0.3827 0.3825 0.3824 0.3827
2542.310051 0.3838 0.3856 0.3877 0.3898 0.3918
2547.326046 0.3938 0.3957 0.3974 0.3988 0.3995
2552.342042 0.3997 0.3990 0.3982 0.3975 0.3965
2557.358038 0.3951 0.3938 0.3925 0.3908 0.3884
2562.374034 0.3859 0.3834 0.3809 0.3781 0.3753
2567.390029 0.3724 0.3696 0.3667 0.3640 0.3613
2572.406025 0.3589 0.3573 0.3563 0.3557 0.3557
2577.422021 0.3561 0.3569 0.3579 0.3590 0.3604
2582.438017 0.3619 0.3634 0.3656 0.3690 0.3723
2587.454012 0.3749 0.3764 0.3765 0.3761 0.3754
2592.470008 0.3746 0.3737 0.3728 0.3717 0.3705
2597.486004 0.3694 0.3682 0.3670 0.3657 0.3643
2602.501999 0.3629 0.3616 0.3602 0.3588 0.3571
2607.517995 0.3548 0.3523 0.3498 0.3473 0.3449
2612.533991 0.3423 0.3397 0.3371 0.3345 0.3319
2617.549987 0.3292 0.3262 0.3230 0.3199 0.3167
2622.565982 0.3137 0.3112 0.3089 0.3066 0.3043
2627.581978 0.3021 0.2998 0.2974 0.2952 0.2929
2632.597974 0.2904 0.2875 0.2844 0.2813 0.2783
2637.613970 0.2752 0.2721 0.2690 0.2662 0.2636
2642.629965 0.2612 0.2587 0.2562 0.2537 0.2513
2647.645961 0.2488 0.2463 0.2438 0.2413 0.2389
2652.661957 0.2364 0.2339 0.2315 0.2291 0.2272
2657.677953 0.2255 0.2239 0.2223 0.2215 0.2209
2662.693948 0.2204 0.2199 0.2196 0.2194 0.2191
2667.709944 0.2189 0.2184 0.2179 0.2175 0.2170
2672.725940 0.2165 0.2156 0.2146 0.2137 0.2127
2677.741935 0.2117 0.2108 0.2098 0.2089 0.2080
2682.757931 0.2071 0.2062 0.2053 0.2045 0.2040
2687.773927 0.2036 0.2032 0.2029 0.2025 0.2021
2692.789923 0.2017 0.2014 0.2010 0.2006 0.2004
2697.805918 0.2002 0.2002 0.2001 0.2001 0.2000
2702.821914 0.2000 0.1999 0.1999 0.1998 0.1998
2707.837910 0.1998 0.1997 0.1998 0.1995 0.1999
2712.853906 0.2001 0.2002 0.2003 0.2004 0.2005
2717.869901 0.2006 0.2007 0.2007 0.2007 0.2008
2722.885897 0.2008 0.2008 0.2008 0.2009 0.2009
2727.901893 0.2009 0.2010 0.2012 0.2014 0.2016
2732.917889 0.2018 0.2020 0.2023 0.2025 0.2027
2737.933884 0.2029 0.2031 0.2033 0.2034 0.2036
2742.949880 0.2037 0.2039 0.2040 0.2042 0.2044
2747.965876 0.2045 0.2047 0.2048 0.2051 0.2056
2752.981872 0.2062 0.2067 0.2073 0.2080 0.2088
2757.997867 0.2095 0.2102 0.2110 0.2117 0.2124
2763.013863 0.2131 0.2142 0.2154 0.2166 0.2179
2768.029859 0.2194 0.2214 0.2233 0.2252 0.2271
2773.045854 0.2289 0.2308 0.2327 0.2345 0.2371
2778.061850 0.2410 0.2451 0.2490 0.2529 0.2566
2783.077846 0.2603 0.2641 0.2687 0.2747 0.2803
2788.093842 0.2768 0.2765 0.2762 0.2760 0.2755
2793.109837 0.2744 0.2732 0.2718 0.2696 0.2674
2798.125833 0.2649 0.2620 0.2591 0.2561 0.2521
2803.141829 0.2476 0.2430 0.2384 0.2332 0.2280
2808.157825 0.2230 0.2196 0.2171 0.2146 0.2121
2813.173820 0.2105 0.2096 0.2087 0.2079 0.2072
2818.189816 0.2072 0.2072 0.2072 0.2074 0.2076
2823.205812 0.2078 0.2079 0.2081 0.2082 0.2083
2828.221808 0.2084 0.2085 0.2086 0.2084 0.2079
2833.237803 0.2074 0.2068 0.2062 0.2051 0.2040
2838.253799 0.2029 0.2018 0.2008 0.2000 0.1983
2843.269795 0.1956 0.1987 0.1983 0.1979 0.1975
2848.285790 0.1973 0.1975 0.1976 0.1978 0.1980
2853.301786 0.1983 0.1986 0.1988 0.1991 0.1995
2858.317782 0.2002 0.2011 0.2021 0.2031 0.2041
2863.333778 0.2051 0.2061 0.2074 0.2086 0.2100
2868.349773 0.2112 0.2125 0.2138 0.2153 0.2167
2873.365769 0.2181 0.2188 0.2190 0.2191 0.2192
2878.381765 0.2194 0.2192 0.2186 0.2179 0.2173
2883.397761 0.2165 0.2155 0.2145 0.2134 0.2121
2888.413756 0.2107 0.2094 0.2080 0.2066 0.2054
2893.429752 0.2046 0.2039 0.2032 0.2026 0.2019
2898.445748 0.2012 0.2008 0.2005 0.2003 0.2002
2903.461744 0.1997 0.1987 0.1978 0.1967 0.1950
2908.477739 0.1929 0.1908 0.1888 0.1867 0.1846
2913.493735 0.1825 0.1804 0.1782 0.1762 0.1744
2918.509731 0.1727 0.1711 0.1694 0.1692 0.1696
2923.525726 0.1695 0.1698 0.1703 0.1710 0.1716
2928.541722 0.1724 0.1734 0.1743 0.1753 0.1762
2933.557718 0.1770 0.1778 0.1786 0.1793 0.1801
2938.573714 0.1808 0.1815 0.1822 0.1829 0.1836
2943.589709 0.1843 0.1850 0.1854 0.1855 0.1857
2948.605705 0.1858 0.1860 0.1861 0.1861 0.1859
2953.621701 0.1857 0.1855 0.1853 0.1851 0.1849
2958.637697 0.1850 0.1852 0.1855 0.1859 0.1862
2963.653692 0.1865 0.1869 0.1872 0.1875 0.1880
2968.669688 0.1886 0.1893 0.1900 0.1907 0.1916
2973.685684 0.1934 0.1957 0.1980 0.2003 0.2026
2978.701680 0.2053 0.2081 0.2109 0.2137 0.2165
2983.717675 0.2194 0.2232 0.2272 0.2300 0.2326
2988.733671 0.2329 0.2335 0.2333 0.2327 0.2321
2993.749667 0.2309 0.2293 0.2278 0.2263 0.2250
2998.765662 0.2239 0.2228 0.2217 0.2205 0.2199
3003.781658 0.2197 0.2196 0.2195 0.2194 0.2193
3008.797654 0.2191 0.2185 0.2178 0.2172 0.2165
3013.813650 0.2157 0.2140 0.2121 0.2102 0.2080
3018.829645 0.2054 0.2028 0.2001 0.1974 0.1954
3023.845641 0.1942 0.1911 0.1927 0.1940 0.1949
3028.861637 0.1960 0.1984 0.2009 0.2068 0.2137
3033.877633 0.2235 0.2391 0.2474 0.2527 0.2578
3038.893628 0.2636 0.2697 0.2758 0.2838 0.2923
3043.909624 0.2957 0.2980 0.3001 0.3022 0.3043
3048.925620 0.3070 0.3096 0.3123 0.3158 0.3193
3053.941616 0.3228 0.3256 0.3283 0.3309 0.3335
3058.957611 0.3365 0.3407 0.3449 0.3481 0.3509
3063.973607 0.3534 0.3550 0.3565 0.3638 0.3589
3068.989603 0.3593 0.3598 0.3597 0.3594 0.3588
3074.005599 0.3580 0.3573 0.3565 0.3558 0.3548
3079.021594 0.3535 0.3522 0.3509 0.3496 0.3483
3084.037590 0.3470 0.3456 0.3443 0.3425 0.3404
3089.053586 0.3383 0.3363 0.3342 0.3321 0.3297
3094.069581 0.3271 0.3245 0.3219 0.3193 0.3167
3099.085577 0.3136 0.3103 0.3070 0.3040 0.3030
3104.101573 0.3026 0.3011 0.3043 0.3051 0.3071
3109.117569 0.3095 0.3128 0.3166 0.3233 0.3313
3114.133564 0.3391 0.3471 0.3570 0.3676 0.3774
3119.149560 0.3864 0.3920 0.3968 0.4017 0.4065
3124.165556 0.4112 0.4157 0.4199 0.4236 0.4256
3129.181552 0.4266 0.4281 0.4311 0.4289 0.4290
3134.197547 0.4291 0.4292 0.4293 0.4293 0.4291
3139.213543 0.4288 0.4285 0.4281 0.4272 0.4264
3144.229539 0.4255 0.4246 0.4236 0.4222 0.4202
3149.245535 0.4183 0.4163 0.4144 0.4124 0.4102
3154.261530 0.4075 0.4046 0.4018 0.3989 0.3956
3159.277526 0.3917 0.3878 0.3832 0.3763 0.3691
3164.293522 0.3628 0.3575 0.3522 0.3472 0.3432
3169.309517 0.3406 0.3396 0.3386 0.3412 0.3417
3174.325513 0.3428 0.3441 0.3464 0.3504 0.3553
3179.341509 0.3621 0.3698 0.3783 0.3864 0.3943
3184.357505 0.4018 0.4090 0.4171 0.4268 0.4354
3189.373500 0.4415 0.4466 0.4490 0.4509 0.4520
3194.389496 0.4506 0.4506 0.4504 0.4502 0.4499
3199.405492 0.4494 0.4486 0.4479 0.4471 0.4461
3204.421488 0.4449 0.4430 0.4401 0.4359 0.4302
3209.437483 0.4225 0.4153 0.4102 0.4051 0.4000
3214.453479 0.3941 0.3874 0.3808 0.3735 0.3655
3219.469475 0.3575 0.3494 0.3455 0.3464 0.3470
3224.485471 0.3476 0.3485 0.3501 0.3551 0.3632
3229.501466 0.3704 0.3759 0.3808 0.3881 0.3978
3234.517462 0.4062 0.4123 0.4168 0.4193 0.4201
3239.533458 0.4220 0.4220 0.4206 0.4201 0.4195
3244.549453 0.4187 0.4176 0.4165 0.4148 0.4123
3249.565449 0.4095 0.4065 0.4034 0.4002 0.3970
3254.581445 0.3931 0.3887 0.3843 0.3799 0.3748
3259.597441 0.3686 0.3622 0.3547 0.3465 0.3381
3264.613436 0.3303 0.3229 0.3156 0.3079 0.2991
3269.629432 0.2924 0.2884 0.2862 0.2854 0.2851
3274.645428 0.2848 0.2846 0.2843 0.2840 0.2838
3279.661424 0.2835 0.2829 0.2820 0.2811 0.2803
3284.677419 0.2788 0.2771 0.2753 0.2735 0.2722
3289.693415 0.2710 0.2698 0.2686 0.2674 0.2662
3294.709411 0.2652 0.2642 0.2632 0.2623 0.2616
3299.725407 0.2616 0.2613 0.2619 0.2624 0.2630
3304.741402 0.2646 0.2664 0.2685 0.2713 0.2742
3309.757398 0.2776 0.2813 0.2852 0.2891 0.2934
3314.773394 0.2978 0.3022 0.3066 0.3110 0.3161
3319.789389 0.3213 0.3265 0.3317 0.3370 0.3415
3324.805385 0.3460 0.3505 0.3551 0.3596 0.3641
3329.821381 0.3685 0.3729 0.3773 0.3818 0.3862
3334.837377 0.3907 0.3952 0.3998 0.4043 0.4091
3339.853372 0.4138 0.4186 0.4233 0.4280 0.4317
3344.869368 0.4354 0.4390 0.4427 0.4464 0.4488
3349.885364 0.4507 0.4525 0.4543 0.4561 0.4579
3354.901360 0.4598 0.4609 0.4619 0.4629 0.4638
3359.917355 0.4648 0.4658 0.4663 0.4665 0.4667
3364.933351 0.4669 0.4671 0.4673 0.4674 0.4671
3369.949347 0.4682 0.4666 0.4663 0.4660 0.4657
3374.965343 0.4645 0.4631 0.4618 0.4602 0.4579
3379.981338 0.4553 0.4529 0.4504 0.4480 0.4444
3384.997334 0.4406 0.4367 0.4328 0.4289 0.4250
3390.013330 0.4205 0.4151 0.4096 0.4042 0.3988
3395.029326 0.3932 0.3877 0.3805 0.3734 0.3662
3400.045321 0.3591 0.3520 0.3448 0.3363 0.3280
3405.061317 0.3196 0.3112 0.3029 0.2956 0.2887
3410.077313 0.2818 0.2750 0.2707 0.2680 0.2664
3415.093308 0.2661 0.2670 0.2663 0.2664 0.2666
3420.109304 0.2672 0.2714 0.2764 0.2833 0.2880
3425.125300 0.2913 0.2947 0.2989 0.3089 0.3219
3430.141296 0.3348 0.3479 0.3608 0.3736 0.3847
3435.157291 0.3923 0.3999 0.4077 0.4154 0.4230
3440.173287 0.4291 0.4342 0.4393 0.4444 0.4496
3445.189283 0.4553 0.4614 0.4674 0.4732 0.4782
3450.205279 0.4830 0.4877 0.4934 0.5024 0.5114
3455.221274 0.5179 0.5231 0.5283 0.5335 0.5387
3460.237270 0.5445 0.5502 0.5556 0.5599 0.5634
3465.253266 0.5670 0.5705 0.5740 0.5776 0.5809
3470.269262 0.5832 0.5850 0.5869 0.5887 0.5906
3475.285257 0.5924 0.5943 0.5961 0.5978 0.5990
3480.301253 0.5999 0.6008 0.6017 0.6026 0.6035
3485.317249 0.6044 0.6063 0.6090 0.6118 0.6146
3490.333244 0.6181 0.6236 0.6293 0.6352 0.6418
3495.349240 0.6491 0.6563 0.6626 0.6680 0.6735
3500.365236 0.6784 0.6819 0.6843 0.6868 0.6892
3505.381232 0.6915 0.6938 0.6962 0.6985 0.7008
3510.397227 0.7031 0.7051 0.7066 0.7080 0.7095
3515.413223 0.7109 0.7124 0.7138 0.7153 0.7167
3520.429219 0.7182 0.7196 0.7210 0.7221 0.7232
3525.445215 0.7243 0.7254 0.7265 0.7277 0.7288
3530.461210 0.7299 0.7310 0.7321 0.7333 0.7345
3535.477206 0.7358 0.7371 0.7384 0.7397 0.7409
3540.493202 0.7422 0.7435 0.7448 0.7462 0.7475
3545.509198 0.7488 0.7500 0.7513 0.7526 0.7539
3550.525193 0.7552 0.7565 0.7577 0.7588 0.7599
3555.541189 0.7610 0.7621 0.7632 0.7643 0.7655
3560.557185 0.7666 0.7677 0.7688 0.7699 0.7710
3565.573180 0.7721 0.7732 0.7744 0.7755 0.7766
3570.589176 0.7777 0.7789 0.7800 0.7811 0.7822
3575.605172 0.7833 0.7845 0.7856 0.7867 0.7878
3580.621168 0.7889 0.7899 0.7909 0.7918 0.7927
3585.637163 0.7936 0.7945 0.7954 0.7963 0.7972
3590.653159 0.7980 0.7989 0.7998 0.8007 0.8016
3595.669155 0.8025 0.8034 0.8043 0.8052 0.8061
3600.685151 0.8069 0.8078 0.8086 0.8095 0.8103
3605.701146 0.8111 0.8119 0.8128 0.8136 0.8144
3610.717142 0.8152 0.8161 0.8169 0.8177 0.8186
3615.733138 0.8194 0.8202 0.8210 0.8219 0.8227
3620.749134 0.8234 0.8241 0.8248 0.8256 0.8263
3625.765129 0.8270 0.8277 0.8285 0.8292 0.8299
3630.781125 0.8306 0.8313 0.8321 0.8327 0.8334
3635.797121 0.8341 0.8347 0.8353 0.8358 0.8363
3640.813117 0.8369 0.8374 0.8380 0.8385 0.8391
3645.829112 0.8396 0.8402 0.8406 0.8410 0.8414
3650.845108 0.8418 0.8423 0.8427 0.8431 0.8435
3655.861104 0.8439 0.8448 0.8456 0.8464 0.8472
3660.877099 0.8480 0.8488 0.8493 0.8494 0.8495
3665.893095 0.8495 0.8496 0.8497 0.8498 0.8497
3670.909091 0.8496 0.8495 0.8494 0.8493 0.8492
3675.925087 0.8491 0.8490 0.8488 0.8489 0.8491
3680.941082 0.8493 0.8494 0.8496 0.8500 0.8508
3685.957078 0.8515 0.8523 0.8531 0.8537 0.8541
3690.973074 0.8546 0.8550 0.8555 0.8559 0.8563
3695.989070 0.8567 0.8567 0.8568 0.8568 0.8568
3701.005065 0.8569 0.8569 0.8570 0.8570 0.8570
3706.021061 0.8571 0.8571 0.8572 0.8572 0.8572
3711.037057 0.8573 0.8573 0.8574 0.8574 0.8574
3716.053053 0.8575 0.8575 0.8576 0.8576 0.8576
3721.069048 0.8576 0.8576 0.8576 0.8576 0.8576
3726.085044 0.8576 0.8576 0.8576 0.8576 0.8577
3731.101040 0.8577 0.8577 0.8577 0.8577 0.8577
3736.117035 0.8577 0.8577 0.8577 0.8577 0.8577
3741.133031 0.8577 0.8578 0.8578 0.8578 0.8578
3746.149027 0.8578 0.8578 0.8578 0.8579 0.8579
3751.165023 0.8580 0.8580 0.8581 0.8581 0.8581
3756.181018 0.8582 0.8582 0.8583 0.8583 0.8584
3761.197014 0.8584 0.8584 0.8585 0.8585 0.8586
3766.213010 0.8586 0.8587 0.8587 0.8587 0.8588
3771.229006 0.8588 0.8589 0.8589 0.8590 0.8590
3776.245001 0.8590 0.8591 0.8591 0.8592 0.8592
3781.260997 0.8593 0.8593 0.8593 0.8594 0.8595
3786.276993 0.8596 0.8597 0.8598 0.8599 0.8601
3791.292989 0.8602 0.8603 0.8604 0.8605 0.8606
3796.308984 0.8607 0.8608 0.8609 0.8611 0.8612
3801.324980 0.8613 0.8614 0.8615 0.8616 0.8617
3806.340976 0.8618 0.8620 0.8621 0.8622 0.8623
3811.356971 0.8624 0.8625 0.8626 0.8627 0.8629
3816.372967 0.8630 0.8631 0.8632 0.8633 0.8633
3821.388963 0.8632 0.8632 0.8631 0.8631 0.8631
3826.404959 0.8630 0.8630 0.8629 0.8629 0.8628
3831.420954 0.8628 0.8628 0.8627 0.8627 0.8626
3836.436950 0.8626 0.8625 0.8625 0.8625 0.8624
3841.452946 0.8624 0.8623 0.8623 0.8622 0.8622
3846.468942 0.8622 0.8621 0.8621 0.8620 0.8620
3851.484937 0.8619 0.8619 0.8619 0.8618 0.8618
3856.500933 0.8617 0.8617 0.8616 0.8616 0.8615
3861.516929 0.8615 0.8614 0.8614 0.8613 0.8613
3866.532925 0.8612 0.8612 0.8612 0.8611 0.8611
3871.548920 0.8610 0.8610 0.8609 0.8609 0.8608
3876.564916 0.8608 0.8608 0.8607 0.8607 0.8606
3881.580912 0.8606 0.8605 0.8605 0.8605 0.8604
3886.596907 0.8604 0.8603 0.8603 0.8602 0.8602
3891.612903 0.8601 0.8601 0.8601 0.8600 0.8600
3896.628899 0.8599 0.8599 0.8598 0.8598 0.8598
3901.644895 0.8597 0.8597 0.8596 0.8596 0.8595
3906.660890 0.8595 0.8594 0.8594 0.8594 0.8594
3911.676886 0.8594 0.8594 0.8594 0.8594 0.8594
3916.692882 0.8594 0.8593 0.8593 0.8593 0.8593
3921.708878 0.8593 0.8593 0.8593 0.8593 0.8593
3926.724873 0.8593 0.8593 0.8593 0.8593 0.8593
3931.740869 0.8593 0.8593 0.8592 0.8592 0.8592
3936.756865 0.8592 0.8592 0.8591 0.8591 0.8590
3941.772861 0.8590 0.8589 0.8589 0.8589 0.8588
3946.788856 0.8588 0.8587 0.8587 0.8586 0.8586
3951.804852 0.8585 0.8585 0.8585 0.8584 0.8584
3956.820848 0.8583 0.8583 0.8582 0.8582 0.8582
3961.836844 0.8581 0.8581 0.8580 0.8580 0.8579
3966.852839 0.8578 0.8576 0.8574 0.8573 0.8571
3971.868835 0.8569 0.8568 0.8566 0.8564 0.8563
3976.884831 0.8561 0.8559 0.8558 0.8556 0.8554
3981.900826 0.8553 0.8552 0.8549 0.8548 0.8548
3986.916822 0.8548 0.8548 0.8547 0.8547 0.8547
3991.932818 0.8547 0.8547 0.8547 0.8547 0.8547
3996.948814 0.8546 0.8544 0.8543 0.8542 0.8541
4001.964809 0.8540 0.8539 0.8538 0.8537 0.8536
4006.980805 0.8535 0.8534 0.8532 0.8531 0.0055
4011.996801 0.8503
##END=
