##TITLE=SODIUM BISULFATE
##JCAMP-DX=4.24
##DATA TYPE=INFRARED SPECTRUM
##CLASS=COBLENTZ
##OWNER=COBLENTZ SOCIETY
Collection (C) 2018 copyright by the U.S. Secretary of Commerce
on behalf of the United States of America. All rights reserved.
##DATE=Not specified, most likely prior to 1970
##MOLFORM=Na H S O4
##SOURCE REFERENCE=COBLENTZ NO. 3648
##$NIST ID=B6003648
##$NIST SOURCE=COBLENTZ
##$NIST IMAGE=cob3648
##SPECTROMETER/DATA SYSTEM=PERKIN-ELMER
##STATE=SOLID (ARNEEL C MULL)
##SAMPLING PROCEDURE=TRANSMISSION
##RESOLUTION=4
##DATA PROCESSING=DIGITIZED BY NIST FROM HARD COPY
##XUNITS=MICROMETERS
##YUNITS=TRANSMITTANCE
##XFACTOR=1.000000
##YFACTOR=1
##DELTAX=000.006123
##FIRSTX=2.024
##LASTX=15.423
##FIRSTY=0.9
##MAXX=15.423
##MINX=2.024
##MAXY=0.929
##MINY=0.162
##NPOINTS=2189
##XYDATA=(X++(Y..Y))
2.024000 0.9000 0.9020 0.9020 0.9020 0.9020
2.054631 0.9020 0.9020 0.9020 0.9020 0.9020
2.086000 0.9020 0.9000 0.9000 0.9000 0.9000
2.116631 0.9000 0.8990 0.8990 0.8990 0.9000
2.147000 0.9000 0.9000 0.9000 0.9000 0.9000
2.177631 0.9020 0.9020 0.9030 0.9030 0.9050
2.208000 0.9050 0.9050 0.9060 0.9060 0.9080
2.238631 0.9060 0.9060 0.9050 0.9050 0.9050
2.269000 0.9060 0.9060 0.9060 0.9080 0.9080
2.299631 0.9080 0.9090 0.9090 0.9090 0.9110
2.331000 0.9110 0.9110 0.9110 0.9110 0.9110
2.361631 0.9110 0.9110 0.9110 0.9110 0.9120
2.392000 0.9120 0.9140 0.9140 0.9170 0.9170
2.422631 0.9180 0.9180 0.9180 0.9180 0.9170
2.453000 0.9170 0.9170 0.9150 0.9150 0.9150
2.483631 0.9150 0.9150 0.9150 0.9150 0.9150
2.514000 0.9150 0.9150 0.9150 0.9150 0.9150
2.544631 0.9150 0.9150 0.9150 0.9150 0.9150
2.576000 0.9150 0.9150 0.9150 0.9150 0.9170
2.606631 0.9180 0.9180 0.9180 0.9170 0.9170
2.637000 0.9170 0.9170 0.9150 0.9150 0.9150
2.667631 0.9150 0.9150 0.9150 0.9150 0.9170
2.698000 0.9170 0.9150 0.9150 0.9140 0.9140
2.728631 0.9120 0.9110 0.9090 0.9050 0.9000
2.759000 0.8960 0.8910 0.8710 0.8630 0.8570
2.789631 0.8300 0.8070 0.7840 0.7530 0.7090
2.821000 0.6620 0.6130 0.5500 0.5190 0.4870
2.851631 0.4410 0.4180 0.4140 0.4150 0.4320
2.882000 0.4660 0.4900 0.5850 0.6220 0.6520
2.912631 0.6680 0.6830 0.6980 0.7090 0.7240
2.943000 0.7350 0.7430 0.7530 0.7590 0.7660
2.973631 0.7730 0.7760 0.7820 0.7870 0.7900
3.004000 0.7930 0.7930 0.7950 0.7950 0.7960
3.034631 0.7980 0.7990 0.7990 0.7990 0.7990
3.065000 0.8010 0.8010 0.8010 0.8010 0.8010
3.095631 0.8010 0.7990 0.7990 0.7990 0.7960
3.127000 0.7960 0.7950 0.7930 0.7920 0.7850
3.157631 0.7790 0.7730 0.7700 0.7670 0.7660
3.188000 0.7640 0.7560 0.7470 0.7440 0.7410
3.218631 0.7380 0.7350 0.7300 0.7270 0.7150
3.249000 0.7120 0.7090 0.7060 0.6980 0.6970
3.279631 0.6940 0.6940 0.6910 0.6880 0.6860
3.310000 0.6810 0.6770 0.6720 0.6630 0.6600
3.340631 0.6590 0.6570 0.6550 0.6520 0.6490
3.372000 0.6450 0.6310 0.6190 0.6050 0.5870
3.402631 0.5670 0.5580 0.5480 0.5330 0.5180
3.433000 0.5030 0.4870 0.4780 0.4750 0.4750
3.463631 0.4750 0.4770 0.4770 0.4780 0.4780
3.494000 0.4770 0.4670 0.4630 0.4610 0.4610
3.524631 0.4630 0.4660 0.4870 0.4980 0.5160
3.555000 0.5410 0.5620 0.5770 0.5910 0.6130
3.585631 0.6250 0.6330 0.6450 0.6550 0.6600
3.617000 0.6660 0.6720 0.6770 0.6830 0.6920
3.647631 0.7000 0.7090 0.7120 0.7150 0.7170
3.678000 0.7200 0.7230 0.7260 0.7350 0.7400
3.708631 0.7440 0.7470 0.7490 0.7520 0.7530
3.739000 0.7560 0.7560 0.7580 0.7580 0.7610
3.769631 0.7660 0.7690 0.7700 0.7720 0.7730
3.800000 0.7750 0.7760 0.7780 0.7780 0.7780
3.830631 0.7780 0.7780 0.7780 0.7790 0.7790
3.862000 0.7790 0.7790 0.7790 0.7780 0.7760
3.892631 0.7750 0.7730 0.7700 0.7670 0.7660
3.923000 0.7620 0.7610 0.7610 0.7610 0.7610
3.953631 0.7610 0.7620 0.7620 0.7620 0.7620
3.984000 0.7620 0.7640 0.7640 0.7640 0.7640
4.014631 0.7660 0.7670 0.7670 0.7670 0.7670
4.045000 0.7670 0.7670 0.7670 0.7670 0.7690
4.075631 0.7690 0.7670 0.7670 0.7670 0.7690
4.106000 0.7690 0.7700 0.7730 0.7760 0.7790
4.136631 0.7810 0.7820 0.7840 0.7870 0.7880
4.168000 0.7930 0.7930 0.7950 0.7960 0.7990
4.198631 0.8020 0.8050 0.8080 0.8100 0.8110
4.229000 0.8110 0.8110 0.8110 0.8110 0.8130
4.259631 0.8130 0.8140 0.8180 0.8190 0.8190
4.290000 0.8190 0.8210 0.8220 0.8220 0.8250
4.320631 0.8270 0.8270 0.8280 0.8300 0.8310
4.351000 0.8330 0.8360 0.8400 0.8420 0.8450
4.381631 0.8480 0.8500 0.8530 0.8540 0.8560
4.413000 0.8570 0.8570 0.8590 0.8600 0.8630
4.443631 0.8630 0.8660 0.8660 0.8660 0.8660
4.474000 0.8680 0.8680 0.8680 0.8710 0.8740
4.504631 0.8770 0.8790 0.8800 0.8820 0.8850
4.535000 0.8880 0.8890 0.8910 0.8910 0.8920
4.565631 0.8940 0.8970 0.8990 0.9000 0.9000
4.596000 0.9020 0.9020 0.9020 0.9030 0.9030
4.626631 0.9030 0.9030 0.9030 0.9030 0.9030
4.658000 0.9030 0.9030 0.9030 0.9030 0.9020
4.688631 0.9020 0.9020 0.9020 0.9030 0.9050
4.719000 0.9060 0.9060 0.9060 0.9060 0.9050
4.749631 0.9050 0.9050 0.9060 0.9060 0.9060
4.780000 0.9060 0.9060 0.9080 0.9090 0.9090
4.810631 0.9090 0.9090 0.9090 0.9110 0.9110
4.841000 0.9110 0.9120 0.9140 0.9150 0.9170
4.871631 0.9170 0.9170 0.9170 0.9170 0.9170
4.902000 0.9170 0.9170 0.9170 0.9170 0.9170
4.932631 0.9180 0.9180 0.9180 0.9180 0.9200
4.964000 0.9200 0.9200 0.9220 0.9200 0.9200
4.994631 0.9200 0.9180 0.9180 0.9200 0.9200
5.025000 0.9220 0.9220 0.9220 0.9230 0.9250
5.055631 0.9260 0.9280 0.9280 0.9280 0.9280
5.086000 0.9280 0.9280 0.9280 0.9280 0.9280
5.116631 0.9290 0.9290 0.9290 0.9290 0.9290
5.147000 0.9280 0.9280 0.9260 0.9260 0.9260
5.177631 0.9260 0.9250 0.9250 0.9250 0.9250
5.209000 0.9250 0.9250 0.9250 0.9250 0.9260
5.239631 0.9250 0.9250 0.9260 0.9260 0.9250
5.270000 0.9250 0.9250 0.9250 0.9230 0.9230
5.300631 0.9230 0.9230 0.9230 0.9230 0.9230
5.331000 0.9230 0.9230 0.9220 0.9220 0.9220
5.361631 0.9200 0.9200 0.9200 0.9180 0.9180
5.392000 0.9180 0.9170 0.9170 0.9170 0.9150
5.422631 0.9140 0.9120 0.9120 0.9120 0.9120
5.454000 0.9120 0.9120 0.9110 0.9110 0.9110
5.484631 0.9110 0.9120 0.9120 0.9120 0.9120
5.515000 0.9140 0.9140 0.9140 0.9120 0.9120
5.545631 0.9120 0.9120 0.9120 0.9120 0.9120
5.576000 0.9120 0.9120 0.9120 0.9120 0.9120
5.606631 0.9120 0.9120 0.9120 0.9120 0.9120
5.637000 0.9110 0.9090 0.9090 0.9090 0.9080
5.667631 0.9060 0.9060 0.9050 0.9030 0.9020
5.699000 0.9000 0.9000 0.8990 0.8970 0.8920
5.729631 0.8910 0.8910 0.8910 0.8890 0.8890
5.760000 0.8890 0.8890 0.8880 0.8880 0.8880
5.790631 0.8880 0.8880 0.8880 0.8850 0.8850
5.821000 0.8830 0.8830 0.8820 0.8800 0.8800
5.851631 0.8800 0.8800 0.8800 0.8800 0.8790
5.882000 0.8790 0.8760 0.8710 0.8660 0.8630
5.912631 0.8600 0.8590 0.8570 0.8510 0.8440
5.943000 0.8360 0.8280 0.8220 0.8110 0.7980
5.973631 0.7790 0.7700 0.7400 0.7110 0.6770
6.005000 0.6570 0.6370 0.6190 0.6070 0.6050
6.035631 0.6070 0.6110 0.6250 0.6360 0.6520
6.066000 0.6770 0.7060 0.7200 0.7290 0.7430
6.096631 0.7530 0.7660 0.7670 0.7820 0.7930
6.127000 0.7950 0.7990 0.8020 0.8050 0.8080
6.157631 0.8100 0.8110 0.8140 0.8180 0.8210
6.188000 0.8220 0.8250 0.8270 0.8280 0.8280
6.218631 0.8300 0.8300 0.8300 0.8300 0.8300
6.250000 0.8300 0.8300 0.8310 0.8310 0.8310
6.280631 0.8330 0.8330 0.8340 0.8340 0.8360
6.311000 0.8360 0.8370 0.8370 0.8370 0.8370
6.341631 0.8370 0.8370 0.8360 0.8360 0.8360
6.372000 0.8360 0.8370 0.8390 0.8390 0.8370
6.402631 0.8370 0.8340 0.8330 0.8330 0.8330
6.433000 0.8330 0.8360 0.8400 0.8450 0.8450
6.463631 0.8470 0.8470 0.8470 0.8470 0.8470
6.495000 0.8450 0.8450 0.8450 0.8470 0.8470
6.525631 0.8470 0.8470 0.8470 0.8470 0.8470
6.556000 0.8470 0.8470 0.8470 0.8470 0.8480
6.586631 0.8480 0.8480 0.8480 0.8500 0.8500
6.617000 0.8500 0.8500 0.8500 0.8500 0.8500
6.647631 0.8500 0.8500 0.8500 0.8500 0.8500
6.678000 0.8500 0.8500 0.8500 0.8500 0.8500
6.708631 0.8500 0.8500 0.8480 0.8480 0.8480
6.740000 0.8480 0.8480 0.8480 0.8480 0.8480
6.770631 0.8480 0.8480 0.8480 0.8400 0.8330
6.801000 0.8240 0.8100 0.7990 0.7930 0.7930
6.831631 0.7870 0.7850 0.7850 0.7840 0.7840
6.862000 0.7840 0.7840 0.7840 0.7850 0.7850
6.892631 0.7870 0.7900 0.7930 0.7930 0.7950
6.923000 0.7950 0.7950 0.7950 0.7950 0.7950
6.953631 0.7960 0.7960 0.7950 0.7930 0.7930
6.984000 0.7900 0.7870 0.7870 0.7850 0.7850
7.014631 0.7870 0.7870 0.7880 0.7880 0.7870
7.046000 0.7870 0.7880 0.7880 0.7880 0.7880
7.076631 0.7930 0.7930 0.7950 0.7950 0.7930
7.107000 0.7930 0.7930 0.7950 0.7950 0.7950
7.137631 0.7950 0.7950 0.7930 0.7930 0.7930
7.168000 0.7920 0.7900 0.7880 0.7880 0.7820
7.198631 0.7810 0.7810 0.7790 0.7790 0.7790
7.229000 0.7780 0.7760 0.7750 0.7720 0.7670
7.259631 0.7620 0.7610 0.7590 0.7610 0.7610
7.291000 0.7620 0.7620 0.7590 0.7590 0.7580
7.321631 0.7580 0.7580 0.7580 0.7560 0.7550
7.352000 0.7530 0.7520 0.7490 0.7470 0.7470
7.382631 0.7440 0.7410 0.7370 0.7330 0.7300
7.413000 0.7270 0.7260 0.7230 0.7200 0.7180
7.443631 0.7180 0.7170 0.7170 0.7140 0.7120
7.474000 0.7090 0.7030 0.6910 0.6770 0.6720
7.504631 0.6650 0.6600 0.6570 0.6490 0.6400
7.536000 0.6310 0.6170 0.6050 0.5880 0.5790
7.566631 0.5730 0.5590 0.5500 0.5500 0.5450
7.597000 0.5390 0.5350 0.5160 0.5100 0.5030
7.627631 0.4980 0.4870 0.4810 0.4740 0.4640
7.658000 0.4600 0.4570 0.4550 0.4490 0.4480
7.688631 0.4460 0.4460 0.4480 0.4490 0.4510
7.719000 0.4520 0.4540 0.4540 0.4540 0.4540
7.749631 0.4550 0.4570 0.4570 0.4580 0.4580
7.780000 0.4570 0.4570 0.4570 0.4570 0.4550
7.810631 0.4550 0.4520 0.4460 0.4380 0.4340
7.842000 0.4310 0.4250 0.4180 0.4120 0.4020
7.872631 0.3960 0.3830 0.3700 0.3570 0.3360
7.903000 0.3160 0.2840 0.2760 0.2660 0.2550
7.933631 0.2400 0.2300 0.2170 0.2090 0.2000
7.964000 0.1980 0.1860 0.1800 0.1780 0.1750
7.994631 0.1720 0.1690 0.1660 0.1660 0.1650
8.025000 0.1630 0.1630 0.1620 0.1620 0.1620
8.055631 0.1620 0.1630 0.1630 0.1650 0.1690
8.087000 0.1770 0.1810 0.1880 0.2010 0.2140
8.117631 0.2320 0.2500 0.2620 0.2700 0.2760
8.148000 0.2880 0.3100 0.3140 0.3160 0.3240
8.178631 0.3300 0.3390 0.3500 0.3560 0.3620
8.209000 0.3660 0.3680 0.3710 0.3710 0.3710
8.239631 0.3700 0.3660 0.3630 0.3560 0.3540
8.270000 0.3530 0.3480 0.3450 0.3450 0.3370
8.300631 0.3360 0.3360 0.3360 0.3360 0.3360
8.332000 0.3360 0.3360 0.3360 0.3340 0.3340
8.362631 0.3340 0.3330 0.3300 0.3280 0.3240
8.393000 0.3210 0.3140 0.3010 0.2920 0.2850
8.423631 0.2750 0.2690 0.2660 0.2620 0.2530
8.454000 0.2470 0.2380 0.2370 0.2350 0.2300
8.484631 0.2290 0.2270 0.2240 0.2240 0.2240
8.515000 0.2230 0.2230 0.2230 0.2240 0.2260
8.545631 0.2270 0.2330 0.2410 0.2490 0.2560
8.577000 0.2620 0.2690 0.2760 0.2920 0.3020
8.607631 0.3140 0.3250 0.3340 0.3440 0.3530
8.638000 0.3620 0.3730 0.3820 0.3970 0.4080
8.668631 0.4150 0.4260 0.4370 0.4480 0.4600
8.699000 0.4700 0.4840 0.4980 0.5030 0.5220
8.729631 0.5350 0.5420 0.5640 0.5760 0.5880
8.760000 0.5960 0.6100 0.6160 0.6190 0.6310
8.790631 0.6390 0.6490 0.6590 0.6620 0.6690
8.821000 0.6740 0.6770 0.6810 0.6830 0.6860
8.851631 0.6890 0.6950 0.6980 0.7060 0.7120
8.883000 0.7180 0.7210 0.7240 0.7270 0.7270
8.913631 0.7290 0.7320 0.7330 0.7370 0.7380
8.944000 0.7410 0.7440 0.7460 0.7490 0.7520
8.974631 0.7550 0.7560 0.7560 0.7580 0.7580
9.005000 0.7590 0.7590 0.7610 0.7640 0.7660
9.035631 0.7670 0.7670 0.7700 0.7720 0.7720
9.066000 0.7730 0.7730 0.7730 0.7730 0.7730
9.096631 0.7730 0.7730 0.7750 0.7750 0.7730
9.128000 0.7720 0.7700 0.7670 0.7620 0.7610
9.158631 0.7580 0.7560 0.7520 0.7430 0.7410
9.189000 0.7380 0.7270 0.7140 0.7070 0.6970
9.219631 0.6860 0.6660 0.6400 0.5810 0.5590
9.250000 0.5530 0.5450 0.5410 0.5410 0.5450
9.280631 0.5620 0.5680 0.5700 0.5760 0.5870
9.311000 0.5880 0.5930 0.5970 0.6020 0.6080
9.341631 0.6140 0.6190 0.6260 0.6310 0.6340
9.373000 0.6370 0.6370 0.6360 0.6330 0.6290
9.403631 0.6260 0.6200 0.6140 0.5990 0.5880
9.434000 0.5810 0.5650 0.5580 0.5480 0.5180
9.464631 0.4980 0.4700 0.4580 0.4440 0.4200
9.495000 0.3970 0.3680 0.3400 0.3210 0.2930
9.525631 0.2780 0.2640 0.2560 0.2500 0.2400
9.556000 0.2370 0.2320 0.2320 0.2320 0.2320
9.586631 0.2330 0.2370 0.2500 0.2620 0.2670
9.618000 0.2790 0.2990 0.3210 0.3440 0.3590
9.648631 0.3770 0.3970 0.4140 0.4350 0.4540
9.679000 0.4700 0.4830 0.5010 0.5120 0.5220
9.709631 0.5320 0.5390 0.5610 0.5640 0.5730
9.740000 0.5790 0.5850 0.5930 0.5960 0.6000
9.770631 0.6030 0.6070 0.6110 0.6160 0.6200
9.801000 0.6230 0.6230 0.6250 0.6250 0.6280
9.831631 0.6280 0.6290 0.6330 0.6370 0.6390
9.862000 0.6400 0.6420 0.6450 0.6480 0.6520
9.892631 0.6540 0.6570 0.6590 0.6620 0.6630
9.924000 0.6630 0.6650 0.6680 0.6680 0.6690
9.954631 0.6740 0.6750 0.6770 0.6780 0.6780
9.985000 0.6800 0.6830 0.6860 0.6860 0.6880
10.015631 0.6890 0.6920 0.6940 0.6950 0.6970
10.046000 0.6970 0.6970 0.6970 0.6970 0.6970
10.076631 0.6970 0.6970 0.6980 0.6980 0.6980
10.107000 0.6980 0.7000 0.7000 0.7000 0.7010
10.137631 0.7030 0.7040 0.7040 0.7060 0.7060
10.169000 0.7070 0.7090 0.7110 0.7110 0.7150
10.199631 0.7180 0.7200 0.7210 0.7210 0.7210
10.230000 0.7210 0.7230 0.7260 0.7290 0.7300
10.260631 0.7320 0.7330 0.7330 0.7350 0.7370
10.291000 0.7400 0.7430 0.7440 0.7460 0.7470
10.321631 0.7490 0.7490 0.7490 0.7520 0.7550
10.352000 0.7550 0.7550 0.7560 0.7560 0.7560
10.382631 0.7560 0.7560 0.7550 0.7530 0.7520
10.414000 0.7500 0.7460 0.7460 0.7430 0.7400
10.444631 0.7350 0.7300 0.7260 0.7240 0.7200
10.475000 0.7180 0.7170 0.7150 0.7120 0.7070
10.505631 0.7060 0.7060 0.7060 0.7040 0.7060
10.536000 0.7060 0.7030 0.7030 0.7010 0.7010
10.566631 0.7010 0.7030 0.7030 0.7010 0.7010
10.597000 0.7000 0.7000 0.7010 0.7010 0.7010
10.627631 0.7000 0.6980 0.6980 0.6980 0.6980
10.659000 0.7000 0.7000 0.7000 0.7000 0.6980
10.689631 0.6980 0.6980 0.6980 0.6980 0.7000
10.720000 0.7000 0.7000 0.7000 0.7000 0.7000
10.750631 0.7000 0.7000 0.7000 0.7000 0.7000
10.781000 0.7000 0.7000 0.7000 0.6980 0.6980
10.811631 0.6980 0.6970 0.6970 0.6970 0.6970
10.842000 0.6970 0.6970 0.6950 0.6950 0.6950
10.872631 0.6970 0.6970 0.6970 0.6980 0.6980
10.903000 0.6970 0.6970 0.6950 0.6950 0.6970
10.933631 0.6970 0.6970 0.6980 0.7010 0.7010
10.965000 0.7030 0.7060 0.7060 0.7060 0.7070
10.995631 0.7070 0.7070 0.7060 0.7060 0.7070
11.026000 0.7070 0.7070 0.7060 0.7040 0.7010
11.056631 0.7010 0.7010 0.7010 0.7010 0.7030
11.087000 0.7030 0.7030 0.7030 0.7030 0.7030
11.117631 0.7010 0.7010 0.7010 0.7010 0.7010
11.148000 0.7000 0.7000 0.7010 0.7010 0.7010
11.178631 0.7030 0.7030 0.7000 0.6980 0.6980
11.210000 0.6980 0.6970 0.6970 0.6940 0.6920
11.240631 0.6910 0.6890 0.6890 0.6880 0.6860
11.271000 0.6810 0.6780 0.6770 0.6740 0.6710
11.301631 0.6660 0.6600 0.6490 0.6450 0.6360
11.332000 0.6290 0.6220 0.6140 0.6000 0.5870
11.362631 0.5710 0.5580 0.5510 0.5440 0.5290
11.393000 0.5130 0.4950 0.4770 0.4540 0.4380
11.423631 0.4250 0.4030 0.3970 0.3890 0.3730
11.455000 0.3650 0.3620 0.3590 0.3510 0.3400
11.485631 0.3310 0.3280 0.3220 0.3160 0.3130
11.516000 0.3040 0.2950 0.2920 0.2900 0.2880
11.546631 0.2820 0.2750 0.2720 0.2700 0.2690
11.577000 0.2690 0.2670 0.2670 0.2670 0.2670
11.607631 0.2690 0.2700 0.2750 0.2760 0.2850
11.638000 0.2920 0.2990 0.3160 0.3300 0.3400
11.668631 0.3540 0.3620 0.3710 0.3850 0.4030
11.699000 0.4150 0.4290 0.4440 0.4520 0.4600
11.729631 0.4740 0.4890 0.5000 0.5100 0.5330
11.761000 0.5360 0.5420 0.5610 0.5650 0.5740
11.791631 0.5840 0.5940 0.6030 0.6050 0.6140
11.822000 0.6200 0.6310 0.6340 0.6420 0.6450
11.852631 0.6540 0.6600 0.6660 0.6720 0.6750
11.883000 0.6750 0.6770 0.6810 0.6860 0.6880
11.913631 0.6890 0.6920 0.6950 0.7000 0.7060
11.944000 0.7070 0.7140 0.7170 0.7200 0.7210
11.974631 0.7210 0.7230 0.7230 0.7240 0.7270
12.006000 0.7290 0.7300 0.7320 0.7350 0.7350
12.036631 0.7370 0.7370 0.7380 0.7400 0.7410
12.067000 0.7430 0.7440 0.7440 0.7440 0.7460
12.097631 0.7460 0.7470 0.7490 0.7500 0.7520
12.128000 0.7530 0.7560 0.7590 0.7590 0.7610
12.158631 0.7610 0.7620 0.7620 0.7640 0.7660
12.189000 0.7660 0.7670 0.7690 0.7690 0.7700
12.219631 0.7700 0.7690 0.7690 0.7690 0.7700
12.251000 0.7730 0.7750 0.7750 0.7760 0.7760
12.281631 0.7780 0.7780 0.7780 0.7780 0.7780
12.312000 0.7790 0.7790 0.7790 0.7780 0.7780
12.342631 0.7780 0.7780 0.7780 0.7760 0.7760
12.373000 0.7750 0.7730 0.7730 0.7730 0.7730
12.403631 0.7730 0.7730 0.7750 0.7750 0.7750
12.434000 0.7730 0.7730 0.7730 0.7730 0.7720
12.464631 0.7720 0.7720 0.7730 0.7750 0.7760
12.496000 0.7780 0.7780 0.7780 0.7780 0.7760
12.526631 0.7750 0.7750 0.7730 0.7720 0.7720
12.557000 0.7720 0.7720 0.7720 0.7730 0.7720
12.587631 0.7690 0.7670 0.7660 0.7660 0.7660
12.618000 0.7660 0.7660 0.7660 0.7660 0.7640
12.648631 0.7620 0.7620 0.7610 0.7590 0.7580
12.679000 0.7580 0.7580 0.7560 0.7560 0.7560
12.709631 0.7560 0.7560 0.7550 0.7550 0.7530
12.740000 0.7520 0.7520 0.7520 0.7500 0.7500
12.770631 0.7490 0.7470 0.7470 0.7470 0.7440
12.802000 0.7440 0.7440 0.7430 0.7430 0.7430
12.832631 0.7430 0.7430 0.7410 0.7410 0.7410
12.863000 0.7400 0.7380 0.7380 0.7380 0.7380
12.893631 0.7370 0.7350 0.7350 0.7330 0.7330
12.924000 0.7320 0.7300 0.7300 0.7290 0.7290
12.954631 0.7290 0.7290 0.7290 0.7290 0.7290
12.985000 0.7290 0.7270 0.7270 0.7260 0.7260
13.015631 0.7260 0.7260 0.7260 0.7260 0.7260
13.047000 0.7260 0.7260 0.7260 0.7260 0.7270
13.077631 0.7290 0.7300 0.7320 0.7350 0.7370
13.108000 0.7380 0.7400 0.7400 0.7410 0.7430
13.138631 0.7440 0.7460 0.7490 0.7490 0.7500
13.169000 0.7500 0.7500 0.7500 0.7500 0.7500
13.199631 0.7500 0.7500 0.7500 0.7500 0.7500
13.230000 0.7520 0.7520 0.7530 0.7560 0.7590
13.260631 0.7590 0.7590 0.7590 0.7590 0.7610
13.292000 0.7590 0.7610 0.7610 0.7610 0.7610
13.322631 0.7620 0.7640 0.7660 0.7660 0.7670
13.353000 0.7670 0.7670 0.7690 0.7700 0.7700
13.383631 0.7720 0.7730 0.7730 0.7720 0.7720
13.414000 0.7720 0.7720 0.7720 0.7730 0.7750
13.444631 0.7750 0.7760 0.7760 0.7780 0.7790
13.475000 0.7810 0.7810 0.7810 0.7820 0.7820
13.505631 0.7820 0.7810 0.7810 0.7810 0.7790
13.537000 0.7790 0.7780 0.7780 0.7780 0.7780
13.567631 0.7780 0.7780 0.7780 0.7780 0.7780
13.598000 0.7780 0.7780 0.7780 0.7780 0.7780
13.628631 0.7760 0.7760 0.7760 0.7760 0.7760
13.659000 0.7760 0.7760 0.7750 0.7730 0.7730
13.689631 0.7730 0.7730 0.7750 0.7750 0.7750
13.720000 0.7750 0.7730 0.7730 0.7730 0.7730
13.750631 0.7730 0.7730 0.7730 0.7720 0.7720
13.781000 0.7700 0.7700 0.7700 0.7700 0.7700
13.811631 0.7700 0.7690 0.7670 0.7670 0.7670
13.843000 0.7660 0.7660 0.7660 0.7660 0.7640
13.873631 0.7620 0.7620 0.7640 0.7640 0.7620
13.904000 0.7620 0.7610 0.7590 0.7590 0.7590
13.934631 0.7590 0.7590 0.7590 0.7590 0.7590
13.965000 0.7590 0.7590 0.7590 0.7590 0.7610
13.995631 0.7620 0.7640 0.7640 0.7660 0.7660
14.026000 0.7660 0.7660 0.7670 0.7700 0.7730
14.056631 0.7730 0.7730 0.7730 0.7750 0.7750
14.088000 0.7750 0.7760 0.7760 0.7780 0.7780
14.118631 0.7780 0.7780 0.7780 0.7780 0.7780
14.149000 0.7780 0.7780 0.7780 0.7780 0.7790
14.179631 0.7810 0.7820 0.7820 0.7840 0.7850
14.210000 0.7870 0.7870 0.7870 0.7880 0.7900
14.240631 0.7920 0.7920 0.7930 0.7930 0.7930
14.271000 0.7930 0.7930 0.7930 0.7950 0.7950
14.301631 0.7950 0.7950 0.7950 0.7930 0.7930
14.333000 0.7930 0.7900 0.7900 0.7880 0.7880
14.363631 0.7870 0.7870 0.7870 0.7870 0.7870
14.394000 0.7870 0.7870 0.7850 0.7850 0.7850
14.424631 0.7850 0.7850 0.7850 0.7850 0.7840
14.455000 0.7820 0.7810 0.7790 0.7780 0.7780
14.485631 0.7780 0.7780 0.7760 0.7760 0.7760
14.516000 0.7760 0.7760 0.7760 0.7760 0.7750
14.546631 0.7750 0.7750 0.7750 0.7750 0.7730
14.577000 0.7750 0.7750 0.7730 0.7700 0.7700
14.607631 0.7700 0.7700 0.7690 0.7690 0.7690
14.639000 0.7690 0.7690 0.7690 0.7690 0.7670
14.669631 0.7660 0.7660 0.7640 0.7640 0.7620
14.700000 0.7610 0.7610 0.7610 0.7610 0.7610
14.730631 0.7610 0.7610 0.7580 0.7580 0.7580
14.761000 0.7580 0.7580 0.7580 0.7560 0.7560
14.791631 0.7560 0.7560 0.7550 0.7550 0.7530
14.822000 0.7530 0.7530 0.7520 0.7520 0.7500
14.852631 0.7490 0.7470 0.7460 0.7440 0.7440
14.884000 0.7430 0.7440 0.7440 0.7410 0.7400
14.914631 0.7380 0.7330 0.7300 0.7290 0.7260
14.945000 0.7260 0.7260 0.7240 0.7240 0.7240
14.975631 0.7240 0.7230 0.7230 0.7180 0.7170
15.006000 0.7140 0.7120 0.7110 0.7070 0.7060
15.036631 0.7040 0.7000 0.6970 0.6950 0.6950
15.067000 0.6940 0.6920 0.6920 0.6920 0.6910
15.097631 0.6890 0.6880 0.6860 0.6850 0.6830
15.129000 0.6830 0.6810 0.6780 0.6750 0.6740
15.159631 0.6690 0.6660 0.6630 0.6620 0.6620
15.190000 0.6620 0.6600 0.6600 0.6600 0.6590
15.220631 0.6570 0.6550 0.6540 0.6510 0.6450
15.251000 0.6420 0.6390 0.6360 0.6340 0.6330
15.281631 0.6310 0.6310 0.6290 0.6290 0.6280
15.312000 0.6260 0.6260 0.6250 0.6250 0.6230
15.342631 0.6190 0.6170 0.6170 0.6170 0.6160
15.374000 0.6140 0.6110 0.6080 0.6050 0.6030
15.404631 0.6030 0.6020 0.6020 0.6020
##END=
