##TITLE=Aniline, N,2-dicyclohexyl-4-methyl-
##JCAMP-DX=4.24
##DATA TYPE=INFRARED SPECTRUM
##CLASS=COBLENTZ III
##ORIGIN=MONSANTO (J. FREEMAN)
##OWNER=Copyright (C) 1987 by the Coblentz Society
Collection (C) 2018 copyright by the U.S. Secretary of Commerce
on behalf of the United States of America. All rights reserved.
##DATE=1959/01/30
##NAMES=N-cyclohexyl-N-(2-cyclohexyl-4-methylphenyl)amine
N,2-dicyclohexyl-4-methylaniline
p-Toluidine, N,2-dicyclohexyl-
##MOLFORM=C19 H29 N
##SOURCE REFERENCE=COBLENTZ NO. 8501
##$NIST ID=B6008501
##$NIST SOURCE=COBLENTZ
##$NIST IMAGE=cob8501
##SPECTROMETER/DATA SYSTEM=BECKMAN IR-4 (HYBRID PRISM-GRATING)
##INSTRUMENT PARAMETERS=NaCl PRISM
##STATE=LIQUID (NEAT)
##PATH LENGTH=CAPILLARY
##SAMPLING PROCEDURE=TRANSMISSION
##RESOLUTION=2
##DATA PROCESSING=DIGITIZED BY COBLENTZ SOCIETY (BATCH II) FROM HARD COPY
##XUNITS=1/CM
##YUNITS=TRANSMITTANCE
##XFACTOR=1.0
##YFACTOR=1
##FIRSTX=626
##LASTX=4000
##FIRSTY=0.8287
##MAXX=4000
##MINX=626
##MAXY=0.9865
##MINY=0.0127
##NPOINTS=3375
##XYDATA=(X++(Y..Y))
626.000000 0.8287 0.8265 0.8247 0.8229 0.8211
631.000000 0.8192 0.8175 0.8156 0.8137 0.8118
636.000000 0.8097 0.8077 0.8102 0.8051 0.8047
641.000000 0.8053 0.8058 0.8067 0.8085 0.8098
646.000000 0.8109 0.8119 0.8131 0.8148 0.8166
651.000000 0.8184 0.8211 0.8239 0.8268 0.8310
656.000000 0.8352 0.8405 0.8467 0.8528 0.8590
661.000000 0.8651 0.8707 0.8761 0.8831 0.8885
666.000000 0.8909 0.8906 0.8897 0.8886 0.8878
671.000000 0.8898 0.8921 0.8943 0.8964 0.9002
676.000000 0.9042 0.9080 0.9114 0.9146 0.9170
681.000000 0.9192 0.9216 0.9239 0.9264 0.9288
686.000000 0.9306 0.9316 0.9319 0.9321 0.9326
691.000000 0.9334 0.9356 0.9372 0.9387 0.9401
696.000000 0.9416 0.9425 0.9434 0.9445 0.9458
701.000000 0.9473 0.9493 0.9514 0.9532 0.9548
706.000000 0.9564 0.9578 0.9584 0.9590 0.9597
711.000000 0.9604 0.9609 0.9614 0.9617 0.9620
716.000000 0.9613 0.9591 0.9566 0.9521 0.9477
721.000000 0.9461 0.9459 0.9521 0.9566 0.9611
726.000000 0.9667 0.9801 0.9791 0.9762 0.9755
731.000000 0.9726 0.9713 0.9694 0.9675 0.9652
736.000000 0.9620 0.9578 0.9522 0.9450 0.9370
741.000000 0.9278 0.9181 0.9122 0.9104 0.9103
746.000000 0.9193 0.9302 0.9429 0.9527 0.9627
751.000000 0.9721 0.9766 0.9785 0.9789 0.9773
756.000000 0.9753 0.9737 0.9722 0.9714 0.9707
761.000000 0.9703 0.9699 0.9698 0.9697 0.9698
766.000000 0.9697 0.9690 0.9684 0.9675 0.9664
771.000000 0.9653 0.9642 0.9626 0.9611 0.9596
776.000000 0.9575 0.9543 0.9483 0.9384 0.9283
781.000000 0.9176 0.9070 0.8959 0.8836 0.8708
786.000000 0.8549 0.8338 0.8121 0.7881 0.7601
791.000000 0.7215 0.6816 0.6500 0.6046 0.5399
796.000000 0.4754 0.4111 0.3468 0.2933 0.2656
801.000000 0.2357 0.2316 0.2333 0.2636 0.3107
806.000000 0.3576 0.4045 0.4511 0.4977 0.5442
811.000000 0.5906 0.6378 0.6746 0.7124 0.7451
816.000000 0.7671 0.7865 0.8050 0.8223 0.8396
821.000000 0.8573 0.8695 0.8819 0.8949 0.9083
826.000000 0.9218 0.9317 0.9392 0.9448 0.9486
831.000000 0.9517 0.9526 0.9532 0.9524 0.9541
836.000000 0.9490 0.9462 0.9403 0.9250 0.9110
841.000000 0.8932 0.8749 0.8566 0.8384 0.8241
846.000000 0.8215 0.8193 0.8038 0.7869 0.7700
851.000000 0.7555 0.7557 0.7845 0.8115 0.8384
856.000000 0.8653 0.8883 0.8979 0.9024 0.9027
861.000000 0.9035 0.8961 0.8679 0.8164 0.7650
866.000000 0.7138 0.6607 0.6387 0.6399 0.6550
871.000000 0.6943 0.7336 0.7728 0.8118 0.8386
876.000000 0.8548 0.8702 0.8808 0.8811 0.8735
881.000000 0.8372 0.8011 0.7650 0.7290 0.6931
886.000000 0.6654 0.6611 0.6619 0.6697 0.6938
891.000000 0.7181 0.7422 0.7664 0.7904 0.8145
896.000000 0.8385 0.8623 0.8862 0.9101 0.9338
901.000000 0.9497 0.9591 0.9657 0.9713 0.9748
906.000000 0.9764 0.9773 0.9754 0.9740 0.9719
911.000000 0.9697 0.9676 0.9651 0.9615 0.9579
916.000000 0.9545 0.9509 0.9473 0.9432 0.9388
921.000000 0.9345 0.9297 0.9224 0.9154 0.9141
926.000000 0.9172 0.9232 0.9289 0.9342 0.9369
931.000000 0.9374 0.9374 0.9377 0.9385 0.9411
936.000000 0.9451 0.9500 0.9567 0.9630 0.9685
941.000000 0.9726 0.9760 0.9791 0.9818 0.9839
946.000000 0.9852 0.9861 0.9865 0.9863 0.9860
951.000000 0.9858 0.9856 0.9849 0.9843 0.9834
956.000000 0.9823 0.9812 0.9802 0.9793 0.9784
961.000000 0.9772 0.9762 0.9751 0.9738 0.9726
966.000000 0.9701 0.9676 0.9635 0.9591 0.9492
971.000000 0.9382 0.9272 0.9163 0.9054 0.8945
976.000000 0.8858 0.8790 0.8735 0.8714 0.8740
981.000000 0.8807 0.8824 0.8811 0.8794 0.8749
986.000000 0.8647 0.8512 0.8424 0.8397 0.8405
991.000000 0.8379 0.8541 0.8641 0.8730 0.8805
996.000000 0.8864 0.8918 0.8971 0.9025 0.9079
1001.000000 0.9132 0.9185 0.9241 0.9309 0.9365
1006.000000 0.9403 0.9404 0.9398 0.9383 0.9355
1011.000000 0.9324 0.9295 0.9242 0.9185 0.9134
1016.000000 0.9085 0.9038 0.8998 0.8963 0.8940
1021.000000 0.8917 0.8870 0.8762 0.8613 0.8485
1026.000000 0.8319 0.8236 0.8194 0.8213 0.8232
1031.000000 0.8290 0.8366 0.8421 0.8474 0.8527
1036.000000 0.8580 0.8633 0.8686 0.8738 0.8790
1041.000000 0.8879 0.8858 0.8864 0.8858 0.8840
1046.000000 0.8780 0.8689 0.8622 0.8639 0.8677
1051.000000 0.8780 0.8898 0.9051 0.9205 0.9350
1056.000000 0.9444 0.9508 0.9536 0.9551 0.9549
1061.000000 0.9545 0.9573 0.9531 0.9516 0.9489
1066.000000 0.9429 0.9293 0.9153 0.9013 0.8880
1071.000000 0.8787 0.8707 0.8651 0.8596 0.8546
1076.000000 0.8497 0.8461 0.8445 0.8446 0.8417
1081.000000 0.8486 0.8541 0.8578 0.8580 0.8572
1086.000000 0.8550 0.8498 0.8365 0.8293 0.8286
1091.000000 0.8290 0.8425 0.8527 0.8628 0.8729
1096.000000 0.8830 0.8932 0.8996 0.9016 0.9020
1101.000000 0.9009 0.8990 0.8935 0.8846 0.8748
1106.000000 0.8589 0.8383 0.8179 0.7974 0.7770
1111.000000 0.7566 0.7363 0.7160 0.6958 0.6880
1116.000000 0.6871 0.6875 0.7067 0.7246 0.7425
1121.000000 0.7603 0.7781 0.7959 0.8137 0.8314
1126.000000 0.8490 0.8650 0.8754 0.8833 0.8885
1131.000000 0.8900 0.8887 0.8881 0.8815 0.8699
1136.000000 0.8577 0.8454 0.8332 0.8210 0.8087
1141.000000 0.7947 0.7685 0.7452 0.7135 0.6787
1146.000000 0.6440 0.6093 0.5747 0.5435 0.5436
1151.000000 0.5576 0.5803 0.6030 0.6257 0.6483
1156.000000 0.6709 0.6865 0.6844 0.6699 0.6553
1161.000000 0.6406 0.6261 0.6115 0.6023 0.6020
1166.000000 0.6153 0.6428 0.6703 0.6979 0.7254
1171.000000 0.7529 0.7803 0.8049 0.8085 0.8085
1176.000000 0.7913 0.7738 0.7563 0.7387 0.7357
1181.000000 0.7433 0.7611 0.7789 0.7962 0.8062
1186.000000 0.8162 0.8258 0.8414 0.8545 0.8699
1191.000000 0.8874 0.9050 0.9212 0.9287 0.9328
1196.000000 0.9356 0.9366 0.9371 0.9376 0.9366
1201.000000 0.9380 0.9377 0.9373 0.9369 0.9364
1206.000000 0.9357 0.9339 0.9308 0.9260 0.9196
1211.000000 0.9124 0.9064 0.9007 0.8951 0.8893
1216.000000 0.8826 0.8759 0.8687 0.8602 0.8518
1221.000000 0.8421 0.8297 0.8134 0.7951 0.7742
1226.000000 0.7374 0.7128 0.6893 0.6659 0.6530
1231.000000 0.6510 0.6607 0.6713 0.6819 0.6925
1236.000000 0.6943 0.6939 0.6591 0.6277 0.5964
1241.000000 0.5651 0.5340 0.5028 0.4709 0.4425
1246.000000 0.4215 0.4058 0.3766 0.3450 0.3136
1251.000000 0.2822 0.2555 0.2551 0.2575 0.2872
1256.000000 0.3148 0.3424 0.3700 0.3975 0.4249
1261.000000 0.4524 0.4798 0.5071 0.5344 0.5616
1266.000000 0.5865 0.5884 0.5872 0.5797 0.5722
1271.000000 0.5647 0.5572 0.5554 0.5566 0.5651
1276.000000 0.5738 0.5816 0.5834 0.5818 0.5625
1281.000000 0.5475 0.5326 0.5178 0.5029 0.4881
1286.000000 0.4734 0.4616 0.4599 0.4626 0.4671
1291.000000 0.4772 0.4873 0.4973 0.5073 0.5157
1296.000000 0.5161 0.5162 0.4943 0.4546 0.4149
1301.000000 0.3752 0.3355 0.2963 0.2755 0.2721
1306.000000 0.2716 0.2739 0.2794 0.2971 0.3162
1311.000000 0.3351 0.3540 0.3730 0.3918 0.4074
1316.000000 0.4090 0.4091 0.4093 0.4094 0.4096
1321.000000 0.4099 0.4107 0.4191 0.4283 0.4377
1326.000000 0.4470 0.4563 0.4656 0.4748 0.4841
1331.000000 0.4933 0.5026 0.5091 0.5103 0.5113
1336.000000 0.5125 0.5275 0.5462 0.5649 0.5835
1341.000000 0.6022 0.6208 0.6357 0.6414 0.6454
1346.000000 0.6491 0.6529 0.6580 0.6627 0.6670
1351.000000 0.6721 0.6782 0.6942 0.7112 0.7281
1356.000000 0.7451 0.7620 0.7673 0.7676 0.7675
1361.000000 0.7670 0.7500 0.7277 0.7054 0.6831
1366.000000 0.6608 0.6386 0.6165 0.5943 0.5747
1371.000000 0.5721 0.5714 0.5748 0.5888 0.6034
1376.000000 0.6178 0.6323 0.6467 0.6612 0.6755
1381.000000 0.6899 0.7043 0.7186 0.7329 0.7473
1386.000000 0.7615 0.7758 0.7900 0.8042 0.8182
1391.000000 0.8258 0.8289 0.8317 0.8330 0.8338
1396.000000 0.8343 0.8328 0.8342 0.8338 0.8333
1401.000000 0.8320 0.8304 0.8262 0.8197 0.8142
1406.000000 0.8095 0.8028 0.7947 0.7818 0.7660
1411.000000 0.7502 0.7345 0.7187 0.7034 0.6938
1416.000000 0.6872 0.6830 0.6795 0.6769 0.6758
1421.000000 0.6746 0.6735 0.6725 0.6718 0.6711
1426.000000 0.6705 0.6699 0.6692 0.6673 0.6547
1431.000000 0.6351 0.6153 0.5954 0.5755 0.5557
1436.000000 0.5359 0.5161 0.4964 0.4766 0.4515
1441.000000 0.3559 0.2616 0.2116 0.1819 0.1633
1446.000000 0.1520 0.1444 0.1370 0.1157 0.1043
1451.000000 0.1031 0.1056 0.1058 0.1138 0.1351
1456.000000 0.1606 0.1861 0.2116 0.2370 0.2624
1461.000000 0.2878 0.3130 0.3405 0.3708 0.3803
1466.000000 0.3950 0.4134 0.4317 0.4500 0.4683
1471.000000 0.4865 0.5047 0.5229 0.5411 0.5593
1476.000000 0.5774 0.5955 0.6135 0.6247 0.6282
1481.000000 0.6290 0.6296 0.6281 0.6289 0.6281
1486.000000 0.6218 0.6107 0.5991 0.5875 0.5760
1491.000000 0.5646 0.5525 0.5375 0.5185 0.4918
1496.000000 0.4619 0.4322 0.4025 0.3727 0.3431
1501.000000 0.3134 0.2839 0.2543 0.2248 0.1953
1506.000000 0.1659 0.1414 0.1323 0.1241 0.1162
1511.000000 0.1089 0.1016 0.0913 0.0790 0.0663
1516.000000 0.0559 0.0481 0.0369 0.0350 0.0326
1521.000000 0.0325 0.0336 0.0468 0.0755 0.1060
1526.000000 0.1364 0.1669 0.1972 0.2276 0.2578
1531.000000 0.2881 0.3183 0.3485 0.3786 0.4088
1536.000000 0.4388 0.4689 0.4989 0.5288 0.5587
1541.000000 0.5886 0.6083 0.6198 0.6280 0.6357
1546.000000 0.6497 0.6673 0.7197 0.7276 0.7353
1551.000000 0.7431 0.7521 0.7676 0.7829 0.7944
1556.000000 0.8053 0.8146 0.8205 0.8243 0.8280
1561.000000 0.8319 0.8359 0.8400 0.8441 0.8482
1566.000000 0.8524 0.8564 0.8605 0.8646 0.8675
1571.000000 0.8679 0.8676 0.8671 0.8663 0.8652
1576.000000 0.8634 0.8611 0.8557 0.8498 0.8412
1581.000000 0.8325 0.8229 0.8070 0.7888 0.7707
1586.000000 0.7526 0.7345 0.7164 0.7039 0.7008
1591.000000 0.7019 0.7195 0.7336 0.7477 0.7618
1596.000000 0.7759 0.7857 0.7886 0.7870 0.7875
1601.000000 0.7702 0.7599 0.7497 0.7395 0.7293
1606.000000 0.7190 0.7088 0.6987 0.6887 0.6793
1611.000000 0.6704 0.6618 0.6537 0.6381 0.6110
1616.000000 0.5908 0.5504 0.5110 0.4718 0.4454
1621.000000 0.4399 0.4415 0.4401 0.4469 0.4708
1626.000000 0.5048 0.5388 0.5727 0.6066 0.6404
1631.000000 0.6743 0.7080 0.7418 0.7754 0.8090
1636.000000 0.8418 0.8516 0.8579 0.8669 0.8789
1641.000000 0.8909 0.9007 0.9088 0.9145 0.9165
1646.000000 0.9185 0.9202 0.9216 0.9229 0.9241
1651.000000 0.9250 0.9257 0.9264 0.9270 0.9275
1656.000000 0.9279 0.9284 0.9288 0.9294 0.9298
1661.000000 0.9303 0.9308 0.9313 0.9319 0.9325
1666.000000 0.9332 0.9339 0.9345 0.9352 0.9361
1671.000000 0.9376 0.9389 0.9403 0.9417 0.9430
1676.000000 0.9444 0.9458 0.9473 0.9490 0.9507
1681.000000 0.9524 0.9540 0.9556 0.9571 0.9587
1686.000000 0.9602 0.9617 0.9632 0.9647 0.9662
1691.000000 0.9675 0.9689 0.9702 0.9716 0.9729
1696.000000 0.9735 0.9740 0.9746 0.9751 0.9756
1701.000000 0.9760 0.9760 0.9760 0.9760 0.9761
1706.000000 0.9761 0.9761 0.9761 0.9761 0.9760
1711.000000 0.9760 0.9758 0.9757 0.9756 0.9755
1716.000000 0.9754 0.9754 0.9753 0.9752 0.9750
1721.000000 0.9749 0.9748 0.9746 0.9745 0.9744
1726.000000 0.9742 0.9741 0.9739 0.9738 0.9737
1731.000000 0.9735 0.9733 0.9731 0.9729 0.9727
1736.000000 0.9726 0.9724 0.9722 0.9721 0.9721
1741.000000 0.9722 0.9722 0.9723 0.9726 0.9729
1746.000000 0.9733 0.9737 0.9741 0.9746 0.9749
1751.000000 0.9751 0.9753 0.9753 0.9755 0.9756
1756.000000 0.9757 0.9757 0.9756 0.9754 0.9752
1761.000000 0.9751 0.9749 0.9748 0.9746 0.9744
1766.000000 0.9743 0.9741 0.9740 0.9737 0.9735
1771.000000 0.9732 0.9730 0.9728 0.9725 0.9723
1776.000000 0.9720 0.9718 0.9716 0.9713 0.9711
1781.000000 0.9708 0.9704 0.9701 0.9698 0.9695
1786.000000 0.9691 0.9687 0.9684 0.9681 0.9678
1791.000000 0.9675 0.9671 0.9668 0.9664 0.9661
1796.000000 0.9657 0.9654 0.9651 0.9648 0.9647
1801.000000 0.9648 0.9649 0.9650 0.9652 0.9652
1806.000000 0.9653 0.9654 0.9656 0.9657 0.9658
1811.000000 0.9661 0.9664 0.9667 0.9670 0.9673
1816.000000 0.9676 0.9679 0.9682 0.9686 0.9690
1821.000000 0.9694 0.9698 0.9702 0.9706 0.9709
1826.000000 0.9708 0.9707 0.9706 0.9704 0.9703
1831.000000 0.9702 0.9701 0.9699 0.9699 0.9697
1836.000000 0.9695 0.9693 0.9690 0.9688 0.9685
1841.000000 0.9682 0.9679 0.9677 0.9674 0.9672
1846.000000 0.9665 0.9658 0.9651 0.9644 0.9638
1851.000000 0.9624 0.9604 0.9582 0.9566 0.9551
1856.000000 0.9536 0.9522 0.9519 0.9522 0.9525
1861.000000 0.9527 0.9531 0.9544 0.9539 0.9544
1866.000000 0.9548 0.9552 0.9557 0.9562 0.9566
1871.000000 0.9572 0.9577 0.9582 0.9587 0.9593
1876.000000 0.9599 0.9606 0.9613 0.9623 0.9634
1881.000000 0.9645 0.9657 0.9667 0.9678 0.9689
1886.000000 0.9697 0.9705 0.9712 0.9719 0.9725
1891.000000 0.9731 0.9733 0.9736 0.9739 0.9741
1896.000000 0.9744 0.9746 0.9749 0.9751 0.9753
1901.000000 0.9754 0.9756 0.9758 0.9760 0.9762
1906.000000 0.9764 0.9766 0.9766 0.9767 0.9766
1911.000000 0.9766 0.9766 0.9765 0.9765 0.9765
1916.000000 0.9764 0.9764 0.9764 0.9765 0.9765
1921.000000 0.9765 0.9765 0.9765 0.9765 0.9765
1926.000000 0.9765 0.9765 0.9765 0.9765 0.9765
1931.000000 0.9765 0.9766 0.9766 0.9766 0.9766
1936.000000 0.9766 0.9766 0.9766 0.9766 0.9766
1941.000000 0.9766 0.9766 0.9766 0.9766 0.9766
1946.000000 0.9767 0.9767 0.9767 0.9767 0.9767
1951.000000 0.9767 0.9767 0.9767 0.9767 0.9767
1956.000000 0.9767 0.9767 0.9768 0.9768 0.9769
1961.000000 0.9770 0.9770 0.9770 0.9771 0.9771
1966.000000 0.9772 0.9773 0.9773 0.9774 0.9774
1971.000000 0.9774 0.9775 0.9775 0.9776 0.9777
1976.000000 0.9777 0.9778 0.9780 0.9780 0.9781
1981.000000 0.9782 0.9782 0.9783 0.9783 0.9784
1986.000000 0.9785 0.9785 0.9786 0.9788 0.9788
1991.000000 0.9788 0.9788 0.9789 0.9790 0.9790
1996.000000 0.9791 0.9791 0.9791 0.9792 0.9793
2001.000000 0.9793 0.9793 0.9793 0.9794 0.9795
2006.000000 0.9795 0.9796 0.9796 0.9795 0.9794
2011.000000 0.9794 0.9793 0.9791 0.9791 0.9790
2016.000000 0.9789 0.9788 0.9787 0.9786 0.9785
2021.000000 0.9785 0.9783 0.9782 0.9782 0.9781
2026.000000 0.9779 0.9779 0.9778 0.9777 0.9776
2031.000000 0.9775 0.9773 0.9772 0.9770 0.9769
2036.000000 0.9767 0.9765 0.9764 0.9762 0.9760
2041.000000 0.9759 0.9757 0.9756 0.9755 0.9753
2046.000000 0.9751 0.9749 0.9748 0.9747 0.9745
2051.000000 0.9743 0.9742 0.9741 0.9739 0.9738
2056.000000 0.9737 0.9737 0.9736 0.9736 0.9735
2061.000000 0.9735 0.9734 0.9734 0.9734 0.9733
2066.000000 0.9733 0.9732 0.9731 0.9731 0.9730
2071.000000 0.9730 0.9730 0.9729 0.9729 0.9728
2076.000000 0.9728 0.9727 0.9727 0.9726 0.9726
2081.000000 0.9726 0.9726 0.9726 0.9726 0.9726
2086.000000 0.9726 0.9726 0.9726 0.9726 0.9726
2091.000000 0.9726 0.9726 0.9726 0.9726 0.9726
2096.000000 0.9727 0.9727 0.9727 0.9727 0.9727
2101.000000 0.9727 0.9727 0.9727 0.9727 0.9727
2106.000000 0.9727 0.9727 0.9726 0.9726 0.9726
2111.000000 0.9726 0.9726 0.9726 0.9726 0.9726
2116.000000 0.9726 0.9725 0.9725 0.9725 0.9725
2121.000000 0.9725 0.9725 0.9724 0.9724 0.9723
2126.000000 0.9722 0.9722 0.9721 0.9720 0.9719
2131.000000 0.9719 0.9718 0.9718 0.9717 0.9716
2136.000000 0.9716 0.9715 0.9715 0.9714 0.9713
2141.000000 0.9712 0.9712 0.9711 0.9711 0.9710
2146.000000 0.9709 0.9709 0.9708 0.9707 0.9706
2151.000000 0.9706 0.9705 0.9704 0.9703 0.9703
2156.000000 0.9702 0.9701 0.9700 0.9699 0.9698
2161.000000 0.9697 0.9697 0.9696 0.9695 0.9694
2166.000000 0.9694 0.9693 0.9692 0.9691 0.9691
2171.000000 0.9690 0.9689 0.9688 0.9687 0.9687
2176.000000 0.9686 0.9686 0.9685 0.9684 0.9683
2181.000000 0.9683 0.9682 0.9682 0.9681 0.9681
2186.000000 0.9680 0.9680 0.9679 0.9679 0.9678
2191.000000 0.9678 0.9677 0.9676 0.9676 0.9675
2196.000000 0.9675 0.9674 0.9674 0.9673 0.9672
2201.000000 0.9671 0.9671 0.9670 0.9668 0.9666
2206.000000 0.9664 0.9663 0.9660 0.9659 0.9657
2211.000000 0.9655 0.9653 0.9652 0.9650 0.9648
2216.000000 0.9646 0.9644 0.9643 0.9641 0.9639
2221.000000 0.9637 0.9634 0.9630 0.9625 0.9621
2226.000000 0.9617 0.9613 0.9608 0.9605 0.9602
2231.000000 0.9603 0.9605 0.9607 0.9608 0.9610
2236.000000 0.9612 0.9614 0.9616 0.9618 0.9620
2241.000000 0.9622 0.9624 0.9627 0.9629 0.9631
2246.000000 0.9633 0.9636 0.9638 0.9640 0.9643
2251.000000 0.9647 0.9651 0.9654 0.9658 0.9662
2256.000000 0.9666 0.9669 0.9670 0.9671 0.9673
2261.000000 0.9674 0.9676 0.9677 0.9679 0.9680
2266.000000 0.9682 0.9683 0.9685 0.9686 0.9688
2271.000000 0.9689 0.9690 0.9691 0.9691 0.9691
2276.000000 0.9691 0.9692 0.9692 0.9693 0.9693
2281.000000 0.9693 0.9693 0.9692 0.9691 0.9690
2286.000000 0.9689 0.9688 0.9687 0.9686 0.9685
2291.000000 0.9684 0.9683 0.9681 0.9680 0.9679
2296.000000 0.9678 0.9677 0.9675 0.9674 0.9673
2301.000000 0.9672 0.9671 0.9669 0.9668 0.9667
2306.000000 0.9666 0.9664 0.9663 0.9662 0.9660
2311.000000 0.9659 0.9657 0.9656 0.9655 0.9654
2316.000000 0.9653 0.9651 0.9650 0.9649 0.9648
2321.000000 0.9647 0.9645 0.9644 0.9643 0.9642
2326.000000 0.9641 0.9641 0.9640 0.9640 0.9639
2331.000000 0.9639 0.9639 0.9638 0.9638 0.9637
2336.000000 0.9637 0.9636 0.9636 0.9635 0.9635
2341.000000 0.9634 0.9634 0.9634 0.9633 0.9633
2346.000000 0.9632 0.9632 0.9631 0.9631 0.9630
2351.000000 0.9630 0.9629 0.9628 0.9628 0.9627
2356.000000 0.9627 0.9626 0.9625 0.9624 0.9623
2361.000000 0.9622 0.9622 0.9621 0.9621 0.9620
2366.000000 0.9619 0.9618 0.9617 0.9617 0.9616
2371.000000 0.9615 0.9614 0.9614 0.9614 0.9613
2376.000000 0.9612 0.9611 0.9610 0.9609 0.9607
2381.000000 0.9605 0.9602 0.9598 0.9595 0.9592
2386.000000 0.9589 0.9585 0.9582 0.9578 0.9575
2391.000000 0.9572 0.9569 0.9565 0.9562 0.9559
2396.000000 0.9556 0.9553 0.9550 0.9547 0.9544
2401.000000 0.9541 0.9539 0.9538 0.9538 0.9538
2406.000000 0.9538 0.9538 0.9538 0.9538 0.9538
2411.000000 0.9539 0.9539 0.9539 0.9539 0.9539
2416.000000 0.9539 0.9539 0.9539 0.9539 0.9539
2421.000000 0.9540 0.9540 0.9540 0.9540 0.9541
2426.000000 0.9541 0.9541 0.9541 0.9541 0.9541
2431.000000 0.9541 0.9542 0.9542 0.9542 0.9542
2436.000000 0.9542 0.9543 0.9543 0.9543 0.9543
2441.000000 0.9543 0.9543 0.9543 0.9543 0.9543
2446.000000 0.9543 0.9542 0.9542 0.9541 0.9541
2451.000000 0.9540 0.9540 0.9539 0.9538 0.9538
2456.000000 0.9537 0.9537 0.9537 0.9536 0.9535
2461.000000 0.9534 0.9534 0.9534 0.9533 0.9532
2466.000000 0.9531 0.9530 0.9528 0.9527 0.9526
2471.000000 0.9525 0.9524 0.9523 0.9522 0.9521
2476.000000 0.9520 0.9518 0.9517 0.9516 0.9516
2481.000000 0.9514 0.9513 0.9512 0.9511 0.9511
2486.000000 0.9509 0.9508 0.9507 0.9506 0.9505
2491.000000 0.9504 0.9503 0.9501 0.9499 0.9497
2496.000000 0.9495 0.9493 0.9490 0.9488 0.9486
2501.000000 0.9484 0.9482 0.9480 0.9478 0.9476
2506.000000 0.9473 0.9471 0.9469 0.9467 0.9465
2511.000000 0.9462 0.9460 0.9458 0.9456 0.9454
2516.000000 0.9452 0.9450 0.9448 0.9445 0.9443
2521.000000 0.9441 0.9439 0.9437 0.9434 0.9431
2526.000000 0.9428 0.9425 0.9422 0.9418 0.9415
2531.000000 0.9412 0.9408 0.9405 0.9402 0.9399
2536.000000 0.9396 0.9393 0.9390 0.9387 0.9384
2541.000000 0.9380 0.9377 0.9374 0.9371 0.9368
2546.000000 0.9365 0.9362 0.9359 0.9356 0.9353
2551.000000 0.9350 0.9345 0.9341 0.9336 0.9331
2556.000000 0.9326 0.9320 0.9315 0.9310 0.9304
2561.000000 0.9299 0.9294 0.9288 0.9283 0.9278
2566.000000 0.9273 0.9268 0.9263 0.9257 0.9252
2571.000000 0.9247 0.9242 0.9236 0.9231 0.9226
2576.000000 0.9220 0.9215 0.9209 0.9203 0.9197
2581.000000 0.9192 0.9186 0.9181 0.9175 0.9169
2586.000000 0.9163 0.9157 0.9151 0.9146 0.9140
2591.000000 0.9135 0.9129 0.9124 0.9118 0.9112
2596.000000 0.9106 0.9100 0.9095 0.9089 0.9084
2601.000000 0.9078 0.9074 0.9072 0.9069 0.9070
2606.000000 0.9071 0.9073 0.9074 0.9076 0.9077
2611.000000 0.9079 0.9080 0.9081 0.9083 0.9084
2616.000000 0.9087 0.9089 0.9092 0.9097 0.9101
2621.000000 0.9105 0.9108 0.9112 0.9113 0.9114
2626.000000 0.9115 0.9117 0.9118 0.9118 0.9115
2631.000000 0.9111 0.9108 0.9105 0.9102 0.9097
2636.000000 0.9093 0.9088 0.9080 0.9072 0.9064
2641.000000 0.9052 0.9041 0.9029 0.9014 0.8998
2646.000000 0.8979 0.8956 0.8933 0.8910 0.8887
2651.000000 0.8864 0.8845 0.8826 0.8807 0.8789
2656.000000 0.8772 0.8754 0.8736 0.8718 0.8700
2661.000000 0.8683 0.8666 0.8649 0.8633 0.8616
2666.000000 0.8599 0.8582 0.8565 0.8554 0.8543
2671.000000 0.8533 0.8526 0.8520 0.8514 0.8513
2676.000000 0.8512 0.8494 0.8512 0.8512 0.8519
2681.000000 0.8534 0.8548 0.8567 0.8587 0.8608
2686.000000 0.8628 0.8649 0.8669 0.8689 0.8709
2691.000000 0.8729 0.8750 0.8770 0.8790 0.8811
2696.000000 0.8831 0.8851 0.8868 0.8886 0.8901
2701.000000 0.8906 0.8912 0.8917 0.8924 0.8930
2706.000000 0.8937 0.8943 0.8950 0.8955 0.8959
2711.000000 0.8963 0.8966 0.8969 0.8972 0.8975
2716.000000 0.8978 0.8980 0.8983 0.8986 0.8989
2721.000000 0.8990 0.8991 0.8992 0.8992 0.8992
2726.000000 0.8992 0.9004 0.8991 0.8991 0.8991
2731.000000 0.8991 0.8991 0.8990 0.8990 0.8990
2736.000000 0.8989 0.8988 0.8987 0.8986 0.8985
2741.000000 0.8984 0.8983 0.8982 0.8981 0.8980
2746.000000 0.8979 0.8979 0.8978 0.8977 0.8976
2751.000000 0.8975 0.8974 0.8973 0.8971 0.8969
2756.000000 0.8967 0.8965 0.8963 0.8960 0.8957
2761.000000 0.8954 0.8950 0.8946 0.8941 0.8936
2766.000000 0.8928 0.8919 0.8909 0.8895 0.8878
2771.000000 0.8860 0.8841 0.8821 0.8801 0.8782
2776.000000 0.8763 0.8743 0.8723 0.8700 0.8676
2781.000000 0.8652 0.8629 0.8605 0.8582 0.8554
2786.000000 0.8527 0.8500 0.8468 0.8435 0.8402
2791.000000 0.8349 0.8291 0.8234 0.8200 0.8176
2796.000000 0.8152 0.8130 0.8108 0.8086 0.8065
2801.000000 0.8043 0.8021 0.7999 0.7977 0.7955
2806.000000 0.7933 0.7913 0.7893 0.7873 0.7854
2811.000000 0.7834 0.7814 0.7794 0.7773 0.7752
2816.000000 0.7729 0.7704 0.7680 0.7656 0.7633
2821.000000 0.7610 0.7589 0.7571 0.7554 0.7536
2826.000000 0.7518 0.7501 0.7483 0.7466 0.7448
2831.000000 0.7431 0.7386 0.7333 0.7279 0.7206
2836.000000 0.7117 0.7028 0.6950 0.6898 0.6847
2841.000000 0.6795 0.6749 0.6702 0.6656 0.6564
2846.000000 0.6465 0.6366 0.6301 0.6256 0.6212
2851.000000 0.6174 0.6150 0.6125 0.6101 0.6076
2856.000000 0.6051 0.6026 0.5999 0.5972 0.5945
2861.000000 0.5907 0.5863 0.5818 0.5620 0.5081
2866.000000 0.4542 0.4004 0.3493 0.2981 0.2470
2871.000000 0.2025 0.1605 0.1185 0.0948 0.0948
2876.000000 0.0947 0.0936 0.0945 0.0944 0.0943
2881.000000 0.0978 0.1022 0.1065 0.1112 0.1161
2886.000000 0.1210 0.1259 0.1308 0.1357 0.1406
2891.000000 0.1455 0.1504 0.1552 0.1601 0.1650
2896.000000 0.1698 0.1747 0.1795 0.1844 0.1892
2901.000000 0.1941 0.1989 0.2037 0.2082 0.2122
2906.000000 0.2162 0.2199 0.2184 0.2167 0.2150
2911.000000 0.2106 0.2047 0.1987 0.1928 0.1868
2916.000000 0.1808 0.1749 0.1689 0.1630 0.1571
2921.000000 0.1511 0.1452 0.1393 0.1333 0.1274
2926.000000 0.1215 0.1156 0.1097 0.1038 0.0979
2931.000000 0.0920 0.0861 0.0802 0.0743 0.0685
2936.000000 0.0626 0.0567 0.0508 0.0450 0.0391
2941.000000 0.0333 0.0285 0.0239 0.0193 0.0161
2946.000000 0.0153 0.0145 0.0137 0.0134 0.0132
2951.000000 0.0130 0.0128 0.0128 0.0127 0.0127
2956.000000 0.0134 0.0128 0.0128 0.0129 0.0130
2961.000000 0.0131 0.0131 0.0133 0.0135 0.0136
2966.000000 0.0166 0.0239 0.0311 0.0383 0.0537
2971.000000 0.0702 0.0868 0.1033 0.1198 0.1363
2976.000000 0.1528 0.1693 0.1857 0.2022 0.2187
2981.000000 0.2351 0.2515 0.2679 0.2843 0.3007
2986.000000 0.3171 0.3335 0.3499 0.3662 0.3826
2991.000000 0.3989 0.4152 0.4315 0.4479 0.4641
2996.000000 0.4804 0.4967 0.5129 0.5291 0.5454
3001.000000 0.5616 0.5778 0.5940 0.6102 0.6253
3006.000000 0.6361 0.6470 0.6578 0.6624 0.6625
3011.000000 0.6626 0.6627 0.6629 0.6630 0.6631
3016.000000 0.6631 0.6629 0.6628 0.6626 0.6616
3021.000000 0.6603 0.6590 0.6576 0.6563 0.6550
3026.000000 0.6537 0.6524 0.6510 0.6497 0.6484
3031.000000 0.6470 0.6457 0.6444 0.6430 0.6417
3036.000000 0.6404 0.6391 0.6378 0.6365 0.6352
3041.000000 0.6338 0.6325 0.6312 0.6299 0.6285
3046.000000 0.6281 0.6277 0.6273 0.6287 0.6363
3051.000000 0.6439 0.6515 0.6600 0.6693 0.6786
3056.000000 0.6879 0.6971 0.7064 0.7157 0.7250
3061.000000 0.7342 0.7434 0.7527 0.7613 0.7683
3066.000000 0.7754 0.7824 0.7925 0.8055 0.8184
3071.000000 0.8314 0.8386 0.8438 0.8490 0.8543
3076.000000 0.8560 0.8576 0.8592 0.8607 0.8623
3081.000000 0.8639 0.8655 0.8671 0.8686 0.8702
3086.000000 0.8718 0.8735 0.8752 0.8769 0.8786
3091.000000 0.8806 0.8826 0.8846 0.8866 0.8887
3096.000000 0.8907 0.8927 0.8947 0.8965 0.8983
3101.000000 0.9001 0.9019 0.9035 0.9051 0.9067
3106.000000 0.9083 0.9099 0.9115 0.9131 0.9146
3111.000000 0.9161 0.9175 0.9190 0.9201 0.9210
3116.000000 0.9219 0.9229 0.9238 0.9247 0.9256
3121.000000 0.9266 0.9275 0.9284 0.9293 0.9303
3126.000000 0.9308 0.9313 0.9319 0.9324 0.9328
3131.000000 0.9333 0.9338 0.9342 0.9347 0.9351
3136.000000 0.9355 0.9359 0.9363 0.9366 0.9370
3141.000000 0.9373 0.9375 0.9377 0.9379 0.9381
3146.000000 0.9383 0.9385 0.9387 0.9389 0.9391
3151.000000 0.9393 0.9394 0.9396 0.9398 0.9400
3156.000000 0.9402 0.9404 0.9406 0.9408 0.9410
3161.000000 0.9411 0.9412 0.9414 0.9415 0.9416
3166.000000 0.9416 0.9417 0.9417 0.9418 0.9419
3171.000000 0.9419 0.9420 0.9421 0.9421 0.9422
3176.000000 0.9422 0.9423 0.9423 0.9424 0.9424
3181.000000 0.9425 0.9425 0.9426 0.9426 0.9427
3186.000000 0.9427 0.9428 0.9428 0.9429 0.9429
3191.000000 0.9430 0.9431 0.9432 0.9432 0.9433
3196.000000 0.9433 0.9434 0.9434 0.9434 0.9434
3201.000000 0.9434 0.9435 0.9435 0.9435 0.9435
3206.000000 0.9436 0.9436 0.9436 0.9436 0.9436
3211.000000 0.9436 0.9436 0.9436 0.9437 0.9437
3216.000000 0.9437 0.9437 0.9438 0.9438 0.9438
3221.000000 0.9438 0.9456 0.9439 0.9439 0.9439
3226.000000 0.9440 0.9440 0.9440 0.9440 0.9440
3231.000000 0.9440 0.9440 0.9440 0.9440 0.9441
3236.000000 0.9441 0.9441 0.9441 0.9442 0.9442
3241.000000 0.9442 0.9442 0.9443 0.9443 0.9443
3246.000000 0.9443 0.9443 0.9443 0.9443 0.9443
3251.000000 0.9444 0.9444 0.9444 0.9444 0.9444
3256.000000 0.9444 0.9444 0.9444 0.9444 0.9445
3261.000000 0.9445 0.9445 0.9445 0.9445 0.9445
3266.000000 0.9445 0.9445 0.9446 0.9446 0.9446
3271.000000 0.9446 0.9446 0.9446 0.9446 0.9446
3276.000000 0.9446 0.9446 0.9446 0.9445 0.9445
3281.000000 0.9444 0.9444 0.9443 0.9443 0.9443
3286.000000 0.9442 0.9442 0.9441 0.9441 0.9440
3291.000000 0.9440 0.9439 0.9439 0.9438 0.9438
3296.000000 0.9437 0.9437 0.9437 0.9435 0.9433
3301.000000 0.9431 0.9429 0.9426 0.9424 0.9422
3306.000000 0.9420 0.9417 0.9415 0.9412 0.9410
3311.000000 0.9407 0.9405 0.9403 0.9400 0.9398
3316.000000 0.9395 0.9390 0.9385 0.9380 0.9375
3321.000000 0.9369 0.9363 0.9357 0.9351 0.9345
3326.000000 0.9340 0.9334 0.9328 0.9322 0.9316
3331.000000 0.9310 0.9304 0.9298 0.9291 0.9283
3336.000000 0.9276 0.9268 0.9261 0.9254 0.9246
3341.000000 0.9239 0.9231 0.9224 0.9216 0.9209
3346.000000 0.9201 0.9193 0.9186 0.9179 0.9171
3351.000000 0.9164 0.9156 0.9147 0.9138 0.9130
3356.000000 0.9121 0.9112 0.9104 0.9095 0.9086
3361.000000 0.9078 0.9069 0.9060 0.9052 0.9042
3366.000000 0.9031 0.9020 0.9008 0.8997 0.8984
3371.000000 0.8971 0.8958 0.8944 0.8931 0.8918
3376.000000 0.8904 0.8891 0.8878 0.8864 0.8851
3381.000000 0.8838 0.8825 0.8812 0.8799 0.8785
3386.000000 0.8772 0.8759 0.8745 0.8732 0.8719
3391.000000 0.8706 0.8693 0.8680 0.8667 0.8654
3396.000000 0.8641 0.8628 0.8615 0.8602 0.8588
3401.000000 0.8575 0.8562 0.8549 0.8536 0.8523
3406.000000 0.8510 0.8497 0.8484 0.8471 0.8458
3411.000000 0.8445 0.8432 0.8419 0.8406 0.8393
3416.000000 0.8381 0.8368 0.8355 0.8342 0.8329
3421.000000 0.8316 0.8303 0.8290 0.8277 0.8266
3426.000000 0.8258 0.8250 0.8242 0.8234 0.8232
3431.000000 0.8232 0.8232 0.8232 0.8232 0.8210
3436.000000 0.8232 0.8232 0.8232 0.8239 0.8276
3441.000000 0.8313 0.8349 0.8386 0.8431 0.8486
3446.000000 0.8540 0.8595 0.8649 0.8704 0.8758
3451.000000 0.8813 0.8867 0.8921 0.8943 0.8963
3456.000000 0.8983 0.9003 0.9023 0.9042 0.9061
3461.000000 0.9081 0.9100 0.9116 0.9128 0.9140
3466.000000 0.9152 0.9164 0.9173 0.9181 0.9190
3471.000000 0.9198 0.9206 0.9212 0.9219 0.9225
3476.000000 0.9231 0.9237 0.9242 0.9246 0.9251
3481.000000 0.9255 0.9260 0.9265 0.9269 0.9274
3486.000000 0.9278 0.9283 0.9287 0.9291 0.9296
3491.000000 0.9300 0.9304 0.9308 0.9312 0.9316
3496.000000 0.9320 0.9323 0.9326 0.9329 0.9331
3501.000000 0.9334 0.9337 0.9340 0.9343 0.9346
3506.000000 0.9349 0.9351 0.9354 0.9357 0.9360
3511.000000 0.9363 0.9366 0.9369 0.9371 0.9374
3516.000000 0.9377 0.9380 0.9382 0.9384 0.9387
3521.000000 0.9389 0.9391 0.9393 0.9395 0.9397
3526.000000 0.9398 0.9400 0.9402 0.9404 0.9406
3531.000000 0.9408 0.9410 0.9412 0.9414 0.9416
3536.000000 0.9418 0.9420 0.9422 0.9424 0.9426
3541.000000 0.9427 0.9429 0.9431 0.9433 0.9435
3546.000000 0.9436 0.9438 0.9439 0.9441 0.9442
3551.000000 0.9443 0.9445 0.9446 0.9447 0.9448
3556.000000 0.9449 0.9451 0.9452 0.9453 0.9455
3561.000000 0.9456 0.9458 0.9459 0.9460 0.9462
3566.000000 0.9463 0.9464 0.9465 0.9466 0.9467
3571.000000 0.9468 0.9469 0.9469 0.9469 0.9469
3576.000000 0.9469 0.9470 0.9470 0.9470 0.9470
3581.000000 0.9470 0.9471 0.9471 0.9471 0.9471
3586.000000 0.9471 0.9472 0.9472 0.9472 0.9472
3591.000000 0.9472 0.9472 0.9472 0.9472 0.9472
3596.000000 0.9472 0.9472 0.9505 0.9473 0.9473
3601.000000 0.9473 0.9473 0.9474 0.9474 0.9474
3606.000000 0.9474 0.9474 0.9475 0.9475 0.9475
3611.000000 0.9475 0.9475 0.9476 0.9476 0.9476
3616.000000 0.9476 0.9476 0.9476 0.9476 0.9476
3621.000000 0.9476 0.9476 0.9476 0.9476 0.9476
3626.000000 0.9476 0.9476 0.9476 0.9476 0.9476
3631.000000 0.9476 0.9476 0.9476 0.9475 0.9475
3636.000000 0.9475 0.9475 0.9475 0.9475 0.9475
3641.000000 0.9475 0.9475 0.9475 0.9475 0.9475
3646.000000 0.9475 0.9475 0.9475 0.9475 0.9474
3651.000000 0.9474 0.9474 0.9474 0.9474 0.9474
3656.000000 0.9474 0.9474 0.9474 0.9474 0.9474
3661.000000 0.9473 0.9473 0.9473 0.9473 0.9473
3666.000000 0.9472 0.9472 0.9472 0.9472 0.9472
3671.000000 0.9472 0.9471 0.9471 0.9471 0.9471
3676.000000 0.9471 0.9471 0.9471 0.9471 0.9471
3681.000000 0.9471 0.9470 0.9470 0.9470 0.9470
3686.000000 0.9470 0.9470 0.9469 0.9469 0.9469
3691.000000 0.9469 0.9469 0.9469 0.9469 0.9469
3696.000000 0.9469 0.9469 0.9469 0.9468 0.9468
3701.000000 0.9468 0.9468 0.9468 0.9467 0.9467
3706.000000 0.9467 0.9466 0.9466 0.9466 0.9465
3711.000000 0.9465 0.9464 0.9463 0.9463 0.9462
3716.000000 0.9462 0.9462 0.9461 0.9461 0.9461
3721.000000 0.9460 0.9460 0.9459 0.9458 0.9458
3726.000000 0.9457 0.9457 0.9456 0.9456 0.9455
3731.000000 0.9455 0.9454 0.9454 0.9454 0.9453
3736.000000 0.9453 0.9452 0.9452 0.9451 0.9451
3741.000000 0.9450 0.9450 0.9449 0.9449 0.9449
3746.000000 0.9448 0.9448 0.9448 0.9447 0.9447
3751.000000 0.9446 0.9445 0.9445 0.9444 0.9444
3756.000000 0.9443 0.9443 0.9442 0.9442 0.9441
3761.000000 0.9440 0.9440 0.9439 0.9438 0.9438
3766.000000 0.9437 0.9436 0.9435 0.9435 0.9434
3771.000000 0.9433 0.9433 0.9432 0.9431 0.9431
3776.000000 0.9430 0.9429 0.9428 0.9428 0.9427
3781.000000 0.9426 0.9426 0.9425 0.9424 0.9424
3786.000000 0.9423 0.9422 0.9421 0.9421 0.9420
3791.000000 0.9419 0.9419 0.9418 0.9417 0.9417
3796.000000 0.9416 0.9415 0.9414 0.9414 0.9413
3801.000000 0.9412 0.9411 0.9410 0.9410 0.9409
3806.000000 0.9408 0.9407 0.9407 0.9406 0.9405
3811.000000 0.9404 0.9404 0.9403 0.9402 0.9402
3816.000000 0.9401 0.9400 0.9400 0.9399 0.9398
3821.000000 0.9398 0.9397 0.9396 0.9396 0.9395
3826.000000 0.9394 0.9394 0.9393 0.9392 0.9391
3831.000000 0.9391 0.9390 0.9389 0.9389 0.9388
3836.000000 0.9387 0.9387 0.9386 0.9385 0.9385
3841.000000 0.9384 0.9384 0.9383 0.9383 0.9382
3846.000000 0.9382 0.9381 0.9380 0.9380 0.9379
3851.000000 0.9378 0.9378 0.9377 0.9376 0.9376
3856.000000 0.9375 0.9374 0.9374 0.9373 0.9373
3861.000000 0.9372 0.9371 0.9371 0.9370 0.9370
3866.000000 0.9369 0.9368 0.9368 0.9367 0.9366
3871.000000 0.9366 0.9365 0.9364 0.9364 0.9363
3876.000000 0.9362 0.9362 0.9361 0.9361 0.9360
3881.000000 0.9360 0.9359 0.9359 0.9358 0.9358
3886.000000 0.9357 0.9356 0.9356 0.9355 0.9354
3891.000000 0.9354 0.9353 0.9352 0.9352 0.9351
3896.000000 0.9350 0.9350 0.9349 0.9348 0.9348
3901.000000 0.9347 0.9347 0.9346 0.9346 0.9345
3906.000000 0.9345 0.9344 0.9343 0.9343 0.9342
3911.000000 0.9341 0.9341 0.9340 0.9340 0.9339
3916.000000 0.9339 0.9338 0.9338 0.9337 0.9337
3921.000000 0.9336 0.9336 0.9335 0.9335 0.9334
3926.000000 0.9334 0.9333 0.9332 0.9332 0.9331
3931.000000 0.9330 0.9330 0.9329 0.9329 0.9328
3936.000000 0.9328 0.9328 0.9327 0.9327 0.9326
3941.000000 0.9326 0.9325 0.9325 0.9324 0.9324
3946.000000 0.9323 0.9323 0.9322 0.9322 0.9321
3951.000000 0.9321 0.9320 0.9320 0.9319 0.9319
3956.000000 0.9318 0.9318 0.9317 0.9316 0.9316
3961.000000 0.9315 0.9314 0.9314 0.9314 0.9313
3966.000000 0.9313 0.9312 0.9312 0.9311 0.9311
3971.000000 0.9310 0.9310 0.9309 0.9309 0.9308
3976.000000 0.9308 0.9307 0.9307 0.9306 0.9306
3981.000000 0.9305 0.9305 0.9304 0.9304 0.9303
3986.000000 0.9302 0.9302 0.9301 0.9300 0.9299
3991.000000 0.9299 0.9298 0.9297 0.9296 0.9295
3996.000000 0.9294 0.9293 0.9292 0.9291 0.9291
##END=
