##TITLE=1-AMINO-4-BROMO-2-ANTHRAQUINONE SULFONIC ACID, SODIUM SALT
##JCAMP-DX=4.24
##DATA TYPE=INFRARED SPECTRUM
##CLASS=COBLENTZ
##ORIGIN=CORN PRODUCTS COMPANY
##OWNER=COBLENTZ SOCIETY
Collection (C) 2018 copyright by the U.S. Secretary of Commerce
on behalf of the United States of America. All rights reserved.
##DATE=Not specified, most likely prior to 1970
##MOLFORM=C14 H7 Br N S O5 Na
##SOURCE REFERENCE=COBLENTZ NO. 4616
##$NIST ID=B6004616
##$NIST SOURCE=COBLENTZ
##$NIST IMAGE=cob4616
##SPECTROMETER/DATA SYSTEM=Not specified, most likely a prism, grating, or hybrid spectrometer.
##STATE=SOLID (KBr PELLET)
##PATH LENGTH=
$$ 88% PURE
##SAMPLING PROCEDURE=TRANSMISSION
##RESOLUTION=4
##DATA PROCESSING=DIGITIZED BY NIST FROM HARD COPY
##XUNITS=MICROMETERS
##YUNITS=TRANSMITTANCE
##XFACTOR=1.000000
##YFACTOR=1
##DELTAX=000.006771
##FIRSTX=2.014
##LASTX=15.5286
##FIRSTY=0.74
##MAXX=15.5286
##MINX=2.014
##MAXY=0.788
##MINY=0.083
##NPOINTS=1997
##XYDATA=(X++(Y..Y))
2.014000 0.7400 0.7400 0.7420 0.7420 0.7440
2.047871 0.7440 0.7440 0.7450 0.7450 0.7450
2.081000 0.7470 0.7470 0.7470 0.7470 0.7470
2.114871 0.7470 0.7490 0.7490 0.7500 0.7500
2.149000 0.7500 0.7500 0.7520 0.7540 0.7540
2.182871 0.7550 0.7550 0.7570 0.7570 0.7570
2.217000 0.7590 0.7590 0.7590 0.7590 0.7610
2.250871 0.7610 0.7610 0.7610 0.7610 0.7610
2.284000 0.7610 0.7610 0.7610 0.7610 0.7610
2.317871 0.7610 0.7610 0.7620 0.7620 0.7620
2.352000 0.7620 0.7640 0.7640 0.7660 0.7660
2.385871 0.7670 0.7670 0.7670 0.7670 0.7690
2.420000 0.7690 0.7690 0.7690 0.7670 0.7670
2.453871 0.7670 0.7670 0.7660 0.7660 0.7660
2.487000 0.7660 0.7640 0.7640 0.7640 0.7640
2.520871 0.7640 0.7620 0.7620 0.7610 0.7610
2.555000 0.7610 0.7590 0.7590 0.7590 0.7590
2.588871 0.7590 0.7590 0.7590 0.7610 0.7610
2.623000 0.7610 0.7590 0.7590 0.7590 0.7610
2.656871 0.7610 0.7610 0.7610 0.7610 0.7620
2.691000 0.7620 0.7620 0.7610 0.7610 0.7590
2.724871 0.7550 0.7500 0.7440 0.7280 0.7050
2.758000 0.6740 0.6230 0.5740 0.5440 0.5250
2.791871 0.4760 0.4230 0.3740 0.3320 0.3050
2.826000 0.2940 0.2830 0.2690 0.2540 0.2400
2.859871 0.2270 0.2130 0.2030 0.1940 0.1890
2.894000 0.1770 0.1620 0.1520 0.1450 0.1380
2.927871 0.1320 0.1280 0.1270 0.1220 0.1200
2.961000 0.1220 0.1330 0.1450 0.1610 0.1830
2.994871 0.2100 0.2300 0.2540 0.2710 0.2840
3.029000 0.2940 0.3010 0.3100 0.3160 0.3250
3.062871 0.3350 0.3500 0.3670 0.3910 0.4180
3.097000 0.4470 0.4710 0.4890 0.5080 0.5220
3.130871 0.5370 0.5490 0.5620 0.5760 0.5860
3.165000 0.5930 0.6000 0.6060 0.6130 0.6250
3.198871 0.6380 0.6450 0.6550 0.6590 0.6610
3.232000 0.6640 0.6660 0.6720 0.6790 0.6810
3.265871 0.6830 0.6830 0.6830 0.6830 0.6810
3.300000 0.6790 0.6790 0.6810 0.6840 0.6880
3.333871 0.6910 0.6960 0.6960 0.7010 0.7050
3.368000 0.7080 0.7110 0.7150 0.7160 0.7200
3.401871 0.7230 0.7250 0.7270 0.7270 0.7280
3.435000 0.7280 0.7300 0.7320 0.7350 0.7370
3.468871 0.7400 0.7420 0.7420 0.7420 0.7420
3.503000 0.7440 0.7440 0.7450 0.7450 0.7470
3.536871 0.7470 0.7490 0.7540 0.7570 0.7590
3.571000 0.7610 0.7640 0.7670 0.7690 0.7690
3.604871 0.7710 0.7710 0.7720 0.7720 0.7720
3.639000 0.7720 0.7740 0.7740 0.7740 0.7760
3.672871 0.7760 0.7770 0.7770 0.7770 0.7760
3.706000 0.7760 0.7740 0.7740 0.7720 0.7720
3.739871 0.7720 0.7720 0.7720 0.7720 0.7720
3.774000 0.7720 0.7720 0.7720 0.7720 0.7720
3.807871 0.7740 0.7740 0.7760 0.7770 0.7770
3.842000 0.7790 0.7790 0.7790 0.7790 0.7790
3.875871 0.7790 0.7790 0.7790 0.7790 0.7790
3.909000 0.7790 0.7790 0.7790 0.7790 0.7790
3.942871 0.7790 0.7810 0.7810 0.7840 0.7860
3.977000 0.7860 0.7880 0.7880 0.7880 0.7880
4.010871 0.7880 0.7880 0.7880 0.7880 0.7880
4.045000 0.7880 0.7880 0.7880 0.7880 0.7880
4.078871 0.7880 0.7880 0.7860 0.7860 0.7860
4.112000 0.7860 0.7860 0.7860 0.7860 0.7860
4.145871 0.7860 0.7860 0.7860 0.7860 0.7860
4.180000 0.7860 0.7860 0.7860 0.7880 0.7880
4.213871 0.7880 0.7880 0.7880 0.7880 0.7880
4.248000 0.7880 0.7880 0.7880 0.7880 0.7880
4.281871 0.7880 0.7880 0.7860 0.7860 0.7860
4.316000 0.7840 0.7840 0.7840 0.7830 0.7830
4.349871 0.7830 0.7830 0.7830 0.7830 0.7830
4.383000 0.7830 0.7830 0.7830 0.7830 0.7810
4.416871 0.7810 0.7810 0.7790 0.7790 0.7790
4.451000 0.7790 0.7790 0.7770 0.7770 0.7770
4.484871 0.7770 0.7790 0.7790 0.7790 0.7770
4.519000 0.7770 0.7770 0.7770 0.7790 0.7790
4.552871 0.7810 0.7810 0.7810 0.7810 0.7810
4.586000 0.7810 0.7810 0.7790 0.7790 0.7790
4.619871 0.7770 0.7770 0.7770 0.7770 0.7770
4.654000 0.7770 0.7770 0.7770 0.7760 0.7760
4.687871 0.7740 0.7720 0.7720 0.7720 0.7720
4.722000 0.7720 0.7710 0.7710 0.7710 0.7710
4.755871 0.7710 0.7710 0.7690 0.7690 0.7690
4.790000 0.7690 0.7670 0.7670 0.7670 0.7670
4.823871 0.7660 0.7660 0.7660 0.7660 0.7640
4.857000 0.7640 0.7640 0.7640 0.7640 0.7640
4.890871 0.7640 0.7640 0.7640 0.7620 0.7620
4.925000 0.7620 0.7620 0.7620 0.7620 0.7620
4.958871 0.7620 0.7620 0.7620 0.7620 0.7620
4.993000 0.7620 0.7640 0.7640 0.7640 0.7640
5.026871 0.7640 0.7640 0.7640 0.7660 0.7660
5.060000 0.7660 0.7670 0.7670 0.7670 0.7670
5.093871 0.7690 0.7690 0.7690 0.7690 0.7710
5.128000 0.7720 0.7720 0.7740 0.7740 0.7760
5.161871 0.7760 0.7770 0.7790 0.7790 0.7790
5.196000 0.7810 0.7810 0.7810 0.7810 0.7810
5.229871 0.7810 0.7810 0.7790 0.7790 0.7810
5.264000 0.7810 0.7810 0.7810 0.7810 0.7810
5.297871 0.7810 0.7810 0.7830 0.7830 0.7830
5.331000 0.7830 0.7830 0.7830 0.7790 0.7790
5.364871 0.7810 0.7810 0.7810 0.7810 0.7810
5.399000 0.7830 0.7830 0.7810 0.7810 0.7810
5.432871 0.7810 0.7810 0.7810 0.7810 0.7790
5.467000 0.7770 0.7770 0.7770 0.7770 0.7770
5.500871 0.7770 0.7770 0.7790 0.7790 0.7790
5.534000 0.7810 0.7810 0.7810 0.7810 0.7810
5.567871 0.7790 0.7790 0.7790 0.7790 0.7790
5.602000 0.7770 0.7760 0.7740 0.7720 0.7710
5.635871 0.7710 0.7710 0.7710 0.7710 0.7710
5.670000 0.7710 0.7720 0.7720 0.7710 0.7710
5.703871 0.7690 0.7690 0.7690 0.7690 0.7690
5.737000 0.7670 0.7670 0.7640 0.7640 0.7620
5.770871 0.7620 0.7610 0.7590 0.7550 0.7520
5.805000 0.7450 0.7440 0.7420 0.7400 0.7320
5.838871 0.7270 0.7230 0.7180 0.7110 0.7060
5.873000 0.7010 0.6960 0.6860 0.6760 0.6610
5.906871 0.6400 0.6300 0.6160 0.5910 0.5400
5.941000 0.4910 0.4300 0.3860 0.3320 0.3050
5.974871 0.2910 0.2890 0.2910 0.3010 0.3220
6.008000 0.3450 0.3660 0.3880 0.3890 0.3890
6.041871 0.3890 0.3890 0.3880 0.3660 0.3300
6.076000 0.2940 0.2740 0.2640 0.2550 0.2470
6.109871 0.2400 0.2350 0.2320 0.2300 0.2300
6.144000 0.2330 0.2400 0.2500 0.2610 0.2620
6.177871 0.2690 0.2720 0.2710 0.2660 0.2590
6.211000 0.2450 0.2370 0.2220 0.1930 0.1620
6.244871 0.1500 0.1400 0.1350 0.1230 0.1220
6.279000 0.1230 0.1350 0.1570 0.1760 0.2000
6.312871 0.2270 0.2550 0.2890 0.3060 0.3400
6.347000 0.4010 0.4640 0.5010 0.5300 0.5500
6.380871 0.5660 0.5770 0.5830 0.5880 0.5890
6.415000 0.5910 0.5910 0.5880 0.5810 0.5570
6.448871 0.5370 0.4940 0.4590 0.4330 0.4050
6.482000 0.4000 0.3940 0.2980 0.2910 0.2830
6.515871 0.2810 0.2830 0.2940 0.3100 0.3300
6.550000 0.3640 0.3910 0.4150 0.4300 0.4610
6.583871 0.4910 0.5130 0.5540 0.5890 0.6000
6.618000 0.6010 0.6030 0.6050 0.6300 0.6500
6.651871 0.6790 0.6840 0.6890 0.6910 0.6940
6.685000 0.6940 0.6980 0.7000 0.7030 0.7030
6.718871 0.7050 0.7050 0.7050 0.7050 0.7050
6.753000 0.7050 0.7050 0.7050 0.7050 0.7060
6.786871 0.7060 0.7080 0.7150 0.7150 0.7110
6.821000 0.7100 0.7060 0.7030 0.7010 0.6980
6.854871 0.6930 0.6910 0.6910 0.6930 0.6940
6.889000 0.6960 0.6980 0.7000 0.7010 0.7010
6.922871 0.7000 0.6980 0.6960 0.6930 0.6890
6.956000 0.6790 0.6690 0.6660 0.6590 0.6520
6.989871 0.6470 0.6370 0.6280 0.6200 0.6150
7.024000 0.6130 0.6110 0.6110 0.6110 0.6130
7.057871 0.6130 0.6150 0.6160 0.6180 0.6200
7.092000 0.6220 0.6230 0.6230 0.6250 0.6250
7.125871 0.6220 0.6200 0.6110 0.6050 0.5840
7.159000 0.5420 0.5220 0.4960 0.4420 0.3890
7.192871 0.3450 0.3200 0.3160 0.3060 0.3050
7.227000 0.3060 0.3250 0.3450 0.3790 0.4150
7.260871 0.4450 0.4740 0.5010 0.5280 0.5520
7.295000 0.5720 0.5930 0.6080 0.6200 0.6250
7.328871 0.6280 0.6300 0.6320 0.6400 0.6500
7.362000 0.6550 0.6590 0.6610 0.6610 0.6610
7.395871 0.6590 0.6540 0.6500 0.6440 0.6300
7.430000 0.6200 0.6110 0.6000 0.5830 0.5570
7.463871 0.5200 0.5080 0.4840 0.4690 0.4490
7.498000 0.4470 0.4490 0.4660 0.4710 0.4790
7.531871 0.5010 0.5160 0.5250 0.5470 0.5590
7.566000 0.5670 0.5710 0.5760 0.5810 0.5830
7.599871 0.5860 0.5890 0.5940 0.5960 0.5980
7.633000 0.5980 0.5960 0.5930 0.5840 0.5790
7.666871 0.5760 0.5670 0.5610 0.5520 0.5420
7.701000 0.5230 0.5010 0.4690 0.4380 0.4150
7.734871 0.3960 0.3710 0.3270 0.2960 0.2770
7.769000 0.2490 0.2270 0.2130 0.2010 0.1930
7.802871 0.1810 0.1710 0.1660 0.1610 0.1590
7.836000 0.1590 0.1570 0.1570 0.1570 0.1570
7.869871 0.1570 0.1570 0.1550 0.1540 0.1520
7.904000 0.1500 0.1500 0.1500 0.1490 0.1490
7.937871 0.1490 0.1500 0.1520 0.1550 0.1610
7.972000 0.1640 0.1690 0.1720 0.1760 0.1770
8.005871 0.1770 0.1770 0.1740 0.1720 0.1710
8.040000 0.1640 0.1610 0.1550 0.1540 0.1540
8.073871 0.1540 0.1540 0.1540 0.1550 0.1550
8.107000 0.1550 0.1550 0.1540 0.1540 0.1520
8.140871 0.1490 0.1490 0.1470 0.1450 0.1450
8.175000 0.1450 0.1450 0.1440 0.1440 0.1420
8.208871 0.1400 0.1400 0.1380 0.1370 0.1350
8.243000 0.1330 0.1300 0.1270 0.1220 0.1160
8.276871 0.1060 0.1010 0.0960 0.0910 0.0860
8.310000 0.0840 0.0840 0.0830 0.0830 0.0830
8.343871 0.0830 0.0840 0.0840 0.0860 0.0880
8.378000 0.0890 0.0930 0.0940 0.0980 0.1010
8.411871 0.1060 0.1150 0.1230 0.1330 0.1420
8.446000 0.1500 0.1570 0.1610 0.1610 0.1610
8.479871 0.1620 0.1620 0.1620 0.1620 0.1640
8.514000 0.1660 0.1690 0.1690 0.1690 0.1710
8.547871 0.1710 0.1690 0.1690 0.1670 0.1660
8.581000 0.1640 0.1610 0.1610 0.1570 0.1540
8.614871 0.1520 0.1520 0.1540 0.1540 0.1550
8.649000 0.1550 0.1570 0.1570 0.1570 0.1550
8.682871 0.1520 0.1500 0.1440 0.1400 0.1380
8.717000 0.1380 0.1370 0.1350 0.1320 0.1300
8.750871 0.1230 0.1200 0.1180 0.1150 0.1130
8.784000 0.1130 0.1110 0.1110 0.1110 0.1110
8.817871 0.1110 0.1110 0.1110 0.1110 0.1110
8.852000 0.1130 0.1130 0.1160 0.1200 0.1220
8.885871 0.1270 0.1320 0.1370 0.1440 0.1470
8.920000 0.1490 0.1500 0.1500 0.1490 0.1470
8.953871 0.1470 0.1450 0.1440 0.1440 0.1440
8.988000 0.1450 0.1490 0.1570 0.1640 0.1720
9.021871 0.1790 0.1890 0.2000 0.2150 0.2300
9.055000 0.2500 0.2720 0.2860 0.3030 0.3200
9.088871 0.3300 0.3450 0.3620 0.3740 0.3830
9.123000 0.3890 0.3980 0.4080 0.4150 0.4250
9.156871 0.4380 0.4450 0.4490 0.4550 0.4620
9.191000 0.4660 0.4760 0.4880 0.4980 0.5050
9.224871 0.5080 0.5110 0.5130 0.5150 0.5180
9.258000 0.5200 0.5230 0.5280 0.5320 0.5350
9.291871 0.5350 0.5380 0.5440 0.5500 0.5550
9.326000 0.5570 0.5590 0.5590 0.5550 0.5550
9.359871 0.5540 0.5520 0.5490 0.5420 0.5300
9.394000 0.5160 0.4960 0.4740 0.4450 0.4110
9.427871 0.3710 0.3350 0.2940 0.2550 0.2150
9.461000 0.1840 0.1610 0.1520 0.1420 0.1370
9.494871 0.1370 0.1380 0.1500 0.1590 0.1710
9.529000 0.1890 0.2110 0.2370 0.2610 0.2810
9.562871 0.2860 0.3000 0.3060 0.3100 0.3100
9.597000 0.3100 0.3080 0.3060 0.3030 0.3010
9.630871 0.3000 0.3010 0.3200 0.3300 0.3330
9.665000 0.3840 0.4180 0.4450 0.4690 0.4860
9.698871 0.5030 0.5150 0.5230 0.5300 0.5330
9.732000 0.5380 0.5380 0.5400 0.5400 0.5380
9.765871 0.5350 0.5300 0.5160 0.5050 0.4930
9.800000 0.4550 0.4130 0.3760 0.3370 0.3130
9.833871 0.2810 0.2720 0.2610 0.2550 0.2500
9.868000 0.2500 0.2540 0.2640 0.2760 0.2980
9.901871 0.3200 0.3500 0.3960 0.4100 0.4400
9.935000 0.4610 0.4770 0.5030 0.5280 0.5470
9.968871 0.5660 0.5760 0.5840 0.5910 0.5980
10.003000 0.6060 0.6130 0.6150 0.6180 0.6220
10.036871 0.6280 0.6320 0.6350 0.6400 0.6490
10.071000 0.6500 0.6520 0.6570 0.6590 0.6610
10.104871 0.6620 0.6690 0.6720 0.6770 0.6770
10.139000 0.6810 0.6810 0.6830 0.6830 0.6830
10.172871 0.6830 0.6830 0.6830 0.6830 0.6830
10.206000 0.6830 0.6810 0.6790 0.6790 0.6790
10.239871 0.6790 0.6790 0.6790 0.6810 0.6810
10.274000 0.6830 0.6830 0.6830 0.6830 0.6830
10.307871 0.6830 0.6830 0.6830 0.6830 0.6830
10.342000 0.6830 0.6830 0.6830 0.6830 0.6830
10.375871 0.6830 0.6830 0.6830 0.6830 0.6790
10.409000 0.6740 0.6710 0.6660 0.6620 0.6540
10.442871 0.6450 0.6400 0.6250 0.6050 0.5960
10.477000 0.5860 0.5740 0.5690 0.5590 0.5440
10.510871 0.5330 0.5300 0.5280 0.5270 0.5270
10.545000 0.5280 0.5320 0.5420 0.5490 0.5550
10.578871 0.5620 0.5660 0.5740 0.5830 0.5910
10.613000 0.6010 0.6100 0.6160 0.6230 0.6300
10.646871 0.6320 0.6370 0.6400 0.6450 0.6490
10.680000 0.6500 0.6520 0.6540 0.6570 0.6590
10.713871 0.6620 0.6660 0.6690 0.6690 0.6710
10.748000 0.6740 0.6770 0.6790 0.6810 0.6830
10.781871 0.6830 0.6840 0.6840 0.6840 0.6840
10.816000 0.6830 0.6810 0.6810 0.6810 0.6810
10.849871 0.6810 0.6810 0.6770 0.6760 0.6740
10.883000 0.6720 0.6720 0.6710 0.6710 0.6710
10.916871 0.6720 0.6720 0.6760 0.6770 0.6770
10.951000 0.6790 0.6790 0.6810 0.6810 0.6830
10.984871 0.6830 0.6830 0.6830 0.6830 0.6840
11.019000 0.6840 0.6860 0.6880 0.6890 0.6890
11.052871 0.6910 0.6910 0.6910 0.6910 0.6910
11.086000 0.6910 0.6910 0.6890 0.6880 0.6860
11.119871 0.6840 0.6830 0.6790 0.6720 0.6670
11.154000 0.6550 0.6440 0.6200 0.6080 0.5840
11.187871 0.5610 0.5500 0.5420 0.5330 0.5320
11.222000 0.5330 0.5370 0.5450 0.5500 0.5620
11.255871 0.5890 0.6100 0.6230 0.6280 0.6380
11.290000 0.6450 0.6520 0.6570 0.6690 0.6770
11.323871 0.6810 0.6840 0.6860 0.6880 0.6880
11.357000 0.6910 0.6940 0.6960 0.7000 0.7010
11.390871 0.7050 0.7060 0.7100 0.7130 0.7130
11.425000 0.7150 0.7150 0.7150 0.7150 0.7160
11.458871 0.7180 0.7180 0.7180 0.7200 0.7200
11.493000 0.7220 0.7220 0.7230 0.7230 0.7250
11.526871 0.7270 0.7270 0.7270 0.7280 0.7280
11.560000 0.7280 0.7280 0.7280 0.7280 0.7280
11.593871 0.7280 0.7280 0.7280 0.7270 0.7270
11.628000 0.7270 0.7270 0.7250 0.7250 0.7250
11.661871 0.7250 0.7230 0.7230 0.7230 0.7230
11.696000 0.7230 0.7230 0.7230 0.7220 0.7220
11.729871 0.7220 0.7200 0.7200 0.7200 0.7200
11.764000 0.7200 0.7220 0.7220 0.7220 0.7220
11.797871 0.7230 0.7230 0.7230 0.7250 0.7250
11.831000 0.7270 0.7270 0.7270 0.7270 0.7270
11.864871 0.7270 0.7270 0.7270 0.7270 0.7270
11.899000 0.7270 0.7250 0.7250 0.7250 0.7250
11.932871 0.7250 0.7250 0.7230 0.7230 0.7220
11.967000 0.7220 0.7220 0.7220 0.7220 0.7200
12.000871 0.7200 0.7200 0.7200 0.7200 0.7200
12.034000 0.7200 0.7180 0.7180 0.7180 0.7200
12.067871 0.7200 0.7200 0.7180 0.7180 0.7180
12.102000 0.7160 0.7160 0.7130 0.7100 0.7060
12.135871 0.7010 0.6960 0.6930 0.6890 0.6880
12.170000 0.6840 0.6830 0.6810 0.6810 0.6810
12.203871 0.6830 0.6830 0.6830 0.6840 0.6840
12.238000 0.6860 0.6860 0.6880 0.6890 0.6910
12.271871 0.6910 0.6930 0.6930 0.6940 0.6940
12.305000 0.6940 0.6940 0.6910 0.6910 0.6890
12.338871 0.6840 0.6810 0.6740 0.6660 0.6550
12.373000 0.6450 0.6350 0.6250 0.6150 0.6050
12.406871 0.5910 0.5790 0.5720 0.5660 0.5620
12.441000 0.5610 0.5610 0.5620 0.5640 0.5690
12.474871 0.5740 0.5760 0.5840 0.5910 0.5960
12.508000 0.6010 0.6060 0.6100 0.6110 0.6130
12.541871 0.6160 0.6220 0.6270 0.6320 0.6380
12.576000 0.6420 0.6440 0.6470 0.6500 0.6550
12.609871 0.6620 0.6710 0.6770 0.6830 0.6830
12.644000 0.6860 0.6860 0.6880 0.6880 0.6890
12.677871 0.6890 0.6890 0.6910 0.6910 0.6930
12.711000 0.6930 0.6940 0.6940 0.6960 0.6960
12.744871 0.6960 0.6980 0.6980 0.6980 0.7000
12.779000 0.7000 0.7000 0.7000 0.6980 0.6980
12.812871 0.6960 0.6960 0.6940 0.6940 0.6930
12.847000 0.6930 0.6930 0.6930 0.6930 0.6910
12.880871 0.6910 0.6890 0.6880 0.6880 0.6880
12.915000 0.6860 0.6860 0.6860 0.6860 0.6860
12.948871 0.6860 0.6860 0.6840 0.6840 0.6840
12.982000 0.6840 0.6830 0.6830 0.6830 0.6810
13.015871 0.6810 0.6790 0.6790 0.6770 0.6770
13.050000 0.6760 0.6720 0.6710 0.6690 0.6670
13.083871 0.6660 0.6620 0.6610 0.6570 0.6550
13.118000 0.6520 0.6500 0.6490 0.6440 0.6420
13.151871 0.6350 0.6300 0.6250 0.6180 0.6130
13.185000 0.6060 0.6010 0.5940 0.5860 0.5760
13.218871 0.5620 0.5420 0.5300 0.5150 0.5050
13.253000 0.4810 0.4660 0.4540 0.4370 0.4230
13.286871 0.4060 0.3910 0.3760 0.3570 0.3450
13.321000 0.3350 0.3320 0.3270 0.3230 0.3220
13.354871 0.3220 0.3250 0.3350 0.3370 0.3500
13.389000 0.3570 0.3620 0.3660 0.3690 0.3720
13.422871 0.3740 0.3760 0.3760 0.3720 0.3690
13.456000 0.3640 0.3610 0.3540 0.3500 0.3420
13.489871 0.3370 0.3330 0.3320 0.3300 0.3300
13.524000 0.3320 0.3330 0.3370 0.3420 0.3500
13.557871 0.3550 0.3790 0.3930 0.4030 0.4100
13.592000 0.4180 0.4270 0.4440 0.4550 0.4610
13.625871 0.4670 0.4770 0.4860 0.4930 0.4930
13.659000 0.4960 0.5000 0.5000 0.5000 0.4980
13.692871 0.4960 0.4930 0.4890 0.4790 0.4690
13.727000 0.4590 0.4490 0.4370 0.4270 0.4180
13.760871 0.4080 0.3960 0.3860 0.3760 0.3660
13.795000 0.3540 0.3440 0.3320 0.3230 0.3160
13.828871 0.3150 0.3050 0.3010 0.2960 0.2880
13.863000 0.2810 0.2770 0.2760 0.2740 0.2760
13.896871 0.2840 0.2960 0.3050 0.3250 0.3400
13.930000 0.3550 0.3670 0.3810 0.3910 0.4160
13.963871 0.4330 0.4400 0.4490 0.4540 0.4570
13.998000 0.4640 0.4690 0.4710 0.4720 0.4720
14.031871 0.4740 0.4740 0.4740 0.4740 0.4760
14.066000 0.4760 0.4770 0.4810 0.4860 0.4910
14.099871 0.4960 0.5000 0.5080 0.5160 0.5250
14.133000 0.5280 0.5330 0.5370 0.5440 0.5500
14.166871 0.5610 0.5640 0.5690 0.5720 0.5720
14.201000 0.5760 0.5770 0.5810 0.5830 0.5840
14.234871 0.5860 0.5880 0.5890 0.5910 0.5930
14.269000 0.5940 0.5960 0.5960 0.5980 0.5980
14.302871 0.6000 0.6000 0.6010 0.6010 0.6010
14.336000 0.6030 0.6030 0.6050 0.6050 0.6050
14.369871 0.6050 0.6050 0.6030 0.6030 0.6030
14.404000 0.6030 0.6030 0.6030 0.6030 0.6030
14.437871 0.6010 0.6010 0.6010 0.6010 0.6000
14.472000 0.5980 0.5980 0.5960 0.5960 0.5940
14.505871 0.5940 0.5910 0.5890 0.5890 0.5880
14.540000 0.5880 0.5860 0.5830 0.5830 0.5810
14.573871 0.5790 0.5770 0.5760 0.5740 0.5740
14.607000 0.5720 0.5710 0.5710 0.5690 0.5670
14.640871 0.5660 0.5620 0.5610 0.5570 0.5540
14.675000 0.5500 0.5490 0.5470 0.5450 0.5440
14.708871 0.5420 0.5400 0.5380 0.5370 0.5370
14.743000 0.5350 0.5330 0.5320 0.5320 0.5300
14.776871 0.5300 0.5300 0.5300 0.5300 0.5300
14.810000 0.5300 0.5280 0.5230 0.5180 0.5130
14.843871 0.5130 0.5080 0.5030 0.4960 0.4880
14.878000 0.4860 0.4790 0.4760 0.4670 0.4550
14.911871 0.4420 0.4350 0.4270 0.4200 0.4130
14.946000 0.4060 0.4000 0.3930 0.3860 0.3790
14.979871 0.3720 0.3660 0.3610 0.3540 0.3470
15.014000 0.3370 0.3330 0.3300 0.3270 0.3250
15.047871 0.3230 0.3230 0.3250 0.3280 0.3320
15.081000 0.3370 0.3440 0.3490 0.3640 0.3790
15.114871 0.3930 0.4030 0.4060 0.4100 0.4150
15.149000 0.4200 0.4300 0.4400 0.4470 0.4520
15.182871 0.4550 0.4570 0.4590 0.4620 0.4670
15.217000 0.4710 0.4710 0.4710 0.4720 0.4740
15.250871 0.4740 0.4760 0.4760 0.4770 0.4790
15.284000 0.4810 0.4810 0.4810 0.4790 0.4770
15.317871 0.4770 0.4760 0.4760 0.4760 0.4760
15.352000 0.4740 0.4720 0.4710 0.4690 0.4670
15.385871 0.4660 0.4640 0.4610 0.4520 0.4490
15.420000 0.4470 0.4440 0.4420 0.4400 0.4380
15.453871 0.4330 0.4250 0.4180 0.4110 0.4060
15.488000 0.4000 0.3930 0.3860 0.3760 0.3640
15.521871 0.3620 0.3420
##END=
