##TITLE=TOLYLHYDROQUINONE
##JCAMP-DX=4.24
##DATA TYPE=INFRARED SPECTRUM
##CLASS=COBLENTZ
##ORIGIN=ANDERSON PHYSICAL LABORATORY
##OWNER=COBLENTZ SOCIETY
Collection (C) 2018 copyright by the U.S. Secretary of Commerce
on behalf of the United States of America. All rights reserved.
##DATE=Not specified, most likely prior to 1970
##MOLFORM=C13 H12 O2
##SOURCE REFERENCE=COBLENTZ NO. 2626
##$NIST ID=B6002626
##$NIST SOURCE=COBLENTZ
##$NIST IMAGE=cob2626
##SPECTROMETER/DATA SYSTEM=Not specified, most likely a prism, grating, or hybrid spectrometer.
##STATE=SOLID (0.7% IN KBr PELLET)
##PATH LENGTH=0.0355 CM THICK
##SAMPLING PROCEDURE=TRANSMISSION
##RESOLUTION=4
##DATA PROCESSING=DIGITIZED BY NIST FROM HARD COPY (FROM TWO SEGMENTS)
##XUNITS=1/CM
##YUNITS=TRANSMITTANCE
##XFACTOR=1.000000
##YFACTOR=1
##DELTAX=0.935162
##FIRSTX=671.135
##LASTX=3995.64
##FIRSTY=0.559
##MAXX=3995.64
##MINX=671.135
##MAXY=0.835
##MINY=0.148
##NPOINTS=3556
##XYDATA=(X++(Y..Y))
671.135000 0.5590 0.5500 0.5480 0.5470 0.5450
675.810812 0.5450 0.5440 0.5440 0.5440 0.5420
680.486624 0.5410 0.5410 0.5410 0.5390 0.5390
685.162437 0.5390 0.5380 0.5380 0.5360 0.5360
689.838249 0.5350 0.5350 0.5350 0.5350 0.5330
694.514061 0.5330 0.5330 0.5320 0.5320 0.5320
699.189873 0.5320 0.5320 0.5320 0.5320 0.5300
703.865685 0.5300 0.5300 0.5300 0.5300 0.5300
708.541497 0.5290 0.5270 0.5230 0.5200 0.5180
713.217310 0.5150 0.5090 0.5050 0.5000 0.4990
717.893122 0.4960 0.4850 0.4820 0.4790 0.4790
722.568934 0.4780 0.4760 0.4760 0.4760 0.4760
727.244746 0.4760 0.4760 0.4760 0.4760 0.4780
731.920558 0.4820 0.4880 0.5059 0.5179 0.5419
736.596370 0.5450 0.5620 0.5650 0.5770 0.5780
741.272183 0.5930 0.5930 0.5950 0.5950 0.5930
745.947995 0.5930 0.5900 0.5860 0.5830 0.5800
750.623807 0.5770 0.5740 0.5710 0.5690 0.5620
755.299619 0.5570 0.5530 0.5470 0.5390 0.5330
759.975431 0.5300 0.5210 0.5140 0.5110 0.4911
764.651244 0.4790 0.4760 0.4730 0.4700 0.4660
769.327056 0.4600 0.4550 0.4540 0.4540 0.4520
774.002868 0.4510 0.4510 0.4510 0.4520 0.4550
778.678680 0.4630 0.4759 0.4909 0.5019 0.5348
783.354492 0.5570 0.5780 0.6050 0.6280 0.6470
788.030304 0.6789 0.6880 0.6950 0.7000 0.7010
792.706117 0.7030 0.7030 0.7000 0.6970 0.6910
797.381929 0.6860 0.6790 0.6710 0.6680 0.6670
802.057741 0.6650 0.6610 0.6530 0.6440 0.6340
806.733553 0.6101 0.5990 0.5930 0.5801 0.5601
811.409365 0.5590 0.5560 0.5470 0.5290 0.5090
816.085177 0.4871 0.4671 0.4521 0.4391 0.4370
820.760990 0.4370 0.4400 0.4450 0.4480 0.4570
825.436802 0.4690 0.4899 0.4970 0.5119 0.5438
830.112614 0.5780 0.6260 0.6470 0.6770 0.6910
834.788426 0.7040 0.7100 0.7190 0.7220 0.7270
839.464238 0.7300 0.7330 0.7330 0.7340 0.7360
844.140051 0.7370 0.7370 0.7390 0.7390 0.7390
848.815863 0.7390 0.7390 0.7370 0.7370 0.7360
853.491675 0.7330 0.7280 0.7280 0.7240 0.7210
858.167487 0.7160 0.7120 0.7100 0.7060 0.7040
862.843299 0.7030 0.6970 0.6920 0.6880 0.6830
867.519111 0.6790 0.6740 0.6700 0.6670 0.6640
872.194924 0.6560 0.6520 0.6460 0.6380 0.6310
876.870736 0.6230 0.6140 0.6100 0.6040 0.6010
881.546548 0.5990 0.5990 0.5990 0.5990 0.6010
886.222360 0.6040 0.6160 0.6250 0.6679 0.6889
890.898172 0.7040 0.7160 0.7220 0.7250 0.7270
895.573984 0.7280 0.7280 0.7280 0.7280 0.7270
900.249797 0.7270 0.7250 0.7240 0.7220 0.7210
904.925609 0.7190 0.7190 0.7180 0.7180 0.7160
909.601421 0.7150 0.7130 0.7130 0.7120 0.7100
914.277233 0.7070 0.7040 0.7030 0.7030 0.7010
918.953045 0.7010 0.6970 0.6950 0.6940 0.6910
923.628858 0.6880 0.6830 0.6800 0.6760 0.6740
928.304670 0.6730 0.6700 0.6670 0.6650 0.6640
932.980482 0.6610 0.6580 0.6560 0.6550 0.6550
937.656294 0.6550 0.6550 0.6550 0.6550 0.6550
942.332106 0.6560 0.6560 0.6560 0.6560 0.6560
947.007918 0.6550 0.6550 0.6520 0.6490 0.6460
951.683731 0.6430 0.6410 0.6380 0.6380 0.6370
956.359543 0.6370 0.6370 0.6380 0.6400 0.6430
961.035355 0.6440 0.6470 0.6500 0.6520 0.6520
965.711167 0.6520 0.6520 0.6520 0.6490 0.6490
970.386979 0.6470 0.6440 0.6430 0.6410 0.6400
975.062791 0.6400 0.6380 0.6370 0.6350 0.6350
979.738604 0.6340 0.6340 0.6320 0.6290 0.6260
984.414416 0.6250 0.6230 0.6200 0.6190 0.6160
989.090228 0.6140 0.6100 0.6080 0.6070 0.6050
993.766040 0.6020 0.5990 0.5990 0.5980 0.5960
998.441852 0.5950 0.5950 0.5950 0.5950 0.5930
1003.117665 0.5930 0.5930 0.5930 0.5930 0.5950
1007.793477 0.5960 0.5980 0.5980 0.5990 0.6010
1012.469289 0.6040 0.6050 0.6080 0.6130 0.6160
1017.145101 0.6190 0.6220 0.6250 0.6260 0.6290
1021.820913 0.6310 0.6310 0.6310 0.6310 0.6310
1026.496725 0.6310 0.6310 0.6310 0.6290 0.6290
1031.172538 0.6290 0.6260 0.6260 0.6250 0.6250
1035.848350 0.6230 0.6220 0.6220 0.6220 0.6200
1040.524162 0.6200 0.6190 0.6190 0.6190 0.6190
1045.199974 0.6200 0.6200 0.6200 0.6200 0.6200
1049.875786 0.6200 0.6200 0.6200 0.6200 0.6200
1054.551599 0.6200 0.6200 0.6200 0.6200 0.6200
1059.227411 0.6200 0.6220 0.6220 0.6220 0.6230
1063.903223 0.6230 0.6260 0.6260 0.6260 0.6280
1068.579035 0.6290 0.6310 0.6320 0.6340 0.6340
1073.254847 0.6340 0.6350 0.6350 0.6350 0.6350
1077.930659 0.6350 0.6350 0.6370 0.6370 0.6380
1082.606472 0.6400 0.6410 0.6430 0.6430 0.6430
1087.282284 0.6440 0.6440 0.6440 0.6430 0.6430
1091.958096 0.5600 0.5500 0.5380 0.5330 0.5300
1096.633908 0.5290 0.5260 0.5230 0.5150 0.5110
1101.309720 0.5060 0.5050 0.5030 0.5020 0.4990
1105.985532 0.4970 0.4940 0.4850 0.4790 0.4760
1110.661345 0.4720 0.4690 0.4640 0.4630 0.4610
1115.337157 0.4610 0.4610 0.4610 0.4610 0.4630
1120.012969 0.4670 0.4720 0.4760 0.4810 0.4850
1124.688781 0.4880 0.4910 0.4900 0.4900 0.4880
1129.364593 0.4870 0.4840 0.4810 0.4780 0.4730
1134.040406 0.4720 0.4690 0.4670 0.4630 0.4570
1138.716218 0.4550 0.4520 0.4490 0.4400 0.4360
1143.392030 0.4310 0.4270 0.4220 0.4160 0.4100
1148.067842 0.4040 0.4010 0.3970 0.3860 0.3820
1152.743654 0.3740 0.3670 0.3590 0.3560 0.3500
1157.419466 0.3440 0.3370 0.3350 0.3340 0.3340
1162.095279 0.3320 0.3320 0.3320 0.3320 0.3340
1166.771091 0.3340 0.3350 0.3350 0.3370 0.3370
1171.446903 0.3370 0.3370 0.3350 0.3350 0.3340
1176.122715 0.3340 0.3320 0.3280 0.3250 0.3200
1180.798527 0.3170 0.3070 0.3040 0.2980 0.2861
1185.474339 0.2800 0.2780 0.2680 0.2480 0.2390
1190.150152 0.2320 0.2260 0.2210 0.2180 0.2110
1194.825964 0.2030 0.1970 0.1900 0.1820 0.1760
1199.501776 0.1720 0.1670 0.1660 0.1640 0.1640
1204.177588 0.1640 0.1660 0.1660 0.1670 0.1670
1208.853400 0.1700 0.1730 0.1760 0.1879 0.1989
1213.529213 0.2110 0.2230 0.2330 0.2450 0.2600
1218.205025 0.2809 0.2930 0.3049 0.3348 0.3529
1222.880837 0.3710 0.3890 0.4070 0.4220 0.4390
1227.556649 0.4490 0.4580 0.4660 0.4700 0.4720
1232.232461 0.4750 0.4760 0.4780 0.4780 0.4780
1236.908273 0.4780 0.4780 0.4780 0.4790 0.4790
1241.584086 0.4810 0.4840 0.4880 0.4910 0.5000
1246.259898 0.5050 0.5110 0.5230 0.5320 0.5419
1250.935710 0.5510 0.5630 0.5740 0.5840 0.5990
1255.611522 0.6050 0.6160 0.6200 0.6250 0.6280
1260.287334 0.6310 0.6320 0.6350 0.6380 0.6400
1264.963146 0.6400 0.6410 0.6410 0.6400 0.6400
1269.638959 0.6400 0.6380 0.6380 0.6350 0.6320
1274.314771 0.6290 0.6280 0.6250 0.6190 0.6190
1278.990583 0.6170 0.6140 0.6110 0.6080 0.6020
1283.666395 0.6010 0.5980 0.5930 0.5890 0.5810
1288.342207 0.5770 0.5750 0.5720 0.5710 0.5710
1293.018020 0.5710 0.5720 0.5750 0.5800 0.5810
1297.693832 0.5810 0.5830 0.5830 0.5830 0.5830
1302.369644 0.5800 0.5770 0.5720 0.5690 0.5660
1307.045456 0.5630 0.5600 0.5470 0.5410 0.5390
1311.721268 0.5360 0.5290 0.5200 0.5081 0.5020
1316.397080 0.4960 0.4880 0.4760 0.4640 0.4550
1321.072893 0.4460 0.4370 0.4310 0.4240 0.4160
1325.748705 0.4090 0.4000 0.3970 0.3910 0.3860
1330.424517 0.3830 0.3820 0.3820 0.3830 0.3830
1335.100329 0.3860 0.3890 0.3950 0.3980 0.4060
1339.776141 0.4100 0.4249 0.4369 0.4460 0.4579
1344.451953 0.4670 0.4760 0.4850 0.4880 0.4930
1349.127766 0.4960 0.4970 0.4970 0.4960 0.4960
1353.803578 0.4940 0.4910 0.4880 0.4850 0.4820
1358.479390 0.4780 0.4750 0.4670 0.4600 0.4520
1363.155202 0.4460 0.4370 0.4280 0.4190 0.4070
1367.831014 0.3940 0.3820 0.3701 0.3581 0.3471
1372.506827 0.3400 0.3370 0.3320 0.3250 0.3130
1377.182639 0.3050 0.3020 0.3010 0.2990 0.2950
1381.858451 0.2920 0.2920 0.2900 0.2890 0.2890
1386.534263 0.2890 0.2890 0.2890 0.2890 0.2890
1391.210075 0.2890 0.2890 0.2890 0.2900 0.2900
1395.885887 0.2980 0.2990 0.3020 0.3080 0.3140
1400.561700 0.3220 0.3370 0.3460 0.3500 0.3560
1405.237512 0.3610 0.3680 0.3790 0.3850 0.3920
1409.913324 0.4040 0.4130 0.4190 0.4270 0.4310
1414.589136 0.4360 0.4400 0.4480 0.4510 0.4570
1419.264948 0.4660 0.4730 0.4820 0.4870 0.4960
1423.940760 0.5020 0.5090 0.5180 0.5270 0.5360
1428.616573 0.5440 0.5500 0.5500 0.5540 0.5560
1433.292385 0.5620 0.5650 0.5680 0.5690 0.5710
1437.968197 0.5720 0.5740 0.5770 0.5800 0.5810
1442.644009 0.5830 0.5840 0.5860 0.5870 0.5890
1447.319821 0.5900 0.5900 0.5920 0.5920 0.5920
1451.995634 0.5920 0.5920 0.5920 0.5890 0.5890
1456.671446 0.5890 0.5870 0.5840 0.5830 0.5800
1461.347258 0.5770 0.5720 0.5660 0.5600 0.5530
1466.023070 0.5470 0.5390 0.5330 0.5260 0.5180
1470.698882 0.5120 0.5060 0.5050 0.5020 0.4990
1475.374694 0.4930 0.4870 0.4760 0.4720 0.4640
1480.050507 0.4600 0.4520 0.4490 0.4430 0.4420
1484.726319 0.4390 0.4340 0.4310 0.4310 0.4270
1489.402131 0.4250 0.4220 0.4210 0.4180 0.4150
1494.077943 0.4100 0.4040 0.3980 0.3890 0.3790
1498.753755 0.3620 0.3470 0.3440 0.3370 0.3280
1503.429567 0.3230 0.3190 0.3140 0.3110 0.3110
1508.105380 0.3110 0.3110 0.3130 0.3140 0.3170
1512.781192 0.3230 0.3350 0.3430 0.3500 0.3580
1517.457004 0.3859 0.3980 0.4129 0.4309 0.4449
1522.132816 0.4490 0.4550 0.4610 0.4700 0.4820
1526.808628 0.4930 0.5109 0.5259 0.5350 0.5499
1531.484441 0.5660 0.5750 0.5980 0.6070 0.6200
1536.160253 0.6290 0.6350 0.6440 0.6490 0.6520
1540.836065 0.6530 0.6680 0.6760 0.6850 0.6940
1545.511877 0.7010 0.7100 0.7190 0.7270 0.7389
1550.187689 0.7450 0.7510 0.7540 0.7580 0.7640
1554.863501 0.7670 0.7690 0.7700 0.7720 0.7720
1559.539314 0.7720 0.7720 0.7720 0.7730 0.7750
1564.215126 0.7780 0.7790 0.7810 0.7850 0.7900
1568.890938 0.7940 0.7940 0.7960 0.7960 0.7970
1573.566750 0.7970 0.7990 0.7990 0.7990 0.7990
1578.242562 0.7990 0.7990 0.7990 0.7990 0.7990
1582.918374 0.7990 0.7990 0.7990 0.7990 0.7990
1587.594187 0.7990 0.7990 0.8000 0.8000 0.8000
1592.269999 0.7990 0.7990 0.7970 0.7970 0.7960
1596.945811 0.7940 0.7910 0.7880 0.7850 0.7810
1601.621623 0.7780 0.7730 0.7690 0.7660 0.7580
1606.297435 0.7540 0.7490 0.7420 0.7360 0.7280
1610.973248 0.7210 0.7090 0.7030 0.7000 0.6970
1615.649060 0.6950 0.6950 0.6970 0.6980 0.7010
1620.324872 0.7040 0.7070 0.7090 0.7130 0.7180
1625.000684 0.7190 0.7220 0.7240 0.7250 0.7250
1629.676496 0.7270 0.7270 0.7270 0.7270 0.7280
1634.352308 0.7300 0.7310 0.7390 0.7430 0.7510
1639.028121 0.7610 0.7700 0.7780 0.7870 0.7959
1643.703933 0.8020 0.8090 0.8150 0.8200 0.8230
1648.379745 0.8260 0.8300 0.8320 0.8320 0.8330
1653.055557 0.8330 0.8330 0.8330 0.8350 0.8350
1657.731369 0.8350 0.8350 0.8350 0.8350 0.8350
1662.407182 0.8350 0.8350 0.8350 0.8350 0.8350
1667.082994 0.8350 0.8350 0.8350 0.8350 0.8350
1671.758806 0.8350 0.8350 0.8350 0.8350 0.8350
1676.434618 0.8350 0.8330 0.8330 0.8330 0.8330
1681.110430 0.8320 0.8320 0.8320 0.8320 0.8320
1685.786242 0.8320 0.8320 0.8320 0.8320 0.8320
1690.462055 0.8320 0.8320 0.8320 0.8320 0.8320
1695.137867 0.8320 0.8320 0.8320 0.8320 0.8320
1699.813679 0.8320 0.8320 0.8320 0.8320 0.8320
1704.489491 0.8300 0.8300 0.8290 0.8290 0.8290
1709.165303 0.8290 0.8290 0.8290 0.8290 0.8290
1713.841115 0.8270 0.8270 0.8270 0.8260 0.8260
1718.516928 0.8260 0.8260 0.8260 0.8260 0.8260
1723.192740 0.8240 0.8240 0.8240 0.8240 0.8240
1727.868552 0.8240 0.8230 0.8230 0.8230 0.8230
1732.544364 0.8230 0.8210 0.8210 0.8200 0.8180
1737.220176 0.8170 0.8170 0.8170 0.8170 0.8170
1741.895989 0.8170 0.8170 0.8170 0.8170 0.8170
1746.571801 0.8170 0.8170 0.8170 0.8180 0.8180
1751.247613 0.8180 0.8200 0.8210 0.8230 0.8230
1755.923425 0.8230 0.8240 0.8240 0.8260 0.8260
1760.599237 0.8270 0.8270 0.8270 0.8270 0.8260
1765.275049 0.8260 0.8260 0.8260 0.8260 0.8260
1769.950862 0.8270 0.8270 0.8270 0.8270 0.8270
1774.626674 0.8270 0.8270 0.8260 0.8260 0.8260
1779.302486 0.8260 0.8260 0.8240 0.8240 0.8240
1783.978298 0.8230 0.8230 0.8240 0.8240 0.8240
1788.654110 0.8240 0.8240 0.8240 0.8240 0.8240
1793.329922 0.8240 0.8240 0.8240 0.8240 0.8240
1798.005735 0.8240 0.8240 0.8240 0.8240 0.8230
1802.681547 0.8230 0.8210 0.8230 0.8210 0.8210
1807.357359 0.8200 0.8200 0.8200 0.8180 0.8180
1812.033171 0.8180 0.8170 0.8170 0.8170 0.8170
1816.708983 0.8150 0.8140 0.8140 0.8140 0.8120
1821.384796 0.8120 0.8110 0.8080 0.8080 0.8060
1826.060608 0.8060 0.8060 0.8060 0.8050 0.8050
1830.736420 0.8050 0.8030 0.8030 0.8020 0.8020
1835.412232 0.8000 0.8000 0.7990 0.7990 0.7970
1840.088044 0.7970 0.7960 0.7960 0.7960 0.7940
1844.763856 0.7940 0.7930 0.7930 0.7900 0.7870
1849.439669 0.7850 0.7840 0.7810 0.7810 0.7790
1854.115481 0.7790 0.7780 0.7780 0.7780 0.7780
1858.791293 0.7780 0.7780 0.7790 0.7810 0.7850
1863.467105 0.7870 0.7900 0.7910 0.7960 0.7990
1868.142917 0.8000 0.8020 0.8030 0.8030 0.8050
1872.818729 0.8050 0.8050 0.8060 0.8060 0.8060
1877.494542 0.8060 0.8060 0.8060 0.8060 0.8050
1882.170354 0.8050 0.8050 0.8030 0.8030 0.8030
1886.846166 0.8030 0.8030 0.8030 0.8030 0.8030
1891.521978 0.8030 0.8030 0.8030 0.8030 0.8030
1896.197790 0.8030 0.8030 0.8030 0.8030 0.8030
1900.873603 0.8020 0.8020 0.8020 0.8020 0.8020
1905.549415 0.8020 0.8020 0.8020 0.8020 0.8000
1910.225227 0.8000 0.8000 0.8000 0.8000 0.8000
1914.901039 0.8000 0.8000 0.7990 0.7990 0.7970
1919.576851 0.7970 0.7970 0.7960 0.7960 0.7960
1924.252663 0.7940 0.7940 0.7930 0.7930 0.7930
1928.928476 0.7930 0.7930 0.7930 0.7930 0.7910
1933.604288 0.7910 0.7910 0.7900 0.7900 0.7900
1938.280100 0.7900 0.7880 0.7880 0.7880 0.7880
1942.955912 0.7870 0.7870 0.7870 0.7870 0.7870
1947.631724 0.7870 0.7870 0.7850 0.7870 0.7870
1952.307536 0.7850 0.7870 0.7870 0.7850 0.7850
1956.983349 0.7850 0.7850 0.7850 0.7850 0.7850
1961.659161 0.7850 0.7840 0.7840 0.7820 0.7820
1966.334973 0.7820 0.7820 0.7820 0.7820 0.7820
1971.010785 0.7820 0.7820 0.7820 0.7820 0.7820
1975.686597 0.7810 0.7810 0.7810 0.7810 0.7810
1980.362410 0.7810 0.7810 0.7810 0.7820 0.7820
1985.038222 0.7820 0.7810 0.7810 0.7810 0.7810
1989.714034 0.7810 0.7810 0.7810 0.7810 0.7790
1994.389846 0.7790 0.7790 0.7780 0.7780 0.7780
1999.065658 0.7760 0.7750 0.7745 0.7740 0.7735
2003.741470 0.7730 0.7730 0.7730 0.7730 0.7730
2008.417283 0.7730 0.7730 0.7730 0.7730 0.7728
2013.093095 0.7725 0.7723 0.7720 0.7720 0.7720
2017.768907 0.7720 0.7720 0.7715 0.7710 0.7705
2022.444719 0.7700 0.7698 0.7695 0.7693 0.7690
2027.120531 0.7690 0.7690 0.7690 0.7690 0.7690
2031.796343 0.7690 0.7690 0.7690 0.7690 0.7690
2036.472156 0.7690 0.7690 0.7690 0.7690 0.7690
2041.147968 0.7690 0.7685 0.7680 0.7675 0.7670
2045.823780 0.7670 0.7670 0.7670 0.7670 0.7670
2050.499592 0.7670 0.7670 0.7670 0.7667 0.7665
2055.175404 0.7662 0.7660 0.7655 0.7650 0.7645
2059.851217 0.7640 0.7640 0.7640 0.7640 0.7640
2064.527029 0.7640 0.7640 0.7640 0.7640 0.7640
2069.202841 0.7640 0.7640 0.7640 0.7640 0.7640
2073.878653 0.7640 0.7640 0.7640 0.7640 0.7640
2078.554465 0.7640 0.7640 0.7640 0.7640 0.7640
2083.230277 0.7640 0.7640 0.7640 0.7640 0.7640
2087.906090 0.7640 0.7640 0.7640 0.7637 0.7635
2092.581902 0.7632 0.7630 0.7630 0.7630 0.7630
2097.257714 0.7630 0.7625 0.7620 0.7615 0.7610
2101.933526 0.7602 0.7595 0.7587 0.7580 0.7572
2106.609338 0.7565 0.7557 0.7550 0.7547 0.7545
2111.285150 0.7542 0.7540 0.7535 0.7530 0.7525
2115.960963 0.7520 0.7520 0.7520 0.7520 0.7520
2120.636775 0.7517 0.7515 0.7512 0.7510 0.7505
2125.312587 0.7500 0.7495 0.7490 0.7490 0.7490
2129.988399 0.7490 0.7490 0.7487 0.7485 0.7482
2134.664211 0.7480 0.7480 0.7480 0.7480 0.7480
2139.340024 0.7475 0.7470 0.7465 0.7460 0.7452
2144.015836 0.7445 0.7437 0.7430 0.7430 0.7430
2148.691648 0.7430 0.7430 0.7430 0.7430 0.7430
2153.367460 0.7430 0.7427 0.7425 0.7422 0.7420
2158.043272 0.7415 0.7410 0.7405 0.7400 0.7400
2162.719084 0.7400 0.7400 0.7400 0.7397 0.7395
2167.394897 0.7392 0.7390 0.7390 0.7390 0.7390
2172.070709 0.7390 0.7390 0.7390 0.7390 0.7390
2176.746521 0.7385 0.7380 0.7375 0.7370 0.7370
2181.422333 0.7370 0.7370 0.7370 0.7370 0.7370
2186.098145 0.7370 0.7370 0.7370 0.7370 0.7370
2190.773957 0.7370 0.7367 0.7365 0.7362 0.7359
2195.449770 0.7354 0.7349 0.7344 0.7340 0.7337
2200.125582 0.7335 0.7332 0.7329 0.7324 0.7319
2204.801394 0.7314 0.7310 0.7307 0.7305 0.7302
2209.477206 0.7300 0.7295 0.7290 0.7285 0.7280
2214.153018 0.7277 0.7275 0.7272 0.7270 0.7265
2218.828831 0.7260 0.7255 0.7250 0.7247 0.7245
2223.504643 0.7242 0.7239 0.7234 0.7229 0.7224
2228.180455 0.7220 0.7217 0.7215 0.7212 0.7210
2232.856267 0.7210 0.7210 0.7210 0.7209 0.7204
2237.532079 0.7199 0.7194 0.7190 0.7187 0.7185
2242.207891 0.7182 0.7179 0.7174 0.7169 0.7164
2246.883704 0.7160 0.7160 0.7160 0.7160 0.7160
2251.559516 0.7160 0.7160 0.7160 0.7160 0.7157
2256.235328 0.7155 0.7152 0.7150 0.7150 0.7150
2260.911140 0.7150 0.7149 0.7141 0.7134 0.7126
2265.586952 0.7120 0.7120 0.7120 0.7120 0.7119
2270.262764 0.7114 0.7109 0.7104 0.7100 0.7097
2274.938577 0.7095 0.7092 0.7090 0.7090 0.7090
2279.614389 0.7090 0.7089 0.7081 0.7074 0.7066
2284.290201 0.7059 0.7051 0.7044 0.7036 0.7030
2288.966013 0.7030 0.7030 0.7030 0.7028 0.7016
2293.641825 0.7003 0.6991 0.6979 0.6968 0.6958
2298.317638 0.6948 0.6937 0.6925 0.6913 0.6900
2302.993450 0.6886 0.6863 0.6841 0.6818 0.6799
2307.669262 0.6791 0.6784 0.6776 0.6770 0.6767
2312.345074 0.6765 0.6762 0.6759 0.6754 0.6749
2317.020886 0.6744 0.6740 0.6737 0.6735 0.6732
2321.696698 0.6730 0.6730 0.6730 0.6730 0.6730
2326.372511 0.6730 0.6730 0.6730 0.6730 0.6730
2331.048323 0.6730 0.6730 0.6730 0.6730 0.6730
2335.724135 0.6730 0.6729 0.6724 0.6719 0.6714
2340.399947 0.6710 0.6710 0.6710 0.6710 0.6710
2345.075759 0.6710 0.6710 0.6710 0.6710 0.6710
2349.751572 0.6710 0.6710 0.6710 0.6710 0.6710
2354.427384 0.6710 0.6710 0.6710 0.6710 0.6710
2359.103196 0.6710 0.6710 0.6710 0.6710 0.6710
2363.779008 0.6710 0.6710 0.6710 0.6710 0.6710
2368.454820 0.6710 0.6710 0.6710 0.6710 0.6710
2373.130632 0.6710 0.6710 0.6710 0.6710 0.6710
2377.806445 0.6709 0.6707 0.6704 0.6702 0.6700
2382.482257 0.6700 0.6700 0.6700 0.6699 0.6694
2387.158069 0.6689 0.6684 0.6679 0.6677 0.6674
2391.833881 0.6672 0.6669 0.6664 0.6659 0.6654
2396.509693 0.6649 0.6647 0.6644 0.6642 0.6639
2401.185505 0.6634 0.6629 0.6624 0.6619 0.6617
2405.861318 0.6614 0.6612 0.6608 0.6601 0.6593
2410.537130 0.6586 0.6578 0.6570 0.6563 0.6555
2415.212942 0.6547 0.6534 0.6522 0.6509 0.6499
2419.888754 0.6497 0.6494 0.6492 0.6490 0.6490
2424.564566 0.6490 0.6490 0.6489 0.6484 0.6479
2429.240379 0.6474 0.6468 0.6458 0.6448 0.6438
2433.916191 0.6427 0.6414 0.6402 0.6389 0.6379
2438.592003 0.6377 0.6374 0.6372 0.6367 0.6355
2443.267815 0.6342 0.6330 0.6319 0.6317 0.6314
2447.943627 0.6312 0.6308 0.6300 0.6293 0.6285
2452.619439 0.6278 0.6270 0.6263 0.6255 0.6250
2457.295252 0.6250 0.6250 0.6250 0.6249 0.6244
2461.971064 0.6239 0.6234 0.6230 0.6230 0.6230
2466.646876 0.6230 0.6229 0.6227 0.6224 0.6222
2471.322688 0.6220 0.6220 0.6220 0.6220 0.6220
2475.998500 0.6220 0.6220 0.6220 0.6220 0.6220
2480.674312 0.6220 0.6220 0.6219 0.6214 0.6209
2485.350125 0.6203 0.6200 0.6200 0.6200 0.6200
2490.025937 0.6199 0.6197 0.6194 0.6192 0.6188
2494.701749 0.6183 0.6178 0.6173 0.6169 0.6167
2499.377561 0.6164 0.6162 0.6158 0.6150 0.6143
2504.053373 0.6135 0.6126 0.6114 0.6101 0.6089
2508.729186 0.6078 0.6070 0.6063 0.6055 0.6046
2513.404998 0.6031 0.6016 0.6001 0.5988 0.5980
2518.080810 0.5973 0.5965 0.5960 0.5960 0.5960
2522.756622 0.5960 0.5959 0.5957 0.5954 0.5952
2527.432434 0.5948 0.5943 0.5938 0.5933 0.5927
2532.108246 0.5917 0.5907 0.5897 0.5888 0.5883
2536.784059 0.5878 0.5873 0.5869 0.5867 0.5864
2541.459871 0.5862 0.5861 0.5863 0.5866 0.5868
2546.135683 0.5868 0.5860 0.5853 0.5845 0.5840
2550.811495 0.5840 0.5840 0.5840 0.5839 0.5837
2555.487307 0.5834 0.5832 0.5830 0.5830 0.5830
2560.163119 0.5830 0.5828 0.5823 0.5818 0.5813
2564.838932 0.5810 0.5810 0.5810 0.5810 0.5810
2569.514744 0.5810 0.5810 0.5810 0.5810 0.5810
2574.190556 0.5810 0.5810 0.5810 0.5810 0.5810
2578.866368 0.5810 0.5810 0.5810 0.5810 0.5810
2583.542180 0.5810 0.5810 0.5810 0.5810 0.5810
2588.217993 0.5810 0.5810 0.5810 0.5809 0.5807
2592.893805 0.5804 0.5802 0.5798 0.5793 0.5788
2597.569617 0.5783 0.5779 0.5777 0.5774 0.5772
2602.245429 0.5770 0.5770 0.5770 0.5770 0.5770
2606.921241 0.5770 0.5770 0.5770 0.5770 0.5770
2611.597053 0.5770 0.5770 0.5770 0.5770 0.5770
2616.272866 0.5770 0.5770 0.5770 0.5770 0.5770
2620.948678 0.5770 0.5770 0.5770 0.5770 0.5770
2625.624490 0.5770 0.5770 0.5770 0.5768 0.5763
2630.300302 0.5758 0.5753 0.5750 0.5750 0.5750
2634.976114 0.5750 0.5749 0.5746 0.5744 0.5741
2639.651926 0.5737 0.5729 0.5722 0.5714 0.5707
2644.327739 0.5699 0.5692 0.5684 0.5677 0.5669
2649.003551 0.5662 0.5654 0.5650 0.5650 0.5650
2653.679363 0.5650 0.5648 0.5643 0.5638 0.5633
2658.355175 0.5629 0.5627 0.5624 0.5622 0.5617
2663.030987 0.5610 0.5602 0.5595 0.5588 0.5583
2667.706800 0.5578 0.5573 0.5569 0.5566 0.5564
2672.382612 0.5561 0.5558 0.5553 0.5548 0.5543
2677.058424 0.5537 0.5529 0.5522 0.5514 0.5507
2681.734236 0.5499 0.5492 0.5484 0.5477 0.5469
2686.410048 0.5462 0.5454 0.5449 0.5446 0.5444
2691.085860 0.5441 0.5437 0.5429 0.5422 0.5414
2695.761673 0.5407 0.5399 0.5392 0.5384 0.5377
2700.437485 0.5369 0.5362 0.5354 0.5348 0.5343
2705.113297 0.5338 0.5333 0.5329 0.5326 0.5324
2709.789109 0.5321 0.5320 0.5320 0.5320 0.5320
2714.464921 0.5320 0.5320 0.5320 0.5320 0.5318
2719.140733 0.5313 0.5308 0.5303 0.5300 0.5300
2723.816546 0.5300 0.5300 0.5299 0.5296 0.5294
2728.492358 0.5291 0.5290 0.5290 0.5290 0.5290
2733.168170 0.5290 0.5290 0.5290 0.5290 0.5290
2737.843982 0.5290 0.5290 0.5290 0.5290 0.5290
2742.519794 0.5290 0.5290 0.5290 0.5290 0.5290
2747.195607 0.5290 0.5290 0.5290 0.5290 0.5290
2751.871419 0.5288 0.5283 0.5278 0.5273 0.5270
2756.547231 0.5270 0.5270 0.5270 0.5269 0.5266
2761.223043 0.5264 0.5261 0.5260 0.5260 0.5260
2765.898855 0.5260 0.5258 0.5253 0.5248 0.5243
2770.574667 0.5240 0.5240 0.5240 0.5240 0.5239
2775.250480 0.5236 0.5234 0.5231 0.5230 0.5230
2779.926292 0.5230 0.5230 0.5230 0.5230 0.5230
2784.602104 0.5230 0.5227 0.5222 0.5217 0.5212
2789.277916 0.5209 0.5206 0.5204 0.5201 0.5197
2793.953728 0.5192 0.5187 0.5182 0.5179 0.5176
2798.629540 0.5174 0.5171 0.5167 0.5162 0.5157
2803.305353 0.5152 0.5145 0.5135 0.5125 0.5115
2807.981165 0.5106 0.5099 0.5091 0.5084 0.5078
2812.656977 0.5073 0.5068 0.5063 0.5056 0.5049
2817.332789 0.5041 0.5034 0.5029 0.5026 0.5024
2822.008601 0.5021 0.5020 0.5020 0.5020 0.5020
2826.684414 0.5020 0.5020 0.5020 0.5020 0.5016
2831.360226 0.5008 0.5001 0.4993 0.4987 0.4982
2836.036038 0.4977 0.4972 0.4969 0.4966 0.4964
2840.711850 0.4961 0.4953 0.4941 0.4928 0.4916
2845.387662 0.4906 0.4899 0.4891 0.4884 0.4880
2850.063474 0.4880 0.4880 0.4880 0.4880 0.4880
2854.739287 0.4880 0.4880 0.4880 0.4880 0.4880
2859.415099 0.4880 0.4879 0.4876 0.4874 0.4871
2864.090911 0.4867 0.4862 0.4857 0.4852 0.4849
2868.766723 0.4846 0.4844 0.4841 0.4833 0.4821
2873.442535 0.4808 0.4796 0.4786 0.4778 0.4771
2878.118347 0.4763 0.4759 0.4756 0.4754 0.4751
2882.794160 0.4750 0.4750 0.4750 0.4750 0.4747
2887.469972 0.4742 0.4737 0.4732 0.4729 0.4726
2892.145784 0.4724 0.4721 0.4717 0.4712 0.4707
2896.821596 0.4702 0.4699 0.4696 0.4694 0.4691
2901.497408 0.4686 0.4678 0.4671 0.4663 0.4656
2906.173221 0.4648 0.4641 0.4633 0.4623 0.4610
2910.849033 0.4598 0.4585 0.4574 0.4564 0.4554
2915.524845 0.4544 0.4540 0.4540 0.4540 0.4540
2920.200657 0.4537 0.4532 0.4527 0.4522 0.4519
2924.876469 0.4516 0.4514 0.4511 0.4510 0.4510
2929.552281 0.4510 0.4510 0.4507 0.4502 0.4497
2934.228094 0.4492 0.4490 0.4490 0.4490 0.4490
2938.903906 0.4488 0.4486 0.4483 0.4481 0.4480
2943.579718 0.4480 0.4480 0.4480 0.4477 0.4472
2948.255530 0.4467 0.4462 0.4458 0.4456 0.4454
2952.931342 0.4451 0.4447 0.4442 0.4437 0.4432
2957.607155 0.4424 0.4414 0.4404 0.4394 0.4386
2962.282967 0.4378 0.4371 0.4363 0.4356 0.4348
2966.958779 0.4341 0.4333 0.4326 0.4318 0.4310
2971.634591 0.4303 0.4295 0.4288 0.4280 0.4273
2976.310403 0.4265 0.4258 0.4250 0.4243 0.4237
2980.986215 0.4232 0.4227 0.4222 0.4218 0.4216
2985.662028 0.4213 0.4211 0.4202 0.4190 0.4177
2990.337840 0.4165 0.4158 0.4156 0.4153 0.4151
2995.013652 0.4145 0.4138 0.4130 0.4123 0.4115
2999.689464 0.4108 0.4100 0.4093 0.4087 0.4082
3004.365276 0.4077 0.4072 0.4070 0.4070 0.4070
3009.041088 0.4070 0.4068 0.4066 0.4063 0.4061
3013.716901 0.4057 0.4052 0.4047 0.4042 0.4040
3018.392713 0.4040 0.4040 0.4040 0.4040 0.4040
3023.068525 0.4040 0.4040 0.4038 0.4036 0.4033
3027.744337 0.4031 0.4027 0.4022 0.4017 0.4012
3032.420149 0.4008 0.4006 0.4003 0.4001 0.3997
3037.095962 0.3992 0.3987 0.3982 0.3974 0.3964
3041.771774 0.3954 0.3944 0.3937 0.3932 0.3927
3046.447586 0.3922 0.3913 0.3903 0.3893 0.3883
3051.123398 0.3875 0.3867 0.3860 0.3852 0.3836
3055.799210 0.3816 0.3796 0.3776 0.3763 0.3753
3060.475022 0.3743 0.3733 0.3722 0.3709 0.3697
3065.150835 0.3684 0.3673 0.3663 0.3653 0.3643
3069.826647 0.3625 0.3602 0.3580 0.3558 0.3542
3074.502459 0.3529 0.3517 0.3504 0.3495 0.3488
3079.178271 0.3480 0.3473 0.3458 0.3441 0.3423
3083.854083 0.3405 0.3391 0.3378 0.3366 0.3354
3088.529895 0.3345 0.3337 0.3330 0.3322 0.3313
3093.205708 0.3303 0.3293 0.3283 0.3264 0.3242
3097.881520 0.3219 0.3197 0.3176 0.3156 0.3136
3102.557332 0.3116 0.3103 0.3093 0.3083 0.3073
3107.233144 0.3060 0.3045 0.3030 0.3015 0.3005
3111.908956 0.2997 0.2990 0.2982 0.2971 0.2959
3116.584769 0.2946 0.2934 0.2913 0.2887 0.2862
3121.260581 0.2836 0.2813 0.2791 0.2768 0.2746
3125.936393 0.2725 0.2705 0.2685 0.2665 0.2654
3130.612205 0.2647 0.2639 0.2632 0.2608 0.2578
3135.288017 0.2548 0.2518 0.2503 0.2493 0.2483
3139.963829 0.2473 0.2456 0.2436 0.2416 0.2396
3144.639642 0.2377 0.2360 0.2342 0.2325 0.2309
3149.315454 0.2294 0.2279 0.2264 0.2246 0.2226
3153.991266 0.2206 0.2186 0.2169 0.2154 0.2139
3158.667078 0.2123 0.2106 0.2089 0.2072 0.2054
3163.342890 0.2040 0.2028 0.2015 0.2003 0.1994
3168.018702 0.1987 0.1979 0.1972 0.1957 0.1939
3172.694515 0.1922 0.1904 0.1885 0.1865 0.1845
3177.370327 0.1825 0.1809 0.1794 0.1779 0.1764
3182.046139 0.1753 0.1743 0.1733 0.1723 0.1714
3186.721951 0.1707 0.1699 0.1692 0.1684 0.1677
3191.397763 0.1670 0.1662 0.1654 0.1647 0.1639
3196.073576 0.1632 0.1624 0.1617 0.1609 0.1602
3200.749388 0.1590 0.1578 0.1565 0.1553 0.1548
3205.425200 0.1546 0.1543 0.1541 0.1536 0.1531
3210.101012 0.1526 0.1521 0.1518 0.1516 0.1513
3214.776824 0.1511 0.1510 0.1510 0.1510 0.1510
3219.452636 0.1506 0.1501 0.1496 0.1491 0.1488
3224.128449 0.1486 0.1483 0.1481 0.1480 0.1480
3228.804261 0.1480 0.1480 0.1480 0.1480 0.1480
3233.480073 0.1480 0.1480 0.1480 0.1480 0.1480
3238.155885 0.1480 0.1480 0.1480 0.1480 0.1480
3242.831697 0.1480 0.1480 0.1480 0.1480 0.1480
3247.507509 0.1480 0.1480 0.1480 0.1480 0.1480
3252.183322 0.1480 0.1480 0.1480 0.1480 0.1480
3256.859134 0.1482 0.1484 0.1487 0.1489 0.1490
3261.534946 0.1490 0.1490 0.1490 0.1494 0.1499
3266.210758 0.1504 0.1509 0.1510 0.1510 0.1510
3270.886570 0.1510 0.1512 0.1515 0.1517 0.1520
3275.562383 0.1524 0.1529 0.1534 0.1539 0.1540
3280.238195 0.1540 0.1540 0.1540 0.1540 0.1540
3284.914007 0.1540 0.1540 0.1540 0.1540 0.1540
3289.589819 0.1540 0.1542 0.1545 0.1547 0.1550
3294.265631 0.1550 0.1550 0.1550 0.1550 0.1554
3298.941443 0.1559 0.1564 0.1569 0.1570 0.1570
3303.617256 0.1570 0.1570 0.1572 0.1575 0.1577
3308.293068 0.1580 0.1584 0.1589 0.1594 0.1599
3312.968880 0.1602 0.1605 0.1607 0.1610 0.1621
3317.644692 0.1633 0.1646 0.1658 0.1666 0.1674
3322.320504 0.1681 0.1689 0.1703 0.1718 0.1733
3326.996316 0.1748 0.1752 0.1755 0.1757 0.1760
3331.672129 0.1766 0.1774 0.1781 0.1789 0.1800
3336.347941 0.1813 0.1825 0.1838 0.1859 0.1881
3341.023753 0.1904 0.1926 0.1938 0.1949 0.1959
3345.699565 0.1969 0.1981 0.1994 0.2006 0.2019
3350.375377 0.2022 0.2025 0.2027 0.2030 0.2048
3355.051190 0.2068 0.2088 0.2108 0.2119 0.2129
3359.727002 0.2139 0.2149 0.2168 0.2188 0.2208
3364.402814 0.2227 0.2243 0.2258 0.2273 0.2288
3369.078626 0.2305 0.2323 0.2340 0.2358 0.2373
3373.754438 0.2388 0.2403 0.2418 0.2439 0.2462
3378.430250 0.2484 0.2507 0.2527 0.2548 0.2568
3383.106063 0.2588 0.2613 0.2638 0.2663 0.2688
3387.781875 0.2711 0.2733 0.2756 0.2778 0.2801
3392.457687 0.2823 0.2845 0.2868 0.2895 0.2922
3397.133499 0.2950 0.2977 0.3003 0.3028 0.3053
3401.809311 0.3077 0.3100 0.3123 0.3145 0.3168
3406.485123 0.3215 0.3265 0.3315 0.3364 0.3390
3411.160936 0.3412 0.3435 0.3457 0.3475 0.3493
3415.836748 0.3510 0.3528 0.3550 0.3573 0.3596
3420.512560 0.3619 0.3641 0.3664 0.3686 0.3709
3425.188372 0.3731 0.3754 0.3776 0.3799 0.3826
3429.864184 0.3853 0.3881 0.3908 0.3938 0.3968
3434.539997 0.3998 0.4028 0.4053 0.4078 0.4103
3439.215809 0.4128 0.4158 0.4188 0.4218 0.4248
3443.891621 0.4278 0.4307 0.4337 0.4367 0.4397
3448.567433 0.4427 0.4457 0.4487 0.4517 0.4547
3453.243245 0.4577 0.4607 0.4635 0.4663 0.4691
3457.919057 0.4719 0.4749 0.4779 0.4809 0.4839
3462.594870 0.4869 0.4899 0.4929 0.4959 0.4984
3467.270682 0.5009 0.5034 0.5059 0.5086 0.5114
3471.946494 0.5141 0.5169 0.5184 0.5199 0.5214
3476.622306 0.5229 0.5251 0.5274 0.5296 0.5319
3481.298118 0.5348 0.5378 0.5408 0.5438 0.5468
3485.973930 0.5498 0.5528 0.5558 0.5588 0.5618
3490.649743 0.5648 0.5678 0.5701 0.5724 0.5747
3495.325555 0.5770 0.5795 0.5820 0.5845 0.5870
3500.001367 0.5892 0.5915 0.5937 0.5960 0.5987
3504.677179 0.6015 0.6042 0.6070 0.6092 0.6115
3509.352991 0.6137 0.6160 0.6182 0.6204 0.6227
3514.028804 0.6249 0.6272 0.6294 0.6317 0.6339
3518.704616 0.6355 0.6369 0.6384 0.6399 0.6410
3523.380428 0.6420 0.6430 0.6440 0.6447 0.6455
3528.056240 0.6462 0.6470 0.6482 0.6495 0.6508
3532.732052 0.6520 0.6523 0.6525 0.6528 0.6530
3537.407864 0.6535 0.6540 0.6545 0.6550 0.6565
3542.083677 0.6580 0.6595 0.6610 0.6633 0.6655
3546.759489 0.6678 0.6700 0.6708 0.6715 0.6723
3551.435301 0.6730 0.6737 0.6745 0.6752 0.6760
3556.111113 0.6762 0.6765 0.6767 0.6770 0.6775
3560.786925 0.6780 0.6785 0.6790 0.6800 0.6810
3565.462737 0.6820 0.6830 0.6837 0.6845 0.6853
3570.138550 0.6860 0.6865 0.6870 0.6875 0.6880
3574.814362 0.6888 0.6895 0.6903 0.6910 0.6918
3579.490174 0.6925 0.6933 0.6940 0.6940 0.6940
3584.165986 0.6940 0.6940 0.6943 0.6945 0.6948
3588.841798 0.6950 0.6955 0.6960 0.6965 0.6970
3593.517611 0.6973 0.6975 0.6978 0.6980 0.6980
3598.193423 0.6980 0.6980 0.6980 0.6985 0.6990
3602.869235 0.6995 0.7000 0.7000 0.7000 0.7000
3607.545047 0.7000 0.7000 0.7000 0.7000 0.7000
3612.220859 0.7003 0.7005 0.7008 0.7010 0.7010
3616.896671 0.7010 0.7010 0.7010 0.7010 0.7010
3621.572484 0.7010 0.7010 0.7010 0.7010 0.7010
3626.248296 0.7010 0.7010 0.7010 0.7010 0.7010
3630.924108 0.7010 0.7010 0.7010 0.7010 0.7010
3635.599920 0.7010 0.7010 0.7010 0.7010 0.7010
3640.275732 0.7010 0.7010 0.7007 0.7005 0.7002
3644.951545 0.7000 0.7000 0.7000 0.7000 0.7000
3649.627357 0.7000 0.7000 0.7000 0.7000 0.7000
3654.303169 0.7000 0.7000 0.7000 0.6995 0.6990
3658.978981 0.6985 0.6980 0.6980 0.6980 0.6980
3663.654793 0.6980 0.6980 0.6980 0.6980 0.6980
3668.330605 0.6980 0.6980 0.6980 0.6980 0.6980
3673.006418 0.6980 0.6980 0.6980 0.6977 0.6975
3677.682230 0.6972 0.6970 0.6970 0.6970 0.6970
3682.358042 0.6970 0.6970 0.6970 0.6970 0.6970
3687.033854 0.6970 0.6970 0.6970 0.6970 0.6970
3691.709666 0.6970 0.6970 0.6970 0.6970 0.6970
3696.385478 0.6970 0.6969 0.6964 0.6960 0.6955
3701.061291 0.6950 0.6947 0.6945 0.6942 0.6940
3705.737103 0.6940 0.6940 0.6940 0.6940 0.6935
3710.412915 0.6930 0.6925 0.6920 0.6920 0.6920
3715.088727 0.6920 0.6920 0.6920 0.6920 0.6920
3719.764539 0.6920 0.6920 0.6920 0.6920 0.6920
3724.440352 0.6920 0.6920 0.6920 0.6920 0.6920
3729.116164 0.6920 0.6920 0.6920 0.6920 0.6920
3733.791976 0.6920 0.6920 0.6920 0.6920 0.6920
3738.467788 0.6920 0.6917 0.6915 0.6912 0.6910
3743.143600 0.6910 0.6910 0.6910 0.6909 0.6904
3747.819412 0.6899 0.6894 0.6890 0.6887 0.6885
3752.495225 0.6882 0.6879 0.6872 0.6864 0.6856
3757.171037 0.6849 0.6844 0.6839 0.6834 0.6828
3761.846849 0.6818 0.6808 0.6798 0.6789 0.6781
3766.522661 0.6774 0.6766 0.6760 0.6760 0.6760
3771.198473 0.6760 0.6759 0.6754 0.6749 0.6744
3775.874285 0.6740 0.6737 0.6735 0.6732 0.6730
3780.550098 0.6730 0.6730 0.6730 0.6730 0.6730
3785.225910 0.6730 0.6730 0.6730 0.6730 0.6730
3789.901722 0.6730 0.6730 0.6730 0.6730 0.6730
3794.577534 0.6730 0.6730 0.6730 0.6730 0.6729
3799.253346 0.6724 0.6719 0.6714 0.6710 0.6710
3803.929159 0.6710 0.6710 0.6710 0.6707 0.6705
3808.604971 0.6702 0.6699 0.6694 0.6689 0.6684
3813.280783 0.6680 0.6680 0.6680 0.6680 0.6680
3817.956595 0.6677 0.6675 0.6672 0.6670 0.6670
3822.632407 0.6670 0.6670 0.6670 0.6670 0.6670
3827.308219 0.6670 0.6670 0.6670 0.6670 0.6670
3831.984032 0.6670 0.6670 0.6670 0.6670 0.6670
3836.659844 0.6670 0.6670 0.6670 0.6670 0.6670
3841.335656 0.6670 0.6670 0.6670 0.6670 0.6670
3846.011468 0.6670 0.6670 0.6670 0.6670 0.6670
3850.687280 0.6670 0.6670 0.6670 0.6670 0.6670
3855.363092 0.6670 0.6670 0.6670 0.6670 0.6670
3860.038905 0.6670 0.6670 0.6670 0.6670 0.6670
3864.714717 0.6670 0.6670 0.6670 0.6670 0.6670
3869.390529 0.6670 0.6670 0.6670 0.6670 0.6670
3874.066341 0.6670 0.6670 0.6670 0.6670 0.6670
3878.742153 0.6670 0.6670 0.6670 0.6670 0.6670
3883.417966 0.6670 0.6669 0.6664 0.6659 0.6654
3888.093778 0.6650 0.6650 0.6650 0.6650 0.6649
3892.769590 0.6647 0.6644 0.6642 0.6640 0.6640
3897.445402 0.6640 0.6640 0.6638 0.6631 0.6623
3902.121214 0.6616 0.6609 0.6604 0.6599 0.6594
3906.797026 0.6589 0.6587 0.6584 0.6582 0.6579
3911.472839 0.6574 0.6569 0.6564 0.6558 0.6551
3916.148651 0.6543 0.6536 0.6529 0.6527 0.6524
3920.824463 0.6522 0.6520 0.6520 0.6520 0.6520
3925.500275 0.6519 0.6514 0.6509 0.6504 0.6499
3930.176087 0.6497 0.6494 0.6492 0.6490 0.6490
3934.851899 0.6490 0.6490 0.6490 0.6490 0.6490
3939.527712 0.6490 0.6490 0.6490 0.6490 0.6490
3944.203524 0.6489 0.6484 0.6479 0.6474 0.6470
3948.879336 0.6470 0.6470 0.6470 0.6470 0.6470
3953.555148 0.6470 0.6470 0.6470 0.6470 0.6470
3958.230960 0.6470 0.6470 0.6470 0.6470 0.6470
3962.906773 0.6470 0.6470 0.6470 0.6470 0.6470
3967.582585 0.6470 0.6470 0.6470 0.6470 0.6470
3972.258397 0.6470 0.6470 0.6470 0.6470 0.6470
3976.934209 0.6470 0.6470 0.6470 0.6470 0.6470
3981.610021 0.6470 0.6470 0.6470 0.6470 0.6470
3986.285833 0.6470 0.6470 0.6470 0.6470 0.6470
3990.961646 0.6470 0.6470 0.6470 0.6470 0.6470
3995.637458 0.6470
##END=
