##TITLE=PHENTOLAMINE, METHYL SULFONATE
##JCAMP-DX=4.24
$$ By DXEDIT 1.05 (RS McDonald)
##DATA TYPE=INFRARED SPECTRUM
##CLASS=COBLENTZ III
##OWNER=COPYRIGHT (C) 1988 by COBLENTZ SOCIETY INC.
Collection (C) 2018 copyright by the U.S. Secretary of Commerce
on behalf of the United States of America. All rights reserved.
##DATE=1961/09/22
##NAMES=3-[(4,5-dihydro-1H-imidazol-2-ylmethyl)-4-methylanilino]phenol methanesulfonate
PHENTOLAMINE METHANE SULFONATE
##MOLFORM=C18 H23 N3 O4 S
##MP=177-181 C
##SOURCE REFERENCE=COBLENTZ NO. 5058
##$NIST ID=B6005058
##$NIST SOURCE=COBLENTZ
##$NIST IMAGE=cob5058
##SPECTROMETER/DATA SYSTEM=PERKIN-ELMER 21 (GRATING)
##INSTRUMENT PARAMETERS=FILTER AT ABOUT 10 MICRONS
##STATE=OIL MULL
##PATH LENGTH=
$$SPECTRAL CONTAMINATION DUE TO OIL AROUND 2900 AND 1465 CM^-^1
##SAMPLING PROCEDURE=TRANSMISSION
##RESOLUTION=2
##DATA PROCESSING=DIGITIZED BY COBLENTZ SOCIETY (BATCH I) FROM HARD COPY
##XUNITS=1/CM
##YUNITS=TRANSMITTANCE
##XFACTOR=1
##YFACTOR=1
##DELTAX=1
##FIRSTX=4000
##LASTX=687
##FIRSTY=0.8486
##MAXX=4000
##MINX=687
##MAXY=0.9364
##MINY=0.2287
##NPOINTS=3314
##XYDATA=(X++(Y..Y))
4000.000000 0.8486 0.8486 0.8488 0.8489 0.8489
3995.000000 0.8491 0.8492 0.8494 0.8496 0.8498
3990.000000 0.8501 0.8502 0.8505 0.8506 0.8509
3985.000000 0.8510 0.8513 0.8515 0.8516 0.8517
3980.000000 0.8521 0.8523 0.8524 0.8527 0.8528
3975.000000 0.8530 0.8533 0.8534 0.8537 0.8539
3970.000000 0.8541 0.8544 0.8545 0.8546 0.8549
3965.000000 0.8551 0.8553 0.8555 0.8556 0.8559
3960.000000 0.8561 0.8563 0.8566 0.8567 0.8570
3955.000000 0.8571 0.8574 0.8575 0.8578 0.8580
3950.000000 0.8582 0.8585 0.8586 0.8587 0.8590
3945.000000 0.8592 0.8594 0.8596 0.8598 0.8600
3940.000000 0.8602 0.8604 0.8606 0.8609 0.8611
3935.000000 0.8613 0.8616 0.8618 0.8620 0.8623
3930.000000 0.8625 0.8628 0.8630 0.8633 0.8636
3925.000000 0.8637 0.8640 0.8642 0.8645 0.8648
3920.000000 0.8649 0.8652 0.8654 0.8657 0.8660
3915.000000 0.8662 0.8665 0.8668 0.8670 0.8672
3910.000000 0.8674 0.8677 0.8679 0.8681 0.8683
3905.000000 0.8685 0.8689 0.8691 0.8694 0.8697
3900.000000 0.8699 0.8702 0.8704 0.8706 0.8708
3895.000000 0.8711 0.8714 0.8715 0.8718 0.8719
3890.000000 0.8722 0.8723 0.8726 0.8725 0.8726
3885.000000 0.8729 0.8729 0.8730 0.8730 0.8732
3880.000000 0.8733 0.8733 0.8735 0.8736 0.8736
3875.000000 0.8737 0.8739 0.8739 0.8740 0.8742
3870.000000 0.8742 0.8743 0.8745 0.8745 0.8746
3865.000000 0.8748 0.8748 0.8749 0.8750 0.8752
3860.000000 0.8752 0.8753 0.8755 0.8754 0.8755
3855.000000 0.8758 0.8758 0.8759 0.8760 0.8761
3850.000000 0.8762 0.8762 0.8763 0.8764 0.8765
3845.000000 0.8765 0.8767 0.8768 0.8769 0.8769
3840.000000 0.8771 0.8772 0.8772 0.8774 0.8775
3835.000000 0.8775 0.8776 0.8778 0.8779 0.8779
3830.000000 0.8781 0.8782 0.8782 0.8782 0.8784
3825.000000 0.8785 0.8785 0.8786 0.8788 0.8788
3820.000000 0.8789 0.8791 0.8791 0.8792 0.8794
3815.000000 0.8794 0.8795 0.8795 0.8796 0.8797
3810.000000 0.8798 0.8799 0.8799 0.8801 0.8801
3805.000000 0.8802 0.8802 0.8804 0.8804 0.8805
3800.000000 0.8807 0.8807 0.8808 0.8809 0.8809
3795.000000 0.8811 0.8812 0.8812 0.8814 0.8815
3790.000000 0.8815 0.8816 0.8817 0.8818 0.8818
3785.000000 0.8819 0.8821 0.8821 0.8822 0.8823
3780.000000 0.8824 0.8825 0.8826 0.8828 0.8828
3775.000000 0.8829 0.8829 0.8830 0.8832 0.8832
3770.000000 0.8833 0.8833 0.8835 0.8835 0.8836
3765.000000 0.8836 0.8838 0.8839 0.8839 0.8840
3760.000000 0.8842 0.8842 0.8843 0.8844 0.8846
3755.000000 0.8846 0.8847 0.8848 0.8850 0.8851
3750.000000 0.8854 0.8855 0.8856 0.8858 0.8859
3745.000000 0.8860 0.8861 0.8863 0.8864 0.8864
3740.000000 0.8865 0.8867 0.8867 0.8868 0.8871
3735.000000 0.8872 0.8873 0.8875 0.8876 0.8877
3730.000000 0.8879 0.8880 0.8881 0.8882 0.8884
3725.000000 0.8885 0.8886 0.8888 0.8889 0.8890
3720.000000 0.8891 0.8893 0.8894 0.8895 0.8897
3715.000000 0.8898 0.8899 0.8899 0.8901 0.8903
3710.000000 0.8904 0.8906 0.8907 0.8908 0.8910
3705.000000 0.8911 0.8912 0.8913 0.8915 0.8916
3700.000000 0.8917 0.8919 0.8920 0.8921 0.8922
3695.000000 0.8924 0.8925 0.8926 0.8927 0.8929
3690.000000 0.8931 0.8933 0.8934 0.8935 0.8936
3685.000000 0.8939 0.8940 0.8941 0.8943 0.8944
3680.000000 0.8946 0.8948 0.8949 0.8950 0.8951
3675.000000 0.8953 0.8955 0.8956 0.8958 0.8959
3670.000000 0.8960 0.8961 0.8963 0.8965 0.8966
3665.000000 0.8968 0.8969 0.8971 0.8973 0.8974
3660.000000 0.8975 0.8976 0.8979 0.8980 0.8981
3655.000000 0.8983 0.8985 0.8986 0.8988 0.8989
3650.000000 0.8991 0.8993 0.8994 0.8995 0.8997
3645.000000 0.8999 0.9000 0.9000 0.9001 0.9004
3640.000000 0.9005 0.9007 0.9009 0.9010 0.9011
3635.000000 0.9014 0.9015 0.9016 0.9018 0.9021
3630.000000 0.9022 0.9024 0.9027 0.9028 0.9031
3625.000000 0.9033 0.9034 0.9037 0.9038 0.9040
3620.000000 0.9041 0.9044 0.9045 0.9047 0.9050
3615.000000 0.9051 0.9054 0.9056 0.9057 0.9060
3610.000000 0.9062 0.9063 0.9066 0.9068 0.9069
3605.000000 0.9072 0.9073 0.9075 0.9076 0.9079
3600.000000 0.9081 0.9082 0.9085 0.9087 0.9090
3595.000000 0.9091 0.9093 0.9096 0.9097 0.9099
3590.000000 0.9102 0.9104 0.9105 0.9107 0.9110
3585.000000 0.9111 0.9112 0.9116 0.9118 0.9119
3580.000000 0.9122 0.9124 0.9126 0.9128 0.9130
3575.000000 0.9132 0.9134 0.9136 0.9138 0.9141
3570.000000 0.9142 0.9144 0.9147 0.9149 0.9150
3565.000000 0.9153 0.9155 0.9157 0.9158 0.9161
3560.000000 0.9163 0.9166 0.9167 0.9169 0.9171
3555.000000 0.9174 0.9176 0.9177 0.9180 0.9182
3550.000000 0.9184 0.9185 0.9188 0.9190 0.9193
3545.000000 0.9195 0.9196 0.9198 0.9201 0.9203
3540.000000 0.9205 0.9208 0.9210 0.9214 0.9216
3535.000000 0.9218 0.9222 0.9224 0.9225 0.9230
3530.000000 0.9232 0.9234 0.9237 0.9240 0.9243
3525.000000 0.9245 0.9248 0.9251 0.9254 0.9256
3520.000000 0.9259 0.9261 0.9265 0.9266 0.9269
3515.000000 0.9273 0.9275 0.9277 0.9281 0.9283
3510.000000 0.9287 0.9289 0.9291 0.9293 0.9296
3505.000000 0.9297 0.9298 0.9299 0.9300 0.9301
3500.000000 0.9303 0.9303 0.9304 0.9306 0.9307
3495.000000 0.9308 0.9310 0.9311 0.9312 0.9313
3490.000000 0.9313 0.9314 0.9315 0.9316 0.9318
3485.000000 0.9319 0.9320 0.9321 0.9322 0.9323
3480.000000 0.9324 0.9324 0.9325 0.9327 0.9327
3475.000000 0.9327 0.9328 0.9328 0.9329 0.9329
3470.000000 0.9328 0.9330 0.9330 0.9329 0.9331
3465.000000 0.9330 0.9330 0.9331 0.9331 0.9333
3460.000000 0.9332 0.9332 0.9331 0.9330 0.9328
3455.000000 0.9325 0.9291 0.9320 0.9315 0.9313
3450.000000 0.9308 0.9304 0.9301 0.9298 0.9294
3445.000000 0.9291 0.9286 0.9283 0.9280 0.9276
3440.000000 0.9273 0.9269 0.9265 0.9259 0.9255
3435.000000 0.9250 0.9244 0.9240 0.9234 0.9230
3430.000000 0.9224 0.9219 0.9215 0.9209 0.9205
3425.000000 0.9200 0.9194 0.9190 0.9184 0.9180
3420.000000 0.9175 0.9169 0.9164 0.9159 0.9154
3415.000000 0.9148 0.9142 0.9138 0.9132 0.9126
3410.000000 0.9121 0.9115 0.9109 0.9104 0.9098
3405.000000 0.9089 0.9081 0.9073 0.9065 0.9058
3400.000000 0.9049 0.9040 0.9031 0.9019 0.9011
3395.000000 0.9002 0.8993 0.8984 0.8975 0.8966
3390.000000 0.8957 0.8948 0.8939 0.8930 0.8920
3385.000000 0.8911 0.8902 0.8893 0.8884 0.8874
3380.000000 0.8865 0.8856 0.8846 0.8835 0.8824
3375.000000 0.8811 0.8800 0.8786 0.8769 0.8753
3370.000000 0.8737 0.8722 0.8706 0.8690 0.8675
3365.000000 0.8659 0.8643 0.8628 0.8612 0.8596
3360.000000 0.8579 0.8553 0.8525 0.8500 0.8475
3355.000000 0.8442 0.8407 0.8373 0.8338 0.8303
3350.000000 0.8270 0.8235 0.8201 0.8167 0.8143
3345.000000 0.8122 0.8103 0.8083 0.8063 0.8043
3340.000000 0.8023 0.8002 0.7983 0.7963 0.7943
3335.000000 0.7923 0.7903 0.7883 0.7862 0.7842
3330.000000 0.7822 0.7801 0.7780 0.7758 0.7736
3325.000000 0.7714 0.7690 0.7668 0.7646 0.7624
3320.000000 0.7601 0.7579 0.7557 0.7534 0.7512
3315.000000 0.7490 0.7468 0.7445 0.7423 0.7401
3310.000000 0.7379 0.7357 0.7335 0.7313 0.7291
3305.000000 0.7269 0.7247 0.7225 0.7203 0.7181
3300.000000 0.7159 0.7137 0.7115 0.7097 0.7079
3295.000000 0.7061 0.7043 0.7029 0.7015 0.7003
3290.000000 0.6990 0.6977 0.6964 0.6952 0.6939
3285.000000 0.6926 0.6913 0.6900 0.6887 0.6874
3280.000000 0.6861 0.6848 0.6835 0.6823 0.6810
3275.000000 0.6798 0.6785 0.6772 0.6759 0.6745
3270.000000 0.6731 0.6717 0.6704 0.6689 0.6675
3265.000000 0.6659 0.6645 0.6631 0.6616 0.6601
3260.000000 0.6586 0.6572 0.6557 0.6543 0.6528
3255.000000 0.6513 0.6499 0.6484 0.6470 0.6455
3250.000000 0.6442 0.6427 0.6414 0.6400 0.6387
3245.000000 0.6373 0.6359 0.6347 0.6333 0.6320
3240.000000 0.6306 0.6293 0.6280 0.6266 0.6251
3235.000000 0.6239 0.6226 0.6212 0.6199 0.6185
3230.000000 0.6173 0.6159 0.6144 0.6132 0.6118
3225.000000 0.6102 0.6086 0.6070 0.6054 0.6038
3220.000000 0.6021 0.6006 0.5990 0.5972 0.5957
3215.000000 0.5940 0.5924 0.5907 0.5894 0.5880
3210.000000 0.5867 0.5853 0.5841 0.5830 0.5816
3205.000000 0.5804 0.5792 0.5779 0.5766 0.5754
3200.000000 0.5740 0.5730 0.5717 0.5703 0.5695
3195.000000 0.5685 0.5675 0.5666 0.5657 0.5647
3190.000000 0.5639 0.5629 0.5621 0.5612 0.5604
3185.000000 0.5596 0.5586 0.5578 0.5568 0.5560
3180.000000 0.5552 0.5545 0.5537 0.5530 0.5523
3175.000000 0.5516 0.5509 0.5502 0.5496 0.5489
3170.000000 0.5483 0.5475 0.5468 0.5462 0.5455
3165.000000 0.5448 0.5442 0.5436 0.5430 0.5425
3160.000000 0.5419 0.5412 0.5407 0.5403 0.5397
3155.000000 0.5391 0.5386 0.5380 0.5374 0.5368
3150.000000 0.5362 0.5356 0.5351 0.5350 0.5350
3145.000000 0.5348 0.5347 0.5346 0.5345 0.5344
3140.000000 0.5344 0.5343 0.5342 0.5342 0.5344
3135.000000 0.5345 0.5348 0.5350 0.5352 0.5356
3130.000000 0.5360 0.5363 0.5368 0.5371 0.5376
3125.000000 0.5381 0.5385 0.5389 0.5393 0.5397
3120.000000 0.5403 0.5408 0.5414 0.5420 0.5425
3115.000000 0.5430 0.5436 0.5441 0.5447 0.5451
3110.000000 0.5456 0.5462 0.5468 0.5472 0.5479
3105.000000 0.5485 0.5490 0.5498 0.5504 0.5510
3100.000000 0.5516 0.5522 0.5530 0.5535 0.5542
3095.000000 0.5548 0.5555 0.5561 0.5567 0.5573
3090.000000 0.5580 0.5585 0.5592 0.5598 0.5604
3085.000000 0.5608 0.5613 0.5618 0.5624 0.5629
3080.000000 0.5634 0.5639 0.5645 0.5650 0.5655
3075.000000 0.5661 0.5665 0.5668 0.5672 0.5677
3070.000000 0.5679 0.5683 0.5687 0.5692 0.5695
3065.000000 0.5699 0.5703 0.5706 0.5708 0.5713
3060.000000 0.5714 0.5716 0.5715 0.5717 0.5717
3055.000000 0.5717 0.5716 0.5716 0.5716 0.5715
3050.000000 0.5715 0.5713 0.5712 0.5709 0.5704
3045.000000 0.5701 0.5698 0.5695 0.5691 0.5686
3040.000000 0.5680 0.5674 0.5667 0.5662 0.5655
3035.000000 0.5649 0.5644 0.5635 0.5625 0.5617
3030.000000 0.5607 0.5596 0.5583 0.5571 0.5560
3025.000000 0.5549 0.5536 0.5526 0.5513 0.5501
3020.000000 0.5490 0.5471 0.5445 0.5417 0.5390
3015.000000 0.5363 0.5332 0.5302 0.5272 0.5233
3010.000000 0.5195 0.5156 0.5116 0.5076 0.5034
3005.000000 0.4993 0.4947 0.4899 0.4851 0.4809
3000.000000 0.4785 0.4760 0.4736 0.4715 0.4699
2995.000000 0.4682 0.4664 0.4647 0.4628 0.4610
2990.000000 0.4583 0.4544 0.4506 0.4468 0.4390
2985.000000 0.4306 0.4222 0.4137 0.4053 0.3968
2980.000000 0.3883 0.3799 0.3714 0.3629 0.3544
2975.000000 0.3459 0.3374 0.3290 0.3205 0.3120
2970.000000 0.3035 0.2947 0.2830 0.2714 0.2598
2965.000000 0.2545 0.2534 0.2523 0.2513 0.2501
2960.000000 0.2492 0.2481 0.2472 0.2465 0.2458
2955.000000 0.2450 0.2444 0.2436 0.2430 0.2423
2950.000000 0.2416 0.2409 0.2402 0.2396 0.2389
2945.000000 0.2383 0.2378 0.2372 0.2368 0.2364
2940.000000 0.2360 0.2355 0.2351 0.2346 0.2342
2935.000000 0.2337 0.2332 0.2328 0.2323 0.2319
2930.000000 0.2316 0.2314 0.2311 0.2309 0.2306
2925.000000 0.2305 0.2304 0.2302 0.2301 0.2299
2920.000000 0.2298 0.2297 0.2296 0.2294 0.2294
2915.000000 0.2293 0.2293 0.2292 0.2292 0.2292
2910.000000 0.2291 0.2291 0.2291 0.2291 0.2290
2905.000000 0.2289 0.2289 0.2288 0.2287 0.2287
2900.000000 0.2287 0.2287 0.2288 0.2288 0.2290
2895.000000 0.2291 0.2292 0.2293 0.2295 0.2296
2890.000000 0.2298 0.2299 0.2300 0.2301 0.2303
2885.000000 0.2304 0.2305 0.2306 0.2308 0.2310
2880.000000 0.2313 0.2315 0.2316 0.2318 0.2320
2875.000000 0.2322 0.2324 0.2325 0.2327 0.2328
2870.000000 0.2329 0.2331 0.2334 0.2335 0.2338
2865.000000 0.2340 0.2343 0.2346 0.2349 0.2353
2860.000000 0.2356 0.2359 0.2363 0.2366 0.2373
2855.000000 0.2379 0.2385 0.2391 0.2396 0.2402
2850.000000 0.2411 0.2420 0.2429 0.2438 0.2450
2845.000000 0.2460 0.2470 0.2484 0.2498 0.2511
2840.000000 0.2530 0.2549 0.2567 0.2596 0.2629
2835.000000 0.2662 0.2716 0.2793 0.2871 0.2952
2830.000000 0.3046 0.3140 0.3234 0.3329 0.3422
2825.000000 0.3517 0.3611 0.3705 0.3798 0.3893
2820.000000 0.3988 0.4082 0.4176 0.4270 0.4365
2815.000000 0.4458 0.4554 0.4648 0.4743 0.4838
2810.000000 0.4932 0.5027 0.5122 0.5216 0.5309
2805.000000 0.5406 0.5500 0.5596 0.5691 0.5785
2800.000000 0.5880 0.5968 0.6050 0.6131 0.6197
2795.000000 0.6235 0.6273 0.6312 0.6353 0.6394
2790.000000 0.6435 0.6480 0.6525 0.6571 0.6618
2785.000000 0.6666 0.6714 0.6761 0.6807 0.6852
2780.000000 0.6895 0.6934 0.6976 0.7013 0.7050
2775.000000 0.7088 0.7122 0.7154 0.7185 0.7218
2770.000000 0.7249 0.7281 0.7314 0.7347 0.7380
2765.000000 0.7413 0.7444 0.7475 0.7504 0.7530
2760.000000 0.7556 0.7579 0.7596 0.7614 0.7629
2755.000000 0.7647 0.7662 0.7677 0.7689 0.7701
2750.000000 0.7712 0.7718 0.7724 0.7729 0.7733
2745.000000 0.7736 0.7738 0.7740 0.7741 0.7743
2740.000000 0.7742 0.7742 0.7741 0.7740 0.7739
2735.000000 0.7737 0.7733 0.7729 0.7725 0.7721
2730.000000 0.7717 0.7713 0.7708 0.7705 0.7702
2725.000000 0.7698 0.7694 0.7692 0.7688 0.7684
2720.000000 0.7681 0.7677 0.7673 0.7669 0.7666
2715.000000 0.7662 0.7658 0.7655 0.7652 0.7649
2710.000000 0.7647 0.7646 0.7644 0.7642 0.7641
2705.000000 0.7639 0.7636 0.7635 0.7637 0.7642
2700.000000 0.7645 0.7657 0.7673 0.7689 0.7700
2695.000000 0.7709 0.7719 0.7724 0.7729 0.7734
2690.000000 0.7734 0.7735 0.7736 0.7737 0.7738
2685.000000 0.7739 0.7741 0.7741 0.7742 0.7741
2680.000000 0.7741 0.7741 0.7741 0.7741 0.7741
2675.000000 0.7742 0.7741 0.7741 0.7741 0.7741
2670.000000 0.7741 0.7741 0.7741 0.7741 0.7742
2665.000000 0.7742 0.7742 0.7743 0.7743 0.7744
2660.000000 0.7746 0.7747 0.7748 0.7749 0.7751
2655.000000 0.7752 0.7752 0.7754 0.7757 0.7759
2650.000000 0.7763 0.7768 0.7773 0.7777 0.7781
2645.000000 0.7785 0.7790 0.7794 0.7799 0.7805
2640.000000 0.7810 0.7817 0.7826 0.7834 0.7841
2635.000000 0.7849 0.7857 0.7865 0.7873 0.7881
2630.000000 0.7889 0.7897 0.7906 0.7915 0.7924
2625.000000 0.7930 0.7936 0.7941 0.7940 0.7939
2620.000000 0.7939 0.7938 0.7937 0.7937 0.7936
2615.000000 0.7936 0.7937 0.7937 0.7937 0.7937
2610.000000 0.7938 0.7938 0.7939 0.7939 0.7940
2605.000000 0.7940 0.7941 0.7941 0.7942 0.7942
2600.000000 0.7943 0.7942 0.7948 0.7952 0.7957
2595.000000 0.7962 0.7967 0.7973 0.7978 0.7983
2590.000000 0.7988 0.7992 0.7997 0.8004 0.8011
2585.000000 0.8018 0.8024 0.8031 0.8038 0.8044
2580.000000 0.8051 0.8058 0.8065 0.8071 0.8079
2575.000000 0.8086 0.8093 0.8100 0.8108 0.8117
2570.000000 0.8127 0.8136 0.8146 0.8155 0.8174
2565.000000 0.8196 0.8219 0.8241 0.8263 0.8281
2560.000000 0.8296 0.8312 0.8319 0.8324 0.8329
2555.000000 0.8334 0.8339 0.8344 0.8349 0.8355
2550.000000 0.8356 0.8359 0.8362 0.8364 0.8366
2545.000000 0.8368 0.8369 0.8371 0.8373 0.8375
2540.000000 0.8376 0.8378 0.8379 0.8384 0.8390
2535.000000 0.8396 0.8401 0.8406 0.8411 0.8417
2530.000000 0.8421 0.8426 0.8431 0.8439 0.8447
2525.000000 0.8454 0.8464 0.8475 0.8484 0.8494
2520.000000 0.8503 0.8514 0.8525 0.8535 0.8545
2515.000000 0.8556 0.8565 0.8576 0.8584 0.8590
2510.000000 0.8596 0.8602 0.8609 0.8616 0.8621
2505.000000 0.8628 0.8634 0.8639 0.8645 0.8653
2500.000000 0.8659 0.8665 0.8671 0.8675 0.8677
2495.000000 0.8679 0.8679 0.8680 0.8682 0.8684
2490.000000 0.8686 0.8686 0.8688 0.8691 0.8692
2485.000000 0.8694 0.8695 0.8696 0.8696 0.8696
2480.000000 0.8696 0.8696 0.8696 0.8696 0.8696
2475.000000 0.8696 0.8696 0.8695 0.8696 0.8695
2470.000000 0.8695 0.8695 0.8694 0.8695 0.8694
2465.000000 0.8695 0.8695 0.8694 0.8696 0.8696
2460.000000 0.8698 0.8698 0.8698 0.8701 0.8701
2455.000000 0.8702 0.8704 0.8705 0.8707 0.8708
2450.000000 0.8709 0.8710 0.8711 0.8712 0.8713
2445.000000 0.8714 0.8716 0.8717 0.8718 0.8718
2440.000000 0.8718 0.8721 0.8722 0.8723 0.8724
2435.000000 0.8726 0.8726 0.8727 0.8728 0.8730
2430.000000 0.8731 0.8733 0.8735 0.8737 0.8739
2425.000000 0.8740 0.8742 0.8745 0.8747 0.8748
2420.000000 0.8750 0.8751 0.8753 0.8756 0.8758
2415.000000 0.8761 0.8763 0.8764 0.8766 0.8769
2410.000000 0.8771 0.8773 0.8775 0.8776 0.8778
2405.000000 0.8781 0.8783 0.8784 0.8786 0.8787
2400.000000 0.8791 0.8793 0.8795 0.8797 0.8799
2395.000000 0.8801 0.8804 0.8806 0.8809 0.8812
2390.000000 0.8814 0.8816 0.8818 0.8821 0.8824
2385.000000 0.8826 0.8829 0.8831 0.8834 0.8835
2380.000000 0.8838 0.8841 0.8843 0.8845 0.8847
2375.000000 0.8850 0.8854 0.8857 0.8859 0.8861
2370.000000 0.8864 0.8867 0.8869 0.8871 0.8874
2365.000000 0.8877 0.8879 0.8881 0.8883 0.8886
2360.000000 0.8889 0.8893 0.8894 0.8897 0.8900
2355.000000 0.8903 0.8905 0.8907 0.8910 0.8913
2350.000000 0.8915 0.8917 0.8919 0.8922 0.8925
2345.000000 0.8928 0.8929 0.8931 0.8932 0.8933
2340.000000 0.8934 0.8936 0.8937 0.8939 0.8940
2335.000000 0.8940 0.8942 0.8942 0.8944 0.8945
2330.000000 0.8947 0.8949 0.8949 0.8951 0.8952
2325.000000 0.8953 0.8953 0.8953 0.8953 0.8953
2320.000000 0.8952 0.8951 0.8950 0.8949 0.8949
2315.000000 0.8948 0.8948 0.8947 0.8947 0.8945
2310.000000 0.8945 0.8944 0.8944 0.8944 0.8944
2305.000000 0.8943 0.8943 0.8942 0.8941 0.8940
2300.000000 0.8939 0.8939 0.8938 0.8938 0.8938
2295.000000 0.8938 0.8939 0.8939 0.8940 0.8940
2290.000000 0.8941 0.8940 0.8940 0.8942 0.8943
2285.000000 0.8943 0.8945 0.8944 0.8945 0.8945
2280.000000 0.8945 0.8946 0.8947 0.8947 0.8948
2275.000000 0.8949 0.8950 0.8950 0.8950 0.8951
2270.000000 0.8952 0.8953 0.8955 0.8956 0.8958
2265.000000 0.8961 0.8961 0.8965 0.8966 0.8968
2260.000000 0.8970 0.8973 0.8976 0.8977 0.8980
2255.000000 0.8982 0.8984 0.8986 0.8988 0.8991
2250.000000 0.8992 0.8995 0.8997 0.8999 0.9001
2245.000000 0.9003 0.9006 0.9008 0.9010 0.9013
2240.000000 0.9014 0.9017 0.9020 0.9021 0.9024
2235.000000 0.9026 0.9029 0.9030 0.9033 0.9035
2230.000000 0.9037 0.9040 0.9043 0.9045 0.9047
2225.000000 0.9050 0.9051 0.9054 0.9056 0.9058
2220.000000 0.9060 0.9063 0.9064 0.9066 0.9069
2215.000000 0.9071 0.9072 0.9074 0.9075 0.9076
2210.000000 0.9078 0.9079 0.9080 0.9081 0.9082
2205.000000 0.9084 0.9085 0.9087 0.9087 0.9089
2200.000000 0.9090 0.9090 0.9090 0.9091 0.9091
2195.000000 0.9091 0.9092 0.9092 0.9093 0.9092
2190.000000 0.9092 0.9093 0.9093 0.9093 0.9091
2185.000000 0.9091 0.9090 0.9090 0.9089 0.9089
2180.000000 0.9088 0.9087 0.9086 0.9086 0.9085
2175.000000 0.9085 0.9084 0.9084 0.9083 0.9082
2170.000000 0.9082 0.9081 0.9080 0.9079 0.9079
2165.000000 0.9078 0.9078 0.9077 0.9077 0.9076
2160.000000 0.9077 0.9078 0.9079 0.9081 0.9082
2155.000000 0.9084 0.9086 0.9085 0.9087 0.9090
2150.000000 0.9090 0.9091 0.9093 0.9095 0.9095
2145.000000 0.9097 0.9099 0.9101 0.9104 0.9106
2140.000000 0.9108 0.9113 0.9115 0.9117 0.9120
2135.000000 0.9123 0.9126 0.9129 0.9132 0.9135
2130.000000 0.9137 0.9138 0.9141 0.9143 0.9144
2125.000000 0.9147 0.9150 0.9152 0.9154 0.9156
2120.000000 0.9158 0.9160 0.9162 0.9164 0.9165
2115.000000 0.9168 0.9169 0.9170 0.9172 0.9174
2110.000000 0.9176 0.9178 0.9180 0.9182 0.9184
2105.000000 0.9185 0.9188 0.9189 0.9191 0.9193
2100.000000 0.9194 0.9196 0.9197 0.9198 0.9200
2095.000000 0.9202 0.9204 0.9206 0.9208 0.9210
2090.000000 0.9212 0.9212 0.9212 0.9211 0.9210
2085.000000 0.9209 0.9208 0.9207 0.9206 0.9205
2080.000000 0.9204 0.9203 0.9202 0.9201 0.9199
2075.000000 0.9198 0.9198 0.9198 0.9199 0.9198
2070.000000 0.9198 0.9198 0.9198 0.9198 0.9199
2065.000000 0.9199 0.9199 0.9198 0.9198 0.9199
2060.000000 0.9199 0.9198 0.9197 0.9198 0.9198
2055.000000 0.9199 0.9198 0.9197 0.9197 0.9198
2050.000000 0.9197 0.9199 0.9198 0.9198 0.9198
2045.000000 0.9200 0.9201 0.9201 0.9201 0.9202
2040.000000 0.9203 0.9203 0.9204 0.9204 0.9204
2035.000000 0.9205 0.9206 0.9207 0.9206 0.9207
2030.000000 0.9208 0.9208 0.9208 0.9210 0.9210
2025.000000 0.9210 0.9210 0.9210 0.9210 0.9213
2020.000000 0.9212 0.9213 0.9214 0.9215 0.9216
2015.000000 0.9216 0.9217 0.9218 0.9218 0.9219
2010.000000 0.9220 0.9220 0.9221 0.9221 0.9222
2005.000000 0.9223 0.9224 0.9224 0.9224 0.9226
2000.000000 0.9226 0.9227 0.9227 0.9228 0.9229
1995.000000 0.9229 0.9230 0.9231 0.9232 0.9233
1990.000000 0.9233 0.9234 0.9235 0.9235 0.9237
1985.000000 0.9237 0.9238 0.9239 0.9239 0.9240
1980.000000 0.9241 0.9242 0.9242 0.9244 0.9243
1975.000000 0.9245 0.9245 0.9246 0.9248 0.9248
1970.000000 0.9248 0.9250 0.9251 0.9251 0.9253
1965.000000 0.9254 0.9254 0.9255 0.9256 0.9257
1960.000000 0.9258 0.9258 0.9259 0.9260 0.9261
1955.000000 0.9261 0.9260 0.9261 0.9261 0.9260
1950.000000 0.9262 0.9261 0.9262 0.9262 0.9262
1945.000000 0.9262 0.9261 0.9260 0.9260 0.9259
1940.000000 0.9259 0.9258 0.9257 0.9258 0.9257
1935.000000 0.9256 0.9252 0.9251 0.9248 0.9246
1930.000000 0.9244 0.9240 0.9239 0.9235 0.9233
1925.000000 0.9227 0.9221 0.9216 0.9210 0.9204
1920.000000 0.9198 0.9189 0.9178 0.9163 0.9151
1915.000000 0.9146 0.9142 0.9136 0.9135 0.9134
1910.000000 0.9133 0.9132 0.9133 0.9140 0.9148
1905.000000 0.9155 0.9162 0.9170 0.9178 0.9185
1900.000000 0.9193 0.9201 0.9209 0.9218 0.9226
1895.000000 0.9234 0.9242 0.9249 0.9257 0.9265
1890.000000 0.9273 0.9281 0.9287 0.9288 0.9287
1885.000000 0.9288 0.9286 0.9286 0.9286 0.9286
1880.000000 0.9285 0.9284 0.9284 0.9283 0.9282
1875.000000 0.9281 0.9281 0.9280 0.9280 0.9280
1870.000000 0.9278 0.9278 0.9278 0.9278 0.9277
1865.000000 0.9276 0.9276 0.9275 0.9275 0.9274
1860.000000 0.9274 0.9273 0.9272 0.9272 0.9275
1855.000000 0.9278 0.9281 0.9283 0.9285 0.9288
1850.000000 0.9290 0.9293 0.9296 0.9299 0.9302
1845.000000 0.9305 0.9308 0.9311 0.9315 0.9318
1840.000000 0.9320 0.9324 0.9328 0.9331 0.9335
1835.000000 0.9340 0.9344 0.9348 0.9353 0.9357
1830.000000 0.9361 0.9364 0.9362 0.9359 0.9356
1825.000000 0.9354 0.9351 0.9348 0.9345 0.9342
1820.000000 0.9338 0.9334 0.9330 0.9326 0.9323
1815.000000 0.9319 0.9315 0.9311 0.9308 0.9305
1810.000000 0.9303 0.9302 0.9301 0.9300 0.9300
1805.000000 0.9299 0.9297 0.9296 0.9295 0.9294
1800.000000 0.9293 0.9293 0.9295 0.9296 0.9296
1795.000000 0.9299 0.9299 0.9300 0.9301 0.9302
1790.000000 0.9302 0.9304 0.9305 0.9305 0.9307
1785.000000 0.9307 0.9309 0.9310 0.9311 0.9312
1780.000000 0.9313 0.9314 0.9315 0.9316 0.9317
1775.000000 0.9319 0.9319 0.9321 0.9321 0.9322
1770.000000 0.9323 0.9323 0.9325 0.9327 0.9327
1765.000000 0.9329 0.9329 0.9331 0.9332 0.9332
1760.000000 0.9333 0.9333 0.9334 0.9334 0.9334
1755.000000 0.9335 0.9335 0.9335 0.9335 0.9335
1750.000000 0.9336 0.9336 0.9336 0.9336 0.9335
1745.000000 0.9336 0.9335 0.9334 0.9335 0.9334
1740.000000 0.9333 0.9335 0.9334 0.9333 0.9335
1735.000000 0.9334 0.9334 0.9334 0.9334 0.9332
1730.000000 0.9332 0.9333 0.9334 0.9335 0.9337
1725.000000 0.9338 0.9339 0.9340 0.9341 0.9343
1720.000000 0.9344 0.9347 0.9349 0.9351 0.9353
1715.000000 0.9354 0.9357 0.9359 0.9359 0.9358
1710.000000 0.9359 0.9358 0.9357 0.9348 0.9326
1705.000000 0.9301 0.9287 0.9288 0.9288 0.9288
1700.000000 0.9288 0.9288 0.9288 0.9289 0.9290
1695.000000 0.9291 0.9292 0.9293 0.9294 0.9295
1690.000000 0.9296 0.9296 0.9297 0.9298 0.9299
1685.000000 0.9299 0.9299 0.9299 0.9299 0.9298
1680.000000 0.9297 0.9298 0.9308 0.9296 0.9296
1675.000000 0.9295 0.9293 0.9292 0.9290 0.9289
1670.000000 0.9288 0.9286 0.9285 0.9283 0.9279
1665.000000 0.9274 0.9269 0.9263 0.9258 0.9251
1660.000000 0.9245 0.9234 0.9224 0.9212 0.9193
1655.000000 0.9172 0.9148 0.9119 0.9087 0.9051
1650.000000 0.9016 0.8986 0.8960 0.8933 0.8899
1645.000000 0.8861 0.8823 0.8785 0.8715 0.8622
1640.000000 0.8511 0.8375 0.8249 0.8109 0.7838
1635.000000 0.7629 0.7417 0.7204 0.6991 0.6778
1630.000000 0.6564 0.6349 0.6135 0.5920 0.5705
1625.000000 0.5489 0.5275 0.5072 0.4948 0.4947
1620.000000 0.4947 0.4958 0.4972 0.4985 0.4993
1615.000000 0.5001 0.5009 0.4927 0.4821 0.4713
1610.000000 0.4606 0.4497 0.4390 0.4282 0.4184
1605.000000 0.4142 0.4122 0.4131 0.4127 0.4144
1600.000000 0.4231 0.4370 0.4510 0.4649 0.4788
1595.000000 0.4929 0.5068 0.5206 0.5348 0.5489
1590.000000 0.5629 0.5781 0.5972 0.6186 0.6328
1585.000000 0.6387 0.6437 0.6481 0.6525 0.6567
1580.000000 0.6608 0.6655 0.6721 0.6801 0.6894
1575.000000 0.6999 0.7094 0.7169 0.7245 0.7321
1570.000000 0.7395 0.7468 0.7540 0.7614 0.7682
1565.000000 0.7743 0.7803 0.7861 0.7914 0.7961
1560.000000 0.8009 0.8052 0.8086 0.8119 0.8153
1555.000000 0.8186 0.8212 0.8235 0.8258 0.8280
1550.000000 0.8303 0.8322 0.8335 0.8349 0.8362
1545.000000 0.8375 0.8387 0.8397 0.8404 0.8411
1540.000000 0.8419 0.8427 0.8434 0.8441 0.8446
1535.000000 0.8447 0.8447 0.8447 0.8446 0.8440
1530.000000 0.8434 0.8415 0.8390 0.8340 0.8279
1525.000000 0.8208 0.8017 0.7625 0.7212 0.6797
1520.000000 0.6381 0.5966 0.5549 0.5266 0.5229
1515.000000 0.5232 0.5216 0.5216 0.5234 0.5273
1510.000000 0.5349 0.5466 0.5588 0.5711 0.5834
1505.000000 0.5957 0.6081 0.6203 0.6327 0.6451
1500.000000 0.6575 0.6699 0.6804 0.6841 0.6868
1495.000000 0.6886 0.6893 0.6911 0.6897 0.6887
1490.000000 0.6877 0.6867 0.6829 0.6755 0.6657
1485.000000 0.6548 0.6416 0.6262 0.6126 0.5991
1480.000000 0.5772 0.5553 0.5402 0.5112 0.4768
1475.000000 0.4423 0.4078 0.3731 0.3385 0.3039
1470.000000 0.2801 0.2692 0.2626 0.2595 0.2568
1465.000000 0.2555 0.2551 0.2564 0.2564 0.2563
1460.000000 0.2597 0.2645 0.2702 0.2766 0.2834
1455.000000 0.2917 0.3001 0.3092 0.3198 0.3308
1450.000000 0.3412 0.3504 0.3596 0.3705 0.3868
1445.000000 0.4046 0.4222 0.4400 0.4579 0.4757
1440.000000 0.4935 0.5114 0.5292 0.5472 0.5652
1435.000000 0.5832 0.6012 0.6193 0.6374 0.6554
1430.000000 0.7007 0.6911 0.6985 0.6988 0.6921
1425.000000 0.6811 0.6700 0.6589 0.6478 0.6380
1420.000000 0.6360 0.6342 0.6349 0.6449 0.6556
1415.000000 0.6665 0.6772 0.6880 0.6988 0.7097
1410.000000 0.7204 0.7273 0.7278 0.7287 0.7275
1405.000000 0.7252 0.7200 0.7137 0.7110 0.7084
1400.000000 0.7052 0.7020 0.6913 0.6780 0.6663
1395.000000 0.6519 0.6335 0.6136 0.6034 0.5918
1390.000000 0.5769 0.5569 0.5319 0.5069 0.4817
1385.000000 0.4566 0.4314 0.4061 0.3807 0.3580
1380.000000 0.3503 0.3537 0.3508 0.3541 0.3674
1375.000000 0.3913 0.4161 0.4407 0.4647 0.4787
1370.000000 0.4857 0.4931 0.5008 0.5112 0.5267
1365.000000 0.5426 0.5584 0.5744 0.5904 0.6063
1360.000000 0.6224 0.6362 0.6416 0.6431 0.6438
1355.000000 0.6444 0.6448 0.6453 0.6461 0.6471
1350.000000 0.6485 0.6500 0.6520 0.6542 0.6565
1345.000000 0.6590 0.6617 0.6647 0.6689 0.6737
1340.000000 0.6783 0.6829 0.6871 0.6902 0.6916
1335.000000 0.6935 0.6933 0.6927 0.6881 0.6734
1330.000000 0.6489 0.6375 0.6354 0.6335 0.6321
1325.000000 0.6308 0.6295 0.6286 0.6285 0.6271
1320.000000 0.6269 0.6275 0.6321 0.6430 0.6495
1315.000000 0.6565 0.6539 0.6541 0.6537 0.6521
1310.000000 0.6487 0.6473 0.6465 0.6385 0.6194
1305.000000 0.5995 0.5796 0.5647 0.5591 0.5571
1300.000000 0.5558 0.5671 0.5792 0.5851 0.5825
1295.000000 0.5808 0.5788 0.5770 0.5754 0.5735
1290.000000 0.5739 0.5901 0.6083 0.6266 0.6449
1285.000000 0.6572 0.6671 0.6797 0.6913 0.6991
1280.000000 0.7068 0.7141 0.7217 0.7287 0.7343
1275.000000 0.7400 0.7433 0.7454 0.7468 0.7485
1270.000000 0.7481 0.7477 0.7466 0.7447 0.7405
1265.000000 0.7323 0.7152 0.6977 0.6833 0.6712
1260.000000 0.6589 0.6458 0.6274 0.5873 0.5531
1255.000000 0.5414 0.5323 0.5247 0.5211 0.5198
1250.000000 0.5206 0.5229 0.5250 0.5251 0.5253
1245.000000 0.5218 0.5152 0.5050 0.4934 0.4847
1240.000000 0.4591 0.4614 0.4602 0.4606 0.4676
1235.000000 0.4825 0.4913 0.4966 0.4994 0.5027
1230.000000 0.5014 0.5013 0.5013 0.4966 0.4898
1225.000000 0.4823 0.4745 0.4671 0.4634 0.4609
1220.000000 0.4599 0.4586 0.4560 0.4491 0.4368
1215.000000 0.4271 0.4064 0.3979 0.3977 0.3976
1210.000000 0.3976 0.4077 0.4184 0.4284 0.4376
1205.000000 0.4455 0.4573 0.4708 0.4823 0.4935
1200.000000 0.5043 0.5146 0.5247 0.5351 0.5433
1195.000000 0.5493 0.5534 0.5572 0.5598 0.5624
1190.000000 0.5652 0.5683 0.5712 0.5737 0.5760
1185.000000 0.5785 0.5805 0.5840 0.5827 0.5828
1180.000000 0.5802 0.5744 0.5712 0.5713 0.5750
1175.000000 0.5805 0.5885 0.5867 0.5869 0.5850
1170.000000 0.5745 0.5559 0.5329 0.5102 0.4875
1165.000000 0.4648 0.4420 0.4226 0.4170 0.4135
1160.000000 0.4094 0.3985 0.3853 0.3733 0.3599
1155.000000 0.3453 0.3296 0.3243 0.3228 0.3214
1150.000000 0.3222 0.3241 0.3284 0.3368 0.3450
1145.000000 0.3530 0.3612 0.3720 0.3912 0.4150
1140.000000 0.4359 0.4519 0.4676 0.4823 0.4968
1135.000000 0.5125 0.5282 0.5432 0.5559 0.5641
1130.000000 0.5722 0.5867 0.6040 0.6161 0.6278
1125.000000 0.6382 0.6465 0.6540 0.6623 0.6711
1120.000000 0.6804 0.6890 0.6944 0.6990 0.7012
1115.000000 0.7021 0.7027 0.7017 0.6970 0.6921
1110.000000 0.6922 0.6923 0.6978 0.7089 0.7181
1105.000000 0.7229 0.7254 0.7260 0.7260 0.7263
1100.000000 0.7275 0.7290 0.7343 0.7425 0.7511
1095.000000 0.7572 0.7633 0.7694 0.7754 0.7798
1090.000000 0.7842 0.7887 0.7926 0.7962 0.7986
1085.000000 0.8010 0.8033 0.8045 0.8053 0.8051
1080.000000 0.8049 0.8048 0.8048 0.8053 0.8066
1075.000000 0.8091 0.8124 0.8161 0.8198 0.8233
1070.000000 0.8264 0.8287 0.8308 0.8327 0.8343
1065.000000 0.8357 0.8369 0.8379 0.8389 0.8392
1060.000000 0.8400 0.8398 0.8398 0.8385 0.8326
1055.000000 0.8230 0.8090 0.7890 0.7606 0.7270
1050.000000 0.7047 0.6808 0.6537 0.6036 0.5523
1045.000000 0.5091 0.4880 0.4544 0.4332 0.4194
1040.000000 0.4107 0.4116 0.4134 0.4218 0.4386
1035.000000 0.4805 0.5219 0.5498 0.5739 0.5978
1030.000000 0.6195 0.6485 0.6780 0.6927 0.7057
1025.000000 0.7171 0.7275 0.7328 0.7356 0.7384
1020.000000 0.7410 0.7435 0.7492 0.7662 0.7747
1015.000000 0.7783 0.7773 0.7803 0.7786 0.7762
1010.000000 0.7705 0.7598 0.7541 0.7490 0.7517
1005.000000 0.7527 0.7552 0.7596 0.7639 0.7684
1000.000000 0.7809 0.8073 0.8076 0.7843 0.7339
995.000000 0.7164 0.6971 0.6753 0.6787 0.6833
990.000000 0.7224 0.7419 0.7557 0.7649 0.7737
985.000000 0.7813 0.7882 0.7931 0.7983 0.8034
980.000000 0.8078 0.8111 0.8132 0.8133 0.8119
975.000000 0.8101 0.8101 0.8102 0.8133 0.8165
970.000000 0.8203 0.8242 0.8280 0.8316 0.8358
965.000000 0.8394 0.8415 0.8433 0.8430 0.8431
960.000000 0.8449 0.8469 0.8488 0.8510 0.8535
955.000000 0.8557 0.8571 0.8582 0.8582 0.8536
950.000000 0.8468 0.8350 0.8153 0.7894 0.7535
945.000000 0.7173 0.6809 0.6445 0.6182 0.6188
940.000000 0.6225 0.6401 0.6627 0.6880 0.7131
935.000000 0.7384 0.7637 0.7801 0.7893 0.7940
930.000000 0.7960 0.7970 0.7986 0.8041 0.8136
925.000000 0.8226 0.8305 0.8362 0.8423 0.8479
920.000000 0.8534 0.8589 0.8640 0.8683 0.8726
915.000000 0.8766 0.8796 0.8829 0.8860 0.8889
910.000000 0.8914 0.8939 0.8961 0.8983 0.9003
905.000000 0.9025 0.9044 0.9063 0.9080 0.9093
900.000000 0.9097 0.9104 0.9105 0.9100 0.9097
895.000000 0.9092 0.9089 0.9090 0.9093 0.9097
890.000000 0.9105 0.9112 0.9124 0.9137 0.9158
885.000000 0.9205 0.9232 0.9242 0.9254 0.9269
880.000000 0.9283 0.9292 0.9298 0.9306 0.9313
875.000000 0.9319 0.9323 0.9328 0.9332 0.9335
870.000000 0.9338 0.9340 0.9344 0.9348 0.9359
865.000000 0.9351 0.9346 0.9342 0.9292 0.9274
860.000000 0.9275 0.9276 0.9234 0.9130 0.9005
855.000000 0.8875 0.8779 0.8693 0.8652 0.8644
850.000000 0.8643 0.8635 0.8590 0.8493 0.8356
845.000000 0.8048 0.7972 0.7837 0.7668 0.7500
840.000000 0.7331 0.7163 0.7001 0.6856 0.6858
835.000000 0.6999 0.7315 0.7604 0.7893 0.8154
830.000000 0.8172 0.8121 0.7808 0.7564 0.7593
825.000000 0.7603 0.7619 0.7715 0.7959 0.8150
820.000000 0.8302 0.8427 0.8543 0.8651 0.8736
815.000000 0.8813 0.8879 0.8941 0.8982 0.9021
810.000000 0.9038 0.9046 0.9050 0.9052 0.9053
805.000000 0.9056 0.9056 0.9055 0.9051 0.9046
800.000000 0.9039 0.9028 0.9017 0.9003 0.8956
795.000000 0.8867 0.8854 0.8833 0.8813 0.8789
790.000000 0.8761 0.8727 0.8690 0.8642 0.8593
785.000000 0.8529 0.8464 0.8391 0.8316 0.8237
780.000000 0.8138 0.8026 0.7825 0.7516 0.7041
775.000000 0.6793 0.6707 0.6636 0.6453 0.6097
770.000000 0.5739 0.5393 0.5400 0.5426 0.5556
765.000000 0.5711 0.5837 0.5929 0.5966 0.5985
760.000000 0.6020 0.6079 0.6136 0.6192 0.6250
755.000000 0.6303 0.6354 0.6410 0.6457 0.6496
750.000000 0.6522 0.6545 0.6568 0.6589 0.6611
745.000000 0.6648 0.6643 0.6643 0.6611 0.6570
740.000000 0.6571 0.6572 0.6573 0.6568 0.6559
735.000000 0.6542 0.6512 0.6448 0.6366 0.6289
730.000000 0.6280 0.6259 0.6328 0.6443 0.6532
725.000000 0.6582 0.6627 0.6628 0.6629 0.6652
720.000000 0.6708 0.6851 0.6951 0.7061 0.7178
715.000000 0.7276 0.7385 0.7501 0.7539 0.7591
710.000000 0.7659 0.7725 0.7805 0.7887 0.7948
705.000000 0.8005 0.8053 0.8090 0.8120 0.8119
700.000000 0.8119 0.8062 0.7936 0.7590 0.7370
695.000000 0.7120 0.7156 0.7224 0.7373 0.7533
690.000000 0.7681 0.7786 0.7872 0.7856
##END=
