##TITLE=DIAZINE GREEN (CERT.)
$$ E.K. (W.L.)
##JCAMP-DX=4.24
##DATA TYPE=INFRARED SPECTRUM
##CLASS=COBLENTZ
##ORIGIN=WYANDOTTE CHEMICALS CORP., WYANDOTTE, MICHIGAN, USA
##OWNER=COBLENTZ SOCIETY
Collection (C) 2018 copyright by the U.S. Secretary of Commerce
on behalf of the United States of America. All rights reserved.
##DATE=Not specified, most likely prior to 1970
##MOLFORM=C28 H29 Cl N6
##SOURCE REFERENCE=COBLENTZ NO. 424
##$NIST ID=B6000424
##$NIST SOURCE=COBLENTZ
##$NIST IMAGE=cob424
##SPECTROMETER/DATA SYSTEM=Not specified, most likely a prism, grating, or hybrid spectrometer.
##STATE=SOLID (MINERAL OIL MULL, AFTER ETHANOL PPTN.)
##SAMPLING PROCEDURE=TRANSMISSION
##RESOLUTION=4
##DATA PROCESSING=DIGITIZED BY NIST FROM HARD COPY
##XUNITS=MICROMETERS
##YUNITS=TRANSMITTANCE
##XFACTOR=1.000000
##YFACTOR=1
##DELTAX=000.006667
##FIRSTX=2.033
##LASTX=15.987
##FIRSTY=0.205
##MAXX=15.987
##MINX=2.033
##MAXY=0.964
##MINY=0.02
##NPOINTS=2094
##XYDATA=(X++(Y..Y))
2.033000 0.2050 0.2070 0.2070 0.2080 0.2100
2.066349 0.2100 0.2120 0.2120 0.2120 0.2130
2.100000 0.2130 0.2130 0.2130 0.2130 0.2130
2.133349 0.2130 0.2150 0.2170 0.2180 0.2220
2.167000 0.2230 0.2270 0.2280 0.2320 0.2330
2.200349 0.2350 0.2350 0.2380 0.2380 0.2380
2.233000 0.2380 0.2370 0.2370 0.2370 0.2380
2.266349 0.2400 0.2420 0.2430 0.2430 0.2470
2.300000 0.2480 0.2480 0.2500 0.2500 0.2500
2.333349 0.2500 0.2520 0.2520 0.2520 0.2530
2.367000 0.2530 0.2550 0.2570 0.2600 0.2620
2.400349 0.2650 0.2680 0.2700 0.2720 0.2720
2.433000 0.2730 0.2770 0.2780 0.2820 0.2830
2.466349 0.2870 0.2880 0.2900 0.2920 0.2930
2.500000 0.2950 0.2970 0.2980 0.2980 0.3020
2.533349 0.3080 0.3100 0.3120 0.3170 0.3200
2.567000 0.3220 0.3250 0.3280 0.3320 0.3350
2.600349 0.3370 0.3380 0.3400 0.3400 0.3430
2.633000 0.3430 0.3480 0.3500 0.3520 0.3520
2.666349 0.3520 0.3500 0.3480 0.3430 0.3430
2.700000 0.3420 0.3420 0.3380 0.3350 0.3300
2.733349 0.3270 0.3200 0.3130 0.3080 0.3020
2.767000 0.3000 0.2980 0.2870 0.2730 0.2620
2.800349 0.2550 0.2470 0.2330 0.2270 0.2180
2.833000 0.2120 0.2070 0.1980 0.1860 0.1810
2.866349 0.1800 0.1760 0.1680 0.1630 0.1550
2.900000 0.1510 0.1480 0.1430 0.1410 0.1380
2.933349 0.1350 0.1330 0.1300 0.1280 0.1280
2.967000 0.1260 0.1260 0.1250 0.1210 0.1160
3.000349 0.1160 0.1150 0.1130 0.1100 0.1100
3.033000 0.1080 0.1050 0.1050 0.1030 0.1030
3.066349 0.1030 0.1030 0.1050 0.1060 0.1080
3.100000 0.1080 0.1080 0.1100 0.1110 0.1130
3.133349 0.1160 0.1210 0.1260 0.1310 0.1350
3.167000 0.1380 0.1380 0.1380 0.1400 0.1400
3.200349 0.1430 0.1460 0.1480 0.1500 0.1500
3.233000 0.1500 0.1480 0.1430 0.1410 0.1400
3.266349 0.1400 0.1380 0.1330 0.1260 0.1230
3.300000 0.1130 0.1000 0.0830 0.0750 0.0530
3.333349 0.0430 0.0330 0.0310 0.0310 0.0310
3.367000 0.0310 0.0310 0.0310 0.0310 0.0330
3.400349 0.0310 0.0310 0.0310 0.0300 0.0280
3.433000 0.0280 0.0280 0.0280 0.0260 0.0260
3.466349 0.0250 0.0250 0.0260 0.0260 0.0280
3.500000 0.0300 0.0330 0.0400 0.0530 0.0760
3.533349 0.1030 0.1330 0.1560 0.1810 0.2120
3.567000 0.2230 0.2480 0.2830 0.2930 0.3100
3.600349 0.3200 0.3320 0.3420 0.3470 0.3500
3.633000 0.3530 0.3530 0.3520 0.3500 0.3480
3.666349 0.3500 0.3500 0.3500 0.3500 0.3500
3.700000 0.3500 0.3520 0.3520 0.3530 0.3580
3.733349 0.3620 0.3680 0.3720 0.3780 0.3820
3.767000 0.3900 0.3970 0.3980 0.4000 0.4040
3.800349 0.4100 0.4140 0.4170 0.4190 0.4200
3.833000 0.4220 0.4270 0.4300 0.4320 0.4340
3.866349 0.4400 0.4420 0.4500 0.4540 0.4590
3.900000 0.4650 0.4690 0.4700 0.4720 0.4740
3.933349 0.4790 0.4800 0.4840 0.4870 0.4900
3.967000 0.4920 0.4920 0.4990 0.4990 0.5090
4.000349 0.5120 0.5140 0.5170 0.5190 0.5190
4.033000 0.5190 0.5200 0.5220 0.5220 0.5220
4.066349 0.5240 0.5270 0.5290 0.5300 0.5300
4.100000 0.5300 0.5300 0.5320 0.5320 0.5340
4.133349 0.5370 0.5400 0.5440 0.5450 0.5490
4.167000 0.5500 0.5520 0.5550 0.5600 0.5650
4.200349 0.5670 0.5690 0.5690 0.5690 0.5670
4.233000 0.5650 0.5640 0.5640 0.5650 0.5650
4.266349 0.5670 0.5700 0.5700 0.5740 0.5750
4.300000 0.5790 0.5820 0.5840 0.5850 0.5890
4.333349 0.5970 0.5990 0.6040 0.6110 0.6240
4.367000 0.6360 0.6420 0.6490 0.6540 0.6540
4.400349 0.6560 0.6570 0.6590 0.6590 0.6590
4.433000 0.6590 0.6590 0.6610 0.6610 0.6620
4.466349 0.6620 0.6620 0.6620 0.6620 0.6620
4.500000 0.6640 0.6640 0.6640 0.6660 0.6670
4.533349 0.6690 0.6720 0.6740 0.6790 0.6820
4.567000 0.6860 0.6870 0.6870 0.6890 0.6910
4.600349 0.6960 0.7010 0.7020 0.7040 0.7040
4.633000 0.7040 0.7040 0.7040 0.7060 0.7060
4.666349 0.7070 0.7070 0.7070 0.7070 0.7090
4.700000 0.7140 0.7190 0.7220 0.7240 0.7290
4.733349 0.7340 0.7390 0.7410 0.7420 0.7440
4.767000 0.7440 0.7440 0.7440 0.7460 0.7490
4.800349 0.7490 0.7570 0.7610 0.7640 0.7660
4.833000 0.7670 0.7690 0.7710 0.7740 0.7770
4.866349 0.7790 0.7820 0.7840 0.7860 0.7870
4.900000 0.7870 0.7890 0.7890 0.7910 0.7920
4.933349 0.7920 0.7920 0.7940 0.7960 0.7970
4.967000 0.7990 0.8010 0.8010 0.8010 0.8030
5.000349 0.8040 0.8090 0.8110 0.8130 0.8160
5.033000 0.8180 0.8190 0.8190 0.8190 0.8190
5.066349 0.8210 0.8210 0.8210 0.8210 0.8210
5.100000 0.8230 0.8240 0.8280 0.8290 0.8290
5.133349 0.8290 0.8310 0.8330 0.8340 0.8340
5.167000 0.8380 0.8380 0.8440 0.8480 0.8480
5.200349 0.8490 0.8490 0.8510 0.8510 0.8490
5.233000 0.8490 0.8490 0.8480 0.8490 0.8510
5.266349 0.8510 0.8530 0.8540 0.8590 0.8640
5.300000 0.8710 0.8780 0.8830 0.8880 0.8890
5.333349 0.8960 0.8980 0.8990 0.9010 0.9040
5.367000 0.9040 0.9080 0.9130 0.9180 0.9210
5.400349 0.9230 0.9260 0.9290 0.9310 0.9310
5.433000 0.9290 0.9290 0.9290 0.9330 0.9380
5.466349 0.9390 0.9410 0.9430 0.9460 0.9460
5.500000 0.9460 0.9440 0.9440 0.9430 0.9440
5.533349 0.9460 0.9480 0.9480 0.9490 0.9510
5.567000 0.9510 0.9530 0.9540 0.9560 0.9580
5.600349 0.9590 0.9640 0.9640 0.9630 0.9610
5.633000 0.9580 0.9560 0.9490 0.9490 0.9530
5.666349 0.9530 0.9560 0.9580 0.9580 0.9580
5.700000 0.9590 0.9580 0.9580 0.9580 0.9540
5.733349 0.9510 0.9480 0.9480 0.9460 0.9440
5.767000 0.9430 0.9390 0.9380 0.9360 0.9280
5.800349 0.9140 0.9110 0.9030 0.8940 0.8760
5.833000 0.8690 0.8490 0.8440 0.8430 0.8410
5.866349 0.8490 0.8490 0.8380 0.8210 0.7990
5.900000 0.7870 0.7790 0.7760 0.7690 0.7540
5.933349 0.7390 0.7310 0.7170 0.7010 0.6960
5.967000 0.6640 0.6440 0.6260 0.6070 0.5890
6.000349 0.5690 0.5500 0.5370 0.5200 0.5020
6.033000 0.4900 0.4790 0.4100 0.3650 0.3130
6.066349 0.2680 0.2480 0.2270 0.2050 0.1680
6.100000 0.1680 0.1880 0.2050 0.2250 0.2580
6.133349 0.2530 0.2500 0.2470 0.1860 0.1250
6.167000 0.1000 0.0760 0.0550 0.0360 0.0310
6.200349 0.0310 0.0330 0.0350 0.0360 0.0400
6.233000 0.0450 0.0480 0.0650 0.0810 0.0980
6.266349 0.1180 0.1410 0.1560 0.1950 0.2050
6.300000 0.2150 0.2320 0.2470 0.2580 0.2650
6.333349 0.2680 0.2680 0.2680 0.2680 0.2650
6.367000 0.2620 0.2520 0.2420 0.2220 0.2000
6.400349 0.1880 0.1800 0.1710 0.1610 0.1600
6.433000 0.1560 0.1510 0.1480 0.1430 0.1350
6.466349 0.1230 0.1110 0.0980 0.0810 0.0580
6.500000 0.0530 0.0480 0.0460 0.0450 0.0410
6.533349 0.0380 0.0350 0.0330 0.0300 0.0300
6.567000 0.0310 0.0350 0.0360 0.0410 0.0480
6.600349 0.0530 0.0600 0.0630 0.0700 0.0700
6.633000 0.0710 0.0730 0.0750 0.0780 0.0780
6.666349 0.0780 0.0780 0.0780 0.0760 0.0730
6.700000 0.0700 0.0630 0.0560 0.0480 0.0450
6.733349 0.0400 0.0330 0.0310 0.0280 0.0230
6.767000 0.0230 0.0210 0.0200 0.0200 0.0200
6.800349 0.0210 0.0230 0.0250 0.0260 0.0260
6.833000 0.0250 0.0250 0.0250 0.0260 0.0280
6.866349 0.0310 0.0350 0.0410 0.0460 0.0550
6.900000 0.0600 0.0700 0.0780 0.0900 0.1030
6.933349 0.1230 0.1380 0.1580 0.1700 0.1780
6.967000 0.1980 0.2080 0.2170 0.2250 0.2270
7.000349 0.2270 0.2230 0.2120 0.2120 0.2050
7.033000 0.2000 0.1930 0.1880 0.1860 0.1830
7.066349 0.1830 0.1850 0.1880 0.1900 0.1910
7.100000 0.1910 0.1930 0.1930 0.1930 0.1930
7.133349 0.1930 0.1910 0.1900 0.1810 0.1650
7.167000 0.1530 0.1360 0.1280 0.1050 0.0860
7.200349 0.0610 0.0480 0.0410 0.0380 0.0380
7.233000 0.0380 0.0400 0.0430 0.0480 0.0580
7.266349 0.0680 0.0730 0.0750 0.0780 0.0780
7.300000 0.0780 0.0760 0.0750 0.0750 0.0710
7.333349 0.0680 0.0630 0.0600 0.0550 0.0510
7.367000 0.0510 0.0460 0.0460 0.0510 0.0510
7.400349 0.0550 0.0580 0.0600 0.0660 0.0710
7.433000 0.0800 0.0830 0.0850 0.0860 0.0850
7.466349 0.0850 0.0830 0.0830 0.0810 0.0850
7.500000 0.0880 0.0910 0.1000 0.1010 0.1050
7.533349 0.1100 0.1180 0.1260 0.1350 0.1410
7.567000 0.1450 0.1480 0.1480 0.1410 0.1410
7.600349 0.1380 0.1350 0.1280 0.1260 0.1210
7.633000 0.1210 0.1160 0.1200 0.1210 0.1210
7.666349 0.1280 0.1360 0.1410 0.1480 0.1560
7.700000 0.1600 0.1650 0.1680 0.1710 0.1750
7.733349 0.1800 0.1850 0.1880 0.1910 0.1930
7.767000 0.1930 0.1930 0.1930 0.1910 0.1910
7.800349 0.1860 0.1810 0.1760 0.1730 0.1660
7.833000 0.1600 0.1530 0.1480 0.1400 0.1350
7.866349 0.1300 0.1260 0.1230 0.1230 0.1210
7.900000 0.1230 0.1230 0.1250 0.1260 0.1260
7.933349 0.1260 0.1280 0.1300 0.1300 0.1260
7.967000 0.1230 0.1200 0.1130 0.1100 0.0980
8.000349 0.0950 0.0950 0.0960 0.0980 0.0980
8.033000 0.1000 0.1000 0.1010 0.1060 0.1100
8.066349 0.1200 0.1280 0.1360 0.1430 0.1480
8.100000 0.1550 0.1610 0.1700 0.1760 0.1950
8.133349 0.2020 0.2080 0.2180 0.2270 0.2380
8.167000 0.2580 0.2650 0.2670 0.2720 0.2800
8.200349 0.2800 0.2750 0.2680 0.2630 0.2570
8.233000 0.2530 0.2480 0.2380 0.2150 0.1980
8.266349 0.1810 0.1710 0.1580 0.1480 0.1330
8.300000 0.1180 0.1130 0.1080 0.1010 0.1000
8.333349 0.1000 0.1010 0.1010 0.1050 0.1080
8.367000 0.1160 0.1210 0.1250 0.1300 0.1300
8.400349 0.1200 0.1100 0.1010 0.0980 0.0900
8.433000 0.0860 0.0830 0.0800 0.0800 0.0800
8.466349 0.0800 0.0800 0.0830 0.0950 0.0980
8.500000 0.1060 0.1180 0.1260 0.1310 0.1400
8.533349 0.1460 0.1560 0.1600 0.1660 0.1730
8.567000 0.1810 0.1950 0.1980 0.2000 0.2020
8.600349 0.2020 0.2030 0.2030 0.2020 0.2020
8.633000 0.2020 0.2000 0.1980 0.1980 0.1960
8.666349 0.1850 0.1760 0.1710 0.1630 0.1530
8.700000 0.1380 0.1280 0.1180 0.1160 0.1150
8.733349 0.1130 0.1110 0.1100 0.1100 0.1110
8.767000 0.1110 0.1110 0.1130 0.1130 0.1150
8.800349 0.1200 0.1230 0.1260 0.1280 0.1310
8.833000 0.1330 0.1400 0.1480 0.1550 0.1610
8.866349 0.1750 0.1830 0.1980 0.2120 0.2220
8.900000 0.2370 0.2680 0.2850 0.3000 0.3170
8.933349 0.3270 0.3370 0.3470 0.3530 0.3570
8.967000 0.3570 0.3420 0.3350 0.3230 0.3030
9.000349 0.2780 0.2570 0.2430 0.2280 0.2100
9.033000 0.1950 0.1680 0.1500 0.1400 0.1330
9.066349 0.1260 0.1210 0.1160 0.1130 0.1110
9.100000 0.1110 0.1100 0.1100 0.1100 0.1110
9.133349 0.1110 0.1150 0.1180 0.1200 0.1210
9.167000 0.1250 0.1280 0.1310 0.1350 0.1360
9.200349 0.1360 0.1380 0.1380 0.1380 0.1380
9.233000 0.1360 0.1330 0.1300 0.1230 0.1210
9.266349 0.1180 0.1180 0.1210 0.1210 0.1230
9.300000 0.1280 0.1350 0.1410 0.1500 0.1650
9.333349 0.1780 0.2000 0.2080 0.2200 0.2280
9.367000 0.2380 0.2480 0.2600 0.2700 0.2750
9.400349 0.2750 0.2670 0.2650 0.2630 0.2600
9.433000 0.2530 0.2500 0.2450 0.2380 0.2230
9.466349 0.2020 0.1930 0.1800 0.1760 0.1680
9.500000 0.1630 0.1600 0.1580 0.1530 0.1530
9.533349 0.1580 0.1580 0.1650 0.1710 0.1780
9.567000 0.1960 0.1980 0.2070 0.2220 0.2380
9.600349 0.2480 0.2800 0.2950 0.3070 0.3280
9.633000 0.3470 0.3550 0.3670 0.3750 0.3830
9.666349 0.4020 0.4090 0.4190 0.4270 0.4320
9.700000 0.4400 0.4440 0.4500 0.4540 0.4550
9.733349 0.4600 0.4620 0.4670 0.4720 0.4790
9.767000 0.4850 0.4900 0.4990 0.5050 0.5070
9.800349 0.5090 0.5050 0.5020 0.5000 0.4990
9.833000 0.4920 0.4850 0.4800 0.4790 0.4750
9.866349 0.4670 0.4600 0.4540 0.4520 0.4500
9.900000 0.4490 0.4490 0.4450 0.4440 0.4420
9.933349 0.4400 0.4400 0.4420 0.4450 0.4470
9.967000 0.4540 0.4600 0.4650 0.4690 0.4770
10.000349 0.4850 0.4970 0.5090 0.5120 0.5220
10.033000 0.5300 0.5390 0.5490 0.5540 0.5590
10.066349 0.5690 0.5790 0.5850 0.5890 0.5920
10.100000 0.6010 0.6010 0.6040 0.6040 0.6090
10.133349 0.6120 0.6140 0.6190 0.6260 0.6290
10.167000 0.6310 0.6310 0.6270 0.6260 0.6240
10.200349 0.6220 0.6220 0.6220 0.6220 0.6220
10.233000 0.6240 0.6260 0.6270 0.6290 0.6290
10.266349 0.6290 0.6270 0.6270 0.6290 0.6310
10.300000 0.6360 0.6390 0.6440 0.6490 0.6520
10.333349 0.6520 0.6470 0.6440 0.6440 0.6440
10.367000 0.6460 0.6510 0.6540 0.6570 0.6590
10.400349 0.6590 0.6610 0.6620 0.6620 0.6620
10.433000 0.6620 0.6610 0.6590 0.6590 0.6570
10.466349 0.6560 0.6540 0.6520 0.6520 0.6520
10.500000 0.6540 0.6560 0.6560 0.6590 0.6590
10.533349 0.6610 0.6640 0.6670 0.6670 0.6640
10.567000 0.6640 0.6610 0.6560 0.6510 0.6420
10.600349 0.6340 0.6320 0.6270 0.6190 0.6090
10.633000 0.6020 0.5950 0.5890 0.5840 0.5820
10.666349 0.5850 0.5900 0.5940 0.6010 0.6040
10.700000 0.6060 0.6120 0.6170 0.6210 0.6270
10.733349 0.6320 0.6360 0.6410 0.6460 0.6510
10.767000 0.6510 0.6520 0.6520 0.6540 0.6540
10.800349 0.6570 0.6590 0.6620 0.6640 0.6640
10.833000 0.6660 0.6660 0.6690 0.6740 0.6790
10.866349 0.6810 0.6820 0.6840 0.6860 0.6890
10.900000 0.6860 0.6840 0.6820 0.6820 0.6840
10.933349 0.6840 0.6870 0.6890 0.6890 0.6890
10.967000 0.6890 0.6890 0.6910 0.6970 0.6990
11.000349 0.7040 0.7090 0.7110 0.7120 0.7140
11.033000 0.7190 0.7220 0.7260 0.7290 0.7290
11.066349 0.7310 0.7310 0.7310 0.7320 0.7320
11.100000 0.7320 0.7320 0.7310 0.7310 0.7290
11.133349 0.7270 0.7220 0.7210 0.7210 0.7190
11.167000 0.7140 0.7110 0.7060 0.7040 0.6970
11.200349 0.6890 0.6820 0.6770 0.6690 0.6570
11.233000 0.6520 0.6410 0.6260 0.6120 0.6020
11.266349 0.5970 0.5790 0.5700 0.5590 0.5500
11.300000 0.5350 0.5200 0.5000 0.4940 0.4850
11.333349 0.4740 0.4700 0.4600 0.4540 0.4490
11.367000 0.4420 0.4400 0.4370 0.4350 0.4350
11.400349 0.4370 0.4390 0.4450 0.4500 0.4520
11.433000 0.4540 0.4550 0.4550 0.4540 0.4540
11.466349 0.4540 0.4520 0.4520 0.4540 0.4550
11.500000 0.4600 0.4620 0.4650 0.4700 0.4740
11.533349 0.4790 0.4890 0.4970 0.5090 0.5140
11.567000 0.5190 0.5300 0.5390 0.5520 0.5600
11.600349 0.5700 0.5800 0.5940 0.5990 0.6010
11.633000 0.6060 0.6110 0.6140 0.6240 0.6290
11.666349 0.6290 0.6320 0.6360 0.6370 0.6370
11.700000 0.6410 0.6410 0.6410 0.6360 0.6340
11.733349 0.6310 0.6240 0.6190 0.6110 0.6040
11.767000 0.6010 0.5840 0.5650 0.5500 0.5370
11.800349 0.5220 0.5070 0.5000 0.4920 0.4770
11.833000 0.4690 0.4650 0.4590 0.4520 0.4490
11.866349 0.4400 0.4370 0.4340 0.4320 0.4300
11.900000 0.4300 0.4290 0.4270 0.4240 0.4190
11.933349 0.4140 0.4100 0.4040 0.4000 0.3980
11.967000 0.3970 0.3900 0.3830 0.3770 0.3680
12.000349 0.3600 0.3530 0.3480 0.3430 0.3400
12.033000 0.3380 0.3330 0.3320 0.3280 0.3250
12.066349 0.3200 0.3130 0.3100 0.3070 0.3020
12.100000 0.3020 0.3020 0.3070 0.3100 0.3120
12.133349 0.3130 0.3170 0.3200 0.3230 0.3270
12.167000 0.3320 0.3350 0.3380 0.3470 0.3520
12.200349 0.3580 0.3650 0.3720 0.3780 0.3830
12.233000 0.3870 0.3980 0.4000 0.4040 0.4120
12.266349 0.4140 0.4190 0.4220 0.4270 0.4300
12.300000 0.4320 0.4320 0.4340 0.4370 0.4420
12.333349 0.4500 0.4550 0.4650 0.4700 0.4770
12.367000 0.4840 0.4900 0.5050 0.5100 0.5170
12.400349 0.5220 0.5300 0.5320 0.5340 0.5390
12.433000 0.5420 0.5490 0.5500 0.5520 0.5520
12.466349 0.5540 0.5550 0.5570 0.5590 0.5600
12.500000 0.5640 0.5640 0.5650 0.5690 0.5720
12.533349 0.5740 0.5750 0.5800 0.5820 0.5840
12.567000 0.5850 0.5890 0.5970 0.6010 0.6040
12.600349 0.6110 0.6160 0.6220 0.6270 0.6270
12.633000 0.6310 0.6370 0.6420 0.6490 0.6510
12.666349 0.6540 0.6590 0.6620 0.6670 0.6690
12.700000 0.6720 0.6740 0.6760 0.6760 0.6770
12.733349 0.6770 0.6770 0.6770 0.6760 0.6760
12.767000 0.6760 0.6740 0.6710 0.6670 0.6660
12.800349 0.6620 0.6610 0.6570 0.6540 0.6490
12.833000 0.6370 0.6310 0.6290 0.6190 0.6140
12.866349 0.6020 0.5970 0.5850 0.5750 0.5690
12.900000 0.5650 0.5600 0.5550 0.5500 0.5420
12.933349 0.5300 0.5190 0.5140 0.5120 0.5120
12.967000 0.5140 0.5140 0.5170 0.5170 0.5190
13.000349 0.5200 0.5240 0.5250 0.5270 0.5290
13.033000 0.5340 0.5390 0.5420 0.5500 0.5540
13.066349 0.5600 0.5690 0.5740 0.5790 0.5850
13.100000 0.5970 0.5990 0.6010 0.6040 0.6060
13.133349 0.6090 0.6120 0.6170 0.6210 0.6240
13.167000 0.6290 0.6310 0.6360 0.6390 0.6420
13.200349 0.6440 0.6460 0.6490 0.6510 0.6520
13.233000 0.6540 0.6560 0.6570 0.6570 0.6590
13.266349 0.6590 0.6610 0.6610 0.6610 0.6620
13.300000 0.6610 0.6610 0.6590 0.6590 0.6570
13.333349 0.6570 0.6560 0.6560 0.6560 0.6560
13.367000 0.6540 0.6540 0.6520 0.6520 0.6490
13.400349 0.6470 0.6470 0.6440 0.6440 0.6420
13.433000 0.6410 0.6410 0.6390 0.6370 0.6370
13.466349 0.6370 0.6360 0.6360 0.6340 0.6340
13.500000 0.6320 0.6310 0.6290 0.6270 0.6240
13.533349 0.6220 0.6220 0.6210 0.6210 0.6190
13.567000 0.6170 0.6140 0.6120 0.6120 0.6110
13.600349 0.6070 0.6060 0.6040 0.6040 0.6020
13.633000 0.6040 0.6040 0.6040 0.6040 0.6040
13.666349 0.6020 0.6040 0.6040 0.6040 0.6040
13.700000 0.6040 0.6020 0.6010 0.6020 0.6010
13.733349 0.6010 0.6010 0.6010 0.5990 0.5970
13.767000 0.5950 0.5970 0.5970 0.5950 0.5950
13.800349 0.5940 0.5920 0.5900 0.5900 0.5900
13.833000 0.5900 0.5890 0.5890 0.5870 0.5870
13.866349 0.5850 0.5870 0.5870 0.5870 0.5850
13.900000 0.5850 0.5870 0.5870 0.5890 0.5900
13.933349 0.5920 0.5920 0.6010 0.6010 0.6010
13.967000 0.5970 0.5940 0.5900 0.5890 0.5890
14.000349 0.5870 0.5850 0.5850 0.5870 0.5890
14.033000 0.5900 0.5900 0.5920 0.5940 0.5950
14.066349 0.5970 0.5990 0.6010 0.6010 0.6010
14.100000 0.6010 0.6010 0.5990 0.5920 0.5900
14.133349 0.5890 0.5840 0.5770 0.5690 0.5650
14.167000 0.5640 0.5620 0.5570 0.5520 0.5350
14.200349 0.5250 0.5120 0.5020 0.5000 0.4970
14.233000 0.4900 0.4820 0.4740 0.4690 0.4590
14.266349 0.4490 0.4400 0.4390 0.4340 0.4250
14.300000 0.4240 0.4220 0.4200 0.4190 0.4190
14.333349 0.4200 0.4220 0.4240 0.4300 0.4320
14.367000 0.4340 0.4390 0.4420 0.4490 0.4550
14.400349 0.4670 0.4750 0.4840 0.4890 0.4990
14.433000 0.5070 0.5100 0.5190 0.5250 0.5290
14.466349 0.5350 0.5470 0.5500 0.5540 0.5640
14.500000 0.5740 0.5800 0.5840 0.5870 0.5900
14.533349 0.5950 0.5970 0.5970 0.5990 0.6020
14.567000 0.6060 0.6110 0.6120 0.6120 0.6140
14.600349 0.6160 0.6160 0.6160 0.6160 0.6140
14.633000 0.6120 0.6120 0.6110 0.6070 0.6040
14.666349 0.6010 0.6010 0.5990 0.5920 0.5890
14.700000 0.5840 0.5750 0.5720 0.5700 0.5670
14.733349 0.5640 0.5620 0.5600 0.5590 0.5550
14.767000 0.5550 0.5520 0.5520 0.5520 0.5520
14.800349 0.5570 0.5620 0.5650 0.5670 0.5700
14.833000 0.5740 0.5770 0.5770 0.5790 0.5790
14.866349 0.5800 0.5820 0.5820 0.5820 0.5840
14.900000 0.5820 0.5820 0.5820 0.5820 0.5800
14.933349 0.5800 0.5790 0.5750 0.5740 0.5720
14.967000 0.5700 0.5650 0.5620 0.5570 0.5540
15.000349 0.5490 0.5450 0.5350 0.5300 0.5240
15.033000 0.5140 0.5090 0.5050 0.5020 0.5000
15.066349 0.4990 0.4900 0.4850 0.4840 0.4840
15.100000 0.4840 0.4840 0.4840 0.4800 0.4790
15.133349 0.4770 0.4790 0.4840 0.4870 0.4900
15.167000 0.4970 0.4990 0.5000 0.5040 0.5050
15.200349 0.5120 0.5140 0.5150 0.5150 0.5170
15.233000 0.5190 0.5190 0.5190 0.5200 0.5200
15.266349 0.5200 0.5200 0.5190 0.5150 0.5140
15.300000 0.5140 0.5120 0.5100 0.5120 0.5140
15.333349 0.5150 0.5150 0.5150 0.5140 0.5120
15.367000 0.5120 0.5120 0.5100 0.5100 0.5090
15.400349 0.5090 0.5050 0.5050 0.5040 0.5050
15.433000 0.5050 0.5090 0.5090 0.5090 0.5100
15.466349 0.5100 0.5100 0.5100 0.5100 0.5100
15.500000 0.5120 0.5100 0.5100 0.5100 0.5100
15.533349 0.5090 0.5090 0.5070 0.5050 0.5040
15.567000 0.5020 0.5020 0.5000 0.5000 0.5000
15.600349 0.4990 0.4990 0.4970 0.4940 0.4900
15.633000 0.4900 0.4870 0.4850 0.4840 0.4840
15.666349 0.4820 0.4820 0.4800 0.4800 0.4790
15.700000 0.4790 0.4770 0.4750 0.4740 0.4720
15.733349 0.4720 0.4700 0.4670 0.4640 0.4600
15.767000 0.4570 0.4550 0.4540 0.4520 0.4500
15.800349 0.4490 0.4470 0.4440 0.4400 0.4370
15.833000 0.4340 0.4320 0.4320 0.4320 0.4320
15.866349 0.4300 0.4300 0.4290 0.4290 0.4290
15.900000 0.4270 0.4240 0.4240 0.4240 0.4220
15.933349 0.4220 0.4200 0.4190 0.4170 0.4150
15.967000 0.4120 0.4100 0.4090 0.4100
##END=
