##TITLE=1,3-Octadiene (E & Z)
##JCAMP-DX=4.24
##DATA TYPE=INFRARED SPECTRUM
##CLASS=COBLENTZ III
##ORIGIN=COLGATE-PALMOLIVE COMPANY (KELLENBACH)
##OWNER=Copyright (C) 1987 by the Coblentz Society
Collection (C) 2018 copyright by the U.S. Secretary of Commerce
on behalf of the United States of America. All rights reserved.
##DATE=1967/03/28
##MOLFORM=C8 H14
##SOURCE REFERENCE=COBLENTZ NO. 9789
##$NIST ID=B6009789
##$NIST SOURCE=COBLENTZ
##$NIST IMAGE=cob9789
##SPECTROMETER/DATA SYSTEM=BECKMAN IR-12 (GRATING)
##INSTRUMENT PARAMETERS=GRATING
##STATE=LIQUID (NEAT)
$$ SOURCE - CHEMICAL SAMPLES CO.
##PATH LENGTH=0.0104 CM
##SAMPLING PROCEDURE=TRANSMISSION
##RESOLUTION=2
##DATA PROCESSING=DIGITIZED BY COBLENTZ SOCIETY (BATCH II) FROM HARD COPY
##XUNITS=1/CM
##YUNITS=TRANSMITTANCE
##XFACTOR=1.0
##YFACTOR=1
##FIRSTX=401
##LASTX=4000
##FIRSTY=0.6963
##MAXX=4000
##MINX=401
##MAXY=0.984
##MINY=0.0001
##NPOINTS=3600
##XYDATA=(X++(Y..Y))
401.000000 0.6963 0.6964 0.6964 0.6964 0.6975
406.000000 0.6989 0.7003 0.7028 0.7058 0.7095
411.000000 0.7132 0.7169 0.7206 0.7243 0.7280
416.000000 0.7314 0.7347 0.7381 0.7414 0.7448
421.000000 0.7496 0.7552 0.7608 0.7664 0.7724
426.000000 0.7787 0.7851 0.7915 0.7978 0.8020
431.000000 0.8053 0.8086 0.8120 0.8153 0.8186
436.000000 0.8219 0.8253 0.8286 0.8319 0.8353
441.000000 0.8386 0.8419 0.8452 0.8486 0.8519
446.000000 0.8552 0.8586 0.8619 0.8669 0.8720
451.000000 0.8769 0.8808 0.8847 0.8885 0.8924
456.000000 0.8953 0.8979 0.9004 0.9030 0.9041
461.000000 0.9052 0.9048 0.9043 0.9038 0.9032
466.000000 0.9027 0.9022 0.9017 0.9012 0.9007
471.000000 0.9007 0.9008 0.9009 0.9010 0.9011
476.000000 0.9015 0.9021 0.9026 0.9046 0.9066
481.000000 0.9094 0.9129 0.9164 0.9199 0.9235
486.000000 0.9270 0.9306 0.9341 0.9376 0.9407
491.000000 0.9437 0.9467 0.9497 0.9527 0.9555
496.000000 0.9583 0.9611 0.9623 0.9633 0.9633
501.000000 0.9632 0.9631 0.9626 0.9629 0.9628
506.000000 0.9617 0.9604 0.9576 0.9547 0.9518
511.000000 0.9486 0.9453 0.9419 0.9386 0.9357
516.000000 0.9331 0.9305 0.9280 0.9257 0.9235
521.000000 0.9213 0.9192 0.9185 0.9184 0.9184
526.000000 0.9184 0.9190 0.9202 0.9214 0.9239
531.000000 0.9270 0.9304 0.9338 0.9368 0.9394
536.000000 0.9418 0.9416 0.9402 0.9396 0.9390
541.000000 0.9388 0.9394 0.9412 0.9435 0.9467
546.000000 0.9508 0.9546 0.9583 0.9634 0.9685
551.000000 0.9719 0.9748 0.9777 0.9799 0.9816
556.000000 0.9832 0.9836 0.9836 0.9836 0.9835
561.000000 0.9835 0.9834 0.9831 0.9829 0.9827
566.000000 0.9840 0.9823 0.9821 0.9816 0.9811
571.000000 0.9806 0.9800 0.9792 0.9782 0.9772
576.000000 0.9754 0.9733 0.9713 0.9689 0.9664
581.000000 0.9639 0.9613 0.9588 0.9563 0.9540
586.000000 0.9517 0.9493 0.9470 0.9447 0.9421
591.000000 0.9389 0.9357 0.9325 0.9293 0.9257
596.000000 0.9220 0.9183 0.9147 0.9110 0.9070
601.000000 0.9006 0.8941 0.8877 0.8812 0.8748
606.000000 0.8683 0.8619 0.8554 0.8490 0.8418
611.000000 0.8370 0.8323 0.8275 0.8239 0.8205
616.000000 0.8171 0.8137 0.8098 0.8059 0.7980
621.000000 0.7901 0.7824 0.7747 0.7669 0.7589
626.000000 0.7510 0.7396 0.7265 0.7133 0.7001
631.000000 0.6905 0.6810 0.6701 0.6583 0.6400
636.000000 0.5987 0.5547 0.5107 0.4667 0.4227
641.000000 0.3950 0.3834 0.3723 0.3635 0.3556
646.000000 0.3508 0.3499 0.3627 0.3879 0.4130
651.000000 0.4382 0.4633 0.4885 0.5136 0.5387
656.000000 0.5639 0.5890 0.6142 0.6393 0.6645
661.000000 0.6853 0.6959 0.7084 0.7221 0.7346
666.000000 0.7443 0.7541 0.7638 0.7763 0.7892
671.000000 0.8021 0.8125 0.8226 0.8327 0.8386
676.000000 0.8442 0.8497 0.8547 0.8581 0.8615
681.000000 0.8639 0.8648 0.8657 0.8671 0.8707
686.000000 0.8760 0.8777 0.8783 0.8788 0.8793
691.000000 0.8793 0.8794 0.8791 0.8791 0.8788
696.000000 0.8785 0.8778 0.8770 0.8750 0.8718
701.000000 0.8686 0.8654 0.8621 0.8586 0.8551
706.000000 0.8507 0.8459 0.8405 0.8345 0.8284
711.000000 0.8224 0.8165 0.8106 0.8047 0.7966
716.000000 0.7862 0.7649 0.7319 0.6990 0.6661
721.000000 0.6332 0.6003 0.5673 0.5415 0.5323
726.000000 0.5020 0.4438 0.3855 0.3273 0.2696
731.000000 0.2717 0.2717 0.2781 0.2844 0.2907
736.000000 0.2942 0.2961 0.2809 0.2668 0.2528
741.000000 0.2388 0.2396 0.2499 0.2896 0.3293
746.000000 0.3690 0.4086 0.4483 0.4880 0.5277
751.000000 0.5687 0.5878 0.6068 0.6258 0.6448
756.000000 0.6638 0.6829 0.7019 0.7202 0.7285
761.000000 0.7303 0.7320 0.7321 0.7337 0.7310
766.000000 0.7299 0.7257 0.7165 0.7074 0.6982
771.000000 0.6890 0.6798 0.6706 0.6614 0.6523
776.000000 0.6431 0.6339 0.6247 0.6155 0.6064
781.000000 0.5967 0.5951 0.5938 0.5944 0.5953
786.000000 0.5972 0.5998 0.6031 0.6064 0.6096
791.000000 0.6126 0.6144 0.6151 0.6147 0.6139
796.000000 0.6125 0.6136 0.6166 0.6215 0.6287
801.000000 0.6357 0.6427 0.6506 0.6597 0.6704
806.000000 0.6809 0.6906 0.6938 0.6968 0.6992
811.000000 0.7005 0.7010 0.7008 0.7000 0.6991
816.000000 0.6977 0.6956 0.6933 0.6833 0.6638
821.000000 0.6443 0.6247 0.6052 0.5857 0.5661
826.000000 0.5466 0.5173 0.4851 0.4529 0.4208
831.000000 0.3886 0.3564 0.3243 0.2921 0.2599
836.000000 0.2278 0.2086 0.2100 0.2512 0.2677
841.000000 0.2719 0.2773 0.2837 0.2912 0.2987
846.000000 0.3093 0.3528 0.3964 0.4399 0.4693
851.000000 0.4797 0.4871 0.4907 0.4942 0.4960
856.000000 0.4985 0.4946 0.4904 0.4819 0.4724
861.000000 0.4614 0.4592 0.4575 0.4562 0.4551
866.000000 0.4540 0.4492 0.4280 0.4069 0.3857
871.000000 0.3645 0.3434 0.3222 0.3010 0.2798
876.000000 0.2587 0.2375 0.2163 0.1952 0.1740
881.000000 0.1528 0.1316 0.0956 0.0762 0.0567
886.000000 0.0373 0.0294 0.0220 0.0165 0.0120
891.000000 0.0097 0.0078 0.0067 0.0057 0.0051
896.000000 0.0045 0.0038 0.0030 0.0022 0.0016
901.000000 0.0012 0.0008 0.0006 0.0003 0.0003
906.000000 0.0001 0.0056 0.0197 0.0358 0.0468
911.000000 0.0586 0.0749 0.0913 0.1076 0.1239
916.000000 0.1403 0.1566 0.1729 0.1893 0.2056
921.000000 0.2219 0.2383 0.2557 0.2655 0.2753
926.000000 0.2875 0.3002 0.3091 0.3120 0.3133
931.000000 0.3128 0.3122 0.3101 0.3072 0.3017
936.000000 0.2815 0.2596 0.2377 0.2158 0.1939
941.000000 0.1720 0.1501 0.1283 0.1064 0.0845
946.000000 0.0626 0.0407 0.0264 0.0186 0.0095
951.000000 0.0098 0.0086 0.0093 0.0114 0.0151
956.000000 0.0353 0.0555 0.0756 0.0958 0.1160
961.000000 0.1361 0.1577 0.1620 0.1655 0.1676
966.000000 0.1697 0.1718 0.1758 0.1803 0.1871
971.000000 0.1971 0.2066 0.2105 0.2140 0.2153
976.000000 0.2156 0.2165 0.2152 0.2040 0.1891
981.000000 0.1742 0.1593 0.1443 0.1294 0.1145
986.000000 0.0996 0.0847 0.0697 0.0548 0.0422
991.000000 0.0340 0.0279 0.0243 0.0207 0.0173
996.000000 0.0143 0.0113 0.0087 0.0066 0.0045
1001.000000 0.0031 0.0023 0.0018 0.0019 0.0016
1006.000000 0.0022 0.0026 0.0032 0.0041 0.0054
1011.000000 0.0067 0.0084 0.0103 0.0122 0.0206
1016.000000 0.0331 0.0456 0.0581 0.0706 0.0831
1021.000000 0.0956 0.1102 0.1444 0.1562 0.1646
1026.000000 0.1719 0.1764 0.1809 0.1840 0.1856
1031.000000 0.1873 0.1885 0.1890 0.1895 0.1901
1036.000000 0.1910 0.1920 0.2146 0.2311 0.2471
1041.000000 0.2585 0.2804 0.3027 0.3251 0.3475
1046.000000 0.3698 0.3922 0.4145 0.4369 0.4509
1051.000000 0.4534 0.4532 0.4524 0.4513 0.4489
1056.000000 0.4439 0.4417 0.4408 0.4414 0.4525
1061.000000 0.4690 0.4818 0.4898 0.4964 0.5023
1066.000000 0.5075 0.5108 0.5140 0.5173 0.5206
1071.000000 0.5237 0.5267 0.5297 0.5326 0.5352
1076.000000 0.5378 0.5409 0.5477 0.5752 0.5865
1081.000000 0.5946 0.6019 0.6043 0.6063 0.6069
1086.000000 0.6076 0.6079 0.6060 0.6067 0.6056
1091.000000 0.5971 0.5845 0.5720 0.5594 0.5469
1096.000000 0.5344 0.5218 0.5093 0.4968 0.4842
1101.000000 0.4744 0.4708 0.4672 0.4612 0.4521
1106.000000 0.4431 0.4340 0.4275 0.4276 0.4277
1111.000000 0.4570 0.4865 0.5160 0.5455 0.5750
1116.000000 0.6045 0.6340 0.6567 0.6703 0.6828
1121.000000 0.6950 0.7005 0.7060 0.7115 0.7170
1126.000000 0.7213 0.7249 0.7285 0.7321 0.7357
1131.000000 0.7391 0.7420 0.7450 0.7479 0.7506
1136.000000 0.7521 0.7536 0.7551 0.7566 0.7573
1141.000000 0.7577 0.7581 0.7583 0.7578 0.7571
1146.000000 0.7559 0.7539 0.7503 0.7463 0.7417
1151.000000 0.7368 0.7308 0.7254 0.7201 0.7140
1156.000000 0.7070 0.6897 0.6698 0.6499 0.6301
1161.000000 0.6102 0.5903 0.5704 0.5505 0.5306
1166.000000 0.5107 0.4908 0.4709 0.4611 0.4609
1171.000000 0.4587 0.4683 0.4744 0.4856 0.5010
1176.000000 0.5164 0.5319 0.5473 0.5627 0.5782
1181.000000 0.5936 0.6090 0.6244 0.6399 0.6553
1186.000000 0.6707 0.6861 0.7016 0.7154 0.7184
1191.000000 0.7184 0.7178 0.7171 0.7075 0.6905
1196.000000 0.6735 0.6565 0.6395 0.6225 0.6055
1201.000000 0.5885 0.5715 0.5546 0.5376 0.5354
1206.000000 0.5359 0.5488 0.5704 0.5920 0.6136
1211.000000 0.6352 0.6569 0.6780 0.6922 0.7003
1216.000000 0.7070 0.7144 0.7237 0.7266 0.7283
1221.000000 0.7266 0.7274 0.7263 0.7246 0.7225
1226.000000 0.7144 0.6954 0.6764 0.6574 0.6383
1231.000000 0.6193 0.6003 0.5813 0.5622 0.5432
1236.000000 0.5242 0.5052 0.4861 0.4773 0.4772
1241.000000 0.4750 0.4903 0.5042 0.5182 0.5322
1246.000000 0.5461 0.5601 0.5741 0.5880 0.6020
1251.000000 0.6159 0.6260 0.6280 0.6286 0.6284
1256.000000 0.6293 0.6264 0.6247 0.6230 0.6178
1261.000000 0.6087 0.5997 0.5907 0.5816 0.5726
1266.000000 0.5635 0.5545 0.5455 0.5364 0.5274
1271.000000 0.5219 0.5173 0.5134 0.5096 0.5058
1276.000000 0.5020 0.4982 0.4943 0.4905 0.4866
1281.000000 0.4797 0.4729 0.4665 0.4621 0.4576
1286.000000 0.4504 0.4377 0.4250 0.4124 0.3997
1291.000000 0.3870 0.3743 0.3617 0.3483 0.3377
1296.000000 0.3306 0.3235 0.3194 0.3155 0.3116
1301.000000 0.3090 0.3067 0.3044 0.3031 0.3027
1306.000000 0.3019 0.3025 0.3026 0.3026 0.3134
1311.000000 0.3323 0.3512 0.3702 0.3891 0.4081
1316.000000 0.4270 0.4459 0.4649 0.4734 0.4728
1321.000000 0.4745 0.4249 0.4079 0.4031 0.3988
1326.000000 0.3944 0.3919 0.3895 0.3883 0.3879
1331.000000 0.3887 0.3882 0.3977 0.4023 0.4068
1336.000000 0.4113 0.4161 0.4151 0.3988 0.3825
1341.000000 0.3661 0.3605 0.3721 0.3921 0.4120
1346.000000 0.4319 0.4514 0.4518 0.4520 0.4475
1351.000000 0.4409 0.4366 0.4380 0.4519 0.4501
1356.000000 0.4517 0.4495 0.4409 0.4322 0.4236
1361.000000 0.4094 0.4091 0.4092 0.4157 0.4234
1366.000000 0.4311 0.4326 0.4302 0.4098 0.3894
1371.000000 0.3690 0.3487 0.3283 0.3066 0.2606
1376.000000 0.2146 0.1686 0.1225 0.0854 0.0854
1381.000000 0.1041 0.1484 0.1926 0.2369 0.2812
1386.000000 0.3255 0.3697 0.4140 0.4583 0.4957
1391.000000 0.5014 0.5056 0.5080 0.5098 0.5115
1396.000000 0.5118 0.5117 0.5112 0.5073 0.4970
1401.000000 0.4868 0.4765 0.4663 0.4560 0.4210
1406.000000 0.3815 0.3420 0.3026 0.2631 0.2236
1411.000000 0.1842 0.1510 0.1462 0.1437 0.1430
1416.000000 0.1414 0.1448 0.1599 0.1808 0.2017
1421.000000 0.2226 0.2355 0.2353 0.2356 0.2113
1426.000000 0.1874 0.1634 0.1394 0.1154 0.1036
1431.000000 0.0935 0.0881 0.0831 0.0781 0.0727
1436.000000 0.0659 0.0599 0.0568 0.0567 0.0574
1441.000000 0.0583 0.0579 0.0576 0.0574 0.0567
1446.000000 0.0557 0.0543 0.0496 0.0444 0.0395
1451.000000 0.0343 0.0274 0.0236 0.0223 0.0216
1456.000000 0.0210 0.0205 0.0197 0.0188 0.0172
1461.000000 0.0150 0.0133 0.0121 0.0117 0.0117
1466.000000 0.0118 0.0118 0.0109 0.0323 0.0652
1471.000000 0.0982 0.1311 0.1641 0.1970 0.2299
1476.000000 0.2629 0.2958 0.3288 0.3617 0.3947
1481.000000 0.4276 0.4456 0.4533 0.4623 0.4714
1486.000000 0.4810 0.4914 0.5008 0.5085 0.5237
1491.000000 0.5563 0.5799 0.5905 0.5949 0.5996
1496.000000 0.6047 0.6100 0.6216 0.6349 0.6474
1501.000000 0.6535 0.6588 0.6629 0.6651 0.6660
1506.000000 0.6668 0.6676 0.6692 0.6708 0.6726
1511.000000 0.6765 0.6809 0.6865 0.6900 0.6919
1516.000000 0.6938 0.6954 0.6962 0.6967 0.6971
1521.000000 0.6964 0.6961 0.6954 0.6948 0.6905
1526.000000 0.6854 0.6803 0.6752 0.6701 0.6650
1531.000000 0.6599 0.6548 0.6497 0.6446 0.6396
1536.000000 0.6355 0.6332 0.6324 0.6302 0.6323
1541.000000 0.6329 0.6347 0.6430 0.6514 0.6598
1546.000000 0.6682 0.6765 0.6849 0.6933 0.7017
1551.000000 0.7100 0.7177 0.7236 0.7288 0.7328
1556.000000 0.7355 0.7382 0.7399 0.7415 0.7417
1561.000000 0.7408 0.7389 0.7355 0.7321 0.7288
1566.000000 0.7255 0.7215 0.7171 0.7127 0.7083
1571.000000 0.7041 0.6999 0.6957 0.6916 0.6874
1576.000000 0.6834 0.6795 0.6757 0.6725 0.6699
1581.000000 0.6612 0.6333 0.6054 0.5776 0.5497
1586.000000 0.5218 0.4939 0.4661 0.4382 0.4103
1591.000000 0.3824 0.3546 0.3267 0.3020 0.2850
1596.000000 0.2663 0.2049 0.1435 0.0820 0.0272
1601.000000 0.0267 0.0247 0.0274 0.0460 0.0769
1606.000000 0.1078 0.1387 0.1696 0.2005 0.2314
1611.000000 0.2624 0.2933 0.3242 0.3551 0.3860
1616.000000 0.4169 0.4478 0.4787 0.5097 0.5406
1621.000000 0.5715 0.5889 0.5887 0.5896 0.5851
1626.000000 0.5749 0.5647 0.5545 0.5443 0.5341
1631.000000 0.5239 0.5137 0.5071 0.5033 0.4995
1636.000000 0.4932 0.4864 0.4249 0.3489 0.2729
1641.000000 0.2508 0.2458 0.2408 0.2357 0.2113
1646.000000 0.1870 0.1627 0.1383 0.1140 0.0896
1651.000000 0.0829 0.0804 0.0715 0.0613 0.0511
1656.000000 0.0448 0.0448 0.0463 0.1488 0.2291
1661.000000 0.3094 0.3897 0.4700 0.5834 0.6131
1666.000000 0.6297 0.6638 0.7026 0.7140 0.7254
1671.000000 0.7345 0.7430 0.7515 0.7601 0.7659
1676.000000 0.7713 0.7766 0.7819 0.7872 0.7910
1681.000000 0.7947 0.7984 0.8021 0.8057 0.8094
1686.000000 0.8132 0.8170 0.8208 0.8247 0.8273
1691.000000 0.8289 0.8304 0.8320 0.8334 0.8336
1696.000000 0.8337 0.8334 0.8324 0.8314 0.8304
1701.000000 0.8322 0.8347 0.8371 0.8395 0.8420
1706.000000 0.8443 0.8463 0.8484 0.8499 0.8499
1711.000000 0.8498 0.8498 0.8493 0.8489 0.8513
1716.000000 0.8481 0.8476 0.8472 0.8467 0.8462
1721.000000 0.8457 0.8451 0.8446 0.8430 0.8405
1726.000000 0.8381 0.8356 0.8324 0.8292 0.8259
1731.000000 0.8226 0.8191 0.8157 0.8133 0.8123
1736.000000 0.8113 0.8103 0.8095 0.8101 0.8107
1741.000000 0.8113 0.8119 0.8128 0.8137 0.8147
1746.000000 0.8156 0.8165 0.8168 0.8171 0.8174
1751.000000 0.8173 0.8162 0.8152 0.8134 0.8115
1756.000000 0.8093 0.8067 0.8041 0.8014 0.7980
1761.000000 0.7945 0.7911 0.7876 0.7829 0.7781
1766.000000 0.7732 0.7682 0.7629 0.7575 0.7475
1771.000000 0.7168 0.6862 0.6596 0.6534 0.6497
1776.000000 0.6473 0.6357 0.6037 0.5717 0.5397
1781.000000 0.5077 0.4757 0.4437 0.4117 0.3797
1786.000000 0.3477 0.3157 0.2837 0.2173 0.1977
1791.000000 0.1903 0.1869 0.1857 0.1851 0.1850
1796.000000 0.1862 0.1989 0.2196 0.2404 0.2611
1801.000000 0.2818 0.3026 0.3233 0.3440 0.3648
1806.000000 0.3855 0.4062 0.4270 0.4477 0.4684
1811.000000 0.4891 0.5099 0.5306 0.5513 0.5721
1816.000000 0.5928 0.6135 0.6343 0.6508 0.6591
1821.000000 0.6651 0.6709 0.6767 0.6810 0.6854
1826.000000 0.6871 0.6878 0.6874 0.6865 0.6905
1831.000000 0.6835 0.6813 0.6782 0.6758 0.6737
1836.000000 0.6722 0.6717 0.6712 0.6715 0.6726
1841.000000 0.6736 0.6764 0.6793 0.6822 0.6952
1846.000000 0.7148 0.7343 0.7566 0.7638 0.7703
1851.000000 0.7755 0.7807 0.7847 0.7886 0.7925
1856.000000 0.7960 0.7985 0.8009 0.8024 0.8031
1861.000000 0.8038 0.8042 0.8043 0.8044 0.8045
1866.000000 0.8047 0.8118 0.8195 0.8271 0.8348
1871.000000 0.8392 0.8427 0.8451 0.8475 0.8499
1876.000000 0.8523 0.8547 0.8572 0.8600 0.8629
1881.000000 0.8645 0.8652 0.8660 0.8668 0.8674
1886.000000 0.8673 0.8672 0.8675 0.8650 0.8628
1891.000000 0.8600 0.8566 0.8537 0.8517 0.8508
1896.000000 0.8504 0.8506 0.8511 0.8527 0.8547
1901.000000 0.8500 0.8587 0.8602 0.8616 0.8629
1906.000000 0.8637 0.8635 0.8633 0.8659 0.8623
1911.000000 0.8614 0.8603 0.8593 0.8592 0.8595
1916.000000 0.8602 0.8615 0.8631 0.8649 0.8667
1921.000000 0.8680 0.8691 0.8701 0.8712 0.8716
1926.000000 0.8716 0.8717 0.8717 0.8715 0.8703
1931.000000 0.8692 0.8673 0.8642 0.8612 0.8583
1936.000000 0.8554 0.8524 0.8505 0.8488 0.8472
1941.000000 0.8456 0.8439 0.8434 0.8428 0.8423
1946.000000 0.8423 0.8417 0.8463 0.8510 0.8556
1951.000000 0.8602 0.8649 0.8695 0.8742 0.8788
1956.000000 0.8834 0.8881 0.8927 0.8973 0.9020
1961.000000 0.9066 0.9104 0.9121 0.9136 0.9150
1966.000000 0.9159 0.9169 0.9173 0.9175 0.9176
1971.000000 0.9178 0.9180 0.9178 0.9177 0.9175
1976.000000 0.9187 0.9172 0.9170 0.9157 0.9143
1981.000000 0.9130 0.9116 0.9101 0.9085 0.9084
1986.000000 0.9085 0.9085 0.9086 0.9086 0.9073
1991.000000 0.9052 0.9027 0.8989 0.8950 0.8908
1996.000000 0.8864 0.8823 0.8787 0.8751 0.8722
2001.000000 0.8706 0.8690 0.8690 0.8681 0.8690
2006.000000 0.8691 0.8717 0.8743 0.8769 0.8795
2011.000000 0.8821 0.8847 0.8873 0.8899 0.8925
2016.000000 0.8951 0.8967 0.8983 0.8978 0.8973
2021.000000 0.8965 0.8958 0.8950 0.8943 0.8933
2026.000000 0.8924 0.8913 0.8903 0.8894 0.8885
2031.000000 0.8878 0.8872 0.8865 0.8859 0.8852
2036.000000 0.8845 0.8838 0.8832 0.8825 0.8819
2041.000000 0.8812 0.8805 0.8798 0.8792 0.8789
2046.000000 0.8786 0.8784 0.8783 0.8781 0.8779
2051.000000 0.8781 0.8784 0.8787 0.8791 0.8796
2056.000000 0.8802 0.8810 0.8819 0.8830 0.8842
2061.000000 0.8856 0.8871 0.8881 0.8892 0.8902
2066.000000 0.8912 0.8922 0.8933 0.8943 0.8953
2071.000000 0.8963 0.8973 0.8982 0.8992 0.8998
2076.000000 0.9005 0.9011 0.9018 0.9025 0.9032
2081.000000 0.9035 0.9039 0.9039 0.9039 0.9039
2086.000000 0.9039 0.9039 0.9040 0.9039 0.9038
2091.000000 0.9036 0.9034 0.9032 0.9030 0.9028
2096.000000 0.9027 0.9025 0.9023 0.9020 0.9017
2101.000000 0.9013 0.9010 0.9006 0.9003 0.8999
2106.000000 0.8995 0.8991 0.8988 0.8981 0.8975
2111.000000 0.8968 0.8962 0.8955 0.8949 0.8942
2116.000000 0.8936 0.8931 0.8927 0.8923 0.8920
2121.000000 0.8917 0.8914 0.8910 0.8907 0.8904
2126.000000 0.8901 0.8899 0.8898 0.8899 0.8901
2131.000000 0.8902 0.8904 0.8905 0.8907 0.8910
2136.000000 0.8913 0.8916 0.8919 0.8922 0.8926
2141.000000 0.8929 0.8933 0.8938 0.8944 0.8949
2146.000000 0.8955 0.8959 0.8963 0.8964 0.8965
2151.000000 0.8965 0.8966 0.8967 0.8968 0.8969
2156.000000 0.8970 0.8968 0.8967 0.8964 0.8962
2161.000000 0.8959 0.8956 0.8953 0.8950 0.8947
2166.000000 0.8944 0.8941 0.8938 0.8934 0.8931
2171.000000 0.8928 0.8925 0.8922 0.8919 0.8917
2176.000000 0.8916 0.8916 0.8917 0.8918 0.8919
2181.000000 0.8921 0.8923 0.8926 0.8930 0.8933
2186.000000 0.8936 0.8939 0.8942 0.8945 0.8948
2191.000000 0.8951 0.8954 0.8955 0.8957 0.8957
2196.000000 0.8957 0.8957 0.8958 0.8956 0.8954
2201.000000 0.8952 0.8950 0.8947 0.8945 0.8942
2206.000000 0.8940 0.8937 0.8935 0.8932 0.8929
2211.000000 0.8925 0.8922 0.8919 0.8916 0.8912
2216.000000 0.8909 0.8906 0.8903 0.8899 0.8896
2221.000000 0.8893 0.8890 0.8887 0.8884 0.8881
2226.000000 0.8879 0.8876 0.8873 0.8870 0.8868
2231.000000 0.8865 0.8863 0.8858 0.8854 0.8849
2236.000000 0.8844 0.8839 0.8834 0.8829 0.8825
2241.000000 0.8822 0.8820 0.8818 0.8817 0.8821
2246.000000 0.8825 0.8829 0.8833 0.8837 0.8841
2251.000000 0.8849 0.8858 0.8866 0.8875 0.8881
2256.000000 0.8887 0.8893 0.8900 0.8906 0.8913
2261.000000 0.8920 0.8927 0.8934 0.8942 0.8949
2266.000000 0.8957 0.8963 0.8970 0.8975 0.8981
2271.000000 0.8984 0.8988 0.8989 0.8991 0.8992
2276.000000 0.8993 0.8994 0.8995 0.8996 0.8997
2281.000000 0.8997 0.8997 0.8996 0.8996 0.8996
2286.000000 0.8996 0.8995 0.8994 0.8991 0.8988
2291.000000 0.8985 0.8983 0.8980 0.8977 0.8974
2296.000000 0.8971 0.8966 0.8962 0.8957 0.8953
2301.000000 0.8949 0.8945 0.8940 0.8936 0.8929
2306.000000 0.8922 0.8913 0.8905 0.8899 0.8894
2311.000000 0.8891 0.8888 0.8885 0.8883 0.8882
2316.000000 0.8881 0.8882 0.8884 0.8885 0.8886
2321.000000 0.8887 0.8889 0.8889 0.8890 0.8889
2326.000000 0.8889 0.8887 0.8886 0.8884 0.8882
2331.000000 0.8880 0.8879 0.8877 0.8875 0.8873
2336.000000 0.8872 0.8869 0.8867 0.8864 0.8862
2341.000000 0.8859 0.8857 0.8854 0.8852 0.8850
2346.000000 0.8848 0.8845 0.8843 0.8840 0.8838
2351.000000 0.8835 0.8832 0.8828 0.8825 0.8822
2356.000000 0.8819 0.8816 0.8813 0.8809 0.8806
2361.000000 0.8803 0.8800 0.8796 0.8793 0.8789
2366.000000 0.8786 0.8782 0.8779 0.8775 0.8772
2371.000000 0.8768 0.8764 0.8760 0.8757 0.8753
2376.000000 0.8750 0.8746 0.8742 0.8738 0.8734
2381.000000 0.8727 0.8720 0.8713 0.8707 0.8700
2386.000000 0.8693 0.8686 0.8680 0.8673 0.8666
2391.000000 0.8659 0.8653 0.8646 0.8639 0.8632
2396.000000 0.8626 0.8619 0.8613 0.8607 0.8601
2401.000000 0.8595 0.8589 0.8583 0.8577 0.8571
2406.000000 0.8565 0.8563 0.8561 0.8561 0.8562
2411.000000 0.8571 0.8571 0.8591 0.8602 0.8614
2416.000000 0.8627 0.8639 0.8651 0.8668 0.8686
2421.000000 0.8698 0.8711 0.8718 0.8726 0.8733
2426.000000 0.8741 0.8748 0.8756 0.8760 0.8765
2431.000000 0.8770 0.8775 0.8775 0.8775 0.8775
2436.000000 0.8775 0.8774 0.8774 0.8773 0.8773
2441.000000 0.8773 0.8773 0.8772 0.8772 0.8772
2446.000000 0.8772 0.8771 0.8771 0.8770 0.8770
2451.000000 0.8770 0.8771 0.8771 0.8772 0.8772
2456.000000 0.8773 0.8773 0.8774 0.8774 0.8775
2461.000000 0.8775 0.8776 0.8779 0.8782 0.8784
2466.000000 0.8787 0.8790 0.8793 0.8796 0.8799
2471.000000 0.8802 0.8805 0.8810 0.8816 0.8821
2476.000000 0.8827 0.8832 0.8837 0.8842 0.8848
2481.000000 0.8853 0.8859 0.8864 0.8870 0.8875
2486.000000 0.8881 0.8887 0.8894 0.8900 0.8907
2491.000000 0.8913 0.8919 0.8925 0.8932 0.8934
2496.000000 0.8936 0.8933 0.8948 0.8924 0.8918
2501.000000 0.8911 0.8905 0.8892 0.8880 0.8867
2506.000000 0.8855 0.8842 0.8829 0.8816 0.8803
2511.000000 0.8789 0.8776 0.8763 0.8750 0.8737
2516.000000 0.8724 0.8710 0.8697 0.8683 0.8669
2521.000000 0.8655 0.8641 0.8627 0.8614 0.8599
2526.000000 0.8585 0.8571 0.8557 0.8551 0.8546
2531.000000 0.8540 0.8535 0.8529 0.8523 0.8506
2536.000000 0.8490 0.8473 0.8457 0.8440 0.8424
2541.000000 0.8409 0.8394 0.8379 0.8365 0.8350
2546.000000 0.8335 0.8320 0.8306 0.8293 0.8280
2551.000000 0.8268 0.8257 0.8245 0.8233 0.8221
2556.000000 0.8210 0.8203 0.8196 0.8189 0.8182
2561.000000 0.8175 0.8168 0.8161 0.8155 0.8148
2566.000000 0.8141 0.8141 0.8142 0.8142 0.8143
2571.000000 0.8143 0.8144 0.8144 0.8145 0.8148
2576.000000 0.8151 0.8156 0.8162 0.8165 0.8168
2581.000000 0.8170 0.8173 0.8175 0.8178 0.8177
2586.000000 0.8177 0.8175 0.8173 0.8167 0.8161
2591.000000 0.8155 0.8150 0.8146 0.8143 0.8140
2596.000000 0.8138 0.8135 0.8132 0.8134 0.8136
2601.000000 0.8138 0.8141 0.8144 0.8148 0.8151
2606.000000 0.8154 0.8157 0.8161 0.8156 0.8152
2611.000000 0.8137 0.8122 0.8106 0.8091 0.8075
2616.000000 0.8060 0.8045 0.8030 0.8015 0.8000
2621.000000 0.7985 0.7970 0.7955 0.7940 0.7926
2626.000000 0.7912 0.7900 0.7888 0.7876 0.7864
2631.000000 0.7851 0.7839 0.7825 0.7811 0.7797
2636.000000 0.7783 0.7762 0.7741 0.7717 0.7693
2641.000000 0.7669 0.7645 0.7613 0.7582 0.7548
2646.000000 0.7514 0.7482 0.7450 0.7421 0.7393
2651.000000 0.7364 0.7336 0.7312 0.7288 0.7267
2656.000000 0.7246 0.7224 0.7203 0.7182 0.7161
2661.000000 0.7146 0.7132 0.7117 0.7103 0.7088
2666.000000 0.7074 0.7060 0.7047 0.7041 0.7036
2671.000000 0.7031 0.7026 0.7027 0.7028 0.7031
2676.000000 0.7034 0.7053 0.7073 0.7095 0.7117
2681.000000 0.7139 0.7162 0.7184 0.7206 0.7228
2686.000000 0.7251 0.7273 0.7295 0.7317 0.7340
2691.000000 0.7362 0.7385 0.7407 0.7429 0.7451
2696.000000 0.7474 0.7487 0.7500 0.7504 0.7508
2701.000000 0.7508 0.7514 0.7506 0.7504 0.7500
2706.000000 0.7497 0.7493 0.7490 0.7460 0.7431
2711.000000 0.7379 0.7327 0.7275 0.7223 0.7170
2716.000000 0.7118 0.7066 0.7014 0.6962 0.6910
2721.000000 0.6857 0.6805 0.6753 0.6701 0.6648
2726.000000 0.6596 0.6544 0.6492 0.6440 0.6388
2731.000000 0.6335 0.6283 0.6231 0.6179 0.6166
2736.000000 0.6153 0.6152 0.6137 0.6154 0.6158
2741.000000 0.6206 0.6254 0.6304 0.6355 0.6405
2746.000000 0.6456 0.6507 0.6558 0.6608 0.6659
2751.000000 0.6686 0.6713 0.6707 0.6702 0.6695
2756.000000 0.6728 0.6669 0.6650 0.6625 0.6600
2761.000000 0.6572 0.6545 0.6511 0.6478 0.6453
2766.000000 0.6429 0.6408 0.6387 0.6366 0.6345
2771.000000 0.6325 0.6305 0.6285 0.6266 0.6247
2776.000000 0.6228 0.6207 0.6187 0.6148 0.6109
2781.000000 0.6065 0.6022 0.5971 0.5920 0.5840
2786.000000 0.5760 0.5663 0.5566 0.5477 0.5388
2791.000000 0.5299 0.5211 0.5122 0.5033 0.4944
2796.000000 0.4855 0.4766 0.4677 0.4588 0.4499
2801.000000 0.4410 0.4321 0.4232 0.4144 0.3961
2806.000000 0.3779 0.3715 0.3652 0.3555 0.3458
2811.000000 0.3333 0.3209 0.3085 0.2961 0.2836
2816.000000 0.2712 0.2587 0.2463 0.2338 0.2214
2821.000000 0.2090 0.1966 0.1841 0.1717 0.1592
2826.000000 0.1468 0.1343 0.1219 0.1095 0.0971
2831.000000 0.0810 0.0650 0.0575 0.0501 0.0430
2836.000000 0.0359 0.0289 0.0220 0.0185 0.0151
2841.000000 0.0134 0.0117 0.0100 0.0083 0.0079
2846.000000 0.0075 0.0072 0.0069 0.0066 0.0063
2851.000000 0.0060 0.0057 0.0055 0.0053 0.0054
2856.000000 0.0055 0.0055 0.0056 0.0057 0.0058
2861.000000 0.0058 0.0059 0.0059 0.0060 0.0061
2866.000000 0.0062 0.0062 0.0063 0.0064 0.0065
2871.000000 0.0066 0.0067 0.0068 0.0070 0.0071
2876.000000 0.0073 0.0074 0.0076 0.0077 0.0079
2881.000000 0.0080 0.0082 0.0083 0.0085 0.0086
2886.000000 0.0088 0.0088 0.0088 0.0087 0.0086
2891.000000 0.0085 0.0081 0.0084 0.0084 0.0083
2896.000000 0.0083 0.0082 0.0081 0.0080 0.0080
2901.000000 0.0079 0.0079 0.0078 0.0078 0.0078
2906.000000 0.0078 0.0077 0.0077 0.0076 0.0076
2911.000000 0.0075 0.0075 0.0075 0.0075 0.0074
2916.000000 0.0074 0.0073 0.0073 0.0072 0.0072
2921.000000 0.0072 0.0072 0.0072 0.0073 0.0073
2926.000000 0.0073 0.0073 0.0074 0.0074 0.0075
2931.000000 0.0075 0.0075 0.0075 0.0076 0.0076
2936.000000 0.0077 0.0077 0.0077 0.0077 0.0078
2941.000000 0.0078 0.0078 0.0078 0.0079 0.0104
2946.000000 0.0129 0.0183 0.0238 0.0292 0.0346
2951.000000 0.0400 0.0455 0.0509 0.0564 0.0618
2956.000000 0.0672 0.0692 0.0713 0.0712 0.0717
2961.000000 0.0695 0.0680 0.0618 0.0557 0.0495
2966.000000 0.0434 0.0372 0.0311 0.0249 0.0187
2971.000000 0.0152 0.0118 0.0109 0.0100 0.0098
2976.000000 0.0096 0.0094 0.0093 0.0091 0.0089
2981.000000 0.0093 0.0097 0.0100 0.0104 0.0107
2986.000000 0.0111 0.0112 0.0113 0.0112 0.0111
2991.000000 0.0110 0.0109 0.0108 0.0107 0.0103
2996.000000 0.0100 0.0096 0.0093 0.0090 0.0093
3001.000000 0.0088 0.0089 0.0090 0.0091 0.0092
3006.000000 0.0093 0.0095 0.0097 0.0123 0.0149
3011.000000 0.0175 0.0202 0.0228 0.0254 0.0280
3016.000000 0.0306 0.0331 0.0357 0.0374 0.0392
3021.000000 0.0400 0.0409 0.0408 0.0407 0.0406
3026.000000 0.0406 0.0402 0.0398 0.0392 0.0386
3031.000000 0.0366 0.0347 0.0330 0.0313 0.0301
3036.000000 0.0289 0.0285 0.0282 0.0283 0.0285
3041.000000 0.0370 0.0456 0.0601 0.0747 0.0893
3046.000000 0.1039 0.1185 0.1331 0.1477 0.1623
3051.000000 0.1769 0.1915 0.2060 0.2206 0.2352
3056.000000 0.2498 0.2644 0.2790 0.2936 0.3082
3061.000000 0.3179 0.3276 0.3269 0.3290 0.3256
3066.000000 0.3250 0.3237 0.3225 0.3205 0.3186
3071.000000 0.3098 0.3010 0.2812 0.2614 0.2416
3076.000000 0.2218 0.2020 0.1822 0.1624 0.1426
3081.000000 0.1228 0.1030 0.0832 0.0634 0.0498
3086.000000 0.0363 0.0365 0.0368 0.0372 0.0338
3091.000000 0.0381 0.0387 0.0586 0.0786 0.1337
3096.000000 0.1889 0.2440 0.2992 0.3543 0.4095
3101.000000 0.4646 0.5198 0.5408 0.5618 0.5691
3106.000000 0.5765 0.5830 0.5896 0.5956 0.6016
3111.000000 0.6077 0.6138 0.6200 0.6262 0.6311
3116.000000 0.6360 0.6406 0.6452 0.6578 0.6705
3121.000000 0.6724 0.6744 0.6763 0.6782 0.6801
3126.000000 0.6820 0.6839 0.6859 0.6878 0.6897
3131.000000 0.6916 0.6935 0.6954 0.6973 0.6990
3136.000000 0.7008 0.7025 0.7043 0.7060 0.7078
3141.000000 0.7095 0.7113 0.7130 0.7147 0.7165
3146.000000 0.7183 0.7201 0.7219 0.7237 0.7255
3151.000000 0.7271 0.7288 0.7303 0.7318 0.7333
3156.000000 0.7348 0.7360 0.7373 0.7383 0.7393
3161.000000 0.7403 0.7413 0.7423 0.7433 0.7443
3166.000000 0.7454 0.7463 0.7472 0.7478 0.7484
3171.000000 0.7489 0.7495 0.7501 0.7507 0.7513
3176.000000 0.7519 0.7525 0.7531 0.7537 0.7543
3181.000000 0.7549 0.7556 0.7562 0.7569 0.7575
3186.000000 0.7581 0.7587 0.7594 0.7600 0.7607
3191.000000 0.7617 0.7627 0.7644 0.7662 0.7680
3196.000000 0.7698 0.7715 0.7733 0.7757 0.7782
3201.000000 0.7807 0.7832 0.7857 0.7882 0.7912
3206.000000 0.7942 0.7972 0.8003 0.8045 0.8088
3211.000000 0.8131 0.8175 0.8212 0.8250 0.8287
3216.000000 0.8325 0.8351 0.8378 0.8404 0.8431
3221.000000 0.8450 0.8469 0.8481 0.8494 0.8506
3226.000000 0.8519 0.8531 0.8544 0.8556 0.8568
3231.000000 0.8578 0.8589 0.8599 0.8609 0.8619
3236.000000 0.8629 0.8639 0.8650 0.8660 0.8670
3241.000000 0.8680 0.8691 0.8703 0.8716 0.8728
3246.000000 0.8740 0.8752 0.8765 0.8777 0.8789
3251.000000 0.8801 0.8813 0.8823 0.8833 0.8842
3256.000000 0.8852 0.8862 0.8872 0.8882 0.8892
3261.000000 0.8901 0.8911 0.8921 0.8931 0.8940
3266.000000 0.8950 0.8956 0.8962 0.8968 0.8974
3271.000000 0.8980 0.8986 0.8992 0.8999 0.9005
3276.000000 0.9011 0.9017 0.9023 0.9027 0.9032
3281.000000 0.9033 0.9035 0.9036 0.9038 0.9039
3286.000000 0.9040 0.9041 0.9043 0.9044 0.9046
3291.000000 0.9047 0.9048 0.9048 0.9049 0.9049
3296.000000 0.9050 0.9050 0.9050 0.9050 0.9051
3301.000000 0.9051 0.9052 0.9052 0.9053 0.9053
3306.000000 0.9053 0.9053 0.9054 0.9054 0.9055
3311.000000 0.9055 0.9056 0.9056 0.9057 0.9057
3316.000000 0.9058 0.9058 0.9059 0.9059 0.9060
3321.000000 0.9060 0.9061 0.9061 0.9062 0.9063
3326.000000 0.9064 0.9067 0.9071 0.9076 0.9081
3331.000000 0.9086 0.9091 0.9096 0.9102 0.9107
3336.000000 0.9112 0.9117 0.9122 0.9125 0.9128
3341.000000 0.9128 0.9129 0.9128 0.9128 0.9126
3346.000000 0.9125 0.9124 0.9123 0.9122 0.9121
3351.000000 0.9120 0.9119 0.9118 0.9117 0.9115
3356.000000 0.9114 0.9113 0.9113 0.9112 0.9112
3361.000000 0.9111 0.9111 0.9110 0.9110 0.9109
3366.000000 0.9109 0.9108 0.9108 0.9107 0.9107
3371.000000 0.9106 0.9106 0.9106 0.9106 0.9105
3376.000000 0.9105 0.9105 0.9105 0.9104 0.9104
3381.000000 0.9104 0.9104 0.9103 0.9103 0.9102
3386.000000 0.9102 0.9104 0.9106 0.9110 0.9114
3391.000000 0.9118 0.9123 0.9127 0.9132 0.9136
3396.000000 0.9141 0.9145 0.9150 0.9156 0.9163
3401.000000 0.9171 0.9179 0.9180 0.9182 0.9182
3406.000000 0.9183 0.9183 0.9183 0.9182 0.9181
3411.000000 0.9179 0.9177 0.9175 0.9174 0.9172
3416.000000 0.9170 0.9168 0.9166 0.9164 0.9163
3421.000000 0.9161 0.9159 0.9157 0.9156 0.9154
3426.000000 0.9152 0.9150 0.9149 0.9147 0.9145
3431.000000 0.9143 0.9142 0.9140 0.9138 0.9136
3436.000000 0.9135 0.9133 0.9131 0.9129 0.9128
3441.000000 0.9126 0.9125 0.9123 0.9122 0.9120
3446.000000 0.9119 0.9118 0.9118 0.9120 0.9123
3451.000000 0.9125 0.9127 0.9129 0.9131 0.9133
3456.000000 0.9136 0.9138 0.9140 0.9142 0.9145
3461.000000 0.9148 0.9152 0.9155 0.9158 0.9161
3466.000000 0.9164 0.9167 0.9170 0.9173 0.9176
3471.000000 0.9179 0.9182 0.9185 0.9188 0.9191
3476.000000 0.9194 0.9197 0.9200 0.9203 0.9206
3481.000000 0.9209 0.9212 0.9215 0.9219 0.9222
3486.000000 0.9226 0.9229 0.9232 0.9235 0.9239
3491.000000 0.9242 0.9246 0.9249 0.9252 0.9255
3496.000000 0.9259 0.9262 0.9266 0.9268 0.9270
3501.000000 0.9272 0.9274 0.9276 0.9278 0.9280
3506.000000 0.9282 0.9284 0.9287 0.9289 0.9291
3511.000000 0.9293 0.9295 0.9297 0.9299 0.9301
3516.000000 0.9303 0.9304 0.9305 0.9306 0.9308
3521.000000 0.9309 0.9310 0.9311 0.9313 0.9314
3526.000000 0.9315 0.9316 0.9318 0.9319 0.9320
3531.000000 0.9321 0.9323 0.9324 0.9325 0.9326
3536.000000 0.9328 0.9329 0.9330 0.9331 0.9333
3541.000000 0.9334 0.9335 0.9335 0.9336 0.9336
3546.000000 0.9336 0.9336 0.9336 0.9336 0.9336
3551.000000 0.9336 0.9337 0.9337 0.9337 0.9337
3556.000000 0.9337 0.9337 0.9337 0.9337 0.9337
3561.000000 0.9337 0.9313 0.9337 0.9337 0.9337
3566.000000 0.9338 0.9336 0.9335 0.9333 0.9332
3571.000000 0.9330 0.9328 0.9326 0.9325 0.9323
3576.000000 0.9322 0.9320 0.9318 0.9316 0.9315
3581.000000 0.9313 0.9311 0.9309 0.9308 0.9306
3586.000000 0.9304 0.9302 0.9301 0.9298 0.9296
3591.000000 0.9291 0.9287 0.9282 0.9278 0.9273
3596.000000 0.9268 0.9263 0.9259 0.9254 0.9250
3601.000000 0.9245 0.9241 0.9236 0.9232 0.9227
3606.000000 0.9223 0.9218 0.9213 0.9208 0.9203
3611.000000 0.9198 0.9193 0.9188 0.9184 0.9179
3616.000000 0.9174 0.9169 0.9164 0.9159 0.9154
3621.000000 0.9149 0.9144 0.9139 0.9134 0.9131
3626.000000 0.9128 0.9126 0.9124 0.9122 0.9120
3631.000000 0.9118 0.9116 0.9116 0.9116 0.9117
3636.000000 0.9119 0.9120 0.9121 0.9122 0.9124
3641.000000 0.9125 0.9127 0.9128 0.9129 0.9130
3646.000000 0.9132 0.9134 0.9136 0.9137 0.9139
3651.000000 0.9141 0.9143 0.9144 0.9146 0.9147
3656.000000 0.9149 0.9151 0.9153 0.9154 0.9156
3661.000000 0.9158 0.9160 0.9161 0.9163 0.9164
3666.000000 0.9166 0.9167 0.9169 0.9170 0.9171
3671.000000 0.9172 0.9174 0.9175 0.9176 0.9177
3676.000000 0.9179 0.9180 0.9181 0.9182 0.9184
3681.000000 0.9185 0.9186 0.9187 0.9189 0.9190
3686.000000 0.9192 0.9193 0.9194 0.9194 0.9195
3691.000000 0.9191 0.9188 0.9184 0.9181 0.9166
3696.000000 0.9152 0.9137 0.9122 0.9112 0.9102
3701.000000 0.9092 0.9082 0.9075 0.9069 0.9064
3706.000000 0.9059 0.9054 0.9049 0.9047 0.9046
3711.000000 0.9045 0.9045 0.9044 0.9043 0.9042
3716.000000 0.9042 0.9043 0.9044 0.9046 0.9049
3721.000000 0.9051 0.9053 0.9055 0.9057 0.9059
3726.000000 0.9062 0.9064 0.9066 0.9068 0.9070
3731.000000 0.9072 0.9074 0.9076 0.9079 0.9079
3736.000000 0.9080 0.9079 0.9079 0.9077 0.9076
3741.000000 0.9074 0.9073 0.9071 0.9070 0.9068
3746.000000 0.9067 0.9065 0.9064 0.9062 0.9061
3751.000000 0.9059 0.9057 0.9055 0.9054 0.9053
3756.000000 0.9052 0.9050 0.9049 0.9047 0.9046
3761.000000 0.9044 0.9043 0.9041 0.9040 0.9038
3766.000000 0.9037 0.9035 0.9034 0.9032 0.9031
3771.000000 0.9029 0.9028 0.9027 0.9026 0.9025
3776.000000 0.9025 0.9024 0.9023 0.9022 0.9022
3781.000000 0.9021 0.9021 0.9020 0.9019 0.9018
3786.000000 0.9018 0.9017 0.9017 0.9016 0.9016
3791.000000 0.9015 0.9015 0.9014 0.9014 0.9013
3796.000000 0.9013 0.9012 0.9012 0.9010 0.9009
3801.000000 0.9004 0.9000 0.8995 0.8991 0.8986
3806.000000 0.8982 0.8975 0.8969 0.8961 0.8953
3811.000000 0.8944 0.8936 0.8927 0.8919 0.8911
3816.000000 0.8904 0.8898 0.8893 0.8887 0.8881
3821.000000 0.8875 0.8870 0.8864 0.8858 0.8853
3826.000000 0.8848 0.8847 0.8847 0.8847 0.8847
3831.000000 0.8847 0.8847 0.8846 0.8846 0.8851
3836.000000 0.8856 0.8861 0.8866 0.8871 0.8877
3841.000000 0.8882 0.8888 0.8893 0.8899 0.8904
3846.000000 0.8910 0.8916 0.8923 0.8930 0.8937
3851.000000 0.8943 0.8950 0.8957 0.8964 0.8969
3856.000000 0.8974 0.8977 0.8981 0.8985 0.8989
3861.000000 0.8993 0.8997 0.9001 0.9005 0.9008
3866.000000 0.9012 0.9012 0.9012 0.9012 0.9013
3871.000000 0.9013 0.9013 0.9013 0.9013 0.9013
3876.000000 0.9014 0.9014 0.9014 0.9014 0.9015
3881.000000 0.9015 0.9015 0.9015 0.9015 0.9012
3886.000000 0.9009 0.9006 0.9004 0.9001 0.8998
3891.000000 0.8995 0.8992 0.8989 0.8986 0.8983
3896.000000 0.8981 0.8978 0.8975 0.8972 0.8969
3901.000000 0.8966 0.8963 0.8956 0.8950 0.8942
3906.000000 0.8935 0.8928 0.8921 0.8914 0.8907
3911.000000 0.8899 0.8892 0.8885 0.8878 0.8870
3916.000000 0.8862 0.8851 0.8841 0.8830 0.8820
3921.000000 0.8809 0.8799 0.8788 0.8778 0.8767
3926.000000 0.8756 0.8748 0.8740 0.8732 0.8725
3931.000000 0.8717 0.8709 0.8701 0.8694 0.8686
3936.000000 0.8678 0.8670 0.8662 0.8654 0.8646
3941.000000 0.8638 0.8630 0.8618 0.8607 0.8595
3946.000000 0.8584 0.8572 0.8561 0.8550 0.8539
3951.000000 0.8529 0.8519 0.8509 0.8500 0.8490
3956.000000 0.8481 0.8471 0.8462 0.8452 0.8443
3961.000000 0.8441 0.8440 0.8440 0.8440 0.8440
3966.000000 0.8440 0.8440 0.8440 0.8440 0.8440
3971.000000 0.8440 0.8440 0.8439 0.8439 0.8442
3976.000000 0.8445 0.8447 0.8450 0.8453 0.8456
3981.000000 0.8458 0.8461 0.8462 0.8464 0.8465
3986.000000 0.8467 0.8468 0.8470 0.8467 0.8465
3991.000000 0.8456 0.8447 0.8438 0.8430 0.8421
3996.000000 0.8412 0.8403 0.8395 0.8391 0.8388
##END=
