##TITLE=L-2,4-DIAMINO-1-BUTANETHIOL DIHYDROCHLORIDE
##JCAMP-DX=4.24
##DATA TYPE=INFRARED SPECTRUM
##CLASS=COBLENTZ
##ORIGIN=ARTHUR D. LITTLE, INC.
##OWNER=COBLENTZ SOCIETY
Collection (C) 2018 copyright by the U.S. Secretary of Commerce
on behalf of the United States of America. All rights reserved.
##DATE=Not specified, most likely prior to 1970
##MOLFORM=C4 H12 N2 S  * 2 H Cl
##MP=63-66 C
##SOURCE REFERENCE=COBLENTZ NO. 4548
##$NIST ID=B6004548
##$NIST SOURCE=COBLENTZ
##$NIST IMAGE=cob4548
##SPECTROMETER/DATA SYSTEM=Not specified, most likely a prism, grating, or hybrid spectrometer.
##STATE=SOLID (MINERAL OIL MULL)
##PATH LENGTH=
$$SPECTRAL CONTAMINATIN DUE TO OIL AROUND 2900, 1460, 1375, 704 CM^-^1
$$ 91% PURE
##SAMPLING PROCEDURE=TRANSMISSION
##RESOLUTION=4
##DATA PROCESSING=DIGITIZED BY NIST FROM HARD COPY
##XUNITS=1/CM
##YUNITS=TRANSMITTANCE
##XFACTOR=1.000000
##YFACTOR=1
##DELTAX=001.550388
##FIRSTX=645.736
##LASTX=3693.8
##FIRSTY=0.687
##MAXX=3693.8
##MINX=645.736
##MAXY=0.934
##MINY=0.038
##NPOINTS=1967
##XYDATA=(X++(Y..Y))
645.736000 0.6870 0.6980 0.7040 0.7090 0.7120
653.491883 0.7200 0.7340 0.7430 0.7440 0.7490
661.240000 0.7490 0.7490 0.7540 0.7660 0.7710
668.995883 0.7720 0.7760 0.7760 0.7770 0.7850
676.744000 0.7900 0.7940 0.7970 0.8000 0.8020
684.499883 0.8040 0.8050 0.8050 0.8050 0.8070
692.248000 0.8070 0.7970 0.7900 0.7830 0.7770
700.003883 0.7680 0.7490 0.7240 0.7240 0.7580
707.752000 0.7620 0.7790 0.7990 0.8040 0.8110
715.507883 0.8240 0.8270 0.8320 0.8390 0.8420
723.256000 0.8490 0.8500 0.8500 0.8520 0.8580
731.011883 0.8690 0.8740 0.8750 0.8780 0.8780
738.760000 0.8800 0.8800 0.8810 0.8810 0.8800
746.515883 0.8800 0.8780 0.8780 0.8800 0.8800
754.264000 0.8860 0.8880 0.8880 0.8860 0.8810
762.019883 0.8800 0.8780 0.8750 0.8690 0.8600
769.767000 0.8530 0.8500 0.8360 0.8140 0.7400
777.522883 0.6700 0.6700 0.6950 0.7620 0.8140
785.271000 0.8600 0.8880 0.9020 0.9030 0.9110
793.026883 0.9160 0.9220 0.9220 0.9250 0.9280
800.775000 0.9300 0.9310 0.9310 0.9330 0.9340
808.530883 0.9340 0.9330 0.9330 0.9330 0.9330
816.279000 0.9340 0.9340 0.9340 0.9340 0.9340
824.034883 0.9340 0.9330 0.9330 0.9310 0.9310
831.783000 0.9300 0.9280 0.9260 0.9250 0.9250
839.538883 0.9230 0.9220 0.9200 0.9160 0.9080
847.287000 0.9020 0.8970 0.8880 0.8780 0.8780
855.042883 0.8840 0.9020 0.9090 0.9200 0.9300
862.791000 0.9310 0.9310 0.9330 0.9330 0.9300
870.546883 0.9260 0.9250 0.9220 0.9220 0.9200
878.295000 0.9200 0.9200 0.9200 0.9200 0.9190
886.050883 0.9190 0.9140 0.9110 0.9050 0.9030
893.798000 0.8980 0.8940 0.8880 0.8810 0.8700
901.553883 0.8640 0.8500 0.8280 0.8050 0.7600
909.302000 0.6950 0.6730 0.6730 0.7200 0.7300
917.057883 0.7800 0.8240 0.8420 0.8500 0.8500
924.806000 0.8420 0.8320 0.8270 0.7820 0.7540
932.561883 0.7180 0.6670 0.6370 0.6370 0.7060
940.310000 0.7650 0.8380 0.8580 0.8780 0.8910
948.065883 0.8980 0.8980 0.8970 0.8940 0.8940
955.814000 0.8920 0.8890 0.8860 0.8800 0.8750
963.569883 0.8700 0.8630 0.8530 0.8440 0.8300
971.318000 0.8220 0.8190 0.8100 0.7660 0.7400
979.073883 0.7130 0.6680 0.6170 0.6170 0.6820
986.822000 0.7510 0.8240 0.8460 0.8610 0.8720
994.577883 0.8810 0.8880 0.8910 0.8940 0.8950
1002.326000 0.8950 0.8950 0.8940 0.8920 0.8910
1010.081883 0.8890 0.8880 0.8860 0.8860 0.8840
1017.829000 0.8780 0.8720 0.8670 0.8660 0.8670
1025.584883 0.8720 0.8770 0.8810 0.8840 0.8860
1033.333000 0.8860 0.8860 0.8880 0.8890 0.8890
1041.088883 0.8890 0.8890 0.8890 0.8890 0.8890
1048.837000 0.8880 0.8880 0.8880 0.8880 0.8860
1056.592883 0.8860 0.8840 0.8840 0.8830 0.8830
1064.341000 0.8810 0.8810 0.8800 0.8780 0.8770
1072.096883 0.8750 0.8700 0.8630 0.8610 0.8600
1079.845000 0.8610 0.8640 0.8750 0.8830 0.8840
1087.600883 0.8860 0.8880 0.8880 0.8880 0.8860
1095.349000 0.8860 0.8840 0.8830 0.8810 0.8780
1103.104883 0.8750 0.8700 0.8640 0.8610 0.8520
1110.853000 0.8500 0.8470 0.8390 0.8300 0.8070
1118.608883 0.7620 0.7120 0.7090 0.6670 0.6230
1126.357000 0.6230 0.6600 0.7210 0.7580 0.7800
1134.112883 0.7910 0.7930 0.7880 0.7680 0.7430
1141.860000 0.6980 0.6110 0.5670 0.5670 0.5920
1149.615883 0.7240 0.7760 0.8070 0.8300 0.8390
1157.364000 0.8490 0.8500 0.8500 0.8490 0.8470
1165.119883 0.8420 0.8410 0.8390 0.8350 0.8250
1172.868000 0.8140 0.8000 0.7770 0.7460 0.6990
1180.623883 0.6460 0.6110 0.6110 0.6510 0.6680
1188.372000 0.6880 0.7060 0.7540 0.8100 0.8350
1196.127883 0.8520 0.8720 0.8800 0.8910 0.8950
1203.876000 0.8970 0.9000 0.9020 0.9030 0.9050
1211.631883 0.9060 0.9060 0.9060 0.9060 0.9050
1219.380000 0.9030 0.9030 0.9020 0.9000 0.9000
1227.135883 0.8980 0.8940 0.8860 0.8780 0.8700
1234.884000 0.8530 0.8350 0.7940 0.7660 0.7660
1242.639883 0.7960 0.7990 0.8320 0.8660 0.8840
1250.388000 0.8940 0.8970 0.8980 0.8980 0.8980
1258.143883 0.8970 0.8940 0.8920 0.8880 0.8830
1265.891000 0.8690 0.8490 0.8300 0.8210 0.8210
1273.646883 0.8300 0.8550 0.8780 0.8860 0.8890
1281.395000 0.8890 0.8880 0.8840 0.8810 0.8780
1289.150883 0.8740 0.8530 0.8470 0.8360 0.8270
1296.899000 0.8160 0.8160 0.8350 0.8490 0.8500
1304.654883 0.8640 0.8810 0.8840 0.8860 0.8860
1312.403000 0.8880 0.8880 0.8880 0.8860 0.8840
1320.158883 0.8810 0.8780 0.8740 0.8690 0.8670
1327.907000 0.8640 0.8600 0.8580 0.8550 0.8520
1335.662883 0.8500 0.8500 0.8490 0.8490 0.8470
1343.411000 0.8460 0.8420 0.8420 0.8410 0.8360
1351.166883 0.8270 0.8220 0.8140 0.7990 0.7900
1358.915000 0.7580 0.7410 0.7200 0.7090 0.6990
1366.670883 0.6850 0.6650 0.6360 0.6010 0.5780
1374.419000 0.5690 0.5670 0.5690 0.5760 0.5830
1382.174883 0.5950 0.6340 0.6920 0.7490 0.7880
1389.922000 0.8000 0.8100 0.8110 0.8110 0.8100
1397.677883 0.8020 0.7930 0.7850 0.7720 0.7540
1405.426000 0.7350 0.7040 0.6730 0.6430 0.6310
1413.181883 0.6310 0.6340 0.6370 0.6390 0.6420
1420.930000 0.6500 0.6560 0.6640 0.6870 0.6880
1428.685883 0.6880 0.6790 0.6670 0.6500 0.6200
1436.434000 0.6000 0.5900 0.5720 0.5420 0.5110
1444.189883 0.4740 0.4320 0.4010 0.3670 0.3310
1451.938000 0.2930 0.2560 0.2190 0.1800 0.1690
1459.693883 0.1600 0.1580 0.1610 0.1890 0.2220
1467.442000 0.2360 0.2500 0.2780 0.3370 0.3620
1475.197883 0.4370 0.4990 0.5720 0.6260 0.6530
1482.946000 0.6620 0.6640 0.6590 0.6530 0.6510
1490.701883 0.6500 0.6450 0.6250 0.5830 0.5270
1498.450000 0.4930 0.4180 0.3430 0.3000 0.3000
1506.205883 0.3630 0.4120 0.4230 0.4580 0.5050
1513.953000 0.6030 0.6880 0.7400 0.7660 0.7880
1521.708883 0.8130 0.8190 0.8270 0.8300 0.8350
1529.457000 0.8380 0.8390 0.8420 0.8420 0.8420
1537.212883 0.8410 0.8330 0.8320 0.8320 0.8330
1544.961000 0.8330 0.8330 0.8320 0.8240 0.8080
1552.716883 0.7990 0.7880 0.7760 0.7740 0.7710
1560.465000 0.7710 0.7690 0.7630 0.7510 0.7340
1568.220883 0.7060 0.6710 0.6510 0.6360 0.5970
1575.969000 0.5420 0.5000 0.4990 0.5170 0.5760
1583.724883 0.6480 0.7020 0.7350 0.7580 0.7690
1591.473000 0.7740 0.7740 0.7690 0.7550 0.7410
1599.228883 0.7270 0.7120 0.6920 0.6710 0.6670
1606.977000 0.6590 0.6590 0.6790 0.6870 0.7060
1614.732883 0.7070 0.7060 0.6960 0.6960 0.7210
1622.481000 0.7480 0.7830 0.7930 0.7930 0.7740
1630.236883 0.7630 0.7460 0.6960 0.6640 0.6370
1637.984000 0.6370 0.6570 0.6680 0.7200 0.7430
1645.739883 0.7850 0.8380 0.8560 0.8800 0.8860
1653.488000 0.8910 0.8980 0.9020 0.9030 0.9060
1661.243883 0.9080 0.9090 0.9110 0.9120 0.9140
1668.992000 0.9160 0.9160 0.9160 0.9160 0.9160
1676.747883 0.9140 0.9140 0.9120 0.9120 0.9140
1684.496000 0.9160 0.9160 0.9170 0.9170 0.9170
1692.251883 0.9190 0.9220 0.9220 0.9230 0.9260
1700.000000 0.9280 0.9300 0.9300 0.9310 0.9310
1707.755883 0.9310 0.9310 0.9300 0.9300 0.9280
1715.504000 0.9280 0.9260 0.9260 0.9260 0.9260
1723.259883 0.9260 0.9260 0.9260 0.9260 0.9260
1731.008000 0.9250 0.9230 0.9230 0.9250 0.9250
1738.763883 0.9250 0.9250 0.9230 0.9220 0.9220
1746.512000 0.9220 0.9230 0.9230 0.9250 0.9250
1754.267883 0.9250 0.9250 0.9230 0.9230 0.9230
1762.016000 0.9220 0.9220 0.9220 0.9220 0.9220
1769.771883 0.9220 0.9220 0.9220 0.9220 0.9220
1777.519000 0.9220 0.9230 0.9250 0.9250 0.9250
1785.274883 0.9250 0.9250 0.9260 0.9260 0.9250
1793.023000 0.9250 0.9230 0.9230 0.9230 0.9250
1800.778883 0.9250 0.9230 0.9230 0.9230 0.9230
1808.527000 0.9230 0.9230 0.9220 0.9220 0.9220
1816.282883 0.9220 0.9200 0.9190 0.9190 0.9170
1824.031000 0.9170 0.9160 0.9160 0.9140 0.9140
1831.786883 0.9140 0.9140 0.9140 0.9140 0.9140
1839.535000 0.9120 0.9120 0.9120 0.9110 0.9110
1847.290883 0.9120 0.9120 0.9120 0.9120 0.9120
1855.039000 0.9110 0.9110 0.9090 0.9090 0.9090
1862.794883 0.9080 0.9080 0.9080 0.9060 0.9050
1870.543000 0.9050 0.9050 0.9030 0.9020 0.9020
1878.298883 0.9020 0.9020 0.9000 0.8980 0.8980
1886.047000 0.8970 0.8950 0.8920 0.8890 0.8880
1893.802883 0.8880 0.8860 0.8860 0.8840 0.8840
1901.550000 0.8830 0.8830 0.8800 0.8770 0.8750
1909.305883 0.8740 0.8720 0.8700 0.8690 0.8690
1917.054000 0.8670 0.8640 0.8630 0.8630 0.8600
1924.809883 0.8600 0.8560 0.8550 0.8520 0.8490
1932.558000 0.8440 0.8420 0.8390 0.8320 0.8270
1940.313883 0.8250 0.8210 0.8190 0.8180 0.8160
1948.062000 0.8130 0.8050 0.7930 0.7860 0.7820
1955.817883 0.7720 0.7690 0.7660 0.7650 0.7630
1963.566000 0.7620 0.7580 0.7570 0.7550 0.7550
1971.321883 0.7550 0.7550 0.7570 0.7570 0.7580
1979.070000 0.7580 0.7580 0.7580 0.7580 0.7580
1986.825883 0.7580 0.7600 0.7600 0.7650 0.7680
1994.574000 0.7690 0.7720 0.7770 0.7790 0.7800
2002.329883 0.7820 0.7830 0.7860 0.7880 0.7930
2010.078000 0.8020 0.8080 0.8100 0.8190 0.8220
2017.833883 0.8240 0.8270 0.8280 0.8300 0.8320
2025.581000 0.8330 0.8350 0.8360 0.8390 0.8410
2033.336883 0.8410 0.8440 0.8470 0.8490 0.8500
2041.085000 0.8500 0.8520 0.8520 0.8520 0.8520
2048.840883 0.8520 0.8520 0.8520 0.8520 0.8520
2056.589000 0.8500 0.8500 0.8500 0.8490 0.8490
2064.344883 0.8490 0.8490 0.8490 0.8490 0.8470
2072.093000 0.8470 0.8460 0.8440 0.8420 0.8420
2079.848883 0.8420 0.8440 0.8460 0.8460 0.8460
2087.597000 0.8460 0.8470 0.8470 0.8470 0.8470
2095.352883 0.8470 0.8470 0.8460 0.8460 0.8440
2103.101000 0.8420 0.8420 0.8410 0.8410 0.8420
2110.856883 0.8420 0.8440 0.8440 0.8460 0.8470
2118.605000 0.8490 0.8500 0.8520 0.8530 0.8550
2126.360883 0.8550 0.8560 0.8560 0.8580 0.8600
2134.109000 0.8600 0.8600 0.8600 0.8600 0.8610
2141.864883 0.8610 0.8610 0.8610 0.8610 0.8610
2149.612000 0.8610 0.8600 0.8600 0.8580 0.8580
2157.367883 0.8580 0.8580 0.8600 0.8610 0.8610
2165.116000 0.8610 0.8610 0.8610 0.8630 0.8630
2172.871883 0.8630 0.8630 0.8630 0.8630 0.8630
2180.620000 0.8630 0.8630 0.8630 0.8630 0.8630
2188.375883 0.8630 0.8630 0.8630 0.8640 0.8640
2196.124000 0.8640 0.8640 0.8640 0.8640 0.8640
2203.879883 0.8640 0.8640 0.8640 0.8640 0.8640
2211.628000 0.8630 0.8630 0.8630 0.8630 0.8630
2219.383883 0.8630 0.8610 0.8610 0.8610 0.8630
2227.132000 0.8630 0.8630 0.8630 0.8630 0.8630
2234.887883 0.8630 0.8630 0.8630 0.8630 0.8630
2242.636000 0.8610 0.8610 0.8610 0.8610 0.8610
2250.391883 0.8610 0.8560 0.8550 0.8550 0.8550
2258.140000 0.8550 0.8550 0.8550 0.8550 0.8550
2265.895883 0.8530 0.8520 0.8520 0.8500 0.8490
2273.643000 0.8490 0.8490 0.8490 0.8490 0.8490
2281.398883 0.8490 0.8490 0.8470 0.8470 0.8470
2289.147000 0.8460 0.8460 0.8460 0.8440 0.8440
2296.902883 0.8440 0.8420 0.8420 0.8390 0.8380
2304.651000 0.8360 0.8330 0.8280 0.8240 0.8180
2312.406883 0.8110 0.8080 0.8020 0.8000 0.7990
2320.155000 0.7940 0.7910 0.7910 0.7900 0.7880
2327.910883 0.7880 0.7880 0.7880 0.7880 0.7880
2335.659000 0.7880 0.7880 0.7880 0.7880 0.7880
2343.414883 0.7900 0.7900 0.7910 0.7910 0.7910
2351.163000 0.7900 0.7900 0.7900 0.7880 0.7860
2358.918883 0.7860 0.7880 0.7900 0.7900 0.7880
2366.667000 0.7860 0.7860 0.7880 0.7880 0.7880
2374.422883 0.7900 0.7910 0.7910 0.7930 0.7930
2382.171000 0.7940 0.7940 0.7930 0.7930 0.7930
2389.926883 0.7910 0.7880 0.7860 0.7860 0.7860
2397.675000 0.7860 0.7850 0.7830 0.7830 0.7820
2405.430883 0.7820 0.7820 0.7800 0.7800 0.7790
2413.178000 0.7790 0.7790 0.7770 0.7770 0.7770
2420.933883 0.7770 0.7790 0.7800 0.7800 0.7800
2428.682000 0.7800 0.7770 0.7760 0.7710 0.7690
2436.437883 0.7680 0.7660 0.7660 0.7650 0.7650
2444.186000 0.7630 0.7620 0.7620 0.7620 0.7580
2451.941883 0.7550 0.7540 0.7520 0.7510 0.7480
2459.690000 0.7430 0.7400 0.7340 0.7230 0.7150
2467.445883 0.7090 0.7010 0.7010 0.6950 0.6920
2475.194000 0.6880 0.6840 0.6820 0.6820 0.6820
2482.949883 0.6840 0.6840 0.6900 0.6930 0.6980
2490.698000 0.7020 0.7060 0.7070 0.7070 0.7070
2498.453883 0.7070 0.7060 0.7040 0.7040 0.7020
2506.202000 0.7010 0.7010 0.7010 0.6990 0.6980
2513.957883 0.6960 0.6950 0.6930 0.6930 0.6930
2521.706000 0.6920 0.6810 0.6700 0.6670 0.6650
2529.461883 0.6620 0.6570 0.6510 0.6480 0.6420
2537.209000 0.6320 0.6220 0.6080 0.6000 0.5890
2544.964883 0.5810 0.5640 0.5610 0.5550 0.5480
2552.713000 0.5420 0.5220 0.5020 0.4860 0.4510
2560.468883 0.4430 0.4430 0.4540 0.4690 0.5380
2568.217000 0.5420 0.5520 0.5530 0.5560 0.5610
2575.972883 0.5660 0.5760 0.5840 0.6010 0.6120
2583.721000 0.6220 0.6280 0.6320 0.6340 0.6360
2591.476883 0.6390 0.6400 0.6420 0.6420 0.6430
2599.225000 0.6430 0.6430 0.6430 0.6430 0.6420
2606.980883 0.6420 0.6400 0.6400 0.6390 0.6280
2614.729000 0.6230 0.6220 0.6120 0.6030 0.6010
2622.484883 0.5950 0.5860 0.5810 0.5780 0.5780
2630.233000 0.5760 0.5750 0.5750 0.5750 0.5730
2637.988883 0.5730 0.5730 0.5730 0.5720 0.5720
2645.737000 0.5720 0.5700 0.5690 0.5670 0.5660
2653.492883 0.5660 0.5660 0.5660 0.5660 0.5660
2661.240000 0.5660 0.5660 0.5660 0.5660 0.5660
2668.995883 0.5640 0.5590 0.5580 0.5550 0.5500
2676.744000 0.5480 0.5470 0.5470 0.5470 0.5480
2684.499883 0.5480 0.5500 0.5520 0.5530 0.5530
2692.248000 0.5550 0.5550 0.5530 0.5520 0.5500
2700.003883 0.5470 0.5440 0.5410 0.5390 0.5360
2707.752000 0.5340 0.5330 0.5300 0.5280 0.5250
2715.507883 0.5240 0.5220 0.5200 0.5190 0.5130
2723.256000 0.5050 0.5020 0.4990 0.4890 0.4850
2731.011883 0.4830 0.4830 0.4830 0.4830 0.4830
2738.760000 0.4850 0.4850 0.4850 0.4820 0.4800
2746.515883 0.4770 0.4740 0.4710 0.4710 0.4690
2754.264000 0.4680 0.4680 0.4660 0.4650 0.4610
2762.019883 0.4510 0.4440 0.4330 0.4290 0.4260
2769.768000 0.4190 0.4150 0.4130 0.4120 0.4100
2777.523883 0.4020 0.3990 0.3910 0.3850 0.3840
2785.271000 0.3810 0.3790 0.3770 0.3770 0.3790
2793.026883 0.3810 0.3840 0.3850 0.3850 0.3820
2800.775000 0.3790 0.3760 0.3700 0.3650 0.3600
2808.530883 0.3530 0.3490 0.3420 0.3310 0.3230
2816.279000 0.3140 0.3040 0.3030 0.2980 0.2860
2824.034883 0.2790 0.2670 0.2620 0.2530 0.2500
2831.783000 0.2340 0.2280 0.2130 0.1990 0.1780
2839.538883 0.1520 0.1300 0.1100 0.0940 0.0740
2847.287000 0.0690 0.0630 0.0590 0.0550 0.0540
2855.042883 0.0540 0.0520 0.0520 0.0520 0.0520
2862.791000 0.0520 0.0540 0.0540 0.0540 0.0550
2870.546883 0.0570 0.0570 0.0590 0.0590 0.0600
2878.295000 0.0600 0.0600 0.0590 0.0590 0.0590
2886.050883 0.0570 0.0570 0.0550 0.0540 0.0520
2893.799000 0.0510 0.0490 0.0460 0.0460 0.0450
2901.554883 0.0430 0.0430 0.0430 0.0410 0.0410
2909.302000 0.0410 0.0410 0.0410 0.0410 0.0410
2917.057883 0.0400 0.0400 0.0400 0.0380 0.0380
2924.806000 0.0380 0.0380 0.0380 0.0380 0.0380
2932.561883 0.0400 0.0400 0.0400 0.0400 0.0400
2940.310000 0.0400 0.0400 0.0400 0.0400 0.0400
2948.065883 0.0400 0.0400 0.0400 0.0410 0.0410
2955.814000 0.0410 0.0430 0.0430 0.0450 0.0450
2963.569883 0.0480 0.0490 0.0490 0.0510 0.0510
2971.318000 0.0510 0.0520 0.0540 0.0550 0.0620
2979.073883 0.0710 0.0790 0.0880 0.0900 0.0930
2986.822000 0.0990 0.1010 0.1020 0.1020 0.1040
2994.577883 0.1040 0.1040 0.1040 0.1040 0.1020
3002.326000 0.1020 0.1020 0.1020 0.1020 0.1020
3010.081883 0.1010 0.1010 0.1010 0.1010 0.1010
3017.830000 0.1010 0.1010 0.1010 0.1020 0.1020
3025.585883 0.1020 0.1040 0.1040 0.1040 0.1040
3033.333000 0.1050 0.1050 0.1070 0.1070 0.1080
3041.088883 0.1080 0.1100 0.1160 0.1220 0.1290
3048.837000 0.1320 0.1360 0.1410 0.1460 0.1500
3056.592883 0.1530 0.1580 0.1630 0.1660 0.1690
3064.341000 0.1720 0.1740 0.1770 0.1770 0.1780
3072.096883 0.1780 0.1810 0.1810 0.1830 0.1830
3079.845000 0.1850 0.1850 0.1860 0.1890 0.1940
3087.600883 0.1950 0.1970 0.1990 0.2000 0.2030
3095.349000 0.2050 0.2080 0.2110 0.2170 0.2220
3103.104883 0.2270 0.2340 0.2410 0.2500 0.2510
3110.853000 0.2550 0.2580 0.2590 0.2610 0.2620
3118.608883 0.2640 0.2650 0.2670 0.2700 0.2760
3126.357000 0.2790 0.2810 0.2830 0.2830 0.2840
3134.112883 0.2900 0.3000 0.3010 0.3110 0.3180
3141.861000 0.3200 0.3210 0.3280 0.3310 0.3420
3149.616883 0.3510 0.3570 0.3650 0.3700 0.3810
3157.364000 0.3850 0.3930 0.4040 0.4100 0.4190
3165.119883 0.4290 0.4400 0.4520 0.4580 0.4710
3172.868000 0.4770 0.4820 0.4850 0.5000 0.5030
3180.623883 0.5160 0.5200 0.5270 0.5330 0.5390
3188.372000 0.5450 0.5480 0.5500 0.5520 0.5520
3196.127883 0.5530 0.5560 0.5560 0.5550 0.5530
3203.876000 0.5520 0.5520 0.5530 0.5550 0.5560
3211.631883 0.5560 0.5550 0.5530 0.5520 0.5480
3219.380000 0.5450 0.5440 0.5420 0.5420 0.5440
3227.135883 0.5450 0.5480 0.5520 0.5590 0.5640
3234.884000 0.5670 0.5700 0.5730 0.5760 0.5810
3242.639883 0.5830 0.5950 0.6040 0.6140 0.6250
3250.388000 0.6390 0.6420 0.6510 0.6530 0.6600
3258.143883 0.6680 0.6740 0.6820 0.6870 0.6880
3265.892000 0.6960 0.7010 0.7040 0.7060 0.7070
3273.647883 0.7090 0.7100 0.7100 0.7120 0.7130
3281.395000 0.7130 0.7130 0.7120 0.7100 0.7100
3289.150883 0.7090 0.7070 0.7060 0.7040 0.7020
3296.899000 0.7010 0.7010 0.6990 0.6990 0.6980
3304.654883 0.6980 0.6960 0.6930 0.6920 0.6900
3312.403000 0.6880 0.6880 0.6840 0.6810 0.6790
3320.158883 0.6760 0.6700 0.6670 0.6650 0.6640
3327.907000 0.6600 0.6590 0.6530 0.6500 0.6400
3335.662883 0.6360 0.6310 0.6230 0.6200 0.6170
3343.411000 0.6140 0.6120 0.6110 0.6000 0.5970
3351.166883 0.5940 0.5900 0.5890 0.5830 0.5750
3358.915000 0.5670 0.5590 0.5520 0.5390 0.5270
3366.670883 0.5200 0.5190 0.5110 0.5030 0.5000
3374.419000 0.4850 0.4750 0.4690 0.4610 0.4490
3382.174883 0.4290 0.4040 0.3930 0.3850 0.3700
3389.923000 0.3560 0.3390 0.3250 0.3110 0.3030
3397.678883 0.2870 0.2750 0.2640 0.2610 0.2590
3405.427000 0.2590 0.2590 0.2580 0.2580 0.2580
3413.182883 0.2580 0.2580 0.2560 0.2560 0.2550
3420.930000 0.2530 0.2510 0.2410 0.2390 0.2360
3428.685883 0.2330 0.2310 0.2300 0.2300 0.2300
3436.434000 0.2310 0.2330 0.2360 0.2410 0.2420
3444.189883 0.2440 0.2500 0.2510 0.2620 0.2670
3451.938000 0.2720 0.2760 0.2810 0.2900 0.3010
3459.693883 0.3030 0.3180 0.3280 0.3340 0.3510
3467.442000 0.3590 0.3700 0.3790 0.3980 0.4090
3475.197883 0.4230 0.4290 0.4350 0.4510 0.4600
3482.946000 0.4790 0.4930 0.5020 0.5080 0.5300
3490.701883 0.5520 0.5560 0.5620 0.5720 0.5940
3498.450000 0.6040 0.6140 0.6220 0.6280 0.6290
3506.205883 0.6370 0.6480 0.6560 0.6700 0.6790
3513.954000 0.6820 0.6870 0.6900 0.6960 0.7010
3521.709883 0.7060 0.7090 0.7130 0.7230 0.7290
3529.458000 0.7350 0.7370 0.7400 0.7430 0.7480
3537.213883 0.7510 0.7520 0.7550 0.7650 0.7690
3544.961000 0.7690 0.7710 0.7710 0.7720 0.7770
3552.716883 0.7820 0.7820 0.7850 0.7880 0.7900
3560.465000 0.7900 0.7910 0.7940 0.7960 0.7960
3568.220883 0.7970 0.7970 0.7970 0.7990 0.8000
3575.969000 0.8040 0.8070 0.8080 0.8080 0.8080
3583.724883 0.8080 0.8100 0.8100 0.8130 0.8140
3591.473000 0.8180 0.8240 0.8270 0.8280 0.8320
3599.228883 0.8380 0.8390 0.8410 0.8410 0.8420
3606.977000 0.8420 0.8440 0.8440 0.8460 0.8470
3614.732883 0.8470 0.8490 0.8500 0.8500 0.8500
3622.481000 0.8500 0.8520 0.8530 0.8530 0.8520
3630.236883 0.8520 0.8500 0.8500 0.8500 0.8500
3637.985000 0.8500 0.8500 0.8500 0.8500 0.8500
3645.740883 0.8500 0.8500 0.8520 0.8530 0.8550
3653.489000 0.8550 0.8560 0.8560 0.8560 0.8560
3661.244883 0.8560 0.8560 0.8550 0.8550 0.8530
3668.992000 0.8520 0.8500 0.8490 0.8470 0.8470
3676.747883 0.8470 0.8470 0.8470 0.8490 0.8490
3684.496000 0.8490 0.8490 0.8490 0.8470 0.8460
3692.251883 0.8440 0.8440
##END=
