##TITLE=4-OXO-2-PYRIDINIUM-3-(2,4,6-TRIOXO-1,3-DIAZACYCLOHEXYLIDENE-5)-1-NAPHTHOXIDE
##JCAMP-DX=4.24
##DATA TYPE=INFRARED SPECTRUM
##CLASS=COBLENTZ
##ORIGIN=EASTMAN KODAK COMPANY, RESEARCH LABORATORIES, ROCHESTER, N.Y.
##OWNER=COBLENTZ SOCIETY
Collection (C) 2018 copyright by the U.S. Secretary of Commerce
on behalf of the United States of America. All rights reserved.
##DATE=Not specified, most likely prior to 1970
##NAMES=5-(4-hydroxy-1-oxo-3-(1.lambda.<5>-pyridin-1-yl)-2(1H)-naphthalenylidene)-2,4,6(1H,3H,5H)-pyrimidinetrione
##MOLFORM=C19 H11 N3 O5
##MP=345 C
##SOURCE REFERENCE=COBLENTZ NO. 4431
##$NIST ID=B6004431
##$NIST SOURCE=COBLENTZ
##$NIST IMAGE=cob4431
##SPECTROMETER/DATA SYSTEM=Not specified, most likely a prism, grating, or hybrid spectrometer.
##STATE=SOLID (KBr PRESSING)
##PATH LENGTH=
$$ SEE J. ORG. CHEM., VOL. 28, PAGE 3502 (1963)
##SAMPLING PROCEDURE=TRANSMISSION
##RESOLUTION=4
##DATA PROCESSING=DIGITIZED BY NIST FROM HARD COPY
##XUNITS=MICROMETERS
##YUNITS=TRANSMITTANCE
##XFACTOR=1.000000
##YFACTOR=1
##DELTAX=000.006654
##FIRSTX=2.007
##LASTX=16
##FIRSTY=0.681
##MAXX=16
##MINX=2.007
##MAXY=0.895
##MINY=0.086
##NPOINTS=2104
##XYDATA=(X++(Y..Y))
2.007000 0.6810 0.6830 0.6830 0.6850 0.6850
2.040286 0.6850 0.6850 0.6860 0.6860 0.6860
2.073000 0.6860 0.6880 0.6880 0.6900 0.6900
2.106286 0.6910 0.6930 0.6930 0.6960 0.6980
2.140000 0.6980 0.6990 0.7010 0.7010 0.7040
2.173286 0.7060 0.7070 0.7090 0.7090 0.7110
2.206000 0.7110 0.7110 0.7110 0.7110 0.7110
2.239286 0.7110 0.7110 0.7110 0.7120 0.7120
2.273000 0.7120 0.7120 0.7140 0.7160 0.7160
2.306286 0.7170 0.7170 0.7190 0.7190 0.7190
2.339000 0.7210 0.7210 0.7210 0.7210 0.7210
2.372286 0.7210 0.7220 0.7220 0.7220 0.7220
2.406000 0.7220 0.7220 0.7220 0.7220 0.7220
2.439286 0.7220 0.7220 0.7220 0.7220 0.7220
2.472000 0.7220 0.7220 0.7210 0.7210 0.7210
2.505286 0.7210 0.7210 0.7210 0.7210 0.7210
2.539000 0.7220 0.7220 0.7240 0.7250 0.7290
2.572286 0.7300 0.7300 0.7320 0.7340 0.7380
2.606000 0.7400 0.7420 0.7430 0.7450 0.7470
2.639286 0.7470 0.7470 0.7480 0.7480 0.7480
2.672000 0.7480 0.7480 0.7480 0.7480 0.7470
2.705286 0.7470 0.7450 0.7420 0.7350 0.7220
2.739000 0.7090 0.7010 0.6940 0.6850 0.6720
2.772286 0.6550 0.6360 0.6180 0.5980 0.5820
2.805000 0.5660 0.5530 0.5480 0.5390 0.5230
2.838286 0.5130 0.5020 0.4920 0.4770 0.4680
2.872000 0.4580 0.4530 0.4510 0.4500 0.4480
2.905286 0.4460 0.4420 0.4380 0.4380 0.4400
2.938000 0.4430 0.4460 0.4500 0.4560 0.4580
2.971286 0.4600 0.4600 0.4530 0.4420 0.4300
3.005000 0.4170 0.4020 0.3840 0.3670 0.3580
3.038286 0.3580 0.3630 0.3730 0.4060 0.4200
3.071000 0.4320 0.4370 0.4380 0.4420 0.4450
3.104286 0.4450 0.4460 0.4460 0.4460 0.4480
3.138000 0.4480 0.4480 0.4480 0.4480 0.4460
3.171286 0.4460 0.4400 0.4380 0.4320 0.4290
3.204000 0.4250 0.4220 0.4200 0.4220 0.4330
3.237286 0.4420 0.4460 0.4450 0.4380 0.4290
3.271000 0.4220 0.4190 0.4170 0.4190 0.4270
3.304286 0.4320 0.4420 0.4560 0.4580 0.4610
3.337000 0.4640 0.4690 0.4760 0.4770 0.4770
3.370286 0.4770 0.4760 0.4760 0.4730 0.4710
3.404000 0.4660 0.4630 0.4610 0.4640 0.4770
3.437286 0.4940 0.5080 0.5230 0.5360 0.5460
3.471000 0.5510 0.5530 0.5560 0.5560 0.5530
3.504286 0.5510 0.5490 0.5480 0.5480 0.5480
3.537000 0.5490 0.5490 0.5510 0.5570 0.5640
3.570286 0.5670 0.5690 0.5700 0.5720 0.5750
3.604000 0.5790 0.5820 0.5880 0.5950 0.6050
3.637286 0.6150 0.6310 0.6440 0.6550 0.6650
3.670000 0.6760 0.6880 0.6910 0.6940 0.6980
3.703286 0.6980 0.6980 0.6990 0.7010 0.7040
3.737000 0.7090 0.7170 0.7240 0.7300 0.7300
3.770286 0.7380 0.7400 0.7420 0.7430 0.7470
3.803000 0.7480 0.7500 0.7500 0.7500 0.7520
3.836286 0.7600 0.7660 0.7680 0.7680 0.7690
3.870000 0.7710 0.7730 0.7740 0.7760 0.7780
3.903286 0.7790 0.7830 0.7860 0.7890 0.7920
3.936000 0.7940 0.7940 0.7940 0.7940 0.7970
3.969286 0.7970 0.7970 0.7970 0.7990 0.8000
4.003000 0.8020 0.8040 0.8070 0.8090 0.8090
4.036286 0.8100 0.8120 0.8140 0.8140 0.8140
4.069000 0.8140 0.8140 0.8150 0.8170 0.8180
4.102286 0.8180 0.8180 0.8200 0.8230 0.8270
4.136000 0.8280 0.8310 0.8330 0.8330 0.8310
4.169286 0.8280 0.8270 0.8270 0.8270 0.8270
4.202000 0.8280 0.8280 0.8300 0.8310 0.8310
4.235286 0.8330 0.8350 0.8350 0.8360 0.8380
4.269000 0.8400 0.8430 0.8480 0.8490 0.8510
4.302286 0.8540 0.8560 0.8580 0.8580 0.8580
4.336000 0.8580 0.8580 0.8560 0.8560 0.8540
4.369286 0.8530 0.8530 0.8510 0.8490 0.8490
4.402000 0.8490 0.8480 0.8480 0.8480 0.8490
4.435286 0.8490 0.8510 0.8530 0.8530 0.8540
4.469000 0.8560 0.8560 0.8560 0.8560 0.8540
4.502286 0.8540 0.8530 0.8530 0.8530 0.8560
4.535000 0.8560 0.8580 0.8580 0.8590 0.8620
4.568286 0.8640 0.8610 0.8580 0.8540 0.8510
4.602000 0.8490 0.8510 0.8530 0.8560 0.8590
4.635286 0.8590 0.8590 0.8580 0.8580 0.8560
4.668000 0.8540 0.8540 0.8540 0.8530 0.8530
4.701286 0.8540 0.8540 0.8540 0.8540 0.8540
4.735000 0.8540 0.8540 0.8540 0.8540 0.8540
4.768286 0.8540 0.8540 0.8540 0.8540 0.8540
4.801000 0.8540 0.8540 0.8540 0.8540 0.8560
4.834286 0.8560 0.8560 0.8580 0.8580 0.8610
4.868000 0.8620 0.8660 0.8670 0.8670 0.8690
4.901286 0.8710 0.8710 0.8710 0.8710 0.8720
4.934000 0.8720 0.8720 0.8740 0.8740 0.8740
4.967286 0.8740 0.8740 0.8740 0.8740 0.8740
5.001000 0.8740 0.8760 0.8760 0.8760 0.8760
5.034286 0.8760 0.8760 0.8760 0.8760 0.8760
5.067000 0.8760 0.8760 0.8760 0.8770 0.8770
5.100286 0.8770 0.8770 0.8770 0.8770 0.8770
5.134000 0.8770 0.8770 0.8770 0.8790 0.8790
5.167286 0.8790 0.8790 0.8790 0.8790 0.8800
5.201000 0.8800 0.8800 0.8800 0.8800 0.8800
5.234286 0.8820 0.8840 0.8890 0.8930 0.8950
5.267000 0.8950 0.8920 0.8890 0.8890 0.8890
5.300286 0.8890 0.8890 0.8890 0.8890 0.8870
5.334000 0.8870 0.8870 0.8820 0.8760 0.8710
5.367286 0.8710 0.8800 0.8820 0.8870 0.8890
5.400000 0.8900 0.8900 0.8890 0.8850 0.8850
5.433286 0.8890 0.8920 0.8930 0.8930 0.8890
5.467000 0.8870 0.8790 0.8710 0.8690 0.8710
5.500286 0.8800 0.8800 0.8790 0.8710 0.8690
5.533000 0.8660 0.8660 0.8660 0.8660 0.8660
5.566286 0.8660 0.8660 0.8640 0.8610 0.8590
5.600000 0.8580 0.8540 0.8410 0.8310 0.8280
5.633286 0.8180 0.8100 0.8000 0.7960 0.7960
5.666000 0.7840 0.7740 0.7680 0.7580 0.7500
5.699286 0.7380 0.7290 0.7190 0.7090 0.7040
5.733000 0.6990 0.6980 0.6850 0.6680 0.6490
5.766286 0.6240 0.6030 0.5880 0.5840 0.5700
5.799000 0.5440 0.4840 0.4070 0.3700 0.3420
5.832286 0.3270 0.3180 0.3110 0.3030 0.2780
5.866000 0.2430 0.1870 0.1580 0.1480 0.1410
5.899286 0.1400 0.1400 0.1380 0.1250 0.1170
5.933000 0.1010 0.0960 0.0910 0.0890 0.0890
5.966286 0.0960 0.1040 0.1150 0.1200 0.1320
5.999000 0.1500 0.1680 0.1840 0.1890 0.1810
6.032286 0.1710 0.1610 0.1370 0.1300 0.1230
6.066000 0.1220 0.1220 0.1280 0.1370 0.1530
6.099286 0.1680 0.1790 0.1870 0.1900 0.1990
6.132000 0.2030 0.2020 0.1870 0.1590 0.1350
6.165286 0.1320 0.1300 0.1300 0.1280 0.1280
6.199000 0.1100 0.1020 0.0880 0.0860 0.0860
6.232286 0.0880 0.0890 0.0920 0.0940 0.1010
6.265000 0.1100 0.1170 0.1200 0.1250 0.1320
6.298286 0.1350 0.1350 0.1320 0.1280 0.1280
6.332000 0.1300 0.1380 0.1480 0.1680 0.1890
6.365286 0.1990 0.2000 0.2030 0.2070 0.2120
6.398000 0.2130 0.2150 0.2160 0.2160 0.2160
6.431286 0.2180 0.2260 0.2380 0.2590 0.2830
6.465000 0.3030 0.3210 0.3290 0.3370 0.3400
6.498286 0.3580 0.3930 0.4240 0.4480 0.4730
6.531000 0.5020 0.5280 0.5410 0.5490 0.5570
6.564286 0.5610 0.5670 0.5740 0.5870 0.6000
6.598000 0.6030 0.6100 0.6130 0.6150 0.6160
6.631286 0.6160 0.6190 0.6280 0.6310 0.6370
6.664000 0.6390 0.6370 0.6280 0.6210 0.6190
6.697286 0.5920 0.5770 0.5620 0.5560 0.5530
6.731000 0.5510 0.5440 0.5430 0.5230 0.5070
6.764286 0.5000 0.4990 0.4870 0.4820 0.4690
6.798000 0.4580 0.4250 0.3800 0.3450 0.2880
6.831286 0.2800 0.2870 0.3140 0.3340 0.3420
6.864000 0.3470 0.3490 0.3490 0.3470 0.3160
6.897286 0.2930 0.2740 0.2570 0.2490 0.2460
6.931000 0.2410 0.2360 0.2310 0.2300 0.2280
6.964286 0.2280 0.2280 0.2280 0.2300 0.2340
6.997000 0.2430 0.2470 0.2520 0.2540 0.2570
7.030286 0.2650 0.2780 0.2960 0.3030 0.3080
7.064000 0.3160 0.3260 0.3390 0.3470 0.3470
7.097286 0.3370 0.3050 0.2740 0.2520 0.2360
7.130000 0.2300 0.2300 0.2390 0.2570 0.2700
7.163286 0.2880 0.3000 0.3180 0.3290 0.3440
7.197000 0.3570 0.3680 0.3760 0.3780 0.3880
7.230286 0.3980 0.3980 0.3880 0.3750 0.3580
7.263000 0.3570 0.3530 0.3550 0.3680 0.3830
7.296286 0.4040 0.4270 0.4450 0.4560 0.4680
7.330000 0.4790 0.4860 0.4870 0.4870 0.4870
7.363286 0.4870 0.4870 0.4870 0.4870 0.4910
7.396000 0.4990 0.5080 0.5120 0.5150 0.5180
7.429286 0.5280 0.5330 0.5360 0.5360 0.5310
7.463000 0.5280 0.5180 0.5170 0.5120 0.5070
7.496286 0.4990 0.4870 0.4730 0.4430 0.4150
7.529000 0.3980 0.3470 0.3290 0.3180 0.3140
7.562286 0.3080 0.3060 0.3140 0.3270 0.3550
7.596000 0.3830 0.4060 0.4290 0.4330 0.4400
7.629286 0.4420 0.4430 0.4460 0.4460 0.4460
7.663000 0.4460 0.4380 0.4300 0.4290 0.4270
7.696286 0.4190 0.3940 0.3580 0.3290 0.2950
7.729000 0.2540 0.2180 0.1790 0.1540 0.1350
7.762286 0.1200 0.1120 0.1070 0.1040 0.0990
7.796000 0.0970 0.0990 0.1320 0.1450 0.1690
7.829286 0.1840 0.2050 0.2330 0.2490 0.2740
7.862000 0.2980 0.3240 0.3470 0.3500 0.3600
7.895286 0.3730 0.3940 0.4040 0.4170 0.4220
7.929000 0.4430 0.4730 0.5020 0.5170 0.5220
7.962286 0.5260 0.5260 0.5280 0.5300 0.5360
7.995000 0.5460 0.5540 0.5660 0.5740 0.5800
8.028286 0.5880 0.5980 0.6030 0.6100 0.6180
8.062000 0.6190 0.6310 0.6460 0.6600 0.6680
8.095286 0.6720 0.6810 0.6900 0.6990 0.7060
8.128000 0.7090 0.7110 0.7160 0.7170 0.7190
8.161286 0.7210 0.7220 0.7220 0.7220 0.7220
8.195000 0.7210 0.7190 0.7140 0.7140 0.7110
8.228286 0.7070 0.6900 0.6750 0.6590 0.6490
8.261000 0.6470 0.6420 0.6390 0.6310 0.6260
8.294286 0.6190 0.6180 0.6150 0.6110 0.6080
8.328000 0.6010 0.5930 0.5900 0.5880 0.5900
8.361286 0.6050 0.6290 0.6540 0.6750 0.6850
8.394000 0.7010 0.7140 0.7220 0.7250 0.7290
8.427286 0.7320 0.7380 0.7450 0.7500 0.7520
8.461000 0.7530 0.7550 0.7580 0.7600 0.7610
8.494286 0.7610 0.7630 0.7650 0.7660 0.7660
8.528000 0.7680 0.7680 0.7660 0.7650 0.7630
8.561286 0.7630 0.7600 0.7580 0.7560 0.7550
8.594000 0.7520 0.7470 0.7430 0.7380 0.7350
8.627286 0.7340 0.7300 0.7270 0.7240 0.7220
8.661000 0.7220 0.7240 0.7290 0.7320 0.7380
8.694286 0.7450 0.7520 0.7580 0.7630 0.7650
8.727000 0.7660 0.7660 0.7650 0.7650 0.7630
8.760286 0.7610 0.7610 0.7610 0.7610 0.7610
8.794000 0.7580 0.7560 0.7530 0.7500 0.7500
8.827286 0.7420 0.7380 0.7290 0.7160 0.6990
8.860000 0.6880 0.6780 0.6680 0.6520 0.6420
8.893286 0.6360 0.6320 0.6310 0.6290 0.6290
8.927000 0.6490 0.6750 0.6940 0.7040 0.7160
8.960286 0.7300 0.7400 0.7420 0.7420 0.7420
8.993000 0.7400 0.7370 0.7350 0.7350 0.7320
9.026286 0.7300 0.7270 0.7250 0.7220 0.7210
9.060000 0.7170 0.7140 0.7110 0.7090 0.7110
9.093286 0.7160 0.7210 0.7250 0.7300 0.7340
9.126000 0.7370 0.7370 0.7370 0.7370 0.7370
9.159286 0.7370 0.7380 0.7400 0.7470 0.7480
9.193000 0.7500 0.7480 0.7340 0.7250 0.7190
9.226286 0.7110 0.7030 0.6940 0.6930 0.6940
9.260000 0.6980 0.7090 0.7170 0.7210 0.7270
9.293286 0.7290 0.7370 0.7380 0.7400 0.7400
9.326000 0.7400 0.7430 0.7450 0.7470 0.7470
9.359286 0.7470 0.7430 0.7420 0.7400 0.7400
9.393000 0.7370 0.7300 0.7300 0.7290 0.7250
9.426286 0.7220 0.7220 0.7240 0.7270 0.7320
9.459000 0.7340 0.7370 0.7380 0.7400 0.7380
9.492286 0.7350 0.7320 0.7290 0.7270 0.7190
9.526000 0.7140 0.7120 0.7140 0.7170 0.7220
9.559286 0.7240 0.7250 0.7250 0.7250 0.7250
9.592000 0.7270 0.7270 0.7270 0.7290 0.7290
9.625286 0.7300 0.7300 0.7320 0.7320 0.7320
9.659000 0.7340 0.7340 0.7370 0.7380 0.7470
9.692286 0.7480 0.7500 0.7530 0.7520 0.7500
9.725000 0.7470 0.7370 0.7240 0.7170 0.7160
9.758286 0.7170 0.7170 0.7210 0.7210 0.7190
9.792000 0.7070 0.6980 0.6700 0.6390 0.6230
9.825286 0.6100 0.5980 0.5970 0.5980 0.6060
9.858000 0.6160 0.6280 0.6390 0.6490 0.6570
9.891286 0.6630 0.6700 0.6830 0.6940 0.6990
9.925000 0.7070 0.7210 0.7270 0.7320 0.7380
9.958286 0.7480 0.7580 0.7630 0.7680 0.7710
9.991000 0.7760 0.7810 0.7840 0.7920 0.7970
10.024286 0.8000 0.8020 0.8020 0.8020 0.8020
10.058000 0.8020 0.8040 0.8050 0.8090 0.8170
10.091286 0.8170 0.8180 0.8200 0.8220 0.8270
10.125000 0.8280 0.8280 0.8270 0.8230 0.8230
10.158286 0.8270 0.8310 0.8330 0.8360 0.8380
10.191000 0.8360 0.8350 0.8310 0.8300 0.8280
10.224286 0.8280 0.8280 0.8300 0.8300 0.8300
10.258000 0.8300 0.8300 0.8280 0.8280 0.8270
10.291286 0.8230 0.8220 0.8200 0.8120 0.8070
10.324000 0.8050 0.8070 0.8090 0.8120 0.8140
10.357286 0.8170 0.8180 0.8280 0.8300 0.8310
10.391000 0.8350 0.8360 0.8380 0.8380 0.8380
10.424286 0.8380 0.8380 0.8400 0.8450 0.8450
10.457000 0.8430 0.8400 0.8380 0.8360 0.8360
10.490286 0.8360 0.8360 0.8360 0.8360 0.8380
10.524000 0.8380 0.8380 0.8380 0.8400 0.8400
10.557286 0.8380 0.8380 0.8350 0.8350 0.8400
10.590000 0.8410 0.8430 0.8410 0.8410 0.8410
10.623286 0.8430 0.8430 0.8450 0.8460 0.8460
10.657000 0.8480 0.8480 0.8480 0.8460 0.8450
10.690286 0.8430 0.8430 0.8410 0.8410 0.8410
10.723000 0.8410 0.8410 0.8410 0.8410 0.8410
10.756286 0.8400 0.8400 0.8400 0.8400 0.8400
10.790000 0.8400 0.8400 0.8400 0.8430 0.8430
10.823286 0.8430 0.8410 0.8410 0.8410 0.8410
10.856000 0.8410 0.8410 0.8410 0.8400 0.8380
10.889286 0.8380 0.8380 0.8380 0.8360 0.8360
10.923000 0.8350 0.8330 0.8310 0.8300 0.8280
10.956286 0.8280 0.8280 0.8270 0.8270 0.8250
10.990000 0.8220 0.8180 0.8140 0.8090 0.8050
11.023286 0.8000 0.7990 0.7970 0.7920 0.7910
11.056000 0.7890 0.7870 0.7860 0.7870 0.7870
11.089286 0.7860 0.7830 0.7790 0.7730 0.7680
11.123000 0.7560 0.7500 0.7500 0.7520 0.7530
11.156286 0.7560 0.7560 0.7560 0.7560 0.7550
11.189000 0.7520 0.7500 0.7420 0.7400 0.7380
11.222286 0.7370 0.7370 0.7370 0.7320 0.7300
11.256000 0.7290 0.7290 0.7290 0.7270 0.7270
11.289286 0.7290 0.7300 0.7320 0.7350 0.7370
11.322000 0.7370 0.7350 0.7350 0.7370 0.7370
11.355286 0.7370 0.7380 0.7380 0.7380 0.7380
11.389000 0.7380 0.7380 0.7380 0.7370 0.7340
11.422286 0.7300 0.7290 0.7270 0.7270 0.7250
11.455000 0.7210 0.7170 0.7120 0.7110 0.7090
11.488286 0.7070 0.7090 0.7160 0.7190 0.7250
11.522000 0.7290 0.7300 0.7320 0.7320 0.7320
11.555286 0.7320 0.7320 0.7320 0.7340 0.7350
11.588000 0.7400 0.7480 0.7480 0.7530 0.7550
11.621286 0.7550 0.7560 0.7560 0.7560 0.7560
11.655000 0.7560 0.7560 0.7580 0.7580 0.7600
11.688286 0.7600 0.7600 0.7580 0.7580 0.7560
11.721000 0.7520 0.7500 0.7480 0.7480 0.7470
11.754286 0.7470 0.7470 0.7470 0.7470 0.7480
11.788000 0.7480 0.7500 0.7500 0.7550 0.7600
11.821286 0.7610 0.7630 0.7630 0.7630 0.7630
11.855000 0.7630 0.7630 0.7630 0.7650 0.7650
11.888286 0.7650 0.7650 0.7650 0.7650 0.7630
11.921000 0.7630 0.7630 0.7630 0.7610 0.7610
11.954286 0.7610 0.7610 0.7610 0.7600 0.7580
11.988000 0.7550 0.7470 0.7430 0.7400 0.7400
12.021286 0.7380 0.7370 0.7340 0.7300 0.7290
12.054000 0.7220 0.7170 0.7120 0.7090 0.7090
12.087286 0.7070 0.7070 0.7070 0.7070 0.7070
12.121000 0.7070 0.7070 0.7090 0.7090 0.7110
12.154286 0.7140 0.7240 0.7270 0.7290 0.7290
12.187000 0.7290 0.7290 0.7270 0.7270 0.7250
12.220286 0.7220 0.7170 0.7120 0.7090 0.7070
12.254000 0.7070 0.6960 0.6900 0.6810 0.6620
12.287286 0.6570 0.6520 0.6540 0.6570 0.6650
12.320000 0.6700 0.6760 0.6900 0.6910 0.6910
12.353286 0.6930 0.6930 0.6930 0.6930 0.6930
12.387000 0.6930 0.6910 0.6900 0.6880 0.6860
12.420286 0.6800 0.6730 0.6700 0.6680 0.6670
12.453000 0.6620 0.6570 0.6570 0.6520 0.6460
12.486286 0.6420 0.6370 0.6310 0.6260 0.6240
12.520000 0.6230 0.6210 0.6210 0.6230 0.6240
12.553286 0.6260 0.6290 0.6320 0.6340 0.6370
12.587000 0.6410 0.6460 0.6520 0.6630 0.6670
12.620286 0.6680 0.6680 0.6680 0.6680 0.6680
12.653000 0.6720 0.6800 0.6860 0.6880 0.6900
12.686286 0.6900 0.6900 0.6880 0.6830 0.6800
12.720000 0.6760 0.6730 0.6700 0.6680 0.6680
12.753286 0.6670 0.6600 0.6500 0.6410 0.6290
12.786000 0.6190 0.6030 0.5870 0.5720 0.5610
12.819286 0.5440 0.5380 0.5200 0.5100 0.5040
12.853000 0.5040 0.5150 0.5310 0.5490 0.5570
12.886286 0.5610 0.5660 0.5660 0.5670 0.5690
12.919000 0.5690 0.5670 0.5610 0.5570 0.5570
12.952286 0.5510 0.5390 0.5220 0.5100 0.4990
12.986000 0.4950 0.4890 0.4840 0.4840 0.4870
13.019286 0.5070 0.5130 0.5250 0.5390 0.5540
13.052000 0.5670 0.5800 0.5950 0.6080 0.6190
13.085286 0.6440 0.6500 0.6590 0.6620 0.6700
13.119000 0.6780 0.6860 0.6940 0.7010 0.7060
13.152286 0.7070 0.7090 0.7110 0.7170 0.7210
13.185000 0.7220 0.7270 0.7290 0.7290 0.7290
13.218286 0.7270 0.7220 0.7210 0.7190 0.7170
13.252000 0.7140 0.7140 0.7120 0.7120 0.7120
13.285286 0.7110 0.7110 0.7090 0.7070 0.6990
13.318000 0.6980 0.6980 0.6940 0.6930 0.6930
13.351286 0.6910 0.6900 0.6880 0.6880 0.6860
13.385000 0.6830 0.6780 0.6760 0.6760 0.6760
13.418286 0.6760 0.6780 0.6780 0.6810 0.6850
13.452000 0.6880 0.6880 0.6910 0.6930 0.6940
13.485286 0.6960 0.6990 0.6990 0.6990 0.7010
13.518000 0.7030 0.7040 0.7040 0.7040 0.7060
13.551286 0.7060 0.7060 0.7040 0.7010 0.6990
13.585000 0.6980 0.6960 0.6940 0.6900 0.6810
13.618286 0.6750 0.6680 0.6680 0.6590 0.6460
13.651000 0.6240 0.6110 0.6000 0.5880 0.5700
13.684286 0.5570 0.5390 0.5250 0.4990 0.4810
13.718000 0.4680 0.4550 0.4460 0.4380 0.4370
13.751286 0.4380 0.4400 0.4450 0.4530 0.4660
13.784000 0.4770 0.4890 0.5040 0.5130 0.5200
13.817286 0.5220 0.5250 0.5280 0.5280 0.5310
13.851000 0.5380 0.5390 0.5480 0.5490 0.5510
13.884286 0.5540 0.5560 0.5620 0.5670 0.5670
13.917000 0.5700 0.5770 0.5790 0.5840 0.5950
13.950286 0.6000 0.6050 0.6180 0.6290 0.6370
13.984000 0.6460 0.6490 0.6550 0.6600 0.6670
14.017286 0.6730 0.6750 0.6780 0.6800 0.6810
14.050000 0.6830 0.6900 0.6900 0.6930 0.6930
14.083286 0.6910 0.6910 0.6900 0.6880 0.6800
14.117000 0.6750 0.6680 0.6600 0.6590 0.6500
14.150286 0.6410 0.6390 0.6290 0.6210 0.6150
14.183000 0.6080 0.6080 0.6010 0.5980 0.5800
14.216286 0.5700 0.5670 0.5660 0.5640 0.5640
14.250000 0.5640 0.5640 0.5660 0.5660 0.5670
14.283286 0.5690 0.5700 0.5720 0.5740 0.5750
14.317000 0.5770 0.5800 0.5820 0.5820 0.5840
14.350286 0.5850 0.5900 0.5930 0.5950 0.5980
14.383000 0.6010 0.6050 0.6080 0.6150 0.6240
14.416286 0.6340 0.6370 0.6390 0.6420 0.6520
14.450000 0.6590 0.6620 0.6680 0.6700 0.6760
14.483286 0.6780 0.6780 0.6780 0.6800 0.6800
14.516000 0.6810 0.6810 0.6830 0.6830 0.6810
14.549286 0.6800 0.6730 0.6700 0.6670 0.6650
14.583000 0.6630 0.6600 0.6550 0.6540 0.6500
14.616286 0.6470 0.6410 0.6390 0.6310 0.6240
14.649000 0.6190 0.6110 0.6010 0.5980 0.5950
14.682286 0.5930 0.5900 0.5840 0.5800 0.5720
14.716000 0.5690 0.5590 0.5570 0.5530 0.5490
14.749286 0.5490 0.5480 0.5480 0.5460 0.5460
14.782000 0.5460 0.5440 0.5440 0.5440 0.5440
14.815286 0.5460 0.5460 0.5490 0.5510 0.5530
14.849000 0.5530 0.5510 0.5490 0.5480 0.5430
14.882286 0.5410 0.5390 0.5390 0.5390 0.5390
14.915000 0.5390 0.5410 0.5410 0.5410 0.5410
14.948286 0.5390 0.5390 0.5380 0.5300 0.5250
14.982000 0.5200 0.5120 0.5070 0.5040 0.5040
15.015286 0.5050 0.5150 0.5180 0.5220 0.5280
15.048000 0.5300 0.5380 0.5480 0.5490 0.5510
15.081286 0.5510 0.5530 0.5530 0.5540 0.5560
15.115000 0.5560 0.5560 0.5560 0.5560 0.5560
15.148286 0.5560 0.5570 0.5570 0.5590 0.5610
15.182000 0.5640 0.5640 0.5690 0.5700 0.5770
15.215286 0.5840 0.5870 0.5880 0.5880 0.5920
15.248000 0.5980 0.6000 0.6010 0.6030 0.6050
15.281286 0.6050 0.6060 0.6080 0.6080 0.6100
15.315000 0.6110 0.6150 0.6180 0.6180 0.6150
15.348286 0.6130 0.6110 0.6110 0.6110 0.6100
15.381000 0.6100 0.6100 0.6080 0.6080 0.6060
15.414286 0.6050 0.6030 0.6030 0.6030 0.6050
15.448000 0.6050 0.6050 0.6050 0.6050 0.6050
15.481286 0.6050 0.6050 0.6050 0.6050 0.6030
15.514000 0.6030 0.6030 0.6030 0.6030 0.6030
15.547286 0.6030 0.6030 0.6030 0.6010 0.6010
15.581000 0.6010 0.6000 0.6000 0.6000 0.6000
15.614286 0.5980 0.5980 0.5980 0.5970 0.5970
15.647000 0.5970 0.5970 0.5970 0.5970 0.5970
15.680286 0.5970 0.5970 0.5950 0.5950 0.5930
15.714000 0.5920 0.5900 0.5900 0.5880 0.5880
15.747286 0.5880 0.5880 0.5880 0.5900 0.5900
15.780000 0.5900 0.5920 0.5920 0.5870 0.5850
15.813286 0.5840 0.5800 0.5800 0.5790 0.5770
15.847000 0.5770 0.5770 0.5770 0.5770 0.5770
15.880286 0.5750 0.5740 0.5700 0.5700 0.5700
15.913000 0.5700 0.5700 0.5700 0.5690 0.5690
15.946286 0.5690 0.5690 0.5690 0.5690 0.5690
15.980000 0.5690 0.5690 0.5690 0.5690
##END=
