##TITLE=Phenylphosphinic acid, sodium salt-
##JCAMP-DX=4.24
##DATA TYPE=INFRARED SPECTRUM
##CLASS=COBLENTZ III
##ORIGIN=DOW CHEMICAL COMPANY
##OWNER=COBLENTZ SOC.
Collection (C) 2018 copyright by the U.S. Secretary of Commerce
on behalf of the United States of America. All rights reserved.
##DATE=1963/10/14
##MOLFORM=C6 H6 Na O2 P
##SOURCE REFERENCE=COBLENTZ NO. 9160
##$NIST ID=B6009160
##$NIST SOURCE=COBLENTZ
##$NIST IMAGE=cob9160
##SPECTROMETER/DATA SYSTEM=DOW KBr FOREPRISM-GRATING
##INSTRUMENT PARAMETERS=BLAZED AT 3.5, 12.0, 20.0 MICRON AND CHANGED AT 5.0, 7.5, 14.9 MICRON
##STATE=SOLID (SPLIT MULL), FLUOROLUBE FOR 3800-1330 CM^-^1, NUJOL FOR 1330-400 CM^-^1
##SAMPLING PROCEDURE=TRANSMISSION
##RESOLUTION=2
##DATA PROCESSING=DIGITIZED BY COBLENTZ SOCIETY (BATCH I) FROM HARD COPY
##XUNITS=1/CM
##YUNITS=TRANSMITTANCE
##XLABEL=Wavenumbers (cm-1)
##YLABEL=% Transmission
##XFACTOR=1
##YFACTOR=1
##DELTAX=1
##FIRSTX=383
##LASTX=3804
##FIRSTY=0.8609
##MAXX=3804
##MINX=383
##MAXY=0.8904
##MINY=0.0199
##NPOINTS=3422
##XYDATA=(X++(Y..Y))
383.000000 0.8609 0.8606 0.8603 0.8600 0.8600
388.000000 0.8600 0.8588 0.8583 0.8578 0.8573
393.000000 0.8567 0.8562 0.8557 0.8551 0.8544
398.000000 0.8537 0.8530 0.8523 0.8516 0.8507
403.000000 0.8496 0.8484 0.8473 0.8462 0.8450
408.000000 0.8439 0.8424 0.8408 0.8392 0.8375
413.000000 0.8360 0.8344 0.8328 0.8309 0.8290
418.000000 0.8271 0.8251 0.8232 0.8213 0.8194
423.000000 0.8168 0.8135 0.8101 0.8068 0.8032
428.000000 0.8004 0.8000 0.8011 0.8021 0.8044
433.000000 0.8075 0.8128 0.8230 0.8361 0.8497
438.000000 0.8621 0.8721 0.8758 0.8784 0.8798
443.000000 0.8813 0.8827 0.8836 0.8842 0.8848
448.000000 0.8854 0.8860 0.8864 0.8868 0.8873
453.000000 0.8878 0.8881 0.8884 0.8887 0.8904
458.000000 0.8893 0.8893 0.8892 0.8891 0.8890
463.000000 0.8889 0.8889 0.8888 0.8880 0.8868
468.000000 0.8858 0.8848 0.8836 0.8823 0.8810
473.000000 0.8798 0.8778 0.8754 0.8728 0.8693
478.000000 0.8659 0.8618 0.8568 0.8515 0.8446
483.000000 0.8345 0.8202 0.7976 0.7471 0.6736
488.000000 0.6000 0.5265 0.5172 0.5244 0.6112
493.000000 0.6980 0.7799 0.7799 0.7796 0.7360
498.000000 0.6739 0.6118 0.5496 0.4875 0.4253
503.000000 0.3632 0.3500 0.3523 0.3818 0.4885
508.000000 0.5950 0.7015 0.7919 0.8000 0.8078
513.000000 0.8112 0.8148 0.8171 0.8184 0.8195
518.000000 0.8188 0.8187 0.8178 0.8142 0.8101
523.000000 0.8051 0.8001 0.7951 0.7896 0.7828
528.000000 0.7758 0.7685 0.7611 0.7536 0.7455
533.000000 0.7375 0.7271 0.7148 0.7025 0.6775
538.000000 0.5699 0.5468 0.5042 0.3318 0.1592
543.000000 0.0707 0.0652 0.0676 0.0680 0.0943
548.000000 0.1820 0.2695 0.3571 0.4447 0.5250
553.000000 0.5170 0.4881 0.4592 0.4302 0.4173
558.000000 0.4600 0.5460 0.6322 0.6653 0.6266
563.000000 0.5800 0.5335 0.5216 0.5436 0.6787
568.000000 0.7575 0.7743 0.7925 0.8118 0.8215
573.000000 0.8301 0.8341 0.8378 0.8402 0.8425
578.000000 0.8448 0.8463 0.8477 0.8491 0.8505
583.000000 0.8518 0.8533 0.8545 0.8558 0.8571
588.000000 0.8583 0.8591 0.8599 0.8608 0.8616
593.000000 0.8624 0.8628 0.8631 0.8633 0.8635
598.000000 0.8637 0.8639 0.8642 0.8644 0.8646
603.000000 0.8649 0.8653 0.8657 0.8660 0.8664
608.000000 0.8668 0.8671 0.8675 0.8680 0.8684
613.000000 0.8690 0.8695 0.8700 0.8705 0.8711
618.000000 0.8715 0.8716 0.8716 0.8716 0.8716
623.000000 0.8715 0.8713 0.8711 0.8709 0.8707
628.000000 0.8705 0.8702 0.8700 0.8696 0.8691
633.000000 0.8686 0.8681 0.8675 0.8671 0.8665
638.000000 0.8656 0.8648 0.8639 0.8631 0.8621
643.000000 0.8614 0.8605 0.8597 0.8588 0.8578
648.000000 0.8571 0.8562 0.8546 0.8530 0.8514
653.000000 0.8498 0.8482 0.8465 0.8444 0.8423
658.000000 0.8402 0.8382 0.8360 0.8324 0.8288
663.000000 0.8247 0.8195 0.8128 0.8069 0.8080
668.000000 0.8089 0.8001 0.7938 0.7865 0.7776
673.000000 0.7656 0.7536 0.7445 0.7334 0.7211
678.000000 0.7042 0.6844 0.6701 0.5950 0.3479
683.000000 0.3096 0.2920 0.2684 0.2405 0.2244
688.000000 0.2274 0.2665 0.3037 0.3057 0.2935
693.000000 0.2816 0.2695 0.2684 0.6614 0.6704
698.000000 0.6764 0.6750 0.6510 0.5890 0.5270
703.000000 0.4649 0.4029 0.3409 0.2940 0.2980
708.000000 0.4490 0.5800 0.7108 0.7426 0.7467
713.000000 0.7496 0.7492 0.7485 0.7462 0.7441
718.000000 0.7395 0.7336 0.7326 0.7331 0.7353
723.000000 0.7391 0.7448 0.7506 0.7558 0.7608
728.000000 0.7628 0.7632 0.7633 0.7614 0.7589
733.000000 0.7532 0.7440 0.7278 0.6975 0.6005
738.000000 0.4916 0.3827 0.2913 0.2933 0.3810
743.000000 0.4596 0.5381 0.6166 0.6640 0.6640
748.000000 0.6640 0.5784 0.5240 0.4695 0.4279
753.000000 0.6280 0.7438 0.7715 0.7911 0.8006
758.000000 0.8051 0.8087 0.8112 0.8140 0.8160
763.000000 0.8172 0.8186 0.8199 0.8205 0.8211
768.000000 0.8217 0.8223 0.8230 0.8236 0.8242
773.000000 0.8248 0.8254 0.8260 0.8266 0.8271
778.000000 0.8275 0.8277 0.8278 0.8280 0.8282
783.000000 0.8284 0.8286 0.8288 0.8287 0.8287
788.000000 0.8286 0.8284 0.8283 0.8294 0.8278
793.000000 0.8278 0.8275 0.8275 0.8273 0.8268
798.000000 0.8264 0.8259 0.8254 0.8249 0.8245
803.000000 0.8238 0.8228 0.8220 0.8211 0.8202
808.000000 0.8194 0.8185 0.8175 0.8167 0.8158
813.000000 0.8149 0.8140 0.8131 0.8121 0.8112
818.000000 0.8103 0.8092 0.8082 0.8071 0.8061
823.000000 0.8051 0.8040 0.8030 0.8018 0.8008
828.000000 0.7998 0.7988 0.7976 0.7965 0.7955
833.000000 0.7944 0.7933 0.7922 0.7912 0.7905
838.000000 0.7897 0.7889 0.7881 0.7872 0.7867
843.000000 0.7864 0.7860 0.7856 0.7853 0.7849
848.000000 0.7845 0.7840 0.7831 0.7821 0.7811
853.000000 0.7801 0.7791 0.7781 0.7776 0.7778
858.000000 0.7784 0.7792 0.7810 0.7826 0.7861
863.000000 0.7878 0.7883 0.7887 0.7887 0.7886
868.000000 0.7884 0.7882 0.7881 0.7878 0.7871
873.000000 0.7864 0.7858 0.7851 0.7844 0.7838
878.000000 0.7828 0.7818 0.7808 0.7799 0.7790
883.000000 0.7778 0.7767 0.7756 0.7745 0.7737
888.000000 0.7735 0.7733 0.7731 0.7731 0.7731
893.000000 0.7725 0.7721 0.7717 0.7711 0.7708
898.000000 0.7695 0.7680 0.7657 0.7595 0.7538
903.000000 0.7475 0.7408 0.7385 0.7383 0.7394
908.000000 0.7408 0.7438 0.7455 0.7456 0.7456
913.000000 0.7447 0.7432 0.7371 0.7250 0.7118
918.000000 0.7065 0.7065 0.7087 0.7260 0.7395
923.000000 0.7485 0.7558 0.7599 0.7612 0.7615
928.000000 0.7617 0.7618 0.7617 0.7617 0.7615
933.000000 0.7612 0.7631 0.7608 0.7606 0.7600
938.000000 0.7593 0.7587 0.7581 0.7574 0.7568
943.000000 0.7561 0.7551 0.7541 0.7531 0.7519
948.000000 0.7510 0.7499 0.7489 0.7478 0.7465
953.000000 0.7449 0.7432 0.7415 0.7396 0.7376
958.000000 0.7358 0.7339 0.7318 0.7295 0.7268
963.000000 0.7240 0.7211 0.7183 0.7154 0.7125
968.000000 0.7084 0.7038 0.6992 0.6928 0.6865
973.000000 0.6818 0.6772 0.6728 0.6701 0.6672
978.000000 0.6510 0.6073 0.5637 0.5200 0.4943
983.000000 0.4935 0.4928 0.5122 0.5336 0.5549
988.000000 0.5762 0.5943 0.5946 0.5575 0.4897
993.000000 0.4218 0.3540 0.2861 0.2784 0.4398
998.000000 0.4474 0.4383 0.3929 0.3475 0.3021
1003.000000 0.2779 0.2752 0.2759 0.2758 0.4048
1008.000000 0.5157 0.6267 0.6611 0.6681 0.6682
1013.000000 0.6705 0.6637 0.6565 0.6355 0.6010
1018.000000 0.5665 0.5320 0.4975 0.4630 0.4381
1023.000000 0.4388 0.5077 0.5770 0.6461 0.6767
1028.000000 0.6818 0.6830 0.6825 0.6806 0.6768
1033.000000 0.6701 0.6612 0.6514 0.6421 0.6330
1038.000000 0.6235 0.6134 0.5604 0.4938 0.4273
1043.000000 0.3608 0.2943 0.2278 0.1612 0.1346
1048.000000 0.1349 0.1372 0.1602 0.1728 0.1854
1053.000000 0.1862 0.1840 0.1580 0.1320 0.1301
1058.000000 0.1679 0.2422 0.3164 0.3907 0.4238
1063.000000 0.4241 0.4245 0.4095 0.3938 0.3782
1068.000000 0.3626 0.3468 0.3409 0.3441 0.3424
1073.000000 0.5573 0.5835 0.6057 0.6297 0.6476
1078.000000 0.6590 0.6637 0.6685 0.6724 0.6751
1083.000000 0.6774 0.6781 0.6806 0.6788 0.6787
1088.000000 0.6786 0.6776 0.6765 0.6751 0.6734
1093.000000 0.6721 0.6715 0.6708 0.6693 0.6712
1098.000000 0.6721 0.6739 0.6758 0.6762 0.6748
1103.000000 0.6756 0.6739 0.6718 0.6695 0.6668
1108.000000 0.6644 0.6618 0.6585 0.6548 0.6505
1113.000000 0.6460 0.6411 0.6354 0.6276 0.6205
1118.000000 0.6140 0.6071 0.5948 0.5824 0.5700
1123.000000 0.5574 0.5436 0.5103 0.4881 0.4738
1128.000000 0.4596 0.4456 0.4318 0.4084 0.3722
1133.000000 0.3359 0.2998 0.2635 0.2274 0.1912
1138.000000 0.1577 0.1454 0.1249 0.1183 0.1172
1143.000000 0.1185 0.1186 0.1558 0.2067 0.2576
1148.000000 0.3084 0.3362 0.3353 0.3339 0.3306
1153.000000 0.3271 0.3206 0.2994 0.2783 0.2572
1158.000000 0.2361 0.2149 0.1937 0.1727 0.1516
1163.000000 0.1304 0.1092 0.0882 0.0671 0.0430
1168.000000 0.0332 0.0251 0.0208 0.0199 0.0203
1173.000000 0.0208 0.0245 0.0294 0.0366 0.0484
1178.000000 0.0830 0.1410 0.1991 0.2571 0.3152
1183.000000 0.3732 0.4203 0.4432 0.4543 0.4655
1188.000000 0.4730 0.4762 0.4762 0.4470 0.3846
1193.000000 0.3222 0.2597 0.1973 0.1349 0.0725
1198.000000 0.0446 0.0457 0.3744 0.3864 0.4110
1203.000000 0.4360 0.4618 0.5096 0.5327 0.5493
1208.000000 0.5646 0.5764 0.5882 0.6121 0.6307
1213.000000 0.6457 0.6558 0.6658 0.6731 0.6797
1218.000000 0.6861 0.6925 0.6968 0.7010 0.7053
1223.000000 0.7096 0.7137 0.7175 0.7215 0.7253
1228.000000 0.7292 0.7315 0.7338 0.7358 0.7381
1233.000000 0.7401 0.7424 0.7439 0.7451 0.7461
1238.000000 0.7474 0.7486 0.7497 0.7508 0.7518
1243.000000 0.7530 0.7538 0.7544 0.7560 0.7560
1248.000000 0.7560 0.7564 0.7567 0.7571 0.7575
1253.000000 0.7578 0.7580 0.7580 0.7580 0.7580
1258.000000 0.7581 0.7581 0.7578 0.7576 0.7575
1263.000000 0.7572 0.7569 0.7568 0.7565 0.7560
1268.000000 0.7556 0.7551 0.7547 0.7542 0.7537
1273.000000 0.7533 0.7528 0.7522 0.7515 0.7508
1278.000000 0.7501 0.7495 0.7489 0.7482 0.7475
1283.000000 0.7467 0.7454 0.7442 0.7430 0.7418
1288.000000 0.7406 0.7394 0.7381 0.7368 0.7356
1293.000000 0.7342 0.7328 0.7314 0.7300 0.7286
1298.000000 0.7278 0.7274 0.7218 0.7267 0.7272
1303.000000 0.7280 0.7292 0.7305 0.7317 0.7330
1308.000000 0.7341 0.7351 0.7362 0.7374 0.7385
1313.000000 0.7400 0.7425 0.7451 0.7471 0.7481
1318.000000 0.7480 0.7478 0.7471 0.7424 0.7328
1323.000000 0.7184 0.7017 0.6828 0.6605 0.6494
1328.000000 0.6407 0.6322 0.6219 0.6165 0.6124
1333.000000 0.6077 0.6045 0.6017 0.6000 0.5989
1338.000000 0.5981 0.5974 0.5968 0.5968 0.5967
1343.000000 0.5920 0.5978 0.6015 0.6052 0.6096
1348.000000 0.6139 0.6209 0.6337 0.6487 0.6583
1353.000000 0.6678 0.6758 0.6838 0.6915 0.6992
1358.000000 0.7068 0.7125 0.7181 0.7210 0.7237
1363.000000 0.7253 0.7262 0.7272 0.7284 0.7283
1368.000000 0.7282 0.7281 0.7278 0.7275 0.7269
1373.000000 0.7257 0.7244 0.7222 0.7190 0.7130
1378.000000 0.7057 0.7035 0.7034 0.7033 0.7039
1383.000000 0.7046 0.7068 0.7098 0.7160 0.7232
1388.000000 0.7328 0.7408 0.7451 0.7485 0.7497
1393.000000 0.7501 0.7501 0.7501 0.7500 0.7521
1398.000000 0.7498 0.7497 0.7496 0.7495 0.7494
1403.000000 0.7491 0.7488 0.7486 0.7483 0.7478
1408.000000 0.7471 0.7462 0.7455 0.7447 0.7439
1413.000000 0.7430 0.7412 0.7395 0.7376 0.7345
1418.000000 0.7308 0.7272 0.7238 0.7200 0.7160
1423.000000 0.7118 0.7078 0.7012 0.6944 0.6862
1428.000000 0.6775 0.6542 0.6389 0.6201 0.5470
1433.000000 0.4735 0.4000 0.3264 0.2529 0.1794
1438.000000 0.1058 0.0857 0.0870 0.7004 0.7146
1443.000000 0.7296 0.7478 0.8015 0.8078 0.8133
1448.000000 0.8164 0.8175 0.8175 0.8175 0.8175
1453.000000 0.8169 0.8162 0.8154 0.8145 0.8136
1458.000000 0.8155 0.8181 0.8190 0.8200 0.8198
1463.000000 0.8194 0.8190 0.8184 0.8174 0.8165
1468.000000 0.8156 0.8145 0.8134 0.8122 0.8112
1473.000000 0.8096 0.8078 0.8061 0.8046 0.8019
1478.000000 0.7991 0.7961 0.7887 0.7811 0.7705
1483.000000 0.7603 0.7528 0.7471 0.7493 0.7576
1488.000000 0.7730 0.7882 0.8024 0.8088 0.8134
1493.000000 0.8154 0.8169 0.8176 0.8183 0.8182
1498.000000 0.8181 0.8180 0.8176 0.8171 0.8167
1503.000000 0.8161 0.8156 0.8150 0.8142 0.8141
1508.000000 0.8140 0.8151 0.8168 0.8168 0.8168
1513.000000 0.8167 0.8161 0.8158 0.8151 0.8143
1518.000000 0.8134 0.8125 0.8121 0.8118 0.8118
1523.000000 0.8119 0.8125 0.8128 0.8130 0.8130
1528.000000 0.8130 0.8135 0.8128 0.8126 0.8125
1533.000000 0.8122 0.8121 0.8117 0.8112 0.8108
1538.000000 0.8096 0.8081 0.8068 0.8068 0.8069
1543.000000 0.8080 0.8094 0.8099 0.8103 0.8104
1548.000000 0.8105 0.8106 0.8106 0.8105 0.8103
1553.000000 0.8101 0.8097 0.8092 0.8087 0.8083
1558.000000 0.8078 0.8078 0.8076 0.8107 0.8145
1563.000000 0.8175 0.8178 0.8180 0.8183 0.8182
1568.000000 0.8182 0.8175 0.8168 0.8158 0.8148
1573.000000 0.8137 0.8125 0.8119 0.8122 0.8135
1578.000000 0.8143 0.8143 0.8133 0.8112 0.8087
1583.000000 0.8056 0.8025 0.8000 0.7974 0.7947
1588.000000 0.7910 0.7638 0.7108 0.6898 0.6785
1593.000000 0.6686 0.6658 0.6662 0.6656 0.7899
1598.000000 0.7968 0.8024 0.8068 0.8099 0.8122
1603.000000 0.8143 0.8154 0.8161 0.8168 0.8171
1608.000000 0.8169 0.8168 0.8165 0.8158 0.8149
1613.000000 0.8142 0.8134 0.8128 0.8124 0.8124
1618.000000 0.8125 0.8131 0.8136 0.8141 0.8147
1623.000000 0.8155 0.8165 0.8172 0.8178 0.8178
1628.000000 0.8178 0.8171 0.8165 0.8157 0.8149
1633.000000 0.8140 0.8134 0.8132 0.8130 0.8130
1638.000000 0.8130 0.8132 0.8132 0.8130 0.8125
1643.000000 0.8119 0.8111 0.8101 0.8089 0.8078
1648.000000 0.8061 0.8026 0.7996 0.7983 0.7985
1653.000000 0.7995 0.8006 0.8018 0.8031 0.8031
1658.000000 0.8031 0.8026 0.8024 0.8019 0.8015
1663.000000 0.8011 0.8006 0.8001 0.7998 0.7995
1668.000000 0.7991 0.7990 0.7990 0.7990 0.7990
1673.000000 0.7990 0.8001 0.8011 0.8012 0.8012
1678.000000 0.8008 0.8004 0.7993 0.7980 0.7978
1683.000000 0.7989 0.8000 0.8017 0.8035 0.8039
1688.000000 0.8040 0.8036 0.8028 0.8015 0.8001
1693.000000 0.7987 0.7981 0.7974 0.7968 0.7962
1698.000000 0.7962 0.7968 0.7981 0.8000 0.8018
1703.000000 0.8035 0.8049 0.8055 0.8058 0.8060
1708.000000 0.8061 0.8061 0.8061 0.8058 0.8055
1713.000000 0.8051 0.8047 0.8047 0.8047 0.8051
1718.000000 0.8058 0.8060 0.8062 0.8061 0.8061
1723.000000 0.8056 0.8049 0.8042 0.8034 0.8026
1728.000000 0.8015 0.8003 0.7992 0.7998 0.8005
1733.000000 0.8011 0.8017 0.8015 0.8014 0.8011
1738.000000 0.8010 0.8008 0.8003 0.7999 0.7994
1743.000000 0.7985 0.7975 0.7968 0.7962 0.7957
1748.000000 0.7951 0.7948 0.7945 0.7941 0.7938
1753.000000 0.7935 0.7932 0.7928 0.7925 0.7921
1758.000000 0.7915 0.7911 0.7907 0.7901 0.7897
1763.000000 0.7893 0.7888 0.7883 0.7878 0.7875
1768.000000 0.7875 0.7875 0.7885 0.7897 0.7911
1773.000000 0.7925 0.7928 0.7931 0.7933 0.7935
1778.000000 0.7935 0.7935 0.7934 0.7934 0.7933
1783.000000 0.7932 0.7931 0.7928 0.7926 0.7925
1788.000000 0.7924 0.7921 0.7919 0.7918 0.7917
1793.000000 0.7915 0.7914 0.7911 0.7910 0.7908
1798.000000 0.7907 0.7905 0.7903 0.7901 0.7900
1803.000000 0.7898 0.7896 0.7894 0.7890 0.7885
1808.000000 0.7880 0.7875 0.7869 0.7865 0.7860
1813.000000 0.7855 0.7851 0.7845 0.7840 0.7834
1818.000000 0.7828 0.7822 0.7818 0.7814 0.7814
1823.000000 0.7814 0.7815 0.7815 0.7817 0.7821
1828.000000 0.7824 0.7826 0.7832 0.7837 0.7842
1833.000000 0.7847 0.7851 0.7856 0.7861 0.7864
1838.000000 0.7868 0.7871 0.7875 0.7878 0.7882
1843.000000 0.7885 0.7887 0.7888 0.7888 0.7888
1848.000000 0.7886 0.7883 0.7881 0.7878 0.7875
1853.000000 0.7871 0.7865 0.7858 0.7850 0.7841
1858.000000 0.7833 0.7825 0.7817 0.7808 0.7801
1863.000000 0.7794 0.7786 0.7778 0.7771 0.7765
1868.000000 0.7757 0.7750 0.7743 0.7736 0.7731
1873.000000 0.7725 0.7721 0.7715 0.7715 0.7715
1878.000000 0.7717 0.7717 0.7717 0.7717 0.7717
1883.000000 0.7717 0.7715 0.7712 0.7711 0.7710
1888.000000 0.7708 0.7707 0.7705 0.7705 0.7705
1893.000000 0.7705 0.7707 0.7710 0.7714 0.7718
1898.000000 0.7730 0.7740 0.7750 0.7762 0.7776
1903.000000 0.7791 0.7801 0.7810 0.7818 0.7825
1908.000000 0.7833 0.7840 0.7843 0.7846 0.7849
1913.000000 0.7851 0.7855 0.7858 0.7858 0.7860
1918.000000 0.7861 0.7861 0.7861 0.7861 0.7858
1923.000000 0.7857 0.7854 0.7851 0.7849 0.7847
1928.000000 0.7842 0.7836 0.7828 0.7822 0.7817
1933.000000 0.7811 0.7805 0.7797 0.7787 0.7775
1938.000000 0.7765 0.7755 0.7745 0.7735 0.7724
1943.000000 0.7712 0.7696 0.7680 0.7662 0.7647
1948.000000 0.7634 0.7625 0.7615 0.7606 0.7605
1953.000000 0.7605 0.7607 0.7611 0.7624 0.7641
1958.000000 0.7657 0.7671 0.7667 0.7651 0.7647
1963.000000 0.7646 0.7646 0.7647 0.7649 0.7650
1968.000000 0.7651 0.7654 0.7656 0.7658 0.7661
1973.000000 0.7662 0.7664 0.7665 0.7667 0.7668
1978.000000 0.7668 0.7669 0.7671 0.7671 0.7672
1983.000000 0.7675 0.7675 0.7676 0.7678 0.7680
1988.000000 0.7681 0.7678 0.7674 0.7669 0.7667
1993.000000 0.7662 0.7658 0.7655 0.7651 0.7647
1998.000000 0.7643 0.7639 0.7635 0.7632 0.7630
2003.000000 0.7630 0.7630 0.7630 0.7630 0.7630
2008.000000 0.7630 0.7628 0.7628 0.7628 0.7628
2013.000000 0.7626 0.7626 0.7625 0.7625 0.7625
2018.000000 0.7625 0.7622 0.7621 0.7618 0.7615
2023.000000 0.7612 0.7611 0.7608 0.7606 0.7600
2028.000000 0.7594 0.7584 0.7575 0.7565 0.7556
2033.000000 0.7547 0.7538 0.7528 0.7518 0.7508
2038.000000 0.7498 0.7488 0.7478 0.7475 0.7471
2043.000000 0.7469 0.7468 0.7467 0.7465 0.7465
2048.000000 0.7464 0.7462 0.7461 0.7461 0.7460
2053.000000 0.7458 0.7458 0.7457 0.7457 0.7456
2058.000000 0.7455 0.7453 0.7451 0.7451 0.7450
2063.000000 0.7448 0.7447 0.7446 0.7445 0.7443
2068.000000 0.7442 0.7439 0.7436 0.7430 0.7425
2073.000000 0.7418 0.7414 0.7408 0.7401 0.7396
2078.000000 0.7391 0.7385 0.7378 0.7371 0.7365
2083.000000 0.7358 0.7351 0.7344 0.7337 0.7330
2088.000000 0.7322 0.7315 0.7308 0.7301 0.7295
2093.000000 0.7288 0.7281 0.7274 0.7267 0.7260
2098.000000 0.7253 0.7246 0.7239 0.7232 0.7225
2103.000000 0.7218 0.7211 0.7208 0.7204 0.7200
2108.000000 0.7197 0.7193 0.7190 0.7186 0.7182
2113.000000 0.7178 0.7175 0.7171 0.7167 0.7161
2118.000000 0.7156 0.7150 0.7145 0.7139 0.7134
2123.000000 0.7128 0.7122 0.7118 0.7112 0.7107
2128.000000 0.7101 0.7096 0.7091 0.7085 0.7078
2133.000000 0.7069 0.7061 0.7053 0.7044 0.7035
2138.000000 0.7026 0.7018 0.7008 0.7000 0.6992
2143.000000 0.6983 0.6974 0.6965 0.6957 0.6948
2148.000000 0.6939 0.6930 0.6921 0.6911 0.6904
2153.000000 0.6895 0.6886 0.6875 0.6867 0.6858
2158.000000 0.6849 0.6839 0.6830 0.6821 0.6811
2163.000000 0.6801 0.6793 0.6784 0.6775 0.6765
2168.000000 0.6757 0.6747 0.6738 0.6728 0.6719
2173.000000 0.6706 0.6693 0.6678 0.6665 0.6650
2178.000000 0.6636 0.6621 0.6607 0.6593 0.6578
2183.000000 0.6564 0.6550 0.6536 0.6521 0.6506
2188.000000 0.6491 0.6471 0.6453 0.6434 0.6415
2193.000000 0.6395 0.6376 0.6357 0.6338 0.6319
2198.000000 0.6300 0.6280 0.6260 0.6247 0.6234
2203.000000 0.6230 0.6230 0.6231 0.6235 0.6240
2208.000000 0.6245 0.6256 0.6268 0.6282 0.6297
2213.000000 0.6308 0.6319 0.6324 0.6329 0.6330
2218.000000 0.6330 0.6330 0.6329 0.6328 0.6327
2223.000000 0.6322 0.6318 0.6310 0.6302 0.6294
2228.000000 0.6287 0.6277 0.6268 0.6255 0.6243
2233.000000 0.6229 0.6216 0.6194 0.6172 0.6150
2238.000000 0.6129 0.6106 0.6084 0.6060 0.6037
2243.000000 0.6012 0.5990 0.5966 0.5942 0.5910
2248.000000 0.5880 0.5849 0.5818 0.5785 0.5752
2253.000000 0.5712 0.5674 0.5625 0.5576 0.5528
2258.000000 0.5481 0.5434 0.5387 0.5338 0.5290
2263.000000 0.5217 0.5145 0.4931 0.4717 0.4508
2268.000000 0.4299 0.4090 0.3882 0.3673 0.3464
2273.000000 0.3255 0.3047 0.2838 0.2629 0.2420
2278.000000 0.2212 0.2003 0.1794 0.1585 0.1377
2283.000000 0.1244 0.1137 0.1340 0.1569 0.1957
2288.000000 0.2345 0.2733 0.3121 0.3509 0.3898
2293.000000 0.4286 0.4674 0.5062 0.5450 0.5568
2298.000000 0.5686 0.5741 0.5797 0.5833 0.5869
2303.000000 0.5891 0.5912 0.5929 0.5946 0.5950
2308.000000 0.5954 0.5958 0.5962 0.5962 0.5962
2313.000000 0.5962 0.5991 0.5957 0.5954 0.5951
2318.000000 0.5948 0.5943 0.5938 0.5933 0.5928
2323.000000 0.5922 0.5917 0.5910 0.5905 0.5899
2328.000000 0.5893 0.5887 0.5881 0.5875 0.5869
2333.000000 0.5860 0.5853 0.5844 0.5836 0.5827
2338.000000 0.5819 0.5810 0.5803 0.5791 0.5780
2343.000000 0.5765 0.5751 0.5732 0.5714 0.5687
2348.000000 0.5660 0.5630 0.5601 0.5546 0.5492
2353.000000 0.5419 0.5346 0.5168 0.4990 0.4812
2358.000000 0.4635 0.4457 0.4279 0.4101 0.3924
2363.000000 0.3746 0.3576 0.3566 0.3562 0.3812
2368.000000 0.4062 0.4427 0.4793 0.5152 0.5512
2373.000000 0.5582 0.5652 0.5684 0.5717 0.5718
2378.000000 0.5736 0.5712 0.5707 0.5697 0.5687
2383.000000 0.5674 0.5660 0.5629 0.5597 0.5566
2388.000000 0.5536 0.5335 0.5135 0.4921 0.4708
2393.000000 0.4494 0.4280 0.4066 0.3853 0.3639
2398.000000 0.3426 0.3212 0.2998 0.2940 0.2882
2403.000000 0.3282 0.2888 0.4269 0.4854 0.5382
2408.000000 0.5910 0.5976 0.6043 0.6148 0.6254
2413.000000 0.6277 0.6300 0.6317 0.6335 0.6355
2418.000000 0.6375 0.6397 0.6418 0.6437 0.6456
2423.000000 0.6471 0.6486 0.6495 0.6505 0.6514
2428.000000 0.6524 0.6533 0.6542 0.6548 0.6554
2433.000000 0.6560 0.6565 0.6571 0.6578 0.6583
2438.000000 0.6589 0.6593 0.6597 0.6599 0.6601
2443.000000 0.6603 0.6606 0.6608 0.6611 0.6612
2448.000000 0.6615 0.6615 0.6618 0.6618 0.6619
2453.000000 0.6621 0.6621 0.6622 0.6624 0.6625
2458.000000 0.6625 0.6626 0.6628 0.6628 0.6630
2463.000000 0.6631 0.6632 0.6633 0.6634 0.6635
2468.000000 0.6636 0.6637 0.6638 0.6639 0.6640
2473.000000 0.6641 0.6643 0.6645 0.6647 0.6649
2478.000000 0.6651 0.6653 0.6655 0.6657 0.6660
2483.000000 0.6661 0.6664 0.6665 0.6668 0.6669
2488.000000 0.6671 0.6674 0.6676 0.6678 0.6681
2493.000000 0.6683 0.6694 0.6687 0.6690 0.6692
2498.000000 0.6694 0.6696 0.6698 0.6700 0.6703
2503.000000 0.6705 0.6707 0.6708 0.6711 0.6712
2508.000000 0.6714 0.6714 0.6715 0.6715 0.6715
2513.000000 0.6715 0.6717 0.6717 0.6717 0.6715
2518.000000 0.6715 0.6715 0.6715 0.6714 0.6714
2523.000000 0.6712 0.6712 0.6711 0.6711 0.6711
2528.000000 0.6710 0.6708 0.6708 0.6708 0.6707
2533.000000 0.6705 0.6704 0.6701 0.6700 0.6698
2538.000000 0.6697 0.6695 0.6693 0.6691 0.6689
2543.000000 0.6687 0.6686 0.6684 0.6682 0.6680
2548.000000 0.6678 0.6676 0.6675 0.6672 0.6671
2553.000000 0.6669 0.6668 0.6665 0.6665 0.6662
2558.000000 0.6661 0.6658 0.6657 0.6655 0.6654
2563.000000 0.6651 0.6650 0.6648 0.6647 0.6645
2568.000000 0.6643 0.6641 0.6640 0.6638 0.6636
2573.000000 0.6635 0.6635 0.6634 0.6634 0.6633
2578.000000 0.6632 0.6631 0.6631 0.6630 0.6630
2583.000000 0.6628 0.6628 0.6626 0.6626 0.6625
2588.000000 0.6625 0.6625 0.6624 0.6622 0.6622
2593.000000 0.6621 0.6621 0.6621 0.6619 0.6618
2598.000000 0.6617 0.6615 0.6614 0.6611 0.6611
2603.000000 0.6610 0.6608 0.6607 0.6606 0.6604
2608.000000 0.6603 0.6601 0.6600 0.6599 0.6598
2613.000000 0.6596 0.6595 0.6593 0.6592 0.6590
2618.000000 0.6589 0.6587 0.6586 0.6585 0.6584
2623.000000 0.6583 0.6582 0.6580 0.6578 0.6578
2628.000000 0.6576 0.6575 0.6575 0.6572 0.6571
2633.000000 0.6571 0.6569 0.6568 0.6568 0.6565
2638.000000 0.6565 0.6564 0.6562 0.6561 0.6561
2643.000000 0.6558 0.6558 0.6557 0.6556 0.6555
2648.000000 0.6554 0.6551 0.6551 0.6550 0.6549
2653.000000 0.6547 0.6546 0.6544 0.6542 0.6539
2658.000000 0.6537 0.6535 0.6533 0.6531 0.6528
2663.000000 0.6525 0.6524 0.6521 0.6519 0.6518
2668.000000 0.6515 0.6512 0.6511 0.6508 0.6507
2673.000000 0.6504 0.6501 0.6500 0.6498 0.6496
2678.000000 0.6494 0.6491 0.6489 0.6487 0.6485
2683.000000 0.6482 0.6480 0.6478 0.6475 0.6474
2688.000000 0.6471 0.6468 0.6467 0.6465 0.6462
2693.000000 0.6461 0.6458 0.6457 0.6455 0.6453
2698.000000 0.6451 0.6449 0.6447 0.6444 0.6442
2703.000000 0.6440 0.6438 0.6436 0.6434 0.6432
2708.000000 0.6430 0.6428 0.6425 0.6425 0.6424
2713.000000 0.6422 0.6422 0.6421 0.6421 0.6419
2718.000000 0.6419 0.6418 0.6418 0.6417 0.6417
2723.000000 0.6415 0.6415 0.6414 0.6414 0.6411
2728.000000 0.6411 0.6408 0.6407 0.6405 0.6403
2733.000000 0.6401 0.6399 0.6397 0.6395 0.6393
2738.000000 0.6391 0.6389 0.6388 0.6386 0.6384
2743.000000 0.6382 0.6380 0.6378 0.6376 0.6374
2748.000000 0.6372 0.6370 0.6368 0.6365 0.6362
2753.000000 0.6360 0.6359 0.6356 0.6354 0.6351
2758.000000 0.6349 0.6347 0.6345 0.6342 0.6340
2763.000000 0.6337 0.6335 0.6332 0.6330 0.6328
2768.000000 0.6326 0.6323 0.6321 0.6318 0.6316
2773.000000 0.6314 0.6312 0.6309 0.6307 0.6304
2778.000000 0.6302 0.6300 0.6298 0.6295 0.6293
2783.000000 0.6291 0.6289 0.6286 0.6284 0.6282
2788.000000 0.6280 0.6277 0.6275 0.6272 0.6270
2793.000000 0.6268 0.6266 0.6262 0.6260 0.6259
2798.000000 0.6257 0.6254 0.6252 0.6250 0.6248
2803.000000 0.6245 0.6243 0.6241 0.6239 0.6236
2808.000000 0.6234 0.6232 0.6230 0.6227 0.6225
2813.000000 0.6223 0.6221 0.6218 0.6216 0.6214
2818.000000 0.6212 0.6209 0.6206 0.6203 0.6200
2823.000000 0.6197 0.6194 0.6191 0.6188 0.6185
2828.000000 0.6183 0.6180 0.6177 0.6174 0.6171
2833.000000 0.6168 0.6165 0.6162 0.6159 0.6156
2838.000000 0.6154 0.6151 0.6148 0.6145 0.6142
2843.000000 0.6139 0.6136 0.6133 0.6130 0.6127
2848.000000 0.6125 0.6122 0.6119 0.6116 0.6112
2853.000000 0.6110 0.6108 0.6106 0.6104 0.6101
2858.000000 0.6099 0.6096 0.6094 0.6091 0.6089
2863.000000 0.6086 0.6084 0.6082 0.6080 0.6077
2868.000000 0.6075 0.6072 0.6070 0.6067 0.6065
2873.000000 0.6062 0.6060 0.6058 0.6056 0.6053
2878.000000 0.6051 0.6048 0.6046 0.6043 0.6041
2883.000000 0.6038 0.6036 0.6033 0.6030 0.6027
2888.000000 0.6024 0.6021 0.6018 0.6015 0.6012
2893.000000 0.6009 0.6006 0.6003 0.6000 0.5997
2898.000000 0.5994 0.5991 0.5988 0.5985 0.5982
2903.000000 0.5979 0.5977 0.5974 0.5971 0.5968
2908.000000 0.5966 0.5962 0.5960 0.5957 0.5955
2913.000000 0.5952 0.5950 0.5947 0.5945 0.5942
2918.000000 0.5940 0.5937 0.5935 0.5932 0.5930
2923.000000 0.5927 0.5925 0.5922 0.5919 0.5916
2928.000000 0.5914 0.5910 0.5909 0.5906 0.5904
2933.000000 0.5900 0.5897 0.5893 0.5890 0.5886
2938.000000 0.5882 0.5878 0.5875 0.5871 0.5868
2943.000000 0.5864 0.5860 0.5857 0.5854 0.5850
2948.000000 0.5847 0.5843 0.5840 0.5836 0.5833
2953.000000 0.5829 0.5826 0.5822 0.5819 0.5815
2958.000000 0.5810 0.5806 0.5802 0.5797 0.5792
2963.000000 0.5787 0.5783 0.5778 0.5774 0.5769
2968.000000 0.5764 0.5759 0.5755 0.5750 0.5745
2973.000000 0.5740 0.5735 0.5729 0.5724 0.5718
2978.000000 0.5712 0.5707 0.5702 0.5696 0.5690
2983.000000 0.5684 0.5679 0.5673 0.5668 0.5662
2988.000000 0.5657 0.5651 0.5645 0.5634 0.5623
2993.000000 0.5612 0.5601 0.5590 0.5579 0.5568
2998.000000 0.5557 0.5530 0.5503 0.5452 0.5402
3003.000000 0.5345 0.5289 0.5220 0.5152 0.5084
3008.000000 0.5017 0.4996 0.4964 0.4980 0.4984
3013.000000 0.5089 0.5194 0.5293 0.5393 0.5408
3018.000000 0.5424 0.5420 0.5439 0.5412 0.5408
3023.000000 0.5403 0.5399 0.5393 0.5388 0.5379
3028.000000 0.5370 0.5359 0.5349 0.5330 0.5312
3033.000000 0.5288 0.5264 0.5231 0.5199 0.5156
3038.000000 0.5114 0.5059 0.5004 0.4950 0.4896
3043.000000 0.4844 0.4793 0.4650 0.4507 0.4403
3048.000000 0.4300 0.4301 0.4294 0.4358 0.4415
3053.000000 0.4425 0.4436 0.4442 0.4448 0.4523
3058.000000 0.4598 0.4685 0.4772 0.4858 0.4945
3063.000000 0.4967 0.4989 0.4956 0.5009 0.4740
3068.000000 0.4557 0.4374 0.4191 0.4008 0.3826
3073.000000 0.3760 0.3697 0.3680 0.3666 0.3662
3078.000000 0.3659 0.4612 0.3666 0.5607 0.5647
3083.000000 0.5653 0.5660 0.5667 0.5674 0.5683
3088.000000 0.5693 0.5708 0.5724 0.5737 0.5751
3093.000000 0.5762 0.5773 0.5783 0.5794 0.5804
3098.000000 0.5817 0.5817 0.5820 0.5820 0.5820
3103.000000 0.5820 0.5819 0.5817 0.5815 0.5812
3108.000000 0.5810 0.5807 0.5805 0.5802 0.5799
3113.000000 0.5796 0.5793 0.5790 0.5787 0.5783
3118.000000 0.5779 0.5775 0.5772 0.5768 0.5764
3123.000000 0.5760 0.5756 0.5752 0.5748 0.5745
3128.000000 0.5742 0.5738 0.5735 0.5731 0.5728
3133.000000 0.5725 0.5722 0.5718 0.5715 0.5710
3138.000000 0.5708 0.5704 0.5700 0.5696 0.5692
3143.000000 0.5688 0.5684 0.5682 0.5682 0.5682
3148.000000 0.5685 0.5687 0.5690 0.5693 0.5696
3153.000000 0.5699 0.5703 0.5706 0.5709 0.5709
3158.000000 0.5709 0.5708 0.5707 0.5704 0.5701
3163.000000 0.5698 0.5696 0.5693 0.5690 0.5687
3168.000000 0.5685 0.5682 0.5679 0.5676 0.5674
3173.000000 0.5671 0.5668 0.5665 0.5662 0.5659
3178.000000 0.5657 0.5654 0.5651 0.5648 0.5645
3183.000000 0.5641 0.5638 0.5635 0.5632 0.5629
3188.000000 0.5626 0.5623 0.5620 0.5616 0.5612
3193.000000 0.5610 0.5607 0.5604 0.5601 0.5597
3198.000000 0.5594 0.5591 0.5589 0.5587 0.5585
3203.000000 0.5582 0.5580 0.5578 0.5576 0.5573
3208.000000 0.5571 0.5569 0.5567 0.5564 0.5562
3213.000000 0.5560 0.5558 0.5555 0.5553 0.5551
3218.000000 0.5549 0.5546 0.5544 0.5542 0.5540
3223.000000 0.5537 0.5535 0.5533 0.5531 0.5528
3228.000000 0.5526 0.5524 0.5522 0.5519 0.5517
3233.000000 0.5515 0.5512 0.5510 0.5508 0.5506
3238.000000 0.5504 0.5501 0.5499 0.5496 0.5494
3243.000000 0.5492 0.5490 0.5487 0.5485 0.5483
3248.000000 0.5481 0.5478 0.5476 0.5474 0.5472
3253.000000 0.5469 0.5467 0.5465 0.5462 0.5460
3258.000000 0.5457 0.5454 0.5452 0.5449 0.5447
3263.000000 0.5444 0.5441 0.5438 0.5436 0.5433
3268.000000 0.5430 0.5427 0.5425 0.5422 0.5420
3273.000000 0.5417 0.5414 0.5410 0.5409 0.5406
3278.000000 0.5404 0.5401 0.5398 0.5395 0.5393
3283.000000 0.5390 0.5388 0.5385 0.5382 0.5379
3288.000000 0.5377 0.5374 0.5372 0.5369 0.5366
3293.000000 0.5362 0.5360 0.5358 0.5355 0.5352
3298.000000 0.5350 0.5347 0.5345 0.5342 0.5339
3303.000000 0.5336 0.5334 0.5331 0.5328 0.5325
3308.000000 0.5322 0.5319 0.5316 0.5312 0.5310
3313.000000 0.5307 0.5304 0.5301 0.5298 0.5295
3318.000000 0.5292 0.5289 0.5286 0.5283 0.5280
3323.000000 0.5277 0.5274 0.5271 0.5268 0.5265
3328.000000 0.5262 0.5259 0.5257 0.5254 0.5251
3333.000000 0.5248 0.5245 0.5242 0.5239 0.5236
3338.000000 0.5233 0.5231 0.5229 0.5226 0.5224
3343.000000 0.5221 0.5219 0.5216 0.5214 0.5210
3348.000000 0.5209 0.5206 0.5204 0.5202 0.5200
3353.000000 0.5197 0.5195 0.5192 0.5190 0.5187
3358.000000 0.5185 0.5182 0.5180 0.5177 0.5175
3363.000000 0.5173 0.5171 0.5169 0.5168 0.5167
3368.000000 0.5166 0.5165 0.5164 0.5162 0.5162
3373.000000 0.5160 0.5160 0.5159 0.5158 0.5157
3378.000000 0.5156 0.5155 0.5154 0.5153 0.5152
3383.000000 0.5151 0.5150 0.5149 0.5148 0.5147
3388.000000 0.5146 0.5145 0.5144 0.5143 0.5142
3393.000000 0.5141 0.5140 0.5139 0.5138 0.5137
3398.000000 0.5136 0.5135 0.5134 0.5133 0.5132
3403.000000 0.5131 0.5130 0.5129 0.5129 0.5128
3408.000000 0.5127 0.5126 0.5125 0.5124 0.5123
3413.000000 0.5122 0.5122 0.5121 0.5120 0.5119
3418.000000 0.5118 0.5117 0.5116 0.5115 0.5115
3423.000000 0.5114 0.5112 0.5112 0.5110 0.5110
3428.000000 0.5109 0.5108 0.5107 0.5106 0.5106
3433.000000 0.5105 0.5104 0.5103 0.5102 0.5101
3438.000000 0.5100 0.5099 0.5099 0.5098 0.5097
3443.000000 0.5096 0.5095 0.5094 0.5093 0.5092
3448.000000 0.5092 0.5091 0.5090 0.5089 0.5088
3453.000000 0.5087 0.5087 0.5086 0.5085 0.5084
3458.000000 0.5084 0.5083 0.5083 0.5082 0.5081
3463.000000 0.5080 0.5080 0.5079 0.5079 0.5078
3468.000000 0.5078 0.5077 0.5076 0.5075 0.5075
3473.000000 0.5074 0.5074 0.5073 0.5072 0.5071
3478.000000 0.5071 0.5070 0.5070 0.5069 0.5068
3483.000000 0.5067 0.5067 0.5066 0.5066 0.5065
3488.000000 0.5065 0.5064 0.5062 0.5062 0.5062
3493.000000 0.5060 0.5060 0.5060 0.5059 0.5058
3498.000000 0.5058 0.5057 0.5057 0.5056 0.5055
3503.000000 0.5054 0.5054 0.5053 0.5053 0.5052
3508.000000 0.5051 0.5050 0.5049 0.5048 0.5047
3513.000000 0.5046 0.5045 0.5044 0.5043 0.5042
3518.000000 0.5041 0.5040 0.5039 0.5038 0.5037
3523.000000 0.5036 0.5035 0.5034 0.5033 0.5032
3528.000000 0.5032 0.5031 0.5030 0.5029 0.5028
3533.000000 0.5027 0.5026 0.5025 0.5024 0.5023
3538.000000 0.5022 0.5021 0.5020 0.5019 0.5018
3543.000000 0.5017 0.5016 0.5015 0.5014 0.5012
3548.000000 0.5012 0.5010 0.5010 0.5009 0.5009
3553.000000 0.5008 0.5007 0.5006 0.5005 0.5004
3558.000000 0.5003 0.5002 0.5001 0.5000 0.4999
3563.000000 0.4998 0.4997 0.4996 0.4995 0.4994
3568.000000 0.4993 0.4992 0.4992 0.4991 0.4990
3573.000000 0.4989 0.4988 0.4987 0.4986 0.4985
3578.000000 0.4984 0.4983 0.4983 0.4982 0.4981
3583.000000 0.4980 0.4979 0.4978 0.4977 0.4976
3588.000000 0.4975 0.4974 0.4973 0.4972 0.4972
3593.000000 0.4971 0.4970 0.4969 0.4968 0.4967
3598.000000 0.4966 0.4965 0.4964 0.4962 0.4962
3603.000000 0.4960 0.4960 0.4960 0.4959 0.4958
3608.000000 0.4957 0.4956 0.4955 0.4954 0.4953
3613.000000 0.4952 0.4951 0.4950 0.4950 0.4949
3618.000000 0.4948 0.4946 0.4945 0.4944 0.4943
3623.000000 0.4942 0.4941 0.4940 0.4939 0.4937
3628.000000 0.4936 0.4935 0.4934 0.4933 0.4932
3633.000000 0.4931 0.4930 0.4928 0.4927 0.4926
3638.000000 0.4925 0.4924 0.4923 0.4921 0.4920
3643.000000 0.4919 0.4918 0.4917 0.4916 0.4915
3648.000000 0.4914 0.4912 0.4910 0.4910 0.4909
3653.000000 0.4908 0.4907 0.4906 0.4905 0.4904
3658.000000 0.4904 0.4903 0.4902 0.4901 0.4901
3663.000000 0.4900 0.4899 0.4898 0.4898 0.4897
3668.000000 0.4896 0.4895 0.4895 0.4894 0.4893
3673.000000 0.4892 0.4892 0.4891 0.4890 0.4889
3678.000000 0.4889 0.4888 0.4887 0.4886 0.4886
3683.000000 0.4885 0.4884 0.4883 0.4883 0.4882
3688.000000 0.4881 0.4880 0.4880 0.4879 0.4878
3693.000000 0.4877 0.4876 0.4875 0.4874 0.4873
3698.000000 0.4872 0.4871 0.4870 0.4869 0.4868
3703.000000 0.4867 0.4866 0.4865 0.4864 0.4862
3708.000000 0.4862 0.4860 0.4860 0.4859 0.4858
3713.000000 0.4857 0.4857 0.4856 0.4855 0.4854
3718.000000 0.4853 0.4852 0.4851 0.4850 0.4849
3723.000000 0.4848 0.4847 0.4845 0.4844 0.4842
3728.000000 0.4841 0.4839 0.4838 0.4836 0.4835
3733.000000 0.4834 0.4833 0.4831 0.4830 0.4828
3738.000000 0.4827 0.4825 0.4824 0.4823 0.4822
3743.000000 0.4821 0.4820 0.4819 0.4819 0.4818
3748.000000 0.4818 0.4817 0.4817 0.4816 0.4816
3753.000000 0.4815 0.4815 0.4814 0.4814 0.4812
3758.000000 0.4812 0.4812 0.4812 0.4810 0.4810
3763.000000 0.4810 0.4810 0.4809 0.4809 0.4808
3768.000000 0.4808 0.4807 0.4807 0.4806 0.4806
3773.000000 0.4806 0.4806 0.4805 0.4805 0.4804
3778.000000 0.4804 0.4803 0.4803 0.4802 0.4802
3783.000000 0.4801 0.4801 0.4800 0.4800 0.4799
3788.000000 0.4799 0.4798 0.4797 0.4795 0.4794
3793.000000 0.4793 0.4792 0.4790 0.4789 0.4787
3798.000000 0.4786 0.4784 0.4783 0.4781 0.4779
3803.000000 0.4779 0.4779
##END=
