##TITLE=ACETIC ACID, SULFO (BUTYLAMINE SALT)
##JCAMP-DX=4.24
##DATA TYPE=INFRARED SPECTRUM
##CLASS=COBLENTZ
##ORIGIN=TENNESSEE EASTMAN COMPANY, RESEARCH LABORATORIES
##OWNER=COBLENTZ SOCIETY
Collection (C) 2018 copyright by the U.S. Secretary of Commerce
on behalf of the United States of America. All rights reserved.
##DATE=Not specified, most likely prior to 1970
##MOLFORM=C6 H15 N O5 S
##SOURCE REFERENCE=COBLENTZ NO. 1257
##$NIST ID=B6001257
##$NIST SOURCE=COBLENTZ
##$NIST IMAGE=cob1257
##SPECTROMETER/DATA SYSTEM=Not specified, most likely a prism, grating, or hybrid spectrometer.
##STATE=SOLID (PELLET)
##SAMPLING PROCEDURE=TRANSMISSION
##RESOLUTION=4
##DATA PROCESSING=DIGITIZED BY NIST FROM HARD COPY
##XUNITS=MICROMETERS
##YUNITS=TRANSMITTANCE
##XFACTOR=1.000000
##YFACTOR=1
##DELTAX=000.006663
##FIRSTX=2.013
##LASTX=15.9933
##FIRSTY=0.72
##MAXX=15.9933
##MINX=2.013
##MAXY=1.014
##MINY=0.058
##NPOINTS=2099
##XYDATA=(X++(Y..Y))
2.013000 0.7200 0.7200 0.7200 0.7200 0.7200
2.046333 0.7200 0.7200 0.7200 0.7200 0.7200
2.080000 0.7200 0.7200 0.7220 0.7220 0.7220
2.113333 0.7220 0.7220 0.7220 0.7230 0.7230
2.147000 0.7230 0.7230 0.7230 0.7230 0.7250
2.180333 0.7270 0.7270 0.7280 0.7280 0.7300
2.213000 0.7320 0.7320 0.7320 0.7330 0.7330
2.246333 0.7330 0.7330 0.7330 0.7350 0.7350
2.280000 0.7370 0.7370 0.7380 0.7380 0.7380
2.313333 0.7400 0.7400 0.7420 0.7420 0.7430
2.347000 0.7450 0.7470 0.7480 0.7480 0.7500
2.380333 0.7500 0.7520 0.7530 0.7530 0.7550
2.413000 0.7550 0.7570 0.7570 0.7580 0.7580
2.446333 0.7600 0.7600 0.7600 0.7620 0.7620
2.480000 0.7630 0.7650 0.7680 0.7700 0.7700
2.513333 0.7720 0.7720 0.7720 0.7720 0.7720
2.546000 0.7720 0.7730 0.7730 0.7730 0.7730
2.579333 0.7730 0.7730 0.7730 0.7750 0.7750
2.613000 0.7750 0.7770 0.7780 0.7780 0.7800
2.646333 0.7820 0.7820 0.7820 0.7830 0.7830
2.680000 0.7830 0.7830 0.7830 0.7830 0.7830
2.713333 0.7830 0.7830 0.7820 0.7800 0.7770
2.746000 0.7700 0.7630 0.7530 0.7450 0.7350
2.779333 0.7250 0.7150 0.7080 0.7000 0.6950
2.813000 0.6920 0.6820 0.6730 0.6650 0.6600
2.846333 0.6530 0.6470 0.6400 0.6320 0.6180
2.880000 0.6080 0.6070 0.6020 0.5900 0.5840
2.913333 0.5800 0.5800 0.5800 0.5790 0.5790
2.946000 0.5800 0.5800 0.5800 0.5840 0.5900
2.979333 0.5950 0.5990 0.6030 0.6070 0.6120
3.013000 0.6150 0.6170 0.6170 0.6170 0.6150
3.046333 0.6130 0.6120 0.6070 0.5990 0.5870
3.079000 0.5740 0.5600 0.5440 0.5270 0.5100
3.112333 0.4850 0.4600 0.4390 0.4140 0.3890
3.146000 0.3610 0.3420 0.3270 0.3160 0.3070
3.179333 0.2990 0.2910 0.2790 0.2670 0.2560
3.213000 0.2440 0.2340 0.2260 0.2170 0.2090
3.246333 0.2010 0.1930 0.1840 0.1740 0.1660
3.279000 0.1560 0.1490 0.1410 0.1360 0.1290
3.312333 0.1240 0.1230 0.1230 0.1230 0.1230
3.346000 0.1230 0.1210 0.1180 0.1140 0.1110
3.379333 0.1110 0.1130 0.1240 0.1340 0.1460
3.413000 0.1510 0.1790 0.1990 0.2140 0.2240
3.446333 0.2340 0.2410 0.2490 0.2590 0.2740
3.479000 0.2940 0.3210 0.3540 0.3770 0.3970
3.512333 0.4150 0.4340 0.4500 0.4670 0.4800
3.546000 0.4950 0.5090 0.5270 0.5400 0.5490
3.579333 0.5570 0.5620 0.5690 0.5740 0.5820
3.613000 0.5920 0.5940 0.5970 0.6020 0.6070
3.646333 0.6130 0.6200 0.6270 0.6330 0.6400
3.679000 0.6470 0.6500 0.6530 0.6580 0.6620
3.712333 0.6650 0.6680 0.6720 0.6750 0.6750
3.746000 0.6770 0.6770 0.6770 0.6750 0.6750
3.779333 0.6750 0.6730 0.6720 0.6700 0.6650
3.812000 0.6600 0.6550 0.6520 0.6470 0.6450
3.845333 0.6450 0.6470 0.6520 0.6580 0.6670
3.879000 0.6770 0.6870 0.6950 0.7000 0.7030
3.912333 0.7030 0.7050 0.7080 0.7080 0.7120
3.946000 0.7150 0.7200 0.7230 0.7300 0.7350
3.979333 0.7420 0.7470 0.7530 0.7580 0.7650
4.012000 0.7680 0.7700 0.7730 0.7770 0.7800
4.045333 0.7830 0.7880 0.7920 0.7950 0.7980
4.079000 0.8030 0.8100 0.8160 0.8230 0.8280
4.112333 0.8310 0.8330 0.8380 0.8410 0.8450
4.146000 0.8480 0.8500 0.8510 0.8530 0.8550
4.179333 0.8550 0.8550 0.8560 0.8560 0.8560
4.212000 0.8580 0.8580 0.8600 0.8610 0.8630
4.245333 0.8630 0.8630 0.8630 0.8630 0.8630
4.279000 0.8630 0.8630 0.8630 0.8630 0.8630
4.312333 0.8630 0.8630 0.8650 0.8660 0.8680
4.346000 0.8710 0.8750 0.8780 0.8830 0.8860
4.379333 0.8910 0.8930 0.8950 0.8950 0.8960
4.412000 0.8980 0.8980 0.9000 0.9010 0.9030
4.445333 0.9030 0.9030 0.9050 0.9050 0.9060
4.479000 0.9060 0.9100 0.9110 0.9110 0.9110
4.512333 0.9110 0.9110 0.9130 0.9130 0.9150
4.545000 0.9160 0.9160 0.9180 0.9200 0.9200
4.578333 0.9200 0.9210 0.9210 0.9230 0.9230
4.612000 0.9230 0.9230 0.9230 0.9230 0.9230
4.645333 0.9230 0.9230 0.9230 0.9230 0.9250
4.679000 0.9250 0.9260 0.9260 0.9260 0.9260
4.712333 0.9260 0.9260 0.9260 0.9260 0.9260
4.745000 0.9250 0.9250 0.9250 0.9250 0.9250
4.778333 0.9250 0.9250 0.9250 0.9250 0.9250
4.812000 0.9250 0.9250 0.9250 0.9250 0.9250
4.845333 0.9250 0.9250 0.9250 0.9250 0.9250
4.879000 0.9250 0.9250 0.9250 0.9230 0.9210
4.912333 0.9210 0.9210 0.9200 0.9200 0.9180
4.945000 0.9160 0.9150 0.9150 0.9130 0.9110
4.978333 0.9110 0.9130 0.9130 0.9150 0.9180
5.012000 0.9180 0.9160 0.9150 0.9150 0.9130
5.045333 0.9110 0.9110 0.9110 0.9100 0.9100
5.079000 0.9100 0.9100 0.9100 0.9100 0.9100
5.112333 0.9100 0.9110 0.9110 0.9130 0.9130
5.145000 0.9130 0.9150 0.9130 0.9110 0.9110
5.178333 0.9110 0.9110 0.9110 0.9110 0.9110
5.212000 0.9110 0.9110 0.9110 0.9130 0.9150
5.245333 0.9150 0.9150 0.9130 0.9150 0.9150
5.278000 0.9150 0.9150 0.9150 0.9150 0.9150
5.311333 0.9150 0.9150 0.9150 0.9150 0.9150
5.345000 0.9150 0.9150 0.9150 0.9130 0.9130
5.378333 0.9150 0.9130 0.9130 0.9130 0.9110
5.412000 0.9100 0.9060 0.9050 0.9010 0.8980
5.445333 0.8960 0.8950 0.8910 0.8900 0.8900
5.478000 0.8900 0.8900 0.8900 0.8900 0.8860
5.511333 0.8850 0.8830 0.8810 0.8810 0.8810
5.545000 0.8810 0.8810 0.8810 0.8830 0.8860
5.578333 0.8860 0.8860 0.8860 0.8880 0.8880
5.612000 0.8850 0.8850 0.8830 0.8760 0.8660
5.645333 0.8510 0.8400 0.8110 0.7850 0.7280
5.678000 0.6430 0.5670 0.4570 0.3140 0.2060
5.711333 0.0810 0.0780 0.0810 0.0980 0.1060
5.745000 0.1230 0.1560 0.2240 0.3310 0.4370
5.778333 0.5200 0.5390 0.5520 0.5940 0.6520
5.812000 0.6920 0.7120 0.7350 0.7470 0.7530
5.845333 0.7620 0.7700 0.7750 0.7770 0.7770
5.878000 0.7780 0.7780 0.7830 0.7880 0.7980
5.911333 0.8110 0.8230 0.8280 0.8310 0.8350
5.945000 0.8350 0.8380 0.8400 0.8410 0.8430
5.978333 0.8450 0.8460 0.8460 0.8460 0.8460
6.011000 0.8450 0.8430 0.8430 0.8400 0.8380
6.044333 0.8360 0.8360 0.8350 0.8330 0.8260
6.078000 0.8160 0.8100 0.8050 0.8010 0.8010
6.111333 0.7970 0.7950 0.7920 0.7900 0.7900
6.145000 0.7830 0.7820 0.7800 0.7800 0.7720
6.178333 0.7680 0.7650 0.7550 0.7450 0.7350
6.211000 0.7270 0.7220 0.7180 0.7150 0.7130
6.244333 0.7120 0.7100 0.7080 0.7050 0.7020
6.278000 0.7000 0.6980 0.6970 0.6970 0.6970
6.311333 0.6970 0.6980 0.6980 0.7000 0.7000
6.345000 0.7020 0.7030 0.7080 0.7120 0.7180
6.378333 0.7270 0.7330 0.7380 0.7530 0.7780
6.411000 0.7830 0.7880 0.7970 0.7970 0.8000
6.444333 0.8010 0.8050 0.8050 0.8080 0.8110
6.478000 0.8130 0.8150 0.8160 0.8160 0.8160
6.511333 0.8160 0.8160 0.8150 0.8150 0.8130
6.545000 0.8110 0.8030 0.7950 0.7870 0.7780
6.578333 0.7720 0.7650 0.7580 0.7480 0.7370
6.611000 0.7220 0.7050 0.6950 0.6820 0.6700
6.644333 0.6500 0.6180 0.5920 0.5600 0.5200
6.678000 0.5000 0.5000 0.5040 0.5070 0.5200
6.711333 0.5470 0.5750 0.5850 0.5940 0.6000
6.744000 0.6080 0.6130 0.6130 0.6130 0.6130
6.777333 0.6130 0.6130 0.6130 0.6170 0.6180
6.811000 0.6250 0.6330 0.6400 0.6470 0.6600
6.844333 0.6820 0.6950 0.7050 0.7150 0.7230
6.878000 0.7300 0.7370 0.7420 0.7470 0.7520
6.911333 0.7530 0.7600 0.7620 0.7620 0.7630
6.944000 0.7630 0.7630 0.7620 0.7570 0.7430
6.977333 0.7270 0.7080 0.6920 0.6770 0.6630
7.011000 0.6520 0.6380 0.6250 0.6250 0.6300
7.044333 0.6550 0.6730 0.6880 0.6900 0.6900
7.078000 0.6900 0.6900 0.6900 0.6850 0.6720
7.111333 0.6570 0.6430 0.6270 0.6120 0.5970
7.144000 0.5720 0.5450 0.5020 0.4690 0.4400
7.177333 0.4170 0.3960 0.3710 0.3390 0.2990
7.211000 0.2470 0.2310 0.2110 0.1930 0.1780
7.244333 0.1580 0.1480 0.1360 0.1260 0.1160
7.277000 0.1140 0.1140 0.1160 0.1180 0.1190
7.310333 0.1240 0.1330 0.1410 0.1490 0.1590
7.344000 0.1660 0.1730 0.1760 0.1790 0.1810
7.377333 0.1810 0.1810 0.1810 0.1790 0.1790
7.411000 0.1790 0.1790 0.1810 0.2160 0.2420
7.444333 0.2660 0.2920 0.3170 0.3560 0.3890
7.477000 0.4190 0.4490 0.4750 0.5000 0.5240
7.510333 0.5420 0.5590 0.5720 0.5940 0.6130
7.544000 0.6330 0.6550 0.6730 0.6880 0.7030
7.577333 0.7120 0.7170 0.7230 0.7370 0.7500
7.611000 0.7530 0.7570 0.7600 0.7670 0.7700
7.644333 0.7700 0.7700 0.7700 0.7680 0.7650
7.677000 0.7600 0.7530 0.7450 0.7380 0.7280
7.710333 0.7170 0.7050 0.6920 0.6750 0.6600
7.744000 0.6480 0.6330 0.6170 0.6050 0.6000
7.777333 0.5950 0.5890 0.5750 0.5640 0.5550
7.811000 0.5500 0.5440 0.5370 0.5300 0.5200
7.844333 0.5020 0.4900 0.4650 0.4320 0.3910
7.877000 0.3490 0.3060 0.2640 0.2290 0.2020
7.910333 0.1880 0.1730 0.1690 0.1690 0.1710
7.944000 0.1910 0.2120 0.2360 0.2520 0.2640
7.977333 0.2640 0.2640 0.2570 0.2540 0.2520
8.010000 0.2560 0.2860 0.2940 0.3020 0.3120
8.043333 0.3240 0.3290 0.3260 0.3240 0.3110
8.077000 0.2960 0.2760 0.2640 0.2560 0.2460
8.110333 0.2420 0.2420 0.2440 0.2670 0.2960
8.144000 0.3320 0.3710 0.4120 0.4520 0.4870
8.177333 0.5150 0.5320 0.5350 0.5470 0.5550
8.210000 0.5600 0.5590 0.5590 0.5570 0.5550
8.243333 0.5420 0.5220 0.4940 0.4600 0.4220
8.277000 0.3870 0.3390 0.3010 0.2770 0.2410
8.310333 0.2040 0.1630 0.1360 0.1110 0.0930
8.344000 0.0790 0.0730 0.0660 0.0630 0.0590
8.377333 0.0580 0.0590 0.0640 0.0730 0.0880
8.410000 0.1040 0.1280 0.1530 0.1830 0.2160
8.443333 0.2520 0.2940 0.3210 0.3490 0.3720
8.477000 0.3970 0.4140 0.4420 0.4620 0.4800
8.510333 0.5020 0.5190 0.5320 0.5470 0.5570
8.544000 0.5670 0.5740 0.5820 0.5900 0.5990
8.577333 0.6100 0.6200 0.6330 0.6450 0.6580
8.610000 0.6720 0.6830 0.6950 0.7070 0.7180
8.643333 0.7300 0.7400 0.7520 0.7620 0.7730
8.677000 0.7830 0.7950 0.8050 0.8150 0.8260
8.710333 0.8350 0.8410 0.8450 0.8480 0.8510
8.743000 0.8550 0.8580 0.8600 0.8610 0.8650
8.776333 0.8680 0.8710 0.8750 0.8780 0.8830
8.810000 0.8910 0.8930 0.8980 0.9000 0.9000
8.843333 0.9010 0.9030 0.9050 0.9050 0.9050
8.877000 0.9050 0.9050 0.9030 0.9010 0.9010
8.910333 0.8980 0.8910 0.8860 0.8760 0.8650
8.943000 0.8480 0.8360 0.8230 0.8130 0.8030
8.976333 0.7930 0.7920 0.7930 0.7980 0.8000
9.010000 0.8060 0.8130 0.8200 0.8260 0.8330
9.043333 0.8400 0.8480 0.8500 0.8550 0.8600
9.077000 0.8680 0.8760 0.8850 0.8950 0.9010
9.110333 0.9060 0.9110 0.9150 0.9200 0.9200
9.143000 0.9200 0.9200 0.9200 0.9200 0.9200
9.176333 0.9200 0.9200 0.9200 0.9180 0.9150
9.210000 0.9150 0.9110 0.9080 0.9010 0.8950
9.243333 0.8880 0.8810 0.8760 0.8730 0.8700
9.277000 0.8660 0.8630 0.8610 0.8610 0.8610
9.310333 0.8610 0.8610 0.8610 0.8610 0.8610
9.343000 0.8610 0.8610 0.8610 0.8610 0.8630
9.376333 0.8630 0.8630 0.8610 0.8450 0.8160
9.410000 0.7970 0.7770 0.7500 0.7050 0.6530
9.443333 0.5950 0.5290 0.4470 0.3570 0.2610
9.476000 0.2090 0.1680 0.1410 0.1380 0.1380
9.509333 0.1390 0.1410 0.1440 0.1510 0.1710
9.543000 0.1940 0.2240 0.2520 0.2660 0.2690
9.576333 0.2670 0.2340 0.2090 0.1690 0.1290
9.610000 0.1230 0.1210 0.1230 0.1510 0.1940
9.643333 0.2570 0.3260 0.3810 0.4400 0.4970
9.676000 0.5570 0.6050 0.6450 0.6750 0.6980
9.709333 0.7130 0.7250 0.7350 0.7420 0.7520
9.743000 0.7620 0.7720 0.7750 0.7820 0.7970
9.776333 0.8000 0.8010 0.8050 0.8080 0.8130
9.810000 0.8180 0.8200 0.8230 0.8250 0.8260
9.843333 0.8260 0.8260 0.8260 0.8260 0.8260
9.876000 0.8250 0.8230 0.8230 0.8230 0.8230
9.909333 0.8230 0.8230 0.8230 0.8260 0.8310
9.943000 0.8360 0.8410 0.8500 0.8600 0.8700
9.976333 0.8750 0.8810 0.8900 0.8980 0.9060
10.010000 0.9160 0.9260 0.9310 0.9330 0.9350
10.043333 0.9350 0.9360 0.9380 0.9380 0.9380
10.076000 0.9380 0.9400 0.9400 0.9400 0.9400
10.109333 0.9410 0.9410 0.9430 0.9430 0.9430
10.143000 0.9450 0.9450 0.9480 0.9500 0.9530
10.176333 0.9550 0.9580 0.9600 0.9610 0.9630
10.209000 0.9650 0.9660 0.9660 0.9660 0.9660
10.242333 0.9660 0.9680 0.9680 0.9680 0.9680
10.276000 0.9680 0.9660 0.9660 0.9660 0.9650
10.309333 0.9650 0.9650 0.9650 0.9650 0.9650
10.343000 0.9650 0.9650 0.9660 0.9660 0.9680
10.376333 0.9660 0.9680 0.9700 0.9700 0.9710
10.409000 0.9730 0.9730 0.9750 0.9750 0.9750
10.442333 0.9750 0.9760 0.9760 0.9760 0.9760
10.476000 0.9760 0.9760 0.9760 0.9760 0.9750
10.509333 0.9750 0.9730 0.9730 0.9730 0.9730
10.543000 0.9710 0.9710 0.9710 0.9700 0.9680
10.576333 0.9680 0.9660 0.9650 0.9610 0.9600
10.609000 0.9580 0.9550 0.9550 0.9510 0.9510
10.642333 0.9500 0.9460 0.9430 0.9410 0.9380
10.676000 0.9350 0.9330 0.9300 0.9250 0.9210
10.709333 0.9150 0.9100 0.9010 0.8930 0.8810
10.743000 0.8700 0.8550 0.8430 0.8330 0.8310
10.776333 0.8250 0.8150 0.8060 0.7970 0.7900
10.809000 0.7880 0.7880 0.7880 0.7900 0.8030
10.842333 0.8100 0.8250 0.8330 0.8410 0.8450
10.876000 0.8500 0.8500 0.8500 0.8500 0.8480
10.909333 0.8460 0.8450 0.8430 0.8400 0.8280
10.942000 0.8180 0.8050 0.7930 0.7800 0.7720
10.975333 0.7630 0.7520 0.7500 0.7500 0.7500
11.009000 0.7500 0.7520 0.7650 0.7750 0.7820
11.042333 0.7870 0.7930 0.8000 0.8080 0.8180
11.076000 0.8260 0.8330 0.8400 0.8450 0.8500
11.109333 0.8550 0.8610 0.8660 0.8710 0.8760
11.142000 0.8800 0.8810 0.8810 0.8830 0.8830
11.175333 0.8830 0.8830 0.8830 0.8830 0.8830
11.209000 0.8830 0.8830 0.8830 0.8830 0.8830
11.242333 0.8850 0.8860 0.8880 0.8930 0.8980
11.276000 0.9030 0.9060 0.9110 0.9150 0.9180
11.309333 0.9210 0.9210 0.9230 0.9230 0.9250
11.342000 0.9250 0.9250 0.9250 0.9250 0.9250
11.375333 0.9250 0.9250 0.9250 0.9250 0.9250
11.409000 0.9250 0.9250 0.9250 0.9230 0.9230
11.442333 0.9230 0.9230 0.9210 0.9210 0.9200
11.475000 0.9160 0.9150 0.9130 0.9110 0.9100
11.508333 0.9100 0.9080 0.9060 0.9050 0.9050
11.542000 0.9010 0.9010 0.9000 0.8980 0.8960
11.575333 0.8960 0.8950 0.8950 0.8930 0.8910
11.609000 0.8880 0.8860 0.8850 0.8830 0.8810
11.642333 0.8800 0.8780 0.8750 0.8730 0.8710
11.675000 0.8710 0.8700 0.8660 0.8660 0.8630
11.708333 0.8610 0.8610 0.8600 0.8600 0.8600
11.742000 0.8600 0.8600 0.8600 0.8580 0.8580
11.775333 0.8580 0.8580 0.8580 0.8560 0.8560
11.809000 0.8550 0.8550 0.8550 0.8550 0.8550
11.842333 0.8550 0.8550 0.8550 0.8560 0.8560
11.875000 0.8560 0.8560 0.8580 0.8610 0.8630
11.908333 0.8660 0.8680 0.8700 0.8700 0.8730
11.942000 0.8750 0.8780 0.8810 0.8860 0.8900
11.975333 0.8910 0.8930 0.8950 0.8960 0.8960
12.009000 0.8960 0.8980 0.8980 0.8980 0.8980
12.042333 0.8980 0.8930 0.8750 0.8510 0.8260
12.075000 0.8030 0.7780 0.7530 0.7270 0.6930
12.108333 0.6650 0.6420 0.6230 0.6080 0.5970
12.142000 0.5840 0.5720 0.5590 0.5500 0.5490
12.175333 0.5490 0.5490 0.5490 0.5520 0.5690
12.208000 0.5840 0.6030 0.6220 0.6350 0.6470
12.241333 0.6570 0.6680 0.6800 0.6880 0.6980
12.275000 0.7070 0.7130 0.7200 0.7220 0.7230
12.308333 0.7230 0.7250 0.7270 0.7280 0.7300
12.342000 0.7300 0.7300 0.7280 0.7280 0.7270
12.375333 0.7250 0.7230 0.7200 0.7180 0.7130
12.408000 0.7080 0.7020 0.7000 0.6970 0.6920
12.441333 0.6870 0.6830 0.6830 0.6820 0.6800
12.475000 0.6730 0.6700 0.6680 0.6680 0.6650
12.508333 0.6630 0.6630 0.6630 0.6630 0.6630
12.542000 0.6630 0.6630 0.6630 0.6630 0.6630
12.575333 0.6630 0.6670 0.6730 0.6770 0.6800
12.608000 0.6830 0.6870 0.6900 0.6920 0.6950
12.641333 0.6980 0.7020 0.7050 0.7100 0.7170
12.675000 0.7220 0.7250 0.7280 0.7320 0.7330
12.708333 0.7370 0.7380 0.7420 0.7450 0.7480
12.742000 0.7530 0.7580 0.7650 0.7720 0.7750
12.775333 0.7780 0.7800 0.7820 0.7850 0.7880
12.808000 0.7930 0.8000 0.8000 0.8010 0.8050
12.841333 0.8100 0.8150 0.8160 0.8180 0.8210
12.875000 0.8250 0.8300 0.8330 0.8360 0.8400
12.908333 0.8430 0.8460 0.8480 0.8500 0.8550
12.941000 0.8560 0.8580 0.8600 0.8600 0.8610
12.974333 0.8630 0.8660 0.8700 0.8750 0.8780
13.008000 0.8810 0.8810 0.8850 0.8850 0.8860
13.041333 0.8860 0.8900 0.8910 0.8930 0.8960
13.075000 0.8960 0.8980 0.8980 0.9000 0.9000
13.108333 0.9010 0.9010 0.9010 0.9010 0.9010
13.141000 0.9010 0.9010 0.9010 0.9010 0.9030
13.174333 0.9030 0.9030 0.9030 0.9030 0.9030
13.208000 0.9030 0.9030 0.9050 0.9050 0.9050
13.241333 0.9050 0.9050 0.9050 0.9050 0.9050
13.275000 0.9050 0.9050 0.9050 0.9050 0.9050
13.308333 0.9050 0.9050 0.9050 0.9050 0.9050
13.341000 0.9050 0.9050 0.9050 0.9050 0.9050
13.374333 0.9050 0.9050 0.9030 0.9030 0.9030
13.408000 0.9030 0.9030 0.9030 0.9030 0.9030
13.441333 0.9010 0.9010 0.9010 0.9000 0.8980
13.475000 0.8950 0.8910 0.8880 0.8860 0.8850
13.508333 0.8830 0.8810 0.8780 0.8760 0.8750
13.541000 0.8750 0.8730 0.8730 0.8710 0.8710
13.574333 0.8710 0.8710 0.8710 0.8700 0.8700
13.608000 0.8700 0.8700 0.8730 0.8810 0.8900
13.641333 0.8950 0.9000 0.9050 0.9110 0.9200
13.674000 0.9230 0.9280 0.9330 0.9330 0.9350
13.707333 0.9360 0.9360 0.9380 0.9400 0.9400
13.741000 0.9400 0.9400 0.9400 0.9400 0.9400
13.774333 0.9400 0.9380 0.9360 0.9360 0.9350
13.808000 0.9330 0.9280 0.9260 0.9250 0.9230
13.841333 0.9210 0.9210 0.9210 0.9210 0.9210
13.874000 0.9210 0.9230 0.9250 0.9280 0.9300
13.907333 0.9310 0.9330 0.9360 0.9400 0.9450
13.941000 0.9480 0.9550 0.9600 0.9660 0.9730
13.974333 0.9800 0.9850 0.9880 0.9910 0.9930
14.008000 1.0000 1.0110 1.0110 1.0110 1.0110
14.041333 1.0130 1.0130 1.0130 1.0130 1.0130
14.074000 1.0130 1.0130 1.0130 1.0130 1.0130
14.107333 1.0130 1.0130 1.0130 1.0140 1.0140
14.141000 1.0140 1.0140 1.0140 1.0140 1.0140
14.174333 1.0140 1.0140 1.0140 1.0140 1.0140
14.208000 1.0140 1.0140 1.0140 1.0140 1.0140
14.241333 1.0140 1.0140 1.0140 1.0140 1.0140
14.274000 1.0140 1.0140 1.0130 1.0130 1.0110
14.307333 1.0110 1.0090 1.0090 1.0080 1.0080
14.341000 1.0080 1.0080 1.0080 1.0060 1.0060
14.374333 1.0060 1.0060 1.0060 1.0060 1.0080
14.407000 1.0080 1.0080 1.0080 1.0060 1.0060
14.440333 1.0060 1.0060 1.0040 1.0040 1.0040
14.474000 1.0040 1.0030 1.0030 1.0030 1.0030
14.507333 1.0010 1.0010 1.0010 1.0010 1.0010
14.541000 1.0010 1.0010 1.0010 1.0010 1.0010
14.574333 1.0010 1.0000 1.0000 1.0000 1.0000
14.607000 1.0000 1.0000 1.0000 1.0000 1.0000
14.640333 1.0000 0.9980 1.0000 1.0000 1.0000
14.674000 1.0000 1.0000 1.0000 1.0000 1.0000
14.707333 0.9980 0.9980 0.9980 0.9980 0.9980
14.741000 0.9980 0.9980 0.9980 1.0000 1.0000
14.774333 1.0000 1.0000 1.0000 1.0000 1.0000
14.807000 1.0000 1.0000 1.0000 1.0010 1.0010
14.840333 1.0010 1.0010 1.0010 1.0010 1.0010
14.874000 1.0010 1.0010 1.0010 1.0010 1.0010
14.907333 1.0010 1.0010 1.0010 1.0010 1.0000
14.941000 1.0000 1.0000 1.0000 0.9960 0.9960
14.974333 0.9930 0.9910 0.9900 0.9880 0.9880
15.007000 0.9850 0.9800 0.9760 0.9760 0.9760
15.040333 0.9760 0.9760 0.9760 0.9760 0.9760
15.074000 0.9780 0.9800 0.9800 0.9810 0.9810
15.107333 0.9810 0.9810 0.9810 0.9810 0.9810
15.140000 0.9810 0.9800 0.9800 0.9800 0.9780
15.173333 0.9760 0.9760 0.9760 0.9750 0.9730
15.207000 0.9700 0.9680 0.9660 0.9660 0.9650
15.240333 0.9630 0.9600 0.9560 0.9530 0.9510
15.274000 0.9510 0.9500 0.9500 0.9460 0.9450
15.307333 0.9430 0.9410 0.9380 0.9350 0.9300
15.340000 0.9260 0.9250 0.9210 0.9200 0.9160
15.373333 0.9130 0.9110 0.9080 0.9060 0.9030
15.407000 0.9000 0.8980 0.8950 0.8910 0.8880
15.440333 0.8860 0.8830 0.8800 0.8760 0.8730
15.474000 0.8680 0.8630 0.8580 0.8530 0.8480
15.507333 0.8430 0.8380 0.8350 0.8330 0.8300
15.540000 0.8260 0.8210 0.8160 0.8060 0.8030
15.573333 0.7970 0.7920 0.7830 0.7770 0.7700
15.607000 0.7600 0.7500 0.7420 0.7300 0.7200
15.640333 0.7080 0.7030 0.6930 0.6800 0.6700
15.673000 0.6600 0.6500 0.6420 0.6320 0.6250
15.706333 0.6170 0.6100 0.6030 0.5990 0.5950
15.740000 0.5870 0.5840 0.5800 0.5800 0.5790
15.773333 0.5770 0.5740 0.5740 0.5720 0.5720
15.807000 0.5720 0.5720 0.5720 0.5720 0.5720
15.840333 0.5720 0.5720 0.5720 0.5720 0.5720
15.873000 0.5720 0.5720 0.5740 0.5740 0.5750
15.906333 0.5750 0.5770 0.5790 0.5790 0.5790
15.940000 0.5790 0.5800 0.5820 0.5820 0.5850
15.973333 0.5870 0.5870 0.5890 0.5890
##END=
