##TITLE=DICHLOROCYANURIC ACID, SODIUM SALT
##JCAMP-DX=4.24
##DATA TYPE=INFRARED SPECTRUM
##CLASS=COBLENTZ
##OWNER=COBLENTZ SOCIETY
Collection (C) 2018 copyright by the U.S. Secretary of Commerce
on behalf of the United States of America. All rights reserved.
##DATE=Not specified, most likely prior to 1970
##MOLFORM=C3 Cl2 N3 Na O3
##SOURCE REFERENCE=COBLENTZ NO. 3656
##$NIST ID=B6003656
##$NIST SOURCE=COBLENTZ
##$NIST IMAGE=cob3656
##SPECTROMETER/DATA SYSTEM=PERKIN-ELMER
##STATE=SOLID (ARNEEL C MULL)
##SAMPLING PROCEDURE=TRANSMISSION
##RESOLUTION=4
##DATA PROCESSING=DIGITIZED BY NIST FROM HARD COPY
##XUNITS=MICROMETERS
##YUNITS=TRANSMITTANCE
##XFACTOR=1.000000
##YFACTOR=1
##DELTAX=000.006123
##FIRSTX=2.024
##LASTX=15.5266
##FIRSTY=0.877
##MAXX=15.5266
##MINX=2.024
##MAXY=1.032
##MINY=0.189
##NPOINTS=2206
##XYDATA=(X++(Y..Y))
2.024000 0.8770 0.8770 0.8750 0.8750 0.8750
2.054631 0.8770 0.8770 0.8770 0.8770 0.8770
2.086000 0.8790 0.8790 0.8790 0.8790 0.8790
2.116631 0.8770 0.8770 0.8790 0.8790 0.8800
2.147000 0.8800 0.8800 0.8800 0.8820 0.8830
2.177631 0.8830 0.8830 0.8830 0.8830 0.8850
2.208000 0.8880 0.8890 0.8890 0.8890 0.8890
2.238631 0.8880 0.8880 0.8890 0.8890 0.8890
2.269000 0.8910 0.8910 0.8920 0.8920 0.8920
2.299631 0.8920 0.8920 0.8920 0.8920 0.8920
2.331000 0.8920 0.8920 0.8920 0.8910 0.8910
2.361631 0.8910 0.8890 0.8890 0.8890 0.8890
2.392000 0.8890 0.8890 0.8910 0.8910 0.8910
2.422631 0.8910 0.8920 0.8920 0.8920 0.8920
2.453000 0.8910 0.8910 0.8890 0.8890 0.8890
2.483631 0.8890 0.8890 0.8890 0.8890 0.8890
2.514000 0.8890 0.8890 0.8910 0.8920 0.8920
2.544631 0.8940 0.8940 0.8920 0.8920 0.8920
2.576000 0.8920 0.8920 0.8920 0.8940 0.8950
2.606631 0.8970 0.8980 0.8980 0.8980 0.8980
2.637000 0.8980 0.8980 0.8980 0.8970 0.8950
2.667631 0.8950 0.8950 0.8950 0.8950 0.8940
2.698000 0.8920 0.8880 0.8770 0.8710 0.8560
2.728631 0.8340 0.8000 0.7850 0.7700 0.7650
2.759000 0.7610 0.7610 0.7640 0.7700 0.7770
2.789631 0.7850 0.7940 0.7940 0.7850 0.7840
2.821000 0.7840 0.7850 0.7850 0.7900 0.7940
2.851631 0.8000 0.8100 0.8130 0.8200 0.8300
2.882000 0.8340 0.8370 0.8400 0.8430 0.8460
2.912631 0.8480 0.8490 0.8520 0.8560 0.8590
2.943000 0.8600 0.8600 0.8620 0.8630 0.8650
2.973631 0.8650 0.8660 0.8660 0.8660 0.8650
3.004000 0.8630 0.8620 0.8590 0.8560 0.8540
3.034631 0.8520 0.8520 0.8520 0.8520 0.8520
3.065000 0.8510 0.8490 0.8490 0.8480 0.8460
3.095631 0.8450 0.8450 0.8450 0.8450 0.8450
3.127000 0.8450 0.8450 0.8450 0.8450 0.8450
3.157631 0.8460 0.8460 0.8480 0.8480 0.8490
3.188000 0.8510 0.8540 0.8560 0.8570 0.8560
3.218631 0.8540 0.8520 0.8510 0.8510 0.8490
3.249000 0.8490 0.8510 0.8510 0.8510 0.8520
3.279631 0.8520 0.8540 0.8560 0.8570 0.8590
3.310000 0.8590 0.8570 0.8570 0.8540 0.8520
3.340631 0.8520 0.8480 0.8460 0.8450 0.8360
3.372000 0.8310 0.8300 0.8280 0.8250 0.8200
3.402631 0.8200 0.8200 0.8200 0.8200 0.8200
3.433000 0.8200 0.8200 0.8220 0.8250 0.8300
3.463631 0.8300 0.8310 0.8330 0.8340 0.8370
3.494000 0.8400 0.8450 0.8480 0.8510 0.8520
3.524631 0.8560 0.8590 0.8600 0.8620 0.8620
3.555000 0.8630 0.8630 0.8630 0.8630 0.8630
3.585631 0.8630 0.8630 0.8650 0.8660 0.8660
3.617000 0.8680 0.8690 0.8710 0.8710 0.8710
3.647631 0.8710 0.8740 0.8740 0.8750 0.8750
3.678000 0.8770 0.8770 0.8770 0.8770 0.8790
3.708631 0.8800 0.8820 0.8830 0.8850 0.8850
3.739000 0.8850 0.8830 0.8820 0.8820 0.8830
3.769631 0.8830 0.8850 0.8850 0.8850 0.8850
3.800000 0.8850 0.8850 0.8850 0.8850 0.8860
3.830631 0.8880 0.8880 0.8880 0.8890 0.8890
3.862000 0.8890 0.8890 0.8860 0.8860 0.8860
3.892631 0.8880 0.8880 0.8890 0.8890 0.8910
3.923000 0.8910 0.8910 0.8910 0.8910 0.8910
3.953631 0.8920 0.8920 0.8920 0.8920 0.8910
3.984000 0.8910 0.8910 0.8910 0.8910 0.8920
4.014631 0.8920 0.8920 0.8920 0.8920 0.8920
4.045000 0.8940 0.8950 0.8950 0.8970 0.8970
4.075631 0.8970 0.8970 0.8970 0.8970 0.8950
4.106000 0.8950 0.8950 0.8950 0.8950 0.8950
4.136631 0.8950 0.8950 0.8970 0.8970 0.8980
4.168000 0.8980 0.8980 0.8980 0.8980 0.8980
4.198631 0.8980 0.8970 0.8970 0.8980 0.8980
4.229000 0.8970 0.8970 0.8950 0.8920 0.8920
4.259631 0.8910 0.8910 0.8910 0.8910 0.8910
4.290000 0.8910 0.8910 0.8910 0.8910 0.8910
4.320631 0.8920 0.8940 0.8940 0.8940 0.8940
4.351000 0.8920 0.8940 0.8940 0.8940 0.8950
4.381631 0.8970 0.8980 0.8980 0.8980 0.8980
4.413000 0.8980 0.8970 0.8970 0.8970 0.8970
4.443631 0.8970 0.8970 0.8970 0.8970 0.8970
4.474000 0.8970 0.8970 0.8970 0.8980 0.9000
4.504631 0.9000 0.8980 0.8980 0.8980 0.8980
4.535000 0.8980 0.9000 0.9000 0.9050 0.9050
4.565631 0.9060 0.9060 0.9060 0.9060 0.9060
4.596000 0.9060 0.9060 0.9080 0.9080 0.9090
4.626631 0.9090 0.9090 0.9090 0.9090 0.9090
4.658000 0.9090 0.9090 0.9090 0.9080 0.9080
4.688631 0.9060 0.9060 0.9060 0.9060 0.9060
4.719000 0.9060 0.9060 0.9060 0.9060 0.9050
4.749631 0.9050 0.9050 0.9060 0.9060 0.9060
4.780000 0.9060 0.9060 0.9060 0.9060 0.9060
4.810631 0.9060 0.9080 0.9090 0.9090 0.9090
4.841000 0.9090 0.9110 0.9090 0.9090 0.9080
4.871631 0.9080 0.9080 0.9080 0.9060 0.9050
4.902000 0.9030 0.9030 0.9050 0.9050 0.9050
4.932631 0.9050 0.9050 0.9050 0.9050 0.9060
4.964000 0.9060 0.9060 0.9060 0.9060 0.9060
4.994631 0.9080 0.9090 0.9090 0.9090 0.9090
5.025000 0.9090 0.9110 0.9090 0.9090 0.9090
5.055631 0.9110 0.9090 0.9090 0.9090 0.9090
5.086000 0.9090 0.9090 0.9090 0.9090 0.9080
5.116631 0.9080 0.9080 0.9080 0.9080 0.9080
5.147000 0.9080 0.9080 0.9080 0.9080 0.9060
5.177631 0.9060 0.9060 0.9060 0.9060 0.9060
5.209000 0.9060 0.9060 0.9060 0.9060 0.9080
5.239631 0.9080 0.9060 0.9060 0.9060 0.9050
5.270000 0.9050 0.9050 0.9050 0.9050 0.9050
5.300631 0.9030 0.9030 0.9030 0.9030 0.9030
5.331000 0.9030 0.9030 0.9030 0.9030 0.9030
5.361631 0.9030 0.9050 0.9050 0.9050 0.9050
5.392000 0.9050 0.9030 0.9030 0.9030 0.9010
5.422631 0.9000 0.9000 0.9000 0.9000 0.8970
5.454000 0.8970 0.8970 0.8940 0.8920 0.8910
5.484631 0.8910 0.8910 0.8890 0.8850 0.8790
5.515000 0.8770 0.8740 0.8720 0.8710 0.8690
5.545631 0.8540 0.8510 0.8490 0.8490 0.8460
5.576000 0.8430 0.8420 0.8300 0.8160 0.8100
5.606631 0.8000 0.7960 0.7940 0.7820 0.7760
5.637000 0.7730 0.7590 0.7330 0.7160 0.7090
5.667631 0.6920 0.6810 0.6730 0.6610 0.6490
5.699000 0.6370 0.6300 0.6240 0.6210 0.6200
5.729631 0.6140 0.6000 0.5800 0.5570 0.5450
5.760000 0.5310 0.5190 0.4990 0.4880 0.4800
5.790631 0.4740 0.4620 0.4480 0.4420 0.4330
5.821000 0.4220 0.3990 0.3810 0.3660 0.3590
5.851631 0.3490 0.3430 0.3380 0.3300 0.3240
5.882000 0.3150 0.3030 0.2900 0.2770 0.2690
5.912631 0.2670 0.2670 0.2670 0.2690 0.2800
5.943000 0.2950 0.3210 0.3430 0.3690 0.3810
5.973631 0.3900 0.3930 0.3950 0.3930 0.3660
6.005000 0.3490 0.3260 0.3150 0.3040 0.2920
6.035631 0.2800 0.2670 0.2570 0.2520 0.2460
6.066000 0.2450 0.2430 0.2450 0.2520 0.2520
6.096631 0.2430 0.2380 0.2320 0.2220 0.2180
6.127000 0.2170 0.2110 0.2080 0.2030 0.2000
6.157631 0.1920 0.1910 0.1890 0.1890 0.1890
6.188000 0.1890 0.1910 0.2000 0.2110 0.2230
6.218631 0.2290 0.2580 0.2780 0.3000 0.3040
6.250000 0.3210 0.3470 0.3850 0.3930 0.4070
6.280631 0.4250 0.4360 0.4420 0.4500 0.4700
6.311000 0.5050 0.5230 0.5280 0.5420 0.5630
6.341631 0.5810 0.5970 0.6300 0.6350 0.6460
6.372000 0.6530 0.6600 0.6630 0.6640 0.6660
6.402631 0.6730 0.6790 0.6860 0.6980 0.7090
6.433000 0.7130 0.7240 0.7270 0.7320 0.7330
6.463631 0.7350 0.7360 0.7380 0.7410 0.7440
6.495000 0.7500 0.7540 0.7590 0.7640 0.7680
6.525631 0.7710 0.7760 0.7760 0.7760 0.7770
6.556000 0.7770 0.7790 0.7790 0.7810 0.7820
6.586631 0.7810 0.7760 0.7700 0.7610 0.7510
6.617000 0.7450 0.7380 0.7360 0.7360 0.7380
6.647631 0.7390 0.7420 0.7440 0.7480 0.7580
6.678000 0.7680 0.7740 0.7760 0.7790 0.7820
6.708631 0.7850 0.7870 0.7880 0.7900 0.7910
6.740000 0.7910 0.7910 0.7910 0.7910 0.7900
6.770631 0.7870 0.7840 0.7810 0.7730 0.7670
6.801000 0.7640 0.7610 0.7610 0.7590 0.7590
6.831631 0.7590 0.7580 0.7540 0.7470 0.7450
6.862000 0.7440 0.7420 0.7390 0.7380 0.7360
6.892631 0.7270 0.7210 0.7150 0.7100 0.7050
6.923000 0.6950 0.6840 0.6730 0.6550 0.6090
6.953631 0.5660 0.5520 0.5420 0.5310 0.4910
6.984000 0.4740 0.4570 0.4570 0.4620 0.4740
7.014631 0.4790 0.4930 0.5030 0.5290 0.5390
7.046000 0.5460 0.5550 0.5620 0.5740 0.5840
7.076631 0.5940 0.6030 0.6120 0.6240 0.6270
7.107000 0.6470 0.6700 0.6780 0.6840 0.6920
7.137631 0.6980 0.7090 0.7120 0.7240 0.7270
7.168000 0.7320 0.7350 0.7420 0.7500 0.7580
7.198631 0.7640 0.7680 0.7710 0.7740 0.7760
7.229000 0.7760 0.7760 0.7760 0.7760 0.7760
7.259631 0.7760 0.7740 0.7710 0.7710 0.7700
7.291000 0.7680 0.7670 0.7640 0.7620 0.7610
7.321631 0.7580 0.7510 0.7470 0.7440 0.7330
7.352000 0.7270 0.7160 0.7100 0.6930 0.6870
7.382631 0.6760 0.6610 0.6470 0.6370 0.6210
7.413000 0.6150 0.6060 0.5920 0.5860 0.5780
7.443631 0.5650 0.5510 0.5480 0.5450 0.5400
7.474000 0.5370 0.5340 0.5310 0.5320 0.5340
7.504631 0.5390 0.5420 0.5420 0.5400 0.5370
7.536000 0.5310 0.5190 0.5030 0.4850 0.4700
7.566631 0.4700 0.4710 0.4730 0.4770 0.4820
7.597000 0.4820 0.4710 0.4570 0.4310 0.4220
7.627631 0.3990 0.3620 0.3430 0.3270 0.3070
7.658000 0.2970 0.2780 0.2640 0.2580 0.2540
7.688631 0.2540 0.2550 0.2580 0.2600 0.2690
7.719000 0.2870 0.3100 0.3320 0.3550 0.3810
7.749631 0.4020 0.4340 0.4740 0.5020 0.5170
7.780000 0.5400 0.5780 0.6010 0.6180 0.6330
7.810631 0.6490 0.6610 0.6750 0.6860 0.6920
7.842000 0.7010 0.7100 0.7180 0.7320 0.7410
7.872631 0.7540 0.7610 0.7640 0.7700 0.7760
7.903000 0.7820 0.7930 0.7940 0.7960 0.8000
7.933631 0.8020 0.8030 0.8030 0.8050 0.8080
7.964000 0.8100 0.8110 0.8130 0.8130 0.8130
7.994631 0.8130 0.8130 0.8130 0.8130 0.8110
8.025000 0.8110 0.8030 0.8020 0.7960 0.7870
8.055631 0.7810 0.7790 0.7790 0.7790 0.7810
8.087000 0.7840 0.7940 0.8000 0.8070 0.8130
8.117631 0.8160 0.8200 0.8230 0.8260 0.8280
8.148000 0.8310 0.8340 0.8340 0.8340 0.8360
8.178631 0.8370 0.8390 0.8420 0.8450 0.8460
8.209000 0.8460 0.8460 0.8460 0.8460 0.8460
8.239631 0.8480 0.8490 0.8510 0.8520 0.8520
8.270000 0.8520 0.8520 0.8540 0.8540 0.8540
8.300631 0.8540 0.8540 0.8540 0.8540 0.8540
8.332000 0.8540 0.8540 0.8520 0.8520 0.8540
8.362631 0.8540 0.8540 0.8540 0.8540 0.8560
8.393000 0.8570 0.8570 0.8570 0.8570 0.8590
8.423631 0.8620 0.8630 0.8650 0.8660 0.8660
8.454000 0.8660 0.8660 0.8660 0.8680 0.8680
8.484631 0.8690 0.8690 0.8690 0.8690 0.8690
8.515000 0.8710 0.8710 0.8710 0.8690 0.8690
8.545631 0.8690 0.8690 0.8680 0.8660 0.8660
8.577000 0.8650 0.8630 0.8620 0.8600 0.8590
8.607631 0.8590 0.8570 0.8570 0.8570 0.8570
8.638000 0.8570 0.8570 0.8590 0.8590 0.8590
8.668631 0.8590 0.8600 0.8600 0.8600 0.8600
8.699000 0.8620 0.8650 0.8660 0.8660 0.8680
8.729631 0.8690 0.8690 0.8710 0.8720 0.8740
8.760000 0.8740 0.8750 0.8770 0.8790 0.8800
8.790631 0.8820 0.8820 0.8830 0.8830 0.8850
8.821000 0.8850 0.8850 0.8850 0.8850 0.8850
8.851631 0.8830 0.8830 0.8830 0.8830 0.8850
8.883000 0.8880 0.8880 0.8890 0.8890 0.8890
8.913631 0.8910 0.8890 0.8890 0.8890 0.8890
8.944000 0.8890 0.8890 0.8890 0.8890 0.8890
8.974631 0.8890 0.8910 0.8910 0.8910 0.8920
9.005000 0.8920 0.8920 0.8920 0.8920 0.8920
9.035631 0.8920 0.8940 0.8940 0.8940 0.8940
9.066000 0.8920 0.8920 0.8920 0.8920 0.8920
9.096631 0.8920 0.8920 0.8920 0.8920 0.8940
9.128000 0.8940 0.8940 0.8940 0.8940 0.8940
9.158631 0.8940 0.8940 0.8940 0.8920 0.8920
9.189000 0.8920 0.8920 0.8920 0.8920 0.8920
9.219631 0.8920 0.8940 0.8940 0.8940 0.8940
9.250000 0.8940 0.8950 0.8970 0.8970 0.8980
9.280631 0.8980 0.8970 0.8970 0.8970 0.8950
9.311000 0.8940 0.8910 0.8910 0.8860 0.8820
9.341631 0.8820 0.8790 0.8790 0.8770 0.8720
9.373000 0.8710 0.8690 0.8690 0.8680 0.8660
9.403631 0.8300 0.7880 0.7840 0.7840 0.8020
9.434000 0.8130 0.8160 0.8310 0.8340 0.8390
9.464631 0.8400 0.8430 0.8460 0.8510 0.8520
9.495000 0.8560 0.8590 0.8600 0.8620 0.8630
9.525631 0.8650 0.8650 0.8660 0.8690 0.8720
9.556000 0.8740 0.8750 0.8800 0.8820 0.8850
9.586631 0.8860 0.8880 0.8890 0.8910 0.8940
9.618000 0.8950 0.8980 0.9000 0.9010 0.9030
9.648631 0.9060 0.9080 0.9080 0.9080 0.9080
9.679000 0.9080 0.9090 0.9090 0.9110 0.9110
9.709631 0.9110 0.9090 0.9090 0.9090 0.9090
9.740000 0.9090 0.9110 0.9110 0.9110 0.9110
9.770631 0.9110 0.9110 0.9110 0.9110 0.9110
9.801000 0.9110 0.9110 0.9110 0.9110 0.9110
9.831631 0.9110 0.9110 0.9110 0.9110 0.9110
9.862000 0.9110 0.9110 0.9110 0.9110 0.9110
9.892631 0.9090 0.9080 0.9080 0.9060 0.9060
9.924000 0.9060 0.9050 0.9050 0.9060 0.9080
9.954631 0.9080 0.9090 0.9090 0.9090 0.9090
9.985000 0.9090 0.9110 0.9090 0.9110 0.9110
10.015631 0.9110 0.9110 0.9110 0.9120 0.9120
10.046000 0.9120 0.9120 0.9120 0.9120 0.9110
10.076631 0.9110 0.9110 0.9080 0.9060 0.9060
10.107000 0.9060 0.9080 0.9080 0.9080 0.9080
10.137631 0.9080 0.9080 0.9080 0.9080 0.9080
10.169000 0.9080 0.9080 0.9080 0.9080 0.9080
10.199631 0.9080 0.9080 0.9080 0.9080 0.9080
10.230000 0.9080 0.9080 0.9080 0.9080 0.9080
10.260631 0.9080 0.9090 0.9090 0.9090 0.9110
10.291000 0.9090 0.9080 0.9060 0.9060 0.9060
10.321631 0.9060 0.9060 0.9060 0.9060 0.9060
10.352000 0.9060 0.9060 0.9080 0.9080 0.9080
10.382631 0.9080 0.9080 0.9090 0.9090 0.9110
10.414000 0.9110 0.9120 0.9140 0.9140 0.9140
10.444631 0.9140 0.9120 0.9110 0.9110 0.9090
10.475000 0.9080 0.9080 0.9090 0.9110 0.9120
10.505631 0.9120 0.9110 0.9110 0.9120 0.9120
10.536000 0.9120 0.9110 0.9110 0.9110 0.9110
10.566631 0.9110 0.9110 0.9110 0.9110 0.9110
10.597000 0.9110 0.9110 0.9110 0.9110 0.9110
10.627631 0.9110 0.9110 0.9110 0.9110 0.9110
10.659000 0.9140 0.9140 0.9140 0.9140 0.9140
10.689631 0.9140 0.9140 0.9140 0.9140 0.9120
10.720000 0.9120 0.9110 0.9110 0.9110 0.9090
10.750631 0.9090 0.9120 0.9120 0.9140 0.9140
10.781000 0.9140 0.9140 0.9120 0.9110 0.9110
10.811631 0.9110 0.9110 0.9110 0.9110 0.9110
10.842000 0.9110 0.9090 0.9090 0.9110 0.9110
10.872631 0.9110 0.9110 0.9110 0.9110 0.9110
10.903000 0.9110 0.9110 0.9110 0.9110 0.9110
10.933631 0.9110 0.9110 0.9110 0.9110 0.9110
10.965000 0.9110 0.9110 0.9110 0.9090 0.9090
10.995631 0.9090 0.9090 0.9090 0.9090 0.9090
11.026000 0.9110 0.9120 0.9120 0.9120 0.9120
11.056631 0.9120 0.9120 0.9120 0.9120 0.9140
11.087000 0.9140 0.9140 0.9150 0.9150 0.9140
11.117631 0.9140 0.9140 0.9140 0.9140 0.9140
11.148000 0.9140 0.9140 0.9140 0.9140 0.9140
11.178631 0.9140 0.9140 0.9140 0.9150 0.9150
11.210000 0.9140 0.9140 0.9140 0.9110 0.9110
11.240631 0.9110 0.9090 0.9090 0.9090 0.9090
11.271000 0.9090 0.9090 0.9090 0.9090 0.9090
11.301631 0.9090 0.9090 0.9090 0.9090 0.9090
11.332000 0.9090 0.9110 0.9110 0.9110 0.9110
11.362631 0.9110 0.9110 0.9110 0.9110 0.9110
11.393000 0.9120 0.9140 0.9140 0.9140 0.9140
11.423631 0.9140 0.9120 0.9120 0.9110 0.9110
11.455000 0.9110 0.9110 0.9110 0.9110 0.9110
11.485631 0.9090 0.9110 0.9090 0.9090 0.9090
11.516000 0.9090 0.9090 0.9090 0.9090 0.9080
11.546631 0.9080 0.9080 0.9080 0.9080 0.9090
11.577000 0.9090 0.9090 0.9090 0.9110 0.9110
11.607631 0.9090 0.9080 0.9080 0.9060 0.9060
11.638000 0.9060 0.9060 0.9060 0.9060 0.9060
11.668631 0.9080 0.9080 0.9080 0.9080 0.9080
11.699000 0.9080 0.9080 0.9080 0.9080 0.9080
11.729631 0.9080 0.9080 0.9080 0.9060 0.9050
11.761000 0.9050 0.9030 0.9030 0.9050 0.9050
11.791631 0.9060 0.9050 0.9050 0.9060 0.9060
11.822000 0.9060 0.9060 0.9060 0.9060 0.9060
11.852631 0.9060 0.9060 0.9060 0.9060 0.9050
11.883000 0.9050 0.9030 0.9010 0.9010 0.9010
11.913631 0.9030 0.9030 0.9030 0.9030 0.9030
11.944000 0.9050 0.9060 0.9080 0.9080 0.9080
11.974631 0.9060 0.9060 0.9060 0.9060 0.9060
12.006000 0.9060 0.9060 0.9060 0.9060 0.9060
12.036631 0.9060 0.9080 0.9110 0.9080 0.9060
12.067000 0.9050 0.9030 0.9010 0.9010 0.9010
12.097631 0.9030 0.9030 0.9030 0.9050 0.9050
12.128000 0.9050 0.9060 0.9060 0.9050 0.9050
12.158631 0.9050 0.9050 0.9050 0.9050 0.9030
12.189000 0.9030 0.9030 0.9030 0.9030 0.9030
12.219631 0.9010 0.9010 0.9000 0.8970 0.8950
12.251000 0.8920 0.8910 0.8910 0.8910 0.8910
12.281631 0.8910 0.8910 0.8920 0.8920 0.8920
12.312000 0.8920 0.8920 0.8920 0.8920 0.8920
12.342631 0.8920 0.8920 0.8920 0.8920 0.8920
12.373000 0.8910 0.8910 0.8890 0.8890 0.8880
12.403631 0.8860 0.8830 0.8820 0.8790 0.8750
12.434000 0.8740 0.8720 0.8690 0.8650 0.8560
12.464631 0.8510 0.8450 0.8430 0.8420 0.8420
12.496000 0.8420 0.8420 0.8420 0.8420 0.8430
12.526631 0.8450 0.8490 0.8490 0.8520 0.8520
12.557000 0.8540 0.8540 0.8560 0.8570 0.8590
12.587631 0.8590 0.8590 0.8590 0.8590 0.8570
12.618000 0.8560 0.8510 0.8450 0.8370 0.8250
12.648631 0.7990 0.7770 0.7650 0.7510 0.7300
12.679000 0.7040 0.6890 0.6750 0.6630 0.6610
12.709631 0.6600 0.6600 0.6610 0.6610 0.6670
12.740000 0.6750 0.6930 0.7050 0.7270 0.7390
12.770631 0.7500 0.7640 0.7770 0.7870 0.7960
12.802000 0.8030 0.8110 0.8160 0.8220 0.8260
12.832631 0.8310 0.8340 0.8360 0.8370 0.8390
12.863000 0.8390 0.8420 0.8430 0.8450 0.8460
12.893631 0.8480 0.8490 0.8490 0.8490 0.8510
12.924000 0.8510 0.8510 0.8510 0.8510 0.8510
12.954631 0.8520 0.8520 0.8570 0.8590 0.8620
12.985000 0.8630 0.8630 0.8660 0.8690 0.8710
13.015631 0.8720 0.8740 0.8750 0.8770 0.8770
13.047000 0.8770 0.8790 0.8800 0.8820 0.8830
13.077631 0.8890 0.8890 0.8910 0.8940 0.8940
13.108000 0.8920 0.8920 0.8920 0.8920 0.8910
13.138631 0.8890 0.8830 0.8770 0.8720 0.8710
13.169000 0.8690 0.8690 0.8650 0.8620 0.8510
13.199631 0.8400 0.8310 0.8190 0.8030 0.7790
13.230000 0.7620 0.7500 0.7440 0.7360 0.7320
13.260631 0.7280 0.7280 0.7280 0.7280 0.7300
13.292000 0.7300 0.7320 0.7330 0.7300 0.7150
13.322631 0.7010 0.6780 0.6440 0.6180 0.5890
13.353000 0.5660 0.5460 0.5260 0.5050 0.5030
13.383631 0.5050 0.5080 0.5160 0.5260 0.5450
13.414000 0.5660 0.5780 0.5910 0.6110 0.6290
13.444631 0.6490 0.6640 0.6950 0.7050 0.7240
13.475000 0.7320 0.7410 0.7510 0.7610 0.7700
13.505631 0.7790 0.7900 0.7990 0.8030 0.8070
13.537000 0.8100 0.8110 0.8140 0.8140 0.8170
13.567631 0.8200 0.8230 0.8300 0.8340 0.8420
13.598000 0.8490 0.8540 0.8590 0.8600 0.8650
13.628631 0.8690 0.8710 0.8720 0.8720 0.8720
13.659000 0.8720 0.8710 0.8690 0.8630 0.8600
13.689631 0.8510 0.8170 0.7990 0.7850 0.7540
13.720000 0.7160 0.6930 0.6860 0.6840 0.6830
13.750631 0.6840 0.6870 0.6920 0.6990 0.7090
13.781000 0.7210 0.7280 0.7450 0.7610 0.7730
13.811631 0.7900 0.8020 0.8190 0.8230 0.8310
13.843000 0.8370 0.8400 0.8420 0.8400 0.8390
13.873631 0.8370 0.8340 0.8330 0.8300 0.8260
13.904000 0.8230 0.8230 0.8230 0.8230 0.8220
13.934631 0.8220 0.8220 0.8170 0.8140 0.8050
13.965000 0.7960 0.7930 0.7850 0.7820 0.7820
13.995631 0.7840 0.7870 0.7900 0.7930 0.7960
14.026000 0.8080 0.8140 0.8230 0.8330 0.8370
14.056631 0.8480 0.8490 0.8560 0.8660 0.8720
14.088000 0.8770 0.8860 0.8910 0.8970 0.8980
14.118631 0.9000 0.9000 0.9010 0.9030 0.9050
14.149000 0.9080 0.9090 0.9110 0.9110 0.9110
14.179631 0.9110 0.9120 0.9140 0.9150 0.9180
14.210000 0.9180 0.9180 0.9200 0.9200 0.9200
14.240631 0.9210 0.9260 0.9310 0.9310 0.9320
14.271000 0.9350 0.9380 0.9400 0.9400 0.9410
14.301631 0.9430 0.9430 0.9440 0.9440 0.9460
14.333000 0.9470 0.9470 0.9470 0.9490 0.9500
14.363631 0.9500 0.9500 0.9500 0.9540 0.9540
14.394000 0.9550 0.9580 0.9610 0.9630 0.9640
14.424631 0.9660 0.9660 0.9660 0.9660 0.9660
14.455000 0.9660 0.9660 0.9660 0.9670 0.9690
14.485631 0.9690 0.9690 0.9700 0.9690 0.9690
14.516000 0.9690 0.9690 0.9700 0.9700 0.9700
14.546631 0.9700 0.9720 0.9720 0.9730 0.9730
14.577000 0.9720 0.9720 0.9720 0.9730 0.9750
14.607631 0.9780 0.9800 0.9800 0.9810 0.9810
14.639000 0.9810 0.9810 0.9830 0.9830 0.9840
14.669631 0.9840 0.9860 0.9860 0.9870 0.9870
14.700000 0.9890 0.9890 0.9890 0.9890 0.9890
14.730631 0.9890 0.9890 0.9890 0.9900 0.9930
14.761000 0.9930 0.9930 0.9950 1.0000 1.0000
14.791631 1.0000 1.0030 1.0030 1.0040 1.0060
14.822000 1.0060 1.0070 1.0070 1.0070 1.0070
14.852631 1.0070 1.0090 1.0090 1.0100 1.0130
14.884000 1.0150 1.0160 1.0160 1.0180 1.0180
14.914631 1.0190 1.0210 1.0220 1.0220 1.0240
14.945000 1.0240 1.0240 1.0240 1.0240 1.0240
14.975631 1.0240 1.0240 1.0210 1.0190 1.0190
15.006000 1.0180 1.0180 1.0180 1.0180 1.0190
15.036631 1.0190 1.0210 1.0210 1.0210 1.0210
15.067000 1.0210 1.0220 1.0240 1.0270 1.0270
15.097631 1.0290 1.0300 1.0300 1.0320 1.0320
15.129000 1.0320 1.0320 1.0320 1.0300 1.0300
15.159631 1.0300 1.0300 1.0300 1.0300 1.0300
15.190000 1.0300 1.0300 1.0300 1.0300 1.0300
15.220631 1.0300 1.0300 1.0300 1.0320 1.0320
15.251000 1.0320 1.0320 1.0320 1.0320 1.0320
15.281631 1.0320 1.0300 1.0300 1.0300 1.0320
15.312000 1.0320 1.0300 1.0300 1.0300 1.0300
15.342631 1.0300 1.0300 1.0320 1.0320 1.0320
15.374000 1.0320 1.0320 1.0320 1.0320 1.0320
15.404631 1.0320 1.0320 1.0320 1.0320 1.0320
15.435000 1.0320 1.0320 1.0320 1.0320 1.0320
15.465631 1.0320 1.0320 1.0320 1.0320 1.0320
15.496000 1.0320 1.0320 1.0320 1.0300 1.0320
15.526631 1.0320
##END=
