##TITLE=DIETHYLAMINOETHANOL HYDROCHLORIDE
##JCAMP-DX=4.24
##DATA TYPE=INFRARED SPECTRUM
##CLASS=COBLENTZ
##ORIGIN=DOW CHEMICAL COMPANY
##OWNER=COBLENTZ SOCIETY
Collection (C) 2018 copyright by the U.S. Secretary of Commerce
on behalf of the United States of America. All rights reserved.
##DATE=Not specified, most likely prior to 1970
##NAMES=2-(diethylamino)ethanol hydrochloride
##MOLFORM=C6 H16 Cl N O
##SOURCE REFERENCE=COBLENTZ NO. 1530
##$NIST ID=B6001530
##$NIST SOURCE=COBLENTZ
##$NIST IMAGE=cob1530
##SPECTROMETER/DATA SYSTEM=Not specified, most likely a prism, grating, or hybrid spectrometer.
##STATE=SOLID (MINERAL OIL MULL)
##SAMPLING PROCEDURE=TRANSMISSION
##RESOLUTION=4
##DATA PROCESSING=DIGITIZED BY NIST FROM HARD COPY
##XUNITS=MICROMETERS
##YUNITS=TRANSMITTANCE
##XFACTOR=1.000000
##YFACTOR=1
##DELTAX=000.006856
##FIRSTX=2.027
##LASTX=15.8217
##FIRSTY=0.804
##MAXX=15.8217
##MINX=2.027
##MAXY=0.892
##MINY=0.032
##NPOINTS=2013
##XYDATA=(X++(Y..Y))
2.027000 0.8040 0.8050 0.8050 0.8070 0.8090
2.061297 0.8090 0.8090 0.8100 0.8100 0.8120
2.096000 0.8140 0.8140 0.8140 0.8160 0.8160
2.130297 0.8160 0.8170 0.8170 0.8160 0.8160
2.165000 0.8160 0.8140 0.8120 0.8120 0.8100
2.199297 0.8050 0.7930 0.7830 0.7760 0.7700
2.233000 0.7680 0.7630 0.7590 0.7560 0.7520
2.267297 0.7510 0.7490 0.7490 0.7510 0.7520
2.302000 0.7540 0.7580 0.7610 0.7630 0.7680
2.336297 0.7700 0.7710 0.7730 0.7750 0.7760
2.370000 0.7780 0.7810 0.7850 0.7870 0.7900
2.404297 0.7930 0.7980 0.8020 0.8050 0.8090
2.439000 0.8120 0.8160 0.8170 0.8290 0.8340
2.473297 0.8380 0.8460 0.8480 0.8510 0.8530
2.507000 0.8550 0.8560 0.8560 0.8580 0.8600
2.541297 0.8600 0.8620 0.8620 0.8620 0.8600
2.576000 0.8580 0.8560 0.8560 0.8560 0.8560
2.610297 0.8580 0.8620 0.8630 0.8670 0.8680
2.644000 0.8700 0.8720 0.8730 0.8730 0.8730
2.678297 0.8730 0.8730 0.8730 0.8720 0.8700
2.713000 0.8700 0.8680 0.8680 0.8670 0.8670
2.747297 0.8650 0.8650 0.8650 0.8650 0.8600
2.782000 0.8580 0.8530 0.8500 0.8440 0.8410
2.816297 0.8360 0.8260 0.8160 0.8040 0.7900
2.850000 0.7760 0.7630 0.7490 0.7320 0.7130
2.884297 0.6930 0.6690 0.6450 0.6210 0.5960
2.919000 0.5700 0.5450 0.5040 0.4560 0.4200
2.953297 0.3610 0.3110 0.2640 0.2190 0.1730
2.987000 0.1720 0.1730 0.1800 0.2090 0.2720
3.021297 0.3210 0.3640 0.4000 0.4290 0.4540
3.056000 0.4730 0.4900 0.5020 0.5120 0.5210
3.090297 0.5290 0.5380 0.5450 0.5550 0.5650
3.124000 0.5720 0.5790 0.5860 0.5920 0.5990
3.158297 0.6060 0.6110 0.6180 0.6210 0.6250
3.193000 0.6250 0.6260 0.6300 0.6300 0.6320
3.227297 0.6320 0.6300 0.6250 0.6140 0.6030
3.262000 0.5940 0.5840 0.5680 0.5550 0.5400
3.296297 0.5260 0.5070 0.4870 0.4590 0.4240
3.330000 0.3810 0.3110 0.2470 0.1890 0.1360
3.364297 0.1070 0.0710 0.0400 0.0320 0.0320
3.399000 0.0320 0.0320 0.0320 0.0340 0.0340
3.433297 0.0340 0.0370 0.0370 0.0420 0.0440
3.467000 0.0440 0.0440 0.0490 0.0630 0.0900
3.501297 0.1310 0.1890 0.2620 0.3210 0.3740
3.536000 0.4020 0.4240 0.4310 0.4320 0.4310
3.570297 0.4240 0.4150 0.4070 0.3960 0.3810
3.604000 0.3710 0.3610 0.3610 0.3610 0.3620
3.638297 0.3620 0.3620 0.3640 0.3640 0.3640
3.673000 0.3640 0.3590 0.3450 0.3350 0.3160
3.707297 0.3010 0.2810 0.2620 0.2480 0.2360
3.741000 0.2290 0.2230 0.2230 0.2310 0.2410
3.775297 0.2480 0.2530 0.2600 0.2700 0.2840
3.810000 0.2860 0.2860 0.2860 0.2890 0.2960
3.844297 0.3100 0.3210 0.3350 0.3500 0.3660
3.879000 0.3810 0.3980 0.4150 0.4320 0.4420
3.913297 0.4540 0.4560 0.4610 0.4700 0.4750
3.947000 0.4820 0.4880 0.4900 0.4940 0.4850
3.981297 0.4800 0.4710 0.4590 0.4190 0.4130
4.016000 0.4150 0.4320 0.4490 0.4650 0.4800
4.050297 0.4990 0.5190 0.5290 0.5380 0.5430
4.084000 0.5510 0.5620 0.5680 0.5740 0.5800
4.118297 0.5870 0.5960 0.6040 0.6160 0.6280
4.153000 0.6380 0.6430 0.6450 0.6470 0.6500
4.187297 0.6570 0.6660 0.6660 0.6690 0.6720
4.221000 0.6720 0.6760 0.6780 0.6790 0.6830
4.255297 0.6880 0.6930 0.7010 0.7080 0.7120
4.290000 0.7130 0.7170 0.7180 0.7200 0.7220
4.324297 0.7250 0.7270 0.7290 0.7290 0.7320
4.358000 0.7340 0.7350 0.7370 0.7410 0.7460
4.392297 0.7470 0.7490 0.7510 0.7520 0.7540
4.427000 0.7540 0.7560 0.7560 0.7580 0.7590
4.461297 0.7630 0.7660 0.7680 0.7680 0.7710
4.496000 0.7750 0.7780 0.7850 0.7870 0.7880
4.530297 0.7900 0.7920 0.7930 0.7950 0.7950
4.564000 0.7980 0.8000 0.8000 0.8000 0.8000
4.598297 0.8040 0.8040 0.8050 0.8050 0.8070
4.633000 0.8070 0.8090 0.8090 0.8100 0.8120
4.667297 0.8120 0.8120 0.8140 0.8140 0.8140
4.701000 0.8170 0.8170 0.8190 0.8210 0.8210
4.735297 0.8220 0.8220 0.8220 0.8240 0.8260
4.770000 0.8270 0.8290 0.8310 0.8330 0.8360
4.804297 0.8410 0.8410 0.8430 0.8440 0.8440
4.838000 0.8460 0.8480 0.8480 0.8500 0.8500
4.872297 0.8510 0.8510 0.8530 0.8530 0.8550
4.907000 0.8550 0.8550 0.8560 0.8560 0.8560
4.941297 0.8580 0.8580 0.8580 0.8600 0.8620
4.976000 0.8620 0.8630 0.8630 0.8630 0.8630
5.010297 0.8630 0.8630 0.8630 0.8630 0.8630
5.044000 0.8630 0.8630 0.8630 0.8630 0.8650
5.078297 0.8670 0.8670 0.8670 0.8680 0.8680
5.113000 0.8670 0.8670 0.8650 0.8650 0.8650
5.147297 0.8650 0.8650 0.8670 0.8670 0.8670
5.181000 0.8680 0.8680 0.8680 0.8700 0.8680
5.215297 0.8680 0.8700 0.8700 0.8700 0.8680
5.250000 0.8670 0.8670 0.8650 0.8650 0.8650
5.284297 0.8680 0.8720 0.8720 0.8730 0.8730
5.318000 0.8750 0.8750 0.8770 0.8770 0.8770
5.352297 0.8790 0.8790 0.8800 0.8800 0.8820
5.387000 0.8820 0.8840 0.8840 0.8840 0.8850
5.421297 0.8850 0.8850 0.8870 0.8870 0.8870
5.455000 0.8870 0.8890 0.8900 0.8900 0.8900
5.489297 0.8920 0.8920 0.8920 0.8920 0.8920
5.524000 0.8920 0.8920 0.8920 0.8920 0.8920
5.558297 0.8920 0.8920 0.8920 0.8900 0.8900
5.593000 0.8900 0.8890 0.8870 0.8840 0.8750
5.627297 0.8730 0.8720 0.8680 0.8650 0.8620
5.661000 0.8580 0.8580 0.8560 0.8530 0.8510
5.695297 0.8510 0.8510 0.8550 0.8550 0.8600
5.730000 0.8620 0.8650 0.8650 0.8670 0.8670
5.764297 0.8680 0.8700 0.8730 0.8730 0.8730
5.798000 0.8750 0.8750 0.8750 0.8750 0.8750
5.832297 0.8770 0.8750 0.8750 0.8750 0.8730
5.867000 0.8750 0.8750 0.8750 0.8750 0.8750
5.901297 0.8750 0.8750 0.8750 0.8750 0.8730
5.935000 0.8730 0.8720 0.8700 0.8700 0.8700
5.969297 0.8680 0.8680 0.8670 0.8670 0.8650
6.004000 0.8650 0.8630 0.8630 0.8630 0.8620
6.038297 0.8620 0.8620 0.8620 0.8620 0.8620
6.072000 0.8620 0.8620 0.8620 0.8620 0.8620
6.106297 0.8620 0.8600 0.8580 0.8560 0.8560
6.141000 0.8560 0.8560 0.8560 0.8580 0.8580
6.175297 0.8580 0.8580 0.8580 0.8580 0.8580
6.210000 0.8580 0.8560 0.8550 0.8550 0.8550
6.244297 0.8550 0.8550 0.8580 0.8580 0.8580
6.278000 0.8580 0.8580 0.8580 0.8580 0.8580
6.312297 0.8560 0.8560 0.8550 0.8530 0.8550
6.347000 0.8530 0.8530 0.8510 0.8510 0.8500
6.381297 0.8500 0.8480 0.8480 0.8480 0.8480
6.415000 0.8480 0.8480 0.8480 0.8480 0.8480
6.449297 0.8480 0.8460 0.8430 0.8430 0.8390
6.484000 0.8380 0.8340 0.8340 0.8310 0.8270
6.518297 0.8260 0.8240 0.8220 0.8220 0.8210
6.552000 0.8190 0.8170 0.8160 0.8120 0.8120
6.586297 0.8070 0.8040 0.8000 0.7980 0.7930
6.621000 0.7920 0.7880 0.7850 0.7780 0.7680
6.655297 0.7560 0.7440 0.7290 0.7100 0.6840
6.690000 0.6550 0.6160 0.5960 0.5570 0.4630
6.724297 0.4130 0.3910 0.3330 0.3110 0.2990
6.758000 0.2870 0.2750 0.2580 0.2400 0.2140
6.792297 0.1870 0.1630 0.1440 0.1290 0.1200
6.827000 0.1170 0.1170 0.1190 0.1270 0.1360
6.861297 0.1480 0.1630 0.1800 0.2010 0.2230
6.895000 0.2450 0.2650 0.2870 0.3080 0.3270
6.929297 0.3420 0.3590 0.3810 0.3950 0.4120
6.964000 0.4240 0.4480 0.4680 0.4880 0.5040
6.998297 0.5190 0.5310 0.5400 0.5450 0.5380
7.032000 0.5170 0.4970 0.4870 0.4580 0.4420
7.066297 0.4270 0.4130 0.4020 0.3880 0.3860
7.101000 0.3850 0.3850 0.3880 0.3930 0.3980
7.135297 0.4020 0.4070 0.4080 0.4120 0.4170
7.169000 0.4220 0.4310 0.4360 0.4360 0.4320
7.203297 0.4190 0.3980 0.3730 0.3470 0.3080
7.238000 0.2860 0.2740 0.2690 0.2690 0.2770
7.272297 0.2940 0.3610 0.3830 0.4240 0.4420
7.307000 0.4490 0.4660 0.4990 0.5260 0.5480
7.341297 0.5650 0.5800 0.5940 0.6040 0.6130
7.375000 0.6210 0.6260 0.6330 0.6400 0.6470
7.409297 0.6540 0.6600 0.6640 0.6660 0.6710
7.444000 0.6760 0.6830 0.6890 0.6950 0.7000
7.478297 0.7100 0.7130 0.7170 0.7200 0.7240
7.512000 0.7240 0.7250 0.7250 0.7270 0.7290
7.546297 0.7290 0.7300 0.7300 0.7300 0.7300
7.581000 0.7320 0.7340 0.7350 0.7370 0.7390
7.615297 0.7420 0.7440 0.7440 0.7440 0.7460
7.649000 0.7460 0.7460 0.7470 0.7470 0.7470
7.683297 0.7470 0.7470 0.7470 0.7470 0.7460
7.718000 0.7440 0.7410 0.7370 0.7350 0.7340
7.752297 0.7350 0.7370 0.7410 0.7440 0.7440
7.786000 0.7460 0.7460 0.7470 0.7470 0.7460
7.820297 0.7440 0.7300 0.7180 0.7010 0.6950
7.855000 0.6860 0.6760 0.6740 0.6760 0.6780
7.889297 0.6860 0.6960 0.7060 0.7180 0.7300
7.924000 0.7420 0.7510 0.7630 0.7640 0.7640
7.958297 0.7640 0.7640 0.7630 0.7590 0.7510
7.992000 0.7440 0.7350 0.7100 0.7050 0.7000
8.026297 0.6950 0.6930 0.6930 0.6950 0.7010
8.061000 0.7100 0.7200 0.7290 0.7370 0.7440
8.095297 0.7490 0.7560 0.7560 0.7580 0.7610
8.129000 0.7610 0.7640 0.7680 0.7730 0.7750
8.163297 0.7830 0.7830 0.7850 0.7880 0.7920
8.198000 0.8000 0.8000 0.8040 0.8070 0.8070
8.232297 0.8090 0.8100 0.8120 0.8140 0.8170
8.266000 0.8170 0.8190 0.8190 0.8210 0.8210
8.300297 0.8210 0.8210 0.8210 0.8190 0.8170
8.335000 0.8170 0.8160 0.8160 0.8160 0.8140
8.369297 0.8120 0.8100 0.8050 0.7980 0.7920
8.404000 0.7810 0.7700 0.7580 0.7460 0.7300
8.438297 0.7180 0.7100 0.6960 0.6890 0.6790
8.472000 0.6690 0.6620 0.6590 0.6590 0.6620
8.506297 0.6740 0.6790 0.6930 0.7050 0.7120
8.541000 0.7150 0.7170 0.7200 0.7170 0.7130
8.575297 0.7060 0.6950 0.6840 0.6710 0.6600
8.609000 0.6500 0.6430 0.6430 0.6430 0.6430
8.643297 0.6540 0.6690 0.6830 0.7000 0.7150
8.678000 0.7290 0.7390 0.7470 0.7520 0.7590
8.712297 0.7640 0.7710 0.7760 0.7810 0.7850
8.746000 0.7880 0.7920 0.7950 0.7970 0.7970
8.780297 0.7970 0.7980 0.7980 0.7980 0.7970
8.815000 0.7970 0.7970 0.7930 0.7920 0.7920
8.849297 0.7900 0.7880 0.7880 0.7900 0.7920
8.883000 0.7930 0.7950 0.7950 0.7980 0.8000
8.917297 0.8040 0.8040 0.8050 0.8070 0.8070
8.952000 0.8100 0.8100 0.8100 0.8100 0.8100
8.986297 0.8090 0.8070 0.8040 0.8020 0.8000
9.021000 0.8000 0.7980 0.7980 0.7970 0.7950
9.055297 0.7950 0.7930 0.7900 0.7830 0.7780
9.089000 0.7680 0.7630 0.7580 0.7490 0.7390
9.123297 0.7320 0.7240 0.7200 0.7080 0.6910
9.158000 0.6720 0.6500 0.6260 0.6040 0.5840
9.192297 0.5650 0.5340 0.5050 0.4770 0.4510
9.226000 0.4250 0.4020 0.3780 0.3560 0.3330
9.260297 0.3110 0.2910 0.2700 0.2570 0.2450
9.295000 0.2380 0.2350 0.2330 0.2310 0.2330
9.329297 0.2360 0.2470 0.2570 0.2670 0.2790
9.363000 0.2870 0.2980 0.3060 0.3160 0.3270
9.397297 0.3390 0.3490 0.3570 0.3610 0.3660
9.432000 0.3810 0.3950 0.4120 0.4320 0.4530
9.466297 0.4750 0.4950 0.5160 0.5310 0.5410
9.500000 0.5550 0.5650 0.5650 0.5750 0.5790
9.534297 0.5840 0.5860 0.5960 0.5960 0.5960
9.569000 0.5960 0.5960 0.5960 0.5920 0.5870
9.603297 0.5820 0.5740 0.5630 0.5550 0.5450
9.638000 0.5340 0.5220 0.5000 0.4900 0.4710
9.672297 0.4580 0.4460 0.4310 0.4150 0.3960
9.706000 0.3760 0.3570 0.3390 0.3210 0.3110
9.740297 0.2980 0.2930 0.2860 0.2840 0.2820
9.775000 0.2840 0.2870 0.2980 0.3080 0.3230
9.809297 0.3400 0.3560 0.3640 0.3740 0.3850
9.843000 0.3910 0.3950 0.3950 0.3950 0.3950
9.877297 0.3910 0.3880 0.3850 0.3810 0.3780
9.912000 0.3780 0.3850 0.3930 0.4080 0.4320
9.946297 0.4410 0.4820 0.4950 0.5360 0.5720
9.980000 0.5870 0.5960 0.6300 0.6810 0.7030
10.014297 0.7200 0.7290 0.7270 0.7250 0.7240
10.049000 0.7200 0.7220 0.7270 0.7320 0.7410
10.083297 0.7440 0.7510 0.7520 0.7580 0.7630
10.118000 0.7640 0.7660 0.7680 0.7680 0.7700
10.152297 0.7710 0.7710 0.7730 0.7750 0.7730
10.186000 0.7750 0.7780 0.7810 0.7810 0.7830
10.220297 0.7850 0.7870 0.7870 0.7880 0.7880
10.255000 0.7900 0.7920 0.7930 0.7950 0.7950
10.289297 0.7970 0.7970 0.8000 0.8000 0.8020
10.323000 0.8040 0.8070 0.8090 0.8100 0.8120
10.357297 0.8120 0.8100 0.8120 0.8120 0.8170
10.392000 0.8190 0.8210 0.8220 0.8220 0.8220
10.426297 0.8220 0.8220 0.8220 0.8220 0.8240
10.460000 0.8240 0.8260 0.8260 0.8270 0.8270
10.494297 0.8290 0.8290 0.8290 0.8290 0.8310
10.529000 0.8310 0.8330 0.8330 0.8380 0.8380
10.563297 0.8390 0.8390 0.8380 0.8390 0.8390
10.597000 0.8390 0.8410 0.8410 0.8430 0.8430
10.631297 0.8460 0.8480 0.8480 0.8480 0.8480
10.666000 0.8500 0.8500 0.8500 0.8480 0.8500
10.700297 0.8500 0.8500 0.8500 0.8510 0.8550
10.735000 0.8550 0.8550 0.8550 0.8550 0.8550
10.769297 0.8550 0.8560 0.8560 0.8580 0.8600
10.803000 0.8600 0.8620 0.8620 0.8630 0.8630
10.837297 0.8630 0.8630 0.8630 0.8630 0.8620
10.872000 0.8600 0.8600 0.8580 0.8580 0.8560
10.906297 0.8560 0.8560 0.8560 0.8560 0.8560
10.940000 0.8580 0.8600 0.8600 0.8600 0.8620
10.974297 0.8620 0.8620 0.8620 0.8620 0.8600
11.009000 0.8580 0.8560 0.8530 0.8440 0.8390
11.043297 0.8340 0.8270 0.8220 0.8120 0.8050
11.077000 0.7970 0.7950 0.7900 0.7880 0.7870
11.111297 0.7830 0.7830 0.7830 0.7830 0.7870
11.146000 0.7930 0.7950 0.7950 0.7970 0.8090
11.180297 0.8120 0.8160 0.8170 0.8210 0.8260
11.214000 0.8390 0.8480 0.8440 0.8210 0.8210
11.248297 0.8240 0.8310 0.8440 0.8550 0.8630
11.283000 0.8680 0.8700 0.8700 0.8730 0.8750
11.317297 0.8770 0.8770 0.8770 0.8750 0.8770
11.352000 0.8790 0.8790 0.8800 0.8800 0.8820
11.386297 0.8840 0.8870 0.8890 0.8890 0.8890
11.420000 0.8890 0.8890 0.8890 0.8770 0.8650
11.454297 0.8600 0.8500 0.8410 0.8390 0.8310
11.489000 0.8220 0.8140 0.8070 0.7950 0.7920
11.523297 0.7920 0.7830 0.7810 0.7810 0.7830
11.557000 0.7870 0.7900 0.7970 0.8040 0.8100
11.591297 0.8190 0.8270 0.8360 0.8440 0.8550
11.626000 0.8600 0.8630 0.8670 0.8680 0.8680
11.660297 0.8700 0.8720 0.8750 0.8770 0.8770
11.694000 0.8770 0.8770 0.8770 0.8770 0.8750
11.728297 0.8750 0.8730 0.8730 0.8720 0.8720
11.763000 0.8700 0.8700 0.8700 0.8700 0.8700
11.797297 0.8700 0.8700 0.8700 0.8700 0.8720
11.832000 0.8720 0.8730 0.8730 0.8750 0.8770
11.866297 0.8770 0.8770 0.8770 0.8770 0.8770
11.900000 0.8770 0.8770 0.8770 0.8770 0.8770
11.934297 0.8770 0.8770 0.8730 0.8720 0.8700
11.969000 0.8680 0.8680 0.8650 0.8630 0.8580
12.003297 0.8530 0.8500 0.8480 0.8440 0.8410
12.037000 0.8340 0.8240 0.8100 0.7950 0.7830
12.071297 0.7760 0.7660 0.7540 0.7460 0.7300
12.106000 0.7080 0.6930 0.6720 0.6540 0.6430
12.140297 0.6320 0.6230 0.6160 0.6140 0.6130
12.174000 0.6130 0.6200 0.6280 0.6540 0.6710
12.208297 0.6880 0.7050 0.7220 0.7390 0.7520
12.243000 0.7660 0.7710 0.7760 0.7800 0.7830
12.277297 0.7850 0.7870 0.7900 0.7900 0.7900
12.311000 0.7900 0.7880 0.7870 0.7810 0.7800
12.345297 0.7680 0.7640 0.7520 0.7440 0.7340
12.380000 0.7250 0.7180 0.7080 0.7030 0.6930
12.414297 0.6860 0.6780 0.6740 0.6740 0.6720
12.449000 0.6740 0.6830 0.6890 0.6980 0.7120
12.483297 0.7250 0.7370 0.7520 0.7630 0.7730
12.517000 0.7810 0.7920 0.7950 0.8000 0.8100
12.551297 0.8190 0.8260 0.8290 0.8330 0.8360
12.586000 0.8390 0.8430 0.8460 0.8510 0.8550
12.620297 0.8560 0.8580 0.8580 0.8600 0.8620
12.654000 0.8630 0.8630 0.8650 0.8650 0.8670
12.688297 0.8680 0.8680 0.8700 0.8700 0.8700
12.723000 0.8700 0.8700 0.8680 0.8680 0.8680
12.757297 0.8670 0.8670 0.8670 0.8670 0.8650
12.791000 0.8650 0.8650 0.8650 0.8630 0.8620
12.825297 0.8620 0.8620 0.8600 0.8600 0.8600
12.860000 0.8580 0.8600 0.8600 0.8600 0.8600
12.894297 0.8600 0.8600 0.8560 0.8560 0.8550
12.929000 0.8550 0.8550 0.8530 0.8530 0.8530
12.963297 0.8510 0.8510 0.8510 0.8510 0.8500
12.997000 0.8500 0.8500 0.8500 0.8480 0.8480
13.031297 0.8480 0.8480 0.8460 0.8460 0.8440
13.066000 0.8430 0.8430 0.8430 0.8430 0.8430
13.100297 0.8430 0.8410 0.8390 0.8380 0.8380
13.134000 0.8360 0.8360 0.8330 0.8310 0.8290
13.168297 0.8270 0.8260 0.8240 0.8220 0.8220
13.203000 0.8220 0.8210 0.8210 0.8210 0.8210
13.237297 0.8210 0.8210 0.8210 0.8210 0.8210
13.271000 0.8190 0.8190 0.8190 0.8190 0.8190
13.305297 0.8190 0.8190 0.8190 0.8190 0.8170
13.340000 0.8170 0.8170 0.8160 0.8140 0.8140
13.374297 0.8120 0.8100 0.8090 0.8070 0.8050
13.408000 0.8040 0.8040 0.8020 0.8000 0.7980
13.442297 0.7970 0.7950 0.7930 0.7920 0.7900
13.477000 0.7880 0.7870 0.7850 0.7810 0.7780
13.511297 0.7760 0.7730 0.7730 0.7710 0.7710
13.546000 0.7700 0.7680 0.7660 0.7640 0.7630
13.580297 0.7630 0.7610 0.7590 0.7580 0.7580
13.614000 0.7560 0.7540 0.7520 0.7520 0.7520
13.648297 0.7510 0.7510 0.7470 0.7470 0.7460
13.683000 0.7440 0.7420 0.7420 0.7370 0.7350
13.717297 0.7340 0.7340 0.7320 0.7300 0.7270
13.751000 0.7250 0.7240 0.7220 0.7200 0.7180
13.785297 0.7170 0.7130 0.7120 0.7100 0.7080
13.820000 0.7060 0.7050 0.7050 0.7030 0.7010
13.854297 0.7000 0.6980 0.6960 0.6960 0.6960
13.888000 0.6960 0.7000 0.7030 0.7030 0.7060
13.922297 0.7120 0.7130 0.7150 0.7170 0.7200
13.957000 0.7220 0.7240 0.7250 0.7270 0.7270
13.991297 0.7300 0.7300 0.7300 0.7320 0.7340
14.025000 0.7340 0.7350 0.7350 0.7370 0.7370
14.059297 0.7370 0.7390 0.7410 0.7410 0.7420
14.094000 0.7420 0.7420 0.7420 0.7420 0.7420
14.128297 0.7420 0.7420 0.7420 0.7420 0.7410
14.163000 0.7410 0.7410 0.7390 0.7390 0.7370
14.197297 0.7370 0.7350 0.7350 0.7320 0.7320
14.231000 0.7300 0.7300 0.7300 0.7290 0.7250
14.265297 0.7250 0.7240 0.7240 0.7240 0.7240
14.300000 0.7220 0.7220 0.7200 0.7200 0.7180
14.334297 0.7180 0.7170 0.7170 0.7170 0.7150
14.368000 0.7130 0.7120 0.7120 0.7100 0.7100
14.402297 0.7080 0.7060 0.7050 0.7030 0.7010
14.437000 0.7030 0.7000 0.6980 0.6980 0.6960
14.471297 0.6960 0.6950 0.6930 0.6930 0.6930
14.505000 0.6910 0.6890 0.6860 0.6830 0.6830
14.539297 0.6810 0.6810 0.6790 0.6780 0.6760
14.574000 0.6740 0.6720 0.6720 0.6710 0.6690
14.608297 0.6690 0.6670 0.6640 0.6620 0.6620
14.643000 0.6600 0.6590 0.6590 0.6550 0.6540
14.677297 0.6520 0.6520 0.6470 0.6450 0.6450
14.711000 0.6430 0.6430 0.6420 0.6400 0.6400
14.745297 0.6380 0.6370 0.6350 0.6330 0.6320
14.780000 0.6300 0.6300 0.6280 0.6260 0.6230
14.814297 0.6210 0.6200 0.6180 0.6160 0.6140
14.848000 0.6130 0.6130 0.6130 0.6090 0.6080
14.882297 0.6060 0.6040 0.6030 0.6010 0.5990
14.917000 0.5970 0.5960 0.5960 0.5920 0.5920
14.951297 0.5910 0.5910 0.5890 0.5870 0.5870
14.985000 0.5860 0.5840 0.5820 0.5800 0.5770
15.019297 0.5740 0.5720 0.5720 0.5680 0.5680
15.054000 0.5670 0.5650 0.5630 0.5630 0.5620
15.088297 0.5620 0.5600 0.5570 0.5550 0.5550
15.122000 0.5530 0.5530 0.5510 0.5480 0.5500
15.156297 0.5480 0.5480 0.5480 0.5460 0.5430
15.191000 0.5430 0.5430 0.5400 0.5380 0.5330
15.225297 0.5310 0.5280 0.5260 0.5260 0.5260
15.260000 0.5240 0.5240 0.5210 0.5190 0.5170
15.294297 0.5160 0.5140 0.5090 0.5050 0.5050
15.328000 0.5020 0.5000 0.5000 0.5000 0.5000
15.362297 0.4990 0.4990 0.4990 0.4990 0.4990
15.397000 0.4970 0.4950 0.4900 0.4870 0.4870
15.431297 0.4830 0.4820 0.4780 0.4770 0.4770
15.465000 0.4730 0.4700 0.4680 0.4660 0.4660
15.499297 0.4630 0.4610 0.4590 0.4580 0.4580
15.534000 0.4560 0.4540 0.4530 0.4510 0.4490
15.568297 0.4490 0.4480 0.4480 0.4460 0.4460
15.602000 0.4460 0.4440 0.4410 0.4390 0.4370
15.636297 0.4370 0.4370 0.4360 0.4340 0.4320
15.671000 0.4310 0.4290 0.4240 0.4220 0.4200
15.705297 0.4200 0.4200 0.4190 0.4170 0.4150
15.739000 0.4120 0.4120 0.4100 0.4100 0.4070
15.773297 0.4030 0.4020 0.4020 0.4020 0.4020
15.808000 0.4000 0.4000 0.4000
##END=
