##TITLE=6-PHENYLQUINOLINE
$$ E.K. (W.L.)
##JCAMP-DX=4.24
##DATA TYPE=INFRARED SPECTRUM
##CLASS=COBLENTZ
##ORIGIN=WYANDOTTE CHEMICALS CORP., WYANDOTTE, MICHIGAN, USA
##OWNER=COBLENTZ SOCIETY
Collection (C) 2018 copyright by the U.S. Secretary of Commerce
on behalf of the United States of America. All rights reserved.
##DATE=Not specified, most likely prior to 1970
##NAMES=5-phenylquinoline
##MOLFORM=C15 H11 N
##MP=110-111 C
##SOURCE REFERENCE=COBLENTZ NO. 303
##$NIST ID=B6000303
##$NIST SOURCE=COBLENTZ
##$NIST IMAGE=cob303
##SPECTROMETER/DATA SYSTEM=Not specified, most likely a prism, grating, or hybrid spectrometer.
##SAMPLING PROCEDURE=TRANSMISSION
##RESOLUTION=4
##DATA PROCESSING=DIGITIZED BY NIST FROM HARD COPY
##XUNITS=MICROMETERS
##YUNITS=TRANSMITTANCE
##XFACTOR=1.000000
##YFACTOR=1
##DELTAX=000.006653
##FIRSTX=2.095
##LASTX=16.001
##FIRSTY=0.664
##MAXX=16.001
##MINX=2.095
##MAXY=0.941
##MINY=0.028
##NPOINTS=2091
##XYDATA=(X++(Y..Y))
2.095000 0.6640 0.6640 0.6640 0.6640 0.6640
2.128283 0.6640 0.6640 0.6640 0.6620 0.6620
2.162000 0.6620 0.6610 0.6590 0.6560 0.6540
2.195283 0.6520 0.6520 0.6520 0.6510 0.6490
2.228000 0.6470 0.6470 0.6470 0.6470 0.6470
2.261283 0.6470 0.6470 0.6470 0.6470 0.6460
2.295000 0.6460 0.6440 0.6420 0.6420 0.6410
2.328283 0.6410 0.6410 0.6410 0.6410 0.6420
2.361000 0.6420 0.6410 0.6410 0.6420 0.6440
2.394283 0.6460 0.6470 0.6470 0.6470 0.6470
2.428000 0.6470 0.6490 0.6470 0.6470 0.6460
2.461283 0.6460 0.6440 0.6440 0.6440 0.6440
2.494000 0.6440 0.6440 0.6460 0.6460 0.6460
2.527283 0.6460 0.6460 0.6460 0.6460 0.6470
2.561000 0.6470 0.6470 0.6490 0.6490 0.6510
2.594283 0.6510 0.6510 0.6540 0.6590 0.6610
2.627000 0.6610 0.6620 0.6620 0.6640 0.6640
2.660283 0.6660 0.6660 0.6660 0.6660 0.6710
2.694000 0.6720 0.6720 0.6710 0.6710 0.6740
2.727283 0.6760 0.6760 0.6770 0.6790 0.6810
2.760000 0.6820 0.6820 0.6820 0.6820 0.6820
2.793283 0.6820 0.6820 0.6820 0.6820 0.6840
2.827000 0.6840 0.6840 0.6840 0.6870 0.6870
2.860283 0.6890 0.6890 0.6870 0.6870 0.6870
2.894000 0.6870 0.6870 0.6870 0.6870 0.6910
2.927283 0.6940 0.6940 0.6940 0.6960 0.6960
2.960000 0.6960 0.6970 0.6990 0.6990 0.6990
2.993283 0.6990 0.7010 0.7010 0.7010 0.7010
3.027000 0.7010 0.7010 0.7010 0.7010 0.7010
3.060283 0.7010 0.6970 0.6960 0.6970 0.6970
3.093000 0.6970 0.6970 0.6960 0.6960 0.6910
3.126283 0.6860 0.6820 0.6810 0.6790 0.6790
3.160000 0.6790 0.6770 0.6760 0.6720 0.6710
3.193283 0.6690 0.6670 0.6660 0.6640 0.6620
3.226000 0.6570 0.6560 0.6520 0.6440 0.6310
3.259283 0.6070 0.5890 0.5670 0.5400 0.5270
3.293000 0.5100 0.4870 0.4640 0.4490 0.3850
3.326283 0.3200 0.2050 0.0900 0.0680 0.0500
3.359000 0.0480 0.0410 0.0330 0.0310 0.0300
3.392283 0.0280 0.0280 0.0280 0.0280 0.0300
3.426000 0.0300 0.0300 0.0310 0.0310 0.0310
3.459283 0.0330 0.0330 0.0330 0.0330 0.0330
3.492000 0.0330 0.0360 0.0380 0.0450 0.0560
3.525283 0.0760 0.1030 0.1350 0.1630 0.2100
3.559000 0.2280 0.2420 0.2500 0.2550 0.2630
3.592283 0.2670 0.2770 0.2780 0.2800 0.2820
3.625000 0.2850 0.2870 0.2870 0.2880 0.2880
3.658283 0.2880 0.2880 0.2850 0.2830 0.2830
3.692000 0.2830 0.2830 0.2830 0.2850 0.2850
3.725283 0.2850 0.2830 0.2830 0.2830 0.2850
3.758000 0.2850 0.2850 0.2850 0.2850 0.2850
3.791283 0.2850 0.2870 0.2870 0.2880 0.2900
3.825000 0.2900 0.2930 0.2980 0.2980 0.2980
3.858283 0.2970 0.2970 0.2980 0.2980 0.2980
3.892000 0.3000 0.3030 0.3030 0.3080 0.3100
3.925283 0.3120 0.3130 0.3130 0.3150 0.3150
3.958000 0.3170 0.3180 0.3220 0.3230 0.3250
3.991283 0.3250 0.3270 0.3280 0.3280 0.3280
4.025000 0.3280 0.3280 0.3250 0.3230 0.3230
4.058283 0.3230 0.3230 0.3230 0.3230 0.3230
4.091000 0.3230 0.3250 0.3270 0.3270 0.3280
4.124283 0.3270 0.3270 0.3270 0.3280 0.3280
4.158000 0.3280 0.3280 0.3280 0.3280 0.3300
4.191283 0.3320 0.3370 0.3380 0.3380 0.3380
4.224000 0.3380 0.3380 0.3370 0.3350 0.3320
4.257283 0.3280 0.3270 0.3270 0.3250 0.3250
4.291000 0.3280 0.3300 0.3320 0.3370 0.3400
4.324283 0.3430 0.3450 0.3470 0.3480 0.3480
4.357000 0.3520 0.3530 0.3530 0.3530 0.3530
4.390283 0.3550 0.3570 0.3550 0.3550 0.3550
4.424000 0.3550 0.3550 0.3550 0.3550 0.3530
4.457283 0.3530 0.3520 0.3520 0.3550 0.3550
4.490000 0.3570 0.3570 0.3570 0.3570 0.3570
4.523283 0.3580 0.3600 0.3620 0.3630 0.3630
4.557000 0.3630 0.3650 0.3650 0.3650 0.3650
4.590283 0.3680 0.3700 0.3720 0.3720 0.3720
4.623000 0.3730 0.3730 0.3730 0.3730 0.3730
4.656283 0.3730 0.3750 0.3750 0.3750 0.3770
4.690000 0.3770 0.3770 0.3780 0.3780 0.3780
4.723283 0.3800 0.3800 0.3820 0.3820 0.3820
4.756000 0.3820 0.3830 0.3830 0.3850 0.3850
4.789283 0.3870 0.3880 0.3920 0.3930 0.3950
4.823000 0.3950 0.3970 0.3980 0.3980 0.4000
4.856283 0.4000 0.4020 0.4020 0.4040 0.4040
4.890000 0.4020 0.4020 0.4020 0.4040 0.4040
4.923283 0.4040 0.4040 0.4040 0.4020 0.4020
4.956000 0.4020 0.4040 0.4040 0.4050 0.4050
4.989283 0.4050 0.4070 0.4090 0.4090 0.4070
5.023000 0.4050 0.4040 0.4040 0.4040 0.4040
5.056283 0.4040 0.4040 0.4050 0.4050 0.4040
5.089000 0.4040 0.4040 0.4040 0.4020 0.4020
5.122283 0.4020 0.4020 0.4020 0.4020 0.4020
5.156000 0.4020 0.3950 0.3900 0.3900 0.3950
5.189283 0.4020 0.4050 0.4070 0.4070 0.4050
5.222000 0.4050 0.4020 0.4020 0.4020 0.4040
5.255283 0.4050 0.4070 0.4090 0.4100 0.4090
5.289000 0.4040 0.3930 0.3920 0.3930 0.3970
5.322283 0.4040 0.4100 0.4150 0.4190 0.4250
5.355000 0.4290 0.4290 0.4300 0.4300 0.4320
5.388283 0.4340 0.4370 0.4390 0.4390 0.4390
5.422000 0.4390 0.4390 0.4370 0.4370 0.4350
5.455283 0.4350 0.4370 0.4400 0.4420 0.4420
5.488000 0.4400 0.4400 0.4400 0.4390 0.4400
5.521283 0.4400 0.4400 0.4420 0.4400 0.4420
5.555000 0.4420 0.4420 0.4440 0.4440 0.4440
5.588283 0.4450 0.4440 0.4450 0.4470 0.4470
5.621000 0.4490 0.4470 0.4350 0.4220 0.3980
5.654283 0.3970 0.3980 0.4000 0.4170 0.4270
5.688000 0.4350 0.4390 0.4400 0.4420 0.4420
5.721283 0.4420 0.4440 0.4470 0.4500 0.4540
5.754000 0.4540 0.4550 0.4590 0.4640 0.4670
5.787283 0.4670 0.4640 0.4590 0.4590 0.4600
5.821000 0.4650 0.4690 0.4690 0.4620 0.4590
5.854283 0.4570 0.4570 0.4550 0.4570 0.4600
5.888000 0.4600 0.4620 0.4650 0.4650 0.4620
5.921283 0.4600 0.4600 0.4600 0.4670 0.4700
5.954000 0.4700 0.4700 0.4700 0.4700 0.4700
5.987283 0.4720 0.4740 0.4740 0.4770 0.4890
6.021000 0.4890 0.4900 0.4900 0.4900 0.4920
6.054283 0.4920 0.4920 0.4940 0.4920 0.4920
6.087000 0.4920 0.4950 0.4990 0.5020 0.5020
6.120283 0.5020 0.5000 0.4970 0.4940 0.4900
6.154000 0.4890 0.4900 0.4990 0.5070 0.5100
6.187283 0.5190 0.5190 0.5150 0.5050 0.4940
6.220000 0.4750 0.4500 0.4150 0.3830 0.3380
6.253283 0.3350 0.3500 0.3900 0.4190 0.4220
6.287000 0.4220 0.4140 0.3920 0.3780 0.3700
6.320283 0.3600 0.3500 0.3400 0.3380 0.3450
6.353000 0.3570 0.3670 0.3800 0.3900 0.4000
6.386283 0.4120 0.4290 0.4500 0.4590 0.4650
6.420000 0.4670 0.4670 0.4650 0.4650 0.4650
6.453283 0.4670 0.4700 0.4720 0.4750 0.4800
6.486000 0.4850 0.4900 0.4940 0.4950 0.4950
6.519283 0.4990 0.5020 0.5090 0.5140 0.5200
6.553000 0.5270 0.5320 0.5350 0.5390 0.5400
6.586283 0.5420 0.5400 0.5350 0.5270 0.5190
6.619000 0.5070 0.5040 0.4990 0.4900 0.4850
6.652283 0.4790 0.4640 0.4290 0.3500 0.3120
6.686000 0.2720 0.2050 0.1360 0.1210 0.1210
6.719283 0.1210 0.1330 0.1400 0.1410 0.1430
6.752000 0.1450 0.1430 0.1310 0.1110 0.0960
6.785283 0.0880 0.0750 0.0610 0.0500 0.0480
6.819000 0.0480 0.0510 0.0530 0.0560 0.0630
6.852283 0.0710 0.0800 0.0880 0.0930 0.0960
6.886000 0.0980 0.1010 0.1050 0.1130 0.1250
6.919283 0.1400 0.1600 0.2070 0.2350 0.2680
6.952000 0.2950 0.3180 0.3600 0.3770 0.3900
6.985283 0.3950 0.3980 0.4000 0.4020 0.4020
7.019000 0.4070 0.4170 0.4270 0.4420 0.4490
7.052283 0.4550 0.4570 0.4570 0.4570 0.4570
7.085000 0.4570 0.4570 0.4570 0.4590 0.4590
7.118283 0.4570 0.4550 0.4540 0.4540 0.4520
7.152000 0.4520 0.4470 0.4350 0.4200 0.3970
7.185283 0.3820 0.3520 0.3220 0.2930 0.2570
7.218000 0.2200 0.1860 0.1750 0.1630 0.1530
7.251283 0.1300 0.1280 0.1260 0.1280 0.1650
7.285000 0.2180 0.2470 0.2600 0.2700 0.2820
7.318283 0.2970 0.3000 0.3080 0.3100 0.3120
7.351000 0.3120 0.3020 0.2950 0.2870 0.2720
7.384283 0.2700 0.2620 0.2720 0.3050 0.3250
7.418000 0.3800 0.3970 0.4090 0.4100 0.4090
7.451283 0.3970 0.3850 0.3800 0.3820 0.3820
7.484000 0.3930 0.3980 0.3980 0.3980 0.3680
7.517283 0.3200 0.2700 0.2680 0.2720 0.2730
7.551000 0.3180 0.3770 0.3880 0.3970 0.4020
7.584283 0.4070 0.4100 0.4140 0.4190 0.4250
7.617000 0.4320 0.4400 0.4490 0.4570 0.4620
7.650283 0.4690 0.4700 0.4750 0.4800 0.4840
7.684000 0.4890 0.4890 0.4870 0.4870 0.4870
7.717283 0.4900 0.4920 0.4920 0.4920 0.4900
7.750000 0.4900 0.4920 0.4940 0.4940 0.4950
7.783283 0.4950 0.4940 0.4900 0.4870 0.4840
7.817000 0.4800 0.4700 0.4700 0.4720 0.4750
7.850283 0.4820 0.4870 0.4890 0.4900 0.4920
7.884000 0.4940 0.4950 0.4990 0.5040 0.5100
7.917283 0.5150 0.5190 0.5240 0.5290 0.5300
7.950000 0.5320 0.5320 0.5290 0.5270 0.5240
7.983283 0.5200 0.5190 0.5170 0.5150 0.5150
8.017000 0.5150 0.5200 0.5250 0.5320 0.5370
8.050283 0.5400 0.5440 0.5500 0.5540 0.5550
8.083000 0.5550 0.5570 0.5570 0.5570 0.5550
8.116283 0.5490 0.5420 0.5350 0.5350 0.5400
8.150000 0.5440 0.5490 0.5540 0.5590 0.5600
8.183283 0.5620 0.5650 0.5690 0.5690 0.5690
8.216000 0.5700 0.5720 0.5750 0.5790 0.5800
8.249283 0.5820 0.5840 0.5840 0.5850 0.5850
8.283000 0.5850 0.5850 0.5850 0.5850 0.5870
8.316283 0.5890 0.5890 0.5890 0.5890 0.5920
8.349000 0.5970 0.5970 0.5940 0.5940 0.5900
8.382283 0.5700 0.5620 0.5520 0.5240 0.5120
8.416000 0.5020 0.5000 0.5020 0.5040 0.5040
8.449283 0.5040 0.5070 0.5090 0.5090 0.5100
8.482000 0.5100 0.5120 0.5290 0.5350 0.5420
8.515283 0.5470 0.5540 0.5590 0.5620 0.5620
8.549000 0.5570 0.5550 0.5550 0.5550 0.5540
8.582283 0.5470 0.5320 0.5290 0.5290 0.5300
8.615000 0.5420 0.5490 0.5550 0.5590 0.5620
8.648283 0.5650 0.5650 0.5670 0.5690 0.5750
8.682000 0.5800 0.5840 0.5870 0.5900 0.5970
8.715283 0.6040 0.6110 0.6160 0.6190 0.6220
8.749000 0.6220 0.6240 0.6240 0.6240 0.6260
8.782283 0.6260 0.6290 0.6320 0.6370 0.6440
8.815000 0.6470 0.6520 0.6590 0.6620 0.6640
8.848283 0.6640 0.6640 0.6570 0.5920 0.5390
8.882000 0.4850 0.3980 0.3100 0.3020 0.3020
8.915283 0.3180 0.4220 0.4650 0.4950 0.5400
8.948000 0.5540 0.5650 0.5720 0.5790 0.5840
8.981283 0.5870 0.5900 0.5950 0.6010 0.6070
9.015000 0.6090 0.6160 0.6190 0.6220 0.6240
9.048283 0.6310 0.6320 0.6340 0.6340 0.6340
9.081000 0.6360 0.6360 0.6370 0.6370 0.6370
9.114283 0.6370 0.6360 0.6360 0.6360 0.6360
9.148000 0.6360 0.6360 0.6370 0.6370 0.6390
9.181283 0.6390 0.6390 0.6360 0.6190 0.6110
9.214000 0.5890 0.5590 0.5390 0.5140 0.5020
9.247283 0.4890 0.4920 0.4950 0.5120 0.5200
9.281000 0.5670 0.5820 0.5940 0.6040 0.6110
9.314283 0.6170 0.6210 0.6240 0.6270 0.6360
9.347000 0.6420 0.6440 0.6460 0.6470 0.6490
9.380283 0.6510 0.6510 0.6510 0.6540 0.6610
9.414000 0.6620 0.6620 0.6620 0.6620 0.6610
9.447283 0.6610 0.6590 0.6590 0.6610 0.6620
9.480000 0.6640 0.6640 0.6640 0.6660 0.6660
9.513283 0.6710 0.6760 0.6770 0.6790 0.6790
9.547000 0.6810 0.6770 0.6690 0.6610 0.6460
9.580283 0.6420 0.6260 0.5670 0.5420 0.5270
9.613000 0.5170 0.5120 0.5120 0.5170 0.5290
9.646283 0.5420 0.5550 0.5640 0.5740 0.5820
9.680000 0.5900 0.5950 0.5990 0.6010 0.6020
9.713283 0.6070 0.6190 0.6290 0.6360 0.6420
9.747000 0.6460 0.6490 0.6520 0.6560 0.6570
9.780283 0.6610 0.6620 0.6660 0.6660 0.6640
9.813000 0.6590 0.6460 0.6310 0.6160 0.6060
9.846283 0.5990 0.5990 0.6020 0.6110 0.6190
9.880000 0.6290 0.6420 0.6560 0.6590 0.6610
9.913283 0.6620 0.6640 0.6640 0.6640 0.6640
9.946000 0.6640 0.6660 0.6710 0.6690 0.6660
9.979283 0.6620 0.6570 0.6540 0.6510 0.6410
10.013000 0.6260 0.6220 0.6190 0.6140 0.6090
10.046283 0.6010 0.6010 0.6010 0.6010 0.6070
10.079000 0.6070 0.5990 0.5620 0.5300 0.5040
10.112283 0.4970 0.4890 0.4890 0.4870 0.5420
10.146000 0.5800 0.6040 0.6190 0.6310 0.6370
10.179283 0.6420 0.6460 0.6520 0.6590 0.6610
10.212000 0.6620 0.6640 0.6640 0.6640 0.6610
10.245283 0.6590 0.6610 0.6590 0.6590 0.6590
10.279000 0.6590 0.6590 0.6610 0.6620 0.6620
10.312283 0.6640 0.6690 0.6710 0.6720 0.6740
10.345000 0.6740 0.6740 0.6740 0.6740 0.6740
10.378283 0.6760 0.6770 0.6790 0.6790 0.6790
10.412000 0.6790 0.6790 0.6790 0.6810 0.6820
10.445283 0.6840 0.6860 0.6870 0.6890 0.6890
10.478000 0.6890 0.6890 0.6890 0.6870 0.6820
10.511283 0.6820 0.6860 0.6890 0.6920 0.6940
10.545000 0.6990 0.6990 0.7010 0.7010 0.7010
10.578283 0.7010 0.7010 0.6940 0.6740 0.6540
10.611000 0.6260 0.5870 0.5440 0.5400 0.5420
10.644283 0.5720 0.5870 0.6140 0.6370 0.6460
10.678000 0.6540 0.6610 0.6720 0.6790 0.6860
10.711283 0.6910 0.6920 0.6970 0.7010 0.7020
10.745000 0.7020 0.7020 0.7020 0.7020 0.7020
10.778283 0.7020 0.7040 0.7040 0.6990 0.6820
10.811000 0.6740 0.6720 0.6720 0.6720 0.6740
10.844283 0.6840 0.6920 0.6970 0.7020 0.7090
10.878000 0.7140 0.7190 0.7210 0.7220 0.7270
10.911283 0.7290 0.7320 0.7320 0.7370 0.7420
10.944000 0.7460 0.7470 0.7490 0.7510 0.7520
10.977283 0.7560 0.7560 0.7540 0.7520 0.7520
11.011000 0.7520 0.7520 0.7540 0.7540 0.7560
11.044283 0.7520 0.7520 0.7520 0.7540 0.7540
11.077000 0.7540 0.7520 0.7520 0.7490 0.7440
11.110283 0.7410 0.7390 0.7340 0.7270 0.7140
11.144000 0.6970 0.6810 0.6710 0.6590 0.6310
11.177283 0.5940 0.5490 0.5200 0.4920 0.4220
11.210000 0.3400 0.2980 0.2570 0.2130 0.2130
11.243283 0.2180 0.2370 0.3030 0.3870 0.4390
11.277000 0.4840 0.5750 0.6090 0.6320 0.6510
11.310283 0.6810 0.6940 0.7040 0.7140 0.7220
11.343000 0.7320 0.7420 0.7540 0.7670 0.7740
11.376283 0.7790 0.7860 0.7920 0.7970 0.8040
11.410000 0.8080 0.8110 0.8140 0.8180 0.8210
11.443283 0.8260 0.8290 0.8310 0.8330 0.8330
11.476000 0.8330 0.8330 0.8310 0.8290 0.8190
11.509283 0.8110 0.7890 0.6920 0.6760 0.6570
11.543000 0.5940 0.5670 0.5670 0.5720 0.5940
11.576283 0.6160 0.6340 0.6510 0.6820 0.6970
11.609000 0.7020 0.7070 0.7110 0.7140 0.7160
11.642283 0.7170 0.7190 0.7190 0.7170 0.7170
11.676000 0.7160 0.7120 0.7110 0.7070 0.7040
11.709283 0.7010 0.6940 0.6860 0.6690 0.6620
11.743000 0.6540 0.6390 0.6240 0.6070 0.5850
11.776283 0.5590 0.5220 0.4990 0.4750 0.4170
11.809000 0.3730 0.3450 0.3150 0.2970 0.2580
11.842283 0.2130 0.1680 0.1500 0.1310 0.1160
11.876000 0.1130 0.1110 0.1200 0.1350 0.1600
11.909283 0.2100 0.2370 0.2650 0.2950 0.3320
11.942000 0.4070 0.4390 0.4600 0.4990 0.5520
11.975283 0.5740 0.6040 0.6170 0.6270 0.6320
12.009000 0.6520 0.6920 0.7040 0.7160 0.7240
12.042283 0.7360 0.7470 0.7510 0.7560 0.7590
12.075000 0.7620 0.7670 0.7740 0.7820 0.7860
12.108283 0.7910 0.7970 0.8030 0.8040 0.8060
12.142000 0.8110 0.8140 0.8180 0.8190 0.8210
12.175283 0.8230 0.8240 0.8260 0.8330 0.8340
12.208000 0.8360 0.8390 0.8410 0.8410 0.8410
12.241283 0.8410 0.8410 0.8430 0.8440 0.8460
12.275000 0.8460 0.8460 0.8480 0.8480 0.8460
12.308283 0.8460 0.8460 0.8440 0.8430 0.8410
12.341000 0.8410 0.8410 0.8410 0.8390 0.8390
12.374283 0.8380 0.8340 0.8330 0.8310 0.8290
12.408000 0.8280 0.8260 0.8160 0.8080 0.8010
12.441283 0.7940 0.7860 0.7740 0.7560 0.7270
12.474000 0.6910 0.6660 0.6410 0.6320 0.5920
12.507283 0.5540 0.5050 0.4800 0.4550 0.3930
12.541000 0.3430 0.3250 0.3070 0.2680 0.2600
12.574283 0.2620 0.2620 0.2850 0.3000 0.3520
12.607000 0.3820 0.4240 0.4740 0.5700 0.6110
12.640283 0.6360 0.6570 0.6720 0.6720 0.6710
12.674000 0.6620 0.6540 0.6040 0.5290 0.4870
12.707283 0.4440 0.3800 0.3280 0.2750 0.1900
12.741000 0.1630 0.1350 0.0960 0.0780 0.0750
12.774283 0.0750 0.0780 0.0860 0.1010 0.1230
12.807000 0.1510 0.2130 0.2450 0.2730 0.2950
12.840283 0.3200 0.3720 0.3970 0.4200 0.4390
12.874000 0.4550 0.4650 0.4690 0.4700 0.4690
12.907283 0.4600 0.4490 0.4370 0.4370 0.4350
12.940000 0.4350 0.4450 0.4650 0.4750 0.4820
12.973283 0.4840 0.4850 0.4840 0.4820 0.4800
13.007000 0.4040 0.3380 0.3150 0.2920 0.2430
13.040283 0.2120 0.1850 0.1750 0.1650 0.1510
13.073000 0.1460 0.1460 0.1510 0.1880 0.2070
13.106283 0.2250 0.2450 0.2670 0.2870 0.3080
13.140000 0.3300 0.3750 0.3970 0.4190 0.4400
13.173283 0.4620 0.4770 0.4950 0.5300 0.5440
13.206000 0.5550 0.5640 0.5720 0.5800 0.5920
13.239283 0.6040 0.6070 0.6140 0.6210 0.6260
13.273000 0.6310 0.6370 0.6420 0.6490 0.6520
13.306283 0.6540 0.6620 0.6660 0.6690 0.6740
13.339000 0.6790 0.6840 0.6870 0.6910 0.6940
13.372283 0.6970 0.7010 0.7070 0.7140 0.7210
13.406000 0.7240 0.7290 0.7310 0.7320 0.7340
13.439283 0.7360 0.7390 0.7410 0.7410 0.7420
13.472000 0.7460 0.7490 0.7510 0.7520 0.7520
13.505283 0.7520 0.7520 0.7540 0.7560 0.7570
13.539000 0.7610 0.7640 0.7660 0.7660 0.7660
13.572283 0.7660 0.7670 0.7690 0.7690 0.7720
13.605000 0.7740 0.7740 0.7760 0.7770 0.7820
13.638283 0.7860 0.7870 0.7910 0.7920 0.7940
13.672000 0.7960 0.7970 0.7990 0.7990 0.8010
13.705283 0.8010 0.8030 0.8040 0.8060 0.8080
13.739000 0.8080 0.8080 0.8110 0.8140 0.8180
13.772283 0.8190 0.8190 0.8190 0.8190 0.8210
13.805000 0.8230 0.8230 0.8230 0.8240 0.8280
13.838283 0.8290 0.8290 0.8290 0.8290 0.8290
13.872000 0.8290 0.8310 0.8310 0.8360 0.8390
13.905283 0.8390 0.8460 0.8510 0.8540 0.8590
13.938000 0.8660 0.8730 0.8780 0.8830 0.8840
13.971283 0.8880 0.8910 0.8980 0.9010 0.9080
14.005000 0.9140 0.9210 0.9230 0.9260 0.9290
14.038283 0.9330 0.9340 0.9380 0.9390 0.9410
14.071000 0.9410 0.9410 0.9390 0.9390 0.9390
14.104283 0.9380 0.9330 0.9260 0.9180 0.9090
14.138000 0.8930 0.8790 0.8690 0.8540 0.8440
14.171283 0.8330 0.8090 0.7810 0.7520 0.7210
14.204000 0.6870 0.6710 0.6540 0.6210 0.5850
14.237283 0.5540 0.5220 0.5090 0.4940 0.4670
14.271000 0.4440 0.4300 0.4100 0.4040 0.3850
14.304283 0.3720 0.3620 0.3500 0.3370 0.3270
14.337000 0.3150 0.3020 0.2880 0.2780 0.2730
14.370283 0.2700 0.2620 0.2620 0.2630 0.2750
14.404000 0.2870 0.3020 0.3150 0.3320 0.3720
14.437283 0.3920 0.4150 0.4370 0.4620 0.4890
14.470000 0.5150 0.5320 0.5490 0.5640 0.5840
14.503283 0.5970 0.6090 0.6220 0.6420 0.6520
14.537000 0.6610 0.6660 0.6870 0.6960 0.7010
14.570283 0.7040 0.7090 0.7170 0.7240 0.7340
14.603000 0.7420 0.7440 0.7470 0.7520 0.7560
14.636283 0.7560 0.7590 0.7640 0.7690 0.7720
14.670000 0.7760 0.7770 0.7770 0.7790 0.7810
14.703283 0.7820 0.7840 0.7860 0.7870 0.7870
14.737000 0.7870 0.7910 0.7920 0.7970 0.7990
14.770283 0.7990 0.7990 0.7990 0.8010 0.8010
14.803000 0.8030 0.8030 0.8040 0.8060 0.8060
14.836283 0.8060 0.8060 0.8060 0.8060 0.8060
14.870000 0.8060 0.8040 0.8040 0.8030 0.8030
14.903283 0.8010 0.8010 0.7990 0.7940 0.7920
14.936000 0.7910 0.7910 0.7910 0.7910 0.7890
14.969283 0.7820 0.7810 0.7790 0.7720 0.7660
15.003000 0.7590 0.7490 0.7420 0.7340 0.7310
15.036283 0.7220 0.7140 0.7070 0.6990 0.6920
15.069000 0.6890 0.6840 0.6820 0.6820 0.6870
15.102283 0.6920 0.6940 0.7010 0.7040 0.7110
15.136000 0.7160 0.7220 0.7270 0.7310 0.7370
15.169283 0.7440 0.7490 0.7520 0.7540 0.7540
15.202000 0.7560 0.7570 0.7570 0.7570 0.7570
15.235283 0.7560 0.7560 0.7520 0.7490 0.7460
15.269000 0.7420 0.7370 0.7310 0.7240 0.7210
15.302283 0.7170 0.7160 0.7120 0.7110 0.7090
15.335000 0.7070 0.7070 0.7070 0.7060 0.7060
15.368283 0.7060 0.7070 0.7070 0.7090 0.7120
15.402000 0.7120 0.7120 0.7120 0.7120 0.7140
15.435283 0.7140 0.7140 0.7140 0.7120 0.7110
15.468000 0.7090 0.7060 0.7040 0.7020 0.7020
15.501283 0.7020 0.7020 0.7020 0.7020 0.7020
15.535000 0.7020 0.7010 0.7010 0.6990 0.6960
15.568283 0.6910 0.6910 0.6890 0.6890 0.6890
15.601000 0.6890 0.6890 0.6870 0.6870 0.6870
15.634283 0.6860 0.6840 0.6820 0.6810 0.6790
15.668000 0.6760 0.6710 0.6690 0.6660 0.6620
15.701283 0.6640 0.6610 0.6590 0.6590 0.6570
15.735000 0.6570 0.6570 0.6510 0.6510 0.6510
15.768283 0.6490 0.6420 0.6410 0.6390 0.6360
15.801000 0.6320 0.6310 0.6270 0.6240 0.6220
15.834283 0.6210 0.6190 0.6160 0.6120 0.6110
15.868000 0.6060 0.6040 0.6010 0.5990 0.5920
15.901283 0.5900 0.5870 0.5840 0.5820 0.5770
15.934000 0.5740 0.5690 0.5670 0.5620 0.5620
15.967283 0.5600 0.5590 0.5590 0.5620 0.5600
16.001000 0.5590
##END=
