##TITLE=Urea,1- (4'-tert-butyl-2'-chlorophenyl)-
##JCAMP-DX=4.24
##DATA TYPE=INFRARED SPECTRUM
##CLASS=COBLENTZ III
##ORIGIN=MONSANTO (J. FREEMAN)
##OWNER=Copyright (C) 1987 by the Coblentz Society
Collection (C) 2018 copyright by the U.S. Secretary of Commerce
on behalf of the United States of America. All rights reserved.
##DATE=1959/12/21
##NAMES=N-(4-tert-butyl-2-chlorophenyl)urea
##MOLFORM=C11 H15 Cl N2 O
##SOURCE REFERENCE=COBLENTZ NO. 9300
##$NIST ID=B6009300
##$NIST SOURCE=COBLENTZ
##$NIST IMAGE=cob9300
##SPECTROMETER/DATA SYSTEM=BECKMAN IR-4 (HYBRID PRISM-GRATING)
##INSTRUMENT PARAMETERS=NaCl PRISM
##STATE=SOLID (NUJOL MULL)
$$SPECTRAL CONTAMINATION DUE TO OIL AROUND 2900, 1450 CM^-^1
##SAMPLING PROCEDURE=TRANSMISSION
##RESOLUTION=2
##DATA PROCESSING=DIGITIZED BY COBLENTZ SOCIETY (BATCH II) FROM HARD COPY
##XUNITS=1/CM
##YUNITS=TRANSMITTANCE
##XFACTOR=1.0
##YFACTOR=1
##FIRSTX=626
##LASTX=4000
##FIRSTY=0.7581
##MAXX=4000
##MINX=626
##MAXY=0.9454
##MINY=0.0024
##NPOINTS=3375
##XYDATA=(X++(Y..Y))
626.000000 0.7581 0.7622 0.7674 0.7709 0.7723
631.000000 0.7737 0.7750 0.7763 0.7796 0.7832
636.000000 0.7850 0.7861 0.7875 0.7902 0.7964
641.000000 0.8009 0.8025 0.8040 0.8019 0.8010
646.000000 0.8002 0.7990 0.7966 0.7902 0.7752
651.000000 0.7604 0.7460 0.7317 0.7174 0.6974
656.000000 0.6832 0.6817 0.6851 0.6922 0.6986
661.000000 0.7041 0.7096 0.7297 0.7392 0.7521
666.000000 0.7671 0.7817 0.7912 0.7973 0.7995
671.000000 0.7965 0.7985 0.7981 0.7959 0.7895
676.000000 0.7775 0.7706 0.7653 0.7526 0.7332
681.000000 0.7011 0.6688 0.6366 0.6045 0.5716
686.000000 0.5701 0.6025 0.6476 0.6780 0.7156
691.000000 0.7578 0.7830 0.8023 0.8162 0.8235
696.000000 0.8288 0.8338 0.8366 0.8387 0.8434
701.000000 0.8398 0.8393 0.8387 0.8369 0.8347
706.000000 0.8311 0.8224 0.8107 0.7978 0.7804
711.000000 0.7573 0.7366 0.7162 0.6911 0.6614
716.000000 0.6333 0.6213 0.6335 0.6746 0.7156
721.000000 0.7630 0.7864 0.8052 0.8183 0.8263
726.000000 0.8327 0.8381 0.8423 0.8457 0.8474
731.000000 0.8494 0.8517 0.8541 0.8566 0.8591
736.000000 0.8612 0.8630 0.8648 0.8664 0.8677
741.000000 0.8692 0.8709 0.8727 0.8741 0.8752
746.000000 0.8760 0.8756 0.8767 0.8765 0.8761
751.000000 0.8754 0.8735 0.8716 0.8692 0.8657
756.000000 0.8599 0.8538 0.8476 0.8360 0.8201
761.000000 0.8023 0.7820 0.7424 0.7086 0.6730
766.000000 0.6399 0.5901 0.5373 0.4846 0.4322
771.000000 0.3744 0.3599 0.3577 0.4371 0.5129
776.000000 0.5883 0.6636 0.7440 0.7726 0.7927
781.000000 0.8152 0.8324 0.8437 0.8533 0.8613
786.000000 0.8680 0.8714 0.8747 0.8774 0.8785
791.000000 0.8795 0.8804 0.8812 0.8820 0.8824
796.000000 0.8825 0.8826 0.8834 0.8825 0.8825
801.000000 0.8824 0.8822 0.8814 0.8807 0.8789
806.000000 0.8770 0.8751 0.8733 0.8712 0.8682
811.000000 0.8649 0.8599 0.8525 0.8430 0.8287
816.000000 0.8092 0.7878 0.7459 0.6470 0.6082
821.000000 0.5307 0.4428 0.3550 0.2675 0.1801
826.000000 0.1252 0.1747 0.2698 0.3646 0.4591
831.000000 0.5535 0.6476 0.7415 0.7911 0.8081
836.000000 0.8180 0.8252 0.8313 0.8378 0.8406
841.000000 0.8397 0.8400 0.8370 0.8355 0.8340
846.000000 0.8322 0.8296 0.8233 0.8167 0.8106
851.000000 0.8080 0.8109 0.8126 0.8145 0.8160
856.000000 0.8174 0.8177 0.8193 0.8165 0.8139
861.000000 0.8097 0.8033 0.7949 0.7850 0.7740
866.000000 0.7606 0.7427 0.7229 0.7026 0.6648
871.000000 0.5956 0.5266 0.4577 0.3890 0.3728
876.000000 0.4492 0.5345 0.5707 0.5783 0.5789
881.000000 0.5533 0.5295 0.5057 0.4819 0.4685
886.000000 0.4654 0.5363 0.5716 0.6067 0.6418
891.000000 0.6768 0.7210 0.7564 0.7694 0.7767
896.000000 0.7838 0.7922 0.7977 0.8031 0.8072
901.000000 0.8108 0.8143 0.8178 0.8213 0.8247
906.000000 0.8277 0.8295 0.8311 0.8322 0.8328
911.000000 0.8338 0.8312 0.8298 0.8280 0.8252
916.000000 0.8216 0.8172 0.8126 0.8080 0.8031
921.000000 0.7962 0.7891 0.7845 0.7812 0.7770
926.000000 0.7819 0.7850 0.7883 0.7918 0.7946
931.000000 0.7965 0.7964 0.7958 0.7952 0.7949
936.000000 0.7947 0.7978 0.8016 0.8043 0.8065
941.000000 0.8079 0.8082 0.8079 0.8070 0.8090
946.000000 0.8036 0.8005 0.7961 0.7913 0.7864
951.000000 0.7810 0.7753 0.7709 0.7691 0.7682
956.000000 0.7781 0.7881 0.7982 0.8077 0.8086
961.000000 0.8092 0.8093 0.8093 0.8092 0.8089
966.000000 0.8086 0.8085 0.8082 0.8080 0.8079
971.000000 0.8078 0.8077 0.8079 0.8083 0.8087
976.000000 0.8091 0.8098 0.8111 0.8123 0.8136
981.000000 0.8149 0.8163 0.8168 0.8171 0.8174
986.000000 0.8177 0.8179 0.8178 0.8178 0.8178
991.000000 0.8170 0.8173 0.8167 0.8162 0.8157
996.000000 0.8152 0.8146 0.8136 0.8126 0.8115
1001.000000 0.8105 0.8093 0.8080 0.8067 0.8054
1006.000000 0.8042 0.8029 0.8002 0.7970 0.7938
1011.000000 0.7906 0.7873 0.7833 0.7792 0.7753
1016.000000 0.7730 0.7707 0.7700 0.7699 0.7698
1021.000000 0.7697 0.7697 0.7702 0.7708 0.7713
1026.000000 0.7718 0.7724 0.7730 0.7736 0.7743
1031.000000 0.7749 0.7755 0.7757 0.7760 0.7762
1036.000000 0.7764 0.7762 0.7756 0.7747 0.7729
1041.000000 0.7701 0.7672 0.7642 0.7611 0.7572
1046.000000 0.7523 0.7473 0.7422 0.7350 0.7244
1051.000000 0.7122 0.7000 0.6880 0.6707 0.6512
1056.000000 0.6283 0.5768 0.5154 0.4561 0.3969
1061.000000 0.3378 0.2788 0.2398 0.2405 0.2908
1066.000000 0.3864 0.4818 0.5622 0.5770 0.6121
1071.000000 0.6608 0.6802 0.7068 0.7374 0.7496
1076.000000 0.7578 0.7648 0.7687 0.7723 0.7759
1081.000000 0.7786 0.7813 0.7839 0.7856 0.7869
1086.000000 0.7882 0.7896 0.7906 0.7917 0.7911
1091.000000 0.7912 0.7905 0.7898 0.7881 0.7864
1096.000000 0.7841 0.7812 0.7770 0.7727 0.7680
1101.000000 0.7631 0.7580 0.7503 0.7412 0.7315
1106.000000 0.7205 0.7084 0.6921 0.6732 0.6541
1111.000000 0.6167 0.5696 0.5227 0.4758 0.4290
1116.000000 0.4015 0.4025 0.4014 0.4672 0.5022
1121.000000 0.5369 0.5717 0.6064 0.6410 0.6593
1126.000000 0.6638 0.6634 0.6617 0.6595 0.6564
1131.000000 0.6537 0.6504 0.6467 0.6429 0.6404
1136.000000 0.6382 0.6375 0.6414 0.6375 0.6377
1141.000000 0.6378 0.6386 0.6393 0.6401 0.6414
1146.000000 0.6428 0.6442 0.6456 0.6473 0.6490
1151.000000 0.6507 0.6525 0.6538 0.6542 0.6536
1156.000000 0.6525 0.6515 0.6503 0.6491 0.6496
1161.000000 0.6501 0.6546 0.6617 0.6713 0.6762
1166.000000 0.6784 0.6806 0.6828 0.6849 0.6867
1171.000000 0.6880 0.6893 0.6906 0.6925 0.6948
1176.000000 0.6980 0.7017 0.7177 0.7272 0.7304
1181.000000 0.7329 0.7354 0.7363 0.7372 0.7380
1186.000000 0.7387 0.7390 0.7393 0.7388 0.7381
1191.000000 0.7413 0.7353 0.7330 0.7304 0.7271
1196.000000 0.7232 0.7192 0.7147 0.7097 0.7044
1201.000000 0.6980 0.6891 0.6812 0.6711 0.6625
1206.000000 0.6537 0.6559 0.6560 0.6581 0.6624
1211.000000 0.6688 0.6775 0.6880 0.6985 0.7085
1216.000000 0.7174 0.7245 0.7282 0.7297 0.7307
1221.000000 0.7313 0.7320 0.7324 0.7328 0.7331
1226.000000 0.7331 0.7328 0.7329 0.7328 0.7326
1231.000000 0.7323 0.7321 0.7316 0.7307 0.7297
1236.000000 0.7288 0.7275 0.7259 0.7244 0.7229
1241.000000 0.7212 0.7190 0.7169 0.7145 0.7120
1246.000000 0.7095 0.7069 0.7045 0.7009 0.6971
1251.000000 0.6930 0.6876 0.6820 0.6762 0.6702
1256.000000 0.6624 0.6537 0.6441 0.6325 0.6205
1261.000000 0.5975 0.5830 0.5597 0.5353 0.5110
1266.000000 0.4867 0.4624 0.4368 0.3995 0.3585
1271.000000 0.3176 0.2767 0.2358 0.2092 0.2051
1276.000000 0.2052 0.2121 0.2415 0.2734 0.3053
1281.000000 0.3372 0.3689 0.4080 0.4401 0.4576
1286.000000 0.4751 0.4926 0.5101 0.5304 0.5442
1291.000000 0.5474 0.5514 0.5472 0.5264 0.4908
1296.000000 0.4553 0.4199 0.3845 0.3492 0.3139
1301.000000 0.2787 0.2435 0.2174 0.2113 0.2090
1306.000000 0.2116 0.2396 0.2764 0.3132 0.3499
1311.000000 0.3866 0.4233 0.4598 0.4963 0.5328
1316.000000 0.5605 0.5787 0.5886 0.5949 0.6007
1321.000000 0.6038 0.6050 0.6057 0.6063 0.6065
1326.000000 0.6065 0.6050 0.6009 0.5971 0.5932
1331.000000 0.5883 0.5827 0.5753 0.5687 0.5627
1336.000000 0.5575 0.5521 0.5447 0.5368 0.5290
1341.000000 0.5210 0.5129 0.4990 0.4832 0.4715
1346.000000 0.4585 0.4434 0.4145 0.4001 0.3865
1351.000000 0.3704 0.3501 0.3252 0.3000 0.2749
1356.000000 0.2497 0.2247 0.1996 0.1746 0.0983
1361.000000 0.0728 0.0684 0.0660 0.0646 0.0637
1366.000000 0.0628 0.0625 0.0595 0.0654 0.0791
1371.000000 0.0938 0.1086 0.1233 0.1380 0.1527
1376.000000 0.1674 0.1820 0.1967 0.2113 0.2258
1381.000000 0.2403 0.2549 0.2694 0.2839 0.2968
1386.000000 0.2969 0.2848 0.2530 0.2204 0.1879
1391.000000 0.1555 0.1230 0.0925 0.0787 0.0885
1396.000000 0.1199 0.1532 0.1865 0.2196 0.2527
1401.000000 0.2858 0.3188 0.3518 0.3847 0.4176
1406.000000 0.4504 0.4832 0.5159 0.5516 0.5732
1411.000000 0.6095 0.6488 0.6835 0.6916 0.6942
1416.000000 0.6968 0.6991 0.7007 0.7023 0.7038
1421.000000 0.7048 0.7054 0.7059 0.7057 0.7054
1426.000000 0.7047 0.7098 0.7030 0.7014 0.6989
1431.000000 0.6867 0.6711 0.6556 0.6401 0.6245
1436.000000 0.6090 0.5935 0.5780 0.5625 0.5471
1441.000000 0.5318 0.5163 0.5010 0.4856 0.4703
1446.000000 0.4550 0.4397 0.4244 0.4092 0.3940
1451.000000 0.3788 0.3636 0.3485 0.3335 0.3234
1456.000000 0.3158 0.3082 0.3012 0.2947 0.2879
1461.000000 0.2796 0.2707 0.2590 0.2380 0.2215
1466.000000 0.2153 0.2139 0.2138 0.2151 0.2224
1471.000000 0.2415 0.2606 0.2796 0.2986 0.3176
1476.000000 0.3365 0.3554 0.3743 0.3924 0.4001
1481.000000 0.4024 0.4041 0.4058 0.4077 0.4096
1486.000000 0.4116 0.4138 0.4164 0.4191 0.4210
1491.000000 0.4228 0.4242 0.4251 0.4235 0.4051
1496.000000 0.3795 0.3539 0.3284 0.3030 0.2775
1501.000000 0.2521 0.2268 0.2014 0.1761 0.1570
1506.000000 0.1495 0.1464 0.1452 0.1448 0.1449
1511.000000 0.1459 0.1468 0.1440 0.1332 0.1198
1516.000000 0.1063 0.0929 0.0803 0.0755 0.0724
1521.000000 0.0707 0.0695 0.0686 0.0681 0.0678
1526.000000 0.0676 0.0663 0.0618 0.0567 0.0516
1531.000000 0.0466 0.0415 0.0364 0.0303 0.0227
1536.000000 0.0192 0.0160 0.0132 0.0115 0.0105
1541.000000 0.0036 0.0098 0.0227 0.0458 0.0704
1546.000000 0.0949 0.1194 0.1439 0.1684 0.1927
1551.000000 0.2172 0.2407 0.2575 0.2636 0.2678
1556.000000 0.2709 0.2740 0.2763 0.2779 0.2793
1561.000000 0.2794 0.2795 0.2797 0.2707 0.2446
1566.000000 0.2112 0.1779 0.1446 0.1243 0.1189
1571.000000 0.1173 0.1157 0.1144 0.1129 0.1113
1576.000000 0.1061 0.0953 0.0829 0.0704 0.0579
1581.000000 0.0455 0.0331 0.0207 0.0122 0.0100
1586.000000 0.0078 0.0100 0.0190 0.0336 0.0490
1591.000000 0.0645 0.0800 0.0925 0.0900 0.0900
1596.000000 0.0888 0.0855 0.0813 0.0771 0.0729
1601.000000 0.0687 0.0645 0.0603 0.0499 0.0534
1606.000000 0.0539 0.0621 0.0831 0.1039 0.1248
1611.000000 0.1456 0.1665 0.1873 0.2080 0.2287
1616.000000 0.2435 0.2444 0.2451 0.2457 0.2460
1621.000000 0.2467 0.2481 0.2587 0.2736 0.2885
1626.000000 0.3034 0.3182 0.3330 0.3477 0.3625
1631.000000 0.3773 0.3920 0.4058 0.4093 0.4093
1636.000000 0.4094 0.4095 0.4119 0.4094 0.4045
1641.000000 0.3899 0.3700 0.3501 0.3303 0.3104
1646.000000 0.2907 0.2709 0.2511 0.2314 0.2117
1651.000000 0.1920 0.1723 0.1527 0.1331 0.1135
1656.000000 0.0939 0.0744 0.0548 0.0356 0.0200
1661.000000 0.0156 0.0110 0.0084 0.0066 0.0052
1666.000000 0.0044 0.0039 0.0036 0.0031 0.0028
1671.000000 0.0033 0.0024 0.0024 0.0025 0.0030
1676.000000 0.0112 0.0306 0.0500 0.0694 0.0888
1681.000000 0.1081 0.1273 0.1467 0.1659 0.1852
1686.000000 0.2044 0.2236 0.2427 0.2619 0.2810
1691.000000 0.3002 0.3170 0.3293 0.3374 0.3455
1696.000000 0.3537 0.3698 0.3932 0.4388 0.4893
1701.000000 0.5248 0.5454 0.5693 0.5743 0.5820
1706.000000 0.5957 0.6121 0.6283 0.6445 0.6608
1711.000000 0.6770 0.6932 0.7093 0.7255 0.7416
1716.000000 0.7569 0.7672 0.7704 0.7742 0.7783
1721.000000 0.7828 0.7879 0.7938 0.7997 0.8052
1726.000000 0.8106 0.8173 0.8270 0.8403 0.8510
1731.000000 0.8555 0.8579 0.8594 0.8603 0.8606
1736.000000 0.8608 0.8608 0.8604 0.8598 0.8593
1741.000000 0.8587 0.8577 0.8567 0.8556 0.8546
1746.000000 0.8535 0.8520 0.8504 0.8488 0.8475
1751.000000 0.8464 0.8454 0.8444 0.8444 0.8446
1756.000000 0.8448 0.8450 0.8455 0.8461 0.8475
1761.000000 0.8499 0.8532 0.8570 0.8617 0.8670
1766.000000 0.8751 0.8844 0.8872 0.8889 0.8895
1771.000000 0.8897 0.8898 0.8898 0.8897 0.8894
1776.000000 0.8891 0.8888 0.8884 0.8878 0.8873
1781.000000 0.8868 0.8863 0.8860 0.8858 0.8856
1786.000000 0.8854 0.8853 0.8856 0.8863 0.8872
1791.000000 0.8881 0.8890 0.8902 0.8915 0.8928
1796.000000 0.8942 0.8956 0.8970 0.8984 0.8997
1801.000000 0.9010 0.9024 0.9037 0.9050 0.9063
1806.000000 0.9076 0.9088 0.9100 0.9111 0.9121
1811.000000 0.9130 0.9139 0.9148 0.9155 0.9162
1816.000000 0.9169 0.9175 0.9182 0.9189 0.9195
1821.000000 0.9202 0.9208 0.9213 0.9218 0.9224
1826.000000 0.9230 0.9235 0.9240 0.9246 0.9252
1831.000000 0.9257 0.9262 0.9268 0.9274 0.9279
1836.000000 0.9284 0.9290 0.9295 0.9300 0.9306
1841.000000 0.9312 0.9316 0.9321 0.9325 0.9329
1846.000000 0.9335 0.9339 0.9344 0.9348 0.9352
1851.000000 0.9356 0.9358 0.9361 0.9363 0.9365
1856.000000 0.9368 0.9370 0.9373 0.9375 0.9377
1861.000000 0.9379 0.9380 0.9382 0.9383 0.9385
1866.000000 0.9386 0.9386 0.9386 0.9386 0.9387
1871.000000 0.9387 0.9387 0.9387 0.9387 0.9387
1876.000000 0.9386 0.9385 0.9384 0.9383 0.9382
1881.000000 0.9381 0.9379 0.9377 0.9374 0.9368
1886.000000 0.9362 0.9355 0.9349 0.9343 0.9336
1891.000000 0.9327 0.9317 0.9307 0.9297 0.9286
1896.000000 0.9275 0.9263 0.9251 0.9238 0.9225
1901.000000 0.9211 0.9198 0.9185 0.9171 0.9155
1906.000000 0.9139 0.9124 0.9110 0.9098 0.9088
1911.000000 0.9078 0.9072 0.9068 0.9065 0.9065
1916.000000 0.9065 0.9069 0.9092 0.9122 0.9158
1921.000000 0.9195 0.9231 0.9267 0.9303 0.9339
1926.000000 0.9375 0.9408 0.9426 0.9429 0.9433
1931.000000 0.9436 0.9439 0.9441 0.9425 0.9447
1936.000000 0.9448 0.9449 0.9451 0.9453 0.9454
1941.000000 0.9453 0.9453 0.9452 0.9451 0.9447
1946.000000 0.9443 0.9439 0.9435 0.9432 0.9428
1951.000000 0.9424 0.9421 0.9418 0.9415 0.9412
1956.000000 0.9410 0.9408 0.9406 0.9404 0.9402
1961.000000 0.9400 0.9399 0.9397 0.9395 0.9395
1966.000000 0.9394 0.9393 0.9393 0.9392 0.9392
1971.000000 0.9391 0.9390 0.9390 0.9388 0.9387
1976.000000 0.9387 0.9386 0.9384 0.9384 0.9383
1981.000000 0.9381 0.9381 0.9381 0.9383 0.9385
1986.000000 0.9386 0.9388 0.9389 0.9391 0.9392
1991.000000 0.9394 0.9395 0.9395 0.9393 0.9389
1996.000000 0.9385 0.9379 0.9374 0.9369 0.9364
2001.000000 0.9359 0.9355 0.9350 0.9345 0.9341
2006.000000 0.9336 0.9331 0.9326 0.9321 0.9316
2011.000000 0.9311 0.9306 0.9301 0.9296 0.9291
2016.000000 0.9286 0.9281 0.9275 0.9270 0.9264
2021.000000 0.9259 0.9253 0.9248 0.9243 0.9238
2026.000000 0.9233 0.9230 0.9229 0.9229 0.9232
2031.000000 0.9235 0.9237 0.9240 0.9243 0.9246
2036.000000 0.9250 0.9254 0.9257 0.9261 0.9265
2041.000000 0.9269 0.9273 0.9278 0.9282 0.9286
2046.000000 0.9291 0.9297 0.9304 0.9313 0.9323
2051.000000 0.9335 0.9359 0.9371 0.9370 0.9369
2056.000000 0.9368 0.9367 0.9364 0.9361 0.9359
2061.000000 0.9357 0.9354 0.9352 0.9349 0.9347
2066.000000 0.9345 0.9342 0.9339 0.9337 0.9334
2071.000000 0.9331 0.9329 0.9326 0.9324 0.9321
2076.000000 0.9318 0.9316 0.9315 0.9313 0.9311
2081.000000 0.9309 0.9307 0.9305 0.9304 0.9304
2086.000000 0.9304 0.9305 0.9307 0.9309 0.9312
2091.000000 0.9316 0.9320 0.9324 0.9327 0.9331
2096.000000 0.9335 0.9338 0.9342 0.9345 0.9349
2101.000000 0.9351 0.9351 0.9350 0.9350 0.9349
2106.000000 0.9348 0.9346 0.9343 0.9340 0.9338
2111.000000 0.9336 0.9333 0.9331 0.9328 0.9326
2116.000000 0.9323 0.9320 0.9317 0.9313 0.9310
2121.000000 0.9306 0.9302 0.9299 0.9296 0.9292
2126.000000 0.9289 0.9285 0.9281 0.9277 0.9273
2131.000000 0.9270 0.9266 0.9262 0.9258 0.9253
2136.000000 0.9249 0.9246 0.9242 0.9238 0.9234
2141.000000 0.9231 0.9228 0.9226 0.9224 0.9222
2146.000000 0.9220 0.9218 0.9216 0.9214 0.9213
2151.000000 0.9211 0.9209 0.9207 0.9205 0.9203
2156.000000 0.9201 0.9200 0.9197 0.9196 0.9196
2161.000000 0.9196 0.9196 0.9196 0.9196 0.9196
2166.000000 0.9196 0.9196 0.9196 0.9196 0.9196
2171.000000 0.9197 0.9197 0.9196 0.9196 0.9196
2176.000000 0.9195 0.9195 0.9195 0.9195 0.9194
2181.000000 0.9194 0.9194 0.9194 0.9193 0.9193
2186.000000 0.9193 0.9193 0.9192 0.9192 0.9192
2191.000000 0.9192 0.9192 0.9192 0.9192 0.9192
2196.000000 0.9192 0.9192 0.9192 0.9193 0.9193
2201.000000 0.9193 0.9193 0.9193 0.9193 0.9193
2206.000000 0.9193 0.9193 0.9193 0.9194 0.9194
2211.000000 0.9194 0.9194 0.9194 0.9194 0.9194
2216.000000 0.9194 0.9195 0.9195 0.9196 0.9196
2221.000000 0.9197 0.9197 0.9198 0.9198 0.9199
2226.000000 0.9199 0.9200 0.9200 0.9201 0.9201
2231.000000 0.9202 0.9202 0.9203 0.9204 0.9205
2236.000000 0.9205 0.9206 0.9206 0.9207 0.9207
2241.000000 0.9208 0.9208 0.9208 0.9208 0.9209
2246.000000 0.9209 0.9210 0.9210 0.9210 0.9210
2251.000000 0.9211 0.9211 0.9212 0.9212 0.9212
2256.000000 0.9212 0.9212 0.9212 0.9211 0.9210
2261.000000 0.9209 0.9208 0.9207 0.9205 0.9204
2266.000000 0.9203 0.9202 0.9200 0.9199 0.9198
2271.000000 0.9197 0.9196 0.9195 0.9194 0.9192
2276.000000 0.9191 0.9190 0.9189 0.9188 0.9187
2281.000000 0.9187 0.9186 0.9185 0.9184 0.9183
2286.000000 0.9182 0.9181 0.9180 0.9179 0.9178
2291.000000 0.9177 0.9177 0.9178 0.9179 0.9181
2296.000000 0.9182 0.9183 0.9185 0.9186 0.9188
2301.000000 0.9190 0.9191 0.9193 0.9194 0.9196
2306.000000 0.9197 0.9199 0.9200 0.9201 0.9203
2311.000000 0.9205 0.9207 0.9209 0.9211 0.9213
2316.000000 0.9215 0.9218 0.9220 0.9222 0.9224
2321.000000 0.9226 0.9228 0.9231 0.9233 0.9235
2326.000000 0.9237 0.9239 0.9241 0.9243 0.9246
2331.000000 0.9249 0.9252 0.9256 0.9260 0.9263
2336.000000 0.9266 0.9269 0.9272 0.9276 0.9279
2341.000000 0.9283 0.9286 0.9289 0.9293 0.9296
2346.000000 0.9299 0.9303 0.9307 0.9310 0.9314
2351.000000 0.9318 0.9322 0.9326 0.9329 0.9333
2356.000000 0.9337 0.9340 0.9345 0.9348 0.9352
2361.000000 0.9356 0.9359 0.9363 0.9366 0.9370
2366.000000 0.9373 0.9376 0.9380 0.9383 0.9387
2371.000000 0.9390 0.9394 0.9397 0.9401 0.9403
2376.000000 0.9406 0.9408 0.9410 0.9408 0.9396
2381.000000 0.9384 0.9368 0.9353 0.9334 0.9314
2386.000000 0.9289 0.9260 0.9232 0.9214 0.9197
2391.000000 0.9185 0.9173 0.9162 0.9151 0.9140
2396.000000 0.9129 0.9118 0.9106 0.9095 0.9084
2401.000000 0.9073 0.9063 0.9056 0.9049 0.9042
2406.000000 0.9036 0.9031 0.9026 0.9023 0.9021
2411.000000 0.9019 0.9018 0.9017 0.9015 0.9014
2416.000000 0.9013 0.9013 0.9013 0.9013 0.9013
2421.000000 0.9012 0.9012 0.9011 0.9011 0.9010
2426.000000 0.9010 0.9010 0.9010 0.9010 0.9009
2431.000000 0.9009 0.9008 0.9008 0.9007 0.9006
2436.000000 0.9006 0.9005 0.9005 0.9005 0.9004
2441.000000 0.9003 0.9002 0.9002 0.9001 0.9000
2446.000000 0.9000 0.8999 0.8999 0.8998 0.8997
2451.000000 0.8996 0.8996 0.8995 0.8994 0.8994
2456.000000 0.8993 0.8993 0.8992 0.8991 0.8991
2461.000000 0.8990 0.8989 0.8988 0.8985 0.8983
2466.000000 0.8980 0.8978 0.8975 0.8973 0.8970
2471.000000 0.8968 0.8965 0.8963 0.8960 0.8957
2476.000000 0.8954 0.8951 0.8949 0.8946 0.8943
2481.000000 0.8940 0.8937 0.8934 0.8932 0.8929
2486.000000 0.8926 0.8923 0.8920 0.8917 0.8915
2491.000000 0.8912 0.8909 0.8906 0.8903 0.8900
2496.000000 0.8897 0.8894 0.8891 0.8888 0.8885
2501.000000 0.8881 0.8878 0.8875 0.8872 0.8869
2506.000000 0.8865 0.8862 0.8859 0.8856 0.8853
2511.000000 0.8849 0.8846 0.8843 0.8840 0.8837
2516.000000 0.8834 0.8830 0.8827 0.8824 0.8820
2521.000000 0.8817 0.8814 0.8810 0.8807 0.8803
2526.000000 0.8800 0.8796 0.8793 0.8789 0.8786
2531.000000 0.8782 0.8778 0.8774 0.8770 0.8766
2536.000000 0.8763 0.8759 0.8755 0.8751 0.8747
2541.000000 0.8743 0.8739 0.8734 0.8731 0.8729
2546.000000 0.8726 0.8724 0.8721 0.8719 0.8716
2551.000000 0.8714 0.8712 0.8711 0.8710 0.8709
2556.000000 0.8708 0.8707 0.8705 0.8704 0.8703
2561.000000 0.8702 0.8701 0.8700 0.8700 0.8698
2566.000000 0.8697 0.8696 0.8695 0.8694 0.8691
2571.000000 0.8687 0.8683 0.8678 0.8674 0.8669
2576.000000 0.8665 0.8661 0.8656 0.8652 0.8647
2581.000000 0.8643 0.8638 0.8634 0.8630 0.8626
2586.000000 0.8622 0.8618 0.8613 0.8610 0.8606
2591.000000 0.8602 0.8599 0.8595 0.8591 0.8587
2596.000000 0.8583 0.8579 0.8575 0.8572 0.8568
2601.000000 0.8564 0.8560 0.8556 0.8552 0.8548
2606.000000 0.8545 0.8541 0.8537 0.8534 0.8530
2611.000000 0.8526 0.8522 0.8518 0.8514 0.8511
2616.000000 0.8507 0.8503 0.8499 0.8496 0.8492
2621.000000 0.8490 0.8487 0.8485 0.8483 0.8480
2626.000000 0.8478 0.8475 0.8473 0.8470 0.8467
2631.000000 0.8465 0.8463 0.8460 0.8458 0.8456
2636.000000 0.8454 0.8452 0.8450 0.8448 0.8446
2641.000000 0.8444 0.8442 0.8440 0.8438 0.8436
2646.000000 0.8435 0.8433 0.8431 0.8431 0.8431
2651.000000 0.8431 0.8430 0.8430 0.8430 0.8430
2656.000000 0.8430 0.8429 0.8429 0.8429 0.8429
2661.000000 0.8429 0.8429 0.8429 0.8429 0.8429
2666.000000 0.8428 0.8427 0.8427 0.8426 0.8426
2671.000000 0.8425 0.8425 0.8424 0.8423 0.8423
2676.000000 0.8423 0.8422 0.8419 0.8417 0.8413
2681.000000 0.8409 0.8404 0.8400 0.8396 0.8392
2686.000000 0.8387 0.8383 0.8378 0.8374 0.8370
2691.000000 0.8366 0.8362 0.8357 0.8353 0.8349
2696.000000 0.8345 0.8341 0.8336 0.8332 0.8328
2701.000000 0.8324 0.8319 0.8315 0.8311 0.8307
2706.000000 0.8303 0.8299 0.8295 0.8290 0.8286
2711.000000 0.8281 0.8276 0.8271 0.8267 0.8260
2716.000000 0.8253 0.8245 0.8238 0.8231 0.8224
2721.000000 0.8217 0.8210 0.8203 0.8196 0.8189
2726.000000 0.8181 0.8174 0.8167 0.8160 0.8153
2731.000000 0.8146 0.8139 0.8132 0.8125 0.8118
2736.000000 0.8111 0.8104 0.8097 0.8090 0.8084
2741.000000 0.8077 0.8073 0.8069 0.8065 0.8061
2746.000000 0.8057 0.8054 0.8050 0.8046 0.8043
2751.000000 0.8039 0.8035 0.8031 0.8027 0.8023
2756.000000 0.8020 0.8017 0.8014 0.8011 0.8008
2761.000000 0.8005 0.8003 0.8000 0.7997 0.7994
2766.000000 0.7991 0.7988 0.7984 0.7979 0.7970
2771.000000 0.7962 0.7952 0.7939 0.7926 0.7912
2776.000000 0.7896 0.7880 0.7864 0.7849 0.7833
2781.000000 0.7817 0.7802 0.7787 0.7772 0.7756
2786.000000 0.7741 0.7726 0.7704 0.7681 0.7659
2791.000000 0.7634 0.7609 0.7584 0.7552 0.7518
2796.000000 0.7483 0.7450 0.7418 0.7386 0.7358
2801.000000 0.7333 0.7309 0.7285 0.7261 0.7237
2806.000000 0.7213 0.7188 0.7162 0.7136 0.7107
2811.000000 0.7077 0.7048 0.7020 0.6991 0.6963
2816.000000 0.6937 0.6910 0.6884 0.6858 0.6833
2821.000000 0.6807 0.6778 0.6744 0.6711 0.6676
2826.000000 0.6635 0.6594 0.6553 0.6502 0.6450
2831.000000 0.6399 0.6356 0.6317 0.6278 0.6239
2836.000000 0.6201 0.6163 0.6111 0.6030 0.5949
2841.000000 0.5862 0.5710 0.5559 0.5408 0.5189
2846.000000 0.4959 0.4729 0.4499 0.4270 0.4040
2851.000000 0.3811 0.3582 0.3353 0.3124 0.2896
2856.000000 0.2668 0.2439 0.2211 0.1983 0.1755
2861.000000 0.1528 0.1300 0.1073 0.0909 0.0883
2866.000000 0.0857 0.0832 0.0818 0.0804 0.0789
2871.000000 0.0777 0.0766 0.0754 0.0742 0.0730
2876.000000 0.0718 0.0706 0.0694 0.0681 0.0669
2881.000000 0.0654 0.0640 0.0625 0.0609 0.0592
2886.000000 0.0576 0.0559 0.0542 0.0526 0.0509
2891.000000 0.0493 0.0476 0.0460 0.0444 0.0428
2896.000000 0.0412 0.0395 0.0378 0.0360 0.0343
2901.000000 0.0327 0.0312 0.0297 0.0284 0.0273
2906.000000 0.0262 0.0251 0.0240 0.0229 0.0218
2911.000000 0.0207 0.0194 0.0182 0.0170 0.0158
2916.000000 0.0147 0.0135 0.0128 0.0122 0.0116
2921.000000 0.0110 0.0104 0.0098 0.0091 0.0086
2926.000000 0.0080 0.0074 0.0069 0.0065 0.0062
2931.000000 0.0058 0.0055 0.0052 0.0049 0.0046
2936.000000 0.0043 0.0041 0.0038 0.0037 0.0035
2941.000000 0.0034 0.0033 0.0031 0.0030 0.0030
2946.000000 0.0030 0.0030 0.0030 0.0031 0.0031
2951.000000 0.0031 0.0031 0.0033 0.0035 0.0036
2956.000000 0.0072 0.0111 0.0150 0.0213 0.0310
2961.000000 0.0407 0.0504 0.0601 0.0697 0.0794
2966.000000 0.0890 0.0987 0.1083 0.1180 0.1276
2971.000000 0.1372 0.1468 0.1564 0.1660 0.1756
2976.000000 0.1852 0.1948 0.2043 0.2139 0.2235
2981.000000 0.2330 0.2425 0.2521 0.2616 0.2711
2986.000000 0.2807 0.2902 0.2997 0.3092 0.3187
2991.000000 0.3282 0.3377 0.3471 0.3566 0.3661
2996.000000 0.3755 0.3850 0.3944 0.4039 0.4133
3001.000000 0.4228 0.4322 0.4416 0.4510 0.4604
3006.000000 0.4698 0.4792 0.4886 0.4979 0.5073
3011.000000 0.5166 0.5260 0.5354 0.5447 0.5541
3016.000000 0.5634 0.5728 0.5822 0.5915 0.5967
3021.000000 0.6000 0.6032 0.6064 0.6085 0.6107
3026.000000 0.6128 0.6145 0.6155 0.6164 0.6174
3031.000000 0.6182 0.6191 0.6199 0.6208 0.6214
3036.000000 0.6220 0.6226 0.6231 0.6237 0.6243
3041.000000 0.6249 0.6254 0.6258 0.6261 0.6265
3046.000000 0.6269 0.6273 0.6277 0.6280 0.6285
3051.000000 0.6289 0.6293 0.6298 0.6304 0.6309
3056.000000 0.6314 0.6320 0.6325 0.6330 0.6336
3061.000000 0.6343 0.6351 0.6358 0.6365 0.6373
3066.000000 0.6380 0.6387 0.6394 0.6401 0.6408
3071.000000 0.6415 0.6418 0.6420 0.6422 0.6423
3076.000000 0.6425 0.6426 0.6427 0.6429 0.6429
3081.000000 0.6430 0.6430 0.6430 0.6429 0.6429
3086.000000 0.6428 0.6427 0.6426 0.6425 0.6424
3091.000000 0.6422 0.6419 0.6417 0.6415 0.6412
3096.000000 0.6409 0.6406 0.6403 0.6400 0.6397
3101.000000 0.6395 0.6392 0.6388 0.6384 0.6381
3106.000000 0.6376 0.6372 0.6367 0.6362 0.6356
3111.000000 0.6350 0.6344 0.6338 0.6331 0.6324
3116.000000 0.6317 0.6310 0.6303 0.6297 0.6291
3121.000000 0.6284 0.6274 0.6264 0.6254 0.6245
3126.000000 0.6228 0.6211 0.6195 0.6178 0.6157
3131.000000 0.6136 0.6115 0.6093 0.6069 0.6045
3136.000000 0.6021 0.5998 0.5977 0.5957 0.5936
3141.000000 0.5907 0.5857 0.5808 0.5758 0.5705
3146.000000 0.5645 0.5586 0.5526 0.5466 0.5407
3151.000000 0.5347 0.5287 0.5228 0.5168 0.5109
3156.000000 0.5049 0.4990 0.4930 0.4871 0.4812
3161.000000 0.4752 0.4693 0.4634 0.4574 0.4515
3166.000000 0.4457 0.4398 0.4339 0.4280 0.4221
3171.000000 0.4162 0.4103 0.4044 0.3986 0.3927
3176.000000 0.3868 0.3809 0.3751 0.3692 0.3633
3181.000000 0.3575 0.3516 0.3458 0.3399 0.3339
3186.000000 0.3275 0.3212 0.3148 0.3084 0.3018
3191.000000 0.2952 0.2886 0.2824 0.2786 0.2748
3196.000000 0.2711 0.2673 0.2644 0.2614 0.2585
3201.000000 0.2555 0.2540 0.2526 0.2511 0.2496
3206.000000 0.2482 0.2467 0.2453 0.2438 0.2423
3211.000000 0.2409 0.2394 0.2380 0.2365 0.2351
3216.000000 0.2336 0.2322 0.2306 0.2289 0.2271
3221.000000 0.2254 0.2236 0.2218 0.2200 0.2181
3226.000000 0.2163 0.2144 0.2125 0.2106 0.2087
3231.000000 0.2066 0.2045 0.2024 0.2003 0.1983
3236.000000 0.1962 0.1942 0.1922 0.1903 0.1885
3241.000000 0.1866 0.1848 0.1830 0.1815 0.1800
3246.000000 0.1784 0.1770 0.1758 0.1746 0.1734
3251.000000 0.1722 0.1715 0.1707 0.1699 0.1691
3256.000000 0.1684 0.1676 0.1668 0.1661 0.1650
3261.000000 0.1635 0.1620 0.1606 0.1587 0.1557
3266.000000 0.1527 0.1497 0.1467 0.1437 0.1407
3271.000000 0.1378 0.1348 0.1318 0.1288 0.1258
3276.000000 0.1229 0.1199 0.1169 0.1140 0.1110
3281.000000 0.1081 0.1051 0.1021 0.0992 0.0962
3286.000000 0.0932 0.0903 0.0873 0.0844 0.0826
3291.000000 0.0819 0.0812 0.0805 0.0800 0.0800
3296.000000 0.0801 0.0802 0.0802 0.0804 0.0806
3301.000000 0.0808 0.0810 0.0811 0.0816 0.0819
3306.000000 0.0822 0.0826 0.0830 0.0834 0.0838
3311.000000 0.0841 0.0875 0.0919 0.0964 0.1008
3316.000000 0.1054 0.1102 0.1151 0.1199 0.1248
3321.000000 0.1296 0.1345 0.1393 0.1442 0.1490
3326.000000 0.1539 0.1587 0.1635 0.1684 0.1732
3331.000000 0.1780 0.1828 0.1876 0.1925 0.1973
3336.000000 0.2021 0.2069 0.2117 0.2165 0.2213
3341.000000 0.2261 0.2309 0.2357 0.2404 0.2452
3346.000000 0.2500 0.2548 0.2596 0.2643 0.2691
3351.000000 0.2739 0.2786 0.2834 0.2881 0.2929
3356.000000 0.2970 0.2994 0.3018 0.3043 0.3067
3361.000000 0.3072 0.3071 0.3071 0.3070 0.3069
3366.000000 0.3069 0.3069 0.3068 0.3068 0.3068
3371.000000 0.3068 0.3069 0.3069 0.3097 0.3057
3376.000000 0.3047 0.3036 0.3025 0.3000 0.2967
3381.000000 0.2933 0.2899 0.2865 0.2831 0.2798
3386.000000 0.2764 0.2730 0.2697 0.2663 0.2629
3391.000000 0.2596 0.2562 0.2528 0.2495 0.2462
3396.000000 0.2428 0.2395 0.2361 0.2328 0.2294
3401.000000 0.2261 0.2227 0.2194 0.2161 0.2128
3406.000000 0.2094 0.2061 0.2028 0.1994 0.1961
3411.000000 0.1928 0.1895 0.1862 0.1828 0.1795
3416.000000 0.1762 0.1729 0.1697 0.1664 0.1631
3421.000000 0.1598 0.1564 0.1531 0.1498 0.1465
3426.000000 0.1432 0.1400 0.1367 0.1334 0.1301
3431.000000 0.1268 0.1235 0.1203 0.1170 0.1166
3436.000000 0.1164 0.1162 0.1160 0.1173 0.1182
3441.000000 0.1201 0.1220 0.1239 0.1296 0.1398
3446.000000 0.1499 0.1600 0.1702 0.1803 0.1903
3451.000000 0.2004 0.2105 0.2206 0.2306 0.2407
3456.000000 0.2508 0.2608 0.2709 0.2810 0.2910
3461.000000 0.3010 0.3111 0.3211 0.3311 0.3411
3466.000000 0.3512 0.3612 0.3712 0.3812 0.3912
3471.000000 0.4011 0.4111 0.4211 0.4311 0.4410
3476.000000 0.4510 0.4609 0.4709 0.4808 0.4907
3481.000000 0.5007 0.5106 0.5205 0.5304 0.5403
3486.000000 0.5502 0.5601 0.5700 0.5799 0.5897
3491.000000 0.5996 0.6095 0.6193 0.6292 0.6390
3496.000000 0.6489 0.6562 0.6608 0.6655 0.6702
3501.000000 0.6749 0.6776 0.6790 0.6805 0.6819
3506.000000 0.6833 0.6847 0.6860 0.6873 0.6886
3511.000000 0.6899 0.6926 0.6957 0.6988 0.7018
3516.000000 0.7049 0.7077 0.7104 0.7130 0.7157
3521.000000 0.7184 0.7214 0.7244 0.7274 0.7304
3526.000000 0.7335 0.7368 0.7403 0.7437 0.7471
3531.000000 0.7505 0.7533 0.7560 0.7587 0.7614
3536.000000 0.7641 0.7665 0.7689 0.7713 0.7737
3541.000000 0.7761 0.7783 0.7805 0.7827 0.7848
3546.000000 0.7870 0.7887 0.7903 0.7919 0.7935
3551.000000 0.7951 0.7967 0.7982 0.7998 0.8013
3556.000000 0.8029 0.8050 0.8073 0.8096 0.8120
3561.000000 0.8143 0.8156 0.8166 0.8177 0.8187
3566.000000 0.8197 0.8203 0.8207 0.8211 0.8216
3571.000000 0.8220 0.8222 0.8224 0.8226 0.8227
3576.000000 0.8229 0.8230 0.8232 0.8234 0.8236
3581.000000 0.8237 0.8239 0.8240 0.8242 0.8243
3586.000000 0.8244 0.8246 0.8247 0.8248 0.8249
3591.000000 0.8250 0.8251 0.8252 0.8252 0.8253
3596.000000 0.8254 0.8255 0.8256 0.8257 0.8258
3601.000000 0.8259 0.8260 0.8261 0.8262 0.8264
3606.000000 0.8265 0.8266 0.8267 0.8268 0.8269
3611.000000 0.8270 0.8271 0.8272 0.8273 0.8274
3616.000000 0.8275 0.8276 0.8278 0.8279 0.8279
3621.000000 0.8280 0.8281 0.8282 0.8284 0.8286
3626.000000 0.8288 0.8290 0.8292 0.8294 0.8295
3631.000000 0.8297 0.8299 0.8301 0.8303 0.8305
3636.000000 0.8307 0.8309 0.8311 0.8313 0.8316
3641.000000 0.8318 0.8320 0.8322 0.8324 0.8326
3646.000000 0.8328 0.8330 0.8332 0.8334 0.8336
3651.000000 0.8338 0.8340 0.8342 0.8344 0.8347
3656.000000 0.8349 0.8351 0.8353 0.8355 0.8357
3661.000000 0.8359 0.8360 0.8362 0.8364 0.8365
3666.000000 0.8367 0.8367 0.8368 0.8368 0.8369
3671.000000 0.8369 0.8370 0.8371 0.8371 0.8372
3676.000000 0.8372 0.8363 0.8372 0.8371 0.8371
3681.000000 0.8370 0.8369 0.8368 0.8367 0.8366
3686.000000 0.8365 0.8364 0.8363 0.8362 0.8361
3691.000000 0.8359 0.8358 0.8357 0.8355 0.8353
3696.000000 0.8350 0.8348 0.8346 0.8345 0.8343
3701.000000 0.8342 0.8341 0.8339 0.8338 0.8338
3706.000000 0.8337 0.8337 0.8336 0.8336 0.8335
3711.000000 0.8335 0.8334 0.8333 0.8333 0.8332
3716.000000 0.8332 0.8331 0.8330 0.8329 0.8329
3721.000000 0.8328 0.8328 0.8327 0.8326 0.8326
3726.000000 0.8325 0.8325 0.8325 0.8324 0.8324
3731.000000 0.8324 0.8323 0.8323 0.8323 0.8323
3736.000000 0.8323 0.8322 0.8322 0.8322 0.8322
3741.000000 0.8322 0.8322 0.8321 0.8321 0.8321
3746.000000 0.8321 0.8321 0.8321 0.8320 0.8320
3751.000000 0.8319 0.8319 0.8319 0.8318 0.8318
3756.000000 0.8318 0.8318 0.8318 0.8318 0.8317
3761.000000 0.8317 0.8317 0.8317 0.8317 0.8317
3766.000000 0.8316 0.8316 0.8316 0.8316 0.8316
3771.000000 0.8315 0.8313 0.8312 0.8310 0.8308
3776.000000 0.8306 0.8304 0.8302 0.8301 0.8299
3781.000000 0.8297 0.8295 0.8292 0.8290 0.8288
3786.000000 0.8285 0.8283 0.8280 0.8278 0.8275
3791.000000 0.8273 0.8270 0.8268 0.8266 0.8264
3796.000000 0.8262 0.8261 0.8259 0.8257 0.8255
3801.000000 0.8253 0.8252 0.8250 0.8248 0.8246
3806.000000 0.8244 0.8242 0.8240 0.8238 0.8236
3811.000000 0.8234 0.8233 0.8231 0.8229 0.8228
3816.000000 0.8226 0.8224 0.8223 0.8221 0.8220
3821.000000 0.8218 0.8216 0.8215 0.8213 0.8212
3826.000000 0.8210 0.8209 0.8207 0.8206 0.8204
3831.000000 0.8203 0.8201 0.8200 0.8198 0.8197
3836.000000 0.8195 0.8193 0.8192 0.8190 0.8189
3841.000000 0.8187 0.8186 0.8184 0.8183 0.8181
3846.000000 0.8180 0.8178 0.8176 0.8174 0.8172
3851.000000 0.8171 0.8169 0.8167 0.8165 0.8163
3856.000000 0.8161 0.8159 0.8157 0.8155 0.8153
3861.000000 0.8151 0.8149 0.8147 0.8145 0.8143
3866.000000 0.8141 0.8139 0.8137 0.8135 0.8133
3871.000000 0.8132 0.8130 0.8128 0.8126 0.8124
3876.000000 0.8122 0.8121 0.8119 0.8117 0.8115
3881.000000 0.8113 0.8111 0.8110 0.8108 0.8107
3886.000000 0.8105 0.8103 0.8102 0.8100 0.8098
3891.000000 0.8096 0.8094 0.8092 0.8091 0.8089
3896.000000 0.8087 0.8086 0.8084 0.8082 0.8081
3901.000000 0.8080 0.8078 0.8077 0.8076 0.8075
3906.000000 0.8074 0.8073 0.8073 0.8072 0.8072
3911.000000 0.8071 0.8071 0.8070 0.8070 0.8069
3916.000000 0.8069 0.8068 0.8068 0.8067 0.8067
3921.000000 0.8067 0.8066 0.8066 0.8066 0.8065
3926.000000 0.8065 0.8064 0.8064 0.8063 0.8063
3931.000000 0.8062 0.8062 0.8062 0.8061 0.8061
3936.000000 0.8061 0.8061 0.8060 0.8060 0.8059
3941.000000 0.8059 0.8058 0.8058 0.8057 0.8057
3946.000000 0.8057 0.8057 0.8057 0.8057 0.8057
3951.000000 0.8057 0.8057 0.8057 0.8057 0.8057
3956.000000 0.8057 0.8057 0.8057 0.8057 0.8057
3961.000000 0.8057 0.8057 0.8057 0.8057 0.8057
3966.000000 0.8057 0.8057 0.8057 0.8057 0.8057
3971.000000 0.8057 0.8056 0.8056 0.8056 0.8055
3976.000000 0.8055 0.8054 0.8053 0.8053 0.8052
3981.000000 0.8051 0.8051 0.8050 0.8050 0.8049
3986.000000 0.8048 0.8048 0.8047 0.8046 0.8045
3991.000000 0.8045 0.8044 0.8043 0.8042 0.8041
3996.000000 0.8041 0.8040 0.8039 0.8038 0.8038
##END=
