##TITLE=Urea, 3-cyclohexyl-1-(2-ethylthio)ethyl-1-nitroso-
##JCAMP-DX=4.24
##DATA TYPE=INFRARED SPECTRUM
##CLASS=COBLENTZ III
##ORIGIN=SOUTHERN RESEARCH INSTITUTE
##OWNER=Copyright (C) 1987 by the Coblentz Society
Collection (C) 2018 copyright by the U.S. Secretary of Commerce
on behalf of the United States of America. All rights reserved.
##DATE=1966/06/03
##NAMES=1-[(cyclohexylamino)carbonyl]-1-[2-(ethylsulfanyl)ethyl]-2-oxohydrazine
2-(1-[(cyclohexylamino)carbonyl]-2-oxohydrazino)ethyl ethyl sulfide
##MOLFORM=C11 H21 N3 O2 S
##SOURCE REFERENCE=COBLENTZ NO. 8704
##$NIST ID=B6008704
##$NIST SOURCE=COBLENTZ
##$NIST IMAGE=cob8704
##SPECTROMETER/DATA SYSTEM=PERKIN-ELMER 521 (GRATING)
##INSTRUMENT PARAMETERS=FILTERS AT 3150, 2500, 2000, 1150, 700, 410. GRATING CHANGES: 2000, 630 CM^-^1
##STATE=LIQUID (NEAT)
##PATH LENGTH=CAPILLARY
$$ STRUCTURE NOT VERIFIED, CONFIRMED BY NMR
##SAMPLING PROCEDURE=TRANSMISSION
##RESOLUTION=2
##DATA PROCESSING=DIGITIZED BY COBLENTZ SOCIETY (BATCH II) FROM HARD COPY
##XUNITS=1/CM
##YUNITS=TRANSMITTANCE
##XFACTOR=1.0
##YFACTOR=1
##FIRSTX=247
##LASTX=3800
##FIRSTY=0.7054
##MAXX=3800
##MINX=247
##MAXY=0.8979
##MINY=0.2894
##NPOINTS=3554
##XYDATA=(X++(Y..Y))
247.000000 0.7054 0.7081 0.7119 0.7178 0.7242
252.000000 0.7308 0.7375 0.7436 0.7495 0.7554
257.000000 0.7616 0.7679 0.7743 0.7806 0.7862
262.000000 0.7917 0.7973 0.8028 0.8066 0.8102
267.000000 0.8139 0.8175 0.8212 0.8248 0.8283
272.000000 0.8318 0.8352 0.8379 0.8406 0.8433
277.000000 0.8460 0.8484 0.8504 0.8523 0.8541
282.000000 0.8556 0.8571 0.8587 0.8602 0.8615
287.000000 0.8628 0.8641 0.8654 0.8667 0.8675
292.000000 0.8683 0.8691 0.8699 0.8706 0.8714
297.000000 0.8722 0.8730 0.8738 0.8745 0.8752
302.000000 0.8760 0.8767 0.8766 0.8782 0.8788
307.000000 0.8792 0.8796 0.8800 0.8804 0.8808
312.000000 0.8813 0.8817 0.8821 0.8823 0.8824
317.000000 0.8826 0.8827 0.8829 0.8830 0.8830
322.000000 0.8829 0.8827 0.8826 0.8825 0.8824
327.000000 0.8822 0.8821 0.8811 0.8802 0.8792
332.000000 0.8783 0.8773 0.8760 0.8748 0.8735
337.000000 0.8722 0.8709 0.8696 0.8684 0.8671
342.000000 0.8658 0.8644 0.8630 0.8616 0.8602
347.000000 0.8583 0.8564 0.8545 0.8527 0.8506
352.000000 0.8483 0.8460 0.8437 0.8406 0.8374
357.000000 0.8342 0.8310 0.8277 0.8244 0.8211
362.000000 0.8177 0.8146 0.8119 0.8093 0.8066
367.000000 0.8062 0.8057 0.8057 0.8059 0.8061
372.000000 0.8064 0.8063 0.8062 0.8053 0.8017
377.000000 0.7967 0.7940 0.7902 0.7921 0.7923
382.000000 0.7934 0.7944 0.7966 0.7992 0.8040
387.000000 0.8123 0.8298 0.8387 0.8472 0.8530
392.000000 0.8587 0.8645 0.8703 0.8761 0.8819
397.000000 0.8875 0.8932 0.8945 0.8958 0.8971
402.000000 0.8973 0.8976 0.8979 0.8976 0.8974
407.000000 0.8971 0.8949 0.8964 0.8959 0.8953
412.000000 0.8948 0.8943 0.8935 0.8923 0.8910
417.000000 0.8898 0.8885 0.8872 0.8856 0.8840
422.000000 0.8824 0.8806 0.8782 0.8758 0.8735
427.000000 0.8711 0.8687 0.8659 0.8612 0.8565
432.000000 0.8513 0.8233 0.8272 0.8272 0.8278
437.000000 0.8285 0.8314 0.8335 0.8373 0.8401
442.000000 0.8426 0.8445 0.8463 0.8482 0.8493
447.000000 0.8501 0.8509 0.8516 0.8521 0.8527
452.000000 0.8532 0.8533 0.8532 0.8569 0.8530
457.000000 0.8528 0.8526 0.8521 0.8515 0.8510
462.000000 0.8504 0.8498 0.8490 0.8483 0.8475
467.000000 0.8468 0.8459 0.8447 0.8434 0.8421
472.000000 0.8408 0.8395 0.8380 0.8363 0.8346
477.000000 0.8329 0.8312 0.8295 0.8278 0.8261
482.000000 0.8244 0.8227 0.8211 0.8194 0.8178
487.000000 0.8161 0.8144 0.8126 0.8108 0.8090
492.000000 0.8071 0.8053 0.8036 0.8019 0.8002
497.000000 0.7986 0.7969 0.7952 0.7934 0.7916
502.000000 0.7898 0.7879 0.7861 0.7845 0.7828
507.000000 0.7812 0.7795 0.7779 0.7762 0.7743
512.000000 0.7722 0.7701 0.7680 0.7659 0.7639
517.000000 0.7620 0.7602 0.7583 0.7564 0.7550
522.000000 0.7548 0.7546 0.7545 0.7545 0.7548
527.000000 0.7551 0.7555 0.7559 0.7564 0.7568
532.000000 0.7572 0.7576 0.7581 0.7585 0.7588
537.000000 0.7591 0.7594 0.7597 0.7600 0.7563
542.000000 0.7605 0.7606 0.7607 0.7608 0.7609
547.000000 0.7610 0.7611 0.7612 0.7613 0.7614
552.000000 0.7615 0.7616 0.7617 0.7617 0.7618
557.000000 0.7619 0.7620 0.7621 0.7622 0.7623
562.000000 0.7624 0.7624 0.7624 0.7623 0.7623
567.000000 0.7623 0.7622 0.7622 0.7621 0.7621
572.000000 0.7621 0.7620 0.7620 0.7619 0.7617
577.000000 0.7615 0.7613 0.7611 0.7609 0.7607
582.000000 0.7602 0.7589 0.7576 0.7563 0.7547
587.000000 0.7526 0.7506 0.7485 0.7465 0.7421
592.000000 0.7375 0.7322 0.7269 0.7215 0.7002
597.000000 0.6742 0.6481 0.6441 0.6433 0.6528
602.000000 0.6647 0.6766 0.6885 0.7004 0.7123
607.000000 0.7406 0.7455 0.7486 0.7517 0.7546
612.000000 0.7566 0.7585 0.7600 0.7614 0.7629
617.000000 0.7643 0.7658 0.7672 0.7686 0.7701
622.000000 0.7716 0.7731 0.7746 0.7758 0.7769
627.000000 0.7780 0.7791 0.7803 0.7810 0.7818
632.000000 0.7825 0.7833 0.7840 0.7847 0.7855
637.000000 0.7862 0.7870 0.7877 0.7878 0.7872
642.000000 0.7864 0.7843 0.7823 0.7808 0.7793
647.000000 0.7783 0.7782 0.7783 0.7788 0.7800
652.000000 0.7812 0.7833 0.7858 0.7902 0.7976
657.000000 0.8022 0.8063 0.8098 0.8133 0.8157
662.000000 0.8182 0.8206 0.8230 0.8254 0.8277
667.000000 0.8300 0.8316 0.8331 0.8347 0.8359
672.000000 0.8368 0.8376 0.8385 0.8391 0.8394
677.000000 0.8397 0.8400 0.8403 0.8405 0.8408
682.000000 0.8410 0.8416 0.8427 0.8439 0.8451
687.000000 0.8463 0.8475 0.8489 0.8503 0.8518
692.000000 0.8532 0.8548 0.8563 0.8592 0.8583
697.000000 0.8585 0.8584 0.8581 0.8578 0.8575
702.000000 0.8572 0.8570 0.8567 0.8563 0.8556
707.000000 0.8550 0.8544 0.8541 0.8537 0.8534
712.000000 0.8530 0.8528 0.8528 0.8529 0.8529
717.000000 0.8529 0.8530 0.8531 0.8532 0.8533
722.000000 0.8533 0.8534 0.8535 0.8535 0.8532
727.000000 0.8499 0.8468 0.8438 0.8408 0.8372
732.000000 0.8333 0.8260 0.8151 0.8042 0.7934
737.000000 0.7825 0.7716 0.7608 0.7499 0.7390
742.000000 0.7282 0.7173 0.7064 0.6956 0.6847
747.000000 0.6690 0.6566 0.6489 0.6463 0.6452
752.000000 0.6441 0.6442 0.6443 0.6441 0.6457
757.000000 0.6488 0.6565 0.6658 0.6752 0.6845
762.000000 0.6910 0.6910 0.6952 0.6889 0.6847
767.000000 0.6809 0.6764 0.6702 0.6630 0.6608
772.000000 0.6593 0.6580 0.6425 0.6246 0.6066
777.000000 0.5887 0.5707 0.5527 0.5402 0.5424
782.000000 0.5444 0.5639 0.5880 0.6122 0.6363
787.000000 0.6604 0.6846 0.7087 0.7329 0.7570
792.000000 0.7811 0.7912 0.7951 0.7971 0.7985
797.000000 0.7978 0.7972 0.7963 0.7953 0.7927
802.000000 0.7866 0.7726 0.7586 0.7446 0.7306
807.000000 0.7166 0.7026 0.6886 0.6774 0.6727
812.000000 0.6726 0.6716 0.6765 0.6821 0.6951
817.000000 0.7081 0.7210 0.7340 0.7470 0.7599
822.000000 0.7729 0.7858 0.7988 0.8118 0.8191
827.000000 0.8241 0.8280 0.8305 0.8328 0.8346
832.000000 0.8355 0.8364 0.8366 0.8365 0.8363
837.000000 0.8361 0.8359 0.8357 0.8355 0.8348
842.000000 0.8346 0.8342 0.8338 0.8334 0.8330
847.000000 0.8323 0.8312 0.8301 0.8277 0.8252
852.000000 0.8213 0.8156 0.8080 0.8010 0.7941
857.000000 0.7829 0.7574 0.7550 0.7525 0.7505
862.000000 0.7503 0.7501 0.7501 0.7513 0.7525
867.000000 0.7555 0.7582 0.7603 0.7618 0.7630
872.000000 0.7641 0.7636 0.7630 0.7618 0.7594
877.000000 0.7566 0.7529 0.7458 0.7278 0.7099
882.000000 0.6920 0.6740 0.6561 0.6382 0.6201
887.000000 0.6232 0.6305 0.6379 0.6453 0.6528
892.000000 0.6572 0.6576 0.6578 0.6572 0.6565
897.000000 0.6551 0.6529 0.6493 0.6483 0.6474
902.000000 0.6468 0.6485 0.6571 0.6656 0.6742
907.000000 0.6827 0.6913 0.6998 0.7084 0.7169
912.000000 0.7255 0.7282 0.7249 0.7229 0.7186
917.000000 0.7095 0.7025 0.6970 0.6918 0.6868
922.000000 0.6819 0.6785 0.6751 0.6703 0.6566
927.000000 0.6430 0.6294 0.6158 0.6021 0.5885
932.000000 0.5749 0.5613 0.5476 0.5340 0.5204
937.000000 0.5068 0.4932 0.4795 0.4659 0.4536
942.000000 0.4481 0.4456 0.4453 0.4441 0.4460
947.000000 0.4477 0.4497 0.4667 0.4886 0.5105
952.000000 0.5324 0.5544 0.5763 0.5982 0.6201
957.000000 0.6411 0.6390 0.6384 0.6377 0.6230
962.000000 0.6081 0.5932 0.5784 0.5635 0.5516
967.000000 0.5586 0.5745 0.5905 0.6064 0.6223
972.000000 0.6383 0.6562 0.6710 0.6784 0.6848
977.000000 0.6896 0.6942 0.6971 0.6996 0.7021
982.000000 0.7036 0.7044 0.7052 0.7059 0.7061
987.000000 0.7063 0.7064 0.7066 0.7068 0.7072
992.000000 0.7078 0.7083 0.7095 0.7108 0.7127
997.000000 0.7162 0.7205 0.7241 0.7269 0.7282
1002.000000 0.7288 0.7293 0.7287 0.7293 0.7288
1007.000000 0.7277 0.7266 0.7219 0.7133 0.7046
1012.000000 0.6960 0.6873 0.6786 0.6700 0.6613
1017.000000 0.6527 0.6440 0.6354 0.6267 0.6180
1022.000000 0.6094 0.6007 0.5921 0.5834 0.5747
1027.000000 0.5661 0.5574 0.5437 0.5411 0.5407
1032.000000 0.5409 0.5411 0.5412 0.5414 0.5412
1037.000000 0.5409 0.5395 0.5372 0.5313 0.5187
1042.000000 0.5161 0.5176 0.5184 0.5214 0.5299
1047.000000 0.5415 0.5532 0.5648 0.5764 0.5880
1052.000000 0.5920 0.5926 0.5931 0.5931 0.5903
1057.000000 0.5812 0.5721 0.5629 0.5538 0.5447
1062.000000 0.5356 0.5264 0.5173 0.5082 0.4991
1067.000000 0.4900 0.4808 0.4717 0.4472 0.4419
1072.000000 0.4363 0.4251 0.4167 0.4064 0.3956
1077.000000 0.3836 0.3875 0.3877 0.3888 0.3913
1082.000000 0.3945 0.3994 0.4050 0.4112 0.4203
1087.000000 0.4298 0.4373 0.4468 0.4596 0.4737
1092.000000 0.4918 0.5145 0.5372 0.5599 0.5827
1097.000000 0.6054 0.6277 0.6557 0.6679 0.6796
1102.000000 0.6912 0.7016 0.7117 0.7191 0.7260
1107.000000 0.7303 0.7346 0.7388 0.7426 0.7461
1112.000000 0.7496 0.7518 0.7537 0.7544 0.7544
1117.000000 0.7545 0.7537 0.7541 0.7533 0.7524
1122.000000 0.7506 0.7471 0.7435 0.7339 0.7231
1127.000000 0.7124 0.7016 0.6909 0.6801 0.6694
1132.000000 0.6586 0.6479 0.6371 0.6264 0.6156
1137.000000 0.6049 0.5941 0.5833 0.5726 0.5618
1142.000000 0.5511 0.5403 0.5296 0.5188 0.5081
1147.000000 0.4973 0.4866 0.4758 0.4651 0.4543
1152.000000 0.4347 0.4403 0.4391 0.4386 0.4386
1157.000000 0.4391 0.4405 0.4432 0.4465 0.4524
1162.000000 0.4565 0.4710 0.4857 0.5003 0.5150
1167.000000 0.5297 0.5443 0.5590 0.5737 0.5883
1172.000000 0.6030 0.6177 0.6323 0.6470 0.6617
1177.000000 0.6764 0.6855 0.6890 0.6899 0.6901
1182.000000 0.6893 0.6867 0.6803 0.6716 0.6674
1187.000000 0.6644 0.6642 0.6646 0.6655 0.6681
1192.000000 0.6732 0.6788 0.6847 0.6896 0.6943
1197.000000 0.6989 0.7038 0.7094 0.7144 0.7190
1202.000000 0.7223 0.7245 0.7267 0.7289 0.7297
1207.000000 0.7304 0.7311 0.7322 0.7308 0.7304
1212.000000 0.7299 0.7289 0.7278 0.7258 0.7222
1217.000000 0.7171 0.7113 0.7049 0.6985 0.6933
1222.000000 0.6886 0.6836 0.6760 0.6672 0.6559
1227.000000 0.6496 0.6433 0.6369 0.6274 0.6259
1232.000000 0.6244 0.6232 0.6225 0.6218 0.6211
1237.000000 0.6202 0.6075 0.5978 0.5927 0.5917
1242.000000 0.5875 0.5909 0.5964 0.6051 0.6137
1247.000000 0.6224 0.6311 0.6435 0.6352 0.6352
1252.000000 0.6339 0.6304 0.6260 0.6209 0.6164
1257.000000 0.6138 0.6112 0.6102 0.6095 0.6065
1262.000000 0.6086 0.6090 0.6094 0.6099 0.6108
1267.000000 0.6117 0.6142 0.6208 0.6283 0.6315
1272.000000 0.6337 0.6326 0.6321 0.6315 0.6306
1277.000000 0.6287 0.6268 0.6211 0.6136 0.6086
1282.000000 0.6073 0.6013 0.6048 0.6050 0.6068
1287.000000 0.6156 0.6245 0.6334 0.6422 0.6511
1292.000000 0.6600 0.6677 0.6681 0.6738 0.6678
1297.000000 0.6673 0.6657 0.6552 0.6449 0.6357
1302.000000 0.6271 0.6247 0.6234 0.6221 0.6210
1307.000000 0.6202 0.6194 0.6167 0.6121 0.6038
1312.000000 0.5956 0.5826 0.5789 0.5776 0.5764
1317.000000 0.5750 0.5732 0.5715 0.5691 0.5410
1322.000000 0.5335 0.5259 0.5190 0.5132 0.5074
1327.000000 0.5016 0.4978 0.4945 0.4922 0.4919
1332.000000 0.4916 0.4900 0.5027 0.5094 0.5161
1337.000000 0.5228 0.5295 0.5363 0.5430 0.5497
1342.000000 0.5564 0.5631 0.5699 0.5766 0.5833
1347.000000 0.5900 0.5967 0.6035 0.6102 0.6169
1352.000000 0.6236 0.6303 0.6371 0.6438 0.6505
1357.000000 0.6572 0.6639 0.6707 0.6756 0.6739
1362.000000 0.6737 0.6736 0.6693 0.6543 0.6394
1367.000000 0.6244 0.6095 0.6043 0.6047 0.6187
1372.000000 0.6037 0.6560 0.6746 0.6933 0.7070
1377.000000 0.7127 0.7183 0.7211 0.7239 0.7264
1382.000000 0.7278 0.7291 0.7298 0.7300 0.7302
1387.000000 0.7304 0.7298 0.7303 0.7301 0.7299
1392.000000 0.7297 0.7291 0.7281 0.7271 0.7260
1397.000000 0.7249 0.7215 0.7182 0.7149 0.7076
1402.000000 0.6934 0.6780 0.6626 0.6473 0.6319
1407.000000 0.6165 0.6012 0.5858 0.5704 0.5580
1412.000000 0.5551 0.5523 0.5494 0.5466 0.5433
1417.000000 0.5393 0.5291 0.5193 0.5199 0.5103
1422.000000 0.5282 0.5404 0.5498 0.5577 0.5625
1427.000000 0.5667 0.5685 0.5680 0.5675 0.5668
1432.000000 0.5678 0.5632 0.5570 0.5494 0.5366
1437.000000 0.5291 0.5215 0.5122 0.5021 0.4905
1442.000000 0.4740 0.4568 0.4388 0.4231 0.4201
1447.000000 0.4197 0.4199 0.4212 0.4264 0.4304
1452.000000 0.4340 0.4365 0.4363 0.4358 0.4350
1457.000000 0.4340 0.4331 0.4263 0.4109 0.4031
1462.000000 0.4008 0.3991 0.3978 0.3964 0.3928
1467.000000 0.3858 0.3749 0.3620 0.3504 0.3419
1472.000000 0.3299 0.3127 0.3018 0.2964 0.2928
1477.000000 0.2925 0.2927 0.2894 0.2938 0.2944
1482.000000 0.2957 0.2986 0.3027 0.3067 0.3116
1487.000000 0.3166 0.3223 0.3338 0.3481 0.3622
1492.000000 0.3741 0.3837 0.3929 0.3987 0.4029
1497.000000 0.4048 0.4055 0.4054 0.4034 0.4035
1502.000000 0.3999 0.3955 0.3885 0.3795 0.3698
1507.000000 0.3607 0.3540 0.3472 0.3395 0.3307
1512.000000 0.3188 0.3069 0.2989 0.2961 0.2940
1517.000000 0.2934 0.2937 0.2929 0.2949 0.2958
1522.000000 0.2972 0.2999 0.3034 0.3074 0.3120
1527.000000 0.3244 0.3367 0.3492 0.3617 0.3742
1532.000000 0.3868 0.3993 0.4118 0.4243 0.4368
1537.000000 0.4494 0.4619 0.4744 0.5089 0.5176
1542.000000 0.5290 0.5408 0.5529 0.5645 0.5758
1547.000000 0.5904 0.6052 0.6192 0.6336 0.6486
1552.000000 0.6644 0.6806 0.6881 0.6956 0.7031
1557.000000 0.7086 0.7133 0.7181 0.7229 0.7274
1562.000000 0.7311 0.7347 0.7384 0.7421 0.7454
1567.000000 0.7484 0.7515 0.7546 0.7577 0.7608
1572.000000 0.7634 0.7656 0.7678 0.7700 0.7722
1577.000000 0.7744 0.7766 0.7788 0.7803 0.7817
1582.000000 0.7830 0.7844 0.7858 0.7872 0.7884
1587.000000 0.7889 0.7895 0.7900 0.7906 0.7911
1592.000000 0.7917 0.7922 0.7922 0.7922 0.7922
1597.000000 0.7923 0.7923 0.7923 0.7923 0.7935
1602.000000 0.7918 0.7914 0.7910 0.7907 0.7903
1607.000000 0.7897 0.7890 0.7884 0.7877 0.7870
1612.000000 0.7864 0.7856 0.7841 0.7827 0.7812
1617.000000 0.7799 0.7788 0.7777 0.7766 0.7757
1622.000000 0.7756 0.7746 0.7754 0.7757 0.7761
1627.000000 0.7765 0.7780 0.7797 0.7817 0.7840
1632.000000 0.7861 0.7879 0.7897 0.7905 0.7920
1637.000000 0.7917 0.7923 0.7922 0.7919 0.7915
1642.000000 0.7912 0.7908 0.7900 0.7891 0.7881
1647.000000 0.7870 0.7850 0.7830 0.7801 0.7769
1652.000000 0.7737 0.7697 0.7648 0.7594 0.7530
1657.000000 0.7481 0.7444 0.7408 0.7372 0.7336
1662.000000 0.7296 0.7256 0.7216 0.7176 0.7136
1667.000000 0.7096 0.7045 0.6951 0.6858 0.6785
1672.000000 0.6718 0.6651 0.6585 0.6521 0.6458
1677.000000 0.6395 0.6332 0.6251 0.6114 0.5976
1682.000000 0.5821 0.5641 0.5381 0.5142 0.4995
1687.000000 0.4876 0.4776 0.4676 0.4577 0.4424
1692.000000 0.4242 0.4121 0.4028 0.3936 0.3844
1697.000000 0.3753 0.3662 0.3581 0.3515 0.3448
1702.000000 0.3381 0.3319 0.3257 0.3196 0.3160
1707.000000 0.3137 0.3113 0.3089 0.3068 0.3057
1712.000000 0.3045 0.3034 0.3032 0.3030 0.3029
1717.000000 0.3028 0.3030 0.3033 0.2990 0.3045
1722.000000 0.3057 0.3069 0.3086 0.3103 0.3135
1727.000000 0.3174 0.3251 0.3383 0.3591 0.3787
1732.000000 0.3983 0.4179 0.4375 0.4571 0.4767
1737.000000 0.4963 0.5159 0.5354 0.5550 0.5746
1742.000000 0.6005 0.6527 0.6732 0.6810 0.6887
1747.000000 0.6965 0.7044 0.7124 0.7189 0.7245
1752.000000 0.7301 0.7358 0.7401 0.7444 0.7487
1757.000000 0.7527 0.7565 0.7602 0.7639 0.7677
1762.000000 0.7714 0.7740 0.7764 0.7788 0.7812
1767.000000 0.7836 0.7860 0.7885 0.7909 0.7934
1772.000000 0.7958 0.7979 0.7998 0.8018 0.8037
1777.000000 0.8055 0.8068 0.8081 0.8094 0.8106
1782.000000 0.8112 0.8118 0.8124 0.8130 0.8135
1787.000000 0.8142 0.8153 0.8163 0.8173 0.8184
1792.000000 0.8194 0.8205 0.8215 0.8225 0.8236
1797.000000 0.8245 0.8254 0.8262 0.8270 0.8279
1802.000000 0.8287 0.8296 0.8304 0.8312 0.8320
1807.000000 0.8327 0.8334 0.8342 0.8349 0.8357
1812.000000 0.8365 0.8372 0.8380 0.8387 0.8395
1817.000000 0.8403 0.8410 0.8416 0.8422 0.8429
1822.000000 0.8435 0.8441 0.8447 0.8453 0.8459
1827.000000 0.8464 0.8469 0.8474 0.8479 0.8484
1832.000000 0.8489 0.8493 0.8498 0.8503 0.8508
1837.000000 0.8513 0.8518 0.8522 0.8527 0.8531
1842.000000 0.8535 0.8539 0.8543 0.8547 0.8551
1847.000000 0.8555 0.8559 0.8563 0.8567 0.8571
1852.000000 0.8575 0.8579 0.8583 0.8587 0.8592
1857.000000 0.8598 0.8603 0.8609 0.8614 0.8620
1862.000000 0.8625 0.8630 0.8636 0.8641 0.8647
1867.000000 0.8650 0.8652 0.8654 0.8656 0.8659
1872.000000 0.8661 0.8664 0.8667 0.8670 0.8673
1877.000000 0.8676 0.8679 0.8683 0.8686 0.8689
1882.000000 0.8692 0.8694 0.8695 0.8696 0.8697
1887.000000 0.8698 0.8699 0.8700 0.8701 0.8702
1892.000000 0.8703 0.8704 0.8705 0.8706 0.8707
1897.000000 0.8709 0.8710 0.8711 0.8712 0.8713
1902.000000 0.8714 0.8715 0.8716 0.8717 0.8718
1907.000000 0.8719 0.8720 0.8721 0.8722 0.8722
1912.000000 0.8721 0.8720 0.8719 0.8718 0.8717
1917.000000 0.8716 0.8715 0.8714 0.8713 0.8712
1922.000000 0.8710 0.8709 0.8708 0.8707 0.8706
1927.000000 0.8704 0.8703 0.8702 0.8701 0.8700
1932.000000 0.8699 0.8697 0.8696 0.8695 0.8693
1937.000000 0.8688 0.8684 0.8680 0.8661 0.8486
1942.000000 0.8310 0.8232 0.8234 0.8236 0.8394
1947.000000 0.8572 0.8673 0.8685 0.8696 0.8704
1952.000000 0.8711 0.8715 0.8717 0.8719 0.8721
1957.000000 0.8719 0.8717 0.8715 0.8713 0.8711
1962.000000 0.8710 0.8708 0.8707 0.8705 0.8705
1967.000000 0.8704 0.8704 0.8704 0.8703 0.8703
1972.000000 0.8703 0.8703 0.8702 0.8700 0.8699
1977.000000 0.8698 0.8697 0.8696 0.8695 0.8694
1982.000000 0.8692 0.8691 0.8690 0.8689 0.8688
1987.000000 0.8687 0.8686 0.8685 0.8684 0.8683
1992.000000 0.8682 0.8681 0.8680 0.8679 0.8678
1997.000000 0.8677 0.8676 0.8675 0.8673 0.8672
2002.000000 0.8671 0.8670 0.8669 0.8668 0.8667
2007.000000 0.8666 0.8665 0.8664 0.8663 0.8662
2012.000000 0.8661 0.8661 0.8660 0.8660 0.8659
2017.000000 0.8659 0.8659 0.8658 0.8658 0.8657
2022.000000 0.8657 0.8656 0.8656 0.8655 0.8655
2027.000000 0.8654 0.8654 0.8654 0.8653 0.8653
2032.000000 0.8652 0.8652 0.8652 0.8652 0.8652
2037.000000 0.8652 0.8652 0.8672 0.8652 0.8652
2042.000000 0.8652 0.8652 0.8652 0.8652 0.8652
2047.000000 0.8652 0.8652 0.8652 0.8652 0.8652
2052.000000 0.8652 0.8653 0.8653 0.8654 0.8654
2057.000000 0.8655 0.8655 0.8656 0.8656 0.8657
2062.000000 0.8657 0.8657 0.8658 0.8658 0.8659
2067.000000 0.8659 0.8658 0.8657 0.8656 0.8655
2072.000000 0.8654 0.8653 0.8652 0.8651 0.8650
2077.000000 0.8649 0.8648 0.8647 0.8646 0.8645
2082.000000 0.8644 0.8643 0.8642 0.8641 0.8640
2087.000000 0.8639 0.8638 0.8637 0.8636 0.8635
2092.000000 0.8633 0.8632 0.8631 0.8630 0.8629
2097.000000 0.8627 0.8626 0.8625 0.8624 0.8623
2102.000000 0.8621 0.8620 0.8619 0.8618 0.8617
2107.000000 0.8615 0.8614 0.8613 0.8612 0.8611
2112.000000 0.8609 0.8608 0.8607 0.8606 0.8605
2117.000000 0.8603 0.8602 0.8601 0.8600 0.8598
2122.000000 0.8597 0.8596 0.8595 0.8594 0.8594
2127.000000 0.8593 0.8592 0.8591 0.8590 0.8590
2132.000000 0.8589 0.8588 0.8587 0.8587 0.8586
2137.000000 0.8585 0.8584 0.8583 0.8583 0.8582
2142.000000 0.8581 0.8580 0.8579 0.8579 0.8578
2147.000000 0.8577 0.8576 0.8575 0.8575 0.8574
2152.000000 0.8573 0.8572 0.8571 0.8570 0.8568
2157.000000 0.8567 0.8566 0.8564 0.8563 0.8562
2162.000000 0.8560 0.8559 0.8558 0.8556 0.8555
2167.000000 0.8554 0.8553 0.8551 0.8550 0.8549
2172.000000 0.8547 0.8546 0.8545 0.8543 0.8542
2177.000000 0.8540 0.8538 0.8536 0.8534 0.8532
2182.000000 0.8530 0.8528 0.8527 0.8525 0.8523
2187.000000 0.8521 0.8519 0.8517 0.8515 0.8513
2192.000000 0.8512 0.8510 0.8508 0.8506 0.8504
2197.000000 0.8502 0.8500 0.8498 0.8497 0.8494
2202.000000 0.8491 0.8487 0.8484 0.8481 0.8478
2207.000000 0.8475 0.8471 0.8468 0.8465 0.8462
2212.000000 0.8458 0.8455 0.8452 0.8449 0.8445
2217.000000 0.8437 0.8430 0.8422 0.8415 0.8407
2222.000000 0.8400 0.8392 0.8385 0.8377 0.8370
2227.000000 0.8362 0.8355 0.8347 0.8340 0.8334
2232.000000 0.8329 0.8325 0.8321 0.8316 0.8312
2237.000000 0.8308 0.8303 0.8299 0.8295 0.8290
2242.000000 0.8286 0.8282 0.8277 0.8273 0.8269
2247.000000 0.8266 0.8264 0.8263 0.8268 0.8259
2252.000000 0.8258 0.8256 0.8254 0.8255 0.8258
2257.000000 0.8261 0.8264 0.8267 0.8271 0.8277
2262.000000 0.8282 0.8288 0.8293 0.8299 0.8306
2267.000000 0.8314 0.8322 0.8330 0.8338 0.8346
2272.000000 0.8355 0.8364 0.8374 0.8383 0.8393
2277.000000 0.8403 0.8411 0.8419 0.8427 0.8435
2282.000000 0.8442 0.8450 0.8456 0.8459 0.8463
2287.000000 0.8466 0.8470 0.8474 0.8477 0.8479
2292.000000 0.8481 0.8483 0.8485 0.8486 0.8488
2297.000000 0.8489 0.8490 0.8491 0.8493 0.8494
2302.000000 0.8495 0.8496 0.8498 0.8499 0.8500
2307.000000 0.8501 0.8502 0.8503 0.8504 0.8505
2312.000000 0.8506 0.8507 0.8508 0.8509 0.8509
2317.000000 0.8510 0.8511 0.8511 0.8511 0.8511
2322.000000 0.8511 0.8511 0.8511 0.8511 0.8511
2327.000000 0.8511 0.8511 0.8511 0.8511 0.8511
2332.000000 0.8511 0.8511 0.8510 0.8509 0.8508
2337.000000 0.8507 0.8506 0.8505 0.8504 0.8503
2342.000000 0.8502 0.8501 0.8500 0.8498 0.8497
2347.000000 0.8496 0.8495 0.8494 0.8493 0.8492
2352.000000 0.8491 0.8490 0.8489 0.8488 0.8487
2357.000000 0.8485 0.8484 0.8483 0.8482 0.8481
2362.000000 0.8480 0.8479 0.8478 0.8478 0.8477
2367.000000 0.8477 0.8476 0.8475 0.8475 0.8474
2372.000000 0.8473 0.8473 0.8472 0.8471 0.8471
2377.000000 0.8470 0.8470 0.8469 0.8468 0.8468
2382.000000 0.8467 0.8466 0.8466 0.8465 0.8464
2387.000000 0.8464 0.8463 0.8463 0.8462 0.8461
2392.000000 0.8461 0.8460 0.8459 0.8459 0.8458
2397.000000 0.8457 0.8457 0.8457 0.8458 0.8459
2402.000000 0.8459 0.8460 0.8460 0.8461 0.8462
2407.000000 0.8462 0.8463 0.8463 0.8464 0.8464
2412.000000 0.8465 0.8466 0.8466 0.8467 0.8467
2417.000000 0.8468 0.8469 0.8469 0.8470 0.8471
2422.000000 0.8472 0.8473 0.8474 0.8475 0.8476
2427.000000 0.8477 0.8478 0.8509 0.8480 0.8481
2432.000000 0.8482 0.8483 0.8484 0.8484 0.8484
2437.000000 0.8485 0.8485 0.8485 0.8485 0.8485
2442.000000 0.8486 0.8486 0.8486 0.8486 0.8487
2447.000000 0.8487 0.8487 0.8487 0.8487 0.8488
2452.000000 0.8488 0.8488 0.8488 0.8487 0.8486
2457.000000 0.8485 0.8484 0.8482 0.8481 0.8480
2462.000000 0.8479 0.8478 0.8477 0.8476 0.8475
2467.000000 0.8474 0.8472 0.8471 0.8470 0.8469
2472.000000 0.8468 0.8467 0.8466 0.8466 0.8466
2477.000000 0.8465 0.8465 0.8465 0.8465 0.8465
2482.000000 0.8464 0.8464 0.8464 0.8464 0.8463
2487.000000 0.8463 0.8463 0.8463 0.8463 0.8462
2492.000000 0.8462 0.8462 0.8462 0.8462 0.8462
2497.000000 0.8462 0.8461 0.8461 0.8461 0.8461
2502.000000 0.8461 0.8461 0.8461 0.8461 0.8461
2507.000000 0.8460 0.8460 0.8460 0.8460 0.8460
2512.000000 0.8460 0.8460 0.8461 0.8461 0.8462
2517.000000 0.8462 0.8462 0.8463 0.8463 0.8464
2522.000000 0.8464 0.8465 0.8465 0.8466 0.8466
2527.000000 0.8467 0.8467 0.8466 0.8466 0.8465
2532.000000 0.8464 0.8463 0.8462 0.8461 0.8460
2537.000000 0.8459 0.8458 0.8457 0.8456 0.8455
2542.000000 0.8454 0.8453 0.8452 0.8451 0.8450
2547.000000 0.8449 0.8448 0.8446 0.8444 0.8443
2552.000000 0.8441 0.8440 0.8438 0.8436 0.8435
2557.000000 0.8433 0.8431 0.8430 0.8428 0.8426
2562.000000 0.8425 0.8423 0.8422 0.8420 0.8418
2567.000000 0.8417 0.8415 0.8413 0.8412 0.8410
2572.000000 0.8408 0.8407 0.8405 0.8402 0.8399
2577.000000 0.8396 0.8393 0.8390 0.8387 0.8384
2582.000000 0.8381 0.8378 0.8375 0.8372 0.8369
2587.000000 0.8367 0.8368 0.8369 0.8370 0.8371
2592.000000 0.8372 0.8373 0.8374 0.8375 0.8378
2597.000000 0.8382 0.8387 0.8392 0.8396 0.8399
2602.000000 0.8402 0.8405 0.8408 0.8409 0.8411
2607.000000 0.8412 0.8413 0.8411 0.8409 0.8406
2612.000000 0.8404 0.8401 0.8399 0.8396 0.8394
2617.000000 0.8390 0.8385 0.8380 0.8375 0.8370
2622.000000 0.8365 0.8360 0.8355 0.8350 0.8345
2627.000000 0.8339 0.8330 0.8320 0.8311 0.8302
2632.000000 0.8293 0.8284 0.8275 0.8266 0.8257
2637.000000 0.8247 0.8236 0.8225 0.8214 0.8203
2642.000000 0.8192 0.8181 0.8170 0.8159 0.8148
2647.000000 0.8138 0.8129 0.8120 0.8110 0.8101
2652.000000 0.8092 0.8083 0.8074 0.8065 0.8056
2657.000000 0.8055 0.8054 0.8053 0.8068 0.8052
2662.000000 0.8051 0.8050 0.8050 0.8055 0.8061
2667.000000 0.8067 0.8073 0.8079 0.8085 0.8096
2672.000000 0.8108 0.8120 0.8132 0.8144 0.8153
2677.000000 0.8162 0.8171 0.8180 0.8189 0.8196
2682.000000 0.8199 0.8203 0.8206 0.8210 0.8213
2687.000000 0.8217 0.8221 0.8224 0.8227 0.8229
2692.000000 0.8231 0.8233 0.8234 0.8236 0.8238
2697.000000 0.8240 0.8242 0.8243 0.8245 0.8247
2702.000000 0.8249 0.8251 0.8253 0.8255 0.8256
2707.000000 0.8258 0.8260 0.8262 0.8264 0.8266
2712.000000 0.8267 0.8269 0.8268 0.8265 0.8262
2717.000000 0.8260 0.8257 0.8254 0.8252 0.8249
2722.000000 0.8247 0.8244 0.8241 0.8239 0.8236
2727.000000 0.8233 0.8231 0.8227 0.8224 0.8220
2732.000000 0.8217 0.8297 0.8210 0.8207 0.8203
2737.000000 0.8200 0.8197 0.8193 0.8189 0.8186
2742.000000 0.8182 0.8178 0.8174 0.8170 0.8166
2747.000000 0.8161 0.8154 0.8147 0.8140 0.8133
2752.000000 0.8126 0.8119 0.8112 0.8105 0.8098
2757.000000 0.8091 0.8084 0.8076 0.8068 0.8059
2762.000000 0.8051 0.8042 0.8033 0.8025 0.8016
2767.000000 0.8007 0.7997 0.7986 0.7975 0.7964
2772.000000 0.7954 0.7943 0.7932 0.7922 0.7911
2777.000000 0.7900 0.7889 0.7879 0.7865 0.7851
2782.000000 0.7837 0.7823 0.7809 0.7795 0.7782
2787.000000 0.7769 0.7755 0.7742 0.7732 0.7730
2792.000000 0.7729 0.7727 0.7725 0.7724 0.7722
2797.000000 0.7723 0.7723 0.7723 0.7723 0.7724
2802.000000 0.7721 0.7717 0.7713 0.7710 0.7706
2807.000000 0.7681 0.7652 0.7621 0.7589 0.7557
2812.000000 0.7525 0.7477 0.7420 0.7363 0.7316
2817.000000 0.7275 0.7235 0.7194 0.7154 0.7113
2822.000000 0.7068 0.7013 0.6957 0.6901 0.6845
2827.000000 0.6789 0.6727 0.6661 0.6594 0.6528
2832.000000 0.6461 0.6353 0.6218 0.6084 0.5999
2837.000000 0.5922 0.5845 0.5764 0.5661 0.5557
2842.000000 0.4678 0.4480 0.4339 0.4211 0.4105
2847.000000 0.4015 0.3959 0.3932 0.3952 0.3957
2852.000000 0.3984 0.4083 0.4181 0.4280 0.4378
2857.000000 0.4477 0.4575 0.4674 0.4772 0.4871
2862.000000 0.4969 0.5068 0.5166 0.5265 0.5363
2867.000000 0.5462 0.5560 0.5659 0.5757 0.5842
2872.000000 0.5872 0.5893 0.5936 0.5896 0.5889
2877.000000 0.5882 0.5872 0.5856 0.5835 0.5782
2882.000000 0.5710 0.5637 0.5564 0.5492 0.5419
2887.000000 0.5346 0.5273 0.5201 0.5128 0.5055
2892.000000 0.4983 0.4910 0.4837 0.4765 0.4692
2897.000000 0.4619 0.4547 0.4474 0.4401 0.4328
2902.000000 0.4256 0.4183 0.4110 0.4038 0.3965
2907.000000 0.3892 0.3819 0.3747 0.3674 0.3601
2912.000000 0.3529 0.3456 0.3383 0.3311 0.3238
2917.000000 0.3197 0.3165 0.3146 0.3128 0.3103
2922.000000 0.3084 0.3072 0.2996 0.3066 0.3066
2927.000000 0.3071 0.3076 0.3086 0.3104 0.3139
2932.000000 0.3165 0.3192 0.3218 0.3240 0.3266
2937.000000 0.3315 0.3365 0.3416 0.3468 0.3520
2942.000000 0.3578 0.3641 0.3704 0.3789 0.3874
2947.000000 0.3945 0.4009 0.4074 0.4258 0.4475
2952.000000 0.4511 0.4547 0.4583 0.4619 0.4655
2957.000000 0.4690 0.4725 0.4760 0.4795 0.4828
2962.000000 0.4859 0.4890 0.4922 0.4955 0.5008
2967.000000 0.5060 0.5112 0.5158 0.5203 0.5257
2972.000000 0.5331 0.5405 0.5942 0.6160 0.6253
2977.000000 0.6352 0.6464 0.6563 0.6617 0.6670
2982.000000 0.6723 0.6777 0.6831 0.6886 0.6941
2987.000000 0.6986 0.7028 0.7064 0.7100 0.7136
2992.000000 0.7164 0.7190 0.7216 0.7241 0.7267
2997.000000 0.7293 0.7319 0.7351 0.7383 0.7415
3002.000000 0.7437 0.7455 0.7474 0.7493 0.7511
3007.000000 0.7522 0.7533 0.7544 0.7555 0.7566
3012.000000 0.7576 0.7587 0.7598 0.7609 0.7619
3017.000000 0.7630 0.7640 0.7651 0.7661 0.7671
3022.000000 0.7681 0.7690 0.7698 0.7707 0.7716
3027.000000 0.7724 0.7733 0.7742 0.7750 0.7759
3032.000000 0.7767 0.7776 0.7785 0.7793 0.7802
3037.000000 0.7811 0.7819 0.7828 0.7836 0.7845
3042.000000 0.7853 0.7862 0.7870 0.7879 0.7887
3047.000000 0.7896 0.7901 0.7906 0.7911 0.7916
3052.000000 0.7921 0.7926 0.7931 0.7936 0.7941
3057.000000 0.7946 0.7951 0.7956 0.7961 0.7966
3062.000000 0.7971 0.7976 0.7979 0.7982 0.7985
3067.000000 0.7988 0.7991 0.7994 0.7996 0.7999
3072.000000 0.8002 0.8005 0.8008 0.8011 0.8014
3077.000000 0.8016 0.8019 0.8022 0.8025 0.8028
3082.000000 0.8031 0.8034 0.8036 0.8039 0.8041
3087.000000 0.8042 0.8044 0.8046 0.8047 0.8049
3092.000000 0.8051 0.8052 0.8054 0.8056 0.8057
3097.000000 0.8059 0.8061 0.8062 0.8064 0.8066
3102.000000 0.8067 0.8069 0.8069 0.8070 0.8070
3107.000000 0.8071 0.8071 0.8072 0.8072 0.8073
3112.000000 0.8073 0.8073 0.8074 0.8102 0.8075
3117.000000 0.8075 0.8076 0.8076 0.8076 0.8077
3122.000000 0.8078 0.8079 0.8080 0.8081 0.8082
3127.000000 0.8082 0.8083 0.8084 0.8085 0.8086
3132.000000 0.8087 0.8088 0.8089 0.8090 0.8091
3137.000000 0.8091 0.8093 0.8095 0.8097 0.8098
3142.000000 0.8100 0.8102 0.8104 0.8106 0.8108
3147.000000 0.8107 0.8097 0.8087 0.8076 0.8066
3152.000000 0.8056 0.8048 0.8042 0.8037 0.8031
3157.000000 0.8026 0.8020 0.8014 0.8012 0.8009
3162.000000 0.8007 0.8005 0.8003 0.8001 0.7999
3167.000000 0.7997 0.7994 0.7992 0.7989 0.7987
3172.000000 0.7984 0.7981 0.7978 0.7976 0.7973
3177.000000 0.7970 0.7968 0.7965 0.7962 0.7959
3182.000000 0.7957 0.7954 0.7951 0.7948 0.7945
3187.000000 0.7943 0.7940 0.7937 0.7934 0.7931
3192.000000 0.7929 0.7926 0.7923 0.7920 0.7917
3197.000000 0.7915 0.7912 0.7909 0.7906 0.7903
3202.000000 0.7901 0.7898 0.7895 0.7892 0.7889
3207.000000 0.7887 0.7884 0.7879 0.7875 0.7870
3212.000000 0.7866 0.7861 0.7857 0.7852 0.7848
3217.000000 0.7844 0.7839 0.7835 0.7830 0.7826
3222.000000 0.7821 0.7817 0.7812 0.7808 0.7803
3227.000000 0.7796 0.7790 0.7784 0.7777 0.7771
3232.000000 0.7765 0.7759 0.7752 0.7746 0.7740
3237.000000 0.7733 0.7727 0.7721 0.7714 0.7708
3242.000000 0.7702 0.7695 0.7689 0.7682 0.7676
3247.000000 0.7669 0.7663 0.7657 0.7650 0.7640
3252.000000 0.7626 0.7611 0.7597 0.7583 0.7568
3257.000000 0.7554 0.7539 0.7524 0.7504 0.7483
3262.000000 0.7462 0.7442 0.7421 0.7401 0.7380
3267.000000 0.7360 0.7335 0.7310 0.7284 0.7258
3272.000000 0.7232 0.7207 0.7181 0.7155 0.7128
3277.000000 0.7100 0.7073 0.7046 0.7019 0.6992
3282.000000 0.6965 0.6938 0.6911 0.6884 0.6858
3287.000000 0.6833 0.6808 0.6782 0.6757 0.6731
3292.000000 0.6706 0.6681 0.6655 0.6627 0.6598
3297.000000 0.6568 0.6538 0.6508 0.6478 0.6448
3302.000000 0.6418 0.6389 0.6359 0.6329 0.6299
3307.000000 0.6257 0.6215 0.6174 0.6132 0.6090
3312.000000 0.6049 0.6007 0.5969 0.5931 0.5893
3317.000000 0.5855 0.5817 0.5779 0.5741 0.5703
3322.000000 0.5667 0.5632 0.5597 0.5562 0.5527
3327.000000 0.5502 0.5486 0.5471 0.5455 0.5439
3332.000000 0.5423 0.5408 0.5397 0.5394 0.5391
3337.000000 0.5388 0.5385 0.5382 0.5379 0.5376
3342.000000 0.5373 0.5369 0.5367 0.5364 0.5364
3347.000000 0.5369 0.5373 0.5377 0.5381 0.5385
3352.000000 0.5389 0.5393 0.5398 0.5406 0.5417
3357.000000 0.5427 0.5438 0.5448 0.5458 0.5469
3362.000000 0.5479 0.5490 0.5500 0.5510 0.5522
3367.000000 0.5535 0.5548 0.5561 0.5574 0.5588
3372.000000 0.5601 0.5614 0.5627 0.5639 0.5652
3377.000000 0.5665 0.5678 0.5691 0.5704 0.5717
3382.000000 0.5729 0.5742 0.5755 0.5768 0.5779
3387.000000 0.5788 0.5797 0.5806 0.5816 0.5825
3392.000000 0.5834 0.5843 0.5852 0.5862 0.5873
3397.000000 0.5884 0.5895 0.5906 0.5917 0.5927
3402.000000 0.5936 0.5939 0.5932 0.5925 0.5916
3407.000000 0.5902 0.5888 0.5873 0.5859 0.5845
3412.000000 0.5835 0.5826 0.5818 0.5809 0.5803
3417.000000 0.5802 0.5800 0.5763 0.5799 0.5808
3422.000000 0.5817 0.5832 0.5869 0.5906 0.5954
3427.000000 0.6007 0.6060 0.6113 0.6202 0.6290
3432.000000 0.6341 0.6380 0.6418 0.6463 0.6529
3437.000000 0.6595 0.6661 0.7191 0.7274 0.7336
3442.000000 0.7398 0.7434 0.7466 0.7498 0.7529
3447.000000 0.7558 0.7587 0.7615 0.7643 0.7671
3452.000000 0.7697 0.7717 0.7737 0.7757 0.7775
3457.000000 0.7787 0.7799 0.7811 0.7823 0.7835
3462.000000 0.7848 0.7859 0.7867 0.7875 0.7883
3467.000000 0.7891 0.7899 0.7907 0.7912 0.7916
3472.000000 0.7920 0.7925 0.7925 0.7926 0.7927
3477.000000 0.7928 0.7929 0.7929 0.7930 0.7931
3482.000000 0.7932 0.7932 0.7933 0.7934 0.7935
3487.000000 0.7936 0.7936 0.7937 0.7938 0.7939
3492.000000 0.7939 0.7940 0.7941 0.7941 0.7942
3497.000000 0.7943 0.7944 0.7944 0.7945 0.7946
3502.000000 0.7947 0.7949 0.7951 0.7953 0.7954
3507.000000 0.7956 0.7958 0.7960 0.7962 0.7964
3512.000000 0.7965 0.7967 0.7969 0.7971 0.7973
3517.000000 0.7975 0.7977 0.7978 0.7980 0.7982
3522.000000 0.7984 0.7986 0.7988 0.7989 0.7991
3527.000000 0.7993 0.7995 0.7996 0.7998 0.7999
3532.000000 0.8001 0.8002 0.8003 0.8005 0.8006
3537.000000 0.8008 0.8009 0.8011 0.8012 0.8013
3542.000000 0.8015 0.8016 0.8018 0.8019 0.8021
3547.000000 0.8022 0.8024 0.8025 0.8026 0.8028
3552.000000 0.8029 0.8031 0.8032 0.8034 0.8034
3557.000000 0.8034 0.8033 0.8033 0.8032 0.8032
3562.000000 0.8032 0.8031 0.8031 0.8030 0.8030
3567.000000 0.8029 0.8029 0.8028 0.8028 0.8027
3572.000000 0.8027 0.8027 0.8026 0.8026 0.8025
3577.000000 0.8025 0.8024 0.8024 0.8023 0.8023
3582.000000 0.8022 0.8022 0.8022 0.8021 0.8021
3587.000000 0.8020 0.8020 0.8019 0.8020 0.8020
3592.000000 0.8020 0.8020 0.8020 0.8021 0.8021
3597.000000 0.8021 0.8021 0.8022 0.8022 0.8022
3602.000000 0.8022 0.8022 0.8023 0.8023 0.8023
3607.000000 0.8023 0.8024 0.8024 0.8024 0.8024
3612.000000 0.8024 0.8025 0.8025 0.8025 0.8025
3617.000000 0.8026 0.8026 0.8026 0.8026 0.8027
3622.000000 0.8027 0.8028 0.8028 0.8029 0.8029
3627.000000 0.8030 0.8031 0.8031 0.8032 0.8032
3632.000000 0.8033 0.8033 0.8034 0.8034 0.8035
3637.000000 0.8036 0.8036 0.8037 0.8037 0.8038
3642.000000 0.8038 0.8039 0.8039 0.8040 0.8041
3647.000000 0.8041 0.8042 0.8042 0.8043 0.8043
3652.000000 0.8044 0.8044 0.8045 0.8046 0.8047
3657.000000 0.8048 0.8049 0.8051 0.8052 0.8053
3662.000000 0.8055 0.8056 0.8047 0.8058 0.8060
3667.000000 0.8061 0.8062 0.8063 0.8065 0.8066
3672.000000 0.8067 0.8068 0.8070 0.8071 0.8072
3677.000000 0.8074 0.8075 0.8076 0.8077 0.8079
3682.000000 0.8080 0.8081 0.8082 0.8084 0.8085
3687.000000 0.8086 0.8087 0.8087 0.8088 0.8088
3692.000000 0.8088 0.8088 0.8089 0.8089 0.8089
3697.000000 0.8089 0.8089 0.8090 0.8090 0.8090
3702.000000 0.8090 0.8091 0.8091 0.8091 0.8091
3707.000000 0.8091 0.8092 0.8092 0.8092 0.8092
3712.000000 0.8093 0.8093 0.8093 0.8092 0.8091
3717.000000 0.8091 0.8090 0.8090 0.8089 0.8088
3722.000000 0.8088 0.8087 0.8086 0.8086 0.8085
3727.000000 0.8084 0.8084 0.8083 0.8082 0.8082
3732.000000 0.8081 0.8081 0.8080 0.8079 0.8079
3737.000000 0.8078 0.8078 0.8077 0.8076 0.8076
3742.000000 0.8075 0.8075 0.8074 0.8074 0.8073
3747.000000 0.8073 0.8072 0.8072 0.8071 0.8071
3752.000000 0.8070 0.8069 0.8069 0.8068 0.8068
3757.000000 0.8067 0.8067 0.8066 0.8066 0.8066
3762.000000 0.8066 0.8066 0.8066 0.8066 0.8066
3767.000000 0.8066 0.8067 0.8067 0.8067 0.8067
3772.000000 0.8067 0.8067 0.8067 0.8067 0.8068
3777.000000 0.8068 0.8068 0.8068 0.8068 0.8068
3782.000000 0.8068 0.8068 0.8069 0.8069 0.8069
3787.000000 0.8069 0.8069 0.8069 0.8069 0.8069
3792.000000 0.8070 0.8070 0.8070 0.8070 0.8070
3797.000000 0.8070 0.8070 0.8070 0.8071
##END=
