##TITLE=7H-Imidazo[4,5-d]-v-triazin-4-ol, 7-butyl-, (keto form)
##JCAMP-DX=4.24
##DATA TYPE=INFRARED SPECTRUM
##CLASS=COBLENTZ III
##ORIGIN=SOUTHERN RESEARCH INSTITUTE
##OWNER=Copyright (C) 1987 by the Coblentz Society
Collection (C) 2018 copyright by the U.S. Secretary of Commerce
on behalf of the United States of America. All rights reserved.
##DATE=1957/12/17
##NAMES=7-butyl-3,7-dihydro-4H-imidazo[4,5-d][1,2,3]triazin-4-one
##MOLFORM=C8 H11 N5 O
##SOURCE REFERENCE=COBLENTZ NO. 8701
##$NIST ID=B6008701
##$NIST SOURCE=COBLENTZ
##$NIST IMAGE=cob8701
##SPECTROMETER/DATA SYSTEM=PERKIN-ELMER 21 (GRATING)
##INSTRUMENT PARAMETERS=FILTER CHANGE ABOUT 1090 CM^-^1
##STATE=SOLID (0.8 mg / 650 mg KBr DISC)
##SAMPLING PROCEDURE=TRANSMISSION
##RESOLUTION=2
##DATA PROCESSING=DIGITIZED BY COBLENTZ SOCIETY (BATCH II) FROM HARD COPY (ADJUSTED \addcm-1\10-8-2\)
##XUNITS=1/CM
##YUNITS=TRANSMITTANCE
##XFACTOR=1.0
##YFACTOR=1
##DELTAX=1.004020
##FIRSTX=592.304
##LASTX=4012
##FIRSTY=1.0161
##MAXX=4012
##MINX=592.304
##MAXY=1.01806
##MINY=0.114412
##NPOINTS=3407
##XYDATA=(X++(Y..Y))
592.304000 1.0161 1.0166 1.0169 1.0181 1.0171
597.324100 1.0167 1.0164 1.0160 1.0155 1.0148
602.344200 1.0140 1.0132 1.0125 1.0116 1.0108
607.364299 1.0099 1.0091 1.0083 1.0076 1.0070
612.384399 1.0063 1.0056 1.0049 1.0042 1.0036
617.404499 1.0029 1.0023 1.0017 1.0012 1.0007
622.424599 1.0003 1.0000 0.9997 0.9995 0.9996
627.444699 0.9998 1.0001 1.0003 1.0005 1.0007
632.464798 1.0011 1.0017 1.0023 1.0029 1.0027
637.484898 1.0018 1.0007 0.9996 0.9984 0.9969
642.504998 0.9952 0.9935 0.9918 0.9901 0.9883
647.525098 0.9864 0.9846 0.9826 0.9807 0.9789
652.545198 0.9774 0.9761 0.9748 0.9735 0.9719
657.565297 0.9694 0.9663 0.9632 0.9592 0.9550
662.585397 0.9519 0.9505 0.9490 0.9476 0.9462
667.605497 0.9458 0.9457 0.9455 0.9453 0.9451
672.625597 0.9446 0.9438 0.9428 0.9419 0.9406
677.645697 0.9383 0.9359 0.9336 0.9322 0.9311
682.665796 0.9301 0.9285 0.9269 0.9162 0.9117
687.685896 0.9079 0.9016 0.8991 0.8974 0.8959
692.705996 0.8943 0.8954 0.8951 0.8957 0.8968
697.726096 0.8989 0.9022 0.9058 0.9096 0.9120
702.746195 0.9129 0.9127 0.9123 0.9125 0.9115
707.766295 0.9101 0.9085 0.9068 0.9045 0.9021
712.786395 0.9002 0.8985 0.8969 0.8953 0.8936
717.806495 0.8919 0.8902 0.8885 0.8866 0.8845
722.826595 0.8824 0.8804 0.8783 0.8761 0.8739
727.846694 0.8717 0.8695 0.8672 0.8644 0.8614
732.866794 0.8587 0.8564 0.8537 0.8426 0.8179
737.886894 0.8007 0.7994 0.8015 0.8033 0.8114
742.906994 0.8195 0.8277 0.8358 0.8440 0.8514
747.927094 0.8555 0.8569 0.8584 0.8593 0.8596
752.947193 0.8597 0.8600 0.8586 0.8581 0.8575
757.967293 0.8569 0.8560 0.8550 0.8539 0.8528
762.987393 0.8517 0.8506 0.8495 0.8484 0.8475
768.007493 0.8464 0.8453 0.8441 0.8427 0.8414
773.027593 0.8401 0.8387 0.8373 0.8359 0.8345
778.047692 0.8277 0.7896 0.7447 0.6998 0.6548
783.067792 0.6098 0.5963 0.6123 0.6627 0.7233
788.087892 0.7839 0.8288 0.8413 0.8420 0.8423
793.107992 0.8421 0.8416 0.8410 0.8404 0.8397
798.128092 0.8387 0.8376 0.8361 0.8345 0.8329
803.148191 0.8316 0.8316 0.8318 0.8320 0.8333
808.168291 0.8343 0.8351 0.8359 0.8363 0.8363
813.188391 0.8361 0.8353 0.8342 0.8329 0.8314
818.208491 0.8298 0.8282 0.8263 0.8243 0.8220
823.228591 0.8185 0.8142 0.8101 0.8064 0.8028
828.248690 0.7993 0.7955 0.7907 0.7849 0.7784
833.268790 0.7681 0.7550 0.7388 0.7145 0.6467
838.288890 0.5825 0.5788 0.5786 0.5793 0.6045
843.308990 0.6301 0.6557 0.6814 0.7070 0.7327
848.329090 0.7571 0.7501 0.7486 0.7463 0.7436
853.349189 0.7410 0.7372 0.7329 0.7286 0.7244
858.369289 0.7202 0.6968 0.6652 0.6433 0.6365
863.389389 0.6341 0.6345 0.6338 0.6339 0.6402
868.409489 0.6494 0.6589 0.6684 0.6779 0.6874
873.429588 0.6970 0.7065 0.7160 0.7255 0.7350
878.449688 0.7431 0.7489 0.7540 0.7595 0.7652
883.469788 0.7710 0.7768 0.7826 0.7893 0.7970
888.489888 0.8042 0.8102 0.8149 0.8183 0.8206
893.509988 0.8220 0.8226 0.8231 0.8236 0.8240
898.530087 0.8245 0.8253 0.8273 0.8299 0.8313
903.550187 0.8314 0.8313 0.8311 0.8309 0.8301
908.570287 0.8291 0.8304 0.8302 0.8299 0.8295
913.590387 0.8290 0.8286 0.8281 0.8277 0.8273
918.610487 0.8268 0.8263 0.8254 0.8244 0.8231
923.630586 0.8216 0.8203 0.8189 0.8174 0.8157
928.650686 0.8135 0.8112 0.8087 0.8059 0.8025
933.670786 0.7977 0.7930 0.7863 0.7686 0.7407
938.690886 0.7308 0.7221 0.7138 0.7056 0.6886
943.710986 0.6511 0.6111 0.5712 0.5312 0.4912
948.731085 0.4786 0.4905 0.5170 0.5458 0.5748
953.751185 0.6037 0.6328 0.6620 0.6911 0.7202
958.771285 0.7494 0.7785 0.8077 0.8265 0.8328
963.791385 0.8350 0.8363 0.8371 0.8376 0.8379
968.811485 0.8382 0.8384 0.8385 0.8387 0.8388
973.831584 0.8388 0.8389 0.8388 0.8388 0.8386
978.851684 0.8383 0.8382 0.8381 0.8380 0.8379
983.871784 0.8379 0.8378 0.8377 0.8375 0.8370
988.891884 0.8364 0.8353 0.8335 0.8309 0.8278
993.911984 0.8244 0.8209 0.8167 0.8123 0.8072
998.932083 0.8015 0.7963 0.7922 0.7893 0.7935
1003.952183 0.8041 0.8103 0.8111 0.8111 0.8111
1008.972283 0.8110 0.8107 0.8100 0.8089 0.8071
1013.992383 0.8047 0.8021 0.7992 0.7960 0.7926
1019.012483 0.7892 0.7855 0.7805 0.7739 0.7702
1024.032582 0.7701 0.7702 0.7704 0.7715 0.7745
1029.052682 0.7787 0.7845 0.7903 0.7952 0.7998
1034.072782 0.8036 0.8063 0.8072 0.8075 0.8066
1039.092882 0.8056 0.8076 0.8075 0.8073 0.8071
1044.112982 0.8069 0.8064 0.8059 0.8055 0.8051
1049.133081 0.8045 0.8038 0.8030 0.8022 0.8014
1054.153181 0.8006 0.7998 0.7991 0.7985 0.7980
1059.173281 0.7975 0.7969 0.7966 0.7965 0.7964
1064.193381 0.7964 0.7965 0.7967 0.7969 0.7971
1069.213480 0.7973 0.7972 0.7972 0.7972 0.7971
1074.233580 0.7971 0.7969 0.7967 0.7965 0.7963
1079.253680 0.7960 0.7958 0.7955 0.7952 0.7948
1084.273780 0.7937 0.7861 0.7674 0.7486 0.7310
1089.293880 0.7254 0.7346 0.7518 0.7651 0.7633
1094.313979 0.7610 0.7583 0.7550 0.7512 0.7445
1099.334079 0.7383 0.7316 0.7194 0.6954 0.6816
1104.354179 0.6713 0.6638 0.6563 0.6437 0.6218
1109.374279 0.5624 0.5030 0.4498 0.4508 0.4662
1114.394379 0.4915 0.5171 0.5426 0.5681 0.5937
1119.414478 0.6106 0.6067 0.5952 0.5833 0.5714
1124.434578 0.5596 0.5504 0.5495 0.5499 0.5500
1129.454678 0.5658 0.5877 0.6102 0.6327 0.6551
1134.474778 0.6776 0.7001 0.7225 0.7450 0.7750
1139.494878 0.7820 0.7825 0.7826 0.7823 0.7836
1144.514977 0.7820 0.7812 0.7807 0.7796 0.7777
1149.535077 0.7752 0.7726 0.7698 0.7670 0.7600
1154.555177 0.7544 0.7502 0.7487 0.7490 0.7462
1159.575277 0.7506 0.7565 0.7641 0.7699 0.7725
1164.595377 0.7730 0.7729 0.7716 0.7720 0.7710
1169.615476 0.7689 0.7667 0.7643 0.7616 0.7574
1174.635576 0.7523 0.7469 0.7413 0.7354 0.7239
1179.655676 0.7083 0.6920 0.6778 0.6740 0.6855
1184.675776 0.7078 0.7331 0.7584 0.7836 0.8021
1189.695876 0.8095 0.8113 0.8123 0.8128 0.8127
1194.715975 0.8111 0.8109 0.8108 0.8096 0.8082
1199.736075 0.8065 0.8047 0.8024 0.7995 0.7965
1204.756175 0.7925 0.7868 0.7804 0.7740 0.7675
1209.776275 0.7604 0.7532 0.7460 0.7325 0.7125
1214.796375 0.6921 0.6728 0.6627 0.6607 0.6651
1219.816474 0.6776 0.6914 0.7052 0.7189 0.7327
1224.836574 0.7465 0.7602 0.7740 0.7878 0.8006
1229.856674 0.8082 0.8097 0.8094 0.8091 0.8093
1234.876774 0.8088 0.8077 0.8060 0.8042 0.8025
1239.896873 0.8006 0.7988 0.7968 0.7945 0.7922
1244.916973 0.7900 0.7879 0.7857 0.7836 0.7815
1249.937073 0.7793 0.7772 0.7751 0.7729 0.7707
1254.957173 0.7684 0.7662 0.7639 0.7613 0.7579
1259.977273 0.7544 0.7510 0.7470 0.7414 0.7349
1264.997372 0.7272 0.7179 0.7084 0.6979 0.6928
1270.017472 0.6878 0.6839 0.6808 0.6780 0.6722
1275.037572 0.6513 0.6225 0.5970 0.5863 0.5857
1280.057672 0.5986 0.6202 0.6417 0.6632 0.6848
1285.077772 0.7063 0.7279 0.7494 0.7698 0.7827
1290.097871 0.7881 0.7911 0.7924 0.7930 0.7933
1295.117971 0.7932 0.7943 0.7916 0.7907 0.7894
1300.138071 0.7873 0.7851 0.7826 0.7797 0.7768
1305.158171 0.7738 0.7706 0.7669 0.7638 0.7610
1310.178271 0.7582 0.7554 0.7530 0.7505 0.7480
1315.198370 0.7455 0.7429 0.7399 0.7302 0.7200
1320.218470 0.7111 0.7017 0.6920 0.6822 0.6728
1325.238570 0.6637 0.6457 0.6053 0.5917 0.5785
1330.258670 0.5541 0.5060 0.5019 0.5003 0.5021
1335.278770 0.5025 0.5029 0.5038 0.5301 0.5591
1340.298869 0.5881 0.5995 0.5996 0.5981 0.5961
1345.318969 0.5915 0.5879 0.5867 0.5864 0.5867
1350.339069 0.5883 0.5924 0.6132 0.6412 0.6818
1355.359169 0.7108 0.7248 0.7285 0.7295 0.7295
1360.379269 0.7289 0.7293 0.7275 0.7261 0.7243
1365.399368 0.7219 0.7182 0.7153 0.7122 0.7078
1370.419468 0.7032 0.6987 0.6946 0.6909 0.6874
1375.439568 0.6834 0.6796 0.6773 0.6756 0.6745
1380.459668 0.6713 0.6652 0.6578 0.6514 0.6454
1385.479768 0.6382 0.6302 0.6198 0.6073 0.5812
1390.499867 0.5367 0.4861 0.4353 0.3846 0.3340
1395.519967 0.3046 0.2969 0.2958 0.3213 0.3577
1400.540067 0.3908 0.4239 0.4570 0.4901 0.5232
1405.560167 0.5542 0.5732 0.5827 0.5923 0.6035
1410.580267 0.6126 0.6202 0.6290 0.6381 0.6458
1415.600366 0.6525 0.6583 0.6633 0.6665 0.6680
1420.620466 0.6686 0.6690 0.6693 0.6695 0.6694
1425.640566 0.6690 0.6685 0.6674 0.6643 0.6600
1430.660666 0.6538 0.6483 0.6455 0.6441 0.6425
1435.680765 0.6286 0.5815 0.5216 0.4618 0.4020
1440.700865 0.3421 0.3174 0.3112 0.3072 0.3047
1445.720965 0.3029 0.3025 0.3029 0.3105 0.3363
1450.741065 0.3677 0.3990 0.4304 0.4618 0.4932
1455.761165 0.5245 0.5560 0.5873 0.6175 0.6276
1460.781264 0.6305 0.6320 0.6328 0.6331 0.6334
1465.801364 0.6361 0.6336 0.6304 0.6215 0.6136
1470.821464 0.6058 0.6013 0.6001 0.5993 0.6153
1475.841564 0.6602 0.7102 0.7530 0.7670 0.7789
1480.861664 0.7871 0.7935 0.7989 0.8027 0.8050
1485.881763 0.8067 0.8088 0.8083 0.8080 0.8073
1490.901863 0.8064 0.8055 0.8045 0.8036 0.8024
1495.921963 0.8008 0.7992 0.7977 0.7962 0.7946
1500.942063 0.7928 0.7908 0.7889 0.7867 0.7841
1505.962163 0.7815 0.7788 0.7759 0.7727 0.7694
1510.982262 0.7662 0.7627 0.7590 0.7553 0.7516
1516.002362 0.7452 0.7364 0.7090 0.6816 0.6542
1521.022462 0.6270 0.6064 0.6008 0.5992 0.5985
1526.042562 0.5990 0.6000 0.6330 0.6561 0.6790
1531.062662 0.7020 0.7240 0.7305 0.7313 0.7315
1536.082761 0.7310 0.7301 0.7267 0.7156 0.6967
1541.102861 0.6779 0.6590 0.6401 0.6212 0.6024
1546.122961 0.5835 0.5647 0.5465 0.5345 0.5386
1551.143061 0.5556 0.5903 0.6249 0.6596 0.6942
1556.163161 0.7288 0.7630 0.7898 0.7920 0.7923
1561.183260 0.7922 0.7919 0.7916 0.7913 0.7906
1566.203360 0.7899 0.7891 0.7881 0.7868 0.7851
1571.223460 0.7833 0.7813 0.7793 0.7770 0.7746
1576.243560 0.7722 0.7694 0.7668 0.7646 0.7629
1581.263660 0.7613 0.7597 0.7581 0.7565 0.7549
1586.283759 0.7533 0.7516 0.7498 0.7477 0.7456
1591.303859 0.7435 0.7414 0.7394 0.7372 0.7347
1596.323959 0.7322 0.7297 0.7271 0.7240 0.7201
1601.344059 0.7162 0.7122 0.7075 0.7026 0.6968
1606.364158 0.6903 0.6842 0.6795 0.6749 0.6703
1611.384258 0.6656 0.6610 0.6564 0.6519 0.6475
1616.404358 0.6427 0.6365 0.6288 0.6208 0.6119
1621.424458 0.6029 0.5938 0.5846 0.5747 0.5649
1626.444558 0.5550 0.5451 0.5352 0.5252 0.5145
1631.464657 0.5039 0.4958 0.4867 0.4655 0.4257
1636.484757 0.4099 0.3978 0.3872 0.3778 0.3696
1641.504857 0.3614 0.3534 0.3456 0.3363 0.3229
1646.524957 0.3085 0.2962 0.2855 0.2737 0.2509
1651.545057 0.2142 0.1925 0.1721 0.1550 0.1447
1656.565156 0.1372 0.1319 0.1268 0.1226 0.1197
1661.585256 0.1173 0.1158 0.1147 0.1146 0.1148
1666.605356 0.1144 0.1144 0.1194 0.1217 0.1251
1671.625456 0.1308 0.1371 0.1429 0.1482 0.1557
1676.645556 0.1669 0.1865 0.2138 0.2411 0.2683
1681.665655 0.2956 0.3229 0.3501 0.3791 0.4051
1686.685755 0.4162 0.4270 0.4430 0.4646 0.4736
1691.705855 0.4876 0.5130 0.5355 0.5477 0.5590
1696.725955 0.5690 0.5777 0.6121 0.6726 0.6796
1701.746055 0.6888 0.7018 0.7088 0.7121 0.7151
1706.766154 0.7181 0.7210 0.7239 0.7268 0.7297
1711.786254 0.7326 0.7355 0.7384 0.7414 0.7438
1716.806354 0.7451 0.7465 0.7478 0.7492 0.7505
1721.826454 0.7519 0.7532 0.7547 0.7564 0.7582
1726.846554 0.7600 0.7618 0.7635 0.7653 0.7671
1731.866653 0.7692 0.7714 0.7741 0.7773 0.7806
1736.886753 0.7844 0.7892 0.7943 0.7986 0.8026
1741.906853 0.8066 0.8106 0.8142 0.8169 0.8194
1746.926953 0.8220 0.8243 0.8262 0.8280 0.8298
1751.947053 0.8316 0.8333 0.8348 0.8362 0.8375
1756.967152 0.8388 0.8402 0.8415 0.8429 0.8442
1761.987252 0.8456 0.8469 0.8480 0.8488 0.8496
1767.007352 0.8504 0.8512 0.8520 0.8528 0.8536
1772.027452 0.8544 0.8551 0.8556 0.8561 0.8566
1777.047552 0.8571 0.8576 0.8581 0.8586 0.8591
1782.067651 0.8595 0.8597 0.8599 0.8600 0.8602
1787.087751 0.8603 0.8604 0.8612 0.8615 0.8607
1792.107851 0.8607 0.8607 0.8608 0.8608 0.8608
1797.127951 0.8609 0.8610 0.8611 0.8612 0.8613
1802.148050 0.8614 0.8614 0.8614 0.8614 0.8614
1807.168150 0.8613 0.8613 0.8613 0.8613 0.8613
1812.188250 0.8613 0.8613 0.8613 0.8613 0.8613
1817.208350 0.8613 0.8613 0.8613 0.8613 0.8613
1822.228450 0.8613 0.8613 0.8614 0.8615 0.8616
1827.248549 0.8617 0.8619 0.8620 0.8621 0.8623
1832.268649 0.8625 0.8626 0.8623 0.8619 0.8616
1837.288749 0.8613 0.8609 0.8605 0.8599 0.8593
1842.308849 0.8587 0.8583 0.8581 0.8580 0.8579
1847.328949 0.8579 0.8578 0.8577 0.8578 0.8578
1852.349048 0.8578 0.8573 0.8561 0.8547 0.8532
1857.369148 0.8519 0.8506 0.8494 0.8481 0.8466
1862.389248 0.8451 0.8435 0.8420 0.8404 0.8389
1867.409348 0.8374 0.8359 0.8344 0.8333 0.8332
1872.429448 0.8337 0.8342 0.8330 0.8344 0.8379
1877.449547 0.8402 0.8429 0.8459 0.8490 0.8516
1882.469647 0.8540 0.8564 0.8587 0.8607 0.8627
1887.489747 0.8646 0.8662 0.8678 0.8693 0.8709
1892.509847 0.8725 0.8742 0.8760 0.8772 0.8779
1897.529947 0.8784 0.8789 0.8794 0.8799 0.8800
1902.550046 0.8814 0.8807 0.8792 0.8790 0.8789
1907.570146 0.8788 0.8787 0.8786 0.8785 0.8785
1912.590246 0.8787 0.8789 0.8791 0.8794 0.8797
1917.610346 0.8799 0.8802 0.8805 0.8808 0.8811
1922.630446 0.8814 0.8818 0.8823 0.8828 0.8833
1927.650545 0.8836 0.8838 0.8839 0.8840 0.8840
1932.670645 0.8841 0.8842 0.8843 0.8843 0.8843
1937.690745 0.8843 0.8839 0.8833 0.8827 0.8821
1942.710845 0.8815 0.8810 0.8804 0.8798 0.8790
1947.730945 0.8783 0.8775 0.8770 0.8767 0.8766
1952.751044 0.8765 0.8763 0.8762 0.8763 0.8763
1957.771144 0.8763 0.8764 0.8764 0.8764 0.8765
1962.791244 0.8765 0.8766 0.8766 0.8767 0.8768
1967.811344 0.8769 0.8770 0.8770 0.8771 0.8774
1972.831443 0.8778 0.8783 0.8788 0.8792 0.8797
1977.851543 0.8802 0.8807 0.8812 0.8816 0.8819
1982.871643 0.8821 0.8822 0.8824 0.8826 0.8828
1987.891743 0.8828 0.8829 0.8830 0.8831 0.8831
1992.911843 0.8832 0.8833 0.8833 0.8833 0.8833
1997.931942 0.8833 0.8833 0.8833 0.8833 0.8833
2002.952042 0.8833 0.8833 0.8833 0.8833 0.8833
2007.972142 0.8833 0.8832 0.8831 0.8830 0.8829
2012.992242 0.8828 0.8826 0.8825 0.8824 0.8823
2018.012342 0.8822 0.8821 0.8820 0.8819 0.8818
2023.032441 0.8818 0.8817 0.8817 0.8817 0.8816
2028.052541 0.8816 0.8816 0.8816 0.8815 0.8815
2033.072641 0.8815 0.8814 0.8814 0.8814 0.8813
2038.092741 0.8813 0.8813 0.8813 0.8812 0.8812
2043.112841 0.8811 0.8810 0.8809 0.8808 0.8807
2048.132940 0.8806 0.8805 0.8804 0.8804 0.8803
2053.153040 0.8802 0.8801 0.8800 0.8799 0.8798
2058.173140 0.8797 0.8796 0.8795 0.8795 0.8794
2063.193240 0.8793 0.8792 0.8790 0.8789 0.8787
2068.213340 0.8786 0.8784 0.8783 0.8781 0.8780
2073.233439 0.8778 0.8776 0.8775 0.8773 0.8772
2078.253539 0.8770 0.8769 0.8767 0.8766 0.8764
2083.273639 0.8762 0.8762 0.8762 0.8762 0.8762
2088.293739 0.8762 0.8762 0.8762 0.8762 0.8762
2093.313839 0.8762 0.8762 0.8762 0.8762 0.8762
2098.333938 0.8761 0.8761 0.8760 0.8759 0.8758
2103.354038 0.8757 0.8756 0.8755 0.8755 0.8754
2108.374138 0.8753 0.8752 0.8751 0.8750 0.8749
2113.394238 0.8749 0.8748 0.8747 0.8747 0.8747
2118.414338 0.8747 0.8746 0.8746 0.8746 0.8746
2123.434437 0.8745 0.8745 0.8745 0.8744 0.8744
2128.454537 0.8744 0.8743 0.8742 0.8740 0.8739
2133.474637 0.8738 0.8737 0.8736 0.8735 0.8734
2138.494737 0.8733 0.8732 0.8731 0.8730 0.8729
2143.514837 0.8728 0.8726 0.8725 0.8724 0.8723
2148.534936 0.8722 0.8721 0.8720 0.8719 0.8718
2153.555036 0.8717 0.8716 0.8715 0.8713 0.8712
2158.575136 0.8711 0.8710 0.8708 0.8707 0.8706
2163.595236 0.8705 0.8703 0.8702 0.8701 0.8700
2168.615335 0.8698 0.8697 0.8696 0.8694 0.8693
2173.635435 0.8690 0.8688 0.8686 0.8684 0.8682
2178.655535 0.8680 0.8678 0.8676 0.8674 0.8672
2183.675635 0.8670 0.8668 0.8666 0.8664 0.8662
2188.695735 0.8660 0.8659 0.8657 0.8655 0.8653
2193.715834 0.8651 0.8649 0.8647 0.8645 0.8642
2198.735934 0.8640 0.8637 0.8635 0.8632 0.8630
2203.756034 0.8627 0.8627 0.8630 0.8633 0.8636
2208.776134 0.8639 0.8640 0.8641 0.8642 0.8643
2213.796234 0.8644 0.8646 0.8648 0.8650 0.8652
2218.816333 0.8653 0.8653 0.8653 0.8652 0.8652
2223.836433 0.8651 0.8651 0.8649 0.8648 0.8646
2228.856533 0.8645 0.8643 0.8642 0.8641 0.8639
2233.876633 0.8637 0.8635 0.8632 0.8630 0.8627
2238.896733 0.8625 0.8622 0.8620 0.8617 0.8615
2243.916832 0.8612 0.8610 0.8609 0.8608 0.8607
2248.936932 0.8607 0.8606 0.8605 0.8604 0.8603
2253.957032 0.8602 0.8601 0.8600 0.8600 0.8599
2258.977132 0.8599 0.8601 0.8602 0.8603 0.8604
2263.997232 0.8605 0.8605 0.8606 0.8607 0.8607
2269.017331 0.8608 0.8609 0.8610 0.8610 0.8610
2274.037431 0.8610 0.8610 0.8609 0.8609 0.8608
2279.057531 0.8608 0.8608 0.8607 0.8607 0.8607
2284.077631 0.8606 0.8605 0.8603 0.8602 0.8601
2289.097731 0.8599 0.8598 0.8597 0.8595 0.8594
2294.117830 0.8593 0.8591 0.8590 0.8589 0.8587
2299.137930 0.8586 0.8585 0.8583 0.8580 0.8578
2304.158030 0.8575 0.8572 0.8570 0.8567 0.8564
2309.178130 0.8562 0.8559 0.8556 0.8553 0.8551
2314.198230 0.8548 0.8545 0.8543 0.8540 0.8537
2319.218329 0.8534 0.8532 0.8529 0.8526 0.8524
2324.238429 0.8520 0.8517 0.8514 0.8511 0.8507
2329.258529 0.8504 0.8501 0.8497 0.8494 0.8491
2334.278629 0.8488 0.8484 0.8481 0.8478 0.8475
2339.298729 0.8471 0.8468 0.8465 0.8461 0.8458
2344.318828 0.8454 0.8451 0.8447 0.8443 0.8440
2349.338928 0.8436 0.8433 0.8429 0.8425 0.8422
2354.359028 0.8418 0.8416 0.8416 0.8416 0.8416
2359.379128 0.8417 0.8417 0.8417 0.8413 0.8406
2364.399227 0.8399 0.8389 0.8377 0.8366 0.8355
2369.419327 0.8346 0.8338 0.8331 0.8328 0.8326
2374.439427 0.8324 0.8322 0.8320 0.8319 0.8319
2379.459527 0.8319 0.8319 0.8318 0.8318 0.8317
2384.479627 0.8315 0.8313 0.8312 0.8310 0.8308
2389.499726 0.8306 0.8304 0.8303 0.8301 0.8299
2394.519826 0.8297 0.8295 0.8293 0.8291 0.8289
2399.539926 0.8286 0.8284 0.8281 0.8279 0.8276
2404.560026 0.8274 0.8271 0.8269 0.8266 0.8263
2409.580126 0.8261 0.8258 0.8255 0.8252 0.8249
2414.600225 0.8246 0.8244 0.8241 0.8238 0.8234
2419.620325 0.8230 0.8225 0.8220 0.8215 0.8210
2424.640425 0.8205 0.8201 0.8196 0.8191 0.8186
2429.660525 0.8181 0.8177 0.8172 0.8167 0.8162
2434.680625 0.8157 0.8152 0.8148 0.8143 0.8138
2439.700724 0.8133 0.8127 0.8122 0.8116 0.8111
2444.720824 0.8106 0.8100 0.8095 0.8089 0.8083
2449.740924 0.8075 0.8067 0.8060 0.8052 0.8044
2454.761024 0.8037 0.8029 0.8021 0.8013 0.8006
2459.781124 0.7998 0.7990 0.7982 0.7974 0.7966
2464.801223 0.7957 0.7949 0.7940 0.7932 0.7924
2469.821323 0.7915 0.7907 0.7899 0.7890 0.7882
2474.841423 0.7873 0.7865 0.7857 0.7850 0.7843
2479.861523 0.7836 0.7829 0.7823 0.7816 0.7809
2484.881623 0.7802 0.7795 0.7788 0.7781 0.7775
2489.901722 0.7768 0.7761 0.7754 0.7747 0.7740
2494.921822 0.7733 0.7727 0.7720 0.7713 0.7706
2499.941922 0.7700 0.7693 0.7686 0.7679 0.7672
2504.962022 0.7666 0.7659 0.7652 0.7645 0.7639
2509.982122 0.7632 0.7625 0.7618 0.7612 0.7605
2515.002221 0.7599 0.7592 0.7586 0.7579 0.7573
2520.022321 0.7566 0.7560 0.7553 0.7547 0.7540
2525.042421 0.7533 0.7527 0.7520 0.7514 0.7507
2530.062521 0.7501 0.7493 0.7482 0.7471 0.7461
2535.082620 0.7450 0.7438 0.7423 0.7398 0.7376
2540.102720 0.7362 0.7353 0.7344 0.7335 0.7329
2545.122820 0.7327 0.7326 0.7325 0.7325 0.7324
2550.142920 0.7328 0.7332 0.7337 0.7342 0.7349
2555.163020 0.7355 0.7365 0.7380 0.7395 0.7410
2560.183119 0.7427 0.7451 0.7479 0.7511 0.7548
2565.203219 0.7583 0.7609 0.7627 0.7642 0.7653
2570.223319 0.7657 0.7659 0.7660 0.7659 0.7657
2575.243419 0.7653 0.7649 0.7644 0.7640 0.7635
2580.263519 0.7628 0.7621 0.7614 0.7605 0.7595
2585.283618 0.7584 0.7573 0.7563 0.7553 0.7542
2590.303718 0.7532 0.7521 0.7511 0.7499 0.7486
2595.323818 0.7473 0.7461 0.7448 0.7435 0.7422
2600.343918 0.7409 0.7394 0.7380 0.7365 0.7350
2605.364018 0.7335 0.7320 0.7305 0.7290 0.7277
2610.384117 0.7265 0.7254 0.7242 0.7231 0.7222
2615.404217 0.7216 0.7212 0.7209 0.7205 0.7201
2620.424317 0.7199 0.7198 0.7197 0.7196 0.7195
2625.444417 0.7194 0.7191 0.7186 0.7180 0.7175
2630.464517 0.7167 0.7155 0.7143 0.7131 0.7120
2635.484616 0.7108 0.7096 0.7086 0.7075 0.7065
2640.504716 0.7055 0.7047 0.7040 0.7033 0.7026
2645.524816 0.7019 0.7012 0.7005 0.6999 0.6992
2650.544916 0.6985 0.6978 0.6971 0.6964 0.6957
2655.565016 0.6950 0.6944 0.6937 0.6930 0.6924
2660.585115 0.6918 0.6913 0.6908 0.6903 0.6899
2665.605215 0.6896 0.6893 0.6890 0.6887 0.6884
2670.625315 0.6883 0.6883 0.6882 0.6882 0.6882
2675.645415 0.6881 0.6881 0.6880 0.6880 0.6879
2680.665515 0.6880 0.6883 0.6888 0.6894 0.6900
2685.685614 0.6906 0.6912 0.6918 0.6926 0.6933
2690.705714 0.6940 0.6947 0.6951 0.6954 0.6957
2695.725814 0.6957 0.6953 0.6950 0.6947 0.6944
2700.745914 0.6941 0.6937 0.6934 0.6931 0.6929
2705.766014 0.6926 0.6923 0.6919 0.6917 0.6914
2710.786113 0.6910 0.6906 0.6902 0.6899 0.6894
2715.806213 0.6889 0.6883 0.6878 0.6873 0.6868
2720.826313 0.6863 0.6858 0.6852 0.6847 0.6842
2725.846413 0.6837 0.6832 0.6826 0.6821 0.6816
2730.866512 0.6811 0.6804 0.6794 0.6784 0.6773
2735.886612 0.6763 0.6749 0.6734 0.6718 0.6703
2740.906712 0.6687 0.6672 0.6654 0.6634 0.6614
2745.926812 0.6594 0.6574 0.6554 0.6534 0.6514
2750.946912 0.6494 0.6474 0.6452 0.6430 0.6407
2755.967011 0.6385 0.6363 0.6340 0.6315 0.6289
2760.987111 0.6263 0.6237 0.6211 0.6185 0.6160
2766.007211 0.6134 0.6108 0.6081 0.6054 0.6027
2771.027311 0.6001 0.5974 0.5948 0.5924 0.5903
2776.047411 0.5881 0.5859 0.5837 0.5818 0.5802
2781.067510 0.5786 0.5769 0.5754 0.5744 0.5737
2786.087610 0.5729 0.5722 0.5715 0.5707 0.5699
2791.107710 0.5691 0.5683 0.5675 0.5667 0.5659
2796.127810 0.5652 0.5639 0.5623 0.5607 0.5591
2801.147910 0.5575 0.5556 0.5532 0.5506 0.5481
2806.168009 0.5456 0.5431 0.5406 0.5382 0.5358
2811.188109 0.5333 0.5309 0.5280 0.5249 0.5218
2816.208209 0.5187 0.5156 0.5126 0.5097 0.5070
2821.228309 0.5042 0.5014 0.4987 0.4959 0.4932
2826.248409 0.4911 0.4893 0.4876 0.4859 0.4841
2831.268508 0.4823 0.4812 0.4805 0.4800 0.4789
2836.288608 0.4794 0.4801 0.4804 0.4808 0.4812
2841.308708 0.4816 0.4824 0.4837 0.4853 0.4869
2846.328808 0.4886 0.4903 0.4920 0.4939 0.4959
2851.348908 0.4979 0.4999 0.5019 0.5043 0.5067
2856.369007 0.5092 0.5117 0.5141 0.5170 0.5204
2861.389107 0.5239 0.5275 0.5314 0.5368 0.5427
2866.409207 0.5485 0.5536 0.5586 0.5640 0.5701
2871.429307 0.5764 0.5855 0.5957 0.6043 0.6091
2876.449407 0.6113 0.6127 0.6134 0.6135 0.6134
2881.469506 0.6132 0.6153 0.6133 0.6117 0.6109
2886.489606 0.6100 0.6092 0.6080 0.6066 0.6052
2891.509706 0.6037 0.6022 0.6006 0.5984 0.5960
2896.529806 0.5918 0.5865 0.5804 0.5725 0.5609
2901.549905 0.5489 0.5382 0.5305 0.5241 0.5193
2906.570005 0.5150 0.5107 0.5067 0.5030 0.4994
2911.590105 0.4959 0.4923 0.4885 0.4843 0.4800
2916.610205 0.4758 0.4715 0.4669 0.4623 0.4576
2921.630305 0.4530 0.4493 0.4461 0.4428 0.4396
2926.650404 0.4365 0.4342 0.4322 0.4301 0.4280
2931.670504 0.4259 0.4239 0.4219 0.4200 0.4182
2936.690604 0.4163 0.4144 0.4126 0.4108 0.4091
2941.710704 0.4074 0.4064 0.4058 0.4054 0.4049
2946.730804 0.4045 0.4019 0.4042 0.4053 0.4062
2951.750903 0.4077 0.4104 0.4133 0.4162 0.4191
2956.771003 0.4219 0.4248 0.4280 0.4314 0.4347
2961.791103 0.4382 0.4420 0.4458 0.4497 0.4568
2966.811203 0.4709 0.5042 0.5636 0.6057 0.6182
2971.831303 0.6218 0.6247 0.6260 0.6270 0.6279
2976.851402 0.6279 0.6277 0.6275 0.6274 0.6268
2981.871502 0.6287 0.6258 0.6248 0.6207 0.6154
2986.891602 0.6078 0.6002 0.5944 0.5914 0.5892
2991.911702 0.5877 0.5864 0.5845 0.5822 0.5790
2996.931802 0.5749 0.5707 0.5634 0.5556 0.5506
3001.951901 0.5456 0.5402 0.5347 0.5296 0.5248
3006.972001 0.5205 0.5179 0.5153 0.5133 0.5118
3011.992101 0.5104 0.5089 0.5074 0.5065 0.5058
3017.012201 0.5051 0.5045 0.5028 0.4993 0.4963
3022.032301 0.4938 0.4916 0.4900 0.4885 0.4869
3027.052400 0.4858 0.4849 0.4845 0.4832 0.4850
3032.072500 0.4853 0.4856 0.4862 0.4869 0.4876
3037.092600 0.4882 0.4892 0.4901 0.4911 0.4925
3042.112700 0.4941 0.4958 0.4985 0.5014 0.5043
3047.132800 0.5071 0.5095 0.5098 0.5099 0.5101
3052.152899 0.5103 0.5105 0.5109 0.5120 0.5142
3057.172999 0.5164 0.5185 0.5207 0.5228 0.5246
3062.193099 0.5262 0.5278 0.5293 0.5308 0.5318
3067.213199 0.5324 0.5331 0.5332 0.5329 0.5326
3072.233299 0.5328 0.5337 0.5315 0.5307 0.5299
3077.253398 0.5288 0.5273 0.5256 0.5238 0.5220
3082.273498 0.5200 0.5178 0.5147 0.5108 0.5067
3087.293598 0.5020 0.4959 0.4890 0.4836 0.4785
3092.313698 0.4730 0.4671 0.4613 0.4563 0.4523
3097.333797 0.4484 0.4450 0.4429 0.4420 0.4411
3102.353897 0.4411 0.4458 0.4503 0.4556 0.4618
3107.373997 0.4688 0.4758 0.4829 0.4892 0.4951
3112.394097 0.5005 0.5056 0.5110 0.5186 0.5322
3117.414197 0.5489 0.5615 0.5716 0.5796 0.5861
3122.434296 0.5920 0.5984 0.6062 0.6147 0.6223
3127.454396 0.6290 0.6354 0.6405 0.6447 0.6488
3132.474496 0.6524 0.6555 0.6587 0.6618 0.6648
3137.494596 0.6676 0.6702 0.6728 0.6751 0.6766
3142.514696 0.6778 0.6790 0.6802 0.6814 0.6826
3147.534795 0.6836 0.6845 0.6854 0.6863 0.6872
3152.554895 0.6881 0.6891 0.6900 0.6909 0.6918
3157.574995 0.6928 0.6937 0.6946 0.6956 0.6966
3162.595095 0.6977 0.6988 0.6998 0.7009 0.7021
3167.615195 0.7036 0.7052 0.7067 0.7083 0.7098
3172.635294 0.7111 0.7122 0.7133 0.7143 0.7154
3177.655394 0.7165 0.7179 0.7195 0.7211 0.7227
3182.675494 0.7240 0.7252 0.7265 0.7278 0.7291
3187.695594 0.7303 0.7312 0.7321 0.7330 0.7339
3192.715694 0.7345 0.7350 0.7356 0.7361 0.7366
3197.735793 0.7372 0.7377 0.7381 0.7383 0.7384
3202.755893 0.7384 0.7385 0.7386 0.7387 0.7388
3207.775993 0.7390 0.7396 0.7402 0.7417 0.7436
3212.796093 0.7449 0.7454 0.7457 0.7459 0.7461
3217.816193 0.7463 0.7466 0.7468 0.7470 0.7473
3222.836292 0.7475 0.7476 0.7477 0.7478 0.7478
3227.856392 0.7479 0.7480 0.7481 0.7481 0.7483
3232.876492 0.7484 0.7485 0.7486 0.7488 0.7489
3237.896592 0.7490 0.7491 0.7493 0.7494 0.7495
3242.916692 0.7497 0.7498 0.7499 0.7500 0.7502
3247.936791 0.7503 0.7504 0.7505 0.7507 0.7508
3252.956891 0.7510 0.7511 0.7513 0.7514 0.7516
3257.976991 0.7517 0.7518 0.7520 0.7521 0.7523
3262.997091 0.7524 0.7526 0.7527 0.7529 0.7530
3268.017190 0.7532 0.7533 0.7535 0.7536 0.7538
3273.037290 0.7539 0.7541 0.7542 0.7544 0.7546
3278.057390 0.7548 0.7550 0.7552 0.7554 0.7556
3283.077490 0.7558 0.7560 0.7562 0.7564 0.7566
3288.097590 0.7568 0.7570 0.7572 0.7574 0.7573
3293.117689 0.7572 0.7571 0.7570 0.7569 0.7568
3298.137789 0.7567 0.7565 0.7559 0.7550 0.7541
3303.157889 0.7533 0.7524 0.7516 0.7508 0.7501
3308.177989 0.7494 0.7486 0.7479 0.7472 0.7465
3313.198089 0.7458 0.7452 0.7445 0.7438 0.7431
3318.218188 0.7425 0.7419 0.7413 0.7409 0.7406
3323.238288 0.7403 0.7400 0.7396 0.7393 0.7390
3328.258388 0.7387 0.7383 0.7381 0.7379 0.7377
3333.278488 0.7375 0.7373 0.7371 0.7369 0.7368
3338.298588 0.7366 0.7365 0.7364 0.7363 0.7363
3343.318687 0.7362 0.7361 0.7360 0.7359 0.7356
3348.338787 0.7352 0.7348 0.7344 0.7340 0.7335
3353.358887 0.7328 0.7319 0.7309 0.7300 0.7290
3358.378987 0.7281 0.7270 0.7257 0.7245 0.7232
3363.399087 0.7220 0.7207 0.7194 0.7182 0.7170
3368.419186 0.7158 0.7146 0.7134 0.7122 0.7111
3373.439286 0.7099 0.7086 0.7073 0.7060 0.7047
3378.459386 0.7034 0.7021 0.7008 0.6995 0.6982
3383.479486 0.6971 0.6961 0.6951 0.6941 0.6930
3388.499586 0.6920 0.6909 0.6899 0.6890 0.6882
3393.519685 0.6875 0.6867 0.6860 0.6852 0.6845
3398.539785 0.6837 0.6830 0.6822 0.6816 0.6810
3403.559885 0.6805 0.6800 0.6795 0.6789 0.6784
3408.579985 0.6779 0.6774 0.6768 0.6764 0.6759
3413.600085 0.6754 0.6750 0.6745 0.6741 0.6736
3418.620184 0.6733 0.6734 0.6734 0.6735 0.6736
3423.640284 0.6736 0.6737 0.6738 0.6738 0.6739
3428.660384 0.6739 0.6740 0.6744 0.6751 0.6757
3433.680484 0.6764 0.6771 0.6777 0.6783 0.6789
3438.700584 0.6795 0.6800 0.6806 0.6811 0.6815
3443.720683 0.6820 0.6824 0.6829 0.6834 0.6839
3448.740783 0.6845 0.6851 0.6858 0.6865 0.6871
3453.760883 0.6879 0.6885 0.6888 0.6890 0.6893
3458.780983 0.6894 0.6893 0.6892 0.6892 0.6890
3463.801082 0.6888 0.6886 0.6884 0.6882 0.6882
3468.821182 0.6883 0.6884 0.6884 0.6885 0.6886
3473.841282 0.6888 0.6891 0.6894 0.6898 0.6901
3478.861382 0.6905 0.6910 0.6915 0.6921 0.6926
3483.881482 0.6932 0.6938 0.6944 0.6950 0.6956
3488.901581 0.6962 0.6968 0.6974 0.6981 0.6988
3493.921681 0.6994 0.7000 0.7007 0.7013 0.7019
3498.941781 0.7026 0.7032 0.7038 0.7045 0.7051
3503.961881 0.7058 0.7064 0.7071 0.7078 0.7084
3508.981981 0.7091 0.7097 0.7104 0.7111 0.7117
3514.002080 0.7124 0.7131 0.7138 0.7145 0.7152
3519.022180 0.7160 0.7167 0.7174 0.7181 0.7195
3524.042280 0.7208 0.7221 0.7238 0.7257 0.7276
3529.062380 0.7295 0.7314 0.7322 0.7330 0.7337
3534.082480 0.7343 0.7348 0.7351 0.7355 0.7359
3539.102579 0.7362 0.7367 0.7372 0.7377 0.7382
3544.122679 0.7387 0.7392 0.7397 0.7403 0.7410
3549.142779 0.7416 0.7422 0.7429 0.7435 0.7442
3554.162879 0.7448 0.7454 0.7461 0.7468 0.7475
3559.182979 0.7482 0.7489 0.7495 0.7502 0.7509
3564.203078 0.7516 0.7522 0.7529 0.7536 0.7542
3569.223178 0.7554 0.7590 0.7634 0.7665 0.7681
3574.243278 0.7693 0.7699 0.7705 0.7711 0.7716
3579.263378 0.7722 0.7728 0.7734 0.7741 0.7749
3584.283478 0.7757 0.7765 0.7773 0.7780 0.7788
3589.303577 0.7796 0.7804 0.7812 0.7821 0.7829
3594.323677 0.7837 0.7845 0.7853 0.7861 0.7869
3599.343777 0.7878 0.7886 0.7894 0.7902 0.7910
3604.363877 0.7918 0.7926 0.7935 0.7942 0.7950
3609.383977 0.7958 0.7966 0.7974 0.7982 0.7990
3614.404076 0.7998 0.8006 0.8014 0.8021 0.8029
3619.424176 0.8037 0.8045 0.8051 0.8058 0.8065
3624.444276 0.8072 0.8078 0.8085 0.8091 0.8097
3629.464376 0.8102 0.8107 0.8113 0.8118 0.8124
3634.484475 0.8129 0.8134 0.8140 0.8145 0.8150
3639.504575 0.8155 0.8159 0.8164 0.8169 0.8173
3644.524675 0.8178 0.8182 0.8187 0.8189 0.8190
3649.544775 0.8190 0.8190 0.8191 0.8191 0.8191
3654.564875 0.8192 0.8192 0.8191 0.8189 0.8187
3659.584974 0.8185 0.8183 0.8183 0.8184 0.8186
3664.605074 0.8187 0.8189 0.8191 0.8192 0.8192
3669.625174 0.8192 0.8193 0.8194 0.8196 0.8197
3674.645274 0.8199 0.8200 0.8201 0.8203 0.8204
3679.665374 0.8206 0.8207 0.8208 0.8210 0.8211
3684.685473 0.8213 0.8217 0.8220 0.8224 0.8227
3689.705573 0.8231 0.8234 0.8238 0.8241 0.8246
3694.725673 0.8250 0.8254 0.8258 0.8262 0.8267
3699.745773 0.8273 0.8278 0.8285 0.8291 0.8297
3704.765873 0.8301 0.8306 0.8310 0.8315 0.8318
3709.785972 0.8321 0.8323 0.8325 0.8327 0.8329
3714.806072 0.8332 0.8334 0.8336 0.8338 0.8340
3719.826172 0.8342 0.8344 0.8346 0.8348 0.8349
3724.846272 0.8351 0.8353 0.8355 0.8357 0.8359
3729.866372 0.8362 0.8366 0.8370 0.8375 0.8379
3734.886471 0.8383 0.8388 0.8392 0.8394 0.8396
3739.906571 0.8397 0.8399 0.8401 0.8402 0.8403
3744.926671 0.8402 0.8401 0.8400 0.8399 0.8398
3749.946771 0.8397 0.8396 0.8395 0.8394 0.8391
3754.966871 0.8388 0.8384 0.8381 0.8377 0.8374
3759.986970 0.8370 0.8367 0.8363 0.8360 0.8356
3765.007070 0.8353 0.8350 0.8346 0.8343 0.8339
3770.027170 0.8336 0.8332 0.8329 0.8325 0.8323
3775.047270 0.8321 0.8319 0.8317 0.8315 0.8313
3780.067370 0.8312 0.8310 0.8308 0.8306 0.8303
3785.087469 0.8301 0.8298 0.8296 0.8294 0.8291
3790.107569 0.8289 0.8286 0.8284 0.8282 0.8279
3795.127669 0.8277 0.8274 0.8274 0.8275 0.8276
3800.147769 0.8277 0.8277 0.8278 0.8279 0.8281
3805.167869 0.8286 0.8293 0.8298 0.8304 0.8309
3810.187968 0.8314 0.8317 0.8318 0.8318 0.8318
3815.208068 0.8319 0.8319 0.8319 0.8318 0.8316
3820.228168 0.8313 0.8311 0.8308 0.8305 0.8302
3825.248268 0.8296 0.8286 0.8277 0.8268 0.8260
3830.268367 0.8252 0.8244 0.8236 0.8229 0.8226
3835.288467 0.8223 0.8221 0.8218 0.8215 0.8213
3840.308567 0.8212 0.8213 0.8214 0.8214 0.8215
3845.328667 0.8216 0.8216 0.8217 0.8217 0.8218
3850.348767 0.8219 0.8219 0.8220 0.8220 0.8220
3855.368866 0.8221 0.8221 0.8221 0.8222 0.8222
3860.388966 0.8224 0.8227 0.8231 0.8234 0.8237
3865.409066 0.8240 0.8246 0.8258 0.8272 0.8286
3870.429166 0.8300 0.8315 0.8327 0.8337 0.8346
3875.449266 0.8352 0.8354 0.8356 0.8356 0.8352
3880.469365 0.8347 0.8342 0.8334 0.8326 0.8319
3885.489465 0.8311 0.8303 0.8296 0.8290 0.8284
3890.509565 0.8277 0.8271 0.8280 0.8276 0.8261
3895.529665 0.8258 0.8255 0.8251 0.8249 0.8246
3900.549765 0.8243 0.8240 0.8237 0.8235 0.8233
3905.569864 0.8231 0.8229 0.8227 0.8226 0.8224
3910.589964 0.8223 0.8224 0.8226 0.8228 0.8231
3915.610064 0.8233 0.8235 0.8239 0.8243 0.8248
3920.630164 0.8253 0.8257 0.8262 0.8262 0.8256
3925.650264 0.8249 0.8242 0.8232 0.8223 0.8215
3930.670363 0.8215 0.8219 0.8222 0.8226 0.8230
3935.690463 0.8236 0.8242 0.8247 0.8253 0.8260
3940.710563 0.8266 0.8273 0.8277 0.8277 0.8275
3945.730663 0.8273 0.8269 0.8265 0.8261 0.8256
3950.750763 0.8252 0.8248 0.8243 0.8240 0.8237
3955.770862 0.8233 0.8230 0.8227 0.8223 0.8220
3960.790962 0.8216 0.8213 0.8210 0.8207 0.8204
3965.811062 0.8202 0.8199 0.8197 0.8195 0.8193
3970.831162 0.8191 0.8188 0.8186 0.8186 0.8187
3975.851262 0.8188 0.8189 0.8190 0.8191 0.8198
3980.871361 0.8211 0.8229 0.8257 0.8279 0.8294
3985.891461 0.8307 0.8309 0.8311 0.8312 0.8310
3990.911561 0.8308 0.8306 0.8302 0.8295 0.8282
3995.931661 0.8261 0.8232 0.8195 0.8174 0.8168
4000.951760 0.8164 0.8162 0.8162 0.8161 0.8160
4005.971860 0.8162 0.8163 0.8166 0.8174 0.8183
4010.991960 0.8191 0.8197
##END=
