##TITLE=Ethylphosphonic acid, diethyl ester
##JCAMP-DX=4.24
$$ By DXEDIT 1.05 (RS McDonald)
##DATA TYPE=INFRARED SPECTRUM
##CLASS=COBLENTZ
##ORIGIN=DOW CHEMICAL COMPANY
##OWNER=COPYRIGHT (C) 1988 by COBLENTZ SOCIETY INC.
Collection (C) 2018 copyright by the U.S. Secretary of Commerce
on behalf of the United States of America. All rights reserved.
##DATE=1970/01/27
##CAS NAME=Diethyl ethyl phosphonate
##MOLFORM=C16 H15 O3 P
##SOURCE REFERENCE=COBLENTZ NO. 09571
##$NIST ID=B6009571
##$NIST SOURCE=COBLENTZ
##$NIST IMAGE=cob9571
##SPECTROMETER/DATA SYSTEM=DOW KBr FOREPRISM-GRATING
##INSTRUMENT PARAMETERS=BLAZED AT 3.5, 12.0, 20.0 MICRON AND CHANGED AT 5.0, 7.5, 14.9 MICRON
##STATE=SOLUTION, SALTED (10% CCl4 FOR 2.7-7.5, 10% CS2 FOR 7.5-26 MICRON) VS SOLVENT
##PATH LENGTH=0.011 CM, 0.011 CM
$$SPECTRAL CONTAMINATION DUE TO H2O AT 1623, 3422, AND 3666 CM^-^1
##SAMPLING PROCEDURE=TRANSMISSION
##RESOLUTION=2
##DATA PROCESSING=DIGITIZED BY COBLENTZ SOCIETY (BATCH I) FROM HARD COPY
##XUNITS=1/CM
##YUNITS=TRANSMITTANCE
##XFACTOR=1
##YFACTOR=1
##DELTAX=1
##FIRSTX=3796
##LASTX=395
##FIRSTY=0.8695
##MAXX=3796
##MINX=395
##MAXY=0.8858
##MINY=0.003
##NPOINTS=3402
##XYDATA=(X++(Y..Y))
3796.000000 0.8695 0.8695 0.8695 0.8695 0.8695
3791.000000 0.8695 0.8696 0.8696 0.8696 0.8696
3786.000000 0.8697 0.8697 0.8697 0.8697 0.8697
3781.000000 0.8696 0.8695 0.8693 0.8692 0.8691
3776.000000 0.8690 0.8689 0.8689 0.8688 0.8687
3771.000000 0.8686 0.8686 0.8685 0.8684 0.8683
3766.000000 0.8662 0.8681 0.8680 0.8678 0.8678
3761.000000 0.8677 0.8677 0.8675 0.8675 0.8674
3756.000000 0.8673 0.8671 0.8671 0.8670 0.8670
3751.000000 0.8668 0.8668 0.8668 0.8667 0.8666
3746.000000 0.8666 0.8665 0.8664 0.8661 0.8659
3741.000000 0.8656 0.8654 0.8649 0.8644 0.8639
3736.000000 0.8635 0.8628 0.8621 0.8614 0.8606
3731.000000 0.8598 0.8591 0.8586 0.8581 0.8577
3726.000000 0.8574 0.8570 0.8566 0.8566 0.8566
3721.000000 0.8566 0.8566 0.8567 0.8568 0.8570
3716.000000 0.8571 0.8573 0.8575 0.8575 0.8578
3711.000000 0.8580 0.8582 0.8583 0.8585 0.8586
3706.000000 0.8588 0.8588 0.8588 0.8588 0.8588
3701.000000 0.8587 0.8586 0.8585 0.8584 0.8581
3696.000000 0.8578 0.8575 0.8571 0.8567 0.8564
3691.000000 0.8556 0.8549 0.8540 0.8531 0.8521
3686.000000 0.8513 0.8498 0.8484 0.8467 0.8450
3681.000000 0.8430 0.8410 0.8386 0.8363 0.8309
3676.000000 0.8256 0.8037 0.7818 0.7600 0.7382
3671.000000 0.7164 0.6946 0.6745 0.6545 0.6545
3666.000000 0.6545 0.6551 0.6560 0.6640 0.6721
3661.000000 0.6801 0.6882 0.6961 0.7043 0.7122
3656.000000 0.7204 0.7284 0.7365 0.7445 0.7525
3651.000000 0.7606 0.7687 0.7768 0.7849 0.7928
3646.000000 0.8010 0.8069 0.8130 0.8175 0.8221
3641.000000 0.8247 0.8273 0.8282 0.8291 0.8296
3636.000000 0.8301 0.8306 0.8312 0.8314 0.8317
3631.000000 0.8317 0.8318 0.8318 0.8320 0.8321
3626.000000 0.8321 0.8321 0.8321 0.8320 0.8318
3621.000000 0.8316 0.8314 0.8312 0.8311 0.8309
3616.000000 0.8307 0.8305 0.8303 0.8300 0.8297
3611.000000 0.8294 0.8291 0.8287 0.8284 0.8280
3606.000000 0.8277 0.8273 0.8270 0.8267 0.8264
3601.000000 0.8260 0.8257 0.8253 0.8250 0.8245
3596.000000 0.8241 0.8236 0.8232 0.8227 0.8223
3591.000000 0.8218 0.8214 0.8209 0.8205 0.8200
3586.000000 0.8196 0.8191 0.8187 0.8181 0.8175
3581.000000 0.8169 0.8165 0.8158 0.8154 0.8148
3576.000000 0.8143 0.8137 0.8132 0.8125 0.8121
3571.000000 0.8112 0.8105 0.8097 0.8089 0.8081
3566.000000 0.8072 0.8065 0.8057 0.8047 0.8037
3561.000000 0.8021 0.8008 0.7994 0.7980 0.7965
3556.000000 0.7951 0.7936 0.7921 0.7907 0.7893
3551.000000 0.7875 0.7858 0.7842 0.7825 0.7808
3546.000000 0.7791 0.7775 0.7761 0.7747 0.7733
3541.000000 0.7718 0.7705 0.7691 0.7676 0.7662
3536.000000 0.7650 0.7638 0.7626 0.7615 0.7603
3531.000000 0.7591 0.7580 0.7568 0.7556 0.7544
3526.000000 0.7533 0.7522 0.7514 0.7507 0.7500
3521.000000 0.7493 0.7486 0.7478 0.7471 0.7465
3516.000000 0.7458 0.7450 0.7443 0.7434 0.7425
3511.000000 0.7418 0.7410 0.7401 0.7394 0.7385
3506.000000 0.7376 0.7368 0.7361 0.7349 0.7338
3501.000000 0.7325 0.7311 0.7299 0.7286 0.7272
3496.000000 0.7260 0.7245 0.7231 0.7215 0.7201
3491.000000 0.7188 0.7174 0.7158 0.7145 0.7130
3486.000000 0.7115 0.7101 0.7087 0.7071 0.7057
3481.000000 0.7042 0.7028 0.7012 0.6998 0.6978
3476.000000 0.6958 0.6939 0.6919 0.6900 0.6881
3471.000000 0.6861 0.6842 0.6821 0.6800 0.6778
3466.000000 0.6758 0.6737 0.6715 0.6695 0.6674
3461.000000 0.6653 0.6633 0.6611 0.6592 0.6571
3456.000000 0.6551 0.6531 0.6511 0.6490 0.6469
3451.000000 0.6449 0.6428 0.6407 0.6386 0.6362
3446.000000 0.6339 0.6318 0.6297 0.6284 0.6271
3441.000000 0.6258 0.6246 0.6233 0.6220 0.6210
3436.000000 0.6202 0.6193 0.6184 0.6179 0.6175
3431.000000 0.6170 0.6166 0.6162 0.6160 0.6159
3426.000000 0.6157 0.6155 0.6153 0.6151 0.6150
3421.000000 0.6150 0.6150 0.6151 0.6153 0.6156
3416.000000 0.6159 0.6162 0.6165 0.6172 0.6179
3411.000000 0.6188 0.6197 0.6206 0.6215 0.6226
3406.000000 0.6237 0.6253 0.6269 0.6285 0.6301
3401.000000 0.6317 0.6334 0.6352 0.6370 0.6388
3396.000000 0.6406 0.6424 0.6442 0.6460 0.6478
3391.000000 0.6501 0.6525 0.6549 0.6572 0.6596
3386.000000 0.6619 0.6643 0.6667 0.6691 0.6715
3381.000000 0.6738 0.6761 0.6785 0.6808 0.6834
3376.000000 0.6860 0.6886 0.6912 0.6939 0.6965
3371.000000 0.6992 0.7018 0.7044 0.7069 0.7093
3366.000000 0.7117 0.7140 0.7164 0.7187 0.7211
3361.000000 0.7234 0.7258 0.7281 0.7305 0.7326
3356.000000 0.7349 0.7371 0.7393 0.7415 0.7437
3351.000000 0.7458 0.7481 0.7501 0.7521 0.7537
3346.000000 0.7553 0.7568 0.7584 0.7600 0.7615
3341.000000 0.7632 0.7648 0.7662 0.7678 0.7694
3336.000000 0.7708 0.7722 0.7738 0.7751 0.7765
3331.000000 0.7780 0.7795 0.7808 0.7822 0.7837
3326.000000 0.7851 0.7865 0.7880 0.7894 0.7908
3321.000000 0.7921 0.7934 0.7946 0.7958 0.7971
3316.000000 0.7984 0.7996 0.8008 0.8021 0.8034
3311.000000 0.8046 0.8058 0.8068 0.8078 0.8088
3306.000000 0.8098 0.8107 0.8117 0.8125 0.8136
3301.000000 0.8144 0.8151 0.8160 0.8168 0.8176
3296.000000 0.8185 0.8193 0.8201 0.8209 0.8218
3291.000000 0.8225 0.8233 0.8240 0.8247 0.8254
3286.000000 0.8262 0.8268 0.8275 0.8283 0.8290
3281.000000 0.8296 0.8302 0.8308 0.8314 0.8320
3276.000000 0.8327 0.8333 0.8339 0.8343 0.8348
3271.000000 0.8352 0.8357 0.8361 0.8366 0.8370
3266.000000 0.8375 0.8378 0.8384 0.8387 0.8391
3261.000000 0.8393 0.8396 0.8399 0.8402 0.8404
3256.000000 0.8407 0.8408 0.8409 0.8409 0.8410
3251.000000 0.8410 0.8411 0.8411 0.8411 0.8409
3246.000000 0.8408 0.8406 0.8405 0.8403 0.8401
3241.000000 0.8399 0.8398 0.8396 0.8394 0.8391
3236.000000 0.8389 0.8386 0.8384 0.8381 0.8378
3231.000000 0.8375 0.8373 0.8370 0.8367 0.8364
3226.000000 0.8361 0.8357 0.8354 0.8351 0.8348
3221.000000 0.8345 0.8342 0.8338 0.8335 0.8333
3216.000000 0.8332 0.8330 0.8328 0.8328 0.8327
3211.000000 0.8325 0.8325 0.8324 0.8323 0.8323
3206.000000 0.8323 0.8323 0.8324 0.8325 0.8325
3201.000000 0.8325 0.8327 0.8328 0.8328 0.8333
3196.000000 0.8337 0.8343 0.8349 0.8354 0.8360
3191.000000 0.8366 0.8371 0.8375 0.8381 0.8385
3186.000000 0.8389 0.8393 0.8398 0.8402 0.8406
3181.000000 0.8410 0.8415 0.8418 0.8424 0.8428
3176.000000 0.8432 0.8436 0.8441 0.8444 0.8448
3171.000000 0.8452 0.8456 0.8459 0.8463 0.8466
3166.000000 0.8470 0.8473 0.8477 0.8481 0.8485
3161.000000 0.8488 0.8492 0.8495 0.8499 0.8502
3156.000000 0.8506 0.8508 0.8511 0.8514 0.8517
3151.000000 0.8518 0.8521 0.8525 0.8528 0.8530
3146.000000 0.8533 0.8536 0.8539 0.8542 0.8545
3141.000000 0.8547 0.8549 0.8550 0.8551 0.8552
3136.000000 0.8554 0.8555 0.8556 0.8557 0.8558
3131.000000 0.8559 0.8561 0.8562 0.8563 0.8564
3126.000000 0.8565 0.8565 0.8566 0.8566 0.8566
3121.000000 0.8566 0.8567 0.8567 0.8567 0.8567
3116.000000 0.8568 0.8568 0.8568 0.8568 0.8568
3111.000000 0.8567 0.8567 0.8566 0.8566 0.8565
3106.000000 0.8586 0.8563 0.8563 0.8562 0.8562
3101.000000 0.8561 0.8561 0.8558 0.8556 0.8553
3096.000000 0.8551 0.8548 0.8546 0.8543 0.8541
3091.000000 0.8538 0.8535 0.8532 0.8530 0.8527
3086.000000 0.8525 0.8520 0.8515 0.8510 0.8505
3081.000000 0.8500 0.8495 0.8490 0.8486 0.8481
3076.000000 0.8475 0.8471 0.8466 0.8459 0.8453
3071.000000 0.8447 0.8441 0.8434 0.8428 0.8421
3066.000000 0.8415 0.8408 0.8402 0.8396 0.8390
3061.000000 0.8381 0.8373 0.8364 0.8355 0.8346
3056.000000 0.8337 0.8328 0.8318 0.8310 0.8301
3051.000000 0.8290 0.8278 0.8264 0.8250 0.8235
3046.000000 0.8221 0.8207 0.8193 0.8178 0.8164
3041.000000 0.8147 0.8130 0.8111 0.8095 0.8078
3036.000000 0.8061 0.8043 0.8025 0.8005 0.7985
3031.000000 0.7956 0.7928 0.7899 0.7869 0.7840
3026.000000 0.7811 0.7780 0.7749 0.7717 0.7686
3021.000000 0.7655 0.7624 0.7574 0.7525 0.7474
3016.000000 0.7422 0.7367 0.7311 0.7253 0.7195
3011.000000 0.7131 0.7068 0.7001 0.6937 0.6844
3006.000000 0.6751 0.6628 0.6505 0.6391 0.6278
3001.000000 0.6156 0.6034 0.5536 0.5038 0.4468
2996.000000 0.3898 0.3327 0.2757 0.2187 0.1617
2991.000000 0.1325 0.1033 0.0911 0.0790 0.0776
2986.000000 0.0762 0.0760 0.0759 0.0759 0.0759
2981.000000 0.0769 0.0780 0.0799 0.0818 0.0889
2976.000000 0.0961 0.1192 0.1423 0.1596 0.1772
2971.000000 0.1945 0.2121 0.2295 0.2470 0.2644
2966.000000 0.2819 0.2993 0.3168 0.3343 0.3518
2961.000000 0.3618 0.3718 0.3787 0.3856 0.3924
2956.000000 0.3993 0.4016 0.4039 0.4046 0.4060
2951.000000 0.4056 0.4058 0.4059 0.4060 0.3844
2946.000000 0.3628 0.3338 0.2845 0.2956 0.2863
2941.000000 0.2873 0.2883 0.2948 0.3013 0.3078
2936.000000 0.3143 0.3208 0.3273 0.3328 0.3384
2931.000000 0.3397 0.3410 0.3418 0.3425 0.3478
2926.000000 0.3532 0.3609 0.3687 0.3764 0.3842
2921.000000 0.3912 0.3982 0.4018 0.4055 0.4064
2916.000000 0.4084 0.4082 0.4091 0.4092 0.4093
2911.000000 0.4004 0.3916 0.3808 0.3700 0.3593
2906.000000 0.3484 0.3377 0.3270 0.3257 0.3206
2901.000000 0.3246 0.3247 0.3376 0.3505 0.3723
2896.000000 0.3942 0.4160 0.4379 0.4598 0.4817
2891.000000 0.4835 0.4853 0.4856 0.4860 0.4832
2886.000000 0.4805 0.4726 0.4647 0.4579 0.4510
2881.000000 0.4510 0.4510 0.4517 0.4524 0.4615
2876.000000 0.4706 0.4976 0.5247 0.5517 0.5787
2871.000000 0.6009 0.6232 0.6219 0.6207 0.6199
2866.000000 0.6192 0.6191 0.6190 0.6200 0.6210
2861.000000 0.6298 0.6386 0.6472 0.6561 0.6648
2856.000000 0.6735 0.6821 0.6910 0.6997 0.7085
2851.000000 0.7171 0.7260 0.7334 0.7408 0.7428
2846.000000 0.7448 0.7465 0.7484 0.7500 0.7515
2841.000000 0.7532 0.7548 0.7562 0.7578 0.7590
2836.000000 0.7601 0.7612 0.7625 0.7637 0.7649
2831.000000 0.7661 0.7672 0.7684 0.7695 0.7706
2826.000000 0.7717 0.7728 0.7739 0.7750 0.7761
2821.000000 0.7771 0.7782 0.7792 0.7801 0.7811
2816.000000 0.7821 0.7833 0.7845 0.7857 0.7869
2811.000000 0.7883 0.7896 0.7908 0.7921 0.7933
2806.000000 0.7945 0.7956 0.7968 0.7978 0.7990
2801.000000 0.8001 0.8012 0.8025 0.8037 0.8049
2796.000000 0.8061 0.8072 0.8085 0.8097 0.8108
2791.000000 0.8121 0.8134 0.8146 0.8158 0.8169
2786.000000 0.8181 0.8189 0.8198 0.8203 0.8209
2781.000000 0.8214 0.8220 0.8225 0.8230 0.8233
2776.000000 0.8237 0.8240 0.8243 0.8245 0.8248
2771.000000 0.8250 0.8250 0.8251 0.8249 0.8245
2766.000000 0.8242 0.8238 0.8234 0.8228 0.8225
2761.000000 0.8221 0.8217 0.8217 0.8217 0.8218
2756.000000 0.8221 0.8224 0.8228 0.8232 0.8237
2751.000000 0.8242 0.8248 0.8253 0.8259 0.8263
2746.000000 0.8268 0.8270 0.8270 0.8271 0.8268
2741.000000 0.8263 0.8257 0.8247 0.8238 0.8225
2736.000000 0.8212 0.8200 0.8189 0.8181 0.8172
2731.000000 0.8165 0.8158 0.8155 0.8155 0.8155
2726.000000 0.8158 0.8165 0.8171 0.8178 0.8186
2721.000000 0.8197 0.8208 0.8221 0.8237 0.8251
2716.000000 0.8266 0.8280 0.8294 0.8308 0.8323
2711.000000 0.8337 0.8352 0.8365 0.8378 0.8392
2706.000000 0.8406 0.8418 0.8433 0.8445 0.8457
2701.000000 0.8467 0.8477 0.8481 0.8485 0.8489
2696.000000 0.8493 0.8497 0.8501 0.8504 0.8508
2691.000000 0.8509 0.8511 0.8512 0.8512 0.8512
2686.000000 0.8510 0.8508 0.8507 0.8506 0.8505
2681.000000 0.8504 0.8504 0.8504 0.8505 0.8505
2676.000000 0.8506 0.8506 0.8507 0.8508 0.8510
2671.000000 0.8513 0.8516 0.8518 0.8521 0.8523
2666.000000 0.8525 0.8525 0.8528 0.8528 0.8530
2661.000000 0.8531 0.8532 0.8533 0.8534 0.8535
2656.000000 0.8536 0.8537 0.8538 0.8539 0.8541
2651.000000 0.8542 0.8543 0.8544 0.8546 0.8547
2646.000000 0.8549 0.8550 0.8552 0.8553 0.8555
2641.000000 0.8556 0.8558 0.8559 0.8560 0.8561
2636.000000 0.8563 0.8564 0.8566 0.8568 0.8570
2631.000000 0.8571 0.8574 0.8575 0.8577 0.8578
2626.000000 0.8581 0.8582 0.8584 0.8586 0.8588
2621.000000 0.8590 0.8592 0.8593 0.8595 0.8597
2616.000000 0.8599 0.8601 0.8603 0.8604 0.8606
2611.000000 0.8608 0.8610 0.8611 0.8613 0.8615
2606.000000 0.8617 0.8618 0.8620 0.8621 0.8624
2601.000000 0.8625 0.8627 0.8628 0.8631 0.8632
2596.000000 0.8634 0.8635 0.8637 0.8639 0.8641
2591.000000 0.8642 0.8644 0.8645 0.8647 0.8648
2586.000000 0.8650 0.8652 0.8654 0.8655 0.8657
2581.000000 0.8658 0.8660 0.8661 0.8663 0.8665
2576.000000 0.8667 0.8668 0.8670 0.8671 0.8673
2571.000000 0.8674 0.8675 0.8677 0.8678 0.8680
2566.000000 0.8682 0.8683 0.8684 0.8685 0.8687
2561.000000 0.8688 0.8690 0.8691 0.8692 0.8693
2556.000000 0.8695 0.8696 0.8698 0.8699 0.8700
2551.000000 0.8701 0.8703 0.8703 0.8704 0.8704
2546.000000 0.8704 0.8704 0.8705 0.8705 0.8705
2541.000000 0.8705 0.8706 0.8706 0.8706 0.8706
2536.000000 0.8706 0.8706 0.8706 0.8706 0.8706
2531.000000 0.8706 0.8706 0.8706 0.8706 0.8706
2526.000000 0.8706 0.8706 0.8706 0.8706 0.8706
2521.000000 0.8706 0.8706 0.8706 0.8706 0.8706
2516.000000 0.8706 0.8706 0.8706 0.8706 0.8706
2511.000000 0.8706 0.8707 0.8707 0.8708 0.8708
2506.000000 0.8708 0.8708 0.8709 0.8709 0.8710
2501.000000 0.8710 0.8711 0.8711 0.8711 0.8711
2496.000000 0.8712 0.8712 0.8713 0.8713 0.8713
2491.000000 0.8713 0.8713 0.8713 0.8713 0.8713
2486.000000 0.8713 0.8713 0.8713 0.8712 0.8711
2481.000000 0.8710 0.8710 0.8709 0.8709 0.8706
2476.000000 0.8704 0.8701 0.8698 0.8691 0.8684
2471.000000 0.8677 0.8670 0.8663 0.8657 0.8652
2466.000000 0.8647 0.8642 0.8638 0.8634 0.8631
2461.000000 0.8628 0.8628 0.8628 0.8628 0.8630
2456.000000 0.8631 0.8631 0.8632 0.8633 0.8634
2451.000000 0.8634 0.8635 0.8635 0.8636 0.8636
2446.000000 0.8636 0.8636 0.8637 0.8637 0.8638
2441.000000 0.8638 0.8639 0.8639 0.8639 0.8639
2436.000000 0.8640 0.8640 0.8641 0.8642 0.8644
2431.000000 0.8645 0.8647 0.8648 0.8649 0.8650
2426.000000 0.8652 0.8653 0.8654 0.8655 0.8657
2421.000000 0.8658 0.8659 0.8660 0.8662 0.8663
2416.000000 0.8664 0.8665 0.8666 0.8667 0.8668
2411.000000 0.8668 0.8670 0.8671 0.8671 0.8673
2406.000000 0.8674 0.8675 0.8675 0.8677 0.8678
2401.000000 0.8678 0.8680 0.8680 0.8681 0.8682
2396.000000 0.8683 0.8684 0.8686 0.8687 0.8688
2391.000000 0.8689 0.8691 0.8692 0.8693 0.8695
2386.000000 0.8697 0.8699 0.8701 0.8703 0.8705
2381.000000 0.8707 0.8709 0.8711 0.8713 0.8714
2376.000000 0.8716 0.8718 0.8720 0.8721 0.8724
2371.000000 0.8725 0.8728 0.8730 0.8732 0.8734
2366.000000 0.8736 0.8737 0.8739 0.8740 0.8741
2361.000000 0.8742 0.8743 0.8743 0.8743 0.8743
2356.000000 0.8742 0.8739 0.8736 0.8732 0.8728
2351.000000 0.8724 0.8721 0.8717 0.8714 0.8710
2346.000000 0.8707 0.8704 0.8702 0.8702 0.8702
2341.000000 0.8701 0.8701 0.8700 0.8700 0.8701
2336.000000 0.8702 0.8704 0.8707 0.8709 0.8712
2331.000000 0.8712 0.8713 0.8713 0.8713 0.8713
2326.000000 0.8713 0.8712 0.8711 0.8710 0.8709
2321.000000 0.8708 0.8707 0.8706 0.8705 0.8704
2316.000000 0.8703 0.8701 0.8700 0.8699 0.8698
2311.000000 0.8696 0.8695 0.8694 0.8693 0.8692
2306.000000 0.8691 0.8689 0.8688 0.8687 0.8686
2301.000000 0.8685 0.8684 0.8683 0.8682 0.8681
2296.000000 0.8681 0.8680 0.8680 0.8678 0.8678
2291.000000 0.8677 0.8677 0.8675 0.8675 0.8673
2286.000000 0.8671 0.8671 0.8670 0.8670 0.8670
2281.000000 0.8670 0.8670 0.8670 0.8670 0.8670
2276.000000 0.8670 0.8670 0.8670 0.8670 0.8670
2271.000000 0.8670 0.8670 0.8670 0.8671 0.8671
2266.000000 0.8671 0.8671 0.8673 0.8674 0.8675
2261.000000 0.8678 0.8681 0.8684 0.8687 0.8689
2256.000000 0.8692 0.8695 0.8698 0.8700 0.8703
2251.000000 0.8706 0.8709 0.8712 0.8715 0.8717
2246.000000 0.8720 0.8723 0.8725 0.8728 0.8730
2241.000000 0.8732 0.8734 0.8736 0.8739 0.8741
2236.000000 0.8743 0.8744 0.8745 0.8745 0.8746
2231.000000 0.8747 0.8748 0.8749 0.8750 0.8751
2226.000000 0.8752 0.8753 0.8755 0.8756 0.8757
2221.000000 0.8758 0.8760 0.8761 0.8763 0.8764
2216.000000 0.8765 0.8765 0.8766 0.8767 0.8768
2211.000000 0.8768 0.8768 0.8770 0.8771 0.8771
2206.000000 0.8771 0.8771 0.8771 0.8771 0.8771
2201.000000 0.8771 0.8771 0.8771 0.8771 0.8771
2196.000000 0.8771 0.8771 0.8771 0.8771 0.8771
2191.000000 0.8771 0.8771 0.8775 0.8778 0.8782
2186.000000 0.8786 0.8794 0.8803 0.8810 0.8817
2181.000000 0.8824 0.8831 0.8837 0.8844 0.8851
2176.000000 0.8858 0.8856 0.8854 0.8846 0.8838
2171.000000 0.8825 0.8813 0.8802 0.8792 0.8787
2166.000000 0.8783 0.8778 0.8774 0.8774 0.8774
2161.000000 0.8774 0.8774 0.8774 0.8774 0.8774
2156.000000 0.8774 0.8774 0.8774 0.8774 0.8774
2151.000000 0.8774 0.8774 0.8774 0.8775 0.8775
2146.000000 0.8775 0.8775 0.8775 0.8775 0.8775
2141.000000 0.8775 0.8775 0.8775 0.8775 0.8775
2136.000000 0.8777 0.8777 0.8777 0.8778 0.8778
2131.000000 0.8780 0.8781 0.8782 0.8783 0.8783
2126.000000 0.8784 0.8784 0.8785 0.8785 0.8785
2121.000000 0.8785 0.8785 0.8785 0.8786 0.8786
2116.000000 0.8786 0.8786 0.8786 0.8786 0.8787
2111.000000 0.8787 0.8787 0.8787 0.8787 0.8787
2106.000000 0.8788 0.8788 0.8788 0.8788 0.8789
2101.000000 0.8789 0.8789 0.8789 0.8789 0.8789
2096.000000 0.8790 0.8790 0.8790 0.8790 0.8790
2091.000000 0.8790 0.8790 0.8790 0.8790 0.8790
2086.000000 0.8790 0.8790 0.8790 0.8790 0.8790
2081.000000 0.8790 0.8790 0.8790 0.8790 0.8790
2076.000000 0.8790 0.8790 0.8790 0.8790 0.8791
2071.000000 0.8792 0.8793 0.8793 0.8794 0.8795
2066.000000 0.8796 0.8796 0.8797 0.8798 0.8799
2061.000000 0.8800 0.8801 0.8801 0.8802 0.8803
2056.000000 0.8804 0.8804 0.8805 0.8806 0.8806
2051.000000 0.8806 0.8806 0.8805 0.8805 0.8804
2046.000000 0.8804 0.8803 0.8803 0.8802 0.8801
2041.000000 0.8800 0.8800 0.8799 0.8799 0.8798
2036.000000 0.8797 0.8796 0.8795 0.8794 0.8793
2031.000000 0.8792 0.8791 0.8790 0.8790 0.8789
2026.000000 0.8789 0.8789 0.8789 0.8789 0.8789
2021.000000 0.8789 0.8789 0.8789 0.8789 0.8789
2016.000000 0.8789 0.8789 0.8789 0.8789 0.8789
2011.000000 0.8790 0.8791 0.8793 0.8795 0.8797
2006.000000 0.8799 0.8801 0.8803 0.8804 0.8806
2001.000000 0.8808 0.8811 0.8813 0.8813 0.8813
1996.000000 0.8813 0.8812 0.8809 0.8806 0.8793
1991.000000 0.8771 0.8754 0.8738 0.8730 0.8725
1986.000000 0.8723 0.8720 0.8716 0.8713 0.8710
1981.000000 0.8707 0.8706 0.8705 0.8704 0.8703
1976.000000 0.8702 0.8702 0.8701 0.8700 0.8700
1971.000000 0.8700 0.8700 0.8701 0.8702 0.8703
1966.000000 0.8704 0.8704 0.8705 0.8706 0.8707
1961.000000 0.8707 0.8708 0.8709 0.8711 0.8712
1956.000000 0.8714 0.8716 0.8718 0.8718 0.8721
1951.000000 0.8723 0.8725 0.8727 0.8728 0.8730
1946.000000 0.8730 0.8730 0.8731 0.8731 0.8731
1941.000000 0.8732 0.8732 0.8732 0.8732 0.8733
1936.000000 0.8733 0.8733 0.8733 0.8732 0.8732
1931.000000 0.8732 0.8731 0.8731 0.8731 0.8730
1926.000000 0.8730 0.8730 0.8730 0.8728 0.8728
1921.000000 0.8730 0.8730 0.8730 0.8731 0.8731
1916.000000 0.8732 0.8732 0.8732 0.8732 0.8732
1911.000000 0.8732 0.8732 0.8732 0.8732 0.8732
1906.000000 0.8732 0.8732 0.8731 0.8731 0.8731
1901.000000 0.8730 0.8730 0.8728 0.8728 0.8728
1896.000000 0.8728 0.8727 0.8725 0.8725 0.8725
1891.000000 0.8723 0.8718 0.8716 0.8713 0.8707
1886.000000 0.8701 0.8696 0.8691 0.8687 0.8681
1881.000000 0.8675 0.8670 0.8665 0.8654 0.8641
1876.000000 0.8628 0.8615 0.8605 0.8594 0.8584
1871.000000 0.8574 0.8564 0.8554 0.8545 0.8536
1866.000000 0.8530 0.8524 0.8518 0.8513 0.8507
1861.000000 0.8501 0.8495 0.8489 0.8483 0.8478
1856.000000 0.8474 0.8470 0.8465 0.8461 0.8456
1851.000000 0.8452 0.8448 0.8446 0.8443 0.8440
1846.000000 0.8438 0.8435 0.8431 0.8428 0.8425
1841.000000 0.8421 0.8418 0.8414 0.8411 0.8410
1836.000000 0.8410 0.8410 0.8410 0.8410 0.8410
1831.000000 0.8410 0.8410 0.8410 0.8410 0.8410
1826.000000 0.8412 0.8414 0.8416 0.8418 0.8420
1821.000000 0.8421 0.8425 0.8431 0.8437 0.8443
1816.000000 0.8449 0.8455 0.8461 0.8467 0.8473
1811.000000 0.8478 0.8484 0.8490 0.8496 0.8501
1806.000000 0.8504 0.8507 0.8510 0.8513 0.8516
1801.000000 0.8518 0.8521 0.8524 0.8527 0.8530
1796.000000 0.8533 0.8536 0.8540 0.8543 0.8546
1791.000000 0.8550 0.8553 0.8556 0.8560 0.8563
1786.000000 0.8566 0.8570 0.8571 0.8575 0.8577
1781.000000 0.8578 0.8581 0.8583 0.8585 0.8585
1776.000000 0.8583 0.8582 0.8581 0.8580 0.8578
1771.000000 0.8571 0.8563 0.8554 0.8543 0.8531
1766.000000 0.8518 0.8508 0.8496 0.8485 0.8473
1761.000000 0.8462 0.8450 0.8438 0.8425 0.8418
1756.000000 0.8413 0.8406 0.8400 0.8392 0.8385
1751.000000 0.8377 0.8370 0.8363 0.8355 0.8348
1746.000000 0.8341 0.8334 0.8328 0.8321 0.8317
1741.000000 0.8313 0.8309 0.8304 0.8300 0.8296
1736.000000 0.8291 0.8289 0.8287 0.8285 0.8283
1731.000000 0.8282 0.8281 0.8280 0.8278 0.8277
1726.000000 0.8275 0.8273 0.8271 0.8265 0.8253
1721.000000 0.8242 0.8230 0.8220 0.8214 0.8208
1716.000000 0.8202 0.8196 0.8190 0.8192 0.8195
1711.000000 0.8205 0.8218 0.8232 0.8246 0.8261
1706.000000 0.8275 0.8290 0.8305 0.8316 0.8327
1701.000000 0.8338 0.8348 0.8359 0.8371 0.8382
1696.000000 0.8393 0.8404 0.8416 0.8425 0.8434
1691.000000 0.8442 0.8444 0.8444 0.8444 0.8444
1686.000000 0.8443 0.8441 0.8440 0.8439 0.8438
1681.000000 0.8436 0.8430 0.8424 0.8415 0.8406
1676.000000 0.8397 0.8388 0.8375 0.8364 0.8353
1671.000000 0.8341 0.8328 0.8317 0.8304 0.8290
1666.000000 0.8275 0.8263 0.8249 0.8235 0.8220
1661.000000 0.8205 0.8190 0.8174 0.8158 0.8144
1656.000000 0.8128 0.8115 0.8100 0.8085 0.8068
1651.000000 0.8051 0.8033 0.8015 0.8001 0.7987
1646.000000 0.7972 0.7958 0.7940 0.7919 0.7901
1641.000000 0.7881 0.7858 0.7838 0.7817 0.7794
1636.000000 0.7769 0.7745 0.7721 0.7699 0.7675
1631.000000 0.7654 0.7632 0.7610 0.7588 0.7565
1626.000000 0.7550 0.7535 0.7522 0.7519 0.7519
1621.000000 0.7522 0.7533 0.7543 0.7558 0.7595
1616.000000 0.7672 0.7715 0.7758 0.7797 0.7832
1611.000000 0.7867 0.7901 0.7939 0.7975 0.8011
1606.000000 0.8035 0.8058 0.8080 0.8101 0.8124
1601.000000 0.8147 0.8169 0.8194 0.8216 0.8233
1596.000000 0.8251 0.8268 0.8285 0.8302 0.8316
1591.000000 0.8330 0.8343 0.8357 0.8371 0.8384
1586.000000 0.8396 0.8407 0.8418 0.8428 0.8441
1581.000000 0.8451 0.8459 0.8467 0.8473 0.8477
1576.000000 0.8482 0.8486 0.8490 0.8492 0.8494
1571.000000 0.8497 0.8499 0.8500 0.8500 0.8500
1566.000000 0.8500 0.8500 0.8503 0.8506 0.8509
1561.000000 0.8512 0.8515 0.8518 0.8531 0.8543
1556.000000 0.8555 0.8566 0.8574 0.8583 0.8591
1551.000000 0.8598 0.8605 0.8612 0.8618 0.8624
1546.000000 0.8631 0.8636 0.8641 0.8645 0.8665
1541.000000 0.8647 0.8644 0.8631 0.8616 0.8600
1536.000000 0.8583 0.8562 0.8545 0.8528 0.8513
1531.000000 0.8497 0.8481 0.8470 0.8458 0.8446
1526.000000 0.8435 0.8423 0.8411 0.8399 0.8387
1521.000000 0.8374 0.8362 0.8350 0.8338 0.8327
1516.000000 0.8315 0.8303 0.8289 0.8274 0.8259
1511.000000 0.8244 0.8228 0.8213 0.8187 0.8160
1506.000000 0.8133 0.8107 0.8080 0.8051 0.8015
1501.000000 0.7978 0.7941 0.7905 0.7869 0.7837
1496.000000 0.7805 0.7772 0.7736 0.7698 0.7656
1491.000000 0.7611 0.7536 0.7411 0.7289 0.7101
1486.000000 0.6824 0.6547 0.6270 0.5994 0.5739
1481.000000 0.5712 0.5704 0.5704 0.5750 0.5808
1476.000000 0.5867 0.5925 0.5984 0.6036 0.6054
1471.000000 0.6056 0.6042 0.5636 0.5230 0.4824
1466.000000 0.4418 0.4012 0.3736 0.3747 0.3740
1461.000000 0.3921 0.4101 0.4281 0.4462 0.4642
1456.000000 0.4823 0.5003 0.5184 0.5364 0.5575
1451.000000 0.5557 0.5340 0.5098 0.4856 0.4614
1446.000000 0.4372 0.4203 0.4221 0.4248 0.4397
1441.000000 0.4883 0.5370 0.5856 0.6249 0.6375
1436.000000 0.6494 0.6601 0.6718 0.6836 0.6897
1431.000000 0.6958 0.7010 0.7061 0.7128 0.7148
1426.000000 0.7165 0.7174 0.7175 0.7175 0.7154
1421.000000 0.7132 0.7092 0.7021 0.6861 0.6544
1416.000000 0.6225 0.5907 0.5589 0.5270 0.5045
1411.000000 0.5049 0.5137 0.5297 0.5458 0.5618
1406.000000 0.5779 0.5864 0.5864 0.5864 0.5434
1401.000000 0.4988 0.4542 0.4096 0.3650 0.3106
1396.000000 0.3020 0.2980 0.2964 0.2941 0.3053
1391.000000 0.3482 0.3910 0.4340 0.4823 0.4910
1386.000000 0.5180 0.5335 0.5494 0.5653 0.5812
1381.000000 0.5971 0.6130 0.6289 0.6447 0.6504
1376.000000 0.6487 0.6487 0.6362 0.5688 0.5015
1371.000000 0.4495 0.4484 0.4708 0.5233 0.5759
1366.000000 0.6285 0.6605 0.6796 0.6985 0.7086
1361.000000 0.7164 0.7241 0.7332 0.7394 0.7450
1356.000000 0.7507 0.7571 0.7601 0.7632 0.7664
1351.000000 0.7691 0.7711 0.7733 0.7749 0.7765
1346.000000 0.7771 0.7778 0.7784 0.7788 0.7792
1341.000000 0.7796 0.7800 0.7804 0.7806 0.7808
1336.000000 0.7808 0.7810 0.7808 0.7808 0.7808
1331.000000 0.7807 0.7800 0.7791 0.7783 0.7775
1326.000000 0.7764 0.7750 0.7736 0.7721 0.7705
1321.000000 0.7674 0.7644 0.7612 0.7580 0.7541
1316.000000 0.7501 0.7462 0.7415 0.7369 0.7288
1311.000000 0.7176 0.7010 0.6858 0.6681 0.6441
1306.000000 0.6204 0.6004 0.5856 0.5552 0.5310
1301.000000 0.5159 0.4830 0.4181 0.3532 0.3155
1296.000000 0.3075 0.2952 0.2777 0.2602 0.2426
1291.000000 0.2251 0.2107 0.2121 0.2115 0.2192
1286.000000 0.2300 0.2364 0.2378 0.2400 0.2376
1281.000000 0.2357 0.2318 0.2273 0.2270 0.2266
1276.000000 0.2305 0.2412 0.2593 0.2775 0.2956
1271.000000 0.3138 0.3322 0.3353 0.3346 0.3339
1266.000000 0.3309 0.3137 0.2956 0.2774 0.2593
1261.000000 0.2412 0.2230 0.2049 0.1867 0.1685
1256.000000 0.1505 0.1323 0.1142 0.0960 0.0779
1251.000000 0.0598 0.0416 0.0234 0.0188 0.0188
1246.000000 0.0188 0.0199 0.0237 0.0326 0.0456
1241.000000 0.0692 0.0928 0.1163 0.1246 0.1246
1236.000000 0.1233 0.1095 0.0958 0.0820 0.0682
1231.000000 0.0544 0.0407 0.0328 0.0301 0.0291
1226.000000 0.0286 0.0286 0.0286 0.0300 0.0310
1221.000000 0.0327 0.0344 0.0523 0.0725 0.0892
1216.000000 0.1036 0.1167 0.1276 0.1400 0.1683
1211.000000 0.2029 0.2419 0.2808 0.3197 0.3543
1206.000000 0.3805 0.3927 0.4084 0.4260 0.4444
1201.000000 0.4615 0.4793 0.4939 0.5060 0.5164
1196.000000 0.5268 0.5376 0.5454 0.5527 0.5589
1191.000000 0.5641 0.5694 0.5746 0.5797 0.5845
1186.000000 0.5892 0.5942 0.5972 0.5992 0.6001
1181.000000 0.6004 0.5994 0.5997 0.5983 0.5949
1176.000000 0.5879 0.5774 0.5668 0.5562 0.5465
1171.000000 0.5306 0.4954 0.4603 0.4251 0.3900
1166.000000 0.3548 0.3212 0.3165 0.3156 0.3154
1161.000000 0.3198 0.3357 0.3578 0.3800 0.4021
1156.000000 0.4242 0.4462 0.4684 0.4924 0.5204
1151.000000 0.5337 0.5425 0.5500 0.5562 0.5608
1146.000000 0.5646 0.5683 0.5726 0.5766 0.5792
1141.000000 0.5818 0.5846 0.5867 0.5885 0.5902
1136.000000 0.5919 0.5928 0.5937 0.5946 0.5952
1131.000000 0.5956 0.5959 0.5962 0.5962 0.5960
1126.000000 0.5955 0.5944 0.5932 0.5916 0.5890
1121.000000 0.5865 0.5839 0.5803 0.5762 0.5724
1116.000000 0.5666 0.5607 0.5536 0.5446 0.5341
1111.000000 0.5214 0.5093 0.4973 0.4762 0.4167
1106.000000 0.3873 0.3579 0.3284 0.2991 0.2697
1101.000000 0.2403 0.2109 0.1818 0.1786 0.1758
1096.000000 0.1754 0.1767 0.1853 0.2039 0.2194
1091.000000 0.2348 0.2502 0.2657 0.2811 0.2957
1086.000000 0.2971 0.2992 0.2959 0.2939 0.2893
1081.000000 0.2818 0.2709 0.2517 0.2326 0.2134
1076.000000 0.1944 0.1754 0.1563 0.1372 0.1182
1071.000000 0.0991 0.0800 0.0609 0.0419 0.0228
1066.000000 0.0163 0.0127 0.0099 0.0085 0.0072
1061.000000 0.0061 0.0054 0.0047 0.0042 0.0039
1056.000000 0.0035 0.0037 0.0038 0.0044 0.0054
1051.000000 0.0066 0.0080 0.0090 0.0098 0.0097
1046.000000 0.0095 0.0090 0.0084 0.0078 0.0072
1041.000000 0.0067 0.0061 0.0056 0.0052 0.0047
1036.000000 0.0043 0.0039 0.0037 0.0035 0.0034
1031.000000 0.0032 0.0031 0.0031 0.0030 0.0030
1026.000000 0.0030 0.0030 0.0030 0.0030 0.0030
1021.000000 0.0032 0.0033 0.0042 0.0063 0.0097
1016.000000 0.0159 0.0212 0.0258 0.0296 0.0312
1011.000000 0.0325 0.0334 0.0318 0.0291 0.0251
1006.000000 0.0206 0.0162 0.0145 0.0137 0.0140
1001.000000 0.0383 0.1214 0.2044 0.2875 0.3021
996.000000 0.3080 0.3142 0.3229 0.3334 0.3414
991.000000 0.3498 0.3626 0.3598 0.3593 0.3564
986.000000 0.3477 0.3373 0.3246 0.3000 0.2778
981.000000 0.2628 0.2585 0.2554 0.2533 0.2501
976.000000 0.2466 0.2417 0.2363 0.2123 0.1879
971.000000 0.1635 0.1392 0.1150 0.0907 0.0663
966.000000 0.0443 0.0352 0.0294 0.0249 0.0198
961.000000 0.0170 0.0153 0.0142 0.0133 0.0120
956.000000 0.0128 0.0127 0.0127 0.0127 0.0130
951.000000 0.0135 0.0142 0.0155 0.0169 0.0209
946.000000 0.0251 0.0293 0.0338 0.0383 0.0430
941.000000 0.0477 0.0524 0.0584 0.0650 0.0716
936.000000 0.0790 0.0866 0.1010 0.1211 0.1553
931.000000 0.1754 0.1878 0.2393 0.2857 0.3321
926.000000 0.3784 0.4190 0.4351 0.4525 0.5137
921.000000 0.5334 0.5719 0.5948 0.6116 0.6234
916.000000 0.6345 0.6465 0.6584 0.6664 0.6742
911.000000 0.6818 0.6883 0.6947 0.7022 0.7101
906.000000 0.7214 0.7321 0.7378 0.7436 0.7493
901.000000 0.7536 0.7578 0.7615 0.7646 0.7676
896.000000 0.7707 0.7738 0.7765 0.7792 0.7818
891.000000 0.7846 0.7871 0.7894 0.7915 0.7937
886.000000 0.7958 0.7978 0.8000 0.8017 0.8035
881.000000 0.8053 0.8068 0.8085 0.8101 0.8115
876.000000 0.8130 0.8144 0.8158 0.8169 0.8176
871.000000 0.8184 0.8191 0.8197 0.8203 0.8208
866.000000 0.8214 0.8220 0.8225 0.8231 0.8236
861.000000 0.8241 0.8246 0.8250 0.8250 0.8250
856.000000 0.8250 0.8250 0.8250 0.8250 0.8247
851.000000 0.8242 0.8236 0.8231 0.8225 0.8210
846.000000 0.8192 0.8174 0.8132 0.8090 0.8048
841.000000 0.7999 0.7950 0.7901 0.7849 0.7788
836.000000 0.7725 0.7664 0.7598 0.7521 0.7447
831.000000 0.7332 0.7190 0.6919 0.6733 0.6518
826.000000 0.6168 0.6029 0.5738 0.5426 0.5115
821.000000 0.4804 0.4493 0.4182 0.3871 0.3559
816.000000 0.3270 0.3127 0.3011 0.2894 0.2784
811.000000 0.2684 0.2576 0.2444 0.2281 0.2127
806.000000 0.1984 0.1820 0.1604 0.1350 0.1287
801.000000 0.1210 0.1105 0.1012 0.0953 0.0920
796.000000 0.0887 0.0861 0.0843 0.0822 0.0819
791.000000 0.0815 0.0828 0.0888 0.0988 0.1075
786.000000 0.1159 0.1259 0.1365 0.1570 0.1701
781.000000 0.1781 0.1804 0.1814 0.1829 0.1871
776.000000 0.1954 0.2093 0.2364 0.2582 0.2994
771.000000 0.3405 0.3816 0.4229 0.4640 0.5052
766.000000 0.5462 0.5643 0.5803 0.5921 0.6112
761.000000 0.6256 0.6352 0.6425 0.6493 0.6571
756.000000 0.6594 0.6598 0.6614 0.6611 0.6586
751.000000 0.6506 0.6280 0.5946 0.5612 0.5278
746.000000 0.4948 0.4890 0.4886 0.4882 0.5132
741.000000 0.5631 0.6130 0.6383 0.6481 0.6547
736.000000 0.6614 0.6811 0.6943 0.7018 0.7084
731.000000 0.7150 0.7191 0.7208 0.7218 0.7226
726.000000 0.7226 0.7226 0.7221 0.7215 0.7199
721.000000 0.7181 0.7141 0.7101 0.6996 0.6832
716.000000 0.6630 0.6401 0.6172 0.5943 0.5714
711.000000 0.5485 0.5273 0.5191 0.5117 0.5042
706.000000 0.4962 0.4880 0.4831 0.4802 0.4788
701.000000 0.4782 0.4774 0.4778 0.4796 0.4819
696.000000 0.4862 0.4921 0.4983 0.5051 0.5124
691.000000 0.5201 0.5301 0.5455 0.5608 0.5760
686.000000 0.5915 0.6068 0.6222 0.6375 0.6528
681.000000 0.6682 0.6835 0.6988 0.7111 0.7189
676.000000 0.7256 0.7307 0.7358 0.7401 0.7444
671.000000 0.7476 0.7505 0.7518 0.7528 0.7531
666.000000 0.7534 0.7534 0.7540 0.7538 0.7532
661.000000 0.7525 0.7493 0.7460 0.7415 0.7369
656.000000 0.7335 0.7304 0.7275 0.7249 0.7234
651.000000 0.7230 0.7228 0.7238 0.7246 0.7255
646.000000 0.7262 0.7268 0.7275 0.7281 0.7286
641.000000 0.7292 0.7298 0.7299 0.7299 0.7299
636.000000 0.7299 0.7299 0.7299 0.7299 0.7297
631.000000 0.7294 0.7291 0.7287 0.7284 0.7278
626.000000 0.7272 0.7267 0.7261 0.7256 0.7253
621.000000 0.7251 0.7248 0.7245 0.7242 0.7240
616.000000 0.7237 0.7234 0.7231 0.7228 0.7226
611.000000 0.7226 0.7226 0.7226 0.7226 0.7226
606.000000 0.7225 0.7217 0.7208 0.7201 0.7190
601.000000 0.7180 0.7175 0.7171 0.7165 0.7161
596.000000 0.7158 0.7154 0.7151 0.7149 0.7147
591.000000 0.7144 0.7142 0.7138 0.7133 0.7128
586.000000 0.7122 0.7118 0.7112 0.7108 0.7103
581.000000 0.7096 0.7089 0.7081 0.7074 0.7065
576.000000 0.7058 0.7050 0.7041 0.7032 0.7021
571.000000 0.7012 0.7004 0.6993 0.6980 0.6968
566.000000 0.6955 0.6943 0.6930 0.6911 0.6892
561.000000 0.6874 0.6855 0.6836 0.6817 0.6798
556.000000 0.6776 0.6749 0.6721 0.6667 0.6603
551.000000 0.6490 0.6389 0.6288 0.6168 0.6072
546.000000 0.5995 0.5910 0.5707 0.5528 0.5348
541.000000 0.5169 0.4989 0.4809 0.4630 0.4543
536.000000 0.4475 0.4393 0.4297 0.4157 0.4079
531.000000 0.4026 0.3980 0.3947 0.3925 0.3900
526.000000 0.3890 0.3882 0.3880 0.3880 0.3892
521.000000 0.3908 0.3944 0.3979 0.4012 0.4041
516.000000 0.4070 0.4100 0.4120 0.4139 0.4159
511.000000 0.4177 0.4195 0.4212 0.4231 0.4245
506.000000 0.4258 0.4270 0.4282 0.4306 0.4297
501.000000 0.4299 0.4287 0.4271 0.4251 0.4231
496.000000 0.4218 0.4204 0.4190 0.4185 0.4182
491.000000 0.4182 0.4182 0.4188 0.4222 0.4249
486.000000 0.4310 0.4379 0.4430 0.4480 0.4531
481.000000 0.4600 0.4668 0.4752 0.4841 0.4915
476.000000 0.4986 0.5054 0.5122 0.5160 0.5200
471.000000 0.5239 0.5264 0.5289 0.5314 0.5339
466.000000 0.5355 0.5370 0.5384 0.5398 0.5412
461.000000 0.5427 0.5437 0.5447 0.5457 0.5467
456.000000 0.5476 0.5486 0.5496 0.5506 0.5516
451.000000 0.5525 0.5535 0.5545 0.5555 0.5564
446.000000 0.5574 0.5582 0.5588 0.5595 0.5602
441.000000 0.5608 0.5615 0.5622 0.5628 0.5635
436.000000 0.5642 0.5651 0.5660 0.5669 0.5678
431.000000 0.5687 0.5696 0.5706 0.5712 0.5720
426.000000 0.5727 0.5735 0.5742 0.5747 0.5750
421.000000 0.5753 0.5756 0.5759 0.5762 0.5765
416.000000 0.5791 0.5771 0.5774 0.5777 0.5780
411.000000 0.5783 0.5786 0.5789 0.5792 0.5795
406.000000 0.5798 0.5801 0.5805 0.5808 0.5810
401.000000 0.5810 0.5812 0.5814 0.5815 0.5816
396.000000 0.5818 0.5819
##END=
