##TITLE=TEREPHTHALIC ACID, DISODIUM SALT
##JCAMP-DX=4.24
##DATA TYPE=INFRARED SPECTRUM
##CLASS=COBLENTZ
##ORIGIN=TENNESSEE EASTMAN COMPANY, RESEARCH LABORATORIES
##OWNER=COBLENTZ SOCIETY
Collection (C) 2018 copyright by the U.S. Secretary of Commerce
on behalf of the United States of America. All rights reserved.
##DATE=Not specified, most likely prior to 1970
##MOLFORM=C8 H4 O4 Na2
##SOURCE REFERENCE=COBLENTZ NO. 2190
##$NIST ID=B6002190
##$NIST SOURCE=COBLENTZ
##$NIST IMAGE=cob2190
##SPECTROMETER/DATA SYSTEM=Not specified, most likely a prism, grating, or hybrid spectrometer.
##STATE=SOLID (KBr PELLET)
##SAMPLING PROCEDURE=TRANSMISSION
##RESOLUTION=4
##DATA PROCESSING=DIGITIZED BY NIST FROM HARD COPY
##XUNITS=MICROMETERS
##YUNITS=TRANSMITTANCE
##XFACTOR=1.000000
##YFACTOR=1
##DELTAX=000.006645
##FIRSTX=2.007
##LASTX=15.9932
##FIRSTY=0.43
##MAXX=15.9932
##MINX=2.007
##MAXY=0.966
##MINY=0.008
##NPOINTS=2106
##XYDATA=(X++(Y..Y))
2.007000 0.4300 0.4330 0.4350 0.4360 0.4400
2.040238 0.4410 0.4430 0.4480 0.4510 0.4530
2.073000 0.4560 0.4600 0.4630 0.4700 0.4800
2.106238 0.4910 0.4950 0.4960 0.4980 0.5000
2.140000 0.5030 0.5060 0.5080 0.5100 0.5110
2.173238 0.5130 0.5150 0.5150 0.5180 0.5230
2.206000 0.5300 0.5310 0.5360 0.5380 0.5380
2.239238 0.5400 0.5450 0.5480 0.5500 0.5530
2.272000 0.5550 0.5580 0.5600 0.5630 0.5650
2.305238 0.5680 0.5700 0.5730 0.5750 0.5760
2.339000 0.5760 0.5780 0.5800 0.5810 0.5830
2.372238 0.5850 0.5860 0.5880 0.5900 0.5910
2.405000 0.5930 0.5950 0.5960 0.5980 0.6000
2.438238 0.6010 0.6050 0.6060 0.6100 0.6110
2.472000 0.6130 0.6160 0.6180 0.6180 0.6200
2.505238 0.6210 0.6230 0.6230 0.6250 0.6260
2.538000 0.6280 0.6300 0.6310 0.6310 0.6330
2.571238 0.6350 0.6350 0.6360 0.6380 0.6400
2.605000 0.6410 0.6410 0.6450 0.6460 0.6500
2.638238 0.6510 0.6530 0.6560 0.6580 0.6600
2.671000 0.6600 0.6610 0.6610 0.6630 0.6630
2.704238 0.6630 0.6630 0.6630 0.6610 0.6560
2.738000 0.6500 0.6430 0.6350 0.6280 0.6210
2.771238 0.6150 0.6080 0.6030 0.5980 0.5950
2.804000 0.5900 0.5850 0.5800 0.5750 0.5710
2.837238 0.5660 0.5630 0.5560 0.5510 0.5430
2.870000 0.5400 0.5380 0.5330 0.5300 0.5300
2.903238 0.5310 0.5450 0.5560 0.5650 0.5710
2.937000 0.5780 0.5850 0.5900 0.5960 0.6030
2.970238 0.6110 0.6200 0.6250 0.6260 0.6330
3.003000 0.6350 0.6430 0.6480 0.6550 0.6600
3.036238 0.6650 0.6680 0.6730 0.6760 0.6800
3.070000 0.6830 0.6860 0.6880 0.6900 0.6930
3.103238 0.6950 0.6960 0.7000 0.7030 0.7060
3.136000 0.7110 0.7150 0.7180 0.7210 0.7250
3.169238 0.7260 0.7300 0.7310 0.7330 0.7360
3.203000 0.7380 0.7380 0.7380 0.7400 0.7400
3.236238 0.7400 0.7380 0.7380 0.7330 0.7280
3.269000 0.7300 0.7430 0.7500 0.7580 0.7610
3.302238 0.7630 0.7650 0.7630 0.7610 0.7580
3.336000 0.7560 0.7560 0.7530 0.7530 0.7530
3.369238 0.7530 0.7550 0.7560 0.7560 0.7580
3.402000 0.7580 0.7600 0.7660 0.7750 0.7850
3.435238 0.7930 0.7980 0.8030 0.8060 0.8110
3.468000 0.8150 0.8200 0.8210 0.8230 0.8260
3.501238 0.8300 0.8380 0.8400 0.8430 0.8430
3.535000 0.8430 0.8450 0.8450 0.8450 0.8460
3.568238 0.8460 0.8480 0.8480 0.8500 0.8500
3.601000 0.8510 0.8510 0.8530 0.8530 0.8530
3.634238 0.8530 0.8550 0.8550 0.8610 0.8650
3.668000 0.8680 0.8710 0.8730 0.8750 0.8750
3.701238 0.8760 0.8760 0.8780 0.8800 0.8800
3.734000 0.8800 0.8800 0.8800 0.8800 0.8810
3.767238 0.8830 0.8860 0.8900 0.8910 0.8930
3.801000 0.8950 0.8960 0.8960 0.8980 0.9000
3.834238 0.9010 0.9030 0.9050 0.9060 0.9080
3.867000 0.9100 0.9110 0.9110 0.9110 0.9110
3.900238 0.9110 0.9110 0.9110 0.9110 0.9110
3.934000 0.9110 0.9110 0.9110 0.9110 0.9130
3.967238 0.9130 0.9130 0.9130 0.9150 0.9150
4.000000 0.9150 0.9150 0.9150 0.9160 0.9160
4.033238 0.9200 0.9210 0.9250 0.9280 0.9300
4.066000 0.9330 0.9380 0.9380 0.9380 0.9380
4.099238 0.9360 0.9330 0.9330 0.9330 0.9330
4.133000 0.9330 0.9350 0.9360 0.9360 0.9380
4.166238 0.9400 0.9410 0.9410 0.9430 0.9450
4.199000 0.9500 0.9500 0.9500 0.9500 0.9430
4.232238 0.9380 0.9330 0.9300 0.9280 0.9280
4.266000 0.9300 0.9310 0.9310 0.9310 0.9310
4.299238 0.9310 0.9310 0.9330 0.9400 0.9450
4.332000 0.9480 0.9530 0.9530 0.9550 0.9550
4.365238 0.9550 0.9550 0.9550 0.9560 0.9560
4.399000 0.9560 0.9560 0.9560 0.9560 0.9560
4.432238 0.9560 0.9560 0.9560 0.9560 0.9560
4.465000 0.9560 0.9560 0.9560 0.9560 0.9580
4.498238 0.9580 0.9580 0.9580 0.9580 0.9580
4.532000 0.9580 0.9580 0.9560 0.9560 0.9550
4.565238 0.9550 0.9550 0.9550 0.9560 0.9560
4.598000 0.9560 0.9560 0.9560 0.9560 0.9560
4.631238 0.9560 0.9560 0.9550 0.9550 0.9550
4.664000 0.9530 0.9530 0.9530 0.9530 0.9530
4.697238 0.9530 0.9550 0.9550 0.9550 0.9550
4.731000 0.9550 0.9550 0.9550 0.9550 0.9550
4.764238 0.9550 0.9550 0.9550 0.9550 0.9550
4.797000 0.9550 0.9550 0.9550 0.9550 0.9550
4.830238 0.9550 0.9530 0.9510 0.9500 0.9480
4.864000 0.9480 0.9500 0.9500 0.9510 0.9530
4.897238 0.9530 0.9530 0.9530 0.9530 0.9530
4.930000 0.9530 0.9530 0.9530 0.9530 0.9550
4.963238 0.9550 0.9550 0.9550 0.9550 0.9550
4.997000 0.9550 0.9550 0.9550 0.9550 0.9530
5.030238 0.9530 0.9510 0.9500 0.9480 0.9380
5.063000 0.9310 0.9160 0.9010 0.8880 0.8860
5.096238 0.8880 0.9010 0.9100 0.9230 0.9310
5.130000 0.9360 0.9380 0.9400 0.9400 0.9410
5.163238 0.9430 0.9430 0.9450 0.9460 0.9480
5.196000 0.9500 0.9500 0.9500 0.9500 0.9500
5.229238 0.9510 0.9510 0.9510 0.9530 0.9550
5.262000 0.9550 0.9550 0.9550 0.9550 0.9560
5.295238 0.9580 0.9580 0.9560 0.9560 0.9550
5.329000 0.9530 0.9530 0.9510 0.9480 0.9460
5.362238 0.9460 0.9460 0.9460 0.9460 0.9460
5.395000 0.9460 0.9450 0.9430 0.9380 0.9360
5.428238 0.9360 0.9380 0.9400 0.9400 0.9400
5.462000 0.9400 0.9400 0.9400 0.9400 0.9400
5.495238 0.9400 0.9380 0.9380 0.9380 0.9380
5.528000 0.9380 0.9380 0.9380 0.9360 0.9360
5.561238 0.9350 0.9310 0.9300 0.9300 0.9280
5.595000 0.9250 0.9210 0.9180 0.9160 0.9130
5.628238 0.9100 0.9050 0.9000 0.8980 0.8960
5.661000 0.8950 0.8880 0.8810 0.8730 0.8600
5.694238 0.8460 0.8410 0.8330 0.8310 0.8260
5.728000 0.8250 0.8210 0.8200 0.8200 0.8200
5.761238 0.8200 0.8200 0.8210 0.8250 0.8210
5.794000 0.8180 0.8150 0.8110 0.8060 0.8010
5.827238 0.8000 0.7960 0.7950 0.7900 0.7830
5.860000 0.7750 0.7650 0.7560 0.7450 0.7350
5.893238 0.7300 0.7350 0.7400 0.7430 0.7450
5.927000 0.7480 0.7480 0.7500 0.7510 0.7530
5.960238 0.7530 0.7560 0.7560 0.7560 0.7550
5.993000 0.7550 0.7510 0.7480 0.7450 0.7410
6.026238 0.7360 0.7280 0.7180 0.7050 0.6850
6.060000 0.6580 0.6480 0.6480 0.6480 0.6500
6.093238 0.6510 0.6550 0.6580 0.6580 0.6530
6.126000 0.6510 0.6480 0.6410 0.6260 0.6080
6.159238 0.5880 0.5680 0.5480 0.5300 0.5150
6.193000 0.5060 0.4930 0.4750 0.4530 0.4250
6.226238 0.3930 0.3560 0.3150 0.2700 0.2330
6.259000 0.1930 0.1550 0.1200 0.0880 0.0610
6.292238 0.0400 0.0280 0.0250 0.0210 0.0180
6.326000 0.0150 0.0150 0.0130 0.0110 0.0110
6.359238 0.0100 0.0080 0.0080 0.0080 0.0080
6.392000 0.0100 0.0100 0.0100 0.0110 0.0110
6.425238 0.0110 0.0110 0.0130 0.0180 0.0260
6.458000 0.0380 0.0510 0.0680 0.0850 0.1050
6.491238 0.1250 0.1460 0.1660 0.1860 0.2060
6.525000 0.2260 0.2430 0.2600 0.2710 0.2950
6.558238 0.3110 0.3280 0.3400 0.3410 0.3400
6.591000 0.3260 0.3130 0.3060 0.3010 0.3060
6.624238 0.3330 0.3680 0.4000 0.4180 0.4580
6.658000 0.5100 0.5330 0.5450 0.5510 0.5630
6.691238 0.5780 0.5900 0.6000 0.6000 0.6030
6.724000 0.6050 0.6060 0.6060 0.6030 0.5960
6.757238 0.5930 0.5860 0.5860 0.5860 0.5860
6.791000 0.5860 0.5810 0.5760 0.5650 0.5560
6.824238 0.5480 0.5330 0.5130 0.4980 0.4860
6.857000 0.4800 0.4780 0.4780 0.4780 0.4800
6.890238 0.4830 0.4850 0.4860 0.4860 0.4850
6.924000 0.4760 0.4680 0.4610 0.4530 0.4430
6.957238 0.4280 0.4100 0.3900 0.3700 0.3500
6.990000 0.3300 0.3080 0.2830 0.2560 0.2280
7.023238 0.1950 0.1600 0.1180 0.0910 0.0680
7.056000 0.0510 0.0380 0.0300 0.0250 0.0180
7.089238 0.0150 0.0150 0.0130 0.0110 0.0110
7.123000 0.0110 0.0110 0.0110 0.0130 0.0130
7.156238 0.0130 0.0150 0.0150 0.0150 0.0160
7.189000 0.0180 0.0210 0.0250 0.0260 0.0300
7.222238 0.0360 0.0480 0.0610 0.0760 0.0950
7.256000 0.1130 0.1350 0.1560 0.1780 0.1910
7.289238 0.1930 0.1960 0.1960 0.1980 0.2000
7.322000 0.2030 0.2130 0.2260 0.2410 0.2600
7.355238 0.2800 0.3030 0.3280 0.3550 0.3850
7.389000 0.4160 0.4430 0.4660 0.4860 0.5060
7.422238 0.5260 0.5430 0.5610 0.5780 0.5950
7.455000 0.6030 0.6110 0.6200 0.6310 0.6430
7.488238 0.6550 0.6680 0.6710 0.6710 0.6700
7.522000 0.6630 0.6350 0.5950 0.5460 0.4960
7.555238 0.4500 0.3930 0.3880 0.3880 0.3910
7.588000 0.4160 0.4360 0.4530 0.4700 0.4830
7.621238 0.4960 0.5060 0.5200 0.5300 0.5380
7.654000 0.5450 0.5500 0.5550 0.5580 0.5630
7.687238 0.5680 0.5750 0.5810 0.5880 0.5960
7.721000 0.6050 0.6130 0.6210 0.6310 0.6400
7.754238 0.6500 0.6600 0.6680 0.6780 0.6860
7.787000 0.6950 0.7030 0.7110 0.7180 0.7230
7.820238 0.7300 0.7330 0.7360 0.7380 0.7410
7.854000 0.7460 0.7480 0.7550 0.7580 0.7610
7.887238 0.7650 0.7680 0.7710 0.7780 0.7860
7.920000 0.7900 0.7910 0.7930 0.7930 0.7950
7.953238 0.7950 0.7960 0.7960 0.7980 0.7980
7.987000 0.7980 0.8010 0.8050 0.8100 0.8110
8.020238 0.8150 0.8180 0.8200 0.8230 0.8250
8.053000 0.8250 0.8260 0.8260 0.8280 0.8300
8.086238 0.8310 0.8310 0.8310 0.8310 0.8330
8.120000 0.8350 0.8350 0.8360 0.8360 0.8380
8.153238 0.8400 0.8410 0.8410 0.8430 0.8430
8.186000 0.8430 0.8430 0.8410 0.8400 0.8400
8.219238 0.8400 0.8380 0.8350 0.8350 0.8310
8.252000 0.8310 0.8350 0.8350 0.8380 0.8380
8.285238 0.8350 0.8150 0.8150 0.8250 0.8380
8.319000 0.8400 0.8380 0.8360 0.8360 0.8330
8.352238 0.8300 0.8280 0.8260 0.8260 0.8260
8.385000 0.8250 0.8250 0.8250 0.8250 0.8260
8.418238 0.8280 0.8280 0.8300 0.8310 0.8310
8.452000 0.8330 0.8330 0.8330 0.8330 0.8330
8.485238 0.8330 0.8330 0.8330 0.8310 0.8310
8.518000 0.8310 0.8310 0.8300 0.8300 0.8300
8.551238 0.8310 0.8310 0.8330 0.8330 0.8330
8.585000 0.8330 0.8330 0.8310 0.8300 0.8250
8.618238 0.8210 0.8200 0.8130 0.8060 0.8000
8.651000 0.7950 0.7850 0.7830 0.7810 0.7830
8.684238 0.7860 0.7960 0.8060 0.8160 0.8230
8.718000 0.8280 0.8310 0.8310 0.8350 0.8360
8.751238 0.8360 0.8380 0.8380 0.8380 0.8380
8.784000 0.8360 0.8360 0.8330 0.8280 0.8250
8.817238 0.8210 0.8200 0.8160 0.8150 0.8110
8.850000 0.8050 0.7960 0.7900 0.7810 0.7710
8.883238 0.7580 0.7500 0.7430 0.7400 0.7360
8.917000 0.7360 0.7350 0.7330 0.7300 0.7300
8.950238 0.7280 0.7230 0.7180 0.7100 0.7030
8.983000 0.7030 0.7000 0.6900 0.6810 0.6750
9.016238 0.6660 0.6550 0.6460 0.6410 0.6350
9.050000 0.6330 0.6310 0.6310 0.6330 0.6380
9.083238 0.6480 0.6610 0.6730 0.6900 0.6980
9.116000 0.7080 0.7230 0.7330 0.7400 0.7430
9.149238 0.7460 0.7500 0.7550 0.7610 0.7750
9.183000 0.7910 0.7980 0.8050 0.8110 0.8160
9.216238 0.8210 0.8260 0.8300 0.8350 0.8380
9.249000 0.8400 0.8410 0.8430 0.8450 0.8450
9.282238 0.8450 0.8460 0.8460 0.8460 0.8460
9.316000 0.8460 0.8460 0.8460 0.8460 0.8460
9.349238 0.8460 0.8460 0.8460 0.8460 0.8460
9.382000 0.8460 0.8480 0.8480 0.8480 0.8500
9.415238 0.8510 0.8510 0.8550 0.8580 0.8610
9.449000 0.8630 0.8660 0.8710 0.8780 0.8810
9.482238 0.8830 0.8860 0.8880 0.8900 0.8900
9.515000 0.8910 0.8910 0.8900 0.8880 0.8860
9.548238 0.8850 0.8830 0.8800 0.8780 0.8780
9.581000 0.8780 0.8780 0.8780 0.8780 0.8780
9.614238 0.8780 0.8780 0.8780 0.8780 0.8780
9.648000 0.8780 0.8760 0.8710 0.8600 0.8500
9.681238 0.8400 0.8300 0.8130 0.7930 0.7650
9.714000 0.7330 0.6950 0.6380 0.5960 0.5430
9.747238 0.5360 0.5360 0.5460 0.6280 0.6860
9.781000 0.7310 0.7660 0.7910 0.8110 0.8250
9.814238 0.8350 0.8400 0.8460 0.8510 0.8580
9.847000 0.8660 0.8710 0.8730 0.8780 0.8810
9.880238 0.8860 0.8880 0.8880 0.8900 0.8900
9.914000 0.8900 0.8910 0.8910 0.8930 0.8930
9.947238 0.8950 0.8960 0.8980 0.8980 0.8980
9.980000 0.8980 0.8980 0.8980 0.8980 0.8980
10.013238 0.8980 0.8980 0.8980 0.8980 0.9000
10.047000 0.9000 0.9000 0.9010 0.9030 0.9030
10.080238 0.9050 0.9050 0.9050 0.9050 0.9030
10.113000 0.9030 0.9010 0.9010 0.9010 0.9030
10.146238 0.9030 0.9030 0.9030 0.9050 0.9050
10.179000 0.9050 0.9030 0.9000 0.8950 0.8860
10.212238 0.8680 0.8560 0.8560 0.8560 0.8600
10.246000 0.8680 0.8800 0.8900 0.8980 0.9050
10.279238 0.9100 0.9130 0.9150 0.9180 0.9200
10.312000 0.9210 0.9230 0.9250 0.9250 0.9250
10.345238 0.9250 0.9250 0.9250 0.9250 0.9250
10.379000 0.9250 0.9260 0.9260 0.9260 0.9280
10.412238 0.9280 0.9280 0.9300 0.9300 0.9310
10.445000 0.9310 0.9330 0.9330 0.9330 0.9350
10.478238 0.9350 0.9360 0.9360 0.9380 0.9380
10.512000 0.9400 0.9400 0.9400 0.9410 0.9430
10.545238 0.9430 0.9430 0.9430 0.9430 0.9430
10.578000 0.9430 0.9430 0.9430 0.9430 0.9430
10.611238 0.9430 0.9430 0.9450 0.9450 0.9450
10.645000 0.9450 0.9450 0.9450 0.9450 0.9450
10.678238 0.9460 0.9460 0.9480 0.9480 0.9500
10.711000 0.9500 0.9510 0.9510 0.9510 0.9530
10.744238 0.9530 0.9530 0.9550 0.9550 0.9550
10.777000 0.9550 0.9550 0.9550 0.9560 0.9560
10.810238 0.9560 0.9560 0.9560 0.9580 0.9580
10.844000 0.9580 0.9580 0.9580 0.9580 0.9580
10.877238 0.9580 0.9580 0.9580 0.9580 0.9580
10.910000 0.9580 0.9580 0.9600 0.9600 0.9600
10.943238 0.9600 0.9600 0.9600 0.9610 0.9610
10.977000 0.9610 0.9610 0.9610 0.9610 0.9610
11.010238 0.9610 0.9600 0.9550 0.9530 0.9480
11.043000 0.9430 0.9330 0.9230 0.9160 0.9060
11.076238 0.8980 0.8780 0.8500 0.8160 0.7760
11.110000 0.7310 0.6800 0.6250 0.5760 0.5350
11.143238 0.4930 0.4880 0.4900 0.4960 0.5250
11.176000 0.5900 0.6480 0.6910 0.7250 0.7510
11.209238 0.7800 0.8030 0.8200 0.8330 0.8400
11.243000 0.8460 0.8510 0.8530 0.8550 0.8560
11.276238 0.8560 0.8550 0.8500 0.8450 0.8310
11.309000 0.8230 0.8150 0.8060 0.8050 0.8060
11.342238 0.8250 0.8400 0.8530 0.8660 0.8780
11.375000 0.8930 0.9010 0.9060 0.9100 0.9130
11.408238 0.9160 0.9160 0.9180 0.9180 0.9180
11.442000 0.9180 0.9180 0.9160 0.9160 0.9160
11.475238 0.9160 0.9180 0.9250 0.9310 0.9380
11.508000 0.9460 0.9530 0.9560 0.9600 0.9610
11.541238 0.9630 0.9650 0.9650 0.9660 0.9660
11.575000 0.9660 0.9660 0.9650 0.9650 0.9650
11.608238 0.9630 0.9610 0.9600 0.9580 0.9560
11.641000 0.9550 0.9530 0.9530 0.9510 0.9500
11.674238 0.9400 0.9300 0.9230 0.9180 0.9080
11.708000 0.8980 0.8880 0.8800 0.8580 0.8560
11.741238 0.8560 0.8560 0.8580 0.8600 0.8660
11.774000 0.8710 0.8780 0.8830 0.8900 0.8930
11.807238 0.8980 0.9000 0.9000 0.9000 0.9000
11.841000 0.9000 0.8910 0.8850 0.8780 0.8710
11.874238 0.8600 0.8460 0.8350 0.8260 0.8180
11.907000 0.8110 0.8000 0.7810 0.7580 0.7330
11.940238 0.7080 0.6810 0.6560 0.6330 0.6060
11.973000 0.5750 0.5400 0.5000 0.4580 0.4160
12.006238 0.3730 0.3310 0.2900 0.2500 0.2150
12.040000 0.1830 0.1560 0.1360 0.1210 0.1080
12.073238 0.1000 0.0980 0.1000 0.1100 0.1380
12.106000 0.1700 0.2060 0.2450 0.2880 0.3330
12.139238 0.3800 0.4250 0.4710 0.5180 0.5610
12.173000 0.6010 0.6230 0.6450 0.6660 0.6900
12.206238 0.7110 0.7300 0.7480 0.7630 0.7750
12.239000 0.7860 0.7960 0.8080 0.8160 0.8250
12.272238 0.8280 0.8330 0.8400 0.8460 0.8530
12.306000 0.8580 0.8610 0.8650 0.8700 0.8760
12.339238 0.8800 0.8850 0.8910 0.8960 0.9010
12.372000 0.9030 0.9050 0.9100 0.9100 0.9130
12.405238 0.9130 0.9150 0.9160 0.9180 0.9180
12.439000 0.9200 0.9210 0.9210 0.9210 0.9210
12.472238 0.9230 0.9230 0.9250 0.9260 0.9280
12.505000 0.9280 0.9300 0.9300 0.9300 0.9300
12.538238 0.9310 0.9310 0.9310 0.9310 0.9330
12.571000 0.9350 0.9350 0.9350 0.9350 0.9360
12.604238 0.9380 0.9380 0.9380 0.9380 0.9380
12.638000 0.9380 0.9380 0.9380 0.9380 0.9380
12.671238 0.9380 0.9380 0.9380 0.9380 0.9380
12.704000 0.9380 0.9380 0.9380 0.9380 0.9380
12.737238 0.9380 0.9380 0.9380 0.9380 0.9380
12.771000 0.9360 0.9360 0.9350 0.9350 0.9330
12.804238 0.9310 0.9300 0.9280 0.9280 0.9280
12.837000 0.9280 0.9280 0.9280 0.9250 0.9210
12.870238 0.9200 0.9180 0.9180 0.9160 0.9150
12.904000 0.9130 0.9110 0.9100 0.9080 0.9010
12.937238 0.9010 0.8980 0.8960 0.8910 0.8860
12.970000 0.8780 0.8700 0.8600 0.8530 0.8480
13.003238 0.8410 0.8280 0.8080 0.7900 0.7750
13.037000 0.7610 0.7450 0.7230 0.6980 0.6630
13.070238 0.6180 0.5850 0.5480 0.5060 0.4650
13.103000 0.4310 0.4050 0.3900 0.3860 0.3860
13.136238 0.3880 0.3980 0.4080 0.4280 0.4450
13.169000 0.4600 0.4700 0.4700 0.4700 0.4680
13.202238 0.4530 0.4380 0.4150 0.3860 0.3560
13.236000 0.3230 0.2880 0.2530 0.2200 0.1900
13.269238 0.1600 0.1350 0.1100 0.0950 0.0800
13.302000 0.0700 0.0610 0.0510 0.0480 0.0430
13.335238 0.0400 0.0400 0.0410 0.0410 0.0430
13.369000 0.0500 0.0580 0.0710 0.0850 0.1010
13.402238 0.1200 0.1460 0.1750 0.2010 0.2300
13.435000 0.2560 0.2850 0.3130 0.3400 0.3650
13.468238 0.3900 0.4150 0.4380 0.4600 0.4800
13.502000 0.4960 0.5150 0.5330 0.5530 0.5700
13.535238 0.5880 0.6050 0.6210 0.6400 0.6600
13.568000 0.6780 0.6950 0.7050 0.7150 0.7260
13.601238 0.7400 0.7530 0.7660 0.7760 0.7810
13.635000 0.7880 0.7980 0.8050 0.8100 0.8130
13.668238 0.8150 0.8160 0.8200 0.8230 0.8250
13.701000 0.8280 0.8300 0.8330 0.8360 0.8400
13.734238 0.8410 0.8410 0.8450 0.8480 0.8510
13.767000 0.8530 0.8560 0.8580 0.8580 0.8600
13.800238 0.8610 0.8610 0.8630 0.8660 0.8680
13.834000 0.8710 0.8730 0.8760 0.8780 0.8780
13.867238 0.8800 0.8800 0.8830 0.8850 0.8850
13.900000 0.8860 0.8880 0.8880 0.8900 0.8900
13.933238 0.8910 0.8930 0.8950 0.8960 0.8980
13.967000 0.9000 0.9000 0.9000 0.9000 0.9010
14.000238 0.9030 0.9050 0.9050 0.9060 0.9060
14.033000 0.9060 0.9080 0.9080 0.9080 0.9080
14.066238 0.9080 0.9100 0.9100 0.9110 0.9110
14.100000 0.9110 0.9110 0.9110 0.9110 0.9130
14.133238 0.9130 0.9130 0.9130 0.9150 0.9150
14.166000 0.9150 0.9150 0.9150 0.9150 0.9160
14.199238 0.9160 0.9160 0.9160 0.9160 0.9160
14.233000 0.9160 0.9160 0.9160 0.9160 0.9160
14.266238 0.9160 0.9160 0.9150 0.9150 0.9130
14.299000 0.9130 0.9130 0.9130 0.9130 0.9110
14.332238 0.9100 0.9080 0.9060 0.9060 0.9060
14.365000 0.9030 0.9030 0.9030 0.9030 0.9030
14.398238 0.9010 0.9000 0.9000 0.8980 0.8980
14.432000 0.8960 0.8950 0.8910 0.8910 0.8900
14.465238 0.8900 0.8880 0.8880 0.8860 0.8860
14.498000 0.8850 0.8850 0.8830 0.8830 0.8830
14.531238 0.8810 0.8800 0.8780 0.8780 0.8760
14.565000 0.8760 0.8750 0.8730 0.8700 0.8700
14.598238 0.8680 0.8660 0.8650 0.8630 0.8630
14.631000 0.8610 0.8610 0.8610 0.8610 0.8610
14.664238 0.8580 0.8550 0.8550 0.8530 0.8530
14.698000 0.8530 0.8530 0.8510 0.8510 0.8510
14.731238 0.8500 0.8500 0.8500 0.8480 0.8480
14.764000 0.8480 0.8460 0.8450 0.8430 0.8410
14.797238 0.8410 0.8400 0.8400 0.8380 0.8380
14.831000 0.8380 0.8360 0.8360 0.8360 0.8350
14.864238 0.8350 0.8330 0.8310 0.8300 0.8280
14.897000 0.8230 0.8200 0.8160 0.8150 0.8110
14.930238 0.8100 0.8030 0.8010 0.8000 0.7980
14.963000 0.7930 0.7900 0.7880 0.7810 0.7780
14.996238 0.7760 0.7760 0.7760 0.7760 0.7760
15.030000 0.7760 0.7760 0.7760 0.7760 0.7760
15.063238 0.7750 0.7750 0.7730 0.7730 0.7730
15.096000 0.7710 0.7710 0.7700 0.7660 0.7650
15.129238 0.7610 0.7580 0.7560 0.7530 0.7500
15.163000 0.7460 0.7410 0.7410 0.7400 0.7350
15.196238 0.7350 0.7310 0.7300 0.7280 0.7260
15.229000 0.7260 0.7250 0.7250 0.7230 0.7200
15.262238 0.7200 0.7180 0.7150 0.7150 0.7110
15.296000 0.7100 0.7060 0.7050 0.7010 0.7000
15.329238 0.7000 0.6980 0.6960 0.6950 0.6930
15.362000 0.6910 0.6900 0.6860 0.6850 0.6850
15.395238 0.6830 0.6810 0.6800 0.6800 0.6780
15.429000 0.6760 0.6750 0.6750 0.6710 0.6700
15.462238 0.6680 0.6660 0.6650 0.6610 0.6610
15.495000 0.6600 0.6580 0.6530 0.6500 0.6480
15.528238 0.6480 0.6480 0.6460 0.6460 0.6460
15.561000 0.6460 0.6450 0.6450 0.6430 0.6400
15.594238 0.6400 0.6380 0.6380 0.6380 0.6360
15.628000 0.6360 0.6350 0.6330 0.6310 0.6300
15.661238 0.6280 0.6280 0.6260 0.6260 0.6250
15.694000 0.6230 0.6210 0.6200 0.6180 0.6180
15.727238 0.6160 0.6150 0.6150 0.6130 0.6100
15.761000 0.6100 0.6030 0.6010 0.6010 0.6000
15.794238 0.6000 0.5980 0.5950 0.5930 0.5930
15.827000 0.5930 0.5910 0.5900 0.5880 0.5850
15.860238 0.5830 0.5810 0.5810 0.5800 0.5800
15.894000 0.5780 0.5780 0.5780 0.5780 0.5760
15.927238 0.5750 0.5730 0.5710 0.5700 0.5680
15.960000 0.5660 0.5650 0.5650 0.5650 0.5630
15.993238 0.5630
##END=
