##TITLE=Benzanilide, N,4-di-tert-butyl-
##JCAMP-DX=4.24
##DATA TYPE=INFRARED SPECTRUM
##CLASS=COBLENTZ III
##ORIGIN=MONSANTO (J. FREEMAN)
##OWNER=Copyright (C) 1987 by the Coblentz Society
Collection (C) 2018 copyright by the U.S. Secretary of Commerce
on behalf of the United States of America. All rights reserved.
##DATE=1959/03/10
##NAMES=N-(tert-butyl)-N-(4-tert-butylphenyl)benzamide
BENZENAMIDE,N-PHENYL-N,4'-(2-METHYL-2-PROPYL)-
##MOLFORM=C21 H27 N O
##SOURCE REFERENCE=COBLENTZ NO. 9282
##$NIST ID=B6009282
##$NIST SOURCE=COBLENTZ
##$NIST IMAGE=cob9282
##SPECTROMETER/DATA SYSTEM=BECKMAN IR-4 (HYBRID PRISM-GRATING)
##INSTRUMENT PARAMETERS=NaCl PRISM
##STATE=SOLID (NUJOL MULL)
$$SPECTRAL CONTAMINATION DUE TO OIL AROUND 2900, 1450 CM^-^1
##SAMPLING PROCEDURE=TRANSMISSION
##RESOLUTION=2
##DATA PROCESSING=DIGITIZED BY COBLENTZ SOCIETY (BATCH II) FROM HARD COPY
##XUNITS=1/CM
##YUNITS=TRANSMITTANCE
##XFACTOR=1.0
##YFACTOR=1
##FIRSTX=626
##LASTX=4000
##FIRSTY=0.8322
##MAXX=4000
##MINX=626
##MAXY=0.9468
##MINY=0.0001
##NPOINTS=3375
##XYDATA=(X++(Y..Y))
626.000000 0.8322 0.8377 0.8436 0.8504 0.8573
631.000000 0.8644 0.8711 0.8771 0.8830 0.8881
636.000000 0.8933 0.8976 0.9019 0.9050 0.9080
641.000000 0.9107 0.9128 0.9149 0.9170 0.9187
646.000000 0.9205 0.9221 0.9235 0.9251 0.9270
651.000000 0.9272 0.9277 0.9270 0.9208 0.9091
656.000000 0.8877 0.8644 0.8423 0.8205 0.7996
661.000000 0.7875 0.7794 0.7989 0.8110 0.8212
666.000000 0.8326 0.8456 0.8595 0.8726 0.8849
671.000000 0.8953 0.9055 0.9150 0.9242 0.9332
676.000000 0.9391 0.9419 0.9439 0.9447 0.9468
681.000000 0.9427 0.9397 0.9357 0.9297 0.9212
686.000000 0.9078 0.8880 0.8591 0.8182 0.7547
691.000000 0.6860 0.6176 0.5494 0.4815 0.4414
696.000000 0.4380 0.4940 0.5585 0.6227 0.6868
701.000000 0.7506 0.7963 0.8340 0.8488 0.8571
706.000000 0.8611 0.8619 0.8558 0.8469 0.8365
711.000000 0.8251 0.8130 0.8009 0.7885 0.7728
716.000000 0.7583 0.7386 0.7150 0.6982 0.6863
721.000000 0.6834 0.6813 0.6881 0.6936 0.7036
726.000000 0.7208 0.7358 0.7460 0.7519 0.7567
731.000000 0.7591 0.7612 0.7625 0.7635 0.7643
736.000000 0.7650 0.7655 0.7659 0.7657 0.7642
741.000000 0.7622 0.7616 0.7661 0.7717 0.7777
746.000000 0.7797 0.7783 0.7783 0.7854 0.8062
751.000000 0.8403 0.8570 0.8661 0.8725 0.8760
756.000000 0.8772 0.8782 0.8806 0.8764 0.8743
761.000000 0.8709 0.8654 0.8597 0.8499 0.8382
766.000000 0.8250 0.8088 0.7903 0.7712 0.7439
771.000000 0.7069 0.6701 0.6415 0.6331 0.6301
776.000000 0.6642 0.6913 0.7183 0.7452 0.7744
781.000000 0.7927 0.8163 0.8308 0.8365 0.8380
786.000000 0.8401 0.8354 0.8275 0.8107 0.7848
791.000000 0.7589 0.7329 0.7133 0.7094 0.7301
796.000000 0.7578 0.7855 0.8142 0.8316 0.8426
801.000000 0.8524 0.8572 0.8604 0.8572 0.8548
806.000000 0.8511 0.8454 0.8383 0.8258 0.8038
811.000000 0.7775 0.7520 0.7202 0.6892 0.6329
816.000000 0.5805 0.5238 0.5244 0.5436 0.5845
821.000000 0.6012 0.6137 0.6246 0.6399 0.6625
826.000000 0.6907 0.7194 0.7332 0.7386 0.7397
831.000000 0.7183 0.6841 0.6500 0.6162 0.5974
836.000000 0.5924 0.5937 0.6702 0.7294 0.7658
841.000000 0.7967 0.8198 0.8299 0.8382 0.8495
846.000000 0.8607 0.8710 0.8873 0.8994 0.9065
851.000000 0.9110 0.9138 0.9160 0.9175 0.9189
856.000000 0.9201 0.9213 0.9225 0.9237 0.9250
861.000000 0.9260 0.9255 0.9270 0.9238 0.9226
866.000000 0.9210 0.9190 0.9166 0.9142 0.9112
871.000000 0.9076 0.9022 0.8977 0.8951 0.9035
876.000000 0.9083 0.9136 0.9186 0.9220 0.9231
881.000000 0.9229 0.9223 0.9216 0.9207 0.9197
886.000000 0.9191 0.9185 0.9203 0.9176 0.9172
891.000000 0.9168 0.9165 0.9161 0.9158 0.9155
896.000000 0.9153 0.9150 0.9146 0.9143 0.9131
901.000000 0.9118 0.9092 0.9059 0.9014 0.8952
906.000000 0.8829 0.8714 0.8602 0.8498 0.8414
911.000000 0.8426 0.8409 0.8533 0.8581 0.8595
916.000000 0.8570 0.8626 0.8443 0.8382 0.8356
921.000000 0.8342 0.8346 0.8322 0.8366 0.8398
926.000000 0.8445 0.8495 0.8548 0.8600 0.8641
931.000000 0.8675 0.8703 0.8718 0.8725 0.8725
936.000000 0.8767 0.8714 0.8696 0.8659 0.8605
941.000000 0.8530 0.8445 0.8360 0.8371 0.8348
946.000000 0.8465 0.8538 0.8596 0.8647 0.8656
951.000000 0.8649 0.8685 0.8621 0.8601 0.8578
956.000000 0.8550 0.8522 0.8500 0.8475 0.8420
961.000000 0.8350 0.8290 0.8191 0.8114 0.8112
966.000000 0.8145 0.8173 0.8234 0.8322 0.8419
971.000000 0.8523 0.8616 0.8694 0.8759 0.8807
976.000000 0.8835 0.8856 0.8874 0.8891 0.8904
981.000000 0.8916 0.8929 0.8940 0.8950 0.8958
986.000000 0.8962 0.8966 0.8970 0.8979 0.9008
991.000000 0.9028 0.9045 0.9051 0.9054 0.9055
996.000000 0.9053 0.9060 0.9047 0.9038 0.9029
1001.000000 0.9014 0.8995 0.8976 0.8950 0.8921
1006.000000 0.8887 0.8849 0.8802 0.8698 0.8599
1011.000000 0.8503 0.8348 0.8185 0.7926 0.7668
1016.000000 0.7430 0.7400 0.7410 0.7587 0.7720
1021.000000 0.7742 0.7647 0.7523 0.7399 0.7275
1026.000000 0.7197 0.7215 0.7477 0.7729 0.7979
1031.000000 0.8230 0.8469 0.8600 0.8699 0.8752
1036.000000 0.8786 0.8810 0.8826 0.8842 0.8850
1041.000000 0.8856 0.8863 0.8871 0.8917 0.8973
1046.000000 0.9002 0.9006 0.9009 0.9008 0.9052
1051.000000 0.9004 0.9001 0.8994 0.8988 0.8982
1056.000000 0.8976 0.8966 0.8955 0.8944 0.8933
1061.000000 0.8922 0.8904 0.8883 0.8863 0.8838
1066.000000 0.8797 0.8754 0.8698 0.8640 0.8564
1071.000000 0.8495 0.8438 0.8424 0.8426 0.8445
1076.000000 0.8517 0.8602 0.8695 0.8828 0.8877
1081.000000 0.8897 0.8908 0.8911 0.8912 0.8914
1086.000000 0.8907 0.8906 0.8903 0.8897 0.8886
1091.000000 0.8876 0.8861 0.8843 0.8821 0.8791
1096.000000 0.8762 0.8724 0.8684 0.8630 0.8551
1101.000000 0.8462 0.8350 0.8190 0.7826 0.7503
1106.000000 0.7180 0.6858 0.6536 0.6295 0.6265
1111.000000 0.6265 0.6298 0.6613 0.6826 0.7038
1116.000000 0.7249 0.7461 0.7672 0.7883 0.8105
1121.000000 0.8150 0.8167 0.8173 0.8175 0.8170
1126.000000 0.8160 0.8136 0.8106 0.8077 0.8041
1131.000000 0.7997 0.7936 0.7827 0.7651 0.7475
1136.000000 0.7301 0.7132 0.7086 0.7102 0.7293
1141.000000 0.7468 0.7644 0.7819 0.7993 0.8134
1146.000000 0.8187 0.8221 0.8234 0.8242 0.8251
1151.000000 0.8245 0.8230 0.8211 0.8180 0.8140
1156.000000 0.8098 0.8060 0.8034 0.8009 0.7994
1161.000000 0.7982 0.7977 0.7973 0.7963 0.7927
1166.000000 0.7851 0.7778 0.7701 0.7618 0.7535
1171.000000 0.7448 0.7297 0.7201 0.7112 0.7006
1176.000000 0.6890 0.6731 0.6547 0.6364 0.6182
1181.000000 0.6030 0.6042 0.6113 0.6182 0.6195
1186.000000 0.5987 0.5613 0.5239 0.4867 0.4494
1191.000000 0.4123 0.3752 0.3382 0.3019 0.2825
1196.000000 0.2799 0.2797 0.2792 0.3121 0.3335
1201.000000 0.3548 0.3761 0.3975 0.4187 0.4399
1206.000000 0.4574 0.4651 0.4870 0.5061 0.5140
1211.000000 0.5174 0.5190 0.5193 0.5187 0.5079
1216.000000 0.4887 0.4695 0.4503 0.4312 0.4120
1221.000000 0.3929 0.3739 0.3548 0.3490 0.3508
1226.000000 0.3490 0.3932 0.4166 0.4400 0.4633
1231.000000 0.4866 0.5098 0.5330 0.5562 0.5793
1236.000000 0.6024 0.6255 0.6440 0.6512 0.6525
1241.000000 0.6520 0.6501 0.6479 0.6449 0.6416
1246.000000 0.6377 0.6329 0.6278 0.6223 0.6157
1251.000000 0.6083 0.5995 0.5867 0.5739 0.5612
1256.000000 0.5484 0.5357 0.5230 0.5103 0.4977
1261.000000 0.4853 0.4759 0.4689 0.4638 0.4608
1266.000000 0.4599 0.4600 0.4605 0.4634 0.4613
1271.000000 0.4907 0.5045 0.5184 0.5321 0.5458
1276.000000 0.5595 0.5732 0.5851 0.5866 0.5871
1281.000000 0.5855 0.5807 0.5645 0.5480 0.5315
1286.000000 0.5150 0.4984 0.4820 0.4694 0.4677
1291.000000 0.4686 0.4786 0.4923 0.5059 0.5196
1296.000000 0.5332 0.5468 0.5578 0.5593 0.5598
1301.000000 0.5582 0.5440 0.5307 0.5174 0.5041
1306.000000 0.4908 0.4776 0.4644 0.4511 0.4424
1311.000000 0.4417 0.4446 0.4539 0.4639 0.4738
1316.000000 0.4837 0.4936 0.4988 0.4990 0.4990
1321.000000 0.4607 0.4374 0.4176 0.4085 0.3999
1326.000000 0.3924 0.3847 0.3768 0.3683 0.3591
1331.000000 0.3495 0.3375 0.3287 0.3220 0.3154
1336.000000 0.3091 0.3030 0.2970 0.2902 0.2831
1341.000000 0.2760 0.2688 0.2617 0.2529 0.2418
1346.000000 0.2159 0.1979 0.1886 0.1817 0.1789
1351.000000 0.1766 0.1745 0.1737 0.1730 0.1724
1356.000000 0.1719 0.1715 0.1710 0.1700 0.1677
1361.000000 0.1650 0.1616 0.1568 0.1479 0.1418
1366.000000 0.1361 0.1301 0.1279 0.1268 0.1268
1371.000000 0.1378 0.1717 0.2086 0.2454 0.2822
1376.000000 0.3060 0.3094 0.3111 0.3114 0.3109
1381.000000 0.3106 0.3290 0.3524 0.3757 0.3991
1386.000000 0.4218 0.4355 0.4393 0.4419 0.4444
1391.000000 0.4404 0.4272 0.4128 0.4021 0.3999
1396.000000 0.4009 0.4145 0.4373 0.4599 0.4826
1401.000000 0.5053 0.5279 0.5588 0.5715 0.5835
1406.000000 0.6019 0.6279 0.6443 0.6579 0.6705
1411.000000 0.6892 0.7122 0.7361 0.7487 0.7538
1416.000000 0.7574 0.7600 0.7616 0.7617 0.7616
1421.000000 0.7638 0.7606 0.7593 0.7573 0.7533
1426.000000 0.7468 0.7401 0.7320 0.7175 0.7032
1431.000000 0.6924 0.6673 0.6418 0.6164 0.5910
1436.000000 0.5657 0.5404 0.5151 0.4899 0.4647
1441.000000 0.4395 0.4144 0.3893 0.3643 0.3460
1446.000000 0.3309 0.3170 0.3032 0.2898 0.2777
1451.000000 0.2659 0.2491 0.2252 0.2039 0.1902
1456.000000 0.1773 0.1650 0.1552 0.1458 0.1389
1461.000000 0.1334 0.1280 0.1232 0.1193 0.1167
1466.000000 0.1147 0.1137 0.1139 0.1147 0.1161
1471.000000 0.1184 0.1252 0.1422 0.1625 0.1827
1476.000000 0.2030 0.2231 0.2433 0.2635 0.2836
1481.000000 0.3037 0.3237 0.3505 0.3940 0.4171
1486.000000 0.4420 0.4590 0.4722 0.4982 0.5161
1491.000000 0.5311 0.5439 0.5539 0.5608 0.5664
1496.000000 0.5699 0.5728 0.5745 0.5756 0.5764
1501.000000 0.5762 0.5757 0.5746 0.5725 0.5588
1506.000000 0.5409 0.5227 0.5047 0.4870 0.4714
1511.000000 0.4622 0.4536 0.4229 0.3815 0.3419
1516.000000 0.3021 0.2626 0.2245 0.2048 0.2014
1521.000000 0.2006 0.2006 0.2011 0.2026 0.2048
1526.000000 0.2171 0.2454 0.2774 0.3095 0.3414
1531.000000 0.3735 0.4053 0.4372 0.4690 0.5008
1536.000000 0.5318 0.5602 0.5796 0.5908 0.5990
1541.000000 0.6193 0.6412 0.6561 0.6736 0.6906
1546.000000 0.7058 0.7185 0.7311 0.7400 0.7483
1551.000000 0.7567 0.7669 0.7788 0.7900 0.8000
1556.000000 0.8080 0.8112 0.8141 0.8171 0.8199
1561.000000 0.8216 0.8225 0.8225 0.8218 0.8210
1566.000000 0.8217 0.8195 0.8184 0.8170 0.8152
1571.000000 0.8121 0.8073 0.8026 0.7980 0.7934
1576.000000 0.7879 0.7817 0.7753 0.7688 0.7623
1581.000000 0.7557 0.7492 0.7426 0.7377 0.7362
1586.000000 0.7359 0.7356 0.7423 0.7539 0.7641
1591.000000 0.7672 0.7674 0.7664 0.7584 0.7465
1596.000000 0.7346 0.7227 0.7109 0.6990 0.6871
1601.000000 0.6753 0.6635 0.6517 0.6400 0.6282
1606.000000 0.6164 0.6046 0.5929 0.5812 0.5696
1611.000000 0.5579 0.5463 0.5346 0.5230 0.5113
1616.000000 0.4997 0.4881 0.4766 0.4650 0.4591
1621.000000 0.4581 0.4581 0.4581 0.4633 0.4715
1626.000000 0.4784 0.4816 0.4818 0.4818 0.4781
1631.000000 0.4636 0.4454 0.4272 0.4089 0.3908
1636.000000 0.3726 0.3545 0.3364 0.3184 0.3003
1641.000000 0.2822 0.2642 0.2462 0.2283 0.2109
1646.000000 0.1975 0.1954 0.1922 0.1940 0.1941
1651.000000 0.1946 0.1961 0.1986 0.2018 0.2054
1656.000000 0.2092 0.2135 0.2184 0.2237 0.2306
1661.000000 0.2375 0.2457 0.2647 0.2953 0.3290
1666.000000 0.3499 0.3603 0.3872 0.4420 0.4967
1671.000000 0.5512 0.6058 0.6586 0.6865 0.6979
1676.000000 0.7061 0.7129 0.7197 0.7269 0.7544
1681.000000 0.7722 0.7933 0.8073 0.8162 0.8238
1686.000000 0.8288 0.8330 0.8372 0.8415 0.8457
1691.000000 0.8501 0.8546 0.8591 0.8636 0.8679
1696.000000 0.8722 0.8764 0.8807 0.8849 0.8893
1701.000000 0.8938 0.8984 0.9030 0.9074 0.9104
1706.000000 0.9131 0.9158 0.9185 0.9212 0.9239
1711.000000 0.9248 0.9257 0.9265 0.9274 0.9283
1716.000000 0.9292 0.9300 0.9309 0.9318 0.9327
1721.000000 0.9335 0.9341 0.9345 0.9348 0.9351
1726.000000 0.9355 0.9359 0.9362 0.9366 0.9369
1731.000000 0.9373 0.9377 0.9380 0.9382 0.9390
1736.000000 0.9377 0.9374 0.9372 0.9369 0.9367
1741.000000 0.9364 0.9361 0.9354 0.9345 0.9337
1746.000000 0.9330 0.9322 0.9314 0.9302 0.9290
1751.000000 0.9278 0.9266 0.9253 0.9242 0.9231
1756.000000 0.9220 0.9210 0.9199 0.9189 0.9181
1761.000000 0.9175 0.9173 0.9172 0.9172 0.9175
1766.000000 0.9178 0.9180 0.9183 0.9186 0.9188
1771.000000 0.9190 0.9192 0.9193 0.9195 0.9197
1776.000000 0.9198 0.9200 0.9200 0.9200 0.9200
1781.000000 0.9200 0.9199 0.9199 0.9199 0.9198
1786.000000 0.9197 0.9196 0.9193 0.9190 0.9186
1791.000000 0.9183 0.9179 0.9176 0.9173 0.9169
1796.000000 0.9165 0.9162 0.9159 0.9155 0.9152
1801.000000 0.9148 0.9145 0.9141 0.9138 0.9135
1806.000000 0.9132 0.9129 0.9127 0.9124 0.9123
1811.000000 0.9121 0.9119 0.9116 0.9114 0.9112
1816.000000 0.9111 0.9111 0.9112 0.9114 0.9116
1821.000000 0.9118 0.9120 0.9124 0.9129 0.9134
1826.000000 0.9139 0.9144 0.9149 0.9153 0.9159
1831.000000 0.9163 0.9165 0.9167 0.9168 0.9170
1836.000000 0.9170 0.9169 0.9167 0.9165 0.9164
1841.000000 0.9162 0.9161 0.9159 0.9156 0.9154
1846.000000 0.9151 0.9147 0.9144 0.9141 0.9137
1851.000000 0.9134 0.9131 0.9127 0.9122 0.9116
1856.000000 0.9111 0.9106 0.9100 0.9095 0.9089
1861.000000 0.9084 0.9079 0.9073 0.9067 0.9062
1866.000000 0.9057 0.9051 0.9045 0.9039 0.9033
1871.000000 0.9026 0.9020 0.9013 0.9007 0.9001
1876.000000 0.8994 0.8988 0.8982 0.8979 0.8977
1881.000000 0.8974 0.8972 0.8970 0.8967 0.8965
1886.000000 0.8962 0.8960 0.8958 0.8955 0.8954
1891.000000 0.8954 0.8953 0.8952 0.8951 0.8951
1896.000000 0.8951 0.8950 0.8950 0.8949 0.8948
1901.000000 0.8948 0.8948 0.8949 0.8949 0.8949
1906.000000 0.8950 0.8951 0.8951 0.8951 0.8952
1911.000000 0.8952 0.8952 0.8953 0.8953 0.8954
1916.000000 0.8954 0.8954 0.8955 0.8956 0.8956
1921.000000 0.8956 0.8957 0.8958 0.8962 0.8965
1926.000000 0.8969 0.8973 0.8976 0.8979 0.8983
1931.000000 0.8987 0.8991 0.8995 0.8999 0.9003
1936.000000 0.9007 0.9010 0.9014 0.9018 0.9021
1941.000000 0.9025 0.9027 0.9029 0.9029 0.9028
1946.000000 0.9027 0.9027 0.9027 0.9026 0.9024
1951.000000 0.9021 0.9018 0.9016 0.9013 0.9010
1956.000000 0.9007 0.9004 0.9000 0.8996 0.8993
1961.000000 0.8990 0.8986 0.8982 0.8979 0.8976
1966.000000 0.8975 0.8977 0.8977 0.8978 0.8980
1971.000000 0.8982 0.8984 0.8986 0.8988 0.8990
1976.000000 0.8992 0.8994 0.8996 0.8997 0.8999
1981.000000 0.9001 0.9002 0.9003 0.9005 0.9007
1986.000000 0.9008 0.9010 0.9011 0.9013 0.9015
1991.000000 0.9016 0.9017 0.9019 0.9020 0.9020
1996.000000 0.9020 0.9021 0.9021 0.9021 0.9022
2001.000000 0.9022 0.9022 0.9022 0.9023 0.9023
2006.000000 0.9023 0.9024 0.9024 0.9024 0.9023
2011.000000 0.9022 0.9021 0.9020 0.9020 0.9019
2016.000000 0.9018 0.9017 0.9016 0.9016 0.9015
2021.000000 0.9014 0.9013 0.9012 0.9012 0.9011
2026.000000 0.9009 0.9009 0.9008 0.9008 0.9007
2031.000000 0.9005 0.9005 0.9004 0.9003 0.9002
2036.000000 0.9001 0.9001 0.9000 0.8999 0.8998
2041.000000 0.8997 0.8997 0.8996 0.8995 0.8994
2046.000000 0.8993 0.8992 0.8991 0.8991 0.8990
2051.000000 0.8989 0.8988 0.8987 0.8987 0.8986
2056.000000 0.8985 0.8984 0.8983 0.8983 0.8982
2061.000000 0.8982 0.8980 0.8979 0.8979 0.8978
2066.000000 0.8977 0.8976 0.8975 0.8975 0.8974
2071.000000 0.8973 0.8972 0.8971 0.8971 0.8970
2076.000000 0.8969 0.8968 0.8967 0.8966 0.8964
2081.000000 0.8963 0.8962 0.8961 0.8960 0.8959
2086.000000 0.8957 0.8956 0.8955 0.8954 0.8953
2091.000000 0.8952 0.8951 0.8949 0.8948 0.8947
2096.000000 0.8946 0.8944 0.8943 0.8942 0.8940
2101.000000 0.8939 0.8938 0.8937 0.8936 0.8935
2106.000000 0.8934 0.8933 0.8931 0.8930 0.8929
2111.000000 0.8928 0.8927 0.8926 0.8925 0.8924
2116.000000 0.8922 0.8921 0.8920 0.8919 0.8918
2121.000000 0.8917 0.8915 0.8914 0.8913 0.8911
2126.000000 0.8909 0.8908 0.8907 0.8905 0.8904
2131.000000 0.8903 0.8901 0.8900 0.8899 0.8897
2136.000000 0.8896 0.8895 0.8893 0.8892 0.8891
2141.000000 0.8890 0.8888 0.8887 0.8886 0.8884
2146.000000 0.8882 0.8881 0.8880 0.8878 0.8877
2151.000000 0.8876 0.8875 0.8873 0.8872 0.8871
2156.000000 0.8869 0.8868 0.8866 0.8864 0.8863
2161.000000 0.8861 0.8860 0.8858 0.8856 0.8854
2166.000000 0.8852 0.8851 0.8849 0.8847 0.8846
2171.000000 0.8844 0.8843 0.8841 0.8839 0.8837
2176.000000 0.8835 0.8834 0.8832 0.8830 0.8829
2181.000000 0.8827 0.8826 0.8824 0.8823 0.8821
2186.000000 0.8819 0.8817 0.8815 0.8814 0.8812
2191.000000 0.8811 0.8809 0.8807 0.8806 0.8804
2196.000000 0.8803 0.8801 0.8799 0.8797 0.8796
2201.000000 0.8794 0.8792 0.8791 0.8789 0.8788
2206.000000 0.8786 0.8785 0.8783 0.8781 0.8779
2211.000000 0.8778 0.8776 0.8775 0.8773 0.8771
2216.000000 0.8769 0.8767 0.8765 0.8763 0.8761
2221.000000 0.8759 0.8758 0.8756 0.8754 0.8752
2226.000000 0.8750 0.8748 0.8747 0.8745 0.8743
2231.000000 0.8741 0.8739 0.8737 0.8735 0.8733
2236.000000 0.8732 0.8730 0.8728 0.8726 0.8724
2241.000000 0.8722 0.8720 0.8718 0.8717 0.8715
2246.000000 0.8713 0.8711 0.8709 0.8707 0.8704
2251.000000 0.8702 0.8699 0.8697 0.8694 0.8692
2256.000000 0.8689 0.8687 0.8684 0.8682 0.8679
2261.000000 0.8677 0.8675 0.8672 0.8669 0.8666
2266.000000 0.8664 0.8661 0.8659 0.8657 0.8654
2271.000000 0.8652 0.8649 0.8647 0.8644 0.8642
2276.000000 0.8640 0.8637 0.8635 0.8632 0.8630
2281.000000 0.8628 0.8625 0.8623 0.8621 0.8620
2286.000000 0.8619 0.8618 0.8617 0.8617 0.8616
2291.000000 0.8615 0.8614 0.8614 0.8613 0.8612
2296.000000 0.8611 0.8610 0.8609 0.8609 0.8609
2301.000000 0.8609 0.8609 0.8609 0.8610 0.8611
2306.000000 0.8612 0.8613 0.8614 0.8615 0.8616
2311.000000 0.8617 0.8619 0.8620 0.8621 0.8622
2316.000000 0.8623 0.8624 0.8624 0.8624 0.8625
2321.000000 0.8626 0.8627 0.8627 0.8628 0.8628
2326.000000 0.8629 0.8630 0.8631 0.8631 0.8632
2331.000000 0.8632 0.8633 0.8633 0.8633 0.8632
2336.000000 0.8632 0.8631 0.8630 0.8629 0.8629
2341.000000 0.8628 0.8627 0.8627 0.8626 0.8625
2346.000000 0.8624 0.8624 0.8623 0.8622 0.8621
2351.000000 0.8620 0.8619 0.8619 0.8619 0.8617
2356.000000 0.8616 0.8614 0.8612 0.8611 0.8609
2361.000000 0.8608 0.8606 0.8604 0.8603 0.8602
2366.000000 0.8600 0.8598 0.8596 0.8595 0.8593
2371.000000 0.8592 0.8590 0.8589 0.8587 0.8585
2376.000000 0.8583 0.8580 0.8576 0.8571 0.8566
2381.000000 0.8561 0.8556 0.8552 0.8547 0.8543
2386.000000 0.8538 0.8533 0.8529 0.8525 0.8522
2391.000000 0.8519 0.8517 0.8515 0.8513 0.8511
2396.000000 0.8509 0.8506 0.8504 0.8501 0.8499
2401.000000 0.8497 0.8494 0.8492 0.8490 0.8488
2406.000000 0.8486 0.8485 0.8484 0.8483 0.8482
2411.000000 0.8481 0.8480 0.8480 0.8479 0.8478
2416.000000 0.8477 0.8476 0.8475 0.8474 0.8474
2421.000000 0.8472 0.8471 0.8470 0.8469 0.8468
2426.000000 0.8468 0.8467 0.8466 0.8465 0.8464
2431.000000 0.8463 0.8462 0.8462 0.8462 0.8461
2436.000000 0.8461 0.8460 0.8459 0.8459 0.8458
2441.000000 0.8458 0.8457 0.8457 0.8456 0.8455
2446.000000 0.8455 0.8454 0.8454 0.8453 0.8451
2451.000000 0.8449 0.8448 0.8447 0.8446 0.8444
2456.000000 0.8443 0.8442 0.8441 0.8440 0.8438
2461.000000 0.8437 0.8435 0.8434 0.8432 0.8431
2466.000000 0.8430 0.8429 0.8427 0.8426 0.8425
2471.000000 0.8424 0.8422 0.8421 0.8420 0.8418
2476.000000 0.8417 0.8415 0.8414 0.8413 0.8412
2481.000000 0.8410 0.8409 0.8408 0.8407 0.8407
2486.000000 0.8405 0.8404 0.8403 0.8402 0.8401
2491.000000 0.8399 0.8398 0.8397 0.8396 0.8395
2496.000000 0.8393 0.8392 0.8391 0.8390 0.8390
2501.000000 0.8388 0.8387 0.8386 0.8385 0.8384
2506.000000 0.8382 0.8381 0.8380 0.8379 0.8378
2511.000000 0.8376 0.8375 0.8374 0.8372 0.8370
2516.000000 0.8367 0.8365 0.8363 0.8361 0.8359
2521.000000 0.8357 0.8354 0.8352 0.8350 0.8348
2526.000000 0.8346 0.8344 0.8342 0.8340 0.8337
2531.000000 0.8335 0.8333 0.8331 0.8329 0.8327
2536.000000 0.8324 0.8321 0.8319 0.8316 0.8313
2541.000000 0.8309 0.8306 0.8303 0.8300 0.8296
2546.000000 0.8293 0.8290 0.8287 0.8284 0.8281
2551.000000 0.8278 0.8274 0.8271 0.8268 0.8265
2556.000000 0.8262 0.8259 0.8255 0.8252 0.8249
2561.000000 0.8246 0.8242 0.8238 0.8233 0.8227
2566.000000 0.8222 0.8216 0.8211 0.8205 0.8200
2571.000000 0.8194 0.8189 0.8183 0.8177 0.8172
2576.000000 0.8166 0.8161 0.8156 0.8150 0.8144
2581.000000 0.8139 0.8133 0.8128 0.8122 0.8116
2586.000000 0.8111 0.8106 0.8100 0.8095 0.8089
2591.000000 0.8084 0.8078 0.8073 0.8067 0.8062
2596.000000 0.8057 0.8051 0.8046 0.8040 0.8035
2601.000000 0.8030 0.8024 0.8019 0.8013 0.8008
2606.000000 0.8003 0.7998 0.7992 0.7987 0.7982
2611.000000 0.7977 0.7973 0.7968 0.7964 0.7959
2616.000000 0.7954 0.7950 0.7946 0.7941 0.7937
2621.000000 0.7932 0.7928 0.7923 0.7918 0.7914
2626.000000 0.7910 0.7905 0.7901 0.7897 0.7892
2631.000000 0.7888 0.7884 0.7880 0.7876 0.7872
2636.000000 0.7867 0.7863 0.7859 0.7855 0.7851
2641.000000 0.7847 0.7843 0.7838 0.7834 0.7830
2646.000000 0.7826 0.7822 0.7818 0.7814 0.7810
2651.000000 0.7807 0.7803 0.7800 0.7796 0.7793
2656.000000 0.7789 0.7786 0.7783 0.7779 0.7776
2661.000000 0.7772 0.7769 0.7765 0.7762 0.7758
2666.000000 0.7755 0.7752 0.7749 0.7745 0.7742
2671.000000 0.7738 0.7735 0.7731 0.7728 0.7725
2676.000000 0.7722 0.7718 0.7715 0.7711 0.7708
2681.000000 0.7704 0.7701 0.7698 0.7695 0.7691
2686.000000 0.7688 0.7685 0.7682 0.7679 0.7676
2691.000000 0.7674 0.7671 0.7667 0.7664 0.7661
2696.000000 0.7658 0.7655 0.7652 0.7649 0.7646
2701.000000 0.7643 0.7640 0.7637 0.7634 0.7630
2706.000000 0.7627 0.7624 0.7621 0.7618 0.7615
2711.000000 0.7612 0.7609 0.7606 0.7603 0.7600
2716.000000 0.7597 0.7594 0.7591 0.7588 0.7585
2721.000000 0.7582 0.7578 0.7575 0.7572 0.7569
2726.000000 0.7565 0.7562 0.7559 0.7556 0.7553
2731.000000 0.7550 0.7547 0.7544 0.7541 0.7537
2736.000000 0.7534 0.7531 0.7528 0.7525 0.7522
2741.000000 0.7518 0.7516 0.7515 0.7514 0.7513
2746.000000 0.7512 0.7512 0.7511 0.7510 0.7510
2751.000000 0.7511 0.7513 0.7515 0.7518 0.7521
2756.000000 0.7524 0.7530 0.7537 0.7544 0.7550
2761.000000 0.7556 0.7562 0.7567 0.7573 0.7578
2766.000000 0.7583 0.7588 0.7594 0.7598 0.7601
2771.000000 0.7604 0.7607 0.7608 0.7609 0.7610
2776.000000 0.7610 0.7611 0.7611 0.7611 0.7610
2781.000000 0.7609 0.7609 0.7608 0.7607 0.7606
2786.000000 0.7606 0.7605 0.7602 0.7600 0.7598
2791.000000 0.7591 0.7584 0.7577 0.7565 0.7551
2796.000000 0.7537 0.7525 0.7513 0.7501 0.7488
2801.000000 0.7474 0.7460 0.7446 0.7432 0.7418
2806.000000 0.7404 0.7391 0.7377 0.7363 0.7349
2811.000000 0.7335 0.7322 0.7307 0.7292 0.7277
2816.000000 0.7261 0.7244 0.7228 0.7211 0.7194
2821.000000 0.7178 0.7161 0.7144 0.7128 0.7111
2826.000000 0.7090 0.7069 0.7048 0.7026 0.7004
2831.000000 0.6982 0.6960 0.6938 0.6916 0.6888
2836.000000 0.6856 0.6824 0.6788 0.6747 0.6706
2841.000000 0.6665 0.6622 0.6579 0.6536 0.6336
2846.000000 0.6111 0.5886 0.5784 0.5758 0.5732
2851.000000 0.5706 0.5680 0.5654 0.5626 0.5581
2856.000000 0.5535 0.5490 0.5419 0.5344 0.5268
2861.000000 0.5120 0.4921 0.4722 0.4522 0.4320
2866.000000 0.4119 0.3917 0.3716 0.3515 0.3314
2871.000000 0.3114 0.2913 0.2712 0.2512 0.2312
2876.000000 0.2112 0.1912 0.1712 0.1513 0.1313
2881.000000 0.1114 0.0915 0.0715 0.0542 0.0394
2886.000000 0.0247 0.0124 0.0124 0.0124 0.0124
2891.000000 0.0124 0.0125 0.0125 0.0133 0.0149
2896.000000 0.0165 0.0183 0.0210 0.0238 0.0265
2901.000000 0.0293 0.0320 0.0348 0.0373 0.0396
2906.000000 0.0419 0.0440 0.0438 0.0436 0.0433
2911.000000 0.0430 0.0426 0.0422 0.0418 0.0413
2916.000000 0.0407 0.0401 0.0397 0.0392 0.0388
2921.000000 0.0382 0.0375 0.0368 0.0361 0.0343
2926.000000 0.0324 0.0306 0.0287 0.0269 0.0251
2931.000000 0.0232 0.0214 0.0196 0.0178 0.0160
2936.000000 0.0142 0.0124 0.0105 0.0087 0.0069
2941.000000 0.0051 0.0038 0.0025 0.0013 0.0005
2946.000000 0.0005 0.0005 0.0005 0.0005 0.0005
2951.000000 0.0005 0.0004 0.0004 0.0004 0.0004
2956.000000 0.0004 0.0004 0.0004 0.0003 0.0003
2961.000000 0.0003 0.0003 0.0003 0.0003 0.0003
2966.000000 0.0002 0.0002 0.0002 0.0002 0.0002
2971.000000 0.0002 0.0002 0.0001 0.0001 0.0001
2976.000000 0.0001 0.0001 0.0001 0.0001 0.0001
2981.000000 0.0003 0.0005 0.0007 0.0060 0.0134
2986.000000 0.0209 0.0283 0.0357 0.0431 0.0505
2991.000000 0.0578 0.0652 0.0726 0.0800 0.0873
2996.000000 0.0947 0.1020 0.1094 0.1167 0.1241
3001.000000 0.1315 0.1388 0.1461 0.1534 0.1608
3006.000000 0.1681 0.1754 0.1827 0.1899 0.1972
3011.000000 0.2045 0.2118 0.2191 0.2264 0.2337
3016.000000 0.2410 0.2482 0.2555 0.2627 0.2979
3021.000000 0.3464 0.3950 0.4423 0.4449 0.4475
3026.000000 0.4500 0.4526 0.4552 0.4578 0.4604
3031.000000 0.4629 0.4655 0.4680 0.4706 0.4731
3036.000000 0.4757 0.4782 0.4808 0.4833 0.4859
3041.000000 0.4884 0.4910 0.4935 0.4960 0.4986
3046.000000 0.5011 0.5036 0.5062 0.5087 0.5113
3051.000000 0.5138 0.5164 0.5189 0.5213 0.5238
3056.000000 0.5263 0.5290 0.5317 0.5345 0.5372
3061.000000 0.5402 0.5433 0.5463 0.5489 0.5504
3066.000000 0.5519 0.5534 0.5549 0.5565 0.5580
3071.000000 0.5596 0.5617 0.5639 0.5662 0.5685
3076.000000 0.5714 0.5744 0.5773 0.5806 0.5852
3081.000000 0.5898 0.5944 0.5979 0.5996 0.6013
3086.000000 0.6029 0.6046 0.6063 0.6080 0.6097
3091.000000 0.6113 0.6130 0.6147 0.6164 0.6180
3096.000000 0.6196 0.6213 0.6229 0.6246 0.6263
3101.000000 0.6279 0.6296 0.6312 0.6329 0.6346
3106.000000 0.6362 0.6379 0.6395 0.6412 0.6428
3111.000000 0.6445 0.6461 0.6477 0.6494 0.6510
3116.000000 0.6527 0.6543 0.6560 0.6576 0.6592
3121.000000 0.6609 0.6625 0.6642 0.6658 0.6675
3126.000000 0.6691 0.6707 0.6724 0.6740 0.6756
3131.000000 0.6772 0.6788 0.6804 0.6821 0.6837
3136.000000 0.6853 0.6869 0.6884 0.6898 0.6913
3141.000000 0.6927 0.6937 0.6948 0.6959 0.6966
3146.000000 0.6969 0.6972 0.6975 0.6978 0.6980
3151.000000 0.6983 0.6986 0.6988 0.6990 0.6991
3156.000000 0.6993 0.6994 0.6996 0.6997 0.6999
3161.000000 0.7000 0.7002 0.7003 0.7005 0.7006
3166.000000 0.7006 0.7007 0.7007 0.7008 0.7008
3171.000000 0.7008 0.7008 0.7009 0.7009 0.7009
3176.000000 0.7009 0.7010 0.7010 0.7010 0.7010
3181.000000 0.7011 0.7011 0.7012 0.7013 0.7014
3186.000000 0.7014 0.7015 0.7015 0.7016 0.7016
3191.000000 0.7017 0.7018 0.7019 0.7019 0.7020
3196.000000 0.7020 0.7021 0.7022 0.7023 0.7024
3201.000000 0.7025 0.7027 0.7028 0.7029 0.7030
3206.000000 0.7032 0.7033 0.7035 0.7036 0.7037
3211.000000 0.7039 0.7040 0.7041 0.7042 0.7044
3216.000000 0.7045 0.7047 0.7048 0.7050 0.7052
3221.000000 0.7053 0.7055 0.7057 0.7060 0.7062
3226.000000 0.7064 0.7066 0.7069 0.7071 0.7074
3231.000000 0.7076 0.7078 0.7080 0.7082 0.7085
3236.000000 0.7087 0.7089 0.7092 0.7094 0.7095
3241.000000 0.7097 0.7099 0.7100 0.7101 0.7102
3246.000000 0.7103 0.7104 0.7105 0.7106 0.7107
3251.000000 0.7109 0.7110 0.7111 0.7112 0.7113
3256.000000 0.7114 0.7115 0.7116 0.7117 0.7118
3261.000000 0.7119 0.7120 0.7122 0.7123 0.7123
3266.000000 0.7124 0.7125 0.7125 0.7125 0.7125
3271.000000 0.7125 0.7125 0.7124 0.7124 0.7124
3276.000000 0.7124 0.7123 0.7123 0.7122 0.7122
3281.000000 0.7121 0.7121 0.7121 0.7121 0.7121
3286.000000 0.7120 0.7120 0.7120 0.7120 0.7119
3291.000000 0.7118 0.7118 0.7117 0.7113 0.7115
3296.000000 0.7114 0.7114 0.7113 0.7112 0.7111
3301.000000 0.7110 0.7109 0.7108 0.7107 0.7106
3306.000000 0.7105 0.7104 0.7104 0.7103 0.7102
3311.000000 0.7102 0.7101 0.7100 0.7098 0.7097
3316.000000 0.7096 0.7095 0.7093 0.7092 0.7091
3321.000000 0.7089 0.7088 0.7086 0.7085 0.7084
3326.000000 0.7083 0.7082 0.7081 0.7079 0.7078
3331.000000 0.7077 0.7075 0.7074 0.7073 0.7071
3336.000000 0.7070 0.7069 0.7067 0.7065 0.7063
3341.000000 0.7061 0.7059 0.7056 0.7054 0.7051
3346.000000 0.7048 0.7046 0.7043 0.7040 0.7037
3351.000000 0.7034 0.7031 0.7029 0.7026 0.7023
3356.000000 0.7021 0.7018 0.7015 0.7013 0.7010
3361.000000 0.7007 0.7003 0.6999 0.6995 0.6991
3366.000000 0.6986 0.6982 0.6977 0.6972 0.6967
3371.000000 0.6962 0.6957 0.6952 0.6948 0.6943
3376.000000 0.6938 0.6933 0.6928 0.6924 0.6920
3381.000000 0.6916 0.6911 0.6907 0.6904 0.6900
3386.000000 0.6897 0.6893 0.6890 0.6886 0.6883
3391.000000 0.6879 0.6876 0.6872 0.6869 0.6866
3396.000000 0.6862 0.6859 0.6858 0.6856 0.6855
3401.000000 0.6853 0.6852 0.6850 0.6849 0.6847
3406.000000 0.6845 0.6844 0.6842 0.6841 0.6839
3411.000000 0.6838 0.6837 0.6836 0.6835 0.6834
3416.000000 0.6834 0.6834 0.6834 0.6834 0.6834
3421.000000 0.6834 0.6834 0.6834 0.6834 0.6806
3426.000000 0.6835 0.6835 0.6835 0.6835 0.6835
3431.000000 0.6835 0.6835 0.6835 0.6835 0.6835
3436.000000 0.6836 0.6837 0.6838 0.6839 0.6840
3441.000000 0.6841 0.6842 0.6843 0.6844 0.6845
3446.000000 0.6847 0.6848 0.6849 0.6850 0.6851
3451.000000 0.6852 0.6853 0.6854 0.6856 0.6857
3456.000000 0.6858 0.6859 0.6860 0.6861 0.6862
3461.000000 0.6863 0.6865 0.6866 0.6867 0.6868
3466.000000 0.6869 0.6870 0.6873 0.6877 0.6881
3471.000000 0.6885 0.6890 0.6894 0.6898 0.6902
3476.000000 0.6906 0.6910 0.6914 0.6917 0.6920
3481.000000 0.6924 0.6927 0.6930 0.6934 0.6937
3486.000000 0.6941 0.6944 0.6948 0.6951 0.6954
3491.000000 0.6957 0.6961 0.6964 0.6967 0.6971
3496.000000 0.6974 0.6977 0.6980 0.6983 0.6985
3501.000000 0.6988 0.6991 0.6993 0.6995 0.6998
3506.000000 0.7000 0.7002 0.7004 0.7007 0.7009
3511.000000 0.7011 0.7013 0.7015 0.7018 0.7020
3516.000000 0.7022 0.7023 0.7024 0.7025 0.7026
3521.000000 0.7027 0.7028 0.7028 0.7028 0.7028
3526.000000 0.7028 0.7029 0.7029 0.7030 0.7030
3531.000000 0.7030 0.7031 0.7031 0.7031 0.7031
3536.000000 0.7031 0.7032 0.7032 0.7032 0.7032
3541.000000 0.7032 0.7033 0.7033 0.7033 0.7033
3546.000000 0.7033 0.7034 0.7034 0.7034 0.7034
3551.000000 0.7034 0.7035 0.7035 0.7035 0.7035
3556.000000 0.7035 0.7035 0.7035 0.7035 0.7035
3561.000000 0.7035 0.7034 0.7034 0.7034 0.7034
3566.000000 0.7034 0.7034 0.7034 0.7034 0.7034
3571.000000 0.7034 0.7034 0.7034 0.7034 0.7034
3576.000000 0.7034 0.7033 0.7033 0.7033 0.7033
3581.000000 0.7033 0.7033 0.7033 0.7033 0.7033
3586.000000 0.7033 0.7032 0.7032 0.7031 0.7031
3591.000000 0.7030 0.7029 0.7029 0.7028 0.7028
3596.000000 0.7027 0.7027 0.7026 0.7025 0.7025
3601.000000 0.7024 0.7024 0.7023 0.7023 0.7022
3606.000000 0.7021 0.7021 0.7020 0.7020 0.7019
3611.000000 0.7018 0.7018 0.7017 0.7017 0.7016
3616.000000 0.7016 0.7015 0.7014 0.7014 0.7013
3621.000000 0.7013 0.7012 0.7012 0.7034 0.7010
3626.000000 0.7009 0.7009 0.7008 0.7007 0.7006
3631.000000 0.7005 0.7004 0.7003 0.7002 0.7002
3636.000000 0.7001 0.7000 0.6999 0.6999 0.6998
3641.000000 0.6997 0.6996 0.6995 0.6995 0.6994
3646.000000 0.6993 0.6992 0.6992 0.6991 0.6990
3651.000000 0.6989 0.6989 0.6988 0.6987 0.6986
3656.000000 0.6986 0.6985 0.6984 0.6983 0.6983
3661.000000 0.6982 0.6981 0.6981 0.6980 0.6979
3666.000000 0.6978 0.6978 0.6977 0.6976 0.6975
3671.000000 0.6975 0.6974 0.6973 0.6972 0.6971
3676.000000 0.6970 0.6969 0.6968 0.6968 0.6967
3681.000000 0.6966 0.6965 0.6965 0.6964 0.6963
3686.000000 0.6962 0.6962 0.6961 0.6960 0.6960
3691.000000 0.6959 0.6958 0.6957 0.6957 0.6956
3696.000000 0.6955 0.6954 0.6954 0.6952 0.6951
3701.000000 0.6949 0.6948 0.6947 0.6945 0.6944
3706.000000 0.6943 0.6941 0.6940 0.6939 0.6937
3711.000000 0.6936 0.6934 0.6933 0.6932 0.6930
3716.000000 0.6929 0.6927 0.6926 0.6924 0.6923
3721.000000 0.6922 0.6920 0.6919 0.6918 0.6916
3726.000000 0.6915 0.6914 0.6912 0.6911 0.6909
3731.000000 0.6908 0.6907 0.6905 0.6904 0.6903
3736.000000 0.6902 0.6900 0.6899 0.6898 0.6896
3741.000000 0.6895 0.6893 0.6892 0.6891 0.6889
3746.000000 0.6888 0.6887 0.6886 0.6884 0.6882
3751.000000 0.6880 0.6879 0.6877 0.6875 0.6874
3756.000000 0.6872 0.6870 0.6869 0.6867 0.6865
3761.000000 0.6864 0.6862 0.6860 0.6858 0.6857
3766.000000 0.6855 0.6853 0.6852 0.6850 0.6849
3771.000000 0.6847 0.6845 0.6844 0.6842 0.6840
3776.000000 0.6838 0.6837 0.6835 0.6833 0.6832
3781.000000 0.6830 0.6829 0.6827 0.6826 0.6824
3786.000000 0.6822 0.6821 0.6819 0.6818 0.6816
3791.000000 0.6814 0.6812 0.6811 0.6809 0.6807
3796.000000 0.6806 0.6804 0.6803 0.6801 0.6799
3801.000000 0.6798 0.6796 0.6794 0.6793 0.6791
3806.000000 0.6789 0.6788 0.6786 0.6785 0.6783
3811.000000 0.6781 0.6780 0.6778 0.6776 0.6775
3816.000000 0.6773 0.6771 0.6770 0.6768 0.6767
3821.000000 0.6765 0.6763 0.6762 0.6760 0.6759
3826.000000 0.6757 0.6756 0.6754 0.6753 0.6751
3831.000000 0.6750 0.6748 0.6747 0.6745 0.6743
3836.000000 0.6742 0.6740 0.6738 0.6737 0.6735
3841.000000 0.6733 0.6732 0.6730 0.6729 0.6727
3846.000000 0.6726 0.6724 0.6723 0.6721 0.6720
3851.000000 0.6718 0.6717 0.6715 0.6714 0.6712
3856.000000 0.6711 0.6709 0.6708 0.6706 0.6704
3861.000000 0.6703 0.6701 0.6699 0.6697 0.6696
3866.000000 0.6694 0.6693 0.6691 0.6690 0.6688
3871.000000 0.6687 0.6685 0.6684 0.6682 0.6681
3876.000000 0.6679 0.6678 0.6676 0.6674 0.6673
3881.000000 0.6671 0.6669 0.6668 0.6666 0.6665
3886.000000 0.6664 0.6662 0.6661 0.6659 0.6658
3891.000000 0.6656 0.6655 0.6653 0.6652 0.6650
3896.000000 0.6649 0.6647 0.6646 0.6644 0.6643
3901.000000 0.6641 0.6639 0.6638 0.6636 0.6635
3906.000000 0.6633 0.6631 0.6630 0.6628 0.6626
3911.000000 0.6625 0.6623 0.6621 0.6620 0.6618
3916.000000 0.6616 0.6614 0.6612 0.6611 0.6609
3921.000000 0.6607 0.6605 0.6603 0.6602 0.6600
3926.000000 0.6598 0.6596 0.6595 0.6593 0.6591
3931.000000 0.6589 0.6587 0.6586 0.6584 0.6582
3936.000000 0.6580 0.6579 0.6577 0.6575 0.6573
3941.000000 0.6571 0.6570 0.6568 0.6566 0.6564
3946.000000 0.6563 0.6561 0.6559 0.6557 0.6556
3951.000000 0.6554 0.6552 0.6550 0.6548 0.6547
3956.000000 0.6545 0.6543 0.6541 0.6540 0.6538
3961.000000 0.6536 0.6534 0.6533 0.6531 0.6529
3966.000000 0.6527 0.6526 0.6524 0.6522 0.6520
3971.000000 0.6519 0.6517 0.6515 0.6513 0.6512
3976.000000 0.6510 0.6508 0.6507 0.6505 0.6503
3981.000000 0.6501 0.6500 0.6498 0.6497 0.6495
3986.000000 0.6493 0.6492 0.6490 0.6488 0.6487
3991.000000 0.6485 0.6483 0.6482 0.6480 0.6478
3996.000000 0.6476 0.6475 0.6473 0.6471 0.6470
##END=
