##TITLE=SODIUM PHOSPHATE, TRIBASIC
$$ C.P.
##JCAMP-DX=4.24
##DATA TYPE=INFRARED SPECTRUM
##CLASS=COBLENTZ
##ORIGIN=MELLON INSTITUTE
##OWNER=COBLENTZ SOCIETY
Collection (C) 2018 copyright by the U.S. Secretary of Commerce
on behalf of the United States of America. All rights reserved.
##DATE=Not specified, most likely prior to 1970
##MOLFORM=Na3 P O4  * 12 H2 O
##SOURCE REFERENCE=COBLENTZ NO. 1431
##$NIST ID=B6001431
##$NIST SOURCE=COBLENTZ
##$NIST IMAGE=cob1431
##SPECTROMETER/DATA SYSTEM=Not specified, most likely a prism, grating, or hybrid spectrometer.
##STATE=SOLID (MULLS, FLUOROLUBE FOR 5000-1330 CM^-^1, NUJOL FOR 1330-625 CM^-^1)
##SAMPLING PROCEDURE=TRANSMISSION
##RESOLUTION=4
##DATA PROCESSING=DIGITIZED BY NIST FROM HARD COPY
##XUNITS=MICROMETERS
##YUNITS=TRANSMITTANCE
##XFACTOR=1.000000
##YFACTOR=1
##DELTAX=000.006836
##FIRSTX=2.034
##LASTX=15.9858
##FIRSTY=0.927
##MAXX=15.9858
##MINX=2.034
##MAXY=0.963
##MINY=0.104
##NPOINTS=2042
##XYDATA=(X++(Y..Y))
2.034000 0.9270 0.9270 0.9270 0.9290 0.9290
2.068196 0.9290 0.9310 0.9310 0.9320 0.9320
2.103000 0.9320 0.9340 0.9340 0.9360 0.9360
2.137196 0.9380 0.9390 0.9390 0.9410 0.9410
2.171000 0.9430 0.9430 0.9450 0.9450 0.9460
2.205196 0.9460 0.9460 0.9480 0.9480 0.9480
2.239000 0.9480 0.9480 0.9480 0.9480 0.9480
2.273196 0.9460 0.9450 0.9450 0.9460 0.9460
2.308000 0.9480 0.9480 0.9480 0.9480 0.9500
2.342196 0.9500 0.9500 0.9510 0.9510 0.9510
2.376000 0.9530 0.9530 0.9530 0.9530 0.9550
2.410196 0.9580 0.9580 0.9580 0.9600 0.9600
2.444000 0.9620 0.9620 0.9620 0.9620 0.9630
2.478196 0.9630 0.9630 0.9630 0.9630 0.9630
2.513000 0.9630 0.9630 0.9620 0.9620 0.9600
2.547196 0.9600 0.9580 0.9580 0.9580 0.9580
2.581000 0.9580 0.9580 0.9570 0.9530 0.9530
2.615196 0.9530 0.9510 0.9510 0.9500 0.9480
2.649000 0.9480 0.9410 0.9380 0.9340 0.9310
2.683196 0.9270 0.9170 0.9050 0.8900 0.8780
2.718000 0.8650 0.8360 0.8190 0.8050 0.7980
2.752196 0.7810 0.7570 0.7470 0.7280 0.7090
2.786000 0.6890 0.6660 0.6440 0.6200 0.5960
2.820196 0.5720 0.5480 0.5240 0.5060 0.4860
2.854000 0.4460 0.4360 0.4270 0.4100 0.4020
2.888196 0.3960 0.3860 0.3780 0.3670 0.3570
2.923000 0.3520 0.3410 0.3310 0.3160 0.3120
2.957196 0.3090 0.3050 0.3040 0.3020 0.2980
2.991000 0.2930 0.2880 0.2830 0.2800 0.2780
3.025196 0.2730 0.2710 0.2690 0.2680 0.2640
3.060000 0.2620 0.2610 0.2590 0.2590 0.2570
3.094196 0.2540 0.2520 0.2520 0.2500 0.2500
3.128000 0.2500 0.2490 0.2490 0.2490 0.2500
3.162196 0.2520 0.2540 0.2540 0.2560 0.2570
3.196000 0.2570 0.2590 0.2620 0.2640 0.2680
3.230196 0.2690 0.2710 0.2760 0.2800 0.2850
3.265000 0.2900 0.2970 0.3000 0.3050 0.3090
3.299196 0.3140 0.3190 0.3240 0.3330 0.3400
3.333000 0.3430 0.3530 0.3600 0.3690 0.3780
3.367196 0.3900 0.3960 0.3980 0.4070 0.4140
3.401000 0.4200 0.4380 0.4450 0.4510 0.4600
3.435196 0.4670 0.4720 0.4790 0.4890 0.4980
3.470000 0.5030 0.5060 0.5170 0.5240 0.5300
3.504196 0.5370 0.5480 0.5530 0.5600 0.5670
3.538000 0.5720 0.5770 0.5870 0.5990 0.6040
3.572196 0.6110 0.6180 0.6230 0.6280 0.6340
3.606000 0.6420 0.6510 0.6590 0.6610 0.6680
3.640196 0.6730 0.6800 0.6870 0.6920 0.6990
3.675000 0.7020 0.7070 0.7110 0.7160 0.7210
3.709196 0.7250 0.7300 0.7330 0.7380 0.7420
3.743000 0.7470 0.7490 0.7520 0.7560 0.7590
3.777196 0.7620 0.7620 0.7660 0.7690 0.7730
3.812000 0.7740 0.7760 0.7780 0.7800 0.7810
3.846196 0.7830 0.7850 0.7860 0.7880 0.7900
3.880000 0.7920 0.7970 0.7970 0.7980 0.8000
3.914196 0.8020 0.8020 0.8040 0.8050 0.8070
3.948000 0.8090 0.8100 0.8100 0.8120 0.8120
3.982196 0.8140 0.8140 0.8160 0.8160 0.8170
4.017000 0.8170 0.8190 0.8190 0.8210 0.8210
4.051196 0.8230 0.8230 0.8230 0.8230 0.8230
4.085000 0.8230 0.8230 0.8230 0.8230 0.8230
4.119196 0.8230 0.8230 0.8210 0.8190 0.8170
4.153000 0.8160 0.8140 0.8140 0.8120 0.8100
4.187196 0.8090 0.8040 0.8020 0.8000 0.7980
4.222000 0.7970 0.7970 0.7920 0.7900 0.7880
4.256196 0.7860 0.7850 0.7830 0.7830 0.7810
4.290000 0.7810 0.7800 0.7800 0.7800 0.7800
4.324196 0.7800 0.7800 0.7800 0.7810 0.7810
4.358000 0.7830 0.7830 0.7850 0.7860 0.7880
4.392196 0.7900 0.7920 0.7920 0.7930 0.7950
4.427000 0.7970 0.7970 0.7980 0.8000 0.8020
4.461196 0.8040 0.8040 0.8050 0.8050 0.8070
4.495000 0.8070 0.8090 0.8090 0.8120 0.8120
4.529196 0.8140 0.8140 0.8160 0.8160 0.8170
4.563000 0.8170 0.8190 0.8190 0.8190 0.8210
4.597196 0.8210 0.8230 0.8230 0.8240 0.8240
4.632000 0.8260 0.8260 0.8280 0.8290 0.8310
4.666196 0.8310 0.8330 0.8350 0.8360 0.8380
4.700000 0.8380 0.8400 0.8400 0.8410 0.8410
4.734196 0.8430 0.8470 0.8470 0.8470 0.8480
4.769000 0.8500 0.8520 0.8520 0.8550 0.8570
4.803196 0.8590 0.8600 0.8640 0.8670 0.8690
4.837000 0.8720 0.8740 0.8760 0.8790 0.8810
4.871196 0.8830 0.8840 0.8860 0.8880 0.8900
4.905000 0.8910 0.8930 0.8930 0.8950 0.8960
4.939196 0.8960 0.8980 0.9000 0.9020 0.9020
4.974000 0.9030 0.9030 0.9030 0.9050 0.9070
5.008196 0.9100 0.9100 0.9120 0.9120 0.9140
5.042000 0.9140 0.9140 0.9150 0.9150 0.9170
5.076196 0.9170 0.9190 0.9190 0.9190 0.9200
5.110000 0.9200 0.9220 0.9240 0.9240 0.9260
5.144196 0.9260 0.9270 0.9270 0.9290 0.9290
5.179000 0.9310 0.9310 0.9310 0.9310 0.9310
5.213196 0.9310 0.9310 0.9310 0.9310 0.9310
5.247000 0.9310 0.9310 0.9310 0.9310 0.9310
5.281196 0.9310 0.9320 0.9310 0.9310 0.9310
5.315000 0.9310 0.9310 0.9310 0.9310 0.9310
5.349196 0.9310 0.9310 0.9310 0.9310 0.9310
5.384000 0.9310 0.9310 0.9310 0.9310 0.9310
5.418196 0.9310 0.9310 0.9310 0.9310 0.9290
5.452000 0.9290 0.9290 0.9290 0.9290 0.9290
5.486196 0.9290 0.9270 0.9270 0.9270 0.9270
5.521000 0.9270 0.9270 0.9270 0.9270 0.9270
5.555196 0.9270 0.9270 0.9270 0.9270 0.9270
5.589000 0.9270 0.9270 0.9260 0.9260 0.9260
5.623196 0.9260 0.9260 0.9260 0.9270 0.9270
5.657000 0.9270 0.9260 0.9260 0.9260 0.9240
5.691196 0.9240 0.9240 0.9240 0.9220 0.9220
5.726000 0.9220 0.9200 0.9170 0.9100 0.9070
5.760196 0.9030 0.9020 0.9000 0.8980 0.8950
5.794000 0.8900 0.8860 0.8780 0.8760 0.8720
5.828196 0.8710 0.8690 0.8670 0.8670 0.8620
5.862000 0.8570 0.8520 0.8480 0.8470 0.8450
5.896196 0.8380 0.8330 0.8280 0.8240 0.8160
5.931000 0.8160 0.8070 0.8040 0.7980 0.7880
5.965196 0.7780 0.7740 0.7620 0.7500 0.7370
5.999000 0.7250 0.7180 0.7160 0.7140 0.7130
6.033196 0.7130 0.7140 0.7160 0.7190 0.7250
6.067000 0.7280 0.7310 0.7370 0.7400 0.7490
6.101196 0.7520 0.7560 0.7590 0.7620 0.7660
6.136000 0.7690 0.7760 0.7800 0.7850 0.7900
6.170196 0.7970 0.8020 0.8020 0.8040 0.8070
6.204000 0.8090 0.8120 0.8140 0.8170 0.8190
6.238196 0.8210 0.8230 0.8240 0.8260 0.8280
6.272000 0.8290 0.8280 0.8260 0.8240 0.8230
6.306196 0.8230 0.8260 0.8260 0.8280 0.8310
6.341000 0.8310 0.8310 0.8310 0.8310 0.8310
6.375196 0.8290 0.8290 0.8290 0.8310 0.8330
6.409000 0.8380 0.8400 0.8410 0.8430 0.8470
6.443196 0.8470 0.8480 0.8480 0.8480 0.8480
6.478000 0.8480 0.8480 0.8480 0.8480 0.8480
6.512196 0.8480 0.8480 0.8500 0.8500 0.8520
6.546000 0.8520 0.8520 0.8520 0.8520 0.8520
6.580196 0.8500 0.8500 0.8520 0.8520 0.8530
6.614000 0.8570 0.8590 0.8590 0.8590 0.8570
6.648196 0.8570 0.8530 0.8520 0.8520 0.8520
6.683000 0.8520 0.8500 0.8500 0.8480 0.8470
6.717196 0.8430 0.8410 0.8400 0.8400 0.8400
6.751000 0.8380 0.8380 0.8360 0.8350 0.8330
6.785196 0.8330 0.8310 0.8310 0.8310 0.8290
6.819000 0.8280 0.8280 0.8280 0.8260 0.8240
6.853196 0.8240 0.8230 0.8230 0.8230 0.8240
6.888000 0.8260 0.8280 0.8310 0.8330 0.8350
6.922196 0.8380 0.8450 0.8480 0.8500 0.8530
6.956000 0.8570 0.8600 0.8620 0.8640 0.8650
6.990196 0.8670 0.8670 0.8690 0.8690 0.8690
7.024000 0.8690 0.8710 0.8720 0.8720 0.8740
7.058196 0.8760 0.8760 0.8780 0.8780 0.8780
7.093000 0.8780 0.8790 0.8810 0.8810 0.8830
7.127196 0.8830 0.8860 0.8880 0.8880 0.8900
7.161000 0.8900 0.8900 0.8900 0.8900 0.8910
7.195196 0.8910 0.8910 0.8910 0.8910 0.8910
7.229000 0.8910 0.8910 0.8900 0.8900 0.8900
7.263196 0.8900 0.8900 0.8900 0.8900 0.8900
7.298000 0.8900 0.8900 0.8900 0.8900 0.8900
7.332196 0.8900 0.8900 0.8900 0.8900 0.8900
7.366000 0.8900 0.8900 0.8900 0.8900 0.8900
7.400196 0.8900 0.8900 0.8900 0.8900 0.8900
7.435000 0.8900 0.8900 0.8900 0.8900 0.8900
7.469196 0.8900 0.8900 0.8900 0.8910 0.8910
7.503000 0.8910 0.8910 0.8910 0.8910 0.8910
7.537196 0.8910 0.8910 0.8910 0.8910 0.8910
7.571000 0.8910 0.8910 0.8910 0.8910 0.8910
7.605196 0.8910 0.8910 0.8910 0.8910 0.8910
7.640000 0.8910 0.8910 0.8910 0.8910 0.8910
7.674196 0.8910 0.8910 0.8910 0.8910 0.8910
7.708000 0.8910 0.8910 0.8910 0.8910 0.8930
7.742196 0.8930 0.8930 0.8930 0.8930 0.8930
7.776000 0.8930 0.8930 0.8930 0.8930 0.8930
7.810196 0.8930 0.8930 0.8930 0.8930 0.8930
7.845000 0.8930 0.8930 0.8930 0.8930 0.8930
7.879196 0.8930 0.8930 0.8930 0.8930 0.8930
7.913000 0.8930 0.8930 0.8930 0.8930 0.8930
7.947196 0.8930 0.8930 0.8930 0.8930 0.8930
7.981000 0.8930 0.8930 0.8950 0.8950 0.8950
8.015196 0.8950 0.8950 0.8950 0.8950 0.8950
8.050000 0.8950 0.8950 0.8950 0.8950 0.8950
8.084196 0.8950 0.8950 0.8950 0.8960 0.8960
8.118000 0.8960 0.8980 0.8960 0.8960 0.8960
8.152196 0.8960 0.8960 0.8960 0.8960 0.8960
8.187000 0.8960 0.8960 0.8960 0.8960 0.8980
8.221196 0.8980 0.8980 0.8980 0.8980 0.8980
8.255000 0.8960 0.8960 0.8980 0.8980 0.8980
8.289196 0.8980 0.8980 0.8980 0.8980 0.8980
8.323000 0.8980 0.8980 0.8980 0.8980 0.8980
8.357196 0.8980 0.8980 0.8980 0.8980 0.8980
8.392000 0.8980 0.8980 0.9000 0.8980 0.8980
8.426196 0.8980 0.8980 0.8980 0.8980 0.8980
8.460000 0.9000 0.9000 0.9000 0.9000 0.8980
8.494196 0.8980 0.8960 0.8960 0.8960 0.8960
8.528000 0.8960 0.8980 0.8980 0.8980 0.9000
8.562196 0.9000 0.9000 0.9000 0.9020 0.9020
8.597000 0.9020 0.9020 0.9000 0.8980 0.8960
8.631196 0.8950 0.8930 0.8930 0.8930 0.8930
8.665000 0.8930 0.8910 0.8910 0.8910 0.8910
8.699196 0.8910 0.8900 0.8900 0.8900 0.8880
8.733000 0.8880 0.8880 0.8860 0.8860 0.8860
8.767196 0.8860 0.8840 0.8840 0.8830 0.8830
8.802000 0.8810 0.8810 0.8810 0.8790 0.8780
8.836196 0.8760 0.8740 0.8740 0.8720 0.8720
8.870000 0.8720 0.8720 0.8720 0.8720 0.8710
8.904196 0.8710 0.8690 0.8690 0.8670 0.8670
8.938000 0.8670 0.8650 0.8650 0.8620 0.8620
8.972196 0.8600 0.8590 0.8590 0.8550 0.8520
9.007000 0.8500 0.8480 0.8470 0.8470 0.8470
9.041196 0.8450 0.8410 0.8400 0.8380 0.8350
9.075000 0.8330 0.8310 0.8290 0.8260 0.8240
9.109196 0.8210 0.8170 0.8140 0.8140 0.8090
9.144000 0.8050 0.8000 0.7970 0.7950 0.7930
9.178196 0.7860 0.7850 0.7810 0.7760 0.7740
9.212000 0.7680 0.7660 0.7610 0.7570 0.7540
9.246196 0.7470 0.7450 0.7370 0.7350 0.7260
9.280000 0.7190 0.7140 0.7060 0.7020 0.6940
9.314196 0.6870 0.6730 0.6700 0.6590 0.6490
9.349000 0.6420 0.6300 0.6230 0.6160 0.6030
9.383196 0.5990 0.5910 0.5840 0.5650 0.5530
9.417000 0.5440 0.5360 0.5300 0.5200 0.5080
9.451196 0.4980 0.4870 0.4720 0.4550 0.4480
9.485000 0.4450 0.4310 0.4260 0.4170 0.3960
9.519196 0.3710 0.3590 0.3500 0.3400 0.3290
9.554000 0.3230 0.3160 0.3040 0.2980 0.2930
9.588196 0.2850 0.2740 0.2680 0.2610 0.2560
9.622000 0.2490 0.2430 0.2380 0.2330 0.2280
9.656196 0.2230 0.2180 0.2130 0.2070 0.2020
9.690000 0.1990 0.1970 0.1940 0.1850 0.1800
9.724196 0.1760 0.1730 0.1680 0.1660 0.1590
9.759000 0.1580 0.1520 0.1490 0.1460 0.1420
9.793196 0.1390 0.1370 0.1350 0.1340 0.1300
9.827000 0.1270 0.1270 0.1250 0.1230 0.1210
9.861196 0.1200 0.1180 0.1160 0.1150 0.1150
9.896000 0.1130 0.1110 0.1110 0.1090 0.1080
9.930196 0.1080 0.1060 0.1060 0.1040 0.1040
9.964000 0.1040 0.1040 0.1040 0.1040 0.1040
9.998196 0.1040 0.1040 0.1040 0.1060 0.1080
10.032000 0.1080 0.1090 0.1110 0.1130 0.1150
10.066196 0.1150 0.1160 0.1180 0.1200 0.1210
10.101000 0.1230 0.1250 0.1270 0.1270 0.1280
10.135196 0.1300 0.1320 0.1350 0.1400 0.1440
10.169000 0.1510 0.1580 0.1640 0.1660 0.1680
10.203196 0.1760 0.1780 0.1830 0.1940 0.1990
10.237000 0.2010 0.2040 0.2110 0.2180 0.2250
10.271196 0.2300 0.2350 0.2380 0.2450 0.2540
10.306000 0.2640 0.2710 0.2800 0.2880 0.2950
10.340196 0.3020 0.3090 0.3170 0.3240 0.3310
10.374000 0.3380 0.3480 0.3600 0.3720 0.3790
10.408196 0.3880 0.3980 0.4050 0.4150 0.4220
10.442000 0.4290 0.4410 0.4480 0.4580 0.4650
10.476196 0.4700 0.4750 0.4770 0.4820 0.4860
10.511000 0.4890 0.4960 0.4980 0.5030 0.5060
10.545196 0.5100 0.5130 0.5150 0.5180 0.5220
10.579000 0.5250 0.5270 0.5290 0.5360 0.5370
10.613196 0.5410 0.5440 0.5460 0.5480 0.5490
10.647000 0.5510 0.5530 0.5560 0.5580 0.5610
10.681196 0.5630 0.5650 0.5680 0.5700 0.5720
10.716000 0.5750 0.5790 0.5820 0.5840 0.5840
10.750196 0.5850 0.5870 0.5890 0.5910 0.5920
10.784000 0.5940 0.5960 0.5970 0.5990 0.5990
10.818196 0.6030 0.6060 0.6080 0.6090 0.6110
10.853000 0.6150 0.6160 0.6180 0.6200 0.6210
10.887196 0.6230 0.6270 0.6280 0.6300 0.6350
10.921000 0.6370 0.6390 0.6400 0.6420 0.6440
10.955196 0.6460 0.6490 0.6510 0.6520 0.6580
10.989000 0.6590 0.6640 0.6640 0.6660 0.6660
11.023196 0.6680 0.6700 0.6710 0.6750 0.6750
11.058000 0.6760 0.6760 0.6780 0.6780 0.6800
11.092196 0.6820 0.6820 0.6830 0.6850 0.6870
11.126000 0.6870 0.6890 0.6890 0.6900 0.6900
11.160196 0.6900 0.6940 0.6940 0.6950 0.6950
11.194000 0.6950 0.6950 0.6990 0.6990 0.6990
11.228196 0.7010 0.7010 0.7010 0.7010 0.7020
11.263000 0.7020 0.7040 0.7060 0.7070 0.7070
11.297196 0.7090 0.7090 0.7090 0.7090 0.7110
11.331000 0.7110 0.7110 0.7130 0.7130 0.7130
11.365196 0.7140 0.7140 0.7140 0.7140 0.7140
11.399000 0.7140 0.7140 0.7160 0.7160 0.7160
11.433196 0.7160 0.7180 0.7180 0.7180 0.7180
11.468000 0.7190 0.7190 0.7190 0.7190 0.7210
11.502196 0.7210 0.7210 0.7230 0.7230 0.7230
11.536000 0.7230 0.7230 0.7250 0.7250 0.7250
11.570196 0.7250 0.7260 0.7260 0.7260 0.7260
11.604000 0.7260 0.7260 0.7260 0.7260 0.7260
11.638196 0.7280 0.7280 0.7280 0.7280 0.7280
11.673000 0.7280 0.7280 0.7280 0.7280 0.7280
11.707196 0.7280 0.7280 0.7280 0.7280 0.7280
11.741000 0.7280 0.7280 0.7280 0.7280 0.7280
11.775196 0.7280 0.7280 0.7280 0.7280 0.7280
11.810000 0.7280 0.7280 0.7280 0.7280 0.7280
11.844196 0.7280 0.7280 0.7280 0.7280 0.7280
11.878000 0.7280 0.7280 0.7280 0.7280 0.7280
11.912196 0.7280 0.7280 0.7280 0.7280 0.7280
11.946000 0.7280 0.7280 0.7280 0.7260 0.7260
11.980196 0.7260 0.7250 0.7250 0.7250 0.7250
12.015000 0.7230 0.7230 0.7210 0.7210 0.7190
12.049196 0.7190 0.7190 0.7180 0.7180 0.7180
12.083000 0.7160 0.7160 0.7140 0.7140 0.7140
12.117196 0.7140 0.7140 0.7160 0.7160 0.7160
12.151000 0.7180 0.7160 0.7160 0.7160 0.7160
12.185196 0.7160 0.7140 0.7130 0.7130 0.7090
12.220000 0.7060 0.7040 0.7020 0.7010 0.7010
12.254196 0.6990 0.6970 0.6970 0.6970 0.6950
12.288000 0.6940 0.6940 0.6920 0.6900 0.6890
12.322196 0.6890 0.6870 0.6870 0.6870 0.6850
12.356000 0.6850 0.6830 0.6830 0.6830 0.6820
12.390196 0.6820 0.6800 0.6780 0.6760 0.6760
12.425000 0.6750 0.6750 0.6730 0.6730 0.6710
12.459196 0.6710 0.6700 0.6700 0.6680 0.6660
12.493000 0.6640 0.6630 0.6610 0.6590 0.6590
12.527196 0.6590 0.6590 0.6590 0.6590 0.6590
12.562000 0.6590 0.6590 0.6590 0.6590 0.6590
12.596196 0.6590 0.6580 0.6580 0.6580 0.6560
12.630000 0.6540 0.6520 0.6510 0.6490 0.6490
12.664196 0.6470 0.6470 0.6460 0.6460 0.6440
12.698000 0.6440 0.6420 0.6400 0.6400 0.6390
12.732196 0.6390 0.6370 0.6370 0.6350 0.6340
12.767000 0.6300 0.6300 0.6300 0.6280 0.6280
12.801196 0.6270 0.6270 0.6250 0.6230 0.6210
12.835000 0.6210 0.6200 0.6200 0.6180 0.6180
12.869196 0.6180 0.6160 0.6130 0.6110 0.6090
12.903000 0.6080 0.6040 0.6030 0.5990 0.5970
12.937196 0.5970 0.5960 0.5960 0.5920 0.5890
12.972000 0.5870 0.5840 0.5820 0.5800 0.5790
13.006196 0.5770 0.5750 0.5730 0.5720 0.5720
13.040000 0.5680 0.5670 0.5650 0.5630 0.5610
13.074196 0.5600 0.5600 0.5580 0.5560 0.5530
13.108000 0.5510 0.5490 0.5490 0.5480 0.5460
13.142196 0.5460 0.5460 0.5440 0.5410 0.5390
13.177000 0.5390 0.5370 0.5360 0.5360 0.5340
13.211196 0.5290 0.5270 0.5240 0.5240 0.5200
13.245000 0.5180 0.5170 0.5150 0.5130 0.5120
13.279196 0.5100 0.5100 0.5080 0.5060 0.5030
13.313000 0.5010 0.5000 0.5000 0.4980 0.4980
13.347196 0.4940 0.4940 0.4910 0.4870 0.4860
13.382000 0.4840 0.4840 0.4820 0.4790 0.4770
13.416196 0.4740 0.4740 0.4720 0.4690 0.4670
13.450000 0.4650 0.4650 0.4600 0.4600 0.4580
13.484196 0.4570 0.4550 0.4550 0.4530 0.4510
13.519000 0.4500 0.4500 0.4480 0.4480 0.4480
13.553196 0.4480 0.4480 0.4460 0.4460 0.4460
13.587000 0.4450 0.4450 0.4450 0.4410 0.4390
13.621196 0.4390 0.4380 0.4360 0.4360 0.4340
13.655000 0.4340 0.4320 0.4320 0.4310 0.4310
13.689196 0.4290 0.4270 0.4270 0.4270 0.4260
13.724000 0.4260 0.4240 0.4240 0.4220 0.4220
13.758196 0.4220 0.4200 0.4200 0.4190 0.4190
13.792000 0.4170 0.4170 0.4170 0.4150 0.4150
13.826196 0.4140 0.4140 0.4140 0.4120 0.4120
13.860000 0.4100 0.4100 0.4100 0.4080 0.4070
13.894196 0.4050 0.4030 0.4030 0.4020 0.4020
13.929000 0.4000 0.3980 0.3960 0.3960 0.3960
13.963196 0.3950 0.3950 0.3930 0.3930 0.3930
13.997000 0.3930 0.3910 0.3910 0.3910 0.3910
14.031196 0.3900 0.3900 0.3900 0.3900 0.3880
14.065000 0.3880 0.3880 0.3880 0.3860 0.3860
14.099196 0.3860 0.3860 0.3840 0.3840 0.3840
14.134000 0.3830 0.3830 0.3830 0.3830 0.3810
14.168196 0.3810 0.3810 0.3790 0.3790 0.3790
14.202000 0.3790 0.3790 0.3780 0.3780 0.3780
14.236196 0.3780 0.3760 0.3740 0.3740 0.3740
14.271000 0.3740 0.3720 0.3720 0.3710 0.3710
14.305196 0.3710 0.3690 0.3690 0.3690 0.3690
14.339000 0.3670 0.3650 0.3650 0.3650 0.3640
14.373196 0.3640 0.3640 0.3640 0.3640 0.3640
14.407000 0.3640 0.3640 0.3640 0.3650 0.3650
14.441196 0.3650 0.3650 0.3650 0.3650 0.3670
14.476000 0.3670 0.3670 0.3670 0.3690 0.3710
14.510196 0.3710 0.3720 0.3720 0.3720 0.3720
14.544000 0.3740 0.3740 0.3740 0.3740 0.3740
14.578196 0.3740 0.3740 0.3740 0.3740 0.3740
14.612000 0.3740 0.3740 0.3720 0.3720 0.3720
14.646196 0.3720 0.3720 0.3720 0.3740 0.3740
14.681000 0.3740 0.3740 0.3760 0.3760 0.3760
14.715196 0.3780 0.3780 0.3790 0.3790 0.3790
14.749000 0.3810 0.3810 0.3810 0.3830 0.3830
14.783196 0.3830 0.3840 0.3860 0.3880 0.3880
14.817000 0.3930 0.3930 0.3960 0.3960 0.4000
14.851196 0.4020 0.4020 0.4030 0.4030 0.4030
14.886000 0.4030 0.4030 0.4030 0.4030 0.4030
14.920196 0.4030 0.4030 0.4030 0.4030 0.4030
14.954000 0.4050 0.4050 0.4050 0.4050 0.4070
14.988196 0.4070 0.4070 0.4070 0.4070 0.4080
15.022000 0.4080 0.4100 0.4100 0.4100 0.4120
15.056196 0.4120 0.4120 0.4140 0.4150 0.4150
15.091000 0.4170 0.4170 0.4170 0.4190 0.4190
15.125196 0.4200 0.4220 0.4220 0.4220 0.4240
15.159000 0.4240 0.4240 0.4260 0.4260 0.4260
15.193196 0.4260 0.4270 0.4270 0.4270 0.4290
15.228000 0.4290 0.4290 0.4310 0.4310 0.4320
15.262196 0.4320 0.4340 0.4340 0.4360 0.4360
15.296000 0.4380 0.4380 0.4390 0.4390 0.4410
15.330196 0.4410 0.4430 0.4430 0.4450 0.4450
15.364000 0.4480 0.4500 0.4510 0.4530 0.4530
15.398196 0.4550 0.4550 0.4570 0.4570 0.4580
15.433000 0.4580 0.4580 0.4580 0.4580 0.4600
15.467196 0.4600 0.4620 0.4620 0.4620 0.4620
15.501000 0.4630 0.4650 0.4650 0.4650 0.4670
15.535196 0.4670 0.4690 0.4700 0.4720 0.4720
15.569000 0.4740 0.4750 0.4750 0.4770 0.4790
15.603196 0.4790 0.4810 0.4810 0.4820 0.4820
15.638000 0.4820 0.4840 0.4860 0.4860 0.4870
15.672196 0.4890 0.4910 0.4930 0.4940 0.4940
15.706000 0.4940 0.4960 0.4980 0.4980 0.5000
15.740196 0.5000 0.5010 0.5010 0.5030 0.5050
15.774000 0.5050 0.5060 0.5080 0.5080 0.5100
15.808196 0.5120 0.5120 0.5130 0.5150 0.5180
15.843000 0.5180 0.5200 0.5220 0.5220 0.5240
15.877196 0.5240 0.5270 0.5270 0.5290 0.5320
15.911000 0.5320 0.5340 0.5360 0.5370 0.5390
15.945196 0.5390 0.5410 0.5420 0.5440 0.5460
15.979000 0.5480 0.5480
##END=
