##TITLE=P-PHENYLENEDIAMINE, N,N'-DIETHYL-N,N'-DI-B-NAPHTHYL-
##JCAMP-DX=4.24
##DATA TYPE=INFRARED SPECTRUM
##CLASS=COBLENTZ
##ORIGIN=TENNESSEE EASTMAN COMPANY, RESEARCH LABORATORIES
##OWNER=COBLENTZ SOCIETY
Collection (C) 2018 copyright by the U.S. Secretary of Commerce
on behalf of the United States of America. All rights reserved.
##DATE=1960
##NAMES=N<1>,N<4>-diethyl-N<1>-(1-naphthyl)-N<4>-(2-naphthyl)-1,4-benzenediamine
##MOLFORM=C30 H28 N2
##SOURCE REFERENCE=COBLENTZ NO. 765
##$NIST ID=B6000765
##$NIST SOURCE=COBLENTZ
##$NIST IMAGE=cob765
##SPECTROMETER/DATA SYSTEM=Not specified, most likely a prism, grating, or hybrid spectrometer.
##STATE=SOLID (KBr PELLET)
##SAMPLING PROCEDURE=TRANSMISSION
##RESOLUTION=4
##DATA PROCESSING=DIGITIZED BY NIST FROM HARD COPY
##XUNITS=MICROMETERS
##YUNITS=TRANSMITTANCE
##XFACTOR=1.000000
##YFACTOR=1
##DELTAX=000.006824
##FIRSTX=2.014
##LASTX=15.9828
##FIRSTY=0.739
##MAXX=15.9828
##MINX=2.014
##MAXY=1.003
##MINY=0.017
##NPOINTS=2048
##XYDATA=(X++(Y..Y))
2.014000 0.7390 0.7400 0.7420 0.7440 0.7460
2.048137 0.7470 0.7490 0.7510 0.7530 0.7540
2.082000 0.7560 0.7580 0.7580 0.7580 0.7580
2.116137 0.7580 0.7590 0.7610 0.7630 0.7650
2.150000 0.7660 0.7680 0.7680 0.7700 0.7710
2.184137 0.7710 0.7730 0.7750 0.7770 0.7780
2.218000 0.7780 0.7780 0.7780 0.7800 0.7800
2.252137 0.7800 0.7800 0.7800 0.7820 0.7820
2.287000 0.7820 0.7830 0.7850 0.7870 0.7870
2.321137 0.7890 0.7900 0.7900 0.7920 0.7920
2.355000 0.7920 0.7920 0.7940 0.7970 0.7990
2.389137 0.7990 0.8010 0.8020 0.8040 0.8040
2.423000 0.8060 0.8040 0.8060 0.8060 0.8060
2.457137 0.8060 0.8040 0.8040 0.8020 0.8040
2.491000 0.8040 0.8060 0.8070 0.8070 0.8090
2.525137 0.8090 0.8110 0.8130 0.8140 0.8160
2.560000 0.8160 0.8160 0.8180 0.8180 0.8180
2.594137 0.8180 0.8190 0.8190 0.8190 0.8190
2.628000 0.8210 0.8210 0.8230 0.8230 0.8230
2.662137 0.8230 0.8230 0.8250 0.8250 0.8250
2.696000 0.8250 0.8230 0.8210 0.8190 0.8160
2.730137 0.8130 0.8060 0.8020 0.7990 0.7970
2.764000 0.7920 0.7890 0.7830 0.7820 0.7800
2.798137 0.7770 0.7730 0.7710 0.7700 0.7680
2.833000 0.7660 0.7590 0.7560 0.7530 0.7490
2.867137 0.7490 0.7470 0.7440 0.7400 0.7390
2.901000 0.7370 0.7350 0.7350 0.7370 0.7400
2.935137 0.7440 0.7510 0.7580 0.7660 0.7730
2.969000 0.7780 0.7830 0.7900 0.7950 0.8020
3.003137 0.8060 0.8090 0.8110 0.8130 0.8140
3.037000 0.8180 0.8210 0.8210 0.8230 0.8250
3.071137 0.8260 0.8300 0.8310 0.8330 0.8350
3.106000 0.8370 0.8370 0.8380 0.8400 0.8420
3.140137 0.8420 0.8450 0.8470 0.8490 0.8490
3.174000 0.8500 0.8520 0.8540 0.8540 0.8540
3.208137 0.8540 0.8540 0.8500 0.8130 0.7850
3.242000 0.7510 0.7320 0.6910 0.6390 0.6320
3.276137 0.6320 0.6600 0.7110 0.7540 0.7650
3.310000 0.7650 0.7580 0.6870 0.5190 0.4830
3.344137 0.4850 0.5160 0.6600 0.7340 0.7420
3.378000 0.7420 0.7300 0.7180 0.7200 0.7230
3.412137 0.7340 0.7440 0.7650 0.7770 0.7850
3.447000 0.7900 0.7920 0.7950 0.8010 0.8090
3.481137 0.8250 0.8350 0.8400 0.8470 0.8520
3.515000 0.8570 0.8610 0.8660 0.8670 0.8730
3.549137 0.8740 0.8790 0.8880 0.8910 0.8950
3.583000 0.8970 0.8980 0.9000 0.9000 0.8980
3.617137 0.8970 0.8970 0.8950 0.8910 0.8910
3.651000 0.8930 0.8930 0.8930 0.8970 0.8970
3.685137 0.8970 0.8980 0.8980 0.9000 0.9000
3.720000 0.9020 0.9020 0.9020 0.9030 0.9030
3.754137 0.9050 0.9070 0.9070 0.9090 0.9090
3.788000 0.9090 0.9090 0.9070 0.9070 0.9070
3.822137 0.9070 0.9090 0.9090 0.9100 0.9120
3.856000 0.9140 0.9140 0.9150 0.9150 0.9170
3.890137 0.9190 0.9210 0.9210 0.9220 0.9220
3.924000 0.9240 0.9240 0.9240 0.9240 0.9220
3.958137 0.9220 0.9220 0.9220 0.9220 0.9220
3.993000 0.9220 0.9220 0.9220 0.9220 0.9220
4.027137 0.9240 0.9260 0.9260 0.9240 0.9260
4.061000 0.9260 0.9260 0.9270 0.9270 0.9270
4.095137 0.9270 0.9270 0.9270 0.9270 0.9270
4.129000 0.9270 0.9270 0.9260 0.9260 0.9290
4.163137 0.9310 0.9330 0.9330 0.9340 0.9360
4.197000 0.9380 0.9410 0.9430 0.9450 0.9450
4.231137 0.9450 0.9450 0.9450 0.9430 0.9410
4.266000 0.9410 0.9410 0.9410 0.9410 0.9410
4.300137 0.9390 0.9390 0.9410 0.9410 0.9390
4.334000 0.9390 0.9390 0.9390 0.9390 0.9410
4.368137 0.9430 0.9430 0.9460 0.9480 0.9500
4.402000 0.9510 0.9530 0.9530 0.9500 0.9510
4.436137 0.9530 0.9550 0.9530 0.9570 0.9570
4.470000 0.9580 0.9600 0.9600 0.9600 0.9600
4.504137 0.9600 0.9600 0.9600 0.9600 0.9580
4.539000 0.9580 0.9580 0.9580 0.9580 0.9580
4.573137 0.9580 0.9580 0.9580 0.9580 0.9580
4.607000 0.9600 0.9600 0.9600 0.9620 0.9620
4.641137 0.9630 0.9630 0.9670 0.9670 0.9650
4.675000 0.9650 0.9650 0.9650 0.9670 0.9670
4.709137 0.9670 0.9670 0.9650 0.9650 0.9650
4.743000 0.9650 0.9650 0.9650 0.9650 0.9650
4.777137 0.9650 0.9650 0.9650 0.9650 0.9650
4.812000 0.9650 0.9650 0.9650 0.9650 0.9650
4.846137 0.9650 0.9650 0.9650 0.9650 0.9650
4.880000 0.9650 0.9650 0.9650 0.9650 0.9650
4.914137 0.9650 0.9670 0.9670 0.9670 0.9670
4.948000 0.9650 0.9650 0.9650 0.9650 0.9690
4.982137 0.9700 0.9740 0.9790 0.9790 0.9750
5.016000 0.9750 0.9740 0.9720 0.9700 0.9700
5.050137 0.9690 0.9670 0.9650 0.9650 0.9630
5.085000 0.9630 0.9630 0.9620 0.9570 0.9380
5.119137 0.9220 0.9210 0.9210 0.9220 0.9290
5.153000 0.9360 0.9380 0.9380 0.9360 0.9310
5.187137 0.9240 0.9150 0.9090 0.9090 0.9090
5.221000 0.9090 0.9090 0.9120 0.9190 0.9210
5.255137 0.9240 0.9270 0.9310 0.9340 0.9380
5.289000 0.9460 0.9510 0.9570 0.9630 0.9620
5.323137 0.9630 0.9650 0.9650 0.9670 0.9690
5.357000 0.9700 0.9700 0.9700 0.9720 0.9700
5.391137 0.9670 0.9650 0.9580 0.9570 0.9530
5.426000 0.9510 0.9510 0.9510 0.9530 0.9530
5.460137 0.9530 0.9510 0.9510 0.9510 0.9510
5.494000 0.9500 0.9460 0.9430 0.9410 0.9410
5.528137 0.9450 0.9480 0.9480 0.9480 0.9480
5.562000 0.9480 0.9480 0.9480 0.9450 0.9410
5.596137 0.9390 0.9390 0.9390 0.9390 0.9390
5.630000 0.9390 0.9410 0.9430 0.9450 0.9480
5.664137 0.9480 0.9480 0.9500 0.9500 0.9510
5.699000 0.9500 0.9500 0.9500 0.9500 0.9480
5.733137 0.9480 0.9460 0.9430 0.9390 0.9380
5.767000 0.9390 0.9410 0.9410 0.9390 0.9360
5.801137 0.9330 0.9290 0.9260 0.9220 0.9210
5.835000 0.9210 0.9150 0.9100 0.9050 0.9000
5.869137 0.8970 0.8850 0.8760 0.8710 0.8710
5.903000 0.8760 0.8810 0.8850 0.8850 0.8830
5.937137 0.8810 0.8760 0.8730 0.8670 0.8570
5.972000 0.8470 0.8370 0.8280 0.8210 0.8140
6.006137 0.8090 0.8040 0.8010 0.7990 0.7970
6.040000 0.7950 0.7770 0.7530 0.7280 0.7030
6.074137 0.6770 0.6500 0.5830 0.4810 0.3890
6.108000 0.2620 0.0780 0.0480 0.0480 0.0480
6.142137 0.0560 0.0960 0.1450 0.2050 0.2690
6.176000 0.3360 0.4010 0.4440 0.4520 0.4470
6.210137 0.4030 0.3130 0.1850 0.1370 0.1370
6.245000 0.1450 0.2650 0.3490 0.4490 0.5140
6.279137 0.5570 0.5930 0.6260 0.6340 0.6340
6.313000 0.6190 0.5420 0.5360 0.5400 0.6140
6.347137 0.6800 0.7200 0.7440 0.7530 0.7660
6.381000 0.7850 0.8020 0.8180 0.8260 0.8310
6.415137 0.8330 0.8330 0.8330 0.8310 0.8310
6.449000 0.8130 0.8010 0.7940 0.7830 0.7710
6.483137 0.7510 0.7340 0.7130 0.6860 0.6550
6.518000 0.6150 0.5710 0.5160 0.4520 0.3770
6.552137 0.3150 0.2760 0.2480 0.2220 0.1880
6.586000 0.1320 0.0420 0.0220 0.0170 0.0170
6.620137 0.0200 0.0630 0.0990 0.1380 0.1830
6.654000 0.2410 0.3150 0.4330 0.5120 0.5120
6.688137 0.5090 0.4590 0.3850 0.3100 0.2590
6.722000 0.2070 0.1620 0.1210 0.0900 0.0680
6.756137 0.0650 0.0600 0.0660 0.1180 0.1590
6.791000 0.2460 0.3130 0.3680 0.4110 0.4510
6.825137 0.4870 0.5070 0.5180 0.5230 0.5300
6.859000 0.5330 0.5330 0.5330 0.5300 0.5300
6.893137 0.5280 0.5280 0.5330 0.5760 0.6070
6.927000 0.6790 0.6920 0.6920 0.6860 0.6680
6.961137 0.6500 0.6270 0.6190 0.6100 0.6100
6.995000 0.6100 0.6260 0.6820 0.7100 0.7270
7.029137 0.7340 0.7350 0.7350 0.7230 0.6990
7.064000 0.6720 0.6360 0.6070 0.5570 0.5000
7.098137 0.4610 0.3720 0.3170 0.2530 0.2100
7.132000 0.1780 0.1740 0.1710 0.1740 0.1810
7.166137 0.2100 0.2740 0.3370 0.3820 0.4160
7.200000 0.4300 0.4300 0.4270 0.3790 0.3430
7.234137 0.2980 0.2810 0.2460 0.2000 0.1980
7.268000 0.1980 0.1980 0.2170 0.3150 0.3650
7.302137 0.4420 0.4880 0.5280 0.5810 0.6000
7.336000 0.5930 0.5880 0.5550 0.5120 0.4520
7.370137 0.4490 0.4490 0.4710 0.5020 0.5260
7.405000 0.5520 0.5720 0.5980 0.6140 0.6220
7.439137 0.6310 0.6310 0.6290 0.6190 0.5910
7.473000 0.5500 0.5110 0.4800 0.4730 0.4730
7.507137 0.4760 0.5480 0.6030 0.6460 0.6790
7.541000 0.7030 0.7220 0.7350 0.7440 0.7490
7.575137 0.7540 0.7590 0.7660 0.7750 0.7820
7.609000 0.7890 0.8010 0.8020 0.8060 0.8090
7.643137 0.8180 0.8190 0.8210 0.8250 0.8280
7.678000 0.8300 0.8310 0.8310 0.8260 0.8090
7.712137 0.8020 0.7950 0.7900 0.7750 0.7610
7.746000 0.7470 0.7390 0.7160 0.6860 0.6440
7.780137 0.5980 0.5480 0.4950 0.4420 0.3890
7.814000 0.3700 0.3510 0.3460 0.3460 0.3490
7.848137 0.4250 0.4810 0.4990 0.4990 0.4970
7.882000 0.4420 0.3770 0.3050 0.2430 0.1970
7.916137 0.1740 0.1690 0.1710 0.1900 0.2120
7.951000 0.2360 0.2400 0.2400 0.2330 0.2050
7.985137 0.2020 0.1690 0.1500 0.1380 0.1370
8.019000 0.1260 0.1210 0.1200 0.1200 0.1250
8.053137 0.1500 0.1780 0.2140 0.2410 0.2640
8.087000 0.2810 0.2960 0.3080 0.3200 0.3310
8.121137 0.3440 0.3600 0.3790 0.4010 0.4300
8.155000 0.4640 0.5020 0.5420 0.5830 0.6240
8.189137 0.6670 0.7060 0.7320 0.7470 0.7610
8.224000 0.7700 0.7820 0.7950 0.7990 0.8060
8.258137 0.8130 0.8180 0.8210 0.8260 0.8740
8.292000 0.8740 0.8610 0.7870 0.7460 0.7010
8.326137 0.6670 0.5960 0.5330 0.4450 0.4420
8.360000 0.4440 0.4990 0.5420 0.5830 0.6100
8.394137 0.6430 0.6740 0.7060 0.7390 0.7660
8.428000 0.7970 0.8160 0.8230 0.8280 0.8350
8.462137 0.8420 0.8450 0.8500 0.8540 0.8540
8.497000 0.8550 0.8610 0.8620 0.8610 0.8610
8.531137 0.8620 0.8620 0.8570 0.8490 0.8380
8.565000 0.8310 0.8250 0.8210 0.8070 0.7970
8.599137 0.7890 0.7820 0.7700 0.7490 0.7150
8.633000 0.6860 0.6530 0.6240 0.6000 0.5550
8.667137 0.5020 0.4440 0.3920 0.3490 0.3310
8.701000 0.3170 0.3100 0.3070 0.3070 0.3030
8.735137 0.3070 0.3270 0.3510 0.3850 0.4300
8.770000 0.4760 0.5260 0.5740 0.6140 0.6340
8.804137 0.6340 0.6270 0.5830 0.5210 0.4570
8.838000 0.3960 0.3490 0.3250 0.3000 0.2980
8.872137 0.2980 0.3170 0.3920 0.4180 0.4450
8.906000 0.4760 0.5090 0.5420 0.5780 0.6120
8.940137 0.6440 0.6750 0.7040 0.7320 0.7530
8.974000 0.7700 0.7820 0.7870 0.7970 0.8070
9.008137 0.8190 0.8210 0.8210 0.8230 0.8260
9.043000 0.8260 0.8300 0.8300 0.8280 0.8260
9.077137 0.8210 0.8090 0.7900 0.7650 0.7300
9.111000 0.6840 0.6240 0.5520 0.4630 0.3560
9.145137 0.2590 0.2460 0.2460 0.2770 0.3560
9.179000 0.4330 0.4450 0.6140 0.6360 0.6580
9.213137 0.6800 0.7030 0.7230 0.7470 0.7680
9.247000 0.8010 0.8070 0.8140 0.8260 0.8310
9.281137 0.8370 0.8380 0.8420 0.8430 0.8450
9.315000 0.8490 0.8490 0.8490 0.8490 0.8490
9.349137 0.8470 0.8430 0.8400 0.8310 0.8250
9.384000 0.8090 0.7820 0.7730 0.7660 0.7590
9.418137 0.7530 0.7490 0.7440 0.7400 0.7390
9.452000 0.7350 0.7300 0.7220 0.7200 0.7200
9.486137 0.7200 0.7250 0.7540 0.7850 0.7990
9.520000 0.8090 0.8330 0.8400 0.8490 0.8550
9.554137 0.8640 0.8710 0.8740 0.8790 0.8810
9.588000 0.8830 0.8860 0.8880 0.8900 0.8910
9.622137 0.8930 0.8950 0.8970 0.8980 0.8980
9.657000 0.8980 0.8980 0.9000 0.9000 0.9020
9.691137 0.9020 0.9020 0.9020 0.9020 0.9020
9.725000 0.9000 0.8910 0.8730 0.8660 0.8570
9.759137 0.8540 0.8500 0.8490 0.8490 0.8470
9.793000 0.8470 0.8490 0.8500 0.8500 0.8540
9.827137 0.8590 0.8590 0.8570 0.8590 0.8590
9.861000 0.8500 0.8500 0.8490 0.8490 0.8500
9.895137 0.8620 0.8710 0.8780 0.8900 0.8970
9.930000 0.9000 0.9030 0.9100 0.9120 0.9120
9.964137 0.9140 0.9170 0.9210 0.9220 0.9220
9.998000 0.9220 0.9220 0.9260 0.9260 0.9270
10.032137 0.9270 0.9270 0.9270 0.9270 0.9270
10.066000 0.9270 0.9270 0.9270 0.9290 0.9290
10.100137 0.9270 0.9270 0.9270 0.9270 0.9270
10.134000 0.9270 0.9270 0.9270 0.9270 0.9270
10.168137 0.9270 0.9270 0.9290 0.9290 0.9290
10.203000 0.9290 0.9270 0.9270 0.9240 0.9210
10.237137 0.9150 0.9090 0.9050 0.9020 0.9020
10.271000 0.9000 0.8980 0.8950 0.8930 0.8900
10.305137 0.8850 0.8810 0.8780 0.8670 0.8590
10.339000 0.8430 0.8280 0.8070 0.7900 0.7650
10.373137 0.7490 0.7390 0.7320 0.7320 0.7320
10.407000 0.7370 0.7490 0.7580 0.7610 0.7610
10.441137 0.7610 0.7580 0.7540 0.7460 0.7340
10.476000 0.7300 0.7270 0.7270 0.7280 0.7340
10.510137 0.7420 0.7660 0.7820 0.7970 0.8060
10.544000 0.8110 0.8160 0.8190 0.8250 0.8280
10.578137 0.8310 0.8350 0.8380 0.8430 0.8500
10.612000 0.8570 0.8640 0.8730 0.8810 0.8880
10.646137 0.8950 0.9000 0.9030 0.9090 0.9100
10.680000 0.9120 0.9120 0.9120 0.9120 0.9140
10.714137 0.9140 0.9140 0.9140 0.9140 0.9140
10.749000 0.9120 0.9100 0.9030 0.8970 0.8830
10.783137 0.8590 0.8550 0.8310 0.8110 0.8010
10.817000 0.8010 0.8020 0.8090 0.8230 0.8310
10.851137 0.8380 0.8400 0.8420 0.8430 0.8450
10.885000 0.8500 0.8550 0.8640 0.8710 0.8850
10.919137 0.8950 0.9050 0.9120 0.9170 0.9210
10.953000 0.9240 0.9260 0.9270 0.9290 0.9310
10.987137 0.9310 0.9330 0.9340 0.9360 0.9340
11.022000 0.9360 0.9360 0.9360 0.9360 0.9380
11.056137 0.9380 0.9380 0.9380 0.9390 0.9410
11.090000 0.9410 0.9410 0.9430 0.9450 0.9460
11.124137 0.9480 0.9480 0.9480 0.9500 0.9510
11.158000 0.9510 0.9510 0.9510 0.9530 0.9550
11.192137 0.9550 0.9550 0.9530 0.9530 0.9530
11.226000 0.9550 0.9550 0.9530 0.9530 0.9530
11.260137 0.9530 0.9530 0.9530 0.9530 0.9530
11.294000 0.9530 0.9530 0.9530 0.9530 0.9530
11.328137 0.9530 0.9530 0.9530 0.9530 0.9530
11.363000 0.9530 0.9530 0.9530 0.9530 0.9530
11.397137 0.9530 0.9530 0.9530 0.9530 0.9530
11.431000 0.9530 0.9530 0.9530 0.9530 0.9510
11.465137 0.9460 0.9450 0.9410 0.9310 0.9260
11.499000 0.9210 0.9090 0.9050 0.9000 0.8980
11.533137 0.8980 0.8980 0.8980 0.9000 0.9000
11.567000 0.9020 0.9050 0.9090 0.9120 0.9140
11.601137 0.9140 0.9140 0.9140 0.9140 0.9140
11.636000 0.9140 0.9120 0.9100 0.9050 0.9020
11.670137 0.8980 0.8950 0.8910 0.8860 0.8830
11.704000 0.8740 0.8660 0.8570 0.8500 0.8420
11.738137 0.8310 0.8210 0.8070 0.7900 0.7680
11.772000 0.7440 0.7250 0.6820 0.6440 0.6120
11.806137 0.5840 0.5590 0.5360 0.5180 0.4970
11.840000 0.4780 0.4590 0.4370 0.4150 0.3870
11.874137 0.3560 0.3200 0.2790 0.2310 0.1740
11.909000 0.1490 0.1140 0.0900 0.0750 0.0610
11.943137 0.0600 0.0600 0.0600 0.0610 0.0720
11.977000 0.0850 0.1090 0.1440 0.1830 0.2290
12.011137 0.2790 0.3290 0.3750 0.4200 0.4570
12.045000 0.4850 0.5020 0.5280 0.5500 0.5710
12.079137 0.5900 0.6070 0.6220 0.6340 0.6430
12.113000 0.6500 0.6560 0.6600 0.6620 0.6620
12.147137 0.6600 0.6580 0.6530 0.6440 0.6410
12.182000 0.6390 0.6360 0.6320 0.6310 0.6310
12.216137 0.6270 0.6240 0.6170 0.6100 0.5950
12.250000 0.5740 0.5450 0.5090 0.4660 0.4160
12.284137 0.3800 0.3560 0.3390 0.3240 0.3200
12.318000 0.3200 0.3250 0.3750 0.4180 0.4560
12.352137 0.4880 0.5180 0.5420 0.5660 0.5860
12.386000 0.6050 0.6220 0.6390 0.6580 0.6750
12.420137 0.6960 0.7160 0.7390 0.7650 0.7870
12.455000 0.8090 0.8280 0.8430 0.8520 0.8610
12.489137 0.8710 0.8790 0.8900 0.8970 0.9000
12.523000 0.9050 0.9140 0.9190 0.9210 0.9220
12.557137 0.9260 0.9290 0.9290 0.9290 0.9310
12.591000 0.9310 0.9330 0.9340 0.9340 0.9340
12.625137 0.9360 0.9380 0.9380 0.9380 0.9390
12.659000 0.9380 0.9390 0.9390 0.9390 0.9430
12.693137 0.9430 0.9410 0.9410 0.9410 0.9410
12.728000 0.9430 0.9410 0.9410 0.9410 0.9410
12.762137 0.9410 0.9410 0.9410 0.9410 0.9410
12.796000 0.9390 0.9360 0.9330 0.9310 0.9270
12.830137 0.9220 0.9210 0.9150 0.9120 0.9070
12.864000 0.9050 0.9020 0.8980 0.8930 0.8860
12.898137 0.8850 0.8810 0.8760 0.8670 0.8620
12.932000 0.8550 0.8520 0.8450 0.8370 0.8260
12.966137 0.8180 0.7990 0.7850 0.7590 0.7370
13.001000 0.7080 0.6840 0.6740 0.6580 0.6410
13.035137 0.6240 0.6100 0.6000 0.5950 0.5790
13.069000 0.5690 0.5600 0.5520 0.5520 0.5540
13.103137 0.5540 0.5600 0.5670 0.5740 0.5910
13.137000 0.6020 0.6200 0.6290 0.6510 0.6630
13.171137 0.6820 0.6940 0.7040 0.7200 0.7230
13.205000 0.7230 0.7230 0.7220 0.7180 0.7060
13.239137 0.6920 0.6790 0.6630 0.6510 0.6390
13.273000 0.6260 0.6080 0.5910 0.5690 0.5470
13.307137 0.5190 0.4870 0.4540 0.4110 0.3970
13.342000 0.3630 0.3150 0.2650 0.2210 0.2070
13.376137 0.1880 0.1830 0.1830 0.1930 0.2330
13.410000 0.2760 0.3220 0.3720 0.4210 0.4690
13.444137 0.5180 0.5600 0.5980 0.6500 0.6870
13.478000 0.7160 0.7400 0.7650 0.7890 0.8040
13.512137 0.8190 0.8330 0.8450 0.8520 0.8640
13.546000 0.8730 0.8810 0.8910 0.9000 0.9050
13.580137 0.9100 0.9140 0.9190 0.9220 0.9260
13.615000 0.9290 0.9330 0.9340 0.9360 0.9390
13.649137 0.9410 0.9430 0.9460 0.9480 0.9500
13.683000 0.9510 0.9510 0.9550 0.9580 0.9580
13.717137 0.9600 0.9620 0.9630 0.9650 0.9650
13.751000 0.9650 0.9670 0.9700 0.9700 0.9700
13.785137 0.9740 0.9740 0.9750 0.9770 0.9790
13.819000 0.9810 0.9810 0.9820 0.9820 0.9820
13.853137 0.9840 0.9870 0.9890 0.9910 0.9910
13.888000 0.9910 0.9910 0.9930 0.9910 0.9930
13.922137 0.9930 0.9930 0.9930 0.9940 0.9940
13.956000 0.9940 0.9940 0.9960 0.9960 0.9960
13.990137 0.9980 0.9980 0.9980 0.9980 0.9980
14.024000 0.9980 0.9980 0.9980 1.0000 1.0000
14.058137 1.0000 1.0000 1.0000 1.0000 1.0000
14.092000 1.0000 1.0000 1.0000 1.0000 1.0000
14.126137 1.0000 1.0000 1.0000 1.0000 1.0000
14.161000 1.0000 1.0000 1.0000 1.0000 1.0000
14.195137 1.0000 1.0000 1.0000 1.0010 1.0010
14.229000 1.0010 1.0010 1.0010 1.0010 1.0010
14.263137 1.0010 1.0010 1.0010 1.0010 1.0010
14.297000 1.0010 1.0010 1.0010 1.0010 1.0010
14.331137 1.0010 1.0010 1.0010 1.0010 1.0010
14.365000 1.0010 1.0010 1.0010 1.0010 1.0010
14.399137 1.0010 1.0010 1.0030 1.0030 1.0030
14.434000 1.0030 1.0030 1.0030 1.0030 1.0030
14.468137 1.0030 1.0030 1.0030 1.0030 1.0030
14.502000 1.0030 1.0030 1.0030 1.0030 1.0030
14.536137 1.0030 1.0030 1.0030 1.0030 1.0030
14.570000 1.0030 1.0030 1.0030 1.0030 1.0010
14.604137 1.0000 1.0000 1.0000 1.0000 1.0000
14.638000 1.0000 1.0010 1.0010 1.0010 1.0010
14.672137 1.0010 1.0010 1.0010 1.0010 1.0010
14.707000 1.0010 1.0010 1.0010 1.0010 1.0010
14.741137 1.0010 1.0010 1.0010 1.0010 1.0010
14.775000 1.0000 1.0000 1.0000 1.0000 1.0000
14.809137 1.0000 0.9980 0.9980 0.9980 0.9980
14.843000 0.9980 0.9980 0.9980 0.9960 0.9980
14.877137 0.9980 0.9980 0.9980 0.9960 0.9940
14.911000 0.9940 0.9910 0.9890 0.9860 0.9820
14.945137 0.9770 0.9700 0.9650 0.9580 0.9550
14.980000 0.9550 0.9530 0.9530 0.9550 0.9550
15.014137 0.9550 0.9550 0.9570 0.9600 0.9630
15.048000 0.9650 0.9650 0.9650 0.9650 0.9650
15.082137 0.9650 0.9670 0.9670 0.9670 0.9650
15.116000 0.9630 0.9620 0.9580 0.9530 0.9460
15.150137 0.9390 0.9340 0.9290 0.9210 0.9140
15.184000 0.9030 0.8980 0.8910 0.8850 0.8660
15.218137 0.8590 0.8520 0.8470 0.8380 0.8310
15.252000 0.8250 0.8130 0.8110 0.8090 0.8070
15.286137 0.8060 0.8040 0.8040 0.8040 0.8040
15.321000 0.8040 0.8040 0.8060 0.8060 0.8060
15.355137 0.8090 0.8130 0.8160 0.8160 0.8210
15.389000 0.8260 0.8260 0.8300 0.8330 0.8350
15.423137 0.8380 0.8380 0.8400 0.8420 0.8430
15.457000 0.8450 0.8470 0.8470 0.8470 0.8470
15.491137 0.8470 0.8470 0.8490 0.8490 0.8490
15.525000 0.8500 0.8500 0.8500 0.8500 0.8500
15.559137 0.8500 0.8490 0.8450 0.8430 0.8430
15.594000 0.8420 0.8400 0.8350 0.8310 0.8260
15.628137 0.8230 0.8190 0.8180 0.8160 0.8130
15.662000 0.8110 0.8060 0.8040 0.8020 0.8010
15.696137 0.7950 0.7940 0.7890 0.7870 0.7830
15.730000 0.7800 0.7770 0.7770 0.7750 0.7680
15.764137 0.7680 0.7680 0.7680 0.7680 0.7680
15.798000 0.7660 0.7660 0.7650 0.7650 0.7650
15.832137 0.7650 0.7630 0.7630 0.7650 0.7630
15.867000 0.7630 0.7630 0.7630 0.7630 0.7630
15.901137 0.7630 0.7610 0.7590 0.7590 0.7590
15.935000 0.7590 0.7580 0.7560 0.7560 0.7560
15.969137 0.7560 0.7560 0.7540
##END=
