##TITLE=O-PHTHALALDEHYDE 2,4-DINITROPHENYL HYDRAZONE
##JCAMP-DX=4.24
##DATA TYPE=INFRARED SPECTRUM
##CLASS=COBLENTZ
##ORIGIN=STANDARD OIL OF OHIO
##OWNER=COBLENTZ SOCIETY
Collection (C) 2018 copyright by the U.S. Secretary of Commerce
on behalf of the United States of America. All rights reserved.
##DATE=Not specified, most likely prior to 1970
##NAMES=terephthalaldehyde bis[(2,4-dinitrophenyl)hydrazone]
##MOLFORM=C20 H14 N8 O8
##SOURCE REFERENCE=COBLENTZ NO. 2056
##$NIST ID=B6002056
##$NIST SOURCE=COBLENTZ
##$NIST IMAGE=cob2056
##SPECTROMETER/DATA SYSTEM=PERKIN-ELMER
##STATE=SOLID (MINERAL OIL MULL)
##SAMPLING PROCEDURE=TRANSMISSION
##RESOLUTION=4
##DATA PROCESSING=DIGITIZED BY NIST FROM HARD COPY
##XUNITS=MICROMETERS
##YUNITS=TRANSMITTANCE
##XFACTOR=1.000000
##YFACTOR=1
##DELTAX=000.006781
##FIRSTX=2.027
##LASTX=15.3801
##FIRSTY=0.803
##MAXX=15.3801
##MINX=2.027
##MAXY=1.032
##MINY=0.006
##NPOINTS=1970
##XYDATA=(X++(Y..Y))
2.027000 0.8030 0.8050 0.8080 0.8080 0.8120
2.060924 0.8150 0.8170 0.8200 0.8220 0.8240
2.095000 0.8270 0.8270 0.8290 0.8320 0.8370
2.128924 0.8430 0.8480 0.8480 0.8490 0.8510
2.163000 0.8530 0.8530 0.8560 0.8560 0.8560
2.196924 0.8580 0.8630 0.8660 0.8700 0.8720
2.231000 0.8770 0.8780 0.8780 0.8780 0.8770
2.264924 0.8770 0.8720 0.8700 0.8680 0.8630
2.298000 0.8610 0.8600 0.8600 0.8600 0.8610
2.331924 0.8610 0.8650 0.8660 0.8680 0.8680
2.366000 0.8700 0.8720 0.8770 0.8820 0.8870
2.399924 0.8900 0.8940 0.8950 0.8970 0.8970
2.434000 0.8990 0.9010 0.9040 0.9070 0.9110
2.467924 0.9110 0.9120 0.9180 0.9190 0.9260
2.502000 0.9330 0.9380 0.9430 0.9450 0.9470
2.535924 0.9480 0.9480 0.9480 0.9500 0.9520
2.570000 0.9520 0.9570 0.9570 0.9590 0.9600
2.603924 0.9640 0.9650 0.9670 0.9670 0.9690
2.637000 0.9700 0.9720 0.9740 0.9770 0.9810
2.670924 0.9820 0.9820 0.9840 0.9840 0.9820
2.705000 0.9810 0.9790 0.9790 0.9790 0.9770
2.738924 0.9770 0.9770 0.9770 0.9790 0.9790
2.773000 0.9810 0.9820 0.9840 0.9880 0.9890
2.806924 0.9930 0.9960 0.9960 0.9980 1.0000
2.841000 1.0000 1.0000 1.0000 1.0000 1.0000
2.874924 1.0000 1.0000 1.0000 1.0000 1.0000
2.909000 1.0000 1.0000 1.0000 0.9980 0.9960
2.942924 0.9940 0.9930 0.9890 0.9840 0.9790
2.977000 0.9740 0.9530 0.9400 0.8510 0.7090
3.010924 0.4470 0.4350 0.4350 0.4910 0.5230
3.044000 0.5440 0.7040 0.8310 0.8630 0.8890
3.077924 0.9090 0.9180 0.9260 0.9300 0.9350
3.112000 0.9380 0.9380 0.9380 0.9380 0.9380
3.145924 0.9300 0.9090 0.8970 0.8890 0.8600
3.180000 0.8080 0.7540 0.7400 0.6990 0.6910
3.213924 0.6990 0.7250 0.7450 0.7670 0.7930
3.248000 0.8130 0.8290 0.8440 0.8440 0.8370
3.281924 0.8200 0.7980 0.7710 0.7400 0.7080
3.316000 0.6770 0.6500 0.6270 0.6090 0.5200
3.349924 0.1190 0.1050 0.1040 0.0750 0.0390
3.383000 0.0300 0.0230 0.0180 0.0130 0.0130
3.416924 0.0150 0.0150 0.0180 0.0200 0.0250
3.451000 0.0320 0.0370 0.0390 0.0400 0.0400
3.484924 0.0420 0.0440 0.1000 0.1560 0.2150
3.519000 0.4770 0.5290 0.5660 0.6190 0.6820
3.552924 0.7250 0.7730 0.8030 0.8190 0.8360
3.587000 0.8460 0.8510 0.8720 0.8780 0.8800
3.620924 0.8830 0.8890 0.8890 0.8900 0.8920
3.655000 0.8920 0.8920 0.8990 0.9010 0.9020
3.688924 0.9070 0.9090 0.9110 0.9120 0.9140
3.722000 0.9160 0.9160 0.9180 0.9190 0.9190
3.755924 0.9190 0.9190 0.9190 0.9190 0.9210
3.790000 0.9210 0.9230 0.9300 0.9310 0.9330
3.823924 0.9380 0.9410 0.9480 0.9530 0.9620
3.858000 0.9700 0.9770 0.9790 0.9820 0.9860
3.891924 0.9880 0.9890 0.9910 0.9910 0.9930
3.926000 1.0000 1.0010 1.0010 1.0080 1.0130
3.959924 1.0180 1.0220 1.0270 1.0290 1.0300
3.994000 1.0300 1.0300 1.0300 1.0300 1.0300
4.027924 1.0300 1.0290 1.0290 1.0270 1.0250
4.062000 1.0220 1.0200 1.0180 1.0150 1.0130
4.095924 1.0080 1.0080 1.0050 1.0050 1.0050
4.129000 1.0050 1.0050 1.0080 1.0080 1.0110
4.162924 1.0250 1.0270 1.0270 1.0270 1.0290
4.197000 1.0290 1.0290 1.0290 1.0300 1.0300
4.230924 1.0300 1.0300 1.0300 1.0300 1.0300
4.265000 1.0300 1.0300 1.0300 1.0300 1.0300
4.298924 1.0300 1.0300 1.0300 1.0300 1.0300
4.333000 1.0300 1.0300 1.0300 1.0300 1.0300
4.366924 1.0300 1.0300 1.0300 1.0300 1.0300
4.401000 1.0300 1.0300 1.0300 1.0300 1.0300
4.434924 1.0300 1.0300 1.0300 1.0300 1.0300
4.468000 1.0300 1.0300 1.0300 1.0300 1.0300
4.501924 1.0300 1.0300 1.0300 1.0300 1.0300
4.536000 1.0300 1.0300 1.0300 1.0300 1.0300
4.569924 1.0300 1.0300 1.0300 1.0300 1.0300
4.604000 1.0290 1.0290 1.0290 1.0290 1.0290
4.637924 1.0290 1.0290 1.0290 1.0290 1.0290
4.672000 1.0290 1.0290 1.0290 1.0290 1.0290
4.705924 1.0290 1.0290 1.0290 1.0290 1.0290
4.740000 1.0290 1.0290 1.0290 1.0290 1.0290
4.773924 1.0290 1.0290 1.0290 1.0290 1.0290
4.808000 1.0290 1.0290 1.0290 1.0290 1.0290
4.841924 1.0290 1.0290 1.0290 1.0290 1.0290
4.875000 1.0290 1.0290 1.0290 1.0290 1.0290
4.908924 1.0290 1.0290 1.0290 1.0290 1.0290
4.943000 1.0290 1.0290 1.0290 1.0290 1.0300
4.976924 1.0300 1.0300 1.0300 1.0300 1.0300
5.011000 1.0300 1.0300 1.0300 1.0300 1.0300
5.044924 1.0300 1.0300 1.0300 1.0300 1.0300
5.079000 1.0300 1.0300 1.0300 1.0300 1.0300
5.112924 1.0320 1.0320 1.0320 1.0320 1.0320
5.147000 1.0320 1.0320 1.0320 1.0320 1.0320
5.180924 1.0320 1.0320 1.0320 1.0320 1.0320
5.214000 1.0320 1.0320 1.0320 1.0320 1.0320
5.247924 1.0320 1.0320 1.0320 1.0320 1.0320
5.282000 1.0320 1.0320 1.0320 1.0320 1.0320
5.315924 1.0320 1.0320 1.0320 1.0320 1.0320
5.350000 1.0320 1.0320 1.0320 1.0320 1.0320
5.383924 1.0320 1.0320 1.0320 1.0320 1.0320
5.418000 1.0320 1.0320 1.0320 1.0320 1.0320
5.451924 1.0320 1.0320 1.0320 1.0320 1.0320
5.486000 1.0320 1.0320 1.0320 1.0320 1.0320
5.519924 1.0320 1.0320 1.0320 1.0320 1.0320
5.553000 1.0320 1.0320 1.0320 1.0320 1.0320
5.586924 1.0320 1.0320 1.0320 1.0320 1.0320
5.621000 1.0320 1.0320 1.0320 1.0320 1.0320
5.654924 1.0320 1.0320 1.0320 1.0300 1.0300
5.689000 1.0300 1.0300 1.0300 1.0300 1.0300
5.722924 1.0300 1.0300 1.0300 1.0300 1.0300
5.757000 1.0290 1.0290 1.0270 1.0220 1.0200
5.790924 1.0180 1.0170 1.0100 0.9940 0.9720
5.825000 0.9470 0.9240 0.9060 0.9010 0.8770
5.858924 0.8440 0.8100 0.7810 0.7450 0.7260
5.893000 0.7200 0.7090 0.7080 0.7080 0.7090
5.926924 0.7110 0.7470 0.7640 0.7760 0.8030
5.960000 0.8190 0.8320 0.8430 0.8490 0.8490
5.993924 0.8530 0.8530 0.8490 0.8460 0.8460
6.028000 0.8370 0.8250 0.8100 0.7880 0.7760
6.061924 0.7540 0.7300 0.6650 0.6530 0.6070
6.096000 0.4600 0.3360 0.2540 0.1960 0.1460
6.129924 0.1140 0.0760 0.0580 0.0370 0.0220
6.164000 0.0180 0.0180 0.0170 0.0170 0.0170
6.197924 0.0180 0.0220 0.0250 0.0290 0.0290
6.232000 0.0320 0.0350 0.0370 0.0400 0.0400
6.265924 0.0320 0.0320 0.0320 0.0350 0.0390
6.299000 0.0420 0.0510 0.0730 0.1100 0.1530
6.332924 0.2010 0.2550 0.2900 0.3720 0.4110
6.367000 0.4690 0.4910 0.5010 0.5130 0.5230
6.400924 0.5400 0.5590 0.5590 0.5590 0.5580
6.435000 0.5370 0.5110 0.5050 0.4930 0.4480
6.468924 0.4310 0.4180 0.4070 0.3940 0.3720
6.503000 0.3310 0.3130 0.2930 0.2730 0.2470
6.536924 0.2160 0.1750 0.1240 0.1040 0.0610
6.571000 0.0510 0.0400 0.0320 0.0270 0.0250
6.604924 0.0230 0.0220 0.0220 0.0230 0.0230
6.638000 0.0230 0.0290 0.0420 0.0710 0.0920
6.671924 0.1050 0.1210 0.1380 0.1820 0.2350
6.706000 0.2490 0.2660 0.2710 0.2790 0.2860
6.739924 0.2910 0.3000 0.3100 0.3190 0.3100
6.774000 0.2930 0.2660 0.2500 0.2330 0.2160
6.807924 0.1910 0.1630 0.1580 0.1530 0.1530
6.842000 0.1530 0.1550 0.1580 0.1620 0.1630
6.875924 0.1650 0.1700 0.1740 0.1770 0.1800
6.910000 0.1820 0.1840 0.1820 0.1800 0.1790
6.943924 0.1740 0.1630 0.1600 0.1560 0.1530
6.978000 0.1510 0.1480 0.1430 0.1410 0.1410
7.011924 0.1410 0.1430 0.1700 0.1870 0.2060
7.045000 0.2250 0.2950 0.3490 0.4230 0.4550
7.078924 0.5320 0.5660 0.5950 0.6360 0.6670
7.113000 0.6870 0.7030 0.7110 0.7200 0.7230
7.146924 0.7280 0.7280 0.7210 0.7060 0.6920
7.181000 0.6720 0.6310 0.5830 0.5150 0.4810
7.214924 0.4430 0.4160 0.3560 0.3290 0.2910
7.249000 0.2810 0.2810 0.2810 0.2960 0.3200
7.282924 0.3360 0.3480 0.3540 0.3580 0.3580
7.317000 0.3580 0.3540 0.3490 0.3310 0.3100
7.350924 0.2910 0.2470 0.2090 0.1970 0.1560
7.384000 0.1360 0.1070 0.0850 0.0610 0.0370
7.417924 0.0230 0.0180 0.0150 0.0130 0.0130
7.452000 0.0100 0.0100 0.0100 0.0080 0.0080
7.485924 0.0060 0.0060 0.0060 0.0060 0.0060
7.520000 0.0080 0.0080 0.0100 0.0100 0.0100
7.553924 0.0130 0.0180 0.0220 0.0290 0.0370
7.588000 0.0390 0.0400 0.0390 0.0320 0.0250
7.621924 0.0230 0.0250 0.0250 0.0290 0.0340
7.656000 0.0510 0.0690 0.0870 0.1020 0.1190
7.689924 0.1290 0.1380 0.1430 0.1460 0.1500
7.724000 0.1500 0.1500 0.1500 0.1460 0.1430
7.757924 0.1380 0.1330 0.1290 0.1270 0.1260
7.791000 0.1240 0.1220 0.1210 0.1210 0.1190
7.824924 0.1190 0.1170 0.1160 0.1140 0.1120
7.859000 0.1120 0.1120 0.1100 0.1100 0.1100
7.892924 0.1120 0.1290 0.1510 0.1720 0.1920
7.927000 0.2210 0.2470 0.2660 0.2880 0.3630
7.960924 0.4010 0.4240 0.4400 0.4820 0.5110
7.995000 0.5340 0.5470 0.5980 0.6100 0.6330
8.028924 0.6390 0.6500 0.6530 0.6580 0.6580
8.063000 0.6580 0.6550 0.6510 0.6340 0.6100
8.096924 0.5950 0.5150 0.4910 0.4700 0.4480
8.130000 0.4060 0.3940 0.3560 0.3290 0.2900
8.163924 0.2790 0.2710 0.2710 0.2760 0.2830
8.198000 0.3020 0.3220 0.3340 0.3510 0.3900
8.231924 0.3990 0.4190 0.4570 0.4790 0.4930
8.266000 0.5050 0.5130 0.5230 0.5300 0.5350
8.299924 0.5390 0.5400 0.5400 0.5390 0.5370
8.334000 0.5350 0.5350 0.5370 0.5400 0.5510
8.367924 0.5590 0.5640 0.5850 0.6000 0.6070
8.402000 0.6290 0.6380 0.6450 0.6530 0.6700
8.435924 0.6820 0.6910 0.7090 0.7280 0.7520
8.469000 0.7540 0.7640 0.7730 0.7740 0.7790
8.502924 0.7840 0.7860 0.7880 0.7880 0.7880
8.537000 0.7880 0.7860 0.7830 0.7790 0.7740
8.570924 0.7690 0.7670 0.7590 0.7520 0.7500
8.605000 0.7500 0.7490 0.7470 0.7450 0.7440
8.638924 0.7400 0.7320 0.7090 0.6910 0.6050
8.673000 0.5180 0.5000 0.4470 0.3970 0.3630
8.706924 0.2950 0.1960 0.1560 0.1340 0.1140
8.741000 0.0950 0.0780 0.0640 0.0520 0.0460
8.774924 0.0440 0.0440 0.0440 0.0440 0.0470
8.809000 0.0560 0.0750 0.0850 0.1000 0.1140
8.842924 0.1410 0.1530 0.1680 0.1990 0.2060
8.876000 0.2210 0.2300 0.2350 0.2420 0.2440
8.909924 0.2500 0.2440 0.2400 0.2330 0.2280
8.944000 0.2160 0.2080 0.2010 0.1870 0.1800
8.977924 0.1750 0.1740 0.1750 0.1860 0.2250
9.012000 0.2620 0.3000 0.3460 0.3630 0.3780
9.045924 0.3990 0.4470 0.4690 0.4820 0.4910
9.080000 0.5030 0.5110 0.5170 0.5180 0.5200
9.113924 0.5170 0.5110 0.5030 0.4930 0.4760
9.148000 0.4650 0.4480 0.4310 0.4180 0.4020
9.181924 0.3870 0.3660 0.3580 0.3510 0.3410
9.215000 0.3270 0.3220 0.3080 0.3050 0.2880
9.248924 0.2730 0.2590 0.2450 0.2370 0.2300
9.283000 0.2210 0.2160 0.2130 0.2110 0.2080
9.316924 0.2090 0.2350 0.2730 0.2900 0.3120
9.351000 0.3580 0.4500 0.4880 0.5060 0.5270
9.384924 0.5560 0.5590 0.5560 0.5440 0.5230
9.419000 0.5010 0.4860 0.4650 0.4470 0.4350
9.452924 0.4230 0.4180 0.4160 0.4180 0.4230
9.487000 0.4310 0.4550 0.4890 0.5200 0.5560
9.520924 0.5810 0.5950 0.6070 0.6270 0.6430
9.555000 0.6630 0.6800 0.6960 0.7080 0.7200
9.588924 0.7300 0.7420 0.7500 0.7610 0.7710
9.622000 0.7780 0.7810 0.7900 0.8000 0.8030
9.655924 0.8100 0.8150 0.8170 0.8200 0.8240
9.690000 0.8310 0.8370 0.8430 0.8510 0.8540
9.723924 0.8610 0.8660 0.8700 0.8750 0.8800
9.758000 0.8870 0.8940 0.8940 0.9020 0.9040
9.791924 0.9090 0.9110 0.9120 0.9160 0.9180
9.826000 0.9190 0.9230 0.9240 0.9260 0.9280
9.859924 0.9310 0.9330 0.9350 0.9360 0.9360
9.894000 0.9380 0.9400 0.9410 0.9430 0.9450
9.927924 0.9470 0.9480 0.9480 0.9480 0.9470
9.961000 0.9470 0.9470 0.9470 0.9470 0.9450
9.994924 0.9450 0.9450 0.9450 0.9450 0.9450
10.029000 0.9430 0.9430 0.9430 0.9430 0.9430
10.062924 0.9410 0.9410 0.9410 0.9400 0.9400
10.097000 0.9400 0.9380 0.9380 0.9350 0.9330
10.130924 0.9300 0.9280 0.9240 0.9230 0.9210
10.165000 0.9190 0.9160 0.9120 0.9110 0.9040
10.198924 0.9020 0.8940 0.8890 0.8820 0.8780
10.233000 0.8720 0.8650 0.8580 0.8510 0.8430
10.266924 0.8370 0.8320 0.8290 0.8250 0.8240
10.300000 0.8220 0.8220 0.8220 0.8220 0.8220
10.333924 0.8240 0.8270 0.8290 0.8340 0.8430
10.368000 0.8490 0.8580 0.8630 0.8720 0.8750
10.401924 0.8870 0.8990 0.9020 0.9020 0.9070
10.436000 0.9090 0.9110 0.9110 0.9110 0.9110
10.469924 0.9110 0.9090 0.9090 0.9090 0.9070
10.504000 0.9070 0.9070 0.9040 0.9020 0.8990
10.537924 0.8900 0.8890 0.8800 0.8720 0.8680
10.572000 0.8530 0.8480 0.8370 0.8250 0.8150
10.605924 0.8020 0.7900 0.7790 0.7660 0.7500
10.640000 0.7330 0.7260 0.7010 0.6800 0.6680
10.673924 0.6550 0.6330 0.6170 0.6070 0.6050
10.707000 0.5870 0.5690 0.5610 0.5490 0.5350
10.740924 0.5270 0.5180 0.5100 0.5050 0.5010
10.775000 0.5010 0.5010 0.5110 0.5300 0.5460
10.808924 0.5660 0.5850 0.5920 0.6020 0.6120
10.843000 0.6190 0.6210 0.6220 0.6220 0.6210
10.876924 0.6190 0.6140 0.6090 0.6020 0.6000
10.911000 0.6000 0.6020 0.6020 0.6090 0.6120
10.944924 0.6190 0.6340 0.6480 0.6720 0.7010
10.979000 0.7060 0.7230 0.7300 0.7520 0.7730
11.012924 0.7910 0.8050 0.8100 0.8150 0.8220
11.046000 0.8290 0.8370 0.8460 0.8490 0.8510
11.079924 0.8530 0.8540 0.8540 0.8540 0.8540
11.114000 0.8540 0.8540 0.8540 0.8540 0.8540
11.147924 0.8540 0.8560 0.8580 0.8600 0.8600
11.182000 0.8610 0.8610 0.8630 0.8650 0.8680
11.215924 0.8700 0.8730 0.8780 0.8820 0.8870
11.250000 0.8940 0.9010 0.9070 0.9120 0.9180
11.283924 0.9210 0.9240 0.9280 0.9310 0.9350
11.318000 0.9360 0.9380 0.9410 0.9410 0.9450
11.351924 0.9500 0.9520 0.9520 0.9550 0.9590
11.385000 0.9600 0.9620 0.9650 0.9670 0.9700
11.418924 0.9720 0.9760 0.9790 0.9810 0.9820
11.453000 0.9860 0.9880 0.9890 0.9910 0.9930
11.486924 0.9940 0.9980 1.0000 1.0000 1.0010
11.521000 1.0010 1.0030 1.0030 1.0050 1.0050
11.554924 1.0060 1.0060 1.0060 1.0060 1.0060
11.589000 1.0060 1.0060 1.0060 1.0050 1.0030
11.622924 1.0010 0.9980 0.9930 0.9880 0.9860
11.657000 0.9820 0.9790 0.9700 0.9570 0.9520
11.690924 0.9470 0.9330 0.9210 0.9020 0.8830
11.725000 0.8700 0.8600 0.8460 0.8360 0.8270
11.758924 0.8130 0.8050 0.7980 0.7860 0.7730
11.792000 0.7550 0.7440 0.7210 0.6970 0.6770
11.825924 0.6630 0.6510 0.6410 0.6290 0.6160
11.860000 0.6020 0.5900 0.5760 0.5680 0.5560
11.893924 0.5470 0.5370 0.5200 0.5030 0.4720
11.928000 0.4590 0.4450 0.4260 0.4160 0.3920
11.961924 0.3610 0.3440 0.3360 0.3360 0.3370
11.996000 0.3650 0.4160 0.4400 0.4740 0.5030
12.029924 0.5250 0.5520 0.5750 0.6040 0.6260
12.064000 0.6550 0.6750 0.6970 0.7160 0.7330
12.097924 0.7450 0.7610 0.7760 0.7860 0.8000
12.131000 0.8120 0.8220 0.8290 0.8430 0.8510
12.164924 0.8630 0.8700 0.8820 0.8900 0.9020
12.199000 0.9060 0.9160 0.9280 0.9350 0.9410
12.232924 0.9520 0.9590 0.9640 0.9690 0.9720
12.267000 0.9760 0.9790 0.9820 0.9860 0.9860
12.300924 0.9860 0.9860 0.9820 0.9820 0.9810
12.335000 0.9810 0.9790 0.9770 0.9760 0.9740
12.368924 0.9720 0.9720 0.9700 0.9700 0.9690
12.403000 0.9670 0.9650 0.9650 0.9650 0.9640
12.436924 0.9620 0.9620 0.9600 0.9600 0.9620
12.471000 0.9620 0.9640 0.9650 0.9670 0.9690
12.504924 0.9720 0.9760 0.9790 0.9820 0.9840
12.538000 0.9880 0.9890 0.9940 0.9960 0.9980
12.571924 0.9980 1.0000 1.0000 1.0000 1.0000
12.606000 1.0000 1.0000 1.0000 1.0000 1.0000
12.639924 1.0000 1.0000 0.9980 0.9980 0.9960
12.674000 0.9910 0.9890 0.9880 0.9820 0.9770
12.707924 0.9690 0.9620 0.9550 0.9500 0.9470
12.742000 0.9380 0.9280 0.9160 0.9070 0.9010
12.775924 0.8850 0.8700 0.8610 0.8510 0.8390
12.810000 0.8250 0.8120 0.8020 0.7960 0.7780
12.843924 0.7610 0.7490 0.7200 0.7010 0.6960
12.877000 0.6800 0.6620 0.6510 0.6480 0.6340
12.910924 0.6100 0.5950 0.5870 0.5780 0.5680
12.945000 0.5590 0.5490 0.5370 0.5290 0.5220
12.978924 0.5130 0.5100 0.5030 0.4980 0.4930
13.013000 0.4860 0.4810 0.4740 0.4700 0.4670
13.046924 0.4640 0.4620 0.4600 0.4600 0.4600
13.081000 0.4600 0.4600 0.4620 0.4690 0.4740
13.114924 0.4820 0.4980 0.5110 0.5420 0.5610
13.149000 0.5880 0.6020 0.6210 0.6530 0.6630
13.182924 0.6740 0.6990 0.7040 0.7110 0.7210
13.216000 0.7420 0.7470 0.7670 0.7740 0.7810
13.249924 0.7900 0.7950 0.8000 0.8030 0.8070
13.284000 0.8080 0.8080 0.8080 0.8080 0.8020
13.317924 0.7950 0.7950 0.7790 0.7640 0.7490
13.352000 0.6910 0.6000 0.5710 0.5320 0.4910
13.385924 0.4550 0.4180 0.3700 0.3460 0.3070
13.420000 0.2710 0.2640 0.2550 0.2500 0.2450
13.453924 0.2420 0.2400 0.2420 0.2450 0.2500
13.488000 0.2590 0.2690 0.2840 0.3630 0.4380
13.521924 0.4640 0.4890 0.5150 0.5400 0.5660
13.556000 0.5830 0.6500 0.6670 0.6800 0.6920
13.589924 0.7010 0.7090 0.7150 0.7230 0.7320
13.623000 0.7380 0.7440 0.7500 0.7500 0.7500
13.656924 0.7500 0.7450 0.7420 0.7300 0.7160
13.691000 0.7010 0.6840 0.6680 0.6530 0.6510
13.724924 0.6120 0.5850 0.5680 0.5540 0.5400
13.759000 0.5180 0.5010 0.4890 0.4810 0.4790
13.792924 0.4770 0.4770 0.4770 0.4790 0.4840
13.827000 0.4910 0.5010 0.5060 0.5200 0.5290
13.860924 0.5370 0.5400 0.5420 0.5460 0.5490
13.895000 0.5510 0.5510 0.5520 0.5560 0.5630
13.928924 0.5690 0.5800 0.5900 0.5920 0.6020
13.962000 0.6210 0.6500 0.6890 0.7010 0.7090
13.995924 0.7090 0.7320 0.7620 0.7910 0.8000
14.030000 0.8130 0.8220 0.8310 0.8370 0.8440
14.063924 0.8510 0.8560 0.8610 0.8680 0.8700
14.098000 0.8730 0.8780 0.8780 0.8820 0.8870
14.131924 0.8890 0.8940 0.8970 0.8990 0.9010
14.166000 0.9020 0.9060 0.9090 0.9110 0.9120
14.199924 0.9120 0.9140 0.9140 0.9140 0.9140
14.234000 0.9140 0.9160 0.9160 0.9160 0.9140
14.267924 0.9120 0.9120 0.9110 0.9110 0.9090
14.302000 0.9090 0.9070 0.9070 0.9060 0.9040
14.335924 0.9020 0.9020 0.9010 0.9010 0.8970
14.369000 0.8950 0.8920 0.8920 0.8900 0.8890
14.402924 0.8870 0.8830 0.8820 0.8800 0.8780
14.437000 0.8730 0.8720 0.8680 0.8630 0.8580
14.470924 0.8560 0.8530 0.8490 0.8460 0.8430
14.505000 0.8370 0.8320 0.8290 0.8250 0.8220
14.538924 0.8200 0.8150 0.8130 0.8070 0.8020
14.573000 0.8000 0.7930 0.7900 0.7880 0.7830
14.606924 0.7810 0.7780 0.7760 0.7730 0.7690
14.641000 0.7690 0.7670 0.7670 0.7670 0.7670
14.674924 0.7670 0.7670 0.7690 0.7730 0.7760
14.708000 0.7790 0.7810 0.7840 0.7880 0.7900
14.741924 0.7930 0.7960 0.8000 0.8030 0.8050
14.776000 0.8070 0.8080 0.8100 0.8120 0.8130
14.809924 0.8150 0.8200 0.8220 0.8240 0.8250
14.844000 0.8270 0.8270 0.8290 0.8290 0.8290
14.877924 0.8290 0.8290 0.8290 0.8270 0.8250
14.912000 0.8240 0.8240 0.8220 0.8220 0.8200
14.945924 0.8190 0.8190 0.8170 0.8130 0.8130
14.980000 0.8120 0.8120 0.8100 0.8080 0.8070
15.013924 0.8050 0.8030 0.8030 0.8030 0.8030
15.047000 0.8020 0.8020 0.8020 0.8020 0.8000
15.080924 0.8000 0.8000 0.8000 0.8000 0.8000
15.115000 0.8000 0.8000 0.8000 0.8000 0.8000
15.148924 0.7980 0.7980 0.7980 0.7980 0.7980
15.183000 0.7960 0.7950 0.7930 0.7900 0.7880
15.216924 0.7830 0.7790 0.7780 0.7760 0.7730
15.251000 0.7710 0.7670 0.7620 0.7570 0.7540
15.284924 0.7520 0.7500 0.7500 0.7470 0.7440
15.319000 0.7420 0.7380 0.7370 0.7320 0.7320
15.352924 0.7300 0.7260 0.7230 0.7230 0.7210
##END=
