##TITLE=5-NORBORNENE-2-CARBOXYLIC ACID,METHYL ESTER
##JCAMP-DX=4.24
##DATA TYPE=INFRARED SPECTRUM
##CLASS=COBLENTZ III
##ORIGIN=DOW CHEMICAL COMPANY
##OWNER=COBLENTZ SOC.
Collection (C) 2018 copyright by the U.S. Secretary of Commerce
on behalf of the United States of America. All rights reserved.
##DATE=1964/11/19
##NAMES=methyl bicyclo[2.2.1]hept-5-ene-2-carboxylate
##MOLFORM=C9 H12 O2
##SOURCE REFERENCE=COBLENTZ NO. 06744
##$NIST ID=B6006744
##$NIST SOURCE=COBLENTZ
##$NIST IMAGE=cob6744
##SPECTROMETER/DATA SYSTEM=BECKMAN IR-9 (GRATING)
##INSTRUMENT PARAMETERS=ORDER CHANGES: 670, 1200, 2000 CM^-^1
##STATE=SOLUTION (10% CCl4 FOR 3800-1330, 10% CS2 FOR 1330-400 CM^-^1))
##PATH LENGTH=0.011 CM, 0.010 CM
$$SPECTRAL CONTAMINATION DUE TO CCl4 AROUND 1550, AND AN UNKNOWN AROUND 400 CM^-^1
##SAMPLING PROCEDURE=TRANSMISSION
##RESOLUTION=2
##DATA PROCESSING=DIGITIZED BY COBLENTZ SOCIETY (BATCH I) FROM HARD COPY
##XUNITS=1/CM
##YUNITS=TRANSMITTANCE
##XLABEL=Wavenumbers (cm-1)
##YLABEL=% Transmission
##XFACTOR=1
##YFACTOR=1
##DELTAX=1
##FIRSTX=403
##LASTX=3800
##FIRSTY=0.0985
##MAXX=3800
##MINX=403
##MAXY=1.0028
##MINY=0
##NPOINTS=3398
##XYDATA=(X++(Y..Y))
403.000000 0.0985 0.0983 0.0983 0.0983 0.0987
408.000000 0.1005 0.1024 0.1045 0.1088 0.1724
413.000000 0.2164 0.2672 0.2910 0.3161 0.4145
418.000000 0.4354 0.4465 0.4578 0.4741 0.5223
423.000000 0.5462 0.5722 0.6028 0.6167 0.6310
428.000000 0.6462 0.6607 0.6749 0.6836 0.6912
433.000000 0.6991 0.7068 0.7143 0.7218 0.7293
438.000000 0.7391 0.7495 0.7562 0.7625 0.7690
443.000000 0.7753 0.7808 0.7861 0.7914 0.7962
448.000000 0.8007 0.8051 0.8095 0.8139 0.8185
453.000000 0.8240 0.8294 0.8349 0.8404 0.8451
458.000000 0.8497 0.8544 0.8591 0.8637 0.8680
463.000000 0.8718 0.8756 0.8795 0.8833 0.8871
468.000000 0.8906 0.8941 0.8975 0.9010 0.9086
473.000000 0.9125 0.9165 0.9204 0.9253 0.9304
478.000000 0.9355 0.9406 0.9452 0.9470 0.9468
483.000000 0.9459 0.9445 0.9428 0.9412 0.9397
488.000000 0.9382 0.9368 0.9361 0.9353 0.9345
493.000000 0.9337 0.9337 0.9337 0.9338 0.9340
498.000000 0.9341 0.9344 0.9350 0.9356 0.9361
503.000000 0.9367 0.9374 0.9385 0.9397 0.9408
508.000000 0.9420 0.9438 0.9456 0.9493 0.9530
513.000000 0.9565 0.9600 0.9635 0.9670 0.9695
518.000000 0.9720 0.9744 0.9768 0.9793 0.9803
523.000000 0.9812 0.9821 0.9831 0.9840 0.9850
528.000000 0.9853 0.9854 0.9855 0.9856 0.9857
533.000000 0.9866 0.9850 0.9843 0.9836 0.9830
538.000000 0.9823 0.9817 0.9810 0.9804 0.9792
543.000000 0.9778 0.9765 0.9751 0.9737 0.9723
548.000000 0.9706 0.9688 0.9670 0.9652 0.9633
553.000000 0.9615 0.9597 0.9578 0.9567 0.9557
558.000000 0.9547 0.9537 0.9527 0.9517 0.9507
563.000000 0.9501 0.9497 0.9494 0.9490 0.9487
568.000000 0.9483 0.9480 0.9475 0.9473 0.9468
573.000000 0.9497 0.9475 0.9478 0.9483 0.9487
578.000000 0.9491 0.9495 0.9498 0.9502 0.9506
583.000000 0.9510 0.9515 0.9523 0.9531 0.9538
588.000000 0.9546 0.9554 0.9562 0.9570 0.9578
593.000000 0.9586 0.9594 0.9605 0.9615 0.9625
598.000000 0.9636 0.9647 0.9658 0.9668 0.9678
603.000000 0.9689 0.9698 0.9704 0.9710 0.9716
608.000000 0.9721 0.9728 0.9734 0.9740 0.9746
613.000000 0.9747 0.9747 0.9747 0.9746 0.9746
618.000000 0.9746 0.9746 0.9745 0.9738 0.9730
623.000000 0.9721 0.9713 0.9705 0.9696 0.9687
628.000000 0.9670 0.9653 0.9637 0.9620 0.9604
633.000000 0.9587 0.9570 0.9551 0.9528 0.9504
638.000000 0.9480 0.9457 0.9433 0.9409 0.9378
643.000000 0.9347 0.9317 0.9286 0.9255 0.9225
648.000000 0.9189 0.9153 0.9117 0.9081 0.9048
653.000000 0.9016 0.8983 0.8950 0.8915 0.8881
658.000000 0.8852 0.8816 0.9018 0.9060 0.9099
663.000000 0.9138 0.9177 0.9240 0.9298 0.9330
668.000000 0.9361 0.9395 0.9434 0.9473 0.9508
673.000000 0.9541 0.9574 0.9590 0.9633 0.9584
678.000000 0.9553 0.9373 0.9175 0.8977 0.8778
683.000000 0.8581 0.8383 0.8250 0.8249 0.8263
688.000000 0.8309 0.8388 0.8467 0.8546 0.8625
693.000000 0.8693 0.8705 0.8699 0.8686 0.8673
698.000000 0.8141 0.7778 0.7415 0.7051 0.6707
703.000000 0.6212 0.5316 0.4421 0.3526 0.2630
708.000000 0.1734 0.1189 0.1190 0.1190 0.1144
713.000000 0.1424 0.2063 0.2589 0.2661 0.2763
718.000000 0.2996 0.3368 0.3741 0.4112 0.4485
723.000000 0.4857 0.5229 0.5602 0.5974 0.6346
728.000000 0.6718 0.7090 0.7799 0.8082 0.8171
733.000000 0.8235 0.8280 0.8321 0.8359 0.8397
738.000000 0.8433 0.8468 0.8505 0.8537 0.8606
743.000000 0.8690 0.8764 0.8825 0.8868 0.8911
748.000000 0.8951 0.8991 0.9013 0.9020 0.9021
753.000000 0.9021 0.9008 0.8988 0.8968 0.8933
758.000000 0.8925 0.8921 0.8938 0.8956 0.8975
763.000000 0.9018 0.9041 0.9062 0.9073 0.9075
768.000000 0.9075 0.9075 0.9073 0.9065 0.9054
773.000000 0.9025 0.8861 0.8416 0.7971 0.7347
778.000000 0.7325 0.7340 0.7671 0.8344 0.8889
783.000000 0.9048 0.9090 0.9123 0.9140 0.9156
788.000000 0.9182 0.9218 0.9455 0.9556 0.9609
793.000000 0.9617 0.9612 0.9594 0.9563 0.9528
798.000000 0.9530 0.9575 0.9647 0.9738 0.9781
803.000000 0.9795 0.9804 0.9799 0.9778 0.9764
808.000000 0.9581 0.9370 0.9159 0.8948 0.8805
813.000000 0.8702 0.8652 0.8636 0.8628 0.8783
818.000000 0.8942 0.9100 0.9259 0.9310 0.9301
823.000000 0.9218 0.8968 0.8720 0.8470 0.8220
828.000000 0.7971 0.7721 0.7471 0.7275 0.7247
833.000000 0.7517 0.7768 0.8241 0.8225 0.8140
838.000000 0.7561 0.6983 0.6404 0.6070 0.6240
843.000000 0.6421 0.6601 0.6784 0.6805 0.6373
848.000000 0.6017 0.5662 0.5307 0.4952 0.4939
853.000000 0.5272 0.5799 0.6327 0.6854 0.7201
858.000000 0.7343 0.7362 0.7403 0.7356 0.7204
863.000000 0.6996 0.6788 0.6578 0.6371 0.6287
868.000000 0.6517 0.6934 0.7350 0.7767 0.8101
873.000000 0.8101 0.8100 0.8072 0.7812 0.7554
878.000000 0.7295 0.7107 0.7493 0.7982 0.8457
883.000000 0.8518 0.8528 0.8541 0.8540 0.8540
888.000000 0.8536 0.8510 0.8427 0.8334 0.8075
893.000000 0.7750 0.7425 0.7099 0.6772 0.6447
898.000000 0.6121 0.5795 0.5469 0.5300 0.5309
903.000000 0.5364 0.5341 0.5615 0.5653 0.5674
908.000000 0.5843 0.6389 0.6935 0.7401 0.7522
913.000000 0.7617 0.7730 0.7771 0.7798 0.7826
918.000000 0.7955 0.8264 0.8506 0.8718 0.8883
923.000000 0.8986 0.9039 0.9058 0.9075 0.9093
928.000000 0.9078 0.9078 0.9078 0.9068 0.9041
933.000000 0.9011 0.8940 0.8843 0.8735 0.8623
938.000000 0.8511 0.8412 0.8366 0.8328 0.8428
943.000000 0.8492 0.8549 0.8617 0.8727 0.8774
948.000000 0.8766 0.8739 0.8708 0.8668 0.8680
953.000000 0.8696 0.8725 0.8759 0.8825 0.8907
958.000000 0.9007 0.9085 0.9115 0.9133 0.9133
963.000000 0.9124 0.9087 0.9065 0.9065 0.9064
968.000000 0.9106 0.9271 0.9223 0.9253 0.9250
973.000000 0.9225 0.9142 0.9075 0.9021 0.8965
978.000000 0.8896 0.8873 0.8878 0.8882 0.8862
983.000000 0.8801 0.8737 0.8671 0.8602 0.8530
988.000000 0.8464 0.8400 0.8337 0.8299 0.8296
993.000000 0.8305 0.8313 0.8318 0.8320 0.8315
998.000000 0.8271 0.8199 0.8105 0.8019 0.7953
1003.000000 0.7887 0.7815 0.7742 0.7674 0.7617
1008.000000 0.7561 0.7547 0.7558 0.7625 0.7638
1013.000000 0.7639 0.7634 0.7608 0.7561 0.7446
1018.000000 0.7324 0.7206 0.7095 0.6987 0.6784
1023.000000 0.6425 0.5962 0.5273 0.4825 0.4376
1028.000000 0.3927 0.3479 0.3030 0.2581 0.2147
1033.000000 0.2110 0.2095 0.2102 0.2373 0.2677
1038.000000 0.2982 0.3286 0.3557 0.3753 0.3996
1043.000000 0.4103 0.4196 0.4286 0.4404 0.4566
1048.000000 0.4799 0.4977 0.5108 0.5360 0.5721
1053.000000 0.6310 0.6591 0.6871 0.6971 0.7032
1058.000000 0.7043 0.7008 0.6874 0.6635 0.6396
1063.000000 0.6157 0.5917 0.5678 0.5439 0.5200
1068.000000 0.5202 0.5477 0.5172 0.6315 0.6734
1073.000000 0.6898 0.7037 0.7255 0.7561 0.7615
1078.000000 0.7668 0.7695 0.7721 0.7736 0.7726
1083.000000 0.7744 0.7744 0.7737 0.7721 0.7665
1088.000000 0.7558 0.7425 0.7233 0.6960 0.6878
1093.000000 0.6876 0.6887 0.6757 0.6595 0.6433
1098.000000 0.6270 0.6255 0.6396 0.6625 0.6731
1103.000000 0.6185 0.5625 0.5065 0.4505 0.3945
1108.000000 0.3384 0.2832 0.2828 0.2857 0.3568
1113.000000 0.4097 0.4626 0.5155 0.5684 0.6173
1118.000000 0.6295 0.6383 0.6444 0.6484 0.6510
1123.000000 0.6514 0.6494 0.6455 0.6154 0.5862
1128.000000 0.5571 0.5280 0.4989 0.4698 0.4625
1133.000000 0.4670 0.4757 0.4844 0.4931 0.5025
1138.000000 0.5049 0.5039 0.5019 0.4965 0.4891
1143.000000 0.4764 0.4484 0.4158 0.3832 0.3508
1148.000000 0.3183 0.2857 0.2532 0.2268 0.2021
1153.000000 0.1814 0.1673 0.1583 0.1496 0.1446
1158.000000 0.1402 0.1358 0.1318 0.1278 0.1221
1163.000000 0.1124 0.0902 0.0750 0.0607 0.0464
1168.000000 0.0351 0.0268 0.0226 0.0193 0.0173
1173.000000 0.0185 0.0183 0.0183 0.0187 0.0193
1178.000000 0.0207 0.0232 0.0265 0.0297 0.0330
1183.000000 0.0363 0.0388 0.0411 0.0427 0.0437
1188.000000 0.0407 0.0385 0.0337 0.0274 0.0223
1193.000000 0.0184 0.0156 0.0139 0.0139 0.0139
1198.000000 0.0158 0.0170 0.0196 0.0229 0.0315
1203.000000 0.0372 0.0442 0.0525 0.0636 0.0762
1208.000000 0.0876 0.1029 0.1199 0.1369 0.1539
1213.000000 0.1708 0.1878 0.2069 0.2205 0.2351
1218.000000 0.2541 0.2714 0.2840 0.2987 0.3143
1223.000000 0.3239 0.3295 0.3359 0.3322 0.3287
1228.000000 0.3105 0.2922 0.2740 0.2558 0.2376
1233.000000 0.2194 0.2190 0.2178 0.2412 0.2732
1238.000000 0.3053 0.3374 0.3694 0.4014 0.4358
1243.000000 0.4489 0.4551 0.4589 0.4622 0.4636
1248.000000 0.4651 0.4518 0.4181 0.3845 0.3509
1253.000000 0.3237 0.3279 0.3214 0.3914 0.4233
1258.000000 0.4551 0.4670 0.4671 0.4671 0.4439
1263.000000 0.4134 0.3829 0.3524 0.3218 0.2914
1268.000000 0.2609 0.2304 0.1999 0.1890 0.1875
1273.000000 0.1850 0.2548 0.3115 0.3682 0.4251
1278.000000 0.4818 0.5386 0.5546 0.5587 0.5603
1283.000000 0.5596 0.5584 0.5569 0.5551 0.5544
1288.000000 0.5562 0.5835 0.6107 0.6378 0.6476
1293.000000 0.6455 0.6435 0.6418 0.6405 0.6410
1298.000000 0.6739 0.7026 0.7203 0.7292 0.7344
1303.000000 0.7394 0.7422 0.7447 0.7456 0.7455
1308.000000 0.7456 0.7456 0.7441 0.7417 0.7385
1313.000000 0.7325 0.7225 0.7075 0.6956 0.6875
1318.000000 0.6751 0.6582 0.6367 0.6144 0.5920
1323.000000 0.5697 0.5473 0.5250 0.5026 0.4803
1328.000000 0.4579 0.3720 0.3393 0.2869 0.1465
1333.000000 0.0819 0.0817 0.0836 0.0896 0.1064
1338.000000 0.1151 0.1734 0.2317 0.2900 0.3189
1343.000000 0.3246 0.3262 0.3260 0.3254 0.3234
1348.000000 0.3204 0.3150 0.3105 0.3065 0.3034
1353.000000 0.3018 0.3019 0.3026 0.3040 0.3144
1358.000000 0.3362 0.3580 0.3790 0.3955 0.4099
1363.000000 0.4365 0.4922 0.5269 0.5596 0.5810
1368.000000 0.6104 0.6326 0.6498 0.6648 0.6771
1373.000000 0.6861 0.6951 0.7011 0.7072 0.7133
1378.000000 0.7192 0.7644 0.7758 0.7878 0.8007
1383.000000 0.8136 0.8241 0.8303 0.8366 0.8410
1388.000000 0.8445 0.8480 0.8515 0.8545 0.8575
1393.000000 0.8604 0.8630 0.8647 0.8664 0.8681
1398.000000 0.8696 0.8706 0.8716 0.8727 0.8737
1403.000000 0.8744 0.8746 0.8739 0.8740 0.8735
1408.000000 0.8730 0.8725 0.8711 0.8696 0.8678
1413.000000 0.8659 0.8639 0.8618 0.8595 0.8567
1418.000000 0.8528 0.8491 0.8434 0.8371 0.8264
1423.000000 0.8151 0.8044 0.7867 0.7371 0.6928
1428.000000 0.5833 0.4718 0.3602 0.2487 0.1372
1433.000000 0.0805 0.0789 0.0795 0.0798 0.1318
1438.000000 0.1946 0.2577 0.3206 0.3834 0.4464
1443.000000 0.4621 0.4619 0.4552 0.4448 0.4344
1448.000000 0.4240 0.4186 0.4455 0.5067 0.5444
1453.000000 0.5530 0.5607 0.5637 0.5637 0.5628
1458.000000 0.5540 0.5382 0.5224 0.5227 0.5891
1463.000000 0.5992 0.6105 0.6296 0.6497 0.6634
1468.000000 0.6776 0.6948 0.7118 0.7280 0.7435
1473.000000 0.7558 0.7682 0.7784 0.7885 0.7975
1478.000000 0.8056 0.8135 0.8184 0.8225 0.8268
1483.000000 0.8303 0.8318 0.8333 0.8345 0.8349
1488.000000 0.8353 0.8356 0.8362 0.8342 0.8332
1493.000000 0.8321 0.8310 0.8283 0.8255 0.8227
1498.000000 0.8198 0.8161 0.8118 0.8075 0.8028
1503.000000 0.7982 0.7935 0.7894 0.7853 0.7811
1508.000000 0.7769 0.7728 0.7688 0.7646 0.7601
1513.000000 0.7558 0.7515 0.7472 0.7428 0.7386
1518.000000 0.7343 0.7285 0.7225 0.7167 0.7108
1523.000000 0.7048 0.6987 0.6925 0.6865 0.6805
1528.000000 0.6744 0.6678 0.6612 0.6547 0.6481
1533.000000 0.6415 0.6349 0.6285 0.6226 0.6167
1538.000000 0.6108 0.6050 0.5978 0.5887 0.5793
1543.000000 0.5662 0.5532 0.5402 0.5303 0.5210
1548.000000 0.5145 0.5104 0.5086 0.5091 0.5098
1553.000000 0.5110 0.5126 0.5146 0.5173 0.5206
1558.000000 0.5248 0.5297 0.5402 0.5516 0.5625
1563.000000 0.5722 0.5809 0.5854 0.5860 0.5862
1568.000000 0.5832 0.5739 0.5646 0.5554 0.5977
1573.000000 0.6045 0.6092 0.6128 0.6164 0.6272
1578.000000 0.6344 0.6405 0.6456 0.6507 0.6558
1583.000000 0.6619 0.6689 0.6756 0.6822 0.6880
1588.000000 0.6934 0.6989 0.7043 0.7098 0.7155
1593.000000 0.7211 0.7268 0.7324 0.7384 0.7467
1598.000000 0.7549 0.7632 0.7715 0.7800 0.7891
1603.000000 0.7982 0.8072 0.8138 0.8203 0.8262
1608.000000 0.8305 0.8349 0.8389 0.8416 0.8443
1613.000000 0.8470 0.8487 0.8499 0.8512 0.8525
1618.000000 0.8537 0.8542 0.8546 0.8550 0.8554
1623.000000 0.8556 0.8557 0.8559 0.8560 0.8584
1628.000000 0.8614 0.8644 0.8694 0.8745 0.8818
1633.000000 0.8890 0.8925 0.8960 0.8995 0.9025
1638.000000 0.9044 0.9061 0.9075 0.9088 0.9092
1643.000000 0.9092 0.9092 0.9091 0.9089 0.9085
1648.000000 0.9081 0.9075 0.9071 0.9068 0.9065
1653.000000 0.9087 0.9060 0.9055 0.9050 0.9045
1658.000000 0.9040 0.9033 0.9027 0.9020 0.9014
1663.000000 0.9001 0.8986 0.8971 0.8955 0.8930
1668.000000 0.8906 0.8881 0.8855 0.8828 0.8801
1673.000000 0.8773 0.8746 0.8703 0.8660 0.8615
1678.000000 0.8568 0.8518 0.8457 0.8395 0.8330
1683.000000 0.8253 0.8175 0.8099 0.8022 0.7938
1688.000000 0.7851 0.7765 0.7669 0.7568 0.7465
1693.000000 0.7319 0.7137 0.7026 0.6917 0.6822
1698.000000 0.6731 0.6630 0.6528 0.6425 0.6301
1703.000000 0.6174 0.6016 0.5847 0.5660 0.5454
1708.000000 0.5209 0.4910 0.4606 0.4302 0.3998
1713.000000 0.3694 0.3390 0.3085 0.2824 0.2690
1718.000000 0.2535 0.2379 0.2123 0.1924 0.1729
1723.000000 0.1471 0.0378 0.0268 0.0168 0.0113
1728.000000 0.0082 0.0055 0.0027 0.0000 0.0000
1733.000000 0.0000 0.0000 0.0000 0.0000 0.0000
1738.000000 0.0000 0.0000 0.0000 0.0000 0.0000
1743.000000 0.0000 0.0000 0.0000 0.0001 0.0087
1748.000000 0.0152 0.0255 0.0518 0.0802 0.1087
1753.000000 0.1371 0.1654 0.1939 0.2044 0.2127
1758.000000 0.3070 0.3750 0.5580 0.5864 0.6396
1763.000000 0.6525 0.6615 0.6707 0.6790 0.6871
1768.000000 0.6953 0.7034 0.7094 0.7155 0.7215
1773.000000 0.7276 0.7338 0.7399 0.7461 0.7528
1778.000000 0.7597 0.7645 0.7691 0.7765 0.7826
1783.000000 0.7874 0.7921 0.7968 0.8021 0.8061
1788.000000 0.8101 0.8139 0.8171 0.8204 0.8241
1793.000000 0.8287 0.8333 0.8373 0.8414 0.8455
1798.000000 0.8495 0.8538 0.8581 0.8623 0.8666
1803.000000 0.8709 0.8753 0.8797 0.8841 0.8885
1808.000000 0.8935 0.9000 0.9066 0.9118 0.9159
1813.000000 0.9200 0.9240 0.9270 0.9296 0.9321
1818.000000 0.9348 0.9365 0.9382 0.9398 0.9414
1823.000000 0.9428 0.9442 0.9454 0.9467 0.9478
1828.000000 0.9487 0.9496 0.9504 0.9513 0.9521
1833.000000 0.9530 0.9535 0.9540 0.9546 0.9551
1838.000000 0.9556 0.9562 0.9567 0.9571 0.9575
1843.000000 0.9581 0.9585 0.9589 0.9593 0.9597
1848.000000 0.9602 0.9606 0.9611 0.9615 0.9620
1853.000000 0.9625 0.9628 0.9634 0.9639 0.9643
1858.000000 0.9648 0.9653 0.9657 0.9662 0.9667
1863.000000 0.9671 0.9675 0.9688 0.9701 0.9714
1868.000000 0.9727 0.9737 0.9746 0.9754 0.9763
1873.000000 0.9771 0.9778 0.9782 0.9785 0.9789
1878.000000 0.9792 0.9793 0.9794 0.9796 0.9797
1883.000000 0.9798 0.9799 0.9801 0.9802 0.9802
1888.000000 0.9801 0.9801 0.9800 0.9799 0.9798
1893.000000 0.9798 0.9797 0.9796 0.9795 0.9794
1898.000000 0.9794 0.9794 0.9796 0.9797 0.9798
1903.000000 0.9800 0.9801 0.9802 0.9803 0.9806
1908.000000 0.9809 0.9812 0.9815 0.9818 0.9821
1913.000000 0.9824 0.9827 0.9830 0.9833 0.9835
1918.000000 0.9860 0.9838 0.9840 0.9841 0.9842
1923.000000 0.9843 0.9844 0.9845 0.9845 0.9844
1928.000000 0.9843 0.9842 0.9841 0.9840 0.9839
1933.000000 0.9838 0.9837 0.9835 0.9833 0.9831
1938.000000 0.9830 0.9828 0.9825 0.9824 0.9823
1943.000000 0.9821 0.9818 0.9817 0.9814 0.9812
1948.000000 0.9809 0.9807 0.9805 0.9802 0.9800
1953.000000 0.9797 0.9795 0.9792 0.9791 0.9789
1958.000000 0.9787 0.9785 0.9783 0.9782 0.9780
1963.000000 0.9778 0.9775 0.9775 0.9773 0.9771
1968.000000 0.9770 0.9770 0.9770 0.9768 0.9768
1973.000000 0.9768 0.9768 0.9768 0.9767 0.9767
1978.000000 0.9766 0.9766 0.9765 0.9765 0.9764
1983.000000 0.9763 0.9763 0.9762 0.9761 0.9761
1988.000000 0.9760 0.9757 0.9753 0.9750 0.9746
1993.000000 0.9743 0.9739 0.9736 0.9728 0.9708
1998.000000 0.9687 0.9670 0.9654 0.9638 0.9621
2003.000000 0.9614 0.9607 0.9600 0.9594 0.9591
2008.000000 0.9588 0.9585 0.9582 0.9578 0.9575
2013.000000 0.9571 0.9568 0.9566 0.9564 0.9561
2018.000000 0.9559 0.9556 0.9554 0.9553 0.9552
2023.000000 0.9552 0.9552 0.9552 0.9553 0.9553
2028.000000 0.9553 0.9553 0.9553 0.9553 0.9553
2033.000000 0.9553 0.9554 0.9554 0.9554 0.9554
2038.000000 0.9554 0.9554 0.9554 0.9553 0.9553
2043.000000 0.9553 0.9553 0.9552 0.9552 0.9552
2048.000000 0.9552 0.9552 0.9553 0.9554 0.9555
2053.000000 0.9556 0.9557 0.9558 0.9559 0.9560
2058.000000 0.9562 0.9565 0.9568 0.9571 0.9574
2063.000000 0.9577 0.9580 0.9582 0.9585 0.9588
2068.000000 0.9591 0.9593 0.9593 0.9593 0.9593
2073.000000 0.9592 0.9591 0.9590 0.9589 0.9588
2078.000000 0.9587 0.9586 0.9585 0.9583 0.9582
2083.000000 0.9581 0.9580 0.9578 0.9577 0.9575
2088.000000 0.9575 0.9574 0.9573 0.9573 0.9573
2093.000000 0.9573 0.9573 0.9571 0.9571 0.9571
2098.000000 0.9571 0.9571 0.9571 0.9570 0.9570
2103.000000 0.9568 0.9568 0.9568 0.9570 0.9571
2108.000000 0.9575 0.9578 0.9581 0.9587 0.9593
2113.000000 0.9599 0.9605 0.9616 0.9628 0.9633
2118.000000 0.9639 0.9643 0.9648 0.9653 0.9658
2123.000000 0.9662 0.9667 0.9671 0.9675 0.9678
2128.000000 0.9683 0.9687 0.9691 0.9695 0.9699
2133.000000 0.9703 0.9707 0.9710 0.9714 0.9717
2138.000000 0.9721 0.9724 0.9728 0.9732 0.9736
2143.000000 0.9739 0.9743 0.9747 0.9751 0.9754
2148.000000 0.9758 0.9762 0.9766 0.9768 0.9773
2153.000000 0.9775 0.9780 0.9781 0.9782 0.9782
2158.000000 0.9783 0.9784 0.9785 0.9785 0.9786
2163.000000 0.9787 0.9788 0.9788 0.9789 0.9789
2168.000000 0.9790 0.9790 0.9791 0.9792 0.9793
2173.000000 0.9793 0.9794 0.9794 0.9795 0.9795
2178.000000 0.9796 0.9796 0.9796 0.9795 0.9795
2183.000000 0.9795 0.9795 0.9795 0.9795 0.9794
2188.000000 0.9794 0.9794 0.9794 0.9794 0.9794
2193.000000 0.9793 0.9793 0.9793 0.9793 0.9793
2198.000000 0.9793 0.9792 0.9792 0.9792 0.9792
2203.000000 0.9792 0.9792 0.9791 0.9791 0.9790
2208.000000 0.9790 0.9789 0.9788 0.9787 0.9787
2213.000000 0.9786 0.9786 0.9785 0.9784 0.9783
2218.000000 0.9783 0.9782 0.9782 0.9780 0.9778
2223.000000 0.9777 0.9775 0.9774 0.9773 0.9771
2228.000000 0.9770 0.9768 0.9767 0.9765 0.9764
2233.000000 0.9762 0.9761 0.9759 0.9758 0.9756
2238.000000 0.9755 0.9753 0.9751 0.9749 0.9748
2243.000000 0.9746 0.9744 0.9742 0.9741 0.9739
2248.000000 0.9737 0.9735 0.9734 0.9731 0.9728
2253.000000 0.9723 0.9718 0.9715 0.9711 0.9706
2258.000000 0.9702 0.9698 0.9694 0.9690 0.9686
2263.000000 0.9681 0.9677 0.9673 0.9670 0.9666
2268.000000 0.9662 0.9658 0.9655 0.9651 0.9647
2273.000000 0.9643 0.9640 0.9636 0.9633 0.9628
2278.000000 0.9625 0.9621 0.9620 0.9618 0.9616
2283.000000 0.9613 0.9611 0.9608 0.9606 0.9606
2288.000000 0.9607 0.9608 0.9610 0.9611 0.9613
2293.000000 0.9615 0.9617 0.9618 0.9620 0.9621
2298.000000 0.9624 0.9627 0.9631 0.9635 0.9639
2303.000000 0.9642 0.9646 0.9647 0.9649 0.9650
2308.000000 0.9651 0.9651 0.9652 0.9653 0.9653
2313.000000 0.9653 0.9652 0.9651 0.9651 0.9650
2318.000000 0.9650 0.9649 0.9648 0.9647 0.9647
2323.000000 0.9645 0.9644 0.9642 0.9641 0.9639
2328.000000 0.9638 0.9636 0.9635 0.9633 0.9632
2333.000000 0.9632 0.9632 0.9632 0.9633 0.9633
2338.000000 0.9634 0.9634 0.9635 0.9635 0.9636
2343.000000 0.9636 0.9636 0.9636 0.9637 0.9637
2348.000000 0.9638 0.9639 0.9641 0.9642 0.9643
2353.000000 0.9644 0.9646 0.9647 0.9649 0.9650
2358.000000 0.9651 0.9653 0.9656 0.9659 0.9662
2363.000000 0.9664 0.9667 0.9670 0.9673 0.9675
2368.000000 0.9678 0.9681 0.9685 0.9688 0.9691
2373.000000 0.9694 0.9697 0.9700 0.9703 0.9706
2378.000000 0.9709 0.9712 0.9715 0.9718 0.9723
2383.000000 0.9727 0.9731 0.9735 0.9740 0.9744
2388.000000 0.9748 0.9752 0.9756 0.9760 0.9764
2393.000000 0.9768 0.9771 0.9775 0.9780 0.9784
2398.000000 0.9789 0.9793 0.9797 0.9801 0.9805
2403.000000 0.9809 0.9813 0.9817 0.9821 0.9825
2408.000000 0.9828 0.9833 0.9838 0.9841 0.9845
2413.000000 0.9849 0.9853 0.9856 0.9860 0.9864
2418.000000 0.9868 0.9871 0.9875 0.9878 0.9883
2423.000000 0.9887 0.9891 0.9894 0.9898 0.9900
2428.000000 0.9902 0.9904 0.9907 0.9909 0.9912
2433.000000 0.9914 0.9917 0.9918 0.9921 0.9924
2438.000000 0.9927 0.9928 0.9931 0.9931 0.9932
2443.000000 0.9932 0.9933 0.9933 0.9933 0.9933
2448.000000 0.9934 0.9934 0.9935 0.9935 0.9936
2453.000000 0.9936 0.9937 0.9937 0.9937 0.9936
2458.000000 0.9936 0.9936 0.9936 0.9936 0.9936
2463.000000 0.9936 0.9936 0.9935 0.9935 0.9935
2468.000000 0.9935 0.9935 0.9935 0.9934 0.9933
2473.000000 0.9932 0.9931 0.9928 0.9928 0.9927
2478.000000 0.9925 0.9925 0.9924 0.9923 0.9921
2483.000000 0.9921 0.9920 0.9918 0.9917 0.9916
2488.000000 0.9915 0.9914 0.9913 0.9911 0.9910
2493.000000 0.9908 0.9907 0.9905 0.9904 0.9902
2498.000000 0.9901 0.9900 0.9899 0.9897 0.9896
2503.000000 0.9894 0.9893 0.9891 0.9890 0.9888
2508.000000 0.9887 0.9886 0.9885 0.9884 0.9884
2513.000000 0.9883 0.9882 0.9881 0.9881 0.9880
2518.000000 0.9878 0.9878 0.9878 0.9877 0.9875
2523.000000 0.9875 0.9875 0.9874 0.9873 0.9871
2528.000000 0.9871 0.9871 0.9871 0.9870 0.9870
2533.000000 0.9871 0.9871 0.9873 0.9874 0.9875
2538.000000 0.9875 0.9877 0.9878 0.9880 0.9881
2543.000000 0.9882 0.9883 0.9884 0.9886 0.9887
2548.000000 0.9888 0.9889 0.9891 0.9892 0.9894
2553.000000 0.9895 0.9897 0.9898 0.9899 0.9900
2558.000000 0.9901 0.9901 0.9901 0.9901 0.9901
2563.000000 0.9900 0.9900 0.9900 0.9900 0.9899
2568.000000 0.9899 0.9899 0.9899 0.9898 0.9898
2573.000000 0.9898 0.9898 0.9897 0.9897 0.9897
2578.000000 0.9897 0.9896 0.9896 0.9895 0.9894
2583.000000 0.9893 0.9892 0.9890 0.9889 0.9888
2588.000000 0.9887 0.9885 0.9884 0.9883 0.9882
2593.000000 0.9880 0.9878 0.9878 0.9877 0.9875
2598.000000 0.9874 0.9873 0.9871 0.9870 0.9868
2603.000000 0.9868 0.9867 0.9867 0.9867 0.9866
2608.000000 0.9866 0.9866 0.9866 0.9866 0.9866
2613.000000 0.9866 0.9866 0.9866 0.9866 0.9866
2618.000000 0.9866 0.9866 0.9866 0.9866 0.9866
2623.000000 0.9866 0.9866 0.9866 0.9866 0.9866
2628.000000 0.9866 0.9866 0.9867 0.9867 0.9868
2633.000000 0.9868 0.9868 0.9868 0.9870 0.9870
2638.000000 0.9870 0.9870 0.9871 0.9871 0.9873
2643.000000 0.9874 0.9875 0.9875 0.9877 0.9877
2648.000000 0.9878 0.9878 0.9880 0.9882 0.9884
2653.000000 0.9888 0.9892 0.9895 0.9899 0.9902
2658.000000 0.9906 0.9909 0.9913 0.9915 0.9918
2663.000000 0.9920 0.9923 0.9925 0.9928 0.9930
2668.000000 0.9933 0.9935 0.9938 0.9938 0.9939
2673.000000 0.9940 0.9941 0.9942 0.9943 0.9944
2678.000000 0.9945 0.9946 0.9947 0.9947 0.9947
2683.000000 0.9946 0.9946 0.9945 0.9945 0.9945
2688.000000 0.9945 0.9944 0.9944 0.9944 0.9944
2693.000000 0.9943 0.9943 0.9942 0.9942 0.9942
2698.000000 0.9942 0.9941 0.9941 0.9940 0.9939
2703.000000 0.9938 0.9937 0.9936 0.9935 0.9934
2708.000000 0.9933 0.9932 0.9932 0.9931 0.9930
2713.000000 0.9928 0.9928 0.9928 0.9927 0.9925
2718.000000 0.9925 0.9925 0.9925 0.9924 0.9923
2723.000000 0.9921 0.9921 0.9921 0.9920 0.9918
2728.000000 0.9918 0.9918 0.9917 0.9916 0.9916
2733.000000 0.9915 0.9914 0.9913 0.9913 0.9912
2738.000000 0.9912 0.9911 0.9910 0.9909 0.9909
2743.000000 0.9908 0.9908 0.9907 0.9907 0.9906
2748.000000 0.9905 0.9904 0.9904 0.9903 0.9903
2753.000000 0.9902 0.9902 0.9901 0.9901 0.9900
2758.000000 0.9900 0.9898 0.9897 0.9896 0.9895
2763.000000 0.9894 0.9893 0.9892 0.9891 0.9890
2768.000000 0.9889 0.9888 0.9887 0.9885 0.9884
2773.000000 0.9882 0.9881 0.9878 0.9877 0.9875
2778.000000 0.9873 0.9871 0.9868 0.9865 0.9862
2783.000000 0.9858 0.9855 0.9851 0.9847 0.9843
2788.000000 0.9840 0.9836 0.9832 0.9827 0.9823
2793.000000 0.9818 0.9813 0.9808 0.9803 0.9798
2798.000000 0.9793 0.9787 0.9782 0.9775 0.9770
2803.000000 0.9764 0.9758 0.9751 0.9745 0.9735
2808.000000 0.9725 0.9715 0.9705 0.9695 0.9685
2813.000000 0.9671 0.9657 0.9641 0.9625 0.9605
2818.000000 0.9585 0.9562 0.9539 0.9516 0.9494
2823.000000 0.9468 0.9442 0.9406 0.9370 0.9312
2828.000000 0.9254 0.9168 0.9082 0.8980 0.8878
2833.000000 0.8717 0.8557 0.8397 0.8237 0.8075
2838.000000 0.7915 0.7775 0.7635 0.7621 0.7607
2843.000000 0.7607 0.7608 0.7691 0.7628 0.7934
2848.000000 0.8094 0.8254 0.8414 0.8420 0.8427
2853.000000 0.8423 0.8445 0.8349 0.8280 0.8061
2858.000000 0.7843 0.7625 0.7407 0.7188 0.6969
2863.000000 0.6769 0.6569 0.6178 0.5787 0.5639
2868.000000 0.5491 0.5423 0.5356 0.5309 0.5262
2873.000000 0.5246 0.5230 0.5230 0.5230 0.5231
2878.000000 0.5175 0.5316 0.5401 0.5539 0.5678
2883.000000 0.5816 0.5955 0.6093 0.6231 0.6369
2888.000000 0.6508 0.6646 0.6785 0.6848 0.6925
2893.000000 0.6910 0.6908 0.6797 0.6685 0.6565
2898.000000 0.6448 0.6329 0.6210 0.6104 0.5999
2903.000000 0.5975 0.5952 0.5938 0.5925 0.5925
2908.000000 0.5925 0.5925 0.5925 0.5928 0.5932
2913.000000 0.5946 0.5960 0.6027 0.6094 0.6154
2918.000000 0.6215 0.6204 0.6194 0.6177 0.6160
2923.000000 0.6131 0.6103 0.6017 0.5932 0.5700
2928.000000 0.5469 0.5237 0.5005 0.4773 0.4542
2933.000000 0.4310 0.4079 0.3847 0.3614 0.3382
2938.000000 0.3152 0.2856 0.2560 0.2343 0.2127
2943.000000 0.1878 0.1629 0.1360 0.1091 0.0995
2948.000000 0.0899 0.0889 0.0882 0.0906 0.0846
2953.000000 0.1101 0.1272 0.1465 0.1659 0.1852
2958.000000 0.2044 0.2058 0.2071 0.2063 0.2055
2963.000000 0.2042 0.2085 0.1976 0.1924 0.1822
2968.000000 0.1720 0.1618 0.1517 0.1415 0.1314
2973.000000 0.1222 0.1130 0.1072 0.1014 0.0975
2978.000000 0.0937 0.0922 0.0922 0.0922 0.0934
2983.000000 0.0956 0.0880 0.1020 0.1061 0.1204
2988.000000 0.1348 0.1545 0.1742 0.1935 0.2130
2993.000000 0.2355 0.2581 0.2807 0.3033 0.3258
2998.000000 0.3484 0.3709 0.3934 0.4160 0.4386
3003.000000 0.4610 0.4837 0.4926 0.5016 0.5138
3008.000000 0.5260 0.5390 0.5521 0.5706 0.5892
3013.000000 0.5995 0.6098 0.6160 0.6225 0.6260
3018.000000 0.6295 0.6317 0.6340 0.6360 0.6381
3023.000000 0.6410 0.6439 0.6489 0.6540 0.6618
3028.000000 0.6699 0.6838 0.6978 0.7169 0.7361
3033.000000 0.7524 0.7686 0.7767 0.7849 0.7896
3038.000000 0.7943 0.7967 0.7991 0.8000 0.8010
3043.000000 0.8015 0.8025 0.8021 0.8021 0.7998
3048.000000 0.7975 0.7844 0.7712 0.7582 0.7451
3053.000000 0.7318 0.7188 0.7057 0.6925 0.6794
3058.000000 0.6662 0.6532 0.6401 0.6270 0.6139
3063.000000 0.6043 0.5948 0.5960 0.5975 0.6239
3068.000000 0.6506 0.6876 0.7248 0.7662 0.8078
3073.000000 0.8175 0.8271 0.8433 0.8594 0.8703
3078.000000 0.8812 0.8870 0.8928 0.9001 0.9073
3083.000000 0.9107 0.9142 0.9173 0.9204 0.9228
3088.000000 0.9254 0.9278 0.9302 0.9318 0.9336
3093.000000 0.9353 0.9371 0.9388 0.9406 0.9424
3098.000000 0.9443 0.9459 0.9475 0.9485 0.9496
3103.000000 0.9506 0.9517 0.9521 0.9528 0.9531
3108.000000 0.9535 0.9538 0.9542 0.9545 0.9545
3113.000000 0.9545 0.9542 0.9539 0.9568 0.9528
3118.000000 0.9520 0.9504 0.9488 0.9467 0.9447
3123.000000 0.9413 0.9380 0.9351 0.9323 0.9299
3128.000000 0.9275 0.9252 0.9228 0.9207 0.9185
3133.000000 0.9174 0.9164 0.9160 0.9156 0.9158
3138.000000 0.9161 0.9178 0.9152 0.9228 0.9263
3143.000000 0.9297 0.9332 0.9364 0.9397 0.9464
3148.000000 0.9532 0.9568 0.9605 0.9615 0.9625
3153.000000 0.9633 0.9642 0.9650 0.9658 0.9664
3158.000000 0.9670 0.9675 0.9683 0.9689 0.9696
3163.000000 0.9701 0.9707 0.9712 0.9717 0.9721
3168.000000 0.9727 0.9730 0.9734 0.9737 0.9740
3173.000000 0.9743 0.9746 0.9748 0.9751 0.9754
3178.000000 0.9757 0.9759 0.9762 0.9765 0.9768
3183.000000 0.9768 0.9771 0.9771 0.9774 0.9775
3188.000000 0.9777 0.9778 0.9780 0.9781 0.9783
3193.000000 0.9784 0.9786 0.9787 0.9789 0.9790
3198.000000 0.9791 0.9792 0.9793 0.9793 0.9794
3203.000000 0.9795 0.9796 0.9796 0.9797 0.9798
3208.000000 0.9799 0.9799 0.9800 0.9800 0.9800
3213.000000 0.9800 0.9800 0.9799 0.9799 0.9799
3218.000000 0.9799 0.9798 0.9798 0.9797 0.9797
3223.000000 0.9796 0.9796 0.9796 0.9796 0.9795
3228.000000 0.9795 0.9794 0.9793 0.9792 0.9792
3233.000000 0.9791 0.9791 0.9790 0.9789 0.9788
3238.000000 0.9788 0.9787 0.9787 0.9786 0.9786
3243.000000 0.9785 0.9784 0.9783 0.9783 0.9782
3248.000000 0.9782 0.9781 0.9780 0.9778 0.9778
3253.000000 0.9778 0.9777 0.9775 0.9775 0.9775
3258.000000 0.9774 0.9773 0.9773 0.9771 0.9771
3263.000000 0.9770 0.9770 0.9768 0.9768 0.9767
3268.000000 0.9766 0.9765 0.9765 0.9764 0.9763
3273.000000 0.9762 0.9762 0.9761 0.9760 0.9759
3278.000000 0.9759 0.9758 0.9757 0.9756 0.9756
3283.000000 0.9755 0.9754 0.9753 0.9753 0.9752
3288.000000 0.9751 0.9750 0.9750 0.9749 0.9748
3293.000000 0.9747 0.9747 0.9746 0.9745 0.9744
3298.000000 0.9744 0.9743 0.9742 0.9741 0.9741
3303.000000 0.9740 0.9739 0.9738 0.9737 0.9735
3308.000000 0.9734 0.9733 0.9732 0.9731 0.9730
3313.000000 0.9728 0.9728 0.9727 0.9725 0.9724
3318.000000 0.9723 0.9721 0.9721 0.9720 0.9718
3323.000000 0.9718 0.9717 0.9715 0.9714 0.9713
3328.000000 0.9712 0.9711 0.9710 0.9709 0.9708
3333.000000 0.9706 0.9705 0.9704 0.9703 0.9702
3338.000000 0.9701 0.9699 0.9698 0.9697 0.9696
3343.000000 0.9695 0.9694 0.9692 0.9691 0.9690
3348.000000 0.9689 0.9688 0.9688 0.9688 0.9688
3353.000000 0.9687 0.9687 0.9687 0.9687 0.9687
3358.000000 0.9687 0.9687 0.9687 0.9686 0.9686
3363.000000 0.9686 0.9686 0.9686 0.9686 0.9687
3368.000000 0.9688 0.9688 0.9689 0.9690 0.9691
3373.000000 0.9691 0.9692 0.9692 0.9693 0.9694
3378.000000 0.9695 0.9695 0.9696 0.9698 0.9700
3383.000000 0.9701 0.9703 0.9704 0.9706 0.9708
3388.000000 0.9708 0.9708 0.9708 0.9707 0.9707
3393.000000 0.9706 0.9706 0.9705 0.9704 0.9703
3398.000000 0.9703 0.9700 0.9698 0.9695 0.9692
3403.000000 0.9689 0.9686 0.9683 0.9680 0.9675
3408.000000 0.9671 0.9664 0.9657 0.9650 0.9644
3413.000000 0.9637 0.9631 0.9625 0.9618 0.9612
3418.000000 0.9606 0.9599 0.9593 0.9584 0.9575
3423.000000 0.9565 0.9556 0.9546 0.9537 0.9528
3428.000000 0.9520 0.9511 0.9502 0.9493 0.9485
3433.000000 0.9475 0.9468 0.9458 0.9449 0.9439
3438.000000 0.9430 0.9420 0.9411 0.9401 0.9392
3443.000000 0.9382 0.9373 0.9363 0.9354 0.9342
3448.000000 0.9330 0.9317 0.9304 0.9291 0.9278
3453.000000 0.9271 0.9264 0.9256 0.9249 0.9248
3458.000000 0.9247 0.9246 0.9246 0.9246 0.9246
3463.000000 0.9249 0.9252 0.9254 0.9257 0.9264
3468.000000 0.9271 0.9278 0.9288 0.9299 0.9311
3473.000000 0.9320 0.9328 0.9338 0.9347 0.9360
3478.000000 0.9374 0.9389 0.9404 0.9418 0.9432
3483.000000 0.9444 0.9457 0.9471 0.9486 0.9502
3488.000000 0.9518 0.9530 0.9541 0.9550 0.9559
3493.000000 0.9568 0.9577 0.9583 0.9590 0.9595
3498.000000 0.9600 0.9605 0.9610 0.9614 0.9618
3503.000000 0.9620 0.9621 0.9621 0.9624 0.9625
3508.000000 0.9625 0.9627 0.9628 0.9630 0.9631
3513.000000 0.9631 0.9632 0.9632 0.9632 0.9632
3518.000000 0.9633 0.9633 0.9633 0.9633 0.9633
3523.000000 0.9633 0.9633 0.9633 0.9634 0.9634
3528.000000 0.9634 0.9634 0.9635 0.9635 0.9636
3533.000000 0.9636 0.9637 0.9638 0.9639 0.9639
3538.000000 0.9640 0.9640 0.9641 0.9641 0.9642
3543.000000 0.9642 0.9643 0.9643 0.9644 0.9644
3548.000000 0.9645 0.9646 0.9647 0.9648 0.9650
3553.000000 0.9651 0.9653 0.9654 0.9656 0.9657
3558.000000 0.9659 0.9660 0.9662 0.9664 0.9667
3563.000000 0.9671 0.9675 0.9680 0.9685 0.9689
3568.000000 0.9693 0.9697 0.9701 0.9705 0.9709
3573.000000 0.9712 0.9712 0.9713 0.9710 0.9703
3578.000000 0.9696 0.9677 0.9659 0.9645 0.9631
3583.000000 0.9624 0.9617 0.9620 0.9623 0.9641
3588.000000 0.9660 0.9697 0.9735 0.9760 0.9785
3593.000000 0.9806 0.9828 0.9840 0.9852 0.9857
3598.000000 0.9862 0.9861 0.9861 0.9859 0.9858
3603.000000 0.9856 0.9854 0.9851 0.9848 0.9844
3608.000000 0.9841 0.9840 0.9840 0.9841 0.9843
3613.000000 0.9847 0.9852 0.9857 0.9863 0.9868
3618.000000 0.9873 0.9878 0.9883 0.9888 0.9893
3623.000000 0.9897 0.9902 0.9906 0.9911 0.9915
3628.000000 0.9918 0.9921 0.9925 0.9930 0.9934
3633.000000 0.9938 0.9943 0.9947 0.9952 0.9956
3638.000000 0.9960 0.9964 0.9968 0.9973 0.9977
3643.000000 0.9980 0.9984 0.9988 0.9992 0.9994
3648.000000 0.9997 0.9998 0.9999 1.0000 1.0002
3653.000000 1.0003 1.0004 1.0005 1.0005 1.0005
3658.000000 1.0004 1.0003 0.9998 0.9999 0.9999
3663.000000 0.9999 0.9998 0.9997 0.9996 0.9994
3668.000000 0.9992 0.9989 0.9987 0.9984 0.9982
3673.000000 0.9978 0.9975 0.9971 0.9967 0.9961
3678.000000 0.9956 0.9950 0.9945 0.9937 0.9930
3683.000000 0.9921 0.9915 0.9910 0.9905 0.9900
3688.000000 0.9896 0.9894 0.9894 0.9894 0.9894
3693.000000 0.9896 0.9898 0.9901 0.9905 0.9908
3698.000000 0.9912 0.9917 0.9923 0.9928 0.9936
3703.000000 0.9946 0.9956 0.9965 0.9975 0.9982
3708.000000 0.9989 0.9995 1.0001 1.0005 1.0010
3713.000000 1.0013 1.0017 1.0020 1.0024 1.0025
3718.000000 1.0025 1.0025 1.0025 1.0025 1.0025
3723.000000 1.0024 1.0024 1.0020 1.0016 1.0011
3728.000000 1.0007 1.0002 0.9997 0.9991 0.9986
3733.000000 0.9978 0.9971 0.9963 0.9956 0.9945
3738.000000 0.9935 0.9923 0.9911 0.9900 0.9889
3743.000000 0.9878 0.9868 0.9868 0.9868 0.9868
3748.000000 0.9870 0.9871 0.9874 0.9875 0.9878
3753.000000 0.9882 0.9885 0.9888 0.9891 0.9896
3758.000000 0.9901 0.9906 0.9912 0.9918 0.9924
3763.000000 0.9930 0.9936 0.9942 0.9949 0.9955
3768.000000 0.9961 0.9966 0.9971 0.9978 0.9984
3773.000000 0.9988 0.9992 0.9995 0.9998 1.0001
3778.000000 1.0005 1.0008 1.0011 1.0013 1.0016
3783.000000 1.0018 1.0020 1.0021 1.0024 1.0025
3788.000000 1.0028 1.0028 1.0028 1.0027 1.0027
3793.000000 1.0025 1.0025 1.0024 1.0023 1.0021
3798.000000 1.0021 1.0021 1.0021
##END=
