##TITLE=TANNIC ACID
##JCAMP-DX=4.24
##DATA TYPE=INFRARED SPECTRUM
##CLASS=COBLENTZ III
##ORIGIN=DOW CHEMICAL COMPANY
##OWNER=COBLENTZ SOC.
Collection (C) 2018 copyright by the U.S. Secretary of Commerce
on behalf of the United States of America. All rights reserved.
##DATE=1964/03/23
##MOLFORM=C76 H52 O46
##MP=200 C DECOMP.
##SOURCE REFERENCE=COBLENTZ NO. 06372
##$NIST ID=B6006372
##$NIST SOURCE=COBLENTZ
##$NIST IMAGE=cob6372
##SPECTROMETER/DATA SYSTEM=DOW KBr FOREPRISM-GRATING
##INSTRUMENT PARAMETERS=BLAZED AT 3.5, 12.0, 20.0 MICRON AND CHANGED AT 5.0, 7.5, 14.9 MICRON
##STATE=SOLID (SPLIT MULL)
##SAMPLING PROCEDURE=TRANSMISSION
##RESOLUTION=2
##DATA PROCESSING=DIGITIZED BY COBLENTZ SOCIETY (BATCH I) FROM HARD COPY
##XUNITS=1/CM
##YUNITS=TRANSMITTANCE
##XLABEL=Wavenumbers (cm-1)
##YLABEL=% Transmission
##XFACTOR=1
##YFACTOR=1
##DELTAX=1
##FIRSTX=448
##LASTX=3816
##FIRSTY=0.6571
##MAXX=3816
##MINX=448
##MAXY=0.8731
##MINY=0.0959
##NPOINTS=3369
##XYDATA=(X++(Y..Y))
448.000000 0.6571 0.6568 0.6568 0.6571 0.6571
453.000000 0.6572 0.6575 0.6578 0.6582 0.6585
458.000000 0.6588 0.6592 0.6595 0.6599 0.6604
463.000000 0.6608 0.6611 0.6615 0.6619 0.6624
468.000000 0.6630 0.6636 0.6642 0.6648 0.6654
473.000000 0.6660 0.6665 0.6671 0.6675 0.6682
478.000000 0.6687 0.6693 0.6700 0.6708 0.6715
483.000000 0.6721 0.6728 0.6728 0.6728 0.6726
488.000000 0.6721 0.6715 0.6711 0.6704 0.6696
493.000000 0.6687 0.6678 0.6668 0.6660 0.6651
498.000000 0.6642 0.6633 0.6624 0.6615 0.6606
503.000000 0.6596 0.6586 0.6575 0.6565 0.6555
508.000000 0.6545 0.6535 0.6525 0.6514 0.6504
513.000000 0.6494 0.6487 0.6480 0.6474 0.6467
518.000000 0.6461 0.6454 0.6448 0.6441 0.6437
523.000000 0.6433 0.6430 0.6425 0.6421 0.6418
528.000000 0.6414 0.6410 0.6406 0.6401 0.6398
533.000000 0.6394 0.6389 0.6385 0.6381 0.6376
538.000000 0.6376 0.6376 0.6379 0.6383 0.6387
543.000000 0.6390 0.6394 0.6398 0.6401 0.6405
548.000000 0.6410 0.6417 0.6424 0.6431 0.6439
553.000000 0.6446 0.6453 0.6460 0.6468 0.6476
558.000000 0.6486 0.6494 0.6503 0.6511 0.6521
563.000000 0.6528 0.6534 0.6541 0.6547 0.6551
568.000000 0.6550 0.6548 0.6546 0.6544 0.6542
573.000000 0.6540 0.6538 0.6536 0.6534 0.6532
578.000000 0.6528 0.6525 0.6521 0.6518 0.6515
583.000000 0.6511 0.6514 0.6515 0.6518 0.6521
588.000000 0.6524 0.6525 0.6528 0.6532 0.6538
593.000000 0.6549 0.6558 0.6571 0.6586 0.6601
598.000000 0.6617 0.6634 0.6653 0.6672 0.6692
603.000000 0.6703 0.6715 0.6726 0.6739 0.6750
608.000000 0.6761 0.6771 0.6778 0.6785 0.6792
613.000000 0.6799 0.6806 0.6812 0.6819 0.6826
618.000000 0.6834 0.6832 0.6828 0.6826 0.6825
623.000000 0.6822 0.6828 0.6839 0.6850 0.6861
628.000000 0.6871 0.6883 0.6888 0.6887 0.6886
633.000000 0.6876 0.6868 0.6858 0.6849 0.6835
638.000000 0.6821 0.6808 0.6794 0.6781 0.6767
643.000000 0.6753 0.6739 0.6724 0.6708 0.6694
648.000000 0.6688 0.6701 0.6693 0.6696 0.6698
653.000000 0.6703 0.6721 0.6741 0.6760 0.6786
658.000000 0.6811 0.6835 0.6858 0.6887 0.6918
663.000000 0.6911 0.6868 0.6825 0.6783 0.6750
668.000000 0.6747 0.6742 0.6738 0.6734 0.6728
673.000000 0.6725 0.6722 0.6719 0.6717 0.6711
678.000000 0.6708 0.6704 0.6700 0.6696 0.6692
683.000000 0.6688 0.6684 0.6680 0.6675 0.6672
688.000000 0.6669 0.6667 0.6664 0.6660 0.6656
693.000000 0.6651 0.6648 0.6644 0.6640 0.6637
698.000000 0.6633 0.6630 0.6625 0.6621 0.6618
703.000000 0.6605 0.6587 0.6568 0.6548 0.6521
708.000000 0.6451 0.6406 0.6356 0.6274 0.6191
713.000000 0.6026 0.5935 0.5843 0.5751 0.5607
718.000000 0.5487 0.5421 0.5410 0.5410 0.5440
723.000000 0.5536 0.5622 0.5639 0.5671 0.5626
728.000000 0.5615 0.5577 0.5488 0.5436 0.5384
733.000000 0.5335 0.5306 0.5308 0.5312 0.5324
738.000000 0.5353 0.5406 0.5453 0.5477 0.5483
743.000000 0.5466 0.5503 0.5446 0.5381 0.5296
748.000000 0.5198 0.5108 0.5023 0.4943 0.4869
753.000000 0.4797 0.4735 0.4680 0.4624 0.4594
758.000000 0.4552 0.4609 0.4633 0.4665 0.4720
763.000000 0.4804 0.4968 0.5112 0.5225 0.5338
768.000000 0.5479 0.5637 0.5774 0.5906 0.6038
773.000000 0.6168 0.6279 0.6355 0.6430 0.6506
778.000000 0.6572 0.6633 0.6692 0.6751 0.6810
783.000000 0.6861 0.6912 0.6964 0.7015 0.7071
788.000000 0.7126 0.7182 0.7238 0.7300 0.7361
793.000000 0.7428 0.7508 0.7557 0.7604 0.7636
798.000000 0.7661 0.7687 0.7695 0.7704 0.7711
803.000000 0.7719 0.7728 0.7737 0.7743 0.7740
808.000000 0.7736 0.7732 0.7728 0.7725 0.7724
813.000000 0.7724 0.7722 0.7722 0.7722 0.7725
818.000000 0.7730 0.7735 0.7744 0.7758 0.7771
823.000000 0.7786 0.7800 0.7822 0.7848 0.7872
828.000000 0.7897 0.7911 0.7921 0.7933 0.7944
833.000000 0.7954 0.7937 0.7947 0.7943 0.7934
838.000000 0.7925 0.7915 0.7905 0.7895 0.7883
843.000000 0.7868 0.7855 0.7841 0.7828 0.7801
848.000000 0.7771 0.7740 0.7710 0.7678 0.7640
853.000000 0.7594 0.7547 0.7496 0.7391 0.7269
858.000000 0.7044 0.6851 0.6753 0.6665 0.6639
863.000000 0.6612 0.6612 0.6622 0.6601 0.6699
868.000000 0.6747 0.6797 0.6846 0.6900 0.6955
873.000000 0.7011 0.7065 0.7121 0.7167 0.7208
878.000000 0.7249 0.7291 0.7332 0.7372 0.7408
883.000000 0.7444 0.7478 0.7514 0.7549 0.7585
888.000000 0.7617 0.7647 0.7678 0.7708 0.7739
893.000000 0.7768 0.7794 0.7817 0.7840 0.7862
898.000000 0.7887 0.7897 0.7901 0.7905 0.7931
903.000000 0.7894 0.7884 0.7875 0.7848 0.7811
908.000000 0.7778 0.7745 0.7710 0.7674 0.7639
913.000000 0.7601 0.7558 0.7514 0.7471 0.7426
918.000000 0.7384 0.7341 0.7300 0.7261 0.7225
923.000000 0.7187 0.7150 0.7111 0.7068 0.7028
928.000000 0.6987 0.6948 0.6908 0.6871 0.6847
933.000000 0.6821 0.6797 0.6775 0.6758 0.6743
938.000000 0.6726 0.6711 0.6696 0.6680 0.6661
943.000000 0.6647 0.6637 0.6628 0.6618 0.6608
948.000000 0.6599 0.6589 0.6578 0.6569 0.6560
953.000000 0.6550 0.6541 0.6531 0.6521 0.6515
958.000000 0.6514 0.6511 0.6511 0.6510 0.6508
963.000000 0.6507 0.6515 0.6528 0.6534 0.6535
968.000000 0.6536 0.6581 0.6464 0.6398 0.6333
973.000000 0.6277 0.6233 0.6190 0.6133 0.6047
978.000000 0.5960 0.5712 0.5609 0.5506 0.5412
983.000000 0.5329 0.5246 0.5164 0.5086 0.5008
988.000000 0.4930 0.4852 0.4774 0.4680 0.4575
993.000000 0.4469 0.4362 0.4194 0.4023 0.3916
998.000000 0.3844 0.3772 0.3699 0.3626 0.3554
1003.000000 0.3482 0.3410 0.3341 0.3270 0.3200
1008.000000 0.3129 0.3058 0.2988 0.2917 0.2846
1013.000000 0.2775 0.2707 0.2640 0.2574 0.2507
1018.000000 0.2440 0.2377 0.2338 0.2298 0.2260
1023.000000 0.2234 0.2209 0.2187 0.2178 0.2154
1028.000000 0.2194 0.2200 0.2202 0.2216 0.2263
1033.000000 0.2340 0.2448 0.2590 0.2756 0.2935
1038.000000 0.3125 0.3244 0.3359 0.3489 0.3679
1043.000000 0.3854 0.4012 0.4151 0.4437 0.4536
1048.000000 0.4622 0.4662 0.4701 0.4715 0.4728
1053.000000 0.4742 0.4755 0.4769 0.4782 0.4829
1058.000000 0.4786 0.4787 0.4760 0.4737 0.4712
1063.000000 0.4686 0.4657 0.4628 0.4599 0.4560
1068.000000 0.4498 0.4436 0.4372 0.4307 0.4229
1073.000000 0.4140 0.4080 0.4024 0.3966 0.3850
1078.000000 0.3794 0.3777 0.3776 0.3775 0.3766
1083.000000 0.3778 0.3779 0.3789 0.3799 0.3821
1088.000000 0.3860 0.3900 0.3947 0.3995 0.4055
1093.000000 0.4134 0.4219 0.4670 0.4870 0.5019
1098.000000 0.5114 0.5204 0.5294 0.5384 0.5479
1103.000000 0.5573 0.5630 0.5687 0.5744 0.5798
1108.000000 0.5820 0.5841 0.5862 0.5884 0.5895
1113.000000 0.5899 0.5904 0.5904 0.5904 0.5912
1118.000000 0.5907 0.5900 0.5887 0.5874 0.5860
1123.000000 0.5820 0.5778 0.5736 0.5694 0.5650
1128.000000 0.5603 0.5537 0.5470 0.5404 0.5337
1133.000000 0.5270 0.5209 0.5151 0.5093 0.5027
1138.000000 0.4920 0.4812 0.4496 0.4443 0.4391
1143.000000 0.4338 0.4285 0.4232 0.4179 0.4126
1148.000000 0.4073 0.4020 0.3966 0.3872 0.3748
1153.000000 0.3290 0.3188 0.3085 0.2903 0.2757
1158.000000 0.2682 0.2608 0.2541 0.2478 0.2415
1163.000000 0.2351 0.2288 0.2221 0.2146 0.2071
1168.000000 0.1995 0.1922 0.1858 0.1807 0.1754
1173.000000 0.1704 0.1653 0.1602 0.1550 0.1512
1178.000000 0.1476 0.1441 0.1405 0.1369 0.1333
1183.000000 0.1296 0.1261 0.1225 0.1189 0.1152
1188.000000 0.1115 0.1079 0.1050 0.1028 0.1007
1193.000000 0.0992 0.0986 0.0979 0.0972 0.0966
1198.000000 0.0959 0.0960 0.0961 0.0962 0.0963
1203.000000 0.0968 0.0967 0.0966 0.0970 0.0972
1208.000000 0.0976 0.0980 0.0988 0.0996 0.1006
1213.000000 0.1015 0.1026 0.1051 0.1076 0.1102
1218.000000 0.1128 0.1155 0.1181 0.1207 0.1242
1223.000000 0.1286 0.1331 0.1382 0.1441 0.1500
1228.000000 0.1567 0.1636 0.1702 0.1762 0.1823
1233.000000 0.1885 0.1954 0.2022 0.2091 0.2159
1238.000000 0.2214 0.2261 0.2308 0.2356 0.2403
1243.000000 0.2450 0.2501 0.2554 0.2607 0.2660
1248.000000 0.2713 0.2770 0.2875 0.2979 0.3063
1253.000000 0.3141 0.3218 0.3299 0.3399 0.3500
1258.000000 0.3587 0.3671 0.3712 0.3753 0.3795
1263.000000 0.3836 0.3877 0.3932 0.3987 0.4025
1268.000000 0.4062 0.4098 0.4117 0.4132 0.4146
1273.000000 0.4157 0.4158 0.4157 0.4156 0.4141
1278.000000 0.4108 0.4068 0.4010 0.3960 0.3907
1283.000000 0.3841 0.3775 0.3709 0.3648 0.3593
1288.000000 0.3537 0.3480 0.3426 0.3314 0.3134
1293.000000 0.3019 0.2914 0.2810 0.2705 0.2525
1298.000000 0.2351 0.2214 0.2077 0.1987 0.1912
1303.000000 0.1836 0.1761 0.1684 0.1623 0.1563
1308.000000 0.1502 0.1456 0.1410 0.1366 0.1323
1313.000000 0.1276 0.1228 0.1196 0.1183 0.1177
1318.000000 0.1199 0.1175 0.1178 0.1185 0.1196
1323.000000 0.1216 0.1234 0.1253 0.1275 0.1294
1328.000000 0.1312 0.1330 0.1348 0.1363 0.1378
1333.000000 0.1421 0.1409 0.1087 0.1237 0.1121
1338.000000 0.1138 0.1156 0.1177 0.1203 0.1233
1343.000000 0.1265 0.1302 0.1341 0.1377 0.1412
1348.000000 0.1445 0.1478 0.1517 0.1566 0.1633
1353.000000 0.1701 0.1769 0.1834 0.1900 0.1964
1358.000000 0.2027 0.2091 0.2155 0.2214 0.2264
1363.000000 0.2315 0.2365 0.2416 0.2464 0.2513
1368.000000 0.2562 0.2610 0.2659 0.2707 0.2756
1373.000000 0.2805 0.2854 0.2903 0.2953 0.3002
1378.000000 0.3051 0.3101 0.3160 0.3227 0.3294
1383.000000 0.3362 0.3429 0.3497 0.3559 0.3610
1388.000000 0.3662 0.3712 0.3762 0.3839 0.3962
1393.000000 0.4048 0.4121 0.4226 0.4342 0.4422
1398.000000 0.4495 0.4567 0.4640 0.4731 0.4826
1403.000000 0.4921 0.5016 0.5095 0.5173 0.5251
1408.000000 0.5330 0.5412 0.5493 0.5574 0.5604
1413.000000 0.5632 0.5660 0.5688 0.5705 0.5714
1418.000000 0.5723 0.5755 0.5727 0.5712 0.5698
1423.000000 0.5647 0.5580 0.5507 0.5406 0.5280
1428.000000 0.5110 0.4950 0.4798 0.4505 0.4230
1433.000000 0.4077 0.3866 0.3755 0.3660 0.3566
1438.000000 0.3471 0.3329 0.3218 0.3130 0.3130
1443.000000 0.3129 0.3105 0.3134 0.3148 0.3187
1448.000000 0.3266 0.3362 0.3530 0.3640 0.3749
1453.000000 0.3870 0.3996 0.4156 0.4408 0.4489
1458.000000 0.4570 0.4651 0.4712 0.4771 0.4828
1463.000000 0.4878 0.4936 0.5017 0.5097 0.5252
1468.000000 0.5440 0.5649 0.5844 0.6112 0.6439
1473.000000 0.6671 0.6843 0.6906 0.6968 0.7032
1478.000000 0.7083 0.7128 0.7143 0.7156 0.7164
1483.000000 0.7169 0.7175 0.7183 0.7215 0.7196
1488.000000 0.7201 0.7193 0.7185 0.7168 0.7145
1493.000000 0.7108 0.7061 0.7015 0.6968 0.6898
1498.000000 0.6828 0.6758 0.6686 0.6611 0.6536
1503.000000 0.6446 0.6343 0.6240 0.6127 0.6007
1508.000000 0.5843 0.5654 0.5500 0.5347 0.5276
1513.000000 0.5264 0.5251 0.5239 0.5226 0.5220
1518.000000 0.5219 0.5217 0.5208 0.5172 0.5072
1523.000000 0.4931 0.4760 0.4677 0.4404 0.4326
1528.000000 0.4276 0.4227 0.4232 0.4232 0.4232
1533.000000 0.4244 0.4255 0.4282 0.4389 0.4501
1538.000000 0.4608 0.4699 0.4790 0.4879 0.4966
1543.000000 0.5004 0.5050 0.5609 0.5995 0.6156
1548.000000 0.6316 0.6497 0.6645 0.6717 0.6742
1553.000000 0.6767 0.6790 0.6792 0.6786 0.6778
1558.000000 0.6800 0.6754 0.6742 0.6725 0.6698
1563.000000 0.6671 0.6643 0.6568 0.6449 0.6316
1568.000000 0.6205 0.6130 0.6055 0.5980 0.5895
1573.000000 0.5810 0.5725 0.5567 0.5403 0.5283
1578.000000 0.5162 0.5043 0.4926 0.4817 0.4707
1583.000000 0.4598 0.4491 0.4387 0.4283 0.4179
1588.000000 0.4073 0.3937 0.3800 0.3664 0.3544
1593.000000 0.3440 0.3336 0.3232 0.3127 0.2988
1598.000000 0.2829 0.2670 0.2544 0.2418 0.2345
1603.000000 0.2289 0.2243 0.2205 0.2205 0.2205
1608.000000 0.2208 0.2212 0.2221 0.2256 0.2305
1613.000000 0.2361 0.2422 0.2509 0.2616 0.2721
1618.000000 0.2825 0.2932 0.3068 0.3204 0.3347
1623.000000 0.3509 0.3680 0.3878 0.4066 0.4244
1628.000000 0.4474 0.4727 0.4966 0.5229 0.5487
1633.000000 0.5587 0.5635 0.5684 0.5730 0.5768
1638.000000 0.5806 0.5843 0.5850 0.5850 0.5849
1643.000000 0.5848 0.5847 0.5839 0.5816 0.5787
1648.000000 0.5755 0.5719 0.5682 0.5644 0.5607
1653.000000 0.5571 0.5537 0.5504 0.5470 0.5426
1658.000000 0.5371 0.5316 0.5253 0.5184 0.5114
1663.000000 0.4984 0.4849 0.4781 0.4712 0.4644
1668.000000 0.4551 0.4432 0.4312 0.4179 0.4039
1673.000000 0.3905 0.3784 0.3664 0.3571 0.3502
1678.000000 0.3432 0.3364 0.3295 0.3223 0.3142
1683.000000 0.3060 0.2978 0.2892 0.2801 0.2710
1688.000000 0.2650 0.2611 0.2571 0.2531 0.2497
1693.000000 0.2471 0.2445 0.2423 0.2403 0.2384
1698.000000 0.2374 0.2363 0.2353 0.2354 0.2334
1703.000000 0.2357 0.2360 0.2364 0.2370 0.2379
1708.000000 0.2394 0.2420 0.2448 0.2484 0.2523
1713.000000 0.2564 0.2609 0.2653 0.2697 0.2742
1718.000000 0.2798 0.2865 0.2931 0.3014 0.3214
1723.000000 0.3480 0.3850 0.4097 0.4343 0.4588
1728.000000 0.4834 0.5073 0.5141 0.5209 0.5276
1733.000000 0.5343 0.5405 0.5464 0.5523 0.6354
1738.000000 0.6601 0.6801 0.6980 0.7222 0.7397
1743.000000 0.7544 0.7665 0.7735 0.7805 0.7875
1748.000000 0.7953 0.8034 0.8128 0.8257 0.8302
1753.000000 0.8348 0.8394 0.8459 0.8507 0.8541
1758.000000 0.8577 0.8616 0.8656 0.8671 0.8681
1763.000000 0.8691 0.8700 0.8731 0.8717 0.8718
1768.000000 0.8720 0.8720 0.8720 0.8718 0.8717
1773.000000 0.8716 0.8713 0.8709 0.8706 0.8702
1778.000000 0.8698 0.8694 0.8690 0.8686 0.8682
1783.000000 0.8678 0.8673 0.8668 0.8663 0.8658
1788.000000 0.8654 0.8647 0.8638 0.8630 0.8621
1793.000000 0.8612 0.8603 0.8594 0.8585 0.8575
1798.000000 0.8567 0.8559 0.8552 0.8545 0.8538
1803.000000 0.8532 0.8525 0.8518 0.8512 0.8505
1808.000000 0.8497 0.8490 0.8482 0.8474 0.8467
1813.000000 0.8459 0.8452 0.8444 0.8437 0.8428
1818.000000 0.8421 0.8412 0.8403 0.8393 0.8384
1823.000000 0.8375 0.8365 0.8356 0.8347 0.8337
1828.000000 0.8328 0.8318 0.8311 0.8304 0.8297
1833.000000 0.8289 0.8282 0.8275 0.8267 0.8260
1838.000000 0.8253 0.8246 0.8238 0.8231 0.8224
1843.000000 0.8217 0.8211 0.8205 0.8198 0.8192
1848.000000 0.8186 0.8180 0.8174 0.8167 0.8161
1853.000000 0.8155 0.8149 0.8143 0.8136 0.8130
1858.000000 0.8124 0.8118 0.8111 0.8105 0.8099
1863.000000 0.8094 0.8089 0.8083 0.8078 0.8072
1868.000000 0.8068 0.8061 0.8057 0.8051 0.8047
1873.000000 0.8041 0.8036 0.8031 0.8025 0.8019
1878.000000 0.8015 0.8011 0.8006 0.8001 0.7997
1883.000000 0.7992 0.7988 0.7983 0.7978 0.7972
1888.000000 0.7968 0.7964 0.7958 0.7951 0.7946
1893.000000 0.7941 0.7935 0.7928 0.7924 0.7918
1898.000000 0.7911 0.7906 0.7901 0.7896 0.7891
1903.000000 0.7887 0.7883 0.7878 0.7874 0.7869
1908.000000 0.7865 0.7860 0.7856 0.7851 0.7847
1913.000000 0.7842 0.7837 0.7833 0.7828 0.7822
1918.000000 0.7818 0.7812 0.7807 0.7801 0.7797
1923.000000 0.7792 0.7786 0.7781 0.7775 0.7771
1928.000000 0.7765 0.7760 0.7755 0.7750 0.7745
1933.000000 0.7741 0.7737 0.7733 0.7728 0.7724
1938.000000 0.7719 0.7715 0.7711 0.7707 0.7703
1943.000000 0.7699 0.7695 0.7691 0.7686 0.7682
1948.000000 0.7678 0.7674 0.7669 0.7665 0.7661
1953.000000 0.7657 0.7653 0.7649 0.7645 0.7641
1958.000000 0.7637 0.7633 0.7628 0.7625 0.7621
1963.000000 0.7617 0.7612 0.7608 0.7605 0.7601
1968.000000 0.7597 0.7593 0.7589 0.7578 0.7565
1973.000000 0.7551 0.7540 0.7526 0.7515 0.7506
1978.000000 0.7499 0.7491 0.7484 0.7476 0.7468
1983.000000 0.7460 0.7451 0.7442 0.7433 0.7424
1988.000000 0.7415 0.7406 0.7384 0.7351 0.7315
1993.000000 0.7318 0.7321 0.7341 0.7360 0.7384
1998.000000 0.7415 0.7438 0.7441 0.7440 0.7439
2003.000000 0.7436 0.7433 0.7426 0.7421 0.7415
2008.000000 0.7408 0.7401 0.7394 0.7387 0.7380
2013.000000 0.7371 0.7364 0.7355 0.7347 0.7337
2018.000000 0.7326 0.7315 0.7306 0.7296 0.7286
2023.000000 0.7275 0.7265 0.7258 0.7251 0.7245
2028.000000 0.7238 0.7231 0.7224 0.7217 0.7210
2033.000000 0.7203 0.7197 0.7191 0.7186 0.7181
2038.000000 0.7176 0.7171 0.7167 0.7161 0.7158
2043.000000 0.7153 0.7148 0.7143 0.7139 0.7134
2048.000000 0.7128 0.7124 0.7118 0.7112 0.7108
2053.000000 0.7103 0.7098 0.7093 0.7088 0.7082
2058.000000 0.7076 0.7071 0.7067 0.7061 0.7056
2063.000000 0.7051 0.7046 0.7040 0.7035 0.7030
2068.000000 0.7025 0.7018 0.7014 0.7008 0.7004
2073.000000 0.6998 0.6992 0.6986 0.6981 0.6975
2078.000000 0.6968 0.6962 0.6958 0.6951 0.6947
2083.000000 0.6941 0.6935 0.6928 0.6924 0.6918
2088.000000 0.6912 0.6907 0.6901 0.6896 0.6891
2093.000000 0.6886 0.6881 0.6875 0.6871 0.6865
2098.000000 0.6860 0.6855 0.6850 0.6845 0.6840
2103.000000 0.6835 0.6830 0.6825 0.6819 0.6815
2108.000000 0.6810 0.6805 0.6800 0.6795 0.6790
2113.000000 0.6784 0.6778 0.6774 0.6768 0.6764
2118.000000 0.6758 0.6754 0.6749 0.6744 0.6739
2123.000000 0.6734 0.6728 0.6724 0.6718 0.6712
2128.000000 0.6708 0.6701 0.6697 0.6691 0.6686
2133.000000 0.6680 0.6675 0.6668 0.6664 0.6658
2138.000000 0.6653 0.6647 0.6642 0.6636 0.6631
2143.000000 0.6625 0.6619 0.6614 0.6608 0.6603
2148.000000 0.6598 0.6592 0.6587 0.6581 0.6575
2153.000000 0.6569 0.6565 0.6558 0.6554 0.6548
2158.000000 0.6543 0.6537 0.6532 0.6525 0.6519
2163.000000 0.6514 0.6508 0.6503 0.6497 0.6490
2168.000000 0.6484 0.6476 0.6471 0.6465 0.6458
2173.000000 0.6451 0.6446 0.6440 0.6434 0.6426
2178.000000 0.6421 0.6414 0.6408 0.6401 0.6396
2183.000000 0.6389 0.6383 0.6376 0.6370 0.6364
2188.000000 0.6358 0.6351 0.6345 0.6335 0.6326
2193.000000 0.6317 0.6308 0.6299 0.6290 0.6280
2198.000000 0.6271 0.6262 0.6253 0.6243 0.6234
2203.000000 0.6225 0.6217 0.6208 0.6200 0.6191
2208.000000 0.6183 0.6175 0.6167 0.6158 0.6150
2213.000000 0.6142 0.6134 0.6125 0.6117 0.6108
2218.000000 0.6100 0.6092 0.6084 0.6076 0.6068
2223.000000 0.6060 0.6052 0.6044 0.6036 0.6028
2228.000000 0.6020 0.6012 0.6004 0.5996 0.5988
2233.000000 0.5980 0.5972 0.5964 0.5956 0.5948
2238.000000 0.5940 0.5932 0.5925 0.5917 0.5910
2243.000000 0.5902 0.5895 0.5887 0.5880 0.5872
2248.000000 0.5865 0.5858 0.5851 0.5843 0.5836
2253.000000 0.5828 0.5821 0.5812 0.5806 0.5798
2258.000000 0.5791 0.5784 0.5777 0.5769 0.5760
2263.000000 0.5753 0.5745 0.5737 0.5729 0.5721
2268.000000 0.5712 0.5705 0.5697 0.5689 0.5681
2273.000000 0.5674 0.5668 0.5662 0.5658 0.5653
2278.000000 0.5648 0.5642 0.5637 0.5632 0.5627
2283.000000 0.5622 0.5617 0.5612 0.5607 0.5602
2288.000000 0.5597 0.5591 0.5586 0.5581 0.5576
2293.000000 0.5571 0.5567 0.5562 0.5557 0.5552
2298.000000 0.5547 0.5542 0.5538 0.5533 0.5528
2303.000000 0.5523 0.5518 0.5512 0.5509 0.5504
2308.000000 0.5499 0.5494 0.5490 0.5485 0.5480
2313.000000 0.5475 0.5470 0.5465 0.5460 0.5453
2318.000000 0.5447 0.5440 0.5434 0.5427 0.5421
2323.000000 0.5414 0.5407 0.5400 0.5394 0.5387
2328.000000 0.5380 0.5373 0.5366 0.5359 0.5352
2333.000000 0.5347 0.5342 0.5340 0.5338 0.5336
2338.000000 0.5334 0.5332 0.5330 0.5328 0.5326
2343.000000 0.5324 0.5322 0.5320 0.5318 0.5316
2348.000000 0.5314 0.5310 0.5309 0.5306 0.5304
2353.000000 0.5301 0.5299 0.5297 0.5295 0.5292
2358.000000 0.5290 0.5287 0.5285 0.5282 0.5280
2363.000000 0.5277 0.5275 0.5272 0.5270 0.5267
2368.000000 0.5265 0.5262 0.5260 0.5257 0.5255
2373.000000 0.5252 0.5250 0.5247 0.5244 0.5241
2378.000000 0.5239 0.5236 0.5233 0.5230 0.5227
2383.000000 0.5224 0.5222 0.5219 0.5216 0.5212
2388.000000 0.5210 0.5207 0.5204 0.5201 0.5199
2393.000000 0.5195 0.5192 0.5188 0.5185 0.5181
2398.000000 0.5178 0.5175 0.5172 0.5168 0.5165
2403.000000 0.5160 0.5158 0.5154 0.5151 0.5147
2408.000000 0.5144 0.5140 0.5137 0.5134 0.5131
2413.000000 0.5128 0.5126 0.5123 0.5120 0.5117
2418.000000 0.5114 0.5110 0.5108 0.5105 0.5102
2423.000000 0.5099 0.5097 0.5094 0.5091 0.5088
2428.000000 0.5085 0.5082 0.5079 0.5076 0.5073
2433.000000 0.5070 0.5067 0.5064 0.5062 0.5059
2438.000000 0.5056 0.5053 0.5051 0.5048 0.5046
2443.000000 0.5043 0.5041 0.5038 0.5036 0.5033
2448.000000 0.5031 0.5028 0.5026 0.5023 0.5021
2453.000000 0.5018 0.5015 0.5012 0.5010 0.5007
2458.000000 0.5005 0.5002 0.5000 0.4997 0.4994
2463.000000 0.4990 0.4987 0.4984 0.4981 0.4978
2468.000000 0.4975 0.4971 0.4968 0.4965 0.4962
2473.000000 0.4959 0.4956 0.4953 0.4950 0.4946
2478.000000 0.4943 0.4940 0.4937 0.4933 0.4930
2483.000000 0.4926 0.4922 0.4918 0.4914 0.4910
2488.000000 0.4907 0.4903 0.4899 0.4895 0.4891
2493.000000 0.4887 0.4883 0.4879 0.4875 0.4871
2498.000000 0.4867 0.4862 0.4860 0.4856 0.4852
2503.000000 0.4848 0.4844 0.4840 0.4836 0.4832
2508.000000 0.4828 0.4823 0.4818 0.4812 0.4809
2513.000000 0.4804 0.4800 0.4795 0.4790 0.4785
2518.000000 0.4781 0.4776 0.4772 0.4767 0.4762
2523.000000 0.4757 0.4753 0.4748 0.4744 0.4739
2528.000000 0.4734 0.4729 0.4725 0.4720 0.4716
2533.000000 0.4710 0.4706 0.4702 0.4698 0.4693
2538.000000 0.4689 0.4684 0.4680 0.4675 0.4671
2543.000000 0.4666 0.4662 0.4657 0.4653 0.4648
2548.000000 0.4644 0.4640 0.4636 0.4631 0.4627
2553.000000 0.4622 0.4618 0.4612 0.4609 0.4604
2558.000000 0.4600 0.4595 0.4591 0.4586 0.4582
2563.000000 0.4578 0.4574 0.4569 0.4565 0.4560
2568.000000 0.4556 0.4551 0.4547 0.4542 0.4538
2573.000000 0.4533 0.4529 0.4524 0.4520 0.4516
2578.000000 0.4512 0.4507 0.4503 0.4498 0.4494
2583.000000 0.4489 0.4485 0.4480 0.4476 0.4472
2588.000000 0.4468 0.4464 0.4460 0.4456 0.4453
2593.000000 0.4449 0.4445 0.4441 0.4437 0.4433
2598.000000 0.4430 0.4426 0.4422 0.4418 0.4414
2603.000000 0.4410 0.4407 0.4403 0.4399 0.4395
2608.000000 0.4391 0.4387 0.4384 0.4380 0.4376
2613.000000 0.4372 0.4369 0.4365 0.4360 0.4357
2618.000000 0.4353 0.4349 0.4346 0.4342 0.4338
2623.000000 0.4334 0.4330 0.4325 0.4321 0.4316
2628.000000 0.4312 0.4307 0.4303 0.4298 0.4294
2633.000000 0.4289 0.4285 0.4280 0.4275 0.4270
2638.000000 0.4266 0.4260 0.4257 0.4252 0.4248
2643.000000 0.4243 0.4239 0.4234 0.4230 0.4225
2648.000000 0.4221 0.4216 0.4212 0.4207 0.4202
2653.000000 0.4197 0.4193 0.4189 0.4185 0.4180
2658.000000 0.4176 0.4171 0.4167 0.4162 0.4158
2663.000000 0.4153 0.4149 0.4145 0.4141 0.4136
2668.000000 0.4132 0.4127 0.4123 0.4118 0.4114
2673.000000 0.4110 0.4106 0.4101 0.4097 0.4092
2678.000000 0.4088 0.4082 0.4079 0.4074 0.4070
2683.000000 0.4066 0.4062 0.4057 0.4053 0.4048
2688.000000 0.4043 0.4038 0.4032 0.4028 0.4024
2693.000000 0.4018 0.4014 0.4009 0.4005 0.4000
2698.000000 0.3995 0.3990 0.3984 0.3980 0.3976
2703.000000 0.3971 0.3966 0.3964 0.3962 0.3960
2708.000000 0.3960 0.3959 0.3959 0.3959 0.3959
2713.000000 0.3958 0.3958 0.3957 0.3957 0.3956
2718.000000 0.3956 0.3955 0.3955 0.3954 0.3953
2723.000000 0.3952 0.3950 0.3949 0.3948 0.3947
2728.000000 0.3946 0.3945 0.3944 0.3942 0.3941
2733.000000 0.3939 0.3937 0.3934 0.3932 0.3930
2738.000000 0.3929 0.3926 0.3924 0.3922 0.3920
2743.000000 0.3918 0.3916 0.3914 0.3912 0.3909
2748.000000 0.3908 0.3906 0.3904 0.3902 0.3900
2753.000000 0.3898 0.3896 0.3893 0.3891 0.3888
2758.000000 0.3886 0.3882 0.3880 0.3876 0.3873
2763.000000 0.3870 0.3866 0.3864 0.3860 0.3857
2768.000000 0.3854 0.3850 0.3848 0.3845 0.3842
2773.000000 0.3839 0.3836 0.3832 0.3829 0.3825
2778.000000 0.3821 0.3816 0.3810 0.3805 0.3800
2783.000000 0.3795 0.3790 0.3784 0.3779 0.3773
2788.000000 0.3768 0.3762 0.3758 0.3752 0.3747
2793.000000 0.3742 0.3737 0.3730 0.3726 0.3720
2798.000000 0.3714 0.3709 0.3704 0.3698 0.3693
2803.000000 0.3687 0.3682 0.3676 0.3671 0.3664
2808.000000 0.3659 0.3655 0.3650 0.3644 0.3639
2813.000000 0.3632 0.3628 0.3622 0.3616 0.3612
2818.000000 0.3607 0.3602 0.3598 0.3593 0.3588
2823.000000 0.3582 0.3578 0.3573 0.3568 0.3564
2828.000000 0.3559 0.3554 0.3549 0.3544 0.3539
2833.000000 0.3534 0.3530 0.3525 0.3520 0.3514
2838.000000 0.3509 0.3505 0.3500 0.3496 0.3491
2843.000000 0.3484 0.3480 0.3475 0.3470 0.3464
2848.000000 0.3459 0.3454 0.3449 0.3444 0.3439
2853.000000 0.3432 0.3428 0.3423 0.3418 0.3412
2858.000000 0.3408 0.3402 0.3397 0.3392 0.3387
2863.000000 0.3380 0.3376 0.3371 0.3366 0.3359
2868.000000 0.3354 0.3347 0.3341 0.3334 0.3328
2873.000000 0.3321 0.3314 0.3308 0.3302 0.3295
2878.000000 0.3288 0.3280 0.3275 0.3268 0.3262
2883.000000 0.3255 0.3249 0.3242 0.3236 0.3229
2888.000000 0.3223 0.3216 0.3209 0.3200 0.3192
2893.000000 0.3183 0.3175 0.3166 0.3157 0.3148
2898.000000 0.3139 0.3130 0.3122 0.3113 0.3104
2903.000000 0.3095 0.3085 0.3079 0.3073 0.3067
2908.000000 0.3061 0.3054 0.3048 0.3042 0.3035
2913.000000 0.3029 0.3023 0.3016 0.3009 0.3002
2918.000000 0.2995 0.2987 0.2980 0.2973 0.2966
2923.000000 0.2959 0.2952 0.2945 0.2938 0.2933
2928.000000 0.2929 0.2924 0.2920 0.2915 0.2911
2933.000000 0.2906 0.2902 0.2897 0.2893 0.2888
2938.000000 0.2884 0.2879 0.2875 0.2870 0.2866
2943.000000 0.2861 0.2857 0.2853 0.2849 0.2845
2948.000000 0.2842 0.2838 0.2834 0.2830 0.2827
2953.000000 0.2823 0.2819 0.2815 0.2812 0.2808
2958.000000 0.2804 0.2800 0.2797 0.2793 0.2789
2963.000000 0.2784 0.2782 0.2778 0.2774 0.2769
2968.000000 0.2765 0.2761 0.2757 0.2752 0.2748
2973.000000 0.2743 0.2739 0.2734 0.2731 0.2726
2978.000000 0.2722 0.2718 0.2714 0.2709 0.2705
2983.000000 0.2700 0.2696 0.2692 0.2688 0.2683
2988.000000 0.2679 0.2674 0.2669 0.2663 0.2658
2993.000000 0.2653 0.2648 0.2642 0.2637 0.2631
2998.000000 0.2626 0.2621 0.2616 0.2610 0.2605
3003.000000 0.2599 0.2594 0.2589 0.2584 0.2579
3008.000000 0.2574 0.2569 0.2565 0.2560 0.2555
3013.000000 0.2550 0.2545 0.2540 0.2535 0.2531
3018.000000 0.2526 0.2521 0.2517 0.2512 0.2507
3023.000000 0.2502 0.2497 0.2492 0.2488 0.2483
3028.000000 0.2478 0.2473 0.2469 0.2464 0.2459
3033.000000 0.2454 0.2449 0.2444 0.2439 0.2433
3038.000000 0.2428 0.2422 0.2416 0.2410 0.2405
3043.000000 0.2399 0.2394 0.2388 0.2383 0.2377
3048.000000 0.2371 0.2366 0.2361 0.2357 0.2353
3053.000000 0.2349 0.2345 0.2341 0.2337 0.2333
3058.000000 0.2329 0.2325 0.2321 0.2317 0.2314
3063.000000 0.2310 0.2306 0.2302 0.2298 0.2294
3068.000000 0.2290 0.2285 0.2282 0.2278 0.2274
3073.000000 0.2270 0.2266 0.2260 0.2255 0.2250
3078.000000 0.2245 0.2239 0.2234 0.2229 0.2224
3083.000000 0.2218 0.2213 0.2208 0.2203 0.2197
3088.000000 0.2192 0.2187 0.2182 0.2177 0.2172
3093.000000 0.2166 0.2161 0.2156 0.2151 0.2145
3098.000000 0.2140 0.2134 0.2130 0.2124 0.2119
3103.000000 0.2114 0.2109 0.2104 0.2100 0.2096
3108.000000 0.2092 0.2088 0.2084 0.2080 0.2076
3113.000000 0.2072 0.2068 0.2063 0.2059 0.2055
3118.000000 0.2051 0.2046 0.2043 0.2039 0.2034
3123.000000 0.2031 0.2027 0.2023 0.2019 0.2015
3128.000000 0.2011 0.2006 0.2001 0.1995 0.1992
3133.000000 0.1986 0.1982 0.1977 0.1973 0.1968
3138.000000 0.1963 0.1958 0.1954 0.1949 0.1944
3143.000000 0.1939 0.1934 0.1929 0.1925 0.1920
3148.000000 0.1916 0.1911 0.1906 0.1901 0.1896
3153.000000 0.1892 0.1886 0.1883 0.1879 0.1875
3158.000000 0.1872 0.1868 0.1865 0.1862 0.1859
3163.000000 0.1854 0.1852 0.1848 0.1844 0.1841
3168.000000 0.1837 0.1834 0.1831 0.1828 0.1825
3173.000000 0.1821 0.1818 0.1814 0.1811 0.1807
3178.000000 0.1804 0.1801 0.1798 0.1794 0.1791
3183.000000 0.1787 0.1784 0.1781 0.1778 0.1774
3188.000000 0.1771 0.1768 0.1765 0.1761 0.1758
3193.000000 0.1754 0.1752 0.1748 0.1744 0.1742
3198.000000 0.1739 0.1734 0.1732 0.1728 0.1725
3203.000000 0.1722 0.1719 0.1715 0.1712 0.1709
3208.000000 0.1706 0.1702 0.1699 0.1694 0.1692
3213.000000 0.1690 0.1687 0.1684 0.1683 0.1679
3218.000000 0.1678 0.1675 0.1673 0.1670 0.1668
3223.000000 0.1666 0.1664 0.1661 0.1659 0.1656
3228.000000 0.1654 0.1651 0.1649 0.1646 0.1644
3233.000000 0.1642 0.1640 0.1636 0.1634 0.1632
3238.000000 0.1629 0.1627 0.1625 0.1623 0.1621
3243.000000 0.1620 0.1619 0.1617 0.1616 0.1614
3248.000000 0.1613 0.1611 0.1610 0.1609 0.1608
3253.000000 0.1606 0.1604 0.1603 0.1602 0.1600
3258.000000 0.1599 0.1598 0.1596 0.1595 0.1594
3263.000000 0.1592 0.1591 0.1589 0.1588 0.1587
3268.000000 0.1586 0.1584 0.1583 0.1581 0.1580
3273.000000 0.1578 0.1577 0.1576 0.1575 0.1573
3278.000000 0.1572 0.1570 0.1569 0.1567 0.1566
3283.000000 0.1564 0.1563 0.1562 0.1561 0.1560
3288.000000 0.1559 0.1558 0.1558 0.1557 0.1557
3293.000000 0.1556 0.1555 0.1554 0.1554 0.1553
3298.000000 0.1553 0.1552 0.1552 0.1551 0.1551
3303.000000 0.1550 0.1550 0.1549 0.1549 0.1548
3308.000000 0.1548 0.1546 0.1546 0.1546 0.1546
3313.000000 0.1545 0.1545 0.1544 0.1542 0.1542
3318.000000 0.1542 0.1541 0.1541 0.1541 0.1541
3323.000000 0.1541 0.1542 0.1542 0.1542 0.1542
3328.000000 0.1544 0.1544 0.1545 0.1545 0.1546
3333.000000 0.1546 0.1546 0.1546 0.1548 0.1548
3338.000000 0.1549 0.1549 0.1550 0.1550 0.1551
3343.000000 0.1551 0.1552 0.1552 0.1553 0.1553
3348.000000 0.1554 0.1554 0.1555 0.1555 0.1556
3353.000000 0.1556 0.1557 0.1558 0.1559 0.1560
3358.000000 0.1562 0.1563 0.1564 0.1565 0.1567
3363.000000 0.1568 0.1570 0.1571 0.1572 0.1573
3368.000000 0.1575 0.1576 0.1578 0.1579 0.1581
3373.000000 0.1582 0.1583 0.1585 0.1587 0.1588
3378.000000 0.1590 0.1592 0.1594 0.1595 0.1596
3383.000000 0.1599 0.1601 0.1602 0.1604 0.1606
3388.000000 0.1608 0.1609 0.1611 0.1613 0.1615
3393.000000 0.1617 0.1620 0.1623 0.1626 0.1628
3398.000000 0.1631 0.1634 0.1636 0.1639 0.1642
3403.000000 0.1645 0.1651 0.1654 0.1660 0.1664
3408.000000 0.1668 0.1672 0.1677 0.1681 0.1684
3413.000000 0.1689 0.1694 0.1698 0.1702 0.1706
3418.000000 0.1711 0.1715 0.1719 0.1723 0.1728
3423.000000 0.1734 0.1740 0.1746 0.1754 0.1760
3428.000000 0.1767 0.1773 0.1779 0.1786 0.1794
3433.000000 0.1801 0.1808 0.1815 0.1823 0.1829
3438.000000 0.1837 0.1845 0.1854 0.1861 0.1869
3443.000000 0.1876 0.1884 0.1893 0.1903 0.1912
3448.000000 0.1922 0.1931 0.1941 0.1950 0.1960
3453.000000 0.1969 0.1979 0.1989 0.1999 0.2008
3458.000000 0.2018 0.2028 0.2037 0.2049 0.2060
3463.000000 0.2071 0.2083 0.2094 0.2105 0.2116
3468.000000 0.2128 0.2139 0.2150 0.2161 0.2173
3473.000000 0.2184 0.2195 0.2206 0.2217 0.2228
3478.000000 0.2239 0.2255 0.2271 0.2290 0.2309
3483.000000 0.2327 0.2346 0.2364 0.2383 0.2399
3488.000000 0.2415 0.2431 0.2448 0.2464 0.2481
3493.000000 0.2497 0.2513 0.2529 0.2546 0.2562
3498.000000 0.2579 0.2595 0.2611 0.2626 0.2642
3503.000000 0.2657 0.2672 0.2687 0.2703 0.2718
3508.000000 0.2734 0.2749 0.2765 0.2780 0.2796
3513.000000 0.2811 0.2827 0.2846 0.2865 0.2888
3518.000000 0.2912 0.2935 0.2960 0.2983 0.3007
3523.000000 0.3030 0.3054 0.3077 0.3101 0.3125
3528.000000 0.3150 0.3174 0.3199 0.3223 0.3248
3533.000000 0.3273 0.3298 0.3322 0.3347 0.3368
3538.000000 0.3390 0.3410 0.3432 0.3454 0.3475
3543.000000 0.3496 0.3518 0.3539 0.3560 0.3582
3548.000000 0.3603 0.3627 0.3650 0.3675 0.3700
3553.000000 0.3724 0.3748 0.3772 0.3797 0.3820
3558.000000 0.3844 0.3866 0.3888 0.3909 0.3932
3563.000000 0.3955 0.3977 0.3999 0.4022 0.4044
3568.000000 0.4066 0.4097 0.4129 0.4159 0.4189
3573.000000 0.4210 0.4233 0.4252 0.4271 0.4281
3578.000000 0.4292 0.4302 0.4312 0.4325 0.4337
3583.000000 0.4350 0.4362 0.4376 0.4389 0.4403
3588.000000 0.4418 0.4432 0.4447 0.4460 0.4476
3593.000000 0.4490 0.4505 0.4520 0.4535 0.4553
3598.000000 0.4572 0.4590 0.4608 0.4626 0.4645
3603.000000 0.4669 0.4694 0.4720 0.4747 0.4773
3608.000000 0.4799 0.4823 0.4847 0.4864 0.4882
3613.000000 0.4899 0.4917 0.4934 0.4952 0.4969
3618.000000 0.4987 0.5004 0.5022 0.5040 0.5058
3623.000000 0.5075 0.5093 0.5110 0.5128 0.5145
3628.000000 0.5162 0.5181 0.5199 0.5217 0.5236
3633.000000 0.5254 0.5273 0.5291 0.5310 0.5328
3638.000000 0.5347 0.5365 0.5384 0.5402 0.5421
3643.000000 0.5441 0.5460 0.5481 0.5502 0.5522
3648.000000 0.5543 0.5562 0.5584 0.5604 0.5625
3653.000000 0.5642 0.5660 0.5673 0.5686 0.5699
3658.000000 0.5712 0.5725 0.5738 0.5749 0.5760
3663.000000 0.5768 0.5776 0.5784 0.5792 0.5798
3668.000000 0.5805 0.5807 0.5801 0.5810 0.5810
3673.000000 0.5809 0.5806 0.5803 0.5800 0.5793
3678.000000 0.5787 0.5779 0.5772 0.5764 0.5757
3683.000000 0.5749 0.5741 0.5732 0.5724 0.5715
3688.000000 0.5707 0.5698 0.5689 0.5681 0.5673
3693.000000 0.5664 0.5656 0.5647 0.5639 0.5630
3698.000000 0.5622 0.5612 0.5605 0.5598 0.5591
3703.000000 0.5584 0.5577 0.5569 0.5562 0.5555
3708.000000 0.5548 0.5540 0.5533 0.5526 0.5519
3713.000000 0.5510 0.5504 0.5497 0.5490 0.5482
3718.000000 0.5474 0.5466 0.5459 0.5451 0.5444
3723.000000 0.5436 0.5429 0.5421 0.5414 0.5406
3728.000000 0.5398 0.5390 0.5383 0.5375 0.5368
3733.000000 0.5360 0.5353 0.5345 0.5337 0.5329
3738.000000 0.5322 0.5314 0.5306 0.5297 0.5289
3743.000000 0.5281 0.5273 0.5264 0.5256 0.5247
3748.000000 0.5239 0.5230 0.5222 0.5212 0.5205
3753.000000 0.5196 0.5188 0.5179 0.5171 0.5162
3758.000000 0.5154 0.5145 0.5137 0.5129 0.5121
3763.000000 0.5114 0.5107 0.5100 0.5093 0.5085
3768.000000 0.5078 0.5071 0.5064 0.5057 0.5050
3773.000000 0.5043 0.5036 0.5029 0.5022 0.5015
3778.000000 0.5008 0.5001 0.4994 0.4987 0.4980
3783.000000 0.4973 0.4966 0.4960 0.4955 0.4950
3788.000000 0.4945 0.4940 0.4935 0.4930 0.4925
3793.000000 0.4920 0.4915 0.4910 0.4905 0.4900
3798.000000 0.4896 0.4891 0.4886 0.4881 0.4876
3803.000000 0.4871 0.4866 0.4860 0.4856 0.4851
3808.000000 0.4846 0.4841 0.4837 0.4832 0.4827
3813.000000 0.4822 0.4817 0.4816 0.4816
##END=
