##TITLE=PYRIMIDINE, 2,5-BIS(TRIFLUOROACETAMIDO)-4,6-BIS(METHYLTHIO)-
##JCAMP-DX=4.24
##DATA TYPE=INFRARED SPECTRUM
##CLASS=COBLENTZ III
##ORIGIN=SOUTHERN RESEARCH INSTITUTE
##OWNER=COBLENTZ SOCIETY
Collection (C) 2018 copyright by the U.S. Secretary of Commerce
on behalf of the United States of America. All rights reserved.
##DATE=1963/08/16
##NAMES=N-(4,6-bis(methylsulfanyl)-2-[(trifluoroacetyl)amino]-5-pyrimidinyl)-2,2,2-trifluoroacetamide
##MOLFORM=C10 H8 F6 N4 O2 S2
##SOURCE REFERENCE=COBLENTZ NO. 8431
##$NIST ID=B6008431
##$NIST SOURCE=COBLENTZ
##$NIST IMAGE=cob8431
##SPECTROMETER/DATA SYSTEM=PERKIN-ELMER 221 (GRATING)
##INSTRUMENT PARAMETERS=FILTER CHANGE AT 980, 2490 CM^-^1, GRATING FOR 4000-1428 CM^-^1, NaCl PRISM FOR 1428-650 CM^-^1
##STATE=SOLID (0.7 mg / 500 mg KBr DISC)
##SAMPLING PROCEDURE=TRANSMISSION
##RESOLUTION=4
##DATA PROCESSING=DIGITIZED BY NIST FROM HARD COPY
##XUNITS=1/CM
##YUNITS=TRANSMITTANCE
##XFACTOR=1.000000
##YFACTOR=1
##DELTAX=001.806020
##FIRSTX=618.729
##LASTX=4008.63
##FIRSTY=0.775
##MAXX=4008.63
##MINX=618.729
##MAXY=0.938
##MINY=0.065
##NPOINTS=1878
##XYDATA=(X++(Y..Y))
618.729000 0.7750 0.7750 0.7750 0.7740 0.7740
627.763913 0.7740 0.7730 0.7710 0.7710 0.7710
636.789000 0.7690 0.7660 0.7620 0.7560 0.7480
645.823913 0.7370 0.7270 0.7200 0.7160 0.7100
654.849000 0.7080 0.7080 0.7090 0.7110 0.7280
663.883913 0.7440 0.7600 0.7760 0.7890 0.7900
672.910000 0.7900 0.7880 0.7860 0.7830 0.7780
681.944913 0.7660 0.7350 0.7080 0.6840 0.6630
690.970000 0.6440 0.6250 0.6060 0.5920 0.5770
700.004913 0.5750 0.5760 0.6010 0.6110 0.6280
709.030000 0.6460 0.6800 0.6810 0.6950 0.7100
718.064913 0.7640 0.7650 0.6740 0.5800 0.5200
727.090000 0.4610 0.4020 0.3420 0.3420 0.4610
736.124913 0.5780 0.7130 0.7320 0.7880 0.8440
745.151000 0.8420 0.7920 0.7410 0.7410 0.8150
754.185913 0.8500 0.8600 0.8700 0.8890 0.8890
763.211000 0.8780 0.8680 0.8500 0.8330 0.8090
772.245913 0.7840 0.6700 0.6340 0.6140 0.5640
781.271000 0.5640 0.6710 0.7250 0.8890 0.8900
790.305913 0.8900 0.8880 0.8860 0.8850 0.8810
799.331000 0.8770 0.8750 0.8700 0.8600 0.8580
808.365913 0.8520 0.8120 0.7680 0.7320 0.6150
817.391000 0.5170 0.4290 0.3170 0.3170 0.6340
826.425913 0.6350 0.6090 0.5940 0.5940 0.6540
835.451000 0.6880 0.7380 0.7660 0.8000 0.8740
844.485913 0.9060 0.9310 0.9340 0.9360 0.9370
853.512000 0.9370 0.9380 0.9380 0.9380 0.9380
862.546913 0.9380 0.9380 0.9380 0.9380 0.9380
871.572000 0.9380 0.9380 0.9380 0.9380 0.9380
880.606913 0.9380 0.9370 0.9350 0.9340 0.9320
889.632000 0.9310 0.9290 0.9280 0.9260 0.9230
898.666913 0.9210 0.9190 0.9160 0.8950 0.8770
907.692000 0.8710 0.8590 0.8500 0.8500 0.7700
916.726913 0.7410 0.6520 0.5870 0.5870 0.6310
925.753000 0.7940 0.8230 0.8520 0.8960 0.9120
934.787913 0.9120 0.9120 0.9120 0.9100 0.8990
943.813000 0.8920 0.8850 0.8770 0.8600 0.8590
952.847913 0.8590 0.8600 0.8680 0.8720 0.8840
961.873000 0.8940 0.9020 0.9030 0.9050 0.9070
970.907913 0.9090 0.9090 0.9110 0.9120 0.9130
979.933000 0.9130 0.9130 0.9140 0.9140 0.9130
988.967913 0.9120 0.9120 0.9120 0.9120 0.9120
997.993000 0.9120 0.9120 0.9110 0.9110 0.9110
1007.027913 0.9110 0.9110 0.9100 0.9100 0.9090
1016.054000 0.9090 0.9080 0.9080 0.9080 0.9070
1025.088913 0.9070 0.9060 0.9040 0.9030 0.9030
1034.114000 0.9010 0.8970 0.8960 0.8940 0.8920
1043.148913 0.8900 0.8880 0.8860 0.8850 0.8850
1052.174000 0.8840 0.8830 0.8810 0.8800 0.8770
1061.208913 0.8750 0.8730 0.8720 0.8710 0.8680
1070.234000 0.8680 0.8630 0.8580 0.8560 0.8530
1079.268913 0.8500 0.8470 0.8430 0.8410 0.8370
1088.294000 0.8330 0.8310 0.8280 0.8250 0.8130
1097.328913 0.8030 0.7960 0.7890 0.7850 0.7800
1106.354000 0.7760 0.7700 0.7630 0.7520 0.7390
1115.388913 0.7160 0.6830 0.6420 0.5940 0.5380
1124.415000 0.4770 0.4110 0.3400 0.3380 0.3380
1133.449913 0.3640 0.3620 0.3070 0.2780 0.2490
1142.475000 0.2370 0.2300 0.2250 0.1230 0.1220
1151.509913 0.1210 0.1210 0.1220 0.1240 0.1280
1160.535000 0.1310 0.1350 0.1390 0.1420 0.1460
1169.569913 0.1580 0.1760 0.1900 0.1920 0.2170
1178.595000 0.2430 0.2690 0.2950 0.3450 0.3470
1187.629913 0.3450 0.3380 0.3260 0.3180 0.2950
1196.656000 0.2610 0.2240 0.1920 0.1710 0.1290
1205.690913 0.1290 0.1600 0.2060 0.2480 0.3000
1214.716000 0.3500 0.3890 0.4250 0.4630 0.4600
1223.750913 0.4360 0.4130 0.3920 0.3700 0.3490
1232.776000 0.3490 0.3960 0.4430 0.4890 0.5350
1241.810913 0.5790 0.6240 0.6690 0.7060 0.7490
1250.836000 0.7600 0.7700 0.7710 0.7710 0.7710
1259.870913 0.7710 0.7710 0.7710 0.7690 0.7640
1268.896000 0.7590 0.7550 0.7510 0.7480 0.7100
1277.930913 0.7010 0.6390 0.5690 0.5180 0.5040
1286.957000 0.5040 0.5260 0.5840 0.6180 0.6340
1295.991913 0.6500 0.6650 0.6730 0.6880 0.6900
1305.017000 0.6900 0.6890 0.6830 0.6610 0.6500
1314.051913 0.6390 0.6320 0.6240 0.6160 0.6080
1323.077000 0.5940 0.5920 0.5920 0.5940 0.5960
1332.111913 0.5960 0.5810 0.5610 0.5410 0.5170
1341.137000 0.4940 0.4510 0.3640 0.3640 0.4090
1350.171913 0.4620 0.4830 0.5220 0.5520 0.5690
1359.197000 0.5670 0.5620 0.5440 0.5380 0.5290
1368.231913 0.5180 0.4680 0.4090 0.3710 0.3320
1377.258000 0.2920 0.2520 0.2120 0.1920 0.1710
1386.292913 0.1710 0.1840 0.2040 0.2350 0.2700
1395.318000 0.3070 0.3500 0.3940 0.4420 0.4910
1404.352913 0.5420 0.5930 0.6100 0.6270 0.6470
1413.378000 0.6680 0.6930 0.7220 0.7240 0.7260
1422.412913 0.7280 0.7320 0.7360 0.7400 0.7430
1431.438000 0.7440 0.7450 0.7510 0.7610 0.7630
1440.472913 0.7860 0.8090 0.8150 0.8210 0.8210
1449.498000 0.8210 0.8200 0.8200 0.8180 0.8160
1458.532913 0.8130 0.8080 0.8050 0.8020 0.7980
1467.558000 0.7950 0.7890 0.7840 0.7800 0.7770
1476.592913 0.7730 0.7700 0.7680 0.7440 0.7170
1485.619000 0.6890 0.6600 0.6300 0.5990 0.5680
1494.653913 0.5360 0.5050 0.4730 0.4430 0.4120
1503.679000 0.3840 0.3560 0.3290 0.3050 0.2810
1512.713913 0.2610 0.2420 0.2240 0.2230 0.2240
1521.739000 0.2280 0.2360 0.2460 0.2590 0.2710
1530.773913 0.2800 0.2850 0.2990 0.3070 0.3630
1539.799000 0.4090 0.4470 0.4800 0.5070 0.5290
1548.833913 0.5480 0.5740 0.5880 0.6180 0.6200
1557.859000 0.6190 0.6180 0.6140 0.5860 0.5600
1566.893913 0.5320 0.4640 0.4120 0.3590 0.3270
1575.920000 0.2970 0.2160 0.2150 0.2160 0.2460
1584.954913 0.2680 0.3250 0.3820 0.4380 0.4920
1593.980000 0.5350 0.5780 0.6390 0.7090 0.7140
1603.014913 0.7280 0.7500 0.7680 0.7820 0.7940
1612.040000 0.8030 0.8090 0.8140 0.8160 0.8160
1621.074913 0.8230 0.8270 0.8320 0.8360 0.8400
1630.100000 0.8420 0.8450 0.8480 0.8500 0.8530
1639.134913 0.8550 0.8580 0.8590 0.8620 0.8650
1648.161000 0.8660 0.8680 0.8690 0.8700 0.8700
1657.195913 0.8710 0.8710 0.8710 0.8710 0.8710
1666.221000 0.8710 0.8710 0.8710 0.8710 0.8710
1675.255913 0.8700 0.8700 0.8700 0.8690 0.8680
1684.281000 0.8680 0.8640 0.8540 0.8430 0.8330
1693.315913 0.8240 0.8140 0.8040 0.7930 0.7820
1702.341000 0.7710 0.7580 0.7450 0.7300 0.7140
1711.375913 0.6960 0.6770 0.6570 0.6330 0.6090
1720.401000 0.5810 0.5520 0.5190 0.5140 0.2710
1729.435913 0.2010 0.1330 0.0660 0.0650 0.0660
1738.462000 0.1100 0.1550 0.2010 0.2440 0.2720
1747.496913 0.3080 0.3760 0.3780 0.3790 0.3790
1756.522000 0.3790 0.3800 0.3900 0.4310 0.4770
1765.556913 0.5340 0.5890 0.6320 0.6700 0.7020
1774.582000 0.7310 0.7550 0.7760 0.7930 0.8070
1783.616913 0.8190 0.8290 0.8360 0.8420 0.8460
1792.642000 0.8490 0.8520 0.8540 0.8570 0.8590
1801.676913 0.8630 0.8680 0.8740 0.8770 0.8790
1810.702000 0.8810 0.8820 0.8840 0.8850 0.8850
1819.736913 0.8850 0.8860 0.8870 0.8880 0.8890
1828.763000 0.8900 0.8900 0.8910 0.8920 0.8930
1837.797913 0.8940 0.8940 0.8950 0.8950 0.8960
1846.823000 0.8960 0.8970 0.8980 0.8990 0.9020
1855.857913 0.9030 0.9030 0.9030 0.9030 0.9030
1864.883000 0.9030 0.9030 0.9030 0.9030 0.9040
1873.917913 0.9050 0.9050 0.9050 0.9050 0.9050
1882.943000 0.9050 0.9050 0.9050 0.9050 0.9050
1891.977913 0.9050 0.9050 0.9050 0.9050 0.9050
1901.003000 0.9050 0.9050 0.9050 0.9050 0.9050
1910.037913 0.9050 0.9050 0.9050 0.9050 0.9050
1919.063000 0.9050 0.9050 0.9050 0.9050 0.9050
1928.097913 0.9050 0.9050 0.9050 0.9050 0.9050
1937.124000 0.9050 0.9050 0.9050 0.9050 0.9050
1946.158913 0.9040 0.9040 0.9040 0.9040 0.9040
1955.184000 0.9040 0.9040 0.9040 0.9040 0.9050
1964.218913 0.9050 0.9050 0.9050 0.9050 0.9050
1973.244000 0.9050 0.9050 0.9050 0.9050 0.9050
1982.278913 0.9050 0.9050 0.9050 0.9050 0.9050
1991.304000 0.9050 0.9050 0.9050 0.9050 0.9050
2000.338913 0.9050 0.9050 0.9050 0.9050 0.9050
2009.365000 0.9050 0.9050 0.9050 0.9050 0.9050
2018.399913 0.9050 0.9050 0.9050 0.9050 0.9050
2027.425000 0.9050 0.9050 0.9050 0.9050 0.9050
2036.459913 0.9050 0.9050 0.9050 0.9050 0.9050
2045.485000 0.9050 0.9050 0.9050 0.9040 0.9040
2054.519913 0.9040 0.9040 0.9050 0.9050 0.9050
2063.545000 0.9050 0.9050 0.9050 0.9050 0.9050
2072.579913 0.9050 0.9050 0.9050 0.9050 0.9050
2081.605000 0.9050 0.9050 0.9050 0.9050 0.9050
2090.639913 0.9050 0.9050 0.9050 0.9050 0.9050
2099.666000 0.9050 0.9050 0.9050 0.9050 0.9050
2108.700913 0.9050 0.9050 0.9050 0.9050 0.9050
2117.726000 0.9050 0.9050 0.9050 0.9050 0.9050
2126.760913 0.9050 0.9050 0.9050 0.9050 0.9050
2135.786000 0.9050 0.9050 0.9060 0.9060 0.9060
2144.820913 0.9060 0.9060 0.9060 0.9060 0.9060
2153.846000 0.9060 0.9060 0.9060 0.9060 0.9060
2162.880913 0.9060 0.9060 0.9060 0.9060 0.9060
2171.906000 0.9060 0.9060 0.9060 0.9060 0.9060
2180.940913 0.9060 0.9060 0.9060 0.9060 0.9060
2189.967000 0.9060 0.9060 0.9060 0.9060 0.9060
2199.001913 0.9060 0.9060 0.9060 0.9060 0.9060
2208.027000 0.9060 0.9060 0.9050 0.9050 0.9050
2217.061913 0.9050 0.9050 0.9050 0.9050 0.9050
2226.087000 0.9040 0.9040 0.9040 0.9040 0.9040
2235.121913 0.9040 0.9030 0.9030 0.9030 0.9030
2244.147000 0.9030 0.9030 0.9030 0.9030 0.9030
2253.181913 0.9030 0.9020 0.9020 0.9020 0.9020
2262.207000 0.9020 0.9010 0.9010 0.9010 0.9010
2271.241913 0.9010 0.9000 0.9000 0.9000 0.9000
2280.268000 0.9000 0.8990 0.8990 0.8990 0.8980
2289.302913 0.8980 0.8980 0.8980 0.8980 0.8980
2298.328000 0.8970 0.8970 0.8970 0.8970 0.8970
2307.362913 0.8970 0.8960 0.8960 0.8960 0.8960
2316.388000 0.8950 0.8950 0.8950 0.8950 0.8950
2325.422913 0.8950 0.8950 0.8950 0.8950 0.8950
2334.448000 0.8950 0.8940 0.8940 0.8940 0.8940
2343.482913 0.8940 0.8940 0.8940 0.8940 0.8940
2352.508000 0.8950 0.8950 0.8950 0.8950 0.8950
2361.542913 0.8950 0.8960 0.8960 0.8960 0.8960
2370.569000 0.8960 0.8960 0.8970 0.8970 0.8970
2379.603913 0.8970 0.8970 0.8970 0.8970 0.8970
2388.629000 0.8970 0.8970 0.8970 0.8970 0.8970
2397.663913 0.8970 0.8960 0.8960 0.8960 0.8960
2406.689000 0.8950 0.8950 0.8950 0.8940 0.8940
2415.723913 0.8940 0.8940 0.8940 0.8940 0.8940
2424.749000 0.8940 0.8940 0.8940 0.8930 0.8930
2433.783913 0.8930 0.8930 0.8930 0.8930 0.8930
2442.809000 0.8940 0.8940 0.8940 0.8940 0.8940
2451.843913 0.8940 0.8940 0.8940 0.8940 0.8940
2460.870000 0.8940 0.8940 0.8940 0.8940 0.8940
2469.904913 0.8940 0.8940 0.8940 0.8940 0.8940
2478.930000 0.8940 0.8940 0.8940 0.8940 0.8950
2487.964913 0.8950 0.8950 0.8950 0.8950 0.8950
2496.990000 0.8950 0.8950 0.8950 0.8950 0.8950
2506.024913 0.8950 0.8950 0.8960 0.8960 0.8960
2515.050000 0.8960 0.8960 0.8960 0.8960 0.8960
2524.084913 0.8960 0.8960 0.8960 0.8960 0.8960
2533.110000 0.8960 0.8960 0.8960 0.8960 0.8960
2542.144913 0.8960 0.8960 0.8960 0.8960 0.8960
2551.170000 0.8960 0.8960 0.8960 0.8960 0.8950
2560.204913 0.8950 0.8950 0.8950 0.8940 0.8940
2569.231000 0.8940 0.8940 0.8940 0.8940 0.8940
2578.265913 0.8940 0.8940 0.8930 0.8930 0.8930
2587.291000 0.8930 0.8920 0.8920 0.8920 0.8920
2596.325913 0.8910 0.8910 0.8910 0.8900 0.8900
2605.351000 0.8890 0.8890 0.8890 0.8880 0.8880
2614.385913 0.8880 0.8870 0.8870 0.8870 0.8870
2623.411000 0.8860 0.8860 0.8860 0.8850 0.8850
2632.445913 0.8850 0.8850 0.8850 0.8850 0.8850
2641.471000 0.8840 0.8840 0.8840 0.8840 0.8840
2650.505913 0.8840 0.8840 0.8840 0.8840 0.8840
2659.532000 0.8840 0.8840 0.8840 0.8840 0.8840
2668.566913 0.8840 0.8840 0.8840 0.8840 0.8840
2677.592000 0.8840 0.8840 0.8840 0.8840 0.8840
2686.626913 0.8840 0.8840 0.8840 0.8840 0.8840
2695.652000 0.8840 0.8840 0.8840 0.8840 0.8840
2704.686913 0.8840 0.8840 0.8840 0.8840 0.8840
2713.712000 0.8830 0.8830 0.8830 0.8830 0.8830
2722.746913 0.8830 0.8830 0.8830 0.8830 0.8830
2731.772000 0.8830 0.8830 0.8830 0.8820 0.8820
2740.806913 0.8820 0.8820 0.8820 0.8820 0.8820
2749.833000 0.8820 0.8820 0.8820 0.8820 0.8820
2758.867913 0.8820 0.8820 0.8820 0.8820 0.8820
2767.893000 0.8820 0.8820 0.8810 0.8810 0.8810
2776.927913 0.8810 0.8810 0.8810 0.8810 0.8810
2785.953000 0.8800 0.8780 0.8780 0.8770 0.8770
2794.987913 0.8760 0.8750 0.8740 0.8730 0.8720
2804.013000 0.8710 0.8700 0.8690 0.8680 0.8680
2813.047913 0.8680 0.8670 0.8670 0.8650 0.8640
2822.073000 0.8610 0.8590 0.8570 0.8550 0.8540
2831.107913 0.8520 0.8510 0.8500 0.8500 0.8480
2840.134000 0.8460 0.8450 0.8440 0.8430 0.8420
2849.168913 0.8420 0.8420 0.8420 0.8430 0.8430
2858.194000 0.8440 0.8440 0.8440 0.8440 0.8450
2867.228913 0.8450 0.8460 0.8460 0.8470 0.8470
2876.254000 0.8480 0.8480 0.8480 0.8490 0.8490
2885.288913 0.8490 0.8490 0.8490 0.8490 0.8490
2894.314000 0.8490 0.8490 0.8480 0.8480 0.8470
2903.348913 0.8470 0.8460 0.8450 0.8440 0.8430
2912.375000 0.8420 0.8420 0.8410 0.8400 0.8390
2921.409913 0.8370 0.8330 0.8280 0.8230 0.8210
2930.435000 0.8180 0.8160 0.8140 0.8120 0.8110
2939.469913 0.8100 0.8090 0.8100 0.8150 0.8190
2948.495000 0.8280 0.8410 0.8470 0.8500 0.8500
2957.529913 0.8510 0.8510 0.8530 0.8530 0.8530
2966.555000 0.8530 0.8520 0.8520 0.8510 0.8500
2975.589913 0.8500 0.8480 0.8450 0.8420 0.8390
2984.615000 0.8380 0.8370 0.8370 0.8370 0.8360
2993.649913 0.8330 0.8300 0.8250 0.8200 0.8140
3002.676000 0.8070 0.7990 0.7920 0.7830 0.7820
3011.710913 0.7800 0.7760 0.7710 0.7640 0.7620
3020.736000 0.7600 0.7590 0.7580 0.7580 0.7580
3029.770913 0.7590 0.7600 0.7620 0.7640 0.7670
3038.796000 0.7690 0.7700 0.7710 0.7730 0.7740
3047.830913 0.7760 0.7780 0.7790 0.7800 0.7800
3056.856000 0.7800 0.7800 0.7800 0.7800 0.7800
3065.890913 0.7800 0.7800 0.7800 0.7800 0.7800
3074.916000 0.7800 0.7800 0.7800 0.7800 0.7800
3083.950913 0.7800 0.7800 0.7800 0.7800 0.7790
3092.977000 0.7790 0.7780 0.7770 0.7770 0.7750
3102.011913 0.7730 0.7720 0.7710 0.7690 0.7690
3111.037000 0.7680 0.7670 0.7660 0.7630 0.7610
3120.071913 0.7570 0.7540 0.7520 0.7480 0.7450
3129.097000 0.7410 0.7370 0.7330 0.7290 0.7250
3138.131913 0.7200 0.7150 0.7100 0.7020 0.6980
3147.157000 0.6950 0.6940 0.6940 0.6960 0.6970
3156.191913 0.6990 0.7010 0.7020 0.7030 0.7040
3165.217000 0.7040 0.7040 0.7040 0.7040 0.7030
3174.251913 0.7010 0.6960 0.6910 0.6840 0.6770
3183.278000 0.6700 0.6640 0.6570 0.6500 0.6450
3192.312913 0.6400 0.6370 0.6280 0.6140 0.5990
3201.338000 0.5850 0.5700 0.5560 0.5420 0.5390
3210.372913 0.5320 0.5000 0.4720 0.4470 0.4270
3219.398000 0.4060 0.3850 0.3610 0.3410 0.3390
3228.432913 0.3390 0.3380 0.3380 0.3380 0.3380
3237.458000 0.3380 0.3390 0.3400 0.3420 0.3530
3246.492913 0.3760 0.3930 0.4040 0.4120 0.4140
3255.518000 0.4250 0.4340 0.4410 0.4480 0.4540
3264.552913 0.4590 0.4640 0.4710 0.4760 0.4770
3273.579000 0.4780 0.4780 0.4780 0.4790 0.4790
3282.613913 0.4800 0.4810 0.4820 0.4820 0.4830
3291.639000 0.4900 0.4990 0.5090 0.5170 0.5300
3300.673913 0.5430 0.5540 0.5660 0.5770 0.5880
3309.699000 0.5980 0.6090 0.6190 0.6290 0.6380
3318.733913 0.6470 0.6550 0.6640 0.6710 0.6790
3327.759000 0.6860 0.6930 0.7000 0.7060 0.7120
3336.793913 0.7180 0.7230 0.7280 0.7320 0.7360
3345.819000 0.7400 0.7440 0.7470 0.7500 0.7520
3354.853913 0.7540 0.7560 0.7570 0.7580 0.7580
3363.880000 0.7590 0.7590 0.7600 0.7600 0.7610
3372.914913 0.7610 0.7620 0.7620 0.7620 0.7620
3381.940000 0.7620 0.7620 0.7620 0.7620 0.7620
3390.974913 0.7620 0.7620 0.7620 0.7620 0.7620
3400.000000 0.7610 0.7610 0.7610 0.7610 0.7610
3409.034913 0.7610 0.7610 0.7610 0.7610 0.7610
3418.060000 0.7610 0.7610 0.7610 0.7610 0.7610
3427.094913 0.7610 0.7610 0.7610 0.7610 0.7610
3436.120000 0.7610 0.7610 0.7610 0.7610 0.7610
3445.154913 0.7620 0.7620 0.7620 0.7630 0.7630
3454.180000 0.7630 0.7630 0.7640 0.7650 0.7680
3463.214913 0.7700 0.7710 0.7710 0.7710 0.7710
3472.241000 0.7720 0.7730 0.7730 0.7740 0.7740
3481.275913 0.7750 0.7750 0.7760 0.7760 0.7770
3490.301000 0.7770 0.7780 0.7780 0.7790 0.7790
3499.335913 0.7800 0.7800 0.7800 0.7810 0.7830
3508.361000 0.7850 0.7860 0.7880 0.7890 0.7890
3517.395913 0.7890 0.7910 0.7920 0.7930 0.7950
3526.421000 0.7960 0.7970 0.7980 0.7990 0.8000
3535.455913 0.8020 0.8030 0.8050 0.8060 0.8070
3544.481000 0.8070 0.8080 0.8090 0.8100 0.8110
3553.515913 0.8120 0.8130 0.8130 0.8140 0.8140
3562.542000 0.8140 0.8150 0.8150 0.8150 0.8150
3571.576913 0.8150 0.8160 0.8170 0.8200 0.8220
3580.602000 0.8240 0.8250 0.8270 0.8290 0.8300
3589.636913 0.8310 0.8320 0.8330 0.8330 0.8330
3598.662000 0.8330 0.8340 0.8340 0.8350 0.8350
3607.696913 0.8360 0.8370 0.8370 0.8370 0.8380
3616.722000 0.8380 0.8390 0.8390 0.8390 0.8400
3625.756913 0.8400 0.8410 0.8410 0.8420 0.8420
3634.782000 0.8420 0.8420 0.8420 0.8420 0.8420
3643.816913 0.8420 0.8420 0.8420 0.8420 0.8420
3652.843000 0.8420 0.8430 0.8430 0.8430 0.8430
3661.877913 0.8430 0.8430 0.8430 0.8420 0.8430
3670.903000 0.8430 0.8430 0.8430 0.8430 0.8430
3679.937913 0.8430 0.8430 0.8430 0.8430 0.8430
3688.963000 0.8430 0.8430 0.8430 0.8430 0.8430
3697.997913 0.8440 0.8440 0.8440 0.8440 0.8440
3707.023000 0.8440 0.8440 0.8440 0.8440 0.8440
3716.057913 0.8440 0.8440 0.8440 0.8440 0.8440
3725.083000 0.8440 0.8440 0.8440 0.8440 0.8440
3734.117913 0.8440 0.8440 0.8440 0.8440 0.8440
3743.144000 0.8440 0.8440 0.8440 0.8440 0.8440
3752.178913 0.8440 0.8440 0.8440 0.8440 0.8440
3761.204000 0.8440 0.8440 0.8440 0.8440 0.8440
3770.238913 0.8440 0.8440 0.8440 0.8440 0.8440
3779.264000 0.8440 0.8440 0.8440 0.8440 0.8440
3788.298913 0.8430 0.8430 0.8430 0.8430 0.8430
3797.324000 0.8430 0.8430 0.8420 0.8420 0.8420
3806.358913 0.8420 0.8420 0.8420 0.8420 0.8420
3815.385000 0.8420 0.8420 0.8420 0.8420 0.8420
3824.419913 0.8420 0.8420 0.8420 0.8420 0.8420
3833.445000 0.8420 0.8420 0.8420 0.8420 0.8420
3842.479913 0.8410 0.8410 0.8410 0.8410 0.8410
3851.505000 0.8410 0.8410 0.8410 0.8410 0.8410
3860.539913 0.8410 0.8410 0.8410 0.8410 0.8410
3869.565000 0.8410 0.8410 0.8410 0.8410 0.8410
3878.599913 0.8410 0.8410 0.8410 0.8410 0.8410
3887.625000 0.8410 0.8400 0.8400 0.8400 0.8400
3896.659913 0.8400 0.8400 0.8400 0.8400 0.8400
3905.686000 0.8400 0.8400 0.8400 0.8390 0.8390
3914.720913 0.8390 0.8390 0.8390 0.8390 0.8390
3923.746000 0.8390 0.8390 0.8390 0.8390 0.8390
3932.780913 0.8390 0.8390 0.8390 0.8390 0.8390
3941.806000 0.8390 0.8390 0.8390 0.8390 0.8380
3950.840913 0.8380 0.8380 0.8370 0.8370 0.8370
3959.866000 0.8370 0.8360 0.8360 0.8360 0.8350
3968.900913 0.8350 0.8340 0.8340 0.8340 0.8340
3977.926000 0.8340 0.8340 0.8340 0.8340 0.8340
3986.960913 0.8340 0.8340 0.8340 0.8340 0.8340
3995.987000 0.8340 0.8340 0.8340 0.8340 0.8340
4005.021913 0.8340 0.8340 0.8340
##END=
