##TITLE=CALCIUM TUNGSTATE
##JCAMP-DX=4.24
##DATA TYPE=INFRARED SPECTRUM
##CLASS=COBLENTZ
##ORIGIN=MELLON INSTITUTE
##OWNER=COBLENTZ SOCIETY
Collection (C) 2018 copyright by the U.S. Secretary of Commerce
on behalf of the United States of America. All rights reserved.
##DATE=Not specified, most likely prior to 1970
##MOLFORM=Ca W O4
##SOURCE REFERENCE=COBLENTZ NO. 483
##$NIST ID=B6000483
##$NIST SOURCE=COBLENTZ
##$NIST IMAGE=cob483
##SPECTROMETER/DATA SYSTEM=Not specified, most likely a prism, grating, or hybrid spectrometer.
##STATE=SOLID (NUJOL MULL)
$$PURE
##PATH LENGTH=
$$SPECTRAL CONTAMINATION DUE TO OIL AROUND 2900, 1450, 1380 CM^-^1
##SAMPLING PROCEDURE=TRANSMISSION
##RESOLUTION=4
##DATA PROCESSING=DIGITIZED BY NIST FROM HARD COPY
##XUNITS=MICROMETERS
##YUNITS=TRANSMITTANCE
##XFACTOR=1.000000
##YFACTOR=1
##DELTAX=000.006803
##FIRSTX=2.007
##LASTX=15.9724
##FIRSTY=0.749
##MAXX=15.9724
##MINX=2.007
##MAXY=0.943
##MINY=0.09
##NPOINTS=2054
##XYDATA=(X++(Y..Y))
2.007000 0.7490 0.7490 0.7510 0.7530 0.7540
2.041030 0.7540 0.7560 0.7580 0.7590 0.7610
2.075000 0.7630 0.7650 0.7660 0.7680 0.7700
2.109030 0.7700 0.7710 0.7730 0.7750 0.7770
2.143000 0.7780 0.7800 0.7800 0.7820 0.7820
2.177030 0.7850 0.7850 0.7850 0.7870 0.7850
2.211000 0.7870 0.7890 0.7890 0.7900 0.7900
2.245030 0.7900 0.7900 0.7900 0.7900 0.7900
2.279000 0.7900 0.7920 0.7920 0.7920 0.7940
2.313030 0.7920 0.7940 0.7950 0.7950 0.7940
2.347000 0.7950 0.7950 0.7970 0.7970 0.7990
2.381030 0.7990 0.8010 0.8010 0.8010 0.8020
2.415000 0.8040 0.8040 0.8060 0.8090 0.8090
2.449030 0.8110 0.8130 0.8140 0.8160 0.8160
2.483000 0.8180 0.8190 0.8210 0.8210 0.8230
2.517030 0.8250 0.8260 0.8260 0.8280 0.8300
2.551000 0.8300 0.8310 0.8310 0.8310 0.8330
2.585030 0.8350 0.8350 0.8350 0.8370 0.8370
2.619000 0.8350 0.8350 0.8350 0.8350 0.8350
2.653030 0.8350 0.8330 0.8330 0.8330 0.8330
2.687000 0.8310 0.8310 0.8310 0.8300 0.8280
2.721030 0.8250 0.8210 0.8180 0.8140 0.8130
2.755000 0.8070 0.8020 0.7970 0.7900 0.7890
2.789030 0.7850 0.7800 0.7750 0.7700 0.7660
2.823000 0.7630 0.7580 0.7540 0.7470 0.7440
2.857030 0.7390 0.7350 0.7280 0.7270 0.7220
2.891000 0.7180 0.7160 0.7130 0.7130 0.7110
2.925030 0.7110 0.7100 0.7100 0.7100 0.7110
2.959000 0.7110 0.7110 0.7110 0.7130 0.7150
2.993030 0.7150 0.7160 0.7180 0.7220 0.7250
3.027000 0.7280 0.7300 0.7340 0.7350 0.7370
3.061030 0.7400 0.7420 0.7460 0.7490 0.7530
3.095000 0.7540 0.7580 0.7610 0.7630 0.7650
3.129030 0.7680 0.7730 0.7770 0.7780 0.7800
3.163000 0.7830 0.7870 0.7900 0.7940 0.7950
3.197030 0.7970 0.7990 0.8020 0.8040 0.8090
3.231000 0.8110 0.8110 0.8130 0.8130 0.8130
3.265030 0.8130 0.8130 0.8090 0.8070 0.8010
3.299000 0.7900 0.7730 0.7530 0.7340 0.7030
3.333030 0.6530 0.6000 0.3990 0.3010 0.2890
3.367000 0.2740 0.2430 0.2100 0.1800 0.1470
3.401030 0.1470 0.1490 0.2690 0.3870 0.3960
3.435000 0.4030 0.4030 0.3870 0.3820 0.3680
3.469030 0.3480 0.3430 0.3410 0.3440 0.4450
3.503000 0.4760 0.5070 0.6390 0.6990 0.7440
3.537030 0.7650 0.8040 0.8280 0.8450 0.8550
3.571000 0.8590 0.8640 0.8670 0.8710 0.8730
3.605030 0.8760 0.8790 0.8810 0.8830 0.8850
3.639000 0.8860 0.8880 0.8900 0.8900 0.8910
3.673030 0.8910 0.8930 0.8930 0.8950 0.8950
3.707000 0.8970 0.8950 0.8970 0.8970 0.8980
3.741030 0.8980 0.9000 0.9000 0.9000 0.9020
3.776000 0.9020 0.9020 0.9030 0.9030 0.9030
3.810030 0.9030 0.9030 0.9050 0.9050 0.9050
3.844000 0.9050 0.9070 0.9070 0.9070 0.9070
3.878030 0.9090 0.9090 0.9090 0.9090 0.9100
3.912000 0.9120 0.9120 0.9120 0.9120 0.9120
3.946030 0.9140 0.9140 0.9140 0.9140 0.9140
3.980000 0.9140 0.9150 0.9150 0.9150 0.9170
4.014030 0.9170 0.9170 0.9190 0.9190 0.9190
4.048000 0.9190 0.9190 0.9210 0.9210 0.9210
4.082030 0.9210 0.9220 0.9220 0.9220 0.9220
4.116000 0.9220 0.9220 0.9220 0.9220 0.9240
4.150030 0.9240 0.9220 0.9220 0.9240 0.9240
4.184000 0.9240 0.9240 0.9240 0.9260 0.9260
4.218030 0.9260 0.9260 0.9270 0.9270 0.9270
4.252000 0.9270 0.9270 0.9270 0.9270 0.9270
4.286030 0.9270 0.9270 0.9270 0.9270 0.9270
4.320000 0.9270 0.9270 0.9270 0.9260 0.9260
4.354030 0.9270 0.9270 0.9260 0.9260 0.9260
4.388000 0.9240 0.9240 0.9240 0.9240 0.9260
4.422030 0.9260 0.9260 0.9240 0.9240 0.9240
4.456000 0.9220 0.9220 0.9240 0.9220 0.9220
4.490030 0.9220 0.9220 0.9220 0.9210 0.9210
4.524000 0.9210 0.9210 0.9210 0.9210 0.9190
4.558030 0.9190 0.9190 0.9190 0.9190 0.9190
4.592000 0.9170 0.9190 0.9190 0.9190 0.9190
4.626030 0.9190 0.9190 0.9190 0.9190 0.9190
4.660000 0.9190 0.9190 0.9190 0.9190 0.9190
4.694030 0.9190 0.9190 0.9190 0.9190 0.9210
4.728000 0.9210 0.9210 0.9210 0.9210 0.9210
4.762030 0.9210 0.9210 0.9210 0.9190 0.9190
4.796000 0.9190 0.9190 0.9190 0.9190 0.9190
4.830030 0.9190 0.9190 0.9210 0.9210 0.9210
4.864000 0.9210 0.9210 0.9210 0.9210 0.9210
4.898030 0.9210 0.9210 0.9210 0.9210 0.9210
4.932000 0.9220 0.9220 0.9220 0.9220 0.9210
4.966030 0.9210 0.9210 0.9220 0.9220 0.9220
5.000000 0.9220 0.9240 0.9240 0.9240 0.9240
5.034030 0.9240 0.9240 0.9240 0.9240 0.9240
5.068000 0.9270 0.9270 0.9270 0.9270 0.9290
5.102030 0.9290 0.9310 0.9310 0.9310 0.9310
5.136000 0.9310 0.9330 0.9330 0.9330 0.9330
5.170030 0.9340 0.9340 0.9340 0.9360 0.9360
5.204000 0.9360 0.9360 0.9360 0.9360 0.9360
5.238030 0.9360 0.9360 0.9380 0.9380 0.9380
5.272000 0.9380 0.9380 0.9380 0.9380 0.9380
5.306030 0.9380 0.9380 0.9380 0.9380 0.9380
5.340000 0.9380 0.9380 0.9380 0.9380 0.9380
5.374030 0.9380 0.9380 0.9380 0.9380 0.9380
5.408000 0.9380 0.9380 0.9380 0.9380 0.9380
5.442030 0.9380 0.9380 0.9380 0.9380 0.9390
5.476000 0.9380 0.9380 0.9380 0.9380 0.9380
5.510030 0.9380 0.9380 0.9360 0.9360 0.9360
5.544000 0.9360 0.9360 0.9360 0.9360 0.9360
5.578030 0.9360 0.9360 0.9360 0.9360 0.9360
5.612000 0.9360 0.9380 0.9380 0.9380 0.9360
5.646030 0.9360 0.9380 0.9380 0.9380 0.9380
5.680000 0.9390 0.9390 0.9380 0.9390 0.9390
5.714030 0.9390 0.9390 0.9390 0.9390 0.9390
5.748000 0.9380 0.9380 0.9360 0.9360 0.9360
5.782030 0.9360 0.9360 0.9360 0.9360 0.9360
5.816000 0.9340 0.9340 0.9340 0.9330 0.9330
5.850030 0.9330 0.9330 0.9310 0.9310 0.9290
5.884000 0.9270 0.9260 0.9240 0.9240 0.9220
5.918030 0.9220 0.9210 0.9190 0.9170 0.9140
5.952000 0.9140 0.9120 0.9100 0.9070 0.9030
5.986030 0.9030 0.9020 0.9000 0.9000 0.8980
6.020000 0.8980 0.8930 0.8910 0.8900 0.8880
6.054030 0.8850 0.8850 0.8830 0.8810 0.8810
6.088000 0.8790 0.8790 0.8780 0.8780 0.8790
6.122030 0.8790 0.8810 0.8810 0.8810 0.8830
6.156000 0.8850 0.8850 0.8860 0.8880 0.8900
6.190030 0.8910 0.8930 0.8950 0.8980 0.9000
6.224000 0.9020 0.9030 0.9070 0.9100 0.9140
6.258030 0.9150 0.9170 0.9170 0.9190 0.9190
6.293000 0.9190 0.9190 0.9190 0.9190 0.9190
6.327030 0.9190 0.9190 0.9190 0.9190 0.9170
6.361000 0.9170 0.9150 0.9140 0.9140 0.9120
6.395030 0.9100 0.9090 0.9070 0.9070 0.9070
6.429000 0.9050 0.9030 0.9050 0.9050 0.9050
6.463030 0.9050 0.9050 0.9050 0.9050 0.9030
6.497000 0.9030 0.9030 0.9030 0.9030 0.9030
6.531030 0.9020 0.9000 0.8980 0.8980 0.8980
6.565000 0.8950 0.8950 0.8930 0.8930 0.8910
6.599030 0.8910 0.8900 0.8900 0.8880 0.8880
6.633000 0.8860 0.8850 0.8850 0.8850 0.8830
6.667030 0.8830 0.8830 0.8810 0.8810 0.8790
6.701000 0.8780 0.8740 0.8730 0.8710 0.8690
6.735030 0.8660 0.8590 0.8540 0.8470 0.8380
6.769000 0.8310 0.7990 0.7820 0.7610 0.7460
6.803030 0.7320 0.7080 0.6870 0.6630 0.6550
6.837000 0.6460 0.6340 0.6320 0.6270 0.6240
6.871030 0.6260 0.6270 0.6340 0.6430 0.6550
6.905000 0.6680 0.6910 0.7080 0.7160 0.7230
6.939030 0.7280 0.7320 0.7390 0.7460 0.7580
6.973000 0.7660 0.7750 0.7870 0.7950 0.8060
7.007030 0.8140 0.8230 0.8250 0.8250 0.8280
7.041000 0.8310 0.8330 0.8370 0.8380 0.8420
7.075030 0.8430 0.8430 0.8450 0.8470 0.8490
7.109000 0.8500 0.8520 0.8540 0.8540 0.8540
7.143030 0.8540 0.8540 0.8550 0.8540 0.8540
7.177000 0.8520 0.8490 0.8450 0.8400 0.8310
7.211030 0.8190 0.8070 0.8020 0.7750 0.7710
7.245000 0.7650 0.7630 0.7630 0.7660 0.7710
7.279030 0.7750 0.7870 0.7970 0.8060 0.8130
7.313000 0.8180 0.8230 0.8300 0.8350 0.8420
7.347030 0.8490 0.8550 0.8640 0.8730 0.8760
7.381000 0.8790 0.8830 0.8850 0.8880 0.8910
7.415030 0.8910 0.8930 0.8950 0.8980 0.9000
7.449000 0.9000 0.9020 0.9030 0.9030 0.9050
7.483030 0.9090 0.9100 0.9140 0.9150 0.9170
7.517000 0.9190 0.9190 0.9210 0.9210 0.9220
7.551030 0.9220 0.9220 0.9240 0.9240 0.9240
7.585000 0.9240 0.9240 0.9220 0.9240 0.9240
7.619030 0.9260 0.9240 0.9240 0.9240 0.9240
7.653000 0.9240 0.9240 0.9240 0.9240 0.9240
7.687030 0.9240 0.9240 0.9240 0.9240 0.9240
7.721000 0.9260 0.9260 0.9260 0.9260 0.9260
7.755030 0.9260 0.9260 0.9260 0.9270 0.9290
7.789000 0.9310 0.9310 0.9290 0.9310 0.9310
7.823030 0.9310 0.9330 0.9330 0.9330 0.9330
7.857000 0.9330 0.9340 0.9360 0.9340 0.9360
7.891030 0.9360 0.9360 0.9360 0.9380 0.9380
7.925000 0.9380 0.9390 0.9390 0.9390 0.9390
7.959030 0.9390 0.9390 0.9390 0.9390 0.9390
7.993000 0.9390 0.9390 0.9390 0.9380 0.9360
8.027030 0.9360 0.9360 0.9360 0.9360 0.9360
8.061000 0.9360 0.9360 0.9360 0.9380 0.9380
8.095030 0.9380 0.9380 0.9390 0.9390 0.9390
8.129000 0.9390 0.9390 0.9390 0.9390 0.9390
8.163030 0.9390 0.9390 0.9410 0.9410 0.9430
8.197000 0.9430 0.9410 0.9410 0.9430 0.9430
8.231030 0.9430 0.9410 0.9410 0.9390 0.9390
8.265000 0.9380 0.9380 0.9380 0.9380 0.9380
8.299030 0.9380 0.9390 0.9380 0.9380 0.9380
8.333000 0.9380 0.9360 0.9360 0.9360 0.9360
8.367030 0.9360 0.9380 0.9380 0.9380 0.9380
8.401000 0.9380 0.9380 0.9380 0.9380 0.9380
8.435030 0.9360 0.9360 0.9360 0.9360 0.9360
8.469000 0.9360 0.9360 0.9360 0.9360 0.9360
8.503030 0.9360 0.9340 0.9340 0.9340 0.9340
8.537000 0.9340 0.9340 0.9340 0.9340 0.9340
8.571030 0.9340 0.9340 0.9340 0.9340 0.9340
8.605000 0.9340 0.9340 0.9340 0.9340 0.9340
8.639030 0.9340 0.9340 0.9340 0.9340 0.9330
8.673000 0.9330 0.9330 0.9310 0.9310 0.9290
8.707030 0.9290 0.9290 0.9290 0.9290 0.9290
8.741000 0.9270 0.9270 0.9260 0.9260 0.9260
8.775030 0.9260 0.9260 0.9240 0.9240 0.9240
8.810000 0.9240 0.9240 0.9240 0.9240 0.9240
8.844030 0.9240 0.9240 0.9240 0.9240 0.9240
8.878000 0.9240 0.9240 0.9240 0.9240 0.9240
8.912030 0.9240 0.9240 0.9240 0.9240 0.9240
8.946000 0.9240 0.9220 0.9220 0.9240 0.9240
8.980030 0.9240 0.9220 0.9220 0.9240 0.9240
9.014000 0.9240 0.9240 0.9240 0.9220 0.9220
9.048030 0.9220 0.9220 0.9220 0.9220 0.9220
9.082000 0.9220 0.9220 0.9220 0.9220 0.9220
9.116030 0.9220 0.9220 0.9220 0.9220 0.9220
9.150000 0.9220 0.9220 0.9220 0.9220 0.9220
9.184030 0.9220 0.9240 0.9240 0.9220 0.9220
9.218000 0.9220 0.9220 0.9220 0.9220 0.9220
9.252030 0.9220 0.9220 0.9220 0.9210 0.9210
9.286000 0.9190 0.9190 0.9190 0.9190 0.9190
9.320030 0.9190 0.9190 0.9170 0.9170 0.9170
9.354000 0.9170 0.9170 0.9170 0.9170 0.9170
9.388030 0.9170 0.9150 0.9150 0.9150 0.9150
9.422000 0.9150 0.9150 0.9150 0.9150 0.9150
9.456030 0.9150 0.9150 0.9150 0.9150 0.9150
9.490000 0.9150 0.9150 0.9150 0.9150 0.9150
9.524030 0.9150 0.9150 0.9150 0.9150 0.9150
9.558000 0.9150 0.9150 0.9150 0.9150 0.9150
9.592030 0.9150 0.9150 0.9150 0.9150 0.9150
9.626000 0.9150 0.9150 0.9150 0.9150 0.9150
9.660030 0.9150 0.9150 0.9150 0.9150 0.9150
9.694000 0.9150 0.9150 0.9150 0.9150 0.9150
9.728030 0.9150 0.9150 0.9150 0.9150 0.9150
9.762000 0.9150 0.9150 0.9140 0.9140 0.9140
9.796030 0.9140 0.9140 0.9150 0.9150 0.9150
9.830000 0.9150 0.9150 0.9150 0.9150 0.9150
9.864030 0.9150 0.9150 0.9150 0.9150 0.9150
9.898000 0.9150 0.9140 0.9140 0.9140 0.9140
9.932030 0.9140 0.9140 0.9140 0.9140 0.9140
9.966000 0.9140 0.9140 0.9150 0.9150 0.9170
10.000030 0.9150 0.9140 0.9140 0.9140 0.9140
10.034000 0.9140 0.9140 0.9140 0.9140 0.9140
10.068030 0.9150 0.9140 0.9140 0.9150 0.9150
10.102000 0.9150 0.9140 0.9140 0.9150 0.9150
10.136030 0.9150 0.9150 0.9150 0.9140 0.9140
10.170000 0.9140 0.9140 0.9120 0.9120 0.9120
10.204030 0.9120 0.9120 0.9100 0.9100 0.9100
10.238000 0.9100 0.9090 0.9050 0.9050 0.9050
10.272030 0.9030 0.9030 0.9030 0.9030 0.9030
10.306000 0.9030 0.9030 0.9030 0.9030 0.9030
10.340030 0.9030 0.9050 0.9050 0.9070 0.9070
10.374000 0.9070 0.9070 0.9070 0.9050 0.9070
10.408030 0.9070 0.9070 0.9070 0.9070 0.9070
10.442000 0.9070 0.9070 0.9050 0.9070 0.9070
10.476030 0.9090 0.9100 0.9100 0.9100 0.9100
10.510000 0.9100 0.9100 0.9120 0.9120 0.9120
10.544030 0.9120 0.9120 0.9120 0.9120 0.9100
10.578000 0.9100 0.9070 0.9090 0.9090 0.9090
10.612030 0.9100 0.9100 0.9100 0.9100 0.9100
10.646000 0.9100 0.9100 0.9100 0.9120 0.9100
10.680030 0.9100 0.9100 0.9100 0.9100 0.9090
10.714000 0.9050 0.9050 0.9050 0.9070 0.9070
10.748030 0.9070 0.9070 0.9070 0.9070 0.9050
10.782000 0.9050 0.9030 0.9030 0.9030 0.9030
10.816030 0.9020 0.9020 0.9000 0.8980 0.8970
10.850000 0.8970 0.8950 0.8950 0.8930 0.8910
10.884030 0.8910 0.8910 0.8900 0.8900 0.8880
10.918000 0.8880 0.8880 0.8860 0.8860 0.8860
10.952030 0.8860 0.8850 0.8850 0.8850 0.8860
10.986000 0.8850 0.8850 0.8850 0.8830 0.8850
11.020030 0.8850 0.8830 0.8830 0.8830 0.8810
11.054000 0.8790 0.8790 0.8780 0.8780 0.8780
11.088030 0.8760 0.8740 0.8740 0.8710 0.8670
11.122000 0.8640 0.8610 0.8540 0.8490 0.8400
11.156030 0.8310 0.8250 0.8140 0.8040 0.7900
11.190000 0.7820 0.7730 0.7650 0.7540 0.7460
11.224030 0.7350 0.7250 0.7130 0.7030 0.6890
11.259000 0.6750 0.6600 0.6480 0.6310 0.6120
11.293030 0.5910 0.5690 0.5480 0.5300 0.5120
11.327000 0.4830 0.4730 0.4640 0.4560 0.4470
11.361030 0.4420 0.4350 0.4280 0.4200 0.4110
11.395000 0.3990 0.3940 0.3850 0.3750 0.3700
11.429030 0.3650 0.3580 0.3530 0.3460 0.3430
11.463000 0.3370 0.3320 0.3270 0.3240 0.3190
11.497030 0.3150 0.3100 0.3050 0.3010 0.3000
11.531000 0.2960 0.2930 0.2890 0.2860 0.2840
11.565030 0.2810 0.2790 0.2770 0.2740 0.2710
11.599000 0.2650 0.2600 0.2590 0.2570 0.2530
11.633030 0.2500 0.2480 0.2450 0.2410 0.2380
11.667000 0.2340 0.2310 0.2280 0.2240 0.2220
11.701030 0.2210 0.2160 0.2120 0.2090 0.2050
11.735000 0.2040 0.2000 0.1980 0.1970 0.1970
11.769030 0.1930 0.1900 0.1880 0.1850 0.1800
11.803000 0.1780 0.1740 0.1730 0.1710 0.1710
11.837030 0.1690 0.1660 0.1640 0.1620 0.1620
11.871000 0.1590 0.1570 0.1560 0.1540 0.1540
11.905030 0.1520 0.1500 0.1500 0.1490 0.1470
11.939000 0.1470 0.1450 0.1440 0.1440 0.1420
11.973030 0.1400 0.1400 0.1380 0.1380 0.1370
12.007000 0.1370 0.1350 0.1350 0.1330 0.1320
12.041030 0.1320 0.1300 0.1300 0.1280 0.1280
12.075000 0.1260 0.1260 0.1250 0.1250 0.1230
12.109030 0.1230 0.1230 0.1210 0.1210 0.1200
12.143000 0.1200 0.1180 0.1180 0.1180 0.1160
12.177030 0.1140 0.1130 0.1130 0.1130 0.1110
12.211000 0.1110 0.1110 0.1110 0.1090 0.1090
12.245030 0.1090 0.1090 0.1080 0.1080 0.1080
12.279000 0.1080 0.1060 0.1060 0.1060 0.1040
12.313030 0.1040 0.1040 0.1040 0.1040 0.1020
12.347000 0.1020 0.1020 0.1020 0.1020 0.1040
12.381030 0.1040 0.1040 0.1040 0.1020 0.1040
12.415000 0.1020 0.1020 0.1020 0.1010 0.1010
12.449030 0.1010 0.1010 0.0990 0.0990 0.0970
12.483000 0.0970 0.0970 0.0970 0.0960 0.0960
12.517030 0.0960 0.0960 0.0960 0.0940 0.0940
12.551000 0.0940 0.0940 0.0940 0.0940 0.0940
12.585030 0.0940 0.0940 0.0940 0.0940 0.0940
12.619000 0.0920 0.0900 0.0900 0.0900 0.0900
12.653030 0.0900 0.0900 0.0900 0.0900 0.0900
12.687000 0.0900 0.0920 0.0960 0.0960 0.0990
12.721030 0.0990 0.1020 0.1060 0.1080 0.1160
12.755000 0.1180 0.1230 0.1280 0.1380 0.1470
12.789030 0.1540 0.1610 0.1680 0.1740 0.1850
12.823000 0.1900 0.2000 0.2120 0.2210 0.2280
12.857030 0.2360 0.2410 0.2480 0.2530 0.2640
12.891000 0.2720 0.2830 0.2910 0.3010 0.3120
12.925030 0.3200 0.3310 0.3390 0.3580 0.3720
12.959000 0.3840 0.3920 0.3990 0.4030 0.4230
12.993030 0.4390 0.4540 0.4640 0.4750 0.4830
13.027000 0.4920 0.4970 0.5000 0.5070 0.5140
13.061030 0.5260 0.5350 0.5400 0.5470 0.5550
13.095000 0.5620 0.5690 0.5740 0.5790 0.5860
13.129030 0.5950 0.5980 0.6020 0.6050 0.6140
13.163000 0.6200 0.6290 0.6340 0.6390 0.6460
13.197030 0.6510 0.6560 0.6630 0.6740 0.6750
13.231000 0.6770 0.6840 0.6870 0.6910 0.6920
13.265030 0.6980 0.6990 0.6990 0.7030 0.7040
13.299000 0.7060 0.7080 0.7110 0.7150 0.7180
13.333030 0.7200 0.7230 0.7230 0.7250 0.7270
13.367000 0.7300 0.7320 0.7340 0.7350 0.7350
13.401030 0.7390 0.7400 0.7440 0.7440 0.7460
13.435000 0.7490 0.7490 0.7510 0.7530 0.7540
13.469030 0.7540 0.7560 0.7590 0.7610 0.7650
13.503000 0.7650 0.7660 0.7660 0.7680 0.7710
13.537030 0.7730 0.7750 0.7750 0.7770 0.7770
13.571000 0.7800 0.7800 0.7820 0.7820 0.7820
13.605030 0.7850 0.7870 0.7870 0.7890 0.7900
13.639000 0.7920 0.7920 0.7950 0.7970 0.7970
13.673030 0.7990 0.7990 0.7990 0.7990 0.8010
13.707000 0.8020 0.8020 0.8040 0.8040 0.8060
13.741030 0.8060 0.8070 0.8070 0.8090 0.8090
13.776000 0.8090 0.8110 0.8130 0.8130 0.8140
13.810030 0.8140 0.8160 0.8160 0.8180 0.8180
13.844000 0.8190 0.8190 0.8210 0.8230 0.8230
13.878030 0.8230 0.8250 0.8250 0.8250 0.8260
13.912000 0.8260 0.8260 0.8280 0.8300 0.8300
13.946030 0.8310 0.8310 0.8350 0.8370 0.8370
13.980000 0.8380 0.8380 0.8400 0.8400 0.8400
14.014030 0.8400 0.8420 0.8420 0.8420 0.8420
14.048000 0.8430 0.8430 0.8430 0.8450 0.8450
14.082030 0.8450 0.8450 0.8470 0.8470 0.8470
14.116000 0.8470 0.8470 0.8490 0.8490 0.8490
14.150030 0.8500 0.8500 0.8500 0.8500 0.8500
14.184000 0.8520 0.8520 0.8520 0.8520 0.8520
14.218030 0.8520 0.8540 0.8540 0.8540 0.8540
14.252000 0.8540 0.8540 0.8540 0.8540 0.8550
14.286030 0.8550 0.8550 0.8550 0.8550 0.8550
14.320000 0.8550 0.8550 0.8550 0.8550 0.8570
14.354030 0.8590 0.8590 0.8590 0.8570 0.8570
14.388000 0.8570 0.8590 0.8590 0.8570 0.8570
14.422030 0.8570 0.8570 0.8570 0.8550 0.8550
14.456000 0.8550 0.8550 0.8550 0.8550 0.8550
14.490030 0.8550 0.8540 0.8540 0.8520 0.8520
14.524000 0.8520 0.8500 0.8500 0.8500 0.8490
14.558030 0.8490 0.8470 0.8470 0.8470 0.8450
14.592000 0.8450 0.8450 0.8450 0.8450 0.8430
14.626030 0.8430 0.8420 0.8420 0.8420 0.8400
14.660000 0.8400 0.8380 0.8380 0.8380 0.8370
14.694030 0.8370 0.8350 0.8350 0.8350 0.8330
14.728000 0.8330 0.8330 0.8310 0.8310 0.8310
14.762030 0.8310 0.8300 0.8300 0.8280 0.8280
14.796000 0.8280 0.8280 0.8280 0.8260 0.8260
14.830030 0.8250 0.8230 0.8230 0.8210 0.8210
14.864000 0.8190 0.8190 0.8180 0.8180 0.8160
14.898030 0.8140 0.8140 0.8140 0.8130 0.8130
14.932000 0.8110 0.8110 0.8090 0.8070 0.8070
14.966030 0.8060 0.8040 0.8060 0.8040 0.8040
15.000000 0.8060 0.8020 0.8020 0.8020 0.8020
15.034030 0.8020 0.8010 0.8010 0.8010 0.8010
15.068000 0.7970 0.7970 0.7950 0.7950 0.7940
15.102030 0.7940 0.7940 0.7920 0.7920 0.7900
15.136000 0.7900 0.7890 0.7890 0.7870 0.7870
15.170030 0.7850 0.7830 0.7830 0.7820 0.7820
15.204000 0.7820 0.7820 0.7800 0.7820 0.7800
15.238030 0.7800 0.7800 0.7780 0.7770 0.7750
15.272000 0.7750 0.7750 0.7750 0.7750 0.7750
15.306030 0.7730 0.7730 0.7710 0.7710 0.7700
15.340000 0.7700 0.7680 0.7680 0.7660 0.7660
15.374030 0.7660 0.7660 0.7650 0.7630 0.7610
15.408000 0.7610 0.7590 0.7590 0.7590 0.7560
15.442030 0.7560 0.7540 0.7540 0.7530 0.7510
15.476000 0.7510 0.7510 0.7490 0.7470 0.7470
15.510030 0.7470 0.7460 0.7460 0.7440 0.7440
15.544000 0.7420 0.7420 0.7400 0.7390 0.7390
15.578030 0.7370 0.7370 0.7350 0.7340 0.7340
15.612000 0.7320 0.7320 0.7300 0.7280 0.7270
15.646030 0.7270 0.7270 0.7250 0.7250 0.7230
15.680000 0.7220 0.7200 0.7200 0.7200 0.7200
15.714030 0.7180 0.7180 0.7160 0.7160 0.7150
15.748000 0.7130 0.7130 0.7130 0.7110 0.7110
15.782030 0.7110 0.7110 0.7100 0.7060 0.7060
15.816000 0.7040 0.7040 0.7040 0.7040 0.7040
15.850030 0.7040 0.7040 0.7030 0.7030 0.7030
15.884000 0.7030 0.7010 0.6990 0.6990 0.6990
15.918030 0.6990 0.6990 0.6990 0.6980 0.6960
15.952000 0.6960 0.6960 0.6960 0.6960
##END=
