##TITLE=ANILINE, 2-tert-BUTYL-5-METHYL-
##JCAMP-DX=4.24
$$ By DXEDIT 1.05 (RS McDonald)
##DATA TYPE=INFRARED SPECTRUM
##CLASS=COBLENTZ III
##ORIGIN=MONSANTO (J. FREEMAN)
##OWNER=COBLENTZ SOC.
Collection (C) 2018 copyright by the U.S. Secretary of Commerce
on behalf of the United States of America. All rights reserved.
##DATE=1959/01/29
##NAMES=2-tert-butyl-5-methylphenylamine
2-tert-butyl-5-methylaniline
ANILINE, 2-tert-BUTYL-5-METHYL-
##MOLFORM=C11 H17 N
##SOURCE REFERENCE=COBLENTZ NO. 08465
##$NIST ID=B6008465
##$NIST SOURCE=COBLENTZ
##$NIST IMAGE=cob8465
##SPECTROMETER/DATA SYSTEM=BECKMAN IR-4 (HYBRID PRISM-GRATING)
##INSTRUMENT PARAMETERS=NaCl PRISM
##STATE=LIQUID (NEAT)
##PATH LENGTH=CAPILLARY
##SAMPLING PROCEDURE=TRANSMISSION
##RESOLUTION=2
##DATA PROCESSING=DIGITIZED BY COBLENTZ SOCIETY (BATCH I) FROM HARD COPY
##XUNITS=1/CM
##YUNITS=TRANSMITTANCE
##XLABEL=Wavenumbers (cm-1)
##YLABEL=Transmittance
##XFACTOR=1
##YFACTOR=1
##DELTAX=1
##FIRSTX=4000
##LASTX=626
##FIRSTY=0.895
##MAXX=4000
##MINX=626
##MAXY=0.9478
##MINY=0.0749
##NPOINTS=3375
##XYDATA=(X++(Y..Y))
4000.000000 0.8950 0.8950 0.8950 0.8950 0.8951
3995.000000 0.8951 0.8951 0.8952 0.8952 0.8952
3990.000000 0.8953 0.8953 0.8953 0.8954 0.8954
3985.000000 0.8955 0.8955 0.8956 0.8956 0.8956
3980.000000 0.8957 0.8957 0.8957 0.8958 0.8958
3975.000000 0.8958 0.8959 0.8959 0.8959 0.8960
3970.000000 0.8960 0.8960 0.8961 0.8961 0.8961
3965.000000 0.8961 0.8961 0.8961 0.8961 0.8962
3960.000000 0.8962 0.8962 0.8962 0.8962 0.8962
3955.000000 0.8963 0.8963 0.8963 0.8963 0.8963
3950.000000 0.8963 0.8964 0.8964 0.8964 0.8964
3945.000000 0.8964 0.8964 0.8965 0.8965 0.8965
3940.000000 0.8965 0.8965 0.8965 0.8966 0.8966
3935.000000 0.8966 0.8966 0.8966 0.8966 0.8966
3930.000000 0.8967 0.8967 0.8967 0.8967 0.8967
3925.000000 0.8967 0.8968 0.8968 0.8968 0.8968
3920.000000 0.8968 0.8968 0.8968 0.8968 0.8968
3915.000000 0.8970 0.8970 0.8970 0.8971 0.8971
3910.000000 0.8971 0.8971 0.8971 0.8971 0.8971
3905.000000 0.8971 0.8971 0.8971 0.8971 0.8971
3900.000000 0.8973 0.8973 0.8973 0.8973 0.8973
3895.000000 0.8973 0.8974 0.8974 0.8974 0.8974
3890.000000 0.8974 0.8974 0.8975 0.8975 0.8975
3885.000000 0.8975 0.8975 0.8975 0.8975 0.8975
3880.000000 0.8975 0.8975 0.8975 0.8975 0.8975
3875.000000 0.8975 0.8975 0.8975 0.8975 0.8975
3870.000000 0.8975 0.8975 0.8975 0.8975 0.8975
3865.000000 0.8975 0.8975 0.8975 0.8975 0.8975
3860.000000 0.8975 0.8975 0.8975 0.8975 0.8975
3855.000000 0.8975 0.8975 0.8975 0.8975 0.8975
3850.000000 0.8975 0.8975 0.8975 0.8975 0.8975
3845.000000 0.8975 0.8975 0.8975 0.8975 0.8975
3840.000000 0.8975 0.8975 0.8975 0.8975 0.8975
3835.000000 0.8975 0.8975 0.8975 0.8975 0.8975
3830.000000 0.8975 0.8975 0.8975 0.8975 0.8975
3825.000000 0.8975 0.8975 0.8974 0.8974 0.8974
3820.000000 0.8974 0.8974 0.8974 0.8974 0.8973
3815.000000 0.8973 0.8973 0.8971 0.8971 0.8971
3810.000000 0.8971 0.8971 0.8970 0.8970 0.8970
3805.000000 0.8968 0.8968 0.8968 0.8968 0.8968
3800.000000 0.8968 0.8967 0.8967 0.8967 0.8966
3795.000000 0.8966 0.8966 0.8965 0.8965 0.8965
3790.000000 0.8965 0.8965 0.8965 0.8964 0.8964
3785.000000 0.8963 0.8963 0.8963 0.8962 0.8962
3780.000000 0.8962 0.8961 0.8961 0.8961 0.8960
3775.000000 0.8960 0.8959 0.8959 0.8958 0.8958
3770.000000 0.8957 0.8957 0.8956 0.8956 0.8955
3765.000000 0.8954 0.8954 0.8953 0.8952 0.8952
3760.000000 0.8951 0.8950 0.8950 0.8949 0.8949
3755.000000 0.8948 0.8948 0.8947 0.8947 0.8946
3750.000000 0.8945 0.8945 0.8944 0.8944 0.8943
3745.000000 0.8942 0.8942 0.8941 0.8939 0.8936
3740.000000 0.8934 0.8931 0.8928 0.8925 0.8920
3735.000000 0.8915 0.8909 0.8904 0.8898 0.8894
3730.000000 0.8892 0.8891 0.8889 0.8887 0.8886
3725.000000 0.8884 0.8883 0.8881 0.8878 0.8878
3720.000000 0.8875 0.8875 0.8873 0.8871 0.8870
3715.000000 0.8868 0.8868 0.8867 0.8866 0.8864
3710.000000 0.8863 0.8862 0.8861 0.8860 0.8859
3705.000000 0.8858 0.8857 0.8856 0.8855 0.8854
3700.000000 0.8853 0.8852 0.8851 0.8849 0.8846
3695.000000 0.8844 0.8841 0.8839 0.8837 0.8834
3690.000000 0.8832 0.8830 0.8827 0.8825 0.8821
3685.000000 0.8820 0.8818 0.8815 0.8813 0.8810
3680.000000 0.8807 0.8805 0.8802 0.8799 0.8796
3675.000000 0.8792 0.8788 0.8784 0.8780 0.8775
3670.000000 0.8771 0.8768 0.8765 0.8761 0.8757
3665.000000 0.8750 0.8742 0.8734 0.8725 0.8718
3660.000000 0.8710 0.8701 0.8692 0.8683 0.8674
3655.000000 0.8665 0.8653 0.8641 0.8628 0.8617
3650.000000 0.8605 0.8593 0.8581 0.8568 0.8556
3645.000000 0.8544 0.8532 0.8518 0.8506 0.8494
3640.000000 0.8481 0.8468 0.8418 0.8367 0.8317
3635.000000 0.8267 0.8217 0.8182 0.8153 0.8125
3630.000000 0.8096 0.8067 0.8026 0.7971 0.7917
3625.000000 0.7861 0.7807 0.7751 0.7697 0.7642
3620.000000 0.7587 0.7532 0.7478 0.7421 0.7367
3615.000000 0.7311 0.7256 0.7201 0.7146 0.7091
3610.000000 0.7035 0.6980 0.6925 0.6869 0.6814
3605.000000 0.6758 0.6703 0.6648 0.6592 0.6537
3600.000000 0.6481 0.6425 0.6369 0.6314 0.6258
3595.000000 0.6202 0.6147 0.6091 0.6035 0.5979
3590.000000 0.5923 0.5867 0.5810 0.5755 0.5699
3585.000000 0.5643 0.5587 0.5530 0.5474 0.5418
3580.000000 0.5362 0.5306 0.5250 0.5193 0.5160
3575.000000 0.5149 0.5138 0.5126 0.5097 0.5108
3570.000000 0.5108 0.5108 0.5108 0.5108 0.5114
3565.000000 0.5133 0.5153 0.5172 0.5191 0.5216
3560.000000 0.5255 0.5294 0.5334 0.5373 0.5412
3555.000000 0.5453 0.5493 0.5532 0.5572 0.5612
3550.000000 0.5652 0.5691 0.5731 0.5771 0.5810
3545.000000 0.5850 0.5890 0.5930 0.5970 0.6010
3540.000000 0.6050 0.6090 0.6130 0.6170 0.6210
3535.000000 0.6250 0.6290 0.6330 0.6370 0.6410
3530.000000 0.6451 0.6491 0.6531 0.6571 0.6611
3525.000000 0.6651 0.6692 0.6733 0.6772 0.6814
3520.000000 0.6854 0.6894 0.6935 0.6975 0.7015
3515.000000 0.7056 0.7097 0.7137 0.7178 0.7211
3510.000000 0.7228 0.7245 0.7261 0.7294 0.7289
3505.000000 0.7289 0.7289 0.7288 0.7288 0.7280
3500.000000 0.7260 0.7240 0.7221 0.7201 0.7158
3495.000000 0.7091 0.7024 0.6958 0.6891 0.6824
3490.000000 0.6757 0.6690 0.6621 0.6555 0.6488
3485.000000 0.6421 0.6353 0.6286 0.6219 0.6151
3480.000000 0.6084 0.6016 0.5949 0.5881 0.5812
3475.000000 0.5746 0.5678 0.5610 0.5542 0.5475
3470.000000 0.5407 0.5339 0.5271 0.5203 0.5135
3465.000000 0.5067 0.4999 0.4930 0.4862 0.4794
3460.000000 0.4726 0.4657 0.4589 0.4521 0.4452
3455.000000 0.4384 0.4315 0.4249 0.4240 0.4230
3450.000000 0.4221 0.4212 0.4204 0.4203 0.4203
3445.000000 0.4202 0.4201 0.4201 0.4201 0.4201
3440.000000 0.4201 0.4201 0.4233 0.4273 0.4314
3435.000000 0.4355 0.4396 0.4457 0.4517 0.4577
3430.000000 0.4637 0.4697 0.4757 0.4817 0.4878
3425.000000 0.4938 0.4998 0.5059 0.5119 0.5179
3420.000000 0.5240 0.5300 0.5360 0.5422 0.5482
3415.000000 0.5543 0.5603 0.5664 0.5725 0.5786
3410.000000 0.5847 0.5907 0.5968 0.6029 0.6090
3405.000000 0.6151 0.6212 0.6273 0.6334 0.6396
3400.000000 0.6457 0.6518 0.6578 0.6641 0.6701
3395.000000 0.6762 0.6825 0.6886 0.6948 0.7008
3390.000000 0.7071 0.7132 0.7194 0.7255 0.7317
3385.000000 0.7378 0.7440 0.7501 0.7562 0.7625
3380.000000 0.7687 0.7749 0.7811 0.7872 0.7935
3375.000000 0.7997 0.8058 0.8095 0.8125 0.8155
3370.000000 0.8186 0.8211 0.8223 0.8235 0.8247
3365.000000 0.8259 0.8268 0.8277 0.8285 0.8293
3360.000000 0.8302 0.8313 0.8325 0.8336 0.8347
3355.000000 0.8354 0.8360 0.8366 0.8371 0.8375
3350.000000 0.8378 0.8382 0.8386 0.8389 0.8392
3345.000000 0.8395 0.8399 0.8402 0.8405 0.8407
3340.000000 0.8409 0.8410 0.8412 0.8414 0.8415
3335.000000 0.8416 0.8428 0.8418 0.8421 0.8421
3330.000000 0.8424 0.8425 0.8425 0.8425 0.8425
3325.000000 0.8425 0.8424 0.8421 0.8418 0.8415
3320.000000 0.8412 0.8394 0.8377 0.8359 0.8342
3315.000000 0.8324 0.8307 0.8289 0.8271 0.8254
3310.000000 0.8236 0.8218 0.8201 0.8184 0.8165
3305.000000 0.8149 0.8131 0.8114 0.8097 0.8081
3300.000000 0.8065 0.8049 0.8036 0.8036 0.8036
3295.000000 0.8036 0.8036 0.8036 0.8036 0.8036
3290.000000 0.8036 0.8037 0.8039 0.8042 0.8044
3285.000000 0.8048 0.8058 0.8068 0.8078 0.8088
3280.000000 0.8098 0.8108 0.8118 0.8128 0.8139
3275.000000 0.8149 0.8158 0.8168 0.8178 0.8189
3270.000000 0.8200 0.8210 0.8220 0.8230 0.8240
3265.000000 0.8250 0.8261 0.8271 0.8281 0.8291
3260.000000 0.8302 0.8312 0.8321 0.8332 0.8342
3255.000000 0.8353 0.8363 0.8373 0.8384 0.8394
3250.000000 0.8404 0.8415 0.8425 0.8435 0.8445
3245.000000 0.8456 0.8466 0.8477 0.8487 0.8498
3240.000000 0.8508 0.8518 0.8528 0.8539 0.8550
3235.000000 0.8560 0.8570 0.8581 0.8591 0.8602
3230.000000 0.8612 0.8616 0.8621 0.8625 0.8628
3225.000000 0.8628 0.8628 0.8627 0.8625 0.8625
3220.000000 0.8624 0.8623 0.8621 0.8620 0.8618
3215.000000 0.8616 0.8614 0.8612 0.8609 0.8607
3210.000000 0.8604 0.8602 0.8600 0.8598 0.8595
3205.000000 0.8593 0.8590 0.8586 0.8583 0.8578
3200.000000 0.8570 0.8560 0.8551 0.8541 0.8532
3195.000000 0.8521 0.8513 0.8503 0.8492 0.8481
3190.000000 0.8470 0.8459 0.8446 0.8432 0.8418
3185.000000 0.8404 0.8389 0.8375 0.8361 0.8346
3180.000000 0.8331 0.8314 0.8297 0.8281 0.8263
3175.000000 0.8245 0.8225 0.8208 0.8186 0.8161
3170.000000 0.8136 0.8111 0.8081 0.8045 0.8010
3165.000000 0.7975 0.7926 0.7868 0.7811 0.7753
3160.000000 0.7695 0.7637 0.7578 0.7521 0.7462
3155.000000 0.7404 0.7346 0.7288 0.7234 0.7183
3150.000000 0.7132 0.7081 0.7060 0.7058 0.7056
3145.000000 0.7053 0.7051 0.7048 0.7046 0.7043
3140.000000 0.7041 0.7039 0.7037 0.7035 0.7033
3135.000000 0.7030 0.7028 0.7025 0.7024 0.7021
3130.000000 0.7018 0.7017 0.7015 0.7012 0.7011
3125.000000 0.7008 0.7004 0.7000 0.6996 0.6992
3120.000000 0.6981 0.6971 0.6961 0.6949 0.6928
3115.000000 0.6908 0.6889 0.6857 0.6799 0.6741
3110.000000 0.6683 0.6625 0.6565 0.6505 0.6446
3105.000000 0.6386 0.6327 0.6267 0.6207 0.6148
3100.000000 0.6088 0.6028 0.5969 0.5909 0.5849
3095.000000 0.5789 0.5729 0.5669 0.5609 0.5549
3090.000000 0.5489 0.5429 0.5369 0.5308 0.5248
3085.000000 0.5188 0.5127 0.5067 0.5006 0.4946
3080.000000 0.4886 0.4826 0.4765 0.4704 0.4643
3075.000000 0.4583 0.4522 0.4460 0.4400 0.4339
3070.000000 0.4278 0.4218 0.4157 0.4096 0.4034
3065.000000 0.3973 0.3912 0.3850 0.3790 0.3728
3060.000000 0.3666 0.3606 0.3545 0.3482 0.3422
3055.000000 0.3359 0.3299 0.3237 0.3175 0.3114
3050.000000 0.3052 0.2990 0.2928 0.2867 0.2805
3045.000000 0.2743 0.2681 0.2619 0.2557 0.2495
3040.000000 0.2433 0.2370 0.2308 0.2246 0.2184
3035.000000 0.2122 0.2060 0.1996 0.1934 0.1872
3030.000000 0.1810 0.1746 0.1684 0.1621 0.1559
3025.000000 0.1496 0.1434 0.1371 0.1308 0.1245
3020.000000 0.1182 0.1124 0.1075 0.1026 0.0976
3015.000000 0.0961 0.0960 0.0959 0.0958 0.0958
3010.000000 0.0957 0.0956 0.0956 0.0956 0.0956
3005.000000 0.0956 0.0956 0.0958 0.0959 0.0960
3000.000000 0.0962 0.0964 0.0967 0.0981 0.1003
2995.000000 0.1025 0.1048 0.1078 0.1108 0.1137
2990.000000 0.1167 0.1196 0.1227 0.1257 0.1287
2985.000000 0.1317 0.1346 0.1376 0.1406 0.1437
2980.000000 0.1467 0.1496 0.1527 0.1557 0.1587
2975.000000 0.1617 0.1646 0.1677 0.1707 0.1737
2970.000000 0.1768 0.1798 0.1828 0.1858 0.1887
2965.000000 0.1915 0.1939 0.1963 0.1986 0.2020
2960.000000 0.2052 0.2084 0.2131 0.2188 0.2245
2955.000000 0.2301 0.2337 0.2373 0.2410 0.2463
2950.000000 0.2529 0.2594 0.2655 0.2674 0.2694
2945.000000 0.2713 0.2724 0.2730 0.2735 0.2742
2940.000000 0.2747 0.2753 0.2759 0.2764 0.2769
2935.000000 0.2775 0.2780 0.2784 0.2790 0.2795
2930.000000 0.2800 0.2805 0.2810 0.2844 0.2921
2925.000000 0.2998 0.3075 0.3200 0.3329 0.3456
2920.000000 0.3584 0.3712 0.3840 0.3968 0.4096
2915.000000 0.4225 0.4353 0.4481 0.4609 0.4738
2910.000000 0.4866 0.4995 0.5124 0.5252 0.5382
2905.000000 0.5510 0.5640 0.5769 0.5899 0.6028
2900.000000 0.6158 0.6287 0.6417 0.6547 0.6676
2895.000000 0.6806 0.6936 0.7054 0.7161 0.7269
2890.000000 0.7368 0.7424 0.7478 0.7534 0.7608
2885.000000 0.7687 0.7765 0.7821 0.7857 0.7893
2880.000000 0.7928 0.7962 0.7999 0.8034 0.8068
2875.000000 0.8101 0.8135 0.8165 0.8191 0.8218
2870.000000 0.8244 0.8270 0.8295 0.8321 0.8339
2865.000000 0.8358 0.8375 0.8394 0.8412 0.8430
2860.000000 0.8447 0.8462 0.8477 0.8492 0.8507
2855.000000 0.8521 0.8537 0.8553 0.8570 0.8586
2850.000000 0.8601 0.8615 0.8628 0.8639 0.8646
2845.000000 0.8653 0.8660 0.8667 0.8674 0.8681
2840.000000 0.8687 0.8692 0.8698 0.8702 0.8705
2835.000000 0.8709 0.8712 0.8716 0.8718 0.8721
2830.000000 0.8725 0.8728 0.8733 0.8734 0.8736
2825.000000 0.8738 0.8739 0.8740 0.8740 0.8741
2820.000000 0.8741 0.8741 0.8740 0.8738 0.8748
2815.000000 0.8733 0.8728 0.8723 0.8718 0.8712
2810.000000 0.8707 0.8702 0.8692 0.8682 0.8671
2805.000000 0.8662 0.8652 0.8643 0.8631 0.8620
2800.000000 0.8608 0.8594 0.8578 0.8562 0.8550
2795.000000 0.8544 0.8538 0.8533 0.8528 0.8525
2790.000000 0.8523 0.8521 0.8521 0.8520 0.8520
2785.000000 0.8520 0.8520 0.8520 0.8521 0.8521
2780.000000 0.8532 0.8544 0.8555 0.8567 0.8580
2775.000000 0.8593 0.8606 0.8620 0.8633 0.8650
2770.000000 0.8668 0.8688 0.8707 0.8725 0.8746
2765.000000 0.8763 0.8778 0.8795 0.8810 0.8825
2760.000000 0.8840 0.8855 0.8870 0.8886 0.8901
2755.000000 0.8915 0.8930 0.8945 0.8959 0.8974
2750.000000 0.8988 0.9001 0.9014 0.9025 0.9036
2745.000000 0.9045 0.9054 0.9058 0.9062 0.9066
2740.000000 0.9070 0.9074 0.9077 0.9081 0.9085
2735.000000 0.9088 0.9092 0.9096 0.9100 0.9104
2730.000000 0.9108 0.9111 0.9115 0.9118 0.9121
2725.000000 0.9125 0.9128 0.9132 0.9135 0.9137
2720.000000 0.9139 0.9142 0.9145 0.9147 0.9150
2715.000000 0.9152 0.9154 0.9155 0.9157 0.9158
2710.000000 0.9160 0.9162 0.9163 0.9165 0.9166
2705.000000 0.9167 0.9168 0.9170 0.9171 0.9173
2700.000000 0.9174 0.9175 0.9175 0.9175 0.9175
2695.000000 0.9174 0.9171 0.9168 0.9166 0.9163
2690.000000 0.9161 0.9158 0.9155 0.9152 0.9149
2685.000000 0.9147 0.9144 0.9141 0.9138 0.9136
2680.000000 0.9133 0.9130 0.9127 0.9124 0.9120
2675.000000 0.9116 0.9111 0.9109 0.9108 0.9107
2670.000000 0.9107 0.9107 0.9108 0.9108 0.9109
2665.000000 0.9110 0.9110 0.9110 0.9111 0.9111
2660.000000 0.9111 0.9112 0.9112 0.9112 0.9112
2655.000000 0.9112 0.9112 0.9112 0.9112 0.9111
2650.000000 0.9111 0.9111 0.9111 0.9111 0.9111
2645.000000 0.9110 0.9110 0.9110 0.9108 0.9107
2640.000000 0.9106 0.9104 0.9101 0.9099 0.9097
2635.000000 0.9094 0.9091 0.9086 0.9081 0.9077
2630.000000 0.9073 0.9068 0.9066 0.9065 0.9063
2625.000000 0.9062 0.9060 0.9058 0.9057 0.9056
2620.000000 0.9056 0.9057 0.9058 0.9059 0.9060
2615.000000 0.9062 0.9063 0.9064 0.9065 0.9066
2610.000000 0.9067 0.9071 0.9078 0.9085 0.9095
2605.000000 0.9106 0.9117 0.9128 0.9138 0.9148
2600.000000 0.9158 0.9167 0.9175 0.9186 0.9195
2595.000000 0.9205 0.9214 0.9224 0.9233 0.9242
2590.000000 0.9247 0.9251 0.9254 0.9258 0.9262
2585.000000 0.9266 0.9270 0.9274 0.9278 0.9282
2580.000000 0.9285 0.9290 0.9294 0.9297 0.9299
2575.000000 0.9302 0.9303 0.9304 0.9306 0.9307
2570.000000 0.9308 0.9309 0.9310 0.9310 0.9310
2565.000000 0.9309 0.9307 0.9306 0.9304 0.9303
2560.000000 0.9301 0.9300 0.9298 0.9297 0.9295
2555.000000 0.9293 0.9291 0.9290 0.9288 0.9286
2550.000000 0.9284 0.9281 0.9278 0.9275 0.9273
2545.000000 0.9270 0.9268 0.9265 0.9262 0.9259
2540.000000 0.9256 0.9253 0.9250 0.9249 0.9248
2535.000000 0.9248 0.9250 0.9251 0.9253 0.9254
2530.000000 0.9255 0.9256 0.9257 0.9258 0.9260
2525.000000 0.9261 0.9262 0.9263 0.9264 0.9266
2520.000000 0.9267 0.9268 0.9270 0.9271 0.9271
2515.000000 0.9274 0.9275 0.9275 0.9277 0.9278
2510.000000 0.9281 0.9282 0.9283 0.9284 0.9286
2505.000000 0.9288 0.9289 0.9290 0.9291 0.9292
2500.000000 0.9294 0.9295 0.9297 0.9298 0.9299
2495.000000 0.9301 0.9302 0.9304 0.9305 0.9305
2490.000000 0.9305 0.9305 0.9305 0.9306 0.9306
2485.000000 0.9306 0.9306 0.9306 0.9307 0.9307
2480.000000 0.9307 0.9307 0.9307 0.9307 0.9307
2475.000000 0.9308 0.9308 0.9308 0.9308 0.9308
2470.000000 0.9308 0.9307 0.9307 0.9306 0.9305
2465.000000 0.9304 0.9303 0.9302 0.9302 0.9301
2460.000000 0.9300 0.9299 0.9298 0.9297 0.9297
2455.000000 0.9296 0.9295 0.9293 0.9290 0.9288
2450.000000 0.9284 0.9281 0.9278 0.9274 0.9271
2445.000000 0.9268 0.9264 0.9261 0.9258 0.9255
2440.000000 0.9250 0.9245 0.9241 0.9236 0.9232
2435.000000 0.9227 0.9221 0.9218 0.9213 0.9208
2430.000000 0.9203 0.9198 0.9193 0.9189 0.9184
2425.000000 0.9180 0.9177 0.9173 0.9170 0.9166
2420.000000 0.9163 0.9160 0.9156 0.9153 0.9149
2415.000000 0.9146 0.9143 0.9140 0.9137 0.9133
2410.000000 0.9132 0.9132 0.9132 0.9132 0.9132
2405.000000 0.9132 0.9132 0.9132 0.9132 0.9132
2400.000000 0.9132 0.9132 0.9132 0.9132 0.9132
2395.000000 0.9132 0.9132 0.9132 0.9132 0.9133
2390.000000 0.9134 0.9135 0.9136 0.9138 0.9139
2385.000000 0.9140 0.9141 0.9142 0.9143 0.9144
2380.000000 0.9146 0.9147 0.9148 0.9149 0.9150
2375.000000 0.9151 0.9153 0.9154 0.9154 0.9156
2370.000000 0.9157 0.9158 0.9160 0.9161 0.9163
2365.000000 0.9165 0.9167 0.9168 0.9170 0.9171
2360.000000 0.9174 0.9175 0.9177 0.9178 0.9181
2355.000000 0.9183 0.9185 0.9187 0.9189 0.9191
2350.000000 0.9193 0.9195 0.9196 0.9199 0.9201
2345.000000 0.9205 0.9210 0.9215 0.9220 0.9225
2340.000000 0.9231 0.9236 0.9241 0.9247 0.9253
2335.000000 0.9259 0.9265 0.9270 0.9275 0.9281
2330.000000 0.9286 0.9290 0.9294 0.9299 0.9303
2325.000000 0.9307 0.9311 0.9315 0.9317 0.9320
2320.000000 0.9320 0.9321 0.9321 0.9321 0.9321
2315.000000 0.9321 0.9323 0.9323 0.9321 0.9321
2310.000000 0.9321 0.9320 0.9318 0.9318 0.9318
2305.000000 0.9318 0.9317 0.9317 0.9317 0.9317
2300.000000 0.9317 0.9321 0.9324 0.9328 0.9331
2295.000000 0.9335 0.9339 0.9343 0.9347 0.9350
2290.000000 0.9354 0.9357 0.9360 0.9362 0.9365
2285.000000 0.9368 0.9370 0.9373 0.9375 0.9378
2280.000000 0.9381 0.9383 0.9386 0.9389 0.9392
2275.000000 0.9394 0.9397 0.9400 0.9402 0.9405
2270.000000 0.9406 0.9407 0.9408 0.9409 0.9410
2265.000000 0.9411 0.9412 0.9413 0.9414 0.9415
2260.000000 0.9415 0.9415 0.9413 0.9410 0.9406
2255.000000 0.9403 0.9400 0.9396 0.9393 0.9389
2250.000000 0.9386 0.9382 0.9378 0.9374 0.9370
2245.000000 0.9366 0.9362 0.9358 0.9354 0.9351
2240.000000 0.9348 0.9346 0.9344 0.9342 0.9339
2235.000000 0.9337 0.9334 0.9332 0.9331 0.9331
2230.000000 0.9332 0.9332 0.9332 0.9332 0.9333
2225.000000 0.9333 0.9334 0.9335 0.9337 0.9340
2220.000000 0.9343 0.9346 0.9349 0.9352 0.9355
2215.000000 0.9359 0.9362 0.9365 0.9367 0.9370
2210.000000 0.9371 0.9373 0.9374 0.9375 0.9375
2205.000000 0.9377 0.9378 0.9378 0.9380 0.9382
2200.000000 0.9383 0.9384 0.9385 0.9386 0.9387
2195.000000 0.9388 0.9388 0.9388 0.9388 0.9387
2190.000000 0.9387 0.9386 0.9386 0.9386 0.9386
2185.000000 0.9385 0.9385 0.9385 0.9385 0.9384
2180.000000 0.9384 0.9383 0.9383 0.9382 0.9382
2175.000000 0.9381 0.9381 0.9380 0.9378 0.9378
2170.000000 0.9378 0.9378 0.9378 0.9378 0.9378
2165.000000 0.9380 0.9381 0.9382 0.9383 0.9384
2160.000000 0.9385 0.9386 0.9387 0.9389 0.9390
2155.000000 0.9391 0.9392 0.9393 0.9394 0.9395
2150.000000 0.9396 0.9397 0.9399 0.9401 0.9402
2145.000000 0.9404 0.9406 0.9407 0.9409 0.9411
2140.000000 0.9413 0.9415 0.9416 0.9418 0.9420
2135.000000 0.9421 0.9423 0.9425 0.9428 0.9432
2130.000000 0.9436 0.9439 0.9442 0.9446 0.9450
2125.000000 0.9453 0.9457 0.9461 0.9464 0.9468
2120.000000 0.9470 0.9471 0.9473 0.9474 0.9475
2115.000000 0.9477 0.9477 0.9478 0.9478 0.9477
2110.000000 0.9475 0.9474 0.9473 0.9471 0.9468
2105.000000 0.9468 0.9466 0.9465 0.9463 0.9462
2100.000000 0.9460 0.9458 0.9457 0.9455 0.9453
2095.000000 0.9450 0.9448 0.9446 0.9443 0.9441
2090.000000 0.9439 0.9437 0.9434 0.9432 0.9430
2085.000000 0.9427 0.9425 0.9423 0.9420 0.9418
2080.000000 0.9415 0.9413 0.9412 0.9411 0.9410
2075.000000 0.9409 0.9408 0.9407 0.9405 0.9404
2070.000000 0.9402 0.9401 0.9400 0.9399 0.9397
2065.000000 0.9396 0.9396 0.9396 0.9396 0.9397
2060.000000 0.9397 0.9397 0.9397 0.9397 0.9397
2055.000000 0.9398 0.9398 0.9398 0.9398 0.9398
2050.000000 0.9399 0.9399 0.9399 0.9399 0.9399
2045.000000 0.9400 0.9400 0.9400 0.9400 0.9400
2040.000000 0.9400 0.9400 0.9400 0.9400 0.9400
2035.000000 0.9400 0.9400 0.9400 0.9400 0.9400
2030.000000 0.9400 0.9400 0.9400 0.9400 0.9400
2025.000000 0.9400 0.9400 0.9400 0.9399 0.9398
2020.000000 0.9398 0.9398 0.9398 0.9397 0.9396
2015.000000 0.9396 0.9395 0.9395 0.9395 0.9394
2010.000000 0.9394 0.9393 0.9393 0.9393 0.9392
2005.000000 0.9392 0.9391 0.9391 0.9391 0.9390
2000.000000 0.9390 0.9389 0.9389 0.9389 0.9388
1995.000000 0.9387 0.9387 0.9387 0.9386 0.9386
1990.000000 0.9385 0.9385 0.9383 0.9382 0.9382
1985.000000 0.9381 0.9378 0.9378 0.9377 0.9377
1980.000000 0.9375 0.9374 0.9373 0.9371 0.9371
1975.000000 0.9368 0.9366 0.9363 0.9361 0.9358
1970.000000 0.9355 0.9353 0.9350 0.9348 0.9345
1965.000000 0.9342 0.9339 0.9336 0.9333 0.9330
1960.000000 0.9325 0.9323 0.9318 0.9315 0.9311
1955.000000 0.9307 0.9303 0.9299 0.9295 0.9291
1950.000000 0.9286 0.9282 0.9277 0.9271 0.9266
1945.000000 0.9261 0.9255 0.9250 0.9245 0.9240
1940.000000 0.9232 0.9225 0.9217 0.9208 0.9200
1935.000000 0.9192 0.9183 0.9174 0.9165 0.9155
1930.000000 0.9146 0.9136 0.9127 0.9116 0.9104
1925.000000 0.9090 0.9075 0.9059 0.9043 0.9027
1920.000000 0.9012 0.8995 0.8978 0.8963 0.8946
1915.000000 0.8930 0.8914 0.8898 0.8882 0.8865
1910.000000 0.8849 0.8832 0.8816 0.8799 0.8782
1905.000000 0.8763 0.8742 0.8735 0.8728 0.8723
1900.000000 0.8706 0.8720 0.8718 0.8718 0.8725
1895.000000 0.8733 0.8741 0.8749 0.8760 0.8774
1890.000000 0.8794 0.8813 0.8832 0.8851 0.8870
1885.000000 0.8888 0.8907 0.8923 0.8939 0.8955
1880.000000 0.8971 0.8988 0.9004 0.9020 0.9037
1875.000000 0.9053 0.9067 0.9083 0.9098 0.9113
1870.000000 0.9128 0.9140 0.9150 0.9157 0.9163
1865.000000 0.9170 0.9175 0.9183 0.9190 0.9197
1860.000000 0.9203 0.9210 0.9214 0.9217 0.9218
1855.000000 0.9218 0.9220 0.9221 0.9221 0.9224
1850.000000 0.9225 0.9225 0.9227 0.9228 0.9228
1845.000000 0.9228 0.9228 0.9228 0.9225 0.9225
1840.000000 0.9224 0.9223 0.9221 0.9221 0.9220
1835.000000 0.9218 0.9218 0.9218 0.9217 0.9216
1830.000000 0.9215 0.9215 0.9214 0.9213 0.9213
1825.000000 0.9213 0.9214 0.9215 0.9216 0.9217
1820.000000 0.9218 0.9218 0.9220 0.9221 0.9221
1815.000000 0.9224 0.9227 0.9230 0.9233 0.9236
1810.000000 0.9238 0.9241 0.9245 0.9249 0.9252
1805.000000 0.9255 0.9258 0.9261 0.9264 0.9268
1800.000000 0.9270 0.9271 0.9271 0.9271 0.9271
1795.000000 0.9273 0.9270 0.9265 0.9259 0.9253
1790.000000 0.9247 0.9240 0.9231 0.9218 0.9204
1785.000000 0.9189 0.9175 0.9161 0.9148 0.9135
1780.000000 0.9123 0.9110 0.9098 0.9086 0.9073
1775.000000 0.9060 0.9048 0.9036 0.9024 0.9013
1770.000000 0.9002 0.8991 0.8980 0.8970 0.8959
1765.000000 0.8948 0.8938 0.8931 0.8925 0.8918
1760.000000 0.8912 0.8906 0.8900 0.8896 0.8894
1755.000000 0.8892 0.8890 0.8888 0.8886 0.8883
1750.000000 0.8881 0.8878 0.8874 0.8868 0.8865
1745.000000 0.8861 0.8857 0.8852 0.8848 0.8844
1740.000000 0.8837 0.8830 0.8821 0.8814 0.8807
1735.000000 0.8798 0.8791 0.8783 0.8775 0.8767
1730.000000 0.8759 0.8749 0.8739 0.8730 0.8720
1725.000000 0.8710 0.8700 0.8690 0.8680 0.8668
1720.000000 0.8656 0.8643 0.8631 0.8618 0.8606
1715.000000 0.8594 0.8578 0.8564 0.8549 0.8534
1710.000000 0.8518 0.8504 0.8483 0.8458 0.8432
1705.000000 0.8406 0.8378 0.8354 0.8328 0.8300
1700.000000 0.8271 0.8242 0.8213 0.8183 0.8155
1695.000000 0.8125 0.8094 0.8060 0.8024 0.7988
1690.000000 0.7953 0.7917 0.7875 0.7834 0.7793
1685.000000 0.7751 0.7708 0.7664 0.7615 0.7568
1680.000000 0.7519 0.7472 0.7398 0.7319 0.7221
1675.000000 0.7105 0.6971 0.6601 0.5977 0.5829
1670.000000 0.5681 0.5533 0.5384 0.5235 0.5086
1665.000000 0.4938 0.4788 0.4639 0.4490 0.4340
1660.000000 0.4190 0.4040 0.3890 0.3739 0.3588
1655.000000 0.3438 0.3287 0.3134 0.2984 0.2833
1650.000000 0.2681 0.2529 0.2377 0.2224 0.2072
1645.000000 0.1920 0.1766 0.1613 0.1460 0.1307
1640.000000 0.1153 0.1000 0.0855 0.0757 0.0752
1635.000000 0.0751 0.0750 0.0749 0.0755 0.0760
1630.000000 0.0774 0.0791 0.0811 0.0856 0.0925
1625.000000 0.1013 0.1138 0.1306 0.1503 0.1701
1620.000000 0.1898 0.2096 0.2294 0.2493 0.2691
1615.000000 0.2890 0.3088 0.3288 0.3487 0.3687
1610.000000 0.3888 0.4088 0.4289 0.4489 0.4690
1605.000000 0.4891 0.5093 0.5295 0.5497 0.5776
1600.000000 0.5776 0.5777 0.5698 0.5507 0.5292
1595.000000 0.5076 0.4860 0.4643 0.4426 0.4210
1590.000000 0.3993 0.3775 0.3559 0.3409 0.3410
1585.000000 0.3412 0.3446 0.3598 0.3858 0.4119
1580.000000 0.4381 0.4643 0.4905 0.5168 0.5431
1575.000000 0.5694 0.5957 0.6184 0.6297 0.6329
1570.000000 0.6338 0.6344 0.6349 0.6355 0.6384
1565.000000 0.6358 0.6327 0.6273 0.6219 0.6165
1560.000000 0.6110 0.6057 0.6003 0.5948 0.5893
1555.000000 0.5839 0.5785 0.5730 0.5675 0.5621
1550.000000 0.5576 0.5534 0.5492 0.5449 0.5375
1545.000000 0.5267 0.5128 0.4988 0.4848 0.4709
1540.000000 0.4568 0.4428 0.4288 0.4147 0.4006
1535.000000 0.3864 0.3724 0.3582 0.3441 0.3299
1530.000000 0.3157 0.3015 0.2873 0.2730 0.2589
1525.000000 0.2488 0.2493 0.2554 0.2714 0.2894
1520.000000 0.3075 0.3256 0.3437 0.3618 0.3800
1515.000000 0.3982 0.4165 0.4348 0.4531 0.4714
1510.000000 0.4897 0.5166 0.5107 0.4960 0.4789
1505.000000 0.4618 0.4447 0.4276 0.4105 0.3932
1500.000000 0.3760 0.3590 0.3416 0.3244 0.3088
1495.000000 0.3068 0.3073 0.3108 0.3157 0.3206
1490.000000 0.3255 0.3305 0.3353 0.3403 0.3434
1485.000000 0.3426 0.3414 0.3400 0.3393 0.3390
1480.000000 0.3387 0.3384 0.3380 0.3378 0.3375
1475.000000 0.3366 0.3344 0.3303 0.3258 0.3190
1470.000000 0.3120 0.3045 0.2933 0.2961 0.2955
1465.000000 0.2954 0.2953 0.2955 0.2961 0.2979
1460.000000 0.3002 0.3035 0.3074 0.3117 0.3173
1455.000000 0.3232 0.3290 0.3348 0.3407 0.3466
1450.000000 0.3524 0.3584 0.3642 0.3676 0.3662
1445.000000 0.3686 0.3684 0.3664 0.3580 0.3464
1440.000000 0.3347 0.3229 0.3112 0.2994 0.2877
1435.000000 0.2759 0.2641 0.2523 0.2404 0.2317
1430.000000 0.2298 0.2290 0.2324 0.2553 0.2834
1425.000000 0.3118 0.3402 0.3684 0.3970 0.4254
1420.000000 0.4540 0.4825 0.5105 0.5207 0.5206
1415.000000 0.5212 0.5045 0.4812 0.4579 0.4345
1410.000000 0.4110 0.3900 0.3826 0.3832 0.3907
1405.000000 0.4257 0.4609 0.4960 0.5312 0.5665
1400.000000 0.6019 0.6373 0.6593 0.6601 0.6598
1395.000000 0.6604 0.6601 0.6544 0.6302 0.6012
1390.000000 0.5724 0.5434 0.5144 0.4854 0.4562
1385.000000 0.4271 0.3980 0.3688 0.3396 0.3103
1380.000000 0.2880 0.2828 0.2834 0.2933 0.3398
1375.000000 0.3990 0.4583 0.5176 0.5770 0.6365
1370.000000 0.6961 0.7348 0.7465 0.7590 0.7734
1365.000000 0.7851 0.7955 0.8055 0.8153 0.8228
1360.000000 0.8270 0.8300 0.8324 0.8337 0.8350
1355.000000 0.8363 0.8371 0.8378 0.8385 0.8405
1350.000000 0.8390 0.8389 0.8388 0.8381 0.8373
1345.000000 0.8366 0.8357 0.8331 0.8299 0.8267
1340.000000 0.8213 0.8135 0.8053 0.7950 0.7837
1335.000000 0.7731 0.7635 0.7542 0.7404 0.7189
1330.000000 0.6962 0.6658 0.6347 0.6036 0.5724
1325.000000 0.5410 0.5099 0.4785 0.4471 0.4158
1320.000000 0.3843 0.3528 0.3212 0.2896 0.2579
1315.000000 0.2263 0.2042 0.2011 0.1994 0.2003
1310.000000 0.2017 0.2118 0.2429 0.2755 0.3082
1305.000000 0.3409 0.3737 0.4066 0.4395 0.4725
1300.000000 0.5055 0.5385 0.5716 0.6048 0.6380
1295.000000 0.6711 0.7045 0.7218 0.7245 0.7236
1290.000000 0.7232 0.7210 0.7176 0.7131 0.7058
1285.000000 0.6825 0.6621 0.6418 0.6212 0.6009
1280.000000 0.5805 0.5599 0.5394 0.5188 0.4982
1275.000000 0.4776 0.4569 0.4380 0.4247 0.4077
1270.000000 0.3902 0.3727 0.3552 0.3376 0.3200
1265.000000 0.3033 0.2963 0.2956 0.2948 0.2980
1260.000000 0.3244 0.3914 0.4586 0.5259 0.5933
1255.000000 0.6603 0.6911 0.7111 0.7328 0.7443
1250.000000 0.7538 0.7606 0.7675 0.7743 0.7807
1245.000000 0.7864 0.7914 0.7964 0.8011 0.8056
1240.000000 0.8088 0.8118 0.8146 0.8171 0.8194
1235.000000 0.8216 0.8233 0.8249 0.8264 0.8271
1230.000000 0.8286 0.8278 0.8268 0.8258 0.8232
1225.000000 0.8204 0.8175 0.8149 0.8122 0.8095
1220.000000 0.8061 0.8025 0.7989 0.7908 0.7741
1215.000000 0.7542 0.7294 0.6991 0.6687 0.6383
1210.000000 0.6078 0.5773 0.5467 0.5228 0.5205
1205.000000 0.5192 0.5182 0.5142 0.5004 0.4867
1200.000000 0.4728 0.4589 0.4450 0.4195 0.4195
1195.000000 0.4195 0.4206 0.4309 0.4589 0.4881
1190.000000 0.5174 0.5467 0.5762 0.6056 0.6351
1185.000000 0.6646 0.6943 0.7240 0.7536 0.7749
1180.000000 0.7821 0.7878 0.7921 0.7965 0.8000
1175.000000 0.8001 0.8001 0.8018 0.8014 0.7992
1170.000000 0.7965 0.7925 0.7865 0.7760 0.7508
1165.000000 0.7275 0.7043 0.6810 0.6575 0.6343
1160.000000 0.6108 0.5873 0.5638 0.5602 0.5657
1155.000000 0.5915 0.6194 0.6472 0.6753 0.7033
1150.000000 0.7314 0.7561 0.7671 0.7768 0.7865
1145.000000 0.7965 0.8049 0.8101 0.8135 0.8168
1140.000000 0.8195 0.8209 0.8221 0.8227 0.8227
1135.000000 0.8251 0.8217 0.8211 0.8199 0.8175
1130.000000 0.8153 0.8131 0.8105 0.8055 0.7998
1125.000000 0.7941 0.7872 0.7788 0.7701 0.7611
1120.000000 0.7521 0.7412 0.7254 0.7004 0.6851
1115.000000 0.6668 0.6485 0.6302 0.6117 0.5933
1110.000000 0.5749 0.5562 0.5378 0.5192 0.5006
1105.000000 0.4862 0.4862 0.4860 0.4938 0.5076
1100.000000 0.5214 0.5354 0.5493 0.5632 0.5771
1095.000000 0.5912 0.6051 0.6191 0.6332 0.6472
1090.000000 0.6614 0.6755 0.6897 0.7039 0.7181
1085.000000 0.7322 0.7441 0.7517 0.7545 0.7561
1080.000000 0.7568 0.7575 0.7578 0.7581 0.7590
1075.000000 0.7606 0.7621 0.7654 0.7693 0.7732
1070.000000 0.7771 0.7811 0.7848 0.7882 0.7917
1065.000000 0.7944 0.7965 0.7975 0.7976 0.7988
1060.000000 0.7985 0.7980 0.7975 0.7958 0.7940
1055.000000 0.7922 0.7901 0.7871 0.7841 0.7791
1050.000000 0.7731 0.7667 0.7590 0.7510 0.7425
1045.000000 0.7348 0.7272 0.7164 0.7041 0.6965
1040.000000 0.6943 0.6938 0.6938 0.6938 0.6933
1035.000000 0.6918 0.6901 0.6878 0.6839 0.6751
1030.000000 0.6658 0.6537 0.6408 0.6280 0.6177
1025.000000 0.6173 0.6312 0.6500 0.6689 0.6878
1020.000000 0.7068 0.7258 0.7448 0.7548 0.7591
1015.000000 0.7625 0.7650 0.7660 0.7660 0.7660
1010.000000 0.7643 0.7615 0.7598 0.7588 0.7601
1005.000000 0.7657 0.7715 0.7778 0.7839 0.7899
1000.000000 0.7951 0.8001 0.8051 0.8101 0.8147
995.000000 0.8188 0.8228 0.8268 0.8301 0.8330
990.000000 0.8359 0.8382 0.8398 0.8414 0.8428
985.000000 0.8445 0.8452 0.8459 0.8466 0.8471
980.000000 0.8475 0.8480 0.8483 0.8482 0.8494
975.000000 0.8478 0.8471 0.8463 0.8455 0.8444
970.000000 0.8427 0.8410 0.8385 0.8358 0.8318
965.000000 0.8260 0.8128 0.7990 0.7858 0.7615
960.000000 0.7372 0.7128 0.6884 0.6639 0.6393
955.000000 0.6147 0.5917 0.5889 0.5969 0.6074
950.000000 0.6179 0.6285 0.6390 0.6497 0.6603
945.000000 0.6710 0.6815 0.6922 0.7030 0.7053
940.000000 0.7049 0.7046 0.7047 0.7049 0.7060
935.000000 0.7090 0.7165 0.7242 0.7331 0.7418
930.000000 0.7501 0.7574 0.7647 0.7718 0.7772
925.000000 0.7821 0.7871 0.7906 0.7935 0.7965
920.000000 0.7996 0.8012 0.8025 0.8038 0.8040
915.000000 0.8041 0.8041 0.8042 0.8043 0.8043
910.000000 0.8041 0.8098 0.8038 0.8036 0.8035
905.000000 0.8033 0.8028 0.8018 0.8010 0.8001
900.000000 0.7992 0.7983 0.7974 0.7957 0.7940
895.000000 0.7922 0.7906 0.7880 0.7850 0.7819
890.000000 0.7790 0.7760 0.7725 0.7671 0.7617
885.000000 0.7562 0.7505 0.7446 0.7386 0.7325
880.000000 0.7242 0.7154 0.7064 0.6953 0.6832
875.000000 0.6699 0.6553 0.6390 0.6208 0.6002
870.000000 0.5744 0.5433 0.5302 0.5180 0.5057
865.000000 0.4934 0.4810 0.4688 0.4564 0.4440
860.000000 0.4352 0.4275 0.4220 0.4202 0.4207
855.000000 0.4233 0.4278 0.4483 0.4838 0.5128
850.000000 0.5418 0.5710 0.6003 0.6295 0.6589
845.000000 0.6883 0.7140 0.7258 0.7364 0.7437
840.000000 0.7478 0.7511 0.7556 0.7537 0.7532
835.000000 0.7499 0.7450 0.7371 0.7285 0.7184
830.000000 0.7071 0.6964 0.6903 0.6894 0.6900
825.000000 0.6892 0.6869 0.6835 0.6755 0.6649
820.000000 0.6521 0.6343 0.6178 0.5886 0.5558
815.000000 0.5230 0.4902 0.4573 0.4242 0.3910
810.000000 0.3579 0.3247 0.2913 0.2579 0.2243
805.000000 0.1908 0.1571 0.1329 0.1213 0.1157
800.000000 0.1181 0.1209 0.1318 0.1579 0.1857
795.000000 0.2278 0.2790 0.3248 0.3707 0.4168
790.000000 0.4630 0.5093 0.5479 0.5722 0.5945
785.000000 0.6156 0.6340 0.6425 0.6471 0.6495
780.000000 0.6511 0.6519 0.6528 0.6537 0.6539
775.000000 0.6539 0.6539 0.6539 0.6535 0.6531
770.000000 0.6526 0.6521 0.6508 0.6496 0.6483
765.000000 0.6471 0.6444 0.6415 0.6388 0.6351
760.000000 0.6310 0.6269 0.6230 0.6193 0.6156
755.000000 0.6114 0.6060 0.6006 0.5947 0.5885
750.000000 0.5823 0.5759 0.5691 0.5638 0.5570
745.000000 0.5589 0.5666 0.5784 0.5922 0.6040
740.000000 0.6160 0.6324 0.6434 0.6498 0.6542
735.000000 0.6574 0.6598 0.6614 0.6626 0.6675
730.000000 0.6639 0.6638 0.6607 0.6547 0.6489
725.000000 0.6437 0.6385 0.6333 0.6281 0.6228
720.000000 0.6175 0.6123 0.6077 0.6041 0.6003
715.000000 0.5948 0.5892 0.5845 0.5805 0.5765
710.000000 0.5724 0.5685 0.5644 0.5610 0.5580
705.000000 0.5548 0.5516 0.5484 0.5453 0.5425
700.000000 0.5396 0.5368 0.5341 0.5315 0.5289
695.000000 0.5262 0.5235 0.5205 0.5176 0.5149
690.000000 0.5120 0.5092 0.5062 0.5027 0.4992
685.000000 0.4956 0.4921 0.4883 0.4844 0.4804
680.000000 0.4764 0.4724 0.4689 0.4654 0.4620
675.000000 0.4588 0.4552 0.4491 0.4420 0.4348
670.000000 0.4316 0.4293 0.4283 0.4271 0.4258
665.000000 0.4238 0.4215 0.4169 0.4090 0.4012
660.000000 0.3932 0.3866 0.3800 0.3744 0.3694
655.000000 0.3650 0.3609 0.3586 0.3566 0.3560
650.000000 0.3558 0.3537 0.3555 0.3556 0.3556
645.000000 0.3555 0.3550 0.3546 0.3541 0.3538
640.000000 0.3545 0.3553 0.3571 0.3591 0.3612
635.000000 0.3637 0.3666 0.3702 0.3753 0.3807
630.000000 0.3847 0.3866 0.3888 0.3936 0.3990
##END=
