##TITLE=Ethylamine, oxalate
##JCAMP-DX=4.24
##DATA TYPE=INFRARED SPECTRUM
##CLASS=COBLENTZ III
##ORIGIN=UNIVERSITY OF FLORIDA
##OWNER=Copyright (C) 1987 by the Coblentz Society
Collection (C) 2018 copyright by the U.S. Secretary of Commerce
on behalf of the United States of America. All rights reserved.
##DATE=1966/12/14
##MOLFORM=C6 H16 N2 O4
##SOURCE REFERENCE=COBLENTZ NO. 9955
##$NIST ID=B6009955
##$NIST SOURCE=COBLENTZ
##$NIST IMAGE=cob9955
##SPECTROMETER/DATA SYSTEM=BECKMAN IR-4 (HYBRID PRISM-GRATING)
##STATE=SOLID (KBr DISC)
##SAMPLING PROCEDURE=TRANSMISSION
##RESOLUTION=2
##DATA PROCESSING=DIGITIZED BY COBLENTZ SOCIETY (BATCH II) FROM HARD COPY
##XUNITS=1/CM
##YUNITS=TRANSMITTANCE
##XFACTOR=1.0
##YFACTOR=1
##FIRSTX=668
##LASTX=4000
##FIRSTY=0.8108
##MAXX=4000
##MINX=668
##MAXY=0.9411
##MINY=0.2092
##NPOINTS=3333
##XYDATA=(X++(Y..Y))
668.000000 0.8108 0.8175 0.8241 0.8267 0.8195
673.000000 0.8069 0.7988 0.7976 0.7966 0.7914
678.000000 0.7933 0.7919 0.7949 0.8006 0.7950
683.000000 0.7903 0.7912 0.7901 0.7915 0.7937
688.000000 0.7962 0.7986 0.8010 0.8033 0.8052
693.000000 0.8067 0.8083 0.8097 0.8110 0.8114
698.000000 0.8119 0.8123 0.8127 0.8125 0.8123
703.000000 0.8122 0.8121 0.8120 0.8120 0.8120
708.000000 0.8125 0.8133 0.8153 0.8162 0.8183
713.000000 0.8219 0.8189 0.8151 0.8120 0.8091
718.000000 0.8079 0.8073 0.8092 0.8106 0.8102
723.000000 0.8083 0.8045 0.8033 0.8031 0.8030
728.000000 0.8020 0.8003 0.7982 0.7960 0.7938
733.000000 0.7916 0.7894 0.7877 0.7831 0.7776
738.000000 0.7720 0.7668 0.7608 0.7536 0.7439
743.000000 0.7339 0.7221 0.7094 0.6944 0.6786
748.000000 0.6649 0.6421 0.6142 0.5865 0.5536
753.000000 0.5269 0.5021 0.4739 0.4339 0.3841
758.000000 0.3392 0.2931 0.2575 0.2210 0.2104
763.000000 0.2092 0.2161 0.2397 0.2817 0.3285
768.000000 0.3752 0.4216 0.4597 0.5162 0.5519
773.000000 0.5909 0.6372 0.6804 0.7163 0.7337
778.000000 0.7500 0.7618 0.7749 0.7891 0.8015
783.000000 0.8102 0.8179 0.8237 0.8267 0.8251
788.000000 0.8217 0.8161 0.8065 0.7872 0.7446
793.000000 0.6672 0.5952 0.5233 0.4522 0.4255
798.000000 0.4142 0.4158 0.4731 0.5199 0.5666
803.000000 0.6131 0.6599 0.6948 0.7284 0.7466
808.000000 0.7658 0.7851 0.7970 0.8071 0.8163
813.000000 0.8253 0.8340 0.8409 0.8466 0.8526
818.000000 0.8587 0.8640 0.8692 0.8743 0.8773
823.000000 0.8802 0.8816 0.8826 0.8832 0.8840
828.000000 0.8847 0.8854 0.8866 0.8879 0.8897
833.000000 0.8917 0.8938 0.8954 0.8970 0.8985
838.000000 0.8999 0.9002 0.9003 0.9004 0.9008
843.000000 0.9014 0.9023 0.9033 0.9042 0.9047
848.000000 0.9045 0.9035 0.9025 0.9020 0.9035
853.000000 0.9044 0.9049 0.9055 0.9060 0.9065
858.000000 0.9069 0.9070 0.9072 0.9074 0.9072
863.000000 0.9066 0.9060 0.9054 0.9047 0.9041
868.000000 0.9035 0.9031 0.9029 0.9026 0.9026
873.000000 0.9026 0.9026 0.9025 0.9024 0.9023
878.000000 0.9022 0.9024 0.9016 0.9000 0.8964
883.000000 0.8910 0.8853 0.8768 0.8751 0.8800
888.000000 0.8828 0.8860 0.8896 0.8913 0.8922
893.000000 0.8929 0.8939 0.8949 0.8958 0.8963
898.000000 0.8963 0.8959 0.8956 0.8959 0.8965
903.000000 0.8977 0.8991 0.9003 0.9014 0.9022
908.000000 0.9013 0.9001 0.8990 0.8984 0.8985
913.000000 0.8988 0.8994 0.9001 0.9009 0.9018
918.000000 0.9026 0.9032 0.9035 0.9030 0.9025
923.000000 0.9017 0.9008 0.9001 0.8993 0.8985
928.000000 0.8978 0.8967 0.8954 0.8942 0.8937
933.000000 0.8943 0.8955 0.8961 0.8965 0.8962
938.000000 0.8957 0.8949 0.8941 0.8944 0.8946
943.000000 0.8949 0.8953 0.8958 0.8965 0.8971
948.000000 0.8976 0.8980 0.8979 0.8978 0.8962
953.000000 0.8955 0.8962 0.8971 0.8981 0.8991
958.000000 0.8998 0.9004 0.9005 0.8998 0.8997
963.000000 0.9001 0.9017 0.9040 0.9048 0.9035
968.000000 0.9023 0.9010 0.8997 0.8984 0.8970
973.000000 0.8953 0.8937 0.8921 0.8905 0.8891
978.000000 0.8877 0.8864 0.8862 0.8859 0.8855
983.000000 0.8850 0.8840 0.8822 0.8791 0.8759
988.000000 0.8728 0.8704 0.8683 0.8661 0.8640
993.000000 0.8613 0.8585 0.8554 0.8523 0.8481
998.000000 0.8418 0.8345 0.8267 0.8173 0.8057
1003.000000 0.7924 0.7819 0.7685 0.7501 0.7351
1008.000000 0.7156 0.6890 0.6552 0.6159 0.5767
1013.000000 0.5085 0.4816 0.4607 0.4505 0.4464
1018.000000 0.4488 0.4676 0.5062 0.5446 0.5830
1023.000000 0.6214 0.6678 0.7256 0.7483 0.7690
1028.000000 0.7913 0.8136 0.8289 0.8402 0.8471
1033.000000 0.8536 0.8559 0.8575 0.8588 0.8599
1038.000000 0.8605 0.8620 0.8611 0.8602 0.8568
1043.000000 0.8510 0.8428 0.8340 0.8249 0.8071
1048.000000 0.7905 0.7712 0.7369 0.7005 0.6642
1053.000000 0.6280 0.5998 0.5919 0.5896 0.5908
1058.000000 0.5980 0.6298 0.6615 0.6932 0.7248
1063.000000 0.7444 0.7532 0.7703 0.7855 0.8011
1068.000000 0.8211 0.8377 0.8450 0.8508 0.8555
1073.000000 0.8586 0.8605 0.8618 0.8628 0.8638
1078.000000 0.8650 0.8666 0.8679 0.8684 0.8693
1083.000000 0.8698 0.8702 0.8705 0.8708 0.8707
1088.000000 0.8704 0.8702 0.8697 0.8691 0.8686
1093.000000 0.8681 0.8678 0.8679 0.8683 0.8688
1098.000000 0.8688 0.8687 0.8681 0.8671 0.8662
1103.000000 0.8652 0.8643 0.8636 0.8628 0.8620
1108.000000 0.8612 0.8611 0.8610 0.8610 0.8614
1113.000000 0.8619 0.8624 0.8626 0.8627 0.8621
1118.000000 0.8614 0.8604 0.8592 0.8579 0.8564
1123.000000 0.8549 0.8536 0.8549 0.8562 0.8571
1128.000000 0.8580 0.8585 0.8565 0.8543 0.8524
1133.000000 0.8512 0.8510 0.8508 0.8506 0.8506
1138.000000 0.8506 0.8507 0.8508 0.8509 0.8511
1143.000000 0.8513 0.8516 0.8518 0.8515 0.8505
1148.000000 0.8487 0.8466 0.8447 0.8431 0.8427
1153.000000 0.8424 0.8422 0.8421 0.8420 0.8420
1158.000000 0.8419 0.8419 0.8416 0.8413 0.8411
1163.000000 0.8408 0.8403 0.8396 0.8379 0.8349
1168.000000 0.8316 0.8302 0.8301 0.8309 0.8316
1173.000000 0.8329 0.8341 0.8340 0.8337 0.8334
1178.000000 0.8325 0.8317 0.8308 0.8298 0.8283
1183.000000 0.8268 0.8252 0.8237 0.8221 0.8204
1188.000000 0.8187 0.8171 0.8154 0.8134 0.8114
1193.000000 0.8093 0.8073 0.8052 0.8031 0.8010
1198.000000 0.7989 0.7968 0.7947 0.7927 0.7906
1203.000000 0.7885 0.7864 0.7844 0.7819 0.7791
1208.000000 0.7763 0.7736 0.7707 0.7674 0.7634
1213.000000 0.7594 0.7554 0.7514 0.7473 0.7428
1218.000000 0.7381 0.7335 0.7289 0.7239 0.7172
1223.000000 0.7103 0.7033 0.6947 0.6857 0.6778
1228.000000 0.6701 0.6619 0.6497 0.6354 0.6270
1233.000000 0.6262 0.6238 0.6270 0.6280 0.6323
1238.000000 0.6387 0.6430 0.6461 0.6473 0.6478
1243.000000 0.6482 0.6497 0.6541 0.6614 0.6682
1248.000000 0.6741 0.6796 0.6839 0.6860 0.6831
1253.000000 0.6856 0.6807 0.6743 0.6693 0.6649
1258.000000 0.6608 0.6568 0.6527 0.6483 0.6438
1263.000000 0.6390 0.6325 0.6177 0.6068 0.5990
1268.000000 0.5913 0.5834 0.5751 0.5614 0.5521
1273.000000 0.5428 0.5336 0.5244 0.5151 0.5059
1278.000000 0.4967 0.4775 0.4575 0.4401 0.4251
1283.000000 0.4146 0.4021 0.3841 0.3704 0.3512
1288.000000 0.3346 0.3239 0.3126 0.3002 0.2888
1293.000000 0.2804 0.2724 0.2679 0.2634 0.2586
1298.000000 0.2527 0.2466 0.2414 0.2373 0.2351
1303.000000 0.2337 0.2333 0.2338 0.2340 0.2388
1308.000000 0.2455 0.2662 0.2893 0.3071 0.3246
1313.000000 0.3422 0.3598 0.3773 0.3948 0.4123
1318.000000 0.4298 0.4472 0.4646 0.4820 0.4994
1323.000000 0.5166 0.5339 0.5513 0.5658 0.5749
1328.000000 0.5847 0.5958 0.6031 0.6058 0.6068
1333.000000 0.6074 0.6075 0.6086 0.6007 0.5936
1338.000000 0.5860 0.5803 0.5674 0.5546 0.5455
1343.000000 0.5329 0.5067 0.4836 0.4557 0.4338
1348.000000 0.4108 0.3877 0.3695 0.3639 0.3617
1353.000000 0.3613 0.3623 0.3661 0.3728 0.3847
1358.000000 0.3968 0.4087 0.4207 0.4327 0.4446
1363.000000 0.4566 0.4684 0.4803 0.4979 0.5054
1368.000000 0.5087 0.5108 0.5124 0.5118 0.5096
1373.000000 0.5054 0.5005 0.4953 0.4910 0.4892
1378.000000 0.4922 0.5092 0.5286 0.5479 0.5673
1383.000000 0.5865 0.6057 0.6250 0.6387 0.6391
1388.000000 0.6393 0.6391 0.6387 0.6379 0.6369
1393.000000 0.6364 0.6412 0.6557 0.6632 0.6669
1398.000000 0.6705 0.6741 0.6811 0.6893 0.6978
1403.000000 0.7036 0.7089 0.7141 0.7192 0.7234
1408.000000 0.7263 0.7292 0.7314 0.7330 0.7339
1413.000000 0.7350 0.7336 0.7332 0.7326 0.7317
1418.000000 0.7303 0.7286 0.7270 0.7254 0.7239
1423.000000 0.7223 0.7206 0.7187 0.7167 0.7147
1428.000000 0.7133 0.7120 0.7108 0.7092 0.7070
1433.000000 0.7050 0.7028 0.7006 0.6984 0.6961
1438.000000 0.6938 0.6916 0.6892 0.6868 0.6842
1443.000000 0.6808 0.6763 0.6716 0.6663 0.6611
1448.000000 0.6563 0.6516 0.6470 0.6423 0.6374
1453.000000 0.6324 0.6274 0.6229 0.6189 0.6149
1458.000000 0.6101 0.6031 0.5993 0.6009 0.5991
1463.000000 0.5995 0.6005 0.6015 0.6027 0.6043
1468.000000 0.6063 0.6082 0.6101 0.6110 0.6112
1473.000000 0.6114 0.6115 0.6117 0.6117 0.6117
1478.000000 0.6115 0.6121 0.6085 0.6002 0.5896
1483.000000 0.5788 0.5681 0.5574 0.5467 0.5377
1488.000000 0.5310 0.5286 0.5284 0.5284 0.5273
1493.000000 0.5300 0.5317 0.5339 0.5379 0.5428
1498.000000 0.5495 0.5515 0.5515 0.5513 0.5508
1503.000000 0.5502 0.5526 0.5489 0.5480 0.5470
1508.000000 0.5460 0.5450 0.5440 0.5429 0.5415
1513.000000 0.5400 0.5384 0.5364 0.5340 0.5312
1518.000000 0.5275 0.5236 0.5186 0.5120 0.5092
1523.000000 0.5069 0.5049 0.5030 0.5011 0.4991
1528.000000 0.4972 0.4949 0.4921 0.4839 0.4753
1533.000000 0.4677 0.4602 0.4531 0.4460 0.4380
1538.000000 0.4281 0.4189 0.4108 0.4025 0.3935
1543.000000 0.3886 0.3851 0.3828 0.3813 0.3798
1548.000000 0.3783 0.3763 0.3742 0.3707 0.3659
1553.000000 0.3595 0.3512 0.3428 0.3363 0.3299
1558.000000 0.3233 0.3170 0.3128 0.3101 0.3081
1563.000000 0.3065 0.3053 0.3039 0.3005 0.2936
1568.000000 0.2866 0.2819 0.2780 0.2741 0.2701
1573.000000 0.2663 0.2629 0.2597 0.2561 0.2522
1578.000000 0.2482 0.2441 0.2405 0.2372 0.2340
1583.000000 0.2311 0.2288 0.2267 0.2251 0.2240
1588.000000 0.2231 0.2232 0.2223 0.2246 0.2258
1593.000000 0.2273 0.2288 0.2304 0.2328 0.2359
1598.000000 0.2395 0.2435 0.2476 0.2515 0.2553
1603.000000 0.2591 0.2628 0.2660 0.2685 0.2701
1608.000000 0.2705 0.2705 0.2704 0.2702 0.2701
1613.000000 0.2699 0.2698 0.2698 0.2702 0.2714
1618.000000 0.2728 0.2745 0.2763 0.2783 0.2806
1623.000000 0.2831 0.2855 0.2867 0.2870 0.2872
1628.000000 0.2891 0.2858 0.2826 0.2779 0.2735
1633.000000 0.2694 0.2655 0.2619 0.2584 0.2550
1638.000000 0.2517 0.2491 0.2471 0.2445 0.2411
1643.000000 0.2377 0.2348 0.2325 0.2312 0.2304
1648.000000 0.2298 0.2297 0.2297 0.2304 0.2300
1653.000000 0.2302 0.2307 0.2314 0.2323 0.2332
1658.000000 0.2343 0.2357 0.2374 0.2392 0.2409
1663.000000 0.2425 0.2441 0.2456 0.2472 0.2488
1668.000000 0.2505 0.2529 0.2554 0.2579 0.2603
1673.000000 0.2628 0.2652 0.2677 0.2701 0.2727
1678.000000 0.2754 0.2782 0.2810 0.2840 0.2870
1683.000000 0.2901 0.2931 0.2962 0.3001 0.3069
1688.000000 0.3142 0.3190 0.3236 0.3282 0.3323
1693.000000 0.3360 0.3397 0.3433 0.3469 0.3508
1698.000000 0.3548 0.3588 0.3627 0.3667 0.3707
1703.000000 0.3747 0.3787 0.3829 0.3871 0.3912
1708.000000 0.3953 0.3995 0.4036 0.4078 0.4119
1713.000000 0.4160 0.4220 0.4286 0.4321 0.4356
1718.000000 0.4391 0.4426 0.4461 0.4496 0.4532
1723.000000 0.4566 0.4603 0.4643 0.4684 0.4725
1728.000000 0.4773 0.4835 0.4898 0.4949 0.4990
1733.000000 0.5027 0.5063 0.5100 0.5136 0.5183
1738.000000 0.5231 0.5271 0.5300 0.5327 0.5352
1743.000000 0.5379 0.5404 0.5430 0.5454 0.5478
1748.000000 0.5502 0.5525 0.5548 0.5572 0.5595
1753.000000 0.5619 0.5642 0.5666 0.5689 0.5713
1758.000000 0.5736 0.5760 0.5783 0.5807 0.5830
1763.000000 0.5851 0.5872 0.5893 0.5913 0.5934
1768.000000 0.5955 0.5976 0.5996 0.6016 0.6037
1773.000000 0.6059 0.6082 0.6106 0.6129 0.6152
1778.000000 0.6175 0.6199 0.6226 0.6255 0.6284
1783.000000 0.6313 0.6341 0.6370 0.6399 0.6428
1788.000000 0.6458 0.6490 0.6522 0.6553 0.6585
1793.000000 0.6616 0.6645 0.6671 0.6697 0.6723
1798.000000 0.6749 0.6775 0.6800 0.6826 0.6847
1803.000000 0.6867 0.6886 0.6905 0.6925 0.6944
1808.000000 0.6963 0.6982 0.7001 0.7017 0.7032
1813.000000 0.7045 0.7058 0.7071 0.7083 0.7096
1818.000000 0.7109 0.7121 0.7134 0.7147 0.7159
1823.000000 0.7174 0.7190 0.7209 0.7229 0.7247
1828.000000 0.7267 0.7286 0.7304 0.7323 0.7341
1833.000000 0.7357 0.7373 0.7388 0.7403 0.7418
1838.000000 0.7434 0.7449 0.7464 0.7479 0.7494
1843.000000 0.7508 0.7522 0.7535 0.7549 0.7563
1848.000000 0.7576 0.7590 0.7604 0.7617 0.7631
1853.000000 0.7644 0.7658 0.7671 0.7685 0.7701
1858.000000 0.7717 0.7733 0.7749 0.7764 0.7780
1863.000000 0.7796 0.7813 0.7833 0.7854 0.7875
1868.000000 0.7901 0.7930 0.7961 0.7981 0.7992
1873.000000 0.8000 0.8008 0.8016 0.8024 0.8032
1878.000000 0.8040 0.8049 0.8058 0.8067 0.8076
1883.000000 0.8085 0.8094 0.8102 0.8110 0.8118
1888.000000 0.8125 0.8131 0.8138 0.8145 0.8151
1893.000000 0.8158 0.8165 0.8172 0.8180 0.8188
1898.000000 0.8197 0.8206 0.8214 0.8223 0.8232
1903.000000 0.8240 0.8249 0.8257 0.8267 0.8278
1908.000000 0.8291 0.8303 0.8315 0.8328 0.8341
1913.000000 0.8353 0.8366 0.8378 0.8389 0.8400
1918.000000 0.8410 0.8421 0.8431 0.8440 0.8448
1923.000000 0.8453 0.8458 0.8463 0.8467 0.8473
1928.000000 0.8478 0.8482 0.8488 0.8494 0.8502
1933.000000 0.8509 0.8516 0.8523 0.8530 0.8537
1938.000000 0.8545 0.8553 0.8563 0.8575 0.8587
1943.000000 0.8599 0.8611 0.8621 0.8630 0.8636
1948.000000 0.8643 0.8649 0.8656 0.8663 0.8669
1953.000000 0.8675 0.8681 0.8686 0.8692 0.8697
1958.000000 0.8704 0.8713 0.8723 0.8734 0.8745
1963.000000 0.8760 0.8777 0.8787 0.8792 0.8794
1968.000000 0.8795 0.8796 0.8797 0.8798 0.8798
1973.000000 0.8798 0.8799 0.8799 0.8799 0.8829
1978.000000 0.8799 0.8799 0.8800 0.8799 0.8799
1983.000000 0.8798 0.8796 0.8794 0.8793 0.8791
1988.000000 0.8789 0.8787 0.8785 0.8782 0.8779
1993.000000 0.8774 0.8769 0.8764 0.8762 0.8759
1998.000000 0.8758 0.8757 0.8756 0.8754 0.8754
2003.000000 0.8755 0.8757 0.8759 0.8761 0.8764
2008.000000 0.8766 0.8769 0.8772 0.8776 0.8779
2013.000000 0.8783 0.8786 0.8787 0.8787 0.8786
2018.000000 0.8785 0.8784 0.8782 0.8779 0.8775
2023.000000 0.8771 0.8768 0.8761 0.8753 0.8738
2028.000000 0.8721 0.8703 0.8686 0.8670 0.8651
2033.000000 0.8631 0.8610 0.8589 0.8567 0.8543
2038.000000 0.8517 0.8489 0.8462 0.8435 0.8411
2043.000000 0.8390 0.8370 0.8353 0.8334 0.8308
2048.000000 0.8277 0.8240 0.8197 0.8155 0.8129
2053.000000 0.8115 0.8113 0.8113 0.8115 0.8115
2058.000000 0.8115 0.8114 0.8109 0.8104 0.8098
2063.000000 0.8091 0.8083 0.8072 0.8060 0.8047
2068.000000 0.8034 0.8022 0.8010 0.7998 0.7985
2073.000000 0.7970 0.7953 0.7940 0.7934 0.7928
2078.000000 0.7921 0.7916 0.7910 0.7908 0.7906
2083.000000 0.7905 0.7904 0.7904 0.7904 0.7905
2088.000000 0.7905 0.7906 0.7906 0.7907 0.7907
2093.000000 0.7909 0.7891 0.7914 0.7917 0.7920
2098.000000 0.7923 0.7926 0.7930 0.7934 0.7939
2103.000000 0.7945 0.7950 0.7956 0.7961 0.7966
2108.000000 0.7971 0.7978 0.7986 0.7994 0.8003
2113.000000 0.8010 0.8019 0.8027 0.8034 0.8041
2118.000000 0.8048 0.8055 0.8062 0.8068 0.8075
2123.000000 0.8082 0.8088 0.8097 0.8107 0.8116
2128.000000 0.8126 0.8135 0.8145 0.8155 0.8164
2133.000000 0.8174 0.8185 0.8196 0.8208 0.8220
2138.000000 0.8233 0.8245 0.8258 0.8279 0.8304
2143.000000 0.8330 0.8356 0.8378 0.8399 0.8417
2148.000000 0.8436 0.8454 0.8472 0.8489 0.8505
2153.000000 0.8519 0.8533 0.8546 0.8560 0.8574
2158.000000 0.8587 0.8601 0.8615 0.8629 0.8642
2163.000000 0.8655 0.8669 0.8682 0.8694 0.8706
2168.000000 0.8718 0.8732 0.8746 0.8762 0.8779
2173.000000 0.8797 0.8814 0.8831 0.8848 0.8865
2178.000000 0.8882 0.8898 0.8915 0.8932 0.8947
2183.000000 0.8960 0.8973 0.8985 0.8996 0.9008
2188.000000 0.9019 0.9029 0.9036 0.9042 0.9048
2193.000000 0.9055 0.9061 0.9067 0.9073 0.9080
2198.000000 0.9086 0.9092 0.9097 0.9103 0.9110
2203.000000 0.9116 0.9123 0.9129 0.9135 0.9141
2208.000000 0.9148 0.9154 0.9161 0.9166 0.9169
2213.000000 0.9172 0.9174 0.9176 0.9179 0.9181
2218.000000 0.9183 0.9185 0.9187 0.9189 0.9191
2223.000000 0.9200 0.9211 0.9224 0.9236 0.9249
2228.000000 0.9262 0.9270 0.9276 0.9280 0.9285
2233.000000 0.9289 0.9293 0.9304 0.9299 0.9296
2238.000000 0.9291 0.9287 0.9282 0.9278 0.9273
2243.000000 0.9269 0.9264 0.9255 0.9245 0.9235
2248.000000 0.9224 0.9213 0.9203 0.9195 0.9188
2253.000000 0.9182 0.9177 0.9173 0.9169 0.9166
2258.000000 0.9164 0.9162 0.9160 0.9159 0.9158
2263.000000 0.9157 0.9156 0.9155 0.9153 0.9151
2268.000000 0.9149 0.9147 0.9145 0.9144 0.9143
2273.000000 0.9126 0.9143 0.9143 0.9143 0.9143
2278.000000 0.9143 0.9143 0.9144 0.9145 0.9150
2283.000000 0.9155 0.9160 0.9165 0.9171 0.9176
2288.000000 0.9182 0.9188 0.9194 0.9201 0.9207
2293.000000 0.9214 0.9220 0.9226 0.9233 0.9241
2298.000000 0.9249 0.9258 0.9267 0.9272 0.9277
2303.000000 0.9281 0.9284 0.9287 0.9291 0.9293
2308.000000 0.9294 0.9295 0.9296 0.9297 0.9297
2313.000000 0.9298 0.9299 0.9300 0.9301 0.9302
2318.000000 0.9302 0.9303 0.9304 0.9304 0.9305
2323.000000 0.9306 0.9307 0.9308 0.9309 0.9310
2328.000000 0.9311 0.9312 0.9313 0.9313 0.9314
2333.000000 0.9317 0.9320 0.9325 0.9330 0.9335
2338.000000 0.9340 0.9346 0.9351 0.9356 0.9361
2343.000000 0.9366 0.9371 0.9376 0.9382 0.9387
2348.000000 0.9393 0.9399 0.9404 0.9407 0.9411
2353.000000 0.9411 0.9411 0.9398 0.9411 0.9410
2358.000000 0.9410 0.9409 0.9408 0.9407 0.9406
2363.000000 0.9405 0.9403 0.9401 0.9398 0.9396
2368.000000 0.9393 0.9391 0.9389 0.9386 0.9383
2373.000000 0.9380 0.9377 0.9372 0.9366 0.9359
2378.000000 0.9350 0.9338 0.9319 0.9300 0.9283
2383.000000 0.9267 0.9243 0.9217 0.9194 0.9176
2388.000000 0.9159 0.9141 0.9124 0.9102 0.9081
2393.000000 0.9057 0.9032 0.9006 0.8978 0.8950
2398.000000 0.8924 0.8898 0.8881 0.8866 0.8850
2403.000000 0.8835 0.8820 0.8805 0.8790 0.8774
2408.000000 0.8758 0.8742 0.8727 0.8711 0.8694
2413.000000 0.8678 0.8661 0.8644 0.8627 0.8610
2418.000000 0.8594 0.8583 0.8571 0.8560 0.8549
2423.000000 0.8538 0.8527 0.8517 0.8505 0.8494
2428.000000 0.8480 0.8466 0.8452 0.8439 0.8425
2433.000000 0.8412 0.8398 0.8384 0.8370 0.8356
2438.000000 0.8340 0.8324 0.8308 0.8292 0.8276
2443.000000 0.8259 0.8243 0.8227 0.8210 0.8190
2448.000000 0.8170 0.8146 0.8120 0.8093 0.8066
2453.000000 0.8040 0.8015 0.7993 0.7970 0.7949
2458.000000 0.7928 0.7907 0.7886 0.7865 0.7844
2463.000000 0.7823 0.7804 0.7786 0.7768 0.7750
2468.000000 0.7732 0.7714 0.7696 0.7678 0.7659
2473.000000 0.7641 0.7625 0.7609 0.7592 0.7576
2478.000000 0.7560 0.7543 0.7526 0.7510 0.7494
2483.000000 0.7477 0.7461 0.7445 0.7429 0.7413
2488.000000 0.7397 0.7381 0.7365 0.7349 0.7334
2493.000000 0.7318 0.7302 0.7287 0.7271 0.7255
2498.000000 0.7239 0.7223 0.7208 0.7192 0.7176
2503.000000 0.7160 0.7144 0.7129 0.7112 0.7095
2508.000000 0.7077 0.7056 0.7035 0.7015 0.6994
2513.000000 0.6974 0.6953 0.6932 0.6906 0.6879
2518.000000 0.6852 0.6825 0.6798 0.6769 0.6740
2523.000000 0.6706 0.6659 0.6612 0.6560 0.6505
2528.000000 0.6449 0.6388 0.6326 0.6264 0.6202
2533.000000 0.6140 0.6079 0.6018 0.5957 0.5896
2538.000000 0.5835 0.5774 0.5713 0.5652 0.5592
2543.000000 0.5531 0.5470 0.5410 0.5350 0.5289
2548.000000 0.5229 0.5168 0.5108 0.5048 0.5003
2553.000000 0.4959 0.4922 0.4896 0.4870 0.4847
2558.000000 0.4826 0.4806 0.4786 0.4767 0.4736
2563.000000 0.4695 0.4654 0.4618 0.4582 0.4554
2568.000000 0.4544 0.4533 0.4527 0.4526 0.4525
2573.000000 0.4530 0.4536 0.4557 0.4611 0.4664
2578.000000 0.4722 0.4781 0.4840 0.4898 0.4957
2583.000000 0.5015 0.5074 0.5132 0.5191 0.5249
2588.000000 0.5308 0.5356 0.5405 0.5443 0.5461
2593.000000 0.5479 0.5494 0.5507 0.5521 0.5538
2598.000000 0.5556 0.5573 0.5587 0.5600 0.5611
2603.000000 0.5619 0.5627 0.5629 0.5631 0.5632
2608.000000 0.5633 0.5634 0.5635 0.5635 0.5635
2613.000000 0.5634 0.5633 0.5632 0.5628 0.5624
2618.000000 0.5643 0.5608 0.5597 0.5582 0.5561
2623.000000 0.5540 0.5518 0.5497 0.5476 0.5454
2628.000000 0.5433 0.5412 0.5391 0.5370 0.5349
2633.000000 0.5330 0.5311 0.5297 0.5284 0.5272
2638.000000 0.5261 0.5249 0.5237 0.5223 0.5208
2643.000000 0.5194 0.5181 0.5168 0.5157 0.5148
2648.000000 0.5138 0.5129 0.5119 0.5110 0.5101
2653.000000 0.5092 0.5083 0.5074 0.5064 0.5055
2658.000000 0.5046 0.5037 0.5028 0.5020 0.5012
2663.000000 0.5004 0.4996 0.4988 0.4981 0.4974
2668.000000 0.4966 0.4962 0.4957 0.4953 0.4950
2673.000000 0.4947 0.4944 0.4943 0.4942 0.4941
2678.000000 0.4940 0.4938 0.4937 0.4935 0.4933
2683.000000 0.4931 0.4930 0.4928 0.4926 0.4925
2688.000000 0.4923 0.4921 0.4920 0.4919 0.4917
2693.000000 0.4916 0.4914 0.4913 0.4912 0.4910
2698.000000 0.4909 0.4908 0.4906 0.4905 0.4904
2703.000000 0.4903 0.4901 0.4899 0.4897 0.4895
2708.000000 0.4893 0.4890 0.4888 0.4886 0.4881
2713.000000 0.4875 0.4868 0.4862 0.4855 0.4849
2718.000000 0.4834 0.4812 0.4791 0.4767 0.4742
2723.000000 0.4717 0.4692 0.4667 0.4643 0.4618
2728.000000 0.4593 0.4569 0.4544 0.4519 0.4494
2733.000000 0.4470 0.4446 0.4421 0.4396 0.4372
2738.000000 0.4347 0.4322 0.4298 0.4273 0.4249
2743.000000 0.4225 0.4200 0.4176 0.4151 0.4127
2748.000000 0.4102 0.4078 0.4053 0.4029 0.4005
2753.000000 0.3981 0.3957 0.3932 0.3908 0.3884
2758.000000 0.3860 0.3836 0.3811 0.3787 0.3763
2763.000000 0.3741 0.3722 0.3702 0.3683 0.3664
2768.000000 0.3646 0.3624 0.3599 0.3573 0.3546
2773.000000 0.3515 0.3484 0.3456 0.3433 0.3411
2778.000000 0.3391 0.3382 0.3372 0.3362 0.3354
2783.000000 0.3345 0.3336 0.3333 0.3331 0.3328
2788.000000 0.3326 0.3324 0.3323 0.3323 0.3324
2793.000000 0.3325 0.3329 0.3349 0.3364 0.3381
2798.000000 0.3401 0.3421 0.3440 0.3460 0.3479
2803.000000 0.3499 0.3518 0.3537 0.3557 0.3576
2808.000000 0.3596 0.3616 0.3632 0.3649 0.3666
2813.000000 0.3675 0.3683 0.3691 0.3695 0.3698
2818.000000 0.3701 0.3703 0.3704 0.3706 0.3707
2823.000000 0.3707 0.3707 0.3707 0.3705 0.3703
2828.000000 0.3702 0.3696 0.3691 0.3686 0.3674
2833.000000 0.3659 0.3644 0.3630 0.3615 0.3600
2838.000000 0.3586 0.3571 0.3557 0.3542 0.3528
2843.000000 0.3513 0.3499 0.3486 0.3475 0.3463
2848.000000 0.3454 0.3446 0.3438 0.3431 0.3425
2853.000000 0.3418 0.3412 0.3407 0.3402 0.3397
2858.000000 0.3393 0.3390 0.3386 0.3383 0.3379
2863.000000 0.3376 0.3373 0.3371 0.3369 0.3366
2868.000000 0.3365 0.3363 0.3361 0.3359 0.3358
2873.000000 0.3356 0.3355 0.3354 0.3353 0.3351
2878.000000 0.3351 0.3351 0.3351 0.3351 0.3351
2883.000000 0.3351 0.3350 0.3350 0.3350 0.3350
2888.000000 0.3350 0.3350 0.3350 0.3350 0.3350
2893.000000 0.3350 0.3350 0.3350 0.3351 0.3352
2898.000000 0.3353 0.3353 0.3354 0.3355 0.3356
2903.000000 0.3356 0.3357 0.3359 0.3360 0.3362
2908.000000 0.3363 0.3365 0.3367 0.3369 0.3371
2913.000000 0.3374 0.3376 0.3379 0.3381 0.3384
2918.000000 0.3387 0.3390 0.3393 0.3395 0.3397
2923.000000 0.3399 0.3402 0.3402 0.3403 0.3403
2928.000000 0.3404 0.3404 0.3404 0.3404 0.3402
2933.000000 0.3401 0.3399 0.3397 0.3394 0.3392
2938.000000 0.3390 0.3387 0.3384 0.3381 0.3377
2943.000000 0.3373 0.3369 0.3364 0.3357 0.3350
2948.000000 0.3343 0.3335 0.3327 0.3319 0.3309
2953.000000 0.3297 0.3285 0.3273 0.3260 0.3247
2958.000000 0.3234 0.3221 0.3208 0.3195 0.3182
2963.000000 0.3174 0.3166 0.3159 0.3152 0.3145
2968.000000 0.3137 0.3130 0.3123 0.3116 0.3109
2973.000000 0.3102 0.3095 0.3087 0.3080 0.3073
2978.000000 0.3065 0.3058 0.3050 0.3042 0.3033
2983.000000 0.3025 0.3015 0.3005 0.2994 0.2984
2988.000000 0.2971 0.2959 0.2947 0.2935 0.2923
2993.000000 0.2911 0.2900 0.2893 0.2887 0.2880
2998.000000 0.2874 0.2868 0.2862 0.2856 0.2849
3003.000000 0.2843 0.2837 0.2830 0.2825 0.2819
3008.000000 0.2814 0.2810 0.2807 0.2804 0.2801
3013.000000 0.2798 0.2795 0.2792 0.2789 0.2786
3018.000000 0.2782 0.2779 0.2776 0.2773 0.2770
3023.000000 0.2767 0.2766 0.2764 0.2763 0.2761
3028.000000 0.2759 0.2758 0.2756 0.2755 0.2753
3033.000000 0.2752 0.2750 0.2749 0.2748 0.2747
3038.000000 0.2746 0.2745 0.2745 0.2744 0.2743
3043.000000 0.2742 0.2741 0.2740 0.2738 0.2737
3048.000000 0.2736 0.2735 0.2735 0.2734 0.2733
3053.000000 0.2732 0.2731 0.2730 0.2730 0.2729
3058.000000 0.2728 0.2727 0.2726 0.2726 0.2725
3063.000000 0.2725 0.2724 0.2724 0.2723 0.2723
3068.000000 0.2722 0.2721 0.2720 0.2720 0.2720
3073.000000 0.2720 0.2720 0.2720 0.2721 0.2721
3078.000000 0.2721 0.2723 0.2722 0.2722 0.2722
3083.000000 0.2723 0.2725 0.2726 0.2728 0.2730
3088.000000 0.2731 0.2733 0.2735 0.2740 0.2746
3093.000000 0.2751 0.2757 0.2765 0.2774 0.2782
3098.000000 0.2791 0.2801 0.2812 0.2823 0.2833
3103.000000 0.2841 0.2849 0.2858 0.2866 0.2875
3108.000000 0.2884 0.2893 0.2903 0.2914 0.2924
3113.000000 0.2935 0.2945 0.2956 0.2966 0.2976
3118.000000 0.2987 0.2997 0.3008 0.3018 0.3029
3123.000000 0.3039 0.3049 0.3060 0.3070 0.3080
3128.000000 0.3091 0.3101 0.3112 0.3122 0.3132
3133.000000 0.3142 0.3152 0.3163 0.3173 0.3183
3138.000000 0.3193 0.3204 0.3214 0.3225 0.3235
3143.000000 0.3245 0.3255 0.3265 0.3275 0.3286
3148.000000 0.3296 0.3306 0.3316 0.3327 0.3337
3153.000000 0.3347 0.3357 0.3367 0.3377 0.3387
3158.000000 0.3396 0.3406 0.3415 0.3425 0.3435
3163.000000 0.3444 0.3454 0.3464 0.3474 0.3484
3168.000000 0.3494 0.3504 0.3514 0.3524 0.3534
3173.000000 0.3544 0.3554 0.3563 0.3573 0.3583
3178.000000 0.3591 0.3600 0.3608 0.3616 0.3624
3183.000000 0.3633 0.3641 0.3649 0.3657 0.3666
3188.000000 0.3674 0.3683 0.3692 0.3701 0.3711
3193.000000 0.3721 0.3734 0.3747 0.3760 0.3773
3198.000000 0.3785 0.3797 0.3808 0.3820 0.3828
3203.000000 0.3835 0.3842 0.3850 0.3857 0.3864
3208.000000 0.3871 0.3878 0.3885 0.3892 0.3899
3213.000000 0.3906 0.3913 0.3921 0.3928 0.3936
3218.000000 0.3945 0.3956 0.3967 0.3977 0.3988
3223.000000 0.3999 0.4010 0.4021 0.4032 0.4042
3228.000000 0.4053 0.4064 0.4075 0.4088 0.4101
3233.000000 0.4114 0.4127 0.4143 0.4159 0.4174
3238.000000 0.4190 0.4206 0.4222 0.4238 0.4254
3243.000000 0.4271 0.4289 0.4307 0.4325 0.4343
3248.000000 0.4360 0.4377 0.4394 0.4411 0.4428
3253.000000 0.4444 0.4461 0.4478 0.4493 0.4509
3258.000000 0.4524 0.4539 0.4551 0.4560 0.4570
3263.000000 0.4580 0.4589 0.4599 0.4608 0.4617
3268.000000 0.4627 0.4636 0.4646 0.4656 0.4665
3273.000000 0.4675 0.4684 0.4694 0.4703 0.4713
3278.000000 0.4722 0.4732 0.4741 0.4751 0.4759
3283.000000 0.4767 0.4775 0.4783 0.4791 0.4799
3288.000000 0.4807 0.4815 0.4823 0.4830 0.4838
3293.000000 0.4846 0.4854 0.4862 0.4870 0.4877
3298.000000 0.4885 0.4893 0.4901 0.4909 0.4917
3303.000000 0.4924 0.4932 0.4940 0.4948 0.4957
3308.000000 0.4966 0.4975 0.4985 0.4994 0.5005
3313.000000 0.5016 0.5026 0.5037 0.5048 0.5059
3318.000000 0.5070 0.5080 0.5091 0.5102 0.5113
3323.000000 0.5124 0.5134 0.5145 0.5156 0.5166
3328.000000 0.5177 0.5188 0.5198 0.5209 0.5220
3333.000000 0.5231 0.5241 0.5252 0.5262 0.5272
3338.000000 0.5283 0.5293 0.5303 0.5314 0.5324
3343.000000 0.5334 0.5344 0.5354 0.5364 0.5374
3348.000000 0.5385 0.5395 0.5405 0.5415 0.5426
3353.000000 0.5436 0.5446 0.5456 0.5466 0.5474
3358.000000 0.5483 0.5491 0.5500 0.5507 0.5515
3363.000000 0.5522 0.5529 0.5536 0.5544 0.5551
3368.000000 0.5558 0.5566 0.5573 0.5580 0.5587
3373.000000 0.5595 0.5602 0.5609 0.5616 0.5624
3378.000000 0.5631 0.5638 0.5645 0.5652 0.5660
3383.000000 0.5667 0.5674 0.5681 0.5688 0.5695
3388.000000 0.5701 0.5708 0.5714 0.5720 0.5727
3393.000000 0.5733 0.5739 0.5746 0.5752 0.5758
3398.000000 0.5764 0.5770 0.5776 0.5782 0.5789
3403.000000 0.5795 0.5801 0.5807 0.5814 0.5820
3408.000000 0.5826 0.5832 0.5838 0.5845 0.5851
3413.000000 0.5857 0.5863 0.5870 0.5876 0.5882
3418.000000 0.5888 0.5894 0.5901 0.5907 0.5913
3423.000000 0.5920 0.5926 0.5933 0.5939 0.5945
3428.000000 0.5952 0.5958 0.5964 0.5971 0.5977
3433.000000 0.5983 0.5989 0.5995 0.6002 0.6008
3438.000000 0.6014 0.6021 0.6027 0.6034 0.6040
3443.000000 0.6046 0.6052 0.6059 0.6065 0.6071
3448.000000 0.6078 0.6084 0.6090 0.6096 0.6102
3453.000000 0.6108 0.6114 0.6120 0.6126 0.6133
3458.000000 0.6139 0.6144 0.6150 0.6156 0.6162
3463.000000 0.6168 0.6174 0.6179 0.6185 0.6191
3468.000000 0.6197 0.6203 0.6209 0.6214 0.6220
3473.000000 0.6226 0.6231 0.6237 0.6243 0.6248
3478.000000 0.6254 0.6260 0.6266 0.6271 0.6277
3483.000000 0.6283 0.6289 0.6294 0.6300 0.6306
3488.000000 0.6312 0.6317 0.6323 0.6329 0.6335
3493.000000 0.6340 0.6346 0.6351 0.6357 0.6362
3498.000000 0.6368 0.6373 0.6379 0.6384 0.6389
3503.000000 0.6393 0.6398 0.6402 0.6406 0.6410
3508.000000 0.6415 0.6419 0.6423 0.6427 0.6432
3513.000000 0.6436 0.6440 0.6445 0.6449 0.6453
3518.000000 0.6457 0.6461 0.6466 0.6470 0.6474
3523.000000 0.6478 0.6483 0.6487 0.6491 0.6495
3528.000000 0.6500 0.6504 0.6508 0.6512 0.6517
3533.000000 0.6521 0.6526 0.6531 0.6535 0.6540
3538.000000 0.6544 0.6549 0.6554 0.6558 0.6563
3543.000000 0.6568 0.6572 0.6577 0.6582 0.6587
3548.000000 0.6592 0.6596 0.6601 0.6606 0.6610
3553.000000 0.6615 0.6620 0.6624 0.6629 0.6633
3558.000000 0.6638 0.6643 0.6648 0.6652 0.6657
3563.000000 0.6661 0.6665 0.6670 0.6674 0.6678
3568.000000 0.6682 0.6686 0.6690 0.6694 0.6698
3573.000000 0.6702 0.6706 0.6710 0.6714 0.6718
3578.000000 0.6722 0.6726 0.6730 0.6734 0.6738
3583.000000 0.6741 0.6745 0.6748 0.6752 0.6755
3588.000000 0.6757 0.6759 0.6761 0.6763 0.6766
3593.000000 0.6768 0.6769 0.6771 0.6773 0.6775
3598.000000 0.6777 0.6779 0.6782 0.6784 0.6786
3603.000000 0.6789 0.6791 0.6794 0.6797 0.6800
3608.000000 0.6803 0.6806 0.6809 0.6812 0.6814
3613.000000 0.6817 0.6820 0.6823 0.6825 0.6828
3618.000000 0.6831 0.6834 0.6836 0.6839 0.6842
3623.000000 0.6845 0.6848 0.6851 0.6854 0.6856
3628.000000 0.6859 0.6862 0.6865 0.6868 0.6871
3633.000000 0.6873 0.6876 0.6879 0.6882 0.6884
3638.000000 0.6887 0.6889 0.6893 0.6896 0.6899
3643.000000 0.6902 0.6905 0.6909 0.6912 0.6915
3648.000000 0.6918 0.6921 0.6924 0.6927 0.6930
3653.000000 0.6933 0.6936 0.6940 0.6943 0.6946
3658.000000 0.6949 0.6952 0.6955 0.6959 0.6962
3663.000000 0.6964 0.6967 0.6970 0.6973 0.6976
3668.000000 0.6979 0.6981 0.6984 0.6986 0.6988
3673.000000 0.6990 0.6992 0.6994 0.6996 0.6997
3678.000000 0.6999 0.7001 0.7003 0.7005 0.7007
3683.000000 0.7009 0.7010 0.7012 0.7014 0.7016
3688.000000 0.7018 0.7020 0.7021 0.7023 0.7025
3693.000000 0.7027 0.7028 0.7029 0.7031 0.7032
3698.000000 0.7033 0.7035 0.7036 0.7038 0.7039
3703.000000 0.7040 0.7042 0.7043 0.7044 0.7046
3708.000000 0.7047 0.7048 0.7051 0.7054 0.7057
3713.000000 0.7060 0.7063 0.7066 0.7070 0.7073
3718.000000 0.7077 0.7080 0.7084 0.7087 0.7090
3723.000000 0.7093 0.7096 0.7099 0.7102 0.7105
3728.000000 0.7108 0.7111 0.7114 0.7117 0.7121
3733.000000 0.7124 0.7127 0.7130 0.7134 0.7137
3738.000000 0.7140 0.7143 0.7146 0.7149 0.7152
3743.000000 0.7155 0.7157 0.7160 0.7163 0.7165
3748.000000 0.7168 0.7171 0.7173 0.7176 0.7178
3753.000000 0.7181 0.7183 0.7186 0.7188 0.7191
3758.000000 0.7193 0.7196 0.7198 0.7200 0.7203
3763.000000 0.7205 0.7208 0.7210 0.7213 0.7215
3768.000000 0.7218 0.7220 0.7223 0.7225 0.7228
3773.000000 0.7230 0.7233 0.7236 0.7238 0.7241
3778.000000 0.7243 0.7245 0.7247 0.7249 0.7251
3783.000000 0.7253 0.7255 0.7257 0.7260 0.7262
3788.000000 0.7264 0.7265 0.7266 0.7268 0.7269
3793.000000 0.7271 0.7272 0.7274 0.7275 0.7277
3798.000000 0.7278 0.7280 0.7281 0.7283 0.7284
3803.000000 0.7285 0.7287 0.7288 0.7290 0.7291
3808.000000 0.7293 0.7294 0.7296 0.7298 0.7300
3813.000000 0.7302 0.7304 0.7306 0.7309 0.7311
3818.000000 0.7314 0.7317 0.7320 0.7323 0.7326
3823.000000 0.7329 0.7331 0.7334 0.7337 0.7340
3828.000000 0.7343 0.7346 0.7348 0.7351 0.7353
3833.000000 0.7356 0.7359 0.7361 0.7364 0.7367
3838.000000 0.7369 0.7372 0.7375 0.7377 0.7380
3843.000000 0.7382 0.7385 0.7388 0.7390 0.7393
3848.000000 0.7395 0.7398 0.7400 0.7403 0.7405
3853.000000 0.7408 0.7410 0.7412 0.7414 0.7416
3858.000000 0.7418 0.7421 0.7423 0.7425 0.7427
3863.000000 0.7429 0.7432 0.7434 0.7436 0.7438
3868.000000 0.7440 0.7442 0.7445 0.7447 0.7449
3873.000000 0.7451 0.7453 0.7455 0.7458 0.7460
3878.000000 0.7462 0.7464 0.7466 0.7468 0.7471
3883.000000 0.7473 0.7475 0.7477 0.7479 0.7481
3888.000000 0.7483 0.7485 0.7487 0.7489 0.7491
3893.000000 0.7493 0.7495 0.7497 0.7499 0.7501
3898.000000 0.7503 0.7504 0.7506 0.7508 0.7510
3903.000000 0.7512 0.7514 0.7516 0.7518 0.7520
3908.000000 0.7522 0.7524 0.7526 0.7528 0.7530
3913.000000 0.7532 0.7534 0.7536 0.7538 0.7540
3918.000000 0.7542 0.7543 0.7545 0.7547 0.7549
3923.000000 0.7551 0.7552 0.7554 0.7556 0.7558
3928.000000 0.7560 0.7562 0.7564 0.7566 0.7568
3933.000000 0.7570 0.7572 0.7574 0.7576 0.7578
3938.000000 0.7580 0.7582 0.7584 0.7586 0.7588
3943.000000 0.7590 0.7592 0.7594 0.7596 0.7598
3948.000000 0.7600 0.7602 0.7604 0.7605 0.7607
3953.000000 0.7609 0.7611 0.7613 0.7615 0.7617
3958.000000 0.7619 0.7621 0.7623 0.7625 0.7627
3963.000000 0.7629 0.7631 0.7633 0.7635 0.7637
3968.000000 0.7639 0.7641 0.7643 0.7645 0.7647
3973.000000 0.7649 0.7650 0.7652 0.7654 0.7656
3978.000000 0.7658 0.7660 0.7662 0.7664 0.7666
3983.000000 0.7667 0.7669 0.7671 0.7673 0.7675
3988.000000 0.7677 0.7679 0.7680 0.7682 0.7684
3993.000000 0.7685 0.7687 0.7689 0.7691 0.7693
3998.000000 0.7695 0.7697 0.7699
##END=
