##TITLE=2-PHENYL-2-(p-AMINOPHENYL)ETHYLAMINE DIHYDROCHLORIDE
##JCAMP-DX=4.24
##DATA TYPE=INFRARED SPECTRUM
##CLASS=COBLENTZ III
##ORIGIN=SMITH KLINE & FRENCH LABS.
##OWNER=COBLENTZ SOCIETY
Collection (C) 2018 copyright by the U.S. Secretary of Commerce
on behalf of the United States of America. All rights reserved.
##DATE=1964/11/24
##MOLFORM=C14 H18 Cl2 N2
##SOURCE REFERENCE=COBLENTZ NO. 7302
##$NIST ID=B6007302
##$NIST SOURCE=COBLENTZ
##$NIST IMAGE=cob7302
##SPECTROMETER/DATA SYSTEM=PERKIN-ELMER 21 (GRATING)
##INSTRUMENT PARAMETERS=NaCl PRISM
##STATE=SOLID (OIL MULL)
$$SPECTRAL CONTAMINATION DUE TO OIL AROUND 2900, 1450, 1380 CM^-^1
##SAMPLING PROCEDURE=TRANSMISSION
##RESOLUTION=2
##DATA PROCESSING=DIGITIZED BY NIST FROM HARD COPY
##XUNITS=MICROMETERS
##YUNITS=TRANSMITTANCE
##XFACTOR=1.000000
##YFACTOR=1
##DELTAX=000.004890
##FIRSTX=1.998
##LASTX=15.2293
##FIRSTY=0.33
##MAXX=15.2293
##MINX=1.998
##MAXY=0.95
##MINY=0.065
##NPOINTS=2707
##XYDATA=(X++(Y..Y))
1.998000 0.3300 0.3310 0.3320 0.3330 0.3330
2.022459 0.3340 0.3360 0.3370 0.3380 0.3380
2.046000 0.3420 0.3430 0.3430 0.3430 0.3430
2.070459 0.3450 0.3480 0.3490 0.3490 0.3490
2.095000 0.3500 0.3500 0.3500 0.3500 0.3520
2.119459 0.3530 0.3590 0.3590 0.3600 0.3610
2.144000 0.3610 0.3690 0.3720 0.3730 0.3730
2.168459 0.3730 0.3730 0.3750 0.3760 0.3780
2.193000 0.3810 0.3830 0.3840 0.3870 0.3880
2.217459 0.3890 0.3930 0.3950 0.3990 0.4010
2.242000 0.4010 0.4030 0.4040 0.4040 0.4050
2.266459 0.4060 0.4080 0.4090 0.4100 0.4100
2.291000 0.4100 0.4110 0.4120 0.4140 0.4150
2.315459 0.4190 0.4220 0.4230 0.4230 0.4250
2.340000 0.4260 0.4260 0.4270 0.4280 0.4290
2.364459 0.4290 0.4310 0.4340 0.4420 0.4430
2.389000 0.4470 0.4510 0.4560 0.4560 0.4570
2.413459 0.4590 0.4590 0.4600 0.4600 0.4610
2.438000 0.4640 0.4670 0.4720 0.4780 0.4790
2.462459 0.4820 0.4830 0.4830 0.4830 0.4830
2.487000 0.4830 0.4890 0.4920 0.4930 0.5010
2.511459 0.5090 0.5090 0.5100 0.5120 0.5140
2.535000 0.5140 0.5180 0.5210 0.5230 0.5230
2.559459 0.5260 0.5290 0.5330 0.5350 0.5370
2.584000 0.5390 0.5390 0.5420 0.5430 0.5440
2.608459 0.5460 0.5490 0.5500 0.5540 0.5550
2.633000 0.5560 0.5590 0.5600 0.5600 0.5610
2.657459 0.5700 0.5730 0.5740 0.5770 0.5770
2.682000 0.5770 0.5780 0.5790 0.5820 0.5830
2.706459 0.5830 0.5830 0.5830 0.5840 0.5890
2.731000 0.5910 0.6000 0.6000 0.6010 0.6010
2.755459 0.6010 0.6010 0.6010 0.6020 0.6040
2.780000 0.6130 0.6150 0.6160 0.6190 0.6230
2.804459 0.6260 0.6280 0.6290 0.6290 0.6300
2.829000 0.6320 0.6330 0.6340 0.6340 0.6350
2.853459 0.6370 0.6410 0.6430 0.6440 0.6500
2.878000 0.6510 0.6520 0.6520 0.6520 0.6520
2.902459 0.6540 0.6610 0.6630 0.6630 0.6650
2.927000 0.6650 0.6660 0.6660 0.6670 0.6670
2.951459 0.6690 0.6730 0.6740 0.6770 0.6820
2.976000 0.6850 0.6860 0.6860 0.6880 0.6880
3.000459 0.6900 0.6910 0.6910 0.6930 0.6930
3.024000 0.6940 0.6950 0.6990 0.7010 0.7070
3.048459 0.7120 0.7120 0.7130 0.7130 0.7130
3.073000 0.7130 0.7140 0.7140 0.7140 0.7140
3.097459 0.7130 0.7100 0.7080 0.7000 0.6990
3.122000 0.6880 0.6780 0.6730 0.6680 0.6390
3.146459 0.6280 0.6180 0.5990 0.5740 0.5720
3.171000 0.5720 0.5700 0.5600 0.5430 0.5240
3.195459 0.5100 0.5000 0.4810 0.4590 0.4390
3.220000 0.4200 0.4090 0.3990 0.3800 0.3660
3.244459 0.3490 0.3220 0.3190 0.3090 0.2880
3.269000 0.2810 0.2690 0.2590 0.2420 0.2410
3.293459 0.2380 0.2300 0.2260 0.2220 0.2180
3.318000 0.2130 0.2070 0.2000 0.1990 0.1960
3.342459 0.1850 0.1700 0.1540 0.1210 0.1190
3.367000 0.1180 0.1090 0.1020 0.1010 0.0970
3.391459 0.0960 0.0910 0.0850 0.0790 0.0700
3.416000 0.0650 0.0650 0.0650 0.0650 0.0650
3.440459 0.0650 0.0650 0.0650 0.0660 0.0690
3.465000 0.0690 0.0690 0.0690 0.0680 0.0660
3.489459 0.0650 0.0680 0.0760 0.0790 0.0810
3.513000 0.0770 0.0730 0.0700 0.0690 0.0680
3.537459 0.0680 0.0690 0.0700 0.0820 0.1080
3.562000 0.1190 0.1200 0.1230 0.1400 0.1420
3.586459 0.1440 0.1490 0.1540 0.1600 0.1690
3.611000 0.1790 0.1880 0.1980 0.2030 0.2090
3.635459 0.2160 0.2190 0.2200 0.2210 0.2220
3.660000 0.2250 0.2260 0.2280 0.2300 0.2330
3.684459 0.2360 0.2380 0.2380 0.2390 0.2390
3.709000 0.2410 0.2410 0.2430 0.2500 0.2610
3.733459 0.2610 0.2610 0.2630 0.2690 0.2720
3.758000 0.2810 0.2910 0.2990 0.3050 0.3190
3.782459 0.3190 0.3200 0.3210 0.3230 0.3310
3.807000 0.3320 0.3330 0.3370 0.3370 0.3380
3.831459 0.3380 0.3390 0.3390 0.3390 0.3380
3.856000 0.3340 0.3280 0.3200 0.3100 0.3020
3.880459 0.2950 0.2820 0.2780 0.2610 0.2520
3.905000 0.2420 0.2390 0.2380 0.2380 0.2380
3.929459 0.2390 0.2410 0.2500 0.2530 0.2590
3.954000 0.2670 0.2700 0.2710 0.2910 0.3060
3.978459 0.3170 0.3250 0.3300 0.3340 0.3390
4.002000 0.3440 0.3490 0.3530 0.3540 0.3560
4.026459 0.3620 0.3700 0.3730 0.3800 0.3890
4.051000 0.4010 0.4140 0.4210 0.4280 0.4310
4.075459 0.4420 0.4530 0.4610 0.4650 0.4680
4.100000 0.4700 0.4720 0.4750 0.4810 0.4840
4.124459 0.4870 0.4870 0.4870 0.4870 0.4890
4.149000 0.4920 0.5000 0.5040 0.5110 0.5150
4.173459 0.5240 0.5310 0.5330 0.5330 0.5380
4.198000 0.5430 0.5540 0.5590 0.5630 0.5680
4.222459 0.5700 0.5720 0.5730 0.5760 0.5770
4.247000 0.5780 0.5790 0.5800 0.5820 0.5830
4.271459 0.5830 0.5830 0.5830 0.5850 0.5870
4.296000 0.5880 0.5890 0.5900 0.5930 0.6000
4.320459 0.6010 0.6040 0.6110 0.6190 0.6240
4.345000 0.6280 0.6340 0.6390 0.6410 0.6430
4.369459 0.6460 0.6500 0.6520 0.6580 0.6630
4.394000 0.6670 0.6690 0.6710 0.6720 0.6720
4.418459 0.6720 0.6720 0.6720 0.6730 0.6790
4.443000 0.6820 0.6830 0.6890 0.6900 0.6900
4.467459 0.6900 0.6900 0.6900 0.6900 0.6900
4.491000 0.6890 0.6890 0.6880 0.6860 0.6880
4.515459 0.6890 0.6890 0.6910 0.6930 0.6930
4.540000 0.6930 0.6930 0.6930 0.6930 0.6990
4.564459 0.6990 0.7000 0.7010 0.7010 0.7020
4.589000 0.7070 0.7100 0.7110 0.7110 0.7120
4.613459 0.7130 0.7160 0.7180 0.7210 0.7220
4.638000 0.7230 0.7230 0.7230 0.7230 0.7230
4.662459 0.7230 0.7280 0.7390 0.7450 0.7460
4.687000 0.7470 0.7470 0.7490 0.7500 0.7510
4.711459 0.7510 0.7520 0.7530 0.7530 0.7550
4.736000 0.7600 0.7600 0.7600 0.7610 0.7610
4.760459 0.7610 0.7620 0.7620 0.7620 0.7620
4.785000 0.7640 0.7660 0.7680 0.7720 0.7730
4.809459 0.7730 0.7730 0.7730 0.7730 0.7740
4.834000 0.7740 0.7740 0.7730 0.7730 0.7730
4.858459 0.7730 0.7730 0.7730 0.7730 0.7730
4.883000 0.7730 0.7740 0.7740 0.7740 0.7730
4.907459 0.7740 0.7740 0.7740 0.7730 0.7730
4.932000 0.7730 0.7730 0.7730 0.7730 0.7720
4.956459 0.7720 0.7720 0.7690 0.7680 0.7660
4.980000 0.7630 0.7610 0.7600 0.7560 0.7550
5.004459 0.7530 0.7490 0.7470 0.7470 0.7470
5.029000 0.7470 0.7470 0.7460 0.7440 0.7420
5.053459 0.7400 0.7380 0.7300 0.7250 0.7210
5.078000 0.7180 0.7170 0.7140 0.7120 0.7120
5.102459 0.7120 0.7100 0.7080 0.7100 0.7100
5.127000 0.7100 0.7110 0.7130 0.7280 0.7330
5.151459 0.7360 0.7360 0.7380 0.7380 0.7380
5.176000 0.7400 0.7410 0.7410 0.7410 0.7470
5.200459 0.7490 0.7470 0.7470 0.7440 0.7390
5.225000 0.7320 0.7300 0.7300 0.7320 0.7350
5.249459 0.7390 0.7470 0.7470 0.7490 0.7520
5.274000 0.7580 0.7620 0.7630 0.7620 0.7630
5.298459 0.7630 0.7640 0.7660 0.7680 0.7690
5.323000 0.7710 0.7720 0.7720 0.7720 0.7720
5.347459 0.7720 0.7710 0.7710 0.7710 0.7710
5.372000 0.7710 0.7710 0.7710 0.7710 0.7720
5.396459 0.7730 0.7730 0.7720 0.7720 0.7720
5.421000 0.7720 0.7720 0.7730 0.7750 0.7770
5.445459 0.7770 0.7770 0.7770 0.7780 0.7790
5.469000 0.7790 0.7800 0.7800 0.7800 0.7800
5.493459 0.7800 0.7810 0.7830 0.7850 0.7860
5.518000 0.7880 0.7890 0.7890 0.7900 0.7900
5.542459 0.7900 0.7910 0.7910 0.7920 0.7990
5.567000 0.7990 0.8000 0.8010 0.8010 0.8010
5.591459 0.8020 0.8020 0.8020 0.8050 0.8060
5.616000 0.8080 0.8090 0.8090 0.8090 0.8090
5.640459 0.8090 0.8110 0.8120 0.8120 0.8120
5.665000 0.8120 0.8120 0.8120 0.8120 0.8120
5.689459 0.8120 0.8130 0.8140 0.8180 0.8180
5.714000 0.8220 0.8230 0.8230 0.8230 0.8230
5.738459 0.8220 0.8200 0.8190 0.8190 0.8180
5.763000 0.8180 0.8190 0.8200 0.8220 0.8240
5.787459 0.8270 0.8280 0.8280 0.8290 0.8300
5.812000 0.8310 0.8310 0.8330 0.8330 0.8330
5.836459 0.8330 0.8330 0.8330 0.8330 0.8330
5.861000 0.8330 0.8330 0.8330 0.8330 0.8330
5.885459 0.8340 0.8340 0.8340 0.8340 0.8340
5.910000 0.8340 0.8390 0.8400 0.8420 0.8420
5.934459 0.8420 0.8420 0.8450 0.8480 0.8500
5.958000 0.8510 0.8510 0.8510 0.8510 0.8510
5.982459 0.8510 0.8510 0.8500 0.8480 0.8410
6.007000 0.8400 0.8380 0.8360 0.8360 0.8360
6.031459 0.8360 0.8360 0.8360 0.8360 0.8360
6.056000 0.8360 0.8360 0.8360 0.8350 0.8350
6.080459 0.8350 0.8350 0.8350 0.8360 0.8400
6.105000 0.8440 0.8480 0.8480 0.8480 0.8470
6.129459 0.8450 0.8300 0.8290 0.8280 0.8230
6.154000 0.8200 0.8110 0.8010 0.7990 0.7780
6.178459 0.7640 0.7470 0.7390 0.5820 0.5060
6.203000 0.4550 0.4390 0.4340 0.4360 0.4420
6.227459 0.4870 0.5560 0.6010 0.6320 0.6580
6.252000 0.6620 0.6720 0.6820 0.7100 0.7140
6.276459 0.7400 0.7400 0.7390 0.7390 0.7120
6.301000 0.6830 0.6230 0.5840 0.5600 0.5100
6.325459 0.4750 0.4400 0.4000 0.3830 0.3800
6.350000 0.3720 0.3590 0.3420 0.3330 0.3320
6.374459 0.3320 0.3310 0.3310 0.3310 0.3390
6.399000 0.3470 0.3640 0.3750 0.3840 0.3970
6.423459 0.4110 0.4560 0.4890 0.5030 0.5200
6.447000 0.5310 0.5390 0.5390 0.5380 0.5380
6.471459 0.5350 0.5330 0.5330 0.5330 0.5330
6.496000 0.5340 0.5390 0.5490 0.5630 0.5830
6.520459 0.6000 0.6100 0.6180 0.6290 0.6430
6.545000 0.6520 0.6550 0.6580 0.6560 0.6560
6.569459 0.6540 0.6500 0.6260 0.5900 0.5550
6.594000 0.5200 0.4820 0.4480 0.4110 0.4000
6.618459 0.3800 0.3520 0.3410 0.3130 0.3000
6.643000 0.2870 0.2800 0.2740 0.2720 0.2740
6.667459 0.2770 0.2780 0.2810 0.2820 0.2930
6.692000 0.3320 0.3330 0.3340 0.3410 0.3500
6.716459 0.3490 0.3450 0.3410 0.3300 0.3260
6.741000 0.3260 0.3270 0.3320 0.3360 0.3520
6.765459 0.3640 0.3760 0.3840 0.3880 0.3950
6.790000 0.3950 0.3900 0.3840 0.3730 0.3430
6.814459 0.3040 0.3000 0.3000 0.2920 0.2810
6.839000 0.2710 0.2660 0.2590 0.2550 0.2580
6.863459 0.2600 0.2630 0.2710 0.2810 0.2860
6.888000 0.2870 0.2850 0.2740 0.2580 0.2570
6.912459 0.2540 0.2570 0.3280 0.3450 0.3620
6.936000 0.3970 0.4390 0.4500 0.4610 0.4980
6.960459 0.5100 0.5170 0.5320 0.5420 0.5700
6.985000 0.5990 0.6190 0.6440 0.6650 0.6720
7.009459 0.6790 0.6950 0.7060 0.7160 0.7320
7.034000 0.7400 0.7420 0.7490 0.7530 0.7550
7.058459 0.7560 0.7560 0.7570 0.7610 0.7620
7.083000 0.7690 0.7720 0.7750 0.7770 0.7790
7.107459 0.7850 0.7860 0.7890 0.7890 0.7890
7.132000 0.7900 0.7890 0.7890 0.7890 0.7880
7.156459 0.7860 0.7860 0.7850 0.7830 0.7810
7.181000 0.7790 0.7720 0.7600 0.7530 0.7500
7.205459 0.7140 0.7050 0.6970 0.6840 0.6400
7.230000 0.6040 0.5630 0.5490 0.5260 0.5040
7.254459 0.4880 0.4700 0.4610 0.4500 0.4420
7.279000 0.4330 0.4310 0.4330 0.4360 0.4820
7.303459 0.5370 0.5680 0.5790 0.5990 0.6090
7.328000 0.6110 0.6130 0.6180 0.6230 0.6330
7.352459 0.6510 0.6710 0.6890 0.7110 0.7280
7.377000 0.7320 0.7440 0.7510 0.7520 0.7510
7.401459 0.7470 0.7410 0.7350 0.7230 0.7220
7.425000 0.7210 0.7220 0.7230 0.7290 0.7390
7.449459 0.7450 0.7500 0.7520 0.7600 0.7620
7.474000 0.7630 0.7620 0.7620 0.7620 0.7620
7.498459 0.7620 0.7620 0.7620 0.7620 0.7620
7.523000 0.7620 0.7620 0.7630 0.7680 0.7680
7.547459 0.7680 0.7640 0.7630 0.7620 0.7600
7.572000 0.7490 0.7390 0.7320 0.7130 0.6940
7.596459 0.6740 0.6600 0.6570 0.6560 0.6570
7.621000 0.6580 0.6630 0.6680 0.6820 0.6880
7.645459 0.6900 0.6990 0.6990 0.7050 0.7110
7.670000 0.7140 0.7280 0.7380 0.7390 0.7390
7.694459 0.7390 0.7390 0.7390 0.7390 0.7390
7.719000 0.7510 0.7680 0.7720 0.7740 0.7790
7.743459 0.7810 0.7880 0.7890 0.7950 0.7970
7.768000 0.7990 0.7970 0.7990 0.7990 0.8000
7.792459 0.8010 0.8020 0.8010 0.8010 0.8010
7.817000 0.8010 0.8010 0.8010 0.8010 0.8010
7.841459 0.8010 0.8010 0.8050 0.8070 0.8080
7.866000 0.8110 0.8110 0.8120 0.8130 0.8190
7.890459 0.8240 0.8270 0.8280 0.8280 0.8300
7.914000 0.8300 0.8290 0.8290 0.8280 0.8250
7.938459 0.8230 0.8230 0.8230 0.8200 0.8190
7.963000 0.8130 0.8090 0.8070 0.8120 0.8160
7.987459 0.8200 0.8250 0.8290 0.8310 0.8350
8.012000 0.8360 0.8380 0.8380 0.8390 0.8390
8.036459 0.8390 0.8390 0.8390 0.8390 0.8390
8.061000 0.8400 0.8420 0.8420 0.8480 0.8500
8.085459 0.8550 0.8580 0.8580 0.8520 0.8520
8.110000 0.8520 0.8520 0.8550 0.8560 0.8570
8.134459 0.8580 0.8590 0.8590 0.8610 0.8620
8.159000 0.8620 0.8620 0.8620 0.8630 0.8630
8.183459 0.8630 0.8630 0.8630 0.8630 0.8630
8.208000 0.8620 0.8590 0.8550 0.8530 0.8500
8.232459 0.8390 0.8290 0.8120 0.8000 0.7790
8.257000 0.7630 0.7290 0.6800 0.6430 0.6390
8.281459 0.6330 0.6330 0.6570 0.6800 0.7140
8.306000 0.7390 0.7660 0.7780 0.7940 0.8030
8.330459 0.8030 0.8060 0.8070 0.8120 0.8200
8.355000 0.8200 0.8190 0.8180 0.7970 0.7740
8.379459 0.7680 0.7510 0.7330 0.7290 0.7280
8.403000 0.7320 0.7680 0.7750 0.7810 0.7960
8.427459 0.8110 0.8130 0.8170 0.8300 0.8390
8.452000 0.8410 0.8460 0.8510 0.8520 0.8530
8.476459 0.8550 0.8560 0.8560 0.8570 0.8580
8.501000 0.8580 0.8590 0.8590 0.8590 0.8590
8.525459 0.8590 0.8580 0.8580 0.8570 0.8560
8.550000 0.8520 0.8520 0.8520 0.8520 0.8520
8.574459 0.8520 0.8520 0.8520 0.8520 0.8520
8.599000 0.8590 0.8590 0.8580 0.8580 0.8560
8.623459 0.8560 0.8550 0.8520 0.8330 0.8270
8.648000 0.8270 0.8330 0.8380 0.8400 0.8420
8.672459 0.8500 0.8510 0.8550 0.8550 0.8530
8.697000 0.8530 0.8520 0.8520 0.8520 0.8520
8.721459 0.8520 0.8520 0.8520 0.8520 0.8500
8.746000 0.8480 0.8440 0.8390 0.8330 0.8230
8.770459 0.8120 0.8020 0.8010 0.7910 0.7800
8.795000 0.7710 0.7600 0.7290 0.6950 0.6260
8.819459 0.6100 0.5700 0.5210 0.4620 0.4510
8.844000 0.4100 0.4010 0.3990 0.4000 0.4010
8.868459 0.4080 0.4230 0.4320 0.4380 0.4390
8.892000 0.4420 0.4420 0.4420 0.4420 0.4400
8.916459 0.4390 0.4340 0.4320 0.4320 0.4330
8.941000 0.4700 0.5000 0.5220 0.5460 0.5710
8.965459 0.5950 0.6170 0.6320 0.6470 0.6580
8.990000 0.6630 0.6710 0.6780 0.6930 0.7060
9.014459 0.7210 0.7350 0.7500 0.7580 0.7640
9.039000 0.7680 0.7690 0.7780 0.7790 0.7780
9.063459 0.7780 0.7780 0.7780 0.7720 0.7520
9.088000 0.7290 0.7010 0.6820 0.6720 0.6400
9.112459 0.6320 0.6290 0.6320 0.6510 0.6690
9.137000 0.6890 0.7100 0.7340 0.7520 0.7600
9.161459 0.7800 0.7900 0.7990 0.8000 0.8030
9.186000 0.8120 0.8140 0.8230 0.8240 0.8270
9.210459 0.8280 0.8280 0.8250 0.8230 0.8190
9.235000 0.8090 0.8070 0.8070 0.8080 0.8080
9.259459 0.8080 0.8110 0.8190 0.8280 0.8310
9.284000 0.8340 0.8380 0.8390 0.8480 0.8500
9.308459 0.8510 0.8520 0.8550 0.8550 0.8550
9.333000 0.8530 0.8510 0.8480 0.8470 0.8480
9.357459 0.8510 0.8570 0.8580 0.8610 0.8680
9.381000 0.8700 0.8700 0.8720 0.8760 0.8800
9.405459 0.8850 0.8870 0.8870 0.8890 0.8890
9.430000 0.8890 0.8870 0.8890 0.8890 0.8890
9.454459 0.8890 0.8910 0.8940 0.8960 0.8970
9.479000 0.8980 0.8980 0.8980 0.8980 0.8980
9.503459 0.8980 0.8980 0.8980 0.8980 0.8980
9.528000 0.9000 0.9000 0.9000 0.9000 0.9000
9.552459 0.9000 0.9000 0.9000 0.9000 0.9000
9.577000 0.9000 0.9000 0.9000 0.9000 0.9000
9.601459 0.9000 0.9000 0.9000 0.8980 0.8970
9.626000 0.8970 0.8940 0.8890 0.8810 0.8790
9.650459 0.8640 0.8550 0.8450 0.8200 0.8090
9.675000 0.7880 0.7830 0.7860 0.7880 0.7910
9.699459 0.8010 0.8090 0.8120 0.8190 0.8290
9.724000 0.8330 0.8340 0.8330 0.8330 0.8310
9.748459 0.8290 0.8220 0.8120 0.8080 0.8010
9.773000 0.7910 0.7900 0.7810 0.7690 0.7470
9.797459 0.7360 0.7290 0.7230 0.7220 0.7220
9.822000 0.7500 0.7990 0.8080 0.8280 0.8480
9.846459 0.8580 0.8590 0.8610 0.8610 0.8610
9.870000 0.8620 0.8700 0.8800 0.8830 0.8840
9.894459 0.8890 0.8900 0.8920 0.8920 0.8920
9.919000 0.8920 0.8920 0.8920 0.8920 0.8910
9.943459 0.8910 0.8900 0.8890 0.8810 0.8680
9.968000 0.8530 0.8410 0.8360 0.8290 0.8250
9.992459 0.8270 0.8280 0.8360 0.8580 0.8760
10.017000 0.8840 0.8850 0.8890 0.8900 0.8980
10.041459 0.9000 0.9000 0.9010 0.9010 0.9010
10.066000 0.9010 0.9010 0.9000 0.9010 0.9010
10.090459 0.9010 0.9010 0.9010 0.9010 0.9010
10.115000 0.9010 0.9010 0.9010 0.9010 0.9010
10.139459 0.9010 0.9010 0.9020 0.9020 0.9020
10.164000 0.9020 0.9020 0.9030 0.9060 0.9060
10.188459 0.9070 0.9070 0.9070 0.9070 0.9070
10.213000 0.9060 0.9040 0.9030 0.9020 0.9000
10.237459 0.8960 0.8920 0.8920 0.8920 0.8900
10.262000 0.8900 0.8890 0.8890 0.8810 0.8780
10.286459 0.8700 0.8680 0.8700 0.8800 0.8810
10.311000 0.8830 0.8830 0.8830 0.8830 0.8810
10.335459 0.8800 0.8740 0.8730 0.8720 0.8690
10.359000 0.8590 0.8510 0.8400 0.8390 0.8220
10.383459 0.8000 0.7790 0.7660 0.7600 0.7520
10.408000 0.7340 0.7130 0.6840 0.6270 0.6210
10.432459 0.6170 0.6120 0.6120 0.6130 0.6270
10.457000 0.6560 0.6780 0.7000 0.7110 0.7240
10.481459 0.7410 0.7610 0.7740 0.7910 0.8000
10.506000 0.8010 0.8060 0.8110 0.8220 0.8330
10.530459 0.8390 0.8420 0.8500 0.8500 0.8500
10.555000 0.8500 0.8460 0.8420 0.8380 0.8340
10.579459 0.8270 0.8190 0.8120 0.7960 0.7950
10.604000 0.7940 0.7960 0.7990 0.8220 0.8340
10.628459 0.8500 0.8520 0.8610 0.8630 0.8640
10.653000 0.8680 0.8720 0.8750 0.8810 0.8830
10.677459 0.8860 0.8870 0.8870 0.8890 0.8890
10.702000 0.8890 0.8860 0.8850 0.8830 0.8810
10.726459 0.8800 0.8790 0.8740 0.8690 0.8620
10.751000 0.8610 0.8590 0.8500 0.8340 0.8230
10.775459 0.8030 0.8020 0.7950 0.7860 0.7770
10.800000 0.7670 0.7640 0.7630 0.7660 0.7680
10.824459 0.7770 0.7910 0.8060 0.8140 0.8200
10.848000 0.8300 0.8350 0.8510 0.8630 0.8720
10.872459 0.8840 0.8910 0.8940 0.8960 0.8980
10.897000 0.9000 0.9010 0.9020 0.9030 0.9040
10.921459 0.9060 0.9070 0.9070 0.9080 0.9090
10.946000 0.9090 0.9090 0.9110 0.9120 0.9120
10.970459 0.9130 0.9140 0.9140 0.9140 0.9150
10.995000 0.9150 0.9150 0.9150 0.9140 0.9140
11.019459 0.9140 0.9140 0.9140 0.9140 0.9140
11.044000 0.9140 0.9130 0.9120 0.9090 0.8910
11.068459 0.8890 0.8790 0.8740 0.8660 0.8560
11.093000 0.8510 0.8500 0.8510 0.8520 0.8590
11.117459 0.8630 0.8790 0.8890 0.8920 0.9000
11.142000 0.9020 0.9110 0.9150 0.9180 0.9200
11.166459 0.9220 0.9220 0.9230 0.9250 0.9280
11.191000 0.9280 0.9300 0.9310 0.9310 0.9330
11.215459 0.9330 0.9330 0.9330 0.9330 0.9330
11.240000 0.9340 0.9360 0.9390 0.9410 0.9410
11.264459 0.9410 0.9410 0.9400 0.9390 0.9390
11.289000 0.9390 0.9400 0.9400 0.9410 0.9410
11.313459 0.9410 0.9420 0.9430 0.9450 0.9460
11.337000 0.9470 0.9470 0.9470 0.9480 0.9480
11.361459 0.9480 0.9480 0.9480 0.9480 0.9480
11.386000 0.9480 0.9480 0.9500 0.9500 0.9500
11.410459 0.9500 0.9500 0.9500 0.9500 0.9500
11.435000 0.9500 0.9500 0.9500 0.9500 0.9500
11.459459 0.9480 0.9470 0.9460 0.9430 0.9410
11.484000 0.9400 0.9400 0.9350 0.9330 0.9310
11.508459 0.9300 0.9280 0.9230 0.9190 0.9090
11.533000 0.9000 0.8940 0.8910 0.8790 0.8590
11.557459 0.8340 0.8200 0.8020 0.7800 0.7720
11.582000 0.7660 0.7350 0.7000 0.6400 0.6290
11.606459 0.6260 0.6240 0.6340 0.6540 0.6680
11.631000 0.6830 0.7060 0.7290 0.7510 0.7790
11.655459 0.8090 0.8120 0.8130 0.8190 0.8310
11.680000 0.8400 0.8420 0.8500 0.8660 0.8720
11.704459 0.8730 0.8740 0.8730 0.8730 0.8730
11.729000 0.8720 0.8690 0.8690 0.8690 0.8670
11.753459 0.8630 0.8620 0.8590 0.8530 0.8520
11.778000 0.8500 0.8450 0.8440 0.8400 0.8400
11.802459 0.8390 0.8390 0.8390 0.8390 0.8390
11.826000 0.8380 0.8380 0.8390 0.8390 0.8390
11.850459 0.8400 0.8520 0.8640 0.8780 0.8790
11.875000 0.8800 0.8910 0.9000 0.9010 0.9040
11.899459 0.9090 0.9140 0.9170 0.9180 0.9190
11.924000 0.9200 0.9220 0.9230 0.9250 0.9250
11.948459 0.9250 0.9250 0.9250 0.9250 0.9250
11.973000 0.9250 0.9250 0.9250 0.9250 0.9250
11.997459 0.9250 0.9240 0.9240 0.9240 0.9240
12.022000 0.9240 0.9240 0.9240 0.9230 0.9220
12.046459 0.9190 0.9130 0.9090 0.9060 0.9010
12.071000 0.9010 0.9000 0.8980 0.8970 0.8940
12.095459 0.8860 0.8790 0.8730 0.8700 0.8590
12.120000 0.8400 0.8330 0.8300 0.8190 0.8090
12.144459 0.8000 0.7830 0.7800 0.7730 0.7640
12.169000 0.7500 0.7220 0.7120 0.7040 0.6990
12.193459 0.6940 0.6800 0.6720 0.6690 0.6690
12.218000 0.6710 0.6740 0.6800 0.6820 0.6890
12.242459 0.6940 0.7010 0.7100 0.7210 0.7410
12.267000 0.7450 0.7490 0.7500 0.7530 0.7600
12.291459 0.7690 0.7730 0.7830 0.7840 0.7890
12.315000 0.7920 0.7950 0.8000 0.8010 0.8010
12.339459 0.8020 0.8020 0.8030 0.8030 0.8020
12.364000 0.8020 0.8020 0.8010 0.8010 0.8010
12.388459 0.8000 0.7990 0.7960 0.7950 0.7890
12.413000 0.7840 0.7830 0.7830 0.7830 0.7840
12.437459 0.7840 0.7900 0.8050 0.8090 0.8090
12.462000 0.8110 0.8200 0.8300 0.8400 0.8450
12.486459 0.8500 0.8590 0.8630 0.8730 0.8800
12.511000 0.8830 0.8840 0.8900 0.8920 0.8940
12.535459 0.9000 0.9000 0.9010 0.9010 0.9030
12.560000 0.9060 0.9090 0.9120 0.9130 0.9140
12.584459 0.9150 0.9170 0.9190 0.9220 0.9230
12.609000 0.9230 0.9240 0.9250 0.9260 0.9260
12.633459 0.9280 0.9290 0.9300 0.9300 0.9330
12.658000 0.9340 0.9350 0.9360 0.9370 0.9370
12.682459 0.9370 0.9370 0.9370 0.9370 0.9370
12.707000 0.9370 0.9370 0.9370 0.9370 0.9370
12.731459 0.9370 0.9370 0.9370 0.9360 0.9360
12.756000 0.9360 0.9350 0.9350 0.9350 0.9340
12.780459 0.9340 0.9340 0.9330 0.9330 0.9310
12.804000 0.9310 0.9300 0.9280 0.9250 0.9240
12.828459 0.9240 0.9220 0.9190 0.9180 0.9170
12.853000 0.9140 0.9110 0.9060 0.9040 0.9030
12.877459 0.9010 0.8920 0.8910 0.8900 0.8900
12.902000 0.8830 0.8700 0.8690 0.8640 0.8520
12.926459 0.8420 0.8340 0.8300 0.8200 0.8110
12.951000 0.7920 0.7720 0.7620 0.7510 0.7220
12.975459 0.7060 0.6780 0.6270 0.5980 0.5700
13.000000 0.5420 0.5110 0.4890 0.4610 0.4500
13.024459 0.4320 0.4320 0.4290 0.4310 0.4500
13.049000 0.4960 0.5120 0.5510 0.5940 0.6220
13.073459 0.6410 0.6560 0.6710 0.6900 0.7100
13.098000 0.7230 0.7390 0.7490 0.7520 0.7620
13.122459 0.7690 0.7790 0.7850 0.7900 0.7910
13.147000 0.7990 0.8000 0.8010 0.8050 0.8120
13.171459 0.8220 0.8330 0.8380 0.8390 0.8390
13.196000 0.8400 0.8450 0.8500 0.8550 0.8590
13.220459 0.8620 0.8630 0.8690 0.8720 0.8730
13.244000 0.8730 0.8860 0.8960 0.8970 0.8970
13.268459 0.8970 0.8970 0.8970 0.8970 0.8980
13.293000 0.8980 0.8980 0.8980 0.9000 0.9000
13.317459 0.9000 0.9000 0.9010 0.9010 0.9020
13.342000 0.9020 0.9020 0.9020 0.9020 0.9020
13.366459 0.9020 0.9030 0.9030 0.9030 0.9030
13.391000 0.9030 0.9030 0.9030 0.9030 0.9030
13.415459 0.9030 0.9020 0.9020 0.9020 0.9020
13.440000 0.9020 0.9010 0.9000 0.9000 0.8940
13.464459 0.8920 0.8920 0.8910 0.8900 0.8890
13.489000 0.8870 0.8860 0.8860 0.8850 0.8850
13.513459 0.8840 0.8830 0.8810 0.8800 0.8790
13.538000 0.8780 0.8760 0.8760 0.8760 0.8740
13.562459 0.8730 0.8720 0.8700 0.8690 0.8670
13.587000 0.8640 0.8630 0.8620 0.8610 0.8590
13.611459 0.8580 0.8580 0.8570 0.8550 0.8530
13.636000 0.8520 0.8520 0.8520 0.8520 0.8520
13.660459 0.8520 0.8520 0.8500 0.8480 0.8450
13.685000 0.8440 0.8420 0.8420 0.8410 0.8400
13.709459 0.8390 0.8390 0.8310 0.8230 0.8230
13.733000 0.8230 0.8220 0.8190 0.8090 0.8020
13.757459 0.8010 0.8000 0.8000 0.7840 0.7800
13.782000 0.7720 0.7610 0.7470 0.7410 0.7290
13.806459 0.7190 0.7020 0.6770 0.6720 0.6300
13.831000 0.6100 0.5830 0.5700 0.5520 0.5340
13.855459 0.5170 0.5000 0.4960 0.4950 0.4960
13.880000 0.5000 0.5510 0.5870 0.6220 0.6460
13.904459 0.6580 0.6690 0.7060 0.7300 0.7420
13.929000 0.7610 0.7630 0.7800 0.8010 0.8020
13.953459 0.8060 0.8110 0.8130 0.8140 0.8160
13.978000 0.8220 0.8340 0.8390 0.8410 0.8460
14.002459 0.8510 0.8530 0.8530 0.8530 0.8550
14.027000 0.8560 0.8560 0.8580 0.8590 0.8590
14.051459 0.8610 0.8610 0.8610 0.8610 0.8610
14.076000 0.8610 0.8590 0.8590 0.8580 0.8570
14.100459 0.8560 0.8550 0.8510 0.8470 0.8460
14.125000 0.8440 0.8420 0.8420 0.8410 0.8400
14.149459 0.8330 0.8290 0.8110 0.8060 0.8030
14.174000 0.8010 0.7970 0.7920 0.7800 0.7790
14.198459 0.7750 0.7620 0.7320 0.7270 0.7210
14.222000 0.7010 0.6800 0.6410 0.6220 0.5990
14.246459 0.5800 0.5610 0.5400 0.5120 0.5000
14.271000 0.4840 0.4790 0.4720 0.4640 0.4610
14.295459 0.4600 0.4610 0.4640 0.4730 0.4830
14.320000 0.5030 0.5140 0.5200 0.5220 0.5230
14.344459 0.5220 0.5220 0.5210 0.5200 0.5100
14.369000 0.5010 0.4920 0.4870 0.4820 0.4820
14.393459 0.4620 0.4610 0.4600 0.4610 0.4640
14.418000 0.4820 0.5030 0.5310 0.5420 0.5720
14.442459 0.6000 0.6210 0.6400 0.6600 0.6710
14.467000 0.6800 0.6900 0.6940 0.7110 0.7300
14.491459 0.7420 0.7550 0.7600 0.7600 0.7640
14.516000 0.7790 0.7840 0.7880 0.7900 0.7910
14.540459 0.7940 0.7960 0.7990 0.8010 0.8010
14.565000 0.8020 0.8020 0.8030 0.8050 0.8050
14.589459 0.8050 0.8060 0.8060 0.8070 0.8070
14.614000 0.8070 0.8080 0.8080 0.8080 0.8090
14.638459 0.8090 0.8090 0.8090 0.8090 0.8110
14.663000 0.8110 0.8110 0.8110 0.8110 0.8110
14.687459 0.8110 0.8110 0.8110 0.8110 0.8110
14.711000 0.8110 0.8110 0.8110 0.8110 0.8110
14.735459 0.8080 0.8070 0.8070 0.8060 0.8050
14.760000 0.8030 0.8030 0.8020 0.8010 0.8000
14.784459 0.8000 0.8000 0.8000 0.7990 0.7990
14.809000 0.7970 0.7970 0.7960 0.7960 0.7950
14.833459 0.7950 0.7950 0.7950 0.7950 0.7950
14.858000 0.7950 0.7950 0.7950 0.7950 0.7940
14.882459 0.7940 0.7940 0.7940 0.7920 0.7910
14.907000 0.7900 0.7900 0.7900 0.7890 0.7890
14.931459 0.7890 0.7880 0.7850 0.7840 0.7830
14.956000 0.7810 0.7790 0.7780 0.7780 0.7740
14.980459 0.7680 0.7630 0.7530 0.7440 0.7330
15.005000 0.7210 0.7100 0.7050 0.7010 0.6990
15.029459 0.6970 0.6970 0.6990 0.7020 0.7110
15.054000 0.7230 0.7340 0.7380 0.7450 0.7460
15.078459 0.7470 0.7470 0.7490 0.7490 0.7490
15.103000 0.7500 0.7500 0.7500 0.7510 0.7510
15.127459 0.7510 0.7510 0.7510 0.7510 0.7520
15.152000 0.7520 0.7520 0.7520 0.7520 0.7510
15.176459 0.7510 0.7510 0.7510 0.7510 0.7510
15.200000 0.7510 0.7490 0.7470 0.7420 0.7410
15.224459 0.7410 0.7400
##END=
