##TITLE=TITANIC ACID, TETRAPENTYL ESTER
##JCAMP-DX=4.24
##DATA TYPE=INFRARED SPECTRUM
##CLASS=COBLENTZ III
##ORIGIN=DOW CHEMICAL COMPANY
##OWNER=Copyright (C) 1987 by the Coblentz Society
Collection (C) 2018 copyright by the U.S. Secretary of Commerce
on behalf of the United States of America. All rights reserved.
##DATE=1965/10/19
##NAMES=Pentyl alcohol, titanium (4 plus) salt
##MOLFORM=C20 H44 O4 Ti
##SOURCE REFERENCE=COBLENTZ NO. 8120
##$NIST ID=B6008120
##$NIST SOURCE=COBLENTZ
##$NIST IMAGE=cob8120
##SPECTROMETER/DATA SYSTEM=BECKMAN IR-9 (GRATING)
##INSTRUMENT PARAMETERS=ORDER CHANGES: 670, 1200, 2000 CM^-^1
##STATE=SOLUTION (10% CCl4 FOR 3800-1330, 10% CS2 FOR 1330-400)
##PATH LENGTH=0.011 CM, 0.011 CM
$$SPECTRAL CONTAMINATION DUE TO CCl4 AROUND 1555, AND AN UNKNOWN AROUND 3645 CM^-^1
##SAMPLING PROCEDURE=TRANSMISSION
##RESOLUTION=2
##DATA PROCESSING=DIGITIZED BY COBLENTZ SOCIETY (BATCH II) FROM HARD COPY
##XUNITS=1/CM
##YUNITS=TRANSMITTANCE
##XFACTOR=1.0
##YFACTOR=1
##FIRSTX=405
##LASTX=3800
##FIRSTY=0.183
##MAXX=3800
##MINX=405
##MAXY=0.9432
##MINY=0.0115
##NPOINTS=3396
##XYDATA=(X++(Y..Y))
405.000000 0.1830 0.1835 0.1842 0.1850 0.1858
410.000000 0.2062 0.2296 0.2383 0.2444 0.2570
415.000000 0.2712 0.2854 0.2997 0.3139 0.3281
420.000000 0.3424 0.3566 0.3708 0.3850 0.3993
425.000000 0.4099 0.4180 0.4296 0.4385 0.4475
430.000000 0.4548 0.4617 0.4691 0.4732 0.4763
435.000000 0.4785 0.4802 0.4823 0.4851 0.4926
440.000000 0.4996 0.5050 0.5087 0.5109 0.5128
445.000000 0.5131 0.5133 0.5136 0.5135 0.5134
450.000000 0.5121 0.5127 0.5119 0.5112 0.5097
455.000000 0.5080 0.5060 0.5037 0.5013 0.4977
460.000000 0.4935 0.4890 0.4845 0.4797 0.4746
465.000000 0.4691 0.4635 0.4578 0.4521 0.4464
470.000000 0.4407 0.4350 0.4292 0.4233 0.4174
475.000000 0.4116 0.4063 0.4010 0.3957 0.3904
480.000000 0.3851 0.3807 0.3763 0.3719 0.3675
485.000000 0.3626 0.3576 0.3526 0.3476 0.3428
490.000000 0.3381 0.3335 0.3289 0.3243 0.3193
495.000000 0.3141 0.3091 0.3043 0.2995 0.2971
500.000000 0.2949 0.2929 0.2919 0.2908 0.2897
505.000000 0.2889 0.2884 0.2880 0.2878 0.2875
510.000000 0.2873 0.2870 0.2867 0.2865 0.2860
515.000000 0.2850 0.2838 0.2808 0.2756 0.2701
520.000000 0.2654 0.2597 0.2541 0.2492 0.2459
525.000000 0.2430 0.2401 0.2371 0.2341 0.2308
530.000000 0.2275 0.2242 0.2210 0.2179 0.2158
535.000000 0.2139 0.2130 0.2121 0.2119 0.2118
540.000000 0.2116 0.2110 0.2114 0.2117 0.2121
545.000000 0.2124 0.2128 0.2131 0.2135 0.2138
550.000000 0.2142 0.2148 0.2154 0.2160 0.2166
555.000000 0.2172 0.2178 0.2184 0.2190 0.2197
560.000000 0.2206 0.2214 0.2222 0.2232 0.2241
565.000000 0.2250 0.2258 0.2264 0.2269 0.2263
570.000000 0.2240 0.2217 0.2188 0.2158 0.2125
575.000000 0.2089 0.2055 0.2023 0.1990 0.1957
580.000000 0.1922 0.1886 0.1849 0.1813 0.1769
585.000000 0.1724 0.1682 0.1656 0.1630 0.1604
590.000000 0.1578 0.1555 0.1535 0.1516 0.1506
595.000000 0.1501 0.1495 0.1490 0.1486 0.1483
600.000000 0.1480 0.1477 0.1462 0.1485 0.1491
605.000000 0.1500 0.1510 0.1519 0.1531 0.1543
610.000000 0.1555 0.1567 0.1579 0.1594 0.1609
615.000000 0.1624 0.1639 0.1654 0.1669 0.1685
620.000000 0.1701 0.1716 0.1732 0.1747 0.1760
625.000000 0.1773 0.1784 0.1794 0.1803 0.1806
630.000000 0.1809 0.1811 0.1814 0.1814 0.1812
635.000000 0.1810 0.1808 0.1807 0.1805 0.1805
640.000000 0.1807 0.1810 0.1813 0.1816 0.1835
645.000000 0.1861 0.1887 0.1929 0.1972 0.2015
650.000000 0.2056 0.2095 0.2128 0.2161 0.2198
655.000000 0.2245 0.2292 0.2349 0.2419 0.2490
660.000000 0.2553 0.2614 0.2675 0.2736 0.2794
665.000000 0.2853 0.2911 0.2991 0.3071 0.3210
670.000000 0.3295 0.3350 0.3348 0.3345 0.3341
675.000000 0.3337 0.3361 0.3394 0.3443 0.3698
680.000000 0.3854 0.3939 0.4025 0.4111 0.4197
685.000000 0.4283 0.4368 0.4454 0.4540 0.4626
690.000000 0.4712 0.4797 0.4883 0.4969 0.5055
695.000000 0.5141 0.5227 0.5312 0.5443 0.5521
700.000000 0.5595 0.5667 0.5749 0.5833 0.5910
705.000000 0.5983 0.6057 0.6138 0.6218 0.6295
710.000000 0.6372 0.6433 0.6475 0.6501 0.6513
715.000000 0.6525 0.6537 0.6548 0.6554 0.6561
720.000000 0.6567 0.6571 0.6572 0.6557 0.6533
725.000000 0.6475 0.6367 0.6084 0.5749 0.5625
730.000000 0.5554 0.5514 0.5497 0.5500 0.5482
735.000000 0.5551 0.5597 0.5652 0.5715 0.5789
740.000000 0.5865 0.5944 0.6022 0.6097 0.6170
745.000000 0.6228 0.6284 0.6339 0.6384 0.6429
750.000000 0.6475 0.6534 0.6592 0.6645 0.6699
755.000000 0.6767 0.6844 0.6916 0.6975 0.7007
760.000000 0.7029 0.7037 0.7054 0.7036 0.7029
765.000000 0.7019 0.7001 0.6982 0.6961 0.6931
770.000000 0.6881 0.6807 0.6721 0.6597 0.6426
775.000000 0.6342 0.6254 0.6184 0.6154 0.6147
780.000000 0.6148 0.6151 0.6154 0.6156 0.6140
785.000000 0.6111 0.6078 0.6046 0.5990 0.5851
790.000000 0.5645 0.5493 0.5194 0.5175 0.5181
795.000000 0.5189 0.5279 0.5446 0.5614 0.5781
800.000000 0.5949 0.6116 0.6275 0.6385 0.6491
805.000000 0.6695 0.6833 0.6930 0.7026 0.7104
810.000000 0.7182 0.7261 0.7339 0.7418 0.7506
815.000000 0.7587 0.7660 0.7731 0.7800 0.7840
820.000000 0.7877 0.7914 0.7943 0.7971 0.7994
825.000000 0.8010 0.8022 0.8052 0.8022 0.8022
830.000000 0.8016 0.8010 0.8001 0.7986 0.7968
835.000000 0.7946 0.7922 0.7882 0.7840 0.7768
840.000000 0.7693 0.7619 0.7536 0.7447 0.7352
845.000000 0.7303 0.7273 0.7246 0.7218 0.7195
850.000000 0.7173 0.7151 0.7130 0.7102 0.7075
855.000000 0.7047 0.7024 0.7000 0.6985 0.6983
860.000000 0.6982 0.6959 0.6992 0.7009 0.7031
865.000000 0.7057 0.7102 0.7148 0.7190 0.7233
870.000000 0.7252 0.7261 0.7252 0.7251 0.7235
875.000000 0.7200 0.7152 0.7095 0.7022 0.7004
880.000000 0.6999 0.6996 0.6994 0.6989 0.6985
885.000000 0.6955 0.6846 0.6704 0.6464 0.6204
890.000000 0.5943 0.5811 0.5752 0.5752 0.5769
895.000000 0.5789 0.5807 0.5812 0.5801 0.5767
900.000000 0.5738 0.5704 0.5675 0.5649 0.5625
905.000000 0.5602 0.5592 0.5587 0.5589 0.5564
910.000000 0.5600 0.5630 0.5707 0.5739 0.5747
915.000000 0.5754 0.5763 0.5786 0.5929 0.6099
920.000000 0.6269 0.6439 0.6638 0.6807 0.7326
925.000000 0.7524 0.7686 0.7820 0.7953 0.8060
930.000000 0.8130 0.8201 0.8272 0.8347 0.8424
935.000000 0.8496 0.8561 0.8610 0.8645 0.8678
940.000000 0.8695 0.8712 0.8719 0.8726 0.8726
945.000000 0.8726 0.8725 0.8734 0.8719 0.8715
950.000000 0.8710 0.8701 0.8687 0.8672 0.8655
955.000000 0.8620 0.8585 0.8542 0.8460 0.8382
960.000000 0.8318 0.8238 0.8107 0.7922 0.7737
965.000000 0.7553 0.7368 0.7183 0.6998 0.6813
970.000000 0.6628 0.6444 0.6318 0.6217 0.6116
975.000000 0.6001 0.5867 0.5705 0.5555 0.5289
980.000000 0.5006 0.4724 0.4442 0.4160 0.3878
985.000000 0.3582 0.3450 0.3339 0.3253 0.3203
990.000000 0.3182 0.3180 0.3200 0.3241 0.3274
995.000000 0.3299 0.3296 0.3293 0.3285 0.3273
1000.000000 0.3144 0.3057 0.2862 0.2747 0.2667
1005.000000 0.2608 0.2575 0.2558 0.2541 0.2529
1010.000000 0.2524 0.2510 0.2486 0.2456 0.2416
1015.000000 0.2392 0.2374 0.2358 0.2373 0.2347
1020.000000 0.2352 0.2370 0.2451 0.2496 0.2520
1025.000000 0.2531 0.2537 0.2542 0.2568 0.2630
1030.000000 0.2664 0.2677 0.2680 0.2675 0.2666
1035.000000 0.2523 0.2370 0.2216 0.2062 0.1909
1040.000000 0.1755 0.1603 0.1491 0.1345 0.1230
1045.000000 0.1056 0.0962 0.0894 0.0844 0.0796
1050.000000 0.0756 0.0716 0.0695 0.0675 0.0661
1055.000000 0.0648 0.0635 0.0622 0.0608 0.0594
1060.000000 0.0583 0.0571 0.0560 0.0552 0.0553
1065.000000 0.0562 0.0576 0.0590 0.0604 0.0616
1070.000000 0.0616 0.0614 0.0609 0.0591 0.0568
1075.000000 0.0539 0.0506 0.0464 0.0413 0.0362
1080.000000 0.0323 0.0289 0.0256 0.0228 0.0201
1085.000000 0.0188 0.0182 0.0181 0.0181 0.0163
1090.000000 0.0188 0.0197 0.0216 0.0240 0.0269
1095.000000 0.0297 0.0331 0.0368 0.0403 0.0431
1100.000000 0.0454 0.0465 0.0470 0.0476 0.0481
1105.000000 0.0487 0.0494 0.0508 0.0528 0.0583
1110.000000 0.0671 0.0733 0.0792 0.0848 0.0889
1115.000000 0.0917 0.0934 0.0936 0.0934 0.0933
1120.000000 0.0936 0.0897 0.0844 0.0764 0.0710
1125.000000 0.0684 0.0667 0.0658 0.0649 0.0645
1130.000000 0.0641 0.0641 0.0641 0.0619 0.0655
1135.000000 0.0673 0.0690 0.0707 0.0727 0.0746
1140.000000 0.0774 0.0807 0.0861 0.0928 0.1022
1145.000000 0.1131 0.1251 0.1401 0.1536 0.1701
1150.000000 0.1979 0.2268 0.2473 0.2703 0.3033
1155.000000 0.3164 0.3346 0.3568 0.3790 0.4011
1160.000000 0.4233 0.4455 0.4677 0.4898 0.5120
1165.000000 0.5313 0.5439 0.5698 0.5780 0.5864
1170.000000 0.5955 0.6047 0.6148 0.6344 0.6600
1175.000000 0.6718 0.6835 0.6908 0.6982 0.7055
1180.000000 0.7136 0.7217 0.7298 0.7372 0.7445
1185.000000 0.7506 0.7548 0.7589 0.7612 0.7634
1190.000000 0.7651 0.7659 0.7661 0.7658 0.7654
1195.000000 0.7674 0.7636 0.7622 0.7606 0.7584
1200.000000 0.7539 0.7383 0.7266 0.7150 0.6985
1205.000000 0.6793 0.6659 0.6542 0.6399 0.6365
1210.000000 0.6349 0.6335 0.6324 0.6313 0.6301
1215.000000 0.6303 0.6300 0.6722 0.6932 0.7142
1220.000000 0.7352 0.7497 0.7577 0.7643 0.7689
1225.000000 0.7729 0.7755 0.7782 0.7790 0.7798
1230.000000 0.7800 0.7820 0.7794 0.7778 0.7760
1235.000000 0.7739 0.7709 0.7680 0.7653 0.7625
1240.000000 0.7557 0.7458 0.7403 0.7346 0.7290
1245.000000 0.7247 0.7234 0.7237 0.7244 0.7465
1250.000000 0.7629 0.7792 0.7962 0.8028 0.8067
1255.000000 0.8089 0.8103 0.8117 0.8127 0.8133
1260.000000 0.8140 0.8146 0.8151 0.8156 0.8187
1265.000000 0.8164 0.8160 0.8154 0.8134 0.8112
1270.000000 0.8085 0.8058 0.8032 0.7995 0.7938
1275.000000 0.7887 0.7845 0.7834 0.7818 0.7839
1280.000000 0.7849 0.7864 0.7890 0.7915 0.7939
1285.000000 0.7955 0.7953 0.7939 0.7860 0.7758
1290.000000 0.7687 0.7645 0.7631 0.7619 0.7616
1295.000000 0.7613 0.7610 0.7620 0.7610 0.7619
1300.000000 0.7628 0.7643 0.7667 0.7690 0.7729
1305.000000 0.7778 0.7835 0.7903 0.7948 0.7985
1310.000000 0.8017 0.8047 0.8069 0.8085 0.8095
1315.000000 0.8099 0.8103 0.8107 0.8113 0.8120
1320.000000 0.8128 0.8144 0.8160 0.8174 0.8177
1325.000000 0.8157 0.8169 0.8157 0.8141 0.8124
1330.000000 0.8107 0.8090 0.8071 0.8046 0.8021
1335.000000 0.7998 0.7974 0.7947 0.7921 0.7891
1340.000000 0.7844 0.7761 0.7622 0.7590 0.7583
1345.000000 0.7577 0.7571 0.7570 0.7570 0.7570
1350.000000 0.7555 0.7535 0.7510 0.7458 0.7405
1355.000000 0.7341 0.7230 0.7113 0.6928 0.6357
1360.000000 0.6135 0.5906 0.5732 0.5610 0.5456
1365.000000 0.5270 0.5131 0.4965 0.4792 0.4655
1370.000000 0.4477 0.4371 0.4354 0.4336 0.4317
1375.000000 0.4264 0.4114 0.3944 0.3774 0.3604
1380.000000 0.3435 0.3418 0.3422 0.4097 0.4529
1385.000000 0.4962 0.5394 0.5792 0.5938 0.6075
1390.000000 0.6479 0.6617 0.6767 0.6956 0.7239
1395.000000 0.7399 0.7518 0.7596 0.7638 0.7674
1400.000000 0.7711 0.7746 0.7779 0.7811 0.7830
1405.000000 0.7846 0.7861 0.7877 0.7890 0.7899
1410.000000 0.7907 0.7915 0.7922 0.7926 0.7927
1415.000000 0.7943 0.7923 0.7921 0.7917 0.7911
1420.000000 0.7905 0.7896 0.7884 0.7869 0.7852
1425.000000 0.7835 0.7808 0.7759 0.7707 0.7622
1430.000000 0.7542 0.7427 0.7266 0.7146 0.6906
1435.000000 0.6879 0.6877 0.6896 0.6929 0.6958
1440.000000 0.6968 0.6962 0.6952 0.6926 0.6876
1445.000000 0.6825 0.6777 0.6717 0.6636 0.6493
1450.000000 0.6298 0.6146 0.5905 0.5523 0.5240
1455.000000 0.4958 0.4675 0.4393 0.4110 0.3773
1460.000000 0.3570 0.3437 0.3403 0.3395 0.3392
1465.000000 0.3389 0.3230 0.2977 0.2725 0.2597
1470.000000 0.2539 0.3050 0.3439 0.3829 0.4218
1475.000000 0.4608 0.4997 0.5387 0.5776 0.6138
1480.000000 0.6308 0.6546 0.6774 0.6885 0.6988
1485.000000 0.7165 0.7399 0.7491 0.7556 0.7608
1490.000000 0.7650 0.7667 0.7683 0.7697 0.7701
1495.000000 0.7721 0.7702 0.7697 0.7691 0.7684
1500.000000 0.7677 0.7663 0.7644 0.7623 0.7597
1505.000000 0.7571 0.7546 0.7521 0.7492 0.7459
1510.000000 0.7427 0.7387 0.7343 0.7299 0.7254
1515.000000 0.7209 0.7164 0.7119 0.7073 0.7024
1520.000000 0.6974 0.6925 0.6876 0.6824 0.6773
1525.000000 0.6721 0.6670 0.6618 0.6567 0.6516
1530.000000 0.6465 0.6415 0.6359 0.6271 0.6184
1535.000000 0.6096 0.5997 0.5897 0.5787 0.5665
1540.000000 0.5465 0.5309 0.5217 0.5128 0.5044
1545.000000 0.4965 0.4891 0.4823 0.4759 0.4698
1550.000000 0.4641 0.4607 0.4583 0.4578 0.4574
1555.000000 0.4574 0.4578 0.4585 0.4592 0.4599
1560.000000 0.4618 0.4646 0.4745 0.4910 0.5050
1565.000000 0.5138 0.5226 0.5337 0.5463 0.5562
1570.000000 0.5636 0.5710 0.5782 0.5851 0.5920
1575.000000 0.5988 0.6046 0.6104 0.6139 0.6171
1580.000000 0.6188 0.6202 0.6216 0.6230 0.6244
1585.000000 0.6258 0.6281 0.6308 0.6335 0.6381
1590.000000 0.6432 0.6483 0.6533 0.6603 0.6676
1595.000000 0.6750 0.6843 0.6936 0.7025 0.7088
1600.000000 0.7151 0.7214 0.7448 0.7603 0.7727
1605.000000 0.7815 0.7903 0.8020 0.8127 0.8214
1610.000000 0.8289 0.8324 0.8359 0.8395 0.8430
1615.000000 0.8456 0.8483 0.8510 0.8537 0.8563
1620.000000 0.8595 0.8632 0.8670 0.8710 0.8743
1625.000000 0.8775 0.8806 0.8835 0.8861 0.8880
1630.000000 0.8892 0.8903 0.8914 0.8926 0.8937
1635.000000 0.8948 0.8957 0.8960 0.8964 0.8968
1640.000000 0.8971 0.8975 0.8979 0.8983 0.8988
1645.000000 0.8993 0.8999 0.9004 0.9009 0.9015
1650.000000 0.9020 0.9026 0.9031 0.9035 0.9038
1655.000000 0.9042 0.9046 0.9050 0.9054 0.9058
1660.000000 0.9061 0.9065 0.9066 0.9068 0.9070
1665.000000 0.9072 0.9074 0.9076 0.9078 0.9080
1670.000000 0.9082 0.9084 0.9086 0.9088 0.9090
1675.000000 0.9092 0.9093 0.9095 0.9097 0.9099
1680.000000 0.9100 0.9102 0.9104 0.9106 0.9107
1685.000000 0.9109 0.9111 0.9112 0.9113 0.9114
1690.000000 0.9116 0.9117 0.9118 0.9119 0.9121
1695.000000 0.9122 0.9123 0.9125 0.9126 0.9127
1700.000000 0.9128 0.9129 0.9130 0.9131 0.9131
1705.000000 0.9132 0.9133 0.9134 0.9134 0.9135
1710.000000 0.9136 0.9136 0.9137 0.9138 0.9139
1715.000000 0.9139 0.9140 0.9143 0.9146 0.9149
1720.000000 0.9152 0.9155 0.9158 0.9161 0.9164
1725.000000 0.9167 0.9170 0.9173 0.9175 0.9178
1730.000000 0.9180 0.9181 0.9180 0.9178 0.9176
1735.000000 0.9175 0.9173 0.9171 0.9170 0.9168
1740.000000 0.9168 0.9168 0.9169 0.9170 0.9171
1745.000000 0.9172 0.9174 0.9176 0.9179 0.9181
1750.000000 0.9184 0.9186 0.9187 0.9187 0.9188
1755.000000 0.9188 0.9188 0.9189 0.9189 0.9190
1760.000000 0.9190 0.9191 0.9191 0.9192 0.9193
1765.000000 0.9193 0.9194 0.9195 0.9195 0.9196
1770.000000 0.9197 0.9197 0.9198 0.9199 0.9200
1775.000000 0.9201 0.9203 0.9204 0.9205 0.9207
1780.000000 0.9208 0.9209 0.9247 0.9212 0.9213
1785.000000 0.9215 0.9216 0.9218 0.9219 0.9220
1790.000000 0.9222 0.9223 0.9225 0.9226 0.9228
1795.000000 0.9229 0.9231 0.9232 0.9234 0.9235
1800.000000 0.9237 0.9237 0.9238 0.9239 0.9239
1805.000000 0.9240 0.9241 0.9241 0.9242 0.9243
1810.000000 0.9243 0.9244 0.9245 0.9247 0.9250
1815.000000 0.9253 0.9257 0.9260 0.9263 0.9266
1820.000000 0.9269 0.9272 0.9273 0.9274 0.9275
1825.000000 0.9276 0.9277 0.9278 0.9280 0.9281
1830.000000 0.9282 0.9283 0.9284 0.9285 0.9286
1835.000000 0.9286 0.9286 0.9287 0.9287 0.9287
1840.000000 0.9287 0.9287 0.9287 0.9287 0.9287
1845.000000 0.9287 0.9287 0.9287 0.9287 0.9287
1850.000000 0.9287 0.9287 0.9287 0.9287 0.9287
1855.000000 0.9287 0.9287 0.9287 0.9287 0.9288
1860.000000 0.9288 0.9288 0.9288 0.9288 0.9288
1865.000000 0.9288 0.9288 0.9289 0.9289 0.9290
1870.000000 0.9290 0.9290 0.9291 0.9291 0.9292
1875.000000 0.9292 0.9292 0.9293 0.9293 0.9294
1880.000000 0.9294 0.9294 0.9295 0.9295 0.9296
1885.000000 0.9296 0.9297 0.9297 0.9298 0.9298
1890.000000 0.9299 0.9299 0.9300 0.9301 0.9301
1895.000000 0.9302 0.9302 0.9303 0.9303 0.9304
1900.000000 0.9304 0.9305 0.9306 0.9306 0.9307
1905.000000 0.9307 0.9308 0.9308 0.9308 0.9308
1910.000000 0.9309 0.9309 0.9309 0.9309 0.9309
1915.000000 0.9309 0.9309 0.9309 0.9309 0.9309
1920.000000 0.9309 0.9309 0.9309 0.9309 0.9309
1925.000000 0.9309 0.9309 0.9309 0.9309 0.9309
1930.000000 0.9309 0.9309 0.9309 0.9308 0.9308
1935.000000 0.9307 0.9307 0.9306 0.9306 0.9305
1940.000000 0.9305 0.9304 0.9304 0.9303 0.9303
1945.000000 0.9303 0.9302 0.9302 0.9301 0.9301
1950.000000 0.9300 0.9300 0.9299 0.9299 0.9298
1955.000000 0.9298 0.9297 0.9297 0.9296 0.9296
1960.000000 0.9296 0.9296 0.9296 0.9296 0.9296
1965.000000 0.9296 0.9295 0.9295 0.9295 0.9295
1970.000000 0.9295 0.9295 0.9295 0.9295 0.9295
1975.000000 0.9295 0.9295 0.9295 0.9294 0.9294
1980.000000 0.9294 0.9294 0.9294 0.9294 0.9294
1985.000000 0.9294 0.9294 0.9294 0.9294 0.9294
1990.000000 0.9294 0.9295 0.9295 0.9295 0.9295
1995.000000 0.9296 0.9296 0.9296 0.9296 0.9297
2000.000000 0.9297 0.9297 0.9297 0.9297 0.9297
2005.000000 0.9297 0.9298 0.9298 0.9298 0.9298
2010.000000 0.9298 0.9298 0.9298 0.9297 0.9297
2015.000000 0.9296 0.9295 0.9294 0.9293 0.9292
2020.000000 0.9291 0.9290 0.9289 0.9288 0.9287
2025.000000 0.9286 0.9285 0.9284 0.9283 0.9282
2030.000000 0.9281 0.9280 0.9279 0.9278 0.9278
2035.000000 0.9277 0.9276 0.9275 0.9274 0.9272
2040.000000 0.9271 0.9269 0.9268 0.9266 0.9265
2045.000000 0.9263 0.9262 0.9261 0.9260 0.9258
2050.000000 0.9257 0.9255 0.9254 0.9252 0.9251
2055.000000 0.9249 0.9248 0.9246 0.9245 0.9245
2060.000000 0.9245 0.9245 0.9246 0.9246 0.9247
2065.000000 0.9247 0.9248 0.9249 0.9250 0.9250
2070.000000 0.9251 0.9252 0.9253 0.9254 0.9256
2075.000000 0.9257 0.9259 0.9260 0.9262 0.9264
2080.000000 0.9266 0.9267 0.9269 0.9270 0.9272
2085.000000 0.9274 0.9276 0.9278 0.9281 0.9284
2090.000000 0.9288 0.9292 0.9297 0.9302 0.9307
2095.000000 0.9312 0.9317 0.9318 0.9319 0.9319
2100.000000 0.9319 0.9319 0.9319 0.9319 0.9319
2105.000000 0.9319 0.9319 0.9319 0.9319 0.9319
2110.000000 0.9319 0.9319 0.9319 0.9319 0.9319
2115.000000 0.9319 0.9319 0.9319 0.9319 0.9319
2120.000000 0.9319 0.9319 0.9319 0.9319 0.9319
2125.000000 0.9319 0.9319 0.9319 0.9319 0.9319
2130.000000 0.9319 0.9319 0.9319 0.9319 0.9319
2135.000000 0.9319 0.9319 0.9319 0.9319 0.9319
2140.000000 0.9319 0.9319 0.9319 0.9319 0.9319
2145.000000 0.9319 0.9319 0.9319 0.9319 0.9319
2150.000000 0.9319 0.9319 0.9319 0.9319 0.9319
2155.000000 0.9319 0.9319 0.9319 0.9319 0.9319
2160.000000 0.9319 0.9319 0.9319 0.9319 0.9319
2165.000000 0.9319 0.9319 0.9319 0.9319 0.9319
2170.000000 0.9319 0.9319 0.9319 0.9319 0.9319
2175.000000 0.9319 0.9319 0.9319 0.9319 0.9319
2180.000000 0.9319 0.9319 0.9319 0.9319 0.9319
2185.000000 0.9319 0.9319 0.9319 0.9319 0.9319
2190.000000 0.9319 0.9319 0.9319 0.9319 0.9319
2195.000000 0.9319 0.9319 0.9319 0.9319 0.9319
2200.000000 0.9319 0.9319 0.9319 0.9319 0.9319
2205.000000 0.9319 0.9319 0.9319 0.9319 0.9319
2210.000000 0.9319 0.9319 0.9319 0.9319 0.9319
2215.000000 0.9319 0.9319 0.9319 0.9319 0.9319
2220.000000 0.9319 0.9319 0.9319 0.9319 0.9319
2225.000000 0.9319 0.9319 0.9319 0.9319 0.9319
2230.000000 0.9319 0.9319 0.9319 0.9319 0.9319
2235.000000 0.9319 0.9319 0.9319 0.9319 0.9319
2240.000000 0.9319 0.9319 0.9319 0.9318 0.9317
2245.000000 0.9316 0.9316 0.9314 0.9312 0.9310
2250.000000 0.9308 0.9305 0.9303 0.9301 0.9299
2255.000000 0.9296 0.9293 0.9289 0.9286 0.9282
2260.000000 0.9279 0.9275 0.9272 0.9264 0.9256
2265.000000 0.9247 0.9239 0.9234 0.9229 0.9225
2270.000000 0.9222 0.9218 0.9215 0.9211 0.9208
2275.000000 0.9204 0.9201 0.9197 0.9193 0.9189
2280.000000 0.9186 0.9182 0.9179 0.9177 0.9176
2285.000000 0.9174 0.9173 0.9171 0.9169 0.9167
2290.000000 0.9166 0.9164 0.9163 0.9161 0.9159
2295.000000 0.9157 0.9156 0.9155 0.9155 0.9157
2300.000000 0.9159 0.9161 0.9164 0.9166 0.9168
2305.000000 0.9170 0.9172 0.9174 0.9176 0.9183
2310.000000 0.9191 0.9198 0.9206 0.9213 0.9221
2315.000000 0.9228 0.9236 0.9243 0.9250 0.9257
2320.000000 0.9264 0.9271 0.9278 0.9285 0.9292
2325.000000 0.9298 0.9305 0.9310 0.9315 0.9320
2330.000000 0.9325 0.9330 0.9336 0.9341 0.9346
2335.000000 0.9351 0.9356 0.9359 0.9363 0.9365
2340.000000 0.9367 0.9369 0.9371 0.9373 0.9375
2345.000000 0.9377 0.9379 0.9381 0.9384 0.9386
2350.000000 0.9389 0.9391 0.9393 0.9395 0.9398
2355.000000 0.9400 0.9403 0.9405 0.9407 0.9408
2360.000000 0.9410 0.9411 0.9413 0.9414 0.9416
2365.000000 0.9417 0.9419 0.9420 0.9422 0.9422
2370.000000 0.9423 0.9424 0.9425 0.9426 0.9427
2375.000000 0.9427 0.9428 0.9429 0.9430 0.9431
2380.000000 0.9432 0.9431 0.9431 0.9428 0.9426
2385.000000 0.9423 0.9421 0.9418 0.9416 0.9409
2390.000000 0.9402 0.9393 0.9384 0.9375 0.9366
2395.000000 0.9358 0.9350 0.9345 0.9340 0.9337
2400.000000 0.9334 0.9334 0.9334 0.9334 0.9334
2405.000000 0.9334 0.9334 0.9334 0.9334 0.9334
2410.000000 0.9334 0.9334 0.9334 0.9334 0.9334
2415.000000 0.9334 0.9334 0.9334 0.9335 0.9335
2420.000000 0.9335 0.9335 0.9336 0.9336 0.9337
2425.000000 0.9337 0.9337 0.9337 0.9338 0.9338
2430.000000 0.9338 0.9338 0.9339 0.9339 0.9339
2435.000000 0.9339 0.9340 0.9340 0.9340 0.9340
2440.000000 0.9341 0.9341 0.9341 0.9341 0.9341
2445.000000 0.9341 0.9342 0.9342 0.9342 0.9341
2450.000000 0.9341 0.9340 0.9340 0.9339 0.9339
2455.000000 0.9338 0.9338 0.9337 0.9336 0.9335
2460.000000 0.9335 0.9334 0.9334 0.9333 0.9333
2465.000000 0.9332 0.9332 0.9331 0.9331 0.9330
2470.000000 0.9330 0.9329 0.9329 0.9328 0.9328
2475.000000 0.9327 0.9327 0.9326 0.9326 0.9325
2480.000000 0.9325 0.9324 0.9324 0.9323 0.9323
2485.000000 0.9322 0.9322 0.9321 0.9321 0.9320
2490.000000 0.9320 0.9319 0.9319 0.9318 0.9318
2495.000000 0.9317 0.9317 0.9316 0.9316 0.9315
2500.000000 0.9315 0.9314 0.9314 0.9312 0.9311
2505.000000 0.9310 0.9309 0.9307 0.9306 0.9304
2510.000000 0.9303 0.9302 0.9301 0.9299 0.9298
2515.000000 0.9297 0.9296 0.9294 0.9293 0.9291
2520.000000 0.9290 0.9289 0.9288 0.9286 0.9285
2525.000000 0.9283 0.9282 0.9280 0.9278 0.9276
2530.000000 0.9275 0.9273 0.9271 0.9269 0.9268
2535.000000 0.9266 0.9264 0.9262 0.9261 0.9259
2540.000000 0.9257 0.9255 0.9254 0.9251 0.9248
2545.000000 0.9244 0.9240 0.9236 0.9233 0.9229
2550.000000 0.9225 0.9221 0.9217 0.9213 0.9209
2555.000000 0.9204 0.9199 0.9194 0.9189 0.9184
2560.000000 0.9179 0.9174 0.9169 0.9164 0.9159
2565.000000 0.9154 0.9149 0.9143 0.9138 0.9133
2570.000000 0.9128 0.9122 0.9117 0.9112 0.9107
2575.000000 0.9101 0.9096 0.9091 0.9086 0.9080
2580.000000 0.9075 0.9069 0.9064 0.9058 0.9053
2585.000000 0.9047 0.9042 0.9036 0.9031 0.9025
2590.000000 0.9020 0.9014 0.9009 0.9003 0.8998
2595.000000 0.8996 0.8994 0.8992 0.8991 0.8989
2600.000000 0.8987 0.8985 0.8983 0.8981 0.8979
2605.000000 0.8977 0.8976 0.8974 0.8972 0.8970
2610.000000 0.8968 0.8966 0.8964 0.8962 0.8961
2615.000000 0.8960 0.8959 0.8959 0.8960 0.8961
2620.000000 0.8962 0.8962 0.8963 0.8964 0.8965
2625.000000 0.8965 0.8966 0.8967 0.8968 0.8968
2630.000000 0.8969 0.8969 0.8969 0.8968 0.8968
2635.000000 0.8967 0.8967 0.8965 0.8964 0.8961
2640.000000 0.8959 0.8956 0.8954 0.8951 0.8949
2645.000000 0.8946 0.8944 0.8941 0.8939 0.8936
2650.000000 0.8934 0.8928 0.8922 0.8915 0.8908
2655.000000 0.8901 0.8894 0.8881 0.8868 0.8852
2660.000000 0.8836 0.8819 0.8803 0.8787 0.8771
2665.000000 0.8745 0.8720 0.8693 0.8666 0.8638
2670.000000 0.8611 0.8580 0.8550 0.8534 0.8518
2675.000000 0.8513 0.8508 0.8503 0.8499 0.8498
2680.000000 0.8498 0.8498 0.8498 0.8498 0.8498
2685.000000 0.8499 0.8500 0.8496 0.8493 0.8481
2690.000000 0.8469 0.8447 0.8426 0.8401 0.8377
2695.000000 0.8350 0.8324 0.8297 0.8271 0.8240
2700.000000 0.8210 0.8177 0.8145 0.8121 0.8098
2705.000000 0.8076 0.8054 0.8030 0.8006 0.7994
2710.000000 0.7982 0.7977 0.7972 0.7971 0.7970
2715.000000 0.7970 0.7970 0.7970 0.7970 0.7969
2720.000000 0.7968 0.7967 0.7966 0.7964 0.7963
2725.000000 0.7959 0.7956 0.7953 0.7950 0.7933
2730.000000 0.7916 0.7905 0.7895 0.7894 0.7904
2735.000000 0.7899 0.7905 0.7915 0.7926 0.7941
2740.000000 0.7956 0.7977 0.7999 0.8022 0.8046
2745.000000 0.8067 0.8088 0.8109 0.8130 0.8149
2750.000000 0.8169 0.8188 0.8208 0.8223 0.8238
2755.000000 0.8249 0.8261 0.8273 0.8285 0.8296
2760.000000 0.8308 0.8318 0.8329 0.8334 0.8339
2765.000000 0.8341 0.8333 0.8344 0.8346 0.8345
2770.000000 0.8344 0.8338 0.8333 0.8327 0.8321
2775.000000 0.8313 0.8306 0.8294 0.8282 0.8270
2780.000000 0.8258 0.8246 0.8235 0.8223 0.8212
2785.000000 0.8193 0.8174 0.8152 0.8130 0.8107
2790.000000 0.8084 0.8058 0.8033 0.8008 0.7983
2795.000000 0.7957 0.7931 0.7893 0.7856 0.7818
2800.000000 0.7781 0.7740 0.7700 0.7653 0.7607
2805.000000 0.7560 0.7513 0.7452 0.7391 0.7327
2810.000000 0.7264 0.7201 0.7139 0.7077 0.7015
2815.000000 0.6903 0.6792 0.6604 0.6417 0.6082
2820.000000 0.5748 0.5618 0.5489 0.5421 0.5354
2825.000000 0.5286 0.5219 0.5008 0.4798 0.4542
2830.000000 0.4286 0.4030 0.3775 0.3519 0.3263
2835.000000 0.3007 0.2751 0.2512 0.2274 0.2161
2840.000000 0.2048 0.1959 0.1870 0.1769 0.1669
2845.000000 0.1522 0.1376 0.1207 0.1038 0.0931
2850.000000 0.0824 0.0762 0.0701 0.0663 0.0626
2855.000000 0.0607 0.0589 0.0570 0.0552 0.0532
2860.000000 0.0513 0.0494 0.0476 0.0466 0.0457
2865.000000 0.0456 0.0455 0.0457 0.0468 0.0463
2870.000000 0.0467 0.0472 0.0478 0.0484 0.0491
2875.000000 0.0498 0.0506 0.0518 0.0530 0.0660
2880.000000 0.0790 0.0933 0.1077 0.1221 0.1365
2885.000000 0.1484 0.1603 0.1615 0.1627 0.1639
2890.000000 0.1652 0.1658 0.1664 0.1663 0.1662
2895.000000 0.1649 0.1662 0.1611 0.1586 0.1532
2900.000000 0.1478 0.1439 0.1400 0.1350 0.1300
2905.000000 0.1227 0.1154 0.1093 0.1032 0.0974
2910.000000 0.0916 0.0861 0.0807 0.0764 0.0722
2915.000000 0.0685 0.0648 0.0609 0.0571 0.0528
2920.000000 0.0485 0.0442 0.0399 0.0356 0.0314
2925.000000 0.0284 0.0254 0.0230 0.0206 0.0190
2930.000000 0.0174 0.0165 0.0156 0.0147 0.0139
2935.000000 0.0135 0.0131 0.0128 0.0126 0.0127
2940.000000 0.0115 0.0130 0.0132 0.0148 0.0164
2945.000000 0.0204 0.0244 0.0289 0.0334 0.0344
2950.000000 0.0354 0.0352 0.0388 0.0343 0.0336
2955.000000 0.0311 0.0287 0.0259 0.0231 0.0203
2960.000000 0.0175 0.0158 0.0141 0.0135 0.0130
2965.000000 0.0132 0.0137 0.0141 0.0148 0.0181
2970.000000 0.0214 0.0454 0.0695 0.0865 0.1035
2975.000000 0.1349 0.1664 0.1978 0.2293 0.2607
2980.000000 0.2922 0.3236 0.3551 0.3865 0.4180
2985.000000 0.4494 0.4809 0.4891 0.4974 0.5031
2990.000000 0.5089 0.5157 0.5226 0.5309 0.5393
2995.000000 0.5515 0.5638 0.5785 0.5932 0.6091
3000.000000 0.6250 0.6411 0.6572 0.6692 0.6812
3005.000000 0.6872 0.6932 0.6992 0.7052 0.7113
3010.000000 0.7174 0.7235 0.7297 0.7349 0.7401
3015.000000 0.7450 0.7500 0.7550 0.7600 0.7650
3020.000000 0.7701 0.7751 0.7802 0.7830 0.7858
3025.000000 0.7882 0.7906 0.7929 0.7953 0.7977
3030.000000 0.8001 0.8024 0.8048 0.8066 0.8084
3035.000000 0.8100 0.8117 0.8133 0.8150 0.8167
3040.000000 0.8184 0.8200 0.8217 0.8234 0.8251
3045.000000 0.8266 0.8282 0.8296 0.8311 0.8326
3050.000000 0.8341 0.8355 0.8370 0.8385 0.8400
3055.000000 0.8414 0.8429 0.8438 0.8447 0.8456
3060.000000 0.8465 0.8473 0.8482 0.8491 0.8500
3065.000000 0.8509 0.8518 0.8526 0.8535 0.8540
3070.000000 0.8545 0.8550 0.8555 0.8560 0.8565
3075.000000 0.8570 0.8575 0.8580 0.8585 0.8590
3080.000000 0.8595 0.8600 0.8605 0.8610 0.8615
3085.000000 0.8619 0.8623 0.8626 0.8629 0.8632
3090.000000 0.8635 0.8638 0.8641 0.8644 0.8647
3095.000000 0.8650 0.8653 0.8655 0.8658 0.8660
3100.000000 0.8663 0.8665 0.8667 0.8669 0.8672
3105.000000 0.8674 0.8676 0.8678 0.8681 0.8683
3110.000000 0.8686 0.8688 0.8690 0.8692 0.8695
3115.000000 0.8696 0.8698 0.8699 0.8701 0.8702
3120.000000 0.8704 0.8705 0.8707 0.8708 0.8710
3125.000000 0.8711 0.8713 0.8714 0.8716 0.8717
3130.000000 0.8719 0.8719 0.8720 0.8720 0.8721
3135.000000 0.8722 0.8723 0.8723 0.8724 0.8724
3140.000000 0.8725 0.8725 0.8726 0.8726 0.8727
3145.000000 0.8726 0.8726 0.8725 0.8725 0.8725
3150.000000 0.8725 0.8724 0.8724 0.8724 0.8724
3155.000000 0.8724 0.8725 0.8725 0.8726 0.8726
3160.000000 0.8727 0.8728 0.8729 0.8729 0.8730
3165.000000 0.8730 0.8731 0.8732 0.8733 0.8733
3170.000000 0.8734 0.8734 0.8735 0.8735 0.8736
3175.000000 0.8736 0.8736 0.8736 0.8737 0.8737
3180.000000 0.8738 0.8738 0.8738 0.8738 0.8739
3185.000000 0.8739 0.8739 0.8739 0.8740 0.8740
3190.000000 0.8741 0.8741 0.8741 0.8741 0.8742
3195.000000 0.8742 0.8742 0.8742 0.8743 0.8744
3200.000000 0.8746 0.8747 0.8749 0.8750 0.8752
3205.000000 0.8753 0.8754 0.8755 0.8757 0.8758
3210.000000 0.8760 0.8761 0.8762 0.8762 0.8763
3215.000000 0.8763 0.8764 0.8764 0.8765 0.8765
3220.000000 0.8766 0.8766 0.8767 0.8767 0.8768
3225.000000 0.8768 0.8769 0.8769 0.8770 0.8769
3230.000000 0.8768 0.8767 0.8766 0.8765 0.8765
3235.000000 0.8764 0.8763 0.8762 0.8761 0.8760
3240.000000 0.8760 0.8759 0.8758 0.8757 0.8756
3245.000000 0.8755 0.8754 0.8753 0.8753 0.8752
3250.000000 0.8751 0.8750 0.8749 0.8748 0.8747
3255.000000 0.8745 0.8744 0.8742 0.8741 0.8739
3260.000000 0.8737 0.8735 0.8734 0.8732 0.8731
3265.000000 0.8729 0.8727 0.8725 0.8724 0.8722
3270.000000 0.8720 0.8718 0.8717 0.8715 0.8714
3275.000000 0.8712 0.8710 0.8708 0.8707 0.8705
3280.000000 0.8704 0.8702 0.8700 0.8698 0.8697
3285.000000 0.8695 0.8694 0.8692 0.8691 0.8689
3290.000000 0.8688 0.8686 0.8684 0.8682 0.8681
3295.000000 0.8679 0.8678 0.8676 0.8675 0.8673
3300.000000 0.8672 0.8670 0.8668 0.8666 0.8665
3305.000000 0.8663 0.8662 0.8660 0.8659 0.8657
3310.000000 0.8656 0.8654 0.8653 0.8651 0.8650
3315.000000 0.8648 0.8647 0.8646 0.8645 0.8644
3320.000000 0.8643 0.8642 0.8642 0.8641 0.8640
3325.000000 0.8639 0.8639 0.8638 0.8637 0.8636
3330.000000 0.8636 0.8635 0.8634 0.8633 0.8633
3335.000000 0.8632 0.8631 0.8630 0.8629 0.8628
3340.000000 0.8628 0.8627 0.8626 0.8625 0.8625
3345.000000 0.8624 0.8623 0.8622 0.8622 0.8621
3350.000000 0.8620 0.8619 0.8618 0.8617 0.8617
3355.000000 0.8616 0.8621 0.8614 0.8614 0.8613
3360.000000 0.8612 0.8611 0.8610 0.8609 0.8609
3365.000000 0.8608 0.8607 0.8606 0.8606 0.8606
3370.000000 0.8606 0.8606 0.8606 0.8605 0.8605
3375.000000 0.8605 0.8605 0.8604 0.8604 0.8604
3380.000000 0.8604 0.8603 0.8603 0.8603 0.8603
3385.000000 0.8603 0.8603 0.8602 0.8602 0.8602
3390.000000 0.8602 0.8601 0.8601 0.8601 0.8601
3395.000000 0.8600 0.8600 0.8600 0.8600 0.8600
3400.000000 0.8601 0.8601 0.8602 0.8602 0.8603
3405.000000 0.8604 0.8605 0.8605 0.8606 0.8606
3410.000000 0.8607 0.8607 0.8608 0.8608 0.8609
3415.000000 0.8609 0.8610 0.8610 0.8611 0.8611
3420.000000 0.8612 0.8612 0.8613 0.8613 0.8614
3425.000000 0.8614 0.8615 0.8617 0.8619 0.8620
3430.000000 0.8622 0.8624 0.8626 0.8628 0.8630
3435.000000 0.8631 0.8633 0.8635 0.8637 0.8639
3440.000000 0.8641 0.8642 0.8644 0.8646 0.8648
3445.000000 0.8650 0.8652 0.8653 0.8655 0.8657
3450.000000 0.8659 0.8660 0.8662 0.8663 0.8665
3455.000000 0.8666 0.8668 0.8670 0.8672 0.8673
3460.000000 0.8675 0.8676 0.8678 0.8679 0.8681
3465.000000 0.8682 0.8684 0.8685 0.8687 0.8688
3470.000000 0.8690 0.8691 0.8693 0.8694 0.8696
3475.000000 0.8697 0.8699 0.8700 0.8702 0.8703
3480.000000 0.8705 0.8706 0.8708 0.8710 0.8712
3485.000000 0.8714 0.8716 0.8718 0.8720 0.8721
3490.000000 0.8723 0.8725 0.8727 0.8729 0.8731
3495.000000 0.8733 0.8735 0.8737 0.8739 0.8741
3500.000000 0.8743 0.8744 0.8746 0.8748 0.8750
3505.000000 0.8752 0.8754 0.8756 0.8758 0.8760
3510.000000 0.8762 0.8763 0.8765 0.8767 0.8769
3515.000000 0.8773 0.8777 0.8780 0.8784 0.8787
3520.000000 0.8791 0.8794 0.8798 0.8802 0.8806
3525.000000 0.8809 0.8813 0.8816 0.8820 0.8823
3530.000000 0.8827 0.8831 0.8836 0.8840 0.8844
3535.000000 0.8848 0.8852 0.8856 0.8861 0.8865
3540.000000 0.8869 0.8873 0.8877 0.8881 0.8886
3545.000000 0.8890 0.8894 0.8898 0.8902 0.8906
3550.000000 0.8911 0.8915 0.8919 0.8924 0.8930
3555.000000 0.8937 0.8944 0.8950 0.8957 0.8963
3560.000000 0.8970 0.8976 0.8983 0.8989 0.8996
3565.000000 0.9002 0.9009 0.9015 0.9022 0.9027
3570.000000 0.9033 0.9038 0.9043 0.9048 0.9054
3575.000000 0.9059 0.9064 0.9064 0.9064 0.9063
3580.000000 0.9062 0.9060 0.9059 0.9058 0.9057
3585.000000 0.9052 0.9047 0.9039 0.9031 0.9031
3590.000000 0.9031 0.9032 0.9034 0.9039 0.9044
3595.000000 0.9049 0.9054 0.9059 0.9064 0.9070
3600.000000 0.9076 0.9078 0.9080 0.9079 0.9078
3605.000000 0.9077 0.9076 0.9071 0.9066 0.9053
3610.000000 0.9041 0.9022 0.9003 0.8982 0.8962
3615.000000 0.8926 0.8891 0.8852 0.8814 0.8763
3620.000000 0.8713 0.8653 0.8593 0.8543 0.8494
3625.000000 0.8455 0.8416 0.8374 0.8333 0.8286
3630.000000 0.8240 0.8209 0.8178 0.8147 0.8117
3635.000000 0.8094 0.8071 0.8054 0.8037 0.8025
3640.000000 0.8014 0.8006 0.7998 0.7995 0.7992
3645.000000 0.7992 0.7993 0.8002 0.8011 0.8077
3650.000000 0.8143 0.8301 0.8459 0.8496 0.8534
3655.000000 0.8579 0.8624 0.8670 0.8716 0.8752
3660.000000 0.8789 0.8821 0.8854 0.8871 0.8889
3665.000000 0.8906 0.8924 0.8941 0.8959 0.8974
3670.000000 0.8989 0.9003 0.9018 0.9027 0.9037
3675.000000 0.9046 0.9056 0.9063 0.9071 0.9075
3680.000000 0.9080 0.9084 0.9088 0.9090 0.9092
3685.000000 0.9094 0.9096 0.9098 0.9100 0.9102
3690.000000 0.9104 0.9105 0.9107 0.9107 0.9108
3695.000000 0.9108 0.9109 0.9110 0.9111 0.9111
3700.000000 0.9112 0.9112 0.9113 0.9113 0.9114
3705.000000 0.9114 0.9114 0.9114 0.9114 0.9114
3710.000000 0.9114 0.9114 0.9114 0.9114 0.9114
3715.000000 0.9114 0.9114 0.9114 0.9115 0.9115
3720.000000 0.9116 0.9116 0.9116 0.9116 0.9117
3725.000000 0.9117 0.9118 0.9118 0.9119 0.9119
3730.000000 0.9119 0.9119 0.9120 0.9120 0.9121
3735.000000 0.9121 0.9122 0.9122 0.9122 0.9122
3740.000000 0.9122 0.9122 0.9122 0.9122 0.9122
3745.000000 0.9122 0.9122 0.9122 0.9122 0.9122
3750.000000 0.9122 0.9122 0.9122 0.9122 0.9122
3755.000000 0.9122 0.9122 0.9122 0.9122 0.9122
3760.000000 0.9122 0.9122 0.9123 0.9123 0.9123
3765.000000 0.9122 0.9122 0.9122 0.9122 0.9121
3770.000000 0.9121 0.9121 0.9121 0.9120 0.9120
3775.000000 0.9120 0.9120 0.9119 0.9119 0.9120
3780.000000 0.9121 0.9122 0.9123 0.9124 0.9125
3785.000000 0.9126 0.9128 0.9129 0.9130 0.9131
3790.000000 0.9132 0.9133 0.9135 0.9136 0.9137
3795.000000 0.9138 0.9139 0.9140 0.9142 0.9142
3800.000000 0.9142
##END=
