##TITLE=POTASSIUM MOLYBDATE
$$ C.P.
##JCAMP-DX=4.24
##DATA TYPE=INFRARED SPECTRUM
##CLASS=COBLENTZ
##ORIGIN=MELLON INSTITUTE
##OWNER=COBLENTZ SOCIETY
Collection (C) 2018 copyright by the U.S. Secretary of Commerce
on behalf of the United States of America. All rights reserved.
##DATE=Not specified, most likely prior to 1970
##MOLFORM=K2 Mo O4  * 5 H2 O
##SOURCE REFERENCE=COBLENTZ NO. 472
##$NIST ID=B6000472
##$NIST SOURCE=COBLENTZ
##$NIST IMAGE=cob472
##SPECTROMETER/DATA SYSTEM=Not specified, most likely a prism, grating, or hybrid spectrometer.
##STATE=SOLID (NUJOL MULL)
##PATH LENGTH=
$$SPECTRAL CONTAMINATION DUE TO OIL AROUND 2900, 1450, 1380 CM^-^1
##SAMPLING PROCEDURE=TRANSMISSION
##RESOLUTION=4
##DATA PROCESSING=DIGITIZED BY NIST FROM HARD COPY
##XUNITS=MICROMETERS
##YUNITS=TRANSMITTANCE
##XFACTOR=1.000000
##YFACTOR=1
##DELTAX=000.006820
##FIRSTX=2.059
##LASTX=16.0051
##FIRSTY=0.919
##MAXX=16.0051
##MINX=2.059
##MAXY=0.998
##MINY=0.104
##NPOINTS=2046
##XYDATA=(X++(Y..Y))
2.059000 0.9190 0.9210 0.9190 0.9190 0.9190
2.093115 0.9190 0.9190 0.9190 0.9190 0.9190
2.127000 0.9190 0.9170 0.9170 0.9170 0.9170
2.161115 0.9150 0.9150 0.9170 0.9170 0.9150
2.195000 0.9150 0.9150 0.9150 0.9170 0.9150
2.229115 0.9140 0.9140 0.9140 0.9140 0.9140
2.263000 0.9140 0.9140 0.9140 0.9140 0.9140
2.297115 0.9140 0.9140 0.9140 0.9140 0.9140
2.332000 0.9120 0.9120 0.9120 0.9120 0.9120
2.366115 0.9120 0.9120 0.9120 0.9120 0.9140
2.400000 0.9120 0.9120 0.9120 0.9140 0.9120
2.434115 0.9120 0.9120 0.9120 0.9120 0.9120
2.468000 0.9140 0.9120 0.9120 0.9120 0.9120
2.502115 0.9120 0.9120 0.9120 0.9120 0.9120
2.536000 0.9120 0.9120 0.9120 0.9120 0.9120
2.570115 0.9120 0.9100 0.9100 0.9100 0.9100
2.604000 0.9120 0.9120 0.9140 0.9120 0.9120
2.638115 0.9140 0.9140 0.9140 0.9150 0.9150
2.673000 0.9150 0.9170 0.9170 0.9170 0.9190
2.707115 0.9190 0.9190 0.9190 0.9190 0.9190
2.741000 0.9190 0.9170 0.9170 0.9170 0.9150
2.775115 0.9120 0.9100 0.9050 0.9050 0.9030
2.809000 0.9000 0.9000 0.8980 0.8980 0.8950
2.843115 0.8950 0.8930 0.8900 0.8850 0.8810
2.877000 0.8790 0.8760 0.8690 0.8620 0.8570
2.911115 0.8570 0.8550 0.8500 0.8490 0.8450
2.945000 0.8420 0.8400 0.8370 0.8310 0.8260
2.979115 0.8230 0.8180 0.8070 0.8060 0.7990
3.014000 0.7990 0.7900 0.7870 0.7830 0.7830
3.048115 0.7870 0.7870 0.7920 0.8010 0.8020
3.082000 0.8090 0.8130 0.8190 0.8230 0.8280
3.116115 0.8330 0.8370 0.8420 0.8470 0.8500
3.150000 0.8540 0.8550 0.8610 0.8620 0.8640
3.184115 0.8660 0.8690 0.8710 0.8730 0.8730
3.218000 0.8740 0.8780 0.8780 0.8780 0.8780
3.252115 0.8780 0.8760 0.8730 0.8690 0.8620
3.286000 0.8590 0.8550 0.8430 0.8300 0.8090
3.320115 0.7530 0.6940 0.6150 0.5350 0.4800
3.355000 0.4230 0.3700 0.3250 0.2810 0.2770
3.389115 0.2810 0.3290 0.3890 0.4570 0.4920
3.423000 0.5240 0.5470 0.5470 0.5330 0.4920
3.457115 0.4920 0.4990 0.5230 0.5500 0.6150
3.491000 0.6890 0.7470 0.7970 0.8330 0.8470
3.525115 0.8810 0.8900 0.8980 0.9020 0.9070
3.559000 0.9120 0.9150 0.9210 0.9220 0.9220
3.593115 0.9260 0.9270 0.9290 0.9290 0.9290
3.627000 0.9310 0.9310 0.9310 0.9330 0.9330
3.661115 0.9330 0.9330 0.9330 0.9330 0.9340
3.696000 0.9330 0.9330 0.9330 0.9340 0.9340
3.730115 0.9340 0.9340 0.9340 0.9340 0.9340
3.764000 0.9330 0.9330 0.9330 0.9330 0.9340
3.798115 0.9330 0.9340 0.9340 0.9340 0.9340
3.832000 0.9340 0.9340 0.9340 0.9340 0.9340
3.866115 0.9340 0.9340 0.9340 0.9340 0.9360
3.900000 0.9360 0.9360 0.9360 0.9380 0.9380
3.934115 0.9380 0.9380 0.9380 0.9390 0.9390
3.968000 0.9390 0.9390 0.9390 0.9390 0.9390
4.002115 0.9390 0.9390 0.9390 0.9390 0.9390
4.037000 0.9390 0.9390 0.9390 0.9390 0.9390
4.071115 0.9390 0.9390 0.9390 0.9380 0.9380
4.105000 0.9380 0.9380 0.9380 0.9380 0.9380
4.139115 0.9380 0.9380 0.9380 0.9360 0.9360
4.173000 0.9360 0.9380 0.9380 0.9380 0.9380
4.207115 0.9380 0.9380 0.9380 0.9380 0.9380
4.241000 0.9360 0.9360 0.9360 0.9360 0.9360
4.275115 0.9360 0.9360 0.9360 0.9360 0.9340
4.309000 0.9340 0.9340 0.9340 0.9330 0.9330
4.343115 0.9330 0.9330 0.9330 0.9330 0.9310
4.378000 0.9310 0.9310 0.9310 0.9310 0.9310
4.412115 0.9310 0.9290 0.9290 0.9290 0.9290
4.446000 0.9270 0.9270 0.9270 0.9270 0.9270
4.480115 0.9260 0.9260 0.9260 0.9260 0.9260
4.514000 0.9240 0.9260 0.9260 0.9260 0.9260
4.548115 0.9260 0.9260 0.9260 0.9260 0.9260
4.582000 0.9260 0.9260 0.9240 0.9240 0.9260
4.616115 0.9260 0.9260 0.9260 0.9260 0.9260
4.650000 0.9260 0.9260 0.9270 0.9270 0.9270
4.684115 0.9290 0.9290 0.9290 0.9290 0.9290
4.719000 0.9290 0.9290 0.9290 0.9290 0.9310
4.753115 0.9310 0.9310 0.9310 0.9310 0.9310
4.787000 0.9310 0.9290 0.9310 0.9310 0.9310
4.821115 0.9310 0.9310 0.9310 0.9310 0.9330
4.855000 0.9330 0.9330 0.9330 0.9330 0.9330
4.889115 0.9330 0.9340 0.9330 0.9330 0.9330
4.923000 0.9330 0.9340 0.9340 0.9340 0.9340
4.957115 0.9340 0.9340 0.9340 0.9340 0.9340
4.991000 0.9360 0.9360 0.9380 0.9380 0.9380
5.025115 0.9380 0.9390 0.9390 0.9390 0.9390
5.060000 0.9390 0.9390 0.9410 0.9410 0.9410
5.094115 0.9410 0.9410 0.9410 0.9410 0.9410
5.128000 0.9430 0.9430 0.9430 0.9430 0.9430
5.162115 0.9430 0.9430 0.9430 0.9430 0.9430
5.196000 0.9430 0.9430 0.9410 0.9410 0.9430
5.230115 0.9430 0.9430 0.9430 0.9430 0.9430
5.264000 0.9430 0.9430 0.9430 0.9410 0.9410
5.298115 0.9410 0.9430 0.9430 0.9430 0.9430
5.332000 0.9430 0.9430 0.9430 0.9450 0.9430
5.366115 0.9430 0.9450 0.9450 0.9430 0.9430
5.400000 0.9460 0.9460 0.9460 0.9460 0.9460
5.434115 0.9460 0.9460 0.9460 0.9460 0.9460
5.469000 0.9460 0.9460 0.9460 0.9460 0.9460
5.503115 0.9460 0.9460 0.9460 0.9460 0.9460
5.537000 0.9460 0.9460 0.9460 0.9460 0.9460
5.571115 0.9460 0.9480 0.9480 0.9480 0.9500
5.605000 0.9500 0.9500 0.9500 0.9510 0.9510
5.639115 0.9510 0.9510 0.9530 0.9530 0.9530
5.673000 0.9530 0.9550 0.9550 0.9550 0.9550
5.707115 0.9550 0.9550 0.9550 0.9550 0.9550
5.741000 0.9550 0.9550 0.9570 0.9570 0.9570
5.775115 0.9580 0.9580 0.9580 0.9580 0.9600
5.810000 0.9600 0.9580 0.9580 0.9580 0.9550
5.844115 0.9580 0.9580 0.9570 0.9570 0.9570
5.878000 0.9550 0.9550 0.9550 0.9550 0.9550
5.912115 0.9550 0.9530 0.9530 0.9530 0.9510
5.946000 0.9510 0.9510 0.9510 0.9510 0.9530
5.980115 0.9550 0.9550 0.9530 0.9550 0.9530
6.014000 0.9550 0.9550 0.9570 0.9580 0.9580
6.048115 0.9600 0.9580 0.9600 0.9600 0.9620
6.082000 0.9620 0.9630 0.9650 0.9650 0.9650
6.116115 0.9650 0.9670 0.9690 0.9690 0.9690
6.151000 0.9700 0.9700 0.9720 0.9720 0.9720
6.185115 0.9720 0.9720 0.9740 0.9750 0.9750
6.219000 0.9750 0.9750 0.9750 0.9770 0.9790
6.253115 0.9790 0.9790 0.9790 0.9790 0.9790
6.287000 0.9790 0.9790 0.9770 0.9770 0.9750
6.321115 0.9750 0.9750 0.9750 0.9750 0.9750
6.355000 0.9750 0.9740 0.9750 0.9740 0.9740
6.389115 0.9740 0.9740 0.9720 0.9740 0.9740
6.423000 0.9720 0.9720 0.9720 0.9720 0.9700
6.457115 0.9700 0.9720 0.9720 0.9720 0.9720
6.492000 0.9700 0.9700 0.9720 0.9720 0.9720
6.526115 0.9720 0.9720 0.9720 0.9720 0.9720
6.560000 0.9720 0.9720 0.9720 0.9720 0.9700
6.594115 0.9700 0.9700 0.9720 0.9720 0.9740
6.628000 0.9740 0.9740 0.9720 0.9720 0.9700
6.662115 0.9700 0.9700 0.9670 0.9670 0.9670
6.696000 0.9670 0.9670 0.9650 0.9650 0.9630
6.730115 0.9630 0.9600 0.9600 0.9570 0.9550
6.764000 0.9480 0.9340 0.9150 0.8900 0.8690
6.798115 0.8490 0.8280 0.8180 0.8040 0.8010
6.833000 0.7970 0.7780 0.7730 0.7700 0.7730
6.867115 0.7800 0.7870 0.8020 0.8140 0.8230
6.901000 0.8350 0.8450 0.8550 0.8710 0.8740
6.935115 0.8810 0.8850 0.8910 0.8980 0.9030
6.969000 0.9090 0.9170 0.9240 0.9310 0.9360
7.003115 0.9410 0.9450 0.9500 0.9530 0.9550
7.037000 0.9600 0.9620 0.9630 0.9650 0.9670
7.071115 0.9690 0.9700 0.9700 0.9720 0.9720
7.105000 0.9720 0.9720 0.9720 0.9700 0.9700
7.139115 0.9690 0.9690 0.9670 0.9650 0.9620
7.174000 0.9580 0.9550 0.9480 0.9410 0.9340
7.208115 0.9240 0.9150 0.9090 0.8910 0.8830
7.242000 0.8780 0.8780 0.8830 0.8880 0.8980
7.276115 0.9030 0.9070 0.9120 0.9140 0.9170
7.310000 0.9210 0.9240 0.9290 0.9360 0.9410
7.344115 0.9450 0.9500 0.9530 0.9550 0.9580
7.378000 0.9570 0.9600 0.9600 0.9620 0.9630
7.412115 0.9650 0.9650 0.9670 0.9690 0.9690
7.446000 0.9700 0.9700 0.9720 0.9720 0.9720
7.480115 0.9740 0.9740 0.9740 0.9740 0.9740
7.515000 0.9740 0.9750 0.9750 0.9750 0.9770
7.549115 0.9770 0.9770 0.9770 0.9770 0.9770
7.583000 0.9790 0.9790 0.9790 0.9790 0.9810
7.617115 0.9810 0.9810 0.9810 0.9810 0.9810
7.651000 0.9810 0.9810 0.9810 0.9820 0.9820
7.685115 0.9820 0.9820 0.9820 0.9820 0.9820
7.719000 0.9840 0.9820 0.9820 0.9820 0.9820
7.753115 0.9840 0.9840 0.9820 0.9820 0.9820
7.787000 0.9820 0.9840 0.9840 0.9840 0.9840
7.821115 0.9840 0.9840 0.9860 0.9870 0.9870
7.856000 0.9870 0.9890 0.9890 0.9890 0.9890
7.890115 0.9890 0.9890 0.9910 0.9910 0.9910
7.924000 0.9910 0.9910 0.9910 0.9930 0.9930
7.958115 0.9930 0.9930 0.9930 0.9930 0.9930
7.992000 0.9930 0.9930 0.9930 0.9930 0.9930
8.026115 0.9930 0.9940 0.9940 0.9940 0.9940
8.060000 0.9940 0.9940 0.9940 0.9940 0.9940
8.094115 0.9940 0.9940 0.9940 0.9940 0.9940
8.128000 0.9940 0.9940 0.9940 0.9940 0.9960
8.162115 0.9960 0.9960 0.9960 0.9960 0.9960
8.197000 0.9960 0.9960 0.9980 0.9980 0.9980
8.231115 0.9980 0.9980 0.9980 0.9980 0.9980
8.265000 0.9980 0.9980 0.9980 0.9980 0.9980
8.299115 0.9980 0.9980 0.9980 0.9980 0.9980
8.333000 0.9980 0.9980 0.9980 0.9980 0.9980
8.367115 0.9980 0.9980 0.9980 0.9980 0.9980
8.401000 0.9980 0.9980 0.9980 0.9980 0.9980
8.435115 0.9980 0.9980 0.9980 0.9980 0.9980
8.469000 0.9980 0.9980 0.9980 0.9980 0.9980
8.503115 0.9980 0.9980 0.9980 0.9960 0.9960
8.538000 0.9960 0.9960 0.9960 0.9940 0.9940
8.572115 0.9930 0.9930 0.9910 0.9910 0.9910
8.606000 0.9910 0.9910 0.9910 0.9910 0.9910
8.640115 0.9910 0.9890 0.9910 0.9910 0.9910
8.674000 0.9890 0.9890 0.9890 0.9890 0.9890
8.708115 0.9890 0.9890 0.9870 0.9870 0.9860
8.742000 0.9860 0.9860 0.9860 0.9870 0.9870
8.776115 0.9870 0.9860 0.9860 0.9860 0.9860
8.810000 0.9870 0.9870 0.9870 0.9860 0.9860
8.844115 0.9860 0.9840 0.9860 0.9860 0.9860
8.878000 0.9840 0.9860 0.9860 0.9860 0.9870
8.912115 0.9840 0.9840 0.9840 0.9840 0.9840
8.947000 0.9840 0.9840 0.9840 0.9840 0.9860
8.981115 0.9860 0.9860 0.9870 0.9860 0.9860
9.015000 0.9860 0.9860 0.9860 0.9860 0.9870
9.049115 0.9860 0.9840 0.9840 0.9860 0.9860
9.083000 0.9860 0.9860 0.9860 0.9860 0.9860
9.117115 0.9860 0.9860 0.9860 0.9860 0.9860
9.151000 0.9840 0.9860 0.9860 0.9860 0.9840
9.185115 0.9840 0.9860 0.9860 0.9860 0.9860
9.219000 0.9860 0.9860 0.9860 0.9840 0.9840
9.253115 0.9860 0.9860 0.9860 0.9860 0.9860
9.288000 0.9860 0.9860 0.9860 0.9840 0.9840
9.322115 0.9840 0.9860 0.9860 0.9860 0.9860
9.356000 0.9860 0.9870 0.9860 0.9860 0.9840
9.390115 0.9840 0.9840 0.9860 0.9860 0.9870
9.424000 0.9860 0.9870 0.9870 0.9870 0.9870
9.458115 0.9870 0.9870 0.9860 0.9860 0.9860
9.492000 0.9860 0.9860 0.9870 0.9890 0.9910
9.526115 0.9890 0.9890 0.9910 0.9890 0.9890
9.560000 0.9890 0.9890 0.9890 0.9890 0.9890
9.594115 0.9890 0.9890 0.9890 0.9890 0.9890
9.629000 0.9910 0.9910 0.9890 0.9890 0.9910
9.663115 0.9910 0.9910 0.9930 0.9930 0.9930
9.697000 0.9930 0.9930 0.9930 0.9910 0.9910
9.731115 0.9930 0.9930 0.9930 0.9930 0.9930
9.765000 0.9930 0.9940 0.9930 0.9930 0.9930
9.799115 0.9930 0.9930 0.9930 0.9910 0.9910
9.833000 0.9910 0.9910 0.9910 0.9910 0.9910
9.867115 0.9910 0.9910 0.9910 0.9910 0.9910
9.901000 0.9910 0.9910 0.9910 0.9890 0.9890
9.935115 0.9870 0.9870 0.9870 0.9870 0.9870
9.970000 0.9890 0.9890 0.9890 0.9910 0.9930
10.004115 0.9930 0.9890 0.9860 0.9870 0.9870
10.038000 0.9890 0.9890 0.9890 0.9870 0.9860
10.072115 0.9860 0.9860 0.9860 0.9860 0.9860
10.106000 0.9840 0.9840 0.9840 0.9820 0.9810
10.140115 0.9790 0.9790 0.9770 0.9750 0.9750
10.174000 0.9740 0.9740 0.9720 0.9740 0.9740
10.208115 0.9740 0.9750 0.9740 0.9740 0.9740
10.242000 0.9740 0.9740 0.9740 0.9740 0.9740
10.276115 0.9740 0.9740 0.9750 0.9750 0.9750
10.311000 0.9750 0.9750 0.9750 0.9750 0.9750
10.345115 0.9770 0.9770 0.9790 0.9790 0.9790
10.379000 0.9790 0.9810 0.9790 0.9790 0.9790
10.413115 0.9790 0.9810 0.9790 0.9790 0.9770
10.447000 0.9770 0.9770 0.9770 0.9770 0.9770
10.481115 0.9750 0.9750 0.9750 0.9750 0.9740
10.515000 0.9740 0.9750 0.9750 0.9750 0.9750
10.549115 0.9740 0.9740 0.9740 0.9720 0.9720
10.583000 0.9720 0.9720 0.9720 0.9740 0.9740
10.617115 0.9720 0.9720 0.9720 0.9700 0.9700
10.652000 0.9690 0.9690 0.9650 0.9650 0.9650
10.686115 0.9650 0.9650 0.9650 0.9630 0.9630
10.720000 0.9620 0.9620 0.9620 0.9620 0.9600
10.754115 0.9600 0.9580 0.9580 0.9570 0.9570
10.788000 0.9570 0.9550 0.9550 0.9530 0.9510
10.822115 0.9510 0.9500 0.9460 0.9460 0.9450
10.856000 0.9390 0.9380 0.9340 0.9310 0.9220
10.890115 0.9090 0.8930 0.8780 0.8710 0.8610
10.924000 0.8550 0.8490 0.8420 0.8300 0.8180
10.958115 0.8070 0.8020 0.7950 0.7890 0.7830
10.993000 0.7770 0.7680 0.7630 0.7580 0.7490
11.027115 0.7420 0.7370 0.7340 0.7320 0.7300
11.061000 0.7280 0.7270 0.7250 0.7250 0.7270
11.095115 0.7270 0.7270 0.7270 0.7270 0.7300
11.129000 0.7320 0.7320 0.7350 0.7400 0.7420
11.163115 0.7440 0.7460 0.7470 0.7470 0.7490
11.197000 0.7420 0.7390 0.7320 0.7230 0.7180
11.231115 0.7130 0.7060 0.6980 0.6870 0.6820
11.265000 0.6790 0.6720 0.6670 0.6580 0.6530
11.299115 0.6460 0.6410 0.6380 0.6290 0.6240
11.334000 0.6150 0.6100 0.6050 0.5980 0.5930
11.368115 0.5780 0.5620 0.5500 0.5190 0.5110
11.402000 0.5040 0.4990 0.4870 0.4690 0.4560
11.436115 0.4490 0.4420 0.4320 0.4270 0.4210
11.470000 0.4150 0.4060 0.3970 0.3960 0.3820
11.504115 0.3670 0.3650 0.3550 0.3480 0.3410
11.538000 0.3370 0.3270 0.3200 0.3170 0.3070
11.572115 0.3030 0.2980 0.2910 0.2880 0.2840
11.606000 0.2790 0.2710 0.2670 0.2600 0.2570
11.640115 0.2520 0.2480 0.2410 0.2380 0.2330
11.675000 0.2290 0.2240 0.2210 0.2160 0.2120
11.709115 0.2090 0.2050 0.2020 0.1980 0.1980
11.743000 0.1930 0.1920 0.1880 0.1850 0.1810
11.777115 0.1800 0.1780 0.1740 0.1710 0.1690
11.811000 0.1680 0.1660 0.1640 0.1620 0.1590
11.845115 0.1540 0.1520 0.1500 0.1500 0.1490
11.879000 0.1470 0.1450 0.1440 0.1440 0.1420
11.913115 0.1400 0.1400 0.1380 0.1350 0.1350
11.947000 0.1330 0.1320 0.1300 0.1280 0.1260
11.981115 0.1230 0.1230 0.1210 0.1210 0.1200
12.015000 0.1200 0.1180 0.1160 0.1140 0.1130
12.049115 0.1110 0.1090 0.1090 0.1060 0.1040
12.084000 0.1040 0.1040 0.1040 0.1040 0.1040
12.118115 0.1060 0.1060 0.1090 0.1110 0.1130
12.152000 0.1140 0.1200 0.1260 0.1300 0.1370
12.186115 0.1620 0.1730 0.1920 0.2070 0.2240
12.220000 0.2400 0.2550 0.2710 0.2840 0.3150
12.254115 0.3290 0.3430 0.3610 0.3790 0.3970
12.288000 0.4130 0.4250 0.4640 0.4780 0.4970
12.322115 0.5070 0.5190 0.5360 0.5450 0.5550
12.356000 0.5670 0.5860 0.5910 0.6030 0.6140
12.390115 0.6270 0.6410 0.6500 0.6630 0.6840
12.425000 0.6910 0.6980 0.7040 0.7130 0.7300
12.459115 0.7370 0.7460 0.7490 0.7580 0.7610
12.493000 0.7680 0.7750 0.7780 0.7830 0.7900
12.527115 0.7970 0.7990 0.8040 0.8090 0.8110
12.561000 0.8160 0.8190 0.8230 0.8250 0.8260
12.595115 0.8310 0.8380 0.8430 0.8470 0.8490
12.629000 0.8520 0.8540 0.8640 0.8640 0.8670
12.663115 0.8690 0.8730 0.8740 0.8760 0.8790
12.697000 0.8810 0.8830 0.8850 0.8860 0.8880
12.731115 0.8930 0.8970 0.8970 0.8980 0.8980
12.766000 0.9000 0.9000 0.9020 0.9020 0.9030
12.800115 0.9030 0.9030 0.9050 0.9050 0.9050
12.834000 0.9050 0.9070 0.9070 0.9070 0.9070
12.868115 0.9070 0.9070 0.9070 0.9070 0.9070
12.902000 0.9070 0.9070 0.9070 0.9070 0.9070
12.936115 0.9070 0.9070 0.9070 0.9070 0.9070
12.970000 0.9070 0.9070 0.9070 0.9070 0.9070
13.004115 0.9070 0.9070 0.9090 0.9090 0.9100
13.038000 0.9100 0.9100 0.9120 0.9120 0.9140
13.072115 0.9140 0.9140 0.9150 0.9150 0.9170
13.107000 0.9170 0.9170 0.9190 0.9190 0.9190
13.141115 0.9210 0.9210 0.9210 0.9190 0.9190
13.175000 0.9190 0.9190 0.9190 0.9190 0.9170
13.209115 0.9170 0.9170 0.9170 0.9170 0.9170
13.243000 0.9170 0.9190 0.9190 0.9210 0.9220
13.277115 0.9240 0.9240 0.9240 0.9240 0.9260
13.311000 0.9260 0.9260 0.9270 0.9290 0.9290
13.345115 0.9290 0.9290 0.9290 0.9290 0.9310
13.379000 0.9310 0.9310 0.9310 0.9330 0.9330
13.413115 0.9330 0.9330 0.9330 0.9330 0.9330
13.448000 0.9310 0.9310 0.9310 0.9310 0.9310
13.482115 0.9310 0.9290 0.9290 0.9290 0.9290
13.516000 0.9290 0.9290 0.9290 0.9270 0.9270
13.550115 0.9270 0.9270 0.9270 0.9270 0.9260
13.584000 0.9260 0.9290 0.9290 0.9290 0.9290
13.618115 0.9290 0.9290 0.9290 0.9290 0.9290
13.652000 0.9290 0.9290 0.9290 0.9290 0.9290
13.686115 0.9290 0.9290 0.9270 0.9270 0.9270
13.720000 0.9270 0.9270 0.9260 0.9260 0.9240
13.754115 0.9240 0.9220 0.9240 0.9220 0.9220
13.789000 0.9220 0.9210 0.9220 0.9220 0.9220
13.823115 0.9210 0.9210 0.9210 0.9210 0.9210
13.857000 0.9210 0.9210 0.9210 0.9210 0.9210
13.891115 0.9210 0.9210 0.9190 0.9190 0.9190
13.925000 0.9190 0.9210 0.9190 0.9190 0.9210
13.959115 0.9210 0.9210 0.9190 0.9170 0.9170
13.993000 0.9170 0.9170 0.9170 0.9150 0.9150
14.027115 0.9150 0.9150 0.9150 0.9150 0.9140
14.061000 0.9140 0.9140 0.9120 0.9120 0.9140
14.095115 0.9120 0.9120 0.9100 0.9100 0.9090
14.130000 0.9090 0.9090 0.9090 0.9070 0.9070
14.164115 0.9070 0.9050 0.9020 0.9020 0.9000
14.198000 0.9020 0.9020 0.9020 0.9020 0.9000
14.232115 0.9000 0.8980 0.8980 0.8980 0.8980
14.266000 0.8950 0.8950 0.8950 0.8950 0.8930
14.300115 0.8930 0.8930 0.8910 0.8910 0.8900
14.334000 0.8900 0.8880 0.8880 0.8880 0.8860
14.368115 0.8860 0.8860 0.8850 0.8830 0.8830
14.402000 0.8810 0.8810 0.8780 0.8780 0.8760
14.436115 0.8740 0.8740 0.8730 0.8730 0.8730
14.471000 0.8710 0.8710 0.8690 0.8670 0.8660
14.505115 0.8660 0.8660 0.8640 0.8640 0.8640
14.539000 0.8620 0.8620 0.8610 0.8610 0.8610
14.573115 0.8590 0.8570 0.8570 0.8550 0.8540
14.607000 0.8540 0.8540 0.8520 0.8520 0.8500
14.641115 0.8500 0.8490 0.8490 0.8470 0.8470
14.675000 0.8450 0.8450 0.8430 0.8430 0.8430
14.709115 0.8420 0.8400 0.8400 0.8400 0.8380
14.743000 0.8380 0.8370 0.8350 0.8350 0.8330
14.777115 0.8310 0.8310 0.8280 0.8280 0.8300
14.812000 0.8280 0.8280 0.8280 0.8260 0.8260
14.846115 0.8250 0.8250 0.8230 0.8210 0.8210
14.880000 0.8190 0.8180 0.8180 0.8160 0.8160
14.914115 0.8140 0.8130 0.8130 0.8110 0.8090
14.948000 0.8090 0.8070 0.8060 0.8060 0.8040
14.982115 0.8040 0.8040 0.8020 0.8020 0.8010
15.016000 0.7970 0.7950 0.7950 0.7950 0.7940
15.050115 0.7940 0.7920 0.7920 0.7920 0.7900
15.084000 0.7900 0.7890 0.7890 0.7890 0.7870
15.118115 0.7870 0.7850 0.7820 0.7800 0.7800
15.153000 0.7780 0.7780 0.7780 0.7750 0.7750
15.187115 0.7750 0.7770 0.7750 0.7750 0.7730
15.221000 0.7730 0.7710 0.7710 0.7700 0.7680
15.255115 0.7680 0.7660 0.7660 0.7650 0.7630
15.289000 0.7630 0.7610 0.7590 0.7590 0.7580
15.323115 0.7540 0.7540 0.7540 0.7540 0.7540
15.357000 0.7530 0.7490 0.7470 0.7490 0.7470
15.391115 0.7470 0.7460 0.7440 0.7440 0.7440
15.425000 0.7420 0.7420 0.7400 0.7400 0.7390
15.459115 0.7390 0.7390 0.7370 0.7350 0.7340
15.493000 0.7340 0.7340 0.7320 0.7320 0.7300
15.527115 0.7300 0.7300 0.7280 0.7280 0.7280
15.562000 0.7270 0.7270 0.7250 0.7220 0.7220
15.596115 0.7200 0.7220 0.7220 0.7220 0.7220
15.630000 0.7200 0.7200 0.7200 0.7180 0.7180
15.664115 0.7160 0.7150 0.7150 0.7130 0.7130
15.698000 0.7130 0.7130 0.7130 0.7130 0.7110
15.732115 0.7110 0.7100 0.7100 0.7080 0.7080
15.766000 0.7060 0.7060 0.7030 0.7040 0.7030
15.800115 0.7010 0.7030 0.7030 0.7030 0.7010
15.834000 0.7010 0.6990 0.6980 0.6980 0.6980
15.868115 0.6980 0.6980 0.6980 0.6980 0.6960
15.903000 0.6960 0.6940 0.6940 0.6940 0.6920
15.937115 0.6920 0.6920 0.6910 0.6910 0.6910
15.971000 0.6890 0.6890 0.6910 0.6910 0.6910
16.005115 0.6890
##END=
