##TITLE=Ammonium chloride, tetrapropyl-, hydrate
##JCAMP-DX=4.24
##DATA TYPE=INFRARED SPECTRUM
##CLASS=COBLENTZ III
##ORIGIN=DOW CHEMICAL COMPANY
##OWNER=Copyright (C) 1987 by the Coblentz Society
Collection (C) 2018 copyright by the U.S. Secretary of Commerce
on behalf of the United States of America. All rights reserved.
##DATE=1965/11/08
##MOLFORM=C12 H28 Cl N  * ( H2 O) X
##SOURCE REFERENCE=COBLENTZ NO. 7928
##$NIST ID=B6007928
##$NIST SOURCE=COBLENTZ
##$NIST IMAGE=cob7928
##SPECTROMETER/DATA SYSTEM=DOW KBr FOREPRISM-GRATING
##INSTRUMENT PARAMETERS=BLAZED AT 3.5, 12.0, 20.0 MICRON AND CHANGED AT 5.0, 7.5, 14.9 MICRON
##STATE=SOLID (SPLIT MULL), FLUOROLUBE FOR 3800-1330 CM^-^1, NUJOL FOR 1330-460 CM^-^1
##RESOLUTION=2
##XUNITS=1/CM
##YUNITS=TRANSMITTANCE
##XFACTOR=1.0
##YFACTOR=1
##FIRSTX=455
##LASTX=3800
##FIRSTY=0.6266
##MAXX=3800
##MINX=455
##MAXY=0.8093
##MINY=0.0664
##NPOINTS=3346
##XYDATA=(X++(Y..Y))
455.000000 0.6266 0.6256 0.6247 0.6249 0.6230
460.000000 0.6222 0.6214 0.6205 0.6198 0.6191
465.000000 0.6184 0.6177 0.6170 0.6163 0.6156
470.000000 0.6148 0.6139 0.6130 0.6120 0.6111
475.000000 0.6102 0.6089 0.6070 0.6052 0.6033
480.000000 0.6015 0.5993 0.5970 0.5948 0.5926
485.000000 0.5904 0.5882 0.5859 0.5824 0.5789
490.000000 0.5754 0.5719 0.5684 0.5646 0.5609
495.000000 0.5571 0.5534 0.5496 0.5458 0.5421
500.000000 0.5379 0.5335 0.5290 0.5246 0.5202
505.000000 0.5157 0.5113 0.5061 0.5004 0.4947
510.000000 0.4890 0.4833 0.4776 0.4723 0.4672
515.000000 0.4622 0.4571 0.4520 0.4469 0.4417
520.000000 0.4361 0.4306 0.4251 0.4195 0.4135
525.000000 0.4068 0.4001 0.3934 0.3886 0.3847
530.000000 0.3825 0.3805 0.3801 0.3795 0.3802
535.000000 0.3816 0.3830 0.3852 0.3880 0.3913
540.000000 0.3945 0.3976 0.4077 0.4179 0.4280
545.000000 0.4382 0.4483 0.4585 0.4686 0.4788
550.000000 0.4862 0.4894 0.4926 0.4938 0.4946
555.000000 0.4943 0.4942 0.4937 0.4915 0.4890
560.000000 0.4854 0.4818 0.4770 0.4730 0.4714
565.000000 0.4715 0.4722 0.4732 0.4776 0.4842
570.000000 0.4851 0.4864 0.4850 0.4823 0.4790
575.000000 0.4758 0.4726 0.4696 0.4665 0.4625
580.000000 0.4581 0.4532 0.4478 0.4395 0.4275
585.000000 0.4092 0.3995 0.3963 0.3951 0.3951
590.000000 0.3948 0.3959 0.3972 0.3984 0.4003
595.000000 0.4024 0.4052 0.4090 0.4142 0.4227
600.000000 0.4368 0.4651 0.4868 0.4996 0.5118
605.000000 0.5238 0.5322 0.5398 0.5473 0.5537
610.000000 0.5595 0.5653 0.5711 0.5767 0.5821
615.000000 0.5875 0.5929 0.5983 0.6037 0.6092
620.000000 0.6147 0.6191 0.6233 0.6274 0.6316
625.000000 0.6349 0.6376 0.6402 0.6429 0.6456
630.000000 0.6483 0.6509 0.6535 0.6560 0.6585
635.000000 0.6611 0.6636 0.6660 0.6679 0.6698
640.000000 0.6717 0.6736 0.6756 0.6775 0.6792
645.000000 0.6809 0.6826 0.6843 0.6860 0.6877
650.000000 0.6891 0.6904 0.6917 0.6930 0.6943
655.000000 0.6953 0.6962 0.6971 0.6979 0.6985
660.000000 0.6988 0.6991 0.6994 0.6997 0.7000
665.000000 0.7019 0.7070 0.7121 0.7172 0.7223
670.000000 0.7274 0.7324 0.7375 0.7420 0.7436
675.000000 0.7453 0.7465 0.7477 0.7488 0.7498
680.000000 0.7506 0.7514 0.7521 0.7525 0.7530
685.000000 0.7533 0.7536 0.7540 0.7543 0.7542
690.000000 0.7541 0.7540 0.7541 0.7542 0.7544
695.000000 0.7548 0.7555 0.7562 0.7582 0.7568
700.000000 0.7564 0.7555 0.7545 0.7535 0.7518
705.000000 0.7500 0.7478 0.7445 0.7413 0.7384
710.000000 0.7355 0.7326 0.7288 0.7242 0.7196
715.000000 0.7151 0.7094 0.7030 0.6912 0.6864
720.000000 0.6847 0.6851 0.6877 0.6909 0.6942
725.000000 0.6981 0.7027 0.7076 0.7120 0.7157
730.000000 0.7181 0.7192 0.7183 0.7198 0.7198
735.000000 0.7188 0.7177 0.7157 0.7130 0.7099
740.000000 0.7060 0.7022 0.6968 0.6913 0.6845
745.000000 0.6748 0.6565 0.6382 0.6345 0.6401
750.000000 0.6503 0.6556 0.6547 0.6536 0.6523
755.000000 0.6461 0.6372 0.6307 0.6222 0.5912
760.000000 0.5573 0.5235 0.4897 0.4559 0.4220
765.000000 0.4068 0.4001 0.3935 0.3850 0.3746
770.000000 0.3779 0.4165 0.4549 0.4933 0.5317
775.000000 0.5701 0.6085 0.6395 0.6621 0.6761
780.000000 0.6910 0.7053 0.7291 0.7412 0.7478
785.000000 0.7530 0.7564 0.7598 0.7625 0.7652
790.000000 0.7669 0.7686 0.7703 0.7720 0.7729
795.000000 0.7737 0.7745 0.7753 0.7760 0.7761
800.000000 0.7762 0.7764 0.7764 0.7764 0.7763
805.000000 0.7763 0.7762 0.7761 0.7759 0.7773
810.000000 0.7755 0.7753 0.7750 0.7745 0.7741
815.000000 0.7736 0.7732 0.7727 0.7721 0.7713
820.000000 0.7705 0.7697 0.7689 0.7681 0.7668
825.000000 0.7656 0.7643 0.7628 0.7608 0.7587
830.000000 0.7567 0.7546 0.7518 0.7485 0.7453
835.000000 0.7414 0.7366 0.7314 0.7251 0.7180
840.000000 0.7103 0.6997 0.6859 0.6631 0.6349
845.000000 0.6061 0.6058 0.6059 0.6061 0.6059
850.000000 0.6058 0.6045 0.6081 0.6179 0.6276
855.000000 0.6374 0.6472 0.6614 0.6901 0.7259
860.000000 0.7395 0.7522 0.7586 0.7608 0.7622
865.000000 0.7633 0.7636 0.7635 0.7633 0.7631
870.000000 0.7628 0.7626 0.7638 0.7621 0.7619
875.000000 0.7617 0.7614 0.7610 0.7604 0.7598
880.000000 0.7592 0.7585 0.7578 0.7570 0.7563
885.000000 0.7553 0.7538 0.7524 0.7509 0.7494
890.000000 0.7479 0.7462 0.7445 0.7428 0.7411
895.000000 0.7384 0.7355 0.7326 0.7298 0.7261
900.000000 0.7195 0.7119 0.7023 0.6901 0.6766
905.000000 0.6694 0.6637 0.6480 0.6305 0.6208
910.000000 0.6267 0.6201 0.6982 0.7082 0.7126
915.000000 0.7170 0.7190 0.7204 0.7217 0.7219
920.000000 0.7244 0.7211 0.7208 0.7196 0.7184
925.000000 0.7158 0.7133 0.7097 0.7041 0.6981
930.000000 0.6913 0.6845 0.6777 0.6709 0.6641
935.000000 0.6511 0.6518 0.6471 0.6626 0.6814
940.000000 0.6896 0.6909 0.6930 0.6907 0.6898
945.000000 0.6885 0.6870 0.6855 0.6841 0.6808
950.000000 0.6774 0.6734 0.6695 0.6641 0.6583
955.000000 0.6504 0.6403 0.6241 0.6100 0.5959
960.000000 0.5710 0.5300 0.5142 0.4972 0.4565
965.000000 0.4010 0.3456 0.2901 0.2314 0.2118
970.000000 0.2086 0.2095 0.2094 0.2141 0.2436
975.000000 0.2875 0.3314 0.3754 0.4193 0.4632
980.000000 0.5071 0.5334 0.5650 0.5876 0.6101
985.000000 0.6354 0.6478 0.6567 0.6615 0.6660
990.000000 0.6686 0.6712 0.6719 0.6730 0.6706
995.000000 0.6695 0.6681 0.6666 0.6645 0.6619
1000.000000 0.6573 0.6516 0.6428 0.6323 0.6158
1005.000000 0.5925 0.5693 0.5460 0.5228 0.5049
1010.000000 0.5038 0.5413 0.5812 0.6211 0.6779
1015.000000 0.6874 0.6936 0.6941 0.6941 0.6945
1020.000000 0.6908 0.6879 0.6834 0.6767 0.6690
1025.000000 0.6582 0.6386 0.6190 0.6171 0.6217
1030.000000 0.6298 0.6380 0.6431 0.6444 0.6458
1035.000000 0.6484 0.6527 0.6579 0.6642 0.6704
1040.000000 0.6767 0.6842 0.6863 0.6873 0.6867
1045.000000 0.6867 0.6853 0.6839 0.6823 0.6806
1050.000000 0.6718 0.6605 0.6492 0.6379 0.6267
1055.000000 0.6154 0.6041 0.5908 0.5885 0.5900
1060.000000 0.5915 0.6063 0.6222 0.6382 0.6541
1065.000000 0.6701 0.6829 0.6911 0.6965 0.6987
1070.000000 0.7012 0.7038 0.7062 0.7084 0.7106
1075.000000 0.7122 0.7137 0.7152 0.7168 0.7180
1080.000000 0.7191 0.7203 0.7214 0.7226 0.7238
1085.000000 0.7250 0.7254 0.7291 0.7252 0.7247
1090.000000 0.7232 0.7216 0.7194 0.7173 0.7149
1095.000000 0.7117 0.7085 0.7032 0.6969 0.6763
1100.000000 0.6808 0.6801 0.6804 0.6829 0.6881
1105.000000 0.6928 0.6977 0.7035 0.7112 0.7203
1110.000000 0.7270 0.7285 0.7297 0.7306 0.7314
1115.000000 0.7323 0.7328 0.7329 0.7339 0.7331
1120.000000 0.7333 0.7334 0.7335 0.7336 0.7336
1125.000000 0.7335 0.7334 0.7325 0.7305 0.7277
1130.000000 0.7248 0.7220 0.7202 0.7190 0.7185
1135.000000 0.7182 0.7183 0.7185 0.7186 0.7190
1140.000000 0.7198 0.7205 0.7213 0.7226 0.7239
1145.000000 0.7242 0.7241 0.7237 0.7220 0.7185
1150.000000 0.7150 0.7111 0.7070 0.7022 0.6951
1155.000000 0.6874 0.6771 0.6576 0.6381 0.6371
1160.000000 0.6358 0.6589 0.6860 0.7034 0.7132
1165.000000 0.7188 0.7225 0.7264 0.7303 0.7330
1170.000000 0.7353 0.7368 0.7378 0.7378 0.7368
1175.000000 0.7356 0.7343 0.7330 0.7331 0.7334
1180.000000 0.7341 0.7360 0.7384 0.7406 0.7428
1185.000000 0.7460 0.7480 0.7493 0.7506 0.7519
1190.000000 0.7532 0.7532 0.7532 0.7532 0.7532
1195.000000 0.7532 0.7532 0.7531 0.7531 0.7531
1200.000000 0.7531 0.7534 0.7538 0.7542 0.7546
1205.000000 0.7549 0.7555 0.7561 0.7568 0.7574
1210.000000 0.7584 0.7597 0.7610 0.7616 0.7621
1215.000000 0.7626 0.7629 0.7630 0.7634 0.7635
1220.000000 0.7636 0.7637 0.7639 0.7637 0.7635
1225.000000 0.7632 0.7628 0.7624 0.7620 0.7614
1230.000000 0.7608 0.7601 0.7595 0.7588 0.7580
1235.000000 0.7567 0.7554 0.7542 0.7529 0.7500
1240.000000 0.7471 0.7442 0.7413 0.7384 0.7355
1245.000000 0.7327 0.7299 0.7271 0.7243 0.7214
1250.000000 0.7184 0.7158 0.7155 0.7152 0.7152
1255.000000 0.7152 0.7153 0.7152 0.7151 0.7150
1260.000000 0.7147 0.7141 0.7135 0.7125 0.7112
1265.000000 0.7098 0.7084 0.7049 0.7015 0.6974
1270.000000 0.6916 0.6854 0.6833 0.6831 0.6834
1275.000000 0.6839 0.6846 0.6845 0.6840 0.6824
1280.000000 0.6793 0.6755 0.6662 0.6613 0.6614
1285.000000 0.6619 0.6629 0.6659 0.6713 0.6811
1290.000000 0.6863 0.6890 0.6887 0.6884 0.6880
1295.000000 0.6877 0.6867 0.6856 0.6836 0.6816
1300.000000 0.6793 0.6770 0.6747 0.6718 0.6687
1305.000000 0.6648 0.6595 0.6538 0.6477 0.6466
1310.000000 0.6464 0.6464 0.6504 0.6538 0.6541
1315.000000 0.6536 0.6530 0.6521 0.6512 0.6493
1320.000000 0.6473 0.6447 0.6407 0.6366 0.6312
1325.000000 0.6198 0.5840 0.5807 0.5805 0.5804
1330.000000 0.5806 0.5809 0.5813 0.5816 0.5814
1335.000000 0.5809 0.5793 0.5769 0.5729 0.5679
1340.000000 0.5622 0.5563 0.5498 0.5419 0.5302
1345.000000 0.5094 0.4951 0.5046 0.4951 0.5260
1350.000000 0.5368 0.5475 0.5582 0.5689 0.5796
1355.000000 0.5903 0.6010 0.6117 0.6225 0.6332
1360.000000 0.6346 0.6345 0.6343 0.6336 0.6369
1365.000000 0.6322 0.6311 0.6297 0.6284 0.6270
1370.000000 0.6198 0.6096 0.6001 0.5901 0.5805
1375.000000 0.5705 0.5583 0.5465 0.5300 0.5112
1380.000000 0.4769 0.4458 0.4443 0.4469 0.4487
1385.000000 0.4504 0.4525 0.4547 0.4697 0.5089
1390.000000 0.5120 0.5045 0.4923 0.4904 0.4975
1395.000000 0.5108 0.5246 0.5430 0.5813 0.6669
1400.000000 0.6813 0.6915 0.6971 0.7016 0.7028
1405.000000 0.7030 0.7032 0.7034 0.7036 0.7056
1410.000000 0.7097 0.7134 0.7168 0.7195 0.7196
1415.000000 0.7192 0.7199 0.7181 0.7170 0.7151
1420.000000 0.7124 0.7094 0.7063 0.7032 0.7000
1425.000000 0.6969 0.6918 0.6858 0.6760 0.6662
1430.000000 0.6562 0.6056 0.6062 0.6097 0.6153
1435.000000 0.6178 0.6178 0.6178 0.6171 0.6162
1440.000000 0.6136 0.6100 0.6046 0.5927 0.5841
1445.000000 0.5767 0.5678 0.5578 0.5471 0.5310
1450.000000 0.5099 0.4881 0.4716 0.4651 0.4585
1455.000000 0.4531 0.4477 0.4413 0.4339 0.4239
1460.000000 0.4085 0.3815 0.3726 0.3729 0.3832
1465.000000 0.3998 0.4072 0.4176 0.4280 0.4779
1470.000000 0.5080 0.5079 0.5102 0.5061 0.5039
1475.000000 0.5013 0.4983 0.4940 0.4881 0.4797
1480.000000 0.4661 0.4543 0.4097 0.3512 0.2972
1485.000000 0.2432 0.1892 0.1352 0.0796 0.0688
1490.000000 0.0664 0.0693 0.1300 0.1929 0.2557
1495.000000 0.3185 0.3814 0.4442 0.5557 0.5738
1500.000000 0.6020 0.6726 0.6879 0.6990 0.7154
1505.000000 0.7398 0.7503 0.7551 0.7592 0.7620
1510.000000 0.7647 0.7669 0.7689 0.7710 0.7730
1515.000000 0.7743 0.7755 0.7767 0.7779 0.7791
1520.000000 0.7803 0.7814 0.7822 0.7830 0.7838
1525.000000 0.7846 0.7855 0.7861 0.7867 0.7872
1530.000000 0.7877 0.7882 0.7888 0.7893 0.7898
1535.000000 0.7905 0.7912 0.7918 0.7925 0.7932
1540.000000 0.7938 0.7943 0.7948 0.7953 0.7958
1545.000000 0.7962 0.7967 0.7972 0.7977 0.7981
1550.000000 0.7986 0.7987 0.7989 0.7991 0.7993
1555.000000 0.7957 0.7996 0.7998 0.7999 0.8001
1560.000000 0.8003 0.8003 0.8003 0.8003 0.8004
1565.000000 0.8004 0.8004 0.8004 0.8005 0.8005
1570.000000 0.8005 0.8005 0.8006 0.8006 0.8006
1575.000000 0.8006 0.8006 0.8007 0.8007 0.8007
1580.000000 0.8007 0.8007 0.8004 0.8001 0.7998
1585.000000 0.7994 0.7991 0.7988 0.7985 0.7973
1590.000000 0.7956 0.7940 0.7917 0.7894 0.7871
1595.000000 0.7848 0.7825 0.7802 0.7778 0.7751
1600.000000 0.7722 0.7694 0.7666 0.7637 0.7596
1605.000000 0.7555 0.7514 0.7460 0.7388 0.7317
1610.000000 0.7214 0.7104 0.6998 0.6893 0.6756
1615.000000 0.6615 0.6426 0.5887 0.5607 0.5072
1620.000000 0.4473 0.4256 0.4270 0.4543 0.4897
1625.000000 0.5252 0.5606 0.5961 0.6316 0.6670
1630.000000 0.6890 0.6996 0.7192 0.7335 0.7581
1635.000000 0.7634 0.7669 0.7705 0.7732 0.7754
1640.000000 0.7776 0.7797 0.7817 0.7837 0.7858
1645.000000 0.7878 0.7899 0.7912 0.7921 0.7930
1650.000000 0.7938 0.7947 0.7956 0.7965 0.7971
1655.000000 0.7972 0.7973 0.7974 0.7975 0.7976
1660.000000 0.7978 0.7979 0.7980 0.7980 0.7980
1665.000000 0.7980 0.7981 0.7981 0.7979 0.7976
1670.000000 0.7974 0.7971 0.7969 0.7966 0.7964
1675.000000 0.7964 0.7965 0.7965 0.7965 0.7965
1680.000000 0.7966 0.7966 0.7966 0.7967 0.7969
1685.000000 0.7971 0.7974 0.7976 0.7979 0.7981
1690.000000 0.7984 0.7988 0.7993 0.7997 0.8002
1695.000000 0.8006 0.8009 0.8011 0.8014 0.8016
1700.000000 0.8019 0.8021 0.8024 0.8025 0.8027
1705.000000 0.8029 0.8031 0.8033 0.8035 0.8037
1710.000000 0.8038 0.8040 0.8042 0.8043 0.8044
1715.000000 0.8044 0.8044 0.8044 0.8044 0.8045
1720.000000 0.8047 0.8052 0.8058 0.8064 0.8069
1725.000000 0.8072 0.8074 0.8075 0.8074 0.8065
1730.000000 0.8056 0.8046 0.8040 0.8034 0.8029
1735.000000 0.8026 0.8024 0.8023 0.8024 0.8024
1740.000000 0.8033 0.8042 0.8055 0.8068 0.8081
1745.000000 0.8093 0.8092 0.8089 0.8085 0.8074
1750.000000 0.8062 0.8057 0.8053 0.8049 0.8046
1755.000000 0.8046 0.8046 0.8049 0.8051 0.8054
1760.000000 0.8057 0.8061 0.8071 0.8081 0.8091
1765.000000 0.8092 0.8093 0.8092 0.8081 0.8063
1770.000000 0.8057 0.8050 0.8046 0.8047 0.8046
1775.000000 0.8045 0.8044 0.8043 0.8043 0.8042
1780.000000 0.8041 0.8040 0.8039 0.8038 0.8037
1785.000000 0.8036 0.8034 0.8033 0.8032 0.8032
1790.000000 0.8031 0.8031 0.8031 0.8030 0.8030
1795.000000 0.8029 0.8028 0.8026 0.8025 0.8023
1800.000000 0.8023 0.8022 0.8022 0.8021 0.8020
1805.000000 0.8020 0.8019 0.8018 0.8017 0.8016
1810.000000 0.8015 0.8014 0.8013 0.8012 0.8011
1815.000000 0.8010 0.8009 0.8008 0.8007 0.8006
1820.000000 0.8006 0.8006 0.8006 0.8006 0.8006
1825.000000 0.8006 0.8006 0.8006 0.8006 0.8006
1830.000000 0.8006 0.8006 0.8005 0.8005 0.8005
1835.000000 0.8005 0.8004 0.8004 0.8004 0.8004
1840.000000 0.8004 0.8003 0.8003 0.8003 0.8003
1845.000000 0.8002 0.8002 0.8002 0.8002 0.8002
1850.000000 0.8001 0.8001 0.8001 0.8001 0.8001
1855.000000 0.8001 0.8000 0.8000 0.8000 0.8000
1860.000000 0.8000 0.7999 0.7999 0.7999 0.7999
1865.000000 0.7998 0.7997 0.7997 0.7996 0.7996
1870.000000 0.7995 0.7994 0.7994 0.7993 0.7993
1875.000000 0.7992 0.7992 0.7991 0.7990 0.8003
1880.000000 0.7989 0.7989 0.7988 0.7987 0.7987
1885.000000 0.7986 0.7987 0.7988 0.7989 0.7990
1890.000000 0.7991 0.7992 0.7993 0.7994 0.7995
1895.000000 0.7995 0.7994 0.7993 0.7992 0.7990
1900.000000 0.7989 0.7988 0.7987 0.7986 0.7984
1905.000000 0.7983 0.7982 0.7980 0.7979 0.7977
1910.000000 0.7976 0.7975 0.7973 0.7972 0.7970
1915.000000 0.7969 0.7967 0.7966 0.7965 0.7964
1920.000000 0.7962 0.7961 0.7960 0.7958 0.7957
1925.000000 0.7956 0.7954 0.7953 0.7952 0.7951
1930.000000 0.7949 0.7949 0.7949 0.7948 0.7948
1935.000000 0.7948 0.7947 0.7947 0.7947 0.7947
1940.000000 0.7946 0.7946 0.7946 0.7945 0.7945
1945.000000 0.7945 0.7946 0.7946 0.7946 0.7946
1950.000000 0.7947 0.7947 0.7947 0.7947 0.7948
1955.000000 0.7948 0.7948 0.7948 0.7947 0.7946
1960.000000 0.7945 0.7944 0.7943 0.7942 0.7941
1965.000000 0.7941 0.7940 0.7939 0.7938 0.7938
1970.000000 0.7937 0.7937 0.7936 0.7936 0.7935
1975.000000 0.7935 0.7932 0.7930 0.7928 0.7926
1980.000000 0.7924 0.7922 0.7920 0.7918 0.7915
1985.000000 0.7913 0.7911 0.7910 0.7908 0.7906
1990.000000 0.7904 0.7902 0.7900 0.7899 0.7903
1995.000000 0.7907 0.7910 0.7915 0.7927 0.7947
2000.000000 0.7968 0.7976 0.7984 0.7984 0.7985
2005.000000 0.7985 0.7985 0.7984 0.7984 0.7983
2010.000000 0.7982 0.7981 0.7981 0.7980 0.7979
2015.000000 0.7978 0.7978 0.7977 0.7976 0.7972
2020.000000 0.7968 0.7964 0.7961 0.7957 0.7954
2025.000000 0.7950 0.7946 0.7943 0.7940 0.7937
2030.000000 0.7935 0.7933 0.7931 0.7928 0.7925
2035.000000 0.7922 0.7919 0.7915 0.7912 0.7907
2040.000000 0.7902 0.7897 0.7892 0.7887 0.7882
2045.000000 0.7877 0.7873 0.7869 0.7865 0.7860
2050.000000 0.7856 0.7851 0.7846 0.7840 0.7835
2055.000000 0.7829 0.7823 0.7817 0.7812 0.7806
2060.000000 0.7801 0.7795 0.7790 0.7784 0.7779
2065.000000 0.7773 0.7768 0.7763 0.7758 0.7752
2070.000000 0.7747 0.7741 0.7736 0.7730 0.7724
2075.000000 0.7718 0.7713 0.7707 0.7702 0.7694
2080.000000 0.7686 0.7676 0.7666 0.7656 0.7647
2085.000000 0.7637 0.7627 0.7616 0.7606 0.7595
2090.000000 0.7584 0.7573 0.7563 0.7552 0.7541
2095.000000 0.7527 0.7513 0.7499 0.7485 0.7471
2100.000000 0.7457 0.7443 0.7429 0.7415 0.7401
2105.000000 0.7384 0.7367 0.7347 0.7328 0.7323
2110.000000 0.7318 0.7315 0.7312 0.7309 0.7306
2115.000000 0.7303 0.7300 0.7302 0.7310 0.7307
2120.000000 0.7310 0.7320 0.7331 0.7347 0.7363
2125.000000 0.7376 0.7389 0.7400 0.7411 0.7423
2130.000000 0.7435 0.7449 0.7464 0.7479 0.7495
2135.000000 0.7509 0.7524 0.7532 0.7541 0.7548
2140.000000 0.7555 0.7559 0.7564 0.7568 0.7573
2145.000000 0.7572 0.7572 0.7571 0.7570 0.7567
2150.000000 0.7565 0.7562 0.7560 0.7557 0.7555
2155.000000 0.7552 0.7550 0.7544 0.7538 0.7531
2160.000000 0.7525 0.7518 0.7512 0.7506 0.7500
2165.000000 0.7490 0.7480 0.7470 0.7460 0.7450
2170.000000 0.7440 0.7430 0.7420 0.7410 0.7400
2175.000000 0.7386 0.7372 0.7358 0.7344 0.7330
2180.000000 0.7317 0.7307 0.7298 0.7292 0.7287
2185.000000 0.7281 0.7276 0.7274 0.7272 0.7273
2190.000000 0.7274 0.7275 0.7277 0.7282 0.7253
2195.000000 0.7292 0.7297 0.7302 0.7308 0.7314
2200.000000 0.7320 0.7326 0.7332 0.7339 0.7346
2205.000000 0.7353 0.7361 0.7368 0.7376 0.7384
2210.000000 0.7393 0.7395 0.7397 0.7398 0.7400
2215.000000 0.7401 0.7402 0.7402 0.7402 0.7402
2220.000000 0.7402 0.7402 0.7402 0.7401 0.7401
2225.000000 0.7401 0.7401 0.7401 0.7401 0.7400
2230.000000 0.7399 0.7398 0.7398 0.7397 0.7396
2235.000000 0.7395 0.7395 0.7394 0.7393 0.7392
2240.000000 0.7392 0.7391 0.7390 0.7388 0.7387
2245.000000 0.7386 0.7385 0.7383 0.7382 0.7380
2250.000000 0.7379 0.7377 0.7376 0.7374 0.7373
2255.000000 0.7370 0.7368 0.7365 0.7362 0.7359
2260.000000 0.7357 0.7354 0.7351 0.7348 0.7346
2265.000000 0.7343 0.7341 0.7338 0.7335 0.7332
2270.000000 0.7330 0.7326 0.7322 0.7317 0.7313
2275.000000 0.7308 0.7304 0.7300 0.7296 0.7291
2280.000000 0.7287 0.7282 0.7278 0.7273 0.7269
2285.000000 0.7268 0.7268 0.7267 0.7267 0.7267
2290.000000 0.7267 0.7267 0.7267 0.7266 0.7266
2295.000000 0.7266 0.7266 0.7269 0.7272 0.7275
2300.000000 0.7278 0.7281 0.7284 0.7287 0.7290
2305.000000 0.7293 0.7296 0.7299 0.7302 0.7304
2310.000000 0.7307 0.7310 0.7313 0.7316 0.7319
2315.000000 0.7319 0.7320 0.7320 0.7320 0.7320
2320.000000 0.7320 0.7320 0.7320 0.7320 0.7321
2325.000000 0.7320 0.7319 0.7317 0.7315 0.7312
2330.000000 0.7310 0.7308 0.7306 0.7303 0.7300
2335.000000 0.7296 0.7293 0.7289 0.7285 0.7281
2340.000000 0.7278 0.7274 0.7270 0.7266 0.7262
2345.000000 0.7258 0.7255 0.7251 0.7248 0.7244
2350.000000 0.7240 0.7236 0.7233 0.7229 0.7226
2355.000000 0.7222 0.7218 0.7215 0.7212 0.7208
2360.000000 0.7205 0.7201 0.7198 0.7195 0.7192
2365.000000 0.7188 0.7185 0.7183 0.7181 0.7180
2370.000000 0.7179 0.7178 0.7177 0.7176 0.7175
2375.000000 0.7174 0.7173 0.7175 0.7178 0.7180
2380.000000 0.7183 0.7185 0.7188 0.7190 0.7193
2385.000000 0.7194 0.7196 0.7196 0.7196 0.7196
2390.000000 0.7197 0.7193 0.7189 0.7183 0.7178
2395.000000 0.7168 0.7159 0.7147 0.7136 0.7128
2400.000000 0.7120 0.7116 0.7112 0.7110 0.7108
2405.000000 0.7109 0.7111 0.7112 0.7114 0.7116
2410.000000 0.7118 0.7121 0.7125 0.7129 0.7133
2415.000000 0.7137 0.7141 0.7139 0.7138 0.7136
2420.000000 0.7134 0.7132 0.7131 0.7129 0.7127
2425.000000 0.7126 0.7125 0.7126 0.7128 0.7129
2430.000000 0.7131 0.7132 0.7134 0.7135 0.7137
2435.000000 0.7142 0.7147 0.7151 0.7156 0.7160
2440.000000 0.7165 0.7170 0.7175 0.7177 0.7180
2445.000000 0.7181 0.7183 0.7184 0.7185 0.7184
2450.000000 0.7183 0.7182 0.7181 0.7179 0.7178
2455.000000 0.7176 0.7175 0.7173 0.7172 0.7170
2460.000000 0.7169 0.7169 0.7169 0.7169 0.7170
2465.000000 0.7170 0.7171 0.7171 0.7172 0.7172
2470.000000 0.7173 0.7176 0.7179 0.7182 0.7185
2475.000000 0.7187 0.7190 0.7191 0.7192 0.7191
2480.000000 0.7191 0.7190 0.7190 0.7186 0.7183
2485.000000 0.7179 0.7176 0.7173 0.7170 0.7166
2490.000000 0.7163 0.7161 0.7160 0.7159 0.7158
2495.000000 0.7157 0.7156 0.7155 0.7155 0.7154
2500.000000 0.7153 0.7152 0.7152 0.7153 0.7155
2505.000000 0.7157 0.7159 0.7160 0.7162 0.7164
2510.000000 0.7166 0.7165 0.7165 0.7163 0.7161
2515.000000 0.7159 0.7157 0.7154 0.7151 0.7147
2520.000000 0.7144 0.7140 0.7136 0.7132 0.7128
2525.000000 0.7124 0.7121 0.7117 0.7113 0.7109
2530.000000 0.7105 0.7101 0.7098 0.7095 0.7092
2535.000000 0.7089 0.7086 0.7083 0.7080 0.7077
2540.000000 0.7074 0.7071 0.7068 0.7064 0.7060
2545.000000 0.7056 0.7052 0.7047 0.7043 0.7039
2550.000000 0.7035 0.7031 0.7027 0.7023 0.7019
2555.000000 0.7014 0.7010 0.7006 0.7002 0.6998
2560.000000 0.6994 0.6989 0.6985 0.6980 0.6976
2565.000000 0.6972 0.6968 0.6963 0.6959 0.6954
2570.000000 0.6950 0.6945 0.6941 0.6936 0.6932
2575.000000 0.6926 0.6921 0.6915 0.6909 0.6903
2580.000000 0.6897 0.6891 0.6885 0.6879 0.6873
2585.000000 0.6867 0.6861 0.6855 0.6850 0.6845
2590.000000 0.6840 0.6834 0.6829 0.6824 0.6819
2595.000000 0.6813 0.6808 0.6806 0.6804 0.6804
2600.000000 0.6804 0.6804 0.6805 0.6808 0.6811
2605.000000 0.6814 0.6818 0.6821 0.6825 0.6826
2610.000000 0.6828 0.6828 0.6828 0.6823 0.6818
2615.000000 0.6810 0.6802 0.6791 0.6780 0.6770
2620.000000 0.6760 0.6751 0.6743 0.6741 0.6740
2625.000000 0.6739 0.6738 0.6737 0.6736 0.6735
2630.000000 0.6734 0.6733 0.6732 0.6730 0.6729
2635.000000 0.6727 0.6726 0.6724 0.6723 0.6721
2640.000000 0.6719 0.6717 0.6715 0.6713 0.6711
2645.000000 0.6708 0.6706 0.6701 0.6697 0.6693
2650.000000 0.6689 0.6685 0.6681 0.6677 0.6673
2655.000000 0.6669 0.6665 0.6660 0.6656 0.6651
2660.000000 0.6646 0.6641 0.6636 0.6631 0.6626
2665.000000 0.6621 0.6616 0.6611 0.6606 0.6600
2670.000000 0.6595 0.6590 0.6585 0.6580 0.6575
2675.000000 0.6569 0.6563 0.6557 0.6552 0.6546
2680.000000 0.6540 0.6534 0.6529 0.6523 0.6517
2685.000000 0.6511 0.6506 0.6500 0.6494 0.6488
2690.000000 0.6483 0.6477 0.6471 0.6464 0.6457
2695.000000 0.6450 0.6443 0.6436 0.6429 0.6422
2700.000000 0.6415 0.6408 0.6401 0.6394 0.6387
2705.000000 0.6380 0.6373 0.6363 0.6353 0.6342
2710.000000 0.6331 0.6320 0.6309 0.6289 0.6270
2715.000000 0.6243 0.6217 0.6196 0.6175 0.6154
2720.000000 0.6134 0.6113 0.6092 0.6071 0.6051
2725.000000 0.6030 0.6009 0.5988 0.5968 0.5946
2730.000000 0.5924 0.5905 0.5886 0.5885 0.5885
2735.000000 0.5884 0.5884 0.5886 0.5888 0.5898
2740.000000 0.5909 0.5974 0.6040 0.6077 0.6115
2745.000000 0.6119 0.6123 0.6120 0.6118 0.6112
2750.000000 0.6107 0.6102 0.6097 0.6092 0.6087
2755.000000 0.6077 0.6067 0.6057 0.6048 0.6039
2760.000000 0.6030 0.6021 0.6013 0.6004 0.5995
2765.000000 0.5986 0.5977 0.5968 0.5960 0.5952
2770.000000 0.5944 0.5936 0.5928 0.5920 0.5912
2775.000000 0.5904 0.5896 0.5890 0.5884 0.5877
2780.000000 0.5871 0.5864 0.5858 0.5852 0.5846
2785.000000 0.5840 0.5835 0.5830 0.5825 0.5818
2790.000000 0.5811 0.5803 0.5795 0.5787 0.5779
2795.000000 0.5770 0.5761 0.5752 0.5743 0.5734
2800.000000 0.5725 0.5711 0.5697 0.5682 0.5668
2805.000000 0.5653 0.5639 0.5620 0.5602 0.5583
2810.000000 0.5564 0.5545 0.5526 0.5505 0.5485
2815.000000 0.5464 0.5444 0.5423 0.5402 0.5381
2820.000000 0.5361 0.5336 0.5311 0.5285 0.5260
2825.000000 0.5234 0.5209 0.5183 0.5158 0.5133
2830.000000 0.5108 0.5082 0.5057 0.5032 0.5007
2835.000000 0.4981 0.4956 0.4930 0.4905 0.4879
2840.000000 0.4854 0.4821 0.4788 0.4755 0.4723
2845.000000 0.4690 0.4657 0.4622 0.4587 0.4524
2850.000000 0.4461 0.4397 0.4334 0.4253 0.4172
2855.000000 0.4089 0.4006 0.3924 0.3843 0.3748
2860.000000 0.3653 0.3549 0.3446 0.3358 0.3271
2865.000000 0.3185 0.3099 0.3015 0.2932 0.2789
2870.000000 0.2646 0.2412 0.2179 0.1975 0.1772
2875.000000 0.1688 0.1604 0.1642 0.1600 0.1819
2880.000000 0.1958 0.2097 0.2236 0.2375 0.2515
2885.000000 0.2654 0.2793 0.2932 0.3072 0.3211
2890.000000 0.3350 0.3368 0.3387 0.3385 0.3383
2895.000000 0.3381 0.3404 0.3300 0.3221 0.3097
2900.000000 0.2974 0.2851 0.2728 0.2736 0.2744
2905.000000 0.2753 0.2763 0.2769 0.2775 0.2774
2910.000000 0.2773 0.2763 0.2754 0.2734 0.2714
2915.000000 0.2687 0.2661 0.2634 0.2607 0.2580
2920.000000 0.2554 0.2523 0.2492 0.2452 0.2413
2925.000000 0.2373 0.2334 0.2301 0.2269 0.2230
2930.000000 0.2191 0.2121 0.2051 0.1981 0.1912
2935.000000 0.1861 0.1810 0.1821 0.1832 0.1872
2940.000000 0.1913 0.1953 0.1994 0.2034 0.2075
2945.000000 0.2075 0.2075 0.2070 0.2066 0.2053
2950.000000 0.2041 0.2016 0.1991 0.1912 0.1833
2955.000000 0.1726 0.1620 0.1514 0.1408 0.1301
2960.000000 0.1195 0.1089 0.0983 0.0925 0.0867
2965.000000 0.0865 0.0845 0.0992 0.1120 0.1264
2970.000000 0.1408 0.1498 0.1588 0.1588 0.1589
2975.000000 0.1490 0.1392 0.1344 0.1296 0.1413
2980.000000 0.1530 0.1735 0.1940 0.2145 0.2350
2985.000000 0.2554 0.2759 0.2964 0.3169 0.3374
2990.000000 0.3579 0.3784 0.3989 0.4193 0.4398
2995.000000 0.4423 0.4448 0.4456 0.4465 0.4688
3000.000000 0.4911 0.5172 0.5434 0.5673 0.5912
3005.000000 0.5979 0.6047 0.6110 0.6174 0.6214
3010.000000 0.6255 0.6290 0.6326 0.6332 0.6339
3015.000000 0.6341 0.6343 0.6344 0.6346 0.6347
3020.000000 0.6348 0.6348 0.6349 0.6350 0.6351
3025.000000 0.6352 0.6353 0.6353 0.6354 0.6354
3030.000000 0.6355 0.6355 0.6355 0.6355 0.6355
3035.000000 0.6355 0.6355 0.6354 0.6354 0.6353
3040.000000 0.6353 0.6353 0.6353 0.6350 0.6347
3045.000000 0.6343 0.6340 0.6336 0.6333 0.6330
3050.000000 0.6328 0.6325 0.6323 0.6321 0.6319
3055.000000 0.6316 0.6314 0.6312 0.6310 0.6307
3060.000000 0.6305 0.6302 0.6300 0.6299 0.6319
3065.000000 0.6298 0.6298 0.6298 0.6298 0.6297
3070.000000 0.6297 0.6297 0.6297 0.6297 0.6298
3075.000000 0.6298 0.6298 0.6298 0.6298 0.6299
3080.000000 0.6301 0.6302 0.6304 0.6305 0.6307
3085.000000 0.6308 0.6310 0.6313 0.6317 0.6320
3090.000000 0.6324 0.6327 0.6331 0.6335 0.6339
3095.000000 0.6343 0.6347 0.6351 0.6356 0.6357
3100.000000 0.6359 0.6361 0.6363 0.6365 0.6367
3105.000000 0.6366 0.6365 0.6364 0.6363 0.6362
3110.000000 0.6361 0.6358 0.6356 0.6353 0.6351
3115.000000 0.6348 0.6346 0.6343 0.6341 0.6337
3120.000000 0.6334 0.6330 0.6326 0.6322 0.6318
3125.000000 0.6314 0.6310 0.6305 0.6301 0.6294
3130.000000 0.6288 0.6281 0.6274 0.6267 0.6261
3135.000000 0.6254 0.6247 0.6240 0.6234 0.6227
3140.000000 0.6221 0.6214 0.6207 0.6200 0.6194
3145.000000 0.6187 0.6181 0.6175 0.6169 0.6162
3150.000000 0.6156 0.6149 0.6143 0.6136 0.6130
3155.000000 0.6122 0.6115 0.6107 0.6100 0.6093
3160.000000 0.6086 0.6078 0.6071 0.6064 0.6057
3165.000000 0.6049 0.6042 0.6034 0.6027 0.6020
3170.000000 0.6013 0.6005 0.5997 0.5988 0.5979
3175.000000 0.5970 0.5961 0.5951 0.5942 0.5933
3180.000000 0.5924 0.5915 0.5906 0.5897 0.5888
3185.000000 0.5877 0.5867 0.5855 0.5843 0.5831
3190.000000 0.5820 0.5808 0.5796 0.5784 0.5772
3195.000000 0.5760 0.5749 0.5737 0.5725 0.5712
3200.000000 0.5699 0.5684 0.5670 0.5655 0.5641
3205.000000 0.5627 0.5613 0.5598 0.5584 0.5569
3210.000000 0.5555 0.5540 0.5525 0.5510 0.5495
3215.000000 0.5480 0.5465 0.5450 0.5436 0.5421
3220.000000 0.5406 0.5386 0.5367 0.5346 0.5325
3225.000000 0.5303 0.5282 0.5260 0.5239 0.5217
3230.000000 0.5196 0.5175 0.5154 0.5131 0.5109
3235.000000 0.5078 0.5047 0.5007 0.4967 0.4815
3240.000000 0.4663 0.4557 0.4451 0.4423 0.4395
3245.000000 0.4397 0.4406 0.4407 0.4414 0.4429
3250.000000 0.4444 0.4574 0.4704 0.4754 0.4805
3255.000000 0.4850 0.4895 0.4936 0.4978 0.5016
3260.000000 0.5055 0.5091 0.5128 0.5161 0.5195
3265.000000 0.5219 0.5243 0.5251 0.5259 0.5267
3270.000000 0.5276 0.5278 0.5281 0.5277 0.5273
3275.000000 0.5269 0.5265 0.5259 0.5254 0.5246
3280.000000 0.5239 0.5231 0.5224 0.5215 0.5207
3285.000000 0.5197 0.5187 0.5177 0.5167 0.5155
3290.000000 0.5143 0.5130 0.5118 0.5104 0.5091
3295.000000 0.5077 0.5063 0.5049 0.5035 0.5019
3300.000000 0.5003 0.4986 0.4969 0.4952 0.4935
3305.000000 0.4917 0.4899 0.4876 0.4854 0.4832
3310.000000 0.4810 0.4788 0.4767 0.4745 0.4724
3315.000000 0.4703 0.4682 0.4662 0.4642 0.4622
3320.000000 0.4602 0.4581 0.4561 0.4541 0.4521
3325.000000 0.4498 0.4476 0.4452 0.4429 0.4406
3330.000000 0.4383 0.4360 0.4337 0.4313 0.4290
3335.000000 0.4268 0.4246 0.4224 0.4203 0.4181
3340.000000 0.4159 0.4137 0.4116 0.4094 0.4072
3345.000000 0.4040 0.4009 0.3974 0.3940 0.3904
3350.000000 0.3869 0.3833 0.3798 0.3765 0.3733
3355.000000 0.3700 0.3668 0.3636 0.3604 0.3570
3360.000000 0.3536 0.3499 0.3462 0.3424 0.3387
3365.000000 0.3332 0.3278 0.3215 0.3152 0.3084
3370.000000 0.3016 0.2918 0.2821 0.2722 0.2623
3375.000000 0.2551 0.2480 0.2415 0.2350 0.2280
3380.000000 0.2210 0.2129 0.2049 0.1937 0.1825
3385.000000 0.1706 0.1588 0.1582 0.1577 0.1574
3390.000000 0.1572 0.1573 0.1574 0.1579 0.1553
3395.000000 0.1592 0.1600 0.1631 0.1662 0.1707
3400.000000 0.1753 0.1828 0.1903 0.2018 0.2134
3405.000000 0.2253 0.2372 0.2427 0.2482 0.2521
3410.000000 0.2560 0.2599 0.2638 0.2683 0.2729
3415.000000 0.2778 0.2827 0.2877 0.2927 0.2959
3420.000000 0.2992 0.2993 0.2995 0.2994 0.2996
3425.000000 0.2990 0.2987 0.2981 0.2976 0.2967
3430.000000 0.2958 0.2946 0.2934 0.2916 0.2898
3435.000000 0.2872 0.2846 0.2812 0.2779 0.2745
3440.000000 0.2711 0.2673 0.2636 0.2598 0.2561
3445.000000 0.2527 0.2494 0.2460 0.2427 0.2388
3450.000000 0.2350 0.2309 0.2268 0.2227 0.2187
3455.000000 0.2149 0.2112 0.2073 0.2034 0.1994
3460.000000 0.1954 0.1904 0.1854 0.1782 0.1711
3465.000000 0.1643 0.1576 0.1552 0.1529 0.1525
3470.000000 0.1521 0.1521 0.1521 0.1525 0.1518
3475.000000 0.1535 0.1541 0.1561 0.1582 0.1607
3480.000000 0.1633 0.1666 0.1700 0.1735 0.1771
3485.000000 0.1801 0.1832 0.1859 0.1887 0.1912
3490.000000 0.1937 0.1963 0.1989 0.2016 0.2043
3495.000000 0.2072 0.2102 0.2152 0.2203 0.2229
3500.000000 0.2255 0.2277 0.2299 0.2332 0.2365
3505.000000 0.2406 0.2447 0.2471 0.2496 0.2520
3510.000000 0.2545 0.2586 0.2627 0.2682 0.2737
3515.000000 0.2828 0.2920 0.2980 0.3041 0.3084
3520.000000 0.3128 0.3170 0.3213 0.3258 0.3304
3525.000000 0.3350 0.3397 0.3468 0.3539 0.3605
3530.000000 0.3671 0.3731 0.3791 0.3832 0.3873
3535.000000 0.3913 0.3954 0.3993 0.4033 0.4066
3540.000000 0.4099 0.4132 0.4165 0.4200 0.4235
3545.000000 0.4273 0.4311 0.4349 0.4388 0.4456
3550.000000 0.4525 0.4577 0.4629 0.4657 0.4686
3555.000000 0.4715 0.4744 0.4772 0.4800 0.4827
3560.000000 0.4854 0.4873 0.4892 0.4903 0.4915
3565.000000 0.4926 0.4938 0.4947 0.4957 0.4964
3570.000000 0.4971 0.4978 0.4986 0.4993 0.5000
3575.000000 0.5007 0.5015 0.5024 0.5033 0.5042
3580.000000 0.5051 0.5060 0.5069 0.5089 0.5110
3585.000000 0.5131 0.5153 0.5174 0.5196 0.5218
3590.000000 0.5241 0.5264 0.5287 0.5309 0.5332
3595.000000 0.5360 0.5389 0.5420 0.5451 0.5482
3600.000000 0.5514 0.5545 0.5577 0.5607 0.5638
3605.000000 0.5654 0.5671 0.5687 0.5703 0.5719
3610.000000 0.5736 0.5748 0.5760 0.5771 0.5782
3615.000000 0.5792 0.5803 0.5814 0.5825 0.5833
3620.000000 0.5842 0.5849 0.5856 0.5863 0.5871
3625.000000 0.5874 0.5877 0.5879 0.5882 0.5884
3630.000000 0.5886 0.5888 0.5891 0.5891 0.5886
3635.000000 0.5892 0.5892 0.5891 0.5891 0.5890
3640.000000 0.5890 0.5889 0.5889 0.5888 0.5887
3645.000000 0.5886 0.5886 0.5885 0.5885 0.5884
3650.000000 0.5883 0.5880 0.5877 0.5874 0.5872
3655.000000 0.5869 0.5866 0.5863 0.5861 0.5858
3660.000000 0.5856 0.5854 0.5852 0.5850 0.5848
3665.000000 0.5846 0.5844 0.5842 0.5840 0.5838
3670.000000 0.5836 0.5834 0.5832 0.5830 0.5828
3675.000000 0.5825 0.5823 0.5821 0.5819 0.5817
3680.000000 0.5815 0.5812 0.5810 0.5807 0.5805
3685.000000 0.5802 0.5800 0.5797 0.5795 0.5792
3690.000000 0.5790 0.5787 0.5785 0.5782 0.5780
3695.000000 0.5777 0.5775 0.5772 0.5770 0.5768
3700.000000 0.5766 0.5764 0.5762 0.5760 0.5758
3705.000000 0.5756 0.5754 0.5752 0.5751 0.5749
3710.000000 0.5747 0.5745 0.5743 0.5741 0.5739
3715.000000 0.5737 0.5736 0.5734 0.5732 0.5730
3720.000000 0.5729 0.5728 0.5727 0.5726 0.5725
3725.000000 0.5724 0.5723 0.5721 0.5720 0.5719
3730.000000 0.5718 0.5717 0.5716 0.5715 0.5714
3735.000000 0.5713 0.5712 0.5710 0.5709 0.5707
3740.000000 0.5706 0.5705 0.5704 0.5702 0.5701
3745.000000 0.5699 0.5698 0.5697 0.5696 0.5694
3750.000000 0.5693 0.5691 0.5690 0.5689 0.5688
3755.000000 0.5686 0.5685 0.5683 0.5682 0.5680
3760.000000 0.5678 0.5676 0.5674 0.5672 0.5670
3765.000000 0.5668 0.5666 0.5664 0.5663 0.5661
3770.000000 0.5659 0.5657 0.5655 0.5653 0.5651
3775.000000 0.5649 0.5648 0.5646 0.5644 0.5642
3780.000000 0.5640 0.5638 0.5636 0.5634 0.5632
3785.000000 0.5630 0.5628 0.5626 0.5624 0.5622
3790.000000 0.5620 0.5618 0.5616 0.5614 0.5612
3795.000000 0.5610 0.5608 0.5606 0.5604 0.5603
3800.000000 0.5602
##END=
