##TITLE=Hypoxanthine, 1-benzyl-9-cyclopentyl-
##JCAMP-DX=4.24
##DATA TYPE=INFRARED SPECTRUM
##CLASS=COBLENTZ III
##ORIGIN=SOUTHERN RESEARCH INSTITUTE
##OWNER=Copyright (C) 1987 by the Coblentz Society
Collection (C) 2018 copyright by the U.S. Secretary of Commerce
on behalf of the United States of America. All rights reserved.
##DATE=1966/10/12
##NAMES=1-benzyl-9-cyclopentyl-1,9-dihydro-6H-purin-6-one
##MOLFORM=C17 H18 N4 O
##SOURCE REFERENCE=COBLENTZ NO. 8204
##$NIST ID=B6008204
##$NIST SOURCE=COBLENTZ
##$NIST IMAGE=cob8204
##SPECTROMETER/DATA SYSTEM=PERKIN-ELMER 521 (GRATING)
##INSTRUMENT PARAMETERS=FILTERS AT 3130, 2500, 2000, 1150, 700, 410. GRATING CHANGES: 2000, 620 CM^-^1
##STATE=SOLID (1 mg / 650 mg KBr DISC)
$$ PURITY - ANALYTICAL
##SAMPLING PROCEDURE=TRANSMISSION
##RESOLUTION=2
##DATA PROCESSING=DIGITIZED BY COBLENTZ SOCIETY (BATCH II) FROM HARD COPY
##XUNITS=1/CM
##YUNITS=TRANSMITTANCE
##XFACTOR=1.0
##YFACTOR=1
##FIRSTX=250
##LASTX=4000
##FIRSTY=0.2472
##MAXX=4000
##MINX=250
##MAXY=0.9691
##MINY=0.1548
##NPOINTS=3751
##XYDATA=(X++(Y..Y))
250.000000 0.2472 0.2545 0.2618 0.2691 0.2764
255.000000 0.2837 0.2910 0.2983 0.3056 0.3129
260.000000 0.3201 0.3274 0.3347 0.3420 0.3493
265.000000 0.3566 0.3639 0.3712 0.3785 0.3859
270.000000 0.4074 0.4400 0.4510 0.4607 0.4668
275.000000 0.4729 0.4790 0.4849 0.4884 0.4920
280.000000 0.4956 0.4992 0.5028 0.5063 0.5099
285.000000 0.5168 0.5239 0.5310 0.5382 0.5436
290.000000 0.5487 0.5539 0.5590 0.5641 0.5699
295.000000 0.5779 0.5860 0.5941 0.6052 0.6167
300.000000 0.6224 0.6273 0.6323 0.6348 0.6364
305.000000 0.6380 0.6396 0.6398 0.6400 0.6402
310.000000 0.6423 0.6398 0.6386 0.6366 0.6306
315.000000 0.6246 0.6186 0.6126 0.6066 0.6006
320.000000 0.5979 0.5982 0.5985 0.5995 0.6113
325.000000 0.6232 0.6350 0.6468 0.6586 0.6705
330.000000 0.6823 0.6941 0.7059 0.7178 0.7241
335.000000 0.7247 0.7256 0.7266 0.7277 0.7291
340.000000 0.7307 0.7351 0.7399 0.7444 0.7490
345.000000 0.7537 0.7571 0.7591 0.7612 0.7634
350.000000 0.7657 0.7680 0.7703 0.7723 0.7744
355.000000 0.7838 0.7944 0.8004 0.8088 0.8244
360.000000 0.8366 0.8425 0.8484 0.8529 0.8569
365.000000 0.8609 0.8647 0.8682 0.8718 0.8754
370.000000 0.8779 0.8802 0.8825 0.8849 0.8867
375.000000 0.8882 0.8896 0.8911 0.8925 0.8939
380.000000 0.8953 0.8962 0.8971 0.8979 0.8988
385.000000 0.8997 0.9006 0.9015 0.9023 0.9032
390.000000 0.9041 0.9048 0.9054 0.9061 0.9067
395.000000 0.9074 0.9080 0.9086 0.9091 0.9096
400.000000 0.9101 0.9111 0.9138 0.9165 0.9190
405.000000 0.9211 0.9232 0.9249 0.9257 0.9265
410.000000 0.9273 0.9279 0.9284 0.9288 0.9292
415.000000 0.9297 0.9301 0.9305 0.9310 0.9313
420.000000 0.9316 0.9320 0.9323 0.9309 0.9330
425.000000 0.9333 0.9334 0.9335 0.9337 0.9338
430.000000 0.9339 0.9340 0.9335 0.9329 0.9324
435.000000 0.9319 0.9312 0.9297 0.9281 0.9265
440.000000 0.9238 0.9210 0.9183 0.9150 0.9112
445.000000 0.9071 0.8869 0.8668 0.8466 0.8265
450.000000 0.8064 0.7862 0.7661 0.7616 0.7601
455.000000 0.7653 0.7937 0.8221 0.8504 0.8788
460.000000 0.9072 0.9356 0.9492 0.9508 0.9517
465.000000 0.9524 0.9531 0.9538 0.9541 0.9543
470.000000 0.9545 0.9547 0.9547 0.9547 0.9547
475.000000 0.9547 0.9547 0.9555 0.9546 0.9545
480.000000 0.9544 0.9540 0.9537 0.9533 0.9530
485.000000 0.9526 0.9519 0.9513 0.9507 0.9501
490.000000 0.9491 0.9481 0.9470 0.9460 0.9445
495.000000 0.9427 0.9410 0.9392 0.9372 0.9348
500.000000 0.9323 0.9275 0.9226 0.9174 0.9123
505.000000 0.9060 0.8979 0.8838 0.8663 0.8488
510.000000 0.8313 0.8138 0.8036 0.8017 0.8043
515.000000 0.8186 0.8378 0.8569 0.8761 0.8953
520.000000 0.9144 0.9325 0.9358 0.9396 0.9421
525.000000 0.9434 0.9443 0.9452 0.9461 0.9453
530.000000 0.9450 0.9443 0.9415 0.9381 0.9346
535.000000 0.9329 0.9317 0.9318 0.9330 0.9345
540.000000 0.9358 0.9362 0.9363 0.9352 0.9324
545.000000 0.9285 0.9203 0.9125 0.9012 0.8859
550.000000 0.8707 0.8554 0.8401 0.8249 0.8225
555.000000 0.8220 0.8253 0.8401 0.8549 0.8697
560.000000 0.8845 0.8993 0.9141 0.9289 0.9317
565.000000 0.9327 0.9327 0.9328 0.9328 0.9322
570.000000 0.9307 0.9293 0.9278 0.9252 0.9221
575.000000 0.9184 0.9146 0.9093 0.9029 0.8959
580.000000 0.8914 0.8896 0.8896 0.8925 0.8976
585.000000 0.9027 0.9078 0.9129 0.9164 0.9159
590.000000 0.9150 0.9136 0.9120 0.9103 0.9086
595.000000 0.9078 0.9070 0.9068 0.9067 0.9066
600.000000 0.9064 0.9063 0.9050 0.9023 0.8903
605.000000 0.8820 0.8775 0.8731 0.8651 0.8570
610.000000 0.8489 0.8409 0.8328 0.8271 0.8272
615.000000 0.8277 0.8347 0.8417 0.8487 0.8557
620.000000 0.8582 0.8576 0.8567 0.8552 0.8521
625.000000 0.8473 0.8408 0.8332 0.8249 0.8059
630.000000 0.7804 0.7548 0.7293 0.7055 0.6945
635.000000 0.6822 0.6755 0.6723 0.6720 0.6724
640.000000 0.6741 0.6776 0.6827 0.6995 0.7163
645.000000 0.7331 0.7499 0.7583 0.7588 0.7578
650.000000 0.7214 0.6986 0.6758 0.6530 0.6302
655.000000 0.6217 0.6369 0.6634 0.6898 0.7163
660.000000 0.7428 0.7693 0.7958 0.8223 0.8426
665.000000 0.8428 0.8405 0.8329 0.8253 0.8177
670.000000 0.8101 0.8025 0.7949 0.7945 0.8019
675.000000 0.8206 0.8392 0.8579 0.8604 0.8595
680.000000 0.8587 0.8571 0.8533 0.8463 0.8346
685.000000 0.8137 0.7964 0.7443 0.6816 0.6190
690.000000 0.5563 0.4936 0.4636 0.4634 0.4776
695.000000 0.4988 0.5200 0.5413 0.5625 0.5837
700.000000 0.6050 0.6262 0.6474 0.6687 0.6899
705.000000 0.7111 0.7324 0.7536 0.7748 0.7961
710.000000 0.8173 0.8386 0.8496 0.8487 0.8491
715.000000 0.8489 0.8347 0.7844 0.7341 0.6838
720.000000 0.6335 0.5833 0.5330 0.4827 0.4324
725.000000 0.3822 0.3658 0.3643 0.3893 0.4424
730.000000 0.4955 0.5486 0.6017 0.6548 0.7079
735.000000 0.7610 0.8141 0.8672 0.8840 0.8916
740.000000 0.8963 0.8997 0.9006 0.9012 0.9018
745.000000 0.9024 0.9026 0.9023 0.9019 0.9018
750.000000 0.9020 0.9023 0.9029 0.9043 0.9058
755.000000 0.9072 0.9108 0.9164 0.9248 0.9296
760.000000 0.9336 0.9367 0.9380 0.9392 0.9381
765.000000 0.9387 0.9382 0.9372 0.9362 0.9346
770.000000 0.9328 0.9295 0.9258 0.9202 0.9119
775.000000 0.9014 0.8923 0.8862 0.8800 0.8738
780.000000 0.8207 0.7580 0.6953 0.6377 0.6384
785.000000 0.6457 0.6869 0.7281 0.7693 0.8105
790.000000 0.8517 0.8928 0.8923 0.8909 0.8799
795.000000 0.8688 0.8577 0.8466 0.8355 0.8245
800.000000 0.8134 0.8100 0.8101 0.8210 0.8347
805.000000 0.8484 0.8621 0.8746 0.8772 0.8805
810.000000 0.8847 0.8911 0.8985 0.9033 0.9054
815.000000 0.9072 0.9082 0.9082 0.9077 0.9075
820.000000 0.9072 0.9067 0.9062 0.9052 0.9043
825.000000 0.9033 0.9023 0.9013 0.9001 0.8983
830.000000 0.8956 0.8866 0.8712 0.8558 0.8404
835.000000 0.8250 0.8249 0.8238 0.8319 0.8591
840.000000 0.8864 0.9118 0.9192 0.9223 0.9240
845.000000 0.9258 0.9276 0.9292 0.9302 0.9312
850.000000 0.9323 0.9329 0.9332 0.9335 0.9339
855.000000 0.9342 0.9341 0.9338 0.9336 0.9331
860.000000 0.9326 0.9321 0.9316 0.9311 0.9306
865.000000 0.9296 0.9281 0.9265 0.9250 0.9235
870.000000 0.9210 0.9184 0.9154 0.9120 0.9087
875.000000 0.9053 0.9015 0.8971 0.8927 0.8883
880.000000 0.8798 0.8627 0.8456 0.8318 0.8302
885.000000 0.8323 0.8337 0.8363 0.8402 0.8481
890.000000 0.8628 0.8685 0.8741 0.8791 0.8823
895.000000 0.8854 0.8885 0.8915 0.8927 0.8927
900.000000 0.8919 0.8906 0.8867 0.8799 0.8731
905.000000 0.8664 0.8596 0.8528 0.8514 0.8514
910.000000 0.8531 0.8661 0.8790 0.8919 0.9015
915.000000 0.9040 0.9049 0.9056 0.9051 0.9059
920.000000 0.9053 0.9045 0.9032 0.9013 0.8986
925.000000 0.8957 0.8930 0.8903 0.8876 0.8848
930.000000 0.8819 0.8790 0.8760 0.8716 0.8665
935.000000 0.8606 0.8543 0.8450 0.8344 0.8178
940.000000 0.8012 0.7847 0.7681 0.7595 0.7602
945.000000 0.7595 0.7694 0.7810 0.7926 0.8042
950.000000 0.8158 0.8267 0.8262 0.8253 0.7700
955.000000 0.7342 0.6983 0.6625 0.6266 0.5907
960.000000 0.5699 0.5695 0.5760 0.6238 0.6716
965.000000 0.7194 0.7671 0.8149 0.8576 0.8574
970.000000 0.8573 0.8580 0.8555 0.8525 0.8490
975.000000 0.8397 0.8185 0.7967 0.7748 0.7530
980.000000 0.7312 0.7117 0.7118 0.7121 0.7156
985.000000 0.7444 0.7731 0.8018 0.8305 0.8592
990.000000 0.8879 0.9025 0.9052 0.9074 0.9077
995.000000 0.9080 0.9101 0.9080 0.9077 0.9074
1000.000000 0.9072 0.9065 0.9058 0.9050 0.9039
1005.000000 0.9022 0.9005 0.8987 0.8969 0.8943
1010.000000 0.8917 0.8890 0.8864 0.8838 0.8799
1015.000000 0.8759 0.8719 0.8672 0.8602 0.8533
1020.000000 0.8263 0.7906 0.7548 0.7240 0.7232
1025.000000 0.7230 0.7234 0.7281 0.7441 0.7601
1030.000000 0.7761 0.7921 0.8081 0.8241 0.8401
1035.000000 0.8561 0.8685 0.8707 0.8685 0.8684
1040.000000 0.8682 0.8680 0.8675 0.8652 0.8625
1045.000000 0.8575 0.8524 0.8473 0.8336 0.8187
1050.000000 0.8038 0.7889 0.7740 0.7729 0.7733
1055.000000 0.7751 0.7815 0.7880 0.7944 0.8001
1060.000000 0.8004 0.7933 0.7808 0.7708 0.7708
1065.000000 0.7771 0.7860 0.7949 0.8037 0.8093
1070.000000 0.8090 0.8002 0.7896 0.7789 0.7600
1075.000000 0.7604 0.7606 0.7608 0.7784 0.7963
1080.000000 0.8141 0.8320 0.8498 0.8667 0.8682
1085.000000 0.8693 0.8698 0.8703 0.8707 0.8708
1090.000000 0.8708 0.8708 0.8709 0.8706 0.8728
1095.000000 0.8698 0.8695 0.8691 0.8687 0.8672
1100.000000 0.8656 0.8641 0.8632 0.8624 0.8617
1105.000000 0.8623 0.8630 0.8635 0.8637 0.8638
1110.000000 0.8639 0.8640 0.8623 0.8583 0.8512
1115.000000 0.8463 0.8409 0.8349 0.8289 0.8254
1120.000000 0.8223 0.8191 0.8159 0.8082 0.7959
1125.000000 0.7835 0.7712 0.7588 0.7465 0.7341
1130.000000 0.7218 0.7094 0.6971 0.6847 0.6729
1135.000000 0.6650 0.6563 0.6533 0.6508 0.6531
1140.000000 0.6533 0.6554 0.6611 0.6668 0.6724
1145.000000 0.6781 0.6837 0.6894 0.6950 0.7007
1150.000000 0.7064 0.7120 0.7177 0.7233 0.7290
1155.000000 0.7346 0.7403 0.7460 0.7516 0.7573
1160.000000 0.7659 0.7640 0.7638 0.7622 0.7595
1165.000000 0.7567 0.7540 0.7513 0.7486 0.7458
1170.000000 0.7431 0.7404 0.7377 0.7349 0.7322
1175.000000 0.7295 0.7267 0.7237 0.7207 0.7178
1180.000000 0.7149 0.7120 0.7090 0.7055 0.7020
1185.000000 0.6949 0.6800 0.6504 0.6251 0.6112
1190.000000 0.5984 0.5855 0.5727 0.5599 0.5585
1195.000000 0.5589 0.5589 0.5704 0.5835 0.5965
1200.000000 0.6096 0.6227 0.6357 0.6413 0.6463
1205.000000 0.6535 0.6609 0.6641 0.6674 0.6706
1210.000000 0.6718 0.6726 0.6742 0.6737 0.6734
1215.000000 0.6729 0.6715 0.6700 0.6513 0.6289
1220.000000 0.6065 0.5842 0.5618 0.5394 0.5171
1225.000000 0.4947 0.4844 0.4816 0.4858 0.4999
1230.000000 0.5153 0.5306 0.5460 0.5614 0.5768
1235.000000 0.5922 0.6048 0.6213 0.6266 0.6358
1240.000000 0.6871 0.7081 0.7290 0.7500 0.7709
1245.000000 0.7918 0.8122 0.8214 0.8284 0.8311
1250.000000 0.8338 0.8350 0.8358 0.8366 0.8374
1255.000000 0.8381 0.8389 0.8397 0.8407 0.8428
1260.000000 0.8449 0.8485 0.8522 0.8554 0.8584
1265.000000 0.8592 0.8607 0.8593 0.8584 0.8576
1270.000000 0.8563 0.8541 0.8519 0.8494 0.8470
1275.000000 0.8445 0.8423 0.8401 0.8378 0.8342
1280.000000 0.8306 0.8248 0.8200 0.8170 0.8141
1285.000000 0.8111 0.8089 0.8069 0.8049 0.8033
1290.000000 0.8019 0.8006 0.7993 0.7967 0.7937
1295.000000 0.7908 0.7850 0.7792 0.7733 0.7696
1300.000000 0.7658 0.7621 0.7583 0.7559 0.7535
1305.000000 0.7512 0.7492 0.7473 0.7457 0.7443
1310.000000 0.7390 0.7303 0.7215 0.7127 0.7040
1315.000000 0.7014 0.7032 0.7042 0.7315 0.7450
1320.000000 0.7449 0.7447 0.7415 0.7374 0.7333
1325.000000 0.7292 0.7251 0.7247 0.7248 0.7357
1330.000000 0.7532 0.7563 0.7562 0.7569 0.7548
1335.000000 0.7541 0.7528 0.7464 0.7004 0.6905
1340.000000 0.6693 0.6441 0.6188 0.5936 0.5684
1345.000000 0.5432 0.5180 0.4928 0.4676 0.4424
1350.000000 0.4160 0.4160 0.4165 0.4316 0.4752
1355.000000 0.5188 0.5625 0.6061 0.6497 0.6669
1360.000000 0.6691 0.6713 0.6724 0.6723 0.6740
1365.000000 0.6718 0.6710 0.6689 0.6584 0.6480
1370.000000 0.6376 0.6272 0.6168 0.6063 0.5959
1375.000000 0.5855 0.5794 0.5792 0.5934 0.5765
1380.000000 0.6462 0.6726 0.6990 0.7253 0.7517
1385.000000 0.7781 0.8045 0.8309 0.8548 0.8551
1390.000000 0.8553 0.8570 0.8552 0.8547 0.8537
1395.000000 0.8511 0.8437 0.8362 0.8287 0.8212
1400.000000 0.8138 0.8063 0.7988 0.7914 0.7850
1405.000000 0.7786 0.7724 0.7665 0.7607 0.7549
1410.000000 0.7375 0.7229 0.7082 0.6936 0.6789
1415.000000 0.6643 0.6497 0.6378 0.6381 0.6518
1420.000000 0.6654 0.6790 0.6926 0.7055 0.7053
1425.000000 0.6984 0.6531 0.6077 0.5848 0.5830
1430.000000 0.5975 0.6237 0.6499 0.6761 0.7023
1435.000000 0.7285 0.7400 0.7382 0.7379 0.7372
1440.000000 0.7342 0.7285 0.7207 0.6916 0.6390
1445.000000 0.5864 0.5337 0.4693 0.4719 0.4915
1450.000000 0.5209 0.5503 0.5797 0.6091 0.6386
1455.000000 0.6680 0.6974 0.7268 0.7562 0.7856
1460.000000 0.8150 0.8314 0.8296 0.8292 0.8289
1465.000000 0.8271 0.8246 0.8217 0.8185 0.8152
1470.000000 0.8115 0.8078 0.8040 0.7985 0.7941
1475.000000 0.7927 0.7921 0.7915 0.7909 0.7904
1480.000000 0.7892 0.7874 0.7807 0.7741 0.7675
1485.000000 0.7599 0.7516 0.7226 0.6992 0.6869
1490.000000 0.5802 0.5357 0.5349 0.5342 0.5357
1495.000000 0.5382 0.5343 0.5233 0.5124 0.5014
1500.000000 0.4976 0.4963 0.4935 0.4972 0.5041
1505.000000 0.5326 0.5611 0.5896 0.6182 0.6467
1510.000000 0.6752 0.7037 0.7323 0.7564 0.7595
1515.000000 0.7600 0.7602 0.7596 0.7590 0.7580
1520.000000 0.7550 0.7513 0.7447 0.7366 0.7206
1525.000000 0.6928 0.6650 0.6372 0.6093 0.5815
1530.000000 0.5537 0.5259 0.4981 0.4703 0.4425
1535.000000 0.4146 0.3868 0.3590 0.3312 0.3034
1540.000000 0.2756 0.2478 0.2200 0.2194 0.2204
1545.000000 0.2648 0.3093 0.3537 0.3982 0.4426
1550.000000 0.4871 0.5315 0.5760 0.6204 0.6649
1555.000000 0.7093 0.7538 0.7725 0.7721 0.7722
1560.000000 0.7498 0.7261 0.7023 0.6786 0.6549
1565.000000 0.6312 0.6075 0.5838 0.5601 0.5364
1570.000000 0.5126 0.4889 0.4678 0.4677 0.4644
1575.000000 0.4932 0.5260 0.5588 0.5916 0.6244
1580.000000 0.6417 0.6450 0.6506 0.6648 0.6919
1585.000000 0.7191 0.7463 0.7734 0.8006 0.8221
1590.000000 0.8202 0.8202 0.8197 0.8167 0.8107
1595.000000 0.8048 0.7988 0.7928 0.7868 0.7809
1600.000000 0.7749 0.7589 0.7629 0.7619 0.7687
1605.000000 0.7917 0.8147 0.8192 0.8197 0.8184
1610.000000 0.8170 0.8135 0.8085 0.8034 0.7976
1615.000000 0.7935 0.7898 0.7864 0.7830 0.7796
1620.000000 0.7769 0.7743 0.7717 0.7699 0.7682
1625.000000 0.7665 0.7643 0.7619 0.7583 0.7543
1630.000000 0.7501 0.7455 0.7408 0.7365 0.7326
1635.000000 0.7287 0.7245 0.7191 0.7137 0.7082
1640.000000 0.7028 0.6977 0.6928 0.6878 0.6829
1645.000000 0.6766 0.6688 0.6609 0.6515 0.6401
1650.000000 0.6287 0.6132 0.5960 0.5837 0.5708
1655.000000 0.5545 0.5406 0.5280 0.5162 0.5047
1660.000000 0.4931 0.4813 0.4650 0.4373 0.3992
1665.000000 0.3611 0.3231 0.2850 0.2469 0.2150
1670.000000 0.2027 0.1962 0.1897 0.1832 0.1757
1675.000000 0.1675 0.1625 0.1587 0.1577 0.1548
1680.000000 0.1570 0.1575 0.1583 0.1592 0.1615
1685.000000 0.1642 0.1697 0.1787 0.1891 0.2004
1690.000000 0.2096 0.2188 0.2263 0.2328 0.2393
1695.000000 0.2456 0.2519 0.2580 0.2636 0.2661
1700.000000 0.2683 0.2696 0.2733 0.2699 0.2697
1705.000000 0.2691 0.2676 0.2647 0.2564 0.2480
1710.000000 0.2396 0.2312 0.2228 0.2207 0.2199
1715.000000 0.2220 0.2521 0.2932 0.3344 0.3755
1720.000000 0.4167 0.4578 0.4990 0.5401 0.5866
1725.000000 0.5979 0.6095 0.6211 0.6412 0.6624
1730.000000 0.6829 0.6992 0.7139 0.7291 0.7446
1735.000000 0.7820 0.7973 0.8048 0.8124 0.8199
1740.000000 0.8274 0.8351 0.8431 0.8511 0.8591
1745.000000 0.8671 0.8738 0.8802 0.8866 0.8930
1750.000000 0.8990 0.9050 0.9110 0.9174 0.9240
1755.000000 0.9283 0.9326 0.9354 0.9375 0.9395
1760.000000 0.9421 0.9442 0.9458 0.9474 0.9506
1765.000000 0.9521 0.9528 0.9534 0.9540 0.9546
1770.000000 0.9551 0.9557 0.9563 0.9578 0.9593
1775.000000 0.9608 0.9623 0.9637 0.9646 0.9655
1780.000000 0.9664 0.9681 0.9661 0.9658 0.9655
1785.000000 0.9652 0.9649 0.9639 0.9627 0.9614
1790.000000 0.9602 0.9586 0.9570 0.9553 0.9536
1795.000000 0.9524 0.9516 0.9508 0.9512 0.9518
1800.000000 0.9524 0.9539 0.9555 0.9573 0.9598
1805.000000 0.9617 0.9625 0.9634 0.9642 0.9651
1810.000000 0.9660 0.9669 0.9678 0.9680 0.9681
1815.000000 0.9683 0.9684 0.9686 0.9687 0.9689
1820.000000 0.9690 0.9691 0.9690 0.9690 0.9690
1825.000000 0.9689 0.9689 0.9689 0.9688 0.9686
1830.000000 0.9684 0.9682 0.9679 0.9675 0.9668
1835.000000 0.9661 0.9654 0.9646 0.9628 0.9606
1840.000000 0.9584 0.9563 0.9542 0.9522 0.9502
1845.000000 0.9497 0.9498 0.9504 0.9510 0.9516
1850.000000 0.9526 0.9536 0.9542 0.9545 0.9547
1855.000000 0.9549 0.9548 0.9547 0.9546 0.9545
1860.000000 0.9544 0.9543 0.9541 0.9539 0.9537
1865.000000 0.9535 0.9533 0.9532 0.9530 0.9528
1870.000000 0.9525 0.9522 0.9519 0.9506 0.9488
1875.000000 0.9469 0.9446 0.9422 0.9398 0.9377
1880.000000 0.9358 0.9339 0.9329 0.9327 0.9324
1885.000000 0.9330 0.9337 0.9344 0.9353 0.9367
1890.000000 0.9382 0.9396 0.9411 0.9428 0.9447
1895.000000 0.9465 0.9484 0.9503 0.9520 0.9531
1900.000000 0.9543 0.9554 0.9561 0.9561 0.9562
1905.000000 0.9563 0.9564 0.9564 0.9565 0.9563
1910.000000 0.9559 0.9556 0.9552 0.9549 0.9545
1915.000000 0.9541 0.9538 0.9531 0.9523 0.9514
1920.000000 0.9505 0.9497 0.9488 0.9479 0.9471
1925.000000 0.9453 0.9433 0.9414 0.9394 0.9375
1930.000000 0.9355 0.9334 0.9303 0.9273 0.9242
1935.000000 0.9225 0.9217 0.9217 0.9221 0.9232
1940.000000 0.9256 0.9279 0.9306 0.9337 0.9369
1945.000000 0.9393 0.9416 0.9439 0.9445 0.9451
1950.000000 0.9455 0.9457 0.9459 0.9459 0.9458
1955.000000 0.9458 0.9458 0.9457 0.9457 0.9457
1960.000000 0.9457 0.9457 0.9460 0.9463 0.9465
1965.000000 0.9467 0.9469 0.9471 0.9472 0.9476
1970.000000 0.9481 0.9485 0.9490 0.9494 0.9499
1975.000000 0.9504 0.9509 0.9514 0.9519 0.9525
1980.000000 0.9526 0.9525 0.9523 0.9521 0.9519
1985.000000 0.9517 0.9515 0.9513 0.9511 0.9509
1990.000000 0.9507 0.9505 0.9503 0.9502 0.9500
1995.000000 0.9495 0.9489 0.9484 0.9479 0.9474
2000.000000 0.9473 0.9471 0.9470 0.9469 0.9467
2005.000000 0.9466 0.9465 0.9463 0.9462 0.9461
2010.000000 0.9459 0.9457 0.9455 0.9453 0.9451
2015.000000 0.9449 0.9447 0.9445 0.9443 0.9441
2020.000000 0.9439 0.9437 0.9435 0.9433 0.9431
2025.000000 0.9429 0.9428 0.9427 0.9426 0.9426
2030.000000 0.9425 0.9424 0.9423 0.9422 0.9421
2035.000000 0.9421 0.9420 0.9419 0.9418 0.9417
2040.000000 0.9417 0.9416 0.9415 0.9414 0.9413
2045.000000 0.9412 0.9411 0.9409 0.9408 0.9406
2050.000000 0.9405 0.9404 0.9402 0.9401 0.9399
2055.000000 0.9398 0.9397 0.9395 0.9394 0.9392
2060.000000 0.9391 0.9389 0.9388 0.9387 0.9385
2065.000000 0.9384 0.9382 0.9381 0.9380 0.9379
2070.000000 0.9378 0.9378 0.9377 0.9376 0.9376
2075.000000 0.9375 0.9375 0.9374 0.9374 0.9373
2080.000000 0.9372 0.9372 0.9371 0.9371 0.9370
2085.000000 0.9369 0.9368 0.9368 0.9367 0.9366
2090.000000 0.9365 0.9364 0.9363 0.9362 0.9362
2095.000000 0.9361 0.9360 0.9359 0.9358 0.9357
2100.000000 0.9356 0.9356 0.9355 0.9353 0.9350
2105.000000 0.9347 0.9344 0.9340 0.9337 0.9334
2110.000000 0.9331 0.9328 0.9325 0.9322 0.9319
2115.000000 0.9317 0.9315 0.9312 0.9310 0.9308
2120.000000 0.9305 0.9303 0.9301 0.9298 0.9296
2125.000000 0.9294 0.9291 0.9290 0.9288 0.9287
2130.000000 0.9285 0.9284 0.9283 0.9282 0.9282
2135.000000 0.9282 0.9281 0.9281 0.9280 0.9280
2140.000000 0.9279 0.9279 0.9278 0.9278 0.9277
2145.000000 0.9277 0.9276 0.9276 0.9276 0.9275
2150.000000 0.9274 0.9273 0.9272 0.9270 0.9269
2155.000000 0.9268 0.9267 0.9265 0.9264 0.9263
2160.000000 0.9262 0.9260 0.9259 0.9258 0.9257
2165.000000 0.9255 0.9254 0.9253 0.9252 0.9250
2170.000000 0.9249 0.9248 0.9246 0.9245 0.9244
2175.000000 0.9242 0.9240 0.9238 0.9237 0.9235
2180.000000 0.9233 0.9231 0.9230 0.9228 0.9226
2185.000000 0.9224 0.9222 0.9221 0.9220 0.9219
2190.000000 0.9218 0.9217 0.9216 0.9215 0.9214
2195.000000 0.9213 0.9212 0.9211 0.9210 0.9209
2200.000000 0.9208 0.9208 0.9208 0.9208 0.9209
2205.000000 0.9209 0.9210 0.9210 0.9210 0.9211
2210.000000 0.9211 0.9212 0.9212 0.9212 0.9213
2215.000000 0.9213 0.9214 0.9215 0.9216 0.9217
2220.000000 0.9218 0.9219 0.9220 0.9222 0.9220
2225.000000 0.9215 0.9209 0.9204 0.9199 0.9193
2230.000000 0.9188 0.9183 0.9177 0.9171 0.9165
2235.000000 0.9158 0.9152 0.9145 0.9139 0.9132
2240.000000 0.9125 0.9119 0.9112 0.9110 0.9108
2245.000000 0.9106 0.9103 0.9101 0.9099 0.9097
2250.000000 0.9095 0.9095 0.9095 0.9095 0.9095
2255.000000 0.9095 0.9095 0.9096 0.9096 0.9096
2260.000000 0.9094 0.9093 0.9091 0.9089 0.9088
2265.000000 0.9086 0.9084 0.9082 0.9081 0.9079
2270.000000 0.9077 0.9075 0.9074 0.9072 0.9070
2275.000000 0.9068 0.9067 0.9066 0.9065 0.9064
2280.000000 0.9062 0.9061 0.9060 0.9059 0.9058
2285.000000 0.9057 0.9055 0.9054 0.9053 0.9052
2290.000000 0.9051 0.9049 0.9048 0.9047 0.9046
2295.000000 0.9045 0.9044 0.9042 0.9041 0.9038
2300.000000 0.9035 0.9032 0.9029 0.9026 0.9023
2305.000000 0.9021 0.9018 0.9015 0.9012 0.9009
2310.000000 0.9006 0.9003 0.9001 0.8998 0.8995
2315.000000 0.8992 0.8989 0.8986 0.8983 0.8980
2320.000000 0.8978 0.8977 0.8977 0.8976 0.8976
2325.000000 0.8976 0.8976 0.8975 0.8975 0.8975
2330.000000 0.8974 0.8974 0.8974 0.8974 0.8973
2335.000000 0.8973 0.8973 0.8973 0.8972 0.8973
2340.000000 0.8973 0.8973 0.8973 0.8973 0.8973
2345.000000 0.8974 0.8974 0.8974 0.8974 0.8974
2350.000000 0.8974 0.8974 0.8975 0.8975 0.8975
2355.000000 0.8975 0.8975 0.8975 0.8976 0.8976
2360.000000 0.8976 0.8977 0.8977 0.8978 0.8979
2365.000000 0.8979 0.8980 0.8980 0.8981 0.8982
2370.000000 0.8982 0.8983 0.8983 0.8984 0.8985
2375.000000 0.8985 0.8986 0.8986 0.8986 0.8985
2380.000000 0.8985 0.8985 0.8985 0.8985 0.8985
2385.000000 0.8984 0.8984 0.8984 0.8984 0.8984
2390.000000 0.8983 0.8983 0.8982 0.8982 0.8982
2395.000000 0.8981 0.8980 0.8979 0.8978 0.8977
2400.000000 0.8976 0.8975 0.8974 0.8973 0.8972
2405.000000 0.8971 0.8970 0.8969 0.8968 0.8967
2410.000000 0.8967 0.8966 0.8966 0.8965 0.8965
2415.000000 0.8964 0.8964 0.8963 0.8963 0.8962
2420.000000 0.8962 0.8961 0.8961 0.8960 0.8959
2425.000000 0.8957 0.8955 0.8952 0.8950 0.8947
2430.000000 0.8945 0.8943 0.8940 0.8938 0.8936
2435.000000 0.8933 0.8931 0.8928 0.8926 0.8924
2440.000000 0.8921 0.8919 0.8917 0.8914 0.8912
2445.000000 0.8910 0.8908 0.8905 0.8903 0.8901
2450.000000 0.8898 0.8896 0.8894 0.8891 0.8889
2455.000000 0.8887 0.8884 0.8882 0.8880 0.8877
2460.000000 0.8875 0.8873 0.8870 0.8868 0.8865
2465.000000 0.8863 0.8860 0.8858 0.8856 0.8853
2470.000000 0.8851 0.8848 0.8846 0.8843 0.8841
2475.000000 0.8838 0.8836 0.8834 0.8831 0.8829
2480.000000 0.8826 0.8824 0.8821 0.8819 0.8817
2485.000000 0.8816 0.8814 0.8812 0.8810 0.8808
2490.000000 0.8806 0.8804 0.8802 0.8800 0.8798
2495.000000 0.8796 0.8794 0.8792 0.8790 0.8788
2500.000000 0.8786 0.8785 0.8783 0.8782 0.8780
2505.000000 0.8779 0.8777 0.8776 0.8774 0.8772
2510.000000 0.8771 0.8769 0.8768 0.8766 0.8764
2515.000000 0.8762 0.8760 0.8758 0.8756 0.8754
2520.000000 0.8751 0.8749 0.8747 0.8745 0.8743
2525.000000 0.8741 0.8739 0.8737 0.8734 0.8733
2530.000000 0.8731 0.8730 0.8728 0.8726 0.8725
2535.000000 0.8723 0.8721 0.8720 0.8718 0.8717
2540.000000 0.8715 0.8713 0.8712 0.8710 0.8708
2545.000000 0.8707 0.8705 0.8704 0.8702 0.8700
2550.000000 0.8699 0.8697 0.8696 0.8696 0.8696
2555.000000 0.8695 0.8695 0.8694 0.8694 0.8694
2560.000000 0.8693 0.8693 0.8693 0.8692 0.8692
2565.000000 0.8691 0.8691 0.8691 0.8690 0.8690
2570.000000 0.8690 0.8689 0.8689 0.8689 0.8689
2575.000000 0.8689 0.8690 0.8690 0.8690 0.8691
2580.000000 0.8691 0.8691 0.8692 0.8692 0.8692
2585.000000 0.8693 0.8693 0.8693 0.8693 0.8694
2590.000000 0.8694 0.8694 0.8695 0.8695 0.8695
2595.000000 0.8696 0.8696 0.8695 0.8695 0.8694
2600.000000 0.8693 0.8693 0.8692 0.8691 0.8690
2605.000000 0.8690 0.8689 0.8688 0.8688 0.8687
2610.000000 0.8686 0.8686 0.8685 0.8684 0.8684
2615.000000 0.8683 0.8683 0.8682 0.8682 0.8681
2620.000000 0.8681 0.8680 0.8680 0.8679 0.8679
2625.000000 0.8678 0.8677 0.8675 0.8673 0.8671
2630.000000 0.8669 0.8667 0.8665 0.8663 0.8661
2635.000000 0.8659 0.8657 0.8655 0.8653 0.8651
2640.000000 0.8649 0.8647 0.8643 0.8640 0.8636
2645.000000 0.8633 0.8630 0.8626 0.8623 0.8619
2650.000000 0.8616 0.8612 0.8609 0.8605 0.8602
2655.000000 0.8599 0.8595 0.8592 0.8588 0.8585
2660.000000 0.8581 0.8578 0.8575 0.8571 0.8567
2665.000000 0.8563 0.8560 0.8556 0.8552 0.8549
2670.000000 0.8545 0.8541 0.8538 0.8534 0.8530
2675.000000 0.8527 0.8523 0.8519 0.8515 0.8511
2680.000000 0.8508 0.8504 0.8500 0.8496 0.8492
2685.000000 0.8488 0.8484 0.8480 0.8477 0.8473
2690.000000 0.8469 0.8465 0.8461 0.8457 0.8453
2695.000000 0.8449 0.8445 0.8442 0.8438 0.8434
2700.000000 0.8430 0.8426 0.8422 0.8417 0.8413
2705.000000 0.8408 0.8404 0.8400 0.8395 0.8391
2710.000000 0.8387 0.8382 0.8378 0.8373 0.8369
2715.000000 0.8365 0.8360 0.8362 0.8363 0.8364
2720.000000 0.8366 0.8367 0.8369 0.8372 0.8376
2725.000000 0.8380 0.8383 0.8387 0.8391 0.8394
2730.000000 0.8398 0.8402 0.8406 0.8409 0.8411
2735.000000 0.8413 0.8415 0.8417 0.8420 0.8422
2740.000000 0.8424 0.8426 0.8428 0.8430 0.8432
2745.000000 0.8433 0.8434 0.8435 0.8436 0.8436
2750.000000 0.8437 0.8432 0.8426 0.8421 0.8415
2755.000000 0.8409 0.8404 0.8398 0.8392 0.8386
2760.000000 0.8379 0.8372 0.8364 0.8357 0.8350
2765.000000 0.8344 0.8339 0.8334 0.8329 0.8325
2770.000000 0.8320 0.8318 0.8316 0.8314 0.8312
2775.000000 0.8310 0.8308 0.8306 0.8303 0.8298
2780.000000 0.8294 0.8290 0.8286 0.8281 0.8277
2785.000000 0.8273 0.8269 0.8265 0.8260 0.8255
2790.000000 0.8251 0.8246 0.8241 0.8236 0.8231
2795.000000 0.8227 0.8222 0.8217 0.8212 0.8208
2800.000000 0.8203 0.8197 0.8190 0.8183 0.8177
2805.000000 0.8170 0.8163 0.8156 0.8149 0.8142
2810.000000 0.8135 0.8128 0.8122 0.8115 0.8108
2815.000000 0.8101 0.8091 0.8075 0.8059 0.8043
2820.000000 0.8027 0.8011 0.7995 0.7979 0.7963
2825.000000 0.7947 0.7931 0.7904 0.7876 0.7847
2830.000000 0.7819 0.7789 0.7742 0.7695 0.7649
2835.000000 0.7602 0.7546 0.7489 0.7433 0.7376
2840.000000 0.7320 0.7266 0.7212 0.7158 0.7104
2845.000000 0.7050 0.6999 0.6948 0.6897 0.6846
2850.000000 0.6795 0.6742 0.6682 0.6621 0.6566
2855.000000 0.6532 0.6497 0.6463 0.6443 0.6431
2860.000000 0.6419 0.6375 0.6415 0.6420 0.6426
2865.000000 0.6435 0.6444 0.6460 0.6484 0.6514
2870.000000 0.6555 0.6597 0.6630 0.6661 0.6692
2875.000000 0.6727 0.6773 0.6819 0.6866 0.6916
2880.000000 0.6979 0.7021 0.7048 0.7055 0.7056
2885.000000 0.7062 0.7057 0.7053 0.7050 0.7046
2890.000000 0.7038 0.7026 0.7015 0.7003 0.6981
2895.000000 0.6959 0.6933 0.6895 0.6858 0.6783
2900.000000 0.6698 0.6579 0.6499 0.6438 0.6422
2905.000000 0.6416 0.6411 0.6406 0.6402 0.6395
2910.000000 0.6389 0.6383 0.6371 0.6354 0.6338
2915.000000 0.6310 0.6281 0.6250 0.6199 0.6148
2920.000000 0.6077 0.6008 0.5949 0.5888 0.5814
2925.000000 0.5741 0.5677 0.5613 0.5549 0.5493
2930.000000 0.5437 0.5384 0.5365 0.5357 0.5348
2935.000000 0.5340 0.5331 0.5323 0.5313 0.5298
2940.000000 0.5283 0.5252 0.5201 0.5146 0.5092
2945.000000 0.5031 0.4967 0.4909 0.4880 0.4857
2950.000000 0.4860 0.4863 0.4869 0.4846 0.4945
2955.000000 0.5057 0.5169 0.5281 0.5393 0.5505
2960.000000 0.5617 0.5703 0.5737 0.5747 0.5754
2965.000000 0.5824 0.5957 0.6091 0.6225 0.6359
2970.000000 0.6493 0.6626 0.6760 0.6894 0.6968
2975.000000 0.7020 0.7091 0.7174 0.7256 0.7319
2980.000000 0.7380 0.7441 0.7499 0.7553 0.7608
2985.000000 0.7662 0.7708 0.7734 0.7761 0.7787
2990.000000 0.7813 0.7833 0.7847 0.7860 0.7873
2995.000000 0.7887 0.7892 0.7892 0.7893 0.7894
3000.000000 0.7907 0.7892 0.7888 0.7884 0.7880
3005.000000 0.7875 0.7871 0.7867 0.7845 0.7821
3010.000000 0.7797 0.7769 0.7734 0.7698 0.7663
3015.000000 0.7610 0.7512 0.7429 0.7363 0.7297
3020.000000 0.7177 0.7082 0.7062 0.7046 0.7049
3025.000000 0.7053 0.7063 0.7073 0.7082 0.7090
3030.000000 0.7093 0.7093 0.7093 0.7089 0.7082
3035.000000 0.7076 0.7070 0.7061 0.7048 0.7035
3040.000000 0.7022 0.7007 0.6986 0.6964 0.6943
3045.000000 0.6921 0.6908 0.6904 0.6900 0.6854
3050.000000 0.6903 0.6910 0.6939 0.7007 0.7114
3055.000000 0.7230 0.7329 0.7428 0.7530 0.7637
3060.000000 0.7727 0.7800 0.7866 0.7886 0.7905
3065.000000 0.7920 0.7916 0.7912 0.7908 0.7900
3070.000000 0.7885 0.7871 0.7852 0.7832 0.7811
3075.000000 0.7798 0.7787 0.7775 0.7770 0.7775
3080.000000 0.7780 0.7792 0.7813 0.7837 0.7875
3085.000000 0.7913 0.7951 0.7994 0.8041 0.8056
3090.000000 0.8071 0.8085 0.8100 0.8111 0.8116
3095.000000 0.8120 0.8124 0.8122 0.8115 0.8108
3100.000000 0.8101 0.8089 0.8074 0.8060 0.8045
3105.000000 0.8007 0.7970 0.7945 0.7919 0.7918
3110.000000 0.7920 0.7928 0.7943 0.7977 0.8017
3115.000000 0.8070 0.8114 0.8157 0.8195 0.8225
3120.000000 0.8255 0.8286 0.8319 0.8354 0.8389
3125.000000 0.8423 0.8453 0.8483 0.8514 0.8535
3130.000000 0.8550 0.8564 0.8579 0.8592 0.8590
3135.000000 0.8588 0.8586 0.8584 0.8582 0.8570
3140.000000 0.8556 0.8542 0.8527 0.8517 0.8507
3145.000000 0.8498 0.8488 0.8479 0.8472 0.8470
3150.000000 0.8468 0.8467 0.8465 0.8463 0.8464
3155.000000 0.8466 0.8467 0.8468 0.8470 0.8471
3160.000000 0.8473 0.8474 0.8475 0.8476 0.8477
3165.000000 0.8478 0.8479 0.8480 0.8481 0.8482
3170.000000 0.8483 0.8484 0.8485 0.8484 0.8482
3175.000000 0.8481 0.8480 0.8478 0.8477 0.8476
3180.000000 0.8474 0.8473 0.8472 0.8470 0.8469
3185.000000 0.8467 0.8465 0.8463 0.8461 0.8458
3190.000000 0.8456 0.8454 0.8452 0.8449 0.8447
3195.000000 0.8445 0.8442 0.8440 0.8438 0.8436
3200.000000 0.8433 0.8431 0.8429 0.8426 0.8422
3205.000000 0.8419 0.8416 0.8413 0.8410 0.8406
3210.000000 0.8403 0.8400 0.8397 0.8394 0.8390
3215.000000 0.8387 0.8384 0.8381 0.8378 0.8374
3220.000000 0.8371 0.8368 0.8364 0.8360 0.8355
3225.000000 0.8351 0.8347 0.8342 0.8338 0.8334
3230.000000 0.8330 0.8325 0.8321 0.8316 0.8311
3235.000000 0.8306 0.8300 0.8295 0.8290 0.8285
3240.000000 0.8279 0.8275 0.8272 0.8269 0.8266
3245.000000 0.8263 0.8260 0.8257 0.8254 0.8252
3250.000000 0.8249 0.8246 0.8243 0.8240 0.8237
3255.000000 0.8234 0.8231 0.8228 0.8225 0.8222
3260.000000 0.8219 0.8216 0.8213 0.8210 0.8208
3265.000000 0.8208 0.8207 0.8207 0.8206 0.8205
3270.000000 0.8205 0.8204 0.8204 0.8203 0.8203
3275.000000 0.8202 0.8202 0.8201 0.8200 0.8200
3280.000000 0.8199 0.8199 0.8198 0.8198 0.8197
3285.000000 0.8197 0.8196 0.8195 0.8195 0.8194
3290.000000 0.8194 0.8193 0.8193 0.8192 0.8191
3295.000000 0.8191 0.8190 0.8188 0.8187 0.8186
3300.000000 0.8184 0.8183 0.8182 0.8181 0.8179
3305.000000 0.8178 0.8177 0.8175 0.8174 0.8173
3310.000000 0.8172 0.8170 0.8169 0.8168 0.8164
3315.000000 0.8160 0.8155 0.8150 0.8146 0.8141
3320.000000 0.8136 0.8132 0.8127 0.8123 0.8118
3325.000000 0.8113 0.8110 0.8108 0.8105 0.8103
3330.000000 0.8100 0.8098 0.8095 0.8093 0.8091
3335.000000 0.8090 0.8088 0.8086 0.8085 0.8078
3340.000000 0.8070 0.8062 0.8054 0.8046 0.8038
3345.000000 0.8031 0.8023 0.8016 0.8010 0.8004
3350.000000 0.7998 0.7992 0.7986 0.7980 0.7974
3355.000000 0.7968 0.7962 0.7956 0.7950 0.7944
3360.000000 0.7941 0.7938 0.7936 0.7933 0.7930
3365.000000 0.7927 0.7925 0.7922 0.7919 0.7916
3370.000000 0.7914 0.7911 0.7908 0.7905 0.7903
3375.000000 0.7900 0.7897 0.7894 0.7892 0.7889
3380.000000 0.7886 0.7883 0.7881 0.7879 0.7878
3385.000000 0.7877 0.7876 0.7875 0.7874 0.7873
3390.000000 0.7872 0.7870 0.7869 0.7868 0.7867
3395.000000 0.7866 0.7865 0.7864 0.7863 0.7862
3400.000000 0.7861 0.7860 0.7859 0.7858 0.7856
3405.000000 0.7855 0.7854 0.7853 0.7852 0.7851
3410.000000 0.7850 0.7849 0.7848 0.7847 0.7846
3415.000000 0.7845 0.7843 0.7842 0.7841 0.7840
3420.000000 0.7839 0.7838 0.7837 0.7836 0.7835
3425.000000 0.7834 0.7835 0.7835 0.7836 0.7837
3430.000000 0.7837 0.7838 0.7839 0.7839 0.7840
3435.000000 0.7840 0.7841 0.7842 0.7842 0.7843
3440.000000 0.7844 0.7844 0.7845 0.7846 0.7846
3445.000000 0.7847 0.7848 0.7848 0.7849 0.7850
3450.000000 0.7850 0.7851 0.7852 0.7852 0.7853
3455.000000 0.7853 0.7854 0.7856 0.7857 0.7858
3460.000000 0.7860 0.7861 0.7862 0.7864 0.7865
3465.000000 0.7867 0.7868 0.7869 0.7871 0.7872
3470.000000 0.7873 0.7875 0.7876 0.7877 0.7879
3475.000000 0.7880 0.7881 0.7883 0.7884 0.7885
3480.000000 0.7887 0.7888 0.7889 0.7891 0.7892
3485.000000 0.7893 0.7895 0.7896 0.7898 0.7901
3490.000000 0.7903 0.7905 0.7908 0.7910 0.7913
3495.000000 0.7915 0.7918 0.7920 0.7923 0.7925
3500.000000 0.7927 0.7930 0.7932 0.7935 0.7937
3505.000000 0.7940 0.7942 0.7945 0.7947 0.7949
3510.000000 0.7952 0.7954 0.7957 0.7959 0.7962
3515.000000 0.7964 0.7967 0.7969 0.7971 0.7974
3520.000000 0.7976 0.7979 0.7981 0.7984 0.7986
3525.000000 0.7989 0.7991 0.7993 0.7996 0.7998
3530.000000 0.8001 0.8003 0.8006 0.8008 0.8011
3535.000000 0.8014 0.8017 0.8020 0.8024 0.8027
3540.000000 0.8030 0.8033 0.8037 0.8040 0.8043
3545.000000 0.8046 0.8049 0.8053 0.8056 0.8059
3550.000000 0.8062 0.8066 0.8069 0.8072 0.8075
3555.000000 0.8078 0.8082 0.8085 0.8088 0.8091
3560.000000 0.8094 0.8098 0.8101 0.8103 0.8105
3565.000000 0.8106 0.8108 0.8110 0.8112 0.8114
3570.000000 0.8116 0.8118 0.8120 0.8121 0.8123
3575.000000 0.8125 0.8127 0.8129 0.8131 0.8133
3580.000000 0.8135 0.8136 0.8138 0.8140 0.8142
3585.000000 0.8144 0.8145 0.8147 0.8149 0.8150
3590.000000 0.8152 0.8154 0.8155 0.8157 0.8159
3595.000000 0.8160 0.8162 0.8164 0.8165 0.8167
3600.000000 0.8169 0.8170 0.8172 0.8174 0.8175
3605.000000 0.8177 0.8179 0.8180 0.8182 0.8184
3610.000000 0.8185 0.8187 0.8188 0.8188 0.8188
3615.000000 0.8188 0.8189 0.8189 0.8189 0.8189
3620.000000 0.8189 0.8189 0.8189 0.8190 0.8190
3625.000000 0.8190 0.8190 0.8190 0.8190 0.8191
3630.000000 0.8191 0.8191 0.8191 0.8191 0.8191
3635.000000 0.8192 0.8192 0.8192 0.8192 0.8192
3640.000000 0.8192 0.8192 0.8193 0.8193 0.8193
3645.000000 0.8193 0.8193 0.8193 0.8194 0.8194
3650.000000 0.8194 0.8194 0.8194 0.8194 0.8193
3655.000000 0.8193 0.8193 0.8192 0.8192 0.8191
3660.000000 0.8191 0.8191 0.8190 0.8190 0.8190
3665.000000 0.8189 0.8189 0.8188 0.8188 0.8188
3670.000000 0.8187 0.8187 0.8187 0.8186 0.8186
3675.000000 0.8185 0.8185 0.8185 0.8184 0.8184
3680.000000 0.8183 0.8184 0.8185 0.8185 0.8186
3685.000000 0.8186 0.8187 0.8187 0.8188 0.8188
3690.000000 0.8189 0.8190 0.8190 0.8191 0.8191
3695.000000 0.8192 0.8192 0.8193 0.8193 0.8194
3700.000000 0.8194 0.8194 0.8194 0.8195 0.8195
3705.000000 0.8195 0.8195 0.8195 0.8195 0.8196
3710.000000 0.8196 0.8196 0.8196 0.8196 0.8196
3715.000000 0.8197 0.8197 0.8197 0.8197 0.8197
3720.000000 0.8197 0.8197 0.8198 0.8198 0.8198
3725.000000 0.8198 0.8198 0.8198 0.8198 0.8198
3730.000000 0.8198 0.8197 0.8197 0.8197 0.8196
3735.000000 0.8196 0.8196 0.8195 0.8195 0.8195
3740.000000 0.8195 0.8194 0.8194 0.8194 0.8193
3745.000000 0.8193 0.8193 0.8192 0.8192 0.8192
3750.000000 0.8191 0.8191 0.8191 0.8191 0.8190
3755.000000 0.8190 0.8190 0.8189 0.8189 0.8189
3760.000000 0.8188 0.8187 0.8185 0.8184 0.8182
3765.000000 0.8181 0.8179 0.8178 0.8176 0.8175
3770.000000 0.8173 0.8172 0.8170 0.8169 0.8167
3775.000000 0.8166 0.8164 0.8163 0.8161 0.8160
3780.000000 0.8158 0.8157 0.8155 0.8154 0.8152
3785.000000 0.8151 0.8149 0.8148 0.8146 0.8145
3790.000000 0.8143 0.8142 0.8140 0.8139 0.8137
3795.000000 0.8136 0.8134 0.8133 0.8131 0.8130
3800.000000 0.8128 0.8127 0.8125 0.8124 0.8122
3805.000000 0.8121 0.8119 0.8118 0.8117 0.8115
3810.000000 0.8114 0.8113 0.8112 0.8111 0.8110
3815.000000 0.8109 0.8108 0.8107 0.8106 0.8104
3820.000000 0.8103 0.8102 0.8101 0.8100 0.8099
3825.000000 0.8098 0.8097 0.8096 0.8094 0.8093
3830.000000 0.8092 0.8091 0.8090 0.8089 0.8088
3835.000000 0.8087 0.8086 0.8085 0.8083 0.8082
3840.000000 0.8081 0.8080 0.8079 0.8078 0.8077
3845.000000 0.8076 0.8075 0.8074 0.8072 0.8071
3850.000000 0.8070 0.8070 0.8070 0.8069 0.8069
3855.000000 0.8068 0.8068 0.8068 0.8067 0.8067
3860.000000 0.8066 0.8066 0.8066 0.8065 0.8065
3865.000000 0.8064 0.8064 0.8064 0.8063 0.8063
3870.000000 0.8062 0.8062 0.8062 0.8061 0.8061
3875.000000 0.8060 0.8060 0.8060 0.8059 0.8059
3880.000000 0.8058 0.8058 0.8058 0.8057 0.8057
3885.000000 0.8056 0.8056 0.8056 0.8055 0.8055
3890.000000 0.8054 0.8054 0.8054 0.8054 0.8053
3895.000000 0.8053 0.8053 0.8053 0.8052 0.8052
3900.000000 0.8052 0.8052 0.8052 0.8051 0.8051
3905.000000 0.8051 0.8051 0.8050 0.8050 0.8050
3910.000000 0.8050 0.8049 0.8049 0.8049 0.8049
3915.000000 0.8048 0.8048 0.8048 0.8048 0.8047
3920.000000 0.8047 0.8047 0.8047 0.8046 0.8046
3925.000000 0.8046 0.8046 0.8046 0.8045 0.8045
3930.000000 0.8044 0.8044 0.8043 0.8043 0.8042
3935.000000 0.8042 0.8041 0.8041 0.8040 0.8040
3940.000000 0.8039 0.8038 0.8038 0.8037 0.8037
3945.000000 0.8036 0.8036 0.8035 0.8035 0.8034
3950.000000 0.8034 0.8033 0.8033 0.8032 0.8032
3955.000000 0.8031 0.8030 0.8030 0.8029 0.8029
3960.000000 0.8028 0.8028 0.8016 0.8026 0.8025
3965.000000 0.8025 0.8024 0.8023 0.8022 0.8021
3970.000000 0.8020 0.8020 0.8019 0.8018 0.8017
3975.000000 0.8016 0.8016 0.8015 0.8014 0.8013
3980.000000 0.8012 0.8011 0.8011 0.8010 0.8009
3985.000000 0.8008 0.8007 0.8006 0.8005 0.8005
3990.000000 0.8004 0.8003 0.8002 0.8001 0.8000
3995.000000 0.8000 0.7999 0.7998 0.7997 0.7996
4000.000000 0.7996
##END=
