##TITLE=5-NITRO-O-TOLUENE SULFONIC ACID
$$ E.K. (W.L.)
##JCAMP-DX=4.24
##DATA TYPE=INFRARED SPECTRUM
##CLASS=COBLENTZ
##ORIGIN=WYANDOTTE CHEMICALS CORP., WYANDOTTE, MICHIGAN, USA
##OWNER=COBLENTZ SOCIETY
Collection (C) 2018 copyright by the U.S. Secretary of Commerce
on behalf of the United States of America. All rights reserved.
##DATE=Not specified, most likely prior to 1970
##NAMES=2-methyl-4-nitrobenzenesulfonic acid
##MOLFORM=C7 H7 N O5 S
##MP=140-142 C
##SOURCE REFERENCE=COBLENTZ NO. 354
##$NIST ID=B6000354
##$NIST SOURCE=COBLENTZ
##$NIST IMAGE=cob354
##SPECTROMETER/DATA SYSTEM=Not specified, most likely a prism, grating, or hybrid spectrometer.
##STATE=SOLID (MULL)
##SAMPLING PROCEDURE=TRANSMISSION
##RESOLUTION=4
##DATA PROCESSING=DIGITIZED BY NIST FROM HARD COPY
##XUNITS=MICROMETERS
##YUNITS=TRANSMITTANCE
##XFACTOR=1.000000
##YFACTOR=1
##DELTAX=000.006645
##FIRSTX=2.037
##LASTX=16.0099
##FIRSTY=0.794
##MAXX=16.0099
##MINX=2.037
##MAXY=0.948
##MINY=0.016
##NPOINTS=2104
##XYDATA=(X++(Y..Y))
2.037000 0.7940 0.7960 0.7960 0.7960 0.7970
2.070238 0.7990 0.8030 0.8080 0.8110 0.8130
2.103000 0.8160 0.8180 0.8190 0.8190 0.8210
2.136238 0.8230 0.8280 0.8310 0.8330 0.8340
2.169000 0.8360 0.8390 0.8410 0.8430 0.8430
2.202238 0.8430 0.8410 0.8390 0.8390 0.8380
2.236000 0.8380 0.8360 0.8360 0.8340 0.8360
2.269238 0.8380 0.8380 0.8390 0.8390 0.8390
2.302000 0.8410 0.8410 0.8440 0.8480 0.8480
2.335238 0.8490 0.8490 0.8510 0.8530 0.8540
2.369000 0.8580 0.8640 0.8690 0.8730 0.8740
2.402238 0.8760 0.8780 0.8780 0.8780 0.8780
2.435000 0.8790 0.8810 0.8840 0.8890 0.8930
2.468238 0.8930 0.8960 0.8990 0.8990 0.8940
2.502000 0.8890 0.8880 0.8880 0.8890 0.8910
2.535238 0.8940 0.8980 0.9010 0.9030 0.9040
2.568000 0.9110 0.9160 0.9210 0.9290 0.9330
2.601238 0.9330 0.9110 0.9090 0.9090 0.9090
2.635000 0.9130 0.9210 0.9280 0.9330 0.9430
2.668238 0.9480 0.9480 0.9440 0.9430 0.9430
2.701000 0.9410 0.9410 0.9410 0.9360 0.9330
2.734238 0.9240 0.9180 0.9140 0.9080 0.9030
2.767000 0.8940 0.8810 0.8590 0.8460 0.8290
2.800238 0.8080 0.7840 0.7570 0.7290 0.7010
2.834000 0.6710 0.6560 0.6390 0.6090 0.5940
2.867238 0.5720 0.5520 0.5300 0.5200 0.5070
2.900000 0.4950 0.4820 0.4690 0.4550 0.4420
2.933238 0.4270 0.4120 0.3950 0.3830 0.3730
2.967000 0.3620 0.3520 0.3400 0.3350 0.3300
3.000238 0.3230 0.3130 0.3030 0.2950 0.2870
3.033000 0.2780 0.2680 0.2600 0.2530 0.2450
3.066238 0.2370 0.2280 0.2200 0.2120 0.2030
3.100000 0.1980 0.1950 0.1910 0.1860 0.1810
3.133238 0.1800 0.1800 0.1800 0.1800 0.1800
3.166000 0.1810 0.1810 0.1800 0.1800 0.1760
3.199238 0.1730 0.1650 0.1600 0.1530 0.1510
3.233000 0.1510 0.1510 0.1510 0.1510 0.1500
3.266238 0.1500 0.1480 0.1480 0.1460 0.1430
3.299000 0.1400 0.1330 0.1310 0.1280 0.1180
3.332238 0.1060 0.0930 0.0800 0.0650 0.0500
3.365000 0.0360 0.0250 0.0180 0.0160 0.0160
3.398238 0.0160 0.0200 0.0230 0.0230 0.0210
3.432000 0.0200 0.0200 0.0210 0.0260 0.0280
3.465238 0.0280 0.0300 0.0300 0.0300 0.0280
3.498000 0.0260 0.0260 0.0280 0.0430 0.0560
3.531238 0.0710 0.0900 0.1080 0.1280 0.1500
3.565000 0.1680 0.1860 0.2050 0.2180 0.2300
3.598238 0.2370 0.2470 0.2480 0.2520 0.2530
3.631000 0.2600 0.2630 0.2670 0.2700 0.2730
3.664238 0.2750 0.2770 0.2780 0.2820 0.2830
3.698000 0.2880 0.2920 0.2970 0.3030 0.3100
3.731238 0.3130 0.3180 0.3230 0.3280 0.3400
3.764000 0.3470 0.3520 0.3580 0.3650 0.3720
3.797238 0.3780 0.3850 0.3900 0.3950 0.3980
3.831000 0.4020 0.4050 0.4070 0.4120 0.4150
3.864238 0.4200 0.4240 0.4290 0.4320 0.4350
3.897000 0.4390 0.4420 0.4450 0.4490 0.4550
3.930238 0.4620 0.4700 0.4750 0.4820 0.4870
3.963000 0.4900 0.4900 0.4950 0.5000 0.5020
3.996238 0.5050 0.5070 0.5120 0.5150 0.5190
4.030000 0.5200 0.5240 0.5240 0.5270 0.5300
4.063238 0.5320 0.5320 0.5340 0.5370 0.5450
4.096000 0.5490 0.5520 0.5540 0.5550 0.5590
4.129238 0.5620 0.5650 0.5650 0.5650 0.5650
4.163000 0.5650 0.5650 0.5650 0.5650 0.5650
4.196238 0.5640 0.5640 0.5640 0.5640 0.5650
4.229000 0.5640 0.5640 0.5640 0.5620 0.5600
4.262238 0.5550 0.5500 0.5470 0.5450 0.5450
4.296000 0.5470 0.5490 0.5500 0.5540 0.5570
4.329238 0.5590 0.5600 0.5640 0.5650 0.5670
4.362000 0.5720 0.5770 0.5790 0.5820 0.5820
4.395238 0.5820 0.5800 0.5790 0.5770 0.5750
4.429000 0.5740 0.5720 0.5720 0.5700 0.5690
4.462238 0.5670 0.5650 0.5650 0.5640 0.5640
4.495000 0.5640 0.5640 0.5650 0.5670 0.5690
4.528238 0.5700 0.5720 0.5740 0.5750 0.5770
4.561000 0.5790 0.5800 0.5820 0.5840 0.5850
4.594238 0.5870 0.5890 0.5900 0.5920 0.5950
4.628000 0.5950 0.5990 0.6060 0.6140 0.6170
4.661238 0.6190 0.6210 0.6210 0.6240 0.6260
4.694000 0.6270 0.6290 0.6320 0.6360 0.6390
4.727238 0.6390 0.6420 0.6490 0.6520 0.6560
4.761000 0.6570 0.6570 0.6590 0.6590 0.6590
4.794238 0.6610 0.6610 0.6610 0.6610 0.6610
4.827000 0.6620 0.6610 0.6610 0.6610 0.6610
4.860238 0.6590 0.6590 0.6590 0.6590 0.6590
4.894000 0.6590 0.6610 0.6610 0.6610 0.6590
4.927238 0.6590 0.6590 0.6610 0.6620 0.6640
4.960000 0.6640 0.6660 0.6640 0.6640 0.6640
4.993238 0.6660 0.6640 0.6620 0.6620 0.6610
5.027000 0.6590 0.6560 0.6520 0.6490 0.6470
5.060238 0.6440 0.6440 0.6440 0.6440 0.6490
5.093000 0.6520 0.6520 0.6510 0.6490 0.6470
5.126238 0.6440 0.6420 0.6420 0.6440 0.6440
5.159000 0.6470 0.6510 0.6510 0.6420 0.6390
5.192238 0.6360 0.6320 0.6290 0.6240 0.6190
5.226000 0.6090 0.6060 0.6090 0.6090 0.6120
5.259238 0.6190 0.6190 0.6170 0.6160 0.6090
5.292000 0.6040 0.6040 0.6010 0.5990 0.5970
5.325238 0.5950 0.5940 0.5900 0.5840 0.5820
5.359000 0.5770 0.5690 0.5640 0.5600 0.5590
5.392238 0.5550 0.5570 0.5570 0.5570 0.5500
5.425000 0.5470 0.5440 0.5420 0.5370 0.5320
5.458238 0.5320 0.5290 0.5270 0.5250 0.5190
5.492000 0.5120 0.5090 0.5070 0.5070 0.5050
5.525238 0.5000 0.4920 0.4770 0.4650 0.4570
5.558000 0.4470 0.4400 0.4340 0.4340 0.4320
5.591238 0.4320 0.4340 0.4370 0.4420 0.4440
5.625000 0.4420 0.4390 0.4350 0.4270 0.4200
5.658238 0.4190 0.4150 0.4170 0.4170 0.4150
5.691000 0.4100 0.4070 0.4020 0.3980 0.3930
5.724238 0.3900 0.3870 0.3830 0.3770 0.3750
5.757000 0.3720 0.3670 0.3630 0.3620 0.3570
5.790238 0.3480 0.3400 0.3350 0.3330 0.3330
5.824000 0.3320 0.3300 0.3280 0.3230 0.3170
5.857238 0.3150 0.3120 0.3100 0.3080 0.3120
5.890000 0.3200 0.3200 0.3150 0.3030 0.2980
5.923238 0.2970 0.2980 0.2980 0.2970 0.2930
5.957000 0.2920 0.2930 0.2970 0.3020 0.3070
5.990238 0.3130 0.3170 0.3230 0.3320 0.3370
6.023000 0.3400 0.3470 0.3530 0.3630 0.3750
6.056238 0.3900 0.4070 0.4250 0.4290 0.4340
6.090000 0.4420 0.4520 0.4640 0.4670 0.4700
6.123238 0.4740 0.4770 0.4720 0.4700 0.4650
6.156000 0.4620 0.4540 0.4420 0.4190 0.3850
6.189238 0.3330 0.3150 0.2950 0.2880 0.2880
6.223000 0.3030 0.3070 0.3080 0.3000 0.2900
6.256238 0.2720 0.2700 0.2730 0.2900 0.3070
6.289000 0.3220 0.3500 0.3630 0.3770 0.3920
6.322238 0.4070 0.4150 0.4190 0.4200 0.4150
6.355000 0.4070 0.3980 0.3970 0.3970 0.3970
6.388238 0.4040 0.4020 0.3920 0.3800 0.3700
6.422000 0.3630 0.3580 0.3570 0.3550 0.3520
6.455238 0.3450 0.3370 0.3300 0.3220 0.3030
6.488000 0.2670 0.2400 0.2100 0.1850 0.1650
6.521238 0.1480 0.1350 0.1230 0.1150 0.1080
6.555000 0.1010 0.0930 0.0910 0.0910 0.0910
6.588238 0.0910 0.0950 0.1100 0.1210 0.1350
6.621000 0.1480 0.1600 0.1710 0.1800 0.1880
6.654238 0.1960 0.2030 0.2100 0.2150 0.2230
6.688000 0.2270 0.2400 0.2420 0.2450 0.2450
6.721238 0.2370 0.2200 0.2120 0.2020 0.1880
6.754000 0.1760 0.1630 0.1510 0.1400 0.1300
6.787238 0.1230 0.1110 0.1000 0.0960 0.0980
6.821000 0.1030 0.1060 0.1180 0.1280 0.1350
6.854238 0.1430 0.1500 0.1580 0.1650 0.1710
6.887000 0.1800 0.1910 0.2000 0.2120 0.2200
6.920238 0.2250 0.2280 0.2320 0.2370 0.2430
6.953000 0.2530 0.2680 0.2880 0.2950 0.3050
6.986238 0.3130 0.3320 0.3350 0.3330 0.3320
7.020000 0.3300 0.3230 0.3230 0.3300 0.3420
7.053238 0.3400 0.3400 0.3370 0.3350 0.3320
7.086000 0.3280 0.3250 0.3230 0.3170 0.3130
7.119238 0.3130 0.3130 0.3170 0.3220 0.3300
7.153000 0.3350 0.3370 0.3350 0.3320 0.3120
7.186238 0.3030 0.2900 0.2720 0.2500 0.2270
7.219000 0.2020 0.1800 0.1600 0.1430 0.1280
7.252238 0.1230 0.1230 0.1280 0.1300 0.1350
7.286000 0.1380 0.1380 0.1360 0.1280 0.1160
7.319238 0.1080 0.1010 0.0880 0.0810 0.0650
7.352000 0.0550 0.0460 0.0280 0.0250 0.0260
7.385238 0.0260 0.0260 0.0300 0.0380 0.0450
7.419000 0.0510 0.0580 0.0650 0.0710 0.0780
7.452238 0.0850 0.0930 0.1000 0.1080 0.1150
7.485000 0.1180 0.1200 0.1230 0.1250 0.1280
7.518238 0.1310 0.1350 0.1380 0.1430 0.1460
7.551000 0.1530 0.1580 0.1650 0.1700 0.1780
7.584238 0.1850 0.1900 0.1950 0.2000 0.2030
7.618000 0.2070 0.2070 0.2030 0.2000 0.1960
7.651238 0.1950 0.1850 0.1710 0.1660 0.1660
7.684000 0.1680 0.1750 0.1810 0.1860 0.1930
7.717238 0.2000 0.2080 0.2130 0.2200 0.2230
7.751000 0.2280 0.2300 0.2350 0.2380 0.2380
7.784238 0.2420 0.2450 0.2480 0.2530 0.2600
7.817000 0.2620 0.2630 0.2680 0.2680 0.2700
7.850238 0.2720 0.2750 0.2750 0.2720 0.2520
7.884000 0.2200 0.1680 0.1510 0.1510 0.1510
7.917238 0.1610 0.1810 0.2020 0.2200 0.2280
7.950000 0.2400 0.2470 0.2500 0.2580 0.2600
7.983238 0.2620 0.2620 0.2620 0.2600 0.2580
8.017000 0.2570 0.2550 0.2520 0.2480 0.2480
8.050238 0.2470 0.2450 0.2420 0.2400 0.2370
8.083000 0.2350 0.2300 0.2250 0.2180 0.2080
8.116238 0.2000 0.1910 0.1850 0.1760 0.1700
8.150000 0.1600 0.1510 0.1410 0.1380 0.1310
8.183238 0.1210 0.1130 0.1030 0.0930 0.0850
8.216000 0.0780 0.0730 0.0700 0.0680 0.0610
8.249238 0.0560 0.0550 0.0530 0.0530 0.0510
8.282000 0.0460 0.0410 0.0410 0.0430 0.0450
8.315238 0.0480 0.0510 0.0510 0.0510 0.0500
8.349000 0.0480 0.0480 0.0500 0.0530 0.0560
8.382238 0.0580 0.0600 0.0610 0.0630 0.0630
8.415000 0.0630 0.0650 0.0650 0.0660 0.0700
8.448238 0.0730 0.0760 0.0810 0.0830 0.0830
8.482000 0.0850 0.0880 0.0900 0.0930 0.0930
8.515238 0.0950 0.0950 0.0950 0.0950 0.0930
8.548000 0.0960 0.0960 0.1000 0.1010 0.1050
8.581238 0.1060 0.1060 0.1050 0.0980 0.0950
8.615000 0.0900 0.0850 0.0830 0.0800 0.0730
8.648238 0.0610 0.0510 0.0460 0.0410 0.0400
8.681000 0.0400 0.0410 0.0480 0.0510 0.0530
8.714238 0.0630 0.0710 0.0800 0.0850 0.0910
8.748000 0.0950 0.1000 0.1010 0.1050 0.1060
8.781238 0.1080 0.1080 0.1080 0.1050 0.1010
8.814000 0.1000 0.0980 0.1000 0.1010 0.1050
8.847238 0.1080 0.1150 0.1200 0.1210 0.1210
8.880000 0.1210 0.1230 0.1260 0.1260 0.1210
8.913238 0.1180 0.1210 0.1260 0.1300 0.1330
8.947000 0.1310 0.1300 0.1250 0.1180 0.1160
8.980238 0.1180 0.1200 0.1230 0.1260 0.1250
9.013000 0.1250 0.1210 0.1180 0.1110 0.1100
9.046238 0.1060 0.1030 0.1010 0.0980 0.0950
9.080000 0.0930 0.0910 0.0900 0.0900 0.0850
9.113238 0.0800 0.0750 0.0700 0.0660 0.0610
9.146000 0.0580 0.0530 0.0460 0.0430 0.0360
9.179238 0.0310 0.0300 0.0250 0.0230 0.0230
9.213000 0.0230 0.0250 0.0250 0.0260 0.0260
9.246238 0.0260 0.0260 0.0280 0.0300 0.0330
9.279000 0.0360 0.0400 0.0450 0.0480 0.0510
9.312238 0.0530 0.0550 0.0560 0.0580 0.0630
9.346000 0.0710 0.0750 0.0760 0.0780 0.0850
9.379238 0.0910 0.1000 0.1010 0.1030 0.1030
9.412000 0.1030 0.1050 0.1100 0.1150 0.1230
9.445238 0.1280 0.1300 0.1310 0.1330 0.1330
9.478000 0.1330 0.1310 0.1330 0.1350 0.1360
9.511238 0.1330 0.1310 0.1300 0.1260 0.1260
9.545000 0.1300 0.1410 0.1410 0.1360 0.1350
9.578238 0.1260 0.1230 0.1200 0.1160 0.1080
9.611000 0.0980 0.0880 0.0760 0.0660 0.0600
9.644238 0.0560 0.0560 0.0530 0.0510 0.0510
9.678000 0.0480 0.0450 0.0410 0.0360 0.0330
9.711238 0.0310 0.0280 0.0250 0.0210 0.0180
9.744000 0.0180 0.0160 0.0200 0.0250 0.0230
9.777238 0.0200 0.0180 0.0160 0.0180 0.0250
9.811000 0.0310 0.0330 0.0360 0.0380 0.0410
9.844238 0.0460 0.0500 0.0550 0.0580 0.0630
9.877000 0.0660 0.0700 0.0710 0.0780 0.0810
9.910238 0.0850 0.0880 0.0930 0.0980 0.1010
9.944000 0.1030 0.1050 0.1060 0.1080 0.1100
9.977238 0.1110 0.1110 0.1200 0.1210 0.1230
10.010000 0.1250 0.1280 0.1350 0.1430 0.1450
10.043238 0.1480 0.1510 0.1530 0.1550 0.1560
10.076000 0.1600 0.1630 0.1630 0.1660 0.1730
10.109238 0.1830 0.1880 0.1880 0.1900 0.1900
10.143000 0.1900 0.1900 0.1880 0.1860 0.1880
10.176238 0.1900 0.1930 0.1980 0.2020 0.2050
10.209000 0.2070 0.2070 0.2070 0.2070 0.2100
10.242238 0.2130 0.2170 0.2180 0.2220 0.2230
10.276000 0.2250 0.2270 0.2280 0.2280 0.2280
10.309238 0.2280 0.2280 0.2280 0.2280 0.2280
10.342000 0.2280 0.2300 0.2300 0.2320 0.2330
10.375238 0.2330 0.2370 0.2400 0.2420 0.2430
10.409000 0.2470 0.2520 0.2550 0.2570 0.2570
10.442238 0.2580 0.2600 0.2600 0.2630 0.2630
10.475000 0.2650 0.2650 0.2680 0.2700 0.2720
10.508238 0.2720 0.2730 0.2750 0.2780 0.2820
10.542000 0.2850 0.2900 0.2920 0.2970 0.2980
10.575238 0.2980 0.3000 0.3000 0.3000 0.3000
10.608000 0.3000 0.3000 0.3030 0.3020 0.3030
10.641238 0.3030 0.3050 0.3050 0.3070 0.3100
10.674000 0.3120 0.3120 0.3120 0.3120 0.3120
10.707238 0.3100 0.3120 0.3120 0.3150 0.3150
10.741000 0.3180 0.3180 0.3200 0.3230 0.3270
10.774238 0.3300 0.3370 0.3380 0.3380 0.3350
10.807000 0.3320 0.3320 0.3320 0.3380 0.3380
10.840238 0.3400 0.3400 0.3400 0.3380 0.3420
10.874000 0.3430 0.3450 0.3470 0.3530 0.3530
10.907238 0.3480 0.3480 0.3500 0.3520 0.3550
10.940000 0.3570 0.3570 0.3550 0.3520 0.3480
10.973238 0.3450 0.3450 0.3430 0.3420 0.3370
11.007000 0.3330 0.3300 0.3200 0.3070 0.2920
11.040238 0.2720 0.2480 0.2180 0.2120 0.2120
11.073000 0.2220 0.2450 0.2630 0.2870 0.3000
11.106238 0.3070 0.3180 0.3220 0.3220 0.3170
11.140000 0.3070 0.2980 0.2870 0.2780 0.2670
11.173238 0.2580 0.2520 0.2520 0.2570 0.2670
11.206000 0.2780 0.2870 0.2920 0.2980 0.3030
11.239238 0.3070 0.3130 0.3200 0.3270 0.3320
11.272000 0.3320 0.3350 0.3370 0.3420 0.3450
11.305238 0.3470 0.3480 0.3500 0.3500 0.3500
11.339000 0.3520 0.3530 0.3570 0.3620 0.3720
11.372238 0.3780 0.3830 0.3870 0.3900 0.3920
11.405000 0.3920 0.3920 0.3930 0.3930 0.3950
11.438238 0.3970 0.4000 0.4020 0.4040 0.4070
11.472000 0.4120 0.4140 0.4150 0.4170 0.4190
11.505238 0.4200 0.4220 0.4240 0.4250 0.4290
11.538000 0.4300 0.4340 0.4350 0.4390 0.4390
11.571238 0.4370 0.4390 0.4390 0.4420 0.4420
11.605000 0.4420 0.4420 0.4420 0.4450 0.4450
11.638238 0.4470 0.4540 0.4550 0.4550 0.4570
11.671000 0.4570 0.4570 0.4570 0.4570 0.4570
11.704238 0.4550 0.4540 0.4540 0.4550 0.4550
11.738000 0.4550 0.4570 0.4570 0.4590 0.4590
11.771238 0.4620 0.4640 0.4640 0.4640 0.4620
11.804000 0.4620 0.4620 0.4600 0.4590 0.4540
11.837238 0.4450 0.4370 0.4300 0.4200 0.4050
11.870000 0.3870 0.3650 0.3430 0.3320 0.3180
11.903238 0.2950 0.2700 0.2420 0.2080 0.1980
11.937000 0.2000 0.2000 0.2270 0.2480 0.2680
11.970238 0.2880 0.3070 0.3250 0.3600 0.3780
12.003000 0.3980 0.4170 0.4250 0.4320 0.4390
12.036238 0.4420 0.4470 0.4550 0.4600 0.4700
12.070000 0.4720 0.4740 0.4720 0.4740 0.4750
12.103238 0.4800 0.4850 0.4900 0.4920 0.4940
12.136000 0.4990 0.5020 0.5020 0.5040 0.5050
12.169238 0.5070 0.5070 0.5100 0.5120 0.5170
12.203000 0.5190 0.5200 0.5200 0.5140 0.5120
12.236238 0.5140 0.5150 0.5190 0.5200 0.5200
12.269000 0.5240 0.5290 0.5300 0.5320 0.5350
12.302238 0.5320 0.5320 0.5300 0.5320 0.5320
12.336000 0.5350 0.5370 0.5370 0.5370 0.5370
12.369238 0.5350 0.5340 0.5340 0.5350 0.5370
12.402000 0.5400 0.5450 0.5450 0.5450 0.5440
12.435238 0.5420 0.5400 0.5390 0.5320 0.5270
12.468000 0.5240 0.5150 0.5000 0.4740 0.4500
12.501238 0.4120 0.3800 0.3570 0.3450 0.3320
12.535000 0.3300 0.3320 0.3700 0.3830 0.4020
12.568238 0.4190 0.4420 0.4520 0.4650 0.4750
12.601000 0.4850 0.4940 0.4970 0.4990 0.5020
12.634238 0.5050 0.5120 0.5190 0.5200 0.5220
12.668000 0.5240 0.5250 0.5270 0.5320 0.5350
12.701238 0.5370 0.5390 0.5400 0.5440 0.5450
12.734000 0.5490 0.5520 0.5550 0.5570 0.5590
12.767238 0.5590 0.5590 0.5590 0.5590 0.5570
12.801000 0.5590 0.5590 0.5600 0.5600 0.5600
12.834238 0.5600 0.5600 0.5600 0.5600 0.5640
12.867000 0.5650 0.5670 0.5670 0.5690 0.5700
12.900238 0.5740 0.5750 0.5770 0.5790 0.5790
12.934000 0.5790 0.5770 0.5770 0.5770 0.5770
12.967238 0.5790 0.5770 0.5790 0.5790 0.5840
13.000000 0.5850 0.5850 0.5870 0.5870 0.5890
13.033238 0.5890 0.5900 0.5940 0.5950 0.5950
13.066000 0.5970 0.5970 0.5990 0.6010 0.6010
13.099238 0.6020 0.6040 0.6040 0.6060 0.6060
13.133000 0.6060 0.6070 0.6070 0.6070 0.6070
13.166238 0.6070 0.6060 0.6090 0.6110 0.6110
13.199000 0.6120 0.6110 0.6120 0.6120 0.6110
13.232238 0.6110 0.6110 0.6110 0.6110 0.6110
13.266000 0.6090 0.6070 0.6060 0.6060 0.6060
13.299238 0.6060 0.6060 0.6040 0.6020 0.6010
13.332000 0.5940 0.5900 0.5850 0.5800 0.5700
13.365238 0.5600 0.5470 0.5350 0.5240 0.5120
13.399000 0.5100 0.4720 0.4300 0.3870 0.3620
13.432238 0.3330 0.3170 0.2980 0.2670 0.2270
13.465000 0.2200 0.2080 0.2070 0.2100 0.2130
13.498238 0.2350 0.2580 0.2830 0.3080 0.3630
13.532000 0.3920 0.4190 0.4440 0.4540 0.4700
13.565238 0.4870 0.5040 0.5150 0.5270 0.5370
13.598000 0.5490 0.5590 0.5670 0.5750 0.5820
13.631238 0.5870 0.5950 0.6010 0.6040 0.6060
13.664000 0.6090 0.6110 0.6120 0.6170 0.6210
13.697238 0.6210 0.6110 0.6090 0.6060 0.6020
13.731000 0.6020 0.6010 0.5990 0.5940 0.5920
13.764238 0.5850 0.5790 0.5700 0.5600 0.5490
13.797000 0.5350 0.5200 0.5070 0.4920 0.4770
13.830238 0.4620 0.4440 0.4270 0.4200 0.4090
13.864000 0.3950 0.3930 0.3820 0.3820 0.3800
13.897238 0.3820 0.3870 0.3930 0.4020 0.4100
13.930000 0.4190 0.4270 0.4370 0.4490 0.4590
13.963238 0.4700 0.4820 0.4950 0.5070 0.5190
13.997000 0.5290 0.5400 0.5500 0.5600 0.5700
14.030238 0.5770 0.5840 0.5920 0.5970 0.6040
14.063000 0.6070 0.6120 0.6160 0.6210 0.6290
14.096238 0.6370 0.6410 0.6410 0.6390 0.6390
14.130000 0.6370 0.6390 0.6410 0.6460 0.6460
14.163238 0.6420 0.6410 0.6370 0.6290 0.6210
14.196000 0.6110 0.6020 0.5870 0.5700 0.5520
14.229238 0.5390 0.5320 0.5240 0.5170 0.5040
14.262000 0.4970 0.4950 0.4970 0.4990 0.5040
14.295238 0.5100 0.5200 0.5300 0.5440 0.5550
14.329000 0.5700 0.5850 0.6010 0.6160 0.6270
14.362238 0.6360 0.6410 0.6470 0.6510 0.6560
14.395000 0.6590 0.6660 0.6790 0.6810 0.6820
14.428238 0.6820 0.6790 0.6790 0.6790 0.6790
14.462000 0.6810 0.6920 0.6920 0.6890 0.6870
14.495238 0.6840 0.6820 0.6820 0.6820 0.6790
14.528000 0.6790 0.6770 0.6770 0.6760 0.6740
14.561238 0.6720 0.6710 0.6710 0.6710 0.6690
14.595000 0.6690 0.6690 0.6690 0.6670 0.6660
14.628238 0.6660 0.6640 0.6640 0.6640 0.6620
14.661000 0.6610 0.6620 0.6660 0.6660 0.6610
14.694238 0.6570 0.6520 0.6510 0.6490 0.6490
14.728000 0.6490 0.6470 0.6470 0.6440 0.6410
14.761238 0.6370 0.6360 0.6340 0.6320 0.6310
14.794000 0.6310 0.6290 0.6270 0.6260 0.6240
14.827238 0.6220 0.6210 0.6170 0.6120 0.6110
14.860000 0.6070 0.6070 0.6060 0.6070 0.6070
14.893238 0.6070 0.6090 0.6090 0.6090 0.6090
14.927000 0.6090 0.6070 0.6070 0.6060 0.6040
14.960238 0.6010 0.5990 0.5970 0.5920 0.5870
14.993000 0.5840 0.5770 0.5720 0.5690 0.5650
15.026238 0.5600 0.5550 0.5540 0.5520 0.5500
15.060000 0.5450 0.5420 0.5400 0.5400 0.5420
15.093238 0.5420 0.5450 0.5450 0.5470 0.5470
15.126000 0.5490 0.5500 0.5540 0.5540 0.5520
15.159238 0.5500 0.5470 0.5470 0.5490 0.5520
15.193000 0.5540 0.5550 0.5570 0.5550 0.5520
15.226238 0.5520 0.5500 0.5490 0.5490 0.5470
15.259000 0.5470 0.5470 0.5450 0.5440 0.5420
15.292238 0.5390 0.5390 0.5370 0.5370 0.5370
15.326000 0.5350 0.5340 0.5350 0.5390 0.5390
15.359238 0.5370 0.5370 0.5340 0.5300 0.5290
15.392000 0.5270 0.5270 0.5250 0.5270 0.5270
15.425238 0.5250 0.5240 0.5240 0.5200 0.5170
15.458000 0.5150 0.5150 0.5120 0.5070 0.5040
15.491238 0.5040 0.5020 0.4990 0.4970 0.4970
15.525000 0.4940 0.4920 0.4920 0.4890 0.4850
15.558238 0.4840 0.4800 0.4790 0.4790 0.4770
15.591000 0.4770 0.4700 0.4640 0.4620 0.4600
15.624238 0.4600 0.4600 0.4590 0.4540 0.4500
15.658000 0.4490 0.4450 0.4420 0.4370 0.4320
15.691238 0.4300 0.4290 0.4250 0.4190 0.4190
15.724000 0.4150 0.4150 0.4140 0.4140 0.4120
15.757238 0.4100 0.4100 0.4090 0.4070 0.4070
15.791000 0.4070 0.4070 0.4070 0.4070 0.4070
15.824238 0.4100 0.4140 0.4150 0.4190 0.4220
15.857000 0.4240 0.4240 0.4250 0.4240 0.4240
15.890238 0.4220 0.4220 0.4220 0.4220 0.4200
15.924000 0.4200 0.4190 0.4190 0.4190 0.4190
15.957238 0.4190 0.4190 0.4190 0.4190 0.4190
15.990000 0.4170 0.4170 0.4170 0.4170
##END=
