##TITLE=SODIUM SULFATE
$$ A.R.
##JCAMP-DX=4.24
##DATA TYPE=INFRARED SPECTRUM
##CLASS=COBLENTZ
##ORIGIN=MELLON INSTITUTE
##OWNER=COBLENTZ SOCIETY
Collection (C) 2018 copyright by the U.S. Secretary of Commerce
on behalf of the United States of America. All rights reserved.
##DATE=Not specified, most likely prior to 1970
##MOLFORM=Na2 S O4
##SOURCE REFERENCE=COBLENTZ NO. 542
##$NIST ID=B6000542
##$NIST SOURCE=COBLENTZ
##$NIST IMAGE=cob542
##SPECTROMETER/DATA SYSTEM=Not specified, most likely a prism, grating, or hybrid spectrometer.
##STATE=SOLID (NUJOL MULL)
##PATH LENGTH=
$$SPECTRAL CONTAMINATION DUE TO OIL AROUND 2900, 1450, 1380 CM^-^1
##SAMPLING PROCEDURE=TRANSMISSION
##RESOLUTION=4
##DATA PROCESSING=DIGITIZED BY NIST FROM HARD COPY
##XUNITS=MICROMETERS
##YUNITS=TRANSMITTANCE
##XFACTOR=1.000000
##YFACTOR=1
##DELTAX=000.006651
##FIRSTX=2.029
##LASTX=15.995
##FIRSTY=0.824
##MAXX=15.995
##MINX=2.029
##MAXY=0.983
##MINY=0.184
##NPOINTS=2101
##XYDATA=(X++(Y..Y))
2.029000 0.8240 0.8240 0.8240 0.8220 0.8220
2.062269 0.8240 0.8240 0.8220 0.8220 0.8200
2.096000 0.8200 0.8190 0.8190 0.8200 0.8220
2.129269 0.8220 0.8220 0.8250 0.8290 0.8300
2.162000 0.8300 0.8300 0.8290 0.8250 0.8250
2.195269 0.8250 0.8250 0.8250 0.8240 0.8250
2.229000 0.8250 0.8270 0.8270 0.8250 0.8240
2.262269 0.8240 0.8240 0.8240 0.8240 0.8240
2.295000 0.8250 0.8300 0.8320 0.8320 0.8320
2.328269 0.8300 0.8300 0.8300 0.8290 0.8270
2.362000 0.8270 0.8300 0.8300 0.8300 0.8300
2.395269 0.8320 0.8340 0.8320 0.8340 0.8320
2.428000 0.8320 0.8350 0.8350 0.8340 0.8300
2.461269 0.8300 0.8320 0.8340 0.8370 0.8370
2.495000 0.8350 0.8350 0.8350 0.8350 0.8390
2.528269 0.8400 0.8400 0.8420 0.8440 0.8450
2.561000 0.8450 0.8450 0.8440 0.8440 0.8440
2.594269 0.8440 0.8420 0.8370 0.8340 0.8340
2.628000 0.8370 0.8450 0.8490 0.8490 0.8520
2.661269 0.8520 0.8470 0.8440 0.8400 0.8350
2.694000 0.8350 0.8350 0.8350 0.8370 0.8370
2.727269 0.8370 0.8370 0.8350 0.8320 0.8320
2.761000 0.8320 0.8320 0.8320 0.8320 0.8300
2.794269 0.8300 0.8320 0.8320 0.8290 0.8240
2.827000 0.8240 0.8220 0.8200 0.8200 0.8220
2.860269 0.8220 0.8220 0.8220 0.8220 0.8220
2.894000 0.8220 0.8220 0.8220 0.8220 0.8200
2.927269 0.8200 0.8190 0.8200 0.8220 0.8220
2.960000 0.8220 0.8200 0.8200 0.8190 0.8170
2.993269 0.8200 0.8220 0.8250 0.8290 0.8290
3.027000 0.8300 0.8300 0.8250 0.8250 0.8300
3.060269 0.8320 0.8320 0.8300 0.8290 0.8290
3.093000 0.8300 0.8340 0.8390 0.8400 0.8400
3.126269 0.8420 0.8420 0.8420 0.8420 0.8440
3.160000 0.8450 0.8470 0.8450 0.8420 0.8420
3.193269 0.8420 0.8420 0.8420 0.8420 0.8420
3.226000 0.8400 0.8420 0.8440 0.8450 0.8470
3.259269 0.8490 0.8490 0.8490 0.8450 0.8400
3.293000 0.8300 0.8240 0.8190 0.8040 0.7850
3.326269 0.7430 0.7000 0.6410 0.6110 0.5810
3.359000 0.5610 0.5250 0.5150 0.5020 0.5020
3.392269 0.5190 0.5360 0.5990 0.6390 0.6490
3.426000 0.6700 0.6760 0.6760 0.6590 0.6490
3.459269 0.6460 0.6460 0.6490 0.6610 0.6930
3.492000 0.7430 0.7680 0.7930 0.8120 0.8240
3.525269 0.8270 0.8340 0.8370 0.8420 0.8470
3.559000 0.8500 0.8520 0.8540 0.8550 0.8570
3.592269 0.8590 0.8590 0.8590 0.8600 0.8600
3.625000 0.8600 0.8600 0.8600 0.8600 0.8600
3.658269 0.8620 0.8650 0.8640 0.8640 0.8620
3.692000 0.8600 0.8600 0.8600 0.8600 0.8620
3.725269 0.8640 0.8640 0.8640 0.8640 0.8620
3.758000 0.8600 0.8620 0.8690 0.8710 0.8710
3.791269 0.8710 0.8760 0.8760 0.8710 0.8690
3.825000 0.8600 0.8600 0.8640 0.8650 0.8650
3.858269 0.8670 0.8710 0.8740 0.8720 0.8710
3.891000 0.8710 0.8710 0.8720 0.8760 0.8770
3.924269 0.8790 0.8810 0.8810 0.8810 0.8810
3.958000 0.8770 0.8740 0.8720 0.8720 0.8720
3.991269 0.8720 0.8720 0.8740 0.8720 0.8710
4.024000 0.8710 0.8710 0.8710 0.8720 0.8740
4.057269 0.8740 0.8760 0.8760 0.8740 0.8740
4.091000 0.8720 0.8720 0.8720 0.8720 0.8720
4.124269 0.8720 0.8740 0.8770 0.8810 0.8820
4.157000 0.8820 0.8820 0.8840 0.8860 0.8860
4.190269 0.8870 0.8870 0.8910 0.8940 0.8960
4.224000 0.8960 0.8990 0.8990 0.8940 0.8910
4.257269 0.8820 0.8760 0.8760 0.8760 0.8760
4.290000 0.8740 0.8740 0.8740 0.8760 0.8760
4.323269 0.8720 0.8670 0.8650 0.8640 0.8590
4.357000 0.8570 0.8550 0.8540 0.8540 0.8550
4.390269 0.8570 0.8590 0.8590 0.8600 0.8600
4.423000 0.8620 0.8620 0.8640 0.8650 0.8690
4.456269 0.8720 0.8720 0.8720 0.8720 0.8720
4.490000 0.8720 0.8720 0.8720 0.8710 0.8720
4.523269 0.8740 0.8770 0.8770 0.8760 0.8740
4.556000 0.8720 0.8720 0.8720 0.8720 0.8720
4.589269 0.8720 0.8740 0.8740 0.8760 0.8760
4.623000 0.8760 0.8760 0.8770 0.8770 0.8770
4.656269 0.8820 0.8820 0.8790 0.8790 0.8810
4.689000 0.8810 0.8790 0.8770 0.8770 0.8760
4.722269 0.8810 0.8840 0.8860 0.8870 0.8870
4.756000 0.8860 0.8840 0.8820 0.8810 0.8790
4.789269 0.8790 0.8790 0.8770 0.8760 0.8760
4.822000 0.8760 0.8760 0.8760 0.8760 0.8760
4.855269 0.8760 0.8760 0.8760 0.8760 0.8770
4.889000 0.8790 0.8790 0.8810 0.8820 0.8820
4.922269 0.8820 0.8820 0.8790 0.8760 0.8760
4.955000 0.8760 0.8770 0.8810 0.8820 0.8840
4.988269 0.8860 0.8870 0.8890 0.8890 0.8890
5.022000 0.8910 0.8910 0.8870 0.8860 0.8890
5.055269 0.8890 0.8920 0.8920 0.8920 0.8940
5.088000 0.8940 0.8940 0.8940 0.8940 0.8960
5.121269 0.8960 0.8940 0.8890 0.8870 0.8870
5.155000 0.8910 0.8940 0.8990 0.8990 0.8990
5.188269 0.8990 0.8960 0.8990 0.8990 0.8990
5.221000 0.9010 0.9010 0.9020 0.9020 0.9010
5.254269 0.9010 0.9010 0.9010 0.9010 0.9010
5.288000 0.9010 0.8990 0.8990 0.8970 0.8960
5.321269 0.8970 0.8990 0.8990 0.9010 0.9010
5.354000 0.9010 0.9010 0.8990 0.9010 0.9010
5.387269 0.9010 0.8990 0.9010 0.8990 0.8990
5.421000 0.8920 0.8920 0.8970 0.8970 0.8990
5.454269 0.8990 0.8990 0.8990 0.8960 0.8960
5.487000 0.9010 0.9020 0.9020 0.9020 0.9020
5.520269 0.9020 0.9040 0.9040 0.9020 0.9020
5.554000 0.9010 0.9010 0.9020 0.9020 0.9040
5.587269 0.9060 0.9060 0.9060 0.9060 0.9110
5.620000 0.9120 0.9120 0.9120 0.9120 0.9110
5.653269 0.9060 0.9040 0.9040 0.9040 0.9020
5.687000 0.9020 0.9020 0.9020 0.9020 0.9020
5.720269 0.9010 0.9010 0.9010 0.9020 0.9020
5.753000 0.8990 0.8970 0.8990 0.9010 0.9010
5.786269 0.9020 0.9010 0.9010 0.8990 0.8990
5.820000 0.9060 0.9070 0.9090 0.9120 0.9160
5.853269 0.9170 0.9170 0.9190 0.9190 0.9190
5.886000 0.9170 0.9110 0.9110 0.9090 0.9020
5.919269 0.9010 0.9010 0.9020 0.9060 0.9070
5.953000 0.9110 0.9110 0.9070 0.9060 0.9060
5.986269 0.9040 0.9040 0.9040 0.9110 0.9120
6.019000 0.9120 0.9120 0.9140 0.9110 0.9060
6.052269 0.9060 0.9040 0.9010 0.9010 0.8990
6.086000 0.9010 0.9010 0.9020 0.9040 0.9040
6.119269 0.9020 0.9020 0.9020 0.9020 0.9020
6.152000 0.9020 0.9020 0.9060 0.9060 0.9110
6.185269 0.9120 0.9120 0.9120 0.9140 0.9140
6.219000 0.9140 0.9140 0.9120 0.9120 0.9110
6.252269 0.9070 0.9110 0.9110 0.9120 0.9140
6.285000 0.9140 0.9140 0.9140 0.9160 0.9160
6.318269 0.9140 0.9120 0.9140 0.9140 0.9140
6.352000 0.9140 0.9160 0.9160 0.9140 0.9140
6.385269 0.9140 0.9140 0.9160 0.9160 0.9160
6.418000 0.9160 0.9140 0.9120 0.9110 0.9110
6.451269 0.9110 0.9110 0.9120 0.9140 0.9160
6.485000 0.9160 0.9160 0.9120 0.9110 0.9060
6.518269 0.9060 0.9010 0.8970 0.8960 0.8970
6.551000 0.8990 0.9010 0.9020 0.9020 0.9060
6.584269 0.9060 0.9060 0.9090 0.9140 0.9140
6.618000 0.9140 0.9140 0.9140 0.9170 0.9170
6.651269 0.9140 0.9110 0.9060 0.9060 0.9120
6.684000 0.9120 0.9140 0.9140 0.9140 0.9120
6.717269 0.9120 0.9110 0.9070 0.9060 0.9060
6.751000 0.9040 0.9040 0.8990 0.8940 0.8860
6.784269 0.8740 0.8620 0.8550 0.8470 0.8300
6.817000 0.8270 0.8240 0.8220 0.8200 0.8200
6.850269 0.8150 0.8120 0.8120 0.8140 0.8220
6.884000 0.8270 0.8290 0.8320 0.8340 0.8370
6.917269 0.8450 0.8450 0.8540 0.8570 0.8620
6.950000 0.8640 0.8650 0.8720 0.8760 0.8760
6.983269 0.8820 0.8840 0.8910 0.8960 0.8960
7.017000 0.8960 0.8960 0.8960 0.8960 0.8940
7.050269 0.8940 0.8940 0.8940 0.8940 0.8940
7.083000 0.8960 0.8970 0.9010 0.9020 0.9040
7.116269 0.9060 0.9060 0.9060 0.9040 0.8990
7.150000 0.8990 0.8960 0.8970 0.8970 0.8970
7.183269 0.8940 0.8920 0.8910 0.8890 0.8890
7.216000 0.8890 0.8870 0.8840 0.8810 0.8770
7.249269 0.8760 0.8720 0.8740 0.8760 0.8760
7.283000 0.8770 0.8770 0.8760 0.8760 0.8770
7.316269 0.8820 0.8860 0.8920 0.8960 0.8970
7.349000 0.8970 0.8970 0.8970 0.8970 0.8990
7.382269 0.9010 0.9010 0.9040 0.9010 0.9010
7.416000 0.9020 0.9020 0.9020 0.9040 0.9020
7.449269 0.8960 0.8960 0.8970 0.8970 0.8970
7.482000 0.8990 0.9010 0.9020 0.9040 0.9070
7.515269 0.9070 0.9040 0.9020 0.9010 0.9010
7.549000 0.9010 0.8990 0.9010 0.9010 0.9010
7.582269 0.9020 0.9040 0.9090 0.9090 0.9060
7.615000 0.9060 0.9060 0.9040 0.8990 0.8940
7.648269 0.8920 0.8910 0.8910 0.8890 0.8910
7.682000 0.8910 0.8940 0.8960 0.8970 0.9010
7.715269 0.9020 0.9020 0.9020 0.9020 0.8990
7.748000 0.8940 0.8940 0.8940 0.8960 0.8970
7.781269 0.9010 0.8990 0.8990 0.8960 0.8910
7.815000 0.8870 0.8860 0.8860 0.8870 0.8860
7.848269 0.8860 0.8860 0.8870 0.8890 0.8890
7.881000 0.8890 0.8890 0.8910 0.8920 0.8920
7.914269 0.8920 0.8940 0.8960 0.8940 0.8940
7.948000 0.8940 0.8940 0.8960 0.8920 0.8910
7.981269 0.8890 0.8870 0.8860 0.8770 0.8740
8.015000 0.8710 0.8720 0.8770 0.8790 0.8790
8.048269 0.8790 0.8790 0.8790 0.8790 0.8770
8.081000 0.8650 0.8620 0.8620 0.8620 0.8640
8.114269 0.8640 0.8590 0.8540 0.8520 0.8520
8.148000 0.8520 0.8500 0.8470 0.8470 0.8450
8.181269 0.8450 0.8440 0.8500 0.8500 0.8440
8.214000 0.8420 0.8370 0.8290 0.8240 0.8220
8.247269 0.8200 0.8220 0.8250 0.8250 0.8240
8.281000 0.8240 0.8200 0.8120 0.8050 0.8040
8.314269 0.8000 0.7950 0.7920 0.7850 0.7820
8.347000 0.7780 0.7750 0.7670 0.7580 0.7480
8.380269 0.7420 0.7330 0.7260 0.7130 0.6950
8.414000 0.6860 0.6750 0.6580 0.6510 0.6360
8.447269 0.6260 0.6160 0.5960 0.5860 0.5720
8.480000 0.5560 0.5510 0.5440 0.5370 0.5250
8.513269 0.5200 0.5050 0.5000 0.4940 0.4800
8.547000 0.4750 0.4650 0.4570 0.4520 0.4450
8.580269 0.4370 0.4280 0.4250 0.4130 0.4050
8.613000 0.3960 0.3860 0.3830 0.3730 0.3680
8.646269 0.3580 0.3480 0.3450 0.3410 0.3400
8.680000 0.3360 0.3290 0.3160 0.3110 0.3040
8.713269 0.3010 0.2930 0.2890 0.2860 0.2830
8.746000 0.2790 0.2760 0.2740 0.2730 0.2690
8.779269 0.2620 0.2590 0.2560 0.2540 0.2520
8.813000 0.2490 0.2440 0.2340 0.2260 0.2240
8.846269 0.2220 0.2140 0.2120 0.2070 0.2060
8.879000 0.2060 0.2040 0.2040 0.2040 0.2010
8.912269 0.2010 0.1990 0.1950 0.1940 0.1920
8.946000 0.1900 0.1900 0.1900 0.1890 0.1890
8.979269 0.1870 0.1850 0.1840 0.1840 0.1840
9.012000 0.1840 0.1840 0.1890 0.1940 0.2010
9.045269 0.2040 0.2170 0.2260 0.2290 0.2370
9.079000 0.2520 0.2680 0.2860 0.3160 0.3360
9.112269 0.3510 0.3730 0.3850 0.4030 0.4230
9.145000 0.4620 0.4890 0.5240 0.5540 0.5660
9.178269 0.5820 0.5940 0.6160 0.6390 0.6460
9.212000 0.6540 0.6700 0.6780 0.6850 0.6930
9.245269 0.6980 0.7030 0.7060 0.7250 0.7400
9.278000 0.7470 0.7520 0.7550 0.7630 0.7700
9.311269 0.7750 0.7780 0.7800 0.7850 0.7920
9.345000 0.8020 0.8050 0.8050 0.8070 0.8070
9.378269 0.8140 0.8190 0.8190 0.8220 0.8220
9.411000 0.8240 0.8250 0.8300 0.8320 0.8340
9.444269 0.8420 0.8450 0.8470 0.8490 0.8500
9.478000 0.8520 0.8540 0.8550 0.8570 0.8590
9.511269 0.8620 0.8620 0.8620 0.8620 0.8620
9.544000 0.8620 0.8620 0.8620 0.8620 0.8620
9.577269 0.8650 0.8670 0.8720 0.8740 0.8770
9.611000 0.8790 0.8820 0.8860 0.8870 0.8890
9.644269 0.8920 0.8940 0.8960 0.8960 0.8960
9.677000 0.8920 0.8910 0.8890 0.8890 0.8910
9.710269 0.8910 0.8920 0.8960 0.8990 0.9010
9.744000 0.9010 0.9010 0.9020 0.9010 0.9020
9.777269 0.9020 0.9020 0.9020 0.9040 0.9020
9.810000 0.9040 0.9040 0.9060 0.9060 0.9060
9.843269 0.9060 0.9060 0.9060 0.9060 0.9070
9.877000 0.9070 0.9070 0.9090 0.9090 0.9110
9.910269 0.9120 0.9140 0.9140 0.9160 0.9160
9.943000 0.9160 0.9160 0.9120 0.9090 0.9070
9.976269 0.9060 0.9020 0.9020 0.9010 0.9010
10.010000 0.9010 0.9010 0.9010 0.9020 0.9040
10.043269 0.9040 0.9040 0.9040 0.9040 0.9020
10.076000 0.9020 0.9020 0.9010 0.9020 0.9020
10.109269 0.9060 0.9070 0.9070 0.9070 0.9060
10.143000 0.9070 0.9070 0.9070 0.9120 0.9120
10.176269 0.9140 0.9160 0.9190 0.9210 0.9210
10.209000 0.9210 0.9220 0.9220 0.9170 0.9170
10.242269 0.9170 0.9170 0.9170 0.9190 0.9210
10.276000 0.9210 0.9210 0.9210 0.9210 0.9190
10.309269 0.9160 0.9160 0.9190 0.9210 0.9190
10.342000 0.9170 0.9160 0.9160 0.9160 0.9140
10.375269 0.9160 0.9170 0.9170 0.9160 0.9140
10.409000 0.9120 0.9120 0.9120 0.9120 0.9160
10.442269 0.9160 0.9140 0.9140 0.9140 0.9140
10.475000 0.9120 0.9120 0.9160 0.9170 0.9220
10.508269 0.9240 0.9240 0.9260 0.9270 0.9270
10.542000 0.9270 0.9270 0.9270 0.9270 0.9270
10.575269 0.9260 0.9260 0.9260 0.9270 0.9290
10.608000 0.9290 0.9290 0.9290 0.9290 0.9310
10.641269 0.9340 0.9340 0.9340 0.9360 0.9380
10.675000 0.9390 0.9390 0.9410 0.9410 0.9430
10.708269 0.9430 0.9380 0.9290 0.9290 0.9320
10.741000 0.9340 0.9360 0.9380 0.9390 0.9390
10.774269 0.9390 0.9410 0.9410 0.9410 0.9430
10.808000 0.9390 0.9390 0.9390 0.9390 0.9390
10.841269 0.9360 0.9360 0.9410 0.9410 0.9410
10.874000 0.9410 0.9410 0.9410 0.9430 0.9390
10.907269 0.9410 0.9410 0.9390 0.9390 0.9390
10.941000 0.9390 0.9390 0.9440 0.9460 0.9440
10.974269 0.9440 0.9440 0.9440 0.9440 0.9440
11.007000 0.9440 0.9440 0.9440 0.9460 0.9480
11.040269 0.9480 0.9490 0.9510 0.9510 0.9510
11.074000 0.9530 0.9530 0.9530 0.9530 0.9530
11.107269 0.9510 0.9510 0.9510 0.9510 0.9510
11.140000 0.9530 0.9530 0.9540 0.9540 0.9540
11.173269 0.9560 0.9580 0.9580 0.9580 0.9580
11.207000 0.9580 0.9580 0.9560 0.9560 0.9560
11.240269 0.9560 0.9560 0.9580 0.9580 0.9580
11.273000 0.9580 0.9580 0.9560 0.9580 0.9580
11.306269 0.9580 0.9580 0.9580 0.9580 0.9560
11.340000 0.9580 0.9580 0.9580 0.9580 0.9580
11.373269 0.9580 0.9580 0.9580 0.9590 0.9590
11.406000 0.9580 0.9560 0.9580 0.9580 0.9580
11.439269 0.9590 0.9610 0.9630 0.9640 0.9660
11.473000 0.9680 0.9680 0.9660 0.9660 0.9640
11.506269 0.9640 0.9640 0.9640 0.9660 0.9660
11.539000 0.9660 0.9660 0.9660 0.9660 0.9660
11.572269 0.9640 0.9640 0.9640 0.9640 0.9640
11.606000 0.9660 0.9660 0.9660 0.9680 0.9680
11.639269 0.9660 0.9660 0.9660 0.9660 0.9660
11.672000 0.9660 0.9660 0.9690 0.9710 0.9710
11.705269 0.9730 0.9730 0.9730 0.9710 0.9710
11.739000 0.9710 0.9710 0.9710 0.9730 0.9710
11.772269 0.9710 0.9690 0.9690 0.9690 0.9690
11.805000 0.9730 0.9740 0.9730 0.9730 0.9710
11.838269 0.9680 0.9660 0.9640 0.9640 0.9640
11.872000 0.9660 0.9710 0.9740 0.9740 0.9760
11.905269 0.9760 0.9760 0.9760 0.9780 0.9780
11.938000 0.9760 0.9740 0.9740 0.9730 0.9730
11.971269 0.9730 0.9730 0.9730 0.9710 0.9730
12.005000 0.9740 0.9760 0.9760 0.9780 0.9780
12.038269 0.9760 0.9730 0.9730 0.9680 0.9680
12.071000 0.9730 0.9740 0.9760 0.9760 0.9760
12.104269 0.9760 0.9760 0.9760 0.9780 0.9780
12.138000 0.9730 0.9690 0.9690 0.9690 0.9690
12.171269 0.9690 0.9680 0.9690 0.9690 0.9730
12.204000 0.9760 0.9760 0.9760 0.9740 0.9730
12.237269 0.9710 0.9690 0.9690 0.9680 0.9680
12.271000 0.9680 0.9680 0.9710 0.9730 0.9730
12.304269 0.9710 0.9680 0.9660 0.9660 0.9660
12.337000 0.9680 0.9680 0.9680 0.9690 0.9710
12.370269 0.9730 0.9740 0.9740 0.9760 0.9760
12.404000 0.9760 0.9780 0.9780 0.9780 0.9780
12.437269 0.9780 0.9780 0.9760 0.9760 0.9780
12.470000 0.9780 0.9790 0.9790 0.9790 0.9810
12.503269 0.9810 0.9830 0.9830 0.9830 0.9830
12.537000 0.9830 0.9830 0.9810 0.9810 0.9790
12.570269 0.9810 0.9790 0.9790 0.9790 0.9780
12.603000 0.9760 0.9760 0.9740 0.9730 0.9690
12.636269 0.9680 0.9640 0.9580 0.9580 0.9580
12.670000 0.9560 0.9560 0.9560 0.9560 0.9560
12.703269 0.9560 0.9560 0.9560 0.9580 0.9590
12.736000 0.9630 0.9640 0.9640 0.9640 0.9640
12.769269 0.9640 0.9680 0.9680 0.9680 0.9680
12.803000 0.9680 0.9660 0.9640 0.9630 0.9630
12.836269 0.9640 0.9660 0.9660 0.9660 0.9660
12.869000 0.9610 0.9580 0.9580 0.9580 0.9580
12.902269 0.9560 0.9540 0.9530 0.9530 0.9530
12.936000 0.9530 0.9510 0.9490 0.9490 0.9510
12.969269 0.9510 0.9510 0.9530 0.9530 0.9530
13.002000 0.9530 0.9530 0.9530 0.9530 0.9540
13.035269 0.9560 0.9560 0.9560 0.9560 0.9560
13.069000 0.9540 0.9510 0.9510 0.9510 0.9510
13.102269 0.9510 0.9510 0.9510 0.9510 0.9530
13.135000 0.9510 0.9510 0.9490 0.9460 0.9440
13.168269 0.9440 0.9460 0.9440 0.9440 0.9430
13.202000 0.9430 0.9480 0.9480 0.9440 0.9430
13.235269 0.9380 0.9380 0.9360 0.9360 0.9340
13.268000 0.9320 0.9320 0.9340 0.9360 0.9380
13.301269 0.9390 0.9410 0.9410 0.9380 0.9360
13.335000 0.9360 0.9380 0.9380 0.9380 0.9380
13.368269 0.9390 0.9390 0.9390 0.9380 0.9340
13.401000 0.9320 0.9290 0.9270 0.9260 0.9260
13.434269 0.9260 0.9260 0.9220 0.9220 0.9220
13.468000 0.9220 0.9220 0.9240 0.9260 0.9260
13.501269 0.9260 0.9260 0.9260 0.9260 0.9260
13.534000 0.9240 0.9240 0.9220 0.9220 0.9240
13.567269 0.9240 0.9220 0.9170 0.9140 0.9120
13.601000 0.9110 0.9120 0.9120 0.9120 0.9120
13.634269 0.9120 0.9120 0.9120 0.9070 0.9070
13.667000 0.9060 0.9070 0.9070 0.9070 0.9060
13.700269 0.9060 0.9060 0.9060 0.9060 0.9040
13.734000 0.9040 0.9020 0.9010 0.9010 0.9020
13.767269 0.9020 0.9020 0.9020 0.9020 0.9020
13.800000 0.9020 0.8990 0.8970 0.8960 0.8960
13.833269 0.8960 0.8970 0.9010 0.9020 0.9020
13.867000 0.9020 0.9010 0.9010 0.8990 0.9010
13.900269 0.9010 0.8990 0.8990 0.8990 0.8990
13.933000 0.8970 0.8990 0.8970 0.8970 0.8970
13.966269 0.8960 0.8920 0.8910 0.8870 0.8870
14.000000 0.8870 0.8860 0.8820 0.8810 0.8810
14.033269 0.8810 0.8810 0.8820 0.8810 0.8810
14.067000 0.8790 0.8790 0.8790 0.8790 0.8790
14.100269 0.8770 0.8770 0.8740 0.8740 0.8760
14.133000 0.8760 0.8740 0.8740 0.8740 0.8720
14.166269 0.8720 0.8720 0.8720 0.8710 0.8710
14.200000 0.8710 0.8710 0.8690 0.8690 0.8690
14.233269 0.8670 0.8650 0.8650 0.8640 0.8600
14.266000 0.8550 0.8550 0.8540 0.8520 0.8520
14.299269 0.8520 0.8520 0.8500 0.8490 0.8490
14.333000 0.8450 0.8450 0.8450 0.8450 0.8450
14.366269 0.8450 0.8440 0.8440 0.8450 0.8450
14.399000 0.8450 0.8440 0.8420 0.8390 0.8370
14.432269 0.8320 0.8300 0.8270 0.8250 0.8240
14.466000 0.8220 0.8220 0.8220 0.8220 0.8220
14.499269 0.8200 0.8200 0.8200 0.8200 0.8220
14.532000 0.8220 0.8220 0.8200 0.8200 0.8200
14.565269 0.8220 0.8220 0.8240 0.8240 0.8200
14.599000 0.8170 0.8150 0.8140 0.8140 0.8050
14.632269 0.8040 0.8050 0.8050 0.8040 0.8040
14.665000 0.8040 0.8040 0.8040 0.8040 0.8020
14.698269 0.8000 0.8000 0.8000 0.7970 0.7970
14.732000 0.7930 0.7920 0.7920 0.7930 0.7920
14.765269 0.7920 0.7920 0.7920 0.7900 0.7880
14.798000 0.7880 0.7870 0.7850 0.7870 0.7850
14.831269 0.7850 0.7850 0.7850 0.7850 0.7850
14.865000 0.7830 0.7820 0.7800 0.7800 0.7800
14.898269 0.7780 0.7750 0.7750 0.7750 0.7730
14.931000 0.7730 0.7720 0.7700 0.7700 0.7680
14.964269 0.7670 0.7670 0.7670 0.7670 0.7670
14.998000 0.7670 0.7670 0.7670 0.7670 0.7650
15.031269 0.7650 0.7630 0.7630 0.7620 0.7620
15.064000 0.7600 0.7600 0.7600 0.7580 0.7550
15.097269 0.7550 0.7530 0.7550 0.7530 0.7520
15.131000 0.7500 0.7500 0.7470 0.7420 0.7420
15.164269 0.7420 0.7370 0.7310 0.7300 0.7260
15.197000 0.7250 0.7260 0.7280 0.7280 0.7260
15.230269 0.7230 0.7210 0.7200 0.7200 0.7200
15.264000 0.7200 0.7180 0.7180 0.7150 0.7110
15.297269 0.7100 0.7080 0.7080 0.7030 0.7030
15.330000 0.7010 0.6980 0.6960 0.6950 0.6930
15.363269 0.6910 0.6910 0.6900 0.6900 0.6860
15.397000 0.6830 0.6810 0.6800 0.6760 0.6750
15.430269 0.6750 0.6700 0.6680 0.6680 0.6660
15.463000 0.6660 0.6640 0.6640 0.6630 0.6610
15.496269 0.6590 0.6590 0.6590 0.6590 0.6580
15.530000 0.6580 0.6580 0.6580 0.6580 0.6590
15.563269 0.6590 0.6610 0.6630 0.6630 0.6640
15.596000 0.6660 0.6660 0.6680 0.6680 0.6680
15.629269 0.6680 0.6680 0.6680 0.6680 0.6700
15.663000 0.6700 0.6730 0.6750 0.6760 0.6760
15.696269 0.6760 0.6760 0.6780 0.6780 0.6760
15.729000 0.6760 0.6760 0.6760 0.6760 0.6760
15.762269 0.6760 0.6760 0.6760 0.6760 0.6760
15.796000 0.6750 0.6730 0.6730 0.6730 0.6730
15.829269 0.6730 0.6730 0.6750 0.6750 0.6760
15.862000 0.6760 0.6760 0.6760 0.6760 0.6760
15.895269 0.6750 0.6730 0.6730 0.6710 0.6710
15.929000 0.6700 0.6640 0.6640 0.6640 0.6660
15.962269 0.6680 0.6700 0.6700 0.6700 0.6680
15.995000 0.6700
##END=
