##TITLE=PALLADIUM, BIS(1,1,1-TRIFLUORO-2,4-PENTANEDIONATO)-
##JCAMP-DX=4.24
##DATA TYPE=INFRARED SPECTRUM
##CLASS=COBLENTZ III
##ORIGIN=SOUTHERN RESEARCH INSTITUTE
##OWNER=COBLENTZ SOCIETY
Collection (C) 2018 copyright by the U.S. Secretary of Commerce
on behalf of the United States of America. All rights reserved.
##DATE=1966/03/31
##MOLFORM=C10 H8 F6 O4 Pd
##SOURCE REFERENCE=COBLENTZ NO. 7436
##$NIST ID=B6007436
##$NIST SOURCE=COBLENTZ
##$NIST IMAGE=cob7436
##SPECTROMETER/DATA SYSTEM=PERKIN-ELMER 521 (GRATING)
##INSTRUMENT PARAMETERS=FILTERS AT 3150, 2500, 2000, 1150, 700, 410. GRATING CHANGES: 2000, 630 CM^-^1
##STATE=SOLID (1 mg / 650 mg KBr DISC)
$$SPECTRAL CONTAMINATION DUE TO H2O AROUND 3450 CM^-^1
##SAMPLING PROCEDURE=TRANSMISSION
##RESOLUTION=2
##DATA PROCESSING=DIGITIZED BY NIST FROM HARD COPY (FROM TWO SEGMENTS)
##XUNITS=1/CM
##YUNITS=TRANSMITTANCE
##XFACTOR=1.000000
##YFACTOR=1
##DELTAX=1.273345
##FIRSTX=250.427
##LASTX=3911.29
##FIRSTY=0.315
##MAXX=3911.29
##MINX=250.427
##MAXY=0.935
##MINY=0.209372
##NPOINTS=2876
##XYDATA=(X++(Y..Y))
250.427000 0.3150 0.3369 0.3538 0.3707 0.3983
256.793725 0.4097 0.4206 0.4296 0.4367 0.4436
263.160450 0.4497 0.4557 0.4607 0.4657 0.4716
269.527175 0.4775 0.4835 0.4904 0.4964 0.5060
275.893900 0.5160 0.5250 0.5340 0.5438 0.5529
282.260625 0.5618 0.5699 0.5787 0.5860 0.5938
288.627350 0.6018 0.6089 0.6158 0.6220 0.6279
294.994075 0.6347 0.6401 0.6450 0.6500 0.6542
301.360800 0.6590 0.6616 0.6651 0.6668 0.6693
307.727525 0.6708 0.6725 0.6730 0.6737 0.6740
314.094250 0.6755 0.6790 0.6829 0.6964 0.7046
320.460975 0.7074 0.7087 0.7104 0.7117 0.7189
326.827700 0.7269 0.7324 0.7361 0.7411 0.7450
333.194425 0.7487 0.7526 0.7566 0.7612 0.7662
339.561150 0.7706 0.7746 0.7779 0.7815 0.7855
345.927875 0.7888 0.7918 0.7948 0.7972 0.7998
352.294600 0.8028 0.8052 0.8077 0.8102 0.8116
358.661325 0.8131 0.8151 0.8171 0.8185 0.8195
365.028050 0.8200 0.8200 0.8200 0.8200 0.8200
371.394775 0.8190 0.8160 0.8120 0.8095 0.8070
377.761500 0.8026 0.7985 0.7975 0.8018 0.8097
384.128225 0.8163 0.8208 0.8235 0.8249 0.8273
390.494950 0.8303 0.8342 0.8391 0.8441 0.8487
396.861675 0.8518 0.8546 0.8582 0.8608 0.8632
403.228400 0.8654 0.8668 0.8688 0.8700 0.8700
409.595125 0.8700 0.8700 0.8700 0.8703 0.8707
415.961850 0.8700 0.8703 0.8707 0.8700 0.8700
422.328575 0.8694 0.8680 0.8680 0.8680 0.8677
428.695300 0.8670 0.8667 0.8660 0.8660 0.8657
435.062025 0.8650 0.8645 0.8628 0.8610 0.8566
441.428750 0.8490 0.8367 0.8238 0.8010 0.7785
447.795475 0.7620 0.7687 0.8011 0.8317 0.8573
454.162200 0.8634 0.8661 0.8712 0.8728 0.8775
460.528925 0.8800 0.8800 0.8801 0.8811 0.8823
466.895650 0.8840 0.8841 0.8851 0.8862 0.8880
473.262375 0.8880 0.8880 0.8880 0.8881 0.8890
479.629100 0.8890 0.8890 0.8890 0.8891 0.8900
485.995825 0.8900 0.8900 0.8900 0.8900 0.8900
492.362550 0.8900 0.8900 0.8900 0.8900 0.8910
498.729275 0.8910 0.8910 0.8910 0.8900 0.8900
505.096000 0.8890 0.8880 0.8822 0.8801 0.8790
511.462725 0.8761 0.8722 0.8711 0.8701 0.8709
517.829450 0.8747 0.8796 0.8818 0.8838 0.8849
524.196175 0.8859 0.8878 0.8880 0.8880 0.8880
530.562900 0.8863 0.8851 0.8850 0.8841 0.8806
536.929625 0.8766 0.8718 0.8676 0.8628 0.8587
543.296350 0.8547 0.8532 0.8538 0.8597 0.8666
549.663075 0.8736 0.8782 0.8814 0.8851 0.8876
556.029800 0.8895 0.8908 0.8925 0.8938 0.8948
562.396525 0.8950 0.8957 0.8960 0.8960 0.8960
568.763250 0.8960 0.8960 0.8960 0.8960 0.8960
575.129975 0.8960 0.8960 0.8960 0.8960 0.8960
581.496700 0.8960 0.8953 0.8950 0.8950 0.8943
587.863425 0.8940 0.8921 0.8897 0.8871 0.8854
594.230150 0.8800 0.8727 0.8620 0.8467 0.8285
600.596875 0.8097 0.7908 0.7824 0.7832 0.7886
606.963600 0.7977 0.8071 0.8183 0.8340 0.8497
613.330325 0.8620 0.8713 0.8787 0.8852 0.8906
619.697050 0.8946 0.8975 0.8995 0.9015 0.9030
626.063775 0.9035 0.9040 0.9040 0.9045 0.9059
632.430500 0.9070 0.9075 0.9080 0.9085 0.9090
638.797225 0.9094 0.9100 0.9109 0.9120 0.9120
645.163950 0.9120 0.9112 0.9100 0.9100 0.9100
651.530675 0.9100 0.9100 0.9100 0.9108 0.9120
657.897400 0.9120 0.9124 0.9130 0.9130 0.9120
664.264125 0.9097 0.9083 0.9057 0.9017 0.8977
670.630850 0.8931 0.8875 0.8815 0.8733 0.8637
676.997575 0.8545 0.8484 0.8395 0.8305 0.8216
683.364300 0.8126 0.8013 0.7875 0.7863 0.7914
689.731025 0.8093 0.8268 0.8431 0.8592 0.8696
696.097750 0.8815 0.8933 0.9035 0.9092 0.9108
702.464475 0.9153 0.9212 0.9220 0.9220 0.9220
708.831200 0.9220 0.9218 0.9210 0.9210 0.9204
715.197925 0.9166 0.9137 0.9117 0.9102 0.9120
721.564650 0.9121 0.9131 0.9140 0.9142 0.9160
727.931375 0.9156 0.9113 0.9036 0.8987 0.8945
734.298100 0.8875 0.8774 0.8296 0.7867 0.7613
740.664825 0.7450 0.7460 0.7779 0.8495 0.8760
747.031550 0.8770 0.8820 0.8890 0.8950 0.9158
753.398275 0.9209 0.9210 0.9210 0.9191 0.9190
759.765000 0.9180 0.9170 0.9160 0.9160 0.9141
766.131725 0.9140 0.9140 0.9131 0.9130 0.9130
772.498450 0.9130 0.9121 0.9102 0.9091 0.9081
778.865175 0.9036 0.8986 0.8954 0.8907 0.8857
785.231900 0.8782 0.8566 0.8258 0.7889 0.7158
791.598625 0.6830 0.6591 0.6320 0.6139 0.5988
797.965350 0.5686 0.5612 0.5626 0.6917 0.7857
804.332075 0.8482 0.8936 0.9099 0.9166 0.9188
810.698800 0.9213 0.9257 0.9270 0.9263 0.9260
817.065525 0.9245 0.9233 0.9223 0.9220 0.9213
823.432250 0.9210 0.9196 0.9190 0.9190 0.9183
829.798975 0.9180 0.9173 0.9170 0.9170 0.9163
836.165700 0.9160 0.9160 0.9160 0.9166 0.9170
842.532425 0.9170 0.9170 0.9170 0.9170 0.9170
848.899150 0.9170 0.9164 0.9148 0.9140 0.9134
855.265875 0.9124 0.9120 0.9103 0.9062 0.9012
861.632600 0.8957 0.8903 0.8847 0.8804 0.8630
867.999325 0.8337 0.8033 0.7715 0.7407 0.7255
874.366050 0.7255 0.7448 0.7827 0.8196 0.8472
880.732775 0.8656 0.8835 0.8995 0.9079 0.9108
887.099500 0.9134 0.9140 0.9149 0.9160 0.9160
893.466225 0.9160 0.9160 0.9160 0.9160 0.9160
899.832950 0.9160 0.9160 0.9160 0.9160 0.9160
906.199675 0.9160 0.9160 0.9160 0.9160 0.9153
912.566400 0.9140 0.9140 0.9140 0.9140 0.9137
918.933125 0.9130 0.9127 0.9114 0.9097 0.9087
925.299850 0.9077 0.9070 0.9064 0.9047 0.9037
931.666575 0.9022 0.8997 0.8980 0.8940 0.8902
938.033300 0.8863 0.8786 0.8670 0.8491 0.8280
944.400025 0.8063 0.7896 0.7888 0.7996 0.8366
950.766750 0.8689 0.8793 0.8907 0.8984 0.9004
957.133475 0.9020 0.9020 0.9020 0.9017 0.9000
963.500200 0.8999 0.8989 0.8980 0.8980 0.8977
969.866925 0.8960 0.8960 0.8959 0.8950 0.8949
976.233650 0.8939 0.8928 0.8910 0.8909 0.8899
982.600375 0.8890 0.8889 0.8878 0.8849 0.8839
988.967100 0.8809 0.8789 0.8760 0.8750 0.8740
995.333825 0.8740 0.8740 0.8720 0.8710 0.8700
1001.700550 0.8670 0.8650 0.8611 0.8571 0.8541
1008.067275 0.8521 0.8510 0.8481 0.8461 0.8422
1014.434000 0.8373 0.8333 0.8293 0.8253 0.8204
1020.800725 0.8182 0.8153 0.8123 0.8111 0.8119
1027.167450 0.8182 0.8243 0.8285 0.8369 0.8459
1033.534175 0.8505 0.8519 0.8529 0.8564 0.8578
1039.900900 0.8572 0.8570 0.8570 0.8570 0.8570
1046.267625 0.8570 0.8562 0.8560 0.8544 0.8532
1052.634350 0.8514 0.8487 0.8472 0.8462 0.8445
1059.001075 0.8432 0.8407 0.8392 0.8375 0.8348
1065.367800 0.8333 0.8323 0.8298 0.8283 0.8266
1071.734525 0.8253 0.8243 0.8233 0.8216 0.8210
1078.101250 0.8203 0.8193 0.8183 0.8167 0.8153
1084.467975 0.8143 0.8127 0.8113 0.8097 0.8077
1090.834700 0.8057 0.8044 0.8021 0.7991 0.7961
1097.201425 0.7932 0.7908 0.7876 0.7836 0.7796
1103.568150 0.7751 0.7707 0.7661 0.7611 0.7556
1109.934875 0.7491 0.7421 0.7335 0.7230 0.7121
1116.301600 0.7038 0.6968 0.6852 0.6687 0.6492
1122.668325 0.6283 0.6049 0.5780 0.5497 0.5184
1129.035050 0.4832 0.4350 0.3884 0.3580 0.3127
1135.401775 0.2785 0.2785 0.2911 0.3175 0.3434
1141.768500 0.3804 0.4346 0.4688 0.4692 0.4522
1148.135225 0.4226 0.4023 0.3781 0.3583 0.3387
1154.501950 0.3034 0.2773 0.2764 0.2828 0.2995
1160.868675 0.3174 0.3353 0.3532 0.3708 0.3894
1167.235400 0.4086 0.4228 0.4431 0.4753 0.5080
1173.602125 0.5303 0.5262 0.5100 0.4939 0.4789
1179.968850 0.4613 0.4441 0.4262 0.4106 0.4016
1186.335575 0.3904 0.3727 0.3561 0.3416 0.3335
1192.702300 0.3320 0.3322 0.3332 0.3370 0.3509
1199.069025 0.3649 0.3806 0.4125 0.4780 0.5228
1205.435750 0.5525 0.5717 0.5880 0.6065 0.6308
1211.802475 0.6612 0.6620 0.6620 0.6619 0.6572
1218.169200 0.6301 0.6150 0.5999 0.5987 0.5938
1224.535925 0.5723 0.5366 0.5030 0.4789 0.4350
1230.902650 0.4428 0.5418 0.5693 0.6059 0.6416
1237.269375 0.7024 0.7281 0.7518 0.7727 0.7914
1243.636100 0.8053 0.8161 0.8190 0.8190 0.8190
1250.002825 0.8180 0.8160 0.8150 0.8120 0.8091
1256.369550 0.8022 0.7952 0.7883 0.7794 0.7723
1262.736275 0.7644 0.7442 0.7261 0.7119 0.7045
1269.103000 0.6985 0.6898 0.6808 0.6719 0.6647
1275.469725 0.6559 0.6470 0.6345 0.6206 0.6050
1281.836450 0.5838 0.5585 0.5292 0.4934 0.4521
1288.203175 0.4256 0.4001 0.3474 0.3122 0.2814
1294.569900 0.2227 0.2094 0.2106 0.2295 0.2508
1300.936625 0.2733 0.2954 0.3181 0.3394 0.3610
1307.303350 0.3998 0.4275 0.4497 0.4648 0.4973
1313.670075 0.5346 0.5692 0.6008 0.6302 0.6575
1320.036800 0.6995 0.7280 0.7460 0.7629 0.7778
1326.403525 0.7917 0.8029 0.8128 0.8214 0.8280
1332.770250 0.8327 0.8347 0.8363 0.8383 0.8409
1339.136975 0.8420 0.8420 0.8420 0.8407 0.8394
1345.503700 0.8378 0.8346 0.8306 0.8266 0.8226
1351.870425 0.8192 0.8145 0.8073 0.7971 0.7840
1358.237150 0.7673 0.7456 0.7178 0.6985 0.6885
1364.603875 0.6835 0.6835 0.7037 0.7315 0.7504
1370.970600 0.7667 0.7806 0.7925 0.8035 0.8135
1377.337325 0.8215 0.8289 0.8359 0.8423 0.8488
1383.704050 0.8548 0.8580 0.8594 0.8610 0.8610
1390.070775 0.8610 0.8610 0.8610 0.8606 0.8592
1396.437500 0.8572 0.8544 0.8508 0.8466 0.8399
1402.804225 0.8327 0.8275 0.8242 0.8196 0.8081
1409.170950 0.7973 0.7960 0.7956 0.7950 0.7950
1415.537675 0.7953 0.7963 0.7970 0.7973 0.7986
1421.904400 0.8003 0.8013 0.8020 0.8020 0.8017
1428.271125 0.8010 0.8007 0.7994 0.7975 0.7960
1434.637850 0.7950 0.7900 0.7815 0.7711 0.7582
1441.004575 0.7422 0.7256 0.7087 0.6986 0.6851
1447.371300 0.6630 0.6478 0.6472 0.6524 0.6766
1453.738025 0.7047 0.7237 0.7395 0.7591 0.7763
1460.104750 0.7899 0.8015 0.8112 0.8188 0.8247
1466.471475 0.8295 0.8333 0.8354 0.8381 0.8390
1472.838200 0.8390 0.8389 0.8380 0.8380 0.8379
1479.204925 0.8368 0.8348 0.8318 0.8287 0.8249
1485.571650 0.8228 0.8199 0.8175 0.8057 0.7968
1491.938375 0.7908 0.7839 0.7809 0.7759 0.7720
1498.305100 0.7680 0.7640 0.7580 0.7501 0.7412
1504.671825 0.7292 0.7153 0.7063 0.6954 0.6748
1511.038550 0.6482 0.6166 0.5801 0.5386 0.4913
1517.405275 0.4582 0.4551 0.4578 0.4809 0.5085
1523.772000 0.5399 0.5744 0.6342 0.6969 0.7058
1530.138725 0.7227 0.7416 0.7762 0.7819 0.7889
1536.505450 0.7917 0.7912 0.7902 0.7875 0.7787
1542.872175 0.7729 0.7704 0.7716 0.7736 0.7780
1549.238900 0.7830 0.7888 0.7916 0.7959 0.8001
1555.605625 0.8010 0.8018 0.8020 0.8005 0.7985
1561.972350 0.7905 0.7746 0.7515 0.7230 0.7019
1568.339075 0.6839 0.6486 0.6047 0.5578 0.5073
1574.705800 0.4703 0.4332 0.4065 0.3863 0.3523
1581.072525 0.3113 0.2711 0.2567 0.2580 0.2898
1587.439250 0.3780 0.4196 0.4210 0.4109 0.3950
1593.805975 0.3609 0.3173 0.2745 0.2568 0.2578
1600.172700 0.2776 0.3084 0.3398 0.3896 0.4327
1606.539425 0.4685 0.5037 0.5452 0.5927 0.6158
1612.906150 0.6180 0.6256 0.6390 0.6514 0.6638
1619.272875 0.6757 0.6976 0.7243 0.7370 0.7400
1625.639600 0.7420 0.7445 0.7475 0.7500 0.7519
1632.006325 0.7554 0.7599 0.7643 0.7684 0.7727
1638.373050 0.7782 0.7832 0.7886 0.7941 0.7991
1644.739775 0.8049 0.8111 0.8165 0.8220 0.8270
1651.106500 0.8320 0.8369 0.8423 0.8479 0.8521
1657.473225 0.8555 0.8598 0.8641 0.8674 0.8707
1663.839950 0.8730 0.8753 0.8763 0.8777 0.8790
1670.206675 0.8796 0.8813 0.8820 0.8820 0.8826
1676.573400 0.8840 0.8840 0.8843 0.8850 0.8850
1682.940125 0.8850 0.8850 0.8847 0.8840 0.8835
1689.306850 0.8818 0.8808 0.8800 0.8800 0.8800
1695.673575 0.8800 0.8800 0.8802 0.8816 0.8840
1702.040300 0.8842 0.8850 0.8852 0.8863 0.8882
1708.407025 0.8892 0.8902 0.8913 0.8932 0.8941
1714.773750 0.8954 0.8980 0.8983 0.9002 0.9021
1721.140475 0.9031 0.9041 0.9052 0.9076 0.9130
1727.507200 0.9131 0.9140 0.9142 0.9160 0.9161
1733.873925 0.9170 0.9171 0.9180 0.9180 0.9190
1740.240650 0.9190 0.9190 0.9190 0.9190 0.9190
1746.607375 0.9190 0.9190 0.9210 0.9210 0.9210
1752.974100 0.9220 0.9230 0.9240 0.9259 0.9260
1759.340825 0.9270 0.9280 0.9280 0.9299 0.9300
1765.707550 0.9300 0.9300 0.9300 0.9309 0.9319
1772.074275 0.9320 0.9320 0.9320 0.9320 0.9320
1778.441000 0.9320 0.9320 0.9320 0.9329 0.9330
1784.807725 0.9330 0.9330 0.9330 0.9330 0.9330
1791.174450 0.9330 0.9330 0.9330 0.9330 0.9330
1797.541175 0.9330 0.9330 0.9330 0.9330 0.9330
1803.907900 0.9330 0.9330 0.9330 0.9330 0.9330
1810.274625 0.9330 0.9330 0.9330 0.9330 0.9330
1816.641350 0.9330 0.9330 0.9330 0.9330 0.9344
1823.008075 0.9350 0.9350 0.9350 0.9350 0.9350
1829.374800 0.9350 0.9350 0.9350 0.9350 0.9350
1835.741525 0.9350 0.9350 0.9350 0.9350 0.9350
1842.108250 0.9350 0.9350 0.9350 0.9350 0.9350
1848.474975 0.9350 0.9350 0.9350 0.9350 0.9350
1854.841700 0.9350 0.9350 0.9350 0.9350 0.9350
1861.208425 0.9339 0.9330 0.9330 0.9330 0.9330
1867.575150 0.9330 0.9325 0.9320 0.9320 0.9320
1873.941875 0.9320 0.9315 0.9310 0.9310 0.9310
1880.308600 0.9305 0.9300 0.9300 0.9300 0.9291
1886.675325 0.9280 0.9280 0.9280 0.9276 0.9270
1893.042050 0.9266 0.9264 0.9270 0.9274 0.9280
1899.408775 0.9280 0.9288 0.9300 0.9304 0.9310
1905.775500 0.9310 0.9314 0.9320 0.9320 0.9320
1912.142225 0.9320 0.9320 0.9320 0.9320 0.9320
1918.508950 0.9320 0.9320 0.9320 0.9320 0.9320
1924.875675 0.9320 0.9323 0.9330 0.9330 0.9330
1931.242400 0.9330 0.9330 0.9330 0.9330 0.9330
1937.609125 0.9330 0.9330 0.9330 0.9330 0.9330
1943.975850 0.9330 0.9330 0.9330 0.9330 0.9330
1950.342575 0.9330 0.9330 0.9330 0.9330 0.9330
1956.709300 0.9330 0.9330 0.9330 0.9330 0.9330
1963.076025 0.9330 0.9330 0.9330 0.9330 0.9330
1969.442750 0.9330 0.9330 0.9330 0.9330 0.9330
1975.809475 0.9330 0.9330 0.9330 0.9330 0.9330
1982.176200 0.9330 0.9330 0.9330 0.9330 0.9330
1988.542925 0.9330 0.9330 0.9330 0.9330 0.9320
1994.909650 0.9320 0.9320 0.9310 0.9310 0.9300
2001.276375 0.9310 0.9300 0.9270 0.9270 0.9270
2007.643100 0.9260 0.9260 0.9240 0.9240 0.9240
2014.009825 0.9240 0.9240 0.9240 0.9240 0.9240
2020.376550 0.9240 0.9240 0.9240 0.9240 0.9240
2026.743275 0.9240 0.9230 0.9230 0.9230 0.9230
2033.110000 0.9230 0.9230 0.9230 0.9230 0.9230
2039.476725 0.9230 0.9230 0.9230 0.9230 0.9230
2045.843450 0.9230 0.9230 0.9230 0.9230 0.9230
2052.210175 0.9230 0.9230 0.9240 0.9240 0.9240
2058.576900 0.9240 0.9240 0.9240 0.9240 0.9240
2064.943625 0.9240 0.9240 0.9260 0.9260 0.9260
2071.310350 0.9260 0.9260 0.9270 0.9270 0.9270
2077.677075 0.9270 0.9270 0.9270 0.9270 0.9270
2084.043800 0.9270 0.9270 0.9270 0.9270 0.9270
2090.410525 0.9260 0.9260 0.9260 0.9260 0.9260
2096.777250 0.9240 0.9260 0.9260 0.9260 0.9260
2103.143975 0.9260 0.9260 0.9260 0.9260 0.9260
2109.510700 0.9260 0.9260 0.9260 0.9260 0.9260
2115.877425 0.9260 0.9260 0.9260 0.9260 0.9260
2122.244150 0.9260 0.9260 0.9260 0.9260 0.9260
2128.610875 0.9260 0.9260 0.9260 0.9260 0.9260
2134.977600 0.9270 0.9270 0.9270 0.9270 0.9270
2141.344325 0.9270 0.9270 0.9270 0.9270 0.9270
2147.711050 0.9270 0.9270 0.9270 0.9270 0.9270
2154.077775 0.9270 0.9260 0.9260 0.9260 0.9260
2160.444500 0.9260 0.9260 0.9260 0.9240 0.9240
2166.811225 0.9240 0.9240 0.9240 0.9240 0.9230
2173.177950 0.9230 0.9230 0.9230 0.9230 0.9230
2179.544675 0.9220 0.9220 0.9220 0.9220 0.9220
2185.911400 0.9220 0.9220 0.9230 0.9230 0.9230
2192.278125 0.9230 0.9230 0.9230 0.9230 0.9230
2198.644850 0.9230 0.9230 0.9230 0.9230 0.9230
2205.011575 0.9230 0.9230 0.9230 0.9220 0.9220
2211.378300 0.9220 0.9210 0.9210 0.9210 0.9210
2217.745025 0.9210 0.9210 0.9210 0.9210 0.9190
2224.111750 0.9190 0.9190 0.9190 0.9190 0.9190
2230.478475 0.9190 0.9190 0.9190 0.9180 0.9180
2236.845200 0.9180 0.9180 0.9180 0.9180 0.9180
2243.211925 0.9180 0.9180 0.9180 0.9180 0.9180
2249.578650 0.9180 0.9180 0.9180 0.9180 0.9180
2255.945375 0.9180 0.9180 0.9180 0.9170 0.9170
2262.312100 0.9170 0.9170 0.9170 0.9170 0.9170
2268.678825 0.9170 0.9170 0.9170 0.9170 0.9170
2275.045550 0.9170 0.9170 0.9170 0.9170 0.9170
2281.412275 0.9170 0.9170 0.9170 0.9160 0.9160
2287.779000 0.9160 0.9160 0.9160 0.9160 0.9160
2294.145725 0.9160 0.9160 0.9160 0.9140 0.9140
2300.512450 0.9160 0.9160 0.9160 0.9160 0.9160
2306.879175 0.9160 0.9140 0.9140 0.9140 0.9140
2313.245900 0.9140 0.9140 0.9140 0.9140 0.9140
2319.612625 0.9140 0.9140 0.9140 0.9140 0.9140
2325.979350 0.9140 0.9140 0.9140 0.9130 0.9130
2332.346075 0.9130 0.9130 0.9130 0.9130 0.9130
2338.712800 0.9130 0.9130 0.9130 0.9130 0.9130
2345.079525 0.9130 0.9130 0.9130 0.9130 0.9130
2351.446250 0.9130 0.9130 0.9130 0.9130 0.9130
2357.812975 0.9130 0.9130 0.9130 0.9130 0.9130
2364.179700 0.9140 0.9140 0.9140 0.9140 0.9140
2370.546425 0.9140 0.9140 0.9140 0.9140 0.9140
2376.913150 0.9140 0.9140 0.9160 0.9160 0.9160
2383.279875 0.9160 0.9160 0.9160 0.9160 0.9160
2389.646600 0.9160 0.9160 0.9160 0.9160 0.9160
2396.013325 0.9160 0.9160 0.9160 0.9160 0.9160
2402.380050 0.9160 0.9160 0.9160 0.9160 0.9160
2408.746775 0.9160 0.9160 0.9160 0.9160 0.9160
2415.113500 0.9160 0.9160 0.9160 0.9160 0.9160
2421.480225 0.9160 0.9160 0.9140 0.9140 0.9140
2427.846950 0.9140 0.9140 0.9140 0.9140 0.9130
2434.213675 0.9140 0.9140 0.9140 0.9140 0.9140
2440.580400 0.9140 0.9140 0.9140 0.9140 0.9140
2446.947125 0.9140 0.9140 0.9140 0.9140 0.9130
2453.313850 0.9130 0.9130 0.9120 0.9120 0.9120
2459.680575 0.9100 0.9100 0.9090 0.9090 0.9090
2466.047300 0.9090 0.9080 0.9080 0.9070 0.9080
2472.414025 0.9080 0.9080 0.9080 0.9090 0.9090
2478.780750 0.9090 0.9090 0.9090 0.9100 0.9100
2485.147475 0.9100 0.9100 0.9100 0.9100 0.9100
2491.514200 0.9100 0.9100 0.9100 0.9100 0.9100
2497.880925 0.9100 0.9100 0.9100 0.9100 0.9100
2504.247650 0.9100 0.9100 0.9100 0.9100 0.9100
2510.614375 0.9100 0.9100 0.9100 0.9100 0.9100
2516.981100 0.9100 0.9100 0.9100 0.9100 0.9100
2523.347825 0.9100 0.9100 0.9100 0.9100 0.9100
2529.714550 0.9100 0.9100 0.9100 0.9100 0.9100
2536.081275 0.9100 0.9100 0.9090 0.9090 0.9090
2542.448000 0.9080 0.9080 0.9080 0.9080 0.9080
2548.814725 0.9080 0.9080 0.9080 0.9080 0.9080
2555.181450 0.9080 0.9080 0.9080 0.9080 0.9080
2561.548175 0.9080 0.9080 0.9080 0.9080 0.9080
2567.914900 0.9080 0.9080 0.9080 0.9080 0.9080
2574.281625 0.9080 0.9080 0.9080 0.9080 0.9080
2580.648350 0.9080 0.9080 0.9080 0.9080 0.9080
2587.015075 0.9080 0.9080 0.9080 0.9080 0.9080
2593.381800 0.9080 0.9080 0.9080 0.9080 0.9080
2599.748525 0.9090 0.9090 0.9090 0.9090 0.9090
2606.115250 0.9090 0.9090 0.9090 0.9090 0.9090
2612.481975 0.9090 0.9090 0.9090 0.9090 0.9090
2618.848700 0.9090 0.9090 0.9090 0.9090 0.9090
2625.215425 0.9090 0.9090 0.9090 0.9090 0.9090
2631.582150 0.9090 0.9090 0.9090 0.9090 0.9090
2637.948875 0.9090 0.9090 0.9090 0.9090 0.9090
2644.315600 0.9090 0.9090 0.9090 0.9090 0.9090
2650.682325 0.9090 0.9090 0.9090 0.9090 0.9090
2657.049050 0.9090 0.9090 0.9090 0.9090 0.9090
2663.415775 0.9090 0.9090 0.9090 0.9090 0.9090
2669.782500 0.9090 0.9090 0.9090 0.9090 0.9090
2676.149225 0.9090 0.9090 0.9090 0.9090 0.9090
2682.515950 0.9090 0.9090 0.9090 0.9090 0.9090
2688.882675 0.9090 0.9090 0.9090 0.9090 0.9080
2695.249400 0.9080 0.9080 0.9080 0.9080 0.9070
2701.616125 0.9070 0.9070 0.9070 0.9050 0.9050
2707.982850 0.9050 0.9050 0.9040 0.9040 0.9040
2714.349575 0.9040 0.9030 0.9030 0.9030 0.9030
2720.716300 0.9020 0.9020 0.9000 0.9000 0.9000
2727.083025 0.9000 0.9000 0.9000 0.8990 0.8990
2733.449750 0.8990 0.8990 0.8980 0.8990 0.8990
2739.816475 0.8990 0.9000 0.9000 0.9000 0.9020
2746.183200 0.9020 0.9020 0.9020 0.9020 0.9020
2752.549925 0.9020 0.9020 0.9020 0.9020 0.9020
2758.916650 0.9020 0.9020 0.9020 0.9020 0.9020
2765.283375 0.9020 0.9020 0.9020 0.9020 0.9020
2771.650100 0.9020 0.9020 0.9020 0.9020 0.9000
2778.016825 0.9000 0.9000 0.9000 0.9000 0.9000
2784.383550 0.9000 0.9000 0.8990 0.8990 0.8990
2790.750275 0.8990 0.8990 0.8990 0.8990 0.8990
2797.117000 0.8990 0.8990 0.8990 0.8990 0.8990
2803.483725 0.8990 0.8990 0.8990 0.8990 0.8990
2809.850450 0.8990 0.8990 0.8980 0.8980 0.8980
2816.217175 0.8980 0.8960 0.8960 0.8960 0.8950
2822.583900 0.8950 0.8950 0.8950 0.8950 0.8950
2828.950625 0.8950 0.8940 0.8940 0.8940 0.8940
2835.317350 0.8940 0.8930 0.8930 0.8930 0.8930
2841.684075 0.8930 0.8910 0.8910 0.8910 0.8900
2848.050800 0.8900 0.8900 0.8900 0.8900 0.8900
2854.417525 0.8900 0.8900 0.8900 0.8900 0.8900
2860.784250 0.8900 0.8900 0.8900 0.8900 0.8900
2867.150975 0.8900 0.8900 0.8900 0.8900 0.8900
2873.517700 0.8900 0.8890 0.8890 0.8890 0.8890
2879.884425 0.8890 0.8890 0.8880 0.8880 0.8880
2886.251150 0.8860 0.8860 0.8860 0.8850 0.8850
2892.617875 0.8840 0.8820 0.8820 0.8820 0.8810
2898.984600 0.8820 0.8810 0.8810 0.8810 0.8800
2905.351325 0.8800 0.8790 0.8770 0.8770 0.8760
2911.718050 0.8760 0.8750 0.8750 0.8740 0.8740
2918.084775 0.8720 0.8720 0.8720 0.8720 0.8720
2924.451500 0.8720 0.8720 0.8720 0.8740 0.8750
2930.818225 0.8750 0.8770 0.8770 0.8770 0.8790
2937.184950 0.8800 0.8810 0.8820 0.8820 0.8840
2943.551675 0.8850 0.8850 0.8850 0.8850 0.8850
2949.918400 0.8860 0.8860 0.8860 0.8860 0.8860
2956.285125 0.8860 0.8860 0.8860 0.8860 0.8880
2962.651850 0.8880 0.8880 0.8880 0.8890 0.8890
2969.018575 0.8890 0.8890 0.8900 0.8900 0.8900
2975.385300 0.8900 0.8910 0.8910 0.8910 0.8910
2981.752025 0.8910 0.8910 0.8910 0.8910 0.8910
2988.118750 0.8910 0.8910 0.8910 0.8900 0.8900
2994.485475 0.8900 0.8900 0.8900 0.8900 0.8900
3000.852200 0.8890 0.8890 0.8890 0.8890 0.8890
3007.218925 0.8890 0.8890 0.8890 0.8890 0.8890
3013.585650 0.8890 0.8890 0.8890 0.8890 0.8890
3019.952375 0.8890 0.8890 0.8890 0.8890 0.8880
3026.319100 0.8890 0.8890 0.8890 0.8890 0.8890
3032.685825 0.8890 0.8890 0.8890 0.8890 0.8890
3039.052550 0.8890 0.8890 0.8890 0.8890 0.8890
3045.419275 0.8890 0.8890 0.8890 0.8890 0.8890
3051.786000 0.8890 0.8890 0.8890 0.8880 0.8880
3058.152725 0.8880 0.8880 0.8880 0.8880 0.8880
3064.519450 0.8860 0.8860 0.8860 0.8860 0.8860
3070.886175 0.8860 0.8860 0.8850 0.8850 0.8850
3077.252900 0.8850 0.8850 0.8850 0.8840 0.8840
3083.619625 0.8840 0.8840 0.8820 0.8820 0.8820
3089.986350 0.8820 0.8820 0.8820 0.8820 0.8820
3096.353075 0.8810 0.8810 0.8800 0.8800 0.8810
3102.719800 0.8810 0.8820 0.8820 0.8820 0.8840
3109.086525 0.8840 0.8850 0.8880 0.8890 0.8890
3115.453250 0.8890 0.8900 0.8900 0.8880 0.8880
3121.819975 0.8850 0.8810 0.8770 0.8720 0.8700
3128.186700 0.8670 0.8660 0.8660 0.8650 0.8630
3134.553425 0.8630 0.8650 0.8660 0.8660 0.8670
3140.920150 0.8680 0.8700 0.8700 0.8710 0.8710
3147.286875 0.8710 0.8710 0.8710 0.8710 0.8710
3153.653600 0.8710 0.8710 0.8710 0.8710 0.8720
3160.020325 0.8720 0.8720 0.8720 0.8720 0.8720
3166.387050 0.8720 0.8720 0.8720 0.8720 0.8720
3172.753775 0.8720 0.8720 0.8720 0.8720 0.8720
3179.120500 0.8720 0.8720 0.8710 0.8710 0.8710
3185.487225 0.8710 0.8700 0.8700 0.8700 0.8700
3191.853950 0.8680 0.8680 0.8670 0.8680 0.8680
3198.220675 0.8700 0.8710 0.8710 0.8710 0.8710
3204.587400 0.8710 0.8710 0.8700 0.8700 0.8700
3210.954125 0.8700 0.8680 0.8680 0.8680 0.8680
3217.320850 0.8670 0.8670 0.8670 0.8660 0.8660
3223.687575 0.8660 0.8660 0.8660 0.8660 0.8660
3230.054300 0.8650 0.8650 0.8630 0.8620 0.8610
3236.421025 0.8610 0.8600 0.8580 0.8580 0.8580
3242.787750 0.8570 0.8570 0.8570 0.8570 0.8560
3249.154475 0.8560 0.8560 0.8560 0.8560 0.8560
3255.521200 0.8560 0.8560 0.8560 0.8540 0.8540
3261.887925 0.8530 0.8530 0.8520 0.8510 0.8510
3268.254650 0.8510 0.8510 0.8510 0.8520 0.8520
3274.621375 0.8510 0.8510 0.8510 0.8510 0.8510
3280.988100 0.8510 0.8510 0.8510 0.8510 0.8510
3287.354825 0.8510 0.8510 0.8510 0.8510 0.8510
3293.721550 0.8490 0.8490 0.8490 0.8490 0.8490
3300.088275 0.8510 0.8510 0.8510 0.8510 0.8510
3306.455000 0.8510 0.8490 0.8480 0.8470 0.8460
3312.821725 0.8460 0.8440 0.8440 0.8430 0.8430
3319.188450 0.8420 0.8400 0.8400 0.8380 0.8380
3325.555175 0.8380 0.8370 0.8370 0.8350 0.8340
3331.921900 0.8340 0.8340 0.8330 0.8330 0.8320
3338.288625 0.8320 0.8300 0.8300 0.8290 0.8290
3344.655350 0.8280 0.8260 0.8260 0.8260 0.8250
3351.022075 0.8250 0.8240 0.8240 0.8230 0.8230
3357.388800 0.8210 0.8200 0.8190 0.8160 0.8160
3363.755525 0.8150 0.8150 0.8150 0.8140 0.8120
3370.122250 0.8120 0.8110 0.8110 0.8100 0.8090
3376.488975 0.8090 0.8070 0.8060 0.8040 0.8040
3382.855700 0.8040 0.8020 0.8020 0.8020 0.8010
3389.222425 0.8010 0.8000 0.8000 0.7980 0.7980
3395.589150 0.7980 0.7970 0.7970 0.7970 0.7960
3401.955875 0.7960 0.7950 0.7950 0.7950 0.7950
3408.322600 0.7950 0.7930 0.7930 0.7930 0.7930
3414.689325 0.7930 0.7920 0.7920 0.7920 0.7920
3421.056050 0.7910 0.7910 0.7910 0.7910 0.7910
3427.422775 0.7910 0.7910 0.7910 0.7910 0.7920
3433.789500 0.7920 0.7920 0.7920 0.7920 0.7920
3440.156225 0.7920 0.7930 0.7930 0.7930 0.7930
3446.522950 0.7930 0.7930 0.7930 0.7930 0.7930
3452.889675 0.7930 0.7930 0.7950 0.7950 0.7950
3459.256400 0.7950 0.7950 0.7960 0.7960 0.7960
3465.623125 0.7960 0.7960 0.7970 0.7970 0.7970
3471.989850 0.7970 0.7970 0.7970 0.7970 0.7970
3478.356575 0.7970 0.7970 0.7980 0.7980 0.7980
3484.723300 0.7980 0.7980 0.8000 0.8010 0.8010
3491.090025 0.8010 0.8020 0.8020 0.8020 0.8040
3497.456750 0.8040 0.8050 0.8050 0.8060 0.8070
3503.823475 0.8070 0.8090 0.8090 0.8100 0.8100
3510.190200 0.8110 0.8110 0.8120 0.8120 0.8140
3516.556925 0.8140 0.8150 0.8150 0.8160 0.8160
3522.923650 0.8180 0.8180 0.8190 0.8190 0.8200
3529.290375 0.8200 0.8200 0.8210 0.8230 0.8230
3535.657100 0.8240 0.8240 0.8250 0.8250 0.8260
3542.023825 0.8260 0.8280 0.8280 0.8290 0.8290
3548.390550 0.8320 0.8330 0.8330 0.8340 0.8340
3554.757275 0.8350 0.8370 0.8370 0.8380 0.8380
3561.124000 0.8390 0.8390 0.8400 0.8400 0.8420
3567.490725 0.8430 0.8430 0.8440 0.8460 0.8460
3573.857450 0.8470 0.8480 0.8490 0.8490 0.8510
3580.224175 0.8520 0.8520 0.8530 0.8530 0.8540
3586.590900 0.8540 0.8560 0.8560 0.8570 0.8570
3592.957625 0.8570 0.8580 0.8580 0.8600 0.8600
3599.324350 0.8610 0.8610 0.8620 0.8620 0.8630
3605.691075 0.8630 0.8650 0.8660 0.8660 0.8670
3612.057800 0.8670 0.8680 0.8700 0.8700 0.8710
3618.424525 0.8710 0.8720 0.8720 0.8740 0.8740
3624.791250 0.8750 0.8750 0.8760 0.8760 0.8760
3631.157975 0.8770 0.8770 0.8770 0.8790 0.8790
3637.524700 0.8800 0.8800 0.8800 0.8810 0.8810
3643.891425 0.8810 0.8810 0.8820 0.8820 0.8820
3650.258150 0.8820 0.8840 0.8840 0.8840 0.8840
3656.624875 0.8840 0.8840 0.8840 0.8840 0.8840
3662.991600 0.8840 0.8840 0.8840 0.8840 0.8840
3669.358325 0.8840 0.8840 0.8840 0.8840 0.8840
3675.725050 0.8840 0.8820 0.8820 0.8820 0.8820
3682.091775 0.8820 0.8820 0.8820 0.8840 0.8840
3688.458500 0.8850 0.8850 0.8850 0.8860 0.8860
3694.825225 0.8860 0.8880 0.8880 0.8880 0.8890
3701.191950 0.8890 0.8890 0.8890 0.8890 0.8890
3707.558675 0.8890 0.8890 0.8890 0.8890 0.8890
3713.925400 0.8890 0.8890 0.8890 0.8890 0.8890
3720.292125 0.8890 0.8890 0.8890 0.8890 0.8890
3726.658850 0.8890 0.8890 0.8890 0.8890 0.8890
3733.025575 0.8890 0.8890 0.8890 0.8890 0.8890
3739.392300 0.8890 0.8890 0.8890 0.8890 0.8890
3745.759025 0.8890 0.8890 0.8890 0.8890 0.8890
3752.125750 0.8890 0.8890 0.8890 0.8890 0.8890
3758.492475 0.8900 0.8900 0.8900 0.8900 0.8900
3764.859200 0.8900 0.8900 0.8900 0.8900 0.8900
3771.225925 0.8900 0.8900 0.8900 0.8900 0.8900
3777.592650 0.8900 0.8900 0.8900 0.8900 0.8900
3783.959375 0.8900 0.8900 0.8900 0.8900 0.8900
3790.326100 0.8900 0.8900 0.8900 0.8900 0.8900
3796.692825 0.8900 0.8910 0.8910 0.8910 0.8910
3803.059550 0.8910 0.8910 0.8910 0.8910 0.8910
3809.426275 0.8910 0.8910 0.8910 0.8910 0.8910
3815.793000 0.8910 0.8910 0.8910 0.8900 0.8900
3822.159725 0.8900 0.8900 0.8900 0.8900 0.8900
3828.526450 0.8900 0.8900 0.8900 0.8900 0.8900
3834.893175 0.8900 0.8900 0.8900 0.8900 0.8900
3841.259900 0.8900 0.8900 0.8900 0.8900 0.8900
3847.626625 0.8900 0.8900 0.8900 0.8900 0.8900
3853.993350 0.8900 0.8900 0.8900 0.8900 0.8890
3860.360075 0.8890 0.8890 0.8890 0.8890 0.8890
3866.726800 0.8890 0.8890 0.8890 0.8890 0.8890
3873.093525 0.8880 0.8880 0.8880 0.8880 0.8880
3879.460250 0.8880 0.8880 0.8880 0.8880 0.8880
3885.826975 0.8880 0.8880 0.8880 0.8880 0.8880
3892.193700 0.8880 0.8880 0.8880 0.8880 0.8880
3898.560425 0.8880 0.8880 0.8880 0.8880 0.8880
3904.927150 0.8880 0.8880 0.8880 0.8880 0.8880
3911.293875 0.8880
##END=
