##TITLE=MORPHINE, SULFATE (PENTAHYDRATE)
##JCAMP-DX=4.24
$$ By DXEDIT 1.05 (RS McDonald)
##DATA TYPE=INFRARED SPECTRUM
##CLASS=COBLENTZ III
##ORIGIN=BUREAU OF CUSTOMS
##OWNER=COBLENTZ SOC.
Collection (C) 2018 copyright by the U.S. Secretary of Commerce
on behalf of the United States of America. All rights reserved.
##DATE=Not specified, most likely prior to 1970
##MOLFORM=C34 H40 N2 O10 S  * 5 H2 O
##MP=ABOUT 250 C DECOMP.
##SOURCE REFERENCE=COBLENTZ NO. 05011
##$NIST ID=B6005011
##$NIST SOURCE=COBLENTZ
##$NIST IMAGE=cob5011
##SPECTROMETER/DATA SYSTEM=PERKIN-ELMER 21 (GRATING)
##INSTRUMENT PARAMETERS=FILTER AT ABOUT 10 MICRONS
##STATE=SOLID (1.2 mg / 250 mg KBr DISC)
$$PURITY 99+
##SAMPLING PROCEDURE=TRANSMISSION
##RESOLUTION=2
##DATA PROCESSING=DIGITIZED BY COBLENTZ SOCIETY (BATCH I) FROM HARD COPY
##XUNITS=1/CM
##YUNITS=TRANSMITTANCE
##XLABEL=Wavenumbers (cm-1)
##YLABEL=Transmittance
##XFACTOR=1
##YFACTOR=1
##DELTAX=1
##FIRSTX=4000
##LASTX=653
##FIRSTY=0.9075
##MAXX=4000
##MINX=653
##MAXY=0.9296
##MINY=0.03
##NPOINTS=3348
##XYDATA=(X++(Y..Y))
4000.000000 0.9075 0.9075 0.9075 0.9077 0.9077
3995.000000 0.9078 0.9078 0.9078 0.9080 0.9080
3990.000000 0.9081 0.9081 0.9082 0.9083 0.9083
3985.000000 0.9084 0.9085 0.9085 0.9086 0.9086
3980.000000 0.9087 0.9087 0.9088 0.9088 0.9089
3975.000000 0.9089 0.9090 0.9090 0.9091 0.9092
3970.000000 0.9092 0.9093 0.9094 0.9094 0.9095
3965.000000 0.9095 0.9096 0.9096 0.9096 0.9097
3960.000000 0.9098 0.9098 0.9099 0.9100 0.9100
3955.000000 0.9101 0.9102 0.9102 0.9103 0.9104
3950.000000 0.9104 0.9105 0.9105 0.9106 0.9106
3945.000000 0.9107 0.9107 0.9108 0.9108 0.9109
3940.000000 0.9110 0.9111 0.9112 0.9113 0.9113
3935.000000 0.9114 0.9115 0.9116 0.9117 0.9117
3930.000000 0.9118 0.9118 0.9120 0.9121 0.9121
3925.000000 0.9121 0.9123 0.9124 0.9125 0.9125
3920.000000 0.9125 0.9127 0.9128 0.9128 0.9130
3915.000000 0.9130 0.9131 0.9132 0.9133 0.9134
3910.000000 0.9134 0.9135 0.9136 0.9137 0.9138
3905.000000 0.9139 0.9140 0.9141 0.9142 0.9144
3900.000000 0.9145 0.9146 0.9148 0.9149 0.9151
3895.000000 0.9152 0.9154 0.9155 0.9156 0.9158
3890.000000 0.9159 0.9160 0.9162 0.9163 0.9165
3885.000000 0.9167 0.9168 0.9170 0.9171 0.9173
3880.000000 0.9175 0.9177 0.9178 0.9181 0.9182
3875.000000 0.9184 0.9186 0.9188 0.9190 0.9192
3870.000000 0.9193 0.9196 0.9198 0.9200 0.9202
3865.000000 0.9204 0.9206 0.9209 0.9211 0.9214
3860.000000 0.9217 0.9218 0.9221 0.9224 0.9227
3855.000000 0.9230 0.9232 0.9235 0.9238 0.9238
3850.000000 0.9239 0.9240 0.9241 0.9242 0.9243
3845.000000 0.9243 0.9243 0.9244 0.9244 0.9244
3840.000000 0.9244 0.9243 0.9242 0.9241 0.9239
3835.000000 0.9238 0.9237 0.9234 0.9232 0.9228
3830.000000 0.9227 0.9225 0.9221 0.9218 0.9215
3825.000000 0.9212 0.9208 0.9205 0.9202 0.9199
3820.000000 0.9196 0.9194 0.9191 0.9188 0.9187
3815.000000 0.9186 0.9186 0.9185 0.9184 0.9184
3810.000000 0.9183 0.9182 0.9181 0.9181 0.9180
3805.000000 0.9178 0.9178 0.9178 0.9178 0.9177
3800.000000 0.9177 0.9175 0.9175 0.9175 0.9175
3795.000000 0.9175 0.9175 0.9174 0.9174 0.9174
3790.000000 0.9174 0.9174 0.9174 0.9173 0.9173
3785.000000 0.9171 0.9171 0.9171 0.9171 0.9171
3780.000000 0.9171 0.9170 0.9170 0.9170 0.9168
3775.000000 0.9167 0.9166 0.9164 0.9162 0.9161
3770.000000 0.9159 0.9157 0.9155 0.9153 0.9150
3765.000000 0.9148 0.9146 0.9144 0.9143 0.9141
3760.000000 0.9139 0.9136 0.9131 0.9125 0.9121
3755.000000 0.9117 0.9113 0.9108 0.9103 0.9098
3750.000000 0.9093 0.9088 0.9083 0.9078 0.9073
3745.000000 0.9068 0.9063 0.9058 0.9051 0.9044
3740.000000 0.9036 0.9028 0.9020 0.9012 0.9002
3735.000000 0.8991 0.8981 0.8970 0.8959 0.8949
3730.000000 0.8938 0.8928 0.8917 0.8906 0.8896
3725.000000 0.8885 0.8874 0.8863 0.8853 0.8842
3720.000000 0.8830 0.8814 0.8798 0.8782 0.8766
3715.000000 0.8750 0.8734 0.8717 0.8700 0.8684
3710.000000 0.8667 0.8650 0.8633 0.8615 0.8598
3705.000000 0.8581 0.8564 0.8545 0.8525 0.8508
3700.000000 0.8489 0.8470 0.8451 0.8433 0.8414
3695.000000 0.8395 0.8377 0.8358 0.8338 0.8317
3690.000000 0.8296 0.8275 0.8254 0.8232 0.8209
3685.000000 0.8185 0.8161 0.8139 0.8115 0.8092
3680.000000 0.8068 0.8045 0.8021 0.7999 0.7971
3675.000000 0.7938 0.7905 0.7871 0.7839 0.7806
3670.000000 0.7774 0.7742 0.7710 0.7678 0.7646
3665.000000 0.7617 0.7590 0.7561 0.7534 0.7506
3660.000000 0.7461 0.7381 0.7300 0.7219 0.7139
3655.000000 0.7058 0.7031 0.7005 0.6978 0.6951
3650.000000 0.6925 0.6901 0.6878 0.6855 0.6832
3645.000000 0.6808 0.6787 0.6768 0.6749 0.6730
3640.000000 0.6711 0.6692 0.6672 0.6654 0.6636
3635.000000 0.6617 0.6598 0.6465 0.6288 0.6112
3630.000000 0.5935 0.5758 0.5644 0.5608 0.5572
3625.000000 0.5535 0.5499 0.5460 0.5418 0.5375
3620.000000 0.5332 0.5289 0.5246 0.5203 0.5159
3615.000000 0.5116 0.5073 0.5030 0.4986 0.4943
3610.000000 0.4900 0.4856 0.4812 0.4770 0.4726
3605.000000 0.4683 0.4639 0.4596 0.4552 0.4509
3600.000000 0.4465 0.4421 0.4378 0.4334 0.4290
3595.000000 0.4247 0.4203 0.4159 0.4116 0.4072
3590.000000 0.4028 0.3984 0.3940 0.3896 0.3852
3585.000000 0.3808 0.3764 0.3720 0.3676 0.3632
3580.000000 0.3588 0.3544 0.3500 0.3456 0.3412
3575.000000 0.3366 0.3323 0.3279 0.3234 0.3192
3570.000000 0.3149 0.3107 0.3065 0.3023 0.2982
3565.000000 0.2942 0.2902 0.2862 0.2821 0.2782
3560.000000 0.2743 0.2705 0.2667 0.2629 0.2594
3555.000000 0.2576 0.2558 0.2540 0.2522 0.2504
3550.000000 0.2488 0.2473 0.2457 0.2441 0.2425
3545.000000 0.2407 0.2389 0.2372 0.2354 0.2335
3540.000000 0.2315 0.2294 0.2274 0.2253 0.2232
3535.000000 0.2211 0.2190 0.2170 0.2149 0.2128
3530.000000 0.2108 0.2089 0.2069 0.2049 0.2029
3525.000000 0.2013 0.1994 0.1978 0.1961 0.1944
3520.000000 0.1935 0.1928 0.1920 0.1912 0.1904
3515.000000 0.1895 0.1887 0.1879 0.1873 0.1865
3510.000000 0.1856 0.1848 0.1840 0.1832 0.1824
3505.000000 0.1816 0.1808 0.1800 0.1791 0.1783
3500.000000 0.1774 0.1765 0.1756 0.1746 0.1737
3495.000000 0.1729 0.1719 0.1710 0.1701 0.1692
3490.000000 0.1682 0.1673 0.1663 0.1654 0.1641
3485.000000 0.1627 0.1613 0.1599 0.1585 0.1572
3480.000000 0.1559 0.1546 0.1533 0.1520 0.1509
3475.000000 0.1499 0.1488 0.1478 0.1467 0.1456
3470.000000 0.1444 0.1433 0.1421 0.1410 0.1399
3465.000000 0.1388 0.1377 0.1366 0.1358 0.1353
3460.000000 0.1346 0.1342 0.1337 0.1333 0.1330
3455.000000 0.1327 0.1324 0.1321 0.1319 0.1317
3450.000000 0.1314 0.1312 0.1310 0.1308 0.1306
3445.000000 0.1304 0.1302 0.1301 0.1299 0.1298
3440.000000 0.1296 0.1295 0.1295 0.1295 0.1295
3435.000000 0.1295 0.1295 0.1295 0.1295 0.1295
3430.000000 0.1295 0.1295 0.1295 0.1296 0.1296
3425.000000 0.1296 0.1300 0.1303 0.1306 0.1309
3420.000000 0.1312 0.1320 0.1327 0.1335 0.1342
3415.000000 0.1351 0.1363 0.1375 0.1387 0.1399
3410.000000 0.1413 0.1427 0.1441 0.1455 0.1469
3405.000000 0.1484 0.1498 0.1513 0.1527 0.1541
3400.000000 0.1555 0.1569 0.1582 0.1596 0.1610
3395.000000 0.1624 0.1637 0.1651 0.1665 0.1678
3390.000000 0.1691 0.1704 0.1717 0.1729 0.1744
3385.000000 0.1757 0.1770 0.1783 0.1794 0.1808
3380.000000 0.1820 0.1833 0.1844 0.1854 0.1866
3375.000000 0.1876 0.1886 0.1896 0.1907 0.1918
3370.000000 0.1928 0.1936 0.1944 0.1950 0.1956
3365.000000 0.1963 0.1969 0.1975 0.1981 0.1987
3360.000000 0.1994 0.2000 0.2007 0.2013 0.2020
3355.000000 0.2026 0.2031 0.2036 0.2043 0.2048
3350.000000 0.2052 0.2056 0.2060 0.2064 0.2068
3345.000000 0.2072 0.2076 0.2080 0.2084 0.2089
3340.000000 0.2093 0.2097 0.2101 0.2105 0.2109
3335.000000 0.2113 0.2117 0.2121 0.2125 0.2129
3330.000000 0.2133 0.2137 0.2141 0.2144 0.2147
3325.000000 0.2151 0.2153 0.2155 0.2157 0.2159
3320.000000 0.2161 0.2162 0.2164 0.2166 0.2168
3315.000000 0.2170 0.2172 0.2173 0.2175 0.2177
3310.000000 0.2177 0.2177 0.2177 0.2177 0.2177
3305.000000 0.2177 0.2177 0.2177 0.2176 0.2176
3300.000000 0.2176 0.2176 0.2175 0.2175 0.2174
3295.000000 0.2173 0.2173 0.2172 0.2171 0.2170
3290.000000 0.2169 0.2167 0.2164 0.2162 0.2159
3285.000000 0.2156 0.2151 0.2147 0.2142 0.2137
3280.000000 0.2132 0.2126 0.2121 0.2115 0.2112
3275.000000 0.2110 0.2108 0.2107 0.2105 0.2103
3270.000000 0.2102 0.2100 0.2099 0.2097 0.2095
3265.000000 0.2093 0.2091 0.2089 0.2088 0.2085
3260.000000 0.2084 0.2083 0.2082 0.2081 0.2079
3255.000000 0.2078 0.2077 0.2076 0.2075 0.2074
3250.000000 0.2072 0.2071 0.2070 0.2069 0.2068
3245.000000 0.2067 0.2066 0.2066 0.2065 0.2065
3240.000000 0.2065 0.2065 0.2066 0.2066 0.2066
3235.000000 0.2066 0.2067 0.2067 0.2067 0.2067
3230.000000 0.2067 0.2068 0.2068 0.2068 0.2068
3225.000000 0.2070 0.2071 0.2073 0.2074 0.2076
3220.000000 0.2078 0.2080 0.2082 0.2084 0.2085
3215.000000 0.2088 0.2090 0.2092 0.2094 0.2096
3210.000000 0.2098 0.2100 0.2103 0.2106 0.2109
3205.000000 0.2112 0.2116 0.2121 0.2125 0.2130
3200.000000 0.2134 0.2138 0.2143 0.2147 0.2152
3195.000000 0.2156 0.2161 0.2166 0.2170 0.2175
3190.000000 0.2179 0.2184 0.2191 0.2199 0.2207
3185.000000 0.2215 0.2224 0.2232 0.2241 0.2250
3180.000000 0.2258 0.2267 0.2276 0.2284 0.2294
3175.000000 0.2303 0.2312 0.2321 0.2331 0.2341
3170.000000 0.2352 0.2362 0.2372 0.2383 0.2393
3165.000000 0.2404 0.2414 0.2425 0.2435 0.2447
3160.000000 0.2457 0.2468 0.2478 0.2489 0.2500
3155.000000 0.2511 0.2522 0.2533 0.2544 0.2556
3150.000000 0.2568 0.2580 0.2592 0.2604 0.2616
3145.000000 0.2628 0.2640 0.2653 0.2665 0.2677
3140.000000 0.2689 0.2701 0.2713 0.2725 0.2737
3135.000000 0.2749 0.2761 0.2772 0.2784 0.2795
3130.000000 0.2806 0.2818 0.2829 0.2840 0.2852
3125.000000 0.2864 0.2874 0.2884 0.2895 0.2905
3120.000000 0.2913 0.2921 0.2928 0.2935 0.2944
3115.000000 0.2951 0.2958 0.2966 0.2974 0.2982
3110.000000 0.2989 0.2997 0.3005 0.3013 0.3020
3105.000000 0.3028 0.3034 0.3042 0.3049 0.3056
3100.000000 0.3063 0.3070 0.3077 0.3084 0.3090
3095.000000 0.3097 0.3104 0.3109 0.3115 0.3120
3090.000000 0.3125 0.3128 0.3130 0.3133 0.3135
3085.000000 0.3138 0.3141 0.3143 0.3146 0.3147
3080.000000 0.3149 0.3151 0.3153 0.3154 0.3156
3075.000000 0.3158 0.3159 0.3160 0.3162 0.3163
3070.000000 0.3164 0.3165 0.3167 0.3168 0.3170
3065.000000 0.3172 0.3174 0.3176 0.3178 0.3180
3060.000000 0.3181 0.3184 0.3185 0.3188 0.3191
3055.000000 0.3198 0.3205 0.3212 0.3221 0.3232
3050.000000 0.3243 0.3254 0.3268 0.3284 0.3300
3045.000000 0.3316 0.3330 0.3347 0.3362 0.3380
3040.000000 0.3400 0.3420 0.3440 0.3462 0.3488
3035.000000 0.3512 0.3538 0.3562 0.3586 0.3609
3030.000000 0.3632 0.3654 0.3675 0.3696 0.3714
3025.000000 0.3730 0.3747 0.3762 0.3782 0.3800
3020.000000 0.3818 0.3834 0.3843 0.3853 0.3862
3015.000000 0.3870 0.3878 0.3887 0.3895 0.3897
3010.000000 0.3898 0.3900 0.3902 0.3902 0.3903
3005.000000 0.3903 0.3904 0.3905 0.3906 0.3907
3000.000000 0.3908 0.3909 0.3910 0.3912 0.3914
2995.000000 0.3916 0.3920 0.3922 0.3924 0.3926
2990.000000 0.3929 0.3930 0.3934 0.3936 0.3938
2985.000000 0.3941 0.3943 0.3946 0.3950 0.3957
2980.000000 0.3962 0.3968 0.3973 0.3979 0.3984
2975.000000 0.3990 0.3996 0.4002 0.4012 0.4024
2970.000000 0.4037 0.4049 0.4062 0.4075 0.4087
2965.000000 0.4101 0.4114 0.4128 0.4142 0.4158
2960.000000 0.4173 0.4189 0.4205 0.4221 0.4237
2955.000000 0.4253 0.4269 0.4284 0.4300 0.4320
2950.000000 0.4342 0.4364 0.4386 0.4409 0.4432
2945.000000 0.4454 0.4480 0.4508 0.4536 0.4568
2940.000000 0.4616 0.4662 0.4710 0.4762 0.4814
2935.000000 0.4867 0.4912 0.4943 0.4973 0.5002
2930.000000 0.5027 0.5050 0.5074 0.5093 0.5106
2925.000000 0.5120 0.5133 0.5147 0.5160 0.5174
2920.000000 0.5187 0.5201 0.5214 0.5227 0.5239
2915.000000 0.5250 0.5262 0.5272 0.5281 0.5316
2910.000000 0.5299 0.5307 0.5314 0.5321 0.5324
2905.000000 0.5326 0.5329 0.5331 0.5333 0.5336
2900.000000 0.5338 0.5338 0.5338 0.5338 0.5338
2895.000000 0.5338 0.5338 0.5336 0.5333 0.5329
2890.000000 0.5326 0.5321 0.5317 0.5312 0.5308
2885.000000 0.5303 0.5299 0.5295 0.5292 0.5290
2880.000000 0.5287 0.5285 0.5283 0.5281 0.5280
2875.000000 0.5279 0.5279 0.5280 0.5283 0.5286
2870.000000 0.5290 0.5297 0.5304 0.5310 0.5317
2865.000000 0.5324 0.5331 0.5339 0.5346 0.5353
2860.000000 0.5360 0.5370 0.5378 0.5387 0.5395
2855.000000 0.5404 0.5412 0.5420 0.5428 0.5436
2850.000000 0.5444 0.5452 0.5460 0.5467 0.5473
2845.000000 0.5480 0.5486 0.5492 0.5497 0.5502
2840.000000 0.5506 0.5510 0.5509 0.5516 0.5519
2835.000000 0.5522 0.5523 0.5523 0.5522 0.5521
2830.000000 0.5521 0.5521 0.5520 0.5508 0.5496
2825.000000 0.5484 0.5466 0.5447 0.5428 0.5412
2820.000000 0.5401 0.5389 0.5379 0.5373 0.5367
2815.000000 0.5360 0.5358 0.5354 0.5350 0.5349
2810.000000 0.5348 0.5348 0.5347 0.5347 0.5347
2805.000000 0.5346 0.5346 0.5346 0.5345 0.5344
2800.000000 0.5344 0.5341 0.5337 0.5333 0.5329
2795.000000 0.5325 0.5321 0.5317 0.5312 0.5308
2790.000000 0.5303 0.5294 0.5284 0.5275 0.5266
2785.000000 0.5257 0.5248 0.5238 0.5229 0.5220
2780.000000 0.5206 0.5191 0.5177 0.5156 0.5133
2775.000000 0.5110 0.5090 0.5070 0.5050 0.5039
2770.000000 0.5034 0.5029 0.5025 0.5021 0.5017
2765.000000 0.5014 0.5010 0.5007 0.5004 0.4999
2760.000000 0.4995 0.4988 0.4978 0.4967 0.4956
2755.000000 0.4945 0.4935 0.4919 0.4890 0.4860
2750.000000 0.4837 0.4825 0.4812 0.4802 0.4790
2745.000000 0.4778 0.4769 0.4765 0.4762 0.4759
2740.000000 0.4755 0.4752 0.4749 0.4745 0.4742
2735.000000 0.4739 0.4735 0.4732 0.4729 0.4725
2730.000000 0.4722 0.4719 0.4715 0.4710 0.4707
2725.000000 0.4702 0.4698 0.4692 0.4685 0.4678
2720.000000 0.4671 0.4664 0.4657 0.4650 0.4643
2715.000000 0.4635 0.4627 0.4617 0.4607 0.4597
2710.000000 0.4587 0.4577 0.4567 0.4557 0.4547
2705.000000 0.4537 0.4528 0.4518 0.4509 0.4501
2700.000000 0.4492 0.4486 0.4481 0.4475 0.4470
2695.000000 0.4465 0.4460 0.4455 0.4450 0.4445
2690.000000 0.4441 0.4437 0.4433 0.4429 0.4424
2685.000000 0.4420 0.4416 0.4410 0.4407 0.4404
2680.000000 0.4401 0.4398 0.4396 0.4393 0.4392
2675.000000 0.4390 0.4390 0.4389 0.4389 0.4389
2670.000000 0.4390 0.4390 0.4391 0.4391 0.4391
2665.000000 0.4392 0.4392 0.4392 0.4393 0.4395
2660.000000 0.4397 0.4399 0.4401 0.4404 0.4409
2655.000000 0.4416 0.4422 0.4431 0.4440 0.4449
2650.000000 0.4458 0.4468 0.4477 0.4486 0.4495
2645.000000 0.4504 0.4512 0.4520 0.4528 0.4535
2640.000000 0.4543 0.4549 0.4556 0.4562 0.4565
2635.000000 0.4568 0.4571 0.4571 0.4571 0.4571
2630.000000 0.4571 0.4571 0.4570 0.4570 0.4569
2625.000000 0.4569 0.4569 0.4568 0.4568 0.4568
2620.000000 0.4568 0.4570 0.4572 0.4575 0.4577
2615.000000 0.4580 0.4587 0.4593 0.4601 0.4610
2610.000000 0.4621 0.4634 0.4650 0.4666 0.4688
2605.000000 0.4712 0.4734 0.4751 0.4768 0.4779
2600.000000 0.4782 0.4786 0.4788 0.4790 0.4792
2595.000000 0.4793 0.4794 0.4795 0.4796 0.4796
2590.000000 0.4797 0.4797 0.4820 0.4779 0.4762
2585.000000 0.4742 0.4717 0.4691 0.4668 0.4646
2580.000000 0.4625 0.4610 0.4595 0.4580 0.4565
2575.000000 0.4550 0.4531 0.4510 0.4489 0.4468
2570.000000 0.4448 0.4429 0.4415 0.4401 0.4392
2565.000000 0.4386 0.4380 0.4380 0.4380 0.4381
2560.000000 0.4382 0.4382 0.4383 0.4383 0.4384
2555.000000 0.4387 0.4389 0.4393 0.4397 0.4402
2550.000000 0.4406 0.4410 0.4414 0.4419 0.4424
2545.000000 0.4426 0.4428 0.4430 0.4430 0.4430
2540.000000 0.4430 0.4429 0.4427 0.4421 0.4415
2535.000000 0.4408 0.4402 0.4396 0.4388 0.4380
2530.000000 0.4372 0.4362 0.4351 0.4344 0.4337
2525.000000 0.4332 0.4328 0.4309 0.4320 0.4316
2520.000000 0.4312 0.4312 0.4312 0.4312 0.4312
2515.000000 0.4312 0.4312 0.4312 0.4312 0.4312
2510.000000 0.4315 0.4320 0.4325 0.4334 0.4346
2505.000000 0.4359 0.4371 0.4384 0.4396 0.4408
2500.000000 0.4420 0.4431 0.4443 0.4454 0.4466
2495.000000 0.4478 0.4489 0.4501 0.4512 0.4524
2490.000000 0.4536 0.4549 0.4560 0.4575 0.4590
2485.000000 0.4605 0.4620 0.4636 0.4651 0.4666
2480.000000 0.4681 0.4696 0.4712 0.4727 0.4742
2475.000000 0.4756 0.4767 0.4777 0.4788 0.4799
2470.000000 0.4809 0.4819 0.4830 0.4840 0.4851
2465.000000 0.4862 0.4872 0.4883 0.4893 0.4904
2460.000000 0.4914 0.4925 0.4936 0.4947 0.4957
2455.000000 0.4968 0.4978 0.4988 0.4998 0.5008
2450.000000 0.5019 0.5029 0.5040 0.5050 0.5060
2445.000000 0.5071 0.5081 0.5092 0.5104 0.5116
2440.000000 0.5129 0.5143 0.5156 0.5169 0.5182
2435.000000 0.5195 0.5208 0.5221 0.5234 0.5249
2430.000000 0.5264 0.5279 0.5293 0.5308 0.5324
2425.000000 0.5339 0.5355 0.5370 0.5386 0.5402
2420.000000 0.5418 0.5433 0.5448 0.5462 0.5478
2415.000000 0.5492 0.5507 0.5521 0.5535 0.5548
2410.000000 0.5560 0.5571 0.5581 0.5588 0.5595
2405.000000 0.5601 0.5606 0.5610 0.5616 0.5621
2400.000000 0.5627 0.5632 0.5637 0.5643 0.5645
2395.000000 0.5646 0.5647 0.5647 0.5648 0.5649
2390.000000 0.5650 0.5651 0.5652 0.5654 0.5655
2385.000000 0.5656 0.5658 0.5660 0.5668 0.5675
2380.000000 0.5684 0.5694 0.5705 0.5718 0.5731
2375.000000 0.5743 0.5756 0.5768 0.5780 0.5793
2370.000000 0.5806 0.5819 0.5831 0.5845 0.5859
2365.000000 0.5874 0.5891 0.5907 0.5922 0.5938
2360.000000 0.5954 0.5969 0.5985 0.6002 0.6017
2355.000000 0.6032 0.6047 0.6062 0.6076 0.6090
2350.000000 0.6104 0.6118 0.6132 0.6146 0.6160
2345.000000 0.6175 0.6189 0.6204 0.6218 0.6232
2340.000000 0.6247 0.6262 0.6277 0.6293 0.6308
2335.000000 0.6323 0.6339 0.6354 0.6370 0.6385
2330.000000 0.6399 0.6408 0.6418 0.6428 0.6437
2325.000000 0.6447 0.6456 0.6465 0.6475 0.6485
2320.000000 0.6494 0.6504 0.6512 0.6522 0.6532
2315.000000 0.6542 0.6551 0.6561 0.6571 0.6580
2310.000000 0.6590 0.6600 0.6608 0.6618 0.6625
2305.000000 0.6633 0.6641 0.6648 0.6655 0.6661
2300.000000 0.6669 0.6676 0.6684 0.6691 0.6698
2295.000000 0.6705 0.6711 0.6719 0.6726 0.6734
2290.000000 0.6742 0.6749 0.6756 0.6764 0.6771
2285.000000 0.6778 0.6785 0.6792 0.6800 0.6808
2280.000000 0.6815 0.6822 0.6831 0.6839 0.6847
2275.000000 0.6855 0.6862 0.6871 0.6878 0.6888
2270.000000 0.6896 0.6903 0.6911 0.6919 0.6928
2265.000000 0.6936 0.6944 0.6951 0.6960 0.6968
2260.000000 0.6975 0.6984 0.6992 0.7000 0.7008
2255.000000 0.7017 0.7024 0.7031 0.7038 0.7045
2250.000000 0.7051 0.7058 0.7065 0.7072 0.7080
2245.000000 0.7087 0.7094 0.7101 0.7108 0.7115
2240.000000 0.7121 0.7128 0.7135 0.7142 0.7149
2235.000000 0.7156 0.7162 0.7169 0.7176 0.7184
2230.000000 0.7191 0.7198 0.7205 0.7211 0.7218
2225.000000 0.7225 0.7233 0.7241 0.7248 0.7255
2220.000000 0.7261 0.7269 0.7276 0.7285 0.7292
2215.000000 0.7300 0.7307 0.7314 0.7321 0.7328
2210.000000 0.7337 0.7344 0.7351 0.7358 0.7365
2205.000000 0.7374 0.7381 0.7389 0.7396 0.7403
2200.000000 0.7411 0.7418 0.7425 0.7433 0.7441
2195.000000 0.7449 0.7456 0.7462 0.7471 0.7478
2190.000000 0.7486 0.7494 0.7501 0.7508 0.7515
2185.000000 0.7522 0.7530 0.7537 0.7545 0.7551
2180.000000 0.7560 0.7567 0.7572 0.7581 0.7588
2175.000000 0.7595 0.7603 0.7610 0.7618 0.7625
2170.000000 0.7632 0.7639 0.7646 0.7654 0.7661
2165.000000 0.7668 0.7675 0.7683 0.7690 0.7698
2160.000000 0.7705 0.7712 0.7719 0.7728 0.7735
2155.000000 0.7742 0.7749 0.7757 0.7764 0.7771
2150.000000 0.7778 0.7786 0.7794 0.7801 0.7808
2145.000000 0.7815 0.7821 0.7830 0.7837 0.7844
2140.000000 0.7851 0.7858 0.7865 0.7874 0.7881
2135.000000 0.7888 0.7895 0.7901 0.7910 0.7918
2130.000000 0.7925 0.7932 0.7939 0.7947 0.7954
2125.000000 0.7961 0.7968 0.7975 0.7983 0.7989
2120.000000 0.7995 0.8001 0.8008 0.8015 0.8021
2115.000000 0.8028 0.8035 0.8041 0.8047 0.8054
2110.000000 0.8061 0.8067 0.8072 0.8080 0.8087
2105.000000 0.8093 0.8100 0.8106 0.8112 0.8118
2100.000000 0.8125 0.8132 0.8139 0.8146 0.8151
2095.000000 0.8158 0.8165 0.8172 0.8180 0.8187
2090.000000 0.8195 0.8202 0.8209 0.8216 0.8224
2085.000000 0.8231 0.8239 0.8246 0.8253 0.8260
2080.000000 0.8267 0.8275 0.8282 0.8289 0.8297
2075.000000 0.8304 0.8312 0.8318 0.8325 0.8333
2070.000000 0.8341 0.8349 0.8356 0.8363 0.8370
2065.000000 0.8378 0.8386 0.8393 0.8400 0.8408
2060.000000 0.8415 0.8423 0.8431 0.8438 0.8445
2055.000000 0.8453 0.8460 0.8468 0.8475 0.8483
2050.000000 0.8491 0.8499 0.8507 0.8516 0.8524
2045.000000 0.8532 0.8541 0.8549 0.8558 0.8566
2040.000000 0.8574 0.8583 0.8591 0.8600 0.8608
2035.000000 0.8616 0.8624 0.8630 0.8637 0.8645
2030.000000 0.8652 0.8659 0.8666 0.8674 0.8681
2025.000000 0.8688 0.8695 0.8702 0.8709 0.8717
2020.000000 0.8723 0.8730 0.8737 0.8743 0.8748
2015.000000 0.8754 0.8760 0.8766 0.8771 0.8777
2010.000000 0.8783 0.8787 0.8790 0.8793 0.8797
2005.000000 0.8800 0.8804 0.8807 0.8809 0.8811
2000.000000 0.8814 0.8816 0.8818 0.8820 0.8823
1995.000000 0.8825 0.8828 0.8830 0.8832 0.8839
1990.000000 0.8846 0.8853 0.8860 0.8867 0.8874
1985.000000 0.8881 0.8888 0.8894 0.8899 0.8904
1980.000000 0.8910 0.8915 0.8920 0.8924 0.8928
1975.000000 0.8934 0.8939 0.8944 0.8949 0.8954
1970.000000 0.8959 0.8964 0.8968 0.8974 0.8978
1965.000000 0.8984 0.8988 0.8992 0.8996 0.8999
1960.000000 0.9003 0.9006 0.9010 0.9014 0.9018
1955.000000 0.9021 0.9025 0.9028 0.9033 0.9037
1950.000000 0.9041 0.9044 0.9048 0.9052 0.9056
1945.000000 0.9060 0.9064 0.9067 0.9070 0.9074
1940.000000 0.9078 0.9082 0.9085 0.9089 0.9093
1935.000000 0.9096 0.9100 0.9104 0.9108 0.9112
1930.000000 0.9116 0.9120 0.9124 0.9127 0.9131
1925.000000 0.9134 0.9137 0.9141 0.9144 0.9148
1920.000000 0.9152 0.9155 0.9159 0.9162 0.9166
1915.000000 0.9168 0.9171 0.9175 0.9178 0.9182
1910.000000 0.9185 0.9188 0.9191 0.9193 0.9196
1905.000000 0.9199 0.9202 0.9204 0.9207 0.9210
1900.000000 0.9213 0.9215 0.9218 0.9221 0.9224
1895.000000 0.9227 0.9228 0.9233 0.9237 0.9243
1890.000000 0.9249 0.9296 0.9261 0.9267 0.9273
1885.000000 0.9277 0.9277 0.9275 0.9273 0.9268
1880.000000 0.9265 0.9261 0.9256 0.9252 0.9248
1875.000000 0.9243 0.9239 0.9235 0.9227 0.9218
1870.000000 0.9206 0.9197 0.9188 0.9178 0.9173
1865.000000 0.9166 0.9160 0.9153 0.9146 0.9138
1860.000000 0.9128 0.9121 0.9112 0.9103 0.9093
1855.000000 0.9088 0.9034 0.9080 0.9080 0.9080
1850.000000 0.9087 0.9093 0.9101 0.9112 0.9124
1845.000000 0.9137 0.9149 0.9157 0.9163 0.9167
1840.000000 0.9171 0.9177 0.9182 0.9186 0.9190
1835.000000 0.9195 0.9199 0.9204 0.9205 0.9206
1830.000000 0.9206 0.9206 0.9207 0.9207 0.9207
1825.000000 0.9208 0.9207 0.9205 0.9201 0.9196
1820.000000 0.9192 0.9188 0.9184 0.9178 0.9175
1815.000000 0.9171 0.9167 0.9163 0.9156 0.9150
1810.000000 0.9144 0.9138 0.9131 0.9124 0.9118
1805.000000 0.9112 0.9106 0.9100 0.9095 0.9089
1800.000000 0.9082 0.9077 0.9071 0.9065 0.9060
1795.000000 0.9053 0.9048 0.9041 0.9031 0.9021
1790.000000 0.9012 0.9002 0.8993 0.8984 0.8973
1785.000000 0.8964 0.8954 0.8944 0.8933 0.8921
1780.000000 0.8912 0.8902 0.8892 0.8881 0.8871
1775.000000 0.8861 0.8851 0.8841 0.8831 0.8821
1770.000000 0.8812 0.8802 0.8792 0.8783 0.8771
1765.000000 0.8762 0.8753 0.8743 0.8733 0.8723
1760.000000 0.8712 0.8701 0.8688 0.8675 0.8664
1755.000000 0.8652 0.8640 0.8628 0.8615 0.8603
1750.000000 0.8591 0.8578 0.8563 0.8547 0.8531
1745.000000 0.8516 0.8500 0.8485 0.8468 0.8453
1740.000000 0.8436 0.8418 0.8399 0.8381 0.8362
1735.000000 0.8343 0.8325 0.8307 0.8285 0.8258
1730.000000 0.8228 0.8199 0.8168 0.8140 0.8110
1725.000000 0.8078 0.8045 0.8004 0.7961 0.7921
1720.000000 0.7881 0.7839 0.7799 0.7761 0.7722
1715.000000 0.7685 0.7647 0.7607 0.7562 0.7510
1710.000000 0.7457 0.7404 0.7350 0.7294 0.7231
1705.000000 0.7162 0.7095 0.7026 0.6957 0.6886
1700.000000 0.6815 0.6745 0.6674 0.6603 0.6532
1695.000000 0.6461 0.6391 0.6321 0.6251 0.6177
1690.000000 0.6101 0.6024 0.5945 0.5839 0.5722
1685.000000 0.5587 0.5415 0.5196 0.4998 0.4897
1680.000000 0.4809 0.4619 0.4482 0.4348 0.4215
1675.000000 0.4082 0.3948 0.3814 0.3688 0.3620
1670.000000 0.3602 0.3604 0.3608 0.3610 0.3616
1665.000000 0.3664 0.3749 0.3832 0.3918 0.4003
1660.000000 0.4088 0.4172 0.4257 0.4342 0.4427
1655.000000 0.4512 0.4598 0.4683 0.4769 0.4854
1650.000000 0.4941 0.5022 0.5047 0.5055 0.5019
1645.000000 0.4929 0.4828 0.4726 0.4625 0.4523
1640.000000 0.4421 0.4318 0.4242 0.4239 0.4314
1635.000000 0.4484 0.4654 0.4824 0.4995 0.5165
1630.000000 0.5336 0.5507 0.5666 0.5807 0.5951
1625.000000 0.6101 0.6247 0.6399 0.6584 0.6807
1620.000000 0.7004 0.7107 0.7196 0.7276 0.7328
1615.000000 0.7382 0.7435 0.7482 0.7519 0.7556
1610.000000 0.7594 0.7630 0.7667 0.7697 0.7721
1605.000000 0.7745 0.7768 0.7791 0.7811 0.7831
1600.000000 0.7850 0.7868 0.7885 0.7896 0.7907
1595.000000 0.7918 0.7931 0.7943 0.7954 0.7965
1590.000000 0.7976 0.7988 0.7999 0.8011 0.8021
1585.000000 0.8033 0.8043 0.8053 0.8062 0.8072
1580.000000 0.8083 0.8092 0.8099 0.8107 0.8114
1575.000000 0.8121 0.8128 0.8133 0.8157 0.8137
1570.000000 0.8137 0.8137 0.8134 0.8131 0.8128
1565.000000 0.8125 0.8118 0.8111 0.8105 0.8097
1560.000000 0.8087 0.8076 0.8064 0.8047 0.8031
1555.000000 0.8014 0.7997 0.7975 0.7937 0.7892
1550.000000 0.7840 0.7785 0.7728 0.7668 0.7603
1545.000000 0.7467 0.7291 0.7151 0.7018 0.6906
1540.000000 0.6765 0.6544 0.6280 0.6068 0.5919
1535.000000 0.5717 0.5481 0.5244 0.5006 0.4768
1530.000000 0.4530 0.4292 0.4054 0.3814 0.3575
1525.000000 0.3336 0.3096 0.2856 0.2615 0.2374
1520.000000 0.2133 0.2007 0.1984 0.1979 0.1990
1515.000000 0.1976 0.2008 0.2150 0.2323 0.2496
1510.000000 0.2670 0.2844 0.3018 0.3192 0.3366
1505.000000 0.3541 0.3716 0.3843 0.3855 0.3824
1500.000000 0.3734 0.3630 0.3528 0.3423 0.3318
1495.000000 0.3214 0.3133 0.3112 0.3137 0.3224
1490.000000 0.3330 0.3439 0.3547 0.3654 0.3762
1485.000000 0.3871 0.3979 0.4088 0.4196 0.4302
1480.000000 0.4366 0.4415 0.4458 0.4499 0.4527
1475.000000 0.4541 0.4559 0.4583 0.4617 0.4657
1470.000000 0.4694 0.4727 0.4753 0.4770 0.4785
1465.000000 0.4792 0.4791 0.4768 0.4707 0.4652
1460.000000 0.4610 0.4589 0.4575 0.4537 0.4416
1455.000000 0.4322 0.4256 0.4232 0.4228 0.4310
1450.000000 0.4499 0.4691 0.4884 0.5076 0.5269
1445.000000 0.5462 0.5656 0.5797 0.5827 0.5817
1440.000000 0.5771 0.5723 0.5674 0.5626 0.5598
1435.000000 0.5595 0.5632 0.5755 0.5882 0.6009
1430.000000 0.6133 0.6218 0.6259 0.6296 0.6333
1425.000000 0.6362 0.6387 0.6437 0.6411 0.6407
1420.000000 0.6399 0.6382 0.6362 0.6343 0.6316
1415.000000 0.6275 0.6232 0.6189 0.6139 0.6076
1410.000000 0.6008 0.5938 0.5862 0.5786 0.5710
1405.000000 0.5639 0.5566 0.5493 0.5409 0.5314
1400.000000 0.5208 0.5046 0.4924 0.4821 0.4721
1395.000000 0.4620 0.4519 0.4418 0.4316 0.4215
1390.000000 0.4114 0.4012 0.3910 0.3809 0.3707
1385.000000 0.3606 0.3546 0.3546 0.3546 0.3592
1380.000000 0.3653 0.3721 0.3699 0.3710 0.3682
1375.000000 0.3623 0.3523 0.3522 0.3522 0.3573
1370.000000 0.3716 0.3868 0.4021 0.4173 0.4326
1365.000000 0.4480 0.4633 0.4786 0.4940 0.5036
1360.000000 0.5056 0.5062 0.5062 0.5062 0.5026
1355.000000 0.4795 0.4710 0.4665 0.4629 0.4583
1350.000000 0.4508 0.4243 0.4034 0.3826 0.3626
1345.000000 0.3543 0.3579 0.3643 0.3707 0.3734
1340.000000 0.3644 0.3376 0.3084 0.2793 0.2517
1335.000000 0.2370 0.2291 0.2233 0.2191 0.2216
1330.000000 0.2252 0.2318 0.2450 0.2541 0.2560
1325.000000 0.2571 0.2583 0.2597 0.2633 0.2765
1320.000000 0.2974 0.3164 0.3354 0.3543 0.3732
1315.000000 0.3923 0.4112 0.4303 0.4494 0.4686
1310.000000 0.4877 0.5068 0.5260 0.5453 0.5645
1305.000000 0.5772 0.5786 0.5791 0.5750 0.5618
1300.000000 0.5353 0.5081 0.4808 0.4536 0.4262
1295.000000 0.4059 0.4018 0.4086 0.4160 0.4233
1290.000000 0.4308 0.4381 0.4447 0.4434 0.4360
1285.000000 0.4241 0.4121 0.4003 0.3882 0.3791
1280.000000 0.3810 0.3882 0.3996 0.4109 0.4222
1275.000000 0.4335 0.4448 0.4560 0.4645 0.4694
1270.000000 0.4757 0.4842 0.4971 0.5075 0.5188
1265.000000 0.5255 0.5275 0.5239 0.5152 0.5066
1260.000000 0.4980 0.4917 0.4910 0.4938 0.5035
1255.000000 0.5139 0.5242 0.5345 0.5449 0.5553
1250.000000 0.5657 0.5760 0.5866 0.5957 0.6029
1245.000000 0.6093 0.6153 0.6212 0.6267 0.6312
1240.000000 0.6357 0.6392 0.6414 0.6425 0.6430
1235.000000 0.6422 0.6377 0.6326 0.6276 0.6242
1230.000000 0.6257 0.6302 0.6366 0.6435 0.6515
1225.000000 0.6615 0.6699 0.6748 0.6768 0.6765
1220.000000 0.6775 0.6761 0.6738 0.6706 0.6630
1215.000000 0.6506 0.6358 0.6210 0.6062 0.5914
1210.000000 0.5775 0.5774 0.5773 0.5835 0.5910
1205.000000 0.5988 0.6057 0.6088 0.6103 0.6107
1200.000000 0.6106 0.6099 0.6064 0.6014 0.5897
1195.000000 0.5717 0.5562 0.5344 0.5134 0.4923
1190.000000 0.4712 0.4501 0.4290 0.4078 0.3864
1185.000000 0.3814 0.3806 0.3838 0.3903 0.3966
1180.000000 0.4025 0.4034 0.3950 0.3782 0.3616
1175.000000 0.3450 0.3282 0.3116 0.2948 0.2780
1170.000000 0.2612 0.2443 0.2275 0.2106 0.1935
1165.000000 0.1767 0.1725 0.1724 0.1775 0.1843
1160.000000 0.1876 0.1892 0.1884 0.1837 0.1745
1155.000000 0.1637 0.1517 0.1410 0.1316 0.1236
1150.000000 0.1169 0.1105 0.1058 0.1011 0.0937
1145.000000 0.0888 0.0864 0.0838 0.0809 0.0779
1140.000000 0.0747 0.0713 0.0676 0.0638 0.0589
1135.000000 0.0533 0.0477 0.0433 0.0397 0.0360
1130.000000 0.0406 0.0496 0.0595 0.0675 0.0749
1125.000000 0.0826 0.0932 0.1042 0.1134 0.1225
1120.000000 0.1302 0.1377 0.1463 0.1579 0.1673
1115.000000 0.1752 0.1829 0.1890 0.1908 0.1919
1110.000000 0.1943 0.1929 0.1920 0.1889 0.1839
1105.000000 0.1754 0.1675 0.1595 0.1515 0.1434
1100.000000 0.1353 0.1272 0.1192 0.1110 0.1029
1095.000000 0.0946 0.0867 0.0811 0.0761 0.0712
1090.000000 0.0676 0.0658 0.0641 0.0640 0.0640
1085.000000 0.0638 0.0608 0.0548 0.0473 0.0387
1080.000000 0.0318 0.0300 0.0313 0.0384 0.0488
1075.000000 0.0586 0.0671 0.0739 0.0790 0.0826
1070.000000 0.0864 0.0929 0.1000 0.1062 0.1092
1065.000000 0.1112 0.1120 0.1122 0.1104 0.1080
1060.000000 0.1049 0.1020 0.0996 0.0975 0.0962
1055.000000 0.0952 0.0951 0.0951 0.0955 0.0962
1050.000000 0.0970 0.0986 0.1000 0.1026 0.1058
1045.000000 0.1129 0.1184 0.1215 0.1230 0.1237
1040.000000 0.1242 0.1244 0.1244 0.1245 0.1248
1035.000000 0.1305 0.1422 0.1544 0.1679 0.1786
1030.000000 0.1870 0.1934 0.1971 0.1999 0.2028
1025.000000 0.2087 0.2172 0.2292 0.2474 0.2684
1020.000000 0.3032 0.3230 0.3428 0.3626 0.3823
1015.000000 0.4022 0.4221 0.4420 0.4614 0.4735
1010.000000 0.4842 0.4946 0.5048 0.5151 0.5262
1005.000000 0.5378 0.5498 0.5630 0.5746 0.5842
1000.000000 0.5907 0.5964 0.6016 0.6043 0.6045
995.000000 0.6049 0.5941 0.5745 0.5549 0.5352
990.000000 0.5171 0.5150 0.5196 0.5324 0.5403
985.000000 0.5471 0.5502 0.5498 0.5443 0.5327
980.000000 0.5067 0.4590 0.4112 0.3557 0.3550
975.000000 0.3727 0.3975 0.4222 0.4470 0.4621
970.000000 0.4639 0.4435 0.4170 0.3904 0.3758
965.000000 0.3862 0.4114 0.4366 0.4618 0.4871
960.000000 0.5055 0.5085 0.5094 0.5075 0.4945
955.000000 0.4814 0.4708 0.4727 0.4846 0.4994
950.000000 0.5143 0.5292 0.5344 0.5180 0.4778
945.000000 0.4375 0.4039 0.3991 0.4055 0.4238
940.000000 0.4422 0.4606 0.4712 0.4547 0.4292
935.000000 0.4036 0.4076 0.4360 0.4645 0.4932
930.000000 0.5200 0.5453 0.5619 0.5789 0.6003
925.000000 0.6210 0.6316 0.6316 0.6316 0.6258
920.000000 0.6231 0.6251 0.6370 0.6542 0.6708
915.000000 0.6851 0.6971 0.7058 0.7134 0.7190
910.000000 0.7247 0.7291 0.7326 0.7362 0.7397
905.000000 0.7430 0.7462 0.7489 0.7511 0.7531
900.000000 0.7549 0.7549 0.7546 0.7528 0.7485
895.000000 0.7403 0.7311 0.7244 0.7199 0.7164
890.000000 0.7157 0.7181 0.7211 0.7249 0.7274
885.000000 0.7275 0.7254 0.7207 0.7081 0.6921
880.000000 0.6704 0.6431 0.5904 0.5383 0.4860
875.000000 0.4378 0.4389 0.4884 0.5473 0.5896
870.000000 0.6183 0.6393 0.6578 0.6746 0.6845
865.000000 0.6921 0.6982 0.7026 0.7060 0.7090
860.000000 0.7078 0.7062 0.7025 0.6933 0.6793
855.000000 0.6567 0.6126 0.5777 0.5296 0.4794
850.000000 0.4523 0.4118 0.4165 0.4243 0.4546
845.000000 0.4849 0.5121 0.5367 0.5536 0.5673
840.000000 0.5776 0.5875 0.5968 0.6058 0.6141
835.000000 0.6210 0.6270 0.6328 0.6385 0.6424
830.000000 0.6456 0.6488 0.6505 0.6512 0.6571
825.000000 0.6521 0.6521 0.6514 0.6491 0.6455
820.000000 0.6405 0.6330 0.6257 0.6191 0.6144
815.000000 0.6100 0.6062 0.6008 0.5943 0.5850
810.000000 0.5748 0.5632 0.5453 0.5201 0.4973
805.000000 0.4815 0.4660 0.4502 0.4302 0.4032
800.000000 0.3649 0.3260 0.2873 0.2484 0.2147
795.000000 0.2020 0.2039 0.2110 0.2280 0.2631
790.000000 0.3002 0.3374 0.3747 0.4120 0.4495
785.000000 0.4815 0.4992 0.5117 0.5171 0.5164
780.000000 0.5083 0.4973 0.4883 0.4787 0.4836
775.000000 0.4997 0.5165 0.5347 0.5496 0.5642
770.000000 0.5770 0.5856 0.5912 0.5930 0.5942
765.000000 0.5914 0.5826 0.5541 0.5081 0.4619
760.000000 0.4157 0.3923 0.3975 0.4349 0.4750
755.000000 0.5050 0.5297 0.5469 0.5627 0.5737
750.000000 0.5805 0.5856 0.5900 0.5932 0.5954
745.000000 0.5971 0.5987 0.5998 0.6006 0.6015
740.000000 0.6030 0.6017 0.6016 0.6014 0.6000
735.000000 0.5985 0.5969 0.5949 0.5929 0.5910
730.000000 0.5880 0.5843 0.5805 0.5760 0.5717
725.000000 0.5667 0.5615 0.5548 0.5442 0.5293
720.000000 0.5142 0.5010 0.4899 0.4814 0.4773
715.000000 0.4798 0.4826 0.4870 0.4828 0.4714
710.000000 0.4573 0.4462 0.4360 0.4259 0.4182
705.000000 0.4108 0.4026 0.4020 0.4064 0.4141
700.000000 0.4218 0.4300 0.4377 0.4450 0.4517
695.000000 0.4572 0.4578 0.4578 0.4577 0.4572
690.000000 0.4567 0.4552 0.4538 0.4523 0.4508
685.000000 0.4491 0.4468 0.4442 0.4412 0.4373
680.000000 0.4321 0.4248 0.4173 0.4102 0.4036
675.000000 0.3982 0.3937 0.3912 0.3893 0.3884
670.000000 0.3896 0.3927 0.3952 0.3966 0.3966
665.000000 0.3962 0.3950 0.3926 0.3897 0.3856
660.000000 0.3810 0.3744 0.3677 0.3620 0.3568
655.000000 0.3516 0.3455 0.3395
##END=
