##TITLE=2-PYRIMIDINESULFONIC ACID, 4,6-DIAMINOTHIO-, S-TRICHLOROMETHYL ESTER
##JCAMP-DX=4.24
##DATA TYPE=INFRARED SPECTRUM
##CLASS=COBLENTZ III
##ORIGIN=SOUTHERN RESEARCH INSTITUTE
##OWNER=COBLENTZ SOCIETY
Collection (C) 2018 copyright by the U.S. Secretary of Commerce
on behalf of the United States of America. All rights reserved.
##DATE=1960/12/06
##NAMES=S-(trichloromethyl) 4,6-diamino-2-pyrimidinesulfonothioate
##MOLFORM=C5 H5 Cl3 N4 O2 S2
##SOURCE REFERENCE=COBLENTZ NO. 8406
##$NIST ID=B6008406
##$NIST SOURCE=COBLENTZ
##$NIST IMAGE=cob8406
##SPECTROMETER/DATA SYSTEM=PERKIN-ELMER 221 (GRATING)
##INSTRUMENT PARAMETERS=FILTERS CHANGE AT 2490, 980 CM^-^1, GRATING FOR 4000-1428 CM^-^1, NaCl PRISM FOR 1428-650 CM^-^1
##STATE=SOLID (0.8 mg / 650 mg KBr DISC)
##SAMPLING PROCEDURE=TRANSMISSION
##RESOLUTION=4
##DATA PROCESSING=DIGITIZED BY NIST FROM HARD COPY
##XUNITS=1/CM
##YUNITS=TRANSMITTANCE
##XFACTOR=1.000000
##YFACTOR=1
##DELTAX=001.528273
##FIRSTX=650.433
##LASTX=4009.58
##FIRSTY=0.791
##MAXX=4009.58
##MINX=650.433
##MAXY=0.818
##MINY=0.083
##NPOINTS=2199
##XYDATA=(X++(Y..Y))
650.433000 0.7910 0.7880 0.7820 0.7780 0.7740
658.077844 0.7730 0.7710 0.7360 0.6990 0.6880
665.716000 0.6760 0.6640 0.6510 0.6380 0.6390
673.360844 0.6410 0.6520 0.6630 0.6740 0.6830
680.998000 0.6930 0.7030 0.7130 0.7240 0.7340
688.642844 0.7440 0.7550 0.7670 0.7790 0.7820
696.281000 0.7820 0.7830 0.7840 0.7850 0.7850
703.925844 0.7850 0.7860 0.7860 0.7870 0.7870
711.564000 0.7870 0.7870 0.7860 0.7850 0.7840
719.208844 0.7820 0.7800 0.7770 0.7730 0.7680
726.847000 0.7630 0.7570 0.7500 0.7440 0.7370
734.491844 0.7300 0.7220 0.7150 0.7070 0.6880
742.129000 0.6650 0.6410 0.6140 0.5870 0.5610
749.773844 0.5440 0.5330 0.5330 0.5620 0.5770
757.412000 0.5920 0.6080 0.6230 0.6380 0.6490
765.056844 0.6540 0.6560 0.6580 0.6570 0.6550
772.695000 0.6160 0.5990 0.5830 0.5520 0.5500
780.339844 0.5520 0.5590 0.5680 0.5810 0.5970
787.978000 0.6570 0.6570 0.6560 0.6480 0.6440
795.622844 0.6320 0.5990 0.5750 0.5560 0.5340
803.260000 0.5280 0.5280 0.5420 0.5810 0.6000
810.904844 0.6190 0.6410 0.6650 0.6900 0.7140
818.543000 0.7150 0.7170 0.7180 0.7170 0.7160
826.187844 0.7150 0.7110 0.7010 0.6800 0.6580
833.826000 0.6460 0.6330 0.6300 0.6330 0.6450
841.470844 0.6570 0.6700 0.6830 0.6960 0.7100
849.109000 0.7230 0.7350 0.7460 0.7540 0.7610
856.753844 0.7660 0.7660 0.7680 0.7690 0.7700
864.391000 0.7710 0.7710 0.7720 0.7730 0.7730
872.035844 0.7730 0.7730 0.7730 0.7730 0.7720
879.674000 0.7710 0.7710 0.7700 0.7690 0.7690
887.318844 0.7690 0.7680 0.7680 0.7670 0.7660
894.957000 0.7660 0.7640 0.7620 0.7600 0.7600
902.601844 0.7590 0.7590 0.7590 0.7570 0.7570
910.239000 0.7540 0.7530 0.7520 0.7510 0.7500
917.883844 0.7500 0.7490 0.7490 0.7500 0.7500
925.522000 0.7510 0.7510 0.7510 0.7530 0.7530
933.166844 0.7530 0.7530 0.7530 0.7530 0.7530
940.805000 0.7530 0.7530 0.7520 0.7510 0.7500
948.449844 0.7490 0.7470 0.7440 0.7410 0.7380
956.088000 0.7350 0.7310 0.7280 0.7240 0.7200
963.732844 0.7170 0.7150 0.7150 0.7140 0.7140
971.370000 0.7140 0.7130 0.7110 0.7090 0.6960
979.014844 0.6840 0.6740 0.6130 0.5750 0.5740
986.653000 0.5740 0.5720 0.5700 0.5390 0.5390
994.297844 0.7280 0.7300 0.7310 0.7320 0.7320
1001.936000 0.7320 0.7310 0.7310 0.7310 0.7310
1009.580844 0.7310 0.7300 0.7290 0.7280 0.7250
1017.219000 0.7240 0.7220 0.7180 0.7160 0.7140
1024.863844 0.7120 0.7120 0.7110 0.7090 0.7090
1032.501000 0.7070 0.7060 0.7050 0.7040 0.7030
1040.145844 0.7020 0.7020 0.7010 0.7000 0.6990
1047.784000 0.6990 0.6990 0.6980 0.6980 0.6970
1055.428844 0.6970 0.6960 0.6960 0.6960 0.6970
1063.067000 0.6980 0.6980 0.6980 0.6980 0.6990
1070.711844 0.6990 0.6990 0.6980 0.6980 0.6980
1078.349000 0.6970 0.6960 0.6960 0.6940 0.6900
1085.993844 0.6860 0.6830 0.6800 0.6770 0.6750
1093.632000 0.6730 0.6710 0.6700 0.6680 0.6670
1101.276844 0.6650 0.6640 0.6620 0.6610 0.6590
1108.915000 0.6570 0.6540 0.6520 0.6490 0.6460
1116.559844 0.6420 0.6380 0.6350 0.6290 0.6260
1124.198000 0.6240 0.6210 0.6160 0.6100 0.6020
1131.842844 0.5910 0.5750 0.5550 0.5290 0.4960
1139.480000 0.4560 0.4080 0.3230 0.2950 0.2950
1147.124844 0.3180 0.3200 0.3690 0.4370 0.5040
1154.763000 0.5690 0.5700 0.5710 0.5960 0.6240
1162.407844 0.6260 0.6380 0.6450 0.6520 0.6590
1170.046000 0.6740 0.6770 0.6800 0.6830 0.6850
1177.690844 0.6860 0.6880 0.6880 0.6880 0.6880
1185.329000 0.6870 0.6870 0.6860 0.6860 0.6850
1192.973844 0.6830 0.6830 0.6810 0.6800 0.6790
1200.611000 0.6770 0.6760 0.6740 0.6730 0.6700
1208.255844 0.6690 0.6670 0.6640 0.6620 0.6600
1215.894000 0.6570 0.6550 0.6530 0.6510 0.6490
1223.538844 0.6480 0.6470 0.6460 0.6450 0.6440
1231.177000 0.6440 0.6430 0.6420 0.6420 0.6410
1238.821844 0.6390 0.6360 0.6350 0.6320 0.6300
1246.459000 0.6290 0.6280 0.6260 0.6260 0.6230
1254.103844 0.6200 0.6180 0.6150 0.6130 0.6100
1261.742000 0.6100 0.6130 0.6320 0.6400 0.6440
1269.386844 0.6470 0.6510 0.6530 0.6540 0.6540
1277.025000 0.6530 0.6510 0.6500 0.6480 0.6470
1284.669844 0.6430 0.6390 0.6360 0.6310 0.6260
1292.308000 0.6210 0.6160 0.6090 0.6070 0.6080
1299.952844 0.6260 0.6520 0.6590 0.6660 0.6700
1307.590000 0.6770 0.6800 0.6820 0.6830 0.6830
1315.234844 0.6830 0.6830 0.6810 0.6780 0.6690
1322.873000 0.6580 0.6450 0.6350 0.6300 0.6230
1330.517844 0.5990 0.5920 0.5620 0.5230 0.4820
1338.156000 0.4410 0.3670 0.3030 0.2970 0.2970
1345.800844 0.3120 0.4030 0.4640 0.5030 0.5290
1353.439000 0.5510 0.5780 0.6160 0.6400 0.6600
1361.083844 0.6770 0.6930 0.7060 0.7160 0.7250
1368.721000 0.7320 0.7380 0.7430 0.7470 0.7500
1376.365844 0.7520 0.7530 0.7550 0.7570 0.7570
1384.004000 0.7570 0.7580 0.7590 0.7600 0.7610
1391.648844 0.7630 0.7630 0.7640 0.7660 0.7670
1399.287000 0.7680 0.7690 0.7690 0.7700 0.7710
1406.931844 0.7720 0.7730 0.7730 0.7730 0.7730
1414.570000 0.7730 0.7730 0.7730 0.7730 0.7730
1422.214844 0.7720 0.7630 0.7490 0.7470 0.7430
1429.852000 0.7390 0.7350 0.7320 0.7290 0.7270
1437.496844 0.7250 0.7220 0.7200 0.7180 0.7170
1445.135000 0.7160 0.7150 0.7150 0.7140 0.7130
1452.779844 0.7110 0.7070 0.7020 0.6990 0.6940
1460.418000 0.6890 0.6830 0.6750 0.6660 0.6540
1468.062844 0.6410 0.6250 0.6050 0.5820 0.5560
1475.700000 0.5250 0.5210 0.5010 0.4630 0.4250
1483.344844 0.3870 0.3490 0.3120 0.3100 0.3110
1490.983000 0.3310 0.3510 0.3720 0.3920 0.4120
1498.627844 0.4310 0.5550 0.5740 0.5750 0.5770
1506.266000 0.5790 0.5810 0.6010 0.6260 0.6360
1513.910844 0.6510 0.6660 0.6660 0.6660 0.6650
1521.549000 0.6650 0.6640 0.6640 0.6630 0.6630
1529.193844 0.6620 0.6620 0.6610 0.6610 0.6610
1536.831000 0.6600 0.6580 0.6550 0.6520 0.6500
1544.475844 0.6480 0.6450 0.6420 0.6400 0.6350
1552.114000 0.6350 0.6320 0.6300 0.6280 0.6250
1559.758844 0.6230 0.6200 0.6180 0.6130 0.6090
1567.397000 0.6060 0.6020 0.5990 0.5860 0.5750
1575.041844 0.5650 0.5540 0.5440 0.5070 0.4790
1582.680000 0.4520 0.4270 0.3630 0.3160 0.2650
1590.324844 0.2400 0.2160 0.1910 0.1470 0.1470
1597.962000 0.1890 0.2030 0.2710 0.3100 0.3570
1605.606844 0.4280 0.4280 0.4270 0.4260 0.4200
1613.245000 0.4070 0.4020 0.3380 0.2810 0.2360
1620.889844 0.1990 0.1690 0.1440 0.1230 0.1040
1628.528000 0.0940 0.0830 0.0830 0.0830 0.0840
1636.172844 0.0850 0.0920 0.1050 0.1130 0.1200
1643.811000 0.1270 0.1340 0.1590 0.1810 0.2240
1651.455844 0.2670 0.2900 0.2920 0.2930 0.3020
1659.093000 0.3110 0.3200 0.3290 0.3380 0.3470
1666.737844 0.3550 0.3640 0.3720 0.3850 0.3890
1674.376000 0.3990 0.4120 0.4310 0.4500 0.4690
1682.020844 0.4870 0.5030 0.5140 0.5210 0.5230
1689.659000 0.5540 0.5800 0.6010 0.6190 0.6350
1697.303844 0.6470 0.6580 0.6680 0.6790 0.6890
1704.941000 0.7000 0.7010 0.7020 0.7040 0.7070
1712.585844 0.7090 0.7120 0.7150 0.7190 0.7220
1720.224000 0.7250 0.7280 0.7310 0.7340 0.7360
1727.868844 0.7380 0.7440 0.7450 0.7470 0.7480
1735.507000 0.7490 0.7500 0.7520 0.7530 0.7560
1743.151844 0.7580 0.7600 0.7630 0.7660 0.7700
1750.790000 0.7740 0.7770 0.7810 0.7850 0.7890
1758.434844 0.7920 0.7950 0.7990 0.8020 0.8050
1766.072000 0.8070 0.8090 0.8110 0.8120 0.8120
1773.716844 0.8130 0.8140 0.8140 0.8140 0.8140
1781.355000 0.8140 0.8140 0.8140 0.8140 0.8150
1788.999844 0.8150 0.8150 0.8160 0.8160 0.8160
1796.638000 0.8170 0.8170 0.8170 0.8170 0.8180
1804.282844 0.8180 0.8180 0.8180 0.8180 0.8180
1811.921000 0.8180 0.8180 0.8180 0.8180 0.8180
1819.565844 0.8180 0.8170 0.8170 0.8170 0.8170
1827.203000 0.8170 0.8170 0.8160 0.8160 0.8160
1834.847844 0.8150 0.8150 0.8150 0.8150 0.8150
1842.486000 0.8150 0.8150 0.8150 0.8150 0.8150
1850.130844 0.8150 0.8150 0.8150 0.8150 0.8150
1857.769000 0.8160 0.8150 0.8150 0.8140 0.8140
1865.413844 0.8140 0.8140 0.8140 0.8130 0.8130
1873.052000 0.8130 0.8120 0.8120 0.8120 0.8110
1880.696844 0.8110 0.8110 0.8110 0.8110 0.8110
1888.334000 0.8110 0.8110 0.8110 0.8110 0.8110
1895.978844 0.8110 0.8110 0.8110 0.8110 0.8110
1903.617000 0.8110 0.8110 0.8110 0.8100 0.8100
1911.261844 0.8090 0.8080 0.8080 0.8070 0.8050
1918.900000 0.8050 0.8040 0.8020 0.8010 0.8010
1926.544844 0.8000 0.7990 0.7990 0.7980 0.7980
1934.182000 0.7970 0.7970 0.7960 0.7950 0.7950
1941.826844 0.7950 0.7930 0.7920 0.7890 0.7890
1949.465000 0.7880 0.7870 0.7860 0.7850 0.7850
1957.109844 0.7850 0.7850 0.7840 0.7840 0.7840
1964.748000 0.7840 0.7840 0.7830 0.7830 0.7820
1972.392844 0.7820 0.7820 0.7820 0.7820 0.7820
1980.031000 0.7820 0.7820 0.7820 0.7820 0.7830
1987.675844 0.7830 0.7830 0.7830 0.7830 0.7820
1995.313000 0.7820 0.7820 0.7800 0.7790 0.7770
2002.957844 0.7750 0.7720 0.7700 0.7690 0.7700
2010.596000 0.7710 0.7730 0.7760 0.7770 0.7780
2018.240844 0.7790 0.7790 0.7790 0.7800 0.7800
2025.879000 0.7790 0.7790 0.7780 0.7760 0.7760
2033.523844 0.7760 0.7760 0.7750 0.7760 0.7810
2041.161000 0.7840 0.7870 0.7890 0.7900 0.7920
2048.805844 0.7930 0.7950 0.7950 0.7950 0.7960
2056.444000 0.7980 0.7980 0.7980 0.7980 0.7980
2064.088844 0.7980 0.7980 0.7980 0.7980 0.7980
2071.727000 0.7990 0.7990 0.7990 0.7990 0.8000
2079.371844 0.8000 0.8000 0.8000 0.8000 0.8000
2087.010000 0.8000 0.8000 0.8000 0.8000 0.8000
2094.654844 0.8000 0.8000 0.8000 0.8000 0.8000
2102.292000 0.8000 0.8000 0.8000 0.8000 0.8000
2109.936844 0.8000 0.8000 0.8000 0.8000 0.8010
2117.575000 0.8010 0.8010 0.8010 0.8010 0.8010
2125.219844 0.8010 0.8010 0.8010 0.8010 0.8010
2132.858000 0.8010 0.8010 0.8010 0.8010 0.8010
2140.502844 0.8020 0.8020 0.8020 0.8020 0.8020
2148.141000 0.8020 0.8020 0.8020 0.8030 0.8030
2155.785844 0.8030 0.8030 0.8030 0.8030 0.8030
2163.423000 0.8030 0.8030 0.8030 0.8030 0.8030
2171.067844 0.8030 0.8030 0.8030 0.8030 0.8030
2178.706000 0.8030 0.8030 0.8030 0.8020 0.8020
2186.350844 0.8020 0.8020 0.8020 0.8020 0.8020
2193.989000 0.8020 0.8020 0.8020 0.8020 0.8020
2201.633844 0.8020 0.8010 0.8010 0.8010 0.8010
2209.271000 0.8010 0.8010 0.8010 0.8010 0.8010
2216.915844 0.8010 0.8010 0.8010 0.8010 0.8010
2224.554000 0.8010 0.8010 0.8010 0.8010 0.8010
2232.198844 0.8010 0.8000 0.8000 0.8000 0.8000
2239.837000 0.8000 0.8000 0.8000 0.8000 0.8000
2247.481844 0.8010 0.8010 0.8000 0.8000 0.7990
2255.120000 0.7990 0.7990 0.7990 0.7990 0.7980
2262.764844 0.7980 0.7980 0.7980 0.7980 0.7980
2270.403000 0.7980 0.7980 0.7970 0.7970 0.7970
2278.047844 0.7970 0.7960 0.7960 0.7950 0.7950
2285.685000 0.7950 0.7950 0.7940 0.7940 0.7940
2293.329844 0.7930 0.7930 0.7920 0.7920 0.7920
2300.968000 0.7920 0.7920 0.7920 0.7920 0.7910
2308.612844 0.7900 0.7890 0.7890 0.7870 0.7850
2316.251000 0.7850 0.7830 0.7820 0.7820 0.7810
2323.895844 0.7810 0.7800 0.7800 0.7800 0.7800
2331.533000 0.7810 0.7810 0.7820 0.7820 0.7820
2339.177844 0.7820 0.7830 0.7840 0.7850 0.7850
2346.816000 0.7850 0.7860 0.7860 0.7860 0.7860
2354.460844 0.7870 0.7880 0.7880 0.7890 0.7890
2362.099000 0.7890 0.7900 0.7900 0.7910 0.7910
2369.743844 0.7910 0.7910 0.7910 0.7920 0.7920
2377.382000 0.7920 0.7920 0.7920 0.7920 0.7920
2385.026844 0.7920 0.7920 0.7920 0.7920 0.7920
2392.664000 0.7920 0.7920 0.7920 0.7920 0.7920
2400.308844 0.7920 0.7920 0.7920 0.7920 0.7920
2407.947000 0.7920 0.7910 0.7910 0.7910 0.7910
2415.591844 0.7910 0.7910 0.7900 0.7900 0.7900
2423.230000 0.7900 0.7900 0.7900 0.7890 0.7890
2430.874844 0.7890 0.7890 0.7890 0.7890 0.7890
2438.512000 0.7890 0.7890 0.7890 0.7890 0.7890
2446.156844 0.7890 0.7890 0.7890 0.7890 0.7890
2453.795000 0.7890 0.7890 0.7890 0.7880 0.7880
2461.439844 0.7870 0.7870 0.7860 0.7860 0.7850
2469.078000 0.7850 0.7850 0.7850 0.7850 0.7840
2476.722844 0.7840 0.7830 0.7830 0.7820 0.7820
2484.361000 0.7820 0.7820 0.7810 0.7810 0.7810
2492.005844 0.7800 0.7800 0.7790 0.7790 0.7790
2499.644000 0.7790 0.7780 0.7780 0.7770 0.7770
2507.288844 0.7770 0.7760 0.7760 0.7760 0.7760
2514.926000 0.7760 0.7760 0.7760 0.7760 0.7760
2522.570844 0.7760 0.7760 0.7750 0.7750 0.7730
2530.209000 0.7720 0.7720 0.7710 0.7700 0.7700
2537.853844 0.7690 0.7690 0.7690 0.7690 0.7670
2545.492000 0.7660 0.7660 0.7650 0.7650 0.7650
2553.136844 0.7640 0.7640 0.7640 0.7630 0.7630
2560.774000 0.7630 0.7630 0.7630 0.7630 0.7630
2568.418844 0.7630 0.7630 0.7630 0.7620 0.7620
2576.057000 0.7620 0.7620 0.7610 0.7610 0.7610
2583.701844 0.7610 0.7600 0.7600 0.7600 0.7600
2591.340000 0.7600 0.7600 0.7600 0.7600 0.7600
2598.984844 0.7600 0.7590 0.7590 0.7590 0.7580
2606.623000 0.7580 0.7580 0.7570 0.7570 0.7560
2614.267844 0.7560 0.7550 0.7540 0.7540 0.7530
2621.905000 0.7530 0.7530 0.7520 0.7520 0.7510
2629.549844 0.7510 0.7500 0.7500 0.7490 0.7490
2637.188000 0.7490 0.7480 0.7480 0.7480 0.7470
2644.832844 0.7470 0.7470 0.7470 0.7470 0.7460
2652.471000 0.7460 0.7460 0.7450 0.7450 0.7450
2660.115844 0.7440 0.7440 0.7440 0.7440 0.7440
2667.753000 0.7430 0.7430 0.7420 0.7420 0.7410
2675.397844 0.7410 0.7410 0.7410 0.7410 0.7400
2683.036000 0.7400 0.7390 0.7390 0.7380 0.7380
2690.680844 0.7380 0.7380 0.7380 0.7370 0.7370
2698.319000 0.7360 0.7360 0.7350 0.7350 0.7340
2705.963844 0.7340 0.7340 0.7340 0.7330 0.7330
2713.602000 0.7330 0.7320 0.7320 0.7320 0.7310
2721.246844 0.7310 0.7310 0.7310 0.7310 0.7300
2728.885000 0.7300 0.7300 0.7290 0.7290 0.7290
2736.529844 0.7280 0.7280 0.7280 0.7280 0.7280
2744.167000 0.7280 0.7280 0.7280 0.7280 0.7280
2751.811844 0.7280 0.7270 0.7270 0.7270 0.7270
2759.450000 0.7260 0.7260 0.7260 0.7260 0.7260
2767.094844 0.7250 0.7250 0.7250 0.7250 0.7250
2774.733000 0.7250 0.7250 0.7250 0.7240 0.7240
2782.377844 0.7240 0.7240 0.7230 0.7230 0.7220
2790.015000 0.7220 0.7220 0.7220 0.7220 0.7210
2797.659844 0.7210 0.7200 0.7190 0.7180 0.7180
2805.298000 0.7180 0.7170 0.7170 0.7160 0.7160
2812.942844 0.7150 0.7150 0.7150 0.7150 0.7150
2820.581000 0.7140 0.7140 0.7140 0.7130 0.7130
2828.225844 0.7120 0.7120 0.7110 0.7100 0.7100
2835.864000 0.7100 0.7090 0.7090 0.7090 0.7090
2843.508844 0.7080 0.7080 0.7070 0.7070 0.7070
2851.146000 0.7070 0.7070 0.7070 0.7070 0.7060
2858.790844 0.7060 0.7060 0.7060 0.7060 0.7060
2866.429000 0.7060 0.7060 0.7050 0.7050 0.7040
2874.073844 0.7040 0.7030 0.7030 0.7020 0.7020
2881.712000 0.7010 0.7010 0.7000 0.6990 0.6990
2889.356844 0.6990 0.6990 0.6980 0.6970 0.6970
2896.994000 0.6960 0.6960 0.6960 0.6950 0.6950
2904.638844 0.6940 0.6940 0.6930 0.6930 0.6930
2912.277000 0.6930 0.6930 0.6930 0.6930 0.6920
2919.921844 0.6920 0.6920 0.6920 0.6920 0.6920
2927.560000 0.6920 0.6930 0.6930 0.6930 0.6930
2935.204844 0.6930 0.6940 0.6940 0.6940 0.6950
2942.843000 0.6950 0.6950 0.6960 0.6960 0.6960
2950.487844 0.6960 0.6960 0.6960 0.6960 0.6960
2958.125000 0.6960 0.6960 0.6960 0.6950 0.6950
2965.769844 0.6950 0.6940 0.6940 0.6940 0.6930
2973.408000 0.6930 0.6930 0.6930 0.6930 0.6930
2981.052844 0.6920 0.6920 0.6910 0.6910 0.6900
2988.691000 0.6900 0.6900 0.6890 0.6890 0.6880
2996.335844 0.6870 0.6860 0.6860 0.6850 0.6840
3003.974000 0.6830 0.6820 0.6810 0.6800 0.6800
3011.618844 0.6790 0.6780 0.6780 0.6770 0.6770
3019.256000 0.6770 0.6770 0.6770 0.6760 0.6760
3026.900844 0.6760 0.6750 0.6720 0.6700 0.6680
3034.539000 0.6660 0.6640 0.6620 0.6600 0.6580
3042.183844 0.6560 0.6540 0.6520 0.6510 0.6490
3049.822000 0.6480 0.6460 0.6440 0.6420 0.6400
3057.466844 0.6380 0.6360 0.6340 0.6320 0.6310
3065.104000 0.6290 0.6280 0.6260 0.6250 0.6230
3072.748844 0.6220 0.6200 0.6190 0.6170 0.6160
3080.387000 0.6140 0.6130 0.6100 0.6090 0.6070
3088.031844 0.6050 0.6030 0.6000 0.5960 0.5940
3095.670000 0.5920 0.5900 0.5860 0.5800 0.5750
3103.314844 0.5680 0.5620 0.5550 0.5550 0.5540
3110.953000 0.5520 0.5470 0.5430 0.5400 0.5370
3118.597844 0.5340 0.5320 0.5280 0.5240 0.5190
3126.235000 0.5140 0.5110 0.5110 0.5070 0.5020
3133.879844 0.4980 0.4950 0.4920 0.4870 0.4830
3141.518000 0.4780 0.4720 0.4690 0.4660 0.4630
3149.162844 0.4600 0.4580 0.4550 0.4530 0.4500
3156.801000 0.4470 0.4450 0.4420 0.4400 0.4370
3164.445844 0.4340 0.4310 0.4280 0.4160 0.4060
3172.084000 0.3990 0.3960 0.3940 0.3870 0.3800
3179.728844 0.3730 0.3670 0.3640 0.3610 0.3510
3187.366000 0.3420 0.3380 0.3320 0.3260 0.3200
3195.010844 0.3110 0.3000 0.2990 0.2980 0.2990
3202.649000 0.3000 0.3030 0.3050 0.3070 0.3130
3210.293844 0.3190 0.3260 0.3350 0.3450 0.3570
3217.932000 0.3680 0.3800 0.3920 0.4040 0.4150
3225.576844 0.4270 0.4370 0.4470 0.4550 0.4620
3233.215000 0.4670 0.4700 0.4720 0.4760 0.4780
3240.859844 0.4820 0.4820 0.4840 0.4850 0.4840
3248.497000 0.4820 0.4800 0.4790 0.4780 0.4760
3256.141844 0.4750 0.4740 0.4720 0.4690 0.4680
3263.780000 0.4640 0.4600 0.4550 0.4500 0.4430
3271.424844 0.4360 0.4280 0.4200 0.4120 0.4030
3279.063000 0.3940 0.3850 0.3760 0.3670 0.3580
3286.707844 0.3500 0.3410 0.3330 0.3250 0.3190
3294.345000 0.3120 0.3060 0.3030 0.3010 0.3010
3301.989844 0.3010 0.3020 0.3030 0.3030 0.3040
3309.628000 0.3060 0.3090 0.3110 0.3140 0.3180
3317.272844 0.3230 0.3290 0.3370 0.3460 0.3490
3324.911000 0.3510 0.3520 0.3540 0.3540 0.3670
3332.555844 0.3820 0.3950 0.4080 0.4200 0.4310
3340.194000 0.4410 0.4500 0.4600 0.4680 0.4750
3347.838844 0.4820 0.4880 0.4940 0.4990 0.5040
3355.476000 0.5070 0.5110 0.5140 0.5170 0.5200
3363.120844 0.5220 0.5240 0.5260 0.5270 0.5280
3370.759000 0.5280 0.5280 0.5280 0.5280 0.5280
3378.403844 0.5290 0.5300 0.5300 0.5300 0.5300
3386.042000 0.5300 0.5310 0.5330 0.5330 0.5350
3393.686844 0.5360 0.5370 0.5380 0.5390 0.5390
3401.325000 0.5390 0.5390 0.5400 0.5400 0.5400
3408.969844 0.5400 0.5400 0.5400 0.5400 0.5390
3416.607000 0.5390 0.5390 0.5390 0.5390 0.5380
3424.251844 0.5370 0.5370 0.5360 0.5360 0.5350
3431.890000 0.5350 0.5350 0.5330 0.5320 0.5310
3439.534844 0.5300 0.5300 0.5270 0.5250 0.5230
3447.173000 0.5200 0.5180 0.5160 0.5140 0.5110
3454.817844 0.5070 0.5020 0.4980 0.4920 0.4850
3462.456000 0.4770 0.4670 0.4500 0.4370 0.4280
3470.100844 0.4200 0.4080 0.3920 0.3680 0.3670
3477.738000 0.3670 0.3690 0.3740 0.3860 0.3970
3485.382844 0.4110 0.4270 0.4450 0.4650 0.4860
3493.021000 0.5070 0.5300 0.5510 0.5710 0.5900
3500.665844 0.5940 0.5960 0.6000 0.6060 0.6130
3508.304000 0.6190 0.6280 0.6360 0.6440 0.6510
3515.948844 0.6580 0.6630 0.6670 0.6680 0.6710
3523.586000 0.6740 0.6770 0.6790 0.6800 0.6830
3531.230844 0.6840 0.6850 0.6860 0.6880 0.6890
3538.869000 0.6900 0.6920 0.6930 0.6940 0.6960
3546.513844 0.6980 0.7000 0.7020 0.7060 0.7080
3554.152000 0.7090 0.7110 0.7120 0.7130 0.7150
3561.796844 0.7150 0.7160 0.7170 0.7180 0.7190
3569.435000 0.7200 0.7210 0.7220 0.7230 0.7250
3577.079844 0.7260 0.7280 0.7290 0.7310 0.7340
3584.717000 0.7360 0.7380 0.7400 0.7400 0.7410
3592.361844 0.7410 0.7440 0.7460 0.7480 0.7500
3600.000000 0.7520 0.7540 0.7570 0.7580 0.7600
3607.644844 0.7600 0.7620 0.7630 0.7640 0.7660
3615.283000 0.7660 0.7680 0.7690 0.7700 0.7710
3622.927844 0.7720 0.7730 0.7740 0.7750 0.7760
3630.566000 0.7770 0.7790 0.7790 0.7790 0.7830
3638.210844 0.7870 0.7900 0.7910 0.7920 0.7920
3645.848000 0.7930 0.7940 0.7950 0.7960 0.7960
3653.492844 0.7970 0.7970 0.7970 0.7970 0.7970
3661.131000 0.7970 0.7970 0.7970 0.7980 0.7980
3668.775844 0.7980 0.7980 0.7980 0.7980 0.7980
3676.414000 0.7980 0.7980 0.7980 0.7980 0.7980
3684.058844 0.7980 0.7980 0.7980 0.7980 0.7980
3691.697000 0.7980 0.7980 0.7980 0.7980 0.7980
3699.341844 0.7980 0.7980 0.7980 0.7980 0.7980
3706.979000 0.7980 0.7980 0.7980 0.7980 0.7980
3714.623844 0.7980 0.7990 0.7990 0.7990 0.7990
3722.262000 0.7990 0.7990 0.7990 0.7990 0.7990
3729.906844 0.7990 0.7990 0.7990 0.7990 0.7990
3737.545000 0.7990 0.7990 0.7990 0.7990 0.7990
3745.189844 0.7990 0.7990 0.7990 0.7990 0.7990
3752.827000 0.7990 0.8000 0.8000 0.7990 0.7990
3760.471844 0.7990 0.7990 0.7980 0.7980 0.7980
3768.110000 0.7980 0.7980 0.7980 0.7980 0.7980
3775.754844 0.7980 0.7980 0.7980 0.7970 0.7970
3783.393000 0.7970 0.7970 0.7970 0.7960 0.7960
3791.037844 0.7960 0.7960 0.7960 0.7950 0.7950
3798.676000 0.7950 0.7950 0.7950 0.7950 0.7950
3806.320844 0.7950 0.7950 0.7950 0.7950 0.7940
3813.958000 0.7940 0.7940 0.7940 0.7940 0.7940
3821.602844 0.7940 0.7930 0.7930 0.7930 0.7930
3829.241000 0.7930 0.7930 0.7920 0.7920 0.7920
3836.885844 0.7920 0.7920 0.7920 0.7920 0.7920
3844.524000 0.7920 0.7920 0.7920 0.7920 0.7920
3852.168844 0.7920 0.7910 0.7910 0.7910 0.7910
3859.807000 0.7910 0.7910 0.7910 0.7910 0.7910
3867.451844 0.7910 0.7910 0.7910 0.7910 0.7910
3875.089000 0.7910 0.7910 0.7910 0.7910 0.7900
3882.733844 0.7900 0.7900 0.7900 0.7900 0.7900
3890.372000 0.7900 0.7900 0.7900 0.7900 0.7900
3898.016844 0.7900 0.7900 0.7900 0.7900 0.7900
3905.655000 0.7910 0.7910 0.7910 0.7900 0.7900
3913.299844 0.7900 0.7900 0.7900 0.7900 0.7900
3920.938000 0.7900 0.7900 0.7890 0.7890 0.7890
3928.582844 0.7890 0.7890 0.7890 0.7890 0.7900
3936.220000 0.7900 0.7910 0.7910 0.7910 0.7910
3943.864844 0.7920 0.7920 0.7920 0.7920 0.7920
3951.503000 0.7920 0.7920 0.7920 0.7920 0.7920
3959.147844 0.7920 0.7920 0.7920 0.7910 0.7910
3966.786000 0.7910 0.7910 0.7900 0.7900 0.7900
3974.430844 0.7900 0.7890 0.7890 0.7890 0.7890
3982.068000 0.7890 0.7890 0.7880 0.7880 0.7880
3989.712844 0.7880 0.7870 0.7870 0.7870 0.7860
3997.351000 0.7860 0.7860 0.7860 0.7860 0.7860
4004.995844 0.7860 0.7860 0.7860 0.7860
##END=
