##TITLE=ADENINE, 1-BENZYL-9-CYCLOPENTYL-
##JCAMP-DX=4.24
##DATA TYPE=INFRARED SPECTRUM
##CLASS=COBLENTZ III
##ORIGIN=SOUTHERN RESEARCH INSTITUTE
##OWNER=COBLENTZ SOCIETY
Collection (C) 2018 copyright by the U.S. Secretary of Commerce
on behalf of the United States of America. All rights reserved.
##DATE=Not specified, most likely prior to 1970
##NAMES=1-benzyl-9-cyclopentyl-1,9-dihydro-6H-purin-6-imine
##MOLFORM=C17 H19 N5
##SOURCE REFERENCE=COBLENTZ NO. 8432
##$NIST ID=B6008432
##$NIST SOURCE=COBLENTZ
##$NIST IMAGE=cob8432
##SPECTROMETER/DATA SYSTEM=PERKIN-ELMER 521 (GRATING)
##INSTRUMENT PARAMETERS=FILTER CHANGE AT 3130, 2500, 2000, 1150, 700, 410 CM^-^1, GRATING CHANGES AT 2000, 620 CM^-^1
##STATE=SOLID (1 mg / 650 mg KBr DISC)
##PATH LENGTH=
$$SPECTRAL CONTAMINATION DUE TO H2O AROUND 3400 CM^-^1
##SAMPLING PROCEDURE=TRANSMISSION
##RESOLUTION=4
##DATA PROCESSING=DIGITIZED BY NIST FROM HARD COPY
##XUNITS=1/CM
##YUNITS=TRANSMITTANCE
##XFACTOR=1.000000
##YFACTOR=1
##DELTAX=001.530343
##FIRSTX=244.433
##LASTX=3810.13
##FIRSTY=0.386
##MAXX=3810.13
##MINX=244.433
##MAXY=0.864
##MINY=0.079
##NPOINTS=2331
##XYDATA=(X++(Y..Y))
244.433000 0.3860 0.3900 0.3950 0.3960 0.3990
252.088001 0.4030 0.4070 0.4100 0.4140 0.4240
259.736000 0.4330 0.4430 0.4520 0.4620 0.4720
267.391001 0.4810 0.4910 0.5000 0.5090 0.5180
275.040000 0.5280 0.5360 0.5530 0.5620 0.5690
282.695001 0.5780 0.5850 0.5930 0.6000 0.6070
290.343000 0.6140 0.6200 0.6260 0.6320 0.6380
297.998001 0.6430 0.6480 0.6530 0.6570 0.6600
305.646000 0.6640 0.6670 0.6690 0.6720 0.6730
313.301001 0.6760 0.6790 0.6810 0.6840 0.6870
320.950000 0.6890 0.6920 0.6950 0.6980 0.7010
328.605001 0.7040 0.7080 0.7110 0.7140 0.7170
336.253000 0.7200 0.7230 0.7260 0.7320 0.7350
343.908001 0.7400 0.7440 0.7480 0.7510 0.7540
351.557000 0.7570 0.7600 0.7630 0.7650 0.7670
359.212001 0.7700 0.7720 0.7730 0.7750 0.7770
366.860000 0.7790 0.7800 0.7820 0.7830 0.7850
374.515001 0.7860 0.7880 0.7900 0.7920 0.7920
382.164000 0.7920 0.7930 0.7940 0.7940 0.7950
389.819001 0.7960 0.7980 0.7980 0.7990 0.8010
397.467000 0.8020 0.8040 0.8050 0.8060 0.8080
405.122001 0.8080 0.8090 0.8100 0.8110 0.8110
412.770000 0.8120 0.8120 0.8130 0.8130 0.8140
420.425001 0.8140 0.8140 0.8140 0.8140 0.8140
428.074000 0.8140 0.8140 0.8140 0.8140 0.8140
435.729001 0.8140 0.8130 0.8120 0.8120 0.8110
443.377000 0.8110 0.8110 0.8090 0.8080 0.8030
451.032001 0.7950 0.7830 0.7450 0.7230 0.7230
458.681000 0.7330 0.7760 0.8040 0.8180 0.8210
466.336001 0.8230 0.8240 0.8260 0.8300 0.8300
473.984000 0.8310 0.8310 0.8320 0.8320 0.8320
481.639001 0.8320 0.8310 0.8310 0.8300 0.8300
489.288000 0.8300 0.8300 0.8300 0.8290 0.8280
496.943001 0.8260 0.8240 0.8230 0.8180 0.8080
504.591000 0.7970 0.7870 0.7670 0.7480 0.7280
512.246001 0.7080 0.6880 0.6880 0.7230 0.7560
519.894000 0.8050 0.8130 0.8140 0.8140 0.8140
527.549001 0.8150 0.8150 0.8140 0.8140 0.8140
535.198000 0.8130 0.8120 0.8110 0.8100 0.8080
542.853001 0.8080 0.8040 0.8000 0.7990 0.7970
550.501000 0.7950 0.7920 0.7900 0.7900 0.7920
558.156001 0.7950 0.7960 0.7980 0.7990 0.7990
565.805000 0.7990 0.7980 0.7970 0.7940 0.7850
573.460001 0.7800 0.7740 0.7670 0.7610 0.7550
581.108000 0.7490 0.7470 0.7510 0.7540 0.7580
588.763001 0.7620 0.7660 0.7700 0.7730 0.7770
596.412000 0.7810 0.7830 0.7850 0.7860 0.7890
604.067001 0.7900 0.7920 0.7920 0.7930 0.7930
611.715000 0.7930 0.7920 0.7920 0.7920 0.7920
619.370001 0.7890 0.7860 0.7790 0.7720 0.7660
627.018000 0.7610 0.7570 0.7540 0.7540 0.7530
634.673001 0.7530 0.7530 0.7500 0.7460 0.7410
642.322000 0.7360 0.7290 0.7210 0.7070 0.6990
649.977001 0.6920 0.6790 0.6720 0.6650 0.6560
657.625000 0.6550 0.6550 0.6550 0.6560 0.6570
665.280001 0.6580 0.6600 0.6610 0.6630 0.6640
672.929000 0.6660 0.6700 0.6700 0.6680 0.6640
680.584001 0.6440 0.6230 0.6030 0.5680 0.5660
688.232000 0.5670 0.5920 0.6160 0.6410 0.6630
695.887001 0.6760 0.6910 0.6940 0.6980 0.7010
703.536000 0.7040 0.7040 0.7060 0.7070 0.7070
711.191001 0.7080 0.7140 0.7150 0.7200 0.7200
718.839000 0.7180 0.7140 0.7100 0.7070 0.7040
726.494001 0.6890 0.6760 0.6070 0.5370 0.4730
734.143000 0.4730 0.5110 0.5900 0.6490 0.7410
741.798001 0.7670 0.7730 0.7730 0.7760 0.7760
749.446000 0.7760 0.7760 0.7760 0.7760 0.7760
757.101001 0.7760 0.7760 0.7760 0.7750 0.7710
764.749000 0.7670 0.7610 0.7540 0.7460 0.7380
772.404001 0.7290 0.7190 0.6970 0.6920 0.6920
780.053000 0.6990 0.7140 0.7270 0.7380 0.7490
787.708001 0.7590 0.7670 0.7750 0.7820 0.7880
795.356000 0.7920 0.7980 0.8010 0.8050 0.8080
803.011001 0.8120 0.8150 0.8170 0.8220 0.8230
810.660000 0.8230 0.8230 0.8220 0.8200 0.8180
818.315001 0.8150 0.8120 0.8070 0.8050 0.8050
825.963000 0.8060 0.8070 0.8130 0.8170 0.8200
833.618001 0.8230 0.8240 0.8270 0.8300 0.8320
841.266000 0.8330 0.8350 0.8360 0.8380 0.8390
848.921001 0.8410 0.8420 0.8420 0.8420 0.8420
856.570000 0.8420 0.8430 0.8430 0.8430 0.8430
864.225001 0.8430 0.8430 0.8430 0.8420 0.8420
871.873000 0.8410 0.8390 0.8390 0.8370 0.8370
879.528001 0.8360 0.8350 0.8260 0.8150 0.8110
887.177000 0.8050 0.7950 0.7840 0.7740 0.7640
894.832001 0.7640 0.7680 0.7790 0.7800 0.7790
902.480000 0.7780 0.7760 0.7750 0.7890 0.7960
910.135001 0.8020 0.8080 0.8140 0.8190 0.8240
917.784000 0.8300 0.8330 0.8360 0.8390 0.8390
925.439001 0.8390 0.8390 0.8360 0.8330 0.8280
933.087000 0.8230 0.8190 0.8150 0.8120 0.8060
940.742001 0.8050 0.8010 0.7970 0.7930 0.7890
948.391000 0.7850 0.7810 0.7770 0.7740 0.7740
956.046001 0.7750 0.7840 0.7910 0.7980 0.8080
963.694000 0.8080 0.8080 0.8070 0.8010 0.7940
971.349001 0.7890 0.7620 0.7390 0.6790 0.6790
978.997000 0.7070 0.7350 0.7610 0.8270 0.8280
986.652001 0.8290 0.8300 0.8300 0.8300 0.8290
994.301000 0.8290 0.8290 0.8280 0.8280 0.8280
1001.956001 0.8280 0.8270 0.8270 0.8270 0.8270
1009.604000 0.8260 0.8250 0.8250 0.8230 0.8230
1017.259001 0.8210 0.8170 0.8120 0.7740 0.7420
1024.908000 0.7410 0.7420 0.7430 0.7540 0.7660
1032.563001 0.7780 0.8010 0.8010 0.8000 0.8000
1040.211000 0.7990 0.7980 0.7960 0.7950 0.7940
1047.866001 0.7890 0.7890 0.7890 0.7910 0.7940
1055.515000 0.7960 0.7970 0.7980 0.7990 0.8000
1063.170001 0.8010 0.8000 0.7970 0.7920 0.7910
1070.818000 0.7890 0.7850 0.7800 0.7760 0.7710
1078.473001 0.7700 0.7700 0.7760 0.7790 0.7800
1086.121000 0.7810 0.7820 0.7820 0.7830 0.7830
1093.776001 0.7830 0.7830 0.7830 0.7820 0.7800
1101.425000 0.7790 0.7790 0.7780 0.7760 0.7740
1109.080001 0.7710 0.7660 0.7580 0.7490 0.7360
1116.728000 0.7200 0.7010 0.6760 0.6720 0.6720
1124.383001 0.6820 0.7090 0.7140 0.7200 0.7240
1132.032000 0.7380 0.7460 0.7580 0.7590 0.7600
1139.687001 0.7610 0.7610 0.7600 0.7350 0.7210
1147.335000 0.7110 0.7020 0.7010 0.7020 0.7120
1154.990001 0.7220 0.7320 0.7420 0.7510 0.7610
1162.639000 0.7790 0.7800 0.7800 0.7800 0.7790
1170.294001 0.7790 0.7780 0.7760 0.7740 0.7730
1177.942000 0.7730 0.7730 0.7720 0.7710 0.7680
1185.597001 0.7650 0.7620 0.7600 0.7590 0.7580
1193.245000 0.7570 0.7550 0.7520 0.7480 0.7420
1200.900001 0.7390 0.7360 0.7290 0.7280 0.7310
1208.549000 0.7330 0.7340 0.7350 0.7350 0.7340
1216.204001 0.7310 0.7270 0.7230 0.7190 0.7130
1223.852000 0.7060 0.6980 0.6870 0.6670 0.6500
1231.507001 0.6320 0.6130 0.5950 0.5760 0.5580
1239.156000 0.5490 0.5390 0.5210 0.5030 0.5690
1246.811001 0.6020 0.6250 0.6380 0.6530 0.6840
1254.459000 0.7190 0.7320 0.7480 0.7480 0.7470
1262.114001 0.7460 0.7450 0.7430 0.7390 0.7340
1269.763000 0.7290 0.7280 0.7210 0.7090 0.6970
1277.418001 0.6790 0.6780 0.6790 0.6880 0.6900
1285.066000 0.6930 0.6980 0.6990 0.7100 0.7110
1292.721001 0.7100 0.7080 0.7060 0.7040 0.7060
1300.369000 0.7100 0.7150 0.7190 0.7190 0.7170
1308.024001 0.7160 0.7160 0.7130 0.7120 0.7100
1315.673000 0.7100 0.7090 0.7070 0.7070 0.7060
1323.328001 0.7040 0.7020 0.6990 0.6970 0.6940
1330.976000 0.6880 0.6870 0.6880 0.6910 0.6900
1338.631001 0.6810 0.6710 0.6630 0.6250 0.5940
1346.280000 0.5640 0.5500 0.5350 0.5060 0.4760
1353.935001 0.4760 0.4810 0.6010 0.6180 0.6440
1361.583000 0.6540 0.6540 0.6520 0.6510 0.6500
1369.238001 0.6500 0.6510 0.6600 0.6660 0.6700
1376.887000 0.6730 0.6750 0.6760 0.6770 0.6770
1384.542001 0.6790 0.6790 0.6790 0.6790 0.6790
1392.190000 0.6790 0.6780 0.6760 0.6730 0.6710
1399.845001 0.6690 0.6600 0.6560 0.6430 0.6300
1407.493000 0.6160 0.5860 0.5520 0.5360 0.5190
1415.148001 0.4860 0.4590 0.4210 0.4210 0.5800
1422.797000 0.5810 0.5940 0.6080 0.6340 0.6350
1430.452001 0.6430 0.6510 0.6600 0.6670 0.6670
1438.100000 0.6630 0.6600 0.6380 0.6190 0.6000
1445.755001 0.5810 0.5620 0.5530 0.5400 0.5250
1453.404000 0.5870 0.5880 0.5880 0.5860 0.5800
1461.059001 0.5780 0.5800 0.5930 0.6060 0.6350
1468.707000 0.6540 0.6630 0.6830 0.6840 0.6840
1476.362001 0.6840 0.6830 0.6820 0.6820 0.6810
1484.011000 0.6690 0.6640 0.6600 0.6500 0.6240
1491.666001 0.5810 0.5620 0.5410 0.4810 0.4810
1499.314000 0.5420 0.5500 0.5500 0.5500 0.5490
1506.969001 0.5460 0.4740 0.4740 0.5600 0.6070
1514.617000 0.6380 0.6570 0.6690 0.6780 0.6880
1522.272001 0.7040 0.7180 0.7290 0.7350 0.7360
1529.921000 0.7370 0.7370 0.7370 0.7360 0.7280
1537.576001 0.7190 0.7060 0.7030 0.6880 0.6880
1545.224000 0.6880 0.6930 0.6980 0.7020 0.7070
1552.879001 0.7100 0.7110 0.7010 0.6830 0.6700
1560.528000 0.6580 0.6460 0.6190 0.6000 0.5810
1568.183001 0.5630 0.5540 0.5440 0.5260 0.5080
1575.831000 0.5090 0.5100 0.5510 0.5800 0.5810
1583.486001 0.6030 0.6240 0.6270 0.6430 0.6510
1591.135000 0.6730 0.6980 0.7140 0.7240 0.7270
1598.790001 0.7230 0.7160 0.6990 0.6850 0.6760
1606.438000 0.6690 0.6630 0.6570 0.6490 0.6320
1614.093001 0.6110 0.5860 0.5590 0.5440 0.5280
1621.741000 0.4970 0.4650 0.4330 0.4020 0.3720
1629.396001 0.3450 0.3450 0.3710 0.4260 0.4560
1637.045000 0.4900 0.5610 0.5900 0.6060 0.6290
1644.700001 0.6320 0.6330 0.6350 0.6320 0.6300
1652.348000 0.6280 0.6230 0.5950 0.5740 0.5600
1660.003001 0.5470 0.5150 0.4820 0.4460 0.4110
1667.652000 0.3780 0.3480 0.3210 0.3000 0.2690
1675.307001 0.2510 0.2320 0.2130 0.1940 0.1750
1682.955000 0.1560 0.1360 0.1170 0.1080 0.0980
1690.610001 0.0790 0.1060 0.1320 0.1570 0.1840
1698.259000 0.2100 0.2490 0.3050 0.3710 0.4370
1705.914001 0.4940 0.5500 0.6130 0.6720 0.6940
1713.562000 0.7140 0.7320 0.7480 0.7620 0.7740
1721.217001 0.7860 0.7950 0.8030 0.8110 0.8170
1728.865000 0.8220 0.8260 0.8300 0.8330 0.8350
1736.520001 0.8370 0.8390 0.8420 0.8450 0.8470
1744.169000 0.8490 0.8510 0.8520 0.8540 0.8550
1751.824001 0.8550 0.8560 0.8570 0.8570 0.8580
1759.472000 0.8580 0.8580 0.8580 0.8580 0.8580
1767.127001 0.8580 0.8580 0.8590 0.8590 0.8590
1774.776000 0.8580 0.8580 0.8580 0.8570 0.8570
1782.431001 0.8560 0.8550 0.8550 0.8550 0.8540
1790.079000 0.8530 0.8530 0.8520 0.8510 0.8500
1797.734001 0.8490 0.8490 0.8470 0.8450 0.8450
1805.383000 0.8440 0.8430 0.8430 0.8430 0.8430
1813.038001 0.8430 0.8430 0.8440 0.8450 0.8450
1820.686000 0.8460 0.8490 0.8490 0.8500 0.8530
1828.341001 0.8560 0.8580 0.8590 0.8600 0.8610
1835.990000 0.8600 0.8610 0.8610 0.8610 0.8620
1843.645001 0.8620 0.8630 0.8630 0.8640 0.8640
1851.293000 0.8640 0.8630 0.8630 0.8630 0.8630
1858.948001 0.8620 0.8620 0.8610 0.8610 0.8600
1866.596000 0.8600 0.8590 0.8580 0.8580 0.8580
1874.251001 0.8580 0.8570 0.8560 0.8550 0.8550
1881.900000 0.8540 0.8540 0.8530 0.8520 0.8500
1889.555001 0.8490 0.8470 0.8450 0.8420 0.8360
1897.203000 0.8280 0.8270 0.8270 0.8290 0.8310
1904.858001 0.8360 0.8390 0.8430 0.8480 0.8510
1912.507000 0.8530 0.8530 0.8560 0.8570 0.8570
1920.162001 0.8570 0.8560 0.8560 0.8550 0.8550
1927.810000 0.8550 0.8550 0.8540 0.8540 0.8550
1935.465001 0.8550 0.8560 0.8560 0.8570 0.8570
1943.114000 0.8580 0.8580 0.8580 0.8580 0.8590
1950.769001 0.8590 0.8590 0.8590 0.8590 0.8590
1958.417000 0.8590 0.8580 0.8580 0.8580 0.8580
1966.072001 0.8580 0.8580 0.8580 0.8580 0.8580
1973.720000 0.8580 0.8570 0.8570 0.8570 0.8570
1981.375001 0.8560 0.8560 0.8560 0.8550 0.8550
1989.024000 0.8550 0.8550 0.8550 0.8550 0.8540
1996.679001 0.8540 0.8540 0.8530 0.8530 0.8530
2004.327000 0.8520 0.8520 0.8520 0.8510 0.8510
2011.982001 0.8510 0.8510 0.8510 0.8510 0.8510
2019.631000 0.8510 0.8500 0.8500 0.8500 0.8500
2027.286001 0.8500 0.8500 0.8500 0.8500 0.8490
2034.934000 0.8490 0.8490 0.8490 0.8490 0.8490
2042.589001 0.8490 0.8490 0.8490 0.8490 0.8490
2050.238000 0.8490 0.8490 0.8490 0.8490 0.8490
2057.893001 0.8490 0.8490 0.8490 0.8490 0.8490
2065.541000 0.8490 0.8490 0.8490 0.8490 0.8490
2073.196001 0.8490 0.8500 0.8500 0.8500 0.8500
2080.844000 0.8500 0.8500 0.8500 0.8500 0.8500
2088.499001 0.8500 0.8500 0.8500 0.8500 0.8500
2096.148000 0.8500 0.8500 0.8500 0.8500 0.8500
2103.803001 0.8500 0.8500 0.8500 0.8500 0.8500
2111.451000 0.8500 0.8490 0.8490 0.8490 0.8490
2119.106001 0.8490 0.8490 0.8490 0.8490 0.8490
2126.755000 0.8490 0.8490 0.8490 0.8490 0.8490
2134.410001 0.8490 0.8490 0.8490 0.8490 0.8490
2142.058000 0.8490 0.8490 0.8490 0.8490 0.8490
2149.713001 0.8490 0.8480 0.8480 0.8480 0.8480
2157.362000 0.8480 0.8480 0.8480 0.8480 0.8480
2165.017001 0.8480 0.8480 0.8480 0.8480 0.8480
2172.665000 0.8480 0.8470 0.8470 0.8470 0.8470
2180.320001 0.8470 0.8460 0.8460 0.8460 0.8460
2187.969000 0.8460 0.8450 0.8450 0.8450 0.8450
2195.624001 0.8450 0.8450 0.8450 0.8450 0.8450
2203.272000 0.8450 0.8440 0.8440 0.8440 0.8440
2210.927001 0.8440 0.8430 0.8430 0.8430 0.8430
2218.575000 0.8430 0.8430 0.8420 0.8420 0.8420
2226.230001 0.8420 0.8420 0.8420 0.8420 0.8420
2233.879000 0.8420 0.8420 0.8420 0.8420 0.8420
2241.534001 0.8410 0.8410 0.8410 0.8410 0.8410
2249.182000 0.8410 0.8410 0.8400 0.8400 0.8400
2256.837001 0.8400 0.8400 0.8400 0.8390 0.8390
2264.486000 0.8390 0.8390 0.8390 0.8390 0.8390
2272.141001 0.8390 0.8380 0.8380 0.8380 0.8370
2279.789000 0.8370 0.8370 0.8360 0.8360 0.8360
2287.444001 0.8360 0.8360 0.8360 0.8350 0.8350
2295.092000 0.8330 0.8330 0.8330 0.8330 0.8330
2302.747001 0.8320 0.8320 0.8320 0.8310 0.8310
2310.396000 0.8310 0.8300 0.8300 0.8300 0.8300
2318.051001 0.8300 0.8300 0.8300 0.8290 0.8290
2325.699000 0.8290 0.8290 0.8280 0.8280 0.8280
2333.354001 0.8280 0.8270 0.8270 0.8270 0.8270
2341.003000 0.8270 0.8270 0.8270 0.8270 0.8270
2348.658001 0.8270 0.8270 0.8270 0.8270 0.8270
2356.306000 0.8280 0.8280 0.8280 0.8290 0.8290
2363.961001 0.8290 0.8300 0.8300 0.8300 0.8300
2371.610000 0.8300 0.8300 0.8300 0.8300 0.8300
2379.265001 0.8300 0.8290 0.8290 0.8290 0.8280
2386.913000 0.8280 0.8270 0.8270 0.8270 0.8270
2394.568001 0.8270 0.8260 0.8260 0.8250 0.8250
2402.216000 0.8250 0.8250 0.8250 0.8250 0.8250
2409.871001 0.8250 0.8250 0.8250 0.8240 0.8240
2417.520000 0.8240 0.8240 0.8240 0.8240 0.8240
2425.175001 0.8240 0.8240 0.8240 0.8230 0.8230
2432.823000 0.8230 0.8230 0.8230 0.8230 0.8230
2440.478001 0.8230 0.8230 0.8230 0.8230 0.8230
2448.127000 0.8230 0.8220 0.8210 0.8200 0.8200
2455.782001 0.8200 0.8200 0.8190 0.8190 0.8180
2463.430000 0.8170 0.8170 0.8160 0.8150 0.8140
2471.085001 0.8140 0.8140 0.8130 0.8130 0.8120
2478.734000 0.8120 0.8110 0.8110 0.8110 0.8110
2486.389001 0.8100 0.8100 0.8100 0.8100 0.8090
2494.037000 0.8090 0.8090 0.8090 0.8090 0.8090
2501.692001 0.8090 0.8090 0.8080 0.8080 0.8080
2509.340000 0.8080 0.8080 0.8080 0.8080 0.8080
2516.995001 0.8080 0.8080 0.8080 0.8080 0.8080
2524.644000 0.8080 0.8080 0.8080 0.8080 0.8070
2532.299001 0.8060 0.8050 0.8050 0.8040 0.8030
2539.947000 0.8030 0.8020 0.8010 0.8010 0.8010
2547.602001 0.8000 0.7990 0.7980 0.7980 0.7980
2555.251000 0.7970 0.7960 0.7950 0.7950 0.7950
2562.906001 0.7940 0.7940 0.7930 0.7930 0.7920
2570.554000 0.7920 0.7920 0.7910 0.7910 0.7910
2578.209001 0.7910 0.7910 0.7910 0.7910 0.7910
2585.858000 0.7910 0.7900 0.7900 0.7900 0.7900
2593.513001 0.7900 0.7900 0.7900 0.7890 0.7890
2601.161000 0.7890 0.7880 0.7880 0.7870 0.7870
2608.816001 0.7860 0.7860 0.7860 0.7860 0.7850
2616.464000 0.7830 0.7830 0.7830 0.7810 0.7790
2624.119001 0.7790 0.7790 0.7780 0.7760 0.7760
2631.768000 0.7750 0.7750 0.7740 0.7740 0.7730
2639.423001 0.7730 0.7730 0.7730 0.7720 0.7720
2647.071000 0.7710 0.7710 0.7700 0.7700 0.7700
2654.726001 0.7700 0.7690 0.7690 0.7680 0.7680
2662.375000 0.7670 0.7670 0.7670 0.7670 0.7670
2670.030001 0.7670 0.7660 0.7650 0.7650 0.7640
2677.678000 0.7620 0.7610 0.7600 0.7580 0.7570
2685.333001 0.7560 0.7560 0.7550 0.7550 0.7540
2692.982000 0.7520 0.7510 0.7490 0.7480 0.7460
2700.637001 0.7450 0.7430 0.7420 0.7410 0.7390
2708.285000 0.7380 0.7370 0.7360 0.7350 0.7330
2715.940001 0.7320 0.7310 0.7290 0.7280 0.7270
2723.588000 0.7260 0.7230 0.7220 0.7200 0.7180
2731.243001 0.7160 0.7140 0.7120 0.7100 0.7090
2738.892000 0.7070 0.7060 0.7050 0.7040 0.7040
2746.547001 0.7040 0.7030 0.7030 0.7020 0.7020
2754.195000 0.7010 0.7010 0.7000 0.6980 0.6960
2761.850001 0.6940 0.6930 0.6920 0.6900 0.6880
2769.499000 0.6850 0.6820 0.6760 0.6760 0.6720
2777.154001 0.6690 0.6660 0.6630 0.6610 0.6580
2784.802000 0.6550 0.6520 0.6500 0.6470 0.6430
2792.457001 0.6420 0.6410 0.6410 0.6400 0.6390
2800.106000 0.6380 0.6380 0.6370 0.6370 0.6360
2807.761001 0.6350 0.6340 0.6330 0.6320 0.6320
2815.409000 0.6300 0.6280 0.6260 0.6230 0.6220
2823.064001 0.6190 0.6160 0.6130 0.6090 0.6050
2830.712000 0.6010 0.5970 0.5940 0.5900 0.5860
2838.367001 0.5820 0.5780 0.5740 0.5690 0.5650
2846.016000 0.5590 0.5540 0.5500 0.5440 0.5340
2853.671001 0.5260 0.5180 0.5110 0.5050 0.5000
2861.319000 0.4940 0.4900 0.4870 0.4830 0.4800
2868.974001 0.4770 0.4750 0.4740 0.4720 0.4710
2876.623000 0.4690 0.4680 0.4660 0.4650 0.4630
2884.278001 0.4620 0.4590 0.4580 0.4550 0.4520
2891.926000 0.4490 0.4450 0.4410 0.4360 0.4300
2899.581001 0.4240 0.4180 0.4100 0.4010 0.3940
2907.230000 0.3880 0.3810 0.3740 0.3680 0.3610
2914.885001 0.3550 0.3490 0.3430 0.3370 0.3310
2922.533000 0.3260 0.3200 0.3140 0.3090 0.3050
2930.188001 0.2990 0.2950 0.2890 0.2850 0.2810
2937.836000 0.2760 0.2730 0.2680 0.2640 0.2610
2945.491001 0.2570 0.2540 0.2510 0.2480 0.2450
2953.140000 0.2430 0.2420 0.2420 0.2420 0.2420
2960.795001 0.2420 0.2420 0.2420 0.2450 0.2470
2968.443000 0.2480 0.2510 0.2530 0.2540 0.2560
2976.098001 0.2590 0.2630 0.2660 0.2680 0.2710
2983.747000 0.2740 0.2780 0.2810 0.2840 0.2860
2991.402001 0.2890 0.2920 0.2940 0.2950 0.2950
2999.050000 0.2960 0.2960 0.2970 0.2980 0.2980
3006.705001 0.2990 0.3000 0.3010 0.3040 0.3070
3014.354000 0.3100 0.3130 0.3170 0.3200 0.3240
3022.009001 0.3280 0.3330 0.3360 0.3360 0.3380
3029.657000 0.3390 0.3400 0.3410 0.3410 0.3410
3037.312001 0.3410 0.3410 0.3410 0.3420 0.3420
3044.960000 0.3420 0.3420 0.3420 0.3430 0.3470
3052.615001 0.3500 0.3530 0.3560 0.3610 0.3650
3060.264000 0.3700 0.3750 0.3800 0.3840 0.3910
3067.919001 0.3960 0.4000 0.4040 0.4070 0.4090
3075.567000 0.4110 0.4130 0.4160 0.4180 0.4210
3083.222001 0.4220 0.4240 0.4270 0.4290 0.4330
3090.871000 0.4380 0.4420 0.4460 0.4490 0.4520
3098.526001 0.4550 0.4580 0.4600 0.4630 0.4650
3106.174000 0.4670 0.4690 0.4710 0.4730 0.4740
3113.829001 0.4760 0.4770 0.4780 0.4800 0.4810
3121.478000 0.4810 0.4830 0.4840 0.4840 0.4850
3129.133001 0.4860 0.4870 0.4880 0.4900 0.4920
3136.781000 0.4950 0.4980 0.5000 0.5030 0.5050
3144.436001 0.5060 0.5060 0.5060 0.5070 0.5080
3152.084000 0.5080 0.5090 0.5120 0.5140 0.5160
3159.739001 0.5180 0.5200 0.5220 0.5250 0.5260
3167.388000 0.5290 0.5310 0.5340 0.5390 0.5500
3175.043001 0.5540 0.5590 0.5640 0.5690 0.5740
3182.691000 0.5780 0.5830 0.5870 0.5910 0.5960
3190.346001 0.6000 0.6040 0.6080 0.6120 0.6160
3197.995000 0.6190 0.6230 0.6260 0.6300 0.6330
3205.650001 0.6360 0.6390 0.6420 0.6450 0.6480
3213.298000 0.6500 0.6530 0.6560 0.6570 0.6600
3220.953001 0.6620 0.6630 0.6650 0.6670 0.6680
3228.602000 0.6690 0.6710 0.6720 0.6720 0.6730
3236.257001 0.6740 0.6740 0.6740 0.6750 0.6760
3243.905000 0.6760 0.6760 0.6770 0.6780 0.6780
3251.560001 0.6790 0.6790 0.6790 0.6800 0.6820
3259.208000 0.6830 0.6850 0.6880 0.6900 0.6910
3266.863001 0.6930 0.6940 0.6940 0.6940 0.6940
3274.512000 0.6940 0.6940 0.6940 0.6940 0.6940
3282.167001 0.6940 0.6940 0.6940 0.6940 0.6940
3289.815000 0.6950 0.6950 0.6960 0.6960 0.6960
3297.470001 0.6960 0.6970 0.6970 0.6970 0.6980
3305.119000 0.6980 0.6980 0.6980 0.6980 0.6980
3312.774001 0.6990 0.6990 0.7000 0.7010 0.7010
3320.422000 0.7010 0.7020 0.7020 0.7030 0.7030
3328.077001 0.7030 0.7030 0.7030 0.7020 0.7020
3335.726000 0.7020 0.7010 0.6990 0.6970 0.6950
3343.381001 0.6930 0.6910 0.6910 0.6900 0.6880
3351.029000 0.6860 0.6840 0.6820 0.6790 0.6780
3358.684001 0.6760 0.6750 0.6730 0.6720 0.6720
3366.333000 0.6720 0.6720 0.6720 0.6710 0.6710
3373.988001 0.6710 0.6710 0.6710 0.6710 0.6710
3381.636000 0.6710 0.6710 0.6720 0.6720 0.6720
3389.291001 0.6720 0.6720 0.6720 0.6720 0.6720
3396.939000 0.6720 0.6710 0.6700 0.6700 0.6700
3404.594001 0.6700 0.6700 0.6700 0.6700 0.6690
3412.243000 0.6690 0.6690 0.6690 0.6690 0.6690
3419.898001 0.6700 0.6700 0.6710 0.6710 0.6720
3427.546000 0.6720 0.6720 0.6720 0.6720 0.6720
3435.201001 0.6720 0.6720 0.6730 0.6730 0.6750
3442.850000 0.6760 0.6770 0.6780 0.6790 0.6800
3450.505001 0.6810 0.6820 0.6820 0.6830 0.6830
3458.153000 0.6840 0.6850 0.6850 0.6860 0.6870
3465.808001 0.6880 0.6880 0.6890 0.6900 0.6900
3473.457000 0.6910 0.6910 0.6910 0.6920 0.6920
3481.112001 0.6920 0.6930 0.6930 0.6930 0.6940
3488.760000 0.6940 0.6940 0.6950 0.6940 0.6950
3496.415001 0.6950 0.6960 0.6960 0.6970 0.6980
3504.063000 0.6980 0.6990 0.7010 0.7020 0.7040
3511.718001 0.7040 0.7060 0.7070 0.7090 0.7100
3519.367000 0.7130 0.7140 0.7150 0.7160 0.7160
3527.022001 0.7170 0.7190 0.7200 0.7200 0.7210
3534.670000 0.7220 0.7240 0.7250 0.7260 0.7270
3542.325001 0.7290 0.7300 0.7320 0.7320 0.7340
3549.974000 0.7350 0.7360 0.7380 0.7380 0.7400
3557.629001 0.7410 0.7420 0.7430 0.7450 0.7460
3565.277000 0.7470 0.7480 0.7500 0.7510 0.7520
3572.932001 0.7530 0.7540 0.7550 0.7560 0.7570
3580.581000 0.7570 0.7580 0.7590 0.7600 0.7610
3588.236001 0.7610 0.7620 0.7620 0.7640 0.7670
3595.884000 0.7690 0.7690 0.7700 0.7720 0.7730
3603.539001 0.7750 0.7760 0.7770 0.7790 0.7800
3611.188000 0.7820 0.7830 0.7850 0.7860 0.7860
3618.843001 0.7870 0.7890 0.7890 0.7900 0.7910
3626.491000 0.7920 0.7920 0.7920 0.7930 0.7930
3634.146001 0.7940 0.7950 0.7950 0.7950 0.7950
3641.794000 0.7960 0.7960 0.7960 0.7960 0.7960
3649.449001 0.7960 0.7970 0.7970 0.7970 0.7980
3657.098000 0.7980 0.7980 0.7980 0.7980 0.7980
3664.753001 0.7990 0.7990 0.7990 0.8000 0.8000
3672.401000 0.8000 0.8010 0.8010 0.8010 0.8010
3680.056001 0.8010 0.8010 0.8010 0.8010 0.8020
3687.705000 0.8020 0.8020 0.8020 0.8030 0.8030
3695.360001 0.8030 0.8040 0.8040 0.8040 0.8040
3703.008000 0.8040 0.8050 0.8050 0.8050 0.8050
3710.663001 0.8050 0.8050 0.8050 0.8050 0.8050
3718.312000 0.8050 0.8040 0.8040 0.8040 0.8040
3725.967001 0.8030 0.8030 0.8030 0.8020 0.8020
3733.615000 0.8020 0.8020 0.8020 0.8020 0.8020
3741.270001 0.8020 0.8020 0.8020 0.8020 0.8030
3748.918000 0.8030 0.8030 0.8030 0.8030 0.8030
3756.573001 0.8030 0.8030 0.8030 0.8030 0.8030
3764.222000 0.8030 0.8030 0.8030 0.8020 0.8020
3771.877001 0.8010 0.8010 0.8010 0.8010 0.8010
3779.525000 0.8010 0.8000 0.8000 0.8000 0.8000
3787.180001 0.8000 0.7980 0.7980 0.7980 0.7980
3794.829000 0.7970 0.7960 0.7950 0.7950 0.7940
3802.484001 0.7930 0.7920 0.7910 0.7900 0.7890
3810.132000 0.7890
##END=
