##TITLE=3',4'-DICHLORO-4,5-DIMETHYL-2-HYDROXY BENZOPHENONE
##JCAMP-DX=4.24
##DATA TYPE=INFRARED SPECTRUM
##CLASS=COBLENTZ
##ORIGIN=DOW CHEMICAL COMPANY
##OWNER=COBLENTZ SOCIETY
Collection (C) 2018 copyright by the U.S. Secretary of Commerce
on behalf of the United States of America. All rights reserved.
##DATE=Not specified, most likely prior to 1970
##NAMES=(3,4-dichlorophenyl)(2-hydroxy-4,5-dimethylphenyl)methanone
##MOLFORM=C15 H12 Cl2 O2
##SOURCE REFERENCE=COBLENTZ NO. 4193
##$NIST ID=B6004193
##$NIST SOURCE=COBLENTZ
##$NIST IMAGE=cob4193
##SPECTROMETER/DATA SYSTEM=Not specified, most likely a prism, grating, or hybrid spectrometer.
##STATE=SOLUTION (10% IN CCl4 FOR 5000-1350 CM^-^1, 10% IN CS2 FOR 1350-625 CM^-^1)
##PATH LENGTH=0.01 CM, 0.01 CM
##SAMPLING PROCEDURE=TRANSMISSION
##RESOLUTION=4
##DATA PROCESSING=DIGITIZED BY NIST FROM HARD COPY
##XUNITS=MICROMETERS
##YUNITS=TRANSMITTANCE
##XFACTOR=1.000000
##YFACTOR=1
##DELTAX=000.006536
##FIRSTX=2.033
##LASTX=15.9151
##FIRSTY=0.849
##MAXX=15.9151
##MINX=2.033
##MAXY=0.901
##MINY=0.04
##NPOINTS=2125
##XYDATA=(X++(Y..Y))
2.033000 0.8490 0.8490 0.8490 0.8490 0.8490
2.065695 0.8490 0.8490 0.8490 0.8490 0.8490
2.098000 0.8490 0.8490 0.8490 0.8490 0.8510
2.130695 0.8510 0.8510 0.8510 0.8510 0.8510
2.163000 0.8510 0.8510 0.8510 0.8510 0.8520
2.195695 0.8520 0.8520 0.8520 0.8510 0.8510
2.229000 0.8490 0.8490 0.8480 0.8480 0.8480
2.261695 0.8480 0.8480 0.8480 0.8480 0.8490
2.294000 0.8490 0.8490 0.8490 0.8510 0.8510
2.326695 0.8510 0.8520 0.8520 0.8540 0.8540
2.359000 0.8540 0.8560 0.8560 0.8570 0.8570
2.391695 0.8590 0.8590 0.8610 0.8610 0.8620
2.425000 0.8620 0.8650 0.8670 0.8670 0.8690
2.457695 0.8690 0.8700 0.8700 0.8700 0.8720
2.490000 0.8720 0.8720 0.8720 0.8720 0.8730
2.522695 0.8730 0.8730 0.8730 0.8730 0.8730
2.556000 0.8730 0.8730 0.8720 0.8700 0.8700
2.588695 0.8690 0.8690 0.8690 0.8690 0.8700
2.621000 0.8700 0.8700 0.8700 0.8700 0.8700
2.653695 0.8700 0.8720 0.8720 0.8730 0.8730
2.686000 0.8730 0.8720 0.8670 0.8670 0.8650
2.718695 0.8650 0.8650 0.8650 0.8650 0.8640
2.752000 0.8640 0.8640 0.8640 0.8640 0.8620
2.784695 0.8610 0.8590 0.8590 0.8570 0.8560
2.817000 0.8540 0.8490 0.8480 0.8460 0.8460
2.849695 0.8440 0.8410 0.8410 0.8380 0.8350
2.882000 0.8350 0.8330 0.8310 0.8300 0.8270
2.914695 0.8250 0.8220 0.8190 0.8170 0.8140
2.948000 0.8100 0.8070 0.8020 0.7990 0.7960
2.980695 0.7910 0.7860 0.7800 0.7750 0.7700
3.013000 0.7650 0.7590 0.7540 0.7470 0.7410
3.045695 0.7350 0.7300 0.7230 0.7170 0.7120
3.078000 0.7050 0.7010 0.6960 0.6890 0.6840
3.110695 0.6810 0.6760 0.6730 0.6680 0.6670
3.144000 0.6630 0.6600 0.6590 0.6590 0.6590
3.176695 0.6570 0.6570 0.6550 0.6540 0.6520
3.209000 0.6510 0.6470 0.6440 0.6410 0.6380
3.241695 0.6340 0.6280 0.6250 0.6200 0.6180
3.275000 0.6170 0.6150 0.6150 0.6130 0.6130
3.307695 0.6130 0.6130 0.6130 0.6150 0.6170
3.340000 0.6170 0.6100 0.6040 0.5940 0.5860
3.372695 0.5760 0.5680 0.5580 0.5520 0.5500
3.405000 0.5490 0.5500 0.5630 0.5750 0.5880
3.437695 0.5960 0.6050 0.6330 0.6520 0.6630
3.471000 0.6670 0.6720 0.6750 0.6780 0.6890
3.503695 0.7040 0.7100 0.7300 0.7410 0.7570
3.536000 0.7700 0.7720 0.7750 0.7800 0.7810
3.568695 0.7830 0.7850 0.7850 0.7880 0.7890
3.601000 0.7960 0.7980 0.7990 0.7990 0.7990
3.633695 0.7990 0.7990 0.8010 0.8010 0.8010
3.667000 0.8020 0.8040 0.8060 0.8070 0.8090
3.699695 0.8100 0.8120 0.8140 0.8190 0.8220
3.732000 0.8250 0.8270 0.8280 0.8310 0.8330
3.764695 0.8330 0.8360 0.8380 0.8400 0.8410
3.797000 0.8410 0.8430 0.8430 0.8410 0.8400
3.829695 0.8380 0.8360 0.8350 0.8350 0.8360
3.863000 0.8380 0.8430 0.8440 0.8460 0.8490
3.895695 0.8490 0.8490 0.8510 0.8510 0.8520
3.928000 0.8540 0.8560 0.8570 0.8590 0.8610
3.960695 0.8620 0.8640 0.8670 0.8700 0.8720
3.993000 0.8720 0.8730 0.8750 0.8770 0.8780
4.025695 0.8780 0.8780 0.8750 0.8720 0.8690
4.059000 0.8670 0.8650 0.8670 0.8690 0.8690
4.091695 0.8700 0.8700 0.8690 0.8670 0.8690
4.124000 0.8730 0.8750 0.8770 0.8780 0.8780
4.156695 0.8780 0.8780 0.8780 0.8770 0.8770
4.190000 0.8750 0.8750 0.8730 0.8720 0.8690
4.222695 0.8670 0.8640 0.8610 0.8540 0.8520
4.255000 0.8490 0.8480 0.8460 0.8460 0.8460
4.287695 0.8480 0.8490 0.8510 0.8540 0.8570
4.320000 0.8610 0.8620 0.8640 0.8690 0.8700
4.352695 0.8720 0.8720 0.8730 0.8730 0.8750
4.386000 0.8770 0.8780 0.8800 0.8830 0.8830
4.418695 0.8850 0.8850 0.8860 0.8860 0.8880
4.451000 0.8900 0.8910 0.8910 0.8910 0.8930
4.483695 0.8930 0.8930 0.8930 0.8930 0.8930
4.516000 0.8930 0.8930 0.8930 0.8930 0.8930
4.548695 0.8930 0.8930 0.8930 0.8930 0.8930
4.582000 0.8930 0.8930 0.8930 0.8930 0.8930
4.614695 0.8930 0.8930 0.8930 0.8930 0.8930
4.647000 0.8930 0.8930 0.8930 0.8930 0.8930
4.679695 0.8930 0.8930 0.8960 0.8960 0.8990
4.712000 0.9010 0.9010 0.8990 0.8990 0.8990
4.744695 0.8990 0.8990 0.8990 0.8980 0.8980
4.778000 0.8960 0.8960 0.8960 0.8960 0.8960
4.810695 0.8960 0.8980 0.8990 0.8990 0.8990
4.843000 0.8990 0.8990 0.8990 0.8990 0.8990
4.875695 0.8990 0.8990 0.8990 0.8990 0.8980
4.908000 0.8980 0.8960 0.8960 0.8940 0.8940
4.940695 0.8940 0.8910 0.8910 0.8910 0.8900
4.974000 0.8900 0.8880 0.8880 0.8860 0.8860
5.006695 0.8850 0.8850 0.8830 0.8830 0.8850
5.039000 0.8860 0.8910 0.8930 0.8940 0.8960
5.071695 0.8980 0.8980 0.8980 0.8980 0.8960
5.105000 0.8960 0.8960 0.8960 0.8940 0.8930
5.137695 0.8910 0.8910 0.8900 0.8860 0.8850
5.170000 0.8830 0.8830 0.8830 0.8820 0.8820
5.202695 0.8800 0.8770 0.8720 0.8690 0.8670
5.235000 0.8670 0.8700 0.8750 0.8770 0.8780
5.267695 0.8780 0.8800 0.8800 0.8820 0.8830
5.301000 0.8850 0.8860 0.8860 0.8880 0.8900
5.333695 0.8900 0.8900 0.8880 0.8850 0.8850
5.366000 0.8830 0.8830 0.8830 0.8850 0.8850
5.398695 0.8880 0.8900 0.8900 0.8860 0.8850
5.431000 0.8820 0.8800 0.8800 0.8800 0.8820
5.463695 0.8820 0.8820 0.8820 0.8800 0.8800
5.497000 0.8780 0.8770 0.8750 0.8730 0.8720
5.529695 0.8690 0.8650 0.8620 0.8570 0.8520
5.562000 0.8480 0.8410 0.8350 0.8280 0.8230
5.594695 0.8220 0.8220 0.8220 0.8230 0.8280
5.627000 0.8300 0.8310 0.8330 0.8350 0.8360
5.659695 0.8400 0.8410 0.8430 0.8430 0.8410
5.693000 0.8350 0.8250 0.8120 0.8060 0.7960
5.725695 0.7850 0.7750 0.7640 0.7590 0.7560
5.758000 0.7590 0.7700 0.7850 0.7980 0.8020
5.790695 0.8100 0.8200 0.8220 0.8220 0.8220
5.824000 0.8190 0.8170 0.8150 0.8140 0.8120
5.856695 0.8100 0.8090 0.8070 0.8060 0.8040
5.889000 0.8020 0.8010 0.7990 0.7980 0.7960
5.921695 0.7940 0.7930 0.7880 0.7780 0.7670
5.954000 0.7590 0.7510 0.7440 0.7360 0.7280
5.986695 0.7170 0.7020 0.6830 0.6590 0.6490
6.020000 0.6360 0.6170 0.5910 0.5600 0.5230
6.052695 0.4790 0.4260 0.3660 0.2970 0.2190
6.085000 0.1300 0.0820 0.0580 0.0420 0.0400
6.117695 0.0420 0.0610 0.0720 0.0740 0.0790
6.150000 0.0820 0.0850 0.0880 0.0900 0.0920
6.182695 0.0920 0.0920 0.0920 0.0930 0.0960
6.216000 0.1030 0.1270 0.1480 0.1720 0.2010
6.248695 0.2290 0.2310 0.2290 0.2100 0.1920
6.281000 0.1720 0.1510 0.1380 0.1320 0.1290
6.313695 0.1300 0.1370 0.1430 0.1470 0.1510
6.346000 0.1530 0.1550 0.1580 0.1630 0.1680
6.378695 0.1710 0.1740 0.1760 0.1740 0.1720
6.412000 0.1690 0.1610 0.1590 0.1580 0.1590
6.444695 0.1680 0.1760 0.1870 0.2080 0.2370
6.477000 0.2660 0.2970 0.3210 0.3420 0.3600
6.509695 0.3730 0.3840 0.3920 0.4000 0.4080
6.542000 0.4160 0.4260 0.4290 0.4360 0.4390
6.574695 0.4420 0.4440 0.4490 0.4500 0.4490
6.608000 0.4450 0.4370 0.4280 0.4110 0.3950
6.640695 0.3760 0.3470 0.3190 0.3000 0.2770
6.673000 0.2580 0.2400 0.2340 0.2340 0.2560
6.705695 0.2840 0.3000 0.3110 0.3240 0.3390
6.739000 0.3480 0.3500 0.3310 0.3260 0.3110
6.771695 0.2920 0.2770 0.2630 0.2500 0.2390
6.804000 0.2320 0.2290 0.2320 0.2420 0.2550
6.836695 0.2640 0.2710 0.2740 0.2790 0.2840
6.869000 0.2920 0.3020 0.3180 0.3390 0.3660
6.901695 0.4000 0.4260 0.4550 0.4830 0.5050
6.935000 0.5280 0.5460 0.5620 0.5750 0.5860
6.967695 0.5960 0.6000 0.6040 0.6070 0.6120
7.000000 0.6170 0.6210 0.6250 0.6260 0.6260
7.032695 0.6280 0.6280 0.6250 0.6180 0.6050
7.065000 0.5910 0.5710 0.5520 0.5290 0.5050
7.097695 0.4810 0.4570 0.4310 0.4050 0.3810
7.131000 0.3570 0.3320 0.3100 0.2900 0.2710
7.163695 0.2560 0.2420 0.2370 0.2290 0.2240
7.196000 0.2190 0.2130 0.2100 0.2080 0.2100
7.228695 0.2160 0.2240 0.2320 0.2520 0.2730
7.261000 0.2970 0.3290 0.3530 0.3710 0.3970
7.293695 0.4030 0.4100 0.4110 0.4100 0.3970
7.327000 0.3900 0.3710 0.3500 0.3270 0.3030
7.359695 0.2770 0.2520 0.2260 0.2030 0.1800
7.392000 0.1610 0.1300 0.1010 0.0840 0.0720
7.424695 0.0630 0.0580 0.0530 0.0510 0.0500
7.458000 0.0500 0.0530 0.0630 0.0750 0.0930
7.490695 0.1130 0.1350 0.1610 0.1870 0.2140
7.523000 0.2430 0.2710 0.3000 0.3260 0.3520
7.555695 0.3760 0.3950 0.4310 0.4570 0.4810
7.588000 0.5040 0.5290 0.5600 0.5790 0.5910
7.620695 0.5990 0.6050 0.6130 0.6250 0.6300
7.654000 0.6360 0.6410 0.6420 0.6020 0.6000
7.686695 0.6020 0.6050 0.6090 0.6100 0.6090
7.719000 0.5990 0.5840 0.5650 0.5460 0.5050
7.751695 0.4650 0.4310 0.3870 0.3360 0.2970
7.784000 0.2560 0.2130 0.1800 0.1660 0.1550
7.816695 0.1550 0.1610 0.1740 0.1850 0.1920
7.850000 0.1930 0.1930 0.1840 0.1680 0.1510
7.882695 0.1320 0.1110 0.0930 0.0770 0.0630
7.915000 0.0610 0.0640 0.0740 0.0850 0.0960
7.947695 0.1080 0.1190 0.1300 0.1450 0.1470
7.980000 0.1470 0.1270 0.1190 0.1210 0.1560
8.012695 0.1680 0.1840 0.2060 0.2270 0.2470
8.046000 0.2580 0.2690 0.2710 0.2710 0.2640
8.078695 0.2480 0.2320 0.2110 0.1980 0.1790
8.111000 0.1630 0.1480 0.1320 0.1190 0.1080
8.143695 0.0980 0.0930 0.0920 0.0900 0.0920
8.176000 0.0930 0.1000 0.1140 0.1420 0.1610
8.208695 0.1800 0.2030 0.2270 0.2530 0.2790
8.242000 0.3060 0.3310 0.3440 0.3530 0.3580
8.274695 0.3580 0.3530 0.3400 0.3230 0.3060
8.307000 0.2870 0.2690 0.2580 0.2550 0.2580
8.339695 0.2970 0.3370 0.3810 0.4280 0.4760
8.373000 0.5210 0.5620 0.5920 0.6130 0.6210
8.405695 0.6410 0.6590 0.6720 0.6810 0.6840
8.438000 0.6860 0.6880 0.6890 0.6890 0.6890
8.470695 0.6890 0.6890 0.6880 0.6840 0.6810
8.503000 0.6780 0.6730 0.6700 0.6650 0.6570
8.535695 0.6520 0.6460 0.6380 0.6310 0.6180
8.569000 0.6120 0.6050 0.6000 0.5990 0.5970
8.601695 0.5990 0.6070 0.6250 0.6410 0.6600
8.634000 0.6760 0.6940 0.7070 0.7180 0.7250
8.666695 0.7260 0.7250 0.7220 0.7170 0.7070
8.699000 0.7010 0.6960 0.6860 0.6760 0.6650
8.731695 0.6550 0.6470 0.6380 0.6260 0.6150
8.765000 0.6020 0.5860 0.5780 0.5550 0.5280
8.797695 0.4990 0.4740 0.4570 0.4390 0.4310
8.830000 0.4290 0.4310 0.4550 0.4890 0.5210
8.862695 0.5580 0.5880 0.6120 0.6310 0.6470
8.895000 0.6620 0.6760 0.6910 0.7070 0.7180
8.927695 0.7280 0.7390 0.7490 0.7590 0.7670
8.961000 0.7730 0.7770 0.7780 0.7800 0.7800
8.993695 0.7730 0.7640 0.7510 0.7360 0.7170
9.026000 0.6960 0.6680 0.6360 0.6000 0.5670
9.058695 0.5280 0.4870 0.4520 0.4110 0.3810
9.092000 0.3470 0.3210 0.3160 0.3160 0.3290
9.124695 0.3730 0.4320 0.4910 0.5420 0.5810
9.157000 0.6200 0.6700 0.7070 0.7350 0.7520
9.189695 0.7650 0.7730 0.7830 0.7930 0.8060
9.222000 0.8100 0.8140 0.8200 0.8230 0.8280
9.254695 0.8310 0.8330 0.8350 0.8360 0.8360
9.288000 0.8380 0.8400 0.8400 0.8410 0.8410
9.320695 0.8430 0.8440 0.8460 0.8460 0.8480
9.353000 0.8480 0.8490 0.8490 0.8490 0.8510
9.385695 0.8520 0.8520 0.8520 0.8510 0.8510
9.418000 0.8510 0.8510 0.8490 0.8490 0.8480
9.450695 0.8480 0.8440 0.8430 0.8410 0.8400
9.484000 0.8360 0.8330 0.8300 0.8280 0.8230
9.516695 0.8190 0.8120 0.8070 0.7980 0.7860
9.549000 0.7720 0.7560 0.7360 0.7170 0.6940
9.581695 0.6700 0.6440 0.6180 0.5910 0.5630
9.614000 0.5340 0.5070 0.4780 0.4490 0.4210
9.646695 0.3920 0.3660 0.3390 0.3080 0.3000
9.680000 0.2980 0.3000 0.3360 0.3690 0.4150
9.712695 0.4570 0.4940 0.5250 0.5500 0.5780
9.745000 0.5810 0.5840 0.5880 0.5890 0.5960
9.777695 0.5970 0.6050 0.6230 0.6440 0.6700
9.810000 0.6970 0.7180 0.7260 0.7360 0.7410
9.842695 0.7440 0.7440 0.7410 0.7360 0.7300
9.876000 0.7250 0.7170 0.7100 0.6990 0.6860
9.908695 0.6700 0.6550 0.6460 0.6360 0.6260
9.941000 0.6210 0.6200 0.6210 0.6380 0.6620
9.973695 0.7020 0.7260 0.7460 0.7650 0.7850
10.007000 0.8070 0.8350 0.8480 0.8520 0.8570
10.039695 0.8590 0.8650 0.8770 0.8800 0.8820
10.072000 0.8830 0.8850 0.8850 0.8860 0.8900
10.104695 0.8910 0.8930 0.8930 0.8940 0.8940
10.137000 0.8960 0.8980 0.8980 0.8980 0.8980
10.169695 0.8980 0.8980 0.8980 0.8980 0.8990
10.203000 0.8990 0.9010 0.9010 0.9010 0.9010
10.235695 0.9010 0.8990 0.8990 0.8980 0.8980
10.268000 0.8960 0.8960 0.8930 0.8910 0.8900
10.300695 0.8900 0.8880 0.8880 0.8880 0.8850
10.333000 0.8820 0.8800 0.8800 0.8780 0.8770
10.365695 0.8720 0.8700 0.8670 0.8620 0.8570
10.399000 0.8480 0.8400 0.8280 0.8220 0.8150
10.431695 0.8100 0.8040 0.7960 0.7860 0.7770
10.464000 0.7680 0.7620 0.7560 0.7510 0.7430
10.496695 0.7360 0.7250 0.7140 0.6970 0.6800
10.529000 0.6550 0.6410 0.6200 0.5920 0.5600
10.561695 0.5260 0.4910 0.4570 0.4240 0.3950
10.595000 0.3710 0.3420 0.3260 0.3240 0.3260
10.627695 0.3360 0.3480 0.3690 0.3840 0.3950
10.660000 0.4080 0.4100 0.4100 0.4080 0.3950
10.692695 0.3820 0.3650 0.3450 0.3360 0.3260
10.725000 0.3230 0.3230 0.3310 0.3600 0.3920
10.757695 0.4240 0.4600 0.4950 0.5230 0.5500
10.791000 0.5760 0.6090 0.6460 0.6810 0.7010
10.823695 0.7140 0.7220 0.7310 0.7440 0.7560
10.856000 0.7620 0.7680 0.7680 0.7700 0.7730
10.888695 0.7770 0.7780 0.7800 0.7800 0.7810
10.922000 0.7810 0.7810 0.7810 0.7810 0.7800
10.954695 0.7780 0.7730 0.7700 0.7680 0.7640
10.987000 0.7620 0.7600 0.7560 0.7490 0.7430
11.019695 0.7350 0.7280 0.7230 0.7150 0.7090
11.052000 0.7020 0.6940 0.6840 0.6700 0.6550
11.084695 0.6460 0.6330 0.6200 0.6070 0.5940
11.118000 0.5810 0.5680 0.5550 0.5440 0.5340
11.150695 0.5250 0.5200 0.5130 0.5080 0.5070
11.183000 0.5040 0.5020 0.4990 0.4940 0.4840
11.215695 0.4780 0.4710 0.4650 0.4620 0.4600
11.248000 0.4580 0.4600 0.4710 0.4840 0.5000
11.280695 0.5200 0.5440 0.5650 0.5840 0.5990
11.314000 0.6100 0.6180 0.6210 0.6300 0.6330
11.346695 0.6380 0.6380 0.6390 0.6390 0.6390
11.379000 0.6380 0.6310 0.6260 0.6170 0.6050
11.411695 0.5890 0.5760 0.5680 0.5580 0.5460
11.444000 0.5250 0.5040 0.4830 0.4570 0.4320
11.476695 0.4100 0.3890 0.3710 0.3550 0.3450
11.510000 0.3390 0.3370 0.3390 0.3550 0.3760
11.542695 0.3950 0.4160 0.4390 0.4650 0.4840
11.575000 0.5040 0.5210 0.5340 0.5470 0.5570
11.607695 0.5650 0.5730 0.5790 0.5840 0.5880
11.641000 0.5910 0.5960 0.5970 0.5990 0.6000
11.673695 0.6020 0.6040 0.6070 0.6090 0.6100
11.706000 0.6130 0.6170 0.6200 0.6210 0.6250
11.738695 0.6280 0.6300 0.6330 0.6380 0.6380
11.771000 0.6390 0.6420 0.6470 0.6510 0.6540
11.803695 0.6550 0.6570 0.6590 0.6590 0.6590
11.837000 0.6570 0.6570 0.6520 0.6490 0.6410
11.869695 0.6330 0.6280 0.6180 0.6070 0.5910
11.902000 0.5750 0.5550 0.5360 0.5160 0.4940
11.934695 0.4730 0.4450 0.4240 0.4000 0.3760
11.967000 0.3630 0.3550 0.3500 0.3480 0.3500
11.999695 0.3780 0.3990 0.4230 0.4440 0.4650
12.033000 0.4950 0.5250 0.5470 0.5730 0.5840
12.065695 0.5960 0.6050 0.6150 0.6230 0.6280
12.098000 0.6280 0.6300 0.6310 0.6310 0.6310
12.130695 0.6300 0.6300 0.6280 0.6210 0.6200
12.163000 0.6180 0.6130 0.6120 0.6100 0.6090
12.195695 0.6070 0.6070 0.6050 0.6040 0.6040
12.229000 0.6020 0.6000 0.5990 0.5990 0.5970
12.261695 0.5970 0.5960 0.5940 0.5920 0.5910
12.294000 0.5890 0.5860 0.5840 0.5830 0.5810
12.326695 0.5780 0.5760 0.5750 0.5710 0.5700
12.359000 0.5670 0.5630 0.5620 0.5620 0.5600
12.391695 0.5580 0.5570 0.5540 0.5500 0.5470
12.425000 0.5460 0.5420 0.5390 0.5330 0.5290
12.457695 0.5210 0.5150 0.5050 0.4990 0.4910
12.490000 0.4810 0.4710 0.4620 0.4490 0.4360
12.522695 0.4230 0.4080 0.3940 0.3780 0.3630
12.556000 0.3470 0.3320 0.3160 0.3020 0.2850
12.588695 0.2710 0.2550 0.2400 0.2260 0.2140
12.621000 0.2050 0.2000 0.1950 0.1870 0.1820
12.653695 0.1790 0.1770 0.1760 0.1740 0.1740
12.686000 0.1760 0.1770 0.1840 0.1950 0.1970
12.718695 0.2050 0.2110 0.2210 0.2310 0.2400
12.752000 0.2520 0.2630 0.2740 0.2820 0.2900
12.784695 0.2950 0.2980 0.3000 0.3020 0.3020
12.817000 0.3020 0.3000 0.2900 0.2850 0.2760
12.849695 0.2640 0.2560 0.2400 0.2240 0.2140
12.882000 0.1970 0.1850 0.1760 0.1640 0.1550
12.914695 0.1480 0.1420 0.1380 0.1370 0.1350
12.948000 0.1350 0.1370 0.1430 0.1550 0.1660
12.980695 0.1770 0.1920 0.2220 0.2450 0.2680
13.013000 0.2920 0.3260 0.3730 0.3990 0.4240
13.045695 0.4520 0.4740 0.4950 0.5100 0.5330
13.078000 0.5540 0.5650 0.5780 0.5880 0.5960
13.110695 0.6000 0.6050 0.6090 0.6100 0.6120
13.144000 0.6130 0.6130 0.6150 0.6150 0.6150
13.176695 0.6130 0.6120 0.6120 0.6090 0.6040
13.209000 0.6000 0.5970 0.5960 0.5910 0.5880
13.241695 0.5830 0.5790 0.5780 0.5710 0.5680
13.275000 0.5630 0.5600 0.5580 0.5520 0.5500
13.307695 0.5490 0.5420 0.5410 0.5390 0.5370
13.340000 0.5370 0.5330 0.5310 0.5290 0.5280
13.372695 0.5260 0.5260 0.5250 0.5250 0.5230
13.405000 0.5210 0.5200 0.5180 0.5150 0.5120
13.437695 0.5100 0.5080 0.5040 0.5000 0.4970
13.471000 0.4920 0.4890 0.4810 0.4780 0.4700
13.503695 0.4630 0.4530 0.4360 0.4240 0.4070
13.536000 0.3950 0.3840 0.3740 0.3630 0.3550
13.568695 0.3480 0.3420 0.3400 0.3420 0.3470
13.601000 0.3570 0.3660 0.3820 0.3990 0.4150
13.633695 0.4290 0.4440 0.4550 0.4660 0.4740
13.667000 0.4780 0.4860 0.4940 0.4990 0.5020
13.699695 0.5050 0.5080 0.5120 0.5150 0.5180
13.732000 0.5200 0.5200 0.5210 0.5230 0.5260
13.764695 0.5280 0.5280 0.5290 0.5290 0.5290
13.797000 0.5310 0.5310 0.5310 0.5330 0.5330
13.829695 0.5340 0.5340 0.5370 0.5370 0.5370
13.863000 0.5340 0.5330 0.5310 0.5280 0.5260
13.895695 0.5210 0.5160 0.5100 0.5000 0.4920
13.928000 0.4810 0.4700 0.4580 0.4470 0.4340
13.960695 0.4180 0.4050 0.3920 0.3900 0.3890
13.993000 0.3810 0.3760 0.3730 0.3710 0.3730
14.025695 0.3760 0.3860 0.3950 0.4050 0.4160
14.059000 0.4260 0.4340 0.4440 0.4530 0.4600
14.091695 0.4680 0.4710 0.4780 0.4840 0.4890
14.124000 0.4920 0.4970 0.5000 0.5040 0.5080
14.156695 0.5120 0.5150 0.5180 0.5200 0.5230
14.190000 0.5250 0.5290 0.5310 0.5330 0.5330
14.222695 0.5340 0.5340 0.5340 0.5340 0.5340
14.255000 0.5340 0.5330 0.5330 0.5310 0.5310
14.287695 0.5290 0.5280 0.5260 0.5250 0.5210
14.320000 0.5200 0.5180 0.5160 0.5120 0.5100
14.352695 0.5050 0.5020 0.4990 0.4970 0.4920
14.386000 0.4910 0.4890 0.4860 0.4840 0.4830
14.418695 0.4810 0.4810 0.4810 0.4830 0.4840
14.451000 0.4860 0.4870 0.4910 0.4920 0.4950
14.483695 0.4970 0.5000 0.5050 0.5070 0.5100
14.516000 0.5120 0.5130 0.5160 0.5200 0.5230
14.548695 0.5260 0.5280 0.5290 0.5310 0.5330
14.582000 0.5340 0.5370 0.5390 0.5390 0.5410
14.614695 0.5410 0.5410 0.5410 0.5390 0.5390
14.647000 0.5390 0.5390 0.5370 0.5370 0.5360
14.679695 0.5340 0.5310 0.5280 0.5260 0.5230
14.712000 0.5200 0.5150 0.5100 0.5040 0.4970
14.744695 0.4890 0.4830 0.4740 0.4660 0.4570
14.778000 0.4490 0.4420 0.4340 0.4260 0.4160
14.810695 0.4100 0.4030 0.4000 0.3940 0.3920
14.843000 0.3890 0.3870 0.3840 0.3820 0.3810
14.875695 0.3810 0.3810 0.3820 0.3860 0.3870
14.908000 0.3920 0.3990 0.4050 0.4150 0.4240
14.940695 0.4340 0.4440 0.4530 0.4630 0.4710
14.974000 0.4760 0.4830 0.4860 0.4910 0.4940
15.006695 0.4970 0.4990 0.5000 0.5020 0.5020
15.039000 0.5040 0.5040 0.5040 0.5040 0.5020
15.071695 0.5000 0.5000 0.4990 0.4990 0.4970
15.105000 0.4940 0.4940 0.4920 0.4920 0.4910
15.137695 0.4890 0.4860 0.4840 0.4840 0.4830
15.170000 0.4810 0.4810 0.4790 0.4760 0.4740
15.202695 0.4740 0.4730 0.4730 0.4710 0.4710
15.235000 0.4700 0.4680 0.4680 0.4660 0.4660
15.267695 0.4650 0.4630 0.4630 0.4600 0.4580
15.301000 0.4580 0.4570 0.4570 0.4550 0.4550
15.333695 0.4530 0.4530 0.4520 0.4520 0.4500
15.366000 0.4500 0.4490 0.4490 0.4470 0.4470
15.398695 0.4470 0.4450 0.4450 0.4440 0.4440
15.431000 0.4420 0.4410 0.4410 0.4390 0.4370
15.463695 0.4370 0.4370 0.4360 0.4340 0.4320
15.497000 0.4310 0.4290 0.4280 0.4280 0.4280
15.529695 0.4280 0.4260 0.4260 0.4240 0.4240
15.562000 0.4230 0.4210 0.4210 0.4200 0.4200
15.594695 0.4180 0.4160 0.4160 0.4130 0.4130
15.627000 0.4110 0.4080 0.4080 0.4070 0.4070
15.659695 0.4050 0.4050 0.4030 0.4030 0.4020
15.693000 0.4020 0.4000 0.4000 0.3990 0.3990
15.725695 0.3970 0.3970 0.3970 0.3950 0.3940
15.758000 0.3940 0.3920 0.3890 0.3890 0.3870
15.790695 0.3860 0.3840 0.3840 0.3840 0.3820
15.824000 0.3810 0.3810 0.3810 0.3810 0.3810
15.856695 0.3810 0.3810 0.3820 0.3820 0.3840
15.889000 0.3840 0.3860 0.3870 0.3890 0.3890
##END=
