##TITLE=DI(2-ETHYLBUTYL)-3,4-DIPHENYL ADIPATE
##JCAMP-DX=4.24
##DATA TYPE=INFRARED SPECTRUM
##CLASS=COBLENTZ
##OWNER=COBLENTZ SOCIETY
Collection (C) 2018 copyright by the U.S. Secretary of Commerce
on behalf of the United States of America. All rights reserved.
##DATE=1960
##NAMES=bis(2-ethylbutyl) 3,4-diphenylhexanedioate
##MOLFORM=C30 H42 O4
##SOURCE REFERENCE=COBLENTZ NO. 784
##$NIST ID=B6000784
##$NIST SOURCE=COBLENTZ
##$NIST IMAGE=cob784
##SPECTROMETER/DATA SYSTEM=Not specified, most likely a prism, grating, or hybrid spectrometer.
##PATH LENGTH=0.0031 CM
##SAMPLING PROCEDURE=TRANSMISSION
##RESOLUTION=4
##DATA PROCESSING=DIGITIZED BY NIST FROM HARD COPY
##XUNITS=MICROMETERS
##YUNITS=TRANSMITTANCE
##XFACTOR=1.000000
##YFACTOR=1
##DELTAX=000.006871
##FIRSTX=2.027
##LASTX=16.0172
##FIRSTY=0.174
##MAXX=16.0172
##MINX=2.027
##MAXY=0.989
##MINY=0.01
##NPOINTS=2037
##XYDATA=(X++(Y..Y))
2.027000 0.1740 0.1740 0.1740 0.1740 0.1750
2.061372 0.1750 0.1770 0.1800 0.1800 0.1750
2.096000 0.1770 0.1770 0.1770 0.1790 0.1800
2.130372 0.1820 0.1860 0.1870 0.1870 0.1860
2.165000 0.1860 0.1860 0.1890 0.1910 0.1920
2.199372 0.1960 0.1970 0.1990 0.2010 0.2030
2.234000 0.2040 0.2060 0.2080 0.2090 0.2080
2.268372 0.2080 0.2090 0.2110 0.2130 0.2160
2.302000 0.2210 0.2250 0.2260 0.2280 0.2320
2.336372 0.2320 0.2350 0.2370 0.2370 0.2380
2.371000 0.2400 0.2400 0.2380 0.2420 0.2420
2.405372 0.2450 0.2470 0.2490 0.2490 0.2550
2.440000 0.2570 0.2610 0.2640 0.2710 0.2740
2.474372 0.2760 0.2780 0.2790 0.2830 0.2840
2.508000 0.2880 0.2880 0.2880 0.2900 0.2960
2.542372 0.2980 0.3020 0.3030 0.3080 0.3080
2.577000 0.3150 0.3190 0.3200 0.3220 0.3250
2.611372 0.3270 0.3270 0.3290 0.3290 0.3320
2.646000 0.3390 0.3430 0.3440 0.3440 0.3460
2.680372 0.3480 0.3490 0.3510 0.3530 0.3530
2.715000 0.3540 0.3540 0.3540 0.3560 0.3540
2.749372 0.3540 0.3560 0.3560 0.3580 0.3580
2.783000 0.3600 0.3610 0.3610 0.3630 0.3610
2.817372 0.3630 0.3650 0.3660 0.3680 0.3660
2.852000 0.3630 0.3530 0.3460 0.3360 0.3310
2.886372 0.3240 0.3220 0.3220 0.3290 0.3370
2.921000 0.3480 0.3600 0.3680 0.3770 0.3800
2.955372 0.3820 0.3830 0.3850 0.3870 0.3890
2.989000 0.3920 0.3950 0.3970 0.3990 0.3990
3.023372 0.3990 0.3970 0.3990 0.3990 0.4010
3.058000 0.4040 0.4090 0.4090 0.4110 0.4120
3.092372 0.4120 0.4120 0.4120 0.4120 0.4120
3.127000 0.4120 0.4110 0.4070 0.4040 0.4020
3.161372 0.4010 0.3970 0.3950 0.3990 0.3990
3.196000 0.4020 0.3780 0.3610 0.3440 0.3270
3.230372 0.3100 0.2930 0.2740 0.2500 0.2470
3.264000 0.2440 0.2350 0.2210 0.2200 0.2200
3.298372 0.2200 0.2200 0.2320 0.2280 0.2080
3.333000 0.1750 0.1220 0.0950 0.0760 0.0610
3.367372 0.0370 0.0270 0.0220 0.0200 0.0170
3.402000 0.0130 0.0100 0.0100 0.0110 0.0150
3.436372 0.0220 0.0270 0.0340 0.0420 0.0510
3.470000 0.0520 0.0540 0.0440 0.0440 0.0520
3.504372 0.0730 0.1020 0.1530 0.2160 0.3320
3.539000 0.3610 0.3940 0.4090 0.4360 0.4430
3.573372 0.4520 0.4620 0.4740 0.4880 0.5000
3.608000 0.5170 0.5220 0.5270 0.5320 0.5350
3.642372 0.5350 0.5340 0.5320 0.5290 0.5290
3.677000 0.5300 0.5350 0.5390 0.5400 0.5420
3.711372 0.5420 0.5460 0.5510 0.5540 0.5610
3.745000 0.5680 0.5730 0.5750 0.5780 0.5780
3.779372 0.5810 0.5900 0.5920 0.5930 0.5970
3.814000 0.5980 0.5980 0.6020 0.6050 0.6050
3.848372 0.6050 0.6040 0.5980 0.5980 0.5980
3.883000 0.6000 0.6120 0.6190 0.6260 0.6270
3.917372 0.6310 0.6310 0.6360 0.6410 0.6430
3.951000 0.6450 0.6460 0.6500 0.6500 0.6500
3.985372 0.6500 0.6500 0.6500 0.6500 0.6510
4.020000 0.6500 0.6500 0.6510 0.6530 0.6560
4.054372 0.6630 0.6650 0.6700 0.6750 0.6820
4.089000 0.6840 0.6890 0.6910 0.6910 0.6940
4.123372 0.6940 0.6920 0.6920 0.6910 0.6890
4.158000 0.6870 0.6840 0.6820 0.6820 0.6820
4.192372 0.6800 0.6800 0.6820 0.6820 0.6940
4.226000 0.7030 0.7110 0.7180 0.7260 0.7330
4.260372 0.7420 0.7440 0.7490 0.7490 0.7500
4.295000 0.7500 0.7500 0.7500 0.7490 0.7450
4.329372 0.7420 0.7400 0.7380 0.7300 0.7280
4.364000 0.7260 0.7260 0.7280 0.7300 0.7320
4.398372 0.7330 0.7330 0.7370 0.7380 0.7400
4.432000 0.7400 0.7470 0.7470 0.7490 0.7520
4.466372 0.7540 0.7550 0.7590 0.7620 0.7660
4.501000 0.7660 0.7660 0.7670 0.7710 0.7710
4.535372 0.7670 0.7620 0.7610 0.7610 0.7690
4.570000 0.7690 0.7690 0.7690 0.7690 0.7660
4.604372 0.7520 0.7540 0.7570 0.7620 0.7660
4.638000 0.7730 0.7780 0.7810 0.7830 0.7860
4.672372 0.7880 0.7900 0.7900 0.7880 0.7880
4.707000 0.7860 0.7840 0.7830 0.7840 0.7910
4.741372 0.8000 0.8000 0.8000 0.8000 0.8000
4.776000 0.8000 0.7980 0.7950 0.7860 0.7840
4.810372 0.7830 0.7830 0.7860 0.7880 0.7880
4.845000 0.7900 0.7900 0.7930 0.7980 0.8000
4.879372 0.8000 0.8020 0.8030 0.8070 0.8080
4.913000 0.8100 0.8120 0.8150 0.8190 0.8200
4.947372 0.8200 0.8200 0.8200 0.8190 0.8170
4.982000 0.8150 0.8130 0.8070 0.8020 0.8020
5.016372 0.8150 0.8170 0.8190 0.8130 0.8020
5.051000 0.7910 0.7740 0.7670 0.7590 0.7540
5.085372 0.7500 0.7470 0.7380 0.7250 0.7230
5.119000 0.7230 0.7250 0.7420 0.7710 0.7860
5.153372 0.7950 0.7980 0.8020 0.8020 0.8050
5.188000 0.8080 0.8130 0.8170 0.8170 0.8170
5.222372 0.8150 0.8080 0.8020 0.7980 0.7950
5.257000 0.7830 0.7780 0.7710 0.7660 0.7570
5.291372 0.7520 0.7490 0.7450 0.7420 0.7420
5.326000 0.7450 0.7730 0.7830 0.7930 0.8070
5.360372 0.8200 0.8270 0.8310 0.8290 0.8270
5.394000 0.8190 0.8120 0.8100 0.8050 0.8070
5.428372 0.8100 0.8120 0.8120 0.8120 0.8070
5.463000 0.7860 0.7710 0.7610 0.7520 0.7490
5.497372 0.7450 0.7370 0.7230 0.7060 0.6910
5.532000 0.6820 0.6740 0.6680 0.6630 0.6620
5.566372 0.6620 0.6720 0.6720 0.6720 0.6720
5.600000 0.6670 0.6330 0.6240 0.6120 0.6040
5.634372 0.5970 0.5900 0.5710 0.5560 0.5370
5.669000 0.5130 0.5010 0.4890 0.4620 0.4310
5.703372 0.4010 0.3700 0.3370 0.3030 0.2710
5.738000 0.2550 0.2380 0.2060 0.1750 0.1450
5.772372 0.1170 0.0920 0.0680 0.0490 0.0340
5.807000 0.0290 0.0200 0.0180 0.0150 0.0130
5.841372 0.0130 0.0150 0.0180 0.0200 0.0220
5.875000 0.0300 0.0460 0.0680 0.0950 0.1290
5.909372 0.1700 0.2150 0.3190 0.3650 0.3870
5.944000 0.4010 0.4070 0.4110 0.4140 0.4210
5.978372 0.4770 0.5390 0.5690 0.6000 0.6310
6.013000 0.6600 0.6820 0.7010 0.7040 0.7060
6.047372 0.7060 0.7040 0.7080 0.7180 0.7370
6.081000 0.7810 0.7910 0.7950 0.7950 0.7740
6.115372 0.7730 0.7760 0.7980 0.8000 0.8000
6.150000 0.8020 0.8020 0.8030 0.8130 0.8170
6.184372 0.8190 0.8190 0.8130 0.7790 0.7450
6.219000 0.6630 0.5250 0.4980 0.4690 0.4690
6.253372 0.4890 0.6620 0.7130 0.7900 0.7910
6.288000 0.7880 0.7570 0.7570 0.7590 0.7640
6.322372 0.7730 0.7880 0.8070 0.8310 0.8320
6.356000 0.8410 0.8490 0.8490 0.8480 0.8200
6.390372 0.8080 0.8080 0.8290 0.8490 0.8490
6.425000 0.8460 0.8310 0.8250 0.8240 0.8240
6.459372 0.8220 0.8240 0.8480 0.8650 0.8890
6.494000 0.8920 0.8920 0.8890 0.8720 0.8650
6.528372 0.8580 0.8510 0.8390 0.8360 0.8340
6.562000 0.8340 0.8340 0.8340 0.8530 0.8510
6.596372 0.8190 0.8070 0.7830 0.7670 0.7500
6.631000 0.7350 0.7200 0.6580 0.5580 0.4810
6.665372 0.4020 0.3170 0.2500 0.1820 0.1790
6.700000 0.1820 0.2440 0.3680 0.3820 0.3820
6.734372 0.3390 0.2730 0.2350 0.1960 0.1920
6.768000 0.1920 0.1990 0.2330 0.2660 0.2780
6.802372 0.2780 0.2550 0.2330 0.1630 0.0980
6.837000 0.0680 0.0510 0.0350 0.0340 0.0340
6.871372 0.0370 0.0560 0.0730 0.1000 0.1410
6.906000 0.1750 0.1860 0.1860 0.1620 0.1270
6.940372 0.1000 0.0930 0.0950 0.1000 0.1240
6.975000 0.1770 0.2330 0.3150 0.3560 0.3970
7.009372 0.4360 0.4670 0.4960 0.5270 0.5460
7.043000 0.5580 0.5730 0.5850 0.5880 0.5830
7.077372 0.5810 0.5750 0.5680 0.5580 0.5440
7.112000 0.5250 0.5010 0.4880 0.4740 0.4410
7.146372 0.4060 0.3660 0.3240 0.2780 0.2520
7.181000 0.2250 0.1890 0.1390 0.0800 0.0640
7.215372 0.0520 0.0470 0.0390 0.0350 0.0340
7.249000 0.0340 0.0420 0.0590 0.0880 0.1290
7.283372 0.1770 0.2280 0.2780 0.2790 0.2590
7.318000 0.2280 0.1960 0.1740 0.1740 0.1750
7.352372 0.2090 0.2370 0.2860 0.3130 0.3490
7.387000 0.3950 0.4120 0.4140 0.3870 0.3200
7.421372 0.2710 0.2200 0.1530 0.1020 0.0730
7.456000 0.0710 0.0750 0.1140 0.1360 0.1650
7.490372 0.1970 0.2350 0.3220 0.3660 0.4120
7.524000 0.4590 0.5460 0.5830 0.6040 0.6220
7.558372 0.6390 0.6460 0.6480 0.6480 0.6460
7.593000 0.6460 0.6340 0.6260 0.6040 0.5780
7.627372 0.5510 0.5180 0.5030 0.4860 0.4720
7.662000 0.4520 0.4480 0.4500 0.4520 0.4530
7.696372 0.4570 0.4590 0.4590 0.4590 0.4550
7.730000 0.4410 0.4210 0.3990 0.3750 0.3490
7.764372 0.3170 0.2810 0.2590 0.2350 0.1800
7.799000 0.1160 0.0830 0.0540 0.0460 0.0460
7.833372 0.0520 0.0640 0.0750 0.0950 0.1100
7.868000 0.1240 0.1260 0.1240 0.1210 0.1050
7.902372 0.0970 0.0870 0.0780 0.0680 0.0590
7.937000 0.0510 0.0460 0.0390 0.0350 0.0340
7.971372 0.0340 0.0300 0.0290 0.0290 0.0250
8.005000 0.0230 0.0230 0.0200 0.0200 0.0200
8.039372 0.0170 0.0150 0.0150 0.0150 0.0150
8.074000 0.0150 0.0150 0.0150 0.0170 0.0170
8.108372 0.0180 0.0220 0.0250 0.0290 0.0300
8.143000 0.0340 0.0350 0.0350 0.0370 0.0400
8.177372 0.0440 0.0490 0.0560 0.0640 0.0750
8.211000 0.0870 0.1000 0.1170 0.1360 0.1580
8.245372 0.1820 0.2080 0.2320 0.2760 0.3000
8.280000 0.3220 0.3460 0.3720 0.3990 0.4280
8.314372 0.4470 0.4470 0.4480 0.4430 0.4020
8.349000 0.3630 0.3250 0.2780 0.2570 0.2370
8.383372 0.1990 0.1960 0.1970 0.2010 0.2110
8.418000 0.2320 0.2440 0.2830 0.3080 0.3340
8.452372 0.3600 0.3820 0.4020 0.4160 0.4380
8.486000 0.4530 0.4640 0.4690 0.4740 0.4760
8.520372 0.4760 0.4690 0.4470 0.4260 0.4060
8.555000 0.3870 0.3680 0.3490 0.3320 0.3150
8.589372 0.2960 0.2790 0.2610 0.2520 0.2420
8.624000 0.2210 0.1990 0.1770 0.1530 0.1270
8.658372 0.1000 0.0880 0.0760 0.0610 0.0540
8.692000 0.0520 0.0470 0.0460 0.0400 0.0370
8.726372 0.0350 0.0340 0.0320 0.0270 0.0220
8.761000 0.0200 0.0200 0.0200 0.0200 0.0180
8.795372 0.0180 0.0230 0.0320 0.0390 0.0460
8.830000 0.0560 0.0660 0.0780 0.0930 0.1100
8.864372 0.1310 0.1550 0.1800 0.1970 0.2160
8.899000 0.2330 0.2690 0.2860 0.3020 0.3130
8.933372 0.3240 0.3310 0.3320 0.3390 0.3490
8.967000 0.3610 0.3770 0.3940 0.4120 0.4300
9.001372 0.4450 0.4590 0.4640 0.4720 0.4820
9.036000 0.4960 0.5300 0.5470 0.5680 0.5870
9.070372 0.6070 0.6260 0.6430 0.6600 0.6740
9.105000 0.6860 0.6920 0.7060 0.7160 0.7250
9.139372 0.7320 0.7420 0.7610 0.7620 0.7610
9.173000 0.7570 0.7520 0.7500 0.7470 0.7420
9.207372 0.7350 0.7260 0.7150 0.6960 0.6700
9.242000 0.6380 0.5930 0.5390 0.5050 0.4700
9.276372 0.4110 0.3700 0.3340 0.3310 0.3360
9.311000 0.3830 0.4330 0.4790 0.5560 0.5900
9.345372 0.6190 0.6430 0.6630 0.6800 0.6940
9.379000 0.7030 0.7060 0.7160 0.7210 0.7210
9.413372 0.7110 0.6960 0.6860 0.6510 0.6220
9.448000 0.5850 0.5460 0.5060 0.4890 0.4720
9.482372 0.4470 0.4260 0.4230 0.4240 0.4240
9.517000 0.4240 0.4240 0.4280 0.4310 0.4350
9.551372 0.4380 0.4380 0.4280 0.4140 0.4070
9.586000 0.4040 0.3990 0.3970 0.3970 0.3890
9.620372 0.3870 0.3830 0.3770 0.3660 0.3530
9.654000 0.3390 0.3240 0.3070 0.2900 0.2710
9.688372 0.2520 0.2450 0.2370 0.2090 0.1910
9.723000 0.1630 0.1480 0.1460 0.1480 0.1500
9.757372 0.1680 0.1840 0.2030 0.2250 0.2760
9.792000 0.3050 0.3360 0.3660 0.3970 0.4280
9.826372 0.4590 0.4880 0.5400 0.5640 0.5850
9.860000 0.6020 0.6160 0.6310 0.6450 0.6550
9.894372 0.6620 0.6680 0.6740 0.6750 0.6750
9.929000 0.6620 0.6390 0.6270 0.6020 0.5540
9.963372 0.5050 0.5010 0.5100 0.5560 0.6100
9.998000 0.6500 0.6530 0.6670 0.6770 0.6790
10.032372 0.6800 0.6800 0.6770 0.6550 0.6360
10.067000 0.6120 0.5850 0.5560 0.5250 0.5100
10.101372 0.4940 0.4640 0.4350 0.4070 0.3890
10.135000 0.3820 0.3780 0.3780 0.3800 0.3990
10.169372 0.4090 0.4210 0.4380 0.4570 0.4790
10.204000 0.5250 0.5490 0.5710 0.5900 0.5980
10.238372 0.5980 0.5980 0.5810 0.5810 0.5810
10.273000 0.5830 0.5930 0.6020 0.6100 0.6190
10.307372 0.6310 0.6430 0.6560 0.6680 0.6820
10.341000 0.6940 0.6990 0.7010 0.7030 0.7010
10.375372 0.6800 0.6670 0.6450 0.6190 0.5900
10.410000 0.5590 0.5270 0.5080 0.4890 0.4520
10.444372 0.4110 0.3660 0.3390 0.3130 0.3120
10.479000 0.3150 0.3320 0.3490 0.3780 0.4060
10.513372 0.4330 0.4600 0.4860 0.5340 0.5560
10.548000 0.5780 0.5980 0.6120 0.6160 0.6160
10.582372 0.6050 0.5850 0.5730 0.5510 0.5230
10.616000 0.5080 0.4910 0.4570 0.4210 0.3890
10.650372 0.3610 0.3370 0.3130 0.2910 0.2880
10.685000 0.2880 0.2910 0.3030 0.3170 0.3320
10.719372 0.3480 0.3650 0.3820 0.3990 0.4160
10.754000 0.4310 0.4480 0.4620 0.4670 0.4670
10.788372 0.4570 0.4640 0.4620 0.4620 0.4620
10.822000 0.4640 0.4690 0.4760 0.4880 0.5200
10.856372 0.5320 0.5460 0.5610 0.5730 0.5800
10.891000 0.5830 0.5850 0.5810 0.5560 0.5370
10.925372 0.5100 0.4890 0.4670 0.4280 0.4020
10.960000 0.3820 0.3610 0.3600 0.3730 0.3920
10.994372 0.4480 0.4700 0.4930 0.5420 0.5680
11.029000 0.5950 0.6220 0.6480 0.6750 0.6990
11.063372 0.7230 0.7450 0.7810 0.7950 0.8050
11.097000 0.8120 0.8190 0.8250 0.8320 0.8390
11.131372 0.8480 0.8560 0.8630 0.8720 0.8800
11.166000 0.8890 0.8970 0.9060 0.9160 0.9190
11.200372 0.9260 0.9300 0.9310 0.9330 0.9330
11.235000 0.9350 0.9360 0.9400 0.9450 0.9520
11.269372 0.9530 0.9570 0.9600 0.9640 0.9640
11.303000 0.9640 0.9640 0.9650 0.9650 0.9650
11.337372 0.9650 0.9650 0.9650 0.9640 0.9550
11.372000 0.9520 0.9480 0.9470 0.9430 0.9410
11.406372 0.9400 0.9360 0.9310 0.9300 0.9280
11.441000 0.9260 0.9260 0.9330 0.9450 0.9520
11.475372 0.9520 0.9550 0.9570 0.9620 0.9640
11.510000 0.9650 0.9700 0.9720 0.9740 0.9760
11.544372 0.9770 0.9790 0.9790 0.9810 0.9810
11.578000 0.9820 0.9840 0.9840 0.9880 0.9890
11.612372 0.9880 0.9860 0.9840 0.9840 0.9790
11.647000 0.9760 0.9700 0.9670 0.9650 0.9620
11.681372 0.9620 0.9620 0.9570 0.9520 0.9470
11.716000 0.9380 0.9330 0.9310 0.9300 0.9280
11.750372 0.9280 0.9260 0.9260 0.9310 0.9330
11.784000 0.9350 0.9350 0.9330 0.9310 0.9300
11.818372 0.9260 0.9230 0.9210 0.9160 0.9090
11.853000 0.9020 0.8940 0.8830 0.8730 0.8610
11.887372 0.8480 0.8430 0.8290 0.8080 0.7810
11.922000 0.7520 0.7370 0.7200 0.6860 0.6500
11.956372 0.6170 0.5850 0.5560 0.5300 0.5180
11.990000 0.5050 0.4940 0.4820 0.4740 0.4740
12.024372 0.4860 0.5460 0.5750 0.6020 0.6290
12.059000 0.6550 0.6790 0.7030 0.7230 0.7450
12.093372 0.7830 0.7980 0.8130 0.8270 0.8370
12.128000 0.8480 0.8540 0.8560 0.8630 0.8660
12.162372 0.8700 0.8730 0.8750 0.8770 0.8780
12.197000 0.8800 0.8820 0.8850 0.8870 0.8870
12.231372 0.8850 0.8830 0.8780 0.8750 0.8700
12.265000 0.8650 0.8580 0.8530 0.8480 0.8410
12.299372 0.8360 0.8290 0.8200 0.8120 0.8030
12.334000 0.7950 0.7830 0.7780 0.7670 0.7660
12.368372 0.7610 0.7550 0.7520 0.7490 0.7400
12.403000 0.7280 0.7130 0.6990 0.6840 0.6700
12.437372 0.6560 0.6430 0.6270 0.6100 0.5930
12.471000 0.5730 0.5490 0.5300 0.5110 0.5010
12.505372 0.4910 0.4690 0.4500 0.4300 0.4120
12.540000 0.3950 0.3820 0.3720 0.3630 0.3560
12.574372 0.3510 0.3390 0.3360 0.3320 0.3320
12.609000 0.3340 0.3360 0.3510 0.3610 0.3660
12.643372 0.3730 0.3780 0.3890 0.4020 0.4210
12.678000 0.4330 0.4450 0.4570 0.4650 0.4760
12.712372 0.4790 0.4820 0.4890 0.4930 0.4930
12.746000 0.4960 0.4890 0.4880 0.4810 0.4690
12.780372 0.4550 0.4400 0.4190 0.3970 0.3700
12.815000 0.3390 0.3020 0.2610 0.2440 0.2250
12.849372 0.2010 0.1750 0.1560 0.1380 0.1270
12.884000 0.1160 0.1120 0.1120 0.1160 0.1260
12.918372 0.1360 0.1530 0.1720 0.1910 0.2090
12.952000 0.2320 0.2900 0.3290 0.3610 0.3770
12.986372 0.3870 0.4010 0.4140 0.3990 0.3750
13.021000 0.3490 0.3200 0.2950 0.2710 0.2590
13.055372 0.2450 0.2280 0.2090 0.1920 0.1720
13.090000 0.1700 0.1700 0.1700 0.1740 0.1920
13.124372 0.2090 0.2280 0.2490 0.2900 0.3100
13.159000 0.3320 0.3530 0.3720 0.3900 0.4020
13.193372 0.4140 0.4260 0.4400 0.4520 0.4640
13.227000 0.4760 0.4890 0.4960 0.5000 0.5050
13.261372 0.5080 0.5150 0.5230 0.5300 0.5340
13.296000 0.5340 0.5320 0.5320 0.5320 0.5320
13.330372 0.5340 0.5370 0.5390 0.5400 0.5420
13.365000 0.5440 0.5510 0.5590 0.5690 0.5800
13.399372 0.5920 0.6070 0.6220 0.6390 0.6580
13.433000 0.6770 0.6960 0.7150 0.7350 0.7730
13.467372 0.7910 0.8070 0.8240 0.8370 0.8510
13.502000 0.8610 0.8700 0.8750 0.8850 0.8970
13.536372 0.8990 0.9020 0.9070 0.9120 0.9190
13.571000 0.9230 0.9260 0.9310 0.9350 0.9380
13.605372 0.9380 0.9400 0.9400 0.9400 0.9400
13.640000 0.9410 0.9500 0.9550 0.9600 0.9600
13.674372 0.9600 0.9600 0.9590 0.9590 0.9600
13.708000 0.9600 0.9620 0.9620 0.9620 0.9600
13.742372 0.9620 0.9640 0.9640 0.9590 0.9550
13.777000 0.9550 0.9520 0.9500 0.9470 0.9430
13.811372 0.9380 0.9360 0.9310 0.9330 0.9330
13.846000 0.9310 0.9280 0.9240 0.9180 0.9160
13.880372 0.9120 0.9110 0.9060 0.9040 0.9010
13.914000 0.8970 0.8940 0.8900 0.8870 0.8820
13.948372 0.8730 0.8660 0.8630 0.8560 0.8460
13.983000 0.8270 0.7960 0.7810 0.7610 0.7520
14.017372 0.7420 0.7210 0.7060 0.6960 0.6820
14.052000 0.6630 0.6390 0.6120 0.5830 0.5510
14.086372 0.5180 0.5010 0.4820 0.4470 0.4090
14.121000 0.3730 0.3360 0.3020 0.2670 0.2520
14.155372 0.2350 0.2060 0.1800 0.1560 0.1380
14.189000 0.1190 0.1050 0.0920 0.0810 0.0730
14.223372 0.0680 0.0640 0.0610 0.0580 0.0540
14.258000 0.0520 0.0510 0.0510 0.0510 0.0440
14.292372 0.0420 0.0420 0.0420 0.0420 0.0420
14.327000 0.0440 0.0560 0.0640 0.0750 0.0870
14.361372 0.1040 0.1240 0.1500 0.1840 0.2260
14.395000 0.3490 0.3530 0.3560 0.4090 0.4430
14.429372 0.4740 0.5300 0.5560 0.5800 0.6020
14.464000 0.6240 0.6430 0.6620 0.6790 0.6960
14.498372 0.7090 0.7250 0.7370 0.7490 0.7710
14.533000 0.7790 0.7900 0.7980 0.8050 0.8120
14.567372 0.8150 0.8190 0.8220 0.8270 0.8310
14.601000 0.8360 0.8410 0.8440 0.8480 0.8490
14.635372 0.8490 0.8510 0.8540 0.8580 0.8630
14.670000 0.8700 0.8720 0.8750 0.8800 0.8800
14.704372 0.8730 0.8730 0.8730 0.8750 0.8750
14.739000 0.8800 0.8780 0.8750 0.8730 0.8730
14.773372 0.8720 0.8720 0.8730 0.8750 0.8750
14.808000 0.8770 0.8780 0.8800 0.8800 0.8800
14.842372 0.8800 0.8780 0.8680 0.8630 0.8610
14.876000 0.8610 0.8630 0.8660 0.8680 0.8700
14.910372 0.8700 0.8700 0.8700 0.8700 0.8720
14.945000 0.8800 0.8820 0.8900 0.8940 0.8990
14.979372 0.8990 0.9010 0.9040 0.9070 0.9120
15.014000 0.9140 0.9160 0.9180 0.9180 0.9160
15.048372 0.9140 0.9110 0.9070 0.9020 0.8970
15.082000 0.8920 0.8900 0.8900 0.8900 0.8900
15.116372 0.8900 0.8900 0.8900 0.8900 0.8900
15.151000 0.8900 0.8920 0.8920 0.8920 0.8940
15.185372 0.8940 0.8970 0.8970 0.8990 0.9020
15.220000 0.9020 0.9060 0.9070 0.9070 0.9070
15.254372 0.9070 0.9070 0.9070 0.9020 0.9010
15.289000 0.8990 0.8970 0.8990 0.9010 0.8990
15.323372 0.8990 0.8990 0.8990 0.8990 0.8990
15.357000 0.8990 0.8990 0.8990 0.8970 0.8970
15.391372 0.8950 0.8920 0.8900 0.8890 0.8890
15.426000 0.8870 0.8820 0.8780 0.8770 0.8770
15.460372 0.8750 0.8730 0.8720 0.8680 0.8630
15.495000 0.8600 0.8560 0.8510 0.8480 0.8430
15.529372 0.8370 0.8310 0.8270 0.8240 0.8190
15.563000 0.8170 0.8130 0.8120 0.8100 0.8080
15.597372 0.8070 0.8030 0.7980 0.7960 0.7960
15.632000 0.7950 0.7910 0.7880 0.7840 0.7830
15.666372 0.7790 0.7760 0.7730 0.7710 0.7690
15.701000 0.7660 0.7620 0.7610 0.7570 0.7540
15.735372 0.7500 0.7500 0.7490 0.7450 0.7400
15.770000 0.7330 0.7280 0.7210 0.7150 0.7060
15.804372 0.6990 0.6920 0.6840 0.6750 0.6740
15.838000 0.6700 0.6680 0.6630 0.6580 0.6480
15.872372 0.6380 0.6290 0.6210 0.6120 0.6040
15.907000 0.5970 0.5920 0.5880 0.5830 0.5810
15.941372 0.5780 0.5780 0.5780 0.5760 0.5750
15.976000 0.5730 0.5730 0.5710 0.5690 0.5630
16.010372 0.5710 0.5690
##END=
