##TITLE=Aniline, 4-tert-amyl-2-methyl-
##JCAMP-DX=4.24
$$ By DXEDIT 1.05 (RS McDonald)
##DATA TYPE=INFRARED SPECTRUM
##CLASS=COBLENTZ III
##ORIGIN=MONSANTO (J. FREEMAN)
##OWNER=COBLENTZ SOC.
Collection (C) 2018 copyright by the U.S. Secretary of Commerce
on behalf of the United States of America. All rights reserved.
##DATE=1959/12/21
##NAMES=2-methyl-4-tert-pentylphenylamine
2-methyl-4-tert-pentylaniline
##MOLFORM=C12 H19 N
##SOURCE REFERENCE=COBLENTZ NO. 08475
##$NIST ID=B6008475
##$NIST SOURCE=COBLENTZ
##$NIST IMAGE=cob8475
##SPECTROMETER/DATA SYSTEM=BECKMAN IR-4 (HYBRID PRISM-GRATING)
##INSTRUMENT PARAMETERS=NaCl PRISM
##STATE=LIQUID (NEAT)
##PATH LENGTH=CAPILLARY
##SAMPLING PROCEDURE=TRANSMISSION
##RESOLUTION=2
##DATA PROCESSING=DIGITIZED BY COBLENTZ SOCIETY (BATCH I) FROM HARD COPY (ADJUSTED \addmicron\0.02um\)
##XUNITS=1/CM
##YUNITS=TRANSMITTANCE
##XLABEL=Wavenumbers (cm-1)
##YLABEL=Transmittance
##XFACTOR=1
##YFACTOR=1
##DELTAX=0.990233
##FIRSTX=3968.25
##LASTX=627.207
##FIRSTY=0.8218
##MAXX=3968.25
##MINX=627.207
##MAXY=0.9277
##MINY=0.1364
##NPOINTS=3375
##XYDATA=(X++(Y..Y))
3968.253968 0.8218 0.8218 0.8220 0.8221 0.8223
3963.302803 0.8225 0.8225 0.8227 0.8228 0.8230
3958.351637 0.8232 0.8233 0.8234 0.8236 0.8237
3953.400472 0.8239 0.8240 0.8242 0.8243 0.8244
3948.449306 0.8246 0.8247 0.8249 0.8250 0.8251
3943.498141 0.8253 0.8254 0.8256 0.8257 0.8259
3938.546975 0.8260 0.8261 0.8263 0.8264 0.8266
3933.595809 0.8267 0.8268 0.8270 0.8271 0.8273
3928.644644 0.8274 0.8275 0.8276 0.8277 0.8278
3923.693478 0.8279 0.8280 0.8281 0.8282 0.8283
3918.742313 0.8284 0.8285 0.8286 0.8287 0.8288
3913.791147 0.8290 0.8291 0.8292 0.8293 0.8294
3908.839982 0.8295 0.8296 0.8297 0.8298 0.8299
3903.888816 0.8300 0.8301 0.8302 0.8303 0.8304
3898.937651 0.8305 0.8306 0.8307 0.8308 0.8309
3893.986485 0.8310 0.8311 0.8313 0.8314 0.8315
3889.035320 0.8316 0.8317 0.8318 0.8319 0.8321
3884.084154 0.8322 0.8324 0.8325 0.8326 0.8328
3879.132989 0.8328 0.8329 0.8331 0.8333 0.8334
3874.181823 0.8335 0.8336 0.8337 0.8338 0.8340
3869.230657 0.8341 0.8342 0.8343 0.8344 0.8345
3864.279492 0.8346 0.8348 0.8349 0.8350 0.8352
3859.328326 0.8353 0.8354 0.8356 0.8357 0.8358
3854.377161 0.8359 0.8360 0.8361 0.8362 0.8364
3849.425995 0.8365 0.8366 0.8367 0.8368 0.8368
3844.474830 0.8369 0.8371 0.8371 0.8373 0.8373
3839.523664 0.8374 0.8375 0.8375 0.8375 0.8377
3834.572499 0.8377 0.8378 0.8378 0.8378 0.8380
3829.621333 0.8380 0.8381 0.8381 0.8382 0.8383
3824.670168 0.8383 0.8384 0.8385 0.8385 0.8386
3819.719002 0.8386 0.8387 0.8387 0.8388 0.8388
3814.767836 0.8389 0.8389 0.8390 0.8390 0.8391
3809.816671 0.8391 0.8392 0.8393 0.8393 0.8394
3804.865505 0.8395 0.8395 0.8396 0.8396 0.8397
3799.914340 0.8397 0.8398 0.8398 0.8399 0.8399
3794.963174 0.8400 0.8400 0.8401 0.8401 0.8402
3790.012009 0.8402 0.8403 0.8403 0.8404 0.8404
3785.060843 0.8404 0.8405 0.8405 0.8405 0.8406
3780.109678 0.8406 0.8407 0.8407 0.8407 0.8408
3775.158512 0.8408 0.8409 0.8409 0.8410 0.8410
3770.207347 0.8411 0.8411 0.8411 0.8412 0.8412
3765.256181 0.8412 0.8413 0.8413 0.8413 0.8414
3760.305016 0.8414 0.8414 0.8415 0.8415 0.8416
3755.353850 0.8417 0.8417 0.8418 0.8418 0.8418
3750.402684 0.8418 0.8418 0.8419 0.8420 0.8420
3745.451519 0.8420 0.8420 0.8420 0.8420 0.8421
3740.500353 0.8421 0.8421 0.8421 0.8421 0.8421
3735.549188 0.8421 0.8421 0.8421 0.8421 0.8421
3730.598022 0.8421 0.8421 0.8421 0.8421 0.8421
3725.646857 0.8421 0.8421 0.8421 0.8421 0.8421
3720.695691 0.8421 0.8421 0.8421 0.8421 0.8421
3715.744526 0.8421 0.8421 0.8421 0.8421 0.8421
3710.793360 0.8421 0.8421 0.8421 0.8420 0.8420
3705.842195 0.8420 0.8420 0.8419 0.8418 0.8418
3700.891029 0.8418 0.8418 0.8418 0.8418 0.8418
3695.939863 0.8417 0.8417 0.8417 0.8416 0.8416
3690.988698 0.8416 0.8415 0.8415 0.8415 0.8414
3686.037532 0.8414 0.8414 0.8413 0.8413 0.8412
3681.086367 0.8412 0.8412 0.8411 0.8411 0.8411
3676.135201 0.8410 0.8410 0.8410 0.8409 0.8409
3671.184036 0.8408 0.8408 0.8408 0.8407 0.8407
3666.232870 0.8407 0.8406 0.8406 0.8406 0.8406
3661.281705 0.8406 0.8405 0.8405 0.8405 0.8404
3656.330539 0.8404 0.8404 0.8403 0.8402 0.8402
3651.379374 0.8401 0.8401 0.8400 0.8399 0.8398
3646.428208 0.8397 0.8396 0.8394 0.8393 0.8392
3641.477043 0.8391 0.8389 0.8388 0.8387 0.8386
3636.525877 0.8384 0.8383 0.8382 0.8381 0.8380
3631.574711 0.8378 0.8378 0.8377 0.8375 0.8374
3626.623546 0.8373 0.8371 0.8371 0.8370 0.8368
3621.672380 0.8367 0.8366 0.8365 0.8363 0.8362
3616.721215 0.8361 0.8359 0.8358 0.8357 0.8355
3611.770049 0.8354 0.8352 0.8351 0.8349 0.8348
3606.818884 0.8346 0.8345 0.8343 0.8342 0.8340
3601.867718 0.8339 0.8337 0.8336 0.8334 0.8333
3596.916553 0.8331 0.8328 0.8327 0.8325 0.8323
3591.965387 0.8321 0.8318 0.8316 0.8314 0.8311
3587.014222 0.8309 0.8307 0.8305 0.8303 0.8301
3582.063056 0.8299 0.8296 0.8294 0.8292 0.8289
3577.111891 0.8287 0.8283 0.8278 0.8274 0.8269
3572.160725 0.8264 0.8259 0.8253 0.8247 0.8241
3567.209559 0.8236 0.8230 0.8223 0.8217 0.8210
3562.258394 0.8203 0.8197 0.8190 0.8182 0.8175
3557.307228 0.8170 0.8162 0.8153 0.8144 0.8134
3552.356063 0.8123 0.8114 0.8101 0.8086 0.8072
3547.404897 0.8058 0.8044 0.8032 0.8022 0.8013
3542.453732 0.8004 0.7994 0.7980 0.7962 0.7945
3537.502566 0.7927 0.7909 0.7883 0.7851 0.7818
3532.551401 0.7785 0.7752 0.7720 0.7687 0.7654
3527.600235 0.7621 0.7589 0.7556 0.7523 0.7489
3522.649070 0.7457 0.7424 0.7391 0.7358 0.7326
3517.697904 0.7292 0.7259 0.7226 0.7193 0.7159
3512.746738 0.7127 0.7094 0.7061 0.7027 0.6994
3507.795573 0.6961 0.6928 0.6894 0.6861 0.6829
3502.844407 0.6795 0.6762 0.6729 0.6696 0.6663
3497.893242 0.6629 0.6596 0.6562 0.6529 0.6495
3492.942076 0.6462 0.6428 0.6395 0.6362 0.6327
3487.990911 0.6294 0.6261 0.6227 0.6193 0.6160
3483.039745 0.6126 0.6092 0.6059 0.6025 0.5992
3478.088580 0.5958 0.5924 0.5890 0.5857 0.5823
3473.137414 0.5789 0.5762 0.5748 0.5739 0.5730
3468.186249 0.5722 0.5716 0.5714 0.5714 0.5714
3463.235083 0.5714 0.5713 0.5712 0.5712 0.5712
3458.283918 0.5712 0.5715 0.5719 0.5723 0.5727
3453.332752 0.5731 0.5737 0.5744 0.5751 0.5758
3448.381586 0.5765 0.5773 0.5780 0.5787 0.5794
3443.430421 0.5801 0.5808 0.5816 0.5823 0.5831
3438.479255 0.5838 0.5845 0.5852 0.5858 0.5866
3433.528090 0.5869 0.5871 0.5872 0.5873 0.5873
3428.576924 0.5873 0.5872 0.5871 0.5870 0.5869
3423.625759 0.5868 0.5868 0.5867 0.5866 0.5863
3418.674593 0.5859 0.5854 0.5849 0.5845 0.5825
3413.723428 0.5800 0.5773 0.5746 0.5720 0.5693
3408.772262 0.5665 0.5638 0.5612 0.5585 0.5558
3403.821097 0.5531 0.5505 0.5478 0.5451 0.5424
3398.869931 0.5397 0.5369 0.5342 0.5315 0.5288
3393.918765 0.5261 0.5234 0.5206 0.5179 0.5152
3388.967600 0.5125 0.5097 0.5070 0.5043 0.5016
3384.016434 0.4989 0.4962 0.4934 0.4907 0.4880
3379.065269 0.4853 0.4829 0.4813 0.4799 0.4784
3374.114103 0.4769 0.4764 0.4762 0.4760 0.4760
3369.162938 0.4758 0.4758 0.4757 0.4756 0.4756
3364.211772 0.4755 0.4755 0.4754 0.4754 0.4754
3359.260607 0.4771 0.4789 0.4807 0.4767 0.4857
3354.309441 0.4905 0.4952 0.5000 0.5047 0.5094
3349.358276 0.5143 0.5190 0.5237 0.5284 0.5332
3344.407110 0.5379 0.5428 0.5475 0.5523 0.5570
3339.455945 0.5618 0.5665 0.5714 0.5761 0.5809
3334.504779 0.5857 0.5904 0.5953 0.6001 0.6049
3329.553613 0.6097 0.6144 0.6192 0.6241 0.6289
3324.602448 0.6338 0.6391 0.6446 0.6502 0.6556
3319.651282 0.6599 0.6621 0.6643 0.6664 0.6687
3314.700117 0.6716 0.6746 0.6777 0.6807 0.6841
3309.748951 0.6874 0.6908 0.6942 0.6975 0.7010
3304.797786 0.7044 0.7078 0.7111 0.7145 0.7179
3299.846620 0.7214 0.7247 0.7280 0.7315 0.7349
3294.895455 0.7384 0.7416 0.7439 0.7458 0.7476
3289.944289 0.7495 0.7507 0.7509 0.7510 0.7511
3284.993124 0.7513 0.7514 0.7515 0.7521 0.7529
3280.041958 0.7518 0.7518 0.7518 0.7520 0.7521
3275.090793 0.7521 0.7521 0.7521 0.7521 0.7523
3270.139627 0.7524 0.7525 0.7524 0.7518 0.7509
3265.188461 0.7500 0.7490 0.7481 0.7471 0.7462
3260.237296 0.7453 0.7444 0.7434 0.7424 0.7415
3255.286130 0.7406 0.7397 0.7388 0.7378 0.7367
3250.334965 0.7359 0.7350 0.7340 0.7331 0.7321
3245.383799 0.7312 0.7303 0.7294 0.7284 0.7274
3240.432634 0.7265 0.7256 0.7247 0.7237 0.7227
3235.481468 0.7217 0.7208 0.7199 0.7189 0.7179
3230.530303 0.7167 0.7160 0.7162 0.7161 0.7159
3225.579137 0.7158 0.7158 0.7158 0.7158 0.7158
3220.627972 0.7159 0.7160 0.7161 0.7165 0.7170
3215.676806 0.7175 0.7181 0.7189 0.7203 0.7223
3210.725640 0.7243 0.7263 0.7283 0.7303 0.7323
3205.774475 0.7344 0.7365 0.7385 0.7405 0.7425
3200.823309 0.7446 0.7466 0.7486 0.7506 0.7527
3195.872144 0.7547 0.7567 0.7588 0.7609 0.7629
3190.920978 0.7650 0.7670 0.7690 0.7711 0.7732
3185.969813 0.7753 0.7773 0.7793 0.7813 0.7834
3181.018647 0.7855 0.7876 0.7896 0.7917 0.7938
3176.067482 0.7951 0.7959 0.7968 0.7977 0.7983
3171.116316 0.7988 0.7992 0.7996 0.7999 0.8001
3166.165151 0.8004 0.8006 0.8008 0.8008 0.8009
3161.213985 0.8010 0.8011 0.8011 0.8011 0.8011
3156.262820 0.8012 0.8012 0.8012 0.8012 0.8012
3151.311654 0.8012 0.8011 0.8011 0.8010 0.8009
3146.360488 0.8006 0.8004 0.8000 0.7996 0.7992
3141.409323 0.7988 0.7984 0.7979 0.7976 0.7972
3136.458157 0.7967 0.7960 0.7953 0.7946 0.7938
3131.506992 0.7930 0.7921 0.7914 0.7905 0.7895
3126.555826 0.7885 0.7873 0.7860 0.7843 0.7825
3121.604661 0.7807 0.7787 0.7766 0.7746 0.7725
3116.653495 0.7695 0.7660 0.7624 0.7588 0.7558
3111.702330 0.7531 0.7506 0.7480 0.7454 0.7427
3106.751164 0.7401 0.7376 0.7356 0.7338 0.7320
3101.799999 0.7301 0.7279 0.7255 0.7232 0.7208
3096.848833 0.7179 0.7152 0.7123 0.7097 0.7071
3091.897667 0.7044 0.7017 0.6991 0.6964 0.6938
3086.946502 0.6911 0.6885 0.6858 0.6831 0.6804
3081.995336 0.6778 0.6753 0.6727 0.6700 0.6674
3077.044171 0.6647 0.6620 0.6593 0.6566 0.6540
3072.093005 0.6513 0.6486 0.6459 0.6433 0.6406
3067.141840 0.6379 0.6352 0.6326 0.6299 0.6272
3062.190674 0.6246 0.6219 0.6191 0.6163 0.6138
3057.239509 0.6111 0.6084 0.6057 0.6030 0.6003
3052.288343 0.5976 0.5949 0.5922 0.5894 0.5867
3047.337178 0.5840 0.5813 0.5786 0.5758 0.5731
3042.386012 0.5704 0.5677 0.5650 0.5623 0.5595
3037.434847 0.5568 0.5541 0.5512 0.5486 0.5459
3032.483681 0.5431 0.5404 0.5377 0.5348 0.5321
3027.532515 0.5293 0.5268 0.5258 0.5247 0.5237
3022.581350 0.5227 0.5219 0.5210 0.5201 0.5188
3017.630184 0.5173 0.5158 0.5143 0.5116 0.5088
3012.679019 0.5059 0.5008 0.4912 0.4816 0.4718
3007.727853 0.4601 0.4474 0.4348 0.4220 0.4093
3002.776688 0.3966 0.3837 0.3710 0.3583 0.3455
2997.825522 0.3328 0.3200 0.3072 0.2944 0.2816
2992.874357 0.2688 0.2560 0.2431 0.2303 0.2175
2987.923191 0.2046 0.1917 0.1789 0.1659 0.1533
2982.972026 0.1437 0.1415 0.1393 0.1374 0.1366
2978.020860 0.1365 0.1364 0.1364 0.1364 0.1364
2973.069694 0.1364 0.1365 0.1366 0.1367 0.1367
2968.118529 0.1369 0.1372 0.1374 0.1377 0.1381
2963.167363 0.1385 0.1391 0.1407 0.1427 0.1448
2958.216198 0.1473 0.1506 0.1538 0.1571 0.1604
2953.265032 0.1635 0.1669 0.1701 0.1734 0.1767
2948.313867 0.1800 0.1833 0.1866 0.1899 0.1932
2943.362701 0.1964 0.1996 0.2025 0.2046 0.2061
2938.411536 0.2077 0.2094 0.2110 0.2126 0.2142
2933.460370 0.2158 0.2173 0.2189 0.2206 0.2223
2928.509205 0.2238 0.2256 0.2272 0.2288 0.2305
2923.558039 0.2323 0.2343 0.2362 0.2382 0.2403
2918.606874 0.2425 0.2447 0.2471 0.2498 0.2526
2913.655708 0.2554 0.2585 0.2616 0.2647 0.2679
2908.704542 0.2711 0.2743 0.2770 0.2782 0.2794
2903.753377 0.2806 0.2818 0.2830 0.2842 0.2852
2898.802211 0.2859 0.2865 0.2871 0.2877 0.2884
2893.851046 0.2890 0.2896 0.2900 0.2904 0.2908
2888.899880 0.2912 0.2916 0.2920 0.2924 0.2927
2883.948715 0.2931 0.2935 0.2939 0.2943 0.2947
2878.997549 0.2951 0.2955 0.2959 0.2963 0.2967
2874.046384 0.2971 0.2976 0.2981 0.2986 0.2994
2869.095218 0.3004 0.3014 0.3036 0.3090 0.3164
2864.144053 0.3249 0.3401 0.3639 0.3877 0.4115
2859.192887 0.4353 0.4591 0.4830 0.5069 0.5307
2854.241722 0.5546 0.5785 0.6025 0.6264 0.6451
2849.290556 0.6551 0.6648 0.6729 0.6775 0.6810
2844.339390 0.6845 0.6882 0.6922 0.6966 0.7041
2839.388225 0.7156 0.7272 0.7364 0.7414 0.7459
2834.437059 0.7501 0.7533 0.7563 0.7591 0.7617
2829.485894 0.7641 0.7665 0.7686 0.7704 0.7722
2824.534728 0.7740 0.7757 0.7775 0.7793 0.7810
2819.583563 0.7827 0.7846 0.7864 0.7883 0.7903
2814.632397 0.7923 0.7943 0.7962 0.7980 0.7998
2809.681232 0.8015 0.8031 0.8045 0.8059 0.8073
2804.730066 0.8087 0.8101 0.8114 0.8129 0.8143
2799.778901 0.8157 0.8171 0.8185 0.8199 0.8213
2794.827735 0.8226 0.8239 0.8251 0.8264 0.8276
2789.876569 0.8288 0.8301 0.8313 0.8326 0.8338
2784.925404 0.8350 0.8360 0.8368 0.8374 0.8382
2779.974238 0.8388 0.8394 0.8399 0.8404 0.8409
2775.023073 0.8414 0.8417 0.8418 0.8419 0.8421
2770.071907 0.8422 0.8424 0.8425 0.8425 0.8425
2765.120742 0.8425 0.8425 0.8422 0.8418 0.8413
2760.169576 0.8406 0.8400 0.8394 0.8388 0.8381
2755.218411 0.8374 0.8368 0.8362 0.8356 0.8350
2750.267245 0.8343 0.8337 0.8330 0.8324 0.8318
2745.316080 0.8314 0.8313 0.8321 0.8334 0.8348
2740.364914 0.8361 0.8374 0.8386 0.8397 0.8406
2735.413749 0.8416 0.8426 0.8436 0.8446 0.8456
2730.462583 0.8466 0.8476 0.8486 0.8495 0.8505
2725.511417 0.8514 0.8524 0.8534 0.8543 0.8553
2720.560252 0.8563 0.8571 0.8581 0.8590 0.8598
2715.609086 0.8605 0.8611 0.8616 0.8621 0.8626
2710.657921 0.8631 0.8636 0.8641 0.8646 0.8651
2705.706755 0.8656 0.8661 0.8666 0.8670 0.8673
2700.755590 0.8675 0.8677 0.8679 0.8681 0.8684
2695.804424 0.8686 0.8688 0.8690 0.8691 0.8693
2690.853259 0.8693 0.8692 0.8690 0.8689 0.8688
2685.902093 0.8687 0.8686 0.8684 0.8683 0.8682
2680.950928 0.8681 0.8680 0.8679 0.8677 0.8676
2675.999762 0.8674 0.8673 0.8673 0.8673 0.8673
2671.048596 0.8673 0.8673 0.8673 0.8674 0.8674
2666.097431 0.8674 0.8675 0.8675 0.8675 0.8675
2661.146265 0.8675 0.8675 0.8675 0.8675 0.8675
2656.195100 0.8676 0.8677 0.8678 0.8678 0.8678
2651.243934 0.8678 0.8680 0.8682 0.8684 0.8686
2646.292769 0.8689 0.8691 0.8693 0.8695 0.8697
2641.341603 0.8700 0.8702 0.8704 0.8707 0.8709
2636.390438 0.8711 0.8713 0.8715 0.8717 0.8719
2631.439272 0.8722 0.8724 0.8726 0.8728 0.8730
2626.488107 0.8732 0.8734 0.8737 0.8739 0.8741
2621.536941 0.8743 0.8745 0.8747 0.8750 0.8752
2616.585776 0.8754 0.8756 0.8759 0.8762 0.8765
2611.634610 0.8767 0.8770 0.8773 0.8777 0.8780
2606.683444 0.8783 0.8786 0.8789 0.8792 0.8795
2601.732279 0.8799 0.8802 0.8805 0.8808 0.8811
2596.781113 0.8814 0.8817 0.8820 0.8823 0.8826
2591.829948 0.8829 0.8832 0.8835 0.8839 0.8842
2586.878782 0.8845 0.8848 0.8850 0.8853 0.8856
2581.927617 0.8859 0.8862 0.8865 0.8867 0.8870
2576.976451 0.8874 0.8876 0.8879 0.8882 0.8885
2572.025286 0.8888 0.8891 0.8894 0.8897 0.8900
2567.074120 0.8903 0.8906 0.8909 0.8912 0.8915
2562.122955 0.8917 0.8921 0.8924 0.8927 0.8931
2557.171789 0.8934 0.8937 0.8940 0.8943 0.8945
2552.220624 0.8948 0.8951 0.8953 0.8955 0.8957
2547.269458 0.8959 0.8961 0.8962 0.8964 0.8965
2542.318292 0.8967 0.8968 0.8970 0.8972 0.8974
2537.367127 0.8975 0.8977 0.8978 0.8980 0.8982
2532.415961 0.8983 0.8985 0.8986 0.8988 0.8989
2527.464796 0.8991 0.8993 0.8994 0.8996 0.8997
2522.513630 0.8998 0.8999 0.9000 0.9001 0.9002
2517.562465 0.9003 0.9004 0.9005 0.9006 0.9007
2512.611299 0.9009 0.9010 0.9011 0.9012 0.9013
2507.660134 0.9014 0.9014 0.9014 0.9014 0.9014
2502.708968 0.9013 0.9013 0.9013 0.9013 0.9013
2497.757803 0.9012 0.9012 0.9012 0.9012 0.9012
2492.806637 0.9012 0.9012 0.9012 0.9011 0.9011
2487.855471 0.9011 0.9011 0.9011 0.9010 0.9010
2482.904306 0.9010 0.9010 0.9010 0.9009 0.9009
2477.953140 0.9008 0.9008 0.9008 0.9007 0.9007
2473.001975 0.9006 0.9006 0.9006 0.9005 0.9005
2468.050809 0.9004 0.9004 0.9004 0.9003 0.9003
2463.099644 0.9002 0.9001 0.9001 0.9000 0.8998
2458.148478 0.8996 0.8994 0.8992 0.8991 0.8989
2453.197313 0.8987 0.8986 0.8984 0.8982 0.8981
2448.246147 0.8979 0.8978 0.8977 0.8976 0.8975
2443.294982 0.8975 0.8974 0.8973 0.8974 0.8975
2438.343816 0.8977 0.8980 0.8983 0.8985 0.8988
2433.392651 0.8990 0.8993 0.8995 0.8998 0.9001
2428.441485 0.9003 0.9004 0.9005 0.9004 0.9002
2423.490319 0.8999 0.8996 0.8993 0.8990 0.8986
2418.539154 0.8983 0.8979 0.8976 0.8974 0.8969
2413.587988 0.8967 0.8965 0.8963 0.8962 0.8961
2408.636823 0.8960 0.8960 0.8960 0.8960 0.8961
2403.685657 0.8966 0.8973 0.8982 0.8994 0.9007
2398.734492 0.9023 0.9042 0.9061 0.9080 0.9099
2393.783326 0.9116 0.9133 0.9150 0.9166 0.9184
2388.832161 0.9202 0.9220 0.9238 0.9255 0.9264
2383.880995 0.9267 0.9270 0.9274 0.9276 0.9277
2378.929830 0.9276 0.9275 0.9275 0.9275 0.9275
2373.978664 0.9274 0.9272 0.9270 0.9269 0.9268
2369.027498 0.9265 0.9262 0.9258 0.9253 0.9249
2364.076333 0.9245 0.9241 0.9237 0.9232 0.9228
2359.125167 0.9224 0.9220 0.9215 0.9211 0.9207
2354.174002 0.9202 0.9198 0.9194 0.9190 0.9186
2349.222836 0.9182 0.9178 0.9174 0.9170 0.9165
2344.271671 0.9161 0.9157 0.9153 0.9149 0.9145
2339.320505 0.9142 0.9139 0.9137 0.9135 0.9133
2334.369340 0.9131 0.9129 0.9126 0.9124 0.9122
2329.418174 0.9119 0.9117 0.9116 0.9114 0.9111
2324.467009 0.9109 0.9107 0.9105 0.9103 0.9101
2319.515843 0.9099 0.9096 0.9094 0.9092 0.9090
2314.564678 0.9088 0.9086 0.9084 0.9082 0.9079
2309.613512 0.9077 0.9075 0.9074 0.9074 0.9073
2304.662346 0.9072 0.9071 0.9070 0.9069 0.9068
2299.711181 0.9068 0.9067 0.9066 0.9065 0.9064
2294.760015 0.9064 0.9063 0.9062 0.9061 0.9061
2289.808850 0.9060 0.9059 0.9058 0.9057 0.9057
2284.857684 0.9056 0.9055 0.9054 0.9053 0.9052
2279.906519 0.9052 0.9051 0.9051 0.9050 0.9050
2274.955353 0.9049 0.9049 0.9048 0.9048 0.9047
2270.004188 0.9047 0.9046 0.9045 0.9045 0.9044
2265.053022 0.9044 0.9043 0.9043 0.9042 0.9042
2260.101857 0.9042 0.9042 0.9043 0.9044 0.9045
2255.150691 0.9046 0.9047 0.9048 0.9049 0.9050
2250.199526 0.9051 0.9052 0.9053 0.9054 0.9055
2245.248360 0.9056 0.9057 0.9058 0.9059 0.9060
2240.297194 0.9061 0.9063 0.9064 0.9065 0.9066
2235.346029 0.9067 0.9068 0.9069 0.9071 0.9071
2230.394863 0.9073 0.9075 0.9075 0.9076 0.9078
2225.443698 0.9078 0.9080 0.9082 0.9083 0.9085
2220.492532 0.9086 0.9087 0.9088 0.9090 0.9091
2215.541367 0.9092 0.9093 0.9095 0.9096 0.9098
2210.590201 0.9099 0.9100 0.9101 0.9103 0.9104
2205.639036 0.9105 0.9106 0.9106 0.9107 0.9107
2200.687870 0.9108 0.9108 0.9109 0.9109 0.9110
2195.736705 0.9110 0.9111 0.9111 0.9112 0.9112
2190.785539 0.9112 0.9112 0.9113 0.9113 0.9112
2185.834373 0.9112 0.9111 0.9109 0.9106 0.9103
2180.883208 0.9101 0.9099 0.9097 0.9094 0.9092
2175.932042 0.9090 0.9087 0.9085 0.9083 0.9081
2170.980877 0.9080 0.9080 0.9080 0.9079 0.9078
2166.029711 0.9078 0.9078 0.9078 0.9077 0.9077
2161.078546 0.9076 0.9075 0.9075 0.9075 0.9075
2156.127380 0.9075 0.9074 0.9074 0.9074 0.9074
2151.176215 0.9073 0.9073 0.9073 0.9074 0.9074
2146.225049 0.9075 0.9075 0.9075 0.9075 0.9075
2141.273884 0.9075 0.9076 0.9077 0.9077 0.9077
2136.322718 0.9078 0.9078 0.9078 0.9079 0.9081
2131.371553 0.9083 0.9085 0.9086 0.9088 0.9090
2126.420387 0.9092 0.9094 0.9096 0.9098 0.9100
2121.469221 0.9102 0.9103 0.9104 0.9105 0.9106
2116.518056 0.9107 0.9109 0.9110 0.9111 0.9112
2111.566890 0.9113 0.9114 0.9115 0.9116 0.9117
2106.615725 0.9119 0.9120 0.9120 0.9121 0.9121
2101.664559 0.9120 0.9120 0.9120 0.9120 0.9119
2096.713394 0.9118 0.9118 0.9118 0.9118 0.9118
2091.762228 0.9118 0.9118 0.9118 0.9118 0.9118
2086.811063 0.9118 0.9117 0.9117 0.9117 0.9117
2081.859897 0.9117 0.9116 0.9116 0.9115 0.9114
2076.908732 0.9113 0.9112 0.9111 0.9110 0.9110
2071.957566 0.9109 0.9108 0.9107 0.9106 0.9106
2067.006400 0.9105 0.9104 0.9103 0.9102 0.9101
2062.055235 0.9100 0.9100 0.9099 0.9098 0.9097
2057.104069 0.9096 0.9096 0.9096 0.9096 0.9095
2052.152904 0.9094 0.9094 0.9093 0.9093 0.9093
2047.201738 0.9093 0.9092 0.9091 0.9091 0.9090
2042.250573 0.9090 0.9090 0.9089 0.9089 0.9088
2037.299407 0.9088 0.9087 0.9087 0.9087 0.9086
2032.348242 0.9086 0.9086 0.9086 0.9086 0.9085
2027.397076 0.9085 0.9085 0.9085 0.9085 0.9085
2022.445911 0.9085 0.9085 0.9085 0.9085 0.9085
2017.494745 0.9085 0.9085 0.9085 0.9085 0.9085
2012.543580 0.9085 0.9085 0.9085 0.9085 0.9085
2007.592414 0.9085 0.9085 0.9085 0.9085 0.9086
2002.641248 0.9086 0.9086 0.9087 0.9088 0.9088
1997.690083 0.9088 0.9088 0.9089 0.9089 0.9089
1992.738917 0.9090 0.9090 0.9090 0.9091 0.9091
1987.787752 0.9091 0.9091 0.9091 0.9092 0.9092
1982.836586 0.9092 0.9093 0.9093 0.9093 0.9094
1977.885421 0.9094 0.9094 0.9094 0.9094 0.9095
1972.934255 0.9095 0.9095 0.9096 0.9096 0.9096
1967.983090 0.9096 0.9096 0.9094 0.9092 0.9090
1963.031924 0.9088 0.9086 0.9084 0.9083 0.9080
1958.080759 0.9077 0.9074 0.9070 0.9066 0.9062
1953.129593 0.9058 0.9054 0.9051 0.9047 0.9044
1948.178427 0.9040 0.9036 0.9032 0.9027 0.9024
1943.227262 0.9020 0.9017 0.9013 0.9009 0.9004
1938.276096 0.9000 0.8996 0.8991 0.8987 0.8983
1933.324931 0.8979 0.8974 0.8970 0.8966 0.8961
1928.373765 0.8957 0.8953 0.8948 0.8943 0.8939
1923.422600 0.8933 0.8927 0.8922 0.8917 0.8912
1918.471434 0.8906 0.8901 0.8895 0.8890 0.8885
1913.520269 0.8879 0.8874 0.8869 0.8865 0.8860
1908.569103 0.8854 0.8849 0.8845 0.8840 0.8835
1903.617938 0.8830 0.8825 0.8821 0.8817 0.8811
1898.666772 0.8806 0.8801 0.8796 0.8790 0.8785
1893.715607 0.8780 0.8775 0.8770 0.8764 0.8759
1888.764441 0.8755 0.8750 0.8746 0.8742 0.8737
1883.813275 0.8733 0.8728 0.8725 0.8721 0.8716
1878.862110 0.8713 0.8711 0.8709 0.8706 0.8704
1873.910944 0.8703 0.8703 0.8695 0.8707 0.8708
1868.959779 0.8716 0.8725 0.8733 0.8742 0.8751
1864.008613 0.8760 0.8768 0.8777 0.8786 0.8795
1859.057448 0.8807 0.8817 0.8827 0.8834 0.8841
1854.106282 0.8848 0.8855 0.8863 0.8870 0.8875
1849.155117 0.8881 0.8887 0.8893 0.8900 0.8906
1844.203951 0.8911 0.8917 0.8923 0.8930 0.8936
1839.252786 0.8942 0.8948 0.8953 0.8960 0.8966
1834.301620 0.8971 0.8975 0.8981 0.8985 0.8986
1829.350455 0.8986 0.8983 0.8980 0.8978 0.8975
1824.399289 0.8973 0.8970 0.8966 0.8962 0.8957
1819.448123 0.8953 0.8948 0.8944 0.8940 0.8936
1814.496958 0.8932 0.8930 0.8928 0.8928 0.8928
1809.545792 0.8928 0.8928 0.8931 0.8934 0.8937
1804.594627 0.8940 0.8942 0.8945 0.8948 0.8951
1799.643461 0.8953 0.8956 0.8957 0.8957 0.8956
1794.692296 0.8955 0.8954 0.8952 0.8951 0.8950
1789.741130 0.8948 0.8946 0.8943 0.8942 0.8940
1784.789965 0.8937 0.8935 0.8933 0.8931 0.8931
1779.838799 0.8929 0.8928 0.8927 0.8925 0.8922
1774.887634 0.8915 0.8907 0.8897 0.8886 0.8871
1769.936468 0.8858 0.8843 0.8828 0.8813 0.8802
1764.985302 0.8792 0.8782 0.8773 0.8764 0.8725
1760.034137 0.8738 0.8743 0.8741 0.8738 0.8736
1755.082971 0.8734 0.8733 0.8734 0.8746 0.8776
1750.131806 0.8805 0.8832 0.8858 0.8883 0.8904
1745.180640 0.8924 0.8944 0.8961 0.8976 0.8989
1740.229475 0.9003 0.9016 0.9042 0.9047 0.9044
1735.278309 0.9045 0.9040 0.9031 0.9023 0.9016
1730.327144 0.9007 0.8995 0.8980 0.8965 0.8949
1725.375978 0.8934 0.8920 0.8907 0.8893 0.8880
1720.424813 0.8866 0.8853 0.8842 0.8833 0.8824
1715.473647 0.8815 0.8810 0.8807 0.8807 0.8807
1710.522482 0.8807 0.8807 0.8808 0.8808 0.8808
1705.571316 0.8809 0.8809 0.8809 0.8807 0.8800
1700.620150 0.8793 0.8784 0.8772 0.8756 0.8737
1695.668985 0.8718 0.8702 0.8683 0.8663 0.8639
1690.717819 0.8614 0.8589 0.8565 0.8540 0.8513
1685.766654 0.8483 0.8451 0.8418 0.8384 0.8350
1680.815488 0.8314 0.8277 0.8241 0.8204 0.8167
1675.864323 0.8129 0.8085 0.8033 0.7978 0.7922
1670.913157 0.7869 0.7819 0.7771 0.7723 0.7677
1665.961992 0.7632 0.7588 0.7545 0.7500 0.7454
1661.010826 0.7406 0.7358 0.7302 0.7224 0.7134
1656.059661 0.7058 0.6994 0.6933 0.6825 0.6520
1651.108495 0.6030 0.5649 0.5477 0.5353 0.5195
1646.157329 0.5045 0.4924 0.4826 0.4722 0.4569
1641.206164 0.4403 0.4236 0.4069 0.3903 0.3735
1636.254998 0.3567 0.3400 0.3233 0.3066 0.2897
1631.303833 0.2729 0.2560 0.2392 0.2223 0.2084
1626.352667 0.2037 0.2041 0.2020 0.2026 0.2048
1621.401502 0.2089 0.2136 0.2182 0.2228 0.2275
1616.450336 0.2321 0.2368 0.2418 0.2502 0.2753
1611.499171 0.3260 0.3703 0.3875 0.4020 0.4139
1606.548005 0.4334 0.4465 0.4584 0.4705 0.4824
1601.596840 0.4943 0.5064 0.5184 0.5304 0.5424
1596.645674 0.5545 0.5666 0.5785 0.5883 0.5927
1591.694509 0.5928 0.5915 0.5894 0.5874 0.5853
1586.743343 0.5836 0.5836 0.5849 0.5924 0.6060
1581.792177 0.6197 0.6333 0.6471 0.6608 0.6745
1576.841012 0.6882 0.7020 0.7155 0.7270 0.7338
1571.889846 0.7385 0.7430 0.7469 0.7506 0.7544
1566.938681 0.7581 0.7614 0.7636 0.7644 0.7651
1561.987515 0.7650 0.7649 0.7648 0.7646 0.7637
1557.036350 0.7622 0.7597 0.7553 0.7503 0.7448
1552.085184 0.7388 0.7324 0.7274 0.7241 0.7213
1547.134019 0.7184 0.7156 0.7128 0.7100 0.7073
1542.182853 0.7045 0.7016 0.6988 0.6960 0.6931
1537.231688 0.6893 0.6843 0.6794 0.6744 0.6679
1532.280522 0.6574 0.6443 0.6298 0.6145 0.5991
1527.329357 0.5255 0.4842 0.4507 0.4171 0.3835
1522.378191 0.3498 0.3162 0.2825 0.2487 0.2148
1517.427025 0.1810 0.1542 0.1555 0.1557 0.1710
1512.475860 0.1904 0.2100 0.2296 0.2493 0.2689
1507.524694 0.2886 0.3083 0.3280 0.3478 0.3676
1502.573529 0.3875 0.4073 0.4272 0.4471 0.4629
1497.622363 0.4672 0.4675 0.4675 0.4649 0.4594
1492.671198 0.4531 0.4467 0.4404 0.4341 0.4277
1487.720032 0.4213 0.4149 0.4085 0.4020 0.3957
1482.768867 0.3906 0.3899 0.3910 0.3930 0.3951
1477.817701 0.3964 0.3972 0.3979 0.3980 0.3978
1472.866536 0.3919 0.3798 0.3663 0.3526 0.3390
1467.915370 0.3253 0.3115 0.2979 0.2898 0.2886
1462.964204 0.2885 0.2905 0.2957 0.3018 0.3079
1458.013039 0.3140 0.3201 0.3262 0.3324 0.3378
1453.061873 0.3422 0.3493 0.3569 0.3638 0.3729
1448.110708 0.3847 0.3970 0.4093 0.4216 0.4339
1443.159542 0.4462 0.4585 0.4702 0.4746 0.4750
1438.208377 0.4731 0.4677 0.4607 0.4536 0.4464
1433.257211 0.4415 0.4400 0.4410 0.4493 0.4648
1428.306046 0.4822 0.4996 0.5170 0.5344 0.5519
1423.354880 0.5694 0.5870 0.6046 0.6221 0.6354
1418.403715 0.6402 0.6405 0.6387 0.6332 0.6261
1413.452549 0.6193 0.6153 0.6140 0.6168 0.6263
1408.501384 0.6395 0.6527 0.6658 0.6790 0.6923
1403.550218 0.7055 0.7161 0.7209 0.7221 0.7216
1398.599052 0.7210 0.7203 0.7174 0.7116 0.7034
1393.647887 0.6854 0.6586 0.6411 0.6293 0.6054
1388.696721 0.5694 0.5314 0.4986 0.4818 0.4784
1383.745556 0.4750 0.4686 0.4608 0.4535 0.4481
1378.794390 0.4461 0.4519 0.4724 0.5033 0.5343
1373.843225 0.5653 0.5963 0.6217 0.6309 0.6245
1368.892059 0.6087 0.5896 0.5704 0.5513 0.5323
1363.940894 0.5177 0.5142 0.5299 0.5739 0.6209
1358.989728 0.6679 0.7151 0.7587 0.7876 0.8005
1354.038563 0.8091 0.8131 0.8160 0.8180 0.8194
1349.087397 0.8201 0.8188 0.8163 0.8124 0.8069
1344.136231 0.7999 0.7917 0.7844 0.7774 0.7701
1339.185066 0.7620 0.7528 0.7430 0.7315 0.7187
1334.233900 0.7068 0.6971 0.6915 0.6904 0.6902
1329.282735 0.6894 0.6882 0.6852 0.6807 0.6712
1324.331569 0.6565 0.6435 0.6292 0.6177 0.6066
1319.380404 0.5960 0.5873 0.5814 0.5760 0.5684
1314.429238 0.5578 0.5420 0.5256 0.5093 0.4929
1309.478073 0.4764 0.4599 0.4435 0.4277 0.4195
1304.526907 0.4187 0.4189 0.4239 0.4303 0.4367
1299.575742 0.4429 0.4492 0.4522 0.4509 0.4398
1294.624576 0.4278 0.4159 0.4040 0.3921 0.3800
1289.673411 0.3724 0.3694 0.3728 0.3807 0.3888
1284.722245 0.3968 0.4050 0.4111 0.4099 0.4116
1279.771079 0.4058 0.3984 0.3907 0.3831 0.3756
1274.819914 0.3713 0.3701 0.3791 0.3926 0.4064
1269.868748 0.4201 0.4339 0.4477 0.4616 0.4753
1264.917583 0.4892 0.5013 0.5099 0.5182 0.5274
1259.966417 0.5370 0.5476 0.5584 0.5675 0.5762
1255.015252 0.5850 0.5947 0.6048 0.6153 0.6324
1250.064086 0.6473 0.6592 0.6824 0.7025 0.7085
1245.112921 0.7111 0.7136 0.7162 0.7190 0.7218
1240.161755 0.7267 0.7358 0.7461 0.7563 0.7647
1235.210590 0.7707 0.7760 0.7783 0.7794 0.7803
1230.259424 0.7810 0.7823 0.7839 0.7856 0.7875
1225.308259 0.7904 0.7939 0.7974 0.8011 0.8051
1220.357093 0.8091 0.8128 0.8161 0.8191 0.8217
1215.405927 0.8225 0.8226 0.8233 0.8226 0.8205
1210.454762 0.8172 0.8120 0.8049 0.7966 0.7875
1205.503596 0.7762 0.7608 0.7439 0.7272 0.7104
1200.552431 0.6936 0.6768 0.6599 0.6431 0.6263
1195.601265 0.6119 0.6056 0.6077 0.6225 0.6492
1190.650100 0.6768 0.6960 0.7073 0.7167 0.7257
1185.698934 0.7335 0.7397 0.7437 0.7462 0.7471
1180.747769 0.7481 0.7495 0.7488 0.7462 0.7402
1175.796603 0.7300 0.7133 0.6933 0.6747 0.6554
1170.845438 0.6361 0.6166 0.5972 0.5804 0.5681
1165.894272 0.5573 0.5456 0.5315 0.5155 0.4967
1160.943106 0.4797 0.4607 0.4454 0.4445 0.4456
1155.991941 0.4577 0.4880 0.5229 0.5605 0.5981
1151.040775 0.6389 0.6854 0.7227 0.7449 0.7608
1146.089610 0.7709 0.7794 0.7875 0.7944 0.8012
1141.138444 0.8076 0.8135 0.8191 0.8244 0.8290
1136.187279 0.8324 0.8348 0.8371 0.8389 0.8405
1131.236113 0.8420 0.8432 0.8444 0.8454 0.8462
1126.284948 0.8471 0.8489 0.8471 0.8470 0.8467
1121.333782 0.8462 0.8454 0.8444 0.8425 0.8403
1116.382617 0.8365 0.8317 0.8249 0.8155 0.8015
1111.431451 0.7842 0.7708 0.7605 0.7571 0.7555
1106.480286 0.7546 0.7546 0.7551 0.7569 0.7598
1101.529120 0.7631 0.7663 0.7684 0.7694 0.7695
1096.577954 0.7684 0.7667 0.7648 0.7626 0.7606
1091.626789 0.7586 0.7565 0.7544 0.7522 0.7508
1086.675623 0.7501 0.7483 0.7494 0.7493 0.7500
1081.724458 0.7510 0.7529 0.7547 0.7566 0.7587
1076.773292 0.7606 0.7626 0.7648 0.7669 0.7684
1071.822127 0.7696 0.7707 0.7713 0.7717 0.7717
1066.870961 0.7717 0.7698 0.7625 0.7516 0.7414
1061.919796 0.7320 0.7231 0.7147 0.7067 0.7006
1056.968630 0.6940 0.6957 0.6982 0.7039 0.7139
1052.017465 0.7246 0.7336 0.7409 0.7460 0.7504
1047.066299 0.7542 0.7574 0.7599 0.7619 0.7635
1042.115133 0.7660 0.7662 0.7659 0.7648 0.7630
1037.163968 0.7600 0.7563 0.7517 0.7469 0.7423
1032.212802 0.7349 0.7334 0.7347 0.7418 0.7546
1027.261637 0.7661 0.7755 0.7851 0.7937 0.8006
1022.310471 0.8067 0.8094 0.8097 0.8092 0.8062
1017.359306 0.8007 0.7937 0.7839 0.7718 0.7592
1012.408140 0.7465 0.7338 0.7211 0.7084 0.6957
1007.456975 0.6829 0.6701 0.6573 0.6479 0.6449
1002.505809 0.6463 0.6486 0.6509 0.6523 0.6513
997.554644 0.6447 0.6335 0.6222 0.6110 0.5997
992.603478 0.5905 0.5865 0.5880 0.5971 0.6148
987.652313 0.6346 0.6544 0.6743 0.6942 0.7141
982.701147 0.7341 0.7540 0.7709 0.7817 0.7910
977.749981 0.7994 0.8058 0.8110 0.8144 0.8159
972.798816 0.8174 0.8190 0.8203 0.8214 0.8224
967.847650 0.8234 0.8244 0.8253 0.8262 0.8267
962.896485 0.8271 0.8275 0.8279 0.8290 0.8311
957.945319 0.8278 0.8277 0.8273 0.8267 0.8262
952.994154 0.8256 0.8249 0.8243 0.8236 0.8230
948.042988 0.8223 0.8214 0.8196 0.8176 0.8147
943.091823 0.8112 0.8075 0.8025 0.7977 0.7929
938.140657 0.7888 0.7851 0.7830 0.7813 0.7806
933.189492 0.7800 0.7794 0.7789 0.7783 0.7747
928.238326 0.7783 0.7784 0.7792 0.7801 0.7828
923.287160 0.7856 0.7901 0.7949 0.8000 0.8055
918.335995 0.8099 0.8131 0.8160 0.8168 0.8177
913.384829 0.8178 0.8170 0.8162 0.8143 0.8120
908.433664 0.8091 0.8053 0.8006 0.7945 0.7826
903.482498 0.7613 0.7412 0.7290 0.7208 0.7150
898.531333 0.7135 0.7147 0.7182 0.7265 0.7343
893.580167 0.7418 0.7520 0.7553 0.7550 0.7522
888.629002 0.7490 0.7434 0.7357 0.7196 0.6815
883.677836 0.6479 0.6173 0.5867 0.5588 0.5440
878.726671 0.5452 0.5556 0.5790 0.6069 0.6348
873.775505 0.6629 0.6909 0.7191 0.7421 0.7551
868.824340 0.7632 0.7693 0.7738 0.7763 0.7782
863.873174 0.7789 0.7786 0.7784 0.7774 0.7760
858.922008 0.7744 0.7728 0.7708 0.7684 0.7660
853.970843 0.7636 0.7608 0.7576 0.7544 0.7513
849.019677 0.7474 0.7428 0.7379 0.7330 0.7276
844.068512 0.7212 0.7145 0.7073 0.6991 0.6904
839.117346 0.6809 0.6702 0.6588 0.6471 0.6351
834.166181 0.6227 0.6097 0.5953 0.5770 0.5545
829.215015 0.5329 0.5155 0.4988 0.4811 0.4535
824.263850 0.4222 0.4054 0.3886 0.3719 0.3545
819.312684 0.3377 0.3249 0.3174 0.3137 0.3123
814.361519 0.3179 0.3268 0.3439 0.3681 0.3968
809.410353 0.4334 0.4701 0.5069 0.5439 0.5809
804.459188 0.6150 0.6375 0.6528 0.6696 0.6808
799.508022 0.6872 0.6909 0.6926 0.6925 0.6910
794.556856 0.6895 0.6875 0.6855 0.6841 0.6840
789.605691 0.6843 0.6858 0.6859 0.6841 0.6819
784.654525 0.6779 0.6647 0.6515 0.6282 0.6044
779.703360 0.5805 0.5566 0.5325 0.5089 0.4937
774.752194 0.4954 0.5027 0.5185 0.5342 0.5487
769.801029 0.5613 0.5696 0.5730 0.5730 0.5725
764.849863 0.5733 0.5750 0.5773 0.5794 0.5820
759.898698 0.5818 0.5817 0.5806 0.5773 0.5714
754.947532 0.5618 0.5505 0.5359 0.5175 0.4986
749.996367 0.4798 0.4610 0.4420 0.4230 0.4039
745.045201 0.3923 0.3900 0.3893 0.3912 0.3965
740.094035 0.4109 0.4307 0.4437 0.4569 0.4724
735.142870 0.4886 0.5015 0.5073 0.5110 0.5181
730.191704 0.5300 0.5483 0.5720 0.5968 0.6150
725.240539 0.6274 0.6371 0.6429 0.6460 0.6447
720.289373 0.6405 0.6355 0.6301 0.6257 0.6220
715.338208 0.6185 0.6164 0.6153 0.6141 0.6130
710.387042 0.6117 0.6103 0.6088 0.6074 0.6059
705.435877 0.6044 0.6030 0.6015 0.6000 0.5984
700.484711 0.5967 0.5952 0.5942 0.5949 0.5967
695.533546 0.5959 0.5927 0.5900 0.5875 0.5855
690.582380 0.5844 0.5840 0.5839 0.5844 0.5855
685.631215 0.5861 0.5857 0.5856 0.5871 0.5887
680.680049 0.5910 0.5936 0.5964 0.5992 0.6024
675.728883 0.6056 0.6092 0.6137 0.6205 0.6311
670.777718 0.6436 0.6537 0.6594 0.6623 0.6664
665.826552 0.6714 0.6770 0.6842 0.6980 0.7144
660.875387 0.6918 0.6283 0.5929 0.5911 0.5923
655.924221 0.6020 0.6102 0.6159 0.6171 0.6197
650.973056 0.6226 0.6268 0.6312 0.6352 0.6392
646.021890 0.6428 0.6455 0.6456 0.6441 0.6416
641.070725 0.6410 0.6409 0.6426 0.6475 0.6518
636.119559 0.6516 0.6485 0.6447 0.6419 0.6349
631.168394 0.6267 0.6209 0.6203 0.6198 0.6178
##END=
