##TITLE=CALCIUM SULFATE
##JCAMP-DX=4.24
##DATA TYPE=INFRARED SPECTRUM
##CLASS=COBLENTZ III
##ORIGIN=DESOTO CHEMICAL COATINGS, INC.
##OWNER=COBLENTZ SOCIETY
Collection (C) 2018 copyright by the U.S. Secretary of Commerce
on behalf of the United States of America. All rights reserved.
##DATE=Not specified, most likely prior to 1970
##NAMES=GYPSUM
##MOLFORM=Ca S O4  * 2 H2 O
$$ 99+% PURE
##SOURCE REFERENCE=COBLENTZ NO. 4671
##$NIST ID=B6004671
##$NIST SOURCE=COBLENTZ
##$NIST IMAGE=cob4671
##SPECTROMETER/DATA SYSTEM=BECKMAN IR-12 (GRATING)
##INSTRUMENT PARAMETERS=GRATING BLAZED AT 3330, 1330, 445, 220 CM^-^1
##STATE=SOLID (0.5 mg / 300 mg CsI DISC)
##SAMPLING PROCEDURE=TRANSMISSION
##RESOLUTION=4
##DATA PROCESSING=DIGITIZED BY NIST FROM HARD COPY (FROM TWO SEGMENTS)
##XUNITS=1/CM
##YUNITS=TRANSMITTANCE
##XFACTOR=1.000000
##YFACTOR=1
##DELTAX=1.331362
##FIRSTX=201.331
##LASTX=3986.39
##FIRSTY=0.668
##MAXX=3986.39
##MINX=201.331
##MAXY=0.975
##MINY=0.174
##NPOINTS=2844
##XYDATA=(X++(Y..Y))
201.331000 0.6680 0.6680 0.6670 0.6680 0.6680
207.987811 0.6670 0.6670 0.6660 0.6660 0.6660
214.644622 0.6630 0.6630 0.6620 0.6600 0.6560
221.301433 0.6550 0.6540 0.6520 0.6500 0.6500
227.958244 0.6470 0.6440 0.6440 0.6340 0.6310
234.615055 0.6270 0.6200 0.6130 0.6120 0.6110
241.271866 0.6050 0.6040 0.6030 0.6010 0.6010
247.928677 0.6000 0.6000 0.6000 0.5990 0.5990
254.585488 0.5990 0.5990 0.5990 0.5990 0.6000
261.242299 0.6000 0.6010 0.6030 0.6030 0.6030
267.899111 0.6040 0.6070 0.6080 0.6090 0.6090
274.555922 0.6110 0.6110 0.6120 0.6120 0.6130
281.212733 0.6160 0.6160 0.6170 0.6190 0.6200
287.869544 0.6200 0.6210 0.6210 0.6230 0.6230
294.526355 0.6230 0.6230 0.6230 0.6210 0.6210
301.183166 0.6210 0.6200 0.6200 0.6190 0.6190
307.839977 0.6190 0.6190 0.6190 0.6170 0.6170
314.496788 0.6170 0.6160 0.6160 0.6160 0.6160
321.153599 0.6160 0.6160 0.6160 0.6170 0.6170
327.810410 0.6190 0.6200 0.6200 0.6210 0.6210
334.467221 0.6230 0.6230 0.6260 0.6270 0.6280
341.124032 0.6280 0.6300 0.6300 0.6310 0.6310
347.780843 0.6320 0.6320 0.6340 0.6350 0.6380
354.437654 0.6380 0.6390 0.6400 0.6400 0.6420
361.094465 0.6430 0.6430 0.6440 0.6460 0.6460
367.751276 0.6470 0.6480 0.6480 0.6480 0.6480
374.408087 0.6500 0.6500 0.6500 0.6510 0.6510
381.064898 0.6520 0.6520 0.6520 0.6540 0.6540
387.721710 0.6540 0.6540 0.6540 0.6540 0.6540
394.378521 0.6540 0.6540 0.6540 0.6540 0.6540
401.035332 0.6540 0.6540 0.6520 0.6520 0.6520
407.692143 0.6510 0.6510 0.6510 0.6510 0.6510
414.348954 0.6520 0.6520 0.6540 0.6560 0.6590
421.005765 0.6600 0.6600 0.6630 0.6630 0.6660
427.662576 0.6670 0.6680 0.6710 0.6740 0.6800
434.319387 0.6830 0.6830 0.6860 0.6890 0.6900
440.976198 0.6910 0.6910 0.6930 0.6970 0.6980
447.633009 0.6980 0.6990 0.6990 0.7010 0.7020
454.289820 0.7030 0.7050 0.7060 0.7090 0.7100
460.946631 0.7110 0.7130 0.7140 0.7170 0.7170
467.603442 0.7190 0.7210 0.7220 0.7270 0.7300
474.260253 0.7310 0.7330 0.7330 0.7370 0.7410
480.917064 0.7420 0.7450 0.7490 0.7520 0.7520
487.573875 0.7530 0.7540 0.7540 0.7570 0.7620
494.230686 0.7650 0.7660 0.7700 0.7720 0.7760
500.887497 0.7780 0.7800 0.7850 0.7890 0.7900
507.544309 0.7900 0.7930 0.7960 0.7970 0.8010
514.201120 0.8020 0.8040 0.8050 0.8080 0.8090
520.857931 0.8100 0.8120 0.8130 0.8150 0.8160
527.514742 0.8190 0.8210 0.8230 0.8240 0.8250
534.171553 0.8270 0.8270 0.8280 0.8280 0.8290
540.828364 0.8290 0.8310 0.8310 0.8310 0.8310
547.485175 0.8320 0.8320 0.8320 0.8320 0.8320
554.141986 0.8320 0.8320 0.8320 0.8320 0.8320
560.798797 0.8320 0.8310 0.8310 0.8310 0.8290
567.455608 0.8290 0.8290 0.8290 0.8270 0.8250
574.112419 0.8240 0.8230 0.8210 0.8170 0.8130
580.769230 0.8120 0.8020 0.8020 0.7921 0.7860
587.426041 0.7820 0.7770 0.7720 0.7660 0.7610
594.082852 0.7520 0.7410 0.7251 0.6972 0.6841
600.739663 0.6540 0.6390 0.6230 0.6210 0.6230
607.396474 0.6260 0.6310 0.6400 0.6420 0.6480
614.053285 0.6620 0.6740 0.6830 0.6940 0.7060
620.710096 0.7130 0.7259 0.7409 0.7470 0.7530
627.366908 0.7560 0.7620 0.7720 0.7730 0.7770
634.023719 0.7840 0.7860 0.7880 0.7920 0.7960
640.680530 0.8000 0.8020 0.8040 0.8080 0.8100
647.337341 0.8130 0.8170 0.8190 0.8200 0.8230
653.994152 0.8250 0.8230 0.8230 0.8160 0.8020
660.650963 0.7960 0.7841 0.7721 0.7521 0.7232
667.307774 0.7110 0.6990 0.6870 0.6660 0.6660
673.964585 0.6710 0.6760 0.6859 0.7009 0.7169
680.621396 0.7410 0.7650 0.7860 0.8020 0.8170
687.278207 0.8250 0.8330 0.8449 0.8520 0.8609
693.935018 0.8720 0.8730 0.8780 0.8820 0.8820
700.591829 0.8830 0.8860 0.8900 0.8940 0.8940
707.248640 0.8980 0.9000 0.9020 0.9020 0.9030
713.905451 0.9040 0.9060 0.9070 0.9080 0.9100
720.562262 0.9100 0.9110 0.9110 0.9120 0.9120
727.219073 0.9140 0.9140 0.9140 0.9150 0.9150
733.875884 0.9160 0.9180 0.9190 0.9200 0.9200
740.532695 0.9200 0.9200 0.9220 0.9230 0.9230
747.189507 0.9230 0.9230 0.9230 0.9230 0.9230
753.846318 0.9240 0.9260 0.9260 0.9270 0.9270
760.503129 0.9300 0.9310 0.9310 0.9320 0.9340
767.159940 0.9360 0.9380 0.9380 0.9390 0.9390
773.816751 0.9410 0.9410 0.9420 0.9420 0.9430
780.473562 0.9430 0.9450 0.9450 0.9450 0.9450
787.130373 0.9450 0.9450 0.9450 0.9460 0.9460
793.787184 0.9470 0.9470 0.9490 0.9490 0.9500
800.443995 0.9500 0.9500 0.9500 0.9500 0.9500
807.100806 0.9500 0.9500 0.9510 0.9510 0.9530
813.757617 0.9530 0.9540 0.9540 0.9540 0.9540
820.414428 0.9550 0.9550 0.9550 0.9570 0.9590
827.071239 0.9590 0.9590 0.9610 0.9610 0.9610
833.728050 0.9620 0.9620 0.9620 0.9630 0.9630
840.384861 0.9630 0.9630 0.9630 0.9630 0.9630
847.041672 0.9630 0.9630 0.9630 0.9630 0.9630
853.698483 0.9630 0.9630 0.9630 0.9630 0.9630
860.355294 0.9650 0.9650 0.9650 0.9650 0.9650
867.012106 0.9650 0.9650 0.9650 0.9650 0.9650
873.668917 0.9630 0.9630 0.9630 0.9630 0.9650
880.325728 0.9650 0.9650 0.9650 0.9630 0.9630
886.982539 0.9630 0.9630 0.9630 0.9630 0.9630
893.639350 0.9630 0.9650 0.9650 0.9650 0.9650
900.296161 0.9630 0.9630 0.9630 0.9650 0.9630
906.952972 0.9630 0.9630 0.9630 0.9630 0.9630
913.609783 0.9630 0.9630 0.9630 0.9630 0.9630
920.266594 0.9620 0.9620 0.9620 0.9620 0.9610
926.923405 0.9610 0.9610 0.9590 0.9590 0.9590
933.580216 0.9590 0.9610 0.9610 0.9610 0.9610
940.237027 0.9610 0.9610 0.9610 0.9610 0.9610
946.893838 0.9610 0.9610 0.9590 0.9590 0.9590
953.550649 0.9590 0.9590 0.9580 0.9580 0.9550
960.207460 0.9550 0.9550 0.9550 0.9550 0.9540
966.864271 0.9540 0.9530 0.9500 0.9500 0.9490
973.521082 0.9470 0.9460 0.9460 0.9450 0.9430
980.177893 0.9430 0.9420 0.9420 0.9420 0.9420
986.834705 0.9410 0.9410 0.9390 0.9390 0.9360
993.491516 0.9350 0.9340 0.9320 0.9310 0.9300
1000.148327 0.9280 0.9270 0.9260 0.9220 0.9220
1006.805138 0.9190 0.9180 0.9150 0.9140 0.9110
1013.461949 0.9110 0.9100 0.9080 0.9070 0.9070
1020.118760 0.9070 0.9080 0.9080 0.9100 0.9110
1026.775571 0.9110 0.9100 0.9100 0.9100 0.9100
1033.432382 0.9080 0.9070 0.9060 0.9060 0.9040
1040.089193 0.8990 0.8980 0.8960 0.8920 0.8910
1046.746004 0.8880 0.8860 0.8830 0.8790 0.8720
1053.402815 0.8670 0.8650 0.8590 0.8550 0.8530
1060.059626 0.8480 0.8440 0.8350 0.8280 0.8240
1066.716437 0.8150 0.8100 0.8040 0.8020 0.7860
1073.373248 0.7820 0.7730 0.7700 0.7611 0.7531
1080.030059 0.7450 0.7430 0.7220 0.7110 0.7030
1086.686870 0.6631 0.6520 0.6361 0.6211 0.5872
1093.343681 0.5640 0.5420 0.5240 0.5080 0.4950
1100.000492 0.4741 0.4312 0.4111 0.3841 0.3631
1106.657304 0.3410 0.3190 0.2930 0.2461 0.2300
1113.314115 0.2210 0.2170 0.2140 0.2130 0.2140
1119.970926 0.2190 0.2250 0.2300 0.2380 0.2450
1126.627737 0.2600 0.2620 0.2610 0.2580 0.2560
1133.284548 0.2520 0.2430 0.2350 0.2300 0.1931
1139.941359 0.1890 0.1840 0.1800 0.1780 0.1760
1146.598170 0.1750 0.1740 0.1740 0.1740 0.1750
1153.254981 0.1780 0.1800 0.1820 0.1830 0.1860
1159.911792 0.1910 0.1970 0.2010 0.2020 0.2100
1166.568603 0.2130 0.2210 0.2260 0.2429 0.2778
1173.225414 0.2920 0.3060 0.3270 0.3529 0.3799
1179.882225 0.4039 0.4309 0.4499 0.4689 0.4829
1186.539036 0.5050 0.5220 0.5480 0.5580 0.5829
1193.195847 0.6109 0.6170 0.6349 0.6469 0.6579
1199.852658 0.6660 0.6720 0.6860 0.6990 0.7110
1206.509469 0.7220 0.7270 0.7370 0.7460 0.7530
1213.166280 0.7600 0.7690 0.7730 0.7770 0.7850
1219.823091 0.7930 0.8020 0.8060 0.8149 0.8229
1226.479903 0.8270 0.8320 0.8360 0.8440 0.8530
1233.136714 0.8590 0.8650 0.8670 0.8720 0.8780
1239.793525 0.8820 0.8840 0.8880 0.8960 0.8990
1246.450336 0.9020 0.9030 0.9030 0.9040 0.9040
1253.107147 0.9060 0.9080 0.9110 0.9120 0.9140
1259.763958 0.9150 0.9180 0.9190 0.9200 0.9220
1266.420769 0.9220 0.9230 0.9230 0.9230 0.9240
1273.077580 0.9270 0.9300 0.9310 0.9310 0.9310
1279.734391 0.9320 0.9320 0.9320 0.9340 0.9340
1286.391202 0.9350 0.9360 0.9390 0.9390 0.9420
1293.048013 0.9420 0.9420 0.9430 0.9450 0.9450
1299.704824 0.9450 0.9450 0.9450 0.9460 0.9460
1306.361635 0.9460 0.9470 0.9470 0.9490 0.9490
1313.018446 0.9490 0.9490 0.9510 0.9530 0.9530
1319.675257 0.9530 0.9530 0.9530 0.9530 0.9530
1326.332068 0.9530 0.9540 0.9540 0.9550 0.9550
1332.988879 0.9550 0.9550 0.9550 0.9550 0.9550
1339.645690 0.9550 0.9550 0.9550 0.9550 0.9570
1346.302502 0.9580 0.9580 0.9580 0.9580 0.9580
1352.959313 0.9570 0.9550 0.9550 0.9550 0.9580
1359.616124 0.9580 0.9580 0.9580 0.9580 0.9590
1366.272935 0.9590 0.9590 0.9590 0.9590 0.9590
1372.929746 0.9590 0.9590 0.9610 0.9610 0.9610
1379.586557 0.9610 0.9610 0.9610 0.9610 0.9610
1386.243368 0.9610 0.9610 0.9610 0.9610 0.9610
1392.900179 0.9610 0.9610 0.9610 0.9610 0.9610
1399.556990 0.9610 0.9610 0.9610 0.9610 0.9610
1406.213801 0.9610 0.9610 0.9610 0.9610 0.9610
1412.870612 0.9620 0.9620 0.9620 0.9620 0.9620
1419.527423 0.9620 0.9630 0.9630 0.9630 0.9630
1426.184234 0.9630 0.9630 0.9630 0.9630 0.9630
1432.841045 0.9630 0.9630 0.9630 0.9630 0.9630
1439.497856 0.9630 0.9650 0.9650 0.9630 0.9630
1446.154667 0.9630 0.9620 0.9620 0.9620 0.9620
1452.811478 0.9630 0.9630 0.9630 0.9630 0.9610
1459.468289 0.9610 0.9610 0.9610 0.9620 0.9620
1466.125101 0.9620 0.9620 0.9630 0.9630 0.9630
1472.781912 0.9630 0.9630 0.9630 0.9630 0.9630
1479.438723 0.9650 0.9650 0.9650 0.9650 0.9670
1486.095534 0.9700 0.9700 0.9700 0.9700 0.9710
1492.752345 0.9710 0.9710 0.9710 0.9710 0.9710
1499.409156 0.9710 0.9710 0.9710 0.9710 0.9710
1506.065967 0.9710 0.9710 0.9700 0.9700 0.9700
1512.722778 0.9700 0.9700 0.9700 0.9700 0.9690
1519.379589 0.9690 0.9690 0.9670 0.9670 0.9670
1526.036400 0.9670 0.9660 0.9660 0.9660 0.9660
1532.693211 0.9660 0.9660 0.9660 0.9660 0.9650
1539.350022 0.9650 0.9650 0.9650 0.9650 0.9630
1546.006833 0.9630 0.9630 0.9620 0.9620 0.9620
1552.663644 0.9620 0.9610 0.9610 0.9590 0.9590
1559.320455 0.9590 0.9590 0.9580 0.9580 0.9580
1565.977266 0.9570 0.9570 0.9570 0.9550 0.9550
1572.634077 0.9550 0.9540 0.9540 0.9540 0.9530
1579.290888 0.9490 0.9450 0.9430 0.9430 0.9390
1585.947700 0.9390 0.9360 0.9320 0.9300 0.9270
1592.604511 0.9260 0.9180 0.9140 0.9080 0.9040
1599.261322 0.8980 0.8950 0.8900 0.8820 0.8720
1605.918133 0.8650 0.8600 0.8471 0.8370 0.8350
1612.574944 0.8230 0.8130 0.7880 0.7770 0.7620
1619.231755 0.7351 0.7151 0.6951 0.6582 0.6550
1625.888566 0.6560 0.6640 0.6740 0.6820 0.7049
1632.545377 0.7249 0.7559 0.7859 0.7930 0.8039
1639.202188 0.8130 0.8240 0.8330 0.8400 0.8550
1645.858999 0.8570 0.8630 0.8680 0.8720 0.8750
1652.515810 0.8820 0.8860 0.8910 0.8920 0.8940
1659.172621 0.8960 0.8990 0.9020 0.9030 0.9060
1665.829432 0.9100 0.9110 0.9120 0.9140 0.9150
1672.486243 0.9180 0.9200 0.9220 0.9230 0.9230
1679.143054 0.9230 0.9200 0.9190 0.9140 0.9110
1685.799865 0.9070 0.8940 0.8870 0.8840 0.8830
1692.456676 0.8830 0.8860 0.8880 0.8950 0.8990
1699.113487 0.9020 0.9070 0.9120 0.9160 0.9230
1705.770298 0.9280 0.9320 0.9320 0.9350 0.9360
1712.427110 0.9390 0.9430 0.9460 0.9470 0.9490
1719.083921 0.9500 0.9530 0.9530 0.9510 0.9530
1725.740732 0.9530 0.9530 0.9530 0.9540 0.9570
1732.397543 0.9580 0.9590 0.9590 0.9610 0.9610
1739.054354 0.9610 0.9610 0.9620 0.9630 0.9630
1745.711165 0.9630 0.9630 0.9630 0.9650 0.9660
1752.367976 0.9660 0.9660 0.9670 0.9670 0.9670
1759.024787 0.9690 0.9690 0.9690 0.9700 0.9700
1765.681598 0.9700 0.9710 0.9710 0.9710 0.9710
1772.338409 0.9710 0.9710 0.9710 0.9730 0.9730
1778.995220 0.9730 0.9730 0.9730 0.9730 0.9730
1785.652031 0.9740 0.9740 0.9740 0.9740 0.9730
1792.308842 0.9730 0.9730 0.9730 0.9730 0.9740
1798.965653 0.9740 0.9740 0.9740 0.9740 0.9740
1805.622464 0.9740 0.9730 0.9730 0.9740 0.9740
1812.279275 0.9740 0.9740 0.9740 0.9740 0.9740
1818.936086 0.9740 0.9740 0.9740 0.9740 0.9740
1825.592897 0.9740 0.9740 0.9740 0.9740 0.9740
1832.249709 0.9740 0.9740 0.9750 0.9750 0.9750
1838.906520 0.9750 0.9750 0.9750 0.9750 0.9750
1845.563331 0.9750 0.9750 0.9750 0.9750 0.9740
1852.220142 0.9740 0.9740 0.9740 0.9740 0.9740
1858.876953 0.9750 0.9750 0.9750 0.9750 0.9750
1865.533764 0.9750 0.9750 0.9750 0.9750 0.9750
1872.190575 0.9750 0.9750 0.9750 0.9750 0.9750
1878.847386 0.9750 0.9750 0.9740 0.9740 0.9740
1885.504197 0.9730 0.9730 0.9740 0.9740 0.9740
1892.161008 0.9740 0.9740 0.9740 0.9740 0.9740
1898.817819 0.9740 0.9740 0.9740 0.9750 0.9740
1905.474630 0.9740 0.9740 0.9740 0.9740 0.9740
1912.131441 0.9740 0.9740 0.9730 0.9710 0.9710
1918.788252 0.9710 0.9710 0.9730 0.9730 0.9730
1925.445063 0.9730 0.9730 0.9730 0.9730 0.9730
1932.101874 0.9730 0.9730 0.9730 0.9730 0.9730
1938.758685 0.9730 0.9730 0.9730 0.9730 0.9730
1945.415496 0.9710 0.9710 0.9710 0.9710 0.9710
1952.072308 0.9710 0.9710 0.9730 0.9730 0.9730
1958.729119 0.9730 0.9730 0.9730 0.9730 0.9730
1965.385930 0.9730 0.9730 0.9710 0.9710 0.9710
1972.042741 0.9710 0.9710 0.9710 0.9710 0.9710
1978.699552 0.9710 0.9700 0.9700 0.9700 0.9700
1985.356363 0.9700 0.9700 0.9700 0.9700 0.9700
1992.013174 0.9700 0.9700 0.9700 0.9710 0.9710
1998.669985 0.9710 0.9710 0.9710 0.9710 0.9710
2005.326796 0.9710 0.9705 0.9700 0.9695 0.9690
2011.983607 0.9680 0.9670 0.9665 0.9660 0.9660
2018.640418 0.9660 0.9655 0.9650 0.9650 0.9650
2025.297229 0.9639 0.9630 0.9630 0.9630 0.9630
2031.954040 0.9630 0.9630 0.9630 0.9630 0.9630
2038.610851 0.9630 0.9630 0.9630 0.9629 0.9624
2045.267662 0.9620 0.9620 0.9620 0.9620 0.9620
2051.924473 0.9620 0.9620 0.9620 0.9620 0.9620
2058.581284 0.9621 0.9626 0.9629 0.9624 0.9620
2065.238095 0.9620 0.9620 0.9620 0.9620 0.9620
2071.894907 0.9620 0.9620 0.9620 0.9620 0.9620
2078.551718 0.9620 0.9620 0.9620 0.9620 0.9620
2085.208529 0.9619 0.9614 0.9610 0.9610 0.9610
2091.865340 0.9610 0.9610 0.9610 0.9610 0.9610
2098.522151 0.9610 0.9610 0.9607 0.9597 0.9590
2105.178962 0.9590 0.9590 0.9590 0.9588 0.9583
2111.835773 0.9580 0.9580 0.9580 0.9580 0.9578
2118.492584 0.9573 0.9570 0.9570 0.9570 0.9570
2125.149395 0.9570 0.9570 0.9570 0.9570 0.9570
2131.806206 0.9570 0.9570 0.9570 0.9570 0.9570
2138.463017 0.9570 0.9570 0.9570 0.9570 0.9570
2145.119828 0.9570 0.9570 0.9570 0.9570 0.9570
2151.776639 0.9570 0.9570 0.9570 0.9570 0.9570
2158.433450 0.9570 0.9570 0.9570 0.9570 0.9570
2165.090261 0.9570 0.9570 0.9570 0.9570 0.9570
2171.747072 0.9570 0.9570 0.9570 0.9570 0.9570
2178.403883 0.9570 0.9570 0.9570 0.9570 0.9570
2185.060694 0.9570 0.9570 0.9570 0.9570 0.9570
2191.717506 0.9565 0.9554 0.9550 0.9550 0.9547
2198.374317 0.9542 0.9540 0.9540 0.9540 0.9540
2205.031128 0.9540 0.9540 0.9537 0.9532 0.9530
2211.687939 0.9530 0.9530 0.9530 0.9530 0.9530
2218.344750 0.9524 0.9514 0.9510 0.9510 0.9510
2225.001561 0.9510 0.9510 0.9510 0.9510 0.9510
2231.658372 0.9510 0.9510 0.9507 0.9502 0.9500
2238.315183 0.9500 0.9500 0.9500 0.9500 0.9500
2244.971994 0.9500 0.9500 0.9500 0.9500 0.9504
2251.628805 0.9509 0.9510 0.9510 0.9510 0.9510
2258.285616 0.9510 0.9510 0.9510 0.9510 0.9510
2264.942427 0.9510 0.9510 0.9510 0.9510 0.9510
2271.599238 0.9518 0.9528 0.9522 0.9512 0.9510
2278.256049 0.9510 0.9518 0.9528 0.9530 0.9530
2284.912860 0.9530 0.9530 0.9530 0.9530 0.9530
2291.569671 0.9530 0.9534 0.9539 0.9536 0.9531
2298.226482 0.9530 0.9530 0.9530 0.9530 0.9530
2304.883293 0.9530 0.9530 0.9530 0.9534 0.9539
2311.540105 0.9544 0.9549 0.9559 0.9569 0.9575
2318.196916 0.9580 0.9594 0.9609 0.9615 0.9620
2324.853727 0.9620 0.9620 0.9620 0.9620 0.9620
2331.510538 0.9620 0.9620 0.9620 0.9620 0.9620
2338.167349 0.9620 0.9620 0.9620 0.9620 0.9620
2344.824160 0.9620 0.9625 0.9630 0.9640 0.9650
2351.480971 0.9650 0.9650 0.9650 0.9650 0.9640
2358.137782 0.9630 0.9630 0.9630 0.9630 0.9630
2364.794593 0.9630 0.9630 0.9640 0.9650 0.9650
2371.451404 0.9650 0.9650 0.9650 0.9650 0.9650
2378.108215 0.9650 0.9650 0.9650 0.9650 0.9655
2384.765026 0.9660 0.9660 0.9660 0.9660 0.9659
2391.421837 0.9654 0.9650 0.9650 0.9649 0.9639
2398.078648 0.9630 0.9630 0.9630 0.9630 0.9630
2404.735459 0.9630 0.9630 0.9630 0.9629 0.9624
2411.392270 0.9620 0.9620 0.9620 0.9620 0.9620
2418.049081 0.9620 0.9620 0.9620 0.9620 0.9620
2424.705892 0.9620 0.9620 0.9621 0.9626 0.9630
2431.362704 0.9630 0.9630 0.9630 0.9632 0.9643
2438.019515 0.9650 0.9650 0.9650 0.9650 0.9650
2444.676326 0.9650 0.9647 0.9637 0.9630 0.9630
2451.333137 0.9630 0.9630 0.9630 0.9630 0.9630
2457.989948 0.9630 0.9630 0.9630 0.9630 0.9630
2464.646759 0.9630 0.9630 0.9630 0.9630 0.9630
2471.303570 0.9630 0.9630 0.9630 0.9630 0.9630
2477.960381 0.9630 0.9630 0.9630 0.9630 0.9628
2484.617192 0.9623 0.9620 0.9620 0.9620 0.9620
2491.274003 0.9620 0.9620 0.9620 0.9620 0.9620
2497.930814 0.9620 0.9622 0.9627 0.9628 0.9623
2504.587625 0.9620 0.9620 0.9620 0.9620 0.9620
2511.244436 0.9620 0.9620 0.9620 0.9622 0.9627
2517.901247 0.9630 0.9630 0.9630 0.9630 0.9628
2524.558058 0.9623 0.9620 0.9620 0.9617 0.9612
2531.214869 0.9610 0.9610 0.9610 0.9610 0.9613
2537.871680 0.9618 0.9620 0.9620 0.9617 0.9612
2544.528491 0.9610 0.9610 0.9610 0.9610 0.9610
2551.185303 0.9610 0.9613 0.9618 0.9620 0.9620
2557.842114 0.9620 0.9620 0.9620 0.9620 0.9620
2564.498925 0.9620 0.9620 0.9620 0.9620 0.9620
2571.155736 0.9620 0.9620 0.9620 0.9620 0.9620
2577.812547 0.9620 0.9620 0.9620 0.9620 0.9620
2584.469358 0.9620 0.9620 0.9620 0.9620 0.9620
2591.126169 0.9620 0.9620 0.9620 0.9616 0.9611
2597.782980 0.9610 0.9610 0.9610 0.9610 0.9610
2604.439791 0.9610 0.9614 0.9619 0.9620 0.9620
2611.096602 0.9620 0.9620 0.9620 0.9620 0.9620
2617.753413 0.9620 0.9620 0.9620 0.9616 0.9611
2624.410224 0.9614 0.9619 0.9620 0.9620 0.9608
2631.067035 0.9593 0.9590 0.9590 0.9590 0.9590
2637.723846 0.9590 0.9590 0.9590 0.9590 0.9590
2644.380657 0.9590 0.9599 0.9609 0.9610 0.9610
2651.037468 0.9610 0.9610 0.9610 0.9610 0.9610
2657.694279 0.9610 0.9610 0.9610 0.9610 0.9610
2664.351090 0.9610 0.9610 0.9601 0.9591 0.9590
2671.007902 0.9590 0.9590 0.9590 0.9590 0.9590
2677.664713 0.9590 0.9590 0.9590 0.9590 0.9590
2684.321524 0.9590 0.9590 0.9590 0.9590 0.9590
2690.978335 0.9590 0.9590 0.9590 0.9590 0.9590
2697.635146 0.9590 0.9590 0.9590 0.9590 0.9590
2704.291957 0.9600 0.9610 0.9610 0.9610 0.9610
2710.948768 0.9610 0.9600 0.9590 0.9590 0.9590
2717.605579 0.9590 0.9590 0.9590 0.9590 0.9590
2724.262390 0.9590 0.9590 0.9590 0.9585 0.9580
2730.919201 0.9580 0.9580 0.9580 0.9580 0.9580
2737.576012 0.9580 0.9580 0.9580 0.9580 0.9579
2744.232823 0.9574 0.9570 0.9570 0.9570 0.9570
2750.889634 0.9570 0.9570 0.9570 0.9570 0.9570
2757.546445 0.9570 0.9570 0.9570 0.9570 0.9570
2764.203256 0.9570 0.9570 0.9571 0.9576 0.9581
2770.860067 0.9586 0.9592 0.9602 0.9610 0.9610
2777.516878 0.9610 0.9610 0.9610 0.9610 0.9611
2784.173689 0.9616 0.9620 0.9620 0.9616 0.9601
2790.830501 0.9590 0.9590 0.9590 0.9590 0.9588
2797.487312 0.9583 0.9580 0.9580 0.9580 0.9580
2804.144123 0.9574 0.9554 0.9540 0.9540 0.9540
2810.800934 0.9540 0.9540 0.9540 0.9540 0.9540
2817.457745 0.9540 0.9540 0.9540 0.9540 0.9540
2824.114556 0.9540 0.9542 0.9547 0.9550 0.9550
2830.771367 0.9550 0.9550 0.9550 0.9550 0.9548
2837.428178 0.9543 0.9540 0.9540 0.9540 0.9540
2844.084989 0.9538 0.9533 0.9526 0.9516 0.9510
2850.741800 0.9510 0.9501 0.9481 0.9465 0.9455
2857.398611 0.9445 0.9435 0.9430 0.9430 0.9428
2864.055422 0.9423 0.9420 0.9420 0.9418 0.9413
2870.712233 0.9410 0.9410 0.9413 0.9418 0.9420
2877.369044 0.9420 0.9420 0.9420 0.9420 0.9420
2884.025855 0.9423 0.9428 0.9430 0.9430 0.9430
2890.682666 0.9430 0.9430 0.9430 0.9430 0.9430
2897.339477 0.9430 0.9430 0.9430 0.9430 0.9427
2903.996288 0.9422 0.9420 0.9420 0.9417 0.9412
2910.653100 0.9410 0.9410 0.9401 0.9386 0.9370
2917.309911 0.9355 0.9347 0.9342 0.9330 0.9315
2923.966722 0.9300 0.9285 0.9277 0.9272 0.9267
2930.623533 0.9262 0.9260 0.9260 0.9253 0.9243
2937.280344 0.9240 0.9240 0.9240 0.9240 0.9247
2943.937155 0.9257 0.9264 0.9269 0.9270 0.9270
2950.593966 0.9274 0.9279 0.9280 0.9280 0.9288
2957.250777 0.9298 0.9304 0.9309 0.9310 0.9310
2963.907588 0.9314 0.9319 0.9320 0.9320 0.9328
2970.564399 0.9338 0.9340 0.9340 0.9348 0.9358
2977.221210 0.9368 0.9378 0.9384 0.9389 0.9398
2983.878021 0.9408 0.9414 0.9419 0.9420 0.9420
2990.534832 0.9424 0.9429 0.9430 0.9430 0.9439
2997.191643 0.9449 0.9450 0.9450 0.9450 0.9450
3003.848454 0.9450 0.9450 0.9450 0.9450 0.9441
3010.505265 0.9431 0.9430 0.9430 0.9430 0.9430
3017.162076 0.9430 0.9430 0.9430 0.9430 0.9430
3023.818887 0.9430 0.9430 0.9430 0.9430 0.9430
3030.475699 0.9430 0.9430 0.9425 0.9420 0.9420
3037.132510 0.9420 0.9420 0.9420 0.9415 0.9410
3043.789321 0.9410 0.9410 0.9400 0.9390 0.9390
3050.446132 0.9390 0.9390 0.9390 0.9390 0.9390
3057.102943 0.9390 0.9390 0.9390 0.9390 0.9390
3063.759754 0.9390 0.9385 0.9380 0.9380 0.9380
3070.416565 0.9380 0.9379 0.9369 0.9360 0.9360
3077.073376 0.9360 0.9355 0.9350 0.9350 0.9349
3083.730187 0.9344 0.9340 0.9340 0.9339 0.9329
3090.386998 0.9319 0.9314 0.9310 0.9310 0.9309
3097.043809 0.9304 0.9300 0.9300 0.9298 0.9288
3103.700620 0.9280 0.9280 0.9279 0.9274 0.9269
3110.357431 0.9264 0.9258 0.9248 0.9240 0.9240
3117.014242 0.9240 0.9240 0.9239 0.9234 0.9230
3123.671053 0.9230 0.9229 0.9224 0.9220 0.9220
3130.327864 0.9217 0.9207 0.9200 0.9200 0.9199
3136.984675 0.9194 0.9190 0.9190 0.9189 0.9184
3143.641486 0.9180 0.9180 0.9174 0.9154 0.9140
3150.298297 0.9140 0.9137 0.9127 0.9120 0.9120
3156.955109 0.9118 0.9113 0.9108 0.9103 0.9097
3163.611920 0.9087 0.9077 0.9066 0.9054 0.9039
3170.268731 0.9028 0.9023 0.9012 0.8992 0.8974
3176.925542 0.8959 0.8948 0.8943 0.8934 0.8919
3183.582353 0.8902 0.8882 0.8868 0.8863 0.8856
3190.239164 0.8846 0.8838 0.8833 0.8828 0.8823
3196.895975 0.8815 0.8805 0.8795 0.8785 0.8775
3203.552786 0.8765 0.8758 0.8753 0.8745 0.8735
3210.209597 0.8725 0.8715 0.8700 0.8680 0.8660
3216.866408 0.8640 0.8622 0.8607 0.8592 0.8577
3223.523219 0.8559 0.8539 0.8527 0.8522 0.8501
3230.180030 0.8466 0.8439 0.8419 0.8399 0.8379
3236.836841 0.8364 0.8354 0.8333 0.8303 0.8276
3243.493652 0.8251 0.8228 0.8208 0.8185 0.8160
3250.150463 0.8141 0.8126 0.8111 0.8096 0.8090
3256.807274 0.8090 0.8087 0.8082 0.8074 0.8064
3263.464085 0.8057 0.8052 0.8047 0.8042 0.8040
3270.120896 0.8040 0.8033 0.8023 0.8020 0.8020
3276.777708 0.8017 0.8012 0.7996 0.7976 0.7953
3283.434519 0.7928 0.7909 0.7894 0.7876 0.7856
3290.091330 0.7846 0.7841 0.7829 0.7814 0.7810
3296.748141 0.7810 0.7784 0.7749 0.7725 0.7705
3303.404952 0.7681 0.7656 0.7631 0.7606 0.7573
3310.061763 0.7538 0.7526 0.7521 0.7496 0.7466
3316.718574 0.7444 0.7424 0.7400 0.7375 0.7346
3323.375385 0.7316 0.7277 0.7237 0.7205 0.7175
3330.032196 0.7153 0.7133 0.7100 0.7065 0.7043
3336.689007 0.7023 0.7007 0.6992 0.6956 0.6915
3343.345818 0.6871 0.6826 0.6803 0.6783 0.6719
3350.002629 0.6649 0.6622 0.6602 0.6563 0.6523
3356.659440 0.6492 0.6462 0.6405 0.6345 0.6289
3363.316251 0.6234 0.6155 0.6075 0.6037 0.6002
3369.973062 0.5929 0.5854 0.5788 0.5723 0.5625
3376.629873 0.5525 0.5442 0.5361 0.5286 0.5211
3383.286684 0.5021 0.4831 0.4785 0.4740 0.4680
3389.943495 0.4620 0.4575 0.4530 0.4494 0.4458
3396.600307 0.4363 0.4269 0.4224 0.4179 0.4123
3403.257118 0.4070 0.4054 0.4040 0.4035 0.4030
3409.913929 0.4035 0.4041 0.4056 0.4072 0.4097
3416.570740 0.4122 0.4142 0.4163 0.4198 0.4234
3423.227551 0.4274 0.4314 0.4354 0.4392 0.4407
3429.884362 0.4425 0.4471 0.4517 0.4567 0.4611
3436.541173 0.4621 0.4635 0.4670 0.4704 0.4729
3443.197984 0.4756 0.4797 0.4835 0.4865 0.4892
3449.854795 0.4902 0.4913 0.4928 0.4946 0.4981
3456.511606 0.5013 0.5028 0.5042 0.5052 0.5067
3463.168417 0.5097 0.5121 0.5126 0.5133 0.5149
3469.825228 0.5161 0.5166 0.5171 0.5176 0.5180
3476.482039 0.5180 0.5183 0.5193 0.5200 0.5200
3483.138850 0.5201 0.5206 0.5210 0.5210 0.5210
3489.795661 0.5210 0.5210 0.5210 0.5210 0.5210
3496.452472 0.5210 0.5210 0.5208 0.5203 0.5197
3503.109283 0.5187 0.5180 0.5180 0.5177 0.5167
3509.766094 0.5157 0.5146 0.5136 0.5126 0.5114
3516.422906 0.5099 0.5088 0.5083 0.5068 0.5038
3523.079717 0.5004 0.4964 0.4926 0.4891 0.4862
3529.736528 0.4842 0.4812 0.4767 0.4730 0.4705
3536.393339 0.4665 0.4604 0.4543 0.4483 0.4441
3543.050150 0.4421 0.4380 0.4315 0.4275 0.4265
3549.706961 0.4255 0.4245 0.4245 0.4255 0.4262
3556.363772 0.4267 0.4282 0.4307 0.4327 0.4342
3563.020583 0.4357 0.4373 0.4414 0.4479 0.4560
3569.677394 0.4656 0.4756 0.4861 0.4959 0.5049
3576.334205 0.5153 0.5268 0.5375 0.5475 0.5575
3582.991016 0.5676 0.5745 0.5790 0.5816 0.5826
3589.647827 0.5865 0.5926 0.5980 0.6030 0.6086
3596.304638 0.6147 0.6210 0.6275 0.6362 0.6462
3602.961449 0.6516 0.6541 0.6575 0.6615 0.6652
3609.618260 0.6687 0.6716 0.6741 0.6785 0.6840
3616.275071 0.6899 0.6960 0.7011 0.7056 0.7094
3622.931882 0.7129 0.7171 0.7216 0.7265 0.7315
3629.588693 0.7361 0.7407 0.7459 0.7514 0.7544
3636.245505 0.7564 0.7624 0.7699 0.7763 0.7823
3642.902316 0.7873 0.7919 0.7960 0.8000 0.8021
3649.559127 0.8036 0.8074 0.8120 0.8145 0.8165
3656.215938 0.8193 0.8223 0.8265 0.8310 0.8336
3662.872749 0.8356 0.8376 0.8396 0.8404 0.8409
3669.529560 0.8418 0.8428 0.8438 0.8448 0.8475
3676.186371 0.8505 0.8514 0.8519 0.8524 0.8529
3682.843182 0.8543 0.8558 0.8581 0.8606 0.8610
3689.499993 0.8610 0.8610 0.8610 0.8619 0.8629
3696.156804 0.8634 0.8640 0.8654 0.8669 0.8679
3702.813615 0.8689 0.8690 0.8690 0.8699 0.8709
3709.470426 0.8715 0.8720 0.8725 0.8730 0.8739
3716.127237 0.8749 0.8764 0.8779 0.8799 0.8819
3722.784048 0.8820 0.8820 0.8820 0.8820 0.8820
3729.440859 0.8820 0.8825 0.8830 0.8830 0.8830
3736.097670 0.8835 0.8840 0.8850 0.8860 0.8860
3742.754481 0.8860 0.8860 0.8860 0.8865 0.8870
3749.411292 0.8870 0.8870 0.8875 0.8880 0.8880
3756.068104 0.8880 0.8880 0.8882 0.8902 0.8920
3762.724915 0.8920 0.8920 0.8920 0.8921 0.8931
3769.381726 0.8940 0.8940 0.8940 0.8940 0.8940
3776.038537 0.8940 0.8940 0.8940 0.8941 0.8946
3782.695348 0.8950 0.8950 0.8950 0.8950 0.8950
3789.352159 0.8950 0.8949 0.8944 0.8940 0.8940
3796.008970 0.8940 0.8940 0.8940 0.8940 0.8940
3802.665781 0.8940 0.8940 0.8940 0.8940 0.8940
3809.322592 0.8940 0.8940 0.8940 0.8940 0.8940
3815.979403 0.8940 0.8941 0.8946 0.8950 0.8950
3822.636214 0.8949 0.8944 0.8940 0.8940 0.8940
3829.293025 0.8940 0.8940 0.8940 0.8940 0.8940
3835.949836 0.8940 0.8940 0.8940 0.8940 0.8940
3842.606647 0.8940 0.8940 0.8940 0.8940 0.8940
3849.263458 0.8940 0.8940 0.8940 0.8940 0.8942
3855.920269 0.8947 0.8952 0.8957 0.8960 0.8960
3862.577080 0.8958 0.8953 0.8950 0.8950 0.8950
3869.233891 0.8950 0.8950 0.8950 0.8950 0.8950
3875.890703 0.8948 0.8943 0.8940 0.8940 0.8940
3882.547514 0.8940 0.8940 0.8940 0.8940 0.8940
3889.204325 0.8942 0.8947 0.8950 0.8950 0.8952
3895.861136 0.8957 0.8960 0.8960 0.8965 0.8975
3902.517947 0.8982 0.8987 0.8992 0.8997 0.9000
3909.174758 0.9000 0.9000 0.9000 0.9000 0.9000
3915.831569 0.9000 0.9000 0.9005 0.9015 0.9020
3922.488380 0.9020 0.9020 0.9020 0.9020 0.9020
3929.145191 0.9020 0.9020 0.9020 0.9020 0.9020
3935.802002 0.9020 0.9020 0.9020 0.9020 0.9020
3942.458813 0.9020 0.9020 0.9020 0.9020 0.9020
3949.115624 0.9020 0.9020 0.9020 0.9020 0.9020
3955.772435 0.9020 0.9020 0.9020 0.9020 0.9020
3962.429246 0.9020 0.9020 0.9020 0.9020 0.9020
3969.086057 0.9020 0.9020 0.9020 0.9020 0.9020
3975.742868 0.9020 0.9020 0.9020 0.9020 0.9020
3982.399679 0.9020 0.9020 0.9020 0.9020
##END=
