##TITLE=ZINC SULFATE HEPTA-HYDRATE
$$ BAKER'S ANAL. REAGENT
##JCAMP-DX=4.24
##DATA TYPE=INFRARED SPECTRUM
##CLASS=COBLENTZ
##ORIGIN=WYANDOTTE CHEMICALS CORP., WYANDOTTE, MICHIGAN, USA
##OWNER=COBLENTZ SOCIETY
Collection (C) 2018 copyright by the U.S. Secretary of Commerce
on behalf of the United States of America. All rights reserved.
##DATE=Not specified, most likely prior to 1970
##MOLFORM=Zn S O4  * 7 H2 O
##SOURCE REFERENCE=COBLENTZ NO. 2766
##$NIST ID=B6002766
##$NIST SOURCE=COBLENTZ
##$NIST IMAGE=cob2766
##SPECTROMETER/DATA SYSTEM=Not specified, most likely a prism, grating, or hybrid spectrometer.
##STATE=SOLID (MINERAL OIL MULL)
##PATH LENGTH=
$$SPECTRAL CONTAMINATION DUE TO OIL AROUND 2900, 1450, 1380 CM^-^1
##SAMPLING PROCEDURE=TRANSMISSION
##RESOLUTION=4
##DATA PROCESSING=DIGITIZED BY NIST FROM HARD COPY
##XUNITS=MICROMETERS
##YUNITS=TRANSMITTANCE
##XFACTOR=1.000000
##YFACTOR=1
##DELTAX=000.006626
##FIRSTX=2.02
##LASTX=16
##FIRSTY=0.775
##MAXX=16
##MINX=2.02
##MAXY=0.885
##MINY=0.049
##NPOINTS=2111
##XYDATA=(X++(Y..Y))
2.020000 0.7750 0.7750 0.7770 0.7770 0.7780
2.053144 0.7780 0.7800 0.7800 0.7800 0.7820
2.086000 0.7830 0.7880 0.7900 0.8000 0.8010
2.119144 0.8080 0.8150 0.8150 0.8150 0.8160
2.152000 0.8160 0.8150 0.8150 0.8150 0.8130
2.185144 0.8080 0.8080 0.8050 0.8050 0.8050
2.219000 0.8050 0.8050 0.8050 0.8030 0.8010
2.252144 0.8000 0.8000 0.7970 0.7950 0.7930
2.285000 0.7920 0.7880 0.7870 0.7870 0.7830
2.318144 0.7820 0.7800 0.7730 0.7730 0.7720
2.351000 0.7720 0.7700 0.7700 0.7720 0.7720
2.384144 0.7730 0.7770 0.7770 0.7770 0.7750
2.417000 0.7750 0.7730 0.7720 0.7680 0.7680
2.450144 0.7670 0.7620 0.7600 0.7570 0.7550
2.484000 0.7530 0.7500 0.7480 0.7470 0.7470
2.517144 0.7480 0.7480 0.7500 0.7500 0.7520
2.550000 0.7520 0.7520 0.7520 0.7500 0.7480
2.583144 0.7330 0.7200 0.7180 0.7170 0.7130
2.616000 0.7130 0.7070 0.7020 0.6880 0.6680
2.649144 0.6530 0.6380 0.6270 0.6120 0.6000
2.682000 0.5690 0.5290 0.4900 0.4600 0.4320
2.715144 0.4190 0.3990 0.3870 0.3670 0.3310
2.749000 0.3010 0.2770 0.2570 0.2270 0.2070
2.782144 0.1840 0.1590 0.1180 0.0880 0.0660
2.815000 0.0530 0.0510 0.0490 0.0510 0.0540
2.848144 0.0710 0.0880 0.0890 0.0930 0.0930
2.881000 0.0930 0.0910 0.0890 0.0890 0.0890
2.914144 0.0910 0.0930 0.0990 0.1080 0.1130
2.947000 0.1240 0.1330 0.1360 0.1430 0.1440
2.980144 0.1460 0.1480 0.1490 0.1510 0.1530
3.014000 0.1540 0.1560 0.1560 0.1580 0.1590
3.047144 0.1590 0.1610 0.1630 0.1640 0.1640
3.080000 0.1660 0.1660 0.1660 0.1680 0.1680
3.113144 0.1680 0.1680 0.1690 0.1710 0.1730
3.146000 0.1730 0.1740 0.1740 0.1740 0.1740
3.179144 0.1760 0.1780 0.1790 0.1810 0.1830
3.212000 0.1830 0.1830 0.1840 0.1860 0.1890
3.245144 0.1960 0.2020 0.2090 0.2120 0.2190
3.279000 0.2220 0.2290 0.2340 0.2410 0.2420
3.312144 0.2440 0.2440 0.2420 0.2340 0.2190
3.345000 0.2090 0.1990 0.1790 0.1680 0.1590
3.378144 0.1490 0.1430 0.1360 0.1340 0.1340
3.411000 0.1360 0.1430 0.1510 0.1590 0.1690
3.444144 0.1880 0.1980 0.1990 0.2020 0.2090
3.478000 0.2090 0.2110 0.2120 0.2120 0.2140
3.511144 0.2270 0.2420 0.2690 0.2990 0.3370
3.544000 0.3570 0.3770 0.3990 0.4090 0.4170
3.577144 0.4250 0.4390 0.4490 0.4500 0.4600
3.610000 0.4750 0.4890 0.4920 0.5020 0.5170
3.643144 0.5240 0.5240 0.5300 0.5340 0.5400
3.676000 0.5490 0.5520 0.5620 0.5720 0.5820
3.709144 0.5890 0.5990 0.6000 0.6020 0.6050
3.743000 0.6130 0.6200 0.6280 0.6380 0.6430
3.776144 0.6520 0.6550 0.6600 0.6630 0.6680
3.809000 0.6730 0.6780 0.6800 0.6820 0.6830
3.842144 0.6830 0.6870 0.6930 0.7050 0.7100
3.875000 0.7100 0.7120 0.7120 0.7130 0.7150
3.908144 0.7200 0.7220 0.7230 0.7300 0.7350
3.941000 0.7370 0.7380 0.7400 0.7420 0.7500
3.974144 0.7580 0.7620 0.7630 0.7670 0.7680
4.008000 0.7700 0.7720 0.7720 0.7720 0.7700
4.041144 0.7700 0.7700 0.7700 0.7700 0.7720
4.074000 0.7720 0.7730 0.7750 0.7750 0.7750
4.107144 0.7750 0.7750 0.7750 0.7730 0.7730
4.140000 0.7730 0.7730 0.7730 0.7730 0.7730
4.173144 0.7730 0.7730 0.7730 0.7730 0.7730
4.206000 0.7730 0.7730 0.7730 0.7730 0.7700
4.239144 0.7650 0.7620 0.7580 0.7530 0.7480
4.273000 0.7470 0.7450 0.7450 0.7450 0.7450
4.306144 0.7450 0.7470 0.7480 0.7500 0.7520
4.339000 0.7530 0.7570 0.7580 0.7600 0.7620
4.372144 0.7630 0.7630 0.7680 0.7720 0.7730
4.405000 0.7750 0.7750 0.7750 0.7730 0.7720
4.438144 0.7700 0.7700 0.7680 0.7650 0.7630
4.471000 0.7630 0.7650 0.7700 0.7700 0.7720
4.504144 0.7720 0.7720 0.7700 0.7700 0.7700
4.538000 0.7700 0.7650 0.7620 0.7600 0.7550
4.571144 0.7550 0.7530 0.7520 0.7450 0.7450
4.604000 0.7430 0.7420 0.7420 0.7420 0.7420
4.637144 0.7400 0.7330 0.7320 0.7300 0.7300
4.670000 0.7320 0.7320 0.7330 0.7330 0.7330
4.703144 0.7320 0.7320 0.7320 0.7330 0.7330
4.736000 0.7350 0.7350 0.7350 0.7350 0.7350
4.769144 0.7350 0.7350 0.7350 0.7350 0.7350
4.803000 0.7320 0.7280 0.7280 0.7270 0.7270
4.836144 0.7270 0.7250 0.7230 0.7230 0.7230
4.869000 0.7230 0.7220 0.7220 0.7220 0.7220
4.902144 0.7200 0.7200 0.7200 0.7200 0.7220
4.935000 0.7250 0.7300 0.7330 0.7330 0.7350
4.968144 0.7370 0.7400 0.7430 0.7470 0.7550
5.001000 0.7630 0.7670 0.7700 0.7720 0.7720
5.034144 0.7720 0.7720 0.7720 0.7730 0.7750
5.068000 0.7750 0.7770 0.7780 0.7800 0.7820
5.101144 0.7830 0.7850 0.7920 0.8000 0.8030
5.134000 0.8130 0.8200 0.8310 0.8350 0.8410
5.167144 0.8430 0.8460 0.8500 0.8530 0.8600
5.200000 0.8660 0.8700 0.8710 0.8730 0.8730
5.233144 0.8730 0.8730 0.8730 0.8730 0.8750
5.266000 0.8760 0.8810 0.8830 0.8850 0.8850
5.299144 0.8850 0.8850 0.8850 0.8850 0.8850
5.333000 0.8850 0.8850 0.8850 0.8850 0.8850
5.366144 0.8850 0.8830 0.8830 0.8830 0.8810
5.399000 0.8800 0.8710 0.8660 0.8650 0.8610
5.432144 0.8580 0.8560 0.8560 0.8550 0.8550
5.465000 0.8530 0.8510 0.8480 0.8450 0.8400
5.498144 0.8330 0.8160 0.8130 0.8110 0.8060
5.531000 0.8030 0.8000 0.7980 0.7950 0.7880
5.564144 0.7830 0.7800 0.7780 0.7750 0.7730
5.598000 0.7720 0.7720 0.7720 0.7720 0.7720
5.631144 0.7720 0.7720 0.7700 0.7680 0.7680
5.664000 0.7680 0.7680 0.7670 0.7630 0.7600
5.697144 0.7530 0.7450 0.7400 0.7330 0.7300
5.730000 0.7230 0.7180 0.7120 0.7030 0.7030
5.763144 0.6980 0.6880 0.6750 0.6720 0.6700
5.796000 0.6630 0.6550 0.6500 0.6450 0.6370
5.829144 0.6180 0.6000 0.5990 0.5890 0.5840
5.863000 0.5820 0.5790 0.5700 0.5620 0.5500
5.896144 0.5420 0.5320 0.5220 0.5140 0.5020
5.929000 0.4900 0.4820 0.4740 0.4670 0.4620
5.962144 0.4520 0.4490 0.4420 0.4350 0.4290
5.995000 0.4250 0.4220 0.4190 0.4170 0.4140
6.028144 0.4120 0.4040 0.4020 0.3990 0.3910
6.062000 0.3810 0.3720 0.3570 0.3320 0.3070
6.095144 0.2790 0.2320 0.1980 0.1810 0.1790
6.128000 0.1790 0.1830 0.2290 0.2510 0.2690
6.161144 0.2770 0.3020 0.3340 0.3590 0.3720
6.194000 0.3990 0.4090 0.4170 0.4270 0.4340
6.227144 0.4490 0.4540 0.4620 0.4690 0.4790
6.260000 0.4840 0.4840 0.4870 0.4990 0.5040
6.293144 0.5090 0.5120 0.5150 0.5190 0.5200
6.327000 0.5220 0.5250 0.5320 0.5370 0.5420
6.360144 0.5450 0.5470 0.5490 0.5520 0.5550
6.393000 0.5570 0.5650 0.5690 0.5690 0.5690
6.426144 0.5690 0.5690 0.5690 0.5690 0.5700
6.459000 0.5740 0.5750 0.5820 0.5870 0.5870
6.492144 0.5870 0.5870 0.5840 0.5840 0.5840
6.525000 0.5840 0.5840 0.5820 0.5800 0.5800
6.558144 0.5750 0.5700 0.5670 0.5650 0.5650
6.592000 0.5650 0.5650 0.5670 0.5670 0.5670
6.625144 0.5690 0.5690 0.5690 0.5690 0.5720
6.658000 0.5750 0.5790 0.5800 0.5850 0.5900
6.691144 0.5950 0.5990 0.6000 0.6020 0.6020
6.724000 0.6000 0.5990 0.5920 0.5850 0.5770
6.757144 0.5650 0.5550 0.5400 0.5290 0.5150
6.790000 0.5000 0.4840 0.4820 0.4770 0.4700
6.823144 0.4620 0.4620 0.4600 0.4600 0.4600
6.857000 0.4620 0.4650 0.4700 0.4750 0.4820
6.890144 0.4940 0.5000 0.5040 0.5140 0.5220
6.923000 0.5320 0.5400 0.5520 0.5640 0.5800
6.956144 0.5990 0.6020 0.6120 0.6180 0.6280
6.989000 0.6380 0.6480 0.6530 0.6580 0.6630
7.022144 0.6680 0.6700 0.6720 0.6730 0.6730
7.055000 0.6750 0.6820 0.6850 0.6870 0.6920
7.088144 0.6930 0.6950 0.7000 0.7000 0.7020
7.122000 0.7020 0.7020 0.7030 0.7030 0.7050
7.155144 0.7070 0.7070 0.7050 0.7030 0.7020
7.188000 0.6970 0.6820 0.6700 0.6570 0.6420
7.221144 0.6330 0.6220 0.6100 0.5940 0.5900
7.254000 0.5800 0.5790 0.5800 0.5820 0.5900
7.287144 0.6020 0.6050 0.6180 0.6250 0.6300
7.320000 0.6330 0.6430 0.6500 0.6570 0.6650
7.353144 0.6700 0.6720 0.6730 0.6750 0.6770
7.387000 0.6780 0.6780 0.6820 0.6820 0.6820
7.420144 0.6830 0.6830 0.6830 0.6830 0.6830
7.453000 0.6830 0.6820 0.6820 0.6820 0.6800
7.486144 0.6800 0.6800 0.6800 0.6800 0.6800
7.519000 0.6800 0.6800 0.6800 0.6800 0.6820
7.552144 0.6820 0.6820 0.6820 0.6820 0.6820
7.585000 0.6820 0.6800 0.6800 0.6780 0.6770
7.618144 0.6730 0.6700 0.6630 0.6580 0.6570
7.652000 0.6570 0.6570 0.6570 0.6580 0.6580
7.685144 0.6580 0.6600 0.6600 0.6600 0.6600
7.718000 0.6600 0.6580 0.6570 0.6480 0.6400
7.751144 0.6400 0.6380 0.6370 0.6350 0.6350
7.784000 0.6330 0.6330 0.6300 0.6280 0.6280
7.817144 0.6270 0.6250 0.6200 0.6170 0.6170
7.850000 0.6150 0.6150 0.6130 0.6130 0.6120
7.883144 0.6120 0.6050 0.6030 0.6030 0.6020
7.917000 0.5970 0.5900 0.5890 0.5870 0.5850
7.950144 0.5840 0.5800 0.5800 0.5770 0.5770
7.983000 0.5750 0.5740 0.5700 0.5650 0.5590
8.016144 0.5590 0.5570 0.5550 0.5540 0.5540
8.049000 0.5520 0.5470 0.5350 0.5320 0.5300
8.082144 0.5250 0.5200 0.5140 0.5040 0.5000
8.115000 0.4920 0.4890 0.4840 0.4800 0.4790
8.148144 0.4750 0.4740 0.4700 0.4650 0.4620
8.182000 0.4600 0.4590 0.4350 0.4240 0.4140
8.215144 0.4140 0.4100 0.4100 0.4050 0.4020
8.248000 0.4000 0.3940 0.3910 0.3840 0.3790
8.281144 0.3720 0.3690 0.3670 0.3640 0.3560
8.314000 0.3540 0.3520 0.3460 0.3440 0.3420
8.347144 0.3410 0.3320 0.3220 0.3160 0.3140
8.381000 0.3120 0.3060 0.3020 0.2990 0.2910
8.414144 0.2840 0.2810 0.2740 0.2660 0.2590
8.447000 0.2490 0.2440 0.2390 0.2340 0.2270
8.480144 0.2190 0.2120 0.2040 0.2020 0.1940
8.513000 0.1840 0.1780 0.1710 0.1640 0.1540
8.546144 0.1530 0.1490 0.1490 0.1480 0.1480
8.579000 0.1460 0.1460 0.1390 0.1330 0.1260
8.612144 0.1190 0.1180 0.1180 0.1160 0.1140
8.646000 0.1140 0.1140 0.1140 0.1140 0.1140
8.679144 0.1140 0.1140 0.1140 0.1160 0.1230
8.712000 0.1280 0.1340 0.1440 0.1530 0.1610
8.745144 0.1660 0.1710 0.1740 0.1790 0.1860
8.778000 0.1890 0.1910 0.1990 0.2020 0.2040
8.811144 0.2070 0.2070 0.2070 0.2040 0.2040
8.844000 0.2020 0.2010 0.1990 0.1960 0.1930
8.877144 0.1910 0.1840 0.1830 0.1810 0.1760
8.911000 0.1740 0.1690 0.1590 0.1530 0.1440
8.944144 0.1390 0.1330 0.1310 0.1260 0.1210
8.977000 0.1160 0.1160 0.1110 0.1060 0.0990
9.010144 0.0980 0.0890 0.0880 0.0840 0.0830
9.043000 0.0830 0.0830 0.0830 0.0830 0.0830
9.076144 0.0830 0.0830 0.0830 0.0830 0.0830
9.109000 0.0830 0.0830 0.0830 0.0840 0.0840
9.142144 0.0840 0.0860 0.0860 0.0890 0.0910
9.176000 0.0910 0.0910 0.0910 0.0930 0.0930
9.209144 0.0940 0.0940 0.0960 0.0990 0.1010
9.242000 0.1030 0.1030 0.1080 0.1110 0.1110
9.275144 0.1130 0.1160 0.1190 0.1210 0.1230
9.308000 0.1240 0.1240 0.1260 0.1280 0.1310
9.341144 0.1340 0.1390 0.1440 0.1510 0.1530
9.374000 0.1540 0.1540 0.1580 0.1590 0.1640
9.407144 0.1730 0.1780 0.1790 0.1840 0.1880
9.441000 0.1910 0.1940 0.1960 0.1980 0.1980
9.474144 0.1990 0.2010 0.2020 0.2090 0.2140
9.507000 0.2170 0.2220 0.2290 0.2320 0.2390
9.540144 0.2440 0.2490 0.2520 0.2590 0.2640
9.573000 0.2660 0.2670 0.2690 0.2720 0.2760
9.606144 0.2810 0.2820 0.2840 0.2910 0.2920
9.639000 0.2970 0.2990 0.3020 0.3060 0.3120
9.672144 0.3170 0.3190 0.3240 0.3260 0.3290
9.706000 0.3310 0.3320 0.3340 0.3360 0.3390
9.739144 0.3440 0.3490 0.3520 0.3520 0.3510
9.772000 0.3510 0.3490 0.3460 0.3420 0.3410
9.805144 0.3410 0.3410 0.3420 0.3440 0.3440
9.838000 0.3470 0.3490 0.3490 0.3510 0.3520
9.871144 0.3540 0.3540 0.3590 0.3640 0.3660
9.904000 0.3690 0.3710 0.3740 0.3810 0.3820
9.937144 0.3840 0.3910 0.4000 0.4020 0.4050
9.971000 0.4070 0.4090 0.4090 0.4090 0.4090
10.004144 0.4100 0.4120 0.4140 0.4150 0.4150
10.037000 0.4150 0.4150 0.4140 0.4140 0.4140
10.070144 0.4090 0.4020 0.3940 0.3840 0.3740
10.103000 0.3590 0.3510 0.3440 0.3420 0.3410
10.136144 0.3410 0.3410 0.3410 0.3440 0.3520
10.169000 0.3590 0.3620 0.3740 0.3870 0.3910
10.202144 0.3990 0.4000 0.4020 0.4040 0.4070
10.236000 0.4120 0.4150 0.4220 0.4300 0.4340
10.269144 0.4390 0.4400 0.4420 0.4440 0.4450
10.302000 0.4470 0.4490 0.4500 0.4520 0.4540
10.335144 0.4570 0.4590 0.4600 0.4640 0.4650
10.368000 0.4650 0.4650 0.4650 0.4650 0.4670
10.401144 0.4700 0.4740 0.4750 0.4770 0.4790
10.434000 0.4800 0.4800 0.4800 0.4800 0.4820
10.467144 0.4820 0.4820 0.4820 0.4840 0.4840
10.501000 0.4840 0.4840 0.4850 0.4850 0.4850
10.534144 0.4850 0.4850 0.4850 0.4850 0.4850
10.567000 0.4850 0.4850 0.4850 0.4850 0.4850
10.600144 0.4850 0.4890 0.4920 0.4940 0.4950
10.633000 0.4970 0.4990 0.4990 0.4990 0.4990
10.666144 0.4990 0.4970 0.4950 0.4920 0.4900
10.699000 0.4900 0.4900 0.4890 0.4890 0.4850
10.732144 0.4840 0.4820 0.4800 0.4800 0.4790
10.766000 0.4770 0.4770 0.4770 0.4750 0.4750
10.799144 0.4740 0.4740 0.4740 0.4740 0.4750
10.832000 0.4750 0.4750 0.4750 0.4750 0.4740
10.865144 0.4670 0.4640 0.4620 0.4620 0.4640
10.898000 0.4640 0.4650 0.4650 0.4650 0.4650
10.931144 0.4650 0.4650 0.4650 0.4650 0.4650
10.965000 0.4640 0.4620 0.4620 0.4590 0.4570
10.998144 0.4570 0.4550 0.4520 0.4490 0.4470
11.031000 0.4450 0.4450 0.4440 0.4420 0.4390
11.064144 0.4370 0.4370 0.4370 0.4370 0.4370
11.097000 0.4350 0.4350 0.4320 0.4300 0.4290
11.130144 0.4270 0.4250 0.4250 0.4250 0.4250
11.163000 0.4250 0.4240 0.4220 0.4200 0.4190
11.196144 0.4190 0.4150 0.4140 0.4120 0.4100
11.230000 0.4100 0.4090 0.4090 0.4050 0.4040
11.263144 0.4040 0.4020 0.3990 0.3970 0.3940
11.296000 0.3920 0.3920 0.3920 0.3920 0.3920
11.329144 0.3920 0.3920 0.3920 0.3920 0.3920
11.362000 0.3910 0.3910 0.3890 0.3860 0.3860
11.395144 0.3840 0.3840 0.3820 0.3820 0.3820
11.428000 0.3820 0.3820 0.3820 0.3820 0.3810
11.461144 0.3810 0.3810 0.3810 0.3810 0.3810
11.495000 0.3810 0.3790 0.3790 0.3790 0.3790
11.528144 0.3760 0.3740 0.3710 0.3690 0.3670
11.561000 0.3660 0.3660 0.3660 0.3640 0.3640
11.594144 0.3640 0.3660 0.3660 0.3660 0.3660
11.627000 0.3660 0.3660 0.3640 0.3640 0.3640
11.660144 0.3640 0.3640 0.3640 0.3660 0.3660
11.693000 0.3660 0.3660 0.3660 0.3660 0.3660
11.726144 0.3660 0.3660 0.3660 0.3660 0.3660
11.760000 0.3670 0.3690 0.3710 0.3710 0.3710
11.793144 0.3710 0.3710 0.3710 0.3690 0.3670
11.826000 0.3670 0.3660 0.3660 0.3660 0.3670
11.859144 0.3670 0.3710 0.3710 0.3710 0.3720
11.892000 0.3720 0.3740 0.3740 0.3740 0.3740
11.925144 0.3740 0.3740 0.3740 0.3740 0.3720
11.958000 0.3720 0.3720 0.3710 0.3690 0.3690
11.991144 0.3710 0.3720 0.3740 0.3760 0.3760
12.025000 0.3760 0.3760 0.3760 0.3760 0.3760
12.058144 0.3770 0.3810 0.3860 0.3910 0.3920
12.091000 0.3940 0.3960 0.3970 0.3970 0.3970
12.124144 0.3990 0.3990 0.3990 0.4000 0.4000
12.157000 0.4020 0.4020 0.4020 0.4020 0.4020
12.190144 0.4020 0.4020 0.4020 0.4020 0.4040
12.223000 0.4040 0.4040 0.4050 0.4050 0.4090
12.256144 0.4100 0.4100 0.4100 0.4120 0.4120
12.290000 0.4120 0.4120 0.4120 0.4120 0.4120
12.323144 0.4120 0.4120 0.4120 0.4120 0.4120
12.356000 0.4120 0.4120 0.4140 0.4140 0.4140
12.389144 0.4140 0.4140 0.4140 0.4140 0.4150
12.422000 0.4150 0.4150 0.4150 0.4150 0.4150
12.455144 0.4170 0.4200 0.4220 0.4220 0.4240
12.488000 0.4240 0.4240 0.4220 0.4220 0.4200
12.521144 0.4200 0.4200 0.4190 0.4190 0.4190
12.555000 0.4200 0.4200 0.4220 0.4220 0.4240
12.588144 0.4240 0.4240 0.4240 0.4240 0.4240
12.621000 0.4240 0.4240 0.4250 0.4250 0.4290
12.654144 0.4290 0.4270 0.4270 0.4270 0.4270
12.687000 0.4270 0.4270 0.4270 0.4270 0.4270
12.720144 0.4250 0.4250 0.4240 0.4240 0.4250
12.753000 0.4250 0.4250 0.4220 0.4220 0.4200
12.786144 0.4200 0.4200 0.4200 0.4200 0.4200
12.820000 0.4200 0.4200 0.4200 0.4200 0.4220
12.853144 0.4240 0.4240 0.4250 0.4250 0.4270
12.886000 0.4250 0.4250 0.4240 0.4240 0.4220
12.919144 0.4220 0.4220 0.4220 0.4220 0.4220
12.952000 0.4220 0.4220 0.4220 0.4200 0.4200
12.985144 0.4200 0.4190 0.4190 0.4190 0.4150
13.018000 0.4120 0.4100 0.4090 0.4070 0.4070
13.051144 0.4050 0.4050 0.4040 0.4040 0.4020
13.085000 0.4020 0.4020 0.4020 0.4020 0.4020
13.118144 0.4020 0.4000 0.4000 0.4000 0.4000
13.151000 0.4000 0.4000 0.4000 0.4000 0.4000
13.184144 0.4000 0.3990 0.3990 0.3990 0.3970
13.217000 0.3970 0.3970 0.3960 0.3960 0.3940
13.250144 0.3940 0.3920 0.3920 0.3920 0.3920
13.283000 0.3920 0.3920 0.3920 0.3920 0.3910
13.316144 0.3910 0.3890 0.3840 0.3820 0.3820
13.350000 0.3820 0.3840 0.3840 0.3840 0.3840
13.383144 0.3840 0.3840 0.3840 0.3840 0.3840
13.416000 0.3840 0.3840 0.3840 0.3820 0.3820
13.449144 0.3810 0.3810 0.3790 0.3790 0.3790
13.482000 0.3790 0.3760 0.3740 0.3740 0.3740
13.515144 0.3740 0.3740 0.3740 0.3740 0.3720
13.549000 0.3720 0.3720 0.3720 0.3710 0.3710
13.582144 0.3710 0.3710 0.3710 0.3720 0.3720
13.615000 0.3710 0.3710 0.3710 0.3710 0.3710
13.648144 0.3660 0.3620 0.3620 0.3620 0.3620
13.681000 0.3640 0.3660 0.3670 0.3690 0.3690
13.714144 0.3690 0.3670 0.3660 0.3640 0.3640
13.747000 0.3640 0.3640 0.3640 0.3620 0.3610
13.780144 0.3610 0.3610 0.3610 0.3610 0.3640
13.814000 0.3640 0.3640 0.3660 0.3670 0.3670
13.847144 0.3690 0.3690 0.3690 0.3690 0.3690
13.880000 0.3690 0.3690 0.3690 0.3710 0.3720
13.913144 0.3720 0.3720 0.3740 0.3740 0.3740
13.946000 0.3740 0.3740 0.3740 0.3740 0.3740
13.979144 0.3720 0.3720 0.3720 0.3710 0.3720
14.012000 0.3720 0.3720 0.3720 0.3720 0.3720
14.045144 0.3720 0.3720 0.3720 0.3740 0.3740
14.079000 0.3740 0.3740 0.3740 0.3740 0.3720
14.112144 0.3710 0.3710 0.3710 0.3710 0.3710
14.145000 0.3710 0.3710 0.3710 0.3710 0.3710
14.178144 0.3710 0.3710 0.3710 0.3720 0.3740
14.211000 0.3740 0.3740 0.3740 0.3740 0.3740
14.244144 0.3760 0.3760 0.3760 0.3760 0.3760
14.277000 0.3770 0.3790 0.3810 0.3810 0.3810
14.310144 0.3810 0.3810 0.3810 0.3810 0.3810
14.344000 0.3810 0.3820 0.3820 0.3820 0.3840
14.377144 0.3840 0.3840 0.3840 0.3840 0.3820
14.410000 0.3820 0.3820 0.3820 0.3820 0.3820
14.443144 0.3820 0.3820 0.3840 0.3860 0.3910
14.476000 0.3920 0.3920 0.3940 0.3940 0.3940
14.509144 0.3920 0.3920 0.3920 0.3910 0.3910
14.542000 0.3910 0.3910 0.3910 0.3920 0.3920
14.575144 0.3920 0.3940 0.3940 0.3940 0.3940
14.609000 0.3940 0.3960 0.3960 0.3960 0.3960
14.642144 0.3960 0.3960 0.3960 0.3960 0.3970
14.675000 0.3970 0.3970 0.3990 0.3990 0.3990
14.708144 0.3990 0.3990 0.3990 0.3990 0.3990
14.741000 0.3990 0.4000 0.4000 0.4000 0.4020
14.774144 0.4040 0.4040 0.4050 0.4050 0.4050
14.807000 0.4050 0.4050 0.4050 0.4040 0.4040
14.840144 0.4000 0.3990 0.3990 0.3970 0.3970
14.874000 0.3970 0.3990 0.3990 0.3990 0.3990
14.907144 0.4000 0.4000 0.4020 0.4020 0.4020
14.940000 0.4020 0.4020 0.4020 0.4020 0.4020
14.973144 0.4020 0.4020 0.4020 0.4040 0.4040
15.006000 0.4040 0.4040 0.4070 0.4070 0.4090
15.039144 0.4120 0.4140 0.4140 0.4140 0.4150
15.072000 0.4150 0.4140 0.4050 0.4000 0.3960
15.105144 0.3920 0.3910 0.3870 0.3860 0.3860
15.139000 0.3860 0.3840 0.3840 0.3840 0.3840
15.172144 0.3840 0.3840 0.3840 0.3840 0.3860
15.205000 0.3860 0.3860 0.3890 0.3910 0.3920
15.238144 0.3940 0.3940 0.3940 0.3960 0.4000
15.271000 0.4020 0.4040 0.4040 0.4040 0.4040
15.304144 0.4040 0.4040 0.4040 0.4020 0.4020
15.337000 0.4020 0.4020 0.4040 0.4040 0.4020
15.370144 0.4020 0.4020 0.4020 0.4020 0.4020
15.404000 0.4040 0.4090 0.4090 0.4090 0.4090
15.437144 0.4100 0.4100 0.4120 0.4120 0.4120
15.470000 0.4120 0.4120 0.4140 0.4140 0.4140
15.503144 0.4120 0.4120 0.4120 0.4100 0.4100
15.536000 0.4100 0.4100 0.4120 0.4120 0.4140
15.569144 0.4140 0.4140 0.4140 0.4140 0.4150
15.602000 0.4150 0.4150 0.4150 0.4150 0.4150
15.635144 0.4150 0.4150 0.4150 0.4170 0.4170
15.669000 0.4170 0.4190 0.4220 0.4240 0.4240
15.702144 0.4240 0.4240 0.4240 0.4240 0.4240
15.735000 0.4240 0.4250 0.4250 0.4270 0.4270
15.768144 0.4270 0.4270 0.4270 0.4270 0.4270
15.801000 0.4270 0.4270 0.4290 0.4290 0.4290
15.834144 0.4300 0.4320 0.4340 0.4350 0.4370
15.867000 0.4390 0.4390 0.4390 0.4390 0.4370
15.900144 0.4350 0.4350 0.4340 0.4340 0.4340
15.934000 0.4340 0.4340 0.4340 0.4340 0.4350
15.967144 0.4350 0.4390 0.4400 0.4720 0.4720
16.000000 0.4640
##END=
