##TITLE=2-ISOBUTYLBENZOXAZONE-4
##JCAMP-DX=4.24
##DATA TYPE=INFRARED SPECTRUM
##CLASS=COBLENTZ
##OWNER=COBLENTZ SOCIETY
Collection (C) 2018 copyright by the U.S. Secretary of Commerce
on behalf of the United States of America. All rights reserved.
##DATE=Not specified, most likely prior to 1970
##NAMES=2-isobutyl-2,3-dihydro-4H-1,3-benzoxazin-4-one
##MOLFORM=C12 H15 N O2
##SOURCE REFERENCE=COBLENTZ NO. 36
##$NIST ID=B6000036
##$NIST SOURCE=COBLENTZ
##$NIST IMAGE=cob36
##SPECTROMETER/DATA SYSTEM=Not specified, most likely a prism, grating, or hybrid spectrometer.
##STATE=SOLUTION (7% CHCl3)
##PATH LENGTH=0.009 CM
##SAMPLING PROCEDURE=TRANSMISSION
##RESOLUTION=4
##DATA PROCESSING=DIGITIZED BY NIST FROM HARD COPY
##XUNITS=MICROMETERS
##YUNITS=TRANSMITTANCE
##XFACTOR=1.000000
##YFACTOR=1
##DELTAX=000.007149
##FIRSTX=2.042
##LASTX=15.4754
##FIRSTY=0.98
##MAXX=15.4754
##MINX=2.042
##MAXY=1.012
##MINY=0.014
##NPOINTS=1880
##XYDATA=(X++(Y..Y))
2.042000 0.9800 0.9800 0.9800 0.9780 0.9780
2.077765 0.9780 0.9750 0.9750 0.9750 0.9750
2.113000 0.9730 0.9730 0.9730 0.9730 0.9730
2.148765 0.9730 0.9730 0.9730 0.9710 0.9700
2.185000 0.9680 0.9680 0.9680 0.9660 0.9660
2.220765 0.9680 0.9680 0.9680 0.9680 0.9680
2.256000 0.9680 0.9660 0.9660 0.9640 0.9640
2.291765 0.9620 0.9620 0.9620 0.9610 0.9590
2.328000 0.9540 0.9540 0.9540 0.9540 0.9540
2.363765 0.9540 0.9540 0.9540 0.9540 0.9540
2.399000 0.9540 0.9680 0.9680 0.9540 0.9520
2.434765 0.9500 0.9500 0.9520 0.9520 0.9520
2.471000 0.9520 0.9520 0.9520 0.9520 0.9520
2.506765 0.9520 0.9520 0.9550 0.9540 0.9540
2.542000 0.9550 0.9550 0.9540 0.9540 0.9540
2.577765 0.9540 0.9550 0.9570 0.9570 0.9550
2.614000 0.9540 0.9540 0.9540 0.9540 0.9540
2.649765 0.9520 0.9520 0.9500 0.9480 0.9520
2.685000 0.9520 0.9540 0.9540 0.9540 0.9540
2.720765 0.9540 0.9540 0.9520 0.9520 0.9520
2.757000 0.9480 0.9520 0.9610 0.9680 0.9780
2.792765 0.9780 0.9570 0.9480 0.9450 0.9410
2.828000 0.9380 0.9320 0.9290 0.9240 0.9200
2.863765 0.9170 0.9130 0.9020 0.9010 0.8990
2.900000 0.8920 0.8340 0.8050 0.7760 0.7010
2.935765 0.7000 0.7010 0.7330 0.7700 0.7930
2.971000 0.8280 0.8280 0.8300 0.8270 0.8230
3.006765 0.8140 0.8070 0.8020 0.8000 0.7930
3.043000 0.7860 0.7790 0.7720 0.7600 0.7490
3.078765 0.7050 0.6800 0.6630 0.6500 0.6200
3.114000 0.6030 0.6010 0.5990 0.5940 0.5940
3.149765 0.6130 0.6290 0.6560 0.6710 0.6820
3.186000 0.6860 0.6960 0.7100 0.7070 0.7000
3.221765 0.6960 0.6890 0.6770 0.6700 0.6750
3.257000 0.6770 0.6800 0.6910 0.7000 0.7030
3.292765 0.7100 0.7140 0.7080 0.6080 0.5960
3.329000 0.5830 0.5820 0.5480 0.4510 0.4230
3.364765 0.3930 0.3910 0.3890 0.3890 0.3930
3.400000 0.3960 0.4740 0.5180 0.5370 0.5520
3.435765 0.5660 0.5820 0.5900 0.5990 0.5990
3.472000 0.5870 0.5870 0.6150 0.6500 0.6700
3.507765 0.7030 0.7240 0.7490 0.7790 0.8050
3.543000 0.8160 0.8200 0.8250 0.8320 0.8410
3.578765 0.8480 0.8530 0.8600 0.8650 0.8690
3.615000 0.8740 0.8760 0.8780 0.8810 0.8850
3.650765 0.8850 0.8870 0.8870 0.8870 0.8880
3.686000 0.8880 0.8900 0.8920 0.8940 0.8970
3.721765 0.8990 0.9010 0.9020 0.9020 0.9040
3.758000 0.9060 0.9080 0.9100 0.9110 0.9110
3.793765 0.9130 0.9170 0.9170 0.9130 0.9130
3.829000 0.9110 0.9100 0.9100 0.9130 0.9130
3.864765 0.9150 0.9150 0.9150 0.9150 0.9150
3.901000 0.9150 0.9170 0.9170 0.9170 0.9170
3.936765 0.9170 0.9170 0.9170 0.9110 0.9080
3.972000 0.9040 0.9020 0.9060 0.9080 0.9100
4.007765 0.9100 0.9130 0.9130 0.9130 0.9110
4.044000 0.9060 0.9080 0.9100 0.9110 0.9130
4.079765 0.9110 0.9110 0.9100 0.9100 0.9100
4.115000 0.9100 0.9110 0.9110 0.9130 0.9170
4.150765 0.9200 0.9240 0.9250 0.9310 0.9340
4.187000 0.9360 0.9380 0.9400 0.9410 0.9400
4.222765 0.9400 0.9400 0.9380 0.9400 0.9400
4.258000 0.9400 0.9400 0.9400 0.9380 0.9380
4.293765 0.9380 0.9400 0.9400 0.9380 0.9380
4.330000 0.9360 0.9340 0.9310 0.9250 0.9250
4.365765 0.9240 0.9240 0.9240 0.9240 0.9240
4.401000 0.9240 0.9240 0.9270 0.9290 0.9310
4.436765 0.9310 0.9340 0.9340 0.9360 0.9360
4.473000 0.9360 0.9340 0.9320 0.9310 0.9290
4.508765 0.9270 0.9250 0.9250 0.9250 0.9250
4.544000 0.9250 0.9250 0.9250 0.9250 0.9270
4.579765 0.9290 0.9290 0.9270 0.9270 0.9290
4.616000 0.9290 0.9290 0.9290 0.9270 0.9270
4.651765 0.9290 0.9290 0.9290 0.9290 0.9290
4.687000 0.9270 0.9270 0.9290 0.9290 0.9270
4.722765 0.9250 0.9240 0.9240 0.9240 0.9240
4.759000 0.9240 0.9240 0.9240 0.9240 0.9240
4.794765 0.9240 0.9250 0.9250 0.9240 0.9240
4.830000 0.9240 0.9240 0.9240 0.9240 0.9240
4.865765 0.9240 0.9240 0.9240 0.9220 0.9220
4.902000 0.9240 0.9240 0.9240 0.9240 0.9240
4.937765 0.9250 0.9250 0.9250 0.9250 0.9250
4.973000 0.9270 0.9270 0.9270 0.9270 0.9250
5.008765 0.9270 0.9250 0.9250 0.9250 0.9240
5.045000 0.9240 0.9220 0.9200 0.9200 0.9200
5.080765 0.9200 0.9170 0.9130 0.9110 0.9100
5.116000 0.9040 0.9040 0.9080 0.9080 0.9100
5.151765 0.9100 0.9100 0.9080 0.9080 0.9060
5.188000 0.9060 0.9010 0.9010 0.9020 0.9100
5.223765 0.9110 0.9130 0.9130 0.9130 0.9130
5.259000 0.9130 0.9130 0.9110 0.9130 0.9150
5.294765 0.9150 0.9150 0.9150 0.9150 0.9150
5.331000 0.9130 0.9130 0.9130 0.9110 0.9110
5.366765 0.9110 0.9110 0.9110 0.9110 0.9110
5.402000 0.9130 0.9150 0.9150 0.9130 0.9110
5.437765 0.9100 0.9100 0.9100 0.9080 0.9080
5.474000 0.9080 0.9040 0.9010 0.8990 0.8990
5.509765 0.8990 0.8970 0.8990 0.8990 0.9010
5.545000 0.9010 0.9040 0.9130 0.9150 0.9150
5.580765 0.9130 0.9110 0.9110 0.9110 0.9100
5.617000 0.9080 0.9080 0.9100 0.9080 0.9080
5.652765 0.9080 0.9060 0.9040 0.9040 0.9020
5.688000 0.9010 0.9010 0.8990 0.8990 0.8990
5.723765 0.8970 0.8920 0.8850 0.8810 0.8780
5.760000 0.8730 0.8710 0.8650 0.8580 0.8440
5.795765 0.8300 0.8130 0.8000 0.8000 0.7980
5.831000 0.7970 0.7680 0.6890 0.6220 0.5990
5.866765 0.5740 0.5250 0.4600 0.4170 0.3770
5.903000 0.3360 0.2570 0.1760 0.1020 0.0720
5.938765 0.0510 0.0450 0.0350 0.0240 0.0140
5.974000 0.0140 0.0210 0.0220 0.0310 0.0610
6.009765 0.1020 0.1480 0.2910 0.3170 0.3430
6.046000 0.3700 0.3890 0.4510 0.4830 0.5040
6.081765 0.5520 0.5820 0.6200 0.6310 0.6470
6.117000 0.6540 0.6470 0.6360 0.6100 0.5940
6.152765 0.5760 0.5060 0.4260 0.4070 0.3880
6.189000 0.3200 0.2610 0.2340 0.2340 0.3490
6.224765 0.3820 0.4810 0.5290 0.5800 0.6820
6.260000 0.7210 0.7490 0.7740 0.7810 0.7740
6.295765 0.7190 0.6980 0.6610 0.6610 0.6750
6.332000 0.6930 0.7080 0.7310 0.7580 0.7810
6.367765 0.7950 0.8140 0.8230 0.8270 0.8340
6.403000 0.8440 0.8480 0.8530 0.8570 0.8580
6.438765 0.8580 0.8620 0.8640 0.8690 0.8710
6.475000 0.8800 0.8830 0.8850 0.8870 0.8880
6.510765 0.8870 0.8880 0.8880 0.8900 0.8920
6.546000 0.8920 0.8920 0.8920 0.8900 0.8880
6.581765 0.8870 0.8800 0.8740 0.8620 0.8530
6.618000 0.8480 0.8480 0.8440 0.8410 0.8390
6.653765 0.8210 0.8090 0.7970 0.7790 0.7680
6.689000 0.7610 0.7420 0.7000 0.6860 0.6790
6.724765 0.6260 0.5710 0.5290 0.4600 0.4170
6.761000 0.3860 0.3520 0.2750 0.2480 0.2220
6.796765 0.2060 0.1880 0.1530 0.1230 0.1110
6.832000 0.0720 0.0720 0.1410 0.2590 0.3060
6.867765 0.3170 0.3310 0.3520 0.3790 0.4320
6.903000 0.4400 0.4460 0.4390 0.4210 0.4020
6.938765 0.4000 0.3960 0.3790 0.3700 0.3700
6.975000 0.3800 0.3800 0.4350 0.4650 0.4900
7.010765 0.5220 0.5970 0.6200 0.6360 0.6700
7.046000 0.6980 0.7030 0.7120 0.7160 0.7190
7.081765 0.7160 0.7120 0.7030 0.6790 0.6570
7.118000 0.6200 0.6130 0.6060 0.5990 0.5360
7.153765 0.5180 0.5090 0.4550 0.4190 0.4070
7.189000 0.3960 0.3840 0.3290 0.3290 0.3630
7.224765 0.3790 0.3840 0.3860 0.4190 0.4510
7.261000 0.4630 0.5160 0.5180 0.5300 0.5460
7.296765 0.5570 0.5570 0.5550 0.5370 0.5550
7.332000 0.5640 0.5870 0.6190 0.6260 0.6360
7.367765 0.6360 0.6270 0.6080 0.6030 0.5960
7.404000 0.5500 0.4790 0.4390 0.4030 0.3880
7.439765 0.3700 0.3120 0.2750 0.2480 0.2150
7.475000 0.2090 0.2020 0.2320 0.2530 0.2780
7.510765 0.3170 0.3650 0.4460 0.4970 0.5140
7.547000 0.5480 0.5600 0.5730 0.5830 0.6110
7.582765 0.6340 0.6500 0.6540 0.6570 0.6710
7.618000 0.6730 0.6730 0.6700 0.6630 0.6520
7.653765 0.6500 0.6490 0.6610 0.6680 0.6820
7.690000 0.7030 0.7310 0.7420 0.7510 0.7650
7.725765 0.7810 0.7950 0.7970 0.7970 0.7980
7.761000 0.8040 0.8110 0.8130 0.8130 0.8130
7.796765 0.8130 0.8110 0.8090 0.8090 0.8130
7.833000 0.8140 0.8160 0.8180 0.8200 0.8200
7.868765 0.8200 0.8200 0.8160 0.8070 0.8040
7.904000 0.8020 0.7980 0.7810 0.7560 0.7470
7.939765 0.7440 0.7400 0.7440 0.7470 0.7470
7.976000 0.7540 0.7600 0.7650 0.7700 0.7740
8.011765 0.7740 0.7760 0.7760 0.7720 0.7630
8.047000 0.7580 0.7400 0.7010 0.6940 0.6750
8.082765 0.6640 0.6470 0.6150 0.6060 0.5970
8.119000 0.5690 0.5480 0.5200 0.5110 0.5070
8.154765 0.5000 0.5000 0.5000 0.5070 0.5130
8.190000 0.5180 0.5200 0.5250 0.5300 0.5340
8.225765 0.5370 0.5430 0.5440 0.5480 0.5530
8.262000 0.5590 0.5600 0.5660 0.5740 0.5800
8.297765 0.5830 0.5890 0.5970 0.6450 0.6730
8.333000 0.7070 0.7370 0.7740 0.8270 0.8460
8.368765 0.8650 0.8880 0.8900 0.8920 0.8940
8.405000 0.8940 0.8940 0.8940 0.8940 0.8940
8.440765 0.8940 0.8940 0.8940 0.8920 0.8870
8.476000 0.8850 0.8810 0.8740 0.8650 0.8580
8.511765 0.8510 0.8430 0.8270 0.8160 0.8000
8.548000 0.7970 0.7910 0.7860 0.7840 0.7840
8.583765 0.7840 0.7830 0.7810 0.7600 0.7310
8.619000 0.7070 0.6960 0.6730 0.6730 0.6710
8.654765 0.6710 0.6700 0.6700 0.6700 0.6680
8.691000 0.6570 0.6270 0.6060 0.5780 0.5500
8.726765 0.5200 0.5060 0.4770 0.4700 0.4510
8.762000 0.4510 0.4690 0.4920 0.5130 0.5300
8.797765 0.5500 0.5780 0.6710 0.6800 0.7000
8.834000 0.7030 0.7080 0.7230 0.7440 0.7560
8.869765 0.7610 0.7770 0.7840 0.7950 0.7970
8.905000 0.8130 0.8160 0.8210 0.8270 0.8320
8.940765 0.8350 0.8390 0.8410 0.8430 0.8440
8.977000 0.8440 0.8430 0.8410 0.8350 0.8300
9.012765 0.8230 0.8200 0.8140 0.8050 0.8020
9.048000 0.7980 0.7950 0.7810 0.7720 0.7650
9.083765 0.7530 0.7400 0.7300 0.7260 0.7230
9.120000 0.7190 0.7160 0.7160 0.7140 0.7160
9.155765 0.7160 0.7160 0.7190 0.7210 0.7230
9.191000 0.7240 0.7260 0.7260 0.7230 0.7160
9.226765 0.7100 0.7030 0.7010 0.6980 0.6940
9.263000 0.6940 0.6960 0.6960 0.6980 0.7000
9.298765 0.7050 0.7080 0.7160 0.7190 0.7240
9.334000 0.7280 0.7300 0.7370 0.7420 0.7460
9.369765 0.7490 0.7490 0.7510 0.7530 0.7560
9.406000 0.7630 0.7680 0.7790 0.7840 0.7900
9.441765 0.7930 0.7970 0.8110 0.8140 0.8180
9.477000 0.8230 0.8270 0.8320 0.8340 0.8340
9.512765 0.8340 0.8320 0.8300 0.8280 0.8250
9.549000 0.8210 0.8180 0.8160 0.8050 0.8020
9.584765 0.7970 0.7900 0.7790 0.7580 0.7460
9.620000 0.7370 0.7280 0.7230 0.7140 0.7080
9.655765 0.7000 0.6980 0.7070 0.7080 0.7140
9.692000 0.7230 0.7330 0.7370 0.7420 0.7440
9.727765 0.7460 0.7420 0.7370 0.7350 0.7280
9.763000 0.7240 0.7310 0.7440 0.7650 0.7830
9.798765 0.8180 0.8300 0.8410 0.8430 0.8460
9.835000 0.8500 0.8570 0.8580 0.8640 0.8670
9.870765 0.8730 0.8760 0.8780 0.8800 0.8800
9.906000 0.8800 0.8810 0.8830 0.8850 0.8850
9.941765 0.8850 0.8850 0.8850 0.8850 0.8850
9.978000 0.8830 0.8830 0.8810 0.8810 0.8800
10.013765 0.8800 0.8800 0.8780 0.8760 0.8730
10.049000 0.8690 0.8650 0.8580 0.8530 0.8440
10.084765 0.8350 0.8280 0.8140 0.8000 0.7860
10.121000 0.7720 0.7490 0.7300 0.7160 0.7070
10.156765 0.7000 0.6940 0.6840 0.6790 0.6730
10.192000 0.6680 0.6630 0.6590 0.6540 0.6520
10.227765 0.6500 0.6490 0.6470 0.6500 0.6520
10.264000 0.6570 0.6660 0.6890 0.7010 0.7120
10.299765 0.7260 0.7350 0.7460 0.7630 0.7790
10.335000 0.7860 0.7930 0.8090 0.8110 0.8110
10.370765 0.8130 0.8130 0.8130 0.8110 0.8110
10.407000 0.8000 0.8000 0.7980 0.7790 0.7700
10.442765 0.7610 0.7440 0.7310 0.7070 0.7030
10.478000 0.6960 0.6940 0.6940 0.6960 0.6960
10.513765 0.7120 0.7230 0.7400 0.7460 0.7700
10.550000 0.7900 0.7970 0.8110 0.8140 0.8230
10.585765 0.8300 0.8320 0.8460 0.8480 0.8500
10.621000 0.8510 0.8530 0.8600 0.8620 0.8690
10.656765 0.8730 0.8760 0.8780 0.8900 0.8900
10.693000 0.8920 0.8920 0.8940 0.8950 0.8990
10.728765 0.9020 0.9080 0.9100 0.9100 0.9100
10.764000 0.9080 0.9060 0.9040 0.9010 0.8970
10.799765 0.8920 0.8870 0.8800 0.8760 0.8740
10.836000 0.8730 0.8690 0.8690 0.8710 0.8710
10.871765 0.8730 0.8740 0.8740 0.8760 0.8760
10.907000 0.8780 0.8800 0.8800 0.8800 0.8780
10.942765 0.8760 0.8780 0.8810 0.8880 0.8900
10.979000 0.8920 0.8920 0.8920 0.8920 0.8920
11.014765 0.8920 0.8920 0.8920 0.8920 0.8920
11.050000 0.8920 0.8920 0.8920 0.8900 0.8900
11.085765 0.8900 0.8900 0.8900 0.8900 0.8900
11.122000 0.8900 0.8880 0.8870 0.8870 0.8830
11.157765 0.8810 0.8800 0.8780 0.8760 0.8740
11.193000 0.8730 0.8690 0.8640 0.8570 0.8500
11.228765 0.8460 0.8410 0.8270 0.8110 0.8040
11.265000 0.8020 0.7980 0.7930 0.7790 0.7670
11.300765 0.7540 0.7440 0.7170 0.7050 0.6910
11.336000 0.6750 0.6660 0.6570 0.6560 0.6570
11.371765 0.6680 0.6710 0.6860 0.7030 0.7260
11.408000 0.7490 0.7600 0.7680 0.7840 0.7900
11.443765 0.7950 0.7980 0.8020 0.8090 0.8090
11.479000 0.8040 0.7970 0.7930 0.7910 0.7900
11.514765 0.7910 0.7930 0.7930 0.7950 0.7980
11.550000 0.8140 0.8210 0.8250 0.8280 0.8340
11.585765 0.8370 0.8410 0.8440 0.8440 0.8460
11.622000 0.8460 0.8480 0.8500 0.8510 0.8510
11.657765 0.8500 0.8500 0.8480 0.8480 0.8460
11.693000 0.8460 0.8440 0.8440 0.8440 0.8440
11.728765 0.8440 0.8440 0.8440 0.8440 0.8440
11.765000 0.8440 0.8440 0.8440 0.8440 0.8440
11.800765 0.8460 0.8460 0.8480 0.8480 0.8480
11.836000 0.8500 0.8500 0.8500 0.8500 0.8500
11.871765 0.8500 0.8500 0.8500 0.8500 0.8500
11.908000 0.8480 0.8480 0.8440 0.8430 0.8390
11.943765 0.8340 0.8300 0.8270 0.8200 0.8130
11.979000 0.8070 0.8050 0.8020 0.8000 0.7980
12.014765 0.7970 0.7840 0.7760 0.7720 0.7630
12.051000 0.7630 0.7610 0.7630 0.7630 0.7650
12.086765 0.7680 0.7700 0.7720 0.7790 0.7880
12.122000 0.7900 0.7930 0.8040 0.8050 0.8090
12.157765 0.8130 0.8130 0.8160 0.8200 0.8270
12.194000 0.8300 0.8340 0.8350 0.8390 0.8410
12.229765 0.8430 0.8440 0.8460 0.8480 0.8510
12.265000 0.8570 0.8580 0.8600 0.8620 0.8650
12.300765 0.8730 0.8760 0.8760 0.8780 0.8800
12.337000 0.8800 0.8810 0.8810 0.8810 0.8850
12.372765 0.8880 0.8920 0.8940 0.8970 0.8990
12.408000 0.9010 0.9010 0.9020 0.9020 0.9040
12.443765 0.9060 0.9060 0.9100 0.9110 0.9150
12.480000 0.9180 0.9220 0.9240 0.9250 0.9290
12.515765 0.9310 0.9380 0.9400 0.9410 0.9430
12.551000 0.9450 0.9470 0.9480 0.9520 0.9550
12.586765 0.9590 0.9680 0.9700 0.9730 0.9750
12.623000 0.9770 0.9770 0.9780 0.9800 0.9800
12.658765 0.9820 0.9870 0.9890 0.9910 0.9910
12.694000 0.9940 0.9960 0.9980 0.9980 0.9980
12.729765 1.0010 1.0010 1.0030 1.0050 1.0050
12.766000 1.0070 1.0070 1.0080 1.0080 1.0100
12.801765 1.0100 1.0100 1.0120 1.0120 1.0120
12.837000 1.0120 1.0120 1.0120 1.0120 1.0120
12.872765 1.0120 1.0120 1.0120 1.0120 1.0120
12.909000 1.0120 1.0120 1.0120 1.0120 1.0120
12.944765 1.0120 1.0120 1.0120 1.0120 1.0120
12.980000 1.0120 1.0120 1.0100 1.0100 1.0100
13.015765 1.0100 1.0100 1.0100 1.0100 1.0100
13.052000 1.0100 1.0080 1.0080 1.0080 1.0080
13.087765 1.0080 1.0080 1.0080 1.0080 1.0080
13.123000 1.0080 1.0080 1.0080 1.0080 1.0080
13.158765 1.0080 1.0080 1.0080 1.0080 1.0080
13.195000 1.0070 1.0070 1.0070 1.0070 1.0070
13.230765 1.0070 1.0070 1.0070 1.0070 1.0070
13.266000 1.0070 1.0070 1.0070 1.0070 1.0070
13.301765 1.0070 1.0070 1.0070 1.0070 1.0070
13.338000 1.0070 1.0070 1.0070 1.0070 1.0070
13.373765 1.0070 1.0070 1.0050 1.0070 1.0070
13.409000 1.0070 1.0070 1.0070 1.0070 1.0070
13.444765 1.0070 1.0070 1.0070 1.0070 1.0070
13.481000 1.0070 1.0070 1.0070 1.0070 1.0070
13.516765 1.0070 1.0070 1.0070 1.0070 1.0070
13.552000 1.0070 1.0070 1.0070 1.0070 1.0070
13.587765 1.0070 1.0070 1.0070 1.0070 1.0070
13.624000 1.0080 1.0080 1.0080 1.0080 1.0080
13.659765 1.0080 1.0080 1.0080 1.0080 1.0080
13.695000 1.0080 1.0080 1.0080 1.0080 1.0080
13.730765 1.0080 1.0080 1.0080 1.0080 1.0080
13.767000 1.0080 1.0070 1.0070 1.0070 1.0050
13.802765 1.0030 1.0010 1.0000 0.9980 0.9940
13.838000 0.9910 0.9890 0.9870 0.9840 0.9820
13.873765 0.9800 0.9750 0.9730 0.9640 0.9540
13.910000 0.9480 0.9450 0.9380 0.9310 0.9290
13.945765 0.9250 0.9240 0.9180 0.9150 0.9100
13.981000 0.9080 0.9060 0.9020 0.9010 0.8970
14.016765 0.8920 0.8900 0.8880 0.8870 0.8830
14.053000 0.8760 0.8730 0.8690 0.8690 0.8650
14.088765 0.8600 0.8580 0.8550 0.8550 0.8530
14.124000 0.8430 0.8410 0.8350 0.8320 0.8280
14.159765 0.8280 0.8230 0.8230 0.8210 0.8200
14.196000 0.8180 0.8160 0.8140 0.8140 0.8130
14.231765 0.8110 0.8110 0.8090 0.8090 0.8070
14.267000 0.8050 0.8040 0.8020 0.8000 0.7980
14.302765 0.7950 0.7930 0.7910 0.7880 0.7840
14.339000 0.7810 0.7790 0.7760 0.7700 0.7630
14.374765 0.7530 0.7370 0.7280 0.7170 0.7080
14.410000 0.6960 0.6860 0.6710 0.6630 0.6570
14.445765 0.6560 0.6570 0.6590 0.6590 0.6640
14.482000 0.6640 0.6680 0.6700 0.6730 0.6790
14.517765 0.6860 0.6940 0.7010 0.7100 0.7210
14.553000 0.7310 0.7420 0.7530 0.7650 0.7770
14.588765 0.7900 0.8160 0.8210 0.8320 0.8410
14.625000 0.8500 0.8580 0.8670 0.8740 0.8800
14.660765 0.8830 0.8850 0.8850 0.8900 0.8940
14.696000 0.8990 0.9020 0.9060 0.9110 0.9150
14.731765 0.9170 0.9240 0.9250 0.9250 0.9320
14.768000 0.9380 0.9400 0.9400 0.9410 0.9430
14.803765 0.9470 0.9480 0.9500 0.9520 0.9520
14.839000 0.9540 0.9550 0.9550 0.9550 0.9550
14.874765 0.9550 0.9520 0.9500 0.9480 0.9470
14.911000 0.9430 0.9410 0.9400 0.9400 0.9380
14.946765 0.9360 0.9340 0.9320 0.9320 0.9290
14.982000 0.9270 0.9240 0.9220 0.9170 0.8990
15.017765 0.8950 0.8880 0.8870 0.8830 0.8640
15.054000 0.8500 0.8430 0.8390 0.8370 0.8350
15.089765 0.8370 0.8390 0.8390 0.8410 0.8430
15.125000 0.8440 0.8460 0.8480 0.8500 0.8510
15.160765 0.8550 0.8620 0.8650 0.8650 0.8670
15.197000 0.8670 0.8670 0.8690 0.8710 0.8710
15.232765 0.8710 0.8730 0.8760 0.8800 0.8800
15.268000 0.8810 0.8870 0.8870 0.8870 0.8880
15.303765 0.8880 0.8880 0.8900 0.8880 0.8880
15.340000 0.8900 0.8900 0.8900 0.8900 0.8920
15.375765 0.8920 0.8920 0.8940 0.8940 0.8940
15.411000 0.8940 0.8950 0.8950 0.8950 0.8970
15.446765 0.8970 0.8950 0.8950 0.8950 0.8970
##END=
