##TITLE=SODIUM ACETATE
##JCAMP-DX=4.24
##DATA TYPE=INFRARED SPECTRUM
##CLASS=COBLENTZ
##ORIGIN=BELL TELEPHONE LABORATORIES- F. VRATNY
##OWNER=COBLENTZ SOCIETY
Collection (C) 2018 copyright by the U.S. Secretary of Commerce
on behalf of the United States of America. All rights reserved.
##DATE=Not specified, most likely prior to 1970
##MOLFORM=C2 H3 O2 Na
##SOURCE REFERENCE=COBLENTZ NO. 2039
##$NIST ID=B6002039
##$NIST SOURCE=COBLENTZ
##$NIST IMAGE=cob2039
##SPECTROMETER/DATA SYSTEM=Not specified, most likely a prism, grating, or hybrid spectrometer.
##STATE=SOLID (KCl PELLET)
##SAMPLING PROCEDURE=TRANSMISSION
##RESOLUTION=4
##DATA PROCESSING=DIGITIZED BY NIST FROM HARD COPY
##XUNITS=MICROMETERS
##YUNITS=TRANSMITTANCE
##XFACTOR=1.000000
##YFACTOR=1
##DELTAX=000.006636
##FIRSTX=2.046
##LASTX=15.4381
##FIRSTY=0.156
##MAXX=15.4381
##MINX=2.046
##MAXY=0.577
##MINY=0
##NPOINTS=2019
##XYDATA=(X++(Y..Y))
2.046000 0.1560 0.1570 0.1580 0.1580 0.1600
2.079197 0.1600 0.1580 0.1580 0.1580 0.1580
2.113000 0.1580 0.1580 0.1580 0.1580 0.1580
2.146197 0.1600 0.1600 0.1600 0.1600 0.1620
2.179000 0.1640 0.1640 0.1650 0.1650 0.1680
2.212197 0.1680 0.1690 0.1690 0.1700 0.1700
2.246000 0.1700 0.1700 0.1700 0.1700 0.1700
2.279197 0.1700 0.1700 0.1700 0.1720 0.1720
2.312000 0.1720 0.1720 0.1720 0.1720 0.1720
2.345197 0.1740 0.1760 0.1800 0.1800 0.1800
2.378000 0.1800 0.1800 0.1840 0.1850 0.1850
2.411197 0.1850 0.1850 0.1850 0.1890 0.1890
2.445000 0.1890 0.1890 0.1890 0.1890 0.1850
2.478197 0.1850 0.1850 0.1860 0.1880 0.1890
2.511000 0.1890 0.1890 0.1890 0.1890 0.1890
2.544197 0.1920 0.1920 0.1920 0.1920 0.1930
2.577000 0.1930 0.1960 0.1960 0.1980 0.1980
2.610197 0.1980 0.1980 0.1980 0.1980 0.2000
2.644000 0.2000 0.1980 0.1980 0.2000 0.2000
2.677197 0.2000 0.2010 0.2010 0.2020 0.2020
2.710000 0.2010 0.2000 0.2000 0.2000 0.1980
2.743197 0.1970 0.1960 0.1960 0.1930 0.1880
2.776000 0.1820 0.1820 0.1800 0.1760 0.1680
2.809197 0.1600 0.1520 0.1450 0.1400 0.1340
2.843000 0.1320 0.1220 0.1120 0.1080 0.1010
2.876197 0.1010 0.1000 0.0890 0.0850 0.0740
2.909000 0.0650 0.0610 0.0580 0.0520 0.0490
2.942197 0.0440 0.0420 0.0360 0.0330 0.0300
2.975000 0.0300 0.0300 0.0300 0.0330 0.0360
3.008197 0.0400 0.0420 0.0450 0.0560 0.0620
3.042000 0.0640 0.0680 0.0690 0.0690 0.0690
3.075197 0.0700 0.0740 0.0740 0.0740 0.0760
3.108000 0.0800 0.0840 0.0880 0.0890 0.0970
3.141197 0.1010 0.1060 0.1090 0.1090 0.1090
3.175000 0.1090 0.1090 0.1100 0.1140 0.1200
3.208197 0.1220 0.1280 0.1320 0.1340 0.1410
3.241000 0.1440 0.1440 0.1460 0.1500 0.1530
3.274197 0.1530 0.1530 0.1530 0.1530 0.1530
3.307000 0.1530 0.1520 0.1500 0.1420 0.1400
3.340197 0.1290 0.1220 0.1130 0.1050 0.1010
3.374000 0.1010 0.1010 0.1010 0.1100 0.1210
3.407197 0.1280 0.1280 0.1330 0.1360 0.1370
3.440000 0.1370 0.1410 0.1490 0.1650 0.1840
3.473197 0.1920 0.2010 0.2020 0.2100 0.2140
3.506000 0.2200 0.2250 0.2300 0.2300 0.2300
3.539197 0.2320 0.2320 0.2330 0.2420 0.2460
3.573000 0.2500 0.2500 0.2520 0.2530 0.2600
3.606197 0.2620 0.2720 0.2740 0.2780 0.2780
3.639000 0.2780 0.2780 0.2780 0.2780 0.2800
3.672197 0.2800 0.2800 0.2800 0.2820 0.2840
3.705000 0.2850 0.2850 0.2850 0.2850 0.2850
3.738197 0.2860 0.2860 0.2880 0.2920 0.2960
3.772000 0.2970 0.2980 0.2980 0.3000 0.3000
3.805197 0.3010 0.3010 0.3040 0.3040 0.3050
3.838000 0.3060 0.3060 0.3080 0.3080 0.3090
3.871197 0.3090 0.3090 0.3090 0.3090 0.3090
3.905000 0.3090 0.3090 0.3090 0.3090 0.3090
3.938197 0.3090 0.3100 0.3100 0.3130 0.3160
3.971000 0.3160 0.3140 0.3130 0.3120 0.3090
4.004197 0.3060 0.3010 0.3010 0.3010 0.3010
4.037000 0.3010 0.3010 0.3040 0.3090 0.3120
4.070197 0.3120 0.3120 0.3120 0.3120 0.3120
4.104000 0.3130 0.3140 0.3160 0.3170 0.3170
4.137197 0.3160 0.3160 0.3160 0.3180 0.3180
4.170000 0.3200 0.3210 0.3220 0.3220 0.3220
4.203197 0.3240 0.3250 0.3260 0.3260 0.3260
4.236000 0.3260 0.3260 0.3260 0.3260 0.3290
4.269197 0.3320 0.3320 0.3320 0.3320 0.3330
4.303000 0.3330 0.3330 0.3330 0.3320 0.3320
4.336197 0.3320 0.3300 0.3300 0.3300 0.3290
4.369000 0.3290 0.3290 0.3290 0.3290 0.3290
4.402197 0.3290 0.3290 0.3290 0.3290 0.3300
4.435000 0.3300 0.3320 0.3330 0.3340 0.3340
4.468197 0.3360 0.3360 0.3370 0.3370 0.3370
4.502000 0.3400 0.3410 0.3420 0.3420 0.3420
4.535197 0.3420 0.3420 0.3420 0.3420 0.3420
4.568000 0.3410 0.3410 0.3410 0.3410 0.3410
4.601197 0.3410 0.3420 0.3420 0.3450 0.3460
4.635000 0.3500 0.3500 0.3500 0.3500 0.3500
4.668197 0.3520 0.3520 0.3520 0.3520 0.3500
4.701000 0.3500 0.3500 0.3520 0.3520 0.3520
4.734197 0.3520 0.3530 0.3530 0.3530 0.3540
4.767000 0.3560 0.3560 0.3560 0.3570 0.3570
4.800197 0.3580 0.3580 0.3580 0.3580 0.3580
4.834000 0.3580 0.3610 0.3640 0.3650 0.3650
4.867197 0.3650 0.3650 0.3650 0.3660 0.3660
4.900000 0.3660 0.3680 0.3680 0.3680 0.3680
4.933197 0.3680 0.3680 0.3700 0.3700 0.3720
4.966000 0.3720 0.3720 0.3720 0.3720 0.3720
4.999197 0.3730 0.3730 0.3720 0.3700 0.3690
5.033000 0.3690 0.3690 0.3690 0.3700 0.3700
5.066197 0.3700 0.3700 0.3730 0.3760 0.3770
5.099000 0.3770 0.3770 0.3770 0.3770 0.3770
5.132197 0.3760 0.3760 0.3740 0.3740 0.3740
5.165000 0.3740 0.3760 0.3760 0.3810 0.3810
5.198197 0.3820 0.3820 0.3820 0.3820 0.3820
5.232000 0.3840 0.3850 0.3850 0.3850 0.3850
5.265197 0.3850 0.3860 0.3850 0.3840 0.3840
5.298000 0.3840 0.3840 0.3840 0.3840 0.3840
5.331197 0.3840 0.3840 0.3840 0.3850 0.3850
5.364000 0.3850 0.3840 0.3840 0.3850 0.3850
5.397197 0.3820 0.3800 0.3780 0.3780 0.3780
5.431000 0.3780 0.3810 0.3810 0.3810 0.3810
5.464197 0.3810 0.3810 0.3810 0.3810 0.3810
5.497000 0.3810 0.3810 0.3810 0.3810 0.3810
5.530197 0.3810 0.3810 0.3810 0.3810 0.3810
5.564000 0.3780 0.3780 0.3770 0.3740 0.3740
5.597197 0.3740 0.3740 0.3740 0.3730 0.3700
5.630000 0.3700 0.3680 0.3620 0.3620 0.3610
5.663197 0.3600 0.3540 0.3520 0.3490 0.3490
5.696000 0.3490 0.3480 0.3480 0.3480 0.3450
5.729197 0.3420 0.3330 0.3280 0.3210 0.3160
5.763000 0.3130 0.3120 0.3120 0.3100 0.3090
5.796197 0.3040 0.2970 0.2820 0.2810 0.2770
5.829000 0.2720 0.2720 0.2700 0.2680 0.2650
5.862197 0.2610 0.2540 0.2520 0.2460 0.2450
5.895000 0.2450 0.2420 0.2340 0.2240 0.2210
5.928197 0.2210 0.2100 0.2060 0.2020 0.1930
5.962000 0.1900 0.1820 0.1770 0.1660 0.1640
5.995197 0.1640 0.1620 0.1610 0.1570 0.1520
6.028000 0.1500 0.1370 0.1280 0.1130 0.1010
6.061197 0.0960 0.0940 0.0920 0.0810 0.0660
6.094000 0.0610 0.0540 0.0500 0.0370 0.0220
6.127197 0.0100 0.0100 0.0040 0.0020 0.0010
6.161000 0.0010 0.0000 0.0000 0.0000 0.0000
6.194197 0.0000 0.0000 0.0000 0.0000 0.0000
6.227000 0.0000 0.0000 0.0000 0.0000 0.0000
6.260197 0.0000 0.0000 0.0000 0.0000 0.0000
6.294000 0.0000 0.0000 0.0000 0.0000 0.0000
6.327197 0.0000 0.0000 0.0000 0.0000 0.0000
6.360000 0.0000 0.0000 0.0000 0.0000 0.0000
6.393197 0.0000 0.0000 0.0000 0.0000 0.0000
6.426000 0.0000 0.0000 0.0000 0.0010 0.0020
6.459197 0.0020 0.0020 0.0020 0.0020 0.0020
6.493000 0.0020 0.0040 0.0060 0.0090 0.0100
6.526197 0.0120 0.0160 0.0220 0.0290 0.0300
6.559000 0.0340 0.0400 0.0410 0.0500 0.0530
6.592197 0.0540 0.0570 0.0600 0.0620 0.0640
6.625000 0.0700 0.0720 0.0740 0.0770 0.0800
6.658197 0.0820 0.0850 0.0850 0.0880 0.0880
6.692000 0.0900 0.0920 0.0920 0.0920 0.0920
6.725197 0.0920 0.0920 0.0920 0.0920 0.0900
6.758000 0.0880 0.0760 0.0730 0.0730 0.0720
6.791197 0.0720 0.0620 0.0520 0.0480 0.0410
6.824000 0.0370 0.0280 0.0220 0.0080 0.0040
6.857197 0.0000 0.0000 0.0000 0.0000 0.0000
6.891000 0.0000 0.0000 0.0000 0.0000 0.0000
6.924197 0.0000 0.0010 0.0010 0.0010 0.0000
6.957000 0.0000 0.0000 0.0000 0.0000 0.0000
6.990197 0.0000 0.0000 0.0000 0.0000 0.0000
7.023000 0.0000 0.0000 0.0000 0.0000 0.0000
7.056197 0.0000 0.0000 0.0000 0.0000 0.0000
7.090000 0.0000 0.0020 0.0020 0.0040 0.0040
7.123197 0.0060 0.0120 0.0140 0.0160 0.0160
7.156000 0.0170 0.0240 0.0290 0.0320 0.0370
7.189197 0.0410 0.0530 0.0650 0.0730 0.0800
7.223000 0.0860 0.1010 0.1050 0.1160 0.1280
7.256197 0.1380 0.1460 0.1520 0.1570 0.1680
7.289000 0.1760 0.1770 0.1780 0.1810 0.1900
7.322197 0.1960 0.2060 0.2130 0.2140 0.2180
7.355000 0.2210 0.2250 0.2280 0.2320 0.2320
7.388197 0.2330 0.2330 0.2330 0.2370 0.2380
7.422000 0.2400 0.2410 0.2410 0.2420 0.2440
7.455197 0.2490 0.2560 0.2620 0.2650 0.2810
7.488000 0.2840 0.2890 0.2960 0.3020 0.3090
7.521197 0.3120 0.3130 0.3210 0.3210 0.3250
7.554000 0.3320 0.3420 0.3450 0.3500 0.3520
7.587197 0.3520 0.3520 0.3520 0.3530 0.3540
7.621000 0.3570 0.3570 0.3580 0.3580 0.3580
7.654197 0.3580 0.3600 0.3610 0.3610 0.3620
7.687000 0.3640 0.3640 0.3700 0.3720 0.3740
7.720197 0.3760 0.3760 0.3770 0.3820 0.3920
7.753000 0.3960 0.4010 0.4050 0.4120 0.4120
7.786197 0.4130 0.4130 0.4130 0.4140 0.4170
7.820000 0.4200 0.4210 0.4210 0.4210 0.4210
7.853197 0.4210 0.4210 0.4210 0.4210 0.4210
7.886000 0.4210 0.4220 0.4240 0.4240 0.4240
7.919197 0.4240 0.4240 0.4240 0.4240 0.4240
7.953000 0.4240 0.4240 0.4220 0.4200 0.4200
7.986197 0.4180 0.4180 0.4180 0.4200 0.4200
8.019000 0.4220 0.4240 0.4250 0.4280 0.4300
8.052197 0.4330 0.4380 0.4380 0.4380 0.4380
8.085000 0.4410 0.4410 0.4440 0.4480 0.4500
8.118197 0.4520 0.4520 0.4530 0.4560 0.4570
8.152000 0.4570 0.4580 0.4580 0.4580 0.4580
8.185197 0.4610 0.4620 0.4640 0.4640 0.4640
8.218000 0.4640 0.4650 0.4650 0.4650 0.4660
8.251197 0.4660 0.4660 0.4680 0.4690 0.4700
8.284000 0.4700 0.4700 0.4700 0.4700 0.4720
8.317197 0.4720 0.4720 0.4720 0.4730 0.4730
8.351000 0.4760 0.4760 0.4760 0.4760 0.4760
8.384197 0.4760 0.4760 0.4760 0.4770 0.4770
8.417000 0.4770 0.4780 0.4780 0.4780 0.4800
8.450197 0.4800 0.4800 0.4800 0.4800 0.4810
8.483000 0.4810 0.4810 0.4800 0.4800 0.4800
8.516197 0.4800 0.4800 0.4800 0.4800 0.4800
8.550000 0.4800 0.4800 0.4800 0.4800 0.4800
8.583197 0.4800 0.4800 0.4800 0.4800 0.4800
8.616000 0.4800 0.4800 0.4800 0.4800 0.4800
8.649197 0.4800 0.4800 0.4800 0.4800 0.4800
8.682000 0.4780 0.4780 0.4780 0.4780 0.4800
8.715197 0.4810 0.4810 0.4820 0.4820 0.4820
8.749000 0.4820 0.4820 0.4820 0.4840 0.4840
8.782197 0.4850 0.4850 0.4840 0.4840 0.4840
8.815000 0.4820 0.4820 0.4820 0.4820 0.4820
8.848197 0.4820 0.4810 0.4800 0.4770 0.4760
8.882000 0.4740 0.4740 0.4760 0.4760 0.4770
8.915197 0.4770 0.4770 0.4770 0.4770 0.4770
8.948000 0.4770 0.4770 0.4770 0.4770 0.4770
8.981197 0.4770 0.4760 0.4760 0.4760 0.4760
9.014000 0.4760 0.4760 0.4760 0.4760 0.4760
9.047197 0.4740 0.4760 0.4760 0.4760 0.4760
9.081000 0.4760 0.4760 0.4760 0.4760 0.4760
9.114197 0.4760 0.4760 0.4760 0.4760 0.4760
9.147000 0.4740 0.4740 0.4740 0.4730 0.4730
9.180197 0.4730 0.4720 0.4720 0.4700 0.4660
9.213000 0.4660 0.4650 0.4620 0.4610 0.4580
9.246197 0.4540 0.4520 0.4480 0.4450 0.4410
9.280000 0.4410 0.4410 0.4400 0.4370 0.4330
9.313197 0.4260 0.4220 0.4160 0.4100 0.4100
9.346000 0.4090 0.3930 0.3810 0.3660 0.3480
9.379197 0.3400 0.3300 0.3200 0.3090 0.3010
9.412000 0.2840 0.2620 0.2500 0.2400 0.2220
9.445197 0.2080 0.1940 0.1800 0.1700 0.1610
9.479000 0.1520 0.1460 0.1460 0.1440 0.1420
9.512197 0.1410 0.1400 0.1380 0.1380 0.1410
9.545000 0.1490 0.1580 0.1690 0.1770 0.1860
9.578197 0.2010 0.2100 0.2210 0.2260 0.2440
9.612000 0.2570 0.2690 0.2760 0.2850 0.2900
9.645197 0.2920 0.3000 0.3020 0.3080 0.3100
9.678000 0.3100 0.3120 0.3120 0.3120 0.3120
9.711197 0.3100 0.3020 0.2980 0.2920 0.2900
9.744000 0.2810 0.2730 0.2650 0.2500 0.2340
9.777197 0.2290 0.2210 0.2090 0.2000 0.1850
9.811000 0.1660 0.1520 0.1370 0.1260 0.1220
9.844197 0.1210 0.1200 0.1180 0.1180 0.1180
9.877000 0.1180 0.1180 0.1180 0.1180 0.1360
9.910197 0.1570 0.1610 0.1620 0.1730 0.1820
9.943000 0.1970 0.2120 0.2300 0.2480 0.2660
9.976197 0.2780 0.2900 0.3060 0.3170 0.3240
10.010000 0.3360 0.3480 0.3560 0.3660 0.3740
10.043197 0.3840 0.3980 0.4050 0.4160 0.4240
10.076000 0.4240 0.4260 0.4290 0.4320 0.4360
10.109197 0.4400 0.4420 0.4460 0.4490 0.4500
10.142000 0.4500 0.4560 0.4580 0.4600 0.4640
10.175197 0.4690 0.4700 0.4700 0.4730 0.4780
10.209000 0.4800 0.4800 0.4800 0.4800 0.4810
10.242197 0.4810 0.4810 0.4810 0.4840 0.4890
10.275000 0.4930 0.4960 0.5000 0.5090 0.5130
10.308197 0.5170 0.5180 0.5200 0.5200 0.5210
10.342000 0.5210 0.5210 0.5210 0.5250 0.5290
10.375197 0.5300 0.5300 0.5330 0.5360 0.5400
10.408000 0.5440 0.5450 0.5480 0.5490 0.5500
10.441197 0.5500 0.5500 0.5500 0.5500 0.5500
10.474000 0.5520 0.5520 0.5520 0.5520 0.5520
10.507197 0.5520 0.5500 0.5500 0.5500 0.5520
10.541000 0.5520 0.5530 0.5530 0.5570 0.5600
10.574197 0.5600 0.5600 0.5600 0.5600 0.5600
10.607000 0.5600 0.5600 0.5560 0.5540 0.5530
10.640197 0.5520 0.5500 0.5490 0.5460 0.5450
10.673000 0.5440 0.5410 0.5400 0.5300 0.5240
10.706197 0.5010 0.4840 0.4660 0.4370 0.4160
10.740000 0.3900 0.3400 0.2920 0.2410 0.1980
10.773197 0.1490 0.1250 0.1100 0.1090 0.1120
10.806000 0.1560 0.1970 0.2410 0.2690 0.3090
10.839197 0.3480 0.3650 0.3840 0.4020 0.4220
10.872000 0.4410 0.4570 0.4650 0.4700 0.4780
10.905197 0.4850 0.4920 0.4980 0.5060 0.5100
10.939000 0.5160 0.5210 0.5300 0.5400 0.5450
10.972197 0.5460 0.5480 0.5490 0.5500 0.5520
11.005000 0.5570 0.5580 0.5600 0.5600 0.5600
11.038197 0.5600 0.5600 0.5600 0.5610 0.5610
11.071000 0.5610 0.5610 0.5620 0.5620 0.5620
11.104197 0.5640 0.5640 0.5650 0.5650 0.5660
11.138000 0.5660 0.5660 0.5680 0.5680 0.5680
11.171197 0.5690 0.5700 0.5700 0.5720 0.5720
11.204000 0.5720 0.5720 0.5720 0.5720 0.5720
11.237197 0.5730 0.5740 0.5740 0.5760 0.5760
11.271000 0.5770 0.5770 0.5760 0.5760 0.5760
11.304197 0.5760 0.5760 0.5740 0.5740 0.5740
11.337000 0.5740 0.5740 0.5740 0.5740 0.5760
11.370197 0.5760 0.5760 0.5760 0.5760 0.5760
11.403000 0.5760 0.5760 0.5760 0.5760 0.5760
11.436197 0.5760 0.5760 0.5760 0.5760 0.5760
11.470000 0.5740 0.5740 0.5740 0.5740 0.5730
11.503197 0.5730 0.5730 0.5730 0.5730 0.5730
11.536000 0.5730 0.5730 0.5730 0.5730 0.5730
11.569197 0.5730 0.5730 0.5730 0.5730 0.5730
11.602000 0.5720 0.5700 0.5700 0.5690 0.5660
11.635197 0.5660 0.5660 0.5650 0.5640 0.5610
11.669000 0.5610 0.5610 0.5600 0.5600 0.5580
11.702197 0.5580 0.5570 0.5570 0.5560 0.5560
11.735000 0.5540 0.5530 0.5530 0.5520 0.5520
11.768197 0.5520 0.5500 0.5500 0.5490 0.5480
11.801000 0.5450 0.5420 0.5410 0.5380 0.5380
11.834197 0.5380 0.5380 0.5380 0.5380 0.5380
11.868000 0.5380 0.5360 0.5360 0.5330 0.5320
11.901197 0.5320 0.5300 0.5300 0.5300 0.5300
11.934000 0.5300 0.5300 0.5300 0.5300 0.5300
11.967197 0.5300 0.5300 0.5300 0.5300 0.5300
12.001000 0.5300 0.5300 0.5300 0.5300 0.5290
12.034197 0.5290 0.5280 0.5260 0.5260 0.5200
12.067000 0.5180 0.5170 0.5170 0.5160 0.5140
12.100197 0.5130 0.5100 0.5090 0.5040 0.5020
12.133000 0.5010 0.5010 0.5000 0.4980 0.4940
12.166197 0.4920 0.4900 0.4860 0.4860 0.4860
12.200000 0.4850 0.4820 0.4810 0.4800 0.4800
12.233197 0.4800 0.4800 0.4800 0.4800 0.4800
12.266000 0.4780 0.4780 0.4780 0.4780 0.4780
12.299197 0.4780 0.4780 0.4780 0.4780 0.4770
12.332000 0.4770 0.4760 0.4760 0.4740 0.4740
12.365197 0.4730 0.4730 0.4730 0.4730 0.4730
12.399000 0.4730 0.4730 0.4730 0.4720 0.4730
12.432197 0.4730 0.4730 0.4730 0.4730 0.4730
12.465000 0.4730 0.4730 0.4730 0.4730 0.4730
12.498197 0.4740 0.4740 0.4740 0.4740 0.4740
12.531000 0.4740 0.4740 0.4740 0.4740 0.4740
12.564197 0.4740 0.4740 0.4740 0.4760 0.4760
12.598000 0.4760 0.4760 0.4770 0.4770 0.4780
12.631197 0.4780 0.4780 0.4780 0.4780 0.4800
12.664000 0.4800 0.4800 0.4780 0.4780 0.4780
12.697197 0.4780 0.4780 0.4780 0.4780 0.4780
12.730000 0.4800 0.4810 0.4820 0.4820 0.4820
12.763197 0.4840 0.4850 0.4850 0.4890 0.4900
12.797000 0.4920 0.4920 0.4920 0.4920 0.4900
12.830197 0.4890 0.4890 0.4890 0.4890 0.4890
12.863000 0.4890 0.4900 0.4900 0.4900 0.4920
12.896197 0.4920 0.4920 0.4930 0.4940 0.4960
12.930000 0.4960 0.4960 0.4960 0.5000 0.5000
12.963197 0.5000 0.5000 0.4970 0.4970 0.4960
12.996000 0.4940 0.4940 0.4940 0.4930 0.4930
13.029197 0.4930 0.4930 0.4940 0.4940 0.4960
13.062000 0.4970 0.4980 0.5000 0.5000 0.5000
13.095197 0.5000 0.5000 0.5020 0.5020 0.5020
13.129000 0.5020 0.5040 0.5040 0.5040 0.5040
13.162197 0.5060 0.5060 0.5060 0.5080 0.5090
13.195000 0.5090 0.5090 0.5090 0.5090 0.5090
13.228197 0.5090 0.5090 0.5090 0.5130 0.5170
13.261000 0.5200 0.5210 0.5210 0.5210 0.5210
13.294197 0.5210 0.5210 0.5210 0.5210 0.5200
13.328000 0.5200 0.5200 0.5200 0.5200 0.5210
13.361197 0.5210 0.5210 0.5210 0.5220 0.5220
13.394000 0.5220 0.5220 0.5240 0.5240 0.5240
13.427197 0.5250 0.5250 0.5300 0.5300 0.5320
13.460000 0.5320 0.5320 0.5320 0.5320 0.5320
13.493197 0.5320 0.5320 0.5330 0.5330 0.5330
13.527000 0.5330 0.5340 0.5340 0.5340 0.5340
13.560197 0.5340 0.5360 0.5360 0.5360 0.5360
13.593000 0.5360 0.5370 0.5380 0.5400 0.5400
13.626197 0.5400 0.5400 0.5400 0.5400 0.5380
13.660000 0.5380 0.5380 0.5400 0.5410 0.5410
13.693197 0.5410 0.5410 0.5400 0.5400 0.5380
13.726000 0.5370 0.5370 0.5370 0.5400 0.5410
13.759197 0.5420 0.5420 0.5420 0.5450 0.5460
13.792000 0.5480 0.5490 0.5490 0.5490 0.5480
13.825197 0.5480 0.5460 0.5460 0.5440 0.5440
13.859000 0.5440 0.5440 0.5440 0.5440 0.5440
13.892197 0.5450 0.5450 0.5450 0.5460 0.5490
13.925000 0.5500 0.5500 0.5500 0.5500 0.5500
13.958197 0.5500 0.5490 0.5490 0.5490 0.5480
13.991000 0.5480 0.5480 0.5480 0.5480 0.5480
14.024197 0.5460 0.5460 0.5460 0.5460 0.5450
14.058000 0.5440 0.5420 0.5400 0.5400 0.5400
14.091197 0.5400 0.5400 0.5400 0.5400 0.5400
14.124000 0.5400 0.5400 0.5410 0.5410 0.5420
14.157197 0.5420 0.5440 0.5440 0.5440 0.5420
14.190000 0.5420 0.5420 0.5450 0.5450 0.5450
14.223197 0.5450 0.5440 0.5440 0.5420 0.5410
14.257000 0.5400 0.5400 0.5400 0.5380 0.5380
14.290197 0.5380 0.5380 0.5380 0.5380 0.5370
14.323000 0.5360 0.5360 0.5360 0.5340 0.5340
14.356197 0.5340 0.5340 0.5340 0.5360 0.5360
14.389000 0.5360 0.5360 0.5340 0.5340 0.5340
14.422197 0.5330 0.5330 0.5330 0.5330 0.5340
14.456000 0.5340 0.5340 0.5340 0.5340 0.5340
14.489197 0.5340 0.5340 0.5340 0.5340 0.5340
14.522000 0.5340 0.5340 0.5340 0.5340 0.5340
14.555197 0.5340 0.5330 0.5320 0.5300 0.5300
14.589000 0.5300 0.5300 0.5290 0.5300 0.5300
14.622197 0.5300 0.5300 0.5290 0.5280 0.5260
14.655000 0.5240 0.5210 0.5210 0.5210 0.5210
14.688197 0.5210 0.5210 0.5210 0.5210 0.5200
14.721000 0.5200 0.5200 0.5180 0.5180 0.5170
14.754197 0.5140 0.5140 0.5130 0.5120 0.5120
14.788000 0.5100 0.5090 0.5080 0.5060 0.5050
14.821197 0.5040 0.5040 0.5020 0.5020 0.5020
14.854000 0.5010 0.5010 0.5010 0.5000 0.4980
14.887197 0.4980 0.4970 0.4970 0.4960 0.4940
14.920000 0.4930 0.4920 0.4840 0.4680 0.4580
14.953197 0.4540 0.4530 0.4520 0.4520 0.4520
14.987000 0.4520 0.4490 0.4490 0.4490 0.4490
15.020197 0.4480 0.4460 0.4460 0.4450 0.4440
15.053000 0.4380 0.4320 0.4300 0.4290 0.4220
15.086197 0.4120 0.4100 0.4060 0.4020 0.3960
15.119000 0.3810 0.3760 0.3650 0.3540 0.3420
15.152197 0.3360 0.3180 0.3100 0.2960 0.2810
15.186000 0.2650 0.2530 0.2440 0.2200 0.2040
15.219197 0.1880 0.1760 0.1700 0.1650 0.1600
15.252000 0.1520 0.1440 0.1380 0.1300 0.1290
15.285197 0.1240 0.1210 0.1180 0.1160 0.1130
15.319000 0.1120 0.1120 0.1120 0.1130 0.1130
15.352197 0.1160 0.1160 0.1170 0.1200 0.1220
15.385000 0.1280 0.1300 0.1370 0.1440 0.1530
15.418197 0.1620 0.1720 0.1780 0.1810
##END=
