##TITLE=Phosphorothioic acid, S-2-aminopentyl ester, sodium salt
##JCAMP-DX=4.24
##DATA TYPE=INFRARED SPECTRUM
##CLASS=COBLENTZ III
##ORIGIN=SOUTHERN RESEARCH INSTITUTE
##OWNER=Copyright (C) 1987 by the Coblentz Society
Collection (C) 2018 copyright by the U.S. Secretary of Commerce
on behalf of the United States of America. All rights reserved.
##DATE=1962/04/12
##MOLFORM=C5 H13 N Na O3 P S
##SOURCE REFERENCE=COBLENTZ NO. 6875
##$NIST ID=B6006875
##$NIST SOURCE=COBLENTZ
##$NIST IMAGE=cob6875
##SPECTROMETER/DATA SYSTEM=PERKIN-ELMER 221 (GRATING)
##INSTRUMENT PARAMETERS=FILTER AT 980 CM^-^1. GRATING 4000-1428 CM^-^1, NaCl PRISM 1428-650 CM^-^1
##STATE=SOLID (1 mg / 650 mg KBr DISC)
$$ SPECTRAL FEATURE AT 1414 CM^-^1 IS PROBABLY AN ARTIFACT CAUSED BY FILTER CHANGE
##RESOLUTION=2
##XUNITS=1/CM
##YUNITS=TRANSMITTANCE
##XFACTOR=1.0
##YFACTOR=1
##FIRSTX=625
##LASTX=3900
##FIRSTY=0.7616
##MAXX=3900
##MINX=625
##MAXY=0.8831
##MINY=0.0659
##NPOINTS=3276
##XYDATA=(X++(Y..Y))
625.000000 0.7616 0.7714 0.7779 0.7844 0.7883
630.000000 0.7921 0.7959 0.7997 0.8028 0.8056
635.000000 0.8084 0.8112 0.8141 0.8168 0.8192
640.000000 0.8216 0.8240 0.8264 0.8288 0.8311
645.000000 0.8330 0.8348 0.8365 0.8382 0.8400
650.000000 0.8417 0.8434 0.8450 0.8465 0.8479
655.000000 0.8494 0.8509 0.8524 0.8537 0.8546
660.000000 0.8555 0.8564 0.8573 0.8582 0.8590
665.000000 0.8599 0.8608 0.8615 0.8620 0.8626
670.000000 0.8631 0.8636 0.8642 0.8647 0.8652
675.000000 0.8654 0.8657 0.8660 0.8662 0.8665
680.000000 0.8667 0.8670 0.8673 0.8675 0.8678
685.000000 0.8680 0.8683 0.8685 0.8688 0.8692
690.000000 0.8696 0.8700 0.8705 0.8709 0.8729
695.000000 0.8717 0.8722 0.8725 0.8723 0.8721
700.000000 0.8719 0.8718 0.8716 0.8711 0.8704
705.000000 0.8687 0.8664 0.8640 0.8594 0.8548
710.000000 0.8492 0.8424 0.8356 0.8242 0.8140
715.000000 0.8048 0.7956 0.7865 0.7817 0.7815
720.000000 0.7851 0.7964 0.8078 0.8191 0.8312
725.000000 0.8388 0.8453 0.8496 0.8539 0.8582
730.000000 0.8623 0.8660 0.8683 0.8698 0.8705
735.000000 0.8695 0.8697 0.8690 0.8682 0.8671
740.000000 0.8660 0.8640 0.8620 0.8599 0.8578
745.000000 0.8557 0.8535 0.8512 0.8489 0.8462
750.000000 0.8432 0.8403 0.8326 0.8150 0.7974
755.000000 0.7809 0.7805 0.7803 0.7791 0.7940
760.000000 0.8106 0.8272 0.8437 0.8603 0.8727
765.000000 0.8753 0.8774 0.8789 0.8798 0.8807
770.000000 0.8817 0.8824 0.8826 0.8827 0.8829
775.000000 0.8828 0.8831 0.8828 0.8825 0.8822
780.000000 0.8819 0.8815 0.8812 0.8809 0.8803
785.000000 0.8798 0.8792 0.8787 0.8782 0.8776
790.000000 0.8771 0.8766 0.8761 0.8756 0.8751
795.000000 0.8746 0.8741 0.8736 0.8731 0.8726
800.000000 0.8721 0.8715 0.8704 0.8694 0.8683
805.000000 0.8673 0.8663 0.8652 0.8633 0.8603
810.000000 0.8572 0.8538 0.8482 0.8426 0.8355
815.000000 0.8282 0.8162 0.8109 0.8078 0.8048
820.000000 0.8143 0.8272 0.8401 0.8530 0.8594
825.000000 0.8610 0.8621 0.8628 0.8634 0.8641
830.000000 0.8645 0.8647 0.8650 0.8651 0.8650
835.000000 0.8666 0.8649 0.8646 0.8641 0.8635
840.000000 0.8629 0.8623 0.8604 0.8584 0.8564
845.000000 0.8544 0.8513 0.8482 0.8451 0.8417
850.000000 0.8376 0.8336 0.8296 0.8264 0.8232
855.000000 0.8211 0.8206 0.8180 0.8215 0.8228
860.000000 0.8257 0.8290 0.8323 0.8347 0.8371
865.000000 0.8379 0.8394 0.8378 0.8373 0.8368
870.000000 0.8363 0.8355 0.8345 0.8335 0.8322
875.000000 0.8307 0.8291 0.8275 0.8253 0.8230
880.000000 0.8207 0.8184 0.8161 0.8134 0.8099
885.000000 0.8063 0.8028 0.7992 0.7957 0.7923
890.000000 0.7889 0.7856 0.7835 0.7826 0.7818
895.000000 0.7809 0.7816 0.7825 0.7834 0.7856
900.000000 0.7885 0.7915 0.7926 0.7933 0.7940
905.000000 0.7945 0.7945 0.7938 0.7929 0.7920
910.000000 0.7911 0.7890 0.7868 0.7851 0.7848
915.000000 0.7845 0.7844 0.7843 0.7842 0.7838
920.000000 0.7831 0.7820 0.7800 0.7781 0.7761
925.000000 0.7741 0.7721 0.7702 0.7682 0.7662
930.000000 0.7634 0.7606 0.7580 0.7558 0.7535
935.000000 0.7524 0.7515 0.7506 0.7497 0.7484
940.000000 0.7455 0.7417 0.7375 0.7334 0.7269
945.000000 0.7198 0.7124 0.7048 0.6947 0.6823
950.000000 0.6691 0.6500 0.6237 0.5975 0.5712
955.000000 0.5450 0.5187 0.4925 0.4663 0.4400
960.000000 0.4138 0.3793 0.3008 0.2806 0.2645
965.000000 0.2494 0.2186 0.2082 0.2059 0.2044
970.000000 0.2028 0.2051 0.2067 0.2108 0.2162
975.000000 0.2636 0.3360 0.4085 0.4809 0.5533
980.000000 0.6257 0.6981 0.7706 0.7770 0.7682
985.000000 0.7593 0.7504 0.7415 0.7326 0.7311
990.000000 0.7323 0.7305 0.7289 0.7338 0.7233
995.000000 0.7208 0.7193 0.7176 0.7147 0.7055
1000.000000 0.6922 0.6850 0.6780 0.6724 0.6667
1005.000000 0.6629 0.6592 0.6556 0.6532 0.6517
1010.000000 0.6501 0.6486 0.6478 0.6474 0.6471
1015.000000 0.6467 0.6463 0.6499 0.6462 0.6466
1020.000000 0.6470 0.6498 0.6540 0.6575 0.6588
1025.000000 0.6593 0.6589 0.6585 0.6581 0.6577
1030.000000 0.6564 0.6548 0.6529 0.6509 0.6478
1035.000000 0.6444 0.6411 0.6347 0.6198 0.6097
1040.000000 0.5991 0.5845 0.5754 0.5681 0.5608
1045.000000 0.5535 0.5462 0.5389 0.5316 0.5243
1050.000000 0.5170 0.5107 0.5069 0.5000 0.4912
1055.000000 0.4829 0.4782 0.4736 0.4689 0.4642
1060.000000 0.4588 0.4533 0.4476 0.4327 0.4178
1065.000000 0.4029 0.3880 0.3731 0.3582 0.3433
1070.000000 0.3284 0.3135 0.2986 0.2829 0.2555
1075.000000 0.2362 0.2200 0.2045 0.1908 0.1778
1080.000000 0.1634 0.1449 0.1220 0.1146 0.1071
1085.000000 0.0997 0.0929 0.0861 0.0804 0.0754
1090.000000 0.0724 0.0702 0.0682 0.0673 0.0669
1095.000000 0.0659 0.0661 0.0663 0.0666 0.0678
1100.000000 0.0692 0.0710 0.0727 0.0750 0.0775
1105.000000 0.0807 0.0854 0.0931 0.0998 0.1095
1110.000000 0.1220 0.1344 0.1469 0.1593 0.1718
1115.000000 0.1785 0.1798 0.1809 0.1821 0.1838
1120.000000 0.1873 0.1941 0.2306 0.2404 0.2484
1125.000000 0.2494 0.2501 0.2509 0.2516 0.2523
1130.000000 0.2529 0.2535 0.2541 0.2596 0.2734
1135.000000 0.2873 0.3011 0.3150 0.3289 0.3427
1140.000000 0.3566 0.3705 0.3843 0.3982 0.4120
1145.000000 0.4259 0.4398 0.4536 0.4673 0.4723
1150.000000 0.4774 0.4850 0.4931 0.5011 0.5089
1155.000000 0.5167 0.5256 0.5362 0.5468 0.5575
1160.000000 0.5683 0.5783 0.5871 0.5958 0.6044
1165.000000 0.6130 0.6215 0.6293 0.6370 0.6421
1170.000000 0.6466 0.6512 0.6564 0.6616 0.6656
1175.000000 0.6695 0.6734 0.6758 0.6780 0.6801
1180.000000 0.6820 0.6832 0.6834 0.6837 0.6837
1185.000000 0.6835 0.6832 0.6830 0.6828 0.6826
1190.000000 0.6824 0.6823 0.6821 0.6822 0.6823
1195.000000 0.6835 0.6886 0.6937 0.6988 0.7039
1200.000000 0.7090 0.7141 0.7192 0.7243 0.7299
1205.000000 0.7332 0.7335 0.7345 0.7338 0.7334
1210.000000 0.7330 0.7324 0.7314 0.7302 0.7283
1215.000000 0.7263 0.7243 0.7217 0.7185 0.7153
1220.000000 0.7126 0.7121 0.7120 0.7097 0.7135
1225.000000 0.7151 0.7185 0.7257 0.7353 0.7430
1230.000000 0.7492 0.7540 0.7584 0.7628 0.7657
1235.000000 0.7675 0.7693 0.7681 0.7682 0.7683
1240.000000 0.7678 0.7673 0.7667 0.7659 0.7648
1245.000000 0.7637 0.7626 0.7617 0.7609 0.7602
1250.000000 0.7600 0.7608 0.7618 0.7629 0.7640
1255.000000 0.7651 0.7660 0.7668 0.7631 0.7590
1260.000000 0.7551 0.7519 0.7492 0.7465 0.7452
1265.000000 0.7438 0.7437 0.7439 0.7441 0.7414
1270.000000 0.7467 0.7515 0.7593 0.7713 0.7840
1275.000000 0.7930 0.7991 0.8045 0.8093 0.8140
1280.000000 0.8178 0.8207 0.8225 0.8227 0.8228
1285.000000 0.8229 0.8230 0.8231 0.8237 0.8242
1290.000000 0.8248 0.8254 0.8263 0.8272 0.8281
1295.000000 0.8290 0.8299 0.8308 0.8322 0.8336
1300.000000 0.8350 0.8364 0.8379 0.8393 0.8408
1305.000000 0.8423 0.8436 0.8446 0.8456 0.8466
1310.000000 0.8476 0.8487 0.8497 0.8507 0.8514
1315.000000 0.8520 0.8527 0.8534 0.8541 0.8565
1320.000000 0.8537 0.8533 0.8530 0.8526 0.8522
1325.000000 0.8518 0.8511 0.8504 0.8497 0.8490
1330.000000 0.8483 0.8476 0.8467 0.8458 0.8449
1335.000000 0.8440 0.8431 0.8422 0.8413 0.8403
1340.000000 0.8393 0.8383 0.8372 0.8362 0.8351
1345.000000 0.8342 0.8339 0.8336 0.8333 0.8343
1350.000000 0.8354 0.8367 0.8380 0.8394 0.8408
1355.000000 0.8422 0.8435 0.8441 0.8447 0.8453
1360.000000 0.8459 0.8457 0.8455 0.8452 0.8450
1365.000000 0.8447 0.8432 0.8402 0.8369 0.8332
1370.000000 0.8295 0.8233 0.8174 0.8128 0.8082
1375.000000 0.8035 0.7984 0.7950 0.7923 0.7896
1380.000000 0.7849 0.7797 0.7778 0.7761 0.7760
1385.000000 0.7765 0.7736 0.7791 0.7813 0.7856
1390.000000 0.7938 0.8143 0.8206 0.8269 0.8334
1395.000000 0.8385 0.8406 0.8423 0.8415 0.8426
1400.000000 0.8421 0.8412 0.8403 0.8387 0.8371
1405.000000 0.8349 0.8323 0.8272 0.8182 0.8092
1410.000000 0.8002 0.7912 0.7822 0.7732 0.7698
1415.000000 0.7764 0.8059 0.8352 0.8359 0.8372
1420.000000 0.8384 0.8397 0.8410 0.8423 0.8435
1425.000000 0.8448 0.8461 0.8474 0.8483 0.8484
1430.000000 0.8485 0.8493 0.8465 0.8446 0.8428
1435.000000 0.8409 0.8380 0.8348 0.8316 0.8284
1440.000000 0.8251 0.8219 0.8159 0.8066 0.7974
1445.000000 0.7882 0.7790 0.7698 0.7605 0.7513
1450.000000 0.7421 0.7319 0.7301 0.7292 0.7291
1455.000000 0.7290 0.7290 0.7290 0.7290 0.7290
1460.000000 0.7288 0.7265 0.7287 0.7287 0.7287
1465.000000 0.7287 0.7450 0.7643 0.7836 0.8029
1470.000000 0.8223 0.8416 0.8524 0.8539 0.8547
1475.000000 0.8555 0.8576 0.8567 0.8571 0.8569
1480.000000 0.8565 0.8561 0.8557 0.8552 0.8546
1485.000000 0.8540 0.8534 0.8528 0.8520 0.8511
1490.000000 0.8502 0.8493 0.8483 0.8473 0.8463
1495.000000 0.8454 0.8444 0.8430 0.8415 0.8400
1500.000000 0.8385 0.8370 0.8350 0.8330 0.8311
1505.000000 0.8291 0.8271 0.8246 0.8219 0.8192
1510.000000 0.8165 0.8139 0.8107 0.8073 0.8040
1515.000000 0.8006 0.7973 0.7940 0.7907 0.7874
1520.000000 0.7841 0.7808 0.7775 0.7739 0.7693
1525.000000 0.7647 0.7602 0.7556 0.7510 0.7465
1530.000000 0.7419 0.7343 0.7262 0.7182 0.7102
1535.000000 0.7029 0.6960 0.6891 0.6822 0.6753
1540.000000 0.6679 0.6605 0.6530 0.6456 0.6367
1545.000000 0.6239 0.6111 0.5979 0.5843 0.5706
1550.000000 0.5518 0.5292 0.4989 0.4828 0.4752
1555.000000 0.4683 0.4670 0.4658 0.4652 0.4644
1560.000000 0.4652 0.4657 0.4685 0.4739 0.4808
1565.000000 0.4906 0.5119 0.5333 0.5546 0.5759
1570.000000 0.5973 0.6186 0.6399 0.6613 0.6826
1575.000000 0.6991 0.7181 0.7264 0.7308 0.7337
1580.000000 0.7362 0.7374 0.7385 0.7396 0.7398
1585.000000 0.7400 0.7402 0.7403 0.7401 0.7421
1590.000000 0.7397 0.7391 0.7385 0.7380 0.7374
1595.000000 0.7368 0.7362 0.7353 0.7342 0.7331
1600.000000 0.7318 0.7302 0.7287 0.7271 0.7256
1605.000000 0.7236 0.7210 0.7184 0.7158 0.7131
1610.000000 0.7102 0.7072 0.7043 0.7013 0.6976
1615.000000 0.6931 0.6887 0.6843 0.6799 0.6742
1620.000000 0.6681 0.6620 0.6563 0.6514 0.6465
1625.000000 0.6416 0.6376 0.6337 0.6310 0.6296
1630.000000 0.6283 0.6277 0.6277 0.6286 0.6273
1635.000000 0.6330 0.6347 0.6355 0.6363 0.6367
1640.000000 0.6364 0.6362 0.6378 0.6340 0.6322
1645.000000 0.6248 0.6157 0.6065 0.5974 0.5883
1650.000000 0.5792 0.5701 0.5610 0.5502 0.5452
1655.000000 0.5432 0.5429 0.5427 0.5416 0.5427
1660.000000 0.5434 0.5440 0.5488 0.5569 0.5648
1665.000000 0.5847 0.5955 0.6064 0.6172 0.6280
1670.000000 0.6388 0.6496 0.6604 0.6712 0.6821
1675.000000 0.6929 0.7037 0.7145 0.7253 0.7361
1680.000000 0.7470 0.7578 0.7685 0.7770 0.7851
1685.000000 0.7900 0.7945 0.7980 0.8015 0.8050
1690.000000 0.8077 0.8100 0.8123 0.8146 0.8161
1695.000000 0.8174 0.8188 0.8201 0.8214 0.8227
1700.000000 0.8240 0.8253 0.8265 0.8275 0.8285
1705.000000 0.8295 0.8305 0.8314 0.8324 0.8334
1710.000000 0.8344 0.8353 0.8364 0.8374 0.8384
1715.000000 0.8394 0.8404 0.8414 0.8424 0.8433
1720.000000 0.8442 0.8451 0.8460 0.8470 0.8479
1725.000000 0.8486 0.8493 0.8500 0.8506 0.8513
1730.000000 0.8520 0.8524 0.8532 0.8544 0.8556
1735.000000 0.8567 0.8580 0.8592 0.8604 0.8616
1740.000000 0.8623 0.8628 0.8633 0.8638 0.8643
1745.000000 0.8648 0.8653 0.8658 0.8661 0.8665
1750.000000 0.8669 0.8672 0.8675 0.8678 0.8681
1755.000000 0.8684 0.8687 0.8689 0.8692 0.8695
1760.000000 0.8698 0.8700 0.8699 0.8699 0.8699
1765.000000 0.8698 0.8698 0.8698 0.8697 0.8697
1770.000000 0.8697 0.8695 0.8694 0.8693 0.8692
1775.000000 0.8690 0.8689 0.8688 0.8686 0.8685
1780.000000 0.8684 0.8683 0.8681 0.8680 0.8679
1785.000000 0.8678 0.8676 0.8675 0.8674 0.8673
1790.000000 0.8672 0.8671 0.8671 0.8670 0.8670
1795.000000 0.8669 0.8668 0.8668 0.8667 0.8667
1800.000000 0.8666 0.8665 0.8665 0.8664 0.8664
1805.000000 0.8670 0.8662 0.8661 0.8661 0.8660
1810.000000 0.8659 0.8658 0.8657 0.8656 0.8655
1815.000000 0.8654 0.8653 0.8652 0.8651 0.8651
1820.000000 0.8650 0.8649 0.8649 0.8648 0.8647
1825.000000 0.8647 0.8646 0.8646 0.8645 0.8645
1830.000000 0.8644 0.8644 0.8643 0.8642 0.8641
1835.000000 0.8641 0.8640 0.8639 0.8638 0.8637
1840.000000 0.8636 0.8635 0.8634 0.8633 0.8632
1845.000000 0.8631 0.8630 0.8629 0.8627 0.8626
1850.000000 0.8624 0.8623 0.8622 0.8620 0.8619
1855.000000 0.8617 0.8616 0.8615 0.8613 0.8612
1860.000000 0.8610 0.8609 0.8607 0.8606 0.8605
1865.000000 0.8603 0.8602 0.8600 0.8599 0.8597
1870.000000 0.8594 0.8592 0.8590 0.8587 0.8585
1875.000000 0.8582 0.8580 0.8578 0.8575 0.8573
1880.000000 0.8571 0.8568 0.8566 0.8563 0.8561
1885.000000 0.8559 0.8556 0.8554 0.8551 0.8549
1890.000000 0.8546 0.8543 0.8541 0.8538 0.8535
1895.000000 0.8533 0.8530 0.8527 0.8524 0.8522
1900.000000 0.8519 0.8516 0.8513 0.8510 0.8507
1905.000000 0.8503 0.8500 0.8496 0.8493 0.8489
1910.000000 0.8486 0.8482 0.8479 0.8476 0.8472
1915.000000 0.8469 0.8465 0.8462 0.8459 0.8456
1920.000000 0.8453 0.8449 0.8446 0.8443 0.8440
1925.000000 0.8437 0.8433 0.8430 0.8427 0.8424
1930.000000 0.8421 0.8417 0.8412 0.8408 0.8403
1935.000000 0.8399 0.8394 0.8390 0.8385 0.8379
1940.000000 0.8370 0.8361 0.8353 0.8344 0.8336
1945.000000 0.8324 0.8312 0.8299 0.8287 0.8275
1950.000000 0.8262 0.8249 0.8235 0.8222 0.8215
1955.000000 0.8208 0.8201 0.8194 0.8189 0.8186
1960.000000 0.8183 0.8181 0.8178 0.8175 0.8173
1965.000000 0.8171 0.8170 0.8168 0.8167 0.8165
1970.000000 0.8164 0.8163 0.8162 0.8161 0.8161
1975.000000 0.8161 0.8161 0.8160 0.8160 0.8160
1980.000000 0.8160 0.8159 0.8159 0.8159 0.8158
1985.000000 0.8157 0.8155 0.8154 0.8153 0.8152
1990.000000 0.8148 0.8144 0.8140 0.8136 0.8132
1995.000000 0.8125 0.8115 0.8105 0.8095 0.8085
2000.000000 0.8075 0.8064 0.8054 0.8043 0.8033
2005.000000 0.8023 0.8012 0.7998 0.7982 0.7966
2010.000000 0.7950 0.7934 0.7918 0.7903 0.7889
2015.000000 0.7875 0.7861 0.7847 0.7833 0.7822
2020.000000 0.7812 0.7803 0.7793 0.7783 0.7773
2025.000000 0.7763 0.7757 0.7753 0.7748 0.7743
2030.000000 0.7739 0.7734 0.7729 0.7723 0.7712
2035.000000 0.7702 0.7691 0.7681 0.7671 0.7660
2040.000000 0.7652 0.7645 0.7638 0.7631 0.7624
2045.000000 0.7616 0.7610 0.7607 0.7605 0.7602
2050.000000 0.7599 0.7596 0.7593 0.7590 0.7588
2055.000000 0.7584 0.7580 0.7576 0.7572 0.7568
2060.000000 0.7564 0.7560 0.7556 0.7553 0.7549
2065.000000 0.7545 0.7537 0.7528 0.7520 0.7511
2070.000000 0.7503 0.7494 0.7485 0.7477 0.7469
2075.000000 0.7461 0.7454 0.7446 0.7438 0.7431
2080.000000 0.7423 0.7416 0.7405 0.7394 0.7382
2085.000000 0.7371 0.7360 0.7348 0.7337 0.7325
2090.000000 0.7313 0.7301 0.7288 0.7276 0.7264
2095.000000 0.7251 0.7239 0.7226 0.7214 0.7202
2100.000000 0.7189 0.7177 0.7165 0.7154 0.7144
2105.000000 0.7133 0.7123 0.7112 0.7101 0.7091
2110.000000 0.7080 0.7070 0.7059 0.7049 0.7038
2115.000000 0.7027 0.7017 0.7006 0.6995 0.6982
2120.000000 0.6969 0.6957 0.6944 0.6931 0.6918
2125.000000 0.6905 0.6892 0.6880 0.6867 0.6854
2130.000000 0.6841 0.6828 0.6816 0.6803 0.6789
2135.000000 0.6776 0.6763 0.6749 0.6736 0.6723
2140.000000 0.6710 0.6696 0.6683 0.6670 0.6657
2145.000000 0.6643 0.6630 0.6616 0.6602 0.6587
2150.000000 0.6573 0.6560 0.6547 0.6535 0.6523
2155.000000 0.6510 0.6498 0.6487 0.6472 0.6457
2160.000000 0.6442 0.6428 0.6413 0.6398 0.6383
2165.000000 0.6368 0.6352 0.6336 0.6320 0.6304
2170.000000 0.6288 0.6272 0.6256 0.6241 0.6222
2175.000000 0.6204 0.6185 0.6167 0.6148 0.6130
2180.000000 0.6110 0.6090 0.6070 0.6050 0.6029
2185.000000 0.6009 0.5989 0.5969 0.5948 0.5926
2190.000000 0.5904 0.5882 0.5860 0.5838 0.5816
2195.000000 0.5794 0.5772 0.5750 0.5728 0.5705
2200.000000 0.5682 0.5659 0.5636 0.5613 0.5590
2205.000000 0.5567 0.5544 0.5532 0.5520 0.5509
2210.000000 0.5497 0.5494 0.5494 0.5495 0.5496
2215.000000 0.5496 0.5497 0.5501 0.5506 0.5508
2220.000000 0.5515 0.5519 0.5524 0.5535 0.5545
2225.000000 0.5555 0.5569 0.5583 0.5597 0.5611
2230.000000 0.5631 0.5651 0.5670 0.5688 0.5707
2235.000000 0.5732 0.5770 0.5809 0.5847 0.5886
2240.000000 0.5927 0.5974 0.6020 0.6066 0.6112
2245.000000 0.6158 0.6204 0.6244 0.6277 0.6309
2250.000000 0.6342 0.6382 0.6421 0.6461 0.6501
2255.000000 0.6541 0.6580 0.6619 0.6656 0.6692
2260.000000 0.6729 0.6765 0.6800 0.6818 0.6830
2265.000000 0.6842 0.6854 0.6866 0.6878 0.6890
2270.000000 0.6902 0.6910 0.6917 0.6924 0.6926
2275.000000 0.6925 0.6924 0.6924 0.6923 0.6922
2280.000000 0.6921 0.6921 0.6916 0.6919 0.6919
2285.000000 0.6919 0.6918 0.6918 0.6917 0.6917
2290.000000 0.6915 0.6913 0.6910 0.6908 0.6905
2295.000000 0.6903 0.6900 0.6897 0.6892 0.6888
2300.000000 0.6884 0.6880 0.6876 0.6872 0.6867
2305.000000 0.6862 0.6858 0.6853 0.6848 0.6844
2310.000000 0.6839 0.6834 0.6829 0.6822 0.6815
2315.000000 0.6809 0.6802 0.6795 0.6789 0.6782
2320.000000 0.6775 0.6768 0.6760 0.6753 0.6746
2325.000000 0.6739 0.6731 0.6726 0.6721 0.6717
2330.000000 0.6709 0.6699 0.6689 0.6678 0.6668
2335.000000 0.6658 0.6647 0.6637 0.6627 0.6614
2340.000000 0.6598 0.6581 0.6565 0.6548 0.6532
2345.000000 0.6518 0.6504 0.6491 0.6477 0.6464
2350.000000 0.6456 0.6448 0.6439 0.6431 0.6423
2355.000000 0.6415 0.6406 0.6398 0.6389 0.6378
2360.000000 0.6368 0.6358 0.6347 0.6337 0.6326
2365.000000 0.6317 0.6309 0.6302 0.6294 0.6286
2370.000000 0.6279 0.6271 0.6264 0.6256 0.6248
2375.000000 0.6242 0.6235 0.6228 0.6222 0.6215
2380.000000 0.6209 0.6202 0.6196 0.6189 0.6182
2385.000000 0.6176 0.6170 0.6164 0.6158 0.6152
2390.000000 0.6146 0.6140 0.6134 0.6127 0.6119
2395.000000 0.6111 0.6103 0.6095 0.6087 0.6079
2400.000000 0.6071 0.6063 0.6052 0.6040 0.6029
2405.000000 0.6017 0.6005 0.5993 0.5982 0.5970
2410.000000 0.5958 0.5946 0.5934 0.5922 0.5905
2415.000000 0.5889 0.5873 0.5856 0.5840 0.5824
2420.000000 0.5807 0.5791 0.5775 0.5758 0.5742
2425.000000 0.5726 0.5709 0.5693 0.5676 0.5659
2430.000000 0.5642 0.5625 0.5608 0.5591 0.5574
2435.000000 0.5556 0.5539 0.5523 0.5507 0.5491
2440.000000 0.5475 0.5459 0.5444 0.5428 0.5412
2445.000000 0.5397 0.5381 0.5366 0.5351 0.5336
2450.000000 0.5321 0.5305 0.5290 0.5275 0.5260
2455.000000 0.5245 0.5230 0.5217 0.5206 0.5194
2460.000000 0.5183 0.5172 0.5160 0.5149 0.5137
2465.000000 0.5126 0.5119 0.5117 0.5115 0.5114
2470.000000 0.5113 0.5112 0.5111 0.5111 0.5112
2475.000000 0.5113 0.5117 0.5123 0.5129 0.5135
2480.000000 0.5140 0.5141 0.5143 0.5137 0.5102
2485.000000 0.5026 0.4982 0.4947 0.4928 0.4921
2490.000000 0.4915 0.4909 0.4905 0.4903 0.4901
2495.000000 0.4898 0.4896 0.4894 0.4891 0.4888
2500.000000 0.4876 0.4864 0.4849 0.4800 0.4779
2505.000000 0.4762 0.4759 0.4755 0.4754 0.4752
2510.000000 0.4750 0.4748 0.4748 0.4749 0.4749
2515.000000 0.4749 0.4749 0.4749 0.4749 0.4750
2520.000000 0.4750 0.4727 0.4752 0.4752 0.4753
2525.000000 0.4754 0.4755 0.4756 0.4756 0.4757
2530.000000 0.4758 0.4759 0.4760 0.4762 0.4763
2535.000000 0.4765 0.4767 0.4769 0.4770 0.4772
2540.000000 0.4774 0.4776 0.4777 0.4779 0.4781
2545.000000 0.4783 0.4786 0.4788 0.4791 0.4793
2550.000000 0.4795 0.4798 0.4802 0.4806 0.4811
2555.000000 0.4815 0.4820 0.4824 0.4827 0.4829
2560.000000 0.4832 0.4834 0.4837 0.4836 0.4824
2565.000000 0.4821 0.4814 0.4806 0.4799 0.4785
2570.000000 0.4765 0.4745 0.4726 0.4707 0.4689
2575.000000 0.4670 0.4655 0.4640 0.4626 0.4616
2580.000000 0.4606 0.4596 0.4592 0.4588 0.4585
2585.000000 0.4582 0.4579 0.4577 0.4579 0.4580
2590.000000 0.4582 0.4583 0.4563 0.4586 0.4588
2595.000000 0.4592 0.4597 0.4602 0.4607 0.4612
2600.000000 0.4616 0.4624 0.4632 0.4640 0.4648
2605.000000 0.4657 0.4665 0.4673 0.4683 0.4693
2610.000000 0.4704 0.4714 0.4725 0.4736 0.4746
2615.000000 0.4757 0.4769 0.4782 0.4794 0.4807
2620.000000 0.4820 0.4832 0.4845 0.4857 0.4869
2625.000000 0.4881 0.4893 0.4904 0.4916 0.4928
2630.000000 0.4938 0.4948 0.4957 0.4967 0.4976
2635.000000 0.4986 0.4995 0.5004 0.5014 0.5023
2640.000000 0.5031 0.5039 0.5047 0.5054 0.5062
2645.000000 0.5070 0.5078 0.5084 0.5087 0.5091
2650.000000 0.5094 0.5097 0.5101 0.5100 0.5098
2655.000000 0.5105 0.5096 0.5095 0.5092 0.5087
2660.000000 0.5081 0.5075 0.5069 0.5063 0.5057
2665.000000 0.5050 0.5043 0.5036 0.5028 0.5021
2670.000000 0.5013 0.5004 0.4995 0.4986 0.4977
2675.000000 0.4968 0.4959 0.4950 0.4945 0.4939
2680.000000 0.4934 0.4928 0.4923 0.4917 0.4915
2685.000000 0.4914 0.4913 0.4913 0.4912 0.4911
2690.000000 0.4911 0.4910 0.4909 0.4909 0.4906
2695.000000 0.4903 0.4900 0.4897 0.4892 0.4882
2700.000000 0.4872 0.4863 0.4853 0.4844 0.4835
2705.000000 0.4826 0.4817 0.4809 0.4802 0.4794
2710.000000 0.4786 0.4779 0.4774 0.4770 0.4765
2715.000000 0.4760 0.4756 0.4751 0.4751 0.4750
2720.000000 0.4749 0.4749 0.4749 0.4750 0.4751
2725.000000 0.4752 0.4754 0.4755 0.4756 0.4757
2730.000000 0.4759 0.4760 0.4763 0.4767 0.4770
2735.000000 0.4774 0.4780 0.4788 0.4796 0.4804
2740.000000 0.4812 0.4821 0.4829 0.4840 0.4852
2745.000000 0.4858 0.4864 0.4867 0.4871 0.4874
2750.000000 0.4877 0.4880 0.4884 0.4885 0.4887
2755.000000 0.4885 0.4882 0.4879 0.4876 0.4869
2760.000000 0.4863 0.4857 0.4850 0.4843 0.4833
2765.000000 0.4824 0.4814 0.4804 0.4792 0.4778
2770.000000 0.4765 0.4751 0.4737 0.4722 0.4705
2775.000000 0.4689 0.4675 0.4663 0.4652 0.4644
2780.000000 0.4636 0.4629 0.4621 0.4614 0.4607
2785.000000 0.4600 0.4593 0.4586 0.4579 0.4573
2790.000000 0.4566 0.4559 0.4554 0.4549 0.4544
2795.000000 0.4540 0.4535 0.4530 0.4526 0.4521
2800.000000 0.4516 0.4512 0.4507 0.4503 0.4498
2805.000000 0.4493 0.4489 0.4485 0.4480 0.4476
2810.000000 0.4471 0.4467 0.4462 0.4458 0.4454
2815.000000 0.4450 0.4447 0.4444 0.4441 0.4438
2820.000000 0.4435 0.4433 0.4430 0.4427 0.4424
2825.000000 0.4420 0.4416 0.4411 0.4407 0.4403
2830.000000 0.4398 0.4385 0.4372 0.4359 0.4346
2835.000000 0.4332 0.4318 0.4302 0.4286 0.4269
2840.000000 0.4253 0.4237 0.4219 0.4199 0.4179
2845.000000 0.4159 0.4139 0.4119 0.4097 0.4076
2850.000000 0.4054 0.4032 0.4011 0.3986 0.3961
2855.000000 0.3935 0.3910 0.3885 0.3860 0.3835
2860.000000 0.3810 0.3785 0.3760 0.3736 0.3714
2865.000000 0.3701 0.3688 0.3675 0.3662 0.3652
2870.000000 0.3646 0.3641 0.3636 0.3636 0.3636
2875.000000 0.3636 0.3636 0.3637 0.3639 0.3640
2880.000000 0.3642 0.3644 0.3647 0.3649 0.3651
2885.000000 0.3654 0.3656 0.3658 0.3659 0.3660
2890.000000 0.3661 0.3661 0.3662 0.3663 0.3661
2895.000000 0.3658 0.3654 0.3651 0.3648 0.3644
2900.000000 0.3638 0.3632 0.3622 0.3603 0.3585
2905.000000 0.3563 0.3539 0.3516 0.3495 0.3474
2910.000000 0.3454 0.3433 0.3402 0.3369 0.3337
2915.000000 0.3304 0.3272 0.3241 0.3210 0.3179
2920.000000 0.3150 0.3124 0.3098 0.3072 0.3047
2925.000000 0.3026 0.3014 0.3010 0.3009 0.3012
2930.000000 0.3015 0.3020 0.3034 0.3036 0.3045
2935.000000 0.3058 0.3071 0.3087 0.3103 0.3120
2940.000000 0.3137 0.3157 0.3178 0.3191 0.3202
2945.000000 0.3214 0.3221 0.3224 0.3228 0.3229
2950.000000 0.3227 0.3224 0.3252 0.3178 0.3082
2955.000000 0.2985 0.2889 0.2792 0.2696 0.2599
2960.000000 0.2548 0.2520 0.2515 0.2510 0.2527
2965.000000 0.2522 0.2533 0.2551 0.2643 0.2738
2970.000000 0.2833 0.2927 0.3022 0.3117 0.3212
2975.000000 0.3307 0.3402 0.3497 0.3550 0.3590
2980.000000 0.3670 0.3745 0.3769 0.3790 0.3812
2985.000000 0.3831 0.3849 0.3868 0.3886 0.3901
2990.000000 0.3917 0.3933 0.3948 0.3963 0.3978
2995.000000 0.3993 0.4007 0.4022 0.4037 0.4051
3000.000000 0.4062 0.4072 0.4083 0.4094 0.4105
3005.000000 0.4115 0.4123 0.4131 0.4139 0.4147
3010.000000 0.4157 0.4180 0.4203 0.4227 0.4266
3015.000000 0.4345 0.4376 0.4391 0.4403 0.4415
3020.000000 0.4427 0.4439 0.4450 0.4461 0.4472
3025.000000 0.4482 0.4501 0.4521 0.4540 0.4560
3030.000000 0.4581 0.4606 0.4631 0.4658 0.4702
3035.000000 0.4746 0.4789 0.4830 0.4863 0.4888
3040.000000 0.4913 0.4938 0.4952 0.4961 0.4970
3045.000000 0.4978 0.4987 0.4995 0.5004 0.5012
3050.000000 0.5021 0.5030 0.5038 0.5048 0.5060
3055.000000 0.5073 0.5085 0.5098 0.5110 0.5123
3060.000000 0.5135 0.5148 0.5161 0.5173 0.5186
3065.000000 0.5199 0.5212 0.5235 0.5261 0.5297
3070.000000 0.5332 0.5366 0.5386 0.5407 0.5427
3075.000000 0.5446 0.5459 0.5473 0.5486 0.5498
3080.000000 0.5510 0.5522 0.5534 0.5546 0.5558
3085.000000 0.5568 0.5577 0.5585 0.5594 0.5603
3090.000000 0.5611 0.5620 0.5629 0.5637 0.5646
3095.000000 0.5655 0.5664 0.5673 0.5682 0.5691
3100.000000 0.5700 0.5709 0.5718 0.5727 0.5736
3105.000000 0.5745 0.5754 0.5763 0.5772 0.5781
3110.000000 0.5789 0.5798 0.5807 0.5816 0.5824
3115.000000 0.5839 0.5854 0.5869 0.5884 0.5899
3120.000000 0.5914 0.5931 0.5949 0.5967 0.5985
3125.000000 0.6003 0.6021 0.6044 0.6068 0.6094
3130.000000 0.6120 0.6160 0.6201 0.6241 0.6277
3135.000000 0.6308 0.6338 0.6369 0.6391 0.6405
3140.000000 0.6420 0.6435 0.6450 0.6465 0.6479
3145.000000 0.6494 0.6509 0.6523 0.6538 0.6553
3150.000000 0.6567 0.6582 0.6596 0.6610 0.6622
3155.000000 0.6634 0.6645 0.6657 0.6669 0.6680
3160.000000 0.6692 0.6704 0.6715 0.6726 0.6737
3165.000000 0.6748 0.6758 0.6769 0.6780 0.6790
3170.000000 0.6801 0.6812 0.6823 0.6834 0.6845
3175.000000 0.6853 0.6860 0.6866 0.6873 0.6879
3180.000000 0.6885 0.6892 0.6898 0.6904 0.6911
3185.000000 0.6917 0.6924 0.6930 0.6936 0.6943
3190.000000 0.6949 0.6955 0.6962 0.6968 0.6974
3195.000000 0.6980 0.6985 0.6990 0.6996 0.7001
3200.000000 0.7006 0.7011 0.7016 0.7021 0.7026
3205.000000 0.7032 0.7039 0.7046 0.7052 0.7059
3210.000000 0.7066 0.7078 0.7090 0.7102 0.7114
3215.000000 0.7121 0.7129 0.7136 0.7144 0.7152
3220.000000 0.7159 0.7167 0.7174 0.7182 0.7189
3225.000000 0.7196 0.7203 0.7210 0.7217 0.7224
3230.000000 0.7231 0.7238 0.7245 0.7252 0.7259
3235.000000 0.7266 0.7273 0.7280 0.7287 0.7294
3240.000000 0.7301 0.7308 0.7315 0.7322 0.7329
3245.000000 0.7336 0.7342 0.7348 0.7354 0.7360
3250.000000 0.7366 0.7372 0.7377 0.7383 0.7389
3255.000000 0.7395 0.7401 0.7407 0.7412 0.7418
3260.000000 0.7424 0.7428 0.7431 0.7434 0.7437
3265.000000 0.7439 0.7442 0.7445 0.7448 0.7451
3270.000000 0.7454 0.7457 0.7459 0.7462 0.7465
3275.000000 0.7468 0.7470 0.7473 0.7476 0.7478
3280.000000 0.7481 0.7484 0.7486 0.7489 0.7492
3285.000000 0.7494 0.7496 0.7498 0.7499 0.7501
3290.000000 0.7503 0.7505 0.7507 0.7509 0.7511
3295.000000 0.7513 0.7514 0.7516 0.7518 0.7520
3300.000000 0.7522 0.7524 0.7526 0.7526 0.7526
3305.000000 0.7516 0.7526 0.7526 0.7525 0.7525
3310.000000 0.7525 0.7525 0.7525 0.7525 0.7524
3315.000000 0.7524 0.7524 0.7524 0.7522 0.7520
3320.000000 0.7519 0.7517 0.7515 0.7513 0.7512
3325.000000 0.7510 0.7508 0.7507 0.7505 0.7503
3330.000000 0.7501 0.7500 0.7496 0.7493 0.7490
3335.000000 0.7486 0.7483 0.7480 0.7476 0.7473
3340.000000 0.7469 0.7466 0.7463 0.7459 0.7456
3345.000000 0.7452 0.7447 0.7443 0.7439 0.7435
3350.000000 0.7430 0.7426 0.7422 0.7418 0.7414
3355.000000 0.7409 0.7405 0.7401 0.7397 0.7392
3360.000000 0.7387 0.7381 0.7375 0.7370 0.7364
3365.000000 0.7358 0.7352 0.7347 0.7341 0.7335
3370.000000 0.7330 0.7324 0.7318 0.7313 0.7308
3375.000000 0.7303 0.7299 0.7294 0.7289 0.7285
3380.000000 0.7280 0.7275 0.7271 0.7266 0.7262
3385.000000 0.7258 0.7257 0.7256 0.7256 0.7255
3390.000000 0.7255 0.7254 0.7253 0.7253 0.7252
3395.000000 0.7251 0.7251 0.7250 0.7250 0.7249
3400.000000 0.7248 0.7248 0.7250 0.7251 0.7252
3405.000000 0.7254 0.7255 0.7256 0.7258 0.7259
3410.000000 0.7261 0.7262 0.7263 0.7265 0.7266
3415.000000 0.7267 0.7269 0.7274 0.7271 0.7273
3420.000000 0.7274 0.7276 0.7278 0.7280 0.7283
3425.000000 0.7285 0.7287 0.7289 0.7292 0.7294
3430.000000 0.7296 0.7298 0.7301 0.7303 0.7305
3435.000000 0.7308 0.7310 0.7312 0.7315 0.7317
3440.000000 0.7320 0.7322 0.7325 0.7327 0.7330
3445.000000 0.7332 0.7335 0.7337 0.7339 0.7342
3450.000000 0.7344 0.7347 0.7349 0.7352 0.7354
3455.000000 0.7357 0.7359 0.7362 0.7365 0.7368
3460.000000 0.7371 0.7374 0.7377 0.7379 0.7382
3465.000000 0.7385 0.7388 0.7391 0.7394 0.7396
3470.000000 0.7399 0.7402 0.7405 0.7408 0.7411
3475.000000 0.7413 0.7417 0.7420 0.7424 0.7427
3480.000000 0.7431 0.7434 0.7438 0.7441 0.7445
3485.000000 0.7448 0.7452 0.7455 0.7459 0.7462
3490.000000 0.7466 0.7469 0.7473 0.7476 0.7480
3495.000000 0.7483 0.7486 0.7490 0.7493 0.7497
3500.000000 0.7500 0.7504 0.7507 0.7511 0.7514
3505.000000 0.7518 0.7521 0.7525 0.7528 0.7532
3510.000000 0.7535 0.7539 0.7544 0.7549 0.7553
3515.000000 0.7558 0.7562 0.7567 0.7572 0.7576
3520.000000 0.7581 0.7586 0.7590 0.7595 0.7599
3525.000000 0.7603 0.7608 0.7612 0.7617 0.7621
3530.000000 0.7626 0.7634 0.7641 0.7648 0.7655
3535.000000 0.7663 0.7671 0.7679 0.7687 0.7694
3540.000000 0.7702 0.7710 0.7719 0.7728 0.7737
3545.000000 0.7743 0.7745 0.7748 0.7750 0.7753
3550.000000 0.7756 0.7758 0.7761 0.7763 0.7766
3555.000000 0.7768 0.7771 0.7774 0.7778 0.7784
3560.000000 0.7790 0.7796 0.7802 0.7807 0.7813
3565.000000 0.7820 0.7829 0.7838 0.7848 0.7857
3570.000000 0.7866 0.7876 0.7885 0.7894 0.7904
3575.000000 0.7916 0.7927 0.7939 0.7950 0.7962
3580.000000 0.7972 0.7982 0.7992 0.8003 0.8013
3585.000000 0.8022 0.8026 0.8029 0.8033 0.8036
3590.000000 0.8040 0.8044 0.8047 0.8051 0.8060
3595.000000 0.8070 0.8080 0.8088 0.8095 0.8103
3600.000000 0.8110 0.8118 0.8127 0.8135 0.8143
3605.000000 0.8150 0.8156 0.8162 0.8169 0.8175
3610.000000 0.8181 0.8187 0.8192 0.8198 0.8204
3615.000000 0.8209 0.8215 0.8221 0.8226 0.8232
3620.000000 0.8237 0.8242 0.8247 0.8252 0.8257
3625.000000 0.8261 0.8266 0.8271 0.8275 0.8279
3630.000000 0.8283 0.8287 0.8291 0.8295 0.8299
3635.000000 0.8302 0.8306 0.8308 0.8310 0.8312
3640.000000 0.8314 0.8315 0.8317 0.8319 0.8321
3645.000000 0.8322 0.8322 0.8323 0.8323 0.8323
3650.000000 0.8324 0.8324 0.8325 0.8325 0.8325
3655.000000 0.8326 0.8326 0.8326 0.8326 0.8325
3660.000000 0.8325 0.8325 0.8325 0.8325 0.8324
3665.000000 0.8324 0.8324 0.8324 0.8324 0.8323
3670.000000 0.8323 0.8322 0.8322 0.8321 0.8321
3675.000000 0.8320 0.8320 0.8319 0.8319 0.8318
3680.000000 0.8317 0.8317 0.8320 0.8322 0.8325
3685.000000 0.8328 0.8331 0.8333 0.8336 0.8339
3690.000000 0.8342 0.8344 0.8347 0.8350 0.8351
3695.000000 0.8352 0.8353 0.8354 0.8356 0.8357
3700.000000 0.8358 0.8359 0.8360 0.8361 0.8362
3705.000000 0.8363 0.8364 0.8365 0.8366 0.8367
3710.000000 0.8368 0.8369 0.8370 0.8371 0.8372
3715.000000 0.8373 0.8374 0.8374 0.8375 0.8376
3720.000000 0.8377 0.8378 0.8379 0.8380 0.8381
3725.000000 0.8382 0.8382 0.8383 0.8384 0.8385
3730.000000 0.8386 0.8386 0.8387 0.8388 0.8388
3735.000000 0.8389 0.8389 0.8390 0.8391 0.8391
3740.000000 0.8392 0.8392 0.8393 0.8393 0.8408
3745.000000 0.8391 0.8390 0.8390 0.8389 0.8388
3750.000000 0.8387 0.8385 0.8381 0.8377 0.8374
3755.000000 0.8370 0.8366 0.8363 0.8361 0.8359
3760.000000 0.8357 0.8355 0.8353 0.8351 0.8352
3765.000000 0.8352 0.8353 0.8353 0.8354 0.8354
3770.000000 0.8354 0.8355 0.8355 0.8356 0.8356
3775.000000 0.8357 0.8358 0.8359 0.8359 0.8360
3780.000000 0.8361 0.8362 0.8363 0.8363 0.8363
3785.000000 0.8363 0.8363 0.8363 0.8363 0.8363
3790.000000 0.8362 0.8362 0.8362 0.8362 0.8362
3795.000000 0.8361 0.8361 0.8361 0.8361 0.8361
3800.000000 0.8362 0.8362 0.8362 0.8362 0.8363
3805.000000 0.8363 0.8363 0.8364 0.8364 0.8364
3810.000000 0.8364 0.8365 0.8365 0.8365 0.8366
3815.000000 0.8366 0.8367 0.8368 0.8368 0.8369
3820.000000 0.8370 0.8370 0.8371 0.8372 0.8372
3825.000000 0.8373 0.8374 0.8374 0.8375 0.8376
3830.000000 0.8376 0.8377 0.8378 0.8379 0.8380
3835.000000 0.8381 0.8382 0.8383 0.8384 0.8385
3840.000000 0.8386 0.8387 0.8388 0.8390 0.8391
3845.000000 0.8392 0.8393 0.8393 0.8394 0.8395
3850.000000 0.8395 0.8396 0.8396 0.8397 0.8397
3855.000000 0.8398 0.8398 0.8399 0.8399 0.8400
3860.000000 0.8400 0.8401 0.8401 0.8401 0.8401
3865.000000 0.8401 0.8401 0.8401 0.8400 0.8400
3870.000000 0.8400 0.8400 0.8400 0.8399 0.8399
3875.000000 0.8399 0.8399 0.8399 0.8399 0.8399
3880.000000 0.8399 0.8399 0.8399 0.8399 0.8399
3885.000000 0.8399 0.8399 0.8399 0.8400 0.8400
3890.000000 0.8400 0.8400 0.8400 0.8400 0.8400
3895.000000 0.8400 0.8400 0.8400 0.8400 0.8400
3900.000000 0.8400
##END=
