##TITLE=SODIUM DICHROMATE
$$ C.P.
##JCAMP-DX=4.24
##DATA TYPE=INFRARED SPECTRUM
##CLASS=COBLENTZ
##ORIGIN=MELLON INSTITUTE
##OWNER=COBLENTZ SOCIETY
Collection (C) 2018 copyright by the U.S. Secretary of Commerce
on behalf of the United States of America. All rights reserved.
##DATE=Not specified, most likely prior to 1970
##MOLFORM=Na2 Cr2 O7  * 2 H2 O
##SOURCE REFERENCE=COBLENTZ NO. 467
##$NIST ID=B6000467
##$NIST SOURCE=COBLENTZ
##$NIST IMAGE=cob467
##SPECTROMETER/DATA SYSTEM=Not specified, most likely a prism, grating, or hybrid spectrometer.
##STATE=SOLID (NUJOL MULL)
##PATH LENGTH=
$$SPECTRAL CONTAMINATION DUE TO OIL AROUND 2900, 1450, 1380 CM^-^1
##SAMPLING PROCEDURE=TRANSMISSION
##RESOLUTION=4
##DATA PROCESSING=DIGITIZED BY NIST FROM HARD COPY
##XUNITS=MICROMETERS
##YUNITS=TRANSMITTANCE
##XFACTOR=1.000000
##YFACTOR=1
##DELTAX=000.006790
##FIRSTX=2.029
##LASTX=15.9965
##FIRSTY=0.618
##MAXX=15.9965
##MINX=2.029
##MAXY=0.986
##MINY=0.065
##NPOINTS=2058
##XYDATA=(X++(Y..Y))
2.029000 0.6180 0.6210 0.6210 0.6250 0.6260
2.062967 0.6280 0.6310 0.6330 0.6350 0.6360
2.097000 0.6380 0.6400 0.6420 0.6430 0.6450
2.130967 0.6450 0.6470 0.6480 0.6480 0.6500
2.165000 0.6500 0.6520 0.6540 0.6540 0.6570
2.198967 0.6570 0.6590 0.6590 0.6590 0.6590
2.233000 0.6600 0.6600 0.6600 0.6600 0.6620
2.266967 0.6620 0.6620 0.6620 0.6640 0.6660
2.301000 0.6660 0.6670 0.6690 0.6710 0.6710
2.334967 0.6740 0.6740 0.6760 0.6780 0.6780
2.369000 0.6790 0.6810 0.6830 0.6860 0.6860
2.402967 0.6880 0.6900 0.6910 0.6930 0.6950
2.436000 0.6960 0.6960 0.6980 0.6980 0.6980
2.469967 0.7000 0.7020 0.7030 0.7030 0.7050
2.504000 0.7070 0.7080 0.7080 0.7100 0.7140
2.537967 0.7150 0.7170 0.7190 0.7200 0.7220
2.572000 0.7240 0.7240 0.7260 0.7290 0.7310
2.605967 0.7320 0.7340 0.7340 0.7360 0.7380
2.640000 0.7390 0.7410 0.7440 0.7460 0.7480
2.673967 0.7500 0.7510 0.7530 0.7550 0.7550
2.708000 0.7550 0.7550 0.7550 0.7530 0.7510
2.741967 0.7480 0.7430 0.7340 0.7260 0.6740
2.776000 0.6260 0.6070 0.6010 0.5850 0.5390
2.809967 0.4890 0.4790 0.4650 0.4500 0.4190
2.844000 0.4090 0.3980 0.3930 0.3920 0.3900
2.877967 0.3920 0.3930 0.4020 0.4040 0.4140
2.912000 0.4170 0.4290 0.4480 0.4580 0.4690
2.945967 0.4790 0.4880 0.5000 0.5080 0.5200
2.980000 0.5300 0.5370 0.5410 0.5530 0.5680
3.013967 0.5800 0.5890 0.5990 0.6020 0.6090
3.048000 0.6160 0.6210 0.6280 0.6330 0.6400
3.081967 0.6470 0.6540 0.6570 0.6620 0.6690
3.115000 0.6760 0.6810 0.6860 0.6910 0.6930
3.148967 0.6980 0.7000 0.7030 0.7050 0.7100
3.183000 0.7150 0.7170 0.7220 0.7260 0.7270
3.216967 0.7270 0.7290 0.7290 0.7270 0.7270
3.251000 0.7260 0.7240 0.7220 0.7190 0.7020
3.284967 0.6840 0.6720 0.6060 0.5270 0.5130
3.319000 0.4020 0.3400 0.2650 0.2270 0.2000
3.352967 0.1950 0.1950 0.1950 0.1980 0.2030
3.387000 0.2100 0.2360 0.2700 0.2840 0.2970
3.420967 0.2970 0.2960 0.2910 0.2870 0.2840
3.455000 0.2870 0.3610 0.3980 0.4570 0.5970
3.488967 0.6930 0.7080 0.7440 0.7670 0.7850
3.523000 0.8040 0.8110 0.8280 0.8320 0.8400
3.556967 0.8450 0.8510 0.8540 0.8560 0.8570
3.591000 0.8630 0.8640 0.8690 0.8730 0.8730
3.624967 0.8750 0.8760 0.8760 0.8760 0.8780
3.659000 0.8780 0.8800 0.8800 0.8800 0.8800
3.692967 0.8810 0.8830 0.8830 0.8830 0.8850
3.727000 0.8860 0.8880 0.8900 0.8900 0.8930
3.760967 0.8950 0.8950 0.8970 0.8980 0.9000
3.794000 0.9000 0.9000 0.9020 0.9020 0.9020
3.827967 0.9020 0.9040 0.9040 0.9040 0.9040
3.862000 0.9040 0.9050 0.9050 0.9050 0.9050
3.895967 0.9050 0.9050 0.9050 0.9050 0.9070
3.930000 0.9090 0.9090 0.9100 0.9120 0.9120
3.963967 0.9140 0.9160 0.9160 0.9160 0.9160
3.998000 0.9160 0.9160 0.9140 0.9140 0.9140
4.031967 0.9140 0.9140 0.9160 0.9160 0.9160
4.066000 0.9160 0.9160 0.9160 0.9160 0.9140
4.099967 0.9140 0.9120 0.9120 0.9120 0.9120
4.134000 0.9120 0.9140 0.9120 0.9120 0.9120
4.167967 0.9100 0.9090 0.9090 0.9090 0.9090
4.202000 0.9090 0.9070 0.9070 0.9070 0.9090
4.235967 0.9090 0.9090 0.9090 0.9090 0.9090
4.270000 0.9090 0.9090 0.9090 0.9070 0.9070
4.303967 0.9070 0.9070 0.9070 0.9090 0.9090
4.338000 0.9090 0.9090 0.9090 0.9090 0.9090
4.371967 0.9100 0.9100 0.9100 0.9100 0.9100
4.406000 0.9120 0.9120 0.9120 0.9140 0.9140
4.439967 0.9160 0.9170 0.9170 0.9170 0.9170
4.473000 0.9190 0.9220 0.9240 0.9260 0.9280
4.506967 0.9280 0.9280 0.9290 0.9290 0.9290
4.541000 0.9290 0.9280 0.9280 0.9240 0.9240
4.574967 0.9240 0.9220 0.9220 0.9220 0.9210
4.609000 0.9210 0.9210 0.9210 0.9220 0.9220
4.642967 0.9220 0.9220 0.9210 0.9190 0.9190
4.677000 0.9190 0.9190 0.9190 0.9190 0.9210
4.710967 0.9210 0.9190 0.9190 0.9160 0.9160
4.745000 0.9160 0.9170 0.9170 0.9190 0.9210
4.778967 0.9210 0.9210 0.9210 0.9210 0.9190
4.813000 0.9190 0.9190 0.9190 0.9190 0.9190
4.846967 0.9210 0.9220 0.9220 0.9220 0.9240
4.881000 0.9260 0.9260 0.9280 0.9290 0.9290
4.914967 0.9290 0.9290 0.9280 0.9280 0.9280
4.949000 0.9280 0.9280 0.9280 0.9280 0.9280
4.982967 0.9290 0.9290 0.9290 0.9290 0.9330
5.017000 0.9340 0.9340 0.9340 0.9340 0.9360
5.050967 0.9360 0.9360 0.9380 0.9380 0.9360
5.085000 0.9360 0.9360 0.9360 0.9380 0.9400
5.118967 0.9400 0.9410 0.9410 0.9430 0.9430
5.152000 0.9450 0.9450 0.9460 0.9460 0.9460
5.185967 0.9480 0.9480 0.9480 0.9460 0.9460
5.220000 0.9480 0.9480 0.9480 0.9480 0.9480
5.253967 0.9480 0.9480 0.9480 0.9480 0.9460
5.288000 0.9460 0.9460 0.9450 0.9430 0.9430
5.321967 0.9430 0.9430 0.9430 0.9430 0.9430
5.356000 0.9430 0.9430 0.9430 0.9450 0.9450
5.389967 0.9450 0.9460 0.9460 0.9450 0.9450
5.424000 0.9430 0.9430 0.9430 0.9430 0.9430
5.457967 0.9430 0.9430 0.9450 0.9450 0.9450
5.492000 0.9430 0.9430 0.9430 0.9430 0.9450
5.525967 0.9450 0.9450 0.9460 0.9460 0.9480
5.560000 0.9480 0.9500 0.9500 0.9520 0.9520
5.593967 0.9520 0.9530 0.9550 0.9550 0.9550
5.628000 0.9570 0.9570 0.9570 0.9580 0.9600
5.661967 0.9640 0.9640 0.9650 0.9670 0.9690
5.696000 0.9700 0.9720 0.9740 0.9740 0.9760
5.729967 0.9770 0.9770 0.9760 0.9770 0.9790
5.764000 0.9790 0.9810 0.9810 0.9820 0.9820
5.797967 0.9840 0.9820 0.9840 0.9820 0.9820
5.831000 0.9820 0.9820 0.9820 0.9820 0.9840
5.864967 0.9860 0.9860 0.9840 0.9840 0.9820
5.899000 0.9820 0.9820 0.9820 0.9810 0.9790
5.932967 0.9760 0.9740 0.9720 0.9720 0.9700
5.967000 0.9690 0.9650 0.9620 0.9600 0.9530
6.000967 0.9460 0.9310 0.9070 0.8640 0.8350
6.035000 0.8030 0.7390 0.5900 0.4480 0.4450
6.068967 0.4430 0.4460 0.4810 0.5000 0.5150
6.103000 0.5000 0.4810 0.4600 0.4520 0.4310
6.136967 0.4290 0.4330 0.4880 0.5050 0.5890
6.171000 0.6520 0.6790 0.7220 0.7750 0.8490
6.204967 0.8680 0.8760 0.8810 0.8970 0.9040
6.239000 0.9090 0.9140 0.9170 0.9210 0.9210
6.272967 0.9220 0.9240 0.9240 0.9260 0.9260
6.307000 0.9260 0.9260 0.9260 0.9280 0.9290
6.340967 0.9330 0.9330 0.9340 0.9340 0.9340
6.375000 0.9340 0.9340 0.9340 0.9360 0.9360
6.408967 0.9400 0.9410 0.9430 0.9430 0.9450
6.443000 0.9460 0.9460 0.9460 0.9460 0.9460
6.476967 0.9450 0.9450 0.9450 0.9450 0.9430
6.510000 0.9430 0.9450 0.9460 0.9480 0.9480
6.543967 0.9500 0.9500 0.9500 0.9480 0.9460
6.578000 0.9460 0.9480 0.9480 0.9520 0.9530
6.611967 0.9550 0.9550 0.9530 0.9530 0.9520
6.646000 0.9520 0.9520 0.9500 0.9480 0.9460
6.679967 0.9430 0.9400 0.9330 0.9280 0.9210
6.714000 0.9170 0.9120 0.9050 0.8950 0.8850
6.747967 0.8690 0.8510 0.8200 0.8030 0.7270
6.782000 0.7080 0.6880 0.6760 0.6600 0.6500
6.815967 0.6450 0.6430 0.6430 0.6480 0.6540
6.850000 0.6640 0.6740 0.6830 0.6900 0.7070
6.883967 0.7260 0.7410 0.7560 0.7670 0.7960
6.918000 0.8080 0.8180 0.8270 0.8400 0.8560
6.951967 0.8680 0.8760 0.8860 0.8950 0.9000
6.986000 0.9000 0.9050 0.9050 0.9070 0.9070
7.019967 0.9070 0.9070 0.9070 0.9070 0.9070
7.054000 0.9050 0.9050 0.9040 0.9000 0.8980
7.087967 0.8950 0.8900 0.8860 0.8800 0.8660
7.122000 0.8590 0.8400 0.8270 0.8180 0.8030
7.155967 0.7890 0.7750 0.7600 0.7430 0.7360
7.190000 0.7190 0.6810 0.6660 0.6620 0.6640
7.223967 0.6670 0.6780 0.6910 0.7030 0.7220
7.257000 0.7260 0.7380 0.7500 0.7600 0.7720
7.290967 0.7840 0.7960 0.8030 0.8090 0.8150
7.325000 0.8200 0.8250 0.8300 0.8370 0.8440
7.358967 0.8540 0.8570 0.8630 0.8640 0.8660
7.393000 0.8660 0.8710 0.8730 0.8750 0.8760
7.426967 0.8780 0.8810 0.8830 0.8860 0.8880
7.461000 0.8900 0.8920 0.8950 0.8950 0.8970
7.494967 0.8970 0.8980 0.8980 0.8980 0.9000
7.529000 0.9000 0.9000 0.9020 0.9020 0.9020
7.562967 0.9040 0.9040 0.9040 0.9050 0.9050
7.597000 0.9070 0.9070 0.9100 0.9120 0.9120
7.630967 0.9120 0.9140 0.9140 0.9140 0.9160
7.665000 0.9160 0.9160 0.9160 0.9160 0.9170
7.698967 0.9170 0.9190 0.9190 0.9210 0.9210
7.733000 0.9240 0.9260 0.9260 0.9280 0.9290
7.766967 0.9310 0.9310 0.9330 0.9330 0.9340
7.801000 0.9360 0.9380 0.9380 0.9380 0.9380
7.834967 0.9400 0.9410 0.9430 0.9450 0.9450
7.869000 0.9460 0.9480 0.9480 0.9500 0.9520
7.902967 0.9530 0.9530 0.9550 0.9570 0.9570
7.936000 0.9580 0.9580 0.9580 0.9580 0.9600
7.969967 0.9600 0.9600 0.9600 0.9600 0.9580
8.004000 0.9600 0.9600 0.9620 0.9620 0.9620
8.037967 0.9640 0.9640 0.9640 0.9650 0.9650
8.072000 0.9650 0.9670 0.9670 0.9670 0.9670
8.105967 0.9690 0.9690 0.9700 0.9700 0.9700
8.140000 0.9700 0.9700 0.9700 0.9720 0.9700
8.173967 0.9700 0.9700 0.9720 0.9720 0.9720
8.208000 0.9720 0.9700 0.9690 0.9690 0.9690
8.241967 0.9690 0.9690 0.9670 0.9670 0.9670
8.276000 0.9690 0.9690 0.9690 0.9690 0.9690
8.309967 0.9690 0.9690 0.9690 0.9690 0.9670
8.344000 0.9670 0.9670 0.9650 0.9650 0.9650
8.377967 0.9650 0.9650 0.9650 0.9670 0.9670
8.412000 0.9650 0.9650 0.9650 0.9650 0.9650
8.445967 0.9650 0.9640 0.9640 0.9640 0.9640
8.480000 0.9640 0.9640 0.9600 0.9600 0.9600
8.513967 0.9600 0.9600 0.9600 0.9600 0.9600
8.548000 0.9600 0.9600 0.9600 0.9580 0.9570
8.581967 0.9570 0.9570 0.9570 0.9550 0.9550
8.615000 0.9550 0.9550 0.9550 0.9530 0.9530
8.648967 0.9530 0.9530 0.9530 0.9530 0.9530
8.683000 0.9530 0.9530 0.9530 0.9530 0.9530
8.716967 0.9550 0.9550 0.9550 0.9550 0.9550
8.751000 0.9550 0.9550 0.9530 0.9530 0.9530
8.784967 0.9530 0.9520 0.9520 0.9520 0.9520
8.819000 0.9500 0.9500 0.9500 0.9500 0.9500
8.852967 0.9500 0.9480 0.9480 0.9480 0.9480
8.887000 0.9480 0.9480 0.9480 0.9480 0.9480
8.920967 0.9480 0.9460 0.9460 0.9460 0.9460
8.955000 0.9460 0.9480 0.9480 0.9480 0.9480
8.988967 0.9460 0.9480 0.9480 0.9480 0.9480
9.023000 0.9480 0.9480 0.9480 0.9480 0.9460
9.056967 0.9460 0.9460 0.9460 0.9480 0.9460
9.091000 0.9460 0.9460 0.9460 0.9480 0.9480
9.124967 0.9480 0.9460 0.9460 0.9460 0.9460
9.159000 0.9460 0.9460 0.9460 0.9460 0.9460
9.192967 0.9480 0.9500 0.9500 0.9500 0.9500
9.227000 0.9500 0.9500 0.9500 0.9500 0.9500
9.260967 0.9520 0.9520 0.9500 0.9500 0.9480
9.294000 0.9480 0.9480 0.9480 0.9480 0.9460
9.327967 0.9460 0.9460 0.9460 0.9460 0.9460
9.362000 0.9460 0.9460 0.9460 0.9460 0.9460
9.395967 0.9450 0.9500 0.9500 0.9500 0.9500
9.430000 0.9500 0.9500 0.9500 0.9500 0.9480
9.463967 0.9480 0.9480 0.9480 0.9480 0.9480
9.498000 0.9480 0.9480 0.9500 0.9480 0.9480
9.531967 0.9480 0.9480 0.9480 0.9480 0.9500
9.566000 0.9500 0.9500 0.9500 0.9500 0.9500
9.599967 0.9480 0.9480 0.9460 0.9460 0.9450
9.634000 0.9450 0.9450 0.9430 0.9430 0.9430
9.667967 0.9430 0.9430 0.9410 0.9410 0.9410
9.702000 0.9400 0.9400 0.9380 0.9380 0.9360
9.735967 0.9340 0.9330 0.9330 0.9310 0.9310
9.770000 0.9290 0.9280 0.9280 0.9260 0.9260
9.803967 0.9220 0.9210 0.9190 0.9190 0.9190
9.838000 0.9190 0.9190 0.9170 0.9160 0.9140
9.871967 0.9100 0.9070 0.9070 0.9070 0.9050
9.906000 0.9040 0.9040 0.9040 0.9020 0.9000
9.939967 0.8980 0.8970 0.8950 0.8930 0.8920
9.973000 0.8920 0.8900 0.8900 0.8900 0.8880
10.006967 0.8860 0.8860 0.8860 0.8830 0.8810
10.041000 0.8780 0.8760 0.8730 0.8680 0.8630
10.074967 0.8540 0.8490 0.8420 0.8350 0.8270
10.109000 0.8180 0.8060 0.7990 0.7910 0.7790
10.142967 0.7670 0.7550 0.7430 0.7290 0.7240
10.177000 0.7200 0.6930 0.6550 0.6430 0.6280
10.210967 0.6060 0.5850 0.5700 0.5460 0.5290
10.245000 0.5100 0.4690 0.4410 0.4280 0.4040
10.278967 0.3800 0.3560 0.3510 0.3280 0.3160
10.313000 0.3010 0.2840 0.2670 0.2510 0.2380
10.346967 0.2200 0.2070 0.1910 0.1830 0.1740
10.381000 0.1720 0.1620 0.1550 0.1470 0.1430
10.414967 0.1360 0.1350 0.1310 0.1280 0.1250
10.449000 0.1210 0.1160 0.1140 0.1130 0.1070
10.482967 0.1060 0.1040 0.1020 0.0990 0.0990
10.517000 0.0950 0.0940 0.0920 0.0900 0.0870
10.550967 0.0850 0.0830 0.0780 0.0770 0.0750
10.585000 0.0750 0.0730 0.0710 0.0700 0.0710
10.618967 0.0700 0.0700 0.0700 0.0680 0.0680
10.652000 0.0680 0.0660 0.0660 0.0660 0.0660
10.685967 0.0650 0.0650 0.0660 0.0660 0.0680
10.720000 0.0710 0.0730 0.0750 0.0780 0.0830
10.753967 0.0920 0.1090 0.1210 0.1310 0.1430
10.788000 0.1600 0.1980 0.2320 0.2730 0.2840
10.821967 0.3040 0.3230 0.3320 0.3420 0.3570
10.856000 0.3760 0.3930 0.4050 0.4140 0.4280
10.889967 0.4450 0.4580 0.4760 0.4840 0.4930
10.924000 0.4960 0.4960 0.4940 0.4930 0.4860
10.957967 0.4810 0.4740 0.4650 0.4290 0.4160
10.992000 0.4000 0.3950 0.3950 0.3970 0.4140
11.025967 0.4330 0.4500 0.4600 0.4700 0.4880
11.060000 0.4960 0.5080 0.5220 0.5350 0.5460
11.093967 0.5560 0.5560 0.5490 0.5440 0.5320
11.128000 0.5100 0.5000 0.4650 0.4480 0.4400
11.161967 0.4210 0.4040 0.3880 0.3760 0.3660
11.196000 0.3520 0.3390 0.3210 0.3080 0.2960
11.229967 0.2850 0.2730 0.2700 0.2720 0.2820
11.264000 0.3320 0.3610 0.3710 0.3830 0.4040
11.297967 0.4720 0.4820 0.5060 0.5370 0.5530
11.331000 0.5710 0.6010 0.6180 0.6350 0.6450
11.364967 0.6620 0.6780 0.6880 0.7000 0.7190
11.399000 0.7290 0.7360 0.7410 0.7480 0.7510
11.432967 0.7550 0.7560 0.7630 0.7700 0.7730
11.467000 0.7770 0.7800 0.7850 0.7890 0.7940
11.500967 0.8010 0.8040 0.8060 0.8080 0.8130
11.535000 0.8160 0.8160 0.8180 0.8230 0.8270
11.568967 0.8300 0.8320 0.8330 0.8330 0.8370
11.603000 0.8400 0.8440 0.8450 0.8470 0.8490
11.636967 0.8520 0.8520 0.8540 0.8560 0.8570
11.671000 0.8590 0.8610 0.8640 0.8660 0.8660
11.704967 0.8680 0.8690 0.8710 0.8730 0.8730
11.739000 0.8750 0.8750 0.8760 0.8780 0.8780
11.772967 0.8800 0.8810 0.8810 0.8830 0.8850
11.807000 0.8860 0.8860 0.8860 0.8880 0.8880
11.840967 0.8880 0.8880 0.8880 0.8880 0.8880
11.875000 0.8900 0.8900 0.8900 0.8900 0.8900
11.908967 0.8880 0.8860 0.8860 0.8860 0.8880
11.943000 0.8880 0.8900 0.8900 0.8920 0.8920
11.976967 0.8920 0.8930 0.8920 0.8920 0.8920
12.010000 0.8920 0.8900 0.8900 0.8900 0.8880
12.043967 0.8880 0.8880 0.8880 0.8900 0.8920
12.078000 0.8920 0.8920 0.8900 0.8860 0.8850
12.111967 0.8830 0.8810 0.8810 0.8810 0.8810
12.146000 0.8800 0.8800 0.8780 0.8780 0.8780
12.179967 0.8780 0.8760 0.8750 0.8730 0.8730
12.214000 0.8710 0.8690 0.8690 0.8680 0.8680
12.247967 0.8680 0.8660 0.8640 0.8630 0.8570
12.282000 0.8560 0.8540 0.8510 0.8470 0.8450
12.315967 0.8400 0.8370 0.8350 0.8320 0.8320
12.350000 0.8280 0.8250 0.8180 0.8130 0.8080
12.383967 0.8030 0.8030 0.7920 0.7870 0.7820
12.418000 0.7770 0.7720 0.7650 0.7580 0.7550
12.451967 0.7440 0.7390 0.7290 0.7240 0.7150
12.486000 0.7080 0.7020 0.6950 0.6840 0.6780
12.519967 0.6690 0.6620 0.6470 0.6350 0.6300
12.554000 0.6230 0.6130 0.6020 0.5920 0.5830
12.587967 0.5770 0.5630 0.5540 0.5440 0.5320
12.622000 0.5270 0.5200 0.5110 0.5030 0.4890
12.655967 0.4810 0.4690 0.4620 0.4550 0.4400
12.690000 0.4310 0.4240 0.4120 0.4050 0.4000
12.723967 0.3900 0.3860 0.3830 0.3760 0.3760
12.757000 0.3750 0.3710 0.3690 0.3690 0.3680
12.790967 0.3690 0.3690 0.3690 0.3690 0.3710
12.825000 0.3730 0.3760 0.3810 0.3850 0.3950
12.858967 0.4000 0.4050 0.4120 0.4170 0.4220
12.893000 0.4290 0.4360 0.4430 0.4520 0.4550
12.926967 0.4570 0.4600 0.4600 0.4620 0.4620
12.961000 0.4620 0.4620 0.4600 0.4580 0.4570
12.994967 0.4530 0.4500 0.4460 0.4410 0.4400
13.029000 0.4330 0.4280 0.4210 0.4170 0.4090
13.062967 0.4040 0.4000 0.3920 0.3850 0.3800
13.097000 0.3750 0.3680 0.3610 0.3540 0.3450
13.130967 0.3370 0.3280 0.3230 0.3180 0.3080
13.165000 0.3030 0.2910 0.2840 0.2790 0.2730
13.198967 0.2670 0.2580 0.2550 0.2510 0.2460
13.233000 0.2430 0.2340 0.2270 0.2190 0.2150
13.266967 0.2100 0.2030 0.2000 0.1950 0.1900
13.301000 0.1840 0.1780 0.1720 0.1690 0.1670
13.334967 0.1660 0.1640 0.1600 0.1570 0.1550
13.369000 0.1540 0.1480 0.1470 0.1430 0.1380
13.402967 0.1350 0.1350 0.1330 0.1330 0.1300
13.436000 0.1280 0.1260 0.1250 0.1250 0.1230
13.469967 0.1230 0.1210 0.1190 0.1190 0.1190
13.504000 0.1180 0.1180 0.1180 0.1180 0.1180
13.537967 0.1190 0.1190 0.1180 0.1180 0.1190
13.572000 0.1190 0.1190 0.1190 0.1210 0.1230
13.605967 0.1250 0.1260 0.1280 0.1300 0.1330
13.640000 0.1350 0.1380 0.1420 0.1430 0.1470
13.673967 0.1480 0.1500 0.1520 0.1520 0.1520
13.708000 0.1540 0.1590 0.1640 0.1670 0.1740
13.741967 0.1790 0.1830 0.1860 0.1900 0.2000
13.776000 0.2020 0.2140 0.2200 0.2360 0.2430
13.809967 0.2510 0.2580 0.2650 0.2730 0.2800
13.844000 0.2940 0.3010 0.3110 0.3230 0.3320
13.877967 0.3420 0.3490 0.3540 0.3640 0.3710
13.912000 0.3780 0.3880 0.4020 0.4100 0.4160
13.945967 0.4210 0.4240 0.4310 0.4380 0.4480
13.980000 0.4550 0.4570 0.4640 0.4690 0.4740
14.013967 0.4810 0.4840 0.4880 0.4940 0.5010
14.048000 0.5050 0.5130 0.5200 0.5230 0.5290
14.081967 0.5340 0.5390 0.5420 0.5460 0.5510
14.115000 0.5530 0.5580 0.5590 0.5630 0.5660
14.148967 0.5700 0.5710 0.5750 0.5770 0.5800
14.183000 0.5820 0.5830 0.5850 0.5900 0.5920
14.216967 0.5950 0.5970 0.5990 0.6010 0.6040
14.251000 0.6040 0.6110 0.6130 0.6140 0.6160
14.284967 0.6180 0.6190 0.6210 0.6230 0.6230
14.319000 0.6250 0.6250 0.6260 0.6300 0.6310
14.352967 0.6330 0.6330 0.6350 0.6360 0.6380
14.387000 0.6380 0.6400 0.6420 0.6430 0.6450
14.420967 0.6450 0.6470 0.6480 0.6500 0.6500
14.455000 0.6500 0.6500 0.6520 0.6520 0.6520
14.488967 0.6520 0.6520 0.6540 0.6540 0.6550
14.523000 0.6550 0.6570 0.6590 0.6590 0.6590
14.556967 0.6590 0.6570 0.6570 0.6540 0.6540
14.591000 0.6540 0.6520 0.6520 0.6520 0.6520
14.624967 0.6540 0.6540 0.6540 0.6540 0.6520
14.659000 0.6520 0.6520 0.6480 0.6480 0.6500
14.692967 0.6500 0.6520 0.6520 0.6500 0.6480
14.727000 0.6480 0.6470 0.6450 0.6450 0.6450
14.760967 0.6430 0.6420 0.6420 0.6420 0.6420
14.794000 0.6420 0.6420 0.6430 0.6430 0.6430
14.827967 0.6450 0.6470 0.6470 0.6480 0.6470
14.862000 0.6450 0.6450 0.6450 0.6430 0.6400
14.895967 0.6360 0.6360 0.6350 0.6330 0.6330
14.930000 0.6300 0.6300 0.6280 0.6280 0.6260
14.963967 0.6260 0.6280 0.6300 0.6300 0.6300
14.998000 0.6300 0.6300 0.6310 0.6310 0.6300
15.031967 0.6300 0.6300 0.6300 0.6300 0.6280
15.066000 0.6280 0.6280 0.6280 0.6280 0.6300
15.099967 0.6300 0.6300 0.6300 0.6300 0.6300
15.134000 0.6300 0.6280 0.6260 0.6260 0.6260
15.167967 0.6260 0.6250 0.6250 0.6250 0.6250
15.202000 0.6230 0.6230 0.6230 0.6210 0.6210
15.235967 0.6190 0.6180 0.6180 0.6180 0.6160
15.270000 0.6160 0.6140 0.6140 0.6140 0.6160
15.303967 0.6160 0.6140 0.6140 0.6160 0.6160
15.338000 0.6160 0.6160 0.6160 0.6180 0.6180
15.371967 0.6180 0.6180 0.6160 0.6160 0.6160
15.406000 0.6140 0.6130 0.6130 0.6110 0.6110
15.439967 0.6110 0.6090 0.6060 0.6060 0.6060
15.473000 0.6060 0.6060 0.6060 0.6060 0.6070
15.506967 0.6110 0.6110 0.6110 0.6110 0.6110
15.541000 0.6070 0.6060 0.6070 0.6060 0.6060
15.574967 0.6060 0.6060 0.6040 0.6040 0.6040
15.609000 0.6040 0.6040 0.6040 0.6040 0.6040
15.642967 0.6040 0.6060 0.6060 0.6060 0.6060
15.677000 0.6060 0.6040 0.6040 0.6020 0.6040
15.710967 0.6040 0.6040 0.6040 0.6040 0.6060
15.745000 0.6060 0.6060 0.6060 0.6060 0.6070
15.778967 0.6060 0.6070 0.6090 0.6110 0.6130
15.813000 0.6130 0.6130 0.6110 0.6110 0.6130
15.846967 0.6130 0.6130 0.6130 0.6140 0.6140
15.881000 0.6130 0.6130 0.6140 0.6140 0.6140
15.914967 0.6160 0.6160 0.6160 0.6160 0.6160
15.949000 0.6160 0.6160 0.6180 0.6180 0.6180
15.982967 0.6190 0.6190 0.6190
##END=
