##TITLE=p-Hydrazinobenzoic acid hydrochloride
##JCAMP-DX=4.24
##DATA TYPE=INFRARED SPECTRUM
##CLASS=COBLENTZ III
##ORIGIN=DOW CHEMICAL COMPANY
##OWNER=COBLENTZ SOC.
Collection (C) 2018 copyright by the U.S. Secretary of Commerce
on behalf of the United States of America. All rights reserved.
##DATE=1965/08/30
##NAMES=4-hydrazinobenzoic acid hydrochloride
##MOLFORM=C7 H9 Cl N2 O2
##MP=247 C (DECOMPOSES)
##SOURCE REFERENCE=COBLENTZ NO. 07135
##$NIST ID=B6007135
##$NIST SOURCE=COBLENTZ
##$NIST IMAGE=cob7135
##SPECTROMETER/DATA SYSTEM=BECKMAN IR-9 (GRATING)
##INSTRUMENT PARAMETERS=ORDER CHANGES: 670, 1200, 2000 CM^-^1
##STATE=SOLID (SPLIT MULL), FLUOROLUBE FOR 3800-1330 CM^-^1, NUJOL FOR 1330-400 CM^-^1
##SAMPLING PROCEDURE=TRANSMISSION
##RESOLUTION=2
##DATA PROCESSING=DIGITIZED BY COBLENTZ SOCIETY (BATCH I) FROM HARD COPY
##XUNITS=1/CM
##YUNITS=TRANSMITTANCE
##XLABEL=Wavenumbers (cm-1)
##YLABEL=% Transmission
##XFACTOR=1
##YFACTOR=1
##DELTAX=1
##FIRSTX=401
##LASTX=3802
##FIRSTY=0.486
##MAXX=3802
##MINX=401
##MAXY=0.8534
##MINY=0.01
##NPOINTS=3402
##XYDATA=(X++(Y..Y))
401.000000 0.4860 0.4847 0.4829 0.4810 0.4804
406.000000 0.4805 0.4822 0.4843 0.4871 0.4898
411.000000 0.4931 0.4971 0.5010 0.5051 0.5092
416.000000 0.5128 0.5164 0.5200 0.5236 0.5273
421.000000 0.5335 0.5397 0.5459 0.5521 0.5590
426.000000 0.5664 0.5738 0.5812 0.5887 0.5964
431.000000 0.6040 0.6112 0.6180 0.6247 0.6314
436.000000 0.6368 0.6412 0.6458 0.6503 0.6548
441.000000 0.6586 0.6615 0.6647 0.6676 0.6708
446.000000 0.6738 0.6765 0.6780 0.6795 0.6811
451.000000 0.6825 0.6841 0.6856 0.6871 0.6876
456.000000 0.6882 0.6898 0.6898 0.6898 0.6887
461.000000 0.6875 0.6865 0.6825 0.6758 0.6692
466.000000 0.6551 0.6324 0.6141 0.5999 0.5919
471.000000 0.5838 0.5785 0.5741 0.5697 0.5650
476.000000 0.5601 0.5445 0.5216 0.4988 0.4760
481.000000 0.4531 0.4303 0.4231 0.4216 0.4430
486.000000 0.4760 0.5092 0.5422 0.5753 0.6084
491.000000 0.6415 0.6745 0.7047 0.7258 0.7418
496.000000 0.7476 0.7536 0.7586 0.7599 0.7612
501.000000 0.7658 0.7619 0.7618 0.7487 0.7304
506.000000 0.7119 0.6875 0.6880 0.6919 0.7021
511.000000 0.7125 0.7226 0.7342 0.7136 0.6861
516.000000 0.6588 0.6314 0.6040 0.5766 0.5492
521.000000 0.5402 0.5612 0.5815 0.6016 0.6217
526.000000 0.6418 0.6742 0.6743 0.6711 0.6233
531.000000 0.5755 0.5277 0.4799 0.4320 0.3842
536.000000 0.3364 0.2885 0.2641 0.2622 0.3492
541.000000 0.4215 0.4939 0.5662 0.6505 0.6711
546.000000 0.6885 0.7033 0.7186 0.7341 0.7424
551.000000 0.7491 0.7544 0.7581 0.7618 0.7649
556.000000 0.7665 0.7662 0.7658 0.7656 0.7667
561.000000 0.7707 0.7743 0.7781 0.7821 0.7857
566.000000 0.7886 0.7903 0.7917 0.7932 0.7946
571.000000 0.7960 0.7974 0.7978 0.7980 0.7969
576.000000 0.7958 0.7935 0.7912 0.7889 0.7865
581.000000 0.7840 0.7815 0.7784 0.7747 0.7708
586.000000 0.7656 0.7601 0.7549 0.7488 0.7425
591.000000 0.7361 0.7299 0.7212 0.7125 0.7019
596.000000 0.6758 0.6614 0.6468 0.6196 0.5825
601.000000 0.5652 0.5419 0.5088 0.4574 0.4060
606.000000 0.3547 0.3033 0.2519 0.2004 0.1491
611.000000 0.0976 0.0560 0.0552 0.0551 0.0560
616.000000 0.0515 0.1410 0.2092 0.2775 0.3457
621.000000 0.4139 0.4821 0.5503 0.6185 0.6867
626.000000 0.7367 0.7401 0.7354 0.6826 0.5943
631.000000 0.5059 0.4175 0.3292 0.2844 0.2811
636.000000 0.5960 0.7104 0.7275 0.7394 0.7537
641.000000 0.7730 0.7917 0.8026 0.8125 0.8200
646.000000 0.8274 0.8335 0.8365 0.8395 0.8420
651.000000 0.8437 0.8453 0.8462 0.8465 0.8509
656.000000 0.8471 0.8471 0.8468 0.8465 0.8461
661.000000 0.8453 0.8441 0.8430 0.8418 0.8406
666.000000 0.8389 0.8368 0.8350 0.8331 0.8304
671.000000 0.8271 0.8240 0.8208 0.8160 0.8111
676.000000 0.8062 0.8014 0.7962 0.7912 0.7862
681.000000 0.7812 0.7707 0.7590 0.7075 0.6468
686.000000 0.6122 0.6096 0.6073 0.5762 0.5035
691.000000 0.4307 0.3742 0.3890 0.4244 0.4597
696.000000 0.4950 0.5303 0.5657 0.6010 0.6362
701.000000 0.6717 0.6764 0.6751 0.6737 0.6710
706.000000 0.6569 0.6389 0.6208 0.6026 0.5845
711.000000 0.5662 0.5482 0.5301 0.5119 0.4931
716.000000 0.4617 0.4494 0.4399 0.4308 0.4149
721.000000 0.4000 0.3977 0.3956 0.3955 0.3954
726.000000 0.3968 0.3992 0.4028 0.4201 0.4410
731.000000 0.4618 0.4827 0.5036 0.5245 0.5453
736.000000 0.5662 0.5871 0.6080 0.6289 0.6497
741.000000 0.6706 0.6868 0.6949 0.7003 0.7050
746.000000 0.7080 0.7101 0.7186 0.7135 0.7132
751.000000 0.7125 0.7114 0.7097 0.7067 0.7032
756.000000 0.6982 0.6887 0.6675 0.6262 0.5851
761.000000 0.5439 0.5027 0.4615 0.4203 0.3791
766.000000 0.3379 0.3178 0.3171 0.3142 0.3280
771.000000 0.3427 0.3574 0.3721 0.3868 0.3866
776.000000 0.3866 0.3923 0.3432 0.3139 0.2847
781.000000 0.2554 0.2261 0.1968 0.1675 0.1475
786.000000 0.1325 0.1184 0.0926 0.0803 0.0745
791.000000 0.0734 0.0725 0.0768 0.0820 0.1050
796.000000 0.1334 0.1618 0.1902 0.2185 0.2470
801.000000 0.2754 0.3038 0.3200 0.3291 0.3407
806.000000 0.3509 0.3607 0.3703 0.3864 0.3987
811.000000 0.4039 0.4060 0.4046 0.4032 0.4014
816.000000 0.3974 0.3918 0.3859 0.3770 0.3639
821.000000 0.3528 0.3434 0.3390 0.3387 0.3336
826.000000 0.3391 0.3400 0.3418 0.3472 0.3573
831.000000 0.3940 0.4224 0.4419 0.4604 0.4795
836.000000 0.4992 0.5173 0.5290 0.5407 0.5516
841.000000 0.5610 0.5667 0.5700 0.5757 0.5497
846.000000 0.5404 0.5217 0.5196 0.5190 0.5222
851.000000 0.5266 0.4982 0.4666 0.4351 0.4034
856.000000 0.3720 0.3404 0.3088 0.2773 0.2457
861.000000 0.2141 0.1826 0.1372 0.1353 0.1346
866.000000 0.1345 0.1344 0.1353 0.1448 0.1770
871.000000 0.2091 0.2413 0.2734 0.3056 0.3378
876.000000 0.3700 0.4022 0.4343 0.4665 0.4881
881.000000 0.5023 0.5192 0.5345 0.5490 0.5681
886.000000 0.5881 0.6044 0.6201 0.6312 0.6394
891.000000 0.6475 0.6545 0.6606 0.6667 0.6721
896.000000 0.6764 0.6806 0.6849 0.6891 0.6922
901.000000 0.6954 0.6983 0.6998 0.7014 0.7028
906.000000 0.7038 0.7048 0.7058 0.7068 0.7076
911.000000 0.7085 0.7092 0.7099 0.7106 0.7111
916.000000 0.7115 0.7119 0.7125 0.7128 0.7133
921.000000 0.7160 0.7193 0.7225 0.7237 0.7247
926.000000 0.7256 0.7265 0.7274 0.7284 0.7293
931.000000 0.7301 0.7310 0.7315 0.7322 0.7328
936.000000 0.7335 0.7342 0.7349 0.7356 0.7362
941.000000 0.7369 0.7382 0.7400 0.7418 0.7435
946.000000 0.7453 0.7468 0.7482 0.7496 0.7510
951.000000 0.7531 0.7487 0.7471 0.7444 0.7095
956.000000 0.6599 0.6000 0.6029 0.6194 0.6807
961.000000 0.7419 0.7540 0.7587 0.7632 0.7668
966.000000 0.7696 0.7710 0.7719 0.7730 0.7756
971.000000 0.7736 0.7730 0.7705 0.7611 0.7439
976.000000 0.7321 0.7306 0.7314 0.7283 0.7640
981.000000 0.7751 0.7812 0.7861 0.7891 0.7919
986.000000 0.7932 0.7941 0.7951 0.7957 0.7956
991.000000 0.7954 0.7951 0.7962 0.7948 0.7944
996.000000 0.7941 0.7937 0.7933 0.7930 0.7921
1001.000000 0.7911 0.7900 0.7889 0.7878 0.7862
1006.000000 0.7848 0.7833 0.7818 0.7791 0.7749
1011.000000 0.7707 0.7665 0.7611 0.7544 0.7475
1016.000000 0.6745 0.6457 0.6383 0.6484 0.6926
1021.000000 0.7376 0.7534 0.7665 0.7782 0.7818
1026.000000 0.7825 0.7815 0.7815 0.7815 0.7800
1031.000000 0.7785 0.7769 0.7751 0.7725 0.7698
1036.000000 0.7642 0.7568 0.7471 0.7247 0.6561
1041.000000 0.5886 0.5766 0.5725 0.5891 0.6326
1046.000000 0.6526 0.6653 0.6778 0.6898 0.7015
1051.000000 0.7165 0.7250 0.7297 0.7341 0.7378
1056.000000 0.7415 0.7443 0.7465 0.7478 0.7493
1061.000000 0.7498 0.7511 0.7501 0.7500 0.7499
1066.000000 0.7499 0.7498 0.7497 0.7495 0.7488
1071.000000 0.7481 0.7474 0.7468 0.7461 0.7454
1076.000000 0.7444 0.7433 0.7421 0.7408 0.7398
1081.000000 0.7386 0.7374 0.7358 0.7339 0.7319
1086.000000 0.7300 0.7276 0.7247 0.7218 0.7188
1091.000000 0.7155 0.7110 0.7065 0.7019 0.6968
1096.000000 0.6918 0.6867 0.6817 0.6762 0.6675
1101.000000 0.6587 0.6449 0.6282 0.6127 0.6017
1106.000000 0.5944 0.5888 0.5855 0.5822 0.5789
1111.000000 0.5762 0.5739 0.5715 0.5678 0.5624
1116.000000 0.5562 0.5451 0.4795 0.4162 0.3532
1121.000000 0.2900 0.2268 0.0958 0.1004 0.1070
1126.000000 0.1986 0.2904 0.3822 0.4521 0.4683
1131.000000 0.5428 0.5652 0.5860 0.5990 0.6100
1136.000000 0.6159 0.6218 0.6240 0.6254 0.6252
1141.000000 0.6283 0.6219 0.6199 0.6153 0.6094
1146.000000 0.5971 0.5819 0.5667 0.5514 0.5362
1151.000000 0.5210 0.5058 0.4906 0.4754 0.4601
1156.000000 0.4449 0.4297 0.4145 0.3993 0.3840
1161.000000 0.3688 0.3536 0.3384 0.3230 0.3063
1166.000000 0.2970 0.2867 0.2776 0.2726 0.2714
1171.000000 0.2671 0.2709 0.2738 0.2826 0.2942
1176.000000 0.3070 0.3275 0.3389 0.3468 0.3539
1181.000000 0.3575 0.3609 0.3680 0.3632 0.3618
1186.000000 0.3591 0.3548 0.3484 0.3245 0.2984
1191.000000 0.2724 0.2464 0.2204 0.1944 0.1683
1196.000000 0.1423 0.1163 0.0754 0.0660 0.0726
1201.000000 0.0806 0.1067 0.1359 0.1789 0.2037
1206.000000 0.2140 0.2167 0.2275 0.1984 0.1795
1211.000000 0.1594 0.1379 0.1161 0.0999 0.0849
1216.000000 0.0690 0.0404 0.0351 0.0333 0.0296
1221.000000 0.0344 0.0380 0.0442 0.0535 0.0764
1226.000000 0.1022 0.1227 0.1430 0.1654 0.1670
1231.000000 0.1729 0.1675 0.1624 0.1502 0.1353
1236.000000 0.1263 0.1173 0.1049 0.0742 0.0685
1241.000000 0.0658 0.0664 0.0670 0.0682 0.0666
1246.000000 0.0712 0.0732 0.0765 0.0808 0.0854
1251.000000 0.0936 0.1083 0.1220 0.1854 0.2295
1256.000000 0.2658 0.3021 0.3382 0.3904 0.4058
1261.000000 0.4210 0.4446 0.4696 0.4927 0.5155
1266.000000 0.5408 0.5691 0.5876 0.6038 0.6137
1271.000000 0.6230 0.6303 0.6343 0.6362 0.6384
1276.000000 0.6404 0.6424 0.6450 0.6432 0.6431
1281.000000 0.6430 0.6419 0.6403 0.6360 0.6310
1286.000000 0.6260 0.6186 0.6110 0.6049 0.5987
1291.000000 0.5925 0.5877 0.5836 0.5795 0.5769
1296.000000 0.5757 0.5740 0.5710 0.5669 0.5625
1301.000000 0.5585 0.5554 0.5537 0.5571 0.5575
1306.000000 0.5652 0.5732 0.5838 0.5994 0.6186
1311.000000 0.6359 0.6441 0.6458 0.6461 0.6461
1316.000000 0.6461 0.6453 0.6444 0.6391 0.5846
1321.000000 0.5300 0.4754 0.4208 0.3662 0.3117
1326.000000 0.2752 0.2758 0.2985 0.3418 0.3850
1331.000000 0.4282 0.4714 0.5147 0.5326 0.5342
1336.000000 0.5359 0.5365 0.5370 0.5374 0.5374
1341.000000 0.5374 0.5375 0.5376 0.5378 0.5381
1346.000000 0.5383 0.5397 0.5419 0.5454 0.5510
1351.000000 0.5637 0.5685 0.5698 0.5712 0.5725
1356.000000 0.5725 0.5725 0.5724 0.5712 0.5704
1361.000000 0.5691 0.5665 0.5627 0.5573 0.5519
1366.000000 0.5460 0.5402 0.5339 0.5272 0.5167
1371.000000 0.5046 0.4967 0.4888 0.4768 0.4600
1376.000000 0.4470 0.4336 0.4182 0.4020 0.3839
1381.000000 0.3662 0.3494 0.3322 0.3010 0.2674
1386.000000 0.2331 0.1989 0.1646 0.1305 0.1012
1391.000000 0.0918 0.0714 0.0644 0.0631 0.0621
1396.000000 0.0602 0.0652 0.0791 0.1273 0.1754
1401.000000 0.2234 0.2717 0.3198 0.3679 0.4160
1406.000000 0.4642 0.5123 0.5605 0.5907 0.5909
1411.000000 0.5912 0.5883 0.5609 0.5217 0.4826
1416.000000 0.4434 0.4042 0.3650 0.3259 0.2867
1421.000000 0.2475 0.2084 0.1740 0.1634 0.1608
1426.000000 0.1606 0.1704 0.1579 0.2612 0.3065
1431.000000 0.3518 0.3972 0.4425 0.4720 0.4924
1436.000000 0.5170 0.5381 0.5579 0.5666 0.5754
1441.000000 0.5841 0.5934 0.6032 0.6129 0.6217
1446.000000 0.6301 0.6345 0.6383 0.6401 0.6410
1451.000000 0.6405 0.6425 0.6430 0.6419 0.6404
1456.000000 0.6374 0.6338 0.6302 0.6260 0.6218
1461.000000 0.6171 0.6116 0.6060 0.6009 0.5958
1466.000000 0.5900 0.5839 0.5779 0.5718 0.5657
1471.000000 0.5595 0.5504 0.5412 0.5289 0.5135
1476.000000 0.5045 0.4955 0.4698 0.3798 0.3637
1481.000000 0.3491 0.3364 0.3241 0.3119 0.2984
1486.000000 0.2831 0.2725 0.2658 0.2647 0.2644
1491.000000 0.2658 0.2825 0.3010 0.3195 0.3380
1496.000000 0.3566 0.3750 0.3936 0.4122 0.4307
1501.000000 0.4492 0.4677 0.4725 0.4734 0.4740
1506.000000 0.4736 0.4731 0.4696 0.4426 0.4156
1511.000000 0.3886 0.3614 0.3345 0.3075 0.2805
1516.000000 0.2534 0.2264 0.2017 0.2009 0.2010
1521.000000 0.2199 0.2646 0.3092 0.3539 0.3986
1526.000000 0.4433 0.4682 0.4843 0.4932 0.5026
1531.000000 0.5136 0.5170 0.5204 0.5236 0.5266
1536.000000 0.5295 0.5325 0.5355 0.5385 0.5415
1541.000000 0.5453 0.5487 0.5490 0.5493 0.5493
1546.000000 0.5466 0.5469 0.5429 0.5369 0.5290
1551.000000 0.5182 0.5069 0.4953 0.4860 0.4822
1556.000000 0.4818 0.4818 0.4818 0.4810 0.4845
1561.000000 0.4875 0.4944 0.5037 0.5215 0.5260
1566.000000 0.5265 0.5265 0.5260 0.5260 0.5241
1571.000000 0.5212 0.5143 0.5098 0.5053 0.5002
1576.000000 0.4946 0.4879 0.4771 0.4660 0.4551
1581.000000 0.4440 0.4330 0.4049 0.3896 0.3716
1586.000000 0.3548 0.3453 0.3414 0.3376 0.3337
1591.000000 0.3277 0.3197 0.2968 0.2731 0.2654
1596.000000 0.2615 0.2592 0.2570 0.2547 0.2128
1601.000000 0.1933 0.1762 0.1532 0.1269 0.1041
1606.000000 0.0918 0.0794 0.0671 0.0549 0.0399
1611.000000 0.0227 0.0176 0.0162 0.0155 0.0123
1616.000000 0.0290 0.0874 0.1517 0.2161 0.2804
1621.000000 0.4040 0.4421 0.4586 0.4751 0.5025
1626.000000 0.5394 0.5586 0.5689 0.5782 0.5855
1631.000000 0.5884 0.5888 0.5910 0.5882 0.5868
1636.000000 0.5848 0.5772 0.5670 0.5581 0.5460
1641.000000 0.5326 0.5190 0.5164 0.5145 0.5127
1646.000000 0.5084 0.5022 0.4846 0.4648 0.4490
1651.000000 0.4308 0.4184 0.4099 0.4014 0.3928
1656.000000 0.3794 0.3652 0.3509 0.3373 0.3234
1661.000000 0.3099 0.2964 0.2798 0.2592 0.2428
1666.000000 0.2282 0.2139 0.2007 0.1876 0.1742
1671.000000 0.1608 0.1396 0.1013 0.0751 0.0572
1676.000000 0.0399 0.0244 0.0150 0.0110 0.0125
1681.000000 0.0101 0.0100 0.0100 0.0113 0.0124
1686.000000 0.0132 0.0139 0.0145 0.0151 0.0158
1691.000000 0.0179 0.0223 0.0311 0.0779 0.1303
1696.000000 0.1826 0.2350 0.2874 0.3397 0.3921
1701.000000 0.4284 0.4519 0.4712 0.4872 0.5086
1706.000000 0.5346 0.5641 0.5770 0.5880 0.5993
1711.000000 0.6116 0.6240 0.6390 0.6545 0.6775
1716.000000 0.6874 0.6958 0.7087 0.7395 0.7582
1721.000000 0.7711 0.7815 0.7915 0.7994 0.8049
1726.000000 0.8108 0.8181 0.8308 0.8358 0.8391
1731.000000 0.8420 0.8441 0.8450 0.8486 0.8466
1736.000000 0.8468 0.8473 0.8471 0.8471 0.8467
1741.000000 0.8458 0.8448 0.8430 0.8402 0.8386
1746.000000 0.8375 0.8380 0.8381 0.8383 0.8385
1751.000000 0.8387 0.8389 0.8395 0.8402 0.8410
1756.000000 0.8428 0.8447 0.8465 0.8484 0.8504
1761.000000 0.8514 0.8514 0.8515 0.8515 0.8516
1766.000000 0.8534 0.8520 0.8521 0.8523 0.8524
1771.000000 0.8524 0.8524 0.8523 0.8523 0.8523
1776.000000 0.8520 0.8516 0.8512 0.8508 0.8503
1781.000000 0.8497 0.8490 0.8484 0.8478 0.8471
1786.000000 0.8465 0.8453 0.8439 0.8424 0.8410
1791.000000 0.8400 0.8389 0.8378 0.8368 0.8359
1796.000000 0.8348 0.8338 0.8330 0.8323 0.8317
1801.000000 0.8310 0.8303 0.8296 0.8289 0.8283
1806.000000 0.8275 0.8268 0.8262 0.8256 0.8249
1811.000000 0.8242 0.8236 0.8228 0.8221 0.8214
1816.000000 0.8206 0.8197 0.8189 0.8180 0.8171
1821.000000 0.8164 0.8155 0.8147 0.8138 0.8130
1826.000000 0.8119 0.8110 0.8100 0.8089 0.8078
1831.000000 0.8068 0.8058 0.8048 0.8038 0.8026
1836.000000 0.8017 0.8007 0.7996 0.7986 0.7975
1841.000000 0.7967 0.7957 0.7947 0.7938 0.7928
1846.000000 0.7918 0.7908 0.7899 0.7889 0.7878
1851.000000 0.7869 0.7861 0.7854 0.7847 0.7839
1856.000000 0.7832 0.7824 0.7817 0.7808 0.7801
1861.000000 0.7794 0.7787 0.7778 0.7771 0.7764
1866.000000 0.7757 0.7749 0.7740 0.7732 0.7724
1871.000000 0.7715 0.7708 0.7700 0.7691 0.7683
1876.000000 0.7675 0.7667 0.7660 0.7653 0.7647
1881.000000 0.7640 0.7634 0.7626 0.7621 0.7614
1886.000000 0.7607 0.7601 0.7594 0.7588 0.7581
1891.000000 0.7571 0.7561 0.7553 0.7544 0.7535
1896.000000 0.7525 0.7517 0.7508 0.7497 0.7484
1901.000000 0.7471 0.7458 0.7447 0.7434 0.7421
1906.000000 0.7410 0.7397 0.7385 0.7371 0.7360
1911.000000 0.7348 0.7331 0.7311 0.7293 0.7274
1916.000000 0.7255 0.7236 0.7217 0.7198 0.7171
1921.000000 0.7146 0.7118 0.7093 0.7067 0.7040
1926.000000 0.7014 0.6988 0.6953 0.6908 0.6861
1931.000000 0.6817 0.6725 0.6731 0.6695 0.6776
1936.000000 0.6810 0.6847 0.6882 0.6914 0.6950
1941.000000 0.6981 0.6990 0.7000 0.7008 0.7014
1946.000000 0.7017 0.7018 0.7021 0.7024 0.6992
1951.000000 0.7008 0.6997 0.6985 0.6969 0.6955
1956.000000 0.6942 0.6928 0.6917 0.6904 0.6892
1961.000000 0.6882 0.6874 0.6865 0.6858 0.6854
1966.000000 0.6853 0.6851 0.6851 0.6849 0.6848
1971.000000 0.6846 0.6844 0.6842 0.6840 0.6840
1976.000000 0.6840 0.6840 0.6840 0.6841 0.6841
1981.000000 0.6842 0.6842 0.6843 0.6844 0.6845
1986.000000 0.6845 0.6846 0.6847 0.6848 0.6848
1991.000000 0.6848 0.6845 0.6842 0.6840 0.6830
1996.000000 0.6817 0.6804 0.6797 0.6790 0.6784
2001.000000 0.6776 0.6771 0.6768 0.6765 0.6765
2006.000000 0.6767 0.6768 0.6769 0.6771 0.6771
2011.000000 0.6771 0.6768 0.6765 0.6764 0.6761
2016.000000 0.6758 0.6756 0.6754 0.6751 0.6750
2021.000000 0.6743 0.6737 0.6730 0.6724 0.6717
2026.000000 0.6711 0.6698 0.6685 0.6671 0.6657
2031.000000 0.6646 0.6636 0.6626 0.6618 0.6610
2036.000000 0.6601 0.6601 0.6601 0.6603 0.6604
2041.000000 0.6605 0.6606 0.6611 0.6617 0.6621
2046.000000 0.6628 0.6591 0.6554 0.6500 0.6446
2051.000000 0.6428 0.6411 0.6395 0.6378 0.6400
2056.000000 0.6422 0.6480 0.6354 0.6575 0.6612
2061.000000 0.6640 0.6667 0.6685 0.6704 0.6718
2066.000000 0.6735 0.6744 0.6753 0.6758 0.6764
2071.000000 0.6762 0.6761 0.6760 0.6758 0.6756
2076.000000 0.6744 0.6751 0.6751 0.6749 0.6747
2081.000000 0.6745 0.6743 0.6740 0.6737 0.6734
2086.000000 0.6731 0.6726 0.6724 0.6721 0.6718
2091.000000 0.6714 0.6711 0.6708 0.6705 0.6701
2096.000000 0.6698 0.6694 0.6691 0.6688 0.6685
2101.000000 0.6681 0.6678 0.6671 0.6664 0.6657
2106.000000 0.6650 0.6643 0.6636 0.6628 0.6621
2111.000000 0.6615 0.6608 0.6601 0.6595 0.6589
2116.000000 0.6584 0.6578 0.6572 0.6568 0.6562
2121.000000 0.6557 0.6551 0.6546 0.6541 0.6535
2126.000000 0.6530 0.6525 0.6519 0.6514 0.6508
2131.000000 0.6503 0.6498 0.6492 0.6487 0.6481
2136.000000 0.6475 0.6471 0.6465 0.6460 0.6455
2141.000000 0.6448 0.6442 0.6436 0.6430 0.6424
2146.000000 0.6418 0.6411 0.6405 0.6399 0.6393
2151.000000 0.6387 0.6381 0.6374 0.6368 0.6362
2156.000000 0.6356 0.6350 0.6344 0.6337 0.6331
2161.000000 0.6325 0.6319 0.6312 0.6305 0.6297
2166.000000 0.6289 0.6281 0.6274 0.6266 0.6258
2171.000000 0.6250 0.6243 0.6235 0.6227 0.6219
2176.000000 0.6212 0.6204 0.6197 0.6190 0.6183
2181.000000 0.6175 0.6168 0.6160 0.6154 0.6147
2186.000000 0.6140 0.6132 0.6125 0.6118 0.6110
2191.000000 0.6103 0.6096 0.6089 0.6082 0.6074
2196.000000 0.6067 0.6060 0.6053 0.6045 0.6038
2201.000000 0.6031 0.6024 0.6016 0.6009 0.6001
2206.000000 0.5994 0.5985 0.5976 0.5967 0.5958
2211.000000 0.5949 0.5941 0.5932 0.5923 0.5914
2216.000000 0.5906 0.5897 0.5888 0.5879 0.5871
2221.000000 0.5862 0.5853 0.5844 0.5836 0.5827
2226.000000 0.5818 0.5809 0.5800 0.5791 0.5783
2231.000000 0.5775 0.5767 0.5759 0.5752 0.5744
2236.000000 0.5737 0.5729 0.5721 0.5712 0.5706
2241.000000 0.5698 0.5691 0.5683 0.5675 0.5667
2246.000000 0.5660 0.5652 0.5645 0.5637 0.5630
2251.000000 0.5622 0.5614 0.5605 0.5596 0.5587
2256.000000 0.5579 0.5570 0.5562 0.5553 0.5545
2261.000000 0.5536 0.5528 0.5519 0.5510 0.5501
2266.000000 0.5493 0.5484 0.5476 0.5467 0.5459
2271.000000 0.5450 0.5441 0.5433 0.5426 0.5419
2276.000000 0.5412 0.5406 0.5399 0.5392 0.5386
2281.000000 0.5379 0.5373 0.5366 0.5360 0.5353
2286.000000 0.5347 0.5340 0.5334 0.5327 0.5321
2291.000000 0.5314 0.5308 0.5301 0.5295 0.5288
2296.000000 0.5282 0.5275 0.5268 0.5260 0.5255
2301.000000 0.5248 0.5242 0.5235 0.5229 0.5222
2306.000000 0.5216 0.5209 0.5203 0.5196 0.5190
2311.000000 0.5183 0.5177 0.5170 0.5164 0.5157
2316.000000 0.5151 0.5144 0.5137 0.5130 0.5124
2321.000000 0.5116 0.5109 0.5101 0.5093 0.5085
2326.000000 0.5078 0.5070 0.5062 0.5055 0.5048
2331.000000 0.5040 0.5033 0.5025 0.5018 0.5014
2336.000000 0.5010 0.5006 0.5002 0.4997 0.4993
2341.000000 0.4989 0.4985 0.4980 0.4976 0.4972
2346.000000 0.4968 0.4965 0.4962 0.4959 0.4957
2351.000000 0.4955 0.4953 0.4950 0.4948 0.4945
2356.000000 0.4943 0.4938 0.4934 0.4930 0.4926
2361.000000 0.4921 0.4917 0.4912 0.4908 0.4903
2366.000000 0.4899 0.4894 0.4890 0.4886 0.4882
2371.000000 0.4877 0.4873 0.4868 0.4864 0.4854
2376.000000 0.4845 0.4826 0.4808 0.4783 0.4759
2381.000000 0.4734 0.4710 0.4691 0.4673 0.4657
2386.000000 0.4641 0.4625 0.4610 0.4594 0.4579
2391.000000 0.4562 0.4547 0.4531 0.4516 0.4500
2396.000000 0.4484 0.4470 0.4457 0.4443 0.4429
2401.000000 0.4415 0.4401 0.4387 0.4373 0.4359
2406.000000 0.4346 0.4332 0.4318 0.4304 0.4290
2411.000000 0.4276 0.4262 0.4249 0.4235 0.4223
2416.000000 0.4212 0.4203 0.4194 0.4184 0.4175
2421.000000 0.4166 0.4157 0.4148 0.4139 0.4129
2426.000000 0.4120 0.4110 0.4101 0.4091 0.4080
2431.000000 0.4071 0.4060 0.4050 0.4041 0.4030
2436.000000 0.4022 0.4012 0.4002 0.3992 0.3982
2441.000000 0.3972 0.3962 0.3952 0.3942 0.3929
2446.000000 0.3916 0.3903 0.3890 0.3877 0.3864
2451.000000 0.3850 0.3838 0.3827 0.3816 0.3812
2456.000000 0.3808 0.3803 0.3799 0.3794 0.3790
2461.000000 0.3786 0.3782 0.3777 0.3773 0.3768
2466.000000 0.3768 0.3768 0.3770 0.3772 0.3755
2471.000000 0.3776 0.3778 0.3780 0.3784 0.3791
2476.000000 0.3799 0.3806 0.3814 0.3821 0.3828
2481.000000 0.3834 0.3843 0.3850 0.3858 0.3864
2486.000000 0.3872 0.3879 0.3887 0.3894 0.3902
2491.000000 0.3908 0.3914 0.3914 0.3914 0.3914
2496.000000 0.3914 0.3914 0.3914 0.3914 0.3914
2501.000000 0.3912 0.3912 0.3900 0.3891 0.3880
2506.000000 0.3924 0.3859 0.3849 0.3839 0.3830
2511.000000 0.3820 0.3809 0.3802 0.3795 0.3789
2516.000000 0.3782 0.3776 0.3770 0.3764 0.3758
2521.000000 0.3754 0.3750 0.3747 0.3744 0.3741
2526.000000 0.3738 0.3734 0.3732 0.3724 0.3716
2531.000000 0.3698 0.3680 0.3662 0.3645 0.3628
2536.000000 0.3610 0.3594 0.3577 0.3559 0.3543
2541.000000 0.3530 0.3516 0.3504 0.3491 0.3478
2546.000000 0.3464 0.3452 0.3439 0.3426 0.3412
2551.000000 0.3400 0.3388 0.3375 0.3362 0.3349
2556.000000 0.3336 0.3323 0.3309 0.3295 0.3280
2561.000000 0.3264 0.3250 0.3234 0.3220 0.3205
2566.000000 0.3190 0.3175 0.3160 0.3145 0.3130
2571.000000 0.3118 0.3107 0.3099 0.3092 0.3084
2576.000000 0.3078 0.3070 0.3063 0.3055 0.3048
2581.000000 0.3040 0.3033 0.3026 0.3019 0.3012
2586.000000 0.3005 0.3001 0.2998 0.2994 0.2991
2591.000000 0.2987 0.2984 0.2971 0.2958 0.2939
2596.000000 0.2921 0.2898 0.2876 0.2851 0.2827
2601.000000 0.2803 0.2780 0.2759 0.2738 0.2717
2606.000000 0.2696 0.2678 0.2661 0.2647 0.2633
2611.000000 0.2619 0.2605 0.2591 0.2577 0.2563
2616.000000 0.2550 0.2545 0.2540 0.2534 0.2531
2621.000000 0.2526 0.2522 0.2517 0.2513 0.2509
2626.000000 0.2506 0.2503 0.2500 0.2498 0.2497
2631.000000 0.2495 0.2493 0.2488 0.2484 0.2466
2636.000000 0.2448 0.2427 0.2406 0.2384 0.2363
2641.000000 0.2345 0.2327 0.2313 0.2299 0.2284
2646.000000 0.2272 0.2258 0.2244 0.2230 0.2217
2651.000000 0.2214 0.2211 0.2208 0.2206 0.2205
2656.000000 0.2204 0.2203 0.2202 0.2201 0.2200
2661.000000 0.2199 0.2198 0.2197 0.2196 0.2195
2666.000000 0.2194 0.2192 0.2191 0.2182 0.2174
2671.000000 0.2160 0.2146 0.2131 0.2117 0.2102
2676.000000 0.2088 0.2073 0.2059 0.2044 0.2031
2681.000000 0.2016 0.2002 0.1987 0.1974 0.1962
2686.000000 0.1950 0.1936 0.1925 0.1912 0.1900
2691.000000 0.1887 0.1876 0.1863 0.1851 0.1839
2696.000000 0.1827 0.1815 0.1803 0.1791 0.1779
2701.000000 0.1768 0.1757 0.1744 0.1734 0.1722
2706.000000 0.1711 0.1699 0.1687 0.1676 0.1664
2711.000000 0.1652 0.1641 0.1633 0.1626 0.1619
2716.000000 0.1612 0.1604 0.1598 0.1591 0.1584
2721.000000 0.1578 0.1572 0.1568 0.1565 0.1562
2726.000000 0.1559 0.1555 0.1552 0.1549 0.1546
2731.000000 0.1545 0.1542 0.1542 0.1541 0.1540
2736.000000 0.1540 0.1539 0.1539 0.1538 0.1538
2741.000000 0.1537 0.1536 0.1535 0.1534 0.1533
2746.000000 0.1532 0.1531 0.1530 0.1529 0.1528
2751.000000 0.1527 0.1526 0.1525 0.1524 0.1523
2756.000000 0.1522 0.1517 0.1512 0.1506 0.1501
2761.000000 0.1495 0.1489 0.1483 0.1477 0.1472
2766.000000 0.1468 0.1465 0.1463 0.1460 0.1457
2771.000000 0.1456 0.1456 0.1455 0.1455 0.1454
2776.000000 0.1454 0.1453 0.1453 0.1452 0.1452
2781.000000 0.1451 0.1451 0.1450 0.1449 0.1448
2786.000000 0.1448 0.1446 0.1446 0.1446 0.1446
2791.000000 0.1439 0.1432 0.1422 0.1412 0.1402
2796.000000 0.1392 0.1381 0.1370 0.1357 0.1344
2801.000000 0.1331 0.1319 0.1306 0.1292 0.1280
2806.000000 0.1268 0.1255 0.1242 0.1230 0.1218
2811.000000 0.1205 0.1192 0.1180 0.1167 0.1154
2816.000000 0.1142 0.1129 0.1117 0.1104 0.1091
2821.000000 0.1077 0.1064 0.1051 0.1038 0.1024
2826.000000 0.1011 0.0996 0.0984 0.0970 0.0957
2831.000000 0.0943 0.0931 0.0918 0.0905 0.0892
2836.000000 0.0879 0.0865 0.0852 0.0839 0.0826
2841.000000 0.0813 0.0800 0.0787 0.0774 0.0760
2846.000000 0.0747 0.0736 0.0725 0.0715 0.0705
2851.000000 0.0695 0.0686 0.0676 0.0667 0.0657
2856.000000 0.0648 0.0638 0.0629 0.0619 0.0610
2861.000000 0.0600 0.0590 0.0580 0.0571 0.0561
2866.000000 0.0552 0.0542 0.0533 0.0527 0.0521
2871.000000 0.0514 0.0508 0.0502 0.0496 0.0489
2876.000000 0.0483 0.0477 0.0471 0.0464 0.0458
2881.000000 0.0452 0.0446 0.0439 0.0433 0.0427
2886.000000 0.0421 0.0415 0.0410 0.0406 0.0403
2891.000000 0.0399 0.0396 0.0392 0.0389 0.0385
2896.000000 0.0382 0.0378 0.0375 0.0371 0.0367
2901.000000 0.0364 0.0361 0.0357 0.0354 0.0350
2906.000000 0.0347 0.0343 0.0340 0.0336 0.0332
2911.000000 0.0328 0.0325 0.0321 0.0317 0.0314
2916.000000 0.0311 0.0307 0.0304 0.0300 0.0297
2921.000000 0.0293 0.0290 0.0287 0.0285 0.0283
2926.000000 0.0281 0.0278 0.0276 0.0273 0.0271
2931.000000 0.0268 0.0266 0.0264 0.0262 0.0259
2936.000000 0.0257 0.0255 0.0253 0.0250 0.0248
2941.000000 0.0245 0.0243 0.0241 0.0238 0.0235
2946.000000 0.0233 0.0231 0.0229 0.0227 0.0225
2951.000000 0.0223 0.0221 0.0221 0.0222 0.0222
2956.000000 0.0222 0.0222 0.0223 0.0223 0.0223
2961.000000 0.0223 0.0224 0.0224 0.0224 0.0224
2966.000000 0.0225 0.0225 0.0226 0.0226 0.0226
2971.000000 0.0226 0.0227 0.0227 0.0227 0.0227
2976.000000 0.0228 0.0228 0.0229 0.0229 0.0229
2981.000000 0.0229 0.0230 0.0230 0.0231 0.0231
2986.000000 0.0231 0.0231 0.0232 0.0232 0.0232
2991.000000 0.0232 0.0232 0.0232 0.0233 0.0233
2996.000000 0.0233 0.0233 0.0233 0.0233 0.0233
3001.000000 0.0233 0.0233 0.0233 0.0233 0.0233
3006.000000 0.0234 0.0234 0.0234 0.0234 0.0235
3011.000000 0.0236 0.0237 0.0237 0.0238 0.0238
3016.000000 0.0240 0.0241 0.0243 0.0245 0.0247
3021.000000 0.0248 0.0250 0.0251 0.0253 0.0254
3026.000000 0.0256 0.0259 0.0262 0.0264 0.0266
3031.000000 0.0270 0.0273 0.0276 0.0279 0.0281
3036.000000 0.0284 0.0287 0.0290 0.0294 0.0298
3041.000000 0.0302 0.0307 0.0311 0.0316 0.0321
3046.000000 0.0326 0.0330 0.0335 0.0339 0.0344
3051.000000 0.0349 0.0354 0.0358 0.0363 0.0366
3056.000000 0.0372 0.0378 0.0384 0.0391 0.0398
3061.000000 0.0405 0.0413 0.0419 0.0427 0.0434
3066.000000 0.0441 0.0448 0.0455 0.0462 0.0469
3071.000000 0.0475 0.0484 0.0492 0.0501 0.0510
3076.000000 0.0520 0.0529 0.0539 0.0548 0.0558
3081.000000 0.0567 0.0577 0.0586 0.0596 0.0605
3086.000000 0.0615 0.0627 0.0639 0.0653 0.0667
3091.000000 0.0680 0.0694 0.0707 0.0721 0.0735
3096.000000 0.0749 0.0762 0.0776 0.0789 0.0803
3101.000000 0.0817 0.0831 0.0846 0.0861 0.0876
3106.000000 0.0891 0.0906 0.0921 0.0936 0.0952
3111.000000 0.0967 0.0982 0.0996 0.1012 0.1027
3116.000000 0.1042 0.1057 0.1073 0.1101 0.1130
3121.000000 0.1161 0.1192 0.1223 0.1254 0.1285
3126.000000 0.1316 0.1346 0.1378 0.1405 0.1432
3131.000000 0.1457 0.1482 0.1507 0.1532 0.1557
3136.000000 0.1582 0.1607 0.1632 0.1657 0.1682
3141.000000 0.1707 0.1733 0.1758 0.1783 0.1808
3146.000000 0.1833 0.1858 0.1884 0.1909 0.1934
3151.000000 0.1959 0.1984 0.2009 0.2034 0.2060
3156.000000 0.2085 0.2111 0.2137 0.2162 0.2188
3161.000000 0.2213 0.2239 0.2265 0.2292 0.2318
3166.000000 0.2345 0.2371 0.2397 0.2423 0.2450
3171.000000 0.2478 0.2506 0.2539 0.2573 0.2595
3176.000000 0.2618 0.2627 0.2635 0.2638 0.2640
3181.000000 0.2641 0.2643 0.2644 0.2646 0.2646
3186.000000 0.2645 0.2645 0.2644 0.2642 0.2641
3191.000000 0.2640 0.2639 0.2628 0.2617 0.2603
3196.000000 0.2590 0.2568 0.2547 0.2506 0.2465
3201.000000 0.2419 0.2373 0.2295 0.2218 0.2151
3206.000000 0.2084 0.2025 0.1966 0.1853 0.1740
3211.000000 0.1715 0.1690 0.1686 0.1685 0.1686
3216.000000 0.1687 0.1691 0.1694 0.1694 0.1695
3221.000000 0.1707 0.1714 0.1724 0.1734 0.1761
3226.000000 0.1787 0.1835 0.1884 0.2225 0.2567
3231.000000 0.2783 0.2999 0.3224 0.3450 0.3596
3236.000000 0.3743 0.3853 0.3962 0.4030 0.4100
3241.000000 0.4168 0.4237 0.4322 0.4408 0.4504
3246.000000 0.4600 0.4684 0.4769 0.4852 0.4935
3251.000000 0.4981 0.5028 0.5068 0.5109 0.5149
3256.000000 0.5189 0.5245 0.5301 0.5360 0.5419
3261.000000 0.5475 0.5531 0.5575 0.5620 0.5647
3266.000000 0.5675 0.5694 0.5712 0.5712 0.5710
3271.000000 0.5708 0.5706 0.5703 0.5701 0.5695
3276.000000 0.5690 0.5684 0.5678 0.5672 0.5666
3281.000000 0.5660 0.5655 0.5666 0.5677 0.5697
3286.000000 0.5718 0.5738 0.5759 0.5791 0.5823
3291.000000 0.5859 0.5895 0.5925 0.5955 0.5984
3296.000000 0.6014 0.6043 0.6072 0.6096 0.6121
3301.000000 0.6141 0.6160 0.6181 0.6201 0.6220
3306.000000 0.6239 0.6249 0.6259 0.6269 0.6279
3311.000000 0.6288 0.6298 0.6302 0.6307 0.6310
3316.000000 0.6316 0.6320 0.6325 0.6325 0.6324
3321.000000 0.6323 0.6321 0.6318 0.6316 0.6314
3326.000000 0.6312 0.6309 0.6307 0.6305 0.6303
3331.000000 0.6300 0.6297 0.6293 0.6290 0.6286
3336.000000 0.6283 0.6279 0.6275 0.6271 0.6268
3341.000000 0.6265 0.6262 0.6259 0.6257 0.6254
3346.000000 0.6251 0.6248 0.6246 0.6243 0.6241
3351.000000 0.6238 0.6235 0.6232 0.6229 0.6224
3356.000000 0.6219 0.6214 0.6210 0.6205 0.6201
3361.000000 0.6196 0.6192 0.6187 0.6183 0.6178
3366.000000 0.6174 0.6169 0.6164 0.6157 0.6151
3371.000000 0.6145 0.6139 0.6133 0.6127 0.6120
3376.000000 0.6114 0.6108 0.6102 0.6096 0.6090
3381.000000 0.6084 0.6078 0.6071 0.6064 0.6057
3386.000000 0.6051 0.6044 0.6038 0.6031 0.6025
3391.000000 0.6018 0.6012 0.6005 0.5999 0.5992
3396.000000 0.5986 0.5979 0.5973 0.5966 0.5960
3401.000000 0.5953 0.5947 0.5940 0.5934 0.5927
3406.000000 0.5921 0.5914 0.5908 0.5901 0.5895
3411.000000 0.5889 0.5883 0.5877 0.5872 0.5866
3416.000000 0.5860 0.5855 0.5850 0.5844 0.5839
3421.000000 0.5833 0.5828 0.5822 0.5817 0.5810
3426.000000 0.5806 0.5800 0.5795 0.5789 0.5784
3431.000000 0.5778 0.5773 0.5767 0.5760 0.5754
3436.000000 0.5748 0.5741 0.5735 0.5728 0.5722
3441.000000 0.5715 0.5708 0.5701 0.5695 0.5688
3446.000000 0.5682 0.5675 0.5668 0.5660 0.5655
3451.000000 0.5648 0.5642 0.5637 0.5632 0.5626
3456.000000 0.5621 0.5616 0.5610 0.5606 0.5601
3461.000000 0.5596 0.5591 0.5586 0.5581 0.5576
3466.000000 0.5571 0.5566 0.5560 0.5556 0.5551
3471.000000 0.5545 0.5540 0.5535 0.5530 0.5525
3476.000000 0.5520 0.5515 0.5510 0.5506 0.5502
3481.000000 0.5497 0.5493 0.5488 0.5484 0.5480
3486.000000 0.5476 0.5471 0.5467 0.5462 0.5458
3491.000000 0.5454 0.5450 0.5445 0.5441 0.5436
3496.000000 0.5432 0.5428 0.5424 0.5419 0.5415
3501.000000 0.5410 0.5406 0.5402 0.5398 0.5393
3506.000000 0.5389 0.5385 0.5381 0.5376 0.5372
3511.000000 0.5367 0.5362 0.5358 0.5354 0.5349
3516.000000 0.5345 0.5340 0.5336 0.5331 0.5327
3521.000000 0.5322 0.5318 0.5312 0.5309 0.5304
3526.000000 0.5300 0.5295 0.5291 0.5288 0.5286
3531.000000 0.5283 0.5281 0.5278 0.5276 0.5273
3536.000000 0.5271 0.5268 0.5266 0.5262 0.5260
3541.000000 0.5258 0.5256 0.5252 0.5249 0.5245
3546.000000 0.5241 0.5237 0.5234 0.5230 0.5227
3551.000000 0.5222 0.5218 0.5212 0.5209 0.5204
3556.000000 0.5199 0.5194 0.5190 0.5185 0.5181
3561.000000 0.5176 0.5171 0.5166 0.5162 0.5157
3566.000000 0.5153 0.5148 0.5144 0.5139 0.5135
3571.000000 0.5130 0.5126 0.5121 0.5117 0.5112
3576.000000 0.5107 0.5102 0.5098 0.5091 0.5084
3581.000000 0.5071 0.5059 0.5046 0.5034 0.5020
3586.000000 0.5006 0.4990 0.4975 0.4959 0.4944
3591.000000 0.4938 0.4932 0.4935 0.4939 0.4942
3596.000000 0.4945 0.4950 0.4956 0.4962 0.4969
3601.000000 0.4974 0.4979 0.4980 0.4980 0.4980
3606.000000 0.4978 0.4975 0.4972 0.4967 0.4962
3611.000000 0.4955 0.4948 0.4940 0.4933 0.4925
3616.000000 0.4918 0.4916 0.4916 0.4917 0.4919
3621.000000 0.4922 0.4925 0.4928 0.4931 0.4931
3626.000000 0.4931 0.4931 0.4931 0.4929 0.4928
3631.000000 0.4925 0.4922 0.4919 0.4917 0.4914
3636.000000 0.4912 0.4909 0.4907 0.4904 0.4902
3641.000000 0.4899 0.4897 0.4894 0.4891 0.4888
3646.000000 0.4885 0.4882 0.4879 0.4875 0.4872
3651.000000 0.4869 0.4866 0.4862 0.4859 0.4856
3656.000000 0.4853 0.4850 0.4847 0.4844 0.4841
3661.000000 0.4838 0.4835 0.4832 0.4829 0.4826
3666.000000 0.4823 0.4819 0.4816 0.4812 0.4810
3671.000000 0.4807 0.4804 0.4801 0.4798 0.4795
3676.000000 0.4792 0.4789 0.4786 0.4783 0.4780
3681.000000 0.4777 0.4775 0.4772 0.4769 0.4766
3686.000000 0.4762 0.4760 0.4757 0.4754 0.4751
3691.000000 0.4748 0.4745 0.4742 0.4740 0.4737
3696.000000 0.4734 0.4731 0.4728 0.4725 0.4722
3701.000000 0.4719 0.4716 0.4712 0.4709 0.4705
3706.000000 0.4701 0.4697 0.4693 0.4689 0.4685
3711.000000 0.4681 0.4677 0.4673 0.4669 0.4664
3716.000000 0.4660 0.4656 0.4652 0.4648 0.4644
3721.000000 0.4640 0.4636 0.4632 0.4628 0.4624
3726.000000 0.4620 0.4615 0.4610 0.4607 0.4603
3731.000000 0.4599 0.4595 0.4591 0.4587 0.4583
3736.000000 0.4580 0.4576 0.4572 0.4568 0.4564
3741.000000 0.4560 0.4556 0.4552 0.4548 0.4544
3746.000000 0.4540 0.4536 0.4532 0.4528 0.4524
3751.000000 0.4520 0.4516 0.4512 0.4508 0.4504
3756.000000 0.4501 0.4496 0.4492 0.4488 0.4484
3761.000000 0.4480 0.4476 0.4472 0.4468 0.4462
3766.000000 0.4459 0.4455 0.4451 0.4447 0.4443
3771.000000 0.4439 0.4435 0.4431 0.4427 0.4422
3776.000000 0.4418 0.4414 0.4410 0.4406 0.4402
3781.000000 0.4398 0.4394 0.4389 0.4385 0.4381
3786.000000 0.4377 0.4372 0.4368 0.4364 0.4360
3791.000000 0.4355 0.4351 0.4346 0.4342 0.4338
3796.000000 0.4334 0.4329 0.4325 0.4321 0.4317
3801.000000 0.4315 0.4314
##END=
