##TITLE=BARBITURIC ACID, 5-HYDROXY-5-SEMICARBAZIDO-, MONOHYDRATE
##JCAMP-DX=4.24
##DATA TYPE=INFRARED SPECTRUM
##CLASS=COBLENTZ III
##ORIGIN=SOUTHERN RESEARCH INSTITUTE
##OWNER=COBLENTZ SOCIETY
Collection (C) 2018 copyright by the U.S. Secretary of Commerce
on behalf of the United States of America. All rights reserved.
##DATE=1957/12/12
##NAMES=2-(5-hydroxy-2,4,6-trioxohexahydro-5-pyrimidinyl)hydrazinecarboxamide hydrate
##MOLFORM=C5 H7 N5 O5  * H2 O
##SOURCE REFERENCE=COBLENTZ NO. 8029
##$NIST ID=B6008029
##$NIST SOURCE=COBLENTZ
##$NIST IMAGE=cob8029
##SPECTROMETER/DATA SYSTEM=PERKIN-ELMER 21 (GRATING)
##INSTRUMENT PARAMETERS=FILTER CHANGE AT 1090 CM^-^1
##STATE=SOLID (0.7 mg / 650 mg KBr DISC)
##SAMPLING PROCEDURE=TRANSMISSION
##RESOLUTION=2
##DATA PROCESSING=DIGITIZED BY NIST FROM HARD COPY (FROM TWO SEGMENTS)
##XUNITS=1/CM
##YUNITS=TRANSMITTANCE
##XFACTOR=1.000000
##YFACTOR=1
##DELTAX=1.303993
##FIRSTX=611.842
##LASTX=4012.66
##FIRSTY=0.772
##MAXX=4012.66
##MINX=611.842
##MAXY=0.858
##MINY=0.128
##NPOINTS=2609
##XYDATA=(X++(Y..Y))
611.842000 0.7720 0.7720 0.7700 0.7700 0.7700
618.361965 0.7700 0.7700 0.7700 0.7700 0.7700
624.881930 0.7700 0.7700 0.7718 0.7702 0.7683
631.401895 0.7671 0.7679 0.7672 0.7653 0.7650
637.921860 0.7642 0.7640 0.7640 0.7632 0.7630
644.441825 0.7607 0.7592 0.7567 0.7545 0.7525
650.961790 0.7520 0.7513 0.7503 0.7493 0.7476
657.481755 0.7463 0.7460 0.7440 0.7423 0.7414
664.001720 0.7384 0.7345 0.7305 0.7266 0.7196
670.521685 0.7148 0.7128 0.7120 0.7120 0.7103
677.041650 0.7079 0.7037 0.6989 0.6954 0.6904
683.561615 0.6830 0.6760 0.6701 0.6656 0.6631
690.081580 0.6611 0.6591 0.6576 0.6548 0.6507
696.601545 0.6478 0.6452 0.6436 0.6426 0.6413
703.121510 0.6393 0.6362 0.6323 0.6293 0.6253
709.641475 0.6230 0.6185 0.6115 0.6042 0.5930
716.161440 0.5872 0.5839 0.5781 0.5654 0.5505
722.681405 0.5446 0.5382 0.5279 0.5128 0.5122
729.201370 0.5136 0.5173 0.5307 0.5672 0.5678
735.721335 0.5663 0.5609 0.5538 0.5515 0.5478
742.241300 0.5437 0.5190 0.4870 0.4543 0.4454
748.761265 0.4349 0.4149 0.3920 0.3921 0.3973
755.281230 0.4831 0.5001 0.5119 0.5268 0.5563
761.801195 0.5695 0.5786 0.5847 0.5850 0.5850
768.321160 0.5850 0.5859 0.5923 0.6011 0.6197
774.841125 0.6325 0.6366 0.6387 0.6424 0.6505
781.361090 0.6528 0.6604 0.6653 0.6668 0.6670
787.881055 0.6662 0.6652 0.6650 0.6627 0.6590
794.401020 0.6543 0.6501 0.6446 0.6409 0.6379
800.920985 0.6328 0.6296 0.6290 0.6290 0.6297
807.440950 0.6300 0.6332 0.6382 0.6444 0.6482
813.960915 0.6508 0.6526 0.6548 0.6566 0.6576
820.480880 0.6580 0.6580 0.6575 0.6549 0.6525
827.000845 0.6504 0.6460 0.6425 0.6400 0.6366
833.520810 0.6280 0.6181 0.6133 0.6091 0.6036
840.040775 0.5959 0.5871 0.5721 0.5592 0.5531
846.560740 0.5477 0.5403 0.5329 0.5267 0.5127
853.080705 0.4973 0.4841 0.4682 0.4557 0.4442
859.600670 0.4391 0.4359 0.4316 0.4277 0.4273
866.120635 0.4287 0.4331 0.4405 0.4435 0.4505
872.640600 0.4590 0.4712 0.4724 0.4754 0.4822
879.160565 0.4841 0.4907 0.4956 0.4996 0.5044
885.680530 0.5071 0.5081 0.5094 0.5134 0.5183
892.200495 0.5356 0.5575 0.5664 0.5742 0.5801
898.720460 0.5840 0.5860 0.5860 0.5890 0.5900
905.240425 0.5920 0.5930 0.5930 0.5930 0.5930
911.760390 0.5930 0.5884 0.5834 0.5812 0.5774
918.280355 0.5717 0.5666 0.5634 0.5621 0.5620
924.800320 0.5620 0.5620 0.5620 0.5628 0.5638
931.320285 0.5640 0.5656 0.5676 0.5703 0.5771
937.840250 0.5798 0.5800 0.5807 0.5861 0.5945
944.360215 0.6020 0.6068 0.6094 0.6107 0.6117
950.880180 0.6120 0.6140 0.6156 0.6160 0.6154
957.400145 0.6150 0.6138 0.6124 0.6114 0.6110
963.920110 0.6104 0.6089 0.6080 0.6080 0.6080
970.440075 0.6080 0.6059 0.5994 0.5945 0.5935
976.960040 0.5911 0.5871 0.5845 0.5835 0.5821
983.480005 0.5819 0.5821 0.5806 0.5796 0.5790
989.999970 0.5774 0.5735 0.5695 0.5648 0.5595
996.519935 0.5563 0.5550 0.5533 0.5484 0.5431
1003.039900 0.5357 0.5254 0.5170 0.5095 0.5011
1009.559865 0.4949 0.4917 0.4888 0.4764 0.4549
1016.079830 0.4425 0.4354 0.4225 0.3935 0.3806
1022.599795 0.3700 0.3702 0.3715 0.3744 0.3785
1029.119760 0.3891 0.3980 0.4098 0.4446 0.4682
1035.639725 0.4812 0.4947 0.5046 0.5137 0.5253
1042.159690 0.5323 0.5411 0.5440 0.5440 0.5440
1048.679655 0.5430 0.5410 0.5391 0.5342 0.5273
1055.199620 0.5213 0.5173 0.5161 0.5105 0.5018
1061.719585 0.4947 0.4868 0.4816 0.4749 0.4714
1068.239550 0.4650 0.4606 0.4550 0.4482 0.4445
1074.759515 0.4424 0.4412 0.4410 0.4379 0.4362
1081.279480 0.4352 0.4327 0.4313 0.4288 0.4273
1087.799445 0.4248 0.4211 0.4129 0.4002 0.3891
1094.319410 0.3799 0.3690 0.3591 0.3540 0.3543
1100.839375 0.3595 0.3670 0.3719 0.3754 0.3806
1107.359340 0.3859 0.3909 0.3970 0.4039 0.4131
1113.879305 0.4306 0.4437 0.4497 0.4535 0.4550
1120.399270 0.4590 0.4635 0.4660 0.4670 0.4670
1126.919235 0.4670 0.4670 0.4670 0.4661 0.4625
1133.439200 0.4566 0.4522 0.4487 0.4435 0.4406
1139.959165 0.4389 0.4363 0.4343 0.4310 0.4234
1146.479130 0.4122 0.4031 0.3992 0.3924 0.3825
1152.999095 0.3682 0.3490 0.3354 0.3268 0.3216
1159.519060 0.3124 0.2896 0.2574 0.2306 0.2086
1166.039025 0.2070 0.2070 0.2070 0.2080 0.2175
1172.558990 0.2445 0.2563 0.2734 0.2855 0.3029
1179.078955 0.3451 0.3666 0.3946 0.4149 0.4417
1185.598920 0.4536 0.4653 0.4732 0.4810 0.4832
1192.118885 0.4921 0.5010 0.5089 0.5100 0.5158
1198.638850 0.5208 0.5258 0.5316 0.5339 0.5340
1205.158815 0.5340 0.5340 0.5340 0.5340 0.5322
1211.678780 0.5311 0.5267 0.5234 0.5222 0.5212
1218.198745 0.5185 0.5172 0.5129 0.5080 0.5007
1224.718710 0.4935 0.4851 0.4739 0.4620 0.4545
1231.238675 0.4463 0.4374 0.4292 0.4249 0.4240
1237.758640 0.4233 0.4230 0.4230 0.4237 0.4247
1244.278605 0.4380 0.4565 0.4718 0.4851 0.4986
1250.798570 0.5166 0.5416 0.5588 0.5681 0.5782
1257.318535 0.5886 0.6002 0.6141 0.6279 0.6366
1263.838500 0.6441 0.6490 0.6505 0.6534 0.6555
1270.358465 0.6560 0.6565 0.6570 0.6570 0.6561
1276.878430 0.6550 0.6538 0.6516 0.6498 0.6476
1283.398395 0.6466 0.6460 0.6453 0.6436 0.6430
1289.918360 0.6420 0.6397 0.6387 0.6377 0.6364
1296.438325 0.6347 0.6332 0.6307 0.6297 0.6287
1302.958290 0.6275 0.6258 0.6248 0.6236 0.6208
1309.478255 0.6158 0.6144 0.6109 0.6044 0.5963
1315.998220 0.5922 0.5874 0.5839 0.5819 0.5732
1322.518185 0.5664 0.5617 0.5586 0.5549 0.5537
1329.038150 0.5497 0.5459 0.5440 0.5440 0.5430
1335.558115 0.5410 0.5400 0.5370 0.5360 0.5321
1342.078080 0.5252 0.5076 0.4965 0.4922 0.4911
1348.598045 0.4919 0.4911 0.4855 0.4787 0.4726
1355.118010 0.4685 0.4645 0.4605 0.4549 0.4405
1361.637975 0.4321 0.4235 0.4113 0.4049 0.3798
1368.157940 0.3589 0.3456 0.3345 0.3266 0.3190
1374.677905 0.2982 0.2823 0.2768 0.2753 0.2750
1381.197870 0.2764 0.2784 0.2845 0.2904 0.2960
1387.717835 0.3219 0.3419 0.3525 0.3636 0.3805
1394.237800 0.4200 0.4406 0.4410 0.4410 0.4404
1400.757765 0.4383 0.4364 0.4343 0.4303 0.4237
1407.277730 0.4195 0.4159 0.4084 0.3961 0.3792
1413.797695 0.3594 0.3451 0.3345 0.3219 0.3125
1420.317660 0.3061 0.3050 0.3063 0.3088 0.3092
1426.837625 0.3072 0.3041 0.2999 0.2976 0.2970
1433.357590 0.2973 0.3024 0.3212 0.3455 0.3582
1439.877555 0.3727 0.3829 0.3998 0.4193 0.4197
1446.397520 0.4190 0.4170 0.4074 0.3921 0.3766
1452.917485 0.3655 0.3531 0.3404 0.3338 0.3330
1459.437450 0.3330 0.3330 0.3330 0.3330 0.3330
1465.957415 0.3330 0.3331 0.3353 0.3476 0.3631
1472.477380 0.3745 0.3808 0.3920 0.3919 0.3889
1478.997345 0.3870 0.3869 0.3840 0.3860 0.3860
1485.517310 0.3880 0.3890 0.3909 0.4016 0.4191
1492.037275 0.4444 0.4798 0.5155 0.5511 0.5658
1498.557240 0.5859 0.6040 0.6113 0.6181 0.6250
1505.077205 0.6337 0.6443 0.6502 0.6518 0.6520
1511.597170 0.6520 0.6520 0.6520 0.6520 0.6520
1518.117135 0.6520 0.6512 0.6510 0.6480 0.6353
1524.637100 0.6267 0.6229 0.6157 0.6109 0.6086
1531.157065 0.6033 0.5923 0.5827 0.5741 0.5678
1537.677030 0.5641 0.5618 0.5610 0.5610 0.5598
1544.196995 0.5590 0.5590 0.5590 0.5584 0.5580
1550.716960 0.5575 0.5559 0.5534 0.5510 0.5490
1557.236925 0.5446 0.5366 0.5253 0.5067 0.4885
1563.756890 0.4802 0.4771 0.4751 0.4643 0.4473
1570.276855 0.4392 0.4310 0.4097 0.3833 0.3756
1576.796820 0.3569 0.3305 0.3199 0.3057 0.2862
1583.316785 0.2651 0.2497 0.2487 0.2483 0.2493
1589.836750 0.2519 0.2620 0.2932 0.3484 0.3650
1596.356715 0.3770 0.3864 0.3976 0.4096 0.4246
1602.876680 0.4486 0.4690 0.4690 0.4687 0.4663
1609.396645 0.4611 0.4534 0.4415 0.4378 0.4356
1615.916610 0.4311 0.4202 0.4001 0.3887 0.3837
1622.436575 0.3771 0.3566 0.3457 0.3368 0.3299
1628.956540 0.3230 0.3160 0.3121 0.3023 0.2856
1635.476505 0.2831 0.2726 0.2494 0.2274 0.2140
1641.996470 0.2039 0.1940 0.1912 0.1910 0.1910
1648.516435 0.1927 0.1956 0.1977 0.2098 0.2170
1655.036400 0.2221 0.2295 0.2366 0.2452 0.2525
1661.556365 0.2672 0.2886 0.3237 0.3428 0.3579
1668.076330 0.3730 0.3777 0.3780 0.3745 0.3716
1674.596295 0.3669 0.3623 0.3576 0.3407 0.3278
1681.116260 0.3198 0.3068 0.2816 0.2558 0.2361
1687.636225 0.2201 0.2122 0.2075 0.2015 0.1967
1694.156190 0.1922 0.1878 0.1833 0.1763 0.1658
1700.676155 0.1544 0.1425 0.1345 0.1320 0.1300
1707.196120 0.1285 0.1280 0.1280 0.1280 0.1280
1713.716085 0.1284 0.1290 0.1298 0.1318 0.1345
1720.236050 0.1374 0.1395 0.1449 0.1542 0.1623
1726.756015 0.1663 0.1743 0.1779 0.1812 0.1873
1733.275980 0.2028 0.2242 0.2316 0.2368 0.2405
1739.795945 0.2471 0.2565 0.2665 0.2724 0.2759
1746.315910 0.2834 0.2884 0.3059 0.3192 0.3202
1752.835875 0.3210 0.3209 0.3199 0.3184 0.3133
1759.355840 0.3079 0.3070 0.3073 0.3105 0.3162
1765.875805 0.3194 0.3263 0.3324 0.3435 0.3554
1772.395770 0.3684 0.3892 0.4060 0.4109 0.4130
1778.915735 0.4130 0.4178 0.4246 0.4449 0.4535
1785.435700 0.4559 0.4615 0.4665 0.4760 0.4877
1791.955665 0.4943 0.4976 0.5032 0.5049 0.5067
1798.475630 0.5112 0.5178 0.5256 0.5327 0.5356
1804.995595 0.5384 0.5398 0.5408 0.5433 0.5524
1811.515560 0.5602 0.5650 0.5667 0.5670 0.5677
1818.035525 0.5694 0.5686 0.5721 0.5760 0.5783
1824.555490 0.5797 0.5807 0.5823 0.5836 0.5865
1831.075455 0.5911 0.5960 0.6027 0.6066 0.6087
1837.595420 0.6100 0.6151 0.6196 0.6205 0.6215
1844.115385 0.6220 0.6235 0.6275 0.6315 0.6340
1850.635350 0.6369 0.6404 0.6429 0.6458 0.6493
1857.155315 0.6514 0.6520 0.6524 0.6530 0.6526
1863.675280 0.6520 0.6509 0.6490 0.6486 0.6480
1870.195245 0.6480 0.6550 0.6696 0.6710 0.6716
1876.715210 0.6730 0.6733 0.6737 0.6733 0.6743
1883.235175 0.6758 0.6785 0.6805 0.6822 0.6830
1889.755140 0.6839 0.6874 0.6890 0.6890 0.6893
1896.275105 0.6915 0.6943 0.6961 0.6971 0.6980
1902.795070 0.6982 0.7000 0.7001 0.7010 0.7011
1909.315035 0.7020 0.7019 0.7011 0.7020 0.7031
1915.835000 0.7061 0.7090 0.7090 0.7110 0.7110
1922.354965 0.7149 0.7179 0.7219 0.7220 0.7230
1928.874930 0.7249 0.7269 0.7288 0.7308 0.7319
1935.394895 0.7320 0.7329 0.7321 0.7320 0.7320
1941.914860 0.7320 0.7328 0.7330 0.7330 0.7338
1948.434825 0.7340 0.7356 0.7368 0.7378 0.7403
1954.954790 0.7441 0.7458 0.7467 0.7470 0.7470
1961.474755 0.7470 0.7470 0.7470 0.7470 0.7490
1967.994720 0.7507 0.7517 0.7533 0.7546 0.7550
1974.514685 0.7550 0.7550 0.7556 0.7560 0.7572
1981.034650 0.7580 0.7586 0.7596 0.7600 0.7600
1987.554615 0.7616 0.7630 0.7635 0.7645 0.7650
1994.074580 0.7660 0.7675 0.7685 0.7695 0.7709
2000.594545 0.7720 0.7725 0.7730 0.7730 0.7730
2007.114510 0.7730 0.7730 0.7730 0.7730 0.7730
2013.634475 0.7730 0.7730 0.7730 0.7735 0.7740
2020.154440 0.7740 0.7740 0.7749 0.7760 0.7760
2026.674405 0.7760 0.7760 0.7760 0.7760 0.7760
2033.194370 0.7760 0.7760 0.7760 0.7765 0.7775
2039.714335 0.7780 0.7785 0.7790 0.7799 0.7810
2046.234300 0.7810 0.7810 0.7810 0.7810 0.7810
2052.754265 0.7810 0.7810 0.7815 0.7820 0.7820
2059.274230 0.7820 0.7820 0.7815 0.7810 0.7810
2065.794195 0.7810 0.7810 0.7810 0.7810 0.7810
2072.314160 0.7810 0.7810 0.7810 0.7810 0.7810
2078.834125 0.7810 0.7810 0.7810 0.7810 0.7810
2085.354090 0.7810 0.7810 0.7815 0.7820 0.7820
2091.874055 0.7820 0.7820 0.7825 0.7830 0.7830
2098.394020 0.7830 0.7830 0.7839 0.7855 0.7860
2104.913985 0.7865 0.7870 0.7875 0.7880 0.7889
2111.433950 0.7900 0.7905 0.7910 0.7910 0.7915
2117.953915 0.7920 0.7920 0.7929 0.7940 0.7945
2124.473880 0.7950 0.7955 0.7960 0.7960 0.7960
2130.993845 0.7960 0.7960 0.7960 0.7960 0.7960
2137.513810 0.7960 0.7960 0.7960 0.7960 0.7960
2144.033775 0.7955 0.7950 0.7950 0.7959 0.7988
2150.553740 0.8019 0.8030 0.8030 0.8035 0.8040
2157.073705 0.8040 0.8035 0.8021 0.8005 0.8000
2163.593670 0.8000 0.8000 0.8000 0.8000 0.7995
2170.113635 0.7990 0.7990 0.7995 0.8018 0.8045
2176.633600 0.8050 0.8055 0.8060 0.8060 0.8060
2183.153565 0.8055 0.8045 0.8040 0.8040 0.8040
2189.673530 0.8040 0.8045 0.8050 0.8050 0.8064
2196.193495 0.8080 0.8085 0.8090 0.8090 0.8095
2202.713460 0.8100 0.8100 0.8100 0.8100 0.8100
2209.233425 0.8109 0.8120 0.8120 0.8120 0.8120
2215.753390 0.8120 0.8120 0.8120 0.8120 0.8120
2222.273355 0.8120 0.8120 0.8120 0.8120 0.8120
2228.793320 0.8120 0.8120 0.8120 0.8120 0.8120
2235.313285 0.8120 0.8120 0.8120 0.8120 0.8120
2241.833250 0.8120 0.8120 0.8120 0.8120 0.8120
2248.353215 0.8120 0.8120 0.8120 0.8111 0.8100
2254.873180 0.8100 0.8100 0.8100 0.8100 0.8100
2261.393145 0.8100 0.8100 0.8100 0.8100 0.8100
2267.913110 0.8100 0.8100 0.8100 0.8100 0.8100
2274.433075 0.8100 0.8100 0.8100 0.8100 0.8100
2280.953040 0.8109 0.8120 0.8120 0.8120 0.8120
2287.473005 0.8111 0.8100 0.8091 0.8066 0.8050
2293.992970 0.8045 0.8026 0.8010 0.8010 0.8005
2300.512935 0.8000 0.7995 0.7981 0.7970 0.7965
2307.032900 0.7955 0.7945 0.7931 0.7915 0.7896
2313.552865 0.7880 0.7875 0.7870 0.7865 0.7855
2320.072830 0.7841 0.7825 0.7806 0.7790 0.7781
2326.592795 0.7770 0.7770 0.7770 0.7765 0.7760
2333.112760 0.7751 0.7735 0.7730 0.7730 0.7725
2339.632725 0.7720 0.7720 0.7720 0.7720 0.7720
2346.152690 0.7720 0.7720 0.7720 0.7720 0.7720
2352.672655 0.7711 0.7709 0.7720 0.7720 0.7720
2359.192620 0.7720 0.7720 0.7720 0.7720 0.7725
2365.712585 0.7744 0.7765 0.7775 0.7794 0.7810
2372.232550 0.7810 0.7815 0.7820 0.7820 0.7820
2378.752515 0.7820 0.7820 0.7820 0.7820 0.7820
2385.272480 0.7820 0.7820 0.7820 0.7815 0.7810
2391.792445 0.7801 0.7785 0.7780 0.7775 0.7765
2398.312410 0.7746 0.7716 0.7700 0.7695 0.7690
2404.832375 0.7685 0.7680 0.7666 0.7650 0.7650
2411.352340 0.7645 0.7640 0.7635 0.7630 0.7621
2417.872305 0.7605 0.7600 0.7595 0.7585 0.7571
2424.392270 0.7560 0.7555 0.7545 0.7531 0.7520
2430.912235 0.7520 0.7511 0.7500 0.7500 0.7500
2437.432200 0.7486 0.7465 0.7446 0.7430 0.7430
2443.952165 0.7425 0.7420 0.7415 0.7410 0.7405
2450.472130 0.7400 0.7391 0.7380 0.7380 0.7380
2456.992095 0.7357 0.7321 0.7283 0.7245 0.7240
2463.512060 0.7240 0.7245 0.7259 0.7270 0.7270
2470.032025 0.7270 0.7270 0.7270 0.7256 0.7235
2476.551990 0.7225 0.7206 0.7190 0.7190 0.7190
2483.071955 0.7190 0.7185 0.7180 0.7180 0.7180
2489.591920 0.7171 0.7160 0.7160 0.7160 0.7160
2496.111885 0.7160 0.7160 0.7160 0.7160 0.7160
2502.631850 0.7160 0.7160 0.7160 0.7160 0.7160
2509.151815 0.7160 0.7160 0.7160 0.7155 0.7150
2515.671780 0.7145 0.7140 0.7126 0.7092 0.7061
2522.191745 0.7036 0.7020 0.7011 0.7000 0.6991
2528.711710 0.6975 0.6965 0.6951 0.6935 0.6925
2535.231675 0.6915 0.6910 0.6896 0.6862 0.6831
2541.751640 0.6820 0.6820 0.6820 0.6820 0.6820
2548.271605 0.6811 0.6791 0.6766 0.6750 0.6745
2554.791570 0.6704 0.6655 0.6650 0.6650 0.6650
2561.311535 0.6650 0.6655 0.6660 0.6665 0.6665
2567.831500 0.6674 0.6690 0.6695 0.6700 0.6700
2574.351465 0.6700 0.6686 0.6661 0.6632 0.6596
2580.871430 0.6575 0.6570 0.6565 0.6546 0.6525
2587.391395 0.6506 0.6490 0.6485 0.6471 0.6451
2593.911360 0.6422 0.6395 0.6381 0.6361 0.6345
2600.431325 0.6340 0.6335 0.6321 0.6305 0.6295
2606.951290 0.6285 0.6266 0.6236 0.6215 0.6205
2613.471255 0.6195 0.6181 0.6161 0.6141 0.6125
2619.991220 0.6102 0.6075 0.6070 0.6070 0.6070
2626.511185 0.6070 0.6070 0.6065 0.6051 0.6035
2633.031150 0.6025 0.6020 0.6020 0.6015 0.6001
2639.551115 0.5990 0.5990 0.5990 0.5981 0.5961
2646.071080 0.5945 0.5931 0.5906 0.5886 0.5871
2652.591045 0.5855 0.5850 0.5841 0.5821 0.5805
2659.111010 0.5800 0.5786 0.5747 0.5716 0.5715
2665.630975 0.5715 0.5710 0.5705 0.5705 0.5710
2672.150940 0.5710 0.5710 0.5705 0.5691 0.5675
2678.670905 0.5670 0.5670 0.5647 0.5620 0.5602
2685.190870 0.5562 0.5522 0.5495 0.5485 0.5466
2691.710835 0.5445 0.5435 0.5421 0.5405 0.5400
2698.230800 0.5386 0.5365 0.5342 0.5311 0.5300
2704.750765 0.5291 0.5257 0.5212 0.5185 0.5180
2711.270730 0.5175 0.5156 0.5131 0.5106 0.5072
2717.790695 0.5018 0.4966 0.4945 0.4945 0.4950
2724.310660 0.4945 0.4940 0.4940 0.4931 0.4915
2730.830625 0.4905 0.4895 0.4876 0.4837 0.4778
2737.350590 0.4740 0.4731 0.4702 0.4680 0.4666
2743.870555 0.4645 0.4635 0.4616 0.4591 0.4566
2750.390520 0.4541 0.4521 0.4505 0.4500 0.4495
2756.910485 0.4490 0.4481 0.4479 0.4490 0.4495
2763.430450 0.4495 0.4467 0.4426 0.4406 0.4400
2769.950415 0.4400 0.4400 0.4400 0.4400 0.4400
2776.470380 0.4400 0.4405 0.4410 0.4410 0.4415
2782.990345 0.4420 0.4429 0.4440 0.4431 0.4429
2789.510310 0.4445 0.4455 0.4474 0.4495 0.4514
2796.030275 0.4535 0.4549 0.4574 0.4595 0.4591
2802.550240 0.4580 0.4589 0.4609 0.4629 0.4640
2809.070205 0.4654 0.4688 0.4715 0.4725 0.4725
2815.590170 0.4729 0.4749 0.4765 0.4770 0.4775
2822.110135 0.4798 0.4825 0.4830 0.4844 0.4883
2828.630100 0.4928 0.4964 0.4989 0.5004 0.5019
2835.150065 0.5035 0.5045 0.5059 0.5075 0.5098
2841.670030 0.5138 0.5165 0.5170 0.5175 0.5198
2848.189995 0.5225 0.5230 0.5239 0.5250 0.5255
2854.709960 0.5260 0.5260 0.5260 0.5260 0.5265
2861.229925 0.5284 0.5309 0.5329 0.5363 0.5449
2867.749890 0.5534 0.5550 0.5559 0.5579 0.5590
2874.269855 0.5599 0.5619 0.5644 0.5669 0.5698
2880.789820 0.5738 0.5778 0.5805 0.5819 0.5839
2887.309785 0.5864 0.5903 0.5948 0.5993 0.6038
2893.829750 0.6069 0.6098 0.6134 0.6159 0.6179
2900.349715 0.6181 0.6165 0.6155 0.6141 0.6125
2906.869680 0.6115 0.6105 0.6064 0.5961 0.5872
2913.389645 0.5845 0.5817 0.5767 0.5740 0.5722
2919.909610 0.5673 0.5626 0.5592 0.5561 0.5550
2926.429575 0.5545 0.5535 0.5525 0.5511 0.5495
2932.949540 0.5485 0.5471 0.5451 0.5426 0.5401
2939.469505 0.5390 0.5381 0.5370 0.5370 0.5361
2945.989470 0.5336 0.5311 0.5282 0.5255 0.5250
2952.509435 0.5241 0.5230 0.5225 0.5220 0.5206
2959.029400 0.5190 0.5185 0.5180 0.5175 0.5170
2965.549365 0.5165 0.5142 0.5106 0.5090 0.5085
2972.069330 0.5062 0.5035 0.5012 0.4986 0.4971
2978.589295 0.4960 0.4960 0.4974 0.4990 0.4995
2985.109260 0.5014 0.5035 0.5040 0.5036 0.5016
2991.629225 0.5000 0.4991 0.4980 0.4980 0.4985
2998.149190 0.4990 0.4995 0.5014 0.5048 0.5070
3004.669155 0.5075 0.5080 0.5075 0.5070 0.5070
3011.189120 0.5070 0.5070 0.5079 0.5104 0.5125
3017.709085 0.5135 0.5154 0.5179 0.5204 0.5220
3024.229050 0.5215 0.5210 0.5201 0.5199 0.5210
3030.749015 0.5210 0.5201 0.5190 0.5190 0.5190
3037.268980 0.5199 0.5219 0.5239 0.5263 0.5289
3043.788945 0.5300 0.5305 0.5310 0.5315 0.5329
3050.308910 0.5340 0.5349 0.5360 0.5365 0.5370
3056.828875 0.5379 0.5390 0.5395 0.5414 0.5435
3063.348840 0.5449 0.5460 0.5496 0.5554 0.5575
3069.868805 0.5621 0.5675 0.5689 0.5718 0.5767
3076.388770 0.5805 0.5810 0.5810 0.5810 0.5810
3082.908735 0.5810 0.5810 0.5819 0.5835 0.5849
3089.428700 0.5869 0.5885 0.5904 0.5925 0.5935
3095.948665 0.5954 0.5970 0.5970 0.5970 0.5975
3102.468630 0.5980 0.5980 0.5980 0.5980 0.5980
3108.988595 0.5980 0.5980 0.5980 0.5980 0.5975
3115.508560 0.5970 0.5970 0.5970 0.5961 0.5950
3122.028525 0.5945 0.5935 0.5916 0.5900 0.5895
3128.548490 0.5885 0.5871 0.5855 0.5846 0.5835
3135.068455 0.5794 0.5732 0.5705 0.5691 0.5675
3141.588420 0.5665 0.5646 0.5621 0.5601 0.5585
3148.108385 0.5562 0.5522 0.5500 0.5495 0.5485
3154.628350 0.5471 0.5460 0.5446 0.5403 0.5361
3161.148315 0.5345 0.5331 0.5311 0.5291 0.5271
3167.668280 0.5242 0.5220 0.5202 0.5171 0.5142
3174.188245 0.5106 0.5072 0.5032 0.4996 0.4966
3180.708210 0.4945 0.4926 0.4905 0.4896 0.4872
3187.228175 0.4841 0.4821 0.4792 0.4765 0.4751
3193.748140 0.4731 0.4706 0.4681 0.4652 0.4616
3200.268105 0.4591 0.4566 0.4545 0.4540 0.4526
3206.788070 0.4492 0.4465 0.4442 0.4411 0.4386
3213.308035 0.4361 0.4350 0.4323 0.4281 0.4229
3219.828000 0.4157 0.4121 0.4087 0.4056 0.4050
3226.347965 0.4045 0.4031 0.4020 0.4020 0.4029
3232.867930 0.4040 0.4045 0.4055 0.4060 0.4074
3239.387895 0.4090 0.4095 0.4100 0.4114 0.4135
3245.907860 0.4163 0.4213 0.4272 0.4319 0.4339
3252.427825 0.4350 0.4355 0.4365 0.4370 0.4370
3258.947790 0.4370 0.4370 0.4370 0.4370 0.4365
3265.467755 0.4360 0.4360 0.4355 0.4350 0.4350
3271.987720 0.4336 0.4320 0.4315 0.4296 0.4275
3278.507685 0.4256 0.4222 0.4173 0.4135 0.4121
3285.027650 0.4105 0.4095 0.4058 0.4002 0.3975
3291.547615 0.3965 0.3955 0.3941 0.3921 0.3901
3298.067580 0.3881 0.3834 0.3786 0.3758 0.3712
3304.587545 0.3685 0.3662 0.3608 0.3543 0.3487
3311.107510 0.3446 0.3412 0.3367 0.3313 0.3271
3317.627475 0.3251 0.3204 0.3096 0.2997 0.2925
3324.147440 0.2838 0.2741 0.2625 0.2529 0.2408
3330.667405 0.2274 0.2197 0.2147 0.2115 0.2101
3337.187370 0.2085 0.2075 0.2070 0.2075 0.2085
3343.707335 0.2108 0.2130 0.2135 0.2154 0.2184
3350.227300 0.2214 0.2244 0.2260 0.2260 0.2260
3356.747265 0.2260 0.2255 0.2255 0.2260 0.2265
3363.267230 0.2288 0.2333 0.2369 0.2380 0.2380
3369.787195 0.2366 0.2345 0.2340 0.2331 0.2320
3376.307160 0.2315 0.2310 0.2305 0.2296 0.2290
3382.827125 0.2290 0.2290 0.2290 0.2290 0.2290
3389.347090 0.2304 0.2352 0.2417 0.2468 0.2504
3395.867055 0.2538 0.2574 0.2617 0.2677 0.2728
3402.387020 0.2759 0.2806 0.2859 0.2879 0.2895
3408.906985 0.2932 0.2993 0.3038 0.3060 0.3069
3415.426950 0.3089 0.3100 0.3118 0.3140 0.3163
3421.946915 0.3208 0.3230 0.3257 0.3308 0.3339
3428.466880 0.3377 0.3442 0.3489 0.3514 0.3530
3434.986845 0.3548 0.3588 0.3615 0.3638 0.3683
3441.506810 0.3724 0.3754 0.3775 0.3780 0.3780
3448.026775 0.3785 0.3790 0.3790 0.3790 0.3785
3454.546740 0.3780 0.3780 0.3775 0.3775 0.3766
3461.066705 0.3732 0.3701 0.3685 0.3653 0.3597
3467.586670 0.3565 0.3515 0.3406 0.3318 0.3276
3474.106635 0.3246 0.3189 0.3104 0.3042 0.3006
3480.626600 0.2981 0.2970 0.2979 0.3048 0.3134
3487.146565 0.3168 0.3236 0.3304 0.3361 0.3451
3493.666530 0.3500 0.3514 0.3544 0.3587 0.3674
3500.186495 0.3776 0.3847 0.3894 0.3919 0.3944
3506.706460 0.3960 0.3960 0.3960 0.3965 0.3965
3513.226425 0.3960 0.3960 0.3960 0.3942 0.3906
3519.746390 0.3885 0.3875 0.3865 0.3846 0.3812
3526.266355 0.3785 0.3775 0.3752 0.3716 0.3677
3532.786320 0.3627 0.3582 0.3542 0.3516 0.3496
3539.306285 0.3475 0.3470 0.3465 0.3465 0.3470
3545.826250 0.3470 0.3470 0.3470 0.3470 0.3493
3552.346215 0.3538 0.3574 0.3617 0.3668 0.3690
3558.866180 0.3717 0.3791 0.3876 0.3938 0.3965
3565.386145 0.3970 0.4002 0.4081 0.4144 0.4196
3571.906110 0.4330 0.4467 0.4523 0.4595 0.4704
3578.426075 0.4806 0.4877 0.4933 0.4974 0.4990
3584.946040 0.4999 0.5028 0.5064 0.5121 0.5197
3591.466005 0.5244 0.5287 0.5334 0.5355 0.5437
3597.985970 0.5553 0.5598 0.5638 0.5683 0.5728
3604.505935 0.5777 0.5833 0.5869 0.5880 0.5889
3611.025900 0.5909 0.5929 0.5958 0.5994 0.6010
3617.545865 0.6015 0.6029 0.6076 0.6120 0.6138
3624.065830 0.6178 0.6218 0.6240 0.6262 0.6299
3630.585795 0.6360 0.6438 0.6555 0.6720 0.6812
3637.105760 0.6877 0.6910 0.6910 0.6915 0.6943
3643.625725 0.7011 0.7065 0.7079 0.7090 0.7095
3650.145690 0.7100 0.7123 0.7186 0.7248 0.7279
3656.665655 0.7299 0.7315 0.7320 0.7320 0.7320
3663.185620 0.7325 0.7335 0.7358 0.7398 0.7425
3669.705585 0.7466 0.7524 0.7549 0.7569 0.7580
3676.225550 0.7585 0.7590 0.7590 0.7590 0.7595
3682.745515 0.7605 0.7610 0.7610 0.7619 0.7630
3689.265480 0.7630 0.7639 0.7700 0.7765 0.7779
3695.785445 0.7799 0.7810 0.7815 0.7825 0.7830
3702.305410 0.7848 0.7884 0.7905 0.7924 0.7949
3708.825375 0.7960 0.7960 0.7965 0.7979 0.7990
3715.345340 0.7999 0.8024 0.8049 0.8060 0.8074
3721.865305 0.8090 0.8095 0.8109 0.8125 0.8135
3728.385270 0.8140 0.8145 0.8159 0.8175 0.8180
3734.905235 0.8185 0.8190 0.8204 0.8220 0.8225
3741.425200 0.8230 0.8230 0.8230 0.8230 0.8225
3747.945165 0.8220 0.8215 0.8210 0.8201 0.8190
3754.465130 0.8199 0.8215 0.8220 0.8225 0.8235
3760.985095 0.8249 0.8265 0.8270 0.8270 0.8270
3767.505060 0.8270 0.8270 0.8270 0.8266 0.8260
3774.025025 0.8260 0.8251 0.8240 0.8249 0.8269
3780.544990 0.8294 0.8315 0.8320 0.8325 0.8330
3787.064955 0.8339 0.8359 0.8379 0.8390 0.8395
3793.584920 0.8400 0.8405 0.8410 0.8410 0.8410
3800.104885 0.8410 0.8410 0.8410 0.8405 0.8400
3806.624850 0.8400 0.8400 0.8400 0.8405 0.8415
3813.144815 0.8420 0.8429 0.8440 0.8445 0.8450
3819.664780 0.8445 0.8431 0.8420 0.8416 0.8415
3826.184745 0.8415 0.8405 0.8400 0.8400 0.8395
3832.704710 0.8390 0.8390 0.8390 0.8390 0.8390
3839.224675 0.8395 0.8400 0.8400 0.8400 0.8400
3845.744640 0.8400 0.8400 0.8409 0.8433 0.8450
3852.264605 0.8450 0.8450 0.8450 0.8450 0.8450
3858.784570 0.8455 0.8455 0.8450 0.8450 0.8450
3865.304535 0.8450 0.8450 0.8450 0.8450 0.8450
3871.824500 0.8450 0.8450 0.8450 0.8450 0.8450
3878.344465 0.8450 0.8450 0.8464 0.8485 0.8490
3884.864430 0.8490 0.8490 0.8490 0.8490 0.8490
3891.384395 0.8490 0.8490 0.8490 0.8490 0.8485
3897.904360 0.8480 0.8466 0.8436 0.8420 0.8420
3904.424325 0.8420 0.8420 0.8429 0.8431 0.8429
3910.944290 0.8440 0.8445 0.8450 0.8450 0.8450
3917.464255 0.8450 0.8450 0.8450 0.8455 0.8469
3923.984220 0.8480 0.8485 0.8495 0.8505 0.8510
3930.504185 0.8519 0.8521 0.8519 0.8530 0.8535
3937.024150 0.8540 0.8545 0.8550 0.8550 0.8550
3943.544115 0.8545 0.8535 0.8521 0.8505 0.8500
3950.064080 0.8500 0.8495 0.8490 0.8490 0.8490
3956.584045 0.8495 0.8514 0.8535 0.8545 0.8550
3963.104010 0.8550 0.8550 0.8550 0.8541 0.8530
3969.623975 0.8530 0.8530 0.8530 0.8530 0.8535
3976.143940 0.8540 0.8540 0.8545 0.8559 0.8570
3982.663905 0.8561 0.8541 0.8539 0.8550 0.8545
3989.183870 0.8545 0.8550 0.8550 0.8559 0.8570
3995.703835 0.8570 0.8575 0.8580 0.8580 0.8580
4002.223800 0.8580 0.8580 0.8580 0.8580 0.8580
4008.743765 0.8580 0.8580 0.8580 0.8580
##END=
