##TITLE=Hexadecane-1-sulfonic acid, sodium salt
##JCAMP-DX=4.24
$$ By DXEDIT 1.05 (RS McDonald)
##DATA TYPE=INFRARED SPECTRUM
##CLASS=COBLENTZ III
##ORIGIN=DOW CHEMICAL COMPANY
##OWNER=COPYRIGHT (C) 1988 by COBLENTZ SOCIETY INC.
Collection (C) 2018 copyright by the U.S. Secretary of Commerce
on behalf of the United States of America. All rights reserved.
##DATE=1970/06/24
##MOLFORM=C16 H33 O3 S Na
##SOURCE REFERENCE=COBLENTZ NO. 09743
##$NIST ID=B6009743
##$NIST SOURCE=COBLENTZ
##$NIST IMAGE=cob9743
##SPECTROMETER/DATA SYSTEM=DOW KBr FOREPRISM-GRATING
##INSTRUMENT PARAMETERS=BLAZED AT 3.5, 12.0, 20.0 MICRON AND CHANGED AT 5.0, 7.5, 14.9 MICRON
##STATE=SOLID (SPLIT MULL), FLUOROLUBE FOR 3800-1330 CM^-^1, NUJOL FOR 1330-400 CM^-^1
$$ SEE SPECTRUM NO. 9745 FOR "KBr DISC" RUN
$$SPECTRAL CONTAMINATION DUE TO H2O AROUND 3420 CM^-^1
##SAMPLING PROCEDURE=TRANSMISSION
##RESOLUTION=2
##DATA PROCESSING=DIGITIZED BY COBLENTZ SOCIETY (BATCH I) FROM HARD COPY
##XUNITS=1/CM
##YUNITS=TRANSMITTANCE
##XFACTOR=1
##YFACTOR=1
##DELTAX=1
##FIRSTX=3794
##LASTX=395
##FIRSTY=0.8112
##MAXX=3794
##MINX=395
##MAXY=0.911
##MINY=0.0176
##NPOINTS=3400
##XYDATA=(X++(Y..Y))
3794.000000 0.8112 0.8112 0.8114 0.8115 0.8115
3789.000000 0.8117 0.8118 0.8119 0.8121 0.8121
3784.000000 0.8122 0.8124 0.8125 0.8125 0.8126
3779.000000 0.8128 0.8130 0.8131 0.8132 0.8133
3774.000000 0.8134 0.8135 0.8136 0.8136 0.8137
3769.000000 0.8137 0.8138 0.8138 0.8139 0.8139
3764.000000 0.8139 0.8140 0.8141 0.8141 0.8142
3759.000000 0.8142 0.8143 0.8143 0.8144 0.8144
3754.000000 0.8145 0.8145 0.8146 0.8146 0.8147
3749.000000 0.8147 0.8147 0.8147 0.8147 0.8147
3744.000000 0.8147 0.8146 0.8146 0.8146 0.8146
3739.000000 0.8146 0.8146 0.8146 0.8146 0.8146
3734.000000 0.8146 0.8145 0.8145 0.8145 0.8145
3729.000000 0.8145 0.8145 0.8145 0.8145 0.8145
3724.000000 0.8145 0.8145 0.8146 0.8146 0.8146
3719.000000 0.8146 0.8146 0.8146 0.8146 0.8146
3714.000000 0.8146 0.8146 0.8146 0.8146 0.8146
3709.000000 0.8146 0.8146 0.8146 0.8146 0.8146
3704.000000 0.8147 0.8147 0.8148 0.8148 0.8149
3699.000000 0.8149 0.8150 0.8150 0.8151 0.8151
3694.000000 0.8153 0.8153 0.8154 0.8154 0.8155
3689.000000 0.8155 0.8156 0.8156 0.8157 0.8157
3684.000000 0.8158 0.8158 0.8160 0.8160 0.8161
3679.000000 0.8161 0.8161 0.8161 0.8162 0.8164
3674.000000 0.8165 0.8165 0.8165 0.8165 0.8167
3669.000000 0.8168 0.8168 0.8168 0.8169 0.8169
3664.000000 0.8171 0.8171 0.8172 0.8172 0.8172
3659.000000 0.8172 0.8174 0.8174 0.8174 0.8174
3654.000000 0.8175 0.8175 0.8175 0.8175 0.8175
3649.000000 0.8175 0.8175 0.8175 0.8175 0.8175
3644.000000 0.8176 0.8176 0.8176 0.8176 0.8178
3639.000000 0.8178 0.8178 0.8176 0.8175 0.8175
3634.000000 0.8175 0.8174 0.8174 0.8172 0.8172
3629.000000 0.8171 0.8171 0.8171 0.8169 0.8168
3624.000000 0.8168 0.8167 0.8165 0.8165 0.8164
3619.000000 0.8161 0.8161 0.8158 0.8158 0.8156
3614.000000 0.8155 0.8153 0.8151 0.8150 0.8148
3609.000000 0.8142 0.8137 0.8131 0.8125 0.8118
3604.000000 0.8112 0.8107 0.8101 0.8096 0.8090
3599.000000 0.8084 0.8078 0.8071 0.8067 0.8061
3594.000000 0.8055 0.8049 0.8044 0.8042 0.8040
3589.000000 0.8039 0.8038 0.8037 0.8036 0.8035
3584.000000 0.8034 0.8033 0.8032 0.8031 0.8030
3579.000000 0.8028 0.8028 0.8026 0.8025 0.8022
3574.000000 0.8019 0.8015 0.8011 0.8008 0.8004
3569.000000 0.8000 0.7996 0.7992 0.7988 0.7984
3564.000000 0.7980 0.7975 0.7971 0.7965 0.7961
3559.000000 0.7954 0.7948 0.7942 0.7936 0.7928
3554.000000 0.7922 0.7917 0.7911 0.7904 0.7898
3549.000000 0.7893 0.7888 0.7883 0.7878 0.7872
3544.000000 0.7868 0.7862 0.7858 0.7856 0.7854
3539.000000 0.7851 0.7851 0.7850 0.7849 0.7848
3534.000000 0.7847 0.7846 0.7845 0.7843 0.7842
3529.000000 0.7841 0.7840 0.7838 0.7837 0.7835
3524.000000 0.7834 0.7832 0.7831 0.7828 0.7828
3519.000000 0.7826 0.7825 0.7822 0.7821 0.7818
3514.000000 0.7815 0.7811 0.7808 0.7805 0.7801
3509.000000 0.7798 0.7795 0.7789 0.7784 0.7778
3504.000000 0.7771 0.7765 0.7758 0.7753 0.7747
3499.000000 0.7741 0.7735 0.7728 0.7722 0.7715
3494.000000 0.7707 0.7695 0.7683 0.7671 0.7660
3489.000000 0.7648 0.7637 0.7625 0.7612 0.7598
3484.000000 0.7583 0.7565 0.7549 0.7532 0.7515
3479.000000 0.7498 0.7482 0.7465 0.7448 0.7431
3474.000000 0.7414 0.7397 0.7381 0.7364 0.7348
3469.000000 0.7328 0.7310 0.7290 0.7271 0.7251
3464.000000 0.7233 0.7218 0.7203 0.7188 0.7174
3459.000000 0.7158 0.7145 0.7131 0.7118 0.7105
3454.000000 0.7093 0.7081 0.7068 0.7061 0.7053
3449.000000 0.7045 0.7038 0.7031 0.7024 0.7017
3444.000000 0.7010 0.7003 0.6996 0.6988 0.6981
3439.000000 0.6974 0.6967 0.6958 0.6951 0.6945
3434.000000 0.6938 0.6931 0.6924 0.6918 0.6911
3429.000000 0.6906 0.6900 0.6894 0.6888 0.6885
3424.000000 0.6882 0.6882 0.6882 0.6882 0.6883
3419.000000 0.6885 0.6888 0.6892 0.6897 0.6901
3414.000000 0.6907 0.6928 0.6949 0.6971 0.6994
3409.000000 0.7015 0.7039 0.7061 0.7085 0.7112
3404.000000 0.7141 0.7168 0.7197 0.7224 0.7251
3399.000000 0.7274 0.7298 0.7321 0.7346 0.7362
3394.000000 0.7380 0.7396 0.7411 0.7428 0.7444
3389.000000 0.7460 0.7475 0.7492 0.7508 0.7525
3384.000000 0.7541 0.7557 0.7572 0.7583 0.7593
3379.000000 0.7603 0.7614 0.7624 0.7635 0.7645
3374.000000 0.7656 0.7665 0.7676 0.7687 0.7698
3369.000000 0.7708 0.7718 0.7728 0.7739 0.7748
3364.000000 0.7758 0.7768 0.7778 0.7788 0.7798
3359.000000 0.7807 0.7817 0.7826 0.7837 0.7846
3354.000000 0.7856 0.7862 0.7871 0.7878 0.7887
3349.000000 0.7894 0.7901 0.7910 0.7918 0.7925
3344.000000 0.7934 0.7941 0.7949 0.7955 0.7961
3339.000000 0.7968 0.7974 0.7978 0.7985 0.7991
3334.000000 0.7997 0.8001 0.8008 0.8014 0.8019
3329.000000 0.8025 0.8031 0.8036 0.8041 0.8044
3324.000000 0.8047 0.8050 0.8053 0.8056 0.8058
3319.000000 0.8061 0.8065 0.8068 0.8071 0.8074
3314.000000 0.8076 0.8080 0.8083 0.8086 0.8089
3309.000000 0.8092 0.8095 0.8097 0.8100 0.8103
3304.000000 0.8106 0.8108 0.8111 0.8114 0.8117
3299.000000 0.8118 0.8121 0.8124 0.8126 0.8130
3294.000000 0.8133 0.8135 0.8138 0.8140 0.8143
3289.000000 0.8146 0.8149 0.8151 0.8154 0.8157
3284.000000 0.8160 0.8164 0.8168 0.8171 0.8175
3279.000000 0.8178 0.8183 0.8187 0.8191 0.8194
3274.000000 0.8198 0.8202 0.8206 0.8210 0.8214
3269.000000 0.8217 0.8221 0.8225 0.8228 0.8233
3264.000000 0.8237 0.8240 0.8244 0.8248 0.8252
3259.000000 0.8255 0.8259 0.8263 0.8267 0.8271
3254.000000 0.8275 0.8278 0.8282 0.8286 0.8290
3249.000000 0.8294 0.8298 0.8301 0.8305 0.8308
3244.000000 0.8312 0.8315 0.8318 0.8323 0.8327
3239.000000 0.8330 0.8334 0.8337 0.8341 0.8344
3234.000000 0.8348 0.8351 0.8355 0.8359 0.8363
3229.000000 0.8366 0.8370 0.8373 0.8377 0.8380
3224.000000 0.8384 0.8388 0.8392 0.8394 0.8397
3219.000000 0.8400 0.8403 0.8406 0.8409 0.8411
3214.000000 0.8414 0.8417 0.8420 0.8421 0.8425
3209.000000 0.8428 0.8431 0.8433 0.8436 0.8439
3204.000000 0.8442 0.8445 0.8448 0.8450 0.8453
3199.000000 0.8456 0.8459 0.8461 0.8464 0.8467
3194.000000 0.8470 0.8473 0.8475 0.8478 0.8481
3189.000000 0.8483 0.8486 0.8488 0.8491 0.8493
3184.000000 0.8496 0.8498 0.8501 0.8503 0.8506
3179.000000 0.8508 0.8511 0.8514 0.8517 0.8518
3174.000000 0.8521 0.8524 0.8527 0.8528 0.8532
3169.000000 0.8534 0.8537 0.8539 0.8542 0.8544
3164.000000 0.8547 0.8550 0.8553 0.8555 0.8557
3159.000000 0.8558 0.8559 0.8560 0.8562 0.8563
3154.000000 0.8564 0.8565 0.8567 0.8568 0.8568
3149.000000 0.8570 0.8571 0.8573 0.8574 0.8575
3144.000000 0.8577 0.8578 0.8578 0.8580 0.8582
3139.000000 0.8583 0.8584 0.8585 0.8587 0.8588
3134.000000 0.8589 0.8590 0.8591 0.8591 0.8591
3129.000000 0.8590 0.8590 0.8590 0.8590 0.8589
3124.000000 0.8589 0.8588 0.8588 0.8587 0.8587
3119.000000 0.8587 0.8587 0.8586 0.8586 0.8585
3114.000000 0.8585 0.8584 0.8584 0.8584 0.8584
3109.000000 0.8583 0.8583 0.8582 0.8582 0.8580
3104.000000 0.8578 0.8577 0.8575 0.8574 0.8573
3099.000000 0.8571 0.8570 0.8568 0.8568 0.8566
3094.000000 0.8565 0.8563 0.8562 0.8560 0.8559
3089.000000 0.8557 0.8556 0.8555 0.8554 0.8552
3084.000000 0.8551 0.8549 0.8548 0.8546 0.8545
3079.000000 0.8543 0.8542 0.8539 0.8537 0.8534
3074.000000 0.8532 0.8528 0.8527 0.8525 0.8523
3069.000000 0.8520 0.8518 0.8515 0.8535 0.8510
3064.000000 0.8508 0.8506 0.8504 0.8501 0.8499
3059.000000 0.8496 0.8494 0.8491 0.8489 0.8486
3054.000000 0.8484 0.8481 0.8478 0.8475 0.8473
3049.000000 0.8470 0.8467 0.8464 0.8461 0.8458
3044.000000 0.8455 0.8452 0.8450 0.8447 0.8444
3039.000000 0.8441 0.8438 0.8435 0.8432 0.8428
3034.000000 0.8425 0.8423 0.8421 0.8418 0.8415
3029.000000 0.8411 0.8407 0.8401 0.8396 0.8390
3024.000000 0.8385 0.8378 0.8374 0.8368 0.8363
3019.000000 0.8357 0.8352 0.8346 0.8341 0.8335
3014.000000 0.8330 0.8324 0.8318 0.8313 0.8307
3009.000000 0.8301 0.8295 0.8285 0.8275 0.8266
3004.000000 0.8257 0.8247 0.8238 0.8228 0.8218
2999.000000 0.8208 0.8199 0.8188 0.8178 0.8161
2994.000000 0.8147 0.8124 0.8101 0.8038 0.7975
2989.000000 0.7889 0.7803 0.7782 0.7761 0.7749
2984.000000 0.7738 0.7728 0.7719 0.7710 0.7701
2979.000000 0.7514 0.7328 0.7100 0.6872 0.6645
2974.000000 0.6418 0.6190 0.5962 0.5736 0.5509
2969.000000 0.5281 0.5054 0.4826 0.4599 0.4371
2964.000000 0.4144 0.3916 0.3689 0.3460 0.3234
2959.000000 0.3141 0.3051 0.3057 0.3065 0.3202
2954.000000 0.3340 0.3477 0.3614 0.3752 0.3890
2949.000000 0.3970 0.4044 0.4050 0.4050 0.3832
2944.000000 0.3612 0.3360 0.3109 0.2857 0.2606
2939.000000 0.2354 0.2102 0.1850 0.1599 0.1355
2934.000000 0.1112 0.0934 0.0756 0.0683 0.0610
2929.000000 0.0523 0.0437 0.0391 0.0345 0.0310
2924.000000 0.0276 0.0252 0.0229 0.0212 0.0197
2919.000000 0.0190 0.0183 0.0180 0.0176 0.0183
2914.000000 0.0190 0.0212 0.0236 0.0392 0.0547
2909.000000 0.0711 0.0875 0.1038 0.1202 0.1366
2904.000000 0.1530 0.1634 0.1740 0.1819 0.1899
2899.000000 0.1978 0.2057 0.2135 0.2216 0.2295
2894.000000 0.2375 0.2454 0.2534 0.2613 0.2692
2889.000000 0.2771 0.2851 0.2930 0.3010 0.3089
2884.000000 0.3169 0.3248 0.3327 0.3406 0.3486
2879.000000 0.3564 0.3645 0.3691 0.3737 0.3745
2874.000000 0.3754 0.3753 0.3752 0.3766 0.3768
2869.000000 0.3768 0.3768 0.3768 0.3766 0.3740
2864.000000 0.3712 0.3312 0.2913 0.2513 0.2113
2859.000000 0.1713 0.1313 0.0913 0.0513 0.0400
2854.000000 0.0288 0.0285 0.0284 0.0284 0.0286
2849.000000 0.0490 0.0694 0.0993 0.1294 0.1594
2844.000000 0.1894 0.2195 0.2496 0.2894 0.3293
2839.000000 0.3734 0.4177 0.4267 0.4357 0.4453
2834.000000 0.4550 0.4678 0.4807 0.4962 0.5118
2829.000000 0.5242 0.5366 0.5455 0.5544 0.5633
2824.000000 0.5722 0.5899 0.6076 0.6151 0.6226
2819.000000 0.6284 0.6343 0.6389 0.6436 0.6482
2814.000000 0.6528 0.6569 0.6611 0.6645 0.6678
2809.000000 0.6712 0.6748 0.6782 0.6815 0.6850
2804.000000 0.6884 0.6912 0.6943 0.6969 0.6997
2799.000000 0.7024 0.7051 0.7078 0.7106 0.7133
2794.000000 0.7161 0.7188 0.7215 0.7233 0.7251
2789.000000 0.7268 0.7288 0.7306 0.7325 0.7343
2784.000000 0.7361 0.7378 0.7398 0.7415 0.7434
2779.000000 0.7451 0.7469 0.7488 0.7506 0.7524
2774.000000 0.7542 0.7560 0.7578 0.7593 0.7608
2769.000000 0.7622 0.7638 0.7651 0.7667 0.7682
2764.000000 0.7697 0.7711 0.7725 0.7740 0.7754
2759.000000 0.7768 0.7782 0.7795 0.7808 0.7815
2754.000000 0.7824 0.7828 0.7833 0.7837 0.7842
2749.000000 0.7845 0.7849 0.7851 0.7856 0.7858
2744.000000 0.7862 0.7865 0.7869 0.7872 0.7876
2739.000000 0.7881 0.7885 0.7889 0.7894 0.7898
2734.000000 0.7903 0.7907 0.7911 0.7915 0.7921
2729.000000 0.7925 0.7930 0.7936 0.7943 0.7950
2724.000000 0.7958 0.7965 0.7972 0.7980 0.7988
2719.000000 0.7995 0.8003 0.8011 0.8021 0.8030
2714.000000 0.8040 0.8049 0.8058 0.8067 0.8075
2709.000000 0.8085 0.8094 0.8098 0.8103 0.8107
2704.000000 0.8111 0.8115 0.8119 0.8124 0.8128
2699.000000 0.8133 0.8137 0.8138 0.8140 0.8141
2694.000000 0.8142 0.8143 0.8145 0.8146 0.8147
2689.000000 0.8148 0.8150 0.8150 0.8150 0.8150
2684.000000 0.8150 0.8149 0.8149 0.8148 0.8148
2679.000000 0.8148 0.8148 0.8147 0.8147 0.8147
2674.000000 0.8147 0.8146 0.8146 0.8146 0.8146
2669.000000 0.8145 0.8145 0.8144 0.8143 0.8142
2664.000000 0.8141 0.8140 0.8139 0.8138 0.8137
2659.000000 0.8136 0.8135 0.8133 0.8132 0.8131
2654.000000 0.8130 0.8128 0.8128 0.8128 0.8128
2649.000000 0.8128 0.8130 0.8130 0.8130 0.8130
2644.000000 0.8130 0.8130 0.8131 0.8131 0.8131
2639.000000 0.8132 0.8133 0.8135 0.8137 0.8139
2634.000000 0.8142 0.8144 0.8146 0.8148 0.8151
2629.000000 0.8153 0.8156 0.8158 0.8162 0.8167
2624.000000 0.8171 0.8176 0.8182 0.8187 0.8192
2619.000000 0.8196 0.8201 0.8208 0.8215 0.8221
2614.000000 0.8230 0.8237 0.8244 0.8250 0.8256
2609.000000 0.8260 0.8264 0.8268 0.8273 0.8277
2604.000000 0.8281 0.8285 0.8290 0.8294 0.8299
2599.000000 0.8301 0.8304 0.8306 0.8309 0.8311
2594.000000 0.8314 0.8316 0.8318 0.8320 0.8323
2589.000000 0.8325 0.8328 0.8330 0.8333 0.8335
2584.000000 0.8337 0.8339 0.8342 0.8344 0.8347
2579.000000 0.8349 0.8352 0.8354 0.8356 0.8358
2574.000000 0.8361 0.8363 0.8366 0.8368 0.8370
2569.000000 0.8371 0.8375 0.8377 0.8378 0.8381
2564.000000 0.8384 0.8386 0.8389 0.8391 0.8393
2559.000000 0.8394 0.8395 0.8396 0.8409 0.8399
2554.000000 0.8400 0.8401 0.8402 0.8403 0.8405
2549.000000 0.8406 0.8407 0.8408 0.8410 0.8411
2544.000000 0.8412 0.8413 0.8414 0.8415 0.8417
2539.000000 0.8418 0.8418 0.8420 0.8421 0.8421
2534.000000 0.8421 0.8421 0.8423 0.8423 0.8423
2529.000000 0.8423 0.8424 0.8424 0.8425 0.8425
2524.000000 0.8425 0.8425 0.8425 0.8425 0.8425
2519.000000 0.8425 0.8427 0.8427 0.8428 0.8428
2514.000000 0.8428 0.8428 0.8428 0.8428 0.8428
2509.000000 0.8428 0.8430 0.8430 0.8431 0.8431
2504.000000 0.8431 0.8431 0.8432 0.8432 0.8432
2499.000000 0.8432 0.8433 0.8433 0.8433 0.8433
2494.000000 0.8434 0.8434 0.8435 0.8435 0.8435
2489.000000 0.8434 0.8434 0.8434 0.8434 0.8434
2484.000000 0.8434 0.8434 0.8434 0.8433 0.8433
2479.000000 0.8433 0.8433 0.8433 0.8433 0.8433
2474.000000 0.8433 0.8433 0.8433 0.8432 0.8432
2469.000000 0.8432 0.8432 0.8432 0.8432 0.8432
2464.000000 0.8432 0.8431 0.8431 0.8430 0.8428
2459.000000 0.8428 0.8427 0.8425 0.8424 0.8423
2454.000000 0.8421 0.8420 0.8418 0.8418 0.8417
2449.000000 0.8416 0.8415 0.8413 0.8412 0.8411
2444.000000 0.8410 0.8408 0.8407 0.8405 0.8403
2439.000000 0.8401 0.8399 0.8397 0.8395 0.8393
2434.000000 0.8391 0.8389 0.8387 0.8385 0.8383
2429.000000 0.8380 0.8378 0.8375 0.8374 0.8371
2424.000000 0.8370 0.8367 0.8365 0.8363 0.8361
2419.000000 0.8359 0.8357 0.8354 0.8352 0.8350
2414.000000 0.8348 0.8346 0.8344 0.8341 0.8339
2409.000000 0.8336 0.8334 0.8332 0.8330 0.8327
2404.000000 0.8325 0.8321 0.8320 0.8317 0.8315
2399.000000 0.8313 0.8311 0.8309 0.8307 0.8306
2394.000000 0.8306 0.8305 0.8305 0.8305 0.8305
2389.000000 0.8304 0.8304 0.8303 0.8303 0.8304
2384.000000 0.8305 0.8306 0.8308 0.8309 0.8311
2379.000000 0.8313 0.8315 0.8316 0.8318 0.8318
2374.000000 0.8321 0.8321 0.8324 0.8325 0.8325
2369.000000 0.8325 0.8325 0.8324 0.8324 0.8323
2364.000000 0.8323 0.8321 0.8321 0.8321 0.8321
2359.000000 0.8316 0.8312 0.8306 0.8301 0.8295
2354.000000 0.8290 0.8285 0.8280 0.8274 0.8268
2349.000000 0.8264 0.8259 0.8254 0.8249 0.8244
2344.000000 0.8240 0.8235 0.8230 0.8225 0.8221
2339.000000 0.8216 0.8211 0.8206 0.8202 0.8198
2334.000000 0.8195 0.8192 0.8189 0.8186 0.8183
2329.000000 0.8178 0.8175 0.8172 0.8169 0.8167
2324.000000 0.8164 0.8161 0.8158 0.8154 0.8151
2319.000000 0.8148 0.8145 0.8142 0.8139 0.8135
2314.000000 0.8132 0.8128 0.8126 0.8124 0.8121
2309.000000 0.8119 0.8118 0.8115 0.8112 0.8111
2304.000000 0.8108 0.8107 0.8105 0.8101 0.8100
2299.000000 0.8098 0.8096 0.8094 0.8092 0.8090
2294.000000 0.8089 0.8087 0.8086 0.8084 0.8083
2289.000000 0.8081 0.8080 0.8078 0.8076 0.8075
2284.000000 0.8075 0.8075 0.8075 0.8075 0.8076
2279.000000 0.8076 0.8078 0.8078 0.8078 0.8078
2274.000000 0.8078 0.8078 0.8080 0.8080 0.8080
2269.000000 0.8081 0.8083 0.8086 0.8090 0.8093
2264.000000 0.8096 0.8099 0.8103 0.8106 0.8108
2259.000000 0.8111 0.8115 0.8118 0.8121 0.8125
2254.000000 0.8128 0.8132 0.8135 0.8139 0.8144
2249.000000 0.8148 0.8153 0.8157 0.8161 0.8165
2244.000000 0.8171 0.8175 0.8180 0.8184 0.8189
2239.000000 0.8193 0.8198 0.8202 0.8207 0.8211
2234.000000 0.8216 0.8221 0.8227 0.8232 0.8238
2229.000000 0.8243 0.8248 0.8253 0.8259 0.8264
2224.000000 0.8270 0.8275 0.8281 0.8285 0.8289
2219.000000 0.8293 0.8297 0.8301 0.8305 0.8309
2214.000000 0.8313 0.8317 0.8321 0.8325 0.8328
2209.000000 0.8333 0.8338 0.8342 0.8346 0.8350
2204.000000 0.8355 0.8359 0.8363 0.8367 0.8371
2199.000000 0.8375 0.8380 0.8384 0.8389 0.8393
2194.000000 0.8398 0.8402 0.8407 0.8411 0.8416
2189.000000 0.8421 0.8425 0.8432 0.8439 0.8451
2184.000000 0.8464 0.8480 0.8497 0.8507 0.8517
2179.000000 0.8518 0.8520 0.8520 0.8520 0.8516
2174.000000 0.8512 0.8507 0.8503 0.8498 0.8493
2169.000000 0.8488 0.8483 0.8484 0.8485 0.8486
2164.000000 0.8488 0.8490 0.8492 0.8493 0.8495
2159.000000 0.8497 0.8499 0.8500 0.8502 0.8504
2154.000000 0.8506 0.8507 0.8509 0.8511 0.8513
2149.000000 0.8514 0.8516 0.8517 0.8518 0.8520
2144.000000 0.8521 0.8521 0.8524 0.8525 0.8527
2139.000000 0.8528 0.8528 0.8530 0.8532 0.8533
2134.000000 0.8534 0.8535 0.8537 0.8538 0.8540
2129.000000 0.8541 0.8543 0.8545 0.8547 0.8549
2124.000000 0.8551 0.8553 0.8555 0.8557 0.8559
2119.000000 0.8561 0.8563 0.8565 0.8567 0.8568
2114.000000 0.8571 0.8574 0.8575 0.8578 0.8581
2109.000000 0.8583 0.8585 0.8587 0.8590 0.8592
2104.000000 0.8595 0.8597 0.8600 0.8602 0.8604
2099.000000 0.8606 0.8609 0.8611 0.8614 0.8616
2094.000000 0.8618 0.8621 0.8623 0.8625 0.8628
2089.000000 0.8631 0.8634 0.8636 0.8639 0.8641
2084.000000 0.8644 0.8647 0.8650 0.8652 0.8655
2079.000000 0.8657 0.8660 0.8662 0.8665 0.8666
2074.000000 0.8667 0.8667 0.8668 0.8668 0.8668
2069.000000 0.8668 0.8670 0.8671 0.8671 0.8673
2064.000000 0.8674 0.8675 0.8677 0.8678 0.8678
2059.000000 0.8680 0.8682 0.8683 0.8685 0.8686
2054.000000 0.8687 0.8688 0.8689 0.8689 0.8690
2049.000000 0.8690 0.8691 0.8691 0.8691 0.8691
2044.000000 0.8692 0.8692 0.8693 0.8693 0.8693
2039.000000 0.8693 0.8694 0.8694 0.8695 0.8695
2034.000000 0.8696 0.8696 0.8697 0.8697 0.8698
2029.000000 0.8698 0.8699 0.8699 0.8700 0.8700
2024.000000 0.8701 0.8701 0.8702 0.8702 0.8703
2019.000000 0.8703 0.8704 0.8704 0.8705 0.8705
2014.000000 0.8705 0.8705 0.8706 0.8706 0.8707
2009.000000 0.8707 0.8708 0.8708 0.8708 0.8708
2004.000000 0.8709 0.8709 0.8709 0.8708 0.8708
1999.000000 0.8708 0.8708 0.8708 0.8706 0.8703
1994.000000 0.8701 0.8699 0.8696 0.8692 0.8687
1989.000000 0.8680 0.8671 0.8650 0.8625 0.8615
1984.000000 0.8603 0.8593 0.8584 0.8583 0.8588
1979.000000 0.8593 0.8598 0.8604 0.8609 0.8610
1974.000000 0.8610 0.8609 0.8609 0.8608 0.8608
1969.000000 0.8607 0.8606 0.8606 0.8605 0.8603
1964.000000 0.8601 0.8599 0.8597 0.8595 0.8593
1959.000000 0.8590 0.8588 0.8586 0.8584 0.8582
1954.000000 0.8580 0.8578 0.8575 0.8573 0.8571
1949.000000 0.8568 0.8567 0.8565 0.8563 0.8561
1944.000000 0.8559 0.8557 0.8555 0.8553 0.8551
1939.000000 0.8551 0.8551 0.8552 0.8553 0.8554
1934.000000 0.8555 0.8556 0.8557 0.8558 0.8560
1929.000000 0.8563 0.8565 0.8567 0.8570 0.8571
1924.000000 0.8574 0.8577 0.8578 0.8581 0.8581
1919.000000 0.8580 0.8580 0.8578 0.8578 0.8578
1914.000000 0.8577 0.8577 0.8575 0.8575 0.8574
1909.000000 0.8571 0.8570 0.8568 0.8567 0.8565
1904.000000 0.8563 0.8560 0.8557 0.8554 0.8551
1899.000000 0.8548 0.8545 0.8542 0.8539 0.8539
1894.000000 0.8539 0.8540 0.8542 0.8543 0.8545
1889.000000 0.8546 0.8548 0.8549 0.8550 0.8551
1884.000000 0.8552 0.8553 0.8554 0.8555 0.8556
1879.000000 0.8557 0.8558 0.8559 0.8560 0.8561
1874.000000 0.8562 0.8563 0.8564 0.8565 0.8566
1869.000000 0.8567 0.8568 0.8570 0.8571 0.8571
1864.000000 0.8573 0.8574 0.8575 0.8577 0.8578
1859.000000 0.8578 0.8580 0.8582 0.8583 0.8584
1854.000000 0.8585 0.8586 0.8586 0.8587 0.8587
1849.000000 0.8588 0.8588 0.8589 0.8590 0.8590
1844.000000 0.8591 0.8591 0.8592 0.8592 0.8593
1839.000000 0.8594 0.8594 0.8595 0.8595 0.8596
1834.000000 0.8596 0.8597 0.8598 0.8598 0.8598
1829.000000 0.8599 0.8599 0.8600 0.8600 0.8601
1824.000000 0.8601 0.8601 0.8602 0.8602 0.8603
1819.000000 0.8603 0.8603 0.8604 0.8604 0.8605
1814.000000 0.8605 0.8606 0.8606 0.8606 0.8607
1809.000000 0.8607 0.8608 0.8608 0.8608 0.8609
1804.000000 0.8609 0.8609 0.8609 0.8609 0.8609
1799.000000 0.8608 0.8608 0.8608 0.8608 0.8608
1794.000000 0.8607 0.8607 0.8607 0.8607 0.8607
1789.000000 0.8606 0.8606 0.8606 0.8606 0.8605
1784.000000 0.8605 0.8605 0.8605 0.8605 0.8604
1779.000000 0.8604 0.8604 0.8604 0.8604 0.8604
1774.000000 0.8604 0.8604 0.8604 0.8604 0.8604
1769.000000 0.8604 0.8603 0.8603 0.8603 0.8603
1764.000000 0.8603 0.8603 0.8603 0.8603 0.8603
1759.000000 0.8603 0.8603 0.8603 0.8603 0.8603
1754.000000 0.8603 0.8603 0.8603 0.8603 0.8603
1749.000000 0.8603 0.8603 0.8603 0.8603 0.8603
1744.000000 0.8604 0.8604 0.8604 0.8604 0.8604
1739.000000 0.8604 0.8604 0.8604 0.8604 0.8604
1734.000000 0.8604 0.8604 0.8604 0.8604 0.8604
1729.000000 0.8603 0.8602 0.8602 0.8601 0.8600
1724.000000 0.8599 0.8598 0.8598 0.8597 0.8596
1719.000000 0.8595 0.8595 0.8594 0.8593 0.8592
1714.000000 0.8591 0.8591 0.8590 0.8588 0.8586
1709.000000 0.8584 0.8582 0.8580 0.8578 0.8575
1704.000000 0.8574 0.8571 0.8570 0.8568 0.8565
1699.000000 0.8561 0.8557 0.8554 0.8550 0.8546
1694.000000 0.8542 0.8538 0.8534 0.8530 0.8525
1689.000000 0.8521 0.8518 0.8514 0.8510 0.8505
1684.000000 0.8501 0.8497 0.8493 0.8487 0.8481
1679.000000 0.8474 0.8468 0.8462 0.8455 0.8449
1674.000000 0.8443 0.8436 0.8425 0.8417 0.8407
1669.000000 0.8397 0.8383 0.8353 0.8321 0.8294
1664.000000 0.8265 0.8236 0.8208 0.8182 0.8156
1659.000000 0.8128 0.8101 0.8075 0.8048 0.8021
1654.000000 0.7993 0.7967 0.7942 0.7915 0.7892
1649.000000 0.7868 0.7847 0.7834 0.7808 0.7821
1644.000000 0.7815 0.7808 0.7811 0.7844 0.7883
1639.000000 0.7912 0.7944 0.7972 0.7999 0.8025
1634.000000 0.8053 0.8078 0.8101 0.8126 0.8144
1629.000000 0.8158 0.8171 0.8185 0.8198 0.8208
1624.000000 0.8215 0.8223 0.8230 0.8237 0.8245
1619.000000 0.8252 0.8260 0.8267 0.8273 0.8278
1614.000000 0.8285 0.8290 0.8296 0.8302 0.8307
1609.000000 0.8312 0.8315 0.8318 0.8323 0.8325
1604.000000 0.8330 0.8333 0.8335 0.8337 0.8339
1599.000000 0.8341 0.8341 0.8340 0.8339 0.8338
1594.000000 0.8334 0.8330 0.8327 0.8323 0.8318
1589.000000 0.8315 0.8311 0.8309 0.8307 0.8305
1584.000000 0.8303 0.8302 0.8300 0.8298 0.8296
1579.000000 0.8294 0.8292 0.8290 0.8288 0.8288
1574.000000 0.8288 0.8288 0.8288 0.8289 0.8289
1569.000000 0.8289 0.8289 0.8290 0.8290 0.8290
1564.000000 0.8290 0.8291 0.8291 0.8291 0.8291
1559.000000 0.8291 0.8291 0.8290 0.8290 0.8290
1554.000000 0.8290 0.8290 0.8289 0.8289 0.8289
1549.000000 0.8289 0.8289 0.8288 0.8288 0.8288
1544.000000 0.8288 0.8287 0.8287 0.8287 0.8287
1539.000000 0.8287 0.8286 0.8286 0.8286 0.8286
1534.000000 0.8285 0.8285 0.8285 0.8285 0.8285
1529.000000 0.8284 0.8284 0.8284 0.8284 0.8284
1524.000000 0.8283 0.8283 0.8283 0.8283 0.8283
1519.000000 0.8282 0.8282 0.8281 0.8275 0.8271
1514.000000 0.8267 0.8263 0.8259 0.8254 0.8250
1509.000000 0.8245 0.8238 0.8230 0.8223 0.8215
1504.000000 0.8207 0.8200 0.8192 0.8184 0.8175
1499.000000 0.8167 0.8158 0.8149 0.8139 0.8130
1494.000000 0.8121 0.8111 0.8103 0.8090 0.8076
1489.000000 0.8064 0.8046 0.8021 0.7996 0.7971
1484.000000 0.7930 0.7880 0.7825 0.7754 0.7683
1479.000000 0.7556 0.7386 0.6569 0.5754 0.4937
1474.000000 0.4121 0.3305 0.2948 0.2942 0.2956
1469.000000 0.3286 0.3712 0.4139 0.4566 0.4992
1464.000000 0.5419 0.5845 0.5934 0.6007 0.6080
1459.000000 0.6208 0.6342 0.6638 0.6761 0.6885
1454.000000 0.6983 0.7065 0.7150 0.7225 0.7291
1449.000000 0.7356 0.7383 0.7410 0.7435 0.7454
1444.000000 0.7472 0.7492 0.7510 0.7526 0.7540
1439.000000 0.7553 0.7567 0.7578 0.7586 0.7593
1434.000000 0.7600 0.7597 0.7606 0.7607 0.7601
1429.000000 0.7594 0.7587 0.7580 0.7560 0.7541
1424.000000 0.7517 0.7487 0.7457 0.7415 0.7371
1419.000000 0.7324 0.7264 0.7221 0.7208 0.7204
1414.000000 0.7238 0.7228 0.7290 0.7347 0.7394
1409.000000 0.7441 0.7481 0.7506 0.7531 0.7555
1404.000000 0.7567 0.7576 0.7587 0.7596 0.7604
1399.000000 0.7606 0.7608 0.7610 0.7624 0.7611
1394.000000 0.7608 0.7605 0.7601 0.7596 0.7589
1389.000000 0.7582 0.7575 0.7560 0.7518 0.7446
1384.000000 0.7401 0.7360 0.7342 0.7322 0.7312
1379.000000 0.7308 0.7303 0.7303 0.7328 0.7308
1374.000000 0.7312 0.7321 0.7331 0.7341 0.7350
1369.000000 0.7365 0.7378 0.7393 0.7407 0.7421
1364.000000 0.7435 0.7448 0.7461 0.7474 0.7484
1359.000000 0.7495 0.7505 0.7511 0.7515 0.7521
1354.000000 0.7526 0.7528 0.7528 0.7528 0.7526
1349.000000 0.7525 0.7518 0.7510 0.7505 0.7499
1344.000000 0.7488 0.7475 0.7464 0.7453 0.7441
1339.000000 0.7428 0.7417 0.7405 0.7394 0.7382
1334.000000 0.7378 0.7394 0.7411 0.7426 0.7448
1329.000000 0.7468 0.7489 0.7508 0.7528 0.7547
1324.000000 0.7561 0.7576 0.7589 0.7596 0.7601
1319.000000 0.7607 0.7615 0.7601 0.7589 0.7561
1314.000000 0.7533 0.7500 0.7467 0.7433 0.7399
1309.000000 0.7365 0.7336 0.7308 0.7280 0.7251
1304.000000 0.7222 0.7195 0.7167 0.7139 0.7111
1299.000000 0.7082 0.7051 0.7021 0.6991 0.6961
1294.000000 0.6925 0.6885 0.6849 0.6815 0.6787
1289.000000 0.6767 0.6771 0.6778 0.6784 0.6800
1284.000000 0.6817 0.6835 0.6857 0.6884 0.6911
1279.000000 0.6949 0.6978 0.6999 0.7015 0.7072
1274.000000 0.7033 0.6951 0.6732 0.6512 0.6294
1269.000000 0.6105 0.6058 0.6032 0.6028 0.6012
1264.000000 0.6064 0.6131 0.6198 0.6264 0.6291
1259.000000 0.6324 0.6270 0.6216 0.6143 0.6051
1254.000000 0.5699 0.5299 0.4899 0.4498 0.4309
1249.000000 0.4310 0.4336 0.4367 0.4396 0.4421
1244.000000 0.4429 0.4433 0.4200 0.3882 0.3566
1239.000000 0.3183 0.3177 0.3206 0.3292 0.3276
1234.000000 0.3262 0.3209 0.3157 0.3131 0.3144
1229.000000 0.3157 0.3182 0.3216 0.3237 0.3234
1224.000000 0.3250 0.3137 0.2971 0.2805 0.2639
1219.000000 0.2473 0.2307 0.2196 0.2177 0.2159
1214.000000 0.2132 0.2099 0.2039 0.1975 0.1786
1209.000000 0.1567 0.1413 0.1235 0.1146 0.1098
1204.000000 0.1066 0.1034 0.1008 0.0987 0.0965
1199.000000 0.0943 0.0929 0.0913 0.0899 0.0888
1194.000000 0.0874 0.0884 0.0985 0.1119 0.1253
1189.000000 0.1386 0.1520 0.1615 0.1653 0.1632
1184.000000 0.1634 0.1626 0.1616 0.1565 0.1475
1179.000000 0.1386 0.1296 0.1207 0.1117 0.1027
1174.000000 0.0938 0.0847 0.0759 0.0692 0.0648
1169.000000 0.0618 0.0613 0.0602 0.0602 0.0639
1164.000000 0.0768 0.0957 0.1195 0.1433 0.1670
1159.000000 0.1908 0.2146 0.2411 0.2575 0.2843
1154.000000 0.3110 0.3377 0.3645 0.3912 0.4179
1149.000000 0.4447 0.4714 0.4981 0.5248 0.5473
1144.000000 0.5653 0.5773 0.5869 0.5964 0.6059
1139.000000 0.6269 0.6433 0.6545 0.6643 0.6712
1134.000000 0.6782 0.6851 0.6915 0.6978 0.7041
1129.000000 0.7104 0.7160 0.7211 0.7262 0.7315
1124.000000 0.7365 0.7399 0.7431 0.7462 0.7496
1119.000000 0.7528 0.7560 0.7583 0.7604 0.7625
1114.000000 0.7647 0.7668 0.7690 0.7711 0.7732
1109.000000 0.7753 0.7774 0.7794 0.7815 0.7825
1104.000000 0.7837 0.7844 0.7847 0.7856 0.7849
1099.000000 0.7844 0.7840 0.7831 0.7815 0.7794
1094.000000 0.7765 0.7736 0.7699 0.7648 0.7597
1089.000000 0.7512 0.7392 0.7272 0.7224 0.7211
1084.000000 0.7206 0.7201 0.7197 0.7190 0.7156
1079.000000 0.7108 0.6940 0.6414 0.6346 0.5994
1074.000000 0.5443 0.4892 0.4341 0.3790 0.3239
1069.000000 0.2689 0.2660 0.2645 0.2694 0.3101
1064.000000 0.3508 0.3914 0.4322 0.4729 0.5136
1059.000000 0.5355 0.5428 0.5500 0.5567 0.5629
1054.000000 0.5690 0.5754 0.5814 0.5920 0.6070
1049.000000 0.6219 0.6369 0.6518 0.6668 0.6758
1044.000000 0.6764 0.6496 0.5784 0.5341 0.5333
1039.000000 0.5744 0.6218 0.6693 0.7167 0.7481
1034.000000 0.7619 0.7730 0.7828 0.7907 0.7978
1029.000000 0.8048 0.8114 0.8169 0.8195 0.8221
1024.000000 0.8246 0.8264 0.8280 0.8295 0.8306
1019.000000 0.8314 0.8321 0.8330 0.8334 0.8337
1014.000000 0.8340 0.8344 0.8347 0.8351 0.8352
1009.000000 0.8353 0.8352 0.8351 0.8349 0.8344
1004.000000 0.8340 0.8334 0.8325 0.8317 0.8302
999.000000 0.8286 0.8260 0.8234 0.8209 0.8190
994.000000 0.8184 0.8187 0.8238 0.8298 0.8351
989.000000 0.8402 0.8436 0.8448 0.8460 0.8468
984.000000 0.8471 0.8471 0.8470 0.8462 0.8454
979.000000 0.8441 0.8427 0.8413 0.8398 0.8392
974.000000 0.8386 0.8380 0.8380 0.8384 0.8387
969.000000 0.8390 0.8394 0.8397 0.8400 0.8405
964.000000 0.8409 0.8414 0.8418 0.8423 0.8427
959.000000 0.8432 0.8436 0.8441 0.8445 0.8450
954.000000 0.8455 0.8460 0.8466 0.8471 0.8475
949.000000 0.8481 0.8486 0.8492 0.8497 0.8502
944.000000 0.8508 0.8513 0.8518 0.8524 0.8528
939.000000 0.8534 0.8540 0.8546 0.8552 0.8558
934.000000 0.8564 0.8573 0.8584 0.8594 0.8604
929.000000 0.8615 0.8625 0.8637 0.8646 0.8654
924.000000 0.8663 0.8668 0.8670 0.8671 0.8671
919.000000 0.8671 0.8677 0.8682 0.8686 0.8691
914.000000 0.8700 0.8709 0.8718 0.8728 0.8738
909.000000 0.8747 0.8755 0.8763 0.8768 0.8771
904.000000 0.8771 0.8771 0.8765 0.8758 0.8751
899.000000 0.8745 0.8739 0.8733 0.8725 0.8720
894.000000 0.8714 0.8708 0.8702 0.8699 0.8697
889.000000 0.8695 0.8702 0.8715 0.8727 0.8741
884.000000 0.8791 0.8813 0.8834 0.8855 0.8873
879.000000 0.8885 0.8895 0.8897 0.8900 0.8903
874.000000 0.8906 0.8908 0.8909 0.8910 0.8911
869.000000 0.8912 0.8913 0.8914 0.8914 0.8915
864.000000 0.8916 0.8917 0.8918 0.8918 0.8920
859.000000 0.8921 0.8921 0.8923 0.8925 0.8925
854.000000 0.8927 0.8935 0.8930 0.8931 0.8932
849.000000 0.8933 0.8934 0.8935 0.8935 0.8935
844.000000 0.8936 0.8936 0.8937 0.8937 0.8938
839.000000 0.8938 0.8938 0.8937 0.8937 0.8936
834.000000 0.8935 0.8935 0.8934 0.8932 0.8925
829.000000 0.8920 0.8913 0.8907 0.8895 0.8884
824.000000 0.8878 0.8874 0.8868 0.8864 0.8859
819.000000 0.8852 0.8846 0.8836 0.8812 0.8787
814.000000 0.8717 0.8625 0.8525 0.8294 0.8062
809.000000 0.7833 0.7601 0.7468 0.7441 0.7415
804.000000 0.7393 0.7375 0.7364 0.7344 0.7358
799.000000 0.7355 0.7361 0.7369 0.7382 0.7401
794.000000 0.7419 0.7446 0.7498 0.7546 0.7596
789.000000 0.7650 0.7711 0.7892 0.8182 0.8332
784.000000 0.8388 0.8436 0.8483 0.8538 0.8607
779.000000 0.8584 0.8594 0.8598 0.8578 0.8552
774.000000 0.8525 0.8496 0.8446 0.8373 0.8332
769.000000 0.8306 0.8299 0.8314 0.8348 0.8420
764.000000 0.8498 0.8564 0.8698 0.8661 0.8668
759.000000 0.8668 0.8655 0.8641 0.8628 0.8610
754.000000 0.8593 0.8575 0.8559 0.8542 0.8525
749.000000 0.8497 0.8467 0.8437 0.8375 0.8306
744.000000 0.8227 0.8135 0.8040 0.7951 0.7858
739.000000 0.7746 0.7680 0.7640 0.7612 0.7597
734.000000 0.7580 0.7407 0.6854 0.6301 0.5748
729.000000 0.5273 0.5223 0.5134 0.4985 0.4843
724.000000 0.4840 0.4840 0.5599 0.6358 0.7117
719.000000 0.7695 0.7908 0.8083 0.8167 0.8252
714.000000 0.8335 0.8386 0.8437 0.8488 0.8536
709.000000 0.8571 0.8605 0.8640 0.8675 0.8703
704.000000 0.8723 0.8743 0.8763 0.8783 0.8799
699.000000 0.8814 0.8828 0.8843 0.8858 0.8871
694.000000 0.8887 0.8901 0.8916 0.8927 0.8937
689.000000 0.8947 0.8956 0.8966 0.8975 0.8985
684.000000 0.8995 0.9003 0.9010 0.9016 0.9021
679.000000 0.9028 0.9034 0.9040 0.9045 0.9050
674.000000 0.9056 0.9061 0.9066 0.9070 0.9073
669.000000 0.9075 0.9078 0.9082 0.9085 0.9087
664.000000 0.9088 0.9090 0.9091 0.9093 0.9094
659.000000 0.9110 0.9097 0.9098 0.9099 0.9099
654.000000 0.9099 0.9099 0.9100 0.9100 0.9100
649.000000 0.9096 0.9091 0.9086 0.9081 0.9075
644.000000 0.9070 0.9061 0.9049 0.9036 0.9023
639.000000 0.9010 0.8993 0.8970 0.8947 0.8924
634.000000 0.8868 0.8798 0.8645 0.8560 0.8448
629.000000 0.7937 0.7328 0.6719 0.6110 0.5287
624.000000 0.5284 0.5384 0.5648 0.5912 0.6176
619.000000 0.6381 0.6492 0.6590 0.6683 0.6761
614.000000 0.6840 0.6926 0.7018 0.7128 0.7306
609.000000 0.7485 0.7662 0.7841 0.8018 0.8198
604.000000 0.8362 0.8418 0.8475 0.8531 0.8577
599.000000 0.8620 0.8664 0.8692 0.8711 0.8728
594.000000 0.8740 0.8748 0.8756 0.8764 0.8767
589.000000 0.8770 0.8774 0.8777 0.8778 0.8778
584.000000 0.8778 0.8780 0.8780 0.8781 0.8783
579.000000 0.8783 0.8784 0.8783 0.8778 0.8774
574.000000 0.8765 0.8750 0.8736 0.8701 0.8652
569.000000 0.8590 0.8466 0.8334 0.8203 0.8071
564.000000 0.7940 0.7808 0.7676 0.7545 0.7414
559.000000 0.7282 0.7151 0.7025 0.7008 0.6998
554.000000 0.6993 0.6988 0.6982 0.6928 0.6804
549.000000 0.6680 0.6556 0.6432 0.6307 0.6183
544.000000 0.6064 0.6052 0.6042 0.5908 0.5738
539.000000 0.5567 0.5418 0.5415 0.5541 0.5910
534.000000 0.6281 0.6651 0.7021 0.7392 0.7582
529.000000 0.7689 0.7815 0.7941 0.8055 0.8151
524.000000 0.8175 0.8178 0.8184 0.8189 0.8194
519.000000 0.8216 0.8246 0.8289 0.8332 0.8366
514.000000 0.8396 0.8412 0.8425 0.8439 0.8466
509.000000 0.8497 0.8528 0.8553 0.8574 0.8595
504.000000 0.8616 0.8635 0.8652 0.8664 0.8667
499.000000 0.8667 0.8667 0.8667 0.8662 0.8655
494.000000 0.8648 0.8641 0.8634 0.8625 0.8610
489.000000 0.8596 0.8575 0.8550 0.8506 0.8451
484.000000 0.8410 0.8375 0.8353 0.8341 0.8330
479.000000 0.8318 0.8317 0.8320 0.8323 0.8325
474.000000 0.8328 0.8330 0.8332 0.8334 0.8335
469.000000 0.8337 0.8337 0.8336 0.8336 0.8335
464.000000 0.8335 0.8334 0.8333 0.8333 0.8332
459.000000 0.8331 0.8331 0.8330 0.8328 0.8328
454.000000 0.8328 0.8328 0.8327 0.8325 0.8325
449.000000 0.8325 0.8324 0.8324 0.8323 0.8321
444.000000 0.8321 0.8321 0.8318 0.8318 0.8316
439.000000 0.8315 0.8314 0.8312 0.8311 0.8309
434.000000 0.8308 0.8306 0.8305 0.8304 0.8302
429.000000 0.8301 0.8299 0.8298 0.8296 0.8296
424.000000 0.8295 0.8294 0.8293 0.8292 0.8291
419.000000 0.8291 0.8290 0.8289 0.8289 0.8289
414.000000 0.8289 0.8290 0.8292 0.8294 0.8295
409.000000 0.8297 0.8299 0.8301 0.8302 0.8304
404.000000 0.8306 0.8306 0.8306 0.8306 0.8307
399.000000 0.8307 0.8307 0.8307 0.8307 0.8307
##END=
