##TITLE=ETHYLAMINE, 2,2'-DITHIOBIS[N-[(2-BENZYLTHIO)ETHYL]-, DIHYDROCHLORIDE
##JCAMP-DX=4.24
##DATA TYPE=INFRARED SPECTRUM
##CLASS=COBLENTZ III
##ORIGIN=SOUTHERN RES. INSTITUTE
##OWNER=COBLENTZ SOCIETY
Collection (C) 2018 copyright by the U.S. Secretary of Commerce
on behalf of the United States of America. All rights reserved.
##DATE=1965/03/30
##MOLFORM=C20 H30 Cl2 N2 S4
##SOURCE REFERENCE=COBLENTZ NO. 7734
##$NIST ID=B6007734
##$NIST SOURCE=COBLENTZ
##$NIST IMAGE=cob7734
##SPECTROMETER/DATA SYSTEM=PERKIN-ELMER 521 (GRATING)
##INSTRUMENT PARAMETERS=FILTERS AT 3150, 2500, 2000, 1150, 700, 410 CM ^-^1, GRATING CHANGES AT 2000, 630 CM ^-^1
##STATE=SOLID (1 mg / 650 mg KBr DISC)
##SAMPLING PROCEDURE=TRANSMISSION
##RESOLUTION=4
##DATA PROCESSING=DIGITIZED BY NIST FROM HARD COPY
##XUNITS=1/CM
##YUNITS=TRANSMITTANCE
##XFACTOR=1.000000
##YFACTOR=1
##DELTAX=001.524390
##FIRSTX=247.866
##LASTX=3789.02
##FIRSTY=0.351
##MAXX=3789.02
##MINX=247.866
##MAXY=0.978
##MINY=0.181
##NPOINTS=2324
##XYDATA=(X++(Y..Y))
247.866000 0.3510 0.3590 0.3660 0.3660 0.3720
255.491234 0.3770 0.3810 0.4010 0.4100 0.4200
263.110000 0.4310 0.4420 0.4550 0.4680 0.4810
270.735234 0.4960 0.5100 0.5250 0.5400 0.5550
278.354000 0.5700 0.5850 0.6010 0.6160 0.6300
285.979234 0.6460 0.6590 0.6740 0.7000 0.7120
293.598000 0.7230 0.7340 0.7440 0.7520 0.7600
301.223234 0.7670 0.7720 0.7760 0.7820 0.7820
308.841000 0.7850 0.7880 0.7910 0.7940 0.7970
316.466234 0.8000 0.8030 0.8060 0.8090 0.8130
324.085000 0.8160 0.8200 0.8240 0.8280 0.8310
331.710234 0.8360 0.8400 0.8440 0.8500 0.8540
339.329000 0.8590 0.8660 0.8710 0.8770 0.8830
346.954234 0.8860 0.8870 0.8880 0.8920 0.8960
354.573000 0.8980 0.9040 0.9070 0.9110 0.9140
362.198234 0.9170 0.9210 0.9260 0.9320 0.9390
369.817000 0.9400 0.9420 0.9420 0.9420 0.9440
377.442234 0.9450 0.9450 0.9460 0.9460 0.9470
385.061000 0.9470 0.9480 0.9480 0.9480 0.9490
392.686234 0.9490 0.9500 0.9520 0.9550 0.9560
400.305000 0.9560 0.9570 0.9580 0.9580 0.9580
407.930234 0.9580 0.9580 0.9580 0.9580 0.9580
415.549000 0.9580 0.9570 0.9570 0.9570 0.9560
423.174234 0.9560 0.9550 0.9550 0.9550 0.9550
430.793000 0.9550 0.9550 0.9550 0.9550 0.9550
438.418234 0.9550 0.9540 0.9540 0.9540 0.9530
446.037000 0.9530 0.9520 0.9510 0.9500 0.9490
453.662234 0.9470 0.9450 0.9410 0.9380 0.9200
461.280000 0.8940 0.8710 0.8400 0.8190 0.8180
468.905234 0.8190 0.8360 0.8530 0.8690 0.8780
476.524000 0.9010 0.9160 0.9310 0.9320 0.9330
484.149234 0.9330 0.9320 0.9320 0.9310 0.9310
491.768000 0.9300 0.9300 0.9300 0.9290 0.9290
499.393234 0.9280 0.9260 0.9250 0.9210 0.9170
507.012000 0.9140 0.9130 0.9130 0.9140 0.9180
514.637234 0.9240 0.9290 0.9330 0.9410 0.9480
522.256000 0.9540 0.9580 0.9610 0.9640 0.9670
529.881234 0.9690 0.9710 0.9710 0.9720 0.9730
537.500000 0.9740 0.9740 0.9740 0.9740 0.9740
545.125234 0.9750 0.9750 0.9750 0.9760 0.9760
552.744000 0.9760 0.9760 0.9760 0.9760 0.9760
560.369234 0.9760 0.9770 0.9770 0.9770 0.9770
567.988000 0.9770 0.9770 0.9770 0.9770 0.9770
575.613234 0.9770 0.9770 0.9770 0.9780 0.9780
583.232000 0.9780 0.9780 0.9780 0.9780 0.9780
590.857234 0.9780 0.9780 0.9780 0.9780 0.9770
598.476000 0.9770 0.9750 0.9740 0.9710 0.9660
606.101234 0.9630 0.9610 0.9610 0.9600 0.9600
613.719000 0.9610 0.9630 0.9650 0.9680 0.9680
621.344234 0.9690 0.9690 0.9680 0.9680 0.9680
628.963000 0.9680 0.9680 0.9650 0.9610 0.9580
636.588234 0.9570 0.9550 0.9540 0.9520 0.9500
644.207000 0.9490 0.9490 0.9500 0.9520 0.9520
651.832234 0.9520 0.9490 0.9470 0.9450 0.9440
659.451000 0.9420 0.9390 0.9340 0.9310 0.9100
667.076234 0.8920 0.8900 0.8880 0.8860 0.8850
674.695000 0.7960 0.7390 0.6830 0.6290 0.5550
682.320234 0.5020 0.4620 0.4610 0.4610 0.4980
689.939000 0.5350 0.6170 0.7190 0.7860 0.7970
697.564234 0.8220 0.8620 0.9070 0.9360 0.9360
705.183000 0.9360 0.9330 0.9270 0.9200 0.9110
712.808234 0.9030 0.8940 0.8340 0.7700 0.7090
720.427000 0.6110 0.5140 0.4760 0.4370 0.4100
728.052234 0.3830 0.3560 0.3550 0.3560 0.3630
735.671000 0.3690 0.5530 0.7030 0.7920 0.8080
743.296234 0.8090 0.8260 0.8430 0.8600 0.8780
750.915000 0.8940 0.8940 0.8940 0.8880 0.8850
758.540234 0.8820 0.8780 0.8740 0.8660 0.8640
766.159000 0.8650 0.8700 0.8720 0.8830 0.9010
773.784234 0.9220 0.9410 0.9560 0.9620 0.9630
781.402000 0.9640 0.9640 0.9640 0.9650 0.9650
789.027234 0.9660 0.9660 0.9670 0.9660 0.9630
796.646000 0.9570 0.9480 0.9310 0.9160 0.9140
804.271234 0.9140 0.9150 0.9200 0.9440 0.9540
811.890000 0.9590 0.9630 0.9640 0.9630 0.9610
819.515234 0.9580 0.9540 0.9490 0.9460 0.9420
827.134000 0.9420 0.9420 0.9420 0.9430 0.9450
834.759234 0.9470 0.9510 0.9540 0.9550 0.9560
842.378000 0.9560 0.9550 0.9550 0.9520 0.9520
850.003234 0.9500 0.9450 0.9400 0.9340 0.9270
857.622000 0.9200 0.9110 0.9040 0.8970 0.8900
865.247234 0.8840 0.8830 0.8830 0.8830 0.8840
872.866000 0.8850 0.8890 0.8940 0.8980 0.9020
880.491234 0.9070 0.9100 0.9150 0.9200 0.9240
888.110000 0.9280 0.9320 0.9360 0.9390 0.9420
895.735234 0.9450 0.9470 0.9500 0.9530 0.9550
903.354000 0.9550 0.9550 0.9550 0.9540 0.9540
910.979234 0.9520 0.9520 0.9500 0.9500 0.9490
918.598000 0.9460 0.9430 0.9400 0.9360 0.9310
926.223234 0.9260 0.9210 0.9150 0.9100 0.9040
933.841000 0.8980 0.8910 0.8850 0.8800 0.8750
941.466234 0.8690 0.8640 0.8620 0.8610 0.8600
949.085000 0.8610 0.8750 0.8880 0.9010 0.9130
956.710234 0.9230 0.9230 0.9250 0.9240 0.9200
964.329000 0.9140 0.9010 0.8880 0.8810 0.8660
971.954234 0.8530 0.8380 0.8240 0.8240 0.8530
979.573000 0.8850 0.8850 0.8860 0.8830 0.8650
987.198234 0.8430 0.8420 0.8420 0.8470 0.8500
994.817000 0.8590 0.8650 0.8710 0.8770 0.8820
1002.442234 0.8820 0.8820 0.8830 0.8820 0.8800
1010.061000 0.8780 0.8720 0.8660 0.7530 0.7200
1017.686234 0.7040 0.6880 0.7500 0.8100 0.8110
1025.305000 0.8150 0.8210 0.8220 0.8240 0.8260
1032.930234 0.8380 0.8500 0.8560 0.8760 0.8760
1040.549000 0.8750 0.8730 0.8690 0.8640 0.8590
1048.174234 0.8560 0.8510 0.8440 0.8320 0.8200
1055.793000 0.8030 0.7730 0.7710 0.7720 0.7860
1063.418234 0.7990 0.8110 0.8230 0.8350 0.8510
1071.037000 0.8660 0.8660 0.8470 0.8370 0.8220
1078.662234 0.7930 0.7640 0.7630 0.7640 0.7860
1086.281000 0.8140 0.8370 0.8550 0.8700 0.8830
1093.906234 0.8940 0.9040 0.9160 0.9240 0.9290
1101.524000 0.9290 0.9290 0.9310 0.9310 0.9320
1109.149234 0.9330 0.9330 0.9330 0.9340 0.9340
1116.768000 0.9340 0.9340 0.9340 0.9340 0.9330
1124.393234 0.9330 0.9300 0.9290 0.9260 0.9230
1132.012000 0.9200 0.9180 0.9170 0.9150 0.9140
1139.637234 0.9140 0.9140 0.9150 0.9160 0.9160
1147.256000 0.9170 0.9170 0.9180 0.9190 0.9200
1154.881234 0.9200 0.9200 0.9200 0.9200 0.9190
1162.500000 0.9180 0.9170 0.9170 0.9160 0.9150
1170.125234 0.9140 0.9130 0.9120 0.9120 0.9100
1177.744000 0.9100 0.9090 0.9080 0.9070 0.9070
1185.369234 0.9060 0.9050 0.9040 0.9030 0.9010
1192.988000 0.8970 0.8910 0.8860 0.8780 0.8670
1200.613234 0.8600 0.8380 0.8370 0.8370 0.8390
1208.232000 0.8410 0.8490 0.8640 0.8740 0.8790
1215.857234 0.8820 0.8860 0.8920 0.9020 0.9070
1223.476000 0.9080 0.9090 0.9080 0.9040 0.9010
1231.101234 0.8970 0.8880 0.8790 0.8700 0.8630
1238.719000 0.8590 0.8540 0.8350 0.8340 0.8350
1246.344234 0.8400 0.8430 0.8500 0.8540 0.8560
1253.963000 0.8530 0.8520 0.8530 0.8540 0.8630
1261.588234 0.8640 0.8650 0.8660 0.8660 0.8670
1269.207000 0.8670 0.8660 0.8600 0.8570 0.8470
1276.832234 0.8380 0.8290 0.7950 0.7770 0.7560
1284.451000 0.7410 0.7390 0.7400 0.7590 0.7730
1292.076234 0.7860 0.7970 0.8080 0.8190 0.8290
1299.695000 0.8390 0.8490 0.8580 0.8660 0.8730
1307.320234 0.8730 0.8740 0.8740 0.8740 0.8730
1314.939000 0.8700 0.8660 0.8590 0.8530 0.8470
1322.564234 0.8390 0.8320 0.8260 0.8200 0.8150
1330.183000 0.8050 0.8040 0.8040 0.8050 0.8060
1337.808234 0.8110 0.8160 0.8210 0.8260 0.8310
1345.427000 0.8370 0.8410 0.8470 0.8500 0.8510
1353.052234 0.8510 0.8510 0.8510 0.8500 0.8400
1360.671000 0.8370 0.8330 0.8290 0.8260 0.8220
1368.296234 0.8190 0.8150 0.8110 0.8060 0.8000
1375.915000 0.7900 0.7800 0.7700 0.7610 0.7530
1383.540234 0.7450 0.7360 0.7280 0.7190 0.7100
1391.159000 0.7020 0.6970 0.6920 0.6820 0.6710
1398.784234 0.6600 0.6480 0.6350 0.6210 0.6050
1406.402000 0.5880 0.5420 0.5410 0.5410 0.5550
1414.027234 0.5690 0.5820 0.5960 0.6090 0.6080
1421.646000 0.5760 0.5400 0.5040 0.5030 0.5030
1429.271234 0.5130 0.5220 0.5410 0.5410 0.4320
1436.890000 0.4030 0.3740 0.3720 0.4710 0.5430
1444.515234 0.5440 0.5440 0.5310 0.5100 0.5090
1452.134000 0.5090 0.5240 0.5380 0.5530 0.5820
1459.759234 0.5970 0.6060 0.6420 0.6710 0.7000
1467.378000 0.7010 0.6910 0.6790 0.6580 0.6270
1475.003234 0.5830 0.5380 0.4480 0.4460 0.4480
1482.622000 0.7590 0.8340 0.8930 0.9070 0.9230
1490.247234 0.9230 0.9230 0.9230 0.9230 0.9230
1497.866000 0.9220 0.9210 0.9200 0.9200 0.9200
1505.491234 0.9190 0.9190 0.9170 0.9160 0.9130
1513.110000 0.9110 0.9100 0.9100 0.9100 0.9100
1520.735234 0.9090 0.9090 0.9070 0.9070 0.9040
1528.354000 0.9020 0.9000 0.8970 0.8940 0.8930
1535.979234 0.8910 0.8900 0.8880 0.8870 0.8840
1543.598000 0.8790 0.8740 0.8680 0.8600 0.8510
1551.223234 0.8410 0.8300 0.8170 0.8020 0.7860
1558.841000 0.7670 0.7470 0.7340 0.7120 0.7010
1566.466234 0.6910 0.6680 0.6460 0.6250 0.6030
1574.085000 0.5820 0.5810 0.5820 0.6360 0.7170
1581.710234 0.7440 0.7730 0.8020 0.8290 0.8530
1589.329000 0.8700 0.8800 0.8800 0.9000 0.9010
1596.954234 0.9010 0.9000 0.8990 0.8990 0.8980
1604.573000 0.8980 0.8980 0.8970 0.8970 0.8970
1612.198234 0.8960 0.8950 0.8940 0.8930 0.8920
1619.817000 0.8920 0.8920 0.8920 0.8920 0.8930
1627.442234 0.8940 0.8950 0.8960 0.8970 0.8980
1635.061000 0.8980 0.8980 0.8980 0.8980 0.8990
1642.686234 0.9010 0.9030 0.9050 0.9080 0.9100
1650.305000 0.9130 0.9150 0.9170 0.9170 0.9190
1657.930234 0.9200 0.9200 0.9210 0.9220 0.9230
1665.549000 0.9230 0.9230 0.9240 0.9240 0.9250
1673.174234 0.9250 0.9250 0.9250 0.9250 0.9240
1680.793000 0.9240 0.9230 0.9230 0.9230 0.9230
1688.418234 0.9220 0.9220 0.9210 0.9200 0.9200
1696.037000 0.9200 0.9190 0.9180 0.9170 0.9170
1703.662234 0.9160 0.9150 0.9150 0.9140 0.9140
1711.281000 0.9140 0.9140 0.9150 0.9150 0.9160
1718.906234 0.9160 0.9170 0.9170 0.9170 0.9180
1726.524000 0.9180 0.9190 0.9190 0.9200 0.9200
1734.149234 0.9200 0.9200 0.9220 0.9220 0.9230
1741.768000 0.9230 0.9230 0.9230 0.9230 0.9230
1749.393234 0.9230 0.9230 0.9230 0.9230 0.9220
1757.012000 0.9220 0.9210 0.9200 0.9200 0.9190
1764.637234 0.9180 0.9170 0.9170 0.9170 0.9160
1772.256000 0.9150 0.9150 0.9150 0.9150 0.9150
1779.881234 0.9150 0.9150 0.9140 0.9140 0.9140
1787.500000 0.9140 0.9140 0.9140 0.9140 0.9140
1795.125234 0.9140 0.9140 0.9140 0.9140 0.9140
1802.744000 0.9130 0.9130 0.9120 0.9120 0.9120
1810.369234 0.9120 0.9120 0.9120 0.9110 0.9100
1817.988000 0.9100 0.9070 0.9050 0.9040 0.9010
1825.613234 0.9010 0.8990 0.8990 0.8980 0.8970
1833.232000 0.8950 0.8940 0.8920 0.8910 0.8900
1840.857234 0.8890 0.8890 0.8890 0.8890 0.8900
1848.476000 0.8910 0.8930 0.8940 0.8970 0.9000
1856.101234 0.9020 0.9020 0.9040 0.9040 0.9040
1863.719000 0.9050 0.9060 0.9080 0.9090 0.9100
1871.344234 0.9100 0.9100 0.9100 0.9100 0.9110
1878.963000 0.9120 0.9120 0.9130 0.9130 0.9140
1886.588234 0.9140 0.9140 0.9140 0.9140 0.9140
1894.207000 0.9140 0.9140 0.9140 0.9140 0.9130
1901.832234 0.9130 0.9120 0.9110 0.9110 0.9100
1909.451000 0.9100 0.9090 0.9080 0.9070 0.9050
1917.076234 0.9030 0.9010 0.8990 0.8980 0.8970
1924.695000 0.8970 0.8970 0.8970 0.8960 0.8960
1932.320234 0.8960 0.8970 0.8970 0.8980 0.8980
1939.939000 0.8980 0.8980 0.8980 0.8990 0.9000
1947.564234 0.9010 0.9010 0.9020 0.9020 0.9030
1955.183000 0.9040 0.9040 0.9050 0.9060 0.9070
1962.808234 0.9070 0.9070 0.9080 0.9080 0.9080
1970.427000 0.9080 0.9070 0.9070 0.9070 0.9060
1978.052234 0.9050 0.9050 0.9040 0.9040 0.9040
1985.671000 0.9030 0.9020 0.9010 0.9010 0.9000
1993.296234 0.9000 0.8990 0.8980 0.8980 0.8980
2000.915000 0.8970 0.8960 0.8950 0.8950 0.8940
2008.540234 0.8940 0.8940 0.8940 0.8940 0.8940
2016.159000 0.8930 0.8930 0.8930 0.8920 0.8920
2023.784234 0.8910 0.8910 0.8900 0.8900 0.8900
2031.402000 0.8890 0.8880 0.8870 0.8870 0.8860
2039.027234 0.8850 0.8850 0.8850 0.8850 0.8840
2046.646000 0.8840 0.8830 0.8830 0.8820 0.8820
2054.271234 0.8810 0.8810 0.8800 0.8800 0.8790
2061.890000 0.8790 0.8780 0.8780 0.8780 0.8780
2069.515234 0.8770 0.8760 0.8760 0.8750 0.8750
2077.134000 0.8750 0.8750 0.8750 0.8750 0.8740
2084.759234 0.8740 0.8740 0.8730 0.8730 0.8720
2092.378000 0.8720 0.8720 0.8710 0.8710 0.8700
2100.003234 0.8700 0.8690 0.8690 0.8690 0.8690
2107.622000 0.8680 0.8670 0.8670 0.8660 0.8660
2115.247234 0.8660 0.8660 0.8650 0.8650 0.8640
2122.866000 0.8640 0.8630 0.8630 0.8630 0.8630
2130.491234 0.8620 0.8610 0.8600 0.8600 0.8590
2138.110000 0.8590 0.8590 0.8590 0.8580 0.8580
2145.735234 0.8580 0.8580 0.8570 0.8570 0.8560
2153.354000 0.8560 0.8560 0.8560 0.8550 0.8550
2160.979234 0.8540 0.8540 0.8530 0.8530 0.8530
2168.598000 0.8520 0.8510 0.8500 0.8500 0.8500
2176.223234 0.8490 0.8480 0.8470 0.8470 0.8470
2183.842000 0.8470 0.8460 0.8450 0.8450 0.8440
2191.467234 0.8440 0.8430 0.8420 0.8410 0.8400
2199.085000 0.8400 0.8390 0.8380 0.8370 0.8370
2206.710234 0.8360 0.8350 0.8340 0.8330 0.8330
2214.329000 0.8320 0.8320 0.8310 0.8310 0.8310
2221.954234 0.8300 0.8300 0.8290 0.8290 0.8280
2229.573000 0.8280 0.8280 0.8280 0.8270 0.8270
2237.198234 0.8250 0.8240 0.8240 0.8230 0.8220
2244.817000 0.8210 0.8210 0.8200 0.8190 0.8180
2252.442234 0.8180 0.8180 0.8170 0.8150 0.8150
2260.061000 0.8130 0.8120 0.8110 0.8090 0.8080
2267.686234 0.8070 0.8050 0.8040 0.8030 0.8020
2275.305000 0.8020 0.8020 0.8000 0.7990 0.7980
2282.930234 0.7960 0.7950 0.7930 0.7920 0.7900
2290.549000 0.7890 0.7870 0.7860 0.7840 0.7830
2298.174234 0.7800 0.7790 0.7770 0.7750 0.7730
2305.793000 0.7700 0.7690 0.7670 0.7640 0.7610
2313.418234 0.7590 0.7570 0.7540 0.7510 0.7480
2321.037000 0.7450 0.7420 0.7360 0.7320 0.7300
2328.662234 0.7280 0.7250 0.7230 0.7220 0.7210
2336.281000 0.7200 0.7170 0.7150 0.7130 0.7110
2343.906234 0.7100 0.7080 0.7070 0.7050 0.7030
2351.524000 0.7020 0.7000 0.6980 0.6970 0.6940
2359.149234 0.6890 0.6880 0.6860 0.6840 0.6810
2366.768000 0.6780 0.6750 0.6710 0.6670 0.6620
2374.393234 0.6580 0.6520 0.6470 0.6420 0.6360
2382.012000 0.6300 0.6240 0.6170 0.6110 0.6050
2389.637234 0.5980 0.5910 0.5840 0.5770 0.5700
2397.256000 0.5630 0.5560 0.5490 0.5410 0.5350
2404.881234 0.5280 0.5210 0.5150 0.5080 0.5010
2412.500000 0.4950 0.4890 0.4830 0.4770 0.4720
2420.125234 0.4670 0.4620 0.4570 0.4560 0.4550
2427.744000 0.4560 0.4570 0.4590 0.4670 0.4760
2435.369234 0.4870 0.4980 0.5090 0.5220 0.5360
2442.988000 0.5500 0.5630 0.5780 0.5920 0.6060
2450.613234 0.6210 0.6330 0.6470 0.6590 0.6710
2458.232000 0.6820 0.7000 0.7090 0.7130 0.7130
2465.857234 0.7140 0.7140 0.7140 0.7140 0.7140
2473.476000 0.7130 0.7130 0.7130 0.7120 0.7100
2481.101234 0.7100 0.7090 0.7070 0.7040 0.7010
2488.719000 0.6990 0.6970 0.6880 0.6840 0.6810
2496.344234 0.6800 0.6780 0.6750 0.6730 0.6700
2503.963000 0.6680 0.6650 0.6630 0.6620 0.6620
2511.588234 0.6590 0.6540 0.6490 0.6450 0.6430
2519.207000 0.6420 0.6400 0.6370 0.6340 0.6310
2526.832234 0.6280 0.6240 0.6210 0.6170 0.6130
2534.451000 0.6080 0.6050 0.6000 0.5950 0.5900
2542.076234 0.5850 0.5790 0.5740 0.5690 0.5630
2549.695000 0.5570 0.5520 0.5460 0.5400 0.5340
2557.320234 0.5280 0.5220 0.5160 0.5100 0.5040
2564.939000 0.4980 0.4920 0.4860 0.4800 0.4740
2572.564234 0.4680 0.4610 0.4560 0.4500 0.4450
2580.183000 0.4390 0.4280 0.4210 0.4180 0.4170
2587.808234 0.4180 0.4200 0.4260 0.4300 0.4330
2595.427000 0.4360 0.4380 0.4400 0.4420 0.4440
2603.052234 0.4450 0.4460 0.4470 0.4480 0.4480
2610.671000 0.4490 0.4490 0.4490 0.4490 0.4490
2618.296234 0.4480 0.4460 0.4450 0.4430 0.4420
2625.915000 0.4400 0.4380 0.4360 0.4320 0.4260
2633.540234 0.4200 0.4200 0.4200 0.4200 0.4210
2641.158000 0.4210 0.4230 0.4230 0.4230 0.4240
2648.783234 0.4240 0.4240 0.4230 0.4220 0.4200
2656.402000 0.4170 0.4150 0.4110 0.4070 0.4040
2664.027234 0.4010 0.3990 0.3940 0.3880 0.3830
2671.646000 0.3770 0.3710 0.3650 0.3590 0.3520
2679.271234 0.3450 0.3390 0.3320 0.3240 0.3180
2686.890000 0.3110 0.3040 0.2970 0.2900 0.2830
2694.515234 0.2770 0.2690 0.2660 0.2610 0.2550
2702.134000 0.2510 0.2450 0.2400 0.2350 0.2300
2709.759234 0.2250 0.2200 0.2170 0.2140 0.2120
2717.378000 0.2100 0.2070 0.2050 0.2020 0.2000
2725.003234 0.1970 0.1950 0.1930 0.1890 0.1870
2732.622000 0.1850 0.1840 0.1820 0.1810 0.1810
2740.247234 0.1810 0.1810 0.1810 0.1810 0.1840
2747.866000 0.1890 0.1920 0.1960 0.2030 0.2100
2755.491234 0.2130 0.2190 0.2200 0.2260 0.2310
2763.110000 0.2350 0.2410 0.2450 0.2510 0.2550
2770.735234 0.2610 0.2660 0.2700 0.2760 0.2800
2778.354000 0.2860 0.2900 0.2960 0.3080 0.3080
2785.979234 0.3120 0.3140 0.3170 0.3210 0.3220
2793.597000 0.3230 0.3280 0.3310 0.3350 0.3400
2801.222234 0.3430 0.3470 0.3510 0.3620 0.3640
2808.841000 0.3720 0.3820 0.4010 0.4100 0.4200
2816.466234 0.4290 0.4370 0.4450 0.4520 0.4580
2824.085000 0.4640 0.4680 0.4720 0.4740 0.4750
2831.710234 0.4770 0.4770 0.4780 0.4790 0.4790
2839.329000 0.4800 0.4800 0.4800 0.4800 0.4800
2846.954234 0.4800 0.4800 0.4800 0.4800 0.4800
2854.573000 0.4800 0.4800 0.4800 0.4800 0.4770
2862.198234 0.4760 0.4730 0.4710 0.4670 0.4640
2869.817000 0.4600 0.4550 0.4520 0.4460 0.4420
2877.442234 0.4360 0.4300 0.4240 0.4170 0.4110
2885.061000 0.4040 0.4000 0.3960 0.3880 0.3800
2892.686234 0.3720 0.3630 0.3600 0.3560 0.3510
2900.305000 0.3470 0.3420 0.3370 0.3350 0.3340
2907.930234 0.3340 0.3320 0.3310 0.3290 0.3290
2915.549000 0.3240 0.3190 0.3150 0.3100 0.3050
2923.174234 0.3020 0.2980 0.2950 0.2920 0.2890
2930.793000 0.2850 0.2840 0.2830 0.2840 0.2860
2938.418234 0.2880 0.2910 0.2950 0.3000 0.3050
2946.037000 0.3120 0.3180 0.3250 0.3330 0.3410
2953.662234 0.3500 0.3580 0.3670 0.3760 0.3850
2961.281000 0.4030 0.4120 0.4200 0.4290 0.4370
2968.906234 0.4450 0.4520 0.4590 0.4650 0.4710
2976.524000 0.4760 0.4800 0.4830 0.4860 0.4870
2984.149234 0.4870 0.4900 0.4920 0.4940 0.4960
2991.768000 0.4970 0.5100 0.5230 0.5370 0.5500
2999.393234 0.5660 0.5820 0.5900 0.5980 0.6050
3007.012000 0.6110 0.6180 0.6250 0.6320 0.6380
3014.637234 0.6440 0.6490 0.6560 0.6610 0.6670
3022.256000 0.6720 0.6770 0.6820 0.6870 0.6920
3029.881234 0.7010 0.7060 0.7070 0.7080 0.7070
3037.500000 0.7070 0.7040 0.7010 0.7000 0.6980
3045.125234 0.6950 0.6920 0.6900 0.6860 0.6850
3052.744000 0.6860 0.7000 0.7100 0.7200 0.7310
3060.369234 0.7410 0.7500 0.7570 0.7610 0.7640
3067.988000 0.7650 0.7680 0.7740 0.7800 0.7860
3075.613234 0.7920 0.7960 0.8020 0.8060 0.8120
3083.232000 0.8150 0.8200 0.8240 0.8280 0.8310
3090.857234 0.8350 0.8380 0.8410 0.8440 0.8470
3098.476000 0.8490 0.8510 0.8530 0.8550 0.8560
3106.101234 0.8560 0.8570 0.8570 0.8580 0.8580
3113.719000 0.8590 0.8590 0.8590 0.8590 0.8590
3121.344234 0.8590 0.8580 0.8570 0.8560 0.8550
3128.963000 0.8540 0.8530 0.8520 0.8510 0.8500
3136.588234 0.8490 0.8490 0.8490 0.8480 0.8480
3144.207000 0.8480 0.8480 0.8480 0.8490 0.8500
3151.832234 0.8500 0.8510 0.8520 0.8530 0.8550
3159.451000 0.8570 0.8590 0.8590 0.8590 0.8620
3167.076234 0.8630 0.8650 0.8660 0.8670 0.8670
3174.695000 0.8680 0.8680 0.8690 0.8690 0.8690
3182.320234 0.8690 0.8700 0.8700 0.8700 0.8700
3189.939000 0.8700 0.8700 0.8700 0.8700 0.8700
3197.564234 0.8700 0.8690 0.8690 0.8690 0.8690
3205.183000 0.8690 0.8690 0.8680 0.8680 0.8670
3212.808234 0.8670 0.8660 0.8660 0.8660 0.8660
3220.427000 0.8650 0.8650 0.8640 0.8640 0.8630
3228.052234 0.8630 0.8630 0.8630 0.8630 0.8620
3235.671000 0.8620 0.8620 0.8610 0.8610 0.8600
3243.296234 0.8600 0.8590 0.8590 0.8580 0.8580
3250.915000 0.8570 0.8560 0.8560 0.8560 0.8550
3258.540234 0.8540 0.8530 0.8530 0.8530 0.8530
3266.158000 0.8520 0.8520 0.8500 0.8500 0.8500
3273.783234 0.8500 0.8500 0.8490 0.8490 0.8480
3281.402000 0.8480 0.8470 0.8470 0.8470 0.8460
3289.027234 0.8450 0.8450 0.8440 0.8430 0.8430
3296.646000 0.8420 0.8410 0.8400 0.8400 0.8400
3304.271234 0.8390 0.8380 0.8370 0.8370 0.8360
3311.890000 0.8340 0.8340 0.8330 0.8320 0.8310
3319.515234 0.8300 0.8290 0.8280 0.8280 0.8270
3327.134000 0.8260 0.8250 0.8240 0.8210 0.8200
3334.759234 0.8180 0.8170 0.8150 0.8140 0.8120
3342.378000 0.8110 0.8090 0.8080 0.8080 0.8070
3350.003234 0.8050 0.8040 0.8020 0.8010 0.7990
3357.622000 0.7980 0.7960 0.7950 0.7930 0.7920
3365.247234 0.7910 0.7890 0.7880 0.7870 0.7860
3372.866000 0.7850 0.7830 0.7820 0.7810 0.7800
3380.491234 0.7780 0.7770 0.7760 0.7740 0.7730
3388.110000 0.7700 0.7700 0.7700 0.7680 0.7670
3395.735234 0.7660 0.7650 0.7640 0.7620 0.7610
3403.354000 0.7600 0.7590 0.7580 0.7570 0.7570
3410.979234 0.7560 0.7550 0.7540 0.7540 0.7530
3418.597000 0.7520 0.7510 0.7510 0.7510 0.7510
3426.222234 0.7510 0.7510 0.7500 0.7500 0.7500
3433.841000 0.7500 0.7500 0.7500 0.7510 0.7510
3441.466234 0.7510 0.7510 0.7510 0.7510 0.7520
3449.085000 0.7530 0.7530 0.7540 0.7540 0.7540
3456.710234 0.7540 0.7540 0.7540 0.7540 0.7540
3464.329000 0.7550 0.7550 0.7550 0.7550 0.7550
3471.954234 0.7550 0.7560 0.7560 0.7570 0.7570
3479.573000 0.7570 0.7570 0.7580 0.7580 0.7590
3487.198234 0.7590 0.7600 0.7600 0.7610 0.7610
3494.817000 0.7610 0.7610 0.7620 0.7620 0.7640
3502.442234 0.7650 0.7650 0.7660 0.7660 0.7670
3510.061000 0.7670 0.7670 0.7680 0.7690 0.7690
3517.686234 0.7700 0.7700 0.7700 0.7710 0.7710
3525.305000 0.7720 0.7730 0.7740 0.7750 0.7770
3532.930234 0.7770 0.7780 0.7790 0.7800 0.7810
3540.549000 0.7820 0.7830 0.7840 0.7850 0.7850
3548.174234 0.7880 0.7900 0.7910 0.7910 0.7920
3555.793000 0.7920 0.7920 0.7930 0.7940 0.7950
3563.418234 0.7960 0.7960 0.7970 0.7980 0.7990
3571.037000 0.7990 0.8000 0.8010 0.8010 0.8020
3578.662234 0.8040 0.8040 0.8050 0.8050 0.8050
3586.281000 0.8060 0.8070 0.8070 0.8080 0.8080
3593.906234 0.8090 0.8100 0.8110 0.8120 0.8130
3601.524000 0.8140 0.8150 0.8150 0.8160 0.8170
3609.149234 0.8180 0.8180 0.8190 0.8200 0.8210
3616.768000 0.8220 0.8240 0.8240 0.8260 0.8270
3624.393234 0.8280 0.8290 0.8300 0.8300 0.8310
3632.012000 0.8310 0.8310 0.8320 0.8320 0.8330
3639.637234 0.8330 0.8340 0.8340 0.8340 0.8340
3647.256000 0.8350 0.8350 0.8350 0.8360 0.8360
3654.881234 0.8370 0.8370 0.8370 0.8370 0.8370
3662.500000 0.8370 0.8370 0.8370 0.8370 0.8360
3670.125234 0.8340 0.8320 0.8310 0.8310 0.8300
3677.744000 0.8300 0.8290 0.8290 0.8280 0.8280
3685.369234 0.8280 0.8280 0.8290 0.8300 0.8310
3692.988000 0.8330 0.8340 0.8340 0.8340 0.8350
3700.613234 0.8350 0.8370 0.8370 0.8370 0.8380
3708.232000 0.8380 0.8380 0.8380 0.8380 0.8380
3715.857234 0.8370 0.8370 0.8370 0.8370 0.8370
3723.476000 0.8370 0.8360 0.8350 0.8340 0.8340
3731.101234 0.8330 0.8330 0.8320 0.8310 0.8310
3738.719000 0.8310 0.8300 0.8300 0.8290 0.8290
3746.344234 0.8280 0.8280 0.8280 0.8280 0.8280
3753.963000 0.8290 0.8310 0.8310 0.8310 0.8310
3761.588234 0.8310 0.8310 0.8310 0.8310 0.8310
3769.207000 0.8310 0.8320 0.8320 0.8320 0.8320
3776.832234 0.8320 0.8320 0.8320 0.8330 0.8330
3784.451000 0.8330 0.8330 0.8330 0.8330
##END=
