##TITLE=RUTIN
##JCAMP-DX=4.24
$$ By DXEDIT 1.05 (RS McDonald)
##DATA TYPE=INFRARED SPECTRUM
##CLASS=COBLENTZ III
##OWNER=COBLENTZ SOC.
Collection (C) 2018 copyright by the U.S. Secretary of Commerce
on behalf of the United States of America. All rights reserved.
##DATE=1961/08/15
##NAMES=3,3',4,5,7-PENTAHYDROXYFLAVONE-3-RUTINOSIDE TRIHYDRATE
##MOLFORM=C27 H30 O16  * 3 H2 O
##MP=214-215 C DECOMP.
##SOURCE REFERENCE=COBLENTZ NO. 05093
##$NIST ID=B6005093
##$NIST SOURCE=COBLENTZ
##$NIST IMAGE=cob5093
##SPECTROMETER/DATA SYSTEM=PERKIN-ELMER 21 (GRATING)
##INSTRUMENT PARAMETERS=FILTER AT ABOUT 10 MICRONS
##STATE=SOLID (KBr DISC)
##SAMPLING PROCEDURE=TRANSMISSION
##RESOLUTION=2
##DATA PROCESSING=DIGITIZED BY COBLENTZ SOCIETY (BATCH I) FROM HARD COPY
##XUNITS=1/CM
##YUNITS=TRANSMITTANCE
##XLABEL=Wavenumbers (cm-1)
##YLABEL=Transmittance
##XFACTOR=1
##YFACTOR=1
##DELTAX=1
##FIRSTX=4000
##LASTX=654
##FIRSTY=0.8563
##MAXX=4000
##MINX=654
##MAXY=0.8528
##MINY=0.1155
##NPOINTS=3347
##XYDATA=(X++(Y..Y))
4000.000000 0.8563 0.8561 0.8560 0.8558 0.8557
3995.000000 0.8555 0.8554 0.8553 0.8551 0.8550
3990.000000 0.8548 0.8547 0.8546 0.8544 0.8543
3985.000000 0.8542 0.8540 0.8539 0.8538 0.8537
3980.000000 0.8535 0.8534 0.8533 0.8532 0.8530
3975.000000 0.8528 0.8528 0.8527 0.8525 0.8525
3970.000000 0.8523 0.8521 0.8521 0.8520 0.8518
3965.000000 0.8517 0.8516 0.8515 0.8514 0.8512
3960.000000 0.8511 0.8510 0.8508 0.8507 0.8506
3955.000000 0.8505 0.8504 0.8503 0.8503 0.8502
3950.000000 0.8501 0.8500 0.8500 0.8499 0.8499
3945.000000 0.8498 0.8498 0.8497 0.8497 0.8497
3940.000000 0.8496 0.8496 0.8496 0.8495 0.8495
3935.000000 0.8495 0.8494 0.8494 0.8493 0.8493
3930.000000 0.8492 0.8492 0.8492 0.8491 0.8491
3925.000000 0.8491 0.8490 0.8490 0.8489 0.8489
3920.000000 0.8488 0.8488 0.8487 0.8487 0.8487
3915.000000 0.8487 0.8487 0.8487 0.8487 0.8487
3910.000000 0.8487 0.8487 0.8487 0.8487 0.8487
3905.000000 0.8487 0.8487 0.8487 0.8487 0.8487
3900.000000 0.8487 0.8487 0.8487 0.8487 0.8487
3895.000000 0.8487 0.8487 0.8487 0.8487 0.8487
3890.000000 0.8487 0.8487 0.8487 0.8487 0.8487
3885.000000 0.8487 0.8487 0.8487 0.8487 0.8487
3880.000000 0.8487 0.8487 0.8487 0.8487 0.8487
3875.000000 0.8488 0.8488 0.8488 0.8488 0.8488
3870.000000 0.8488 0.8488 0.8488 0.8488 0.8488
3865.000000 0.8488 0.8488 0.8489 0.8489 0.8489
3860.000000 0.8489 0.8489 0.8490 0.8490 0.8490
3855.000000 0.8490 0.8490 0.8490 0.8490 0.8490
3850.000000 0.8490 0.8490 0.8490 0.8490 0.8491
3845.000000 0.8491 0.8491 0.8491 0.8491 0.8491
3840.000000 0.8492 0.8492 0.8492 0.8492 0.8492
3835.000000 0.8492 0.8493 0.8493 0.8493 0.8493
3830.000000 0.8493 0.8493 0.8493 0.8493 0.8493
3825.000000 0.8493 0.8493 0.8493 0.8494 0.8494
3820.000000 0.8494 0.8494 0.8494 0.8494 0.8494
3815.000000 0.8494 0.8494 0.8494 0.8494 0.8494
3810.000000 0.8493 0.8493 0.8493 0.8493 0.8493
3805.000000 0.8493 0.8493 0.8493 0.8493 0.8493
3800.000000 0.8493 0.8493 0.8493 0.8493 0.8493
3795.000000 0.8493 0.8493 0.8493 0.8493 0.8493
3790.000000 0.8493 0.8493 0.8493 0.8493 0.8493
3785.000000 0.8493 0.8493 0.8493 0.8492 0.8492
3780.000000 0.8492 0.8492 0.8492 0.8492 0.8492
3775.000000 0.8492 0.8492 0.8492 0.8492 0.8492
3770.000000 0.8491 0.8491 0.8491 0.8491 0.8490
3765.000000 0.8490 0.8490 0.8490 0.8490 0.8490
3760.000000 0.8490 0.8490 0.8490 0.8490 0.8490
3755.000000 0.8490 0.8490 0.8489 0.8489 0.8489
3750.000000 0.8489 0.8489 0.8488 0.8488 0.8488
3745.000000 0.8488 0.8488 0.8488 0.8487 0.8487
3740.000000 0.8487 0.8486 0.8486 0.8486 0.8485
3735.000000 0.8485 0.8485 0.8485 0.8485 0.8484
3730.000000 0.8484 0.8484 0.8483 0.8483 0.8483
3725.000000 0.8482 0.8482 0.8482 0.8482 0.8482
3720.000000 0.8481 0.8480 0.8478 0.8478 0.8477
3715.000000 0.8475 0.8475 0.8474 0.8473 0.8471
3710.000000 0.8470 0.8468 0.8468 0.8467 0.8465
3705.000000 0.8464 0.8463 0.8460 0.8457 0.8454
3700.000000 0.8451 0.8448 0.8445 0.8442 0.8439
3695.000000 0.8435 0.8432 0.8428 0.8427 0.8424
3690.000000 0.8421 0.8420 0.8417 0.8415 0.8414
3685.000000 0.8412 0.8411 0.8409 0.8408 0.8407
3680.000000 0.8405 0.8404 0.8403 0.8402 0.8401
3675.000000 0.8400 0.8399 0.8398 0.8397 0.8396
3670.000000 0.8395 0.8394 0.8393 0.8392 0.8391
3665.000000 0.8390 0.8389 0.8388 0.8387 0.8386
3660.000000 0.8385 0.8382 0.8378 0.8375 0.8373
3655.000000 0.8370 0.8366 0.8363 0.8359 0.8356
3650.000000 0.8353 0.8349 0.8344 0.8339 0.8334
3645.000000 0.8330 0.8324 0.8317 0.8310 0.8303
3640.000000 0.8296 0.8288 0.8281 0.8274 0.8267
3635.000000 0.8260 0.8253 0.8241 0.8228 0.8215
3630.000000 0.8203 0.8190 0.8175 0.8162 0.8149
3625.000000 0.8135 0.8121 0.8108 0.8092 0.8076
3620.000000 0.8061 0.8046 0.8030 0.8014 0.7997
3615.000000 0.7980 0.7962 0.7946 0.7928 0.7911
3610.000000 0.7894 0.7876 0.7858 0.7839 0.7817
3605.000000 0.7794 0.7771 0.7749 0.7725 0.7698
3600.000000 0.7671 0.7645 0.7618 0.7592 0.7572
3595.000000 0.7553 0.7533 0.7514 0.7494 0.7475
3590.000000 0.7457 0.7438 0.7418 0.7400 0.7378
3585.000000 0.7354 0.7331 0.7307 0.7283 0.7250
3580.000000 0.7211 0.7174 0.7135 0.7097 0.7043
3575.000000 0.6975 0.6908 0.6841 0.6774 0.6721
3570.000000 0.6691 0.6660 0.6628 0.6598 0.6564
3565.000000 0.6521 0.6481 0.6439 0.6398 0.6355
3560.000000 0.6310 0.6264 0.6219 0.6173 0.6128
3555.000000 0.6082 0.6036 0.5991 0.5945 0.5899
3550.000000 0.5854 0.5808 0.5762 0.5717 0.5671
3545.000000 0.5625 0.5579 0.5533 0.5487 0.5441
3540.000000 0.5395 0.5349 0.5303 0.5256 0.5210
3535.000000 0.5164 0.5118 0.5072 0.5026 0.4980
3530.000000 0.4934 0.4887 0.4841 0.4795 0.4748
3525.000000 0.4702 0.4656 0.4609 0.4562 0.4517
3520.000000 0.4470 0.4423 0.4377 0.4330 0.4283
3515.000000 0.4237 0.4190 0.4144 0.4097 0.4050
3510.000000 0.4004 0.3957 0.3909 0.3862 0.3816
3505.000000 0.3768 0.3722 0.3675 0.3629 0.3582
3500.000000 0.3534 0.3487 0.3440 0.3393 0.3346
3495.000000 0.3299 0.3252 0.3204 0.3157 0.3114
3490.000000 0.3073 0.3032 0.2991 0.2950 0.2932
3485.000000 0.2922 0.2912 0.2902 0.2892 0.2877
3480.000000 0.2861 0.2846 0.2830 0.2814 0.2793
3475.000000 0.2772 0.2751 0.2730 0.2709 0.2689
3470.000000 0.2668 0.2648 0.2628 0.2609 0.2593
3465.000000 0.2576 0.2560 0.2544 0.2529 0.2514
3460.000000 0.2499 0.2484 0.2469 0.2453 0.2435
3455.000000 0.2419 0.2402 0.2384 0.2367 0.2350
3450.000000 0.2332 0.2314 0.2297 0.2280 0.2263
3445.000000 0.2246 0.2229 0.2213 0.2196 0.2180
3440.000000 0.2163 0.2147 0.2091 0.2024 0.1957
3435.000000 0.1890 0.1826 0.1808 0.1790 0.1772
3430.000000 0.1753 0.1734 0.1717 0.1699 0.1681
3425.000000 0.1663 0.1645 0.1629 0.1613 0.1596
3420.000000 0.1580 0.1566 0.1552 0.1538 0.1524
3415.000000 0.1512 0.1502 0.1492 0.1483 0.1473
3410.000000 0.1464 0.1456 0.1446 0.1439 0.1431
3405.000000 0.1425 0.1420 0.1415 0.1410 0.1405
3400.000000 0.1400 0.1395 0.1390 0.1385 0.1380
3395.000000 0.1376 0.1372 0.1367 0.1363 0.1359
3390.000000 0.1354 0.1350 0.1346 0.1341 0.1336
3385.000000 0.1331 0.1327 0.1322 0.1316 0.1311
3380.000000 0.1305 0.1300 0.1294 0.1289 0.1283
3375.000000 0.1278 0.1272 0.1267 0.1262 0.1257
3370.000000 0.1252 0.1248 0.1244 0.1240 0.1237
3365.000000 0.1233 0.1230 0.1227 0.1223 0.1220
3360.000000 0.1217 0.1213 0.1210 0.1206 0.1203
3355.000000 0.1199 0.1196 0.1192 0.1190 0.1187
3350.000000 0.1184 0.1181 0.1178 0.1175 0.1174
3345.000000 0.1172 0.1171 0.1170 0.1168 0.1167
3340.000000 0.1166 0.1165 0.1164 0.1163 0.1161
3335.000000 0.1160 0.1159 0.1158 0.1158 0.1158
3330.000000 0.1158 0.1158 0.1157 0.1157 0.1157
3325.000000 0.1157 0.1156 0.1156 0.1155 0.1155
3320.000000 0.1155 0.1155 0.1155 0.1155 0.1155
3315.000000 0.1155 0.1155 0.1155 0.1155 0.1155
3310.000000 0.1155 0.1155 0.1155 0.1155 0.1156
3305.000000 0.1156 0.1157 0.1157 0.1158 0.1160
3300.000000 0.1162 0.1164 0.1166 0.1169 0.1172
3295.000000 0.1175 0.1178 0.1184 0.1192 0.1199
3290.000000 0.1207 0.1215 0.1225 0.1235 0.1244
3285.000000 0.1254 0.1265 0.1275 0.1285 0.1296
3280.000000 0.1307 0.1318 0.1329 0.1340 0.1351
3275.000000 0.1361 0.1372 0.1382 0.1392 0.1401
3270.000000 0.1410 0.1419 0.1428 0.1435 0.1442
3265.000000 0.1449 0.1456 0.1463 0.1471 0.1478
3260.000000 0.1485 0.1490 0.1492 0.1495 0.1496
3255.000000 0.1500 0.1503 0.1505 0.1508 0.1510
3250.000000 0.1513 0.1516 0.1518 0.1521 0.1523
3245.000000 0.1526 0.1528 0.1530 0.1533 0.1535
3240.000000 0.1538 0.1540 0.1542 0.1545 0.1546
3235.000000 0.1549 0.1552 0.1554 0.1557 0.1559
3230.000000 0.1561 0.1564 0.1566 0.1569 0.1571
3225.000000 0.1574 0.1578 0.1581 0.1584 0.1589
3220.000000 0.1594 0.1600 0.1604 0.1610 0.1615
3215.000000 0.1620 0.1625 0.1629 0.1634 0.1641
3210.000000 0.1645 0.1651 0.1656 0.1661 0.1667
3205.000000 0.1672 0.1679 0.1686 0.1694 0.1701
3200.000000 0.1708 0.1715 0.1723 0.1729 0.1736
3195.000000 0.1744 0.1751 0.1758 0.1766 0.1773
3190.000000 0.1779 0.1786 0.1794 0.1802 0.1809
3185.000000 0.1816 0.1824 0.1832 0.1840 0.1848
3180.000000 0.1856 0.1864 0.1872 0.1879 0.1886
3175.000000 0.1894 0.1903 0.1910 0.1918 0.1926
3170.000000 0.1934 0.1942 0.1951 0.1961 0.1971
3165.000000 0.1981 0.1991 0.2001 0.2011 0.2021
3160.000000 0.2031 0.2041 0.2052 0.2062 0.2072
3155.000000 0.2082 0.2092 0.2102 0.2113 0.2125
3150.000000 0.2135 0.2148 0.2160 0.2173 0.2185
3145.000000 0.2198 0.2211 0.2223 0.2235 0.2249
3140.000000 0.2261 0.2274 0.2287 0.2299 0.2314
3135.000000 0.2329 0.2345 0.2360 0.2376 0.2391
3130.000000 0.2407 0.2423 0.2439 0.2455 0.2471
3125.000000 0.2487 0.2502 0.2518 0.2533 0.2549
3120.000000 0.2563 0.2578 0.2592 0.2606 0.2619
3115.000000 0.2631 0.2644 0.2657 0.2669 0.2682
3110.000000 0.2695 0.2707 0.2720 0.2733 0.2745
3105.000000 0.2758 0.2771 0.2783 0.2796 0.2811
3100.000000 0.2828 0.2844 0.2860 0.2878 0.2896
3095.000000 0.2914 0.2932 0.2950 0.2968 0.2985
3090.000000 0.3004 0.3022 0.3040 0.3058 0.3076
3085.000000 0.3093 0.3111 0.3129 0.3145 0.3161
3080.000000 0.3176 0.3192 0.3207 0.3222 0.3238
3075.000000 0.3253 0.3268 0.3284 0.3300 0.3314
3070.000000 0.3330 0.3347 0.3362 0.3380 0.3399
3065.000000 0.3418 0.3437 0.3457 0.3476 0.3496
3060.000000 0.3514 0.3534 0.3554 0.3573 0.3592
3055.000000 0.3609 0.3629 0.3647 0.3664 0.3682
3050.000000 0.3698 0.3714 0.3732 0.3749 0.3766
3045.000000 0.3782 0.3800 0.3816 0.3834 0.3850
3040.000000 0.3866 0.3884 0.3900 0.3918 0.3937
3035.000000 0.3956 0.3974 0.3994 0.4014 0.4034
3030.000000 0.4055 0.4075 0.4095 0.4115 0.4132
3025.000000 0.4147 0.4160 0.4176 0.4190 0.4204
3020.000000 0.4218 0.4232 0.4246 0.4260 0.4274
3015.000000 0.4288 0.4302 0.4316 0.4330 0.4344
3010.000000 0.4358 0.4372 0.4386 0.4400 0.4412
3005.000000 0.4427 0.4440 0.4454 0.4468 0.4481
3000.000000 0.4495 0.4508 0.4522 0.4537 0.4554
2995.000000 0.4570 0.4587 0.4604 0.4621 0.4638
2990.000000 0.4652 0.4664 0.4675 0.4686 0.4697
2985.000000 0.4707 0.4718 0.4729 0.4739 0.4749
2980.000000 0.4760 0.4771 0.4782 0.4793 0.4803
2975.000000 0.4812 0.4823 0.4832 0.4838 0.4843
2970.000000 0.4847 0.4851 0.4854 0.4858 0.4860
2965.000000 0.4864 0.4867 0.4869 0.4872 0.4874
2960.000000 0.4876 0.4879 0.4881 0.4883 0.4885
2955.000000 0.4887 0.4889 0.4891 0.4893 0.4895
2950.000000 0.4897 0.4899 0.4901 0.4902 0.4904
2945.000000 0.4906 0.4907 0.4909 0.4910 0.4912
2940.000000 0.4912 0.4915 0.4916 0.4917 0.4917
2935.000000 0.4917 0.4916 0.4915 0.4914 0.4912
2930.000000 0.4910 0.4906 0.4903 0.4899 0.4894
2925.000000 0.4890 0.4886 0.4877 0.4869 0.4860
2920.000000 0.4853 0.4845 0.4836 0.4828 0.4820
2915.000000 0.4810 0.4803 0.4792 0.4781 0.4770
2910.000000 0.4759 0.4749 0.4739 0.4729 0.4720
2905.000000 0.4710 0.4701 0.4691 0.4681 0.4671
2900.000000 0.4662 0.4657 0.4651 0.4599 0.4643
2895.000000 0.4641 0.4639 0.4639 0.4639 0.4640
2890.000000 0.4641 0.4644 0.4647 0.4650 0.4654
2885.000000 0.4658 0.4662 0.4669 0.4677 0.4685
2880.000000 0.4694 0.4707 0.4719 0.4732 0.4741
2875.000000 0.4750 0.4759 0.4767 0.4776 0.4785
2870.000000 0.4794 0.4803 0.4812 0.4821 0.4830
2865.000000 0.4839 0.4848 0.4858 0.4869 0.4879
2860.000000 0.4890 0.4902 0.4914 0.4926 0.4939
2855.000000 0.4951 0.4962 0.4977 0.4991 0.5004
2850.000000 0.5018 0.5033 0.5047 0.5062 0.5078
2845.000000 0.5094 0.5110 0.5128 0.5147 0.5165
2840.000000 0.5183 0.5201 0.5220 0.5237 0.5254
2835.000000 0.5271 0.5288 0.5304 0.5320 0.5337
2830.000000 0.5353 0.5369 0.5385 0.5402 0.5418
2825.000000 0.5434 0.5450 0.5465 0.5480 0.5496
2820.000000 0.5510 0.5527 0.5542 0.5558 0.5574
2815.000000 0.5589 0.5605 0.5620 0.5636 0.5655
2810.000000 0.5674 0.5692 0.5712 0.5732 0.5752
2805.000000 0.5772 0.5792 0.5810 0.5828 0.5844
2800.000000 0.5860 0.5875 0.5889 0.5904 0.5919
2795.000000 0.5933 0.5948 0.5962 0.5973 0.5984
2790.000000 0.5994 0.6005 0.6015 0.6025 0.6036
2785.000000 0.6046 0.6057 0.6067 0.6078 0.6088
2780.000000 0.6098 0.6108 0.6117 0.6127 0.6136
2775.000000 0.6146 0.6155 0.6164 0.6173 0.6182
2770.000000 0.6191 0.6200 0.6207 0.6214 0.6221
2765.000000 0.6228 0.6235 0.6242 0.6248 0.6253
2760.000000 0.6257 0.6260 0.6264 0.6266 0.6268
2755.000000 0.6271 0.6273 0.6275 0.6278 0.6280
2750.000000 0.6282 0.6284 0.6286 0.6288 0.6290
2745.000000 0.6293 0.6295 0.6297 0.6300 0.6302
2740.000000 0.6305 0.6307 0.6310 0.6312 0.6315
2735.000000 0.6317 0.6319 0.6322 0.6324 0.6326
2730.000000 0.6329 0.6331 0.6334 0.6337 0.6339
2725.000000 0.6342 0.6344 0.6346 0.6349 0.6351
2720.000000 0.6354 0.6357 0.6360 0.6364 0.6369
2715.000000 0.6373 0.6378 0.6382 0.6387 0.6392
2710.000000 0.6397 0.6401 0.6406 0.6410 0.6415
2705.000000 0.6419 0.6424 0.6428 0.6434 0.6439
2700.000000 0.6443 0.6449 0.6454 0.6458 0.6464
2695.000000 0.6468 0.6474 0.6480 0.6485 0.6491
2690.000000 0.6496 0.6501 0.6506 0.6511 0.6518
2685.000000 0.6522 0.6528 0.6533 0.6539 0.6544
2680.000000 0.6549 0.6554 0.6560 0.6565 0.6571
2675.000000 0.6575 0.6581 0.6587 0.6592 0.6597
2670.000000 0.6603 0.6608 0.6614 0.6618 0.6625
2665.000000 0.6630 0.6636 0.6641 0.6647 0.6651
2660.000000 0.6658 0.6664 0.6669 0.6675 0.6682
2655.000000 0.6688 0.6694 0.6700 0.6705 0.6711
2650.000000 0.6717 0.6722 0.6728 0.6735 0.6741
2645.000000 0.6748 0.6754 0.6760 0.6765 0.6771
2640.000000 0.6778 0.6784 0.6790 0.6796 0.6801
2635.000000 0.6808 0.6815 0.6819 0.6825 0.6832
2630.000000 0.6838 0.6844 0.6850 0.6857 0.6862
2625.000000 0.6868 0.6875 0.6881 0.6888 0.6894
2620.000000 0.6900 0.6906 0.6911 0.6917 0.6922
2615.000000 0.6928 0.6935 0.6941 0.6946 0.6951
2610.000000 0.6958 0.6964 0.6968 0.6975 0.6981
2605.000000 0.6987 0.6992 0.6998 0.7004 0.7010
2600.000000 0.7015 0.7021 0.7026 0.7033 0.7039
2595.000000 0.7045 0.7051 0.7057 0.7062 0.7068
2590.000000 0.7074 0.7080 0.7085 0.7091 0.7097
2585.000000 0.7104 0.7110 0.7117 0.7124 0.7131
2580.000000 0.7137 0.7144 0.7150 0.7157 0.7162
2575.000000 0.7169 0.7176 0.7184 0.7191 0.7197
2570.000000 0.7204 0.7211 0.7218 0.7225 0.7232
2565.000000 0.7238 0.7245 0.7251 0.7258 0.7264
2560.000000 0.7269 0.7275 0.7281 0.7287 0.7293
2555.000000 0.7299 0.7304 0.7310 0.7315 0.7322
2550.000000 0.7328 0.7334 0.7340 0.7346 0.7351
2545.000000 0.7357 0.7362 0.7368 0.7375 0.7380
2540.000000 0.7386 0.7392 0.7398 0.7404 0.7410
2535.000000 0.7415 0.7421 0.7428 0.7434 0.7440
2530.000000 0.7445 0.7451 0.7456 0.7461 0.7467
2525.000000 0.7472 0.7478 0.7484 0.7489 0.7495
2520.000000 0.7500 0.7506 0.7511 0.7517 0.7521
2515.000000 0.7528 0.7534 0.7539 0.7545 0.7550
2510.000000 0.7556 0.7561 0.7567 0.7571 0.7578
2505.000000 0.7584 0.7589 0.7595 0.7600 0.7606
2500.000000 0.7611 0.7617 0.7622 0.7628 0.7634
2495.000000 0.7640 0.7645 0.7651 0.7656 0.7661
2490.000000 0.7665 0.7671 0.7675 0.7681 0.7687
2485.000000 0.7692 0.7697 0.7701 0.7707 0.7711
2480.000000 0.7717 0.7721 0.7726 0.7732 0.7738
2475.000000 0.7743 0.7748 0.7753 0.7758 0.7762
2470.000000 0.7768 0.7774 0.7778 0.7784 0.7788
2465.000000 0.7793 0.7798 0.7803 0.7808 0.7812
2460.000000 0.7818 0.7822 0.7828 0.7833 0.7837
2455.000000 0.7842 0.7847 0.7851 0.7857 0.7861
2450.000000 0.7865 0.7871 0.7875 0.7881 0.7886
2445.000000 0.7891 0.7896 0.7901 0.7907 0.7911
2440.000000 0.7915 0.7921 0.7925 0.7931 0.7936
2435.000000 0.7941 0.7946 0.7951 0.7956 0.7961
2430.000000 0.7965 0.7971 0.7975 0.7981 0.7986
2425.000000 0.7991 0.7996 0.8001 0.8006 0.8011
2420.000000 0.8015 0.8021 0.8025 0.8031 0.8036
2415.000000 0.8041 0.8046 0.8051 0.8056 0.8061
2410.000000 0.8065 0.8071 0.8075 0.8081 0.8086
2405.000000 0.8091 0.8096 0.8101 0.8106 0.8111
2400.000000 0.8115 0.8121 0.8125 0.8131 0.8136
2395.000000 0.8141 0.8146 0.8150 0.8155 0.8160
2390.000000 0.8165 0.8169 0.8174 0.8178 0.8184
2385.000000 0.8189 0.8194 0.8198 0.8202 0.8205
2380.000000 0.8209 0.8213 0.8217 0.8220 0.8224
2375.000000 0.8228 0.8231 0.8235 0.8238 0.8241
2370.000000 0.8244 0.8248 0.8251 0.8254 0.8257
2365.000000 0.8260 0.8262 0.8264 0.8266 0.8267
2360.000000 0.8268 0.8268 0.8267 0.8267 0.8267
2355.000000 0.8267 0.8266 0.8266 0.8266 0.8265
2350.000000 0.8265 0.8264 0.8262 0.8261 0.8258
2345.000000 0.8256 0.8253 0.8250 0.8248 0.8245
2340.000000 0.8242 0.8240 0.8237 0.8234 0.8231
2335.000000 0.8228 0.8225 0.8224 0.8223 0.8221
2330.000000 0.8221 0.8223 0.8225 0.8228 0.8232
2325.000000 0.8235 0.8239 0.8242 0.8245 0.8248
2320.000000 0.8252 0.8255 0.8259 0.8262 0.8266
2315.000000 0.8268 0.8273 0.8275 0.8280 0.8285
2310.000000 0.8289 0.8292 0.8296 0.8300 0.8305
2305.000000 0.8308 0.8312 0.8316 0.8321 0.8324
2300.000000 0.8328 0.8332 0.8337 0.8340 0.8343
2295.000000 0.8345 0.8348 0.8351 0.8355 0.8358
2290.000000 0.8361 0.8364 0.8366 0.8368 0.8371
2285.000000 0.8375 0.8378 0.8381 0.8384 0.8387
2280.000000 0.8390 0.8393 0.8396 0.8398 0.8401
2275.000000 0.8403 0.8405 0.8407 0.8409 0.8411
2270.000000 0.8413 0.8415 0.8417 0.8418 0.8421
2265.000000 0.8421 0.8423 0.8423 0.8424 0.8424
2260.000000 0.8425 0.8425 0.8427 0.8427 0.8428
2255.000000 0.8428 0.8428 0.8428 0.8430 0.8430
2250.000000 0.8431 0.8431 0.8431 0.8431 0.8430
2245.000000 0.8428 0.8428 0.8428 0.8428 0.8428
2240.000000 0.8427 0.8427 0.8427 0.8427 0.8425
2235.000000 0.8425 0.8425 0.8425 0.8425 0.8425
2230.000000 0.8425 0.8425 0.8425 0.8425 0.8425
2225.000000 0.8425 0.8425 0.8425 0.8425 0.8425
2220.000000 0.8425 0.8425 0.8425 0.8425 0.8425
2215.000000 0.8425 0.8425 0.8425 0.8425 0.8425
2210.000000 0.8425 0.8425 0.8427 0.8427 0.8428
2205.000000 0.8428 0.8428 0.8428 0.8430 0.8430
2200.000000 0.8431 0.8431 0.8432 0.8432 0.8433
2195.000000 0.8433 0.8434 0.8434 0.8432 0.8431
2190.000000 0.8430 0.8428 0.8428 0.8427 0.8425
2185.000000 0.8424 0.8423 0.8421 0.8421 0.8420
2180.000000 0.8418 0.8418 0.8416 0.8414 0.8413
2175.000000 0.8411 0.8410 0.8408 0.8405 0.8404
2170.000000 0.8402 0.8401 0.8399 0.8397 0.8395
2165.000000 0.8393 0.8392 0.8390 0.8388 0.8387
2160.000000 0.8386 0.8385 0.8383 0.8381 0.8380
2155.000000 0.8378 0.8377 0.8375 0.8374 0.8371
2150.000000 0.8370 0.8368 0.8367 0.8365 0.8364
2145.000000 0.8361 0.8359 0.8358 0.8356 0.8354
2140.000000 0.8352 0.8350 0.8349 0.8347 0.8345
2135.000000 0.8343 0.8342 0.8341 0.8340 0.8339
2130.000000 0.8338 0.8337 0.8337 0.8336 0.8335
2125.000000 0.8334 0.8333 0.8332 0.8331 0.8330
2120.000000 0.8328 0.8328 0.8328 0.8327 0.8325
2115.000000 0.8324 0.8324 0.8323 0.8321 0.8321
2110.000000 0.8320 0.8318 0.8318 0.8317 0.8316
2105.000000 0.8315 0.8314 0.8314 0.8313 0.8312
2100.000000 0.8311 0.8310 0.8309 0.8308 0.8308
2095.000000 0.8307 0.8307 0.8306 0.8305 0.8305
2090.000000 0.8304 0.8303 0.8302 0.8302 0.8301
2085.000000 0.8300 0.8300 0.8299 0.8299 0.8300
2080.000000 0.8301 0.8303 0.8305 0.8306 0.8307
2075.000000 0.8309 0.8310 0.8311 0.8313 0.8315
2070.000000 0.8317 0.8318 0.8318 0.8321 0.8323
2065.000000 0.8324 0.8325 0.8327 0.8328 0.8331
2060.000000 0.8332 0.8333 0.8335 0.8336 0.8337
2055.000000 0.8339 0.8340 0.8341 0.8342 0.8343
2050.000000 0.8345 0.8346 0.8347 0.8348 0.8349
2045.000000 0.8350 0.8352 0.8353 0.8354 0.8355
2040.000000 0.8356 0.8357 0.8358 0.8359 0.8360
2035.000000 0.8362 0.8363 0.8364 0.8365 0.8366
2030.000000 0.8368 0.8368 0.8370 0.8371 0.8371
2025.000000 0.8371 0.8373 0.8373 0.8374 0.8375
2020.000000 0.8375 0.8375 0.8377 0.8378 0.8378
2015.000000 0.8378 0.8380 0.8380 0.8381 0.8382
2010.000000 0.8382 0.8383 0.8384 0.8384 0.8385
2005.000000 0.8385 0.8386 0.8387 0.8387 0.8388
2000.000000 0.8389 0.8389 0.8390 0.8390 0.8391
1995.000000 0.8392 0.8392 0.8393 0.8394 0.8394
1990.000000 0.8395 0.8396 0.8397 0.8398 0.8398
1985.000000 0.8399 0.8400 0.8400 0.8401 0.8402
1980.000000 0.8403 0.8404 0.8404 0.8405 0.8406
1975.000000 0.8406 0.8407 0.8409 0.8409 0.8410
1970.000000 0.8411 0.8411 0.8412 0.8412 0.8414
1965.000000 0.8415 0.8415 0.8416 0.8417 0.8417
1960.000000 0.8418 0.8418 0.8418 0.8420 0.8420
1955.000000 0.8420 0.8421 0.8421 0.8421 0.8421
1950.000000 0.8423 0.8423 0.8423 0.8424 0.8424
1945.000000 0.8424 0.8425 0.8425 0.8425 0.8425
1940.000000 0.8425 0.8427 0.8427 0.8427 0.8428
1935.000000 0.8428 0.8428 0.8430 0.8430 0.8431
1930.000000 0.8432 0.8433 0.8433 0.8434 0.8435
1925.000000 0.8435 0.8436 0.8437 0.8437 0.8438
1920.000000 0.8439 0.8439 0.8440 0.8441 0.8442
1915.000000 0.8444 0.8446 0.8447 0.8449 0.8451
1910.000000 0.8452 0.8454 0.8456 0.8457 0.8459
1905.000000 0.8461 0.8462 0.8462 0.8462 0.8461
1900.000000 0.8461 0.8461 0.8460 0.8460 0.8460
1895.000000 0.8459 0.8459 0.8459 0.8458 0.8457
1890.000000 0.8457 0.8456 0.8454 0.8454 0.8452
1885.000000 0.8451 0.8450 0.8449 0.8448 0.8446
1880.000000 0.8446 0.8445 0.8443 0.8442 0.8440
1875.000000 0.8439 0.8437 0.8436 0.8435 0.8433
1870.000000 0.8432 0.8430 0.8428 0.8427 0.8425
1865.000000 0.8425 0.8424 0.8424 0.8424 0.8423
1860.000000 0.8421 0.8421 0.8421 0.8421 0.8421
1855.000000 0.8420 0.8418 0.8418 0.8418 0.8418
1850.000000 0.8418 0.8418 0.8418 0.8418 0.8418
1845.000000 0.8418 0.8418 0.8418 0.8418 0.8418
1840.000000 0.8418 0.8418 0.8418 0.8418 0.8418
1835.000000 0.8418 0.8420 0.8420 0.8420 0.8420
1830.000000 0.8420 0.8420 0.8420 0.8427 0.8418
1825.000000 0.8418 0.8417 0.8416 0.8415 0.8415
1820.000000 0.8414 0.8413 0.8412 0.8412 0.8412
1815.000000 0.8411 0.8410 0.8410 0.8409 0.8407
1810.000000 0.8404 0.8402 0.8399 0.8395 0.8392
1805.000000 0.8389 0.8386 0.8383 0.8380 0.8377
1800.000000 0.8374 0.8370 0.8366 0.8362 0.8358
1795.000000 0.8354 0.8349 0.8345 0.8340 0.8336
1790.000000 0.8332 0.8327 0.8321 0.8318 0.8314
1785.000000 0.8309 0.8305 0.8301 0.8296 0.8291
1780.000000 0.8287 0.8282 0.8278 0.8273 0.8268
1775.000000 0.8264 0.8259 0.8255 0.8250 0.8245
1770.000000 0.8240 0.8235 0.8228 0.8225 0.8220
1765.000000 0.8214 0.8209 0.8204 0.8199 0.8195
1760.000000 0.8189 0.8184 0.8178 0.8172 0.8167
1755.000000 0.8160 0.8154 0.8148 0.8141 0.8135
1750.000000 0.8128 0.8121 0.8115 0.8108 0.8103
1745.000000 0.8096 0.8089 0.8081 0.8072 0.8065
1740.000000 0.8058 0.8051 0.8044 0.8036 0.8028
1735.000000 0.8019 0.8012 0.8005 0.7998 0.7990
1730.000000 0.7980 0.7969 0.7960 0.7949 0.7939
1725.000000 0.7928 0.7918 0.7907 0.7897 0.7887
1720.000000 0.7875 0.7865 0.7854 0.7839 0.7822
1715.000000 0.7807 0.7792 0.7775 0.7760 0.7743
1710.000000 0.7722 0.7696 0.7669 0.7645 0.7618
1705.000000 0.7592 0.7565 0.7535 0.7504 0.7471
1700.000000 0.7440 0.7408 0.7376 0.7344 0.7306
1695.000000 0.7264 0.7222 0.7181 0.7133 0.7075
1690.000000 0.7010 0.6945 0.6880 0.6801 0.6725
1685.000000 0.6647 0.6575 0.6507 0.6438 0.6370
1680.000000 0.6302 0.6234 0.6165 0.6096 0.6001
1675.000000 0.5890 0.5757 0.5591 0.5408 0.5238
1670.000000 0.5100 0.4887 0.4701 0.4575 0.4452
1665.000000 0.4149 0.3708 0.3266 0.2824 0.2393
1660.000000 0.2051 0.2029 0.2019 0.2012 0.2001
1655.000000 0.2003 0.2004 0.2018 0.2053 0.2126
1650.000000 0.2233 0.2341 0.2449 0.2557 0.2665
1645.000000 0.2773 0.2881 0.2990 0.3099 0.3207
1640.000000 0.3316 0.3425 0.3534 0.3644 0.3753
1635.000000 0.3862 0.3972 0.4059 0.4080 0.4092
1630.000000 0.4094 0.4094 0.4095 0.4084 0.4014
1625.000000 0.3891 0.3764 0.3639 0.3512 0.3386
1620.000000 0.3260 0.3134 0.3007 0.2880 0.2753
1615.000000 0.2626 0.2499 0.2371 0.2243 0.2115
1610.000000 0.2029 0.2003 0.1991 0.1983 0.1970
1605.000000 0.1977 0.1979 0.1993 0.2023 0.2100
1600.000000 0.2211 0.2321 0.2432 0.2543 0.2654
1595.000000 0.2764 0.2876 0.2988 0.3099 0.3210
1590.000000 0.3322 0.3434 0.3546 0.3658 0.3759
1585.000000 0.3818 0.3858 0.3912 0.3938 0.3952
1580.000000 0.3964 0.3968 0.3977 0.3982 0.3986
1575.000000 0.3986 0.3982 0.3978 0.3968 0.3956
1570.000000 0.3944 0.3934 0.3928 0.3922 0.3918
1565.000000 0.3920 0.3920 0.3932 0.3966 0.4014
1560.000000 0.4084 0.4182 0.4291 0.4401 0.4510
1555.000000 0.4620 0.4729 0.4839 0.4948 0.5058
1550.000000 0.5168 0.5279 0.5389 0.5478 0.5496
1545.000000 0.5516 0.5536 0.5557 0.5576 0.5594
1540.000000 0.5608 0.5616 0.5624 0.5632 0.5658
1535.000000 0.5641 0.5638 0.5632 0.5610 0.5575
1530.000000 0.5526 0.5474 0.5417 0.5326 0.5218
1525.000000 0.5067 0.4892 0.4716 0.4540 0.4364
1520.000000 0.4187 0.4010 0.3834 0.3657 0.3480
1515.000000 0.3303 0.3125 0.2961 0.2871 0.2853
1510.000000 0.2842 0.2834 0.2829 0.2828 0.2827
1505.000000 0.2830 0.2834 0.2847 0.2864 0.2883
1500.000000 0.2912 0.2947 0.2984 0.3038 0.3094
1495.000000 0.3172 0.3257 0.3334 0.3406 0.3468
1490.000000 0.3532 0.3596 0.3662 0.3732 0.3825
1485.000000 0.3941 0.4040 0.4107 0.4168 0.4225
1480.000000 0.4273 0.4316 0.4347 0.4362 0.4372
1475.000000 0.4379 0.4400 0.4381 0.4380 0.4376
1470.000000 0.4367 0.4344 0.4312 0.4277 0.4234
1465.000000 0.4190 0.4147 0.4106 0.4064 0.4020
1460.000000 0.3974 0.3928 0.3884 0.3847 0.3809
1455.000000 0.3774 0.3734 0.3696 0.3657 0.3618
1450.000000 0.3580 0.3473 0.3514 0.3497 0.3495
1445.000000 0.3502 0.3514 0.3536 0.3559 0.3586
1440.000000 0.3612 0.3647 0.3693 0.3759 0.3834
1435.000000 0.3910 0.3984 0.4054 0.4122 0.4207
1430.000000 0.4304 0.4378 0.4428 0.4475 0.4512
1425.000000 0.4541 0.4556 0.4565 0.4599 0.4583
1420.000000 0.4588 0.4592 0.4592 0.4592 0.4584
1415.000000 0.4569 0.4557 0.4549 0.4540 0.4533
1410.000000 0.4525 0.4518 0.4506 0.4490 0.4472
1405.000000 0.4456 0.4439 0.4420 0.4399 0.4377
1400.000000 0.4356 0.4335 0.4310 0.4281 0.4251
1395.000000 0.4222 0.4193 0.4164 0.4134 0.4103
1390.000000 0.4072 0.4041 0.4009 0.3979 0.3946
1385.000000 0.3912 0.3878 0.3843 0.3809 0.3776
1380.000000 0.3743 0.3709 0.3677 0.3634 0.3580
1375.000000 0.3512 0.3414 0.3288 0.3153 0.3038
1370.000000 0.2925 0.2821 0.2739 0.2663 0.2614
1365.000000 0.2570 0.2534 0.2501 0.2468 0.2433
1360.000000 0.2397 0.2364 0.2335 0.2319 0.2322
1355.000000 0.2332 0.2351 0.2383 0.2417 0.2460
1350.000000 0.2517 0.2590 0.2679 0.2777 0.2826
1345.000000 0.2866 0.2908 0.2964 0.3022 0.3090
1340.000000 0.3166 0.3242 0.3304 0.3375 0.3407
1335.000000 0.3439 0.3488 0.3548 0.3629 0.3707
1330.000000 0.3782 0.3855 0.3907 0.3947 0.3980
1325.000000 0.4009 0.4034 0.4071 0.4057 0.4055
1320.000000 0.4034 0.4003 0.3949 0.3882 0.3797
1315.000000 0.3712 0.3595 0.3459 0.3325 0.3190
1310.000000 0.3054 0.2918 0.2782 0.2645 0.2514
1305.000000 0.2424 0.2367 0.2319 0.2288 0.2271
1300.000000 0.2259 0.2242 0.2246 0.2248 0.2258
1295.000000 0.2272 0.2305 0.2390 0.2484 0.2556
1290.000000 0.2633 0.2716 0.2789 0.2856 0.2916
1285.000000 0.2972 0.3026 0.3081 0.3134 0.3166
1280.000000 0.3184 0.3197 0.3204 0.3209 0.3212
1275.000000 0.3212 0.3199 0.3169 0.3132 0.3104
1270.000000 0.3084 0.3082 0.3085 0.3090 0.3101
1265.000000 0.3113 0.3140 0.3171 0.3202 0.3234
1260.000000 0.3266 0.3299 0.3332 0.3359 0.3387
1255.000000 0.3412 0.3438 0.3466 0.3497 0.3527
1250.000000 0.3554 0.3573 0.3588 0.3597 0.3606
1245.000000 0.3612 0.3618 0.3618 0.3612 0.3608
1240.000000 0.3603 0.3597 0.3593 0.3590 0.3591
1235.000000 0.3591 0.3594 0.3609 0.3627 0.3654
1230.000000 0.3686 0.3724 0.3764 0.3805 0.3843
1225.000000 0.3864 0.3879 0.3892 0.3904 0.3912
1220.000000 0.3928 0.3934 0.3930 0.3914 0.3880
1215.000000 0.3810 0.3708 0.3544 0.3391 0.3250
1210.000000 0.3125 0.2998 0.2873 0.2746 0.2620
1205.000000 0.2493 0.2366 0.2276 0.2205 0.2165
1200.000000 0.2133 0.2115 0.2109 0.2133 0.2176
1195.000000 0.2231 0.2302 0.2379 0.2458 0.2538
1190.000000 0.2629 0.2750 0.2873 0.2996 0.3119
1185.000000 0.3242 0.3366 0.3490 0.3614 0.3738
1180.000000 0.3858 0.3926 0.3984 0.3953 0.3953
1175.000000 0.3943 0.3894 0.3777 0.3644 0.3512
1170.000000 0.3379 0.3248 0.3183 0.3189 0.3191
1165.000000 0.3252 0.3336 0.3438 0.3546 0.3654
1160.000000 0.3762 0.3871 0.3980 0.4090 0.4199
1155.000000 0.4288 0.4362 0.4362 0.4362 0.4358
1150.000000 0.4350 0.4322 0.4287 0.4234 0.4176
1145.000000 0.4123 0.4071 0.4026 0.3992 0.3959
1140.000000 0.3934 0.3910 0.3895 0.3880 0.3871
1135.000000 0.3859 0.3850 0.3839 0.3828 0.3816
1130.000000 0.3806 0.3794 0.3782 0.3759 0.3729
1125.000000 0.3688 0.3647 0.3594 0.3536 0.3484
1120.000000 0.3438 0.3391 0.3342 0.3293 0.3243
1115.000000 0.3190 0.3141 0.3127 0.3123 0.3129
1110.000000 0.3146 0.3170 0.3202 0.3240 0.3287
1105.000000 0.3322 0.3348 0.3346 0.3328 0.3248
1100.000000 0.3057 0.2909 0.2765 0.2620 0.2475
1095.000000 0.2388 0.2313 0.2187 0.2066 0.2007
1090.000000 0.1963 0.1924 0.1908 0.1900 0.1904
1085.000000 0.1914 0.1926 0.1936 0.1948 0.1959
1080.000000 0.1970 0.1979 0.1989 0.1994 0.1991
1075.000000 0.1983 0.1959 0.1933 0.1900 0.1863
1070.000000 0.1825 0.1782 0.1737 0.1701 0.1671
1065.000000 0.1650 0.1634 0.1627 0.1620 0.1620
1060.000000 0.1617 0.1622 0.1634 0.1664 0.1743
1055.000000 0.1814 0.1821 0.1835 0.1884 0.1953
1050.000000 0.2024 0.2085 0.2138 0.2205 0.2279
1045.000000 0.2342 0.2405 0.2456 0.2504 0.2563
1040.000000 0.2628 0.2667 0.2669 0.2671 0.2681
1035.000000 0.2691 0.2704 0.2720 0.2752 0.2799
1030.000000 0.2856 0.2921 0.2988 0.3070 0.3145
1025.000000 0.3212 0.3259 0.3291 0.3314 0.3329
1020.000000 0.3332 0.3321 0.3289 0.3237 0.3191
1015.000000 0.3144 0.3123 0.3116 0.3114 0.3123
1010.000000 0.3147 0.3218 0.3306 0.3408 0.3562
1005.000000 0.3740 0.3879 0.3988 0.4074 0.4080
1000.000000 0.4050 0.3842 0.3793 0.3856 0.3939
995.000000 0.3984 0.4023 0.4136 0.4219 0.4310
990.000000 0.4367 0.4383 0.4391 0.4390 0.4382
985.000000 0.4359 0.4320 0.4306 0.4310 0.4333
980.000000 0.4364 0.4403 0.4462 0.4564 0.4712
975.000000 0.4869 0.5023 0.5177 0.5331 0.5486
970.000000 0.5641 0.5796 0.5952 0.6108 0.6264
965.000000 0.6383 0.6461 0.6541 0.6621 0.6699
960.000000 0.6771 0.6825 0.6872 0.6911 0.6946
955.000000 0.6975 0.6995 0.7015 0.7035 0.7055
950.000000 0.7075 0.7058 0.7100 0.7090 0.7076
945.000000 0.7053 0.7028 0.6984 0.6932 0.6861
940.000000 0.6774 0.6669 0.6541 0.6353 0.6252
935.000000 0.6179 0.6147 0.6123 0.6119 0.6118
930.000000 0.6174 0.6254 0.6334 0.6418 0.6499
925.000000 0.6574 0.6634 0.6676 0.6704 0.6719
920.000000 0.6718 0.6718 0.6708 0.6693 0.6675
915.000000 0.6658 0.6641 0.6626 0.6615 0.6611
910.000000 0.6618 0.6625 0.6643 0.6661 0.6678
905.000000 0.6699 0.6721 0.6744 0.6775 0.6806
900.000000 0.6833 0.6854 0.6861 0.6881 0.6856
895.000000 0.6850 0.6835 0.6818 0.6803 0.6784
890.000000 0.6761 0.6738 0.6708 0.6667 0.6615
885.000000 0.6549 0.6483 0.6435 0.6389 0.6347
880.000000 0.6318 0.6306 0.6298 0.6294 0.6272
875.000000 0.6321 0.6339 0.6366 0.6398 0.6443
870.000000 0.6488 0.6530 0.6571 0.6608 0.6646
865.000000 0.6682 0.6718 0.6746 0.6789 0.6761
860.000000 0.6754 0.6712 0.6657 0.6618 0.6582
855.000000 0.6537 0.6437 0.6329 0.6194 0.6065
850.000000 0.5967 0.5912 0.5886 0.5851 0.5798
845.000000 0.5745 0.5706 0.5664 0.5622 0.5575
840.000000 0.5515 0.5457 0.5397 0.5335 0.5282
835.000000 0.5240 0.5230 0.5226 0.5226 0.5226
830.000000 0.5221 0.5216 0.5209 0.5202 0.5193
825.000000 0.5183 0.5168 0.5147 0.5122 0.5093
820.000000 0.5056 0.5008 0.4941 0.4868 0.4796
815.000000 0.4724 0.4668 0.4612 0.4544 0.4474
810.000000 0.4421 0.4391 0.4391 0.4412 0.4466
805.000000 0.4525 0.4582 0.4639 0.4696 0.4762
800.000000 0.4843 0.4935 0.5005 0.5083 0.5181
795.000000 0.5285 0.5371 0.5437 0.5484 0.5479
790.000000 0.5469 0.5462 0.5465 0.5474 0.5495
785.000000 0.5527 0.5570 0.5624 0.5678 0.5733
780.000000 0.5785 0.5827 0.5869 0.5908 0.5934
775.000000 0.5960 0.5958 0.5937 0.5914 0.5902
770.000000 0.5904 0.5906 0.5908 0.5908 0.5908
765.000000 0.5907 0.5906 0.5900 0.5894 0.5886
760.000000 0.5880 0.5873 0.5865 0.5856 0.5849
755.000000 0.5840 0.5830 0.5820 0.5810 0.5801
750.000000 0.5791 0.5780 0.5770 0.5760 0.5748
745.000000 0.5730 0.5712 0.5688 0.5657 0.5628
740.000000 0.5598 0.5569 0.5540 0.5509 0.5479
735.000000 0.5450 0.5426 0.5401 0.5377 0.5366
730.000000 0.5374 0.5382 0.5391 0.5409 0.5428
725.000000 0.5444 0.5459 0.5472 0.5479 0.5485
720.000000 0.5490 0.5490 0.5489 0.5473 0.5439
715.000000 0.5376 0.5310 0.5260 0.5232 0.5215
710.000000 0.5215 0.5224 0.5259 0.5314 0.5369
705.000000 0.5417 0.5448 0.5478 0.5489 0.5496
700.000000 0.5503 0.5503 0.5504 0.5499 0.5487
695.000000 0.5426 0.5362 0.5316 0.5300 0.5294
690.000000 0.5294 0.5294 0.5296 0.5300 0.5304
685.000000 0.5307 0.5307 0.5308 0.5309 0.5305
680.000000 0.5299 0.5290 0.5279 0.5262 0.5246
675.000000 0.5226 0.5199 0.5119 0.5117 0.5085
670.000000 0.5038 0.5017 0.5021 0.5053 0.5093
665.000000 0.5125 0.5124 0.5132 0.5105 0.5050
660.000000 0.4989 0.4925 0.4849 0.4793 0.4759
655.000000 0.4758 0.4775
##END=
