##TITLE=ACETIC ACID, COBALTOUS SALT, TETRAHYDRATE
##JCAMP-DX=4.24
##DATA TYPE=INFRARED SPECTRUM
##CLASS=COBLENTZ
##ORIGIN=BELL TELEPHONE LABORATORIES- F. VRATNY
##OWNER=COBLENTZ SOCIETY
Collection (C) 2018 copyright by the U.S. Secretary of Commerce
on behalf of the United States of America. All rights reserved.
##DATE=Not specified, most likely prior to 1970
##MOLFORM=C4 H6 O4 Co  * 4 H2 O
##SOURCE REFERENCE=COBLENTZ NO. 2036
##$NIST ID=B6002036
##$NIST SOURCE=COBLENTZ
##$NIST IMAGE=cob2036
##SPECTROMETER/DATA SYSTEM=Not specified, most likely a prism, grating, or hybrid spectrometer.
##STATE=SOLID (MINERAL OIL MULL)
##PATH LENGTH=
$$SPECTRAL CONTAMINATION DUE TO OIL AROUND 2900 CM^-^1
##SAMPLING PROCEDURE=TRANSMISSION
##RESOLUTION=4
##DATA PROCESSING=DIGITIZED BY NIST FROM HARD COPY
##XUNITS=MICROMETERS
##YUNITS=TRANSMITTANCE
##XFACTOR=1.000000
##YFACTOR=1
##DELTAX=000.006656
##FIRSTX=2.04
##LASTX=15.26
##FIRSTY=0.675
##MAXX=15.26
##MINX=2.04
##MAXY=0.709
##MINY=0.012
##NPOINTS=1987
##XYDATA=(X++(Y..Y))
2.040000 0.6750 0.6760 0.6790 0.6830 0.6840
2.073299 0.6860 0.6870 0.6890 0.6900 0.6900
2.107000 0.6900 0.6900 0.6900 0.6900 0.6900
2.140299 0.6910 0.6910 0.6930 0.6930 0.6930
2.173000 0.6940 0.6950 0.6950 0.6970 0.6980
2.206299 0.6980 0.7010 0.7010 0.7010 0.7010
2.240000 0.6990 0.6980 0.6970 0.6950 0.6910
2.273299 0.6890 0.6840 0.6830 0.6800 0.6790
2.306000 0.6780 0.6780 0.6780 0.6780 0.6780
2.339299 0.6780 0.6780 0.6790 0.6790 0.6790
2.373000 0.6790 0.6820 0.6830 0.6840 0.6870
2.406299 0.6890 0.6890 0.6890 0.6900 0.6900
2.439000 0.6900 0.6910 0.6910 0.6910 0.6910
2.472299 0.6910 0.6910 0.6930 0.6930 0.6940
2.506000 0.6940 0.6950 0.6970 0.6970 0.6980
2.539299 0.6980 0.6990 0.7010 0.7030 0.7030
2.572000 0.7050 0.7050 0.7060 0.7060 0.7060
2.605299 0.7060 0.7070 0.7070 0.7070 0.7090
2.639000 0.7090 0.7090 0.7090 0.7090 0.7090
2.672299 0.7090 0.7070 0.7060 0.7060 0.7050
2.706000 0.7050 0.7030 0.7030 0.7020 0.7010
2.739299 0.6940 0.6860 0.6780 0.6780 0.6700
2.772000 0.6630 0.6560 0.6360 0.6130 0.5890
2.805299 0.5630 0.5370 0.5120 0.4770 0.4510
2.839000 0.4190 0.3910 0.3570 0.3400 0.3210
2.872299 0.2850 0.2560 0.2530 0.2520 0.2520
2.905000 0.2490 0.2490 0.2490 0.2420 0.2330
2.938299 0.2150 0.1940 0.1780 0.1640 0.1520
2.972000 0.1400 0.1300 0.1170 0.1030 0.0880
3.005299 0.0750 0.0690 0.0630 0.0610 0.0610
3.038000 0.0630 0.0680 0.0720 0.0760 0.0830
3.071299 0.0890 0.0990 0.1070 0.1120 0.1190
3.105000 0.1230 0.1260 0.1270 0.1300 0.1340
3.138299 0.1350 0.1390 0.1400 0.1400 0.1400
3.172000 0.1400 0.1400 0.1400 0.1420 0.1420
3.205299 0.1420 0.1420 0.1420 0.1420 0.1420
3.238000 0.1420 0.1420 0.1400 0.1400 0.1400
3.271299 0.1400 0.1390 0.1390 0.1380 0.1350
3.305000 0.1340 0.1340 0.1320 0.1300 0.1300
3.338299 0.1270 0.1240 0.1210 0.1150 0.1120
3.371000 0.1110 0.1050 0.0920 0.0810 0.0720
3.404299 0.0690 0.0640 0.0640 0.0640 0.0640
3.438000 0.0640 0.0610 0.0610 0.0600 0.0600
3.471299 0.0520 0.0460 0.0440 0.0400 0.0340
3.504000 0.0300 0.0220 0.0210 0.0210 0.0210
3.537299 0.0240 0.0520 0.0640 0.0760 0.0880
3.571000 0.1190 0.1320 0.1340 0.1350 0.1380
3.604299 0.1420 0.1460 0.1510 0.1540 0.1560
3.637000 0.1630 0.1720 0.1790 0.1820 0.1890
3.670299 0.1910 0.1930 0.1970 0.2060 0.2100
3.704000 0.2140 0.2170 0.2220 0.2290 0.2310
3.737299 0.2350 0.2470 0.2520 0.2540 0.2560
3.771000 0.2610 0.2690 0.2730 0.2780 0.2840
3.804299 0.2920 0.2970 0.3010 0.3020 0.3060
3.837000 0.3120 0.3200 0.3290 0.3410 0.3450
3.870299 0.3480 0.3490 0.3490 0.3510 0.3560
3.904000 0.3610 0.3640 0.3680 0.3720 0.3760
3.937299 0.3820 0.3870 0.3900 0.3910 0.3940
3.970000 0.3960 0.3990 0.4000 0.4020 0.4030
4.003299 0.4070 0.4100 0.4120 0.4140 0.4160
4.037000 0.4180 0.4190 0.4190 0.4190 0.4190
4.070299 0.4190 0.4190 0.4190 0.4190 0.4190
4.103000 0.4190 0.4200 0.4200 0.4260 0.4260
4.136299 0.4240 0.4230 0.4220 0.4200 0.4150
4.170000 0.4120 0.4110 0.4100 0.4080 0.4070
4.203299 0.4070 0.4070 0.4070 0.4070 0.4070
4.237000 0.4070 0.4070 0.4060 0.4060 0.4040
4.270299 0.4030 0.4020 0.4020 0.4020 0.4020
4.303000 0.4000 0.3960 0.3950 0.3950 0.3920
4.336299 0.3910 0.3880 0.3880 0.3860 0.3860
4.370000 0.3840 0.3840 0.3840 0.3840 0.3860
4.403299 0.3880 0.3900 0.3990 0.4030 0.4040
4.436000 0.4070 0.4100 0.4150 0.4200 0.4240
4.469299 0.4280 0.4300 0.4300 0.4320 0.4390
4.503000 0.4450 0.4470 0.4510 0.4590 0.4650
4.536299 0.4690 0.4700 0.4750 0.4750 0.4770
4.569000 0.4790 0.4790 0.4830 0.4860 0.4900
4.602299 0.4900 0.4940 0.4970 0.5000 0.5010
4.636000 0.5020 0.5080 0.5120 0.5140 0.5160
4.669299 0.5170 0.5200 0.5220 0.5240 0.5260
4.703000 0.5260 0.5260 0.5260 0.5280 0.5290
4.736299 0.5300 0.5330 0.5360 0.5370 0.5410
4.769000 0.5440 0.5440 0.5440 0.5440 0.5420
4.802299 0.5410 0.5410 0.5410 0.5410 0.5410
4.836000 0.5410 0.5410 0.5410 0.5410 0.5410
4.869299 0.5410 0.5410 0.5410 0.5410 0.5440
4.902000 0.5450 0.5480 0.5480 0.5480 0.5480
4.935299 0.5480 0.5480 0.5480 0.5490 0.5490
4.969000 0.5500 0.5500 0.5500 0.5520 0.5520
5.002299 0.5520 0.5530 0.5530 0.5530 0.5530
5.035000 0.5530 0.5530 0.5530 0.5530 0.5530
5.068299 0.5540 0.5560 0.5560 0.5570 0.5580
5.102000 0.5580 0.5600 0.5600 0.5610 0.5630
5.135299 0.5630 0.5640 0.5640 0.5650 0.5650
5.168000 0.5670 0.5670 0.5690 0.5710 0.5720
5.201299 0.5720 0.5730 0.5730 0.5750 0.5750
5.235000 0.5760 0.5760 0.5770 0.5790 0.5790
5.268299 0.5790 0.5800 0.5800 0.5810 0.5840
5.302000 0.5880 0.5890 0.5890 0.5890 0.5910
5.335299 0.5930 0.6000 0.6030 0.6050 0.6050
5.368000 0.6070 0.6070 0.6070 0.6080 0.6080
5.401299 0.6080 0.6080 0.6080 0.6080 0.6080
5.435000 0.6080 0.6090 0.6110 0.6120 0.6150
5.468299 0.6150 0.6190 0.6200 0.6210 0.6210
5.501000 0.6210 0.6210 0.6210 0.6210 0.6200
5.534299 0.6200 0.6170 0.6150 0.6150 0.6150
5.568000 0.6130 0.6130 0.6120 0.6080 0.6070
5.601299 0.6040 0.6010 0.6010 0.6000 0.5930
5.634000 0.5930 0.5910 0.5880 0.5850 0.5830
5.667299 0.5830 0.5800 0.5790 0.5770 0.5730
5.701000 0.5690 0.5690 0.5640 0.5600 0.5560
5.734299 0.5530 0.5410 0.5260 0.5130 0.5050
5.768000 0.5010 0.4900 0.4790 0.4570 0.4310
5.801299 0.4100 0.3900 0.3860 0.3860 0.3860
5.834000 0.3860 0.3860 0.3860 0.3860 0.3870
5.867299 0.3880 0.3880 0.3900 0.3900 0.3910
5.901000 0.3910 0.3910 0.3910 0.3900 0.3880
5.934299 0.3880 0.3790 0.3720 0.3710 0.3690
5.967000 0.3670 0.3560 0.3520 0.3490 0.3430
6.000299 0.3400 0.3360 0.3320 0.3270 0.3130
6.034000 0.3010 0.2840 0.2700 0.2600 0.2490
6.067299 0.2380 0.2270 0.2150 0.2030 0.1930
6.100000 0.1790 0.1660 0.1510 0.1390 0.1310
6.133299 0.1260 0.1160 0.1080 0.0970 0.0850
6.167000 0.0790 0.0750 0.0690 0.0640 0.0560
6.200299 0.0420 0.0260 0.0140 0.0120 0.0120
6.233000 0.0120 0.0120 0.0120 0.0140 0.0140
6.266299 0.0140 0.0140 0.0140 0.0140 0.0140
6.300000 0.0140 0.0140 0.0140 0.0120 0.0120
6.333299 0.0120 0.0120 0.0120 0.0120 0.0120
6.367000 0.0120 0.0120 0.0120 0.0120 0.0120
6.400299 0.0120 0.0120 0.0120 0.0120 0.0120
6.433000 0.0120 0.0120 0.0120 0.0120 0.0120
6.466299 0.0120 0.0130 0.0140 0.0160 0.0170
6.500000 0.0180 0.0180 0.0180 0.0180 0.0200
6.533299 0.0210 0.0240 0.0260 0.0280 0.0290
6.566000 0.0300 0.0320 0.0340 0.0360 0.0380
6.599299 0.0400 0.0410 0.0450 0.0490 0.0490
6.633000 0.0500 0.0580 0.0610 0.0690 0.0750
6.666299 0.0790 0.0800 0.0810 0.0810 0.0830
6.699000 0.0830 0.0840 0.0850 0.0850 0.0870
6.732299 0.0870 0.0850 0.0850 0.0810 0.0770
6.766000 0.0680 0.0630 0.0600 0.0530 0.0450
6.799299 0.0400 0.0380 0.0370 0.0360 0.0360
6.833000 0.0340 0.0280 0.0210 0.0210 0.0200
6.866299 0.0200 0.0200 0.0170 0.0170 0.0170
6.899000 0.0170 0.0200 0.0200 0.0200 0.0200
6.932299 0.0200 0.0200 0.0200 0.0200 0.0200
6.966000 0.0200 0.0200 0.0200 0.0200 0.0210
6.999299 0.0220 0.0240 0.0250 0.0250 0.0210
7.032000 0.0210 0.0210 0.0210 0.0210 0.0280
7.065299 0.0290 0.0290 0.0300 0.0300 0.0300
7.099000 0.0300 0.0300 0.0300 0.0300 0.0300
7.132299 0.0290 0.0290 0.0280 0.0260 0.0260
7.165000 0.0260 0.0280 0.0280 0.0290 0.0300
7.198299 0.0300 0.0320 0.0320 0.0340 0.0380
7.232000 0.0450 0.0570 0.0720 0.0890 0.1050
7.265299 0.1170 0.1210 0.1260 0.1280 0.1340
7.299000 0.1390 0.1440 0.1510 0.1580 0.1600
7.332299 0.1660 0.1720 0.1780 0.1790 0.1790
7.365000 0.1790 0.1800 0.1800 0.1800 0.1830
7.398299 0.1830 0.1830 0.1840 0.1840 0.1790
7.432000 0.1600 0.1440 0.1260 0.1080 0.0930
7.465299 0.0770 0.0670 0.0610 0.0610 0.0610
7.498000 0.0630 0.0720 0.0830 0.0960 0.1050
7.531299 0.1160 0.1270 0.1380 0.1500 0.1660
7.565000 0.1830 0.1980 0.2090 0.2150 0.2260
7.598299 0.2310 0.2350 0.2410 0.2450 0.2490
7.631000 0.2540 0.2610 0.2760 0.2860 0.2930
7.664299 0.2960 0.2980 0.3000 0.3000 0.3040
7.698000 0.3150 0.3240 0.3280 0.3290 0.3400
7.731299 0.3440 0.3490 0.3510 0.3520 0.3530
7.764000 0.3550 0.3590 0.3610 0.3670 0.3720
7.797299 0.3760 0.3790 0.3830 0.3840 0.3860
7.831000 0.3900 0.3920 0.3950 0.3990 0.4000
7.864299 0.4020 0.4100 0.4120 0.4140 0.4150
7.898000 0.4200 0.4220 0.4220 0.4220 0.4220
7.931299 0.4230 0.4240 0.4260 0.4270 0.4280
7.964000 0.4280 0.4280 0.4280 0.4300 0.4300
7.997299 0.4320 0.4350 0.4410 0.4460 0.4470
8.031000 0.4500 0.4500 0.4510 0.4510 0.4530
8.064299 0.4530 0.4530 0.4530 0.4540 0.4540
8.097000 0.4550 0.4570 0.4570 0.4580 0.4580
8.130299 0.4590 0.4590 0.4590 0.4590 0.4590
8.164000 0.4620 0.4630 0.4650 0.4650 0.4670
8.197299 0.4670 0.4670 0.4690 0.4690 0.4690
8.230000 0.4690 0.4700 0.4700 0.4710 0.4730
8.263299 0.4730 0.4740 0.4810 0.4860 0.4890
8.297000 0.4900 0.4910 0.4930 0.4940 0.4940
8.330299 0.4970 0.4970 0.4970 0.4970 0.4970
8.364000 0.4970 0.4970 0.4950 0.4950 0.4970
8.397299 0.4980 0.4980 0.5000 0.5000 0.5000
8.430000 0.5000 0.5000 0.5000 0.5000 0.5000
8.463299 0.5000 0.5000 0.5000 0.4980 0.4970
8.497000 0.4940 0.4940 0.4930 0.4910 0.4910
8.530299 0.4910 0.4910 0.4910 0.4910 0.4910
8.563000 0.4930 0.4930 0.4930 0.4930 0.4950
8.596299 0.4950 0.4940 0.4930 0.4910 0.4910
8.630000 0.4900 0.4900 0.4900 0.4900 0.4900
8.663299 0.4900 0.4900 0.4900 0.4900 0.4900
8.696000 0.4890 0.4890 0.4890 0.4890 0.4900
8.729299 0.4900 0.4930 0.4950 0.4950 0.4950
8.763000 0.4940 0.4940 0.4930 0.4930 0.4930
8.796299 0.4930 0.4930 0.4930 0.4930 0.4940
8.829000 0.4950 0.4950 0.4970 0.4970 0.4910
8.862299 0.4830 0.4820 0.4820 0.4830 0.4850
8.896000 0.4860 0.4810 0.4750 0.4750 0.4770
8.929299 0.4780 0.4780 0.4790 0.4810 0.4830
8.963000 0.4870 0.4900 0.4900 0.4900 0.4910
8.996299 0.4910 0.4910 0.4900 0.4860 0.4820
9.029000 0.4820 0.4820 0.4850 0.4850 0.4830
9.062299 0.4820 0.4820 0.4820 0.4810 0.4810
9.096000 0.4790 0.4790 0.4790 0.4780 0.4780
9.129299 0.4770 0.4750 0.4700 0.4700 0.4670
9.162000 0.4660 0.4650 0.4630 0.4620 0.4580
9.195299 0.4540 0.4530 0.4510 0.4500 0.4470
9.229000 0.4450 0.4420 0.4390 0.4350 0.4300
9.262299 0.4230 0.4220 0.4200 0.4200 0.4190
9.295000 0.4160 0.4120 0.4100 0.4040 0.4020
9.328299 0.4000 0.3950 0.3920 0.3900 0.3870
9.362000 0.3820 0.3720 0.3630 0.3520 0.3410
9.395299 0.3360 0.3290 0.3210 0.3160 0.3100
9.429000 0.3100 0.3060 0.3000 0.2920 0.2860
9.462299 0.2800 0.2760 0.2760 0.2760 0.2760
9.495000 0.2740 0.2740 0.2740 0.2730 0.2730
9.528299 0.2720 0.2700 0.2650 0.2600 0.2570
9.562000 0.2520 0.2500 0.2450 0.2410 0.2380
9.595299 0.2330 0.2290 0.2270 0.2250 0.2250
9.628000 0.2220 0.2220 0.2180 0.2140 0.2100
9.661299 0.2030 0.1940 0.1900 0.1860 0.1820
9.695000 0.1790 0.1780 0.1780 0.1780 0.1780
9.728299 0.1780 0.1780 0.1790 0.1790 0.1800
9.761000 0.1820 0.1830 0.1930 0.2030 0.2090
9.794299 0.2110 0.2190 0.2260 0.2350 0.2460
9.828000 0.2520 0.2570 0.2570 0.2600 0.2650
9.861299 0.2690 0.2730 0.2760 0.2810 0.2860
9.895000 0.2900 0.2970 0.3050 0.3060 0.3120
9.928299 0.3170 0.3210 0.3280 0.3400 0.3410
9.961000 0.3440 0.3490 0.3510 0.3590 0.3650
9.994299 0.3710 0.3750 0.3760 0.3800 0.3820
10.028000 0.3830 0.3860 0.3880 0.3910 0.3940
10.061299 0.3960 0.3960 0.3980 0.3990 0.3990
10.094000 0.4020 0.4030 0.4060 0.4060 0.4070
10.127299 0.4100 0.4110 0.4110 0.4120 0.4120
10.161000 0.4120 0.4140 0.4150 0.4160 0.4160
10.194299 0.4180 0.4180 0.4180 0.4180 0.4190
10.227000 0.4190 0.4220 0.4220 0.4230 0.4240
10.260299 0.4240 0.4260 0.4260 0.4270 0.4270
10.294000 0.4270 0.4270 0.4270 0.4270 0.4270
10.327299 0.4280 0.4280 0.4300 0.4300 0.4300
10.360000 0.4310 0.4310 0.4320 0.4390 0.4430
10.393299 0.4460 0.4490 0.4500 0.4500 0.4510
10.427000 0.4510 0.4510 0.4530 0.4540 0.4540
10.460299 0.4550 0.4570 0.4570 0.4580 0.4590
10.494000 0.4610 0.4620 0.4630 0.4630 0.4650
10.527299 0.4660 0.4660 0.4670 0.4690 0.4700
10.560000 0.4700 0.4700 0.4710 0.4740 0.4770
10.593299 0.4790 0.4810 0.4820 0.4830 0.4860
10.627000 0.4890 0.4910 0.4930 0.4940 0.4950
10.660299 0.4950 0.4950 0.4950 0.4950 0.4950
10.693000 0.4950 0.4950 0.4950 0.4950 0.4950
10.726299 0.4950 0.4940 0.4930 0.4890 0.4850
10.760000 0.4810 0.4750 0.4740 0.4730 0.4700
10.793299 0.4650 0.4590 0.4550 0.4540 0.4530
10.826000 0.4530 0.4510 0.4470 0.4430 0.4410
10.859299 0.4380 0.4310 0.4280 0.4230 0.4140
10.893000 0.4100 0.4070 0.4040 0.4030 0.4000
10.926299 0.3960 0.3910 0.3860 0.3800 0.3760
10.960000 0.3750 0.3650 0.3590 0.3520 0.3470
10.993299 0.3410 0.3360 0.3330 0.3290 0.3230
11.026000 0.3190 0.3150 0.3060 0.3010 0.2940
11.059299 0.2890 0.2890 0.2820 0.2800 0.2780
11.093000 0.2730 0.2680 0.2600 0.2540 0.2530
11.126299 0.2520 0.2500 0.2470 0.2410 0.2350
11.159000 0.2300 0.2290 0.2270 0.2270 0.2260
11.192299 0.2260 0.2250 0.2230 0.2230 0.2220
11.226000 0.2210 0.2210 0.2190 0.2180 0.2180
11.259299 0.2170 0.2170 0.2170 0.2170 0.2150
11.292000 0.2150 0.2150 0.2150 0.2150 0.2150
11.325299 0.2150 0.2150 0.2170 0.2170 0.2170
11.359000 0.2180 0.2190 0.2190 0.2210 0.2210
11.392299 0.2220 0.2230 0.2230 0.2250 0.2260
11.425000 0.2290 0.2290 0.2300 0.2300 0.2310
11.458299 0.2330 0.2370 0.2380 0.2420 0.2470
11.492000 0.2520 0.2540 0.2560 0.2570 0.2600
11.525299 0.2600 0.2610 0.2640 0.2650 0.2660
11.559000 0.2660 0.2690 0.2730 0.2760 0.2770
11.592299 0.2800 0.2810 0.2810 0.2820 0.2850
11.625000 0.2850 0.2880 0.2900 0.2930 0.2960
11.658299 0.2980 0.3000 0.3010 0.3010 0.3020
11.692000 0.3050 0.3090 0.3150 0.3160 0.3170
11.725299 0.3200 0.3210 0.3230 0.3240 0.3270
11.758000 0.3280 0.3290 0.3290 0.3290 0.3310
11.791299 0.3320 0.3320 0.3330 0.3330 0.3330
11.825000 0.3330 0.3350 0.3350 0.3360 0.3430
11.858299 0.3450 0.3450 0.3450 0.3450 0.3470
11.891000 0.3470 0.3470 0.3470 0.3480 0.3480
11.924299 0.3480 0.3480 0.3490 0.3490 0.3490
11.958000 0.3510 0.3510 0.3520 0.3520 0.3520
11.991299 0.3520 0.3530 0.3530 0.3530 0.3530
12.025000 0.3530 0.3530 0.3530 0.3530 0.3530
12.058299 0.3530 0.3530 0.3530 0.3530 0.3530
12.091000 0.3530 0.3530 0.3520 0.3510 0.3510
12.124299 0.3490 0.3490 0.3490 0.3480 0.3470
12.158000 0.3470 0.3450 0.3440 0.3430 0.3410
12.191299 0.3410 0.3400 0.3390 0.3370 0.3360
12.224000 0.3360 0.3350 0.3330 0.3320 0.3290
12.257299 0.3270 0.3270 0.3250 0.3230 0.3210
12.291000 0.3190 0.3170 0.3170 0.3170 0.3170
12.324299 0.3190 0.3190 0.3190 0.3190 0.3190
12.357000 0.3190 0.3170 0.3170 0.3160 0.3160
12.390299 0.3160 0.3160 0.3160 0.3160 0.3170
12.424000 0.3190 0.3200 0.3200 0.3200 0.3210
12.457299 0.3280 0.3390 0.3390 0.3400 0.3410
12.491000 0.3430 0.3430 0.3430 0.3430 0.3430
12.524299 0.3440 0.3440 0.3440 0.3440 0.3440
12.557000 0.3440 0.3450 0.3470 0.3470 0.3480
12.590299 0.3490 0.3510 0.3520 0.3530 0.3600
12.624000 0.3610 0.3650 0.3670 0.3680 0.3690
12.657299 0.3710 0.3710 0.3710 0.3710 0.3710
12.690000 0.3720 0.3730 0.3760 0.3790 0.3790
12.723299 0.3790 0.3800 0.3800 0.3840 0.3860
12.757000 0.3860 0.3870 0.3870 0.3880 0.3880
12.790299 0.3880 0.3880 0.3880 0.3880 0.3880
12.823000 0.3880 0.3880 0.3900 0.3900 0.3900
12.856299 0.3900 0.3900 0.3900 0.3910 0.3940
12.890000 0.3950 0.3960 0.3960 0.3990 0.3990
12.923299 0.3990 0.4000 0.4000 0.4000 0.4020
12.956000 0.4030 0.4040 0.4100 0.4120 0.4120
12.989299 0.4120 0.4120 0.4140 0.4140 0.4140
13.023000 0.4140 0.4140 0.4120 0.4110 0.4100
13.056299 0.4100 0.4100 0.4100 0.4100 0.4100
13.090000 0.4100 0.4100 0.4100 0.4100 0.4100
13.123299 0.4100 0.4110 0.4110 0.4110 0.4110
13.156000 0.4110 0.4110 0.4110 0.4110 0.4110
13.189299 0.4110 0.4110 0.4110 0.4110 0.4100
13.223000 0.4100 0.4100 0.4100 0.4100 0.4100
13.256299 0.4100 0.4100 0.4080 0.4080 0.4080
13.289000 0.4080 0.4080 0.4080 0.4070 0.4070
13.322299 0.4070 0.4070 0.4070 0.4070 0.4070
13.356000 0.4070 0.4060 0.4040 0.4040 0.4030
13.389299 0.4020 0.4020 0.4020 0.4000 0.3990
13.422000 0.3990 0.3990 0.3990 0.3990 0.3980
13.455299 0.3980 0.3960 0.3950 0.3940 0.3940
13.489000 0.3920 0.3920 0.3910 0.3900 0.3900
13.522299 0.3900 0.3900 0.3900 0.3910 0.3910
13.556000 0.3900 0.3900 0.3880 0.3880 0.3880
13.589299 0.3880 0.3880 0.3880 0.3880 0.3880
13.622000 0.3880 0.3880 0.3880 0.3880 0.3880
13.655299 0.3880 0.3880 0.3880 0.3880 0.3880
13.689000 0.3880 0.3880 0.3880 0.3900 0.3910
13.722299 0.3910 0.3920 0.3920 0.3920 0.3920
13.755000 0.3920 0.3920 0.3920 0.3920 0.3920
13.788299 0.3920 0.3920 0.3920 0.3920 0.3920
13.822000 0.3920 0.3950 0.3950 0.3990 0.4020
13.855299 0.4030 0.4030 0.4020 0.4020 0.4000
13.888000 0.4000 0.4020 0.4060 0.4070 0.4080
13.921299 0.4100 0.4120 0.4140 0.4140 0.4150
13.955000 0.4150 0.4150 0.4150 0.4150 0.4160
13.988299 0.4180 0.4200 0.4220 0.4220 0.4230
14.022000 0.4240 0.4240 0.4240 0.4240 0.4240
14.055299 0.4240 0.4240 0.4240 0.4240 0.4240
14.088000 0.4240 0.4240 0.4240 0.4240 0.4240
14.121299 0.4240 0.4240 0.4240 0.4230 0.4230
14.155000 0.4230 0.4220 0.4220 0.4190 0.4190
14.188299 0.4180 0.4150 0.4140 0.4120 0.4110
14.221000 0.4110 0.4110 0.4100 0.4070 0.4040
14.254299 0.3990 0.3900 0.3880 0.3820 0.3800
14.288000 0.3760 0.3720 0.3680 0.3640 0.3520
14.321299 0.3440 0.3400 0.3370 0.3330 0.3280
14.354000 0.3230 0.3100 0.3040 0.2880 0.2760
14.387299 0.2760 0.2720 0.2650 0.2610 0.2570
14.421000 0.2540 0.2490 0.2390 0.2310 0.2270
14.454299 0.2170 0.2050 0.1950 0.1830 0.1790
14.487000 0.1710 0.1630 0.1560 0.1500 0.1430
14.520299 0.1400 0.1380 0.1350 0.1300 0.1260
14.554000 0.1240 0.1230 0.1210 0.1200 0.1190
14.587299 0.1170 0.1160 0.1150 0.1130 0.1130
14.621000 0.1120 0.1120 0.1110 0.1110 0.1090
14.654299 0.1090 0.1080 0.1050 0.1040 0.1030
14.687000 0.1010 0.1000 0.0990 0.0970 0.0970
14.720299 0.0970 0.0970 0.0990 0.1000 0.1000
14.754000 0.1010 0.1010 0.1030 0.1030 0.1040
14.787299 0.1050 0.1070 0.1090 0.1120 0.1130
14.820000 0.1150 0.1210 0.1210 0.1270 0.1300
14.853299 0.1340 0.1380 0.1380 0.1430 0.1430
14.887000 0.1500 0.1540 0.1590 0.1630 0.1670
14.920299 0.1680 0.1750 0.1800 0.1840 0.1930
14.953000 0.2010 0.2050 0.2100 0.2150 0.2180
14.986299 0.2190 0.2210 0.2290 0.2350 0.2380
15.020000 0.2410 0.2430 0.2460 0.2490 0.2570
15.053299 0.2610 0.2610 0.2610 0.2620 0.2650
15.087000 0.2660 0.2700 0.2740 0.2760 0.2820
15.120299 0.2840 0.2840 0.2860 0.2890 0.2920
15.153000 0.2920 0.2920 0.2920 0.2920 0.2920
15.186299 0.2920 0.2930 0.2930 0.2930 0.2930
15.220000 0.2930 0.2960 0.3010 0.3050 0.3080
15.253299 0.3090 0.3090
##END=
