##TITLE=1,1'-BIS (4-FLUOROBENZOYL) FERROCENE
##JCAMP-DX=4.24
##DATA TYPE=INFRARED SPECTRUM
##CLASS=COBLENTZ
##ORIGIN=WYANDOTTE CHEMICALS CORP., WYANDOTTE, MICHIGAN, USA
##OWNER=COBLENTZ SOCIETY
Collection (C) 2018 copyright by the U.S. Secretary of Commerce
on behalf of the United States of America. All rights reserved.
##DATE=Not specified, most likely prior to 1970
##MOLFORM=C24 H16 F2 O2 Fe
##SOURCE REFERENCE=COBLENTZ NO. 3020
##$NIST ID=B6003020
##$NIST SOURCE=COBLENTZ
##$NIST IMAGE=cob3020
##SPECTROMETER/DATA SYSTEM=Not specified, most likely a prism, grating, or hybrid spectrometer.
##STATE=SOLID (MINERAL OIL MULL)
##PATH LENGTH=
$$SPECTRAL CONTAMINATION DUE TO OIL AROUND 2900 CM^-^1
##SAMPLING PROCEDURE=TRANSMISSION
##RESOLUTION=4
##DATA PROCESSING=DIGITIZED BY NIST FROM HARD COPY
##XUNITS=MICROMETERS
##YUNITS=TRANSMITTANCE
##XFACTOR=1.000000
##YFACTOR=1
##DELTAX=000.006803
##FIRSTX=2.041
##LASTX=15.9996
##FIRSTY=0.54
##MAXX=15.9996
##MINX=2.041
##MAXY=0.948
##MINY=0.042
##NPOINTS=2053
##XYDATA=(X++(Y..Y))
2.041000 0.5400 0.5410 0.5410 0.5410 0.5410
2.075030 0.5430 0.5480 0.5500 0.5500 0.5500
2.109000 0.5500 0.5500 0.5500 0.5480 0.5480
2.143030 0.5480 0.5480 0.5480 0.5480 0.5530
2.177000 0.5550 0.5570 0.5570 0.5570 0.5570
2.211030 0.5570 0.5570 0.5570 0.5570 0.5570
2.245000 0.5570 0.5570 0.5600 0.5600 0.5650
2.279030 0.5680 0.5700 0.5720 0.5720 0.5750
2.313000 0.5790 0.5790 0.5800 0.5800 0.5800
2.347030 0.5800 0.5860 0.5920 0.5960 0.5970
2.381000 0.5970 0.5970 0.5970 0.5990 0.6040
2.415030 0.6060 0.6060 0.6040 0.6030 0.5990
2.449000 0.5990 0.6010 0.6030 0.6040 0.6080
2.483030 0.6110 0.6160 0.6200 0.6210 0.6260
2.517000 0.6300 0.6300 0.6330 0.6350 0.6370
2.551030 0.6380 0.6400 0.6400 0.6400 0.6420
2.585000 0.6420 0.6420 0.6450 0.6490 0.6540
2.619030 0.6570 0.6600 0.6600 0.6570 0.6540
2.653000 0.6540 0.6540 0.6540 0.6540 0.6550
2.687030 0.6570 0.6570 0.6590 0.6600 0.6620
2.721000 0.6670 0.6690 0.6710 0.6710 0.6720
2.755030 0.6720 0.6710 0.6690 0.6690 0.6690
2.789000 0.6670 0.6670 0.6660 0.6640 0.6620
2.823030 0.6600 0.6550 0.6540 0.6550 0.6600
2.857000 0.6640 0.6600 0.6570 0.6550 0.6540
2.891030 0.6540 0.6540 0.6540 0.6550 0.6570
2.925000 0.6590 0.6590 0.6570 0.6540 0.6500
2.959030 0.6500 0.6500 0.6500 0.6500 0.6500
2.993000 0.6520 0.6570 0.6590 0.6590 0.6590
3.027030 0.6570 0.6570 0.6500 0.6490 0.6470
3.061000 0.6450 0.6400 0.6370 0.6320 0.6280
3.095030 0.6260 0.6260 0.6260 0.6260 0.6260
3.129000 0.6260 0.6250 0.6230 0.6230 0.6210
3.163030 0.6140 0.6010 0.5920 0.5650 0.5450
3.197000 0.4920 0.4310 0.4190 0.4190 0.4480
3.231030 0.5000 0.5340 0.5580 0.5700 0.5770
3.265000 0.5790 0.5790 0.5750 0.5620 0.5430
3.299030 0.5040 0.4490 0.3790 0.3030 0.2430
3.333000 0.1750 0.1340 0.1050 0.0970 0.0930
3.367030 0.0910 0.0900 0.0880 0.0880 0.0950
3.401000 0.1050 0.1150 0.1270 0.1440 0.1680
3.435030 0.1800 0.1800 0.1770 0.1720 0.1720
3.469000 0.1750 0.1940 0.2190 0.2580 0.3080
3.503030 0.3780 0.4410 0.5190 0.5750 0.6210
3.537000 0.6620 0.6790 0.6950 0.7060 0.7170
3.571030 0.7240 0.7290 0.7320 0.7370 0.7440
3.605000 0.7490 0.7520 0.7520 0.7520 0.7460
3.639030 0.7440 0.7440 0.7440 0.7460 0.7460
3.673000 0.7470 0.7490 0.7520 0.7560 0.7580
3.707030 0.7580 0.7580 0.7560 0.7510 0.7490
3.741000 0.7510 0.7580 0.7630 0.7680 0.7700
3.775030 0.7730 0.7730 0.7700 0.7630 0.7630
3.810000 0.7630 0.7640 0.7640 0.7660 0.7700
3.844030 0.7730 0.7780 0.7810 0.7850 0.7880
3.878000 0.7900 0.7920 0.7970 0.7980 0.7980
3.912030 0.7980 0.7970 0.7970 0.7980 0.8050
3.946000 0.8070 0.8070 0.8090 0.8090 0.8090
3.980030 0.8070 0.8000 0.7980 0.7980 0.7980
4.014000 0.8050 0.8070 0.8090 0.8100 0.8120
4.048030 0.8140 0.8140 0.8160 0.8170 0.8120
4.082000 0.8040 0.7980 0.7970 0.7970 0.7950
4.116030 0.7950 0.7930 0.7950 0.7980 0.7980
4.150000 0.8000 0.8020 0.8090 0.8100 0.8160
4.184030 0.8170 0.8190 0.8190 0.8160 0.8140
4.218000 0.8120 0.8090 0.8090 0.8090 0.8070
4.252030 0.8070 0.8090 0.8140 0.8190 0.8240
4.286000 0.8270 0.8290 0.8310 0.8360 0.8410
4.320030 0.8480 0.8510 0.8580 0.8620 0.8650
4.354000 0.8670 0.8700 0.8720 0.8700 0.8670
4.388030 0.8650 0.8620 0.8670 0.8650 0.8600
4.422000 0.8510 0.8510 0.8560 0.8580 0.8580
4.456030 0.8600 0.8620 0.8620 0.8620 0.8620
4.490000 0.8630 0.8650 0.8650 0.8650 0.8650
4.524030 0.8680 0.8680 0.8720 0.8750 0.8750
4.558000 0.8750 0.8770 0.8750 0.8750 0.8750
4.592030 0.8770 0.8820 0.8870 0.8870 0.8870
4.626000 0.8890 0.8890 0.8890 0.8890 0.8870
4.660030 0.8870 0.8890 0.8900 0.8920 0.8940
4.694000 0.8970 0.8990 0.8990 0.8970 0.8920
4.728030 0.8900 0.8900 0.8900 0.8900 0.8920
4.762000 0.8970 0.8990 0.9010 0.9010 0.9020
4.796030 0.8990 0.8990 0.9060 0.9090 0.9090
4.830000 0.9090 0.9090 0.9090 0.9090 0.9090
4.864030 0.9130 0.9140 0.9140 0.9130 0.9130
4.898000 0.9090 0.9090 0.9130 0.9140 0.9140
4.932030 0.9180 0.9160 0.9140 0.9130 0.9110
4.966000 0.9110 0.9040 0.8960 0.8920 0.8900
5.000030 0.8900 0.8900 0.8940 0.8960 0.9010
5.034000 0.9040 0.9130 0.9140 0.9160 0.9180
5.068030 0.9210 0.9260 0.9280 0.9280 0.9280
5.102000 0.9280 0.9280 0.9280 0.9280 0.9230
5.136030 0.9160 0.9140 0.9140 0.9110 0.9090
5.170000 0.9090 0.9090 0.9090 0.8990 0.8790
5.204030 0.8580 0.8500 0.8500 0.8560 0.8600
5.238000 0.8680 0.8790 0.8840 0.8890 0.8990
5.272030 0.8990 0.9060 0.9080 0.9090 0.9130
5.306000 0.9210 0.9250 0.9260 0.9280 0.9280
5.340030 0.9280 0.9260 0.9260 0.9280 0.9350
5.374000 0.9420 0.9430 0.9420 0.9400 0.9380
5.408030 0.9350 0.9300 0.9300 0.9280 0.9300
5.442000 0.9380 0.9380 0.9310 0.9210 0.9140
5.476030 0.9090 0.9060 0.9020 0.9020 0.8990
5.510000 0.8990 0.8900 0.8870 0.8800 0.8790
5.544030 0.8790 0.8790 0.8770 0.8750 0.8680
5.578000 0.8650 0.8630 0.8580 0.8580 0.8600
5.612030 0.8680 0.8700 0.8720 0.8720 0.8750
5.646000 0.8800 0.8840 0.8840 0.8800 0.8790
5.680030 0.8770 0.8720 0.8680 0.8650 0.8650
5.714000 0.8630 0.8620 0.8600 0.8530 0.8500
5.748030 0.8480 0.8480 0.8390 0.8360 0.8330
5.782000 0.8240 0.8220 0.8220 0.8210 0.8190
5.816030 0.8140 0.8100 0.8040 0.8000 0.7970
5.850000 0.7970 0.7980 0.8020 0.8000 0.7850
5.884030 0.7710 0.7630 0.7580 0.7510 0.7350
5.918000 0.7030 0.6760 0.6540 0.6400 0.6280
5.952030 0.6140 0.6030 0.5800 0.5600 0.5360
5.986000 0.5170 0.4870 0.4540 0.3860 0.2750
6.020030 0.2450 0.1560 0.0850 0.0440 0.0420
6.054000 0.0490 0.0630 0.0640 0.0640 0.0660
6.088030 0.0780 0.1050 0.1510 0.1890 0.2230
6.122000 0.2570 0.2990 0.3100 0.3080 0.2650
6.156030 0.2140 0.1610 0.1220 0.0730 0.0520
6.190000 0.0520 0.0710 0.1140 0.1560 0.1950
6.224030 0.2400 0.2930 0.3640 0.4050 0.4340
6.259000 0.4480 0.4730 0.4940 0.5120 0.5340
6.293030 0.5650 0.6060 0.6300 0.6450 0.6540
6.327000 0.6600 0.6600 0.6620 0.6670 0.6810
6.361030 0.7050 0.7170 0.7220 0.7300 0.7320
6.395000 0.7320 0.7320 0.7200 0.7120 0.7100
6.429030 0.7100 0.7120 0.7170 0.7200 0.7200
6.463000 0.7130 0.7180 0.7180 0.7180 0.7150
6.497030 0.7120 0.7120 0.7130 0.7130 0.7130
6.531000 0.7100 0.6860 0.6570 0.6250 0.5960
6.565030 0.5650 0.4970 0.4120 0.3450 0.2620
6.599000 0.2580 0.2790 0.3270 0.3880 0.4530
6.633030 0.5620 0.6090 0.6350 0.6450 0.6600
6.667000 0.6740 0.6880 0.6930 0.6930 0.6690
6.701030 0.6470 0.6260 0.6040 0.5870 0.5720
6.735000 0.5410 0.4510 0.3730 0.3270 0.2980
6.769030 0.2790 0.2620 0.2470 0.2400 0.2110
6.803000 0.1870 0.1560 0.1240 0.1100 0.1020
6.837030 0.1020 0.1090 0.1270 0.1490 0.1600
6.871000 0.1630 0.1700 0.1720 0.1730 0.1820
6.905030 0.2160 0.2910 0.3590 0.4190 0.4820
6.939000 0.5280 0.5580 0.5920 0.6250 0.6470
6.973030 0.6670 0.6810 0.6830 0.6840 0.6880
7.007000 0.6890 0.6880 0.6760 0.6520 0.6200
7.041030 0.5770 0.5210 0.4770 0.4340 0.3910
7.075000 0.3540 0.3370 0.3210 0.3150 0.3150
7.109030 0.3300 0.3490 0.3900 0.4460 0.5040
7.143000 0.5240 0.5240 0.5110 0.4590 0.4200
7.177030 0.3420 0.2120 0.2120 0.2350 0.2940
7.211000 0.3210 0.3450 0.3610 0.3710 0.3740
7.245030 0.3760 0.3780 0.3860 0.4100 0.4480
7.279000 0.4820 0.5170 0.5530 0.5770 0.6160
7.313030 0.6600 0.6880 0.7000 0.7050 0.7080
7.347000 0.7130 0.7180 0.7180 0.6930 0.6250
7.381030 0.5600 0.5050 0.4540 0.3420 0.3250
7.415000 0.3250 0.4220 0.5000 0.5620 0.6060
7.449030 0.6330 0.6450 0.6450 0.6300 0.6320
7.483000 0.6370 0.6520 0.6620 0.6640 0.6690
7.517030 0.6710 0.6780 0.6810 0.6790 0.6720
7.551000 0.6690 0.6620 0.6550 0.6450 0.6180
7.585030 0.5870 0.5280 0.4460 0.3790 0.3030
7.619000 0.2550 0.1820 0.1220 0.0980 0.0910
7.653030 0.0900 0.0850 0.0800 0.0730 0.0630
7.687000 0.0610 0.0630 0.0710 0.0760 0.0800
7.721030 0.0810 0.0900 0.1000 0.1140 0.1290
7.755000 0.1340 0.1360 0.1360 0.1390 0.1460
7.789030 0.1510 0.1770 0.2060 0.2410 0.2770
7.823000 0.3150 0.3470 0.3760 0.4120 0.4540
7.857030 0.4950 0.5330 0.5570 0.5860 0.5990
7.891000 0.6010 0.6060 0.6090 0.6110 0.6080
7.925030 0.5960 0.5750 0.5570 0.5480 0.5340
7.959000 0.5070 0.4710 0.4420 0.4270 0.4150
7.993030 0.3900 0.3620 0.3280 0.2940 0.2570
8.027000 0.2160 0.1750 0.1560 0.1440 0.1360
8.061030 0.1290 0.1200 0.1100 0.1030 0.0970
8.095000 0.0730 0.0710 0.0730 0.0740 0.0900
8.129030 0.1190 0.1580 0.1870 0.2060 0.2240
8.163000 0.2480 0.2690 0.2960 0.3210 0.3470
8.197030 0.3950 0.4510 0.4870 0.5120 0.5310
8.231000 0.5530 0.5820 0.6040 0.6260 0.6400
8.265030 0.6540 0.6710 0.6880 0.6980 0.7060
8.299000 0.7180 0.7290 0.7320 0.7350 0.7390
8.333030 0.7410 0.7510 0.7540 0.7610 0.7640
8.367000 0.7680 0.7680 0.7660 0.7660 0.7630
8.401030 0.7560 0.7470 0.7390 0.7320 0.7290
8.435000 0.7240 0.7220 0.7200 0.7180 0.7060
8.469030 0.6720 0.6060 0.5400 0.4660 0.4000
8.503000 0.3850 0.3850 0.4190 0.4900 0.5510
8.537030 0.6110 0.6550 0.6810 0.6860 0.6830
8.571000 0.6550 0.6030 0.5410 0.4950 0.3420
8.605030 0.2070 0.1410 0.1360 0.1360 0.1510
8.639000 0.1950 0.2020 0.2040 0.2010 0.1870
8.673030 0.1870 0.1990 0.2360 0.2960 0.3200
8.707000 0.4410 0.5000 0.5650 0.6180 0.6620
8.741030 0.7000 0.7300 0.7540 0.7710 0.7830
8.776000 0.7920 0.8020 0.8050 0.8070 0.8070
8.810030 0.8020 0.8020 0.8050 0.8070 0.8070
8.844000 0.8070 0.8050 0.8040 0.8040 0.8020
8.878030 0.8000 0.8000 0.7980 0.7980 0.7980
8.912000 0.7980 0.7980 0.7980 0.7980 0.7980
8.946030 0.8000 0.8000 0.8000 0.8000 0.7900
8.980000 0.7760 0.7590 0.7250 0.6910 0.6280
9.014030 0.5480 0.4700 0.3980 0.3100 0.2290
9.048000 0.2010 0.2010 0.2290 0.2980 0.3740
9.082030 0.4580 0.5330 0.6130 0.6590 0.6980
9.116000 0.7250 0.7440 0.7580 0.7710 0.7800
9.150030 0.7900 0.7980 0.8020 0.8070 0.8100
9.184000 0.8140 0.8160 0.8160 0.8140 0.8120
9.218030 0.8100 0.8120 0.8090 0.8000 0.7970
9.252000 0.7900 0.7800 0.7610 0.7350 0.7010
9.286030 0.6490 0.5990 0.5310 0.4610 0.4100
9.320000 0.3830 0.3830 0.3910 0.4170 0.4540
9.354030 0.5020 0.5330 0.5600 0.5800 0.5970
9.388000 0.5970 0.5860 0.5700 0.5400 0.4900
9.422030 0.4870 0.4870 0.4950 0.5160 0.5380
9.456000 0.5670 0.5960 0.6250 0.6550 0.6830
9.490030 0.7080 0.7320 0.7520 0.7680 0.7780
9.524000 0.7830 0.7880 0.7970 0.8000 0.8090
9.558030 0.8090 0.8120 0.8170 0.8170 0.8140
9.592000 0.8120 0.8100 0.8020 0.7880 0.7800
9.626030 0.7640 0.7470 0.7290 0.6950 0.6550
9.660000 0.5990 0.5450 0.4530 0.3900 0.2820
9.694030 0.2400 0.1990 0.1940 0.1990 0.2470
9.728000 0.2990 0.3560 0.4100 0.4770 0.5360
9.762030 0.5890 0.6330 0.6690 0.6950 0.7150
9.796000 0.7300 0.7410 0.7510 0.7580 0.7590
9.830030 0.7580 0.7440 0.7200 0.6960 0.6740
9.864000 0.6620 0.6590 0.6550 0.6570 0.6710
9.898030 0.6880 0.7100 0.7290 0.7540 0.7750
9.932000 0.7880 0.8000 0.8090 0.8160 0.8210
9.966030 0.8220 0.8270 0.8330 0.8440 0.8480
10.000000 0.8500 0.8530 0.8600 0.8630 0.8670
10.034030 0.8680 0.8680 0.8680 0.8700 0.8680
10.068000 0.8630 0.8630 0.8680 0.8680 0.8680
10.102030 0.8680 0.8650 0.8650 0.8630 0.8620
10.136000 0.8600 0.8530 0.8430 0.8340 0.8240
10.170030 0.8090 0.7950 0.7750 0.7540 0.7350
10.204000 0.7130 0.6930 0.6740 0.6740 0.6760
10.238030 0.6790 0.6880 0.7010 0.7130 0.7180
10.272000 0.7240 0.7300 0.7410 0.7510 0.7660
10.306030 0.7750 0.7780 0.7800 0.7800 0.7870
10.340000 0.7880 0.7870 0.7710 0.7490 0.7270
10.374030 0.6980 0.6590 0.6180 0.5740 0.5290
10.408000 0.5000 0.4700 0.4700 0.4780 0.4950
10.442030 0.5340 0.5750 0.6140 0.6520 0.6810
10.476000 0.7050 0.7340 0.7410 0.7470 0.7520
10.510030 0.7580 0.7610 0.7630 0.7700 0.7780
10.544000 0.7870 0.7900 0.8000 0.8050 0.8090
10.578030 0.8170 0.8220 0.8240 0.8310 0.8380
10.612000 0.8430 0.8480 0.8500 0.8530 0.8580
10.646030 0.8630 0.8670 0.8680 0.8680 0.8700
10.680000 0.8700 0.8700 0.8720 0.8750 0.8770
10.714030 0.8750 0.8730 0.8720 0.8730 0.8750
10.748000 0.8770 0.8790 0.8800 0.8800 0.8800
10.782030 0.8820 0.8820 0.8820 0.8820 0.8800
10.816000 0.8800 0.8800 0.8800 0.8800 0.8800
10.850030 0.8800 0.8790 0.8790 0.8770 0.8720
10.884000 0.8700 0.8680 0.8680 0.8680 0.8700
10.918030 0.8730 0.8730 0.8720 0.8720 0.8720
10.952000 0.8720 0.8730 0.8720 0.8680 0.8680
10.986030 0.8680 0.8680 0.8680 0.8680 0.8650
11.020000 0.8620 0.8600 0.8600 0.8600 0.8600
11.054030 0.8600 0.8620 0.8630 0.8650 0.8670
11.088000 0.8700 0.8700 0.8680 0.8630 0.8580
11.122030 0.8530 0.8500 0.8430 0.8340 0.8270
11.156000 0.8210 0.8190 0.8160 0.8140 0.8120
11.190030 0.8040 0.8020 0.7880 0.7700 0.7630
11.224000 0.7510 0.7410 0.7300 0.7180 0.7120
11.258030 0.7100 0.7120 0.7120 0.7130 0.7170
11.293000 0.7170 0.7180 0.7240 0.7300 0.7390
11.327030 0.7470 0.7540 0.7590 0.7680 0.7760
11.361000 0.7780 0.7800 0.7800 0.7800 0.7810
11.395030 0.7810 0.7810 0.7760 0.7680 0.7520
11.429000 0.7340 0.7080 0.6660 0.6350 0.5860
11.463030 0.5360 0.4830 0.4340 0.3810 0.3440
11.497000 0.3080 0.2890 0.2720 0.2600 0.2480
11.531030 0.2410 0.2380 0.2380 0.2350 0.2290
11.565000 0.2280 0.2240 0.2240 0.2240 0.2260
11.599030 0.2310 0.2380 0.2450 0.2550 0.2620
11.633000 0.2690 0.2700 0.2720 0.2720 0.2720
11.667030 0.2700 0.2670 0.2700 0.2740 0.2770
11.701000 0.2790 0.2810 0.2820 0.2820 0.2790
11.735030 0.2720 0.2640 0.2520 0.2470 0.2360
11.769000 0.2240 0.2060 0.1900 0.1750 0.1610
11.803030 0.1580 0.1580 0.1610 0.1750 0.1900
11.837000 0.2090 0.2400 0.2750 0.3040 0.3280
11.871030 0.3540 0.3730 0.3880 0.3980 0.4050
11.905000 0.4080 0.4070 0.4020 0.3950 0.3760
11.939030 0.3500 0.3250 0.3030 0.2750 0.2500
11.973000 0.2240 0.2010 0.1750 0.1460 0.1220
12.007030 0.1020 0.0900 0.0900 0.0910 0.1020
12.041000 0.1200 0.1390 0.1610 0.1950 0.2260
12.075030 0.2570 0.2940 0.3110 0.3210 0.3280
12.109000 0.3350 0.3390 0.3400 0.3490 0.3500
12.143030 0.3620 0.3810 0.4050 0.4440 0.4850
12.177000 0.5110 0.5430 0.5650 0.5800 0.6140
12.211030 0.6430 0.6490 0.6540 0.6690 0.6780
12.245000 0.6880 0.6960 0.6980 0.7080 0.7170
12.279030 0.7290 0.7340 0.7390 0.7470 0.7490
12.313000 0.7510 0.7520 0.7510 0.7470 0.7340
12.347030 0.7200 0.7000 0.6810 0.6590 0.6430
12.381000 0.5970 0.5750 0.5530 0.5190 0.4940
12.415030 0.4730 0.4710 0.4710 0.4900 0.5210
12.449000 0.5480 0.5840 0.6140 0.6470 0.6740
12.483030 0.7000 0.7180 0.7350 0.7610 0.7800
12.517000 0.7950 0.8090 0.8190 0.8310 0.8430
12.551030 0.8550 0.8630 0.8700 0.8790 0.8870
12.585000 0.8940 0.9010 0.9060 0.9090 0.9110
12.619030 0.9130 0.9130 0.9160 0.9190 0.9210
12.653000 0.9230 0.9250 0.9250 0.9250 0.9250
12.687030 0.9230 0.9230 0.9230 0.9260 0.9280
12.721000 0.9280 0.9280 0.9280 0.9260 0.9250
12.755030 0.9210 0.9190 0.9190 0.9190 0.9190
12.789000 0.9210 0.9190 0.9190 0.9180 0.9090
12.823030 0.9080 0.9060 0.9020 0.8990 0.8960
12.857000 0.8890 0.8800 0.8680 0.8510 0.8380
12.891030 0.8190 0.7850 0.7540 0.7220 0.6790
12.925000 0.6370 0.5940 0.5550 0.5170 0.4800
12.959030 0.4410 0.3980 0.3540 0.3040 0.2650
12.993000 0.2330 0.2140 0.1780 0.1390 0.1120
13.027030 0.0950 0.0810 0.0800 0.0810 0.0910
13.061000 0.1050 0.1340 0.1650 0.1900 0.2360
13.095030 0.2910 0.3450 0.3960 0.4480 0.4940
13.129000 0.5380 0.5750 0.6090 0.6350 0.6520
13.163030 0.6690 0.6810 0.6980 0.7010 0.7120
13.197000 0.7220 0.7370 0.7560 0.7730 0.7810
13.231030 0.7950 0.8120 0.8290 0.8380 0.8430
13.265000 0.8500 0.8530 0.8560 0.8630 0.8700
13.299030 0.8770 0.8790 0.8840 0.8890 0.8940
13.333000 0.8990 0.8990 0.8990 0.8970 0.8970
13.367030 0.9010 0.9110 0.9160 0.9160 0.9090
13.401000 0.9090 0.9110 0.9130 0.9140 0.9130
13.435030 0.9110 0.9090 0.9090 0.9090 0.9090
13.469000 0.9140 0.9180 0.9190 0.9210 0.9190
13.503030 0.9180 0.9160 0.9160 0.9160 0.9160
13.537000 0.9160 0.9160 0.9160 0.9180 0.9180
13.571030 0.9180 0.9180 0.9190 0.9210 0.9230
13.605000 0.9230 0.9190 0.9190 0.9180 0.9180
13.639030 0.9180 0.9160 0.9140 0.9130 0.9130
13.673000 0.9110 0.9110 0.9110 0.9130 0.9140
13.707030 0.9140 0.9130 0.9130 0.9130 0.9110
13.741000 0.9110 0.9110 0.9130 0.9160 0.9180
13.775030 0.9180 0.9160 0.9160 0.9140 0.9140
13.810000 0.9180 0.9180 0.9160 0.9160 0.9160
13.844030 0.9180 0.9180 0.9180 0.9180 0.9160
13.878000 0.9110 0.9110 0.9110 0.9110 0.9110
13.912030 0.9130 0.9160 0.9190 0.9210 0.9230
13.946000 0.9230 0.9230 0.9250 0.9280 0.9310
13.980030 0.9350 0.9360 0.9380 0.9400 0.9400
14.014000 0.9430 0.9470 0.9480 0.9480 0.9470
14.048030 0.9450 0.9450 0.9430 0.9480 0.9480
14.082000 0.9470 0.9430 0.9470 0.9470 0.9470
14.116030 0.9470 0.9430 0.9420 0.9400 0.9400
14.150000 0.9400 0.9380 0.9310 0.9300 0.9280
14.184030 0.9250 0.9210 0.9210 0.9160 0.9010
14.218000 0.8850 0.8800 0.8700 0.8630 0.8500
14.252030 0.8330 0.8050 0.7930 0.7700 0.7540
14.286000 0.7410 0.7130 0.6880 0.6690 0.6590
14.320030 0.6490 0.6400 0.6320 0.6300 0.6280
14.354000 0.6320 0.6380 0.6470 0.6570 0.6710
14.388030 0.6840 0.6950 0.7220 0.7440 0.7640
14.422000 0.7800 0.7930 0.8040 0.8140 0.8260
14.456030 0.8380 0.8460 0.8530 0.8630 0.8720
14.490000 0.8800 0.8890 0.8920 0.8970 0.8990
14.524030 0.9020 0.9080 0.9080 0.9090 0.9090
14.558000 0.9090 0.9090 0.9110 0.9110 0.9110
14.592030 0.9110 0.9090 0.9090 0.9090 0.9110
14.626000 0.9110 0.9130 0.9130 0.9140 0.9160
14.660030 0.9160 0.9180 0.9180 0.9180 0.9160
14.694000 0.9130 0.9110 0.9110 0.9110 0.9110
14.728030 0.9090 0.9080 0.9080 0.9090 0.9090
14.762000 0.9060 0.9040 0.9060 0.9080 0.9080
14.796030 0.9080 0.9080 0.9080 0.9020 0.8990
14.830000 0.9010 0.9010 0.9010 0.8990 0.8970
14.864030 0.8940 0.8960 0.8970 0.8960 0.8920
14.898000 0.8900 0.8870 0.8850 0.8850 0.8850
14.932030 0.8870 0.8870 0.8820 0.8820 0.8800
14.966000 0.8800 0.8790 0.8770 0.8700 0.8580
15.000030 0.8460 0.8380 0.8260 0.8140 0.8020
15.034000 0.7980 0.7850 0.7780 0.7760 0.7710
15.068030 0.7680 0.7660 0.7640 0.7660 0.7700
15.102000 0.7730 0.7750 0.7800 0.7880 0.7970
15.136030 0.8000 0.8090 0.8120 0.8170 0.8170
15.170000 0.8190 0.8210 0.8240 0.8270 0.8290
15.204030 0.8330 0.8340 0.8360 0.8360 0.8340
15.238000 0.8330 0.8310 0.8310 0.8290 0.8270
15.272030 0.8240 0.8210 0.8190 0.8140 0.8140
15.306000 0.8120 0.8120 0.8090 0.8070 0.8070
15.340030 0.8050 0.8050 0.8040 0.8020 0.8000
15.374000 0.7980 0.7980 0.7980 0.7980 0.7970
15.408030 0.7970 0.7930 0.7920 0.7900 0.7870
15.442000 0.7830 0.7800 0.7760 0.7730 0.7730
15.476030 0.7730 0.7710 0.7700 0.7700 0.7680
15.510000 0.7680 0.7680 0.7660 0.7640 0.7630
15.544030 0.7590 0.7580 0.7580 0.7560 0.7510
15.578000 0.7490 0.7470 0.7390 0.7350 0.7250
15.612030 0.7170 0.7100 0.7030 0.6980 0.6950
15.646000 0.6810 0.6690 0.6600 0.6520 0.6450
15.680030 0.6380 0.6280 0.6200 0.6160 0.6140
15.714000 0.6130 0.6090 0.6080 0.6060 0.6060
15.748030 0.6080 0.6090 0.6110 0.6140 0.6160
15.782000 0.6180 0.6200 0.6230 0.6260 0.6400
15.816030 0.6470 0.6500 0.6540 0.6570 0.6570
15.850000 0.6570 0.6570 0.6570 0.6590 0.6590
15.884030 0.6600 0.6620 0.6620 0.6620 0.6620
15.918000 0.6600 0.6590 0.6590 0.6590 0.6570
15.952030 0.6570 0.6540 0.6540 0.6500 0.6490
15.986000 0.6470 0.6450 0.6430
##END=
