##TITLE=LITHOPONE
##JCAMP-DX=4.24
##DATA TYPE=INFRARED SPECTRUM
##CLASS=COBLENTZ
##ORIGIN=DESOTO CHEMICAL COATINGS, INC.
##OWNER=COBLENTZ SOCIETY
Collection (C) 2018 copyright by the U.S. Secretary of Commerce
on behalf of the United States of America. All rights reserved.
##DATE=Not specified, most likely prior to 1970
##MOLFORM=Zn S  * Ba S O4
$$ ZnS 30%, BaSO4 70%
##SOURCE REFERENCE=COBLENTZ NO. 4655
##$NIST ID=B6004655
##$NIST SOURCE=COBLENTZ
##$NIST IMAGE=cob4655
##SPECTROMETER/DATA SYSTEM=Not specified, most likely a grating spectrometer.
##STATE=SOLID (0.3 mg / 300 mg CsI PELLET)
##SAMPLING PROCEDURE=TRANSMISSION
##RESOLUTION=4
##DATA PROCESSING=DIGITIZED BY NIST FROM HARD COPY (FROM TWO SEGMENTS)
##XUNITS=1/CM
##YUNITS=TRANSMITTANCE
##XFACTOR=1.000000
##YFACTOR=1
##DELTAX=1.329397
##FIRSTX=200
##LASTX=3986.12
##FIRSTY=0.733
##MAXX=3986.12
##MINX=200
##MAXY=0.991
##MINY=0.189
##NPOINTS=2849
##XYDATA=(X++(Y..Y))
200.000000 0.7330 0.7320 0.7320 0.7330 0.7320
206.646985 0.7320 0.7320 0.7320 0.7330 0.7330
213.293970 0.7370 0.7370 0.7390 0.7480 0.7500
219.940955 0.7580 0.7660 0.7750 0.7820 0.7870
226.587940 0.7960 0.7990 0.8000 0.8080 0.8100
233.234924 0.8180 0.8389 0.8470 0.8579 0.8709
239.881909 0.8810 0.8850 0.8940 0.8990 0.9050
246.528894 0.9090 0.9090 0.9100 0.9100 0.9110
253.175879 0.9130 0.9140 0.9150 0.9150 0.9150
259.822864 0.9150 0.9170 0.9180 0.9180 0.9180
266.469849 0.9180 0.9190 0.9190 0.9190 0.9180
273.116834 0.9180 0.9170 0.9130 0.9110 0.9100
279.763819 0.9070 0.9030 0.9020 0.8990 0.8980
286.410804 0.8980 0.8940 0.8890 0.8820 0.8750
293.057788 0.8540 0.8300 0.7911 0.7780 0.7660
299.704773 0.7560 0.7411 0.7311 0.7250 0.7190
306.351758 0.7170 0.7110 0.7070 0.6990 0.6890
312.998743 0.6790 0.6720 0.6680 0.6610 0.6550
319.645728 0.6490 0.6470 0.6450 0.6440 0.6440
326.292713 0.6450 0.6480 0.6570 0.6689 0.6770
332.939698 0.7040 0.7290 0.7510 0.7720 0.7880
339.586683 0.7950 0.8000 0.8060 0.8319 0.8439
346.233668 0.8500 0.8520 0.8540 0.8590 0.8640
352.880652 0.8680 0.8720 0.8750 0.8750 0.8780
359.527637 0.8810 0.8820 0.8820 0.8890 0.8900
366.174622 0.8910 0.8910 0.8910 0.8900 0.8900
372.821607 0.8890 0.8890 0.8890 0.8900 0.8900
379.468592 0.8910 0.8910 0.8930 0.8950 0.8950
386.115577 0.8950 0.8970 0.8970 0.8980 0.8980
392.762562 0.8980 0.8980 0.8980 0.8980 0.8980
399.409547 0.8980 0.8980 0.8990 0.8990 0.8990
406.056532 0.8990 0.8990 0.8990 0.8990 0.8990
412.703516 0.8990 0.8990 0.8990 0.8990 0.8990
419.350501 0.8990 0.8990 0.8990 0.9010 0.9020
425.997486 0.9050 0.9070 0.9070 0.9090 0.9100
432.644471 0.9100 0.9100 0.9100 0.9110 0.9130
439.291456 0.9130 0.9130 0.9140 0.9180 0.9180
445.938441 0.9180 0.9190 0.9210 0.9220 0.9220
452.585426 0.9220 0.9230 0.9250 0.9250 0.9250
459.232411 0.9250 0.9260 0.9260 0.9260 0.9270
465.879396 0.9290 0.9330 0.9350 0.9380 0.9380
472.526380 0.9380 0.9390 0.9390 0.9410 0.9410
479.173365 0.9420 0.9430 0.9430 0.9420 0.9420
485.820350 0.9420 0.9430 0.9450 0.9460 0.9470
492.467335 0.9470 0.9490 0.9500 0.9500 0.9510
499.114320 0.9510 0.9530 0.9540 0.9540 0.9570
505.761305 0.9570 0.9580 0.9580 0.9580 0.9590
512.408290 0.9610 0.9610 0.9610 0.9610 0.9610
519.055275 0.9610 0.9610 0.9610 0.9610 0.9610
525.702260 0.9610 0.9620 0.9620 0.9630 0.9630
532.349244 0.9630 0.9630 0.9630 0.9630 0.9630
538.996229 0.9650 0.9650 0.9650 0.9650 0.9650
545.643214 0.9650 0.9660 0.9660 0.9660 0.9670
552.290199 0.9670 0.9660 0.9660 0.9660 0.9660
558.937184 0.9660 0.9660 0.9660 0.9660 0.9660
565.584169 0.9670 0.9670 0.9690 0.9690 0.9690
572.231154 0.9700 0.9710 0.9710 0.9710 0.9710
578.878139 0.9710 0.9710 0.9710 0.9700 0.9700
585.525124 0.9700 0.9700 0.9700 0.9690 0.9690
592.172108 0.9690 0.9650 0.9650 0.9630 0.9620
598.819093 0.9590 0.9550 0.9460 0.9330 0.9031
605.466078 0.8541 0.7544 0.7002 0.5985 0.5463
612.113063 0.5290 0.5290 0.5570 0.6019 0.6469
618.760048 0.7028 0.7429 0.7798 0.7979 0.8149
625.407033 0.8360 0.8470 0.8550 0.8620 0.8630
632.054018 0.8630 0.8540 0.7684 0.7352 0.7092
638.701003 0.6970 0.6910 0.6910 0.7170 0.7549
645.347988 0.7779 0.7910 0.8039 0.8259 0.8518
651.994972 0.8770 0.8990 0.9050 0.9090 0.9110
658.641957 0.9180 0.9190 0.9220 0.9270 0.9330
665.288942 0.9410 0.9470 0.9500 0.9540 0.9550
671.935927 0.9570 0.9580 0.9630 0.9660 0.9670
678.582912 0.9690 0.9700 0.9700 0.9710 0.9710
685.229897 0.9700 0.9700 0.9700 0.9700 0.9710
691.876882 0.9710 0.9740 0.9750 0.9750 0.9750
698.523867 0.9770 0.9780 0.9780 0.9790 0.9790
705.170852 0.9790 0.9790 0.9780 0.9780 0.9770
711.817836 0.9770 0.9770 0.9770 0.9770 0.9770
718.464821 0.9770 0.9770 0.9780 0.9780 0.9790
725.111806 0.9790 0.9790 0.9790 0.9790 0.9790
731.758791 0.9790 0.9790 0.9790 0.9810 0.9810
738.405776 0.9810 0.9810 0.9820 0.9820 0.9810
745.052761 0.9810 0.9810 0.9820 0.9820 0.9810
751.699746 0.9820 0.9820 0.9820 0.9820 0.9820
758.346731 0.9820 0.9820 0.9820 0.9820 0.9820
764.993716 0.9820 0.9820 0.9820 0.9820 0.9820
771.640700 0.9820 0.9820 0.9820 0.9820 0.9820
778.287685 0.9820 0.9820 0.9820 0.9820 0.9810
784.934670 0.9810 0.9810 0.9820 0.9820 0.9820
791.581655 0.9830 0.9830 0.9830 0.9830 0.9830
798.228640 0.9830 0.9820 0.9820 0.9820 0.9820
804.875625 0.9830 0.9830 0.9830 0.9850 0.9860
811.522610 0.9860 0.9890 0.9890 0.9890 0.9890
818.169595 0.9890 0.9870 0.9860 0.9860 0.9860
824.816580 0.9860 0.9870 0.9870 0.9890 0.9890
831.463564 0.9890 0.9900 0.9910 0.9910 0.9900
838.110549 0.9890 0.9890 0.9890 0.9890 0.9870
844.757534 0.9860 0.9860 0.9860 0.9870 0.9890
851.404519 0.9900 0.9900 0.9900 0.9900 0.9910
858.051504 0.9910 0.9910 0.9910 0.9910 0.9910
864.698489 0.9910 0.9910 0.9910 0.9900 0.9900
871.345474 0.9900 0.9900 0.9900 0.9900 0.9900
877.992459 0.9900 0.9900 0.9890 0.9890 0.9890
884.639443 0.9870 0.9870 0.9870 0.9870 0.9860
891.286428 0.9850 0.9850 0.9850 0.9830 0.9830
897.933413 0.9830 0.9830 0.9850 0.9850 0.9850
904.580398 0.9850 0.9830 0.9830 0.9830 0.9830
911.227383 0.9830 0.9830 0.9830 0.9820 0.9820
917.874368 0.9820 0.9820 0.9820 0.9820 0.9820
924.521353 0.9820 0.9820 0.9820 0.9820 0.9820
931.168338 0.9820 0.9820 0.9810 0.9790 0.9780
937.815323 0.9770 0.9770 0.9750 0.9750 0.9750
944.462307 0.9770 0.9780 0.9780 0.9780 0.9780
951.109292 0.9780 0.9770 0.9770 0.9750 0.9750
957.756277 0.9770 0.9780 0.9780 0.9770 0.9750
964.403262 0.9740 0.9740 0.9740 0.9740 0.9730
971.050247 0.9730 0.9730 0.9730 0.9710 0.9710
977.697232 0.9710 0.9700 0.9670 0.9660 0.9630
984.344217 0.9129 0.8550 0.8390 0.8390 0.8969
990.991202 0.9259 0.9419 0.9510 0.9550 0.9590
997.638187 0.9590 0.9610 0.9610 0.9620 0.9620
1004.285171 0.9610 0.9610 0.9610 0.9590 0.9590
1010.932156 0.9580 0.9580 0.9570 0.9550 0.9540
1017.579141 0.9540 0.9530 0.9510 0.9510 0.9500
1024.226126 0.9490 0.9470 0.9470 0.9460 0.9450
1030.873111 0.9430 0.9410 0.9410 0.9390 0.9380
1037.520096 0.9340 0.9330 0.9300 0.9290 0.9260
1044.167081 0.9230 0.9190 0.9140 0.9100 0.9020
1050.814066 0.9010 0.8970 0.8890 0.8620 0.8460
1057.461051 0.8350 0.7961 0.7601 0.7331 0.7002
1064.108035 0.6629 0.5780 0.5340 0.4910 0.4501
1070.755020 0.3482 0.2922 0.2721 0.2481 0.2271
1077.402005 0.2110 0.1910 0.1890 0.1910 0.1960
1084.048990 0.2010 0.2120 0.2479 0.2838 0.3119
1090.695975 0.3860 0.4130 0.4390 0.4630 0.4810
1097.342960 0.5000 0.5050 0.5120 0.5120 0.5090
1103.989945 0.4900 0.4750 0.4550 0.4340 0.3911
1110.636930 0.3591 0.3191 0.2991 0.2871 0.2681
1117.283915 0.2550 0.2430 0.2400 0.2410 0.2520
1123.930899 0.2660 0.3188 0.3638 0.3859 0.4069
1130.577884 0.4611 0.5060 0.5460 0.5770 0.5900
1137.224869 0.6020 0.6199 0.6409 0.6549 0.6769
1143.871854 0.6960 0.7040 0.7150 0.7210 0.7250
1150.518839 0.7290 0.7350 0.7390 0.7400 0.7390
1157.165824 0.7360 0.7320 0.7290 0.7230 0.6970
1163.812809 0.6721 0.6351 0.5961 0.5741 0.5461
1170.459794 0.5259 0.4850 0.4540 0.4370 0.4180
1177.106779 0.3811 0.3631 0.3560 0.3391 0.3281
1183.753763 0.3270 0.3280 0.3350 0.3510 0.3600
1190.400748 0.3869 0.4229 0.4589 0.4749 0.5048
1197.047733 0.5360 0.5570 0.5850 0.6010 0.6160
1203.694718 0.6439 0.6719 0.6929 0.7069 0.7279
1210.341703 0.7450 0.7580 0.7700 0.7830 0.7950
1216.988688 0.7990 0.8020 0.8110 0.8219 0.8280
1223.635673 0.8310 0.8390 0.8440 0.8480 0.8500
1230.282658 0.8550 0.8620 0.8720 0.8810 0.8870
1236.929643 0.8930 0.8990 0.9030 0.9090 0.9110
1243.576627 0.9130 0.9190 0.9210 0.9220 0.9230
1250.223612 0.9290 0.9300 0.9310 0.9340 0.9370
1256.870597 0.9370 0.9380 0.9390 0.9390 0.9410
1263.517582 0.9410 0.9420 0.9430 0.9430 0.9430
1270.164567 0.9450 0.9450 0.9460 0.9470 0.9490
1276.811552 0.9500 0.9510 0.9510 0.9530 0.9540
1283.458537 0.9550 0.9550 0.9550 0.9550 0.9550
1290.105522 0.9550 0.9550 0.9550 0.9580 0.9590
1296.752507 0.9590 0.9590 0.9590 0.9590 0.9590
1303.399491 0.9580 0.9580 0.9590 0.9590 0.9610
1310.046476 0.9610 0.9610 0.9610 0.9620 0.9620
1316.693461 0.9610 0.9610 0.9590 0.9590 0.9590
1323.340446 0.9620 0.9650 0.9650 0.9630 0.9630
1329.987431 0.9620 0.9620 0.9620 0.9610 0.9610
1336.634416 0.9610 0.9610 0.9620 0.9610 0.9590
1343.281401 0.9610 0.9620 0.9620 0.9620 0.9620
1349.928386 0.9610 0.9610 0.9610 0.9610 0.9620
1356.575371 0.9610 0.9610 0.9610 0.9610 0.9590
1363.222355 0.9590 0.9610 0.9610 0.9610 0.9610
1369.869340 0.9610 0.9610 0.9610 0.9610 0.9610
1376.516325 0.9610 0.9610 0.9610 0.9610 0.9610
1383.163310 0.9610 0.9620 0.9610 0.9610 0.9610
1389.810295 0.9610 0.9610 0.9620 0.9620 0.9630
1396.457280 0.9630 0.9630 0.9630 0.9630 0.9630
1403.104265 0.9630 0.9620 0.9610 0.9590 0.9590
1409.751250 0.9590 0.9590 0.9590 0.9590 0.9610
1416.398235 0.9610 0.9610 0.9590 0.9590 0.9580
1423.045219 0.9590 0.9590 0.9610 0.9610 0.9620
1429.692204 0.9620 0.9590 0.9590 0.9590 0.9590
1436.339189 0.9580 0.9580 0.9580 0.9580 0.9580
1442.986174 0.9610 0.9610 0.9590 0.9590 0.9610
1449.633159 0.9610 0.9610 0.9610 0.9610 0.9610
1456.280144 0.9610 0.9610 0.9610 0.9610 0.9610
1462.927129 0.9590 0.9590 0.9590 0.9590 0.9610
1469.574114 0.9590 0.9590 0.9580 0.9580 0.9610
1476.221099 0.9610 0.9610 0.9610 0.9610 0.9620
1482.868083 0.9620 0.9620 0.9620 0.9620 0.9620
1489.515068 0.9620 0.9610 0.9610 0.9610 0.9610
1496.162053 0.9610 0.9610 0.9610 0.9610 0.9610
1502.809038 0.9610 0.9610 0.9610 0.9610 0.9610
1509.456023 0.9610 0.9610 0.9610 0.9610 0.9610
1516.103008 0.9610 0.9610 0.9610 0.9610 0.9610
1522.749993 0.9610 0.9620 0.9610 0.9610 0.9610
1529.396978 0.9590 0.9590 0.9590 0.9590 0.9590
1536.043963 0.9590 0.9590 0.9590 0.9580 0.9580
1542.690947 0.9590 0.9610 0.9590 0.9590 0.9580
1549.337932 0.9570 0.9570 0.9570 0.9590 0.9590
1555.984917 0.9580 0.9570 0.9550 0.9550 0.9550
1562.631902 0.9540 0.9540 0.9550 0.9550 0.9550
1569.278887 0.9550 0.9550 0.9550 0.9540 0.9540
1575.925872 0.9540 0.9550 0.9550 0.9540 0.9510
1582.572857 0.9510 0.9500 0.9470 0.9490 0.9450
1589.219842 0.9450 0.9420 0.9410 0.9410 0.9390
1595.866827 0.9380 0.9350 0.9340 0.9330 0.9330
1602.513811 0.9310 0.9300 0.9290 0.9210 0.9190
1609.160796 0.9180 0.9170 0.9150 0.9130 0.9110
1615.807781 0.9110 0.9110 0.9100 0.9100 0.9100
1622.454766 0.9100 0.9100 0.9110 0.9110 0.9110
1629.101751 0.9130 0.9140 0.9150 0.9170 0.9190
1635.748736 0.9210 0.9220 0.9250 0.9260 0.9260
1642.395721 0.9260 0.9290 0.9300 0.9310 0.9310
1649.042706 0.9330 0.9330 0.9350 0.9350 0.9370
1655.689691 0.9370 0.9370 0.9380 0.9380 0.9380
1662.336675 0.9390 0.9390 0.9390 0.9390 0.9390
1668.983660 0.9410 0.9410 0.9410 0.9410 0.9430
1675.630645 0.9460 0.9460 0.9460 0.9470 0.9470
1682.277630 0.9470 0.9470 0.9490 0.9490 0.9490
1688.924615 0.9490 0.9490 0.9490 0.9490 0.9490
1695.571600 0.9490 0.9490 0.9490 0.9490 0.9490
1702.218585 0.9490 0.9490 0.9500 0.9500 0.9500
1708.865570 0.9500 0.9500 0.9500 0.9500 0.9500
1715.512555 0.9500 0.9500 0.9500 0.9500 0.9500
1722.159539 0.9500 0.9500 0.9500 0.9500 0.9500
1728.806524 0.9500 0.9500 0.9500 0.9500 0.9500
1735.453509 0.9500 0.9500 0.9510 0.9500 0.9500
1742.100494 0.9510 0.9510 0.9510 0.9530 0.9530
1748.747479 0.9530 0.9530 0.9530 0.9530 0.9530
1755.394464 0.9540 0.9540 0.9540 0.9540 0.9530
1762.041449 0.9530 0.9530 0.9530 0.9540 0.9540
1768.688434 0.9510 0.9510 0.9510 0.9530 0.9550
1775.335419 0.9550 0.9550 0.9550 0.9540 0.9540
1781.982403 0.9550 0.9570 0.9570 0.9570 0.9570
1788.629388 0.9550 0.9550 0.9550 0.9550 0.9550
1795.276373 0.9540 0.9540 0.9530 0.9530 0.9510
1801.923358 0.9510 0.9510 0.9530 0.9530 0.9540
1808.570343 0.9540 0.9550 0.9550 0.9570 0.9550
1815.217328 0.9550 0.9550 0.9530 0.9530 0.9530
1821.864313 0.9530 0.9530 0.9540 0.9540 0.9540
1828.511298 0.9550 0.9550 0.9550 0.9550 0.9550
1835.158283 0.9550 0.9540 0.9540 0.9540 0.9530
1841.805267 0.9530 0.9530 0.9530 0.9530 0.9530
1848.452252 0.9530 0.9530 0.9530 0.9530 0.9530
1855.099237 0.9530 0.9530 0.9530 0.9540 0.9540
1861.746222 0.9540 0.9550 0.9550 0.9550 0.9550
1868.393207 0.9510 0.9500 0.9490 0.9490 0.9490
1875.040192 0.9490 0.9500 0.9500 0.9510 0.9510
1881.687177 0.9500 0.9500 0.9500 0.9490 0.9490
1888.334162 0.9490 0.9490 0.9490 0.9470 0.9490
1894.981147 0.9490 0.9500 0.9500 0.9490 0.9490
1901.628131 0.9490 0.9490 0.9500 0.9500 0.9500
1908.275116 0.9500 0.9500 0.9500 0.9500 0.9500
1914.922101 0.9510 0.9510 0.9500 0.9500 0.9500
1921.569086 0.9500 0.9500 0.9500 0.9490 0.9490
1928.216071 0.9490 0.9490 0.9490 0.9490 0.9490
1934.863056 0.9490 0.9500 0.9500 0.9500 0.9490
1941.510041 0.9470 0.9470 0.9490 0.9500 0.9500
1948.157026 0.9500 0.9500 0.9490 0.9490 0.9500
1954.804011 0.9500 0.9490 0.9490 0.9490 0.9490
1961.450995 0.9490 0.9490 0.9470 0.9470 0.9490
1968.097980 0.9490 0.9490 0.9470 0.9470 0.9470
1974.744965 0.9470 0.9470 0.9470 0.9470 0.9470
1981.391950 0.9470 0.9470 0.9470 0.9470 0.9470
1988.038935 0.9470 0.9460 0.9460 0.9460 0.9460
1994.685920 0.9460 0.9460 0.9460 0.9470 0.9470
2001.332905 0.9480 0.9490 0.9490 0.9490 0.9490
2007.979890 0.9490 0.9495 0.9500 0.9505 0.9510
2014.626875 0.9520 0.9530 0.9535 0.9541 0.9561
2021.273859 0.9580 0.9580 0.9580 0.9585 0.9590
2027.920844 0.9590 0.9590 0.9590 0.9590 0.9585
2034.567829 0.9580 0.9575 0.9569 0.9559 0.9550
2041.214814 0.9550 0.9550 0.9550 0.9551 0.9561
2047.861799 0.9570 0.9570 0.9569 0.9559 0.9550
2054.508784 0.9550 0.9549 0.9544 0.9539 0.9534
2061.155769 0.9528 0.9518 0.9510 0.9510 0.9510
2067.802754 0.9510 0.9509 0.9504 0.9500 0.9500
2074.449739 0.9500 0.9500 0.9500 0.9500 0.9499
2081.096723 0.9494 0.9490 0.9490 0.9491 0.9496
2087.743708 0.9496 0.9481 0.9470 0.9470 0.9472
2094.390693 0.9483 0.9490 0.9490 0.9491 0.9496
2101.037678 0.9500 0.9500 0.9500 0.9500 0.9501
2107.684663 0.9507 0.9508 0.9503 0.9502 0.9507
2114.331648 0.9510 0.9510 0.9510 0.9510 0.9510
2120.978633 0.9510 0.9510 0.9510 0.9510 0.9510
2127.625618 0.9510 0.9510 0.9513 0.9524 0.9530
2134.272603 0.9530 0.9530 0.9530 0.9526 0.9516
2140.919587 0.9510 0.9510 0.9508 0.9503 0.9500
2147.566572 0.9500 0.9506 0.9521 0.9530 0.9530
2154.213557 0.9530 0.9530 0.9530 0.9530 0.9530
2160.860542 0.9530 0.9530 0.9530 0.9530 0.9530
2167.507527 0.9525 0.9515 0.9510 0.9510 0.9510
2174.154512 0.9510 0.9510 0.9510 0.9510 0.9510
2180.801497 0.9510 0.9510 0.9515 0.9525 0.9530
2187.448482 0.9530 0.9530 0.9530 0.9530 0.9530
2194.095466 0.9530 0.9530 0.9525 0.9515 0.9510
2200.742451 0.9510 0.9510 0.9510 0.9516 0.9526
2207.389436 0.9530 0.9530 0.9530 0.9530 0.9530
2214.036421 0.9530 0.9530 0.9530 0.9530 0.9530
2220.683406 0.9530 0.9530 0.9530 0.9530 0.9530
2227.330391 0.9530 0.9524 0.9514 0.9510 0.9510
2233.977376 0.9510 0.9510 0.9510 0.9510 0.9510
2240.624361 0.9510 0.9507 0.9502 0.9500 0.9500
2247.271346 0.9503 0.9508 0.9510 0.9510 0.9507
2253.918330 0.9502 0.9497 0.9492 0.9490 0.9490
2260.565315 0.9494 0.9499 0.9500 0.9500 0.9500
2267.212300 0.9500 0.9504 0.9509 0.9510 0.9510
2273.859285 0.9510 0.9510 0.9506 0.9501 0.9500
2280.506270 0.9500 0.9500 0.9500 0.9500 0.9500
2287.153255 0.9512 0.9527 0.9522 0.9512 0.9506
2293.800240 0.9501 0.9496 0.9491 0.9490 0.9490
2300.447225 0.9494 0.9499 0.9504 0.9509 0.9510
2307.094210 0.9510 0.9518 0.9528 0.9517 0.9502
2313.741194 0.9500 0.9500 0.9500 0.9500 0.9504
2320.388179 0.9509 0.9519 0.9529 0.9530 0.9530
2327.035164 0.9521 0.9511 0.9505 0.9500 0.9495
2333.682149 0.9490 0.9490 0.9490 0.9495 0.9500
2340.329134 0.9500 0.9500 0.9500 0.9500 0.9505
2346.976119 0.9510 0.9510 0.9510 0.9500 0.9490
2353.623104 0.9495 0.9500 0.9500 0.9500 0.9505
2360.270089 0.9510 0.9510 0.9510 0.9510 0.9510
2366.917074 0.9505 0.9500 0.9495 0.9490 0.9490
2373.564058 0.9490 0.9490 0.9490 0.9495 0.9500
2380.211043 0.9500 0.9500 0.9500 0.9500 0.9500
2386.858028 0.9500 0.9495 0.9490 0.9490 0.9490
2393.505013 0.9490 0.9490 0.9490 0.9490 0.9490
2400.151998 0.9490 0.9490 0.9490 0.9490 0.9490
2406.798983 0.9490 0.9490 0.9490 0.9490 0.9490
2413.445968 0.9490 0.9490 0.9490 0.9490 0.9490
2420.092953 0.9490 0.9488 0.9478 0.9470 0.9470
2426.739938 0.9470 0.9470 0.9470 0.9470 0.9470
2433.386922 0.9470 0.9470 0.9470 0.9470 0.9470
2440.033907 0.9470 0.9470 0.9470 0.9470 0.9470
2446.680892 0.9470 0.9470 0.9470 0.9470 0.9470
2453.327877 0.9470 0.9470 0.9470 0.9470 0.9470
2459.974862 0.9470 0.9470 0.9470 0.9469 0.9464
2466.621847 0.9459 0.9454 0.9450 0.9450 0.9450
2473.268832 0.9450 0.9450 0.9450 0.9447 0.9437
2479.915817 0.9428 0.9423 0.9420 0.9420 0.9420
2486.562802 0.9420 0.9420 0.9420 0.9422 0.9427
2493.209786 0.9430 0.9430 0.9430 0.9430 0.9434
2499.856771 0.9444 0.9450 0.9450 0.9450 0.9450
2506.503756 0.9450 0.9450 0.9450 0.9450 0.9450
2513.150741 0.9450 0.9446 0.9436 0.9430 0.9430
2519.797726 0.9430 0.9430 0.9430 0.9430 0.9428
2526.444711 0.9423 0.9420 0.9420 0.9418 0.9413
2533.091696 0.9410 0.9410 0.9410 0.9410 0.9410
2539.738681 0.9410 0.9405 0.9395 0.9390 0.9390
2546.385666 0.9395 0.9405 0.9410 0.9410 0.9410
2553.032650 0.9410 0.9410 0.9410 0.9410 0.9410
2559.679635 0.9410 0.9410 0.9410 0.9410 0.9410
2566.326620 0.9410 0.9410 0.9410 0.9410 0.9410
2572.973605 0.9410 0.9410 0.9413 0.9418 0.9420
2579.620590 0.9420 0.9423 0.9428 0.9427 0.9422
2586.267575 0.9420 0.9420 0.9420 0.9420 0.9420
2592.914560 0.9420 0.9423 0.9428 0.9430 0.9430
2599.561545 0.9427 0.9422 0.9420 0.9420 0.9420
2606.208530 0.9420 0.9420 0.9420 0.9417 0.9412
2612.855514 0.9410 0.9410 0.9410 0.9410 0.9410
2619.502499 0.9410 0.9410 0.9410 0.9403 0.9393
2626.149484 0.9390 0.9390 0.9390 0.9390 0.9390
2632.796469 0.9390 0.9390 0.9390 0.9390 0.9390
2639.443454 0.9390 0.9390 0.9390 0.9390 0.9390
2646.090439 0.9390 0.9390 0.9390 0.9398 0.9408
2652.737424 0.9410 0.9410 0.9410 0.9410 0.9410
2659.384409 0.9410 0.9410 0.9410 0.9410 0.9410
2666.031394 0.9402 0.9391 0.9390 0.9390 0.9390
2672.678378 0.9390 0.9390 0.9390 0.9390 0.9390
2679.325363 0.9386 0.9381 0.9380 0.9380 0.9380
2685.972348 0.9380 0.9385 0.9390 0.9390 0.9390
2692.619333 0.9390 0.9390 0.9390 0.9390 0.9390
2699.266318 0.9390 0.9390 0.9390 0.9390 0.9390
2705.913303 0.9390 0.9390 0.9385 0.9380 0.9380
2712.560288 0.9380 0.9385 0.9390 0.9390 0.9390
2719.207273 0.9390 0.9390 0.9390 0.9390 0.9390
2725.854258 0.9390 0.9390 0.9390 0.9385 0.9380
2732.501242 0.9380 0.9380 0.9380 0.9380 0.9375
2739.148227 0.9370 0.9375 0.9380 0.9380 0.9379
2745.795212 0.9364 0.9350 0.9345 0.9340 0.9340
2752.442197 0.9340 0.9340 0.9340 0.9340 0.9340
2759.089182 0.9345 0.9351 0.9366 0.9380 0.9380
2765.736167 0.9380 0.9380 0.9378 0.9363 0.9349
2772.383152 0.9344 0.9340 0.9340 0.9340 0.9340
2779.030137 0.9340 0.9340 0.9340 0.9340 0.9340
2785.677122 0.9340 0.9339 0.9334 0.9328 0.9318
2792.324106 0.9312 0.9322 0.9328 0.9318 0.9310
2798.971091 0.9310 0.9310 0.9310 0.9310 0.9310
2805.618076 0.9309 0.9304 0.9300 0.9300 0.9300
2812.265061 0.9300 0.9300 0.9300 0.9300 0.9300
2818.912046 0.9300 0.9300 0.9300 0.9300 0.9300
2825.559031 0.9300 0.9300 0.9300 0.9300 0.9300
2832.206016 0.9300 0.9300 0.9300 0.9300 0.9298
2838.853001 0.9293 0.9290 0.9290 0.9290 0.9290
2845.499986 0.9287 0.9277 0.9266 0.9256 0.9246
2852.146970 0.9236 0.9228 0.9223 0.9218 0.9213
2858.793955 0.9210 0.9210 0.9206 0.9196 0.9190
2865.440940 0.9190 0.9190 0.9190 0.9194 0.9204
2872.087925 0.9212 0.9217 0.9220 0.9220 0.9222
2878.734910 0.9227 0.9230 0.9230 0.9230 0.9230
2885.381895 0.9230 0.9230 0.9230 0.9230 0.9230
2892.028880 0.9230 0.9228 0.9223 0.9220 0.9220
2898.675865 0.9218 0.9213 0.9210 0.9210 0.9210
2905.322850 0.9210 0.9205 0.9195 0.9190 0.9190
2911.969834 0.9190 0.9190 0.9187 0.9182 0.9180
2918.616819 0.9180 0.9177 0.9172 0.9165 0.9155
2925.263804 0.9144 0.9134 0.9121 0.9106 0.9097
2931.910789 0.9092 0.9084 0.9074 0.9070 0.9070
2938.557774 0.9070 0.9070 0.9076 0.9086 0.9090
2945.204759 0.9090 0.9096 0.9106 0.9116 0.9126
2951.851744 0.9133 0.9138 0.9140 0.9140 0.9143
2958.498729 0.9148 0.9150 0.9150 0.9150 0.9150
2965.145714 0.9157 0.9167 0.9170 0.9170 0.9170
2971.792698 0.9170 0.9173 0.9178 0.9180 0.9180
2978.439683 0.9184 0.9189 0.9190 0.9190 0.9190
2985.086668 0.9190 0.9190 0.9190 0.9190 0.9190
2991.733653 0.9190 0.9190 0.9190 0.9190 0.9190
2998.380638 0.9190 0.9190 0.9190 0.9198 0.9208
3005.027623 0.9210 0.9210 0.9210 0.9210 0.9210
3011.674608 0.9210 0.9210 0.9210 0.9210 0.9210
3018.321593 0.9210 0.9210 0.9210 0.9210 0.9210
3024.968578 0.9210 0.9210 0.9210 0.9210 0.9210
3031.615562 0.9210 0.9210 0.9210 0.9210 0.9210
3038.262547 0.9210 0.9210 0.9210 0.9210 0.9210
3044.909532 0.9210 0.9210 0.9210 0.9210 0.9210
3051.556517 0.9210 0.9210 0.9210 0.9201 0.9191
3058.203502 0.9190 0.9190 0.9190 0.9190 0.9190
3064.850487 0.9190 0.9190 0.9190 0.9190 0.9190
3071.497472 0.9190 0.9190 0.9185 0.9180 0.9180
3078.144457 0.9180 0.9180 0.9180 0.9180 0.9180
3084.791442 0.9180 0.9180 0.9180 0.9180 0.9180
3091.438426 0.9180 0.9180 0.9180 0.9175 0.9170
3098.085411 0.9170 0.9170 0.9170 0.9170 0.9170
3104.732396 0.9170 0.9170 0.9170 0.9170 0.9169
3111.379381 0.9159 0.9150 0.9150 0.9150 0.9150
3118.026366 0.9150 0.9150 0.9150 0.9150 0.9149
3124.673351 0.9144 0.9140 0.9140 0.9140 0.9140
3131.320336 0.9139 0.9134 0.9130 0.9130 0.9130
3137.967321 0.9130 0.9130 0.9130 0.9130 0.9130
3144.614306 0.9130 0.9130 0.9130 0.9130 0.9130
3151.261290 0.9130 0.9128 0.9118 0.9110 0.9110
3157.908275 0.9110 0.9110 0.9110 0.9110 0.9110
3164.555260 0.9110 0.9110 0.9110 0.9110 0.9110
3171.202245 0.9110 0.9110 0.9110 0.9110 0.9110
3177.849230 0.9110 0.9110 0.9110 0.9109 0.9104
3184.496215 0.9100 0.9100 0.9100 0.9100 0.9100
3191.143200 0.9100 0.9098 0.9093 0.9090 0.9090
3197.790185 0.9090 0.9090 0.9090 0.9090 0.9087
3204.437170 0.9077 0.9068 0.9063 0.9060 0.9060
3211.084154 0.9058 0.9053 0.9050 0.9050 0.9046
3217.731139 0.9036 0.9030 0.9030 0.9030 0.9030
3224.378124 0.9030 0.9030 0.9030 0.9030 0.9028
3231.025109 0.9023 0.9020 0.9020 0.9020 0.9020
3237.672094 0.9020 0.9020 0.9020 0.9020 0.9020
3244.319079 0.9020 0.9020 0.9020 0.9018 0.9013
3250.966064 0.9010 0.9010 0.9010 0.9010 0.9010
3257.613049 0.9010 0.9010 0.9010 0.9010 0.9010
3264.260034 0.9010 0.9010 0.9010 0.9010 0.9005
3270.907018 0.8995 0.8990 0.8990 0.8987 0.8982
3277.554003 0.8980 0.8980 0.8977 0.8972 0.8970
3284.200988 0.8970 0.8964 0.8954 0.8947 0.8942
3290.847973 0.8937 0.8932 0.8924 0.8914 0.8907
3297.494958 0.8902 0.8900 0.8900 0.8897 0.8892
3304.141943 0.8890 0.8890 0.8884 0.8874 0.8867
3310.788928 0.8862 0.8857 0.8852 0.8844 0.8834
3317.435913 0.8827 0.8822 0.8820 0.8820 0.8817
3324.082898 0.8812 0.8803 0.8793 0.8790 0.8790
3330.729882 0.8787 0.8782 0.8780 0.8780 0.8776
3337.376867 0.8771 0.8763 0.8753 0.8746 0.8741
3344.023852 0.8733 0.8723 0.8713 0.8703 0.8700
3350.670837 0.8700 0.8692 0.8682 0.8676 0.8671
3357.317822 0.8666 0.8661 0.8648 0.8633 0.8618
3363.964807 0.8603 0.8596 0.8591 0.8574 0.8554
3370.611792 0.8546 0.8541 0.8532 0.8522 0.8516
3377.258777 0.8511 0.8493 0.8473 0.8453 0.8433
3383.905762 0.8417 0.8402 0.8392 0.8381 0.8367
3390.552746 0.8352 0.8346 0.8341 0.8331 0.8321
3397.199731 0.8316 0.8311 0.8306 0.8301 0.8291
3403.846716 0.8281 0.8262 0.8242 0.8235 0.8230
3410.493701 0.8216 0.8201 0.8195 0.8190 0.8176
3417.140686 0.8161 0.8151 0.8141 0.8131 0.8121
3423.787671 0.8115 0.8110 0.8105 0.8100 0.8090
3430.434656 0.8080 0.8070 0.8060 0.8050 0.8040
3437.081641 0.8035 0.8030 0.8025 0.8020 0.8005
3443.728626 0.7990 0.7990 0.7990 0.7985 0.7980
3450.375610 0.7980 0.7980 0.7980 0.7980 0.7985
3457.022595 0.7990 0.7990 0.7990 0.7990 0.7990
3463.669580 0.7995 0.8000 0.8000 0.8000 0.8000
3470.316565 0.8000 0.8000 0.8000 0.8000 0.8000
3476.963550 0.8000 0.8000 0.8000 0.8000 0.8000
3483.610535 0.8000 0.8000 0.8000 0.8000 0.8001
3490.257520 0.8011 0.8020 0.8020 0.8021 0.8026
3496.904505 0.8031 0.8036 0.8040 0.8040 0.8042
3503.551490 0.8052 0.8061 0.8066 0.8073 0.8088
3510.198474 0.8101 0.8106 0.8111 0.8116 0.8122
3516.845459 0.8132 0.8141 0.8146 0.8151 0.8156
3523.492444 0.8162 0.8172 0.8181 0.8186 0.8191
3530.139429 0.8196 0.8202 0.8212 0.8221 0.8226
3536.786414 0.8230 0.8230 0.8231 0.8236 0.8244
3543.433399 0.8259 0.8271 0.8276 0.8284 0.8299
3550.080384 0.8311 0.8317 0.8325 0.8340 0.8352
3556.727369 0.8357 0.8365 0.8380 0.8395 0.8410
3563.374353 0.8420 0.8420 0.8424 0.8434 0.8444
3570.021338 0.8454 0.8464 0.8474 0.8484 0.8494
3576.668323 0.8500 0.8500 0.8504 0.8514 0.8528
3583.315308 0.8548 0.8564 0.8574 0.8584 0.8594
3589.962293 0.8604 0.8614 0.8622 0.8627 0.8632
3596.609278 0.8637 0.8644 0.8654 0.8660 0.8660
3603.256263 0.8669 0.8689 0.8702 0.8707 0.8710
3609.903248 0.8710 0.8717 0.8732 0.8747 0.8762
3616.550233 0.8770 0.8770 0.8775 0.8785 0.8795
3623.197217 0.8805 0.8813 0.8818 0.8823 0.8828
3629.844202 0.8838 0.8853 0.8860 0.8860 0.8863
3636.491187 0.8868 0.8875 0.8885 0.8893 0.8898
3643.138172 0.8900 0.8900 0.8903 0.8908 0.8910
3649.785157 0.8910 0.8916 0.8926 0.8930 0.8930
3656.432142 0.8933 0.8938 0.8940 0.8940 0.8940
3663.079127 0.8940 0.8943 0.8948 0.8950 0.8950
3669.726112 0.8950 0.8950 0.8956 0.8966 0.8970
3676.373097 0.8970 0.8970 0.8970 0.8970 0.8970
3683.020081 0.8963 0.8953 0.8947 0.8942 0.8940
3689.667066 0.8940 0.8937 0.8932 0.8930 0.8930
3696.314051 0.8930 0.8930 0.8930 0.8930 0.8930
3702.961036 0.8930 0.8930 0.8930 0.8930 0.8930
3709.608021 0.8930 0.8930 0.8930 0.8930 0.8930
3716.255006 0.8930 0.8930 0.8930 0.8930 0.8930
3722.901991 0.8930 0.8930 0.8930 0.8930 0.8930
3729.548976 0.8930 0.8930 0.8930 0.8930 0.8930
3736.195961 0.8934 0.8939 0.8940 0.8940 0.8944
3742.842945 0.8949 0.8950 0.8950 0.8950 0.8950
3749.489930 0.8959 0.8969 0.8970 0.8970 0.8970
3756.136915 0.8970 0.8961 0.8951 0.8946 0.8941
3762.783900 0.8940 0.8940 0.8940 0.8940 0.8936
3769.430885 0.8931 0.8930 0.8930 0.8921 0.8911
3776.077870 0.8910 0.8910 0.8919 0.8929 0.8930
3782.724855 0.8930 0.8930 0.8930 0.8930 0.8930
3789.371840 0.8930 0.8930 0.8930 0.8930 0.8930
3796.018825 0.8930 0.8930 0.8930 0.8930 0.8930
3802.665809 0.8930 0.8930 0.8930 0.8930 0.8930
3809.312794 0.8930 0.8930 0.8930 0.8930 0.8930
3815.959779 0.8930 0.8930 0.8920 0.8910 0.8910
3822.606764 0.8910 0.8910 0.8910 0.8905 0.8900
3829.253749 0.8900 0.8900 0.8900 0.8900 0.8895
3835.900734 0.8890 0.8890 0.8890 0.8890 0.8890
3842.547719 0.8890 0.8891 0.8896 0.8900 0.8900
3849.194704 0.8900 0.8900 0.8900 0.8900 0.8899
3855.841689 0.8894 0.8890 0.8890 0.8890 0.8890
3862.488673 0.8888 0.8878 0.8870 0.8870 0.8870
3869.135658 0.8870 0.8870 0.8870 0.8870 0.8870
3875.782643 0.8870 0.8870 0.8869 0.8864 0.8860
3882.429628 0.8860 0.8859 0.8854 0.8850 0.8850
3889.076613 0.8850 0.8850 0.8848 0.8837 0.8830
3895.723598 0.8830 0.8830 0.8830 0.8833 0.8843
3902.370583 0.8850 0.8850 0.8851 0.8856 0.8860
3909.017568 0.8860 0.8862 0.8867 0.8870 0.8870
3915.664553 0.8873 0.8883 0.8890 0.8890 0.8890
3922.311537 0.8890 0.8890 0.8890 0.8890 0.8890
3928.958522 0.8890 0.8890 0.8886 0.8876 0.8870
3935.605507 0.8870 0.8868 0.8863 0.8858 0.8853
3942.252492 0.8850 0.8850 0.8846 0.8836 0.8830
3948.899477 0.8830 0.8830 0.8830 0.8830 0.8830
3955.546462 0.8830 0.8830 0.8830 0.8830 0.8830
3962.193447 0.8830 0.8830 0.8830 0.8828 0.8823
3968.840432 0.8820 0.8820 0.8820 0.8820 0.8820
3975.487417 0.8820 0.8820 0.8820 0.8820 0.8820
3982.134401 0.8820 0.8820 0.8818 0.8812
##END=
