##TITLE=MONOIODODECABORANE
##JCAMP-DX=4.24
##DATA TYPE=INFRARED SPECTRUM
##CLASS=COBLENTZ
##ORIGIN=KALLERY CHEMICAL COMPANY
##OWNER=COBLENTZ SOCIETY
Collection (C) 2018 copyright by the U.S. Secretary of Commerce
on behalf of the United States of America. All rights reserved.
##DATE=1960
##NAMES=8-iodo-1.lambda.<5>,2.lambda.<5>,3.lambda.<5>,4.lambda.<5>,5.lambda.<5>,6.lambda.<5>,7.lambda.<5>,8.lambda.<5>,9.lambda.<5>,10.lambda.<5>-nonacyclo[4.4.0.0<1,3>.0<2,4>.0<2,6>.0<3,10>.0<4,9>.0<5,7>.0<5,8>]decaborane
##MOLFORM=B10 H13 I
##SOURCE REFERENCE=COBLENTZ NO. 842
##$NIST ID=B6000842
##$NIST SOURCE=COBLENTZ
##$NIST IMAGE=cob842
##SPECTROMETER/DATA SYSTEM=Not specified, most likely a prism, grating, or hybrid spectrometer.
##STATE=SOLUTION (CH2Cl2)
$$ RESEARCH PURITY
##PATH LENGTH=
$$SPECTRAL CONTAMINATION DUE CH2Cl2 AROUND 700-800 CM^-^1
##SAMPLING PROCEDURE=TRANSMISSION
##RESOLUTION=4
##DATA PROCESSING=DIGITIZED BY NIST FROM HARD COPY
##XUNITS=MICROMETERS
##YUNITS=TRANSMITTANCE
##XFACTOR=1.000000
##YFACTOR=1
##DELTAX=000.006738
##FIRSTX=2.054
##LASTX=15.529
##FIRSTY=0.897
##MAXX=15.529
##MINX=2.054
##MAXY=1.01
##MINY=0.193
##NPOINTS=2001
##XYDATA=(X++(Y..Y))
2.054000 0.8970 0.8970 0.8970 0.8970 0.8970
2.087706 0.8970 0.8990 0.8990 0.8990 0.8990
2.121000 0.9010 0.9010 0.9010 0.9010 0.9010
2.154706 0.9010 0.9010 0.9010 0.9010 0.9010
2.189000 0.9010 0.9010 0.9010 0.9010 0.9010
2.222706 0.9010 0.9010 0.9010 0.8990 0.8990
2.256000 0.8990 0.8990 0.8990 0.8990 0.8990
2.289706 0.8990 0.8990 0.8990 0.8990 0.8990
2.323000 0.8990 0.8990 0.8990 0.8990 0.8990
2.356706 0.8990 0.8990 0.9010 0.9010 0.9010
2.391000 0.9010 0.9010 0.9010 0.9010 0.9010
2.424706 0.9010 0.9010 0.9010 0.9010 0.9010
2.458000 0.9030 0.9030 0.9030 0.9030 0.9030
2.491706 0.9030 0.9030 0.9030 0.9030 0.9030
2.526000 0.9030 0.9030 0.9030 0.9030 0.9030
2.559706 0.9030 0.9030 0.9040 0.9040 0.9040
2.593000 0.9040 0.9040 0.9040 0.9040 0.9040
2.626706 0.9040 0.9040 0.9040 0.9060 0.9060
2.660000 0.9060 0.9080 0.9080 0.9080 0.9080
2.693706 0.9080 0.9090 0.9110 0.9110 0.9130
2.728000 0.9130 0.9160 0.9160 0.9180 0.9180
2.761706 0.9190 0.9190 0.9190 0.9190 0.9190
2.795000 0.9180 0.9180 0.9160 0.9140 0.9140
2.828706 0.9140 0.9130 0.9130 0.9110 0.9110
2.862000 0.9110 0.9110 0.9110 0.9090 0.9080
2.895706 0.9080 0.9060 0.9060 0.9040 0.9040
2.930000 0.9030 0.9030 0.9030 0.9010 0.9010
2.963706 0.9010 0.8990 0.8990 0.8990 0.8990
2.997000 0.8990 0.8990 0.8990 0.8990 0.8990
3.030706 0.9010 0.9010 0.9010 0.9010 0.9010
3.065000 0.9010 0.9010 0.9010 0.9010 0.9010
3.098706 0.9030 0.9010 0.9030 0.9030 0.9030
3.132000 0.9030 0.9030 0.9030 0.9030 0.9030
3.165706 0.9030 0.9030 0.9030 0.9030 0.9030
3.199000 0.9030 0.9030 0.9030 0.9030 0.9030
3.232706 0.9030 0.9030 0.9030 0.9030 0.9040
3.267000 0.9040 0.9060 0.9060 0.9060 0.9080
3.300706 0.9080 0.9080 0.9090 0.9080 0.9080
3.334000 0.9080 0.9080 0.9080 0.9090 0.9140
3.367706 0.9190 0.9240 0.9240 0.9260 0.9280
3.401000 0.9290 0.9310 0.9330 0.9340 0.9380
3.434706 0.9380 0.9380 0.9380 0.9380 0.9390
3.469000 0.9390 0.9410 0.9410 0.9410 0.9410
3.502706 0.9410 0.9410 0.9410 0.9410 0.9410
3.536000 0.9410 0.9410 0.9390 0.9380 0.9360
3.569706 0.9360 0.9340 0.9340 0.9330 0.9310
3.604000 0.9280 0.9280 0.9240 0.9240 0.9240
3.637706 0.9230 0.9210 0.9190 0.9190 0.9180
3.671000 0.9180 0.9160 0.9140 0.9140 0.9130
3.704706 0.9090 0.9080 0.9060 0.9030 0.8990
3.738000 0.8970 0.8960 0.8910 0.8870 0.8840
3.771706 0.8770 0.8140 0.7800 0.7050 0.6300
3.806000 0.5200 0.4130 0.3040 0.2520 0.2000
3.839706 0.1970 0.1930 0.1950 0.1980 0.2050
3.873000 0.2270 0.2490 0.3120 0.3540 0.4430
3.906706 0.4790 0.5660 0.6320 0.7020 0.7770
3.940000 0.8020 0.8320 0.8520 0.8670 0.8760
3.973706 0.8810 0.8840 0.8870 0.8910 0.8960
4.008000 0.8970 0.9010 0.9010 0.9030 0.9030
4.041706 0.9040 0.9040 0.9040 0.9060 0.9060
4.075000 0.9080 0.9080 0.9090 0.9090 0.9110
4.108706 0.9110 0.9110 0.9110 0.9110 0.9110
4.143000 0.9110 0.9110 0.9110 0.9110 0.9110
4.176706 0.9110 0.9130 0.9130 0.9130 0.9130
4.210000 0.9130 0.9110 0.9110 0.9110 0.9090
4.243706 0.9090 0.9080 0.9080 0.9080 0.9060
4.277000 0.9060 0.9060 0.9040 0.9040 0.9030
4.310706 0.9030 0.9030 0.9030 0.9030 0.9030
4.345000 0.9030 0.9030 0.9030 0.9030 0.9030
4.378706 0.9030 0.9030 0.9030 0.9030 0.9030
4.412000 0.9040 0.9060 0.9060 0.9060 0.9080
4.445706 0.9080 0.9090 0.9090 0.9090 0.9110
4.480000 0.9110 0.9110 0.9130 0.9110 0.9110
4.513706 0.9110 0.9110 0.9130 0.9130 0.9130
4.547000 0.9130 0.9130 0.9130 0.9140 0.9140
4.580706 0.9130 0.9130 0.9130 0.9130 0.9130
4.614000 0.9130 0.9130 0.9130 0.9110 0.9090
4.647706 0.9090 0.9090 0.9090 0.9090 0.9080
4.682000 0.9080 0.9080 0.9060 0.9060 0.9060
4.715706 0.9060 0.9040 0.9040 0.9040 0.9040
4.749000 0.9040 0.9060 0.9060 0.9060 0.9110
4.782706 0.9110 0.9130 0.9130 0.9140 0.9140
4.816000 0.9140 0.9160 0.9160 0.9160 0.9160
4.849706 0.9160 0.9160 0.9160 0.9160 0.9160
4.884000 0.9160 0.9160 0.9160 0.9140 0.9140
4.917706 0.9140 0.9140 0.9140 0.9140 0.9140
4.951000 0.9140 0.9140 0.9140 0.9140 0.9160
4.984706 0.9160 0.9140 0.9140 0.9140 0.9130
5.019000 0.9130 0.9130 0.9110 0.9110 0.9090
5.052706 0.9090 0.9080 0.9060 0.9060 0.9040
5.086000 0.9040 0.9030 0.9030 0.9030 0.9010
5.119706 0.9010 0.8990 0.8970 0.8970 0.8960
5.153000 0.8940 0.8940 0.8910 0.8890 0.8860
5.186706 0.8860 0.8820 0.8770 0.8740 0.8710
5.221000 0.8690 0.8690 0.8670 0.8670 0.8640
5.254706 0.8490 0.8420 0.8390 0.8370 0.8390
5.288000 0.8410 0.8490 0.8590 0.8710 0.8740
5.321706 0.8760 0.8770 0.8770 0.8770 0.8790
5.355000 0.8790 0.8810 0.8810 0.8820 0.8860
5.388706 0.8870 0.8910 0.8970 0.8970 0.8990
5.423000 0.9010 0.9010 0.8990 0.9010 0.9010
5.456706 0.9010 0.9030 0.9030 0.9030 0.9030
5.490000 0.9030 0.9030 0.9030 0.9030 0.9030
5.523706 0.9030 0.9030 0.9040 0.9040 0.9040
5.558000 0.9060 0.9060 0.9060 0.9060 0.9080
5.591706 0.9080 0.9080 0.9080 0.9080 0.9090
5.625000 0.9090 0.9090 0.9110 0.9090 0.9110
5.658706 0.9130 0.9130 0.9130 0.9130 0.9130
5.692000 0.9130 0.9130 0.9130 0.9130 0.9140
5.725706 0.9140 0.9140 0.9140 0.9140 0.9140
5.760000 0.9160 0.9160 0.9160 0.9160 0.9160
5.793706 0.9180 0.9180 0.9180 0.9180 0.9180
5.827000 0.9190 0.9190 0.9190 0.9190 0.9190
5.860706 0.9190 0.9190 0.9190 0.9190 0.9190
5.894000 0.9180 0.9180 0.9180 0.9160 0.9160
5.927706 0.9140 0.9140 0.9140 0.9130 0.9110
5.962000 0.9090 0.9090 0.9080 0.9060 0.9060
5.995706 0.9060 0.9040 0.9030 0.9030 0.9030
6.029000 0.9030 0.9030 0.9030 0.9030 0.9030
6.062706 0.9010 0.8990 0.8990 0.8990 0.8990
6.097000 0.8990 0.8990 0.8990 0.8990 0.8990
6.130706 0.8990 0.8990 0.8990 0.8990 0.8990
6.164000 0.9010 0.9010 0.9010 0.9010 0.9010
6.197706 0.8990 0.8970 0.8960 0.8940 0.8920
6.231000 0.8910 0.8810 0.8720 0.8590 0.8470
6.264706 0.8370 0.8320 0.8260 0.8210 0.8140
6.299000 0.8090 0.8070 0.8060 0.8020 0.8010
6.332706 0.7970 0.7950 0.7950 0.7920 0.7890
6.366000 0.7840 0.7800 0.7770 0.7750 0.7720
6.399706 0.7670 0.7620 0.7550 0.7520 0.7500
6.433000 0.7470 0.7440 0.7370 0.7300 0.7270
6.466706 0.7220 0.7150 0.7090 0.7050 0.6900
6.501000 0.6780 0.6720 0.6580 0.6430 0.6300
6.534706 0.6150 0.6000 0.5860 0.5710 0.5550
6.568000 0.5410 0.5330 0.5200 0.5200 0.5330
6.601706 0.5500 0.5630 0.5710 0.5780 0.5910
6.636000 0.6180 0.6280 0.6470 0.6520 0.6650
6.669706 0.6680 0.6750 0.6770 0.6800 0.6800
6.703000 0.6820 0.6830 0.6850 0.6880 0.6900
6.736706 0.6970 0.6970 0.6980 0.7040 0.7070
6.770000 0.7120 0.7150 0.7190 0.7200 0.7250
6.803706 0.7340 0.7370 0.7440 0.7490 0.7620
6.838000 0.7690 0.7770 0.7840 0.7920 0.7990
6.871706 0.8070 0.8110 0.8140 0.8170 0.8210
6.905000 0.8220 0.8260 0.8270 0.8290 0.8290
6.938706 0.8310 0.8310 0.8310 0.8310 0.8310
6.972000 0.8310 0.8320 0.8320 0.8320 0.8320
7.005706 0.8320 0.8320 0.8340 0.8340 0.8360
7.040000 0.8360 0.8360 0.8370 0.8370 0.8370
7.073706 0.8390 0.8410 0.8410 0.8420 0.8460
7.107000 0.8470 0.8490 0.8520 0.8560 0.8590
7.140706 0.8620 0.8640 0.8690 0.8710 0.8720
7.175000 0.8740 0.8760 0.8760 0.8770 0.8790
7.208706 0.8810 0.8840 0.8870 0.8910 0.8940
7.242000 0.8960 0.9010 0.9030 0.9060 0.9080
7.275706 0.9090 0.9090 0.9110 0.9130 0.9130
7.309000 0.9140 0.9190 0.9240 0.9290 0.9290
7.342706 0.9310 0.9310 0.9310 0.9310 0.9310
7.377000 0.9310 0.9310 0.9290 0.9290 0.9280
7.410706 0.9280 0.9280 0.9280 0.9280 0.9280
7.444000 0.9280 0.9280 0.9260 0.9260 0.9260
7.477706 0.9260 0.9260 0.9260 0.9260 0.9260
7.512000 0.9260 0.9260 0.9240 0.9240 0.9240
7.545706 0.9240 0.9230 0.9230 0.9230 0.9210
7.579000 0.9210 0.9210 0.9190 0.9190 0.9190
7.612706 0.9180 0.9160 0.9160 0.9160 0.9160
7.646000 0.9140 0.9140 0.9130 0.9110 0.9110
7.679706 0.9110 0.9110 0.9110 0.9110 0.9110
7.714000 0.9110 0.9110 0.9110 0.9110 0.9110
7.747706 0.9110 0.9130 0.9130 0.9130 0.9130
7.781000 0.9130 0.9130 0.9130 0.9130 0.9140
7.814706 0.9130 0.9140 0.9140 0.9160 0.9140
7.848000 0.9140 0.9160 0.9140 0.9140 0.9140
7.881706 0.9140 0.9140 0.9140 0.9140 0.9140
7.916000 0.9160 0.9160 0.9160 0.9180 0.9160
7.949706 0.9160 0.9160 0.9180 0.9180 0.9190
7.983000 0.9190 0.9190 0.9190 0.9210 0.9210
8.016706 0.9210 0.9210 0.9210 0.9210 0.9210
8.051000 0.9210 0.9210 0.9230 0.9230 0.9230
8.084706 0.9230 0.9230 0.9230 0.9230 0.9230
8.118000 0.9230 0.9230 0.9230 0.9230 0.9240
8.151706 0.9240 0.9260 0.9260 0.9260 0.9280
8.185000 0.9280 0.9280 0.9280 0.9280 0.9280
8.218706 0.9280 0.9290 0.9290 0.9290 0.9290
8.253000 0.9290 0.9290 0.9290 0.9290 0.9290
8.286706 0.9290 0.9290 0.9290 0.9290 0.9290
8.320000 0.9290 0.9290 0.9290 0.9290 0.9290
8.353706 0.9290 0.9290 0.9290 0.9290 0.9290
8.387000 0.9290 0.9290 0.9290 0.9290 0.9290
8.420706 0.9290 0.9290 0.9290 0.9290 0.9280
8.455000 0.9280 0.9280 0.9280 0.9280 0.9280
8.488706 0.9280 0.9280 0.9280 0.9280 0.9260
8.522000 0.9260 0.9260 0.9260 0.9260 0.9260
8.555706 0.9260 0.9260 0.9260 0.9240 0.9240
8.590000 0.9240 0.9230 0.9210 0.9180 0.9160
8.623706 0.9140 0.9110 0.9090 0.9090 0.9090
8.657000 0.9090 0.9090 0.9090 0.9090 0.9090
8.690706 0.9090 0.9090 0.9090 0.9090 0.9110
8.724000 0.9110 0.9110 0.9110 0.9110 0.9110
8.757706 0.9110 0.9110 0.9110 0.9110 0.9110
8.792000 0.9110 0.9110 0.9110 0.9130 0.9130
8.825706 0.9130 0.9130 0.9130 0.9140 0.9140
8.859000 0.9140 0.9140 0.9140 0.9140 0.9160
8.892706 0.9160 0.9160 0.9180 0.9180 0.9180
8.926000 0.9190 0.9190 0.9210 0.9210 0.9210
8.959706 0.9230 0.9240 0.9240 0.9260 0.9260
8.994000 0.9260 0.9260 0.9260 0.9260 0.9260
9.027706 0.9260 0.9260 0.9260 0.9260 0.9260
9.061000 0.9260 0.9260 0.9260 0.9260 0.9240
9.094706 0.9240 0.9240 0.9240 0.9240 0.9240
9.129000 0.9240 0.9240 0.9240 0.9240 0.9240
9.162706 0.9240 0.9240 0.9240 0.9240 0.9240
9.196000 0.9240 0.9240 0.9240 0.9260 0.9260
9.229706 0.9260 0.9260 0.9260 0.9260 0.9260
9.263000 0.9260 0.9290 0.9310 0.9310 0.9290
9.296706 0.9290 0.9290 0.9290 0.9290 0.9290
9.331000 0.9310 0.9310 0.9310 0.9330 0.9330
9.364706 0.9330 0.9340 0.9340 0.9340 0.9360
9.398000 0.9360 0.9360 0.9360 0.9360 0.9360
9.431706 0.9360 0.9340 0.9340 0.9330 0.9330
9.465000 0.9310 0.9310 0.9310 0.9310 0.9290
9.498706 0.9280 0.9260 0.9260 0.9230 0.9230
9.533000 0.9230 0.9210 0.9190 0.9190 0.9180
9.566706 0.9180 0.9160 0.9160 0.9160 0.9140
9.600000 0.9140 0.9160 0.9160 0.9180 0.9180
9.633706 0.9180 0.9190 0.9190 0.9230 0.9260
9.668000 0.9280 0.9280 0.9290 0.9310 0.9310
9.701706 0.9330 0.9340 0.9360 0.9380 0.9380
9.735000 0.9410 0.9430 0.9480 0.9510 0.9580
9.768706 0.9660 0.9760 0.9840 0.9860 0.9960
9.802000 1.0060 1.0080 1.0100 1.0100 1.0080
9.835706 1.0060 1.0050 1.0030 0.9980 0.9930
9.870000 0.9860 0.9810 0.9760 0.9610 0.9190
9.903706 0.8840 0.8470 0.8190 0.7670 0.7540
9.937000 0.7400 0.7290 0.7120 0.7050 0.6850
9.970706 0.6820 0.6780 0.6800 0.6920 0.7070
10.004000 0.7250 0.7420 0.7720 0.7850 0.7970
10.037706 0.8090 0.8190 0.8290 0.8390 0.8470
10.072000 0.8560 0.8620 0.8710 0.8770 0.8840
10.105706 0.8910 0.8960 0.8970 0.9010 0.9010
10.139000 0.9030 0.9040 0.9040 0.9040 0.9040
10.172706 0.9040 0.9040 0.9040 0.9040 0.9030
10.207000 0.9040 0.9030 0.9030 0.9030 0.8990
10.240706 0.8990 0.8970 0.8970 0.8970 0.8960
10.274000 0.8960 0.8920 0.8920 0.8910 0.8890
10.307706 0.8890 0.8840 0.8810 0.8790 0.8760
10.341000 0.8720 0.8690 0.8640 0.8590 0.8540
10.374706 0.8490 0.8440 0.8410 0.8360 0.8310
10.409000 0.8240 0.8190 0.8140 0.8070 0.8010
10.442706 0.7940 0.7850 0.7790 0.7700 0.7620
10.476000 0.7540 0.7490 0.7440 0.7340 0.7220
10.509706 0.6930 0.6920 0.6830 0.6830 0.7000
10.544000 0.7240 0.7390 0.7600 0.7700 0.7820
10.577706 0.7990 0.7990 0.8120 0.8290 0.8440
10.611000 0.8510 0.8560 0.8560 0.8590 0.8620
10.644706 0.8620 0.8620 0.8620 0.8610 0.8610
10.678000 0.8570 0.8540 0.8510 0.8490 0.8460
10.711706 0.8420 0.8390 0.8360 0.8310 0.8240
10.746000 0.8160 0.8040 0.7900 0.7750 0.7550
10.779706 0.7450 0.7340 0.7070 0.6770 0.6400
10.813000 0.6000 0.5980 0.5960 0.5980 0.6050
10.846706 0.6220 0.6380 0.6550 0.6680 0.6830
10.880000 0.6950 0.7070 0.7170 0.7240 0.7340
10.913706 0.7420 0.7440 0.7450 0.7450 0.7450
10.948000 0.7450 0.7440 0.7440 0.7420 0.7420
10.981706 0.7420 0.7420 0.7400 0.7390 0.7350
11.015000 0.7340 0.7340 0.7300 0.7290 0.7290
11.048706 0.7290 0.7290 0.7290 0.7290 0.7290
11.083000 0.7290 0.7290 0.7290 0.7290 0.7290
11.116706 0.7300 0.7300 0.7300 0.7320 0.7320
11.150000 0.7320 0.7320 0.7340 0.7340 0.7350
11.183706 0.7350 0.7370 0.7370 0.7370 0.7370
11.217000 0.7370 0.7370 0.7350 0.7340 0.7340
11.250706 0.7320 0.7290 0.7270 0.7250 0.7240
11.285000 0.7200 0.7170 0.7100 0.7000 0.6870
11.318706 0.6680 0.6530 0.6420 0.6270 0.6230
11.352000 0.6170 0.6130 0.6120 0.6130 0.6170
11.385706 0.6230 0.6270 0.6330 0.6500 0.6620
11.419000 0.6750 0.6770 0.6820 0.6800 0.6770
11.452706 0.6750 0.6600 0.6530 0.6450 0.6400
11.487000 0.6330 0.6230 0.6120 0.6020 0.5880
11.520706 0.5750 0.5580 0.5460 0.5430 0.5380
11.554000 0.5380 0.5580 0.5860 0.6120 0.6350
11.587706 0.6550 0.6750 0.6930 0.7100 0.7270
11.622000 0.7400 0.7650 0.7770 0.7870 0.7940
11.655706 0.7990 0.8040 0.8070 0.8120 0.8170
11.689000 0.8210 0.8260 0.8310 0.8340 0.8360
11.722706 0.8370 0.8370 0.8390 0.8410 0.8420
11.756000 0.8460 0.8470 0.8470 0.8490 0.8490
11.789706 0.8490 0.8490 0.8490 0.8470 0.8470
11.824000 0.8460 0.8420 0.8390 0.8360 0.8320
11.857706 0.8310 0.8270 0.8220 0.8170 0.8120
11.891000 0.8070 0.8020 0.7970 0.7920 0.7870
11.924706 0.7800 0.7720 0.7640 0.7570 0.7520
11.958000 0.7500 0.7470 0.7420 0.7370 0.7340
11.991706 0.7300 0.7270 0.7220 0.7170 0.7120
12.026000 0.7070 0.6980 0.6980 0.6950 0.6920
12.059706 0.6850 0.6780 0.6720 0.6630 0.6550
12.093000 0.6480 0.6420 0.6370 0.6300 0.6250
12.126706 0.6200 0.6180 0.6170 0.6180 0.6200
12.161000 0.6330 0.6430 0.6570 0.6720 0.6880
12.194706 0.7090 0.7270 0.7470 0.7820 0.7950
12.228000 0.8070 0.8160 0.8220 0.8290 0.8360
12.261706 0.8410 0.8460 0.8490 0.8520 0.8560
12.295000 0.8570 0.8610 0.8610 0.8620 0.8620
12.328706 0.8620 0.8610 0.8590 0.8590 0.8570
12.363000 0.8540 0.8520 0.8490 0.8490 0.8470
12.396706 0.8460 0.8440 0.8440 0.8420 0.8420
12.430000 0.8410 0.8370 0.8370 0.8360 0.8340
12.463706 0.8340 0.8320 0.8320 0.8310 0.8260
12.497000 0.8210 0.8140 0.8070 0.7990 0.8010
12.530706 0.7950 0.7850 0.7720 0.7590 0.7500
12.565000 0.7420 0.7240 0.7070 0.6920 0.6780
12.598706 0.6680 0.6620 0.6550 0.6480 0.6450
12.632000 0.6400 0.6370 0.6330 0.6300 0.6280
12.665706 0.6270 0.6270 0.6270 0.6270 0.6250
12.700000 0.6250 0.6250 0.6250 0.6230 0.6230
12.733706 0.6230 0.6230 0.6230 0.6230 0.6230
12.767000 0.6230 0.6250 0.6250 0.6250 0.6250
12.800706 0.6250 0.6250 0.6250 0.6250 0.6270
12.834000 0.6280 0.6270 0.6280 0.6280 0.6280
12.867706 0.6300 0.6280 0.6300 0.6300 0.6300
12.902000 0.6300 0.6320 0.6320 0.6320 0.6330
12.935706 0.6330 0.6330 0.6350 0.6380 0.6380
12.969000 0.6400 0.6420 0.6430 0.6430 0.6470
13.002706 0.6480 0.6500 0.6500 0.6520 0.6520
13.036000 0.6520 0.6520 0.6520 0.6520 0.6520
13.069706 0.6520 0.6520 0.6520 0.6520 0.6520
13.104000 0.6500 0.6500 0.6500 0.6500 0.6500
13.137706 0.6500 0.6520 0.6520 0.6530 0.6530
13.171000 0.6530 0.6550 0.6550 0.6570 0.6570
13.204706 0.6570 0.6570 0.6580 0.6580 0.6580
13.239000 0.6580 0.6580 0.6580 0.6600 0.6600
13.272706 0.6600 0.6600 0.6600 0.6600 0.6600
13.306000 0.6600 0.6600 0.6600 0.6600 0.6600
13.339706 0.6600 0.6600 0.6600 0.6600 0.6600
13.373000 0.6600 0.6620 0.6620 0.6620 0.6620
13.406706 0.6630 0.6620 0.6630 0.6630 0.6630
13.441000 0.6620 0.6620 0.6620 0.6620 0.6620
13.474706 0.6600 0.6600 0.6620 0.6620 0.6620
13.508000 0.6630 0.6620 0.6620 0.6620 0.6620
13.541706 0.6620 0.6620 0.6620 0.6630 0.6630
13.576000 0.6630 0.6630 0.6630 0.6630 0.6620
13.609706 0.6620 0.6620 0.6620 0.6630 0.6630
13.643000 0.6630 0.6630 0.6630 0.6630 0.6630
13.676706 0.6630 0.6630 0.6630 0.6630 0.6630
13.710000 0.6630 0.6630 0.6630 0.6650 0.6650
13.743706 0.6650 0.6650 0.6650 0.6650 0.6670
13.778000 0.6670 0.6670 0.6670 0.6670 0.6680
13.811706 0.6680 0.6680 0.6700 0.6700 0.6700
13.845000 0.6700 0.6700 0.6700 0.6700 0.6700
13.878706 0.6700 0.6700 0.6720 0.6720 0.6720
13.912000 0.6720 0.6720 0.6720 0.6720 0.6720
13.945706 0.6720 0.6720 0.6720 0.6730 0.6730
13.980000 0.6730 0.6730 0.6730 0.6750 0.6750
14.013706 0.6770 0.6770 0.6750 0.6750 0.6750
14.047000 0.6750 0.6750 0.6750 0.6750 0.6750
14.080706 0.6750 0.6750 0.6750 0.6750 0.6750
14.115000 0.6750 0.6770 0.6770 0.6770 0.6780
14.148706 0.6800 0.6800 0.6820 0.6820 0.6820
14.182000 0.6830 0.6830 0.6830 0.6850 0.6850
14.215706 0.6850 0.6850 0.6850 0.6850 0.6850
14.249000 0.6850 0.6850 0.6850 0.6850 0.6850
14.282706 0.6850 0.6850 0.6850 0.6850 0.6870
14.317000 0.6870 0.6850 0.6850 0.6850 0.6850
14.350706 0.6850 0.6850 0.6850 0.6850 0.6850
14.384000 0.6850 0.6850 0.6850 0.6850 0.6870
14.417706 0.6870 0.6870 0.6870 0.6870 0.6880
14.451000 0.6880 0.6880 0.6880 0.6880 0.6900
14.484706 0.6900 0.6900 0.6900 0.6900 0.6920
14.519000 0.6920 0.6930 0.6920 0.6920 0.6920
14.552706 0.6930 0.6930 0.6950 0.6930 0.6950
14.586000 0.6950 0.6950 0.6950 0.6970 0.6970
14.619706 0.6980 0.6980 0.6980 0.6980 0.6980
14.654000 0.6980 0.6980 0.7000 0.7000 0.7000
14.687706 0.7020 0.7020 0.7040 0.7050 0.7050
14.721000 0.7050 0.7070 0.7090 0.7090 0.7090
14.754706 0.7100 0.7120 0.7120 0.7150 0.7170
14.788000 0.7170 0.7190 0.7200 0.7220 0.7240
14.821706 0.7250 0.7270 0.7300 0.7320 0.7340
14.856000 0.7370 0.7390 0.7420 0.7450 0.7490
14.889706 0.7520 0.7540 0.7570 0.7600 0.7650
14.923000 0.7670 0.7690 0.7720 0.7740 0.7750
14.956706 0.7750 0.7770 0.7770 0.7770 0.7790
14.990000 0.7790 0.7800 0.7800 0.7800 0.7820
15.023706 0.7820 0.7820 0.7820 0.7840 0.7840
15.058000 0.7850 0.7850 0.7850 0.7850 0.7850
15.091706 0.7870 0.7870 0.7870 0.7890 0.7890
15.125000 0.7890 0.7900 0.7900 0.7920 0.7920
15.158706 0.7940 0.7940 0.7950 0.7950 0.7970
15.193000 0.7970 0.7990 0.8010 0.8090 0.8160
15.226706 0.8220 0.8290 0.8360 0.8390 0.8490
15.260000 0.8590 0.8640 0.8660 0.8690 0.8720
15.293706 0.8760 0.8770 0.8810 0.8840 0.8860
15.327000 0.8870 0.8910 0.8940 0.8970 0.8990
15.360706 0.8990 0.9010 0.9060 0.9080 0.9110
15.395000 0.9130 0.9160 0.9180 0.9190 0.9210
15.428706 0.9260 0.9260 0.9290 0.9290 0.9310
15.462000 0.9330 0.9340 0.9380 0.9410 0.9410
15.495706 0.9410 0.9460 0.9460 0.9410 0.9410
15.529000 0.9460
##END=
