##TITLE=Butyric acid, 2-hydrazino-3-methyl-, D,L-Alpha-
##JCAMP-DX=4.24
##DATA TYPE=INFRARED SPECTRUM
##CLASS=COBLENTZ III
##ORIGIN=SOUTHERN RESEARCH INSTITUTE
##OWNER=Copyright (C) 1987 by the Coblentz Society
Collection (C) 2018 copyright by the U.S. Secretary of Commerce
on behalf of the United States of America. All rights reserved.
##DATE=1955/06/08
##NAMES=2-hydrazino-3-methylbutanoic acid
##MOLFORM=C5 H12 N2 O2
##SOURCE REFERENCE=COBLENTZ NO. 6890
##$NIST ID=B6006890
##$NIST SOURCE=COBLENTZ
##$NIST IMAGE=cob6890
##SPECTROMETER/DATA SYSTEM=PERKIN-ELMER 21 (GRATING)
##INSTRUMENT PARAMETERS=FILTER CHANGE ABOUT 1070 CM^-^1
##STATE=SOLID (KBr DISC)
##RESOLUTION=2
##DATA PROCESSING=(ADJUSTED \addcm-1\10-5-2\)
##XUNITS=1/CM
##YUNITS=TRANSMITTANCE
##XFACTOR=1.0
##YFACTOR=1
##DELTAX=1.003573
##FIRSTX=595.207
##LASTX=3812.66
##FIRSTY=0.6391
##MAXX=3812.66
##MINX=595.207
##MAXY=0.740655
##MINY=0.0416201
##NPOINTS=3207
##XYDATA=(X++(Y..Y))
595.207273 0.6391 0.6383 0.6367 0.6349 0.6332
600.225139 0.6313 0.6295 0.6275 0.6256 0.6237
605.243005 0.6218 0.6199 0.6180 0.6161 0.6140
610.260871 0.6118 0.6097 0.6075 0.6054 0.6032
615.278738 0.6007 0.5981 0.5954 0.5928 0.5902
620.296604 0.5876 0.5847 0.5810 0.5771 0.5732
625.314470 0.5693 0.5650 0.5602 0.5552 0.5502
630.332336 0.5452 0.5395 0.5315 0.5229 0.5127
635.350202 0.4979 0.4571 0.3980 0.3353 0.2726
640.368069 0.2240 0.1995 0.1899 0.1868 0.1854
645.385935 0.1841 0.1839 0.1838 0.1845 0.1864
650.403801 0.1979 0.2185 0.2412 0.2639 0.2856
655.421667 0.2984 0.3198 0.3568 0.3970 0.4373
660.439534 0.4775 0.5178 0.5537 0.5719 0.5767
665.457400 0.5817 0.5866 0.5916 0.5999 0.6194
670.475266 0.6438 0.6600 0.6701 0.6786 0.6865
675.493132 0.6930 0.6976 0.7023 0.7068 0.7111
680.510998 0.7153 0.7191 0.7216 0.7234 0.7251
685.528865 0.7268 0.7283 0.7293 0.7303 0.7312
690.546731 0.7322 0.7332 0.7344 0.7355 0.7366
695.564597 0.7377 0.7386 0.7383 0.7367 0.7404
700.582463 0.7405 0.7406 0.7407 0.7404 0.7402
705.600330 0.7399 0.7396 0.7393 0.7386 0.7379
710.618196 0.7372 0.7364 0.7353 0.7343 0.7332
715.636062 0.7322 0.7311 0.7300 0.7289 0.7278
720.653928 0.7267 0.7254 0.7241 0.7228 0.7215
725.671794 0.7202 0.7189 0.7175 0.7162 0.7145
730.689661 0.7126 0.7106 0.7086 0.7066 0.7046
735.707527 0.7024 0.7001 0.6978 0.6950 0.6912
740.725393 0.6873 0.6799 0.6717 0.6619 0.6480
745.743259 0.6339 0.6235 0.6116 0.5987 0.5406
750.761126 0.4539 0.3641 0.2743 0.2002 0.1876
755.778992 0.1865 0.1867 0.1884 0.2252 0.2674
760.796858 0.3090 0.3507 0.3924 0.4340 0.4757
765.814724 0.5174 0.5591 0.6007 0.6389 0.6551
770.832590 0.6588 0.6600 0.6605 0.6609 0.6609
775.850457 0.6607 0.6604 0.6600 0.6594 0.6589
780.868323 0.6583 0.6576 0.6569 0.6562 0.6545
785.886189 0.6516 0.6476 0.6436 0.6400 0.6368
790.904055 0.6339 0.6310 0.6283 0.6256 0.6225
795.921922 0.6163 0.6063 0.5960 0.5866 0.5777
800.939788 0.5699 0.5650 0.5623 0.5596 0.5572
805.957654 0.5553 0.5536 0.5518 0.5479 0.5370
810.975520 0.5202 0.5061 0.4956 0.4848 0.4733
815.993386 0.4617 0.4491 0.4221 0.3376 0.2193
821.011253 0.1643 0.1494 0.1352 0.1222 0.1112
826.029119 0.1004 0.0876 0.0736 0.0632 0.0602
831.046985 0.0602 0.0601 0.0600 0.0628 0.0661
836.064851 0.0701 0.0747 0.1529 0.3829 0.3917
841.082718 0.4078 0.4258 0.4339 0.4362 0.4363
846.100584 0.4374 0.4360 0.4215 0.3707 0.3199
851.118450 0.2690 0.2181 0.1688 0.1343 0.1337
856.136316 0.1349 0.1398 0.1810 0.2265 0.2720
861.154182 0.3174 0.3628 0.4083 0.4537 0.4991
866.172049 0.5446 0.5905 0.6343 0.6563 0.6714
871.189915 0.6797 0.6877 0.6954 0.7029 0.7087
876.207781 0.7109 0.7132 0.7153 0.7169 0.7185
881.225647 0.7201 0.7217 0.7226 0.7235 0.7245
886.243514 0.7252 0.7257 0.7281 0.7267 0.7266
891.261380 0.7266 0.7266 0.7262 0.7256 0.7249
896.279246 0.7239 0.7224 0.7209 0.7191 0.7170
901.297112 0.7148 0.7126 0.7101 0.7074 0.7047
906.314978 0.7016 0.6981 0.6945 0.6888 0.6797
911.332845 0.6683 0.6431 0.6125 0.5819 0.5513
916.350711 0.5207 0.4900 0.4726 0.4691 0.4692
921.368577 0.4711 0.4968 0.5357 0.5748 0.6139
926.386443 0.6317 0.6336 0.6293 0.6193 0.6078
931.404310 0.5963 0.5874 0.5872 0.5911 0.6018
936.422176 0.6314 0.6717 0.7051 0.7200 0.7225
941.440042 0.7238 0.7246 0.7235 0.7235 0.7250
946.457908 0.7243 0.7235 0.7226 0.7218 0.7211
951.475774 0.7204 0.7196 0.7189 0.7182 0.7176
956.493641 0.7169 0.7163 0.7156 0.7151 0.7150
961.511507 0.7149 0.7149 0.7151 0.7154 0.7156
966.529373 0.7159 0.7163 0.7166 0.7169 0.7172
971.547239 0.7176 0.7177 0.7175 0.7172 0.7169
976.565105 0.7167 0.7163 0.7154 0.7145 0.7136
981.582972 0.7127 0.7116 0.7101 0.7086 0.7072
986.600838 0.7057 0.7043 0.7028 0.7013 0.6998
991.618704 0.6983 0.6967 0.6952 0.6937 0.6922
996.636570 0.6901 0.6880 0.6858 0.6836 0.6815
1001.654437 0.6793 0.6772 0.6751 0.6729 0.6708
1006.672303 0.6687 0.6666 0.6645 0.6620 0.6593
1011.690169 0.6567 0.6541 0.6515 0.6488 0.6462
1016.708035 0.6436 0.6413 0.6391 0.6370 0.6349
1021.725901 0.6328 0.6306 0.6284 0.6258 0.6231
1026.743768 0.6204 0.6171 0.6122 0.6071 0.6012
1031.761634 0.5942 0.5866 0.5778 0.5688 0.5595
1036.779500 0.5480 0.5290 0.5043 0.4785 0.4527
1041.797366 0.4270 0.4012 0.3754 0.3497 0.3239
1046.815233 0.2982 0.2724 0.2467 0.2209 0.1951
1051.833099 0.1670 0.1477 0.1388 0.1363 0.1353
1056.850965 0.1363 0.1376 0.1492 0.1830 0.2257
1061.868831 0.2685 0.3113 0.3540 0.3967 0.4395
1066.886697 0.4822 0.5249 0.5484 0.5568 0.5748
1071.904564 0.5932 0.6054 0.6157 0.6237 0.6301
1076.922430 0.6357 0.6394 0.6412 0.6429 0.6438
1081.940296 0.6441 0.6438 0.6436 0.6439 0.6435
1086.958162 0.6430 0.6425 0.6420 0.6414 0.6404
1091.976029 0.6388 0.6374 0.6359 0.6345 0.6330
1096.993895 0.6297 0.6163 0.5879 0.5564 0.5248
1102.011761 0.4962 0.4799 0.4773 0.4752 0.4733
1107.029627 0.4758 0.4948 0.5242 0.5536 0.5830
1112.047493 0.6071 0.6143 0.6142 0.6144 0.6160
1117.065360 0.6111 0.6095 0.6076 0.6055 0.6035
1122.083226 0.6016 0.5998 0.5980 0.5963 0.5944
1127.101092 0.5914 0.5873 0.5815 0.5747 0.5674
1132.118958 0.5591 0.5519 0.5463 0.5426 0.5397
1137.136825 0.5363 0.5225 0.4852 0.4478 0.4103
1142.154691 0.3742 0.3633 0.3624 0.3692 0.3718
1147.172557 0.3751 0.4001 0.4647 0.5294 0.5931
1152.190423 0.6021 0.6059 0.6065 0.6069 0.6057
1157.208289 0.6047 0.6036 0.6026 0.6012 0.5996
1162.226156 0.5975 0.5950 0.5925 0.5899 0.5865
1167.244022 0.5829 0.5779 0.5725 0.5677 0.5630
1172.261888 0.5572 0.5443 0.5341 0.5311 0.5298
1177.279754 0.5195 0.5023 0.4839 0.4655 0.4471
1182.297621 0.4406 0.4392 0.4390 0.4400 0.4407
1187.315487 0.4501 0.4775 0.5105 0.5394 0.5489
1192.333353 0.5497 0.5495 0.5492 0.5484 0.5471
1197.351219 0.5434 0.5322 0.5176 0.5029 0.4882
1202.369085 0.4735 0.4588 0.4441 0.4349 0.4282
1207.386952 0.4239 0.4231 0.4267 0.4392 0.4567
1212.404818 0.4742 0.4916 0.5090 0.5265 0.5439
1217.422684 0.5530 0.5549 0.5548 0.5524 0.5509
1222.440550 0.5489 0.5460 0.5424 0.5392 0.5363
1227.458417 0.5280 0.5126 0.4986 0.4870 0.4768
1232.476283 0.4677 0.4572 0.4396 0.4058 0.3583
1237.494149 0.3108 0.2632 0.2281 0.2231 0.2281
1242.512015 0.2313 0.2424 0.2535 0.2646 0.2748
1247.529881 0.2809 0.2824 0.2841 0.2866 0.2891
1252.547748 0.2921 0.3039 0.3510 0.4258 0.4720
1257.565614 0.4838 0.4929 0.5031 0.5140 0.5232
1262.583480 0.5256 0.5263 0.5262 0.5261 0.5258
1267.601346 0.5254 0.5252 0.5255 0.5239 0.5231
1272.619213 0.5224 0.5217 0.5210 0.5202 0.5180
1277.637079 0.5151 0.5112 0.5060 0.5013 0.4973
1282.654945 0.4932 0.4891 0.4854 0.4811 0.4765
1287.672811 0.4718 0.4677 0.4636 0.4595 0.4554
1292.690677 0.4513 0.4471 0.4429 0.4363 0.4289
1297.708544 0.4209 0.4112 0.4010 0.3842 0.3683
1302.726410 0.3544 0.3414 0.3287 0.3157 0.3027
1307.744276 0.2897 0.2768 0.2638 0.2508 0.2378
1312.762142 0.2249 0.2119 0.1989 0.1885 0.1761
1317.780009 0.1637 0.1506 0.1379 0.1278 0.1186
1322.797875 0.0887 0.0760 0.0743 0.0735 0.0736
1327.815741 0.0741 0.0753 0.0799 0.0865 0.0918
1332.833607 0.0971 0.1040 0.1230 0.1980 0.2799
1337.851473 0.3064 0.3067 0.3068 0.3065 0.3055
1342.869340 0.3035 0.3013 0.2987 0.2958 0.2926
1347.887206 0.2822 0.2543 0.2167 0.1789 0.1412
1352.905072 0.1035 0.0769 0.0695 0.0719 0.0758
1357.922938 0.0799 0.0840 0.0907 0.0947 0.0925
1362.940804 0.0897 0.0856 0.0815 0.0774 0.0743
1367.958671 0.0845 0.1173 0.1588 0.2004 0.2353
1372.976537 0.2507 0.2508 0.2500 0.2456 0.2359
1377.994403 0.2261 0.2163 0.2066 0.1968 0.1871
1383.012269 0.1781 0.1728 0.1726 0.1789 0.2002
1388.030136 0.2219 0.2436 0.2621 0.2690 0.2687
1393.048002 0.2672 0.2652 0.2621 0.2549 0.2332
1398.065868 0.2091 0.1851 0.1610 0.1370 0.1129
1403.083734 0.0900 0.0747 0.0702 0.0661 0.0636
1408.101600 0.0611 0.0587 0.0568 0.0550 0.0545
1413.119467 0.0543 0.0547 0.0545 0.0596 0.0934
1418.137333 0.1279 0.1595 0.1702 0.1739 0.1753
1423.155199 0.1749 0.1744 0.1741 0.1754 0.1847
1428.173065 0.2081 0.2314 0.2531 0.2652 0.2726
1433.190932 0.2774 0.2802 0.2823 0.2835 0.2848
1438.208798 0.2859 0.2863 0.2868 0.2875 0.2863
1443.226664 0.2856 0.2840 0.2819 0.2789 0.2726
1448.244530 0.2631 0.2537 0.2442 0.2347 0.2252
1453.262396 0.2158 0.2063 0.1968 0.1874 0.1751
1458.280263 0.1575 0.1546 0.1544 0.1544 0.1551
1463.298129 0.1581 0.1602 0.1618 0.1625 0.1628
1468.315995 0.1630 0.1631 0.1623 0.1597 0.1577
1473.333861 0.1553 0.1514 0.1463 0.1403 0.1336
1478.351728 0.1258 0.1180 0.1118 0.1069 0.1020
1483.369594 0.0965 0.0905 0.0847 0.0797 0.0766
1488.387460 0.0734 0.0698 0.0658 0.0617 0.0576
1493.405326 0.0530 0.0483 0.0451 0.0434 0.0418
1498.423192 0.0416 0.0428 0.0431 0.0442 0.0460
1503.441059 0.0482 0.0506 0.0523 0.0539 0.0550
1508.458925 0.0551 0.0550 0.0548 0.0559 0.0566
1513.476791 0.0535 0.0526 0.0517 0.0507 0.0497
1518.494657 0.0484 0.0474 0.0470 0.0469 0.0468
1523.512524 0.0470 0.0461 0.0459 0.0486 0.0498
1528.530390 0.0509 0.0526 0.0557 0.0609 0.0674
1533.548256 0.0733 0.0793 0.0855 0.0909 0.0954
1538.566122 0.0997 0.1039 0.1094 0.1193 0.1327
1543.583988 0.1439 0.1524 0.1614 0.1687 0.1720
1548.601855 0.1735 0.1747 0.1753 0.1756 0.1760
1553.619721 0.1787 0.1793 0.1767 0.1766 0.1765
1558.637587 0.1756 0.1731 0.1693 0.1650 0.1601
1563.655453 0.1545 0.1484 0.1422 0.1358 0.1293
1568.673320 0.1225 0.1156 0.1083 0.1007 0.0890
1573.691186 0.0723 0.0592 0.0542 0.0530 0.0525
1578.709052 0.0523 0.0512 0.0512 0.0523 0.0526
1583.726918 0.0530 0.0533 0.0540 0.0557 0.0579
1588.744784 0.0601 0.0624 0.0648 0.0672 0.0695
1593.762651 0.0727 0.0766 0.0803 0.0832 0.0858
1598.780517 0.0882 0.0899 0.0910 0.0914 0.0911
1603.798383 0.0909 0.0900 0.0882 0.0852 0.0807
1608.816249 0.0760 0.0720 0.0686 0.0660 0.0651
1613.834116 0.0650 0.0653 0.0645 0.0655 0.0675
1618.851982 0.0691 0.0709 0.0742 0.0785 0.0820
1623.869848 0.0850 0.0881 0.0915 0.0950 0.0991
1628.887714 0.1030 0.1057 0.1068 0.1072 0.1076
1633.905580 0.1080 0.1088 0.1098 0.1254 0.1412
1638.923447 0.1508 0.1562 0.1594 0.1609 0.1618
1643.941313 0.1628 0.1641 0.1721 0.1817 0.1912
1648.959179 0.2009 0.2107 0.2204 0.2301 0.2398
1653.977045 0.2496 0.2593 0.2690 0.2787 0.2884
1658.994912 0.2982 0.3101 0.3179 0.3257 0.3330
1664.012778 0.3363 0.3384 0.3404 0.3416 0.3424
1669.030644 0.3433 0.3442 0.3449 0.3457 0.3464
1674.048510 0.3472 0.3482 0.3495 0.3508 0.3527
1679.066376 0.3554 0.3583 0.3635 0.3709 0.3805
1684.084243 0.3907 0.4012 0.4139 0.4311 0.4503
1689.102109 0.4668 0.4769 0.4854 0.4930 0.5004
1694.119975 0.5076 0.5129 0.5177 0.5225 0.5273
1699.137841 0.5304 0.5329 0.5355 0.5380 0.5406
1704.155707 0.5431 0.5453 0.5475 0.5496 0.5516
1709.173574 0.5537 0.5557 0.5571 0.5584 0.5597
1714.191440 0.5610 0.5621 0.5632 0.5659 0.5698
1719.209306 0.5740 0.5783 0.5826 0.5856 0.5885
1724.227172 0.5914 0.5942 0.5964 0.5987 0.6010
1729.245039 0.6032 0.6055 0.6083 0.6111 0.6139
1734.262905 0.6164 0.6181 0.6198 0.6215 0.6233
1739.280771 0.6250 0.6259 0.6263 0.6266 0.6269
1744.298637 0.6271 0.6274 0.6277 0.6280 0.6282
1749.316503 0.6285 0.6288 0.6291 0.6294 0.6296
1754.334370 0.6299 0.6302 0.6305 0.6307 0.6310
1759.352236 0.6313 0.6315 0.6318 0.6320 0.6322
1764.370102 0.6324 0.6326 0.6328 0.6331 0.6333
1769.387968 0.6335 0.6337 0.6340 0.6342 0.6344
1774.405835 0.6350 0.6365 0.6381 0.6397 0.6407
1779.423701 0.6415 0.6422 0.6422 0.6423 0.6424
1784.441567 0.6425 0.6426 0.6426 0.6426 0.6426
1789.459433 0.6427 0.6427 0.6427 0.6427 0.6427
1794.477299 0.6429 0.6431 0.6434 0.6436 0.6438
1799.495166 0.6440 0.6443 0.6446 0.6450 0.6453
1804.513032 0.6457 0.6461 0.6465 0.6468 0.6473
1809.530898 0.6479 0.6485 0.6491 0.6497 0.6503
1814.548764 0.6509 0.6515 0.6525 0.6536 0.6547
1819.566631 0.6558 0.6570 0.6574 0.6577 0.6579
1824.584497 0.6581 0.6584 0.6586 0.6589 0.6592
1829.602363 0.6594 0.6597 0.6600 0.6602 0.6605
1834.620229 0.6608 0.6610 0.6613 0.6612 0.6611
1839.638095 0.6611 0.6610 0.6609 0.6609 0.6608
1844.655962 0.6608 0.6609 0.6619 0.6631 0.6642
1849.673828 0.6652 0.6663 0.6673 0.6683 0.6691
1854.691694 0.6694 0.6696 0.6699 0.6702 0.6704
1859.709560 0.6706 0.6707 0.6709 0.6710 0.6711
1864.727427 0.6712 0.6714 0.6715 0.6716 0.6718
1869.745293 0.6719 0.6719 0.6720 0.6720 0.6721
1874.763159 0.6721 0.6722 0.6722 0.6723 0.6723
1879.781025 0.6724 0.6726 0.6727 0.6728 0.6729
1884.798891 0.6730 0.6732 0.6733 0.6734 0.6735
1889.816758 0.6737 0.6740 0.6744 0.6749 0.6753
1894.834624 0.6757 0.6761 0.6766 0.6771 0.6775
1899.852490 0.6780 0.6784 0.6787 0.6787 0.6786
1904.870356 0.6786 0.6786 0.6785 0.6785 0.6785
1909.888223 0.6785 0.6784 0.6784 0.6784 0.6778
1914.906089 0.6773 0.6783 0.6783 0.6783 0.6783
1919.923955 0.6785 0.6787 0.6789 0.6791 0.6793
1924.941821 0.6795 0.6797 0.6798 0.6798 0.6797
1929.959687 0.6797 0.6796 0.6796 0.6795 0.6795
1934.977554 0.6794 0.6794 0.6793 0.6793 0.6792
1939.995420 0.6792 0.6791 0.6790 0.6790 0.6789
1945.013286 0.6789 0.6789 0.6788 0.6788 0.6786
1950.031152 0.6783 0.6778 0.6773 0.6768 0.6763
1955.049019 0.6757 0.6751 0.6744 0.6737 0.6731
1960.066885 0.6724 0.6718 0.6711 0.6707 0.6705
1965.084751 0.6704 0.6702 0.6701 0.6699 0.6696
1970.102617 0.6695 0.6694 0.6693 0.6692 0.6692
1975.120483 0.6691 0.6692 0.6694 0.6695 0.6696
1980.138350 0.6698 0.6699 0.6701 0.6702 0.6702
1985.156216 0.6701 0.6699 0.6697 0.6695 0.6693
1990.174082 0.6691 0.6689 0.6687 0.6685 0.6683
1995.191948 0.6681 0.6679 0.6676 0.6674 0.6671
2000.209815 0.6668 0.6665 0.6662 0.6660 0.6656
2005.227681 0.6650 0.6645 0.6639 0.6633 0.6626
2010.245547 0.6615 0.6603 0.6591 0.6578 0.6567
2015.263413 0.6555 0.6543 0.6532 0.6525 0.6523
2020.281279 0.6520 0.6518 0.6515 0.6513 0.6513
2025.299146 0.6513 0.6513 0.6513 0.6513 0.6513
2030.317012 0.6514 0.6514 0.6514 0.6514 0.6511
2035.334878 0.6505 0.6500 0.6493 0.6485 0.6477
2040.352744 0.6468 0.6459 0.6451 0.6442 0.6432
2045.370611 0.6421 0.6410 0.6398 0.6383 0.6367
2050.388477 0.6352 0.6336 0.6320 0.6305 0.6289
2055.406343 0.6273 0.6258 0.6243 0.6230 0.6217
2060.424209 0.6204 0.6191 0.6179 0.6166 0.6153
2065.442075 0.6140 0.6127 0.6114 0.6101 0.6089
2070.459942 0.6076 0.6063 0.6049 0.6037 0.6021
2075.477808 0.6004 0.5988 0.5971 0.5955 0.5938
2080.495674 0.5921 0.5905 0.5888 0.5872 0.5855
2085.513540 0.5837 0.5816 0.5794 0.5771 0.5749
2090.531406 0.5727 0.5705 0.5682 0.5660 0.5638
2095.549273 0.5611 0.5580 0.5550 0.5526 0.5503
2100.567139 0.5481 0.5458 0.5435 0.5416 0.5401
2105.585005 0.5386 0.5371 0.5357 0.5342 0.5327
2110.602871 0.5312 0.5297 0.5283 0.5268 0.5252
2115.620738 0.5237 0.5222 0.5207 0.5192 0.5177
2120.638604 0.5162 0.5141 0.5117 0.5093 0.5063
2125.656470 0.5034 0.5000 0.4951 0.4900 0.4849
2130.674336 0.4806 0.4765 0.4723 0.4682 0.4642
2135.692202 0.4602 0.4562 0.4523 0.4483 0.4433
2140.710069 0.4381 0.4329 0.4277 0.4226 0.4188
2145.727935 0.4151 0.4115 0.4078 0.4041 0.4005
2150.745801 0.3958 0.3907 0.3856 0.3810 0.3769
2155.763667 0.3729 0.3693 0.3666 0.3639 0.3612
2160.781534 0.3585 0.3559 0.3532 0.3502 0.3467
2165.799400 0.3431 0.3395 0.3360 0.3325 0.3289
2170.817266 0.3254 0.3216 0.3177 0.3138 0.3099
2175.835132 0.3060 0.3020 0.2974 0.2928 0.2883
2180.852998 0.2837 0.2791 0.2741 0.2690 0.2639
2185.870865 0.2587 0.2531 0.2468 0.2406 0.2344
2190.888731 0.2305 0.2273 0.2241 0.2217 0.2208
2195.906597 0.2199 0.2191 0.2188 0.2190 0.2159
2200.924463 0.2199 0.2205 0.2225 0.2251 0.2287
2205.942330 0.2323 0.2360 0.2397 0.2436 0.2474
2210.960196 0.2512 0.2550 0.2589 0.2628 0.2666
2215.978062 0.2706 0.2747 0.2766 0.2785 0.2802
2220.995928 0.2820 0.2837 0.2855 0.2878 0.2904
2226.013794 0.2932 0.2962 0.2995 0.3044 0.3094
2231.031661 0.3142 0.3185 0.3227 0.3269 0.3309
2236.049527 0.3349 0.3388 0.3419 0.3435 0.3452
2241.067393 0.3468 0.3478 0.3480 0.3482 0.3488
2246.085259 0.3524 0.3622 0.3796 0.3863 0.3902
2251.103126 0.3913 0.3924 0.3936 0.3964 0.4067
2256.120992 0.4151 0.4193 0.4232 0.4259 0.4282
2261.138858 0.4305 0.4329 0.4351 0.4373 0.4393
2266.156724 0.4412 0.4430 0.4447 0.4463 0.4475
2271.174590 0.4487 0.4499 0.4510 0.4518 0.4520
2276.192457 0.4523 0.4525 0.4523 0.4516 0.4512
2281.210323 0.4507 0.4503 0.4498 0.4491 0.4484
2286.228189 0.4477 0.4470 0.4465 0.4459 0.4453
2291.246055 0.4448 0.4442 0.4437 0.4431 0.4425
2296.263922 0.4418 0.4411 0.4403 0.4396 0.4389
2301.281788 0.4381 0.4370 0.4360 0.4350 0.4339
2306.299654 0.4328 0.4312 0.4293 0.4273 0.4254
2311.317520 0.4237 0.4219 0.4201 0.4183 0.4165
2316.335386 0.4148 0.4130 0.4112 0.4094 0.4076
2321.353253 0.4058 0.4042 0.4027 0.4012 0.3997
2326.371119 0.3983 0.3968 0.3953 0.3938 0.3923
2331.388985 0.3908 0.3893 0.3878 0.3863 0.3848
2336.406851 0.3834 0.3819 0.3802 0.3785 0.3767
2341.424718 0.3749 0.3731 0.3714 0.3697 0.3682
2346.442584 0.3669 0.3657 0.3644 0.3632 0.3619
2351.460450 0.3607 0.3594 0.3584 0.3575 0.3566
2356.478316 0.3556 0.3547 0.3538 0.3529 0.3520
2361.496182 0.3513 0.3505 0.3498 0.3490 0.3480
2366.514049 0.3468 0.3457 0.3445 0.3433 0.3421
2371.531915 0.3409 0.3398 0.3386 0.3370 0.3349
2376.549781 0.3328 0.3306 0.3287 0.3269 0.3250
2381.567647 0.3232 0.3217 0.3207 0.3197 0.3187
2386.585514 0.3177 0.3168 0.3158 0.3149 0.3139
2391.603380 0.3130 0.3121 0.3112 0.3103 0.3092
2396.621246 0.3079 0.3066 0.3053 0.3041 0.3028
2401.639112 0.3015 0.3001 0.2988 0.2974 0.2961
2406.656978 0.2948 0.2934 0.2921 0.2908 0.2894
2411.674845 0.2877 0.2856 0.2833 0.2812 0.2790
2416.692711 0.2764 0.2736 0.2718 0.2706 0.2695
2421.710577 0.2683 0.2672 0.2660 0.2648 0.2637
2426.728443 0.2625 0.2614 0.2599 0.2580 0.2562
2431.746309 0.2543 0.2525 0.2500 0.2470 0.2439
2436.764176 0.2409 0.2378 0.2350 0.2325 0.2301
2441.782042 0.2276 0.2252 0.2228 0.2202 0.2175
2446.799908 0.2149 0.2122 0.2096 0.2070 0.2045
2451.817774 0.2019 0.1994 0.1969 0.1954 0.1944
2456.835641 0.1934 0.1924 0.1911 0.1890 0.1866
2461.853507 0.1842 0.1801 0.1760 0.1742 0.1733
2466.871373 0.1723 0.1713 0.1704 0.1694 0.1684
2471.889239 0.1675 0.1668 0.1662 0.1655 0.1649
2476.907105 0.1642 0.1636 0.1629 0.1623 0.1617
2481.924972 0.1611 0.1606 0.1601 0.1595 0.1590
2486.942838 0.1585 0.1579 0.1573 0.1563 0.1552
2491.960704 0.1541 0.1530 0.1519 0.1504 0.1487
2496.978570 0.1469 0.1451 0.1433 0.1414 0.1395
2501.996437 0.1376 0.1356 0.1337 0.1318 0.1301
2507.014303 0.1287 0.1273 0.1259 0.1245 0.1232
2512.032169 0.1218 0.1204 0.1190 0.1177 0.1165
2517.050035 0.1153 0.1141 0.1130 0.1118 0.1106
2522.067901 0.1094 0.1083 0.1071 0.1059 0.1050
2527.085768 0.1045 0.1041 0.1036 0.1031 0.1026
2532.103634 0.1021 0.1016 0.1012 0.1007 0.1002
2537.121500 0.0997 0.0993 0.0989 0.0986 0.0982
2542.139366 0.0979 0.0975 0.0972 0.0968 0.0965
2547.157233 0.0961 0.0952 0.0944 0.0936 0.0928
2552.175099 0.0923 0.0926 0.0926 0.0928 0.0929
2557.192965 0.0931 0.0933 0.0934 0.0936 0.0938
2562.210831 0.0940 0.0945 0.0950 0.0954 0.0959
2567.228697 0.0963 0.0968 0.0972 0.0977 0.0981
2572.246564 0.0984 0.0988 0.0991 0.0993 0.0993
2577.264430 0.0994 0.0994 0.0995 0.0995 0.0996
2582.282296 0.0996 0.0997 0.0997 0.0998 0.0998
2587.300162 0.0997 0.0997 0.0996 0.0995 0.0995
2592.318029 0.0994 0.0994 0.0993 0.0993 0.0992
2597.335895 0.0993 0.0993 0.0994 0.0994 0.0995
2602.353761 0.0995 0.0996 0.0996 0.0997 0.0997
2607.371627 0.0997 0.0998 0.0999 0.0999 0.1000
2612.389493 0.1001 0.1002 0.1003 0.1003 0.1004
2617.407360 0.1005 0.1006 0.1007 0.1008 0.1008
2622.425226 0.1009 0.1010 0.1011 0.1012 0.1012
2627.443092 0.1011 0.1011 0.1011 0.1011 0.1010
2632.460958 0.1010 0.1010 0.1010 0.1009 0.1009
2637.478825 0.1009 0.1009 0.1008 0.1008 0.1008
2642.496691 0.1008 0.1007 0.1007 0.1006 0.1005
2647.514557 0.1004 0.1003 0.1003 0.1002 0.1001
2652.532423 0.1000 0.0999 0.0997 0.0993 0.0988
2657.550289 0.0982 0.0976 0.0970 0.0964 0.0958
2662.568156 0.0952 0.0946 0.0941 0.0935 0.0929
2667.586022 0.0923 0.0917 0.0910 0.0904 0.0898
2672.603888 0.0892 0.0886 0.0880 0.0874 0.0870
2677.621754 0.0866 0.0863 0.0859 0.0856 0.0852
2682.639621 0.0849 0.0845 0.0842 0.0838 0.0835
2687.657487 0.0831 0.0828 0.0824 0.0821 0.0818
2692.675353 0.0814 0.0813 0.0812 0.0814 0.0817
2697.693219 0.0819 0.0821 0.0823 0.0826 0.0829
2702.711085 0.0838 0.0847 0.0856 0.0865 0.0873
2707.728952 0.0882 0.0890 0.0899 0.0907 0.0916
2712.746818 0.0926 0.0936 0.0945 0.0953 0.0959
2717.764684 0.0965 0.0971 0.0977 0.0983 0.0989
2722.782550 0.0995 0.1001 0.1007 0.1014 0.1019
2727.800417 0.1023 0.1027 0.1030 0.1034 0.1038
2732.818283 0.1040 0.1041 0.1042 0.1042 0.1043
2737.836149 0.1044 0.1044 0.1045 0.1045 0.1045
2742.854015 0.1045 0.1046 0.1046 0.1046 0.1046
2747.871881 0.1046 0.1046 0.1047 0.1046 0.1045
2752.889748 0.1044 0.1043 0.1043 0.1042 0.1041
2757.907614 0.1040 0.1039 0.1039 0.1038 0.1037
2762.925480 0.1036 0.1035 0.1035 0.1034 0.1033
2767.943346 0.1032 0.1031 0.1031 0.1030 0.1029
2772.961212 0.1028 0.1028 0.1028 0.1028 0.1029
2777.979079 0.1029 0.1029 0.1029 0.1029 0.1029
2782.996945 0.1030 0.1030 0.1030 0.1030 0.1030
2788.014811 0.1030 0.1031 0.1031 0.1031 0.1031
2793.032677 0.1031 0.1031 0.1032 0.1032 0.1032
2798.050544 0.1032 0.1034 0.1034 0.1033 0.1033
2803.068410 0.1033 0.1032 0.1032 0.1031 0.1030
2808.086276 0.1030 0.1029 0.1029 0.1028 0.1027
2813.104142 0.1027 0.1026 0.1026 0.1025 0.1025
2818.122008 0.1024 0.1023 0.1023 0.1022 0.1022
2823.139875 0.1021 0.1020 0.1020 0.1019 0.1019
2828.157741 0.1018 0.1019 0.1019 0.1019 0.1019
2833.175607 0.1019 0.1019 0.1019 0.1020 0.1020
2838.193473 0.1020 0.1020 0.1020 0.1020 0.1021
2843.211340 0.1021 0.1021 0.1021 0.1021 0.1021
2848.229206 0.1022 0.1022 0.1022 0.1022 0.1023
2853.247072 0.1024 0.1025 0.1026 0.1026 0.1027
2858.264938 0.1028 0.1029 0.1030 0.1031 0.1032
2863.282804 0.1033 0.1033 0.1034 0.1035 0.1036
2868.300671 0.1036 0.1037 0.1037 0.1038 0.1038
2873.318537 0.1039 0.1039 0.1039 0.1040 0.1040
2878.336403 0.1041 0.1041 0.1041 0.1040 0.1039
2883.354269 0.1038 0.1037 0.1035 0.1033 0.1028
2888.372136 0.1023 0.1018 0.1014 0.1009 0.1004
2893.390002 0.0997 0.0990 0.0982 0.0974 0.0966
2898.407868 0.0957 0.0944 0.0930 0.0916 0.0902
2903.425734 0.0888 0.0874 0.0861 0.0845 0.0824
2908.443600 0.0802 0.0780 0.0758 0.0736 0.0724
2913.461467 0.0715 0.0706 0.0697 0.0689 0.0680
2918.479333 0.0671 0.0663 0.0654 0.0645 0.0636
2923.497199 0.0629 0.0623 0.0617 0.0611 0.0605
2928.515065 0.0599 0.0592 0.0586 0.0582 0.0578
2933.532932 0.0575 0.0571 0.0567 0.0563 0.0560
2938.550798 0.0556 0.0552 0.0549 0.0547 0.0546
2943.568664 0.0544 0.0523 0.0541 0.0550 0.0556
2948.586530 0.0563 0.0569 0.0576 0.0582 0.0589
2953.604396 0.0595 0.0603 0.0613 0.0622 0.0632
2958.622263 0.0641 0.0650 0.0660 0.0669 0.0680
2963.640129 0.0691 0.0702 0.0713 0.0724 0.0734
2968.657995 0.0741 0.0748 0.0755 0.0762 0.0769
2973.675861 0.0775 0.0782 0.0789 0.0791 0.0793
2978.693728 0.0795 0.0798 0.0800 0.0802 0.0804
2983.711594 0.0805 0.0806 0.0806 0.0807 0.0808
2988.729460 0.0808 0.0809 0.0810 0.0812 0.0816
2993.747326 0.0820 0.0823 0.0827 0.0831 0.0835
2998.765192 0.0843 0.0855 0.0867 0.0879 0.0891
3003.783059 0.0903 0.0916 0.0929 0.0942 0.0956
3008.800925 0.0969 0.0975 0.0980 0.0986 0.0990
3013.818791 0.0993 0.0996 0.0998 0.1001 0.1004
3018.836657 0.1007 0.1010 0.1012 0.1014 0.1016
3023.854524 0.1018 0.1020 0.1022 0.1024 0.1026
3028.872390 0.1028 0.1032 0.1035 0.1039 0.1042
3033.890256 0.1046 0.1049 0.1053 0.1056 0.1060
3038.908122 0.1065 0.1073 0.1080 0.1087 0.1095
3043.925988 0.1102 0.1110 0.1118 0.1134 0.1159
3048.943855 0.1183 0.1207 0.1232 0.1260 0.1287
3053.961721 0.1310 0.1330 0.1351 0.1372 0.1392
3058.979587 0.1413 0.1433 0.1454 0.1474 0.1495
3063.997453 0.1515 0.1536 0.1557 0.1578 0.1598
3069.015320 0.1619 0.1640 0.1660 0.1681 0.1701
3074.033186 0.1722 0.1742 0.1763 0.1784 0.1804
3079.051052 0.1825 0.1845 0.1866 0.1886 0.1907
3084.068918 0.1928 0.1952 0.1975 0.1989 0.2003
3089.086784 0.2017 0.2031 0.2047 0.2071 0.2100
3094.104651 0.2129 0.2157 0.2188 0.2224 0.2261
3099.122517 0.2297 0.2334 0.2373 0.2415 0.2458
3104.140383 0.2500 0.2545 0.2590 0.2635 0.2677
3109.158249 0.2709 0.2735 0.2760 0.2783 0.2801
3114.176116 0.2819 0.2837 0.2855 0.2872 0.2888
3119.193982 0.2905 0.2924 0.2953 0.2986 0.3018
3124.211848 0.3051 0.3084 0.3118 0.3156 0.3195
3129.229714 0.3233 0.3271 0.3309 0.3346 0.3383
3134.247580 0.3420 0.3456 0.3493 0.3528 0.3557
3139.265447 0.3582 0.3607 0.3632 0.3658 0.3683
3144.283313 0.3707 0.3728 0.3746 0.3764 0.3782
3149.301179 0.3800 0.3818 0.3834 0.3846 0.3857
3154.319045 0.3868 0.3880 0.3891 0.3902 0.3914
3159.336911 0.3925 0.3936 0.3946 0.3957 0.3968
3164.354778 0.3979 0.3991 0.4002 0.4016 0.4031
3169.372644 0.4045 0.4060 0.4074 0.4089 0.4103
3174.390510 0.4119 0.4136 0.4152 0.4168 0.4184
3179.408376 0.4201 0.4213 0.4219 0.4225 0.4231
3184.426243 0.4235 0.4237 0.4239 0.4241 0.4244
3189.444109 0.4246 0.4248 0.4250 0.4252 0.4253
3194.461975 0.4254 0.4254 0.4280 0.4281 0.4253
3199.479841 0.4253 0.4252 0.4251 0.4250 0.4249
3204.497707 0.4247 0.4245 0.4244 0.4242 0.4237
3209.515574 0.4229 0.4221 0.4213 0.4205 0.4196
3214.533440 0.4182 0.4164 0.4146 0.4128 0.4105
3219.551306 0.4073 0.4037 0.3976 0.3863 0.3725
3224.569172 0.3588 0.3451 0.3313 0.3176 0.3038
3229.587039 0.2900 0.2763 0.2626 0.2488 0.2351
3234.604905 0.2214 0.2091 0.2026 0.2001 0.1989
3239.622771 0.1983 0.1984 0.1967 0.1981 0.2008
3244.640637 0.2037 0.2116 0.2193 0.2252 0.2337
3249.658503 0.2499 0.2595 0.2615 0.2631 0.2727
3254.676370 0.2906 0.3108 0.3310 0.3447 0.3515
3259.694236 0.3546 0.3566 0.3578 0.3587 0.3597
3264.712102 0.3609 0.3623 0.3643 0.3679 0.3830
3269.729968 0.3968 0.4059 0.4109 0.4133 0.4146
3274.747835 0.4157 0.4167 0.4178 0.4188 0.4199
3279.765701 0.4210 0.4221 0.4232 0.4243 0.4254
3284.783567 0.4266 0.4278 0.4291 0.4304 0.4316
3289.801433 0.4329 0.4341 0.4353 0.4365 0.4377
3294.819299 0.4389 0.4401 0.4414 0.4426 0.4438
3299.837166 0.4450 0.4460 0.4470 0.4478 0.4487
3304.855032 0.4496 0.4505 0.4513 0.4522 0.4531
3309.872898 0.4540 0.4546 0.4552 0.4558 0.4564
3314.890764 0.4569 0.4575 0.4580 0.4584 0.4589
3319.908631 0.4593 0.4597 0.4601 0.4605 0.4609
3324.926497 0.4628 0.4618 0.4615 0.4615 0.4615
3329.944363 0.4615 0.4615 0.4615 0.4613 0.4610
3334.962229 0.4608 0.4606 0.4604 0.4602 0.4600
3339.980095 0.4598 0.4596 0.4594 0.4592 0.4591
3344.997962 0.4590 0.4589 0.4589 0.4588 0.4587
3350.015828 0.4587 0.4586 0.4585 0.4584 0.4582
3355.033694 0.4579 0.4577 0.4575 0.4573 0.4570
3360.051560 0.4568 0.4566 0.4562 0.4555 0.4546
3365.069427 0.4538 0.4530 0.4521 0.4513 0.4505
3370.087293 0.4497 0.4491 0.4485 0.4478 0.4472
3375.105159 0.4466 0.4460 0.4454 0.4448 0.4442
3380.123025 0.4439 0.4436 0.4434 0.4431 0.4429
3385.140891 0.4426 0.4423 0.4421 0.4418 0.4416
3390.158758 0.4413 0.4410 0.4409 0.4409 0.4408
3395.176624 0.4408 0.4408 0.4407 0.4407 0.4407
3400.194490 0.4407 0.4395 0.4410 0.4411 0.4412
3405.212356 0.4413 0.4415 0.4416 0.4417 0.4418
3410.230223 0.4419 0.4420 0.4421 0.4423 0.4424
3415.248089 0.4426 0.4429 0.4431 0.4434 0.4436
3420.265955 0.4439 0.4442 0.4444 0.4447 0.4450
3425.283821 0.4455 0.4459 0.4463 0.4467 0.4471
3430.301687 0.4476 0.4481 0.4488 0.4495 0.4502
3435.319554 0.4510 0.4517 0.4523 0.4527 0.4532
3440.337420 0.4537 0.4542 0.4547 0.4553 0.4558
3445.355286 0.4563 0.4569 0.4575 0.4580 0.4586
3450.373152 0.4591 0.4597 0.4605 0.4614 0.4622
3455.391019 0.4631 0.4640 0.4649 0.4658 0.4667
3460.408885 0.4675 0.4684 0.4693 0.4702 0.4711
3465.426751 0.4719 0.4728 0.4737 0.4746 0.4755
3470.444617 0.4763 0.4771 0.4779 0.4788 0.4796
3475.462483 0.4805 0.4813 0.4821 0.4830 0.4838
3480.480350 0.4846 0.4855 0.4864 0.4872 0.4880
3485.498216 0.4888 0.4897 0.4906 0.4916 0.4927
3490.516082 0.4937 0.4947 0.4958 0.4968 0.4978
3495.533948 0.4989 0.4999 0.5010 0.5020 0.5031
3500.551814 0.5041 0.5052 0.5064 0.5076 0.5088
3505.569681 0.5100 0.5112 0.5124 0.5136 0.5148
3510.587547 0.5160 0.5172 0.5184 0.5196 0.5208
3515.605413 0.5220 0.5231 0.5243 0.5254 0.5266
3520.623279 0.5277 0.5288 0.5300 0.5311 0.5323
3525.641146 0.5334 0.5346 0.5357 0.5369 0.5380
3530.659012 0.5392 0.5404 0.5416 0.5428 0.5440
3535.676878 0.5452 0.5464 0.5476 0.5488 0.5500
3540.694744 0.5512 0.5524 0.5536 0.5548 0.5560
3545.712610 0.5573 0.5585 0.5599 0.5611 0.5624
3550.730477 0.5636 0.5649 0.5661 0.5674 0.5687
3555.748343 0.5699 0.5712 0.5726 0.5740 0.5753
3560.766209 0.5767 0.5781 0.5794 0.5808 0.5821
3565.784075 0.5835 0.5849 0.5863 0.5877 0.5890
3570.801942 0.5904 0.5917 0.5931 0.5946 0.5960
3575.819808 0.5975 0.5990 0.6004 0.6019 0.6033
3580.837674 0.6048 0.6062 0.6077 0.6091 0.6105
3585.855540 0.6119 0.6133 0.6147 0.6161 0.6175
3590.873406 0.6189 0.6203 0.6217 0.6231 0.6245
3595.891273 0.6258 0.6271 0.6284 0.6297 0.6311
3600.909139 0.6324 0.6337 0.6350 0.6363 0.6376
3605.927005 0.6387 0.6399 0.6410 0.6421 0.6432
3610.944871 0.6444 0.6455 0.6467 0.6476 0.6483
3615.962738 0.6490 0.6497 0.6504 0.6511 0.6518
3620.980604 0.6525 0.6532 0.6540 0.6549 0.6558
3625.998470 0.6567 0.6577 0.6586 0.6595 0.6603
3631.016336 0.6612 0.6620 0.6629 0.6638 0.6646
3636.034202 0.6655 0.6664 0.6672 0.6681 0.6689
3641.052069 0.6698 0.6706 0.6714 0.6721 0.6729
3646.069935 0.6736 0.6744 0.6751 0.6759 0.6766
3651.087801 0.6774 0.6781 0.6789 0.6796 0.6804
3656.105667 0.6811 0.6819 0.6826 0.6833 0.6840
3661.123534 0.6847 0.6853 0.6860 0.6866 0.6873
3666.141400 0.6879 0.6886 0.6893 0.6900 0.6906
3671.159266 0.6913 0.6919 0.6926 0.6932 0.6939
3676.177132 0.6943 0.6947 0.6951 0.6955 0.6959
3681.194998 0.6962 0.6966 0.6970 0.6974 0.6978
3686.212865 0.6981 0.6985 0.6989 0.6993 0.6997
3691.230731 0.7000 0.7004 0.7008 0.7011 0.7013
3696.248597 0.7015 0.7017 0.7019 0.7021 0.7023
3701.266463 0.7025 0.7027 0.7029 0.7032 0.7034
3706.284330 0.7036 0.7038 0.7040 0.7042 0.7044
3711.302196 0.7047 0.7048 0.7051 0.7052 0.7054
3716.320062 0.7055 0.7057 0.7058 0.7059 0.7061
3721.337928 0.7062 0.7064 0.7065 0.7066 0.7068
3726.355794 0.7069 0.7071 0.7072 0.7073 0.7075
3731.373661 0.7076 0.7077 0.7088 0.7082 0.7081
3736.391527 0.7082 0.7083 0.7085 0.7086 0.7087
3741.409393 0.7088 0.7089 0.7091 0.7092 0.7093
3746.427259 0.7094 0.7095 0.7097 0.7098 0.7099
3751.445126 0.7100 0.7101 0.7101 0.7102 0.7103
3756.462992 0.7104 0.7105 0.7106 0.7107 0.7108
3761.480858 0.7109 0.7110 0.7111 0.7111 0.7111
3766.498724 0.7111 0.7111 0.7111 0.7111 0.7112
3771.516590 0.7112 0.7112 0.7112 0.7112 0.7112
3776.534457 0.7113 0.7113 0.7113 0.7113 0.7113
3781.552323 0.7113 0.7114 0.7114 0.7114 0.7114
3786.570189 0.7114 0.7114 0.7114 0.7114 0.7114
3791.588055 0.7114 0.7114 0.7114 0.7114 0.7114
3796.605922 0.7114 0.7114 0.7114 0.7114 0.7114
3801.623788 0.7114 0.7114 0.7114 0.7114 0.7114
3806.641654 0.7114 0.7114 0.7114 0.7114 0.7115
3811.659520 0.7115 0.7115
##END=
