##TITLE=2-CARBOXYBENZOYL FERROCENE
##JCAMP-DX=4.24
##DATA TYPE=INFRARED SPECTRUM
##CLASS=COBLENTZ
##ORIGIN=WYANDOTTE CHEMICALS CORP., WYANDOTTE, MICHIGAN, USA
##OWNER=COBLENTZ SOCIETY
Collection (C) 2018 copyright by the U.S. Secretary of Commerce
on behalf of the United States of America. All rights reserved.
##DATE=Not specified, most likely prior to 1970
##MOLFORM=C18 H14 O3 Fe
##MP=190-195 C
##SOURCE REFERENCE=COBLENTZ NO. 3022
##$NIST ID=B6003022
##$NIST SOURCE=COBLENTZ
##$NIST IMAGE=cob3022
##SPECTROMETER/DATA SYSTEM=Not specified, most likely a prism, grating, or hybrid spectrometer.
##STATE=SOLID (MINERAL OIL MULL)
##PATH LENGTH=
$$SPECTRAL CONTAMINATION DUE TO OIL AROUND 2900 CM^-^1
##SAMPLING PROCEDURE=TRANSMISSION
##RESOLUTION=4
##DATA PROCESSING=DIGITIZED BY NIST FROM HARD COPY
##XUNITS=MICROMETERS
##YUNITS=TRANSMITTANCE
##XFACTOR=1.000000
##YFACTOR=1
##DELTAX=000.006816
##FIRSTX=2.075
##LASTX=15.9868
##FIRSTY=0.588
##MAXX=15.9868
##MINX=2.075
##MAXY=0.929
##MINY=0.054
##NPOINTS=2042
##XYDATA=(X++(Y..Y))
2.075000 0.5880 0.5930 0.5980 0.6000 0.6010
2.109097 0.6050 0.6080 0.6110 0.6150 0.6170
2.143000 0.6170 0.6170 0.6180 0.6200 0.6180
2.177097 0.6180 0.6180 0.6170 0.6150 0.6150
2.211000 0.6150 0.6170 0.6180 0.6220 0.6290
2.245097 0.6290 0.6320 0.6340 0.6350 0.6350
2.279000 0.6350 0.6370 0.6390 0.6420 0.6420
2.313097 0.6470 0.6470 0.6510 0.6580 0.6580
2.348000 0.6580 0.6580 0.6580 0.6590 0.6610
2.382097 0.6630 0.6660 0.6660 0.6680 0.6680
2.416000 0.6680 0.6680 0.6640 0.6610 0.6610
2.450097 0.6590 0.6590 0.6610 0.6640 0.6680
2.484000 0.6700 0.6710 0.6730 0.6780 0.6850
2.518097 0.6880 0.6900 0.6900 0.6920 0.6940
2.552000 0.6950 0.6950 0.6970 0.6970 0.6990
2.586097 0.7000 0.7020 0.7040 0.7070 0.7110
2.620000 0.7140 0.7140 0.7160 0.7170 0.7190
2.654097 0.7210 0.7260 0.7280 0.7260 0.7260
2.688000 0.7260 0.7260 0.7260 0.7280 0.7290
2.722097 0.7290 0.7280 0.7260 0.7240 0.7230
2.757000 0.7210 0.7210 0.7170 0.7120 0.7110
2.791097 0.7040 0.6970 0.6950 0.6950 0.6990
2.825000 0.6990 0.6990 0.6920 0.6880 0.6820
2.859097 0.6780 0.6700 0.6660 0.6610 0.6590
2.893000 0.6590 0.6580 0.6580 0.6610 0.6630
2.927097 0.6630 0.6590 0.6560 0.6560 0.6520
2.961000 0.6520 0.6510 0.6510 0.6490 0.6460
2.995097 0.6420 0.6370 0.6320 0.6250 0.6200
3.029000 0.6180 0.6150 0.6130 0.6110 0.6100
3.063097 0.6050 0.6000 0.5930 0.5890 0.5820
3.097000 0.5770 0.5720 0.5620 0.5520 0.5410
3.131097 0.5360 0.5280 0.5170 0.5090 0.5020
3.166000 0.4920 0.4750 0.4560 0.4270 0.3960
3.200097 0.3670 0.3450 0.3400 0.3360 0.3330
3.234000 0.3360 0.3400 0.3400 0.3350 0.3230
3.268097 0.3120 0.3000 0.2900 0.2710 0.2420
3.302000 0.2150 0.1910 0.1600 0.1310 0.1020
3.336097 0.0920 0.0780 0.0660 0.0590 0.0580
3.370000 0.0560 0.0540 0.0540 0.0540 0.0560
3.404097 0.0580 0.0610 0.0610 0.0630 0.0640
3.438000 0.0640 0.0660 0.0660 0.0660 0.0640
3.472097 0.0640 0.0630 0.0630 0.0710 0.0990
3.506000 0.1280 0.1570 0.1840 0.2130 0.2390
3.540097 0.2640 0.2850 0.3020 0.3160 0.3350
3.574000 0.3500 0.3620 0.3770 0.3890 0.3940
3.608097 0.4000 0.4030 0.4030 0.4000 0.3890
3.643000 0.3860 0.3840 0.3840 0.3820 0.3810
3.677097 0.3720 0.3570 0.3280 0.3140 0.3090
3.711000 0.3070 0.3090 0.3110 0.3110 0.3110
3.745097 0.3120 0.3160 0.3230 0.3330 0.3410
3.779000 0.3530 0.3620 0.3690 0.3720 0.3740
3.813097 0.3740 0.3690 0.3580 0.3520 0.3470
3.847000 0.3360 0.3190 0.3110 0.3050 0.3000
3.881097 0.2920 0.2900 0.2880 0.2830 0.2830
3.915000 0.2880 0.2990 0.3040 0.3090 0.3170
3.949097 0.3260 0.3350 0.3430 0.3580 0.3670
3.983000 0.3760 0.3810 0.3910 0.4010 0.4150
4.017097 0.4200 0.4300 0.4390 0.4490 0.4590
4.052000 0.4680 0.4760 0.4820 0.4870 0.4900
4.086097 0.4990 0.5020 0.5070 0.5090 0.5160
4.120000 0.5170 0.5190 0.5230 0.5290 0.5330
4.154097 0.5380 0.5470 0.5530 0.5600 0.5670
4.188000 0.5690 0.5700 0.5770 0.5820 0.5820
4.222097 0.5820 0.5840 0.5880 0.5910 0.5940
4.256000 0.5980 0.6010 0.6050 0.6060 0.6100
4.290097 0.6150 0.6180 0.6200 0.6270 0.6340
4.324000 0.6390 0.6470 0.6540 0.6640 0.6710
4.358097 0.6750 0.6780 0.6880 0.6900 0.6950
4.392000 0.6990 0.7000 0.7000 0.7020 0.7020
4.426097 0.7040 0.7040 0.7050 0.7050 0.7050
4.461000 0.7070 0.7070 0.7110 0.7160 0.7190
4.495097 0.7230 0.7240 0.7260 0.7280 0.7290
4.529000 0.7330 0.7350 0.7380 0.7410 0.7480
4.563097 0.7550 0.7580 0.7580 0.7600 0.7620
4.597000 0.7620 0.7620 0.7620 0.7640 0.7690
4.631097 0.7720 0.7760 0.7770 0.7770 0.7770
4.665000 0.7790 0.7810 0.7840 0.7910 0.8000
4.699097 0.8030 0.8030 0.8000 0.7960 0.7930
4.733000 0.7910 0.7910 0.7910 0.7930 0.7980
4.767097 0.7980 0.8000 0.8010 0.8050 0.8080
4.801000 0.8110 0.8170 0.8220 0.8290 0.8300
4.835097 0.8320 0.8350 0.8390 0.8410 0.8410
4.870000 0.8410 0.8410 0.8410 0.8420 0.8490
4.904097 0.8490 0.8490 0.8490 0.8490 0.8440
4.938000 0.8440 0.8470 0.8490 0.8490 0.8510
4.972097 0.8510 0.8510 0.8510 0.8520 0.8540
5.006000 0.8540 0.8520 0.8510 0.8460 0.8370
5.040097 0.8350 0.8370 0.8390 0.8410 0.8440
5.074000 0.8490 0.8490 0.8490 0.8510 0.8510
5.108097 0.8490 0.8440 0.8370 0.8300 0.8270
5.142000 0.8300 0.8390 0.8410 0.8440 0.8470
5.176097 0.8510 0.8540 0.8540 0.8510 0.8420
5.210000 0.8320 0.8300 0.8300 0.8300 0.8300
5.244097 0.8290 0.8290 0.8290 0.8290 0.8300
5.278000 0.8300 0.8300 0.8300 0.8300 0.8300
5.312097 0.8300 0.8300 0.8300 0.8300 0.8290
5.347000 0.8270 0.8270 0.8320 0.8370 0.8370
5.381097 0.8390 0.8410 0.8410 0.8410 0.8350
5.415000 0.8220 0.8200 0.8180 0.8220 0.8250
5.449097 0.8290 0.8290 0.8220 0.8200 0.8200
5.483000 0.8220 0.8250 0.8200 0.8150 0.8110
5.517097 0.8080 0.8010 0.7930 0.7840 0.7820
5.551000 0.7810 0.7790 0.7770 0.7740 0.7700
5.585097 0.7700 0.7650 0.7600 0.7520 0.7470
5.619000 0.7400 0.7330 0.7280 0.7260 0.7280
5.653097 0.7290 0.7310 0.7330 0.7400 0.7480
5.687000 0.7520 0.7600 0.7640 0.7640 0.7600
5.721097 0.7550 0.7500 0.7480 0.7430 0.7430
5.756000 0.7400 0.7310 0.7210 0.7110 0.6970
5.790097 0.6780 0.6510 0.5930 0.5430 0.5090
5.824000 0.4680 0.4390 0.4060 0.3450 0.3000
5.858097 0.2420 0.1820 0.1280 0.0920 0.0800
5.892000 0.0710 0.0700 0.0680 0.0680 0.0640
5.926097 0.0610 0.0610 0.0730 0.0800 0.0940
5.960000 0.1050 0.1210 0.1230 0.1160 0.1000
5.994097 0.0830 0.0730 0.0710 0.0750 0.1170
6.028000 0.1600 0.2000 0.2410 0.3160 0.3350
6.062097 0.3550 0.4000 0.4340 0.4540 0.4780
6.096000 0.4900 0.5020 0.5210 0.5400 0.5580
6.130097 0.5690 0.5790 0.5940 0.6030 0.6110
6.165000 0.6130 0.6100 0.5960 0.5690 0.4970
6.199097 0.4100 0.3500 0.3050 0.3050 0.3280
6.233000 0.4370 0.4870 0.5170 0.5210 0.5190
6.267097 0.5000 0.4520 0.4010 0.2700 0.2320
6.301000 0.2410 0.3280 0.3910 0.4510 0.4850
6.335097 0.5000 0.5140 0.5400 0.5670 0.6080
6.369000 0.6540 0.6850 0.6950 0.7020 0.7160
6.403097 0.7290 0.7330 0.7360 0.7380 0.7410
6.437000 0.7520 0.7640 0.7820 0.7930 0.7980
6.471097 0.7980 0.7890 0.7840 0.7820 0.7810
6.505000 0.7810 0.7810 0.7860 0.7880 0.7890
6.539097 0.7930 0.7980 0.7980 0.7980 0.7890
6.574000 0.7770 0.7720 0.7760 0.7720 0.7650
6.608097 0.7550 0.7350 0.7050 0.6610 0.6220
6.642000 0.5840 0.5470 0.5110 0.4750 0.4610
6.676097 0.4510 0.4970 0.5530 0.5770 0.5880
6.710000 0.5910 0.5910 0.5880 0.5740 0.5160
6.744097 0.4560 0.3910 0.3360 0.2990 0.2750
6.778000 0.2590 0.2510 0.2460 0.2370 0.2250
6.812097 0.1960 0.1620 0.1400 0.1230 0.1190
6.846000 0.1170 0.1210 0.1500 0.1890 0.2250
6.880097 0.2490 0.2630 0.2780 0.2990 0.2990
6.914000 0.2880 0.2560 0.2230 0.2010 0.1820
6.948097 0.1770 0.1770 0.2000 0.2420 0.2900
6.982000 0.3170 0.3280 0.3520 0.3860 0.4180
7.016097 0.4470 0.4610 0.4750 0.4900 0.5050
7.051000 0.5240 0.5400 0.5550 0.5810 0.6010
7.085097 0.6230 0.6390 0.6490 0.6520 0.6560
7.119000 0.6580 0.6510 0.6370 0.6220 0.6200
7.153097 0.6200 0.6220 0.6230 0.6230 0.6180
7.187000 0.5600 0.5120 0.4630 0.4050 0.3450
7.221097 0.3160 0.2580 0.2130 0.2130 0.2800
7.255000 0.3820 0.4470 0.4970 0.5290 0.5430
7.289097 0.5580 0.5650 0.5820 0.5960 0.6130
7.323000 0.6180 0.6200 0.6180 0.6130 0.5910
7.357097 0.5760 0.5700 0.5720 0.5720 0.5810
7.391000 0.5810 0.5650 0.5430 0.5210 0.5170
7.425097 0.5120 0.5090 0.5000 0.4920 0.4680
7.460000 0.4440 0.3820 0.3120 0.2610 0.2200
7.494097 0.1860 0.1600 0.1350 0.1170 0.1120
7.528000 0.1110 0.1090 0.1090 0.1050 0.1050
7.562097 0.1040 0.1000 0.0990 0.0970 0.0950
7.596000 0.0880 0.0850 0.0820 0.0760 0.0760
7.630097 0.0870 0.0970 0.1070 0.1280 0.1470
7.664000 0.1620 0.1700 0.1760 0.1740 0.1720
7.698097 0.1720 0.1650 0.1570 0.1520 0.1430
7.732000 0.1360 0.1240 0.1160 0.0920 0.0900
7.766097 0.0920 0.1190 0.1470 0.1770 0.2460
7.800000 0.3330 0.4180 0.4830 0.5050 0.5280
7.834097 0.5470 0.5690 0.6000 0.6050 0.6100
7.869000 0.6010 0.5470 0.4920 0.4370 0.3670
7.903097 0.2880 0.2300 0.2300 0.2710 0.3240
7.937000 0.3760 0.4060 0.4410 0.4750 0.5050
7.971097 0.5360 0.5620 0.5910 0.6100 0.6250
8.005000 0.6440 0.6590 0.6760 0.6830 0.6880
8.039097 0.6880 0.6920 0.6950 0.6990 0.6990
8.073000 0.7020 0.7070 0.7160 0.7280 0.7310
8.107097 0.7330 0.7360 0.7380 0.7450 0.7500
8.141000 0.7530 0.7620 0.7700 0.7740 0.7740
8.175097 0.7670 0.7570 0.7500 0.7290 0.7210
8.209000 0.7210 0.7280 0.7350 0.7450 0.7580
8.243097 0.7640 0.7700 0.7810 0.7880 0.7960
8.278000 0.8000 0.8010 0.8010 0.8030 0.8060
8.312097 0.8080 0.8080 0.8100 0.8080 0.8060
8.346000 0.8010 0.8000 0.7940 0.7930 0.7860
8.380097 0.7860 0.7880 0.7910 0.8000 0.7910
8.414000 0.7810 0.7740 0.7650 0.7470 0.7260
8.448097 0.7070 0.6850 0.6440 0.5940 0.5290
8.482000 0.4780 0.4370 0.4300 0.4390 0.4920
8.516097 0.5520 0.6050 0.6510 0.6830 0.6920
8.550000 0.6990 0.6990 0.6900 0.6880 0.6830
8.584097 0.6760 0.6750 0.6710 0.6800 0.7050
8.618000 0.7240 0.7450 0.7550 0.7740 0.7790
8.652097 0.7770 0.7530 0.7190 0.6870 0.6760
8.686000 0.6760 0.6920 0.7260 0.7530 0.7790
8.720097 0.7980 0.8060 0.8180 0.8220 0.8230
8.755000 0.8290 0.8340 0.8370 0.8420 0.8490
8.789097 0.8520 0.8610 0.8700 0.8750 0.8780
8.823000 0.8760 0.8730 0.8710 0.8700 0.8700
8.857097 0.8730 0.8730 0.8700 0.8700 0.8680
8.891000 0.8680 0.8680 0.8660 0.8640 0.8590
8.925097 0.8580 0.8560 0.8520 0.8460 0.8350
8.959000 0.8100 0.7740 0.7280 0.6580 0.5600
8.993097 0.4760 0.4230 0.4050 0.4230 0.5410
9.027000 0.6590 0.7240 0.7550 0.7690 0.7720
9.061097 0.7790 0.7910 0.8000 0.8030 0.8030
9.095000 0.8000 0.7860 0.7640 0.7400 0.7070
9.129097 0.6780 0.6300 0.5880 0.5410 0.5360
9.164000 0.5360 0.5570 0.5960 0.6460 0.6760
9.198097 0.7160 0.7470 0.7690 0.7860 0.7980
9.232000 0.8050 0.8080 0.8080 0.8080 0.8100
9.266097 0.8180 0.8200 0.8200 0.8150 0.8050
9.300000 0.7980 0.7880 0.7810 0.7760 0.7740
9.334097 0.7740 0.7770 0.7810 0.7810 0.7820
9.368000 0.7820 0.7790 0.7720 0.7600 0.7450
9.402097 0.7260 0.6990 0.6640 0.6540 0.6370
9.436000 0.6230 0.5980 0.5770 0.5410 0.5290
9.470097 0.5280 0.5400 0.5740 0.6030 0.6340
9.504000 0.6520 0.6630 0.6660 0.6660 0.6660
9.538097 0.6660 0.6640 0.6520 0.6350 0.6110
9.573000 0.5840 0.5580 0.5520 0.5690 0.5820
9.607097 0.6060 0.6440 0.6560 0.6680 0.6800
9.641000 0.6870 0.6870 0.6710 0.6590 0.6510
9.675097 0.6490 0.6510 0.6590 0.6610 0.6590
9.709000 0.6510 0.6320 0.6100 0.5810 0.5470
9.743097 0.5400 0.5410 0.5770 0.6110 0.6580
9.777000 0.6900 0.7140 0.7310 0.7480 0.7650
9.811097 0.7760 0.7810 0.7820 0.7840 0.7860
9.845000 0.7880 0.7880 0.7840 0.7820 0.7790
9.879097 0.7650 0.7520 0.7380 0.7160 0.6970
9.913000 0.6750 0.6560 0.6390 0.6250 0.6130
9.947097 0.6100 0.6010 0.5980 0.5980 0.6110
9.981000 0.6270 0.6320 0.6490 0.6660 0.6870
10.015097 0.7070 0.7280 0.7520 0.7650 0.7790
10.050000 0.7940 0.8050 0.8170 0.8200 0.8220
10.084097 0.8250 0.8270 0.8300 0.8340 0.8390
10.118000 0.8420 0.8440 0.8420 0.8420 0.8410
10.152097 0.8370 0.8320 0.8290 0.8230 0.8180
10.186000 0.8180 0.8170 0.8130 0.8100 0.8060
10.220097 0.8010 0.7960 0.7880 0.7790 0.7770
10.254000 0.7720 0.7670 0.7640 0.7580 0.7500
10.288097 0.7470 0.7380 0.7280 0.7140 0.7000
10.322000 0.6850 0.6630 0.6390 0.6200 0.6050
10.356097 0.5960 0.5940 0.5960 0.6060 0.6340
10.390000 0.6510 0.6680 0.6870 0.6950 0.7020
10.424097 0.7040 0.7020 0.7000 0.6970 0.6750
10.459000 0.6540 0.6350 0.6050 0.5690 0.5350
10.493097 0.4950 0.4560 0.4320 0.4180 0.4170
10.527000 0.4220 0.4410 0.4660 0.4870 0.4970
10.561097 0.5040 0.5070 0.5050 0.4990 0.4850
10.595000 0.4750 0.4630 0.4520 0.4440 0.4340
10.629097 0.4250 0.4180 0.4110 0.4030 0.3980
10.663000 0.3890 0.3860 0.3860 0.3910 0.4000
10.697097 0.4050 0.4130 0.4200 0.4300 0.4460
10.731000 0.4610 0.4710 0.4820 0.4950 0.5050
10.765097 0.5210 0.5380 0.5500 0.5580 0.5650
10.799000 0.5740 0.5860 0.5940 0.6030 0.6100
10.833097 0.6200 0.6300 0.6390 0.6470 0.6540
10.868000 0.6680 0.6730 0.6820 0.6950 0.6990
10.902097 0.7020 0.7070 0.7140 0.7210 0.7280
10.936000 0.7330 0.7410 0.7480 0.7500 0.7520
10.970097 0.7520 0.7520 0.7550 0.7550 0.7520
11.004000 0.7430 0.7360 0.7280 0.7170 0.7160
11.038097 0.7140 0.7140 0.7110 0.7090 0.7110
11.072000 0.7170 0.7290 0.7410 0.7500 0.7600
11.106097 0.7690 0.7810 0.7940 0.8000 0.8000
11.140000 0.8010 0.8080 0.8100 0.8110 0.8110
11.174097 0.8100 0.8080 0.8030 0.8010 0.7910
11.208000 0.7700 0.7550 0.7480 0.7360 0.7260
11.242097 0.7190 0.7090 0.7000 0.6970 0.6920
11.277000 0.6870 0.6850 0.6870 0.6880 0.6920
11.311097 0.6990 0.7050 0.7140 0.7260 0.7450
11.345000 0.7580 0.7700 0.7840 0.7980 0.8030
11.379097 0.8080 0.8080 0.8100 0.8130 0.8220
11.413000 0.8320 0.8440 0.8520 0.8630 0.8730
11.447097 0.8850 0.8970 0.8990 0.8990 0.9020
11.481000 0.9050 0.9050 0.9040 0.9020 0.9000
11.515097 0.8990 0.8970 0.8990 0.8990 0.8970
11.549000 0.8920 0.8880 0.8880 0.8820 0.8780
11.583097 0.8750 0.8710 0.8730 0.8710 0.8630
11.617000 0.8540 0.8510 0.8460 0.8340 0.8230
11.651097 0.8050 0.7930 0.7640 0.7260 0.6900
11.685000 0.6420 0.6000 0.5410 0.4920 0.4420
11.719097 0.4200 0.4130 0.4180 0.4460 0.4900
11.754000 0.5310 0.5820 0.6250 0.6640 0.6940
11.788097 0.7160 0.7310 0.7500 0.7670 0.7740
11.822000 0.7770 0.7770 0.7740 0.7720 0.7700
11.856097 0.7700 0.7760 0.7910 0.8000 0.8100
11.890000 0.8180 0.8270 0.8300 0.8320 0.8320
11.924097 0.8320 0.8290 0.8100 0.7960 0.7760
11.958000 0.7530 0.7260 0.7000 0.6780 0.6510
11.992097 0.6470 0.6510 0.6580 0.6630 0.6630
12.026000 0.6630 0.6610 0.6540 0.6440 0.6290
12.060097 0.6060 0.5930 0.5740 0.5520 0.5140
12.094000 0.4800 0.4410 0.4050 0.3700 0.3450
12.128097 0.3260 0.3210 0.3210 0.3230 0.3310
12.163000 0.3410 0.3480 0.3500 0.3500 0.3400
12.197097 0.3240 0.3070 0.2940 0.2630 0.2350
12.231000 0.2270 0.2200 0.2170 0.2170 0.2200
12.265097 0.2290 0.2370 0.2510 0.2730 0.2900
12.299000 0.3040 0.3350 0.3550 0.3790 0.4030
12.333097 0.4230 0.4390 0.4540 0.4640 0.4680
12.367000 0.4700 0.4730 0.4760 0.4780 0.4780
12.401097 0.4780 0.4780 0.4780 0.4730 0.4700
12.435000 0.4680 0.4590 0.4510 0.4410 0.4370
12.469097 0.4390 0.4460 0.4540 0.4710 0.5000
12.503000 0.5400 0.5760 0.6080 0.6410 0.6700
12.537097 0.6990 0.7230 0.7380 0.7500 0.7650
12.572000 0.7840 0.8000 0.8050 0.8150 0.8230
12.606097 0.8370 0.8490 0.8540 0.8660 0.8700
12.640000 0.8710 0.8710 0.8730 0.8750 0.8760
12.674097 0.8780 0.8730 0.8610 0.8460 0.8320
12.708000 0.8050 0.7740 0.7350 0.6900 0.6410
12.742097 0.5840 0.5210 0.4750 0.4290 0.3940
12.776000 0.3600 0.3550 0.3550 0.3600 0.4110
12.810097 0.4590 0.5020 0.5450 0.5890 0.6270
12.844000 0.6630 0.6870 0.7050 0.7260 0.7500
12.878097 0.7720 0.7910 0.8000 0.8060 0.8290
12.912000 0.8390 0.8470 0.8580 0.8640 0.8700
12.946097 0.8710 0.8780 0.8850 0.8880 0.8940
12.981000 0.9000 0.9040 0.9120 0.9160 0.9210
13.015097 0.9230 0.9240 0.9210 0.9210 0.9230
13.049000 0.9240 0.9240 0.9260 0.9260 0.9280
13.083097 0.9280 0.9240 0.9230 0.9170 0.9160
13.117000 0.9140 0.9140 0.9170 0.9170 0.9110
13.151097 0.9070 0.9040 0.9000 0.8990 0.8970
13.185000 0.8940 0.8830 0.8750 0.8660 0.8580
13.219097 0.8490 0.8410 0.8300 0.8180 0.8050
13.253000 0.7930 0.7700 0.7530 0.7380 0.7190
13.287097 0.6950 0.6710 0.6420 0.6110 0.5770
13.321000 0.5430 0.5050 0.4700 0.4340 0.3980
13.355097 0.3530 0.3210 0.2760 0.2460 0.2200
13.389000 0.1980 0.1810 0.1760 0.1720 0.1720
13.423097 0.1770 0.1880 0.2150 0.2470 0.2850
13.458000 0.3170 0.3530 0.3940 0.4350 0.4750
13.492097 0.5160 0.5550 0.5930 0.6180 0.6440
13.526000 0.6660 0.6940 0.7050 0.7260 0.7450
13.560097 0.7550 0.7700 0.7820 0.7940 0.8000
13.594000 0.8060 0.8110 0.8180 0.8270 0.8300
13.628097 0.8370 0.8420 0.8460 0.8490 0.8540
13.662000 0.8590 0.8680 0.8710 0.8750 0.8750
13.696097 0.8750 0.8780 0.8820 0.8830 0.8870
13.730000 0.8900 0.8950 0.8970 0.8990 0.8970
13.764097 0.8970 0.8970 0.8970 0.8970 0.8990
13.798000 0.8990 0.8970 0.8970 0.8990 0.8970
13.832097 0.8970 0.8990 0.8990 0.8970 0.8950
13.867000 0.8900 0.8850 0.8830 0.8830 0.8830
13.901097 0.8830 0.8830 0.8820 0.8800 0.8780
13.935000 0.8730 0.8710 0.8700 0.8680 0.8640
13.969097 0.8580 0.8470 0.8300 0.8180 0.8030
14.003000 0.7820 0.7640 0.7430 0.7210 0.6940
14.037097 0.6640 0.6340 0.5980 0.5600 0.5210
14.071000 0.4760 0.4390 0.3980 0.3640 0.3330
14.105097 0.3040 0.2940 0.2780 0.2760 0.2750
14.139000 0.2800 0.3020 0.3210 0.3530 0.3930
14.173097 0.4290 0.4640 0.5040 0.5380 0.5620
14.207000 0.6250 0.6470 0.6730 0.6940 0.7090
14.241097 0.7350 0.7640 0.7790 0.7940 0.8000
14.276000 0.8100 0.8180 0.8270 0.8340 0.8440
14.310097 0.8520 0.8630 0.8700 0.8750 0.8800
14.344000 0.8870 0.8900 0.8970 0.8990 0.9020
14.378097 0.9070 0.9090 0.9110 0.9160 0.9190
14.412000 0.9210 0.9210 0.9210 0.9230 0.9260
14.446097 0.9260 0.9280 0.9280 0.9290 0.9280
14.480000 0.9280 0.9260 0.9260 0.9260 0.9260
14.514097 0.9260 0.9240 0.9210 0.9190 0.9160
14.548000 0.9120 0.9120 0.9110 0.9090 0.9070
14.582097 0.9050 0.9020 0.9000 0.8950 0.8950
14.616000 0.8900 0.8870 0.8830 0.8780 0.8710
14.650097 0.8640 0.8590 0.8440 0.8350 0.8300
14.685000 0.8250 0.8060 0.7940 0.7810 0.7700
14.719097 0.7530 0.7310 0.7120 0.6940 0.6750
14.753000 0.6520 0.6350 0.6200 0.6100 0.5940
14.787097 0.5760 0.5670 0.5500 0.5480 0.5480
14.821000 0.5480 0.5500 0.5520 0.5600 0.5700
14.855097 0.5880 0.6080 0.6290 0.6470 0.6640
14.889000 0.6820 0.6970 0.7140 0.7310 0.7470
14.923097 0.7640 0.7740 0.7820 0.7880 0.7910
14.957000 0.7940 0.7940 0.7940 0.7940 0.7930
14.991097 0.7910 0.7880 0.7860 0.7810 0.7740
15.025000 0.7690 0.7640 0.7620 0.7600 0.7620
15.059097 0.7650 0.7690 0.7760 0.7840 0.7940
15.093000 0.8030 0.8080 0.8130 0.8150 0.8180
15.127097 0.8220 0.8270 0.8320 0.8350 0.8370
15.162000 0.8460 0.8490 0.8510 0.8520 0.8540
15.196097 0.8560 0.8510 0.8470 0.8470 0.8460
15.230000 0.8390 0.8320 0.8290 0.8250 0.8220
15.264097 0.8180 0.8130 0.8080 0.8000 0.7960
15.298000 0.7880 0.7820 0.7770 0.7650 0.7530
15.332097 0.7380 0.7240 0.7140 0.7020 0.6850
15.366000 0.6710 0.6590 0.6470 0.6390 0.6230
15.400097 0.6030 0.6000 0.5940 0.5930 0.5910
15.434000 0.5910 0.5910 0.5910 0.5960 0.6080
15.468097 0.6170 0.6290 0.6370 0.6470 0.6580
15.502000 0.6710 0.6800 0.6900 0.6970 0.7000
15.536097 0.7090 0.7190 0.7280 0.7310 0.7330
15.571000 0.7350 0.7360 0.7380 0.7400 0.7400
15.605097 0.7380 0.7400 0.7400 0.7400 0.7410
15.639000 0.7410 0.7410 0.7410 0.7410 0.7410
15.673097 0.7380 0.7330 0.7310 0.7290 0.7260
15.707000 0.7190 0.7190 0.7230 0.7230 0.7230
15.741097 0.7230 0.7210 0.7170 0.7160 0.7160
15.775000 0.7140 0.7110 0.7070 0.7020 0.6990
15.809097 0.7000 0.6990 0.7000 0.6990 0.6900
15.843000 0.6850 0.6850 0.6830 0.6830 0.6820
15.877097 0.6800 0.6800 0.6800 0.6800 0.6780
15.911000 0.6780 0.6750 0.6710 0.6660 0.6590
15.945097 0.6580 0.6520 0.6470 0.6440 0.6410
15.980000 0.6410 0.6390
##END=
