##TITLE=SODIUM PENICILLIN G
##JCAMP-DX=4.24
$$ By DXEDIT 1.05 (RS McDonald)
##DATA TYPE=INFRARED SPECTRUM
##CLASS=COBLENTZ III
##OWNER=COBLENTZ SOC.
Collection (C) 2018 copyright by the U.S. Secretary of Commerce
on behalf of the United States of America. All rights reserved.
##DATE=1961/07/20
##NAMES=BENZYLPENICILLIN SODIUM
##MOLFORM=C16 H17 N2 Na O4 S
##SOURCE REFERENCE=COBLENTZ NO. 05075
##$NIST ID=B6005075
##$NIST SOURCE=COBLENTZ
##$NIST IMAGE=cob5075
##SPECTROMETER/DATA SYSTEM=PERKIN-ELMER 21 (GRATING)
##INSTRUMENT PARAMETERS=FILTER AT ABOUT 10 MICRONS
##STATE=SOLID (1 mg / 200 mg KBr DISC)
##PATH LENGTH=0.055 CM (THICKNESS)
##SAMPLING PROCEDURE=TRANSMISSION
##RESOLUTION=2
##DATA PROCESSING=DIGITIZED BY COBLENTZ SOCIETY (BATCH I) FROM HARD COPY
##XUNITS=1/CM
##YUNITS=TRANSMITTANCE
##XLABEL=Wavenumbers (cm-1)
##YLABEL=Transmittance
##XFACTOR=1
##YFACTOR=1
##DELTAX=1
##FIRSTX=4000
##LASTX=668
##FIRSTY=0.9425
##MAXX=4000
##MINX=668
##MAXY=0.9705
##MINY=0.0495
##NPOINTS=3333
##XYDATA=(X++(Y..Y))
4000.000000 0.9425 0.9424 0.9424 0.9423 0.9423
3995.000000 0.9421 0.9421 0.9421 0.9421 0.9420
3990.000000 0.9420 0.9418 0.9418 0.9418 0.9418
3985.000000 0.9418 0.9418 0.9418 0.9418 0.9418
3980.000000 0.9418 0.9418 0.9418 0.9420 0.9420
3975.000000 0.9420 0.9421 0.9421 0.9421 0.9421
3970.000000 0.9423 0.9423 0.9424 0.9424 0.9425
3965.000000 0.9425 0.9425 0.9425 0.9425 0.9427
3960.000000 0.9427 0.9427 0.9428 0.9428 0.9428
3955.000000 0.9428 0.9428 0.9430 0.9430 0.9431
3950.000000 0.9431 0.9432 0.9432 0.9432 0.9433
3945.000000 0.9433 0.9433 0.9434 0.9434 0.9435
3940.000000 0.9435 0.9436 0.9436 0.9437 0.9437
3935.000000 0.9437 0.9437 0.9438 0.9438 0.9438
3930.000000 0.9439 0.9439 0.9440 0.9440 0.9441
3925.000000 0.9441 0.9442 0.9442 0.9442 0.9443
3920.000000 0.9443 0.9443 0.9444 0.9444 0.9445
3915.000000 0.9445 0.9446 0.9446 0.9447 0.9447
3910.000000 0.9447 0.9448 0.9448 0.9448 0.9449
3905.000000 0.9449 0.9449 0.9450 0.9450 0.9450
3900.000000 0.9451 0.9451 0.9452 0.9452 0.9453
3895.000000 0.9453 0.9454 0.9454 0.9454 0.9454
3890.000000 0.9454 0.9454 0.9455 0.9455 0.9455
3885.000000 0.9455 0.9455 0.9455 0.9455 0.9455
3880.000000 0.9455 0.9455 0.9455 0.9455 0.9455
3875.000000 0.9455 0.9455 0.9455 0.9455 0.9455
3870.000000 0.9455 0.9455 0.9455 0.9455 0.9455
3865.000000 0.9455 0.9455 0.9455 0.9455 0.9455
3860.000000 0.9455 0.9455 0.9455 0.9455 0.9455
3855.000000 0.9455 0.9455 0.9455 0.9456 0.9456
3850.000000 0.9457 0.9458 0.9459 0.9460 0.9461
3845.000000 0.9461 0.9462 0.9463 0.9464 0.9465
3840.000000 0.9466 0.9467 0.9467 0.9468 0.9468
3835.000000 0.9470 0.9471 0.9471 0.9473 0.9473
3830.000000 0.9474 0.9475 0.9475 0.9477 0.9478
3825.000000 0.9480 0.9481 0.9482 0.9483 0.9484
3820.000000 0.9486 0.9487 0.9488 0.9489 0.9490
3815.000000 0.9491 0.9492 0.9493 0.9494 0.9495
3810.000000 0.9497 0.9498 0.9499 0.9500 0.9501
3805.000000 0.9502 0.9503 0.9503 0.9504 0.9505
3800.000000 0.9506 0.9507 0.9507 0.9508 0.9508
3795.000000 0.9509 0.9509 0.9509 0.9509 0.9508
3790.000000 0.9508 0.9507 0.9507 0.9505 0.9503
3785.000000 0.9501 0.9499 0.9497 0.9495 0.9493
3780.000000 0.9491 0.9489 0.9488 0.9486 0.9484
3775.000000 0.9482 0.9481 0.9478 0.9477 0.9475
3770.000000 0.9475 0.9474 0.9473 0.9471 0.9471
3765.000000 0.9470 0.9470 0.9468 0.9468 0.9468
3760.000000 0.9468 0.9468 0.9468 0.9468 0.9468
3755.000000 0.9468 0.9468 0.9468 0.9468 0.9468
3750.000000 0.9470 0.9470 0.9471 0.9471 0.9471
3745.000000 0.9473 0.9474 0.9475 0.9475 0.9477
3740.000000 0.9477 0.9478 0.9478 0.9478 0.9480
3735.000000 0.9481 0.9482 0.9483 0.9484 0.9485
3730.000000 0.9485 0.9486 0.9487 0.9488 0.9488
3725.000000 0.9489 0.9489 0.9490 0.9490 0.9490
3720.000000 0.9491 0.9491 0.9491 0.9491 0.9491
3715.000000 0.9491 0.9490 0.9490 0.9490 0.9490
3710.000000 0.9490 0.9489 0.9489 0.9489 0.9489
3705.000000 0.9489 0.9489 0.9488 0.9488 0.9488
3700.000000 0.9488 0.9488 0.9488 0.9488 0.9488
3695.000000 0.9488 0.9488 0.9488 0.9487 0.9487
3690.000000 0.9486 0.9486 0.9486 0.9485 0.9485
3685.000000 0.9484 0.9483 0.9482 0.9482 0.9481
3680.000000 0.9480 0.9480 0.9478 0.9478 0.9478
3675.000000 0.9478 0.9477 0.9477 0.9475 0.9475
3670.000000 0.9475 0.9474 0.9473 0.9471 0.9471
3665.000000 0.9471 0.9470 0.9468 0.9468 0.9468
3660.000000 0.9467 0.9465 0.9464 0.9462 0.9460
3655.000000 0.9459 0.9457 0.9456 0.9454 0.9453
3650.000000 0.9451 0.9449 0.9448 0.9446 0.9444
3645.000000 0.9443 0.9441 0.9439 0.9438 0.9436
3640.000000 0.9434 0.9432 0.9431 0.9428 0.9427
3635.000000 0.9425 0.9424 0.9421 0.9421 0.9418
3630.000000 0.9417 0.9415 0.9414 0.9412 0.9411
3625.000000 0.9409 0.9408 0.9406 0.9404 0.9402
3620.000000 0.9400 0.9398 0.9396 0.9393 0.9390
3615.000000 0.9386 0.9383 0.9380 0.9377 0.9374
3610.000000 0.9371 0.9368 0.9365 0.9362 0.9359
3605.000000 0.9356 0.9353 0.9350 0.9347 0.9343
3600.000000 0.9340 0.9337 0.9334 0.9331 0.9327
3595.000000 0.9323 0.9318 0.9315 0.9311 0.9306
3590.000000 0.9300 0.9295 0.9290 0.9285 0.9278
3585.000000 0.9274 0.9268 0.9263 0.9257 0.9252
3580.000000 0.9247 0.9241 0.9236 0.9231 0.9225
3575.000000 0.9218 0.9213 0.9207 0.9201 0.9194
3570.000000 0.9185 0.9177 0.9168 0.9160 0.9152
3565.000000 0.9143 0.9135 0.9125 0.9118 0.9109
3560.000000 0.9100 0.9091 0.9083 0.9074 0.9064
3555.000000 0.9052 0.9040 0.9028 0.9016 0.9004
3550.000000 0.8991 0.8978 0.8965 0.8952 0.8939
3545.000000 0.8921 0.8902 0.8884 0.8866 0.8848
3540.000000 0.8831 0.8813 0.8795 0.8778 0.8761
3535.000000 0.8746 0.8731 0.8717 0.8702 0.8687
3530.000000 0.8673 0.8659 0.8645 0.8630 0.8616
3525.000000 0.8605 0.8594 0.8583 0.8571 0.8561
3520.000000 0.8549 0.8537 0.8525 0.8513 0.8500
3515.000000 0.8488 0.8475 0.8463 0.8450 0.8439
3510.000000 0.8431 0.8424 0.8417 0.8410 0.8403
3505.000000 0.8397 0.8392 0.8386 0.8381 0.8375
3500.000000 0.8370 0.8364 0.8359 0.8353 0.8347
3495.000000 0.8341 0.8335 0.8328 0.8323 0.8317
3490.000000 0.8310 0.8304 0.8297 0.8291 0.8285
3485.000000 0.8278 0.8271 0.8266 0.8259 0.8252
3480.000000 0.8245 0.8238 0.8230 0.8223 0.8215
3475.000000 0.8207 0.8199 0.8191 0.8183 0.8175
3470.000000 0.8167 0.8158 0.8150 0.8142 0.8135
3465.000000 0.8126 0.8118 0.8111 0.8105 0.8098
3460.000000 0.8092 0.8085 0.8078 0.8071 0.8065
3455.000000 0.8058 0.8051 0.8045 0.8039 0.8032
3450.000000 0.8025 0.8018 0.8011 0.8005 0.7999
3445.000000 0.7993 0.7986 0.7981 0.7975 0.7968
3440.000000 0.7962 0.7958 0.7951 0.7947 0.7941
3435.000000 0.7936 0.7930 0.7924 0.7918 0.7912
3430.000000 0.7907 0.7901 0.7896 0.7890 0.7884
3425.000000 0.7878 0.7872 0.7867 0.7861 0.7855
3420.000000 0.7850 0.7843 0.7837 0.7831 0.7825
3415.000000 0.7818 0.7811 0.7806 0.7800 0.7794
3410.000000 0.7787 0.7781 0.7775 0.7768 0.7762
3405.000000 0.7756 0.7750 0.7744 0.7738 0.7733
3400.000000 0.7726 0.7721 0.7717 0.7711 0.7707
3395.000000 0.7701 0.7696 0.7691 0.7686 0.7681
3390.000000 0.7675 0.7671 0.7665 0.7661 0.7656
3385.000000 0.7651 0.7647 0.7642 0.7637 0.7633
3380.000000 0.7628 0.7622 0.7618 0.7614 0.7608
3375.000000 0.7604 0.7599 0.7594 0.7588 0.7583
3370.000000 0.7578 0.7571 0.7565 0.7560 0.7555
3365.000000 0.7549 0.7542 0.7534 0.7525 0.7518
3360.000000 0.7508 0.7486 0.7465 0.7443 0.7421
3355.000000 0.7345 0.7244 0.7143 0.7042 0.6942
3350.000000 0.6840 0.6739 0.6638 0.6537 0.6436
3345.000000 0.6334 0.6233 0.6132 0.6034 0.5947
3340.000000 0.5859 0.5772 0.5684 0.5665 0.5665
3335.000000 0.5664 0.5662 0.5662 0.5662 0.5662
3330.000000 0.5662 0.5662 0.5760 0.5868 0.5976
3325.000000 0.6085 0.6222 0.6392 0.6561 0.6732
3320.000000 0.6901 0.7057 0.7211 0.7368 0.7522
3315.000000 0.7588 0.7603 0.7618 0.7635 0.7651
3310.000000 0.7672 0.7694 0.7715 0.7736 0.7758
3305.000000 0.7781 0.7803 0.7825 0.7849 0.7872
3300.000000 0.7897 0.7921 0.7943 0.7956 0.7968
3295.000000 0.7982 0.7995 0.8006 0.8015 0.8026
3290.000000 0.8037 0.8047 0.8058 0.8068 0.8078
3285.000000 0.8089 0.8097 0.8106 0.8115 0.8122
3280.000000 0.8130 0.8137 0.8144 0.8151 0.8158
3275.000000 0.8165 0.8171 0.8178 0.8186 0.8193
3270.000000 0.8200 0.8207 0.8213 0.8220 0.8227
3265.000000 0.8234 0.8241 0.8248 0.8255 0.8262
3260.000000 0.8268 0.8275 0.8282 0.8289 0.8295
3255.000000 0.8302 0.8308 0.8315 0.8321 0.8328
3250.000000 0.8335 0.8342 0.8348 0.8355 0.8361
3245.000000 0.8368 0.8374 0.8381 0.8387 0.8394
3240.000000 0.8400 0.8407 0.8414 0.8420 0.8427
3235.000000 0.8433 0.8439 0.8446 0.8452 0.8459
3230.000000 0.8465 0.8471 0.8478 0.8484 0.8490
3225.000000 0.8497 0.8503 0.8509 0.8515 0.8521
3220.000000 0.8528 0.8534 0.8540 0.8547 0.8553
3215.000000 0.8560 0.8566 0.8573 0.8578 0.8584
3210.000000 0.8590 0.8596 0.8600 0.8605 0.8609
3205.000000 0.8614 0.8618 0.8623 0.8628 0.8633
3200.000000 0.8637 0.8641 0.8646 0.8650 0.8655
3195.000000 0.8659 0.8664 0.8668 0.8673 0.8678
3190.000000 0.8682 0.8687 0.8691 0.8696 0.8700
3185.000000 0.8705 0.8710 0.8715 0.8718 0.8724
3180.000000 0.8728 0.8733 0.8737 0.8742 0.8747
3175.000000 0.8752 0.8756 0.8761 0.8766 0.8771
3170.000000 0.8775 0.8780 0.8785 0.8790 0.8795
3165.000000 0.8800 0.8805 0.8810 0.8815 0.8818
3160.000000 0.8824 0.8828 0.8834 0.8839 0.8844
3155.000000 0.8849 0.8854 0.8859 0.8863 0.8868
3150.000000 0.8873 0.8878 0.8882 0.8887 0.8892
3145.000000 0.8897 0.8902 0.8906 0.8911 0.8916
3140.000000 0.8921 0.8925 0.8930 0.8934 0.8939
3135.000000 0.8944 0.8949 0.8954 0.8959 0.8963
3130.000000 0.8968 0.8973 0.8978 0.8983 0.8988
3125.000000 0.8993 0.8997 0.9002 0.9006 0.9011
3120.000000 0.9016 0.9021 0.9025 0.9030 0.9033
3115.000000 0.9036 0.9039 0.9042 0.9044 0.9046
3110.000000 0.9048 0.9050 0.9051 0.9052 0.9053
3105.000000 0.9054 0.9054 0.9055 0.9055 0.9056
3100.000000 0.9057 0.9058 0.9058 0.9059 0.9059
3095.000000 0.9059 0.9060 0.9060 0.9060 0.9060
3090.000000 0.9060 0.9059 0.9058 0.9057 0.9055
3085.000000 0.9051 0.9046 0.9042 0.9036 0.9028
3080.000000 0.9021 0.9015 0.9006 0.8998 0.8989
3075.000000 0.8980 0.8970 0.8960 0.8950 0.8940
3070.000000 0.8932 0.8924 0.8916 0.8908 0.8901
3065.000000 0.8894 0.8887 0.8880 0.8874 0.8867
3060.000000 0.8860 0.8853 0.8846 0.8840 0.8833
3055.000000 0.8825 0.8820 0.8813 0.8806 0.8799
3050.000000 0.8793 0.8786 0.8778 0.8773 0.8766
3045.000000 0.8759 0.8750 0.8742 0.8733 0.8724
3040.000000 0.8715 0.8706 0.8697 0.8689 0.8680
3035.000000 0.8671 0.8664 0.8654 0.8645 0.8635
3030.000000 0.8625 0.8614 0.8602 0.8591 0.8574
3025.000000 0.8554 0.8534 0.8514 0.8496 0.8477
3020.000000 0.8459 0.8444 0.8437 0.8430 0.8423
3015.000000 0.8420 0.8420 0.8418 0.8418 0.8418
3010.000000 0.8418 0.8418 0.8418 0.8418 0.8420
3005.000000 0.8420 0.8424 0.8428 0.8432 0.8437
3000.000000 0.8447 0.8456 0.8466 0.8478 0.8491
2995.000000 0.8504 0.8518 0.8533 0.8548 0.8564
2990.000000 0.8575 0.8582 0.8589 0.8596 0.8601
2985.000000 0.8606 0.8612 0.8616 0.8620 0.8623
2980.000000 0.8625 0.8627 0.8627 0.8627 0.8627
2975.000000 0.8625 0.8623 0.8621 0.8596 0.8558
2970.000000 0.8520 0.8480 0.8425 0.8370 0.8315
2965.000000 0.8261 0.8206 0.8151 0.8096 0.8041
2960.000000 0.7986 0.7931 0.7875 0.7819 0.7765
2955.000000 0.7710 0.7655 0.7599 0.7544 0.7501
2950.000000 0.7465 0.7431 0.7400 0.7400 0.7399
2945.000000 0.7399 0.7398 0.7398 0.7399 0.7399
2940.000000 0.7404 0.7410 0.7415 0.7440 0.7471
2935.000000 0.7503 0.7535 0.7565 0.7598 0.7628
2930.000000 0.7661 0.7693 0.7724 0.7756 0.7788
2925.000000 0.7818 0.7851 0.7871 0.7894 0.7915
2920.000000 0.7928 0.7934 0.7940 0.7945 0.7950
2915.000000 0.7955 0.7960 0.7965 0.7969 0.7974
2910.000000 0.7978 0.7983 0.7987 0.7991 0.7992
2905.000000 0.7992 0.7992 0.7993 0.7993 0.7993
2900.000000 0.7994 0.7994 0.7994 0.7994 0.7998
2895.000000 0.8001 0.8006 0.8011 0.8019 0.8028
2890.000000 0.8037 0.8046 0.8056 0.8065 0.8078
2885.000000 0.8091 0.8105 0.8118 0.8132 0.8145
2880.000000 0.8158 0.8171 0.8185 0.8199 0.8213
2875.000000 0.8228 0.8243 0.8258 0.8271 0.8287
2870.000000 0.8301 0.8316 0.8331 0.8346 0.8360
2865.000000 0.8373 0.8386 0.8399 0.8411 0.8423
2860.000000 0.8436 0.8448 0.8461 0.8473 0.8484
2855.000000 0.8494 0.8505 0.8515 0.8525 0.8535
2850.000000 0.8544 0.8554 0.8564 0.8573 0.8583
2845.000000 0.8593 0.8603 0.8614 0.8625 0.8636
2840.000000 0.8647 0.8659 0.8671 0.8682 0.8694
2835.000000 0.8705 0.8717 0.8728 0.8741 0.8753
2830.000000 0.8764 0.8775 0.8788 0.8800 0.8811
2825.000000 0.8823 0.8834 0.8845 0.8856 0.8867
2820.000000 0.8878 0.8890 0.8901 0.8912 0.8923
2815.000000 0.8934 0.8945 0.8957 0.8968 0.8978
2810.000000 0.8988 0.8997 0.9006 0.9015 0.9023
2805.000000 0.9032 0.9040 0.9049 0.9058 0.9067
2800.000000 0.9075 0.9084 0.9093 0.9102 0.9110
2795.000000 0.9118 0.9127 0.9136 0.9144 0.9153
2790.000000 0.9161 0.9168 0.9175 0.9182 0.9189
2785.000000 0.9196 0.9203 0.9210 0.9217 0.9225
2780.000000 0.9232 0.9239 0.9246 0.9253 0.9260
2775.000000 0.9267 0.9274 0.9282 0.9289 0.9296
2770.000000 0.9302 0.9309 0.9314 0.9320 0.9325
2765.000000 0.9330 0.9335 0.9341 0.9346 0.9351
2760.000000 0.9356 0.9362 0.9367 0.9371 0.9377
2755.000000 0.9382 0.9387 0.9392 0.9396 0.9400
2750.000000 0.9405 0.9409 0.9413 0.9418 0.9421
2745.000000 0.9425 0.9431 0.9435 0.9439 0.9443
2740.000000 0.9448 0.9452 0.9456 0.9458 0.9459
2735.000000 0.9461 0.9462 0.9463 0.9464 0.9464
2730.000000 0.9464 0.9465 0.9465 0.9465 0.9465
2725.000000 0.9465 0.9465 0.9464 0.9464 0.9464
2720.000000 0.9464 0.9464 0.9464 0.9464 0.9464
2715.000000 0.9464 0.9463 0.9463 0.9463 0.9463
2710.000000 0.9463 0.9463 0.9462 0.9462 0.9462
2705.000000 0.9462 0.9462 0.9462 0.9461 0.9461
2700.000000 0.9461 0.9460 0.9460 0.9460 0.9460
2695.000000 0.9460 0.9460 0.9460 0.9460 0.9460
2690.000000 0.9460 0.9460 0.9460 0.9460 0.9460
2685.000000 0.9460 0.9460 0.9460 0.9460 0.9460
2680.000000 0.9460 0.9460 0.9461 0.9462 0.9464
2675.000000 0.9465 0.9467 0.9468 0.9470 0.9471
2670.000000 0.9473 0.9474 0.9475 0.9477 0.9478
2665.000000 0.9480 0.9481 0.9483 0.9484 0.9484
2660.000000 0.9484 0.9485 0.9485 0.9485 0.9486
2655.000000 0.9486 0.9486 0.9485 0.9482 0.9480
2650.000000 0.9478 0.9475 0.9474 0.9471 0.9470
2645.000000 0.9467 0.9465 0.9463 0.9461 0.9459
2640.000000 0.9457 0.9455 0.9452 0.9450 0.9448
2635.000000 0.9446 0.9444 0.9441 0.9439 0.9436
2630.000000 0.9434 0.9431 0.9428 0.9425 0.9424
2625.000000 0.9424 0.9424 0.9424 0.9424 0.9425
2620.000000 0.9425 0.9427 0.9428 0.9428 0.9430
2615.000000 0.9431 0.9432 0.9433 0.9434 0.9434
2610.000000 0.9435 0.9436 0.9437 0.9438 0.9440
2605.000000 0.9441 0.9443 0.9445 0.9446 0.9448
2600.000000 0.9450 0.9452 0.9454 0.9456 0.9458
2595.000000 0.9459 0.9461 0.9463 0.9465 0.9467
2590.000000 0.9468 0.9471 0.9471 0.9474 0.9475
2585.000000 0.9477 0.9478 0.9481 0.9482 0.9484
2580.000000 0.9485 0.9487 0.9489 0.9491 0.9492
2575.000000 0.9494 0.9496 0.9497 0.9499 0.9500
2570.000000 0.9502 0.9504 0.9505 0.9505 0.9506
2565.000000 0.9506 0.9507 0.9507 0.9507 0.9508
2560.000000 0.9508 0.9508 0.9508 0.9509 0.9510
2555.000000 0.9510 0.9510 0.9511 0.9511 0.9512
2550.000000 0.9512 0.9513 0.9514 0.9514 0.9514
2545.000000 0.9515 0.9516 0.9517 0.9517 0.9517
2540.000000 0.9518 0.9518 0.9520 0.9520 0.9520
2535.000000 0.9521 0.9521 0.9523 0.9525 0.9528
2530.000000 0.9530 0.9533 0.9535 0.9537 0.9540
2525.000000 0.9542 0.9544 0.9547 0.9549 0.9552
2520.000000 0.9554 0.9555 0.9557 0.9558 0.9559
2515.000000 0.9560 0.9560 0.9561 0.9562 0.9562
2510.000000 0.9563 0.9563 0.9564 0.9565 0.9566
2505.000000 0.9567 0.9567 0.9567 0.9568 0.9568
2500.000000 0.9570 0.9570 0.9570 0.9570 0.9570
2495.000000 0.9570 0.9570 0.9570 0.9570 0.9570
2490.000000 0.9570 0.9570 0.9570 0.9570 0.9570
2485.000000 0.9570 0.9570 0.9570 0.9570 0.9570
2480.000000 0.9570 0.9570 0.9570 0.9570 0.9570
2475.000000 0.9570 0.9570 0.9570 0.9570 0.9570
2470.000000 0.9568 0.9568 0.9568 0.9568 0.9568
2465.000000 0.9568 0.9568 0.9568 0.9568 0.9568
2460.000000 0.9568 0.9568 0.9568 0.9568 0.9568
2455.000000 0.9568 0.9568 0.9570 0.9571 0.9571
2450.000000 0.9573 0.9574 0.9575 0.9575 0.9578
2445.000000 0.9578 0.9578 0.9580 0.9582 0.9583
2440.000000 0.9584 0.9585 0.9585 0.9586 0.9587
2435.000000 0.9588 0.9589 0.9590 0.9590 0.9591
2430.000000 0.9591 0.9592 0.9592 0.9593 0.9593
2425.000000 0.9593 0.9593 0.9593 0.9592 0.9592
2420.000000 0.9592 0.9592 0.9592 0.9592 0.9592
2415.000000 0.9592 0.9592 0.9592 0.9592 0.9592
2410.000000 0.9592 0.9592 0.9594 0.9596 0.9598
2405.000000 0.9600 0.9602 0.9605 0.9607 0.9610
2400.000000 0.9612 0.9614 0.9616 0.9618 0.9621
2395.000000 0.9624 0.9627 0.9630 0.9634 0.9637
2390.000000 0.9641 0.9642 0.9644 0.9646 0.9648
2385.000000 0.9649 0.9650 0.9652 0.9653 0.9653
2380.000000 0.9654 0.9654 0.9655 0.9656 0.9657
2375.000000 0.9657 0.9657 0.9656 0.9655 0.9653
2370.000000 0.9652 0.9650 0.9647 0.9644 0.9640
2365.000000 0.9636 0.9632 0.9628 0.9625 0.9621
2360.000000 0.9617 0.9613 0.9610 0.9605 0.9601
2355.000000 0.9597 0.9593 0.9589 0.9585 0.9581
2350.000000 0.9578 0.9575 0.9571 0.9570 0.9568
2345.000000 0.9567 0.9566 0.9565 0.9564 0.9563
2340.000000 0.9562 0.9561 0.9561 0.9561 0.9561
2335.000000 0.9561 0.9561 0.9561 0.9562 0.9562
2330.000000 0.9562 0.9562 0.9562 0.9562 0.9562
2325.000000 0.9563 0.9563 0.9563 0.9563 0.9564
2320.000000 0.9565 0.9566 0.9567 0.9567 0.9568
2315.000000 0.9568 0.9570 0.9571 0.9571 0.9573
2310.000000 0.9574 0.9575 0.9575 0.9577 0.9578
2305.000000 0.9580 0.9581 0.9582 0.9584 0.9585
2300.000000 0.9587 0.9589 0.9590 0.9592 0.9593
2295.000000 0.9595 0.9597 0.9598 0.9600 0.9602
2290.000000 0.9604 0.9606 0.9608 0.9610 0.9613
2285.000000 0.9615 0.9617 0.9618 0.9621 0.9624
2280.000000 0.9628 0.9632 0.9638 0.9644 0.9650
2275.000000 0.9656 0.9663 0.9670 0.9675 0.9681
2270.000000 0.9683 0.9685 0.9687 0.9689 0.9690
2265.000000 0.9692 0.9693 0.9693 0.9694 0.9695
2260.000000 0.9696 0.9696 0.9697 0.9697 0.9698
2255.000000 0.9698 0.9698 0.9697 0.9696 0.9693
2250.000000 0.9690 0.9683 0.9675 0.9670 0.9663
2245.000000 0.9655 0.9647 0.9640 0.9633 0.9632
2240.000000 0.9632 0.9633 0.9634 0.9636 0.9638
2235.000000 0.9640 0.9643 0.9645 0.9647 0.9649
2230.000000 0.9652 0.9654 0.9656 0.9657 0.9659
2225.000000 0.9660 0.9662 0.9663 0.9665 0.9666
2220.000000 0.9668 0.9668 0.9671 0.9671 0.9674
2215.000000 0.9675 0.9675 0.9678 0.9678 0.9681
2210.000000 0.9682 0.9684 0.9685 0.9687 0.9688
2205.000000 0.9689 0.9690 0.9690 0.9690 0.9690
2200.000000 0.9689 0.9689 0.9689 0.9689 0.9688
2195.000000 0.9688 0.9688 0.9688 0.9688 0.9687
2190.000000 0.9687 0.9687 0.9687 0.9686 0.9686
2185.000000 0.9686 0.9686 0.9685 0.9685 0.9685
2180.000000 0.9685 0.9684 0.9684 0.9684 0.9684
2175.000000 0.9684 0.9684 0.9683 0.9683 0.9683
2170.000000 0.9683 0.9683 0.9682 0.9682 0.9682
2165.000000 0.9682 0.9682 0.9682 0.9681 0.9681
2160.000000 0.9681 0.9681 0.9681 0.9680 0.9680
2155.000000 0.9680 0.9680 0.9678 0.9678 0.9678
2150.000000 0.9678 0.9678 0.9678 0.9677 0.9677
2145.000000 0.9677 0.9675 0.9675 0.9675 0.9675
2140.000000 0.9675 0.9675 0.9674 0.9674 0.9673
2135.000000 0.9673 0.9673 0.9671 0.9671 0.9671
2130.000000 0.9671 0.9671 0.9673 0.9674 0.9675
2125.000000 0.9675 0.9678 0.9678 0.9680 0.9682
2120.000000 0.9683 0.9684 0.9686 0.9688 0.9690
2115.000000 0.9693 0.9694 0.9696 0.9698 0.9700
2110.000000 0.9702 0.9704 0.9705 0.9700 0.9694
2105.000000 0.9687 0.9681 0.9674 0.9668 0.9661
2100.000000 0.9655 0.9649 0.9643 0.9637 0.9632
2095.000000 0.9628 0.9627 0.9625 0.9623 0.9621
2090.000000 0.9620 0.9618 0.9617 0.9615 0.9613
2085.000000 0.9611 0.9611 0.9610 0.9610 0.9609
2080.000000 0.9609 0.9609 0.9609 0.9609 0.9610
2075.000000 0.9611 0.9612 0.9612 0.9613 0.9614
2070.000000 0.9615 0.9616 0.9616 0.9617 0.9618
2065.000000 0.9620 0.9621 0.9623 0.9624 0.9625
2060.000000 0.9627 0.9628 0.9630 0.9631 0.9632
2055.000000 0.9634 0.9635 0.9637 0.9638 0.9639
2050.000000 0.9641 0.9643 0.9644 0.9645 0.9647
2045.000000 0.9649 0.9651 0.9652 0.9653 0.9655
2040.000000 0.9656 0.9658 0.9660 0.9661 0.9662
2035.000000 0.9663 0.9663 0.9663 0.9664 0.9664
2030.000000 0.9664 0.9664 0.9664 0.9665 0.9665
2025.000000 0.9665 0.9666 0.9666 0.9665 0.9664
2020.000000 0.9664 0.9664 0.9664 0.9663 0.9663
2015.000000 0.9663 0.9662 0.9662 0.9662 0.9661
2010.000000 0.9659 0.9657 0.9655 0.9654 0.9652
2005.000000 0.9650 0.9648 0.9646 0.9645 0.9643
2000.000000 0.9642 0.9640 0.9638 0.9636 0.9632
1995.000000 0.9628 0.9623 0.9618 0.9614 0.9610
1990.000000 0.9606 0.9601 0.9597 0.9592 0.9588
1985.000000 0.9583 0.9578 0.9573 0.9568 0.9564
1980.000000 0.9558 0.9553 0.9548 0.9544 0.9539
1975.000000 0.9536 0.9532 0.9528 0.9525 0.9521
1970.000000 0.9517 0.9513 0.9510 0.9507 0.9503
1965.000000 0.9500 0.9497 0.9493 0.9489 0.9486
1960.000000 0.9483 0.9480 0.9475 0.9473 0.9470
1955.000000 0.9467 0.9463 0.9460 0.9460 0.9460
1950.000000 0.9462 0.9464 0.9465 0.9467 0.9470
1945.000000 0.9475 0.9481 0.9487 0.9494 0.9500
1940.000000 0.9505 0.9508 0.9508 0.9508 0.9508
1935.000000 0.9508 0.9509 0.9509 0.9509 0.9509
1930.000000 0.9510 0.9510 0.9510 0.9508 0.9504
1925.000000 0.9500 0.9497 0.9493 0.9490 0.9486
1920.000000 0.9482 0.9478 0.9475 0.9471 0.9468
1915.000000 0.9464 0.9460 0.9455 0.9447 0.9439
1910.000000 0.9431 0.9423 0.9415 0.9407 0.9398
1905.000000 0.9387 0.9375 0.9363 0.9351 0.9339
1900.000000 0.9325 0.9320 0.9317 0.9313 0.9310
1895.000000 0.9306 0.9303 0.9297 0.9292 0.9286
1890.000000 0.9280 0.9274 0.9268 0.9259 0.9252
1885.000000 0.9246 0.9241 0.9235 0.9230 0.9225
1880.000000 0.9221 0.9218 0.9217 0.9215 0.9213
1875.000000 0.9211 0.9211 0.9211 0.9211 0.9211
1870.000000 0.9211 0.9211 0.9210 0.9209 0.9206
1865.000000 0.9202 0.9199 0.9196 0.9192 0.9189
1860.000000 0.9185 0.9182 0.9178 0.9173 0.9165
1855.000000 0.9150 0.9134 0.9118 0.9103 0.9087
1850.000000 0.9068 0.9045 0.9018 0.8990 0.8963
1845.000000 0.8939 0.8916 0.8894 0.8874 0.8855
1840.000000 0.8835 0.8816 0.8796 0.8774 0.8751
1835.000000 0.8728 0.8705 0.8684 0.8664 0.8643
1830.000000 0.8625 0.8613 0.8606 0.8599 0.8591
1825.000000 0.8580 0.8566 0.8537 0.8490 0.8443
1820.000000 0.8407 0.8375 0.8347 0.8318 0.8289
1815.000000 0.8257 0.8221 0.8186 0.8151 0.8106
1810.000000 0.8051 0.7985 0.7918 0.7853 0.7783
1805.000000 0.7706 0.7596 0.7280 0.7033 0.6955
1800.000000 0.6876 0.6769 0.6411 0.5941 0.5695
1795.000000 0.5449 0.5203 0.4957 0.4710 0.4462
1790.000000 0.4216 0.3968 0.3721 0.3473 0.3224
1785.000000 0.2975 0.2726 0.2477 0.2228 0.1978
1780.000000 0.1728 0.1477 0.1227 0.0976 0.0788
1775.000000 0.0707 0.0709 0.0711 0.0828 0.1057
1770.000000 0.1314 0.1572 0.1829 0.2088 0.2347
1765.000000 0.2606 0.2865 0.3125 0.3384 0.3864
1760.000000 0.4189 0.4330 0.4428 0.4554 0.4679
1755.000000 0.4805 0.4931 0.5057 0.5183 0.5310
1750.000000 0.5436 0.5562 0.5689 0.5816 0.5943
1745.000000 0.6071 0.6198 0.6325 0.6453 0.6581
1740.000000 0.6708 0.6837 0.6965 0.7092 0.7211
1735.000000 0.7278 0.7328 0.7364 0.7393 0.7418
1730.000000 0.7440 0.7458 0.7468 0.7476 0.7474
1725.000000 0.7467 0.7449 0.7428 0.7375 0.7291
1720.000000 0.7210 0.7062 0.6788 0.6474 0.6160
1715.000000 0.5847 0.5533 0.5218 0.4903 0.4588
1710.000000 0.4272 0.3956 0.3639 0.3323 0.3006
1705.000000 0.2688 0.2370 0.2052 0.1733 0.1595
1700.000000 0.1601 0.1604 0.1675 0.1864 0.2067
1695.000000 0.2270 0.2473 0.2677 0.2881 0.3085
1690.000000 0.3290 0.3494 0.3699 0.3905 0.4110
1685.000000 0.4317 0.4522 0.4728 0.4935 0.5142
1680.000000 0.5349 0.5555 0.5697 0.5767 0.5820
1675.000000 0.5866 0.5900 0.5919 0.5930 0.5936
1670.000000 0.5944 0.5951 0.5960 0.5969 0.5979
1665.000000 0.5989 0.6001 0.6014 0.6026 0.6036
1660.000000 0.6046 0.6056 0.6064 0.6072 0.6077
1655.000000 0.6079 0.6080 0.6092 0.6075 0.6065
1650.000000 0.6055 0.6045 0.6032 0.5809 0.5584
1645.000000 0.5359 0.5133 0.4907 0.4681 0.4455
1640.000000 0.4228 0.4000 0.3774 0.3547 0.3318
1635.000000 0.3091 0.2863 0.2634 0.2406 0.2177
1630.000000 0.1946 0.1718 0.1488 0.1257 0.1027
1625.000000 0.0796 0.0604 0.0511 0.0501 0.0502
1620.000000 0.0495 0.0497 0.0501 0.0514 0.0548
1615.000000 0.0593 0.0772 0.0989 0.1210 0.1430
1610.000000 0.1650 0.1871 0.2091 0.2312 0.2534
1605.000000 0.2755 0.2977 0.3199 0.3422 0.3645
1600.000000 0.3868 0.4038 0.4131 0.4220 0.4356
1595.000000 0.4495 0.4593 0.4699 0.4845 0.5039
1590.000000 0.5234 0.5428 0.5622 0.5816 0.6010
1585.000000 0.6206 0.6395 0.6538 0.6596 0.6655
1580.000000 0.6739 0.6878 0.6982 0.7074 0.7168
1575.000000 0.7261 0.7336 0.7385 0.7434 0.7483
1570.000000 0.7531 0.7578 0.7622 0.7660 0.7691
1565.000000 0.7712 0.7725 0.7735 0.7742 0.7751
1560.000000 0.7754 0.7758 0.7758 0.7758 0.7756
1555.000000 0.7753 0.7740 0.7711 0.7676 0.7645
1550.000000 0.7624 0.7611 0.7607 0.7601 0.7596
1545.000000 0.7592 0.7588 0.7585 0.7574 0.7532
1540.000000 0.7418 0.7251 0.7118 0.7018 0.6948
1535.000000 0.6887 0.6825 0.6769 0.6718 0.6665
1530.000000 0.6614 0.6538 0.6453 0.6368 0.6274
1525.000000 0.6148 0.6014 0.5882 0.5752 0.5623
1520.000000 0.5499 0.5382 0.5269 0.5204 0.4912
1515.000000 0.4541 0.4170 0.3797 0.3428 0.3154
1510.000000 0.3034 0.2944 0.2651 0.2276 0.1896
1505.000000 0.1518 0.1171 0.1006 0.0996 0.0979
1500.000000 0.0989 0.1020 0.1100 0.1224 0.1359
1495.000000 0.1556 0.1908 0.2299 0.2523 0.2748
1490.000000 0.2973 0.3198 0.3424 0.3650 0.3876
1485.000000 0.4103 0.4330 0.4558 0.4785 0.5012
1480.000000 0.5241 0.5470 0.5698 0.5928 0.6140
1475.000000 0.6235 0.6235 0.6244 0.6247 0.6223
1470.000000 0.6185 0.6157 0.6155 0.6170 0.6207
1465.000000 0.6244 0.6280 0.6317 0.6354 0.6430
1460.000000 0.6417 0.6400 0.6256 0.6043 0.5830
1455.000000 0.5632 0.5535 0.5570 0.5706 0.5889
1450.000000 0.6071 0.6254 0.6382 0.6374 0.6367
1445.000000 0.6332 0.6260 0.6183 0.6102 0.6019
1440.000000 0.5925 0.5826 0.5710 0.5618 0.5543
1435.000000 0.5469 0.5450 0.5444 0.5437 0.5432
1430.000000 0.5375 0.5134 0.4878 0.4623 0.4367
1425.000000 0.4110 0.3853 0.3596 0.3339 0.3099
1420.000000 0.2984 0.2992 0.2978 0.3101 0.3324
1415.000000 0.3548 0.3772 0.3996 0.4221 0.4445
1410.000000 0.4606 0.4738 0.4886 0.5029 0.5167
1405.000000 0.5295 0.5418 0.5541 0.5666 0.5790
1400.000000 0.5914 0.6038 0.6162 0.6287 0.6411
1395.000000 0.6458 0.6440 0.6343 0.6228 0.6112
1390.000000 0.6026 0.6002 0.6119 0.6511 0.6861
1385.000000 0.6986 0.7069 0.7175 0.7278 0.7376
1380.000000 0.7464 0.7540 0.7588 0.7605 0.7610
1375.000000 0.7587 0.7364 0.7076 0.6791 0.6604
1370.000000 0.6590 0.6689 0.6928 0.7168 0.7405
1365.000000 0.7568 0.7654 0.7734 0.7815 0.7891
1360.000000 0.7928 0.7936 0.7936 0.7935 0.7933
1355.000000 0.7924 0.7915 0.7906 0.7890 0.7874
1350.000000 0.7854 0.7814 0.7761 0.7691 0.7583
1345.000000 0.7490 0.7419 0.7367 0.7314 0.7265
1340.000000 0.7219 0.7175 0.7119 0.7040 0.6949
1335.000000 0.6830 0.6641 0.6349 0.6021 0.5694
1330.000000 0.5365 0.4992 0.5003 0.4997 0.5005
1325.000000 0.5048 0.5105 0.5146 0.5158 0.5198
1320.000000 0.5152 0.5133 0.5106 0.4978 0.4699
1315.000000 0.4420 0.4141 0.3860 0.3580 0.3300
1310.000000 0.3020 0.2739 0.2457 0.2262 0.2276
1305.000000 0.2404 0.2663 0.2922 0.3182 0.3442
1300.000000 0.3714 0.4014 0.4318 0.4620 0.4922
1295.000000 0.5225 0.5529 0.5834 0.6138 0.6443
1290.000000 0.6734 0.6854 0.6903 0.6956 0.6931
1285.000000 0.6931 0.6930 0.6876 0.6758 0.6585
1280.000000 0.6615 0.6626 0.6646 0.6698 0.6751
1275.000000 0.6834 0.6928 0.7007 0.7080 0.7151
1270.000000 0.7212 0.7267 0.7304 0.7338 0.7354
1265.000000 0.7362 0.7391 0.7375 0.7362 0.7336
1260.000000 0.7285 0.7222 0.7096 0.6804 0.6289
1255.000000 0.5762 0.5237 0.4730 0.4576 0.4527
1250.000000 0.4707 0.5083 0.5447 0.5686 0.5844
1245.000000 0.5972 0.6102 0.6237 0.6373 0.6494
1240.000000 0.6603 0.6712 0.6812 0.6908 0.7001
1235.000000 0.7115 0.7249 0.7325 0.7394 0.7482
1230.000000 0.7582 0.7639 0.7690 0.7742 0.7793
1225.000000 0.7845 0.7896 0.7948 0.8000 0.8051
1220.000000 0.8104 0.8141 0.8156 0.8156 0.8156
1215.000000 0.8178 0.8174 0.8168 0.8150 0.8112
1210.000000 0.8058 0.7949 0.7805 0.7661 0.7517
1205.000000 0.7372 0.7228 0.7083 0.6938 0.6792
1200.000000 0.6689 0.6640 0.6655 0.6657 0.6661
1195.000000 0.6675 0.6698 0.6740 0.6789 0.6858
1190.000000 0.7001 0.7125 0.7239 0.7353 0.7468
1185.000000 0.7583 0.7698 0.7812 0.7928 0.7995
1180.000000 0.7999 0.8018 0.7986 0.7962 0.7938
1175.000000 0.7915 0.7895 0.7872 0.7840 0.7765
1170.000000 0.7625 0.7519 0.7450 0.7386 0.7275
1165.000000 0.7247 0.7243 0.7260 0.7294 0.7310
1160.000000 0.7248 0.7107 0.6965 0.6822 0.6754
1155.000000 0.6826 0.7008 0.7188 0.7369 0.7551
1150.000000 0.7718 0.7818 0.7886 0.7947 0.7995
1145.000000 0.8038 0.8065 0.8089 0.8105 0.8119
1140.000000 0.8131 0.8139 0.8146 0.8164 0.8154
1135.000000 0.8126 0.8094 0.8072 0.8069 0.8069
1130.000000 0.7998 0.7844 0.7691 0.7537 0.7382
1125.000000 0.7226 0.7071 0.6921 0.6871 0.6888
1120.000000 0.7028 0.7168 0.7310 0.7451 0.7590
1115.000000 0.7697 0.7806 0.7915 0.8021 0.8094
1110.000000 0.8160 0.8217 0.8268 0.8301 0.8325
1105.000000 0.8318 0.8298 0.8251 0.8230 0.8227
1100.000000 0.8223 0.8208 0.8128 0.7901 0.7661
1095.000000 0.7419 0.7178 0.6938 0.6695 0.6588
1090.000000 0.6597 0.6708 0.6903 0.7099 0.7295
1085.000000 0.7491 0.7650 0.7722 0.7804 0.7925
1080.000000 0.7907 0.7912 0.7868 0.7753 0.7621
1075.000000 0.7611 0.7630 0.7771 0.7925 0.8065
1070.000000 0.8183 0.8296 0.8375 0.8443 0.8500
1065.000000 0.8550 0.8585 0.8620 0.8644 0.8665
1060.000000 0.8683 0.8684 0.8684 0.8680 0.8675
1055.000000 0.8675 0.8677 0.8681 0.8691 0.8703
1050.000000 0.8716 0.8730 0.8744 0.8763 0.8789
1045.000000 0.8813 0.8833 0.8833 0.8832 0.8823
1040.000000 0.8816 0.8808 0.8789 0.8770 0.8745
1035.000000 0.8718 0.8691 0.8659 0.8578 0.8393
1030.000000 0.8304 0.8260 0.8218 0.8178 0.8151
1025.000000 0.8145 0.8165 0.8223 0.8307 0.8441
1020.000000 0.8568 0.8660 0.8713 0.8742 0.8762
1015.000000 0.8790 0.8780 0.8778 0.8765 0.8745
1010.000000 0.8721 0.8681 0.8628 0.8563 0.8471
1005.000000 0.8293 0.8071 0.7847 0.7762 0.7739
1000.000000 0.7728 0.7798 0.8064 0.8328 0.8441
995.000000 0.8515 0.8575 0.8631 0.8675 0.8707
990.000000 0.8738 0.8752 0.8766 0.8778 0.8810
985.000000 0.8842 0.8875 0.8908 0.8934 0.8954
980.000000 0.8975 0.8993 0.9002 0.9011 0.9014
975.000000 0.9027 0.9016 0.9015 0.9013 0.9002
970.000000 0.8963 0.8911 0.8894 0.8887 0.8881
965.000000 0.8859 0.8827 0.8788 0.8749 0.8712
960.000000 0.8668 0.8623 0.8541 0.8543 0.8592
955.000000 0.8689 0.8750 0.8784 0.8812 0.8831
950.000000 0.8843 0.8852 0.8846 0.8827 0.8785
945.000000 0.8745 0.8718 0.8702 0.8695 0.8687
940.000000 0.8651 0.8609 0.8567 0.8524 0.8460
935.000000 0.8378 0.8291 0.8175 0.8181 0.8190
930.000000 0.8258 0.8331 0.8405 0.8539 0.8689
925.000000 0.8651 0.8656 0.8658 0.8628 0.8570
920.000000 0.8502 0.8449 0.8489 0.8575 0.8673
915.000000 0.8754 0.8803 0.8841 0.8868 0.8893
910.000000 0.8916 0.8939 0.8962 0.8983 0.9001
905.000000 0.9015 0.9014 0.9005 0.8948 0.8783
900.000000 0.8551 0.8318 0.8086 0.7737 0.7737
895.000000 0.7804 0.8069 0.8314 0.8423 0.8533
890.000000 0.8645 0.8744 0.8830 0.8900 0.8963
885.000000 0.9006 0.9037 0.9062 0.9093 0.9056
880.000000 0.9039 0.8995 0.8892 0.8738 0.8653
875.000000 0.8646 0.8648 0.8693 0.8827 0.8917
870.000000 0.8960 0.8997 0.9070 0.9142 0.9170
865.000000 0.9175 0.9178 0.9184 0.9201 0.9225
860.000000 0.9234 0.9242 0.9246 0.9246 0.9246
855.000000 0.9245 0.9215 0.9204 0.9203 0.9201
850.000000 0.9211 0.9225 0.9237 0.9221 0.9228
845.000000 0.9242 0.9242 0.9242 0.9218 0.9186
840.000000 0.9195 0.9209 0.9234 0.9233 0.9232
835.000000 0.9228 0.9237 0.9256 0.9283 0.9307
830.000000 0.9315 0.9268 0.9255 0.9259 0.9264
825.000000 0.9247 0.9218 0.9218 0.9215 0.9202
820.000000 0.9170 0.9138 0.9106 0.9071 0.9017
815.000000 0.8962 0.8873 0.8751 0.8595 0.8446
810.000000 0.8275 0.8187 0.8154 0.8132 0.8134
805.000000 0.8175 0.8268 0.8374 0.8478 0.8585
800.000000 0.8700 0.8806 0.8863 0.8920 0.8954
795.000000 0.8975 0.8989 0.9001 0.9006 0.9006
790.000000 0.9006 0.8991 0.8977 0.8960 0.8932
785.000000 0.8907 0.8881 0.8831 0.8781 0.8698
780.000000 0.8589 0.8427 0.8274 0.8155 0.8057
775.000000 0.7997 0.8011 0.8011 0.7897 0.7571
770.000000 0.7169 0.6498 0.5620 0.4742 0.3821
765.000000 0.3808 0.4202 0.4908 0.5616 0.6325
760.000000 0.7030 0.7454 0.7734 0.7858 0.7956
755.000000 0.8044 0.8036 0.7972 0.7761 0.7451
750.000000 0.7140 0.6911 0.6974 0.7286 0.7640
745.000000 0.7995 0.8240 0.8365 0.8447 0.8494
740.000000 0.8525 0.8525 0.8524 0.8512 0.8494
735.000000 0.8452 0.8410 0.8362 0.8313 0.8240
730.000000 0.8167 0.8074 0.7953 0.7800 0.7600
725.000000 0.7419 0.7150 0.6821 0.6492 0.6220
720.000000 0.5845 0.5847 0.5866 0.6162 0.6481
715.000000 0.6800 0.7119 0.7425 0.7595 0.7740
710.000000 0.7831 0.7831 0.7741 0.7507 0.7041
705.000000 0.6438 0.5718 0.4996 0.4271 0.3842
700.000000 0.3993 0.4915 0.5807 0.6700 0.7239
695.000000 0.7548 0.7858 0.8080 0.8271 0.8402
690.000000 0.8504 0.8597 0.8678 0.8742 0.8785
685.000000 0.8785 0.8786 0.8796 0.8815 0.8842
680.000000 0.8832 0.8831 0.8831 0.8815 0.8799
675.000000 0.8778 0.8759 0.8728 0.8698 0.8647
670.000000 0.8574 0.8497 0.8448
##END=
