##TITLE=CYCLOPENTANECARBOXYLIC ACID, 3Alpha-HYDROXY-, HYDRAZIDE
##JCAMP-DX=4.24
##DATA TYPE=INFRARED SPECTRUM
##CLASS=COBLENTZ III
##ORIGIN=SOUTHERN RESEARCH INSTITUTE
##OWNER=COBLENTZ SOCIETY
Collection (C) 2018 copyright by the U.S. Secretary of Commerce
on behalf of the United States of America. All rights reserved.
##DATE=1959/12/10
##NAMES=3-hydroxycyclopentanecarbohydrazide
##MOLFORM=C6 H12 N2 O2
##SOURCE REFERENCE=COBLENTZ NO. 7377
##$NIST ID=B6007377
##$NIST SOURCE=COBLENTZ
##$NIST IMAGE=cob7377
##SPECTROMETER/DATA SYSTEM=PERKIN-ELMER 21 (GRATING)
##INSTRUMENT PARAMETERS=FILTER CHANGE AT ABOUT 1020 CM^-^1
##STATE=SOLID (0.8 mg / 650 mg KBr DISC)
$$ PURITY - ANALYTICAL
$$SPECTRAL CONTAMINATION DUE TO H2O AROUND 3500 CM^-^1
##SAMPLING PROCEDURE=TRANSMISSION
##RESOLUTION=2
##DATA PROCESSING=DIGITIZED BY NIST FROM HARD COPY (FROM TWO SEGMENTS)
##XUNITS=1/CM
##YUNITS=TRANSMITTANCE
##XFACTOR=1.000000
##YFACTOR=1
##DELTAX=1.326700
##FIRSTX=603.807
##LASTX=4014.75
##FIRSTY=0.595
##MAXX=4014.75
##MINX=603.807
##MAXY=0.9
##MINY=0.17
##NPOINTS=2572
##XYDATA=(X++(Y..Y))
603.807000 0.5950 0.5950 0.5950 0.5950 0.5941
610.440500 0.5940 0.5940 0.5931 0.5912 0.5892
617.074000 0.5873 0.5853 0.5825 0.5812 0.5785
623.707500 0.5756 0.5734 0.5707 0.5669 0.5630
630.341000 0.5590 0.5565 0.5546 0.5526 0.5499
636.974500 0.5483 0.5467 0.5460 0.5460 0.5460
643.608000 0.5460 0.5460 0.5460 0.5472 0.5486
650.241500 0.5512 0.5557 0.5580 0.5600 0.5640
656.875000 0.5670 0.5685 0.5695 0.5736 0.5793
663.508500 0.5818 0.5846 0.5898 0.5951 0.5985
670.142000 0.6017 0.6037 0.6060 0.6093 0.6132
676.775500 0.6160 0.6177 0.6220 0.6225 0.6250
683.409000 0.6280 0.6284 0.6302 0.6312 0.6324
690.042500 0.6340 0.6342 0.6351 0.6360 0.6362
696.676000 0.6381 0.6391 0.6400 0.6401 0.6421
703.309500 0.6430 0.6430 0.6430 0.6430 0.6430
709.943000 0.6430 0.6440 0.6440 0.6440 0.6440
716.576500 0.6440 0.6440 0.6440 0.6449 0.6467
723.210000 0.6470 0.6470 0.6478 0.6488 0.6506
729.843500 0.6510 0.6518 0.6528 0.6545 0.6550
736.477000 0.6557 0.6567 0.6591 0.6621 0.6644
743.110500 0.6663 0.6683 0.6690 0.6702 0.6710
749.744000 0.6710 0.6710 0.6710 0.6710 0.6699
756.377500 0.6690 0.6685 0.6675 0.6660 0.6645
763.011000 0.6626 0.6605 0.6582 0.6538 0.6493
769.644500 0.6462 0.6450 0.6450 0.6446 0.6440
776.278000 0.6440 0.6440 0.6440 0.6443 0.6450
782.911500 0.6456 0.6470 0.6470 0.6470 0.6470
789.545000 0.6466 0.6450 0.6450 0.6450 0.6453
796.178500 0.6470 0.6470 0.6470 0.6470 0.6470
802.812000 0.6470 0.6470 0.6471 0.6481 0.6491
809.445500 0.6521 0.6550 0.6570 0.6609 0.6639
816.079000 0.6678 0.6708 0.6719 0.6813 0.6911
822.712500 0.7001 0.7072 0.7132 0.7200 0.7244
829.346000 0.7292 0.7333 0.7364 0.7402 0.7418
835.979500 0.7443 0.7458 0.7467 0.7485 0.7504
842.613000 0.7517 0.7520 0.7520 0.7520 0.7513
849.246500 0.7510 0.7510 0.7504 0.7500 0.7500
855.880000 0.7500 0.7500 0.7506 0.7510 0.7510
862.513500 0.7510 0.7510 0.7510 0.7510 0.7515
869.147000 0.7520 0.7529 0.7544 0.7554 0.7568
875.780500 0.7588 0.7608 0.7627 0.7651 0.7670
882.414000 0.7673 0.7680 0.7686 0.7703 0.7713
889.047500 0.7720 0.7720 0.7720 0.7720 0.7720
895.681000 0.7720 0.7718 0.7710 0.7708 0.7700
902.314500 0.7695 0.7660 0.7657 0.7629 0.7618
908.948000 0.7588 0.7559 0.7539 0.7510 0.7500
915.581500 0.7490 0.7470 0.7470 0.7451 0.7393
922.215000 0.7343 0.7275 0.7215 0.7146 0.7095
928.848500 0.7081 0.6993 0.6869 0.6842 0.6765
935.482000 0.6701 0.6626 0.6563 0.6472 0.6435
942.115500 0.6400 0.6331 0.6259 0.6140 0.6065
948.749000 0.6009 0.5977 0.5944 0.5917 0.5929
955.382500 0.5971 0.6045 0.6104 0.6155 0.6255
962.016000 0.6349 0.6385 0.6390 0.6369 0.6335
968.649500 0.6295 0.6265 0.6250 0.6240 0.6240
975.283000 0.6249 0.6264 0.6290 0.6368 0.6459
981.916500 0.6505 0.6530 0.6527 0.6517 0.6488
988.550000 0.6434 0.6411 0.6387 0.6380 0.6380
995.183500 0.6395 0.6442 0.6457 0.6482 0.6496
1001.817000 0.6520 0.6520 0.6520 0.6520 0.6520
1008.450500 0.6520 0.6517 0.6490 0.6490 0.6489
1015.084000 0.6480 0.6480 0.6470 0.6470 0.6440
1021.717500 0.6420 0.6381 0.6341 0.6283 0.6280
1028.351000 0.6039 0.5984 0.5953 0.5941 0.5940
1034.984500 0.5940 0.5983 0.5982 0.5914 0.5827
1041.618000 0.5746 0.5659 0.5586 0.5517 0.5455
1048.251500 0.5396 0.5191 0.4878 0.4696 0.4578
1054.885000 0.4406 0.4274 0.4143 0.3939 0.3676
1061.518500 0.3404 0.3150 0.2939 0.2826 0.2800
1068.152000 0.2789 0.2801 0.2882 0.2960 0.3020
1074.785500 0.3079 0.3161 0.3322 0.3483 0.3727
1081.419000 0.4069 0.4256 0.4341 0.4398 0.4428
1088.052500 0.4607 0.5043 0.5420 0.5545 0.5615
1094.686000 0.5877 0.6485 0.6664 0.6785 0.6886
1101.319500 0.7005 0.7142 0.7238 0.7310 0.7314
1107.953000 0.7337 0.7377 0.7424 0.7452 0.7472
1114.586500 0.7491 0.7502 0.7522 0.7552 0.7580
1121.220000 0.7580 0.7590 0.7600 0.7600 0.7620
1127.853500 0.7620 0.7620 0.7620 0.7620 0.7620
1134.487000 0.7620 0.7620 0.7620 0.7603 0.7600
1141.120500 0.7592 0.7590 0.7598 0.7616 0.7636
1147.754000 0.7656 0.7675 0.7725 0.7770 0.7795
1154.387500 0.7814 0.7827 0.7830 0.7837 0.7840
1161.021000 0.7840 0.7840 0.7840 0.7840 0.7840
1167.654500 0.7828 0.7779 0.7733 0.7709 0.7689
1174.288000 0.7675 0.7670 0.7665 0.7660 0.7651
1180.921500 0.7594 0.7522 0.7496 0.7481 0.7478
1187.555000 0.7498 0.7522 0.7562 0.7614 0.7650
1194.188500 0.7673 0.7690 0.7713 0.7726 0.7740
1200.822000 0.7740 0.7735 0.7708 0.7668 0.7656
1207.455500 0.7638 0.7620 0.7572 0.7537 0.7518
1214.089000 0.7510 0.7507 0.7488 0.7466 0.7424
1220.722500 0.7365 0.7304 0.7225 0.7145 0.7036
1227.356000 0.6917 0.6769 0.6611 0.6434 0.6401
1233.989500 0.6362 0.6246 0.6240 0.6240 0.6267
1240.623000 0.6386 0.6497 0.6510 0.6484 0.6472
1247.256500 0.6429 0.6363 0.6293 0.6097 0.5941
1253.890000 0.5818 0.5655 0.5499 0.5337 0.5169
1260.523500 0.5099 0.5090 0.5090 0.5110 0.5172
1267.157000 0.5417 0.5928 0.6172 0.6365 0.6513
1273.790500 0.6530 0.6530 0.6524 0.6504 0.6490
1280.424000 0.6470 0.6435 0.6401 0.6347 0.6278
1287.057500 0.6213 0.6150 0.6084 0.6038 0.6008
1293.691000 0.5990 0.6005 0.6044 0.6094 0.6140
1300.324500 0.6134 0.6089 0.5975 0.5844 0.5777
1306.958000 0.5773 0.5782 0.5795 0.5862 0.6064
1313.591500 0.6135 0.6212 0.6301 0.6467 0.6573
1320.225000 0.6650 0.6650 0.6650 0.6649 0.6640
1326.858500 0.6639 0.6630 0.6629 0.6610 0.6600
1333.492000 0.6600 0.6570 0.6570 0.6560 0.6551
1340.125500 0.6531 0.6521 0.6492 0.6481 0.6471
1346.759000 0.6452 0.6424 0.6386 0.6321 0.6269
1353.392500 0.6203 0.6150 0.6085 0.6008 0.5944
1360.026000 0.5855 0.5690 0.5532 0.5440 0.5406
1366.659500 0.5386 0.5393 0.5413 0.5466 0.5522
1373.293000 0.5609 0.5747 0.5870 0.6003 0.6093
1379.926500 0.6193 0.6357 0.6456 0.6470 0.6460
1386.560000 0.6435 0.6410 0.6395 0.6385 0.6345
1393.193500 0.6274 0.6240 0.6224 0.6180 0.6123
1399.827000 0.6062 0.6026 0.6020 0.6020 0.6020
1406.460500 0.6023 0.6041 0.6084 0.6142 0.6251
1413.094000 0.6427 0.6537 0.6651 0.6752 0.6857
1419.727500 0.6951 0.7055 0.7080 0.7077 0.7059
1426.361000 0.7050 0.7046 0.7009 0.6990 0.6855
1432.994500 0.6768 0.6719 0.6679 0.6650 0.6630
1439.628000 0.6571 0.6521 0.6491 0.6471 0.6442
1446.261500 0.6422 0.6393 0.6345 0.6269 0.6225
1452.895000 0.6134 0.6103 0.6100 0.6100 0.6100
1459.528500 0.6100 0.6100 0.6085 0.6065 0.6038
1466.162000 0.6001 0.5976 0.5942 0.5882 0.5812
1472.795500 0.5783 0.5787 0.5803 0.5823 0.5867
1479.429000 0.5939 0.6278 0.6554 0.6674 0.6802
1486.062500 0.6925 0.7022 0.7096 0.7130 0.7130
1492.696000 0.7125 0.7106 0.7072 0.7028 0.6966
1499.329500 0.6887 0.6812 0.6739 0.6660 0.6588
1505.963000 0.6529 0.6473 0.6433 0.6411 0.6354
1512.596500 0.6256 0.6220 0.6194 0.6105 0.6034
1519.230000 0.5921 0.5792 0.5666 0.5553 0.5473
1525.863500 0.5427 0.5356 0.5317 0.5218 0.5120
1532.497000 0.5028 0.4911 0.4812 0.4704 0.4607
1539.130500 0.4538 0.4468 0.4329 0.4142 0.4022
1545.764000 0.4001 0.3981 0.3961 0.3969 0.3979
1552.397500 0.4007 0.4081 0.4169 0.4318 0.4648
1559.031000 0.4751 0.4860 0.4970 0.5070 0.5185
1565.664500 0.5226 0.5238 0.5247 0.5368 0.5519
1572.298000 0.5560 0.5560 0.5560 0.5560 0.5547
1578.931500 0.5534 0.5505 0.5465 0.5407 0.5350
1585.565000 0.5306 0.5261 0.5201 0.5115 0.4958
1592.198500 0.4756 0.4624 0.4560 0.4443 0.4270
1598.832000 0.4096 0.3914 0.3731 0.3545 0.3340
1605.465500 0.3119 0.2934 0.2812 0.2638 0.2387
1612.099000 0.2220 0.2203 0.2216 0.2236 0.2289
1618.732500 0.2420 0.2620 0.3013 0.3177 0.3287
1625.366000 0.3373 0.3487 0.3620 0.3720 0.3779
1631.999500 0.3846 0.3940 0.3940 0.3938 0.3917
1638.633000 0.3889 0.3877 0.3828 0.3800 0.3800
1645.266500 0.3810 0.3830 0.3830 0.3772 0.3751
1651.900000 0.3693 0.3643 0.3575 0.3515 0.3501
1658.533500 0.3411 0.3295 0.3160 0.3013 0.2882
1665.167000 0.2786 0.2697 0.2624 0.2311 0.2168
1671.800500 0.2150 0.2150 0.2157 0.2246 0.3140
1678.434000 0.3626 0.3790 0.3928 0.4545 0.4853
1685.067500 0.4911 0.4983 0.5052 0.5157 0.5222
1691.701000 0.5738 0.6131 0.6206 0.6377 0.6527
1698.334500 0.6621 0.6759 0.6855 0.7046 0.7265
1704.968000 0.7283 0.7300 0.7300 0.7312 0.7346
1711.601500 0.7389 0.7438 0.7502 0.7570 0.7593
1718.235000 0.7619 0.7663 0.7682 0.7724 0.7765
1724.868500 0.7790 0.7825 0.7849 0.7899 0.7982
1731.502000 0.8037 0.8077 0.8113 0.8133 0.8157
1738.135500 0.8201 0.8213 0.8242 0.8266 0.8332
1744.769000 0.8361 0.8371 0.8381 0.8410 0.8420
1751.402500 0.8420 0.8450 0.8460 0.8479 0.8489
1758.036000 0.8499 0.8518 0.8538 0.8558 0.8569
1764.669500 0.8579 0.8589 0.8607 0.8610 0.8618
1771.303000 0.8620 0.8628 0.8630 0.8645 0.8650
1777.936500 0.8657 0.8660 0.8667 0.8670 0.8684
1784.570000 0.8690 0.8697 0.8720 0.8736 0.8759
1791.203500 0.8776 0.8786 0.8790 0.8802 0.8810
1797.837000 0.8810 0.8815 0.8820 0.8820 0.8825
1804.470500 0.8830 0.8840 0.8850 0.8854 0.8860
1811.104000 0.8860 0.8860 0.8860 0.8860 0.8860
1817.737500 0.8860 0.8860 0.8863 0.8870 0.8870
1824.371000 0.8870 0.8876 0.8890 0.8890 0.8890
1831.004500 0.8890 0.8890 0.8890 0.8890 0.8890
1837.638000 0.8892 0.8902 0.8912 0.8920 0.8922
1844.271500 0.8940 0.8940 0.8940 0.8941 0.8950
1850.905000 0.8950 0.8950 0.8950 0.8960 0.8960
1857.538500 0.8960 0.8960 0.8979 0.8980 0.8980
1864.172000 0.8980 0.8980 0.8989 0.8990 0.8990
1870.805500 0.8990 0.8990 0.8990 0.8998 0.9000
1877.439000 0.9000 0.9000 0.9000 0.9000 0.9000
1884.072500 0.9000 0.9000 0.9000 0.9000 0.9000
1890.706000 0.9000 0.9000 0.9000 0.9000 0.9000
1897.339500 0.9000 0.9000 0.9000 0.9000 0.9000
1903.973000 0.9000 0.9000 0.9000 0.9000 0.9000
1910.606500 0.9000 0.9000 0.9000 0.9000 0.9000
1917.240000 0.9000 0.9000 0.9000 0.9000 0.9000
1923.873500 0.8997 0.8990 0.8990 0.8990 0.8990
1930.507000 0.8990 0.8990 0.8987 0.8980 0.8980
1937.140500 0.8980 0.8980 0.8980 0.8980 0.8977
1943.774000 0.8960 0.8960 0.8960 0.8960 0.8960
1950.407500 0.8960 0.8960 0.8960 0.8960 0.8960
1957.041000 0.8960 0.8960 0.8960 0.8980 0.8980
1963.674500 0.8980 0.8990 0.8990 0.8990 0.8990
1970.308000 0.8990 0.8990 0.8990 0.8990 0.8990
1976.941500 0.8990 0.8990 0.8990 0.8990 0.8990
1983.575000 0.8990 0.8990 0.8990 0.8990 0.8990
1990.208500 0.8990 0.8990 0.8990 0.8990 0.8990
1996.842000 0.8990 0.8990 0.8984 0.8980 0.8980
2003.475500 0.8980 0.8980 0.8980 0.8968 0.8960
2010.109000 0.8960 0.8960 0.8960 0.8960 0.8954
2016.742500 0.8950 0.8950 0.8950 0.8950 0.8950
2023.376000 0.8944 0.8940 0.8940 0.8940 0.8940
2030.009500 0.8940 0.8940 0.8940 0.8946 0.8950
2036.643000 0.8950 0.8950 0.8950 0.8950 0.8950
2043.276500 0.8950 0.8950 0.8950 0.8950 0.8950
2049.910000 0.8956 0.8960 0.8960 0.8960 0.8960
2056.543500 0.8960 0.8960 0.8960 0.8960 0.8960
2063.177000 0.8960 0.8960 0.8960 0.8960 0.8960
2069.810500 0.8960 0.8960 0.8960 0.8960 0.8960
2076.444000 0.8960 0.8960 0.8960 0.8960 0.8960
2083.077500 0.8960 0.8960 0.8960 0.8960 0.8960
2089.711000 0.8960 0.8960 0.8960 0.8960 0.8960
2096.344500 0.8960 0.8960 0.8960 0.8960 0.8960
2102.978000 0.8960 0.8960 0.8960 0.8960 0.8960
2109.611500 0.8960 0.8960 0.8960 0.8960 0.8960
2116.245000 0.8960 0.8960 0.8960 0.8960 0.8954
2122.878500 0.8950 0.8950 0.8950 0.8950 0.8950
2129.512000 0.8950 0.8950 0.8950 0.8950 0.8950
2136.145500 0.8950 0.8950 0.8950 0.8950 0.8950
2142.779000 0.8950 0.8950 0.8950 0.8950 0.8950
2149.412500 0.8950 0.8950 0.8950 0.8950 0.8950
2156.046000 0.8950 0.8950 0.8950 0.8950 0.8950
2162.679500 0.8950 0.8950 0.8950 0.8950 0.8950
2169.313000 0.8950 0.8950 0.8950 0.8950 0.8950
2175.946500 0.8950 0.8950 0.8950 0.8950 0.8950
2182.580000 0.8950 0.8950 0.8950 0.8950 0.8950
2189.213500 0.8950 0.8950 0.8950 0.8950 0.8950
2195.847000 0.8950 0.8950 0.8950 0.8950 0.8950
2202.480500 0.8956 0.8960 0.8960 0.8960 0.8960
2209.114000 0.8960 0.8960 0.8960 0.8960 0.8954
2215.747500 0.8950 0.8950 0.8950 0.8950 0.8950
2222.381000 0.8944 0.8940 0.8940 0.8940 0.8940
2229.014500 0.8940 0.8940 0.8928 0.8920 0.8920
2235.648000 0.8920 0.8920 0.8920 0.8920 0.8914
2242.281500 0.8910 0.8910 0.8910 0.8910 0.8910
2248.915000 0.8910 0.8904 0.8900 0.8900 0.8900
2255.548500 0.8900 0.8900 0.8900 0.8894 0.8890
2262.182000 0.8890 0.8890 0.8890 0.8890 0.8890
2268.815500 0.8878 0.8870 0.8870 0.8870 0.8870
2275.449000 0.8870 0.8870 0.8864 0.8860 0.8860
2282.082500 0.8854 0.8850 0.8850 0.8850 0.8838
2288.716000 0.8830 0.8830 0.8830 0.8830 0.8830
2295.349500 0.8830 0.8830 0.8830 0.8830 0.8830
2301.983000 0.8830 0.8830 0.8830 0.8830 0.8830
2308.616500 0.8830 0.8830 0.8842 0.8850 0.8850
2315.250000 0.8850 0.8850 0.8856 0.8860 0.8860
2321.883500 0.8860 0.8860 0.8860 0.8860 0.8860
2328.517000 0.8860 0.8860 0.8860 0.8860 0.8860
2335.150500 0.8860 0.8860 0.8860 0.8860 0.8860
2341.784000 0.8860 0.8860 0.8860 0.8854 0.8850
2348.417500 0.8850 0.8850 0.8850 0.8850 0.8850
2355.051000 0.8850 0.8850 0.8850 0.8850 0.8850
2361.684500 0.8850 0.8850 0.8850 0.8850 0.8850
2368.318000 0.8850 0.8838 0.8830 0.8830 0.8824
2374.951500 0.8820 0.8820 0.8814 0.8810 0.8810
2381.585000 0.8798 0.8784 0.8780 0.8774 0.8770
2388.218500 0.8758 0.8750 0.8744 0.8734 0.8730
2394.852000 0.8730 0.8730 0.8718 0.8710 0.8710
2401.485500 0.8710 0.8704 0.8700 0.8700 0.8700
2408.119000 0.8694 0.8690 0.8690 0.8690 0.8690
2414.752500 0.8690 0.8678 0.8670 0.8670 0.8670
2421.386000 0.8670 0.8664 0.8660 0.8660 0.8660
2428.019500 0.8660 0.8660 0.8654 0.8650 0.8650
2434.653000 0.8650 0.8650 0.8650 0.8638 0.8630
2441.286500 0.8630 0.8630 0.8630 0.8630 0.8624
2447.920000 0.8620 0.8620 0.8620 0.8620 0.8620
2454.553500 0.8620 0.8614 0.8598 0.8590 0.8584
2461.187000 0.8574 0.8564 0.8560 0.8548 0.8540
2467.820500 0.8534 0.8530 0.8530 0.8530 0.8524
2474.454000 0.8520 0.8520 0.8508 0.8500 0.8494
2481.087500 0.8484 0.8480 0.8468 0.8460 0.8454
2487.721000 0.8450 0.8444 0.8428 0.8414 0.8410
2494.354500 0.8404 0.8381 0.8364 0.8348 0.8334
2500.988000 0.8324 0.8302 0.8284 0.8268 0.8254
2507.621500 0.8250 0.8244 0.8228 0.8214 0.8210
2514.255000 0.8210 0.8204 0.8200 0.8200 0.8200
2520.888500 0.8194 0.8190 0.8190 0.8178 0.8170
2527.522000 0.8170 0.8170 0.8170 0.8164 0.8160
2534.155500 0.8160 0.8160 0.8160 0.8154 0.8150
2540.789000 0.8150 0.8150 0.8150 0.8150 0.8150
2547.422500 0.8150 0.8138 0.8130 0.8130 0.8124
2554.056000 0.8120 0.8114 0.8110 0.8098 0.8090
2560.689500 0.8090 0.8084 0.8080 0.8080 0.8074
2567.323000 0.8052 0.8040 0.8034 0.8030 0.8011
2573.956500 0.7975 0.7941 0.7918 0.7892 0.7874
2580.590000 0.7858 0.7844 0.7834 0.7824 0.7820
2587.223500 0.7808 0.7794 0.7784 0.7780 0.7768
2593.857000 0.7754 0.7744 0.7728 0.7714 0.7710
2600.490500 0.7710 0.7710 0.7704 0.7688 0.7674
2607.124000 0.7670 0.7664 0.7648 0.7628 0.7620
2613.757500 0.7608 0.7600 0.7594 0.7584 0.7580
2620.391000 0.7580 0.7568 0.7560 0.7560 0.7560
2627.024500 0.7560 0.7560 0.7560 0.7554 0.7550
2633.658000 0.7550 0.7550 0.7556 0.7560 0.7560
2640.291500 0.7560 0.7560 0.7560 0.7560 0.7560
2646.925000 0.7560 0.7560 0.7560 0.7560 0.7560
2653.558500 0.7560 0.7560 0.7560 0.7560 0.7554
2660.192000 0.7550 0.7544 0.7528 0.7514 0.7504
2666.825500 0.7481 0.7464 0.7441 0.7418 0.7392
2673.459000 0.7362 0.7338 0.7311 0.7281 0.7258
2680.092500 0.7231 0.7201 0.7178 0.7158 0.7119
2686.726000 0.7069 0.7044 0.7021 0.7004 0.7000
2693.359500 0.6981 0.6951 0.6928 0.6902 0.6872
2699.993000 0.6854 0.6844 0.6828 0.6808 0.6788
2706.626500 0.6768 0.6754 0.6738 0.6724 0.6720
2713.260000 0.6714 0.6698 0.6690 0.6684 0.6680
2719.893500 0.6680 0.6674 0.6658 0.6650 0.6644
2726.527000 0.6640 0.6634 0.6630 0.6611 0.6594
2733.160500 0.6578 0.6564 0.6554 0.6538 0.6518
2739.794000 0.6510 0.6498 0.6484 0.6474 0.6451
2746.427500 0.6428 0.6408 0.6394 0.6390 0.6384
2753.061000 0.6362 0.6332 0.6308 0.6281 0.6251
2759.694500 0.6228 0.6195 0.6161 0.6150 0.6119
2766.328000 0.6069 0.6025 0.5998 0.5984 0.5974
2772.961500 0.5958 0.5950 0.5944 0.5940 0.5940
2779.595000 0.5940 0.5940 0.5946 0.5950 0.5950
2786.228500 0.5962 0.5970 0.5976 0.5986 0.6002
2792.862000 0.6010 0.6016 0.6026 0.6042 0.6056
2799.495500 0.6066 0.6076 0.6080 0.6092 0.6106
2806.129000 0.6110 0.6110 0.6110 0.6110 0.6110
2812.762500 0.6110 0.6104 0.6088 0.6080 0.6074
2819.396000 0.6070 0.6058 0.6050 0.6038 0.6024
2826.029500 0.6014 0.5985 0.5933 0.5885 0.5845
2832.663000 0.5805 0.5778 0.5745 0.5705 0.5665
2839.296500 0.5625 0.5579 0.5535 0.5483 0.5423
2845.930000 0.5369 0.5301 0.5227 0.5157 0.5093
2852.563500 0.5027 0.4969 0.4919 0.4863 0.4828
2859.197000 0.4802 0.4772 0.4754 0.4750 0.4750
2865.830500 0.4750 0.4750 0.4756 0.4760 0.4772
2872.464000 0.4780 0.4786 0.4815 0.4836 0.4840
2879.097500 0.4852 0.4860 0.4860 0.4860 0.4860
2885.731000 0.4860 0.4860 0.4860 0.4860 0.4848
2892.364500 0.4840 0.4834 0.4824 0.4820 0.4808
2898.998000 0.4788 0.4768 0.4754 0.4744 0.4715
2905.631500 0.4681 0.4651 0.4628 0.4602 0.4578
2912.265000 0.4552 0.4522 0.4479 0.4429 0.4342
2918.898500 0.4288 0.4255 0.4215 0.4182 0.4170
2925.532000 0.4152 0.4140 0.4140 0.4140 0.4152
2932.165500 0.4160 0.4166 0.4170 0.4170 0.4176
2938.799000 0.4192 0.4200 0.4206 0.4210 0.4216
2945.432500 0.4220 0.4220 0.4232 0.4240 0.4246
2952.066000 0.4250 0.4256 0.4285 0.4306 0.4335
2958.699500 0.4399 0.4430 0.4479 0.4522 0.4579
2965.333000 0.4622 0.4648 0.4697 0.4739 0.4793
2971.966500 0.4826 0.4849 0.4897 0.4957 0.5017
2978.600000 0.5058 0.5076 0.5105 0.5145 0.5179
2985.233500 0.5202 0.5259 0.5327 0.5350 0.5368
2991.867000 0.5392 0.5412 0.5432 0.5446 0.5450
2998.500500 0.5450 0.5444 0.5428 0.5414 0.5392
3005.134000 0.5374 0.5358 0.5331 0.5301 0.5278
3011.767500 0.5251 0.5234 0.5212 0.5194 0.5172
3018.401000 0.5154 0.5132 0.5114 0.5098 0.5078
3025.034500 0.5058 0.5025 0.4991 0.4968 0.4954
3031.668000 0.4882 0.4840 0.4828 0.4770 0.4728
3038.301500 0.4720 0.4695 0.4649 0.4624 0.4602
3044.935000 0.4565 0.4495 0.4454 0.4425 0.4391
3051.568500 0.4355 0.4321 0.4298 0.4265 0.4232
3058.202000 0.4214 0.4204 0.4188 0.4174 0.4151
3064.835500 0.4134 0.4124 0.4108 0.4100 0.4094
3071.469000 0.4090 0.4090 0.4090 0.4090 0.4090
3078.102500 0.4090 0.4090 0.4090 0.4084 0.4080
3084.736000 0.4080 0.4080 0.4068 0.4060 0.4060
3091.369500 0.4060 0.4060 0.4060 0.4060 0.4060
3098.003000 0.4048 0.4040 0.4040 0.4040 0.4040
3104.636500 0.4021 0.3991 0.3974 0.3964 0.3948
3111.270000 0.3940 0.3934 0.3924 0.3914 0.3891
3117.903500 0.3861 0.3838 0.3805 0.3753 0.3705
3124.537000 0.3678 0.3645 0.3611 0.3594 0.3590
3131.170500 0.3590 0.3590 0.3571 0.3560 0.3548
3137.804000 0.3540 0.3528 0.3520 0.3514 0.3491
3144.437500 0.3474 0.3445 0.3405 0.3372 0.3354
3151.071000 0.3325 0.3304 0.3300 0.3281 0.3245
3157.704500 0.3224 0.3201 0.3190 0.3178 0.3170
3164.338000 0.3158 0.3150 0.3144 0.3140 0.3121
3170.971500 0.3085 0.3064 0.3054 0.3032 0.3002
3177.605000 0.2984 0.2980 0.2961 0.2938 0.2918
3184.238500 0.2904 0.2881 0.2858 0.2844 0.2840
3190.872000 0.2828 0.2814 0.2804 0.2788 0.2774
3197.505500 0.2751 0.2734 0.2724 0.2720 0.2720
3204.139000 0.2708 0.2700 0.2700 0.2694 0.2684
3210.772500 0.2668 0.2660 0.2660 0.2660 0.2660
3217.406000 0.2654 0.2650 0.2650 0.2650 0.2650
3224.039500 0.2650 0.2631 0.2614 0.2604 0.2588
3230.673000 0.2568 0.2542 0.2511 0.2488 0.2474
3237.306500 0.2458 0.2444 0.2434 0.2412 0.2394
3243.940000 0.2390 0.2378 0.2364 0.2341 0.2324
3250.573500 0.2301 0.2284 0.2274 0.2258 0.2213
3257.207000 0.2172 0.2154 0.2131 0.2114 0.2104
3263.840500 0.2088 0.2074 0.2052 0.2034 0.2024
3270.474000 0.2002 0.1972 0.1948 0.1928 0.1914
3277.107500 0.1891 0.1855 0.1834 0.1812 0.1794
3283.741000 0.1778 0.1758 0.1744 0.1734 0.1718
3290.374500 0.1704 0.1700 0.1700 0.1700 0.1700
3297.008000 0.1700 0.1700 0.1706 0.1710 0.1722
3303.641500 0.1742 0.1762 0.1776 0.1786 0.1815
3310.275000 0.1848 0.1885 0.1906 0.1929 0.1952
3316.908500 0.1979 0.1996 0.2049 0.2123 0.2236
3323.542000 0.2339 0.2407 0.2455 0.2489 0.2562
3330.175500 0.2606 0.2629 0.2665 0.2705 0.2732
3336.809000 0.2789 0.2838 0.2862 0.2882 0.2902
3343.442500 0.2947 0.2976 0.2986 0.3015 0.3055
3350.076000 0.3095 0.3122 0.3142 0.3162 0.3195
3356.709500 0.3229 0.3283 0.3329 0.3346 0.3375
3363.343000 0.3415 0.3436 0.3477 0.3531 0.3587
3369.976500 0.3647 0.3701 0.3745 0.3778 0.3821
3376.610000 0.3846 0.3875 0.3909 0.3926 0.3936
3383.243500 0.3940 0.3952 0.3960 0.3966 0.3988
3389.877000 0.4006 0.4016 0.4032 0.4046 0.4050
3396.510500 0.4056 0.4079 0.4096 0.4118 0.4148
3403.144000 0.4191 0.4216 0.4220 0.4220 0.4232
3409.777500 0.4246 0.4275 0.4302 0.4322 0.4336
3416.411000 0.4389 0.4426 0.4430 0.4449 0.4479
3423.044500 0.4502 0.4529 0.4559 0.4582 0.4602
3429.678000 0.4616 0.4626 0.4636 0.4640 0.4640
3436.311500 0.4652 0.4685 0.4749 0.4835 0.4870
3442.945000 0.4876 0.4880 0.4899 0.4941 0.4979
3449.578500 0.4996 0.5000 0.5006 0.5022 0.5036
3456.212000 0.5058 0.5076 0.5086 0.5102 0.5110
3462.845500 0.5135 0.5181 0.5200 0.5206 0.5222
3469.479000 0.5267 0.5315 0.5330 0.5342 0.5369
3476.112500 0.5380 0.5392 0.5425 0.5452 0.5460
3482.746000 0.5460 0.5472 0.5505 0.5532 0.5565
3489.379500 0.5617 0.5671 0.5715 0.5736 0.5765
3496.013000 0.5823 0.5856 0.5885 0.5919 0.5955
3502.646500 0.5995 0.6022 0.6042 0.6056 0.6066
3509.280000 0.6088 0.6112 0.6120 0.6132 0.6152
3515.913500 0.6172 0.6192 0.6219 0.6236 0.6252
3522.547000 0.6272 0.6292 0.6312 0.6332 0.6346
3529.180500 0.6356 0.6372 0.6392 0.6412 0.6426
3535.814000 0.6436 0.6446 0.6462 0.6495 0.6547
3542.447500 0.6582 0.6596 0.6606 0.6610 0.6635
3549.081000 0.6687 0.6722 0.6742 0.6756 0.6772
3555.714500 0.6780 0.6799 0.6859 0.6915 0.6936
3562.348000 0.6965 0.6998 0.7035 0.7050 0.7056
3568.981500 0.7103 0.7167 0.7202 0.7216 0.7226
3575.615000 0.7230 0.7242 0.7250 0.7256 0.7285
3582.248500 0.7331 0.7369 0.7386 0.7390 0.7402
3588.882000 0.7422 0.7430 0.7430 0.7442 0.7456
3595.515500 0.7466 0.7482 0.7496 0.7531 0.7556
3602.149000 0.7560 0.7572 0.7580 0.7580 0.7586
3608.782500 0.7584 0.7586 0.7596 0.7618 0.7636
3615.416000 0.7640 0.7652 0.7660 0.7660 0.7685
3622.049500 0.7725 0.7746 0.7756 0.7760 0.7772
3628.683000 0.7780 0.7792 0.7825 0.7846 0.7862
3635.316500 0.7876 0.7880 0.7886 0.7902 0.7910
3641.950000 0.7916 0.7926 0.7942 0.7962 0.7995
3648.583500 0.8010 0.8029 0.8046 0.8062 0.8082
3655.217000 0.8102 0.8116 0.8120 0.8126 0.8130
3661.850500 0.8130 0.8130 0.8142 0.8150 0.8150
3668.484000 0.8156 0.8160 0.8160 0.8160 0.8160
3675.117500 0.8160 0.8160 0.8160 0.8160 0.8160
3681.751000 0.8166 0.8170 0.8170 0.8170 0.8189
3688.384500 0.8206 0.8216 0.8220 0.8232 0.8240
3695.018000 0.8240 0.8246 0.8250 0.8250 0.8250
3701.651500 0.8250 0.8250 0.8256 0.8260 0.8272
3708.285000 0.8280 0.8280 0.8286 0.8290 0.8290
3714.918500 0.8296 0.8300 0.8312 0.8320 0.8326
3721.552000 0.8330 0.8336 0.8340 0.8352 0.8360
3728.185500 0.8360 0.8360 0.8366 0.8370 0.8370
3734.819000 0.8370 0.8376 0.8380 0.8380 0.8380
3741.452500 0.8380 0.8380 0.8392 0.8406 0.8410
3748.086000 0.8410 0.8404 0.8406 0.8410 0.8416
3754.719500 0.8432 0.8452 0.8472 0.8486 0.8496
3761.353000 0.8500 0.8512 0.8520 0.8520 0.8526
3767.986500 0.8530 0.8536 0.8540 0.8540 0.8552
3774.620000 0.8566 0.8576 0.8586 0.8602 0.8616
3781.253500 0.8620 0.8620 0.8620 0.8626 0.8630
3787.887000 0.8630 0.8630 0.8630 0.8642 0.8650
3794.520500 0.8656 0.8660 0.8666 0.8670 0.8670
3801.154000 0.8670 0.8670 0.8670 0.8682 0.8690
3807.787500 0.8678 0.8664 0.8660 0.8654 0.8650
3814.421000 0.8638 0.8624 0.8620 0.8614 0.8610
3821.054500 0.8610 0.8610 0.8598 0.8590 0.8584
3827.688000 0.8580 0.8580 0.8574 0.8570 0.8570
3834.321500 0.8564 0.8548 0.8540 0.8534 0.8536
3840.955000 0.8534 0.8524 0.8520 0.8520 0.8520
3847.588500 0.8526 0.8530 0.8530 0.8530 0.8530
3854.222000 0.8530 0.8530 0.8530 0.8530 0.8530
3860.855500 0.8530 0.8524 0.8520 0.8520 0.8508
3867.489000 0.8512 0.8508 0.8488 0.8468 0.8454
3874.122500 0.8444 0.8440 0.8440 0.8440 0.8440
3880.756000 0.8440 0.8440 0.8440 0.8446 0.8450
3887.389500 0.8450 0.8450 0.8450 0.8444 0.8440
3894.023000 0.8440 0.8440 0.8428 0.8420 0.8420
3900.656500 0.8420 0.8420 0.8414 0.8410 0.8410
3907.290000 0.8404 0.8400 0.8406 0.8410 0.8410
3913.923500 0.8410 0.8410 0.8404 0.8400 0.8400
3920.557000 0.8388 0.8380 0.8380 0.8380 0.8380
3927.190500 0.8380 0.8380 0.8380 0.8380 0.8380
3933.824000 0.8380 0.8380 0.8380 0.8380 0.8380
3940.457500 0.8380 0.8380 0.8368 0.8372 0.8380
3947.091000 0.8380 0.8380 0.8380 0.8380 0.8380
3953.724500 0.8380 0.8380 0.8380 0.8374 0.8370
3960.358000 0.8364 0.8360 0.8360 0.8366 0.8370
3966.991500 0.8376 0.8380 0.8380 0.8374 0.8364
3973.625000 0.8360 0.8360 0.8360 0.8360 0.8348
3980.258500 0.8340 0.8340 0.8340 0.8340 0.8340
3986.892000 0.8340 0.8340 0.8340 0.8340 0.8340
3993.525500 0.8334 0.8324 0.8320 0.8320 0.8320
4000.159000 0.8308 0.8300 0.8294 0.8290 0.8284
4006.792500 0.8268 0.8254 0.8244 0.8265 0.8268
4013.426000 0.8254 0.8244
##END=
