##TITLE=Adenine, 3-(m-chlorobenzyl)-
##JCAMP-DX=4.24
##DATA TYPE=INFRARED SPECTRUM
##CLASS=COBLENTZ III
##ORIGIN=SOUTHERN RESEARCH INSTITUTE
##OWNER=Copyright (C) 1987 by the Coblentz Society
Collection (C) 2018 copyright by the U.S. Secretary of Commerce
on behalf of the United States of America. All rights reserved.
##DATE=1964/06/26
##NAMES=3-(3-chlorobenzyl)-3H-purin-6-ylamine
3-(3-chlorobenzyl)-3H-purin-6-amine
##MOLFORM=C12 H10 Cl N5
##SOURCE REFERENCE=COBLENTZ NO. 8220
##$NIST ID=B6008220
##$NIST SOURCE=COBLENTZ
##$NIST IMAGE=cob8220
##SPECTROMETER/DATA SYSTEM=PERKIN-ELMER 221 (GRATING)
##INSTRUMENT PARAMETERS=FILTER AT 2490, 980 CM^-^1. GRATING 4000-1428 CM^-^1, NaCl PRISM 1428-650 CM^-^1
##STATE=SOLID (1 mg / 650 mg KBr DISC)
$$ PURITY - ANALYTICAL
##SAMPLING PROCEDURE=TRANSMISSION
##RESOLUTION=2
##DATA PROCESSING=DIGITIZED BY COBLENTZ SOCIETY (BATCH II) FROM HARD COPY
##XUNITS=1/CM
##YUNITS=TRANSMITTANCE
##XFACTOR=1.0
##YFACTOR=1
##FIRSTX=597
##LASTX=4000
##FIRSTY=0.8419
##MAXX=4000
##MINX=597
##MAXY=0.9516
##MINY=0.1791
##NPOINTS=3404
##XYDATA=(X++(Y..Y))
597.000000 0.8419 0.8414 0.8409 0.8405 0.8399
602.000000 0.8393 0.8387 0.8380 0.8382 0.8387
607.000000 0.8392 0.8396 0.8401 0.8406 0.8411
612.000000 0.8415 0.8421 0.8428 0.8435 0.8442
617.000000 0.8450 0.8460 0.8476 0.8492 0.8508
622.000000 0.8524 0.8543 0.8568 0.8593 0.8618
627.000000 0.8639 0.8652 0.8665 0.8678 0.8691
632.000000 0.8705 0.8715 0.8723 0.8732 0.8741
637.000000 0.8749 0.8718 0.8743 0.8739 0.8731
642.000000 0.8723 0.8710 0.8696 0.8683 0.8667
647.000000 0.8641 0.8608 0.8498 0.8131 0.7764
652.000000 0.7397 0.7030 0.6663 0.6296 0.6158
657.000000 0.6090 0.6068 0.6044 0.6052 0.6058
662.000000 0.6065 0.6135 0.6257 0.6379 0.6501
667.000000 0.6623 0.6745 0.6867 0.6989 0.7111
672.000000 0.7233 0.7355 0.7475 0.7482 0.7489
677.000000 0.7494 0.7379 0.7255 0.7132 0.7009
682.000000 0.6885 0.6770 0.6775 0.7017 0.7478
687.000000 0.7693 0.7723 0.7753 0.7784 0.7824
692.000000 0.7910 0.7996 0.8082 0.8168 0.8254
697.000000 0.8341 0.8375 0.8383 0.8391 0.8402
702.000000 0.8168 0.7735 0.7302 0.6869 0.6436
707.000000 0.6003 0.5809 0.5797 0.5793 0.5812
712.000000 0.5777 0.6519 0.6873 0.7227 0.7580
717.000000 0.7934 0.8287 0.8641 0.8812 0.8891
722.000000 0.8963 0.9009 0.9028 0.9038 0.9042
727.000000 0.9046 0.9051 0.9053 0.9056 0.9058
732.000000 0.9072 0.9063 0.9065 0.9068 0.9061
737.000000 0.9051 0.9041 0.9031 0.9022 0.9010
742.000000 0.8998 0.8987 0.8974 0.8953 0.8932
747.000000 0.8911 0.8891 0.8866 0.8839 0.8812
752.000000 0.8785 0.8758 0.8729 0.8700 0.8671
757.000000 0.8642 0.8612 0.8582 0.8543 0.8504
762.000000 0.8465 0.8426 0.8387 0.8348 0.8310
767.000000 0.8272 0.8234 0.8196 0.8158 0.8120
772.000000 0.8058 0.7985 0.7912 0.7829 0.7687
777.000000 0.7290 0.6416 0.5776 0.5135 0.4495
782.000000 0.4212 0.4224 0.4235 0.4230 0.4592
787.000000 0.4902 0.5212 0.5523 0.5833 0.6143
792.000000 0.6453 0.6763 0.7074 0.7384 0.7694
797.000000 0.8004 0.8254 0.8483 0.8528 0.8573
802.000000 0.8612 0.8621 0.8630 0.8626 0.8639
807.000000 0.8635 0.8553 0.8449 0.8345 0.8242
812.000000 0.8138 0.8034 0.7930 0.7827 0.7743
817.000000 0.7760 0.7771 0.8109 0.8449 0.8789
822.000000 0.9042 0.9164 0.9243 0.9300 0.9343
827.000000 0.9375 0.9407 0.9435 0.9463 0.9473
832.000000 0.9479 0.9485 0.9491 0.9497 0.9516
837.000000 0.9498 0.9496 0.9493 0.9491 0.9489
842.000000 0.9485 0.9482 0.9478 0.9474 0.9463
847.000000 0.9452 0.9434 0.9401 0.9367 0.9329
852.000000 0.9284 0.9240 0.9197 0.9155 0.9113
857.000000 0.9088 0.9063 0.9043 0.9045 0.9046
862.000000 0.9055 0.9071 0.9087 0.9104 0.9125
867.000000 0.9145 0.9156 0.9161 0.9159 0.9158
872.000000 0.9148 0.9139 0.9129 0.9104 0.9024
877.000000 0.8908 0.8792 0.8676 0.8561 0.8445
882.000000 0.8329 0.8213 0.8186 0.8259 0.8414
887.000000 0.8569 0.8724 0.8879 0.9034 0.9144
892.000000 0.9189 0.9204 0.9210 0.9220 0.9211
897.000000 0.9206 0.9191 0.9161 0.9074 0.8991
902.000000 0.8915 0.8842 0.8771 0.8747 0.8741
907.000000 0.8717 0.8752 0.8780 0.8846 0.8911
912.000000 0.8972 0.9027 0.9080 0.9121 0.9152
917.000000 0.9168 0.9178 0.9186 0.9174 0.9189
922.000000 0.9188 0.9187 0.9187 0.9184 0.9181
927.000000 0.9178 0.9175 0.9163 0.9152 0.9140
932.000000 0.9129 0.9113 0.9095 0.9077 0.9055
937.000000 0.9026 0.8986 0.8923 0.8836 0.8730
942.000000 0.8648 0.8571 0.8478 0.8324 0.8281
947.000000 0.8272 0.8271 0.8271 0.8426 0.8587
952.000000 0.8734 0.8890 0.9033 0.9092 0.9122
957.000000 0.9147 0.9169 0.9183 0.9193 0.9196
962.000000 0.9198 0.9199 0.9181 0.9185 0.9178
967.000000 0.9170 0.9160 0.9138 0.9110 0.9081
972.000000 0.9053 0.9016 0.8973 0.8931 0.8889
977.000000 0.8851 0.8814 0.8777 0.8740 0.8701
982.000000 0.8659 0.8617 0.8575 0.8533 0.8491
987.000000 0.8440 0.8387 0.8335 0.8283 0.8228
992.000000 0.8165 0.8101 0.8038 0.7970 0.7901
997.000000 0.7827 0.7725 0.7462 0.7136 0.6811
1002.000000 0.6485 0.5948 0.5980 0.6038 0.6126
1007.000000 0.6205 0.6277 0.6386 0.6513 0.6674
1012.000000 0.6884 0.7093 0.7302 0.7511 0.7721
1017.000000 0.7930 0.8139 0.8349 0.8558 0.8767
1022.000000 0.8915 0.8964 0.8974 0.8978 0.8976
1027.000000 0.8974 0.8944 0.8970 0.8968 0.8966
1032.000000 0.8963 0.8960 0.8956 0.8952 0.8949
1037.000000 0.8944 0.8936 0.8927 0.8917 0.8904
1042.000000 0.8891 0.8879 0.8863 0.8847 0.8830
1047.000000 0.8812 0.8794 0.8774 0.8752 0.8727
1052.000000 0.8697 0.8668 0.8638 0.8596 0.8554
1057.000000 0.8512 0.8477 0.8442 0.8408 0.8375
1062.000000 0.8342 0.8308 0.8273 0.8238 0.8203
1067.000000 0.8167 0.8144 0.8115 0.7993 0.7841
1072.000000 0.7690 0.7539 0.7387 0.7043 0.7085
1077.000000 0.7079 0.7180 0.7425 0.7670 0.7915
1082.000000 0.8159 0.8404 0.8427 0.8431 0.8433
1087.000000 0.8436 0.8439 0.8444 0.8448 0.8455
1092.000000 0.8462 0.8469 0.8476 0.8489 0.8504
1097.000000 0.8516 0.8528 0.8539 0.8545 0.8549
1102.000000 0.8554 0.8558 0.8530 0.8564 0.8562
1107.000000 0.8559 0.8556 0.8553 0.8550 0.8541
1112.000000 0.8532 0.8523 0.8514 0.8505 0.8495
1117.000000 0.8483 0.8471 0.8459 0.8441 0.8423
1122.000000 0.8405 0.8383 0.8355 0.8326 0.8294
1127.000000 0.8268 0.8263 0.8256 0.8249 0.8241
1132.000000 0.8234 0.8226 0.8218 0.8203 0.8181
1137.000000 0.8159 0.8136 0.8114 0.8085 0.8052
1142.000000 0.8020 0.7981 0.7931 0.7880 0.7806
1147.000000 0.7716 0.7616 0.7476 0.7305 0.7113
1152.000000 0.6635 0.6258 0.5672 0.5086 0.4500
1157.000000 0.3914 0.3468 0.3456 0.3454 0.3483
1162.000000 0.3462 0.3540 0.3809 0.4078 0.4348
1167.000000 0.4617 0.4887 0.5156 0.5425 0.5695
1172.000000 0.5914 0.5931 0.5952 0.5975 0.5998
1177.000000 0.6017 0.6041 0.6829 0.7094 0.7360
1182.000000 0.7625 0.7890 0.7916 0.7931 0.7907
1187.000000 0.7899 0.7887 0.7862 0.7719 0.7573
1192.000000 0.7427 0.7281 0.7135 0.6989 0.6843
1197.000000 0.6697 0.6551 0.6405 0.6259 0.6113
1202.000000 0.5979 0.5946 0.5916 0.5932 0.5920
1207.000000 0.6047 0.6211 0.6376 0.6541 0.6705
1212.000000 0.6870 0.7035 0.7199 0.7364 0.7430
1217.000000 0.7444 0.7447 0.7479 0.7447 0.7441
1222.000000 0.7432 0.7417 0.7398 0.7355 0.7279
1227.000000 0.7005 0.6725 0.6446 0.6166 0.5886
1232.000000 0.5645 0.5615 0.5618 0.5777 0.6005
1237.000000 0.6233 0.6460 0.6688 0.6916 0.7144
1242.000000 0.7371 0.7599 0.7827 0.8055 0.8282
1247.000000 0.8508 0.8477 0.8476 0.8468 0.8448
1252.000000 0.8419 0.8357 0.8292 0.8219 0.8136
1257.000000 0.8061 0.7992 0.7879 0.7757 0.7636
1262.000000 0.7514 0.7393 0.7271 0.7150 0.7028
1267.000000 0.6906 0.6851 0.6851 0.6934 0.7254
1272.000000 0.7573 0.7892 0.8238 0.8304 0.8363
1277.000000 0.8393 0.8419 0.8442 0.8463 0.8478
1282.000000 0.8484 0.8491 0.8495 0.8464 0.8495
1287.000000 0.8494 0.8489 0.8483 0.8478 0.8469
1292.000000 0.8459 0.8448 0.8432 0.8417 0.8398
1297.000000 0.8376 0.8352 0.8324 0.8295 0.8267
1302.000000 0.8232 0.8198 0.8162 0.8117 0.8073
1307.000000 0.8028 0.7980 0.7931 0.7881 0.7823
1312.000000 0.7765 0.7655 0.7545 0.7432 0.7279
1317.000000 0.6948 0.6488 0.6028 0.5536 0.5535
1322.000000 0.5539 0.5703 0.5966 0.6229 0.6492
1327.000000 0.6754 0.7017 0.7280 0.7543 0.7806
1332.000000 0.8069 0.8098 0.8108 0.8111 0.8088
1337.000000 0.8107 0.8105 0.8098 0.8089 0.8083
1342.000000 0.8078 0.8074 0.8074 0.8075 0.8075
1347.000000 0.8075 0.8075 0.8075 0.8039 0.8001
1352.000000 0.7963 0.7925 0.7887 0.7849 0.7811
1357.000000 0.7773 0.7734 0.7696 0.7658 0.7620
1362.000000 0.7582 0.7544 0.7507 0.7506 0.7514
1367.000000 0.7534 0.7566 0.7601 0.7625 0.7627
1372.000000 0.7629 0.7626 0.7623 0.7619 0.7613
1377.000000 0.7605 0.7595 0.7581 0.7555 0.7513
1382.000000 0.7465 0.7412 0.7344 0.7270 0.7164
1387.000000 0.7055 0.6957 0.6804 0.6634 0.6459
1392.000000 0.6284 0.6109 0.5933 0.5758 0.5583
1397.000000 0.5408 0.5232 0.5057 0.4882 0.4707
1402.000000 0.4537 0.4538 0.4539 0.4761 0.5392
1407.000000 0.5602 0.5586 0.5587 0.5574 0.5541
1412.000000 0.5452 0.5340 0.5259 0.5155 0.5042
1417.000000 0.4949 0.4857 0.4735 0.4519 0.4296
1422.000000 0.4072 0.3849 0.3625 0.3478 0.3465
1427.000000 0.3471 0.3755 0.4048 0.4341 0.4634
1432.000000 0.4927 0.5220 0.5514 0.5807 0.6100
1437.000000 0.6393 0.6686 0.6752 0.6804 0.6806
1442.000000 0.6729 0.6578 0.6427 0.6276 0.6125
1447.000000 0.5974 0.5823 0.5672 0.5521 0.5318
1452.000000 0.5311 0.5311 0.5311 0.5739 0.6222
1457.000000 0.6704 0.7187 0.7670 0.8152 0.8246
1462.000000 0.8258 0.8267 0.8270 0.8261 0.8143
1467.000000 0.8025 0.7908 0.7790 0.7672 0.7554
1472.000000 0.7436 0.7318 0.7201 0.7190 0.7185
1477.000000 0.7340 0.7495 0.7650 0.7806 0.7961
1482.000000 0.8116 0.8246 0.8266 0.8254 0.8271
1487.000000 0.8268 0.8263 0.8253 0.8242 0.8231
1492.000000 0.8216 0.8200 0.8178 0.8157 0.8135
1497.000000 0.8114 0.8089 0.8053 0.8017 0.7932
1502.000000 0.7849 0.7772 0.7648 0.7524 0.7400
1507.000000 0.7276 0.7152 0.7028 0.6904 0.6779
1512.000000 0.6737 0.6745 0.6794 0.6940 0.7087
1517.000000 0.7234 0.7380 0.7527 0.7673 0.7820
1522.000000 0.7966 0.8062 0.8061 0.8059 0.8056
1527.000000 0.8079 0.8043 0.8030 0.8018 0.7995
1532.000000 0.7967 0.7931 0.7895 0.7856 0.7811
1537.000000 0.7766 0.7720 0.7668 0.7616 0.7563
1542.000000 0.7514 0.7467 0.7420 0.7372 0.7324
1547.000000 0.6911 0.6497 0.6083 0.5669 0.5256
1552.000000 0.5148 0.5142 0.5142 0.5144 0.5165
1557.000000 0.5223 0.5409 0.5594 0.5780 0.5966
1562.000000 0.6152 0.6338 0.6524 0.6710 0.6921
1567.000000 0.6916 0.6916 0.6913 0.6902 0.6725
1572.000000 0.6548 0.6372 0.6195 0.6129 0.6154
1577.000000 0.6137 0.6162 0.6205 0.6247 0.6290
1582.000000 0.6333 0.6375 0.6418 0.6443 0.6415
1587.000000 0.6408 0.6315 0.6148 0.5981 0.5814
1592.000000 0.5647 0.5480 0.5313 0.5146 0.4979
1597.000000 0.4812 0.4645 0.4478 0.4311 0.4178
1602.000000 0.4075 0.3985 0.3839 0.3554 0.3269
1607.000000 0.2983 0.2698 0.2413 0.2128 0.1893
1612.000000 0.1837 0.1791 0.1832 0.1838 0.1859
1617.000000 0.1883 0.2002 0.2263 0.2524 0.2785
1622.000000 0.3046 0.3307 0.3568 0.3829 0.4090
1627.000000 0.4352 0.4613 0.4874 0.5135 0.5396
1632.000000 0.5438 0.5481 0.5454 0.5454 0.5453
1637.000000 0.5452 0.5442 0.5403 0.5316 0.5229
1642.000000 0.5142 0.5054 0.4967 0.4880 0.4792
1647.000000 0.4705 0.4618 0.4531 0.4352 0.4152
1652.000000 0.3951 0.3751 0.3550 0.3350 0.3149
1657.000000 0.2949 0.2748 0.2548 0.2347 0.2147
1662.000000 0.1946 0.1877 0.1858 0.1792 0.1852
1667.000000 0.1857 0.1871 0.1889 0.1910 0.1962
1672.000000 0.2028 0.2103 0.2267 0.2347 0.2427
1677.000000 0.2494 0.2561 0.2642 0.2735 0.3135
1682.000000 0.3237 0.3470 0.3764 0.4057 0.4351
1687.000000 0.4645 0.4938 0.5232 0.5525 0.5819
1692.000000 0.6113 0.6406 0.6700 0.6993 0.7285
1697.000000 0.7394 0.7525 0.7624 0.7712 0.7804
1702.000000 0.7901 0.8043 0.8184 0.8293 0.8377
1707.000000 0.8452 0.8519 0.8582 0.8640 0.8698
1712.000000 0.8752 0.8805 0.8839 0.8869 0.8896
1717.000000 0.8914 0.8932 0.8951 0.8969 0.9001
1722.000000 0.9037 0.9059 0.9077 0.9094 0.9111
1727.000000 0.9128 0.9141 0.9153 0.9164 0.9175
1732.000000 0.9182 0.9188 0.9194 0.9200 0.9207
1737.000000 0.9214 0.9221 0.9228 0.9235 0.9242
1742.000000 0.9246 0.9251 0.9255 0.9259 0.9264
1747.000000 0.9268 0.9273 0.9276 0.9279 0.9281
1752.000000 0.9284 0.9286 0.9288 0.9291 0.9293
1757.000000 0.9295 0.9267 0.9298 0.9298 0.9298
1762.000000 0.9298 0.9299 0.9300 0.9301 0.9301
1767.000000 0.9302 0.9303 0.9304 0.9305 0.9306
1772.000000 0.9307 0.9307 0.9308 0.9305 0.9303
1777.000000 0.9300 0.9297 0.9295 0.9289 0.9282
1782.000000 0.9275 0.9267 0.9258 0.9249 0.9240
1787.000000 0.9232 0.9225 0.9218 0.9210 0.9203
1792.000000 0.9196 0.9188 0.9180 0.9171 0.9162
1797.000000 0.9154 0.9145 0.9137 0.9128 0.9129
1802.000000 0.9131 0.9134 0.9137 0.9140 0.9147
1807.000000 0.9153 0.9159 0.9166 0.9172 0.9179
1812.000000 0.9185 0.9192 0.9199 0.9210 0.9222
1817.000000 0.9233 0.9242 0.9250 0.9257 0.9264
1822.000000 0.9264 0.9260 0.9254 0.9242 0.9231
1827.000000 0.9219 0.9208 0.9194 0.9181 0.9168
1832.000000 0.9154 0.9141 0.9127 0.9113 0.9099
1837.000000 0.9089 0.9085 0.9082 0.9079 0.9075
1842.000000 0.9072 0.9081 0.9091 0.9110 0.9129
1847.000000 0.9150 0.9171 0.9191 0.9212 0.9232
1852.000000 0.9251 0.9271 0.9300 0.9319 0.9327
1857.000000 0.9335 0.9337 0.9340 0.9343 0.9345
1862.000000 0.9344 0.9339 0.9334 0.9327 0.9321
1867.000000 0.9315 0.9309 0.9303 0.9297 0.9292
1872.000000 0.9287 0.9282 0.9277 0.9272 0.9267
1877.000000 0.9262 0.9256 0.9250 0.9244 0.9238
1882.000000 0.9232 0.9226 0.9220 0.9214 0.9208
1887.000000 0.9203 0.9197 0.9191 0.9186 0.9180
1892.000000 0.9175 0.9177 0.9183 0.9188 0.9194
1897.000000 0.9199 0.9205 0.9210 0.9216 0.9223
1902.000000 0.9231 0.9238 0.9245 0.9252 0.9258
1907.000000 0.9262 0.9267 0.9271 0.9272 0.9271
1912.000000 0.9269 0.9267 0.9265 0.9263 0.9260
1917.000000 0.9256 0.9252 0.9247 0.9243 0.9239
1922.000000 0.9236 0.9232 0.9228 0.9224 0.9220
1927.000000 0.9215 0.9210 0.9206 0.9201 0.9196
1932.000000 0.9192 0.9187 0.9183 0.9178 0.9173
1937.000000 0.9167 0.9160 0.9154 0.9147 0.9141
1942.000000 0.9134 0.9128 0.9121 0.9115 0.9108
1947.000000 0.9102 0.9099 0.9097 0.9095 0.9093
1952.000000 0.9091 0.9093 0.9098 0.9104 0.9109
1957.000000 0.9114 0.9119 0.9123 0.9128 0.9132
1962.000000 0.9137 0.9139 0.9141 0.9142 0.9142
1967.000000 0.9138 0.9134 0.9131 0.9127 0.9123
1972.000000 0.9119 0.9114 0.9110 0.9105 0.9101
1977.000000 0.9096 0.9089 0.9082 0.9075 0.9067
1982.000000 0.9060 0.9055 0.9052 0.9049 0.9045
1987.000000 0.9042 0.9039 0.9036 0.9033 0.9030
1992.000000 0.9027 0.9024 0.9022 0.9019 0.9017
1997.000000 0.9014 0.9012 0.9010 0.9008 0.9007
2002.000000 0.9006 0.9005 0.9004 0.9002 0.9001
2007.000000 0.9000 0.8999 0.8998 0.8997 0.8995
2012.000000 0.8995 0.8994 0.8994 0.8993 0.8993
2017.000000 0.8992 0.8992 0.8991 0.8990 0.8990
2022.000000 0.8987 0.8984 0.8981 0.8978 0.8975
2027.000000 0.8972 0.8969 0.8966 0.8963 0.8960
2032.000000 0.8957 0.8954 0.8951 0.8948 0.8945
2037.000000 0.8942 0.8939 0.8936 0.8933 0.8930
2042.000000 0.8929 0.8927 0.8925 0.8924 0.8922
2047.000000 0.8920 0.8919 0.8917 0.8915 0.8914
2052.000000 0.8912 0.8910 0.8909 0.8907 0.8905
2057.000000 0.8904 0.8902 0.8900 0.8899 0.8897
2062.000000 0.8895 0.8893 0.8890 0.8888 0.8886
2067.000000 0.8883 0.8881 0.8879 0.8876 0.8874
2072.000000 0.8872 0.8869 0.8867 0.8865 0.8862
2077.000000 0.8860 0.8858 0.8856 0.8853 0.8851
2082.000000 0.8849 0.8847 0.8846 0.8844 0.8843
2087.000000 0.8841 0.8840 0.8838 0.8837 0.8835
2092.000000 0.8834 0.8832 0.8831 0.8829 0.8828
2097.000000 0.8827 0.8825 0.8824 0.8822 0.8821
2102.000000 0.8819 0.8818 0.8816 0.8815 0.8813
2107.000000 0.8812 0.8810 0.8809 0.8807 0.8806
2112.000000 0.8804 0.8803 0.8803 0.8803 0.8803
2117.000000 0.8803 0.8803 0.8803 0.8803 0.8803
2122.000000 0.8803 0.8803 0.8803 0.8803 0.8803
2127.000000 0.8803 0.8803 0.8803 0.8803 0.8803
2132.000000 0.8803 0.8803 0.8803 0.8803 0.8803
2137.000000 0.8803 0.8803 0.8803 0.8803 0.8803
2142.000000 0.8803 0.8803 0.8803 0.8803 0.8803
2147.000000 0.8803 0.8803 0.8803 0.8803 0.8803
2152.000000 0.8803 0.8803 0.8802 0.8800 0.8799
2157.000000 0.8798 0.8796 0.8795 0.8793 0.8792
2162.000000 0.8791 0.8789 0.8788 0.8787 0.8785
2167.000000 0.8784 0.8782 0.8781 0.8780 0.8778
2172.000000 0.8777 0.8776 0.8774 0.8773 0.8772
2177.000000 0.8772 0.8773 0.8773 0.8774 0.8774
2182.000000 0.8775 0.8775 0.8776 0.8776 0.8776
2187.000000 0.8777 0.8777 0.8778 0.8778 0.8779
2192.000000 0.8779 0.8780 0.8780 0.8781 0.8781
2197.000000 0.8782 0.8782 0.8783 0.8783 0.8783
2202.000000 0.8783 0.8781 0.8779 0.8777 0.8774
2207.000000 0.8772 0.8770 0.8768 0.8766 0.8763
2212.000000 0.8761 0.8758 0.8756 0.8753 0.8750
2217.000000 0.8748 0.8745 0.8742 0.8739 0.8737
2222.000000 0.8734 0.8731 0.8729 0.8726 0.8725
2227.000000 0.8724 0.8724 0.8723 0.8722 0.8722
2232.000000 0.8721 0.8720 0.8720 0.8719 0.8718
2237.000000 0.8718 0.8717 0.8717 0.8720 0.8722
2242.000000 0.8724 0.8727 0.8729 0.8731 0.8734
2247.000000 0.8736 0.8737 0.8736 0.8734 0.8733
2252.000000 0.8732 0.8731 0.8729 0.8728 0.8726
2257.000000 0.8723 0.8720 0.8717 0.8714 0.8710
2262.000000 0.8707 0.8704 0.8701 0.8698 0.8695
2267.000000 0.8692 0.8688 0.8685 0.8683 0.8680
2272.000000 0.8677 0.8674 0.8671 0.8669 0.8666
2277.000000 0.8665 0.8665 0.8665 0.8665 0.8665
2282.000000 0.8666 0.8666 0.8666 0.8666 0.8666
2287.000000 0.8667 0.8667 0.8667 0.8667 0.8667
2292.000000 0.8668 0.8669 0.8671 0.8672 0.8673
2297.000000 0.8675 0.8676 0.8678 0.8679 0.8681
2302.000000 0.8682 0.8684 0.8685 0.8684 0.8683
2307.000000 0.8683 0.8682 0.8681 0.8681 0.8680
2312.000000 0.8679 0.8677 0.8671 0.8664 0.8658
2317.000000 0.8651 0.8645 0.8637 0.8628 0.8618
2322.000000 0.8608 0.8599 0.8599 0.8599 0.8599
2327.000000 0.8600 0.8600 0.8600 0.8600 0.8600
2332.000000 0.8600 0.8599 0.8599 0.8599 0.8598
2337.000000 0.8598 0.8598 0.8596 0.8595 0.8593
2342.000000 0.8592 0.8591 0.8589 0.8588 0.8586
2347.000000 0.8585 0.8583 0.8581 0.8578 0.8575
2352.000000 0.8573 0.8570 0.8567 0.8565 0.8562
2357.000000 0.8559 0.8557 0.8554 0.8551 0.8549
2362.000000 0.8546 0.8543 0.8541 0.8538 0.8536
2367.000000 0.8533 0.8530 0.8528 0.8525 0.8522
2372.000000 0.8520 0.8517 0.8514 0.8511 0.8509
2377.000000 0.8506 0.8503 0.8501 0.8499 0.8497
2382.000000 0.8495 0.8493 0.8491 0.8490 0.8488
2387.000000 0.8486 0.8484 0.8482 0.8480 0.8479
2392.000000 0.8477 0.8475 0.8474 0.8473 0.8472
2397.000000 0.8472 0.8471 0.8470 0.8469 0.8468
2402.000000 0.8467 0.8466 0.8466 0.8465 0.8464
2407.000000 0.8463 0.8462 0.8461 0.8460 0.8459
2412.000000 0.8458 0.8456 0.8455 0.8454 0.8453
2417.000000 0.8452 0.8450 0.8449 0.8448 0.8447
2422.000000 0.8446 0.8444 0.8442 0.8440 0.8438
2427.000000 0.8436 0.8434 0.8432 0.8430 0.8428
2432.000000 0.8426 0.8424 0.8422 0.8419 0.8417
2437.000000 0.8415 0.8413 0.8411 0.8409 0.8408
2442.000000 0.8408 0.8407 0.8406 0.8405 0.8404
2447.000000 0.8403 0.8402 0.8401 0.8401 0.8400
2452.000000 0.8399 0.8398 0.8397 0.8396 0.8395
2457.000000 0.8394 0.8393 0.8392 0.8391 0.8390
2462.000000 0.8389 0.8388 0.8387 0.8386 0.8385
2467.000000 0.8384 0.8383 0.8382 0.8381 0.8380
2472.000000 0.8379 0.8378 0.8377 0.8376 0.8375
2477.000000 0.8374 0.8373 0.8370 0.8367 0.8365
2482.000000 0.8362 0.8359 0.8356 0.8353 0.8350
2487.000000 0.8343 0.8337 0.8331 0.8325 0.8318
2492.000000 0.8312 0.8306 0.8300 0.8294 0.8287
2497.000000 0.8281 0.8276 0.8275 0.8273 0.8272
2502.000000 0.8270 0.8267 0.8264 0.8261 0.8259
2507.000000 0.8257 0.8255 0.8253 0.8250 0.8248
2512.000000 0.8245 0.8243 0.8240 0.8241 0.8243
2517.000000 0.8245 0.8247 0.8248 0.8249 0.8249
2522.000000 0.8249 0.8248 0.8248 0.8247 0.8246
2527.000000 0.8245 0.8244 0.8242 0.8241 0.8239
2532.000000 0.8238 0.8236 0.8235 0.8234 0.8232
2537.000000 0.8231 0.8230 0.8228 0.8227 0.8226
2542.000000 0.8225 0.8223 0.8222 0.8220 0.8218
2547.000000 0.8215 0.8213 0.8210 0.8208 0.8206
2552.000000 0.8203 0.8198 0.8193 0.8188 0.8184
2557.000000 0.8179 0.8174 0.8169 0.8164 0.8158
2562.000000 0.8151 0.8145 0.8139 0.8133 0.8126
2567.000000 0.8120 0.8114 0.8108 0.8103 0.8097
2572.000000 0.8089 0.8082 0.8074 0.8066 0.8058
2577.000000 0.8050 0.8042 0.8034 0.8026 0.8018
2582.000000 0.8010 0.8003 0.7998 0.7992 0.7986
2587.000000 0.7980 0.7975 0.7969 0.7963 0.7962
2592.000000 0.7962 0.7962 0.7962 0.7963 0.7963
2597.000000 0.7962 0.7962 0.7961 0.7961 0.7960
2602.000000 0.7959 0.7959 0.7958 0.7958 0.7957
2607.000000 0.7956 0.7956 0.7955 0.7954 0.7954
2612.000000 0.7953 0.7952 0.7951 0.7951 0.7950
2617.000000 0.7949 0.7949 0.7948 0.7947 0.7947
2622.000000 0.7946 0.7945 0.7944 0.7941 0.7937
2627.000000 0.7932 0.7927 0.7923 0.7918 0.7914
2632.000000 0.7909 0.7904 0.7900 0.7891 0.7882
2637.000000 0.7873 0.7864 0.7855 0.7846 0.7835
2642.000000 0.7823 0.7810 0.7798 0.7785 0.7773
2647.000000 0.7761 0.7742 0.7717 0.7692 0.7672
2652.000000 0.7653 0.7636 0.7625 0.7613 0.7602
2657.000000 0.7591 0.7580 0.7568 0.7558 0.7552
2662.000000 0.7547 0.7541 0.7536 0.7530 0.7527
2667.000000 0.7526 0.7525 0.7523 0.7522 0.7526
2672.000000 0.7534 0.7542 0.7550 0.7558 0.7567
2677.000000 0.7577 0.7587 0.7597 0.7606 0.7616
2682.000000 0.7626 0.7634 0.7643 0.7651 0.7660
2687.000000 0.7661 0.7663 0.7664 0.7666 0.7667
2692.000000 0.7668 0.7667 0.7665 0.7664 0.7662
2697.000000 0.7660 0.7659 0.7655 0.7649 0.7643
2702.000000 0.7637 0.7631 0.7625 0.7618 0.7609
2707.000000 0.7601 0.7592 0.7577 0.7560 0.7543
2712.000000 0.7525 0.7508 0.7492 0.7479 0.7466
2717.000000 0.7454 0.7441 0.7429 0.7423 0.7416
2722.000000 0.7410 0.7404 0.7402 0.7402 0.7401
2727.000000 0.7401 0.7401 0.7400 0.7400 0.7400
2732.000000 0.7401 0.7402 0.7402 0.7403 0.7404
2737.000000 0.7405 0.7405 0.7405 0.7405 0.7405
2742.000000 0.7406 0.7405 0.7403 0.7401 0.7398
2747.000000 0.7395 0.7392 0.7390 0.7387 0.7384
2752.000000 0.7381 0.7378 0.7375 0.7370 0.7366
2757.000000 0.7362 0.7357 0.7353 0.7349 0.7345
2762.000000 0.7338 0.7330 0.7322 0.7314 0.7306
2767.000000 0.7297 0.7289 0.7281 0.7273 0.7264
2772.000000 0.7251 0.7237 0.7224 0.7210 0.7197
2777.000000 0.7183 0.7170 0.7157 0.7143 0.7132
2782.000000 0.7121 0.7109 0.7098 0.7089 0.7082
2787.000000 0.7075 0.7068 0.7061 0.7054 0.7046
2792.000000 0.7039 0.7032 0.7025 0.7018 0.7010
2797.000000 0.7003 0.6996 0.6989 0.6980 0.6970
2802.000000 0.6959 0.6948 0.6938 0.6927 0.6917
2807.000000 0.6906 0.6895 0.6885 0.6874 0.6864
2812.000000 0.6853 0.6832 0.6809 0.6786 0.6763
2817.000000 0.6740 0.6709 0.6677 0.6646 0.6618
2822.000000 0.6599 0.6580 0.6561 0.6541 0.6522
2827.000000 0.6504 0.6491 0.6477 0.6463 0.6450
2832.000000 0.6436 0.6422 0.6408 0.6395 0.6382
2837.000000 0.6369 0.6356 0.6344 0.6331 0.6318
2842.000000 0.6305 0.6292 0.6281 0.6275 0.6268
2847.000000 0.6262 0.6256 0.6250 0.6244 0.6238
2852.000000 0.6232 0.6226 0.6220 0.6214 0.6209
2857.000000 0.6205 0.6201 0.6197 0.6193 0.6189
2862.000000 0.6185 0.6178 0.6171 0.6164 0.6157
2867.000000 0.6150 0.6143 0.6134 0.6125 0.6116
2872.000000 0.6106 0.6097 0.6088 0.6079 0.6071
2877.000000 0.6063 0.6055 0.6047 0.6040 0.6032
2882.000000 0.6024 0.6016 0.6008 0.6000 0.5992
2887.000000 0.5985 0.5976 0.5967 0.5958 0.5949
2892.000000 0.5940 0.5931 0.5922 0.5913 0.5904
2897.000000 0.5895 0.5887 0.5877 0.5865 0.5853
2902.000000 0.5841 0.5829 0.5817 0.5805 0.5793
2907.000000 0.5782 0.5766 0.5750 0.5733 0.5716
2912.000000 0.5699 0.5682 0.5665 0.5647 0.5629
2917.000000 0.5610 0.5592 0.5574 0.5556 0.5538
2922.000000 0.5514 0.5488 0.5462 0.5435 0.5424
2927.000000 0.5413 0.5403 0.5392 0.5381 0.5370
2932.000000 0.5360 0.5351 0.5342 0.5334 0.5325
2937.000000 0.5317 0.5308 0.5300 0.5291 0.5283
2942.000000 0.5272 0.5257 0.5243 0.5229 0.5214
2947.000000 0.5188 0.5157 0.5125 0.5094 0.5074
2952.000000 0.5054 0.5034 0.5014 0.4995 0.4975
2957.000000 0.4955 0.4936 0.4917 0.4898 0.4875
2962.000000 0.4850 0.4825 0.4800 0.4775 0.4750
2967.000000 0.4731 0.4713 0.4695 0.4677 0.4660
2972.000000 0.4642 0.4624 0.4606 0.4582 0.4551
2977.000000 0.4521 0.4490 0.4459 0.4429 0.4398
2982.000000 0.4367 0.4334 0.4302 0.4270 0.4246
2987.000000 0.4225 0.4203 0.4195 0.4187 0.4180
2992.000000 0.4172 0.4200 0.4176 0.4179 0.4183
2997.000000 0.4186 0.4190 0.4197 0.4205 0.4212
3002.000000 0.4220 0.4229 0.4240 0.4250 0.4260
3007.000000 0.4279 0.4299 0.4319 0.4346 0.4377
3012.000000 0.4392 0.4400 0.4408 0.4416 0.4424
3017.000000 0.4425 0.4425 0.4425 0.4424 0.4424
3022.000000 0.4423 0.4429 0.4440 0.4452 0.4463
3027.000000 0.4474 0.4484 0.4493 0.4503 0.4513
3032.000000 0.4523 0.4530 0.4533 0.4535 0.4534
3037.000000 0.4540 0.4542 0.4542 0.4542 0.4543
3042.000000 0.4543 0.4542 0.4539 0.4535 0.4532
3047.000000 0.4528 0.4517 0.4506 0.4494 0.4483
3052.000000 0.4457 0.4426 0.4389 0.4347 0.4295
3057.000000 0.4261 0.4240 0.4228 0.4224 0.4226
3062.000000 0.4205 0.4235 0.4250 0.4283 0.4341
3067.000000 0.4425 0.4580 0.4713 0.4760 0.4807
3072.000000 0.4854 0.4891 0.4921 0.4948 0.4968
3077.000000 0.4989 0.5010 0.5031 0.5051 0.5071
3082.000000 0.5091 0.5111 0.5127 0.5142 0.5156
3087.000000 0.5171 0.5185 0.5200 0.5213 0.5227
3092.000000 0.5240 0.5253 0.5266 0.5277 0.5286
3097.000000 0.5295 0.5305 0.5314 0.5323 0.5333
3102.000000 0.5342 0.5352 0.5361 0.5371 0.5381
3107.000000 0.5390 0.5406 0.5423 0.5441 0.5458
3112.000000 0.5476 0.5493 0.5509 0.5525 0.5541
3117.000000 0.5557 0.5563 0.5569 0.5575 0.5581
3122.000000 0.5587 0.5593 0.5599 0.5603 0.5607
3127.000000 0.5610 0.5614 0.5617 0.5621 0.5624
3132.000000 0.5628 0.5632 0.5637 0.5643 0.5650
3137.000000 0.5656 0.5662 0.5669 0.5679 0.5695
3142.000000 0.5712 0.5734 0.5760 0.5786 0.5812
3147.000000 0.5837 0.5863 0.5891 0.5933 0.5984
3152.000000 0.6016 0.6046 0.6068 0.6086 0.6105
3157.000000 0.6123 0.6140 0.6153 0.6165 0.6178
3162.000000 0.6188 0.6198 0.6207 0.6217 0.6226
3167.000000 0.6230 0.6234 0.6239 0.6243 0.6247
3172.000000 0.6251 0.6258 0.6267 0.6275 0.6284
3177.000000 0.6292 0.6301 0.6309 0.6318 0.6327
3182.000000 0.6339 0.6350 0.6361 0.6373 0.6384
3187.000000 0.6396 0.6407 0.6421 0.6436 0.6450
3192.000000 0.6464 0.6479 0.6493 0.6511 0.6530
3197.000000 0.6549 0.6568 0.6589 0.6605 0.6609
3202.000000 0.6614 0.6619 0.6624 0.6626 0.6629
3207.000000 0.6632 0.6635 0.6638 0.6640 0.6642
3212.000000 0.6643 0.6632 0.6646 0.6647 0.6648
3217.000000 0.6645 0.6643 0.6636 0.6623 0.6610
3222.000000 0.6597 0.6590 0.6584 0.6578 0.6576
3227.000000 0.6575 0.6574 0.6573 0.6573 0.6574
3232.000000 0.6574 0.6574 0.6574 0.6574 0.6574
3237.000000 0.6575 0.6575 0.6575 0.6575 0.6575
3242.000000 0.6575 0.6576 0.6573 0.6568 0.6562
3247.000000 0.6557 0.6551 0.6540 0.6529 0.6519
3252.000000 0.6505 0.6490 0.6475 0.6461 0.6445
3257.000000 0.6427 0.6410 0.6392 0.6375 0.6357
3262.000000 0.6339 0.6321 0.6303 0.6285 0.6265
3267.000000 0.6239 0.6212 0.6186 0.6164 0.6144
3272.000000 0.6124 0.6104 0.6084 0.6069 0.6056
3277.000000 0.6042 0.6029 0.6016 0.6006 0.5998
3282.000000 0.5991 0.5983 0.5977 0.5971 0.5966
3287.000000 0.5960 0.5955 0.5949 0.5943 0.5936
3292.000000 0.5930 0.5920 0.5909 0.5898 0.5887
3297.000000 0.5876 0.5864 0.5848 0.5833 0.5818
3302.000000 0.5803 0.5786 0.5767 0.5749 0.5730
3307.000000 0.5712 0.5691 0.5663 0.5634 0.5606
3312.000000 0.5578 0.5556 0.5533 0.5510 0.5487
3317.000000 0.5464 0.5443 0.5422 0.5400 0.5379
3322.000000 0.5358 0.5326 0.5291 0.5268 0.5251
3327.000000 0.5235 0.5219 0.5204 0.5189 0.5174
3332.000000 0.5159 0.5144 0.5133 0.5126 0.5120
3337.000000 0.5113 0.5113 0.5114 0.5115 0.5117
3342.000000 0.5120 0.5128 0.5135 0.5143 0.5150
3347.000000 0.5156 0.5162 0.5167 0.5173 0.5175
3352.000000 0.5176 0.5177 0.5178 0.5178 0.5176
3357.000000 0.5175 0.5174 0.5173 0.5172 0.5168
3362.000000 0.5163 0.5158 0.5153 0.5148 0.5144
3367.000000 0.5136 0.5126 0.5117 0.5107 0.5097
3372.000000 0.5088 0.5078 0.5068 0.5059 0.5053
3377.000000 0.5051 0.5048 0.5016 0.5044 0.5044
3382.000000 0.5047 0.5050 0.5053 0.5056 0.5060
3387.000000 0.5063 0.5067 0.5075 0.5084 0.5093
3392.000000 0.5103 0.5115 0.5127 0.5139 0.5151
3397.000000 0.5165 0.5179 0.5194 0.5211 0.5230
3402.000000 0.5248 0.5269 0.5295 0.5320 0.5345
3407.000000 0.5382 0.5425 0.5470 0.5529 0.5582
3412.000000 0.5623 0.5663 0.5708 0.5759 0.5810
3417.000000 0.5860 0.5909 0.5954 0.5997 0.6042
3422.000000 0.6087 0.6123 0.6151 0.6178 0.6203
3427.000000 0.6223 0.6244 0.6268 0.6293 0.6328
3432.000000 0.6381 0.6398 0.6410 0.6418 0.6425
3437.000000 0.6431 0.6438 0.6444 0.6451 0.6458
3442.000000 0.6471 0.6666 0.6693 0.6708 0.6720
3447.000000 0.6728 0.6737 0.6744 0.6749 0.6755
3452.000000 0.6762 0.6771 0.6781 0.6813 0.6846
3457.000000 0.6885 0.6917 0.6941 0.6955 0.6968
3462.000000 0.6981 0.6989 0.6997 0.7005 0.7013
3467.000000 0.7021 0.7029 0.7036 0.7041 0.7047
3472.000000 0.7053 0.7059 0.7065 0.7070 0.7077
3477.000000 0.7084 0.7090 0.7097 0.7104 0.7111
3482.000000 0.7118 0.7124 0.7131 0.7138 0.7145
3487.000000 0.7152 0.7159 0.7165 0.7171 0.7178
3492.000000 0.7184 0.7191 0.7197 0.7204 0.7210
3497.000000 0.7217 0.7223 0.7230 0.7236 0.7243
3502.000000 0.7249 0.7255 0.7261 0.7267 0.7274
3507.000000 0.7280 0.7286 0.7292 0.7298 0.7304
3512.000000 0.7310 0.7316 0.7322 0.7329 0.7335
3517.000000 0.7341 0.7347 0.7353 0.7359 0.7365
3522.000000 0.7371 0.7376 0.7381 0.7386 0.7391
3527.000000 0.7397 0.7402 0.7407 0.7412 0.7417
3532.000000 0.7422 0.7427 0.7433 0.7438 0.7443
3537.000000 0.7448 0.7453 0.7458 0.7463 0.7468
3542.000000 0.7474 0.7479 0.7484 0.7489 0.7494
3547.000000 0.7500 0.7505 0.7510 0.7515 0.7521
3552.000000 0.7526 0.7531 0.7536 0.7541 0.7547
3557.000000 0.7552 0.7558 0.7564 0.7569 0.7575
3562.000000 0.7581 0.7586 0.7592 0.7598 0.7603
3567.000000 0.7609 0.7615 0.7620 0.7626 0.7632
3572.000000 0.7637 0.7643 0.7649 0.7654 0.7660
3577.000000 0.7666 0.7671 0.7677 0.7683 0.7689
3582.000000 0.7694 0.7697 0.7700 0.7704 0.7707
3587.000000 0.7710 0.7713 0.7717 0.7720 0.7723
3592.000000 0.7727 0.7730 0.7736 0.7742 0.7748
3597.000000 0.7754 0.7764 0.7777 0.7791 0.7803
3602.000000 0.7815 0.7827 0.7838 0.7850 0.7861
3607.000000 0.7870 0.7880 0.7889 0.7897 0.7903
3612.000000 0.7909 0.7914 0.7920 0.7926 0.7931
3617.000000 0.7937 0.7943 0.7948 0.7953 0.7957
3622.000000 0.7962 0.7967 0.7971 0.7976 0.7980
3627.000000 0.7984 0.7988 0.7992 0.7995 0.7999
3632.000000 0.8003 0.8007 0.8011 0.8015 0.8019
3637.000000 0.8023 0.8028 0.8032 0.8036 0.8040
3642.000000 0.8041 0.8042 0.8043 0.8044 0.8045
3647.000000 0.8046 0.8047 0.8048 0.8049 0.8050
3652.000000 0.8050 0.8050 0.8049 0.8049 0.8048
3657.000000 0.8048 0.8048 0.8047 0.8047 0.8046
3662.000000 0.8046 0.8046 0.8045 0.8045 0.8045
3667.000000 0.8045 0.8044 0.8044 0.8044 0.8044
3672.000000 0.8044 0.8044 0.8044 0.8044 0.8044
3677.000000 0.8044 0.8044 0.8044 0.8044 0.8043
3682.000000 0.8043 0.8043 0.8042 0.8042 0.8042
3687.000000 0.8041 0.8041 0.8041 0.8040 0.8040
3692.000000 0.8040 0.8039 0.8039 0.8039 0.8039
3697.000000 0.8039 0.8040 0.8040 0.8040 0.8041
3702.000000 0.8041 0.8042 0.8042 0.8043 0.8043
3707.000000 0.8043 0.8044 0.8044 0.8045 0.8045
3712.000000 0.8045 0.8045 0.8045 0.8046 0.8046
3717.000000 0.8046 0.8046 0.8046 0.8046 0.8047
3722.000000 0.8045 0.8044 0.8042 0.8040 0.8039
3727.000000 0.8037 0.8036 0.8034 0.8033 0.8031
3732.000000 0.8030 0.8028 0.8027 0.8026 0.8025
3737.000000 0.8024 0.8023 0.8022 0.8021 0.8020
3742.000000 0.8019 0.8018 0.8017 0.8016 0.8016
3747.000000 0.8016 0.8016 0.8017 0.8017 0.8017
3752.000000 0.8017 0.8017 0.8017 0.8018 0.8018
3757.000000 0.8020 0.8023 0.8026 0.8029 0.8032
3762.000000 0.8035 0.8038 0.8041 0.8046 0.8053
3767.000000 0.8059 0.8066 0.8073 0.8079 0.8085
3772.000000 0.8091 0.8095 0.8096 0.8098 0.8099
3777.000000 0.8101 0.8102 0.8103 0.8103 0.8103
3782.000000 0.8104 0.8104 0.8104 0.8104 0.8104
3787.000000 0.8105 0.8104 0.8104 0.8103 0.8102
3792.000000 0.8102 0.8101 0.8101 0.8100 0.8099
3797.000000 0.8099 0.8097 0.8094 0.8092 0.8090
3802.000000 0.8087 0.8085 0.8083 0.8081 0.8075
3807.000000 0.8070 0.8065 0.8059 0.8054 0.8049
3812.000000 0.8043 0.8038 0.8032 0.8026 0.8021
3817.000000 0.8016 0.8015 0.8013 0.8012 0.8010
3822.000000 0.8009 0.8008 0.8006 0.8005 0.8003
3827.000000 0.8002 0.8002 0.8002 0.8002 0.8001
3832.000000 0.8001 0.8001 0.8000 0.8000 0.7999
3837.000000 0.7998 0.7997 0.7996 0.7995 0.7994
3842.000000 0.7993 0.7992 0.7991 0.7991 0.7993
3847.000000 0.7991 0.7996 0.7998 0.7999 0.8001
3852.000000 0.8002 0.8008 0.8016 0.8024 0.8033
3857.000000 0.8037 0.8041 0.8037 0.8022 0.7992
3862.000000 0.7958 0.7921 0.7886 0.7863 0.7841
3867.000000 0.7826 0.7815 0.7820 0.7830 0.7839
3872.000000 0.7848 0.7857 0.7866 0.7874 0.7875
3877.000000 0.7875 0.7876 0.7876 0.7875 0.7874
3882.000000 0.7874 0.7873 0.7873 0.7872 0.7870
3887.000000 0.7869 0.7868 0.7867 0.7866 0.7864
3892.000000 0.7863 0.7862 0.7861 0.7860 0.7859
3897.000000 0.7857 0.7856 0.7855 0.7854 0.7853
3902.000000 0.7852 0.7851 0.7849 0.7849 0.7848
3907.000000 0.7847 0.7847 0.7846 0.7845 0.7845
3912.000000 0.7844 0.7844 0.7843 0.7844 0.7844
3917.000000 0.7845 0.7846 0.7847 0.7847 0.7848
3922.000000 0.7849 0.7850 0.7851 0.7852 0.7854
3927.000000 0.7855 0.7856 0.7857 0.7857 0.7858
3932.000000 0.7858 0.7858 0.7858 0.7858 0.7858
3937.000000 0.7859 0.7859 0.7858 0.7857 0.7857
3942.000000 0.7856 0.7856 0.7855 0.7854 0.7854
3947.000000 0.7853 0.7852 0.7851 0.7850 0.7848
3952.000000 0.7847 0.7846 0.7845 0.7843 0.7842
3957.000000 0.7841 0.7840 0.7838 0.7837 0.7835
3962.000000 0.7833 0.7832 0.7830 0.7829 0.7827
3967.000000 0.7826 0.7824 0.7823 0.7821 0.7820
3972.000000 0.7819 0.7818 0.7817 0.7816 0.7815
3977.000000 0.7814 0.7813 0.7812 0.7811 0.7810
3982.000000 0.7809 0.7808 0.7808 0.7807 0.7806
3987.000000 0.7805 0.7804 0.7804 0.7803 0.7802
3992.000000 0.7801 0.7800 0.7800 0.7799 0.7798
3997.000000 0.7797 0.7796 0.7796 0.7795
##END=
