##TITLE=Succinic acid, hydrazino-, 4-hydrazide, cmpd with hydrazine
##JCAMP-DX=4.24
##DATA TYPE=INFRARED SPECTRUM
##CLASS=COBLENTZ III
##ORIGIN=SOUTHERN RESEARCH INSTITUTE
##OWNER=Copyright (C) 1987 by the Coblentz Society
Collection (C) 2018 copyright by the U.S. Secretary of Commerce
on behalf of the United States of America. All rights reserved.
##DATE=1955/07/26
##MOLFORM=C4 H14 N6 O3
##MP=199-202 C
##SOURCE REFERENCE=COBLENTZ NO. 7882
##$NIST ID=B6007882
##$NIST SOURCE=COBLENTZ
##$NIST IMAGE=cob7882
##SPECTROMETER/DATA SYSTEM=PERKIN-ELMER 21 (GRATING)
##INSTRUMENT PARAMETERS=FILTER CHANGE ABOUT 1085 CM^-^1
##STATE=SOLID (1 mg / 650 mg KBr DISC)
##SAMPLING PROCEDURE=TRANSMISSION
##RESOLUTION=2
##DATA PROCESSING=DIGITIZED BY COBLENTZ SOCIETY (BATCH II) FROM HARD COPY (ADJUSTED \addcm-1\15-5-2\)
##XUNITS=1/CM
##YUNITS=TRANSMITTANCE
##XFACTOR=1.0
##YFACTOR=1
##DELTAX=1.004111
##FIRSTX=639
##LASTX=3813
##FIRSTY=0.5974
##MAXX=3813
##MINX=639
##MAXY=0.723974
##MINY=0.0833888
##NPOINTS=3162
##XYDATA=(X++(Y..Y))
639.000000 0.5974 0.5961 0.5943 0.5912 0.5734
644.020557 0.5715 0.5699 0.5692 0.5685 0.5677
649.041113 0.5658 0.5624 0.5548 0.5538 0.5539
654.061670 0.5541 0.5542 0.5543 0.5544 0.5546
659.082226 0.5556 0.5565 0.5575 0.5584 0.5599
664.102783 0.5617 0.5635 0.5653 0.5672 0.5694
669.123340 0.5718 0.5739 0.5757 0.5774 0.5786
674.143896 0.5789 0.5791 0.5786 0.5793 0.5789
679.164453 0.5782 0.5773 0.5764 0.5750 0.5735
684.185009 0.5720 0.5706 0.5687 0.5662 0.5633
689.205566 0.5590 0.5535 0.5448 0.5401 0.5365
694.226123 0.5354 0.5348 0.5342 0.5337 0.5332
699.246679 0.5326 0.5315 0.5305 0.5295 0.5284
704.267236 0.5272 0.5260 0.5247 0.5230 0.5213
709.287793 0.5190 0.5156 0.5119 0.5073 0.5014
714.308349 0.4957 0.4901 0.4849 0.4793 0.4726
719.328906 0.4650 0.4576 0.4387 0.4068 0.3971
724.349462 0.3947 0.3934 0.3922 0.3656 0.3126
729.370019 0.2929 0.2754 0.2612 0.2485 0.2367
734.390576 0.2256 0.2160 0.2082 0.2003 0.1943
739.411132 0.1914 0.1910 0.1938 0.1966 0.1999
744.431689 0.2038 0.2078 0.2116 0.2149 0.2181
749.452245 0.2223 0.2283 0.2351 0.2418 0.2503
754.472802 0.2677 0.2938 0.3221 0.3504 0.3786
759.493359 0.4070 0.4303 0.4441 0.4543 0.4656
764.513915 0.4771 0.4876 0.4942 0.4983 0.5023
769.534472 0.5054 0.5078 0.5102 0.5134 0.5175
774.555028 0.5222 0.5273 0.5328 0.5390 0.5456
779.575585 0.5524 0.5563 0.5579 0.5592 0.5598
784.596142 0.5599 0.5601 0.5598 0.5608 0.5590
789.616698 0.5556 0.5521 0.5472 0.5394 0.5263
794.637255 0.4964 0.4533 0.4311 0.4386 0.4532
799.657812 0.4668 0.4804 0.4938 0.5043 0.5107
804.678368 0.5150 0.5184 0.5206 0.5223 0.5239
809.698925 0.5254 0.5268 0.5282 0.5295 0.5308
814.719481 0.5320 0.5330 0.5345 0.5363 0.5382
819.740038 0.5401 0.5420 0.5439 0.5452 0.5458
824.760595 0.5461 0.5462 0.5463 0.5465 0.5466
829.781151 0.5476 0.5492 0.5508 0.5523 0.5535
834.801708 0.5541 0.5543 0.5545 0.5546 0.5546
839.822264 0.5546 0.5546 0.5545 0.5544 0.5543
844.842821 0.5541 0.5540 0.5542 0.5547 0.5553
849.863378 0.5559 0.5568 0.5580 0.5589 0.5590
854.883934 0.5587 0.5571 0.5530 0.5481 0.5442
859.904491 0.5409 0.5390 0.5378 0.5369 0.5364
864.925047 0.5336 0.5265 0.5186 0.5171 0.5191
869.945604 0.5268 0.5476 0.5504 0.5519 0.5529
874.966161 0.5538 0.5547 0.5554 0.5558 0.5560
879.986717 0.5561 0.5561 0.5561 0.5561 0.5555
885.007274 0.5547 0.5557 0.5555 0.5553 0.5547
890.027830 0.5540 0.5530 0.5516 0.5500 0.5484
895.048387 0.5468 0.5454 0.5440 0.5426 0.5413
900.068944 0.5399 0.5384 0.5366 0.5347 0.5327
905.089500 0.5308 0.5289 0.5269 0.5248 0.5228
910.110057 0.5207 0.5187 0.5165 0.5144 0.5122
915.130614 0.5103 0.5085 0.5066 0.5048 0.5030
920.151170 0.5012 0.4994 0.4977 0.4954 0.4929
925.171727 0.4905 0.4880 0.4855 0.4829 0.4804
930.192283 0.4778 0.4753 0.4727 0.4697 0.4668
935.212840 0.4638 0.4608 0.4579 0.4550 0.4520
940.233397 0.4490 0.4459 0.4429 0.4399 0.4369
945.253953 0.4328 0.4285 0.4241 0.4197 0.4126
950.274510 0.4029 0.3922 0.3821 0.3756 0.3696
955.295066 0.3653 0.3278 0.3121 0.3009 0.2871
960.315623 0.2752 0.2748 0.2719 0.2755 0.2768
965.336180 0.2787 0.2806 0.2824 0.2837 0.2848
970.356736 0.2839 0.2830 0.2834 0.2837 0.3050
975.377293 0.3335 0.3624 0.3913 0.4201 0.4490
980.397849 0.4779 0.5060 0.5150 0.5191 0.5202
985.418406 0.5201 0.5194 0.5178 0.5147 0.5100
990.438963 0.5035 0.4952 0.4863 0.4786 0.4705
995.459519 0.4610 0.4514 0.4327 0.4073 0.3848
1000.480076 0.3631 0.3413 0.3196 0.2978 0.2761
1005.500633 0.2544 0.2257 0.2175 0.2161 0.2159
1010.521189 0.2165 0.2226 0.2282 0.2312 0.2313
1015.541746 0.2332 0.2196 0.2051 0.1921 0.1833
1020.562302 0.1795 0.1816 0.1841 0.1885 0.1943
1025.582859 0.2044 0.2238 0.2570 0.2944 0.3318
1030.603416 0.3692 0.4066 0.4439 0.4814 0.5188
1035.623972 0.5562 0.5936 0.6300 0.6439 0.6445
1040.644529 0.6448 0.6447 0.6442 0.6432 0.6415
1045.665085 0.6393 0.6367 0.6337 0.6307 0.6277
1050.685642 0.6247 0.6216 0.6185 0.6154 0.6117
1055.706199 0.6076 0.6025 0.5897 0.5773 0.5700
1060.726755 0.5648 0.5606 0.5568 0.5538 0.5514
1065.747312 0.5489 0.5457 0.5419 0.5353 0.5296
1070.767868 0.5275 0.5282 0.5311 0.5341 0.5370
1075.788425 0.5384 0.5380 0.5323 0.5184 0.5039
1080.808982 0.4956 0.4906 0.4855 0.4803 0.4751
1085.829538 0.4696 0.4640 0.4582 0.4524 0.4478
1090.850095 0.4444 0.4410 0.4378 0.4346 0.4316
1095.870651 0.4285 0.4238 0.4176 0.4116 0.4061
1100.891208 0.4007 0.3954 0.3902 0.3851 0.3800
1105.911765 0.3746 0.3690 0.3634 0.3567 0.3477
1110.932321 0.3373 0.3276 0.3192 0.3115 0.3048
1115.952878 0.2999 0.2974 0.2951 0.2913 0.2853
1120.973435 0.2773 0.2673 0.2565 0.2454 0.2353
1125.993991 0.2281 0.2256 0.2255 0.2251 0.2287
1131.014548 0.2443 0.2582 0.2722 0.2860 0.2999
1136.035104 0.3115 0.3164 0.3208 0.3226 0.3238
1141.055661 0.3235 0.3242 0.3211 0.3119 0.2997
1146.076218 0.2874 0.2752 0.2629 0.2507 0.2386
1151.096774 0.2287 0.2254 0.2239 0.2224 0.2245
1156.117331 0.2254 0.2268 0.2303 0.2378 0.2703
1161.137887 0.3027 0.3177 0.3235 0.3291 0.3343
1166.158444 0.3381 0.3419 0.3457 0.3503 0.3552
1171.179001 0.3612 0.3691 0.3764 0.3838 0.3920
1176.199557 0.4012 0.4109 0.4213 0.4345 0.4679
1181.220114 0.4801 0.4822 0.4842 0.4862 0.4888
1186.240670 0.4915 0.4948 0.5105 0.5615 0.5708
1191.261227 0.5777 0.5813 0.5849 0.5884 0.5895
1196.281784 0.5905 0.5915 0.5926 0.5933 0.5938
1201.302340 0.5944 0.5949 0.5954 0.5954 0.5948
1206.322897 0.5944 0.5940 0.5933 0.5920 0.5906
1211.343454 0.5892 0.5872 0.5850 0.5829 0.5808
1216.364010 0.5787 0.5767 0.5749 0.5730 0.5711
1221.384567 0.5691 0.5670 0.5650 0.5630 0.5610
1226.405123 0.5587 0.5561 0.5535 0.5509 0.5484
1231.425680 0.5458 0.5433 0.5407 0.5378 0.5348
1236.446237 0.5318 0.5288 0.5258 0.5227 0.5197
1241.466793 0.5167 0.5137 0.5107 0.5076 0.5046
1246.487350 0.5015 0.4985 0.4954 0.4923 0.4891
1251.507906 0.4859 0.4828 0.4796 0.4765 0.4734
1256.528463 0.4704 0.4673 0.4641 0.4590 0.4533
1261.549020 0.4486 0.4444 0.4420 0.4419 0.4424
1266.569576 0.4435 0.4447 0.4458 0.4471 0.4485
1271.590133 0.4501 0.4517 0.4526 0.4531 0.4531
1276.610689 0.4528 0.4519 0.4485 0.4392 0.4264
1281.631246 0.4176 0.4111 0.4046 0.3982 0.3916
1286.651803 0.3851 0.3786 0.3722 0.3657 0.3593
1291.672359 0.3531 0.3470 0.3409 0.3348 0.3289
1296.692916 0.3233 0.3180 0.3129 0.3089 0.3076
1301.713472 0.3078 0.3084 0.3093 0.3112 0.3143
1306.734029 0.3181 0.3225 0.3282 0.3349 0.3415
1311.754586 0.3496 0.3574 0.3624 0.3665 0.3716
1316.775142 0.3775 0.3842 0.3913 0.3975 0.4028
1321.795699 0.4080 0.4128 0.4172 0.4217 0.4259
1326.816256 0.4293 0.4320 0.4348 0.4368 0.4374
1331.836812 0.4377 0.4380 0.4380 0.4374 0.4357
1336.857369 0.4332 0.4301 0.4256 0.4205 0.4154
1341.877925 0.4112 0.4079 0.4045 0.4014 0.3986
1346.898482 0.3958 0.3931 0.3904 0.3876 0.3847
1351.919039 0.3819 0.3791 0.3762 0.3734 0.3705
1356.939595 0.3676 0.3644 0.3612 0.3580 0.3546
1361.960152 0.3507 0.3460 0.3414 0.3367 0.3319
1366.980708 0.3274 0.3246 0.3233 0.3220 0.3210
1372.001265 0.3200 0.3158 0.3098 0.3041 0.2993
1377.021822 0.2954 0.2915 0.2875 0.2834 0.2787
1382.042378 0.2741 0.2695 0.2650 0.2606 0.2562
1387.062935 0.2519 0.2480 0.2449 0.2417 0.2386
1392.083491 0.2360 0.2348 0.2336 0.2324 0.2311
1397.104048 0.2293 0.2273 0.2251 0.2226 0.2202
1402.124605 0.2185 0.2183 0.2185 0.2189 0.2192
1407.145161 0.2196 0.2200 0.2205 0.2210 0.2214
1412.165718 0.2219 0.2223 0.2227 0.2231 0.2224
1417.186275 0.2206 0.2180 0.2151 0.2106 0.2059
1422.206831 0.2010 0.1962 0.1916 0.1878 0.1840
1427.227388 0.1803 0.1766 0.1722 0.1674 0.1625
1432.247944 0.1564 0.1498 0.1376 0.1295 0.1266
1437.268501 0.1242 0.1238 0.1244 0.1251 0.1261
1442.289058 0.1271 0.1282 0.1301 0.1328 0.1369
1447.309614 0.1433 0.1525 0.1647 0.1788 0.1934
1452.330171 0.2043 0.2105 0.2158 0.2209 0.2261
1457.350727 0.2313 0.2367 0.2431 0.2495 0.2553
1462.371284 0.2603 0.2652 0.2698 0.2741 0.2788
1467.391841 0.2878 0.3064 0.3187 0.3256 0.3323
1472.412397 0.3381 0.3425 0.3450 0.3466 0.3482
1477.432954 0.3535 0.3586 0.3599 0.3603 0.3598
1482.453510 0.3597 0.3568 0.3543 0.3509 0.3474
1487.474067 0.3438 0.3031 0.2882 0.2809 0.2763
1492.494624 0.2749 0.2746 0.2747 0.2751 0.2754
1497.515180 0.2667 0.2483 0.2296 0.2219 0.2187
1502.535737 0.2147 0.2101 0.2053 0.1992 0.1883
1507.556293 0.1761 0.1617 0.1470 0.1383 0.1340
1512.576850 0.1310 0.1285 0.1263 0.1234 0.1189
1517.597407 0.1097 0.0965 0.0881 0.0856 0.0844
1522.617963 0.0837 0.0834 0.0836 0.0837 0.0837
1527.638520 0.0837 0.0838 0.0844 0.0858 0.0871
1532.659077 0.0885 0.0900 0.0922 0.0946 0.0996
1537.679633 0.1075 0.1172 0.1233 0.1282 0.1305
1542.700190 0.1315 0.1315 0.1315 0.1314 0.1312
1547.720746 0.1332 0.1367 0.1411 0.1449 0.1487
1552.741303 0.1512 0.1533 0.1555 0.1572 0.1584
1557.761860 0.1595 0.1606 0.1615 0.1623 0.1633
1562.782416 0.1643 0.1653 0.1654 0.1659 0.1643
1567.802973 0.1617 0.1588 0.1536 0.1446 0.1288
1572.823529 0.1169 0.1139 0.1133 0.1127 0.1124
1577.844086 0.1128 0.1134 0.1147 0.1173 0.1203
1582.864643 0.1234 0.1266 0.1299 0.1338 0.1381
1587.885199 0.1437 0.1505 0.1567 0.1613 0.1652
1592.905756 0.1674 0.1690 0.1706 0.1722 0.1736
1597.926312 0.1750 0.1796 0.2051 0.2283 0.2442
1602.946869 0.2714 0.2838 0.2896 0.2935 0.2963
1607.967426 0.2998 0.3048 0.3331 0.3406 0.3474
1612.987982 0.3511 0.3548 0.3581 0.3601 0.3621
1618.008539 0.3634 0.3639 0.3640 0.3631 0.3612
1623.029096 0.3583 0.3536 0.3451 0.3378 0.3307
1628.049652 0.3213 0.3117 0.3025 0.2938 0.2851
1633.070209 0.2733 0.2599 0.2465 0.2331 0.2197
1638.090765 0.2063 0.1945 0.1919 0.1911 0.1908
1643.111322 0.1897 0.1911 0.1920 0.1966 0.2074
1648.131879 0.2183 0.2293 0.2403 0.2513 0.2623
1653.152435 0.2733 0.2856 0.2954 0.3104 0.3163
1658.172992 0.3216 0.3269 0.3321 0.3361 0.3402
1663.193548 0.3442 0.3478 0.3511 0.3544 0.3577
1668.214105 0.3620 0.3663 0.3707 0.3886 0.4016
1673.234662 0.4157 0.4353 0.4418 0.4476 0.4864
1678.255218 0.4987 0.5081 0.5158 0.5228 0.5286
1683.275775 0.5343 0.5400 0.5455 0.5510 0.5560
1688.296331 0.5598 0.5635 0.5671 0.5708 0.5748
1693.316888 0.5789 0.5829 0.5870 0.5912 0.5953
1698.337445 0.6004 0.6059 0.6138 0.6208 0.6248
1703.358001 0.6287 0.6325 0.6352 0.6376 0.6398
1708.378558 0.6421 0.6427 0.6433 0.6438 0.6444
1713.399114 0.6452 0.6459 0.6468 0.6476 0.6509
1718.419671 0.6547 0.6587 0.6633 0.6678 0.6711
1723.440228 0.6740 0.6768 0.6783 0.6795 0.6797
1728.460784 0.6798 0.6800 0.6800 0.6800 0.6800
1733.481341 0.6800 0.6807 0.6816 0.6831 0.6857
1738.501898 0.6883 0.6905 0.6926 0.6946 0.6957
1743.522454 0.6958 0.6957 0.6956 0.6955 0.6960
1748.543011 0.6970 0.6982 0.6994 0.7007 0.7019
1753.563567 0.7032 0.7044 0.7056 0.7068 0.7080
1758.584124 0.7096 0.7112 0.7129 0.7141 0.7153
1763.604681 0.7161 0.7170 0.7178 0.7186 0.7195
1768.625237 0.7203 0.7209 0.7214 0.7218 0.7222
1773.645794 0.7227 0.7231 0.7235 0.7240 0.7239
1778.666350 0.7238 0.7238 0.7237 0.7240 0.7233
1783.686907 0.7230 0.7227 0.7224 0.7222 0.7219
1788.707464 0.7217 0.7215 0.7214 0.7212 0.7210
1793.728020 0.7209 0.7207 0.7205 0.7203 0.7202
1798.748577 0.7200 0.7199 0.7197 0.7196 0.7194
1803.769133 0.7195 0.7197 0.7202 0.7208 0.7215
1808.789690 0.7222 0.7229 0.7229 0.7225 0.7209
1813.810247 0.7189 0.7165 0.7145 0.7129 0.7113
1818.830803 0.7104 0.7096 0.7090 0.7083 0.7077
1823.851360 0.7071 0.7065 0.7059 0.7053 0.7047
1828.871917 0.7042 0.7036 0.7028 0.7021 0.7013
1833.892473 0.7006 0.6998 0.6991 0.6985 0.6980
1838.913030 0.6975 0.6970 0.6966 0.6961 0.6956
1843.933586 0.6950 0.6943 0.6937 0.6931 0.6924
1848.954143 0.6922 0.6920 0.6918 0.6915 0.6913
1853.974700 0.6910 0.6907 0.6904 0.6901 0.6898
1858.995256 0.6886 0.6823 0.6779 0.6771 0.6767
1864.015813 0.6764 0.6761 0.6758 0.6755 0.6752
1869.036369 0.6750 0.6746 0.6742 0.6738 0.6734
1874.056926 0.6730 0.6724 0.6717 0.6711 0.6704
1879.077483 0.6698 0.6690 0.6680 0.6671 0.6662
1884.098039 0.6653 0.6644 0.6639 0.6634 0.6630
1889.118596 0.6626 0.6621 0.6617 0.6617 0.6618
1894.139152 0.6618 0.6619 0.6620 0.6620 0.6621
1899.159709 0.6623 0.6624 0.6625 0.6626 0.6627
1904.180266 0.6628 0.6628 0.6627 0.6626 0.6624
1909.200822 0.6623 0.6621 0.6617 0.6612 0.6607
1914.221379 0.6602 0.6597 0.6592 0.6587 0.6583
1919.241935 0.6578 0.6573 0.6566 0.6560 0.6553
1924.262492 0.6552 0.6552 0.6552 0.6553 0.6553
1929.283049 0.6553 0.6550 0.6544 0.6537 0.6528
1934.303605 0.6518 0.6509 0.6499 0.6489 0.6476
1939.324162 0.6464 0.6453 0.6442 0.6433 0.6423
1944.344719 0.6413 0.6403 0.6393 0.6386 0.6380
1949.365275 0.6375 0.6370 0.6365 0.6360 0.6355
1954.385832 0.6350 0.6346 0.6342 0.6338 0.6335
1959.406388 0.6336 0.6336 0.6333 0.6319 0.6303
1964.426945 0.6287 0.6271 0.6255 0.6238 0.6222
1969.447502 0.6206 0.6191 0.6176 0.6161 0.6150
1974.468058 0.6146 0.6143 0.6139 0.6136 0.6132
1979.488615 0.6129 0.6123 0.6117 0.6111 0.6097
1984.509171 0.6083 0.6068 0.6054 0.6040 0.6025
1989.529728 0.6011 0.5997 0.5982 0.5968 0.5954
1994.550285 0.5937 0.5917 0.5898 0.5878 0.5859
1999.570841 0.5839 0.5824 0.5813 0.5803 0.5792
2004.591398 0.5781 0.5770 0.5760 0.5749 0.5739
2009.611954 0.5731 0.5722 0.5714 0.5706 0.5697
2014.632511 0.5689 0.5680 0.5669 0.5658 0.5652
2019.653068 0.5649 0.5648 0.5647 0.5645 0.5645
2024.673624 0.5648 0.5652 0.5655 0.5657 0.5661
2029.694181 0.5665 0.5668 0.5675 0.5682 0.5689
2034.714738 0.5694 0.5697 0.5698 0.5700 0.5702
2039.735294 0.5719 0.5737 0.5752 0.5763 0.5763
2044.755851 0.5761 0.5755 0.5748 0.5740 0.5731
2049.776407 0.5721 0.5704 0.5694 0.5691 0.5689
2054.796964 0.5685 0.5681 0.5677 0.5673 0.5668
2059.817521 0.5664 0.5659 0.5655 0.5650 0.5643
2064.838077 0.5635 0.5628 0.5620 0.5612 0.5604
2069.858634 0.5595 0.5587 0.5569 0.5543 0.5516
2074.879190 0.5489 0.5467 0.5447 0.5429 0.5419
2079.899747 0.5412 0.5405 0.5398 0.5390 0.5382
2084.920304 0.5374 0.5365 0.5357 0.5349 0.5341
2089.940860 0.5332 0.5323 0.5313 0.5303 0.5293
2094.961417 0.5283 0.5271 0.5258 0.5245 0.5232
2099.981973 0.5219 0.5204 0.5186 0.5168 0.5150
2105.002530 0.5132 0.5114 0.5097 0.5080 0.5063
2110.023087 0.5045 0.5028 0.5011 0.4993 0.4975
2115.043643 0.4957 0.4939 0.4921 0.4904 0.4886
2120.064200 0.4868 0.4852 0.4836 0.4819 0.4803
2125.084756 0.4787 0.4770 0.4754 0.4738 0.4722
2130.105313 0.4705 0.4690 0.4676 0.4662 0.4649
2135.125870 0.4635 0.4621 0.4607 0.4593 0.4580
2140.146426 0.4565 0.4551 0.4537 0.4523 0.4509
2145.166983 0.4495 0.4480 0.4466 0.4452 0.4438
2150.187540 0.4424 0.4408 0.4391 0.4374 0.4357
2155.208096 0.4341 0.4328 0.4319 0.4310 0.4301
2160.228653 0.4292 0.4283 0.4275 0.4269 0.4265
2165.249209 0.4262 0.4261 0.4259 0.4258 0.4256
2170.269766 0.4255 0.4253 0.4252 0.4251 0.4250
2175.290323 0.4250 0.4248 0.4246 0.4241 0.4234
2180.310879 0.4223 0.4191 0.4162 0.4144 0.4129
2185.331436 0.4121 0.4115 0.4111 0.4106 0.4104
2190.351992 0.4103 0.4103 0.4102 0.4101 0.4100
2195.372549 0.4099 0.4098 0.4107 0.4098 0.4093
2200.393106 0.4091 0.4089 0.4087 0.4085 0.4090
2205.413662 0.4106 0.4125 0.4145 0.4165 0.4182
2210.434219 0.4197 0.4213 0.4221 0.4228 0.4235
2215.454775 0.4242 0.4249 0.4251 0.4253 0.4254
2220.475332 0.4256 0.4257 0.4258 0.4259 0.4259
2225.495889 0.4260 0.4261 0.4265 0.4275 0.4289
2230.516445 0.4311 0.4334 0.4352 0.4369 0.4376
2235.537002 0.4378 0.4378 0.4379 0.4381 0.4383
2240.557559 0.4394 0.4409 0.4429 0.4459 0.4488
2245.578115 0.4509 0.4518 0.4522 0.4526 0.4529
2250.598672 0.4533 0.4536 0.4540 0.4543 0.4547
2255.619228 0.4550 0.4554 0.4560 0.4566 0.4572
2260.639785 0.4578 0.4583 0.4590 0.4598 0.4607
2265.660342 0.4615 0.4625 0.4635 0.4644 0.4652
2270.680898 0.4659 0.4667 0.4674 0.4674 0.4673
2275.701455 0.4671 0.4668 0.4666 0.4663 0.4661
2280.722011 0.4658 0.4646 0.4650 0.4652 0.4649
2285.742568 0.4647 0.4642 0.4636 0.4631 0.4625
2290.763125 0.4620 0.4614 0.4609 0.4603 0.4597
2295.783681 0.4589 0.4582 0.4574 0.4566 0.4558
2300.804238 0.4549 0.4539 0.4528 0.4518 0.4508
2305.824794 0.4497 0.4485 0.4473 0.4461 0.4449
2310.845351 0.4436 0.4424 0.4416 0.4410 0.4405
2315.865908 0.4400 0.4394 0.4382 0.4367 0.4351
2320.886464 0.4330 0.4307 0.4284 0.4256 0.4224
2325.907021 0.4191 0.4143 0.4100 0.4086 0.4082
2330.927577 0.4079 0.4076 0.4074 0.4071 0.4066
2335.948134 0.4057 0.4045 0.4033 0.4013 0.3994
2340.968691 0.3978 0.3964 0.3950 0.3935 0.3922
2345.989247 0.3911 0.3900 0.3890 0.3880 0.3873
2351.009804 0.3865 0.3857 0.3850 0.3845 0.3845
2356.030361 0.3847 0.3848 0.3849 0.3851 0.3852
2361.050917 0.3856 0.3861 0.3865 0.3867 0.3867
2366.071474 0.3867 0.3863 0.3856 0.3849 0.3842
2371.092030 0.3834 0.3824 0.3814 0.3805 0.3795
2376.112587 0.3785 0.3775 0.3764 0.3754 0.3743
2381.133144 0.3732 0.3724 0.3717 0.3711 0.3704
2386.153700 0.3697 0.3691 0.3684 0.3677 0.3671
2391.174257 0.3664 0.3656 0.3648 0.3641 0.3633
2396.194813 0.3626 0.3618 0.3610 0.3601 0.3593
2401.215370 0.3584 0.3575 0.3566 0.3557 0.3548
2406.235927 0.3539 0.3531 0.3522 0.3514 0.3505
2411.256483 0.3497 0.3488 0.3480 0.3471 0.3462
2416.277040 0.3452 0.3442 0.3432 0.3423 0.3413
2421.297596 0.3403 0.3393 0.3382 0.3372 0.3361
2426.318153 0.3350 0.3339 0.3329 0.3318 0.3308
2431.338710 0.3299 0.3290 0.3281 0.3272 0.3263
2436.359266 0.3256 0.3249 0.3242 0.3235 0.3229
2441.379823 0.3221 0.3214 0.3206 0.3199 0.3189
2446.400380 0.3177 0.3164 0.3154 0.3145 0.3137
2451.420936 0.3135 0.3138 0.3141 0.3145 0.3148
2456.441493 0.3148 0.3146 0.3142 0.3138 0.3133
2461.462049 0.3128 0.3120 0.3106 0.3089 0.3071
2466.482606 0.3054 0.3033 0.3009 0.2984 0.2955
2471.503163 0.2925 0.2899 0.2882 0.2868 0.2855
2476.523719 0.2841 0.2828 0.2813 0.2807 0.2805
2481.544276 0.2803 0.2802 0.2801 0.2801 0.2801
2486.564832 0.2804 0.2810 0.2820 0.2832 0.2844
2491.585389 0.2856 0.2863 0.2863 0.2857 0.2850
2496.605946 0.2830 0.2803 0.2782 0.2766 0.2759
2501.626502 0.2756 0.2753 0.2750 0.2748 0.2746
2506.647059 0.2744 0.2738 0.2728 0.2718 0.2708
2511.667615 0.2691 0.2673 0.2654 0.2635 0.2614
2516.688172 0.2590 0.2565 0.2540 0.2516 0.2492
2521.708729 0.2468 0.2444 0.2423 0.2408 0.2403
2526.729285 0.2406 0.2410 0.2413 0.2418 0.2423
2531.749842 0.2430 0.2437 0.2443 0.2450 0.2456
2536.770398 0.2462 0.2469 0.2475 0.2482 0.2487
2541.790955 0.2492 0.2496 0.2496 0.2496 0.2495
2546.811512 0.2495 0.2494 0.2492 0.2488 0.2483
2551.832068 0.2478 0.2473 0.2467 0.2462 0.2456
2556.852625 0.2450 0.2444 0.2438 0.2432 0.2426
2561.873182 0.2421 0.2416 0.2412 0.2408 0.2404
2566.893738 0.2400 0.2395 0.2391 0.2391 0.2391
2571.914295 0.2391 0.2391 0.2394 0.2399 0.2404
2576.934851 0.2409 0.2414 0.2416 0.2418 0.2420
2581.955408 0.2421 0.2418 0.2415 0.2412 0.2409
2586.975965 0.2407 0.2405 0.2404 0.2402 0.2401
2591.996521 0.2378 0.2397 0.2396 0.2394 0.2393
2597.017078 0.2391 0.2389 0.2388 0.2386 0.2384
2602.037634 0.2383 0.2381 0.2380 0.2378 0.2376
2607.058191 0.2375 0.2375 0.2374 0.2373 0.2373
2612.078748 0.2372 0.2372 0.2371 0.2370 0.2370
2617.099304 0.2369 0.2368 0.2368 0.2367 0.2367
2622.119861 0.2366 0.2366 0.2366 0.2366 0.2366
2627.140417 0.2366 0.2366 0.2366 0.2366 0.2367
2632.160974 0.2367 0.2368 0.2372 0.2375 0.2379
2637.181531 0.2383 0.2386 0.2390 0.2398 0.2406
2642.202087 0.2414 0.2422 0.2430 0.2438 0.2446
2647.222644 0.2457 0.2469 0.2481 0.2493 0.2508
2652.243201 0.2526 0.2545 0.2564 0.2582 0.2599
2657.263757 0.2616 0.2634 0.2651 0.2667 0.2677
2662.284314 0.2681 0.2685 0.2689 0.2693 0.2697
2667.304870 0.2702 0.2707 0.2712 0.2717 0.2724
2672.325427 0.2732 0.2739 0.2747 0.2754 0.2760
2677.345984 0.2763 0.2765 0.2766 0.2765 0.2765
2682.366540 0.2764 0.2764 0.2763 0.2763 0.2763
2687.387097 0.2761 0.2760 0.2759 0.2758 0.2757
2692.407653 0.2756 0.2755 0.2754 0.2753 0.2752
2697.428210 0.2752 0.2751 0.2751 0.2750 0.2750
2702.448767 0.2750 0.2752 0.2761 0.2777 0.2794
2707.469323 0.2807 0.2812 0.2805 0.2787 0.2767
2712.489880 0.2748 0.2738 0.2738 0.2740 0.2742
2717.510436 0.2760 0.2814 0.2875 0.2912 0.2936
2722.530993 0.2954 0.2966 0.2978 0.2991 0.3004
2727.551550 0.3013 0.3021 0.3027 0.3034 0.3040
2732.572106 0.3047 0.3052 0.3055 0.3057 0.3058
2737.592663 0.3060 0.3061 0.3063 0.3064 0.3064
2742.613219 0.3062 0.3059 0.3057 0.3054 0.3052
2747.633776 0.3054 0.3059 0.3064 0.3071 0.3078
2752.654333 0.3084 0.3091 0.3097 0.3102 0.3107
2757.674889 0.3111 0.3116 0.3121 0.3126 0.3129
2762.695446 0.3132 0.3134 0.3136 0.3137 0.3138
2767.716003 0.3137 0.3136 0.3135 0.3133 0.3132
2772.736559 0.3133 0.3134 0.3130 0.3137 0.3141
2777.757116 0.3143 0.3145 0.3147 0.3149 0.3150
2782.777672 0.3150 0.3148 0.3146 0.3144 0.3142
2787.798229 0.3140 0.3138 0.3136 0.3135 0.3133
2792.818786 0.3132 0.3130 0.3129 0.3128 0.3126
2797.839342 0.3129 0.3132 0.3136 0.3143 0.3150
2802.859899 0.3157 0.3163 0.3168 0.3170 0.3167
2807.880455 0.3164 0.3161 0.3158 0.3155 0.3150
2812.901012 0.3142 0.3133 0.3125 0.3116 0.3108
2817.921569 0.3095 0.3077 0.3059 0.3052 0.3051
2822.942125 0.3056 0.3065 0.3078 0.3099 0.3119
2827.962682 0.3138 0.3154 0.3166 0.3166 0.3165
2832.983238 0.3164 0.3164 0.3163 0.3163 0.3162
2838.003795 0.3162 0.3161 0.3161 0.3160 0.3160
2843.024352 0.3160 0.3159 0.3159 0.3159 0.3158
2848.044908 0.3158 0.3158 0.3157 0.3157 0.3159
2853.065465 0.3160 0.3162 0.3163 0.3165 0.3166
2858.086022 0.3167 0.3169 0.3173 0.3176 0.3180
2863.106578 0.3185 0.3200 0.3214 0.3229 0.3244
2868.127135 0.3260 0.3278 0.3295 0.3297 0.3295
2873.147691 0.3285 0.3274 0.3257 0.3240 0.3222
2878.168248 0.3207 0.3193 0.3180 0.3176 0.3174
2883.188805 0.3173 0.3171 0.3170 0.3168 0.3166
2888.209361 0.3164 0.3163 0.3160 0.3156 0.3151
2893.229918 0.3146 0.3141 0.3137 0.3132 0.3127
2898.250474 0.3121 0.3115 0.3108 0.3101 0.3095
2903.271031 0.3088 0.3081 0.3073 0.3062 0.3051
2908.291588 0.3040 0.3029 0.3018 0.3006 0.2993
2913.312144 0.2980 0.2966 0.2952 0.2937 0.2924
2918.332701 0.2912 0.2902 0.2892 0.2883 0.2875
2923.353257 0.2873 0.2873 0.2873 0.2873 0.2873
2928.373814 0.2873 0.2873 0.2871 0.2868 0.2865
2933.394371 0.2862 0.2856 0.2848 0.2840 0.2836
2938.414927 0.2842 0.2855 0.2869 0.2885 0.2901
2943.435484 0.2917 0.2931 0.2946 0.2959 0.2970
2948.456040 0.2980 0.2990 0.3000 0.3006 0.3009
2953.476597 0.3011 0.3014 0.3016 0.3019 0.3020
2958.497154 0.3021 0.3021 0.3030 0.3047 0.3063
2963.517710 0.3080 0.3099 0.3115 0.3121 0.3123
2968.538267 0.3125 0.3127 0.3129 0.3130 0.3130
2973.558824 0.3130 0.3130 0.3131 0.3138 0.3148
2978.579380 0.3153 0.3155 0.3156 0.3158 0.3159
2983.599937 0.3160 0.3160 0.3158 0.3156 0.3153
2988.620493 0.3150 0.3148 0.3145 0.3143 0.3140
2993.641050 0.3137 0.3135 0.3132 0.3130 0.3137
2998.661607 0.3148 0.3159 0.3171 0.3183 0.3195
3003.682163 0.3202 0.3193 0.3204 0.3214 0.3215
3008.702720 0.3215 0.3215 0.3216 0.3216 0.3216
3013.723276 0.3216 0.3216 0.3216 0.3216 0.3216
3018.743833 0.3216 0.3216 0.3215 0.3214 0.3212
3023.764390 0.3209 0.3206 0.3203 0.3200 0.3197
3028.784946 0.3193 0.3190 0.3187 0.3184 0.3181
3033.805503 0.3178 0.3175 0.3171 0.3168 0.3165
3038.826059 0.3160 0.3156 0.3152 0.3147 0.3143
3043.846616 0.3138 0.3134 0.3130 0.3125 0.3121
3048.867173 0.3117 0.3112 0.3108 0.3103 0.3099
3053.887729 0.3094 0.3090 0.3086 0.3082 0.3078
3058.908286 0.3074 0.3070 0.3065 0.3061 0.3057
3063.928843 0.3053 0.3051 0.3048 0.3046 0.3044
3068.949399 0.3041 0.3039 0.3037 0.3034 0.3032
3073.969956 0.3030 0.3027 0.3025 0.3023 0.3021
3078.990512 0.3019 0.3017 0.3015 0.3013 0.3011
3084.011069 0.3009 0.3007 0.3004 0.2999 0.2995
3089.031626 0.2990 0.2982 0.2973 0.2972 0.2978
3094.052182 0.2984 0.2989 0.2996 0.3003 0.3005
3099.072739 0.3007 0.3008 0.3009 0.3009 0.3010
3104.093295 0.3011 0.3012 0.3014 0.3015 0.3013
3109.113852 0.3011 0.3008 0.3000 0.2985 0.2956
3114.134409 0.2929 0.2903 0.2877 0.2852 0.2826
3119.154965 0.2799 0.2771 0.2744 0.2718 0.2697
3124.175522 0.2676 0.2656 0.2637 0.2626 0.2617
3129.196078 0.2607 0.2597 0.2587 0.2577 0.2568
3134.216635 0.2559 0.2550 0.2542 0.2533 0.2524
3139.237192 0.2516 0.2507 0.2498 0.2490 0.2481
3144.257748 0.2472 0.2463 0.2454 0.2448 0.2443
3149.278305 0.2437 0.2432 0.2426 0.2421 0.2415
3154.298861 0.2410 0.2404 0.2401 0.2400 0.2399
3159.319418 0.2398 0.2396 0.2395 0.2394 0.2393
3164.339975 0.2392 0.2391 0.2390 0.2390 0.2390
3169.360531 0.2390 0.2389 0.2389 0.2389 0.2388
3174.381088 0.2388 0.2388 0.2389 0.2390 0.2391
3179.401645 0.2392 0.2393 0.2394 0.2395 0.2396
3184.422201 0.2397 0.2398 0.2399 0.2400 0.2400
3189.442758 0.2400 0.2400 0.2400 0.2401 0.2401
3194.463314 0.2401 0.2401 0.2401 0.2401 0.2401
3199.483871 0.2401 0.2401 0.2401 0.2402 0.2402
3204.504428 0.2402 0.2402 0.2402 0.2402 0.2403
3209.524984 0.2404 0.2404 0.2405 0.2406 0.2402
3214.545541 0.2395 0.2389 0.2382 0.2373 0.2355
3219.566097 0.2329 0.2303 0.2277 0.2249 0.2216
3224.586654 0.2181 0.2161 0.2154 0.2149 0.2145
3229.607211 0.2140 0.2135 0.2129 0.2123 0.2116
3234.627767 0.2109 0.2099 0.2079 0.2056 0.2041
3239.648324 0.2037 0.2036 0.2034 0.2042 0.2042
3244.668880 0.2043 0.2050 0.2058 0.2070 0.2080
3249.689437 0.2087 0.2092 0.2097 0.2100 0.2103
3254.709994 0.2107 0.2110 0.2113 0.2115 0.2117
3259.730550 0.2118 0.2104 0.2084 0.2069 0.2057
3264.751107 0.2046 0.2034 0.2027 0.2024 0.2023
3269.771664 0.2021 0.2019 0.2018 0.2017 0.2019
3274.792220 0.2021 0.2023 0.2025 0.2027 0.2029
3279.812777 0.2034 0.2039 0.2044 0.2049 0.2057
3284.833333 0.2064 0.2072 0.2080 0.2088 0.2096
3289.853890 0.2105 0.2113 0.2122 0.2131 0.2141
3294.874447 0.2151 0.2163 0.2180 0.2197 0.3015
3299.895003 0.3117 0.2901 0.2619 0.2332 0.2282
3304.915560 0.2280 0.2282 0.2285 0.2288 0.2295
3309.936116 0.2305 0.2316 0.2330 0.2349 0.2375
3314.956673 0.2411 0.2464 0.2523 0.2581 0.2636
3319.977230 0.2691 0.2745 0.2793 0.2842 0.2897
3324.997786 0.2960 0.3017 0.3065 0.3127 0.3208
3330.018343 0.3304 0.3365 0.3429 0.3530 0.3632
3335.038899 0.3705 0.3777 0.3847 0.3907 0.3967
3340.059456 0.4026 0.4069 0.4110 0.4151 0.4193
3345.080013 0.4251 0.4308 0.4364 0.4403 0.4438
3350.100569 0.4473 0.4500 0.4526 0.4548 0.4563
3355.121126 0.4577 0.4592 0.4607 0.4629 0.4652
3360.141682 0.4673 0.4683 0.4690 0.4683 0.4678
3365.162239 0.4679 0.4687 0.4721 0.4756 0.4792
3370.182796 0.4829 0.4865 0.4892 0.4898 0.4905
3375.203352 0.4911 0.4917 0.4924 0.4930 0.4940
3380.223909 0.4968 0.5011 0.5040 0.5068 0.5092
3385.244466 0.5107 0.5121 0.5135 0.5145 0.5152
3390.265022 0.5159 0.5166 0.5171 0.5174 0.5176
3395.285579 0.5179 0.5181 0.5184 0.5190 0.5197
3400.306135 0.5204 0.5213 0.5227 0.5240 0.5255
3405.326692 0.5267 0.5274 0.5280 0.5287 0.5294
3410.347249 0.5301 0.5305 0.5308 0.5311 0.5314
3415.367805 0.5317 0.5320 0.5323 0.5327 0.5331
3420.388362 0.5336 0.5341 0.5346 0.5351 0.5358
3425.408918 0.5372 0.5388 0.5401 0.5410 0.5418
3430.429475 0.5422 0.5424 0.5426 0.5428 0.5429
3435.450032 0.5431 0.5433 0.5434 0.5436 0.5438
3440.470588 0.5440 0.5444 0.5449 0.5453 0.5457
3445.491145 0.5461 0.5466 0.5471 0.5476 0.5483
3450.511701 0.5489 0.5495 0.5501 0.5507 0.5513
3455.532258 0.5520 0.5526 0.5532 0.5541 0.5552
3460.552815 0.5563 0.5574 0.5584 0.5595 0.5605
3465.573371 0.5611 0.5617 0.5623 0.5630 0.5634
3470.593928 0.5635 0.5635 0.5634 0.5634 0.5633
3475.614485 0.5633 0.5637 0.5645 0.5653 0.5661
3480.635041 0.5670 0.5680 0.5689 0.5698 0.5709
3485.655598 0.5721 0.5734 0.5746 0.5756 0.5764
3490.676154 0.5773 0.5781 0.5789 0.5796 0.5804
3495.696711 0.5811 0.5818 0.5826 0.5833 0.5841
3500.717268 0.5850 0.5857 0.5863 0.5870 0.5876
3505.737824 0.5883 0.5889 0.5895 0.5902 0.5909
3510.758381 0.5915 0.5921 0.5928 0.5934 0.5941
3515.778937 0.5948 0.5955 0.5963 0.5970 0.5977
3520.799494 0.5984 0.5991 0.5999 0.6006 0.6014
3525.820051 0.6022 0.6029 0.6037 0.6044 0.6052
3530.840607 0.6059 0.6066 0.6073 0.6080 0.6087
3535.861164 0.6090 0.6092 0.6094 0.6096 0.6097
3540.881720 0.6099 0.6103 0.6116 0.6132 0.6156
3545.902277 0.6182 0.6195 0.6203 0.6210 0.6217
3550.922834 0.6222 0.6226 0.6231 0.6236 0.6241
3555.943390 0.6248 0.6256 0.6265 0.6274 0.6283
3560.963947 0.6291 0.6305 0.6319 0.6332 0.6346
3565.984503 0.6360 0.6373 0.6385 0.6398 0.6406
3571.005060 0.6408 0.6411 0.6412 0.6413 0.6413
3576.025617 0.6414 0.6428 0.6461 0.6482 0.6491
3581.046173 0.6493 0.6495 0.6497 0.6499 0.6501
3586.066730 0.6503 0.6505 0.6507 0.6509 0.6511
3591.087287 0.6513 0.6515 0.6517 0.6519 0.6521
3596.107843 0.6523 0.6529 0.6566 0.6624 0.6644
3601.128400 0.6660 0.6666 0.6673 0.6679 0.6683
3606.148956 0.6682 0.6680 0.6678 0.6677 0.6674
3611.169513 0.6670 0.6667 0.6663 0.6660 0.6655
3616.190070 0.6659 0.6675 0.6692 0.6708 0.6722
3621.210626 0.6735 0.6747 0.6761 0.6774 0.6788
3626.231183 0.6801 0.6814 0.6826 0.6838 0.6849
3631.251739 0.6860 0.6867 0.6871 0.6875 0.6879
3636.272296 0.6882 0.6886 0.6891 0.6899 0.6914
3641.292853 0.6934 0.6952 0.6966 0.6971 0.6966
3646.313409 0.6961 0.6955 0.6943 0.6928 0.6913
3651.333966 0.6891 0.6874 0.6889 0.6909 0.6928
3656.354522 0.6946 0.6958 0.6957 0.6951 0.6943
3661.375079 0.6933 0.6916 0.6893 0.6867 0.6844
3666.395636 0.6845 0.6863 0.6882 0.6901 0.6919
3671.416192 0.6932 0.6944 0.6955 0.6963 0.6968
3676.436749 0.6971 0.6972 0.6972 0.6971 0.6970
3681.457306 0.6966 0.6956 0.6947 0.6937 0.6924
3686.477862 0.6910 0.6900 0.6898 0.6900 0.6902
3691.498419 0.6906 0.6911 0.6916 0.6921 0.6915
3696.518975 0.6917 0.6926 0.6925 0.6924 0.6923
3701.539532 0.6921 0.6920 0.6919 0.6919 0.6919
3706.560089 0.6920 0.6920 0.6920 0.6922 0.6925
3711.580645 0.6928 0.6934 0.6943 0.6955 0.6966
3716.601202 0.6976 0.6982 0.6984 0.6984 0.6984
3721.621758 0.6984 0.6983 0.6983 0.6982 0.6981
3726.642315 0.6980 0.6979 0.6977 0.6975 0.6972
3731.662872 0.6969 0.6964 0.6958 0.6952 0.6946
3736.683428 0.6940 0.6934 0.6926 0.6918 0.6909
3741.703985 0.6900 0.6886 0.6864 0.6821 0.6794
3746.724541 0.6794 0.6800 0.6807 0.6813 0.6822
3751.745098 0.6831 0.6839 0.6848 0.6857 0.6866
3756.765655 0.6875 0.6884 0.6890 0.6893 0.6894
3761.786211 0.6892 0.6890 0.6888 0.6885 0.6882
3766.806768 0.6879 0.6876 0.6873 0.6869 0.6865
3771.827324 0.6857 0.6849 0.6839 0.6830 0.6818
3776.847881 0.6877 0.6908 0.6918 0.6910 0.6887
3781.868438 0.6869 0.6868 0.6871 0.6873 0.6876
3786.888994 0.6878 0.6878 0.6878 0.6874 0.6871
3791.909551 0.6863 0.6853 0.6839 0.6824 0.6809
3796.930108 0.6792 0.6775 0.6758 0.6741 0.6724
3801.950664 0.6705 0.6683 0.6661 0.6644 0.6639
3806.971221 0.6634 0.6634 0.6634 0.6634 0.6634
3811.991777 0.6634 0.6634
##END=
