##TITLE=3-METHYLCYCLOPENTANONE 2,4-DINITROPHENYLHYDRAZONE
##JCAMP-DX=4.24
##DATA TYPE=INFRARED SPECTRUM
##CLASS=COBLENTZ
##OWNER=COBLENTZ SOCIETY
Collection (C) 2018 copyright by the U.S. Secretary of Commerce
on behalf of the United States of America. All rights reserved.
##DATE=Not specified, most likely prior to 1970
##MOLFORM=C12 H15 N4 O4
##SOURCE REFERENCE=COBLENTZ NO. 700
##$NIST ID=B6000700
##$NIST SOURCE=COBLENTZ
##$NIST IMAGE=cob700
##SPECTROMETER/DATA SYSTEM=Not specified, most likely a prism, grating, or hybrid spectrometer.
##STATE=SOLID (OIL MULL)
##SAMPLING PROCEDURE=TRANSMISSION
##RESOLUTION=4
##DATA PROCESSING=DIGITIZED BY NIST FROM HARD COPY
##XUNITS=MICROMETERS
##YUNITS=TRANSMITTANCE
##XFACTOR=1.000000
##YFACTOR=1
##DELTAX=000.006694
##FIRSTX=2.013
##LASTX=15.4757
##FIRSTY=0.33
##MAXX=15.4757
##MINX=2.013
##MAXY=0.825
##MINY=0.088
##NPOINTS=2012
##XYDATA=(X++(Y..Y))
2.013000 0.3300 0.3310 0.3330 0.3330 0.3360
2.046487 0.3410 0.3430 0.3440 0.3480 0.3490
2.080000 0.3510 0.3530 0.3530 0.3530 0.3540
2.113487 0.3570 0.3610 0.3620 0.3640 0.3660
2.147000 0.3670 0.3690 0.3710 0.3720 0.3740
2.180487 0.3760 0.3770 0.3790 0.3800 0.3820
2.214000 0.3840 0.3850 0.3890 0.3900 0.3920
2.247487 0.3940 0.3950 0.3970 0.3990 0.4000
2.281000 0.4030 0.4050 0.4070 0.4070 0.4080
2.314487 0.4100 0.4120 0.4120 0.4130 0.4150
2.348000 0.4170 0.4170 0.4180 0.4200 0.4220
2.381487 0.4220 0.4230 0.4260 0.4280 0.4310
2.415000 0.4350 0.4360 0.4360 0.4410 0.4410
2.448487 0.4430 0.4460 0.4460 0.4490 0.4490
2.482000 0.4490 0.4510 0.4510 0.4540 0.4590
2.515487 0.4630 0.4660 0.4660 0.4660 0.4670
2.549000 0.4690 0.4720 0.4770 0.4810 0.4840
2.582487 0.4840 0.4860 0.4870 0.4870 0.4900
2.616000 0.4900 0.4920 0.4920 0.4920 0.4920
2.649487 0.4920 0.4920 0.4920 0.4970 0.4990
2.683000 0.4990 0.5000 0.5020 0.5020 0.5020
2.716487 0.5020 0.5040 0.5050 0.5090 0.5100
2.750000 0.5120 0.5120 0.5130 0.5130 0.5150
2.783487 0.5170 0.5180 0.5200 0.5220 0.5250
2.817000 0.5250 0.5220 0.5200 0.5200 0.5180
2.850487 0.5200 0.5200 0.5220 0.5220 0.5230
2.884000 0.5230 0.5270 0.5270 0.5270 0.5300
2.917487 0.5320 0.5350 0.5360 0.5360 0.5380
2.951000 0.5400 0.5400 0.5410 0.5410 0.5430
2.984487 0.5450 0.5450 0.5270 0.5180 0.5000
3.018000 0.4760 0.4510 0.4150 0.4070 0.4100
3.051487 0.4220 0.4440 0.4690 0.4820 0.4970
3.084000 0.5050 0.5150 0.5200 0.5250 0.5300
3.117487 0.5330 0.5360 0.5400 0.5400 0.5400
3.151000 0.5400 0.5400 0.5400 0.5410 0.5410
3.184487 0.5450 0.5480 0.5450 0.5130 0.4950
3.218000 0.4920 0.4900 0.4920 0.4950 0.5090
3.251487 0.5120 0.5170 0.5220 0.5230 0.5270
3.285000 0.5320 0.5320 0.5320 0.5320 0.5330
3.318487 0.5330 0.5220 0.5120 0.4890 0.4530
3.352000 0.4030 0.3540 0.2610 0.2280 0.2010
3.385487 0.1800 0.1590 0.1360 0.1080 0.0980
3.419000 0.0950 0.0880 0.0880 0.0910 0.1050
3.452487 0.1190 0.1310 0.1410 0.1540 0.1600
3.486000 0.1640 0.1690 0.1690 0.1700 0.1720
3.519487 0.1950 0.3050 0.3950 0.4610 0.4970
3.553000 0.5220 0.5380 0.5530 0.5610 0.5690
3.586487 0.5790 0.5870 0.5910 0.5920 0.5960
3.620000 0.5990 0.6120 0.6150 0.6220 0.6250
3.653487 0.6250 0.6270 0.6270 0.6280 0.6280
3.687000 0.6280 0.6280 0.6300 0.6320 0.6330
3.720487 0.6350 0.6370 0.6370 0.6370 0.6350
3.754000 0.6370 0.6370 0.6380 0.6380 0.6400
3.787487 0.6400 0.6400 0.6420 0.6420 0.6420
3.821000 0.6420 0.6430 0.6500 0.6510 0.6550
3.854487 0.6610 0.6610 0.6630 0.6650 0.6660
3.888000 0.6660 0.6660 0.6660 0.6660 0.6680
3.921487 0.6690 0.6690 0.6690 0.6710 0.6710
3.955000 0.6710 0.6730 0.6740 0.6740 0.6760
3.988487 0.6780 0.6790 0.6810 0.6830 0.6830
4.022000 0.6830 0.6830 0.6840 0.6840 0.6860
4.055487 0.6860 0.6860 0.6860 0.6860 0.6840
4.089000 0.6840 0.6840 0.6840 0.6830 0.6830
4.122487 0.6860 0.6880 0.6880 0.6880 0.6880
4.156000 0.6890 0.6880 0.6880 0.6880 0.6860
4.189487 0.6880 0.6890 0.6960 0.7010 0.7020
4.222000 0.7020 0.7020 0.7020 0.7020 0.7020
4.255487 0.7020 0.7020 0.7040 0.7040 0.7040
4.289000 0.7040 0.7040 0.7040 0.7040 0.7040
4.322487 0.7040 0.7040 0.7060 0.7060 0.7070
4.356000 0.7070 0.7090 0.7090 0.7110 0.7110
4.389487 0.7110 0.7120 0.7140 0.7170 0.7190
4.423000 0.7200 0.7200 0.7200 0.7220 0.7220
4.456487 0.7220 0.7240 0.7250 0.7250 0.7290
4.490000 0.7300 0.7320 0.7330 0.7350 0.7350
4.523487 0.7370 0.7380 0.7370 0.7370 0.7380
4.557000 0.7380 0.7420 0.7420 0.7430 0.7430
4.590487 0.7450 0.7450 0.7450 0.7470 0.7480
4.624000 0.7480 0.7480 0.7500 0.7520 0.7520
4.657487 0.7520 0.7520 0.7520 0.7520 0.7520
4.691000 0.7530 0.7550 0.7600 0.7610 0.7610
4.724487 0.7630 0.7630 0.7630 0.7630 0.7630
4.758000 0.7630 0.7660 0.7660 0.7660 0.7680
4.791487 0.7680 0.7680 0.7680 0.7660 0.7660
4.825000 0.7660 0.7660 0.7660 0.7660 0.7660
4.858487 0.7660 0.7660 0.7660 0.7660 0.7660
4.892000 0.7680 0.7680 0.7680 0.7680 0.7680
4.925487 0.7680 0.7680 0.7710 0.7710 0.7710
4.959000 0.7730 0.7760 0.7810 0.7810 0.7830
4.992487 0.7840 0.7840 0.7840 0.7840 0.7840
5.026000 0.7840 0.7840 0.7840 0.7840 0.7860
5.059487 0.7840 0.7840 0.7830 0.7830 0.7810
5.093000 0.7790 0.7780 0.7750 0.7750 0.7730
5.126487 0.7730 0.7750 0.7760 0.7810 0.7840
5.160000 0.7860 0.7880 0.7880 0.7910 0.7930
5.193487 0.7940 0.7940 0.7960 0.7960 0.7960
5.227000 0.7960 0.7960 0.7960 0.7960 0.7960
5.260487 0.7960 0.7960 0.7980 0.7990 0.8010
5.294000 0.8010 0.8010 0.8020 0.8020 0.8020
5.327487 0.8020 0.8020 0.8020 0.8020 0.8020
5.360000 0.8020 0.8020 0.8040 0.8040 0.8040
5.393487 0.8040 0.8040 0.8020 0.8020 0.8020
5.427000 0.8010 0.7990 0.7980 0.7980 0.7940
5.460487 0.7960 0.7960 0.7990 0.8020 0.8040
5.494000 0.8040 0.8040 0.8060 0.8060 0.8060
5.527487 0.8060 0.8070 0.8110 0.8140 0.8140
5.561000 0.8160 0.8160 0.8160 0.8170 0.8170
5.594487 0.8190 0.8190 0.8190 0.8210 0.8190
5.628000 0.8210 0.8210 0.8210 0.8210 0.8220
5.661487 0.8220 0.8220 0.8220 0.8220 0.8210
5.695000 0.8190 0.8190 0.8210 0.8210 0.8210
5.728487 0.8210 0.8210 0.8210 0.8210 0.8210
5.762000 0.8210 0.8220 0.8210 0.8210 0.8210
5.795487 0.8190 0.8190 0.8190 0.8190 0.8190
5.829000 0.8170 0.8140 0.8110 0.8090 0.8070
5.862487 0.8070 0.8070 0.8040 0.8020 0.8010
5.896000 0.8010 0.7990 0.7990 0.7940 0.7910
5.929487 0.7840 0.7810 0.7810 0.7790 0.7750
5.963000 0.7630 0.7560 0.7470 0.7380 0.7270
5.996487 0.7170 0.6990 0.6780 0.6660 0.6480
6.030000 0.6380 0.6150 0.6040 0.5910 0.5770
6.063487 0.5640 0.5500 0.5320 0.5280 0.5230
6.097000 0.5200 0.4970 0.4590 0.4050 0.3490
6.130487 0.2210 0.2060 0.1920 0.1490 0.1140
6.164000 0.1130 0.1100 0.1110 0.1140 0.1740
6.197487 0.2770 0.2950 0.3160 0.3310 0.3440
6.231000 0.3620 0.3590 0.3410 0.2900 0.2690
6.264487 0.2490 0.2340 0.2160 0.1970 0.1920
6.298000 0.1920 0.2770 0.3020 0.3300 0.3540
6.331487 0.4640 0.4820 0.5040 0.5300 0.5610
6.365000 0.5920 0.6050 0.6190 0.6270 0.6330
6.398487 0.6480 0.6550 0.6650 0.6710 0.6760
6.432000 0.6830 0.6880 0.6910 0.6920 0.6940
6.465487 0.6940 0.6920 0.6840 0.6220 0.5550
6.498000 0.4860 0.4530 0.4230 0.3920 0.3590
6.531487 0.3310 0.2980 0.2800 0.2660 0.2610
6.565000 0.2590 0.2620 0.2770 0.2870 0.2920
6.598487 0.3410 0.4050 0.4030 0.4020 0.4000
6.632000 0.3990 0.3180 0.2290 0.2330 0.2440
6.665487 0.2790 0.2970 0.3430 0.3770 0.3970
6.699000 0.4080 0.4120 0.4360 0.4540 0.4990
6.732487 0.5130 0.5280 0.5350 0.5510 0.5590
6.766000 0.5680 0.5680 0.5510 0.5360 0.5220
6.799487 0.5000 0.4610 0.4120 0.4030 0.4000
6.833000 0.3950 0.3890 0.3840 0.3840 0.3820
6.866487 0.3840 0.3840 0.3870 0.3990 0.4330
6.900000 0.4410 0.4480 0.4580 0.4760 0.4840
6.933487 0.4970 0.5000 0.5070 0.5070 0.5000
6.967000 0.4970 0.4890 0.4840 0.4720 0.4590
7.000487 0.4400 0.4000 0.3590 0.3480 0.3390
7.034000 0.3380 0.3380 0.3360 0.3380 0.3380
7.067487 0.3480 0.3770 0.4760 0.5070 0.5280
7.101000 0.5460 0.5660 0.5840 0.6200 0.6270
7.134487 0.6610 0.6740 0.6810 0.6840 0.6880
7.168000 0.6890 0.6920 0.6940 0.6960 0.6960
7.201487 0.6960 0.6790 0.6480 0.6190 0.6040
7.235000 0.5840 0.5630 0.5400 0.5320 0.5300
7.268487 0.5300 0.5280 0.5280 0.5220 0.5150
7.302000 0.5000 0.4460 0.4230 0.3990 0.3670
7.335487 0.3360 0.3130 0.2970 0.2970 0.3280
7.369000 0.3640 0.3990 0.4330 0.4300 0.4300
7.402487 0.4280 0.4180 0.4080 0.3990 0.3890
7.436000 0.3670 0.2770 0.2460 0.2240 0.2110
7.469487 0.1980 0.1620 0.1490 0.1340 0.1280
7.503000 0.1340 0.1440 0.1520 0.1600 0.1700
7.536487 0.1920 0.2870 0.3200 0.3380 0.3490
7.570000 0.3510 0.3510 0.3510 0.3250 0.2930
7.603487 0.2260 0.1930 0.1600 0.1230 0.1190
7.636000 0.1180 0.1110 0.1110 0.1190 0.1310
7.669487 0.1420 0.1600 0.1830 0.2360 0.2510
7.703000 0.2640 0.2740 0.2800 0.2800 0.2820
7.736487 0.2820 0.2820 0.2800 0.2800 0.2840
7.770000 0.2980 0.3110 0.3180 0.3310 0.3260
7.803487 0.2980 0.2840 0.2700 0.2570 0.2390
7.837000 0.2330 0.2290 0.2240 0.2230 0.2210
7.870487 0.2210 0.2200 0.2200 0.2210 0.2240
7.904000 0.2360 0.2490 0.2970 0.3100 0.3180
7.937487 0.3490 0.3620 0.3720 0.3770 0.3840
7.971000 0.3850 0.3920 0.3990 0.4200 0.4400
8.004487 0.4540 0.4790 0.4990 0.5070 0.5200
8.038000 0.5270 0.5380 0.5500 0.5610 0.5660
8.071487 0.5660 0.5660 0.5560 0.5510 0.5530
8.105000 0.5550 0.5560 0.5610 0.5630 0.5680
8.138487 0.5680 0.5590 0.5480 0.5150 0.4770
8.172000 0.4430 0.4170 0.4130 0.4050 0.4100
8.205487 0.4200 0.4280 0.4490 0.4740 0.4970
8.239000 0.5000 0.5100 0.5120 0.5130 0.5150
8.272487 0.5170 0.5220 0.5360 0.5480 0.5610
8.306000 0.5690 0.5810 0.5890 0.5910 0.5970
8.339487 0.5970 0.5860 0.5770 0.5710 0.5680
8.373000 0.5680 0.5730 0.5840 0.5960 0.6150
8.406487 0.6220 0.6330 0.6420 0.6480 0.6530
8.440000 0.6600 0.6630 0.6660 0.6690 0.6730
8.473487 0.6740 0.6780 0.6790 0.6810 0.6840
8.507000 0.6860 0.6910 0.6920 0.6990 0.6990
8.540487 0.7010 0.7040 0.7090 0.7110 0.7120
8.574000 0.7140 0.7140 0.7150 0.7140 0.7140
8.607487 0.7120 0.7120 0.7110 0.7060 0.7020
8.641000 0.6990 0.6970 0.6860 0.6530 0.6420
8.674487 0.6150 0.5870 0.5580 0.5410 0.5280
8.708000 0.5090 0.4990 0.4950 0.4890 0.4890
8.741487 0.4950 0.4990 0.5000 0.5150 0.5170
8.774000 0.5180 0.5250 0.5270 0.5280 0.5280
8.807487 0.5280 0.5270 0.5230 0.5200 0.5170
8.841000 0.5130 0.5100 0.5070 0.5070 0.5070
8.874487 0.5070 0.5070 0.5070 0.5090 0.5130
8.908000 0.5150 0.5200 0.5250 0.5270 0.5300
8.941487 0.5320 0.5320 0.5350 0.5360 0.5400
8.975000 0.5410 0.5450 0.5480 0.5550 0.5770
9.008487 0.5960 0.5970 0.5990 0.5990 0.6100
9.042000 0.6150 0.6200 0.6220 0.6250 0.6280
9.075487 0.6330 0.6370 0.6400 0.6420 0.6450
9.109000 0.6480 0.6500 0.6510 0.6510 0.6530
9.142487 0.6530 0.6530 0.6530 0.6510 0.6510
9.176000 0.6510 0.6500 0.6480 0.6460 0.6450
9.209487 0.6430 0.6430 0.6380 0.6330 0.6320
9.243000 0.6270 0.6170 0.5840 0.5500 0.5460
9.276487 0.5500 0.5770 0.6090 0.6090 0.6090
9.310000 0.6000 0.5920 0.5480 0.5220 0.5000
9.343487 0.4690 0.4230 0.4050 0.3870 0.3790
9.377000 0.3760 0.3720 0.3640 0.3710 0.3790
9.410487 0.3990 0.4380 0.4710 0.5000 0.5300
9.444000 0.5500 0.5580 0.5710 0.5790 0.6090
9.477487 0.6170 0.6200 0.6220 0.6230 0.6220
9.511000 0.6220 0.6200 0.6190 0.6170 0.6150
9.544487 0.6140 0.6100 0.6020 0.6000 0.6000
9.578000 0.5990 0.5990 0.5960 0.5970 0.5990
9.611487 0.6090 0.6120 0.6140 0.6280 0.6400
9.645000 0.6480 0.6500 0.6560 0.6630 0.6690
9.678487 0.6710 0.6730 0.6760 0.6810 0.6830
9.712000 0.6880 0.6970 0.6970 0.6990 0.6990
9.745487 0.6990 0.6990 0.6990 0.6990 0.6990
9.779000 0.6990 0.6970 0.6960 0.6790 0.6630
9.812487 0.6630 0.6630 0.6660 0.6690 0.6710
9.846000 0.6790 0.6860 0.6920 0.6990 0.7060
9.879487 0.7120 0.7170 0.7220 0.7250 0.7330
9.912000 0.7430 0.7500 0.7520 0.7550 0.7580
9.945487 0.7580 0.7600 0.7610 0.7610 0.7630
9.979000 0.7630 0.7610 0.7600 0.7580 0.7560
10.012487 0.7550 0.7530 0.7500 0.7380 0.7320
10.046000 0.7290 0.7250 0.7220 0.7200 0.7200
10.079487 0.7220 0.7240 0.7270 0.7290 0.7330
10.113000 0.7400 0.7430 0.7480 0.7500 0.7530
10.146487 0.7600 0.7630 0.7680 0.7680 0.7610
10.180000 0.7600 0.7580 0.7610 0.7630 0.7630
10.213487 0.7650 0.7660 0.7700 0.7700 0.7700
10.247000 0.7710 0.7730 0.7750 0.7750 0.7760
10.280487 0.7760 0.7780 0.7810 0.7810 0.7810
10.314000 0.7830 0.7830 0.7830 0.7860 0.7860
10.347487 0.7880 0.7880 0.7890 0.7910 0.7910
10.381000 0.7910 0.7910 0.7910 0.7910 0.7910
10.414487 0.7890 0.7910 0.7910 0.7930 0.7940
10.448000 0.7960 0.7960 0.7980 0.7980 0.7980
10.481487 0.7980 0.7980 0.7990 0.7960 0.7960
10.515000 0.7940 0.7930 0.7930 0.7930 0.7930
10.548487 0.7930 0.7940 0.7940 0.7930 0.7930
10.582000 0.7930 0.7930 0.7910 0.7910 0.7910
10.615487 0.7910 0.7890 0.7880 0.7840 0.7810
10.649000 0.7790 0.7790 0.7780 0.7760 0.7760
10.682487 0.7760 0.7760 0.7760 0.7750 0.7700
10.716000 0.7630 0.7600 0.7550 0.7480 0.7450
10.749487 0.7330 0.7270 0.7200 0.7170 0.6990
10.783000 0.6840 0.6660 0.6350 0.6140 0.6000
10.816487 0.5860 0.5580 0.5480 0.5250 0.4820
10.850000 0.4610 0.4150 0.4180 0.4230 0.4410
10.883487 0.4760 0.5040 0.5300 0.5510 0.5730
10.917000 0.5990 0.6400 0.6680 0.6760 0.6880
10.950487 0.6990 0.7150 0.7250 0.7330 0.7420
10.984000 0.7500 0.7530 0.7580 0.7630 0.7660
11.017487 0.7700 0.7730 0.7750 0.7760 0.7760
11.050000 0.7760 0.7780 0.7780 0.7780 0.7780
11.083487 0.7780 0.7790 0.7790 0.7790 0.7780
11.117000 0.7780 0.7790 0.7810 0.7860 0.7890
11.150487 0.7910 0.7910 0.7930 0.7940 0.7940
11.184000 0.7960 0.7960 0.7960 0.7980 0.7990
11.217487 0.7990 0.8010 0.8020 0.8020 0.8040
11.251000 0.8040 0.8040 0.8060 0.8060 0.8070
11.284487 0.8090 0.8110 0.8110 0.8110 0.8110
11.318000 0.8090 0.8090 0.8090 0.8090 0.8110
11.351487 0.8090 0.8090 0.8090 0.8090 0.8110
11.385000 0.8110 0.8110 0.8110 0.8110 0.8110
11.418487 0.8110 0.8110 0.8090 0.8090 0.8090
11.452000 0.8070 0.8060 0.8060 0.8020 0.8040
11.485487 0.8020 0.8020 0.8010 0.7990 0.7980
11.519000 0.7980 0.7980 0.7960 0.7930 0.7910
11.552487 0.7860 0.7830 0.7810 0.7780 0.7750
11.586000 0.7730 0.7700 0.7660 0.7660 0.7700
11.619487 0.7710 0.7710 0.7730 0.7750 0.7780
11.653000 0.7810 0.7840 0.7880 0.7910 0.7910
11.686487 0.7930 0.7930 0.7940 0.7940 0.7980
11.720000 0.7980 0.7990 0.7990 0.7990 0.7990
11.753487 0.7980 0.7980 0.7940 0.7930 0.7910
11.787000 0.7890 0.7860 0.7830 0.7790 0.7780
11.820487 0.7760 0.7750 0.7700 0.7660 0.7630
11.854000 0.7600 0.7480 0.7400 0.7270 0.6910
11.887487 0.6050 0.5870 0.5680 0.4790 0.4590
11.921000 0.4400 0.4280 0.4280 0.4610 0.4760
11.954487 0.5170 0.5400 0.5690 0.5890 0.5890
11.988000 0.5920 0.5960 0.5990 0.5990 0.6430
12.021487 0.6860 0.7090 0.7150 0.7350 0.7480
12.055000 0.7550 0.7650 0.7700 0.7760 0.7790
12.088487 0.7830 0.7860 0.7890 0.7930 0.7980
12.122000 0.7990 0.7990 0.8010 0.8020 0.8090
12.155487 0.8090 0.8090 0.8090 0.8110 0.8120
12.188000 0.8140 0.8140 0.8160 0.8190 0.8210
12.221487 0.8210 0.8220 0.8220 0.8220 0.8220
12.255000 0.8210 0.8190 0.8190 0.8210 0.8210
12.288487 0.8220 0.8220 0.8240 0.8220 0.8220
12.322000 0.8210 0.8210 0.8210 0.8210 0.8220
12.355487 0.8220 0.8240 0.8240 0.8240 0.8240
12.389000 0.8240 0.8220 0.8240 0.8240 0.8240
12.422487 0.8220 0.8210 0.8210 0.8220 0.8220
12.456000 0.8240 0.8240 0.8240 0.8240 0.8240
12.489487 0.8240 0.8250 0.8240 0.8210 0.8170
12.523000 0.8160 0.8170 0.8190 0.8190 0.8190
12.556487 0.8190 0.8210 0.8210 0.8210 0.8220
12.590000 0.8220 0.8190 0.8160 0.8140 0.8140
12.623487 0.8120 0.8120 0.8110 0.8110 0.8110
12.657000 0.8120 0.8120 0.8140 0.8140 0.8140
12.690487 0.8140 0.8140 0.8140 0.8140 0.8140
12.724000 0.8140 0.8140 0.8140 0.8140 0.8140
12.757487 0.8120 0.8120 0.8120 0.8110 0.8090
12.791000 0.8070 0.8020 0.8010 0.8010 0.8010
12.824487 0.8010 0.7990 0.7980 0.7940 0.7930
12.858000 0.7930 0.7930 0.7910 0.7890 0.7890
12.891487 0.7890 0.7890 0.7890 0.7890 0.7910
12.925000 0.7930 0.7940 0.7940 0.7930 0.7930
12.958487 0.7930 0.7910 0.7910 0.7890 0.7890
12.992000 0.7890 0.7890 0.7890 0.7890 0.7890
13.025487 0.7890 0.7880 0.7830 0.7790 0.7780
13.059000 0.7730 0.7700 0.7650 0.7550 0.7400
13.092487 0.7320 0.7370 0.7400 0.7430 0.7500
13.126000 0.7600 0.7630 0.7660 0.7710 0.7750
13.159487 0.7760 0.7790 0.7810 0.7810 0.7810
13.193000 0.7830 0.7830 0.7810 0.7830 0.7830
13.226487 0.7810 0.7810 0.7810 0.7790 0.7760
13.260000 0.7700 0.7650 0.7630 0.7560 0.7520
13.293487 0.7500 0.7480 0.7420 0.7370 0.7300
13.326000 0.7200 0.7090 0.6970 0.6780 0.6690
13.359487 0.6510 0.6200 0.6040 0.5990 0.5940
13.393000 0.5690 0.5510 0.4970 0.4360 0.4130
13.426487 0.4030 0.4030 0.4030 0.4030 0.4150
13.460000 0.4480 0.4630 0.5000 0.5360 0.5730
13.493487 0.6190 0.6330 0.6530 0.6660 0.6780
13.527000 0.6890 0.7010 0.7010 0.7020 0.7120
13.560487 0.7150 0.7190 0.7250 0.7290 0.7300
13.594000 0.7300 0.7320 0.7350 0.7380 0.7400
13.627487 0.7400 0.7400 0.7420 0.7400 0.7400
13.661000 0.7400 0.7380 0.7370 0.7320 0.7270
13.694487 0.7220 0.7150 0.7110 0.7010 0.6990
13.728000 0.6830 0.6740 0.6690 0.6630 0.6560
13.761487 0.6480 0.6350 0.6350 0.6350 0.6350
13.795000 0.6370 0.6400 0.6400 0.6430 0.6450
13.828487 0.6480 0.6500 0.6510 0.6560 0.6630
13.862000 0.6630 0.6660 0.6690 0.6710 0.6760
13.895487 0.6810 0.6840 0.6880 0.6890 0.6920
13.929000 0.7010 0.7020 0.7040 0.7040 0.7120
13.962487 0.7140 0.7220 0.7290 0.7320 0.7330
13.996000 0.7350 0.7370 0.7380 0.7380 0.7400
14.029487 0.7380 0.7380 0.7380 0.7380 0.7380
14.063000 0.7400 0.7400 0.7400 0.7380 0.7380
14.096487 0.7380 0.7380 0.7380 0.7370 0.7370
14.130000 0.7350 0.7350 0.7350 0.7330 0.7330
14.163487 0.7350 0.7370 0.7380 0.7370 0.7370
14.197000 0.7380 0.7380 0.7380 0.7380 0.7380
14.230487 0.7380 0.7380 0.7380 0.7380 0.7370
14.264000 0.7370 0.7350 0.7350 0.7330 0.7300
14.297487 0.7270 0.7250 0.7240 0.7240 0.7220
14.331000 0.7190 0.7150 0.7150 0.7150 0.7140
14.364487 0.7140 0.7140 0.7140 0.7120 0.7120
14.398000 0.7120 0.7070 0.7060 0.7040 0.7020
14.431487 0.7020 0.7020 0.7010 0.7020 0.6970
14.464000 0.6960 0.6940 0.6920 0.6890 0.6880
14.497487 0.6840 0.6830 0.6810 0.6810 0.6740
14.531000 0.6690 0.6680 0.6630 0.6600 0.6550
14.564487 0.6510 0.6510 0.6450 0.6430 0.6380
14.598000 0.6350 0.6330 0.6300 0.6280 0.6280
14.631487 0.6270 0.6270 0.6270 0.6300 0.6320
14.665000 0.6330 0.6330 0.6330 0.6330 0.6330
14.698487 0.6330 0.6330 0.6330 0.6330 0.6330
14.732000 0.6330 0.6320 0.6300 0.6270 0.6250
14.765487 0.6220 0.6150 0.6100 0.6050 0.6020
14.799000 0.5970 0.5910 0.5810 0.5730 0.5660
14.832487 0.5630 0.5560 0.5550 0.5530 0.5510
14.866000 0.5400 0.5350 0.5320 0.5270 0.5230
14.899487 0.5230 0.5230 0.5250 0.5250 0.5270
14.933000 0.5270 0.5300 0.5320 0.5360 0.5400
14.966487 0.5430 0.5530 0.5580 0.5680 0.5690
15.000000 0.5790 0.5860 0.5910 0.6020 0.6040
15.033487 0.6050 0.6070 0.6070 0.6070 0.6090
15.067000 0.6090 0.6100 0.6100 0.6120 0.6140
15.100487 0.6150 0.6170 0.6170 0.6150 0.6140
15.134000 0.6120 0.6120 0.6100 0.6120 0.6120
15.167487 0.6100 0.6100 0.6100 0.6100 0.6100
15.201000 0.6100 0.6100 0.6100 0.6100 0.6100
15.234487 0.6100 0.6100 0.6100 0.6090 0.6100
15.268000 0.6090 0.6090 0.6070 0.6070 0.6050
15.301487 0.6040 0.6050 0.6040 0.6040 0.6040
15.335000 0.6020 0.6020 0.6020 0.6000 0.6000
15.368487 0.5990 0.5990 0.5990 0.5960 0.5940
15.402000 0.5940 0.5940 0.5920 0.5910 0.5910
15.435487 0.5890 0.5890 0.5890 0.5890 0.5860
15.469000 0.5890 0.5890
##END=
