##TITLE=CALCIUM IODATE
$$ C.P.
##JCAMP-DX=4.24
##DATA TYPE=INFRARED SPECTRUM
##CLASS=COBLENTZ
##ORIGIN=MELLON INSTITUTE
##OWNER=COBLENTZ SOCIETY
Collection (C) 2018 copyright by the U.S. Secretary of Commerce
on behalf of the United States of America. All rights reserved.
##DATE=Not specified, most likely prior to 1970
##MOLFORM=Ca ( I O3)2  * 6 H2 O
##SOURCE REFERENCE=COBLENTZ NO. 519
##$NIST ID=B6000519
##$NIST SOURCE=COBLENTZ
##$NIST IMAGE=cob519
##SPECTROMETER/DATA SYSTEM=Not specified, most likely a prism, grating, or hybrid spectrometer.
##STATE=SOLID (NUJOL MULL)
##PATH LENGTH=
$$SPECTRAL CONTAMINATION DUE TO OIL AROUND 2900, 1450, 1380 CM^-^1
##SAMPLING PROCEDURE=TRANSMISSION
##RESOLUTION=4
##DATA PROCESSING=DIGITIZED BY NIST FROM HARD COPY
##XUNITS=MICROMETERS
##YUNITS=TRANSMITTANCE
##XFACTOR=1.000000
##YFACTOR=1
##DELTAX=000.006828
##FIRSTX=2.017
##LASTX=16.0006
##FIRSTY=0.447
##MAXX=16.0006
##MINX=2.017
##MAXY=1
##MINY=0.058
##NPOINTS=2049
##XYDATA=(X++(Y..Y))
2.017000 0.4470 0.4490 0.4510 0.4520 0.4540
2.051157 0.4560 0.4560 0.4570 0.4610 0.4630
2.085000 0.4660 0.4680 0.4690 0.4710 0.4730
2.119157 0.4750 0.4750 0.4780 0.4800 0.4810
2.153000 0.4830 0.4830 0.4870 0.4880 0.4900
2.187157 0.4900 0.4920 0.4930 0.4950 0.4970
2.222000 0.4990 0.5000 0.5000 0.5020 0.5040
2.256157 0.5040 0.5040 0.5040 0.5070 0.5090
2.290000 0.5090 0.5120 0.5140 0.5140 0.5160
2.324157 0.5160 0.5180 0.5190 0.5210 0.5210
2.358000 0.5230 0.5260 0.5280 0.5300 0.5300
2.392157 0.5310 0.5350 0.5360 0.5380 0.5400
2.426000 0.5420 0.5430 0.5450 0.5470 0.5500
2.460157 0.5520 0.5540 0.5550 0.5570 0.5600
2.495000 0.5620 0.5640 0.5640 0.5670 0.5690
2.529157 0.5710 0.5720 0.5760 0.5780 0.5790
2.563000 0.5830 0.5830 0.5840 0.5880 0.5900
2.597157 0.5910 0.5930 0.5950 0.5980 0.5980
2.631000 0.6000 0.6020 0.6030 0.6030 0.6050
2.665157 0.6100 0.6100 0.6120 0.6150 0.6190
2.700000 0.6200 0.6220 0.6240 0.6240 0.6270
2.734157 0.6310 0.6320 0.6340 0.6360 0.6390
2.768000 0.6410 0.6430 0.6440 0.6460 0.6500
2.802157 0.6500 0.6510 0.6510 0.6510 0.6510
2.836000 0.6390 0.6270 0.6050 0.5900 0.5760
2.870157 0.5300 0.5160 0.4990 0.4810 0.4730
2.904000 0.4690 0.4730 0.4760 0.4800 0.4810
2.938157 0.4800 0.4780 0.4710 0.4660 0.4570
2.973000 0.4560 0.4520 0.4510 0.4490 0.4490
3.007157 0.4640 0.4730 0.4810 0.4880 0.4900
3.041000 0.4990 0.5020 0.5070 0.5120 0.5190
3.075157 0.5240 0.5300 0.5350 0.5400 0.5430
3.109000 0.5450 0.5450 0.5450 0.5480 0.5480
3.143157 0.5520 0.5540 0.5550 0.5550 0.5590
3.178000 0.5600 0.5600 0.5620 0.5620 0.5640
3.212157 0.5690 0.5740 0.5760 0.5790 0.5810
3.246000 0.5810 0.5830 0.5830 0.5830 0.5830
3.280157 0.5790 0.5690 0.5620 0.5520 0.5310
3.314000 0.4880 0.4640 0.4270 0.3580 0.2640
3.348157 0.2070 0.1860 0.1440 0.1200 0.0890
3.382000 0.0730 0.0580 0.0580 0.0750 0.1090
3.416157 0.1260 0.1520 0.1810 0.2020 0.2070
3.451000 0.2070 0.2040 0.2040 0.1640 0.1640
3.485157 0.2020 0.2570 0.3490 0.4510 0.4950
3.519000 0.6000 0.6190 0.6410 0.6680 0.6820
3.553157 0.6960 0.7040 0.7130 0.7180 0.7220
3.587000 0.7270 0.7320 0.7350 0.7400 0.7440
3.621157 0.7460 0.7460 0.7470 0.7490 0.7490
3.655000 0.7510 0.7510 0.7510 0.7530 0.7540
3.689157 0.7540 0.7560 0.7560 0.7560 0.7560
3.724000 0.7580 0.7580 0.7590 0.7590 0.7630
3.758157 0.7630 0.7650 0.7680 0.7700 0.7700
3.792000 0.7710 0.7710 0.7730 0.7730 0.7750
3.826157 0.7750 0.7780 0.7800 0.7820 0.7820
3.860000 0.7830 0.7830 0.7850 0.7870 0.7890
3.894157 0.7900 0.7920 0.7940 0.7950 0.7970
3.929000 0.7990 0.7990 0.8010 0.8020 0.8020
3.963157 0.8040 0.8040 0.8060 0.8060 0.8060
3.997000 0.8070 0.8070 0.8090 0.8110 0.8110
4.031157 0.8110 0.8110 0.8130 0.8130 0.8140
4.065000 0.8140 0.8140 0.8140 0.8140 0.8160
4.099157 0.8160 0.8180 0.8180 0.8190 0.8190
4.133000 0.8190 0.8190 0.8210 0.8210 0.8210
4.167157 0.8210 0.8230 0.8230 0.8230 0.8250
4.202000 0.8250 0.8250 0.8250 0.8250 0.8260
4.236157 0.8260 0.8280 0.8280 0.8280 0.8280
4.270000 0.8300 0.8300 0.8300 0.8310 0.8310
4.304157 0.8310 0.8310 0.8310 0.8330 0.8330
4.338000 0.8330 0.8330 0.8350 0.8350 0.8350
4.372157 0.8350 0.8370 0.8370 0.8370 0.8370
4.407000 0.8380 0.8380 0.8380 0.8400 0.8400
4.441157 0.8400 0.8420 0.8420 0.8430 0.8430
4.475000 0.8430 0.8450 0.8450 0.8450 0.8470
4.509157 0.8470 0.8470 0.8500 0.8500 0.8500
4.543000 0.8500 0.8520 0.8520 0.8520 0.8540
4.577157 0.8540 0.8540 0.8550 0.8550 0.8550
4.611000 0.8570 0.8570 0.8570 0.8590 0.8590
4.645157 0.8590 0.8610 0.8610 0.8610 0.8620
4.680000 0.8620 0.8620 0.8640 0.8640 0.8640
4.714157 0.8660 0.8660 0.8660 0.8670 0.8670
4.748000 0.8690 0.8690 0.8690 0.8710 0.8710
4.782157 0.8710 0.8730 0.8730 0.8740 0.8740
4.816000 0.8740 0.8740 0.8740 0.8760 0.8760
4.850157 0.8780 0.8780 0.8780 0.8790 0.8790
4.885000 0.8810 0.8810 0.8830 0.8830 0.8830
4.919157 0.8850 0.8850 0.8860 0.8880 0.8900
4.953000 0.8900 0.8910 0.8910 0.8910 0.8930
4.987157 0.8930 0.8930 0.8930 0.8950 0.8980
5.021000 0.9000 0.9000 0.9020 0.9020 0.9020
5.055157 0.9020 0.9020 0.9020 0.9030 0.9030
5.089000 0.9030 0.9030 0.9050 0.9050 0.9030
5.123157 0.9050 0.9050 0.9050 0.9090 0.9090
5.158000 0.9100 0.9100 0.9100 0.9120 0.9120
5.192157 0.9140 0.9140 0.9140 0.9140 0.9150
5.226000 0.9170 0.9170 0.9170 0.9190 0.9190
5.260157 0.9190 0.9190 0.9210 0.9210 0.9210
5.294000 0.9210 0.9210 0.9210 0.9220 0.9220
5.328157 0.9220 0.9240 0.9240 0.9240 0.9260
5.363000 0.9260 0.9260 0.9260 0.9270 0.9270
5.397157 0.9270 0.9270 0.9270 0.9270 0.9270
5.431000 0.9290 0.9290 0.9290 0.9290 0.9290
5.465157 0.9290 0.9310 0.9310 0.9310 0.9310
5.499000 0.9330 0.9330 0.9340 0.9340 0.9340
5.533157 0.9340 0.9340 0.9340 0.9340 0.9340
5.567000 0.9340 0.9360 0.9360 0.9360 0.9380
5.601157 0.9380 0.9380 0.9390 0.9390 0.9390
5.636000 0.9410 0.9410 0.9410 0.9410 0.9410
5.670157 0.9410 0.9430 0.9430 0.9430 0.9430
5.704000 0.9430 0.9430 0.9450 0.9450 0.9450
5.738157 0.9450 0.9450 0.9450 0.9450 0.9450
5.772000 0.9450 0.9460 0.9460 0.9460 0.9460
5.806157 0.9460 0.9460 0.9460 0.9460 0.9460
5.840000 0.9460 0.9460 0.9480 0.9480 0.9480
5.874157 0.9480 0.9480 0.9500 0.9500 0.9480
5.909000 0.9480 0.9480 0.9500 0.9500 0.9500
5.943157 0.9500 0.9500 0.9500 0.9500 0.9500
5.977000 0.9510 0.9510 0.9510 0.9510 0.9510
6.011157 0.9510 0.9510 0.9510 0.9500 0.9500
6.045000 0.9500 0.9500 0.9500 0.9500 0.9500
6.079157 0.9480 0.9480 0.9450 0.9450 0.9450
6.114000 0.9430 0.9430 0.9410 0.9410 0.9380
6.148157 0.9340 0.9310 0.9120 0.8790 0.8470
6.182000 0.8130 0.7940 0.7920 0.7940 0.7990
6.216157 0.8060 0.8160 0.8450 0.8610 0.8830
6.250000 0.8910 0.9020 0.9050 0.9100 0.9120
6.284157 0.9150 0.9190 0.9190 0.9210 0.9210
6.318000 0.9220 0.9220 0.9240 0.9240 0.9240
6.352157 0.9240 0.9240 0.9260 0.9260 0.9260
6.387000 0.9260 0.9260 0.9270 0.9290 0.9290
6.421157 0.9310 0.9310 0.9310 0.9330 0.9330
6.455000 0.9340 0.9340 0.9340 0.9360 0.9360
6.489157 0.9360 0.9380 0.9380 0.9380 0.9360
6.523000 0.9360 0.9360 0.9360 0.9360 0.9340
6.557157 0.9340 0.9340 0.9340 0.9340 0.9340
6.592000 0.9340 0.9330 0.9330 0.9310 0.9310
6.626157 0.9330 0.9330 0.9330 0.9330 0.9330
6.660000 0.9310 0.9310 0.9310 0.9310 0.9310
6.694157 0.9310 0.9290 0.9270 0.9240 0.9240
6.728000 0.9220 0.9190 0.9150 0.9100 0.9000
6.762157 0.8880 0.8730 0.8500 0.8210 0.7850
6.796000 0.7390 0.6820 0.6560 0.6140 0.5950
6.830157 0.5720 0.5640 0.5550 0.5520 0.5450
6.865000 0.5420 0.5420 0.5500 0.5590 0.5810
6.899157 0.6000 0.6120 0.6360 0.6500 0.6670
6.933000 0.6820 0.6990 0.7250 0.7350 0.7580
6.967157 0.7750 0.7900 0.8060 0.8190 0.8350
7.001000 0.8490 0.8610 0.8730 0.8830 0.8950
7.035157 0.9050 0.9070 0.9120 0.9170 0.9240
7.070000 0.9270 0.9310 0.9340 0.9380 0.9430
7.104157 0.9450 0.9480 0.9500 0.9510 0.9530
7.138000 0.9530 0.9510 0.9480 0.9450 0.9410
7.172157 0.9360 0.9310 0.9260 0.9170 0.9070
7.206000 0.8660 0.8450 0.8310 0.8180 0.8010
7.240157 0.7660 0.7460 0.7220 0.7180 0.7220
7.274000 0.7420 0.7830 0.7970 0.8060 0.8160
7.308157 0.8190 0.8260 0.8350 0.8470 0.8670
7.343000 0.8760 0.8850 0.8950 0.9050 0.9090
7.377157 0.9120 0.9150 0.9210 0.9220 0.9270
7.411000 0.9310 0.9340 0.9360 0.9380 0.9390
7.445157 0.9390 0.9410 0.9430 0.9430 0.9450
7.479000 0.9460 0.9500 0.9510 0.9510 0.9510
7.513157 0.9530 0.9530 0.9550 0.9570 0.9600
7.547000 0.9600 0.9620 0.9620 0.9620 0.9630
7.581157 0.9620 0.9630 0.9630 0.9650 0.9650
7.616000 0.9650 0.9670 0.9670 0.9670 0.9670
7.650157 0.9670 0.9690 0.9690 0.9690 0.9690
7.684000 0.9690 0.9690 0.9690 0.9690 0.9700
7.718157 0.9700 0.9700 0.9700 0.9700 0.9700
7.752000 0.9700 0.9720 0.9740 0.9740 0.9740
7.786157 0.9740 0.9740 0.9740 0.9740 0.9740
7.821000 0.9740 0.9740 0.9740 0.9740 0.9740
7.855157 0.9740 0.9740 0.9740 0.9750 0.9750
7.889000 0.9750 0.9750 0.9750 0.9750 0.9770
7.923157 0.9770 0.9770 0.9770 0.9770 0.9770
7.957000 0.9770 0.9770 0.9770 0.9770 0.9770
7.991157 0.9770 0.9770 0.9770 0.9770 0.9790
8.025000 0.9790 0.9790 0.9790 0.9790 0.9790
8.059157 0.9790 0.9790 0.9790 0.9790 0.9790
8.094000 0.9790 0.9790 0.9790 0.9790 0.9790
8.128157 0.9790 0.9790 0.9790 0.9790 0.9790
8.162000 0.9790 0.9790 0.9790 0.9790 0.9790
8.196157 0.9790 0.9790 0.9790 0.9790 0.9790
8.230000 0.9790 0.9790 0.9790 0.9790 0.9790
8.264157 0.9790 0.9790 0.9790 0.9790 0.9790
8.299000 0.9790 0.9790 0.9790 0.9790 0.9790
8.333157 0.9790 0.9790 0.9790 0.9790 0.9790
8.367000 0.9790 0.9790 0.9790 0.9790 0.9790
8.401157 0.9790 0.9790 0.9790 0.9790 0.9790
8.435000 0.9790 0.9770 0.9770 0.9770 0.9770
8.469157 0.9770 0.9770 0.9770 0.9750 0.9750
8.503000 0.9740 0.9740 0.9740 0.9740 0.9740
8.537157 0.9740 0.9740 0.9720 0.9720 0.9720
8.572000 0.9720 0.9720 0.9720 0.9720 0.9700
8.606157 0.9700 0.9690 0.9690 0.9690 0.9690
8.640000 0.9690 0.9690 0.9690 0.9690 0.9690
8.674157 0.9690 0.9670 0.9670 0.9670 0.9670
8.708000 0.9670 0.9690 0.9690 0.9690 0.9690
8.742157 0.9690 0.9690 0.9690 0.9690 0.9690
8.777000 0.9690 0.9690 0.9690 0.9690 0.9690
8.811157 0.9690 0.9690 0.9690 0.9690 0.9690
8.845000 0.9690 0.9690 0.9690 0.9690 0.9690
8.879157 0.9690 0.9690 0.9690 0.9690 0.9690
8.913000 0.9690 0.9690 0.9690 0.9690 0.9690
8.947157 0.9700 0.9700 0.9700 0.9700 0.9700
8.981000 0.9700 0.9700 0.9700 0.9700 0.9700
9.015157 0.9700 0.9700 0.9700 0.9700 0.9700
9.050000 0.9700 0.9700 0.9700 0.9700 0.9700
9.084157 0.9700 0.9700 0.9700 0.9700 0.9700
9.118000 0.9700 0.9700 0.9700 0.9700 0.9700
9.152157 0.9720 0.9700 0.9700 0.9700 0.9700
9.186000 0.9700 0.9700 0.9700 0.9700 0.9700
9.220157 0.9700 0.9700 0.9700 0.9700 0.9700
9.255000 0.9700 0.9700 0.9700 0.9700 0.9700
9.289157 0.9700 0.9700 0.9690 0.9690 0.9690
9.323000 0.9690 0.9690 0.9690 0.9690 0.9690
9.357157 0.9690 0.9690 0.9690 0.9690 0.9690
9.391000 0.9690 0.9690 0.9690 0.9690 0.9690
9.425157 0.9690 0.9670 0.9670 0.9670 0.9670
9.459000 0.9670 0.9670 0.9670 0.9670 0.9670
9.493157 0.9670 0.9670 0.9670 0.9670 0.9670
9.528000 0.9670 0.9670 0.9670 0.9650 0.9650
9.562157 0.9650 0.9650 0.9650 0.9670 0.9650
9.596000 0.9650 0.9650 0.9650 0.9650 0.9650
9.630157 0.9650 0.9650 0.9650 0.9650 0.9650
9.664000 0.9650 0.9650 0.9650 0.9650 0.9650
9.698157 0.9650 0.9650 0.9650 0.9650 0.9650
9.732000 0.9650 0.9650 0.9650 0.9650 0.9650
9.766157 0.9650 0.9650 0.9650 0.9650 0.9650
9.801000 0.9670 0.9670 0.9670 0.9670 0.9670
9.835157 0.9690 0.9690 0.9690 0.9700 0.9700
9.869000 0.9700 0.9700 0.9700 0.9720 0.9720
9.903157 0.9720 0.9720 0.9720 0.9740 0.9740
9.937000 0.9740 0.9740 0.9740 0.9740 0.9740
9.971157 0.9740 0.9740 0.9740 0.9740 0.9740
10.006000 0.9740 0.9740 0.9740 0.9740 0.9740
10.040157 0.9740 0.9740 0.9740 0.9740 0.9740
10.074000 0.9740 0.9740 0.9740 0.9740 0.9740
10.108157 0.9740 0.9740 0.9740 0.9740 0.9740
10.142000 0.9740 0.9740 0.9740 0.9740 0.9740
10.176157 0.9740 0.9740 0.9740 0.9740 0.9740
10.210000 0.9740 0.9740 0.9750 0.9750 0.9750
10.244157 0.9750 0.9770 0.9770 0.9790 0.9790
10.279000 0.9790 0.9790 0.9790 0.9810 0.9810
10.313157 0.9810 0.9810 0.9810 0.9810 0.9820
10.347000 0.9820 0.9820 0.9840 0.9840 0.9840
10.381157 0.9840 0.9840 0.9840 0.9840 0.9840
10.415000 0.9860 0.9860 0.9860 0.9860 0.9860
10.449157 0.9860 0.9870 0.9870 0.9860 0.9860
10.484000 0.9860 0.9860 0.9860 0.9870 0.9870
10.518157 0.9870 0.9870 0.9890 0.9890 0.9890
10.552000 0.9890 0.9890 0.9890 0.9890 0.9890
10.586157 0.9890 0.9910 0.9910 0.9910 0.9910
10.620000 0.9910 0.9910 0.9910 0.9910 0.9910
10.654157 0.9910 0.9910 0.9910 0.9910 0.9910
10.688000 0.9930 0.9930 0.9930 0.9930 0.9930
10.722157 0.9930 0.9930 0.9930 0.9930 0.9930
10.757000 0.9940 0.9940 0.9960 0.9960 0.9960
10.791157 0.9960 0.9980 0.9980 0.9980 0.9980
10.825000 0.9980 0.9980 0.9980 0.9980 0.9980
10.859157 0.9980 0.9980 0.9980 0.9980 0.9980
10.893000 1.0000 1.0000 1.0000 1.0000 1.0000
10.927157 1.0000 1.0000 1.0000 1.0000 1.0000
10.962000 1.0000 1.0000 1.0000 1.0000 1.0000
10.996157 1.0000 1.0000 1.0000 1.0000 1.0000
11.030000 1.0000 1.0000 1.0000 1.0000 1.0000
11.064157 1.0000 1.0000 1.0000 1.0000 1.0000
11.098000 1.0000 1.0000 1.0000 1.0000 0.9980
11.132157 1.0000 1.0000 1.0000 1.0000 1.0000
11.166000 1.0000 1.0000 1.0000 1.0000 1.0000
11.200157 1.0000 1.0000 1.0000 1.0000 1.0000
11.235000 1.0000 1.0000 1.0000 1.0000 1.0000
11.269157 1.0000 1.0000 1.0000 1.0000 1.0000
11.303000 1.0000 1.0000 1.0000 1.0000 1.0000
11.337157 1.0000 1.0000 1.0000 1.0000 1.0000
11.371000 1.0000 1.0000 1.0000 1.0000 1.0000
11.405157 1.0000 0.9980 0.9980 0.9980 0.9980
11.439000 0.9980 0.9960 0.9960 0.9960 0.9960
11.473157 0.9960 0.9940 0.9940 0.9940 0.9940
11.508000 0.9940 0.9940 0.9930 0.9910 0.9910
11.542157 0.9890 0.9890 0.9870 0.9870 0.9860
11.576000 0.9860 0.9840 0.9840 0.9820 0.9820
11.610157 0.9810 0.9810 0.9790 0.9790 0.9790
11.644000 0.9750 0.9740 0.9720 0.9690 0.9670
11.678157 0.9650 0.9630 0.9630 0.9620 0.9600
11.713000 0.9580 0.9570 0.9550 0.9510 0.9480
11.747157 0.9460 0.9410 0.9390 0.9380 0.9330
11.781000 0.9290 0.9260 0.9220 0.9190 0.9150
11.815157 0.9090 0.9030 0.8910 0.8830 0.8710
11.849000 0.8570 0.8420 0.8310 0.8180 0.8020
11.883157 0.7750 0.7470 0.7200 0.7030 0.6890
11.917000 0.6860 0.6720 0.6630 0.6580 0.6510
11.951157 0.6500 0.6460 0.6430 0.6390 0.6380
11.986000 0.6360 0.6290 0.6260 0.6070 0.5930
12.020157 0.5780 0.5600 0.5470 0.5330 0.5210
12.054000 0.5110 0.5020 0.4970 0.4880 0.4830
12.088157 0.4810 0.4800 0.4780 0.4750 0.4730
12.122000 0.4730 0.4710 0.4690 0.4640 0.4610
12.156157 0.4560 0.4510 0.4490 0.4390 0.4330
12.191000 0.4270 0.4210 0.4180 0.4150 0.4090
12.225157 0.4030 0.4010 0.3970 0.3970 0.3940
12.259000 0.3910 0.3890 0.3870 0.3870 0.3850
12.293157 0.3870 0.3870 0.3870 0.3890 0.3890
12.327000 0.3910 0.3960 0.3990 0.4030 0.4130
12.361157 0.4230 0.4350 0.4400 0.4450 0.4490
12.395000 0.4560 0.4660 0.4690 0.4750 0.4780
12.429157 0.4810 0.4850 0.4880 0.4920 0.4930
12.464000 0.4970 0.4990 0.4990 0.5000 0.5000
12.498157 0.5020 0.5000 0.5000 0.4990 0.4990
12.532000 0.4970 0.4920 0.4880 0.4850 0.4750
12.566157 0.4660 0.4560 0.4490 0.4400 0.4330
12.600000 0.4230 0.4060 0.3970 0.3940 0.3850
12.634157 0.3790 0.3750 0.3730 0.3700 0.3670
12.669000 0.3630 0.3610 0.3600 0.3580 0.3550
12.703157 0.3530 0.3510 0.3510 0.3490 0.3480
12.737000 0.3440 0.3410 0.3390 0.3370 0.3310
12.771157 0.3270 0.3250 0.3220 0.3170 0.3120
12.805000 0.3080 0.3070 0.3010 0.3000 0.2980
12.839157 0.2960 0.2950 0.2930 0.2930 0.2910
12.873000 0.2910 0.2910 0.2910 0.2910 0.2910
12.907157 0.2910 0.2910 0.2930 0.2930 0.2930
12.942000 0.2950 0.2980 0.3010 0.3030 0.3150
12.976157 0.3150 0.3220 0.3310 0.3370 0.3460
13.010000 0.3510 0.3560 0.3610 0.3670 0.3700
13.044157 0.3770 0.3790 0.3820 0.3840 0.3840
13.078000 0.3840 0.3840 0.3840 0.3820 0.3800
13.112157 0.3800 0.3800 0.3800 0.3790 0.3790
13.146000 0.3790 0.3770 0.3770 0.3790 0.3790
13.180157 0.3790 0.3800 0.3820 0.3840 0.3850
13.215000 0.3870 0.3870 0.3890 0.3910 0.3910
13.249157 0.3910 0.3920 0.3920 0.3920 0.3940
13.283000 0.3920 0.3920 0.3910 0.3910 0.3910
13.317157 0.3910 0.3890 0.3890 0.3870 0.3870
13.351000 0.3840 0.3840 0.3820 0.3820 0.3820
13.385157 0.3820 0.3820 0.3820 0.3840 0.3890
13.420000 0.3920 0.3940 0.3960 0.4010 0.4080
13.454157 0.4200 0.4270 0.4350 0.4420 0.4470
13.488000 0.4590 0.4680 0.4760 0.4850 0.4900
13.522157 0.5020 0.5060 0.5140 0.5210 0.5280
13.556000 0.5380 0.5520 0.5550 0.5590 0.5660
13.590157 0.5780 0.5860 0.5980 0.6030 0.6140
13.624000 0.6240 0.6310 0.6360 0.6390 0.6440
13.658157 0.6500 0.6530 0.6560 0.6630 0.6670
13.693000 0.6700 0.6750 0.6790 0.6820 0.6860
13.727157 0.6890 0.6980 0.6980 0.7010 0.7040
13.761000 0.7080 0.7080 0.7100 0.7110 0.7130
13.795157 0.7150 0.7160 0.7180 0.7200 0.7230
13.829000 0.7270 0.7280 0.7300 0.7320 0.7340
13.863157 0.7370 0.7370 0.7400 0.7420 0.7440
13.898000 0.7490 0.7510 0.7530 0.7530 0.7590
13.932157 0.7610 0.7630 0.7630 0.7680 0.7710
13.966000 0.7730 0.7770 0.7780 0.7820 0.7820
14.000157 0.7850 0.7870 0.7900 0.7920 0.7940
14.034000 0.7970 0.7970 0.7990 0.8010 0.8010
14.068157 0.8020 0.8040 0.8060 0.8070 0.8090
14.102000 0.8090 0.8110 0.8130 0.8140 0.8140
14.136157 0.8180 0.8180 0.8190 0.8190 0.8190
14.171000 0.8210 0.8230 0.8230 0.8230 0.8250
14.205157 0.8260 0.8260 0.8260 0.8260 0.8280
14.239000 0.8280 0.8280 0.8280 0.8300 0.8310
14.273157 0.8310 0.8310 0.8310 0.8310 0.8310
14.307000 0.8310 0.8310 0.8310 0.8310 0.8310
14.341157 0.8330 0.8310 0.8310 0.8310 0.8310
14.376000 0.8300 0.8300 0.8300 0.8300 0.8300
14.410157 0.8280 0.8260 0.8250 0.8230 0.8230
14.444000 0.8230 0.8210 0.8180 0.8180 0.8140
14.478157 0.8130 0.8130 0.8110 0.8090 0.8070
14.512000 0.8020 0.8020 0.8010 0.8010 0.8010
14.546157 0.7990 0.7970 0.7970 0.7950 0.7920
14.580000 0.7920 0.7900 0.7890 0.7890 0.7870
14.614157 0.7850 0.7830 0.7820 0.7820 0.7820
14.649000 0.7800 0.7800 0.7780 0.7780 0.7770
14.683157 0.7730 0.7710 0.7710 0.7710 0.7700
14.717000 0.7680 0.7660 0.7630 0.7630 0.7610
14.751157 0.7590 0.7560 0.7530 0.7530 0.7510
14.785000 0.7510 0.7490 0.7440 0.7400 0.7370
14.819157 0.7350 0.7280 0.7270 0.7230 0.7220
14.854000 0.7160 0.7150 0.7110 0.7100 0.7080
14.888157 0.7010 0.7010 0.6990 0.6980 0.6960
14.922000 0.6960 0.6910 0.6870 0.6870 0.6860
14.956157 0.6840 0.6820 0.6800 0.6790 0.6770
14.990000 0.6750 0.6740 0.6720 0.6680 0.6670
15.024157 0.6650 0.6650 0.6630 0.6620 0.6620
15.058000 0.6620 0.6600 0.6600 0.6580 0.6560
15.092157 0.6510 0.6510 0.6510 0.6500 0.6480
15.127000 0.6430 0.6430 0.6430 0.6410 0.6390
15.161157 0.6380 0.6380 0.6340 0.6340 0.6320
15.195000 0.6310 0.6290 0.6260 0.6260 0.6240
15.229157 0.6220 0.6220 0.6200 0.6190 0.6170
15.263000 0.6170 0.6150 0.6140 0.6120 0.6120
15.297157 0.6100 0.6100 0.6080 0.6080 0.6070
15.331000 0.6050 0.6050 0.6050 0.6020 0.6020
15.365157 0.6000 0.6000 0.6000 0.5980 0.5980
15.400000 0.5980 0.5960 0.5960 0.5950 0.5950
15.434157 0.5950 0.5930 0.5930 0.5910 0.5930
15.468000 0.5910 0.5910 0.5900 0.5900 0.5880
15.502157 0.5880 0.5880 0.5860 0.5860 0.5860
15.536000 0.5840 0.5840 0.5830 0.5830 0.5810
15.570157 0.5810 0.5810 0.5790 0.5790 0.5780
15.605000 0.5790 0.5780 0.5780 0.5780 0.5760
15.639157 0.5760 0.5760 0.5740 0.5720 0.5720
15.673000 0.5720 0.5710 0.5710 0.5710 0.5690
15.707157 0.5690 0.5670 0.5670 0.5670 0.5660
15.741000 0.5660 0.5640 0.5620 0.5620 0.5620
15.775157 0.5620 0.5620 0.5620 0.5600 0.5600
15.809000 0.5590 0.5590 0.5590 0.5570 0.5570
15.843157 0.5570 0.5570 0.5540 0.5540 0.5540
15.878000 0.5540 0.5540 0.5520 0.5520 0.5520
15.912157 0.5520 0.5520 0.5520 0.5520 0.5500
15.946000 0.5500 0.5500 0.5500 0.5520 0.5500
15.980157 0.5500 0.5500 0.5500 0.5480
##END=
