##TITLE=Acetanilide, 2-tert-butyl-6-methyl-
##JCAMP-DX=4.24
$$ By DXEDIT 1.05 (RS McDonald)
##DATA TYPE=INFRARED SPECTRUM
##CLASS=COBLENTZ III
##ORIGIN=MONSANTO (J. FREEMAN)
##OWNER=COBLENTZ SOC.
Collection (C) 2018 copyright by the U.S. Secretary of Commerce
on behalf of the United States of America. All rights reserved.
##DATE=1958/12/19
##NAMES=N-(2-tert-butyl-6-methylphenyl)acetamide
##MOLFORM=C13 H19 N O
##SOURCE REFERENCE=COBLENTZ NO. 08481
##$NIST ID=B6008481
##$NIST SOURCE=COBLENTZ
##$NIST IMAGE=cob8481
##SPECTROMETER/DATA SYSTEM=BECKMAN IR-4 (HYBRID PRISM-GRATING)
##INSTRUMENT PARAMETERS=NaCl PRISM
##STATE=SOLID (MULL)
$$SPECTRAL CONTAMINATION DUE TO OIL AROUND 2900, 1450, 720 CM^-^1
##SAMPLING PROCEDURE=TRANSMISSION
##RESOLUTION=2
##DATA PROCESSING=DIGITIZED BY COBLENTZ SOCIETY (BATCH I) FROM HARD COPY
##XUNITS=1/CM
##YUNITS=TRANSMITTANCE
##XLABEL=Wavenumbers (cm-1)
##YLABEL=Transmittance
##XFACTOR=1
##YFACTOR=1
##DELTAX=1
##FIRSTX=4000
##LASTX=626
##FIRSTY=0.8282
##MAXX=4000
##MINX=626
##MAXY=0.9984
##MINY=0.0022
##NPOINTS=3375
##XYDATA=(X++(Y..Y))
4000.000000 0.8282 0.8283 0.8284 0.8285 0.8287
3995.000000 0.8288 0.8289 0.8290 0.8291 0.8292
3990.000000 0.8293 0.8295 0.8296 0.8297 0.8298
3985.000000 0.8299 0.8300 0.8301 0.8302 0.8303
3980.000000 0.8305 0.8306 0.8307 0.8308 0.8310
3975.000000 0.8311 0.8312 0.8313 0.8314 0.8315
3970.000000 0.8317 0.8318 0.8318 0.8320 0.8321
3965.000000 0.8323 0.8324 0.8325 0.8325 0.8328
3960.000000 0.8328 0.8330 0.8331 0.8332 0.8333
3955.000000 0.8334 0.8336 0.8337 0.8338 0.8340
3950.000000 0.8341 0.8342 0.8343 0.8344 0.8345
3945.000000 0.8346 0.8347 0.8348 0.8349 0.8350
3940.000000 0.8351 0.8352 0.8353 0.8354 0.8354
3935.000000 0.8355 0.8356 0.8357 0.8358 0.8359
3930.000000 0.8360 0.8361 0.8362 0.8363 0.8364
3925.000000 0.8365 0.8366 0.8367 0.8368 0.8370
3920.000000 0.8371 0.8371 0.8373 0.8374 0.8375
3915.000000 0.8375 0.8377 0.8378 0.8378 0.8380
3910.000000 0.8381 0.8382 0.8383 0.8384 0.8385
3905.000000 0.8386 0.8387 0.8388 0.8389 0.8390
3900.000000 0.8391 0.8392 0.8393 0.8394 0.8395
3895.000000 0.8396 0.8397 0.8398 0.8399 0.8400
3890.000000 0.8401 0.8402 0.8403 0.8404 0.8405
3885.000000 0.8406 0.8407 0.8408 0.8409 0.8410
3880.000000 0.8411 0.8412 0.8413 0.8414 0.8414
3875.000000 0.8415 0.8416 0.8416 0.8417 0.8418
3870.000000 0.8418 0.8418 0.8420 0.8420 0.8421
3865.000000 0.8421 0.8421 0.8423 0.8424 0.8425
3860.000000 0.8425 0.8425 0.8427 0.8427 0.8428
3855.000000 0.8428 0.8428 0.8430 0.8431 0.8431
3850.000000 0.8432 0.8433 0.8434 0.8435 0.8436
3845.000000 0.8436 0.8437 0.8438 0.8438 0.8439
3840.000000 0.8440 0.8440 0.8441 0.8442 0.8442
3835.000000 0.8443 0.8444 0.8444 0.8445 0.8446
3830.000000 0.8446 0.8447 0.8448 0.8449 0.8449
3825.000000 0.8450 0.8451 0.8451 0.8452 0.8453
3820.000000 0.8453 0.8454 0.8455 0.8455 0.8456
3815.000000 0.8457 0.8457 0.8458 0.8459 0.8459
3810.000000 0.8460 0.8461 0.8461 0.8462 0.8462
3805.000000 0.8463 0.8463 0.8463 0.8464 0.8464
3800.000000 0.8464 0.8465 0.8465 0.8466 0.8466
3795.000000 0.8467 0.8467 0.8468 0.8468 0.8468
3790.000000 0.8468 0.8470 0.8470 0.8471 0.8471
3785.000000 0.8471 0.8471 0.8471 0.8473 0.8473
3780.000000 0.8474 0.8474 0.8475 0.8475 0.8475
3775.000000 0.8475 0.8477 0.8477 0.8478 0.8478
3770.000000 0.8478 0.8478 0.8480 0.8480 0.8481
3765.000000 0.8482 0.8482 0.8482 0.8483 0.8483
3760.000000 0.8483 0.8484 0.8484 0.8485 0.8485
3755.000000 0.8486 0.8486 0.8487 0.8487 0.8488
3750.000000 0.8489 0.8489 0.8490 0.8490 0.8490
3745.000000 0.8491 0.8491 0.8491 0.8492 0.8492
3740.000000 0.8492 0.8492 0.8492 0.8492 0.8493
3735.000000 0.8493 0.8493 0.8493 0.8493 0.8493
3730.000000 0.8493 0.8493 0.8493 0.8493 0.8493
3725.000000 0.8493 0.8493 0.8493 0.8493 0.8493
3720.000000 0.8493 0.8493 0.8493 0.8493 0.8493
3715.000000 0.8493 0.8493 0.8493 0.8493 0.8493
3710.000000 0.8493 0.8492 0.8492 0.8492 0.8492
3705.000000 0.8492 0.8492 0.8492 0.8492 0.8492
3700.000000 0.8492 0.8492 0.8492 0.8492 0.8492
3695.000000 0.8492 0.8492 0.8492 0.8492 0.8492
3690.000000 0.8492 0.8492 0.8492 0.8492 0.8492
3685.000000 0.8492 0.8492 0.8492 0.8492 0.8492
3680.000000 0.8492 0.8492 0.8492 0.8492 0.8492
3675.000000 0.8492 0.8492 0.8492 0.8492 0.8491
3670.000000 0.8491 0.8490 0.8490 0.8489 0.8489
3665.000000 0.8488 0.8488 0.8487 0.8487 0.8487
3660.000000 0.8486 0.8486 0.8485 0.8485 0.8484
3655.000000 0.8484 0.8483 0.8483 0.8482 0.8482
3650.000000 0.8482 0.8481 0.8481 0.8480 0.8478
3645.000000 0.8478 0.8478 0.8478 0.8478 0.8477
3640.000000 0.8477 0.8475 0.8475 0.8475 0.8475
3635.000000 0.8474 0.8474 0.8473 0.8473 0.8471
3630.000000 0.8471 0.8471 0.8471 0.8471 0.8471
3625.000000 0.8470 0.8470 0.8468 0.8468 0.8468
3620.000000 0.8468 0.8467 0.8467 0.8466 0.8465
3615.000000 0.8464 0.8463 0.8463 0.8462 0.8461
3610.000000 0.8459 0.8458 0.8457 0.8456 0.8455
3605.000000 0.8454 0.8453 0.8452 0.8451 0.8450
3600.000000 0.8449 0.8448 0.8447 0.8445 0.8444
3595.000000 0.8443 0.8442 0.8442 0.8441 0.8439
3590.000000 0.8438 0.8437 0.8436 0.8435 0.8434
3585.000000 0.8433 0.8432 0.8431 0.8430 0.8428
3580.000000 0.8428 0.8425 0.8425 0.8424 0.8423
3575.000000 0.8421 0.8421 0.8420 0.8418 0.8418
3570.000000 0.8417 0.8416 0.8414 0.8413 0.8412
3565.000000 0.8411 0.8410 0.8409 0.8407 0.8406
3560.000000 0.8405 0.8404 0.8403 0.8401 0.8400
3555.000000 0.8399 0.8398 0.8397 0.8396 0.8394
3550.000000 0.8393 0.8392 0.8391 0.8390 0.8388
3545.000000 0.8387 0.8386 0.8385 0.8384 0.8382
3540.000000 0.8381 0.8380 0.8378 0.8378 0.8375
3535.000000 0.8375 0.8375 0.8375 0.8375 0.8375
3530.000000 0.8375 0.8375 0.8375 0.8375 0.8374
3525.000000 0.8374 0.8374 0.8374 0.8374 0.8374
3520.000000 0.8374 0.8374 0.8374 0.8374 0.8373
3515.000000 0.8373 0.8373 0.8373 0.8373 0.8371
3510.000000 0.8371 0.8371 0.8371 0.8371 0.8371
3505.000000 0.8371 0.8371 0.8371 0.8371 0.8373
3500.000000 0.8373 0.8373 0.8373 0.8373 0.8374
3495.000000 0.8374 0.8374 0.8374 0.8374 0.8375
3490.000000 0.8375 0.8375 0.8375 0.8375 0.8375
3485.000000 0.8375 0.8375 0.8375 0.8375 0.8375
3480.000000 0.8375 0.8375 0.8375 0.8377 0.8377
3475.000000 0.8377 0.8377 0.8377 0.8377 0.8375
3470.000000 0.8375 0.8373 0.8371 0.8371 0.8368
3465.000000 0.8367 0.8366 0.8364 0.8362 0.8361
3460.000000 0.8359 0.8357 0.8356 0.8354 0.8352
3455.000000 0.8350 0.8348 0.8346 0.8345 0.8343
3450.000000 0.8341 0.8339 0.8337 0.8335 0.8333
3445.000000 0.8331 0.8328 0.8325 0.8324 0.8321
3440.000000 0.8320 0.8318 0.8316 0.8314 0.8312
3435.000000 0.8310 0.8308 0.8307 0.8305 0.8304
3430.000000 0.8302 0.8301 0.8299 0.8297 0.8296
3425.000000 0.8294 0.8293 0.8291 0.8290 0.8288
3420.000000 0.8287 0.8285 0.8283 0.8281 0.8280
3415.000000 0.8278 0.8277 0.8275 0.8274 0.8271
3410.000000 0.8270 0.8268 0.8267 0.8265 0.8264
3405.000000 0.8262 0.8260 0.8258 0.8256 0.8254
3400.000000 0.8251 0.8249 0.8247 0.8244 0.8242
3395.000000 0.8239 0.8237 0.8235 0.8232 0.8230
3390.000000 0.8227 0.8225 0.8223 0.8220 0.8218
3385.000000 0.8215 0.8213 0.8211 0.8208 0.8205
3380.000000 0.8201 0.8198 0.8195 0.8192 0.8189
3375.000000 0.8186 0.8183 0.8180 0.8176 0.8174
3370.000000 0.8171 0.8167 0.8161 0.8156 0.8150
3365.000000 0.8145 0.8136 0.8125 0.8115 0.8106
3360.000000 0.8096 0.8083 0.8069 0.8057 0.8044
3355.000000 0.8025 0.8003 0.7982 0.7960 0.7939
3350.000000 0.7921 0.7905 0.7887 0.7869 0.7851
3345.000000 0.7830 0.7810 0.7789 0.7767 0.7738
3340.000000 0.7710 0.7681 0.7653 0.7617 0.7580
3335.000000 0.7542 0.7505 0.7471 0.7446 0.7421
3330.000000 0.7396 0.7371 0.7265 0.7151 0.7036
3325.000000 0.6921 0.6811 0.6708 0.6607 0.6504
3320.000000 0.6401 0.6299 0.6196 0.6093 0.5991
3315.000000 0.5888 0.5785 0.5682 0.5579 0.5476
3310.000000 0.5372 0.5269 0.5166 0.5062 0.4958
3305.000000 0.4855 0.4751 0.4647 0.4544 0.4440
3300.000000 0.4336 0.4232 0.4129 0.4024 0.3920
3295.000000 0.3816 0.3712 0.3607 0.3503 0.3399
3290.000000 0.3294 0.3190 0.3084 0.2980 0.2875
3285.000000 0.2771 0.2666 0.2561 0.2456 0.2351
3280.000000 0.2246 0.2141 0.2034 0.1929 0.1844
3275.000000 0.1778 0.1712 0.1644 0.1594 0.1594
3270.000000 0.1592 0.1592 0.1618 0.1600 0.1607
3265.000000 0.1615 0.1622 0.1677 0.1752 0.1827
3260.000000 0.1902 0.1976 0.2051 0.2126 0.2201
3255.000000 0.2276 0.2351 0.2426 0.2502 0.2577
3250.000000 0.2652 0.2728 0.2803 0.2879 0.2954
3245.000000 0.3030 0.3105 0.3181 0.3257 0.3332
3240.000000 0.3408 0.3484 0.3559 0.3634 0.3710
3235.000000 0.3787 0.3862 0.3939 0.4014 0.4091
3230.000000 0.4168 0.4244 0.4320 0.4396 0.4473
3225.000000 0.4549 0.4626 0.4702 0.4779 0.4855
3220.000000 0.4932 0.5009 0.5085 0.5129 0.5141
3215.000000 0.5153 0.5164 0.5175 0.5185 0.5196
3210.000000 0.5206 0.5215 0.5220 0.5226 0.5232
3205.000000 0.5239 0.5258 0.5277 0.5297 0.5316
3200.000000 0.5343 0.5369 0.5396 0.5423 0.5450
3195.000000 0.5477 0.5503 0.5530 0.5557 0.5584
3190.000000 0.5610 0.5637 0.5664 0.5691 0.5718
3185.000000 0.5745 0.5772 0.5799 0.5825 0.5852
3180.000000 0.5879 0.5906 0.5933 0.5960 0.5987
3175.000000 0.6015 0.6042 0.6069 0.6096 0.6124
3170.000000 0.6151 0.6178 0.6205 0.6232 0.6259
3165.000000 0.6286 0.6314 0.6341 0.6368 0.6395
3160.000000 0.6422 0.6450 0.6478 0.6506 0.6533
3155.000000 0.6560 0.6588 0.6615 0.6643 0.6669
3150.000000 0.6697 0.6725 0.6751 0.6780 0.6807
3145.000000 0.6835 0.6862 0.6890 0.6918 0.6945
3140.000000 0.6967 0.6985 0.7004 0.7022 0.7032
3135.000000 0.7038 0.7044 0.7050 0.7053 0.7055
3130.000000 0.7058 0.7060 0.7061 0.7062 0.7065
3125.000000 0.7067 0.7067 0.7068 0.7104 0.7069
3120.000000 0.7069 0.7071 0.7071 0.7072 0.7072
3115.000000 0.7072 0.7072 0.7071 0.7071 0.7068
3110.000000 0.7068 0.7067 0.7065 0.7065 0.7064
3105.000000 0.7061 0.7060 0.7057 0.7055 0.7051
3100.000000 0.7046 0.7041 0.7036 0.7031 0.7025
3095.000000 0.7021 0.7015 0.7004 0.6992 0.6980
3090.000000 0.6962 0.6934 0.6904 0.6874 0.6844
3085.000000 0.6815 0.6785 0.6756 0.6725 0.6697
3080.000000 0.6667 0.6638 0.6608 0.6578 0.6549
3075.000000 0.6519 0.6490 0.6460 0.6431 0.6401
3070.000000 0.6371 0.6341 0.6310 0.6281 0.6251
3065.000000 0.6221 0.6192 0.6162 0.6132 0.6102
3060.000000 0.6072 0.6042 0.6012 0.5982 0.5952
3055.000000 0.5922 0.5892 0.5862 0.5832 0.5802
3050.000000 0.5772 0.5742 0.5712 0.5681 0.5651
3045.000000 0.5620 0.5590 0.5560 0.5530 0.5500
3040.000000 0.5469 0.5439 0.5409 0.5378 0.5348
3035.000000 0.5317 0.5287 0.5257 0.5226 0.5196
3030.000000 0.5165 0.5135 0.5104 0.5074 0.5043
3025.000000 0.5012 0.4982 0.4951 0.4890 0.4829
3020.000000 0.4767 0.4699 0.4618 0.4536 0.4454
3015.000000 0.4380 0.4309 0.4238 0.4167 0.4096
3010.000000 0.4025 0.3954 0.3882 0.3810 0.3740
3005.000000 0.3668 0.3597 0.3525 0.3454 0.3382
3000.000000 0.3309 0.3239 0.3167 0.3095 0.3023
2995.000000 0.2952 0.2880 0.2807 0.2734 0.2663
2990.000000 0.2590 0.2518 0.2446 0.2374 0.2301
2985.000000 0.2229 0.2157 0.2084 0.2012 0.1939
2980.000000 0.1867 0.1794 0.1721 0.1648 0.1576
2975.000000 0.1503 0.1430 0.1357 0.1284 0.1211
2970.000000 0.1138 0.1065 0.0991 0.0918 0.0843
2965.000000 0.0771 0.0697 0.0624 0.0550 0.0477
2960.000000 0.0403 0.0329 0.0256 0.0182 0.0108
2955.000000 0.0040 0.0035 0.0030 0.0025 0.0023
2950.000000 0.0023 0.0022 0.0022 0.0022 0.0023
2945.000000 0.0023 0.0024 0.0024 0.0024 0.0025
2940.000000 0.0030 0.0035 0.0039 0.0046 0.0054
2935.000000 0.0063 0.0071 0.0081 0.0091 0.0101
2930.000000 0.0109 0.0116 0.0124 0.0137 0.0159
2925.000000 0.0181 0.0203 0.0233 0.0263 0.0293
2920.000000 0.0323 0.0353 0.0383 0.0413 0.0443
2915.000000 0.0473 0.0504 0.0534 0.0565 0.0595
2910.000000 0.0625 0.0656 0.0686 0.0716 0.0746
2905.000000 0.0777 0.0807 0.0831 0.0849 0.0868
2900.000000 0.0883 0.0883 0.0883 0.0883 0.0882
2895.000000 0.0881 0.0881 0.0876 0.0871 0.0865
2890.000000 0.0858 0.0852 0.0846 0.0839 0.0833
2885.000000 0.0826 0.0821 0.0815 0.0809 0.0803
2880.000000 0.0796 0.0790 0.0784 0.0777 0.0771
2875.000000 0.0765 0.0758 0.0755 0.0755 0.0754
2870.000000 0.0759 0.0781 0.0802 0.0824 0.1031
2865.000000 0.1244 0.1456 0.1669 0.1882 0.2095
2860.000000 0.2308 0.2522 0.2734 0.2949 0.3163
2855.000000 0.3377 0.3591 0.3805 0.4018 0.4234
2850.000000 0.4448 0.4662 0.4878 0.5058 0.5181
2845.000000 0.5304 0.5419 0.5483 0.5548 0.5612
2840.000000 0.5654 0.5692 0.5731 0.5766 0.5800
2835.000000 0.5833 0.5887 0.5965 0.6043 0.6121
2830.000000 0.6199 0.6278 0.6356 0.6424 0.6492
2825.000000 0.6560 0.6658 0.6761 0.6865 0.6933
2820.000000 0.6981 0.7030 0.7078 0.7125 0.7174
2815.000000 0.7219 0.7261 0.7303 0.7342 0.7375
2810.000000 0.7407 0.7439 0.7471 0.7504 0.7536
2805.000000 0.7565 0.7596 0.7625 0.7650 0.7672
2800.000000 0.7696 0.7718 0.7743 0.7765 0.7789
2795.000000 0.7811 0.7834 0.7856 0.7878 0.7900
2790.000000 0.7921 0.7942 0.7961 0.7981 0.7997
2785.000000 0.8012 0.8028 0.8047 0.8064 0.8082
2780.000000 0.8086 0.8088 0.8090 0.8091 0.8092
2775.000000 0.8093 0.8094 0.8096 0.8097 0.8098
2770.000000 0.8099 0.8100 0.8101 0.8101 0.8101
2765.000000 0.8101 0.8101 0.8101 0.8103 0.8103
2760.000000 0.8103 0.8104 0.8104 0.8105 0.8106
2755.000000 0.8106 0.8106 0.8107 0.8107 0.8107
2750.000000 0.8108 0.8110 0.8111 0.8112 0.8115
2745.000000 0.8117 0.8118 0.8121 0.8122 0.8125
2740.000000 0.8126 0.8128 0.8131 0.8136 0.8140
2735.000000 0.8145 0.8149 0.8154 0.8158 0.8162
2730.000000 0.8168 0.8172 0.8176 0.8182 0.8187
2725.000000 0.8192 0.8196 0.8201 0.8206 0.8211
2720.000000 0.8216 0.8221 0.8227 0.8233 0.8238
2715.000000 0.8243 0.8249 0.8254 0.8260 0.8265
2710.000000 0.8271 0.8275 0.8281 0.8286 0.8292
2705.000000 0.8296 0.8300 0.8304 0.8308 0.8312
2700.000000 0.8316 0.8320 0.8324 0.8328 0.8331
2695.000000 0.8335 0.8338 0.8341 0.8344 0.8347
2690.000000 0.8349 0.8352 0.8355 0.8358 0.8361
2685.000000 0.8363 0.8366 0.8368 0.8371 0.8374
2680.000000 0.8377 0.8380 0.8383 0.8386 0.8389
2675.000000 0.8392 0.8395 0.8398 0.8401 0.8403
2670.000000 0.8407 0.8410 0.8414 0.8417 0.8420
2665.000000 0.8423 0.8427 0.8430 0.8434 0.8437
2660.000000 0.8440 0.8444 0.8447 0.8451 0.8454
2655.000000 0.8457 0.8460 0.8464 0.8467 0.8471
2650.000000 0.8474 0.8477 0.8480 0.8484 0.8487
2645.000000 0.8490 0.8493 0.8497 0.8500 0.8502
2640.000000 0.8505 0.8508 0.8512 0.8515 0.8518
2635.000000 0.8521 0.8525 0.8528 0.8531 0.8534
2630.000000 0.8538 0.8541 0.8544 0.8547 0.8550
2625.000000 0.8553 0.8556 0.8559 0.8562 0.8564
2620.000000 0.8567 0.8568 0.8571 0.8575 0.8577
2615.000000 0.8580 0.8582 0.8584 0.8586 0.8589
2610.000000 0.8591 0.8594 0.8597 0.8599 0.8602
2605.000000 0.8604 0.8607 0.8609 0.8611 0.8614
2600.000000 0.8616 0.8618 0.8621 0.8624 0.8627
2595.000000 0.8628 0.8632 0.8635 0.8638 0.8641
2590.000000 0.8644 0.8646 0.8649 0.8653 0.8656
2585.000000 0.8659 0.8662 0.8665 0.8668 0.8671
2580.000000 0.8674 0.8678 0.8681 0.8684 0.8687
2575.000000 0.8690 0.8694 0.8697 0.8700 0.8703
2570.000000 0.8706 0.8710 0.8713 0.8716 0.8718
2565.000000 0.8721 0.8725 0.8728 0.8732 0.8735
2560.000000 0.8738 0.8741 0.8744 0.8747 0.8750
2555.000000 0.8753 0.8756 0.8760 0.8763 0.8767
2550.000000 0.8770 0.8773 0.8775 0.8778 0.8782
2545.000000 0.8785 0.8788 0.8791 0.8794 0.8797
2540.000000 0.8801 0.8804 0.8808 0.8811 0.8814
2535.000000 0.8817 0.8820 0.8823 0.8825 0.8830
2530.000000 0.8833 0.8836 0.8839 0.8841 0.8843
2525.000000 0.8845 0.8847 0.8850 0.8852 0.8854
2520.000000 0.8856 0.8858 0.8860 0.8862 0.8864
2515.000000 0.8867 0.8868 0.8871 0.8873 0.8875
2510.000000 0.8877 0.8878 0.8881 0.8884 0.8886
2505.000000 0.8888 0.8890 0.8892 0.8894 0.8896
2500.000000 0.8898 0.8900 0.8902 0.8905 0.8907
2495.000000 0.8909 0.8909 0.8909 0.8910 0.8910
2490.000000 0.8911 0.8911 0.8911 0.8912 0.8912
2485.000000 0.8912 0.8912 0.8912 0.8913 0.8913
2480.000000 0.8913 0.8913 0.8913 0.8914 0.8914
2475.000000 0.8915 0.8915 0.8915 0.8915 0.8915
2470.000000 0.8916 0.8916 0.8916 0.8916 0.8916
2465.000000 0.8916 0.8916 0.8916 0.8916 0.8916
2460.000000 0.8916 0.8916 0.8916 0.8916 0.8916
2455.000000 0.8916 0.8916 0.8915 0.8915 0.8915
2450.000000 0.8915 0.8915 0.8915 0.8915 0.8915
2445.000000 0.8915 0.8915 0.8915 0.8915 0.8915
2440.000000 0.8915 0.8915 0.8915 0.8916 0.8917
2435.000000 0.8918 0.8918 0.8920 0.8920 0.8921
2430.000000 0.8921 0.8921 0.8923 0.8924 0.8925
2425.000000 0.8925 0.8925 0.8925 0.8927 0.8928
2420.000000 0.8928 0.8928 0.8930 0.8931 0.8931
2415.000000 0.8932 0.8933 0.8934 0.8934 0.8935
2410.000000 0.8936 0.8937 0.8938 0.8938 0.8939
2405.000000 0.8940 0.8940 0.8941 0.8942 0.8943
2400.000000 0.8943 0.8944 0.8945 0.8945 0.8946
2395.000000 0.8947 0.8948 0.8949 0.8950 0.8951
2390.000000 0.8952 0.8952 0.8953 0.8954 0.8955
2385.000000 0.8956 0.8957 0.8958 0.8959 0.8959
2380.000000 0.8960 0.8961 0.8962 0.8963 0.8964
2375.000000 0.8965 0.8966 0.8967 0.8967 0.8968
2370.000000 0.8968 0.8970 0.8971 0.8971 0.8973
2365.000000 0.8975 0.8975 0.8975 0.8977 0.8978
2360.000000 0.8978 0.8980 0.8981 0.8982 0.8983
2355.000000 0.8984 0.8985 0.8985 0.8986 0.8987
2350.000000 0.8988 0.8989 0.8990 0.8991 0.8992
2345.000000 0.8993 0.8994 0.8995 0.8995 0.8996
2340.000000 0.8997 0.8997 0.8998 0.8999 0.9000
2335.000000 0.9000 0.9001 0.9001 0.9002 0.9002
2330.000000 0.9002 0.9003 0.9003 0.9004 0.9004
2325.000000 0.9005 0.9005 0.9006 0.9006 0.9007
2320.000000 0.9007 0.9008 0.9008 0.9008 0.9009
2315.000000 0.9009 0.9010 0.9010 0.9011 0.9011
2310.000000 0.9012 0.9012 0.9013 0.9014 0.9015
2305.000000 0.9015 0.9016 0.9016 0.9017 0.9017
2300.000000 0.9017 0.9018 0.9018 0.9020 0.9020
2295.000000 0.9021 0.9021 0.9021 0.9021 0.9023
2290.000000 0.9024 0.9025 0.9025 0.9025 0.9025
2285.000000 0.9027 0.9028 0.9028 0.9031 0.9033
2280.000000 0.9034 0.9035 0.9037 0.9038 0.9040
2275.000000 0.9041 0.9043 0.9045 0.9047 0.9048
2270.000000 0.9049 0.9051 0.9052 0.9054 0.9055
2265.000000 0.9057 0.9058 0.9060 0.9062 0.9064
2260.000000 0.9065 0.9067 0.9068 0.9068 0.9071
2255.000000 0.9071 0.9073 0.9073 0.9074 0.9075
2250.000000 0.9075 0.9075 0.9077 0.9077 0.9078
2245.000000 0.9078 0.9078 0.9078 0.9080 0.9080
2240.000000 0.9081 0.9082 0.9083 0.9083 0.9084
2235.000000 0.9084 0.9085 0.9085 0.9086 0.9086
2230.000000 0.9087 0.9087 0.9088 0.9089 0.9090
2225.000000 0.9090 0.9091 0.9091 0.9092 0.9092
2220.000000 0.9093 0.9093 0.9094 0.9095 0.9096
2215.000000 0.9096 0.9097 0.9097 0.9098 0.9098
2210.000000 0.9099 0.9099 0.9100 0.9100 0.9101
2205.000000 0.9102 0.9103 0.9103 0.9104 0.9104
2200.000000 0.9105 0.9105 0.9106 0.9106 0.9107
2195.000000 0.9108 0.9109 0.9109 0.9110 0.9111
2190.000000 0.9111 0.9112 0.9113 0.9114 0.9115
2185.000000 0.9117 0.9118 0.9118 0.9121 0.9121
2180.000000 0.9123 0.9124 0.9125 0.9127 0.9128
2175.000000 0.9130 0.9131 0.9132 0.9134 0.9135
2170.000000 0.9137 0.9138 0.9139 0.9141 0.9142
2165.000000 0.9143 0.9144 0.9146 0.9148 0.9149
2160.000000 0.9150 0.9151 0.9153 0.9155 0.9156
2155.000000 0.9157 0.9158 0.9160 0.9161 0.9162
2150.000000 0.9164 0.9165 0.9166 0.9168 0.9168
2145.000000 0.9171 0.9171 0.9173 0.9175 0.9175
2140.000000 0.9177 0.9178 0.9178 0.9180 0.9181
2135.000000 0.9182 0.9184 0.9185 0.9186 0.9187
2130.000000 0.9188 0.9189 0.9190 0.9191 0.9192
2125.000000 0.9193 0.9195 0.9196 0.9197 0.9198
2120.000000 0.9199 0.9200 0.9201 0.9202 0.9203
2115.000000 0.9205 0.9205 0.9206 0.9207 0.9208
2110.000000 0.9209 0.9210 0.9211 0.9213 0.9214
2105.000000 0.9215 0.9216 0.9216 0.9217 0.9218
2100.000000 0.9218 0.9220 0.9220 0.9221 0.9221
2095.000000 0.9221 0.9221 0.9223 0.9224 0.9224
2090.000000 0.9225 0.9225 0.9227 0.9227 0.9228
2085.000000 0.9228 0.9228 0.9230 0.9230 0.9231
2080.000000 0.9231 0.9232 0.9233 0.9233 0.9234
2075.000000 0.9235 0.9236 0.9236 0.9236 0.9237
2070.000000 0.9237 0.9237 0.9237 0.9238 0.9238
2065.000000 0.9238 0.9239 0.9239 0.9239 0.9239
2060.000000 0.9239 0.9240 0.9240 0.9240 0.9240
2055.000000 0.9241 0.9241 0.9241 0.9241 0.9241
2050.000000 0.9242 0.9242 0.9242 0.9242 0.9242
2045.000000 0.9243 0.9243 0.9243 0.9243 0.9243
2040.000000 0.9243 0.9243 0.9243 0.9243 0.9243
2035.000000 0.9243 0.9244 0.9244 0.9244 0.9244
2030.000000 0.9244 0.9244 0.9244 0.9244 0.9244
2025.000000 0.9244 0.9244 0.9244 0.9245 0.9245
2020.000000 0.9245 0.9245 0.9245 0.9246 0.9246
2015.000000 0.9246 0.9247 0.9247 0.9247 0.9248
2010.000000 0.9248 0.9248 0.9249 0.9249 0.9249
2005.000000 0.9249 0.9250 0.9250 0.9250 0.9251
2000.000000 0.9251 0.9251 0.9252 0.9253 0.9254
1995.000000 0.9255 0.9255 0.9256 0.9257 0.9257
1990.000000 0.9258 0.9258 0.9260 0.9261 0.9261
1985.000000 0.9262 0.9263 0.9263 0.9264 0.9265
1980.000000 0.9267 0.9268 0.9268 0.9271 0.9271
1975.000000 0.9273 0.9274 0.9275 0.9275 0.9277
1970.000000 0.9278 0.9278 0.9277 0.9275 0.9271
1965.000000 0.9267 0.9263 0.9259 0.9254 0.9244
1960.000000 0.9227 0.9209 0.9195 0.9186 0.9180
1955.000000 0.9175 0.9171 0.9168 0.9164 0.9160
1950.000000 0.9156 0.9156 0.9156 0.9156 0.9156
1945.000000 0.9159 0.9165 0.9171 0.9178 0.9184
1940.000000 0.9197 0.9210 0.9224 0.9236 0.9245
1935.000000 0.9251 0.9257 0.9263 0.9268 0.9271
1930.000000 0.9273 0.9275 0.9275 0.9278 0.9280
1925.000000 0.9281 0.9282 0.9283 0.9283 0.9284
1920.000000 0.9285 0.9285 0.9286 0.9287 0.9287
1915.000000 0.9288 0.9288 0.9288 0.9289 0.9290
1910.000000 0.9290 0.9291 0.9291 0.9291 0.9291
1905.000000 0.9289 0.9287 0.9285 0.9282 0.9280
1900.000000 0.9278 0.9274 0.9268 0.9263 0.9255
1895.000000 0.9246 0.9233 0.9221 0.9209 0.9197
1890.000000 0.9184 0.9177 0.9174 0.9173 0.9173
1885.000000 0.9171 0.9175 0.9178 0.9181 0.9185
1880.000000 0.9188 0.9193 0.9200 0.9208 0.9216
1875.000000 0.9225 0.9233 0.9241 0.9249 0.9257
1870.000000 0.9264 0.9271 0.9278 0.9286 0.9293
1865.000000 0.9299 0.9305 0.9308 0.9312 0.9316
1860.000000 0.9320 0.9324 0.9325 0.9327 0.9327
1855.000000 0.9328 0.9330 0.9331 0.9331 0.9330
1850.000000 0.9328 0.9327 0.9325 0.9324 0.9323
1845.000000 0.9321 0.9318 0.9317 0.9314 0.9311
1840.000000 0.9307 0.9304 0.9301 0.9298 0.9294
1835.000000 0.9290 0.9286 0.9280 0.9275 0.9271
1830.000000 0.9266 0.9260 0.9255 0.9251 0.9247
1825.000000 0.9243 0.9239 0.9236 0.9232 0.9227
1820.000000 0.9223 0.9218 0.9215 0.9209 0.9204
1815.000000 0.9201 0.9201 0.9202 0.9205 0.9208
1810.000000 0.9210 0.9213 0.9218 0.9221 0.9225
1805.000000 0.9231 0.9235 0.9239 0.9244 0.9248
1800.000000 0.9253 0.9257 0.9261 0.9266 0.9270
1795.000000 0.9275 0.9280 0.9284 0.9288 0.9293
1790.000000 0.9297 0.9302 0.9307 0.9310 0.9315
1785.000000 0.9320 0.9325 0.9328 0.9333 0.9338
1780.000000 0.9342 0.9347 0.9351 0.9356 0.9360
1775.000000 0.9365 0.9368 0.9374 0.9378 0.9382
1770.000000 0.9386 0.9390 0.9394 0.9398 0.9402
1765.000000 0.9406 0.9410 0.9414 0.9418 0.9421
1760.000000 0.9425 0.9430 0.9433 0.9436 0.9439
1755.000000 0.9443 0.9446 0.9450 0.9451 0.9454
1750.000000 0.9456 0.9457 0.9459 0.9460 0.9454
1745.000000 0.9455 0.9456 0.9454 0.9452 0.9450
1740.000000 0.9448 0.9444 0.9440 0.9435 0.9430
1735.000000 0.9420 0.9406 0.9391 0.9375 0.9360
1730.000000 0.9340 0.9318 0.9295 0.9271 0.9248
1725.000000 0.9227 0.9211 0.9197 0.9184 0.9175
1720.000000 0.9170 0.9163 0.9156 0.9149 0.9139
1715.000000 0.9130 0.9120 0.9111 0.9098 0.9075
1710.000000 0.9046 0.9005 0.8962 0.8914 0.8855
1705.000000 0.8786 0.8723 0.8678 0.8632 0.8580
1700.000000 0.8509 0.8428 0.8318 0.8176 0.8119
1695.000000 0.8061 0.8001 0.7924 0.7792 0.7643
1690.000000 0.7465 0.7208 0.6951 0.6695 0.6437
1685.000000 0.6179 0.5921 0.5662 0.5404 0.5144
1680.000000 0.4885 0.4625 0.4365 0.4105 0.3844
1675.000000 0.3582 0.3321 0.3059 0.2797 0.2534
1670.000000 0.2273 0.2010 0.1746 0.1483 0.1219
1665.000000 0.1018 0.0922 0.0892 0.0862 0.0828
1660.000000 0.0783 0.0763 0.0743 0.0731 0.0725
1655.000000 0.0725 0.0725 0.0737 0.0763 0.0796
1650.000000 0.0836 0.0903 0.0983 0.1101 0.1227
1645.000000 0.1306 0.1419 0.1815 0.2353 0.2893
1640.000000 0.3432 0.3973 0.4514 0.5056 0.5585
1635.000000 0.5998 0.6090 0.6189 0.6307 0.6490
1630.000000 0.6651 0.6767 0.6868 0.6968 0.7068
1625.000000 0.7169 0.7271 0.7371 0.7472 0.7574
1620.000000 0.7675 0.7776 0.7878 0.7981 0.8081
1615.000000 0.8121 0.8132 0.8139 0.8141 0.8148
1610.000000 0.8148 0.8149 0.8148 0.8142 0.8134
1605.000000 0.8125 0.8112 0.8086 0.8054 0.8015
1600.000000 0.7971 0.7919 0.7811 0.7626 0.7425
1595.000000 0.7221 0.6935 0.6910 0.6910 0.6945
1590.000000 0.7057 0.7184 0.7311 0.7441 0.7568
1585.000000 0.7685 0.7768 0.7756 0.7754 0.7749
1580.000000 0.7742 0.7734 0.7725 0.7708 0.7681
1575.000000 0.7648 0.7600 0.7533 0.7426 0.7276
1570.000000 0.7128 0.6971 0.6631 0.6280 0.6235
1565.000000 0.6190 0.6131 0.6056 0.5976 0.5896
1560.000000 0.5819 0.5749 0.5683 0.5599 0.5394
1555.000000 0.5101 0.4793 0.4486 0.4179 0.3870
1550.000000 0.3562 0.3253 0.2943 0.2633 0.2324
1545.000000 0.2013 0.1707 0.1482 0.1458 0.1471
1540.000000 0.1435 0.1446 0.1532 0.1760 0.2048
1535.000000 0.2335 0.2626 0.2915 0.3205 0.3495
1530.000000 0.3784 0.4071 0.4260 0.4396 0.4519
1525.000000 0.4644 0.4779 0.4914 0.5048 0.5183
1520.000000 0.5319 0.5455 0.5590 0.5726 0.5862
1515.000000 0.5998 0.6136 0.6246 0.6289 0.6323
1510.000000 0.6351 0.6375 0.6396 0.6405 0.6411
1505.000000 0.6436 0.6418 0.6417 0.6415 0.6341
1500.000000 0.6203 0.6065 0.5927 0.5789 0.5650
1495.000000 0.5512 0.5374 0.5235 0.5096 0.4956
1490.000000 0.4817 0.4677 0.4537 0.4398 0.4258
1485.000000 0.4117 0.3977 0.3836 0.3695 0.3553
1480.000000 0.3412 0.3271 0.3130 0.2988 0.2845
1475.000000 0.2703 0.2560 0.2418 0.2275 0.2150
1470.000000 0.2095 0.2081 0.2078 0.2078 0.2084
1465.000000 0.2114 0.2170 0.2250 0.2331 0.2412
1460.000000 0.2493 0.2575 0.2656 0.2738 0.2820
1455.000000 0.2902 0.2984 0.3066 0.3109 0.3118
1450.000000 0.3124 0.3130 0.3138 0.3150 0.3163
1445.000000 0.3212 0.3328 0.3444 0.3559 0.3676
1440.000000 0.3792 0.3909 0.4026 0.4143 0.4259
1435.000000 0.4374 0.4474 0.4562 0.4710 0.4885
1430.000000 0.5059 0.5233 0.5408 0.5583 0.5758
1425.000000 0.5934 0.6109 0.6285 0.6461 0.6608
1420.000000 0.6668 0.6722 0.6774 0.6824 0.6878
1415.000000 0.6915 0.6928 0.6935 0.6940 0.6937
1410.000000 0.6944 0.6943 0.6928 0.6889 0.6837
1405.000000 0.6775 0.6701 0.6615 0.6472 0.6338
1400.000000 0.6282 0.6269 0.6260 0.6253 0.6244
1395.000000 0.6229 0.6121 0.5937 0.5754 0.5570
1390.000000 0.5386 0.5201 0.5017 0.4831 0.4646
1385.000000 0.4460 0.4275 0.4089 0.3902 0.3716
1380.000000 0.3529 0.3424 0.3410 0.3407 0.3368
1375.000000 0.3286 0.3199 0.3159 0.3188 0.3162
1370.000000 0.3179 0.3627 0.4444 0.4703 0.5017
1365.000000 0.5607 0.5742 0.5899 0.6048 0.6160
1360.000000 0.6262 0.6366 0.6468 0.6572 0.6684
1355.000000 0.6805 0.6896 0.6971 0.7045 0.7098
1350.000000 0.7151 0.7208 0.7267 0.7312 0.7350
1345.000000 0.7383 0.7405 0.7426 0.7448 0.7468
1340.000000 0.7487 0.7505 0.7514 0.7521 0.7528
1335.000000 0.7500 0.7538 0.7538 0.7539 0.7533
1330.000000 0.7526 0.7521 0.7511 0.7500 0.7490
1325.000000 0.7478 0.7467 0.7451 0.7433 0.7414
1320.000000 0.7395 0.7374 0.7334 0.7287 0.7240
1315.000000 0.7178 0.7061 0.6946 0.6825 0.6668
1310.000000 0.6488 0.6301 0.6168 0.6047 0.5917
1305.000000 0.5781 0.5190 0.4873 0.4555 0.4237
1300.000000 0.3918 0.3600 0.3280 0.2909 0.2892
1295.000000 0.2893 0.3023 0.3328 0.3632 0.3940
1290.000000 0.4247 0.4555 0.4862 0.5171 0.5480
1285.000000 0.5790 0.6098 0.6276 0.6330 0.6381
1280.000000 0.6432 0.6475 0.6518 0.6571 0.6645
1275.000000 0.6719 0.6795 0.6869 0.6945 0.7019
1270.000000 0.7096 0.7171 0.7247 0.7322 0.7399
1265.000000 0.7474 0.7551 0.7626 0.7704 0.7780
1260.000000 0.7857 0.7933 0.8010 0.8087 0.8164
1255.000000 0.8242 0.8318 0.8397 0.8474 0.8516
1250.000000 0.8544 0.8571 0.8589 0.8604 0.8618
1245.000000 0.8634 0.8645 0.8654 0.8662 0.8670
1240.000000 0.8675 0.8677 0.8677 0.8678 0.8677
1235.000000 0.8671 0.8667 0.8662 0.8656 0.8645
1230.000000 0.8635 0.8621 0.8589 0.8532 0.8496
1225.000000 0.8493 0.8503 0.8535 0.8577 0.8624
1220.000000 0.8675 0.8716 0.8747 0.8767 0.8785
1215.000000 0.8783 0.8798 0.8792 0.8783 0.8755
1210.000000 0.8711 0.8657 0.8508 0.8562 0.8533
1205.000000 0.8521 0.8524 0.8546 0.8575 0.8618
1200.000000 0.8645 0.8661 0.8717 0.8695 0.8702
1195.000000 0.8702 0.8457 0.8162 0.7869 0.7575
1190.000000 0.7211 0.7201 0.7228 0.7421 0.7656
1185.000000 0.7890 0.8124 0.8359 0.8566 0.8621
1180.000000 0.8674 0.8708 0.8735 0.8750 0.8764
1175.000000 0.8778 0.8793 0.8800 0.8805 0.8810
1170.000000 0.8815 0.8820 0.8825 0.8837 0.8828
1165.000000 0.8830 0.8831 0.8832 0.8825 0.8818
1160.000000 0.8810 0.8797 0.8783 0.8758 0.8731
1155.000000 0.8696 0.8655 0.8607 0.8514 0.8531
1150.000000 0.8525 0.8527 0.8556 0.8593 0.8635
1145.000000 0.8682 0.8724 0.8762 0.8781 0.8798
1140.000000 0.8810 0.8816 0.8821 0.8827 0.8833
1135.000000 0.8838 0.8843 0.8848 0.8852 0.8857
1130.000000 0.8862 0.8866 0.8871 0.8907 0.8881
1125.000000 0.8886 0.8891 0.8896 0.8902 0.8907
1120.000000 0.8912 0.8911 0.8910 0.8909 0.8908
1115.000000 0.8903 0.8894 0.8883 0.8865 0.8842
1110.000000 0.8815 0.8789 0.8756 0.8721 0.8682
1105.000000 0.8616 0.8520 0.8420 0.8330 0.8293
1100.000000 0.8297 0.8328 0.8596 0.8671 0.8727
1095.000000 0.8771 0.8814 0.8836 0.8858 0.8878
1090.000000 0.8897 0.8910 0.8924 0.8938 0.8952
1085.000000 0.8966 0.8977 0.8985 0.8995 0.9003
1080.000000 0.9013 0.9021 0.9030 0.9037 0.9042
1075.000000 0.9047 0.9052 0.9057 0.9055 0.9068
1070.000000 0.9068 0.9070 0.9071 0.9071 0.9073
1065.000000 0.9074 0.9074 0.9073 0.9070 0.9068
1060.000000 0.9066 0.9064 0.9060 0.9050 0.9041
1055.000000 0.9031 0.9021 0.9005 0.8986 0.8967
1050.000000 0.8945 0.8918 0.8891 0.8854 0.8809
1045.000000 0.8745 0.8693 0.8592 0.8481 0.8370
1040.000000 0.8259 0.8148 0.7994 0.7999 0.8032
1035.000000 0.8092 0.8161 0.8283 0.8371 0.8447
1030.000000 0.8509 0.8557 0.8598 0.8621 0.8634
1025.000000 0.8658 0.8642 0.8631 0.8598 0.8524
1020.000000 0.8437 0.8351 0.8265 0.8178 0.8121
1015.000000 0.8115 0.8118 0.8124 0.8161 0.8257
1010.000000 0.8336 0.8401 0.8456 0.8511 0.8560
1005.000000 0.8606 0.8646 0.8687 0.8725 0.8758
1000.000000 0.8791 0.8823 0.8850 0.8873 0.8896
995.000000 0.8903 0.8909 0.8914 0.8916 0.8916
990.000000 0.8915 0.8915 0.8915 0.8915 0.8915
985.000000 0.8908 0.8899 0.8884 0.8866 0.8847
980.000000 0.8827 0.8806 0.8786 0.8765 0.8744
975.000000 0.8714 0.8678 0.8625 0.8562 0.8470
970.000000 0.8285 0.7993 0.7700 0.7528 0.7515
965.000000 0.7572 0.7699 0.7878 0.8181 0.8485
960.000000 0.8775 0.8839 0.8904 0.8974 0.9001
955.000000 0.9024 0.9043 0.9057 0.9071 0.9086
950.000000 0.9099 0.9112 0.9123 0.9134 0.9145
945.000000 0.9156 0.9187 0.9187 0.9186 0.9194
940.000000 0.9201 0.9201 0.9200 0.9192 0.9170
935.000000 0.9146 0.9109 0.9068 0.9015 0.8947
930.000000 0.8909 0.8881 0.8895 0.8970 0.9028
925.000000 0.9077 0.9111 0.9146 0.9182 0.9218
920.000000 0.9242 0.9262 0.9278 0.9292 0.9305
915.000000 0.9311 0.9312 0.9313 0.9312 0.9305
910.000000 0.9289 0.9223 0.9142 0.9033 0.8899
905.000000 0.8770 0.8709 0.8690 0.8652 0.8495
900.000000 0.8331 0.8168 0.8003 0.7905 0.7905
895.000000 0.8008 0.8207 0.8482 0.8762 0.8925
890.000000 0.9037 0.9128 0.9206 0.9265 0.9316
885.000000 0.9344 0.9370 0.9385 0.9395 0.9404
880.000000 0.9412 0.9421 0.9428 0.9435 0.9442
875.000000 0.9448 0.9450 0.9453 0.9456 0.9458
870.000000 0.9452 0.9446 0.9439 0.9423 0.9407
865.000000 0.9382 0.9357 0.9334 0.9316 0.9317
860.000000 0.9317 0.9321 0.9325 0.9333 0.9339
855.000000 0.9345 0.9351 0.9358 0.9365 0.9371
850.000000 0.9378 0.9384 0.9390 0.9396 0.9403
845.000000 0.9409 0.9415 0.9421 0.9428 0.9432
840.000000 0.9437 0.9441 0.9446 0.9451 0.9456
835.000000 0.9468 0.9468 0.9468 0.9473 0.9477
830.000000 0.9482 0.9485 0.9489 0.9493 0.9497
825.000000 0.9501 0.9502 0.9503 0.9504 0.9505
820.000000 0.9505 0.9506 0.9506 0.9506 0.9505
815.000000 0.9499 0.9488 0.9477 0.9460 0.9442
810.000000 0.9420 0.9377 0.9324 0.9266 0.9209
805.000000 0.9147 0.9078 0.9012 0.8965 0.8961
800.000000 0.9031 0.9102 0.9131 0.9117 0.9071
795.000000 0.8996 0.8883 0.8738 0.8570 0.8137
790.000000 0.7211 0.6121 0.5026 0.3929 0.2853
785.000000 0.2863 0.3582 0.4355 0.5130 0.5908
780.000000 0.6688 0.7468 0.7926 0.8333 0.8701
775.000000 0.8934 0.9058 0.9130 0.9173 0.9202
770.000000 0.9225 0.9243 0.9257 0.9268 0.9273
765.000000 0.9277 0.9297 0.9271 0.9268 0.9259
760.000000 0.9250 0.9227 0.9203 0.9160 0.9111
755.000000 0.9021 0.8866 0.8617 0.8305 0.7390
750.000000 0.6453 0.5696 0.5721 0.5936 0.6676
745.000000 0.7474 0.7974 0.8172 0.8360 0.8530
740.000000 0.8651 0.8657 0.8673 0.8677 0.8667
735.000000 0.8656 0.8639 0.8615 0.8590 0.8544
730.000000 0.8495 0.8432 0.8371 0.8311 0.8235
725.000000 0.8167 0.8095 0.8015 0.7921 0.7847
720.000000 0.7832 0.7842 0.7858 0.7869 0.7876
715.000000 0.7882 0.7871 0.7841 0.7801 0.7758
710.000000 0.7700 0.7640 0.7582 0.7525 0.7471
705.000000 0.7407 0.7351 0.7328 0.7338 0.7408
700.000000 0.7467 0.7528 0.7581 0.7615 0.7618
695.000000 0.7590 0.7518 0.7391 0.7246 0.6994
690.000000 0.6771 0.6550 0.6468 0.6468 0.6468
685.000000 0.6593 0.6718 0.6878 0.7057 0.7237
680.000000 0.7415 0.7597 0.7778 0.7958 0.8141
675.000000 0.8316 0.8464 0.8600 0.8768 0.8956
670.000000 0.9124 0.9275 0.9415 0.9515 0.9552
665.000000 0.9557 0.9557 0.9577 0.9611 0.9657
660.000000 0.9706 0.9749 0.9786 0.9823 0.9851
655.000000 0.9875 0.9902 0.9921 0.9936 0.9950
650.000000 0.9962 0.9974 0.9980 0.9961 0.9984
645.000000 0.9978 0.9973 0.9963 0.9955 0.9944
640.000000 0.9928 0.9914 0.9899 0.9882 0.9864
635.000000 0.9845 0.9823 0.9798 0.9771 0.9743
630.000000 0.9713 0.9687 0.9668 0.9651 0.9633
##END=
