##TITLE=SALICYLALDEHYDE COPPER CHELATE
##JCAMP-DX=4.24
##DATA TYPE=INFRARED SPECTRUM
##CLASS=COBLENTZ
##ORIGIN=DOW CHEMICAL COMPANY
##OWNER=COBLENTZ SOCIETY
Collection (C) 2018 copyright by the U.S. Secretary of Commerce
on behalf of the United States of America. All rights reserved.
##DATE=Not specified, most likely prior to 1970
##MOLFORM=C14 H12 O4 Cu
##SOURCE REFERENCE=COBLENTZ NO. 1501
##$NIST ID=B6001501
##$NIST SOURCE=COBLENTZ
##$NIST IMAGE=cob1501
##SPECTROMETER/DATA SYSTEM=Not specified, most likely a prism, grating, or hybrid spectrometer.
##STATE=SOLID (MINERAL OIL MULL)
##SAMPLING PROCEDURE=TRANSMISSION
##RESOLUTION=4
##DATA PROCESSING=DIGITIZED BY NIST FROM HARD COPY
##XUNITS=MICROMETERS
##YUNITS=TRANSMITTANCE
##XFACTOR=1.000000
##YFACTOR=1
##DELTAX=000.006856
##FIRSTX=2.048
##LASTX=15.897
##FIRSTY=0.552
##MAXX=15.897
##MINX=2.048
##MAXY=0.852
##MINY=0.066
##NPOINTS=2021
##XYDATA=(X++(Y..Y))
2.048000 0.5520 0.5540 0.5560 0.5560 0.5570
2.082297 0.5570 0.5590 0.5590 0.5610 0.5610
2.117000 0.5610 0.5620 0.5620 0.5620 0.5620
2.151297 0.5620 0.5620 0.5640 0.5640 0.5640
2.185000 0.5640 0.5640 0.5640 0.5640 0.5640
2.219297 0.5640 0.5640 0.5640 0.5640 0.5640
2.254000 0.5640 0.5640 0.5640 0.5640 0.5640
2.288297 0.5660 0.5660 0.5660 0.5660 0.5690
2.322000 0.5690 0.5710 0.5730 0.5730 0.5740
2.356297 0.5740 0.5780 0.5790 0.5810 0.5830
2.391000 0.5850 0.5860 0.5860 0.5900 0.5910
2.425297 0.5930 0.5950 0.5950 0.5960 0.5980
2.459000 0.6000 0.6020 0.6020 0.6050 0.6070
2.493297 0.6080 0.6100 0.6120 0.6130 0.6150
2.528000 0.6150 0.6190 0.6190 0.6200 0.6200
2.562297 0.6220 0.6240 0.6240 0.6250 0.6250
2.596000 0.6270 0.6270 0.6290 0.6290 0.6290
2.630297 0.6290 0.6290 0.6290 0.6290 0.6290
2.665000 0.6290 0.6290 0.6290 0.6300 0.6300
2.699297 0.6300 0.6300 0.6290 0.6290 0.6290
2.734000 0.6290 0.6290 0.6290 0.6290 0.6290
2.768297 0.6290 0.6290 0.6290 0.6290 0.6290
2.802000 0.6290 0.6290 0.6290 0.6290 0.6290
2.836297 0.6290 0.6290 0.6290 0.6290 0.6290
2.871000 0.6290 0.6290 0.6290 0.6290 0.6290
2.905297 0.6290 0.6290 0.6290 0.6290 0.6290
2.939000 0.6290 0.6290 0.6290 0.6290 0.6300
2.973297 0.6300 0.6320 0.6320 0.6340 0.6340
3.008000 0.6360 0.6370 0.6370 0.6370 0.6370
3.042297 0.6370 0.6370 0.6370 0.6370 0.6370
3.076000 0.6370 0.6360 0.6370 0.6370 0.6370
3.110297 0.6370 0.6390 0.6390 0.6390 0.6420
3.145000 0.6420 0.6440 0.6460 0.6460 0.6490
3.179297 0.6490 0.6510 0.6510 0.6510 0.6490
3.214000 0.6490 0.6470 0.6460 0.6410 0.6340
3.248297 0.6290 0.6240 0.6190 0.6150 0.6100
3.282000 0.6070 0.6000 0.5950 0.5860 0.5760
3.316297 0.5640 0.5490 0.5280 0.5050 0.4550
3.351000 0.4090 0.4030 0.3040 0.2140 0.1250
3.385297 0.1070 0.0810 0.0810 0.0730 0.0730
3.419000 0.0780 0.1020 0.1250 0.1470 0.1710
3.453297 0.1810 0.1870 0.1920 0.1970 0.2120
3.488000 0.2410 0.2600 0.2840 0.3790 0.4370
3.522297 0.4710 0.5100 0.5440 0.5780 0.6300
3.556000 0.6440 0.6470 0.6530 0.6630 0.6700
3.590297 0.6750 0.6760 0.6780 0.6780 0.6800
3.625000 0.6810 0.6810 0.6810 0.6830 0.6830
3.659297 0.6850 0.6850 0.6870 0.6870 0.6870
3.693000 0.6880 0.6900 0.6920 0.6920 0.6930
3.727297 0.6950 0.6950 0.6970 0.6980 0.7000
3.762000 0.7000 0.7020 0.7040 0.7040 0.7050
3.796297 0.7070 0.7090 0.7100 0.7120 0.7120
3.831000 0.7140 0.7150 0.7170 0.7190 0.7210
3.865297 0.7210 0.7220 0.7240 0.7240 0.7260
3.899000 0.7270 0.7290 0.7310 0.7320 0.7340
3.933297 0.7340 0.7380 0.7390 0.7390 0.7390
3.968000 0.7410 0.7410 0.7430 0.7430 0.7440
4.002297 0.7440 0.7480 0.7480 0.7500 0.7500
4.036000 0.7510 0.7530 0.7550 0.7580 0.7580
4.070297 0.7580 0.7600 0.7600 0.7600 0.7600
4.105000 0.7600 0.7600 0.7550 0.7530 0.7510
4.139297 0.7510 0.7510 0.7510 0.7550 0.7600
4.173000 0.7600 0.7600 0.7560 0.7530 0.7510
4.207297 0.7500 0.7440 0.7410 0.7410 0.7410
4.242000 0.7430 0.7430 0.7430 0.7430 0.7480
4.276297 0.7510 0.7550 0.7580 0.7610 0.7650
4.310000 0.7680 0.7700 0.7700 0.7720 0.7700
4.344297 0.7700 0.7700 0.7720 0.7720 0.7720
4.379000 0.7720 0.7720 0.7720 0.7720 0.7720
4.413297 0.7720 0.7720 0.7720 0.7720 0.7720
4.448000 0.7730 0.7730 0.7730 0.7730 0.7730
4.482297 0.7730 0.7730 0.7750 0.7750 0.7750
4.516000 0.7750 0.7750 0.7770 0.7770 0.7770
4.550297 0.7770 0.7770 0.7780 0.7780 0.7780
4.585000 0.7780 0.7780 0.7780 0.7800 0.7800
4.619297 0.7800 0.7800 0.7800 0.7800 0.7800
4.653000 0.7800 0.7820 0.7820 0.7820 0.7800
4.687297 0.7800 0.7820 0.7820 0.7820 0.7800
4.722000 0.7800 0.7800 0.7800 0.7800 0.7800
4.756297 0.7800 0.7820 0.7840 0.7850 0.7850
4.790000 0.7870 0.7870 0.7890 0.7890 0.7900
4.824297 0.7900 0.7890 0.7890 0.7890 0.7890
4.859000 0.7870 0.7870 0.7870 0.7870 0.7890
4.893297 0.7900 0.7920 0.7940 0.7970 0.8010
4.928000 0.8060 0.8060 0.8060 0.8060 0.8060
4.962297 0.8060 0.8060 0.8070 0.8070 0.8070
4.996000 0.8070 0.8070 0.8070 0.8090 0.8090
5.030297 0.8090 0.8090 0.8090 0.8090 0.8110
5.065000 0.8090 0.8090 0.8060 0.8020 0.8020
5.099297 0.8020 0.8020 0.8020 0.8020 0.8020
5.133000 0.8020 0.8020 0.8020 0.8020 0.8020
5.167297 0.8020 0.8020 0.8020 0.8020 0.8040
5.202000 0.8040 0.8040 0.8040 0.8040 0.8040
5.236297 0.8040 0.8040 0.8040 0.8060 0.8070
5.270000 0.8070 0.8090 0.8090 0.8090 0.8110
5.304297 0.8120 0.8140 0.8160 0.8180 0.8180
5.339000 0.8180 0.8180 0.8180 0.8190 0.8190
5.373297 0.8190 0.8190 0.8190 0.8190 0.8210
5.407000 0.8210 0.8210 0.8210 0.8210 0.8210
5.441297 0.8210 0.8210 0.8210 0.8210 0.8210
5.476000 0.8210 0.8210 0.8190 0.8180 0.8160
5.510297 0.8180 0.8110 0.8090 0.8070 0.8060
5.545000 0.8060 0.8060 0.8090 0.8190 0.8230
5.579297 0.8260 0.8280 0.8310 0.8310 0.8310
5.613000 0.8310 0.8310 0.8310 0.8310 0.8310
5.647297 0.8310 0.8310 0.8310 0.8310 0.8310
5.682000 0.8310 0.8310 0.8290 0.8280 0.8280
5.716297 0.8260 0.8260 0.8260 0.8260 0.8260
5.750000 0.8260 0.8260 0.8260 0.8260 0.8260
5.784297 0.8240 0.8240 0.8230 0.8180 0.8140
5.819000 0.8120 0.8040 0.7990 0.7990 0.7970
5.853297 0.7950 0.7900 0.7840 0.7800 0.7700
5.887000 0.7560 0.7550 0.7460 0.7410 0.7390
5.921297 0.7320 0.7320 0.7310 0.7290 0.7260
5.956000 0.7240 0.7090 0.6900 0.6700 0.6580
5.990297 0.6540 0.6510 0.6360 0.6320 0.6320
6.024000 0.6390 0.6510 0.6490 0.6390 0.6360
6.058297 0.6190 0.6030 0.5850 0.5490 0.5370
6.093000 0.4790 0.4420 0.3960 0.3840 0.3040
6.127297 0.2610 0.2410 0.1970 0.1610 0.1440
6.162000 0.1270 0.1070 0.0960 0.0860 0.0760
6.196297 0.0660 0.0660 0.0710 0.0900 0.1050
6.230000 0.1190 0.1300 0.1410 0.1610 0.2020
6.264297 0.2440 0.3310 0.3530 0.4080 0.4300
6.299000 0.4500 0.4650 0.4650 0.4720 0.4710
6.333297 0.4810 0.4860 0.4930 0.4980 0.5030
6.367000 0.5100 0.5280 0.5450 0.5620 0.5740
6.401297 0.5810 0.5880 0.6270 0.6810 0.6880
6.436000 0.6850 0.6850 0.6800 0.6730 0.6510
6.470297 0.6420 0.6020 0.5910 0.5200 0.4790
6.504000 0.3940 0.3550 0.3010 0.2850 0.2190
6.538297 0.2070 0.2070 0.2360 0.2510 0.2630
6.573000 0.3750 0.4110 0.4260 0.4280 0.4550
6.607297 0.5010 0.5490 0.5900 0.6100 0.6630
6.642000 0.6680 0.7000 0.7090 0.7100 0.7090
6.676297 0.7090 0.6980 0.6930 0.6880 0.6700
6.710000 0.6700 0.6680 0.6640 0.6590 0.6540
6.744297 0.6370 0.6030 0.5830 0.5350 0.4810
6.779000 0.4400 0.4080 0.3940 0.3330 0.2900
6.813297 0.2630 0.2380 0.2380 0.2410 0.2610
6.847000 0.2800 0.3580 0.3890 0.3910 0.3890
6.881297 0.3740 0.3580 0.3480 0.2950 0.2630
6.916000 0.2310 0.1980 0.1880 0.1800 0.1800
6.950297 0.2090 0.2560 0.2950 0.3060 0.4380
6.984000 0.4480 0.4480 0.4480 0.4280 0.4260
7.018297 0.3350 0.3120 0.2920 0.2700 0.2680
7.053000 0.2720 0.2940 0.3230 0.3400 0.3840
7.087297 0.4010 0.4140 0.4520 0.5340 0.5710
7.121000 0.5830 0.6000 0.6030 0.6290 0.6390
7.155297 0.6410 0.6470 0.6470 0.6390 0.6370
7.190000 0.6340 0.6250 0.6080 0.5950 0.5810
7.224297 0.5710 0.5560 0.5490 0.5490 0.5540
7.259000 0.5660 0.5780 0.5860 0.5910 0.5960
7.293297 0.5880 0.5690 0.5690 0.5810 0.5880
7.327000 0.6030 0.6170 0.6370 0.6540 0.6730
7.361297 0.6760 0.6710 0.6490 0.6340 0.6190
7.396000 0.5850 0.5110 0.4140 0.4010 0.3870
7.430297 0.3860 0.3840 0.3840 0.3840 0.4040
7.464000 0.4400 0.4880 0.5150 0.5300 0.5440
7.498297 0.5710 0.5850 0.5950 0.6300 0.6540
7.533000 0.6730 0.6850 0.6950 0.7040 0.7140
7.567297 0.7190 0.7210 0.7240 0.7260 0.7270
7.601000 0.7310 0.7360 0.7410 0.7460 0.7500
7.635297 0.7550 0.7580 0.7610 0.7630 0.7670
7.670000 0.7680 0.7700 0.7700 0.7700 0.7700
7.704297 0.7680 0.7680 0.7680 0.7670 0.7580
7.738000 0.7560 0.7550 0.7460 0.7360 0.7290
7.772297 0.7260 0.7240 0.7220 0.7210 0.7190
7.807000 0.7210 0.7320 0.7380 0.7430 0.7500
7.841297 0.7580 0.7670 0.7730 0.7780 0.7800
7.876000 0.7870 0.7890 0.7900 0.7940 0.7970
7.910297 0.7970 0.8010 0.8010 0.8010 0.7990
7.944000 0.7820 0.7630 0.7560 0.7460 0.7190
7.978297 0.6980 0.6880 0.6850 0.6800 0.6800
8.013000 0.6800 0.6880 0.7240 0.7430 0.7580
8.047297 0.7820 0.7870 0.7870 0.7870 0.7840
8.081000 0.7800 0.7700 0.7680 0.7680 0.7630
8.115297 0.7600 0.7550 0.7480 0.7440 0.7310
8.150000 0.7240 0.7150 0.7050 0.6880 0.6700
8.184297 0.6470 0.6270 0.6070 0.5730 0.5450
8.218000 0.5280 0.5150 0.5060 0.5000 0.5000
8.252297 0.5080 0.5350 0.5540 0.5680 0.5930
8.287000 0.6030 0.6070 0.6070 0.6000 0.5860
8.321297 0.5780 0.5540 0.5200 0.5050 0.4650
8.356000 0.4330 0.4180 0.4080 0.4060 0.4090
8.390297 0.4370 0.4740 0.5100 0.5450 0.5780
8.424000 0.6070 0.6750 0.6920 0.7100 0.7290
8.458297 0.7440 0.7550 0.7630 0.7670 0.7670
8.493000 0.7680 0.7680 0.7700 0.7700 0.7700
8.527297 0.7720 0.7720 0.7700 0.7680 0.7670
8.561000 0.7610 0.7550 0.7460 0.7360 0.7220
8.595297 0.7050 0.6810 0.6510 0.6120 0.5850
8.630000 0.5250 0.4940 0.4160 0.3800 0.3550
8.664297 0.2800 0.2460 0.2000 0.1970 0.1970
8.698000 0.2390 0.2530 0.2700 0.3720 0.4400
8.732297 0.4980 0.5450 0.5880 0.6220 0.6510
8.767000 0.6710 0.6880 0.7000 0.7000 0.6980
8.801297 0.6950 0.6900 0.6780 0.6630 0.6440
8.835000 0.6220 0.5950 0.5660 0.5350 0.5000
8.869297 0.4760 0.4720 0.4720 0.4720 0.4790
8.904000 0.5170 0.5790 0.6340 0.6590 0.6950
8.938297 0.7190 0.7390 0.7480 0.7580 0.7580
8.973000 0.7580 0.7580 0.7580 0.7580 0.7580
9.007297 0.7580 0.7600 0.7630 0.7670 0.7680
9.041000 0.7720 0.7730 0.7770 0.7800 0.7820
9.075297 0.7870 0.7870 0.7890 0.7920 0.7940
9.110000 0.7950 0.7970 0.7990 0.7990 0.8010
9.144297 0.8020 0.8020 0.8020 0.8040 0.8040
9.178000 0.8060 0.8060 0.8060 0.8070 0.8060
9.212297 0.8060 0.8060 0.8060 0.8040 0.8020
9.247000 0.7990 0.7970 0.7940 0.7900 0.7870
9.281297 0.7870 0.7850 0.7850 0.7850 0.7870
9.315000 0.7900 0.7940 0.7950 0.7970 0.7970
9.349297 0.7990 0.7990 0.8010 0.8010 0.8010
9.384000 0.8010 0.8020 0.8040 0.8040 0.8060
9.418297 0.8060 0.8060 0.8070 0.8070 0.8060
9.452000 0.8060 0.8070 0.8070 0.8070 0.8070
9.486297 0.8070 0.8090 0.8090 0.8090 0.8090
9.521000 0.8090 0.8070 0.8070 0.8070 0.8070
9.555297 0.8070 0.8070 0.8070 0.8090 0.8110
9.590000 0.8120 0.8140 0.8180 0.8190 0.8190
9.624297 0.8190 0.8190 0.8180 0.8160 0.8090
9.658000 0.8020 0.7970 0.7890 0.7750 0.7500
9.692297 0.7390 0.7270 0.7150 0.7040 0.6950
9.727000 0.6880 0.6750 0.6700 0.6470 0.6410
9.761297 0.6300 0.6290 0.6290 0.6290 0.6390
9.795000 0.6920 0.7320 0.7610 0.7840 0.7950
9.829297 0.8020 0.8060 0.8070 0.8060 0.8070
9.864000 0.8070 0.8090 0.8110 0.8160 0.8240
9.898297 0.8280 0.8310 0.8350 0.8360 0.8380
9.932000 0.8380 0.8380 0.8400 0.8400 0.8410
9.966297 0.8410 0.8430 0.8430 0.8430 0.8430
10.001000 0.8450 0.8460 0.8460 0.8480 0.8480
10.035297 0.8480 0.8480 0.8500 0.8500 0.8520
10.070000 0.8520 0.8520 0.8520 0.8520 0.8520
10.104297 0.8520 0.8520 0.8520 0.8520 0.8520
10.138000 0.8520 0.8520 0.8520 0.8520 0.8500
10.172297 0.8480 0.8460 0.8460 0.8430 0.8400
10.207000 0.8400 0.8360 0.8330 0.8330 0.8310
10.241297 0.8310 0.8310 0.8310 0.8350 0.8350
10.275000 0.8360 0.8400 0.8410 0.8430 0.8450
10.309297 0.8460 0.8460 0.8480 0.8500 0.8500
10.344000 0.8500 0.8520 0.8520 0.8520 0.8520
10.378297 0.8520 0.8500 0.8500 0.8500 0.8500
10.412000 0.8500 0.8480 0.8480 0.8480 0.8460
10.446297 0.8460 0.8460 0.8450 0.8450 0.8450
10.481000 0.8450 0.8450 0.8450 0.8450 0.8450
10.515297 0.8450 0.8450 0.8450 0.8450 0.8450
10.549000 0.8450 0.8450 0.8450 0.8450 0.8450
10.583297 0.8450 0.8450 0.8450 0.8430 0.8400
10.618000 0.8380 0.8360 0.8360 0.8360 0.8360
10.652297 0.8360 0.8360 0.8360 0.8360 0.8360
10.687000 0.8360 0.8360 0.8360 0.8360 0.8350
10.721297 0.8350 0.8350 0.8350 0.8330 0.8330
10.755000 0.8330 0.8310 0.8310 0.8290 0.8290
10.789297 0.8280 0.8260 0.8210 0.8180 0.8160
10.824000 0.8140 0.8140 0.8120 0.8090 0.8070
10.858297 0.8040 0.7990 0.7950 0.7900 0.7890
10.892000 0.7840 0.7800 0.7780 0.7770 0.7720
10.926297 0.7680 0.7630 0.7600 0.7550 0.7510
10.961000 0.7460 0.7360 0.7240 0.7100 0.6900
10.995297 0.6680 0.6420 0.6100 0.5880 0.5730
11.029000 0.5060 0.5000 0.4790 0.4140 0.3910
11.063297 0.3770 0.3740 0.3740 0.3800 0.3960
11.098000 0.4860 0.5250 0.5610 0.5910 0.6200
11.132297 0.6440 0.6640 0.6830 0.7000 0.7140
11.167000 0.7260 0.7360 0.7460 0.7550 0.7610
11.201297 0.7680 0.7750 0.7770 0.7780 0.7780
11.235000 0.7800 0.7800 0.7800 0.7800 0.7780
11.269297 0.7730 0.7700 0.7650 0.7600 0.7600
11.304000 0.7600 0.7670 0.7720 0.7750 0.7840
11.338297 0.7840 0.7900 0.7940 0.7970 0.7990
11.372000 0.7990 0.8020 0.8020 0.8040 0.8040
11.406297 0.8060 0.8060 0.8070 0.8090 0.8090
11.441000 0.8090 0.8090 0.8110 0.8110 0.8110
11.475297 0.8110 0.8120 0.8120 0.8140 0.8140
11.509000 0.8140 0.8140 0.8140 0.8160 0.8160
11.543297 0.8160 0.8140 0.8140 0.8160 0.8160
11.578000 0.8160 0.8160 0.8160 0.8180 0.8180
11.612297 0.8160 0.8140 0.8110 0.8090 0.8070
11.646000 0.8020 0.8010 0.7970 0.7920 0.7850
11.680297 0.7800 0.7720 0.7650 0.7560 0.7440
11.715000 0.7340 0.7270 0.7190 0.7170 0.7150
11.749297 0.7150 0.7170 0.7380 0.7510 0.7580
11.784000 0.7730 0.7800 0.7840 0.7890 0.7900
11.818297 0.7920 0.7940 0.7950 0.7970 0.7970
11.852000 0.7990 0.8010 0.8020 0.8070 0.8090
11.886297 0.8110 0.8110 0.8120 0.8120 0.8120
11.921000 0.8120 0.8120 0.8120 0.8120 0.8120
11.955297 0.8120 0.8120 0.8120 0.8120 0.8120
11.989000 0.8120 0.8120 0.8140 0.8140 0.8140
12.023297 0.8140 0.8140 0.8140 0.8140 0.8160
12.058000 0.8160 0.8140 0.8140 0.8160 0.8160
12.092297 0.8160 0.8160 0.8160 0.8180 0.8160
12.126000 0.8160 0.8160 0.8160 0.8160 0.8180
12.160297 0.8180 0.8180 0.8160 0.8160 0.8160
12.195000 0.8160 0.8160 0.8140 0.8140 0.8140
12.229297 0.8140 0.8120 0.8120 0.8120 0.8120
12.263000 0.8110 0.8110 0.8110 0.8110 0.8090
12.297297 0.8090 0.8070 0.8070 0.8060 0.8040
12.332000 0.8040 0.8020 0.8010 0.8010 0.7990
12.366297 0.7970 0.7970 0.7950 0.7940 0.7940
12.401000 0.7920 0.7900 0.7890 0.7870 0.7850
12.435297 0.7850 0.7840 0.7820 0.7800 0.7770
12.469000 0.7730 0.7700 0.7680 0.7670 0.7630
12.503297 0.7600 0.7580 0.7530 0.7530 0.7480
12.538000 0.7440 0.7390 0.7340 0.7320 0.7270
12.572297 0.7220 0.7140 0.7140 0.7070 0.6980
12.606000 0.6850 0.6750 0.6640 0.6490 0.6420
12.640297 0.6320 0.6150 0.6020 0.5930 0.5810
12.675000 0.5660 0.5590 0.5510 0.5440 0.5370
12.709297 0.5350 0.5350 0.5350 0.5390 0.5440
12.743000 0.5490 0.5520 0.5560 0.5610 0.5680
12.777297 0.5760 0.5810 0.5830 0.5880 0.5900
12.812000 0.5900 0.5900 0.5900 0.5880 0.5860
12.846297 0.5810 0.5730 0.5620 0.5510 0.5370
12.881000 0.5180 0.5050 0.4880 0.4570 0.4300
12.915297 0.4140 0.3890 0.3600 0.3530 0.3190
12.949000 0.3010 0.2850 0.2730 0.2650 0.2550
12.983297 0.2480 0.2410 0.2410 0.2460 0.2510
13.018000 0.2610 0.2730 0.2900 0.3090 0.3140
13.052297 0.3500 0.3630 0.3890 0.4200 0.4300
13.086000 0.4470 0.4620 0.4690 0.4860 0.4960
13.120297 0.4980 0.5010 0.5050 0.5060 0.5110
13.155000 0.5170 0.5220 0.5270 0.5320 0.5370
13.189297 0.5470 0.5570 0.5590 0.5620 0.5660
13.223000 0.5850 0.6020 0.6030 0.6130 0.6240
13.257297 0.6270 0.6300 0.6370 0.6440 0.6510
13.292000 0.6580 0.6630 0.6660 0.6700 0.6760
13.326297 0.6800 0.6810 0.6850 0.6880 0.6930
13.360000 0.6970 0.6980 0.7000 0.7000 0.7020
13.394297 0.7020 0.7040 0.7090 0.7090 0.7090
13.429000 0.7100 0.7100 0.7100 0.7100 0.7100
13.463297 0.7100 0.7090 0.7070 0.7040 0.6980
13.498000 0.6970 0.6900 0.6870 0.6830 0.6760
13.532297 0.6700 0.6680 0.6630 0.6560 0.6490
13.566000 0.6470 0.6460 0.6420 0.6300 0.6300
13.600297 0.6240 0.6220 0.6190 0.6170 0.6150
13.635000 0.6170 0.6190 0.6220 0.6270 0.6360
13.669297 0.6420 0.6470 0.6530 0.6590 0.6660
13.703000 0.6730 0.6780 0.6800 0.6850 0.6850
13.737297 0.6850 0.6850 0.6850 0.6850 0.6850
13.772000 0.6850 0.6830 0.6830 0.6800 0.6780
13.806297 0.6750 0.6750 0.6730 0.6730 0.6710
13.840000 0.6710 0.6700 0.6700 0.6680 0.6680
13.874297 0.6680 0.6660 0.6660 0.6660 0.6660
13.909000 0.6660 0.6640 0.6640 0.6640 0.6630
13.943297 0.6630 0.6610 0.6630 0.6610 0.6590
13.977000 0.6590 0.6580 0.6580 0.6560 0.6560
14.011297 0.6560 0.6540 0.6540 0.6540 0.6530
14.046000 0.6530 0.6510 0.6530 0.6510 0.6510
14.080297 0.6470 0.6490 0.6470 0.6470 0.6460
14.115000 0.6460 0.6440 0.6440 0.6440 0.6440
14.149297 0.6420 0.6410 0.6390 0.6390 0.6370
14.183000 0.6370 0.6360 0.6340 0.6340 0.6320
14.217297 0.6300 0.6290 0.6270 0.6250 0.6250
14.252000 0.6240 0.6200 0.6190 0.6170 0.6170
14.286297 0.6150 0.6130 0.6100 0.6080 0.6080
14.320000 0.6070 0.6050 0.6030 0.6030 0.6000
14.354297 0.6020 0.6020 0.6020 0.6000 0.6000
14.389000 0.6000 0.5980 0.5980 0.5960 0.5930
14.423297 0.5910 0.5910 0.5900 0.5910 0.5900
14.457000 0.5880 0.5880 0.5880 0.5860 0.5850
14.491297 0.5850 0.5830 0.5830 0.5810 0.5790
14.526000 0.5790 0.5790 0.5790 0.5780 0.5760
14.560297 0.5740 0.5740 0.5710 0.5690 0.5680
14.595000 0.5660 0.5660 0.5620 0.5590 0.5570
14.629297 0.5570 0.5560 0.5540 0.5510 0.5490
14.663000 0.5470 0.5450 0.5450 0.5400 0.5400
14.697297 0.5400 0.5350 0.5350 0.5300 0.5300
14.732000 0.5280 0.5270 0.5250 0.5250 0.5250
14.766297 0.5220 0.5220 0.5220 0.5180 0.5170
14.800000 0.5130 0.5130 0.5100 0.5060 0.5060
14.834297 0.5010 0.4980 0.4980 0.4940 0.4910
14.869000 0.4880 0.4880 0.4810 0.4760 0.4670
14.903297 0.4640 0.4540 0.4480 0.4400 0.4370
14.937000 0.4300 0.4200 0.4090 0.4040 0.3920
14.971297 0.3840 0.3740 0.3690 0.3670 0.3460
15.006000 0.3350 0.3210 0.3090 0.3020 0.2950
15.040297 0.2890 0.2820 0.2780 0.2770 0.2730
15.074000 0.2730 0.2750 0.2780 0.2820 0.2850
15.108297 0.2900 0.2970 0.3040 0.3120 0.3210
15.143000 0.3290 0.3380 0.3500 0.3550 0.3630
15.177297 0.3690 0.3740 0.3800 0.3890 0.3960
15.212000 0.4030 0.4060 0.4110 0.4110 0.4180
15.246297 0.4200 0.4230 0.4250 0.4260 0.4300
15.280000 0.4310 0.4310 0.4330 0.4350 0.4350
15.314297 0.4350 0.4350 0.4350 0.4370 0.4370
15.349000 0.4370 0.4370 0.4370 0.4370 0.4370
15.383297 0.4370 0.4370 0.4350 0.4350 0.4350
15.417000 0.4330 0.4330 0.4310 0.4330 0.4310
15.451297 0.4310 0.4300 0.4300 0.4280 0.4260
15.486000 0.4260 0.4260 0.4250 0.4250 0.4230
15.520297 0.4210 0.4210 0.4200 0.4200 0.4180
15.554000 0.4160 0.4160 0.4160 0.4160 0.4160
15.588297 0.4140 0.4130 0.4130 0.4110 0.4080
15.623000 0.4080 0.4060 0.4060 0.4060 0.4040
15.657297 0.4040 0.4040 0.4030 0.4030 0.4010
15.691000 0.4010 0.3990 0.3970 0.3970 0.3960
15.725297 0.3940 0.3940 0.3920 0.3910 0.3910
15.760000 0.3890 0.3890 0.3870 0.3870 0.3870
15.794297 0.3840 0.3840 0.3840 0.3840 0.3820
15.829000 0.3820 0.3820 0.3820 0.3820 0.3820
15.863297 0.3840 0.3840 0.3860 0.3860 0.3860
15.897000 0.3860
##END=
