##TITLE=Aniline, 2-tert-butyl-N-(o-chlorobenzyl)
##JCAMP-DX=4.24
##DATA TYPE=INFRARED SPECTRUM
##CLASS=COBLENTZ III
##ORIGIN=MONSANTO (J. FREEMAN)
##OWNER=Copyright (C) 1987 by the Coblentz Society
Collection (C) 2018 copyright by the U.S. Secretary of Commerce
on behalf of the United States of America. All rights reserved.
##DATE=1959/07/06
##NAMES=N-(2-tert-butylphenyl)-N-(2-chlorobenzyl)amine
2-tert-butyl-N-(2-chlorobenzyl)aniline
##MOLFORM=C17 H20 Cl N
##SOURCE REFERENCE=COBLENTZ NO. 9257
##$NIST ID=B6009257
##$NIST SOURCE=COBLENTZ
##$NIST IMAGE=cob9257
##SPECTROMETER/DATA SYSTEM=BECKMAN IR-4 (HYBRID PRISM-GRATING)
##INSTRUMENT PARAMETERS=NaCl PRISM
##STATE=SOLUTION (CS2)
$$ SEE 9258 FOR NUJOL MULL
##PATH LENGTH=
$$SPECTRAL CONTAMINATION DUE TO CS2 AROUND 2000-2500, 1400-1600 CM^-^1
##SAMPLING PROCEDURE=TRANSMISSION
##RESOLUTION=2
##DATA PROCESSING=DIGITIZED BY COBLENTZ SOCIETY (BATCH II) FROM HARD COPY
##XUNITS=1/CM
##YUNITS=TRANSMITTANCE
##XFACTOR=1.0
##YFACTOR=1
##FIRSTX=626
##LASTX=4000
##FIRSTY=0.8157
##MAXX=4000
##MINX=626
##MAXY=0.9597
##MINY=0
##NPOINTS=3375
##XYDATA=(X++(Y..Y))
626.000000 0.8157 0.8167 0.8173 0.8182 0.8192
631.000000 0.8204 0.8214 0.8225 0.8235 0.8243
636.000000 0.8251 0.8259 0.8262 0.8259 0.8236
641.000000 0.8225 0.8220 0.8233 0.8256 0.8278
646.000000 0.8250 0.8233 0.8236 0.8236 0.8232
651.000000 0.8227 0.8216 0.8205 0.8199 0.8205
656.000000 0.8227 0.8259 0.8309 0.8334 0.8346
661.000000 0.8365 0.8378 0.8388 0.8397 0.8407
666.000000 0.8419 0.8432 0.8447 0.8464 0.8477
671.000000 0.8488 0.8444 0.8393 0.8325 0.8232
676.000000 0.8124 0.8021 0.7940 0.7899 0.7893
681.000000 0.7924 0.7975 0.8052 0.8146 0.8234
686.000000 0.8274 0.8295 0.8311 0.8296 0.8281
691.000000 0.8243 0.8192 0.8132 0.8067 0.8017
696.000000 0.7986 0.7964 0.7942 0.7953 0.7996
701.000000 0.8027 0.8092 0.8186 0.8254 0.8293
706.000000 0.8316 0.8332 0.8347 0.8357 0.8357
711.000000 0.8357 0.8355 0.8351 0.8347 0.8363
716.000000 0.8334 0.8326 0.8313 0.8301 0.8274
721.000000 0.8244 0.8184 0.8119 0.8048 0.7975
726.000000 0.7893 0.7801 0.7707 0.7599 0.7457
731.000000 0.7301 0.7060 0.6788 0.6157 0.5523
736.000000 0.4899 0.4190 0.3483 0.2778 0.2075
741.000000 0.1334 0.1071 0.1021 0.0987 0.0931
746.000000 0.0795 0.0754 0.0755 0.0798 0.1065
751.000000 0.1732 0.2737 0.3688 0.4637 0.6035
756.000000 0.6519 0.6941 0.7372 0.7658 0.7809
761.000000 0.7925 0.8030 0.8113 0.8193 0.8259
766.000000 0.8324 0.8372 0.8414 0.8457 0.8489
771.000000 0.8520 0.8546 0.8559 0.8571 0.8574
776.000000 0.8630 0.8565 0.8550 0.8532 0.8500
781.000000 0.8459 0.8410 0.8360 0.8315 0.8294
786.000000 0.8293 0.8314 0.8350 0.8384 0.8416
791.000000 0.8440 0.8457 0.8473 0.8476 0.8471
796.000000 0.8452 0.8421 0.8389 0.8366 0.8373
801.000000 0.8399 0.8428 0.8443 0.8452 0.8449
806.000000 0.8435 0.8400 0.8344 0.8278 0.8240
811.000000 0.8261 0.8262 0.8337 0.8445 0.8549
816.000000 0.8610 0.8660 0.8703 0.8745 0.8783
821.000000 0.8822 0.8862 0.8882 0.8895 0.8893
826.000000 0.8856 0.8875 0.8859 0.8836 0.8799
831.000000 0.8756 0.8708 0.8654 0.8588 0.8522
836.000000 0.8456 0.8405 0.8363 0.8324 0.8314
841.000000 0.8309 0.8313 0.8321 0.8339 0.8354
846.000000 0.8364 0.8364 0.8346 0.8317 0.8282
851.000000 0.8248 0.8215 0.8206 0.8224 0.8214
856.000000 0.8226 0.8244 0.8272 0.8310 0.8342
861.000000 0.8374 0.8406 0.8433 0.8453 0.8472
866.000000 0.8490 0.8509 0.8524 0.8537 0.8550
871.000000 0.8560 0.8570 0.8579 0.8593 0.8609
876.000000 0.8625 0.8642 0.8665 0.8688 0.8727
881.000000 0.8808 0.8867 0.8926 0.8973 0.9019
886.000000 0.9056 0.9083 0.9109 0.9133 0.9151
891.000000 0.9168 0.9186 0.9203 0.9217 0.9231
896.000000 0.9245 0.9259 0.9274 0.9278 0.9282
901.000000 0.9286 0.9289 0.9293 0.9285 0.9299
906.000000 0.9298 0.9296 0.9294 0.9293 0.9287
911.000000 0.9279 0.9272 0.9264 0.9246 0.9226
916.000000 0.9207 0.9172 0.9127 0.9079 0.9006
921.000000 0.8932 0.8855 0.8767 0.8676 0.8611
926.000000 0.8589 0.8636 0.8675 0.8735 0.8827
931.000000 0.8868 0.8885 0.8891 0.8894 0.8893
936.000000 0.8892 0.8891 0.8890 0.8892 0.8895
941.000000 0.8904 0.8929 0.8960 0.9010 0.9051
946.000000 0.9075 0.9076 0.9072 0.9067 0.9060
951.000000 0.9046 0.9023 0.8996 0.8970 0.8939
956.000000 0.8901 0.8865 0.8829 0.8813 0.8819
961.000000 0.8774 0.8849 0.8887 0.8930 0.8966
966.000000 0.8999 0.9029 0.9051 0.9071 0.9083
971.000000 0.9094 0.9096 0.9098 0.9096 0.9090
976.000000 0.9084 0.9076 0.9064 0.9054 0.9041
981.000000 0.9015 0.8990 0.8970 0.8952 0.8958
986.000000 0.8966 0.9007 0.9037 0.9070 0.9102
991.000000 0.9134 0.9154 0.9172 0.9170 0.9160
996.000000 0.9146 0.9129 0.9111 0.9092 0.9073
1001.000000 0.9052 0.9027 0.9002 0.8984 0.8970
1006.000000 0.8956 0.8947 0.8941 0.8920 0.8874
1011.000000 0.8809 0.8747 0.8705 0.8675 0.8674
1016.000000 0.8681 0.8693 0.8710 0.8715 0.8693
1021.000000 0.8664 0.8630 0.8591 0.8545 0.8493
1026.000000 0.8431 0.8360 0.8178 0.7952 0.7743
1031.000000 0.7392 0.6805 0.6128 0.5452 0.4963
1036.000000 0.4955 0.5129 0.5466 0.5803 0.6124
1041.000000 0.6128 0.5934 0.5624 0.5316 0.5088
1046.000000 0.5230 0.5637 0.6043 0.6203 0.6147
1051.000000 0.6018 0.5889 0.5760 0.5631 0.5565
1056.000000 0.5621 0.6239 0.6922 0.7604 0.7964
1061.000000 0.8074 0.8148 0.8204 0.8250 0.8281
1066.000000 0.8304 0.8328 0.8352 0.8377 0.8413
1071.000000 0.8448 0.8577 0.8709 0.8814 0.8909
1076.000000 0.8983 0.9025 0.9039 0.9052 0.9058
1081.000000 0.9060 0.9061 0.9060 0.9077 0.9047
1086.000000 0.9042 0.9028 0.9007 0.8977 0.8943
1091.000000 0.8893 0.8801 0.8654 0.8508 0.8362
1096.000000 0.8215 0.8070 0.7947 0.7893 0.7885
1101.000000 0.7910 0.7967 0.8080 0.8194 0.8308
1106.000000 0.8421 0.8533 0.8613 0.8661 0.8689
1111.000000 0.8704 0.8708 0.8717 0.8680 0.8653
1116.000000 0.8620 0.8521 0.8419 0.8284 0.8148
1121.000000 0.8045 0.7939 0.7861 0.7825 0.7816
1126.000000 0.7940 0.8037 0.8134 0.8231 0.8328
1131.000000 0.8350 0.8384 0.8334 0.8296 0.8173
1136.000000 0.8046 0.7919 0.7793 0.7666 0.7539
1141.000000 0.7458 0.7460 0.7461 0.7656 0.7815
1146.000000 0.7973 0.8131 0.8289 0.8444 0.8502
1151.000000 0.8499 0.8494 0.8493 0.8493 0.8496
1156.000000 0.8507 0.8525 0.8580 0.8638 0.8652
1161.000000 0.8662 0.8657 0.8617 0.8547 0.8476
1166.000000 0.8406 0.8336 0.8281 0.8285 0.8340
1171.000000 0.8433 0.8525 0.8618 0.8693 0.8754
1176.000000 0.8795 0.8825 0.8838 0.8846 0.8838
1181.000000 0.8818 0.8770 0.8693 0.8608 0.8489
1186.000000 0.8277 0.8064 0.7853 0.7642 0.7464
1191.000000 0.7417 0.7402 0.7404 0.7421 0.7530
1196.000000 0.7648 0.7766 0.7877 0.7955 0.7993
1201.000000 0.8027 0.8055 0.8073 0.8090 0.8108
1206.000000 0.8130 0.8162 0.8214 0.8296 0.8363
1211.000000 0.8396 0.8420 0.8428 0.8429 0.8436
1216.000000 0.8417 0.8402 0.8382 0.8360 0.8337
1221.000000 0.8309 0.8279 0.8240 0.8191 0.8122
1226.000000 0.7860 0.7632 0.7435 0.7238 0.7042
1231.000000 0.6846 0.6651 0.6455 0.6319 0.6312
1236.000000 0.6307 0.6306 0.6457 0.6557 0.6658
1241.000000 0.6749 0.6766 0.6766 0.6747 0.6724
1246.000000 0.6690 0.6642 0.6583 0.6476 0.6275
1251.000000 0.5946 0.5607 0.5270 0.4933 0.4653
1256.000000 0.4535 0.4410 0.4253 0.4104 0.4087
1261.000000 0.4081 0.4057 0.4094 0.4224 0.4635
1266.000000 0.5044 0.5453 0.5862 0.6270 0.6660
1271.000000 0.6899 0.7068 0.7215 0.7308 0.7398
1276.000000 0.7474 0.7545 0.7600 0.7646 0.7684
1281.000000 0.7702 0.7721 0.7737 0.7743 0.7753
1286.000000 0.7727 0.7704 0.7662 0.7590 0.7508
1291.000000 0.7424 0.7340 0.7256 0.7172 0.7105
1296.000000 0.7088 0.7139 0.7199 0.7258 0.7279
1301.000000 0.7258 0.7114 0.6907 0.6701 0.6495
1306.000000 0.6289 0.6084 0.5880 0.5674 0.5470
1311.000000 0.5265 0.5145 0.5084 0.5090 0.5084
1316.000000 0.5149 0.5376 0.5654 0.5931 0.6208
1321.000000 0.6484 0.6760 0.7036 0.7312 0.7672
1326.000000 0.8234 0.8356 0.8434 0.8475 0.8516
1331.000000 0.8556 0.8589 0.8621 0.8652 0.8665
1336.000000 0.8674 0.8683 0.8691 0.8691 0.8680
1341.000000 0.8682 0.8672 0.8658 0.8638 0.8618
1346.000000 0.8588 0.8556 0.8520 0.8481 0.8441
1351.000000 0.8400 0.8359 0.8317 0.8230 0.8035
1356.000000 0.7680 0.7338 0.7078 0.7066 0.7056
1361.000000 0.7046 0.7036 0.6993 0.6871 0.6740
1366.000000 0.6608 0.6477 0.6383 0.6372 0.6367
1371.000000 0.6818 0.7117 0.7416 0.7714 0.8012
1376.000000 0.8229 0.8261 0.8281 0.8290 0.8297
1381.000000 0.8295 0.8265 0.8281 0.8268 0.8247
1386.000000 0.8182 0.8078 0.7954 0.7822 0.7691
1391.000000 0.7559 0.7427 0.7296 0.7164 0.7033
1396.000000 0.6902 0.6789 0.6756 0.6763 0.6827
1401.000000 0.6907 0.6988 0.7062 0.7062 0.7051
1406.000000 0.7038 0.7018 0.6994 0.6961 0.6910
1411.000000 0.6848 0.6763 0.6660 0.6552 0.6456
1416.000000 0.6364 0.6275 0.6189 0.6085 0.5984
1421.000000 0.5758 0.5420 0.5200 0.4826 0.4611
1426.000000 0.4415 0.4221 0.4028 0.3835 0.3642
1431.000000 0.3449 0.3257 0.3065 0.2874 0.2682
1436.000000 0.2491 0.2300 0.2110 0.1918 0.1595
1441.000000 0.1269 0.1074 0.0923 0.0816 0.0600
1446.000000 0.0516 0.0481 0.0454 0.0437 0.0421
1451.000000 0.0403 0.0384 0.0364 0.0333 0.0294
1456.000000 0.0257 0.0197 0.0125 0.0052 0.0006
1461.000000 0.0000 0.0001 0.0001 0.0001 0.0001
1466.000000 0.0001 0.0001 0.0001 0.0001 0.0001
1471.000000 0.0001 0.0001 0.0001 0.0001 0.0001
1476.000000 0.0001 0.0001 0.0001 0.0001 0.0001
1481.000000 0.0001 0.0001 0.0001 0.0001 0.0001
1486.000000 0.0001 0.0001 0.0001 0.0001 0.0001
1491.000000 0.0001 0.0001 0.0001 0.0001 0.0001
1496.000000 0.0001 0.0001 0.0001 0.0001 0.0001
1501.000000 0.0001 0.0001 0.0001 0.0001 0.0001
1506.000000 0.0001 0.0001 0.0001 0.0001 0.0001
1511.000000 0.0001 0.0001 0.0001 0.0001 0.0001
1516.000000 0.0001 0.0001 0.0001 0.0001 0.0001
1521.000000 0.0001 0.0001 0.0001 0.0001 0.0001
1526.000000 0.0001 0.0001 0.0001 0.0001 0.0001
1531.000000 0.0001 0.0001 0.0001 0.0001 0.0001
1536.000000 0.0001 0.0001 0.0001 0.0001 0.0001
1541.000000 0.0001 0.0001 0.0001 0.0001 0.0001
1546.000000 0.0001 0.0001 0.0001 0.0001 0.0001
1551.000000 0.0001 0.0001 0.0001 0.0001 0.0001
1556.000000 0.0001 0.0001 0.0001 0.0001 0.0016
1561.000000 0.0066 0.0130 0.0195 0.0259 0.0324
1566.000000 0.0407 0.0531 0.0693 0.0826 0.0920
1571.000000 0.1001 0.1068 0.1128 0.1186 0.1630
1576.000000 0.1917 0.2063 0.2205 0.2343 0.2480
1581.000000 0.2618 0.2755 0.2892 0.3029 0.3165
1586.000000 0.3301 0.3438 0.3574 0.3710 0.3847
1591.000000 0.3894 0.3897 0.3888 0.3849 0.3796
1596.000000 0.3743 0.3690 0.3637 0.3608 0.3605
1601.000000 0.3624 0.3816 0.4189 0.4587 0.4909
1606.000000 0.5055 0.5288 0.5627 0.5913 0.6198
1611.000000 0.6483 0.6767 0.7033 0.7132 0.7179
1616.000000 0.7226 0.7370 0.7539 0.7625 0.7699
1621.000000 0.7799 0.7914 0.8037 0.8166 0.8262
1626.000000 0.8327 0.8389 0.8446 0.8494 0.8541
1631.000000 0.8589 0.8634 0.8664 0.8695 0.8725
1636.000000 0.8756 0.8786 0.8810 0.8831 0.8852
1641.000000 0.8872 0.8893 0.8910 0.8920 0.8927
1646.000000 0.8934 0.8941 0.8950 0.8967 0.8987
1651.000000 0.9010 0.9034 0.9057 0.9078 0.9096
1656.000000 0.9112 0.9128 0.9143 0.9153 0.9160
1661.000000 0.9168 0.9175 0.9180 0.9184 0.9187
1666.000000 0.9190 0.9194 0.9197 0.9201 0.9203
1671.000000 0.9208 0.9212 0.9217 0.9221 0.9226
1676.000000 0.9230 0.9235 0.9239 0.9244 0.9249
1681.000000 0.9253 0.9258 0.9262 0.9266 0.9270
1686.000000 0.9275 0.9279 0.9286 0.9293 0.9299
1691.000000 0.9306 0.9313 0.9320 0.9327 0.9334
1696.000000 0.9341 0.9349 0.9356 0.9363 0.9371
1701.000000 0.9379 0.9387 0.9395 0.9402 0.9410
1706.000000 0.9418 0.9427 0.9435 0.9443 0.9452
1711.000000 0.9459 0.9468 0.9475 0.9480 0.9484
1716.000000 0.9487 0.9490 0.9494 0.9497 0.9501
1721.000000 0.9503 0.9505 0.9506 0.9506 0.9507
1726.000000 0.9508 0.9509 0.9510 0.9511 0.9511
1731.000000 0.9512 0.9513 0.9514 0.9513 0.9513
1736.000000 0.9513 0.9512 0.9512 0.9511 0.9511
1741.000000 0.9511 0.9511 0.9510 0.9510 0.9509
1746.000000 0.9508 0.9508 0.9506 0.9504 0.9502
1751.000000 0.9500 0.9498 0.9497 0.9495 0.9494
1756.000000 0.9492 0.9490 0.9489 0.9487 0.9485
1761.000000 0.9484 0.9483 0.9483 0.9482 0.9482
1766.000000 0.9482 0.9481 0.9481 0.9481 0.9480
1771.000000 0.9479 0.9479 0.9479 0.9478 0.9477
1776.000000 0.9476 0.9475 0.9475 0.9472 0.9468
1781.000000 0.9465 0.9462 0.9459 0.9456 0.9453
1786.000000 0.9450 0.9447 0.9445 0.9443 0.9440
1791.000000 0.9437 0.9435 0.9432 0.9432 0.9433
1796.000000 0.9437 0.9440 0.9446 0.9454 0.9462
1801.000000 0.9470 0.9478 0.9486 0.9494 0.9498
1806.000000 0.9500 0.9502 0.9504 0.9507 0.9507
1811.000000 0.9508 0.9508 0.9508 0.9508 0.9507
1816.000000 0.9507 0.9507 0.9507 0.9506 0.9505
1821.000000 0.9504 0.9503 0.9501 0.9500 0.9498
1826.000000 0.9498 0.9496 0.9495 0.9493 0.9492
1831.000000 0.9490 0.9489 0.9487 0.9487 0.9487
1836.000000 0.9488 0.9489 0.9489 0.9489 0.9490
1841.000000 0.9491 0.9491 0.9491 0.9492 0.9492
1846.000000 0.9492 0.9492 0.9492 0.9492 0.9492
1851.000000 0.9491 0.9491 0.9491 0.9491 0.9491
1856.000000 0.9491 0.9491 0.9490 0.9488 0.9484
1861.000000 0.9480 0.9475 0.9470 0.9466 0.9461
1866.000000 0.9457 0.9453 0.9446 0.9439 0.9432
1871.000000 0.9425 0.9418 0.9411 0.9404 0.9398
1876.000000 0.9392 0.9387 0.9386 0.9384 0.9382
1881.000000 0.9380 0.9383 0.9388 0.9394 0.9400
1886.000000 0.9406 0.9412 0.9417 0.9423 0.9429
1891.000000 0.9435 0.9437 0.9438 0.9438 0.9436
1896.000000 0.9431 0.9425 0.9420 0.9414 0.9409
1901.000000 0.9402 0.9394 0.9385 0.9376 0.9367
1906.000000 0.9358 0.9349 0.9341 0.9333 0.9325
1911.000000 0.9317 0.9310 0.9305 0.9305 0.9306
1916.000000 0.9309 0.9315 0.9325 0.9337 0.9348
1921.000000 0.9366 0.9387 0.9413 0.9443 0.9466
1926.000000 0.9477 0.9488 0.9497 0.9504 0.9505
1931.000000 0.9506 0.9507 0.9506 0.9504 0.9502
1936.000000 0.9500 0.9498 0.9495 0.9492 0.9488
1941.000000 0.9484 0.9480 0.9476 0.9472 0.9468
1946.000000 0.9464 0.9460 0.9462 0.9465 0.9468
1951.000000 0.9472 0.9475 0.9479 0.9482 0.9486
1956.000000 0.9490 0.9495 0.9501 0.9506 0.9511
1961.000000 0.9517 0.9522 0.9527 0.9533 0.9537
1966.000000 0.9541 0.9546 0.9550 0.9554 0.9558
1971.000000 0.9560 0.9561 0.9562 0.9564 0.9565
1976.000000 0.9566 0.9567 0.9569 0.9569 0.9570
1981.000000 0.9572 0.9573 0.9574 0.9575 0.9576
1986.000000 0.9577 0.9578 0.9579 0.9580 0.9581
1991.000000 0.9582 0.9582 0.9584 0.9585 0.9585
1996.000000 0.9586 0.9588 0.9588 0.9589 0.9591
2001.000000 0.9591 0.9592 0.9593 0.9594 0.9595
2006.000000 0.9596 0.9597 0.9597 0.9597 0.9597
2011.000000 0.9597 0.9596 0.9596 0.9596 0.9596
2016.000000 0.9596 0.9596 0.9596 0.9596 0.9596
2021.000000 0.9596 0.9596 0.9596 0.9596 0.9596
2026.000000 0.9595 0.9594 0.9593 0.9592 0.9591
2031.000000 0.9590 0.9589 0.9588 0.9587 0.9586
2036.000000 0.9584 0.9584 0.9583 0.9582 0.9580
2041.000000 0.9579 0.9578 0.9577 0.9577 0.9574
2046.000000 0.9572 0.9570 0.9568 0.9566 0.9564
2051.000000 0.9561 0.9559 0.9557 0.9555 0.9553
2056.000000 0.9550 0.9546 0.9541 0.9534 0.9528
2061.000000 0.9523 0.9516 0.9510 0.9504 0.9498
2066.000000 0.9491 0.9485 0.9479 0.9471 0.9461
2071.000000 0.9450 0.9439 0.9428 0.9417 0.9406
2076.000000 0.9395 0.9384 0.9373 0.9355 0.9335
2081.000000 0.9312 0.9288 0.9264 0.9240 0.9215
2086.000000 0.9190 0.9163 0.9128 0.9093 0.9059
2091.000000 0.9031 0.9007 0.8982 0.8957 0.8932
2096.000000 0.8904 0.8870 0.8830 0.8788 0.8745
2101.000000 0.8702 0.8661 0.8620 0.8580 0.8541
2106.000000 0.8501 0.8462 0.8419 0.8321 0.8211
2111.000000 0.8071 0.7925 0.7774 0.7624 0.7474
2116.000000 0.7325 0.7175 0.7025 0.6875 0.6726
2121.000000 0.6577 0.6428 0.6272 0.6112 0.5775
2126.000000 0.5449 0.5232 0.5016 0.4800 0.4583
2131.000000 0.4367 0.4152 0.3937 0.3722 0.3507
2136.000000 0.3292 0.3077 0.2863 0.2649 0.2435
2141.000000 0.2222 0.2008 0.1794 0.1581 0.1416
2146.000000 0.1266 0.1236 0.1208 0.1185 0.1167
2151.000000 0.1157 0.1148 0.1141 0.1135 0.1129
2156.000000 0.1129 0.1129 0.1130 0.1130 0.1134
2161.000000 0.1150 0.1201 0.1291 0.1447 0.1603
2166.000000 0.1758 0.1913 0.2069 0.2224 0.2379
2171.000000 0.2533 0.2688 0.2842 0.2997 0.3151
2176.000000 0.3305 0.3459 0.3613 0.3766 0.3920
2181.000000 0.4073 0.4226 0.4379 0.4532 0.4685
2186.000000 0.4837 0.4990 0.5142 0.5294 0.5446
2191.000000 0.5598 0.5750 0.5902 0.6053 0.6204
2196.000000 0.6356 0.6507 0.6658 0.6808 0.6959
2201.000000 0.7110 0.7261 0.7480 0.7823 0.8082
2206.000000 0.8223 0.8330 0.8396 0.8457 0.8512
2211.000000 0.8565 0.8618 0.8662 0.8701 0.8740
2216.000000 0.8779 0.8818 0.8857 0.8895 0.8934
2221.000000 0.8972 0.9011 0.9049 0.9088 0.9123
2226.000000 0.9156 0.9181 0.9203 0.9225 0.9246
2231.000000 0.9261 0.9275 0.9281 0.9284 0.9288
2236.000000 0.9291 0.9295 0.9298 0.9302 0.9305
2241.000000 0.9308 0.9311 0.9311 0.9311 0.9310
2246.000000 0.9310 0.9309 0.9309 0.9306 0.9303
2251.000000 0.9300 0.9297 0.9293 0.9289 0.9284
2256.000000 0.9278 0.9273 0.9267 0.9262 0.9257
2261.000000 0.9250 0.9242 0.9234 0.9225 0.9216
2266.000000 0.9206 0.9195 0.9184 0.9172 0.9160
2271.000000 0.9145 0.9124 0.9103 0.9078 0.9052
2276.000000 0.9020 0.8983 0.8922 0.8860 0.8777
2281.000000 0.8694 0.8612 0.8529 0.8447 0.8365
2286.000000 0.8283 0.8201 0.8119 0.8036 0.7954
2291.000000 0.7872 0.7791 0.7710 0.7628 0.7546
2296.000000 0.7465 0.7383 0.7302 0.7220 0.7139
2301.000000 0.7058 0.6977 0.6907 0.6839 0.6830
2306.000000 0.6832 0.6835 0.6837 0.6845 0.6856
2311.000000 0.6871 0.6889 0.6910 0.6940 0.6969
2316.000000 0.6993 0.7017 0.7030 0.7043 0.7056
2321.000000 0.7069 0.7081 0.7093 0.7103 0.7114
2326.000000 0.7124 0.7134 0.7144 0.7152 0.7161
2331.000000 0.7169 0.7177 0.7185 0.7192 0.7200
2336.000000 0.7208 0.7216 0.7223 0.7230 0.7236
2341.000000 0.7243 0.7250 0.7256 0.7263 0.7269
2346.000000 0.7275 0.7282 0.7287 0.7292 0.7297
2351.000000 0.7302 0.7307 0.7312 0.7316 0.7321
2356.000000 0.7326 0.7331 0.7336 0.7341 0.7347
2361.000000 0.7352 0.7357 0.7363 0.7370 0.7377
2366.000000 0.7387 0.7398 0.7420 0.7450 0.7505
2371.000000 0.7612 0.7718 0.7825 0.7931 0.8038
2376.000000 0.8144 0.8250 0.8357 0.8463 0.8569
2381.000000 0.8675 0.8780 0.8885 0.8991 0.9096
2386.000000 0.9188 0.9266 0.9332 0.9354 0.9377
2391.000000 0.9413 0.9450 0.9468 0.9476 0.9484
2396.000000 0.9491 0.9498 0.9501 0.9505 0.9507
2401.000000 0.9509 0.9511 0.9512 0.9513 0.9514
2406.000000 0.9515 0.9516 0.9516 0.9517 0.9517
2411.000000 0.9518 0.9518 0.9518 0.9519 0.9519
2416.000000 0.9520 0.9520 0.9520 0.9520 0.9520
2421.000000 0.9521 0.9521 0.9521 0.9521 0.9521
2426.000000 0.9521 0.9521 0.9520 0.9520 0.9520
2431.000000 0.9520 0.9519 0.9519 0.9519 0.9519
2436.000000 0.9519 0.9518 0.9518 0.9518 0.9518
2441.000000 0.9518 0.9517 0.9517 0.9517 0.9517
2446.000000 0.9517 0.9516 0.9516 0.9516 0.9516
2451.000000 0.9515 0.9515 0.9515 0.9515 0.9515
2456.000000 0.9515 0.9515 0.9515 0.9514 0.9514
2461.000000 0.9514 0.9514 0.9514 0.9514 0.9514
2466.000000 0.9513 0.9513 0.9513 0.9513 0.9513
2471.000000 0.9513 0.9513 0.9512 0.9512 0.9512
2476.000000 0.9511 0.9511 0.9510 0.9510 0.9510
2481.000000 0.9509 0.9509 0.9508 0.9508 0.9508
2486.000000 0.9507 0.9507 0.9506 0.9506 0.9506
2491.000000 0.9505 0.9505 0.9504 0.9504 0.9504
2496.000000 0.9503 0.9503 0.9502 0.9502 0.9502
2501.000000 0.9501 0.9501 0.9500 0.9500 0.9500
2506.000000 0.9499 0.9499 0.9498 0.9497 0.9497
2511.000000 0.9496 0.9496 0.9495 0.9495 0.9495
2516.000000 0.9494 0.9494 0.9493 0.9493 0.9493
2521.000000 0.9492 0.9492 0.9491 0.9491 0.9491
2526.000000 0.9491 0.9491 0.9491 0.9491 0.9491
2531.000000 0.9491 0.9491 0.9491 0.9491 0.9491
2536.000000 0.9491 0.9491 0.9491 0.9491 0.9491
2541.000000 0.9491 0.9491 0.9491 0.9491 0.9491
2546.000000 0.9491 0.9491 0.9491 0.9491 0.9491
2551.000000 0.9491 0.9491 0.9491 0.9491 0.9491
2556.000000 0.9491 0.9491 0.9491 0.9491 0.9491
2561.000000 0.9491 0.9491 0.9491 0.9491 0.9491
2566.000000 0.9491 0.9490 0.9490 0.9490 0.9489
2571.000000 0.9489 0.9489 0.9488 0.9487 0.9486
2576.000000 0.9486 0.9486 0.9485 0.9485 0.9484
2581.000000 0.9484 0.9483 0.9482 0.9482 0.9482
2586.000000 0.9481 0.9480 0.9479 0.9479 0.9479
2591.000000 0.9478 0.9478 0.9477 0.9476 0.9476
2596.000000 0.9476 0.9475 0.9474 0.9473 0.9473
2601.000000 0.9473 0.9472 0.9471 0.9471 0.9470
2606.000000 0.9470 0.9469 0.9469 0.9468 0.9467
2611.000000 0.9467 0.9467 0.9466 0.9465 0.9465
2616.000000 0.9464 0.9464 0.9463 0.9463 0.9462
2621.000000 0.9461 0.9461 0.9461 0.9460 0.9459
2626.000000 0.9459 0.9458 0.9457 0.9456 0.9456
2631.000000 0.9455 0.9454 0.9454 0.9454 0.9453
2636.000000 0.9452 0.9452 0.9451 0.9450 0.9449
2641.000000 0.9449 0.9448 0.9447 0.9447 0.9447
2646.000000 0.9446 0.9445 0.9445 0.9444 0.9443
2651.000000 0.9443 0.9442 0.9441 0.9440 0.9440
2656.000000 0.9440 0.9439 0.9439 0.9438 0.9437
2661.000000 0.9436 0.9436 0.9435 0.9434 0.9434
2666.000000 0.9433 0.9432 0.9432 0.9431 0.9430
2671.000000 0.9429 0.9428 0.9427 0.9426 0.9426
2676.000000 0.9425 0.9424 0.9423 0.9422 0.9421
2681.000000 0.9420 0.9420 0.9419 0.9418 0.9417
2686.000000 0.9416 0.9415 0.9415 0.9414 0.9413
2691.000000 0.9412 0.9411 0.9410 0.9409 0.9408
2696.000000 0.9407 0.9406 0.9406 0.9405 0.9404
2701.000000 0.9403 0.9402 0.9401 0.9401 0.9400
2706.000000 0.9399 0.9398 0.9396 0.9395 0.9394
2711.000000 0.9392 0.9391 0.9390 0.9389 0.9388
2716.000000 0.9386 0.9385 0.9384 0.9383 0.9382
2721.000000 0.9381 0.9379 0.9378 0.9377 0.9376
2726.000000 0.9375 0.9374 0.9372 0.9371 0.9370
2731.000000 0.9369 0.9368 0.9366 0.9365 0.9364
2736.000000 0.9362 0.9361 0.9359 0.9357 0.9354
2741.000000 0.9352 0.9350 0.9347 0.9345 0.9343
2746.000000 0.9340 0.9338 0.9336 0.9333 0.9331
2751.000000 0.9329 0.9326 0.9323 0.9318 0.9312
2756.000000 0.9307 0.9301 0.9295 0.9289 0.9283
2761.000000 0.9277 0.9271 0.9265 0.9259 0.9253
2766.000000 0.9247 0.9241 0.9235 0.9228 0.9222
2771.000000 0.9215 0.9207 0.9197 0.9186 0.9177
2776.000000 0.9167 0.9157 0.9147 0.9137 0.9127
2781.000000 0.9117 0.9107 0.9097 0.9087 0.9077
2786.000000 0.9067 0.9056 0.9046 0.9035 0.9024
2791.000000 0.9014 0.9004 0.8994 0.8984 0.8974
2796.000000 0.8964 0.8956 0.8951 0.8945 0.8941
2801.000000 0.8938 0.8935 0.8933 0.8931 0.8929
2806.000000 0.8927 0.8925 0.8923 0.8921 0.8920
2811.000000 0.8918 0.8916 0.8912 0.8908 0.8905
2816.000000 0.8900 0.8894 0.8889 0.8883 0.8877
2821.000000 0.8870 0.8861 0.8849 0.8837 0.8824
2826.000000 0.8810 0.8796 0.8781 0.8765 0.8749
2831.000000 0.8733 0.8712 0.8690 0.8669 0.8645
2836.000000 0.8621 0.8596 0.8566 0.8522 0.8478
2841.000000 0.8433 0.8387 0.8341 0.8295 0.8248
2846.000000 0.8202 0.8155 0.8095 0.8026 0.7957
2851.000000 0.7887 0.7816 0.7744 0.7673 0.7602
2856.000000 0.7531 0.7460 0.7389 0.7318 0.7247
2861.000000 0.7191 0.7145 0.7100 0.7063 0.7047
2866.000000 0.7030 0.7013 0.6996 0.6979 0.6962
2871.000000 0.6949 0.6938 0.6926 0.6916 0.6906
2876.000000 0.6897 0.6888 0.6879 0.6870 0.6861
2881.000000 0.6851 0.6840 0.6830 0.6819 0.6809
2886.000000 0.6798 0.6787 0.6774 0.6761 0.6748
2891.000000 0.6733 0.6718 0.6702 0.6678 0.6645
2896.000000 0.6611 0.6579 0.6555 0.6532 0.6509
2901.000000 0.6495 0.6484 0.6472 0.6461 0.6450
2906.000000 0.6439 0.6428 0.6417 0.6406 0.6395
2911.000000 0.6385 0.6374 0.6363 0.6354 0.6347
2916.000000 0.6340 0.6333 0.6326 0.6319 0.6312
2921.000000 0.6304 0.6292 0.6281 0.6269 0.6209
2926.000000 0.6149 0.6089 0.6025 0.5959 0.5892
2931.000000 0.5825 0.5759 0.5692 0.5626 0.5559
2936.000000 0.5493 0.5427 0.5361 0.5295 0.5228
2941.000000 0.5162 0.5096 0.5030 0.4964 0.4898
2946.000000 0.4832 0.4766 0.4700 0.4634 0.4568
2951.000000 0.4503 0.4437 0.4371 0.4306 0.4240
2956.000000 0.4222 0.4209 0.4195 0.4162 0.4194
2961.000000 0.4199 0.4203 0.4308 0.4421 0.4535
2966.000000 0.4649 0.4763 0.4876 0.4990 0.5103
2971.000000 0.5216 0.5330 0.5443 0.5556 0.5669
2976.000000 0.5782 0.5895 0.6007 0.6120 0.6232
2981.000000 0.6345 0.6457 0.6569 0.6682 0.6794
2986.000000 0.6906 0.7018 0.7130 0.7242 0.7354
2991.000000 0.7466 0.7578 0.7689 0.7801 0.7912
2996.000000 0.8023 0.8135 0.8212 0.8240 0.8267
3001.000000 0.8294 0.8298 0.8297 0.8296 0.8294
3006.000000 0.8293 0.8291 0.8289 0.8316 0.8286
3011.000000 0.8285 0.8284 0.8281 0.8279 0.8276
3016.000000 0.8274 0.8271 0.8269 0.8266 0.8263
3021.000000 0.8260 0.8256 0.8252 0.8248 0.8244
3026.000000 0.8240 0.8234 0.8226 0.8218 0.8209
3031.000000 0.8193 0.8174 0.8155 0.8136 0.8117
3036.000000 0.8098 0.8078 0.8059 0.8040 0.8021
3041.000000 0.8001 0.7982 0.7963 0.7944 0.7925
3046.000000 0.7906 0.7887 0.7867 0.7848 0.7829
3051.000000 0.7810 0.7791 0.7772 0.7753 0.7735
3056.000000 0.7716 0.7706 0.7699 0.7692 0.7685
3061.000000 0.7685 0.7686 0.7686 0.7687 0.7687
3066.000000 0.7687 0.7687 0.7675 0.7744 0.7782
3071.000000 0.7819 0.7887 0.7965 0.8044 0.8122
3076.000000 0.8200 0.8278 0.8357 0.8433 0.8502
3081.000000 0.8571 0.8640 0.8692 0.8717 0.8743
3086.000000 0.8768 0.8788 0.8803 0.8819 0.8835
3091.000000 0.8855 0.8875 0.8896 0.8917 0.8937
3096.000000 0.8956 0.8975 0.8994 0.9004 0.9015
3101.000000 0.9026 0.9036 0.9047 0.9058 0.9068
3106.000000 0.9079 0.9089 0.9100 0.9111 0.9120
3111.000000 0.9127 0.9135 0.9142 0.9150 0.9157
3116.000000 0.9165 0.9173 0.9180 0.9188 0.9195
3121.000000 0.9203 0.9209 0.9214 0.9220 0.9226
3126.000000 0.9231 0.9236 0.9241 0.9246 0.9251
3131.000000 0.9256 0.9261 0.9266 0.9270 0.9274
3136.000000 0.9278 0.9282 0.9284 0.9287 0.9289
3141.000000 0.9291 0.9293 0.9296 0.9298 0.9300
3146.000000 0.9303 0.9305 0.9307 0.9309 0.9312
3151.000000 0.9314 0.9316 0.9318 0.9321 0.9323
3156.000000 0.9325 0.9327 0.9329 0.9331 0.9333
3161.000000 0.9334 0.9336 0.9337 0.9339 0.9340
3166.000000 0.9342 0.9343 0.9345 0.9346 0.9348
3171.000000 0.9349 0.9351 0.9352 0.9354 0.9355
3176.000000 0.9357 0.9358 0.9360 0.9361 0.9363
3181.000000 0.9364 0.9365 0.9367 0.9368 0.9370
3186.000000 0.9371 0.9373 0.9374 0.9376 0.9377
3191.000000 0.9378 0.9379 0.9380 0.9380 0.9381
3196.000000 0.9381 0.9382 0.9382 0.9382 0.9382
3201.000000 0.9382 0.9383 0.9383 0.9384 0.9384
3206.000000 0.9385 0.9385 0.9386 0.9386 0.9387
3211.000000 0.9387 0.9387 0.9387 0.9388 0.9388
3216.000000 0.9389 0.9389 0.9390 0.9390 0.9391
3221.000000 0.9391 0.9392 0.9392 0.9393 0.9393
3226.000000 0.9409 0.9394 0.9394 0.9394 0.9395
3231.000000 0.9395 0.9395 0.9395 0.9395 0.9395
3236.000000 0.9395 0.9395 0.9395 0.9396 0.9396
3241.000000 0.9396 0.9396 0.9396 0.9396 0.9396
3246.000000 0.9396 0.9396 0.9396 0.9396 0.9396
3251.000000 0.9396 0.9396 0.9396 0.9396 0.9396
3256.000000 0.9396 0.9396 0.9396 0.9396 0.9397
3261.000000 0.9397 0.9397 0.9397 0.9397 0.9397
3266.000000 0.9397 0.9397 0.9397 0.9397 0.9397
3271.000000 0.9397 0.9397 0.9397 0.9397 0.9397
3276.000000 0.9397 0.9397 0.9397 0.9397 0.9397
3281.000000 0.9396 0.9396 0.9396 0.9396 0.9396
3286.000000 0.9396 0.9396 0.9396 0.9396 0.9395
3291.000000 0.9395 0.9395 0.9395 0.9395 0.9395
3296.000000 0.9395 0.9395 0.9395 0.9395 0.9395
3301.000000 0.9395 0.9395 0.9394 0.9394 0.9394
3306.000000 0.9394 0.9394 0.9394 0.9394 0.9394
3311.000000 0.9394 0.9393 0.9393 0.9393 0.9393
3316.000000 0.9393 0.9393 0.9393 0.9393 0.9393
3321.000000 0.9392 0.9392 0.9392 0.9392 0.9391
3326.000000 0.9390 0.9389 0.9388 0.9387 0.9387
3331.000000 0.9386 0.9385 0.9384 0.9383 0.9382
3336.000000 0.9381 0.9380 0.9379 0.9378 0.9378
3341.000000 0.9377 0.9376 0.9375 0.9374 0.9373
3346.000000 0.9372 0.9371 0.9370 0.9369 0.9369
3351.000000 0.9368 0.9367 0.9366 0.9365 0.9364
3356.000000 0.9363 0.9362 0.9360 0.9359 0.9358
3361.000000 0.9356 0.9354 0.9352 0.9350 0.9348
3366.000000 0.9346 0.9344 0.9341 0.9339 0.9337
3371.000000 0.9335 0.9333 0.9331 0.9329 0.9327
3376.000000 0.9325 0.9323 0.9320 0.9318 0.9315
3381.000000 0.9313 0.9310 0.9307 0.9302 0.9298
3386.000000 0.9293 0.9288 0.9283 0.9279 0.9274
3391.000000 0.9270 0.9265 0.9260 0.9256 0.9251
3396.000000 0.9246 0.9241 0.9235 0.9229 0.9223
3401.000000 0.9218 0.9211 0.9205 0.9198 0.9192
3406.000000 0.9185 0.9179 0.9173 0.9167 0.9161
3411.000000 0.9153 0.9143 0.9133 0.9123 0.9113
3416.000000 0.9102 0.9091 0.9080 0.9069 0.9058
3421.000000 0.9042 0.9026 0.9010 0.8994 0.8977
3426.000000 0.8957 0.8937 0.8917 0.8898 0.8878
3431.000000 0.8858 0.8838 0.8819 0.8799 0.8779
3436.000000 0.8759 0.8740 0.8720 0.8700 0.8681
3441.000000 0.8661 0.8641 0.8622 0.8602 0.8583
3446.000000 0.8563 0.8543 0.8524 0.8504 0.8485
3451.000000 0.8465 0.8446 0.8426 0.8407 0.8387
3456.000000 0.8368 0.8348 0.8329 0.8309 0.8290
3461.000000 0.8271 0.8251 0.8232 0.8212 0.8193
3466.000000 0.8174 0.8154 0.8135 0.8116 0.8096
3471.000000 0.8077 0.8058 0.8045 0.8035 0.8025
3476.000000 0.8014 0.8004 0.8006 0.8005 0.8006
3481.000000 0.8007 0.8008 0.8008 0.8009 0.8009
3486.000000 0.8010 0.8014 0.8026 0.8038 0.8050
3491.000000 0.8062 0.8083 0.8120 0.8157 0.8193
3496.000000 0.8230 0.8267 0.8303 0.8340 0.8376
3501.000000 0.8413 0.8449 0.8486 0.8523 0.8559
3506.000000 0.8596 0.8633 0.8669 0.8705 0.8742
3511.000000 0.8778 0.8814 0.8850 0.8887 0.8923
3516.000000 0.8959 0.8989 0.9018 0.9047 0.9076
3521.000000 0.9105 0.9116 0.9125 0.9133 0.9142
3526.000000 0.9151 0.9159 0.9167 0.9175 0.9183
3531.000000 0.9191 0.9196 0.9201 0.9206 0.9210
3536.000000 0.9215 0.9219 0.9224 0.9228 0.9232
3541.000000 0.9236 0.9240 0.9245 0.9249 0.9253
3546.000000 0.9257 0.9261 0.9264 0.9268 0.9271
3551.000000 0.9275 0.9278 0.9280 0.9282 0.9285
3556.000000 0.9287 0.9290 0.9292 0.9295 0.9297
3561.000000 0.9300 0.9302 0.9305 0.9307 0.9309
3566.000000 0.9312 0.9314 0.9317 0.9319 0.9322
3571.000000 0.9324 0.9327 0.9329 0.9332 0.9334
3576.000000 0.9336 0.9338 0.9340 0.9342 0.9344
3581.000000 0.9346 0.9348 0.9350 0.9353 0.9355
3586.000000 0.9357 0.9359 0.9361 0.9363 0.9365
3591.000000 0.9367 0.9369 0.9371 0.9373 0.9375
3596.000000 0.9377 0.9379 0.9381 0.9383 0.9384
3601.000000 0.9386 0.9388 0.9390 0.9391 0.9393
3606.000000 0.9394 0.9396 0.9397 0.9399 0.9400
3611.000000 0.9402 0.9403 0.9405 0.9406 0.9408
3616.000000 0.9409 0.9410 0.9412 0.9413 0.9415
3621.000000 0.9416 0.9418 0.9419 0.9421 0.9422
3626.000000 0.9424 0.9425 0.9427 0.9428 0.9430
3631.000000 0.9431 0.9432 0.9434 0.9435 0.9435
3636.000000 0.9436 0.9436 0.9437 0.9437 0.9438
3641.000000 0.9439 0.9439 0.9440 0.9440 0.9441
3646.000000 0.9441 0.9442 0.9443 0.9443 0.9444
3651.000000 0.9445 0.9445 0.9446 0.9447 0.9448
3656.000000 0.9448 0.9449 0.9449 0.9450 0.9450
3661.000000 0.9451 0.9451 0.9452 0.9453 0.9453
3666.000000 0.9454 0.9454 0.9455 0.9455 0.9456
3671.000000 0.9456 0.9457 0.9458 0.9459 0.9459
3676.000000 0.9460 0.9461 0.9461 0.9462 0.9462
3681.000000 0.9463 0.9464 0.9464 0.9464 0.9465
3686.000000 0.9465 0.9465 0.9466 0.9466 0.9466
3691.000000 0.9466 0.9466 0.9467 0.9467 0.9467
3696.000000 0.9467 0.9467 0.9467 0.9468 0.9468
3701.000000 0.9468 0.9468 0.9468 0.9469 0.9469
3706.000000 0.9469 0.9469 0.9469 0.9469 0.9470
3711.000000 0.9470 0.9471 0.9471 0.9471 0.9472
3716.000000 0.9472 0.9472 0.9472 0.9472 0.9472
3721.000000 0.9473 0.9473 0.9473 0.9473 0.9473
3726.000000 0.9474 0.9474 0.9474 0.9474 0.9474
3731.000000 0.9474 0.9475 0.9475 0.9475 0.9476
3736.000000 0.9476 0.9477 0.9477 0.9477 0.9477
3741.000000 0.9477 0.9477 0.9478 0.9478 0.9478
3746.000000 0.9478 0.9478 0.9478 0.9478 0.9478
3751.000000 0.9478 0.9478 0.9478 0.9479 0.9479
3756.000000 0.9479 0.9479 0.9479 0.9479 0.9479
3761.000000 0.9479 0.9479 0.9479 0.9479 0.9479
3766.000000 0.9479 0.9479 0.9479 0.9479 0.9479
3771.000000 0.9480 0.9480 0.9480 0.9480 0.9480
3776.000000 0.9480 0.9480 0.9480 0.9480 0.9480
3781.000000 0.9480 0.9480 0.9481 0.9481 0.9481
3786.000000 0.9481 0.9481 0.9481 0.9481 0.9481
3791.000000 0.9481 0.9481 0.9481 0.9482 0.9482
3796.000000 0.9482 0.9482 0.9482 0.9482 0.9482
3801.000000 0.9482 0.9482 0.9482 0.9482 0.9482
3806.000000 0.9483 0.9483 0.9483 0.9483 0.9483
3811.000000 0.9483 0.9483 0.9483 0.9483 0.9483
3816.000000 0.9483 0.9484 0.9484 0.9484 0.9484
3821.000000 0.9484 0.9484 0.9484 0.9484 0.9484
3826.000000 0.9484 0.9484 0.9484 0.9484 0.9484
3831.000000 0.9484 0.9484 0.9484 0.9484 0.9484
3836.000000 0.9484 0.9484 0.9484 0.9484 0.9484
3841.000000 0.9484 0.9484 0.9484 0.9484 0.9484
3846.000000 0.9484 0.9484 0.9484 0.9484 0.9484
3851.000000 0.9484 0.9484 0.9484 0.9484 0.9484
3856.000000 0.9484 0.9484 0.9484 0.9483 0.9483
3861.000000 0.9483 0.9483 0.9483 0.9483 0.9483
3866.000000 0.9483 0.9483 0.9483 0.9483 0.9483
3871.000000 0.9483 0.9483 0.9483 0.9483 0.9483
3876.000000 0.9483 0.9483 0.9483 0.9483 0.9483
3881.000000 0.9483 0.9483 0.9483 0.9483 0.9483
3886.000000 0.9483 0.9483 0.9483 0.9483 0.9483
3891.000000 0.9483 0.9483 0.9483 0.9483 0.9483
3896.000000 0.9483 0.9483 0.9483 0.9483 0.9483
3901.000000 0.9482 0.9482 0.9482 0.9482 0.9482
3906.000000 0.9482 0.9481 0.9481 0.9481 0.9481
3911.000000 0.9481 0.9481 0.9480 0.9480 0.9480
3916.000000 0.9480 0.9480 0.9480 0.9479 0.9479
3921.000000 0.9479 0.9479 0.9479 0.9479 0.9478
3926.000000 0.9478 0.9478 0.9478 0.9478 0.9478
3931.000000 0.9477 0.9477 0.9477 0.9477 0.9477
3936.000000 0.9477 0.9477 0.9476 0.9476 0.9476
3941.000000 0.9476 0.9476 0.9476 0.9475 0.9475
3946.000000 0.9475 0.9475 0.9475 0.9475 0.9474
3951.000000 0.9474 0.9474 0.9474 0.9474 0.9474
3956.000000 0.9473 0.9473 0.9473 0.9472 0.9472
3961.000000 0.9472 0.9471 0.9471 0.9471 0.9471
3966.000000 0.9471 0.9471 0.9471 0.9470 0.9470
3971.000000 0.9470 0.9469 0.9469 0.9469 0.9468
3976.000000 0.9468 0.9467 0.9467 0.9466 0.9466
3981.000000 0.9465 0.9465 0.9465 0.9464 0.9464
3986.000000 0.9463 0.9463 0.9462 0.9462 0.9461
3991.000000 0.9461 0.9460 0.9460 0.9459 0.9459
3996.000000 0.9458 0.9458 0.9457 0.9457 0.9457
##END=
