##TITLE=6-NITRO-2,4-DISULFONIC ACID PHENOL, TRI-POTASSIUM SALT
$$ E.K. (W.L.)
##JCAMP-DX=4.24
##DATA TYPE=INFRARED SPECTRUM
##CLASS=COBLENTZ
##ORIGIN=WYANDOTTE CHEMICALS CORP., WYANDOTTE, MICHIGAN, USA
##OWNER=COBLENTZ SOCIETY
Collection (C) 2018 copyright by the U.S. Secretary of Commerce
on behalf of the United States of America. All rights reserved.
##DATE=Not specified, most likely prior to 1970
##MOLFORM=C6 H2 N O9 S2 K3
##SOURCE REFERENCE=COBLENTZ NO. 2708
##$NIST ID=B6002708
##$NIST SOURCE=COBLENTZ
##$NIST IMAGE=cob2708
##SPECTROMETER/DATA SYSTEM=Not specified, most likely a prism, grating, or hybrid spectrometer.
##STATE=SOLID (MINERAL OIL MULL)
##SAMPLING PROCEDURE=TRANSMISSION
##RESOLUTION=4
##DATA PROCESSING=DIGITIZED BY NIST FROM HARD COPY
##XUNITS=MICROMETERS
##YUNITS=TRANSMITTANCE
##XFACTOR=1.000000
##YFACTOR=1
##DELTAX=000.006626
##FIRSTX=2.02
##LASTX=15.987
##FIRSTY=0.688
##MAXX=15.987
##MINX=2.02
##MAXY=0.958
##MINY=0.089
##NPOINTS=2109
##XYDATA=(X++(Y..Y))
2.020000 0.6880 0.6880 0.6900 0.6920 0.6930
2.053144 0.6950 0.6970 0.6980 0.7000 0.7010
2.086000 0.7030 0.7030 0.7030 0.7050 0.7060
2.119144 0.7080 0.7100 0.7110 0.7150 0.7160
2.152000 0.7180 0.7200 0.7200 0.7180 0.7160
2.185144 0.7130 0.7110 0.7110 0.7110 0.7100
2.219000 0.7100 0.7100 0.7100 0.7100 0.7110
2.252144 0.7110 0.7110 0.7110 0.7110 0.7130
2.285000 0.7150 0.7150 0.7160 0.7160 0.7160
2.318144 0.7180 0.7200 0.7210 0.7230 0.7230
2.351000 0.7250 0.7260 0.7280 0.7300 0.7310
2.384144 0.7310 0.7330 0.7330 0.7350 0.7350
2.417000 0.7350 0.7350 0.7350 0.7350 0.7350
2.450144 0.7350 0.7350 0.7350 0.7350 0.7330
2.484000 0.7330 0.7310 0.7310 0.7310 0.7310
2.517144 0.7330 0.7330 0.7330 0.7350 0.7360
2.550000 0.7380 0.7400 0.7460 0.7500 0.7540
2.583144 0.7530 0.7480 0.7430 0.7350 0.7300
2.616000 0.7280 0.7280 0.7300 0.7350 0.7380
2.649144 0.7410 0.7400 0.7330 0.7310 0.7250
2.682000 0.7150 0.7060 0.6980 0.6880 0.6730
2.715144 0.6490 0.6120 0.5990 0.5820 0.5640
2.749000 0.5460 0.5290 0.5130 0.5010 0.4930
2.782144 0.4910 0.4910 0.4900 0.4880 0.4860
2.815000 0.4830 0.4760 0.4680 0.4550 0.4470
2.848144 0.4380 0.4320 0.4230 0.4150 0.4050
2.881000 0.3990 0.3970 0.3970 0.3990 0.4050
2.914144 0.4170 0.4330 0.4450 0.4550 0.4630
2.947000 0.4710 0.4780 0.4830 0.4900 0.4960
2.980144 0.5000 0.5010 0.5080 0.5130 0.5160
3.014000 0.5190 0.5230 0.5260 0.5290 0.5360
3.047144 0.5380 0.5380 0.5360 0.5280 0.5240
3.080000 0.5180 0.5160 0.5180 0.5380 0.5540
3.113144 0.5710 0.5860 0.5990 0.6140 0.6270
3.146000 0.6390 0.6490 0.6600 0.6680 0.6770
3.179144 0.6820 0.6900 0.6930 0.6980 0.7000
3.212000 0.7010 0.7080 0.7130 0.7260 0.7280
3.245144 0.7280 0.7250 0.7230 0.7210 0.7210
3.279000 0.7210 0.7230 0.7230 0.7230 0.7180
3.312144 0.6930 0.6620 0.6170 0.5480 0.4400
3.345000 0.3720 0.2960 0.2250 0.1730 0.1550
3.378144 0.1450 0.1340 0.1300 0.1300 0.1340
3.411000 0.1520 0.1680 0.1920 0.2160 0.2250
3.444144 0.2410 0.2640 0.3040 0.3040 0.2910
3.478000 0.2830 0.2740 0.2730 0.2740 0.3220
3.511144 0.3840 0.4560 0.4980 0.5380 0.6150
3.544000 0.6880 0.7460 0.7690 0.7860 0.7980
3.577144 0.8040 0.8110 0.8170 0.8260 0.8360
3.610000 0.8440 0.8470 0.8500 0.8520 0.8540
3.643144 0.8550 0.8550 0.8550 0.8550 0.8550
3.676000 0.8550 0.8550 0.8570 0.8570 0.8570
3.709144 0.8570 0.8590 0.8600 0.8600 0.8620
3.743000 0.8620 0.8650 0.8670 0.8670 0.8690
3.776144 0.8690 0.8700 0.8700 0.8720 0.8740
3.809000 0.8740 0.8750 0.8750 0.8770 0.8790
3.842144 0.8800 0.8800 0.8820 0.8840 0.8840
3.875000 0.8850 0.8870 0.8890 0.8890 0.8900
3.908144 0.8920 0.8940 0.8950 0.8950 0.8970
3.941000 0.8990 0.8990 0.8990 0.9000 0.9000
3.974144 0.9020 0.9020 0.9020 0.9020 0.9020
4.008000 0.9000 0.9000 0.9000 0.9000 0.9000
4.041144 0.8990 0.8970 0.8950 0.8950 0.8940
4.074000 0.8940 0.8940 0.8940 0.8950 0.8970
4.107144 0.8990 0.8990 0.8990 0.9000 0.9000
4.140000 0.9020 0.9020 0.9020 0.9020 0.9020
4.173144 0.9020 0.9020 0.9020 0.9020 0.9020
4.206000 0.9020 0.9020 0.9000 0.8990 0.8970
4.239144 0.8940 0.8840 0.8750 0.8720 0.8670
4.273000 0.8650 0.8650 0.8670 0.8690 0.8720
4.306144 0.8790 0.8800 0.8820 0.8870 0.8920
4.339000 0.8950 0.8990 0.9020 0.9070 0.9120
4.372144 0.9150 0.9220 0.9300 0.9320 0.9350
4.405000 0.9370 0.9330 0.9300 0.9270 0.9250
4.438144 0.9180 0.9170 0.9150 0.9120 0.9100
4.471000 0.9080 0.9080 0.9080 0.9080 0.9080
4.504144 0.9070 0.9070 0.9050 0.9030 0.9030
4.538000 0.9030 0.9030 0.9020 0.9020 0.9020
4.571144 0.9030 0.9030 0.9050 0.9070 0.9100
4.604000 0.9130 0.9150 0.9150 0.9170 0.9170
4.637144 0.9170 0.9170 0.9170 0.9170 0.9170
4.670000 0.9180 0.9180 0.9220 0.9230 0.9230
4.703144 0.9250 0.9250 0.9280 0.9300 0.9320
4.736000 0.9320 0.9330 0.9350 0.9350 0.9350
4.769144 0.9350 0.9350 0.9370 0.9370 0.9370
4.803000 0.9370 0.9370 0.9370 0.9370 0.9370
4.836144 0.9370 0.9370 0.9370 0.9370 0.9350
4.869000 0.9320 0.9320 0.9280 0.9280 0.9280
4.902144 0.9280 0.9280 0.9280 0.9280 0.9300
4.935000 0.9300 0.9320 0.9350 0.9370 0.9380
4.968144 0.9380 0.9400 0.9400 0.9400 0.9400
5.001000 0.9400 0.9400 0.9400 0.9400 0.9400
5.034144 0.9400 0.9380 0.9380 0.9350 0.9330
5.068000 0.9330 0.9330 0.9370 0.9420 0.9430
5.101144 0.9430 0.9430 0.9420 0.9400 0.9400
5.134000 0.9400 0.9430 0.9450 0.9470 0.9470
5.167144 0.9470 0.9480 0.9480 0.9480 0.9480
5.200000 0.9480 0.9470 0.9470 0.9470 0.9480
5.233144 0.9480 0.9480 0.9500 0.9500 0.9510
5.266000 0.9530 0.9550 0.9550 0.9550 0.9550
5.299144 0.9550 0.9550 0.9510 0.9500 0.9500
5.333000 0.9500 0.9480 0.9450 0.9400 0.9400
5.366144 0.9370 0.9370 0.9380 0.9500 0.9530
5.399000 0.9510 0.9480 0.9480 0.9400 0.9350
5.432144 0.9330 0.9330 0.9350 0.9430 0.9500
5.465000 0.9560 0.9580 0.9580 0.9560 0.9500
5.498144 0.9480 0.9480 0.9450 0.9450 0.9430
5.531000 0.9420 0.9400 0.9400 0.9400 0.9380
5.564144 0.9380 0.9370 0.9370 0.9380 0.9400
5.598000 0.9430 0.9450 0.9450 0.9450 0.9430
5.631144 0.9350 0.9330 0.9350 0.9370 0.9380
5.664000 0.9400 0.9420 0.9430 0.9430 0.9400
5.697144 0.9380 0.9370 0.9350 0.9320 0.9320
5.730000 0.9300 0.9300 0.9320 0.9320 0.9350
5.763144 0.9420 0.9420 0.9350 0.9300 0.9220
5.796000 0.9150 0.9120 0.9120 0.9120 0.9120
5.829144 0.9100 0.9070 0.8990 0.8940 0.8940
5.863000 0.8920 0.8920 0.8920 0.8900 0.8890
5.896144 0.8870 0.8770 0.8640 0.8600 0.8590
5.929000 0.8570 0.8520 0.8440 0.8360 0.8270
5.962144 0.8210 0.8140 0.8070 0.7990 0.7890
5.995000 0.7780 0.7680 0.7580 0.7430 0.7350
6.028144 0.7300 0.7250 0.7210 0.7180 0.7110
6.062000 0.7030 0.6900 0.6720 0.6620 0.6450
6.095144 0.6220 0.5990 0.5720 0.5460 0.5230
6.128000 0.5030 0.4700 0.4500 0.4220 0.3770
6.161144 0.3320 0.2830 0.2530 0.2360 0.2350
6.194000 0.2380 0.2910 0.3340 0.3820 0.4330
6.227144 0.4780 0.5000 0.5190 0.5590 0.5970
6.260000 0.6370 0.6770 0.6900 0.7010 0.7100
6.293144 0.7150 0.7230 0.7360 0.7380 0.7380
6.327000 0.7360 0.7230 0.7130 0.7010 0.6920
6.360144 0.6770 0.6530 0.6120 0.5670 0.5240
6.393000 0.4120 0.3270 0.3010 0.2790 0.2730
6.426144 0.2630 0.2630 0.2640 0.2660 0.2730
6.459000 0.2780 0.2860 0.2980 0.3340 0.3740
6.492144 0.4120 0.4420 0.4580 0.4750 0.4830
6.525000 0.4950 0.5000 0.5040 0.5060 0.5040
6.558144 0.4910 0.4810 0.4680 0.4630 0.4470
6.592000 0.4270 0.4030 0.3790 0.3460 0.3270
6.625144 0.3260 0.3270 0.3690 0.4270 0.4700
6.658000 0.5000 0.5130 0.5240 0.5410 0.5620
6.691144 0.5860 0.6270 0.6340 0.6340 0.6340
6.724000 0.6340 0.6270 0.6150 0.6040 0.5910
6.757144 0.5460 0.5010 0.4330 0.4170 0.3990
6.790000 0.3970 0.3990 0.4080 0.4180 0.4280
6.823144 0.4420 0.4560 0.4730 0.4880 0.4950
6.857000 0.5010 0.5110 0.5190 0.5380 0.5510
6.890144 0.5620 0.5740 0.5860 0.5970 0.6120
6.923000 0.6290 0.6500 0.6750 0.6950 0.7150
6.956144 0.7260 0.7360 0.7460 0.7540 0.7630
6.989000 0.7690 0.7740 0.7790 0.7840 0.7860
7.022144 0.7880 0.7930 0.7960 0.8040 0.8060
7.055000 0.8040 0.7990 0.7960 0.7930 0.7860
7.088144 0.7740 0.7500 0.7330 0.7180 0.7010
7.122000 0.6880 0.6620 0.6500 0.6490 0.6520
7.155144 0.6650 0.6880 0.7160 0.7200 0.7200
7.188000 0.7130 0.7060 0.6900 0.6800 0.6620
7.221144 0.6490 0.6320 0.6150 0.6050 0.5890
7.254000 0.5870 0.5890 0.6050 0.6270 0.6490
7.287144 0.6600 0.6630 0.6630 0.6630 0.6650
7.320000 0.6650 0.6670 0.6730 0.6750 0.6750
7.353144 0.6700 0.6630 0.6500 0.6420 0.6340
7.387000 0.6300 0.6270 0.6250 0.6220 0.6200
7.420144 0.6150 0.6040 0.5940 0.5820 0.5760
7.453000 0.5660 0.5440 0.5160 0.4550 0.4220
7.486144 0.3870 0.3540 0.3210 0.2890 0.2760
7.519000 0.2660 0.2640 0.2680 0.2930 0.3320
7.552144 0.3670 0.3970 0.4270 0.4560 0.4880
7.585000 0.5060 0.5240 0.5640 0.6090 0.6320
7.618144 0.6370 0.6490 0.6530 0.6630 0.6730
7.652000 0.6850 0.6870 0.6870 0.6870 0.6870
7.685144 0.6850 0.6820 0.6750 0.6670 0.6600
7.718000 0.6580 0.6520 0.6500 0.6470 0.6450
7.751144 0.6440 0.6440 0.6420 0.6390 0.6250
7.784000 0.6140 0.5960 0.5740 0.5440 0.5090
7.817144 0.4330 0.3990 0.3650 0.3420 0.3270
7.850000 0.3160 0.3040 0.2890 0.2680 0.2360
7.883144 0.2160 0.1980 0.1830 0.1770 0.1750
7.917000 0.1770 0.1930 0.2060 0.2180 0.2310
7.950144 0.2410 0.2450 0.2530 0.2590 0.2660
7.983000 0.2680 0.2680 0.2610 0.2580 0.2500
8.016144 0.2410 0.2280 0.2130 0.1930 0.1900
8.049000 0.1880 0.1880 0.1900 0.1970 0.2050
8.082144 0.2200 0.2380 0.2460 0.2510 0.2530
8.115000 0.2540 0.2540 0.2500 0.2430 0.2360
8.148144 0.2250 0.2130 0.2010 0.1930 0.1830
8.182000 0.1730 0.1580 0.1440 0.1270 0.1170
8.215144 0.1120 0.1100 0.1070 0.1050 0.1050
8.248000 0.1070 0.1070 0.1100 0.1120 0.1140
8.281144 0.1140 0.1150 0.1170 0.1190 0.1190
8.314000 0.1200 0.1200 0.1220 0.1220 0.1220
8.347144 0.1240 0.1240 0.1250 0.1250 0.1270
8.381000 0.1270 0.1270 0.1270 0.1290 0.1290
8.414144 0.1290 0.1290 0.1290 0.1290 0.1290
8.447000 0.1290 0.1290 0.1300 0.1320 0.1370
8.480144 0.1400 0.1450 0.1500 0.1570 0.1650
8.513000 0.1730 0.1850 0.1980 0.2130 0.2300
8.546144 0.2480 0.2680 0.2880 0.2990 0.3120
8.579000 0.3220 0.3310 0.3390 0.3490 0.3620
8.612144 0.3650 0.3650 0.3650 0.3650 0.3640
8.646000 0.3620 0.3600 0.3590 0.3590 0.3640
8.679144 0.3850 0.4070 0.4300 0.4530 0.4780
8.712000 0.4900 0.5010 0.5230 0.5430 0.5610
8.745144 0.5760 0.5870 0.5940 0.6040 0.6140
8.778000 0.6220 0.6290 0.6350 0.6420 0.6450
8.811144 0.6490 0.6490 0.6530 0.6580 0.6600
8.844000 0.6620 0.6650 0.6670 0.6680 0.6700
8.877144 0.6720 0.6750 0.6770 0.6780 0.6800
8.911000 0.6850 0.6930 0.6950 0.6970 0.7000
8.944144 0.7030 0.7050 0.7060 0.7080 0.7100
8.977000 0.7110 0.7110 0.7100 0.7050 0.7010
9.010144 0.6950 0.6920 0.6850 0.6770 0.6630
9.043000 0.6490 0.6270 0.6020 0.5810 0.5490
9.076144 0.5130 0.4800 0.4700 0.4660 0.4650
9.109000 0.4660 0.4810 0.4960 0.5010 0.5060
9.142144 0.5210 0.5330 0.5340 0.5330 0.5230
9.176000 0.5060 0.4600 0.4560 0.4510 0.4500
9.209144 0.4510 0.4800 0.4910 0.5030 0.5360
9.242000 0.5760 0.6000 0.6240 0.6400 0.6530
9.275144 0.6630 0.6800 0.6900 0.6970 0.7000
9.308000 0.7060 0.7060 0.7080 0.7110 0.7130
9.341144 0.7150 0.7150 0.7150 0.7150 0.7100
9.374000 0.7050 0.6970 0.6970 0.6900 0.6850
9.407144 0.6780 0.6730 0.6680 0.6620 0.6550
9.441000 0.6450 0.6320 0.6200 0.6040 0.5870
9.474144 0.5640 0.5380 0.5080 0.4420 0.4050
9.507000 0.3690 0.3290 0.2910 0.2510 0.2130
9.540144 0.1730 0.1530 0.1370 0.1240 0.1150
9.573000 0.1070 0.1020 0.1000 0.0990 0.0970
9.606144 0.0960 0.0910 0.0890 0.0890 0.0890
9.639000 0.0910 0.0990 0.1020 0.1090 0.1140
9.672144 0.1220 0.1300 0.1420 0.1570 0.1750
9.706000 0.1970 0.2210 0.2510 0.2860 0.3270
9.739144 0.3720 0.3970 0.4250 0.4530 0.4730
9.772000 0.4880 0.4960 0.5040 0.5240 0.5390
9.805144 0.5440 0.5480 0.5710 0.5920 0.6050
9.838000 0.6150 0.6250 0.6350 0.6450 0.6530
9.871144 0.6600 0.6670 0.6720 0.6800 0.6870
9.904000 0.6920 0.6980 0.7030 0.7080 0.7150
9.937144 0.7200 0.7230 0.7230 0.7260 0.7310
9.971000 0.7380 0.7400 0.7430 0.7450 0.7480
10.004144 0.7500 0.7510 0.7530 0.7560 0.7610
10.037000 0.7640 0.7690 0.7710 0.7730 0.7740
10.070144 0.7760 0.7760 0.7780 0.7790 0.7810
10.103000 0.7830 0.7830 0.7840 0.7860 0.7860
10.136144 0.7890 0.7930 0.7940 0.7940 0.7960
10.169000 0.7960 0.7960 0.7980 0.7980 0.7980
10.202144 0.7980 0.7990 0.7990 0.7990 0.7990
10.236000 0.7990 0.7990 0.7990 0.7990 0.7990
10.269144 0.7990 0.8010 0.8010 0.8010 0.8020
10.302000 0.8020 0.8040 0.8060 0.8070 0.8090
10.335144 0.8110 0.8110 0.8120 0.8120 0.8120
10.368000 0.8120 0.8120 0.8120 0.8120 0.8140
10.401144 0.8160 0.8170 0.8190 0.8190 0.8190
10.434000 0.8190 0.8190 0.8210 0.8210 0.8210
10.467144 0.8210 0.8220 0.8220 0.8220 0.8220
10.501000 0.8240 0.8240 0.8240 0.8240 0.8240
10.534144 0.8240 0.8260 0.8260 0.8260 0.8240
10.567000 0.8220 0.8220 0.8220 0.8190 0.8190
10.600144 0.8170 0.8160 0.8140 0.8140 0.8140
10.633000 0.8120 0.8120 0.8120 0.8140 0.8140
10.666144 0.8170 0.8190 0.8210 0.8210 0.8210
10.699000 0.8190 0.8170 0.8160 0.8140 0.8110
10.732144 0.8090 0.8060 0.8040 0.8040 0.8040
10.766000 0.8060 0.8170 0.8210 0.8220 0.8260
10.799144 0.8270 0.8290 0.8290 0.8310 0.8320
10.832000 0.8360 0.8360 0.8360 0.8360 0.8340
10.865144 0.8290 0.8260 0.8260 0.8240 0.8190
10.898000 0.8160 0.8090 0.8040 0.7990 0.7960
10.931144 0.7930 0.7860 0.7830 0.7790 0.7790
10.965000 0.7790 0.7790 0.7760 0.7730 0.7630
10.998144 0.7480 0.7210 0.6930 0.6750 0.6530
11.031000 0.6370 0.6200 0.6170 0.6170 0.6240
11.064144 0.6490 0.6670 0.6870 0.7050 0.7210
11.097000 0.7350 0.7500 0.7610 0.7710 0.7810
11.130144 0.7880 0.7940 0.8010 0.8040 0.8070
11.163000 0.8090 0.8090 0.8090 0.8090 0.8060
11.196144 0.8020 0.7990 0.7940 0.7910 0.7860
11.230000 0.7840 0.7830 0.7840 0.7880 0.7930
11.263144 0.7990 0.8020 0.8090 0.8120 0.8190
11.296000 0.8210 0.8260 0.8290 0.8320 0.8360
11.329144 0.8390 0.8410 0.8390 0.8410 0.8420
11.362000 0.8440 0.8460 0.8460 0.8470 0.8490
11.395144 0.8490 0.8500 0.8500 0.8520 0.8520
11.428000 0.8520 0.8540 0.8550 0.8550 0.8550
11.461144 0.8570 0.8570 0.8570 0.8570 0.8570
11.495000 0.8570 0.8570 0.8570 0.8550 0.8550
11.528144 0.8550 0.8550 0.8540 0.8540 0.8520
11.561000 0.8520 0.8500 0.8500 0.8490 0.8490
11.594144 0.8470 0.8460 0.8460 0.8440 0.8420
11.627000 0.8390 0.8320 0.8240 0.8140 0.8010
11.660144 0.7910 0.7790 0.7690 0.7530 0.7450
11.693000 0.7330 0.7250 0.7160 0.7150 0.7150
11.726144 0.7180 0.7310 0.7410 0.7530 0.7660
11.760000 0.7760 0.7810 0.7880 0.7930 0.7990
11.793144 0.8090 0.8210 0.8220 0.8270 0.8270
11.826000 0.8290 0.8320 0.8340 0.8340 0.8370
11.859144 0.8390 0.8410 0.8460 0.8470 0.8470
11.892000 0.8470 0.8490 0.8490 0.8500 0.8500
11.925144 0.8500 0.8540 0.8540 0.8540 0.8550
11.958000 0.8550 0.8550 0.8550 0.8550 0.8550
11.991144 0.8550 0.8550 0.8550 0.8550 0.8550
12.025000 0.8550 0.8550 0.8550 0.8550 0.8570
12.058144 0.8570 0.8590 0.8590 0.8590 0.8590
12.091000 0.8590 0.8590 0.8590 0.8570 0.8570
12.124144 0.8570 0.8570 0.8550 0.8550 0.8550
12.157000 0.8550 0.8550 0.8550 0.8550 0.8550
12.190144 0.8550 0.8550 0.8550 0.8550 0.8550
12.223000 0.8550 0.8540 0.8540 0.8540 0.8540
12.256144 0.8520 0.8520 0.8520 0.8520 0.8520
12.290000 0.8520 0.8520 0.8520 0.8500 0.8500
12.323144 0.8500 0.8500 0.8500 0.8500 0.8500
12.356000 0.8500 0.8500 0.8500 0.8500 0.8490
12.389144 0.8490 0.8490 0.8490 0.8470 0.8470
12.422000 0.8460 0.8460 0.8440 0.8440 0.8420
12.455144 0.8420 0.8410 0.8410 0.8390 0.8370
12.488000 0.8370 0.8360 0.8320 0.8290 0.8290
12.521144 0.8260 0.8240 0.8210 0.8210 0.8190
12.555000 0.8160 0.8110 0.8020 0.7960 0.7880
12.588144 0.7780 0.7660 0.7510 0.7330 0.7060
12.621000 0.6970 0.6780 0.6630 0.6490 0.6390
12.654144 0.6370 0.6370 0.6400 0.6570 0.6580
12.687000 0.6570 0.6370 0.6170 0.5960 0.5670
12.720144 0.5620 0.5620 0.5670 0.5970 0.6250
12.753000 0.6470 0.6700 0.6920 0.7030 0.7130
12.786144 0.7160 0.7160 0.7180 0.7180 0.7160
12.820000 0.7150 0.7060 0.7030 0.6980 0.6970
12.853144 0.6930 0.6930 0.6920 0.6920 0.6930
12.886000 0.6930 0.6930 0.6920 0.6880 0.6870
12.919144 0.6850 0.6870 0.6880 0.6900 0.6930
12.952000 0.6980 0.7030 0.7080 0.7150 0.7210
12.985144 0.7300 0.7380 0.7450 0.7500 0.7540
13.018000 0.7610 0.7660 0.7710 0.7760 0.7780
13.051144 0.7780 0.7790 0.7790 0.7810 0.7840
13.085000 0.7880 0.7890 0.7930 0.7930 0.7930
13.118144 0.7940 0.7940 0.7960 0.7960 0.7960
13.151000 0.7960 0.7960 0.7960 0.7960 0.7960
13.184144 0.7960 0.7960 0.7940 0.7940 0.7930
13.217000 0.7930 0.7930 0.7910 0.7910 0.7910
13.250144 0.7910 0.7890 0.7890 0.7880 0.7860
13.283000 0.7840 0.7830 0.7830 0.7810 0.7790
13.316144 0.7780 0.7760 0.7740 0.7710 0.7680
13.350000 0.7630 0.7580 0.7510 0.7480 0.7410
13.383144 0.7330 0.7260 0.7180 0.7100 0.7010
13.416000 0.6950 0.6880 0.6850 0.6820 0.6800
13.449144 0.6800 0.6820 0.6850 0.6920 0.6970
13.482000 0.6980 0.7000 0.7000 0.7010 0.7010
13.515144 0.7010 0.7000 0.6980 0.6970 0.6950
13.549000 0.6900 0.6850 0.6820 0.6780 0.6780
13.582144 0.6770 0.6750 0.6750 0.6750 0.6750
13.615000 0.6770 0.6770 0.6820 0.6850 0.6920
13.648144 0.6950 0.6970 0.6980 0.7010 0.7030
13.681000 0.7030 0.7050 0.7050 0.7050 0.7030
13.714144 0.7000 0.6980 0.6920 0.6830 0.6770
13.747000 0.6700 0.6670 0.6630 0.6580 0.6500
13.780144 0.6450 0.6420 0.6420 0.6450 0.6550
13.814000 0.6670 0.6720 0.6770 0.6830 0.6880
13.847144 0.6930 0.6970 0.7000 0.7050 0.7060
13.880000 0.7080 0.7100 0.7110 0.7130 0.7150
13.913144 0.7160 0.7180 0.7180 0.7200 0.7210
13.946000 0.7250 0.7260 0.7280 0.7280 0.7300
13.979144 0.7300 0.7310 0.7310 0.7330 0.7350
14.012000 0.7360 0.7380 0.7380 0.7400 0.7400
14.045144 0.7400 0.7410 0.7410 0.7410 0.7410
14.079000 0.7410 0.7410 0.7410 0.7410 0.7410
14.112144 0.7410 0.7430 0.7430 0.7430 0.7430
14.145000 0.7430 0.7430 0.7430 0.7410 0.7400
14.178144 0.7400 0.7380 0.7380 0.7380 0.7380
14.211000 0.7380 0.7380 0.7380 0.7400 0.7410
14.244144 0.7410 0.7430 0.7430 0.7430 0.7430
14.277000 0.7410 0.7400 0.7380 0.7380 0.7380
14.310144 0.7380 0.7380 0.7380 0.7380 0.7380
14.344000 0.7380 0.7380 0.7380 0.7360 0.7360
14.377144 0.7330 0.7330 0.7310 0.7310 0.7310
14.410000 0.7310 0.7310 0.7310 0.7310 0.7310
14.443144 0.7310 0.7310 0.7310 0.7300 0.7280
14.476000 0.7280 0.7280 0.7280 0.7280 0.7280
14.509144 0.7280 0.7280 0.7280 0.7280 0.7280
14.542000 0.7280 0.7280 0.7280 0.7260 0.7260
14.575144 0.7260 0.7250 0.7250 0.7250 0.7250
14.609000 0.7230 0.7230 0.7230 0.7210 0.7210
14.642144 0.7210 0.7200 0.7200 0.7200 0.7180
14.675000 0.7180 0.7160 0.7150 0.7150 0.7150
14.708144 0.7150 0.7160 0.7160 0.7160 0.7160
14.741000 0.7150 0.7150 0.7130 0.7100 0.7060
14.774144 0.7060 0.7050 0.7050 0.7050 0.7010
14.807000 0.6980 0.6970 0.6970 0.6950 0.6930
14.840144 0.6900 0.6880 0.6880 0.6870 0.6870
14.874000 0.6830 0.6800 0.6780 0.6770 0.6730
14.907144 0.6700 0.6670 0.6620 0.6580 0.6570
14.940000 0.6550 0.6520 0.6520 0.6500 0.6490
14.973144 0.6450 0.6440 0.6390 0.6350 0.6300
15.006000 0.6240 0.6200 0.6170 0.6150 0.6140
15.039144 0.6120 0.6090 0.6000 0.5970 0.5920
15.072000 0.5870 0.5820 0.5770 0.5710 0.5620
15.105144 0.5560 0.5490 0.5480 0.5430 0.5380
15.139000 0.5360 0.5340 0.5310 0.5310 0.5280
15.172144 0.5280 0.5260 0.5260 0.5260 0.5280
15.205000 0.5310 0.5340 0.5380 0.5410 0.5410
15.238144 0.5460 0.5460 0.5490 0.5510 0.5570
15.271000 0.5590 0.5620 0.5640 0.5670 0.5710
15.304144 0.5760 0.5770 0.5810 0.5810 0.5820
15.337000 0.5840 0.5840 0.5860 0.5860 0.5860
15.370144 0.5860 0.5860 0.5860 0.5860 0.5860
15.404000 0.5860 0.5860 0.5860 0.5840 0.5840
15.437144 0.5810 0.5810 0.5790 0.5790 0.5790
15.470000 0.5770 0.5760 0.5740 0.5720 0.5690
15.503144 0.5640 0.5620 0.5610 0.5590 0.5570
15.536000 0.5570 0.5560 0.5540 0.5520 0.5510
15.569144 0.5490 0.5460 0.5460 0.5430 0.5410
15.602000 0.5410 0.5390 0.5390 0.5380 0.5340
15.635144 0.5330 0.5310 0.5310 0.5290 0.5290
15.669000 0.5290 0.5290 0.5310 0.5330 0.5340
15.702144 0.5360 0.5390 0.5430 0.5460 0.5490
15.735000 0.5520 0.5570 0.5610 0.5670 0.5740
15.768144 0.5790 0.5820 0.5860 0.5890 0.5940
15.801000 0.5960 0.6000 0.6020 0.6040 0.6050
15.834144 0.6070 0.6070 0.6090 0.6100 0.6140
15.867000 0.6150 0.6170 0.6190 0.6200 0.6240
15.900144 0.6250 0.6270 0.6300 0.6340 0.6350
15.934000 0.6350 0.6370 0.6370 0.6350 0.6340
15.967144 0.6340 0.6340 0.6340 0.6340
##END=
