##TITLE=AMMONIUM TETRATHIOCYANATOMERCURATE (II)
##JCAMP-DX=4.24
##DATA TYPE=INFRARED SPECTRUM
##CLASS=COBLENTZ III
##ORIGIN=DOW CHEMICAL COMPANY
##OWNER=COBLENTZ SOCIETY
Collection (C) 2018 copyright by the U.S. Secretary of Commerce
on behalf of the United States of America. All rights reserved.
##DATE=1965/12/13
##MOLFORM=C4 H8 Hg N6 S4
##SOURCE REFERENCE=COBLENTZ NO. 6876
##$NIST ID=B6006876
##$NIST SOURCE=COBLENTZ
##$NIST IMAGE=cob6876
##SPECTROMETER/DATA SYSTEM=DOW KBr FOREPRISM-GRATING
##INSTRUMENT PARAMETERS=GRATING BLAZED AT 3.5, 12.0, 20.0 MICRONS AND CHANGED AT 5.0, 7.5, 14.9 MICRONS
##STATE=SOLID (SPLIT MULL)
##SAMPLING PROCEDURE=TRANSMISSION
##RESOLUTION=4
##DATA PROCESSING=DIGITIZED BY NIST FROM HARD COPY (FROM TWO SEGMENTS)
##XUNITS=1/CM
##YUNITS=TRANSMITTANCE
##XFACTOR=1.000000
##YFACTOR=1
##DELTAX=0.875755
##FIRSTX=459.551
##LASTX=3796.18
##FIRSTY=0.815
##MAXX=3796.18
##MINX=459.551
##MAXY=0.946
##MINY=0.077
##NPOINTS=3811
##XYDATA=(X++(Y..Y))
459.551000 0.8150 0.8170 0.8190 0.8220 0.8270
463.929776 0.8340 0.8350 0.8350 0.8350 0.8370
468.308551 0.8380 0.8400 0.8420 0.8450 0.8480
472.687327 0.8550 0.8560 0.8560 0.8570 0.8600
477.066102 0.8620 0.8640 0.8670 0.8710 0.8740
481.444878 0.8780 0.8850 0.8860 0.8860 0.8860
485.823654 0.8880 0.8880 0.8880 0.8880 0.8880
490.202429 0.8880 0.8880 0.8880 0.8880 0.8880
494.581205 0.8880 0.8880 0.8880 0.8880 0.8880
498.959980 0.8880 0.8880 0.8880 0.8860 0.8860
503.338756 0.8880 0.8880 0.8880 0.8880 0.8890
507.717532 0.8890 0.8890 0.8890 0.8910 0.8920
512.096307 0.8920 0.8910 0.8910 0.8910 0.8910
516.475083 0.8910 0.8910 0.8920 0.8920 0.8920
520.853858 0.8920 0.8960 0.8950 0.8960 0.8960
525.232634 0.8960 0.8960 0.8960 0.8960 0.8960
529.611410 0.8960 0.8960 0.8960 0.8970 0.8970
533.990185 0.8970 0.8990 0.8990 0.9000 0.8990
538.368961 0.9000 0.9000 0.9000 0.9020 0.9020
542.747736 0.9030 0.9030 0.9030 0.9030 0.9040
547.126512 0.9040 0.9060 0.9060 0.9060 0.9060
551.505288 0.9070 0.9070 0.9070 0.9080 0.9080
555.884063 0.9080 0.9100 0.9100 0.9100 0.9110
560.262839 0.9130 0.9130 0.9130 0.9140 0.9140
564.641614 0.9140 0.9140 0.9140 0.9140 0.9140
569.020390 0.9140 0.9150 0.9150 0.9150 0.9170
573.399166 0.9180 0.9180 0.9180 0.9180 0.9180
577.777941 0.9180 0.9180 0.9200 0.9210 0.9200
582.156717 0.9220 0.9240 0.9240 0.9240 0.9240
586.535492 0.9240 0.9240 0.9250 0.9260 0.9260
590.914268 0.9280 0.9280 0.9280 0.9280 0.9280
595.293044 0.9290 0.9310 0.9320 0.9330 0.9330
599.671819 0.9330 0.9350 0.9350 0.9360 0.9360
604.050595 0.9360 0.9360 0.9360 0.9350 0.9360
608.429370 0.9360 0.9360 0.9360 0.9360 0.9370
612.808146 0.9360 0.9360 0.9360 0.9360 0.9370
617.186922 0.9390 0.9400 0.9420 0.9420 0.9420
621.565697 0.9420 0.9390 0.9390 0.9390 0.9390
625.944473 0.9390 0.9390 0.9400 0.9400 0.9400
630.323248 0.9390 0.9390 0.9390 0.9390 0.9390
634.702024 0.9390 0.9400 0.9420 0.9420 0.9420
639.080800 0.9430 0.9440 0.9440 0.9440 0.9460
643.459575 0.9460 0.9460 0.9460 0.9460 0.9460
647.838351 0.9460 0.9460 0.9460 0.9460 0.9460
652.217126 0.9460 0.9440 0.9440 0.9440 0.9440
656.595902 0.9440 0.9440 0.9440 0.9440 0.9440
660.974678 0.9440 0.9440 0.9430 0.9430 0.9420
665.353453 0.9420 0.9420 0.9420 0.9400 0.9400
669.732229 0.9400 0.9400 0.9400 0.9390 0.9370
674.111004 0.9370 0.9370 0.9370 0.9360 0.9360
678.489780 0.9360 0.9360 0.9360 0.9370 0.9370
682.868556 0.9360 0.9360 0.9320 0.9320 0.9310
687.247331 0.9310 0.9310 0.9310 0.9290 0.9290
691.626107 0.9260 0.9250 0.9240 0.9220 0.9200
696.004883 0.9180 0.9170 0.9170 0.9150 0.9130
700.383658 0.9110 0.9060 0.8990 0.8970 0.8930
704.762434 0.8890 0.8860 0.8750 0.8630 0.8311
709.141209 0.8330 0.8350 0.8639 0.8740 0.8740
713.519985 0.8730 0.8630 0.8510 0.8160 0.8160
717.898761 0.8300 0.8340 0.8510 0.8510 0.8490
722.277536 0.8410 0.8260 0.8200 0.8130 0.8060
726.656312 0.8060 0.8339 0.8549 0.8600 0.8670
731.035087 0.8740 0.8740 0.8740 0.8710 0.8680
735.413863 0.8660 0.8620 0.8560 0.8620 0.8740
739.792639 0.8800 0.8850 0.8950 0.8970 0.9040
744.171414 0.9060 0.9070 0.9080 0.9100 0.9140
748.550190 0.9150 0.9170 0.9170 0.9170 0.9170
752.928965 0.9170 0.9170 0.9170 0.9170 0.9170
757.307741 0.9170 0.9170 0.9180 0.9180 0.9170
761.686517 0.9180 0.9180 0.9180 0.9180 0.9170
766.065292 0.9170 0.9170 0.9170 0.9170 0.9170
770.444068 0.9170 0.9170 0.9170 0.9170 0.9170
774.822843 0.9170 0.9170 0.9170 0.9170 0.9170
779.201619 0.9180 0.9180 0.9170 0.9180 0.9200
783.580395 0.9200 0.9200 0.9180 0.9180 0.9180
787.959170 0.9180 0.9180 0.9180 0.9180 0.9180
792.337946 0.9200 0.9170 0.9170 0.9180 0.9180
796.716721 0.9180 0.9180 0.9180 0.9180 0.9180
801.095497 0.9180 0.9180 0.9170 0.9150 0.9150
805.474273 0.9150 0.9150 0.9150 0.9150 0.9150
809.853048 0.9150 0.9150 0.9150 0.9140 0.9140
814.231824 0.9140 0.9140 0.9140 0.9130 0.9130
818.610599 0.9130 0.9130 0.9110 0.9110 0.9110
822.989375 0.9110 0.9100 0.9100 0.9100 0.9080
827.368151 0.9080 0.9080 0.9080 0.9070 0.9070
831.746926 0.9070 0.9060 0.9060 0.9060 0.9060
836.125702 0.9040 0.9040 0.9040 0.9030 0.9030
840.504477 0.9020 0.9020 0.9020 0.9000 0.9000
844.883253 0.8990 0.8990 0.8970 0.8970 0.8970
849.262029 0.8970 0.8960 0.8960 0.8960 0.8960
853.640804 0.8960 0.8960 0.8960 0.8950 0.8950
858.019580 0.8950 0.8930 0.8930 0.8930 0.8920
862.398355 0.8920 0.8920 0.8910 0.8910 0.8910
866.777131 0.8890 0.8880 0.8860 0.8860 0.8850
871.155907 0.8850 0.8850 0.8820 0.8810 0.8800
875.534682 0.8780 0.8770 0.8750 0.8740 0.8740
879.913458 0.8730 0.8670 0.8640 0.8630 0.8600
884.292233 0.8590 0.8560 0.8520 0.8490 0.8490
888.671009 0.8460 0.8460 0.8460 0.8480 0.8490
893.049785 0.8510 0.8530 0.8550 0.8550 0.8550
897.428560 0.8550 0.8550 0.8550 0.8550 0.8560
901.807336 0.8560 0.8560 0.8550 0.8550 0.8530
906.186111 0.8530 0.8530 0.8520 0.8520 0.8510
910.564887 0.8510 0.8510 0.8510 0.8510 0.8510
914.943663 0.8510 0.8520 0.8530 0.8530 0.8550
919.322438 0.8560 0.8590 0.8630 0.8670 0.8710
923.701214 0.8730 0.8730 0.8730 0.8680 0.8630
928.079989 0.8630 0.8620 0.8620 0.8620 0.8620
932.458765 0.8590 0.8570 0.8590 0.8590 0.8590
936.837541 0.8600 0.8630 0.8630 0.8630 0.8630
941.216316 0.8640 0.8640 0.8630 0.8630 0.8620
945.595092 0.8570 0.8550 0.8520 0.8510 0.8490
949.973867 0.8490 0.8510 0.8550 0.8570 0.8600
954.352643 0.8620 0.8620 0.8620 0.8620 0.8620
958.731419 0.8620 0.8620 0.8620 0.8630 0.8630
963.110194 0.8620 0.8620 0.8620 0.8620 0.8620
967.488970 0.8620 0.8620 0.8620 0.8620 0.8600
971.867745 0.8590 0.8600 0.8620 0.8620 0.8620
976.246521 0.8630 0.8630 0.8630 0.8630 0.8630
980.625297 0.8630 0.8630 0.8640 0.8640 0.8660
985.004072 0.8660 0.8660 0.8660 0.8660 0.8660
989.382848 0.8660 0.8660 0.8660 0.8660 0.8660
993.761623 0.8660 0.8660 0.8660 0.8660 0.8640
998.140399 0.8630 0.8630 0.8620 0.8620 0.8630
1002.519175 0.8630 0.8620 0.8620 0.8620 0.8620
1006.897950 0.8620 0.8620 0.8620 0.8620 0.8600
1011.276726 0.8600 0.8590 0.8570 0.8570 0.8560
1015.655501 0.8570 0.8560 0.8560 0.8550 0.8550
1020.034277 0.8550 0.8550 0.8530 0.8490 0.8490
1024.413053 0.8490 0.8490 0.8490 0.8490 0.8490
1028.791828 0.8480 0.8480 0.8460 0.8450 0.8450
1033.170604 0.8450 0.8450 0.8450 0.8450 0.8450
1037.549379 0.8450 0.8440 0.8420 0.8410 0.8410
1041.928155 0.8400 0.8400 0.8400 0.8380 0.8380
1046.306931 0.8380 0.8370 0.8370 0.8350 0.8350
1050.685706 0.8350 0.8350 0.8350 0.8350 0.8340
1055.064482 0.8340 0.8340 0.8340 0.8340 0.8340
1059.443257 0.8330 0.8330 0.8330 0.8330 0.8330
1063.822033 0.8330 0.8310 0.8300 0.8280 0.8270
1068.200809 0.8270 0.8270 0.8260 0.8240 0.8220
1072.579584 0.8170 0.8160 0.8160 0.8160 0.8160
1076.958360 0.8170 0.8170 0.8170 0.8190 0.8200
1081.337135 0.8220 0.8230 0.8230 0.8230 0.8230
1085.715911 0.8230 0.8230 0.8230 0.8230 0.8230
1090.094687 0.8230 0.8240 0.8240 0.8240 0.8230
1094.473462 0.8230 0.8230 0.8230 0.8230 0.8230
1098.852238 0.8230 0.8230 0.8230 0.8240 0.8270
1103.231013 0.8270 0.8260 0.8260 0.8230 0.8220
1107.609789 0.8200 0.8200 0.8190 0.8170 0.8200
1111.988565 0.8200 0.8190 0.8170 0.8160 0.8160
1116.367340 0.8160 0.8160 0.8160 0.8160 0.8150
1120.746116 0.8150 0.8160 0.8160 0.8130 0.8130
1125.124891 0.8110 0.8110 0.8110 0.8110 0.8110
1129.503667 0.8110 0.8090 0.8090 0.8080 0.8060
1133.882443 0.8060 0.8060 0.8050 0.8040 0.8000
1138.261218 0.7970 0.7940 0.7880 0.7870 0.7880
1142.639994 0.7870 0.7870 0.7870 0.7870 0.7870
1147.018770 0.7870 0.7870 0.7870 0.7870 0.7860
1151.397545 0.7860 0.7840 0.7820 0.7820 0.7800
1155.776321 0.7800 0.7800 0.7800 0.7800 0.7800
1160.155096 0.7800 0.7830 0.7860 0.7910 0.7970
1164.533872 0.7970 0.7950 0.7900 0.7860 0.7800
1168.912648 0.7770 0.7770 0.7760 0.7760 0.7720
1173.291423 0.7720 0.7710 0.7710 0.7690 0.7680
1177.670199 0.7620 0.7580 0.7550 0.7540 0.7540
1182.048974 0.7610 0.7640 0.7660 0.7680 0.7690
1186.427750 0.7690 0.7690 0.7690 0.7690 0.7680
1190.806526 0.7680 0.7660 0.7650 0.7640 0.7640
1195.185301 0.7620 0.7620 0.7620 0.7620 0.7620
1199.564077 0.7620 0.7640 0.7640 0.7620 0.7620
1203.942852 0.7610 0.7610 0.7600 0.7600 0.7600
1208.321628 0.7580 0.7570 0.7570 0.7570 0.7550
1212.700404 0.7540 0.7540 0.7540 0.7530 0.7530
1217.079179 0.7510 0.7510 0.7500 0.7480 0.7470
1221.457955 0.7470 0.7470 0.7470 0.7460 0.7460
1225.836730 0.7460 0.7440 0.7440 0.7430 0.7430
1230.215506 0.7420 0.7420 0.7420 0.7400 0.7390
1234.594282 0.7370 0.7370 0.7360 0.7330 0.7310
1238.973057 0.7290 0.7280 0.7280 0.7260 0.7250
1243.351833 0.7220 0.7210 0.7200 0.7180 0.7150
1247.730608 0.7140 0.7130 0.7110 0.7110 0.7110
1252.109384 0.7100 0.7080 0.7060 0.7040 0.7030
1256.488160 0.7020 0.7000 0.6990 0.6970 0.6970
1260.866935 0.6960 0.6960 0.6950 0.6930 0.6920
1265.245711 0.6910 0.6890 0.6880 0.6860 0.6850
1269.624486 0.6840 0.6820 0.6810 0.6800 0.6780
1274.003262 0.6780 0.6770 0.6750 0.6740 0.6730
1278.382038 0.6710 0.6700 0.6670 0.6670 0.6660
1282.760813 0.6640 0.6630 0.6630 0.6620 0.6600
1287.139589 0.6570 0.6550 0.6530 0.6520 0.6510
1291.518364 0.6490 0.6480 0.6460 0.6450 0.6410
1295.897140 0.6400 0.6370 0.6340 0.6340 0.6330
1300.275916 0.6310 0.6280 0.6270 0.6260 0.6240
1304.654691 0.6220 0.6200 0.6190 0.6190 0.6170
1309.033467 0.6170 0.6150 0.6120 0.6060 0.6060
1313.412242 0.6050 0.6040 0.6040 0.6020 0.6010
1317.791018 0.6000 0.5970 0.5940 0.5930 0.5910
1322.169794 0.5900 0.5880 0.5860 0.5840 0.5820
1326.548569 0.5790 0.5760 0.5760 0.5730 0.5710
1330.927345 0.5680 0.5640 0.5600 0.5550 0.5530
1335.306120 0.5500 0.5470 0.5440 0.5400 0.5400
1339.684896 0.5370 0.5310 0.5280 0.5220 0.5170
1344.063672 0.5140 0.5140 0.5110 0.5040 0.5030
1348.442447 0.5030 0.5020 0.4970 0.4930 0.4890
1352.821223 0.4880 0.4860 0.4820 0.4800 0.4740
1357.199998 0.4710 0.4680 0.4680 0.4640 0.4590
1361.578774 0.4490 0.4410 0.4340 0.4330 0.4280
1365.957550 0.4260 0.4190 0.4120 0.4040 0.3970
1370.336325 0.3880 0.3800 0.3730 0.3650 0.3550
1374.715101 0.3500 0.3390 0.3280 0.3170 0.3100
1379.093876 0.3079 0.2890 0.2740 0.2600 0.2510
1383.472652 0.2410 0.2350 0.2300 0.2240 0.2200
1387.851428 0.2160 0.2110 0.2040 0.1950 0.1840
1392.230203 0.1710 0.1650 0.1580 0.1530 0.1460
1396.608979 0.1390 0.1350 0.1290 0.1250 0.1220
1400.987754 0.1220 0.1200 0.1170 0.1170 0.1150
1405.366530 0.1150 0.1170 0.1210 0.1240 0.1290
1409.745306 0.1330 0.1370 0.1420 0.1440 0.1480
1414.124081 0.1510 0.1550 0.1580 0.1600 0.1620
1418.502857 0.1650 0.1710 0.1760 0.1790 0.1860
1422.881632 0.1980 0.2000 0.2040 0.2110 0.2150
1427.260408 0.2220 0.2240 0.2380 0.2510 0.2630
1431.639184 0.2730 0.2840 0.2950 0.3070 0.3200
1436.017959 0.3330 0.3480 0.3600 0.3760 0.3969
1440.396735 0.4201 0.4421 0.4620 0.4740 0.4800
1444.775510 0.4920 0.5100 0.5260 0.5430 0.5540
1449.154286 0.5610 0.5730 0.5900 0.6050 0.6190
1453.533062 0.6270 0.6330 0.6350 0.6490 0.6620
1457.911837 0.6640 0.6770 0.6810 0.6880 0.6930
1462.290613 0.6960 0.7040 0.7100 0.7110 0.7170
1466.669388 0.7240 0.7260 0.7290 0.7310 0.7350
1471.048164 0.7390 0.7440 0.7470 0.7530 0.7540
1475.426940 0.7580 0.7600 0.7600 0.7620 0.7650
1479.805715 0.7680 0.7690 0.7730 0.7750 0.7760
1484.184491 0.7770 0.7790 0.7790 0.7800 0.7820
1488.563266 0.7820 0.7830 0.7840 0.7860 0.7870
1492.942042 0.7870 0.7880 0.7880 0.7900 0.7900
1497.320818 0.7910 0.7930 0.7940 0.7940 0.7940
1501.699593 0.7940 0.7950 0.7950 0.7950 0.7950
1506.078369 0.7970 0.7970 0.7970 0.7970 0.7970
1510.457144 0.7970 0.7970 0.7970 0.7980 0.7980
1514.835920 0.7980 0.7980 0.7980 0.7980 0.7980
1519.214696 0.7980 0.7980 0.7980 0.7980 0.7980
1523.593471 0.7980 0.7980 0.7980 0.7980 0.7970
1527.972247 0.7970 0.7970 0.7970 0.7970 0.7970
1532.351022 0.7970 0.7970 0.7970 0.7970 0.7950
1536.729798 0.7950 0.7950 0.7950 0.7940 0.7940
1541.108574 0.7940 0.7940 0.7930 0.7930 0.7930
1545.487349 0.7930 0.7910 0.7910 0.7910 0.7910
1549.866125 0.7900 0.7880 0.7880 0.7870 0.7870
1554.244900 0.7860 0.7860 0.7840 0.7840 0.7830
1558.623676 0.7830 0.7820 0.7820 0.7800 0.7800
1563.002452 0.7790 0.7790 0.7790 0.7770 0.7770
1567.381227 0.7770 0.7760 0.7730 0.7730 0.7730
1571.760003 0.7720 0.7710 0.7710 0.7690 0.7690
1576.138778 0.7690 0.7680 0.7680 0.7660 0.7650
1580.517554 0.7640 0.7620 0.7620 0.7610 0.7610
1584.896330 0.7610 0.7600 0.7600 0.7600 0.7580
1589.275105 0.7580 0.7570 0.7550 0.7540 0.7540
1593.653881 0.7530 0.7510 0.7510 0.7500 0.7500
1598.032657 0.7500 0.7480 0.7480 0.7470 0.7470
1602.411432 0.7460 0.7440 0.7440 0.7430 0.7430
1606.790208 0.7420 0.7420 0.7400 0.7400 0.7390
1611.168983 0.7390 0.7370 0.7360 0.7360 0.7350
1615.547759 0.7350 0.7330 0.7330 0.7320 0.7320
1619.926535 0.7310 0.7310 0.7290 0.7290 0.7290
1624.305310 0.7290 0.7280 0.7280 0.7260 0.7260
1628.684086 0.7260 0.7250 0.7250 0.7240 0.7240
1633.062861 0.7240 0.7240 0.7240 0.7220 0.7220
1637.441637 0.7210 0.7210 0.7200 0.7200 0.7200
1641.820413 0.7180 0.7180 0.7170 0.7170 0.7150
1646.199188 0.7150 0.7140 0.7140 0.7130 0.7130
1650.577964 0.7130 0.7110 0.7110 0.7100 0.7100
1654.956739 0.7080 0.7070 0.7070 0.7060 0.7060
1659.335515 0.7060 0.7040 0.7040 0.7040 0.7040
1663.714291 0.7060 0.7060 0.7060 0.7070 0.7070
1668.093066 0.7080 0.7080 0.7080 0.7100 0.7110
1672.471842 0.7110 0.7110 0.7130 0.7130 0.7130
1676.850617 0.7140 0.7150 0.7170 0.7170 0.7180
1681.229393 0.7200 0.7210 0.7210 0.7220 0.7220
1685.608169 0.7240 0.7240 0.7240 0.7250 0.7250
1689.986944 0.7250 0.7260 0.7260 0.7280 0.7280
1694.365720 0.7280 0.7290 0.7290 0.7290 0.7310
1698.744495 0.7310 0.7310 0.7320 0.7320 0.7320
1703.123271 0.7320 0.7320 0.7320 0.7320 0.7320
1707.502047 0.7320 0.7320 0.7320 0.7320 0.7330
1711.880822 0.7320 0.7320 0.7320 0.7320 0.7320
1716.259598 0.7330 0.7330 0.7350 0.7350 0.7350
1720.638373 0.7350 0.7350 0.7360 0.7360 0.7360
1725.017149 0.7350 0.7350 0.7350 0.7350 0.7350
1729.395925 0.7350 0.7360 0.7360 0.7360 0.7350
1733.774700 0.7350 0.7350 0.7350 0.7350 0.7350
1738.153476 0.7350 0.7350 0.7360 0.7360 0.7370
1742.532251 0.7370 0.7370 0.7370 0.7370 0.7370
1746.911027 0.7370 0.7370 0.7370 0.7370 0.7370
1751.289803 0.7370 0.7360 0.7350 0.7350 0.7350
1755.668578 0.7350 0.7350 0.7350 0.7350 0.7350
1760.047354 0.7350 0.7350 0.7350 0.7350 0.7330
1764.426129 0.7330 0.7330 0.7330 0.7330 0.7330
1768.804905 0.7330 0.7330 0.7320 0.7320 0.7320
1773.183681 0.7320 0.7320 0.7310 0.7310 0.7310
1777.562456 0.7290 0.7290 0.7290 0.7290 0.7290
1781.941232 0.7280 0.7280 0.7280 0.7280 0.7280
1786.320007 0.7260 0.7260 0.7260 0.7260 0.7250
1790.698783 0.7250 0.7240 0.7240 0.7220 0.7220
1795.077559 0.7210 0.7210 0.7210 0.7210 0.7200
1799.456334 0.7200 0.7200 0.7200 0.7180 0.7180
1803.835110 0.7180 0.7170 0.7170 0.7170 0.7150
1808.213885 0.7150 0.7140 0.7140 0.7140 0.7130
1812.592661 0.7130 0.7130 0.7130 0.7130 0.7110
1816.971437 0.7110 0.7110 0.7110 0.7100 0.7100
1821.350212 0.7100 0.7100 0.7080 0.7080 0.7080
1825.728988 0.7080 0.7080 0.7080 0.7080 0.7070
1830.107763 0.7070 0.7060 0.7060 0.7060 0.7040
1834.486539 0.7040 0.7040 0.7030 0.7030 0.7030
1838.865315 0.7020 0.7020 0.7020 0.7000 0.7000
1843.244090 0.7000 0.6990 0.6990 0.6970 0.6970
1847.622866 0.6960 0.6960 0.6960 0.6950 0.6950
1852.001641 0.6930 0.6930 0.6930 0.6920 0.6920
1856.380417 0.6910 0.6910 0.6890 0.6890 0.6890
1860.759193 0.6880 0.6880 0.6860 0.6860 0.6850
1865.137968 0.6850 0.6840 0.6840 0.6840 0.6820
1869.516744 0.6820 0.6810 0.6810 0.6810 0.6800
1873.895519 0.6800 0.6800 0.6780 0.6780 0.6770
1878.274295 0.6770 0.6770 0.6750 0.6750 0.6750
1882.653071 0.6750 0.6740 0.6740 0.6740 0.6740
1887.031846 0.6730 0.6730 0.6730 0.6730 0.6710
1891.410622 0.6710 0.6710 0.6700 0.6680 0.6680
1895.789397 0.6670 0.6670 0.6660 0.6660 0.6640
1900.168173 0.6640 0.6630 0.6630 0.6630 0.6620
1904.546949 0.6620 0.6600 0.6600 0.6600 0.6590
1908.925724 0.6590 0.6570 0.6570 0.6570 0.6560
1913.304500 0.6560 0.6550 0.6550 0.6550 0.6530
1917.683275 0.6530 0.6520 0.6520 0.6520 0.6510
1922.062051 0.6510 0.6490 0.6490 0.6490 0.6490
1926.440827 0.6490 0.6480 0.6480 0.6460 0.6460
1930.819602 0.6450 0.6450 0.6440 0.6440 0.6440
1935.198378 0.6440 0.6420 0.6410 0.6410 0.6410
1939.577153 0.6400 0.6400 0.6400 0.6380 0.6380
1943.955929 0.6370 0.6350 0.6350 0.6350 0.6340
1948.334705 0.6340 0.6340 0.6330 0.6330 0.6330
1952.713480 0.6310 0.6310 0.6310 0.6300 0.6300
1957.092256 0.6300 0.6280 0.6270 0.6270 0.6260
1961.471031 0.6260 0.6240 0.6240 0.6230 0.6220
1965.849807 0.6200 0.6190 0.6170 0.6170 0.6160
1970.228583 0.6160 0.6160 0.6150 0.6130 0.6110
1974.607358 0.6090 0.6090 0.6080 0.6060 0.6050
1978.986134 0.6040 0.6040 0.6020 0.6010 0.6010
1983.364909 0.6000 0.5980 0.6000 0.5970 0.5950
1987.743685 0.5940 0.5930 0.5910 0.5900 0.5900
1992.122461 0.5880 0.5870 0.5870 0.5870 0.5880
1996.501236 0.5880 0.5910 0.5930 0.5940 0.5950
2000.880012 0.5950 0.5950 0.5945 0.5940 0.5925
2005.258787 0.5910 0.5905 0.5900 0.5900 0.5900
2009.637563 0.5880 0.5860 0.5840 0.5820 0.5791
2014.016339 0.5761 0.5740 0.5720 0.5690 0.5660
2018.395114 0.5655 0.5650 0.5630 0.5610 0.5580
2022.773890 0.5550 0.5516 0.5481 0.5455 0.5431
2027.152665 0.5410 0.5390 0.5375 0.5360 0.5336
2031.531441 0.5311 0.5228 0.5143 0.5101 0.5061
2035.910217 0.5050 0.5040 0.5035 0.5030 0.5030
2040.288992 0.5030 0.4996 0.4961 0.4853 0.4743
2044.667768 0.4711 0.4681 0.4656 0.4631 0.4577
2049.046544 0.4522 0.4463 0.4403 0.4323 0.4242
2053.425319 0.4196 0.4151 0.4097 0.4042 0.3977
2057.804095 0.3912 0.3838 0.3763 0.3693 0.3623
2062.182870 0.3553 0.3483 0.3409 0.3334 0.3268
2066.561646 0.3203 0.3138 0.3074 0.2789 0.2492
2070.940422 0.2360 0.2235 0.2096 0.1956 0.1821
2075.319197 0.1687 0.1547 0.1407 0.1272 0.1137
2079.697973 0.1069 0.1004 0.0934 0.0864 0.1080
2084.076748 0.1315 0.1550 0.1784 0.2007 0.2229
2088.455524 0.2373 0.2513 0.2525 0.2530 0.2539
2092.834300 0.2549 0.2550 0.2550 0.2541 0.2531
2097.213075 0.2479 0.2424 0.2141 0.1841 0.1560
2101.591851 0.1281 0.1149 0.1029 0.0904 0.0778
2105.970626 0.0770 0.0770 0.0803 0.0838 0.0933
2110.349402 0.1033 0.1114 0.1194 0.1260 0.1325
2114.728178 0.1399 0.1474 0.1544 0.1614 0.1753
2119.106953 0.1898 0.1951 0.1996 0.2060 0.2125
2123.485729 0.2181 0.2236 0.2489 0.2759 0.3102
2127.864504 0.3452 0.3943 0.4448 0.4636 0.4796
2132.243280 0.5006 0.5221 0.5481 0.5745 0.6046
2136.622056 0.6351 0.6430 0.6485 0.6640 0.6806
2141.000831 0.6930 0.7050 0.7224 0.7404 0.7588
2145.379607 0.7773 0.7962 0.8152 0.8251 0.8341
2149.758382 0.8760 0.9214 0.9269 0.9279 0.9271
2154.137158 0.9261 0.9260 0.9260 0.9238 0.9212
2158.515934 0.9196 0.9181 0.9175 0.9170 0.9121
2162.894709 0.9066 0.9015 0.8965 0.8947 0.8932
2167.273485 0.8921 0.8911 0.8897 0.8882 0.8871
2171.652260 0.8861 0.8842 0.8822 0.8780 0.8735
2176.031036 0.8717 0.8702 0.8669 0.8634 0.8599
2180.409812 0.8564 0.8538 0.8513 0.8479 0.8444
2184.788587 0.8414 0.8384 0.8367 0.8352 0.8346
2189.167363 0.8341 0.8340 0.8340 0.8314 0.8283
2193.546138 0.8258 0.8233 0.8212 0.8192 0.8164
2197.924914 0.8134 0.8130 0.8130 0.8099 0.8065
2202.303690 0.8038 0.8013 0.7997 0.7982 0.7967
2206.682465 0.7952 0.7946 0.7941 0.7936 0.7931
2211.061241 0.7921 0.7911 0.7897 0.7882 0.7858
2215.440016 0.7833 0.7813 0.7793 0.7781 0.7771
2219.818792 0.7770 0.7770 0.7753 0.7733 0.7713
2224.197568 0.7693 0.7677 0.7662 0.7651 0.7641
2228.576343 0.7631 0.7621 0.7616 0.7611 0.7597
2232.955119 0.7582 0.7550 0.7515 0.7497 0.7482
2237.333894 0.7472 0.7462 0.7452 0.7442 0.7432
2241.712670 0.7422 0.7412 0.7402 0.7387 0.7372
2246.091446 0.7361 0.7351 0.7342 0.7332 0.7322
2250.470221 0.7312 0.7302 0.7292 0.7277 0.7262
2254.848997 0.7260 0.7260 0.7256 0.7251 0.7238
2259.227772 0.7223 0.7216 0.7211 0.7206 0.7201
2263.606548 0.7187 0.7172 0.7162 0.7152 0.7146
2267.985324 0.7141 0.7128 0.7113 0.7106 0.7101
2272.364099 0.7092 0.7082 0.7076 0.7071 0.7066
2276.742875 0.7061 0.7052 0.7042 0.7036 0.7031
2281.121650 0.7026 0.7021 0.7012 0.7002 0.6996
2285.500426 0.6991 0.6982 0.6972 0.6962 0.6952
2289.879202 0.6950 0.6950 0.6942 0.6932 0.6922
2294.257977 0.6912 0.6902 0.6892 0.6886 0.6881
2298.636753 0.6868 0.6853 0.6846 0.6841 0.6832
2303.015528 0.6822 0.6812 0.6802 0.6792 0.6782
2307.394304 0.6768 0.6753 0.6746 0.6741 0.6728
2311.773080 0.6713 0.6690 0.6665 0.6636 0.6606
2316.151855 0.6588 0.6573 0.6554 0.6534 0.6502
2320.530631 0.6467 0.6444 0.6424 0.6416 0.6411
2324.909406 0.6406 0.6401 0.6392 0.6382 0.6376
2329.288182 0.6371 0.6362 0.6352 0.6350 0.6350
2333.666958 0.6346 0.6341 0.6340 0.6340 0.6340
2338.045733 0.6340 0.6340 0.6340 0.6336 0.6331
2342.424509 0.6330 0.6330 0.6330 0.6330 0.6330
2346.803284 0.6330 0.6330 0.6330 0.6322 0.6312
2351.182060 0.6310 0.6310 0.6310 0.6310 0.6310
2355.560836 0.6310 0.6306 0.6301 0.6300 0.6300
2359.939611 0.6300 0.6300 0.6300 0.6300 0.6300
2364.318387 0.6300 0.6300 0.6300 0.6300 0.6300
2368.697162 0.6300 0.6300 0.6300 0.6300 0.6300
2373.075938 0.6300 0.6300 0.6300 0.6300 0.6300
2377.454714 0.6300 0.6300 0.6292 0.6282 0.6280
2381.833489 0.6280 0.6276 0.6271 0.6270 0.6270
2386.212265 0.6266 0.6261 0.6260 0.6260 0.6252
2390.591040 0.6242 0.6236 0.6231 0.6230 0.6230
2394.969816 0.6226 0.6221 0.6220 0.6220 0.6213
2399.348592 0.6203 0.6200 0.6200 0.6189 0.6174
2403.727367 0.6170 0.6170 0.6162 0.6153 0.6150
2408.106143 0.6150 0.6143 0.6133 0.6126 0.6121
2412.484918 0.6120 0.6120 0.6116 0.6111 0.6103
2416.863694 0.6093 0.6086 0.6081 0.6080 0.6080
2421.242470 0.6073 0.6063 0.6056 0.6051 0.6039
2425.621245 0.6024 0.6020 0.6020 0.6016 0.6011
2430.000021 0.6010 0.6010 0.6006 0.6001 0.5993
2434.378796 0.5983 0.5980 0.5980 0.5976 0.5971
2438.757572 0.5970 0.5970 0.5963 0.5953 0.5946
2443.136348 0.5941 0.5940 0.5940 0.5936 0.5931
2447.515123 0.5919 0.5904 0.5900 0.5900 0.5893
2451.893899 0.5883 0.5880 0.5880 0.5876 0.5871
2456.272674 0.5866 0.5861 0.5860 0.5860 0.5853
2460.651450 0.5843 0.5840 0.5840 0.5836 0.5831
2465.030226 0.5830 0.5830 0.5826 0.5821 0.5813
2469.409001 0.5803 0.5797 0.5792 0.5780 0.5764
2473.787777 0.5756 0.5751 0.5743 0.5733 0.5726
2478.166553 0.5721 0.5720 0.5720 0.5717 0.5712
2482.545328 0.5703 0.5693 0.5687 0.5682 0.5680
2486.924104 0.5680 0.5673 0.5663 0.5657 0.5652
2491.302879 0.5650 0.5650 0.5647 0.5642 0.5633
2495.681655 0.5623 0.5620 0.5620 0.5617 0.5612
2500.060431 0.5607 0.5602 0.5600 0.5600 0.5590
2504.439206 0.5575 0.5563 0.5553 0.5547 0.5542
2508.817982 0.5537 0.5532 0.5530 0.5530 0.5523
2513.196757 0.5513 0.5510 0.5510 0.5507 0.5502
2517.575533 0.5500 0.5500 0.5493 0.5483 0.5477
2521.954309 0.5472 0.5457 0.5437 0.5427 0.5422
2526.333084 0.5420 0.5420 0.5413 0.5403 0.5400
2530.711860 0.5400 0.5397 0.5392 0.5383 0.5373
2535.090635 0.5367 0.5362 0.5357 0.5352 0.5343
2539.469411 0.5333 0.5330 0.5330 0.5327 0.5322
2543.848187 0.5317 0.5312 0.5303 0.5293 0.5287
2548.226962 0.5282 0.5280 0.5280 0.5273 0.5263
2552.605738 0.5257 0.5252 0.5247 0.5242 0.5234
2556.984513 0.5224 0.5220 0.5220 0.5217 0.5212
2561.363289 0.5207 0.5202 0.5200 0.5200 0.5194
2565.742065 0.5184 0.5180 0.5180 0.5180 0.5180
2570.120840 0.5180 0.5180 0.5177 0.5172 0.5170
2574.499616 0.5170 0.5164 0.5154 0.5150 0.5150
2578.878391 0.5147 0.5142 0.5137 0.5132 0.5124
2583.257167 0.5114 0.5107 0.5102 0.5100 0.5100
2587.635943 0.5094 0.5084 0.5077 0.5072 0.5067
2592.014718 0.5062 0.5054 0.5044 0.5037 0.5032
2596.393494 0.5030 0.5030 0.5027 0.5022 0.5014
2600.772269 0.5004 0.4997 0.4992 0.4984 0.4974
2605.151045 0.4970 0.4970 0.4967 0.4962 0.4957
2609.529821 0.4952 0.4944 0.4934 0.4927 0.4922
2613.908596 0.4917 0.4912 0.4904 0.4894 0.4887
2618.287372 0.4882 0.4874 0.4864 0.4857 0.4852
2622.666147 0.4847 0.4842 0.4834 0.4824 0.4817
2627.044923 0.4812 0.4807 0.4802 0.4794 0.4784
2631.423699 0.4777 0.4772 0.4764 0.4754 0.4747
2635.802474 0.4742 0.4737 0.4732 0.4724 0.4714
2640.181250 0.4707 0.4702 0.4694 0.4684 0.4677
2644.560025 0.4672 0.4667 0.4662 0.4654 0.4644
2648.938801 0.4637 0.4632 0.4627 0.4622 0.4614
2653.317577 0.4604 0.4600 0.4600 0.4597 0.4592
2657.696352 0.4584 0.4574 0.4567 0.4562 0.4557
2662.075128 0.4552 0.4544 0.4534 0.4527 0.4522
2666.453903 0.4517 0.4512 0.4504 0.4494 0.4487
2670.832679 0.4482 0.4474 0.4464 0.4457 0.4452
2675.211455 0.4447 0.4442 0.4431 0.4416 0.4407
2679.590230 0.4402 0.4400 0.4400 0.4394 0.4384
2683.969006 0.4371 0.4356 0.4350 0.4350 0.4347
2688.347781 0.4342 0.4337 0.4332 0.4324 0.4314
2692.726557 0.4307 0.4302 0.4294 0.4284 0.4277
2697.105333 0.4272 0.4267 0.4262 0.4254 0.4244
2701.484108 0.4237 0.4232 0.4227 0.4222 0.4212
2705.862884 0.4197 0.4184 0.4174 0.4167 0.4162
2710.241659 0.4152 0.4137 0.4124 0.4115 0.4105
2714.620435 0.4095 0.4087 0.4082 0.4075 0.4064
2718.999211 0.4057 0.4052 0.4047 0.4042 0.4034
2723.377986 0.4024 0.4015 0.4005 0.4000 0.4000
2727.756762 0.3995 0.3985 0.3977 0.3972 0.3965
2732.135537 0.3955 0.3945 0.3935 0.3925 0.3915
2736.514313 0.3907 0.3902 0.3895 0.3885 0.3875
2740.893089 0.3865 0.3849 0.3829 0.3820 0.3820
2745.271864 0.3812 0.3797 0.3785 0.3775 0.3770
2749.650640 0.3770 0.3765 0.3755 0.3734 0.3704
2754.029415 0.3682 0.3667 0.3660 0.3660 0.3657
2758.408191 0.3652 0.3647 0.3642 0.3622 0.3587
2762.786967 0.3562 0.3547 0.3537 0.3532 0.3525
2767.165742 0.3515 0.3500 0.3480 0.3470 0.3470
2771.544518 0.3462 0.3447 0.3430 0.3410 0.3392
2775.923293 0.3377 0.3365 0.3355 0.3340 0.3320
2780.302069 0.3302 0.3287 0.3272 0.3257 0.3242
2784.680845 0.3227 0.3220 0.3220 0.3202 0.3167
2789.059620 0.3127 0.3082 0.3050 0.3030 0.3012
2793.438396 0.2997 0.2985 0.2975 0.2970 0.2970
2797.817171 0.2970 0.2970 0.2975 0.2985 0.2997
2802.195947 0.3012 0.3025 0.3035 0.3047 0.3062
2806.574723 0.3073 0.3078 0.3085 0.3095 0.3102
2810.953498 0.3107 0.3117 0.3132 0.3142 0.3147
2815.332274 0.3157 0.3172 0.3185 0.3195 0.3205
2819.711049 0.3215 0.3230 0.3250 0.3260 0.3260
2824.089825 0.3260 0.3260 0.3260 0.3260 0.3258
2828.468601 0.3253 0.3248 0.3243 0.3235 0.3225
2832.847376 0.3218 0.3213 0.3210 0.3210 0.3208
2837.226152 0.3203 0.3193 0.3178 0.3170 0.3170
2841.604927 0.3165 0.3155 0.3150 0.3150 0.3150
2845.983703 0.3150 0.3150 0.3150 0.3150 0.3150
2850.362479 0.3148 0.3143 0.3140 0.3140 0.3140
2854.741254 0.3140 0.3138 0.3133 0.3130 0.3130
2859.120030 0.3125 0.3115 0.3108 0.3103 0.3095
2863.498805 0.3085 0.3078 0.3073 0.3070 0.3070
2867.877581 0.3063 0.3048 0.3031 0.3011 0.3000
2872.256357 0.3000 0.2998 0.2993 0.2986 0.2975
2876.635132 0.2965 0.2955 0.2945 0.2935 0.2928
2881.013908 0.2923 0.2918 0.2913 0.2903 0.2888
2885.392683 0.2876 0.2866 0.2858 0.2853 0.2843
2889.771459 0.2828 0.2818 0.2813 0.2808 0.2803
2894.150235 0.2796 0.2786 0.2778 0.2773 0.2766
2898.529010 0.2756 0.2741 0.2721 0.2701 0.2681
2902.907786 0.2664 0.2649 0.2638 0.2633 0.2624
2907.286561 0.2609 0.2594 0.2579 0.2566 0.2556
2911.665337 0.2543 0.2528 0.2513 0.2498 0.2484
2916.044113 0.2469 0.2456 0.2446 0.2436 0.2426
2920.422888 0.2418 0.2413 0.2408 0.2403 0.2394
2924.801664 0.2379 0.2370 0.2370 0.2366 0.2356
2929.180440 0.2348 0.2343 0.2338 0.2333 0.2326
2933.559215 0.2316 0.2308 0.2303 0.2300 0.2300
2937.937991 0.2296 0.2286 0.2278 0.2273 0.2268
2942.316766 0.2263 0.2256 0.2246 0.2238 0.2233
2946.695542 0.2228 0.2223 0.2216 0.2206 0.2198
2951.074318 0.2193 0.2190 0.2190 0.2186 0.2176
2955.453093 0.2168 0.2163 0.2160 0.2160 0.2158
2959.831869 0.2153 0.2150 0.2150 0.2146 0.2136
2964.210644 0.2128 0.2123 0.2120 0.2120 0.2118
2968.589420 0.2113 0.2110 0.2110 0.2106 0.2096
2972.968196 0.2088 0.2083 0.2080 0.2080 0.2076
2977.346971 0.2066 0.2060 0.2060 0.2060 0.2060
2981.725747 0.2058 0.2053 0.2050 0.2050 0.2050
2986.104522 0.2050 0.2048 0.2043 0.2040 0.2040
2990.483298 0.2040 0.2040 0.2036 0.2026 0.2020
2994.862074 0.2020 0.2020 0.2020 0.2020 0.2020
2999.240849 0.2020 0.2020 0.2020 0.2020 0.2020
3003.619625 0.2020 0.2020 0.2020 0.2020 0.2020
3007.998400 0.2020 0.2020 0.2020 0.2020 0.2020
3012.377176 0.2020 0.2020 0.2020 0.2020 0.2020
3016.755952 0.2024 0.2034 0.2040 0.2040 0.2040
3021.134727 0.2040 0.2040 0.2040 0.2042 0.2047
3025.513503 0.2050 0.2050 0.2050 0.2050 0.2050
3029.892278 0.2050 0.2052 0.2057 0.2060 0.2060
3034.271054 0.2060 0.2060 0.2060 0.2060 0.2064
3038.649830 0.2074 0.2082 0.2087 0.2093 0.2103
3043.028605 0.2110 0.2110 0.2112 0.2117 0.2120
3047.407381 0.2120 0.2122 0.2127 0.2130 0.2130
3051.786156 0.2130 0.2130 0.2130 0.2130 0.2130
3056.164932 0.2130 0.2130 0.2130 0.2130 0.2130
3060.543708 0.2130 0.2130 0.2130 0.2130 0.2130
3064.922483 0.2130 0.2130 0.2130 0.2130 0.2130
3069.301259 0.2128 0.2123 0.2120 0.2120 0.2120
3073.680034 0.2120 0.2120 0.2120 0.2118 0.2113
3078.058810 0.2110 0.2110 0.2110 0.2110 0.2107
3082.437586 0.2097 0.2090 0.2090 0.2088 0.2083
3086.816361 0.2077 0.2067 0.2058 0.2053 0.2048
3091.195137 0.2043 0.2040 0.2040 0.2037 0.2027
3095.573912 0.2020 0.2020 0.2018 0.2013 0.2010
3099.952688 0.2010 0.2004 0.1984 0.1965 0.1950
3104.331464 0.1935 0.1920 0.1910 0.1910 0.1908
3108.710239 0.1903 0.1897 0.1887 0.1878 0.1873
3113.089015 0.1868 0.1863 0.1860 0.1860 0.1857
3117.467790 0.1847 0.1839 0.1834 0.1830 0.1830
3121.846566 0.1828 0.1823 0.1817 0.1807 0.1800
3126.225342 0.1800 0.1799 0.1794 0.1790 0.1790
3130.604117 0.1790 0.1790 0.1790 0.1790 0.1790
3134.982893 0.1790 0.1787 0.1777 0.1770 0.1770
3139.361668 0.1769 0.1764 0.1760 0.1760 0.1760
3143.740444 0.1760 0.1760 0.1760 0.1759 0.1754
3148.119220 0.1750 0.1750 0.1750 0.1750 0.1750
3152.497995 0.1750 0.1750 0.1750 0.1750 0.1750
3156.876771 0.1747 0.1737 0.1730 0.1730 0.1730
3161.255546 0.1730 0.1730 0.1730 0.1730 0.1730
3165.634322 0.1730 0.1730 0.1730 0.1730 0.1730
3170.013098 0.1730 0.1729 0.1724 0.1720 0.1720
3174.391873 0.1719 0.1714 0.1710 0.1710 0.1710
3178.770649 0.1710 0.1707 0.1697 0.1690 0.1690
3183.149424 0.1689 0.1684 0.1680 0.1680 0.1680
3187.528200 0.1680 0.1680 0.1680 0.1680 0.1680
3191.906976 0.1680 0.1680 0.1680 0.1680 0.1681
3196.285751 0.1686 0.1690 0.1690 0.1690 0.1690
3200.664527 0.1692 0.1702 0.1710 0.1710 0.1710
3205.043302 0.1710 0.1711 0.1716 0.1720 0.1720
3209.422078 0.1720 0.1720 0.1720 0.1720 0.1721
3213.800854 0.1726 0.1730 0.1730 0.1732 0.1742
3218.179629 0.1751 0.1756 0.1761 0.1766 0.1772
3222.558405 0.1782 0.1791 0.1796 0.1802 0.1812
3226.937180 0.1821 0.1826 0.1834 0.1849 0.1862
3231.315956 0.1872 0.1883 0.1898 0.1913 0.1928
3235.694732 0.1943 0.1958 0.1971 0.1976 0.1983
3240.073507 0.1998 0.2013 0.2028 0.2042 0.2052
3244.452283 0.2062 0.2072 0.2083 0.2098 0.2112
3248.831058 0.2122 0.2132 0.2142 0.2152 0.2162
3253.209834 0.2175 0.2200 0.2224 0.2244 0.2265
3257.588610 0.2290 0.2316 0.2346 0.2374 0.2394
3261.967385 0.2414 0.2434 0.2453 0.2468 0.2480
3266.346161 0.2480 0.2485 0.2510 0.2536 0.2566
3270.724936 0.2594 0.2614 0.2633 0.2648 0.2664
3275.103712 0.2684 0.2703 0.2718 0.2735 0.2760
3279.482488 0.2786 0.2816 0.2845 0.2870 0.2897
3283.861263 0.2932 0.2964 0.2984 0.3004 0.3024
3288.240039 0.3047 0.3082 0.3120 0.3169 0.3219
3292.618814 0.3269 0.3311 0.3316 0.3326 0.3362
3296.997590 0.3398 0.3438 0.3477 0.3512 0.3546
3301.376366 0.3576 0.3604 0.3624 0.3642 0.3652
3305.755141 0.3662 0.3672 0.3681 0.3686 0.3693
3310.133917 0.3708 0.3723 0.3738 0.3753 0.3774
3314.512692 0.3791 0.3796 0.3806 0.3836 0.3862
3318.891468 0.3872 0.3885 0.3915 0.3945 0.3975
3323.270244 0.4002 0.4012 0.4022 0.4032 0.4041
3327.649019 0.4046 0.4050 0.4050 0.4052 0.4068
3332.027795 0.4083 0.4098 0.4110 0.4110 0.4111
3336.406570 0.4116 0.4120 0.4120 0.4121 0.4126
3340.785346 0.4130 0.4130 0.4132 0.4142 0.4151
3345.164122 0.4156 0.4161 0.4166 0.4170 0.4170
3349.542897 0.4172 0.4182 0.4192 0.4207 0.4221
3353.921673 0.4226 0.4230 0.4230 0.4230 0.4230
3358.300448 0.4231 0.4236 0.4240 0.4240 0.4240
3362.679224 0.4240 0.4240 0.4240 0.4240 0.4240
3367.058000 0.4240 0.4240 0.4239 0.4234 0.4230
3371.436775 0.4230 0.4230 0.4230 0.4230 0.4230
3375.815551 0.4229 0.4224 0.4220 0.4220 0.4219
3380.194327 0.4209 0.4200 0.4200 0.4199 0.4194
3384.573102 0.4190 0.4190 0.4189 0.4179 0.4170
3388.951878 0.4170 0.4169 0.4164 0.4160 0.4160
3393.330653 0.4160 0.4160 0.4160 0.4160 0.4159
3397.709429 0.4154 0.4150 0.4150 0.4150 0.4150
3402.088205 0.4150 0.4150 0.4149 0.4139 0.4130
3406.466980 0.4130 0.4129 0.4124 0.4120 0.4120
3410.845756 0.4119 0.4114 0.4110 0.4110 0.4109
3415.224531 0.4099 0.4090 0.4090 0.4089 0.4084
3419.603307 0.4080 0.4080 0.4080 0.4080 0.4079
3423.982083 0.4069 0.4060 0.4060 0.4060 0.4060
3428.360858 0.4059 0.4054 0.4050 0.4050 0.4049
3432.739634 0.4044 0.4039 0.4029 0.4020 0.4014
3437.118409 0.4009 0.4004 0.3999 0.3989 0.3979
3441.497185 0.3974 0.3969 0.3959 0.3950 0.3950
3445.875961 0.3950 0.3945 0.3940 0.3940 0.3940
3450.254736 0.3935 0.3930 0.3930 0.3929 0.3919
3454.633512 0.3910 0.3905 0.3900 0.3900 0.3899
3459.012287 0.3889 0.3880 0.3875 0.3870 0.3870
3463.391063 0.3870 0.3865 0.3859 0.3849 0.3840
3467.769839 0.3840 0.3840 0.3835 0.3830 0.3830
3472.148614 0.3830 0.3825 0.3820 0.3820 0.3819
3476.527390 0.3809 0.3800 0.3800 0.3800 0.3795
3480.906165 0.3790 0.3790 0.3789 0.3779 0.3770
3485.284941 0.3770 0.3770 0.3770 0.3770 0.3765
3489.663717 0.3760 0.3760 0.3760 0.3755 0.3750
3494.042492 0.3750 0.3749 0.3739 0.3730 0.3730
3498.421268 0.3730 0.3725 0.3720 0.3720 0.3720
3502.800043 0.3715 0.3710 0.3710 0.3710 0.3710
3507.178819 0.3709 0.3699 0.3690 0.3690 0.3690
3511.557595 0.3690 0.3690 0.3685 0.3680 0.3680
3515.936370 0.3680 0.3680 0.3680 0.3670 0.3660
3520.315146 0.3660 0.3660 0.3660 0.3660 0.3655
3524.693921 0.3650 0.3650 0.3650 0.3645 0.3640
3529.072697 0.3640 0.3640 0.3630 0.3620 0.3620
3533.451473 0.3620 0.3615 0.3610 0.3610 0.3610
3537.830248 0.3610 0.3610 0.3605 0.3600 0.3600
3542.209024 0.3600 0.3590 0.3580 0.3580 0.3580
3546.587799 0.3580 0.3580 0.3580 0.3580 0.3580
3550.966575 0.3580 0.3575 0.3570 0.3570 0.3570
3555.345351 0.3560 0.3550 0.3550 0.3550 0.3545
3559.724126 0.3540 0.3540 0.3540 0.3535 0.3530
3564.102902 0.3520 0.3510 0.3510 0.3510 0.3510
3568.481677 0.3510 0.3505 0.3500 0.3500 0.3500
3572.860453 0.3490 0.3480 0.3480 0.3480 0.3475
3577.239229 0.3470 0.3470 0.3470 0.3465 0.3460
3581.618004 0.3460 0.3460 0.3450 0.3440 0.3440
3585.996780 0.3440 0.3435 0.3430 0.3425 0.3420
3590.375555 0.3420 0.3420 0.3420 0.3420 0.3410
3594.754331 0.3400 0.3400 0.3400 0.3400 0.3400
3599.133107 0.3395 0.3390 0.3395 0.3400 0.3400
3603.511882 0.3400 0.3395 0.3390 0.3390 0.3390
3607.890658 0.3390 0.3390 0.3380 0.3370 0.3370
3612.269433 0.3370 0.3370 0.3370 0.3365 0.3360
3616.648209 0.3355 0.3350 0.3350 0.3350 0.3350
3621.026985 0.3350 0.3340 0.3330 0.3330 0.3330
3625.405760 0.3330 0.3330 0.3325 0.3320 0.3320
3629.784536 0.3320 0.3320 0.3320 0.3315 0.3310
3634.163311 0.3310 0.3310 0.3310 0.3310 0.3310
3638.542087 0.3310 0.3300 0.3290 0.3290 0.3290
3642.920863 0.3290 0.3290 0.3290 0.3290 0.3285
3647.299638 0.3280 0.3280 0.3280 0.3270 0.3260
3651.678414 0.3260 0.3260 0.3255 0.3250 0.3250
3656.057189 0.3250 0.3245 0.3240 0.3240 0.3240
3660.435965 0.3230 0.3220 0.3220 0.3220 0.3215
3664.814741 0.3210 0.3210 0.3210 0.3205 0.3200
3669.193516 0.3200 0.3200 0.3186 0.3171 0.3170
3673.572292 0.3170 0.3160 0.3150 0.3150 0.3150
3677.951067 0.3145 0.3140 0.3140 0.3140 0.3135
3682.329843 0.3130 0.3130 0.3130 0.3120 0.3110
3686.708619 0.3105 0.3100 0.3100 0.3100 0.3091
3691.087394 0.3081 0.3080 0.3080 0.3071 0.3061
3695.466170 0.3060 0.3060 0.3060 0.3060 0.3051
3699.844945 0.3041 0.3040 0.3040 0.3035 0.3030
3704.223721 0.3030 0.3030 0.3030 0.3030 0.3025
3708.602497 0.3020 0.3020 0.3020 0.3011 0.3001
3712.981272 0.2995 0.2990 0.2990 0.2990 0.2990
3717.360048 0.2990 0.2990 0.2990 0.2981 0.2971
3721.738823 0.2970 0.2970 0.2970 0.2970 0.2965
3726.117599 0.2960 0.2960 0.2960 0.2960 0.2960
3730.496375 0.2955 0.2950 0.2950 0.2950 0.2941
3734.875150 0.2931 0.2930 0.2930 0.2930 0.2930
3739.253926 0.2925 0.2920 0.2920 0.2920 0.2920
3743.632701 0.2920 0.2915 0.2910 0.2910 0.2910
3748.011477 0.2901 0.2891 0.2890 0.2890 0.2890
3752.390253 0.2890 0.2890 0.2890 0.2885 0.2880
3756.769028 0.2880 0.2880 0.2880 0.2880 0.2880
3761.147804 0.2880 0.2871 0.2861 0.2860 0.2860
3765.526579 0.2860 0.2860 0.2856 0.2851 0.2850
3769.905355 0.2850 0.2850 0.2850 0.2850 0.2850
3774.284131 0.2850 0.2850 0.2846 0.2841 0.2840
3778.662906 0.2840 0.2840 0.2840 0.2840 0.2840
3783.041682 0.2831 0.2821 0.2820 0.2820 0.2820
3787.420457 0.2820 0.2816 0.2811 0.2810 0.2810
3791.799233 0.2810 0.2810 0.2810 0.2810 0.2810
3796.178009 0.2810
##END=
