##TITLE=MAGNESIUM THIOSULFATE
$$ C.P.
##JCAMP-DX=4.24
##DATA TYPE=INFRARED SPECTRUM
##CLASS=COBLENTZ
##ORIGIN=MELLON INSTITUTE
##OWNER=COBLENTZ SOCIETY
Collection (C) 2018 copyright by the U.S. Secretary of Commerce
on behalf of the United States of America. All rights reserved.
##DATE=Not specified, most likely prior to 1970
##MOLFORM=Mg S2 O3  * 6 H2 O
##SOURCE REFERENCE=COBLENTZ NO. 557
##$NIST ID=B6000557
##$NIST SOURCE=COBLENTZ
##$NIST IMAGE=cob557
##SPECTROMETER/DATA SYSTEM=Not specified, most likely a prism, grating, or hybrid spectrometer.
##STATE=SOLID (NUJOL MULL)
##PATH LENGTH=
$$SPECTRAL CONTAMINATION DUE TO OIL AROUND 2900, 1450, 1380 CM^-^1
##SAMPLING PROCEDURE=TRANSMISSION
##RESOLUTION=4
##DATA PROCESSING=DIGITIZED BY NIST FROM HARD COPY
##XUNITS=MICROMETERS
##YUNITS=TRANSMITTANCE
##XFACTOR=1.000000
##YFACTOR=1
##DELTAX=000.006639
##FIRSTX=2.018
##LASTX=15.9912
##FIRSTY=0.948
##MAXX=15.9912
##MINX=2.018
##MAXY=0.989
##MINY=0.178
##NPOINTS=2106
##XYDATA=(X++(Y..Y))
2.018000 0.9480 0.9490 0.9510 0.9530 0.9530
2.051208 0.9560 0.9580 0.9590 0.9610 0.9630
2.084000 0.9640 0.9660 0.9660 0.9690 0.9710
2.117208 0.9730 0.9730 0.9740 0.9760 0.9780
2.150000 0.9790 0.9790 0.9830 0.9830 0.9840
2.183208 0.9840 0.9860 0.9860 0.9860 0.9880
2.217000 0.9880 0.9880 0.9880 0.9880 0.9880
2.250208 0.9880 0.9880 0.9880 0.9890 0.9880
2.283000 0.9880 0.9880 0.9860 0.9830 0.9810
2.316208 0.9790 0.9790 0.9780 0.9780 0.9780
2.349000 0.9790 0.9790 0.9810 0.9810 0.9810
2.382208 0.9790 0.9790 0.9790 0.9790 0.9780
2.416000 0.9740 0.9730 0.9710 0.9680 0.9680
2.449208 0.9660 0.9640 0.9660 0.9660 0.9680
2.482000 0.9680 0.9660 0.9630 0.9630 0.9610
2.515208 0.9610 0.9590 0.9580 0.9560 0.9530
2.549000 0.9490 0.9460 0.9410 0.9380 0.9360
2.582208 0.9330 0.9330 0.9330 0.9310 0.9210
2.615000 0.9180 0.9160 0.9140 0.9130 0.9110
2.648208 0.9040 0.9010 0.8960 0.8890 0.8860
2.681000 0.8820 0.8760 0.8710 0.8660 0.8590
2.714208 0.8460 0.8360 0.8240 0.8090 0.7970
2.748000 0.7840 0.7670 0.7440 0.7190 0.6830
2.781208 0.6550 0.6220 0.5830 0.5410 0.5200
2.814000 0.4980 0.4580 0.4080 0.3740 0.3470
2.847208 0.3270 0.3090 0.2920 0.2740 0.2650
2.881000 0.2490 0.2450 0.2420 0.2400 0.2390
2.914208 0.2370 0.2370 0.2350 0.2340 0.2320
2.947000 0.2270 0.2190 0.2150 0.2140 0.2090
2.980208 0.2070 0.2020 0.2000 0.2020 0.2050
3.013000 0.2070 0.2100 0.2100 0.2100 0.2100
3.046208 0.2100 0.2090 0.2040 0.2020 0.1980
3.080000 0.1970 0.1900 0.1850 0.1830 0.1820
3.113208 0.1800 0.1780 0.1780 0.1780 0.1780
3.146000 0.1800 0.1820 0.1850 0.1880 0.1920
3.179208 0.2000 0.2040 0.2090 0.2120 0.2190
3.212000 0.2250 0.2370 0.2490 0.2570 0.2670
3.245208 0.2740 0.2790 0.2890 0.2950 0.3020
3.279000 0.3070 0.3140 0.3190 0.3260 0.3270
3.312208 0.3290 0.3310 0.3290 0.3190 0.3040
3.345000 0.2720 0.2500 0.2300 0.2220 0.2190
3.378208 0.2140 0.2000 0.1980 0.2000 0.2420
3.412000 0.2790 0.3070 0.3390 0.3560 0.3770
3.445208 0.3870 0.3910 0.3910 0.3890 0.3860
3.478000 0.3820 0.3840 0.4490 0.5510 0.6020
3.511208 0.6550 0.6780 0.7090 0.7240 0.7370
3.544000 0.7450 0.7540 0.7620 0.7700 0.7720
3.577208 0.7750 0.7800 0.7840 0.7850 0.7920
3.611000 0.7940 0.7950 0.7970 0.7990 0.8020
3.644208 0.8020 0.8040 0.8040 0.8070 0.8070
3.677000 0.8110 0.8140 0.8160 0.8160 0.8170
3.710208 0.8190 0.8210 0.8210 0.8240 0.8240
3.744000 0.8260 0.8270 0.8270 0.8290 0.8290
3.777208 0.8310 0.8310 0.8320 0.8340 0.8360
3.810000 0.8370 0.8370 0.8390 0.8390 0.8410
3.843208 0.8410 0.8420 0.8420 0.8420 0.8440
3.876000 0.8440 0.8460 0.8460 0.8470 0.8470
3.909208 0.8470 0.8490 0.8510 0.8510 0.8510
3.943000 0.8510 0.8510 0.8510 0.8510 0.8510
3.976208 0.8510 0.8510 0.8510 0.8510 0.8510
4.009000 0.8510 0.8510 0.8510 0.8510 0.8510
4.042208 0.8510 0.8510 0.8510 0.8510 0.8490
4.075000 0.8470 0.8470 0.8460 0.8440 0.8440
4.108208 0.8420 0.8410 0.8390 0.8370 0.8360
4.142000 0.8310 0.8290 0.8270 0.8260 0.8240
4.175208 0.8220 0.8210 0.8190 0.8170 0.8160
4.208000 0.8140 0.8120 0.8110 0.8090 0.8060
4.241208 0.8040 0.8040 0.8040 0.8020 0.8020
4.275000 0.8010 0.8010 0.7990 0.7990 0.7970
4.308208 0.7970 0.7970 0.7970 0.7970 0.7950
4.341000 0.7950 0.7950 0.7940 0.7940 0.7920
4.374208 0.7920 0.7900 0.7900 0.7890 0.7890
4.407000 0.7890 0.7890 0.7890 0.7890 0.7870
4.440208 0.7870 0.7870 0.7870 0.7870 0.7850
4.474000 0.7850 0.7850 0.7850 0.7850 0.7870
4.507208 0.7870 0.7870 0.7890 0.7900 0.7940
4.540000 0.7940 0.7950 0.7950 0.7970 0.7970
4.573208 0.7970 0.7990 0.7990 0.8010 0.8010
4.607000 0.8010 0.8010 0.8040 0.8040 0.8060
4.640208 0.8060 0.8070 0.8070 0.8090 0.8090
4.673000 0.8110 0.8110 0.8110 0.8110 0.8110
4.706208 0.8110 0.8110 0.8110 0.8110 0.8110
4.739000 0.8110 0.8110 0.8110 0.8110 0.8120
4.772208 0.8120 0.8120 0.8120 0.8140 0.8140
4.806000 0.8140 0.8140 0.8140 0.8140 0.8170
4.839208 0.8190 0.8210 0.8210 0.8220 0.8220
4.872000 0.8240 0.8240 0.8260 0.8260 0.8260
4.905208 0.8270 0.8270 0.8270 0.8270 0.8290
4.938000 0.8310 0.8310 0.8320 0.8320 0.8340
4.971208 0.8340 0.8360 0.8360 0.8360 0.8370
5.005000 0.8370 0.8370 0.8370 0.8370 0.8390
5.038208 0.8410 0.8410 0.8420 0.8420 0.8440
5.071000 0.8440 0.8460 0.8460 0.8470 0.8470
5.104208 0.8490 0.8490 0.8510 0.8510 0.8520
5.138000 0.8540 0.8540 0.8540 0.8560 0.8560
5.171208 0.8560 0.8570 0.8570 0.8570 0.8590
5.204000 0.8610 0.8610 0.8610 0.8610 0.8610
5.237208 0.8610 0.8610 0.8610 0.8610 0.8610
5.270000 0.8610 0.8610 0.8610 0.8610 0.8610
5.303208 0.8610 0.8610 0.8610 0.8610 0.8610
5.337000 0.8590 0.8570 0.8570 0.8570 0.8570
5.370208 0.8570 0.8570 0.8590 0.8570 0.8570
5.403000 0.8570 0.8570 0.8570 0.8590 0.8590
5.436208 0.8590 0.8590 0.8590 0.8590 0.8590
5.470000 0.8590 0.8590 0.8590 0.8590 0.8590
5.503208 0.8590 0.8590 0.8590 0.8590 0.8590
5.536000 0.8590 0.8590 0.8590 0.8590 0.8590
5.569208 0.8590 0.8590 0.8590 0.8610 0.8620
5.602000 0.8620 0.8610 0.8610 0.8590 0.8590
5.635208 0.8590 0.8590 0.8610 0.8610 0.8610
5.669000 0.8610 0.8610 0.8610 0.8610 0.8610
5.702208 0.8620 0.8610 0.8610 0.8610 0.8610
5.735000 0.8590 0.8590 0.8570 0.8570 0.8560
5.768208 0.8560 0.8540 0.8540 0.8540 0.8520
5.801000 0.8510 0.8510 0.8490 0.8470 0.8460
5.834208 0.8440 0.8420 0.8390 0.8360 0.8320
5.868000 0.8310 0.8270 0.8190 0.8140 0.8040
5.901208 0.8010 0.7970 0.7870 0.7750 0.7620
5.934000 0.7350 0.7070 0.6950 0.6800 0.6750
5.967208 0.6700 0.6670 0.6620 0.6550 0.6480
6.001000 0.6330 0.6170 0.5930 0.5680 0.5380
6.034208 0.5110 0.5000 0.4880 0.4760 0.4680
6.067000 0.4640 0.4610 0.4610 0.4640 0.4680
6.100208 0.4780 0.4960 0.5360 0.5580 0.5700
6.133000 0.5800 0.6000 0.6080 0.6150 0.6220
6.166208 0.6370 0.6470 0.6580 0.6670 0.6780
6.200000 0.6900 0.7000 0.7020 0.7040 0.7100
6.233208 0.7140 0.7170 0.7200 0.7240 0.7270
6.266000 0.7290 0.7300 0.7320 0.7320 0.7320
6.299208 0.7320 0.7340 0.7350 0.7370 0.7350
6.333000 0.7340 0.7340 0.7340 0.7350 0.7350
6.366208 0.7370 0.7370 0.7370 0.7370 0.7370
6.399000 0.7350 0.7350 0.7350 0.7350 0.7340
6.432208 0.7340 0.7340 0.7340 0.7350 0.7370
6.465000 0.7390 0.7400 0.7390 0.7390 0.7390
6.498208 0.7390 0.7390 0.7390 0.7390 0.7390
6.532000 0.7370 0.7370 0.7370 0.7370 0.7370
6.565208 0.7390 0.7390 0.7390 0.7390 0.7390
6.598000 0.7400 0.7420 0.7420 0.7440 0.7440
6.631208 0.7470 0.7470 0.7490 0.7490 0.7500
6.664000 0.7500 0.7520 0.7520 0.7540 0.7550
6.697208 0.7550 0.7570 0.7570 0.7600 0.7600
6.731000 0.7620 0.7620 0.7640 0.7640 0.7640
6.764208 0.7640 0.7600 0.7540 0.7490 0.7400
6.797000 0.7300 0.7100 0.7050 0.6970 0.6830
6.830208 0.6780 0.6750 0.6730 0.6720 0.6700
6.864000 0.6700 0.6680 0.6680 0.6680 0.6680
6.897208 0.6680 0.6700 0.6720 0.6780 0.6850
6.930000 0.6920 0.6950 0.6980 0.7000 0.7050
6.963208 0.7120 0.7250 0.7270 0.7320 0.7440
6.996000 0.7550 0.7640 0.7640 0.7670 0.7690
7.029208 0.7700 0.7700 0.7720 0.7750 0.7790
7.063000 0.7800 0.7870 0.7890 0.7920 0.7990
7.096208 0.8010 0.8020 0.8040 0.8040 0.8060
7.129000 0.8110 0.8110 0.8110 0.8120 0.8120
7.162208 0.8140 0.8140 0.8140 0.8140 0.8120
7.196000 0.8060 0.7990 0.7970 0.7890 0.7820
7.229208 0.7720 0.7640 0.7600 0.7590 0.7570
7.262000 0.7570 0.7590 0.7600 0.7620 0.7640
7.295208 0.7650 0.7650 0.7670 0.7690 0.7740
7.328000 0.7770 0.7820 0.7900 0.7940 0.7950
7.361208 0.8010 0.8020 0.8020 0.8020 0.8040
7.395000 0.8070 0.8110 0.8110 0.8110 0.8110
7.428208 0.8120 0.8110 0.8120 0.8120 0.8120
7.461000 0.8140 0.8140 0.8170 0.8170 0.8170
7.494208 0.8190 0.8190 0.8210 0.8210 0.8210
7.527000 0.8220 0.8240 0.8240 0.8240 0.8240
7.560208 0.8240 0.8240 0.8240 0.8260 0.8260
7.594000 0.8270 0.8270 0.8260 0.8270 0.8270
7.627208 0.8270 0.8270 0.8270 0.8270 0.8270
7.660000 0.8270 0.8290 0.8290 0.8310 0.8310
7.693208 0.8310 0.8310 0.8310 0.8320 0.8320
7.727000 0.8320 0.8320 0.8320 0.8320 0.8320
7.760208 0.8320 0.8320 0.8320 0.8320 0.8310
7.793000 0.8320 0.8340 0.8340 0.8340 0.8340
7.826208 0.8340 0.8340 0.8340 0.8340 0.8340
7.859000 0.8340 0.8340 0.8340 0.8340 0.8340
7.892208 0.8310 0.8310 0.8310 0.8310 0.8320
7.926000 0.8320 0.8340 0.8360 0.8360 0.8360
7.959208 0.8340 0.8340 0.8340 0.8340 0.8340
7.992000 0.8360 0.8360 0.8360 0.8360 0.8360
8.025208 0.8340 0.8340 0.8340 0.8340 0.8340
8.059000 0.8340 0.8340 0.8320 0.8320 0.8310
8.092208 0.8310 0.8310 0.8290 0.8290 0.8290
8.125000 0.8290 0.8290 0.8290 0.8290 0.8270
8.158208 0.8270 0.8270 0.8260 0.8260 0.8260
8.191000 0.8260 0.8260 0.8240 0.8240 0.8240
8.224208 0.8240 0.8240 0.8240 0.8240 0.8240
8.258000 0.8240 0.8220 0.8220 0.8210 0.8190
8.291208 0.8170 0.8160 0.8160 0.8160 0.8140
8.324000 0.8140 0.8140 0.8120 0.8110 0.8090
8.357208 0.8090 0.8060 0.8060 0.8040 0.8040
8.390000 0.8020 0.8010 0.7950 0.7940 0.7900
8.423208 0.7850 0.7840 0.7820 0.7800 0.7750
8.457000 0.7740 0.7720 0.7670 0.7600 0.7540
8.490208 0.7470 0.7400 0.7340 0.7290 0.7240
8.523000 0.7190 0.7090 0.7040 0.6930 0.6870
8.556208 0.6730 0.6650 0.6520 0.6400 0.6280
8.590000 0.6150 0.6000 0.5830 0.5680 0.5530
8.623208 0.5380 0.5250 0.5100 0.5030 0.4960
8.656000 0.4810 0.4590 0.4530 0.4430 0.4230
8.689208 0.4180 0.4060 0.3990 0.3860 0.3720
8.722000 0.3620 0.3560 0.3440 0.3360 0.3260
8.755208 0.3190 0.3110 0.3040 0.2940 0.2890
8.789000 0.2840 0.2790 0.2720 0.2690 0.2640
8.822208 0.2620 0.2600 0.2590 0.2550 0.2540
8.855000 0.2540 0.2520 0.2520 0.2500 0.2500
8.888208 0.2490 0.2470 0.2470 0.2470 0.2470
8.922000 0.2470 0.2470 0.2470 0.2470 0.2470
8.955208 0.2470 0.2470 0.2470 0.2470 0.2470
8.988000 0.2470 0.2470 0.2470 0.2490 0.2490
9.021208 0.2520 0.2540 0.2570 0.2600 0.2620
9.054000 0.2640 0.2670 0.2700 0.2750 0.2790
9.087208 0.2820 0.2890 0.2920 0.2950 0.3010
9.121000 0.3040 0.3110 0.3160 0.3220 0.3320
9.154208 0.3370 0.3440 0.3490 0.3560 0.3590
9.187000 0.3640 0.3720 0.3810 0.3920 0.3970
9.220208 0.4030 0.4060 0.4130 0.4210 0.4280
9.253000 0.4390 0.4460 0.4490 0.4530 0.4590
9.286208 0.4640 0.4680 0.4730 0.4790 0.4830
9.320000 0.4890 0.4940 0.5000 0.5080 0.5110
9.353208 0.5160 0.5210 0.5280 0.5330 0.5360
9.386000 0.5380 0.5430 0.5460 0.5510 0.5550
9.419208 0.5580 0.5610 0.5660 0.5710 0.5750
9.453000 0.5780 0.5850 0.5880 0.5910 0.5960
9.486208 0.6030 0.6070 0.6070 0.6120 0.6150
9.519000 0.6180 0.6250 0.6280 0.6330 0.6370
9.552208 0.6400 0.6420 0.6450 0.6520 0.6550
9.585000 0.6580 0.6620 0.6650 0.6670 0.6680
9.618208 0.6700 0.6720 0.6730 0.6750 0.6750
9.652000 0.6770 0.6780 0.6800 0.6800 0.6820
9.685208 0.6820 0.6780 0.6780 0.6770 0.6730
9.718000 0.6700 0.6670 0.6630 0.6550 0.6520
9.751208 0.6450 0.6370 0.6280 0.6180 0.6050
9.785000 0.5910 0.5750 0.5550 0.5430 0.5310
9.818208 0.5230 0.5080 0.5010 0.4930 0.4810
9.851000 0.4680 0.4560 0.4430 0.4380 0.4290
9.884208 0.4280 0.4210 0.4180 0.4080 0.4060
9.917000 0.4030 0.4030 0.4010 0.4010 0.3960
9.950208 0.3940 0.3920 0.3910 0.3910 0.3890
9.984000 0.3890 0.3890 0.3890 0.3890 0.3890
10.017208 0.3890 0.3890 0.3890 0.3890 0.3910
10.050000 0.4010 0.4030 0.4060 0.4090 0.4110
10.083208 0.4140 0.4210 0.4240 0.4290 0.4330
10.116000 0.4380 0.4460 0.4530 0.4610 0.4640
10.149208 0.4730 0.4810 0.4840 0.4880 0.4930
10.183000 0.5050 0.5080 0.5210 0.5280 0.5310
10.216208 0.5360 0.5410 0.5480 0.5530 0.5560
10.249000 0.5630 0.5700 0.5750 0.5780 0.5850
10.282208 0.5910 0.6000 0.6020 0.6030 0.6100
10.316000 0.6130 0.6170 0.6200 0.6270 0.6300
10.349208 0.6370 0.6420 0.6450 0.6520 0.6520
10.382000 0.6530 0.6600 0.6670 0.6720 0.6780
10.415208 0.6800 0.6830 0.6870 0.6880 0.6920
10.448000 0.6950 0.7000 0.7020 0.7040 0.7050
10.481208 0.7090 0.7100 0.7170 0.7190 0.7220
10.515000 0.7270 0.7300 0.7340 0.7350 0.7350
10.548208 0.7390 0.7390 0.7420 0.7450 0.7490
10.581000 0.7500 0.7520 0.7550 0.7570 0.7590
10.614208 0.7590 0.7590 0.7600 0.7600 0.7620
10.648000 0.7650 0.7650 0.7670 0.7690 0.7700
10.681208 0.7720 0.7740 0.7750 0.7770 0.7800
10.714000 0.7820 0.7840 0.7840 0.7850 0.7870
10.747208 0.7890 0.7900 0.7900 0.7900 0.7920
10.780000 0.7920 0.7940 0.7950 0.7970 0.7990
10.813208 0.7990 0.8010 0.8010 0.8020 0.8020
10.847000 0.8020 0.8040 0.8040 0.8060 0.8070
10.880208 0.8070 0.8110 0.8110 0.8120 0.8140
10.913000 0.8160 0.8170 0.8190 0.8210 0.8220
10.946208 0.8240 0.8260 0.8270 0.8290 0.8310
10.979000 0.8320 0.8320 0.8340 0.8340 0.8360
11.012208 0.8370 0.8370 0.8410 0.8420 0.8420
11.046000 0.8420 0.8440 0.8440 0.8460 0.8470
11.079208 0.8490 0.8490 0.8510 0.8510 0.8510
11.112000 0.8520 0.8520 0.8520 0.8520 0.8540
11.145208 0.8540 0.8560 0.8560 0.8560 0.8570
11.179000 0.8570 0.8570 0.8590 0.8590 0.8590
11.212208 0.8610 0.8610 0.8610 0.8620 0.8620
11.245000 0.8620 0.8620 0.8620 0.8640 0.8620
11.278208 0.8640 0.8640 0.8640 0.8660 0.8660
11.311000 0.8660 0.8670 0.8670 0.8690 0.8690
11.344208 0.8690 0.8710 0.8710 0.8710 0.8710
11.378000 0.8720 0.8710 0.8720 0.8740 0.8760
11.411208 0.8760 0.8760 0.8760 0.8760 0.8760
11.444000 0.8770 0.8790 0.8790 0.8790 0.8790
11.477208 0.8810 0.8810 0.8810 0.8820 0.8820
11.511000 0.8840 0.8820 0.8840 0.8840 0.8860
11.544208 0.8860 0.8870 0.8870 0.8870 0.8890
11.577000 0.8890 0.8890 0.8890 0.8890 0.8910
11.610208 0.8910 0.8910 0.8910 0.8910 0.8920
11.643000 0.8920 0.8920 0.8920 0.8920 0.8940
11.676208 0.8940 0.8960 0.8960 0.8960 0.8960
11.710000 0.8970 0.8970 0.8970 0.9010 0.9010
11.743208 0.9010 0.9010 0.9010 0.9030 0.9030
11.776000 0.9030 0.9030 0.9030 0.9040 0.9040
11.809208 0.9040 0.9040 0.9040 0.9040 0.9060
11.842000 0.9060 0.9060 0.9060 0.9060 0.9060
11.875208 0.9060 0.9060 0.9060 0.9060 0.9060
11.909000 0.9060 0.9060 0.9060 0.9060 0.9080
11.942208 0.9080 0.9080 0.9080 0.9090 0.9090
11.975000 0.9090 0.9090 0.9090 0.9110 0.9110
12.008208 0.9110 0.9110 0.9110 0.9110 0.9110
12.042000 0.9110 0.9110 0.9110 0.9110 0.9110
12.075208 0.9130 0.9130 0.9130 0.9130 0.9130
12.108000 0.9130 0.9130 0.9130 0.9130 0.9130
12.141208 0.9130 0.9130 0.9130 0.9130 0.9140
12.174000 0.9140 0.9140 0.9140 0.9140 0.9140
12.207208 0.9140 0.9140 0.9140 0.9140 0.9140
12.241000 0.9140 0.9140 0.9140 0.9140 0.9140
12.274208 0.9140 0.9140 0.9140 0.9140 0.9140
12.307000 0.9140 0.9140 0.9140 0.9140 0.9140
12.340208 0.9140 0.9140 0.9140 0.9140 0.9140
12.374000 0.9140 0.9140 0.9140 0.9140 0.9140
12.407208 0.9140 0.9140 0.9140 0.9140 0.9140
12.440000 0.9140 0.9140 0.9140 0.9140 0.9140
12.473208 0.9140 0.9140 0.9140 0.9140 0.9140
12.506000 0.9140 0.9140 0.9140 0.9140 0.9140
12.539208 0.9140 0.9140 0.9140 0.9140 0.9140
12.573000 0.9140 0.9140 0.9140 0.9140 0.9140
12.606208 0.9140 0.9130 0.9140 0.9130 0.9110
12.639000 0.9130 0.9130 0.9130 0.9130 0.9130
12.672208 0.9110 0.9110 0.9090 0.9090 0.9090
12.705000 0.9080 0.9080 0.9080 0.9060 0.9060
12.738208 0.9060 0.9060 0.9060 0.9060 0.9040
12.772000 0.9040 0.9040 0.9040 0.9040 0.9040
12.805208 0.9030 0.9030 0.9030 0.9030 0.9030
12.838000 0.9030 0.9030 0.9040 0.9030 0.9010
12.871208 0.9030 0.9030 0.9030 0.9030 0.9010
12.905000 0.9010 0.9010 0.8990 0.8990 0.8970
12.938208 0.8970 0.8970 0.8960 0.8960 0.8940
12.971000 0.8940 0.8940 0.8920 0.8920 0.8920
13.004208 0.8910 0.8910 0.8910 0.8890 0.8890
13.037000 0.8890 0.8870 0.8870 0.8870 0.8860
13.070208 0.8840 0.8840 0.8820 0.8820 0.8810
13.104000 0.8810 0.8790 0.8770 0.8770 0.8770
13.137208 0.8760 0.8760 0.8740 0.8740 0.8720
13.170000 0.8720 0.8710 0.8710 0.8690 0.8690
13.203208 0.8670 0.8660 0.8660 0.8640 0.8620
13.237000 0.8620 0.8590 0.8590 0.8570 0.8560
13.270208 0.8560 0.8540 0.8540 0.8540 0.8520
13.303000 0.8490 0.8470 0.8460 0.8460 0.8420
13.336208 0.8410 0.8410 0.8390 0.8390 0.8390
13.369000 0.8370 0.8360 0.8360 0.8360 0.8340
13.402208 0.8310 0.8310 0.8290 0.8270 0.8260
13.436000 0.8240 0.8210 0.8190 0.8170 0.8160
13.469208 0.8160 0.8140 0.8120 0.8120 0.8070
13.502000 0.8060 0.8060 0.8040 0.8040 0.8020
13.535208 0.8020 0.7990 0.7940 0.7920 0.7900
13.568000 0.7890 0.7850 0.7840 0.7820 0.7790
13.601208 0.7750 0.7720 0.7690 0.7650 0.7640
13.635000 0.7620 0.7590 0.7550 0.7520 0.7470
13.668208 0.7440 0.7420 0.7390 0.7350 0.7320
13.701000 0.7290 0.7250 0.7220 0.7220 0.7190
13.734208 0.7140 0.7120 0.7090 0.7070 0.7040
13.768000 0.7020 0.6970 0.6930 0.6920 0.6880
13.801208 0.6830 0.6800 0.6780 0.6750 0.6730
13.834000 0.6680 0.6670 0.6650 0.6620 0.6580
13.867208 0.6550 0.6530 0.6500 0.6470 0.6430
13.900000 0.6420 0.6400 0.6380 0.6370 0.6330
13.933208 0.6320 0.6280 0.6250 0.6230 0.6200
13.967000 0.6150 0.6130 0.6100 0.6080 0.6080
14.000208 0.6070 0.5980 0.5950 0.5930 0.5910
14.033000 0.5880 0.5860 0.5850 0.5830 0.5800
14.066208 0.5780 0.5760 0.5750 0.5710 0.5700
14.100000 0.5700 0.5680 0.5660 0.5650 0.5630
14.133208 0.5610 0.5600 0.5580 0.5580 0.5560
14.166000 0.5560 0.5550 0.5530 0.5530 0.5510
14.199208 0.5500 0.5500 0.5480 0.5460 0.5450
14.232000 0.5430 0.5410 0.5410 0.5400 0.5380
14.265208 0.5360 0.5350 0.5330 0.5310 0.5310
14.299000 0.5300 0.5300 0.5300 0.5300 0.5300
14.332208 0.5280 0.5280 0.5260 0.5260 0.5260
14.365000 0.5260 0.5250 0.5250 0.5230 0.5230
14.398208 0.5210 0.5210 0.5200 0.5180 0.5200
14.432000 0.5180 0.5180 0.5160 0.5160 0.5160
14.465208 0.5160 0.5160 0.5160 0.5160 0.5160
14.498000 0.5160 0.5150 0.5150 0.5150 0.5130
14.531208 0.5130 0.5110 0.5110 0.5100 0.5100
14.564000 0.5100 0.5080 0.5080 0.5080 0.5060
14.597208 0.5060 0.5050 0.5050 0.5050 0.5050
14.631000 0.5050 0.5050 0.5050 0.5050 0.5050
14.664208 0.5050 0.5030 0.5030 0.5030 0.5030
14.697000 0.5030 0.5030 0.5030 0.5030 0.5030
14.730208 0.5010 0.5010 0.5010 0.5010 0.5010
14.763000 0.5010 0.5010 0.5010 0.5010 0.5000
14.796208 0.5000 0.5000 0.5000 0.5000 0.5000
14.830000 0.5000 0.5000 0.5000 0.5000 0.5000
14.863208 0.5000 0.5000 0.5000 0.5000 0.5000
14.896000 0.5000 0.5000 0.4980 0.5000 0.4980
14.929208 0.4980 0.4960 0.4960 0.4960 0.4960
14.963000 0.4940 0.4940 0.4940 0.4940 0.4940
14.996208 0.4930 0.4930 0.4930 0.4930 0.4930
15.029000 0.4930 0.4930 0.4930 0.4930 0.4930
15.062208 0.4930 0.4930 0.4940 0.4940 0.4940
15.095000 0.4940 0.4940 0.4940 0.4940 0.4960
15.128208 0.4960 0.4960 0.4960 0.4960 0.4960
15.162000 0.4960 0.4960 0.4980 0.4980 0.4980
15.195208 0.4980 0.5000 0.5000 0.5000 0.5010
15.228000 0.5010 0.5010 0.5030 0.5030 0.5030
15.261208 0.5030 0.5050 0.5050 0.5050 0.5060
15.295000 0.5060 0.5060 0.5060 0.5060 0.5060
15.328208 0.5060 0.5060 0.5060 0.5060 0.5080
15.361000 0.5080 0.5080 0.5080 0.5080 0.5080
15.394208 0.5100 0.5100 0.5100 0.5100 0.5100
15.427000 0.5110 0.5110 0.5110 0.5110 0.5130
15.460208 0.5130 0.5130 0.5130 0.5150 0.5150
15.494000 0.5150 0.5150 0.5150 0.5160 0.5160
15.527208 0.5160 0.5180 0.5180 0.5180 0.5180
15.560000 0.5180 0.5180 0.5180 0.5180 0.5200
15.593208 0.5200 0.5200 0.5200 0.5200 0.5200
15.626000 0.5200 0.5200 0.5200 0.5200 0.5200
15.659208 0.5200 0.5210 0.5230 0.5230 0.5250
15.693000 0.5250 0.5250 0.5260 0.5280 0.5280
15.726208 0.5300 0.5300 0.5310 0.5310 0.5330
15.759000 0.5330 0.5350 0.5350 0.5360 0.5360
15.792208 0.5360 0.5380 0.5400 0.5400 0.5400
15.826000 0.5410 0.5410 0.5410 0.5430 0.5430
15.859208 0.5430 0.5430 0.5450 0.5450 0.5450
15.892000 0.5450 0.5460 0.5460 0.5480 0.5480
15.925208 0.5480 0.5480 0.5500 0.5500 0.5510
15.958000 0.5500 0.5530 0.5530 0.5550 0.5560
15.991208 0.5550
##END=
