##TITLE=ALLYL SULFONIC ACID, SODIUM SALT
##JCAMP-DX=4.24
##DATA TYPE=INFRARED SPECTRUM
##CLASS=COBLENTZ
##ORIGIN=DOW CHEMICAL COMPANY
##OWNER=COBLENTZ SOCIETY
Collection (C) 2018 copyright by the U.S. Secretary of Commerce
on behalf of the United States of America. All rights reserved.
##DATE=Not specified, most likely prior to 1970
##MOLFORM=C3 H5 Na O3 S
##SOURCE REFERENCE=COBLENTZ NO. 3235
##$NIST ID=B6003235
##$NIST SOURCE=COBLENTZ
##$NIST IMAGE=cob3235
##SPECTROMETER/DATA SYSTEM=Not specified, most likely a prism, grating, or hybrid spectrometer.
##STATE=SOLID (MINERAL OIL MULL)
##PATH LENGTH=
$$SPECTRAL CONTAMINATION DUE TO OIL AROUND 2900, 1450, 1380 CM^-^1
##SAMPLING PROCEDURE=TRANSMISSION
##RESOLUTION=4
##DATA PROCESSING=DIGITIZED BY NIST FROM HARD COPY
##XUNITS=MICROMETERS
##YUNITS=TRANSMITTANCE
##XFACTOR=1.000000
##YFACTOR=1
##DELTAX=000.006856
##FIRSTX=2.055
##LASTX=15.8693
##FIRSTY=0.876
##MAXX=15.8693
##MINX=2.055
##MAXY=0.962
##MINY=0.037
##NPOINTS=2016
##XYDATA=(X++(Y..Y))
2.055000 0.8760 0.8760 0.8780 0.8780 0.8760
2.089297 0.8760 0.8760 0.8760 0.8780 0.8780
2.123000 0.8780 0.8780 0.8780 0.8780 0.8780
2.157297 0.8780 0.8780 0.8780 0.8790 0.8790
2.192000 0.8790 0.8790 0.8780 0.8740 0.8730
2.226297 0.8710 0.8690 0.8670 0.8660 0.8640
2.261000 0.8620 0.8620 0.8610 0.8610 0.8610
2.295297 0.8620 0.8620 0.8640 0.8640 0.8640
2.329000 0.8640 0.8660 0.8660 0.8670 0.8670
2.363297 0.8690 0.8690 0.8670 0.8670 0.8690
2.398000 0.8690 0.8710 0.8730 0.8730 0.8740
2.432297 0.8740 0.8740 0.8740 0.8760 0.8760
2.466000 0.8760 0.8760 0.8780 0.8780 0.8780
2.500297 0.8790 0.8790 0.8790 0.8790 0.8790
2.535000 0.8790 0.8790 0.8790 0.8790 0.8810
2.569297 0.8810 0.8810 0.8810 0.8810 0.8830
2.603000 0.8830 0.8830 0.8850 0.8850 0.8850
2.637297 0.8850 0.8850 0.8850 0.8850 0.8850
2.672000 0.8850 0.8850 0.8850 0.8850 0.8830
2.706297 0.8810 0.8780 0.8760 0.8710 0.8620
2.740000 0.8540 0.8500 0.8490 0.8420 0.8400
2.774297 0.8380 0.8350 0.8300 0.8230 0.8180
2.809000 0.8130 0.8070 0.8020 0.7970 0.7900
2.843297 0.7850 0.7820 0.7800 0.7780 0.7780
2.878000 0.7800 0.7890 0.7950 0.7990 0.8010
2.912297 0.8020 0.8090 0.8110 0.8130 0.8130
2.946000 0.8140 0.8160 0.8180 0.8180 0.8190
2.980297 0.8190 0.8190 0.8210 0.8230 0.8260
3.015000 0.8300 0.8330 0.8350 0.8380 0.8380
3.049297 0.8380 0.8400 0.8400 0.8400 0.8400
3.083000 0.8400 0.8420 0.8450 0.8470 0.8490
3.117297 0.8490 0.8500 0.8520 0.8570 0.8570
3.152000 0.8570 0.8590 0.8590 0.8570 0.8570
3.186297 0.8570 0.8540 0.8500 0.8450 0.8350
3.220000 0.8280 0.8210 0.8110 0.8020 0.7970
3.254297 0.7950 0.7940 0.7950 0.8010 0.8040
3.289000 0.8060 0.8020 0.7800 0.7560 0.7460
3.323297 0.7350 0.7100 0.6770 0.6240 0.5470
3.357000 0.4920 0.4350 0.2790 0.2260 0.1710
3.391297 0.1500 0.1450 0.0900 0.0720 0.0720
3.426000 0.0800 0.0970 0.1210 0.1520 0.1810
3.460297 0.2090 0.2260 0.2330 0.2380 0.2690
3.495000 0.3050 0.3560 0.4210 0.4850 0.6340
3.529297 0.7010 0.7990 0.8190 0.8310 0.8420
3.563000 0.8490 0.8570 0.8670 0.8710 0.8740
3.597297 0.8780 0.8790 0.8790 0.8790 0.8790
3.632000 0.8790 0.8780 0.8780 0.8780 0.8780
3.666297 0.8780 0.8780 0.8790 0.8810 0.8850
3.700000 0.8860 0.8860 0.8860 0.8860 0.8860
3.734297 0.8860 0.8880 0.8880 0.8900 0.8910
3.769000 0.8930 0.8930 0.8950 0.8970 0.8970
3.803297 0.8980 0.8980 0.9000 0.9020 0.9020
3.837000 0.9030 0.9030 0.9050 0.9070 0.9070
3.871297 0.9090 0.9120 0.9150 0.9170 0.9190
3.906000 0.9190 0.9190 0.9190 0.9190 0.9190
3.940297 0.9190 0.9210 0.9210 0.9220 0.9240
3.975000 0.9270 0.9270 0.9270 0.9270 0.9260
4.009297 0.9260 0.9260 0.9260 0.9270 0.9270
4.043000 0.9270 0.9270 0.9270 0.9270 0.9270
4.077297 0.9270 0.9270 0.9270 0.9270 0.9270
4.112000 0.9270 0.9270 0.9270 0.9270 0.9270
4.146297 0.9260 0.9260 0.9260 0.9220 0.9210
4.180000 0.9210 0.9210 0.9210 0.9210 0.9190
4.214297 0.9170 0.9170 0.9170 0.9150 0.9150
4.249000 0.9170 0.9170 0.9190 0.9210 0.9210
4.283297 0.9220 0.9240 0.9240 0.9260 0.9240
4.317000 0.9240 0.9220 0.9210 0.9210 0.9210
4.351297 0.9210 0.9210 0.9210 0.9210 0.9210
4.386000 0.9220 0.9260 0.9260 0.9260 0.9270
4.420297 0.9270 0.9270 0.9270 0.9270 0.9270
4.454000 0.9260 0.9260 0.9260 0.9270 0.9270
4.488297 0.9290 0.9330 0.9380 0.9390 0.9410
4.523000 0.9410 0.9410 0.9430 0.9450 0.9450
4.557297 0.9450 0.9460 0.9480 0.9480 0.9480
4.592000 0.9450 0.9450 0.9450 0.9460 0.9460
4.626297 0.9460 0.9460 0.9480 0.9480 0.9480
4.660000 0.9480 0.9480 0.9480 0.9460 0.9460
4.694297 0.9460 0.9460 0.9460 0.9450 0.9450
4.729000 0.9450 0.9450 0.9450 0.9450 0.9430
4.763297 0.9430 0.9450 0.9450 0.9460 0.9480
4.797000 0.9480 0.9500 0.9500 0.9500 0.9500
4.831297 0.9500 0.9500 0.9500 0.9500 0.9500
4.866000 0.9500 0.9510 0.9530 0.9530 0.9530
4.900297 0.9550 0.9550 0.9550 0.9570 0.9570
4.934000 0.9570 0.9570 0.9570 0.9570 0.9570
4.968297 0.9570 0.9570 0.9570 0.9550 0.9550
5.003000 0.9530 0.9530 0.9530 0.9530 0.9550
5.037297 0.9550 0.9570 0.9570 0.9570 0.9580
5.071000 0.9600 0.9600 0.9600 0.9580 0.9580
5.105297 0.9580 0.9580 0.9580 0.9600 0.9600
5.140000 0.9600 0.9600 0.9580 0.9580 0.9580
5.174297 0.9580 0.9600 0.9600 0.9620 0.9620
5.209000 0.9620 0.9620 0.9600 0.9600 0.9600
5.243297 0.9600 0.9580 0.9580 0.9570 0.9570
5.277000 0.9570 0.9570 0.9550 0.9510 0.9500
5.311297 0.9480 0.9480 0.9460 0.9450 0.9450
5.346000 0.9430 0.9410 0.9410 0.9410 0.9390
5.380297 0.9390 0.9410 0.9460 0.9460 0.9480
5.414000 0.9500 0.9500 0.9500 0.9510 0.9570
5.448297 0.9580 0.9620 0.9620 0.9580 0.9580
5.483000 0.9580 0.9580 0.9580 0.9580 0.9580
5.517297 0.9580 0.9580 0.9580 0.9580 0.9580
5.551000 0.9580 0.9600 0.9600 0.9600 0.9580
5.585297 0.9570 0.9570 0.9550 0.9570 0.9600
5.620000 0.9600 0.9580 0.9580 0.9570 0.9570
5.654297 0.9570 0.9570 0.9550 0.9550 0.9510
5.689000 0.9500 0.9480 0.9460 0.9460 0.9410
5.723297 0.9410 0.9410 0.9410 0.9390 0.9410
5.757000 0.9390 0.9390 0.9390 0.9380 0.9380
5.791297 0.9360 0.9360 0.9380 0.9380 0.9380
5.826000 0.9380 0.9380 0.9380 0.9390 0.9390
5.860297 0.9390 0.9390 0.9390 0.9380 0.9380
5.894000 0.9360 0.9360 0.9340 0.9330 0.9310
5.928297 0.9290 0.9260 0.9220 0.9190 0.9170
5.963000 0.9150 0.9140 0.9120 0.9120 0.9070
5.997297 0.9020 0.8950 0.8880 0.8810 0.8730
6.031000 0.8550 0.8450 0.8230 0.7970 0.7770
6.065297 0.7660 0.7630 0.7630 0.7890 0.8190
6.100000 0.8790 0.9000 0.9050 0.9050 0.9030
6.134297 0.9030 0.9070 0.9100 0.9140 0.9150
6.168000 0.9190 0.9190 0.9260 0.9270 0.9290
6.202297 0.9310 0.9290 0.9310 0.9310 0.9330
6.237000 0.9340 0.9360 0.9360 0.9360 0.9360
6.271297 0.9360 0.9380 0.9380 0.9390 0.9390
6.306000 0.9410 0.9410 0.9410 0.9430 0.9430
6.340297 0.9430 0.9410 0.9410 0.9390 0.9390
6.374000 0.9390 0.9390 0.9410 0.9410 0.9430
6.408297 0.9450 0.9460 0.9460 0.9410 0.9390
6.443000 0.9390 0.9390 0.9390 0.9390 0.9390
6.477297 0.9390 0.9390 0.9390 0.9380 0.9380
6.511000 0.9360 0.9360 0.9340 0.9330 0.9310
6.545297 0.9290 0.9290 0.9270 0.9260 0.9240
6.580000 0.9240 0.9240 0.9220 0.9220 0.9210
6.614297 0.9190 0.9170 0.9150 0.9150 0.9120
6.648000 0.9100 0.9070 0.9000 0.8970 0.8880
6.682297 0.8810 0.8780 0.8710 0.8620 0.8570
6.717000 0.8490 0.8400 0.8250 0.7990 0.7530
6.751297 0.7350 0.7180 0.6750 0.6360 0.6000
6.786000 0.5790 0.5660 0.5570 0.5000 0.4950
6.820297 0.4900 0.4880 0.4900 0.4920 0.5140
6.854000 0.5350 0.5520 0.5740 0.5950 0.6220
6.888297 0.6380 0.6550 0.6650 0.6770 0.6840
6.923000 0.6870 0.6890 0.6910 0.6890 0.6870
6.957297 0.6860 0.6840 0.6840 0.6890 0.6990
6.991000 0.7110 0.7350 0.7870 0.8020 0.8140
7.025297 0.8250 0.8260 0.8260 0.8250 0.8180
7.060000 0.8110 0.8060 0.8010 0.7970 0.7970
7.094297 0.7950 0.7950 0.7970 0.8020 0.8140
7.128000 0.8190 0.8210 0.8230 0.8210 0.8110
7.162297 0.7970 0.7800 0.7680 0.7630 0.7560
7.197000 0.7340 0.7110 0.6990 0.6840 0.6680
7.231297 0.6600 0.6530 0.6530 0.6550 0.6790
7.265000 0.6960 0.7100 0.7230 0.7400 0.7780
7.299297 0.7890 0.7990 0.8110 0.8190 0.8250
7.334000 0.8280 0.8300 0.8300 0.8300 0.8300
7.368297 0.8310 0.8310 0.8310 0.8310 0.8310
7.403000 0.8310 0.8310 0.8330 0.8330 0.8330
7.437297 0.8330 0.8350 0.8370 0.8370 0.8370
7.471000 0.8370 0.8370 0.8350 0.8310 0.8280
7.505297 0.8280 0.8260 0.8250 0.8210 0.8190
7.540000 0.8180 0.8130 0.8090 0.8020 0.7990
7.574297 0.7970 0.7900 0.7850 0.7770 0.7700
7.608000 0.7630 0.7590 0.7560 0.7510 0.7490
7.642297 0.7470 0.7470 0.7420 0.7390 0.7370
7.677000 0.7350 0.7320 0.7300 0.7300 0.7280
7.711297 0.7280 0.7270 0.7250 0.7200 0.7150
7.745000 0.7030 0.6980 0.6870 0.6740 0.6550
7.779297 0.6460 0.6200 0.5960 0.5710 0.5470
7.814000 0.5240 0.5040 0.4930 0.4810 0.4520
7.848297 0.4250 0.3970 0.3800 0.3560 0.3440
7.882000 0.3320 0.3190 0.3030 0.3000 0.2980
7.916297 0.2910 0.2880 0.2830 0.2770 0.2670
7.951000 0.2530 0.2460 0.2400 0.2210 0.2040
7.985297 0.1980 0.1860 0.1740 0.1610 0.1500
8.020000 0.1440 0.1400 0.1400 0.1350 0.1330
8.054297 0.1300 0.1280 0.1230 0.1160 0.1090
8.088000 0.1020 0.0990 0.0920 0.0890 0.0840
8.122297 0.0820 0.0800 0.0780 0.0770 0.0730
8.157000 0.0730 0.0730 0.0720 0.0720 0.0720
8.191297 0.0700 0.0680 0.0660 0.0650 0.0630
8.225000 0.0610 0.0600 0.0580 0.0560 0.0540
8.259297 0.0530 0.0490 0.0480 0.0460 0.0460
8.294000 0.0440 0.0420 0.0420 0.0420 0.0410
8.328297 0.0410 0.0410 0.0390 0.0390 0.0390
8.362000 0.0410 0.0410 0.0390 0.0390 0.0370
8.396297 0.0370 0.0370 0.0370 0.0370 0.0370
8.431000 0.0390 0.0410 0.0440 0.0460 0.0510
8.465297 0.0560 0.0630 0.0720 0.0820 0.0900
8.500000 0.0990 0.1080 0.1250 0.1400 0.1640
8.534297 0.1850 0.1970 0.2100 0.2260 0.2450
8.568000 0.2840 0.3010 0.3120 0.3320 0.3530
8.602297 0.3790 0.4030 0.4250 0.4470 0.4660
8.637000 0.4830 0.5140 0.5300 0.5430 0.5590
8.671297 0.5740 0.5900 0.5980 0.6030 0.6140
8.705000 0.6240 0.6340 0.6440 0.6530 0.6630
8.739297 0.6720 0.6770 0.6820 0.6870 0.6960
8.774000 0.6990 0.7030 0.7060 0.7150 0.7200
8.808297 0.7220 0.7270 0.7300 0.7340 0.7370
8.842000 0.7400 0.7420 0.7460 0.7460 0.7470
8.876297 0.7490 0.7510 0.7530 0.7530 0.7530
8.911000 0.7540 0.7560 0.7560 0.7580 0.7590
8.945297 0.7590 0.7610 0.7610 0.7610 0.7610
8.979000 0.7610 0.7590 0.7580 0.7560 0.7540
9.013297 0.7510 0.7510 0.7490 0.7470 0.7470
9.048000 0.7400 0.7350 0.7300 0.7270 0.7200
9.082297 0.7160 0.7110 0.7060 0.6990 0.6980
9.117000 0.6890 0.6860 0.6800 0.6770 0.6740
9.151297 0.6700 0.6680 0.6670 0.6650 0.6630
9.185000 0.6630 0.6620 0.6620 0.6600 0.6580
9.219297 0.6560 0.6530 0.6480 0.6460 0.6390
9.254000 0.6310 0.6240 0.6120 0.5960 0.5720
9.288297 0.5420 0.5040 0.4850 0.4640 0.4230
9.322000 0.3820 0.3390 0.3000 0.2620 0.2450
9.356297 0.2260 0.1950 0.1640 0.1420 0.1250
9.391000 0.1140 0.1040 0.0960 0.0890 0.0850
9.425297 0.0840 0.0850 0.0870 0.0900 0.0960
9.459000 0.1040 0.1140 0.1230 0.1370 0.1570
9.493297 0.1800 0.2070 0.2380 0.3000 0.3320
9.528000 0.3610 0.3890 0.4130 0.4330 0.4540
9.562297 0.4750 0.4870 0.4970 0.5070 0.5110
9.596000 0.5280 0.5430 0.5620 0.5830 0.6030
9.630297 0.6240 0.6480 0.6700 0.6960 0.7200
9.665000 0.7440 0.7800 0.7890 0.7950 0.8010
9.699297 0.8070 0.8140 0.8190 0.8250 0.8250
9.734000 0.8260 0.8280 0.8310 0.8350 0.8350
9.768297 0.8370 0.8370 0.8370 0.8380 0.8380
9.802000 0.8370 0.8370 0.8350 0.8310 0.8280
9.836297 0.8250 0.8210 0.8180 0.8140 0.8070
9.871000 0.8010 0.7970 0.7890 0.7800 0.7700
9.905297 0.7630 0.7540 0.7510 0.7470 0.7460
9.939000 0.7350 0.7250 0.7180 0.7130 0.7060
9.973297 0.6980 0.6920 0.6910 0.6870 0.6790
10.008000 0.6770 0.6770 0.6790 0.6840 0.6910
10.042297 0.6990 0.7130 0.7230 0.7390 0.7630
10.076000 0.7730 0.7850 0.7940 0.8090 0.8230
10.110297 0.8330 0.8430 0.8470 0.8550 0.8610
10.145000 0.8670 0.8710 0.8740 0.8760 0.8780
10.179297 0.8790 0.8850 0.8860 0.8880 0.8880
10.214000 0.8900 0.8930 0.8930 0.8950 0.8950
10.248297 0.8950 0.8950 0.8950 0.8950 0.8950
10.282000 0.8950 0.8970 0.8970 0.8980 0.8980
10.316297 0.8980 0.8970 0.8970 0.8970 0.8970
10.351000 0.8950 0.8950 0.8950 0.8930 0.8930
10.385297 0.8910 0.8900 0.8880 0.8850 0.8830
10.419000 0.8790 0.8780 0.8740 0.8690 0.8660
10.453297 0.8610 0.8570 0.8550 0.8500 0.8470
10.488000 0.8420 0.8370 0.8300 0.8260 0.8180
10.522297 0.8110 0.8060 0.7990 0.7970 0.7900
10.556000 0.7830 0.7770 0.7770 0.7700 0.7660
10.590297 0.7580 0.7530 0.7510 0.7470 0.7400
10.625000 0.7320 0.7250 0.7160 0.7060 0.6980
10.659297 0.6840 0.6740 0.6600 0.6500 0.6440
10.693000 0.6320 0.6270 0.6190 0.6100 0.6020
10.727297 0.5950 0.5860 0.5780 0.5720 0.5670
10.762000 0.5600 0.5570 0.5540 0.5500 0.5470
10.796297 0.5420 0.5380 0.5380 0.5360 0.5360
10.831000 0.5360 0.5360 0.5400 0.5470 0.5500
10.865297 0.5590 0.5670 0.5790 0.5950 0.6140
10.899000 0.6390 0.6650 0.6920 0.7250 0.7870
10.933297 0.8020 0.8250 0.8420 0.8490 0.8620
10.968000 0.8690 0.8740 0.8780 0.8830 0.8880
11.002297 0.8930 0.8970 0.9000 0.9020 0.9030
11.036000 0.9050 0.9050 0.9070 0.9070 0.9070
11.070297 0.9070 0.9070 0.9090 0.9090 0.9090
11.105000 0.9070 0.9070 0.9070 0.9050 0.9030
11.139297 0.9030 0.9020 0.9000 0.8980 0.8970
11.173000 0.8950 0.8930 0.8910 0.8900 0.8900
11.207297 0.8880 0.8880 0.8860 0.8860 0.8860
11.242000 0.8860 0.8860 0.8860 0.8880 0.8930
11.276297 0.8950 0.8950 0.8970 0.8980 0.8980
11.310000 0.9020 0.9020 0.9070 0.9090 0.9140
11.344297 0.9150 0.9190 0.9220 0.9240 0.9260
11.379000 0.9290 0.9330 0.9380 0.9390 0.9410
11.413297 0.9430 0.9430 0.9450 0.9460 0.9460
11.448000 0.9480 0.9500 0.9500 0.9510 0.9510
11.482297 0.9510 0.9530 0.9530 0.9530 0.9530
11.516000 0.9530 0.9530 0.9530 0.9530 0.9550
11.550297 0.9550 0.9550 0.9550 0.9550 0.9550
11.585000 0.9550 0.9530 0.9530 0.9550 0.9550
11.619297 0.9530 0.9530 0.9530 0.9530 0.9530
11.653000 0.9530 0.9530 0.9530 0.9530 0.9510
11.687297 0.9510 0.9510 0.9510 0.9510 0.9510
11.722000 0.9510 0.9530 0.9530 0.9530 0.9530
11.756297 0.9530 0.9530 0.9530 0.9530 0.9530
11.790000 0.9530 0.9530 0.9530 0.9550 0.9550
11.824297 0.9570 0.9570 0.9570 0.9570 0.9570
11.859000 0.9570 0.9570 0.9570 0.9580 0.9580
11.893297 0.9580 0.9580 0.9580 0.9580 0.9580
11.928000 0.9580 0.9570 0.9570 0.9570 0.9570
11.962297 0.9570 0.9570 0.9580 0.9600 0.9600
11.996000 0.9600 0.9580 0.9580 0.9580 0.9580
12.030297 0.9580 0.9580 0.9580 0.9580 0.9580
12.065000 0.9580 0.9580 0.9580 0.9570 0.9570
12.099297 0.9550 0.9550 0.9550 0.9530 0.9550
12.133000 0.9550 0.9530 0.9530 0.9530 0.9530
12.167297 0.9530 0.9510 0.9510 0.9510 0.9500
12.202000 0.9510 0.9500 0.9500 0.9480 0.9480
12.236297 0.9460 0.9460 0.9450 0.9450 0.9410
12.270000 0.9380 0.9380 0.9340 0.9340 0.9310
12.304297 0.9290 0.9260 0.9240 0.9170 0.9140
12.339000 0.9050 0.8980 0.8950 0.8860 0.8790
12.373297 0.8730 0.8620 0.8470 0.8350 0.8230
12.407000 0.8130 0.7990 0.7850 0.7700 0.7580
12.441297 0.7510 0.7440 0.7270 0.7130 0.6960
12.476000 0.6870 0.6750 0.6650 0.6560 0.6480
12.510297 0.6460 0.6410 0.6390 0.6390 0.6390
12.545000 0.6440 0.6500 0.6580 0.6680 0.6800
12.579297 0.6890 0.7060 0.7230 0.7470 0.7830
12.613000 0.7990 0.8110 0.8190 0.8260 0.8350
12.647297 0.8370 0.8470 0.8490 0.8520 0.8550
12.682000 0.8570 0.8590 0.8610 0.8660 0.8670
12.716297 0.8690 0.8710 0.8730 0.8740 0.8740
12.750000 0.8760 0.8790 0.8830 0.8850 0.8860
12.784297 0.8900 0.8930 0.8950 0.8950 0.8950
12.819000 0.8970 0.8980 0.9020 0.9030 0.9050
12.853297 0.9070 0.9070 0.9070 0.9070 0.9090
12.887000 0.9090 0.9090 0.9100 0.9120 0.9140
12.921297 0.9140 0.9150 0.9150 0.9170 0.9190
12.956000 0.9210 0.9210 0.9210 0.9220 0.9220
12.990297 0.9240 0.9240 0.9240 0.9240 0.9260
13.024000 0.9260 0.9260 0.9270 0.9270 0.9290
13.058297 0.9290 0.9270 0.9270 0.9290 0.9290
13.093000 0.9290 0.9310 0.9310 0.9310 0.9310
13.127297 0.9310 0.9310 0.9310 0.9310 0.9310
13.162000 0.9330 0.9310 0.9310 0.9310 0.9310
13.196297 0.9330 0.9310 0.9310 0.9310 0.9310
13.230000 0.9310 0.9310 0.9290 0.9290 0.9290
13.264297 0.9290 0.9270 0.9270 0.9270 0.9270
13.299000 0.9290 0.9290 0.9290 0.9290 0.9290
13.333297 0.9290 0.9270 0.9270 0.9270 0.9270
13.367000 0.9260 0.9260 0.9240 0.9220 0.9210
13.401297 0.9210 0.9210 0.9210 0.9210 0.9210
13.436000 0.9210 0.9210 0.9190 0.9190 0.9190
13.470297 0.9170 0.9170 0.9150 0.9150 0.9140
13.504000 0.9140 0.9140 0.9120 0.9120 0.9120
13.538297 0.9120 0.9120 0.9120 0.9120 0.9120
13.573000 0.9120 0.9140 0.9140 0.9120 0.9120
13.607297 0.9100 0.9100 0.9100 0.9100 0.9070
13.642000 0.9090 0.9070 0.9070 0.9050 0.9050
13.676297 0.9030 0.9030 0.9030 0.8980 0.8980
13.710000 0.8970 0.8970 0.8970 0.8950 0.8950
13.744297 0.8950 0.8950 0.8950 0.8950 0.8950
13.779000 0.8950 0.8950 0.8950 0.8950 0.8950
13.813297 0.8950 0.8950 0.8950 0.8970 0.8980
13.847000 0.9000 0.9030 0.9030 0.9050 0.9050
13.881297 0.9070 0.9090 0.9100 0.9120 0.9140
13.916000 0.9140 0.9150 0.9170 0.9170 0.9190
13.950297 0.9190 0.9210 0.9210 0.9210 0.9220
13.984000 0.9220 0.9240 0.9240 0.9260 0.9260
14.018297 0.9260 0.9270 0.9270 0.9270 0.9270
14.053000 0.9270 0.9270 0.9270 0.9260 0.9260
14.087297 0.9240 0.9260 0.9260 0.9260 0.9240
14.121000 0.9220 0.9220 0.9190 0.9210 0.9190
14.155297 0.9190 0.9190 0.9190 0.9170 0.9150
14.190000 0.9150 0.9150 0.9150 0.9140 0.9150
14.224297 0.9150 0.9150 0.9150 0.9100 0.9100
14.259000 0.9070 0.9050 0.9030 0.9030 0.9000
14.293297 0.9000 0.9000 0.8980 0.8980 0.8970
14.327000 0.8970 0.8950 0.8950 0.8930 0.8930
14.361297 0.8910 0.8910 0.8900 0.8880 0.8860
14.396000 0.8860 0.8850 0.8810 0.8790 0.8780
14.430297 0.8760 0.8730 0.8690 0.8670 0.8660
14.464000 0.8640 0.8610 0.8610 0.8590 0.8550
14.498297 0.8500 0.8490 0.8470 0.8400 0.8380
14.533000 0.8330 0.8280 0.8260 0.8190 0.8140
14.567297 0.8090 0.8010 0.7950 0.7870 0.7800
14.601000 0.7700 0.7610 0.7540 0.7510 0.7460
14.635297 0.7370 0.7270 0.7150 0.7030 0.6920
14.670000 0.6790 0.6670 0.6530 0.6390 0.6270
14.704297 0.6140 0.6000 0.5860 0.5710 0.5590
14.738000 0.5450 0.5330 0.5210 0.5110 0.5000
14.772297 0.4930 0.4870 0.4750 0.4590 0.4490
14.807000 0.4370 0.4320 0.4210 0.4130 0.4040
14.841297 0.3970 0.3890 0.3820 0.3750 0.3700
14.876000 0.3650 0.3610 0.3550 0.3490 0.3460
14.910297 0.3410 0.3360 0.3310 0.3290 0.3270
14.944000 0.3220 0.3190 0.3170 0.3130 0.3120
14.978297 0.3100 0.3080 0.3070 0.3050 0.3030
15.013000 0.3010 0.3000 0.3000 0.2980 0.2980
15.047297 0.2960 0.2960 0.2960 0.2960 0.2960
15.081000 0.2980 0.3000 0.3000 0.3010 0.3010
15.115297 0.3030 0.3080 0.3100 0.3120 0.3130
15.150000 0.3190 0.3200 0.3240 0.3250 0.3310
15.184297 0.3340 0.3360 0.3390 0.3430 0.3440
15.218000 0.3480 0.3510 0.3550 0.3600 0.3650
15.252297 0.3700 0.3730 0.3790 0.3800 0.3850
15.287000 0.3890 0.3920 0.3970 0.4040 0.4090
15.321297 0.4150 0.4210 0.4280 0.4350 0.4420
15.356000 0.4490 0.4560 0.4630 0.4690 0.4760
15.390297 0.4850 0.4950 0.5060 0.5110 0.5180
15.424000 0.5240 0.5350 0.5400 0.5480 0.5540
15.458297 0.5600 0.5660 0.5710 0.5780 0.5840
15.493000 0.5910 0.5980 0.6020 0.6030 0.6080
15.527297 0.6120 0.6190 0.6220 0.6270 0.6310
15.561000 0.6320 0.6360 0.6360 0.6390 0.6440
15.595297 0.6500 0.6510 0.6530 0.6550 0.6580
15.630000 0.6620 0.6620 0.6630 0.6650 0.6670
15.664297 0.6670 0.6680 0.6700 0.6720 0.6720
15.698000 0.6740 0.6750 0.6770 0.6770 0.6770
15.732297 0.6790 0.6790 0.6790 0.6800 0.6800
15.767000 0.6820 0.6820 0.6840 0.6840 0.6840
15.801297 0.6860 0.6860 0.6870 0.6870 0.6870
15.835000 0.6890 0.6890 0.6890 0.6890 0.6890
15.869297 0.6890
##END=
