##TITLE=Purine, 2-amino-, nitrate
##JCAMP-DX=4.24
##DATA TYPE=INFRARED SPECTRUM
##CLASS=COBLENTZ III
##ORIGIN=SOUTHERN RESEARCH INSTITUTE
##OWNER=Copyright (C) 1987 by the Coblentz Society
Collection (C) 2018 copyright by the U.S. Secretary of Commerce
on behalf of the United States of America. All rights reserved.
##DATE=1956/02/02
##NAMES=nitric acid compound with 7H-purin-2-amine (1:1)
##MOLFORM=C5 H6 N6 O3
##SOURCE REFERENCE=COBLENTZ NO. 6897
##$NIST ID=B6006897
##$NIST SOURCE=COBLENTZ
##$NIST IMAGE=cob6897
##SPECTROMETER/DATA SYSTEM=PERKIN-ELMER 21 (GRATING)
##INSTRUMENT PARAMETERS=FILTER CHANGE ABOUT 1070 CM^-^1
##STATE=SOLID (0.9 mg / 650 mg KBr DISC)
##RESOLUTION=2
##XUNITS=1/CM
##YUNITS=TRANSMITTANCE
##XFACTOR=1.0
##YFACTOR=1
##FIRSTX=619
##LASTX=3900
##FIRSTY=0.6114
##MAXX=3900
##MINX=619
##MAXY=0.8854
##MINY=0.0445
##NPOINTS=3282
##XYDATA=(X++(Y..Y))
619.000000 0.6114 0.6117 0.6120 0.6123 0.6126
624.000000 0.6129 0.6133 0.6143 0.6153 0.6166
629.000000 0.6301 0.6476 0.6651 0.6825 0.7000
634.000000 0.7175 0.7349 0.7524 0.7689 0.7720
639.000000 0.7737 0.7745 0.7746 0.7748 0.7749
644.000000 0.7751 0.7752 0.7754 0.7755 0.7756
649.000000 0.7757 0.7759 0.7760 0.7761 0.7762
654.000000 0.7761 0.7760 0.7760 0.7759 0.7758
659.000000 0.7758 0.7757 0.7756 0.7753 0.7748
664.000000 0.7743 0.7738 0.7734 0.7729 0.7712
669.000000 0.7693 0.7675 0.7650 0.7619 0.7587
674.000000 0.7555 0.7522 0.7489 0.7457 0.7423
679.000000 0.7340 0.7268 0.7227 0.7186 0.7143
684.000000 0.7096 0.7050 0.6999 0.6938 0.6875
689.000000 0.6802 0.6729 0.6642 0.6512 0.6472
694.000000 0.6432 0.6392 0.6352 0.6312 0.6272
699.000000 0.6231 0.6197 0.6192 0.6193 0.6184
704.000000 0.6226 0.6249 0.6275 0.6344 0.6662
709.000000 0.6721 0.6736 0.6730 0.6739 0.6711
714.000000 0.6699 0.6688 0.6676 0.6662 0.6647
719.000000 0.6632 0.6606 0.6579 0.6552 0.6511
724.000000 0.6468 0.6422 0.6348 0.6273 0.6192
729.000000 0.6111 0.6047 0.5989 0.5932 0.5880
734.000000 0.5835 0.5791 0.5750 0.5720 0.5697
739.000000 0.5685 0.5694 0.5711 0.5726 0.5740
744.000000 0.5754 0.5765 0.5776 0.5788 0.5799
749.000000 0.5808 0.5815 0.5823 0.5826 0.5829
754.000000 0.5832 0.5836 0.5837 0.5836 0.5834
759.000000 0.5833 0.5830 0.5832 0.5822 0.5817
764.000000 0.5811 0.5799 0.5786 0.5757 0.5717
769.000000 0.5635 0.5536 0.5405 0.5271 0.5250
774.000000 0.5242 0.5240 0.5226 0.5238 0.5312
779.000000 0.5575 0.5838 0.5994 0.5996 0.5996
784.000000 0.5996 0.5998 0.5999 0.6218 0.6604
789.000000 0.6608 0.6609 0.6610 0.6610 0.6610
794.000000 0.6625 0.6608 0.6604 0.6600 0.6596
799.000000 0.6583 0.6569 0.6553 0.6533 0.6513
804.000000 0.6490 0.6459 0.6428 0.6380 0.6333
809.000000 0.6286 0.6189 0.6091 0.6018 0.5933
814.000000 0.5787 0.5588 0.5389 0.5190 0.4992
819.000000 0.4857 0.4853 0.4852 0.4857 0.4864
824.000000 0.5051 0.5239 0.5427 0.5615 0.5803
829.000000 0.5992 0.6172 0.6274 0.6550 0.6660
834.000000 0.6723 0.6780 0.6827 0.6875 0.6908
839.000000 0.6936 0.6964 0.6980 0.6995 0.7007
844.000000 0.7016 0.7025 0.7031 0.7037 0.7041
849.000000 0.7043 0.7046 0.7049 0.7053 0.7057
854.000000 0.7061 0.7064 0.7065 0.7067 0.7069
859.000000 0.7071 0.7071 0.7078 0.7069 0.7067
864.000000 0.7065 0.7062 0.7059 0.7057 0.7056
869.000000 0.7055 0.7054 0.7047 0.7041 0.7035
874.000000 0.7029 0.7021 0.7013 0.7001 0.6989
879.000000 0.6977 0.6965 0.6951 0.6938 0.6923
884.000000 0.6898 0.6872 0.6847 0.6783 0.6713
889.000000 0.6656 0.6609 0.6581 0.6562 0.6557
894.000000 0.6551 0.6547 0.6559 0.6571 0.6582
899.000000 0.6594 0.6606 0.6614 0.6617 0.6615
904.000000 0.6611 0.6606 0.6599 0.6583 0.6558
909.000000 0.6494 0.6419 0.6364 0.6316 0.6267
914.000000 0.6182 0.6118 0.6066 0.6007 0.5925
919.000000 0.5767 0.5385 0.5172 0.4959 0.4746
924.000000 0.4533 0.4320 0.4176 0.4163 0.4179
929.000000 0.4287 0.5023 0.5759 0.6774 0.6858
934.000000 0.6895 0.6916 0.6921 0.6925 0.6929
939.000000 0.6932 0.6932 0.6930 0.6927 0.6927
944.000000 0.6927 0.6928 0.6928 0.6926 0.6923
949.000000 0.6921 0.6919 0.6915 0.6911 0.6906
954.000000 0.6902 0.6898 0.6893 0.6892 0.6891
959.000000 0.6891 0.6901 0.6915 0.6939 0.6985
964.000000 0.7048 0.7109 0.7169 0.7254 0.7338
969.000000 0.7398 0.7477 0.7577 0.7608 0.7614
974.000000 0.7619 0.7625 0.7623 0.7620 0.7615
979.000000 0.7615 0.7612 0.7610 0.7602 0.7587
984.000000 0.7572 0.7556 0.7537 0.7515 0.7493
989.000000 0.7472 0.7451 0.7429 0.7408 0.7388
994.000000 0.7368 0.7349 0.7329 0.7309 0.7293
999.000000 0.7283 0.7272 0.7261 0.7250 0.7237
1004.000000 0.7220 0.7202 0.7171 0.7138 0.7060
1009.000000 0.7007 0.6975 0.6963 0.6953 0.6945
1014.000000 0.6936 0.6927 0.6916 0.6904 0.6891
1019.000000 0.6878 0.6866 0.6849 0.6833 0.6816
1024.000000 0.6800 0.6784 0.6760 0.6733 0.6707
1029.000000 0.6681 0.6653 0.6616 0.6579 0.6542
1034.000000 0.6505 0.6469 0.6432 0.6391 0.6373
1039.000000 0.6373 0.6385 0.6397 0.6420 0.6444
1044.000000 0.6470 0.6474 0.6471 0.6467 0.6462
1049.000000 0.6447 0.6420 0.6394 0.6369 0.6348
1054.000000 0.6326 0.6301 0.6274 0.6247 0.6220
1059.000000 0.6193 0.6165 0.6138 0.6103 0.6051
1064.000000 0.5995 0.5931 0.5866 0.5798 0.5726
1069.000000 0.5653 0.5565 0.5474 0.5379 0.5281
1074.000000 0.5190 0.5039 0.4819 0.4599 0.4360
1079.000000 0.4275 0.4229 0.4194 0.4184 0.4180
1084.000000 0.4179 0.4177 0.4205 0.4383 0.4622
1089.000000 0.4704 0.4771 0.4820 0.4892 0.5006
1094.000000 0.5177 0.5323 0.5394 0.5464 0.5958
1099.000000 0.6109 0.6147 0.6183 0.6196 0.6208
1104.000000 0.6221 0.6233 0.6246 0.6252 0.6257
1109.000000 0.6261 0.6312 0.6267 0.6263 0.6259
1114.000000 0.6255 0.6251 0.6247 0.6241 0.6235
1119.000000 0.6229 0.6223 0.6217 0.6211 0.6205
1124.000000 0.6199 0.6193 0.6186 0.6180 0.6173
1129.000000 0.6167 0.6160 0.6154 0.6147 0.6140
1134.000000 0.6133 0.6126 0.6119 0.6112 0.6105
1139.000000 0.6097 0.6090 0.6083 0.6075 0.6065
1144.000000 0.6054 0.6043 0.6033 0.6022 0.6011
1149.000000 0.5997 0.5980 0.5964 0.5947 0.5930
1154.000000 0.5913 0.5897 0.5880 0.5857 0.5831
1159.000000 0.5805 0.5779 0.5753 0.5725 0.5691
1164.000000 0.5657 0.5623 0.5584 0.5533 0.5482
1169.000000 0.5392 0.5392 0.5392 0.5393 0.5349
1174.000000 0.5399 0.5412 0.5458 0.5576 0.5614
1179.000000 0.5644 0.5656 0.5668 0.5668 0.5665
1184.000000 0.5661 0.5686 0.5631 0.5603 0.5564
1189.000000 0.5518 0.5450 0.5350 0.5243 0.5137
1194.000000 0.5031 0.4925 0.4831 0.4765 0.4698
1199.000000 0.4626 0.4558 0.4507 0.4465 0.4433
1204.000000 0.4405 0.4395 0.4383 0.4397 0.4501
1209.000000 0.4680 0.4860 0.5039 0.5219 0.5314
1214.000000 0.5318 0.5317 0.5332 0.5295 0.5264
1219.000000 0.5241 0.5225 0.5210 0.5201 0.5196
1224.000000 0.5157 0.5125 0.5094 0.5063 0.5036
1229.000000 0.5009 0.4982 0.4955 0.4928 0.4902
1234.000000 0.4876 0.4850 0.4824 0.4798 0.4772
1239.000000 0.4750 0.4729 0.4707 0.4688 0.4676
1244.000000 0.4663 0.4651 0.4636 0.4619 0.4603
1249.000000 0.4581 0.4557 0.4532 0.4508 0.4450
1254.000000 0.4381 0.4329 0.4278 0.4227 0.4173
1259.000000 0.4116 0.4059 0.4001 0.3935 0.3864
1264.000000 0.3793 0.3706 0.3612 0.3385 0.3305
1269.000000 0.3289 0.3277 0.3274 0.3271 0.3268
1274.000000 0.3266 0.3264 0.3262 0.3260 0.3258
1279.000000 0.3255 0.3253 0.3250 0.3247 0.3245
1284.000000 0.3234 0.3221 0.3168 0.3072 0.2981
1289.000000 0.2905 0.2829 0.2760 0.2691 0.2596
1294.000000 0.2424 0.2355 0.2339 0.2344 0.2350
1299.000000 0.2398 0.2478 0.2527 0.2562 0.2591
1304.000000 0.2601 0.2611 0.2610 0.2607 0.2599
1309.000000 0.2590 0.2576 0.2562 0.2542 0.2519
1314.000000 0.2495 0.2471 0.2446 0.2417 0.2385
1319.000000 0.2354 0.2321 0.2287 0.2253 0.2197
1324.000000 0.2136 0.2082 0.2031 0.1980 0.1927
1329.000000 0.1873 0.1822 0.1771 0.1729 0.1697
1334.000000 0.1666 0.1634 0.1603 0.1571 0.1548
1339.000000 0.1532 0.1515 0.1498 0.1481 0.1464
1344.000000 0.1449 0.1439 0.1430 0.1408 0.1328
1349.000000 0.1281 0.1237 0.1196 0.1179 0.1161
1354.000000 0.1144 0.1116 0.1083 0.1049 0.1019
1359.000000 0.0991 0.0963 0.0935 0.0891 0.0840
1364.000000 0.0789 0.0740 0.0693 0.0644 0.0584
1369.000000 0.0560 0.0546 0.0533 0.0519 0.0506
1374.000000 0.0492 0.0479 0.0465 0.0458 0.0445
1379.000000 0.0452 0.0449 0.0460 0.0476 0.0497
1384.000000 0.0535 0.0609 0.0682 0.0766 0.0954
1389.000000 0.1041 0.1079 0.1105 0.1130 0.1156
1394.000000 0.1180 0.1204 0.1228 0.1251 0.1271
1399.000000 0.1285 0.1299 0.1313 0.1327 0.1339
1404.000000 0.1350 0.1360 0.1371 0.1381 0.1391
1409.000000 0.1402 0.1412 0.1425 0.1445 0.1465
1414.000000 0.1485 0.1512 0.1548 0.1584 0.1712
1419.000000 0.1742 0.1759 0.1771 0.1783 0.1795
1424.000000 0.1813 0.1839 0.2052 0.2183 0.2314
1429.000000 0.2445 0.2576 0.2707 0.2838 0.2970
1434.000000 0.3101 0.3204 0.3254 0.3304 0.3340
1439.000000 0.3370 0.3400 0.3424 0.3447 0.3470
1444.000000 0.3526 0.3624 0.3721 0.3819 0.3917
1449.000000 0.4014 0.4112 0.4210 0.4307 0.4405
1454.000000 0.4503 0.4600 0.4698 0.4796 0.4893
1459.000000 0.4991 0.5089 0.5187 0.5284 0.5382
1464.000000 0.5480 0.5577 0.5694 0.5742 0.5791
1469.000000 0.5833 0.5868 0.5904 0.5927 0.5931
1474.000000 0.5936 0.5943 0.5924 0.5918 0.5902
1479.000000 0.5878 0.5843 0.5806 0.5739 0.5697
1484.000000 0.5654 0.5598 0.5540 0.5481 0.5422
1489.000000 0.5372 0.5326 0.5280 0.5241 0.5219
1494.000000 0.5217 0.5216 0.5219 0.5209 0.5325
1499.000000 0.5434 0.5543 0.5652 0.5761 0.5869
1504.000000 0.5978 0.6087 0.6196 0.6305 0.6413
1509.000000 0.6522 0.6631 0.6740 0.6849 0.6957
1514.000000 0.7066 0.7175 0.7228 0.7252 0.7273
1519.000000 0.7288 0.7302 0.7309 0.7329 0.7316
1524.000000 0.7316 0.7310 0.7304 0.7291 0.7270
1529.000000 0.7249 0.7201 0.7125 0.7104 0.7086
1534.000000 0.7082 0.7081 0.7079 0.7078 0.7074
1539.000000 0.7071 0.7067 0.7062 0.7041 0.7014
1544.000000 0.6946 0.6877 0.6809 0.6733 0.6657
1549.000000 0.6603 0.6548 0.6521 0.6494 0.6467
1554.000000 0.6446 0.6431 0.6416 0.6399 0.6372
1559.000000 0.6345 0.6318 0.6284 0.6235 0.6128
1564.000000 0.5992 0.5856 0.5720 0.5584 0.5448
1569.000000 0.5312 0.5176 0.5039 0.4729 0.4668
1574.000000 0.4601 0.4485 0.4444 0.4403 0.4378
1579.000000 0.4361 0.4343 0.4335 0.4326 0.4317
1584.000000 0.4309 0.4296 0.4283 0.4270 0.4246
1589.000000 0.4215 0.4154 0.4068 0.3965 0.3830
1594.000000 0.3668 0.3506 0.3410 0.3314 0.3233
1599.000000 0.3160 0.3087 0.3007 0.2891 0.2775
1604.000000 0.2640 0.2388 0.2209 0.2093 0.1954
1609.000000 0.1868 0.1782 0.1671 0.1611 0.1551
1614.000000 0.1483 0.1466 0.1497 0.1473 0.1495
1619.000000 0.1527 0.1554 0.1580 0.1605 0.1625
1624.000000 0.1644 0.1653 0.1655 0.1654 0.1652
1629.000000 0.1650 0.1660 0.1642 0.1635 0.1629
1634.000000 0.1619 0.1608 0.1597 0.1586 0.1574
1639.000000 0.1563 0.1550 0.1537 0.1523 0.1510
1644.000000 0.1494 0.1478 0.1461 0.1452 0.1448
1649.000000 0.1444 0.1440 0.1440 0.1442 0.1456
1654.000000 0.1447 0.1450 0.1457 0.1465 0.1473
1659.000000 0.1509 0.1545 0.1588 0.1631 0.1675
1664.000000 0.1719 0.1764 0.1817 0.1896 0.1990
1669.000000 0.2121 0.2320 0.2537 0.2754 0.2971
1674.000000 0.3826 0.4049 0.4258 0.4422 0.4732
1679.000000 0.4855 0.4978 0.5129 0.5260 0.6041
1684.000000 0.6130 0.6216 0.6297 0.6353 0.6396
1689.000000 0.6439 0.6468 0.6497 0.6788 0.6873
1694.000000 0.6952 0.6988 0.7023 0.7054 0.7081
1699.000000 0.7107 0.7133 0.7160 0.7200 0.7515
1704.000000 0.7625 0.7684 0.7720 0.7738 0.7756
1709.000000 0.7766 0.7777 0.7799 0.7832 0.7864
1714.000000 0.7897 0.7929 0.7962 0.7994 0.8007
1719.000000 0.8020 0.8033 0.8046 0.8059 0.8073
1724.000000 0.8089 0.8105 0.8120 0.8127 0.8133
1729.000000 0.8138 0.8140 0.8141 0.8143 0.8144
1734.000000 0.8145 0.8147 0.8151 0.8156 0.8160
1739.000000 0.8165 0.8170 0.8174 0.8179 0.8183
1744.000000 0.8191 0.8199 0.8208 0.8216 0.8243
1749.000000 0.8276 0.8321 0.8366 0.8403 0.8439
1754.000000 0.8479 0.8520 0.8561 0.8589 0.8608
1759.000000 0.8628 0.8647 0.8666 0.8676 0.8681
1764.000000 0.8687 0.8691 0.8687 0.8682 0.8678
1769.000000 0.8674 0.8669 0.8662 0.8655 0.8648
1774.000000 0.8641 0.8634 0.8627 0.8626 0.8629
1779.000000 0.8631 0.8634 0.8636 0.8644 0.8653
1784.000000 0.8662 0.8671 0.8680 0.8695 0.8712
1789.000000 0.8729 0.8746 0.8763 0.8781 0.8799
1794.000000 0.8810 0.8819 0.8829 0.8838 0.8836
1799.000000 0.8831 0.8826 0.8822 0.8822 0.8822
1804.000000 0.8821 0.8821 0.8821 0.8820 0.8821
1809.000000 0.8825 0.8829 0.8833 0.8837 0.8854
1814.000000 0.8844 0.8847 0.8850 0.8850 0.8849
1819.000000 0.8847 0.8846 0.8844 0.8842 0.8840
1824.000000 0.8838 0.8836 0.8834 0.8832 0.8830
1829.000000 0.8828 0.8826 0.8824 0.8823 0.8822
1834.000000 0.8821 0.8819 0.8818 0.8817 0.8816
1839.000000 0.8814 0.8813 0.8812 0.8810 0.8808
1844.000000 0.8807 0.8805 0.8803 0.8801 0.8799
1849.000000 0.8797 0.8795 0.8794 0.8792 0.8790
1854.000000 0.8787 0.8781 0.8776 0.8771 0.8766
1859.000000 0.8760 0.8755 0.8749 0.8737 0.8725
1864.000000 0.8713 0.8701 0.8685 0.8669 0.8653
1869.000000 0.8643 0.8637 0.8631 0.8626 0.8620
1874.000000 0.8614 0.8609 0.8604 0.8601 0.8599
1879.000000 0.8597 0.8595 0.8593 0.8591 0.8588
1884.000000 0.8585 0.8583 0.8580 0.8577 0.8575
1889.000000 0.8572 0.8569 0.8567 0.8566 0.8565
1894.000000 0.8564 0.8563 0.8562 0.8562 0.8561
1899.000000 0.8560 0.8559 0.8558 0.8557 0.8557
1904.000000 0.8556 0.8555 0.8554 0.8553 0.8552
1909.000000 0.8552 0.8553 0.8553 0.8553 0.8553
1914.000000 0.8553 0.8554 0.8554 0.8554 0.8554
1919.000000 0.8554 0.8555 0.8555 0.8555 0.8555
1924.000000 0.8556 0.8557 0.8559 0.8560 0.8561
1929.000000 0.8563 0.8564 0.8566 0.8567 0.8569
1934.000000 0.8571 0.8572 0.8574 0.8576 0.8578
1939.000000 0.8579 0.8580 0.8581 0.8581 0.8581
1944.000000 0.8581 0.8581 0.8581 0.8582 0.8582
1949.000000 0.8582 0.8582 0.8582 0.8583 0.8583
1954.000000 0.8582 0.8581 0.8579 0.8578 0.8577
1959.000000 0.8573 0.8569 0.8565 0.8561 0.8557
1964.000000 0.8553 0.8549 0.8545 0.8541 0.8537
1969.000000 0.8532 0.8527 0.8523 0.8518 0.8513
1974.000000 0.8509 0.8504 0.8500 0.8495 0.8490
1979.000000 0.8486 0.8481 0.8477 0.8472 0.8467
1984.000000 0.8463 0.8458 0.8454 0.8450 0.8445
1989.000000 0.8441 0.8437 0.8433 0.8428 0.8424
1994.000000 0.8420 0.8415 0.8411 0.8407 0.8403
1999.000000 0.8398 0.8394 0.8390 0.8385 0.8381
2004.000000 0.8377 0.8372 0.8368 0.8363 0.8359
2009.000000 0.8354 0.8349 0.8345 0.8340 0.8336
2014.000000 0.8331 0.8326 0.8322 0.8318 0.8314
2019.000000 0.8311 0.8308 0.8305 0.8302 0.8299
2024.000000 0.8295 0.8292 0.8289 0.8286 0.8283
2029.000000 0.8279 0.8276 0.8273 0.8270 0.8267
2034.000000 0.8266 0.8265 0.8264 0.8263 0.8262
2039.000000 0.8261 0.8260 0.8259 0.8259 0.8260
2044.000000 0.8261 0.8262 0.8263 0.8264 0.8265
2049.000000 0.8266 0.8267 0.8267 0.8268 0.8269
2054.000000 0.8270 0.8271 0.8271 0.8272 0.8267
2059.000000 0.8262 0.8258 0.8253 0.8248 0.8243
2064.000000 0.8239 0.8234 0.8229 0.8225 0.8221
2069.000000 0.8216 0.8212 0.8208 0.8203 0.8199
2074.000000 0.8195 0.8190 0.8186 0.8181 0.8177
2079.000000 0.8172 0.8168 0.8163 0.8159 0.8154
2084.000000 0.8150 0.8145 0.8141 0.8136 0.8132
2089.000000 0.8127 0.8123 0.8119 0.8115 0.8111
2094.000000 0.8107 0.8103 0.8099 0.8095 0.8091
2099.000000 0.8086 0.8082 0.8078 0.8074 0.8070
2104.000000 0.8066 0.8062 0.8058 0.8054 0.8050
2109.000000 0.8046 0.8042 0.8038 0.8034 0.8030
2114.000000 0.8025 0.8021 0.8017 0.8012 0.8008
2119.000000 0.8003 0.7999 0.7995 0.7990 0.7986
2124.000000 0.7981 0.7977 0.7973 0.7968 0.7964
2129.000000 0.7960 0.7955 0.7951 0.7946 0.7942
2134.000000 0.7938 0.7934 0.7931 0.7927 0.7924
2139.000000 0.7921 0.7917 0.7914 0.7910 0.7907
2144.000000 0.7903 0.7900 0.7897 0.7893 0.7890
2149.000000 0.7886 0.7883 0.7880 0.7876 0.7873
2154.000000 0.7869 0.7866 0.7862 0.7859 0.7856
2159.000000 0.7853 0.7851 0.7848 0.7845 0.7842
2164.000000 0.7840 0.7837 0.7834 0.7831 0.7828
2169.000000 0.7826 0.7823 0.7820 0.7817 0.7815
2174.000000 0.7812 0.7809 0.7806 0.7804 0.7801
2179.000000 0.7798 0.7796 0.7793 0.7791 0.7789
2184.000000 0.7787 0.7785 0.7783 0.7780 0.7778
2189.000000 0.7775 0.7771 0.7766 0.7762 0.7758
2194.000000 0.7754 0.7750 0.7746 0.7742 0.7737
2199.000000 0.7733 0.7729 0.7725 0.7721 0.7717
2204.000000 0.7713 0.7708 0.7704 0.7700 0.7696
2209.000000 0.7692 0.7688 0.7683 0.7679 0.7675
2214.000000 0.7670 0.7666 0.7661 0.7657 0.7652
2219.000000 0.7648 0.7643 0.7639 0.7634 0.7630
2224.000000 0.7625 0.7620 0.7616 0.7611 0.7607
2229.000000 0.7602 0.7598 0.7593 0.7588 0.7583
2234.000000 0.7578 0.7573 0.7568 0.7563 0.7558
2239.000000 0.7553 0.7548 0.7543 0.7538 0.7533
2244.000000 0.7528 0.7522 0.7517 0.7512 0.7507
2249.000000 0.7502 0.7497 0.7492 0.7487 0.7482
2254.000000 0.7477 0.7472 0.7467 0.7461 0.7456
2259.000000 0.7453 0.7450 0.7446 0.7443 0.7440
2264.000000 0.7436 0.7433 0.7429 0.7426 0.7423
2269.000000 0.7419 0.7416 0.7413 0.7409 0.7406
2274.000000 0.7402 0.7398 0.7394 0.7390 0.7386
2279.000000 0.7382 0.7378 0.7374 0.7371 0.7367
2284.000000 0.7355 0.7343 0.7332 0.7311 0.7290
2289.000000 0.7269 0.7248 0.7226 0.7205 0.7184
2294.000000 0.7163 0.7139 0.7115 0.7091 0.7067
2299.000000 0.7043 0.7018 0.6998 0.6979 0.6960
2304.000000 0.6941 0.6922 0.6909 0.6903 0.6897
2309.000000 0.6891 0.6885 0.6878 0.6872 0.6866
2314.000000 0.6860 0.6854 0.6848 0.6842 0.6836
2319.000000 0.6829 0.6823 0.6817 0.6811 0.6805
2324.000000 0.6799 0.6793 0.6787 0.6780 0.6774
2329.000000 0.6768 0.6762 0.6756 0.6750 0.6744
2334.000000 0.6738 0.6732 0.6726 0.6720 0.6714
2339.000000 0.6708 0.6702 0.6696 0.6690 0.6684
2344.000000 0.6677 0.6671 0.6665 0.6657 0.6644
2349.000000 0.6639 0.6635 0.6630 0.6625 0.6620
2354.000000 0.6618 0.6617 0.6619 0.6625 0.6631
2359.000000 0.6637 0.6638 0.6638 0.6637 0.6637
2364.000000 0.6635 0.6631 0.6627 0.6623 0.6619
2369.000000 0.6615 0.6611 0.6607 0.6603 0.6598
2374.000000 0.6594 0.6589 0.6585 0.6580 0.6576
2379.000000 0.6571 0.6566 0.6560 0.6554 0.6548
2384.000000 0.6542 0.6536 0.6529 0.6521 0.6514
2389.000000 0.6506 0.6499 0.6491 0.6484 0.6477
2394.000000 0.6469 0.6462 0.6455 0.6448 0.6441
2399.000000 0.6435 0.6428 0.6421 0.6414 0.6408
2404.000000 0.6401 0.6394 0.6388 0.6381 0.6374
2409.000000 0.6368 0.6364 0.6360 0.6355 0.6351
2414.000000 0.6347 0.6343 0.6339 0.6335 0.6330
2419.000000 0.6323 0.6315 0.6307 0.6299 0.6291
2424.000000 0.6283 0.6275 0.6267 0.6259 0.6249
2429.000000 0.6239 0.6229 0.6220 0.6210 0.6200
2434.000000 0.6190 0.6180 0.6171 0.6161 0.6151
2439.000000 0.6141 0.6131 0.6122 0.6112 0.6103
2444.000000 0.6095 0.6086 0.6078 0.6069 0.6061
2449.000000 0.6052 0.6044 0.6035 0.6027 0.6022
2454.000000 0.6019 0.6016 0.6013 0.6010 0.6008
2459.000000 0.6005 0.6002 0.5999 0.5996 0.5994
2464.000000 0.5991 0.5988 0.5985 0.5983 0.5980
2469.000000 0.5977 0.5975 0.5970 0.5961 0.5953
2474.000000 0.5944 0.5936 0.5927 0.5919 0.5910
2479.000000 0.5902 0.5893 0.5885 0.5876 0.5867
2484.000000 0.5859 0.5850 0.5841 0.5831 0.5822
2489.000000 0.5813 0.5804 0.5794 0.5785 0.5776
2494.000000 0.5766 0.5757 0.5748 0.5739 0.5730
2499.000000 0.5721 0.5712 0.5703 0.5694 0.5685
2504.000000 0.5676 0.5667 0.5658 0.5649 0.5640
2509.000000 0.5631 0.5622 0.5613 0.5604 0.5595
2514.000000 0.5586 0.5577 0.5566 0.5556 0.5545
2519.000000 0.5535 0.5524 0.5513 0.5503 0.5488
2524.000000 0.5472 0.5456 0.5441 0.5425 0.5409
2529.000000 0.5394 0.5380 0.5367 0.5354 0.5340
2534.000000 0.5327 0.5314 0.5301 0.5287 0.5274
2539.000000 0.5262 0.5249 0.5237 0.5224 0.5212
2544.000000 0.5200 0.5187 0.5175 0.5162 0.5150
2549.000000 0.5138 0.5127 0.5115 0.5103 0.5092
2554.000000 0.5080 0.5069 0.5057 0.5045 0.5034
2559.000000 0.5022 0.5011 0.5000 0.4989 0.4978
2564.000000 0.4967 0.4956 0.4945 0.4934 0.4922
2569.000000 0.4911 0.4900 0.4889 0.4878 0.4867
2574.000000 0.4856 0.4845 0.4834 0.4823 0.4813
2579.000000 0.4803 0.4794 0.4784 0.4775 0.4765
2584.000000 0.4755 0.4746 0.4736 0.4727 0.4717
2589.000000 0.4708 0.4698 0.4688 0.4679 0.4673
2594.000000 0.4666 0.4660 0.4654 0.4648 0.4642
2599.000000 0.4636 0.4629 0.4623 0.4617 0.4611
2604.000000 0.4605 0.4599 0.4593 0.4586 0.4580
2609.000000 0.4573 0.4564 0.4556 0.4547 0.4538
2614.000000 0.4529 0.4520 0.4512 0.4503 0.4494
2619.000000 0.4479 0.4464 0.4450 0.4435 0.4420
2624.000000 0.4406 0.4393 0.4380 0.4367 0.4356
2629.000000 0.4351 0.4346 0.4340 0.4335 0.4329
2634.000000 0.4317 0.4306 0.4295 0.4283 0.4272
2639.000000 0.4260 0.4248 0.4235 0.4223 0.4210
2644.000000 0.4198 0.4185 0.4173 0.4160 0.4149
2649.000000 0.4139 0.4128 0.4118 0.4108 0.4098
2654.000000 0.4087 0.4077 0.4067 0.4057 0.4046
2659.000000 0.4036 0.4026 0.4016 0.4005 0.3995
2664.000000 0.3984 0.3972 0.3960 0.3947 0.3935
2669.000000 0.3923 0.3911 0.3899 0.3886 0.3874
2674.000000 0.3862 0.3850 0.3838 0.3825 0.3813
2679.000000 0.3801 0.3789 0.3777 0.3765 0.3753
2684.000000 0.3741 0.3728 0.3716 0.3704 0.3692
2689.000000 0.3680 0.3668 0.3656 0.3644 0.3631
2694.000000 0.3619 0.3607 0.3595 0.3583 0.3569
2699.000000 0.3556 0.3542 0.3529 0.3515 0.3502
2704.000000 0.3488 0.3475 0.3461 0.3448 0.3435
2709.000000 0.3421 0.3408 0.3395 0.3383 0.3370
2714.000000 0.3357 0.3345 0.3332 0.3319 0.3307
2719.000000 0.3294 0.3281 0.3269 0.3259 0.3251
2724.000000 0.3243 0.3234 0.3226 0.3218 0.3209
2729.000000 0.3201 0.3194 0.3193 0.3192 0.3190
2734.000000 0.3189 0.3188 0.3186 0.3185 0.3184
2739.000000 0.3182 0.3181 0.3180 0.3179 0.3179
2744.000000 0.3179 0.3180 0.3180 0.3162 0.3180
2749.000000 0.3180 0.3181 0.3181 0.3181 0.3181
2754.000000 0.3181 0.3182 0.3183 0.3185 0.3188
2759.000000 0.3190 0.3192 0.3196 0.3200 0.3203
2764.000000 0.3207 0.3211 0.3215 0.3219 0.3222
2769.000000 0.3225 0.3228 0.3231 0.3234 0.3237
2774.000000 0.3240 0.3243 0.3245 0.3247 0.3249
2779.000000 0.3251 0.3253 0.3255 0.3256 0.3258
2784.000000 0.3259 0.3260 0.3261 0.3262 0.3263
2789.000000 0.3264 0.3266 0.3267 0.3269 0.3270
2794.000000 0.3272 0.3273 0.3275 0.3277 0.3278
2799.000000 0.3280 0.3281 0.3282 0.3283 0.3283
2804.000000 0.3284 0.3284 0.3285 0.3285 0.3286
2809.000000 0.3286 0.3287 0.3287 0.3287 0.3286
2814.000000 0.3285 0.3284 0.3283 0.3282 0.3281
2819.000000 0.3280 0.3280 0.3278 0.3278 0.3277
2824.000000 0.3276 0.3274 0.3272 0.3270 0.3267
2829.000000 0.3265 0.3263 0.3260 0.3258 0.3255
2834.000000 0.3253 0.3250 0.3245 0.3241 0.3237
2839.000000 0.3233 0.3228 0.3224 0.3219 0.3212
2844.000000 0.3205 0.3197 0.3190 0.3182 0.3175
2849.000000 0.3167 0.3160 0.3151 0.3142 0.3133
2854.000000 0.3124 0.3115 0.3106 0.3097 0.3088
2859.000000 0.3079 0.3070 0.3061 0.3052 0.3044
2864.000000 0.3036 0.3028 0.3019 0.3011 0.3003
2869.000000 0.2995 0.2987 0.2978 0.2970 0.2962
2874.000000 0.2954 0.2945 0.2937 0.2929 0.2921
2879.000000 0.2912 0.2903 0.2894 0.2885 0.2876
2884.000000 0.2867 0.2858 0.2849 0.2840 0.2831
2889.000000 0.2822 0.2813 0.2804 0.2795 0.2786
2894.000000 0.2777 0.2768 0.2760 0.2753 0.2746
2899.000000 0.2738 0.2731 0.2724 0.2716 0.2709
2904.000000 0.2701 0.2694 0.2687 0.2679 0.2672
2909.000000 0.2665 0.2657 0.2650 0.2643 0.2635
2914.000000 0.2629 0.2623 0.2618 0.2612 0.2606
2919.000000 0.2600 0.2595 0.2589 0.2583 0.2577
2924.000000 0.2571 0.2566 0.2560 0.2556 0.2551
2929.000000 0.2546 0.2541 0.2536 0.2531 0.2527
2934.000000 0.2522 0.2517 0.2512 0.2507 0.2503
2939.000000 0.2498 0.2493 0.2488 0.2483 0.2478
2944.000000 0.2474 0.2469 0.2464 0.2461 0.2457
2949.000000 0.2454 0.2450 0.2447 0.2443 0.2440
2954.000000 0.2437 0.2433 0.2430 0.2426 0.2423
2959.000000 0.2419 0.2416 0.2412 0.2409 0.2405
2964.000000 0.2402 0.2398 0.2395 0.2391 0.2388
2969.000000 0.2383 0.2378 0.2372 0.2366 0.2360
2974.000000 0.2355 0.2349 0.2343 0.2338 0.2332
2979.000000 0.2326 0.2320 0.2315 0.2309 0.2303
2984.000000 0.2294 0.2284 0.2273 0.2263 0.2253
2989.000000 0.2242 0.2232 0.2222 0.2211 0.2202
2994.000000 0.2194 0.2185 0.2177 0.2169 0.2161
2999.000000 0.2152 0.2144 0.2136 0.2128 0.2119
3004.000000 0.2113 0.2107 0.2101 0.2095 0.2089
3009.000000 0.2083 0.2077 0.2071 0.2065 0.2059
3014.000000 0.2055 0.2052 0.2049 0.2046 0.2043
3019.000000 0.2040 0.2038 0.2035 0.2032 0.2029
3024.000000 0.2026 0.2024 0.2021 0.2018 0.2017
3029.000000 0.2015 0.2013 0.2011 0.2010 0.2008
3034.000000 0.2006 0.2004 0.2003 0.2001 0.1999
3039.000000 0.1997 0.1996 0.1994 0.1992 0.1990
3044.000000 0.1989 0.1988 0.1987 0.1986 0.1985
3049.000000 0.1983 0.1982 0.1981 0.1980 0.1979
3054.000000 0.1978 0.1977 0.1976 0.1975 0.1974
3059.000000 0.1973 0.1971 0.1972 0.1974 0.1976
3064.000000 0.1978 0.1979 0.1981 0.1980 0.1985
3069.000000 0.1986 0.1988 0.1990 0.1992 0.1993
3074.000000 0.1995 0.1998 0.2003 0.2008 0.2012
3079.000000 0.2017 0.2022 0.2027 0.2031 0.2036
3084.000000 0.2041 0.2046 0.2054 0.2063 0.2072
3089.000000 0.2080 0.2089 0.2098 0.2107 0.2115
3094.000000 0.2124 0.2135 0.2145 0.2156 0.2167
3099.000000 0.2178 0.2188 0.2199 0.2210 0.2220
3104.000000 0.2231 0.2242 0.2257 0.2272 0.2287
3109.000000 0.2302 0.2317 0.2332 0.2347 0.2359
3114.000000 0.2370 0.2381 0.2391 0.2402 0.2413
3119.000000 0.2424 0.2434 0.2443 0.2453 0.2462
3124.000000 0.2471 0.2481 0.2490 0.2500 0.2513
3129.000000 0.2525 0.2538 0.2550 0.2564 0.2579
3134.000000 0.2595 0.2611 0.2626 0.2642 0.2657
3139.000000 0.2670 0.2681 0.2693 0.2708 0.2722
3144.000000 0.2733 0.2745 0.2756 0.2768 0.2779
3149.000000 0.2791 0.2804 0.2817 0.2830 0.2843
3154.000000 0.2858 0.2873 0.2885 0.2895 0.2904
3159.000000 0.2913 0.2922 0.2931 0.2941 0.2948
3164.000000 0.2956 0.2963 0.2970 0.2977 0.2985
3169.000000 0.2992 0.2998 0.3005 0.3011 0.3018
3174.000000 0.3024 0.3031 0.3037 0.3044 0.3051
3179.000000 0.3056 0.3061 0.3066 0.3071 0.3077
3184.000000 0.3082 0.3087 0.3092 0.3097 0.3100
3189.000000 0.3103 0.3106 0.3109 0.3113 0.3116
3194.000000 0.3119 0.3122 0.3125 0.3127 0.3129
3199.000000 0.3130 0.3131 0.3132 0.3133 0.3157
3204.000000 0.3136 0.3137 0.3138 0.3139 0.3140
3209.000000 0.3139 0.3139 0.3138 0.3137 0.3137
3214.000000 0.3136 0.3136 0.3135 0.3134 0.3129
3219.000000 0.3123 0.3118 0.3113 0.3108 0.3103
3224.000000 0.3097 0.3092 0.3081 0.3069 0.3057
3229.000000 0.3046 0.3034 0.3024 0.3014 0.3004
3234.000000 0.2994 0.2984 0.2974 0.2964 0.2954
3239.000000 0.2946 0.2940 0.2934 0.2928 0.2922
3244.000000 0.2916 0.2910 0.2904 0.2898 0.2892
3249.000000 0.2886 0.2881 0.2878 0.2874 0.2871
3254.000000 0.2868 0.2864 0.2861 0.2859 0.2860
3259.000000 0.2888 0.2864 0.2866 0.2868 0.2870
3264.000000 0.2872 0.2874 0.2876 0.2878 0.2881
3269.000000 0.2884 0.2888 0.2892 0.2895 0.2899
3274.000000 0.2903 0.2906 0.2910 0.2913 0.2917
3279.000000 0.2921 0.2926 0.2931 0.2937 0.2942
3284.000000 0.2948 0.2953 0.2958 0.2964 0.2969
3289.000000 0.2974 0.2980 0.2985 0.2991 0.2995
3294.000000 0.3000 0.3004 0.3008 0.3013 0.3019
3299.000000 0.3025 0.3031 0.3072 0.3113 0.3124
3304.000000 0.3133 0.3143 0.3152 0.3158 0.3162
3309.000000 0.3166 0.3173 0.3181 0.3190 0.3198
3314.000000 0.3207 0.3216 0.3225 0.3233 0.3242
3319.000000 0.3251 0.3260 0.3282 0.3305 0.3333
3324.000000 0.3367 0.3398 0.3415 0.3432 0.3446
3329.000000 0.3453 0.3461 0.3468 0.3475 0.3483
3334.000000 0.3490 0.3497 0.3505 0.3513 0.3522
3339.000000 0.3538 0.3553 0.3569 0.3586 0.3604
3344.000000 0.3621 0.3639 0.3657 0.3675 0.3692
3349.000000 0.3710 0.3731 0.3754 0.3778 0.3801
3354.000000 0.3825 0.3844 0.3863 0.3882 0.3901
3359.000000 0.3919 0.3938 0.3957 0.3976 0.3995
3364.000000 0.4014 0.4033 0.4052 0.4071 0.4094
3369.000000 0.4118 0.4142 0.4165 0.4182 0.4197
3374.000000 0.4210 0.4222 0.4235 0.4248 0.4260
3379.000000 0.4273 0.4283 0.4294 0.4304 0.4314
3384.000000 0.4326 0.4339 0.4352 0.4365 0.4377
3389.000000 0.4390 0.4403 0.4416 0.4430 0.4445
3394.000000 0.4461 0.4476 0.4491 0.4506 0.4521
3399.000000 0.4538 0.4556 0.4574 0.4592 0.4610
3404.000000 0.4628 0.4647 0.4669 0.4691 0.4713
3409.000000 0.4735 0.4758 0.4781 0.4805 0.4828
3414.000000 0.4848 0.4860 0.4872 0.4877 0.4880
3419.000000 0.4884 0.4888 0.4891 0.4903 0.4925
3424.000000 0.4943 0.4960 0.4978 0.4995 0.5013
3429.000000 0.5035 0.5058 0.5082 0.5106 0.5129
3434.000000 0.5153 0.5177 0.5198 0.5218 0.5239
3439.000000 0.5259 0.5279 0.5300 0.5319 0.5337
3444.000000 0.5356 0.5374 0.5392 0.5410 0.5428
3449.000000 0.5447 0.5465 0.5483 0.5503 0.5523
3454.000000 0.5544 0.5564 0.5584 0.5605 0.5622
3459.000000 0.5637 0.5652 0.5666 0.5681 0.5696
3464.000000 0.5711 0.5724 0.5737 0.5751 0.5764
3469.000000 0.5777 0.5791 0.5804 0.5817 0.5831
3474.000000 0.5844 0.5856 0.5869 0.5882 0.5895
3479.000000 0.5908 0.5921 0.5934 0.5947 0.5960
3484.000000 0.5972 0.5985 0.5998 0.6010 0.6022
3489.000000 0.6035 0.6047 0.6059 0.6072 0.6086
3494.000000 0.6102 0.6117 0.6133 0.6149 0.6165
3499.000000 0.6181 0.6197 0.6212 0.6228 0.6248
3504.000000 0.6274 0.6299 0.6305 0.6310 0.6314
3509.000000 0.6320 0.6327 0.6333 0.6340 0.6347
3514.000000 0.6353 0.6360 0.6366 0.6373 0.6379
3519.000000 0.6387 0.6396 0.6404 0.6412 0.6420
3524.000000 0.6428 0.6437 0.6450 0.6463 0.6475
3529.000000 0.6488 0.6501 0.6513 0.6526 0.6539
3534.000000 0.6552 0.6564 0.6577 0.6593 0.6609
3539.000000 0.6624 0.6640 0.6655 0.6673 0.6693
3544.000000 0.6713 0.6734 0.6754 0.6774 0.6796
3549.000000 0.6818 0.6839 0.6861 0.6883 0.6897
3554.000000 0.6909 0.6922 0.6935 0.6947 0.6956
3559.000000 0.6965 0.6974 0.6983 0.6992 0.7009
3564.000000 0.7027 0.7045 0.7063 0.7081 0.7100
3569.000000 0.7119 0.7139 0.7158 0.7178 0.7197
3574.000000 0.7216 0.7234 0.7252 0.7262 0.7272
3579.000000 0.7283 0.7293 0.7303 0.7309 0.7316
3584.000000 0.7322 0.7330 0.7340 0.7350 0.7359
3589.000000 0.7369 0.7379 0.7389 0.7398 0.7407
3594.000000 0.7416 0.7425 0.7434 0.7443 0.7452
3599.000000 0.7461 0.7471 0.7481 0.7491 0.7501
3604.000000 0.7511 0.7521 0.7531 0.7541 0.7551
3609.000000 0.7561 0.7571 0.7583 0.7594 0.7606
3614.000000 0.7617 0.7629 0.7640 0.7652 0.7663
3619.000000 0.7675 0.7685 0.7695 0.7705 0.7714
3624.000000 0.7724 0.7734 0.7740 0.7747 0.7753
3629.000000 0.7760 0.7766 0.7772 0.7775 0.7779
3634.000000 0.7782 0.7786 0.7786 0.7787 0.7787
3639.000000 0.7787 0.7787 0.7787 0.7788 0.7787
3644.000000 0.7787 0.7787 0.7787 0.7787 0.7787
3649.000000 0.7787 0.7787 0.7787 0.7787 0.7787
3654.000000 0.7787 0.7786 0.7786 0.7786 0.7786
3659.000000 0.7786 0.7786 0.7786 0.7786 0.7786
3664.000000 0.7786 0.7786 0.7786 0.7786 0.7786
3669.000000 0.7800 0.7786 0.7786 0.7786 0.7787
3674.000000 0.7787 0.7787 0.7787 0.7787 0.7788
3679.000000 0.7788 0.7788 0.7789 0.7791 0.7793
3684.000000 0.7795 0.7797 0.7800 0.7808 0.7819
3689.000000 0.7830 0.7842 0.7853 0.7860 0.7868
3694.000000 0.7873 0.7876 0.7878 0.7879 0.7879
3699.000000 0.7879 0.7879 0.7879 0.7880 0.7880
3704.000000 0.7880 0.7880 0.7880 0.7881 0.7881
3709.000000 0.7881 0.7880 0.7879 0.7878 0.7877
3714.000000 0.7876 0.7875 0.7874 0.7873 0.7872
3719.000000 0.7870 0.7868 0.7866 0.7864 0.7863
3724.000000 0.7861 0.7859 0.7857 0.7855 0.7852
3729.000000 0.7849 0.7846 0.7843 0.7840 0.7837
3734.000000 0.7834 0.7831 0.7827 0.7820 0.7814
3739.000000 0.7807 0.7800 0.7792 0.7785 0.7779
3744.000000 0.7779 0.7780 0.7781 0.7782 0.7782
3749.000000 0.7783 0.7783 0.7783 0.7783 0.7783
3754.000000 0.7783 0.7782 0.7782 0.7782 0.7782
3759.000000 0.7782 0.7781 0.7781 0.7780 0.7779
3764.000000 0.7778 0.7778 0.7777 0.7776 0.7775
3769.000000 0.7775 0.7774 0.7773 0.7772 0.7771
3774.000000 0.7771 0.7770 0.7770 0.7769 0.7769
3779.000000 0.7768 0.7768 0.7767 0.7767 0.7766
3784.000000 0.7766 0.7765 0.7763 0.7757 0.7751
3789.000000 0.7745 0.7736 0.7721 0.7705 0.7690
3794.000000 0.7670 0.7644 0.7618 0.7609 0.7602
3799.000000 0.7595 0.7589 0.7588 0.7587 0.7585
3804.000000 0.7584 0.7583 0.7582 0.7581 0.7581
3809.000000 0.7580 0.7579 0.7579 0.7578 0.7577
3814.000000 0.7575 0.7573 0.7572 0.7570 0.7568
3819.000000 0.7566 0.7564 0.7557 0.7550 0.7543
3824.000000 0.7533 0.7524 0.7519 0.7516 0.7512
3829.000000 0.7509 0.7506 0.7503 0.7500 0.7498
3834.000000 0.7495 0.7493 0.7490 0.7488 0.7486
3839.000000 0.7485 0.7484 0.7483 0.7482 0.7480
3844.000000 0.7479 0.7478 0.7477 0.7476 0.7475
3849.000000 0.7474 0.7473 0.7472 0.7471 0.7470
3854.000000 0.7469 0.7468 0.7467 0.7466 0.7465
3859.000000 0.7464 0.7463 0.7463 0.7463 0.7464
3864.000000 0.7464 0.7464 0.7464 0.7464 0.7465
3869.000000 0.7465 0.7465 0.7465 0.7466 0.7466
3874.000000 0.7467 0.7467 0.7468 0.7468 0.7469
3879.000000 0.7469 0.7470 0.7470 0.7471 0.7470
3884.000000 0.7468 0.7466 0.7464 0.7462 0.7460
3889.000000 0.7458 0.7456 0.7454 0.7452 0.7450
3894.000000 0.7448 0.7446 0.7444 0.7442 0.7440
3899.000000 0.7438 0.7438
##END=
