##TITLE=Thiaxanthene, 9-(3-dimethylaminopropyl)-2-triflluoromethyl-,maleate (1 to 1)
##JCAMP-DX=4.24
##DATA TYPE=INFRARED SPECTRUM
##CLASS=COBLENTZ III
##ORIGIN=SMITH KLINE & FRENCH LABS.
##OWNER=Copyright (C) 1987 by the Coblentz Society
Collection (C) 2018 copyright by the U.S. Secretary of Commerce
on behalf of the United States of America. All rights reserved.
##DATE=1966/02/21
##MOLFORM=C23 H24 F3 N O4 S
##SOURCE REFERENCE=COBLENTZ NO. 9100
##$NIST ID=B6009100
##$NIST SOURCE=COBLENTZ
##$NIST IMAGE=cob9100
##SPECTROMETER/DATA SYSTEM=PERKIN-ELMER 21 (GRATING)
##INSTRUMENT PARAMETERS=NaCl PRISM
##STATE=SOLID (OIL MULL)
$$SPECTRAL CONTAMINATION DUE TO OIL AROUND 2900 CM^-^1
##SAMPLING PROCEDURE=TRANSMISSION
##RESOLUTION=2
##DATA PROCESSING=DIGITIZED BY COBLENTZ SOCIETY (BATCH II) FROM HARD COPY
##XUNITS=1/CM
##YUNITS=TRANSMITTANCE
##XFACTOR=1.0
##YFACTOR=1
##FIRSTX=661
##LASTX=4000
##FIRSTY=0.6059
##MAXX=4000
##MINX=661
##MAXY=0.9237
##MINY=0.0557
##NPOINTS=3340
##XYDATA=(X++(Y..Y))
661.000000 0.6059 0.6089 0.6117 0.6101 0.6072
666.000000 0.6233 0.6488 0.6590 0.6623 0.6696
671.000000 0.6749 0.6758 0.6765 0.6825 0.6840
676.000000 0.6848 0.6851 0.6852 0.6860 0.6854
681.000000 0.6896 0.6926 0.6914 0.6895 0.6860
686.000000 0.6806 0.6721 0.6613 0.6452 0.6234
691.000000 0.6029 0.6033 0.6213 0.6511 0.6747
696.000000 0.6922 0.7084 0.7210 0.7265 0.7287
701.000000 0.7282 0.7295 0.7245 0.7274 0.7281
706.000000 0.7272 0.7258 0.7239 0.7211 0.7182
711.000000 0.7161 0.7140 0.7091 0.6982 0.6878
716.000000 0.6785 0.6697 0.6606 0.6504 0.6410
721.000000 0.6317 0.6211 0.6080 0.5978 0.5967
726.000000 0.6039 0.6169 0.6150 0.5801 0.5449
731.000000 0.5439 0.5956 0.6348 0.6396 0.6390
736.000000 0.6410 0.6349 0.6308 0.6225 0.6115
741.000000 0.5824 0.5398 0.4633 0.4539 0.4850
746.000000 0.5380 0.5419 0.5358 0.5191 0.4839
751.000000 0.4437 0.4036 0.3852 0.3964 0.4019
756.000000 0.3988 0.3737 0.3381 0.3188 0.2968
761.000000 0.2818 0.2738 0.2735 0.2989 0.3335
766.000000 0.3657 0.4071 0.4488 0.4908 0.5570
771.000000 0.6264 0.6524 0.6809 0.7088 0.7291
776.000000 0.7469 0.7722 0.8007 0.8211 0.8385
781.000000 0.8539 0.8657 0.8724 0.8759 0.8787
786.000000 0.8810 0.8825 0.8836 0.8841 0.8831
791.000000 0.8802 0.8759 0.8711 0.8632 0.8541
796.000000 0.8404 0.8242 0.8198 0.8213 0.8271
801.000000 0.8482 0.8662 0.8763 0.8805 0.8841
806.000000 0.8803 0.8783 0.8756 0.8728 0.8698
811.000000 0.8668 0.8635 0.8595 0.8555 0.8512
816.000000 0.8468 0.8393 0.8363 0.8354 0.8326
821.000000 0.8277 0.8229 0.8179 0.8122 0.8062
826.000000 0.7991 0.7916 0.7837 0.7761 0.7717
831.000000 0.7674 0.7660 0.7650 0.7653 0.7667
836.000000 0.7650 0.7593 0.7513 0.7377 0.7212
841.000000 0.7038 0.6846 0.6655 0.6431 0.6150
846.000000 0.5803 0.4708 0.3597 0.3594 0.4256
851.000000 0.5040 0.5824 0.6595 0.6831 0.6815
856.000000 0.6812 0.6720 0.6358 0.5889 0.5421
861.000000 0.4954 0.4489 0.4025 0.3561 0.3113
866.000000 0.3109 0.3439 0.4102 0.4448 0.4791
871.000000 0.5134 0.5211 0.5239 0.5058 0.4924
876.000000 0.4792 0.4659 0.4532 0.4476 0.4440
881.000000 0.4669 0.4992 0.5314 0.5660 0.5937
886.000000 0.6274 0.6454 0.6509 0.6514 0.6506
891.000000 0.6382 0.6227 0.5647 0.5406 0.5399
896.000000 0.6316 0.6628 0.6865 0.7049 0.7173
901.000000 0.7244 0.7269 0.7280 0.7246 0.7210
906.000000 0.7157 0.7080 0.6945 0.6767 0.6588
911.000000 0.6546 0.6727 0.6808 0.6853 0.6891
916.000000 0.6917 0.6940 0.6951 0.6950 0.6971
921.000000 0.6939 0.6924 0.6876 0.6776 0.6751
926.000000 0.6746 0.6721 0.6647 0.6548 0.6464
931.000000 0.6422 0.6380 0.6330 0.6271 0.6199
936.000000 0.6112 0.6006 0.5877 0.5746 0.5620
941.000000 0.5566 0.5553 0.5551 0.5546 0.5538
946.000000 0.5513 0.5452 0.5294 0.5129 0.4874
951.000000 0.4647 0.4421 0.4196 0.4118 0.4128
956.000000 0.4428 0.4676 0.4925 0.5061 0.5113
961.000000 0.5137 0.5150 0.5155 0.5154 0.5200
966.000000 0.5138 0.5115 0.5090 0.5062 0.5028
971.000000 0.4984 0.4940 0.4884 0.4816 0.4772
976.000000 0.4736 0.4650 0.4579 0.4548 0.4542
981.000000 0.4538 0.4519 0.4472 0.4400 0.4330
986.000000 0.4265 0.4208 0.4149 0.4074 0.3997
991.000000 0.3854 0.3733 0.3505 0.3488 0.3482
996.000000 0.3491 0.3498 0.3502 0.3506 0.3502
1001.000000 0.3477 0.3470 0.3514 0.3555 0.3596
1006.000000 0.3651 0.3680 0.3698 0.3724 0.3685
1011.000000 0.3656 0.3620 0.3584 0.3549 0.3515
1016.000000 0.3482 0.3452 0.3422 0.3393 0.3358
1021.000000 0.3324 0.3290 0.3256 0.3224 0.3193
1026.000000 0.3162 0.3130 0.3100 0.3070 0.3040
1031.000000 0.3010 0.2985 0.2967 0.2949 0.2930
1036.000000 0.2912 0.2891 0.2866 0.2841 0.2818
1041.000000 0.2802 0.2785 0.2769 0.2759 0.2759
1046.000000 0.2778 0.2873 0.2943 0.2943 0.2933
1051.000000 0.2898 0.2847 0.2786 0.2735 0.2741
1056.000000 0.2772 0.2816 0.2911 0.3026 0.3115
1061.000000 0.3170 0.3149 0.3137 0.3096 0.3015
1066.000000 0.2937 0.2788 0.2638 0.2602 0.2669
1071.000000 0.2774 0.2785 0.2774 0.2750 0.2622
1076.000000 0.2393 0.2276 0.2217 0.2172 0.2123
1081.000000 0.2062 0.1995 0.1923 0.1845 0.1802
1086.000000 0.1772 0.1750 0.1753 0.1809 0.1915
1091.000000 0.2138 0.2492 0.2849 0.3017 0.3066
1096.000000 0.3077 0.3077 0.3070 0.3058 0.3033
1101.000000 0.3000 0.2947 0.2828 0.2677 0.2526
1106.000000 0.2376 0.2226 0.2145 0.2011 0.1587
1111.000000 0.1184 0.0974 0.0869 0.0828 0.0823
1116.000000 0.0826 0.0834 0.1561 0.1761 0.1841
1121.000000 0.1931 0.2011 0.2086 0.2156 0.2209
1126.000000 0.2283 0.2678 0.2910 0.3027 0.3165
1131.000000 0.3275 0.3290 0.3284 0.3313 0.3223
1136.000000 0.3123 0.2935 0.2748 0.2561 0.2374
1141.000000 0.2187 0.2001 0.1942 0.1937 0.1969
1146.000000 0.2135 0.2160 0.2172 0.2341 0.2834
1151.000000 0.3144 0.3452 0.3646 0.3659 0.3660
1156.000000 0.3548 0.3400 0.3252 0.3182 0.3265
1161.000000 0.3356 0.3355 0.3323 0.3160 0.2758
1166.000000 0.2523 0.2525 0.2540 0.2697 0.2893
1171.000000 0.3087 0.3281 0.3476 0.3615 0.3689
1176.000000 0.3756 0.3811 0.3835 0.3855 0.3864
1181.000000 0.3836 0.3716 0.3598 0.3478 0.3359
1186.000000 0.3240 0.3121 0.3060 0.3042 0.3584
1191.000000 0.4001 0.4418 0.4834 0.5214 0.5266
1196.000000 0.5269 0.5210 0.5139 0.5021 0.4784
1201.000000 0.4544 0.4305 0.4066 0.3827 0.3681
1206.000000 0.3668 0.3847 0.4123 0.4398 0.4672
1211.000000 0.4946 0.5219 0.5493 0.5752 0.5933
1216.000000 0.6050 0.6135 0.6223 0.6312 0.6379
1221.000000 0.6441 0.6500 0.6548 0.6595 0.6635
1226.000000 0.6666 0.6696 0.6727 0.6763 0.6799
1231.000000 0.6837 0.6885 0.6933 0.6979 0.7024
1236.000000 0.7046 0.7056 0.7072 0.7041 0.7029
1241.000000 0.7011 0.6977 0.6935 0.6894 0.6848
1246.000000 0.6799 0.6719 0.6618 0.6463 0.6268
1251.000000 0.6089 0.5911 0.5757 0.5738 0.5765
1256.000000 0.5847 0.6118 0.6443 0.6535 0.6551
1261.000000 0.6556 0.6559 0.6468 0.6277 0.6086
1266.000000 0.5896 0.5707 0.5231 0.4778 0.4395
1271.000000 0.4325 0.4607 0.5078 0.5548 0.5983
1276.000000 0.6114 0.6136 0.6139 0.6138 0.6137
1281.000000 0.6147 0.6114 0.6072 0.6012 0.5945
1286.000000 0.5873 0.5783 0.5709 0.5646 0.5582
1291.000000 0.5493 0.5387 0.5201 0.5015 0.4828
1296.000000 0.4643 0.4457 0.4271 0.4087 0.3902
1301.000000 0.3745 0.3665 0.3606 0.3538 0.3451
1306.000000 0.3331 0.3300 0.3287 0.3279 0.3271
1311.000000 0.3256 0.3140 0.2998 0.2856 0.2715
1316.000000 0.2574 0.2432 0.2296 0.2217 0.2165
1321.000000 0.1894 0.1121 0.0982 0.0903 0.0836
1326.000000 0.0795 0.0772 0.0772 0.0772 0.1047
1331.000000 0.1244 0.1441 0.1637 0.1834 0.2030
1336.000000 0.2225 0.2421 0.2616 0.2811 0.2825
1341.000000 0.2844 0.2816 0.2696 0.2557 0.2418
1346.000000 0.2279 0.2197 0.2157 0.1984 0.1748
1351.000000 0.1512 0.1276 0.1066 0.1014 0.1010
1356.000000 0.1130 0.1380 0.1629 0.1808 0.1844
1361.000000 0.1875 0.1908 0.1949 0.1992 0.2055
1366.000000 0.2093 0.2118 0.2057 0.1823 0.1550
1371.000000 0.1278 0.1160 0.1165 0.1170 0.1262
1376.000000 0.1404 0.1546 0.1689 0.1831 0.1957
1381.000000 0.2000 0.2007 0.2156 0.2618 0.2987
1386.000000 0.3356 0.3724 0.4091 0.4458 0.4811
1391.000000 0.5035 0.5271 0.5367 0.5436 0.5474
1396.000000 0.5510 0.5529 0.5532 0.5522 0.5508
1401.000000 0.5466 0.5349 0.5135 0.4915 0.4694
1406.000000 0.4474 0.4253 0.4033 0.3814 0.3595
1411.000000 0.3411 0.3373 0.3329 0.3294 0.3275
1416.000000 0.3269 0.3264 0.3259 0.3250 0.3224
1421.000000 0.3164 0.3070 0.2965 0.2777 0.2564
1426.000000 0.2413 0.2148 0.2011 0.1982 0.1960
1431.000000 0.1951 0.1918 0.1726 0.1393 0.1201
1436.000000 0.1090 0.1039 0.0988 0.0937 0.0886
1441.000000 0.0843 0.0824 0.0804 0.0784 0.0768
1446.000000 0.0758 0.0748 0.0738 0.0728 0.0719
1451.000000 0.0711 0.0708 0.0703 0.0700 0.0700
1456.000000 0.0703 0.0685 0.0709 0.0715 0.0725
1461.000000 0.0734 0.0744 0.0752 0.0761 0.0771
1466.000000 0.0785 0.0800 0.0817 0.0837 0.0860
1471.000000 0.0901 0.0961 0.1026 0.1100 0.1166
1476.000000 0.1236 0.1342 0.1515 0.1656 0.1730
1481.000000 0.1803 0.1860 0.1908 0.1957 0.2006
1486.000000 0.2053 0.2098 0.2143 0.2188 0.2238
1491.000000 0.2296 0.2354 0.2411 0.2464 0.2513
1496.000000 0.2562 0.2611 0.2688 0.2779 0.2854
1501.000000 0.2910 0.2966 0.3025 0.3094 0.3164
1506.000000 0.3209 0.3241 0.3271 0.3302 0.3334
1511.000000 0.3370 0.3409 0.3448 0.3487 0.3508
1516.000000 0.3520 0.3515 0.3510 0.3504 0.3494
1521.000000 0.3477 0.3463 0.3451 0.3445 0.3448
1526.000000 0.3453 0.3463 0.3478 0.3504 0.3535
1531.000000 0.3589 0.3653 0.3729 0.3824 0.3921
1536.000000 0.4019 0.4115 0.4206 0.4289 0.4349
1541.000000 0.4398 0.4437 0.4470 0.4494 0.4504
1546.000000 0.4510 0.4511 0.4467 0.4498 0.4476
1551.000000 0.4452 0.4426 0.4388 0.4349 0.4307
1556.000000 0.4257 0.4203 0.4119 0.3999 0.3880
1561.000000 0.3760 0.3641 0.3522 0.3403 0.3283
1566.000000 0.3165 0.3046 0.2927 0.2809 0.2691
1571.000000 0.2573 0.2475 0.2395 0.2320 0.2218
1576.000000 0.2116 0.2058 0.2033 0.2026 0.2025
1581.000000 0.2040 0.2189 0.2287 0.2385 0.2482
1586.000000 0.2580 0.2677 0.2774 0.2871 0.2968
1591.000000 0.3065 0.3162 0.3259 0.3355 0.3451
1596.000000 0.3547 0.3643 0.3739 0.3811 0.3830
1601.000000 0.3837 0.3810 0.3734 0.3634 0.3534
1606.000000 0.3434 0.3355 0.3343 0.3352 0.3438
1611.000000 0.3540 0.3642 0.3737 0.3771 0.3796
1616.000000 0.3821 0.3847 0.3871 0.3902 0.3952
1621.000000 0.4194 0.4372 0.4507 0.4641 0.4776
1626.000000 0.4910 0.5044 0.5179 0.5313 0.5495
1631.000000 0.5770 0.5922 0.6050 0.6154 0.6236
1636.000000 0.6328 0.6455 0.6587 0.6700 0.6799
1641.000000 0.6893 0.6988 0.7090 0.7202 0.7308
1646.000000 0.7396 0.7467 0.7538 0.7610 0.7665
1651.000000 0.7715 0.7764 0.7813 0.7849 0.7871
1656.000000 0.7887 0.7903 0.7919 0.7935 0.7948
1661.000000 0.7954 0.7959 0.7964 0.7969 0.7987
1666.000000 0.7970 0.7968 0.7966 0.7961 0.7951
1671.000000 0.7940 0.7922 0.7888 0.7852 0.7816
1676.000000 0.7780 0.7728 0.7641 0.7553 0.7465
1681.000000 0.7378 0.7291 0.7203 0.7116 0.7030
1686.000000 0.6943 0.6856 0.6770 0.6683 0.6596
1691.000000 0.6510 0.6424 0.6363 0.6349 0.6383
1696.000000 0.6362 0.6376 0.6448 0.6502 0.6537
1701.000000 0.6573 0.6609 0.6652 0.6694 0.6783
1706.000000 0.6916 0.7065 0.7215 0.7364 0.7514
1711.000000 0.7662 0.7811 0.7959 0.8108 0.8256
1716.000000 0.8397 0.8497 0.8540 0.8606 0.8684
1721.000000 0.8744 0.8775 0.8805 0.8835 0.8866
1726.000000 0.8901 0.8940 0.8980 0.9019 0.9058
1731.000000 0.9086 0.9113 0.9140 0.9166 0.9188
1736.000000 0.9197 0.9206 0.9215 0.9224 0.9237
1741.000000 0.9228 0.9223 0.9218 0.9213 0.9209
1746.000000 0.9204 0.9198 0.9186 0.9176 0.9165
1751.000000 0.9154 0.9144 0.9133 0.9123 0.9112
1756.000000 0.9101 0.9091 0.9079 0.9071 0.9063
1761.000000 0.9055 0.9046 0.9038 0.9030 0.9019
1766.000000 0.9007 0.8994 0.8982 0.8966 0.8950
1771.000000 0.8934 0.8918 0.8902 0.8887 0.8871
1776.000000 0.8854 0.8835 0.8817 0.8799 0.8781
1781.000000 0.8763 0.8746 0.8728 0.8711 0.8694
1786.000000 0.8677 0.8659 0.8641 0.8621 0.8598
1791.000000 0.8576 0.8553 0.8531 0.8509 0.8487
1796.000000 0.8465 0.8444 0.8423 0.8401 0.8380
1801.000000 0.8364 0.8349 0.8335 0.8321 0.8306
1806.000000 0.8294 0.8283 0.8273 0.8264 0.8261
1811.000000 0.8260 0.8261 0.8261 0.8263 0.8269
1816.000000 0.8250 0.8282 0.8294 0.8308 0.8321
1821.000000 0.8335 0.8353 0.8370 0.8387 0.8405
1826.000000 0.8426 0.8447 0.8463 0.8476 0.8485
1831.000000 0.8494 0.8503 0.8511 0.8517 0.8519
1836.000000 0.8519 0.8519 0.8519 0.8519 0.8521
1841.000000 0.8526 0.8532 0.8537 0.8543 0.8550
1846.000000 0.8557 0.8564 0.8568 0.8566 0.8562
1851.000000 0.8557 0.8552 0.8545 0.8537 0.8530
1856.000000 0.8523 0.8523 0.8522 0.8523 0.8532
1861.000000 0.8547 0.8561 0.8573 0.8584 0.8596
1866.000000 0.8608 0.8620 0.8631 0.8642 0.8653
1871.000000 0.8664 0.8674 0.8684 0.8695 0.8705
1876.000000 0.8715 0.8722 0.8729 0.8735 0.8742
1881.000000 0.8749 0.8755 0.8761 0.8766 0.8767
1886.000000 0.8769 0.8771 0.8772 0.8774 0.8783
1891.000000 0.8777 0.8778 0.8777 0.8775 0.8773
1896.000000 0.8770 0.8768 0.8765 0.8761 0.8757
1901.000000 0.8752 0.8748 0.8744 0.8740 0.8735
1906.000000 0.8726 0.8714 0.8701 0.8689 0.8680
1911.000000 0.8680 0.8680 0.8680 0.8680 0.8681
1916.000000 0.8682 0.8683 0.8685 0.8686 0.8683
1921.000000 0.8674 0.8663 0.8651 0.8640 0.8627
1926.000000 0.8611 0.8591 0.8571 0.8551 0.8531
1931.000000 0.8510 0.8490 0.8474 0.8460 0.8448
1936.000000 0.8436 0.8423 0.8411 0.8399 0.8393
1941.000000 0.8394 0.8395 0.8396 0.8396 0.8398
1946.000000 0.8386 0.8404 0.8407 0.8411 0.8415
1951.000000 0.8422 0.8428 0.8436 0.8447 0.8460
1956.000000 0.8473 0.8490 0.8508 0.8528 0.8546
1961.000000 0.8564 0.8583 0.8601 0.8619 0.8641
1966.000000 0.8659 0.8675 0.8683 0.8692 0.8700
1971.000000 0.8708 0.8715 0.8720 0.8723 0.8726
1976.000000 0.8730 0.8733 0.8736 0.8739 0.8742
1981.000000 0.8746 0.8749 0.8751 0.8751 0.8753
1986.000000 0.8754 0.8755 0.8756 0.8757 0.8758
1991.000000 0.8759 0.8760 0.8761 0.8760 0.8760
1996.000000 0.8759 0.8758 0.8758 0.8757 0.8757
2001.000000 0.8756 0.8755 0.8755 0.8754 0.8753
2006.000000 0.8753 0.8752 0.8752 0.8751 0.8750
2011.000000 0.8750 0.8749 0.8748 0.8747 0.8746
2016.000000 0.8745 0.8743 0.8741 0.8740 0.8738
2021.000000 0.8737 0.8735 0.8734 0.8733 0.8731
2026.000000 0.8731 0.8728 0.8727 0.8725 0.8724
2031.000000 0.8722 0.8720 0.8719 0.8718 0.8716
2036.000000 0.8714 0.8713 0.8712 0.8710 0.8707
2041.000000 0.8705 0.8702 0.8699 0.8697 0.8694
2046.000000 0.8691 0.8689 0.8686 0.8683 0.8681
2051.000000 0.8678 0.8676 0.8673 0.8670 0.8668
2056.000000 0.8665 0.8662 0.8660 0.8657 0.8654
2061.000000 0.8652 0.8649 0.8647 0.8644 0.8640
2066.000000 0.8637 0.8634 0.8631 0.8628 0.8625
2071.000000 0.8622 0.8619 0.8615 0.8613 0.8610
2076.000000 0.8607 0.8603 0.8600 0.8597 0.8594
2081.000000 0.8591 0.8588 0.8585 0.8581 0.8577
2086.000000 0.8573 0.8570 0.8566 0.8563 0.8560
2091.000000 0.8556 0.8553 0.8548 0.8542 0.8530
2096.000000 0.8518 0.8507 0.8496 0.8484 0.8472
2101.000000 0.8459 0.8446 0.8433 0.8421 0.8414
2106.000000 0.8409 0.8405 0.8400 0.8396 0.8391
2111.000000 0.8387 0.8382 0.8377 0.8372 0.8368
2116.000000 0.8363 0.8359 0.8354 0.8350 0.8345
2121.000000 0.8342 0.8340 0.8338 0.8337 0.8335
2126.000000 0.8333 0.8331 0.8329 0.8327 0.8325
2131.000000 0.8323 0.8321 0.8320 0.8318 0.8315
2136.000000 0.8314 0.8312 0.8310 0.8308 0.8306
2141.000000 0.8303 0.8299 0.8296 0.8293 0.8290
2146.000000 0.8286 0.8283 0.8280 0.8277 0.8274
2151.000000 0.8271 0.8267 0.8261 0.8252 0.8241
2156.000000 0.8231 0.8221 0.8211 0.8201 0.8196
2161.000000 0.8190 0.8185 0.8180 0.8175 0.8170
2166.000000 0.8165 0.8159 0.8154 0.8149 0.8144
2171.000000 0.8139 0.8134 0.8131 0.8129 0.8128
2176.000000 0.8126 0.8124 0.8122 0.8120 0.8119
2181.000000 0.8117 0.8115 0.8112 0.8109 0.8105
2186.000000 0.8102 0.8099 0.8096 0.8093 0.8090
2191.000000 0.8087 0.8084 0.8080 0.8072 0.8064
2196.000000 0.8055 0.8047 0.8038 0.8030 0.8021
2201.000000 0.8013 0.8004 0.7995 0.7985 0.7975
2206.000000 0.7965 0.7955 0.7944 0.7934 0.7924
2211.000000 0.7914 0.7903 0.7894 0.7884 0.7875
2216.000000 0.7865 0.7856 0.7846 0.7837 0.7828
2221.000000 0.7818 0.7809 0.7795 0.7780 0.7764
2226.000000 0.7749 0.7736 0.7723 0.7713 0.7703
2231.000000 0.7693 0.7684 0.7674 0.7664 0.7654
2236.000000 0.7645 0.7635 0.7626 0.7615 0.7605
2241.000000 0.7595 0.7584 0.7574 0.7563 0.7553
2246.000000 0.7542 0.7532 0.7522 0.7512 0.7502
2251.000000 0.7491 0.7481 0.7471 0.7460 0.7450
2256.000000 0.7440 0.7428 0.7416 0.7404 0.7392
2261.000000 0.7380 0.7369 0.7357 0.7345 0.7333
2266.000000 0.7321 0.7310 0.7300 0.7291 0.7283
2271.000000 0.7275 0.7266 0.7258 0.7250 0.7242
2276.000000 0.7234 0.7226 0.7218 0.7210 0.7197
2281.000000 0.7185 0.7166 0.7147 0.7123 0.7098
2286.000000 0.7078 0.7058 0.7039 0.7021 0.7002
2291.000000 0.6983 0.6966 0.6948 0.6931 0.6914
2296.000000 0.6896 0.6878 0.6862 0.6848 0.6834
2301.000000 0.6822 0.6809 0.6796 0.6783 0.6771
2306.000000 0.6758 0.6745 0.6733 0.6720 0.6707
2311.000000 0.6694 0.6681 0.6668 0.6654 0.6640
2316.000000 0.6626 0.6612 0.6598 0.6584 0.6570
2321.000000 0.6555 0.6543 0.6531 0.6520 0.6509
2326.000000 0.6498 0.6487 0.6476 0.6465 0.6454
2331.000000 0.6443 0.6431 0.6420 0.6409 0.6397
2336.000000 0.6386 0.6376 0.6366 0.6356 0.6346
2341.000000 0.6336 0.6326 0.6317 0.6307 0.6298
2346.000000 0.6288 0.6278 0.6268 0.6258 0.6249
2351.000000 0.6240 0.6231 0.6224 0.6216 0.6208
2356.000000 0.6201 0.6193 0.6185 0.6177 0.6169
2361.000000 0.6161 0.6154 0.6146 0.6139 0.6131
2366.000000 0.6123 0.6116 0.6108 0.6101 0.6093
2371.000000 0.6087 0.6080 0.6073 0.6067 0.6060
2376.000000 0.6053 0.6047 0.6040 0.6033 0.6027
2381.000000 0.6020 0.6014 0.6007 0.6000 0.5994
2386.000000 0.5987 0.5981 0.5974 0.5967 0.5960
2391.000000 0.5953 0.5946 0.5939 0.5932 0.5926
2396.000000 0.5920 0.5915 0.5914 0.5913 0.5912
2401.000000 0.5911 0.5910 0.5909 0.5909 0.5909
2406.000000 0.5910 0.5891 0.5911 0.5912 0.5914
2411.000000 0.5916 0.5919 0.5921 0.5924 0.5926
2416.000000 0.5929 0.5931 0.5934 0.5937 0.5939
2421.000000 0.5942 0.5944 0.5947 0.5949 0.5952
2426.000000 0.5956 0.5960 0.5963 0.5967 0.5970
2431.000000 0.5973 0.5977 0.5981 0.5984 0.5989
2436.000000 0.5994 0.5998 0.6003 0.6008 0.6013
2441.000000 0.6018 0.6023 0.6028 0.6033 0.6040
2446.000000 0.6046 0.6058 0.6071 0.6085 0.6100
2451.000000 0.6115 0.6117 0.6120 0.6123 0.6126
2456.000000 0.6131 0.6141 0.6151 0.6168 0.6187
2461.000000 0.6208 0.6235 0.6261 0.6272 0.6283
2466.000000 0.6288 0.6290 0.6292 0.6293 0.6295
2471.000000 0.6297 0.6298 0.6300 0.6301 0.6302
2476.000000 0.6303 0.6303 0.6304 0.6304 0.6304
2481.000000 0.6305 0.6305 0.6306 0.6306 0.6306
2486.000000 0.6310 0.6313 0.6317 0.6321 0.6324
2491.000000 0.6331 0.6338 0.6346 0.6356 0.6365
2496.000000 0.6375 0.6385 0.6396 0.6410 0.6424
2501.000000 0.6438 0.6453 0.6468 0.6483 0.6497
2506.000000 0.6516 0.6536 0.6555 0.6574 0.6593
2511.000000 0.6612 0.6631 0.6649 0.6667 0.6684
2516.000000 0.6702 0.6719 0.6733 0.6741 0.6749
2521.000000 0.6753 0.6756 0.6758 0.6762 0.6765
2526.000000 0.6767 0.6769 0.6771 0.6771 0.6771
2531.000000 0.6772 0.6773 0.6774 0.6774 0.6774
2536.000000 0.6782 0.6773 0.6772 0.6770 0.6769
2541.000000 0.6768 0.6767 0.6766 0.6763 0.6760
2546.000000 0.6757 0.6752 0.6747 0.6743 0.6738
2551.000000 0.6733 0.6728 0.6723 0.6717 0.6708
2556.000000 0.6699 0.6688 0.6678 0.6667 0.6657
2561.000000 0.6646 0.6634 0.6620 0.6606 0.6591
2566.000000 0.6576 0.6562 0.6548 0.6534 0.6520
2571.000000 0.6506 0.6493 0.6474 0.6455 0.6436
2576.000000 0.6416 0.6397 0.6378 0.6360 0.6341
2581.000000 0.6327 0.6312 0.6297 0.6282 0.6267
2586.000000 0.6258 0.6252 0.6246 0.6246 0.6247
2591.000000 0.6248 0.6249 0.6251 0.6252 0.6254
2596.000000 0.6255 0.6264 0.6258 0.6259 0.6260
2601.000000 0.6261 0.6262 0.6263 0.6264 0.6265
2606.000000 0.6267 0.6268 0.6269 0.6271 0.6272
2611.000000 0.6275 0.6277 0.6279 0.6281 0.6283
2616.000000 0.6286 0.6288 0.6291 0.6294 0.6296
2621.000000 0.6299 0.6301 0.6304 0.6307 0.6310
2626.000000 0.6313 0.6318 0.6323 0.6328 0.6334
2631.000000 0.6339 0.6343 0.6348 0.6353 0.6359
2636.000000 0.6366 0.6373 0.6381 0.6390 0.6399
2641.000000 0.6409 0.6418 0.6428 0.6439 0.6451
2646.000000 0.6463 0.6477 0.6490 0.6504 0.6517
2651.000000 0.6530 0.6542 0.6554 0.6566 0.6578
2656.000000 0.6590 0.6599 0.6600 0.6602 0.6603
2661.000000 0.6604 0.6605 0.6608 0.6613 0.6618
2666.000000 0.6624 0.6629 0.6635 0.6644 0.6653
2671.000000 0.6662 0.6671 0.6680 0.6688 0.6698
2676.000000 0.6707 0.6717 0.6728 0.6740 0.6751
2681.000000 0.6762 0.6773 0.6784 0.6795 0.6805
2686.000000 0.6815 0.6825 0.6834 0.6844 0.6853
2691.000000 0.6863 0.6872 0.6882 0.6891 0.6898
2696.000000 0.6906 0.6913 0.6920 0.6927 0.6934
2701.000000 0.6941 0.6948 0.6956 0.6966 0.6975
2706.000000 0.6989 0.7008 0.7027 0.7084 0.7189
2711.000000 0.7293 0.7363 0.7398 0.7432 0.7454
2716.000000 0.7465 0.7477 0.7483 0.7484 0.7486
2721.000000 0.7487 0.7487 0.7487 0.7487 0.7487
2726.000000 0.7487 0.7494 0.7485 0.7485 0.7483
2731.000000 0.7481 0.7479 0.7477 0.7476 0.7474
2736.000000 0.7469 0.7464 0.7459 0.7453 0.7447
2741.000000 0.7442 0.7434 0.7425 0.7417 0.7408
2746.000000 0.7399 0.7391 0.7379 0.7367 0.7355
2751.000000 0.7337 0.7317 0.7297 0.7277 0.7258
2756.000000 0.7238 0.7219 0.7200 0.7182 0.7162
2761.000000 0.7142 0.7122 0.7085 0.7035 0.6985
2766.000000 0.6868 0.6688 0.6507 0.6381 0.6319
2771.000000 0.6257 0.6184 0.6094 0.6003 0.5911
2776.000000 0.5815 0.5719 0.5623 0.5527 0.5431
2781.000000 0.5335 0.5239 0.5143 0.5047 0.4951
2786.000000 0.4856 0.4760 0.4665 0.4570 0.4474
2791.000000 0.4379 0.4284 0.4189 0.4094 0.3999
2796.000000 0.3903 0.3809 0.3714 0.3620 0.3525
2801.000000 0.3430 0.3336 0.3241 0.3147 0.3052
2806.000000 0.2958 0.2864 0.2770 0.2675 0.2582
2811.000000 0.2488 0.2394 0.2301 0.2207 0.2113
2816.000000 0.2019 0.1926 0.1832 0.1739 0.1645
2821.000000 0.1552 0.1459 0.1366 0.1273 0.1180
2826.000000 0.1087 0.0994 0.0902 0.0874 0.0851
2831.000000 0.0828 0.0816 0.0808 0.0801 0.0795
2836.000000 0.0791 0.0786 0.0783 0.0781 0.0780
2841.000000 0.0778 0.0776 0.0775 0.0773 0.0771
2846.000000 0.0769 0.0767 0.0766 0.0764 0.0762
2851.000000 0.0761 0.0758 0.0756 0.0753 0.0750
2856.000000 0.0748 0.0745 0.0742 0.0739 0.0737
2861.000000 0.0734 0.0731 0.0728 0.0724 0.0717
2866.000000 0.0710 0.0703 0.0695 0.0687 0.0679
2871.000000 0.0671 0.0663 0.0656 0.0648 0.0641
2876.000000 0.0634 0.0627 0.0620 0.0613 0.0606
2881.000000 0.0599 0.0593 0.0587 0.0582 0.0579
2886.000000 0.0576 0.0573 0.0570 0.0567 0.0564
2891.000000 0.0563 0.0562 0.0561 0.0560 0.0559
2896.000000 0.0558 0.0557 0.0557 0.0557 0.0557
2901.000000 0.0557 0.0558 0.0558 0.0559 0.0559
2906.000000 0.0559 0.0560 0.0561 0.0562 0.0563
2911.000000 0.0564 0.0566 0.0567 0.0569 0.0570
2916.000000 0.0571 0.0572 0.0575 0.0578 0.0582
2921.000000 0.0586 0.0591 0.0596 0.0602 0.0607
2926.000000 0.0612 0.0617 0.0626 0.0637 0.0648
2931.000000 0.0663 0.0699 0.0736 0.0773 0.0860
2936.000000 0.0966 0.1073 0.1179 0.1285 0.1392
2941.000000 0.1498 0.1604 0.1710 0.1816 0.1921
2946.000000 0.2027 0.2133 0.2239 0.2344 0.2449
2951.000000 0.2555 0.2660 0.2765 0.2871 0.2976
2956.000000 0.3081 0.3186 0.3291 0.3395 0.3500
2961.000000 0.3605 0.3710 0.3814 0.3918 0.4023
2966.000000 0.4127 0.4231 0.4336 0.4440 0.4544
2971.000000 0.4648 0.4752 0.4856 0.4959 0.5063
2976.000000 0.5167 0.5270 0.5374 0.5477 0.5565
2981.000000 0.5609 0.5652 0.5696 0.5725 0.5747
2986.000000 0.5770 0.5794 0.5827 0.5859 0.5892
2991.000000 0.5925 0.5959 0.5992 0.6026 0.6046
2996.000000 0.6066 0.6086 0.6105 0.6125 0.6144
3001.000000 0.6164 0.6183 0.6202 0.6222 0.6242
3006.000000 0.6264 0.6287 0.6309 0.6332 0.6355
3011.000000 0.6378 0.6401 0.6424 0.6447 0.6470
3016.000000 0.6499 0.6542 0.6584 0.6627 0.6659
3021.000000 0.6686 0.6712 0.6739 0.6760 0.6781
3026.000000 0.6802 0.6823 0.6844 0.6865 0.6886
3031.000000 0.6911 0.6937 0.6964 0.6990 0.7023
3036.000000 0.7056 0.7089 0.7122 0.7153 0.7185
3041.000000 0.7216 0.7246 0.7276 0.7305 0.7335
3046.000000 0.7364 0.7394 0.7423 0.7452 0.7477
3051.000000 0.7501 0.7526 0.7544 0.7554 0.7565
3056.000000 0.7575 0.7585 0.7596 0.7606 0.7617
3061.000000 0.7625 0.7633 0.7642 0.7649 0.7655
3066.000000 0.7660 0.7666 0.7671 0.7677 0.7683
3071.000000 0.7688 0.7694 0.7699 0.7705 0.7710
3076.000000 0.7716 0.7721 0.7727 0.7732 0.7738
3081.000000 0.7743 0.7748 0.7753 0.7757 0.7760
3086.000000 0.7764 0.7768 0.7772 0.7776 0.7780
3091.000000 0.7783 0.7787 0.7791 0.7794 0.7797
3096.000000 0.7800 0.7803 0.7806 0.7808 0.7809
3101.000000 0.7811 0.7813 0.7815 0.7817 0.7819
3106.000000 0.7821 0.7823 0.7825 0.7828 0.7830
3111.000000 0.7832 0.7834 0.7836 0.7838 0.7841
3116.000000 0.7843 0.7846 0.7849 0.7851 0.7854
3121.000000 0.7856 0.7859 0.7861 0.7864 0.7867
3126.000000 0.7870 0.7873 0.7876 0.7879 0.7884
3131.000000 0.7889 0.7893 0.7898 0.7903 0.7909
3136.000000 0.7914 0.7919 0.7923 0.7928 0.7933
3141.000000 0.7938 0.7943 0.7948 0.7953 0.7958
3146.000000 0.7963 0.7968 0.7973 0.7978 0.7983
3151.000000 0.7989 0.7994 0.7999 0.8004 0.8009
3156.000000 0.8015 0.8020 0.8025 0.8030 0.8036
3161.000000 0.8041 0.8046 0.8051 0.8057 0.8062
3166.000000 0.8067 0.8072 0.8078 0.8083 0.8088
3171.000000 0.8093 0.8098 0.8104 0.8109 0.8114
3176.000000 0.8119 0.8125 0.8131 0.8137 0.8143
3181.000000 0.8149 0.8154 0.8160 0.8166 0.8172
3186.000000 0.8178 0.8184 0.8190 0.8196 0.8201
3191.000000 0.8207 0.8213 0.8218 0.8223 0.8228
3196.000000 0.8232 0.8237 0.8241 0.8246 0.8251
3201.000000 0.8255 0.8259 0.8263 0.8266 0.8270
3206.000000 0.8271 0.8271 0.8271 0.8271 0.8271
3211.000000 0.8271 0.8271 0.8271 0.8271 0.8271
3216.000000 0.8271 0.8271 0.8271 0.8271 0.8271
3221.000000 0.8271 0.8270 0.8268 0.8267 0.8265
3226.000000 0.8263 0.8261 0.8259 0.8257 0.8255
3231.000000 0.8253 0.8251 0.8249 0.8247 0.8244
3236.000000 0.8241 0.8238 0.8235 0.8233 0.8230
3241.000000 0.8227 0.8224 0.8222 0.8219 0.8217
3246.000000 0.8215 0.8213 0.8213 0.8212 0.8212
3251.000000 0.8211 0.8211 0.8211 0.8211 0.8211
3256.000000 0.8210 0.8210 0.8209 0.8209 0.8208
3261.000000 0.8208 0.8208 0.8208 0.8207 0.8207
3266.000000 0.8207 0.8207 0.8206 0.8206 0.8206
3271.000000 0.8205 0.8205 0.8204 0.8204 0.8204
3276.000000 0.8204 0.8204 0.8204 0.8204 0.8204
3281.000000 0.8205 0.8205 0.8205 0.8205 0.8205
3286.000000 0.8206 0.8206 0.8206 0.8206 0.8206
3291.000000 0.8206 0.8206 0.8206 0.8207 0.8207
3296.000000 0.8207 0.8207 0.8207 0.8208 0.8208
3301.000000 0.8208 0.8208 0.8208 0.8208 0.8208
3306.000000 0.8208 0.8209 0.8209 0.8209 0.8209
3311.000000 0.8209 0.8209 0.8209 0.8209 0.8209
3316.000000 0.8210 0.8210 0.8210 0.8210 0.8210
3321.000000 0.8227 0.8210 0.8210 0.8210 0.8210
3326.000000 0.8210 0.8210 0.8210 0.8211 0.8211
3331.000000 0.8211 0.8211 0.8211 0.8211 0.8211
3336.000000 0.8211 0.8211 0.8211 0.8211 0.8211
3341.000000 0.8211 0.8211 0.8212 0.8212 0.8212
3346.000000 0.8212 0.8212 0.8212 0.8212 0.8212
3351.000000 0.8212 0.8212 0.8212 0.8212 0.8212
3356.000000 0.8213 0.8213 0.8213 0.8213 0.8213
3361.000000 0.8213 0.8213 0.8213 0.8213 0.8213
3366.000000 0.8213 0.8213 0.8213 0.8213 0.8213
3371.000000 0.8213 0.8213 0.8213 0.8212 0.8212
3376.000000 0.8212 0.8212 0.8212 0.8211 0.8211
3381.000000 0.8211 0.8211 0.8211 0.8211 0.8211
3386.000000 0.8211 0.8211 0.8210 0.8210 0.8210
3391.000000 0.8210 0.8210 0.8209 0.8209 0.8209
3396.000000 0.8209 0.8209 0.8209 0.8209 0.8209
3401.000000 0.8209 0.8208 0.8208 0.8208 0.8208
3406.000000 0.8207 0.8207 0.8207 0.8207 0.8207
3411.000000 0.8207 0.8207 0.8207 0.8207 0.8207
3416.000000 0.8206 0.8206 0.8206 0.8206 0.8205
3421.000000 0.8205 0.8205 0.8205 0.8205 0.8205
3426.000000 0.8205 0.8205 0.8205 0.8205 0.8204
3431.000000 0.8204 0.8204 0.8204 0.8204 0.8203
3436.000000 0.8203 0.8202 0.8202 0.8201 0.8201
3441.000000 0.8201 0.8200 0.8200 0.8199 0.8199
3446.000000 0.8198 0.8198 0.8198 0.8197 0.8197
3451.000000 0.8196 0.8196 0.8196 0.8195 0.8195
3456.000000 0.8194 0.8194 0.8193 0.8193 0.8193
3461.000000 0.8192 0.8192 0.8191 0.8191 0.8191
3466.000000 0.8190 0.8190 0.8189 0.8189 0.8188
3471.000000 0.8188 0.8188 0.8187 0.8187 0.8186
3476.000000 0.8186 0.8186 0.8185 0.8185 0.8184
3481.000000 0.8184 0.8183 0.8181 0.8179 0.8177
3486.000000 0.8175 0.8173 0.8171 0.8169 0.8167
3491.000000 0.8165 0.8163 0.8161 0.8159 0.8157
3496.000000 0.8155 0.8153 0.8151 0.8148 0.8145
3501.000000 0.8143 0.8139 0.8136 0.8133 0.8129
3506.000000 0.8126 0.8122 0.8119 0.8115 0.8112
3511.000000 0.8108 0.8105 0.8101 0.8097 0.8094
3516.000000 0.8090 0.8087 0.8083 0.8080 0.8076
3521.000000 0.8073 0.8070 0.8066 0.8063 0.8059
3526.000000 0.8056 0.8052 0.8049 0.8046 0.8042
3531.000000 0.8039 0.8035 0.8032 0.8029 0.8025
3536.000000 0.8022 0.8019 0.8015 0.8012 0.8009
3541.000000 0.8006 0.8003 0.8000 0.7997 0.7995
3546.000000 0.7992 0.7989 0.7986 0.7983 0.7981
3551.000000 0.7978 0.7975 0.7972 0.7970 0.7967
3556.000000 0.7964 0.7961 0.7958 0.7956 0.7953
3561.000000 0.7950 0.7947 0.7945 0.7942 0.7939
3566.000000 0.7936 0.7934 0.7932 0.7929 0.7927
3571.000000 0.7925 0.7923 0.7921 0.7919 0.7918
3576.000000 0.7916 0.7915 0.7914 0.7912 0.7911
3581.000000 0.7909 0.7908 0.7906 0.7905 0.7903
3586.000000 0.7902 0.7900 0.7899 0.7897 0.7896
3591.000000 0.7894 0.7892 0.7891 0.7890 0.7888
3596.000000 0.7887 0.7886 0.7884 0.7883 0.7881
3601.000000 0.7880 0.7878 0.7876 0.7875 0.7873
3606.000000 0.7872 0.7870 0.7869 0.7867 0.7866
3611.000000 0.7864 0.7863 0.7861 0.7860 0.7858
3616.000000 0.7856 0.7855 0.7853 0.7852 0.7851
3621.000000 0.7850 0.7849 0.7848 0.7847 0.7846
3626.000000 0.7845 0.7844 0.7843 0.7842 0.7841
3631.000000 0.7840 0.7839 0.7838 0.7837 0.7836
3636.000000 0.7835 0.7834 0.7833 0.7833 0.7832
3641.000000 0.7832 0.7831 0.7831 0.7831 0.7830
3646.000000 0.7830 0.7829 0.7828 0.7828 0.7827
3651.000000 0.7827 0.7827 0.7826 0.7826 0.7825
3656.000000 0.7825 0.7824 0.7824 0.7823 0.7823
3661.000000 0.7822 0.7822 0.7822 0.7821 0.7821
3666.000000 0.7820 0.7819 0.7818 0.7817 0.7816
3671.000000 0.7816 0.7814 0.7813 0.7812 0.7811
3676.000000 0.7810 0.7809 0.7808 0.7806 0.7805
3681.000000 0.7804 0.7802 0.7801 0.7800 0.7799
3686.000000 0.7798 0.7797 0.7796 0.7794 0.7793
3691.000000 0.7792 0.7790 0.7789 0.7787 0.7785
3696.000000 0.7782 0.7780 0.7778 0.7776 0.7774
3701.000000 0.7771 0.7769 0.7767 0.7765 0.7763
3706.000000 0.7760 0.7758 0.7756 0.7754 0.7751
3711.000000 0.7747 0.7743 0.7740 0.7736 0.7733
3716.000000 0.7729 0.7726 0.7722 0.7719 0.7715
3721.000000 0.7713 0.7711 0.7710 0.7708 0.7706
3726.000000 0.7704 0.7703 0.7701 0.7700 0.7698
3731.000000 0.7697 0.7696 0.7694 0.7693 0.7691
3736.000000 0.7690 0.7688 0.7687 0.7686 0.7684
3741.000000 0.7683 0.7681 0.7680 0.7679 0.7678
3746.000000 0.7677 0.7677 0.7676 0.7675 0.7675
3751.000000 0.7674 0.7674 0.7674 0.7673 0.7673
3756.000000 0.7673 0.7673 0.7673 0.7673 0.7672
3761.000000 0.7672 0.7672 0.7671 0.7671 0.7671
3766.000000 0.7670 0.7670 0.7669 0.7669 0.7669
3771.000000 0.7669 0.7669 0.7669 0.7669 0.7669
3776.000000 0.7669 0.7670 0.7670 0.7670 0.7670
3781.000000 0.7670 0.7670 0.7670 0.7670 0.7670
3786.000000 0.7670 0.7670 0.7670 0.7670 0.7670
3791.000000 0.7670 0.7670 0.7670 0.7669 0.7669
3796.000000 0.7669 0.7669 0.7669 0.7669 0.7668
3801.000000 0.7667 0.7667 0.7666 0.7665 0.7665
3806.000000 0.7664 0.7663 0.7663 0.7662 0.7661
3811.000000 0.7660 0.7657 0.7654 0.7651 0.7648
3816.000000 0.7645 0.7642 0.7638 0.7633 0.7629
3821.000000 0.7625 0.7621 0.7617 0.7614 0.7610
3826.000000 0.7607 0.7604 0.7600 0.7597 0.7595
3831.000000 0.7592 0.7590 0.7587 0.7584 0.7582
3836.000000 0.7580 0.7577 0.7575 0.7572 0.7570
3841.000000 0.7568 0.7567 0.7565 0.7564 0.7562
3846.000000 0.7561 0.7560 0.7560 0.7560 0.7559
3851.000000 0.7559 0.7559 0.7558 0.7558 0.7557
3856.000000 0.7557 0.7556 0.7556 0.7555 0.7555
3861.000000 0.7554 0.7553 0.7553 0.7552 0.7552
3866.000000 0.7552 0.7551 0.7551 0.7551 0.7550
3871.000000 0.7550 0.7549 0.7549 0.7548 0.7548
3876.000000 0.7547 0.7547 0.7547 0.7546 0.7546
3881.000000 0.7546 0.7545 0.7545 0.7544 0.7544
3886.000000 0.7544 0.7543 0.7543 0.7542 0.7542
3891.000000 0.7542 0.7541 0.7541 0.7541 0.7540
3896.000000 0.7540 0.7540 0.7540 0.7540 0.7540
3901.000000 0.7539 0.7539 0.7539 0.7538 0.7538
3906.000000 0.7538 0.7537 0.7537 0.7537 0.7537
3911.000000 0.7537 0.7537 0.7536 0.7536 0.7536
3916.000000 0.7535 0.7535 0.7535 0.7534 0.7532
3921.000000 0.7530 0.7528 0.7526 0.7525 0.7523
3926.000000 0.7520 0.7517 0.7514 0.7512 0.7509
3931.000000 0.7506 0.7503 0.7501 0.7498 0.7495
3936.000000 0.7492 0.7490 0.7486 0.7483 0.7479
3941.000000 0.7476 0.7473 0.7469 0.7466 0.7462
3946.000000 0.7459 0.7455 0.7452 0.7448 0.7445
3951.000000 0.7441 0.7438 0.7434 0.7430 0.7427
3956.000000 0.7423 0.7417 0.7412 0.7407 0.7401
3961.000000 0.7396 0.7390 0.7385 0.7380 0.7375
3966.000000 0.7369 0.7364 0.7359 0.7353 0.7348
3971.000000 0.7343 0.7337 0.7332 0.7327 0.7321
3976.000000 0.7317 0.7312 0.7307 0.7302 0.7298
3981.000000 0.7293 0.7289 0.7284 0.7280 0.7275
3986.000000 0.7271 0.7267 0.7262 0.7258 0.7253
3991.000000 0.7249 0.7245 0.7240 0.7236 0.7231
3996.000000 0.7227 0.7222 0.7218 0.7213 0.7209
##END=
