##TITLE=POTASSIUM PERSULFATE
$$ C.P.
##JCAMP-DX=4.24
##DATA TYPE=INFRARED SPECTRUM
##CLASS=COBLENTZ
##ORIGIN=MELLON INSTITUTE
##OWNER=COBLENTZ SOCIETY
Collection (C) 2018 copyright by the U.S. Secretary of Commerce
on behalf of the United States of America. All rights reserved.
##DATE=Not specified, most likely prior to 1970
##MOLFORM=K2 S2 O8
##SOURCE REFERENCE=COBLENTZ NO. 558
##$NIST ID=B6000558
##$NIST SOURCE=COBLENTZ
##$NIST IMAGE=cob558
##SPECTROMETER/DATA SYSTEM=Not specified, most likely a prism, grating, or hybrid spectrometer.
##STATE=SOLID (NUJOL MULL)
##PATH LENGTH=
$$SPECTRAL CONTAMINATION DUE TO OIL AROUND 2900, 1450, 1380 CM^-^1
##SAMPLING PROCEDURE=TRANSMISSION
##RESOLUTION=4
##DATA PROCESSING=DIGITIZED BY NIST FROM HARD COPY
##XUNITS=MICROMETERS
##YUNITS=TRANSMITTANCE
##XFACTOR=1.000000
##YFACTOR=1
##DELTAX=000.006639
##FIRSTX=2.018
##LASTX=15.9912
##FIRSTY=0.809
##MAXX=15.9912
##MINX=2.018
##MAXY=0.939
##MINY=0
##NPOINTS=2106
##XYDATA=(X++(Y..Y))
2.018000 0.8090 0.8110 0.8110 0.8120 0.8120
2.051208 0.8140 0.8160 0.8160 0.8160 0.8170
2.084000 0.8160 0.8160 0.8160 0.8160 0.8160
2.117208 0.8160 0.8160 0.8140 0.8140 0.8120
2.150000 0.8120 0.8120 0.8120 0.8120 0.8120
2.183208 0.8120 0.8110 0.8110 0.8110 0.8110
2.217000 0.8110 0.8090 0.8090 0.8090 0.8090
2.250208 0.8090 0.8070 0.8070 0.8070 0.8090
2.283000 0.8090 0.8090 0.8090 0.8090 0.8110
2.316208 0.8110 0.8120 0.8120 0.8120 0.8140
2.349000 0.8140 0.8140 0.8140 0.8140 0.8140
2.382208 0.8140 0.8140 0.8140 0.8140 0.8140
2.416000 0.8160 0.8160 0.8160 0.8170 0.8210
2.449208 0.8210 0.8220 0.8240 0.8260 0.8260
2.482000 0.8270 0.8270 0.8290 0.8290 0.8290
2.515208 0.8290 0.8310 0.8310 0.8320 0.8320
2.549000 0.8320 0.8340 0.8340 0.8340 0.8340
2.582208 0.8340 0.8340 0.8360 0.8360 0.8370
2.615000 0.8370 0.8370 0.8390 0.8390 0.8410
2.648208 0.8410 0.8420 0.8420 0.8460 0.8460
2.681000 0.8470 0.8470 0.8470 0.8470 0.8490
2.714208 0.8470 0.8470 0.8460 0.8460 0.8440
2.748000 0.8440 0.8440 0.8420 0.8420 0.8420
2.781208 0.8420 0.8420 0.8410 0.8390 0.8370
2.814000 0.8340 0.8340 0.8320 0.8290 0.8270
2.847208 0.8240 0.8220 0.8220 0.8210 0.8210
2.881000 0.8190 0.8190 0.8170 0.8160 0.8140
2.914208 0.8060 0.8040 0.8040 0.8020 0.8010
2.947000 0.7990 0.7940 0.7850 0.7770 0.7720
2.980208 0.7670 0.7570 0.7470 0.7370 0.7300
3.013000 0.7240 0.7200 0.7170 0.7140 0.7120
3.046208 0.7120 0.7140 0.7140 0.7150 0.7190
3.080000 0.7220 0.7270 0.7290 0.7320 0.7350
3.113208 0.7390 0.7420 0.7450 0.7450 0.7490
3.146000 0.7500 0.7540 0.7570 0.7600 0.7620
3.179208 0.7620 0.7640 0.7640 0.7670 0.7700
3.212000 0.7700 0.7700 0.7700 0.7690 0.7670
3.245208 0.7600 0.7520 0.7470 0.7400 0.7170
3.279000 0.6870 0.6530 0.4540 0.4310 0.3690
3.312208 0.2640 0.2390 0.2100 0.1570 0.1300
3.345000 0.1120 0.1070 0.1070 0.1070 0.1100
3.378208 0.1430 0.1570 0.1730 0.1950 0.2020
3.412000 0.2040 0.2050 0.2070 0.2150 0.2620
3.445208 0.2870 0.3120 0.3670 0.5310 0.5610
3.478000 0.6000 0.6530 0.6770 0.7350 0.7470
3.511208 0.7650 0.7750 0.7970 0.8040 0.8170
3.544000 0.8320 0.8420 0.8460 0.8520 0.8540
3.577208 0.8590 0.8620 0.8620 0.8640 0.8660
3.611000 0.8660 0.8670 0.8670 0.8690 0.8690
3.644208 0.8710 0.8710 0.8710 0.8720 0.8720
3.677000 0.8740 0.8760 0.8760 0.8760 0.8770
3.710208 0.8770 0.8770 0.8770 0.8790 0.8790
3.744000 0.8790 0.8810 0.8810 0.8810 0.8810
3.777208 0.8810 0.8810 0.8820 0.8820 0.8840
3.810000 0.8840 0.8840 0.8840 0.8840 0.8840
3.843208 0.8840 0.8860 0.8870 0.8870 0.8870
3.876000 0.8870 0.8890 0.8890 0.8910 0.8920
3.909208 0.8940 0.8960 0.8960 0.8970 0.8970
3.943000 0.8970 0.8970 0.8970 0.8970 0.8970
3.976208 0.8960 0.8960 0.8940 0.8960 0.8960
4.009000 0.8960 0.8970 0.8970 0.8990 0.8990
4.042208 0.8990 0.8990 0.8990 0.8990 0.8990
4.075000 0.9010 0.9010 0.9010 0.9030 0.9010
4.108208 0.9010 0.9010 0.8990 0.8970 0.8960
4.142000 0.8920 0.8910 0.8870 0.8870 0.8840
4.175208 0.8820 0.8790 0.8770 0.8760 0.8740
4.208000 0.8720 0.8720 0.8720 0.8720 0.8720
4.241208 0.8720 0.8740 0.8760 0.8770 0.8790
4.275000 0.8820 0.8820 0.8820 0.8820 0.8810
4.308208 0.8810 0.8790 0.8790 0.8810 0.8810
4.341000 0.8820 0.8840 0.8860 0.8870 0.8890
4.374208 0.8910 0.8910 0.8920 0.8940 0.8940
4.407000 0.8960 0.8970 0.8970 0.8970 0.8960
4.440208 0.8960 0.8960 0.8960 0.8960 0.8960
4.474000 0.8960 0.8970 0.8970 0.8970 0.8970
4.507208 0.8990 0.8990 0.9010 0.9010 0.9010
4.540000 0.9010 0.8990 0.8970 0.8960 0.8960
4.573208 0.8960 0.8960 0.8960 0.8960 0.8960
4.607000 0.8960 0.8960 0.8960 0.8960 0.8970
4.640208 0.8970 0.8960 0.8940 0.8920 0.8920
4.673000 0.8920 0.8920 0.8920 0.8920 0.8920
4.706208 0.8920 0.8920 0.8920 0.8940 0.8940
4.739000 0.8940 0.8960 0.8960 0.8970 0.8990
4.772208 0.8990 0.8990 0.9010 0.9010 0.9010
4.806000 0.9010 0.9010 0.9030 0.9030 0.9030
4.839208 0.9030 0.9030 0.9030 0.9030 0.9040
4.872000 0.9040 0.9040 0.9060 0.9060 0.9060
4.905208 0.9060 0.9080 0.9080 0.9080 0.9080
4.938000 0.9090 0.9090 0.9090 0.9090 0.9080
4.971208 0.9060 0.9060 0.9040 0.9040 0.9060
5.005000 0.9060 0.9080 0.9090 0.9090 0.9110
5.038208 0.9110 0.9110 0.9110 0.9110 0.9110
5.071000 0.9110 0.9110 0.9090 0.9110 0.9110
5.104208 0.9110 0.9110 0.9110 0.9110 0.9130
5.138000 0.9130 0.9140 0.9140 0.9140 0.9140
5.171208 0.9160 0.9160 0.9180 0.9180 0.9180
5.204000 0.9180 0.9180 0.9190 0.9190 0.9210
5.237208 0.9190 0.9190 0.9190 0.9180 0.9180
5.270000 0.9180 0.9180 0.9180 0.9190 0.9190
5.303208 0.9190 0.9190 0.9190 0.9190 0.9180
5.337000 0.9180 0.9140 0.9140 0.9140 0.9140
5.370208 0.9140 0.9140 0.9140 0.9140 0.9140
5.403000 0.9140 0.9140 0.9140 0.9160 0.9160
5.436208 0.9160 0.9180 0.9180 0.9180 0.9190
5.470000 0.9190 0.9190 0.9210 0.9210 0.9210
5.503208 0.9210 0.9210 0.9210 0.9230 0.9230
5.536000 0.9240 0.9240 0.9260 0.9260 0.9280
5.569208 0.9290 0.9290 0.9310 0.9310 0.9330
5.602000 0.9330 0.9330 0.9340 0.9340 0.9340
5.635208 0.9340 0.9330 0.9330 0.9330 0.9330
5.669000 0.9340 0.9340 0.9340 0.9360 0.9380
5.702208 0.9380 0.9390 0.9390 0.9390 0.9390
5.735000 0.9390 0.9390 0.9390 0.9390 0.9390
5.768208 0.9390 0.9380 0.9360 0.9340 0.9340
5.801000 0.9310 0.9280 0.9280 0.9280 0.9290
5.834208 0.9290 0.9310 0.9330 0.9330 0.9340
5.868000 0.9340 0.9360 0.9360 0.9360 0.9340
5.901208 0.9290 0.9280 0.9260 0.9240 0.9240
5.934000 0.9240 0.9240 0.9260 0.9280 0.9290
5.967208 0.9290 0.9290 0.9290 0.9290 0.9290
6.001000 0.9290 0.9280 0.9280 0.9280 0.9260
6.034208 0.9260 0.9260 0.9240 0.9240 0.9240
6.067000 0.9230 0.9230 0.9210 0.9190 0.9190
6.100208 0.9190 0.9210 0.9210 0.9230 0.9230
6.133000 0.9230 0.9240 0.9240 0.9240 0.9240
6.166208 0.9260 0.9260 0.9260 0.9260 0.9240
6.200000 0.9240 0.9260 0.9260 0.9260 0.9240
6.233208 0.9240 0.9240 0.9230 0.9230 0.9230
6.266000 0.9230 0.9210 0.9210 0.9190 0.9160
6.299208 0.9140 0.9140 0.9140 0.9140 0.9160
6.333000 0.9160 0.9160 0.9130 0.9090 0.9060
6.366208 0.9060 0.9060 0.9060 0.9060 0.9090
6.399000 0.9110 0.9110 0.9110 0.9110 0.9110
6.432208 0.9090 0.9060 0.9040 0.9040 0.9010
6.465000 0.8990 0.8970 0.8970 0.8970 0.8970
6.498208 0.8970 0.8990 0.8990 0.8990 0.9010
6.532000 0.8990 0.8990 0.8990 0.8990 0.8970
6.565208 0.8940 0.8940 0.8920 0.8920 0.8910
6.598000 0.8910 0.8890 0.8860 0.8820 0.8810
6.631208 0.8790 0.8760 0.8720 0.8710 0.8670
6.664000 0.8640 0.8610 0.8560 0.8490 0.8440
6.697208 0.8210 0.8110 0.8040 0.8010 0.7890
6.731000 0.7750 0.7390 0.7000 0.6650 0.6400
6.764208 0.6050 0.5560 0.5330 0.5210 0.5130
6.797000 0.5010 0.4980 0.4960 0.4960 0.4960
6.830208 0.4960 0.4980 0.5030 0.5050 0.5100
6.864000 0.5200 0.5260 0.5380 0.5550 0.5630
6.897208 0.5680 0.5710 0.5750 0.5800 0.5860
6.930000 0.6000 0.6050 0.6180 0.6250 0.6300
6.963208 0.6330 0.6380 0.6430 0.6470 0.6500
6.996000 0.6520 0.6550 0.6580 0.6720 0.6870
7.029208 0.6970 0.7040 0.7070 0.7100 0.7140
7.063000 0.7170 0.7190 0.7240 0.7290 0.7340
7.096208 0.7340 0.7350 0.7340 0.7320 0.7290
7.129000 0.7220 0.7190 0.7140 0.7090 0.7020
7.162208 0.6900 0.6700 0.6130 0.5710 0.5430
7.196000 0.5330 0.5300 0.5330 0.5400 0.5530
7.229208 0.5580 0.5630 0.5680 0.5680 0.5660
7.262000 0.5660 0.5700 0.5710 0.5750 0.5750
7.295208 0.5710 0.5710 0.5680 0.5630 0.5560
7.328000 0.5510 0.5460 0.5360 0.5330 0.5280
7.361208 0.5260 0.5180 0.5100 0.5030 0.4860
7.395000 0.4730 0.4580 0.4390 0.4140 0.4010
7.428208 0.3910 0.3760 0.3290 0.2940 0.2740
7.461000 0.2500 0.2340 0.2200 0.2070 0.1730
7.494208 0.1480 0.1050 0.0850 0.0700 0.0610
7.527000 0.0550 0.0480 0.0410 0.0310 0.0250
7.560208 0.0230 0.0210 0.0180 0.0180 0.0160
7.594000 0.0150 0.0150 0.0130 0.0130 0.0110
7.627208 0.0110 0.0100 0.0080 0.0080 0.0060
7.660000 0.0050 0.0030 0.0030 0.0010 0.0010
7.693208 0.0000 0.0000 0.0000 0.0000 0.0000
7.727000 0.0000 0.0000 0.0000 0.0000 0.0000
7.760208 0.0000 0.0000 0.0000 0.0000 0.0000
7.793000 0.0000 0.0000 0.0000 0.0000 0.0000
7.826208 0.0000 0.0000 0.0000 0.0000 0.0000
7.859000 0.0000 0.0000 0.0000 0.0000 0.0000
7.892208 0.0000 0.0000 0.0000 0.0010 0.0030
7.926000 0.0100 0.0150 0.0200 0.0260 0.0310
7.959208 0.0460 0.0530 0.0580 0.0680 0.0910
7.992000 0.1070 0.1350 0.1650 0.1980 0.2120
8.025208 0.2220 0.2290 0.2420 0.2620 0.2790
8.059000 0.2970 0.3010 0.3220 0.3320 0.3420
8.092208 0.3620 0.3790 0.3890 0.4010 0.4060
8.125000 0.4180 0.4240 0.4290 0.4440 0.4510
8.158208 0.4590 0.4680 0.4740 0.4830 0.4880
8.191000 0.4910 0.4980 0.5060 0.5160 0.5210
8.224208 0.5260 0.5330 0.5410 0.5460 0.5550
8.258000 0.5610 0.5650 0.5760 0.5810 0.5860
8.291208 0.5910 0.6000 0.6020 0.6070 0.6130
8.324000 0.6200 0.6230 0.6300 0.6350 0.6380
8.357208 0.6430 0.6450 0.6500 0.6530 0.6550
8.390000 0.6600 0.6630 0.6680 0.6720 0.6770
8.423208 0.6820 0.6850 0.6880 0.6920 0.7000
8.457000 0.7000 0.7050 0.7050 0.7120 0.7140
8.490208 0.7170 0.7200 0.7220 0.7240 0.7250
8.523000 0.7270 0.7300 0.7320 0.7350 0.7370
8.556208 0.7400 0.7420 0.7440 0.7450 0.7470
8.590000 0.7470 0.7490 0.7520 0.7550 0.7570
8.623208 0.7590 0.7600 0.7620 0.7640 0.7650
8.656000 0.7670 0.7690 0.7700 0.7700 0.7720
8.689208 0.7720 0.7740 0.7740 0.7740 0.7740
8.722000 0.7740 0.7740 0.7740 0.7740 0.7740
8.755208 0.7740 0.7740 0.7740 0.7740 0.7740
8.789000 0.7740 0.7740 0.7740 0.7750 0.7750
8.822208 0.7750 0.7750 0.7740 0.7740 0.7740
8.855000 0.7740 0.7720 0.7720 0.7720 0.7740
8.888208 0.7740 0.7740 0.7750 0.7770 0.7770
8.922000 0.7770 0.7790 0.7790 0.7790 0.7790
8.955208 0.7790 0.7800 0.7800 0.7800 0.7800
8.988000 0.7820 0.7820 0.7820 0.7820 0.7820
9.021208 0.7820 0.7800 0.7800 0.7790 0.7790
9.054000 0.7770 0.7770 0.7770 0.7750 0.7740
9.087208 0.7720 0.7700 0.7690 0.7690 0.7670
9.121000 0.7640 0.7600 0.7570 0.7550 0.7520
9.154208 0.7490 0.7440 0.7390 0.7350 0.7290
9.187000 0.7240 0.7190 0.7150 0.7070 0.7000
9.220208 0.6920 0.6870 0.6780 0.6670 0.6580
9.253000 0.6330 0.6230 0.6130 0.6020 0.5810
9.286208 0.5500 0.5280 0.4610 0.4410 0.4130
9.320000 0.3660 0.3170 0.2800 0.2550 0.2190
9.353208 0.2070 0.1900 0.1480 0.1330 0.1150
9.386000 0.1030 0.0950 0.0880 0.0830 0.0810
9.419208 0.0780 0.0750 0.0750 0.0810 0.1000
9.453000 0.1080 0.1600 0.1870 0.2050 0.2370
9.486208 0.2790 0.3220 0.3670 0.4030 0.4210
9.519000 0.4590 0.4840 0.5100 0.5410 0.5660
9.552208 0.5880 0.6080 0.6200 0.6370 0.6500
9.585000 0.6730 0.6820 0.7070 0.7190 0.7340
9.618208 0.7500 0.7600 0.7700 0.7840 0.7900
9.652000 0.8010 0.8070 0.8120 0.8170 0.8260
9.685208 0.8290 0.8360 0.8410 0.8460 0.8520
9.718000 0.8590 0.8620 0.8670 0.8710 0.8720
9.751208 0.8740 0.8760 0.8760 0.8770 0.8790
9.785000 0.8810 0.8820 0.8860 0.8890 0.8910
9.818208 0.8920 0.8940 0.8970 0.9010 0.9030
9.851000 0.9040 0.9060 0.9080 0.9080 0.9080
9.884208 0.9080 0.9080 0.9080 0.9080 0.9080
9.917000 0.9080 0.9080 0.9080 0.9060 0.9060
9.950208 0.9060 0.9060 0.9080 0.9090 0.9110
9.984000 0.9130 0.9130 0.9140 0.9140 0.9160
10.017208 0.9160 0.9180 0.9180 0.9190 0.9190
10.050000 0.9210 0.9210 0.9210 0.9210 0.9210
10.083208 0.9210 0.9210 0.9230 0.9230 0.9240
10.116000 0.9240 0.9260 0.9260 0.9260 0.9240
10.149208 0.9230 0.9230 0.9210 0.9210 0.9210
10.183000 0.9210 0.9210 0.9210 0.9210 0.9230
10.216208 0.9230 0.9230 0.9230 0.9240 0.9240
10.249000 0.9260 0.9260 0.9260 0.9260 0.9280
10.282208 0.9280 0.9280 0.9260 0.9260 0.9260
10.316000 0.9240 0.9240 0.9230 0.9190 0.9180
10.349208 0.9160 0.9160 0.9160 0.9160 0.9180
10.382000 0.9180 0.9190 0.9210 0.9230 0.9240
10.415208 0.9260 0.9260 0.9260 0.9240 0.9240
10.448000 0.9240 0.9240 0.9230 0.9230 0.9230
10.481208 0.9240 0.9240 0.9240 0.9240 0.9240
10.515000 0.9230 0.9230 0.9210 0.9210 0.9190
10.548208 0.9210 0.9210 0.9210 0.9230 0.9230
10.581000 0.9230 0.9230 0.9230 0.9230 0.9230
10.614208 0.9230 0.9230 0.9210 0.9210 0.9190
10.648000 0.9190 0.9190 0.9190 0.9190 0.9210
10.681208 0.9210 0.9230 0.9230 0.9230 0.9230
10.714000 0.9230 0.9230 0.9210 0.9210 0.9210
10.747208 0.9210 0.9190 0.9190 0.9190 0.9190
10.780000 0.9180 0.9180 0.9180 0.9180 0.9180
10.813208 0.9180 0.9180 0.9180 0.9180 0.9180
10.847000 0.9160 0.9160 0.9140 0.9140 0.9130
10.880208 0.9130 0.9130 0.9130 0.9130 0.9130
10.913000 0.9130 0.9130 0.9130 0.9110 0.9110
10.946208 0.9090 0.9090 0.9080 0.9090 0.9110
10.979000 0.9110 0.9090 0.9090 0.9090 0.9090
11.012208 0.9090 0.9090 0.9080 0.9090 0.9110
11.046000 0.9110 0.9090 0.9090 0.9090 0.9090
11.079208 0.9090 0.9080 0.9080 0.9080 0.9080
11.112000 0.9080 0.9060 0.9060 0.9060 0.9060
11.145208 0.9060 0.9040 0.9030 0.9030 0.9030
11.179000 0.9030 0.9030 0.9030 0.9030 0.9030
11.212208 0.9030 0.9030 0.9030 0.9010 0.9010
11.245000 0.9010 0.9010 0.8990 0.8990 0.8990
11.278208 0.8990 0.8970 0.8970 0.8970 0.8970
11.311000 0.8970 0.8970 0.8970 0.8970 0.8970
11.344208 0.8990 0.8990 0.8990 0.9010 0.9010
11.378000 0.9010 0.9010 0.9030 0.9030 0.9040
11.411208 0.9040 0.9040 0.9040 0.9040 0.9040
11.444000 0.9030 0.9030 0.9030 0.8990 0.8990
11.477208 0.8970 0.8970 0.8970 0.8970 0.8970
11.511000 0.8990 0.8990 0.9010 0.9010 0.9010
11.544208 0.9010 0.9010 0.9010 0.8990 0.8990
11.577000 0.8990 0.8990 0.8990 0.8990 0.8990
11.610208 0.8990 0.8990 0.8990 0.8990 0.8970
11.643000 0.8970 0.8970 0.8970 0.8970 0.8970
11.676208 0.8970 0.8970 0.8970 0.8970 0.8970
11.710000 0.8960 0.8970 0.8970 0.8970 0.8970
11.743208 0.8970 0.8970 0.8970 0.8990 0.8990
11.776000 0.8990 0.8990 0.8990 0.8990 0.8990
11.809208 0.8990 0.8990 0.8990 0.8990 0.8990
11.842000 0.8990 0.8990 0.8990 0.8990 0.8970
11.875208 0.8970 0.8970 0.8970 0.8970 0.8990
11.909000 0.8990 0.8990 0.8990 0.8990 0.8990
11.942208 0.8990 0.8990 0.8990 0.8990 0.8990
11.975000 0.8990 0.8990 0.8990 0.8990 0.8990
12.008208 0.8990 0.8970 0.8990 0.8990 0.8990
12.042000 0.8990 0.9010 0.9010 0.9010 0.9010
12.075208 0.9010 0.9010 0.9010 0.8990 0.8990
12.108000 0.8990 0.8970 0.8970 0.8970 0.8970
12.141208 0.8970 0.8970 0.8970 0.8970 0.8970
12.174000 0.8970 0.8960 0.8960 0.8940 0.8940
12.207208 0.8920 0.8920 0.8920 0.8920 0.8920
12.241000 0.8910 0.8910 0.8910 0.8910 0.8910
12.274208 0.8910 0.8910 0.8910 0.8920 0.8920
12.307000 0.8940 0.8940 0.8940 0.8940 0.8940
12.340208 0.8940 0.8940 0.8920 0.8920 0.8920
12.374000 0.8920 0.8920 0.8910 0.8910 0.8890
12.407208 0.8890 0.8870 0.8870 0.8860 0.8860
12.440000 0.8860 0.8860 0.8840 0.8840 0.8840
12.473208 0.8820 0.8820 0.8810 0.8810 0.8790
12.506000 0.8790 0.8770 0.8770 0.8760 0.8720
12.539208 0.8710 0.8690 0.8690 0.8670 0.8660
12.573000 0.8640 0.8620 0.8610 0.8590 0.8570
12.606208 0.8540 0.8520 0.8490 0.8470 0.8470
12.639000 0.8460 0.8440 0.8440 0.8420 0.8410
12.672208 0.8390 0.8360 0.8340 0.8310 0.8260
12.705000 0.8240 0.8240 0.8220 0.8210 0.8190
12.738208 0.8170 0.8140 0.8120 0.8110 0.8110
12.772000 0.8070 0.8070 0.8060 0.8060 0.8040
12.805208 0.8020 0.8010 0.7990 0.7990 0.7970
12.838000 0.7970 0.7950 0.7950 0.7940 0.7940
12.871208 0.7920 0.7920 0.7900 0.7890 0.7890
12.905000 0.7870 0.7870 0.7850 0.7840 0.7840
12.938208 0.7820 0.7820 0.7800 0.7800 0.7790
12.971000 0.7750 0.7720 0.7700 0.7690 0.7670
13.004208 0.7650 0.7640 0.7600 0.7600 0.7590
13.037000 0.7570 0.7540 0.7520 0.7490 0.7470
13.070208 0.7440 0.7420 0.7400 0.7390 0.7390
13.104000 0.7370 0.7370 0.7350 0.7350 0.7340
13.137208 0.7320 0.7300 0.7290 0.7270 0.7250
13.170000 0.7240 0.7220 0.7220 0.7200 0.7190
13.203208 0.7170 0.7150 0.7140 0.7070 0.7040
13.237000 0.7020 0.6980 0.6950 0.6930 0.6900
13.270208 0.6870 0.6830 0.6780 0.6750 0.6680
13.303000 0.6600 0.6550 0.6470 0.6400 0.6370
13.336208 0.6320 0.6270 0.6220 0.6180 0.6150
13.369000 0.6080 0.6050 0.6050 0.6020 0.5950
13.402208 0.5900 0.5830 0.5760 0.5660 0.5580
13.436000 0.5510 0.5460 0.5360 0.5300 0.5230
13.469208 0.5130 0.5050 0.5010 0.4940 0.4840
13.502000 0.4780 0.4690 0.4640 0.4590 0.4490
13.535208 0.4410 0.4330 0.4260 0.4190 0.4130
13.568000 0.4040 0.4010 0.3910 0.3820 0.3770
13.601208 0.3740 0.3710 0.3640 0.3610 0.3560
13.635000 0.3490 0.3440 0.3390 0.3310 0.3190
13.668208 0.3040 0.2940 0.2800 0.2720 0.2650
13.701000 0.2550 0.2490 0.2440 0.2350 0.2320
13.734208 0.2240 0.2220 0.2190 0.2150 0.2140
13.768000 0.2070 0.2040 0.2000 0.2000 0.1930
13.801208 0.1870 0.1830 0.1780 0.1730 0.1720
13.834000 0.1670 0.1620 0.1580 0.1550 0.1520
13.867208 0.1480 0.1430 0.1400 0.1370 0.1350
13.900000 0.1320 0.1250 0.1230 0.1220 0.1170
13.933208 0.1150 0.1150 0.1120 0.1100 0.1070
13.967000 0.1050 0.1030 0.1020 0.1000 0.0980
14.000208 0.0960 0.0950 0.0950 0.0950 0.0930
14.033000 0.0930 0.0930 0.0910 0.0910 0.0910
14.066208 0.0910 0.0910 0.0910 0.0910 0.0910
14.100000 0.0910 0.0900 0.0910 0.0910 0.0910
14.133208 0.0910 0.0910 0.0910 0.0910 0.0910
14.166000 0.0910 0.0910 0.0910 0.0910 0.0930
14.199208 0.0930 0.0930 0.0930 0.0930 0.0930
14.232000 0.0930 0.0950 0.0960 0.0960 0.0980
14.265208 0.0980 0.1000 0.1000 0.1030 0.1050
14.299000 0.1050 0.1070 0.1080 0.1080 0.1100
14.332208 0.1120 0.1150 0.1150 0.1180 0.1200
14.365000 0.1220 0.1230 0.1250 0.1270 0.1280
14.398208 0.1300 0.1320 0.1330 0.1370 0.1380
14.432000 0.1400 0.1420 0.1470 0.1480 0.1520
14.465208 0.1530 0.1550 0.1570 0.1580 0.1580
14.498000 0.1600 0.1600 0.1630 0.1650 0.1670
14.531208 0.1680 0.1720 0.1730 0.1750 0.1780
14.564000 0.1800 0.1830 0.1850 0.1870 0.1920
14.597208 0.1950 0.1980 0.1980 0.2020 0.2020
14.631000 0.2020 0.2040 0.2070 0.2120 0.2150
14.664208 0.2170 0.2190 0.2220 0.2250 0.2300
14.697000 0.2320 0.2340 0.2400 0.2440 0.2490
14.730208 0.2520 0.2570 0.2620 0.2650 0.2670
14.763000 0.2700 0.2770 0.2850 0.2990 0.3010
14.796208 0.3120 0.3210 0.3370 0.3470 0.3520
14.830000 0.3590 0.3640 0.3660 0.3670 0.3690
14.863208 0.3710 0.3740 0.3740 0.3760 0.3760
14.896000 0.3770 0.3770 0.3790 0.3790 0.3820
14.929208 0.3840 0.3860 0.3890 0.3910 0.3940
14.963000 0.3990 0.3990 0.4010 0.4040 0.4090
14.996208 0.4130 0.4160 0.4190 0.4240 0.4260
15.029000 0.4290 0.4310 0.4340 0.4380 0.4410
15.062208 0.4430 0.4460 0.4490 0.4530 0.4560
15.095000 0.4590 0.4610 0.4640 0.4640 0.4690
15.128208 0.4710 0.4740 0.4760 0.4790 0.4830
15.162000 0.4860 0.4890 0.4930 0.4940 0.4980
15.195208 0.5000 0.5000 0.5030 0.5080 0.5130
15.228000 0.5150 0.5160 0.5180 0.5210 0.5230
15.261208 0.5230 0.5250 0.5260 0.5280 0.5300
15.295000 0.5310 0.5330 0.5350 0.5350 0.5380
15.328208 0.5400 0.5430 0.5450 0.5460 0.5500
15.361000 0.5510 0.5530 0.5550 0.5550 0.5550
15.394208 0.5550 0.5550 0.5550 0.5550 0.5600
15.427000 0.5600 0.5610 0.5630 0.5650 0.5660
15.460208 0.5680 0.5700 0.5710 0.5710 0.5730
15.494000 0.5750 0.5750 0.5760 0.5780 0.5800
15.527208 0.5810 0.5830 0.5830 0.5850 0.5850
15.560000 0.5860 0.5880 0.5900 0.5900 0.5910
15.593208 0.5930 0.5950 0.5950 0.5960 0.5960
15.626000 0.5980 0.5980 0.6000 0.6020 0.6020
15.659208 0.6030 0.6030 0.6030 0.6070 0.6080
15.693000 0.6100 0.6100 0.6120 0.6120 0.6120
15.726208 0.6130 0.6130 0.6130 0.6150 0.6170
15.759000 0.6170 0.6180 0.6180 0.6200 0.6200
15.792208 0.6220 0.6220 0.6230 0.6230 0.6270
15.826000 0.6270 0.6280 0.6280 0.6300 0.6300
15.859208 0.6320 0.6320 0.6320 0.6330 0.6350
15.892000 0.6350 0.6370 0.6380 0.6400 0.6420
15.925208 0.6430 0.6450 0.6450 0.6470 0.6480
15.958000 0.6480 0.6500 0.6520 0.6520 0.6520
15.991208 0.6530
##END=
