##TITLE=2-Naphthalenesulfonic acid, 1,4-dihydroxy-, potassium salt ,diacetate
##JCAMP-DX=4.24
##DATA TYPE=INFRARED SPECTRUM
##CLASS=COBLENTZ III
##ORIGIN=ABBOTT LABORATORIES
##OWNER=Copyright (C) 1987 by the Coblentz Society
Collection (C) 2018 copyright by the U.S. Secretary of Commerce
on behalf of the United States of America. All rights reserved.
##DATE=1964/07/01
##MOLFORM=C14 H11 K O7 S
##SOURCE REFERENCE=COBLENTZ NO. 5295
##$NIST ID=B6005295
##$NIST SOURCE=COBLENTZ
##$NIST IMAGE=cob5295
##SPECTROMETER/DATA SYSTEM=PERKIN-ELMER 21 (GRATING)
$$SPECTRAL CONTAMINATION DUE TO OIL AROUND 1460 AND 2900 CM^-^1
##INSTRUMENT PARAMETERS=FILTER AT ABOUT 10 MICRONS
##STATE=SOLID (NUJOL MULL)
##RESOLUTION=2
##XUNITS=1/CM
##YUNITS=TRANSMITTANCE
##XFACTOR=1.0
##YFACTOR=1
##FIRSTX=669
##LASTX=4000
##FIRSTY=0.6209
##MAXX=4000
##MINX=669
##MAXY=0.8018
##MINY=0
##NPOINTS=3332
##XYDATA=(X++(Y..Y))
669.000000 0.6209 0.6206 0.6143 0.6040 0.5905
674.000000 0.5718 0.5472 0.5039 0.4537 0.4128
679.000000 0.4099 0.4527 0.5365 0.6200 0.6385
684.000000 0.6417 0.6362 0.6312 0.6257 0.6188
689.000000 0.6075 0.5927 0.5768 0.5574 0.5309
694.000000 0.4867 0.4403 0.3940 0.3474 0.3018
699.000000 0.2985 0.3086 0.3636 0.4344 0.5051
704.000000 0.5703 0.6081 0.6344 0.6461 0.6496
709.000000 0.6493 0.6537 0.6448 0.6394 0.6330
714.000000 0.6247 0.6161 0.6055 0.5949 0.5862
719.000000 0.5799 0.5756 0.5737 0.5784 0.5808
724.000000 0.5828 0.5846 0.5859 0.5863 0.5862
729.000000 0.5845 0.5821 0.5782 0.5736 0.5662
734.000000 0.5566 0.5422 0.5253 0.4992 0.4625
739.000000 0.4258 0.4054 0.4064 0.4217 0.4879
744.000000 0.5472 0.5769 0.5835 0.5870 0.5879
749.000000 0.5831 0.5774 0.5696 0.5585 0.5356
754.000000 0.5004 0.4565 0.3854 0.3136 0.2421
759.000000 0.1707 0.0997 0.0793 0.0789 0.1267
764.000000 0.2094 0.2919 0.3741 0.3958 0.3962
769.000000 0.3657 0.3267 0.3101 0.3063 0.4096
774.000000 0.4912 0.5724 0.6459 0.6692 0.6863
779.000000 0.6868 0.6864 0.6831 0.6722 0.6632
784.000000 0.6643 0.6590 0.7263 0.7551 0.7637
789.000000 0.7652 0.7662 0.7657 0.7652 0.7647
794.000000 0.7636 0.7620 0.7603 0.7587 0.7567
799.000000 0.7546 0.7519 0.7485 0.7452 0.7420
804.000000 0.7380 0.7336 0.7292 0.7247 0.7185
809.000000 0.7116 0.7011 0.6896 0.6754 0.6604
814.000000 0.6510 0.6525 0.6510 0.6606 0.6832
819.000000 0.6999 0.7162 0.7337 0.7397 0.7448
824.000000 0.7431 0.7455 0.7450 0.7440 0.7431
829.000000 0.7422 0.7412 0.7398 0.7384 0.7370
834.000000 0.7357 0.7344 0.7326 0.7306 0.7286
839.000000 0.7266 0.7245 0.7223 0.7202 0.7181
844.000000 0.7159 0.7138 0.7117 0.7096 0.7074
849.000000 0.7053 0.7033 0.6982 0.6930 0.6869
854.000000 0.6751 0.6600 0.6428 0.6260 0.6099
859.000000 0.6006 0.5982 0.5967 0.6036 0.6386
864.000000 0.6533 0.6534 0.6559 0.6371 0.6170
869.000000 0.5969 0.5768 0.5568 0.5369 0.5169
874.000000 0.4981 0.4924 0.5051 0.5564 0.6068
879.000000 0.6429 0.6640 0.6703 0.6733 0.6741
884.000000 0.6737 0.6719 0.6689 0.6656 0.6613
889.000000 0.6569 0.6517 0.6463 0.6408 0.6347
894.000000 0.6284 0.6220 0.6152 0.6077 0.6003
899.000000 0.5927 0.5833 0.5737 0.5640 0.5532
904.000000 0.5506 0.5500 0.5500 0.5498 0.5432
909.000000 0.5326 0.5206 0.5079 0.4894 0.4522
914.000000 0.4148 0.3775 0.3404 0.3033 0.2662
919.000000 0.2292 0.1913 0.1892 0.1887 0.2139
924.000000 0.2600 0.3236 0.3869 0.4502 0.5394
929.000000 0.5662 0.5955 0.6173 0.6290 0.6379
934.000000 0.6436 0.6478 0.6503 0.6524 0.6530
939.000000 0.6536 0.6541 0.6560 0.6529 0.6519
944.000000 0.6509 0.6494 0.6477 0.6460 0.6446
949.000000 0.6433 0.6414 0.6381 0.6349 0.6317
954.000000 0.6285 0.6255 0.6224 0.6193 0.6133
959.000000 0.6070 0.6005 0.5947 0.5899 0.5851
964.000000 0.5812 0.5786 0.5763 0.5840 0.5925
969.000000 0.6018 0.5991 0.5984 0.5947 0.5916
974.000000 0.5894 0.5874 0.5862 0.5849 0.5839
979.000000 0.5836 0.5833 0.5829 0.5808 0.5782
984.000000 0.5745 0.5706 0.5666 0.5624 0.5557
989.000000 0.5490 0.5425 0.5306 0.5181 0.4992
994.000000 0.4709 0.4363 0.4017 0.3673 0.3394
999.000000 0.3204 0.3058 0.2714 0.2370 0.2028
1004.000000 0.1687 0.1673 0.1675 0.1706 0.1874
1009.000000 0.2548 0.3243 0.3936 0.4583 0.4761
1014.000000 0.4853 0.4746 0.4717 0.4712 0.4702
1019.000000 0.4812 0.4884 0.4902 0.4904 0.4884
1024.000000 0.4817 0.4713 0.4607 0.4497 0.4373
1029.000000 0.4159 0.3841 0.3387 0.2948 0.2512
1034.000000 0.2077 0.1643 0.1209 0.0777 0.0554
1039.000000 0.0506 0.0530 0.0596 0.0689 0.1460
1044.000000 0.2168 0.2874 0.3694 0.3821 0.3859
1049.000000 0.3863 0.3869 0.3803 0.3621 0.3280
1054.000000 0.2941 0.2601 0.2263 0.1925 0.1588
1059.000000 0.1262 0.1090 0.1033 0.1003 0.1045
1064.000000 0.1249 0.1655 0.2059 0.2463 0.2866
1069.000000 0.3267 0.3558 0.3647 0.3623 0.3604
1074.000000 0.3501 0.3175 0.2849 0.2524 0.2200
1079.000000 0.1876 0.1553 0.1241 0.1098 0.1044
1084.000000 0.1021 0.1004 0.1307 0.1982 0.2656
1089.000000 0.3330 0.3997 0.4768 0.5135 0.5254
1094.000000 0.5321 0.5356 0.5382 0.5392 0.5401
1099.000000 0.5411 0.5415 0.5418 0.5421 0.5426
1104.000000 0.5422 0.5431 0.5409 0.5387 0.5365
1109.000000 0.5342 0.5318 0.5293 0.5265 0.5230
1114.000000 0.5194 0.5158 0.5123 0.5088 0.5053
1119.000000 0.5017 0.4982 0.4941 0.4894 0.4848
1124.000000 0.4801 0.4753 0.4702 0.4651 0.4601
1129.000000 0.4542 0.4451 0.4355 0.4261 0.4166
1134.000000 0.4067 0.3960 0.3885 0.3834 0.3784
1139.000000 0.3732 0.3662 0.3587 0.3472 0.3312
1144.000000 0.3064 0.2767 0.2545 0.2324 0.2103
1149.000000 0.1883 0.1662 0.1443 0.1224 0.1005
1154.000000 0.0786 0.0630 0.0553 0.0545 0.0582
1159.000000 0.0657 0.0754 0.1052 0.1366 0.1630
1164.000000 0.1647 0.1658 0.1325 0.1134 0.0943
1169.000000 0.0753 0.0574 0.0483 0.0449 0.0440
1174.000000 0.0450 0.0483 0.0651 0.0765 0.0787
1179.000000 0.0786 0.0798 0.0780 0.0743 0.0669
1184.000000 0.0591 0.0442 0.0321 0.0268 0.0214
1189.000000 0.0172 0.0135 0.0099 0.0071 0.0056
1194.000000 0.0041 0.0025 0.0018 0.0014 0.0010
1199.000000 0.0007 0.0003 0.0000 0.0001 0.0002
1204.000000 0.0006 0.0006 0.0008 0.0009 0.0011
1209.000000 0.0014 0.0016 0.0020 0.0028 0.0037
1214.000000 0.0046 0.0057 0.0073 0.0092 0.0110
1219.000000 0.0127 0.0146 0.0177 0.0228 0.0288
1224.000000 0.0346 0.0352 0.0344 0.0337 0.0328
1229.000000 0.0329 0.0338 0.0362 0.0408 0.0478
1234.000000 0.0574 0.0742 0.0911 0.1079 0.1247
1239.000000 0.1415 0.1582 0.1749 0.1916 0.2082
1244.000000 0.2249 0.2415 0.2580 0.2746 0.2911
1249.000000 0.3077 0.3241 0.3367 0.3474 0.3585
1254.000000 0.3686 0.3766 0.3836 0.3887 0.3923
1259.000000 0.3912 0.3883 0.3794 0.3702 0.3611
1264.000000 0.3522 0.3481 0.3514 0.3708 0.3953
1269.000000 0.4199 0.4444 0.4686 0.4829 0.4896
1274.000000 0.4950 0.4992 0.5034 0.5063 0.5085
1279.000000 0.5107 0.5130 0.5152 0.5174 0.5194
1284.000000 0.5209 0.5224 0.5237 0.5252 0.5267
1289.000000 0.5281 0.5294 0.5307 0.5320 0.5333
1294.000000 0.5346 0.5359 0.5371 0.5385 0.5399
1299.000000 0.5414 0.5430 0.5445 0.5459 0.5475
1304.000000 0.5490 0.5498 0.5503 0.5507 0.5511
1309.000000 0.5518 0.5519 0.5503 0.5476 0.5450
1314.000000 0.5422 0.5384 0.5343 0.5303 0.5254
1319.000000 0.5181 0.5106 0.4981 0.4727 0.4395
1324.000000 0.4062 0.3730 0.3399 0.3068 0.2821
1329.000000 0.2790 0.2791 0.2816 0.3045 0.3323
1334.000000 0.3601 0.3878 0.4155 0.4424 0.4574
1339.000000 0.4622 0.4638 0.4644 0.4647 0.4615
1344.000000 0.4578 0.4496 0.4309 0.4041 0.3774
1349.000000 0.3506 0.3240 0.2973 0.2707 0.2442
1354.000000 0.2176 0.1912 0.1647 0.1384 0.1119
1359.000000 0.0870 0.0608 0.0424 0.0310 0.0234
1364.000000 0.0185 0.0179 0.0172 0.0164 0.0191
1369.000000 0.0208 0.0246 0.0400 0.0548 0.0604
1374.000000 0.0635 0.0669 0.0865 0.1177 0.1488
1379.000000 0.1798 0.2108 0.2418 0.2727 0.3036
1384.000000 0.3343 0.3651 0.4021 0.4485 0.4659
1389.000000 0.4803 0.5020 0.5302 0.5463 0.5515
1394.000000 0.5560 0.5582 0.5597 0.5602 0.5620
1399.000000 0.5604 0.5591 0.5578 0.5564 0.5533
1404.000000 0.5492 0.5422 0.5329 0.5205 0.5078
1409.000000 0.4950 0.4822 0.4670 0.4527 0.4416
1414.000000 0.4194 0.3667 0.3134 0.2719 0.2638
1419.000000 0.2636 0.2635 0.2645 0.2671 0.2701
1424.000000 0.2721 0.2724 0.2727 0.2724 0.2696
1429.000000 0.2603 0.2510 0.2417 0.2324 0.2232
1434.000000 0.2140 0.2048 0.1955 0.1863 0.1771
1439.000000 0.1680 0.1589 0.1497 0.1406 0.1315
1444.000000 0.1223 0.1132 0.1041 0.0951 0.0860
1449.000000 0.0768 0.0699 0.0646 0.0633 0.0630
1454.000000 0.0631 0.0631 0.0632 0.0633 0.0635
1459.000000 0.0637 0.0641 0.0646 0.0667 0.0691
1464.000000 0.0725 0.0791 0.0902 0.1152 0.1548
1469.000000 0.1958 0.2367 0.2775 0.3184 0.3591
1474.000000 0.3999 0.4405 0.4811 0.5320 0.5772
1479.000000 0.5868 0.5923 0.5971 0.6020 0.6069
1484.000000 0.6113 0.6150 0.6189 0.6227 0.6262
1489.000000 0.6290 0.6318 0.6343 0.6361 0.6377
1494.000000 0.6393 0.6410 0.6426 0.6438 0.6448
1499.000000 0.6471 0.6529 0.6637 0.6762 0.6827
1504.000000 0.6881 0.6917 0.6948 0.6979 0.6998
1509.000000 0.7007 0.7016 0.7025 0.7034 0.7043
1514.000000 0.7050 0.7055 0.7059 0.7063 0.7067
1519.000000 0.7070 0.7104 0.7067 0.7065 0.7062
1524.000000 0.7060 0.7054 0.7046 0.7038 0.7030
1529.000000 0.7022 0.7013 0.7002 0.6989 0.6976
1534.000000 0.6964 0.6952 0.6940 0.6933 0.6932
1539.000000 0.6930 0.6930 0.6930 0.6930 0.6930
1544.000000 0.6913 0.6890 0.6866 0.6843 0.6820
1549.000000 0.6797 0.6774 0.6751 0.6727 0.6699
1554.000000 0.6672 0.6644 0.6616 0.6589 0.6560
1559.000000 0.6528 0.6492 0.6457 0.6422 0.6367
1564.000000 0.6289 0.6217 0.6156 0.6097 0.6026
1569.000000 0.5958 0.5933 0.5933 0.5920 0.5943
1574.000000 0.5966 0.6082 0.6178 0.6272 0.6348
1579.000000 0.6396 0.6415 0.6421 0.6424 0.6422
1584.000000 0.6407 0.6382 0.6335 0.6276 0.6214
1589.000000 0.6147 0.6071 0.5983 0.5845 0.5625
1594.000000 0.5375 0.5126 0.4876 0.4627 0.4378
1599.000000 0.4130 0.3793 0.3770 0.3769 0.3814
1604.000000 0.4093 0.4630 0.5167 0.5703 0.6191
1609.000000 0.6473 0.6491 0.6493 0.6511 0.6486
1614.000000 0.6474 0.6455 0.6431 0.6399 0.6359
1619.000000 0.6312 0.6256 0.6219 0.6192 0.6166
1624.000000 0.6140 0.6113 0.6088 0.6069 0.6056
1629.000000 0.6042 0.6033 0.6033 0.6054 0.6035
1634.000000 0.6039 0.6048 0.6064 0.6110 0.6240
1639.000000 0.6372 0.6433 0.6460 0.6485 0.6510
1644.000000 0.6532 0.6550 0.6568 0.6586 0.6605
1649.000000 0.6623 0.6642 0.6662 0.6675 0.6680
1654.000000 0.6682 0.6683 0.6706 0.6687 0.6683
1659.000000 0.6677 0.6673 0.6666 0.6661 0.6655
1664.000000 0.6648 0.6642 0.6632 0.6622 0.6620
1669.000000 0.6618 0.6616 0.6614 0.6612 0.6612
1674.000000 0.6612 0.6599 0.6573 0.6546 0.6519
1679.000000 0.6492 0.6464 0.6437 0.6410 0.6382
1684.000000 0.6346 0.6304 0.6262 0.6218 0.6168
1689.000000 0.6086 0.6005 0.5939 0.5880 0.5821
1694.000000 0.5763 0.5704 0.5645 0.5591 0.5540
1699.000000 0.5489 0.5439 0.5388 0.5338 0.5288
1704.000000 0.5238 0.5188 0.5136 0.5079 0.5021
1709.000000 0.4963 0.4905 0.4846 0.4785 0.4713
1714.000000 0.4636 0.4559 0.4481 0.4404 0.4336
1719.000000 0.4268 0.4200 0.4126 0.4041 0.3948
1724.000000 0.3875 0.3825 0.3778 0.3734 0.3692
1729.000000 0.3650 0.3586 0.3416 0.3233 0.3051
1734.000000 0.2868 0.2686 0.2505 0.2323 0.2142
1739.000000 0.1961 0.1780 0.1599 0.1418 0.1238
1744.000000 0.1058 0.0878 0.0681 0.0409 0.0309
1749.000000 0.0245 0.0202 0.0175 0.0159 0.0151
1754.000000 0.0151 0.0152 0.0150 0.0164 0.0190
1759.000000 0.0316 0.0398 0.0563 0.0877 0.1224
1764.000000 0.1572 0.1919 0.2266 0.2703 0.3469
1769.000000 0.3593 0.3699 0.3817 0.3976 0.4245
1774.000000 0.5030 0.5362 0.5481 0.5602 0.5731
1779.000000 0.5865 0.5958 0.6021 0.6072 0.6121
1784.000000 0.6171 0.6222 0.6272 0.6322 0.6372
1789.000000 0.6427 0.6482 0.6538 0.6594 0.6649
1794.000000 0.6705 0.6758 0.6805 0.6849 0.6894
1799.000000 0.6939 0.6984 0.7029 0.7060 0.7090
1804.000000 0.7119 0.7148 0.7177 0.7206 0.7235
1809.000000 0.7264 0.7286 0.7302 0.7316 0.7330
1814.000000 0.7343 0.7354 0.7360 0.7364 0.7368
1819.000000 0.7371 0.7374 0.7378 0.7382 0.7385
1824.000000 0.7388 0.7392 0.7397 0.7406 0.7417
1829.000000 0.7438 0.7500 0.7571 0.7625 0.7658
1834.000000 0.7672 0.7686 0.7700 0.7713 0.7723
1839.000000 0.7731 0.7738 0.7745 0.7752 0.7760
1844.000000 0.7767 0.7774 0.7782 0.7791 0.7800
1849.000000 0.7809 0.7817 0.7826 0.7835 0.7844
1854.000000 0.7852 0.7861 0.7870 0.7878 0.7886
1859.000000 0.7895 0.7905 0.7917 0.7929 0.7941
1864.000000 0.7952 0.7964 0.7977 0.7989 0.7996
1869.000000 0.7984 0.8005 0.8008 0.8011 0.8013
1874.000000 0.8016 0.8018 0.8018 0.8016 0.8016
1879.000000 0.8014 0.8013 0.8012 0.8010 0.8009
1884.000000 0.8008 0.8007 0.8006 0.8004 0.8004
1889.000000 0.8002 0.8001 0.8000 0.7998 0.7997
1894.000000 0.7996 0.7995 0.7994 0.7992 0.7990
1899.000000 0.7988 0.7987 0.7985 0.7983 0.7982
1904.000000 0.7980 0.7978 0.7976 0.7974 0.7972
1909.000000 0.7971 0.7970 0.7970 0.7969 0.7968
1914.000000 0.7968 0.7967 0.7966 0.7966 0.7965
1919.000000 0.7965 0.7965 0.7964 0.7963 0.7963
1924.000000 0.7962 0.7961 0.7961 0.7960 0.7959
1929.000000 0.7959 0.7958 0.7957 0.7956 0.7955
1934.000000 0.7954 0.7952 0.7950 0.7949 0.7947
1939.000000 0.7946 0.7945 0.7943 0.7941 0.7940
1944.000000 0.7939 0.7937 0.7936 0.7934 0.7932
1949.000000 0.7931 0.7930 0.7928 0.7926 0.7925
1954.000000 0.7923 0.7922 0.7920 0.7918 0.7917
1959.000000 0.7915 0.7912 0.7909 0.7906 0.7903
1964.000000 0.7900 0.7897 0.7894 0.7890 0.7888
1969.000000 0.7885 0.7882 0.7879 0.7876 0.7873
1974.000000 0.7870 0.7867 0.7864 0.7861 0.7858
1979.000000 0.7855 0.7853 0.7852 0.7852 0.7853
1984.000000 0.7854 0.7855 0.7856 0.7857 0.7858
1989.000000 0.7860 0.7860 0.7861 0.7862 0.7863
1994.000000 0.7864 0.7865 0.7866 0.7868 0.7868
1999.000000 0.7869 0.7871 0.7872 0.7873 0.7873
2004.000000 0.7874 0.7872 0.7866 0.7860 0.7854
2009.000000 0.7848 0.7841 0.7834 0.7828 0.7822
2014.000000 0.7815 0.7808 0.7802 0.7796 0.7789
2019.000000 0.7782 0.7776 0.7770 0.7763 0.7756
2024.000000 0.7750 0.7744 0.7737 0.7731 0.7725
2029.000000 0.7718 0.7712 0.7706 0.7699 0.7694
2034.000000 0.7690 0.7687 0.7683 0.7679 0.7675
2039.000000 0.7671 0.7667 0.7664 0.7660 0.7657
2044.000000 0.7653 0.7649 0.7646 0.7642 0.7639
2049.000000 0.7635 0.7635 0.7636 0.7637 0.7638
2054.000000 0.7639 0.7640 0.7642 0.7643 0.7644
2059.000000 0.7645 0.7646 0.7647 0.7649 0.7650
2064.000000 0.7652 0.7653 0.7654 0.7656 0.7657
2069.000000 0.7659 0.7660 0.7662 0.7664 0.7666
2074.000000 0.7667 0.7669 0.7671 0.7673 0.7674
2079.000000 0.7673 0.7671 0.7666 0.7662 0.7657
2084.000000 0.7652 0.7648 0.7643 0.7639 0.7635
2089.000000 0.7632 0.7630 0.7628 0.7627 0.7625
2094.000000 0.7623 0.7621 0.7620 0.7618 0.7616
2099.000000 0.7615 0.7613 0.7611 0.7610 0.7608
2104.000000 0.7606 0.7604 0.7603 0.7601 0.7600
2109.000000 0.7601 0.7603 0.7605 0.7607 0.7609
2114.000000 0.7611 0.7613 0.7615 0.7617 0.7618
2119.000000 0.7620 0.7623 0.7624 0.7626 0.7628
2124.000000 0.7629 0.7631 0.7633 0.7634 0.7636
2129.000000 0.7638 0.7639 0.7641 0.7643 0.7644
2134.000000 0.7646 0.7648 0.7649 0.7651 0.7653
2139.000000 0.7654 0.7656 0.7657 0.7659 0.7660
2144.000000 0.7660 0.7660 0.7660 0.7660 0.7660
2149.000000 0.7660 0.7660 0.7660 0.7660 0.7660
2154.000000 0.7658 0.7656 0.7653 0.7651 0.7648
2159.000000 0.7646 0.7644 0.7641 0.7639 0.7637
2164.000000 0.7635 0.7632 0.7630 0.7627 0.7625
2169.000000 0.7623 0.7620 0.7614 0.7608 0.7601
2174.000000 0.7595 0.7589 0.7582 0.7575 0.7569
2179.000000 0.7562 0.7556 0.7550 0.7545 0.7541
2184.000000 0.7539 0.7538 0.7537 0.7536 0.7534
2189.000000 0.7533 0.7532 0.7531 0.7530 0.7528
2194.000000 0.7527 0.7527 0.7527 0.7527 0.7527
2199.000000 0.7528 0.7528 0.7529 0.7529 0.7524
2204.000000 0.7510 0.7493 0.7472 0.7457 0.7449
2209.000000 0.7441 0.7433 0.7425 0.7418 0.7414
2214.000000 0.7411 0.7411 0.7411 0.7412 0.7412
2219.000000 0.7412 0.7412 0.7412 0.7412 0.7412
2224.000000 0.7412 0.7413 0.7413 0.7413 0.7413
2229.000000 0.7413 0.7413 0.7414 0.7414 0.7414
2234.000000 0.7414 0.7414 0.7414 0.7415 0.7415
2239.000000 0.7415 0.7415 0.7416 0.7416 0.7417
2244.000000 0.7417 0.7417 0.7417 0.7418 0.7418
2249.000000 0.7418 0.7418 0.7419 0.7419 0.7419
2254.000000 0.7419 0.7420 0.7420 0.7420 0.7420
2259.000000 0.7419 0.7419 0.7418 0.7418 0.7417
2264.000000 0.7417 0.7416 0.7415 0.7414 0.7414
2269.000000 0.7413 0.7412 0.7410 0.7405 0.7400
2274.000000 0.7396 0.7392 0.7387 0.7383 0.7378
2279.000000 0.7373 0.7369 0.7365 0.7357 0.7350
2284.000000 0.7340 0.7330 0.7319 0.7308 0.7297
2289.000000 0.7286 0.7276 0.7265 0.7257 0.7253
2294.000000 0.7249 0.7246 0.7244 0.7241 0.7239
2299.000000 0.7236 0.7273 0.7231 0.7229 0.7226
2304.000000 0.7224 0.7221 0.7218 0.7216 0.7213
2309.000000 0.7211 0.7208 0.7206 0.7204 0.7203
2314.000000 0.7201 0.7199 0.7197 0.7195 0.7194
2319.000000 0.7193 0.7191 0.7189 0.7187 0.7185
2324.000000 0.7184 0.7182 0.7181 0.7179 0.7177
2329.000000 0.7175 0.7173 0.7172 0.7171 0.7169
2334.000000 0.7167 0.7165 0.7164 0.7164 0.7164
2339.000000 0.7163 0.7163 0.7163 0.7163 0.7163
2344.000000 0.7162 0.7162 0.7162 0.7162 0.7161
2349.000000 0.7161 0.7161 0.7161 0.7160 0.7160
2354.000000 0.7160 0.7160 0.7160 0.7159 0.7159
2359.000000 0.7159 0.7159 0.7158 0.7158 0.7158
2364.000000 0.7158 0.7158 0.7157 0.7157 0.7157
2369.000000 0.7157 0.7157 0.7157 0.7157 0.7157
2374.000000 0.7157 0.7158 0.7158 0.7159 0.7159
2379.000000 0.7160 0.7160 0.7161 0.7161 0.7161
2384.000000 0.7162 0.7162 0.7163 0.7164 0.7165
2389.000000 0.7165 0.7165 0.7166 0.7166 0.7167
2394.000000 0.7167 0.7168 0.7168 0.7169 0.7169
2399.000000 0.7169 0.7170 0.7170 0.7171 0.7171
2404.000000 0.7172 0.7172 0.7172 0.7173 0.7173
2409.000000 0.7174 0.7174 0.7174 0.7174 0.7174
2414.000000 0.7175 0.7175 0.7176 0.7176 0.7176
2419.000000 0.7176 0.7176 0.7177 0.7177 0.7177
2424.000000 0.7177 0.7178 0.7178 0.7178 0.7178
2429.000000 0.7178 0.7179 0.7179 0.7180 0.7180
2434.000000 0.7180 0.7180 0.7180 0.7181 0.7181
2439.000000 0.7181 0.7181 0.7181 0.7182 0.7182
2444.000000 0.7182 0.7182 0.7182 0.7183 0.7183
2449.000000 0.7182 0.7182 0.7181 0.7181 0.7180
2454.000000 0.7179 0.7179 0.7178 0.7178 0.7178
2459.000000 0.7191 0.7176 0.7175 0.7175 0.7175
2464.000000 0.7174 0.7173 0.7172 0.7172 0.7171
2469.000000 0.7171 0.7170 0.7169 0.7169 0.7168
2474.000000 0.7168 0.7167 0.7166 0.7166 0.7165
2479.000000 0.7163 0.7161 0.7157 0.7153 0.7149
2484.000000 0.7145 0.7141 0.7137 0.7134 0.7130
2489.000000 0.7126 0.7122 0.7118 0.7114 0.7111
2494.000000 0.7107 0.7103 0.7099 0.7095 0.7090
2499.000000 0.7085 0.7081 0.7076 0.7072 0.7067
2504.000000 0.7062 0.7058 0.7053 0.7048 0.7043
2509.000000 0.7038 0.7034 0.7029 0.7023 0.7018
2514.000000 0.7011 0.7005 0.6998 0.6992 0.6985
2519.000000 0.6979 0.6973 0.6966 0.6959 0.6953
2524.000000 0.6946 0.6940 0.6934 0.6927 0.6920
2529.000000 0.6914 0.6907 0.6900 0.6892 0.6884
2534.000000 0.6876 0.6868 0.6861 0.6853 0.6845
2539.000000 0.6837 0.6830 0.6822 0.6814 0.6806
2544.000000 0.6799 0.6791 0.6783 0.6775 0.6767
2549.000000 0.6759 0.6751 0.6744 0.6735 0.6727
2554.000000 0.6718 0.6710 0.6701 0.6693 0.6685
2559.000000 0.6676 0.6668 0.6659 0.6651 0.6643
2564.000000 0.6634 0.6626 0.6618 0.6609 0.6601
2569.000000 0.6593 0.6584 0.6576 0.6568 0.6559
2574.000000 0.6551 0.6543 0.6534 0.6526 0.6518
2579.000000 0.6510 0.6501 0.6493 0.6486 0.6478
2584.000000 0.6470 0.6463 0.6455 0.6448 0.6440
2589.000000 0.6433 0.6426 0.6418 0.6411 0.6403
2594.000000 0.6396 0.6388 0.6381 0.6373 0.6366
2599.000000 0.6359 0.6351 0.6343 0.6335 0.6328
2604.000000 0.6321 0.6313 0.6306 0.6299 0.6293
2609.000000 0.6287 0.6281 0.6276 0.6271 0.6266
2614.000000 0.6261 0.6256 0.6250 0.6245 0.6239
2619.000000 0.6234 0.6229 0.6224 0.6219 0.6214
2624.000000 0.6209 0.6204 0.6199 0.6193 0.6188
2629.000000 0.6183 0.6177 0.6172 0.6167 0.6162
2634.000000 0.6157 0.6152 0.6147 0.6142 0.6157
2639.000000 0.6135 0.6131 0.6129 0.6127 0.6125
2644.000000 0.6122 0.6120 0.6117 0.6115 0.6113
2649.000000 0.6111 0.6109 0.6107 0.6104 0.6102
2654.000000 0.6099 0.6097 0.6095 0.6093 0.6091
2659.000000 0.6089 0.6086 0.6084 0.6082 0.6079
2664.000000 0.6077 0.6075 0.6073 0.6071 0.6069
2669.000000 0.6067 0.6064 0.6062 0.6060 0.6057
2674.000000 0.6055 0.6054 0.6053 0.6052 0.6051
2679.000000 0.6050 0.6049 0.6048 0.6047 0.6046
2684.000000 0.6045 0.6045 0.6044 0.6043 0.6042
2689.000000 0.6041 0.6040 0.6039 0.6038 0.6036
2694.000000 0.6035 0.6034 0.6033 0.6032 0.6031
2699.000000 0.6030 0.6029 0.6028 0.6027 0.6026
2704.000000 0.6025 0.6024 0.6023 0.6022 0.6021
2709.000000 0.6020 0.6020 0.6019 0.6018 0.6017
2714.000000 0.6016 0.6015 0.6014 0.6013 0.6011
2719.000000 0.6010 0.6008 0.6006 0.6005 0.6003
2724.000000 0.6001 0.6000 0.5998 0.5996 0.5995
2729.000000 0.5993 0.5991 0.5990 0.5988 0.5986
2734.000000 0.5985 0.5983 0.5980 0.5977 0.5974
2739.000000 0.5969 0.5962 0.5956 0.5949 0.5941
2744.000000 0.5933 0.5920 0.5906 0.5891 0.5877
2749.000000 0.5862 0.5848 0.5833 0.5819 0.5805
2754.000000 0.5789 0.5774 0.5758 0.5742 0.5726
2759.000000 0.5710 0.5694 0.5678 0.5662 0.5645
2764.000000 0.5626 0.5607 0.5586 0.5563 0.5541
2769.000000 0.5518 0.5495 0.5473 0.5450 0.5427
2774.000000 0.5404 0.5380 0.5352 0.5323 0.5295
2779.000000 0.5266 0.5237 0.5209 0.5180 0.5152
2784.000000 0.5124 0.5096 0.5069 0.5042 0.5015
2789.000000 0.4988 0.4961 0.4933 0.4905 0.4877
2794.000000 0.4813 0.4734 0.4656 0.4553 0.4433
2799.000000 0.4314 0.4194 0.4074 0.3955 0.3835
2804.000000 0.3716 0.3596 0.3477 0.3358 0.3239
2809.000000 0.3120 0.3001 0.2883 0.2764 0.2646
2814.000000 0.2527 0.2409 0.2290 0.2172 0.2053
2819.000000 0.1935 0.1817 0.1700 0.1582 0.1464
2824.000000 0.1346 0.1235 0.1164 0.1093 0.1021
2829.000000 0.0997 0.0975 0.0953 0.0931 0.0908
2834.000000 0.0886 0.0851 0.0805 0.0760 0.0715
2839.000000 0.0673 0.0631 0.0588 0.0541 0.0493
2844.000000 0.0445 0.0401 0.0358 0.0314 0.0282
2849.000000 0.0257 0.0231 0.0206 0.0181 0.0156
2854.000000 0.0133 0.0123 0.0112 0.0102 0.0094
2859.000000 0.0086 0.0078 0.0073 0.0072 0.0070
2864.000000 0.0068 0.0066 0.0064 0.0062 0.0061
2869.000000 0.0059 0.0058 0.0056 0.0054 0.0053
2874.000000 0.0051 0.0049 0.0047 0.0045 0.0044
2879.000000 0.0044 0.0043 0.0043 0.0044 0.0045
2884.000000 0.0046 0.0047 0.0048 0.0049 0.0050
2889.000000 0.0050 0.0051 0.0052 0.0053 0.0053
2894.000000 0.0054 0.0055 0.0056 0.0057 0.0058
2899.000000 0.0058 0.0059 0.0061 0.0063 0.0064
2904.000000 0.0066 0.0068 0.0070 0.0072 0.0074
2909.000000 0.0076 0.0078 0.0080 0.0081 0.0083
2914.000000 0.0085 0.0087 0.0090 0.0092 0.0095
2919.000000 0.0098 0.0101 0.0104 0.0107 0.0110
2924.000000 0.0113 0.0115 0.0118 0.0121 0.0124
2929.000000 0.0127 0.0130 0.0133 0.0136 0.0139
2934.000000 0.0142 0.0145 0.0150 0.0154 0.0158
2939.000000 0.0162 0.0167 0.0172 0.0177 0.0181
2944.000000 0.0186 0.0191 0.0197 0.0202 0.0208
2949.000000 0.0214 0.0221 0.0228 0.0234 0.0241
2954.000000 0.0248 0.0255 0.0280 0.0307 0.0334
2959.000000 0.0394 0.0500 0.0606 0.0712 0.0819
2964.000000 0.0925 0.1031 0.1137 0.1243 0.1349
2969.000000 0.1455 0.1560 0.1666 0.1772 0.1877
2974.000000 0.1982 0.2087 0.2192 0.2337 0.2491
2979.000000 0.2644 0.2766 0.2798 0.2831 0.2863
2984.000000 0.2895 0.2928 0.2961 0.2994 0.3034
2989.000000 0.3074 0.3113 0.3153 0.3193 0.3232
2994.000000 0.3272 0.3383 0.3495 0.3606 0.3693
2999.000000 0.3741 0.3789 0.3837 0.3890 0.3945
3004.000000 0.4000 0.4052 0.4091 0.4130 0.4169
3009.000000 0.4195 0.4211 0.4227 0.4244 0.4260
3014.000000 0.4276 0.4292 0.4309 0.4325 0.4341
3019.000000 0.4357 0.4372 0.4385 0.4398 0.4412
3024.000000 0.4421 0.4430 0.4439 0.4448 0.4456
3029.000000 0.4465 0.4474 0.4483 0.4492 0.4501
3034.000000 0.4510 0.4518 0.4527 0.4536 0.4543
3039.000000 0.4549 0.4555 0.4560 0.4566 0.4572
3044.000000 0.4577 0.4583 0.4589 0.4594 0.4600
3049.000000 0.4606 0.4611 0.4617 0.4623 0.4628
3054.000000 0.4634 0.4640 0.4645 0.4651 0.4656
3059.000000 0.4662 0.4668 0.4674 0.4679 0.4685
3064.000000 0.4691 0.4697 0.4703 0.4709 0.4756
3069.000000 0.4841 0.4927 0.5013 0.5047 0.5063
3074.000000 0.5079 0.5095 0.5101 0.5106 0.5112
3079.000000 0.5118 0.5123 0.5129 0.5134 0.5140
3084.000000 0.5146 0.5151 0.5157 0.5163 0.5168
3089.000000 0.5174 0.5179 0.5182 0.5184 0.5186
3094.000000 0.5187 0.5189 0.5191 0.5192 0.5194
3099.000000 0.5195 0.5197 0.5198 0.5200 0.5201
3104.000000 0.5203 0.5205 0.5206 0.5208 0.5209
3109.000000 0.5211 0.5212 0.5214 0.5215 0.5217
3114.000000 0.5219 0.5220 0.5222 0.5223 0.5224
3119.000000 0.5225 0.5226 0.5227 0.5228 0.5228
3124.000000 0.5228 0.5229 0.5229 0.5229 0.5229
3129.000000 0.5230 0.5230 0.5230 0.5230 0.5231
3134.000000 0.5231 0.5231 0.5231 0.5232 0.5232
3139.000000 0.5233 0.5233 0.5234 0.5234 0.5234
3144.000000 0.5234 0.5235 0.5235 0.5235 0.5235
3149.000000 0.5236 0.5236 0.5236 0.5236 0.5237
3154.000000 0.5237 0.5237 0.5237 0.5237 0.5237
3159.000000 0.5237 0.5237 0.5236 0.5236 0.5236
3164.000000 0.5236 0.5235 0.5235 0.5234 0.5234
3169.000000 0.5233 0.5233 0.5232 0.5232 0.5231
3174.000000 0.5231 0.5231 0.5231 0.5231 0.5233
3179.000000 0.5235 0.5237 0.5239 0.5241 0.5244
3184.000000 0.5246 0.5248 0.5250 0.5252 0.5254
3189.000000 0.5256 0.5258 0.5260 0.5263 0.5265
3194.000000 0.5267 0.5269 0.5271 0.5274 0.5276
3199.000000 0.5278 0.5280 0.5282 0.5283 0.5284
3204.000000 0.5285 0.5286 0.5295 0.5286 0.5285
3209.000000 0.5285 0.5284 0.5284 0.5283 0.5283
3214.000000 0.5282 0.5282 0.5281 0.5281 0.5280
3219.000000 0.5280 0.5279 0.5279 0.5278 0.5278
3224.000000 0.5277 0.5276 0.5275 0.5275 0.5274
3229.000000 0.5274 0.5273 0.5272 0.5271 0.5269
3234.000000 0.5268 0.5266 0.5264 0.5261 0.5259
3239.000000 0.5257 0.5255 0.5253 0.5251 0.5249
3244.000000 0.5246 0.5244 0.5242 0.5240 0.5238
3249.000000 0.5236 0.5234 0.5231 0.5229 0.5227
3254.000000 0.5225 0.5223 0.5221 0.5219 0.5217
3259.000000 0.5214 0.5212 0.5211 0.5209 0.5207
3264.000000 0.5205 0.5203 0.5201 0.5199 0.5197
3269.000000 0.5196 0.5194 0.5192 0.5190 0.5188
3274.000000 0.5186 0.5184 0.5183 0.5181 0.5179
3279.000000 0.5177 0.5175 0.5173 0.5171 0.5169
3284.000000 0.5168 0.5166 0.5164 0.5162 0.5160
3289.000000 0.5158 0.5157 0.5155 0.5153 0.5152
3294.000000 0.5150 0.5149 0.5148 0.5147 0.5146
3299.000000 0.5144 0.5143 0.5142 0.5140 0.5139
3304.000000 0.5138 0.5137 0.5136 0.5134 0.5133
3309.000000 0.5132 0.5130 0.5129 0.5128 0.5127
3314.000000 0.5125 0.5124 0.5123 0.5122 0.5120
3319.000000 0.5119 0.5118 0.5116 0.5115 0.5114
3324.000000 0.5113 0.5112 0.5111 0.5110 0.5109
3329.000000 0.5108 0.5108 0.5108 0.5107 0.5107
3334.000000 0.5106 0.5105 0.5105 0.5104 0.5103
3339.000000 0.5103 0.5103 0.5102 0.5102 0.5101
3344.000000 0.5100 0.5100 0.5099 0.5098 0.5098
3349.000000 0.5097 0.5097 0.5097 0.5096 0.5095
3354.000000 0.5095 0.5094 0.5093 0.5093 0.5092
3359.000000 0.5091 0.5091 0.5090 0.5090 0.5089
3364.000000 0.5089 0.5088 0.5088 0.5087 0.5086
3369.000000 0.5086 0.5086 0.5086 0.5086 0.5086
3374.000000 0.5086 0.5086 0.5086 0.5086 0.5086
3379.000000 0.5087 0.5087 0.5087 0.5087 0.5088
3384.000000 0.5088 0.5088 0.5089 0.5089 0.5090
3389.000000 0.5090 0.5090 0.5090 0.5090 0.5091
3394.000000 0.5091 0.5091 0.5091 0.5092 0.5092
3399.000000 0.5092 0.5092 0.5092 0.5093 0.5093
3404.000000 0.5094 0.5094 0.5095 0.5095 0.5095
3409.000000 0.5095 0.5095 0.5096 0.5096 0.5096
3414.000000 0.5096 0.5096 0.5097 0.5097 0.5098
3419.000000 0.5098 0.5099 0.5100 0.5101 0.5102
3424.000000 0.5104 0.5081 0.5107 0.5108 0.5110
3429.000000 0.5112 0.5114 0.5116 0.5118 0.5119
3434.000000 0.5121 0.5123 0.5125 0.5127 0.5129
3439.000000 0.5131 0.5133 0.5134 0.5136 0.5138
3444.000000 0.5139 0.5141 0.5143 0.5145 0.5147
3449.000000 0.5149 0.5151 0.5153 0.5155 0.5156
3454.000000 0.5158 0.5160 0.5162 0.5164 0.5166
3459.000000 0.5167 0.5169 0.5171 0.5172 0.5176
3464.000000 0.5181 0.5187 0.5193 0.5198 0.5205
3469.000000 0.5213 0.5222 0.5230 0.5238 0.5246
3474.000000 0.5253 0.5261 0.5269 0.5277 0.5280
3479.000000 0.5283 0.5285 0.5288 0.5291 0.5293
3484.000000 0.5296 0.5299 0.5301 0.5304 0.5307
3489.000000 0.5310 0.5312 0.5315 0.5318 0.5320
3494.000000 0.5323 0.5325 0.5328 0.5331 0.5333
3499.000000 0.5336 0.5339 0.5341 0.5344 0.5346
3504.000000 0.5349 0.5351 0.5354 0.5355 0.5357
3509.000000 0.5358 0.5359 0.5360 0.5361 0.5363
3514.000000 0.5364 0.5365 0.5366 0.5368 0.5369
3519.000000 0.5370 0.5371 0.5372 0.5374 0.5375
3524.000000 0.5376 0.5377 0.5378 0.5380 0.5381
3529.000000 0.5382 0.5383 0.5384 0.5387 0.5389
3534.000000 0.5392 0.5394 0.5396 0.5400 0.5404
3539.000000 0.5408 0.5411 0.5415 0.5419 0.5423
3544.000000 0.5427 0.5430 0.5434 0.5438 0.5442
3549.000000 0.5445 0.5449 0.5453 0.5457 0.5461
3554.000000 0.5464 0.5468 0.5472 0.5476 0.5479
3559.000000 0.5483 0.5487 0.5491 0.5494 0.5497
3564.000000 0.5501 0.5504 0.5507 0.5510 0.5512
3569.000000 0.5514 0.5516 0.5518 0.5520 0.5522
3574.000000 0.5524 0.5525 0.5527 0.5529 0.5531
3579.000000 0.5533 0.5535 0.5537 0.5539 0.5541
3584.000000 0.5543 0.5545 0.5547 0.5549 0.5551
3589.000000 0.5553 0.5555 0.5557 0.5559 0.5561
3594.000000 0.5562 0.5564 0.5566 0.5568 0.5570
3599.000000 0.5572 0.5573 0.5575 0.5577 0.5579
3604.000000 0.5581 0.5583 0.5585 0.5587 0.5588
3609.000000 0.5588 0.5588 0.5588 0.5588 0.5589
3614.000000 0.5589 0.5589 0.5589 0.5589 0.5593
3619.000000 0.5589 0.5589 0.5589 0.5589 0.5589
3624.000000 0.5589 0.5589 0.5589 0.5589 0.5589
3629.000000 0.5589 0.5589 0.5589 0.5589 0.5589
3634.000000 0.5589 0.5589 0.5589 0.5589 0.5589
3639.000000 0.5589 0.5589 0.5589 0.5589 0.5589
3644.000000 0.5589 0.5589 0.5589 0.5589 0.5589
3649.000000 0.5589 0.5588 0.5587 0.5586 0.5585
3654.000000 0.5584 0.5582 0.5581 0.5579 0.5577
3659.000000 0.5576 0.5574 0.5572 0.5571 0.5569
3664.000000 0.5567 0.5566 0.5564 0.5562 0.5560
3669.000000 0.5558 0.5556 0.5555 0.5553 0.5551
3674.000000 0.5550 0.5548 0.5546 0.5545 0.5543
3679.000000 0.5541 0.5540 0.5538 0.5536 0.5534
3684.000000 0.5533 0.5531 0.5529 0.5527 0.5525
3689.000000 0.5524 0.5522 0.5520 0.5519 0.5517
3694.000000 0.5515 0.5514 0.5512 0.5511 0.5509
3699.000000 0.5507 0.5506 0.5504 0.5502 0.5501
3704.000000 0.5499 0.5498 0.5496 0.5495 0.5493
3709.000000 0.5492 0.5491 0.5490 0.5489 0.5488
3714.000000 0.5487 0.5486 0.5485 0.5484 0.5484
3719.000000 0.5483 0.5482 0.5481 0.5480 0.5479
3724.000000 0.5478 0.5477 0.5476 0.5475 0.5475
3729.000000 0.5474 0.5473 0.5472 0.5471 0.5470
3734.000000 0.5469 0.5468 0.5467 0.5466 0.5466
3739.000000 0.5465 0.5464 0.5463 0.5462 0.5461
3744.000000 0.5460 0.5459 0.5458 0.5458 0.5457
3749.000000 0.5456 0.5455 0.5454 0.5454 0.5453
3754.000000 0.5452 0.5451 0.5451 0.5450 0.5449
3759.000000 0.5448 0.5447 0.5446 0.5445 0.5444
3764.000000 0.5443 0.5443 0.5442 0.5441 0.5440
3769.000000 0.5439 0.5438 0.5437 0.5437 0.5436
3774.000000 0.5435 0.5435 0.5434 0.5433 0.5432
3779.000000 0.5431 0.5430 0.5430 0.5429 0.5427
3784.000000 0.5425 0.5423 0.5420 0.5418 0.5416
3789.000000 0.5413 0.5409 0.5406 0.5403 0.5400
3794.000000 0.5396 0.5393 0.5390 0.5387 0.5384
3799.000000 0.5381 0.5378 0.5375 0.5373 0.5370
3804.000000 0.5368 0.5365 0.5363 0.5361 0.5359
3809.000000 0.5357 0.5355 0.5353 0.5352 0.5350
3814.000000 0.5348 0.5346 0.5344 0.5342 0.5341
3819.000000 0.5340 0.5339 0.5337 0.5336 0.5335
3824.000000 0.5334 0.5332 0.5331 0.5330 0.5328
3829.000000 0.5327 0.5326 0.5325 0.5323 0.5322
3834.000000 0.5321 0.5320 0.5319 0.5317 0.5316
3839.000000 0.5315 0.5314 0.5313 0.5311 0.5310
3844.000000 0.5309 0.5308 0.5307 0.5305 0.5304
3849.000000 0.5302 0.5301 0.5299 0.5298 0.5296
3854.000000 0.5295 0.5293 0.5292 0.5290 0.5289
3859.000000 0.5287 0.5286 0.5285 0.5283 0.5282
3864.000000 0.5280 0.5279 0.5277 0.5276 0.5274
3869.000000 0.5273 0.5271 0.5270 0.5268 0.5267
3874.000000 0.5265 0.5264 0.5262 0.5261 0.5259
3879.000000 0.5258 0.5256 0.5255 0.5253 0.5252
3884.000000 0.5251 0.5250 0.5248 0.5247 0.5246
3889.000000 0.5244 0.5243 0.5241 0.5240 0.5238
3894.000000 0.5237 0.5235 0.5234 0.5233 0.5231
3899.000000 0.5230 0.5229 0.5227 0.5226 0.5225
3904.000000 0.5223 0.5222 0.5221 0.5220 0.5218
3909.000000 0.5217 0.5216 0.5214 0.5213 0.5212
3914.000000 0.5210 0.5209 0.5208 0.5206 0.5205
3919.000000 0.5204 0.5203 0.5202 0.5201 0.5199
3924.000000 0.5198 0.5197 0.5196 0.5194 0.5193
3929.000000 0.5192 0.5191 0.5189 0.5188 0.5187
3934.000000 0.5185 0.5184 0.5183 0.5182 0.5180
3939.000000 0.5179 0.5178 0.5176 0.5175 0.5174
3944.000000 0.5172 0.5171 0.5170 0.5169 0.5167
3949.000000 0.5166 0.5165 0.5164 0.5163 0.5162
3954.000000 0.5160 0.5159 0.5158 0.5157 0.5156
3959.000000 0.5155 0.5154 0.5153 0.5151 0.5150
3964.000000 0.5149 0.5148 0.5147 0.5146 0.5145
3969.000000 0.5144 0.5143 0.5141 0.5140 0.5139
3974.000000 0.5138 0.5137 0.5136 0.5135 0.5134
3979.000000 0.5133 0.5131 0.5130 0.5129 0.5128
3984.000000 0.5127 0.5125 0.5124 0.5123 0.5122
3989.000000 0.5121 0.5119 0.5118 0.5117 0.5116
3994.000000 0.5116 0.5116 0.5116 0.5116 0.5116
3999.000000 0.5116 0.5116
##END=
