##TITLE=BENZOIC ACID, P-ACETOXY
##JCAMP-DX=4.24
##DATA TYPE=INFRARED SPECTRUM
##CLASS=COBLENTZ
##ORIGIN=TENNESSEE EASTMAN COMPANY, RESEARCH LABORATORIES
##OWNER=COBLENTZ SOCIETY
Collection (C) 2018 copyright by the U.S. Secretary of Commerce
on behalf of the United States of America. All rights reserved.
##DATE=Not specified, most likely prior to 1970
##NAMES=3-(acetyloxy)benzoic acid
##MOLFORM=C9 H8 O4
##MP=188-189 C
##SOURCE REFERENCE=COBLENTZ NO. 1080
##$NIST ID=B6001080
##$NIST SOURCE=COBLENTZ
##$NIST IMAGE=cob1080
##SPECTROMETER/DATA SYSTEM=Not specified, most likely a prism, grating, or hybrid spectrometer.
##STATE=SOLID (KBr PELLET)
##SAMPLING PROCEDURE=TRANSMISSION
##RESOLUTION=4
##DATA PROCESSING=DIGITIZED BY NIST FROM HARD COPY
##XUNITS=MICROMETERS
##YUNITS=TRANSMITTANCE
##XFACTOR=1.000000
##YFACTOR=1
##DELTAX=000.006673
##FIRSTX=2
##LASTX=15.9871
##FIRSTY=0.985
##MAXX=15.9871
##MINX=2
##MAXY=0.996
##MINY=0.115
##NPOINTS=2097
##XYDATA=(X++(Y..Y))
2.000000 0.9850 0.9850 0.9850 0.9850 0.9850
2.033381 0.9850 0.9850 0.9850 0.9850 0.9850
2.067000 0.9850 0.9850 0.9850 0.9850 0.9850
2.100381 0.9830 0.9830 0.9830 0.9810 0.9810
2.133000 0.9810 0.9810 0.9810 0.9810 0.9810
2.166381 0.9810 0.9810 0.9830 0.9830 0.9830
2.200000 0.9830 0.9830 0.9830 0.9830 0.9830
2.233381 0.9830 0.9830 0.9830 0.9830 0.9830
2.267000 0.9830 0.9830 0.9830 0.9810 0.9810
2.300381 0.9810 0.9810 0.9810 0.9810 0.9810
2.334000 0.9810 0.9810 0.9810 0.9810 0.9810
2.367381 0.9830 0.9830 0.9810 0.9810 0.9810
2.400000 0.9810 0.9830 0.9810 0.9810 0.9810
2.433381 0.9810 0.9830 0.9810 0.9810 0.9810
2.467000 0.9810 0.9830 0.9810 0.9810 0.9810
2.500381 0.9810 0.9810 0.9810 0.9810 0.9810
2.534000 0.9810 0.9830 0.9810 0.9810 0.9810
2.567381 0.9810 0.9810 0.9800 0.9800 0.9780
2.601000 0.9780 0.9780 0.9780 0.9780 0.9780
2.634381 0.9780 0.9780 0.9780 0.9780 0.9780
2.667000 0.9780 0.9780 0.9760 0.9760 0.9750
2.700381 0.9750 0.9730 0.9680 0.9660 0.9650
2.734000 0.9600 0.9530 0.9500 0.9460 0.9430
2.767381 0.9380 0.9310 0.9260 0.9230 0.9210
2.801000 0.9200 0.9160 0.9130 0.9130 0.9060
2.834381 0.9030 0.9000 0.8950 0.8900 0.8830
2.867000 0.8800 0.8780 0.8780 0.8760 0.8760
2.900381 0.8730 0.8730 0.8730 0.8730 0.8750
2.934000 0.8760 0.8780 0.8800 0.8810 0.8850
2.967381 0.8880 0.8900 0.8910 0.8910 0.8910
3.001000 0.8910 0.8910 0.8910 0.8910 0.8910
3.034381 0.8900 0.8900 0.8860 0.8850 0.8830
3.068000 0.8810 0.8750 0.8700 0.8650 0.8600
3.101381 0.8560 0.8510 0.8450 0.8350 0.8260
3.134000 0.8230 0.8180 0.8110 0.8010 0.8000
3.167381 0.7960 0.7850 0.7730 0.7630 0.7530
3.201000 0.7460 0.7380 0.7230 0.7160 0.7050
3.234381 0.6930 0.6850 0.6830 0.6830 0.6850
3.268000 0.6850 0.6850 0.6830 0.6800 0.6750
3.301381 0.6650 0.6560 0.6550 0.6550 0.6550
3.335000 0.6560 0.6560 0.6560 0.6580 0.6630
3.368381 0.6680 0.6710 0.6710 0.6710 0.6730
3.401000 0.6730 0.6750 0.6760 0.6760 0.6760
3.434381 0.6760 0.6760 0.6780 0.6780 0.6800
3.468000 0.6800 0.6810 0.6810 0.6810 0.6810
3.501381 0.6810 0.6830 0.6860 0.6880 0.6950
3.535000 0.7010 0.7150 0.7230 0.7330 0.7400
3.568381 0.7480 0.7530 0.7610 0.7630 0.7630
3.602000 0.7650 0.7660 0.7680 0.7700 0.7710
3.635381 0.7710 0.7700 0.7700 0.7660 0.7610
3.668000 0.7610 0.7610 0.7610 0.7600 0.7580
3.701381 0.7530 0.7410 0.7310 0.7230 0.7150
3.735000 0.7050 0.7050 0.7050 0.7050 0.7080
3.768381 0.7150 0.7250 0.7280 0.7330 0.7380
3.802000 0.7410 0.7460 0.7480 0.7500 0.7510
3.835381 0.7550 0.7560 0.7560 0.7550 0.7480
3.868000 0.7480 0.7480 0.7480 0.7460 0.7450
3.901381 0.7360 0.7280 0.7200 0.7200 0.7200
3.935000 0.7200 0.7260 0.7380 0.7460 0.7530
3.968381 0.7560 0.7600 0.7710 0.7810 0.7900
4.002000 0.7980 0.8050 0.8150 0.8160 0.8210
4.035381 0.8250 0.8280 0.8310 0.8380 0.8410
4.069000 0.8450 0.8500 0.8510 0.8550 0.8550
4.102381 0.8560 0.8580 0.8610 0.8630 0.8650
4.135000 0.8660 0.8680 0.8700 0.8710 0.8710
4.168381 0.8730 0.8750 0.8760 0.8780 0.8830
4.202000 0.8880 0.8900 0.8900 0.8900 0.8900
4.235381 0.8900 0.8910 0.8910 0.8910 0.8910
4.269000 0.8910 0.8910 0.8910 0.8930 0.8950
4.302381 0.9000 0.9050 0.9100 0.9160 0.9210
4.336000 0.9260 0.9300 0.9310 0.9310 0.9310
4.369381 0.9310 0.9330 0.9330 0.9330 0.9350
4.402000 0.9360 0.9380 0.9380 0.9400 0.9400
4.435381 0.9400 0.9400 0.9410 0.9430 0.9430
4.469000 0.9430 0.9450 0.9450 0.9460 0.9460
4.502381 0.9480 0.9480 0.9480 0.9480 0.9480
4.536000 0.9480 0.9480 0.9480 0.9480 0.9480
4.569381 0.9480 0.9480 0.9480 0.9500 0.9500
4.602000 0.9510 0.9510 0.9510 0.9510 0.9510
4.635381 0.9510 0.9510 0.9510 0.9500 0.9480
4.669000 0.9480 0.9480 0.9480 0.9500 0.9500
4.702381 0.9500 0.9500 0.9500 0.9500 0.9510
4.736000 0.9530 0.9530 0.9510 0.9500 0.9480
4.769381 0.9460 0.9460 0.9500 0.9510 0.9510
4.803000 0.9510 0.9510 0.9510 0.9510 0.9510
4.836381 0.9510 0.9510 0.9510 0.9500 0.9500
4.869000 0.9460 0.9460 0.9460 0.9450 0.9450
4.902381 0.9460 0.9480 0.9500 0.9500 0.9500
4.936000 0.9500 0.9510 0.9510 0.9510 0.9550
4.969381 0.9560 0.9560 0.9580 0.9580 0.9600
5.003000 0.9600 0.9580 0.9560 0.9550 0.9550
5.036381 0.9530 0.9530 0.9550 0.9530 0.9530
5.070000 0.9530 0.9500 0.9500 0.9480 0.9450
5.103381 0.9410 0.9400 0.9380 0.9360 0.9330
5.136000 0.9280 0.9280 0.9260 0.9260 0.9260
5.169381 0.9280 0.9330 0.9350 0.9360 0.9360
5.203000 0.9380 0.9380 0.9380 0.9380 0.9380
5.236381 0.9380 0.9360 0.9350 0.9350 0.9350
5.270000 0.9330 0.9330 0.9330 0.9330 0.9330
5.303381 0.9330 0.9330 0.9330 0.9330 0.9330
5.337000 0.9310 0.9310 0.9310 0.9310 0.9300
5.370381 0.9280 0.9260 0.9210 0.9160 0.9130
5.403000 0.9050 0.9010 0.8950 0.8950 0.8910
5.436381 0.8910 0.8910 0.8910 0.8910 0.8910
5.470000 0.8910 0.8910 0.8900 0.8860 0.8810
5.503381 0.8710 0.8660 0.8580 0.8500 0.8380
5.537000 0.8260 0.8160 0.8110 0.8010 0.8000
5.570381 0.7910 0.7800 0.7610 0.7530 0.7450
5.603000 0.7360 0.7160 0.7010 0.6550 0.5960
5.636381 0.5280 0.4060 0.3210 0.2430 0.1430
5.670000 0.1300 0.1460 0.2460 0.3810 0.4600
5.703381 0.5430 0.6460 0.7160 0.7310 0.7350
5.737000 0.7410 0.7550 0.7650 0.7680 0.7650
5.770381 0.7510 0.7430 0.7310 0.7130 0.6780
5.804000 0.6410 0.5780 0.5280 0.4850 0.4560
5.837381 0.4130 0.3530 0.3100 0.2750 0.2330
5.870000 0.2260 0.2130 0.1980 0.1850 0.1710
5.903381 0.1630 0.1560 0.1550 0.1560 0.1750
5.937000 0.2250 0.2710 0.3160 0.3750 0.4230
5.970381 0.4700 0.5160 0.5680 0.6260 0.6780
6.004000 0.7080 0.7100 0.7210 0.7350 0.7450
6.037381 0.7560 0.7700 0.7880 0.8000 0.8130
6.071000 0.8200 0.8260 0.8280 0.8300 0.8310
6.104381 0.8380 0.8480 0.8550 0.8560 0.8580
6.137000 0.8580 0.8550 0.8530 0.8460 0.8410
6.170381 0.8330 0.8060 0.7600 0.6900 0.5650
6.204000 0.4380 0.4160 0.4330 0.4980 0.5750
6.237381 0.6260 0.6630 0.7200 0.7650 0.7960
6.271000 0.8210 0.8500 0.8650 0.8730 0.8780
6.304381 0.8860 0.8910 0.9000 0.9050 0.9130
6.337000 0.9150 0.9160 0.9180 0.9180 0.9160
6.370381 0.9150 0.9100 0.9100 0.9100 0.9100
6.404000 0.9110 0.9130 0.9130 0.9130 0.9110
6.437381 0.9080 0.9010 0.9000 0.8980 0.9000
6.471000 0.9030 0.9060 0.9080 0.9080 0.9080
6.504381 0.9060 0.9050 0.9030 0.9010 0.9000
6.538000 0.8960 0.8900 0.8750 0.8550 0.8260
6.571381 0.8010 0.7830 0.7810 0.7830 0.8230
6.604000 0.8450 0.8600 0.8630 0.8700 0.8810
6.637381 0.9000 0.9060 0.9100 0.9130 0.9130
6.671000 0.9160 0.9210 0.9280 0.9330 0.9350
6.704381 0.9360 0.9360 0.9350 0.9310 0.9280
6.738000 0.9260 0.9250 0.9230 0.9230 0.9230
6.771381 0.9210 0.9150 0.9030 0.8930 0.8800
6.805000 0.8750 0.8700 0.8610 0.8600 0.8600
6.838381 0.8580 0.8560 0.8480 0.8330 0.8100
6.871000 0.8030 0.7950 0.7680 0.7360 0.7130
6.904381 0.6760 0.6180 0.5730 0.4750 0.4330
6.938000 0.4080 0.3930 0.3760 0.3760 0.3810
6.971381 0.4110 0.4500 0.4900 0.5310 0.5730
7.005000 0.6160 0.6580 0.6930 0.7050 0.7150
7.038381 0.7230 0.7430 0.7560 0.7700 0.7830
7.071000 0.7910 0.8030 0.8130 0.8180 0.8210
7.104381 0.8230 0.8250 0.8260 0.8280 0.8280
7.138000 0.8300 0.8310 0.8300 0.8280 0.8200
7.171381 0.8060 0.7980 0.7810 0.7680 0.7460
7.205000 0.7060 0.6760 0.6530 0.6280 0.5960
7.238381 0.5700 0.5410 0.5300 0.5260 0.5280
7.272000 0.5410 0.5700 0.6050 0.6300 0.6600
7.305381 0.6930 0.7230 0.7430 0.7780 0.8060
7.338000 0.8260 0.8360 0.8410 0.8500 0.8560
7.371381 0.8580 0.8600 0.8610 0.8610 0.8610
7.405000 0.8600 0.8510 0.8430 0.8350 0.8260
7.438381 0.8130 0.8030 0.8010 0.7980 0.7850
7.472000 0.7750 0.7630 0.7530 0.7380 0.7200
7.505381 0.7000 0.6750 0.6450 0.6080 0.5660
7.539000 0.5210 0.4850 0.4480 0.4160 0.4010
7.572381 0.4010 0.4050 0.4350 0.4730 0.5200
7.605000 0.5580 0.5910 0.6110 0.6400 0.6450
7.638381 0.6430 0.6250 0.5950 0.5580 0.5030
7.672000 0.4460 0.4050 0.3630 0.3350 0.3130
7.705381 0.3010 0.2980 0.2960 0.2980 0.3030
7.739000 0.3260 0.3610 0.3930 0.4250 0.4630
7.772381 0.4960 0.5300 0.5600 0.5930 0.6330
7.806000 0.6610 0.6900 0.7160 0.7300 0.7450
7.839381 0.7650 0.7780 0.7880 0.7950 0.8010
7.872000 0.8060 0.8100 0.8100 0.8080 0.8050
7.905381 0.8030 0.8010 0.8000 0.7950 0.7900
7.939000 0.7880 0.7860 0.7830 0.7800 0.7780
7.972381 0.7760 0.7710 0.7660 0.7600 0.7530
8.006000 0.7430 0.7350 0.7230 0.7050 0.6900
8.039381 0.6710 0.6430 0.6050 0.5750 0.5310
8.072000 0.4680 0.4250 0.3630 0.3130 0.2830
8.105381 0.2380 0.2180 0.1980 0.1750 0.1550
8.139000 0.1410 0.1310 0.1200 0.1180 0.1180
8.172381 0.1200 0.1330 0.1650 0.1960 0.2230
8.206000 0.2410 0.2550 0.2580 0.2560 0.2450
8.239381 0.2100 0.1830 0.1630 0.1430 0.1310
8.273000 0.1260 0.1230 0.1200 0.1150 0.1160
8.306381 0.1250 0.1400 0.1580 0.1950 0.2300
8.339000 0.2650 0.3100 0.3560 0.3980 0.4260
8.372381 0.4660 0.4880 0.5160 0.5410 0.5610
8.406000 0.5850 0.6050 0.6250 0.6410 0.6480
8.439381 0.6580 0.6630 0.6660 0.6660 0.6500
8.473000 0.6100 0.5630 0.5000 0.4260 0.3600
8.506381 0.3150 0.2760 0.2700 0.2660 0.2700
8.540000 0.3550 0.4030 0.4580 0.5130 0.5510
8.573381 0.5980 0.6350 0.6650 0.6880 0.7060
8.606000 0.7200 0.7360 0.7510 0.7580 0.7680
8.639381 0.7780 0.7850 0.7980 0.8030 0.8060
8.673000 0.8130 0.8160 0.8210 0.8260 0.8300
8.706381 0.8350 0.8400 0.8410 0.8430 0.8430
8.740000 0.8430 0.8410 0.8400 0.8330 0.8130
8.773381 0.7980 0.7680 0.7350 0.7000 0.6710
8.806000 0.6550 0.6530 0.6560 0.6830 0.7100
8.839381 0.7450 0.7760 0.8010 0.8180 0.8260
8.873000 0.8330 0.8350 0.8360 0.8400 0.8410
8.906381 0.8430 0.8430 0.8450 0.8450 0.8450
8.940000 0.8450 0.8450 0.8450 0.8430 0.8350
8.973381 0.8180 0.8030 0.7900 0.7710 0.7480
9.007000 0.7330 0.7260 0.7260 0.7300 0.7630
9.040381 0.7850 0.8080 0.8280 0.8410 0.8500
9.073000 0.8560 0.8610 0.8650 0.8700 0.8710
9.106381 0.8730 0.8750 0.8750 0.8760 0.8760
9.140000 0.8760 0.8760 0.8760 0.8760 0.8760
9.173381 0.8760 0.8760 0.8760 0.8760 0.8760
9.207000 0.8760 0.8760 0.8760 0.8760 0.8760
9.240381 0.8760 0.8780 0.8780 0.8780 0.8780
9.274000 0.8780 0.8780 0.8780 0.8780 0.8780
9.307381 0.8800 0.8800 0.8800 0.8800 0.8800
9.340000 0.8800 0.8800 0.8800 0.8800 0.8800
9.373381 0.8800 0.8800 0.8800 0.8810 0.8810
9.407000 0.8800 0.8780 0.8760 0.8750 0.8730
9.440381 0.8710 0.8680 0.8650 0.8600 0.8500
9.474000 0.8450 0.8430 0.8410 0.8410 0.8410
9.507381 0.8410 0.8400 0.8380 0.8380 0.8380
9.541000 0.8380 0.8400 0.8400 0.8430 0.8450
9.574381 0.8460 0.8480 0.8500 0.8500 0.8500
9.607000 0.8500 0.8500 0.8500 0.8500 0.8500
9.640381 0.8500 0.8480 0.8430 0.8350 0.8310
9.674000 0.8230 0.8110 0.8010 0.7950 0.7800
9.707381 0.7630 0.7410 0.7200 0.6900 0.6660
9.741000 0.6360 0.6030 0.5780 0.5600 0.5460
9.774381 0.5380 0.5360 0.5380 0.5650 0.5980
9.807000 0.6360 0.6630 0.6850 0.7000 0.7150
9.840381 0.7310 0.7410 0.7530 0.7710 0.7860
9.874000 0.8000 0.8050 0.8130 0.8180 0.8210
9.907381 0.8260 0.8350 0.8410 0.8460 0.8500
9.941000 0.8510 0.8510 0.8530 0.8550 0.8580
9.974381 0.8610 0.8630 0.8660 0.8700 0.8710
10.008000 0.8730 0.8750 0.8750 0.8750 0.8750
10.041381 0.8760 0.8760 0.8780 0.8780 0.8800
10.074000 0.8810 0.8830 0.8850 0.8860 0.8860
10.107381 0.8860 0.8860 0.8860 0.8860 0.8860
10.141000 0.8880 0.8880 0.8880 0.8880 0.8860
10.174381 0.8860 0.8850 0.8850 0.8850 0.8860
10.208000 0.8860 0.8860 0.8880 0.8880 0.8880
10.241381 0.8880 0.8880 0.8880 0.8880 0.8880
10.275000 0.8860 0.8850 0.8810 0.8800 0.8780
10.308381 0.8700 0.8610 0.8550 0.8510 0.8460
10.341000 0.8360 0.8310 0.8300 0.8300 0.8300
10.374381 0.8300 0.8300 0.8360 0.8400 0.8430
10.408000 0.8450 0.8450 0.8450 0.8450 0.8430
10.441381 0.8400 0.8380 0.8360 0.8350 0.8330
10.475000 0.8260 0.8230 0.8160 0.8110 0.8080
10.508381 0.8060 0.8030 0.8000 0.7950 0.7880
10.541000 0.7830 0.7750 0.7700 0.7650 0.7630
10.574381 0.7610 0.7550 0.7510 0.7450 0.7350
10.608000 0.7330 0.7300 0.7250 0.7180 0.7130
10.641381 0.7050 0.7000 0.6950 0.6900 0.6900
10.675000 0.6860 0.6830 0.6830 0.6780 0.6760
10.708381 0.6730 0.6700 0.6680 0.6650 0.6610
10.742000 0.6580 0.6510 0.6460 0.6410 0.6350
10.775381 0.6250 0.6050 0.5980 0.5710 0.5410
10.808000 0.5130 0.4880 0.4630 0.4430 0.4300
10.841381 0.4210 0.4200 0.4210 0.4400 0.4680
10.875000 0.5000 0.5260 0.5550 0.5800 0.6080
10.908381 0.6350 0.6630 0.6760 0.6950 0.7050
10.942000 0.7200 0.7350 0.7500 0.7630 0.7730
10.975381 0.7800 0.7850 0.7960 0.8030 0.8110
11.009000 0.8180 0.8230 0.8250 0.8300 0.8350
11.042381 0.8400 0.8430 0.8460 0.8500 0.8510
11.075000 0.8530 0.8550 0.8610 0.8610 0.8650
11.108381 0.8680 0.8710 0.8750 0.8760 0.8780
11.142000 0.8800 0.8800 0.8810 0.8850 0.8860
11.175381 0.8880 0.8900 0.8930 0.8950 0.8980
11.209000 0.9000 0.9010 0.9010 0.9000 0.9010
11.242381 0.9010 0.9010 0.9010 0.9030 0.9030
11.276000 0.9030 0.9030 0.9030 0.9050 0.9050
11.309381 0.9050 0.9050 0.9050 0.9050 0.9050
11.342000 0.9050 0.9050 0.9060 0.9060 0.9060
11.375381 0.9060 0.9060 0.9030 0.9030 0.9010
11.409000 0.8980 0.8930 0.8880 0.8730 0.8600
11.442381 0.8480 0.8300 0.8010 0.7760 0.7410
11.476000 0.7050 0.6630 0.6400 0.6210 0.6100
11.509381 0.6050 0.6030 0.6060 0.6200 0.6500
11.542000 0.6760 0.7010 0.7210 0.7410 0.7610
11.575381 0.7780 0.7930 0.8080 0.8230 0.8350
11.609000 0.8410 0.8480 0.8550 0.8560 0.8610
11.642381 0.8650 0.8700 0.8710 0.8780 0.8810
11.676000 0.8830 0.8830 0.8830 0.8850 0.8860
11.709381 0.8880 0.8900 0.8910 0.8930 0.8950
11.743000 0.8960 0.8980 0.9000 0.9010 0.9010
11.776381 0.9010 0.9010 0.9010 0.9010 0.9010
11.809000 0.9010 0.9010 0.9010 0.9010 0.9000
11.842381 0.8960 0.8950 0.8950 0.8950 0.8930
11.876000 0.8910 0.8900 0.8880 0.8860 0.8860
11.909381 0.8860 0.8860 0.8860 0.8860 0.8880
11.943000 0.8880 0.8880 0.8880 0.8900 0.8900
11.976381 0.8900 0.8900 0.8900 0.8910 0.8910
12.010000 0.8910 0.8910 0.8910 0.8900 0.8880
12.043381 0.8880 0.8880 0.8860 0.8860 0.8860
12.076000 0.8850 0.8850 0.8850 0.8850 0.8850
12.109381 0.8850 0.8860 0.8880 0.8900 0.8930
12.143000 0.8960 0.9030 0.9050 0.9110 0.9130
12.176381 0.9150 0.9160 0.9200 0.9250 0.9260
12.210000 0.9300 0.9330 0.9350 0.9380 0.9410
12.243381 0.9430 0.9480 0.9510 0.9510 0.9530
12.276000 0.9530 0.9530 0.9550 0.9560 0.9600
12.309381 0.9600 0.9610 0.9610 0.9630 0.9630
12.343000 0.9630 0.9630 0.9630 0.9650 0.9650
12.376381 0.9660 0.9660 0.9660 0.9680 0.9680
12.410000 0.9680 0.9680 0.9680 0.9680 0.9680
12.443381 0.9660 0.9660 0.9660 0.9650 0.9630
12.477000 0.9610 0.9580 0.9550 0.9510 0.9430
12.510381 0.9410 0.9310 0.9250 0.9160 0.9050
12.543000 0.8980 0.8910 0.8880 0.8860 0.8850
12.576381 0.8830 0.8830 0.8830 0.8930 0.9060
12.610000 0.9150 0.9200 0.9260 0.9330 0.9380
12.643381 0.9410 0.9460 0.9530 0.9550 0.9560
12.677000 0.9560 0.9560 0.9580 0.9580 0.9600
12.710381 0.9600 0.9610 0.9630 0.9630 0.9650
12.744000 0.9660 0.9680 0.9700 0.9700 0.9710
12.777381 0.9710 0.9710 0.9710 0.9710 0.9710
12.810000 0.9710 0.9710 0.9710 0.9710 0.9730
12.843381 0.9730 0.9730 0.9730 0.9730 0.9730
12.877000 0.9730 0.9730 0.9730 0.9730 0.9730
12.910381 0.9730 0.9730 0.9730 0.9710 0.9710
12.944000 0.9710 0.9700 0.9680 0.9630 0.9580
12.977381 0.9530 0.9500 0.9480 0.9430 0.9350
13.010000 0.9250 0.9160 0.9030 0.8900 0.8800
13.043381 0.8560 0.8330 0.8100 0.7900 0.7680
13.077000 0.7480 0.7250 0.7010 0.6760 0.6650
13.110381 0.6510 0.6500 0.6500 0.6510 0.6910
13.144000 0.7180 0.7430 0.7680 0.7900 0.8130
13.177381 0.8330 0.8530 0.8700 0.8860 0.9000
13.211000 0.9130 0.9210 0.9310 0.9400 0.9450
13.244381 0.9500 0.9510 0.9530 0.9550 0.9560
13.277000 0.9600 0.9630 0.9660 0.9700 0.9730
13.310381 0.9750 0.9760 0.9780 0.9800 0.9810
13.344000 0.9830 0.9850 0.9860 0.9880 0.9900
13.377381 0.9900 0.9900 0.9910 0.9930 0.9930
13.411000 0.9930 0.9950 0.9950 0.9950 0.9950
13.444381 0.9950 0.9960 0.9960 0.9960 0.9960
13.478000 0.9960 0.9960 0.9960 0.9960 0.9960
13.511381 0.9950 0.9950 0.9950 0.9950 0.9950
13.544000 0.9950 0.9960 0.9950 0.9950 0.9950
13.577381 0.9950 0.9950 0.9950 0.9950 0.9950
13.611000 0.9950 0.9950 0.9950 0.9950 0.9950
13.644381 0.9950 0.9950 0.9950 0.9950 0.9950
13.678000 0.9950 0.9950 0.9950 0.9950 0.9950
13.711381 0.9950 0.9950 0.9950 0.9950 0.9950
13.745000 0.9950 0.9950 0.9950 0.9950 0.9950
13.778381 0.9950 0.9950 0.9950 0.9950 0.9950
13.811000 0.9950 0.9950 0.9950 0.9950 0.9950
13.844381 0.9950 0.9960 0.9950 0.9950 0.9950
13.878000 0.9950 0.9950 0.9950 0.9950 0.9950
13.911381 0.9950 0.9950 0.9930 0.9900 0.9880
13.945000 0.9880 0.9860 0.9850 0.9850 0.9830
13.978381 0.9800 0.9780 0.9750 0.9730 0.9700
14.011000 0.9660 0.9650 0.9610 0.9580 0.9550
14.044381 0.9510 0.9500 0.9450 0.9400 0.9330
14.078000 0.9260 0.9180 0.9060 0.9010 0.8930
14.111381 0.8780 0.8650 0.8500 0.8330 0.8180
14.145000 0.8030 0.7860 0.7710 0.7550 0.7380
14.178381 0.7230 0.7080 0.6980 0.6880 0.6830
14.212000 0.6800 0.6750 0.6750 0.6730 0.6750
14.245381 0.6750 0.6800 0.6900 0.7000 0.7110
14.278000 0.7230 0.7360 0.7500 0.7600 0.7660
14.311381 0.7760 0.7880 0.7980 0.8030 0.8080
14.345000 0.8160 0.8230 0.8280 0.8350 0.8410
14.378381 0.8460 0.8480 0.8500 0.8500 0.8510
14.412000 0.8550 0.8580 0.8600 0.8600 0.8600
14.445381 0.8600 0.8600 0.8600 0.8600 0.8600
14.479000 0.8600 0.8600 0.8600 0.8600 0.8600
14.512381 0.8600 0.8610 0.8610 0.8610 0.8610
14.545000 0.8610 0.8610 0.8630 0.8630 0.8630
14.578381 0.8630 0.8630 0.8630 0.8630 0.8630
14.612000 0.8630 0.8630 0.8630 0.8630 0.8630
14.645381 0.8610 0.8610 0.8580 0.8550 0.8530
14.679000 0.8530 0.8510 0.8510 0.8510 0.8500
14.712381 0.8480 0.8460 0.8450 0.8430 0.8400
14.745000 0.8350 0.8310 0.8300 0.8260 0.8230
14.778381 0.8180 0.8110 0.8050 0.8010 0.7960
14.812000 0.7880 0.7830 0.7760 0.7700 0.7660
14.845381 0.7610 0.7530 0.7450 0.7350 0.7250
14.879000 0.7160 0.7060 0.7000 0.6930 0.6880
14.912381 0.6860 0.6850 0.6850 0.6860 0.6900
14.946000 0.7000 0.7080 0.7150 0.7200 0.7230
14.979381 0.7280 0.7330 0.7360 0.7400 0.7410
15.012000 0.7450 0.7460 0.7480 0.7500 0.7510
15.045381 0.7510 0.7530 0.7530 0.7550 0.7550
15.079000 0.7560 0.7560 0.7560 0.7560 0.7560
15.112381 0.7560 0.7580 0.7580 0.7580 0.7580
15.146000 0.7580 0.7580 0.7580 0.7580 0.7580
15.179381 0.7600 0.7600 0.7600 0.7600 0.7600
15.213000 0.7600 0.7600 0.7600 0.7600 0.7610
15.246381 0.7610 0.7610 0.7610 0.7610 0.7610
15.279000 0.7610 0.7610 0.7610 0.7610 0.7610
15.312381 0.7610 0.7610 0.7610 0.7610 0.7610
15.346000 0.7610 0.7610 0.7610 0.7610 0.7610
15.379381 0.7630 0.7630 0.7630 0.7630 0.7630
15.413000 0.7630 0.7650 0.7650 0.7650 0.7650
15.446381 0.7650 0.7650 0.7650 0.7650 0.7650
15.480000 0.7660 0.7660 0.7660 0.7660 0.7660
15.513381 0.7680 0.7680 0.7680 0.7680 0.7680
15.546000 0.7680 0.7680 0.7680 0.7700 0.7700
15.579381 0.7700 0.7700 0.7710 0.7710 0.7710
15.613000 0.7730 0.7730 0.7730 0.7730 0.7730
15.646381 0.7730 0.7730 0.7750 0.7750 0.7750
15.680000 0.7750 0.7750 0.7750 0.7750 0.7760
15.713381 0.7760 0.7760 0.7760 0.7780 0.7780
15.746000 0.7780 0.7780 0.7800 0.7800 0.7800
15.779381 0.7800 0.7800 0.7800 0.7780 0.7780
15.813000 0.7780 0.7760 0.7760 0.7750 0.7730
15.846381 0.7730 0.7730 0.7730 0.7730 0.7710
15.880000 0.7710 0.7710 0.7700 0.7700 0.7700
15.913381 0.7680 0.7680 0.7660 0.7650 0.7630
15.947000 0.7630 0.7630 0.7610 0.7610 0.7610
15.980381 0.7610 0.7610
##END=
