##TITLE=ETHYL-2-(3-METHYLPYRAZINYL MERCAPTO) ACETATE
##JCAMP-DX=4.24
##DATA TYPE=INFRARED SPECTRUM
##CLASS=COBLENTZ
##ORIGIN=WYANDOTTE CHEMICALS CORP., WYANDOTTE, MICHIGAN, USA
##OWNER=COBLENTZ SOCIETY
Collection (C) 2018 copyright by the U.S. Secretary of Commerce
on behalf of the United States of America. All rights reserved.
##DATE=Not specified, most likely prior to 1970
##MOLFORM=C9 H12 N2 O2
##SOURCE REFERENCE=COBLENTZ NO. 2793
##$NIST ID=B6002793
##$NIST SOURCE=COBLENTZ
##$NIST IMAGE=cob2793
##SPECTROMETER/DATA SYSTEM=Not specified, most likely a prism, grating, or hybrid spectrometer.
##STATE=LIQUID
##PATH LENGTH=0.0015 CM
##SAMPLING PROCEDURE=TRANSMISSION
##RESOLUTION=4
##DATA PROCESSING=DIGITIZED BY NIST FROM HARD COPY
##XUNITS=MICROMETERS
##YUNITS=TRANSMITTANCE
##XFACTOR=1.000000
##YFACTOR=1
##DELTAX=000.006638
##FIRSTX=2.027
##LASTX=15.9936
##FIRSTY=0.996
##MAXX=15.9936
##MINX=2.027
##MAXY=1
##MINY=0.019
##NPOINTS=2105
##XYDATA=(X++(Y..Y))
2.027000 0.9960 0.9960 0.9960 0.9960 0.9950
2.060207 0.9950 0.9930 0.9930 0.9910 0.9910
2.093000 0.9910 0.9910 0.9910 0.9900 0.9900
2.126207 0.9900 0.9900 0.9900 0.9860 0.9830
2.159000 0.9760 0.9680 0.9610 0.9600 0.9580
2.192207 0.9530 0.9510 0.9500 0.9480 0.9460
2.226000 0.9450 0.9450 0.9450 0.9450 0.9460
2.259207 0.9460 0.9510 0.9560 0.9580 0.9600
2.292000 0.9610 0.9610 0.9610 0.9600 0.9600
2.325207 0.9580 0.9580 0.9600 0.9600 0.9610
2.358000 0.9630 0.9680 0.9710 0.9730 0.9760
2.391207 0.9780 0.9800 0.9800 0.9810 0.9830
2.425000 0.9830 0.9850 0.9850 0.9850 0.9850
2.458207 0.9830 0.9810 0.9810 0.9810 0.9800
2.491000 0.9800 0.9780 0.9760 0.9760 0.9760
2.524207 0.9780 0.9800 0.9810 0.9810 0.9850
2.558000 0.9880 0.9900 0.9910 0.9930 0.9960
2.591207 0.9980 0.9980 0.9950 0.9910 0.9880
2.624000 0.9860 0.9880 0.9910 0.9950 0.9980
2.657207 1.0000 1.0000 1.0000 1.0000 1.0000
2.690000 0.9980 0.9960 0.9910 0.9900 0.9860
2.723207 0.9830 0.9800 0.9760 0.9710 0.9710
2.757000 0.9700 0.9700 0.9700 0.9700 0.9680
2.790207 0.9660 0.9660 0.9630 0.9610 0.9580
2.823000 0.9560 0.9530 0.9480 0.9430 0.9400
2.856207 0.9380 0.9330 0.9260 0.9150 0.9080
2.890000 0.9000 0.8950 0.8880 0.8830 0.8800
2.923207 0.8780 0.8760 0.8780 0.8800 0.8830
2.956000 0.8880 0.8950 0.8980 0.9010 0.9050
2.989207 0.9060 0.9100 0.9110 0.9130 0.9150
3.022000 0.9150 0.9150 0.9150 0.9150 0.9150
3.055207 0.9150 0.9130 0.9110 0.9100 0.9060
3.089000 0.9000 0.8960 0.8910 0.8880 0.8860
3.122207 0.8860 0.8860 0.8860 0.8860 0.8860
3.155000 0.8850 0.8830 0.8810 0.8800 0.8710
3.188207 0.8600 0.8500 0.8430 0.8360 0.8300
3.221000 0.8180 0.8050 0.7950 0.7850 0.7720
3.254207 0.7450 0.7000 0.6300 0.5790 0.5770
3.288000 0.5770 0.5750 0.5500 0.5170 0.4540
3.321207 0.3890 0.3240 0.2510 0.1980 0.1960
3.354000 0.1980 0.2690 0.3040 0.3260 0.3370
3.387207 0.3420 0.3490 0.3490 0.3510 0.3540
3.421000 0.3690 0.3940 0.4190 0.4540 0.4950
3.454207 0.5420 0.5850 0.6230 0.6500 0.6700
3.487000 0.6870 0.7070 0.7300 0.7520 0.7800
3.520207 0.7980 0.8150 0.8300 0.8430 0.8550
3.553000 0.8650 0.8730 0.8800 0.8850 0.8950
3.586207 0.9010 0.9060 0.9150 0.9180 0.9210
3.620000 0.9250 0.9250 0.9260 0.9300 0.9300
3.653207 0.9280 0.9250 0.9250 0.9250 0.9250
3.686000 0.9250 0.9260 0.9350 0.9450 0.9530
3.719207 0.9600 0.9610 0.9630 0.9660 0.9680
3.752000 0.9680 0.9700 0.9710 0.9710 0.9710
3.785207 0.9710 0.9730 0.9760 0.9780 0.9780
3.819000 0.9780 0.9780 0.9780 0.9800 0.9830
3.852207 0.9880 0.9900 0.9900 0.9900 0.9900
3.885000 0.9900 0.9900 0.9880 0.9880 0.9880
3.918207 0.9860 0.9850 0.9850 0.9830 0.9830
3.952000 0.9810 0.9800 0.9780 0.9780 0.9780
3.985207 0.9780 0.9800 0.9810 0.9830 0.9830
4.018000 0.9830 0.9830 0.9830 0.9830 0.9810
4.051207 0.9780 0.9760 0.9760 0.9750 0.9730
4.084000 0.9730 0.9710 0.9710 0.9700 0.9680
4.117207 0.9680 0.9680 0.9680 0.9660 0.9650
4.151000 0.9650 0.9650 0.9650 0.9650 0.9650
4.184207 0.9650 0.9650 0.9660 0.9660 0.9700
4.217000 0.9700 0.9700 0.9660 0.9550 0.9450
4.250207 0.9350 0.9260 0.9250 0.9250 0.9250
4.284000 0.9260 0.9310 0.9380 0.9410 0.9430
4.317207 0.9430 0.9410 0.9410 0.9410 0.9450
4.350000 0.9450 0.9460 0.9500 0.9510 0.9580
4.383207 0.9610 0.9650 0.9700 0.9760 0.9780
4.416000 0.9800 0.9800 0.9800 0.9800 0.9800
4.449207 0.9800 0.9800 0.9800 0.9800 0.9800
4.483000 0.9810 0.9810 0.9810 0.9830 0.9860
4.516207 0.9880 0.9860 0.9830 0.9810 0.9800
4.549000 0.9800 0.9780 0.9780 0.9780 0.9800
4.582207 0.9810 0.9830 0.9860 0.9900 0.9930
4.615000 0.9950 0.9950 0.9960 0.9960 0.9960
4.648207 0.9960 0.9950 0.9930 0.9910 0.9900
4.682000 0.9880 0.9850 0.9850 0.9830 0.9830
4.715207 0.9830 0.9850 0.9850 0.9880 0.9900
4.748000 0.9910 0.9910 0.9900 0.9900 0.9900
4.781207 0.9880 0.9860 0.9860 0.9860 0.9860
4.815000 0.9860 0.9860 0.9850 0.9830 0.9810
4.848207 0.9810 0.9810 0.9810 0.9800 0.9800
4.881000 0.9780 0.9760 0.9750 0.9750 0.9750
4.914207 0.9730 0.9730 0.9730 0.9710 0.9710
4.947000 0.9700 0.9680 0.9660 0.9660 0.9660
4.980207 0.9650 0.9650 0.9650 0.9630 0.9630
5.014000 0.9630 0.9630 0.9650 0.9680 0.9680
5.047207 0.9700 0.9710 0.9760 0.9780 0.9800
5.080000 0.9810 0.9830 0.9830 0.9830 0.9780
5.113207 0.9780 0.9780 0.9760 0.9750 0.9730
5.147000 0.9710 0.9680 0.9650 0.9610 0.9600
5.180207 0.9580 0.9580 0.9600 0.9600 0.9600
5.213000 0.9580 0.9560 0.9480 0.9400 0.9360
5.246207 0.9310 0.9280 0.9230 0.9210 0.9200
5.279000 0.9180 0.9160 0.9160 0.9150 0.9150
5.312207 0.9150 0.9150 0.9160 0.9160 0.9180
5.346000 0.9180 0.9200 0.9200 0.9210 0.9230
5.379207 0.9250 0.9330 0.9380 0.9430 0.9430
5.412000 0.9400 0.9380 0.9280 0.9200 0.9200
5.445207 0.9180 0.9160 0.9130 0.9110 0.9100
5.478000 0.9080 0.9000 0.8910 0.8880 0.8800
5.511207 0.8710 0.8660 0.8610 0.8500 0.8410
5.545000 0.8330 0.8250 0.8180 0.8110 0.8050
5.578207 0.7970 0.7880 0.7800 0.7700 0.7580
5.611000 0.7450 0.7280 0.7100 0.6900 0.6670
5.644207 0.6400 0.6080 0.5690 0.5290 0.4650
5.678000 0.4000 0.3220 0.2290 0.1260 0.0910
5.711207 0.0690 0.0610 0.0540 0.0490 0.0380
5.744000 0.0310 0.0290 0.0290 0.0280 0.0280
5.777207 0.0260 0.0260 0.0280 0.0380 0.0610
5.810000 0.1090 0.1590 0.1990 0.2360 0.2670
5.843207 0.2990 0.3310 0.3610 0.3940 0.4270
5.877000 0.4620 0.4950 0.5220 0.5550 0.5770
5.910207 0.5970 0.6150 0.6350 0.6550 0.6750
5.943000 0.6900 0.7030 0.7150 0.7280 0.7520
5.976207 0.7550 0.7570 0.7620 0.7630 0.7650
6.009000 0.7650 0.7670 0.7670 0.7700 0.7730
6.042207 0.7770 0.7780 0.7780 0.7800 0.7820
6.076000 0.7920 0.7980 0.8000 0.8000 0.8010
6.109207 0.8010 0.8010 0.8050 0.8060 0.8080
6.142000 0.8100 0.8130 0.8180 0.8200 0.8200
6.175207 0.8200 0.8180 0.8180 0.8150 0.8130
6.209000 0.8130 0.8130 0.8150 0.8210 0.8250
6.242207 0.8280 0.8330 0.8400 0.8400 0.8400
6.275000 0.8380 0.8330 0.8250 0.8160 0.8080
6.308207 0.8010 0.7950 0.7850 0.7750 0.7670
6.341000 0.7600 0.7550 0.7500 0.7480 0.7420
6.374207 0.7380 0.7370 0.7350 0.7330 0.7320
6.408000 0.7300 0.7300 0.7280 0.7230 0.7200
6.441207 0.7180 0.7130 0.7070 0.7020 0.6950
6.474000 0.6750 0.6450 0.6030 0.5720 0.5350
6.507207 0.5000 0.4500 0.4040 0.3660 0.3340
6.541000 0.3020 0.2720 0.2540 0.2360 0.2170
6.574207 0.2160 0.2190 0.2410 0.2740 0.3040
6.607000 0.3740 0.4370 0.4720 0.5290 0.5500
6.640207 0.5700 0.5900 0.5990 0.6000 0.6000
6.673000 0.6000 0.6000 0.5970 0.5540 0.5290
6.706207 0.5040 0.4790 0.4570 0.4370 0.4190
6.740000 0.4040 0.3920 0.3820 0.3720 0.3520
6.773207 0.3270 0.3060 0.2940 0.2870 0.2770
6.806000 0.2640 0.2570 0.2540 0.2510 0.2420
6.839207 0.2270 0.1990 0.1640 0.1460 0.1440
6.872000 0.1460 0.1490 0.1580 0.1630 0.1690
6.905207 0.1760 0.1810 0.1830 0.1880 0.1890
6.939000 0.1860 0.1840 0.1830 0.1810 0.1810
6.972207 0.1940 0.1990 0.2110 0.2260 0.2370
7.005000 0.2440 0.2510 0.2560 0.2590 0.2570
7.038207 0.2510 0.2420 0.2310 0.2240 0.2160
7.072000 0.2070 0.1980 0.1860 0.1740 0.1640
7.105207 0.1530 0.1430 0.1330 0.1260 0.1190
7.138000 0.1140 0.1110 0.1080 0.1030 0.1010
7.171207 0.0980 0.0960 0.0890 0.0830 0.0680
7.204000 0.0510 0.0380 0.0280 0.0230 0.0230
7.237207 0.0230 0.0230 0.0240 0.0280 0.0330
7.271000 0.0390 0.0410 0.0440 0.0430 0.0390
7.304207 0.0340 0.0330 0.0310 0.0290 0.0280
7.337000 0.0280 0.0290 0.0360 0.0380 0.0390
7.370207 0.0460 0.0480 0.0490 0.0510 0.0590
7.404000 0.0690 0.1110 0.1780 0.2090 0.2460
7.437207 0.2820 0.3190 0.3570 0.3960 0.4320
7.470000 0.4650 0.4990 0.5290 0.5350 0.5370
7.503207 0.5370 0.5370 0.5300 0.5140 0.5000
7.536000 0.4850 0.4740 0.4590 0.4400 0.4170
7.569207 0.3920 0.3660 0.3340 0.2990 0.2610
7.603000 0.2190 0.1830 0.1490 0.1290 0.0990
7.636207 0.0660 0.0390 0.0260 0.0240 0.0240
7.669000 0.0230 0.0230 0.0230 0.0230 0.0230
7.702207 0.0210 0.0190 0.0190 0.0190 0.0190
7.735000 0.0230 0.0260 0.0260 0.0280 0.0280
7.768207 0.0310 0.0330 0.0340 0.0380 0.0410
7.802000 0.0410 0.0440 0.0440 0.0430 0.0430
7.835207 0.0410 0.0410 0.0390 0.0380 0.0360
7.868000 0.0340 0.0330 0.0310 0.0290 0.0280
7.901207 0.0280 0.0290 0.0290 0.0290 0.0310
7.935000 0.0310 0.0330 0.0340 0.0380 0.0460
7.968207 0.0540 0.0680 0.0830 0.0840 0.0940
8.001000 0.1080 0.1260 0.1480 0.1730 0.1960
8.034207 0.2210 0.2440 0.2620 0.2740 0.2890
8.067000 0.3020 0.3120 0.3270 0.3370 0.3440
8.100207 0.3510 0.3540 0.3560 0.3570 0.3570
8.134000 0.3560 0.3420 0.3290 0.3120 0.2970
8.167207 0.2790 0.2590 0.2370 0.2120 0.1860
8.200000 0.1540 0.1340 0.1330 0.1310 0.1340
8.233207 0.1390 0.1480 0.1590 0.1740 0.1840
8.266000 0.1890 0.1890 0.1840 0.1730 0.1580
8.299207 0.1460 0.1340 0.1240 0.1180 0.1130
8.333000 0.1110 0.1090 0.1040 0.1010 0.0960
8.366207 0.0930 0.0830 0.0740 0.0660 0.0640
8.399000 0.0540 0.0440 0.0340 0.0330 0.0280
8.432207 0.0260 0.0230 0.0210 0.0210 0.0210
8.466000 0.0210 0.0210 0.0210 0.0210 0.0210
8.499207 0.0210 0.0210 0.0210 0.0210 0.0210
8.532000 0.0210 0.0210 0.0210 0.0210 0.0210
8.565207 0.0210 0.0210 0.0210 0.0210 0.0210
8.598000 0.0210 0.0210 0.0210 0.0210 0.0210
8.631207 0.0210 0.0230 0.0240 0.0260 0.0260
8.665000 0.0260 0.0260 0.0260 0.0240 0.0230
8.698207 0.0230 0.0230 0.0240 0.0260 0.0280
8.731000 0.0290 0.0310 0.0330 0.0340 0.0360
8.764207 0.0360 0.0390 0.0410 0.0460 0.0480
8.798000 0.0480 0.0490 0.0530 0.0580 0.0640
8.831207 0.0690 0.0790 0.0890 0.0990 0.1090
8.864000 0.1190 0.1310 0.1430 0.1530 0.1590
8.897207 0.1660 0.1690 0.1730 0.1740 0.1760
8.930000 0.1760 0.1690 0.1560 0.1490 0.1390
8.963207 0.1290 0.1180 0.1080 0.1010 0.0940
8.997000 0.0780 0.0640 0.0540 0.0490 0.0440
9.030207 0.0410 0.0340 0.0330 0.0290 0.0260
9.063000 0.0240 0.0240 0.0240 0.0230 0.0230
9.096207 0.0230 0.0230 0.0230 0.0230 0.0240
9.129000 0.0260 0.0260 0.0280 0.0310 0.0380
9.162207 0.0460 0.0610 0.0840 0.1080 0.1390
9.196000 0.1860 0.2140 0.2640 0.3110 0.3360
9.229207 0.3610 0.3890 0.4070 0.4240 0.4400
9.262000 0.4490 0.4500 0.4490 0.4300 0.4090
9.295207 0.3840 0.3540 0.3090 0.2640 0.2160
9.329000 0.1810 0.1440 0.1090 0.0910 0.0810
9.362207 0.0790 0.0790 0.0810 0.1240 0.1610
9.395000 0.1980 0.2340 0.2790 0.3310 0.3560
9.428207 0.3790 0.3970 0.4090 0.4250 0.4320
9.461000 0.4400 0.4490 0.4490 0.4490 0.4490
9.494207 0.4490 0.4490 0.4390 0.4100 0.3960
9.528000 0.3790 0.3620 0.3460 0.3290 0.3090
9.561207 0.2890 0.2670 0.2410 0.2190 0.2010
9.594000 0.1930 0.1730 0.1490 0.1280 0.1060
9.627207 0.0980 0.0840 0.0710 0.0580 0.0530
9.661000 0.0430 0.0380 0.0310 0.0290 0.0280
9.694207 0.0280 0.0280 0.0290 0.0290 0.0310
9.727000 0.0310 0.0310 0.0310 0.0330 0.0340
9.760207 0.0390 0.0440 0.0510 0.0590 0.0680
9.793000 0.0760 0.0860 0.0990 0.1130 0.1260
9.826207 0.1430 0.1610 0.1810 0.2020 0.2240
9.860000 0.2510 0.2770 0.3070 0.3370 0.3720
9.893207 0.4070 0.4300 0.4550 0.4890 0.5150
9.926000 0.5390 0.5590 0.5770 0.5900 0.6030
9.959207 0.6150 0.6250 0.6350 0.6450 0.6480
9.992000 0.6570 0.6650 0.6680 0.6720 0.6750
10.025207 0.6780 0.6780 0.6780 0.6780 0.6770
10.059000 0.6770 0.6750 0.6730 0.6700 0.6620
10.092207 0.6570 0.6500 0.6430 0.6320 0.6220
10.125000 0.6100 0.5970 0.5800 0.5650 0.5490
10.158207 0.5300 0.5120 0.4950 0.4790 0.4620
10.192000 0.4450 0.4170 0.3890 0.3510 0.3470
10.225207 0.3390 0.3290 0.3120 0.2970 0.2910
10.258000 0.2760 0.2670 0.2640 0.2620 0.2640
10.291207 0.2720 0.2840 0.2970 0.3140 0.3310
10.324000 0.3470 0.3610 0.3760 0.3960 0.4150
10.357207 0.4390 0.4640 0.4850 0.5070 0.5270
10.391000 0.5400 0.5620 0.5800 0.6000 0.6170
10.424207 0.6300 0.6430 0.6550 0.6650 0.6750
10.457000 0.6850 0.6930 0.6980 0.7080 0.7120
10.490207 0.7130 0.7170 0.7180 0.7180 0.7170
10.523000 0.7150 0.7120 0.7100 0.7070 0.6980
10.556207 0.6880 0.6820 0.6750 0.6700 0.6650
10.590000 0.6550 0.6520 0.6430 0.6370 0.6320
10.623207 0.6300 0.6300 0.6300 0.6300 0.6300
10.656000 0.6320 0.6320 0.6380 0.6430 0.6500
10.689207 0.6570 0.6630 0.6730 0.6830 0.6900
10.723000 0.6970 0.7000 0.7020 0.7050 0.7070
10.756207 0.7070 0.7080 0.7080 0.7080 0.7070
10.789000 0.7050 0.7050 0.7000 0.6970 0.6950
10.822207 0.6930 0.6920 0.6900 0.6880 0.6870
10.855000 0.6850 0.6830 0.6830 0.6850 0.6880
10.888207 0.6950 0.7000 0.7030 0.7120 0.7180
10.922000 0.7230 0.7300 0.7380 0.7420 0.7430
10.955207 0.7450 0.7450 0.7450 0.7430 0.7400
10.988000 0.7350 0.7300 0.7280 0.7270 0.7200
11.021207 0.7100 0.7050 0.7020 0.6970 0.6900
11.055000 0.6850 0.6820 0.6750 0.6720 0.6680
11.088207 0.6670 0.6630 0.6600 0.6550 0.6480
11.121000 0.6380 0.6320 0.6270 0.6220 0.6150
11.154207 0.6100 0.6050 0.6020 0.6000 0.5920
11.187000 0.5870 0.5840 0.5820 0.5790 0.5770
11.220207 0.5750 0.5750 0.5740 0.5720 0.5720
11.254000 0.5740 0.5740 0.5740 0.5750 0.5790
11.287207 0.5840 0.5890 0.5940 0.6000 0.6050
11.320000 0.6080 0.6120 0.6130 0.6220 0.6320
11.353207 0.6380 0.6430 0.6520 0.6570 0.6570
11.386000 0.6580 0.6580 0.6580 0.6550 0.6530
11.419207 0.6480 0.6430 0.6350 0.6250 0.6150
11.453000 0.6030 0.5920 0.5770 0.5640 0.5490
11.486207 0.5350 0.5200 0.5050 0.4900 0.4750
11.519000 0.4600 0.4470 0.4340 0.4200 0.4090
11.552207 0.3990 0.3910 0.3840 0.3770 0.3710
11.586000 0.3620 0.3540 0.3520 0.3490 0.3460
11.619207 0.3440 0.3440 0.3440 0.3420 0.3420
11.652000 0.3410 0.3390 0.3370 0.3340 0.3310
11.685207 0.3240 0.3140 0.3090 0.3040 0.2940
11.718000 0.2820 0.2690 0.2570 0.2490 0.2390
11.751207 0.2290 0.2190 0.2110 0.2040 0.1940
11.785000 0.1840 0.1740 0.1680 0.1660 0.1660
11.818207 0.1660 0.1680 0.1710 0.1780 0.1840
11.851000 0.1940 0.2010 0.2110 0.2240 0.2360
11.884207 0.2470 0.2540 0.2690 0.2820 0.2960
11.917000 0.3090 0.3260 0.3410 0.3590 0.3770
11.950207 0.3990 0.4240 0.4500 0.4790 0.5000
11.984000 0.5250 0.5500 0.5770 0.6030 0.6280
12.017207 0.6480 0.6650 0.6750 0.6930 0.7080
12.050000 0.7250 0.7380 0.7500 0.7600 0.7720
12.083207 0.7800 0.7880 0.7970 0.8010 0.8050
12.117000 0.8110 0.8180 0.8210 0.8260 0.8300
12.150207 0.8330 0.8380 0.8410 0.8430 0.8430
12.183000 0.8450 0.8450 0.8450 0.8460 0.8460
12.216207 0.8460 0.8460 0.8460 0.8460 0.8450
12.249000 0.8430 0.8410 0.8380 0.8350 0.8300
12.282207 0.8280 0.8280 0.8250 0.8210 0.8180
12.316000 0.8130 0.8100 0.8050 0.8030 0.8000
12.349207 0.7980 0.7980 0.7970 0.7950 0.7920
12.382000 0.7900 0.7880 0.7830 0.7820 0.7800
12.415207 0.7800 0.7800 0.7800 0.7800 0.7780
12.449000 0.7780 0.7780 0.7770 0.7750 0.7750
12.482207 0.7770 0.7770 0.7800 0.7820 0.7850
12.515000 0.7880 0.7920 0.7950 0.7980 0.8000
12.548207 0.8000 0.8000 0.8000 0.8010 0.8010
12.581000 0.8030 0.8050 0.8050 0.8060 0.8080
12.614207 0.8100 0.8100 0.8100 0.8100 0.8080
12.648000 0.8060 0.8050 0.8030 0.8010 0.7980
12.681207 0.7970 0.7950 0.7920 0.7880 0.7880
12.714000 0.7870 0.7850 0.7830 0.7820 0.7770
12.747207 0.7750 0.7730 0.7720 0.7700 0.7680
12.780000 0.7620 0.7580 0.7550 0.7520 0.7480
12.813207 0.7470 0.7450 0.7380 0.7370 0.7330
12.847000 0.7320 0.7320 0.7270 0.7230 0.7220
12.880207 0.7200 0.7180 0.7150 0.7130 0.7130
12.913000 0.7150 0.7170 0.7180 0.7230 0.7270
12.946207 0.7280 0.7300 0.7330 0.7380 0.7420
12.980000 0.7450 0.7470 0.7480 0.7480 0.7480
13.013207 0.7480 0.7480 0.7500 0.7500 0.7500
13.046000 0.7520 0.7520 0.7550 0.7600 0.7680
13.079207 0.7730 0.7800 0.7850 0.7930 0.7970
13.112000 0.8000 0.8030 0.8100 0.8160 0.8230
13.145207 0.8300 0.8350 0.8380 0.8400 0.8400
13.179000 0.8410 0.8430 0.8450 0.8460 0.8480
13.212207 0.8530 0.8550 0.8580 0.8580 0.8610
13.245000 0.8660 0.8730 0.8800 0.8830 0.8880
13.278207 0.8900 0.8900 0.8910 0.8930 0.8960
13.312000 0.8980 0.9000 0.9000 0.9000 0.9000
13.345207 0.9000 0.8980 0.8980 0.8950 0.8900
13.378000 0.8850 0.8800 0.8750 0.8700 0.8600
13.411207 0.8500 0.8400 0.8330 0.8250 0.8160
13.444000 0.8050 0.8010 0.8000 0.7980 0.7980
13.477207 0.8000 0.8100 0.8200 0.8330 0.8430
13.511000 0.8480 0.8510 0.8550 0.8630 0.8760
13.544207 0.8850 0.8930 0.8980 0.9050 0.9080
13.577000 0.9110 0.9160 0.9160 0.9160 0.9200
13.610207 0.9230 0.9280 0.9280 0.9300 0.9310
13.643000 0.9310 0.9310 0.9310 0.9310 0.9310
13.676207 0.9330 0.9330 0.9330 0.9330 0.9330
13.710000 0.9330 0.9330 0.9310 0.9310 0.9310
13.743207 0.9300 0.9300 0.9300 0.9300 0.9300
13.776000 0.9280 0.9280 0.9280 0.9300 0.9300
13.809207 0.9300 0.9300 0.9300 0.9280 0.9280
13.843000 0.9260 0.9260 0.9260 0.9210 0.9200
13.876207 0.9180 0.9180 0.9160 0.9160 0.9150
13.909000 0.9110 0.9080 0.9080 0.9060 0.9060
13.942207 0.9010 0.9010 0.8980 0.8980 0.8960
13.975000 0.8960 0.8950 0.8930 0.8910 0.8830
14.008207 0.8760 0.8760 0.8750 0.8710 0.8700
14.042000 0.8680 0.8660 0.8630 0.8600 0.8560
14.075207 0.8510 0.8480 0.8410 0.8380 0.8330
14.108000 0.8310 0.8310 0.8280 0.8280 0.8250
14.141207 0.8210 0.8180 0.8130 0.8050 0.8010
14.174000 0.8010 0.8000 0.8000 0.8000 0.7980
14.207207 0.7880 0.7850 0.7820 0.7780 0.7770
14.241000 0.7730 0.7720 0.7700 0.7680 0.7680
14.274207 0.7670 0.7620 0.7580 0.7570 0.7550
14.307000 0.7550 0.7530 0.7530 0.7520 0.7500
14.340207 0.7480 0.7470 0.7450 0.7420 0.7400
14.374000 0.7380 0.7370 0.7370 0.7370 0.7370
14.407207 0.7370 0.7370 0.7370 0.7370 0.7370
14.440000 0.7370 0.7370 0.7370 0.7380 0.7400
14.473207 0.7420 0.7430 0.7470 0.7500 0.7530
14.506000 0.7570 0.7570 0.7580 0.7600 0.7620
14.539207 0.7620 0.7630 0.7650 0.7670 0.7680
14.573000 0.7700 0.7720 0.7720 0.7730 0.7770
14.606207 0.7820 0.7820 0.7830 0.7830 0.7870
14.639000 0.7880 0.7900 0.7900 0.7900 0.7900
14.672207 0.7920 0.7920 0.7930 0.7950 0.7970
14.706000 0.7970 0.7970 0.7950 0.7880 0.7850
14.739207 0.7820 0.7780 0.7750 0.7750 0.7730
14.772000 0.7730 0.7680 0.7620 0.7580 0.7530
14.805207 0.7480 0.7450 0.7430 0.7420 0.7420
14.838000 0.7420 0.7400 0.7400 0.7400 0.7420
14.871207 0.7470 0.7480 0.7520 0.7550 0.7600
14.905000 0.7670 0.7750 0.7800 0.7870 0.7920
14.938207 0.7980 0.8000 0.8010 0.8080 0.8080
14.971000 0.8100 0.8130 0.8160 0.8210 0.8280
15.004207 0.8310 0.8360 0.8380 0.8400 0.8410
15.037000 0.8450 0.8460 0.8480 0.8510 0.8530
15.070207 0.8560 0.8660 0.8750 0.8830 0.8900
15.104000 0.8950 0.8980 0.8980 0.9000 0.9010
15.137207 0.9030 0.9080 0.9100 0.9110 0.9130
15.170000 0.9130 0.9130 0.9130 0.9130 0.9130
15.203207 0.9110 0.9110 0.9100 0.9080 0.9060
15.237000 0.9060 0.9080 0.9100 0.9100 0.9110
15.270207 0.9110 0.9130 0.9130 0.9130 0.9130
15.303000 0.9130 0.9130 0.9130 0.9130 0.9110
15.336207 0.9110 0.9110 0.9110 0.9110 0.9110
15.369000 0.9110 0.9110 0.9110 0.9110 0.9110
15.402207 0.9110 0.9110 0.9100 0.9100 0.9080
15.436000 0.9080 0.9060 0.9060 0.9050 0.9050
15.469207 0.9030 0.9030 0.9010 0.9010 0.9010
15.502000 0.9010 0.9010 0.9010 0.9000 0.9000
15.535207 0.8980 0.8960 0.8960 0.8960 0.8960
15.569000 0.8960 0.8960 0.8980 0.8980 0.8980
15.602207 0.8980 0.8980 0.8980 0.8980 0.8980
15.635000 0.8980 0.8980 0.8980 0.8980 0.8980
15.668207 0.8960 0.8960 0.8950 0.8930 0.8910
15.701000 0.8900 0.8880 0.8860 0.8860 0.8860
15.734207 0.8860 0.8860 0.8860 0.8860 0.8860
15.768000 0.8860 0.8860 0.8860 0.8860 0.8860
15.801207 0.8850 0.8850 0.8810 0.8800 0.8780
15.834000 0.8750 0.8710 0.8700 0.8700 0.8680
15.867207 0.8680 0.8660 0.8650 0.8610 0.8600
15.900000 0.8600 0.8600 0.8600 0.8580 0.8560
15.933207 0.8560 0.8560 0.8550 0.8550 0.8550
15.967000 0.8550 0.8550 0.8550 0.8530 0.8530
##END=
