##TITLE=Glycinic acid, N-2-tert-butyl-phenyl-, ethyl ester
##JCAMP-DX=4.24
##DATA TYPE=INFRARED SPECTRUM
##CLASS=COBLENTZ III
##ORIGIN=MONSANTO (J. FREEMAN)
##OWNER=Copyright (C) 1987 by the Coblentz Society
Collection (C) 2018 copyright by the U.S. Secretary of Commerce
on behalf of the United States of America. All rights reserved.
##DATE=1959/06/12
##NAMES=ethyl (2-tert-butylanilino)acetate
##MOLFORM=C14 H21 N O2
##SOURCE REFERENCE=COBLENTZ NO. 9260
##$NIST ID=B6009260
##$NIST SOURCE=COBLENTZ
##$NIST IMAGE=cob9260
##SPECTROMETER/DATA SYSTEM=BECKMAN IR-4 (HYBRID PRISM-GRATING)
##INSTRUMENT PARAMETERS=NaCl PRISM
##STATE=LIQUID (NEAT)
##PATH LENGTH=CAPILLARY
##SAMPLING PROCEDURE=TRANSMISSION
##RESOLUTION=2
##DATA PROCESSING=DIGITIZED BY COBLENTZ SOCIETY (BATCH II) FROM HARD COPY
##XUNITS=1/CM
##YUNITS=TRANSMITTANCE
##XFACTOR=1.0
##YFACTOR=1
##FIRSTX=626
##LASTX=4000
##FIRSTY=0.6644
##MAXX=4000
##MINX=626
##MAXY=0.9401
##MINY=0.0603
##NPOINTS=3375
##XYDATA=(X++(Y..Y))
626.000000 0.6644 0.6655 0.6662 0.6666 0.6669
631.000000 0.6670 0.6670 0.6673 0.6676 0.6679
636.000000 0.6686 0.6693 0.6700 0.6709 0.6722
641.000000 0.6734 0.6746 0.6759 0.6778 0.6795
646.000000 0.6812 0.6829 0.6848 0.6870 0.6892
651.000000 0.6914 0.6937 0.6967 0.6997 0.7028
656.000000 0.7058 0.7088 0.7119 0.7151 0.7186
661.000000 0.7218 0.7244 0.7262 0.7270 0.7280
666.000000 0.7286 0.7291 0.7297 0.7302 0.7306
671.000000 0.7311 0.7314 0.7319 0.7323 0.7328
676.000000 0.7333 0.7338 0.7342 0.7348 0.7377
681.000000 0.7417 0.7416 0.7413 0.7409 0.7407
686.000000 0.7405 0.7403 0.7398 0.7393 0.7387
691.000000 0.7379 0.7372 0.7365 0.7364 0.7366
696.000000 0.7373 0.7380 0.7381 0.7380 0.7375
701.000000 0.7368 0.7361 0.7344 0.7326 0.7307
706.000000 0.7285 0.7264 0.7232 0.7198 0.7163
711.000000 0.7129 0.7080 0.7031 0.6982 0.6939
716.000000 0.6896 0.6852 0.6797 0.6743 0.6683
721.000000 0.6623 0.6558 0.6487 0.6403 0.6290
726.000000 0.6136 0.5949 0.5748 0.5524 0.5244
731.000000 0.4960 0.4720 0.4425 0.4013 0.3603
736.000000 0.3194 0.2786 0.2330 0.1812 0.1396
741.000000 0.1275 0.1237 0.1227 0.1229 0.1241
746.000000 0.1279 0.1339 0.1429 0.1529 0.1666
751.000000 0.1852 0.2076 0.2558 0.3042 0.3486
756.000000 0.3829 0.4170 0.4511 0.4850 0.5213
761.000000 0.5544 0.6071 0.6372 0.6597 0.6828
766.000000 0.7014 0.7159 0.7252 0.7328 0.7402
771.000000 0.7463 0.7524 0.7584 0.7638 0.7692
776.000000 0.7745 0.7781 0.7817 0.7832 0.7888
781.000000 0.7827 0.7812 0.7796 0.7778 0.7756
786.000000 0.7729 0.7702 0.7666 0.7615 0.7556
791.000000 0.7472 0.7372 0.7307 0.7266 0.7245
796.000000 0.7238 0.7246 0.7267 0.7311 0.7355
801.000000 0.7396 0.7439 0.7501 0.7570 0.7622
806.000000 0.7633 0.7646 0.7646 0.7645 0.7666
811.000000 0.7631 0.7611 0.7534 0.7425 0.7308
816.000000 0.7192 0.7079 0.6970 0.6865 0.6762
821.000000 0.6721 0.6742 0.6735 0.7005 0.7177
826.000000 0.7368 0.7536 0.7666 0.7759 0.7788
831.000000 0.7777 0.7821 0.7645 0.7528 0.7437
836.000000 0.7348 0.7263 0.7178 0.7081 0.6985
841.000000 0.6860 0.6704 0.6494 0.6294 0.6129
846.000000 0.5978 0.5914 0.5898 0.5885 0.6221
851.000000 0.6529 0.6836 0.7172 0.7419 0.7621
856.000000 0.7764 0.7868 0.7931 0.7978 0.8005
861.000000 0.8015 0.8022 0.8027 0.8031 0.8050
866.000000 0.8092 0.8140 0.8207 0.8250 0.8259
871.000000 0.8303 0.8224 0.8187 0.8134 0.8073
876.000000 0.8015 0.7959 0.7908 0.7861 0.7904
881.000000 0.8038 0.8202 0.8335 0.8431 0.8544
886.000000 0.8652 0.8736 0.8772 0.8807 0.8831
891.000000 0.8851 0.8870 0.8881 0.8886 0.8890
896.000000 0.8920 0.8886 0.8877 0.8864 0.8836
901.000000 0.8807 0.8773 0.8741 0.8707 0.8670
906.000000 0.8630 0.8591 0.8551 0.8511 0.8472
911.000000 0.8432 0.8388 0.8342 0.8296 0.8250
916.000000 0.8192 0.8118 0.8045 0.7973 0.7901
921.000000 0.7829 0.7744 0.7651 0.7528 0.7404
926.000000 0.7260 0.7102 0.6964 0.6926 0.6926
931.000000 0.6975 0.7049 0.7145 0.7261 0.7415
936.000000 0.7574 0.7773 0.8054 0.8106 0.8144
941.000000 0.8157 0.8171 0.8184 0.8204 0.8225
946.000000 0.8247 0.8280 0.8315 0.8347 0.8380
951.000000 0.8410 0.8433 0.8457 0.8480 0.8502
956.000000 0.8517 0.8534 0.8549 0.8565 0.8581
961.000000 0.8593 0.8601 0.8609 0.8617 0.8620
966.000000 0.8622 0.8622 0.8624 0.8620 0.8617
971.000000 0.8632 0.8609 0.8599 0.8587 0.8576
976.000000 0.8557 0.8533 0.8510 0.8484 0.8446
981.000000 0.8387 0.8318 0.8227 0.8133 0.8040
986.000000 0.7955 0.7870 0.7793 0.7730 0.7666
991.000000 0.7603 0.7547 0.7491 0.7435 0.7397
996.000000 0.7360 0.7324 0.7285 0.7245 0.7166
1001.000000 0.7009 0.6856 0.6663 0.6495 0.6260
1006.000000 0.6060 0.5918 0.5780 0.5580 0.5376
1011.000000 0.5173 0.4971 0.4769 0.4567 0.4326
1016.000000 0.4129 0.3940 0.3772 0.3616 0.3426
1021.000000 0.3208 0.3004 0.2898 0.2796 0.2699
1026.000000 0.2619 0.2592 0.2590 0.2618 0.2695
1031.000000 0.2786 0.2885 0.2997 0.3138 0.3357
1036.000000 0.3712 0.4071 0.4431 0.4790 0.5148
1041.000000 0.5501 0.5722 0.5918 0.6077 0.6148
1046.000000 0.6165 0.6176 0.6206 0.6145 0.6054
1051.000000 0.5927 0.5703 0.5192 0.4683 0.4174
1056.000000 0.3667 0.3500 0.3529 0.3840 0.4504
1061.000000 0.5167 0.5828 0.6489 0.6915 0.7143
1066.000000 0.7230 0.7295 0.7327 0.7348 0.7352
1071.000000 0.7338 0.7365 0.7244 0.7165 0.7089
1076.000000 0.7012 0.6934 0.6849 0.6761 0.6673
1081.000000 0.6586 0.6524 0.6519 0.6530 0.6547
1086.000000 0.6583 0.6600 0.6600 0.6566 0.6406
1091.000000 0.6234 0.6062 0.5892 0.5720 0.5550
1096.000000 0.5404 0.5307 0.5291 0.5264 0.5345
1101.000000 0.5395 0.5437 0.5467 0.5476 0.5509
1106.000000 0.5452 0.5407 0.5281 0.5065 0.4851
1111.000000 0.4637 0.4424 0.4211 0.3997 0.3791
1116.000000 0.3703 0.3669 0.3670 0.3694 0.3659
1121.000000 0.4072 0.4394 0.4716 0.5037 0.5358
1126.000000 0.5677 0.5996 0.6201 0.6246 0.6288
1131.000000 0.6310 0.6288 0.6292 0.6235 0.6151
1136.000000 0.6043 0.5847 0.5673 0.5499 0.5325
1141.000000 0.5152 0.4979 0.4807 0.4634 0.4462
1146.000000 0.4291 0.4119 0.3949 0.3777 0.3607
1151.000000 0.3437 0.3267 0.3098 0.2927 0.2747
1156.000000 0.2622 0.2472 0.2255 0.2109 0.1969
1161.000000 0.1834 0.1619 0.1582 0.1568 0.1565
1166.000000 0.1554 0.1599 0.1661 0.1758 0.1857
1171.000000 0.1958 0.2058 0.2158 0.2257 0.2356
1176.000000 0.2456 0.2554 0.2618 0.2631 0.2629
1181.000000 0.2628 0.2519 0.2433 0.2346 0.2259
1186.000000 0.2173 0.2087 0.2002 0.1916 0.1830
1191.000000 0.1744 0.1659 0.1572 0.1502 0.1441
1196.000000 0.1385 0.1342 0.1301 0.1260 0.1240
1201.000000 0.1223 0.1206 0.1193 0.1182 0.1170
1206.000000 0.1159 0.1140 0.1116 0.1085 0.1051
1211.000000 0.1005 0.0916 0.0842 0.0781 0.0746
1216.000000 0.0727 0.0694 0.0650 0.0626 0.0612
1221.000000 0.0603 0.0605 0.0605 0.0612 0.0607
1226.000000 0.0677 0.0746 0.0825 0.0872 0.0897
1231.000000 0.0924 0.0952 0.0980 0.1025 0.1155
1236.000000 0.1239 0.1286 0.1320 0.1356 0.1397
1241.000000 0.1438 0.1484 0.1530 0.1575 0.1619
1246.000000 0.1665 0.1733 0.1789 0.1845 0.1911
1251.000000 0.1983 0.2032 0.2082 0.2148 0.2215
1256.000000 0.2282 0.2349 0.2435 0.2531 0.2634
1261.000000 0.2762 0.2907 0.3020 0.3088 0.3125
1266.000000 0.3153 0.3181 0.3206 0.3227 0.3247
1271.000000 0.3268 0.3290 0.3311 0.3333 0.3356
1276.000000 0.3385 0.3415 0.3443 0.3465 0.3482
1281.000000 0.3467 0.3403 0.3308 0.3496 0.3153
1286.000000 0.3078 0.3009 0.2949 0.2890 0.2831
1291.000000 0.2771 0.2712 0.2653 0.2592 0.2532
1296.000000 0.2513 0.2488 0.2518 0.2534 0.2826
1301.000000 0.3009 0.3139 0.3240 0.3332 0.3385
1306.000000 0.3433 0.3455 0.3482 0.3445 0.3427
1311.000000 0.3392 0.3359 0.3301 0.3204 0.3106
1316.000000 0.2995 0.2874 0.2753 0.2655 0.2590
1321.000000 0.2527 0.2491 0.2445 0.2483 0.2488
1326.000000 0.2502 0.2528 0.2571 0.2627 0.2712
1331.000000 0.2810 0.2931 0.3408 0.3959 0.4291
1336.000000 0.4624 0.4946 0.5099 0.5116 0.5138
1341.000000 0.5110 0.5093 0.5066 0.5002 0.4913
1346.000000 0.4848 0.4782 0.4709 0.4622 0.4380
1351.000000 0.4014 0.3648 0.3283 0.2918 0.2554
1356.000000 0.2191 0.1828 0.1532 0.1547 0.1633
1361.000000 0.1946 0.2288 0.2630 0.2972 0.3313
1366.000000 0.3654 0.3993 0.4198 0.4196 0.4217
1371.000000 0.3810 0.3583 0.3357 0.3131 0.2905
1376.000000 0.2680 0.2454 0.2230 0.2006 0.1781
1381.000000 0.1557 0.1385 0.1386 0.1367 0.1613
1386.000000 0.1894 0.2174 0.2455 0.2735 0.3014
1391.000000 0.3293 0.3571 0.3850 0.4127 0.4318
1396.000000 0.4364 0.4326 0.4286 0.4206 0.4124
1401.000000 0.4042 0.3959 0.3878 0.3796 0.3714
1406.000000 0.3675 0.3675 0.3670 0.3795 0.3970
1411.000000 0.4143 0.4318 0.4491 0.4665 0.4844
1416.000000 0.5027 0.5130 0.5208 0.5285 0.5363
1421.000000 0.5433 0.5464 0.5485 0.5503 0.5513
1426.000000 0.5518 0.5522 0.5520 0.5529 0.5502
1431.000000 0.5491 0.5469 0.5441 0.5375 0.5265
1436.000000 0.5082 0.4815 0.4618 0.4445 0.4241
1441.000000 0.4029 0.3817 0.3605 0.3394 0.3183
1446.000000 0.2972 0.2762 0.2551 0.2341 0.2132
1451.000000 0.1644 0.1531 0.1347 0.1242 0.1200
1456.000000 0.1179 0.1168 0.1180 0.1192 0.1304
1461.000000 0.1420 0.1505 0.1559 0.1608 0.1656
1466.000000 0.1707 0.1860 0.2231 0.2630 0.3015
1471.000000 0.3269 0.3347 0.3399 0.3450 0.3483
1476.000000 0.3516 0.3540 0.3548 0.3556 0.3567
1481.000000 0.3549 0.3542 0.3534 0.3521 0.3506
1486.000000 0.3484 0.3455 0.3425 0.3381 0.3340
1491.000000 0.3310 0.3283 0.3268 0.3266 0.3269
1496.000000 0.3274 0.3261 0.3367 0.3509 0.3604
1501.000000 0.3695 0.3758 0.3785 0.3791 0.3791
1506.000000 0.3788 0.3800 0.3747 0.3624 0.3501
1511.000000 0.3378 0.3256 0.3133 0.3011 0.2889
1516.000000 0.2766 0.2644 0.2523 0.2401 0.2280
1521.000000 0.2159 0.2038 0.1916 0.1787 0.1667
1526.000000 0.1594 0.1545 0.1514 0.1501 0.1487
1531.000000 0.1488 0.1500 0.1525 0.1595 0.1718
1536.000000 0.1835 0.1976 0.2118 0.2260 0.2401
1541.000000 0.2542 0.2682 0.2823 0.2964 0.3104
1546.000000 0.3244 0.3384 0.3524 0.3663 0.3777
1551.000000 0.3851 0.3966 0.4249 0.4570 0.4891
1556.000000 0.5212 0.5532 0.5933 0.6341 0.6518
1561.000000 0.6625 0.6688 0.6737 0.6780 0.6806
1566.000000 0.6822 0.6837 0.6848 0.6855 0.6856
1571.000000 0.6866 0.6849 0.6833 0.6791 0.6677
1576.000000 0.6472 0.6242 0.6011 0.5781 0.5551
1581.000000 0.5320 0.5091 0.4862 0.4633 0.4405
1586.000000 0.4176 0.3948 0.3720 0.3493 0.3266
1591.000000 0.3038 0.2912 0.2888 0.2884 0.3008
1596.000000 0.3194 0.3384 0.3574 0.3763 0.3953
1601.000000 0.4142 0.4278 0.4321 0.4320 0.4318
1606.000000 0.4144 0.3931 0.3719 0.3507 0.3295
1611.000000 0.3084 0.2873 0.2666 0.2520 0.2524
1616.000000 0.2527 0.2833 0.3149 0.3463 0.3777
1621.000000 0.4091 0.4404 0.4718 0.5031 0.5343
1626.000000 0.5550 0.5650 0.5743 0.5847 0.5964
1631.000000 0.6070 0.6162 0.6259 0.6431 0.6688
1636.000000 0.6956 0.7153 0.7358 0.7565 0.7715
1641.000000 0.7797 0.7852 0.7900 0.7942 0.7983
1646.000000 0.8023 0.8060 0.8073 0.8081 0.8089
1651.000000 0.8097 0.8104 0.8109 0.8114 0.8118
1656.000000 0.8122 0.8125 0.8128 0.8128 0.8128
1661.000000 0.8128 0.8128 0.8128 0.8135 0.8123
1666.000000 0.8120 0.8117 0.8112 0.8101 0.8091
1671.000000 0.8079 0.8066 0.8047 0.8026 0.8004
1676.000000 0.7984 0.7966 0.7948 0.7929 0.7910
1681.000000 0.7893 0.7874 0.7854 0.7833 0.7811
1686.000000 0.7789 0.7768 0.7746 0.7724 0.7700
1691.000000 0.7675 0.7651 0.7626 0.7601 0.7570
1696.000000 0.7533 0.7452 0.7321 0.7245 0.7209
1701.000000 0.7173 0.7137 0.7103 0.7074 0.7045
1706.000000 0.7015 0.6986 0.6958 0.6930 0.6902
1711.000000 0.6874 0.6845 0.6816 0.6787 0.6758
1716.000000 0.6729 0.6700 0.6655 0.6608 0.6561
1721.000000 0.6510 0.6449 0.6381 0.6312 0.6216
1726.000000 0.6086 0.5940 0.5790 0.5635 0.5462
1731.000000 0.5292 0.5121 0.4951 0.4781 0.4611
1736.000000 0.4441 0.4271 0.4102 0.3934 0.3765
1741.000000 0.3596 0.3427 0.3259 0.3091 0.2923
1746.000000 0.2755 0.2588 0.2420 0.2253 0.2086
1751.000000 0.1919 0.1752 0.1585 0.1419 0.1254
1756.000000 0.1101 0.0982 0.0936 0.0913 0.0899
1761.000000 0.0891 0.0887 0.0885 0.0887 0.0860
1766.000000 0.0937 0.1035 0.1243 0.1451 0.1659
1771.000000 0.1866 0.2073 0.2280 0.2488 0.2694
1776.000000 0.2900 0.3106 0.3312 0.3518 0.3723
1781.000000 0.3928 0.4133 0.4337 0.4542 0.4746
1786.000000 0.4950 0.5154 0.5432 0.5679 0.6138
1791.000000 0.6766 0.6884 0.6993 0.7093 0.7189
1796.000000 0.7288 0.7355 0.7399 0.7428 0.7447
1801.000000 0.7467 0.7485 0.7505 0.7526 0.7546
1806.000000 0.7568 0.7601 0.7644 0.7694 0.7730
1811.000000 0.7753 0.7773 0.7792 0.7811 0.7831
1816.000000 0.7850 0.7871 0.7900 0.7927 0.7951
1821.000000 0.7972 0.7993 0.8014 0.8041 0.8084
1826.000000 0.8166 0.8229 0.8283 0.8328 0.8366
1831.000000 0.8399 0.8430 0.8461 0.8491 0.8512
1836.000000 0.8530 0.8550 0.8568 0.8587 0.8606
1841.000000 0.8624 0.8637 0.8649 0.8661 0.8673
1846.000000 0.8685 0.8697 0.8708 0.8719 0.8724
1851.000000 0.8729 0.8734 0.8739 0.8743 0.8749
1856.000000 0.8754 0.8758 0.8763 0.8767 0.8767
1861.000000 0.8769 0.8770 0.8772 0.8772 0.8774
1866.000000 0.8806 0.8776 0.8777 0.8775 0.8773
1871.000000 0.8771 0.8769 0.8767 0.8765 0.8762
1876.000000 0.8757 0.8751 0.8744 0.8736 0.8728
1881.000000 0.8721 0.8714 0.8704 0.8693 0.8680
1886.000000 0.8667 0.8654 0.8641 0.8628 0.8615
1891.000000 0.8601 0.8586 0.8570 0.8554 0.8538
1896.000000 0.8523 0.8507 0.8496 0.8485 0.8476
1901.000000 0.8472 0.8447 0.8472 0.8472 0.8474
1906.000000 0.8477 0.8482 0.8499 0.8519 0.8543
1911.000000 0.8576 0.8607 0.8635 0.8657 0.8679
1916.000000 0.8701 0.8724 0.8741 0.8758 0.8774
1921.000000 0.8790 0.8802 0.8809 0.8812 0.8815
1926.000000 0.8818 0.8821 0.8824 0.8826 0.8830
1931.000000 0.8833 0.8837 0.8841 0.8845 0.8849
1936.000000 0.8857 0.8866 0.8876 0.8886 0.8897
1941.000000 0.8909 0.8921 0.8935 0.8951 0.8968
1946.000000 0.8986 0.9003 0.9019 0.9036 0.9053
1951.000000 0.9070 0.9086 0.9101 0.9111 0.9121
1956.000000 0.9130 0.9140 0.9149 0.9159 0.9168
1961.000000 0.9177 0.9187 0.9194 0.9200 0.9207
1966.000000 0.9213 0.9220 0.9226 0.9233 0.9239
1971.000000 0.9246 0.9252 0.9258 0.9265 0.9272
1976.000000 0.9279 0.9284 0.9288 0.9293 0.9297
1981.000000 0.9302 0.9305 0.9309 0.9314 0.9318
1986.000000 0.9323 0.9327 0.9331 0.9335 0.9340
1991.000000 0.9344 0.9348 0.9353 0.9356 0.9359
1996.000000 0.9361 0.9363 0.9365 0.9368 0.9371
2001.000000 0.9373 0.9375 0.9378 0.9392 0.9380
2006.000000 0.9380 0.9379 0.9379 0.9379 0.9378
2011.000000 0.9378 0.9377 0.9376 0.9376 0.9375
2016.000000 0.9375 0.9372 0.9370 0.9367 0.9365
2021.000000 0.9363 0.9360 0.9358 0.9355 0.9353
2026.000000 0.9350 0.9348 0.9345 0.9343 0.9341
2031.000000 0.9338 0.9336 0.9333 0.9331 0.9329
2036.000000 0.9326 0.9323 0.9320 0.9317 0.9314
2041.000000 0.9312 0.9309 0.9306 0.9304 0.9301
2046.000000 0.9298 0.9295 0.9292 0.9290 0.9287
2051.000000 0.9284 0.9281 0.9278 0.9276 0.9273
2056.000000 0.9269 0.9266 0.9263 0.9260 0.9256
2061.000000 0.9254 0.9250 0.9247 0.9244 0.9240
2066.000000 0.9237 0.9234 0.9231 0.9227 0.9225
2071.000000 0.9225 0.9226 0.9228 0.9229 0.9230
2076.000000 0.9232 0.9233 0.9234 0.9235 0.9237
2081.000000 0.9238 0.9240 0.9241 0.9242 0.9243
2086.000000 0.9245 0.9247 0.9249 0.9251 0.9253
2091.000000 0.9255 0.9257 0.9260 0.9262 0.9264
2096.000000 0.9266 0.9268 0.9270 0.9272 0.9275
2101.000000 0.9277 0.9278 0.9280 0.9282 0.9283
2106.000000 0.9284 0.9285 0.9287 0.9287 0.9288
2111.000000 0.9289 0.9290 0.9290 0.9291 0.9292
2116.000000 0.9293 0.9294 0.9295 0.9296 0.9297
2121.000000 0.9298 0.9298 0.9299 0.9300 0.9301
2126.000000 0.9302 0.9302 0.9303 0.9303 0.9304
2131.000000 0.9304 0.9304 0.9304 0.9305 0.9305
2136.000000 0.9305 0.9306 0.9306 0.9307 0.9307
2141.000000 0.9307 0.9307 0.9308 0.9308 0.9309
2146.000000 0.9309 0.9309 0.9310 0.9310 0.9311
2151.000000 0.9311 0.9311 0.9311 0.9312 0.9312
2156.000000 0.9313 0.9313 0.9313 0.9314 0.9314
2161.000000 0.9315 0.9315 0.9316 0.9316 0.9317
2166.000000 0.9318 0.9319 0.9320 0.9321 0.9321
2171.000000 0.9322 0.9323 0.9324 0.9325 0.9326
2176.000000 0.9327 0.9328 0.9329 0.9329 0.9330
2181.000000 0.9331 0.9332 0.9332 0.9333 0.9334
2186.000000 0.9335 0.9336 0.9337 0.9337 0.9338
2191.000000 0.9339 0.9340 0.9341 0.9342 0.9343
2196.000000 0.9344 0.9345 0.9345 0.9346 0.9347
2201.000000 0.9348 0.9349 0.9350 0.9350 0.9351
2206.000000 0.9352 0.9353 0.9354 0.9355 0.9356
2211.000000 0.9357 0.9357 0.9358 0.9359 0.9360
2216.000000 0.9361 0.9362 0.9363 0.9364 0.9364
2221.000000 0.9365 0.9366 0.9367 0.9368 0.9369
2226.000000 0.9369 0.9370 0.9371 0.9372 0.9373
2231.000000 0.9374 0.9375 0.9376 0.9376 0.9377
2236.000000 0.9378 0.9379 0.9379 0.9380 0.9381
2241.000000 0.9382 0.9383 0.9384 0.9384 0.9385
2246.000000 0.9386 0.9387 0.9388 0.9389 0.9389
2251.000000 0.9390 0.9391 0.9392 0.9393 0.9394
2256.000000 0.9394 0.9395 0.9396 0.9397 0.9398
2261.000000 0.9399 0.9399 0.9400 0.9401 0.9401
2266.000000 0.9401 0.9400 0.9399 0.9398 0.9397
2271.000000 0.9396 0.9395 0.9394 0.9393 0.9392
2276.000000 0.9391 0.9390 0.9389 0.9388 0.9387
2281.000000 0.9387 0.9385 0.9384 0.9383 0.9382
2286.000000 0.9381 0.9380 0.9379 0.9378 0.9377
2291.000000 0.9375 0.9374 0.9372 0.9370 0.9368
2296.000000 0.9366 0.9364 0.9362 0.9360 0.9358
2301.000000 0.9356 0.9355 0.9353 0.9352 0.9350
2306.000000 0.9348 0.9346 0.9344 0.9342 0.9341
2311.000000 0.9339 0.9337 0.9335 0.9333 0.9331
2316.000000 0.9330 0.9328 0.9327 0.9325 0.9323
2321.000000 0.9321 0.9319 0.9317 0.9315 0.9314
2326.000000 0.9311 0.9309 0.9306 0.9304 0.9301
2331.000000 0.9299 0.9297 0.9294 0.9292 0.9290
2336.000000 0.9288 0.9285 0.9283 0.9281 0.9278
2341.000000 0.9276 0.9274 0.9272 0.9269 0.9266
2346.000000 0.9264 0.9263 0.9262 0.9261 0.9260
2351.000000 0.9259 0.9257 0.9256 0.9255 0.9253
2356.000000 0.9252 0.9251 0.9250 0.9249 0.9247
2361.000000 0.9246 0.9245 0.9243 0.9242 0.9241
2366.000000 0.9239 0.9238 0.9238 0.9239 0.9240
2371.000000 0.9241 0.9242 0.9242 0.9243 0.9245
2376.000000 0.9246 0.9247 0.9248 0.9249 0.9250
2381.000000 0.9251 0.9251 0.9252 0.9252 0.9251
2386.000000 0.9250 0.9248 0.9246 0.9244 0.9243
2391.000000 0.9241 0.9239 0.9237 0.9236 0.9234
2396.000000 0.9232 0.9230 0.9229 0.9228 0.9226
2401.000000 0.9224 0.9222 0.9218 0.9215 0.9211
2406.000000 0.9206 0.9202 0.9197 0.9192 0.9187
2411.000000 0.9183 0.9178 0.9173 0.9169 0.9164
2416.000000 0.9161 0.9157 0.9154 0.9152 0.9150
2421.000000 0.9148 0.9146 0.9143 0.9141 0.9139
2426.000000 0.9137 0.9135 0.9133 0.9131 0.9130
2431.000000 0.9131 0.9133 0.9134 0.9136 0.9137
2436.000000 0.9139 0.9140 0.9141 0.9142 0.9145
2441.000000 0.9147 0.9150 0.9153 0.9156 0.9159
2446.000000 0.9162 0.9165 0.9169 0.9172 0.9175
2451.000000 0.9178 0.9180 0.9182 0.9184 0.9185
2456.000000 0.9187 0.9189 0.9191 0.9193 0.9195
2461.000000 0.9197 0.9199 0.9201 0.9203 0.9206
2466.000000 0.9208 0.9210 0.9212 0.9214 0.9216
2471.000000 0.9218 0.9219 0.9221 0.9221 0.9222
2476.000000 0.9223 0.9224 0.9225 0.9226 0.9226
2481.000000 0.9227 0.9228 0.9229 0.9230 0.9230
2486.000000 0.9231 0.9232 0.9233 0.9234 0.9234
2491.000000 0.9235 0.9235 0.9236 0.9237 0.9237
2496.000000 0.9238 0.9239 0.9239 0.9239 0.9239
2501.000000 0.9238 0.9238 0.9237 0.9237 0.9237
2506.000000 0.9236 0.9236 0.9235 0.9235 0.9235
2511.000000 0.9234 0.9234 0.9232 0.9230 0.9228
2516.000000 0.9225 0.9223 0.9221 0.9218 0.9216
2521.000000 0.9214 0.9211 0.9209 0.9206 0.9204
2526.000000 0.9202 0.9199 0.9197 0.9194 0.9191
2531.000000 0.9189 0.9185 0.9182 0.9179 0.9176
2536.000000 0.9173 0.9170 0.9167 0.9164 0.9161
2541.000000 0.9157 0.9154 0.9151 0.9148 0.9144
2546.000000 0.9141 0.9138 0.9135 0.9132 0.9129
2551.000000 0.9126 0.9122 0.9118 0.9114 0.9110
2556.000000 0.9106 0.9103 0.9099 0.9095 0.9092
2561.000000 0.9088 0.9085 0.9081 0.9077 0.9073
2566.000000 0.9069 0.9066 0.9063 0.9060 0.9058
2571.000000 0.9057 0.9057 0.9056 0.9055 0.9054
2576.000000 0.9053 0.9053 0.9052 0.9051 0.9050
2581.000000 0.9050 0.9049 0.9048 0.9047 0.9046
2586.000000 0.9046 0.9047 0.9048 0.9048 0.9048
2591.000000 0.9049 0.9049 0.9050 0.9051 0.9051
2596.000000 0.9051 0.9052 0.9053 0.9054 0.9054
2601.000000 0.9055 0.9056 0.9056 0.9056 0.9057
2606.000000 0.9058 0.9059 0.9059 0.9060 0.9061
2611.000000 0.9062 0.9062 0.9063 0.9064 0.9064
2616.000000 0.9066 0.9067 0.9068 0.9068 0.9069
2621.000000 0.9070 0.9071 0.9072 0.9073 0.9074
2626.000000 0.9075 0.9076 0.9077 0.9078 0.9079
2631.000000 0.9080 0.9081 0.9082 0.9083 0.9084
2636.000000 0.9085 0.9085 0.9086 0.9086 0.9086
2641.000000 0.9086 0.9085 0.9084 0.9084 0.9084
2646.000000 0.9083 0.9082 0.9082 0.9081 0.9081
2651.000000 0.9081 0.9080 0.9080 0.9079 0.9079
2656.000000 0.9078 0.9077 0.9077 0.9077 0.9076
2661.000000 0.9075 0.9075 0.9074 0.9074 0.9074
2666.000000 0.9073 0.9072 0.9072 0.9071 0.9071
2671.000000 0.9070 0.9070 0.9069 0.9068 0.9068
2676.000000 0.9068 0.9067 0.9066 0.9065 0.9064
2681.000000 0.9062 0.9061 0.9059 0.9058 0.9056
2686.000000 0.9054 0.9053 0.9051 0.9049 0.9048
2691.000000 0.9047 0.9045 0.9043 0.9041 0.9040
2696.000000 0.9039 0.9037 0.9036 0.9034 0.9032
2701.000000 0.9030 0.9029 0.9027 0.9025 0.9024
2706.000000 0.9021 0.9019 0.9016 0.9013 0.9011
2711.000000 0.9008 0.9005 0.9003 0.9001 0.8998
2716.000000 0.8995 0.8993 0.8990 0.8987 0.8984
2721.000000 0.8981 0.8977 0.8974 0.8969 0.8963
2726.000000 0.8958 0.8952 0.8947 0.8941 0.8936
2731.000000 0.8930 0.8925 0.8919 0.8913 0.8908
2736.000000 0.8902 0.8897 0.8892 0.8886 0.8880
2741.000000 0.8874 0.8867 0.8859 0.8851 0.8844
2746.000000 0.8837 0.8829 0.8822 0.8814 0.8807
2751.000000 0.8799 0.8792 0.8785 0.8777 0.8770
2756.000000 0.8763 0.8755 0.8747 0.8739 0.8729
2761.000000 0.8718 0.8707 0.8696 0.8686 0.8675
2766.000000 0.8662 0.8646 0.8631 0.8615 0.8599
2771.000000 0.8583 0.8566 0.8550 0.8534 0.8518
2776.000000 0.8501 0.8485 0.8469 0.8453 0.8437
2781.000000 0.8420 0.8404 0.8388 0.8372 0.8353
2786.000000 0.8334 0.8315 0.8293 0.8271 0.8249
2791.000000 0.8228 0.8206 0.8185 0.8163 0.8141
2796.000000 0.8120 0.8100 0.8082 0.8064 0.8047
2801.000000 0.8029 0.8012 0.7994 0.7977 0.7959
2806.000000 0.7942 0.7924 0.7907 0.7889 0.7872
2811.000000 0.7854 0.7837 0.7807 0.7774 0.7741
2816.000000 0.7708 0.7676 0.7643 0.7614 0.7586
2821.000000 0.7559 0.7535 0.7520 0.7504 0.7488
2826.000000 0.7472 0.7456 0.7440 0.7425 0.7409
2831.000000 0.7394 0.7378 0.7362 0.7347 0.7331
2836.000000 0.7316 0.7300 0.7285 0.7269 0.7254
2841.000000 0.7238 0.7223 0.7207 0.7192 0.7171
2846.000000 0.7149 0.7128 0.7106 0.7084 0.7062
2851.000000 0.7040 0.7018 0.6996 0.6974 0.6952
2856.000000 0.6930 0.6909 0.6887 0.6865 0.6843
2861.000000 0.6819 0.6794 0.6768 0.6740 0.6708
2866.000000 0.6676 0.6644 0.6611 0.6579 0.6547
2871.000000 0.6515 0.6483 0.6451 0.6415 0.6374
2876.000000 0.6334 0.6292 0.6246 0.6200 0.6154
2881.000000 0.6096 0.6036 0.5975 0.5894 0.5791
2886.000000 0.5688 0.5585 0.5482 0.5378 0.5275
2891.000000 0.5173 0.5070 0.4968 0.4865 0.4763
2896.000000 0.4661 0.4558 0.4456 0.4354 0.4252
2901.000000 0.4175 0.4105 0.4035 0.3985 0.3965
2906.000000 0.3945 0.3925 0.3908 0.3890 0.3873
2911.000000 0.3857 0.3843 0.3828 0.3814 0.3800
2916.000000 0.3785 0.3771 0.3756 0.3742 0.3728
2921.000000 0.3713 0.3698 0.3684 0.3669 0.3649
2926.000000 0.3630 0.3610 0.3591 0.3571 0.3552
2931.000000 0.3532 0.3513 0.3493 0.3474 0.3455
2936.000000 0.3437 0.3419 0.3400 0.3382 0.3363
2941.000000 0.3345 0.3326 0.3308 0.3289 0.3270
2946.000000 0.3249 0.3228 0.3207 0.3186 0.3165
2951.000000 0.3144 0.3124 0.3107 0.3089 0.3072
2956.000000 0.3058 0.3044 0.3030 0.3016 0.3002
2961.000000 0.2988 0.2975 0.2960 0.2946 0.2932
2966.000000 0.2918 0.2903 0.2889 0.2874 0.2856
2971.000000 0.2837 0.2819 0.2789 0.2739 0.2690
2976.000000 0.2640 0.2607 0.2577 0.2547 0.2519
2981.000000 0.2492 0.2466 0.2439 0.2412 0.2384
2986.000000 0.2356 0.2327 0.2295 0.2263 0.2230
2991.000000 0.2195 0.2156 0.2117 0.2079 0.2043
2996.000000 0.2007 0.1971 0.1943 0.1926 0.1909
3001.000000 0.1892 0.1886 0.1883 0.1879 0.1876
3006.000000 0.1875 0.1873 0.1872 0.1872 0.1872
3011.000000 0.1872 0.1872 0.1861 0.1877 0.1879
3016.000000 0.1897 0.1950 0.2002 0.2055 0.2114
3021.000000 0.2177 0.2239 0.2302 0.2365 0.2428
3026.000000 0.2491 0.2553 0.2616 0.2678 0.2741
3031.000000 0.2803 0.2866 0.2928 0.2991 0.3053
3036.000000 0.3115 0.3178 0.3240 0.3302 0.3364
3041.000000 0.3426 0.3488 0.3550 0.3612 0.3674
3046.000000 0.3736 0.3798 0.3859 0.3921 0.3983
3051.000000 0.4045 0.4106 0.4168 0.4229 0.4291
3056.000000 0.4352 0.4414 0.4475 0.4537 0.4598
3061.000000 0.4659 0.4720 0.4781 0.4842 0.4903
3066.000000 0.4965 0.5026 0.5087 0.5148 0.5208
3071.000000 0.5269 0.5330 0.5391 0.5452 0.5513
3076.000000 0.5573 0.5634 0.5695 0.5755 0.5816
3081.000000 0.5876 0.5936 0.5973 0.5974 0.5975
3086.000000 0.5976 0.5977 0.5978 0.5979 0.5980
3091.000000 0.5981 0.5982 0.5983 0.5984 0.5986
3096.000000 0.5987 0.5988 0.5990 0.5991 0.5993
3101.000000 0.5994 0.5999 0.6011 0.6024 0.6036
3106.000000 0.6071 0.6137 0.6203 0.6269 0.6335
3111.000000 0.6400 0.6466 0.6532 0.6598 0.6664
3116.000000 0.6730 0.6796 0.6861 0.6927 0.6993
3121.000000 0.7058 0.7124 0.7189 0.7255 0.7321
3126.000000 0.7386 0.7451 0.7516 0.7581 0.7646
3131.000000 0.7711 0.7776 0.7841 0.7907 0.7972
3136.000000 0.8037 0.8102 0.8167 0.8231 0.8296
3141.000000 0.8357 0.8411 0.8464 0.8518 0.8557
3146.000000 0.8572 0.8586 0.8601 0.8614 0.8625
3151.000000 0.8637 0.8648 0.8657 0.8663 0.8668
3156.000000 0.8674 0.8680 0.8686 0.8692 0.8697
3161.000000 0.8703 0.8709 0.8715 0.8721 0.8727
3166.000000 0.8733 0.8739 0.8744 0.8750 0.8755
3171.000000 0.8760 0.8765 0.8770 0.8775 0.8780
3176.000000 0.8785 0.8789 0.8794 0.8799 0.8803
3181.000000 0.8808 0.8813 0.8818 0.8823 0.8828
3186.000000 0.8833 0.8837 0.8842 0.8847 0.8853
3191.000000 0.8859 0.8865 0.8870 0.8877 0.8883
3196.000000 0.8890 0.8896 0.8903 0.8909 0.8916
3201.000000 0.8922 0.8931 0.8940 0.8949 0.8957
3206.000000 0.8964 0.8970 0.8976 0.8982 0.8985
3211.000000 0.8987 0.8990 0.8992 0.8994 0.8996
3216.000000 0.8998 0.9000 0.9001 0.9003 0.9005
3221.000000 0.9007 0.9009 0.9011 0.9013 0.9015
3226.000000 0.9017 0.9017 0.9017 0.9017 0.9018
3231.000000 0.9018 0.9018 0.9018 0.9018 0.9019
3236.000000 0.9019 0.9019 0.9019 0.9020 0.9020
3241.000000 0.9020 0.9020 0.9020 0.9020 0.9020
3246.000000 0.9020 0.9021 0.9021 0.9021 0.9021
3251.000000 0.9021 0.9021 0.9021 0.9021 0.9021
3256.000000 0.9020 0.9020 0.9020 0.9020 0.9019
3261.000000 0.9019 0.9019 0.9019 0.9018 0.9018
3266.000000 0.9017 0.9017 0.9016 0.9016 0.9016
3271.000000 0.9016 0.9016 0.9019 0.9015 0.9015
3276.000000 0.9015 0.9014 0.9014 0.9013 0.9013
3281.000000 0.9012 0.9012 0.9012 0.9012 0.9012
3286.000000 0.9011 0.9010 0.9010 0.9009 0.9008
3291.000000 0.9007 0.9006 0.9005 0.9004 0.9003
3296.000000 0.9002 0.9002 0.9001 0.9000 0.8999
3301.000000 0.8998 0.8997 0.8996 0.8995 0.8994
3306.000000 0.8993 0.8992 0.8992 0.8991 0.8990
3311.000000 0.8990 0.8988 0.8987 0.8985 0.8984
3316.000000 0.8982 0.8979 0.8977 0.8975 0.8973
3321.000000 0.8970 0.8968 0.8965 0.8963 0.8960
3326.000000 0.8958 0.8956 0.8954 0.8951 0.8948
3331.000000 0.8945 0.8942 0.8939 0.8935 0.8930
3336.000000 0.8926 0.8921 0.8917 0.8912 0.8908
3341.000000 0.8903 0.8899 0.8891 0.8883 0.8875
3346.000000 0.8867 0.8858 0.8847 0.8836 0.8825
3351.000000 0.8814 0.8803 0.8792 0.8781 0.8770
3356.000000 0.8759 0.8748 0.8738 0.8727 0.8716
3361.000000 0.8705 0.8695 0.8684 0.8673 0.8663
3366.000000 0.8652 0.8641 0.8630 0.8619 0.8608
3371.000000 0.8598 0.8587 0.8576 0.8565 0.8554
3376.000000 0.8543 0.8532 0.8521 0.8510 0.8499
3381.000000 0.8488 0.8477 0.8466 0.8454 0.8442
3386.000000 0.8431 0.8419 0.8406 0.8391 0.8376
3391.000000 0.8361 0.8346 0.8332 0.8317 0.8303
3396.000000 0.8288 0.8274 0.8259 0.8244 0.8229
3401.000000 0.8214 0.8199 0.8183 0.8167 0.8152
3406.000000 0.8136 0.8121 0.8105 0.8090 0.8074
3411.000000 0.8059 0.8044 0.8028 0.8013 0.7997
3416.000000 0.7980 0.7961 0.7943 0.7924 0.7906
3421.000000 0.7886 0.7865 0.7845 0.7825 0.7805
3426.000000 0.7784 0.7764 0.7744 0.7724 0.7708
3431.000000 0.7695 0.7681 0.7668 0.7654 0.7641
3436.000000 0.7628 0.7614 0.7601 0.7588 0.7574
3441.000000 0.7561 0.7548 0.7534 0.7511 0.7477
3446.000000 0.7443 0.7408 0.7374 0.7324 0.7267
3451.000000 0.7211 0.7154 0.7098 0.7041 0.6985
3456.000000 0.6929 0.6872 0.6816 0.6760 0.6704
3461.000000 0.6648 0.6591 0.6535 0.6479 0.6423
3466.000000 0.6367 0.6311 0.6255 0.6199 0.6144
3471.000000 0.6088 0.6032 0.5976 0.5920 0.5865
3476.000000 0.5809 0.5753 0.5698 0.5642 0.5587
3481.000000 0.5531 0.5476 0.5420 0.5365 0.5309
3486.000000 0.5254 0.5199 0.5143 0.5088 0.5033
3491.000000 0.4978 0.4923 0.4867 0.4812 0.4757
3496.000000 0.4702 0.4648 0.4593 0.4539 0.4485
3501.000000 0.4430 0.4409 0.4410 0.4411 0.4411
3506.000000 0.4412 0.4413 0.4414 0.4415 0.4415
3511.000000 0.4416 0.4388 0.4418 0.4418 0.4419
3516.000000 0.4419 0.4517 0.4634 0.4752 0.4869
3521.000000 0.4987 0.5122 0.5260 0.5398 0.5537
3526.000000 0.5675 0.5813 0.5951 0.6089 0.6226
3531.000000 0.6364 0.6502 0.6639 0.6776 0.6914
3536.000000 0.7051 0.7197 0.7343 0.7489 0.7635
3541.000000 0.7781 0.7820 0.7849 0.7879 0.7908
3546.000000 0.7938 0.7998 0.8062 0.8126 0.8190
3551.000000 0.8254 0.8280 0.8300 0.8320 0.8341
3556.000000 0.8361 0.8380 0.8400 0.8419 0.8438
3561.000000 0.8458 0.8474 0.8490 0.8506 0.8521
3566.000000 0.8537 0.8552 0.8565 0.8579 0.8593
3571.000000 0.8607 0.8619 0.8629 0.8640 0.8650
3576.000000 0.8661 0.8670 0.8679 0.8688 0.8696
3581.000000 0.8705 0.8713 0.8722 0.8730 0.8738
3586.000000 0.8747 0.8754 0.8758 0.8762 0.8766
3591.000000 0.8770 0.8774 0.8778 0.8782 0.8786
3596.000000 0.8790 0.8794 0.8798 0.8802 0.8806
3601.000000 0.8809 0.8813 0.8817 0.8819 0.8822
3606.000000 0.8825 0.8828 0.8830 0.8832 0.8833
3611.000000 0.8835 0.8836 0.8838 0.8840 0.8841
3616.000000 0.8843 0.8845 0.8847 0.8848 0.8850
3621.000000 0.8852 0.8853 0.8855 0.8857 0.8858
3626.000000 0.8860 0.8861 0.8863 0.8864 0.8866
3631.000000 0.8868 0.8870 0.8871 0.8873 0.8874
3636.000000 0.8876 0.8877 0.8878 0.8879 0.8880
3641.000000 0.8881 0.8882 0.8883 0.8884 0.8885
3646.000000 0.8886 0.8887 0.8888 0.8889 0.8890
3651.000000 0.8891 0.8892 0.8893 0.8894 0.8896
3656.000000 0.8896 0.8897 0.8898 0.8899 0.8900
3661.000000 0.8901 0.8902 0.8902 0.8903 0.8904
3666.000000 0.8905 0.8905 0.8906 0.8906 0.8907
3671.000000 0.8907 0.8908 0.8908 0.8909 0.8909
3676.000000 0.8909 0.8910 0.8910 0.8910 0.8911
3681.000000 0.8911 0.8912 0.8912 0.8912 0.8913
3686.000000 0.8913 0.8913 0.8914 0.8914 0.8914
3691.000000 0.8915 0.8915 0.8916 0.8916 0.8917
3696.000000 0.8917 0.8918 0.8918 0.8923 0.8919
3701.000000 0.8920 0.8920 0.8920 0.8921 0.8921
3706.000000 0.8921 0.8922 0.8922 0.8922 0.8923
3711.000000 0.8923 0.8924 0.8924 0.8924 0.8925
3716.000000 0.8925 0.8925 0.8925 0.8925 0.8925
3721.000000 0.8926 0.8926 0.8926 0.8926 0.8926
3726.000000 0.8927 0.8927 0.8927 0.8927 0.8927
3731.000000 0.8927 0.8928 0.8928 0.8928 0.8929
3736.000000 0.8929 0.8930 0.8930 0.8930 0.8930
3741.000000 0.8930 0.8930 0.8931 0.8931 0.8931
3746.000000 0.8931 0.8931 0.8931 0.8932 0.8932
3751.000000 0.8933 0.8933 0.8933 0.8934 0.8934
3756.000000 0.8934 0.8934 0.8934 0.8934 0.8935
3761.000000 0.8935 0.8935 0.8935 0.8935 0.8935
3766.000000 0.8936 0.8936 0.8937 0.8937 0.8937
3771.000000 0.8938 0.8938 0.8938 0.8938 0.8938
3776.000000 0.8938 0.8939 0.8939 0.8939 0.8939
3781.000000 0.8939 0.8939 0.8938 0.8938 0.8938
3786.000000 0.8938 0.8938 0.8938 0.8938 0.8938
3791.000000 0.8938 0.8938 0.8938 0.8938 0.8938
3796.000000 0.8938 0.8938 0.8938 0.8938 0.8938
3801.000000 0.8938 0.8938 0.8938 0.8938 0.8938
3806.000000 0.8937 0.8937 0.8937 0.8937 0.8937
3811.000000 0.8937 0.8937 0.8937 0.8937 0.8937
3816.000000 0.8937 0.8937 0.8937 0.8937 0.8937
3821.000000 0.8937 0.8937 0.8937 0.8937 0.8937
3826.000000 0.8937 0.8937 0.8937 0.8936 0.8936
3831.000000 0.8936 0.8936 0.8936 0.8936 0.8935
3836.000000 0.8935 0.8935 0.8935 0.8935 0.8935
3841.000000 0.8934 0.8933 0.8933 0.8932 0.8931
3846.000000 0.8931 0.8930 0.8930 0.8929 0.8929
3851.000000 0.8928 0.8928 0.8927 0.8927 0.8926
3856.000000 0.8926 0.8925 0.8925 0.8924 0.8924
3861.000000 0.8923 0.8922 0.8922 0.8921 0.8921
3866.000000 0.8920 0.8920 0.8919 0.8919 0.8918
3871.000000 0.8918 0.8917 0.8917 0.8916 0.8916
3876.000000 0.8915 0.8915 0.8914 0.8914 0.8913
3881.000000 0.8913 0.8912 0.8912 0.8911 0.8911
3886.000000 0.8911 0.8910 0.8910 0.8909 0.8908
3891.000000 0.8908 0.8907 0.8906 0.8906 0.8905
3896.000000 0.8905 0.8904 0.8904 0.8903 0.8903
3901.000000 0.8902 0.8902 0.8901 0.8901 0.8900
3906.000000 0.8900 0.8899 0.8898 0.8898 0.8897
3911.000000 0.8896 0.8896 0.8895 0.8894 0.8893
3916.000000 0.8893 0.8892 0.8891 0.8890 0.8889
3921.000000 0.8888 0.8888 0.8887 0.8886 0.8885
3926.000000 0.8884 0.8883 0.8882 0.8881 0.8880
3931.000000 0.8879 0.8879 0.8878 0.8877 0.8876
3936.000000 0.8875 0.8875 0.8874 0.8873 0.8872
3941.000000 0.8871 0.8870 0.8870 0.8869 0.8868
3946.000000 0.8867 0.8866 0.8865 0.8864 0.8863
3951.000000 0.8862 0.8861 0.8861 0.8860 0.8859
3956.000000 0.8858 0.8857 0.8857 0.8856 0.8855
3961.000000 0.8854 0.8853 0.8853 0.8852 0.8851
3966.000000 0.8850 0.8849 0.8848 0.8847 0.8846
3971.000000 0.8845 0.8845 0.8844 0.8843 0.8842
3976.000000 0.8841 0.8841 0.8840 0.8839 0.8838
3981.000000 0.8837 0.8836 0.8836 0.8835 0.8834
3986.000000 0.8833 0.8832 0.8831 0.8830 0.8828
3991.000000 0.8827 0.8826 0.8825 0.8824 0.8823
3996.000000 0.8822 0.8821 0.8820 0.8819 0.8819
##END=
