##TITLE=RAW SIENNA
##JCAMP-DX=4.24
##DATA TYPE=INFRARED SPECTRUM
##CLASS=COBLENTZ
##ORIGIN=DESOTO CHEMICAL COATINGS, INC.
##OWNER=COBLENTZ SOCIETY
Collection (C) 2018 copyright by the U.S. Secretary of Commerce
on behalf of the United States of America. All rights reserved.
##DATE=Not specified, most likely prior to 1970
##MOLFORM=O3 Fe2
$$ Fe2O3 49-50%, SILICATES 45%
##SOURCE REFERENCE=COBLENTZ NO. 4679
##$NIST ID=B6004679
##$NIST SOURCE=COBLENTZ
##$NIST IMAGE=cob4679
##SPECTROMETER/DATA SYSTEM=Not specified, most likely a grating spectrometer.
##STATE=SOLID (1 mg / 300 mg CsI PELLET)
##SAMPLING PROCEDURE=TRANSMISSION
##RESOLUTION=4
##DATA PROCESSING=DIGITIZED BY NIST FROM HARD COPY (FROM TWO SEGMENTS)
##XUNITS=1/CM
##YUNITS=TRANSMITTANCE
##XFACTOR=1.000000
##YFACTOR=1
##DELTAX=1.332347
##FIRSTX=198.668
##LASTX=3982.53
##FIRSTY=0.922
##MAXX=3982.53
##MINX=198.668
##MAXY=0.969
##MINY=0.12
##NPOINTS=2841
##XYDATA=(X++(Y..Y))
198.668000 0.9220 0.9220 0.9210 0.9210 0.9220
205.329737 0.9220 0.9220 0.9210 0.9210 0.9220
211.991474 0.9230 0.9230 0.9250 0.9250 0.9260
218.653211 0.9290 0.9290 0.9290 0.9310 0.9370
225.314948 0.9410 0.9430 0.9450 0.9490 0.9510
231.976685 0.9530 0.9540 0.9570 0.9590 0.9610
238.638422 0.9620 0.9650 0.9660 0.9670 0.9690
245.300158 0.9690 0.9670 0.9660 0.9630 0.9630
251.961895 0.9620 0.9590 0.9580 0.9550 0.9530
258.623632 0.9490 0.9490 0.9470 0.9430 0.9351
265.285369 0.9260 0.9220 0.9010 0.8860 0.8700
271.947106 0.8511 0.8221 0.7862 0.7542 0.7083
278.608843 0.6560 0.6430 0.6290 0.6200 0.6140
285.270580 0.6090 0.6000 0.5900 0.5880 0.5810
291.932317 0.5800 0.5800 0.5800 0.5800 0.5800
298.594054 0.5810 0.5880 0.5920 0.5940 0.5960
305.255791 0.5980 0.6000 0.6040 0.6080 0.6140
311.917528 0.6250 0.6350 0.6400 0.6480 0.6520
318.579265 0.6610 0.6710 0.6750 0.6790 0.6810
325.241002 0.6830 0.6840 0.6890 0.6920 0.6930
331.902739 0.6960 0.6970 0.6970 0.6960 0.6930
338.564475 0.6890 0.6890 0.6870 0.6830 0.6711
345.226212 0.6690 0.6600 0.6550 0.6450 0.6370
351.887949 0.6290 0.6240 0.6210 0.6200 0.6180
358.549686 0.6180 0.6170 0.6160 0.6130 0.6120
365.211423 0.6090 0.6020 0.5980 0.5940 0.5841
371.873160 0.5720 0.5600 0.5490 0.5400 0.5290
378.534897 0.5250 0.5210 0.5180 0.5170 0.5140
385.196634 0.5120 0.5100 0.5090 0.5080 0.5050
391.858371 0.5010 0.4900 0.4781 0.4472 0.4301
398.520108 0.4130 0.3940 0.3770 0.3590 0.3420
405.181845 0.3320 0.3220 0.3121 0.2981 0.2821
411.843582 0.2720 0.2700 0.2640 0.2540 0.2480
418.505319 0.2470 0.2370 0.2241 0.2190 0.2150
425.167056 0.2130 0.2110 0.2090 0.2050 0.2030
431.828792 0.2010 0.2000 0.2000 0.2010 0.2030
438.490529 0.2070 0.2120 0.2170 0.2190 0.2200
445.152266 0.2210 0.2230 0.2240 0.2250 0.2250
451.814003 0.2230 0.2190 0.2130 0.2080 0.2040
458.475740 0.1960 0.1880 0.1761 0.1631 0.1560
465.137477 0.1430 0.1390 0.1310 0.1240 0.1200
471.799214 0.1200 0.1270 0.1320 0.1400 0.1509
478.460951 0.1600 0.1800 0.1990 0.2120 0.2210
485.122688 0.2290 0.2410 0.2500 0.2619 0.2779
491.784425 0.2880 0.2980 0.3020 0.3100 0.3120
498.446162 0.3180 0.3230 0.3280 0.3340 0.3390
505.107899 0.3420 0.3500 0.3540 0.3580 0.3640
511.769636 0.3710 0.3720 0.3740 0.3720 0.3710
518.431373 0.3700 0.3640 0.3590 0.3540 0.3500
525.093109 0.3400 0.3241 0.3190 0.3081 0.2991
531.754846 0.2880 0.2790 0.2720 0.2710 0.2700
538.416583 0.2710 0.2740 0.2780 0.2820 0.2900
545.078320 0.3000 0.3190 0.3300 0.3460 0.3580
551.740057 0.3670 0.3750 0.3790 0.3830 0.3890
558.401794 0.3930 0.3980 0.4020 0.4130 0.4150
565.063531 0.4190 0.4220 0.4300 0.4330 0.4390
571.725268 0.4430 0.4490 0.4500 0.4530 0.4540
578.387005 0.4590 0.4610 0.4650 0.4700 0.4700
585.048742 0.4710 0.4710 0.4730 0.4730 0.4730
591.710479 0.4740 0.4750 0.4750 0.4770 0.4780
598.372216 0.4780 0.4790 0.4790 0.4810 0.4820
605.033953 0.4820 0.4820 0.4830 0.4850 0.4890
611.695690 0.4980 0.5040 0.5060 0.5120 0.5200
618.357426 0.5240 0.5290 0.5399 0.5490 0.5530
625.019163 0.5580 0.5610 0.5660 0.5730 0.5840
631.680900 0.5900 0.6010 0.6090 0.6130 0.6200
638.342637 0.6270 0.6320 0.6360 0.6430 0.6510
645.004374 0.6520 0.6560 0.6600 0.6640 0.6680
651.666111 0.6710 0.6710 0.6690 0.6690 0.6690
658.327848 0.6710 0.6720 0.6710 0.6690 0.6690
664.989585 0.6690 0.6690 0.6690 0.6650 0.6640
671.651322 0.6630 0.6610 0.6630 0.6640 0.6640
678.313059 0.6650 0.6670 0.6680 0.6680 0.6690
684.974796 0.6690 0.6690 0.6710 0.6710 0.6710
691.636533 0.6690 0.6680 0.6670 0.6650 0.6640
698.298270 0.6630 0.6630 0.6610 0.6610 0.6630
704.960006 0.6670 0.6720 0.6750 0.6800 0.6840
711.621743 0.7000 0.7120 0.7269 0.7389 0.7519
718.283480 0.7630 0.7700 0.7760 0.7870 0.7920
724.945217 0.7950 0.8000 0.8020 0.8030 0.8060
731.606954 0.8100 0.8110 0.8120 0.8140 0.8150
738.268691 0.8150 0.8150 0.8120 0.8070 0.8040
744.930428 0.8020 0.7990 0.7960 0.7950 0.7940
751.592165 0.7880 0.7760 0.7740 0.7700 0.7660
758.253902 0.7620 0.7600 0.7560 0.7520 0.7510
764.915639 0.7510 0.7500 0.7480 0.7440 0.7410
771.577376 0.7370 0.7320 0.7270 0.7210 0.7130
778.239113 0.7030 0.6970 0.6920 0.6711 0.6640
784.900850 0.6600 0.6560 0.6490 0.6410 0.6330
791.562587 0.6240 0.6170 0.6060 0.6020 0.5921
798.224323 0.5860 0.5820 0.5820 0.5850 0.5920
804.886060 0.5930 0.5970 0.6020 0.6100 0.6279
811.547797 0.6430 0.6550 0.6710 0.6730 0.6760
818.209534 0.6840 0.6920 0.6970 0.7119 0.7229
824.871271 0.7270 0.7310 0.7400 0.7410 0.7440
831.533008 0.7500 0.7520 0.7560 0.7600 0.7600
838.194745 0.7630 0.7670 0.7710 0.7740 0.7760
844.856482 0.7780 0.7780 0.7780 0.7780 0.7790
851.518219 0.7800 0.7800 0.7790 0.7790 0.7780
858.179956 0.7750 0.7720 0.7710 0.7630 0.7600
864.841693 0.7540 0.7510 0.7440 0.7400 0.7330
871.503430 0.7280 0.7230 0.7091 0.6971 0.6910
878.165167 0.6730 0.6690 0.6570 0.6430 0.6330
884.826904 0.6240 0.6120 0.6001 0.5881 0.5850
891.488640 0.5700 0.5530 0.5440 0.5380 0.5290
898.150377 0.5200 0.5130 0.5050 0.4951 0.4861
904.812114 0.4820 0.4740 0.4700 0.4500 0.4420
911.473851 0.4340 0.4300 0.4230 0.4230 0.4270
918.135588 0.4350 0.4490 0.4550 0.4610 0.4809
924.797325 0.4999 0.5120 0.5259 0.5409 0.5490
931.459062 0.5530 0.5620 0.5690 0.5700 0.5720
938.120799 0.5800 0.5820 0.5890 0.5930 0.5980
944.782536 0.6020 0.6100 0.6130 0.6210 0.6240
951.444273 0.6320 0.6390 0.6400 0.6440 0.6450
958.106010 0.6450 0.6450 0.6450 0.6440 0.6410
964.767747 0.6400 0.6360 0.6320 0.6290 0.6201
971.429484 0.6120 0.6000 0.5850 0.5720 0.5610
978.091221 0.5500 0.5410 0.5301 0.5211 0.5041
984.752957 0.4940 0.4820 0.4710 0.4610 0.4450
991.414694 0.4221 0.4011 0.3900 0.3741 0.3621
998.076431 0.3480 0.3260 0.3060 0.2791 0.2561
1004.738168 0.2201 0.2011 0.1920 0.1811 0.1711
1011.399905 0.1680 0.1680 0.1720 0.1760 0.1800
1018.061642 0.1850 0.1930 0.1990 0.2040 0.2050
1024.723379 0.2050 0.2030 0.2010 0.1930 0.1810
1031.385116 0.1710 0.1610 0.1600 0.1590 0.1600
1038.046853 0.1650 0.1710 0.1810 0.1920 0.2030
1044.708590 0.2209 0.2280 0.2330 0.2559 0.2699
1051.370327 0.2830 0.2860 0.2960 0.3100 0.3160
1058.032064 0.3300 0.3320 0.3459 0.3520 0.3540
1064.693801 0.3590 0.3620 0.3660 0.3700 0.3710
1071.355538 0.3740 0.3750 0.3740 0.3720 0.3700
1078.017274 0.3660 0.3640 0.3600 0.3560 0.3520
1084.679011 0.3460 0.3430 0.3400 0.3380 0.3340
1091.340748 0.3260 0.3200 0.3160 0.3150 0.3110
1098.002485 0.3100 0.3080 0.3040 0.3000 0.3000
1104.664222 0.2980 0.2980 0.2990 0.3000 0.3060
1111.325959 0.3180 0.3349 0.3509 0.3709 0.3809
1117.987696 0.3990 0.4100 0.4330 0.4470 0.4610
1124.649433 0.4789 0.5019 0.5159 0.5299 0.5409
1131.311170 0.5540 0.5760 0.5810 0.5900 0.6020
1137.972907 0.6120 0.6200 0.6290 0.6429 0.6519
1144.634644 0.6590 0.6650 0.6750 0.6790 0.6810
1151.296381 0.6910 0.7000 0.7040 0.7130 0.7160
1157.958118 0.7200 0.7280 0.7320 0.7390 0.7410
1164.619854 0.7430 0.7470 0.7500 0.7520 0.7550
1171.281591 0.7600 0.7630 0.7700 0.7710 0.7780
1177.943328 0.7820 0.7840 0.7900 0.7940 0.8020
1184.605065 0.8070 0.8080 0.8140 0.8200 0.8260
1191.266802 0.8270 0.8310 0.8350 0.8390 0.8400
1197.928539 0.8420 0.8470 0.8510 0.8540 0.8580
1204.590276 0.8620 0.8640 0.8660 0.8670 0.8700
1211.252013 0.8740 0.8780 0.8810 0.8810 0.8820
1217.913750 0.8860 0.8870 0.8910 0.8930 0.8940
1224.575487 0.8970 0.8980 0.9010 0.9010 0.9010
1231.237224 0.9010 0.9020 0.9030 0.9030 0.9050
1237.898961 0.9070 0.9090 0.9100 0.9110 0.9110
1244.560698 0.9140 0.9140 0.9140 0.9140 0.9140
1251.222435 0.9150 0.9150 0.9180 0.9190 0.9190
1257.884171 0.9210 0.9210 0.9210 0.9210 0.9220
1264.545908 0.9220 0.9220 0.9250 0.9260 0.9270
1271.207645 0.9270 0.9270 0.9270 0.9290 0.9290
1277.869382 0.9290 0.9300 0.9310 0.9310 0.9310
1284.531119 0.9330 0.9330 0.9340 0.9340 0.9350
1291.192856 0.9350 0.9370 0.9370 0.9390 0.9390
1297.854593 0.9390 0.9390 0.9390 0.9390 0.9410
1304.516330 0.9410 0.9410 0.9410 0.9410 0.9410
1311.178067 0.9420 0.9420 0.9420 0.9430 0.9430
1317.839804 0.9450 0.9450 0.9450 0.9450 0.9460
1324.501541 0.9460 0.9460 0.9450 0.9450 0.9450
1331.163278 0.9460 0.9460 0.9460 0.9460 0.9460
1337.825015 0.9460 0.9460 0.9460 0.9460 0.9460
1344.486752 0.9460 0.9460 0.9460 0.9460 0.9470
1351.148488 0.9470 0.9470 0.9490 0.9500 0.9490
1357.810225 0.9470 0.9470 0.9470 0.9470 0.9490
1364.471962 0.9490 0.9490 0.9490 0.9500 0.9500
1371.133699 0.9510 0.9510 0.9510 0.9500 0.9500
1377.795436 0.9500 0.9510 0.9500 0.9500 0.9470
1384.457173 0.9470 0.9490 0.9500 0.9500 0.9500
1391.118910 0.9510 0.9510 0.9530 0.9530 0.9530
1397.780647 0.9540 0.9540 0.9530 0.9530 0.9510
1404.442384 0.9510 0.9510 0.9510 0.9510 0.9510
1411.104121 0.9510 0.9510 0.9510 0.9510 0.9510
1417.765858 0.9510 0.9510 0.9510 0.9510 0.9510
1424.427595 0.9510 0.9530 0.9510 0.9510 0.9510
1431.089332 0.9510 0.9510 0.9510 0.9510 0.9530
1437.751069 0.9530 0.9530 0.9530 0.9530 0.9530
1444.412805 0.9530 0.9530 0.9540 0.9550 0.9550
1451.074542 0.9550 0.9550 0.9550 0.9540 0.9540
1457.736279 0.9530 0.9530 0.9540 0.9550 0.9550
1464.398016 0.9550 0.9550 0.9570 0.9570 0.9570
1471.059753 0.9580 0.9580 0.9580 0.9590 0.9590
1477.721490 0.9590 0.9590 0.9580 0.9580 0.9580
1484.383227 0.9590 0.9610 0.9620 0.9620 0.9620
1491.044964 0.9620 0.9620 0.9620 0.9610 0.9610
1497.706701 0.9590 0.9590 0.9590 0.9610 0.9610
1504.368438 0.9610 0.9610 0.9610 0.9610 0.9610
1511.030175 0.9610 0.9610 0.9620 0.9620 0.9610
1517.691912 0.9610 0.9610 0.9610 0.9610 0.9610
1524.353649 0.9590 0.9590 0.9590 0.9580 0.9580
1531.015386 0.9580 0.9580 0.9580 0.9580 0.9580
1537.677122 0.9580 0.9570 0.9570 0.9570 0.9570
1544.338859 0.9580 0.9580 0.9570 0.9570 0.9570
1551.000596 0.9570 0.9570 0.9550 0.9550 0.9550
1557.662333 0.9540 0.9540 0.9540 0.9530 0.9530
1564.324070 0.9530 0.9530 0.9510 0.9510 0.9500
1570.985807 0.9500 0.9490 0.9470 0.9470 0.9460
1577.647544 0.9460 0.9450 0.9450 0.9450 0.9430
1584.309281 0.9410 0.9410 0.9380 0.9370 0.9370
1590.971018 0.9340 0.9340 0.9300 0.9260 0.9230
1597.632755 0.9220 0.9190 0.9180 0.9150 0.9070
1604.294492 0.9050 0.9010 0.9010 0.8970 0.8950
1610.956229 0.8940 0.8910 0.8890 0.8870 0.8860
1617.617966 0.8830 0.8820 0.8820 0.8820 0.8820
1624.279702 0.8820 0.8820 0.8820 0.8820 0.8820
1630.941439 0.8830 0.8830 0.8860 0.8860 0.8900
1637.603176 0.8910 0.8930 0.8930 0.8950 0.8970
1644.264913 0.9010 0.9010 0.9020 0.9020 0.9020
1650.926650 0.9020 0.9030 0.9030 0.9070 0.9100
1657.588387 0.9100 0.9130 0.9130 0.9130 0.9130
1664.250124 0.9130 0.9130 0.9130 0.9140 0.9140
1670.911861 0.9150 0.9150 0.9170 0.9190 0.9190
1677.573598 0.9190 0.9210 0.9230 0.9230 0.9250
1684.235335 0.9260 0.9270 0.9270 0.9270 0.9270
1690.897072 0.9290 0.9300 0.9290 0.9300 0.9300
1697.558809 0.9300 0.9300 0.9310 0.9330 0.9330
1704.220546 0.9340 0.9340 0.9340 0.9340 0.9350
1710.882283 0.9350 0.9370 0.9370 0.9380 0.9380
1717.544019 0.9380 0.9380 0.9390 0.9390 0.9380
1724.205756 0.9380 0.9380 0.9380 0.9410 0.9420
1730.867493 0.9420 0.9410 0.9410 0.9430 0.9430
1737.529230 0.9420 0.9420 0.9420 0.9420 0.9420
1744.190967 0.9430 0.9430 0.9420 0.9420 0.9430
1750.852704 0.9430 0.9430 0.9430 0.9450 0.9450
1757.514441 0.9450 0.9420 0.9420 0.9410 0.9410
1764.176178 0.9390 0.9390 0.9390 0.9410 0.9410
1770.837915 0.9420 0.9420 0.9430 0.9430 0.9420
1777.499652 0.9410 0.9410 0.9410 0.9410 0.9420
1784.161389 0.9410 0.9390 0.9380 0.9380 0.9380
1790.823126 0.9380 0.9380 0.9380 0.9390 0.9410
1797.484863 0.9390 0.9390 0.9380 0.9380 0.9380
1804.146600 0.9380 0.9370 0.9370 0.9370 0.9370
1810.808336 0.9370 0.9370 0.9370 0.9380 0.9380
1817.470073 0.9390 0.9410 0.9410 0.9420 0.9430
1824.131810 0.9430 0.9420 0.9420 0.9420 0.9430
1830.793547 0.9430 0.9450 0.9450 0.9450 0.9450
1837.455284 0.9450 0.9450 0.9450 0.9450 0.9450
1844.117021 0.9450 0.9450 0.9450 0.9450 0.9460
1850.778758 0.9470 0.9470 0.9470 0.9490 0.9490
1857.440495 0.9500 0.9500 0.9500 0.9500 0.9500
1864.102232 0.9500 0.9500 0.9500 0.9500 0.9500
1870.763969 0.9500 0.9500 0.9500 0.9500 0.9500
1877.425706 0.9500 0.9510 0.9500 0.9500 0.9500
1884.087443 0.9500 0.9500 0.9490 0.9470 0.9460
1890.749180 0.9460 0.9460 0.9460 0.9460 0.9460
1897.410917 0.9470 0.9470 0.9500 0.9500 0.9470
1904.072653 0.9460 0.9460 0.9460 0.9460 0.9460
1910.734390 0.9460 0.9470 0.9470 0.9470 0.9470
1917.396127 0.9470 0.9470 0.9470 0.9470 0.9470
1924.057864 0.9470 0.9470 0.9460 0.9460 0.9460
1930.719601 0.9460 0.9460 0.9460 0.9460 0.9470
1937.381338 0.9460 0.9450 0.9450 0.9450 0.9450
1944.043075 0.9460 0.9460 0.9460 0.9460 0.9460
1950.704812 0.9460 0.9460 0.9460 0.9500 0.9500
1957.366549 0.9470 0.9470 0.9470 0.9470 0.9470
1964.028286 0.9500 0.9500 0.9500 0.9500 0.9500
1970.690023 0.9500 0.9500 0.9500 0.9470 0.9470
1977.351760 0.9470 0.9490 0.9470 0.9470 0.9470
1984.013497 0.9470 0.9500 0.9500 0.9500 0.9500
1990.675234 0.9500 0.9500 0.9490 0.9470 0.9470
1997.336970 0.9470 0.9470 0.9470 0.9470 0.9470
2003.998707 0.9470 0.9470 0.9470 0.9470 0.9465
2010.660444 0.9460 0.9455 0.9450 0.9440 0.9430
2017.322181 0.9425 0.9420 0.9415 0.9409 0.9399
2023.983918 0.9390 0.9390 0.9389 0.9384 0.9380
2030.645655 0.9380 0.9380 0.9380 0.9380 0.9380
2037.307392 0.9381 0.9386 0.9391 0.9401 0.9410
2043.969129 0.9410 0.9410 0.9410 0.9411 0.9416
2050.630866 0.9420 0.9420 0.9420 0.9420 0.9420
2057.292603 0.9420 0.9420 0.9420 0.9420 0.9420
2063.954340 0.9420 0.9420 0.9420 0.9420 0.9420
2070.616077 0.9420 0.9419 0.9414 0.9410 0.9410
2077.277814 0.9410 0.9410 0.9410 0.9410 0.9412
2083.939551 0.9417 0.9420 0.9420 0.9420 0.9420
2090.601287 0.9420 0.9420 0.9422 0.9427 0.9430
2097.263024 0.9430 0.9428 0.9423 0.9420 0.9420
2103.924761 0.9420 0.9420 0.9420 0.9420 0.9422
2110.586498 0.9427 0.9430 0.9430 0.9430 0.9430
2117.248235 0.9434 0.9445 0.9445 0.9435 0.9430
2123.909972 0.9430 0.9430 0.9430 0.9430 0.9430
2130.571709 0.9430 0.9430 0.9430 0.9430 0.9430
2137.233446 0.9430 0.9430 0.9430 0.9435 0.9445
2143.895183 0.9445 0.9434 0.9427 0.9422 0.9423
2150.556920 0.9428 0.9430 0.9430 0.9436 0.9446
2157.218657 0.9450 0.9450 0.9450 0.9450 0.9450
2163.880394 0.9450 0.9450 0.9450 0.9450 0.9450
2170.542131 0.9450 0.9450 0.9450 0.9450 0.9450
2177.203867 0.9450 0.9450 0.9450 0.9450 0.9450
2183.865604 0.9450 0.9450 0.9450 0.9450 0.9450
2190.527341 0.9450 0.9450 0.9450 0.9450 0.9450
2197.189078 0.9450 0.9450 0.9454 0.9459 0.9472
2203.850815 0.9487 0.9482 0.9472 0.9466 0.9461
2210.512552 0.9456 0.9451 0.9442 0.9432 0.9430
2217.174289 0.9430 0.9430 0.9430 0.9430 0.9430
2223.836026 0.9439 0.9449 0.9454 0.9459 0.9460
2230.497763 0.9460 0.9460 0.9460 0.9456 0.9451
2237.159500 0.9441 0.9431 0.9430 0.9430 0.9439
2243.821237 0.9449 0.9450 0.9450 0.9440 0.9430
2250.482974 0.9430 0.9430 0.9425 0.9420 0.9420
2257.144711 0.9420 0.9420 0.9420 0.9420 0.9420
2263.806448 0.9420 0.9420 0.9425 0.9430 0.9440
2270.468184 0.9450 0.9450 0.9450 0.9450 0.9449
2277.129921 0.9439 0.9430 0.9425 0.9420 0.9425
2283.791658 0.9430 0.9425 0.9420 0.9415 0.9410
2290.453395 0.9410 0.9410 0.9410 0.9411 0.9416
2297.115132 0.9420 0.9420 0.9419 0.9414 0.9410
2303.776869 0.9410 0.9410 0.9410 0.9408 0.9398
2310.438606 0.9392 0.9402 0.9408 0.9398 0.9390
2317.100343 0.9390 0.9390 0.9390 0.9390 0.9390
2323.762080 0.9389 0.9384 0.9379 0.9374 0.9367
2330.423817 0.9357 0.9350 0.9350 0.9349 0.9344
2337.085554 0.9340 0.9340 0.9339 0.9333 0.9327
2343.747291 0.9317 0.9310 0.9310 0.9310 0.9310
2350.409028 0.9310 0.9310 0.9310 0.9310 0.9310
2357.070765 0.9310 0.9310 0.9310 0.9314 0.9324
2363.732501 0.9330 0.9330 0.9324 0.9309 0.9298
2370.394238 0.9293 0.9281 0.9261 0.9245 0.9235
2377.055975 0.9228 0.9223 0.9222 0.9227 0.9235
2383.717712 0.9245 0.9252 0.9257 0.9267 0.9282
2390.379449 0.9293 0.9298 0.9300 0.9300 0.9308
2397.041186 0.9323 0.9330 0.9330 0.9330 0.9330
2403.702923 0.9330 0.9330 0.9330 0.9330 0.9330
2410.364660 0.9330 0.9330 0.9330 0.9330 0.9330
2417.026397 0.9330 0.9330 0.9330 0.9330 0.9330
2423.688134 0.9330 0.9323 0.9313 0.9307 0.9302
2430.349871 0.9300 0.9300 0.9297 0.9292 0.9290
2437.011608 0.9290 0.9290 0.9290 0.9290 0.9290
2443.673345 0.9290 0.9290 0.9290 0.9290 0.9294
2450.335082 0.9299 0.9296 0.9291 0.9282 0.9272
2456.996818 0.9270 0.9270 0.9270 0.9270 0.9278
2463.658555 0.9288 0.9294 0.9299 0.9300 0.9300
2470.320292 0.9300 0.9300 0.9296 0.9291 0.9290
2476.982029 0.9290 0.9290 0.9290 0.9290 0.9290
2483.643766 0.9290 0.9290 0.9290 0.9290 0.9290
2490.305503 0.9290 0.9290 0.9290 0.9290 0.9290
2496.967240 0.9290 0.9290 0.9290 0.9290 0.9281
2503.628977 0.9270 0.9270 0.9270 0.9265 0.9260
2510.290714 0.9260 0.9260 0.9255 0.9250 0.9250
2516.952451 0.9250 0.9235 0.9220 0.9220 0.9220
2523.614188 0.9220 0.9220 0.9215 0.9210 0.9210
2530.275925 0.9210 0.9210 0.9210 0.9215 0.9220
2536.937662 0.9220 0.9220 0.9220 0.9220 0.9220
2543.599399 0.9220 0.9220 0.9220 0.9220 0.9220
2550.261135 0.9220 0.9220 0.9220 0.9220 0.9220
2556.922872 0.9219 0.9214 0.9210 0.9210 0.9210
2563.584609 0.9210 0.9208 0.9198 0.9190 0.9190
2570.246346 0.9189 0.9184 0.9180 0.9180 0.9180
2576.908083 0.9180 0.9180 0.9180 0.9180 0.9180
2583.569820 0.9180 0.9180 0.9179 0.9174 0.9170
2590.231557 0.9170 0.9170 0.9170 0.9170 0.9170
2596.893294 0.9170 0.9170 0.9170 0.9170 0.9167
2603.555031 0.9157 0.9150 0.9150 0.9150 0.9150
2610.216768 0.9150 0.9150 0.9148 0.9143 0.9140
2616.878505 0.9140 0.9140 0.9140 0.9140 0.9140
2623.540242 0.9138 0.9133 0.9130 0.9130 0.9126
2630.201979 0.9116 0.9110 0.9110 0.9110 0.9110
2636.863715 0.9108 0.9103 0.9100 0.9100 0.9100
2643.525452 0.9100 0.9100 0.9100 0.9100 0.9100
2650.187189 0.9100 0.9100 0.9097 0.9092 0.9090
2656.848926 0.9090 0.9085 0.9075 0.9070 0.9070
2663.510663 0.9070 0.9070 0.9067 0.9062 0.9060
2670.172400 0.9060 0.9057 0.9052 0.9050 0.9050
2676.834137 0.9044 0.9034 0.9030 0.9030 0.9027
2683.495874 0.9022 0.9017 0.9012 0.9010 0.9010
2690.157611 0.9010 0.9010 0.9003 0.8993 0.8990
2696.819348 0.8990 0.8990 0.8990 0.8990 0.8990
2703.481085 0.8986 0.8981 0.8976 0.8971 0.8963
2710.142822 0.8953 0.8950 0.8950 0.8950 0.8950
2716.804559 0.8950 0.8950 0.8946 0.8941 0.8940
2723.466296 0.8940 0.8940 0.8940 0.8936 0.8931
2730.128032 0.8930 0.8930 0.8930 0.8930 0.8922
2736.789769 0.8912 0.8910 0.8910 0.8910 0.8910
2743.451506 0.8906 0.8901 0.8895 0.8890 0.8890
2750.113243 0.8890 0.8881 0.8871 0.8865 0.8860
2756.774980 0.8860 0.8860 0.8855 0.8850 0.8841
2763.436717 0.8831 0.8830 0.8830 0.8825 0.8820
2770.098454 0.8820 0.8820 0.8815 0.8810 0.8800
2776.760191 0.8790 0.8785 0.8780 0.8780 0.8780
2783.421928 0.8775 0.8770 0.8770 0.8770 0.8760
2790.083665 0.8750 0.8750 0.8750 0.8745 0.8740
2796.745402 0.8740 0.8739 0.8729 0.8720 0.8720
2803.407139 0.8719 0.8714 0.8709 0.8704 0.8700
2810.068876 0.8700 0.8699 0.8689 0.8680 0.8680
2816.730613 0.8680 0.8680 0.8677 0.8656 0.8638
2823.392349 0.8628 0.8620 0.8620 0.8618 0.8608
2830.054086 0.8599 0.8594 0.8590 0.8590 0.8590
2836.715823 0.8590 0.8589 0.8584 0.8577 0.8567
2843.377560 0.8557 0.8547 0.8535 0.8514 0.8500
2850.039297 0.8500 0.8494 0.8474 0.8454 0.8434
2856.701034 0.8420 0.8420 0.8420 0.8420 0.8417
2863.362771 0.8407 0.8400 0.8400 0.8400 0.8400
2870.024508 0.8400 0.8400 0.8400 0.8400 0.8400
2876.686245 0.8400 0.8400 0.8400 0.8398 0.8393
2883.347982 0.8390 0.8390 0.8390 0.8390 0.8381
2890.009719 0.8361 0.8348 0.8343 0.8335 0.8325
2896.671456 0.8318 0.8313 0.8310 0.8310 0.8307
2903.333193 0.8302 0.8300 0.8300 0.8295 0.8285
2909.994930 0.8277 0.8272 0.8267 0.8262 0.8255
2916.656666 0.8244 0.8234 0.8224 0.8209 0.8189
2923.318403 0.8169 0.8149 0.8131 0.8116 0.8107
2929.980140 0.8102 0.8100 0.8100 0.8094 0.8084
2936.641877 0.8080 0.8080 0.8077 0.8072 0.8070
2943.303614 0.8070 0.8067 0.8062 0.8060 0.8060
2949.965351 0.8050 0.8035 0.8030 0.8030 0.8030
2956.627088 0.8030 0.8026 0.8021 0.8020 0.8020
2963.288825 0.8013 0.8003 0.7996 0.7991 0.7986
2969.950562 0.7981 0.7972 0.7962 0.7956 0.7951
2976.612299 0.7950 0.7950 0.7946 0.7941 0.7932
2983.274036 0.7922 0.7912 0.7902 0.7900 0.7900
2989.935773 0.7900 0.7900 0.7883 0.7863 0.7860
2996.597510 0.7860 0.7851 0.7841 0.7836 0.7831
3003.259247 0.7817 0.7802 0.7791 0.7781 0.7762
3009.920983 0.7741 0.7721 0.7701 0.7700 0.7700
3016.582720 0.7700 0.7700 0.7690 0.7680 0.7670
3023.244457 0.7660 0.7641 0.7621 0.7600 0.7580
3029.906194 0.7565 0.7550 0.7535 0.7520 0.7515
3036.567931 0.7510 0.7505 0.7499 0.7484 0.7469
3043.229668 0.7439 0.7409 0.7389 0.7369 0.7349
3049.891405 0.7330 0.7325 0.7320 0.7315 0.7309
3056.553142 0.7294 0.7278 0.7258 0.7237 0.7217
3063.214879 0.7197 0.7172 0.7147 0.7127 0.7108
3069.876616 0.7093 0.7075 0.7039 0.7005 0.6975
3076.538353 0.6947 0.6926 0.6906 0.6886 0.6864
3083.200090 0.6834 0.6802 0.6761 0.6725 0.6705
3089.861827 0.6684 0.6659 0.6635 0.6615 0.6595
3096.523563 0.6575 0.6556 0.6541 0.6523 0.6498
3103.185300 0.6469 0.6429 0.6394 0.6374 0.6356
3109.847037 0.6341 0.6322 0.6297 0.6268 0.6233
3116.508774 0.6208 0.6203 0.6188 0.6153 0.6123
3123.170511 0.6103 0.6083 0.6063 0.6043 0.6022
3129.832248 0.6008 0.6003 0.5988 0.5958 0.5932
3136.493985 0.5912 0.5892 0.5871 0.5851 0.5831
3143.155722 0.5811 0.5791 0.5769 0.5744 0.5728
3149.817459 0.5723 0.5715 0.5705 0.5698 0.5693
3156.479196 0.5688 0.5683 0.5673 0.5658 0.5648
3163.140933 0.5642 0.5635 0.5625 0.5617 0.5612
3169.802670 0.5607 0.5602 0.5594 0.5584 0.5580
3176.464407 0.5580 0.5577 0.5572 0.5570 0.5570
3183.126144 0.5570 0.5570 0.5570 0.5570 0.5570
3189.787880 0.5570 0.5570 0.5570 0.5567 0.5562
3196.449617 0.5560 0.5560 0.5560 0.5560 0.5560
3203.111354 0.5560 0.5560 0.5560 0.5560 0.5560
3209.773091 0.5560 0.5560 0.5563 0.5569 0.5570
3216.434828 0.5570 0.5581 0.5596 0.5600 0.5600
3223.096565 0.5604 0.5609 0.5610 0.5610 0.5622
3229.758302 0.5637 0.5644 0.5649 0.5654 0.5659
3236.420039 0.5672 0.5687 0.5702 0.5717 0.5736
3243.081776 0.5756 0.5768 0.5778 0.5789 0.5799
3249.743513 0.5800 0.5800 0.5804 0.5809 0.5814
3256.405250 0.5819 0.5829 0.5839 0.5844 0.5849
3263.066987 0.5863 0.5879 0.5885 0.5890 0.5895
3269.728724 0.5900 0.5919 0.5939 0.5950 0.5960
3276.390461 0.5965 0.5970 0.5989 0.6009 0.6015
3283.052197 0.6020 0.6030 0.6040 0.6045 0.6050
3289.713934 0.6055 0.6060 0.6075 0.6090 0.6110
3296.375671 0.6130 0.6135 0.6141 0.6151 0.6161
3303.037408 0.6171 0.6181 0.6196 0.6210 0.6210
3309.699145 0.6210 0.6210 0.6210 0.6215 0.6220
3316.360882 0.6220 0.6220 0.6220 0.6222 0.6237
3323.022619 0.6250 0.6250 0.6250 0.6250 0.6250
3329.684356 0.6250 0.6250 0.6250 0.6252 0.6262
3336.346093 0.6272 0.6282 0.6290 0.6290 0.6290
3343.007830 0.6290 0.6290 0.6290 0.6290 0.6290
3349.669567 0.6290 0.6290 0.6290 0.6290 0.6290
3356.331304 0.6290 0.6290 0.6290 0.6287 0.6277
3362.993041 0.6267 0.6257 0.6250 0.6250 0.6250
3369.654778 0.6250 0.6250 0.6250 0.6250 0.6250
3376.316514 0.6248 0.6243 0.6240 0.6240 0.6236
3382.978251 0.6226 0.6220 0.6220 0.6218 0.6213
3389.639988 0.6208 0.6203 0.6192 0.6172 0.6156
3396.301725 0.6146 0.6136 0.6126 0.6120 0.6120
3402.963462 0.6116 0.6105 0.6100 0.6100 0.6098
3409.625199 0.6093 0.6088 0.6083 0.6080 0.6080
3416.286936 0.6080 0.6080 0.6075 0.6065 0.6060
3422.948673 0.6060 0.6057 0.6052 0.6050 0.6050
3429.610410 0.6047 0.6042 0.6040 0.6040 0.6040
3436.272147 0.6040 0.6040 0.6040 0.6034 0.6024
3442.933884 0.6020 0.6020 0.6020 0.6020 0.6020
3449.595621 0.6020 0.6026 0.6036 0.6043 0.6048
3456.257358 0.6060 0.6075 0.6080 0.6080 0.6083
3462.919095 0.6088 0.6090 0.6090 0.6090 0.6090
3469.580831 0.6094 0.6099 0.6100 0.6100 0.6107
3476.242568 0.6117 0.6120 0.6120 0.6127 0.6137
3482.904305 0.6151 0.6167 0.6170 0.6170 0.6182
3489.566042 0.6197 0.6204 0.6209 0.6222 0.6237
3496.227779 0.6256 0.6276 0.6284 0.6289 0.6298
3502.889516 0.6308 0.6314 0.6319 0.6324 0.6329
3509.551253 0.6360 0.6396 0.6413 0.6428 0.6452
3516.212990 0.6477 0.6493 0.6509 0.6519 0.6529
3522.874727 0.6544 0.6559 0.6565 0.6570 0.6584
3529.536464 0.6599 0.6600 0.6600 0.6614 0.6629
3536.198201 0.6640 0.6650 0.6680 0.6710 0.6730
3542.859938 0.6750 0.6760 0.6770 0.6785 0.6800
3549.521675 0.6800 0.6800 0.6826 0.6851 0.6871
3556.183411 0.6890 0.6900 0.6910 0.6920 0.6932
3562.845148 0.6962 0.6992 0.7012 0.7031 0.7041
3569.506885 0.7052 0.7072 0.7091 0.7101 0.7110
3576.168622 0.7110 0.7112 0.7133 0.7151 0.7156
3582.830359 0.7162 0.7177 0.7191 0.7201 0.7210
3589.492096 0.7210 0.7212 0.7222 0.7231 0.7236
3596.153833 0.7241 0.7246 0.7250 0.7250 0.7250
3602.815570 0.7250 0.7249 0.7244 0.7240 0.7240
3609.477307 0.7239 0.7234 0.7228 0.7217 0.7202
3616.139044 0.7172 0.7081 0.6846 0.6625 0.6439
3622.800781 0.6310 0.6310 0.6376 0.6587 0.6736
3629.462518 0.6757 0.6777 0.6797 0.6840 0.6931
3636.124255 0.7012 0.7078 0.7141 0.7201 0.7247
3642.785992 0.7268 0.7286 0.7301 0.7310 0.7310
3649.447728 0.7306 0.7296 0.7290 0.7290 0.7288
3656.109465 0.7283 0.7280 0.7280 0.7282 0.7287
3662.771202 0.7294 0.7305 0.7310 0.7310 0.7312
3669.432939 0.7317 0.7322 0.7328 0.7330 0.7330
3676.094676 0.7330 0.7330 0.7330 0.7330 0.7327
3682.756413 0.7322 0.7167 0.6881 0.6690 0.6580
3689.418150 0.6453 0.6312 0.6141 0.5945 0.5802
3696.079887 0.5701 0.5660 0.5660 0.5788 0.5999
3702.741624 0.6108 0.6153 0.6358 0.6659 0.6960
3709.403361 0.7261 0.7466 0.7617 0.7735 0.7835
3716.065098 0.7913 0.7978 0.8053 0.8133 0.8187
3722.726835 0.8228 0.8261 0.8291 0.8318 0.8343
3729.388572 0.8368 0.8393 0.8415 0.8435 0.8455
3736.050309 0.8475 0.8491 0.8506 0.8521 0.8536
3742.712045 0.8555 0.8575 0.8584 0.8589 0.8590
3749.373782 0.8590 0.8590 0.8590 0.8590 0.8590
3756.035519 0.8590 0.8590 0.8602 0.8618 0.8624
3762.697256 0.8629 0.8634 0.8639 0.8640 0.8640
3769.358993 0.8649 0.8659 0.8664 0.8669 0.8674
3776.020730 0.8680 0.8689 0.8699 0.8700 0.8700
3782.682467 0.8700 0.8700 0.8700 0.8700 0.8700
3789.344204 0.8700 0.8700 0.8700 0.8700 0.8700
3796.005941 0.8700 0.8700 0.8700 0.8700 0.8700
3802.667678 0.8700 0.8700 0.8700 0.8705 0.8710
3809.329415 0.8705 0.8700 0.8700 0.8700 0.8705
3815.991152 0.8710 0.8710 0.8709 0.8694 0.8680
3822.652889 0.8680 0.8680 0.8680 0.8680 0.8680
3829.314626 0.8681 0.8691 0.8700 0.8700 0.8700
3835.976362 0.8700 0.8700 0.8700 0.8700 0.8700
3842.638099 0.8698 0.8688 0.8680 0.8680 0.8680
3849.299836 0.8680 0.8680 0.8680 0.8682 0.8692
3855.961573 0.8700 0.8700 0.8700 0.8700 0.8700
3862.623310 0.8700 0.8700 0.8700 0.8698 0.8687
3869.285047 0.8680 0.8680 0.8680 0.8680 0.8680
3875.946784 0.8680 0.8679 0.8674 0.8670 0.8670
3882.608521 0.8670 0.8670 0.8672 0.8677 0.8680
3889.270258 0.8680 0.8678 0.8673 0.8670 0.8670
3895.931995 0.8672 0.8677 0.8684 0.8694 0.8700
3902.593732 0.8700 0.8696 0.8686 0.8680 0.8680
3909.255469 0.8680 0.8680 0.8680 0.8680 0.8678
3915.917206 0.8673 0.8670 0.8670 0.8670 0.8670
3922.578943 0.8670 0.8670 0.8668 0.8663 0.8660
3929.240679 0.8660 0.8660 0.8660 0.8663 0.8668
3935.902416 0.8670 0.8670 0.8670 0.8670 0.8670
3942.564153 0.8670 0.8670 0.8670 0.8670 0.8670
3949.225890 0.8667 0.8662 0.8654 0.8644 0.8640
3955.887627 0.8640 0.8640 0.8640 0.8640 0.8640
3962.549364 0.8640 0.8640 0.8640 0.8640 0.8646
3969.211101 0.8657 0.8660 0.8660 0.8660 0.8660
3975.872838 0.8653 0.8643 0.8640 0.8640 0.8640
3982.534575 0.8640
##END=
