##TITLE=SODIUM CYANATE
##JCAMP-DX=4.24
##DATA TYPE=INFRARED SPECTRUM
##CLASS=COBLENTZ
##ORIGIN=WYANDOTTE CHEMICALS CORP., WYANDOTTE, MICHIGAN, USA
##OWNER=COBLENTZ SOCIETY
Collection (C) 2018 copyright by the U.S. Secretary of Commerce
on behalf of the United States of America. All rights reserved.
##DATE=Not specified, most likely prior to 1970
##MOLFORM=C N O Na
##SOURCE REFERENCE=COBLENTZ NO. 2726
##$NIST ID=B6002726
##$NIST SOURCE=COBLENTZ
##$NIST IMAGE=cob2726
##SPECTROMETER/DATA SYSTEM=Not specified, most likely a prism, grating, or hybrid spectrometer.
##STATE=SOLID (MINERAL OIL MULL)
##PATH LENGTH=
$$SPECTRAL CONTAMINATION DUE TO OIL AROUND 2900, 1450, 1380 CM^-^1
##SAMPLING PROCEDURE=TRANSMISSION
##RESOLUTION=4
##DATA PROCESSING=DIGITIZED BY NIST FROM HARD COPY
##XUNITS=MICROMETERS
##YUNITS=TRANSMITTANCE
##XFACTOR=1.000000
##YFACTOR=1
##DELTAX=000.006626
##FIRSTX=2.013
##LASTX=15.993
##FIRSTY=0.581
##MAXX=15.993
##MINX=2.013
##MAXY=0.976
##MINY=0
##NPOINTS=2111
##XYDATA=(X++(Y..Y))
2.013000 0.5810 0.5830 0.5830 0.5850 0.5860
2.046144 0.5860 0.5880 0.5880 0.5880 0.5880
2.080000 0.5900 0.5910 0.5910 0.5910 0.5930
2.113144 0.5930 0.5930 0.5950 0.5950 0.5950
2.146000 0.5950 0.5950 0.5950 0.5950 0.5950
2.179144 0.5950 0.5950 0.5950 0.5950 0.5950
2.212000 0.5950 0.5950 0.5960 0.5960 0.5960
2.245144 0.5980 0.5980 0.5980 0.5980 0.6000
2.278000 0.6010 0.6010 0.6030 0.6040 0.6080
2.311144 0.6110 0.6130 0.6130 0.6140 0.6140
2.345000 0.6140 0.6140 0.6180 0.6180 0.6190
2.378144 0.6190 0.6230 0.6240 0.6280 0.6290
2.411000 0.6330 0.6340 0.6360 0.6380 0.6390
2.444144 0.6410 0.6420 0.6440 0.6470 0.6470
2.477000 0.6490 0.6490 0.6490 0.6510 0.6510
2.510144 0.6510 0.6520 0.6540 0.6560 0.6570
2.543000 0.6610 0.6610 0.6660 0.6690 0.6720
2.576144 0.6760 0.6800 0.6800 0.6800 0.6820
2.610000 0.6790 0.6670 0.6660 0.6670 0.6790
2.643144 0.6940 0.6970 0.7020 0.7120 0.7120
2.676000 0.7070 0.6990 0.6990 0.6990 0.7000
2.709144 0.7020 0.7020 0.7020 0.7050 0.7050
2.742000 0.7070 0.7090 0.7140 0.7150 0.7170
2.775144 0.7190 0.7190 0.7170 0.7150 0.7140
2.808000 0.7120 0.7050 0.7020 0.7000 0.6970
2.841144 0.6940 0.6920 0.6900 0.6870 0.6850
2.875000 0.6640 0.6340 0.6130 0.5520 0.5200
2.908144 0.5190 0.5200 0.5630 0.5930 0.6210
2.941000 0.6340 0.6440 0.6510 0.6540 0.6540
2.974144 0.6510 0.6360 0.6030 0.5570 0.5550
3.007000 0.5580 0.6290 0.6590 0.6690 0.6800
3.040144 0.6850 0.6950 0.6990 0.7040 0.7040
3.073000 0.7090 0.7190 0.7250 0.7270 0.7280
3.106144 0.7300 0.7320 0.7320 0.7320 0.7330
3.140000 0.7350 0.7370 0.7370 0.7380 0.7400
3.173144 0.7450 0.7500 0.7520 0.7520 0.7550
3.206000 0.7580 0.7600 0.7610 0.7650 0.7700
3.239144 0.7710 0.7730 0.7750 0.7760 0.7760
3.272000 0.7760 0.7710 0.7710 0.7650 0.7550
3.305144 0.7450 0.7350 0.7090 0.6510 0.5630
3.338000 0.3850 0.2890 0.2190 0.1280 0.0510
3.371144 0.0080 0.0010 0.0000 0.0000 0.0000
3.405000 0.0000 0.0010 0.0030 0.0030 0.0040
3.438144 0.0040 0.0080 0.0080 0.0090 0.0110
3.471000 0.0140 0.0180 0.0190 0.0190 0.0190
3.504144 0.0210 0.0380 0.0590 0.0850 0.1300
3.537000 0.1850 0.2850 0.3850 0.4520 0.4990
3.570144 0.5270 0.5430 0.5600 0.5780 0.6060
3.603000 0.6510 0.6720 0.6940 0.7070 0.7220
3.636144 0.7280 0.7330 0.7370 0.7420 0.7480
3.670000 0.7480 0.7500 0.7520 0.7520 0.7530
3.703144 0.7530 0.7570 0.7700 0.7850 0.7900
3.736000 0.7950 0.7980 0.8010 0.8030 0.8040
3.769144 0.8080 0.8130 0.8160 0.8190 0.8190
3.802000 0.8140 0.8130 0.8090 0.7980 0.7900
3.835144 0.7860 0.7860 0.7960 0.8240 0.8410
3.868000 0.8540 0.8620 0.8690 0.8740 0.8760
3.901144 0.8790 0.8800 0.8850 0.8890 0.8950
3.935000 0.9020 0.9040 0.9070 0.9070 0.9040
3.968144 0.9000 0.8970 0.8840 0.8720 0.8340
4.001000 0.7950 0.6820 0.6210 0.5910 0.5880
4.034144 0.5910 0.7320 0.8010 0.8790 0.9090
4.067000 0.9090 0.9050 0.9020 0.8900 0.8820
4.100144 0.8800 0.8740 0.8610 0.8510 0.8460
4.133000 0.8410 0.8340 0.8290 0.8190 0.8080
4.166144 0.7950 0.7930 0.7680 0.7420 0.7020
4.200000 0.6720 0.6240 0.5850 0.5830 0.5850
4.233144 0.6000 0.6040 0.6040 0.5910 0.5650
4.266000 0.5470 0.5380 0.5330 0.5300 0.5280
4.299144 0.5270 0.5230 0.5220 0.5200 0.5100
4.332000 0.5090 0.5000 0.4950 0.4890 0.4760
4.365144 0.4590 0.4260 0.4030 0.3600 0.3200
4.398000 0.2850 0.2540 0.2260 0.2090 0.1960
4.431144 0.1830 0.1660 0.1600 0.1470 0.1350
4.465000 0.1230 0.1100 0.0950 0.0790 0.0640
4.498144 0.0520 0.0410 0.0340 0.0290 0.0210
4.531000 0.0190 0.0180 0.0140 0.0130 0.0110
4.564144 0.0080 0.0080 0.0060 0.0060 0.0080
4.597000 0.0090 0.0140 0.0160 0.0190 0.0210
4.630144 0.0280 0.0360 0.0470 0.0570 0.0670
4.664000 0.0770 0.0890 0.0990 0.1090 0.1190
4.697144 0.1300 0.1420 0.1520 0.1630 0.1750
4.730000 0.1850 0.1950 0.1980 0.2000 0.2040
4.763144 0.2140 0.2260 0.2440 0.2440 0.2490
4.796000 0.2590 0.2710 0.2800 0.2870 0.2900
4.829144 0.2920 0.2990 0.3090 0.3170 0.3200
4.862000 0.3220 0.3270 0.3300 0.3320 0.3380
4.895144 0.3380 0.3400 0.3420 0.3480 0.3520
4.929000 0.3580 0.3610 0.3660 0.3680 0.3680
4.962144 0.3700 0.3750 0.3810 0.3880 0.3960
4.995000 0.4040 0.4130 0.4210 0.4280 0.4340
5.028144 0.4380 0.4390 0.4390 0.4410 0.4440
5.061000 0.4510 0.4570 0.4640 0.4690 0.4720
5.094144 0.4760 0.4800 0.4850 0.4900 0.4920
5.127000 0.4940 0.4950 0.4990 0.5070 0.5100
5.160144 0.5170 0.5250 0.5300 0.5300 0.5320
5.194000 0.5370 0.5400 0.5450 0.5500 0.5550
5.227144 0.5580 0.5610 0.5630 0.5630 0.5660
5.260000 0.5660 0.5700 0.5750 0.5780 0.5800
5.293144 0.5860 0.5900 0.5900 0.5910 0.5930
5.326000 0.5950 0.5960 0.5980 0.6000 0.6010
5.359144 0.6010 0.6030 0.6060 0.6090 0.6110
5.392000 0.6140 0.6180 0.6210 0.6230 0.6240
5.425144 0.6260 0.6280 0.6280 0.6290 0.6290
5.459000 0.6290 0.6310 0.6330 0.6390 0.6410
5.492144 0.6420 0.6440 0.6440 0.6440 0.6470
5.525000 0.6490 0.6560 0.6560 0.6570 0.6570
5.558144 0.6590 0.6610 0.6610 0.6610 0.6610
5.591000 0.6620 0.6660 0.6670 0.6670 0.6670
5.624144 0.6690 0.6690 0.6710 0.6720 0.6740
5.657000 0.6760 0.6770 0.6790 0.6800 0.6820
5.690144 0.6840 0.6840 0.6850 0.6870 0.6890
5.724000 0.6890 0.6900 0.6920 0.6920 0.6920
5.757144 0.6940 0.6940 0.6940 0.6970 0.6970
5.790000 0.6970 0.6990 0.6990 0.6990 0.6990
5.823144 0.6990 0.6990 0.6990 0.6990 0.7000
5.856000 0.7000 0.7020 0.7020 0.7040 0.7040
5.889144 0.7040 0.7040 0.7040 0.7050 0.7050
5.922000 0.7070 0.7070 0.7070 0.7050 0.7070
5.955144 0.7070 0.7070 0.7070 0.7070 0.7070
5.989000 0.7070 0.7070 0.7070 0.7090 0.7090
6.022144 0.7090 0.7100 0.7120 0.7140 0.7150
6.055000 0.7170 0.7190 0.7190 0.7200 0.7200
6.088144 0.7200 0.7200 0.7220 0.7230 0.7230
6.121000 0.7250 0.7250 0.7270 0.7280 0.7300
6.154144 0.7320 0.7370 0.7400 0.7430 0.7470
6.187000 0.7500 0.7530 0.7530 0.7530 0.7550
6.220144 0.7550 0.7550 0.7550 0.7570 0.7610
6.254000 0.7660 0.7710 0.7760 0.7780 0.7780
6.287144 0.7760 0.7700 0.7700 0.7700 0.7750
6.320000 0.7810 0.7880 0.7900 0.7910 0.7900
6.353144 0.7830 0.7760 0.7700 0.7650 0.7630
6.386000 0.7650 0.7800 0.7910 0.7980 0.7980
6.419144 0.7980 0.7910 0.7830 0.7760 0.7660
6.452000 0.7650 0.7660 0.7660 0.7700 0.7710
6.485144 0.7730 0.7730 0.7730 0.7710 0.7700
6.519000 0.7700 0.7680 0.7660 0.7650 0.7650
6.552144 0.7660 0.7680 0.7700 0.7710 0.7750
6.585000 0.7750 0.7750 0.7750 0.7760 0.7780
6.618144 0.7800 0.7810 0.7800 0.7800 0.7760
6.651000 0.7730 0.7680 0.7660 0.7610 0.7580
6.684144 0.7500 0.7450 0.7400 0.7280 0.7090
6.717000 0.6920 0.6670 0.6410 0.6090 0.5880
6.750144 0.5680 0.5380 0.4900 0.4110 0.3230
6.784000 0.2870 0.2360 0.1950 0.1610 0.1600
6.817144 0.1610 0.1630 0.1680 0.1750 0.1850
6.850000 0.1950 0.2010 0.2130 0.2240 0.2440
6.883144 0.2640 0.2840 0.3100 0.3330 0.3530
6.916000 0.3750 0.3960 0.4190 0.4460 0.4770
6.949144 0.5120 0.5530 0.5880 0.6190 0.6330
6.982000 0.6540 0.6800 0.7040 0.7230 0.7300
7.015144 0.7350 0.7400 0.7470 0.7580 0.7680
7.049000 0.7760 0.7830 0.7880 0.7910 0.7950
7.082144 0.7980 0.7980 0.8000 0.8010 0.8030
7.115000 0.8040 0.8060 0.8090 0.8090 0.8090
7.148144 0.8090 0.8090 0.8090 0.8080 0.7980
7.181000 0.7900 0.7680 0.7330 0.6510 0.6110
7.214144 0.5750 0.5230 0.4740 0.4340 0.3980
7.248000 0.3710 0.3610 0.3600 0.3630 0.4060
7.281144 0.4490 0.4940 0.5280 0.5520 0.5650
7.314000 0.5780 0.5930 0.6140 0.6420 0.6790
7.347144 0.7230 0.7580 0.7730 0.7800 0.7860
7.380000 0.7960 0.8040 0.8140 0.8230 0.8310
7.413144 0.8360 0.8380 0.8490 0.8590 0.8610
7.446000 0.8620 0.8640 0.8670 0.8760 0.8900
7.479144 0.9040 0.9070 0.9040 0.8940 0.8800
7.513000 0.8690 0.8470 0.8210 0.7950 0.7570
7.546144 0.7220 0.6890 0.6590 0.6310 0.6030
7.579000 0.5760 0.5520 0.5230 0.4740 0.4410
7.612144 0.4040 0.3580 0.3000 0.2490 0.1980
7.645000 0.1350 0.0800 0.0790 0.0800 0.0940
7.678144 0.0990 0.1090 0.1230 0.1450 0.1700
7.711000 0.1980 0.2290 0.2640 0.2970 0.3300
7.744144 0.3520 0.3700 0.4030 0.4290 0.4460
7.778000 0.4620 0.4740 0.4890 0.5040 0.5120
7.811144 0.5200 0.5270 0.5380 0.5530 0.5610
7.844000 0.5660 0.5680 0.5700 0.5710 0.5750
7.877144 0.5800 0.5880 0.5960 0.6060 0.6110
7.910000 0.6130 0.6160 0.6180 0.6230 0.6310
7.943144 0.6340 0.6380 0.6440 0.6470 0.6540
7.976000 0.6570 0.6570 0.6590 0.6610 0.6710
8.009144 0.6760 0.6800 0.6850 0.6950 0.7090
8.043000 0.7270 0.7480 0.7600 0.7730 0.7830
8.076144 0.7930 0.8040 0.8160 0.8310 0.8460
8.109000 0.8590 0.8740 0.8850 0.8950 0.9040
8.142144 0.9100 0.9190 0.9190 0.9170 0.8790
8.175000 0.8000 0.7170 0.6570 0.5330 0.4040
8.208144 0.4030 0.2990 0.2090 0.1500 0.1480
8.241000 0.1500 0.1650 0.1750 0.2040 0.2190
8.274144 0.2690 0.2950 0.3300 0.3580 0.3810
8.308000 0.4000 0.4230 0.4470 0.4590 0.4660
8.341144 0.4740 0.4800 0.4870 0.4890 0.4940
8.374000 0.5040 0.5190 0.5320 0.5470 0.5570
8.407144 0.5680 0.5730 0.5780 0.5810 0.5880
8.440000 0.5980 0.6030 0.6080 0.6090 0.6180
8.473144 0.6260 0.6330 0.6360 0.6390 0.6440
8.506000 0.6460 0.6470 0.6510 0.6560 0.6570
8.539144 0.6610 0.6660 0.6670 0.6720 0.6770
8.573000 0.6790 0.6800 0.6820 0.6840 0.6900
8.606144 0.6940 0.6950 0.6970 0.6990 0.7000
8.639000 0.7020 0.7040 0.7050 0.7070 0.7090
8.672144 0.7090 0.7170 0.7200 0.7270 0.7270
8.705000 0.7280 0.7300 0.7320 0.7380 0.7420
8.738144 0.7480 0.7500 0.7500 0.7520 0.7570
8.771000 0.7600 0.7630 0.7630 0.7660 0.7680
8.804144 0.7680 0.7700 0.7700 0.7700 0.7710
8.838000 0.7760 0.7830 0.7850 0.7860 0.7860
8.871144 0.7860 0.7880 0.7880 0.7880 0.7900
8.904000 0.7900 0.7900 0.7910 0.7910 0.7930
8.937144 0.7930 0.7930 0.7930 0.7930 0.7930
8.970000 0.7950 0.7950 0.7960 0.7980 0.8010
9.003144 0.8010 0.8030 0.8030 0.8030 0.8040
9.036000 0.8040 0.8060 0.8060 0.8060 0.8080
9.069144 0.8080 0.8090 0.8090 0.8090 0.8090
9.103000 0.8090 0.8090 0.8090 0.8080 0.8080
9.136144 0.8060 0.8060 0.8040 0.8040 0.8030
9.169000 0.8030 0.8010 0.8010 0.8000 0.8000
9.202144 0.8000 0.8000 0.8000 0.8000 0.8010
9.235000 0.8010 0.8010 0.8010 0.8010 0.8030
9.268144 0.8030 0.8030 0.8030 0.8040 0.8040
9.301000 0.8040 0.8040 0.8060 0.8060 0.8060
9.334144 0.8080 0.8080 0.8080 0.8090 0.8090
9.368000 0.8090 0.8110 0.8110 0.8110 0.8130
9.401144 0.8140 0.8140 0.8160 0.8160 0.8180
9.434000 0.8190 0.8190 0.8190 0.8190 0.8190
9.467144 0.8190 0.8210 0.8210 0.8210 0.8230
9.500000 0.8230 0.8230 0.8240 0.8240 0.8260
9.533144 0.8260 0.8280 0.8280 0.8290 0.8290
9.566000 0.8290 0.8310 0.8310 0.8330 0.8340
9.599144 0.8340 0.8360 0.8360 0.8380 0.8380
9.633000 0.8390 0.8390 0.8410 0.8420 0.8440
9.666144 0.8440 0.8460 0.8470 0.8470 0.8490
9.699000 0.8510 0.8510 0.8510 0.8510 0.8510
9.732144 0.8520 0.8520 0.8520 0.8520 0.8520
9.765000 0.8540 0.8540 0.8540 0.8560 0.8560
9.798144 0.8560 0.8560 0.8590 0.8610 0.8610
9.832000 0.8640 0.8640 0.8670 0.8710 0.8720
9.865144 0.8740 0.8760 0.8760 0.8760 0.8760
9.898000 0.8770 0.8770 0.8770 0.8770 0.8790
9.931144 0.8790 0.8790 0.8800 0.8800 0.8800
9.964000 0.8800 0.8820 0.8820 0.8820 0.8840
9.997144 0.8840 0.8840 0.8840 0.8840 0.8840
10.030000 0.8840 0.8850 0.8850 0.8850 0.8850
10.063144 0.8850 0.8850 0.8850 0.8850 0.8870
10.097000 0.8870 0.8870 0.8870 0.8870 0.8870
10.130144 0.8870 0.8870 0.8870 0.8870 0.8850
10.163000 0.8840 0.8840 0.8820 0.8800 0.8800
10.196144 0.8800 0.8800 0.8790 0.8770 0.8740
10.229000 0.8720 0.8720 0.8710 0.8690 0.8670
10.262144 0.8640 0.8620 0.8620 0.8610 0.8590
10.295000 0.8570 0.8560 0.8560 0.8570 0.8570
10.328144 0.8590 0.8610 0.8620 0.8620 0.8660
10.362000 0.8670 0.8690 0.8690 0.8710 0.8710
10.395144 0.8710 0.8710 0.8710 0.8710 0.8710
10.428000 0.8710 0.8710 0.8710 0.8720 0.8720
10.461144 0.8720 0.8740 0.8740 0.8740 0.8740
10.494000 0.8760 0.8760 0.8770 0.8770 0.8770
10.527144 0.8790 0.8790 0.8790 0.8800 0.8840
10.560000 0.8870 0.8870 0.8870 0.8870 0.8870
10.593144 0.8870 0.8870 0.8870 0.8870 0.8870
10.627000 0.8870 0.8870 0.8870 0.8890 0.8900
10.660144 0.8900 0.8900 0.8900 0.8900 0.8900
10.693000 0.8900 0.8900 0.8920 0.8920 0.8920
10.726144 0.8920 0.8920 0.8920 0.8940 0.8940
10.759000 0.8940 0.8950 0.8950 0.8950 0.8970
10.792144 0.8970 0.8970 0.8990 0.9000 0.9000
10.825000 0.9020 0.9040 0.9040 0.9050 0.9050
10.858144 0.9070 0.9090 0.9090 0.9100 0.9100
10.892000 0.9100 0.9100 0.9090 0.9090 0.9070
10.925144 0.9050 0.9050 0.9050 0.9050 0.9070
10.958000 0.9070 0.9090 0.9120 0.9150 0.9190
10.991144 0.9200 0.9230 0.9250 0.9250 0.9270
11.024000 0.9280 0.9280 0.9300 0.9300 0.9320
11.057144 0.9320 0.9320 0.9330 0.9330 0.9350
11.090000 0.9380 0.9400 0.9430 0.9430 0.9450
11.123144 0.9450 0.9470 0.9470 0.9470 0.9480
11.157000 0.9480 0.9480 0.9480 0.9480 0.9480
11.190144 0.9480 0.9480 0.9480 0.9480 0.9480
11.223000 0.9480 0.9480 0.9500 0.9500 0.9500
11.256144 0.9500 0.9500 0.9500 0.9500 0.9500
11.289000 0.9500 0.9500 0.9500 0.9500 0.9500
11.322144 0.9500 0.9500 0.9520 0.9530 0.9550
11.355000 0.9550 0.9570 0.9580 0.9580 0.9580
11.388144 0.9600 0.9600 0.9600 0.9610 0.9610
11.422000 0.9610 0.9610 0.9610 0.9610 0.9610
11.455144 0.9610 0.9610 0.9610 0.9630 0.9630
11.488000 0.9650 0.9650 0.9650 0.9660 0.9660
11.521144 0.9660 0.9660 0.9660 0.9660 0.9660
11.554000 0.9660 0.9660 0.9660 0.9650 0.9630
11.587144 0.9630 0.9630 0.9650 0.9650 0.9650
11.620000 0.9650 0.9660 0.9660 0.9660 0.9660
11.653144 0.9680 0.9680 0.9680 0.9680 0.9680
11.687000 0.9680 0.9680 0.9680 0.9680 0.9680
11.720144 0.9680 0.9680 0.9680 0.9680 0.9680
11.753000 0.9680 0.9680 0.9680 0.9660 0.9660
11.786144 0.9660 0.9660 0.9660 0.9650 0.9650
11.819000 0.9650 0.9650 0.9650 0.9650 0.9650
11.852144 0.9650 0.9630 0.9630 0.9630 0.9630
11.885000 0.9630 0.9650 0.9650 0.9650 0.9660
11.918144 0.9660 0.9660 0.9680 0.9680 0.9680
11.952000 0.9680 0.9700 0.9700 0.9700 0.9700
11.985144 0.9700 0.9700 0.9700 0.9700 0.9700
12.018000 0.9700 0.9700 0.9700 0.9700 0.9700
12.051144 0.9700 0.9700 0.9700 0.9700 0.9700
12.084000 0.9700 0.9700 0.9700 0.9710 0.9710
12.117144 0.9710 0.9710 0.9710 0.9710 0.9710
12.150000 0.9710 0.9710 0.9710 0.9730 0.9730
12.183144 0.9730 0.9730 0.9730 0.9730 0.9730
12.217000 0.9730 0.9730 0.9730 0.9730 0.9730
12.250144 0.9730 0.9730 0.9730 0.9730 0.9730
12.283000 0.9730 0.9730 0.9730 0.9730 0.9730
12.316144 0.9730 0.9730 0.9730 0.9750 0.9750
12.349000 0.9750 0.9750 0.9750 0.9750 0.9750
12.382144 0.9750 0.9750 0.9750 0.9760 0.9760
12.416000 0.9760 0.9760 0.9760 0.9760 0.9760
12.449144 0.9760 0.9760 0.9760 0.9760 0.9760
12.482000 0.9760 0.9760 0.9760 0.9750 0.9750
12.515144 0.9750 0.9750 0.9750 0.9750 0.9750
12.548000 0.9750 0.9750 0.9750 0.9750 0.9730
12.581144 0.9730 0.9730 0.9730 0.9730 0.9730
12.614000 0.9730 0.9730 0.9730 0.9730 0.9730
12.647144 0.9730 0.9730 0.9730 0.9730 0.9730
12.681000 0.9710 0.9710 0.9710 0.9710 0.9710
12.714144 0.9710 0.9710 0.9710 0.9710 0.9710
12.747000 0.9700 0.9700 0.9700 0.9700 0.9700
12.780144 0.9700 0.9700 0.9700 0.9700 0.9700
12.813000 0.9680 0.9680 0.9680 0.9680 0.9680
12.846144 0.9680 0.9660 0.9660 0.9660 0.9660
12.879000 0.9660 0.9660 0.9650 0.9650 0.9650
12.912144 0.9650 0.9650 0.9650 0.9650 0.9650
12.946000 0.9650 0.9650 0.9650 0.9630 0.9630
12.979144 0.9630 0.9630 0.9630 0.9630 0.9630
13.012000 0.9630 0.9630 0.9630 0.9610 0.9610
13.045144 0.9610 0.9610 0.9610 0.9610 0.9610
13.078000 0.9600 0.9600 0.9600 0.9600 0.9600
13.111144 0.9600 0.9600 0.9580 0.9580 0.9580
13.144000 0.9580 0.9580 0.9580 0.9580 0.9580
13.177144 0.9580 0.9580 0.9570 0.9570 0.9570
13.211000 0.9550 0.9550 0.9550 0.9550 0.9550
13.244144 0.9550 0.9550 0.9530 0.9530 0.9530
13.277000 0.9530 0.9530 0.9520 0.9520 0.9500
13.310144 0.9500 0.9480 0.9480 0.9480 0.9480
13.343000 0.9480 0.9480 0.9470 0.9470 0.9470
13.376144 0.9470 0.9470 0.9450 0.9450 0.9430
13.409000 0.9420 0.9400 0.9380 0.9370 0.9350
13.442144 0.9350 0.9330 0.9330 0.9320 0.9320
13.476000 0.9300 0.9280 0.9270 0.9250 0.9230
13.509144 0.9220 0.9170 0.9140 0.9100 0.9090
13.542000 0.9070 0.9070 0.9070 0.9070 0.9050
13.575144 0.9050 0.9040 0.9040 0.9040 0.9020
13.608000 0.8990 0.8990 0.8970 0.8970 0.8970
13.641144 0.8970 0.8950 0.8940 0.8940 0.8920
13.674000 0.8900 0.8900 0.8900 0.8890 0.8870
13.707144 0.8870 0.8850 0.8850 0.8840 0.8820
13.741000 0.8800 0.8800 0.8800 0.8790 0.8790
13.774144 0.8770 0.8770 0.8760 0.8760 0.8760
13.807000 0.8740 0.8740 0.8720 0.8710 0.8690
13.840144 0.8690 0.8670 0.8670 0.8660 0.8640
13.873000 0.8640 0.8640 0.8620 0.8620 0.8610
13.906144 0.8610 0.8590 0.8590 0.8590 0.8590
13.939000 0.8610 0.8620 0.8640 0.8670 0.8690
13.972144 0.8720 0.8760 0.8800 0.8850 0.8870
14.006000 0.8890 0.8900 0.8920 0.8950 0.8950
14.039144 0.8970 0.8970 0.8970 0.8990 0.8990
14.072000 0.8990 0.9000 0.9020 0.9020 0.9020
14.105144 0.9020 0.9020 0.9040 0.9040 0.9050
14.138000 0.9050 0.9050 0.9090 0.9090 0.9090
14.171144 0.9090 0.9090 0.9100 0.9100 0.9100
14.204000 0.9100 0.9100 0.9100 0.9090 0.9090
14.237144 0.9070 0.9070 0.9070 0.9040 0.9020
14.271000 0.8990 0.8970 0.8970 0.8950 0.8950
14.304144 0.8940 0.8940 0.8950 0.8950 0.8970
14.337000 0.8990 0.8990 0.8990 0.8990 0.8970
14.370144 0.8940 0.8940 0.8920 0.8900 0.8890
14.403000 0.8850 0.8820 0.8800 0.8790 0.8770
14.436144 0.8770 0.8710 0.8670 0.8660 0.8640
14.469000 0.8640 0.8620 0.8610 0.8610 0.8590
14.502144 0.8570 0.8570 0.8560 0.8560 0.8540
14.536000 0.8520 0.8490 0.8470 0.8470 0.8420
14.569144 0.8410 0.8380 0.8380 0.8340 0.8330
14.602000 0.8310 0.8280 0.8230 0.8190 0.8190
14.635144 0.8190 0.8190 0.8210 0.8210 0.8210
14.668000 0.8180 0.8140 0.8110 0.8040 0.8000
14.701144 0.7980 0.7980 0.7950 0.7830 0.7780
14.735000 0.7730 0.7700 0.7680 0.7660 0.7630
14.768144 0.7600 0.7580 0.7570 0.7500 0.7480
14.801000 0.7470 0.7430 0.7400 0.7380 0.7370
14.834144 0.7320 0.7270 0.7230 0.7190 0.7120
14.867000 0.7100 0.7090 0.7070 0.7070 0.7050
14.900144 0.7050 0.7040 0.7040 0.7020 0.7000
14.933000 0.7000 0.7000 0.6990 0.6990 0.6970
14.966144 0.6970 0.6920 0.6890 0.6850 0.6840
15.000000 0.6760 0.6690 0.6610 0.6570 0.6510
15.033144 0.6470 0.6390 0.6310 0.6210 0.6180
15.066000 0.6160 0.6140 0.6140 0.6130 0.6130
15.099144 0.6130 0.6160 0.6180 0.6190 0.6260
15.132000 0.6280 0.6290 0.6330 0.6360 0.6380
15.165144 0.6390 0.6410 0.6440 0.6440 0.6440
15.198000 0.6440 0.6420 0.6420 0.6410 0.6410
15.231144 0.6390 0.6380 0.6360 0.6330 0.6330
15.265000 0.6310 0.6310 0.6310 0.6290 0.6290
15.298144 0.6280 0.6260 0.6230 0.6190 0.6180
15.331000 0.6140 0.6110 0.6110 0.6090 0.6080
15.364144 0.6010 0.6000 0.5960 0.5960 0.5910
15.397000 0.5900 0.5900 0.5860 0.5830 0.5800
15.430144 0.5800 0.5800 0.5760 0.5750 0.5710
15.463000 0.5680 0.5660 0.5630 0.5600 0.5570
15.496144 0.5480 0.5450 0.5400 0.5370 0.5370
15.530000 0.5300 0.5280 0.5280 0.5270 0.5270
15.563144 0.5230 0.5200 0.5140 0.5050 0.5020
15.596000 0.4990 0.4970 0.4940 0.4900 0.4900
15.629144 0.4890 0.4840 0.4800 0.4770 0.4770
15.662000 0.4720 0.4670 0.4670 0.4610 0.4570
15.695144 0.4570 0.4560 0.4520 0.4490 0.4470
15.728000 0.4420 0.4380 0.4330 0.4290 0.4280
15.761144 0.4240 0.4230 0.4190 0.4190 0.4180
15.795000 0.4160 0.4130 0.4110 0.4080 0.4040
15.828144 0.4030 0.4010 0.4010 0.4000 0.3980
15.861000 0.3960 0.3910 0.3910 0.3900 0.3900
15.894144 0.3880 0.3860 0.3860 0.3860 0.3860
15.927000 0.3860 0.3860 0.3880 0.3880 0.3900
15.960144 0.3900 0.3900 0.3900 0.3910 0.3900
15.993000 0.3900
##END=
