##TITLE=1-Naphthaleneacetamide, N-(2-aminoethyl)-, hydrochloride
##JCAMP-DX=4.24
##DATA TYPE=INFRARED SPECTRUM
##CLASS=COBLENTZ III
##ORIGIN=DOW CHEMICAL COMPANY
##OWNER=Copyright (C) 1987 by the Coblentz Society
Collection (C) 2018 copyright by the U.S. Secretary of Commerce
on behalf of the United States of America. All rights reserved.
##DATE=1965/02/16
##NAMES=N-(2-aminoethyl)-2-(1-naphthyl)acetamide hydrochloride
##MOLFORM=C14 H17 Cl N2 O
##MP=170 C
##SOURCE REFERENCE=COBLENTZ NO. 8154
##$NIST ID=B6008154
##$NIST SOURCE=COBLENTZ
##$NIST IMAGE=cob8154
##SPECTROMETER/DATA SYSTEM=DOW KBr FOREPRISM-GRATING
##INSTRUMENT PARAMETERS=BLAZED AT 3.5, 12.0, 20.0 MICRON AND CHANGED AT 5.0, 7.5, 14.9 MICRON
##STATE=SOLID (SPLIT MULL), FLUOROLUBE FOR 3800-1330 CM^-^1, NUJOL FOR 1330-400 CM^-^1
##SAMPLING PROCEDURE=TRANSMISSION
##RESOLUTION=2
##DATA PROCESSING=DIGITIZED BY COBLENTZ SOCIETY (BATCH II) FROM HARD COPY
##XUNITS=1/CM
##YUNITS=TRANSMITTANCE
##XFACTOR=1.0
##YFACTOR=1
##FIRSTX=382
##LASTX=3798
##FIRSTY=0.7131
##MAXX=3798
##MINX=382
##MAXY=0.8964
##MINY=0.0727
##NPOINTS=3417
##XYDATA=(X++(Y..Y))
382.000000 0.7131 0.7133 0.7137 0.7143 0.7149
387.000000 0.7154 0.7157 0.7161 0.7164 0.7168
392.000000 0.7171 0.7175 0.7178 0.7182 0.7185
397.000000 0.7189 0.7191 0.7194 0.7197 0.7200
402.000000 0.7202 0.7205 0.7208 0.7210 0.7213
407.000000 0.7216 0.7222 0.7228 0.7234 0.7240
412.000000 0.7246 0.7252 0.7258 0.7264 0.7270
417.000000 0.7279 0.7289 0.7298 0.7308 0.7318
422.000000 0.7327 0.7337 0.7347 0.7357 0.7370
427.000000 0.7383 0.7396 0.7408 0.7421 0.7434
432.000000 0.7447 0.7459 0.7471 0.7483 0.7495
437.000000 0.7508 0.7520 0.7524 0.7527 0.7529
442.000000 0.7532 0.7548 0.7528 0.7525 0.7522
447.000000 0.7517 0.7512 0.7506 0.7501 0.7495
452.000000 0.7489 0.7483 0.7474 0.7464 0.7455
457.000000 0.7446 0.7437 0.7427 0.7414 0.7401
462.000000 0.7388 0.7374 0.7361 0.7347 0.7334
467.000000 0.7320 0.7302 0.7281 0.7260 0.7239
472.000000 0.7218 0.7196 0.7175 0.7154 0.7133
477.000000 0.7097 0.7059 0.7021 0.6983 0.6945
482.000000 0.6907 0.6851 0.6777 0.6702 0.6621
487.000000 0.6541 0.6447 0.6425 0.6427 0.6451
492.000000 0.6483 0.6583 0.6661 0.6734 0.6794
497.000000 0.6800 0.6805 0.6836 0.6790 0.6777
502.000000 0.6760 0.6744 0.6727 0.6705 0.6664
507.000000 0.6620 0.6576 0.6523 0.6437 0.6348
512.000000 0.6250 0.6152 0.6014 0.5761 0.5742
517.000000 0.5747 0.5792 0.5767 0.5947 0.6044
522.000000 0.6125 0.6169 0.6197 0.6224 0.6253
527.000000 0.6295 0.6336 0.6385 0.6435 0.6465
532.000000 0.6475 0.6482 0.6512 0.6467 0.6454
537.000000 0.6421 0.6372 0.6322 0.6215 0.6042
542.000000 0.5870 0.5713 0.5739 0.5957 0.6272
547.000000 0.6588 0.6719 0.6777 0.6818 0.6832
552.000000 0.6845 0.6852 0.6858 0.6856 0.6854
557.000000 0.6917 0.6846 0.6838 0.6831 0.6823
562.000000 0.6816 0.6808 0.6796 0.6783 0.6770
567.000000 0.6757 0.6736 0.6708 0.6680 0.6652
572.000000 0.6616 0.6574 0.6532 0.6489 0.6447
577.000000 0.6387 0.6322 0.6262 0.6214 0.6212
582.000000 0.6177 0.6187 0.6201 0.6222 0.6254
587.000000 0.6289 0.6352 0.6448 0.6562 0.6677
592.000000 0.6786 0.6888 0.7035 0.7131 0.7199
597.000000 0.7277 0.7363 0.7461 0.7538 0.7597
602.000000 0.7639 0.7680 0.7703 0.7718 0.7732
607.000000 0.7742 0.7751 0.7758 0.7764 0.7771
612.000000 0.7779 0.7793 0.7831 0.7938 0.8103
617.000000 0.8169 0.8197 0.8210 0.8210 0.8210
622.000000 0.8210 0.8196 0.8166 0.8140 0.7906
627.000000 0.7774 0.7836 0.8020 0.8204 0.8375
632.000000 0.8393 0.8407 0.8411 0.8411 0.8411
637.000000 0.8411 0.8430 0.8409 0.8407 0.8404
642.000000 0.8400 0.8397 0.8391 0.8382 0.8369
647.000000 0.8358 0.8346 0.8331 0.8315 0.8300
652.000000 0.8285 0.8269 0.8253 0.8238 0.8222
657.000000 0.8197 0.8157 0.8107 0.8029 0.7945
662.000000 0.7929 0.7931 0.7933 0.7961 0.7947
667.000000 0.7965 0.8003 0.8068 0.8117 0.8121
672.000000 0.8122 0.8124 0.8131 0.8151 0.8173
677.000000 0.8195 0.8217 0.8244 0.8270 0.8301
682.000000 0.8333 0.8366 0.8401 0.8435 0.8469
687.000000 0.8494 0.8519 0.8555 0.8595 0.8629
692.000000 0.8654 0.8680 0.8697 0.8707 0.8716
697.000000 0.8721 0.8717 0.8714 0.8710 0.8763
702.000000 0.8700 0.8694 0.8685 0.8675 0.8662
707.000000 0.8640 0.8615 0.8583 0.8544 0.8499
712.000000 0.8448 0.8376 0.8298 0.8206 0.8115
717.000000 0.8006 0.7884 0.7781 0.7775 0.7779
722.000000 0.7799 0.7837 0.7868 0.7919 0.8000
727.000000 0.8099 0.8195 0.8268 0.8318 0.8367
732.000000 0.8410 0.8445 0.8473 0.8490 0.8491
737.000000 0.8491 0.8484 0.8472 0.8449 0.8408
742.000000 0.8366 0.8380 0.8446 0.8535 0.8624
747.000000 0.8704 0.8758 0.8793 0.8824 0.8850
752.000000 0.8859 0.8868 0.8874 0.8876 0.8877
757.000000 0.8875 0.8892 0.8866 0.8859 0.8853
762.000000 0.8836 0.8818 0.8797 0.8772 0.8735
767.000000 0.8689 0.8623 0.8524 0.8431 0.8345
772.000000 0.8250 0.8154 0.8014 0.7860 0.5934
777.000000 0.5243 0.3949 0.2656 0.1362 0.1361
782.000000 0.1976 0.2716 0.3457 0.4197 0.4937
787.000000 0.5678 0.6418 0.7159 0.7387 0.7383
792.000000 0.6480 0.5654 0.5760 0.5676 0.6829
797.000000 0.7010 0.6740 0.6076 0.5411 0.4795
802.000000 0.4799 0.6001 0.6938 0.7917 0.8085
807.000000 0.8338 0.8511 0.8606 0.8675 0.8737
812.000000 0.8768 0.8818 0.8788 0.8785 0.8770
817.000000 0.8737 0.8700 0.8651 0.8590 0.8526
822.000000 0.8461 0.8197 0.7788 0.7379 0.7011
827.000000 0.7019 0.7415 0.7805 0.8196 0.8524
832.000000 0.8681 0.8798 0.8842 0.8884 0.8911
837.000000 0.8934 0.8940 0.8945 0.8941 0.8936
842.000000 0.8932 0.8964 0.8922 0.8916 0.8909
847.000000 0.8903 0.8896 0.8885 0.8874 0.8854
852.000000 0.8833 0.8807 0.8795 0.8802 0.8812
857.000000 0.8822 0.8832 0.8840 0.8844 0.8848
862.000000 0.8838 0.8773 0.8648 0.8522 0.8397
867.000000 0.8272 0.8147 0.8021 0.7932 0.8814
872.000000 0.8848 0.8860 0.8864 0.8866 0.8844
877.000000 0.8831 0.8793 0.8753 0.8712 0.8667
882.000000 0.8671 0.8676 0.8683 0.8691 0.8695
887.000000 0.8691 0.8685 0.8678 0.8670 0.8663
892.000000 0.8655 0.8647 0.8640 0.8632 0.8622
897.000000 0.8611 0.8595 0.8571 0.8548 0.8524
902.000000 0.8474 0.8423 0.8382 0.8345 0.8308
907.000000 0.8268 0.8224 0.8180 0.8136 0.8093
912.000000 0.7975 0.7703 0.7071 0.6373 0.5676
917.000000 0.5498 0.5500 0.5506 0.6228 0.6886
922.000000 0.7125 0.7492 0.7944 0.8024 0.8090
927.000000 0.8142 0.8191 0.8235 0.8260 0.8272
932.000000 0.8271 0.8270 0.8265 0.8258 0.8251
937.000000 0.8240 0.8229 0.8215 0.8193 0.8198
942.000000 0.8208 0.8219 0.8263 0.8362 0.8428
947.000000 0.8455 0.8446 0.8427 0.8389 0.8299
952.000000 0.8201 0.8193 0.8195 0.8205 0.8219
957.000000 0.8243 0.8310 0.8366 0.8417 0.8434
962.000000 0.8428 0.8425 0.8421 0.8416 0.8408
967.000000 0.8388 0.8359 0.8321 0.8281 0.8263
972.000000 0.8249 0.8245 0.8256 0.8276 0.8315
977.000000 0.8339 0.8336 0.8333 0.8329 0.8322
982.000000 0.8315 0.8309 0.8303 0.8298 0.8287
987.000000 0.8273 0.8257 0.8230 0.8213 0.8207
992.000000 0.8203 0.8199 0.8195 0.8192 0.8195
997.000000 0.8199 0.8202 0.8213 0.8226 0.8239
1002.000000 0.8256 0.8258 0.8255 0.8252 0.8242
1007.000000 0.8234 0.8225 0.8205 0.8179 0.8149
1012.000000 0.8084 0.8006 0.7928 0.7848 0.7598
1017.000000 0.7252 0.7297 0.7397 0.7477 0.7218
1022.000000 0.7275 0.7304 0.7178 0.7046 0.6914
1027.000000 0.6782 0.6650 0.6575 0.6605 0.7569
1032.000000 0.7761 0.7873 0.7997 0.8077 0.8119
1037.000000 0.8150 0.8165 0.8173 0.8166 0.8168
1042.000000 0.8139 0.8118 0.8094 0.8088 0.8082
1047.000000 0.8093 0.8087 0.8172 0.8240 0.8260
1052.000000 0.8268 0.8266 0.8236 0.8258 0.8246
1057.000000 0.8234 0.8214 0.8193 0.8161 0.8123
1062.000000 0.8078 0.8033 0.7988 0.7931 0.7872
1067.000000 0.7745 0.7493 0.7474 0.7463 0.7469
1072.000000 0.7581 0.7661 0.7740 0.7863 0.7910
1077.000000 0.7921 0.7934 0.7911 0.7899 0.7886
1082.000000 0.7863 0.7798 0.7702 0.7609 0.7523
1087.000000 0.7505 0.7508 0.7475 0.7614 0.7666
1092.000000 0.7749 0.7936 0.8120 0.8222 0.8261
1097.000000 0.8286 0.8305 0.8321 0.8331 0.8337
1102.000000 0.8340 0.8342 0.8317 0.8334 0.8329
1107.000000 0.8321 0.8314 0.8306 0.8298 0.8290
1112.000000 0.8281 0.8272 0.8262 0.8253 0.8244
1117.000000 0.8234 0.8219 0.8204 0.8189 0.8174
1122.000000 0.8159 0.8144 0.8126 0.8106 0.8086
1127.000000 0.8065 0.8045 0.8013 0.7980 0.7947
1132.000000 0.7914 0.7881 0.7836 0.7789 0.7742
1137.000000 0.7670 0.7587 0.7513 0.7450 0.7375
1142.000000 0.7056 0.7074 0.7075 0.7081 0.7201
1147.000000 0.7372 0.7560 0.7744 0.7779 0.7749
1152.000000 0.7774 0.7759 0.7740 0.7713 0.7671
1157.000000 0.7628 0.7584 0.7532 0.7462 0.7323
1162.000000 0.7175 0.7051 0.6929 0.6644 0.6328
1167.000000 0.5994 0.5692 0.5700 0.5687 0.5865
1172.000000 0.6164 0.6463 0.6761 0.6865 0.6940
1177.000000 0.7050 0.7161 0.7304 0.7423 0.7510
1182.000000 0.7570 0.7609 0.7620 0.7618 0.7610
1187.000000 0.7602 0.7593 0.7583 0.7613 0.7663
1192.000000 0.7683 0.7688 0.7688 0.7685 0.7681
1197.000000 0.7678 0.7670 0.7661 0.7649 0.7635
1202.000000 0.7646 0.7654 0.7657 0.7659 0.7659
1207.000000 0.7656 0.7648 0.7638 0.7625 0.7607
1212.000000 0.7580 0.7549 0.7518 0.7481 0.7434
1217.000000 0.7385 0.7329 0.7177 0.6958 0.6753
1222.000000 0.6044 0.5747 0.5401 0.5147 0.4894
1227.000000 0.4641 0.4387 0.4134 0.4010 0.3983
1232.000000 0.4019 0.4410 0.4839 0.5268 0.5697
1237.000000 0.6127 0.6556 0.6985 0.7262 0.7332
1242.000000 0.7380 0.7362 0.7362 0.7349 0.7336
1247.000000 0.7293 0.7164 0.7067 0.6939 0.6602
1252.000000 0.6211 0.5819 0.5486 0.5492 0.5763
1257.000000 0.6068 0.6372 0.6677 0.6982 0.7429
1262.000000 0.7519 0.7498 0.7500 0.7495 0.7486
1267.000000 0.7470 0.7417 0.7334 0.7093 0.7117
1272.000000 0.7131 0.7186 0.7250 0.7301 0.7335
1277.000000 0.7368 0.7396 0.7423 0.7450 0.7461
1282.000000 0.7472 0.7478 0.7486 0.7472 0.7454
1287.000000 0.7429 0.7390 0.7345 0.7298 0.7240
1292.000000 0.7229 0.7231 0.7243 0.7279 0.7319
1297.000000 0.7361 0.7418 0.7462 0.7501 0.7516
1302.000000 0.7515 0.7512 0.7499 0.7507 0.7499
1307.000000 0.7488 0.7477 0.7453 0.7429 0.7404
1312.000000 0.7376 0.7349 0.7319 0.7277 0.7235
1317.000000 0.7116 0.6968 0.6655 0.6453 0.6252
1322.000000 0.6185 0.6196 0.6413 0.6535 0.6656
1327.000000 0.6722 0.6720 0.6719 0.6730 0.6707
1332.000000 0.6688 0.6666 0.6619 0.6577 0.6522
1337.000000 0.6430 0.6333 0.6231 0.6055 0.5438
1342.000000 0.5094 0.5098 0.5086 0.5186 0.5301
1347.000000 0.5411 0.5567 0.6190 0.6191 0.6179
1352.000000 0.6161 0.6154 0.6177 0.6217 0.6277
1357.000000 0.6313 0.6325 0.6332 0.6320 0.6211
1362.000000 0.6102 0.5994 0.5980 0.6100 0.6253
1367.000000 0.6410 0.6459 0.6507 0.6601 0.6799
1372.000000 0.7245 0.7397 0.7466 0.7528 0.7567
1377.000000 0.7572 0.7571 0.7565 0.7553 0.7539
1382.000000 0.7529 0.7532 0.7554 0.7587 0.7625
1387.000000 0.7652 0.7664 0.7641 0.7661 0.7654
1392.000000 0.7632 0.7605 0.7575 0.7543 0.7512
1397.000000 0.7471 0.7427 0.7378 0.7286 0.7234
1402.000000 0.7363 0.7466 0.7520 0.7542 0.7554
1407.000000 0.7560 0.7559 0.7471 0.7320 0.7170
1412.000000 0.7020 0.6870 0.6719 0.6639 0.6747
1417.000000 0.6955 0.6957 0.6955 0.6890 0.6778
1422.000000 0.6665 0.6565 0.6542 0.6536 0.6533
1427.000000 0.6530 0.6462 0.6186 0.5909 0.5632
1432.000000 0.5355 0.5333 0.5340 0.5627 0.5810
1437.000000 0.5897 0.5906 0.5919 0.5938 0.6403
1442.000000 0.6449 0.6471 0.6480 0.6487 0.6446
1447.000000 0.6391 0.6336 0.6296 0.6296 0.6435
1452.000000 0.6748 0.7061 0.7373 0.7662 0.7753
1457.000000 0.7785 0.7797 0.7801 0.7782 0.7794
1462.000000 0.7790 0.7779 0.7768 0.7759 0.7752
1467.000000 0.7744 0.7735 0.7724 0.7714 0.7699
1472.000000 0.7679 0.7660 0.7638 0.7612 0.7585
1477.000000 0.7558 0.7529 0.7500 0.7462 0.7414
1482.000000 0.7339 0.7258 0.7186 0.7118 0.7050
1487.000000 0.6984 0.6919 0.6853 0.6776 0.6685
1492.000000 0.6595 0.6460 0.6286 0.6103 0.5936
1497.000000 0.5774 0.5665 0.5528 0.5125 0.4722
1502.000000 0.4464 0.4318 0.4230 0.4188 0.4168
1507.000000 0.4111 0.4018 0.3925 0.3900 0.4403
1512.000000 0.4941 0.4944 0.4948 0.4925 0.4892
1517.000000 0.4698 0.4522 0.4345 0.4168 0.3992
1522.000000 0.3815 0.3639 0.3462 0.3285 0.3109
1527.000000 0.2932 0.2756 0.2579 0.2401 0.2304
1532.000000 0.2237 0.2183 0.2160 0.2146 0.2120
1537.000000 0.2151 0.2170 0.2228 0.2322 0.2406
1542.000000 0.2510 0.2627 0.2729 0.2823 0.2912
1547.000000 0.3001 0.3279 0.3371 0.3511 0.3784
1552.000000 0.4057 0.4330 0.4602 0.4875 0.5152
1557.000000 0.5294 0.5355 0.5384 0.5373 0.5373
1562.000000 0.5368 0.5361 0.5345 0.5322 0.5290
1567.000000 0.5243 0.5204 0.5199 0.5166 0.5210
1572.000000 0.5226 0.5295 0.5418 0.5557 0.5631
1577.000000 0.5718 0.5806 0.5893 0.5981 0.6069
1582.000000 0.6156 0.6244 0.6327 0.6763 0.6907
1587.000000 0.6962 0.6987 0.7019 0.7006 0.6998
1592.000000 0.6968 0.6907 0.6821 0.6655 0.6468
1597.000000 0.6311 0.6290 0.7046 0.7035 0.7047
1602.000000 0.7036 0.7005 0.6891 0.6771 0.6651
1607.000000 0.6532 0.6412 0.6292 0.6172 0.6053
1612.000000 0.5933 0.5847 0.5785 0.5695 0.5703
1617.000000 0.5718 0.5761 0.5820 0.5866 0.5875
1622.000000 0.5874 0.5864 0.5854 0.5850 0.5845
1627.000000 0.5844 0.5844 0.5853 0.5867 0.5910
1632.000000 0.5982 0.6038 0.6055 0.6063 0.6057
1637.000000 0.6034 0.5946 0.5764 0.5582 0.5400
1642.000000 0.5218 0.5036 0.4854 0.4672 0.4490
1647.000000 0.4308 0.4145 0.3792 0.2989 0.2186
1652.000000 0.1758 0.1496 0.1081 0.0922 0.0836
1657.000000 0.0769 0.0757 0.0727 0.0834 0.0885
1662.000000 0.1267 0.1804 0.2342 0.2879 0.3417
1667.000000 0.3954 0.4492 0.5029 0.5582 0.5702
1672.000000 0.5848 0.6009 0.6215 0.6805 0.7232
1677.000000 0.7451 0.7723 0.7859 0.7973 0.8074
1682.000000 0.8156 0.8238 0.8289 0.8335 0.8381
1687.000000 0.8424 0.8458 0.8492 0.8519 0.8541
1692.000000 0.8563 0.8584 0.8602 0.8616 0.8631
1697.000000 0.8646 0.8661 0.8671 0.8680 0.8689
1702.000000 0.8698 0.8707 0.8712 0.8717 0.8722
1707.000000 0.8727 0.8731 0.8736 0.8741 0.8746
1712.000000 0.8751 0.8755 0.8760 0.8764 0.8769
1717.000000 0.8774 0.8778 0.8780 0.8780 0.8781
1722.000000 0.8782 0.8783 0.8783 0.8784 0.8784
1727.000000 0.8785 0.8785 0.8786 0.8786 0.8787
1732.000000 0.8788 0.8791 0.8793 0.8795 0.8798
1737.000000 0.8800 0.8802 0.8805 0.8808 0.8812
1742.000000 0.8817 0.8821 0.8825 0.8830 0.8834
1747.000000 0.8839 0.8843 0.8847 0.8851 0.8853
1752.000000 0.8854 0.8856 0.8858 0.8859 0.8861
1757.000000 0.8862 0.8864 0.8865 0.8867 0.8868
1762.000000 0.8868 0.8869 0.8870 0.8871 0.8872
1767.000000 0.8841 0.8873 0.8874 0.8874 0.8873
1772.000000 0.8872 0.8871 0.8870 0.8868 0.8867
1777.000000 0.8866 0.8865 0.8864 0.8861 0.8859
1782.000000 0.8856 0.8854 0.8852 0.8849 0.8847
1787.000000 0.8844 0.8842 0.8839 0.8834 0.8827
1792.000000 0.8821 0.8814 0.8808 0.8801 0.8794
1797.000000 0.8788 0.8781 0.8776 0.8776 0.8776
1802.000000 0.8776 0.8780 0.8784 0.8788 0.8788
1807.000000 0.8787 0.8785 0.8785 0.8791 0.8796
1812.000000 0.8802 0.8807 0.8812 0.8818 0.8823
1817.000000 0.8829 0.8833 0.8832 0.8831 0.8830
1822.000000 0.8829 0.8827 0.8824 0.8821 0.8819
1827.000000 0.8819 0.8819 0.8819 0.8819 0.8819
1832.000000 0.8819 0.8819 0.8819 0.8819 0.8819
1837.000000 0.8819 0.8819 0.8819 0.8819 0.8819
1842.000000 0.8819 0.8819 0.8818 0.8817 0.8816
1847.000000 0.8815 0.8813 0.8812 0.8811 0.8810
1852.000000 0.8809 0.8807 0.8806 0.8804 0.8803
1857.000000 0.8802 0.8800 0.8799 0.8797 0.8793
1862.000000 0.8789 0.8786 0.8782 0.8778 0.8774
1867.000000 0.8770 0.8765 0.8762 0.8764 0.8765
1872.000000 0.8766 0.8767 0.8767 0.8768 0.8769
1877.000000 0.8770 0.8770 0.8771 0.8772 0.8774
1882.000000 0.8775 0.8776 0.8777 0.8778 0.8774
1887.000000 0.8771 0.8767 0.8762 0.8757 0.8751
1892.000000 0.8746 0.8741 0.8735 0.8730 0.8725
1897.000000 0.8719 0.8714 0.8709 0.8703 0.8698
1902.000000 0.8691 0.8684 0.8676 0.8669 0.8662
1907.000000 0.8655 0.8648 0.8640 0.8632 0.8624
1912.000000 0.8616 0.8609 0.8601 0.8593 0.8585
1917.000000 0.8578 0.8572 0.8566 0.8564 0.8563
1922.000000 0.8561 0.8560 0.8559 0.8558 0.8557
1927.000000 0.8555 0.8554 0.8551 0.8548 0.8545
1932.000000 0.8543 0.8543 0.8543 0.8544 0.8546
1937.000000 0.8548 0.8550 0.8553 0.8561 0.8569
1942.000000 0.8577 0.8585 0.8592 0.8600 0.8608
1947.000000 0.8619 0.8631 0.8644 0.8656 0.8669
1952.000000 0.8682 0.8695 0.8709 0.8722 0.8725
1957.000000 0.8714 0.8692 0.8668 0.8641 0.8613
1962.000000 0.8613 0.8619 0.8622 0.8625 0.8628
1967.000000 0.8631 0.8634 0.8635 0.8636 0.8638
1972.000000 0.8639 0.8640 0.8641 0.8642 0.8642
1977.000000 0.8642 0.8642 0.8642 0.8642 0.8643
1982.000000 0.8641 0.8640 0.8639 0.8637 0.8636
1987.000000 0.8635 0.8633 0.8631 0.8630 0.8626
1992.000000 0.8617 0.8608 0.8599 0.8610 0.8628
1997.000000 0.8646 0.8663 0.8675 0.8685 0.8685
2002.000000 0.8686 0.8684 0.8683 0.8681 0.8680
2007.000000 0.8678 0.8676 0.8673 0.8671 0.8669
2012.000000 0.8667 0.8665 0.8663 0.8661 0.8659
2017.000000 0.8656 0.8654 0.8652 0.8650 0.8647
2022.000000 0.8645 0.8643 0.8641 0.8638 0.8636
2027.000000 0.8633 0.8631 0.8629 0.8627 0.8624
2032.000000 0.8621 0.8618 0.8616 0.8613 0.8611
2037.000000 0.8608 0.8606 0.8603 0.8601 0.8598
2042.000000 0.8596 0.8593 0.8591 0.8588 0.8585
2047.000000 0.8582 0.8579 0.8574 0.8570 0.8565
2052.000000 0.8561 0.8556 0.8552 0.8547 0.8543
2057.000000 0.8538 0.8534 0.8529 0.8525 0.8520
2062.000000 0.8516 0.8512 0.8508 0.8503 0.8499
2067.000000 0.8495 0.8491 0.8486 0.8482 0.8478
2072.000000 0.8474 0.8469 0.8465 0.8461 0.8457
2077.000000 0.8452 0.8448 0.8444 0.8440 0.8435
2082.000000 0.8431 0.8427 0.8423 0.8419 0.8415
2087.000000 0.8411 0.8408 0.8404 0.8401 0.8397
2092.000000 0.8394 0.8390 0.8387 0.8383 0.8380
2097.000000 0.8376 0.8373 0.8371 0.8369 0.8369
2102.000000 0.8370 0.8370 0.8371 0.8371 0.8372
2107.000000 0.8373 0.8375 0.8377 0.8379 0.8381
2112.000000 0.8383 0.8385 0.8387 0.8389 0.8391
2117.000000 0.8393 0.8395 0.8397 0.8399 0.8401
2122.000000 0.8403 0.8407 0.8412 0.8416 0.8421
2127.000000 0.8425 0.8430 0.8434 0.8438 0.8442
2132.000000 0.8447 0.8450 0.8454 0.8457 0.8461
2137.000000 0.8464 0.8467 0.8470 0.8473 0.8476
2142.000000 0.8479 0.8482 0.8485 0.8488 0.8491
2147.000000 0.8494 0.8497 0.8500 0.8503 0.8506
2152.000000 0.8510 0.8514 0.8519 0.8524 0.8530
2157.000000 0.8532 0.8535 0.8536 0.8538 0.8539
2162.000000 0.8540 0.8541 0.8542 0.8543 0.8545
2167.000000 0.8546 0.8547 0.8548 0.8550 0.8551
2172.000000 0.8552 0.8553 0.8555 0.8555 0.8556
2177.000000 0.8556 0.8556 0.8555 0.8555 0.8554
2182.000000 0.8554 0.8554 0.8554 0.8553 0.8553
2187.000000 0.8553 0.8553 0.8552 0.8552 0.8552
2192.000000 0.8552 0.8551 0.8551 0.8550 0.8550
2197.000000 0.8550 0.8550 0.8548 0.8547 0.8545
2202.000000 0.8544 0.8542 0.8541 0.8539 0.8538
2207.000000 0.8536 0.8534 0.8532 0.8531 0.8529
2212.000000 0.8528 0.8526 0.8525 0.8523 0.8522
2217.000000 0.8520 0.8518 0.8516 0.8515 0.8513
2222.000000 0.8511 0.8508 0.8505 0.8502 0.8500
2227.000000 0.8497 0.8494 0.8491 0.8488 0.8485
2232.000000 0.8482 0.8479 0.8477 0.8474 0.8471
2237.000000 0.8468 0.8465 0.8462 0.8459 0.8456
2242.000000 0.8454 0.8451 0.8448 0.8445 0.8442
2247.000000 0.8439 0.8436 0.8433 0.8430 0.8427
2252.000000 0.8425 0.8426 0.8427 0.8434 0.8442
2257.000000 0.8459 0.8477 0.8492 0.8507 0.8518
2262.000000 0.8530 0.8531 0.8532 0.8522 0.8512
2267.000000 0.8487 0.8463 0.8435 0.8407 0.8388
2272.000000 0.8369 0.8363 0.8357 0.8353 0.8349
2277.000000 0.8346 0.8343 0.8341 0.8340 0.8339
2282.000000 0.8339 0.8338 0.8338 0.8338 0.8339
2287.000000 0.8340 0.8341 0.8342 0.8344 0.8345
2292.000000 0.8347 0.8349 0.8351 0.8351 0.8351
2297.000000 0.8349 0.8347 0.8345 0.8344 0.8340
2302.000000 0.8336 0.8328 0.8320 0.8312 0.8305
2307.000000 0.8296 0.8287 0.8277 0.8268 0.8265
2312.000000 0.8262 0.8263 0.8264 0.8267 0.8271
2317.000000 0.8279 0.8288 0.8297 0.8306 0.8317
2322.000000 0.8329 0.8337 0.8345 0.8347 0.8350
2327.000000 0.8352 0.8354 0.8354 0.8355 0.8355
2332.000000 0.8356 0.8356 0.8357 0.8357 0.8357
2337.000000 0.8357 0.8357 0.8356 0.8356 0.8354
2342.000000 0.8352 0.8350 0.8349 0.8347 0.8345
2347.000000 0.8342 0.8340 0.8338 0.8336 0.8334
2352.000000 0.8332 0.8330 0.8328 0.8325 0.8323
2357.000000 0.8321 0.8319 0.8317 0.8315 0.8313
2362.000000 0.8311 0.8309 0.8308 0.8306 0.8304
2367.000000 0.8302 0.8300 0.8298 0.8297 0.8295
2372.000000 0.8293 0.8290 0.8288 0.8285 0.8282
2377.000000 0.8279 0.8277 0.8274 0.8271 0.8268
2382.000000 0.8265 0.8262 0.8259 0.8256 0.8254
2387.000000 0.8251 0.8248 0.8245 0.8242 0.8239
2392.000000 0.8236 0.8233 0.8230 0.8226 0.8223
2397.000000 0.8220 0.8217 0.8214 0.8211 0.8207
2402.000000 0.8204 0.8201 0.8198 0.8195 0.8192
2407.000000 0.8188 0.8185 0.8182 0.8179 0.8174
2412.000000 0.8170 0.8165 0.8161 0.8156 0.8151
2417.000000 0.8146 0.8142 0.8137 0.8132 0.8127
2422.000000 0.8123 0.8118 0.8114 0.8109 0.8104
2427.000000 0.8099 0.8095 0.8090 0.8086 0.8081
2432.000000 0.8076 0.8071 0.8067 0.8062 0.8058
2437.000000 0.8053 0.8048 0.8043 0.8039 0.8034
2442.000000 0.8030 0.8025 0.8021 0.8016 0.8011
2447.000000 0.8006 0.8002 0.7997 0.7993 0.7988
2452.000000 0.7984 0.7979 0.7974 0.7969 0.7965
2457.000000 0.7960 0.7956 0.7951 0.7947 0.7942
2462.000000 0.7938 0.7933 0.7929 0.7924 0.7920
2467.000000 0.7915 0.7911 0.7906 0.7902 0.7895
2472.000000 0.7889 0.7881 0.7874 0.7867 0.7860
2477.000000 0.7852 0.7845 0.7837 0.7830 0.7825
2482.000000 0.7821 0.7822 0.7823 0.7823 0.7824
2487.000000 0.7824 0.7825 0.7825 0.7826 0.7826
2492.000000 0.7827 0.7827 0.7828 0.7827 0.7826
2497.000000 0.7818 0.7810 0.7801 0.7793 0.7777
2502.000000 0.7762 0.7746 0.7731 0.7717 0.7703
2507.000000 0.7689 0.7675 0.7665 0.7655 0.7649
2512.000000 0.7643 0.7636 0.7630 0.7625 0.7621
2517.000000 0.7620 0.7620 0.7620 0.7620 0.7624
2522.000000 0.7628 0.7632 0.7636 0.7639 0.7643
2527.000000 0.7648 0.7653 0.7658 0.7664 0.7669
2532.000000 0.7675 0.7680 0.7686 0.7692 0.7698
2537.000000 0.7703 0.7709 0.7713 0.7717 0.7719
2542.000000 0.7722 0.7724 0.7726 0.7728 0.7731
2547.000000 0.7732 0.7734 0.7734 0.7735 0.7735
2552.000000 0.7736 0.7737 0.7738 0.7735 0.7732
2557.000000 0.7727 0.7722 0.7717 0.7712 0.7707
2562.000000 0.7702 0.7697 0.7692 0.7687 0.7682
2567.000000 0.7675 0.7668 0.7661 0.7654 0.7646
2572.000000 0.7639 0.7632 0.7625 0.7617 0.7610
2577.000000 0.7601 0.7593 0.7583 0.7574 0.7564
2582.000000 0.7555 0.7545 0.7536 0.7526 0.7517
2587.000000 0.7507 0.7497 0.7487 0.7478 0.7467
2592.000000 0.7457 0.7445 0.7434 0.7422 0.7411
2597.000000 0.7399 0.7388 0.7376 0.7364 0.7352
2602.000000 0.7341 0.7329 0.7318 0.7307 0.7296
2607.000000 0.7284 0.7273 0.7261 0.7250 0.7238
2612.000000 0.7227 0.7215 0.7204 0.7192 0.7181
2617.000000 0.7170 0.7159 0.7149 0.7139 0.7130
2622.000000 0.7122 0.7113 0.7104 0.7095 0.7086
2627.000000 0.7077 0.7068 0.7059 0.7051 0.7047
2632.000000 0.7044 0.7042 0.7040 0.7038 0.7036
2637.000000 0.7034 0.7032 0.7030 0.7028 0.7025
2642.000000 0.7023 0.7021 0.7019 0.7017 0.7015
2647.000000 0.7015 0.7016 0.7016 0.7017 0.7017
2652.000000 0.7018 0.7018 0.7018 0.7018 0.7018
2657.000000 0.7018 0.7018 0.7017 0.7017 0.7017
2662.000000 0.7017 0.7016 0.7016 0.7014 0.7013
2667.000000 0.7000 0.6988 0.6975 0.6963 0.6950
2672.000000 0.6938 0.6926 0.6914 0.6901 0.6889
2677.000000 0.6876 0.6863 0.6850 0.6837 0.6824
2682.000000 0.6812 0.6803 0.6795 0.6790 0.6785
2687.000000 0.6784 0.6784 0.6785 0.6787 0.6788
2692.000000 0.6790 0.6792 0.6795 0.6798 0.6801
2697.000000 0.6804 0.6807 0.6806 0.6806 0.6804
2702.000000 0.6803 0.6801 0.6799 0.6797 0.6795
2707.000000 0.6793 0.6791 0.6781 0.6772 0.6762
2712.000000 0.6752 0.6741 0.6731 0.6713 0.6696
2717.000000 0.6675 0.6654 0.6633 0.6613 0.6597
2722.000000 0.6581 0.6565 0.6549 0.6533 0.6517
2727.000000 0.6501 0.6485 0.6469 0.6453 0.6437
2732.000000 0.6421 0.6405 0.6389 0.6374 0.6359
2737.000000 0.6346 0.6334 0.6321 0.6309 0.6296
2742.000000 0.6284 0.6271 0.6259 0.6246 0.6234
2747.000000 0.6221 0.6209 0.6197 0.6185 0.6172
2752.000000 0.6160 0.6147 0.6135 0.6122 0.6110
2757.000000 0.6095 0.6080 0.6065 0.6050 0.6034
2762.000000 0.6019 0.6004 0.5989 0.5981 0.5973
2767.000000 0.5966 0.5959 0.5952 0.5945 0.5938
2772.000000 0.5931 0.5929 0.5927 0.5928 0.5929
2777.000000 0.5930 0.5931 0.5932 0.5933 0.5934
2782.000000 0.5935 0.5936 0.5937 0.5937 0.5937
2787.000000 0.5937 0.5937 0.5937 0.5938 0.5938
2792.000000 0.5938 0.5929 0.5920 0.5905 0.5891
2797.000000 0.5876 0.5862 0.5847 0.5832 0.5808
2802.000000 0.5785 0.5743 0.5701 0.5661 0.5621
2807.000000 0.5598 0.5576 0.5565 0.5554 0.5547
2812.000000 0.5541 0.5539 0.5538 0.5537 0.5536
2817.000000 0.5536 0.5536 0.5537 0.5539 0.5540
2822.000000 0.5542 0.5543 0.5545 0.5546 0.5548
2827.000000 0.5547 0.5546 0.5542 0.5539 0.5535
2832.000000 0.5532 0.5528 0.5525 0.5521 0.5518
2837.000000 0.5514 0.5511 0.5507 0.5503 0.5496
2842.000000 0.5489 0.5482 0.5475 0.5468 0.5461
2847.000000 0.5445 0.5429 0.5413 0.5397 0.5380
2852.000000 0.5364 0.5348 0.5332 0.5316 0.5300
2857.000000 0.5284 0.5268 0.5252 0.5236 0.5219
2862.000000 0.5203 0.5187 0.5171 0.5155 0.5139
2867.000000 0.5123 0.5107 0.5090 0.5074 0.5058
2872.000000 0.5042 0.5026 0.5010 0.4994 0.4978
2877.000000 0.4961 0.4945 0.4929 0.4913 0.4897
2882.000000 0.4881 0.4865 0.4849 0.4833 0.4817
2887.000000 0.4800 0.4784 0.4768 0.4752 0.4736
2892.000000 0.4720 0.4704 0.4688 0.4671 0.4655
2897.000000 0.4639 0.4623 0.4607 0.4591 0.4575
2902.000000 0.4559 0.4542 0.4526 0.4510 0.4494
2907.000000 0.4478 0.4462 0.4446 0.4430 0.4415
2912.000000 0.4400 0.4386 0.4372 0.4358 0.4345
2917.000000 0.4331 0.4318 0.4304 0.4291 0.4278
2922.000000 0.4266 0.4255 0.4244 0.4233 0.4222
2927.000000 0.4211 0.4200 0.4190 0.4181 0.4174
2932.000000 0.4167 0.4162 0.4157 0.4157 0.4158
2937.000000 0.4158 0.4159 0.4159 0.4160 0.4163
2942.000000 0.4166 0.4170 0.4175 0.4179 0.4184
2947.000000 0.4192 0.4201 0.4210 0.4220 0.4221
2952.000000 0.4222 0.4223 0.4224 0.4220 0.4217
2957.000000 0.4211 0.4206 0.4201 0.4196 0.4181
2962.000000 0.4167 0.4144 0.4121 0.4105 0.4090
2967.000000 0.4076 0.4062 0.4047 0.4033 0.4023
2972.000000 0.4013 0.4005 0.3998 0.3992 0.3987
2977.000000 0.3983 0.3980 0.3976 0.3973 0.3969
2982.000000 0.3966 0.3959 0.3952 0.3937 0.3922
2987.000000 0.3905 0.3889 0.3865 0.3842 0.3819
2992.000000 0.3796 0.3777 0.3758 0.3739 0.3720
2997.000000 0.3701 0.3682 0.3664 0.3646 0.3629
3002.000000 0.3613 0.3596 0.3580 0.3575 0.3571
3007.000000 0.3569 0.3568 0.3571 0.3574 0.3575
3012.000000 0.3577 0.3576 0.3575 0.3574 0.3573
3017.000000 0.3566 0.3560 0.3554 0.3548 0.3534
3022.000000 0.3520 0.3502 0.3485 0.3462 0.3439
3027.000000 0.3411 0.3384 0.3361 0.3338 0.3317
3032.000000 0.3297 0.3276 0.3255 0.3237 0.3219
3037.000000 0.3204 0.3189 0.3190 0.3191 0.3196
3042.000000 0.3208 0.3208 0.3214 0.3221 0.3228
3047.000000 0.3242 0.3256 0.3278 0.3301 0.3314
3052.000000 0.3328 0.3336 0.3344 0.3351 0.3359
3057.000000 0.3364 0.3370 0.3374 0.3379 0.3383
3062.000000 0.3388 0.3391 0.3394 0.3396 0.3399
3067.000000 0.3402 0.3405 0.3426 0.3448 0.3477
3072.000000 0.3507 0.3543 0.3579 0.3623 0.3668
3077.000000 0.3689 0.3711 0.3732 0.3753 0.3772
3082.000000 0.3792 0.3812 0.3832 0.3852 0.3873
3087.000000 0.3894 0.3915 0.3935 0.3956 0.3977
3092.000000 0.3998 0.4022 0.4047 0.4073 0.4100
3097.000000 0.4126 0.4153 0.4178 0.4203 0.4227
3102.000000 0.4252 0.4269 0.4286 0.4292 0.4298
3107.000000 0.4304 0.4310 0.4309 0.4309 0.4308
3112.000000 0.4307 0.4305 0.4304 0.4301 0.4299
3117.000000 0.4296 0.4294 0.4291 0.4288 0.4288
3122.000000 0.4288 0.4288 0.4288 0.4288 0.4288
3127.000000 0.4288 0.4288 0.4292 0.4297 0.4301
3132.000000 0.4305 0.4309 0.4313 0.4322 0.4332
3137.000000 0.4342 0.4353 0.4364 0.4375 0.4387
3142.000000 0.4399 0.4412 0.4425 0.4438 0.4451
3147.000000 0.4466 0.4482 0.4502 0.4522 0.4542
3152.000000 0.4563 0.4583 0.4604 0.4624 0.4645
3157.000000 0.4664 0.4684 0.4703 0.4723 0.4742
3162.000000 0.4762 0.4782 0.4802 0.4821 0.4841
3167.000000 0.4858 0.4875 0.4890 0.4905 0.4920
3172.000000 0.4935 0.4950 0.4965 0.4980 0.4995
3177.000000 0.5010 0.5025 0.5039 0.5053 0.5065
3182.000000 0.5078 0.5090 0.5103 0.5115 0.5127
3187.000000 0.5139 0.5152 0.5164 0.5176 0.5190
3192.000000 0.5204 0.5222 0.5241 0.5259 0.5277
3197.000000 0.5295 0.5314 0.5332 0.5350 0.5368
3202.000000 0.5387 0.5404 0.5421 0.5437 0.5454
3207.000000 0.5471 0.5488 0.5504 0.5521 0.5535
3212.000000 0.5550 0.5560 0.5570 0.5580 0.5590
3217.000000 0.5600 0.5610 0.5614 0.5619 0.5620
3222.000000 0.5621 0.5622 0.5623 0.5622 0.5628
3227.000000 0.5619 0.5617 0.5614 0.5611 0.5608
3232.000000 0.5606 0.5602 0.5599 0.5595 0.5592
3237.000000 0.5588 0.5585 0.5581 0.5578 0.5572
3242.000000 0.5567 0.5557 0.5548 0.5538 0.5529
3247.000000 0.5514 0.5500 0.5482 0.5465 0.5447
3252.000000 0.5430 0.5413 0.5396 0.5362 0.5329
3257.000000 0.5294 0.5260 0.5219 0.5179 0.5132
3262.000000 0.5085 0.5038 0.4992 0.4945 0.4899
3267.000000 0.4852 0.4806 0.4759 0.4713 0.4666
3272.000000 0.4620 0.4574 0.4528 0.4481 0.4435
3277.000000 0.4388 0.4342 0.4295 0.4249 0.4202
3282.000000 0.4156 0.4109 0.4063 0.4016 0.3970
3287.000000 0.3923 0.3877 0.3830 0.3784 0.3738
3292.000000 0.3692 0.3645 0.3599 0.3552 0.3506
3297.000000 0.3459 0.3413 0.3366 0.3320 0.3273
3302.000000 0.3227 0.3180 0.3134 0.3087 0.3041
3307.000000 0.2994 0.2948 0.2902 0.2856 0.2809
3312.000000 0.2763 0.2716 0.2670 0.2623 0.2577
3317.000000 0.2530 0.2484 0.2437 0.2391 0.2350
3322.000000 0.2309 0.2288 0.2268 0.2268 0.2291
3327.000000 0.2270 0.2272 0.2284 0.2296 0.2368
3332.000000 0.2440 0.2530 0.2621 0.2711 0.2802
3337.000000 0.2892 0.2983 0.3057 0.3131 0.3153
3342.000000 0.3175 0.3185 0.3196 0.3205 0.3214
3347.000000 0.3219 0.3221 0.3227 0.3231 0.3229
3352.000000 0.3227 0.3224 0.3222 0.3219 0.3217
3357.000000 0.3212 0.3207 0.3202 0.3197 0.3181
3362.000000 0.3166 0.3151 0.3136 0.3122 0.3108
3367.000000 0.3094 0.3081 0.3067 0.3053 0.3039
3372.000000 0.3025 0.3019 0.3013 0.3007 0.3001
3377.000000 0.3001 0.3001 0.3001 0.3002 0.3002
3382.000000 0.2985 0.3006 0.3009 0.3015 0.3021
3387.000000 0.3032 0.3044 0.3067 0.3091 0.3119
3392.000000 0.3148 0.3180 0.3212 0.3246 0.3281
3397.000000 0.3327 0.3374 0.3461 0.3548 0.3594
3402.000000 0.3640 0.3686 0.3732 0.3770 0.3809
3407.000000 0.3842 0.3876 0.3909 0.3942 0.3975
3412.000000 0.4008 0.4047 0.4087 0.4126 0.4166
3417.000000 0.4227 0.4289 0.4303 0.4317 0.4321
3422.000000 0.4326 0.4331 0.4336 0.4340 0.4345
3427.000000 0.4349 0.4354 0.4357 0.4361 0.4365
3432.000000 0.4369 0.4372 0.4376 0.4380 0.4384
3437.000000 0.4386 0.4389 0.4391 0.4393 0.4395
3442.000000 0.4398 0.4406 0.4414 0.4423 0.4433
3447.000000 0.4444 0.4455 0.4466 0.4477 0.4488
3452.000000 0.4500 0.4516 0.4533 0.4554 0.4576
3457.000000 0.4604 0.4632 0.4676 0.4720 0.4779
3462.000000 0.4839 0.4921 0.5003 0.5104 0.5205
3467.000000 0.5288 0.5372 0.5447 0.5522 0.5595
3472.000000 0.5668 0.5739 0.5810 0.5881 0.5953
3477.000000 0.6032 0.6111 0.6190 0.6269 0.6324
3482.000000 0.6379 0.6434 0.6489 0.6534 0.6579
3487.000000 0.6610 0.6642 0.6673 0.6705 0.6737
3492.000000 0.6769 0.6800 0.6832 0.6859 0.6886
3497.000000 0.6910 0.6935 0.6960 0.6985 0.7010
3502.000000 0.7035 0.7060 0.7085 0.7110 0.7135
3507.000000 0.7162 0.7189 0.7216 0.7243 0.7270
3512.000000 0.7297 0.7318 0.7340 0.7354 0.7368
3517.000000 0.7381 0.7395 0.7408 0.7422 0.7429
3522.000000 0.7437 0.7442 0.7448 0.7453 0.7458
3527.000000 0.7463 0.7469 0.7473 0.7477 0.7480
3532.000000 0.7483 0.7485 0.7488 0.7491 0.7494
3537.000000 0.7496 0.7499 0.7501 0.7504 0.7507
3542.000000 0.7510 0.7514 0.7518 0.7522 0.7527
3547.000000 0.7531 0.7536 0.7540 0.7545 0.7550
3552.000000 0.7556 0.7564 0.7572 0.7580 0.7588
3557.000000 0.7596 0.7604 0.7612 0.7620 0.7628
3562.000000 0.7637 0.7647 0.7657 0.7667 0.7677
3567.000000 0.7687 0.7698 0.7708 0.7718 0.7728
3572.000000 0.7739 0.7750 0.7762 0.7775 0.7788
3577.000000 0.7800 0.7813 0.7825 0.7838 0.7850
3582.000000 0.7863 0.7876 0.7889 0.7901 0.7914
3587.000000 0.7926 0.7938 0.7949 0.7960 0.7970
3592.000000 0.7981 0.7992 0.8003 0.8014 0.8025
3597.000000 0.8030 0.8036 0.8040 0.8045 0.8049
3602.000000 0.8054 0.8058 0.8063 0.8067 0.8072
3607.000000 0.8076 0.8080 0.8081 0.8083 0.8084
3612.000000 0.8086 0.8087 0.8089 0.8090 0.8091
3617.000000 0.8092 0.8094 0.8095 0.8097 0.8098
3622.000000 0.8100 0.8101 0.8103 0.8103 0.8103
3627.000000 0.8103 0.8104 0.8104 0.8104 0.8104
3632.000000 0.8105 0.8105 0.8105 0.8105 0.8106
3637.000000 0.8106 0.8106 0.8106 0.8107 0.8107
3642.000000 0.8107 0.8107 0.8107 0.8107 0.8107
3647.000000 0.8106 0.8106 0.8106 0.8106 0.8106
3652.000000 0.8106 0.8106 0.8106 0.8105 0.8105
3657.000000 0.8105 0.8105 0.8105 0.8105 0.8104
3662.000000 0.8104 0.8103 0.8103 0.8101 0.8099
3667.000000 0.8097 0.8095 0.8093 0.8092 0.8090
3672.000000 0.8088 0.8082 0.8077 0.8069 0.8061
3677.000000 0.8052 0.8044 0.8040 0.8036 0.8033
3682.000000 0.8030 0.8028 0.8026 0.8024 0.8023
3687.000000 0.8022 0.8021 0.8019 0.8018 0.8017
3692.000000 0.8016 0.8014 0.8013 0.8012 0.8011
3697.000000 0.8009 0.8008 0.8007 0.8006 0.8005
3702.000000 0.8004 0.8002 0.8002 0.8000 0.7999
3707.000000 0.7998 0.7997 0.7995 0.7994 0.7993
3712.000000 0.7992 0.7990 0.7989 0.7988 0.7987
3717.000000 0.7985 0.7984 0.7983 0.7982 0.7980
3722.000000 0.7979 0.7978 0.7977 0.7975 0.7974
3727.000000 0.7973 0.7972 0.7970 0.7969 0.7968
3732.000000 0.7967 0.7965 0.7964 0.7963 0.7962
3737.000000 0.7961 0.7960 0.7958 0.7957 0.7956
3742.000000 0.7955 0.7953 0.7952 0.7951 0.7950
3747.000000 0.7948 0.7947 0.7946 0.7946 0.7945
3752.000000 0.7944 0.7943 0.7942 0.7941 0.7940
3757.000000 0.7939 0.7939 0.7938 0.7937 0.7936
3762.000000 0.7935 0.7934 0.7933 0.7932 0.7931
3767.000000 0.7930 0.7930 0.7929 0.7928 0.7927
3772.000000 0.7926 0.7925 0.7924 0.7923 0.7922
3777.000000 0.7921 0.7920 0.7919 0.7918 0.7917
3782.000000 0.7916 0.7915 0.7914 0.7913 0.7912
3787.000000 0.7910 0.7909 0.7907 0.7906 0.7904
3792.000000 0.7902 0.7900 0.7898 0.7896 0.7895
3797.000000 0.7894 0.7893
##END=
