##TITLE=Bicyclo[2.2.1]heptane, endo-2-aminomethyl-, sulfate (2 to 1)
##JCAMP-DX=4.24
##DATA TYPE=INFRARED SPECTRUM
##CLASS=COBLENTZ III
##ORIGIN=SMITH KLINE & FRENCH LABS.
##OWNER=Copyright (C) 1987 by the Coblentz Society
Collection (C) 2018 copyright by the U.S. Secretary of Commerce
on behalf of the United States of America. All rights reserved.
##DATE=1967/07/10
##MOLFORM=C16 H32 N2 O4 S
##SOURCE REFERENCE=COBLENTZ NO. 7761
##$NIST ID=B6007761
##$NIST SOURCE=COBLENTZ
##$NIST IMAGE=cob7761
##SPECTROMETER/DATA SYSTEM=PERKIN-ELMER 21 (GRATING)
##INSTRUMENT PARAMETERS=NaCl PRISM
##STATE=SOLID (MULL)
$$SPECTRAL CONTAMINATION DUE TO OIL AROUND 3000, 1455, 1370 CM^-^1
##RESOLUTION=2
##XUNITS=1/CM
##YUNITS=TRANSMITTANCE
##XFACTOR=1.0
##YFACTOR=1
##FIRSTX=663
##LASTX=4000
##FIRSTY=0.7642
##MAXX=4000
##MINX=663
##MAXY=0.985
##MINY=0.0269
##NPOINTS=3338
##XYDATA=(X++(Y..Y))
663.000000 0.7642 0.7675 0.7711 0.7747 0.7788
668.000000 0.7827 0.7871 0.7909 0.7928 0.7948
673.000000 0.7964 0.7969 0.7974 0.7980 0.8019
678.000000 0.8060 0.8094 0.8127 0.8159 0.8180
683.000000 0.8200 0.8220 0.8236 0.8252 0.8266
688.000000 0.8281 0.8296 0.8311 0.8322 0.8328
693.000000 0.8334 0.8354 0.8376 0.8398 0.8419
698.000000 0.8441 0.8462 0.8479 0.8497 0.8499
703.000000 0.8474 0.8475 0.8463 0.8451 0.8439
708.000000 0.8427 0.8415 0.8403 0.8391 0.8378
713.000000 0.8366 0.8354 0.8342 0.8330 0.8317
718.000000 0.8305 0.8295 0.8272 0.8308 0.8324
723.000000 0.8343 0.8363 0.8399 0.8421 0.8432
728.000000 0.8450 0.8469 0.8489 0.8509 0.8529
733.000000 0.8551 0.8574 0.8596 0.8618 0.8639
738.000000 0.8660 0.8682 0.8703 0.8714 0.8724
743.000000 0.8734 0.8744 0.8761 0.8784 0.8817
748.000000 0.8850 0.8852 0.8851 0.8847 0.8838
753.000000 0.8830 0.8822 0.8814 0.8818 0.8843
758.000000 0.8871 0.8898 0.8929 0.8948 0.8960
763.000000 0.9042 0.9148 0.9282 0.9320 0.9224
768.000000 0.8908 0.8772 0.8964 0.9098 0.9100
773.000000 0.9098 0.9095 0.9093 0.9090 0.9086
778.000000 0.9081 0.9065 0.9046 0.9021 0.8994
783.000000 0.8972 0.8949 0.8923 0.8882 0.8831
788.000000 0.8769 0.8726 0.8739 0.8777 0.8830
793.000000 0.8884 0.8941 0.9000 0.9061 0.9081
798.000000 0.9094 0.9102 0.9107 0.9111 0.9116
803.000000 0.9121 0.9119 0.9118 0.9117 0.9116
808.000000 0.9115 0.9114 0.9107 0.9110 0.9108
813.000000 0.9107 0.9095 0.9079 0.9063 0.9048
818.000000 0.9008 0.8966 0.8923 0.8866 0.8811
823.000000 0.8749 0.8682 0.8614 0.8527 0.8485
828.000000 0.8456 0.8558 0.8623 0.8676 0.8731
833.000000 0.8804 0.8876 0.8914 0.8922 0.8931
838.000000 0.8886 0.8849 0.8827 0.8810 0.8810
843.000000 0.8803 0.8787 0.8765 0.8744 0.8728
848.000000 0.8712 0.8702 0.8693 0.8659 0.8607
853.000000 0.8549 0.8488 0.8423 0.8361 0.8337
858.000000 0.8343 0.8354 0.8376 0.8411 0.8464
863.000000 0.8524 0.8543 0.8559 0.8539 0.8542
868.000000 0.8525 0.8511 0.8497 0.8479 0.8454
873.000000 0.8436 0.8422 0.8435 0.8453 0.8467
878.000000 0.8472 0.8477 0.8466 0.8422 0.8383
883.000000 0.8361 0.8343 0.8325 0.8325 0.8327
888.000000 0.8329 0.8331 0.8315 0.8337 0.8345
893.000000 0.8353 0.8372 0.8405 0.8464 0.8525
898.000000 0.8581 0.8604 0.8618 0.8586 0.8561
903.000000 0.8536 0.8516 0.8499 0.8491 0.8482
908.000000 0.8467 0.8452 0.8436 0.8411 0.8385
913.000000 0.8352 0.8314 0.8276 0.8229 0.8181
918.000000 0.8132 0.8096 0.8069 0.8041 0.8016
923.000000 0.8003 0.7990 0.7983 0.7977 0.7974
928.000000 0.7971 0.7968 0.7965 0.7952 0.7935
933.000000 0.7900 0.7863 0.7821 0.7771 0.7722
938.000000 0.7673 0.7624 0.7569 0.7496 0.7424
943.000000 0.7342 0.7235 0.7140 0.7081 0.7050
948.000000 0.7026 0.7009 0.6996 0.6984 0.6968
953.000000 0.6952 0.6936 0.6917 0.6893 0.6870
958.000000 0.6847 0.6808 0.6742 0.6658 0.6581
963.000000 0.6455 0.6319 0.6259 0.6244 0.6285
968.000000 0.6347 0.6427 0.6524 0.6578 0.6606
973.000000 0.6543 0.6512 0.6474 0.6348 0.6304
978.000000 0.6258 0.6199 0.6143 0.6091 0.6048
983.000000 0.6003 0.5954 0.5902 0.5851 0.5808
988.000000 0.5766 0.5725 0.5685 0.5652 0.5620
993.000000 0.5590 0.5567 0.5544 0.5521 0.5505
998.000000 0.5492 0.5483 0.5476 0.5468 0.5384
1003.000000 0.5285 0.5184 0.5081 0.4976 0.4871
1008.000000 0.4765 0.4661 0.4532 0.4390 0.4264
1013.000000 0.4142 0.3971 0.3762 0.3555 0.3376
1018.000000 0.3210 0.3046 0.2885 0.2735 0.2607
1023.000000 0.2542 0.2494 0.2446 0.2408 0.2372
1028.000000 0.2356 0.2345 0.2334 0.2331 0.2336
1033.000000 0.2343 0.2351 0.2362 0.2375 0.2387
1038.000000 0.2392 0.2391 0.2408 0.2375 0.2358
1043.000000 0.2318 0.2274 0.2225 0.2163 0.2087
1048.000000 0.2058 0.2035 0.2034 0.2058 0.2081
1053.000000 0.2111 0.2147 0.2182 0.2214 0.2244
1058.000000 0.2273 0.2292 0.2306 0.2308 0.2309
1063.000000 0.2341 0.2296 0.2284 0.2267 0.2239
1068.000000 0.2209 0.2193 0.2182 0.2185 0.2194
1073.000000 0.2208 0.2232 0.2263 0.2307 0.2351
1078.000000 0.2396 0.2445 0.2492 0.2538 0.2593
1083.000000 0.2652 0.2713 0.2777 0.2848 0.2914
1088.000000 0.2969 0.3015 0.3054 0.3092 0.3126
1093.000000 0.3160 0.3193 0.3224 0.3250 0.3277
1098.000000 0.3303 0.3322 0.3342 0.3360 0.3377
1103.000000 0.3394 0.3412 0.3431 0.3450 0.3469
1108.000000 0.3490 0.3513 0.3542 0.3582 0.3632
1113.000000 0.3676 0.3701 0.3716 0.3731 0.3747
1118.000000 0.3762 0.3779 0.3796 0.3813 0.3830
1123.000000 0.3847 0.3869 0.3894 0.3918 0.3943
1128.000000 0.3967 0.3993 0.4018 0.4043 0.4068
1133.000000 0.4095 0.4124 0.4153 0.4181 0.4210
1138.000000 0.4238 0.4273 0.4316 0.4359 0.4402
1143.000000 0.4445 0.4489 0.4538 0.4587 0.4634
1148.000000 0.4706 0.4881 0.4996 0.5092 0.5180
1153.000000 0.5266 0.5352 0.5440 0.5530 0.5617
1158.000000 0.5701 0.5784 0.5867 0.5943 0.6018
1163.000000 0.6094 0.6176 0.6262 0.6348 0.6436
1168.000000 0.6520 0.6579 0.6625 0.6661 0.6683
1173.000000 0.6703 0.6707 0.6705 0.6694 0.6674
1178.000000 0.6659 0.6645 0.6639 0.6639 0.6646
1183.000000 0.6655 0.6677 0.6720 0.6769 0.6816
1188.000000 0.6873 0.6946 0.7021 0.7096 0.7178
1193.000000 0.7291 0.7405 0.7513 0.7621 0.7717
1198.000000 0.7791 0.7865 0.7935 0.7998 0.8058
1203.000000 0.8096 0.8122 0.8147 0.8173 0.8187
1208.000000 0.8194 0.8188 0.8181 0.8164 0.8123
1213.000000 0.8085 0.8053 0.8028 0.8002 0.7985
1218.000000 0.7981 0.7984 0.7993 0.8011 0.8037
1223.000000 0.8066 0.8091 0.8117 0.8133 0.8132
1228.000000 0.8122 0.8110 0.8099 0.8095 0.8094
1233.000000 0.8098 0.8104 0.8154 0.8208 0.8261
1238.000000 0.8310 0.8351 0.8390 0.8422 0.8442
1243.000000 0.8461 0.8481 0.8498 0.8510 0.8523
1248.000000 0.8532 0.8540 0.8549 0.8555 0.8564
1253.000000 0.8572 0.8581 0.8589 0.8606 0.8644
1258.000000 0.8683 0.8719 0.8743 0.8759 0.8771
1263.000000 0.8773 0.8772 0.8769 0.8766 0.8763
1268.000000 0.8760 0.8757 0.8772 0.8749 0.8746
1273.000000 0.8742 0.8739 0.8735 0.8731 0.8727
1278.000000 0.8721 0.8716 0.8712 0.8706 0.8697
1283.000000 0.8686 0.8677 0.8659 0.8630 0.8601
1288.000000 0.8572 0.8543 0.8510 0.8478 0.8445
1293.000000 0.8413 0.8380 0.8344 0.8306 0.8269
1298.000000 0.8231 0.8163 0.8067 0.7969 0.7888
1303.000000 0.7887 0.7895 0.7883 0.8063 0.8128
1308.000000 0.8196 0.8245 0.8287 0.8319 0.8332
1313.000000 0.8336 0.8340 0.8343 0.8346 0.8349
1318.000000 0.8352 0.8354 0.8357 0.8358 0.8359
1323.000000 0.8360 0.8361 0.8384 0.8359 0.8357
1328.000000 0.8355 0.8353 0.8350 0.8347 0.8340
1333.000000 0.8313 0.8276 0.8229 0.8198 0.8183
1338.000000 0.8167 0.8153 0.8143 0.8121 0.8093
1343.000000 0.8064 0.8017 0.7945 0.7850 0.7751
1348.000000 0.7694 0.7638 0.7590 0.7546 0.7497
1353.000000 0.7433 0.7367 0.7295 0.7221 0.7145
1358.000000 0.7070 0.7004 0.6959 0.6921 0.6901
1363.000000 0.6894 0.6894 0.6834 0.6625 0.6388
1368.000000 0.6150 0.5914 0.5718 0.5704 0.5708
1373.000000 0.5734 0.5911 0.6136 0.6360 0.6586
1378.000000 0.6796 0.7025 0.7487 0.7813 0.8020
1383.000000 0.8113 0.8183 0.8244 0.8304 0.8362
1388.000000 0.8409 0.8454 0.8498 0.8542 0.8586
1393.000000 0.8638 0.8689 0.8741 0.8791 0.8835
1398.000000 0.8876 0.8906 0.8923 0.8939 0.8946
1403.000000 0.8951 0.8955 0.8958 0.8958 0.8958
1408.000000 0.8956 0.8946 0.8934 0.8917 0.8897
1413.000000 0.8871 0.8844 0.8812 0.8768 0.8708
1418.000000 0.8641 0.8573 0.8512 0.8457 0.8401
1423.000000 0.8342 0.8235 0.8085 0.7934 0.7785
1428.000000 0.7635 0.7485 0.7336 0.7187 0.7068
1433.000000 0.6985 0.6905 0.6828 0.6748 0.6543
1438.000000 0.6249 0.5945 0.5640 0.5338 0.5035
1443.000000 0.4732 0.4430 0.4101 0.3968 0.3865
1448.000000 0.3798 0.3746 0.3717 0.3704 0.3703
1453.000000 0.3703 0.3702 0.3702 0.3705 0.3710
1458.000000 0.3725 0.3815 0.3947 0.4082 0.4261
1463.000000 0.4346 0.4464 0.4894 0.5590 0.6253
1468.000000 0.6474 0.6586 0.6689 0.6768 0.6855
1473.000000 0.6958 0.7066 0.7159 0.7248 0.7326
1478.000000 0.7392 0.7461 0.7541 0.7688 0.7897
1483.000000 0.8003 0.8047 0.8075 0.8096 0.8102
1488.000000 0.8100 0.8092 0.8085 0.8070 0.8042
1493.000000 0.8002 0.7962 0.7923 0.7884 0.7842
1498.000000 0.7777 0.7712 0.7644 0.7575 0.7501
1503.000000 0.7424 0.7353 0.7294 0.7257 0.7223
1508.000000 0.7188 0.7154 0.7120 0.7086 0.7052
1513.000000 0.7018 0.6984 0.6950 0.6916 0.6888
1518.000000 0.6863 0.6838 0.6812 0.6788 0.6771
1523.000000 0.6762 0.6754 0.6747 0.6746 0.6747
1528.000000 0.6747 0.6729 0.6758 0.6765 0.6780
1533.000000 0.6794 0.6805 0.6812 0.6810 0.6806
1538.000000 0.6802 0.6798 0.6794 0.6790 0.6786
1543.000000 0.6781 0.6785 0.6802 0.6993 0.7149
1548.000000 0.7248 0.7367 0.7530 0.7692 0.7782
1553.000000 0.7846 0.7889 0.7931 0.7974 0.8019
1558.000000 0.8064 0.8108 0.8149 0.8182 0.8212
1563.000000 0.8242 0.8271 0.8292 0.8305 0.8318
1568.000000 0.8331 0.8345 0.8355 0.8361 0.8368
1573.000000 0.8358 0.8374 0.8370 0.8362 0.8349
1578.000000 0.8334 0.8320 0.8301 0.8277 0.8253
1583.000000 0.8218 0.8180 0.8141 0.8105 0.8071
1588.000000 0.8038 0.8005 0.7972 0.7935 0.7899
1593.000000 0.7861 0.7825 0.7788 0.7737 0.7679
1598.000000 0.7608 0.7516 0.7423 0.7340 0.7267
1603.000000 0.7201 0.7143 0.7097 0.7057 0.7023
1608.000000 0.6995 0.6968 0.6940 0.6911 0.6879
1613.000000 0.6848 0.6835 0.6825 0.6819 0.6819
1618.000000 0.6819 0.6819 0.6775 0.6819 0.6820
1623.000000 0.6822 0.6825 0.6835 0.6914 0.7018
1628.000000 0.7074 0.7123 0.7180 0.7252 0.7313
1633.000000 0.7337 0.7361 0.7384 0.7406 0.7427
1638.000000 0.7452 0.7489 0.7551 0.7647 0.7733
1643.000000 0.7792 0.7847 0.7889 0.7915 0.7924
1648.000000 0.7934 0.7944 0.7953 0.7960 0.7965
1653.000000 0.7969 0.7975 0.7986 0.8004 0.8034
1658.000000 0.8097 0.8208 0.8257 0.8306 0.8362
1663.000000 0.8423 0.8663 0.8919 0.9050 0.9102
1668.000000 0.9153 0.9199 0.9233 0.9267 0.9298
1673.000000 0.9312 0.9321 0.9331 0.9340 0.9348
1678.000000 0.9353 0.9358 0.9363 0.9367 0.9372
1683.000000 0.9376 0.9381 0.9385 0.9389 0.9393
1688.000000 0.9397 0.9402 0.9405 0.9409 0.9413
1693.000000 0.9417 0.9422 0.9426 0.9429 0.9434
1698.000000 0.9437 0.9440 0.9443 0.9445 0.9448
1703.000000 0.9451 0.9453 0.9456 0.9459 0.9462
1708.000000 0.9464 0.9467 0.9471 0.9475 0.9478
1713.000000 0.9482 0.9486 0.9490 0.9493 0.9497
1718.000000 0.9501 0.9505 0.9509 0.9511 0.9512
1723.000000 0.9514 0.9515 0.9517 0.9519 0.9520
1728.000000 0.9522 0.9524 0.9525 0.9527 0.9529
1733.000000 0.9530 0.9531 0.9531 0.9531 0.9531
1738.000000 0.9531 0.9531 0.9531 0.9532 0.9532
1743.000000 0.9532 0.9532 0.9532 0.9532 0.9532
1748.000000 0.9533 0.9533 0.9532 0.9531 0.9529
1753.000000 0.9528 0.9526 0.9525 0.9523 0.9521
1758.000000 0.9520 0.9518 0.9516 0.9515 0.9513
1763.000000 0.9511 0.9509 0.9507 0.9506 0.9504
1768.000000 0.9503 0.9503 0.9499 0.9498 0.9496
1773.000000 0.9495 0.9492 0.9492 0.9491 0.9490
1778.000000 0.9490 0.9489 0.9488 0.9487 0.9487
1783.000000 0.9487 0.9486 0.9485 0.9484 0.9483
1788.000000 0.9483 0.9482 0.9481 0.9481 0.9481
1793.000000 0.9480 0.9479 0.9478 0.9477 0.9477
1798.000000 0.9477 0.9476 0.9476 0.9476 0.9476
1803.000000 0.9475 0.9475 0.9475 0.9474 0.9474
1808.000000 0.9473 0.9473 0.9473 0.9473 0.9472
1813.000000 0.9472 0.9472 0.9471 0.9471 0.9470
1818.000000 0.9470 0.9470 0.9470 0.9470 0.9470
1823.000000 0.9469 0.9469 0.9469 0.9469 0.9469
1828.000000 0.9469 0.9469 0.9469 0.9469 0.9469
1833.000000 0.9468 0.9468 0.9468 0.9468 0.9468
1838.000000 0.9468 0.9468 0.9468 0.9468 0.9468
1843.000000 0.9468 0.9467 0.9467 0.9467 0.9467
1848.000000 0.9467 0.9467 0.9467 0.9467 0.9467
1853.000000 0.9467 0.9466 0.9466 0.9466 0.9466
1858.000000 0.9465 0.9465 0.9465 0.9465 0.9465
1863.000000 0.9464 0.9464 0.9464 0.9464 0.9464
1868.000000 0.9463 0.9463 0.9463 0.9463 0.9462
1873.000000 0.9462 0.9462 0.9462 0.9462 0.9461
1878.000000 0.9461 0.9461 0.9461 0.9461 0.9460
1883.000000 0.9460 0.9459 0.9458 0.9457 0.9455
1888.000000 0.9454 0.9452 0.9451 0.9450 0.9448
1893.000000 0.9447 0.9445 0.9444 0.9443 0.9441
1898.000000 0.9441 0.9439 0.9438 0.9437 0.9435
1903.000000 0.9434 0.9433 0.9431 0.9430 0.9428
1908.000000 0.9426 0.9425 0.9423 0.9422 0.9421
1913.000000 0.9419 0.9418 0.9416 0.9415 0.9414
1918.000000 0.9412 0.9411 0.9410 0.9407 0.9404
1923.000000 0.9402 0.9399 0.9396 0.9394 0.9391
1928.000000 0.9387 0.9383 0.9377 0.9372 0.9366
1933.000000 0.9361 0.9356 0.9350 0.9344 0.9339
1938.000000 0.9333 0.9328 0.9323 0.9317 0.9312
1943.000000 0.9308 0.9306 0.9304 0.9303 0.9302
1948.000000 0.9300 0.9299 0.9297 0.9295 0.9294
1953.000000 0.9293 0.9291 0.9290 0.9289 0.9287
1958.000000 0.9285 0.9281 0.9275 0.9269 0.9263
1963.000000 0.9254 0.9244 0.9232 0.9219 0.9207
1968.000000 0.9195 0.9183 0.9171 0.9162 0.9153
1973.000000 0.9143 0.9134 0.9125 0.9115 0.9106
1978.000000 0.9097 0.9087 0.9078 0.9069 0.9060
1983.000000 0.9051 0.9042 0.9032 0.9023 0.9013
1988.000000 0.9004 0.8994 0.8985 0.8975 0.8966
1993.000000 0.8956 0.8947 0.8937 0.8928 0.8919
1998.000000 0.8909 0.8900 0.8891 0.8882 0.8873
2003.000000 0.8863 0.8854 0.8845 0.8835 0.8827
2008.000000 0.8820 0.8812 0.8804 0.8796 0.8789
2013.000000 0.8781 0.8773 0.8765 0.8757 0.8750
2018.000000 0.8742 0.8734 0.8729 0.8726 0.8721
2023.000000 0.8717 0.8714 0.8710 0.8706 0.8703
2028.000000 0.8699 0.8695 0.8692 0.8689 0.8686
2033.000000 0.8683 0.8680 0.8678 0.8675 0.8672
2038.000000 0.8669 0.8667 0.8664 0.8661 0.8659
2043.000000 0.8656 0.8653 0.8648 0.8644 0.8639
2048.000000 0.8634 0.8629 0.8625 0.8620 0.8616
2053.000000 0.8611 0.8607 0.8602 0.8597 0.8593
2058.000000 0.8589 0.8586 0.8583 0.8580 0.8576
2063.000000 0.8573 0.8570 0.8557 0.8563 0.8560
2068.000000 0.8558 0.8562 0.8565 0.8569 0.8574
2073.000000 0.8578 0.8582 0.8587 0.8592 0.8598
2078.000000 0.8603 0.8607 0.8611 0.8609 0.8605
2083.000000 0.8600 0.8595 0.8590 0.8580 0.8570
2088.000000 0.8563 0.8560 0.8560 0.8561 0.8561
2093.000000 0.8561 0.8562 0.8562 0.8563 0.8563
2098.000000 0.8563 0.8563 0.8564 0.8565 0.8569
2103.000000 0.8573 0.8577 0.8581 0.8586 0.8590
2108.000000 0.8594 0.8601 0.8607 0.8614 0.8621
2113.000000 0.8628 0.8634 0.8641 0.8648 0.8655
2118.000000 0.8661 0.8668 0.8675 0.8683 0.8690
2123.000000 0.8697 0.8705 0.8712 0.8720 0.8727
2128.000000 0.8734 0.8742 0.8749 0.8756 0.8764
2133.000000 0.8771 0.8778 0.8785 0.8793 0.8800
2138.000000 0.8808 0.8816 0.8823 0.8831 0.8838
2143.000000 0.8845 0.8853 0.8860 0.8868 0.8876
2148.000000 0.8883 0.8891 0.8898 0.8904 0.8911
2153.000000 0.8917 0.8924 0.8930 0.8936 0.8942
2158.000000 0.8949 0.8955 0.8962 0.8968 0.8974
2163.000000 0.8981 0.8989 0.8998 0.9007 0.9016
2168.000000 0.9024 0.9033 0.9042 0.9049 0.9056
2173.000000 0.9062 0.9068 0.9073 0.9079 0.9084
2178.000000 0.9089 0.9094 0.9098 0.9099 0.9100
2183.000000 0.9101 0.9102 0.9103 0.9104 0.9105
2188.000000 0.9107 0.9108 0.9109 0.9110 0.9111
2193.000000 0.9113 0.9114 0.9115 0.9116 0.9117
2198.000000 0.9118 0.9120 0.9120 0.9121 0.9121
2203.000000 0.9121 0.9121 0.9120 0.9120 0.9120
2208.000000 0.9120 0.9120 0.9120 0.9119 0.9119
2213.000000 0.9118 0.9118 0.9117 0.9115 0.9113
2218.000000 0.9112 0.9110 0.9108 0.9106 0.9105
2223.000000 0.9102 0.9098 0.9095 0.9091 0.9088
2228.000000 0.9085 0.9082 0.9078 0.9075 0.9071
2233.000000 0.9068 0.9065 0.9061 0.9058 0.9054
2238.000000 0.9051 0.9048 0.9045 0.9041 0.9037
2243.000000 0.9032 0.9027 0.9022 0.9016 0.9011
2248.000000 0.9006 0.9002 0.8997 0.8992 0.8987
2253.000000 0.8982 0.8977 0.8970 0.8963 0.8955
2258.000000 0.8948 0.8941 0.8934 0.8927 0.8920
2263.000000 0.8912 0.8905 0.8898 0.8890 0.8881
2268.000000 0.8871 0.8860 0.8850 0.8840 0.8830
2273.000000 0.8820 0.8811 0.8802 0.8795 0.8789
2278.000000 0.8782 0.8776 0.8770 0.8764 0.8757
2283.000000 0.8751 0.8745 0.8739 0.8734 0.8730
2288.000000 0.8725 0.8721 0.8717 0.8713 0.8709
2293.000000 0.8705 0.8701 0.8696 0.8689 0.8675
2298.000000 0.8661 0.8646 0.8633 0.8623 0.8613
2303.000000 0.8605 0.8598 0.8590 0.8582 0.8575
2308.000000 0.8568 0.8562 0.8557 0.8551 0.8545
2313.000000 0.8540 0.8534 0.8529 0.8523 0.8518
2318.000000 0.8516 0.8514 0.8512 0.8510 0.8508
2323.000000 0.8506 0.8504 0.8502 0.8500 0.8498
2328.000000 0.8496 0.8493 0.8490 0.8487 0.8484
2333.000000 0.8481 0.8478 0.8475 0.8472 0.8469
2338.000000 0.8466 0.8462 0.8460 0.8457 0.8454
2343.000000 0.8451 0.8448 0.8445 0.8442 0.8439
2348.000000 0.8435 0.8432 0.8428 0.8425 0.8421
2353.000000 0.8418 0.8415 0.8411 0.8407 0.8404
2358.000000 0.8400 0.8397 0.8393 0.8390 0.8386
2363.000000 0.8383 0.8380 0.8376 0.8373 0.8369
2368.000000 0.8366 0.8363 0.8359 0.8356 0.8352
2373.000000 0.8348 0.8343 0.8338 0.8333 0.8327
2378.000000 0.8322 0.8317 0.8312 0.8306 0.8301
2383.000000 0.8296 0.8290 0.8285 0.8279 0.8273
2388.000000 0.8267 0.8259 0.8252 0.8244 0.8237
2393.000000 0.8230 0.8222 0.8215 0.8207 0.8200
2398.000000 0.8193 0.8185 0.8178 0.8170 0.8163
2403.000000 0.8156 0.8148 0.8141 0.8133 0.8125
2408.000000 0.8117 0.8110 0.8102 0.8095 0.8087
2413.000000 0.8079 0.8072 0.8064 0.8057 0.8049
2418.000000 0.8042 0.8034 0.8027 0.8017 0.8006
2423.000000 0.7995 0.7983 0.7970 0.7958 0.7945
2428.000000 0.7932 0.7920 0.7908 0.7896 0.7883
2433.000000 0.7871 0.7859 0.7846 0.7834 0.7821
2438.000000 0.7809 0.7797 0.7785 0.7772 0.7758
2443.000000 0.7743 0.7727 0.7710 0.7694 0.7677
2448.000000 0.7659 0.7641 0.7621 0.7601 0.7581
2453.000000 0.7560 0.7540 0.7520 0.7499 0.7479
2458.000000 0.7459 0.7438 0.7416 0.7394 0.7371
2463.000000 0.7348 0.7325 0.7302 0.7280 0.7257
2468.000000 0.7235 0.7220 0.7205 0.7192 0.7181
2473.000000 0.7170 0.7159 0.7148 0.7137 0.7125
2478.000000 0.7114 0.7103 0.7092 0.7077 0.7061
2483.000000 0.7046 0.7030 0.7014 0.6998 0.6982
2488.000000 0.6967 0.6951 0.6936 0.6920 0.6905
2493.000000 0.6889 0.6874 0.6859 0.6846 0.6833
2498.000000 0.6820 0.6807 0.6795 0.6782 0.6769
2503.000000 0.6756 0.6743 0.6731 0.6718 0.6705
2508.000000 0.6692 0.6677 0.6663 0.6647 0.6631
2513.000000 0.6616 0.6600 0.6584 0.6568 0.6552
2518.000000 0.6537 0.6521 0.6505 0.6490 0.6474
2523.000000 0.6459 0.6443 0.6427 0.6409 0.6389
2528.000000 0.6369 0.6345 0.6320 0.6296 0.6271
2533.000000 0.6247 0.6222 0.6198 0.6174 0.6150
2538.000000 0.6127 0.6106 0.6086 0.6065 0.6044
2543.000000 0.6023 0.6007 0.5991 0.5977 0.5969
2548.000000 0.5960 0.5952 0.5943 0.5935 0.5926
2553.000000 0.5918 0.5909 0.5901 0.5892 0.5885
2558.000000 0.5878 0.5872 0.5866 0.5861 0.5856
2563.000000 0.5850 0.5845 0.5840 0.5834 0.5829
2568.000000 0.5824 0.5818 0.5813 0.5807 0.5802
2573.000000 0.5796 0.5791 0.5785 0.5779 0.5773
2578.000000 0.5766 0.5759 0.5752 0.5733 0.5715
2583.000000 0.5694 0.5671 0.5648 0.5624 0.5601
2588.000000 0.5577 0.5556 0.5534 0.5514 0.5498
2593.000000 0.5481 0.5467 0.5454 0.5441 0.5428
2598.000000 0.5415 0.5402 0.5389 0.5376 0.5363
2603.000000 0.5351 0.5338 0.5324 0.5311 0.5298
2608.000000 0.5284 0.5271 0.5259 0.5251 0.5243
2613.000000 0.5236 0.5228 0.5221 0.5214 0.5206
2618.000000 0.5200 0.5196 0.5192 0.5189 0.5186
2623.000000 0.5183 0.5180 0.5178 0.5175 0.5172
2628.000000 0.5169 0.5166 0.5164 0.5163 0.5161
2633.000000 0.5159 0.5158 0.5157 0.5155 0.5154
2638.000000 0.5152 0.5151 0.5149 0.5148 0.5147
2643.000000 0.5145 0.5144 0.5142 0.5141 0.5139
2648.000000 0.5138 0.5137 0.5135 0.5134 0.5130
2653.000000 0.5127 0.5123 0.5119 0.5115 0.5112
2658.000000 0.5108 0.5105 0.5101 0.5097 0.5093
2663.000000 0.5088 0.5083 0.5077 0.5069 0.5061
2668.000000 0.5053 0.5045 0.5036 0.5028 0.5020
2673.000000 0.5011 0.5003 0.4996 0.4989 0.4982
2678.000000 0.4977 0.4971 0.4965 0.4958 0.4952
2683.000000 0.4946 0.4940 0.4933 0.4927 0.4921
2688.000000 0.4916 0.4908 0.4901 0.4894 0.4886
2693.000000 0.4879 0.4871 0.4864 0.4856 0.4848
2698.000000 0.4840 0.4832 0.4823 0.4812 0.4801
2703.000000 0.4790 0.4779 0.4768 0.4756 0.4745
2708.000000 0.4734 0.4722 0.4711 0.4699 0.4687
2713.000000 0.4674 0.4661 0.4648 0.4635 0.4623
2718.000000 0.4610 0.4597 0.4585 0.4571 0.4557
2723.000000 0.4543 0.4526 0.4509 0.4491 0.4474
2728.000000 0.4456 0.4439 0.4421 0.4404 0.4386
2733.000000 0.4362 0.4337 0.4312 0.4287 0.4262
2738.000000 0.4237 0.4216 0.4195 0.4174 0.4154
2743.000000 0.4134 0.4113 0.4093 0.4073 0.4053
2748.000000 0.4033 0.4013 0.3993 0.3973 0.3952
2753.000000 0.3932 0.3911 0.3891 0.3870 0.3850
2758.000000 0.3830 0.3809 0.3789 0.3768 0.3747
2763.000000 0.3727 0.3707 0.3686 0.3662 0.3634
2768.000000 0.3607 0.3573 0.3532 0.3491 0.3452
2773.000000 0.3416 0.3380 0.3346 0.3316 0.3287
2778.000000 0.3220 0.3018 0.2816 0.2627 0.2528
2783.000000 0.2429 0.2330 0.2231 0.2133 0.2034
2788.000000 0.1936 0.1837 0.1738 0.1640 0.1541
2793.000000 0.1443 0.1345 0.1247 0.1149 0.1051
2798.000000 0.0953 0.0855 0.0757 0.0659 0.0562
2803.000000 0.0487 0.0462 0.0438 0.0414 0.0389
2808.000000 0.0365 0.0341 0.0327 0.0313 0.0299
2813.000000 0.0289 0.0280 0.0271 0.0269 0.0269
2818.000000 0.0269 0.0269 0.0269 0.0269 0.0269
2823.000000 0.0269 0.0269 0.0269 0.0269 0.0269
2828.000000 0.0269 0.0269 0.0269 0.0269 0.0270
2833.000000 0.0270 0.0270 0.0270 0.0270 0.0270
2838.000000 0.0270 0.0270 0.0270 0.0270 0.0270
2843.000000 0.0270 0.0270 0.0270 0.0270 0.0270
2848.000000 0.0271 0.0271 0.0271 0.0272 0.0272
2853.000000 0.0272 0.0273 0.0273 0.0273 0.0273
2858.000000 0.0274 0.0274 0.0274 0.0275 0.0276
2863.000000 0.0278 0.0279 0.0282 0.0284 0.0287
2868.000000 0.0289 0.0291 0.0294 0.0297 0.0301
2873.000000 0.0304 0.0309 0.0315 0.0321 0.0327
2878.000000 0.0335 0.0343 0.0352 0.0361 0.0369
2883.000000 0.0378 0.0387 0.0397 0.0407 0.0417
2888.000000 0.0428 0.0439 0.0451 0.0463 0.0477
2893.000000 0.0490 0.0503 0.0516 0.0528 0.0541
2898.000000 0.0555 0.0569 0.0582 0.0597 0.0611
2903.000000 0.0626 0.0642 0.0662 0.0682 0.0702
2908.000000 0.0735 0.0768 0.0801 0.0838 0.0879
2913.000000 0.0919 0.0967 0.1036 0.1106 0.1176
2918.000000 0.1246 0.1316 0.1386 0.1437 0.1465
2923.000000 0.1492 0.1519 0.1538 0.1558 0.1577
2928.000000 0.1595 0.1613 0.1631 0.1650 0.1668
2933.000000 0.1686 0.1704 0.1795 0.1914 0.2033
2938.000000 0.2154 0.2279 0.2405 0.2530 0.2617
2943.000000 0.2696 0.2775 0.2836 0.2865 0.2894
2948.000000 0.2923 0.3051 0.3191 0.3331 0.3428
2953.000000 0.3461 0.3494 0.3527 0.3559 0.3590
2958.000000 0.3622 0.3652 0.3681 0.3709 0.3737
2963.000000 0.3764 0.3791 0.3817 0.3844 0.3870
2968.000000 0.3896 0.3921 0.3941 0.3960 0.3978
2973.000000 0.3994 0.4005 0.4015 0.4026 0.4036
2978.000000 0.4046 0.4057 0.4067 0.4076 0.4085
2983.000000 0.4094 0.4101 0.4108 0.4115 0.4122
2988.000000 0.4129 0.4136 0.4143 0.4149 0.4156
2993.000000 0.4163 0.4169 0.4176 0.4183 0.4189
2998.000000 0.4196 0.4204 0.4211 0.4218 0.4225
3003.000000 0.4232 0.4240 0.4247 0.4254 0.4262
3008.000000 0.4269 0.4278 0.4286 0.4295 0.4304
3013.000000 0.4318 0.4331 0.4345 0.4359 0.4373
3018.000000 0.4388 0.4402 0.4416 0.4430 0.4445
3023.000000 0.4459 0.4474 0.4489 0.4504 0.4520
3028.000000 0.4538 0.4556 0.4574 0.4592 0.4609
3033.000000 0.4627 0.4645 0.4658 0.4671 0.4684
3038.000000 0.4697 0.4709 0.4722 0.4735 0.4748
3043.000000 0.4760 0.4773 0.4786 0.4798 0.4811
3048.000000 0.4824 0.4839 0.4862 0.4885 0.4908
3053.000000 0.4935 0.4967 0.4999 0.5031 0.5065
3058.000000 0.5099 0.5133 0.5168 0.5216 0.5264
3063.000000 0.5312 0.5355 0.5383 0.5412 0.5440
3068.000000 0.5465 0.5487 0.5509 0.5531 0.5553
3073.000000 0.5574 0.5596 0.5618 0.5646 0.5674
3078.000000 0.5702 0.5731 0.5760 0.5789 0.5818
3083.000000 0.5843 0.5862 0.5881 0.5900 0.5918
3088.000000 0.5934 0.5950 0.5967 0.5985 0.6004
3093.000000 0.6023 0.6041 0.6063 0.6085 0.6106
3098.000000 0.6128 0.6147 0.6167 0.6187 0.6207
3103.000000 0.6226 0.6246 0.6266 0.6285 0.6305
3108.000000 0.6324 0.6344 0.6363 0.6383 0.6402
3113.000000 0.6422 0.6442 0.6461 0.6481 0.6500
3118.000000 0.6520 0.6540 0.6559 0.6579 0.6598
3123.000000 0.6617 0.6636 0.6656 0.6675 0.6694
3128.000000 0.6714 0.6733 0.6753 0.6772 0.6791
3133.000000 0.6811 0.6830 0.6849 0.6869 0.6888
3138.000000 0.6907 0.6926 0.6945 0.6964 0.6983
3143.000000 0.7003 0.7022 0.7041 0.7060 0.7080
3148.000000 0.7099 0.7118 0.7137 0.7156 0.7174
3153.000000 0.7194 0.7215 0.7235 0.7256 0.7287
3158.000000 0.7333 0.7378 0.7423 0.7454 0.7468
3163.000000 0.7481 0.7494 0.7507 0.7521 0.7534
3168.000000 0.7547 0.7560 0.7574 0.7587 0.7601
3173.000000 0.7614 0.7628 0.7643 0.7657 0.7672
3178.000000 0.7689 0.7706 0.7723 0.7740 0.7757
3183.000000 0.7774 0.7791 0.7807 0.7824 0.7841
3188.000000 0.7858 0.7877 0.7899 0.7922 0.7945
3193.000000 0.7968 0.7994 0.8019 0.8045 0.8070
3198.000000 0.8088 0.8107 0.8125 0.8144 0.8160
3203.000000 0.8177 0.8193 0.8209 0.8226 0.8242
3208.000000 0.8259 0.8275 0.8296 0.8318 0.8340
3213.000000 0.8362 0.8385 0.8408 0.8430 0.8453
3218.000000 0.8470 0.8483 0.8495 0.8507 0.8519
3223.000000 0.8531 0.8543 0.8556 0.8568 0.8580
3228.000000 0.8592 0.8604 0.8616 0.8628 0.8640
3233.000000 0.8652 0.8664 0.8674 0.8684 0.8693
3238.000000 0.8703 0.8713 0.8723 0.8732 0.8742
3243.000000 0.8752 0.8762 0.8771 0.8781 0.8791
3248.000000 0.8799 0.8808 0.8816 0.8825 0.8833
3253.000000 0.8841 0.8850 0.8858 0.8862 0.8866
3258.000000 0.8870 0.8874 0.8877 0.8880 0.8882
3263.000000 0.8885 0.8887 0.8890 0.8892 0.8895
3268.000000 0.8898 0.8900 0.8903 0.8905 0.8908
3273.000000 0.8910 0.8913 0.8916 0.8918 0.8920
3278.000000 0.8922 0.8924 0.8925 0.8927 0.8927
3283.000000 0.8927 0.8927 0.8927 0.8928 0.8928
3288.000000 0.8928 0.8928 0.8929 0.8929 0.8929
3293.000000 0.8929 0.8929 0.8929 0.8929 0.8929
3298.000000 0.8929 0.8930 0.8930 0.8930 0.8930
3303.000000 0.8930 0.8930 0.8930 0.8930 0.8929
3308.000000 0.8929 0.8928 0.8927 0.8927 0.8926
3313.000000 0.8925 0.8925 0.8924 0.8923 0.8922
3318.000000 0.8921 0.8920 0.8920 0.8919 0.8918
3323.000000 0.8917 0.8917 0.8916 0.8915 0.8915
3328.000000 0.8914 0.8913 0.8913 0.8912 0.8911
3333.000000 0.8911 0.8911 0.8911 0.8912 0.8912
3338.000000 0.8913 0.8914 0.8914 0.8915 0.8916
3343.000000 0.8917 0.8918 0.8918 0.8919 0.8920
3348.000000 0.8921 0.8923 0.8924 0.8925 0.8928
3353.000000 0.8931 0.8935 0.8938 0.8941 0.8945
3358.000000 0.8948 0.8951 0.8954 0.8957 0.8960
3363.000000 0.8964 0.8967 0.8971 0.8976 0.8981
3368.000000 0.8986 0.8991 0.8996 0.9001 0.9006
3373.000000 0.9011 0.9016 0.9022 0.9027 0.9032
3378.000000 0.9038 0.9043 0.9048 0.9053 0.9059
3383.000000 0.9064 0.9067 0.9071 0.9075 0.9079
3388.000000 0.9082 0.9085 0.9088 0.9091 0.9094
3393.000000 0.9097 0.9100 0.9103 0.9106 0.9109
3398.000000 0.9112 0.9115 0.9118 0.9121 0.9124
3403.000000 0.9127 0.9130 0.9133 0.9137 0.9141
3408.000000 0.9146 0.9151 0.9156 0.9162 0.9167
3413.000000 0.9173 0.9178 0.9184 0.9189 0.9195
3418.000000 0.9201 0.9206 0.9212 0.9216 0.9220
3423.000000 0.9224 0.9229 0.9233 0.9236 0.9240
3428.000000 0.9244 0.9247 0.9251 0.9254 0.9258
3433.000000 0.9262 0.9265 0.9269 0.9272 0.9276
3438.000000 0.9280 0.9283 0.9285 0.9287 0.9289
3443.000000 0.9291 0.9293 0.9294 0.9295 0.9296
3448.000000 0.9297 0.9298 0.9299 0.9300 0.9301
3453.000000 0.9302 0.9306 0.9310 0.9314 0.9317
3458.000000 0.9321 0.9326 0.9331 0.9336 0.9341
3463.000000 0.9346 0.9351 0.9356 0.9361 0.9366
3468.000000 0.9370 0.9375 0.9380 0.9385 0.9389
3473.000000 0.9394 0.9399 0.9404 0.9409 0.9414
3478.000000 0.9419 0.9423 0.9427 0.9432 0.9436
3483.000000 0.9440 0.9445 0.9449 0.9453 0.9458
3488.000000 0.9462 0.9466 0.9471 0.9475 0.9479
3493.000000 0.9483 0.9488 0.9492 0.9496 0.9501
3498.000000 0.9505 0.9509 0.9513 0.9518 0.9522
3503.000000 0.9526 0.9531 0.9535 0.9539 0.9544
3508.000000 0.9550 0.9555 0.9561 0.9566 0.9572
3513.000000 0.9577 0.9582 0.9587 0.9593 0.9598
3518.000000 0.9603 0.9608 0.9614 0.9619 0.9624
3523.000000 0.9630 0.9635 0.9641 0.9646 0.9651
3528.000000 0.9656 0.9662 0.9667 0.9672 0.9677
3533.000000 0.9681 0.9686 0.9691 0.9695 0.9699
3538.000000 0.9704 0.9708 0.9712 0.9716 0.9720
3543.000000 0.9725 0.9729 0.9733 0.9737 0.9741
3548.000000 0.9744 0.9747 0.9751 0.9754 0.9756
3553.000000 0.9757 0.9759 0.9761 0.9762 0.9764
3558.000000 0.9765 0.9767 0.9769 0.9770 0.9772
3563.000000 0.9773 0.9775 0.9776 0.9778 0.9780
3568.000000 0.9781 0.9783 0.9784 0.9786 0.9787
3573.000000 0.9789 0.9791 0.9792 0.9794 0.9795
3578.000000 0.9797 0.9798 0.9800 0.9801 0.9803
3583.000000 0.9805 0.9806 0.9808 0.9809 0.9811
3588.000000 0.9812 0.9813 0.9814 0.9815 0.9817
3593.000000 0.9818 0.9818 0.9819 0.9820 0.9821
3598.000000 0.9822 0.9823 0.9824 0.9825 0.9826
3603.000000 0.9827 0.9828 0.9829 0.9830 0.9831
3608.000000 0.9832 0.9832 0.9833 0.9834 0.9834
3613.000000 0.9835 0.9835 0.9836 0.9836 0.9837
3618.000000 0.9838 0.9838 0.9838 0.9839 0.9839
3623.000000 0.9839 0.9840 0.9840 0.9841 0.9841
3628.000000 0.9841 0.9842 0.9842 0.9842 0.9843
3633.000000 0.9843 0.9844 0.9844 0.9844 0.9845
3638.000000 0.9845 0.9845 0.9846 0.9846 0.9847
3643.000000 0.9847 0.9847 0.9848 0.9848 0.9849
3648.000000 0.9849 0.9849 0.9850 0.9850 0.9850
3653.000000 0.9850 0.9850 0.9849 0.9849 0.9849
3658.000000 0.9849 0.9849 0.9849 0.9848 0.9848
3663.000000 0.9848 0.9848 0.9848 0.9847 0.9847
3668.000000 0.9847 0.9847 0.9847 0.9847 0.9846
3673.000000 0.9846 0.9846 0.9846 0.9846 0.9845
3678.000000 0.9845 0.9845 0.9845 0.9845 0.9844
3683.000000 0.9844 0.9844 0.9844 0.9844 0.9844
3688.000000 0.9843 0.9843 0.9843 0.9843 0.9843
3693.000000 0.9842 0.9842 0.9842 0.9842 0.9842
3698.000000 0.9842 0.9841 0.9840 0.9838 0.9837
3703.000000 0.9836 0.9835 0.9834 0.9833 0.9831
3708.000000 0.9830 0.9829 0.9827 0.9826 0.9825
3713.000000 0.9824 0.9822 0.9821 0.9820 0.9818
3718.000000 0.9817 0.9815 0.9814 0.9813 0.9811
3723.000000 0.9810 0.9809 0.9807 0.9806 0.9805
3728.000000 0.9804 0.9802 0.9801 0.9800 0.9799
3733.000000 0.9797 0.9796 0.9795 0.9794 0.9792
3738.000000 0.9790 0.9788 0.9785 0.9783 0.9781
3743.000000 0.9778 0.9775 0.9772 0.9770 0.9767
3748.000000 0.9764 0.9761 0.9758 0.9755 0.9752
3753.000000 0.9750 0.9747 0.9744 0.9741 0.9738
3758.000000 0.9735 0.9733 0.9730 0.9727 0.9725
3763.000000 0.9722 0.9719 0.9717 0.9715 0.9713
3768.000000 0.9711 0.9709 0.9707 0.9705 0.9703
3773.000000 0.9701 0.9699 0.9697 0.9695 0.9694
3778.000000 0.9693 0.9692 0.9691 0.9690 0.9689
3783.000000 0.9688 0.9688 0.9687 0.9686 0.9686
3788.000000 0.9685 0.9685 0.9685 0.9684 0.9684
3793.000000 0.9684 0.9683 0.9683 0.9683 0.9682
3798.000000 0.9682 0.9682 0.9681 0.9681 0.9681
3803.000000 0.9680 0.9680 0.9680 0.9679 0.9679
3808.000000 0.9679 0.9678 0.9678 0.9677 0.9677
3813.000000 0.9677 0.9677 0.9677 0.9677 0.9676
3818.000000 0.9676 0.9676 0.9675 0.9675 0.9675
3823.000000 0.9674 0.9674 0.9674 0.9674 0.9674
3828.000000 0.9674 0.9673 0.9673 0.9673 0.9672
3833.000000 0.9672 0.9672 0.9671 0.9671 0.9671
3838.000000 0.9671 0.9671 0.9671 0.9670 0.9670
3843.000000 0.9670 0.9669 0.9669 0.9669 0.9668
3848.000000 0.9668 0.9668 0.9668 0.9668 0.9668
3853.000000 0.9667 0.9667 0.9667 0.9666 0.9666
3858.000000 0.9666 0.9665 0.9664 0.9664 0.9663
3863.000000 0.9662 0.9661 0.9661 0.9660 0.9660
3868.000000 0.9659 0.9659 0.9658 0.9658 0.9657
3873.000000 0.9656 0.9656 0.9655 0.9654 0.9654
3878.000000 0.9653 0.9653 0.9652 0.9652 0.9651
3883.000000 0.9651 0.9650 0.9650 0.9649 0.9648
3888.000000 0.9648 0.9647 0.9647 0.9646 0.9646
3893.000000 0.9645 0.9645 0.9644 0.9643 0.9643
3898.000000 0.9642 0.9641 0.9641 0.9640 0.9640
3903.000000 0.9639 0.9639 0.9638 0.9638 0.9637
3908.000000 0.9636 0.9635 0.9634 0.9634 0.9633
3913.000000 0.9632 0.9631 0.9630 0.9630 0.9629
3918.000000 0.9628 0.9627 0.9626 0.9625 0.9624
3923.000000 0.9623 0.9622 0.9621 0.9620 0.9620
3928.000000 0.9619 0.9618 0.9617 0.9616 0.9615
3933.000000 0.9614 0.9613 0.9612 0.9611 0.9611
3938.000000 0.9610 0.9609 0.9608 0.9607 0.9606
3943.000000 0.9606 0.9605 0.9604 0.9603 0.9602
3948.000000 0.9601 0.9600 0.9599 0.9598 0.9597
3953.000000 0.9596 0.9595 0.9594 0.9593 0.9592
3958.000000 0.9592 0.9591 0.9590 0.9589 0.9588
3963.000000 0.9588 0.9587 0.9586 0.9585 0.9584
3968.000000 0.9583 0.9582 0.9581 0.9580 0.9580
3973.000000 0.9579 0.9578 0.9577 0.9576 0.9575
3978.000000 0.9574 0.9573 0.9572 0.9571 0.9570
3983.000000 0.9570 0.9569 0.9568 0.9567 0.9566
3988.000000 0.9565 0.9564 0.9562 0.9561 0.9560
3993.000000 0.9559 0.9558 0.9557 0.9556 0.9555
3998.000000 0.9554 0.9553 0.9553
##END=
