##TITLE=Triazole, 3H-1,2,4-,5-amino-3-anilino-
##JCAMP-DX=4.24
##DATA TYPE=INFRARED SPECTRUM
##CLASS=COBLENTZ III
##ORIGIN=SMITH, KLINE & FRENCH LABS.
##OWNER=Copyright (C) 1987 by the Coblentz Society
Collection (C) 2018 copyright by the U.S. Secretary of Commerce
on behalf of the United States of America. All rights reserved.
##DATE=1967/01/16
##NAMES=N<3>-phenyl-3H-1,2,4-triazole-3,5-diamine
##MOLFORM=C8 H9 N5
##SOURCE REFERENCE=COBLENTZ NO. 7333
##$NIST ID=B6007333
##$NIST SOURCE=COBLENTZ
##$NIST IMAGE=cob7333
##SPECTROMETER/DATA SYSTEM=PERKIN-ELMER 21 (GRATING)
##INSTRUMENT PARAMETERS=NaCl PRISM
##STATE=SOLID (OIL MULL)
$$SPECTRAL CONTAMINATION DUE TO OIL AROUND 2900, 1460, 1375 CM^-^1
##SAMPLING PROCEDURE=TRANSMISSION
##RESOLUTION=2
##DATA PROCESSING=DIGITIZED BY COBLENTZ SOCIETY (BATCH II) FROM HARD COPY
##XUNITS=1/CM
##YUNITS=TRANSMITTANCE
##XFACTOR=1.0
##YFACTOR=1
##FIRSTX=673
##LASTX=4000
##FIRSTY=0.7239
##MAXX=4000
##MINX=673
##MAXY=0.9454
##MINY=0.0944
##NPOINTS=3328
##XYDATA=(X++(Y..Y))
673.000000 0.7239 0.7264 0.7241 0.7246 0.7244
678.000000 0.7225 0.7203 0.7184 0.7170 0.7127
683.000000 0.7057 0.6953 0.6851 0.6655 0.6350
688.000000 0.5692 0.4942 0.4193 0.3870 0.3868
693.000000 0.4270 0.4609 0.4946 0.5183 0.5255
698.000000 0.5307 0.5359 0.5413 0.5451 0.5488
703.000000 0.5525 0.5560 0.5592 0.5624 0.5639
708.000000 0.5641 0.5625 0.5608 0.5592 0.5576
713.000000 0.5560 0.5544 0.5525 0.5523 0.5520
718.000000 0.5516 0.5518 0.5522 0.5526 0.5529
723.000000 0.5532 0.5534 0.5537 0.5539 0.5540
728.000000 0.5542 0.5539 0.5527 0.5515 0.5467
733.000000 0.5406 0.5315 0.5199 0.5080 0.4919
738.000000 0.4716 0.4372 0.3868 0.3365 0.2863
743.000000 0.2633 0.2434 0.2288 0.2285 0.2440
748.000000 0.2762 0.2892 0.3003 0.3199 0.3817
753.000000 0.4522 0.5211 0.5666 0.6164 0.6395
758.000000 0.6470 0.6521 0.6545 0.6566 0.6582
763.000000 0.6598 0.6608 0.6618 0.6627 0.6636
768.000000 0.6642 0.6653 0.6681 0.6711 0.6740
773.000000 0.6771 0.6805 0.6836 0.6863 0.6889
778.000000 0.6923 0.6960 0.6992 0.7016 0.7047
783.000000 0.7091 0.7140 0.7194 0.7246 0.7294
788.000000 0.7339 0.7378 0.7420 0.7465 0.7510
793.000000 0.7545 0.7579 0.7614 0.7648 0.7681
798.000000 0.7706 0.7730 0.7756 0.7785 0.7815
803.000000 0.7849 0.7858 0.7864 0.7870 0.7869
808.000000 0.7878 0.7881 0.7872 0.7862 0.7853
813.000000 0.7841 0.7828 0.7814 0.7802 0.7798
818.000000 0.7795 0.7791 0.7808 0.7828 0.7821
823.000000 0.7797 0.7764 0.7731 0.7712 0.7786
828.000000 0.7835 0.7885 0.7925 0.7963 0.8002
833.000000 0.8053 0.8095 0.8136 0.8172 0.8205
838.000000 0.8238 0.8266 0.8286 0.8307 0.8328
843.000000 0.8348 0.8370 0.8401 0.8432 0.8459
848.000000 0.8486 0.8503 0.8502 0.8501 0.8501
853.000000 0.8506 0.8515 0.8547 0.8573 0.8586
858.000000 0.8577 0.8567 0.8560 0.8574 0.8588
863.000000 0.8601 0.8606 0.8580 0.8554 0.8527
868.000000 0.8491 0.8462 0.8444 0.8515 0.8596
873.000000 0.8717 0.8865 0.8889 0.8884 0.8869
878.000000 0.8848 0.8797 0.8752 0.8710 0.8677
883.000000 0.8645 0.8612 0.8577 0.8534 0.8476
888.000000 0.8357 0.7922 0.7412 0.6893 0.6375
893.000000 0.6118 0.6717 0.7314 0.7516 0.7565
898.000000 0.7602 0.7856 0.8196 0.8530 0.8782
903.000000 0.8856 0.8893 0.8923 0.8937 0.8946
908.000000 0.8955 0.8961 0.8966 0.8970 0.8974
913.000000 0.8977 0.8979 0.8980 0.8981 0.8983
918.000000 0.8984 0.8986 0.8986 0.9001 0.8985
923.000000 0.8985 0.8984 0.8984 0.8985 0.8985
928.000000 0.8985 0.8986 0.8982 0.8976 0.8970
933.000000 0.8966 0.8960 0.8955 0.8949 0.8944
938.000000 0.8939 0.8935 0.8933 0.8930 0.8928
943.000000 0.8926 0.8923 0.8920 0.8917 0.8914
948.000000 0.8905 0.8896 0.8886 0.8876 0.8874
953.000000 0.8880 0.8886 0.8892 0.8896 0.8902
958.000000 0.8905 0.8900 0.8896 0.8890 0.8885
963.000000 0.8881 0.8870 0.8858 0.8845 0.8832
968.000000 0.8820 0.8807 0.8796 0.8785 0.8774
973.000000 0.8775 0.8782 0.8788 0.8798 0.8808
978.000000 0.8819 0.8829 0.8838 0.8833 0.8827
983.000000 0.8821 0.8815 0.8804 0.8790 0.8777
988.000000 0.8758 0.8739 0.8720 0.8700 0.8677
993.000000 0.8630 0.8600 0.8579 0.8565 0.8567
998.000000 0.8568 0.8590 0.8613 0.8634 0.8654
1003.000000 0.8655 0.8644 0.8620 0.8596 0.8572
1008.000000 0.8545 0.8517 0.8483 0.8438 0.8393
1013.000000 0.8343 0.8271 0.8182 0.8121 0.8141
1018.000000 0.8196 0.8279 0.8385 0.8503 0.8627
1023.000000 0.8753 0.8816 0.8810 0.8811 0.8765
1028.000000 0.8718 0.8642 0.8569 0.8526 0.8566
1033.000000 0.8597 0.8656 0.8747 0.8835 0.8873
1038.000000 0.8886 0.8889 0.8859 0.8874 0.8866
1043.000000 0.8856 0.8846 0.8834 0.8815 0.8796
1048.000000 0.8777 0.8758 0.8736 0.8712 0.8690
1053.000000 0.8667 0.8637 0.8604 0.8571 0.8529
1058.000000 0.8472 0.8414 0.8343 0.8256 0.8169
1063.000000 0.8049 0.7785 0.7544 0.7028 0.6278
1068.000000 0.5528 0.4781 0.4243 0.4256 0.4498
1073.000000 0.5068 0.5636 0.6203 0.6741 0.6853
1078.000000 0.6882 0.6518 0.6099 0.5682 0.5265
1083.000000 0.4848 0.4433 0.4117 0.4111 0.4099
1088.000000 0.4362 0.4679 0.4995 0.5310 0.5626
1093.000000 0.5859 0.5957 0.6037 0.6146 0.6252
1098.000000 0.6352 0.6479 0.6622 0.6867 0.7357
1103.000000 0.7564 0.7637 0.7709 0.7769 0.7827
1108.000000 0.7884 0.7943 0.8009 0.8077 0.8135
1113.000000 0.8180 0.8225 0.8267 0.8303 0.8339
1118.000000 0.8374 0.8408 0.8433 0.8458 0.8482
1123.000000 0.8504 0.8515 0.8526 0.8538 0.8547
1128.000000 0.8554 0.8561 0.8568 0.8575 0.8582
1133.000000 0.8589 0.8595 0.8602 0.8606 0.8612
1138.000000 0.8608 0.8604 0.8600 0.8597 0.8593
1143.000000 0.8572 0.8551 0.8520 0.8481 0.8418
1148.000000 0.8337 0.8255 0.8171 0.8143 0.8136
1153.000000 0.8232 0.8322 0.8403 0.8445 0.8459
1158.000000 0.8467 0.8475 0.8451 0.8428 0.8405
1163.000000 0.8386 0.8363 0.8338 0.8315 0.8286
1168.000000 0.8257 0.8228 0.8194 0.8157 0.8111
1173.000000 0.8064 0.8016 0.7962 0.7903 0.7783
1178.000000 0.7518 0.7252 0.7008 0.6963 0.7161
1183.000000 0.7404 0.7609 0.7687 0.7733 0.7775
1188.000000 0.7799 0.7820 0.7831 0.7841 0.7850
1193.000000 0.7854 0.7858 0.7861 0.7866 0.7880
1198.000000 0.7895 0.7921 0.7945 0.7956 0.7965
1203.000000 0.7970 0.7962 0.7954 0.7942 0.7926
1208.000000 0.7910 0.7895 0.7879 0.7867 0.7858
1213.000000 0.7862 0.7868 0.7872 0.7870 0.7870
1218.000000 0.7868 0.7866 0.7859 0.7835 0.7801
1223.000000 0.7755 0.7710 0.7688 0.7675 0.7657
1228.000000 0.7629 0.7574 0.7476 0.7347 0.7200
1233.000000 0.7081 0.6852 0.6562 0.6272 0.5984
1238.000000 0.5695 0.5407 0.5119 0.4914 0.4872
1243.000000 0.4865 0.4886 0.5309 0.5608 0.5908
1248.000000 0.6206 0.6504 0.6802 0.7099 0.7376
1253.000000 0.7521 0.7700 0.7855 0.7971 0.8048
1258.000000 0.8101 0.8124 0.8126 0.8122 0.8114
1263.000000 0.8102 0.8085 0.8067 0.8046 0.8005
1268.000000 0.7943 0.7876 0.7787 0.7702 0.7628
1273.000000 0.7544 0.7366 0.7270 0.7255 0.7245
1278.000000 0.7252 0.7280 0.7363 0.7447 0.7532
1283.000000 0.7617 0.7701 0.7761 0.7807 0.7821
1288.000000 0.7836 0.7846 0.7849 0.7852 0.7856
1293.000000 0.7864 0.7892 0.7939 0.7988 0.8019
1298.000000 0.8034 0.8042 0.8045 0.8045 0.8045
1303.000000 0.8086 0.8037 0.8027 0.8018 0.8006
1308.000000 0.7993 0.7980 0.7967 0.7952 0.7934
1313.000000 0.7918 0.7902 0.7887 0.7874 0.7872
1318.000000 0.7874 0.7875 0.7874 0.7874 0.7873
1323.000000 0.7873 0.7857 0.7815 0.7755 0.7687
1328.000000 0.7631 0.7585 0.7562 0.7552 0.7559
1333.000000 0.7577 0.7607 0.7641 0.7666 0.7678
1338.000000 0.7690 0.7700 0.7706 0.7711 0.7718
1343.000000 0.7723 0.7725 0.7725 0.7725 0.7726
1348.000000 0.7726 0.7724 0.7718 0.7711 0.7696
1353.000000 0.7675 0.7646 0.7604 0.7545 0.7475
1358.000000 0.7403 0.7323 0.7245 0.7179 0.7115
1363.000000 0.7051 0.6976 0.6901 0.6835 0.6770
1368.000000 0.6687 0.6577 0.6352 0.6113 0.5882
1373.000000 0.5805 0.5796 0.5792 0.5850 0.5953
1378.000000 0.6056 0.6159 0.6261 0.6363 0.6466
1383.000000 0.6568 0.6670 0.6768 0.6816 0.6825
1388.000000 0.6827 0.6821 0.6796 0.6720 0.6626
1393.000000 0.6536 0.6473 0.6411 0.6328 0.6221
1398.000000 0.5996 0.5608 0.5480 0.5327 0.5136
1403.000000 0.4773 0.4558 0.4344 0.4130 0.3917
1408.000000 0.3704 0.3490 0.3277 0.2556 0.2394
1413.000000 0.2256 0.2045 0.2001 0.1975 0.1965
1418.000000 0.1963 0.1968 0.1984 0.2024 0.2107
1423.000000 0.2296 0.2491 0.2687 0.2787 0.2796
1428.000000 0.2785 0.2713 0.2606 0.2499 0.2392
1433.000000 0.2312 0.2298 0.2321 0.2492 0.2684
1438.000000 0.2875 0.3066 0.3258 0.3448 0.3639
1443.000000 0.3799 0.3901 0.3989 0.4075 0.4144
1448.000000 0.4193 0.4227 0.4260 0.4268 0.4271
1453.000000 0.4271 0.4259 0.4243 0.4205 0.4170
1458.000000 0.4142 0.4127 0.4123 0.4124 0.4132
1463.000000 0.4148 0.4203 0.4308 0.4529 0.4809
1468.000000 0.5090 0.5370 0.5650 0.5929 0.6207
1473.000000 0.6486 0.6718 0.6837 0.6939 0.7044
1478.000000 0.7195 0.7340 0.7441 0.7505 0.7550
1483.000000 0.7597 0.7561 0.7551 0.7520 0.7457
1488.000000 0.7390 0.7310 0.7216 0.7020 0.6524
1493.000000 0.5822 0.5121 0.4421 0.3722 0.3024
1498.000000 0.2621 0.2598 0.2611 0.2605 0.2976
1503.000000 0.3986 0.5183 0.6379 0.7431 0.7572
1508.000000 0.7630 0.7681 0.7717 0.7735 0.7744
1513.000000 0.7740 0.7740 0.7728 0.7714 0.7596
1518.000000 0.7429 0.7261 0.7094 0.6927 0.6760
1523.000000 0.6594 0.6428 0.6262 0.6096 0.5930
1528.000000 0.5765 0.5616 0.5608 0.5599 0.5691
1533.000000 0.5913 0.6135 0.6357 0.6578 0.6799
1538.000000 0.7020 0.7240 0.7359 0.7379 0.7383
1543.000000 0.7383 0.7410 0.7376 0.7363 0.7343
1548.000000 0.7277 0.7210 0.7142 0.7076 0.7008
1553.000000 0.6941 0.6874 0.6807 0.6741 0.6674
1558.000000 0.6603 0.6538 0.6488 0.6434 0.6373
1563.000000 0.6294 0.6097 0.5802 0.5507 0.5213
1568.000000 0.4919 0.4625 0.4332 0.4039 0.3747
1573.000000 0.3455 0.3163 0.2872 0.2581 0.2290
1578.000000 0.2000 0.1710 0.1469 0.1215 0.1112
1583.000000 0.1076 0.1059 0.1050 0.1043 0.1037
1588.000000 0.1030 0.1002 0.1120 0.1275 0.1440
1593.000000 0.1604 0.1769 0.1932 0.2096 0.2260
1598.000000 0.2414 0.2482 0.2494 0.2457 0.2392
1603.000000 0.2306 0.2221 0.2136 0.2051 0.1966
1608.000000 0.1880 0.1795 0.1711 0.1627 0.1542
1613.000000 0.1457 0.1373 0.1288 0.1205 0.1125
1618.000000 0.1086 0.1055 0.1029 0.1008 0.0994
1623.000000 0.0983 0.0972 0.0962 0.0957 0.0958
1628.000000 0.1044 0.0944 0.1562 0.1663 0.1723
1633.000000 0.1809 0.1983 0.2062 0.2327 0.2653
1638.000000 0.2986 0.3320 0.3652 0.3984 0.4317
1643.000000 0.4648 0.4979 0.5310 0.5623 0.5925
1648.000000 0.6872 0.6949 0.7026 0.7104 0.7206
1653.000000 0.7316 0.7411 0.7477 0.7524 0.7571
1658.000000 0.7619 0.7666 0.7695 0.7722 0.7750
1663.000000 0.7777 0.7804 0.7832 0.7858 0.7882
1668.000000 0.7906 0.7929 0.7952 0.7976 0.7999
1673.000000 0.8022 0.8045 0.8068 0.8090 0.8113
1678.000000 0.8136 0.8158 0.8181 0.8229 0.8282
1683.000000 0.8334 0.8395 0.8465 0.8534 0.8593
1688.000000 0.8649 0.8704 0.8758 0.8811 0.8857
1693.000000 0.8897 0.8937 0.8974 0.8991 0.9006
1698.000000 0.9020 0.9035 0.9047 0.9056 0.9065
1703.000000 0.9074 0.9077 0.9080 0.9083 0.9086
1708.000000 0.9089 0.9092 0.9095 0.9097 0.9099
1713.000000 0.9101 0.9103 0.9105 0.9107 0.9109
1718.000000 0.9111 0.9113 0.9115 0.9118 0.9125
1723.000000 0.9132 0.9139 0.9145 0.9152 0.9163
1728.000000 0.9178 0.9195 0.9211 0.9227 0.9241
1733.000000 0.9256 0.9271 0.9285 0.9294 0.9300
1738.000000 0.9307 0.9313 0.9319 0.9326 0.9332
1743.000000 0.9336 0.9338 0.9339 0.9341 0.9342
1748.000000 0.9344 0.9346 0.9347 0.9349 0.9351
1753.000000 0.9352 0.9353 0.9354 0.9354 0.9355
1758.000000 0.9355 0.9355 0.9355 0.9355 0.9355
1763.000000 0.9355 0.9355 0.9354 0.9351 0.9345
1768.000000 0.9340 0.9333 0.9328 0.9322 0.9318
1773.000000 0.9313 0.9309 0.9304 0.9299 0.9295
1778.000000 0.9291 0.9286 0.9281 0.9277 0.9272
1783.000000 0.9267 0.9269 0.9274 0.9281 0.9290
1788.000000 0.9298 0.9307 0.9315 0.9324 0.9336
1793.000000 0.9348 0.9360 0.9371 0.9378 0.9385
1798.000000 0.9393 0.9400 0.9408 0.9414 0.9420
1803.000000 0.9424 0.9427 0.9429 0.9432 0.9435
1808.000000 0.9439 0.9442 0.9445 0.9447 0.9448
1813.000000 0.9450 0.9450 0.9451 0.9452 0.9454
1818.000000 0.9454 0.9451 0.9448 0.9444 0.9440
1823.000000 0.9436 0.9433 0.9430 0.9425 0.9418
1828.000000 0.9410 0.9402 0.9395 0.9387 0.9380
1833.000000 0.9372 0.9364 0.9356 0.9347 0.9336
1838.000000 0.9323 0.9310 0.9298 0.9287 0.9280
1843.000000 0.9273 0.9266 0.9259 0.9259 0.9262
1848.000000 0.9267 0.9271 0.9275 0.9282 0.9290
1853.000000 0.9298 0.9306 0.9315 0.9323 0.9331
1858.000000 0.9339 0.9344 0.9344 0.9343 0.9342
1863.000000 0.9342 0.9342 0.9343 0.9345 0.9347
1868.000000 0.9354 0.9362 0.9371 0.9380 0.9387
1873.000000 0.9394 0.9400 0.9405 0.9408 0.9409
1878.000000 0.9409 0.9409 0.9409 0.9409 0.9409
1883.000000 0.9409 0.9409 0.9409 0.9409 0.9408
1888.000000 0.9404 0.9401 0.9398 0.9395 0.9391
1893.000000 0.9388 0.9385 0.9382 0.9378 0.9375
1898.000000 0.9372 0.9369 0.9364 0.9354 0.9343
1903.000000 0.9332 0.9321 0.9309 0.9297 0.9285
1908.000000 0.9273 0.9261 0.9248 0.9231 0.9212
1913.000000 0.9194 0.9183 0.9174 0.9166 0.9157
1918.000000 0.9149 0.9142 0.9139 0.9151 0.9137
1923.000000 0.9137 0.9140 0.9145 0.9150 0.9156
1928.000000 0.9164 0.9175 0.9193 0.9211 0.9228
1933.000000 0.9239 0.9251 0.9263 0.9270 0.9277
1938.000000 0.9284 0.9290 0.9296 0.9301 0.9306
1943.000000 0.9311 0.9315 0.9320 0.9324 0.9327
1948.000000 0.9330 0.9333 0.9336 0.9339 0.9342
1953.000000 0.9345 0.9348 0.9350 0.9353 0.9356
1958.000000 0.9358 0.9361 0.9363 0.9366 0.9368
1963.000000 0.9370 0.9373 0.9375 0.9378 0.9381
1968.000000 0.9382 0.9383 0.9384 0.9386 0.9387
1973.000000 0.9388 0.9390 0.9391 0.9392 0.9393
1978.000000 0.9395 0.9396 0.9397 0.9399 0.9400
1983.000000 0.9401 0.9402 0.9404 0.9405 0.9406
1988.000000 0.9407 0.9409 0.9409 0.9409 0.9409
1993.000000 0.9410 0.9410 0.9410 0.9410 0.9410
1998.000000 0.9410 0.9410 0.9410 0.9410 0.9410
2003.000000 0.9410 0.9410 0.9410 0.9410 0.9411
2008.000000 0.9411 0.9411 0.9410 0.9410 0.9409
2013.000000 0.9408 0.9408 0.9407 0.9406 0.9405
2018.000000 0.9404 0.9404 0.9403 0.9403 0.9402
2023.000000 0.9401 0.9401 0.9400 0.9399 0.9398
2028.000000 0.9397 0.9397 0.9396 0.9395 0.9395
2033.000000 0.9394 0.9394 0.9393 0.9391 0.9390
2038.000000 0.9389 0.9389 0.9387 0.9386 0.9385
2043.000000 0.9384 0.9383 0.9382 0.9381 0.9380
2048.000000 0.9379 0.9378 0.9377 0.9376 0.9375
2053.000000 0.9374 0.9373 0.9372 0.9370 0.9370
2058.000000 0.9369 0.9368 0.9367 0.9366 0.9365
2063.000000 0.9364 0.9363 0.9361 0.9360 0.9358
2068.000000 0.9357 0.9355 0.9354 0.9353 0.9352
2073.000000 0.9350 0.9349 0.9347 0.9346 0.9344
2078.000000 0.9343 0.9342 0.9340 0.9339 0.9337
2083.000000 0.9336 0.9334 0.9333 0.9331 0.9330
2088.000000 0.9329 0.9328 0.9326 0.9325 0.9324
2093.000000 0.9323 0.9322 0.9321 0.9320 0.9320
2098.000000 0.9319 0.9319 0.9317 0.9316 0.9316
2103.000000 0.9315 0.9315 0.9314 0.9313 0.9312
2108.000000 0.9311 0.9311 0.9310 0.9309 0.9308
2113.000000 0.9308 0.9307 0.9307 0.9306 0.9305
2118.000000 0.9304 0.9303 0.9300 0.9298 0.9294
2123.000000 0.9291 0.9289 0.9285 0.9282 0.9279
2128.000000 0.9276 0.9273 0.9268 0.9262 0.9256
2133.000000 0.9250 0.9244 0.9237 0.9233 0.9229
2138.000000 0.9227 0.9226 0.9225 0.9224 0.9222
2143.000000 0.9220 0.9219 0.9217 0.9215 0.9214
2148.000000 0.9213 0.9211 0.9212 0.9214 0.9217
2153.000000 0.9220 0.9222 0.9224 0.9227 0.9229
2158.000000 0.9232 0.9235 0.9237 0.9239 0.9242
2163.000000 0.9244 0.9247 0.9250 0.9252 0.9255
2168.000000 0.9259 0.9262 0.9266 0.9270 0.9273
2173.000000 0.9277 0.9281 0.9283 0.9286 0.9289
2178.000000 0.9291 0.9295 0.9298 0.9300 0.9303
2183.000000 0.9305 0.9307 0.9309 0.9310 0.9311
2188.000000 0.9312 0.9313 0.9314 0.9315 0.9317
2193.000000 0.9318 0.9317 0.9316 0.9314 0.9312
2198.000000 0.9310 0.9308 0.9306 0.9304 0.9302
2203.000000 0.9300 0.9298 0.9295 0.9291 0.9288
2208.000000 0.9284 0.9281 0.9277 0.9273 0.9270
2213.000000 0.9266 0.9263 0.9259 0.9256 0.9252
2218.000000 0.9249 0.9246 0.9242 0.9239 0.9235
2223.000000 0.9232 0.9229 0.9227 0.9226 0.9224
2228.000000 0.9222 0.9220 0.9219 0.9217 0.9216
2233.000000 0.9214 0.9213 0.9211 0.9210 0.9208
2238.000000 0.9207 0.9205 0.9204 0.9202 0.9201
2243.000000 0.9201 0.9202 0.9203 0.9204 0.9206
2248.000000 0.9208 0.9210 0.9212 0.9214 0.9217
2253.000000 0.9219 0.9220 0.9222 0.9224 0.9226
2258.000000 0.9228 0.9229 0.9231 0.9233 0.9235
2263.000000 0.9237 0.9239 0.9240 0.9242 0.9243
2268.000000 0.9245 0.9247 0.9250 0.9252 0.9254
2273.000000 0.9256 0.9259 0.9261 0.9263 0.9265
2278.000000 0.9267 0.9270 0.9272 0.9274 0.9276
2283.000000 0.9278 0.9281 0.9283 0.9285 0.9288
2288.000000 0.9290 0.9292 0.9294 0.9296 0.9299
2293.000000 0.9302 0.9305 0.9308 0.9310 0.9313
2298.000000 0.9316 0.9319 0.9322 0.9325 0.9327
2303.000000 0.9330 0.9333 0.9336 0.9340 0.9342
2308.000000 0.9345 0.9347 0.9350 0.9353 0.9355
2313.000000 0.9357 0.9360 0.9363 0.9365 0.9368
2318.000000 0.9370 0.9372 0.9375 0.9378 0.9379
2323.000000 0.9380 0.9380 0.9378 0.9376 0.9373
2328.000000 0.9370 0.9367 0.9364 0.9361 0.9358
2333.000000 0.9355 0.9351 0.9348 0.9345 0.9341
2338.000000 0.9338 0.9334 0.9331 0.9327 0.9323
2343.000000 0.9320 0.9316 0.9312 0.9309 0.9305
2348.000000 0.9301 0.9298 0.9294 0.9291 0.9287
2353.000000 0.9283 0.9279 0.9275 0.9271 0.9268
2358.000000 0.9263 0.9259 0.9255 0.9251 0.9247
2363.000000 0.9243 0.9240 0.9236 0.9233 0.9229
2368.000000 0.9225 0.9222 0.9218 0.9215 0.9211
2373.000000 0.9208 0.9204 0.9201 0.9197 0.9193
2378.000000 0.9190 0.9186 0.9183 0.9179 0.9176
2383.000000 0.9172 0.9169 0.9166 0.9163 0.9159
2388.000000 0.9156 0.9153 0.9150 0.9146 0.9143
2393.000000 0.9139 0.9136 0.9133 0.9130 0.9126
2398.000000 0.9123 0.9120 0.9117 0.9114 0.9111
2403.000000 0.9107 0.9104 0.9101 0.9098 0.9095
2408.000000 0.9091 0.9088 0.9085 0.9082 0.9078
2413.000000 0.9075 0.9072 0.9069 0.9066 0.9063
2418.000000 0.9060 0.9057 0.9054 0.9051 0.9049
2423.000000 0.9046 0.9043 0.9040 0.9038 0.9035
2428.000000 0.9032 0.9030 0.9027 0.9024 0.9021
2433.000000 0.9019 0.9016 0.9013 0.9010 0.9008
2438.000000 0.9005 0.9003 0.9000 0.8997 0.8994
2443.000000 0.8991 0.8989 0.8986 0.8984 0.8981
2448.000000 0.8978 0.8975 0.8973 0.8970 0.8968
2453.000000 0.8965 0.8962 0.8959 0.8957 0.8954
2458.000000 0.8950 0.8947 0.8944 0.8940 0.8937
2463.000000 0.8934 0.8930 0.8927 0.8924 0.8921
2468.000000 0.8917 0.8914 0.8911 0.8908 0.8905
2473.000000 0.8902 0.8899 0.8895 0.8892 0.8889
2478.000000 0.8886 0.8882 0.8879 0.8876 0.8873
2483.000000 0.8869 0.8866 0.8863 0.8860 0.8856
2488.000000 0.8853 0.8850 0.8847 0.8843 0.8840
2493.000000 0.8837 0.8834 0.8832 0.8828 0.8825
2498.000000 0.8822 0.8819 0.8816 0.8813 0.8810
2503.000000 0.8807 0.8804 0.8802 0.8798 0.8795
2508.000000 0.8792 0.8789 0.8787 0.8784 0.8781
2513.000000 0.8778 0.8776 0.8773 0.8770 0.8767
2518.000000 0.8764 0.8761 0.8758 0.8754 0.8749
2523.000000 0.8744 0.8739 0.8735 0.8730 0.8725
2528.000000 0.8721 0.8716 0.8711 0.8707 0.8702
2533.000000 0.8697 0.8692 0.8687 0.8682 0.8677
2538.000000 0.8673 0.8668 0.8664 0.8659 0.8654
2543.000000 0.8650 0.8645 0.8640 0.8636 0.8631
2548.000000 0.8626 0.8622 0.8617 0.8613 0.8608
2553.000000 0.8603 0.8599 0.8594 0.8590 0.8585
2558.000000 0.8580 0.8576 0.8571 0.8566 0.8561
2563.000000 0.8555 0.8550 0.8545 0.8539 0.8534
2568.000000 0.8529 0.8523 0.8518 0.8513 0.8508
2573.000000 0.8502 0.8497 0.8492 0.8486 0.8481
2578.000000 0.8476 0.8471 0.8465 0.8460 0.8454
2583.000000 0.8448 0.8442 0.8436 0.8430 0.8424
2588.000000 0.8418 0.8413 0.8407 0.8402 0.8396
2593.000000 0.8390 0.8384 0.8378 0.8372 0.8366
2598.000000 0.8360 0.8354 0.8348 0.8342 0.8337
2603.000000 0.8332 0.8327 0.8323 0.8318 0.8314
2608.000000 0.8310 0.8305 0.8300 0.8292 0.8285
2613.000000 0.8277 0.8268 0.8260 0.8251 0.8242
2618.000000 0.8232 0.8222 0.8212 0.8202 0.8192
2623.000000 0.8182 0.8170 0.8155 0.8141 0.8126
2628.000000 0.8112 0.8097 0.8082 0.8067 0.8052
2633.000000 0.8037 0.8023 0.8011 0.8001 0.7991
2638.000000 0.7981 0.7971 0.7961 0.7951 0.7941
2643.000000 0.7930 0.7920 0.7910 0.7900 0.7892
2648.000000 0.7884 0.7877 0.7871 0.7865 0.7859
2653.000000 0.7853 0.7847 0.7841 0.7836 0.7830
2658.000000 0.7825 0.7820 0.7814 0.7809 0.7804
2663.000000 0.7798 0.7793 0.7788 0.7781 0.7774
2668.000000 0.7766 0.7755 0.7744 0.7733 0.7722
2673.000000 0.7711 0.7700 0.7688 0.7676 0.7664
2678.000000 0.7653 0.7641 0.7630 0.7621 0.7611
2683.000000 0.7602 0.7594 0.7585 0.7576 0.7568
2688.000000 0.7559 0.7550 0.7542 0.7533 0.7524
2693.000000 0.7516 0.7507 0.7499 0.7491 0.7483
2698.000000 0.7476 0.7468 0.7460 0.7452 0.7445
2703.000000 0.7438 0.7431 0.7425 0.7418 0.7411
2708.000000 0.7404 0.7398 0.7391 0.7385 0.7376
2713.000000 0.7366 0.7356 0.7344 0.7329 0.7315
2718.000000 0.7301 0.7287 0.7272 0.7258 0.7244
2723.000000 0.7229 0.7218 0.7209 0.7199 0.7190
2728.000000 0.7181 0.7172 0.7164 0.7156 0.7148
2733.000000 0.7143 0.7139 0.7134 0.7130 0.7126
2738.000000 0.7121 0.7116 0.7110 0.7105 0.7098
2743.000000 0.7090 0.7082 0.7074 0.7066 0.7058
2748.000000 0.7046 0.7034 0.7021 0.7007 0.6994
2753.000000 0.6980 0.6963 0.6944 0.6926 0.6905
2758.000000 0.6884 0.6863 0.6836 0.6806 0.6776
2763.000000 0.6745 0.6713 0.6680 0.6647 0.6614
2768.000000 0.6580 0.6521 0.6430 0.6340 0.6262
2773.000000 0.6205 0.6149 0.6094 0.6041 0.5989
2778.000000 0.5937 0.5885 0.5833 0.5783 0.5743
2783.000000 0.5702 0.5662 0.5625 0.5589 0.5552
2788.000000 0.5515 0.5479 0.5442 0.5404 0.5367
2793.000000 0.5329 0.5291 0.5253 0.5215 0.5179
2798.000000 0.5143 0.5107 0.5069 0.5028 0.4987
2803.000000 0.4913 0.4765 0.4617 0.4469 0.4321
2808.000000 0.4174 0.4026 0.3879 0.3731 0.3584
2813.000000 0.3437 0.3291 0.3144 0.2997 0.2851
2818.000000 0.2704 0.2564 0.2430 0.2295 0.2196
2823.000000 0.2166 0.2136 0.2109 0.2094 0.2080
2828.000000 0.2066 0.2056 0.2045 0.2035 0.2029
2833.000000 0.2024 0.2020 0.2015 0.2011 0.2006
2838.000000 0.2002 0.1999 0.1995 0.1991 0.1988
2843.000000 0.1985 0.1982 0.1979 0.1976 0.1973
2848.000000 0.1969 0.1966 0.1963 0.1958 0.1953
2853.000000 0.1947 0.1941 0.1932 0.1922 0.1912
2858.000000 0.1877 0.1838 0.1799 0.1761 0.1725
2863.000000 0.1688 0.1648 0.1597 0.1546 0.1494
2868.000000 0.1413 0.1331 0.1250 0.1221 0.1210
2873.000000 0.1199 0.1193 0.1191 0.1189 0.1187
2878.000000 0.1185 0.1184 0.1182 0.1182 0.1183
2883.000000 0.1184 0.1186 0.1188 0.1190 0.1192
2888.000000 0.1195 0.1198 0.1201 0.1206 0.1212
2893.000000 0.1218 0.1231 0.1254 0.1276 0.1299
2898.000000 0.1322 0.1346 0.1369 0.1389 0.1408
2903.000000 0.1427 0.1454 0.1492 0.1530 0.1568
2908.000000 0.1586 0.1603 0.1621 0.1642 0.1664
2913.000000 0.1686 0.1709 0.1737 0.1765 0.1793
2918.000000 0.1826 0.1859 0.1892 0.1921 0.1944
2923.000000 0.1967 0.1991 0.2066 0.2141 0.2216
2928.000000 0.2281 0.2341 0.2401 0.2460 0.2520
2933.000000 0.2579 0.2638 0.2698 0.2757 0.2817
2938.000000 0.2876 0.2935 0.2994 0.3053 0.3112
2943.000000 0.3171 0.3231 0.3290 0.3348 0.3407
2948.000000 0.3466 0.3525 0.3584 0.3643 0.3701
2953.000000 0.3760 0.3818 0.3877 0.3935 0.3994
2958.000000 0.4053 0.4111 0.4169 0.4227 0.4286
2963.000000 0.4344 0.4402 0.4460 0.4518 0.4576
2968.000000 0.4634 0.4692 0.4750 0.4808 0.4866
2973.000000 0.4921 0.4970 0.5019 0.5068 0.5079
2978.000000 0.5082 0.5084 0.5086 0.5088 0.5091
2983.000000 0.5093 0.5094 0.5094 0.5094 0.5094
2988.000000 0.5093 0.5092 0.5090 0.5102 0.5085
2993.000000 0.5082 0.5080 0.5074 0.5068 0.5062
2998.000000 0.5054 0.5043 0.5032 0.5021 0.5009
3003.000000 0.4998 0.4987 0.4975 0.4964 0.4953
3008.000000 0.4942 0.4931 0.4920 0.4908 0.4897
3013.000000 0.4886 0.4875 0.4864 0.4853 0.4842
3018.000000 0.4830 0.4819 0.4808 0.4797 0.4786
3023.000000 0.4775 0.4764 0.4753 0.4742 0.4731
3028.000000 0.4720 0.4709 0.4698 0.4687 0.4676
3033.000000 0.4665 0.4654 0.4643 0.4632 0.4621
3038.000000 0.4610 0.4599 0.4588 0.4577 0.4564
3043.000000 0.4550 0.4536 0.4521 0.4513 0.4504
3048.000000 0.4496 0.4488 0.4479 0.4471 0.4463
3053.000000 0.4453 0.4442 0.4430 0.4419 0.4405
3058.000000 0.4391 0.4377 0.4362 0.4347 0.4333
3063.000000 0.4318 0.4303 0.4289 0.4274 0.4260
3068.000000 0.4248 0.4238 0.4228 0.4219 0.4210
3073.000000 0.4202 0.4194 0.4186 0.4180 0.4175
3078.000000 0.4169 0.4164 0.4161 0.4158 0.4154
3083.000000 0.4151 0.4148 0.4144 0.4141 0.4138
3088.000000 0.4135 0.4133 0.4130 0.4130 0.4130
3093.000000 0.4130 0.4130 0.4131 0.4133 0.4134
3098.000000 0.4147 0.4135 0.4136 0.4137 0.4138
3103.000000 0.4138 0.4139 0.4140 0.4141 0.4144
3108.000000 0.4146 0.4148 0.4152 0.4155 0.4159
3113.000000 0.4163 0.4170 0.4177 0.4184 0.4192
3118.000000 0.4200 0.4209 0.4217 0.4226 0.4239
3123.000000 0.4252 0.4266 0.4280 0.4286 0.4293
3128.000000 0.4300 0.4307 0.4310 0.4313 0.4317
3133.000000 0.4320 0.4320 0.4320 0.4320 0.4317
3138.000000 0.4320 0.4320 0.4320 0.4320 0.4317
3143.000000 0.4314 0.4311 0.4308 0.4305 0.4302
3148.000000 0.4299 0.4293 0.4284 0.4275 0.4266
3153.000000 0.4250 0.4226 0.4202 0.4177 0.4159
3158.000000 0.4149 0.4138 0.4128 0.4119 0.4111
3163.000000 0.4103 0.4095 0.4089 0.4084 0.4080
3168.000000 0.4076 0.4073 0.4071 0.4069 0.4068
3173.000000 0.4066 0.4065 0.4064 0.4063 0.4063
3178.000000 0.4063 0.4063 0.4063 0.4054 0.4064
3183.000000 0.4065 0.4067 0.4069 0.4073 0.4077
3188.000000 0.4080 0.4089 0.4114 0.4139 0.4164
3193.000000 0.4189 0.4214 0.4239 0.4264 0.4289
3198.000000 0.4314 0.4340 0.4365 0.4390 0.4415
3203.000000 0.4440 0.4464 0.4489 0.4514 0.4539
3208.000000 0.4564 0.4588 0.4613 0.4638 0.4663
3213.000000 0.4688 0.4713 0.4738 0.4762 0.4787
3218.000000 0.4812 0.4837 0.4862 0.4886 0.4904
3223.000000 0.4908 0.4912 0.4915 0.4919 0.4919
3228.000000 0.4920 0.4920 0.4936 0.4911 0.4902
3233.000000 0.4893 0.4884 0.4857 0.4827 0.4798
3238.000000 0.4768 0.4738 0.4708 0.4678 0.4648
3243.000000 0.4618 0.4588 0.4559 0.4529 0.4499
3248.000000 0.4469 0.4439 0.4410 0.4380 0.4350
3253.000000 0.4321 0.4291 0.4262 0.4232 0.4202
3258.000000 0.4173 0.4143 0.4113 0.4084 0.4055
3263.000000 0.4025 0.3996 0.3966 0.3937 0.3907
3268.000000 0.3878 0.3849 0.3819 0.3790 0.3761
3273.000000 0.3732 0.3702 0.3673 0.3643 0.3614
3278.000000 0.3585 0.3556 0.3527 0.3499 0.3479
3283.000000 0.3458 0.3437 0.3417 0.3413 0.3411
3288.000000 0.3410 0.3409 0.3418 0.3411 0.3413
3293.000000 0.3414 0.3417 0.3424 0.3431 0.3438
3298.000000 0.3445 0.3463 0.3483 0.3503 0.3522
3303.000000 0.3542 0.3562 0.3582 0.3602 0.3622
3308.000000 0.3642 0.3662 0.3682 0.3701 0.3721
3313.000000 0.3741 0.3760 0.3780 0.3800 0.3820
3318.000000 0.3840 0.3860 0.3880 0.3884 0.3887
3323.000000 0.3890 0.3892 0.3895 0.3898 0.3901
3328.000000 0.3904 0.3907 0.3910 0.3914 0.3918
3333.000000 0.3921 0.3929 0.3938 0.3947 0.3956
3338.000000 0.3980 0.4054 0.4128 0.4202 0.4276
3343.000000 0.4350 0.4423 0.4496 0.4570 0.4643
3348.000000 0.4716 0.4789 0.4862 0.4934 0.5007
3353.000000 0.5080 0.5153 0.5226 0.5299 0.5372
3358.000000 0.5444 0.5517 0.5590 0.5662 0.5735
3363.000000 0.5807 0.5879 0.5951 0.6024 0.6096
3368.000000 0.6168 0.6241 0.6313 0.6385 0.6457
3373.000000 0.6529 0.6601 0.6673 0.6745 0.6817
3378.000000 0.6888 0.6960 0.7032 0.7104 0.7175
3383.000000 0.7247 0.7318 0.7390 0.7461 0.7532
3388.000000 0.7604 0.7675 0.7746 0.7818 0.7889
3393.000000 0.7936 0.7979 0.8022 0.8066 0.8105
3398.000000 0.8136 0.8166 0.8196 0.8227 0.8282
3403.000000 0.8352 0.8421 0.8491 0.8561 0.8594
3408.000000 0.8627 0.8659 0.8692 0.8721 0.8741
3413.000000 0.8762 0.8782 0.8802 0.8820 0.8836
3418.000000 0.8852 0.8868 0.8884 0.8890 0.8897
3423.000000 0.8904 0.8910 0.8917 0.8923 0.8930
3428.000000 0.8937 0.8943 0.8950 0.8956 0.8962
3433.000000 0.8969 0.8975 0.8978 0.8981 0.8984
3438.000000 0.8987 0.8990 0.8993 0.8997 0.9000
3443.000000 0.9003 0.9006 0.9009 0.9012 0.9015
3448.000000 0.9018 0.9021 0.9024 0.9027 0.9030
3453.000000 0.9033 0.9036 0.9038 0.9040 0.9042
3458.000000 0.9044 0.9045 0.9047 0.9049 0.9050
3463.000000 0.9052 0.9054 0.9055 0.9056 0.9058
3468.000000 0.9059 0.9060 0.9062 0.9063 0.9064
3473.000000 0.9065 0.9065 0.9065 0.9065 0.9065
3478.000000 0.9066 0.9066 0.9067 0.9067 0.9068
3483.000000 0.9068 0.9068 0.9069 0.9069 0.9070
3488.000000 0.9070 0.9070 0.9071 0.9071 0.9094
3493.000000 0.9072 0.9072 0.9073 0.9073 0.9074
3498.000000 0.9074 0.9074 0.9074 0.9074 0.9075
3503.000000 0.9075 0.9075 0.9075 0.9075 0.9076
3508.000000 0.9076 0.9076 0.9076 0.9076 0.9076
3513.000000 0.9076 0.9076 0.9076 0.9076 0.9076
3518.000000 0.9076 0.9076 0.9076 0.9076 0.9076
3523.000000 0.9076 0.9076 0.9076 0.9076 0.9075
3528.000000 0.9074 0.9073 0.9072 0.9071 0.9070
3533.000000 0.9069 0.9068 0.9067 0.9067 0.9066
3538.000000 0.9065 0.9064 0.9063 0.9063 0.9061
3543.000000 0.9060 0.9058 0.9057 0.9056 0.9054
3548.000000 0.9053 0.9051 0.9050 0.9049 0.9047
3553.000000 0.9046 0.9045 0.9043 0.9042 0.9040
3558.000000 0.9039 0.9038 0.9036 0.9035 0.9033
3563.000000 0.9032 0.9031 0.9029 0.9028 0.9026
3568.000000 0.9025 0.9023 0.9022 0.9020 0.9018
3573.000000 0.9016 0.9014 0.9013 0.9011 0.9009
3578.000000 0.9006 0.9004 0.9002 0.9000 0.8998
3583.000000 0.8996 0.8994 0.8992 0.8990 0.8988
3588.000000 0.8986 0.8984 0.8982 0.8980 0.8978
3593.000000 0.8976 0.8975 0.8973 0.8971 0.8969
3598.000000 0.8967 0.8965 0.8963 0.8961 0.8959
3603.000000 0.8957 0.8955 0.8953 0.8951 0.8949
3608.000000 0.8947 0.8945 0.8944 0.8942 0.8941
3613.000000 0.8939 0.8939 0.8938 0.8937 0.8936
3618.000000 0.8935 0.8934 0.8934 0.8933 0.8932
3623.000000 0.8931 0.8930 0.8929 0.8928 0.8927
3628.000000 0.8926 0.8925 0.8924 0.8924 0.8923
3633.000000 0.8922 0.8921 0.8920 0.8919 0.8918
3638.000000 0.8917 0.8917 0.8916 0.8915 0.8914
3643.000000 0.8913 0.8913 0.8912 0.8911 0.8910
3648.000000 0.8910 0.8909 0.8908 0.8908 0.8907
3653.000000 0.8907 0.8906 0.8905 0.8905 0.8904
3658.000000 0.8904 0.8903 0.8903 0.8902 0.8902
3663.000000 0.8901 0.8900 0.8900 0.8899 0.8899
3668.000000 0.8898 0.8898 0.8897 0.8897 0.8896
3673.000000 0.8895 0.8895 0.8894 0.8894 0.8893
3678.000000 0.8893 0.8892 0.8892 0.8891 0.8890
3683.000000 0.8890 0.8889 0.8889 0.8888 0.8888
3688.000000 0.8887 0.8887 0.8886 0.8885 0.8885
3693.000000 0.8885 0.8885 0.8885 0.8885 0.8885
3698.000000 0.8885 0.8886 0.8886 0.8886 0.8886
3703.000000 0.8886 0.8886 0.8886 0.8886 0.8886
3708.000000 0.8886 0.8886 0.8887 0.8887 0.8887
3713.000000 0.8887 0.8887 0.8887 0.8887 0.8887
3718.000000 0.8887 0.8887 0.8887 0.8888 0.8888
3723.000000 0.8888 0.8888 0.8888 0.8888 0.8888
3728.000000 0.8888 0.8888 0.8888 0.8888 0.8889
3733.000000 0.8889 0.8889 0.8889 0.8889 0.8890
3738.000000 0.8890 0.8890 0.8890 0.8890 0.8890
3743.000000 0.8890 0.8890 0.8890 0.8890 0.8890
3748.000000 0.8890 0.8890 0.8890 0.8890 0.8890
3753.000000 0.8890 0.8889 0.8888 0.8888 0.8887
3758.000000 0.8886 0.8885 0.8884 0.8883 0.8882
3763.000000 0.8881 0.8880 0.8879 0.8878 0.8876
3768.000000 0.8875 0.8874 0.8873 0.8872 0.8871
3773.000000 0.8870 0.8869 0.8868 0.8867 0.8866
3778.000000 0.8865 0.8864 0.8863 0.8862 0.8861
3783.000000 0.8860 0.8859 0.8858 0.8857 0.8856
3788.000000 0.8855 0.8854 0.8853 0.8852 0.8851
3793.000000 0.8850 0.8849 0.8848 0.8847 0.8846
3798.000000 0.8845 0.8844 0.8843 0.8842 0.8841
3803.000000 0.8840 0.8839 0.8838 0.8836 0.8835
3808.000000 0.8834 0.8832 0.8831 0.8829 0.8828
3813.000000 0.8826 0.8825 0.8823 0.8822 0.8820
3818.000000 0.8818 0.8817 0.8815 0.8813 0.8812
3823.000000 0.8810 0.8808 0.8807 0.8805 0.8804
3828.000000 0.8802 0.8801 0.8799 0.8798 0.8796
3833.000000 0.8795 0.8793 0.8792 0.8790 0.8788
3838.000000 0.8787 0.8785 0.8784 0.8782 0.8781
3843.000000 0.8779 0.8777 0.8775 0.8774 0.8772
3848.000000 0.8771 0.8769 0.8768 0.8766 0.8765
3853.000000 0.8763 0.8762 0.8760 0.8759 0.8757
3858.000000 0.8756 0.8754 0.8753 0.8751 0.8749
3863.000000 0.8748 0.8746 0.8745 0.8743 0.8742
3868.000000 0.8740 0.8739 0.8737 0.8736 0.8734
3873.000000 0.8733 0.8731 0.8730 0.8728 0.8727
3878.000000 0.8725 0.8724 0.8722 0.8721 0.8719
3883.000000 0.8718 0.8716 0.8715 0.8714 0.8712
3888.000000 0.8711 0.8709 0.8708 0.8706 0.8705
3893.000000 0.8703 0.8702 0.8700 0.8698 0.8697
3898.000000 0.8695 0.8693 0.8692 0.8690 0.8689
3903.000000 0.8687 0.8686 0.8684 0.8683 0.8681
3908.000000 0.8680 0.8678 0.8677 0.8676 0.8674
3913.000000 0.8672 0.8671 0.8669 0.8667 0.8665
3918.000000 0.8663 0.8662 0.8660 0.8658 0.8656
3923.000000 0.8654 0.8652 0.8650 0.8648 0.8646
3928.000000 0.8644 0.8642 0.8640 0.8638 0.8636
3933.000000 0.8634 0.8632 0.8630 0.8628 0.8627
3938.000000 0.8624 0.8622 0.8620 0.8618 0.8616
3943.000000 0.8614 0.8612 0.8610 0.8608 0.8606
3948.000000 0.8604 0.8602 0.8600 0.8599 0.8597
3953.000000 0.8595 0.8593 0.8591 0.8589 0.8587
3958.000000 0.8585 0.8583 0.8581 0.8579 0.8577
3963.000000 0.8576 0.8575 0.8573 0.8572 0.8570
3968.000000 0.8569 0.8567 0.8566 0.8564 0.8563
3973.000000 0.8561 0.8559 0.8558 0.8556 0.8555
3978.000000 0.8554 0.8552 0.8551 0.8549 0.8548
3983.000000 0.8546 0.8545 0.8543 0.8541 0.8540
3988.000000 0.8538 0.8537 0.8536 0.8534 0.8533
3993.000000 0.8531 0.8530 0.8529 0.8527 0.8526
3998.000000 0.8524 0.8523 0.8522
##END=
