##TITLE=SODIUM COBALTINITRITE
$$ A.R.
##JCAMP-DX=4.24
##DATA TYPE=INFRARED SPECTRUM
##CLASS=COBLENTZ
##ORIGIN=MELLON INSTITUTE
##OWNER=COBLENTZ SOCIETY
Collection (C) 2018 copyright by the U.S. Secretary of Commerce
on behalf of the United States of America. All rights reserved.
##DATE=Not specified, most likely prior to 1970
##MOLFORM=Na2 Co ( N O2)6
##SOURCE REFERENCE=COBLENTZ NO. 537
##$NIST ID=B6000537
##$NIST SOURCE=COBLENTZ
##$NIST IMAGE=cob537
##SPECTROMETER/DATA SYSTEM=Not specified, most likely a prism, grating, or hybrid spectrometer.
##STATE=SOLID (NUJOL MULL)
##PATH LENGTH=
$$SPECTRAL CONTAMINATION DUE TO OIL AROUND 2900, 1450, 1380 CM^-^1
##SAMPLING PROCEDURE=TRANSMISSION
##RESOLUTION=4
##DATA PROCESSING=DIGITIZED BY NIST FROM HARD COPY
##XUNITS=MICROMETERS
##YUNITS=TRANSMITTANCE
##XFACTOR=1.000000
##YFACTOR=1
##DELTAX=000.006651
##FIRSTX=2.029
##LASTX=16.0017
##FIRSTY=0.344
##MAXX=16.0017
##MINX=2.029
##MAXY=0.984
##MINY=0.011
##NPOINTS=2102
##XYDATA=(X++(Y..Y))
2.029000 0.3440 0.3460 0.3460 0.3460 0.3470
2.062269 0.3470 0.3490 0.3510 0.3520 0.3540
2.096000 0.3570 0.3610 0.3620 0.3660 0.3670
2.129269 0.3710 0.3720 0.3740 0.3760 0.3790
2.162000 0.3810 0.3840 0.3860 0.3890 0.3910
2.195269 0.3910 0.3920 0.3970 0.3990 0.4010
2.229000 0.4010 0.4040 0.4090 0.4110 0.4130
2.262269 0.4160 0.4190 0.4210 0.4230 0.4240
2.295000 0.4260 0.4280 0.4290 0.4310 0.4330
2.328269 0.4340 0.4390 0.4430 0.4430 0.4440
2.362000 0.4460 0.4460 0.4480 0.4480 0.4510
2.395269 0.4510 0.4540 0.4560 0.4580 0.4590
2.428000 0.4630 0.4660 0.4680 0.4710 0.4740
2.461269 0.4780 0.4810 0.4830 0.4840 0.4860
2.495000 0.4860 0.4880 0.4890 0.4910 0.4940
2.528269 0.4940 0.4980 0.5000 0.5000 0.5030
2.561000 0.5050 0.5100 0.5110 0.5150 0.5180
2.594269 0.5200 0.5210 0.5230 0.5250 0.5260
2.628000 0.5260 0.5280 0.5280 0.5300 0.5300
2.661269 0.5310 0.5330 0.5360 0.5360 0.5380
2.694000 0.5360 0.5360 0.5350 0.5350 0.5350
2.727269 0.5330 0.5330 0.5330 0.5310 0.5310
2.761000 0.5310 0.5310 0.5310 0.5300 0.5300
2.794269 0.5300 0.5280 0.5250 0.5210 0.5210
2.827000 0.5180 0.5150 0.5100 0.5060 0.5010
2.860269 0.5000 0.4980 0.4930 0.4890 0.4890
2.894000 0.4880 0.4860 0.4840 0.4840 0.4830
2.927269 0.4830 0.4840 0.4840 0.4860 0.4860
2.960000 0.4880 0.4890 0.4910 0.4930 0.4960
2.993269 0.5010 0.5010 0.5030 0.5030 0.5050
3.027000 0.5060 0.5060 0.5110 0.5130 0.5150
3.060269 0.5180 0.5210 0.5250 0.5280 0.5300
3.093000 0.5310 0.5360 0.5400 0.5410 0.5430
3.126269 0.5450 0.5460 0.5480 0.5500 0.5530
3.160000 0.5550 0.5610 0.5650 0.5700 0.5730
3.193269 0.5750 0.5780 0.5810 0.5850 0.5850
3.226000 0.5860 0.5860 0.5860 0.5860 0.5860
3.259269 0.5850 0.5810 0.5780 0.5710 0.5560
3.293000 0.5400 0.5150 0.4890 0.4460 0.3810
3.326269 0.3210 0.2500 0.2400 0.2290 0.1800
3.359000 0.1320 0.1230 0.1200 0.1230 0.1380
3.392269 0.1570 0.1850 0.2000 0.2250 0.2390
3.426000 0.2450 0.2450 0.2400 0.2350 0.2320
3.459269 0.2340 0.3020 0.3970 0.4740 0.5250
3.492000 0.5930 0.6270 0.6930 0.7050 0.7190
3.525269 0.7290 0.7370 0.7420 0.7590 0.7620
3.559000 0.7640 0.7640 0.7650 0.7640 0.7640
3.592269 0.7590 0.7550 0.7520 0.7490 0.7450
3.625000 0.7390 0.7390 0.7490 0.7620 0.7650
3.658269 0.7700 0.7740 0.7750 0.7770 0.7770
3.692000 0.7770 0.7770 0.7770 0.7720 0.7670
3.725269 0.7590 0.7500 0.7490 0.7450 0.7270
3.758000 0.7270 0.7450 0.7640 0.7700 0.7770
3.791269 0.7800 0.7840 0.7870 0.7890 0.7970
3.825000 0.7970 0.7990 0.8020 0.8040 0.8060
3.858269 0.8110 0.8120 0.8160 0.8170 0.8190
3.891000 0.8210 0.8220 0.8240 0.8260 0.8270
3.924269 0.8290 0.8310 0.8320 0.8320 0.8340
3.958000 0.8360 0.8360 0.8370 0.8370 0.8390
3.991269 0.8410 0.8420 0.8420 0.8420 0.8440
4.024000 0.8440 0.8460 0.8470 0.8470 0.8470
4.057269 0.8470 0.8490 0.8490 0.8490 0.8490
4.091000 0.8510 0.8510 0.8510 0.8510 0.8510
4.124269 0.8520 0.8520 0.8520 0.8520 0.8520
4.157000 0.8520 0.8520 0.8510 0.8510 0.8510
4.190269 0.8490 0.8470 0.8460 0.8440 0.8440
4.224000 0.8440 0.8420 0.8420 0.8420 0.8410
4.257269 0.8390 0.8390 0.8370 0.8340 0.8320
4.290000 0.8320 0.8310 0.8310 0.8290 0.8290
4.323269 0.8290 0.8320 0.8340 0.8370 0.8390
4.357000 0.8420 0.8460 0.8470 0.8510 0.8510
4.390269 0.8520 0.8520 0.8520 0.8520 0.8520
4.423000 0.8520 0.8520 0.8520 0.8540 0.8540
4.456269 0.8560 0.8570 0.8570 0.8570 0.8570
4.490000 0.8590 0.8590 0.8590 0.8590 0.8590
4.523269 0.8590 0.8590 0.8610 0.8610 0.8610
4.556000 0.8610 0.8610 0.8610 0.8620 0.8620
4.589269 0.8620 0.8640 0.8660 0.8660 0.8660
4.623000 0.8660 0.8660 0.8670 0.8670 0.8670
4.656269 0.8690 0.8710 0.8710 0.8710 0.8720
4.689000 0.8720 0.8740 0.8740 0.8760 0.8760
4.722269 0.8770 0.8770 0.8790 0.8790 0.8790
4.756000 0.8790 0.8790 0.8790 0.8810 0.8810
4.789269 0.8820 0.8820 0.8820 0.8860 0.8860
4.822000 0.8860 0.8890 0.8890 0.8910 0.8910
4.855269 0.8920 0.8920 0.8940 0.8940 0.8940
4.889000 0.8940 0.8960 0.8960 0.8960 0.8990
4.922269 0.8970 0.8970 0.8990 0.8990 0.8990
4.955000 0.8990 0.9010 0.9010 0.9010 0.9030
4.988269 0.9030 0.9030 0.9030 0.9040 0.9040
5.022000 0.9040 0.9040 0.9060 0.9060 0.9060
5.055269 0.9060 0.9060 0.9060 0.9040 0.9080
5.088000 0.9090 0.9090 0.9110 0.9110 0.9140
5.121269 0.9140 0.9140 0.9160 0.9160 0.9160
5.155000 0.9160 0.9180 0.9190 0.9190 0.9190
5.188269 0.9210 0.9210 0.9210 0.9230 0.9230
5.221000 0.9230 0.9230 0.9240 0.9240 0.9240
5.254269 0.9240 0.9240 0.9260 0.9260 0.9260
5.288000 0.9280 0.9290 0.9290 0.9290 0.9290
5.321269 0.9310 0.9310 0.9330 0.9330 0.9330
5.354000 0.9330 0.9340 0.9340 0.9340 0.9340
5.387269 0.9340 0.9360 0.9360 0.9380 0.9380
5.421000 0.9380 0.9380 0.9390 0.9390 0.9410
5.454269 0.9430 0.9430 0.9430 0.9430 0.9430
5.487000 0.9440 0.9440 0.9440 0.9460 0.9460
5.520269 0.9460 0.9480 0.9480 0.9490 0.9490
5.554000 0.9490 0.9510 0.9510 0.9510 0.9510
5.587269 0.9510 0.9530 0.9530 0.9540 0.9540
5.620000 0.9560 0.9580 0.9590 0.9590 0.9590
5.653269 0.9590 0.9610 0.9630 0.9640 0.9660
5.687000 0.9680 0.9680 0.9690 0.9690 0.9690
5.720269 0.9690 0.9710 0.9710 0.9710 0.9730
5.753000 0.9730 0.9740 0.9740 0.9760 0.9760
5.786269 0.9760 0.9760 0.9740 0.9740 0.9730
5.820000 0.9710 0.9710 0.9690 0.9680 0.9640
5.853269 0.9610 0.9560 0.9510 0.9480 0.9440
5.886000 0.9430 0.9430 0.9430 0.9430 0.9410
5.919269 0.9390 0.9380 0.9380 0.9380 0.9360
5.953000 0.9330 0.9310 0.9290 0.9280 0.9240
5.986269 0.9230 0.9210 0.9210 0.9190 0.9180
6.019000 0.9160 0.9160 0.9110 0.9090 0.9040
6.052269 0.8990 0.8890 0.8860 0.8840 0.8840
6.086000 0.8860 0.8870 0.8910 0.8940 0.8970
6.119269 0.9010 0.9090 0.9130 0.9140 0.9140
6.152000 0.9140 0.9140 0.9130 0.9110 0.9040
6.185269 0.9030 0.8920 0.8890 0.8840 0.8840
6.219000 0.8810 0.8770 0.8690 0.8590 0.8540
6.252269 0.8470 0.8270 0.8190 0.8110 0.8010
6.285000 0.7970 0.7840 0.7790 0.7720 0.7670
6.318269 0.7620 0.7590 0.7590 0.7570 0.7590
6.352000 0.7590 0.7600 0.7620 0.7620 0.7620
6.385269 0.7640 0.7640 0.7650 0.7690 0.7700
6.418000 0.7720 0.7740 0.7750 0.7750 0.7770
6.451269 0.7800 0.7820 0.7820 0.7820 0.7800
6.485000 0.7800 0.7800 0.7790 0.7790 0.7790
6.518269 0.7800 0.7790 0.7790 0.7770 0.7750
6.551000 0.7740 0.7720 0.7670 0.7640 0.7640
6.584269 0.7590 0.7540 0.7490 0.7450 0.7400
6.618000 0.7340 0.7250 0.7040 0.6850 0.6650
6.651269 0.6500 0.6350 0.6080 0.5780 0.5260
6.684000 0.5080 0.4860 0.4630 0.4180 0.4040
6.717269 0.3790 0.3610 0.3140 0.2870 0.2650
6.751000 0.2540 0.2400 0.2090 0.1980 0.1820
6.784269 0.1720 0.1570 0.1270 0.1180 0.1080
6.817000 0.1020 0.1000 0.0950 0.0880 0.0830
6.850269 0.0730 0.0660 0.0630 0.0610 0.0560
6.884000 0.0550 0.0530 0.0530 0.0530 0.0510
6.917269 0.0500 0.0500 0.0480 0.0460 0.0450
6.950000 0.0430 0.0400 0.0350 0.0310 0.0280
6.983269 0.0260 0.0230 0.0230 0.0210 0.0210
7.017000 0.0230 0.0360 0.0500 0.0760 0.1000
7.050269 0.1180 0.1400 0.1580 0.1670 0.1920
7.083000 0.2100 0.2350 0.2770 0.2970 0.3160
7.116269 0.3320 0.3420 0.3520 0.3570 0.3770
7.150000 0.3890 0.4030 0.4090 0.4160 0.4190
7.183269 0.4190 0.4190 0.4190 0.4190 0.4190
7.216000 0.4210 0.4260 0.4330 0.4340 0.4390
7.249269 0.4460 0.4530 0.4590 0.4610 0.4610
7.283000 0.4580 0.4510 0.4440 0.4190 0.3970
7.316269 0.3720 0.3020 0.2750 0.2490 0.2020
7.349000 0.1650 0.1280 0.1080 0.0860 0.0680
7.382269 0.0480 0.0450 0.0430 0.0380 0.0330
7.416000 0.0330 0.0310 0.0280 0.0250 0.0210
7.449269 0.0210 0.0180 0.0160 0.0150 0.0150
7.482000 0.0130 0.0130 0.0130 0.0110 0.0110
7.515269 0.0130 0.0350 0.0410 0.0500 0.0710
7.549000 0.0880 0.1150 0.1300 0.1470 0.1700
7.582269 0.2000 0.2270 0.2690 0.3110 0.3290
7.615000 0.3420 0.3540 0.3720 0.3790 0.3940
7.648269 0.4030 0.4180 0.4310 0.4540 0.4790
7.682000 0.4930 0.5210 0.5380 0.5450 0.5550
7.715269 0.5630 0.5710 0.5800 0.5850 0.5910
7.748000 0.5980 0.6050 0.6170 0.6220 0.6250
7.781269 0.6300 0.6330 0.6370 0.6400 0.6450
7.815000 0.6480 0.6520 0.6530 0.6620 0.6650
7.848269 0.6700 0.6750 0.6800 0.6850 0.6880
7.881000 0.6930 0.6980 0.7000 0.7040 0.7070
7.914269 0.7100 0.7140 0.7190 0.7220 0.7250
7.948000 0.7290 0.7320 0.7350 0.7370 0.7400
7.981269 0.7440 0.7470 0.7540 0.7550 0.7590
8.015000 0.7600 0.7620 0.7640 0.7650 0.7670
8.048269 0.7690 0.7700 0.7720 0.7740 0.7770
8.081000 0.7800 0.7870 0.7890 0.7920 0.7990
8.114269 0.7990 0.8010 0.8020 0.8060 0.8090
8.148000 0.8120 0.8140 0.8160 0.8170 0.8190
8.181269 0.8190 0.8210 0.8220 0.8240 0.8270
8.214000 0.8290 0.8320 0.8340 0.8340 0.8360
8.247269 0.8360 0.8370 0.8390 0.8390 0.8410
8.281000 0.8420 0.8440 0.8460 0.8470 0.8490
8.314269 0.8510 0.8510 0.8520 0.8540 0.8540
8.347000 0.8540 0.8560 0.8570 0.8590 0.8610
8.380269 0.8610 0.8620 0.8620 0.8640 0.8670
8.414000 0.8690 0.8710 0.8740 0.8760 0.8760
8.447269 0.8770 0.8790 0.8790 0.8790 0.8810
8.480000 0.8820 0.8820 0.8840 0.8840 0.8840
8.513269 0.8840 0.8840 0.8840 0.8840 0.8820
8.547000 0.8820 0.8810 0.8810 0.8820 0.8820
8.580269 0.8820 0.8820 0.8840 0.8860 0.8860
8.613000 0.8860 0.8870 0.8870 0.8870 0.8870
8.646269 0.8870 0.8860 0.8870 0.8890 0.8890
8.680000 0.8910 0.8910 0.8910 0.8910 0.8910
8.713269 0.8910 0.8910 0.8910 0.8920 0.8920
8.746000 0.8940 0.8940 0.8940 0.8940 0.8940
8.779269 0.8940 0.8940 0.8940 0.8940 0.8940
8.813000 0.8920 0.8920 0.8910 0.8910 0.8910
8.846269 0.8910 0.8910 0.8910 0.8910 0.8910
8.879000 0.8910 0.8910 0.8910 0.8910 0.8910
8.912269 0.8920 0.8920 0.8920 0.8940 0.8940
8.946000 0.8940 0.8960 0.8960 0.8960 0.8960
8.979269 0.8960 0.8960 0.8960 0.8970 0.8970
9.012000 0.8990 0.8990 0.9010 0.9010 0.9010
9.045269 0.9010 0.9010 0.9010 0.9010 0.9010
9.079000 0.9010 0.9010 0.9030 0.9030 0.9040
9.112269 0.9040 0.9060 0.9060 0.9090 0.9090
9.145000 0.9090 0.9090 0.9090 0.9090 0.9110
9.178269 0.9110 0.9110 0.9110 0.9110 0.9130
9.212000 0.9130 0.9140 0.9140 0.9140 0.9160
9.245269 0.9160 0.9180 0.9180 0.9190 0.9190
9.278000 0.9190 0.9210 0.9210 0.9230 0.9230
9.311269 0.9240 0.9240 0.9240 0.9240 0.9260
9.345000 0.9280 0.9280 0.9280 0.9290 0.9290
9.378269 0.9290 0.9310 0.9290 0.9290 0.9310
9.411000 0.9310 0.9330 0.9330 0.9330 0.9330
9.444269 0.9330 0.9330 0.9330 0.9330 0.9330
9.478000 0.9310 0.9310 0.9310 0.9330 0.9310
9.511269 0.9310 0.9310 0.9310 0.9330 0.9330
9.544000 0.9330 0.9310 0.9310 0.9310 0.9310
9.577269 0.9310 0.9310 0.9310 0.9310 0.9330
9.611000 0.9330 0.9330 0.9330 0.9340 0.9340
9.644269 0.9360 0.9360 0.9360 0.9360 0.9360
9.677000 0.9380 0.9380 0.9380 0.9360 0.9360
9.710269 0.9340 0.9330 0.9330 0.9310 0.9330
9.744000 0.9330 0.9340 0.9340 0.9340 0.9360
9.777269 0.9360 0.9380 0.9380 0.9390 0.9380
9.810000 0.9380 0.9380 0.9360 0.9360 0.9360
9.843269 0.9360 0.9360 0.9360 0.9360 0.9380
9.877000 0.9380 0.9380 0.9380 0.9380 0.9390
9.910269 0.9390 0.9390 0.9410 0.9410 0.9410
9.943000 0.9430 0.9430 0.9430 0.9440 0.9440
9.976269 0.9440 0.9460 0.9460 0.9460 0.9460
10.010000 0.9460 0.9460 0.9460 0.9460 0.9480
10.043269 0.9480 0.9480 0.9490 0.9490 0.9490
10.076000 0.9510 0.9510 0.9510 0.9530 0.9530
10.109269 0.9530 0.9530 0.9530 0.9530 0.9530
10.143000 0.9530 0.9540 0.9540 0.9540 0.9540
10.176269 0.9540 0.9540 0.9540 0.9530 0.9530
10.209000 0.9530 0.9530 0.9530 0.9530 0.9540
10.242269 0.9540 0.9540 0.9540 0.9540 0.9530
10.276000 0.9530 0.9530 0.9530 0.9530 0.9510
10.309269 0.9530 0.9530 0.9510 0.9510 0.9510
10.342000 0.9510 0.9530 0.9530 0.9530 0.9530
10.375269 0.9530 0.9530 0.9540 0.9540 0.9540
10.409000 0.9540 0.9560 0.9560 0.9560 0.9560
10.442269 0.9560 0.9560 0.9560 0.9560 0.9580
10.475000 0.9580 0.9560 0.9580 0.9580 0.9580
10.508269 0.9590 0.9590 0.9580 0.9560 0.9560
10.542000 0.9560 0.9560 0.9560 0.9580 0.9580
10.575269 0.9580 0.9580 0.9560 0.9560 0.9560
10.608000 0.9560 0.9560 0.9560 0.9560 0.9580
10.641269 0.9580 0.9580 0.9580 0.9590 0.9590
10.675000 0.9590 0.9590 0.9580 0.9580 0.9560
10.708269 0.9560 0.9560 0.9560 0.9540 0.9540
10.741000 0.9540 0.9540 0.9560 0.9560 0.9560
10.774269 0.9560 0.9560 0.9560 0.9540 0.9530
10.808000 0.9530 0.9530 0.9530 0.9530 0.9530
10.841269 0.9530 0.9530 0.9530 0.9530 0.9530
10.874000 0.9540 0.9560 0.9580 0.9590 0.9590
10.907269 0.9590 0.9590 0.9590 0.9590 0.9610
10.941000 0.9610 0.9610 0.9610 0.9610 0.9610
10.974269 0.9610 0.9610 0.9610 0.9590 0.9610
11.007000 0.9610 0.9610 0.9610 0.9610 0.9610
11.040269 0.9610 0.9610 0.9610 0.9610 0.9630
11.074000 0.9630 0.9630 0.9640 0.9640 0.9640
11.107269 0.9640 0.9640 0.9640 0.9640 0.9660
11.140000 0.9660 0.9680 0.9680 0.9680 0.9690
11.173269 0.9690 0.9690 0.9690 0.9710 0.9710
11.207000 0.9710 0.9710 0.9710 0.9710 0.9710
11.240269 0.9710 0.9710 0.9710 0.9730 0.9730
11.273000 0.9730 0.9730 0.9710 0.9710 0.9730
11.306269 0.9730 0.9740 0.9740 0.9760 0.9760
11.340000 0.9760 0.9760 0.9780 0.9760 0.9760
11.373269 0.9760 0.9760 0.9740 0.9760 0.9780
11.406000 0.9780 0.9780 0.9790 0.9810 0.9840
11.439269 0.9840 0.9840 0.9840 0.9840 0.9840
11.473000 0.9840 0.9840 0.9840 0.9840 0.9840
11.506269 0.9840 0.9840 0.9840 0.9840 0.9840
11.539000 0.9830 0.9840 0.9840 0.9830 0.9830
11.572269 0.9810 0.9810 0.9790 0.9790 0.9790
11.606000 0.9780 0.9760 0.9740 0.9730 0.9690
11.639269 0.9660 0.9610 0.9540 0.9480 0.9410
11.672000 0.9280 0.9110 0.9040 0.8370 0.8140
11.705269 0.7940 0.7420 0.6900 0.6020 0.5480
11.739000 0.4930 0.3970 0.3610 0.3260 0.2940
11.772269 0.2620 0.2470 0.2300 0.2170 0.2090
11.805000 0.2040 0.2050 0.2240 0.2420 0.2790
11.838269 0.2920 0.3040 0.3810 0.4480 0.4840
11.872000 0.5150 0.5730 0.6220 0.6650 0.6850
11.905269 0.6980 0.7120 0.7250 0.7370 0.7690
11.938000 0.7820 0.7890 0.7990 0.8060 0.8160
11.971269 0.8190 0.8240 0.8320 0.8340 0.8390
12.005000 0.8490 0.8540 0.8560 0.8590 0.8620
12.038269 0.8660 0.8690 0.8720 0.8740 0.8770
12.071000 0.8810 0.8840 0.8860 0.8870 0.8910
12.104269 0.8920 0.8970 0.8990 0.9030 0.9040
12.138000 0.9040 0.9090 0.9110 0.9110 0.9110
12.171269 0.9130 0.9130 0.9140 0.9140 0.9140
12.204000 0.9140 0.9160 0.9180 0.9180 0.9190
12.237269 0.9210 0.9210 0.9210 0.9210 0.9210
12.271000 0.9210 0.9210 0.9210 0.9210 0.9210
12.304269 0.9210 0.9210 0.9210 0.9210 0.9210
12.337000 0.9210 0.9210 0.9210 0.9210 0.9210
12.370269 0.9210 0.9210 0.9210 0.9210 0.9210
12.404000 0.9210 0.9210 0.9210 0.9210 0.9210
12.437269 0.9210 0.9210 0.9230 0.9230 0.9210
12.470000 0.9230 0.9230 0.9240 0.9240 0.9240
12.503269 0.9240 0.9240 0.9240 0.9230 0.9230
12.537000 0.9230 0.9230 0.9210 0.9230 0.9230
12.570269 0.9240 0.9230 0.9230 0.9240 0.9240
12.603000 0.9240 0.9240 0.9240 0.9240 0.9240
12.636269 0.9240 0.9240 0.9240 0.9240 0.9240
12.670000 0.9230 0.9230 0.9230 0.9210 0.9210
12.703269 0.9210 0.9230 0.9230 0.9230 0.9230
12.736000 0.9210 0.9210 0.9190 0.9210 0.9210
12.769269 0.9210 0.9190 0.9210 0.9210 0.9210
12.803000 0.9230 0.9210 0.9210 0.9190 0.9180
12.836269 0.9180 0.9160 0.9180 0.9180 0.9190
12.869000 0.9210 0.9210 0.9190 0.9180 0.9160
12.902269 0.9140 0.9140 0.9130 0.9130 0.9130
12.936000 0.9140 0.9140 0.9140 0.9140 0.9140
12.969269 0.9140 0.9130 0.9130 0.9130 0.9130
13.002000 0.9130 0.9130 0.9130 0.9130 0.9130
13.035269 0.9140 0.9140 0.9140 0.9140 0.9140
13.069000 0.9140 0.9140 0.9130 0.9130 0.9130
13.102269 0.9130 0.9130 0.9130 0.9130 0.9130
13.135000 0.9110 0.9110 0.9110 0.9110 0.9110
13.168269 0.9110 0.9090 0.9080 0.9080 0.9060
13.202000 0.9080 0.9060 0.9060 0.9040 0.9040
13.235269 0.9030 0.9030 0.9030 0.9030 0.9030
13.268000 0.9010 0.9010 0.8990 0.8990 0.8990
13.301269 0.8990 0.8990 0.8970 0.8970 0.8970
13.335000 0.8970 0.8960 0.8940 0.8940 0.8920
13.368269 0.8920 0.8920 0.8920 0.8910 0.8890
13.401000 0.8890 0.8890 0.8890 0.8870 0.8860
13.434269 0.8860 0.8860 0.8840 0.8840 0.8840
13.468000 0.8840 0.8840 0.8820 0.8820 0.8810
13.501269 0.8810 0.8790 0.8770 0.8770 0.8770
13.534000 0.8760 0.8760 0.8740 0.8740 0.8740
13.567269 0.8720 0.8720 0.8710 0.8710 0.8710
13.601000 0.8690 0.8690 0.8670 0.8670 0.8660
13.634269 0.8660 0.8660 0.8640 0.8620 0.8620
13.667000 0.8610 0.8590 0.8590 0.8560 0.8540
13.700269 0.8520 0.8510 0.8490 0.8460 0.8440
13.734000 0.8440 0.8410 0.8390 0.8360 0.8340
13.767269 0.8340 0.8320 0.8320 0.8310 0.8290
13.800000 0.8270 0.8270 0.8260 0.8240 0.8240
13.833269 0.8220 0.8220 0.8220 0.8210 0.8210
13.867000 0.8210 0.8210 0.8220 0.8220 0.8220
13.900269 0.8210 0.8210 0.8210 0.8210 0.8210
13.933000 0.8210 0.8210 0.8210 0.8210 0.8210
13.966269 0.8210 0.8190 0.8210 0.8190 0.8190
14.000000 0.8170 0.8190 0.8170 0.8170 0.8160
14.033269 0.8160 0.8140 0.8140 0.8140 0.8140
14.067000 0.8120 0.8120 0.8120 0.8110 0.8090
14.100269 0.8070 0.8060 0.8060 0.8060 0.8040
14.133000 0.8020 0.8010 0.8010 0.7990 0.7990
14.166269 0.7950 0.7940 0.7920 0.7920 0.7900
14.200000 0.7870 0.7850 0.7840 0.7840 0.7820
14.233269 0.7820 0.7800 0.7790 0.7770 0.7750
14.266000 0.7740 0.7720 0.7700 0.7690 0.7650
14.299269 0.7640 0.7620 0.7600 0.7600 0.7570
14.333000 0.7550 0.7540 0.7540 0.7520 0.7520
14.366269 0.7500 0.7490 0.7470 0.7450 0.7440
14.399000 0.7420 0.7400 0.7400 0.7390 0.7390
14.432269 0.7370 0.7350 0.7340 0.7340 0.7320
14.466000 0.7320 0.7320 0.7290 0.7270 0.7250
14.499269 0.7240 0.7220 0.7200 0.7190 0.7170
14.532000 0.7140 0.7120 0.7100 0.7090 0.7070
14.565269 0.7050 0.7040 0.7040 0.7040 0.7040
14.599000 0.7020 0.7000 0.6970 0.6970 0.6950
14.632269 0.6950 0.6950 0.6930 0.6930 0.6930
14.665000 0.6930 0.6930 0.6930 0.6920 0.6900
14.698269 0.6900 0.6880 0.6880 0.6870 0.6850
14.732000 0.6830 0.6820 0.6780 0.6750 0.6720
14.765269 0.6680 0.6670 0.6630 0.6620 0.6580
14.798000 0.6550 0.6520 0.6500 0.6480 0.6480
14.831269 0.6480 0.6470 0.6450 0.6450 0.6420
14.865000 0.6400 0.6400 0.6380 0.6380 0.6370
14.898269 0.6350 0.6350 0.6330 0.6330 0.6330
14.931000 0.6300 0.6300 0.6280 0.6270 0.6250
14.964269 0.6230 0.6200 0.6180 0.6170 0.6150
14.998000 0.6150 0.6130 0.6130 0.6130 0.6130
15.031269 0.6120 0.6120 0.6080 0.6050 0.6050
15.064000 0.6050 0.6030 0.6030 0.6030 0.6020
15.097269 0.6000 0.5960 0.5950 0.5930 0.5930
15.131000 0.5910 0.5910 0.5910 0.5900 0.5860
15.164269 0.5850 0.5830 0.5810 0.5800 0.5760
15.197000 0.5750 0.5730 0.5710 0.5700 0.5700
15.230269 0.5700 0.5680 0.5680 0.5660 0.5650
15.264000 0.5630 0.5630 0.5610 0.5610 0.5600
15.297269 0.5600 0.5600 0.5600 0.5600 0.5580
15.330000 0.5580 0.5560 0.5550 0.5550 0.5530
15.363269 0.5510 0.5510 0.5500 0.5500 0.5480
15.397000 0.5460 0.5450 0.5430 0.5410 0.5410
15.430269 0.5400 0.5400 0.5400 0.5380 0.5380
15.463000 0.5380 0.5360 0.5350 0.5330 0.5330
15.496269 0.5330 0.5310 0.5310 0.5300 0.5300
15.530000 0.5300 0.5280 0.5280 0.5260 0.5250
15.563269 0.5250 0.5250 0.5250 0.5230 0.5230
15.596000 0.5230 0.5230 0.5210 0.5230 0.5230
15.629269 0.5230 0.5210 0.5230 0.5210 0.5210
15.663000 0.5210 0.5200 0.5200 0.5180 0.5180
15.696269 0.5180 0.5180 0.5180 0.5160 0.5160
15.729000 0.5160 0.5160 0.5150 0.5150 0.5150
15.762269 0.5150 0.5130 0.5130 0.5130 0.5130
15.796000 0.5130 0.5130 0.5110 0.5130 0.5130
15.829269 0.5130 0.5130 0.5130 0.5130 0.5130
15.862000 0.5130 0.5130 0.5130 0.5130 0.5110
15.895269 0.5110 0.5110 0.5110 0.5110 0.5110
15.929000 0.5110 0.5110 0.5110 0.5130 0.5130
15.962269 0.5130 0.5130 0.5130 0.5130 0.5130
15.995000 0.6780 0.5130
##END=
