##TITLE=DEXAMETHASONE, DISODIUM PHOSPHATE
##JCAMP-DX=4.24
$$ By DXEDIT 1.05 (RS McDonald)
##DATA TYPE=INFRARED SPECTRUM
##CLASS=COBLENTZ III
##OWNER=COBLENTZ SOC.
Collection (C) 2018 copyright by the U.S. Secretary of Commerce
on behalf of the United States of America. All rights reserved.
##DATE=1962/12/09
##NAMES=PREGNA-1,4-DIENE-3,20-DIONE,9Alpha-FLUORO-11Beta,17,21-TRIHYDROXY-16Alpha-METHYL-,DISODIUM PHOSPHATE
##MOLFORM=C22 H28 F Na2 O8 P
##SOURCE REFERENCE=COBLENTZ NO. 05033
##$NIST ID=B6005033
##$NIST SOURCE=COBLENTZ
##$NIST IMAGE=cob5033
##SPECTROMETER/DATA SYSTEM=PERKIN-ELMER 21 (GRATING)
##INSTRUMENT PARAMETERS=FILTER AT ABOUT 10 MICRONS
##STATE=SOLID (1 mg / 250 mg KBr DISC)
##SAMPLING PROCEDURE=TRANSMISSION
##RESOLUTION=2
##DATA PROCESSING=DIGITIZED BY COBLENTZ SOCIETY (BATCH I) FROM HARD COPY
##XUNITS=1/CM
##YUNITS=TRANSMITTANCE
##XLABEL=Wavenumbers (cm-1)
##YLABEL=Transmittance
##XFACTOR=1
##YFACTOR=1
##DELTAX=1
##FIRSTX=4000
##LASTX=672
##FIRSTY=0.993
##MAXX=4000
##MINX=672
##MAXY=0.9936
##MINY=0.1572
##NPOINTS=3329
##XYDATA=(X++(Y..Y))
4000.000000 0.9930 0.9936 0.9936 0.9936 0.9935
3995.000000 0.9935 0.9935 0.9934 0.9934 0.9934
3990.000000 0.9933 0.9933 0.9933 0.9933 0.9933
3985.000000 0.9933 0.9933 0.9933 0.9933 0.9933
3980.000000 0.9933 0.9933 0.9933 0.9933 0.9933
3975.000000 0.9933 0.9933 0.9933 0.9933 0.9933
3970.000000 0.9933 0.9933 0.9933 0.9933 0.9933
3965.000000 0.9933 0.9933 0.9933 0.9933 0.9933
3960.000000 0.9933 0.9933 0.9933 0.9933 0.9933
3955.000000 0.9933 0.9933 0.9933 0.9933 0.9933
3950.000000 0.9933 0.9933 0.9933 0.9933 0.9933
3945.000000 0.9933 0.9933 0.9932 0.9932 0.9932
3940.000000 0.9932 0.9932 0.9932 0.9932 0.9932
3935.000000 0.9932 0.9932 0.9932 0.9932 0.9932
3930.000000 0.9931 0.9931 0.9931 0.9931 0.9931
3925.000000 0.9931 0.9931 0.9931 0.9931 0.9931
3920.000000 0.9931 0.9931 0.9930 0.9930 0.9930
3915.000000 0.9930 0.9930 0.9930 0.9928 0.9928
3910.000000 0.9928 0.9928 0.9928 0.9928 0.9928
3905.000000 0.9928 0.9928 0.9928 0.9928 0.9928
3900.000000 0.9928 0.9928 0.9928 0.9927 0.9927
3895.000000 0.9927 0.9925 0.9925 0.9925 0.9924
3890.000000 0.9923 0.9921 0.9921 0.9921 0.9920
3885.000000 0.9918 0.9918 0.9918 0.9918 0.9917
3880.000000 0.9916 0.9916 0.9915 0.9914 0.9914
3875.000000 0.9911 0.9909 0.9906 0.9904 0.9901
3870.000000 0.9899 0.9896 0.9893 0.9890 0.9887
3865.000000 0.9884 0.9881 0.9878 0.9875 0.9871
3860.000000 0.9868 0.9865 0.9862 0.9859 0.9856
3855.000000 0.9853 0.9850 0.9847 0.9844 0.9841
3850.000000 0.9839 0.9836 0.9833 0.9830 0.9827
3845.000000 0.9824 0.9821 0.9818 0.9816 0.9813
3840.000000 0.9810 0.9807 0.9804 0.9801 0.9798
3835.000000 0.9795 0.9792 0.9790 0.9787 0.9784
3830.000000 0.9781 0.9778 0.9775 0.9774 0.9773
3825.000000 0.9771 0.9770 0.9768 0.9768 0.9767
3820.000000 0.9765 0.9764 0.9763 0.9762 0.9761
3815.000000 0.9759 0.9758 0.9757 0.9756 0.9755
3810.000000 0.9753 0.9752 0.9751 0.9750 0.9749
3805.000000 0.9748 0.9747 0.9746 0.9745 0.9743
3800.000000 0.9742 0.9741 0.9740 0.9739 0.9737
3795.000000 0.9736 0.9735 0.9734 0.9733 0.9732
3790.000000 0.9731 0.9730 0.9728 0.9727 0.9725
3785.000000 0.9721 0.9720 0.9718 0.9716 0.9714
3780.000000 0.9712 0.9709 0.9707 0.9705 0.9703
3775.000000 0.9700 0.9698 0.9696 0.9693 0.9691
3770.000000 0.9689 0.9687 0.9684 0.9682 0.9680
3765.000000 0.9677 0.9675 0.9671 0.9670 0.9667
3760.000000 0.9665 0.9663 0.9660 0.9658 0.9656
3755.000000 0.9653 0.9651 0.9648 0.9645 0.9642
3750.000000 0.9638 0.9635 0.9632 0.9628 0.9625
3745.000000 0.9621 0.9618 0.9614 0.9611 0.9607
3740.000000 0.9604 0.9601 0.9597 0.9594 0.9590
3735.000000 0.9587 0.9583 0.9578 0.9575 0.9571
3730.000000 0.9568 0.9565 0.9562 0.9559 0.9555
3725.000000 0.9552 0.9548 0.9544 0.9541 0.9537
3720.000000 0.9534 0.9530 0.9525 0.9523 0.9518
3715.000000 0.9516 0.9512 0.9508 0.9505 0.9501
3710.000000 0.9497 0.9493 0.9488 0.9483 0.9478
3705.000000 0.9473 0.9468 0.9463 0.9458 0.9453
3700.000000 0.9448 0.9442 0.9437 0.9432 0.9427
3695.000000 0.9421 0.9417 0.9412 0.9406 0.9401
3690.000000 0.9396 0.9390 0.9385 0.9378 0.9373
3685.000000 0.9366 0.9360 0.9353 0.9346 0.9337
3680.000000 0.9327 0.9317 0.9307 0.9297 0.9287
3675.000000 0.9277 0.9266 0.9256 0.9246 0.9236
3670.000000 0.9225 0.9215 0.9205 0.9195 0.9185
3665.000000 0.9165 0.9142 0.9118 0.9094 0.9071
3660.000000 0.9044 0.9013 0.8981 0.8950 0.8918
3655.000000 0.8886 0.8865 0.8844 0.8823 0.8802
3650.000000 0.8781 0.8760 0.8739 0.8718 0.8697
3645.000000 0.8675 0.8655 0.8634 0.8613 0.8592
3640.000000 0.8570 0.8549 0.8528 0.8506 0.8485
3635.000000 0.8463 0.8442 0.8411 0.8377 0.8343
3630.000000 0.8309 0.8274 0.8235 0.8189 0.8143
3625.000000 0.8098 0.8051 0.8008 0.7974 0.7940
3620.000000 0.7906 0.7871 0.7837 0.7765 0.7690
3615.000000 0.7615 0.7541 0.7467 0.7404 0.7347
3610.000000 0.7289 0.7232 0.7174 0.7125 0.7086
3605.000000 0.7046 0.7007 0.6967 0.6919 0.6855
3600.000000 0.6790 0.6725 0.6660 0.6598 0.6564
3595.000000 0.6530 0.6496 0.6461 0.6426 0.6393
3590.000000 0.6359 0.6325 0.6290 0.6256 0.6222
3585.000000 0.6187 0.6153 0.6119 0.6084 0.6050
3580.000000 0.6015 0.5981 0.5946 0.5910 0.5877
3575.000000 0.5842 0.5808 0.5773 0.5738 0.5704
3570.000000 0.5669 0.5635 0.5600 0.5566 0.5531
3565.000000 0.5496 0.5460 0.5426 0.5392 0.5353
3560.000000 0.5306 0.5258 0.5210 0.5162 0.5116
3555.000000 0.5077 0.5038 0.4999 0.4960 0.4922
3550.000000 0.4887 0.4852 0.4817 0.4782 0.4747
3545.000000 0.4710 0.4674 0.4637 0.4600 0.4566
3540.000000 0.4553 0.4540 0.4527 0.4514 0.4501
3535.000000 0.4488 0.4475 0.4462 0.4449 0.4437
3530.000000 0.4423 0.4410 0.4397 0.4384 0.4369
3525.000000 0.4329 0.4289 0.4249 0.4209 0.4170
3520.000000 0.4139 0.4107 0.4075 0.4043 0.4012
3515.000000 0.3992 0.3970 0.3949 0.3928 0.3907
3510.000000 0.3890 0.3873 0.3856 0.3839 0.3822
3505.000000 0.3805 0.3788 0.3771 0.3754 0.3737
3500.000000 0.3720 0.3703 0.3686 0.3668 0.3652
3495.000000 0.3634 0.3616 0.3600 0.3582 0.3566
3490.000000 0.3549 0.3530 0.3514 0.3497 0.3478
3485.000000 0.3459 0.3441 0.3422 0.3403 0.3384
3480.000000 0.3366 0.3347 0.3328 0.3309 0.3295
3475.000000 0.3280 0.3266 0.3253 0.3240 0.3228
3470.000000 0.3216 0.3204 0.3192 0.3179 0.3167
3465.000000 0.3154 0.3142 0.3129 0.3115 0.3099
3460.000000 0.3084 0.3068 0.3052 0.3037 0.3021
3455.000000 0.3005 0.2989 0.2973 0.2954 0.2934
3450.000000 0.2915 0.2896 0.2876 0.2851 0.2826
3445.000000 0.2801 0.2776 0.2752 0.2729 0.2706
3440.000000 0.2683 0.2660 0.2644 0.2629 0.2615
3435.000000 0.2600 0.2585 0.2574 0.2563 0.2551
3430.000000 0.2540 0.2530 0.2522 0.2513 0.2505
3425.000000 0.2497 0.2490 0.2484 0.2478 0.2472
3420.000000 0.2466 0.2463 0.2460 0.2458 0.2455
3415.000000 0.2453 0.2450 0.2448 0.2446 0.2443
3410.000000 0.2441 0.2440 0.2438 0.2435 0.2434
3405.000000 0.2433 0.2431 0.2429 0.2428 0.2426
3400.000000 0.2424 0.2422 0.2421 0.2387 0.2418
3395.000000 0.2418 0.2417 0.2417 0.2416 0.2416
3390.000000 0.2416 0.2415 0.2415 0.2414 0.2414
3385.000000 0.2413 0.2413 0.2413 0.2412 0.2412
3380.000000 0.2411 0.2411 0.2411 0.2411 0.2412
3375.000000 0.2412 0.2412 0.2413 0.2413 0.2413
3370.000000 0.2413 0.2415 0.2418 0.2422 0.2426
3365.000000 0.2430 0.2435 0.2443 0.2450 0.2457
3360.000000 0.2465 0.2476 0.2487 0.2498 0.2509
3355.000000 0.2520 0.2531 0.2543 0.2554 0.2565
3350.000000 0.2576 0.2587 0.2598 0.2608 0.2619
3345.000000 0.2630 0.2641 0.2651 0.2662 0.2673
3340.000000 0.2684 0.2694 0.2705 0.2715 0.2726
3335.000000 0.2735 0.2746 0.2756 0.2765 0.2775
3330.000000 0.2784 0.2794 0.2804 0.2814 0.2824
3325.000000 0.2834 0.2843 0.2851 0.2859 0.2866
3320.000000 0.2874 0.2881 0.2888 0.2896 0.2903
3315.000000 0.2910 0.2917 0.2924 0.2931 0.2938
3310.000000 0.2946 0.2953 0.2960 0.2968 0.2975
3305.000000 0.2982 0.2990 0.2997 0.3005 0.3013
3300.000000 0.3021 0.3029 0.3037 0.3045 0.3053
3295.000000 0.3062 0.3070 0.3078 0.3085 0.3094
3290.000000 0.3102 0.3110 0.3119 0.3127 0.3134
3285.000000 0.3144 0.3152 0.3159 0.3167 0.3175
3280.000000 0.3183 0.3190 0.3198 0.3205 0.3212
3275.000000 0.3220 0.3228 0.3236 0.3243 0.3250
3270.000000 0.3258 0.3266 0.3273 0.3280 0.3289
3265.000000 0.3297 0.3304 0.3312 0.3318 0.3327
3260.000000 0.3334 0.3342 0.3350 0.3358 0.3364
3255.000000 0.3373 0.3380 0.3388 0.3396 0.3403
3250.000000 0.3410 0.3418 0.3425 0.3432 0.3440
3245.000000 0.3447 0.3454 0.3460 0.3468 0.3476
3240.000000 0.3482 0.3490 0.3497 0.3504 0.3510
3235.000000 0.3518 0.3526 0.3532 0.3540 0.3547
3230.000000 0.3554 0.3562 0.3568 0.3577 0.3584
3225.000000 0.3591 0.3599 0.3606 0.3612 0.3620
3220.000000 0.3627 0.3634 0.3642 0.3649 0.3656
3215.000000 0.3664 0.3671 0.3678 0.3684 0.3692
3210.000000 0.3698 0.3705 0.3712 0.3718 0.3725
3205.000000 0.3730 0.3738 0.3745 0.3752 0.3759
3200.000000 0.3764 0.3772 0.3778 0.3784 0.3792
3195.000000 0.3798 0.3805 0.3810 0.3818 0.3825
3190.000000 0.3832 0.3839 0.3846 0.3852 0.3859
3185.000000 0.3866 0.3872 0.3879 0.3886 0.3893
3180.000000 0.3900 0.3907 0.3914 0.3921 0.3928
3175.000000 0.3934 0.3942 0.3949 0.3956 0.3962
3170.000000 0.3970 0.3977 0.3984 0.3991 0.3998
3165.000000 0.4005 0.4012 0.4018 0.4026 0.4032
3160.000000 0.4040 0.4047 0.4054 0.4060 0.4068
3155.000000 0.4076 0.4082 0.4090 0.4098 0.4105
3150.000000 0.4112 0.4120 0.4127 0.4134 0.4142
3145.000000 0.4149 0.4156 0.4164 0.4172 0.4179
3140.000000 0.4187 0.4194 0.4201 0.4209 0.4216
3135.000000 0.4224 0.4231 0.4238 0.4246 0.4253
3130.000000 0.4260 0.4268 0.4275 0.4283 0.4290
3125.000000 0.4298 0.4305 0.4312 0.4320 0.4327
3120.000000 0.4335 0.4343 0.4351 0.4359 0.4368
3115.000000 0.4377 0.4386 0.4394 0.4403 0.4412
3110.000000 0.4421 0.4430 0.4439 0.4448 0.4457
3105.000000 0.4466 0.4475 0.4483 0.4492 0.4501
3100.000000 0.4510 0.4519 0.4528 0.4537 0.4546
3095.000000 0.4555 0.4564 0.4573 0.4582 0.4591
3090.000000 0.4600 0.4609 0.4619 0.4628 0.4638
3085.000000 0.4648 0.4658 0.4668 0.4678 0.4688
3080.000000 0.4698 0.4708 0.4718 0.4728 0.4738
3075.000000 0.4748 0.4758 0.4768 0.4778 0.4788
3070.000000 0.4798 0.4808 0.4818 0.4828 0.4838
3065.000000 0.4848 0.4858 0.4868 0.4878 0.4887
3060.000000 0.4897 0.4907 0.4917 0.4927 0.4937
3055.000000 0.4945 0.4954 0.4962 0.4970 0.4977
3050.000000 0.4984 0.4991 0.4997 0.5004 0.5010
3045.000000 0.5016 0.5020 0.5025 0.5030 0.5034
3040.000000 0.5038 0.5043 0.5047 0.5052 0.5056
3035.000000 0.5060 0.5065 0.5068 0.5071 0.5074
3030.000000 0.5077 0.5080 0.5082 0.5085 0.5087
3025.000000 0.5090 0.5092 0.5094 0.5096 0.5098
3020.000000 0.5099 0.5101 0.5102 0.5102 0.5103
3015.000000 0.5104 0.5104 0.5105 0.5106 0.5106
3010.000000 0.5106 0.5106 0.5107 0.5107 0.5107
3005.000000 0.5107 0.5105 0.5103 0.5101 0.5098
3000.000000 0.5090 0.5083 0.5075 0.5066 0.5056
2995.000000 0.5046 0.5036 0.5028 0.5020 0.5012
2990.000000 0.5004 0.4996 0.4988 0.4981 0.4973
2985.000000 0.4964 0.4956 0.4948 0.4938 0.4929
2980.000000 0.4920 0.4910 0.4901 0.4891 0.4882
2975.000000 0.4872 0.4862 0.4852 0.4842 0.4833
2970.000000 0.4823 0.4812 0.4804 0.4795 0.4785
2965.000000 0.4776 0.4768 0.4759 0.4751 0.4743
2960.000000 0.4734 0.4726 0.4718 0.4710 0.4702
2955.000000 0.4694 0.4691 0.4688 0.4685 0.4682
2950.000000 0.4680 0.4678 0.4675 0.4674 0.4672
2945.000000 0.4671 0.4670 0.4669 0.4669 0.4669
2940.000000 0.4677 0.4685 0.4693 0.4704 0.4717
2935.000000 0.4729 0.4743 0.4760 0.4776 0.4793
2930.000000 0.4809 0.4826 0.4843 0.4860 0.4877
2925.000000 0.4895 0.4912 0.4932 0.4952 0.4971
2920.000000 0.4991 0.5012 0.5032 0.5053 0.5079
2915.000000 0.5104 0.5129 0.5149 0.5166 0.5183
2910.000000 0.5201 0.5219 0.5236 0.5254 0.5274
2905.000000 0.5294 0.5314 0.5333 0.5352 0.5372
2900.000000 0.5390 0.5407 0.5424 0.5441 0.5451
2895.000000 0.5459 0.5467 0.5474 0.5481 0.5489
2890.000000 0.5495 0.5498 0.5501 0.5504 0.5507
2885.000000 0.5510 0.5512 0.5516 0.5519 0.5523
2880.000000 0.5526 0.5529 0.5532 0.5535 0.5538
2875.000000 0.5542 0.5545 0.5551 0.5559 0.5567
2870.000000 0.5581 0.5610 0.5640 0.5670 0.5707
2865.000000 0.5744 0.5782 0.5814 0.5843 0.5872
2860.000000 0.5901 0.5931 0.5960 0.5989 0.6020
2855.000000 0.6050 0.6081 0.6112 0.6142 0.6173
2850.000000 0.6203 0.6232 0.6260 0.6289 0.6316
2845.000000 0.6342 0.6369 0.6396 0.6422 0.6450
2840.000000 0.6469 0.6489 0.6508 0.6525 0.6543
2835.000000 0.6560 0.6575 0.6593 0.6608 0.6625
2830.000000 0.6642 0.6658 0.6675 0.6693 0.6710
2825.000000 0.6728 0.6746 0.6764 0.6782 0.6800
2820.000000 0.6818 0.6836 0.6854 0.6871 0.6890
2815.000000 0.6910 0.6935 0.6960 0.6984 0.7011
2810.000000 0.7038 0.7064 0.7085 0.7106 0.7126
2805.000000 0.7148 0.7168 0.7189 0.7210 0.7230
2800.000000 0.7250 0.7265 0.7278 0.7291 0.7304
2795.000000 0.7315 0.7328 0.7341 0.7353 0.7365
2790.000000 0.7378 0.7390 0.7403 0.7415 0.7428
2785.000000 0.7440 0.7453 0.7465 0.7480 0.7493
2780.000000 0.7506 0.7519 0.7533 0.7547 0.7561
2775.000000 0.7574 0.7587 0.7599 0.7611 0.7621
2770.000000 0.7633 0.7644 0.7654 0.7665 0.7675
2765.000000 0.7687 0.7698 0.7708 0.7718 0.7730
2760.000000 0.7740 0.7750 0.7757 0.7765 0.7772
2755.000000 0.7781 0.7788 0.7796 0.7803 0.7811
2750.000000 0.7818 0.7826 0.7835 0.7842 0.7850
2745.000000 0.7858 0.7865 0.7872 0.7881 0.7888
2740.000000 0.7896 0.7904 0.7911 0.7918 0.7926
2735.000000 0.7935 0.7943 0.7951 0.7958 0.7967
2730.000000 0.7975 0.7984 0.7992 0.8000 0.8008
2725.000000 0.8015 0.8024 0.8032 0.8040 0.8048
2720.000000 0.8056 0.8064 0.8072 0.8081 0.8089
2715.000000 0.8097 0.8105 0.8111 0.8119 0.8126
2710.000000 0.8135 0.8142 0.8150 0.8157 0.8164
2705.000000 0.8171 0.8178 0.8186 0.8194 0.8201
2700.000000 0.8208 0.8215 0.8223 0.8231 0.8238
2695.000000 0.8245 0.8252 0.8259 0.8265 0.8271
2690.000000 0.8278 0.8284 0.8291 0.8297 0.8303
2685.000000 0.8309 0.8316 0.8323 0.8328 0.8335
2680.000000 0.8342 0.8348 0.8355 0.8361 0.8368
2675.000000 0.8374 0.8380 0.8387 0.8393 0.8400
2670.000000 0.8406 0.8413 0.8418 0.8425 0.8432
2665.000000 0.8438 0.8444 0.8451 0.8457 0.8464
2660.000000 0.8471 0.8477 0.8484 0.8490 0.8496
2655.000000 0.8503 0.8509 0.8515 0.8521 0.8528
2650.000000 0.8535 0.8542 0.8548 0.8555 0.8561
2645.000000 0.8568 0.8575 0.8582 0.8588 0.8595
2640.000000 0.8602 0.8609 0.8616 0.8623 0.8630
2635.000000 0.8637 0.8644 0.8651 0.8658 0.8664
2630.000000 0.8671 0.8678 0.8685 0.8691 0.8698
2625.000000 0.8704 0.8711 0.8717 0.8724 0.8731
2620.000000 0.8737 0.8744 0.8750 0.8757 0.8763
2615.000000 0.8770 0.8777 0.8783 0.8790 0.8796
2610.000000 0.8802 0.8808 0.8815 0.8821 0.8828
2605.000000 0.8835 0.8841 0.8847 0.8853 0.8859
2600.000000 0.8865 0.8871 0.8877 0.8883 0.8889
2595.000000 0.8895 0.8901 0.8907 0.8913 0.8918
2590.000000 0.8925 0.8931 0.8937 0.8943 0.8949
2585.000000 0.8955 0.8961 0.8967 0.8973 0.8978
2580.000000 0.8985 0.8991 0.8997 0.9003 0.9009
2575.000000 0.9015 0.9020 0.9025 0.9031 0.9036
2570.000000 0.9041 0.9047 0.9052 0.9058 0.9063
2565.000000 0.9068 0.9074 0.9078 0.9085 0.9090
2560.000000 0.9095 0.9101 0.9106 0.9111 0.9117
2555.000000 0.9121 0.9127 0.9132 0.9137 0.9142
2550.000000 0.9145 0.9149 0.9153 0.9158 0.9162
2545.000000 0.9166 0.9170 0.9173 0.9177 0.9181
2540.000000 0.9185 0.9190 0.9194 0.9198 0.9202
2535.000000 0.9205 0.9209 0.9213 0.9217 0.9221
2530.000000 0.9225 0.9230 0.9234 0.9238 0.9242
2525.000000 0.9246 0.9250 0.9254 0.9257 0.9260
2520.000000 0.9263 0.9266 0.9268 0.9271 0.9274
2515.000000 0.9277 0.9280 0.9282 0.9285 0.9288
2510.000000 0.9291 0.9293 0.9296 0.9299 0.9302
2505.000000 0.9305 0.9307 0.9309 0.9312 0.9314
2500.000000 0.9316 0.9317 0.9318 0.9320 0.9321
2495.000000 0.9324 0.9325 0.9328 0.9328 0.9331
2490.000000 0.9333 0.9334 0.9336 0.9338 0.9340
2485.000000 0.9342 0.9343 0.9345 0.9347 0.9348
2480.000000 0.9350 0.9351 0.9353 0.9355 0.9357
2475.000000 0.9359 0.9361 0.9362 0.9364 0.9365
2470.000000 0.9367 0.9368 0.9371 0.9373 0.9375
2465.000000 0.9375 0.9378 0.9380 0.9381 0.9383
2460.000000 0.9384 0.9384 0.9385 0.9385 0.9385
2455.000000 0.9386 0.9386 0.9387 0.9387 0.9387
2450.000000 0.9388 0.9388 0.9389 0.9389 0.9390
2445.000000 0.9390 0.9391 0.9392 0.9392 0.9393
2440.000000 0.9393 0.9394 0.9394 0.9394 0.9395
2435.000000 0.9395 0.9396 0.9396 0.9396 0.9397
2430.000000 0.9398 0.9399 0.9399 0.9399 0.9399
2425.000000 0.9399 0.9400 0.9400 0.9400 0.9400
2420.000000 0.9400 0.9400 0.9400 0.9400 0.9400
2415.000000 0.9401 0.9401 0.9401 0.9401 0.9401
2410.000000 0.9401 0.9401 0.9402 0.9402 0.9402
2405.000000 0.9402 0.9402 0.9402 0.9402 0.9402
2400.000000 0.9402 0.9403 0.9403 0.9403 0.9403
2395.000000 0.9403 0.9403 0.9403 0.9404 0.9404
2390.000000 0.9404 0.9404 0.9404 0.9403 0.9403
2385.000000 0.9402 0.9402 0.9401 0.9401 0.9401
2380.000000 0.9400 0.9399 0.9398 0.9398 0.9397
2375.000000 0.9397 0.9396 0.9396 0.9396 0.9395
2370.000000 0.9394 0.9393 0.9393 0.9392 0.9392
2365.000000 0.9391 0.9390 0.9390 0.9389 0.9389
2360.000000 0.9388 0.9388 0.9387 0.9386 0.9385
2355.000000 0.9385 0.9384 0.9384 0.9384 0.9383
2350.000000 0.9382 0.9381 0.9381 0.9380 0.9378
2345.000000 0.9378 0.9378 0.9377 0.9377 0.9375
2340.000000 0.9375 0.9374 0.9373 0.9373 0.9371
2335.000000 0.9371 0.9370 0.9368 0.9368 0.9367
2330.000000 0.9367 0.9366 0.9366 0.9365 0.9364
2325.000000 0.9363 0.9362 0.9361 0.9360 0.9358
2320.000000 0.9357 0.9355 0.9353 0.9352 0.9350
2315.000000 0.9349 0.9347 0.9345 0.9344 0.9342
2310.000000 0.9340 0.9339 0.9337 0.9336 0.9334
2305.000000 0.9332 0.9330 0.9328 0.9327 0.9325
2300.000000 0.9324 0.9321 0.9321 0.9318 0.9317
2295.000000 0.9316 0.9314 0.9312 0.9310 0.9309
2290.000000 0.9307 0.9306 0.9304 0.9302 0.9301
2285.000000 0.9299 0.9297 0.9295 0.9293 0.9291
2280.000000 0.9290 0.9289 0.9287 0.9285 0.9284
2275.000000 0.9284 0.9284 0.9284 0.9284 0.9284
2270.000000 0.9283 0.9283 0.9283 0.9283 0.9283
2265.000000 0.9283 0.9282 0.9282 0.9282 0.9282
2260.000000 0.9282 0.9282 0.9281 0.9281 0.9281
2255.000000 0.9281 0.9281 0.9281 0.9280 0.9280
2250.000000 0.9280 0.9280 0.9280 0.9280 0.9280
2245.000000 0.9280 0.9278 0.9278 0.9278 0.9278
2240.000000 0.9278 0.9278 0.9278 0.9278 0.9278
2235.000000 0.9278 0.9278 0.9278 0.9278 0.9278
2230.000000 0.9278 0.9278 0.9278 0.9278 0.9278
2225.000000 0.9278 0.9278 0.9278 0.9278 0.9278
2220.000000 0.9278 0.9278 0.9277 0.9277 0.9277
2215.000000 0.9277 0.9277 0.9277 0.9277 0.9277
2210.000000 0.9277 0.9277 0.9277 0.9277 0.9277
2205.000000 0.9277 0.9277 0.9277 0.9277 0.9277
2200.000000 0.9275 0.9275 0.9275 0.9275 0.9275
2195.000000 0.9275 0.9277 0.9277 0.9278 0.9278
2190.000000 0.9278 0.9280 0.9281 0.9282 0.9282
2185.000000 0.9283 0.9283 0.9284 0.9284 0.9285
2180.000000 0.9285 0.9286 0.9286 0.9287 0.9288
2175.000000 0.9289 0.9289 0.9290 0.9291 0.9291
2170.000000 0.9292 0.9292 0.9293 0.9294 0.9295
2165.000000 0.9295 0.9296 0.9296 0.9297 0.9297
2160.000000 0.9298 0.9298 0.9299 0.9300 0.9301
2155.000000 0.9302 0.9302 0.9303 0.9303 0.9304
2150.000000 0.9304 0.9305 0.9305 0.9306 0.9306
2145.000000 0.9307 0.9308 0.9309 0.9310 0.9310
2140.000000 0.9311 0.9311 0.9312 0.9312 0.9313
2135.000000 0.9313 0.9314 0.9315 0.9315 0.9316
2130.000000 0.9316 0.9317 0.9318 0.9318 0.9318
2125.000000 0.9320 0.9321 0.9321 0.9321 0.9321
2120.000000 0.9323 0.9323 0.9324 0.9324 0.9325
2115.000000 0.9325 0.9325 0.9327 0.9328 0.9330
2110.000000 0.9332 0.9334 0.9336 0.9339 0.9341
2105.000000 0.9343 0.9345 0.9347 0.9349 0.9351
2100.000000 0.9353 0.9356 0.9359 0.9362 0.9366
2095.000000 0.9370 0.9374 0.9378 0.9382 0.9386
2090.000000 0.9390 0.9394 0.9398 0.9402 0.9403
2085.000000 0.9403 0.9403 0.9402 0.9402 0.9401
2080.000000 0.9401 0.9400 0.9399 0.9399 0.9398
2075.000000 0.9398 0.9397 0.9397 0.9396 0.9395
2070.000000 0.9395 0.9395 0.9395 0.9394 0.9393
2065.000000 0.9393 0.9393 0.9393 0.9392 0.9392
2060.000000 0.9392 0.9392 0.9393 0.9394 0.9395
2055.000000 0.9397 0.9398 0.9399 0.9400 0.9401
2050.000000 0.9403 0.9404 0.9406 0.9408 0.9410
2045.000000 0.9413 0.9416 0.9418 0.9421 0.9424
2040.000000 0.9427 0.9430 0.9432 0.9435 0.9438
2035.000000 0.9441 0.9444 0.9446 0.9448 0.9450
2030.000000 0.9452 0.9453 0.9454 0.9455 0.9456
2025.000000 0.9458 0.9459 0.9460 0.9461 0.9463
2020.000000 0.9464 0.9465 0.9466 0.9467 0.9468
2015.000000 0.9470 0.9471 0.9471 0.9473 0.9474
2010.000000 0.9475 0.9475 0.9477 0.9477 0.9478
2005.000000 0.9478 0.9478 0.9480 0.9480 0.9481
2000.000000 0.9482 0.9482 0.9483 0.9483 0.9484
1995.000000 0.9485 0.9485 0.9486 0.9487 0.9487
1990.000000 0.9488 0.9488 0.9489 0.9490 0.9491
1985.000000 0.9492 0.9493 0.9493 0.9494 0.9494
1980.000000 0.9495 0.9496 0.9496 0.9497 0.9498
1975.000000 0.9498 0.9499 0.9501 0.9501 0.9502
1970.000000 0.9503 0.9503 0.9504 0.9504 0.9505
1965.000000 0.9506 0.9506 0.9507 0.9507 0.9507
1960.000000 0.9508 0.9508 0.9508 0.9509 0.9509
1955.000000 0.9509 0.9510 0.9511 0.9511 0.9511
1950.000000 0.9512 0.9512 0.9513 0.9514 0.9514
1945.000000 0.9515 0.9517 0.9517 0.9518 0.9518
1940.000000 0.9518 0.9520 0.9520 0.9521 0.9521
1935.000000 0.9521 0.9523 0.9524 0.9524 0.9525
1930.000000 0.9525 0.9528 0.9528 0.9528 0.9530
1925.000000 0.9530 0.9531 0.9531 0.9531 0.9531
1920.000000 0.9531 0.9531 0.9531 0.9531 0.9531
1915.000000 0.9532 0.9532 0.9532 0.9532 0.9532
1910.000000 0.9532 0.9532 0.9532 0.9532 0.9532
1905.000000 0.9532 0.9531 0.9530 0.9528 0.9527
1900.000000 0.9525 0.9525 0.9523 0.9521 0.9520
1895.000000 0.9518 0.9518 0.9516 0.9515 0.9514
1890.000000 0.9512 0.9511 0.9509 0.9508 0.9506
1885.000000 0.9504 0.9503 0.9501 0.9500 0.9498
1880.000000 0.9496 0.9495 0.9493 0.9492 0.9490
1875.000000 0.9488 0.9486 0.9483 0.9480 0.9477
1870.000000 0.9473 0.9470 0.9467 0.9463 0.9460
1865.000000 0.9457 0.9454 0.9451 0.9447 0.9444
1860.000000 0.9441 0.9438 0.9435 0.9431 0.9428
1855.000000 0.9425 0.9423 0.9420 0.9416 0.9413
1850.000000 0.9410 0.9407 0.9404 0.9401 0.9397
1845.000000 0.9394 0.9392 0.9389 0.9385 0.9382
1840.000000 0.9378 0.9375 0.9373 0.9368 0.9366
1835.000000 0.9363 0.9360 0.9356 0.9353 0.9350
1830.000000 0.9347 0.9343 0.9339 0.9334 0.9328
1825.000000 0.9321 0.9316 0.9310 0.9304 0.9298
1820.000000 0.9291 0.9285 0.9278 0.9273 0.9267
1815.000000 0.9261 0.9255 0.9249 0.9242 0.9236
1810.000000 0.9230 0.9224 0.9217 0.9210 0.9204
1805.000000 0.9198 0.9191 0.9185 0.9178 0.9171
1800.000000 0.9164 0.9157 0.9150 0.9143 0.9136
1795.000000 0.9128 0.9121 0.9113 0.9106 0.9098
1790.000000 0.9089 0.9081 0.9071 0.9064 0.9056
1785.000000 0.9047 0.9039 0.9030 0.9021 0.9011
1780.000000 0.9001 0.8991 0.8982 0.8971 0.8962
1775.000000 0.8952 0.8942 0.8932 0.8921 0.8911
1770.000000 0.8901 0.8892 0.8881 0.8871 0.8860
1765.000000 0.8850 0.8840 0.8830 0.8816 0.8799
1760.000000 0.8780 0.8761 0.8743 0.8725 0.8707
1755.000000 0.8688 0.8665 0.8636 0.8605 0.8575
1750.000000 0.8543 0.8506 0.8464 0.8421 0.8380
1745.000000 0.8336 0.8290 0.8242 0.8187 0.8125
1740.000000 0.8056 0.7950 0.7818 0.7687 0.7575
1735.000000 0.7476 0.7375 0.7231 0.6980 0.6708
1730.000000 0.6590 0.6472 0.6355 0.6238 0.6120
1725.000000 0.6002 0.5884 0.5765 0.5647 0.5529
1720.000000 0.5410 0.5292 0.5173 0.5057 0.5040
1715.000000 0.5010 0.5026 0.5047 0.5105 0.5183
1710.000000 0.5260 0.5339 0.5417 0.5495 0.5573
1705.000000 0.5652 0.5731 0.5809 0.5888 0.5966
1700.000000 0.6046 0.6125 0.6204 0.6283 0.6362
1695.000000 0.6442 0.6501 0.6518 0.6540 0.6521
1690.000000 0.6521 0.6504 0.6401 0.6103 0.5803
1685.000000 0.5503 0.5202 0.4902 0.4601 0.4300
1680.000000 0.3998 0.3697 0.3394 0.3091 0.2789
1675.000000 0.2484 0.2181 0.1877 0.1572 0.1592
1670.000000 0.1587 0.1586 0.1629 0.1772 0.1940
1665.000000 0.2108 0.2277 0.2445 0.2614 0.2782
1660.000000 0.2952 0.3121 0.3291 0.3460 0.3630
1655.000000 0.3800 0.3971 0.4142 0.4312 0.4483
1650.000000 0.4655 0.4826 0.4998 0.5169 0.5322
1645.000000 0.5355 0.5360 0.5367 0.5374 0.5391
1640.000000 0.5336 0.5246 0.5156 0.5067 0.4976
1635.000000 0.4887 0.4797 0.4706 0.4616 0.4525
1630.000000 0.4434 0.4343 0.4252 0.4162 0.4103
1625.000000 0.4068 0.4082 0.4084 0.4087 0.4102
1620.000000 0.4148 0.4202 0.4259 0.4298 0.4338
1615.000000 0.4372 0.4390 0.4401 0.4457 0.4408
1610.000000 0.4410 0.4412 0.4415 0.4417 0.4419
1605.000000 0.4422 0.4406 0.4428 0.4552 0.4796
1600.000000 0.5064 0.5331 0.5598 0.5839 0.6019
1595.000000 0.6160 0.6290 0.6391 0.6474 0.6557
1590.000000 0.6639 0.6718 0.6798 0.6878 0.6958
1585.000000 0.7041 0.7121 0.7203 0.7281 0.7346
1580.000000 0.7405 0.7464 0.7519 0.7568 0.7615
1575.000000 0.7661 0.7708 0.7755 0.7798 0.7840
1570.000000 0.7882 0.7925 0.7965 0.8001 0.8038
1565.000000 0.8074 0.8111 0.8148 0.8183 0.8211
1560.000000 0.8236 0.8261 0.8285 0.8306 0.8324
1555.000000 0.8342 0.8359 0.8375 0.8388 0.8398
1550.000000 0.8409 0.8418 0.8428 0.8439 0.8448
1545.000000 0.8459 0.8468 0.8478 0.8487 0.8495
1540.000000 0.8504 0.8513 0.8521 0.8528 0.8536
1535.000000 0.8542 0.8549 0.8556 0.8563 0.8568
1530.000000 0.8575 0.8582 0.8588 0.8591 0.8594
1525.000000 0.8598 0.8601 0.8604 0.8607 0.8610
1520.000000 0.8614 0.8617 0.8620 0.8623 0.8627
1515.000000 0.8630 0.8633 0.8637 0.8640 0.8643
1510.000000 0.8643 0.8643 0.8649 0.8648 0.8646
1505.000000 0.8645 0.8644 0.8643 0.8642 0.8640
1500.000000 0.8635 0.8630 0.8625 0.8618 0.8614
1495.000000 0.8606 0.8596 0.8587 0.8577 0.8568
1490.000000 0.8555 0.8534 0.8510 0.8488 0.8460
1485.000000 0.8424 0.8386 0.8347 0.8310 0.8274
1480.000000 0.8236 0.8195 0.8150 0.8106 0.8061
1475.000000 0.8015 0.7969 0.7924 0.7875 0.7822
1470.000000 0.7768 0.7715 0.7660 0.7601 0.7545
1465.000000 0.7491 0.7445 0.7401 0.7358 0.7314
1460.000000 0.7255 0.7182 0.7072 0.6931 0.6786
1455.000000 0.6658 0.6615 0.6596 0.6585 0.6561
1450.000000 0.6575 0.6578 0.6601 0.6721 0.6858
1445.000000 0.6906 0.6908 0.6911 0.6912 0.6912
1440.000000 0.6915 0.6915 0.6917 0.6924 0.6934
1435.000000 0.6950 0.6976 0.7008 0.7045 0.7080
1430.000000 0.7115 0.7138 0.7158 0.7171 0.7182
1425.000000 0.7191 0.7200 0.7200 0.7246 0.7192
1420.000000 0.7187 0.7183 0.7175 0.7165 0.7154
1415.000000 0.7143 0.7130 0.7118 0.7105 0.7091
1410.000000 0.7072 0.7055 0.7036 0.7012 0.6988
1405.000000 0.6962 0.6935 0.6901 0.6867 0.6833
1400.000000 0.6799 0.6765 0.6743 0.6724 0.6705
1395.000000 0.6680 0.6688 0.6692 0.6696 0.6708
1390.000000 0.6744 0.6794 0.6861 0.6942 0.7004
1385.000000 0.7047 0.7058 0.7060 0.7061 0.7053
1380.000000 0.7043 0.7022 0.6995 0.6974 0.6961
1375.000000 0.6951 0.6946 0.6942 0.6938 0.6938
1370.000000 0.6938 0.6941 0.6948 0.6964 0.6983
1365.000000 0.7015 0.7049 0.7085 0.7125 0.7157
1360.000000 0.7182 0.7203 0.7214 0.7221 0.7218
1355.000000 0.7199 0.7178 0.7165 0.7156 0.7156
1350.000000 0.7156 0.7156 0.7187 0.7239 0.7295
1345.000000 0.7340 0.7387 0.7435 0.7483 0.7511
1340.000000 0.7538 0.7564 0.7581 0.7595 0.7610
1335.000000 0.7614 0.7618 0.7619 0.7611 0.7593
1330.000000 0.7565 0.7544 0.7522 0.7501 0.7485
1325.000000 0.7468 0.7451 0.7436 0.7417 0.7397
1320.000000 0.7378 0.7358 0.7337 0.7315 0.7295
1315.000000 0.7274 0.7254 0.7234 0.7215 0.7196
1310.000000 0.7171 0.7143 0.7099 0.7036 0.6972
1305.000000 0.6907 0.6832 0.6747 0.6684 0.6645
1300.000000 0.6615 0.6537 0.6565 0.6568 0.6571
1295.000000 0.6578 0.6601 0.6634 0.6664 0.6718
1290.000000 0.6781 0.6843 0.6908 0.6971 0.7028
1285.000000 0.7071 0.7118 0.7162 0.7208 0.7253
1280.000000 0.7297 0.7342 0.7387 0.7425 0.7455
1275.000000 0.7483 0.7511 0.7539 0.7565 0.7590
1270.000000 0.7611 0.7633 0.7655 0.7678 0.7698
1265.000000 0.7718 0.7739 0.7758 0.7772 0.7789
1260.000000 0.7804 0.7830 0.7824 0.7825 0.7810
1255.000000 0.7761 0.7667 0.7564 0.7456 0.7389
1250.000000 0.7328 0.7264 0.7197 0.7108 0.6990
1245.000000 0.6919 0.6865 0.6833 0.6819 0.6743
1240.000000 0.6796 0.6793 0.6801 0.6811 0.6857
1235.000000 0.6906 0.7021 0.7185 0.7318 0.7430
1230.000000 0.7531 0.7600 0.7658 0.7711 0.7750
1225.000000 0.7776 0.7787 0.7801 0.7797 0.7798
1220.000000 0.7786 0.7769 0.7754 0.7728 0.7697
1215.000000 0.7665 0.7632 0.7590 0.7545 0.7501
1210.000000 0.7457 0.7421 0.7385 0.7349 0.7312
1205.000000 0.7275 0.7239 0.7203 0.7165 0.7128
1200.000000 0.7094 0.7058 0.7021 0.6986 0.6950
1195.000000 0.6908 0.6861 0.6815 0.6769 0.6721
1190.000000 0.6671 0.6621 0.6568 0.6512 0.6456
1185.000000 0.6395 0.6320 0.6246 0.6182 0.6120
1180.000000 0.6055 0.5983 0.5910 0.5832 0.5744
1175.000000 0.5656 0.5514 0.5320 0.5158 0.5065
1170.000000 0.4993 0.4893 0.4790 0.4688 0.4585
1165.000000 0.4481 0.4378 0.4274 0.4170 0.4066
1160.000000 0.3962 0.3857 0.3752 0.3648 0.3542
1155.000000 0.3437 0.3332 0.3226 0.3121 0.3015
1150.000000 0.2788 0.2637 0.2530 0.2387 0.2256
1145.000000 0.2172 0.2096 0.2032 0.1984 0.1941
1140.000000 0.1920 0.1899 0.1884 0.1871 0.1858
1135.000000 0.1844 0.1834 0.1825 0.1815 0.1804
1130.000000 0.1795 0.1764 0.1779 0.1772 0.1766
1125.000000 0.1760 0.1754 0.1749 0.1744 0.1741
1120.000000 0.1736 0.1736 0.1736 0.1737 0.1753
1115.000000 0.1767 0.1778 0.1777 0.1777 0.1750
1110.000000 0.1710 0.1675 0.1648 0.1623 0.1608
1105.000000 0.1600 0.1594 0.1590 0.1589 0.1601
1100.000000 0.1596 0.1607 0.1621 0.1645 0.1670
1095.000000 0.1704 0.1746 0.1791 0.1842 0.1899
1090.000000 0.1979 0.2063 0.2143 0.2215 0.2287
1085.000000 0.2363 0.2439 0.2516 0.2592 0.2673
1080.000000 0.2754 0.2833 0.2907 0.2981 0.3053
1075.000000 0.3123 0.3193 0.3266 0.3344 0.3423
1070.000000 0.3503 0.3572 0.3628 0.3632 0.3630
1065.000000 0.3630 0.3630 0.3632 0.3636 0.3670
1060.000000 0.3766 0.3900 0.4062 0.4224 0.4384
1055.000000 0.4545 0.4706 0.4868 0.5029 0.5191
1050.000000 0.5354 0.5516 0.5667 0.5708 0.5702
1045.000000 0.5680 0.5629 0.5550 0.5488 0.5474
1040.000000 0.5443 0.5492 0.5517 0.5560 0.5608
1035.000000 0.5688 0.5762 0.5833 0.5914 0.6028
1030.000000 0.6148 0.6268 0.6388 0.6508 0.6624
1025.000000 0.6687 0.6731 0.6743 0.6743 0.6742
1020.000000 0.6738 0.6732 0.6725 0.6694 0.6739
1015.000000 0.6818 0.6872 0.6925 0.6965 0.6980
1010.000000 0.6996 0.6999 0.7001 0.6980 0.6919
1005.000000 0.6811 0.6651 0.6458 0.6253 0.6000
1000.000000 0.5746 0.5542 0.5236 0.4885 0.4568
995.000000 0.4251 0.3946 0.3642 0.3462 0.3304
990.000000 0.3170 0.3070 0.2988 0.2911 0.2839
985.000000 0.2784 0.2758 0.2738 0.2754 0.2789
980.000000 0.2861 0.2964 0.3116 0.3272 0.3418
975.000000 0.3584 0.3774 0.4002 0.4265 0.4519
970.000000 0.5002 0.5255 0.5508 0.5760 0.6000
965.000000 0.6149 0.6227 0.6277 0.6312 0.6339
960.000000 0.6351 0.6360 0.6354 0.6339 0.6294
955.000000 0.6229 0.6143 0.6060 0.6091 0.6114
950.000000 0.6198 0.6306 0.6440 0.6621 0.6793
945.000000 0.6903 0.6978 0.7032 0.7061 0.7060
940.000000 0.7060 0.7057 0.7040 0.7011 0.6983
935.000000 0.6943 0.6904 0.6864 0.6804 0.6737
930.000000 0.6634 0.6518 0.6356 0.6274 0.6234
925.000000 0.6205 0.6185 0.6173 0.6180 0.6202
920.000000 0.6197 0.6186 0.6155 0.6123 0.6064
915.000000 0.5999 0.5922 0.5851 0.5800 0.5769
910.000000 0.5733 0.5762 0.5786 0.5854 0.5992
905.000000 0.6123 0.6219 0.6286 0.6316 0.6319
900.000000 0.6277 0.6179 0.6038 0.5771 0.5486
895.000000 0.5201 0.4914 0.4628 0.4340 0.4105
890.000000 0.4027 0.4049 0.4076 0.4173 0.4312
885.000000 0.4452 0.4664 0.4880 0.5096 0.5312
880.000000 0.5529 0.5747 0.5964 0.6079 0.6118
875.000000 0.6124 0.6127 0.6119 0.6108 0.6097
870.000000 0.6089 0.6101 0.6078 0.6078 0.6084
865.000000 0.6091 0.6100 0.6109 0.6114 0.6090
860.000000 0.6065 0.6041 0.6008 0.5949 0.5879
855.000000 0.5817 0.5767 0.5719 0.5672 0.5634
850.000000 0.5598 0.5546 0.5593 0.5629 0.5667
845.000000 0.5705 0.5742 0.5780 0.5817 0.5849
840.000000 0.5881 0.5915 0.5954 0.5985 0.6016
835.000000 0.5999 0.5958 0.5916 0.5872 0.5830
830.000000 0.5791 0.5760 0.5735 0.5722 0.5750
825.000000 0.5799 0.5844 0.5876 0.5907 0.5925
820.000000 0.5928 0.5904 0.5887 0.5871 0.5854
815.000000 0.5850 0.5848 0.5847 0.5862 0.5876
810.000000 0.5891 0.5915 0.5944 0.5974 0.6006
805.000000 0.6041 0.6075 0.6108 0.6137 0.6162
800.000000 0.6189 0.6209 0.6230 0.6251 0.6259
795.000000 0.6268 0.6275 0.6272 0.6266 0.6254
790.000000 0.6243 0.6235 0.6231 0.6227 0.6226
785.000000 0.6226 0.6227 0.6232 0.6242 0.6256
780.000000 0.6282 0.6319 0.6360 0.6385 0.6397
775.000000 0.6397 0.6405 0.6408 0.6365 0.6333
770.000000 0.6299 0.6268 0.6239 0.6212 0.6177
765.000000 0.6126 0.6114 0.6191 0.6210 0.6228
760.000000 0.6249 0.6271 0.6292 0.6315 0.6339
755.000000 0.6353 0.6359 0.6362 0.6367 0.6424
750.000000 0.6374 0.6373 0.6368 0.6362 0.6312
745.000000 0.6276 0.6252 0.6236 0.6215 0.6165
740.000000 0.6097 0.6018 0.5970 0.5953 0.5893
735.000000 0.5812 0.5743 0.5672 0.5612 0.5554
730.000000 0.5503 0.5462 0.5436 0.5437 0.5438
725.000000 0.5457 0.5482 0.5510 0.5557 0.5603
720.000000 0.5707 0.5676 0.5671 0.5635 0.5598
715.000000 0.5580 0.5564 0.5551 0.5541 0.5532
710.000000 0.5525 0.5519 0.5499 0.5458 0.5419
705.000000 0.5393 0.5379 0.5406 0.5367 0.5388
700.000000 0.5427 0.5469 0.5533 0.5597 0.5660
695.000000 0.5721 0.5767 0.5822 0.5812 0.5785
690.000000 0.5750 0.5715 0.5680 0.5648 0.5641
685.000000 0.5660 0.5707 0.5754 0.5802 0.5846
680.000000 0.5886 0.5927 0.5956 0.5983 0.6000
675.000000 0.6014 0.6028 0.6043 0.6058
##END=
