##TITLE=POTASSIUM NITRATE
$$ A.R.
##JCAMP-DX=4.24
##DATA TYPE=INFRARED SPECTRUM
##CLASS=COBLENTZ
##ORIGIN=MELLON INSTITUTE
##OWNER=COBLENTZ SOCIETY
Collection (C) 2018 copyright by the U.S. Secretary of Commerce
on behalf of the United States of America. All rights reserved.
##DATE=Not specified, most likely prior to 1970
##MOLFORM=K N O3
##SOURCE REFERENCE=COBLENTZ NO. 529
##$NIST ID=B6000529
##$NIST SOURCE=COBLENTZ
##$NIST IMAGE=cob529
##SPECTROMETER/DATA SYSTEM=Not specified, most likely a prism, grating, or hybrid spectrometer.
##STATE=SOLID (NUJOL MULL)
##PATH LENGTH=
$$SPECTRAL CONTAMINATION DUE TO OIL AROUND 2900 CM^-^1
##SAMPLING PROCEDURE=TRANSMISSION
##RESOLUTION=4
##DATA PROCESSING=DIGITIZED BY NIST FROM HARD COPY
##XUNITS=MICROMETERS
##YUNITS=TRANSMITTANCE
##XFACTOR=1.000000
##YFACTOR=1
##DELTAX=000.006663
##FIRSTX=2.067
##LASTX=16.0253
##FIRSTY=0.884
##MAXX=16.0253
##MINX=2.067
##MAXY=1.003
##MINY=0.003
##NPOINTS=2096
##XYDATA=(X++(Y..Y))
2.067000 0.8840 0.8820 0.8820 0.8820 0.8820
2.100329 0.8820 0.8820 0.8820 0.8810 0.8810
2.134000 0.8810 0.8810 0.8790 0.8790 0.8790
2.167329 0.8790 0.8810 0.8810 0.8810 0.8810
2.200000 0.8790 0.8790 0.8810 0.8810 0.8810
2.233329 0.8810 0.8810 0.8810 0.8810 0.8810
2.267000 0.8810 0.8810 0.8810 0.8810 0.8810
2.300329 0.8790 0.8790 0.8790 0.8790 0.8790
2.334000 0.8790 0.8790 0.8790 0.8790 0.8790
2.367329 0.8790 0.8790 0.8790 0.8790 0.8770
2.400000 0.8770 0.8770 0.8770 0.8770 0.8770
2.433329 0.8790 0.8770 0.8770 0.8770 0.8770
2.467000 0.8760 0.8760 0.8740 0.8740 0.8740
2.500329 0.8740 0.8740 0.8740 0.8760 0.8760
2.534000 0.8760 0.8760 0.8740 0.8740 0.8740
2.567329 0.8720 0.8740 0.8740 0.8740 0.8740
2.600000 0.8740 0.8740 0.8740 0.8740 0.8740
2.633329 0.8740 0.8740 0.8740 0.8740 0.8740
2.667000 0.8740 0.8740 0.8740 0.8740 0.8740
2.700329 0.8740 0.8740 0.8740 0.8740 0.8740
2.733000 0.8740 0.8740 0.8740 0.8740 0.8740
2.766329 0.8740 0.8740 0.8740 0.8740 0.8740
2.800000 0.8740 0.8740 0.8740 0.8740 0.8740
2.833329 0.8740 0.8740 0.8740 0.8720 0.8720
2.867000 0.8720 0.8720 0.8720 0.8720 0.8720
2.900329 0.8720 0.8720 0.8720 0.8720 0.8720
2.933000 0.8720 0.8720 0.8740 0.8740 0.8760
2.966329 0.8760 0.8760 0.8760 0.8760 0.8760
3.000000 0.8760 0.8740 0.8740 0.8740 0.8740
3.033329 0.8740 0.8740 0.8740 0.8740 0.8740
3.067000 0.8740 0.8740 0.8760 0.8760 0.8760
3.100329 0.8740 0.8740 0.8740 0.8740 0.8740
3.133000 0.8740 0.8740 0.8740 0.8740 0.8720
3.166329 0.8720 0.8720 0.8720 0.8720 0.8740
3.200000 0.8720 0.8720 0.8720 0.8720 0.8720
3.233329 0.8720 0.8710 0.8710 0.8710 0.8710
3.267000 0.8690 0.8670 0.8660 0.8640 0.8570
3.300329 0.8410 0.8240 0.7470 0.7140 0.6780
3.333000 0.5860 0.5480 0.5080 0.4440 0.4180
3.366329 0.3910 0.3540 0.3520 0.3540 0.3590
3.400000 0.3860 0.4090 0.4460 0.4790 0.4790
3.433329 0.4790 0.4730 0.4710 0.4680 0.4640
3.466000 0.4660 0.4930 0.6100 0.6380 0.6670
3.499329 0.6930 0.7520 0.7900 0.8010 0.8060
3.533000 0.8120 0.8190 0.8260 0.8310 0.8340
3.566329 0.8410 0.8470 0.8490 0.8510 0.8540
3.600000 0.8560 0.8560 0.8610 0.8620 0.8620
3.633329 0.8640 0.8660 0.8690 0.8710 0.8720
3.666000 0.8720 0.8740 0.8740 0.8760 0.8790
3.699329 0.8810 0.8820 0.8820 0.8840 0.8840
3.733000 0.8840 0.8840 0.8840 0.8840 0.8840
3.766329 0.8860 0.8870 0.8870 0.8870 0.8890
3.800000 0.8870 0.8890 0.8870 0.8870 0.8890
3.833329 0.8870 0.8890 0.8890 0.8890 0.8910
3.866000 0.8910 0.8910 0.8910 0.8910 0.8910
3.899329 0.8920 0.8920 0.8920 0.8940 0.8940
3.933000 0.8940 0.8940 0.8940 0.8940 0.8960
3.966329 0.8960 0.8960 0.8960 0.8960 0.8960
3.999000 0.8940 0.8940 0.8940 0.8920 0.8910
4.032329 0.8910 0.8910 0.8890 0.8890 0.8870
4.066000 0.8860 0.8860 0.8840 0.8840 0.8820
4.099329 0.8790 0.8770 0.8760 0.8710 0.8690
4.133000 0.8640 0.8620 0.8610 0.8570 0.8570
4.166329 0.8560 0.8540 0.8520 0.8510 0.8490
4.199000 0.8490 0.8470 0.8470 0.8460 0.8460
4.232329 0.8460 0.8460 0.8460 0.8460 0.8470
4.266000 0.8470 0.8470 0.8490 0.8490 0.8490
4.299329 0.8490 0.8490 0.8510 0.8510 0.8520
4.333000 0.8520 0.8520 0.8520 0.8540 0.8540
4.366329 0.8540 0.8560 0.8560 0.8590 0.8610
4.399000 0.8640 0.8660 0.8670 0.8690 0.8710
4.432329 0.8720 0.8740 0.8760 0.8790 0.8810
4.466000 0.8810 0.8820 0.8840 0.8840 0.8860
4.499329 0.8860 0.8860 0.8860 0.8860 0.8860
4.532000 0.8860 0.8860 0.8860 0.8860 0.8860
4.565329 0.8860 0.8860 0.8860 0.8860 0.8860
4.599000 0.8870 0.8870 0.8870 0.8870 0.8890
4.632329 0.8890 0.8910 0.8890 0.8890 0.8890
4.666000 0.8890 0.8890 0.8910 0.8910 0.8910
4.699329 0.8910 0.8910 0.8910 0.8910 0.8910
4.732000 0.8910 0.8910 0.8910 0.8910 0.8910
4.765329 0.8910 0.8920 0.8920 0.8920 0.8920
4.799000 0.8920 0.8920 0.8920 0.8920 0.8920
4.832329 0.8920 0.8920 0.8920 0.8920 0.8920
4.866000 0.8940 0.8940 0.8920 0.8920 0.8920
4.899329 0.8940 0.8940 0.8940 0.8960 0.8960
4.932000 0.8960 0.8960 0.8960 0.8960 0.8970
4.965329 0.8990 0.8990 0.8990 0.8990 0.9010
4.999000 0.9010 0.9010 0.9010 0.9030 0.9030
5.032329 0.9040 0.9030 0.9030 0.9030 0.9030
5.065000 0.9030 0.9030 0.9030 0.9030 0.9030
5.098329 0.9030 0.9040 0.9040 0.9040 0.9040
5.132000 0.9040 0.9060 0.9060 0.9060 0.9060
5.165329 0.9060 0.9060 0.9060 0.9060 0.9080
5.199000 0.9080 0.9080 0.9080 0.9080 0.9080
5.232329 0.9090 0.9090 0.9090 0.9090 0.9110
5.265000 0.9110 0.9110 0.9110 0.9110 0.9110
5.298329 0.9110 0.9110 0.9110 0.9110 0.9110
5.332000 0.9110 0.9110 0.9110 0.9110 0.9110
5.365329 0.9110 0.9110 0.9110 0.9110 0.9110
5.399000 0.9110 0.9110 0.9130 0.9130 0.9140
5.432329 0.9140 0.9140 0.9140 0.9140 0.9160
5.465000 0.9160 0.9160 0.9160 0.9160 0.9160
5.498329 0.9160 0.9160 0.9180 0.9190 0.9190
5.532000 0.9210 0.9210 0.9210 0.9210 0.9230
5.565329 0.9230 0.9230 0.9230 0.9230 0.9240
5.598000 0.9260 0.9260 0.9260 0.9280 0.9280
5.631329 0.9280 0.9280 0.9290 0.9260 0.9230
5.665000 0.9190 0.9140 0.9010 0.8940 0.8910
5.698329 0.8890 0.8910 0.8920 0.8920 0.8960
5.732000 0.9010 0.9060 0.9110 0.9140 0.9190
5.765329 0.9190 0.9230 0.9240 0.9240 0.9260
5.798000 0.9280 0.9290 0.9310 0.9330 0.9340
5.831329 0.9340 0.9360 0.9360 0.9390 0.9390
5.865000 0.9410 0.9410 0.9410 0.9410 0.9430
5.898329 0.9430 0.9440 0.9440 0.9440 0.9460
5.932000 0.9460 0.9460 0.9460 0.9460 0.9480
5.965329 0.9480 0.9480 0.9480 0.9480 0.9460
5.998000 0.9480 0.9460 0.9460 0.9460 0.9440
6.031329 0.9440 0.9430 0.9430 0.9430 0.9430
6.065000 0.9440 0.9440 0.9440 0.9440 0.9440
6.098329 0.9440 0.9440 0.9440 0.9440 0.9440
6.131000 0.9460 0.9460 0.9460 0.9460 0.9480
6.164329 0.9490 0.9480 0.9480 0.9480 0.9480
6.198000 0.9480 0.9480 0.9480 0.9480 0.9460
6.231329 0.9460 0.9460 0.9440 0.9440 0.9430
6.265000 0.9410 0.9390 0.9380 0.9360 0.9360
6.298329 0.9360 0.9340 0.9340 0.9330 0.9330
6.331000 0.9310 0.9290 0.9280 0.9260 0.9260
6.364329 0.9210 0.9210 0.9180 0.9160 0.9140
6.398000 0.9140 0.9140 0.9130 0.9130 0.9130
6.431329 0.9110 0.9110 0.9090 0.9090 0.9080
6.465000 0.9080 0.9060 0.9060 0.9060 0.9060
6.498329 0.9060 0.9060 0.9060 0.9060 0.9040
6.531000 0.9040 0.9040 0.9030 0.9030 0.9030
6.564329 0.9010 0.8990 0.8970 0.8970 0.8960
6.598000 0.8940 0.8890 0.8840 0.8810 0.8790
6.631329 0.8770 0.8720 0.8710 0.8690 0.8660
6.664000 0.8620 0.8590 0.8570 0.8560 0.8510
6.697329 0.8490 0.8440 0.8370 0.8340 0.8260
6.731000 0.8190 0.8070 0.7990 0.7800 0.7670
6.764329 0.7500 0.7320 0.7190 0.7050 0.6750
6.798000 0.6650 0.6580 0.6530 0.6350 0.6270
6.831329 0.6000 0.5850 0.5730 0.5700 0.5660
6.864000 0.5550 0.5450 0.5310 0.5200 0.5080
6.897329 0.4960 0.4760 0.4610 0.4510 0.4330
6.931000 0.4260 0.4180 0.3960 0.3810 0.3690
6.964329 0.3540 0.3460 0.3170 0.3060 0.2950
6.998000 0.2900 0.2820 0.2740 0.2620 0.2500
7.031329 0.2350 0.1980 0.1600 0.1500 0.1380
7.064000 0.1250 0.1070 0.0850 0.0710 0.0650
7.097329 0.0580 0.0550 0.0510 0.0460 0.0450
7.131000 0.0430 0.0410 0.0380 0.0330 0.0310
7.164329 0.0260 0.0230 0.0180 0.0160 0.0130
7.197000 0.0080 0.0050 0.0050 0.0030 0.0030
7.230329 0.0030 0.0030 0.0100 0.0130 0.0230
7.264000 0.0330 0.0630 0.0860 0.1030 0.1170
7.297329 0.1280 0.1630 0.1920 0.2270 0.2450
7.331000 0.2550 0.2750 0.3040 0.3290 0.3490
7.364329 0.3790 0.4130 0.4530 0.4780 0.4960
7.397000 0.5150 0.5330 0.5480 0.5610 0.5700
7.430329 0.5850 0.5950 0.6050 0.6170 0.6280
7.464000 0.6400 0.6480 0.6580 0.6650 0.6730
7.497329 0.6800 0.6870 0.6980 0.7040 0.7100
7.531000 0.7220 0.7270 0.7340 0.7390 0.7420
7.564329 0.7470 0.7520 0.7570 0.7600 0.7650
7.597000 0.7720 0.7750 0.7800 0.7840 0.7870
7.630329 0.7890 0.7920 0.7970 0.8010 0.8020
7.664000 0.8040 0.8060 0.8110 0.8140 0.8170
7.697329 0.8190 0.8220 0.8240 0.8270 0.8310
7.730000 0.8320 0.8360 0.8410 0.8440 0.8490
7.763329 0.8510 0.8520 0.8540 0.8560 0.8610
7.797000 0.8620 0.8660 0.8670 0.8690 0.8710
7.830329 0.8720 0.8740 0.8760 0.8770 0.8810
7.864000 0.8820 0.8820 0.8840 0.8860 0.8870
7.897329 0.8890 0.8940 0.8960 0.8970 0.8990
7.930000 0.8990 0.9010 0.9010 0.9030 0.9040
7.963329 0.9060 0.9060 0.9090 0.9090 0.9110
7.997000 0.9110 0.9130 0.9130 0.9140 0.9140
8.030329 0.9160 0.9160 0.9180 0.9180 0.9180
8.064000 0.9190 0.9210 0.9210 0.9230 0.9240
8.097329 0.9240 0.9240 0.9260 0.9260 0.9260
8.130000 0.9260 0.9260 0.9260 0.9280 0.9280
8.163329 0.9290 0.9290 0.9290 0.9310 0.9310
8.197000 0.9310 0.9330 0.9340 0.9340 0.9360
8.230329 0.9360 0.9360 0.9360 0.9360 0.9360
8.263000 0.9360 0.9380 0.9380 0.9380 0.9390
8.296329 0.9390 0.9410 0.9410 0.9410 0.9430
8.330000 0.9430 0.9430 0.9430 0.9440 0.9440
8.363329 0.9440 0.9460 0.9460 0.9460 0.9480
8.397000 0.9480 0.9480 0.9490 0.9490 0.9490
8.430329 0.9490 0.9490 0.9490 0.9490 0.9510
8.463000 0.9510 0.9510 0.9510 0.9510 0.9510
8.496329 0.9510 0.9510 0.9530 0.9530 0.9530
8.530000 0.9530 0.9530 0.9530 0.9530 0.9540
8.563329 0.9540 0.9540 0.9540 0.9540 0.9540
8.597000 0.9540 0.9540 0.9560 0.9560 0.9560
8.630329 0.9560 0.9560 0.9560 0.9560 0.9580
8.663000 0.9580 0.9580 0.9580 0.9580 0.9580
8.696329 0.9580 0.9580 0.9590 0.9590 0.9590
8.730000 0.9590 0.9590 0.9590 0.9590 0.9590
8.763329 0.9590 0.9610 0.9610 0.9610 0.9610
8.796000 0.9630 0.9630 0.9630 0.9630 0.9630
8.829329 0.9630 0.9640 0.9640 0.9640 0.9640
8.863000 0.9640 0.9640 0.9660 0.9660 0.9660
8.896329 0.9660 0.9660 0.9660 0.9680 0.9680
8.930000 0.9680 0.9680 0.9680 0.9680 0.9690
8.963329 0.9690 0.9690 0.9690 0.9710 0.9710
8.996000 0.9710 0.9710 0.9710 0.9710 0.9710
9.029329 0.9710 0.9710 0.9710 0.9710 0.9730
9.063000 0.9730 0.9730 0.9730 0.9730 0.9730
9.096329 0.9730 0.9740 0.9740 0.9740 0.9740
9.130000 0.9740 0.9740 0.9740 0.9740 0.9760
9.163329 0.9760 0.9760 0.9760 0.9760 0.9760
9.196000 0.9760 0.9760 0.9780 0.9780 0.9780
9.229329 0.9780 0.9780 0.9790 0.9790 0.9790
9.263000 0.9790 0.9790 0.9790 0.9810 0.9810
9.296329 0.9810 0.9810 0.9810 0.9810 0.9810
9.329000 0.9830 0.9830 0.9830 0.9830 0.9830
9.362329 0.9830 0.9830 0.9840 0.9840 0.9840
9.396000 0.9840 0.9840 0.9840 0.9840 0.9840
9.429329 0.9840 0.9840 0.9860 0.9860 0.9860
9.463000 0.9860 0.9860 0.9860 0.9860 0.9860
9.496329 0.9860 0.9880 0.9880 0.9880 0.9880
9.529000 0.9880 0.9880 0.9880 0.9880 0.9880
9.562329 0.9880 0.9880 0.9880 0.9880 0.9880
9.596000 0.9880 0.9880 0.9880 0.9880 0.9880
9.629329 0.9880 0.9880 0.9880 0.9880 0.9880
9.663000 0.9880 0.9880 0.9880 0.9880 0.9890
9.696329 0.9890 0.9890 0.9890 0.9890 0.9890
9.729000 0.9890 0.9890 0.9890 0.9890 0.9890
9.762329 0.9890 0.9890 0.9890 0.9890 0.9890
9.796000 0.9890 0.9890 0.9890 0.9910 0.9910
9.829329 0.9910 0.9890 0.9890 0.9910 0.9910
9.863000 0.9910 0.9910 0.9910 0.9910 0.9910
9.896329 0.9910 0.9910 0.9910 0.9910 0.9910
9.929000 0.9910 0.9930 0.9940 0.9940 0.9960
9.962329 0.9960 0.9960 0.9960 0.9980 0.9980
9.996000 0.9980 0.9980 0.9980 0.9980 0.9980
10.029329 0.9980 0.9980 0.9980 0.9980 0.9980
10.062000 0.9980 0.9980 0.9980 0.9980 0.9980
10.095329 0.9980 0.9980 0.9980 0.9980 0.9980
10.129000 0.9980 0.9980 0.9980 0.9980 0.9980
10.162329 0.9980 0.9980 0.9980 0.9980 1.0000
10.196000 1.0000 1.0000 1.0000 1.0000 1.0000
10.229329 1.0000 1.0000 1.0000 1.0000 1.0000
10.262000 1.0000 1.0000 1.0000 1.0000 1.0000
10.295329 1.0000 1.0000 1.0000 1.0000 1.0000
10.329000 1.0000 1.0000 1.0000 1.0000 1.0000
10.362329 1.0000 1.0000 1.0000 1.0000 1.0000
10.396000 1.0000 1.0000 1.0000 1.0000 1.0000
10.429329 1.0000 1.0000 1.0000 1.0000 1.0000
10.462000 1.0000 1.0000 1.0000 1.0000 1.0010
10.495329 1.0010 1.0010 1.0010 1.0010 1.0010
10.529000 1.0010 1.0010 1.0010 1.0010 1.0010
10.562329 1.0010 1.0010 1.0010 1.0010 1.0010
10.595000 1.0010 1.0010 1.0010 1.0010 1.0010
10.628329 1.0010 1.0010 1.0010 1.0010 1.0010
10.662000 1.0010 1.0010 1.0010 1.0010 1.0010
10.695329 1.0010 1.0010 1.0010 1.0010 1.0010
10.729000 1.0010 1.0010 1.0010 1.0010 1.0010
10.762329 1.0010 1.0010 1.0010 1.0010 1.0010
10.795000 1.0010 1.0010 1.0010 1.0010 1.0010
10.828329 1.0010 1.0010 1.0010 1.0010 1.0010
10.862000 1.0010 1.0010 1.0010 1.0010 1.0010
10.895329 1.0010 1.0010 1.0010 1.0010 1.0010
10.929000 1.0010 1.0010 1.0010 1.0030 1.0030
10.962329 1.0030 1.0030 1.0030 1.0030 1.0030
10.995000 1.0030 1.0030 1.0030 1.0030 1.0030
11.028329 1.0030 1.0030 1.0030 1.0030 1.0030
11.062000 1.0030 1.0030 1.0030 1.0010 1.0010
11.095329 1.0010 1.0010 1.0010 1.0010 1.0010
11.128000 1.0010 1.0010 1.0010 1.0010 1.0030
11.161329 1.0030 1.0030 1.0030 1.0030 1.0030
11.195000 1.0030 1.0030 1.0030 1.0030 1.0030
11.228329 1.0030 1.0030 1.0030 1.0030 1.0030
11.262000 1.0030 1.0030 1.0030 1.0030 1.0030
11.295329 1.0030 1.0030 1.0030 1.0030 1.0030
11.328000 1.0030 1.0030 1.0030 1.0030 1.0030
11.361329 1.0030 1.0030 1.0030 1.0030 1.0030
11.395000 1.0030 1.0030 1.0030 1.0030 1.0030
11.428329 1.0030 1.0030 1.0030 1.0030 1.0030
11.462000 1.0030 1.0030 1.0010 1.0010 1.0010
11.495329 1.0010 1.0010 1.0010 1.0010 1.0010
11.528000 1.0010 1.0010 1.0010 1.0010 1.0010
11.561329 1.0010 1.0010 1.0010 1.0010 1.0010
11.595000 1.0010 1.0010 1.0000 1.0000 1.0000
11.628329 1.0000 1.0000 1.0000 1.0000 1.0000
11.661000 1.0000 1.0000 1.0000 1.0000 1.0000
11.694329 1.0000 1.0000 1.0000 1.0000 1.0000
11.728000 1.0000 1.0000 0.9980 0.9980 0.9980
11.761329 0.9980 0.9980 0.9980 0.9980 0.9980
11.795000 0.9980 0.9980 0.9980 0.9980 0.9980
11.828329 1.0000 1.0000 1.0000 1.0000 1.0000
11.861000 1.0000 1.0000 1.0000 1.0000 1.0000
11.894329 1.0000 1.0000 1.0000 1.0000 0.9980
11.928000 0.9980 0.9960 0.9960 0.9940 0.9960
11.961329 0.9940 0.9930 0.9910 0.9890 0.9880
11.995000 0.9860 0.9810 0.9760 0.9190 0.8840
12.028329 0.8670 0.8490 0.7970 0.7440 0.7050
12.061000 0.6650 0.6630 0.6630 0.6670 0.7000
12.094329 0.7140 0.7570 0.7970 0.8070 0.8260
12.128000 0.8440 0.8810 0.8960 0.9080 0.9180
12.161329 0.9260 0.9330 0.9380 0.9440 0.9490
12.194000 0.9560 0.9630 0.9660 0.9690 0.9730
12.227329 0.9740 0.9780 0.9810 0.9830 0.9840
12.261000 0.9860 0.9860 0.9890 0.9910 0.9910
12.294329 0.9930 0.9940 0.9940 0.9960 0.9960
12.328000 0.9980 0.9980 0.9980 1.0000 1.0000
12.361329 1.0000 1.0000 1.0000 1.0000 1.0000
12.394000 1.0000 1.0000 1.0000 1.0000 1.0000
12.427329 1.0000 1.0000 1.0000 1.0000 1.0000
12.461000 1.0000 0.9980 0.9980 0.9980 0.9980
12.494329 0.9980 0.9980 0.9980 0.9980 0.9980
12.528000 0.9980 0.9980 0.9980 0.9980 0.9980
12.561329 0.9980 0.9980 0.9980 0.9980 0.9980
12.594000 0.9980 0.9980 0.9980 0.9980 0.9980
12.627329 1.0000 1.0000 1.0000 1.0000 1.0000
12.661000 1.0000 1.0000 1.0000 1.0000 1.0000
12.694329 1.0000 1.0000 1.0000 1.0000 1.0000
12.727000 1.0000 1.0000 1.0000 1.0000 1.0000
12.760329 1.0000 1.0000 1.0000 1.0000 1.0000
12.794000 1.0000 1.0000 1.0000 1.0000 1.0000
12.827329 1.0000 1.0000 1.0000 1.0000 1.0000
12.861000 1.0000 1.0000 1.0000 1.0000 1.0000
12.894329 1.0000 1.0000 1.0000 1.0000 1.0000
12.927000 1.0000 1.0000 1.0000 1.0000 1.0010
12.960329 1.0010 1.0010 1.0010 1.0010 1.0010
12.994000 1.0010 1.0010 1.0010 1.0010 1.0000
13.027329 1.0000 1.0000 1.0000 0.9980 0.9980
13.061000 0.9980 0.9980 0.9960 0.9960 0.9960
13.094329 0.9960 0.9960 0.9960 0.9940 0.9940
13.127000 0.9940 0.9940 0.9940 0.9940 0.9930
13.160329 0.9930 0.9930 0.9930 0.9930 0.9930
13.194000 0.9930 0.9930 0.9930 0.9910 0.9910
13.227329 0.9910 0.9890 0.9890 0.9890 0.9880
13.260000 0.9880 0.9880 0.9860 0.9860 0.9860
13.293329 0.9840 0.9840 0.9840 0.9830 0.9830
13.327000 0.9830 0.9810 0.9810 0.9810 0.9790
13.360329 0.9790 0.9790 0.9780 0.9780 0.9780
13.394000 0.9760 0.9760 0.9760 0.9740 0.9740
13.427329 0.9740 0.9730 0.9730 0.9730 0.9710
13.460000 0.9690 0.9690 0.9680 0.9680 0.9660
13.493329 0.9660 0.9640 0.9640 0.9630 0.9630
13.527000 0.9610 0.9610 0.9590 0.9580 0.9580
13.560329 0.9560 0.9560 0.9540 0.9530 0.9530
13.594000 0.9530 0.9530 0.9510 0.9490 0.9490
13.627329 0.9480 0.9480 0.9460 0.9460 0.9440
13.660000 0.9440 0.9430 0.9430 0.9390 0.9390
13.693329 0.9360 0.9340 0.9340 0.9340 0.9330
13.727000 0.9310 0.9310 0.9310 0.9290 0.9290
13.760329 0.9280 0.9260 0.9260 0.9260 0.9240
13.793000 0.9240 0.9230 0.9230 0.9210 0.9190
13.826329 0.9190 0.9190 0.9180 0.9180 0.9160
13.860000 0.9160 0.9160 0.9140 0.9140 0.9130
13.893329 0.9130 0.9130 0.9110 0.9110 0.9090
13.927000 0.9090 0.9090 0.9090 0.9090 0.9080
13.960329 0.9090 0.9090 0.9090 0.9090 0.9080
13.993000 0.9080 0.9080 0.9080 0.9080 0.9060
14.026329 0.9040 0.9040 0.9040 0.9030 0.9030
14.060000 0.9010 0.9010 0.9010 0.8990 0.8990
14.093329 0.8970 0.8960 0.8970 0.8960 0.8960
14.127000 0.8940 0.8940 0.8920 0.8920 0.8910
14.160329 0.8910 0.8890 0.8890 0.8870 0.8870
14.193000 0.8860 0.8840 0.8820 0.8820 0.8820
14.226329 0.8820 0.8810 0.8810 0.8790 0.8770
14.260000 0.8770 0.8760 0.8740 0.8740 0.8740
14.293329 0.8720 0.8720 0.8720 0.8710 0.8710
14.326000 0.8690 0.8670 0.8670 0.8660 0.8640
14.359329 0.8660 0.8640 0.8640 0.8640 0.8640
14.393000 0.8620 0.8610 0.8590 0.8570 0.8570
14.426329 0.8570 0.8560 0.8560 0.8540 0.8540
14.460000 0.8540 0.8520 0.8510 0.8510 0.8490
14.493329 0.8490 0.8470 0.8460 0.8460 0.8440
14.526000 0.8420 0.8420 0.8410 0.8390 0.8390
14.559329 0.8370 0.8370 0.8360 0.8360 0.8340
14.593000 0.8340 0.8320 0.8320 0.8310 0.8310
14.626329 0.8290 0.8290 0.8270 0.8270 0.8270
14.660000 0.8260 0.8240 0.8240 0.8220 0.8210
14.693329 0.8210 0.8190 0.8160 0.8160 0.8140
14.726000 0.8140 0.8120 0.8110 0.8090 0.8090
14.759329 0.8070 0.8070 0.8060 0.8040 0.8040
14.793000 0.8020 0.8020 0.8010 0.8010 0.7990
14.826329 0.7990 0.7970 0.7970 0.7950 0.7950
14.859000 0.7940 0.7940 0.7940 0.7900 0.7890
14.892329 0.7870 0.7870 0.7850 0.7850 0.7840
14.926000 0.7840 0.7820 0.7820 0.7800 0.7800
14.959329 0.7800 0.7800 0.7770 0.7770 0.7750
14.993000 0.7750 0.7750 0.7750 0.7740 0.7740
15.026329 0.7720 0.7720 0.7700 0.7690 0.7690
15.059000 0.7670 0.7650 0.7640 0.7640 0.7640
15.092329 0.7640 0.7620 0.7620 0.7600 0.7600
15.126000 0.7590 0.7590 0.7570 0.7570 0.7570
15.159329 0.7570 0.7570 0.7570 0.7540 0.7540
15.193000 0.7540 0.7540 0.7540 0.7540 0.7540
15.226329 0.7540 0.7540 0.7520 0.7540 0.7520
15.259000 0.7520 0.7500 0.7500 0.7500 0.7500
15.292329 0.7490 0.7490 0.7470 0.7470 0.7470
15.326000 0.7470 0.7450 0.7450 0.7450 0.7450
15.359329 0.7450 0.7450 0.7450 0.7440 0.7440
15.392000 0.7440 0.7440 0.7440 0.7440 0.7440
15.425329 0.7440 0.7440 0.7440 0.7440 0.7440
15.459000 0.7440 0.7440 0.7440 0.7440 0.7440
15.492329 0.7440 0.7440 0.7420 0.7420 0.7420
15.526000 0.7420 0.7420 0.7420 0.7420 0.7440
15.559329 0.7420 0.7420 0.7420 0.7420 0.7420
15.592000 0.7400 0.7400 0.7400 0.7400 0.7400
15.625329 0.7400 0.7400 0.7400 0.7400 0.7400
15.659000 0.7420 0.7420 0.7420 0.7420 0.7420
15.692329 0.7440 0.7450 0.7440 0.7450 0.7450
15.726000 0.7450 0.7470 0.7470 0.7470 0.7470
15.759329 0.7470 0.7470 0.7490 0.7490 0.7490
15.792000 0.7500 0.7500 0.7520 0.7540 0.7540
15.825329 0.7540 0.7550 0.7550 0.7550 0.7550
15.859000 0.7570 0.7570 0.7570 0.7590 0.7590
15.892329 0.7600 0.7600 0.7620 0.7620 0.7620
15.925000 0.7620 0.7650 0.7650 0.7670 0.7670
15.958329 0.7690 0.7700 0.7720 0.7720 0.7740
15.992000 0.7790 0.7690 0.7700 0.7720 0.7720
16.025329 0.7740
##END=
