##TITLE=Oxamide, N'-[4-(2'-mercaptoethylamino)butyl]-N-(3-pyridyl)-, dihydrochloride
##JCAMP-DX=4.24
##DATA TYPE=INFRARED SPECTRUM
##CLASS=COBLENTZ III
##ORIGIN=SOUTHERN RESEARCH INSTITUTE
##OWNER=Copyright (C) 1987 by the Coblentz Society
Collection (C) 2018 copyright by the U.S. Secretary of Commerce
on behalf of the United States of America. All rights reserved.
##DATE=1967/02/17
##NAMES=3-{N'-[4-(2'-Mercaptoethylamino)butyl]OxamidoPyridine} dihydrochloride
##MOLFORM=C13 H22 Cl2 N4 O2 S
##SOURCE REFERENCE=COBLENTZ NO. 8366
##$NIST ID=B6008366
##$NIST SOURCE=COBLENTZ
##$NIST IMAGE=cob8366
##SPECTROMETER/DATA SYSTEM=PERKIN-ELMER 521 (GRATING)
##INSTRUMENT PARAMETERS=FILTERS AT 3130, 2475, 2000, 1150, 700, 410. GRATING CHANGES: 2000, 630 CM^-^1
##STATE=SOLID (1 mg / 650 mg KBr DISC)
##SAMPLING PROCEDURE=TRANSMISSION
##RESOLUTION=2
##DATA PROCESSING=DIGITIZED BY COBLENTZ SOCIETY (BATCH II) FROM HARD COPY (ADJUSTED \addcm-1\15-12-3\)
##XUNITS=1/CM
##YUNITS=TRANSMITTANCE
##XFACTOR=1.0
##YFACTOR=1
##DELTAX=1.004301
##FIRSTX=256.903
##LASTX=4015
##FIRSTY=0.246
##MAXX=4015
##MINX=256.903
##MAXY=0.969722
##MINY=0.075096
##NPOINTS=3743
##XYDATA=(X++(Y..Y))
256.902857 0.2460 0.2483 0.2506 0.2530 0.2553
261.924360 0.2576 0.2599 0.2625 0.2651 0.2677
266.945863 0.2703 0.2728 0.2754 0.2779 0.2804
271.967366 0.2830 0.2866 0.2912 0.2959 0.3006
276.988869 0.3061 0.3118 0.3175 0.3236 0.3340
282.010372 0.3446 0.3648 0.3797 0.3877 0.3953
287.031875 0.4079 0.4436 0.4561 0.4643 0.4689
292.053378 0.4728 0.4767 0.4806 0.4846 0.4885
297.074881 0.4924 0.4963 0.5003 0.5042 0.5081
302.096384 0.5120 0.5158 0.5198 0.5237 0.5276
307.117887 0.5315 0.5354 0.5394 0.5433 0.5472
312.139390 0.5511 0.5550 0.5590 0.5629 0.5668
317.160893 0.5707 0.5746 0.5809 0.5843 0.5865
322.182396 0.5875 0.5884 0.5885 0.5882 0.5879
327.203899 0.5876 0.5873 0.5870 0.5867 0.5880
332.225402 0.5904 0.5940 0.5981 0.6021 0.6063
337.246905 0.6106 0.6155 0.6203 0.6247 0.6292
342.268408 0.6336 0.6379 0.6422 0.6463 0.6504
347.289911 0.6545 0.6596 0.6721 0.6840 0.6942
352.311414 0.7059 0.7176 0.7283 0.7369 0.7452
357.332917 0.7510 0.7562 0.7615 0.7668 0.7712
362.354420 0.7743 0.7771 0.7795 0.7816 0.7835
367.375923 0.7854 0.7871 0.7885 0.7897 0.7910
372.397426 0.7922 0.7934 0.7947 0.7955 0.7962
377.418929 0.7968 0.7975 0.7981 0.7988 0.7994
382.440432 0.8000 0.8007 0.8011 0.8015 0.8018
387.461935 0.8022 0.8026 0.8030 0.8033 0.8037
392.483438 0.8041 0.8044 0.8047 0.8049 0.8050
397.504941 0.8051 0.8053 0.8054 0.8056 0.8054
402.526444 0.8052 0.8049 0.8046 0.8043 0.8036
407.547947 0.8024 0.8011 0.7999 0.7976 0.7951
412.569450 0.7925 0.7885 0.7844 0.7828 0.7825
417.590953 0.7852 0.7896 0.7966 0.8040 0.8099
422.612456 0.8151 0.8178 0.8195 0.8212 0.8227
427.633959 0.8240 0.8248 0.8250 0.8251 0.8273
432.655462 0.8257 0.8248 0.8246 0.8244 0.8239
437.676965 0.8229 0.8218 0.8206 0.8193 0.8179
442.698468 0.8164 0.8149 0.8134 0.8115 0.8091
447.719971 0.8065 0.8038 0.7989 0.7958 0.7953
452.741474 0.7971 0.8011 0.8056 0.8087 0.8110
457.762977 0.8122 0.8130 0.8133 0.8135 0.8130
462.784480 0.8119 0.8101 0.8037 0.7940 0.7837
467.805983 0.7734 0.7631 0.7528 0.7424 0.7321
472.827486 0.7110 0.6992 0.6974 0.6971 0.6961
477.848989 0.6975 0.7146 0.7291 0.7377 0.7448
482.870492 0.7502 0.7548 0.7591 0.7632 0.7682
487.891995 0.7738 0.7800 0.7866 0.7934 0.8000
492.913498 0.8048 0.8089 0.8124 0.8151 0.8176
497.935001 0.8198 0.8218 0.8235 0.8251 0.8261
502.956504 0.8261 0.8261 0.8255 0.8244 0.8228
507.978007 0.8207 0.8183 0.8149 0.8097 0.8027
512.999510 0.7961 0.7886 0.7760 0.7600 0.7437
518.021013 0.7275 0.7111 0.6948 0.6785 0.6621
523.042516 0.6491 0.6440 0.6549 0.6784 0.7049
528.064019 0.7315 0.7581 0.7846 0.8064 0.8176
533.085522 0.8216 0.8235 0.8249 0.8254 0.8255
538.107025 0.8256 0.8255 0.8251 0.8244 0.8232
543.128528 0.8209 0.8181 0.8153 0.8126 0.8095
548.150031 0.8055 0.8016 0.7981 0.7942 0.7885
553.171534 0.7772 0.7625 0.7477 0.7331 0.7184
558.193037 0.7036 0.6889 0.6755 0.6673 0.6651
563.214540 0.6702 0.6842 0.7019 0.7195 0.7372
568.236043 0.7549 0.7726 0.7902 0.8072 0.8163
573.257546 0.8192 0.8218 0.8242 0.8260 0.8275
578.279049 0.8288 0.8293 0.8297 0.8298 0.8291
583.300552 0.8283 0.8273 0.8261 0.8249 0.8237
588.322055 0.8225 0.8212 0.8200 0.8188 0.8175
593.343558 0.8162 0.8147 0.8132 0.8117 0.8102
598.365061 0.8087 0.8073 0.8058 0.8043 0.8031
603.386564 0.8022 0.8012 0.8002 0.7993 0.7983
608.408067 0.7970 0.7946 0.7896 0.7765 0.7572
613.429570 0.7378 0.7184 0.6990 0.6797 0.6604
618.451073 0.6410 0.6234 0.6155 0.6249 0.6718
623.472576 0.7480 0.8098 0.8357 0.8393 0.8422
628.494079 0.8441 0.8451 0.8457 0.8458 0.8458
633.515582 0.8459 0.8458 0.8455 0.8440 0.8435
638.537085 0.8447 0.8444 0.8441 0.8435 0.8427
643.558588 0.8419 0.8411 0.8402 0.8390 0.8376
648.580091 0.8362 0.8345 0.8328 0.8311 0.8290
653.601594 0.8263 0.8164 0.8007 0.7895 0.7792
658.623097 0.7705 0.7636 0.7570 0.7508 0.7446
663.644600 0.7392 0.7263 0.6965 0.6600 0.6236
668.666103 0.5871 0.5506 0.5141 0.4798 0.4617
673.687606 0.4617 0.5042 0.5861 0.6386 0.6910
678.709109 0.7434 0.7970 0.8312 0.8348 0.8370
683.730612 0.8381 0.8380 0.8375 0.8379 0.8373
688.752115 0.8365 0.8355 0.8346 0.8335 0.8321
693.773618 0.8307 0.8291 0.8272 0.8250 0.8226
698.795121 0.8203 0.8182 0.8158 0.8126 0.8094
703.816624 0.8063 0.8031 0.8000 0.7968 0.7937
708.838127 0.7905 0.7873 0.7842 0.7810 0.7779
713.859630 0.7747 0.7716 0.7684 0.7653 0.7621
718.881133 0.7590 0.7558 0.7526 0.7487 0.7428
723.902636 0.7367 0.7314 0.7268 0.7235 0.7204
728.924139 0.7170 0.7127 0.7085 0.7055 0.7030
733.945642 0.7010 0.6991 0.6974 0.6960 0.6941
738.967145 0.6913 0.6870 0.6815 0.6757 0.6647
743.988648 0.6475 0.6380 0.6284 0.6180 0.6066
749.010151 0.5966 0.5893 0.5834 0.5793 0.5760
754.031654 0.5733 0.5712 0.5690 0.5670 0.5651
759.053157 0.5627 0.5596 0.5568 0.5548 0.5575
764.074660 0.5747 0.6019 0.6290 0.6561 0.6832
769.096163 0.7064 0.7190 0.7293 0.7364 0.7462
774.117666 0.7588 0.7713 0.7804 0.7877 0.7940
779.139169 0.7989 0.8032 0.8053 0.8069 0.8087
784.160672 0.8099 0.8092 0.8077 0.8069 0.8064
789.182175 0.7968 0.7921 0.7872 0.7799 0.7632
794.203678 0.7358 0.7236 0.7107 0.6963 0.6800
799.225181 0.6552 0.6189 0.5826 0.5463 0.5100
804.246684 0.4643 0.4054 0.4084 0.4094 0.4344
809.268187 0.4844 0.5345 0.5845 0.6346 0.6846
814.289690 0.7347 0.7844 0.8259 0.8385 0.8495
819.311193 0.8583 0.8635 0.8655 0.8669 0.8673
824.332696 0.8671 0.8671 0.8630 0.8606 0.8570
829.354199 0.8531 0.8483 0.8427 0.8371 0.8311
834.375702 0.8218 0.8107 0.7947 0.7746 0.7546
839.397205 0.7346 0.7145 0.6932 0.6628 0.6649
844.418708 0.6652 0.6683 0.6917 0.7212 0.7507
849.440211 0.7801 0.8057 0.8244 0.8349 0.8454
854.461714 0.8543 0.8633 0.8699 0.8750 0.8794
859.483217 0.8834 0.8855 0.8866 0.8903 0.8864
864.504720 0.8861 0.8854 0.8846 0.8834 0.8822
869.526223 0.8810 0.8797 0.8784 0.8769 0.8754
874.547726 0.8739 0.8707 0.8670 0.8630 0.8586
879.569229 0.8527 0.8409 0.8304 0.8202 0.8170
884.590732 0.8162 0.8132 0.8228 0.8397 0.8527
889.612235 0.8606 0.8629 0.8636 0.8635 0.8631
894.633738 0.8626 0.8614 0.8598 0.8576 0.8547
899.655241 0.8513 0.8491 0.8483 0.8485 0.8489
904.676744 0.8566 0.8690 0.8813 0.8870 0.8890
909.698247 0.8895 0.8895 0.8888 0.8890 0.8865
914.719750 0.8844 0.8825 0.8805 0.8783 0.8760
919.741253 0.8743 0.8736 0.8737 0.8740 0.8742
924.762756 0.8737 0.8714 0.8680 0.8648 0.8618
929.784259 0.8593 0.8575 0.8564 0.8556 0.8547
934.805762 0.8547 0.8551 0.8559 0.8570 0.8588
939.827265 0.8606 0.8617 0.8612 0.8596 0.8577
944.848768 0.8552 0.8527 0.8502 0.8477 0.8447
949.870271 0.8416 0.8392 0.8375 0.8367 0.8370
954.891774 0.8381 0.8394 0.8406 0.8414 0.8417
959.913277 0.8417 0.8415 0.8413 0.8407 0.8399
964.934780 0.8378 0.8350 0.8319 0.8275 0.8221
969.956283 0.8163 0.8105 0.8047 0.7989 0.7932
974.977786 0.7874 0.7816 0.7758 0.7701 0.7635
979.999289 0.7544 0.7490 0.7488 0.7515 0.7554
985.020792 0.7592 0.7631 0.7665 0.7696 0.7723
990.042295 0.7742 0.7753 0.7751 0.7741 0.7726
995.063798 0.7701 0.7670 0.7640 0.7609 0.7574
1000.085301 0.7539 0.7510 0.7484 0.7460 0.7438
1005.106804 0.7418 0.7359 0.7237 0.7091 0.6945
1010.128307 0.6836 0.6793 0.6776 0.6756 0.6737
1015.149810 0.6716 0.6663 0.6541 0.6380 0.6248
1020.171313 0.6200 0.6207 0.6332 0.6575 0.6757
1025.192816 0.6939 0.7121 0.7278 0.7356 0.7369
1030.214319 0.7368 0.7355 0.7328 0.7288 0.7239
1035.235822 0.7170 0.7084 0.6998 0.6912 0.6826
1040.257325 0.6739 0.6654 0.6568 0.6483 0.6416
1045.278828 0.6387 0.6382 0.6382 0.6377 0.6374
1050.300331 0.6394 0.6412 0.6475 0.6613 0.6758
1055.321834 0.6901 0.7068 0.7260 0.7334 0.7396
1060.343337 0.7452 0.7511 0.7577 0.7642 0.7705
1065.364840 0.7762 0.7787 0.7814 0.7839 0.7849
1070.386343 0.7860 0.7869 0.7879 0.7887 0.7895
1075.407846 0.7903 0.7906 0.7908 0.7910 0.7911
1080.429348 0.7891 0.7898 0.7901 0.7897 0.7891
1085.450851 0.7885 0.7878 0.7867 0.7853 0.7839
1090.472354 0.7824 0.7807 0.7790 0.7771 0.7753
1095.493857 0.7733 0.7711 0.7690 0.7669 0.7648
1100.515360 0.7626 0.7605 0.7583 0.7560 0.7537
1105.536863 0.7513 0.7491 0.7467 0.7445 0.7423
1110.558366 0.7402 0.7396 0.7396 0.7396 0.7396
1115.579869 0.7395 0.7394 0.7387 0.7370 0.7341
1120.601372 0.7285 0.7217 0.7124 0.7030 0.6977
1125.622875 0.6968 0.6962 0.6983 0.7044 0.7124
1130.644378 0.7239 0.7355 0.7424 0.7451 0.7461
1135.665881 0.7462 0.7456 0.7445 0.7431 0.7416
1140.687384 0.7400 0.7384 0.7367 0.7347 0.7325
1145.708887 0.7301 0.7269 0.7213 0.7141 0.7055
1150.730390 0.6959 0.6883 0.6803 0.6691 0.6511
1155.751893 0.6384 0.6271 0.6178 0.6093 0.6009
1160.773396 0.5911 0.5811 0.5631 0.5495 0.5360
1165.794899 0.5226 0.5091 0.5031 0.5104 0.5033
1170.816402 0.5436 0.5718 0.5930 0.6142 0.6353
1175.837905 0.6454 0.6482 0.6351 0.6167 0.6000
1180.859408 0.5833 0.5667 0.5500 0.5334 0.5167
1185.880911 0.5001 0.4834 0.4667 0.4576 0.4580
1190.902414 0.4692 0.4987 0.5154 0.5321 0.5488
1195.923917 0.5665 0.5894 0.6239 0.6697 0.7104
1200.945420 0.7226 0.7360 0.7536 0.7597 0.7620
1205.966923 0.7633 0.7594 0.7636 0.7621 0.7605
1210.988426 0.7582 0.7554 0.7519 0.7484 0.7436
1216.009929 0.7372 0.7258 0.7114 0.6969 0.6823
1221.031432 0.6678 0.6533 0.6423 0.6416 0.6393
1226.052935 0.6555 0.6712 0.6868 0.7025 0.7181
1231.074438 0.7287 0.7273 0.7284 0.7270 0.7243
1236.095941 0.7213 0.7165 0.7046 0.6924 0.6801
1241.117444 0.6678 0.6555 0.6465 0.6466 0.6538
1246.138947 0.6614 0.6691 0.6707 0.6676 0.6493
1251.160450 0.6303 0.6113 0.5924 0.5734 0.5544
1256.181953 0.5353 0.5163 0.4973 0.4872 0.4851
1261.203456 0.4853 0.4883 0.5326 0.5668 0.6002
1266.224959 0.6334 0.6667 0.7000 0.7334 0.7558
1271.246462 0.7588 0.7586 0.7576 0.7558 0.7540
1276.267965 0.7522 0.7501 0.7478 0.7457 0.7445
1281.289468 0.7469 0.7497 0.7525 0.7545 0.7563
1286.310971 0.7574 0.7569 0.7559 0.7537 0.7515
1291.332474 0.7484 0.7447 0.7413 0.7380 0.7346
1296.353977 0.7306 0.7260 0.7214 0.7172 0.7134
1301.375480 0.7098 0.7061 0.7028 0.6998 0.6967
1306.396983 0.6942 0.6921 0.6914 0.6932 0.6951
1311.418486 0.6969 0.6980 0.6979 0.6974 0.6966
1316.439989 0.6952 0.6920 0.6868 0.6791 0.6690
1321.461492 0.6586 0.6481 0.6377 0.6272 0.6168
1326.482995 0.6064 0.5959 0.5888 0.5898 0.5994
1331.504498 0.6099 0.6205 0.6310 0.6416 0.6444
1336.526001 0.6436 0.6417 0.6374 0.6319 0.6249
1341.547504 0.6174 0.6096 0.6007 0.5921 0.5851
1346.569007 0.5812 0.5768 0.5593 0.5422 0.5292
1351.590510 0.5155 0.4984 0.4850 0.4682 0.4495
1356.612013 0.4315 0.4188 0.4066 0.3892 0.3651
1361.633516 0.3242 0.2861 0.2753 0.2724 0.2724
1366.655019 0.2735 0.2840 0.3117 0.3420 0.3722
1371.676522 0.4024 0.4327 0.4630 0.4932 0.5122
1376.698025 0.5187 0.5235 0.5284 0.5338 0.5596
1381.719528 0.6564 0.6798 0.6849 0.6874 0.6886
1386.741031 0.6890 0.6888 0.6863 0.6860 0.6827
1391.762534 0.6747 0.6604 0.6504 0.6422 0.6347
1396.784037 0.6276 0.6227 0.6214 0.6216 0.6238
1401.805540 0.6286 0.6327 0.6339 0.6337 0.6332
1406.827043 0.6323 0.6314 0.6300 0.6285 0.6248
1411.848546 0.6199 0.6140 0.6031 0.5953 0.5842
1416.870049 0.5723 0.5624 0.5523 0.5413 0.5195
1421.891552 0.5034 0.4883 0.4777 0.4682 0.4526
1426.913055 0.4336 0.4142 0.3948 0.3754 0.3560
1431.934558 0.3366 0.3324 0.3370 0.3496 0.3635
1436.956061 0.3697 0.3703 0.3633 0.3396 0.3125
1441.977564 0.2938 0.2827 0.2765 0.2736 0.2737
1446.999067 0.2735 0.2760 0.2842 0.2926 0.3023
1452.020570 0.3109 0.3220 0.3328 0.3412 0.3476
1457.042073 0.3708 0.4090 0.4498 0.4888 0.5037
1462.063576 0.5103 0.5163 0.5198 0.5206 0.5207
1467.085079 0.5205 0.5204 0.5200 0.5205 0.5255
1472.106582 0.5311 0.5361 0.5392 0.5414 0.5423
1477.128085 0.5445 0.5430 0.5413 0.5385 0.5328
1482.149588 0.5213 0.5086 0.4958 0.4830 0.4702
1487.171091 0.4574 0.4446 0.4318 0.4190 0.4062
1492.192594 0.3934 0.3806 0.3679 0.3551 0.3423
1497.214097 0.3295 0.3167 0.3039 0.2911 0.2783
1502.235600 0.2655 0.2527 0.2399 0.2170 0.1979
1507.257103 0.1830 0.1627 0.1458 0.1371 0.1308
1512.278606 0.1291 0.1293 0.1297 0.1284 0.1407
1517.300109 0.1565 0.1720 0.1875 0.2030 0.2185
1522.321612 0.2340 0.2495 0.2650 0.2805 0.2960
1527.343115 0.3115 0.3270 0.3425 0.3521 0.3562
1532.364618 0.3577 0.3579 0.3583 0.3569 0.3522
1537.386121 0.3398 0.3252 0.3106 0.2960 0.2814
1542.407624 0.2668 0.2522 0.2377 0.2230 0.2084
1547.429127 0.1938 0.1787 0.1720 0.1695 0.1687
1552.450630 0.1695 0.1718 0.1814 0.2052 0.2331
1557.472133 0.2610 0.2888 0.3167 0.3446 0.3726
1562.493636 0.4005 0.4283 0.4580 0.4891 0.5177
1567.515139 0.5372 0.5532 0.5640 0.5713 0.5775
1572.536642 0.5837 0.5894 0.5951 0.6008 0.6065
1577.558145 0.6131 0.6248 0.6403 0.6571 0.6734
1582.579648 0.6851 0.6905 0.6943 0.6975 0.7002
1587.601151 0.7013 0.7014 0.7010 0.7015 0.6990
1592.622654 0.6967 0.6951 0.6916 0.6875 0.6834
1597.644157 0.6790 0.6735 0.6556 0.6326 0.6096
1602.665660 0.5867 0.5638 0.5408 0.5301 0.5284
1607.687163 0.5276 0.5727 0.6238 0.6511 0.6576
1612.708666 0.6576 0.6545 0.6502 0.6571 0.6466
1617.730169 0.6363 0.6317 0.6285 0.6257 0.6230
1622.751672 0.6205 0.6179 0.6158 0.6139 0.6121
1627.773175 0.6103 0.6083 0.6061 0.6040 0.6011
1632.794678 0.5974 0.5919 0.5857 0.5799 0.5733
1637.816181 0.5652 0.5549 0.5439 0.5341 0.5226
1642.837684 0.5090 0.4899 0.4561 0.4154 0.3748
1647.859187 0.3341 0.2934 0.2527 0.2153 0.1878
1652.880690 0.1588 0.1350 0.1197 0.1063 0.0923
1657.902193 0.0813 0.0765 0.0752 0.0769 0.0751
1662.923696 0.0798 0.0867 0.0982 0.1182 0.1401
1667.945199 0.1621 0.1840 0.2060 0.2279 0.2498
1672.966702 0.2718 0.2937 0.3157 0.3376 0.3595
1677.988205 0.3815 0.4034 0.4254 0.4473 0.4693
1683.009708 0.4912 0.5131 0.5351 0.5570 0.5790
1688.031211 0.6009 0.6229 0.6364 0.6394 0.6395
1693.052714 0.6395 0.6350 0.6282 0.6228 0.6175
1698.074217 0.6122 0.6068 0.6014 0.5961 0.5907
1703.095720 0.5883 0.5891 0.5873 0.5890 0.5936
1708.117223 0.5949 0.5961 0.5974 0.5988 0.6002
1713.138726 0.6017 0.6036 0.6056 0.6294 0.6785
1718.160229 0.7306 0.7785 0.8036 0.8145 0.8289
1723.181732 0.8406 0.8525 0.8666 0.8801 0.8920
1728.203235 0.9033 0.9121 0.9180 0.9220 0.9256
1733.224738 0.9292 0.9322 0.9343 0.9362 0.9381
1738.246241 0.9394 0.9400 0.9404 0.9406 0.9408
1743.267744 0.9410 0.9411 0.9416 0.9425 0.9435
1748.289247 0.9448 0.9467 0.9487 0.9509 0.9532
1753.310750 0.9553 0.9573 0.9594 0.9614 0.9635
1758.332253 0.9656 0.9677 0.9692 0.9697 0.9689
1763.353756 0.9681 0.9692 0.9688 0.9684 0.9679
1768.375259 0.9673 0.9666 0.9660 0.9654 0.9648
1773.396762 0.9642 0.9635 0.9628 0.9620 0.9612
1778.418265 0.9604 0.9597 0.9589 0.9581 0.9573
1783.439768 0.9565 0.9555 0.9545 0.9535 0.9524
1788.461271 0.9514 0.9506 0.9499 0.9493 0.9487
1793.482774 0.9482 0.9478 0.9474 0.9469 0.9465
1798.504277 0.9461 0.9457 0.9454 0.9454 0.9456
1803.525780 0.9457 0.9459 0.9461 0.9465 0.9471
1808.547283 0.9478 0.9484 0.9491 0.9499 0.9511
1813.568786 0.9523 0.9533 0.9537 0.9540 0.9542
1818.590289 0.9540 0.9535 0.9531 0.9526 0.9522
1823.611792 0.9517 0.9511 0.9501 0.9490 0.9479
1828.633295 0.9466 0.9452 0.9439 0.9425 0.9410
1833.654798 0.9393 0.9374 0.9354 0.9335 0.9316
1838.676301 0.9298 0.9279 0.9261 0.9243 0.9224
1843.697804 0.9206 0.9189 0.9173 0.9156 0.9140
1848.719307 0.9123 0.9107 0.9091 0.9076 0.9063
1853.740810 0.9049 0.9036 0.9025 0.9017 0.9011
1858.762313 0.9012 0.9014 0.9016 0.9019 0.9019
1863.783816 0.9008 0.9044 0.9053 0.9063 0.9079
1868.805319 0.9101 0.9115 0.9129 0.9142 0.9152
1873.826822 0.9163 0.9172 0.9176 0.9175 0.9174
1878.848325 0.9174 0.9173 0.9172 0.9170 0.9168
1883.869828 0.9166 0.9164 0.9166 0.9184 0.9156
1888.891331 0.9153 0.9149 0.9146 0.9143 0.9139
1893.912834 0.9135 0.9127 0.9119 0.9110 0.9102
1898.934337 0.9093 0.9085 0.9075 0.9064 0.9054
1903.955840 0.9043 0.9032 0.9022 0.9011 0.8998
1908.977343 0.8983 0.8968 0.8953 0.8937 0.8923
1913.998846 0.8907 0.8891 0.8875 0.8859 0.8843
1919.020349 0.8827 0.8802 0.8772 0.8743 0.8713
1924.041852 0.8684 0.8655 0.8626 0.8598 0.8569
1929.063355 0.8540 0.8510 0.8475 0.8436 0.8398
1934.084858 0.8359 0.8320 0.8280 0.8227 0.8166
1939.106361 0.8106 0.8052 0.8005 0.7958 0.7912
1944.127864 0.7878 0.7847 0.7838 0.7832 0.7833
1949.149367 0.7810 0.7849 0.7865 0.7894 0.7933
1954.170870 0.7972 0.8009 0.8046 0.8089 0.8153
1959.192373 0.8211 0.8262 0.8313 0.8374 0.8457
1964.213876 0.8522 0.8537 0.8542 0.8539 0.8537
1969.235379 0.8530 0.8520 0.8540 0.8501 0.8491
1974.256882 0.8476 0.8460 0.8444 0.8427 0.8403
1979.278385 0.8376 0.8349 0.8317 0.8273 0.8226
1984.299888 0.8168 0.8108 0.8113 0.8113 0.8124
1989.321391 0.8140 0.8159 0.8177 0.8200 0.8224
1994.342894 0.8248 0.8270 0.8290 0.8310 0.8330
1999.364397 0.8351 0.8372 0.8394 0.8415 0.8434
2004.385900 0.8442 0.8450 0.8459 0.8465 0.8465
2009.407403 0.8466 0.8465 0.8477 0.8453 0.8439
2014.428906 0.8426 0.8413 0.8400 0.8379 0.8354
2019.450409 0.8329 0.8304 0.8279 0.8252 0.8223
2024.471912 0.8195 0.8167 0.8140 0.8114 0.8088
2029.493415 0.8063 0.8037 0.8011 0.7985 0.7959
2034.514918 0.7933 0.7907 0.7876 0.7841 0.7804
2039.536421 0.7768 0.7732 0.7696 0.7657 0.7612
2044.557924 0.7565 0.7518 0.7470 0.7423 0.7376
2049.579427 0.7330 0.7287 0.7244 0.7201 0.7158
2054.600930 0.7115 0.7072 0.7029 0.6978 0.6913
2059.622433 0.6846 0.6778 0.6710 0.6640 0.6564
2064.643936 0.6486 0.6409 0.6331 0.6255 0.6183
2069.665439 0.6111 0.6040 0.5969 0.5895 0.5821
2074.686942 0.5746 0.5670 0.5590 0.5507 0.5415
2079.708445 0.5318 0.5238 0.5165 0.5125 0.5111
2084.729948 0.5093 0.5108 0.5225 0.5403 0.5523
2089.751451 0.5591 0.5708 0.5848 0.5990 0.6131
2094.772954 0.6272 0.6414 0.6556 0.6697 0.6826
2099.794457 0.6906 0.6987 0.7090 0.7181 0.7247
2104.815960 0.7295 0.7339 0.7387 0.7437 0.7487
2109.837463 0.7544 0.7642 0.7754 0.7869 0.7968
2114.858966 0.8029 0.8080 0.8123 0.8158 0.8191
2119.880469 0.8223 0.8243 0.8256 0.8268 0.8280
2124.901972 0.8292 0.8299 0.8301 0.8304 0.8307
2129.923475 0.8309 0.8309 0.8307 0.8310 0.8307
2134.944978 0.8304 0.8300 0.8297 0.8293 0.8289
2139.966481 0.8286 0.8282 0.8278 0.8270 0.8259
2144.987984 0.8247 0.8236 0.8225 0.8216 0.8207
2150.009487 0.8198 0.8189 0.8180 0.8171 0.8162
2155.030990 0.8151 0.8141 0.8131 0.8121 0.8110
2160.052493 0.8099 0.8087 0.8075 0.8065 0.8056
2165.073996 0.8048 0.8040 0.8032 0.8024 0.8015
2170.095499 0.8007 0.7999 0.7991 0.7982 0.7971
2175.117002 0.7960 0.7950 0.7939 0.7928 0.7917
2180.138505 0.7907 0.7896 0.7885 0.7872 0.7855
2185.160008 0.7838 0.7820 0.7803 0.7786 0.7769
2190.181511 0.7752 0.7736 0.7722 0.7709 0.7695
2195.203014 0.7682 0.7669 0.7655 0.7642 0.7629
2200.224517 0.7615 0.7602 0.7588 0.7574 0.7560
2205.246020 0.7545 0.7531 0.7516 0.7501 0.7487
2210.267523 0.7472 0.7458 0.7444 0.7429 0.7415
2215.289026 0.7400 0.7386 0.7371 0.7357 0.7342
2220.310529 0.7325 0.7309 0.7292 0.7276 0.7259
2225.332032 0.7243 0.7226 0.7210 0.7194 0.7180
2230.353535 0.7167 0.7155 0.7143 0.7138 0.7137
2235.375038 0.7137 0.7136 0.7135 0.7132 0.7126
2240.396541 0.7120 0.7114 0.7108 0.7096 0.7077
2245.418044 0.7058 0.7039 0.7020 0.7001 0.6982
2250.439547 0.6962 0.6941 0.6918 0.6896 0.6874
2255.461050 0.6851 0.6829 0.6808 0.6790 0.6773
2260.482553 0.6755 0.6738 0.6720 0.6703 0.6685
2265.504056 0.6668 0.6650 0.6632 0.6615 0.6597
2270.525559 0.6577 0.6555 0.6534 0.6512 0.6490
2275.547062 0.6469 0.6447 0.6425 0.6404 0.6382
2280.568565 0.6361 0.6339 0.6317 0.6293 0.6266
2285.590068 0.6239 0.6212 0.6185 0.6159 0.6132
2290.611571 0.6106 0.6081 0.6056 0.6032 0.6007
2295.633074 0.5982 0.5957 0.5932 0.5907 0.5884
2300.654577 0.5860 0.5837 0.5813 0.5790 0.5766
2305.676080 0.5743 0.5720 0.5696 0.5673 0.5649
2310.697583 0.5625 0.5600 0.5574 0.5549 0.5523
2315.719086 0.5497 0.5471 0.5446 0.5420 0.5394
2320.740589 0.5369 0.5343 0.5317 0.5292 0.5266
2325.762092 0.5240 0.5214 0.5188 0.5162 0.5136
2330.783595 0.5110 0.5084 0.5059 0.5033 0.5007
2335.805098 0.4981 0.4955 0.4929 0.4902 0.4871
2340.826601 0.4834 0.4798 0.4762 0.4726 0.4689
2345.848104 0.4653 0.4616 0.4577 0.4538 0.4502
2350.869607 0.4476 0.4452 0.4428 0.4404 0.4380
2355.891109 0.4360 0.4343 0.4327 0.4310 0.4294
2360.912612 0.4277 0.4261 0.4244 0.4228 0.4211
2365.934115 0.4195 0.4179 0.4162 0.4146 0.4129
2370.955618 0.4112 0.4094 0.4077 0.4059 0.4042
2375.977121 0.4024 0.4007 0.3987 0.3965 0.3943
2380.998624 0.3921 0.3899 0.3877 0.3856 0.3833
2386.020127 0.3807 0.3778 0.3749 0.3720 0.3688
2391.041630 0.3651 0.3614 0.3576 0.3536 0.3496
2396.063133 0.3457 0.3422 0.3388 0.3354 0.3321
2401.084636 0.3287 0.3254 0.3220 0.3188 0.3158
2406.106139 0.3128 0.3101 0.3081 0.3065 0.3056
2411.127642 0.3054 0.3053 0.3057 0.3061 0.3066
2416.149145 0.3074 0.3083 0.3092 0.3101 0.3111
2421.170648 0.3121 0.3132 0.3142 0.3151 0.3155
2426.192151 0.3159 0.3161 0.3156 0.3149 0.3142
2431.213654 0.3132 0.3118 0.3103 0.3085 0.3063
2436.235157 0.3042 0.3021 0.3001 0.2981 0.2961
2441.256660 0.2943 0.2926 0.2908 0.2890 0.2873
2446.278163 0.2857 0.2843 0.2833 0.2822 0.2813
2451.299666 0.2812 0.2812 0.2814 0.2821 0.2831
2456.321169 0.2840 0.2835 0.2831 0.2882 0.2898
2461.342672 0.2919 0.2947 0.2975 0.2999 0.3016
2466.364175 0.3033 0.3049 0.3059 0.3062 0.3064
2471.385678 0.3065 0.3064 0.3064 0.3062 0.3059
2476.407181 0.3054 0.3048 0.3043 0.3036 0.3029
2481.428684 0.3020 0.3011 0.3002 0.2993 0.2985
2486.450187 0.2976 0.2972 0.2973 0.2976 0.2979
2491.471690 0.2986 0.2996 0.3005 0.3015 0.3024
2496.493193 0.3034 0.3043 0.3053 0.3067 0.3086
2501.514696 0.3105 0.3125 0.3144 0.3165 0.3186
2506.536199 0.3208 0.3229 0.3252 0.3277 0.3302
2511.557702 0.3327 0.3352 0.3377 0.3398 0.3418
2516.579205 0.3438 0.3458 0.3478 0.3495 0.3508
2521.600708 0.3519 0.3531 0.3542 0.3553 0.3559
2526.622211 0.3563 0.3565 0.3567 0.3570 0.3575
2531.643714 0.3581 0.3587 0.3592 0.3601 0.3614
2536.665217 0.3630 0.3645 0.3662 0.3684 0.3708
2541.686720 0.3730 0.3745 0.3756 0.3768 0.3779
2546.708223 0.3785 0.3788 0.3792 0.3794 0.3794
2551.729726 0.3793 0.3793 0.3792 0.3791 0.3788
2556.751229 0.3784 0.3780 0.3777 0.3773 0.3769
2561.772732 0.3767 0.3769 0.3772 0.3775 0.3780
2566.794235 0.3787 0.3794 0.3800 0.3807 0.3814
2571.815738 0.3821 0.3827 0.3834 0.3841 0.3848
2576.837241 0.3855 0.3863 0.3872 0.3880 0.3888
2581.858744 0.3896 0.3904 0.3912 0.3920 0.3926
2586.880247 0.3932 0.3937 0.3943 0.3948 0.3954
2591.901750 0.3957 0.3954 0.3948 0.3949 0.3946
2596.923253 0.3944 0.3939 0.3933 0.3928 0.3922
2601.944756 0.3917 0.3911 0.3906 0.3900 0.3895
2606.966259 0.3889 0.3884 0.3878 0.3872 0.3872
2611.987762 0.3874 0.3875 0.3878 0.3882 0.3887
2617.009265 0.3892 0.3897 0.3903 0.3909 0.3905
2622.030768 0.3901 0.3898 0.3894 0.3887 0.3881
2627.052271 0.3874 0.3868 0.3859 0.3847 0.3835
2632.073774 0.3823 0.3811 0.3799 0.3788 0.3777
2637.095277 0.3766 0.3755 0.3743 0.3728 0.3714
2642.116780 0.3700 0.3686 0.3669 0.3652 0.3635
2647.138283 0.3617 0.3599 0.3582 0.3562 0.3532
2652.159786 0.3499 0.3465 0.3434 0.3410 0.3386
2657.181289 0.3364 0.3351 0.3341 0.3332 0.3322
2662.202792 0.3314 0.3314 0.3317 0.3319 0.3322
2667.224295 0.3328 0.3335 0.3342 0.3348 0.3355
2672.245798 0.3362 0.3369 0.3378 0.3392 0.3408
2677.267301 0.3424 0.3440 0.3454 0.3468 0.3483
2682.288804 0.3495 0.3503 0.3509 0.3515 0.3521
2687.310307 0.3526 0.3529 0.3532 0.3535 0.3538
2692.331810 0.3540 0.3541 0.3539 0.3538 0.3536
2697.353313 0.3535 0.3534 0.3532 0.3531 0.3531
2702.374816 0.3530 0.3530 0.3529 0.3528 0.3528
2707.396319 0.3527 0.3527 0.3526 0.3526 0.3527
2712.417822 0.3529 0.3530 0.3532 0.3533 0.3535
2717.439325 0.3536 0.3538 0.3540 0.3541 0.3543
2722.460828 0.3546 0.3550 0.3554 0.3560 0.3566
2727.482331 0.3572 0.3578 0.3584 0.3590 0.3596
2732.503834 0.3602 0.3608 0.3614 0.3620 0.3627
2737.525337 0.3633 0.3639 0.3646 0.3652 0.3659
2742.546840 0.3665 0.3671 0.3678 0.3685 0.3695
2747.568343 0.3705 0.3715 0.3725 0.3735 0.3744
2752.589846 0.3753 0.3762 0.3771 0.3779 0.3788
2757.611349 0.3797 0.3807 0.3816 0.3824 0.3833
2762.632852 0.3843 0.3852 0.3859 0.3863 0.3865
2767.654355 0.3868 0.3870 0.3864 0.3854 0.3844
2772.675858 0.3835 0.3825 0.3816 0.3807 0.3799
2777.697361 0.3790 0.3776 0.3760 0.3744 0.3733
2782.718864 0.3729 0.3730 0.3736 0.3743 0.3751
2787.740367 0.3758 0.3770 0.3783 0.3798 0.3812
2792.761870 0.3826 0.3839 0.3850 0.3862 0.3872
2797.783373 0.3878 0.3882 0.3885 0.3888 0.3892
2802.804876 0.3895 0.3897 0.3900 0.3902 0.3904
2807.826379 0.3909 0.3926 0.3944 0.3964 0.3990
2812.847882 0.4016 0.4042 0.4075 0.4111 0.4151
2817.869385 0.4198 0.4247 0.4291 0.4325 0.4358
2822.890888 0.4391 0.4425 0.4459 0.4496 0.4552
2827.912391 0.4608 0.4660 0.4704 0.4747 0.4769
2832.933894 0.4786 0.4804 0.4824 0.4847 0.4869
2837.955397 0.4902 0.5014 0.5088 0.5121 0.5142
2842.976900 0.5155 0.5159 0.5163 0.5192 0.5167
2847.998403 0.5164 0.5160 0.5156 0.5140 0.5125
2853.019906 0.5110 0.5094 0.5075 0.5057 0.5039
2858.041409 0.5025 0.5016 0.5006 0.5006 0.5006
2863.062912 0.5006 0.5008 0.5019 0.5026 0.5044
2868.084415 0.5067 0.5106 0.5160 0.5210 0.5258
2873.105918 0.5290 0.5305 0.5307 0.5316 0.5301
2878.127421 0.5295 0.5283 0.5272 0.5259 0.5238
2883.148924 0.5209 0.5180 0.5150 0.5121 0.5088
2888.170427 0.5056 0.5024 0.4995 0.4963 0.4926
2893.191930 0.4887 0.4839 0.4777 0.4726 0.4684
2898.213433 0.4642 0.4600 0.4554 0.4505 0.4457
2903.234936 0.4417 0.4382 0.4346 0.4312 0.4277
2908.256439 0.4242 0.4207 0.4169 0.4130 0.4099
2913.277942 0.4088 0.4079 0.4075 0.4069 0.4045
2918.299445 0.3993 0.3943 0.3893 0.3829 0.3769
2923.320948 0.3715 0.3662 0.3614 0.3565 0.3511
2928.342451 0.3460 0.3421 0.3384 0.3370 0.3391
2933.363954 0.3398 0.3407 0.3420 0.3433 0.3447
2938.385457 0.3459 0.3472 0.3485 0.3499 0.3513
2943.406960 0.3527 0.3540 0.3550 0.3561 0.3572
2948.428463 0.3582 0.3593 0.3604 0.3616 0.3627
2953.449966 0.3638 0.3651 0.3664 0.3678 0.3691
2958.471469 0.3706 0.3726 0.3748 0.3769 0.3790
2963.492972 0.3812 0.3836 0.3869 0.3908 0.3947
2968.514475 0.3988 0.4029 0.4068 0.4104 0.4144
2973.535978 0.4184 0.4219 0.4254 0.4288 0.4322
2978.557481 0.4360 0.4399 0.4443 0.4493 0.4543
2983.578984 0.4587 0.4611 0.4625 0.4642 0.4662
2988.600487 0.4684 0.4717 0.4760 0.4812 0.4869
2993.621990 0.4986 0.5108 0.5195 0.5272 0.5347
2998.643493 0.5411 0.5465 0.5516 0.5567 0.5611
3003.664996 0.5649 0.5686 0.5722 0.5759 0.5796
3008.686499 0.5831 0.5866 0.5895 0.5919 0.5941
3013.708002 0.5954 0.5958 0.5960 0.5951 0.5940
3018.729505 0.5931 0.5918 0.5905 0.5891 0.5876
3023.751008 0.5859 0.5841 0.5823 0.5801 0.5779
3028.772511 0.5755 0.5730 0.5703 0.5687 0.5678
3033.794014 0.5677 0.5677 0.5676 0.5674 0.5667
3038.815517 0.5654 0.5632 0.5603 0.5562 0.5525
3043.837020 0.5496 0.5472 0.5455 0.5450 0.5447
3048.858523 0.5506 0.5573 0.5658 0.5745 0.5837
3053.880026 0.5894 0.5942 0.5978 0.5998 0.6016
3058.901529 0.6023 0.6028 0.6037 0.6025 0.6018
3063.923032 0.6012 0.5997 0.5971 0.5944 0.5908
3068.944535 0.5871 0.5831 0.5791 0.5745 0.5682
3073.966038 0.5629 0.5579 0.5525 0.5529 0.5541
3078.987541 0.5574 0.5602 0.5617 0.5626 0.5627
3084.009044 0.5612 0.5592 0.5564 0.5535 0.5507
3089.030547 0.5473 0.5435 0.5396 0.5357 0.5316
3094.052050 0.5274 0.5245 0.5220 0.5189 0.5205
3099.073553 0.5205 0.5206 0.5209 0.5222 0.5264
3104.095056 0.5358 0.5583 0.5676 0.5736 0.5798
3109.116559 0.5879 0.5985 0.6106 0.6186 0.6236
3114.138062 0.6269 0.6300 0.6332 0.6365 0.6403
3119.159565 0.6444 0.6483 0.6522 0.6553 0.6577
3124.181068 0.6603 0.6626 0.6643 0.6657 0.6671
3129.202571 0.6685 0.6696 0.6702 0.6709 0.6715
3134.224074 0.6720 0.6722 0.6717 0.6710 0.6714
3139.245577 0.6703 0.6692 0.6678 0.6659 0.6638
3144.267080 0.6609 0.6578 0.6549 0.6521 0.6494
3149.288583 0.6468 0.6442 0.6419 0.6396 0.6372
3154.310086 0.6349 0.6326 0.6303 0.6280 0.6257
3159.331589 0.6234 0.6211 0.6188 0.6165 0.6141
3164.353092 0.6117 0.6093 0.6069 0.6046 0.6022
3169.374595 0.5998 0.5974 0.5952 0.5931 0.5911
3174.396098 0.5890 0.5870 0.5850 0.5829 0.5809
3179.417601 0.5789 0.5769 0.5749 0.5730 0.5711
3184.439104 0.5692 0.5672 0.5652 0.5632 0.5605
3189.460607 0.5576 0.5546 0.5516 0.5486 0.5452
3194.482110 0.5416 0.5380 0.5345 0.5309 0.5271
3199.503613 0.5229 0.5186 0.5143 0.5099 0.5053
3204.525116 0.5005 0.4959 0.4911 0.4856 0.4795
3209.546619 0.4735 0.4674 0.4619 0.4566 0.4514
3214.568122 0.4461 0.4407 0.4350 0.4293 0.4236
3219.589625 0.4181 0.4128 0.4075 0.4023 0.3970
3224.611128 0.3918 0.3866 0.3814 0.3763 0.3703
3229.632631 0.3623 0.3533 0.3451 0.3376 0.3298
3234.654134 0.3172 0.3041 0.2965 0.2912 0.2858
3239.675637 0.2804 0.2746 0.2684 0.2631 0.2590
3244.697140 0.2554 0.2530 0.2511 0.2502 0.2501
3249.718643 0.2501 0.2507 0.2516 0.2535 0.2582
3254.740146 0.2628 0.2672 0.2721 0.2772 0.2828
3259.761649 0.2885 0.2932 0.2977 0.3099 0.3169
3264.783152 0.3218 0.3275 0.3339 0.3416 0.3484
3269.804655 0.3545 0.3605 0.3662 0.3720 0.3774
3274.826158 0.3828 0.3882 0.3935 0.3978 0.4017
3279.847661 0.4054 0.4093 0.4139 0.4186 0.4235
3284.869164 0.4280 0.4317 0.4354 0.4390 0.4426
3289.890667 0.4462 0.4492 0.4521 0.4550 0.4579
3294.912170 0.4608 0.4638 0.4667 0.4694 0.4720
3299.933673 0.4746 0.4771 0.4798 0.4824 0.4849
3304.955176 0.4874 0.4899 0.4924 0.4948 0.4973
3309.976679 0.4998 0.5024 0.5048 0.5073 0.5097
3314.998182 0.5120 0.5143 0.5165 0.5188 0.5211
3320.019685 0.5234 0.5258 0.5282 0.5305 0.5329
3325.041188 0.5352 0.5376 0.5397 0.5417 0.5436
3330.062691 0.5456 0.5476 0.5495 0.5515 0.5534
3335.084194 0.5548 0.5562 0.5576 0.5590 0.5604
3340.105697 0.5617 0.5626 0.5634 0.5641 0.5649
3345.127200 0.5657 0.5665 0.5669 0.5672 0.5676
3350.148703 0.5679 0.5683 0.5686 0.5688 0.5689
3355.170206 0.5691 0.5692 0.5693 0.5694 0.5696
3360.191709 0.5696 0.5692 0.5689 0.5686 0.5683
3365.213212 0.5679 0.5676 0.5673 0.5668 0.5661
3370.234715 0.5654 0.5647 0.5640 0.5633 0.5626
3375.256218 0.5619 0.5612 0.5605 0.5598 0.5591
3380.277721 0.5584 0.5576 0.5569 0.5561 0.5553
3385.299224 0.5546 0.5537 0.5528 0.5520 0.5511
3390.320727 0.5502 0.5494 0.5485 0.5477 0.5468
3395.342230 0.5459 0.5451 0.5444 0.5436 0.5428
3400.363733 0.5421 0.5414 0.5406 0.5399 0.5391
3405.385236 0.5384 0.5377 0.5372 0.5368 0.5364
3410.406739 0.5360 0.5356 0.5352 0.5348 0.5344
3415.428242 0.5340 0.5337 0.5336 0.5334 0.5333
3420.449745 0.5331 0.5330 0.5329 0.5328 0.5327
3425.471248 0.5327 0.5327 0.5327 0.5326 0.5326
3430.492751 0.5326 0.5326 0.5325 0.5327 0.5330
3435.514254 0.5333 0.5336 0.5339 0.5341 0.5344
3440.535757 0.5347 0.5350 0.5354 0.5359 0.5364
3445.557260 0.5369 0.5374 0.5379 0.5384 0.5389
3450.578763 0.5395 0.5403 0.5410 0.5418 0.5425
3455.600266 0.5432 0.5440 0.5447 0.5455 0.5462
3460.621769 0.5470 0.5478 0.5485 0.5493 0.5501
3465.643272 0.5509 0.5517 0.5525 0.5533 0.5541
3470.664775 0.5552 0.5564 0.5577 0.5589 0.5601
3475.686278 0.5613 0.5625 0.5637 0.5649 0.5661
3480.707781 0.5674 0.5687 0.5699 0.5711 0.5723
3485.729284 0.5735 0.5747 0.5758 0.5770 0.5782
3490.750787 0.5794 0.5805 0.5817 0.5829 0.5840
3495.772290 0.5852 0.5864 0.5876 0.5888 0.5900
3500.793793 0.5913 0.5925 0.5937 0.5949 0.5961
3505.815296 0.5972 0.5987 0.6004 0.6021 0.6038
3510.836799 0.6055 0.6072 0.6089 0.6106 0.6124
3515.858302 0.6141 0.6158 0.6176 0.6196 0.6215
3520.879805 0.6234 0.6253 0.6272 0.6290 0.6309
3525.901308 0.6328 0.6347 0.6366 0.6385 0.6404
3530.922811 0.6424 0.6443 0.6461 0.6480 0.6498
3535.944314 0.6515 0.6532 0.6549 0.6566 0.6586
3540.965817 0.6607 0.6627 0.6648 0.6669 0.6688
3545.987320 0.6707 0.6725 0.6743 0.6762 0.6780
3551.008823 0.6806 0.6834 0.6861 0.6889 0.6913
3556.030326 0.6935 0.6957 0.6979 0.7001 0.7023
3561.051829 0.7045 0.7067 0.7089 0.7111 0.7133
3566.073332 0.7154 0.7175 0.7196 0.7217 0.7237
3571.094835 0.7258 0.7279 0.7300 0.7318 0.7335
3576.116338 0.7353 0.7371 0.7389 0.7407 0.7425
3581.137841 0.7443 0.7463 0.7484 0.7505 0.7525
3586.159344 0.7546 0.7567 0.7588 0.7608 0.7627
3591.180847 0.7647 0.7667 0.7686 0.7705 0.7725
3596.202350 0.7744 0.7763 0.7781 0.7799 0.7816
3601.223853 0.7834 0.7851 0.7869 0.7886 0.7904
3606.245356 0.7921 0.7940 0.7960 0.7980 0.8001
3611.266859 0.8021 0.8042 0.8063 0.8083 0.8104
3616.288362 0.8124 0.8145 0.8165 0.8186 0.8207
3621.309865 0.8228 0.8249 0.8269 0.8289 0.8307
3626.331368 0.8326 0.8344 0.8362 0.8380 0.8398
3631.352871 0.8417 0.8436 0.8455 0.8474 0.8494
3636.374373 0.8513 0.8532 0.8552 0.8571 0.8589
3641.395876 0.8603 0.8617 0.8631 0.8645 0.8658
3646.417379 0.8672 0.8686 0.8700 0.8711 0.8720
3651.438882 0.8729 0.8738 0.8747 0.8756 0.8763
3656.460385 0.8769 0.8776 0.8782 0.8787 0.8793
3661.481888 0.8798 0.8804 0.8809 0.8814 0.8818
3666.503391 0.8819 0.8821 0.8822 0.8823 0.8824
3671.524894 0.8825 0.8826 0.8825 0.8825 0.8824
3676.546397 0.8823 0.8823 0.8822 0.8821 0.8821
3681.567900 0.8822 0.8823 0.8825 0.8827 0.8828
3686.589403 0.8832 0.8838 0.8846 0.8853 0.8860
3691.610906 0.8868 0.8877 0.8885 0.8894 0.8903
3696.632409 0.8914 0.8925 0.8936 0.8947 0.8959
3701.653912 0.8970 0.8980 0.8989 0.8999 0.9009
3706.675415 0.9017 0.9024 0.9031 0.9036 0.9038
3711.696918 0.9040 0.9041 0.9043 0.9044 0.9046
3716.718421 0.9047 0.9049 0.9050 0.9050 0.9049
3721.739924 0.9049 0.9049 0.9049 0.9048 0.9048
3726.761427 0.9048 0.9048 0.9048 0.9048 0.9047
3731.782930 0.9047 0.9047 0.9047 0.9047 0.9047
3736.804433 0.9047 0.9047 0.9047 0.9046 0.9046
3741.825936 0.9045 0.9045 0.9044 0.9044 0.9043
3746.847439 0.9043 0.9042 0.9042 0.9041 0.9058
3751.868942 0.9043 0.9040 0.9039 0.9039 0.9038
3756.890445 0.9037 0.9036 0.9035 0.9035 0.9034
3761.911948 0.9033 0.9032 0.9031 0.9030 0.9030
3766.933451 0.9029 0.9028 0.9027 0.9026 0.9025
3771.954954 0.9024 0.9024 0.9023 0.9021 0.9019
3776.976457 0.9017 0.9016 0.9014 0.9012 0.9011
3781.997960 0.9009 0.9007 0.9005 0.9004 0.9002
3787.019463 0.9000 0.8998 0.8997 0.8995 0.8993
3792.040966 0.8991 0.8989 0.8987 0.8985 0.8983
3797.062469 0.8982 0.8980 0.8978 0.8976 0.8974
3802.083972 0.8972 0.8970 0.8968 0.8966 0.8964
3807.105475 0.8962 0.8961 0.8959 0.8957 0.8954
3812.126978 0.8952 0.8950 0.8948 0.8946 0.8944
3817.148481 0.8942 0.8940 0.8938 0.8936 0.8934
3822.169984 0.8932 0.8930 0.8928 0.8926 0.8924
3827.191487 0.8922 0.8920 0.8918 0.8916 0.8914
3832.212990 0.8912 0.8909 0.8907 0.8904 0.8902
3837.234493 0.8899 0.8897 0.8894 0.8892 0.8890
3842.255996 0.8887 0.8884 0.8882 0.8879 0.8877
3847.277499 0.8874 0.8872 0.8869 0.8867 0.8864
3852.299002 0.8862 0.8860 0.8857 0.8855 0.8852
3857.320505 0.8850 0.8848 0.8846 0.8844 0.8842
3862.342008 0.8840 0.8838 0.8835 0.8833 0.8831
3867.363511 0.8829 0.8827 0.8825 0.8823 0.8821
3872.385014 0.8819 0.8817 0.8816 0.8815 0.8814
3877.406517 0.8813 0.8812 0.8811 0.8810 0.8809
3882.428020 0.8808 0.8807 0.8806 0.8804 0.8803
3887.449523 0.8802 0.8801 0.8800 0.8799 0.8798
3892.471026 0.8797 0.8796 0.8795 0.8794 0.8793
3897.492529 0.8792 0.8790 0.8789 0.8787 0.8785
3902.514032 0.8784 0.8782 0.8781 0.8780 0.8778
3907.535535 0.8777 0.8775 0.8774 0.8772 0.8771
3912.557038 0.8769 0.8768 0.8767 0.8765 0.8764
3917.578541 0.8762 0.8761 0.8760 0.8759 0.8758
3922.600044 0.8756 0.8755 0.8754 0.8753 0.8752
3927.621547 0.8751 0.8750 0.8749 0.8748 0.8747
3932.643050 0.8746 0.8745 0.8744 0.8743 0.8742
3937.664553 0.8740 0.8739 0.8737 0.8736 0.8734
3942.686056 0.8732 0.8731 0.8729 0.8728 0.8726
3947.707559 0.8725 0.8723 0.8721 0.8720 0.8718
3952.729062 0.8717 0.8715 0.8714 0.8713 0.8712
3957.750565 0.8711 0.8710 0.8709 0.8727 0.8713
3962.772068 0.8706 0.8705 0.8704 0.8703 0.8702
3967.793571 0.8702 0.8702 0.8702 0.8702 0.8702
3972.815074 0.8703 0.8703 0.8703 0.8703 0.8703
3977.836577 0.8704 0.8704 0.8704 0.8704 0.8703
3982.858080 0.8702 0.8701 0.8700 0.8699 0.8698
3987.879583 0.8697 0.8696 0.8695 0.8694 0.8693
3992.901086 0.8692 0.8690 0.8689 0.8688 0.8687
3997.922589 0.8686 0.8685 0.8684 0.8683 0.8682
4002.944092 0.8681 0.8680 0.8679 0.8678 0.8677
4007.965595 0.8676 0.8675 0.8673 0.8672 0.8671
4012.987098 0.8670 0.8669 0.8668
##END=
