##TITLE=BARIUM PERMANGANATE
$$ C.P.
##JCAMP-DX=4.24
##DATA TYPE=INFRARED SPECTRUM
##CLASS=COBLENTZ
##ORIGIN=MELLON INSTITUTE
##OWNER=COBLENTZ SOCIETY
Collection (C) 2018 copyright by the U.S. Secretary of Commerce
on behalf of the United States of America. All rights reserved.
##DATE=Not specified, most likely prior to 1970
##MOLFORM=Ba ( Mn O4)2
##SOURCE REFERENCE=COBLENTZ NO. 495
##$NIST ID=B6000495
##$NIST SOURCE=COBLENTZ
##$NIST IMAGE=cob495
##SPECTROMETER/DATA SYSTEM=Not specified, most likely a prism, grating, or hybrid spectrometer.
##STATE=SOLID (NUJOL MULL)
##PATH LENGTH=
$$SPECTRAL CONTAMINATION DUE TO OIL AROUND 2900, 1450, 1380 CM^-^1
##SAMPLING PROCEDURE=TRANSMISSION
##RESOLUTION=4
##DATA PROCESSING=DIGITIZED BY NIST FROM HARD COPY
##XUNITS=MICROMETERS
##YUNITS=TRANSMITTANCE
##XFACTOR=1.000000
##YFACTOR=1
##DELTAX=000.006811
##FIRSTX=2.019
##LASTX=15.9753
##FIRSTY=0.452
##MAXX=15.9753
##MINX=2.019
##MAXY=0.967
##MINY=0.15
##NPOINTS=2050
##XYDATA=(X++(Y..Y))
2.019000 0.4520 0.4520 0.4520 0.4560 0.4560
2.053072 0.4590 0.4610 0.4630 0.4640 0.4680
2.087000 0.4690 0.4710 0.4730 0.4750 0.4760
2.121072 0.4780 0.4810 0.4830 0.4870 0.4880
2.155000 0.4900 0.4920 0.4920 0.4950 0.4970
2.189072 0.4990 0.5000 0.5000 0.5020 0.5020
2.224000 0.5040 0.5070 0.5090 0.5090 0.5110
2.258072 0.5160 0.5160 0.5180 0.5180 0.5190
2.292000 0.5190 0.5210 0.5210 0.5240 0.5260
2.326072 0.5280 0.5300 0.5310 0.5330 0.5350
2.360000 0.5360 0.5380 0.5380 0.5420 0.5430
2.394072 0.5430 0.5450 0.5470 0.5470 0.5500
2.428000 0.5520 0.5540 0.5570 0.5590 0.5600
2.462072 0.5620 0.5640 0.5660 0.5690 0.5710
2.496000 0.5740 0.5760 0.5780 0.5790 0.5790
2.530072 0.5810 0.5810 0.5840 0.5840 0.5860
2.564000 0.5860 0.5880 0.5900 0.5900 0.5900
2.598072 0.5910 0.5910 0.5910 0.5950 0.5960
2.632000 0.5980 0.5980 0.6000 0.6000 0.6020
2.666072 0.6020 0.6020 0.6030 0.6080 0.6100
2.700000 0.6120 0.6140 0.6150 0.6150 0.6170
2.734072 0.6190 0.6190 0.6200 0.6200 0.6220
2.768000 0.6240 0.6240 0.6260 0.6260 0.6260
2.802072 0.6270 0.6260 0.6270 0.6290 0.6290
2.837000 0.6310 0.6310 0.6310 0.6310 0.6310
2.871072 0.6320 0.6320 0.6320 0.6340 0.6340
2.905000 0.6340 0.6360 0.6360 0.6380 0.6380
2.939072 0.6390 0.6390 0.6410 0.6410 0.6410
2.973000 0.6410 0.6430 0.6430 0.6440 0.6460
3.007072 0.6460 0.6460 0.6480 0.6480 0.6480
3.041000 0.6500 0.6500 0.6500 0.6510 0.6510
3.075072 0.6530 0.6530 0.6560 0.6560 0.6580
3.109000 0.6600 0.6600 0.6620 0.6630 0.6630
3.143072 0.6650 0.6670 0.6670 0.6680 0.6700
3.177000 0.6700 0.6720 0.6720 0.6720 0.6720
3.211072 0.6740 0.6740 0.6740 0.6740 0.6740
3.245000 0.6740 0.6700 0.6680 0.6630 0.6620
3.279072 0.6580 0.6510 0.6480 0.6410 0.6290
3.313000 0.6100 0.5930 0.5550 0.5120 0.4060
3.347072 0.3670 0.2790 0.2550 0.2340 0.1920
3.381000 0.1500 0.1500 0.1880 0.2100 0.2410
3.415072 0.3000 0.3240 0.3460 0.3670 0.3670
3.450000 0.3510 0.3510 0.3150 0.3250 0.3430
3.484072 0.3580 0.3850 0.4010 0.4400 0.5620
3.518000 0.6500 0.6820 0.7150 0.7250 0.7320
3.552072 0.7350 0.7420 0.7460 0.7510 0.7530
3.586000 0.7540 0.7580 0.7610 0.7630 0.7630
3.620072 0.7650 0.7650 0.7660 0.7680 0.7700
3.654000 0.7700 0.7710 0.7730 0.7730 0.7750
3.688072 0.7750 0.7770 0.7780 0.7780 0.7800
3.722000 0.7800 0.7800 0.7800 0.7800 0.7820
3.756072 0.7820 0.7830 0.7830 0.7830 0.7850
3.790000 0.7870 0.7890 0.7890 0.7890 0.7900
3.824072 0.7920 0.7920 0.7940 0.7940 0.7990
3.858000 0.7990 0.7970 0.7990 0.7990 0.8010
3.892072 0.8020 0.8020 0.8040 0.8060 0.8060
3.926000 0.8070 0.8070 0.8090 0.8090 0.8110
3.960072 0.8110 0.8130 0.8130 0.8130 0.8130
3.994000 0.8140 0.8160 0.8160 0.8180 0.8180
4.028072 0.8180 0.8180 0.8180 0.8180 0.8180
4.063000 0.8180 0.8180 0.8180 0.8190 0.8190
4.097072 0.8190 0.8190 0.8210 0.8210 0.8210
4.131000 0.8230 0.8230 0.8230 0.8230 0.8250
4.165072 0.8250 0.8250 0.8250 0.8250 0.8230
4.199000 0.8180 0.8130 0.8110 0.8090 0.8040
4.233072 0.8020 0.8020 0.8020 0.8040 0.8020
4.267000 0.8020 0.8020 0.8010 0.7990 0.7970
4.301072 0.7970 0.7970 0.7970 0.7990 0.7990
4.335000 0.8010 0.8010 0.8020 0.8040 0.8070
4.369072 0.8130 0.8190 0.8230 0.8250 0.8280
4.403000 0.8330 0.8350 0.8370 0.8380 0.8380
4.437072 0.8380 0.8380 0.8380 0.8380 0.8400
4.471000 0.8400 0.8400 0.8400 0.8400 0.8380
4.505072 0.8380 0.8380 0.8380 0.8380 0.8380
4.539000 0.8400 0.8400 0.8400 0.8400 0.8400
4.573072 0.8400 0.8400 0.8420 0.8420 0.8420
4.607000 0.8420 0.8420 0.8430 0.8430 0.8450
4.641072 0.8450 0.8470 0.8470 0.8490 0.8490
4.676000 0.8500 0.8500 0.8500 0.8500 0.8500
4.710072 0.8490 0.8490 0.8490 0.8500 0.8500
4.744000 0.8500 0.8500 0.8500 0.8500 0.8520
4.778072 0.8520 0.8520 0.8520 0.8500 0.8520
4.812000 0.8520 0.8540 0.8540 0.8540 0.8540
4.846072 0.8540 0.8550 0.8550 0.8570 0.8570
4.880000 0.8570 0.8590 0.8590 0.8610 0.8610
4.914072 0.8610 0.8620 0.8620 0.8620 0.8640
4.948000 0.8660 0.8660 0.8670 0.8670 0.8670
4.982072 0.8690 0.8690 0.8710 0.8710 0.8730
5.016000 0.8740 0.8740 0.8760 0.8760 0.8760
5.050072 0.8760 0.8760 0.8760 0.8780 0.8780
5.084000 0.8780 0.8780 0.8780 0.8790 0.8810
5.118072 0.8810 0.8810 0.8830 0.8850 0.8850
5.152000 0.8850 0.8860 0.8880 0.8880 0.8900
5.186072 0.8900 0.8900 0.8900 0.8910 0.8910
5.220000 0.8910 0.8910 0.8910 0.8930 0.8930
5.254072 0.8930 0.8930 0.8930 0.8930 0.8950
5.289000 0.8950 0.8970 0.8970 0.8980 0.9000
5.323072 0.9000 0.8980 0.8970 0.8970 0.8950
5.357000 0.8950 0.8950 0.8930 0.8930 0.8930
5.391072 0.8930 0.8930 0.8930 0.8930 0.8930
5.425000 0.8930 0.8910 0.8910 0.8910 0.8910
5.459072 0.8900 0.8900 0.8900 0.8910 0.8910
5.493000 0.8910 0.8930 0.8930 0.8950 0.8950
5.527072 0.8970 0.8970 0.8970 0.8980 0.8970
5.561000 0.8980 0.8980 0.9000 0.9000 0.9000
5.595072 0.9000 0.9020 0.9020 0.9020 0.9020
5.629000 0.9020 0.9020 0.9020 0.9020 0.9020
5.663072 0.9020 0.9000 0.9000 0.9000 0.9000
5.697000 0.9000 0.9000 0.9000 0.8980 0.8970
5.731072 0.8950 0.8950 0.8930 0.8930 0.8930
5.765000 0.8930 0.8930 0.8930 0.8930 0.8950
5.799072 0.8950 0.8980 0.9000 0.9020 0.9030
5.833000 0.9030 0.9030 0.9030 0.9030 0.9020
5.867072 0.9000 0.8970 0.8930 0.8910 0.8910
5.902000 0.8930 0.8930 0.8930 0.8950 0.9000
5.936072 0.9020 0.9030 0.9030 0.9030 0.9030
5.970000 0.9020 0.9020 0.9000 0.9020 0.9020
6.004072 0.9030 0.9030 0.9030 0.9050 0.9050
6.038000 0.9100 0.9120 0.9120 0.9140 0.9140
6.072072 0.9120 0.9120 0.9120 0.9120 0.9100
6.106000 0.9090 0.9090 0.9090 0.9070 0.9090
6.140072 0.9090 0.9100 0.9100 0.9120 0.9120
6.174000 0.9120 0.9120 0.9140 0.9140 0.9150
6.208072 0.9190 0.9210 0.9210 0.9220 0.9220
6.242000 0.9240 0.9240 0.9240 0.9240 0.9240
6.276072 0.9240 0.9240 0.9240 0.9220 0.9220
6.310000 0.9210 0.9170 0.9150 0.9140 0.9140
6.344072 0.9140 0.9140 0.9150 0.9150 0.9170
6.378000 0.9170 0.9170 0.9170 0.9140 0.9140
6.412072 0.9140 0.9120 0.9090 0.9050 0.9030
6.446000 0.9030 0.9030 0.9050 0.9100 0.9120
6.480072 0.9120 0.9120 0.9120 0.9100 0.9070
6.515000 0.9030 0.9030 0.9030 0.9020 0.9020
6.549072 0.9030 0.9030 0.9050 0.9070 0.9070
6.583000 0.9070 0.9070 0.9090 0.9070 0.9090
6.617072 0.9090 0.9090 0.9100 0.9100 0.9120
6.651000 0.9140 0.9150 0.9150 0.9150 0.9150
6.685072 0.9140 0.9140 0.9120 0.9100 0.9070
6.719000 0.9030 0.9000 0.8980 0.8910 0.8810
6.753072 0.8660 0.8500 0.8370 0.8300 0.8190
6.787000 0.7990 0.7650 0.7510 0.7150 0.6860
6.821072 0.6790 0.6670 0.6550 0.6530 0.6550
6.855000 0.6550 0.6580 0.6600 0.6650 0.6680
6.889072 0.6790 0.6920 0.7080 0.7230 0.7390
6.923000 0.7540 0.7830 0.8010 0.8070 0.8230
6.957072 0.8380 0.8490 0.8570 0.8640 0.8730
6.991000 0.8790 0.8860 0.8900 0.8910 0.8910
7.025072 0.8910 0.8910 0.8930 0.8930 0.8950
7.059000 0.9000 0.9070 0.9100 0.9120 0.9150
7.093072 0.9170 0.9190 0.9190 0.9190 0.9190
7.128000 0.9190 0.9190 0.9150 0.9140 0.9120
7.162072 0.9070 0.9030 0.8970 0.8810 0.8690
7.196000 0.8370 0.8230 0.8130 0.8010 0.7850
7.230072 0.7820 0.7780 0.7750 0.7770 0.7990
7.264000 0.8130 0.8190 0.8280 0.8370 0.8420
7.298072 0.8430 0.8450 0.8500 0.8570 0.8730
7.332000 0.8830 0.8930 0.8980 0.9000 0.9030
7.366072 0.9030 0.9050 0.9050 0.9090 0.9090
7.400000 0.9050 0.9030 0.9030 0.9030 0.9030
7.434072 0.9030 0.9030 0.9030 0.9050 0.9070
7.468000 0.9120 0.9150 0.9170 0.9210 0.9220
7.502072 0.9260 0.9270 0.9270 0.9290 0.9290
7.536000 0.9290 0.9290 0.9290 0.9290 0.9290
7.570072 0.9290 0.9270 0.9270 0.9270 0.9260
7.604000 0.9260 0.9260 0.9260 0.9260 0.9260
7.638072 0.9260 0.9260 0.9260 0.9260 0.9270
7.672000 0.9270 0.9270 0.9270 0.9270 0.9290
7.706072 0.9290 0.9310 0.9310 0.9310 0.9330
7.741000 0.9330 0.9340 0.9340 0.9360 0.9360
7.775072 0.9380 0.9380 0.9390 0.9390 0.9410
7.809000 0.9410 0.9410 0.9410 0.9410 0.9410
7.843072 0.9410 0.9430 0.9430 0.9410 0.9410
7.877000 0.9410 0.9390 0.9390 0.9380 0.9380
7.911072 0.9380 0.9360 0.9380 0.9380 0.9380
7.945000 0.9360 0.9360 0.9360 0.9380 0.9390
7.979072 0.9390 0.9410 0.9410 0.9410 0.9430
8.013000 0.9430 0.9430 0.9430 0.9430 0.9430
8.047072 0.9430 0.9430 0.9410 0.9410 0.9410
8.081000 0.9410 0.9410 0.9390 0.9380 0.9380
8.115072 0.9390 0.9390 0.9390 0.9390 0.9390
8.149000 0.9410 0.9410 0.9410 0.9410 0.9410
8.183072 0.9430 0.9430 0.9430 0.9430 0.9430
8.217000 0.9430 0.9430 0.9410 0.9410 0.9410
8.251072 0.9410 0.9410 0.9410 0.9410 0.9410
8.285000 0.9410 0.9410 0.9410 0.9410 0.9410
8.319072 0.9410 0.9410 0.9410 0.9430 0.9430
8.354000 0.9450 0.9450 0.9450 0.9460 0.9480
8.388072 0.9480 0.9480 0.9480 0.9480 0.9460
8.422000 0.9460 0.9460 0.9460 0.9460 0.9480
8.456072 0.9480 0.9480 0.9480 0.9480 0.9480
8.490000 0.9480 0.9480 0.9480 0.9480 0.9480
8.524072 0.9460 0.9460 0.9460 0.9450 0.9450
8.558000 0.9450 0.9450 0.9430 0.9430 0.9410
8.592072 0.9410 0.9390 0.9410 0.9410 0.9410
8.626000 0.9430 0.9430 0.9430 0.9430 0.9430
8.660072 0.9450 0.9450 0.9450 0.9450 0.9450
8.694000 0.9450 0.9450 0.9450 0.9460 0.9460
8.728072 0.9460 0.9460 0.9460 0.9460 0.9460
8.762000 0.9460 0.9460 0.9480 0.9460 0.9460
8.796072 0.9450 0.9450 0.9430 0.9430 0.9430
8.830000 0.9430 0.9430 0.9430 0.9450 0.9450
8.864072 0.9450 0.9450 0.9460 0.9460 0.9460
8.898000 0.9460 0.9460 0.9460 0.9480 0.9480
8.932072 0.9510 0.9500 0.9480 0.9480 0.9480
8.967000 0.9480 0.9480 0.9480 0.9480 0.9480
9.001072 0.9480 0.9500 0.9500 0.9500 0.9500
9.035000 0.9500 0.9510 0.9510 0.9510 0.9500
9.069072 0.9500 0.9480 0.9480 0.9480 0.9480
9.103000 0.9480 0.9480 0.9460 0.9460 0.9450
9.137072 0.9450 0.9450 0.9450 0.9450 0.9450
9.171000 0.9450 0.9460 0.9460 0.9460 0.9460
9.205072 0.9460 0.9460 0.9460 0.9460 0.9460
9.239000 0.9480 0.9480 0.9480 0.9480 0.9500
9.273072 0.9500 0.9480 0.9480 0.9480 0.9480
9.307000 0.9480 0.9460 0.9460 0.9460 0.9450
9.341072 0.9450 0.9450 0.9450 0.9450 0.9450
9.375000 0.9450 0.9460 0.9460 0.9460 0.9460
9.409072 0.9480 0.9480 0.9480 0.9480 0.9480
9.443000 0.9500 0.9510 0.9510 0.9510 0.9510
9.477072 0.9510 0.9510 0.9510 0.9510 0.9510
9.511000 0.9510 0.9510 0.9510 0.9510 0.9500
9.545072 0.9510 0.9510 0.9510 0.9510 0.9510
9.580000 0.9500 0.9510 0.9510 0.9510 0.9530
9.614072 0.9530 0.9550 0.9550 0.9570 0.9570
9.648000 0.9570 0.9570 0.9570 0.9570 0.9570
9.682072 0.9550 0.9550 0.9570 0.9570 0.9570
9.716000 0.9570 0.9570 0.9570 0.9570 0.9570
9.750072 0.9580 0.9580 0.9600 0.9600 0.9600
9.784000 0.9580 0.9600 0.9600 0.9620 0.9620
9.818072 0.9620 0.9630 0.9630 0.9630 0.9630
9.852000 0.9650 0.9650 0.9650 0.9650 0.9670
9.886072 0.9650 0.9650 0.9650 0.9650 0.9670
9.920000 0.9670 0.9670 0.9670 0.9670 0.9670
9.954072 0.9670 0.9670 0.9670 0.9670 0.9670
9.988000 0.9670 0.9670 0.9650 0.9630 0.9630
10.022072 0.9630 0.9620 0.9620 0.9620 0.9620
10.056000 0.9620 0.9620 0.9620 0.9620 0.9620
10.090072 0.9620 0.9630 0.9630 0.9630 0.9630
10.124000 0.9630 0.9630 0.9630 0.9630 0.9630
10.158072 0.9630 0.9630 0.9630 0.9630 0.9620
10.193000 0.9620 0.9620 0.9600 0.9600 0.9580
10.227072 0.9570 0.9550 0.9530 0.9530 0.9510
10.261000 0.9510 0.9500 0.9480 0.9460 0.9460
10.295072 0.9460 0.9450 0.9450 0.9430 0.9430
10.329000 0.9410 0.9410 0.9390 0.9380 0.9360
10.363072 0.9360 0.9340 0.9340 0.9330 0.9290
10.397000 0.9270 0.9240 0.9210 0.9150 0.9120
10.431072 0.9050 0.9030 0.8980 0.8910 0.8780
10.465000 0.8640 0.8500 0.8330 0.8180 0.8040
10.499072 0.7850 0.7650 0.7540 0.7320 0.7010
10.533000 0.6200 0.5930 0.5780 0.5550 0.5190
10.567072 0.5020 0.4880 0.4610 0.4320 0.4010
10.601000 0.3800 0.3600 0.3390 0.3030 0.2960
10.635072 0.2880 0.2770 0.2740 0.2720 0.2710
10.669000 0.2690 0.2670 0.2670 0.2650 0.2650
10.703072 0.2640 0.2640 0.2650 0.2650 0.2670
10.737000 0.2670 0.2690 0.2720 0.2720 0.2720
10.771072 0.2720 0.2720 0.2710 0.2670 0.2640
10.806000 0.2600 0.2530 0.2500 0.2480 0.2430
10.840072 0.2410 0.2380 0.2380 0.2340 0.2310
10.874000 0.2280 0.2190 0.2100 0.2040 0.2000
10.908072 0.1970 0.1920 0.1880 0.1860 0.1850
10.942000 0.1830 0.1810 0.1810 0.1810 0.1830
10.976072 0.1900 0.2090 0.2290 0.2590 0.2880
11.010000 0.3170 0.3310 0.3440 0.3700 0.3970
11.044072 0.4250 0.4440 0.4610 0.4750 0.4900
11.078000 0.5060 0.5140 0.5230 0.5280 0.5310
11.112072 0.5330 0.5330 0.5330 0.5310 0.5300
11.146000 0.5240 0.5230 0.5180 0.5120 0.5000
11.180072 0.4880 0.4760 0.4640 0.4510 0.4400
11.214000 0.4280 0.4180 0.4060 0.4010 0.3890
11.248072 0.3750 0.3700 0.3600 0.3550 0.3480
11.282000 0.3390 0.3340 0.3240 0.3200 0.3150
11.316072 0.3130 0.3100 0.3070 0.3050 0.3030
11.350000 0.3010 0.3000 0.2980 0.2960 0.2960
11.384072 0.2950 0.2950 0.2930 0.2930 0.2930
11.419000 0.2930 0.2950 0.2980 0.3000 0.3050
11.453072 0.3080 0.3170 0.3240 0.3310 0.3360
11.487000 0.3390 0.3480 0.3560 0.3680 0.3790
11.521072 0.3960 0.4040 0.4160 0.4350 0.4560
11.555000 0.4760 0.4920 0.5090 0.5140 0.5420
11.589072 0.5670 0.5960 0.6310 0.6460 0.6630
11.623000 0.6670 0.6700 0.6860 0.6960 0.7110
11.657072 0.7200 0.7270 0.7370 0.7470 0.7540
11.691000 0.7610 0.7700 0.7780 0.7890 0.7940
11.725072 0.8010 0.8060 0.8130 0.8190 0.8250
11.759000 0.8300 0.8330 0.8380 0.8420 0.8450
11.793072 0.8500 0.8500 0.8500 0.8500 0.8500
11.827000 0.8490 0.8450 0.8430 0.8350 0.8260
11.861072 0.7970 0.7590 0.7460 0.7320 0.6920
11.895000 0.6380 0.6170 0.6020 0.6020 0.6150
11.929072 0.6290 0.6600 0.6750 0.6910 0.7130
11.963000 0.7390 0.7580 0.7730 0.7870 0.8020
11.997072 0.8210 0.8420 0.8490 0.8540 0.8550
12.032000 0.8610 0.8620 0.8660 0.8690 0.8710
12.066072 0.8740 0.8760 0.8790 0.8830 0.8850
12.100000 0.8860 0.8900 0.8930 0.8970 0.8980
12.134072 0.9020 0.9020 0.9030 0.9050 0.9050
12.168000 0.9050 0.9070 0.9090 0.9100 0.9120
12.202072 0.9140 0.9150 0.9170 0.9170 0.9170
12.236000 0.9190 0.9210 0.9220 0.9220 0.9220
12.270072 0.9240 0.9240 0.9260 0.9270 0.9270
12.304000 0.9270 0.9290 0.9290 0.9290 0.9310
12.338072 0.9310 0.9310 0.9330 0.9330 0.9340
12.372000 0.9340 0.9360 0.9360 0.9360 0.9380
12.406072 0.9390 0.9390 0.9390 0.9410 0.9430
12.440000 0.9430 0.9450 0.9460 0.9460 0.9460
12.474072 0.9460 0.9480 0.9480 0.9480 0.9480
12.508000 0.9500 0.9500 0.9500 0.9510 0.9500
12.542072 0.9500 0.9500 0.9510 0.9510 0.9510
12.576000 0.9510 0.9500 0.9510 0.9510 0.9530
12.610072 0.9530 0.9530 0.9550 0.9530 0.9530
12.645000 0.9530 0.9530 0.9530 0.9530 0.9510
12.679072 0.9500 0.9500 0.9480 0.9460 0.9460
12.713000 0.9460 0.9460 0.9450 0.9450 0.9450
12.747072 0.9430 0.9430 0.9430 0.9410 0.9410
12.781000 0.9390 0.9380 0.9380 0.9380 0.9380
12.815072 0.9360 0.9360 0.9360 0.9360 0.9360
12.849000 0.9360 0.9380 0.9380 0.9380 0.9380
12.883072 0.9390 0.9390 0.9390 0.9390 0.9410
12.917000 0.9410 0.9410 0.9410 0.9430 0.9430
12.951072 0.9430 0.9430 0.9450 0.9450 0.9460
12.985000 0.9460 0.9460 0.9460 0.9460 0.9480
13.019072 0.9500 0.9500 0.9500 0.9500 0.9480
13.053000 0.9500 0.9500 0.9500 0.9500 0.9500
13.087072 0.9500 0.9500 0.9500 0.9500 0.9500
13.121000 0.9500 0.9500 0.9510 0.9510 0.9510
13.155072 0.9510 0.9510 0.9500 0.9500 0.9500
13.189000 0.9480 0.9480 0.9510 0.9510 0.9510
13.223072 0.9510 0.9510 0.9510 0.9500 0.9500
13.258000 0.9510 0.9510 0.9510 0.9500 0.9500
13.292072 0.9500 0.9500 0.9500 0.9500 0.9500
13.326000 0.9500 0.9480 0.9480 0.9460 0.9460
13.360072 0.9460 0.9460 0.9460 0.9460 0.9450
13.394000 0.9450 0.9450 0.9430 0.9430 0.9450
13.428072 0.9450 0.9450 0.9450 0.9450 0.9450
13.462000 0.9450 0.9450 0.9450 0.9450 0.9450
13.496072 0.9460 0.9450 0.9450 0.9450 0.9450
13.530000 0.9450 0.9450 0.9460 0.9460 0.9460
13.564072 0.9460 0.9460 0.9460 0.9460 0.9460
13.598000 0.9460 0.9460 0.9460 0.9460 0.9450
13.632072 0.9450 0.9430 0.9410 0.9390 0.9390
13.666000 0.9390 0.9380 0.9390 0.9380 0.9380
13.700072 0.9380 0.9380 0.9380 0.9380 0.9380
13.734000 0.9380 0.9360 0.9360 0.9360 0.9340
13.768072 0.9340 0.9330 0.9330 0.9330 0.9290
13.802000 0.9290 0.9290 0.9290 0.9290 0.9290
13.836072 0.9270 0.9270 0.9270 0.9270 0.9270
13.871000 0.9290 0.9290 0.9310 0.9310 0.9310
13.905072 0.9310 0.9330 0.9330 0.9330 0.9330
13.939000 0.9340 0.9340 0.9340 0.9340 0.9340
13.973072 0.9360 0.9380 0.9380 0.9390 0.9390
14.007000 0.9410 0.9410 0.9390 0.9390 0.9390
14.041072 0.9390 0.9410 0.9390 0.9390 0.9390
14.075000 0.9390 0.9390 0.9390 0.9390 0.9380
14.109072 0.9380 0.9380 0.9380 0.9380 0.9380
14.143000 0.9380 0.9380 0.9380 0.9360 0.9360
14.177072 0.9360 0.9340 0.9340 0.9340 0.9340
14.211000 0.9330 0.9330 0.9310 0.9310 0.9290
14.245072 0.9270 0.9260 0.9260 0.9240 0.9240
14.279000 0.9220 0.9210 0.9210 0.9210 0.9170
14.313072 0.9170 0.9150 0.9150 0.9150 0.9150
14.347000 0.9150 0.9140 0.9140 0.9120 0.9120
14.381072 0.9100 0.9090 0.9070 0.9070 0.9030
14.415000 0.9030 0.9020 0.9020 0.9020 0.9000
14.449072 0.8980 0.8970 0.8950 0.8950 0.8930
14.484000 0.8930 0.8910 0.8910 0.8900 0.8900
14.518072 0.8880 0.8860 0.8860 0.8860 0.8850
14.552000 0.8830 0.8810 0.8810 0.8790 0.8780
14.586072 0.8760 0.8740 0.8730 0.8670 0.8660
14.620000 0.8660 0.8640 0.8640 0.8620 0.8620
14.654072 0.8590 0.8590 0.8570 0.8570 0.8550
14.688000 0.8550 0.8540 0.8520 0.8500 0.8470
14.722072 0.8470 0.8450 0.8450 0.8430 0.8420
14.756000 0.8400 0.8380 0.8350 0.8310 0.8330
14.790072 0.8310 0.8300 0.8260 0.8230 0.8180
14.824000 0.8160 0.8140 0.8090 0.8040 0.8010
14.858072 0.7990 0.7950 0.7940 0.7920 0.7920
14.892000 0.7920 0.7920 0.7920 0.7920 0.7920
14.926072 0.7920 0.7920 0.7920 0.7920 0.7920
14.960000 0.7900 0.7900 0.7900 0.7890 0.7870
14.994072 0.7870 0.7850 0.7850 0.7830 0.7830
15.028000 0.7820 0.7800 0.7800 0.7780 0.7780
15.062072 0.7770 0.7750 0.7730 0.7710 0.7700
15.097000 0.7700 0.7660 0.7650 0.7630 0.7610
15.131072 0.7590 0.7580 0.7580 0.7540 0.7540
15.165000 0.7530 0.7510 0.7490 0.7470 0.7460
15.199072 0.7440 0.7420 0.7400 0.7400 0.7390
15.233000 0.7370 0.7350 0.7350 0.7340 0.7340
15.267072 0.7320 0.7300 0.7280 0.7270 0.7250
15.301000 0.7230 0.7220 0.7200 0.7180 0.7160
15.335072 0.7130 0.7130 0.7110 0.7100 0.7060
15.369000 0.7040 0.7040 0.7040 0.7030 0.7010
15.403072 0.6990 0.6980 0.6960 0.6940 0.6920
15.437000 0.6910 0.6890 0.6870 0.6860 0.6840
15.471072 0.6820 0.6800 0.6790 0.6790 0.6770
15.505000 0.6750 0.6740 0.6720 0.6720 0.6680
15.539072 0.6670 0.6650 0.6630 0.6630 0.6620
15.573000 0.6620 0.6600 0.6600 0.6580 0.6560
15.607072 0.6550 0.6550 0.6530 0.6510 0.6510
15.641000 0.6500 0.6480 0.6460 0.6460 0.6440
15.675072 0.6440 0.6430 0.6410 0.6390 0.6360
15.710000 0.6340 0.6320 0.6290 0.6270 0.6260
15.744072 0.6240 0.6220 0.6220 0.6190 0.6190
15.778000 0.6150 0.6150 0.6120 0.6100 0.6080
15.812072 0.6080 0.6070 0.6070 0.6050 0.6030
15.846000 0.6030 0.6020 0.6020 0.6000 0.5980
15.880072 0.5980 0.5980 0.5980 0.5960 0.5950
15.914000 0.5930 0.5930 0.5910 0.5910 0.5910
15.948072 0.5900 0.5900 0.5880 0.5880 0.5860
##END=
