##TITLE=3-Pyridineacetic acid, sodium salt
##JCAMP-DX=4.24
$$ By DXEDIT 1.05 (RS McDonald)
##DATA TYPE=INFRARED SPECTRUM
##CLASS=COBLENTZ III
##ORIGIN=DOW CHEMICAL COMPANY
##OWNER=COPYRIGHT (C) 1988 by COBLENTZ SOCIETY INC.
Collection (C) 2018 copyright by the U.S. Secretary of Commerce
on behalf of the United States of America. All rights reserved.
##DATE=1964/05/27
##MOLFORM=C7 H6 N Na O2
##MP=MORE THAN 246 C
##SOURCE REFERENCE=COBLENTZ NO. 07697
##$NIST ID=B6007697
##$NIST SOURCE=COBLENTZ
##$NIST IMAGE=cob7697
##SPECTROMETER/DATA SYSTEM=DOW KBr FOREPRISM-GRATING
##INSTRUMENT PARAMETERS=BLAZED AT 3.5, 12.0, 20.0 MICRON AND CHANGED AT 5.0, 7.5, 14.9 MICRON
##STATE=SOLID (SPLIT MULL), FLUOROLUBE FOR 3800-1330 CM^-^1, NUJOL FOR 1330-400 CM^-^1
##SAMPLING PROCEDURE=TRANSMISSION
##RESOLUTION=2
##DATA PROCESSING=DIGITIZED BY COBLENTZ SOCIETY (BATCH I) FROM HARD COPY
##XUNITS=1/CM
##YUNITS=TRANSMITTANCE
##XFACTOR=1
##YFACTOR=1
##DELTAX=1
##FIRSTX=3800
##LASTX=388
##FIRSTY=0.784
##MAXX=3800
##MINX=388
##MAXY=0.8839
##MINY=0.0221
##NPOINTS=3413
##XYDATA=(X++(Y..Y))
3800.000000 0.7840 0.7840 0.7840 0.7840 0.7841
3795.000000 0.7841 0.7842 0.7842 0.7843 0.7844
3790.000000 0.7845 0.7845 0.7846 0.7846 0.7847
3785.000000 0.7847 0.7848 0.7848 0.7849 0.7849
3780.000000 0.7850 0.7850 0.7851 0.7851 0.7851
3775.000000 0.7851 0.7853 0.7853 0.7854 0.7854
3770.000000 0.7855 0.7856 0.7857 0.7857 0.7858
3765.000000 0.7858 0.7858 0.7858 0.7858 0.7858
3760.000000 0.7860 0.7860 0.7861 0.7861 0.7861
3755.000000 0.7861 0.7862 0.7862 0.7864 0.7864
3750.000000 0.7865 0.7865 0.7865 0.7865 0.7867
3745.000000 0.7867 0.7868 0.7868 0.7868 0.7869
3740.000000 0.7871 0.7871 0.7871 0.7871 0.7872
3735.000000 0.7872 0.7874 0.7874 0.7875 0.7875
3730.000000 0.7876 0.7876 0.7878 0.7878 0.7878
3725.000000 0.7878 0.7880 0.7880 0.7881 0.7881
3720.000000 0.7882 0.7882 0.7883 0.7883 0.7884
3715.000000 0.7884 0.7885 0.7885 0.7885 0.7885
3710.000000 0.7886 0.7886 0.7887 0.7887 0.7888
3705.000000 0.7888 0.7888 0.7888 0.7889 0.7889
3700.000000 0.7890 0.7890 0.7890 0.7890 0.7889
3695.000000 0.7888 0.7888 0.7887 0.7887 0.7886
3690.000000 0.7885 0.7884 0.7884 0.7883 0.7883
3685.000000 0.7882 0.7881 0.7880 0.7880 0.7878
3680.000000 0.7878 0.7878 0.7876 0.7875 0.7875
3675.000000 0.7875 0.7875 0.7874 0.7872 0.7871
3670.000000 0.7871 0.7869 0.7868 0.7867 0.7865
3665.000000 0.7865 0.7864 0.7861 0.7861 0.7858
3660.000000 0.7858 0.7857 0.7856 0.7854 0.7853
3655.000000 0.7851 0.7850 0.7849 0.7848 0.7847
3650.000000 0.7846 0.7844 0.7843 0.7842 0.7841
3645.000000 0.7840 0.7839 0.7838 0.7837 0.7836
3640.000000 0.7835 0.7834 0.7833 0.7831 0.7830
3635.000000 0.7828 0.7828 0.7828 0.7828 0.7826
3630.000000 0.7826 0.7825 0.7825 0.7825 0.7824
3625.000000 0.7822 0.7822 0.7821 0.7821 0.7821
3620.000000 0.7819 0.7818 0.7817 0.7815 0.7814
3615.000000 0.7810 0.7807 0.7801 0.7796 0.7791
3610.000000 0.7786 0.7778 0.7772 0.7764 0.7755
3605.000000 0.7758 0.7761 0.7764 0.7767 0.7769
3600.000000 0.7772 0.7775 0.7776 0.7778 0.7780
3595.000000 0.7782 0.7784 0.7785 0.7786 0.7786
3590.000000 0.7785 0.7782 0.7780 0.7775 0.7772
3585.000000 0.7768 0.7765 0.7761 0.7758 0.7751
3580.000000 0.7745 0.7738 0.7732 0.7734 0.7737
3575.000000 0.7742 0.7747 0.7751 0.7755 0.7758
3570.000000 0.7761 0.7762 0.7765 0.7768 0.7771
3565.000000 0.7772 0.7775 0.7778 0.7778 0.7778
3560.000000 0.7778 0.7778 0.7778 0.7776 0.7776
3555.000000 0.7775 0.7775 0.7774 0.7774 0.7772
3550.000000 0.7772 0.7771 0.7771 0.7768 0.7768
3545.000000 0.7767 0.7765 0.7764 0.7762 0.7761
3540.000000 0.7760 0.7758 0.7758 0.7756 0.7755
3535.000000 0.7753 0.7751 0.7751 0.7750 0.7748
3530.000000 0.7747 0.7745 0.7744 0.7742 0.7741
3525.000000 0.7740 0.7739 0.7737 0.7736 0.7734
3520.000000 0.7733 0.7731 0.7730 0.7728 0.7726
3515.000000 0.7725 0.7722 0.7721 0.7718 0.7717
3510.000000 0.7715 0.7714 0.7711 0.7710 0.7708
3505.000000 0.7706 0.7705 0.7703 0.7701 0.7700
3500.000000 0.7699 0.7697 0.7696 0.7694 0.7693
3495.000000 0.7691 0.7690 0.7688 0.7687 0.7685
3490.000000 0.7684 0.7682 0.7681 0.7678 0.7678
3485.000000 0.7675 0.7675 0.7675 0.7675 0.7675
3480.000000 0.7675 0.7675 0.7676 0.7678 0.7678
3475.000000 0.7678 0.7680 0.7681 0.7682 0.7682
3470.000000 0.7683 0.7683 0.7684 0.7685 0.7686
3465.000000 0.7686 0.7687 0.7687 0.7688 0.7689
3460.000000 0.7689 0.7689 0.7689 0.7689 0.7689
3455.000000 0.7688 0.7688 0.7687 0.7687 0.7687
3450.000000 0.7687 0.7686 0.7686 0.7686 0.7686
3445.000000 0.7685 0.7685 0.7685 0.7685 0.7684
3440.000000 0.7684 0.7683 0.7683 0.7682 0.7682
3435.000000 0.7681 0.7681 0.7680 0.7680 0.7678
3430.000000 0.7678 0.7678 0.7678 0.7676 0.7676
3425.000000 0.7675 0.7675 0.7675 0.7674 0.7671
3420.000000 0.7671 0.7668 0.7668 0.7667 0.7665
3415.000000 0.7664 0.7662 0.7660 0.7658 0.7655
3410.000000 0.7651 0.7649 0.7647 0.7644 0.7642
3405.000000 0.7639 0.7636 0.7633 0.7631 0.7628
3400.000000 0.7625 0.7621 0.7618 0.7614 0.7611
3395.000000 0.7607 0.7603 0.7598 0.7594 0.7589
3390.000000 0.7585 0.7580 0.7575 0.7571 0.7567
3385.000000 0.7562 0.7558 0.7555 0.7551 0.7547
3380.000000 0.7543 0.7539 0.7535 0.7531 0.7526
3375.000000 0.7522 0.7518 0.7515 0.7511 0.7510
3370.000000 0.7508 0.7508 0.7508 0.7507 0.7507
3365.000000 0.7506 0.7506 0.7505 0.7505 0.7504
3360.000000 0.7504 0.7503 0.7503 0.7501 0.7501
3355.000000 0.7501 0.7501 0.7500 0.7500 0.7499
3350.000000 0.7499 0.7498 0.7497 0.7496 0.7496
3345.000000 0.7496 0.7496 0.7495 0.7495 0.7496
3340.000000 0.7498 0.7499 0.7501 0.7503 0.7505
3335.000000 0.7506 0.7508 0.7508 0.7511 0.7512
3330.000000 0.7515 0.7515 0.7518 0.7518 0.7521
3325.000000 0.7522 0.7525 0.7525 0.7528 0.7528
3320.000000 0.7531 0.7533 0.7535 0.7537 0.7539
3315.000000 0.7540 0.7542 0.7544 0.7546 0.7548
3310.000000 0.7550 0.7551 0.7553 0.7555 0.7557
3305.000000 0.7558 0.7561 0.7561 0.7564 0.7565
3300.000000 0.7568 0.7568 0.7571 0.7572 0.7575
3295.000000 0.7576 0.7578 0.7580 0.7582 0.7584
3290.000000 0.7586 0.7587 0.7589 0.7591 0.7593
3285.000000 0.7594 0.7596 0.7598 0.7600 0.7601
3280.000000 0.7603 0.7605 0.7607 0.7608 0.7610
3275.000000 0.7611 0.7612 0.7615 0.7617 0.7618
3270.000000 0.7619 0.7621 0.7622 0.7624 0.7625
3265.000000 0.7625 0.7625 0.7625 0.7626 0.7626
3260.000000 0.7628 0.7628 0.7630 0.7630 0.7631
3255.000000 0.7631 0.7632 0.7632 0.7633 0.7634
3250.000000 0.7635 0.7635 0.7636 0.7636 0.7637
3245.000000 0.7638 0.7639 0.7639 0.7640 0.7640
3240.000000 0.7641 0.7641 0.7642 0.7642 0.7642
3235.000000 0.7642 0.7643 0.7643 0.7643 0.7643
3230.000000 0.7644 0.7644 0.7644 0.7644 0.7645
3225.000000 0.7645 0.7646 0.7646 0.7646 0.7646
3220.000000 0.7647 0.7647 0.7647 0.7647 0.7648
3215.000000 0.7648 0.7648 0.7648 0.7649 0.7649
3210.000000 0.7649 0.7649 0.7649 0.7649 0.7650
3205.000000 0.7650 0.7650 0.7650 0.7650 0.7650
3200.000000 0.7651 0.7651 0.7651 0.7651 0.7651
3195.000000 0.7651 0.7651 0.7651 0.7651 0.7651
3190.000000 0.7651 0.7651 0.7651 0.7651 0.7651
3185.000000 0.7651 0.7651 0.7651 0.7651 0.7651
3180.000000 0.7651 0.7651 0.7651 0.7651 0.7651
3175.000000 0.7651 0.7651 0.7651 0.7651 0.7651
3170.000000 0.7651 0.7651 0.7651 0.7651 0.7651
3165.000000 0.7650 0.7650 0.7649 0.7649 0.7648
3160.000000 0.7648 0.7647 0.7646 0.7645 0.7645
3155.000000 0.7644 0.7644 0.7643 0.7642 0.7641
3150.000000 0.7641 0.7640 0.7640 0.7639 0.7638
3145.000000 0.7637 0.7636 0.7635 0.7634 0.7633
3140.000000 0.7632 0.7631 0.7630 0.7628 0.7628
3135.000000 0.7626 0.7625 0.7625 0.7624 0.7622
3130.000000 0.7621 0.7621 0.7619 0.7618 0.7618
3125.000000 0.7617 0.7615 0.7614 0.7612 0.7612
3120.000000 0.7612 0.7611 0.7611 0.7611 0.7611
3115.000000 0.7611 0.7611 0.7610 0.7610 0.7608
3110.000000 0.7608 0.7607 0.7606 0.7604 0.7603
3105.000000 0.7596 0.7590 0.7568 0.7548 0.7531
3100.000000 0.7515 0.7506 0.7497 0.7494 0.7492
3095.000000 0.7491 0.7491 0.7501 0.7511 0.7522
3090.000000 0.7535 0.7546 0.7557 0.7568 0.7578
3085.000000 0.7589 0.7600 0.7610 0.7621 0.7625
3080.000000 0.7632 0.7634 0.7636 0.7632 0.7628
3075.000000 0.7619 0.7611 0.7585 0.7558 0.7515
3070.000000 0.7471 0.7451 0.7430 0.7428 0.7425
3065.000000 0.7425 0.7424 0.7447 0.7471 0.7512
3060.000000 0.7555 0.7567 0.7580 0.7588 0.7597
3055.000000 0.7601 0.7601 0.7603 0.7601 0.7551
3050.000000 0.7504 0.7351 0.7198 0.7044 0.6767
3045.000000 0.6842 0.6794 0.6851 0.6908 0.6998
3040.000000 0.7088 0.7178 0.7268 0.7358 0.7449
3035.000000 0.7468 0.7487 0.7504 0.7521 0.7537
3030.000000 0.7551 0.7562 0.7575 0.7576 0.7580
3025.000000 0.7582 0.7584 0.7586 0.7588 0.7589
3020.000000 0.7590 0.7590 0.7590 0.7590 0.7591
3015.000000 0.7591 0.7591 0.7584 0.7578 0.7569
3010.000000 0.7562 0.7555 0.7547 0.7541 0.7535
3005.000000 0.7538 0.7542 0.7547 0.7551 0.7574
3000.000000 0.7597 0.7601 0.7605 0.7608 0.7626
2995.000000 0.7615 0.7618 0.7618 0.7619 0.7621
2990.000000 0.7621 0.7622 0.7622 0.7622 0.7622
2985.000000 0.7619 0.7618 0.7615 0.7614 0.7611
2980.000000 0.7610 0.7607 0.7605 0.7603 0.7601
2975.000000 0.7591 0.7582 0.7551 0.7522 0.7268
2970.000000 0.7015 0.6761 0.6310 0.6411 0.6317
2965.000000 0.6353 0.6390 0.6508 0.6628 0.6748
2960.000000 0.6868 0.6987 0.7106 0.7225 0.7345
2955.000000 0.7411 0.7478 0.7508 0.7538 0.7561
2950.000000 0.7584 0.7598 0.7612 0.7628 0.7643
2945.000000 0.7654 0.7665 0.7665 0.7667 0.7667
2940.000000 0.7668 0.7668 0.7668 0.7669 0.7671
2935.000000 0.7671 0.7674 0.7675 0.7676 0.7678
2930.000000 0.7681 0.7682 0.7684 0.7685 0.7687
2925.000000 0.7688 0.7690 0.7691 0.7693 0.7696
2920.000000 0.7699 0.7701 0.7704 0.7706 0.7708
2915.000000 0.7711 0.7715 0.7717 0.7719 0.7722
2910.000000 0.7725 0.7734 0.7743 0.7751 0.7761
2905.000000 0.7769 0.7778 0.7788 0.7797 0.7806
2900.000000 0.7815 0.7824 0.7833 0.7842 0.7851
2895.000000 0.7860 0.7869 0.7878 0.7888 0.7896
2890.000000 0.7904 0.7907 0.7910 0.7912 0.7917
2885.000000 0.7919 0.7922 0.7925 0.7930 0.7933
2880.000000 0.7936 0.7939 0.7943 0.7946 0.7950
2875.000000 0.7953 0.7956 0.7958 0.7961 0.7962
2870.000000 0.7965 0.7967 0.7968 0.7969 0.7971
2865.000000 0.7974 0.7975 0.7976 0.7978 0.7981
2860.000000 0.7983 0.7984 0.7986 0.7988 0.7990
2855.000000 0.7991 0.7993 0.7995 0.7997 0.7999
2850.000000 0.8001 0.8001 0.8004 0.8006 0.8008
2845.000000 0.8008 0.8011 0.8011 0.8014 0.8015
2840.000000 0.8017 0.8018 0.8021 0.8021 0.8024
2835.000000 0.8025 0.8026 0.8028 0.8030 0.8031
2830.000000 0.8033 0.8035 0.8037 0.8038 0.8040
2825.000000 0.8041 0.8043 0.8044 0.8046 0.8047
2820.000000 0.8049 0.8051 0.8053 0.8054 0.8056
2815.000000 0.8057 0.8058 0.8060 0.8061 0.8064
2810.000000 0.8065 0.8067 0.8068 0.8069 0.8071
2805.000000 0.8072 0.8075 0.8075 0.8078 0.8080
2800.000000 0.8082 0.8083 0.8085 0.8086 0.8088
2795.000000 0.8089 0.8091 0.8092 0.8094 0.8095
2790.000000 0.8097 0.8098 0.8100 0.8101 0.8103
2785.000000 0.8104 0.8106 0.8107 0.8108 0.8110
2780.000000 0.8111 0.8112 0.8115 0.8115 0.8118
2775.000000 0.8118 0.8121 0.8121 0.8124 0.8125
2770.000000 0.8126 0.8128 0.8130 0.8131 0.8133
2765.000000 0.8134 0.8136 0.8137 0.8139 0.8140
2760.000000 0.8142 0.8143 0.8145 0.8146 0.8148
2755.000000 0.8150 0.8151 0.8153 0.8155 0.8157
2750.000000 0.8158 0.8160 0.8161 0.8162 0.8165
2745.000000 0.8167 0.8168 0.8169 0.8171 0.8174
2740.000000 0.8175 0.8176 0.8178 0.8181 0.8183
2735.000000 0.8184 0.8186 0.8188 0.8190 0.8191
2730.000000 0.8193 0.8195 0.8197 0.8198 0.8200
2725.000000 0.8201 0.8203 0.8205 0.8207 0.8208
2720.000000 0.8210 0.8212 0.8214 0.8215 0.8217
2715.000000 0.8218 0.8221 0.8221 0.8221 0.8221
2710.000000 0.8223 0.8223 0.8224 0.8225 0.8225
2705.000000 0.8225 0.8227 0.8227 0.8228 0.8228
2700.000000 0.8228 0.8228 0.8230 0.8231 0.8232
2695.000000 0.8232 0.8233 0.8233 0.8234 0.8234
2690.000000 0.8235 0.8235 0.8236 0.8237 0.8238
2685.000000 0.8238 0.8239 0.8239 0.8240 0.8240
2680.000000 0.8241 0.8241 0.8242 0.8243 0.8244
2675.000000 0.8244 0.8245 0.8245 0.8246 0.8247
2670.000000 0.8248 0.8248 0.8249 0.8250 0.8251
2665.000000 0.8251 0.8252 0.8253 0.8254 0.8254
2660.000000 0.8255 0.8256 0.8257 0.8258 0.8259
2655.000000 0.8259 0.8260 0.8261 0.8262 0.8262
2650.000000 0.8263 0.8264 0.8265 0.8265 0.8266
2645.000000 0.8267 0.8268 0.8268 0.8270 0.8270
2640.000000 0.8271 0.8271 0.8273 0.8273 0.8274
2635.000000 0.8275 0.8275 0.8275 0.8277 0.8278
2630.000000 0.8278 0.8280 0.8281 0.8281 0.8282
2625.000000 0.8283 0.8284 0.8285 0.8287 0.8288
2620.000000 0.8289 0.8290 0.8291 0.8292 0.8294
2615.000000 0.8295 0.8296 0.8297 0.8298 0.8299
2610.000000 0.8301 0.8302 0.8303 0.8304 0.8305
2605.000000 0.8306 0.8307 0.8308 0.8310 0.8311
2600.000000 0.8312 0.8313 0.8314 0.8315 0.8316
2595.000000 0.8317 0.8318 0.8318 0.8320 0.8321
2590.000000 0.8321 0.8323 0.8324 0.8325 0.8325
2585.000000 0.8327 0.8328 0.8328 0.8330 0.8331
2580.000000 0.8332 0.8333 0.8334 0.8335 0.8336
2575.000000 0.8337 0.8338 0.8338 0.8338 0.8338
2570.000000 0.8338 0.8338 0.8338 0.8338 0.8338
2565.000000 0.8338 0.8338 0.8338 0.8338 0.8338
2560.000000 0.8338 0.8338 0.8338 0.8338 0.8338
2555.000000 0.8338 0.8338 0.8338 0.8338 0.8338
2550.000000 0.8338 0.8338 0.8338 0.8338 0.8338
2545.000000 0.8338 0.8338 0.8337 0.8337 0.8337
2540.000000 0.8337 0.8336 0.8336 0.8336 0.8336
2535.000000 0.8335 0.8335 0.8334 0.8334 0.8334
2530.000000 0.8334 0.8333 0.8333 0.8333 0.8333
2525.000000 0.8332 0.8332 0.8332 0.8332 0.8331
2520.000000 0.8331 0.8331 0.8331 0.8330 0.8330
2515.000000 0.8330 0.8330 0.8328 0.8328 0.8328
2510.000000 0.8328 0.8328 0.8328 0.8328 0.8328
2505.000000 0.8328 0.8328 0.8328 0.8328 0.8328
2500.000000 0.8328 0.8328 0.8328 0.8328 0.8328
2495.000000 0.8328 0.8328 0.8328 0.8328 0.8328
2490.000000 0.8328 0.8328 0.8328 0.8328 0.8328
2485.000000 0.8328 0.8328 0.8328 0.8328 0.8327
2480.000000 0.8327 0.8325 0.8325 0.8325 0.8325
2475.000000 0.8324 0.8324 0.8323 0.8323 0.8321
2470.000000 0.8321 0.8321 0.8321 0.8320 0.8320
2465.000000 0.8318 0.8318 0.8318 0.8318 0.8317
2460.000000 0.8317 0.8316 0.8316 0.8315 0.8315
2455.000000 0.8314 0.8314 0.8313 0.8313 0.8312
2450.000000 0.8312 0.8311 0.8311 0.8310 0.8310
2445.000000 0.8309 0.8309 0.8308 0.8307 0.8306
2440.000000 0.8306 0.8305 0.8305 0.8304 0.8304
2435.000000 0.8303 0.8303 0.8302 0.8301 0.8300
2430.000000 0.8300 0.8299 0.8299 0.8298 0.8298
2425.000000 0.8297 0.8297 0.8296 0.8296 0.8295
2420.000000 0.8295 0.8294 0.8294 0.8293 0.8293
2415.000000 0.8292 0.8292 0.8291 0.8291 0.8290
2410.000000 0.8290 0.8289 0.8289 0.8288 0.8287
2405.000000 0.8286 0.8286 0.8285 0.8285 0.8284
2400.000000 0.8284 0.8283 0.8283 0.8282 0.8281
2395.000000 0.8280 0.8280 0.8278 0.8278 0.8278
2390.000000 0.8278 0.8277 0.8277 0.8275 0.8275
2385.000000 0.8275 0.8275 0.8274 0.8273 0.8271
2380.000000 0.8271 0.8271 0.8271 0.8270 0.8270
2375.000000 0.8268 0.8268 0.8268 0.8267 0.8266
2370.000000 0.8266 0.8265 0.8265 0.8264 0.8264
2365.000000 0.8263 0.8262 0.8261 0.8261 0.8260
2360.000000 0.8260 0.8259 0.8259 0.8258 0.8258
2355.000000 0.8257 0.8257 0.8256 0.8256 0.8256
2350.000000 0.8256 0.8255 0.8255 0.8255 0.8255
2345.000000 0.8254 0.8254 0.8254 0.8254 0.8253
2340.000000 0.8253 0.8253 0.8253 0.8252 0.8252
2335.000000 0.8252 0.8252 0.8252 0.8252 0.8251
2330.000000 0.8251 0.8251 0.8251 0.8251 0.8251
2325.000000 0.8251 0.8251 0.8250 0.8250 0.8250
2320.000000 0.8250 0.8250 0.8250 0.8250 0.8250
2315.000000 0.8249 0.8249 0.8249 0.8249 0.8250
2310.000000 0.8251 0.8252 0.8254 0.8255 0.8257
2305.000000 0.8259 0.8261 0.8262 0.8264 0.8265
2300.000000 0.8267 0.8268 0.8270 0.8271 0.8274
2295.000000 0.8275 0.8277 0.8278 0.8280 0.8282
2290.000000 0.8284 0.8285 0.8287 0.8288 0.8290
2285.000000 0.8292 0.8295 0.8297 0.8299 0.8301
2280.000000 0.8304 0.8306 0.8309 0.8311 0.8313
2275.000000 0.8315 0.8318 0.8320 0.8321 0.8324
2270.000000 0.8327 0.8328 0.8331 0.8333 0.8336
2265.000000 0.8338 0.8340 0.8341 0.8343 0.8345
2260.000000 0.8347 0.8349 0.8351 0.8352 0.8354
2255.000000 0.8356 0.8358 0.8360 0.8362 0.8363
2250.000000 0.8365 0.8367 0.8368 0.8371 0.8373
2245.000000 0.8374 0.8375 0.8378 0.8380 0.8381
2240.000000 0.8383 0.8385 0.8387 0.8389 0.8391
2235.000000 0.8392 0.8394 0.8396 0.8398 0.8399
2230.000000 0.8400 0.8401 0.8402 0.8402 0.8403
2225.000000 0.8404 0.8405 0.8406 0.8407 0.8408
2220.000000 0.8409 0.8410 0.8411 0.8411 0.8412
2215.000000 0.8413 0.8414 0.8415 0.8416 0.8417
2210.000000 0.8418 0.8418 0.8420 0.8421 0.8421
2205.000000 0.8421 0.8423 0.8424 0.8425 0.8425
2200.000000 0.8427 0.8428 0.8428 0.8430 0.8432
2195.000000 0.8434 0.8436 0.8438 0.8440 0.8442
2190.000000 0.8444 0.8446 0.8448 0.8450 0.8452
2185.000000 0.8454 0.8456 0.8458 0.8460 0.8462
2180.000000 0.8464 0.8466 0.8468 0.8470 0.8471
2175.000000 0.8474 0.8475 0.8478 0.8480 0.8482
2170.000000 0.8484 0.8486 0.8488 0.8490 0.8492
2165.000000 0.8494 0.8496 0.8498 0.8500 0.8502
2160.000000 0.8504 0.8506 0.8508 0.8510 0.8512
2155.000000 0.8514 0.8516 0.8517 0.8518 0.8520
2150.000000 0.8521 0.8524 0.8525 0.8527 0.8528
2145.000000 0.8530 0.8532 0.8533 0.8535 0.8537
2140.000000 0.8539 0.8540 0.8542 0.8543 0.8545
2135.000000 0.8546 0.8548 0.8549 0.8551 0.8553
2130.000000 0.8555 0.8556 0.8558 0.8559 0.8561
2125.000000 0.8562 0.8564 0.8565 0.8567 0.8568
2120.000000 0.8571 0.8571 0.8574 0.8575 0.8577
2115.000000 0.8578 0.8580 0.8581 0.8582 0.8583
2110.000000 0.8584 0.8585 0.8586 0.8587 0.8588
2105.000000 0.8589 0.8590 0.8591 0.8592 0.8593
2100.000000 0.8594 0.8594 0.8595 0.8596 0.8597
2095.000000 0.8598 0.8599 0.8600 0.8601 0.8602
2090.000000 0.8603 0.8604 0.8605 0.8606 0.8607
2085.000000 0.8608 0.8609 0.8610 0.8611 0.8612
2080.000000 0.8613 0.8613 0.8614 0.8615 0.8617
2075.000000 0.8618 0.8618 0.8620 0.8621 0.8621
2070.000000 0.8623 0.8624 0.8625 0.8627 0.8628
2065.000000 0.8628 0.8630 0.8631 0.8633 0.8634
2060.000000 0.8635 0.8636 0.8637 0.8638 0.8639
2055.000000 0.8640 0.8642 0.8643 0.8644 0.8645
2050.000000 0.8646 0.8647 0.8649 0.8650 0.8651
2045.000000 0.8652 0.8653 0.8654 0.8655 0.8655
2040.000000 0.8656 0.8657 0.8658 0.8659 0.8660
2035.000000 0.8661 0.8662 0.8663 0.8664 0.8665
2030.000000 0.8666 0.8666 0.8667 0.8668 0.8668
2025.000000 0.8670 0.8671 0.8671 0.8673 0.8674
2020.000000 0.8675 0.8675 0.8677 0.8677 0.8678
2015.000000 0.8678 0.8678 0.8678 0.8680 0.8680
2010.000000 0.8681 0.8681 0.8682 0.8683 0.8684
2005.000000 0.8684 0.8685 0.8685 0.8686 0.8687
2000.000000 0.8688 0.8690 0.8691 0.8692 0.8694
1995.000000 0.8695 0.8696 0.8698 0.8699 0.8701
1990.000000 0.8703 0.8705 0.8708 0.8710 0.8712
1985.000000 0.8714 0.8714 0.8712 0.8711 0.8710
1980.000000 0.8706 0.8700 0.8694 0.8688 0.8682
1975.000000 0.8678 0.8675 0.8673 0.8670 0.8667
1970.000000 0.8671 0.8678 0.8684 0.8690 0.8696
1965.000000 0.8703 0.8710 0.8716 0.8723 0.8728
1960.000000 0.8734 0.8738 0.8743 0.8748 0.8752
1955.000000 0.8757 0.8762 0.8766 0.8770 0.8774
1950.000000 0.8774 0.8773 0.8773 0.8771 0.8768
1945.000000 0.8766 0.8763 0.8761 0.8758 0.8755
1940.000000 0.8752 0.8749 0.8742 0.8740 0.8745
1935.000000 0.8750 0.8756 0.8761 0.8765 0.8767
1930.000000 0.8768 0.8768 0.8768 0.8766 0.8765
1925.000000 0.8759 0.8750 0.8740 0.8731 0.8723
1920.000000 0.8716 0.8710 0.8709 0.8708 0.8711
1915.000000 0.8713 0.8715 0.8718 0.8720 0.8721
1910.000000 0.8725 0.8727 0.8728 0.8733 0.8739
1905.000000 0.8744 0.8749 0.8754 0.8759 0.8768
1900.000000 0.8777 0.8784 0.8785 0.8786 0.8786
1895.000000 0.8786 0.8782 0.8778 0.8774 0.8767
1890.000000 0.8756 0.8745 0.8734 0.8721 0.8717
1885.000000 0.8716 0.8716 0.8715 0.8715 0.8714
1880.000000 0.8714 0.8713 0.8713 0.8712 0.8712
1875.000000 0.8711 0.8711 0.8711 0.8715 0.8718
1870.000000 0.8723 0.8727 0.8731 0.8734 0.8737
1865.000000 0.8740 0.8743 0.8745 0.8748 0.8751
1860.000000 0.8754 0.8756 0.8759 0.8762 0.8764
1855.000000 0.8767 0.8770 0.8771 0.8774 0.8775
1850.000000 0.8778 0.8780 0.8782 0.8784 0.8786
1845.000000 0.8788 0.8790 0.8792 0.8794 0.8795
1840.000000 0.8797 0.8799 0.8800 0.8802 0.8804
1835.000000 0.8805 0.8807 0.8808 0.8810 0.8812
1830.000000 0.8813 0.8815 0.8816 0.8818 0.8820
1825.000000 0.8821 0.8823 0.8825 0.8825 0.8828
1820.000000 0.8828 0.8831 0.8833 0.8834 0.8835
1815.000000 0.8835 0.8835 0.8835 0.8835 0.8835
1810.000000 0.8835 0.8834 0.8834 0.8834 0.8834
1805.000000 0.8834 0.8834 0.8834 0.8834 0.8834
1800.000000 0.8834 0.8833 0.8833 0.8833 0.8832
1795.000000 0.8832 0.8832 0.8831 0.8831 0.8831
1790.000000 0.8830 0.8830 0.8830 0.8830 0.8828
1785.000000 0.8828 0.8828 0.8830 0.8830 0.8831
1780.000000 0.8832 0.8832 0.8833 0.8834 0.8834
1775.000000 0.8835 0.8836 0.8836 0.8837 0.8838
1770.000000 0.8838 0.8839 0.8839 0.8839 0.8838
1765.000000 0.8838 0.8838 0.8838 0.8838 0.8838
1760.000000 0.8838 0.8837 0.8837 0.8836 0.8835
1755.000000 0.8835 0.8834 0.8834 0.8833 0.8833
1750.000000 0.8832 0.8830 0.8827 0.8825 0.8821
1745.000000 0.8820 0.8817 0.8815 0.8812 0.8810
1740.000000 0.8808 0.8807 0.8806 0.8804 0.8803
1735.000000 0.8802 0.8801 0.8800 0.8799 0.8781
1730.000000 0.8796 0.8795 0.8792 0.8788 0.8785
1725.000000 0.8782 0.8778 0.8775 0.8771 0.8768
1720.000000 0.8766 0.8762 0.8759 0.8756 0.8751
1715.000000 0.8746 0.8740 0.8735 0.8728 0.8724
1710.000000 0.8718 0.8713 0.8707 0.8702 0.8696
1705.000000 0.8691 0.8685 0.8678 0.8674 0.8668
1700.000000 0.8662 0.8656 0.8650 0.8644 0.8639
1695.000000 0.8633 0.8627 0.8621 0.8615 0.8610
1690.000000 0.8604 0.8597 0.8589 0.8582 0.8575
1685.000000 0.8568 0.8561 0.8553 0.8546 0.8539
1680.000000 0.8532 0.8525 0.8518 0.8510 0.8503
1675.000000 0.8496 0.8486 0.8475 0.8464 0.8454
1670.000000 0.8443 0.8432 0.8421 0.8411 0.8400
1665.000000 0.8388 0.8375 0.8363 0.8351 0.8339
1660.000000 0.8327 0.8314 0.8302 0.8290 0.8278
1655.000000 0.8266 0.8254 0.8242 0.8230 0.8218
1650.000000 0.8207 0.8195 0.8184 0.8171 0.8161
1645.000000 0.8154 0.8146 0.8138 0.8131 0.8122
1640.000000 0.8117 0.8111 0.8106 0.8101 0.8095
1635.000000 0.8090 0.8084 0.8078 0.8072 0.8068
1630.000000 0.8058 0.8047 0.8036 0.8024 0.8012
1625.000000 0.8000 0.7982 0.7964 0.7946 0.7928
1620.000000 0.7910 0.7885 0.7854 0.7822 0.7792
1615.000000 0.7758 0.7722 0.7676 0.7626 0.7564
1610.000000 0.7458 0.7361 0.7267 0.7075 0.6868
1605.000000 0.6648 0.6424 0.6273 0.6106 0.5678
1600.000000 0.5326 0.4434 0.3823 0.3212 0.2602
1595.000000 0.2098 0.2094 0.2232 0.2317 0.2317
1590.000000 0.2031 0.1573 0.1115 0.0657 0.0479
1585.000000 0.0392 0.0327 0.0293 0.0266 0.0221
1580.000000 0.0243 0.0244 0.0247 0.0261 0.0280
1575.000000 0.0316 0.0371 0.0457 0.0992 0.1245
1570.000000 0.1460 0.1732 0.2034 0.2221 0.2806
1565.000000 0.3376 0.3629 0.3764 0.4108 0.4538
1560.000000 0.4914 0.5224 0.5394 0.5493 0.5558
1555.000000 0.5571 0.5578 0.5544 0.5488 0.5431
1550.000000 0.5390 0.5404 0.5436 0.5592 0.5731
1545.000000 0.5945 0.6201 0.6365 0.6518 0.6626
1540.000000 0.6736 0.6796 0.6853 0.6905 0.6951
1535.000000 0.6996 0.7042 0.7088 0.7134 0.7181
1530.000000 0.7226 0.7272 0.7314 0.7351 0.7390
1525.000000 0.7426 0.7460 0.7492 0.7525 0.7557
1520.000000 0.7582 0.7605 0.7626 0.7650 0.7671
1515.000000 0.7688 0.7704 0.7721 0.7737 0.7751
1510.000000 0.7767 0.7782 0.7797 0.7811 0.7824
1505.000000 0.7836 0.7849 0.7861 0.7871 0.7880
1500.000000 0.7888 0.7895 0.7901 0.7905 0.7910
1495.000000 0.7914 0.7918 0.7922 0.7911 0.7931
1490.000000 0.7935 0.7936 0.7936 0.7930 0.7924
1485.000000 0.7901 0.7832 0.7140 0.6448 0.5231
1480.000000 0.5231 0.5230 0.5964 0.6800 0.7339
1475.000000 0.7603 0.7765 0.7800 0.7818 0.7837
1470.000000 0.7848 0.7854 0.7855 0.7855 0.7851
1465.000000 0.7838 0.7841 0.7836 0.7831 0.7824
1460.000000 0.7817 0.7810 0.7803 0.7796 0.7789
1455.000000 0.7782 0.7775 0.7771 0.7765 0.7760
1450.000000 0.7755 0.7748 0.7740 0.7731 0.7724
1445.000000 0.7711 0.7671 0.7612 0.7451 0.7067
1440.000000 0.6574 0.6380 0.6207 0.5979 0.5703
1435.000000 0.5288 0.4891 0.4494 0.4317 0.4362
1430.000000 0.4454 0.4496 0.4234 0.3857 0.3479
1425.000000 0.3101 0.2789 0.2838 0.3575 0.4312
1420.000000 0.5049 0.5786 0.5995 0.6165 0.6310
1415.000000 0.6433 0.6471 0.6478 0.6462 0.6400
1410.000000 0.6294 0.5467 0.4623 0.3780 0.2935
1405.000000 0.2062 0.1621 0.1464 0.1330 0.1234
1400.000000 0.1229 0.1416 0.1713 0.2011 0.2308
1395.000000 0.2606 0.2903 0.2990 0.2855 0.2434
1390.000000 0.2013 0.1592 0.1570 0.1559 0.1924
1385.000000 0.2361 0.2798 0.3234 0.3673 0.4895
1380.000000 0.5122 0.5364 0.5583 0.5739 0.5895
1375.000000 0.6060 0.6227 0.6404 0.6588 0.6781
1370.000000 0.6918 0.7045 0.7180 0.7228 0.7264
1365.000000 0.7275 0.7283 0.7290 0.7297 0.7321
1360.000000 0.7380 0.7425 0.7468 0.7496 0.7521
1355.000000 0.7542 0.7560 0.7567 0.7580 0.7572
1350.000000 0.7551 0.7530 0.7501 0.7467 0.7431
1345.000000 0.7393 0.7351 0.7317 0.7296 0.7268
1340.000000 0.7289 0.7293 0.7310 0.7330 0.7351
1335.000000 0.7374 0.7397 0.7418 0.7439 0.7458
1330.000000 0.7476 0.7497 0.7515 0.7528 0.7542
1325.000000 0.7554 0.7558 0.7564 0.7569 0.7571
1320.000000 0.7571 0.7571 0.7571 0.7569 0.7564
1315.000000 0.7558 0.7551 0.7546 0.7539 0.7533
1310.000000 0.7517 0.7501 0.7484 0.7449 0.7391
1305.000000 0.7303 0.7189 0.7044 0.6888 0.6398
1300.000000 0.5874 0.5519 0.5503 0.5508 0.5529
1295.000000 0.5756 0.5975 0.6193 0.6411 0.6630
1290.000000 0.6811 0.6924 0.7019 0.7101 0.7172
1285.000000 0.7244 0.7311 0.7365 0.7421 0.7461
1280.000000 0.7496 0.7524 0.7543 0.7561 0.7581
1275.000000 0.7599 0.7611 0.7625 0.7638 0.7651
1270.000000 0.7664 0.7676 0.7689 0.7700 0.7710
1265.000000 0.7721 0.7731 0.7742 0.7751 0.7758
1260.000000 0.7765 0.7774 0.7781 0.7787 0.7792
1255.000000 0.7791 0.7789 0.7783 0.7769 0.7756
1250.000000 0.7741 0.7726 0.7725 0.7725 0.7754
1245.000000 0.7775 0.7797 0.7818 0.7865 0.7844
1240.000000 0.7853 0.7860 0.7867 0.7875 0.7878
1235.000000 0.7884 0.7888 0.7893 0.7894 0.7890
1230.000000 0.7848 0.7710 0.7144 0.6486 0.6474
1225.000000 0.6865 0.7351 0.7649 0.7743 0.7819
1220.000000 0.7855 0.7890 0.7911 0.7928 0.7940
1215.000000 0.7951 0.7958 0.7965 0.7972 0.7968
1210.000000 0.7986 0.7980 0.7961 0.7938 0.7899
1205.000000 0.7860 0.7806 0.7739 0.7658 0.7628
1200.000000 0.7625 0.7624 0.7624 0.7681 0.7733
1195.000000 0.7765 0.7795 0.7825 0.7851 0.7868
1190.000000 0.7882 0.7890 0.7897 0.7895 0.7895
1185.000000 0.7895 0.7871 0.7814 0.7676 0.7458
1180.000000 0.7171 0.6886 0.6599 0.6312 0.6026
1175.000000 0.5977 0.6090 0.6398 0.6705 0.7008
1170.000000 0.7181 0.7283 0.7358 0.7436 0.7515
1165.000000 0.7590 0.7646 0.7703 0.7757 0.7795
1160.000000 0.7815 0.7830 0.7844 0.7858 0.7869
1155.000000 0.7881 0.7893 0.7904 0.7915 0.7925
1150.000000 0.7934 0.7943 0.7953 0.7961 0.7971
1145.000000 0.7982 0.7992 0.8001 0.8010 0.8018
1140.000000 0.8025 0.8034 0.8042 0.8047 0.8051
1135.000000 0.8056 0.8056 0.8055 0.8031 0.8007
1130.000000 0.7993 0.7982 0.7976 0.7975 0.7971
1125.000000 0.7968 0.7965 0.7961 0.7958 0.7956
1120.000000 0.7956 0.7955 0.7968 0.7957 0.7958
1115.000000 0.7961 0.7965 0.7969 0.7974 0.7974
1110.000000 0.7975 0.7974 0.7921 0.7851 0.7781
1105.000000 0.7744 0.7739 0.7817 0.7898 0.7985
1100.000000 0.8015 0.8045 0.8075 0.8101 0.8122
1095.000000 0.8145 0.8157 0.8167 0.8176 0.8187
1090.000000 0.8197 0.8203 0.8215 0.8215 0.8216
1085.000000 0.8221 0.8221 0.8221 0.8220 0.8212
1080.000000 0.8204 0.8198 0.8194 0.8191 0.8187
1075.000000 0.8183 0.8181 0.8178 0.8178 0.8178
1070.000000 0.8180 0.8181 0.8181 0.8182 0.8184
1065.000000 0.8186 0.8189 0.8191 0.8194 0.8197
1060.000000 0.8200 0.8203 0.8206 0.8208 0.8210
1055.000000 0.8213 0.8215 0.8218 0.8217 0.8217
1050.000000 0.8205 0.8185 0.8140 0.8033 0.7925
1045.000000 0.7826 0.7815 0.7821 0.7908 0.8007
1040.000000 0.8105 0.8104 0.8097 0.8091 0.8078
1035.000000 0.7843 0.6694 0.6003 0.6000 0.6635
1030.000000 0.7430 0.7975 0.8045 0.8095 0.8125
1025.000000 0.8142 0.8158 0.8175 0.8186 0.8197
1020.000000 0.8207 0.8218 0.8225 0.8231 0.8237
1015.000000 0.8244 0.8248 0.8252 0.8255 0.8259
1010.000000 0.8259 0.8258 0.8258 0.8257 0.8257
1005.000000 0.8256 0.8255 0.8253 0.8252 0.8251
1000.000000 0.8250 0.8249 0.8249 0.8248 0.8247
995.000000 0.8243 0.8239 0.8235 0.8233 0.8228
990.000000 0.8200 0.8167 0.8117 0.8106 0.8105
985.000000 0.8115 0.8124 0.8133 0.8140 0.8140
980.000000 0.8139 0.8139 0.8138 0.8135 0.8132
975.000000 0.8128 0.8125 0.8122 0.8119 0.8117
970.000000 0.8112 0.8108 0.8104 0.8099 0.8095
965.000000 0.8088 0.8054 0.7930 0.7807 0.7683
960.000000 0.7558 0.7524 0.7551 0.7698 0.7845
955.000000 0.7945 0.7996 0.8046 0.8085 0.8096
950.000000 0.8106 0.8118 0.8115 0.8117 0.8117
945.000000 0.8117 0.8111 0.8101 0.8056 0.7848
940.000000 0.7641 0.7574 0.7739 0.7904 0.7987
935.000000 0.7993 0.7933 0.7807 0.7694 0.7687
930.000000 0.7754 0.7837 0.7856 0.7855 0.7480
925.000000 0.7076 0.6674 0.6199 0.6255 0.6282
920.000000 0.7512 0.7769 0.7889 0.7985 0.8053
915.000000 0.8108 0.8151 0.8176 0.8193 0.8204
910.000000 0.8209 0.8214 0.8220 0.8225 0.8231
905.000000 0.8235 0.8238 0.8241 0.8245 0.8248
900.000000 0.8251 0.8254 0.8257 0.8260 0.8264
895.000000 0.8267 0.8270 0.8274 0.8278 0.8282
890.000000 0.8286 0.8290 0.8294 0.8298 0.8302
885.000000 0.8306 0.8309 0.8313 0.8316 0.8344
880.000000 0.8321 0.8325 0.8325 0.8325 0.8325
875.000000 0.8323 0.8313 0.8300 0.8283 0.8254
870.000000 0.8225 0.8189 0.8150 0.8108 0.8044
865.000000 0.7978 0.7911 0.7780 0.7528 0.7275
860.000000 0.7024 0.6956 0.7081 0.7400 0.7656
855.000000 0.7781 0.7880 0.7954 0.7998 0.8011
850.000000 0.8024 0.8037 0.8050 0.8061 0.8071
845.000000 0.8083 0.8093 0.8104 0.8114 0.8125
840.000000 0.8135 0.8146 0.8156 0.8167 0.8176
835.000000 0.8186 0.8194 0.8203 0.8211 0.8215
830.000000 0.8239 0.8223 0.8221 0.8218 0.8215
825.000000 0.8211 0.8197 0.8180 0.8164 0.8128
820.000000 0.8065 0.7965 0.7839 0.7503 0.7191
815.000000 0.6878 0.6672 0.6671 0.6683 0.6826
810.000000 0.7191 0.7555 0.7895 0.7897 0.7899
805.000000 0.7901 0.7903 0.7964 0.8040 0.8110
800.000000 0.8174 0.8230 0.8262 0.8290 0.8299
795.000000 0.8307 0.8316 0.8324 0.8330 0.8328
790.000000 0.8347 0.8325 0.8325 0.8324 0.8323
785.000000 0.8320 0.8317 0.8314 0.8310 0.8307
780.000000 0.8303 0.8300 0.8297 0.8291 0.8286
775.000000 0.8281 0.8275 0.8270 0.8264 0.8259
770.000000 0.8256 0.8253 0.8249 0.8244 0.8238
765.000000 0.8233 0.8228 0.8223 0.8217 0.8210
760.000000 0.8202 0.8194 0.8186 0.8172 0.8158
755.000000 0.8144 0.8128 0.8115 0.8100 0.8082
750.000000 0.8062 0.8045 0.8015 0.7975 0.7937
745.000000 0.7899 0.7843 0.7787 0.7728 0.7671
740.000000 0.7598 0.7524 0.7351 0.7108 0.6786
735.000000 0.6545 0.6337 0.5980 0.5438 0.4896
730.000000 0.4354 0.3812 0.3270 0.3208 0.3200
725.000000 0.3472 0.3882 0.4292 0.4702 0.5112
720.000000 0.5522 0.5848 0.5947 0.6017 0.6110
715.000000 0.6370 0.6456 0.6464 0.6465 0.6469
710.000000 0.6474 0.6483 0.6496 0.6717 0.7250
705.000000 0.7551 0.7658 0.7730 0.7801 0.7853
700.000000 0.7901 0.7948 0.7975 0.8005 0.8028
695.000000 0.8049 0.8069 0.8091 0.8111 0.8133
690.000000 0.8155 0.8175 0.8191 0.8204 0.8217
685.000000 0.8230 0.8243 0.8256 0.8268 0.8277
680.000000 0.8286 0.8294 0.8303 0.8309 0.8315
675.000000 0.8321 0.8327 0.8332 0.8334 0.8335
670.000000 0.8336 0.8338 0.8339 0.8341 0.8343
665.000000 0.8344 0.8345 0.8345 0.8345 0.8332
660.000000 0.8273 0.8213 0.8154 0.8132 0.8119
655.000000 0.8105 0.8080 0.8047 0.8008 0.7908
650.000000 0.7498 0.6787 0.6076 0.5454 0.5493
645.000000 0.5837 0.6181 0.6525 0.6868 0.7168
640.000000 0.7790 0.7903 0.7981 0.8043 0.8084
635.000000 0.8104 0.8118 0.8125 0.8145 0.8145
630.000000 0.8146 0.8125 0.8085 0.7960 0.7371
625.000000 0.6875 0.6381 0.5890 0.5907 0.6123
620.000000 0.6667 0.7210 0.7665 0.7804 0.7900
615.000000 0.7980 0.8053 0.8111 0.8143 0.8167
610.000000 0.8183 0.8196 0.8201 0.8207 0.8212
605.000000 0.8215 0.8215 0.8216 0.8216 0.8234
600.000000 0.8221 0.8223 0.8225 0.8225 0.8225
595.000000 0.8221 0.8220 0.8217 0.8209 0.8192
590.000000 0.8161 0.8038 0.7936 0.7908 0.7896
585.000000 0.7876 0.7707 0.7538 0.7368 0.7199
580.000000 0.7028 0.6982 0.6968 0.7005 0.7307
575.000000 0.7737 0.7815 0.7876 0.7908 0.7937
570.000000 0.7960 0.7975 0.7990 0.8005 0.8015
565.000000 0.8024 0.8033 0.8042 0.8051 0.8060
560.000000 0.8068 0.8078 0.8087 0.8092 0.8096
555.000000 0.8100 0.8104 0.8108 0.8111 0.8115
550.000000 0.8119 0.8124 0.8128 0.8131 0.8132
545.000000 0.8132 0.8133 0.8133 0.8134 0.8134
540.000000 0.8135 0.8135 0.8136 0.8136 0.8136
535.000000 0.8133 0.8131 0.8128 0.8125 0.8124
530.000000 0.8121 0.8118 0.8117 0.8114 0.8111
525.000000 0.8110 0.8107 0.8105 0.8101 0.8099
520.000000 0.8096 0.8093 0.8090 0.8087 0.8084
515.000000 0.8081 0.8078 0.8075 0.8104 0.8068
510.000000 0.8067 0.8064 0.8061 0.8058 0.8056
505.000000 0.8053 0.8050 0.8047 0.8044 0.8041
500.000000 0.8037 0.8033 0.8028 0.8025 0.8021
495.000000 0.8018 0.8011 0.8006 0.8000 0.7995
490.000000 0.7987 0.7978 0.7971 0.7961 0.7948
485.000000 0.7933 0.7917 0.7901 0.7883 0.7865
480.000000 0.7818 0.7762 0.7711 0.7672 0.7628
475.000000 0.7531 0.7433 0.7334 0.7258 0.7261
470.000000 0.7315 0.7392 0.7465 0.7539 0.7607
465.000000 0.7671 0.7728 0.7745 0.7742 0.7739
460.000000 0.7735 0.7732 0.7719 0.7708 0.7696
455.000000 0.7685 0.7672 0.7661 0.7650 0.7638
450.000000 0.7625 0.7615 0.7598 0.7585 0.7571
445.000000 0.7557 0.7544 0.7530 0.7515 0.7503
440.000000 0.7489 0.7475 0.7461 0.7449 0.7436
435.000000 0.7421 0.7408 0.7396 0.7382 0.7368
430.000000 0.7356 0.7342 0.7328 0.7315 0.7301
425.000000 0.7288 0.7275 0.7261 0.7248 0.7234
420.000000 0.7221 0.7205 0.7188 0.7171 0.7154
415.000000 0.7137 0.7119 0.7101 0.7080 0.7057
410.000000 0.7035 0.7011 0.6949 0.6891 0.6847
405.000000 0.6803 0.6762 0.6739 0.6715 0.6693
400.000000 0.6669 0.6646 0.6625 0.6610 0.6594
395.000000 0.6576 0.6561 0.6544 0.6528 0.6514
390.000000 0.6500 0.6486 0.6471
##END=
