##TITLE=BENZOIC ACID AMMONIUM SALT
$$ E. K. CO. (WHITE LABEL)
##JCAMP-DX=4.24
##DATA TYPE=INFRARED SPECTRUM
##CLASS=COBLENTZ
##ORIGIN=WYANDOTTE CHEMICALS CORP., WYANDOTTE, MICHIGAN, USA
##OWNER=COBLENTZ SOCIETY
Collection (C) 2018 copyright by the U.S. Secretary of Commerce
on behalf of the United States of America. All rights reserved.
##DATE=Not specified, most likely prior to 1970
##NAMES=benzoic acid ammoniate
##MOLFORM=C7 H9 N O2
##MP=200 C DECOMPOSES
##SOURCE REFERENCE=COBLENTZ NO. 2833
##$NIST ID=B6002833
##$NIST SOURCE=COBLENTZ
##$NIST IMAGE=cob2833
##SPECTROMETER/DATA SYSTEM=Not specified, most likely a prism, grating, or hybrid spectrometer.
##STATE=SOLID (MINERAL OIL MULL)
##PATH LENGTH=
$$SPECTRAL CONTAMINATION DUE TO OIL AROUND 2900 CM^-^1
##SAMPLING PROCEDURE=TRANSMISSION
##RESOLUTION=4
##DATA PROCESSING=DIGITIZED BY NIST FROM HARD COPY
##XUNITS=MICROMETERS
##YUNITS=TRANSMITTANCE
##XFACTOR=1.000000
##YFACTOR=1
##DELTAX=000.006613
##FIRSTX=2.073
##LASTX=15.9997
##FIRSTY=0.806
##MAXX=15.9997
##MINX=2.073
##MAXY=0.955
##MINY=0.034
##NPOINTS=2107
##XYDATA=(X++(Y..Y))
2.073000 0.8060 0.8070 0.8090 0.8110 0.8110
2.106081 0.8220 0.8240 0.8260 0.8270 0.8290
2.139000 0.8290 0.8290 0.8290 0.8310 0.8310
2.172081 0.8310 0.8310 0.8310 0.8310 0.8310
2.205000 0.8310 0.8320 0.8320 0.8320 0.8340
2.238081 0.8340 0.8360 0.8360 0.8370 0.8390
2.271000 0.8420 0.8440 0.8460 0.8470 0.8490
2.304081 0.8500 0.8520 0.8540 0.8550 0.8550
2.337000 0.8570 0.8590 0.8600 0.8620 0.8640
2.370081 0.8650 0.8670 0.8700 0.8720 0.8750
2.403000 0.8790 0.8820 0.8820 0.8840 0.8840
2.436081 0.8840 0.8840 0.8840 0.8840 0.8840
2.470000 0.8840 0.8840 0.8840 0.8840 0.8840
2.503081 0.8850 0.8870 0.8890 0.8920 0.8950
2.536000 0.9000 0.9070 0.9100 0.9120 0.9150
2.569081 0.9150 0.9120 0.9050 0.8990 0.8990
2.602000 0.9000 0.9120 0.9170 0.9180 0.9200
2.635081 0.9200 0.9220 0.9220 0.9230 0.9230
2.668000 0.9230 0.9250 0.9250 0.9270 0.9280
2.701081 0.9300 0.9320 0.9330 0.9330 0.9350
2.734000 0.9350 0.9370 0.9370 0.9370 0.9380
2.767081 0.9380 0.9370 0.9370 0.9350 0.9330
2.800000 0.9320 0.9320 0.9300 0.9300 0.9320
2.833081 0.9320 0.9320 0.9300 0.9300 0.9270
2.866000 0.9230 0.9220 0.9200 0.9200 0.9180
2.899081 0.9180 0.9170 0.9150 0.9120 0.9080
2.932000 0.9070 0.9030 0.9020 0.8970 0.8920
2.965081 0.8800 0.8700 0.8600 0.8490 0.8290
2.999000 0.8020 0.7740 0.7410 0.7080 0.6730
3.032081 0.6570 0.6390 0.6020 0.5690 0.5360
3.065000 0.5040 0.4760 0.4560 0.4330 0.4170
3.098081 0.3970 0.3820 0.3690 0.3550 0.3460
3.131000 0.3360 0.3340 0.3310 0.3260 0.3220
3.164081 0.3190 0.3170 0.3140 0.3110 0.3110
3.197000 0.3090 0.3070 0.3060 0.3040 0.2960
3.230081 0.2840 0.2710 0.2560 0.2430 0.2280
3.263000 0.2160 0.2080 0.2050 0.2010 0.1980
3.296081 0.1920 0.1870 0.1770 0.1620 0.1400
3.329000 0.1140 0.0890 0.0660 0.0510 0.0440
3.362081 0.0390 0.0360 0.0340 0.0340 0.0360
3.395000 0.0380 0.0430 0.0490 0.0540 0.0590
3.428081 0.0690 0.0810 0.0820 0.0840 0.0840
3.462000 0.0820 0.0820 0.0810 0.0810 0.0820
3.495081 0.0990 0.1240 0.1470 0.1680 0.1880
3.528000 0.2060 0.2250 0.2410 0.2560 0.2690
3.561081 0.2830 0.2960 0.3070 0.3170 0.3270
3.594000 0.3460 0.3540 0.3600 0.3690 0.3750
3.627081 0.3820 0.3890 0.3950 0.4020 0.4070
3.660000 0.4130 0.4200 0.4270 0.4330 0.4420
3.693081 0.4480 0.4560 0.4660 0.4750 0.4850
3.726000 0.4950 0.5030 0.5090 0.5160 0.5240
3.759081 0.5330 0.5390 0.5480 0.5540 0.5620
3.792000 0.5690 0.5770 0.5840 0.5920 0.5990
3.825081 0.6040 0.6070 0.6170 0.6220 0.6270
3.858000 0.6320 0.6370 0.6420 0.6470 0.6500
3.891081 0.6550 0.6600 0.6650 0.6730 0.6770
3.924000 0.6820 0.6870 0.6900 0.6950 0.7000
3.957081 0.7030 0.7050 0.7060 0.7080 0.7110
3.991000 0.7150 0.7210 0.7280 0.7300 0.7310
4.024081 0.7350 0.7400 0.7450 0.7480 0.7510
4.057000 0.7530 0.7540 0.7560 0.7590 0.7610
4.090081 0.7630 0.7640 0.7680 0.7710 0.7740
4.123000 0.7760 0.7760 0.7780 0.7780 0.7780
4.156081 0.7790 0.7810 0.7840 0.7880 0.7910
4.189000 0.7940 0.7980 0.8020 0.8040 0.8040
4.222081 0.8020 0.7980 0.7910 0.7890 0.7810
4.255000 0.7790 0.7790 0.7790 0.7880 0.7930
4.288081 0.7930 0.7940 0.7980 0.8010 0.8020
4.321000 0.8060 0.8090 0.8140 0.8210 0.8310
4.354081 0.8360 0.8420 0.8520 0.8600 0.8650
4.387000 0.8690 0.8700 0.8700 0.8700 0.8690
4.420081 0.8690 0.8690 0.8670 0.8670 0.8650
4.453000 0.8650 0.8650 0.8670 0.8670 0.8670
4.486081 0.8670 0.8690 0.8690 0.8690 0.8700
4.520000 0.8700 0.8700 0.8700 0.8700 0.8700
4.553081 0.8700 0.8700 0.8690 0.8690 0.8670
4.586000 0.8620 0.8590 0.8570 0.8550 0.8550
4.619081 0.8520 0.8520 0.8500 0.8490 0.8470
4.652000 0.8470 0.8460 0.8440 0.8420 0.8420
4.685081 0.8410 0.8410 0.8390 0.8390 0.8390
4.718000 0.8370 0.8370 0.8360 0.8360 0.8320
4.751081 0.8310 0.8290 0.8290 0.8290 0.8290
4.784000 0.8310 0.8320 0.8340 0.8390 0.8420
4.817081 0.8440 0.8490 0.8500 0.8500 0.8520
4.850000 0.8520 0.8540 0.8570 0.8600 0.8600
4.883081 0.8640 0.8650 0.8650 0.8650 0.8650
4.916000 0.8650 0.8650 0.8670 0.8670 0.8690
4.949081 0.8690 0.8690 0.8690 0.8700 0.8700
4.983000 0.8700 0.8720 0.8720 0.8720 0.8720
5.016081 0.8740 0.8740 0.8740 0.8740 0.8740
5.049000 0.8720 0.8720 0.8720 0.8700 0.8690
5.082081 0.8650 0.8640 0.8600 0.8570 0.8540
5.115000 0.8470 0.8410 0.8390 0.8410 0.8420
5.148081 0.8470 0.8540 0.8550 0.8550 0.8550
5.181000 0.8550 0.8550 0.8540 0.8500 0.8470
5.214081 0.8440 0.8390 0.8340 0.8240 0.8120
5.247000 0.8020 0.7960 0.7910 0.7890 0.7910
5.280081 0.8040 0.8070 0.8120 0.8140 0.8140
5.313000 0.8160 0.8160 0.8170 0.8170 0.8170
5.346081 0.8190 0.8190 0.8190 0.8190 0.8190
5.379000 0.8210 0.8220 0.8240 0.8240 0.8260
5.412081 0.8260 0.8260 0.8270 0.8270 0.8270
5.445000 0.8290 0.8310 0.8320 0.8340 0.8340
5.478081 0.8340 0.8360 0.8360 0.8360 0.8370
5.512000 0.8410 0.8460 0.8490 0.8520 0.8520
5.545081 0.8520 0.8520 0.8540 0.8540 0.8540
5.578000 0.8520 0.8520 0.8500 0.8500 0.8520
5.611081 0.8540 0.8640 0.8690 0.8720 0.8720
5.644000 0.8740 0.8740 0.8740 0.8750 0.8790
5.677081 0.8790 0.8800 0.8820 0.8840 0.8840
5.710000 0.8840 0.8840 0.8840 0.8840 0.8840
5.743081 0.8840 0.8840 0.8840 0.8840 0.8840
5.776000 0.8840 0.8840 0.8820 0.8800 0.8790
5.809081 0.8750 0.8720 0.8700 0.8700 0.8700
5.842000 0.8700 0.8690 0.8670 0.8670 0.8670
5.875081 0.8650 0.8640 0.8620 0.8600 0.8590
5.908000 0.8550 0.8500 0.8490 0.8460 0.8460
5.941081 0.8420 0.8390 0.8370 0.8340 0.8310
5.974000 0.8260 0.8220 0.8170 0.8110 0.8020
6.007081 0.7940 0.7880 0.7790 0.7730 0.7690
6.041000 0.7660 0.7640 0.7610 0.7560 0.7460
6.074081 0.7400 0.7350 0.7280 0.7200 0.7100
6.107000 0.6930 0.6700 0.6550 0.6390 0.5970
6.140081 0.5740 0.5560 0.5480 0.5410 0.5390
6.173000 0.5280 0.4880 0.4170 0.3420 0.2680
6.206081 0.1870 0.1700 0.1530 0.1370 0.1350
6.239000 0.1370 0.1950 0.2460 0.3020 0.3890
6.272081 0.4470 0.5310 0.5840 0.5870 0.5870
6.305000 0.5810 0.5240 0.4530 0.3790 0.3420
6.338081 0.3060 0.2480 0.2100 0.1950 0.1820
6.371000 0.1680 0.1570 0.1440 0.1290 0.1100
6.404081 0.1020 0.0990 0.0960 0.0940 0.0920
6.437000 0.0920 0.0940 0.0940 0.0960 0.0970
6.470081 0.0990 0.1000 0.1000 0.1020 0.1040
6.504000 0.1090 0.1150 0.1240 0.1340 0.1450
6.537081 0.1580 0.1750 0.1920 0.2110 0.2330
6.570000 0.2540 0.2690 0.2840 0.2980 0.3040
6.603081 0.3090 0.3120 0.3570 0.3800 0.4020
6.636000 0.4030 0.4050 0.4100 0.4130 0.4150
6.669081 0.4150 0.4130 0.4020 0.3970 0.3900
6.702000 0.3840 0.3800 0.3770 0.3720 0.3620
6.735081 0.3440 0.3310 0.3160 0.3060 0.2890
6.768000 0.2690 0.2460 0.2200 0.1950 0.1680
6.801081 0.1520 0.1400 0.1290 0.1270 0.1270
6.834000 0.1250 0.1250 0.1240 0.1220 0.1190
6.867081 0.1190 0.1170 0.1150 0.1150 0.1150
6.900000 0.1170 0.1200 0.1270 0.1290 0.1300
6.933081 0.1320 0.1320 0.1340 0.1350 0.1350
6.966000 0.1370 0.1370 0.1390 0.1400 0.1420
6.999081 0.1440 0.1450 0.1470 0.1500 0.1520
7.033000 0.1630 0.1670 0.1720 0.1780 0.1870
7.066081 0.1970 0.2050 0.2150 0.2230 0.2300
7.099000 0.2330 0.2350 0.2350 0.2330 0.2300
7.132081 0.2260 0.2200 0.2130 0.2060 0.1980
7.165000 0.1870 0.1820 0.1780 0.1720 0.1700
7.198081 0.1700 0.1700 0.1700 0.1700 0.1700
7.231000 0.1700 0.1720 0.1720 0.1730 0.1770
7.264081 0.1850 0.1950 0.2130 0.2350 0.2460
7.297000 0.2590 0.2740 0.2890 0.3070 0.3240
7.330081 0.3590 0.3750 0.3900 0.4050 0.4180
7.363000 0.4300 0.4380 0.4430 0.4480 0.4510
7.396081 0.4560 0.4630 0.4700 0.4760 0.4850
7.429000 0.4930 0.5030 0.5130 0.5230 0.5330
7.462081 0.5430 0.5540 0.5660 0.5760 0.5840
7.496000 0.5920 0.5990 0.6070 0.6140 0.6190
7.529081 0.6250 0.6300 0.6350 0.6370 0.6390
7.562000 0.6400 0.6390 0.6350 0.6250 0.6200
7.595081 0.6100 0.5970 0.5960 0.5970 0.6050
7.628000 0.6150 0.6240 0.6340 0.6420 0.6500
7.661081 0.6550 0.6570 0.6580 0.6600 0.6600
7.694000 0.6600 0.6620 0.6630 0.6770 0.6820
7.727081 0.6870 0.6880 0.6880 0.6880 0.6850
7.760000 0.6800 0.6730 0.6680 0.6650 0.6620
7.793081 0.6600 0.6600 0.6600 0.6620 0.6800
7.826000 0.6880 0.6950 0.7030 0.7100 0.7150
7.859081 0.7210 0.7260 0.7330 0.7380 0.7410
7.892000 0.7460 0.7510 0.7540 0.7560 0.7580
7.925081 0.7610 0.7640 0.7680 0.7710 0.7740
7.958000 0.7790 0.7830 0.7880 0.7910 0.7940
7.991081 0.7960 0.7980 0.7990 0.8020 0.8020
8.025000 0.8040 0.8040 0.8060 0.8070 0.8070
8.058081 0.8070 0.8060 0.8040 0.8010 0.7990
8.091000 0.7980 0.7980 0.7980 0.7990 0.8040
8.124081 0.8090 0.8120 0.8170 0.8190 0.8220
8.157000 0.8260 0.8290 0.8290 0.8290 0.8290
8.190081 0.8310 0.8320 0.8340 0.8340 0.8340
8.223000 0.8360 0.8370 0.8390 0.8410 0.8420
8.256081 0.8440 0.8460 0.8490 0.8500 0.8500
8.289000 0.8520 0.8520 0.8540 0.8550 0.8570
8.322081 0.8590 0.8600 0.8600 0.8620 0.8640
8.355000 0.8640 0.8650 0.8650 0.8650 0.8670
8.388081 0.8670 0.8690 0.8690 0.8690 0.8700
8.421000 0.8700 0.8700 0.8720 0.8720 0.8740
8.454081 0.8750 0.8750 0.8750 0.8740 0.8720
8.487000 0.8700 0.8670 0.8640 0.8600 0.8570
8.520081 0.8550 0.8550 0.8540 0.8540 0.8550
8.554000 0.8550 0.8570 0.8590 0.8640 0.8670
8.587081 0.8720 0.8740 0.8770 0.8800 0.8820
8.620000 0.8840 0.8850 0.8850 0.8870 0.8890
8.653081 0.8900 0.8920 0.8940 0.8990 0.9000
8.686000 0.9000 0.9020 0.9020 0.9030 0.9070
8.719081 0.9100 0.9130 0.9180 0.9220 0.9230
8.752000 0.9250 0.9270 0.9270 0.9270 0.9280
8.785081 0.9280 0.9280 0.9280 0.9280 0.9280
8.818000 0.9280 0.9280 0.9300 0.9300 0.9320
8.851081 0.9330 0.9350 0.9370 0.9380 0.9380
8.884000 0.9380 0.9380 0.9380 0.9380 0.9380
8.917081 0.9380 0.9380 0.9380 0.9380 0.9370
8.950000 0.9370 0.9370 0.9370 0.9370 0.9370
8.983081 0.9370 0.9370 0.9350 0.9330 0.9300
9.017000 0.9250 0.9200 0.9100 0.9000 0.8840
9.050081 0.8770 0.8750 0.8750 0.8790 0.8900
9.083000 0.8990 0.9070 0.9120 0.9180 0.9250
9.116081 0.9280 0.9280 0.9300 0.9320 0.9320
9.149000 0.9330 0.9330 0.9330 0.9330 0.9350
9.182081 0.9350 0.9350 0.9350 0.9350 0.9330
9.215000 0.9330 0.9330 0.9320 0.9300 0.9280
9.248081 0.9270 0.9250 0.9230 0.9200 0.9180
9.281000 0.9170 0.9120 0.9030 0.8900 0.8720
9.314081 0.8440 0.8060 0.6930 0.6220 0.5490
9.347000 0.5000 0.4750 0.4500 0.4480 0.4500
9.380081 0.5210 0.5570 0.6200 0.7160 0.7540
9.413000 0.7840 0.8070 0.8260 0.8410 0.8520
9.446081 0.8600 0.8690 0.8750 0.8820 0.8900
9.479000 0.8990 0.9000 0.9020 0.9030 0.9080
9.512081 0.9100 0.9100 0.9120 0.9130 0.9130
9.546000 0.9150 0.9150 0.9170 0.9170 0.9180
9.579081 0.9180 0.9180 0.9200 0.9200 0.9220
9.612000 0.9220 0.9220 0.9220 0.9230 0.9230
9.645081 0.9230 0.9230 0.9230 0.9230 0.9230
9.678000 0.9230 0.9230 0.9250 0.9250 0.9270
9.711081 0.9270 0.9270 0.9250 0.9230 0.9180
9.744000 0.9120 0.9000 0.8750 0.8500 0.7960
9.777081 0.7080 0.6800 0.6500 0.6490 0.6500
9.810000 0.6530 0.7180 0.7430 0.7710 0.7980
9.843081 0.8210 0.8390 0.8470 0.8570 0.8640
9.876000 0.8690 0.8740 0.8770 0.8800 0.8840
9.909081 0.8850 0.8870 0.8890 0.8920 0.8940
9.942000 0.8950 0.8990 0.9000 0.9000 0.8990
9.975081 0.8850 0.8720 0.8650 0.8520 0.8500
10.009000 0.8520 0.8650 0.8770 0.8840 0.8900
10.042081 0.8940 0.8970 0.9000 0.9020 0.9020
10.075000 0.9020 0.9030 0.9030 0.9050 0.9050
10.108081 0.9050 0.9050 0.9050 0.9050 0.9050
10.141000 0.9050 0.9030 0.9030 0.9020 0.9000
10.174081 0.8990 0.8970 0.8970 0.8940 0.8940
10.207000 0.8920 0.8920 0.8920 0.8920 0.8920
10.240081 0.8920 0.8920 0.8920 0.8940 0.8940
10.273000 0.8950 0.8950 0.8970 0.8990 0.8990
10.306081 0.8990 0.8990 0.9000 0.9000 0.9000
10.339000 0.9020 0.9020 0.9020 0.9020 0.9030
10.372081 0.9030 0.9050 0.9070 0.9070 0.9070
10.405000 0.9070 0.9070 0.9070 0.9050 0.9050
10.438081 0.9050 0.9050 0.9030 0.9030 0.9050
10.471000 0.9050 0.9050 0.9070 0.9070 0.9080
10.504081 0.9080 0.9080 0.9080 0.9080 0.9100
10.538000 0.9100 0.9120 0.9120 0.9120 0.9130
10.571081 0.9130 0.9150 0.9150 0.9150 0.9150
10.604000 0.9150 0.9150 0.9150 0.9150 0.9150
10.637081 0.9130 0.9130 0.9130 0.9120 0.9100
10.670000 0.9050 0.9050 0.9000 0.8990 0.8990
10.703081 0.9000 0.9020 0.9050 0.9080 0.9120
10.736000 0.9130 0.9150 0.9180 0.9200 0.9200
10.769081 0.9220 0.9220 0.9220 0.9230 0.9230
10.802000 0.9230 0.9250 0.9250 0.9250 0.9250
10.835081 0.9270 0.9270 0.9280 0.9280 0.9280
10.868000 0.9280 0.9280 0.9300 0.9300 0.9300
10.901081 0.9300 0.9300 0.9300 0.9300 0.9300
10.934000 0.9300 0.9300 0.9300 0.9300 0.9300
10.967081 0.9320 0.9320 0.9320 0.9330 0.9330
11.000000 0.9330 0.9350 0.9350 0.9350 0.9350
11.033081 0.9350 0.9350 0.9350 0.9350 0.9380
11.067000 0.9380 0.9380 0.9380 0.9380 0.9380
11.100081 0.9380 0.9380 0.9400 0.9400 0.9400
11.133000 0.9400 0.9400 0.9400 0.9400 0.9400
11.166081 0.9400 0.9400 0.9400 0.9400 0.9400
11.199000 0.9400 0.9400 0.9400 0.9400 0.9400
11.232081 0.9400 0.9420 0.9420 0.9420 0.9420
11.265000 0.9420 0.9420 0.9420 0.9420 0.9420
11.298081 0.9420 0.9420 0.9420 0.9420 0.9430
11.331000 0.9450 0.9450 0.9450 0.9450 0.9470
11.364081 0.9470 0.9470 0.9470 0.9470 0.9470
11.397000 0.9480 0.9480 0.9480 0.9480 0.9480
11.430081 0.9480 0.9480 0.9480 0.9480 0.9480
11.463000 0.9480 0.9480 0.9480 0.9480 0.9480
11.496081 0.9500 0.9510 0.9510 0.9510 0.9510
11.530000 0.9510 0.9510 0.9510 0.9510 0.9510
11.563081 0.9530 0.9530 0.9530 0.9550 0.9550
11.596000 0.9550 0.9550 0.9550 0.9550 0.9530
11.629081 0.9530 0.9510 0.9500 0.9480 0.9480
11.662000 0.9480 0.9480 0.9480 0.9480 0.9480
11.695081 0.9480 0.9480 0.9500 0.9500 0.9510
11.728000 0.9530 0.9530 0.9530 0.9530 0.9530
11.761081 0.9510 0.9500 0.9480 0.9480 0.9470
11.794000 0.9470 0.9450 0.9430 0.9400 0.9400
11.827081 0.9380 0.9380 0.9370 0.9370 0.9370
11.860000 0.9370 0.9380 0.9380 0.9380 0.9400
11.893081 0.9400 0.9400 0.9400 0.9380 0.9380
11.926000 0.9330 0.9300 0.9280 0.9250 0.9180
11.959081 0.9070 0.8890 0.8600 0.8220 0.7690
11.992000 0.7080 0.6850 0.6600 0.6240 0.5940
12.025081 0.5670 0.5390 0.5180 0.5000 0.4980
12.059000 0.4980 0.5000 0.5290 0.5560 0.5820
12.092081 0.6090 0.6320 0.6570 0.7010 0.7230
12.125000 0.7410 0.7610 0.7790 0.7960 0.8110
12.158081 0.8240 0.8320 0.8390 0.8460 0.8500
12.191000 0.8570 0.8640 0.8720 0.8800 0.8840
12.224081 0.8850 0.8870 0.8890 0.8920 0.8940
12.257000 0.8940 0.8950 0.8970 0.8970 0.8990
12.290081 0.8990 0.8990 0.8990 0.8970 0.8970
12.323000 0.8970 0.8950 0.8950 0.8940 0.8940
12.356081 0.8920 0.8900 0.8900 0.8900 0.8890
12.389000 0.8890 0.8900 0.8920 0.8940 0.8950
12.422081 0.8970 0.8990 0.9000 0.9030 0.9050
12.455000 0.9080 0.9100 0.9130 0.9150 0.9180
12.488081 0.9200 0.9200 0.9220 0.9220 0.9230
12.521000 0.9230 0.9250 0.9280 0.9280 0.9280
12.554081 0.9280 0.9300 0.9300 0.9300 0.9300
12.588000 0.9320 0.9320 0.9320 0.9320 0.9330
12.621081 0.9330 0.9330 0.9330 0.9330 0.9330
12.654000 0.9350 0.9350 0.9350 0.9350 0.9350
12.687081 0.9350 0.9370 0.9370 0.9370 0.9370
12.720000 0.9370 0.9370 0.9370 0.9370 0.9380
12.753081 0.9380 0.9380 0.9380 0.9380 0.9400
12.786000 0.9400 0.9400 0.9400 0.9400 0.9420
12.819081 0.9420 0.9420 0.9420 0.9420 0.9420
12.852000 0.9420 0.9420 0.9420 0.9400 0.9400
12.885081 0.9380 0.9380 0.9380 0.9380 0.9380
12.918000 0.9370 0.9370 0.9370 0.9370 0.9370
12.951081 0.9370 0.9370 0.9370 0.9350 0.9350
12.984000 0.9350 0.9350 0.9350 0.9330 0.9330
13.017081 0.9330 0.9320 0.9300 0.9300 0.9300
13.051000 0.9300 0.9300 0.9300 0.9300 0.9300
13.084081 0.9300 0.9300 0.9300 0.9300 0.9300
13.117000 0.9300 0.9280 0.9280 0.9270 0.9270
13.150081 0.9250 0.9250 0.9250 0.9250 0.9230
13.183000 0.9250 0.9250 0.9250 0.9230 0.9230
13.216081 0.9230 0.9230 0.9220 0.9220 0.9220
13.249000 0.9200 0.9200 0.9180 0.9180 0.9180
13.282081 0.9170 0.9170 0.9150 0.9150 0.9130
13.315000 0.9130 0.9120 0.9120 0.9100 0.9080
13.348081 0.9080 0.9070 0.9050 0.9050 0.9030
13.381000 0.9020 0.9020 0.9000 0.8990 0.8970
13.414081 0.8950 0.8940 0.8940 0.8920 0.8900
13.447000 0.8890 0.8870 0.8850 0.8840 0.8820
13.480081 0.8790 0.8770 0.8750 0.8740 0.8690
13.513000 0.8670 0.8640 0.8620 0.8590 0.8550
13.546081 0.8540 0.8500 0.8460 0.8420 0.8390
13.580000 0.8340 0.8290 0.8220 0.8170 0.8090
13.613081 0.8060 0.7990 0.7910 0.7810 0.7710
13.646000 0.7580 0.7450 0.7300 0.7160 0.7000
13.679081 0.6850 0.6700 0.6630 0.6570 0.6420
13.712000 0.6290 0.6170 0.6070 0.5990 0.5910
13.745081 0.5820 0.5720 0.5620 0.5510 0.5380
13.778000 0.5230 0.5040 0.4830 0.4580 0.4300
13.811081 0.3990 0.3600 0.3390 0.3170 0.2880
13.844000 0.2590 0.2400 0.2200 0.1980 0.1780
13.877081 0.1600 0.1420 0.1270 0.1170 0.1090
13.910000 0.1050 0.1000 0.0960 0.0940 0.0940
13.943081 0.0940 0.0960 0.0990 0.1040 0.1100
13.976000 0.1170 0.1270 0.1370 0.1500 0.1630
14.009081 0.1780 0.1970 0.2150 0.2360 0.2580
14.043000 0.2830 0.3090 0.3670 0.3990 0.4320
14.076081 0.4530 0.4750 0.4960 0.5180 0.5410
14.109000 0.5610 0.5810 0.5990 0.6170 0.6320
14.142081 0.6440 0.6530 0.6620 0.6780 0.6880
14.175000 0.6970 0.7050 0.7130 0.7210 0.7300
14.208081 0.7380 0.7460 0.7540 0.7610 0.7680
14.241000 0.7740 0.7790 0.7840 0.7940 0.7980
14.274081 0.8010 0.8060 0.8120 0.8170 0.8220
14.307000 0.8260 0.8290 0.8360 0.8390 0.8410
14.340081 0.8410 0.8420 0.8420 0.8440 0.8440
14.373000 0.8460 0.8460 0.8460 0.8470 0.8470
14.406081 0.8490 0.8490 0.8490 0.8470 0.8420
14.439000 0.8390 0.8340 0.8310 0.8240 0.8160
14.472081 0.8060 0.7930 0.7760 0.7540 0.7360
14.505000 0.7200 0.7050 0.6920 0.6850 0.6750
14.538081 0.6700 0.6650 0.6630 0.6630 0.6630
14.572000 0.6650 0.6780 0.6830 0.6930 0.7030
14.605081 0.7130 0.7260 0.7380 0.7500 0.7610
14.638000 0.7710 0.7780 0.7840 0.7880 0.7960
14.671081 0.7990 0.8020 0.8040 0.8040 0.8060
14.704000 0.8070 0.8090 0.8090 0.8090 0.8090
14.737081 0.8070 0.8020 0.7990 0.7980 0.7910
14.770000 0.7830 0.7660 0.7540 0.7410 0.7280
14.803081 0.7110 0.6950 0.6780 0.6700 0.6620
14.836000 0.6450 0.6290 0.6120 0.5970 0.5840
14.869081 0.5710 0.5610 0.5510 0.5460 0.5360
14.902000 0.5340 0.5340 0.5340 0.5380 0.5430
14.935081 0.5510 0.5620 0.5760 0.5920 0.6050
14.968000 0.6170 0.6290 0.6390 0.6470 0.6570
15.001081 0.6650 0.6780 0.6870 0.6930 0.6970
15.034000 0.6980 0.6980 0.7000 0.7010 0.7050
15.067081 0.7060 0.7100 0.7150 0.7200 0.7260
15.101000 0.7330 0.7400 0.7500 0.7590 0.7690
15.134081 0.7760 0.7810 0.7880 0.7940 0.7990
15.167000 0.8060 0.8090 0.8120 0.8160 0.8170
15.200081 0.8170 0.8210 0.8220 0.8220 0.8220
15.233000 0.8210 0.8210 0.8190 0.8190 0.8170
15.266081 0.8160 0.8160 0.8140 0.8140 0.8120
15.299000 0.8110 0.8090 0.8090 0.8070 0.8070
15.332081 0.8060 0.8060 0.8040 0.8040 0.8040
15.365000 0.8040 0.8040 0.8020 0.8010 0.7990
15.398081 0.7980 0.7980 0.7960 0.7960 0.7960
15.431000 0.7940 0.7940 0.7940 0.7940 0.7930
15.464081 0.7930 0.7910 0.7880 0.7840 0.7810
15.497000 0.7790 0.7790 0.7790 0.7780 0.7760
15.530081 0.7760 0.7740 0.7740 0.7740 0.7730
15.564000 0.7730 0.7730 0.7710 0.7710 0.7710
15.597081 0.7690 0.7690 0.7690 0.7680 0.7680
15.630000 0.7660 0.7660 0.7640 0.7640 0.7630
15.663081 0.7630 0.7610 0.7610 0.7580 0.7580
15.696000 0.7560 0.7540 0.7530 0.7510 0.7500
15.729081 0.7460 0.7460 0.7450 0.7450 0.7430
15.762000 0.7430 0.7410 0.7410 0.7400 0.7400
15.795081 0.7380 0.7360 0.7330 0.7300 0.7300
15.828000 0.7280 0.7280 0.7260 0.7260 0.7250
15.861081 0.7250 0.7230 0.7210 0.7200 0.7180
15.894000 0.7160 0.7150 0.7130 0.7110 0.7060
15.927081 0.7030 0.7030 0.7010 0.7010 0.7010
15.960000 0.7010 0.7010 0.7000 0.7000 0.6930
15.993081 0.7000 0.7000
##END=
