##TITLE=Alpha,Alpha-DICHLOROPROPIONIC ACID, AMMONIUM SALT
##JCAMP-DX=4.24
##DATA TYPE=INFRARED SPECTRUM
##CLASS=COBLENTZ
##ORIGIN=DOW CHEMICAL COMPANY
##OWNER=COBLENTZ SOCIETY
Collection (C) 2018 copyright by the U.S. Secretary of Commerce
on behalf of the United States of America. All rights reserved.
##DATE=Not specified, most likely prior to 1970
##NAMES=2,2-dichloropropanoic acid ammoniate
##MOLFORM=C3 H7 Cl2 N O2
##SOURCE REFERENCE=COBLENTZ NO. 3168
##$NIST ID=B6003168
##$NIST SOURCE=COBLENTZ
##$NIST IMAGE=cob3168
##SPECTROMETER/DATA SYSTEM=Not specified, most likely a prism, grating, or hybrid spectrometer.
##STATE=SOLID (MINERAL OIL MULL)
##PATH LENGTH=
$$SPECTRAL CONTAMINATION DUE TO OIL AROUND 2900 CM^-^1
##SAMPLING PROCEDURE=TRANSMISSION
##RESOLUTION=4
##DATA PROCESSING=DIGITIZED BY NIST FROM HARD COPY
##XUNITS=MICROMETERS
##YUNITS=TRANSMITTANCE
##XFACTOR=1.000000
##YFACTOR=1
##DELTAX=000.006829
##FIRSTX=2.02
##LASTX=15.8707
##FIRSTY=0.867
##MAXX=15.8707
##MINX=2.02
##MAXY=0.942
##MINY=0.051
##NPOINTS=2029
##XYDATA=(X++(Y..Y))
2.020000 0.8670 0.8670 0.8650 0.8630 0.8620
2.054163 0.8620 0.8600 0.8600 0.8600 0.8620
2.089000 0.8620 0.8630 0.8630 0.8630 0.8630
2.123163 0.8630 0.8620 0.8620 0.8620 0.8600
2.157000 0.8600 0.8600 0.8600 0.8620 0.8620
2.191163 0.8620 0.8630 0.8630 0.8630 0.8600
2.225000 0.8580 0.8580 0.8550 0.8530 0.8530
2.259163 0.8530 0.8550 0.8550 0.8560 0.8600
2.294000 0.8600 0.8620 0.8630 0.8650 0.8650
2.328163 0.8650 0.8650 0.8650 0.8650 0.8670
2.362000 0.8670 0.8680 0.8700 0.8700 0.8700
2.396163 0.8700 0.8700 0.8720 0.8720 0.8720
2.430000 0.8720 0.8730 0.8750 0.8770 0.8790
2.464163 0.8800 0.8800 0.8800 0.8800 0.8800
2.499000 0.8800 0.8800 0.8800 0.8800 0.8800
2.533163 0.8800 0.8800 0.8790 0.8790 0.8790
2.567000 0.8800 0.8800 0.8800 0.8800 0.8790
2.601163 0.8790 0.8820 0.8820 0.8820 0.8820
2.635000 0.8820 0.8790 0.8790 0.8790 0.8800
2.669163 0.8820 0.8820 0.8820 0.8820 0.8800
2.703000 0.8750 0.8730 0.8750 0.8750 0.8720
2.737163 0.8720 0.8720 0.8700 0.8680 0.8680
2.772000 0.8680 0.8670 0.8670 0.8650 0.8650
2.806163 0.8630 0.8630 0.8620 0.8620 0.8600
2.840000 0.8550 0.8550 0.8510 0.8500 0.8440
2.874163 0.8410 0.8380 0.8380 0.8340 0.8310
2.908000 0.8290 0.8260 0.8220 0.8210 0.8160
2.942163 0.8100 0.8040 0.7970 0.7850 0.7750
2.977000 0.7590 0.7470 0.7350 0.7220 0.7060
3.011163 0.6910 0.6740 0.6550 0.6370 0.6180
3.045000 0.5970 0.5770 0.5570 0.5340 0.5120
3.079163 0.4880 0.4580 0.4310 0.4080 0.3880
3.113000 0.3710 0.3520 0.3420 0.3370 0.3330
3.147163 0.3320 0.3320 0.3300 0.3270 0.3200
3.181000 0.3080 0.3030 0.2870 0.2690 0.2570
3.215163 0.2480 0.2430 0.2400 0.2350 0.2310
3.250000 0.2290 0.2290 0.2290 0.2290 0.2290
3.284163 0.2310 0.2330 0.2350 0.2360 0.2360
3.318000 0.2310 0.2290 0.2230 0.2160 0.2070
3.352163 0.1950 0.1770 0.1530 0.1340 0.1200
3.386000 0.1150 0.1000 0.0970 0.0970 0.0980
3.420163 0.1000 0.1240 0.1410 0.1510 0.1610
3.455000 0.1650 0.1680 0.1700 0.1720 0.1780
3.489163 0.2020 0.2330 0.2770 0.3160 0.3500
3.523000 0.3620 0.3760 0.3850 0.3930 0.4050
3.557163 0.4150 0.4270 0.4390 0.4540 0.4700
3.591000 0.4850 0.5020 0.5170 0.5340 0.5500
3.625163 0.5650 0.5770 0.5870 0.5970 0.6060
3.660000 0.6180 0.6280 0.6400 0.6520 0.6620
3.694163 0.6690 0.6740 0.6810 0.6880 0.6980
3.728000 0.7030 0.7120 0.7150 0.7220 0.7250
3.762163 0.7300 0.7350 0.7410 0.7440 0.7510
3.796000 0.7540 0.7590 0.7610 0.7640 0.7680
3.830163 0.7730 0.7750 0.7760 0.7830 0.7880
3.864000 0.7920 0.7980 0.8000 0.8040 0.8050
3.898163 0.8120 0.8140 0.8160 0.8210 0.8220
3.933000 0.8240 0.8260 0.8260 0.8290 0.8290
3.967163 0.8340 0.8360 0.8380 0.8390 0.8410
4.001000 0.8440 0.8480 0.8510 0.8510 0.8530
4.035163 0.8530 0.8550 0.8560 0.8620 0.8630
4.069000 0.8650 0.8670 0.8670 0.8670 0.8680
4.103163 0.8680 0.8700 0.8720 0.8720 0.8720
4.138000 0.8720 0.8730 0.8730 0.8730 0.8730
4.172163 0.8730 0.8730 0.8730 0.8730 0.8750
4.206000 0.8750 0.8750 0.8750 0.8750 0.8750
4.240163 0.8750 0.8750 0.8770 0.8800 0.8820
4.274000 0.8820 0.8840 0.8840 0.8820 0.8820
4.308163 0.8820 0.8820 0.8820 0.8820 0.8800
4.342000 0.8790 0.8770 0.8750 0.8750 0.8730
4.376163 0.8730 0.8720 0.8720 0.8720 0.8680
4.411000 0.8670 0.8670 0.8650 0.8630 0.8620
4.445163 0.8600 0.8600 0.8560 0.8530 0.8510
4.479000 0.8500 0.8480 0.8440 0.8440 0.8430
4.513163 0.8440 0.8480 0.8510 0.8530 0.8550
4.547000 0.8560 0.8580 0.8600 0.8620 0.8630
4.581163 0.8630 0.8650 0.8650 0.8650 0.8650
4.616000 0.8670 0.8670 0.8670 0.8670 0.8650
4.650163 0.8650 0.8650 0.8670 0.8670 0.8650
4.684000 0.8650 0.8650 0.8650 0.8630 0.8630
4.718163 0.8630 0.8620 0.8620 0.8600 0.8600
4.752000 0.8620 0.8620 0.8620 0.8630 0.8650
4.786163 0.8650 0.8670 0.8670 0.8670 0.8680
4.820000 0.8680 0.8700 0.8700 0.8720 0.8720
4.854163 0.8720 0.8720 0.8730 0.8730 0.8730
4.889000 0.8730 0.8720 0.8720 0.8720 0.8720
4.923163 0.8700 0.8700 0.8680 0.8670 0.8650
4.957000 0.8650 0.8630 0.8620 0.8620 0.8600
4.991163 0.8580 0.8530 0.8480 0.8480 0.8440
5.025000 0.8430 0.8430 0.8430 0.8430 0.8430
5.059163 0.8430 0.8430 0.8430 0.8430 0.8440
5.094000 0.8460 0.8480 0.8500 0.8510 0.8550
5.128163 0.8600 0.8620 0.8630 0.8650 0.8650
5.162000 0.8650 0.8650 0.8650 0.8670 0.8670
5.196163 0.8670 0.8680 0.8680 0.8680 0.8680
5.230000 0.8670 0.8670 0.8650 0.8650 0.8630
5.264163 0.8620 0.8620 0.8620 0.8600 0.8600
5.299000 0.8550 0.8550 0.8530 0.8500 0.8440
5.333163 0.8430 0.8430 0.8430 0.8430 0.8430
5.367000 0.8410 0.8410 0.8410 0.8390 0.8390
5.401163 0.8390 0.8390 0.8430 0.8440 0.8460
5.435000 0.8460 0.8460 0.8460 0.8500 0.8510
5.469163 0.8550 0.8550 0.8580 0.8620 0.8630
5.503000 0.8650 0.8670 0.8670 0.8670 0.8670
5.537163 0.8670 0.8680 0.8700 0.8720 0.8720
5.572000 0.8720 0.8720 0.8730 0.8730 0.8750
5.606163 0.8730 0.8730 0.8730 0.8730 0.8730
5.640000 0.8730 0.8730 0.8730 0.8730 0.8730
5.674163 0.8720 0.8670 0.8650 0.8650 0.8630
5.708000 0.8620 0.8560 0.8500 0.8430 0.8340
5.742163 0.8270 0.8170 0.8090 0.8000 0.7900
5.777000 0.7760 0.7610 0.7440 0.7200 0.6930
5.811163 0.6590 0.6400 0.6230 0.6210 0.6210
5.845000 0.6300 0.6540 0.6840 0.7000 0.7170
5.879163 0.7250 0.7290 0.7300 0.7300 0.7290
5.913000 0.7250 0.7240 0.7240 0.7240 0.7240
5.947163 0.7220 0.7220 0.7150 0.7050 0.6980
5.981000 0.6930 0.6830 0.6690 0.6570 0.6430
6.015163 0.6300 0.6140 0.6010 0.5840 0.5680
6.050000 0.5500 0.5310 0.5110 0.4880 0.4660
6.084163 0.4390 0.4120 0.3810 0.3470 0.3080
6.118000 0.2810 0.2520 0.2230 0.1990 0.1750
6.152163 0.1530 0.1320 0.1120 0.0970 0.0850
6.186000 0.0740 0.0660 0.0570 0.0520 0.0510
6.220163 0.0510 0.0520 0.0680 0.0810 0.0980
6.255000 0.1170 0.1490 0.1820 0.2040 0.2230
6.289163 0.2450 0.2620 0.2980 0.3300 0.3620
6.323000 0.3930 0.4240 0.4530 0.4780 0.5020
6.357163 0.5220 0.5380 0.5630 0.5790 0.5920
6.391000 0.6060 0.6250 0.6470 0.6550 0.6600
6.425163 0.6620 0.6640 0.6690 0.6740 0.6830
6.460000 0.6890 0.7000 0.7030 0.7060 0.7100
6.494163 0.7100 0.7120 0.7120 0.7120 0.7120
6.528000 0.7130 0.7130 0.7130 0.7130 0.7130
6.562163 0.7130 0.7130 0.7120 0.7100 0.7080
6.596000 0.7030 0.6950 0.6860 0.6780 0.6710
6.630163 0.6620 0.6540 0.6470 0.6370 0.6280
6.664000 0.6160 0.6040 0.5910 0.5700 0.5460
6.698163 0.5160 0.4870 0.4630 0.4390 0.4150
6.733000 0.3930 0.3670 0.3420 0.3110 0.2910
6.767163 0.2620 0.2410 0.2180 0.2090 0.1990
6.801000 0.1890 0.1770 0.1730 0.1720 0.1750
6.835163 0.1890 0.2010 0.2140 0.2260 0.2380
6.869000 0.2550 0.2620 0.2700 0.2740 0.2810
6.903163 0.2840 0.2910 0.2980 0.3010 0.3110
6.938000 0.3300 0.3470 0.3710 0.4000 0.4240
6.972163 0.4420 0.4610 0.4780 0.4970 0.5160
7.006000 0.5400 0.5670 0.5920 0.6060 0.6130
7.040163 0.6210 0.6260 0.6320 0.6330 0.6350
7.074000 0.6370 0.6370 0.6350 0.6330 0.6300
7.108163 0.6230 0.6160 0.6060 0.5970 0.5840
7.142000 0.5570 0.5340 0.5170 0.5040 0.4870
7.176163 0.4660 0.4410 0.4030 0.3520 0.2940
7.211000 0.2720 0.2700 0.2740 0.2960 0.3060
7.245163 0.3910 0.5160 0.5600 0.5650 0.5650
7.279000 0.5530 0.5240 0.4950 0.4580 0.4410
7.313163 0.4250 0.3880 0.3470 0.3160 0.2820
7.347000 0.2740 0.2720 0.2740 0.3110 0.3500
7.381163 0.4240 0.4510 0.5290 0.5920 0.6320
7.416000 0.6550 0.6710 0.6860 0.7080 0.7290
7.450163 0.7460 0.7590 0.7700 0.7760 0.7830
7.484000 0.7900 0.7970 0.8040 0.8120 0.8170
7.518163 0.8210 0.8220 0.8260 0.8290 0.8310
7.552000 0.8330 0.8360 0.8380 0.8410 0.8410
7.586163 0.8430 0.8440 0.8480 0.8500 0.8500
7.620000 0.8510 0.8510 0.8510 0.8510 0.8530
7.654163 0.8550 0.8560 0.8580 0.8600 0.8620
7.689000 0.8620 0.8650 0.8650 0.8650 0.8650
7.723163 0.8650 0.8670 0.8670 0.8670 0.8670
7.757000 0.8670 0.8670 0.8670 0.8670 0.8700
7.791163 0.8700 0.8700 0.8700 0.8700 0.8700
7.825000 0.8720 0.8730 0.8730 0.8750 0.8750
7.859163 0.8750 0.8750 0.8770 0.8790 0.8790
7.894000 0.8790 0.8800 0.8800 0.8850 0.8870
7.928163 0.8870 0.8870 0.8870 0.8870 0.8870
7.962000 0.8870 0.8870 0.8870 0.8870 0.8870
7.996163 0.8870 0.8870 0.8870 0.8870 0.8870
8.030000 0.8850 0.8850 0.8840 0.8840 0.8840
8.064163 0.8840 0.8840 0.8850 0.8870 0.8870
8.099000 0.8890 0.8890 0.8900 0.8900 0.8920
8.133163 0.8920 0.8920 0.8920 0.8920 0.8920
8.167000 0.8940 0.8960 0.8970 0.8970 0.8990
8.201163 0.8990 0.8990 0.8990 0.8990 0.8990
8.235000 0.9010 0.9010 0.9010 0.9010 0.9010
8.269163 0.9020 0.9040 0.9060 0.9060 0.9080
8.303000 0.9080 0.9080 0.9080 0.9090 0.9090
8.337163 0.9090 0.9110 0.9130 0.9130 0.9130
8.372000 0.9130 0.9130 0.9130 0.9130 0.9130
8.406163 0.9130 0.9130 0.9130 0.9130 0.9130
8.440000 0.9130 0.9130 0.9130 0.9130 0.9110
8.474163 0.9110 0.9090 0.9090 0.9080 0.9080
8.508000 0.9080 0.9080 0.9060 0.9060 0.9060
8.542163 0.9060 0.9060 0.9060 0.9060 0.9060
8.577000 0.9060 0.9060 0.9060 0.9060 0.9080
8.611163 0.9080 0.9080 0.9090 0.9090 0.9090
8.645000 0.9090 0.9090 0.9090 0.9080 0.9080
8.679163 0.9060 0.9040 0.9040 0.9020 0.9020
8.713000 0.8990 0.8960 0.8920 0.8850 0.8790
8.747163 0.8730 0.8650 0.8580 0.8480 0.8390
8.781000 0.8270 0.8100 0.7950 0.7780 0.7630
8.815163 0.7520 0.7460 0.7440 0.7440 0.7490
8.850000 0.7700 0.7870 0.8140 0.8390 0.8560
8.884163 0.8700 0.8790 0.8840 0.8850 0.8850
8.918000 0.8850 0.8850 0.8850 0.8870 0.8900
8.952163 0.8920 0.8940 0.8940 0.8940 0.8960
8.986000 0.8960 0.8970 0.8960 0.8960 0.8940
9.020163 0.8940 0.8920 0.8920 0.8920 0.8920
9.055000 0.8900 0.8890 0.8850 0.8820 0.8800
9.089163 0.8770 0.8750 0.8720 0.8700 0.8650
9.123000 0.8620 0.8550 0.8480 0.8380 0.8240
9.157163 0.8170 0.8040 0.7970 0.7810 0.7680
9.191000 0.7440 0.7150 0.6930 0.6570 0.6160
9.225163 0.5970 0.5630 0.5330 0.5000 0.4660
9.260000 0.4420 0.4190 0.4100 0.4080 0.4100
9.294163 0.4410 0.4750 0.5210 0.5910 0.6230
9.328000 0.6490 0.6710 0.6880 0.7030 0.7120
9.362163 0.7240 0.7340 0.7420 0.7510 0.7540
9.396000 0.7560 0.7560 0.7540 0.7420 0.7370
9.430163 0.7270 0.7080 0.6980 0.6810 0.6670
9.464000 0.6600 0.6540 0.6490 0.6430 0.6430
9.498163 0.6500 0.6590 0.6790 0.7050 0.7320
9.533000 0.7640 0.7870 0.8020 0.8170 0.8270
9.567163 0.8380 0.8440 0.8510 0.8560 0.8600
9.601000 0.8700 0.8750 0.8770 0.8770 0.8790
9.635163 0.8800 0.8800 0.8800 0.8820 0.8840
9.669000 0.8850 0.8870 0.8890 0.8900 0.8900
9.703163 0.8920 0.8920 0.8960 0.8960 0.8970
9.738000 0.8970 0.8970 0.8970 0.8990 0.8990
9.772163 0.9010 0.9010 0.9020 0.9020 0.9040
9.806000 0.9040 0.9040 0.9060 0.9060 0.9060
9.840163 0.9080 0.9080 0.9080 0.9090 0.9090
9.874000 0.9110 0.9110 0.9130 0.9130 0.9130
9.908163 0.9130 0.9140 0.9140 0.9140 0.9140
9.942000 0.9160 0.9160 0.9180 0.9180 0.9180
9.976163 0.9190 0.9190 0.9190 0.9190 0.9190
10.011000 0.9190 0.9180 0.9180 0.9180 0.9180
10.045163 0.9160 0.9160 0.9140 0.9140 0.9140
10.079000 0.9140 0.9160 0.9180 0.9190 0.9190
10.113163 0.9180 0.9180 0.9180 0.9180 0.9180
10.147000 0.9180 0.9190 0.9190 0.9190 0.9210
10.181163 0.9190 0.9210 0.9210 0.9230 0.9250
10.216000 0.9250 0.9250 0.9250 0.9250 0.9250
10.250163 0.9250 0.9250 0.9250 0.9260 0.9250
10.284000 0.9260 0.9260 0.9280 0.9280 0.9280
10.318163 0.9280 0.9280 0.9280 0.9280 0.9280
10.352000 0.9280 0.9260 0.9260 0.9260 0.9260
10.386163 0.9260 0.9260 0.9260 0.9260 0.9280
10.420000 0.9280 0.9280 0.9280 0.9280 0.9280
10.454163 0.9280 0.9280 0.9280 0.9300 0.9300
10.489000 0.9300 0.9300 0.9300 0.9300 0.9300
10.523163 0.9310 0.9310 0.9310 0.9310 0.9310
10.557000 0.9310 0.9310 0.9310 0.9310 0.9310
10.591163 0.9310 0.9310 0.9310 0.9310 0.9310
10.625000 0.9310 0.9300 0.9280 0.9280 0.9280
10.659163 0.9280 0.9260 0.9260 0.9260 0.9260
10.694000 0.9280 0.9280 0.9280 0.9300 0.9310
10.728163 0.9310 0.9310 0.9310 0.9310 0.9310
10.762000 0.9310 0.9310 0.9310 0.9310 0.9310
10.796163 0.9300 0.9310 0.9310 0.9310 0.9310
10.830000 0.9310 0.9310 0.9310 0.9310 0.9310
10.864163 0.9310 0.9310 0.9310 0.9310 0.9310
10.899000 0.9330 0.9330 0.9350 0.9350 0.9350
10.933163 0.9360 0.9360 0.9380 0.9380 0.9380
10.967000 0.9400 0.9400 0.9400 0.9400 0.9400
11.001163 0.9420 0.9420 0.9420 0.9420 0.9420
11.035000 0.9420 0.9420 0.9420 0.9420 0.9420
11.069163 0.9420 0.9420 0.9420 0.9420 0.9420
11.103000 0.9380 0.9380 0.9360 0.9360 0.9350
11.137163 0.9330 0.9310 0.9310 0.9300 0.9280
11.172000 0.9260 0.9250 0.9230 0.9210 0.9160
11.206163 0.9130 0.9080 0.9040 0.9010 0.8960
11.240000 0.8890 0.8800 0.8680 0.8580 0.8480
11.274163 0.8390 0.8290 0.8170 0.8070 0.8000
11.308000 0.7950 0.7930 0.7930 0.7930 0.7930
11.342163 0.8050 0.8210 0.8330 0.8410 0.8500
11.377000 0.8580 0.8630 0.8700 0.8790 0.8850
11.411163 0.8900 0.8960 0.8990 0.9020 0.9060
11.445000 0.9090 0.9110 0.9130 0.9140 0.9160
11.479163 0.9190 0.9210 0.9230 0.9260 0.9260
11.513000 0.9280 0.9260 0.9280 0.9280 0.9300
11.547163 0.9300 0.9310 0.9310 0.9310 0.9330
11.581000 0.9330 0.9350 0.9350 0.9360 0.9350
11.615163 0.9350 0.9350 0.9350 0.9350 0.9350
11.650000 0.9350 0.9360 0.9360 0.9360 0.9360
11.684163 0.9360 0.9360 0.9360 0.9360 0.9360
11.718000 0.9360 0.9360 0.9360 0.9360 0.9360
11.752163 0.9350 0.9350 0.9350 0.9330 0.9310
11.786000 0.9300 0.9280 0.9230 0.9210 0.9230
11.820163 0.9210 0.9210 0.9210 0.9210 0.9210
11.855000 0.9210 0.9190 0.9210 0.9210 0.9210
11.889163 0.9210 0.9210 0.9210 0.9210 0.9210
11.923000 0.9210 0.9190 0.9190 0.9190 0.9140
11.957163 0.9130 0.9130 0.9130 0.9130 0.9110
11.991000 0.9110 0.9110 0.9110 0.9110 0.9110
12.025163 0.9110 0.9110 0.9090 0.9090 0.9090
12.060000 0.9090 0.9080 0.9080 0.9080 0.9080
12.094163 0.9080 0.9080 0.9060 0.9060 0.9040
12.128000 0.9020 0.9020 0.9010 0.8990 0.8990
12.162163 0.8990 0.8970 0.8960 0.8940 0.8940
12.196000 0.8920 0.8890 0.8840 0.8800 0.8800
12.230163 0.8770 0.8750 0.8720 0.8700 0.8700
12.264000 0.8670 0.8670 0.8650 0.8630 0.8630
12.298163 0.8630 0.8630 0.8630 0.8630 0.8630
12.333000 0.8620 0.8620 0.8620 0.8620 0.8620
12.367163 0.8620 0.8620 0.8620 0.8600 0.8600
12.401000 0.8580 0.8550 0.8530 0.8530 0.8510
12.435163 0.8510 0.8500 0.8500 0.8480 0.8460
12.469000 0.8440 0.8430 0.8410 0.8410 0.8390
12.503163 0.8390 0.8360 0.8340 0.8330 0.8310
12.538000 0.8290 0.8290 0.8260 0.8240 0.8240
12.572163 0.8220 0.8210 0.8210 0.8160 0.8140
12.606000 0.8100 0.8090 0.8050 0.8040 0.8020
12.640163 0.8020 0.8000 0.7980 0.7950 0.7930
12.674000 0.7920 0.7900 0.7870 0.7830 0.7810
12.708163 0.7800 0.7800 0.7760 0.7760 0.7750
12.742000 0.7750 0.7730 0.7730 0.7710 0.7700
12.776163 0.7660 0.7660 0.7640 0.7630 0.7610
12.811000 0.7580 0.7540 0.7540 0.7520 0.7520
12.845163 0.7510 0.7510 0.7460 0.7420 0.7410
12.879000 0.7410 0.7370 0.7340 0.7320 0.7300
12.913163 0.7250 0.7240 0.7200 0.7200 0.7150
12.947000 0.7120 0.7060 0.7030 0.7010 0.6980
12.981163 0.6980 0.6930 0.6880 0.6840 0.6810
13.016000 0.6760 0.6720 0.6710 0.6710 0.6640
13.050163 0.6620 0.6550 0.6540 0.6520 0.6500
13.084000 0.6430 0.6420 0.6350 0.6330 0.6300
13.118163 0.6250 0.6230 0.6210 0.6160 0.6110
13.152000 0.6080 0.6030 0.5990 0.5960 0.5920
13.186163 0.5890 0.5860 0.5800 0.5750 0.5720
13.220000 0.5670 0.5650 0.5600 0.5600 0.5550
13.254163 0.5510 0.5500 0.5450 0.5410 0.5400
13.289000 0.5340 0.5290 0.5260 0.5260 0.5220
13.323163 0.5210 0.5190 0.5160 0.5140 0.5120
13.357000 0.5120 0.5120 0.5110 0.5110 0.5110
13.391163 0.5110 0.5110 0.5110 0.5110 0.5110
13.425000 0.5120 0.5120 0.5160 0.5190 0.5210
13.459163 0.5240 0.5290 0.5310 0.5330 0.5340
13.494000 0.5410 0.5450 0.5500 0.5510 0.5550
13.528163 0.5570 0.5620 0.5650 0.5700 0.5720
13.562000 0.5740 0.5790 0.5800 0.5820 0.5840
13.596163 0.5860 0.5870 0.5890 0.5910 0.5910
13.630000 0.5920 0.5920 0.5940 0.5960 0.5960
13.664163 0.5960 0.5940 0.5940 0.5920 0.5890
13.699000 0.5870 0.5840 0.5800 0.5790 0.5740
13.733163 0.5700 0.5650 0.5580 0.5510 0.5450
13.767000 0.5360 0.5280 0.5190 0.5090 0.4990
13.801163 0.4850 0.4730 0.4580 0.4420 0.4250
13.835000 0.4070 0.3960 0.3780 0.3660 0.3470
13.869163 0.3350 0.3250 0.3060 0.2960 0.2820
13.903000 0.2740 0.2690 0.2640 0.2570 0.2530
13.937163 0.2520 0.2520 0.2520 0.2550 0.2620
13.972000 0.2700 0.2810 0.2910 0.3030 0.3160
14.006163 0.3330 0.3540 0.3710 0.3900 0.4070
14.040000 0.4290 0.4460 0.4580 0.4710 0.4850
14.074163 0.4970 0.5070 0.5170 0.5280 0.5360
14.108000 0.5450 0.5510 0.5570 0.5630 0.5700
14.142163 0.5750 0.5800 0.5860 0.5910 0.5960
14.177000 0.5990 0.6030 0.6060 0.6080 0.6110
14.211163 0.6140 0.6180 0.6210 0.6230 0.6260
14.245000 0.6280 0.6300 0.6320 0.6330 0.6330
14.279163 0.6350 0.6370 0.6400 0.6400 0.6420
14.313000 0.6430 0.6430 0.6450 0.6450 0.6450
14.347163 0.6450 0.6450 0.6450 0.6450 0.6450
14.381000 0.6450 0.6450 0.6450 0.6450 0.6450
14.415163 0.6470 0.6470 0.6470 0.6450 0.6450
14.450000 0.6430 0.6420 0.6420 0.6400 0.6400
14.484163 0.6400 0.6400 0.6380 0.6380 0.6370
14.518000 0.6370 0.6350 0.6350 0.6330 0.6320
14.552163 0.6320 0.6320 0.6320 0.6320 0.6300
14.586000 0.6300 0.6300 0.6280 0.6260 0.6260
14.620163 0.6250 0.6250 0.6250 0.6250 0.6230
14.655000 0.6210 0.6210 0.6200 0.6180 0.6180
14.689163 0.6180 0.6160 0.6160 0.6140 0.6140
14.723000 0.6130 0.6110 0.6110 0.6090 0.6090
14.757163 0.6080 0.6060 0.6040 0.6040 0.6030
14.791000 0.6010 0.5990 0.5970 0.5960 0.5940
14.825163 0.5920 0.5910 0.5870 0.5870 0.5860
14.860000 0.5840 0.5800 0.5790 0.5770 0.5750
14.894163 0.5720 0.5700 0.5680 0.5650 0.5650
14.928000 0.5630 0.5620 0.5600 0.5600 0.5600
14.962163 0.5600 0.5600 0.5600 0.5600 0.5600
14.996000 0.5600 0.5580 0.5570 0.5570 0.5570
15.030163 0.5550 0.5530 0.5530 0.5510 0.5500
15.064000 0.5500 0.5500 0.5480 0.5460 0.5460
15.098163 0.5450 0.5430 0.5430 0.5410 0.5400
15.133000 0.5400 0.5400 0.5400 0.5380 0.5380
15.167163 0.5360 0.5360 0.5340 0.5340 0.5330
15.201000 0.5330 0.5310 0.5310 0.5290 0.5290
15.235163 0.5290 0.5290 0.5280 0.5260 0.5240
15.269000 0.5240 0.5240 0.5240 0.5240 0.5240
15.303163 0.5240 0.5220 0.5210 0.5210 0.5190
15.338000 0.5170 0.5170 0.5160 0.5140 0.5140
15.372163 0.5140 0.5120 0.5120 0.5120 0.5110
15.406000 0.5110 0.5090 0.5070 0.5050 0.5040
15.440163 0.5040 0.5020 0.5020 0.5000 0.5000
15.474000 0.5000 0.4990 0.4950 0.4940 0.4940
15.508163 0.4920 0.4900 0.4900 0.4900 0.4880
15.542000 0.4870 0.4850 0.4830 0.4820 0.4800
15.576163 0.4800 0.4800 0.4780 0.4780 0.4770
15.611000 0.4750 0.4750 0.4730 0.4710 0.4700
15.645163 0.4680 0.4660 0.4660 0.4650 0.4630
15.679000 0.4610 0.4590 0.4580 0.4580 0.4580
15.713163 0.4560 0.4560 0.4540 0.4530 0.4510
15.747000 0.4510 0.4510 0.4490 0.4490 0.4480
15.781163 0.4480 0.4480 0.4460 0.4440 0.4420
15.816000 0.4420 0.4410 0.4410 0.4410 0.4390
15.850163 0.4370 0.4370 0.4360 0.4340
##END=
