##TITLE=MORPHINE, ETHYL-, HYDROCHLORIDE,DIHYDRATE
##JCAMP-DX=4.24
$$ By DXEDIT 1.05 (RS McDonald)
##DATA TYPE=INFRARED SPECTRUM
##CLASS=COBLENTZ III
##ORIGIN=BUREAU OF CUSTOMS
##OWNER=COBLENTZ SOC.
Collection (C) 2018 copyright by the U.S. Secretary of Commerce
on behalf of the United States of America. All rights reserved.
##DATE=Not specified, most likely prior to 1970
##NAMES=DIONIN
##MOLFORM=C19 H24 Cl N O3  * 2 H2 O
##MP=123 C DECOMP.
##SOURCE REFERENCE=COBLENTZ NO. 05015
##$NIST ID=B6005015
##$NIST SOURCE=COBLENTZ
##$NIST IMAGE=cob5015
##SPECTROMETER/DATA SYSTEM=PERKIN-ELMER 21 (GRATING)
##INSTRUMENT PARAMETERS=FILTER AT ABOUT 10 MICRONS
##STATE=SOLID (1.2 mg / 250 mg KBr DISC)
$$PURITY 99+
##SAMPLING PROCEDURE=TRANSMISSION
##RESOLUTION=2
##DATA PROCESSING=DIGITIZED BY COBLENTZ SOCIETY (BATCH I) FROM HARD COPY
##XUNITS=1/CM
##YUNITS=TRANSMITTANCE
##XLABEL=Wavenumbers (cm-1)
##YLABEL=Transmittance
##XFACTOR=1
##YFACTOR=1
##DELTAX=1
##FIRSTX=4000
##LASTX=652
##FIRSTY=0.8681
##MAXX=4000
##MINX=652
##MAXY=0.9468
##MINY=0.1395
##NPOINTS=3349
##XYDATA=(X++(Y..Y))
4000.000000 0.8681 0.8682 0.8683 0.8684 0.8685
3995.000000 0.8686 0.8687 0.8688 0.8689 0.8690
3990.000000 0.8691 0.8693 0.8694 0.8695 0.8696
3985.000000 0.8697 0.8698 0.8699 0.8700 0.8701
3980.000000 0.8702 0.8704 0.8705 0.8706 0.8707
3975.000000 0.8708 0.8709 0.8710 0.8711 0.8712
3970.000000 0.8713 0.8714 0.8715 0.8715 0.8715
3965.000000 0.8715 0.8715 0.8715 0.8715 0.8715
3960.000000 0.8715 0.8715 0.8715 0.8715 0.8715
3955.000000 0.8716 0.8716 0.8716 0.8716 0.8716
3950.000000 0.8716 0.8716 0.8716 0.8716 0.8716
3945.000000 0.8716 0.8716 0.8717 0.8717 0.8717
3940.000000 0.8717 0.8717 0.8717 0.8718 0.8718
3935.000000 0.8718 0.8718 0.8718 0.8718 0.8718
3930.000000 0.8718 0.8720 0.8721 0.8721 0.8723
3925.000000 0.8724 0.8725 0.8725 0.8727 0.8728
3920.000000 0.8728 0.8730 0.8731 0.8732 0.8733
3915.000000 0.8733 0.8734 0.8735 0.8736 0.8737
3910.000000 0.8738 0.8739 0.8740 0.8741 0.8742
3905.000000 0.8743 0.8744 0.8745 0.8746 0.8747
3900.000000 0.8748 0.8749 0.8750 0.8751 0.8752
3895.000000 0.8753 0.8754 0.8755 0.8756 0.8757
3890.000000 0.8758 0.8759 0.8760 0.8761 0.8763
3885.000000 0.8764 0.8765 0.8767 0.8768 0.8770
3880.000000 0.8771 0.8773 0.8775 0.8777 0.8778
3875.000000 0.8780 0.8782 0.8784 0.8786 0.8788
3870.000000 0.8789 0.8791 0.8793 0.8795 0.8797
3865.000000 0.8799 0.8800 0.8802 0.8804 0.8806
3860.000000 0.8808 0.8810 0.8812 0.8813 0.8815
3855.000000 0.8817 0.8818 0.8821 0.8823 0.8825
3850.000000 0.8825 0.8828 0.8830 0.8832 0.8834
3845.000000 0.8835 0.8837 0.8839 0.8841 0.8842
3840.000000 0.8844 0.8846 0.8848 0.8850 0.8851
3835.000000 0.8853 0.8855 0.8857 0.8859 0.8861
3830.000000 0.8863 0.8865 0.8866 0.8868 0.8870
3825.000000 0.8871 0.8873 0.8875 0.8877 0.8878
3820.000000 0.8880 0.8882 0.8884 0.8886 0.8888
3815.000000 0.8890 0.8891 0.8893 0.8895 0.8896
3810.000000 0.8898 0.8900 0.8901 0.8903 0.8904
3805.000000 0.8906 0.8906 0.8906 0.8906 0.8906
3800.000000 0.8906 0.8907 0.8907 0.8907 0.8907
3795.000000 0.8907 0.8907 0.8908 0.8908 0.8908
3790.000000 0.8908 0.8908 0.8908 0.8909 0.8909
3785.000000 0.8909 0.8909 0.8909 0.8908 0.8908
3780.000000 0.8908 0.8908 0.8908 0.8908 0.8907
3775.000000 0.8906 0.8906 0.8905 0.8904 0.8904
3770.000000 0.8903 0.8903 0.8902 0.8902 0.8901
3765.000000 0.8900 0.8900 0.8899 0.8899 0.8898
3760.000000 0.8898 0.8898 0.8898 0.8898 0.8899
3755.000000 0.8899 0.8899 0.8900 0.8900 0.8900
3750.000000 0.8900 0.8900 0.8901 0.8901 0.8901
3745.000000 0.8901 0.8901 0.8901 0.8902 0.8902
3740.000000 0.8902 0.8903 0.8903 0.8903 0.8904
3735.000000 0.8904 0.8904 0.8904 0.8904 0.8905
3730.000000 0.8905 0.8906 0.8907 0.8908 0.8908
3725.000000 0.8909 0.8909 0.8910 0.8911 0.8911
3720.000000 0.8912 0.8912 0.8913 0.8914 0.8914
3715.000000 0.8914 0.8913 0.8911 0.8908 0.8905
3710.000000 0.8902 0.8899 0.8895 0.8892 0.8888
3705.000000 0.8885 0.8882 0.8875 0.8868 0.8862
3700.000000 0.8855 0.8849 0.8839 0.8821 0.8802
3695.000000 0.8783 0.8765 0.8746 0.8725 0.8702
3690.000000 0.8680 0.8658 0.8636 0.8612 0.8586
3685.000000 0.8560 0.8534 0.8508 0.8482 0.8459
3680.000000 0.8436 0.8413 0.8391 0.8368 0.8347
3675.000000 0.8328 0.8310 0.8292 0.8274 0.8255
3670.000000 0.8234 0.8213 0.8191 0.8169 0.8149
3665.000000 0.8121 0.8093 0.8062 0.8034 0.8004
3660.000000 0.7968 0.7921 0.7875 0.7828 0.7781
3655.000000 0.7734 0.7681 0.7628 0.7575 0.7522
3650.000000 0.7469 0.7417 0.7364 0.7311 0.7258
3645.000000 0.7205 0.7151 0.7099 0.7045 0.6992
3640.000000 0.6939 0.6886 0.6832 0.6778 0.6725
3635.000000 0.6671 0.6618 0.6565 0.6511 0.6458
3630.000000 0.6405 0.6351 0.6298 0.6244 0.6190
3625.000000 0.6137 0.6083 0.6029 0.5976 0.5922
3620.000000 0.5868 0.5814 0.5760 0.5706 0.5652
3615.000000 0.5598 0.5544 0.5490 0.5436 0.5382
3610.000000 0.5328 0.5273 0.5219 0.5165 0.5110
3605.000000 0.5057 0.5002 0.4948 0.4894 0.4839
3600.000000 0.4785 0.4731 0.4676 0.4622 0.4567
3595.000000 0.4512 0.4458 0.4403 0.4348 0.4293
3590.000000 0.4239 0.4184 0.4129 0.4074 0.4020
3585.000000 0.3964 0.3909 0.3855 0.3800 0.3745
3580.000000 0.3690 0.3634 0.3579 0.3524 0.3468
3575.000000 0.3414 0.3358 0.3303 0.3248 0.3193
3570.000000 0.3137 0.3082 0.3027 0.2971 0.2916
3565.000000 0.2860 0.2805 0.2749 0.2694 0.2638
3560.000000 0.2582 0.2527 0.2471 0.2415 0.2361
3555.000000 0.2315 0.2269 0.2222 0.2110 0.2137
3550.000000 0.2137 0.2137 0.2138 0.2138 0.2139
3545.000000 0.2142 0.2144 0.2147 0.2150 0.2153
3540.000000 0.2162 0.2172 0.2181 0.2190 0.2200
3535.000000 0.2215 0.2230 0.2246 0.2261 0.2277
3530.000000 0.2296 0.2315 0.2334 0.2352 0.2372
3525.000000 0.2396 0.2420 0.2445 0.2469 0.2493
3520.000000 0.2515 0.2535 0.2557 0.2579 0.2599
3515.000000 0.2616 0.2632 0.2649 0.2665 0.2681
3510.000000 0.2696 0.2711 0.2726 0.2741 0.2756
3505.000000 0.2769 0.2782 0.2795 0.2809 0.2821
3500.000000 0.2831 0.2841 0.2851 0.2861 0.2871
3495.000000 0.2879 0.2887 0.2895 0.2903 0.2909
3490.000000 0.2912 0.2916 0.2920 0.2924 0.2927
3485.000000 0.2931 0.2934 0.2938 0.2956 0.2943
3480.000000 0.2943 0.2944 0.2944 0.2945 0.2945
3475.000000 0.2945 0.2945 0.2945 0.2944 0.2942
3470.000000 0.2941 0.2939 0.2937 0.2934 0.2932
3465.000000 0.2928 0.2925 0.2922 0.2916 0.2909
3460.000000 0.2902 0.2895 0.2888 0.2881 0.2874
3455.000000 0.2867 0.2860 0.2853 0.2843 0.2833
3450.000000 0.2822 0.2812 0.2801 0.2788 0.2775
3445.000000 0.2762 0.2750 0.2730 0.2705 0.2679
3440.000000 0.2653 0.2628 0.2617 0.2611 0.2605
3435.000000 0.2598 0.2592 0.2585 0.2580 0.2574
3430.000000 0.2567 0.2561 0.2555 0.2548 0.2542
3425.000000 0.2535 0.2531 0.2527 0.2523 0.2519
3420.000000 0.2516 0.2513 0.2510 0.2507 0.2504
3415.000000 0.2501 0.2498 0.2495 0.2492 0.2490
3410.000000 0.2487 0.2484 0.2481 0.2478 0.2475
3405.000000 0.2472 0.2469 0.2467 0.2464 0.2462
3400.000000 0.2460 0.2457 0.2455 0.2453 0.2451
3395.000000 0.2449 0.2447 0.2445 0.2443 0.2441
3390.000000 0.2439 0.2437 0.2434 0.2433 0.2431
3385.000000 0.2430 0.2428 0.2426 0.2424 0.2422
3380.000000 0.2420 0.2419 0.2417 0.2415 0.2413
3375.000000 0.2412 0.2410 0.2408 0.2406 0.2405
3370.000000 0.2403 0.2401 0.2400 0.2399 0.2399
3365.000000 0.2398 0.2397 0.2396 0.2396 0.2395
3360.000000 0.2394 0.2394 0.2394 0.2393 0.2393
3355.000000 0.2393 0.2394 0.2395 0.2396 0.2397
3350.000000 0.2398 0.2400 0.2402 0.2403 0.2405
3345.000000 0.2407 0.2408 0.2410 0.2414 0.2426
3340.000000 0.2438 0.2450 0.2462 0.2479 0.2499
3335.000000 0.2518 0.2537 0.2559 0.2587 0.2615
3330.000000 0.2643 0.2671 0.2697 0.2724 0.2751
3325.000000 0.2777 0.2804 0.2830 0.2856 0.2883
3320.000000 0.2909 0.2935 0.2963 0.2990 0.3017
3315.000000 0.3044 0.3072 0.3099 0.3126 0.3153
3310.000000 0.3178 0.3204 0.3229 0.3254 0.3271
3305.000000 0.3287 0.3302 0.3318 0.3332 0.3349
3300.000000 0.3364 0.3380 0.3396 0.3412 0.3428
3295.000000 0.3444 0.3459 0.3476 0.3492 0.3508
3290.000000 0.3524 0.3541 0.3559 0.3578 0.3597
3285.000000 0.3614 0.3634 0.3652 0.3671 0.3690
3280.000000 0.3709 0.3728 0.3747 0.3766 0.3784
3275.000000 0.3804 0.3822 0.3840 0.3856 0.3864
3270.000000 0.3875 0.3884 0.3894 0.3904 0.3912
3265.000000 0.3922 0.3932 0.3940 0.3947 0.3955
3260.000000 0.3962 0.3970 0.3976 0.3982 0.3990
3255.000000 0.3997 0.4003 0.4009 0.4016 0.4022
3250.000000 0.4028 0.4034 0.4040 0.4046 0.4052
3245.000000 0.4058 0.4064 0.4070 0.4076 0.4082
3240.000000 0.4088 0.4094 0.4100 0.4106 0.4112
3235.000000 0.4119 0.4126 0.4133 0.4141 0.4149
3230.000000 0.4156 0.4164 0.4172 0.4180 0.4188
3225.000000 0.4205 0.4224 0.4244 0.4262 0.4283
3220.000000 0.4304 0.4324 0.4345 0.4366 0.4387
3215.000000 0.4408 0.4428 0.4449 0.4470 0.4491
3210.000000 0.4512 0.4533 0.4553 0.4574 0.4595
3205.000000 0.4616 0.4637 0.4658 0.4679 0.4700
3200.000000 0.4721 0.4742 0.4762 0.4784 0.4805
3195.000000 0.4827 0.4848 0.4869 0.4890 0.4912
3190.000000 0.4933 0.4954 0.4975 0.4996 0.5017
3185.000000 0.5038 0.5060 0.5081 0.5102 0.5123
3180.000000 0.5145 0.5166 0.5187 0.5208 0.5230
3175.000000 0.5251 0.5272 0.5294 0.5315 0.5337
3170.000000 0.5359 0.5380 0.5402 0.5423 0.5445
3165.000000 0.5466 0.5487 0.5509 0.5530 0.5552
3160.000000 0.5573 0.5595 0.5617 0.5638 0.5660
3155.000000 0.5681 0.5703 0.5725 0.5746 0.5768
3150.000000 0.5789 0.5810 0.5833 0.5855 0.5876
3145.000000 0.5898 0.5920 0.5942 0.5964 0.5986
3140.000000 0.6008 0.6030 0.6051 0.6073 0.6095
3135.000000 0.6117 0.6139 0.6160 0.6183 0.6205
3130.000000 0.6227 0.6249 0.6271 0.6293 0.6315
3125.000000 0.6337 0.6359 0.6381 0.6403 0.6422
3120.000000 0.6428 0.6433 0.6438 0.6442 0.6445
3115.000000 0.6447 0.6450 0.6451 0.6451 0.6451
3110.000000 0.6451 0.6453 0.6453 0.6453 0.6453
3105.000000 0.6453 0.6453 0.6451 0.6451 0.6449
3100.000000 0.6446 0.6443 0.6440 0.6437 0.6434
3095.000000 0.6430 0.6425 0.6408 0.6391 0.6374
3090.000000 0.6351 0.6310 0.6270 0.6230 0.6189
3085.000000 0.6149 0.6108 0.6067 0.6026 0.5986
3080.000000 0.5945 0.5904 0.5862 0.5823 0.5782
3075.000000 0.5741 0.5700 0.5659 0.5618 0.5577
3070.000000 0.5536 0.5495 0.5455 0.5414 0.5372
3065.000000 0.5331 0.5290 0.5249 0.5208 0.5167
3060.000000 0.5126 0.5084 0.5043 0.5001 0.4967
3055.000000 0.4958 0.4949 0.4939 0.4934 0.4933
3050.000000 0.4932 0.4931 0.4930 0.4929 0.4928
3045.000000 0.4927 0.4939 0.4951 0.4962 0.4979
3040.000000 0.5004 0.5029 0.5053 0.5078 0.5103
3035.000000 0.5128 0.5153 0.5178 0.5203 0.5228
3030.000000 0.5253 0.5278 0.5303 0.5328 0.5353
3025.000000 0.5379 0.5404 0.5429 0.5454 0.5479
3020.000000 0.5504 0.5522 0.5522 0.5522 0.5538
3015.000000 0.5520 0.5518 0.5516 0.5512 0.5510
3010.000000 0.5507 0.5503 0.5500 0.5496 0.5492
3005.000000 0.5488 0.5484 0.5479 0.5475 0.5470
3000.000000 0.5462 0.5454 0.5446 0.5421 0.5384
2995.000000 0.5348 0.5312 0.5307 0.5301 0.5296
2990.000000 0.5291 0.5286 0.5282 0.5277 0.5269
2985.000000 0.5260 0.5252 0.5242 0.5225 0.5208
2980.000000 0.5192 0.5171 0.5148 0.5126 0.5102
2975.000000 0.5072 0.5042 0.5012 0.4991 0.4974
2970.000000 0.4958 0.4942 0.4930 0.4918 0.4905
2965.000000 0.4893 0.4880 0.4812 0.4854 0.4850
2960.000000 0.4845 0.4840 0.4837 0.4835 0.4833
2955.000000 0.4832 0.4847 0.4862 0.4878 0.4902
2950.000000 0.4932 0.4962 0.4992 0.5022 0.5052
2945.000000 0.5082 0.5112 0.5142 0.5172 0.5202
2940.000000 0.5232 0.5262 0.5292 0.5322 0.5352
2935.000000 0.5383 0.5412 0.5443 0.5473 0.5503
2930.000000 0.5534 0.5564 0.5594 0.5625 0.5655
2925.000000 0.5685 0.5716 0.5747 0.5777 0.5808
2920.000000 0.5837 0.5865 0.5892 0.5918 0.5934
2915.000000 0.5950 0.5966 0.5977 0.5987 0.5997
2910.000000 0.6005 0.6010 0.6015 0.6020 0.6025
2905.000000 0.6030 0.6035 0.6039 0.6042 0.6083
2900.000000 0.6049 0.6050 0.6050 0.6051 0.6052
2895.000000 0.6053 0.6053 0.6053 0.6051 0.6049
2890.000000 0.6047 0.6043 0.6039 0.6035 0.6031
2885.000000 0.6027 0.6023 0.6019 0.6015 0.6010
2880.000000 0.6007 0.6002 0.5998 0.5994 0.5987
2875.000000 0.5980 0.5974 0.5967 0.5960 0.5953
2870.000000 0.5947 0.5940 0.5933 0.5926 0.5919
2865.000000 0.5912 0.5906 0.5900 0.5894 0.5889
2860.000000 0.5883 0.5878 0.5873 0.5868 0.5865
2855.000000 0.5860 0.5858 0.5857 0.5857 0.5857
2850.000000 0.5857 0.5857 0.5857 0.5857 0.5857
2845.000000 0.5857 0.5857 0.5857 0.5858 0.5858
2840.000000 0.5859 0.5859 0.5859 0.5859 0.5858
2835.000000 0.5858 0.5856 0.5853 0.5851 0.5848
2830.000000 0.5845 0.5842 0.5839 0.5837 0.5834
2825.000000 0.5831 0.5820 0.5807 0.5795 0.5770
2820.000000 0.5741 0.5710 0.5674 0.5630 0.5586
2815.000000 0.5543 0.5499 0.5455 0.5410 0.5367
2810.000000 0.5323 0.5279 0.5235 0.5191 0.5147
2805.000000 0.5103 0.5058 0.5014 0.4970 0.4926
2800.000000 0.4881 0.4837 0.4793 0.4748 0.4704
2795.000000 0.4659 0.4615 0.4570 0.4526 0.4481
2790.000000 0.4436 0.4391 0.4346 0.4301 0.4257
2785.000000 0.4212 0.4167 0.4143 0.4120 0.4098
2780.000000 0.4093 0.4092 0.4091 0.4089 0.4088
2775.000000 0.4087 0.4086 0.4084 0.4082 0.4082
2770.000000 0.4082 0.4082 0.4084 0.4084 0.4086
2765.000000 0.4090 0.4097 0.4104 0.4114 0.4128
2760.000000 0.4143 0.4157 0.4173 0.4188 0.4209
2755.000000 0.4240 0.4270 0.4301 0.4332 0.4362
2750.000000 0.4394 0.4428 0.4462 0.4496 0.4530
2745.000000 0.4564 0.4596 0.4618 0.4641 0.4662
2740.000000 0.4683 0.4703 0.4720 0.4726 0.4733
2735.000000 0.4738 0.4738 0.4738 0.4739 0.4739
2730.000000 0.4739 0.4740 0.4740 0.4740 0.4741
2725.000000 0.4744 0.4747 0.4750 0.4753 0.4756
2720.000000 0.4760 0.4762 0.4766 0.4771 0.4777
2715.000000 0.4782 0.4788 0.4795 0.4802 0.4809
2710.000000 0.4816 0.4822 0.4829 0.4836 0.4843
2705.000000 0.4850 0.4857 0.4864 0.4875 0.4886
2700.000000 0.4898 0.4910 0.4921 0.4933 0.4945
2695.000000 0.4956 0.4968 0.4980 0.4992 0.5004
2690.000000 0.5016 0.5028 0.5040 0.5051 0.5062
2685.000000 0.5075 0.5087 0.5099 0.5110 0.5124
2680.000000 0.5136 0.5148 0.5160 0.5172 0.5185
2675.000000 0.5197 0.5209 0.5221 0.5234 0.5246
2670.000000 0.5258 0.5270 0.5282 0.5294 0.5307
2665.000000 0.5320 0.5333 0.5346 0.5359 0.5371
2660.000000 0.5384 0.5397 0.5410 0.5423 0.5436
2655.000000 0.5449 0.5462 0.5475 0.5488 0.5501
2650.000000 0.5514 0.5527 0.5542 0.5558 0.5575
2645.000000 0.5597 0.5623 0.5649 0.5675 0.5701
2640.000000 0.5726 0.5752 0.5779 0.5804 0.5824
2635.000000 0.5844 0.5862 0.5879 0.5896 0.5912
2630.000000 0.5930 0.5947 0.5960 0.5974 0.5987
2625.000000 0.6000 0.6012 0.6026 0.6039 0.6052
2620.000000 0.6062 0.6073 0.6083 0.6088 0.6093
2615.000000 0.6098 0.6103 0.6107 0.6112 0.6117
2610.000000 0.6122 0.6125 0.6126 0.6128 0.6130
2605.000000 0.6131 0.6133 0.6134 0.6136 0.6137
2600.000000 0.6139 0.6140 0.6142 0.6143 0.6145
2595.000000 0.6146 0.6148 0.6150 0.6153 0.6156
2590.000000 0.6160 0.6166 0.6171 0.6177 0.6182
2585.000000 0.6187 0.6192 0.6198 0.6203 0.6208
2580.000000 0.6212 0.6223 0.6234 0.6244 0.6254
2575.000000 0.6265 0.6276 0.6286 0.6297 0.6305
2570.000000 0.6312 0.6320 0.6327 0.6334 0.6341
2565.000000 0.6348 0.6355 0.6362 0.6370 0.6377
2560.000000 0.6384 0.6390 0.6398 0.6405 0.6411
2555.000000 0.6418 0.6425 0.6433 0.6440 0.6447
2550.000000 0.6454 0.6460 0.6471 0.6489 0.6506
2545.000000 0.6530 0.6554 0.6578 0.6601 0.6625
2540.000000 0.6650 0.6674 0.6698 0.6721 0.6746
2535.000000 0.6768 0.6793 0.6817 0.6841 0.6864
2530.000000 0.6886 0.6905 0.6924 0.6942 0.6960
2525.000000 0.6978 0.6996 0.7014 0.7032 0.7050
2520.000000 0.7068 0.7087 0.7105 0.7121 0.7138
2515.000000 0.7154 0.7169 0.7186 0.7201 0.7217
2510.000000 0.7232 0.7248 0.7264 0.7280 0.7295
2505.000000 0.7311 0.7326 0.7343 0.7358 0.7372
2500.000000 0.7389 0.7404 0.7419 0.7435 0.7450
2495.000000 0.7465 0.7481 0.7496 0.7511 0.7526
2490.000000 0.7543 0.7558 0.7574 0.7589 0.7605
2485.000000 0.7621 0.7636 0.7651 0.7664 0.7675
2480.000000 0.7686 0.7697 0.7708 0.7718 0.7730
2475.000000 0.7741 0.7751 0.7762 0.7775 0.7786
2470.000000 0.7797 0.7808 0.7819 0.7831 0.7842
2465.000000 0.7853 0.7864 0.7875 0.7886 0.7897
2460.000000 0.7907 0.7917 0.7926 0.7936 0.7946
2455.000000 0.7955 0.7965 0.7974 0.7983 0.7992
2450.000000 0.8001 0.8011 0.8021 0.8031 0.8040
2445.000000 0.8050 0.8060 0.8068 0.8078 0.8088
2440.000000 0.8098 0.8108 0.8119 0.8131 0.8143
2435.000000 0.8156 0.8168 0.8180 0.8191 0.8204
2430.000000 0.8216 0.8228 0.8240 0.8252 0.8261
2425.000000 0.8270 0.8278 0.8288 0.8297 0.8306
2420.000000 0.8314 0.8321 0.8328 0.8334 0.8340
2415.000000 0.8346 0.8353 0.8359 0.8365 0.8371
2410.000000 0.8378 0.8384 0.8390 0.8396 0.8401
2405.000000 0.8407 0.8413 0.8418 0.8425 0.8431
2400.000000 0.8436 0.8442 0.8448 0.8454 0.8457
2395.000000 0.8460 0.8462 0.8462 0.8462 0.8462
2390.000000 0.8462 0.8462 0.8462 0.8462 0.8462
2385.000000 0.8461 0.8461 0.8461 0.8461 0.8461
2380.000000 0.8461 0.8461 0.8461 0.8461 0.8461
2375.000000 0.8461 0.8461 0.8461 0.8461 0.8461
2370.000000 0.8461 0.8461 0.8461 0.8461 0.8461
2365.000000 0.8461 0.8461 0.8461 0.8461 0.8461
2360.000000 0.8461 0.8461 0.8461 0.8463 0.8465
2355.000000 0.8467 0.8470 0.8471 0.8475 0.8477
2350.000000 0.8480 0.8482 0.8485 0.8487 0.8490
2345.000000 0.8492 0.8494 0.8497 0.8500 0.8504
2340.000000 0.8510 0.8517 0.8524 0.8531 0.8538
2335.000000 0.8545 0.8552 0.8559 0.8566 0.8574
2330.000000 0.8581 0.8588 0.8595 0.8606 0.8618
2325.000000 0.8631 0.8643 0.8656 0.8668 0.8681
2320.000000 0.8693 0.8706 0.8718 0.8731 0.8744
2315.000000 0.8756 0.8766 0.8775 0.8784 0.8793
2310.000000 0.8801 0.8810 0.8818 0.8828 0.8837
2305.000000 0.8845 0.8854 0.8863 0.8871 0.8880
2300.000000 0.8889 0.8894 0.8899 0.8904 0.8908
2295.000000 0.8913 0.8917 0.8921 0.8925 0.8931
2290.000000 0.8936 0.8940 0.8944 0.8949 0.8954
2285.000000 0.8958 0.8963 0.8967 0.8971 0.8977
2280.000000 0.8981 0.8985 0.8990 0.8995 0.8998
2275.000000 0.9002 0.9005 0.9009 0.9012 0.9015
2270.000000 0.9018 0.9021 0.9025 0.9028 0.9031
2265.000000 0.9035 0.9038 0.9042 0.9045 0.9048
2260.000000 0.9052 0.9055 0.9059 0.9061 0.9064
2255.000000 0.9067 0.9068 0.9071 0.9074 0.9075
2250.000000 0.9078 0.9081 0.9083 0.9085 0.9088
2245.000000 0.9090 0.9092 0.9094 0.9097 0.9099
2240.000000 0.9102 0.9104 0.9106 0.9108 0.9111
2235.000000 0.9113 0.9115 0.9117 0.9120 0.9121
2230.000000 0.9125 0.9125 0.9128 0.9128 0.9131
2225.000000 0.9132 0.9134 0.9135 0.9137 0.9138
2220.000000 0.9140 0.9141 0.9143 0.9144 0.9146
2215.000000 0.9148 0.9149 0.9151 0.9152 0.9154
2210.000000 0.9155 0.9157 0.9158 0.9160 0.9161
2205.000000 0.9163 0.9164 0.9165 0.9166 0.9166
2200.000000 0.9166 0.9166 0.9167 0.9167 0.9167
2195.000000 0.9167 0.9168 0.9168 0.9168 0.9168
2190.000000 0.9168 0.9168 0.9168 0.9170 0.9170
2185.000000 0.9170 0.9170 0.9171 0.9171 0.9171
2180.000000 0.9168 0.9168 0.9166 0.9164 0.9162
2175.000000 0.9160 0.9159 0.9157 0.9154 0.9152
2170.000000 0.9150 0.9149 0.9147 0.9145 0.9143
2165.000000 0.9141 0.9139 0.9137 0.9135 0.9133
2160.000000 0.9131 0.9130 0.9128 0.9125 0.9121
2155.000000 0.9118 0.9115 0.9111 0.9108 0.9105
2150.000000 0.9101 0.9098 0.9094 0.9091 0.9087
2145.000000 0.9083 0.9078 0.9075 0.9073 0.9068
2140.000000 0.9065 0.9061 0.9058 0.9054 0.9051
2135.000000 0.9047 0.9043 0.9040 0.9036 0.9031
2130.000000 0.9027 0.9021 0.9018 0.9014 0.9009
2125.000000 0.9005 0.9000 0.8996 0.8991 0.8987
2120.000000 0.8983 0.8978 0.8974 0.8970 0.8968
2115.000000 0.8965 0.8963 0.8960 0.8958 0.8955
2110.000000 0.8952 0.8950 0.8948 0.8945 0.8943
2105.000000 0.8940 0.8938 0.8938 0.8939 0.8939
2100.000000 0.8940 0.8945 0.8946 0.8948 0.8950
2095.000000 0.8952 0.8954 0.8956 0.8959 0.8960
2090.000000 0.8962 0.8964 0.8966 0.8970 0.8973
2085.000000 0.8975 0.8978 0.8983 0.8986 0.8990
2080.000000 0.8993 0.8997 0.9000 0.9003 0.9006
2075.000000 0.9009 0.9013 0.9016 0.9020 0.9023
2070.000000 0.9025 0.9027 0.9027 0.9028 0.9028
2065.000000 0.9028 0.9030 0.9030 0.9031 0.9032
2060.000000 0.9032 0.9033 0.9033 0.9032 0.9032
2055.000000 0.9031 0.9030 0.9030 0.9028 0.9028
2050.000000 0.9028 0.9027 0.9027 0.9025 0.9025
2045.000000 0.9025 0.9025 0.9025 0.9025 0.9027
2040.000000 0.9028 0.9028 0.9028 0.9030 0.9031
2035.000000 0.9032 0.9033 0.9034 0.9035 0.9035
2030.000000 0.9036 0.9037 0.9038 0.9039 0.9039
2025.000000 0.9042 0.9044 0.9046 0.9048 0.9051
2020.000000 0.9052 0.9054 0.9056 0.9058 0.9061
2015.000000 0.9063 0.9064 0.9066 0.9068 0.9071
2010.000000 0.9073 0.9075 0.9077 0.9078 0.9082
2005.000000 0.9087 0.9091 0.9096 0.9101 0.9105
2000.000000 0.9110 0.9114 0.9118 0.9123 0.9127
1995.000000 0.9131 0.9136 0.9140 0.9145 0.9150
1990.000000 0.9154 0.9159 0.9163 0.9168 0.9171
1985.000000 0.9177 0.9181 0.9186 0.9190 0.9194
1980.000000 0.9199 0.9203 0.9208 0.9212 0.9217
1975.000000 0.9221 0.9225 0.9230 0.9235 0.9239
1970.000000 0.9244 0.9248 0.9253 0.9257 0.9261
1965.000000 0.9264 0.9267 0.9270 0.9273 0.9275
1960.000000 0.9278 0.9281 0.9284 0.9287 0.9290
1955.000000 0.9293 0.9295 0.9298 0.9301 0.9304
1950.000000 0.9307 0.9310 0.9313 0.9317 0.9318
1945.000000 0.9321 0.9325 0.9328 0.9332 0.9335
1940.000000 0.9338 0.9341 0.9344 0.9348 0.9351
1935.000000 0.9354 0.9357 0.9360 0.9362 0.9364
1930.000000 0.9367 0.9370 0.9371 0.9374 0.9377
1925.000000 0.9378 0.9381 0.9384 0.9386 0.9388
1920.000000 0.9391 0.9394 0.9396 0.9398 0.9401
1915.000000 0.9403 0.9406 0.9409 0.9412 0.9415
1910.000000 0.9418 0.9421 0.9424 0.9425 0.9428
1905.000000 0.9432 0.9436 0.9437 0.9437 0.9437
1900.000000 0.9437 0.9436 0.9434 0.9430 0.9427
1895.000000 0.9423 0.9418 0.9415 0.9411 0.9407
1890.000000 0.9404 0.9403 0.9402 0.9401 0.9399
1885.000000 0.9398 0.9398 0.9396 0.9395 0.9393
1880.000000 0.9392 0.9391 0.9390 0.9390 0.9390
1875.000000 0.9392 0.9394 0.9396 0.9397 0.9399
1870.000000 0.9401 0.9403 0.9405 0.9407 0.9409
1865.000000 0.9411 0.9413 0.9414 0.9416 0.9418
1860.000000 0.9421 0.9421 0.9424 0.9425 0.9427
1855.000000 0.9430 0.9432 0.9434 0.9434 0.9436
1850.000000 0.9437 0.9439 0.9440 0.9442 0.9443
1845.000000 0.9445 0.9446 0.9447 0.9449 0.9450
1840.000000 0.9451 0.9452 0.9454 0.9455 0.9457
1835.000000 0.9458 0.9460 0.9461 0.9463 0.9464
1830.000000 0.9466 0.9467 0.9468 0.9468 0.9468
1825.000000 0.9468 0.9468 0.9467 0.9466 0.9466
1820.000000 0.9466 0.9465 0.9464 0.9464 0.9463
1815.000000 0.9463 0.9462 0.9462 0.9461 0.9460
1810.000000 0.9458 0.9457 0.9455 0.9453 0.9452
1805.000000 0.9450 0.9448 0.9446 0.9445 0.9443
1800.000000 0.9441 0.9439 0.9437 0.9435 0.9434
1795.000000 0.9431 0.9428 0.9427 0.9425 0.9423
1790.000000 0.9421 0.9418 0.9417 0.9415 0.9413
1785.000000 0.9411 0.9409 0.9407 0.9405 0.9402
1780.000000 0.9401 0.9399 0.9396 0.9393 0.9390
1775.000000 0.9387 0.9385 0.9381 0.9378 0.9375
1770.000000 0.9371 0.9370 0.9366 0.9363 0.9361
1765.000000 0.9358 0.9355 0.9351 0.9349 0.9345
1760.000000 0.9340 0.9336 0.9331 0.9325 0.9321
1755.000000 0.9317 0.9313 0.9308 0.9304 0.9299
1750.000000 0.9294 0.9290 0.9286 0.9283 0.9281
1745.000000 0.9278 0.9277 0.9275 0.9271 0.9270
1740.000000 0.9268 0.9266 0.9263 0.9260 0.9256
1735.000000 0.9252 0.9248 0.9245 0.9240 0.9236
1730.000000 0.9233 0.9228 0.9225 0.9221 0.9214
1725.000000 0.9206 0.9198 0.9191 0.9183 0.9175
1720.000000 0.9167 0.9159 0.9152 0.9144 0.9130
1715.000000 0.9117 0.9103 0.9090 0.9075 0.9061
1710.000000 0.9048 0.9034 0.9020 0.9005 0.8990
1705.000000 0.8974 0.8958 0.8942 0.8925 0.8910
1700.000000 0.8894 0.8878 0.8862 0.8846 0.8828
1695.000000 0.8810 0.8790 0.8770 0.8750 0.8728
1690.000000 0.8709 0.8689 0.8668 0.8640 0.8605
1685.000000 0.8568 0.8534 0.8497 0.8461 0.8424
1680.000000 0.8384 0.8343 0.8303 0.8261 0.8220
1675.000000 0.8164 0.8096 0.8026 0.7957 0.7883
1670.000000 0.7810 0.7736 0.7634 0.7435 0.7050
1665.000000 0.6694 0.6422 0.6153 0.5882 0.5610
1660.000000 0.5338 0.5067 0.4794 0.4521 0.4249
1655.000000 0.4121 0.4100 0.4125 0.4105 0.4148
1650.000000 0.4251 0.4383 0.4514 0.4646 0.4778
1645.000000 0.4910 0.5042 0.5174 0.5307 0.5439
1640.000000 0.5572 0.5705 0.5838 0.5972 0.6105
1635.000000 0.6239 0.6373 0.6507 0.6641 0.6697
1630.000000 0.6712 0.6719 0.6725 0.6710 0.6635
1625.000000 0.6521 0.6408 0.6295 0.6182 0.6097
1620.000000 0.6087 0.6083 0.6082 0.6089 0.6192
1615.000000 0.6308 0.6424 0.6540 0.6657 0.6772
1610.000000 0.6889 0.7005 0.7121 0.7239 0.7355
1605.000000 0.7401 0.7411 0.7411 0.7411 0.7349
1600.000000 0.7246 0.7161 0.7126 0.7128 0.7137
1595.000000 0.7172 0.7254 0.7353 0.7453 0.7553
1590.000000 0.7654 0.7753 0.7854 0.7954 0.8055
1585.000000 0.8155 0.8256 0.8357 0.8441 0.8478
1580.000000 0.8507 0.8534 0.8561 0.8588 0.8615
1575.000000 0.8638 0.8651 0.8652 0.8652 0.8651
1570.000000 0.8650 0.8648 0.8647 0.8654 0.8673
1565.000000 0.8694 0.8716 0.8740 0.8765 0.8786
1560.000000 0.8802 0.8796 0.8792 0.8773 0.8745
1555.000000 0.8717 0.8694 0.8673 0.8652 0.8631
1550.000000 0.8609 0.8585 0.8560 0.8536 0.8509
1545.000000 0.8464 0.8418 0.8373 0.8324 0.8263
1540.000000 0.8198 0.8133 0.8040 0.7904 0.7755
1535.000000 0.7612 0.7475 0.7353 0.7248 0.7146
1530.000000 0.7003 0.6841 0.6676 0.6362 0.5565
1525.000000 0.5228 0.4891 0.4553 0.4215 0.3877
1520.000000 0.3538 0.3198 0.2858 0.2518 0.2177
1515.000000 0.1835 0.1529 0.1395 0.1401 0.1401
1510.000000 0.1401 0.1599 0.1911 0.2231 0.2551
1505.000000 0.2872 0.3193 0.3514 0.3837 0.4159
1500.000000 0.4483 0.4805 0.5129 0.5453 0.5752
1495.000000 0.5814 0.5787 0.5600 0.5170 0.4741
1490.000000 0.4310 0.3879 0.3474 0.3350 0.3343
1485.000000 0.3366 0.3512 0.3726 0.3939 0.4154
1480.000000 0.4369 0.4584 0.4799 0.5014 0.5095
1475.000000 0.5075 0.4975 0.4775 0.4574 0.4373
1470.000000 0.4172 0.3971 0.3768 0.3566 0.3364
1465.000000 0.3216 0.3180 0.3185 0.3227 0.3473
1460.000000 0.3722 0.3971 0.4221 0.4471 0.4715
1455.000000 0.4812 0.4888 0.4946 0.5000 0.5046
1450.000000 0.5091 0.5137 0.5184 0.5231 0.5287
1445.000000 0.5352 0.5436 0.5545 0.5653 0.5762
1440.000000 0.5871 0.5980 0.6090 0.6185 0.6200
1435.000000 0.6172 0.5929 0.5730 0.5677 0.5671
1430.000000 0.5697 0.5827 0.5991 0.6155 0.6319
1425.000000 0.6484 0.6649 0.6814 0.6885 0.6900
1420.000000 0.6912 0.6935 0.6928 0.6925 0.6880
1415.000000 0.6694 0.6458 0.6224 0.5988 0.5752
1410.000000 0.5516 0.5280 0.5043 0.4805 0.4568
1405.000000 0.4330 0.4092 0.3975 0.3959 0.3964
1400.000000 0.3966 0.4328 0.4553 0.4779 0.5006
1395.000000 0.5232 0.5459 0.5686 0.5912 0.6142
1390.000000 0.6355 0.6378 0.6341 0.6179 0.6017
1385.000000 0.5854 0.5691 0.5527 0.5427 0.5416
1380.000000 0.5457 0.5539 0.5630 0.5722 0.5814
1375.000000 0.5906 0.5998 0.6091 0.6183 0.6260
1370.000000 0.6286 0.6231 0.6141 0.6051 0.5969
1365.000000 0.5951 0.5938 0.5986 0.6171 0.6358
1360.000000 0.6544 0.6732 0.6918 0.6930 0.6900
1355.000000 0.6821 0.6737 0.6651 0.6634 0.6700
1350.000000 0.6860 0.7021 0.7175 0.7249 0.7291
1345.000000 0.7331 0.7365 0.7401 0.7388 0.7381
1340.000000 0.7367 0.7347 0.7325 0.7293 0.7255
1335.000000 0.7168 0.6800 0.6358 0.5917 0.5695
1330.000000 0.5680 0.5760 0.5948 0.6137 0.6326
1325.000000 0.6515 0.6704 0.6893 0.7083 0.7230
1320.000000 0.7297 0.7361 0.7424 0.7471 0.7504
1315.000000 0.7528 0.7543 0.7542 0.7525 0.7482
1310.000000 0.7367 0.7169 0.7014 0.6884 0.6764
1305.000000 0.6648 0.6542 0.6465 0.6432 0.6412
1300.000000 0.6397 0.6380 0.6301 0.6145 0.5727
1295.000000 0.5254 0.5055 0.4792 0.4528 0.4292
1290.000000 0.4222 0.4209 0.4204 0.4198 0.4190
1285.000000 0.4022 0.3762 0.3500 0.3238 0.2976
1280.000000 0.2713 0.2450 0.2199 0.2095 0.2107
1275.000000 0.2213 0.2527 0.2857 0.3187 0.3518
1270.000000 0.3849 0.4182 0.4515 0.4848 0.5181
1265.000000 0.5362 0.5447 0.5537 0.5610 0.5655
1260.000000 0.5682 0.5681 0.5681 0.5660 0.5600
1255.000000 0.5520 0.5473 0.5460 0.5456 0.5468
1250.000000 0.5539 0.5668 0.5798 0.5928 0.6060
1245.000000 0.6190 0.6321 0.6451 0.6584 0.6715
1240.000000 0.6847 0.6978 0.7111 0.7243 0.7267
1235.000000 0.7269 0.7257 0.7215 0.7178 0.7171
1230.000000 0.7198 0.7243 0.7296 0.7358 0.7422
1225.000000 0.7494 0.7540 0.7569 0.7596 0.7617
1220.000000 0.7637 0.7657 0.7658 0.7651 0.7630
1215.000000 0.7587 0.7440 0.7183 0.6921 0.6658
1210.000000 0.6418 0.6401 0.6395 0.6462 0.6569
1205.000000 0.6675 0.6781 0.6888 0.6978 0.6994
1200.000000 0.6983 0.6924 0.6475 0.5978 0.5480
1195.000000 0.4981 0.4481 0.3980 0.3479 0.3184
1190.000000 0.3197 0.3403 0.3789 0.4175 0.4560
1185.000000 0.4948 0.5337 0.5725 0.6114 0.6504
1180.000000 0.6611 0.6588 0.6383 0.6124 0.5864
1175.000000 0.5604 0.5344 0.5082 0.4848 0.4828
1170.000000 0.4841 0.5027 0.5244 0.5462 0.5680
1165.000000 0.5898 0.6117 0.6335 0.6555 0.6767
1160.000000 0.6848 0.6861 0.6858 0.6834 0.6788
1155.000000 0.6736 0.6715 0.6728 0.6758 0.6858
1150.000000 0.6944 0.7071 0.7172 0.7237 0.7251
1145.000000 0.7247 0.7178 0.6861 0.6155 0.5560
1140.000000 0.4962 0.4366 0.3766 0.3168 0.2835
1135.000000 0.2848 0.3060 0.3293 0.3526 0.3759
1130.000000 0.3995 0.4230 0.4465 0.4701 0.5182
1125.000000 0.5152 0.5162 0.4921 0.4564 0.4206
1120.000000 0.3772 0.3775 0.3868 0.4147 0.4425
1115.000000 0.4704 0.4982 0.5262 0.5541 0.5823
1110.000000 0.6103 0.6385 0.6667 0.6915 0.7021
1105.000000 0.7105 0.7185 0.7298 0.7250 0.7245
1100.000000 0.7051 0.6828 0.6601 0.6376 0.6149
1095.000000 0.5922 0.5695 0.5467 0.5238 0.5010
1090.000000 0.4832 0.4812 0.4917 0.5080 0.5244
1085.000000 0.5408 0.5504 0.5510 0.5449 0.5183
1080.000000 0.4906 0.4629 0.4350 0.4072 0.3856
1075.000000 0.3245 0.2938 0.2752 0.2407 0.1984
1070.000000 0.1868 0.1811 0.1854 0.1989 0.2248
1065.000000 0.2507 0.2767 0.3028 0.3288 0.3550
1060.000000 0.3823 0.3782 0.3744 0.3472 0.3194
1055.000000 0.2916 0.2637 0.2406 0.2384 0.2442
1050.000000 0.2675 0.2929 0.3183 0.3438 0.3694
1045.000000 0.3950 0.4206 0.4462 0.4721 0.4979
1040.000000 0.5236 0.5442 0.5443 0.5429 0.5390
1035.000000 0.5402 0.5569 0.5737 0.5883 0.6014
1030.000000 0.6112 0.6087 0.6064 0.5762 0.5451
1025.000000 0.5138 0.4825 0.4693 0.4801 0.5106
1020.000000 0.5412 0.5718 0.6025 0.6333 0.6815
1015.000000 0.7042 0.7193 0.7331 0.7461 0.7551
1010.000000 0.7641 0.7724 0.7796 0.7846 0.7871
1005.000000 0.7894 0.7936 0.7987 0.8025 0.8060
1000.000000 0.8090 0.8106 0.8118 0.8142 0.8136
995.000000 0.8134 0.8125 0.8096 0.7998 0.7711
990.000000 0.7405 0.7197 0.7083 0.7025 0.7015
985.000000 0.7017 0.7012 0.6969 0.6842 0.6600
980.000000 0.6080 0.5562 0.5044 0.4524 0.4099
975.000000 0.4099 0.4468 0.4826 0.5186 0.5546
970.000000 0.5907 0.6268 0.6630 0.6961 0.7007
965.000000 0.6887 0.6387 0.5876 0.5364 0.4851
960.000000 0.4635 0.4654 0.4937 0.5312 0.5690
955.000000 0.6069 0.6448 0.6826 0.6990 0.7061
950.000000 0.7038 0.6969 0.6534 0.6091 0.5647
945.000000 0.5494 0.5650 0.5812 0.5976 0.5940
940.000000 0.5679 0.5615 0.5849 0.6170 0.6492
935.000000 0.6814 0.7138 0.7265 0.7307 0.7284
930.000000 0.7136 0.6961 0.6784 0.6678 0.6697
925.000000 0.6792 0.7048 0.7311 0.7575 0.7840
920.000000 0.7986 0.8061 0.8125 0.8187 0.8232
915.000000 0.8278 0.8318 0.8355 0.8393 0.8418
910.000000 0.8445 0.8470 0.8489 0.8507 0.8523
905.000000 0.8536 0.8574 0.8554 0.8548 0.8488
900.000000 0.8324 0.8155 0.7985 0.7818 0.7797
895.000000 0.7849 0.7936 0.8057 0.8182 0.8291
890.000000 0.8386 0.8467 0.8510 0.8547 0.8571
885.000000 0.8625 0.8605 0.8600 0.8575 0.8512
880.000000 0.8378 0.8144 0.7833 0.7430 0.6945
875.000000 0.6337 0.5727 0.5595 0.5746 0.6168
870.000000 0.6592 0.7015 0.7325 0.7251 0.7057
865.000000 0.6861 0.6701 0.6788 0.7025 0.7262
860.000000 0.7500 0.7738 0.7898 0.7987 0.8078
855.000000 0.8162 0.8204 0.8245 0.8230 0.8214
850.000000 0.8154 0.8034 0.7843 0.7565 0.6868
845.000000 0.6003 0.5136 0.4348 0.4360 0.4641
840.000000 0.5172 0.5704 0.6237 0.6717 0.7011
835.000000 0.7274 0.7458 0.7634 0.7790 0.7934
830.000000 0.8061 0.8145 0.8225 0.8285 0.8331
825.000000 0.8374 0.8397 0.8418 0.8404 0.8383
820.000000 0.8341 0.8275 0.8122 0.7938 0.7817
815.000000 0.7841 0.7871 0.7855 0.7806 0.7571
810.000000 0.7337 0.7047 0.6639 0.6136 0.5529
805.000000 0.4930 0.4329 0.3727 0.3246 0.3360
800.000000 0.3930 0.4500 0.5071 0.5644 0.6029
795.000000 0.6008 0.5447 0.4617 0.3688 0.3695
790.000000 0.3858 0.4455 0.5053 0.5654 0.6224
785.000000 0.6691 0.7044 0.7283 0.7494 0.7644
780.000000 0.7692 0.7688 0.7583 0.7367 0.7176
775.000000 0.7105 0.7194 0.7341 0.7501 0.7687
770.000000 0.7840 0.7940 0.8011 0.8067 0.8058
765.000000 0.8003 0.7748 0.7206 0.6662 0.6119
760.000000 0.5786 0.5862 0.6116 0.6467 0.6818
755.000000 0.7169 0.7522 0.7749 0.7905 0.8017
750.000000 0.8097 0.8156 0.8203 0.8241 0.8270
745.000000 0.8295 0.8315 0.8328 0.8359 0.8341
740.000000 0.8341 0.8341 0.8332 0.8316 0.8298
735.000000 0.8267 0.8228 0.8178 0.8100 0.7998
730.000000 0.7811 0.7508 0.7191 0.6951 0.6799
725.000000 0.6812 0.6888 0.7019 0.7168 0.7344
720.000000 0.7481 0.7571 0.7637 0.7674 0.7688
715.000000 0.7684 0.7654 0.7594 0.7468 0.7311
710.000000 0.7007 0.6683 0.6272 0.6005 0.5991
705.000000 0.6024 0.6232 0.6505 0.6743 0.6935
700.000000 0.7056 0.7119 0.7144 0.7149 0.7135
695.000000 0.7097 0.7058 0.7018 0.6975 0.6915
690.000000 0.6822 0.6662 0.6460 0.6120 0.5827
685.000000 0.5573 0.5426 0.5430 0.5454 0.5591
680.000000 0.5762 0.5939 0.6103 0.6260 0.6400
675.000000 0.6511 0.6575 0.6617 0.6637 0.6630
670.000000 0.6618 0.6637 0.6650 0.6654 0.6576
665.000000 0.6494 0.6417 0.6346 0.6285 0.6244
660.000000 0.6236 0.6235 0.6242 0.6242 0.6242
655.000000 0.6220 0.6188 0.6156 0.6120
##END=
