##TITLE=BIS(2-AMINO-1-PROPYL) DISULFIDE DIHYDROCHLORIDE
##JCAMP-DX=4.24
##DATA TYPE=INFRARED SPECTRUM
##CLASS=COBLENTZ
##ORIGIN=ARTHUR D. LITTLE, INC.
##OWNER=COBLENTZ SOCIETY
Collection (C) 2018 copyright by the U.S. Secretary of Commerce
on behalf of the United States of America. All rights reserved.
##DATE=Not specified, most likely prior to 1970
##MOLFORM=C6 H16 N2 S2  * 2 H Cl
##MP=217-218 C
##SOURCE REFERENCE=COBLENTZ NO. 4589
##$NIST ID=B6004589
##$NIST SOURCE=COBLENTZ
##$NIST IMAGE=cob4589
##SPECTROMETER/DATA SYSTEM=Not specified, most likely a prism, grating, or hybrid spectrometer.
##STATE=SOLID (MINERAL OIL MULL)
##SAMPLING PROCEDURE=TRANSMISSION
##RESOLUTION=4
##DATA PROCESSING=DIGITIZED BY NIST FROM HARD COPY
##XUNITS=MICROMETERS
##YUNITS=TRANSMITTANCE
##XFACTOR=1.000000
##YFACTOR=1
##DELTAX=000.006051
##FIRSTX=2.51
##LASTX=15.0123
##FIRSTY=0.821
##MAXX=15.0123
##MINX=2.51
##MAXY=0.875
##MINY=0.012
##NPOINTS=2067
##XYDATA=(X++(Y..Y))
2.510000 0.8210 0.8220 0.8240 0.8240 0.8250
2.540272 0.8260 0.8270 0.8280 0.8300 0.8310
2.570000 0.8310 0.8310 0.8300 0.8300 0.8300
2.600272 0.8280 0.8270 0.8260 0.8240 0.8220
2.631000 0.8200 0.8190 0.8180 0.8160 0.8150
2.661272 0.8140 0.8090 0.8070 0.8040 0.8010
2.691000 0.7980 0.7950 0.7920 0.7910 0.7890
2.721272 0.7860 0.7840 0.7830 0.7790 0.7770
2.752000 0.7720 0.7710 0.7690 0.7670 0.7650
2.782272 0.7630 0.7590 0.7540 0.7510 0.7480
2.812000 0.7450 0.7430 0.7420 0.7400 0.7390
2.842272 0.7390 0.7400 0.7420 0.7430 0.7440
2.873000 0.7450 0.7460 0.7480 0.7500 0.7510
2.903272 0.7530 0.7530 0.7500 0.7400 0.7320
2.933000 0.7240 0.7160 0.7080 0.7010 0.6930
2.963272 0.6850 0.6770 0.6670 0.6560 0.6430
2.994000 0.6280 0.6100 0.5770 0.5440 0.5140
3.024272 0.4850 0.4570 0.4310 0.4060 0.3830
3.054000 0.3600 0.3370 0.3160 0.2950 0.2740
3.084272 0.2540 0.2340 0.2140 0.1930 0.1730
3.115000 0.1510 0.1300 0.1070 0.0980 0.0890
3.145272 0.0870 0.0870 0.0890 0.0900 0.0910
3.175000 0.0910 0.0900 0.0890 0.0850 0.0840
3.205272 0.0790 0.0750 0.0730 0.0690 0.0660
3.236000 0.0620 0.0590 0.0560 0.0530 0.0490
3.266272 0.0460 0.0430 0.0400 0.0370 0.0340
3.297000 0.0310 0.0280 0.0260 0.0220 0.0200
3.327272 0.0160 0.0150 0.0130 0.0130 0.0120
3.357000 0.0120 0.0120 0.0120 0.0130 0.0130
3.387272 0.0140 0.0140 0.0150 0.0160 0.0180
3.418000 0.0190 0.0200 0.0210 0.0250 0.0270
3.448272 0.0310 0.0330 0.0360 0.0400 0.0460
3.478000 0.0550 0.0660 0.0800 0.0950 0.1090
3.508272 0.1250 0.1380 0.1500 0.1590 0.1630
3.539000 0.1780 0.1840 0.2000 0.2120 0.2240
3.569272 0.2310 0.2380 0.2440 0.2460 0.2500
3.599000 0.2570 0.2660 0.2770 0.2870 0.2970
3.629272 0.3080 0.3160 0.3240 0.3280 0.3340
3.660000 0.3420 0.3500 0.3600 0.3690 0.3800
3.690272 0.3910 0.4030 0.4150 0.4270 0.4390
3.720000 0.4500 0.4620 0.4650 0.4650 0.4620
3.750272 0.4620 0.4590 0.4550 0.4530 0.4480
3.781000 0.4440 0.4370 0.4260 0.4150 0.4040
3.811272 0.4030 0.4060 0.4310 0.4500 0.4660
3.841000 0.4800 0.4930 0.5040 0.5140 0.5220
3.871272 0.5280 0.5340 0.5390 0.5430 0.5450
3.902000 0.5480 0.5500 0.5510 0.5530 0.5540
3.932272 0.5550 0.5560 0.5570 0.5600 0.5620
3.962000 0.5650 0.5660 0.5680 0.5720 0.5780
3.992272 0.5870 0.6000 0.6140 0.6320 0.6550
4.023000 0.6800 0.6890 0.6970 0.7060 0.7140
4.053272 0.7210 0.7300 0.7370 0.7440 0.7500
4.083000 0.7560 0.7610 0.7650 0.7680 0.7710
4.113272 0.7720 0.7720 0.7730 0.7730 0.7740
4.144000 0.7750 0.7770 0.7770 0.7780 0.7790
4.174272 0.7800 0.7810 0.7810 0.7830 0.7830
4.204000 0.7850 0.7860 0.7900 0.7930 0.7950
4.234272 0.7970 0.8030 0.8080 0.8130 0.8180
4.265000 0.8200 0.8220 0.8250 0.8260 0.8270
4.295272 0.8280 0.8310 0.8320 0.8320 0.8320
4.325000 0.8330 0.8330 0.8330 0.8330 0.8330
4.355272 0.8330 0.8320 0.8320 0.8310 0.8270
4.386000 0.8240 0.8210 0.8200 0.8210 0.8220
4.416272 0.8260 0.8280 0.8310 0.8330 0.8340
4.446000 0.8370 0.8380 0.8380 0.8380 0.8400
4.476272 0.8400 0.8420 0.8420 0.8420 0.8430
4.507000 0.8430 0.8430 0.8440 0.8440 0.8450
4.537272 0.8460 0.8460 0.8480 0.8480 0.8480
4.567000 0.8490 0.8490 0.8490 0.8500 0.8500
4.597272 0.8530 0.8540 0.8530 0.8510 0.8500
4.628000 0.8490 0.8490 0.8480 0.8460 0.8460
4.658272 0.8450 0.8440 0.8390 0.8330 0.8300
4.688000 0.8270 0.8260 0.8250 0.8240 0.8220
4.718272 0.8220 0.8200 0.8180 0.8150 0.8140
4.749000 0.8140 0.8130 0.8130 0.8120 0.8120
4.779272 0.8120 0.8120 0.8120 0.8120 0.8120
4.809000 0.8120 0.8130 0.8140 0.8140 0.8150
4.839272 0.8150 0.8130 0.8130 0.8120 0.8090
4.870000 0.8060 0.8030 0.7980 0.7950 0.7930
4.900272 0.7910 0.7900 0.7890 0.7860 0.7840
4.930000 0.7800 0.7770 0.7730 0.7710 0.7680
4.960272 0.7660 0.7620 0.7600 0.7570 0.7550
4.991000 0.7530 0.7500 0.7490 0.7480 0.7460
5.021272 0.7420 0.7400 0.7370 0.7340 0.7300
5.051000 0.7270 0.7240 0.7190 0.7180 0.7190
5.081272 0.7220 0.7260 0.7300 0.7330 0.7370
5.112000 0.7400 0.7440 0.7490 0.7530 0.7560
5.142272 0.7600 0.7630 0.7670 0.7720 0.7750
5.172000 0.7790 0.7830 0.7860 0.7900 0.7930
5.202272 0.7970 0.8010 0.8040 0.8080 0.8120
5.233000 0.8140 0.8180 0.8200 0.8220 0.8260
5.263272 0.8280 0.8310 0.8330 0.8340 0.8370
5.293000 0.8380 0.8390 0.8400 0.8400 0.8400
5.323272 0.8420 0.8420 0.8430 0.8430 0.8440
5.354000 0.8450 0.8460 0.8460 0.8480 0.8510
5.384272 0.8530 0.8540 0.8550 0.8560 0.8570
5.415000 0.8590 0.8600 0.8610 0.8630 0.8650
5.445272 0.8660 0.8670 0.8680 0.8690 0.8690
5.475000 0.8710 0.8710 0.8720 0.8720 0.8730
5.505272 0.8730 0.8740 0.8740 0.8740 0.8740
5.536000 0.8740 0.8750 0.8750 0.8750 0.8750
5.566272 0.8750 0.8750 0.8740 0.8740 0.8740
5.596000 0.8730 0.8720 0.8720 0.8710 0.8690
5.626272 0.8680 0.8680 0.8670 0.8660 0.8650
5.657000 0.8650 0.8630 0.8620 0.8610 0.8610
5.687272 0.8600 0.8590 0.8590 0.8570 0.8560
5.717000 0.8550 0.8540 0.8510 0.8510 0.8500
5.747272 0.8490 0.8450 0.8430 0.8430 0.8400
5.778000 0.8400 0.8380 0.8380 0.8380 0.8370
5.808272 0.8360 0.8360 0.8340 0.8340 0.8330
5.838000 0.8330 0.8320 0.8310 0.8310 0.8300
5.868272 0.8300 0.8280 0.8280 0.8280 0.8280
5.899000 0.8280 0.8280 0.8280 0.8280 0.8280
5.929272 0.8270 0.8270 0.8270 0.8260 0.8240
5.959000 0.8210 0.8200 0.8160 0.8140 0.8100
5.989272 0.8090 0.8070 0.8030 0.8010 0.7960
6.020000 0.7930 0.7910 0.7870 0.7840 0.7830
6.050272 0.7800 0.7790 0.7750 0.7510 0.7340
6.080000 0.7250 0.7180 0.7140 0.7090 0.7040
6.110272 0.6970 0.6840 0.6620 0.6380 0.6120
6.141000 0.5850 0.5560 0.5270 0.4960 0.4650
6.171272 0.4310 0.4010 0.3720 0.3530 0.3490
6.201000 0.2860 0.2550 0.2220 0.2220 0.2300
6.231272 0.2450 0.2680 0.2920 0.3150 0.3270
6.262000 0.3320 0.3330 0.3320 0.3260 0.3200
6.292272 0.3030 0.2890 0.2670 0.2650 0.2650
6.322000 0.2670 0.2720 0.2770 0.2960 0.3080
6.352272 0.3420 0.3810 0.4530 0.5460 0.5960
6.383000 0.6340 0.6430 0.6510 0.6590 0.6720
6.413272 0.6840 0.6920 0.7040 0.7070 0.7080
6.443000 0.7080 0.7100 0.7080 0.6950 0.6890
6.473272 0.6830 0.6730 0.6610 0.6460 0.6300
6.504000 0.6120 0.5910 0.5680 0.5430 0.5160
6.534272 0.4790 0.4380 0.3870 0.3690 0.3460
6.564000 0.3260 0.2890 0.2610 0.2250 0.2070
6.594272 0.1910 0.1770 0.1610 0.1460 0.1310
6.625000 0.1300 0.1310 0.1530 0.1720 0.1890
6.655272 0.2040 0.2200 0.2360 0.2500 0.2650
6.685000 0.2800 0.2950 0.3100 0.3270 0.3440
6.715272 0.3630 0.3830 0.3890 0.3850 0.3710
6.746000 0.3500 0.3200 0.2980 0.2810 0.2690
6.776272 0.2590 0.2480 0.2320 0.2120 0.1810
6.806000 0.1690 0.1680 0.1690 0.1860 0.2020
6.836272 0.2180 0.2330 0.2500 0.2660 0.2830
6.867000 0.2950 0.2970 0.3380 0.3740 0.4080
6.897272 0.4380 0.4680 0.4970 0.5260 0.5540
6.927000 0.5840 0.6150 0.6490 0.6840 0.6870
6.957272 0.6900 0.6950 0.6980 0.7010 0.7030
6.988000 0.7010 0.7000 0.6690 0.6370 0.6040
7.018272 0.5730 0.5400 0.5040 0.4770 0.4770
7.048000 0.4870 0.5190 0.5400 0.5620 0.5840
7.078272 0.6040 0.6040 0.5980 0.5770 0.5310
7.109000 0.4930 0.4630 0.4370 0.4120 0.3850
7.139272 0.3530 0.3380 0.3310 0.2970 0.2790
7.169000 0.2780 0.2800 0.2870 0.2960 0.3040
7.199272 0.3130 0.3220 0.3310 0.3400 0.3490
7.230000 0.3560 0.3620 0.3690 0.3790 0.3900
7.260272 0.4040 0.4210 0.4400 0.4420 0.4460
7.290000 0.4550 0.4670 0.4810 0.4970 0.5150
7.320272 0.5330 0.5530 0.5690 0.5860 0.6010
7.351000 0.6120 0.6200 0.6270 0.6320 0.6530
7.381272 0.6670 0.6750 0.6810 0.6860 0.6920
7.411000 0.7010 0.7070 0.7100 0.7140 0.7180
7.441272 0.7210 0.7240 0.7260 0.7280 0.7310
7.472000 0.7320 0.7340 0.7360 0.7380 0.7390
7.502272 0.7420 0.7440 0.7450 0.7460 0.7460
7.533000 0.7480 0.7480 0.7480 0.7480 0.7480
7.563272 0.7480 0.7490 0.7490 0.7490 0.7490
7.593000 0.7490 0.7490 0.7500 0.7500 0.7500
7.623272 0.7490 0.7480 0.7480 0.7480 0.7490
7.654000 0.7490 0.7510 0.7510 0.7530 0.7530
7.684272 0.7530 0.7530 0.7510 0.7510 0.7500
7.714000 0.7480 0.7460 0.7430 0.7380 0.7330
7.744272 0.7270 0.7210 0.7130 0.7080 0.7070
7.775000 0.7070 0.7070 0.7080 0.7090 0.7100
7.805272 0.7120 0.7130 0.7140 0.7140 0.7150
7.835000 0.7150 0.7150 0.7130 0.7130 0.7120
7.865272 0.7060 0.7040 0.7020 0.6960 0.6900
7.896000 0.6840 0.6750 0.6620 0.6430 0.6150
7.926272 0.5750 0.5680 0.5550 0.5430 0.5300
7.956000 0.5180 0.5040 0.4920 0.4790 0.4670
7.986272 0.4540 0.4400 0.4390 0.4420 0.4570
8.017000 0.4730 0.4890 0.5060 0.5210 0.5370
8.047272 0.5460 0.5890 0.6040 0.6190 0.6360
8.077000 0.6500 0.6660 0.6800 0.6920 0.7020
8.107272 0.7090 0.7180 0.7190 0.7180 0.7010
8.138000 0.6960 0.6950 0.6850 0.6690 0.6490
8.168272 0.6260 0.6020 0.5770 0.5550 0.5340
8.198000 0.5250 0.4930 0.4450 0.4380 0.4280
8.228272 0.4190 0.3980 0.3870 0.3750 0.3650
8.259000 0.3540 0.3420 0.3310 0.3190 0.3180
8.289272 0.3190 0.3500 0.3810 0.4120 0.4430
8.319000 0.4610 0.4950 0.5220 0.5510 0.5800
8.349272 0.6090 0.6370 0.6610 0.6810 0.6970
8.380000 0.7080 0.7100 0.7140 0.7190 0.7250
8.410272 0.7330 0.7420 0.7500 0.7560 0.7620
8.440000 0.7650 0.7650 0.7660 0.7680 0.7690
8.470272 0.7690 0.7710 0.7720 0.7720 0.7720
8.501000 0.7720 0.7720 0.7720 0.7730 0.7730
8.531272 0.7740 0.7740 0.7740 0.7750 0.7750
8.561000 0.7770 0.7770 0.7780 0.7780 0.7790
8.591272 0.7790 0.7800 0.7800 0.7810 0.7810
8.622000 0.7830 0.7840 0.7850 0.7870 0.7890
8.652272 0.7900 0.7910 0.7920 0.7920 0.7930
8.682000 0.7930 0.7930 0.7930 0.7920 0.7920
8.712272 0.7910 0.7910 0.7910 0.7900 0.7870
8.743000 0.7860 0.7840 0.7810 0.7780 0.7740
8.773272 0.7680 0.7570 0.7440 0.7270 0.7090
8.803000 0.6900 0.6690 0.6480 0.6250 0.6030
8.833272 0.5800 0.5590 0.5370 0.5000 0.4910
8.864000 0.4750 0.4660 0.4190 0.3910 0.3790
8.894272 0.3390 0.3380 0.3390 0.4130 0.4250
8.924000 0.4300 0.4420 0.4610 0.4830 0.5080
8.954272 0.5340 0.5590 0.5810 0.6000 0.6100
8.985000 0.6660 0.6890 0.7040 0.7100 0.7130
9.015272 0.7210 0.7300 0.7360 0.7390 0.7440
9.045000 0.7480 0.7500 0.7530 0.7530 0.7430
9.075272 0.7390 0.7310 0.7260 0.7220 0.7200
9.106000 0.7150 0.7090 0.6860 0.6390 0.5860
9.136272 0.5730 0.5450 0.5370 0.5280 0.5270
9.166000 0.5300 0.5340 0.5370 0.5390 0.5420
9.196272 0.5440 0.5450 0.5450 0.5440 0.5440
9.227000 0.5420 0.5400 0.5370 0.5240 0.5100
9.257272 0.4970 0.4950 0.4970 0.5590 0.5910
9.287000 0.6310 0.6630 0.6900 0.7120 0.7300
9.317272 0.7430 0.7540 0.7610 0.7670 0.7710
9.348000 0.7730 0.7750 0.7780 0.7840 0.7870
9.378272 0.7900 0.7920 0.7950 0.8000 0.8040
9.408000 0.8040 0.8060 0.8070 0.8070 0.8070
9.438272 0.8070 0.8070 0.8070 0.8070 0.8070
9.469000 0.8070 0.8060 0.8060 0.8040 0.8040
9.499272 0.8030 0.8030 0.8020 0.8020 0.8010
9.530000 0.8010 0.8000 0.8000 0.7980 0.7980
9.560272 0.7970 0.7970 0.7980 0.7980 0.8000
9.590000 0.8010 0.8020 0.8020 0.8030 0.8030
9.620272 0.8030 0.8020 0.8020 0.8010 0.8000
9.651000 0.8000 0.8000 0.7980 0.7980 0.7970
9.681272 0.7960 0.7960 0.7950 0.7930 0.7920
9.711000 0.7910 0.7900 0.7890 0.7870 0.7870
9.741272 0.7860 0.7850 0.7850 0.7850 0.7840
9.772000 0.7800 0.7780 0.7740 0.7710 0.7650
9.802272 0.7600 0.7540 0.7450 0.7370 0.7270
9.832000 0.7150 0.7060 0.6970 0.6890 0.6810
9.862272 0.6750 0.6710 0.6660 0.6610 0.6550
9.893000 0.6540 0.6540 0.6570 0.6650 0.6730
9.923272 0.6740 0.6780 0.6830 0.6920 0.6930
9.953000 0.6930 0.6920 0.6920 0.6910 0.6910
9.983272 0.6890 0.6860 0.6830 0.6790 0.6730
10.014000 0.6650 0.6550 0.6440 0.6250 0.6130
10.044272 0.6060 0.5920 0.5800 0.5790 0.5660
10.074000 0.5650 0.5590 0.5570 0.5570 0.5570
10.104272 0.5590 0.5600 0.5610 0.5620 0.5630
10.135000 0.5650 0.5670 0.5680 0.5690 0.5710
10.165272 0.5720 0.5730 0.5740 0.5750 0.5770
10.195000 0.5780 0.5790 0.5800 0.5810 0.5830
10.225272 0.5850 0.6120 0.6340 0.6450 0.6560
10.256000 0.6600 0.6710 0.6810 0.6890 0.7000
10.286272 0.7090 0.7140 0.7260 0.7340 0.7420
10.316000 0.7480 0.7530 0.7570 0.7610 0.7650
10.346272 0.7680 0.7710 0.7740 0.7780 0.7810
10.377000 0.7850 0.7890 0.7900 0.7920 0.7930
10.407272 0.7950 0.7950 0.7960 0.7970 0.7960
10.437000 0.7930 0.7920 0.7910 0.7870 0.7860
10.467272 0.7830 0.7770 0.7710 0.7650 0.7600
10.498000 0.7560 0.7530 0.7510 0.7510 0.7510
10.528272 0.7530 0.7670 0.7730 0.7730 0.7740
10.558000 0.7740 0.7740 0.7740 0.7740 0.7740
10.588272 0.7740 0.7740 0.7750 0.7770 0.7780
10.619000 0.7790 0.7780 0.7780 0.7770 0.7750
10.649272 0.7740 0.7710 0.7670 0.7650 0.7650
10.679000 0.7630 0.7620 0.7610 0.7610 0.7620
10.709272 0.7630 0.7670 0.7690 0.7740 0.7780
10.740000 0.7810 0.7850 0.7890 0.7920 0.7950
10.770272 0.7980 0.8010 0.8040 0.8070 0.8090
10.800000 0.8130 0.8150 0.8180 0.8200 0.8220
10.830272 0.8250 0.8270 0.8300 0.8310 0.8320
10.861000 0.8330 0.8330 0.8330 0.8330 0.8320
10.891272 0.8320 0.8320 0.8320 0.8320 0.8320
10.921000 0.8330 0.8330 0.8330 0.8330 0.8330
10.951272 0.8340 0.8340 0.8340 0.8340 0.8360
10.982000 0.8360 0.8370 0.8370 0.8370 0.8370
11.012272 0.8370 0.8370 0.8370 0.8370 0.8360
11.042000 0.8340 0.8340 0.8340 0.8340 0.8340
11.072272 0.8340 0.8340 0.8340 0.8340 0.8340
11.103000 0.8340 0.8340 0.8340 0.8340 0.8330
11.133272 0.8330 0.8320 0.8310 0.8310 0.8300
11.163000 0.8280 0.8270 0.8260 0.8240 0.8210
11.193272 0.8190 0.8150 0.8100 0.8040 0.7970
11.224000 0.7920 0.7870 0.7840 0.7790 0.7750
11.254272 0.7730 0.7680 0.7650 0.7610 0.7550
11.284000 0.7500 0.7440 0.7420 0.7400 0.7400
11.314272 0.7420 0.7430 0.7440 0.7450 0.7460
11.345000 0.7480 0.7490 0.7500 0.7510 0.7530
11.375272 0.7560 0.7610 0.7660 0.7710 0.7740
11.405000 0.7780 0.7800 0.7830 0.7840 0.7850
11.435272 0.7860 0.7860 0.7870 0.7890 0.7900
11.466000 0.7920 0.7930 0.7930 0.7950 0.7960
11.496272 0.7970 0.7970 0.7980 0.8000 0.8020
11.526000 0.8030 0.8040 0.8040 0.8060 0.8060
11.556272 0.8070 0.8080 0.8090 0.8090 0.8100
11.587000 0.8100 0.8120 0.8130 0.8140 0.8140
11.617272 0.8150 0.8150 0.8160 0.8160 0.8190
11.648000 0.8190 0.8200 0.8200 0.8200 0.8210
11.678272 0.8210 0.8210 0.8210 0.8210 0.8210
11.708000 0.8210 0.8220 0.8220 0.8220 0.8220
11.738272 0.8240 0.8240 0.8240 0.8250 0.8270
11.769000 0.8270 0.8280 0.8280 0.8280 0.8300
11.799272 0.8300 0.8310 0.8310 0.8310 0.8320
11.829000 0.8330 0.8340 0.8360 0.8360 0.8370
11.859272 0.8370 0.8380 0.8380 0.8380 0.8390
11.890000 0.8390 0.8390 0.8400 0.8400 0.8400
11.920272 0.8420 0.8420 0.8420 0.8430 0.8430
11.950000 0.8430 0.8430 0.8430 0.8430 0.8430
11.980272 0.8430 0.8440 0.8440 0.8440 0.8440
12.011000 0.8440 0.8440 0.8430 0.8430 0.8420
12.041272 0.8420 0.8400 0.8400 0.8390 0.8380
12.071000 0.8380 0.8370 0.8360 0.8320 0.8310
12.101272 0.8300 0.8270 0.8250 0.8220 0.8180
12.132000 0.8140 0.8100 0.8090 0.8100 0.8150
12.162272 0.8160 0.8190 0.8190 0.8180 0.8160
12.192000 0.8160 0.8150 0.8140 0.8120 0.8120
12.222272 0.8100 0.8090 0.8070 0.8060 0.8020
12.253000 0.7980 0.7970 0.7910 0.7840 0.7750
12.283272 0.7690 0.7630 0.7590 0.7550 0.7510
12.313000 0.7460 0.7430 0.7380 0.7310 0.7270
12.343272 0.7200 0.7120 0.7020 0.6930 0.6840
12.374000 0.6750 0.6690 0.6650 0.6620 0.6590
12.404272 0.6560 0.6540 0.6510 0.6500 0.6460
12.434000 0.6440 0.6430 0.6430 0.6450 0.6560
12.464272 0.6620 0.6660 0.6690 0.6740 0.6790
12.495000 0.6860 0.6970 0.7100 0.7270 0.7490
12.525272 0.7550 0.7610 0.7660 0.7720 0.7780
12.555000 0.7830 0.7890 0.7950 0.8010 0.8080
12.585272 0.8140 0.8190 0.8250 0.8270 0.8280
12.616000 0.8270 0.8260 0.8250 0.8240 0.8240
12.646272 0.8260 0.8280 0.8300 0.8310 0.8330
12.676000 0.8340 0.8360 0.8360 0.8360 0.8360
12.706272 0.8340 0.8340 0.8340 0.8330 0.8330
12.737000 0.8330 0.8320 0.8320 0.8320 0.8310
12.767272 0.8310 0.8310 0.8310 0.8310 0.8310
12.797000 0.8310 0.8310 0.8310 0.8310 0.8310
12.827272 0.8310 0.8310 0.8310 0.8310 0.8310
12.858000 0.8310 0.8300 0.8300 0.8300 0.8300
12.888272 0.8300 0.8280 0.8270 0.8240 0.8220
12.918000 0.8210 0.8200 0.8180 0.8150 0.8140
12.948272 0.8120 0.8100 0.8080 0.8070 0.8060
12.979000 0.8060 0.8040 0.8040 0.8060 0.8070
13.009272 0.8080 0.8120 0.8130 0.8140 0.8140
13.039000 0.8150 0.8150 0.8150 0.8150 0.8140
13.069272 0.8140 0.8130 0.8120 0.8120 0.8100
13.100000 0.8100 0.8090 0.8090 0.8090 0.8080
13.130272 0.8070 0.8070 0.8060 0.8060 0.8060
13.160000 0.8060 0.8060 0.8060 0.8040 0.8040
13.190272 0.8040 0.8040 0.8030 0.8030 0.8020
13.221000 0.8010 0.8000 0.8000 0.7980 0.7980
13.251272 0.7980 0.7970 0.7970 0.7960 0.7960
13.281000 0.7960 0.7950 0.7950 0.7950 0.7930
13.311272 0.7920 0.7920 0.7910 0.7900 0.7860
13.342000 0.7850 0.7840 0.7830 0.7810 0.7800
13.372272 0.7790 0.7780 0.7770 0.7740 0.7730
13.402000 0.7710 0.7690 0.7680 0.7670 0.7660
13.432272 0.7650 0.7650 0.7630 0.7620 0.7610
13.463000 0.7600 0.7590 0.7560 0.7550 0.7530
13.493272 0.7500 0.7480 0.7440 0.7400 0.7360
13.523000 0.7330 0.7310 0.7300 0.7270 0.7270
13.553272 0.7260 0.7250 0.7240 0.7240 0.7220
13.584000 0.7210 0.7200 0.7190 0.7180 0.7150
13.614272 0.7140 0.7130 0.7130 0.7120 0.7120
13.644000 0.7100 0.7100 0.7090 0.7090 0.7080
13.674272 0.7080 0.7080 0.7080 0.7070 0.7070
13.705000 0.7060 0.7060 0.7060 0.7060 0.7060
13.735272 0.7040 0.7040 0.7040 0.7030 0.7030
13.766000 0.7010 0.7000 0.6950 0.6920 0.6900
13.796272 0.6890 0.6860 0.6850 0.6850 0.6840
13.826000 0.6840 0.6830 0.6790 0.6780 0.6750
13.856272 0.6730 0.6730 0.6720 0.6720 0.6720
13.887000 0.6730 0.6740 0.6750 0.6770 0.6780
13.917272 0.6790 0.6790 0.6800 0.6810 0.6810
13.947000 0.6830 0.6840 0.6860 0.6870 0.6900
13.977272 0.6920 0.6950 0.6970 0.7000 0.7030
14.008000 0.7060 0.7080 0.7120 0.7140 0.7160
14.038272 0.7190 0.7200 0.7210 0.7220 0.7240
14.068000 0.7250 0.7260 0.7270 0.7280 0.7300
14.098272 0.7310 0.7320 0.7330 0.7340 0.7360
14.129000 0.7370 0.7380 0.7390 0.7400 0.7420
14.159272 0.7430 0.7440 0.7440 0.7450 0.7450
14.189000 0.7460 0.7480 0.7480 0.7490 0.7490
14.219272 0.7490 0.7490 0.7480 0.7480 0.7460
14.250000 0.7460 0.7460 0.7460 0.7460 0.7460
14.280272 0.7480 0.7480 0.7480 0.7480 0.7480
14.310000 0.7480 0.7460 0.7460 0.7450 0.7440
14.340272 0.7420 0.7390 0.7370 0.7340 0.7330
14.371000 0.7310 0.7310 0.7300 0.7300 0.7280
14.401272 0.7280 0.7280 0.7270 0.7270 0.7260
14.431000 0.7260 0.7260 0.7250 0.7250 0.7250
14.461272 0.7240 0.7240 0.7240 0.7240 0.7220
14.492000 0.7220 0.7220 0.7210 0.7210 0.7210
14.522272 0.7200 0.7200 0.7200 0.7200 0.7190
14.552000 0.7190 0.7190 0.7190 0.7190 0.7190
14.582272 0.7180 0.7160 0.7160 0.7160 0.7160
14.613000 0.7150 0.7150 0.7150 0.7140 0.7140
14.643272 0.7140 0.7130 0.7130 0.7130 0.7130
14.673000 0.7120 0.7120 0.7120 0.7100 0.7100
14.703272 0.7090 0.7090 0.7080 0.7080 0.7070
14.734000 0.7070 0.7060 0.7040 0.7040 0.7030
14.764272 0.7020 0.7010 0.7010 0.7000 0.6980
14.794000 0.6970 0.6960 0.6950 0.6920 0.6900
14.824272 0.6890 0.6870 0.6860 0.6850 0.6840
14.855000 0.6830 0.6810 0.6800 0.6780 0.6770
14.885272 0.6750 0.6740 0.6730 0.6720 0.6710
14.915000 0.6690 0.6680 0.6670 0.6660 0.6650
14.945272 0.6650 0.6650 0.6660 0.6670 0.6680
14.976000 0.6690 0.6710 0.6720 0.6740 0.6750
15.006272 0.6770 0.6780
##END=
