##TITLE=Phthalimide, N-[4-[(3-bromopropyl)-amino]butyl]-, hydrobromide
##JCAMP-DX=4.24
##DATA TYPE=INFRARED SPECTRUM
##CLASS=COBLENTZ III
##ORIGIN=SOUTHERN RESEARCH INSTITUTE
##OWNER=Copyright (C) 1987 by the Coblentz Society
Collection (C) 2018 copyright by the U.S. Secretary of Commerce
on behalf of the United States of America. All rights reserved.
##DATE=1967/02/01
##NAMES=2-(4-[(3-bromopropyl)amino]butyl)-1H-isoindole-1,3(2H)-dione hydrobromide
##MOLFORM=C15 H20 Br2 N2 O2
##SOURCE REFERENCE=COBLENTZ NO. 7873
##$NIST ID=B6007873
##$NIST SOURCE=COBLENTZ
##$NIST IMAGE=cob7873
##SPECTROMETER/DATA SYSTEM=PERKIN-ELMER 521 (GRATING)
##INSTRUMENT PARAMETERS=FILTERS AT 3150, 2500, 2000, 1150, 700, 410. GRATING CHANGES: 2000, 630
##STATE=SOLID (1 mg / 650 mg KBr DISC)
##SAMPLING PROCEDURE=TRANSMISSION
##RESOLUTION=2
##DATA PROCESSING=DIGITIZED BY COBLENTZ SOCIETY (BATCH II) FROM HARD COPY (ADJUSTED \addcm-1\20-15-3\)
##XUNITS=1/CM
##YUNITS=TRANSMITTANCE
##XFACTOR=1.0
##YFACTOR=1
##DELTAX=1.004491
##FIRSTX=256.6
##LASTX=4013.4
##FIRSTY=0.24
##MAXX=4013.4
##MINX=256.6
##MAXY=0.9432
##MINY=0.0594348
##NPOINTS=3741
##XYDATA=(X++(Y..Y))
256.600000 0.2400 0.2442 0.2488 0.2536 0.2584
261.622454 0.2658 0.2733 0.2803 0.2861 0.2918
266.644908 0.2976 0.3033 0.3089 0.3147 0.3204
271.667362 0.3278 0.3361 0.3451 0.3555 0.3659
276.689816 0.3761 0.3854 0.3947 0.4039 0.4156
281.712269 0.4253 0.4305 0.4351 0.4396 0.4442
286.734723 0.4487 0.4533 0.4618 0.4718 0.4810
291.757177 0.4888 0.4953 0.5015 0.5099 0.5217
296.779631 0.5308 0.5392 0.5477 0.5541 0.5600
301.802085 0.5657 0.5712 0.5767 0.5822 0.5871
306.824539 0.5917 0.5964 0.6010 0.6052 0.6094
311.846993 0.6135 0.6176 0.6212 0.6241 0.6267
316.869447 0.6292 0.6318 0.6344 0.6370 0.6396
321.891901 0.6422 0.6450 0.6478 0.6505 0.6532
326.914354 0.6560 0.6582 0.6601 0.6620 0.6639
331.936808 0.6658 0.6677 0.6696 0.6711 0.6723
336.959262 0.6732 0.6733 0.6747 0.6735 0.6703
341.981716 0.6658 0.6569 0.6458 0.6347 0.6237
347.004170 0.6126 0.5996 0.5917 0.5915 0.6524
352.026624 0.7227 0.7346 0.7448 0.7527 0.7582
357.049078 0.7631 0.7675 0.7720 0.7759 0.7794
362.071532 0.7826 0.7851 0.7868 0.7886 0.7904
367.093986 0.7920 0.7935 0.7950 0.7963 0.7972
372.116439 0.7981 0.7990 0.7999 0.8010 0.8023
377.138893 0.8039 0.8058 0.8078 0.8098 0.8121
382.161347 0.8151 0.8180 0.8215 0.8259 0.8292
387.183801 0.8305 0.8311 0.8315 0.8318 0.8322
392.206255 0.8325 0.8328 0.8330 0.8332 0.8333
397.228709 0.8333 0.8334 0.8335 0.8336 0.8337
402.251163 0.8337 0.8337 0.8337 0.8340 0.8347
407.273617 0.8357 0.8379 0.8410 0.8436 0.8458
412.296071 0.8474 0.8484 0.8486 0.8488 0.8488
417.318524 0.8489 0.8489 0.8489 0.8489 0.8489
422.340978 0.8489 0.8489 0.8485 0.8481 0.8476
427.363432 0.8472 0.8466 0.8459 0.8451 0.8443
432.385886 0.8435 0.8429 0.8431 0.8433 0.8435
437.408340 0.8437 0.8449 0.8463 0.8477 0.8492
442.430794 0.8508 0.8523 0.8539 0.8557 0.8575
447.453248 0.8594 0.8606 0.8616 0.8626 0.8636
452.475702 0.8646 0.8656 0.8666 0.8675 0.8685
457.498156 0.8691 0.8694 0.8696 0.8698 0.8699
462.520609 0.8701 0.8701 0.8701 0.8701 0.8701
467.543063 0.8701 0.8702 0.8702 0.8702 0.8702
472.565517 0.8702 0.8702 0.8718 0.8704 0.8699
477.587971 0.8698 0.8697 0.8696 0.8695 0.8691
482.610425 0.8687 0.8683 0.8679 0.8675 0.8670
487.632879 0.8665 0.8658 0.8652 0.8645 0.8638
492.655333 0.8632 0.8621 0.8607 0.8592 0.8578
497.677787 0.8563 0.8544 0.8520 0.8494 0.8468
502.700241 0.8462 0.8465 0.8472 0.8486 0.8503
507.722694 0.8521 0.8536 0.8544 0.8543 0.8534
512.745148 0.8517 0.8494 0.8467 0.8436 0.8401
517.767602 0.8367 0.8322 0.8256 0.8183 0.8106
522.790056 0.8017 0.7798 0.7470 0.7136 0.6803
527.812510 0.6469 0.6199 0.6093 0.6253 0.6799
532.834964 0.7564 0.8132 0.8347 0.8385 0.8396
537.857418 0.8401 0.8400 0.8395 0.8379 0.8347
542.879872 0.8309 0.8262 0.8195 0.8102 0.7977
547.902326 0.7826 0.7675 0.7523 0.7372 0.7220
552.924779 0.7104 0.7073 0.7175 0.7392 0.7573
557.947233 0.7753 0.7933 0.8114 0.8294 0.8415
562.969687 0.8411 0.8374 0.8313 0.8250 0.8188
567.992141 0.8166 0.8306 0.8569 0.8687 0.8722
573.014595 0.8742 0.8750 0.8757 0.8762 0.8765
578.037049 0.8767 0.8768 0.8768 0.8768 0.8767
583.059503 0.8765 0.8768 0.8768 0.8767 0.8766
588.081957 0.8766 0.8764 0.8759 0.8754 0.8748
593.104411 0.8734 0.8724 0.8714 0.8704 0.8693
598.126864 0.8683 0.8672 0.8659 0.8646 0.8633
603.149318 0.8616 0.8597 0.8578 0.8559 0.8540
608.171772 0.8522 0.8504 0.8486 0.8460 0.8434
613.194226 0.8408 0.8381 0.8354 0.8323 0.8274
618.216680 0.8206 0.8138 0.8070 0.8003 0.7934
623.239134 0.7866 0.7799 0.7676 0.7696 0.8430
628.261588 0.8493 0.8553 0.8614 0.8665 0.8703
633.284042 0.8721 0.8738 0.8756 0.8762 0.8767
638.306496 0.8772 0.8776 0.8775 0.8772 0.8766
643.328949 0.8759 0.8752 0.8742 0.8731 0.8720
648.351403 0.8722 0.8739 0.8758 0.8776 0.8797
653.373857 0.8810 0.8821 0.8829 0.8816 0.8793
658.396311 0.8764 0.8723 0.8686 0.8699 0.8729
663.418765 0.8755 0.8773 0.8799 0.8796 0.8796
668.441219 0.8801 0.8800 0.8798 0.8793 0.8788
673.463673 0.8784 0.8779 0.8772 0.8760 0.8746
678.486127 0.8728 0.8705 0.8681 0.8653 0.8614
683.508581 0.8584 0.8571 0.8566 0.8580 0.8605
688.531034 0.8626 0.8631 0.8626 0.8619 0.8607
693.553488 0.8587 0.8564 0.8538 0.8501 0.8453
698.575942 0.8398 0.8338 0.8262 0.8173 0.8090
703.598396 0.8008 0.7923 0.7840 0.7761 0.7563
708.620850 0.7113 0.6466 0.6137 0.6134 0.6374
713.643304 0.6821 0.7028 0.6459 0.5520 0.4745
718.665758 0.3970 0.3195 0.2658 0.2517 0.3085
723.688212 0.4102 0.4916 0.5731 0.6545 0.7360
728.710666 0.8174 0.8720 0.8870 0.8947 0.8988
733.733119 0.9003 0.9020 0.9027 0.9017 0.9017
738.755573 0.9015 0.9011 0.9004 0.8994 0.8983
743.778027 0.8965 0.8927 0.8866 0.8803 0.8747
748.800481 0.8717 0.8761 0.8889 0.8966 0.8995
753.822935 0.8988 0.8989 0.8990 0.8926 0.8907
758.845389 0.8884 0.8856 0.8818 0.8778 0.8746
763.867843 0.8713 0.8671 0.8603 0.8483 0.8339
768.890297 0.8196 0.8052 0.7908 0.7765 0.7622
773.912751 0.7478 0.7351 0.7309 0.7354 0.7684
778.935204 0.8384 0.8962 0.9000 0.9023 0.9030
783.957658 0.9050 0.9023 0.9016 0.9008 0.8991
788.980112 0.8968 0.8930 0.8892 0.8806 0.8619
794.002566 0.8431 0.8243 0.8055 0.7867 0.7679
799.025020 0.7497 0.7481 0.8701 0.9109 0.9135
804.047474 0.9143 0.9147 0.9151 0.9149 0.9146
809.069928 0.9143 0.9139 0.9131 0.9122 0.9115
814.092382 0.9111 0.9133 0.9098 0.9091 0.9083
819.114836 0.9076 0.9069 0.9062 0.9055 0.9048
824.137289 0.9041 0.9036 0.9032 0.9027 0.9022
829.159743 0.9038 0.9053 0.9070 0.9088 0.9101
834.182197 0.9105 0.9102 0.9098 0.9091 0.9083
839.204651 0.9071 0.9059 0.9045 0.9026 0.9007
844.227105 0.8978 0.8948 0.8909 0.8870 0.8825
849.249559 0.8775 0.8725 0.8674 0.8619 0.8569
854.272013 0.8525 0.8446 0.8269 0.8091 0.7914
859.294467 0.7737 0.7560 0.7312 0.7301 0.7307
864.316921 0.7619 0.7944 0.8270 0.8595 0.8807
869.339374 0.8825 0.8839 0.8849 0.8855 0.8859
874.361828 0.8860 0.8858 0.8855 0.8850 0.8844
879.384282 0.8838 0.8829 0.8814 0.8800 0.8784
884.406736 0.8762 0.8753 0.8745 0.8762 0.8803
889.429190 0.8830 0.8847 0.8857 0.8866 0.8870
894.451644 0.8872 0.8870 0.8868 0.8864 0.8881
899.474098 0.8857 0.8853 0.8848 0.8844 0.8837
904.496552 0.8830 0.8822 0.8813 0.8797 0.8777
909.519006 0.8756 0.8735 0.8708 0.8680 0.8653
914.541460 0.8624 0.8590 0.8545 0.8474 0.8366
919.563913 0.8227 0.8087 0.7947 0.7807 0.7667
924.586367 0.7527 0.7387 0.7247 0.7069 0.7077
929.608821 0.7224 0.7463 0.7703 0.7943 0.8184
934.631275 0.8345 0.8350 0.8323 0.8251 0.8178
939.653729 0.8105 0.8057 0.8107 0.8199 0.8291
944.676183 0.8383 0.8475 0.8533 0.8551 0.8575
949.698637 0.8538 0.8527 0.8508 0.8482 0.8453
954.721091 0.8394 0.8340 0.8300 0.8261 0.8221
959.743545 0.8176 0.8130 0.8100 0.8085 0.8076
964.765998 0.8044 0.7988 0.7929 0.7905 0.7923
969.788452 0.8013 0.8105 0.8197 0.8289 0.8370
974.810906 0.8397 0.8412 0.8416 0.8393 0.8412
979.833360 0.8408 0.8403 0.8399 0.8385 0.8365
984.855814 0.8331 0.8299 0.8272 0.8249 0.8234
989.878268 0.8225 0.8219 0.8213 0.8208 0.8203
994.900722 0.8195 0.8187 0.8167 0.8123 0.8076
999.923176 0.8019 0.7957 0.7897 0.7850 0.7829
1004.945630 0.7819 0.7810 0.7738 0.7619 0.7523
1009.968083 0.7436 0.7352 0.7277 0.7251 0.7241
1014.990537 0.7238 0.7280 0.7346 0.7416 0.7486
1020.012991 0.7555 0.7616 0.7626 0.7620 0.7613
1025.035445 0.7568 0.7501 0.7429 0.7359 0.7288
1030.057899 0.7217 0.7146 0.7075 0.7007 0.6950
1035.080353 0.6922 0.6908 0.6894 0.6803 0.6594
1040.102807 0.6306 0.6068 0.5917 0.5749 0.5317
1045.125261 0.4673 0.4028 0.3609 0.3506 0.3501
1050.147715 0.3663 0.4016 0.4378 0.4741 0.5103
1055.170168 0.5465 0.5828 0.6191 0.6553 0.6915
1060.192622 0.7259 0.7464 0.7460 0.7440 0.7399
1065.215076 0.7358 0.7316 0.7274 0.7236 0.7217
1070.237530 0.7257 0.7381 0.7506 0.7631 0.7756
1075.259984 0.7881 0.7988 0.8008 0.8002 0.7967
1080.282438 0.7921 0.7875 0.7829 0.7783 0.7736
1085.304892 0.7691 0.7649 0.7665 0.7838 0.8039
1090.327346 0.8233 0.8269 0.8282 0.8302 0.8274
1095.349800 0.8268 0.8262 0.8253 0.8244 0.8237
1100.372253 0.8232 0.8228 0.8224 0.8219 0.8215
1105.394707 0.8211 0.8206 0.8201 0.8192 0.8182
1110.417161 0.8171 0.8144 0.8107 0.8079 0.8050
1115.439615 0.8016 0.7963 0.7851 0.7721 0.7592
1120.462069 0.7464 0.7335 0.7215 0.7134 0.7132
1125.484523 0.7146 0.7290 0.7527 0.7778 0.8050
1130.506977 0.8203 0.8256 0.8284 0.8293 0.8293
1135.529431 0.8282 0.8276 0.8271 0.8261 0.8252
1140.551885 0.8242 0.8232 0.8218 0.8199 0.8175
1145.574338 0.8141 0.8087 0.8011 0.7934 0.7867
1150.596792 0.7838 0.7861 0.7918 0.7966 0.7975
1155.619246 0.7965 0.7941 0.7887 0.7807 0.7721
1160.641700 0.7622 0.7546 0.7485 0.7421 0.7345
1165.664154 0.7254 0.7141 0.7023 0.6906 0.6812
1170.686608 0.6805 0.6812 0.6889 0.7183 0.7352
1175.709062 0.7489 0.7482 0.7407 0.7272 0.7137
1180.731516 0.7016 0.7031 0.7258 0.7552 0.7846
1185.753970 0.8122 0.8180 0.8219 0.8252 0.8285
1190.776423 0.8323 0.8360 0.8390 0.8420 0.8444
1195.798877 0.8456 0.8468 0.8474 0.8477 0.8481
1200.821331 0.8483 0.8485 0.8486 0.8486 0.8486
1205.843785 0.8486 0.8486 0.8486 0.8487 0.8487
1210.866239 0.8500 0.8489 0.8484 0.8483 0.8482
1215.888693 0.8481 0.8480 0.8479 0.8474 0.8451
1220.911147 0.8423 0.8390 0.8357 0.8326 0.8295
1225.933601 0.8258 0.8219 0.8176 0.8127 0.8076
1230.956055 0.8017 0.7916 0.7786 0.7654 0.7522
1235.978508 0.7415 0.7378 0.7484 0.7671 0.7842
1241.000962 0.8014 0.8104 0.8105 0.8099 0.8109
1246.023416 0.8095 0.8028 0.7958 0.7869 0.7797
1251.045870 0.7654 0.7347 0.7086 0.7017 0.7014
1256.068324 0.7086 0.7297 0.7522 0.7748 0.7973
1261.090778 0.8143 0.8160 0.8154 0.8148 0.8140
1266.113232 0.8127 0.8104 0.8083 0.8062 0.8036
1271.135686 0.7980 0.7898 0.7815 0.7718 0.7620
1276.158140 0.7572 0.7565 0.7566 0.7606 0.7696
1281.180593 0.7786 0.7870 0.7847 0.7697 0.7548
1286.203047 0.7398 0.7248 0.7177 0.7172 0.7170
1291.225501 0.7269 0.7396 0.7526 0.7655 0.7669
1296.247955 0.7636 0.7545 0.7450 0.7355 0.7313
1301.270409 0.7333 0.7390 0.7450 0.7498 0.7504
1306.292863 0.7449 0.7361 0.7268 0.7175 0.7082
1311.315317 0.6989 0.6896 0.6803 0.6710 0.6636
1316.337771 0.6620 0.6623 0.6688 0.6814 0.6981
1321.360225 0.7036 0.7034 0.6980 0.6834 0.6720
1326.382678 0.6678 0.6623 0.6462 0.6241 0.6127
1331.405132 0.6119 0.6200 0.6340 0.6479 0.6619
1336.427586 0.6759 0.6898 0.7038 0.7179 0.7273
1341.450040 0.7305 0.7335 0.7356 0.7362 0.7363
1346.472494 0.7360 0.7350 0.7332 0.7288 0.7212
1351.494948 0.7135 0.7060 0.6984 0.6908 0.6832
1356.517402 0.6755 0.6669 0.6566 0.6470 0.6327
1361.539856 0.6153 0.5969 0.5788 0.5574 0.5283
1366.562310 0.4991 0.4700 0.4408 0.4147 0.4062
1371.584763 0.4075 0.4122 0.4665 0.4940 0.5214
1376.607217 0.5488 0.5762 0.6039 0.6344 0.6335
1381.629671 0.6330 0.6322 0.6287 0.6018 0.5713
1386.652125 0.5407 0.5102 0.4797 0.4491 0.4186
1391.674579 0.3880 0.3575 0.3270 0.2963 0.2918
1396.697033 0.2913 0.2930 0.2916 0.3067 0.3166
1401.719487 0.3250 0.3334 0.3418 0.3541 0.3668
1406.741941 0.3874 0.4136 0.4407 0.4677 0.4947
1411.764395 0.5217 0.5486 0.5756 0.6025 0.6295
1416.786848 0.6565 0.6835 0.7104 0.7374 0.7498
1421.809302 0.7499 0.7496 0.7483 0.7302 0.6977
1426.831756 0.6651 0.6326 0.6000 0.5675 0.5349
1431.854210 0.5024 0.4698 0.4378 0.4184 0.4210
1436.876664 0.4388 0.4786 0.5183 0.5581 0.5978
1441.899118 0.6317 0.6444 0.6413 0.6289 0.6164
1446.921572 0.6040 0.5936 0.5938 0.5966 0.6105
1451.944026 0.6243 0.6379 0.6471 0.6465 0.6297
1456.966480 0.6066 0.5834 0.5603 0.5372 0.5140
1461.988933 0.4950 0.5532 0.4996 0.7092 0.7303
1467.011387 0.7233 0.7156 0.7079 0.7002 0.6988
1472.033841 0.8253 0.8663 0.8770 0.8841 0.8891
1477.056295 0.8929 0.8945 0.8956 0.8960 0.8948
1482.078749 0.8954 0.8961 0.8960 0.8958 0.8957
1487.101203 0.8955 0.8954 0.8952 0.8950 0.8948
1492.123657 0.8946 0.8943 0.8941 0.8939 0.8936
1497.146111 0.8933 0.8930 0.8926 0.8923 0.8920
1502.168565 0.8916 0.8913 0.8909 0.8905 0.8901
1507.191018 0.8897 0.8893 0.8889 0.8885 0.8881
1512.213472 0.8877 0.8873 0.8869 0.8862 0.8856
1517.235926 0.8850 0.8844 0.8838 0.8831 0.8817
1522.258380 0.8799 0.8782 0.8763 0.8742 0.8721
1527.280834 0.8700 0.8682 0.8668 0.8654 0.8640
1532.303288 0.8627 0.8621 0.8616 0.8612 0.8608
1537.325742 0.8603 0.8600 0.8597 0.8594 0.8591
1542.348196 0.8588 0.8585 0.8582 0.8579 0.8576
1547.370650 0.8574 0.8571 0.8569 0.8567 0.8564
1552.393103 0.8562 0.8559 0.8555 0.8552 0.8548
1557.415557 0.8544 0.8541 0.8537 0.8528 0.8509
1562.438011 0.8486 0.8462 0.8437 0.8411 0.8383
1567.460465 0.8353 0.8321 0.8286 0.8249 0.8212
1572.482919 0.8174 0.8135 0.8093 0.8042 0.7973
1577.505373 0.7879 0.7778 0.7673 0.7573 0.7479
1582.527827 0.7406 0.7383 0.7366 0.7363 0.7394
1587.550281 0.7493 0.7592 0.7693 0.7792 0.7892
1592.572735 0.7991 0.7996 0.7990 0.7954 0.7894
1597.595188 0.7833 0.7772 0.7712 0.7651 0.7611
1602.617642 0.7561 0.7524 0.7512 0.7512 0.7514
1607.640096 0.7515 0.7539 0.7574 0.7611 0.7649
1612.662550 0.7684 0.7719 0.7757 0.7777 0.7787
1617.685004 0.7797 0.7806 0.7812 0.7817 0.7820
1622.707458 0.7822 0.7822 0.7820 0.7818 0.7816
1627.729912 0.7815 0.7813 0.7809 0.7801 0.7793
1632.752366 0.7782 0.7764 0.7743 0.7720 0.7696
1637.774820 0.7671 0.7646 0.7622 0.7598 0.7575
1642.797273 0.7551 0.7526 0.7498 0.7469 0.7439
1647.819727 0.7410 0.7380 0.7350 0.7313 0.7275
1652.842181 0.7238 0.7200 0.7163 0.7125 0.7087
1657.864635 0.7050 0.7012 0.6957 0.6898 0.6838
1662.887089 0.6755 0.6663 0.6571 0.6470 0.6360
1667.909543 0.6249 0.6156 0.6081 0.6008 0.5935
1672.931997 0.5861 0.5781 0.5698 0.5632 0.5574
1677.954451 0.5518 0.5467 0.5420 0.5373 0.5326
1682.976905 0.5268 0.5194 0.5077 0.4911 0.4709
1687.999358 0.4347 0.4035 0.3837 0.3590 0.3339
1693.021812 0.3088 0.2836 0.2585 0.2334 0.2083
1698.044266 0.1832 0.1580 0.1280 0.0965 0.0827
1703.066720 0.0754 0.0687 0.0634 0.0610 0.0615
1708.089174 0.0594 0.0600 0.0614 0.0731 0.1165
1713.111628 0.1523 0.1883 0.2243 0.2608 0.2972
1718.134082 0.3452 0.4643 0.4868 0.5061 0.5232
1723.156536 0.5404 0.5578 0.5745 0.5859 0.5975
1728.178990 0.6110 0.6268 0.6432 0.6640 0.6855
1733.201443 0.7073 0.7241 0.7414 0.7696 0.7835
1738.223897 0.7898 0.7923 0.7949 0.7974 0.7990
1743.246351 0.7999 0.8008 0.8012 0.8012 0.8013
1748.268805 0.8014 0.8029 0.8001 0.7994 0.7982
1753.291259 0.7969 0.7956 0.7942 0.7928 0.7908
1758.313713 0.7823 0.7272 0.6689 0.6107 0.5524
1763.336167 0.4942 0.4360 0.3837 0.3772 0.3760
1768.358621 0.3761 0.3819 0.4382 0.5168 0.5954
1773.381075 0.6739 0.7496 0.7986 0.8125 0.8219
1778.403528 0.8330 0.8471 0.8611 0.8762 0.8851
1783.425982 0.8867 0.8881 0.8894 0.8908 0.8921
1788.448436 0.8935 0.8948 0.8961 0.8972 0.8983
1793.470890 0.8995 0.9008 0.9022 0.9035 0.9049
1798.493344 0.9063 0.9077 0.9091 0.9105 0.9119
1803.515798 0.9133 0.9148 0.9162 0.9175 0.9187
1808.538252 0.9201 0.9213 0.9226 0.9240 0.9255
1813.560706 0.9271 0.9286 0.9307 0.9358 0.9320
1818.583160 0.9327 0.9326 0.9322 0.9316 0.9308
1823.605613 0.9301 0.9293 0.9285 0.9279 0.9274
1828.628067 0.9269 0.9263 0.9258 0.9252 0.9245
1833.650521 0.9236 0.9228 0.9219 0.9211 0.9202
1838.672975 0.9195 0.9188 0.9183 0.9182 0.9181
1843.695429 0.9181 0.9187 0.9195 0.9204 0.9215
1848.717883 0.9229 0.9242 0.9254 0.9266 0.9277
1853.740337 0.9288 0.9299 0.9310 0.9321 0.9333
1858.762791 0.9347 0.9360 0.9374 0.9387 0.9400
1863.785245 0.9405 0.9410 0.9415 0.9420 0.9424
1868.807698 0.9428 0.9431 0.9431 0.9431 0.9432
1873.830152 0.9432 0.9431 0.9430 0.9429 0.9427
1878.852606 0.9426 0.9425 0.9424 0.9422 0.9419
1883.875060 0.9416 0.9412 0.9408 0.9404 0.9400
1888.897514 0.9396 0.9392 0.9388 0.9385 0.9380
1893.919968 0.9374 0.9369 0.9363 0.9357 0.9352
1898.942422 0.9346 0.9341 0.9337 0.9334 0.9331
1903.964876 0.9328 0.9325 0.9321 0.9318 0.9316
1908.987330 0.9314 0.9312 0.9311 0.9309 0.9307
1914.009783 0.9306 0.9304 0.9302 0.9303 0.9304
1919.032237 0.9305 0.9306 0.9308 0.9309 0.9310
1924.054691 0.9311 0.9312 0.9314 0.9315 0.9317
1929.077145 0.9321 0.9325 0.9328 0.9332 0.9333
1934.099599 0.9335 0.9336 0.9337 0.9338 0.9340
1939.122053 0.9341 0.9338 0.9336 0.9333 0.9331
1944.144507 0.9328 0.9325 0.9321 0.9316 0.9312
1949.166961 0.9307 0.9303 0.9298 0.9294 0.9289
1954.189415 0.9285 0.9281 0.9276 0.9272 0.9268
1959.211868 0.9263 0.9259 0.9255 0.9253 0.9251
1964.234322 0.9249 0.9248 0.9246 0.9244 0.9243
1969.256776 0.9241 0.9246 0.9254 0.9261 0.9269
1974.279230 0.9277 0.9285 0.9293 0.9298 0.9302
1979.301684 0.9306 0.9310 0.9314 0.9317 0.9316
1984.324138 0.9316 0.9315 0.9314 0.9312 0.9306
1989.346592 0.9300 0.9295 0.9294 0.9293 0.9292
1994.369046 0.9294 0.9296 0.9299 0.9300 0.9300
1999.391500 0.9299 0.9290 0.9276 0.9262 0.9247
2004.413953 0.9226 0.9206 0.9197 0.9194 0.9191
2009.436407 0.9188 0.9185 0.9189 0.9196 0.9205
2014.458861 0.9212 0.9218 0.9224 0.9230 0.9235
2019.481315 0.9240 0.9245 0.9249 0.9252 0.9254
2024.503769 0.9256 0.9258 0.9258 0.9258 0.9258
2029.526223 0.9259 0.9261 0.9262 0.9264 0.9265
2034.548677 0.9267 0.9268 0.9270 0.9271 0.9272
2039.571131 0.9271 0.9271 0.9271 0.9270 0.9270
2044.593585 0.9270 0.9270 0.9269 0.9268 0.9267
2049.616038 0.9265 0.9264 0.9263 0.9261 0.9260
2054.638492 0.9259 0.9257 0.9256 0.9254 0.9252
2059.660946 0.9250 0.9248 0.9246 0.9243 0.9241
2064.683400 0.9239 0.9237 0.9235 0.9233 0.9230
2069.705854 0.9228 0.9226 0.9225 0.9223 0.9222
2074.728308 0.9220 0.9219 0.9218 0.9216 0.9215
2079.750762 0.9213 0.9212 0.9210 0.9209 0.9208
2084.773216 0.9206 0.9205 0.9203 0.9202 0.9200
2089.795670 0.9199 0.9198 0.9196 0.9195 0.9194
2094.818123 0.9193 0.9191 0.9190 0.9189 0.9188
2099.840577 0.9186 0.9185 0.9184 0.9183 0.9181
2104.863031 0.9180 0.9179 0.9178 0.9176 0.9175
2109.885485 0.9174 0.9172 0.9171 0.9170 0.9169
2114.907939 0.9167 0.9166 0.9165 0.9164 0.9162
2119.930393 0.9159 0.9157 0.9155 0.9153 0.9151
2124.952847 0.9149 0.9147 0.9144 0.9142 0.9140
2129.975301 0.9138 0.9136 0.9134 0.9132 0.9130
2134.997755 0.9127 0.9125 0.9123 0.9121 0.9119
2140.020209 0.9118 0.9117 0.9116 0.9115 0.9114
2145.042662 0.9112 0.9111 0.9110 0.9109 0.9108
2150.065116 0.9107 0.9106 0.9104 0.9103 0.9102
2155.087570 0.9101 0.9100 0.9099 0.9098 0.9096
2160.110024 0.9095 0.9094 0.9093 0.9092 0.9091
2165.132478 0.9090 0.9088 0.9087 0.9086 0.9085
2170.154932 0.9084 0.9083 0.9081 0.9080 0.9079
2175.177386 0.9078 0.9077 0.9076 0.9075 0.9073
2180.199840 0.9072 0.9071 0.9070 0.9069 0.9068
2185.222294 0.9066 0.9065 0.9064 0.9063 0.9062
2190.244747 0.9061 0.9060 0.9058 0.9057 0.9056
2195.267201 0.9055 0.9054 0.9053 0.9051 0.9050
2200.289655 0.9049 0.9047 0.9046 0.9045 0.9043
2205.312109 0.9042 0.9041 0.9040 0.9038 0.9037
2210.334563 0.9036 0.9034 0.9033 0.9032 0.9030
2215.357017 0.9029 0.9028 0.9026 0.9025 0.9024
2220.379471 0.9023 0.9021 0.9020 0.9019 0.9017
2225.401925 0.9016 0.9015 0.9013 0.9012 0.9011
2230.424379 0.9009 0.9007 0.9005 0.9003 0.9001
2235.446832 0.8999 0.8997 0.8995 0.8993 0.8991
2240.469286 0.8990 0.8988 0.8986 0.8984 0.8982
2245.491740 0.8980 0.8978 0.8976 0.8974 0.8972
2250.514194 0.8970 0.8968 0.8966 0.8964 0.8962
2255.536648 0.8960 0.8958 0.8956 0.8954 0.8952
2260.559102 0.8951 0.8948 0.8946 0.8943 0.8940
2265.581556 0.8938 0.8935 0.8932 0.8930 0.8927
2270.604010 0.8925 0.8922 0.8919 0.8917 0.8914
2275.626464 0.8911 0.8909 0.8906 0.8903 0.8901
2280.648917 0.8898 0.8895 0.8893 0.8890 0.8887
2285.671371 0.8885 0.8882 0.8879 0.8875 0.8871
2290.693825 0.8866 0.8861 0.8857 0.8852 0.8848
2295.716279 0.8843 0.8839 0.8834 0.8830 0.8825
2300.738733 0.8821 0.8816 0.8811 0.8803 0.8795
2305.761187 0.8787 0.8779 0.8771 0.8763 0.8755
2310.783641 0.8747 0.8739 0.8731 0.8723 0.8715
2315.806095 0.8707 0.8699 0.8689 0.8679 0.8669
2320.828549 0.8658 0.8648 0.8638 0.8628 0.8618
2325.851002 0.8608 0.8598 0.8588 0.8578 0.8567
2330.873456 0.8557 0.8547 0.8537 0.8527 0.8517
2335.895910 0.8508 0.8503 0.8497 0.8492 0.8486
2340.918364 0.8481 0.8477 0.8474 0.8471 0.8467
2345.940818 0.8464 0.8461 0.8457 0.8460 0.8462
2350.963272 0.8464 0.8467 0.8469 0.8471 0.8473
2355.985726 0.8476 0.8478 0.8482 0.8486 0.8491
2361.008180 0.8496 0.8500 0.8505 0.8510 0.8511
2366.030634 0.8512 0.8512 0.8512 0.8512 0.8512
2371.053087 0.8512 0.8514 0.8526 0.8510 0.8508
2376.075541 0.8506 0.8501 0.8495 0.8488 0.8482
2381.097995 0.8475 0.8467 0.8460 0.8453 0.8445
2386.120449 0.8437 0.8428 0.8419 0.8409 0.8393
2391.142903 0.8377 0.8361 0.8344 0.8323 0.8294
2396.165357 0.8264 0.8231 0.8194 0.8156 0.8119
2401.187811 0.8082 0.8044 0.8007 0.7967 0.7927
2406.210265 0.7886 0.7846 0.7805 0.7764 0.7723
2411.232719 0.7681 0.7640 0.7599 0.7563 0.7538
2416.255172 0.7531 0.7504 0.7549 0.7574 0.7605
2421.277626 0.7640 0.7674 0.7703 0.7713 0.7717
2426.300080 0.7715 0.7712 0.7732 0.7679 0.7655
2431.322534 0.7633 0.7607 0.7576 0.7543 0.7502
2436.344988 0.7457 0.7394 0.7320 0.7245 0.7195
2441.367442 0.7179 0.7193 0.7210 0.7232 0.7282
2446.389896 0.7411 0.7507 0.7623 0.7742 0.7861
2451.412350 0.7980 0.8096 0.8185 0.8250 0.8292
2456.434804 0.8316 0.8340 0.8358 0.8374 0.8391
2461.457257 0.8399 0.8406 0.8414 0.8420 0.8424
2466.479711 0.8427 0.8429 0.8432 0.8433 0.8427
2471.502165 0.8426 0.8420 0.8413 0.8405 0.8395
2476.524619 0.8385 0.8376 0.8367 0.8358 0.8349
2481.547073 0.8340 0.8334 0.8331 0.8328 0.8325
2486.569527 0.8322 0.8318 0.8315 0.8312 0.8307
2491.591981 0.8302 0.8297 0.8291 0.8276 0.8252
2496.614435 0.8229 0.8210 0.8191 0.8174 0.8165
2501.636889 0.8157 0.8148 0.8139 0.8130 0.8118
2506.659342 0.8084 0.8038 0.7998 0.7968 0.7949
2511.681796 0.7942 0.7935 0.7929 0.7923 0.7917
2516.704250 0.7918 0.7919 0.7920 0.7922 0.7925
2521.726704 0.7929 0.7932 0.7936 0.7940 0.7943
2526.749158 0.7950 0.7962 0.7974 0.7981 0.7985
2531.771612 0.7990 0.7995 0.7993 0.7992 0.7987
2536.794066 0.7978 0.7968 0.7958 0.7940 0.7919
2541.816520 0.7897 0.7872 0.7853 0.7839 0.7826
2546.838974 0.7824 0.7824 0.7825 0.7831 0.7838
2551.861427 0.7845 0.7854 0.7863 0.7877 0.7891
2556.883881 0.7905 0.7919 0.7930 0.7939 0.7949
2561.906335 0.7959 0.7968 0.7974 0.7975 0.7968
2566.928789 0.7960 0.7948 0.7924 0.7906 0.7887
2571.951243 0.7864 0.7839 0.7814 0.7778 0.7764
2576.973697 0.7756 0.7749 0.7742 0.7735 0.7728
2581.996151 0.7722 0.7715 0.7708 0.7702 0.7698
2587.018605 0.7694 0.7691 0.7687 0.7683 0.7681
2592.041059 0.7679 0.7676 0.7674 0.7672 0.7669
2597.063512 0.7666 0.7664 0.7661 0.7657 0.7651
2602.085966 0.7646 0.7640 0.7634 0.7623 0.7592
2607.108420 0.7577 0.7564 0.7550 0.7536 0.7523
2612.130874 0.7515 0.7506 0.7499 0.7494 0.7490
2617.153328 0.7485 0.7481 0.7476 0.7472 0.7469
2622.175782 0.7467 0.7464 0.7462 0.7459 0.7457
2627.198236 0.7456 0.7456 0.7455 0.7454 0.7452
2632.220690 0.7449 0.7445 0.7430 0.7415 0.7400
2637.243144 0.7386 0.7371 0.7356 0.7340 0.7320
2642.265597 0.7300 0.7280 0.7260 0.7240 0.7221
2647.288051 0.7202 0.7182 0.7163 0.7144 0.7125
2652.310505 0.7105 0.7083 0.7062 0.7040 0.7019
2657.332959 0.6997 0.6975 0.6948 0.6917 0.6886
2662.355413 0.6855 0.6824 0.6793 0.6763 0.6732
2667.377867 0.6701 0.6671 0.6640 0.6609 0.6578
2672.400321 0.6528 0.6473 0.6420 0.6382 0.6348
2677.422775 0.6313 0.6279 0.6245 0.6211 0.6188
2682.445229 0.6166 0.6150 0.6142 0.6135 0.6128
2687.467682 0.6121 0.6114 0.6108 0.6103 0.6099
2692.490136 0.6095 0.6091 0.6073 0.6053 0.6031
2697.512590 0.5998 0.5966 0.5933 0.5900 0.5867
2702.535044 0.5834 0.5803 0.5774 0.5747 0.5733
2707.557498 0.5722 0.5712 0.5713 0.5729 0.5748
2712.579952 0.5771 0.5798 0.5817 0.5832 0.5839
2717.602406 0.5838 0.5835 0.5826 0.5804 0.5766
2722.624860 0.5716 0.5662 0.5593 0.5539 0.5491
2727.647314 0.5445 0.5406 0.5367 0.5328 0.5286
2732.669767 0.5245 0.5202 0.5159 0.5120 0.5092
2737.692221 0.5064 0.5037 0.5009 0.4983 0.4959
2742.714675 0.4936 0.4912 0.4889 0.4866 0.4847
2747.737129 0.4828 0.4808 0.4790 0.4772 0.4755
2752.759583 0.4737 0.4719 0.4702 0.4684 0.4662
2757.782037 0.4620 0.4577 0.4527 0.4473 0.4415
2762.804491 0.4357 0.4292 0.4228 0.4159 0.4087
2767.826945 0.4014 0.3916 0.3778 0.3700 0.3639
2772.849399 0.3578 0.3511 0.3443 0.3383 0.3330
2777.871852 0.3284 0.3250 0.3236 0.3230 0.3227
2782.894306 0.3196 0.3242 0.3256 0.3274 0.3314
2787.916760 0.3354 0.3442 0.3578 0.3714 0.3838
2792.939214 0.3876 0.3882 0.3886 0.3885 0.3884
2797.961668 0.3883 0.3885 0.3921 0.3975 0.4048
2802.984122 0.4133 0.4200 0.4266 0.4332 0.4396
2808.006576 0.4455 0.4507 0.4552 0.4597 0.4656
2813.029030 0.4725 0.4816 0.4912 0.5010 0.5119
2818.051484 0.5262 0.5359 0.5466 0.5602 0.5678
2823.073937 0.5730 0.5764 0.5797 0.5832 0.5836
2828.096391 0.5839 0.5838 0.5837 0.5834 0.5829
2833.118845 0.5825 0.5825 0.5826 0.5833 0.5842
2838.141299 0.5855 0.5890 0.5924 0.5941 0.5953
2843.163753 0.5940 0.5930 0.5920 0.5910 0.5891
2848.186207 0.5869 0.5843 0.5818 0.5795 0.5772
2853.208661 0.5749 0.5728 0.5707 0.5689 0.5674
2858.231115 0.5686 0.5686 0.5689 0.5692 0.5698
2863.253569 0.5705 0.5714 0.5723 0.5735 0.5754
2868.276022 0.5775 0.5796 0.5819 0.5843 0.5868
2873.298476 0.5899 0.5938 0.5975 0.6008 0.6039
2878.320930 0.6067 0.6088 0.6102 0.6120 0.6137
2883.343384 0.6101 0.6098 0.6089 0.6071 0.6034
2888.365838 0.5982 0.5930 0.5879 0.5827 0.5775
2893.388292 0.5723 0.5672 0.5620 0.5568 0.5516
2898.410746 0.5465 0.5413 0.5361 0.5309 0.5258
2903.433200 0.5206 0.5154 0.5102 0.5051 0.4999
2908.455654 0.4947 0.4895 0.4842 0.4799 0.4772
2913.478107 0.4749 0.4726 0.4706 0.4689 0.4674
2918.500561 0.4664 0.4655 0.4646 0.4637 0.4621
2923.523015 0.4594 0.4556 0.4511 0.4463 0.4409
2928.545469 0.4346 0.4287 0.4235 0.4177 0.4111
2933.567923 0.4042 0.3972 0.3902 0.3833 0.3773
2938.590377 0.3716 0.3659 0.3599 0.3549 0.3506
2943.612831 0.3521 0.3534 0.3544 0.3564 0.3595
2948.635285 0.3633 0.3679 0.3724 0.3765 0.3805
2953.657739 0.3851 0.3898 0.3947 0.4012 0.4077
2958.680192 0.4132 0.4187 0.4241 0.4295 0.4347
2963.702646 0.4399 0.4452 0.4507 0.4565 0.4623
2968.725100 0.4682 0.4785 0.4911 0.5009 0.5104
2973.747554 0.5158 0.5210 0.5261 0.5305 0.5365
2978.770008 0.5552 0.5738 0.5852 0.5981 0.6038
2983.792462 0.6091 0.6132 0.6173 0.6210 0.6242
2988.814916 0.6271 0.6289 0.6306 0.6322 0.6334
2993.837370 0.6343 0.6351 0.6359 0.6363 0.6363
2998.859824 0.6363 0.6368 0.6383 0.6401 0.6431
3003.882277 0.6474 0.6532 0.6602 0.6681 0.6766
3008.904731 0.6886 0.7009 0.7083 0.7142 0.7192
3013.927185 0.7240 0.7280 0.7313 0.7346 0.7379
3018.949639 0.7411 0.7442 0.7474 0.7505 0.7536
3023.972093 0.7565 0.7592 0.7620 0.7649 0.7677
3028.994547 0.7707 0.7737 0.7767 0.7798 0.7828
3034.017001 0.7856 0.7882 0.7908 0.7933 0.7959
3039.039455 0.7985 0.8009 0.8025 0.8039 0.8053
3044.061909 0.8067 0.8082 0.8096 0.8110 0.8124
3049.084362 0.8137 0.8149 0.8162 0.8175 0.8187
3054.106816 0.8199 0.8211 0.8223 0.8235 0.8247
3059.129270 0.8263 0.8278 0.8293 0.8309 0.8324
3064.151724 0.8339 0.8355 0.8371 0.8385 0.8400
3069.174178 0.8415 0.8430 0.8445 0.8461 0.8475
3074.196632 0.8485 0.8493 0.8501 0.8508 0.8516
3079.219086 0.8523 0.8531 0.8537 0.8541 0.8546
3084.241540 0.8551 0.8556 0.8561 0.8566 0.8570
3089.263994 0.8575 0.8580 0.8586 0.8591 0.8595
3094.286447 0.8600 0.8606 0.8615 0.8625 0.8635
3099.308901 0.8646 0.8657 0.8669 0.8680 0.8690
3104.331355 0.8694 0.8695 0.8695 0.8696 0.8697
3109.353809 0.8698 0.8699 0.8700 0.8702 0.8703
3114.376263 0.8704 0.8705 0.8707 0.8708 0.8709
3119.398717 0.8710 0.8712 0.8713 0.8743 0.8731
3124.421171 0.8716 0.8717 0.8718 0.8719 0.8720
3129.443625 0.8721 0.8722 0.8721 0.8721 0.8720
3134.466079 0.8720 0.8719 0.8716 0.8710 0.8704
3139.488532 0.8697 0.8691 0.8679 0.8664 0.8649
3144.510986 0.8631 0.8612 0.8596 0.8589 0.8582
3149.533440 0.8576 0.8571 0.8567 0.8562 0.8557
3154.555894 0.8553 0.8554 0.8554 0.8554 0.8554
3159.578348 0.8554 0.8554 0.8555 0.8555 0.8558
3164.600802 0.8563 0.8569 0.8574 0.8580 0.8585
3169.623256 0.8591 0.8597 0.8603 0.8609 0.8615
3174.645710 0.8620 0.8620 0.8620 0.8620 0.8620
3179.668164 0.8621 0.8621 0.8619 0.8616 0.8614
3184.690617 0.8611 0.8608 0.8606 0.8603 0.8601
3189.713071 0.8599 0.8597 0.8595 0.8593 0.8589
3194.735525 0.8586 0.8582 0.8579 0.8576 0.8572
3199.757979 0.8569 0.8565 0.8562 0.8558 0.8554
3204.780433 0.8550 0.8546 0.8542 0.8538 0.8534
3209.802887 0.8530 0.8526 0.8522 0.8518 0.8515
3214.825341 0.8511 0.8507 0.8502 0.8498 0.8495
3219.847795 0.8492 0.8488 0.8485 0.8481 0.8478
3224.870249 0.8474 0.8471 0.8467 0.8464 0.8460
3229.892702 0.8457 0.8453 0.8450 0.8446 0.8443
3234.915156 0.8439 0.8436 0.8432 0.8428 0.8426
3239.937610 0.8423 0.8420 0.8418 0.8415 0.8412
3244.960064 0.8409 0.8407 0.8404 0.8401 0.8399
3249.982518 0.8396 0.8393 0.8390 0.8388 0.8385
3255.004972 0.8382 0.8379 0.8377 0.8374 0.8371
3260.027426 0.8369 0.8366 0.8363 0.8360 0.8356
3265.049880 0.8353 0.8350 0.8346 0.8343 0.8339
3270.072334 0.8336 0.8333 0.8329 0.8326 0.8323
3275.094787 0.8320 0.8316 0.8313 0.8310 0.8307
3280.117241 0.8303 0.8300 0.8297 0.8293 0.8290
3285.139695 0.8287 0.8284 0.8280 0.8276 0.8271
3290.162149 0.8267 0.8263 0.8259 0.8255 0.8251
3295.184603 0.8247 0.8243 0.8239 0.8235 0.8231
3300.207057 0.8227 0.8223 0.8219 0.8215 0.8210
3305.229511 0.8204 0.8196 0.8189 0.8182 0.8175
3310.251965 0.8168 0.8161 0.8153 0.8146 0.8138
3315.274419 0.8131 0.8124 0.8117 0.8110 0.8102
3320.296872 0.8095 0.8088 0.8081 0.8074 0.8065
3325.319326 0.8056 0.8046 0.8037 0.8027 0.8018
3330.341780 0.8008 0.7999 0.7989 0.7979 0.7969
3335.364234 0.7960 0.7950 0.7941 0.7931 0.7922
3340.386688 0.7912 0.7903 0.7893 0.7883 0.7873
3345.409142 0.7864 0.7854 0.7845 0.7835 0.7826
3350.431596 0.7816 0.7807 0.7797 0.7787 0.7778
3355.454050 0.7768 0.7759 0.7749 0.7740 0.7730
3360.476504 0.7721 0.7710 0.7699 0.7687 0.7676
3365.498957 0.7664 0.7653 0.7641 0.7629 0.7617
3370.521411 0.7606 0.7594 0.7583 0.7571 0.7560
3375.543865 0.7548 0.7537 0.7528 0.7519 0.7510
3380.566319 0.7500 0.7491 0.7482 0.7473 0.7463
3385.588773 0.7454 0.7445 0.7436 0.7426 0.7417
3390.611227 0.7408 0.7399 0.7390 0.7381 0.7372
3395.633681 0.7362 0.7353 0.7345 0.7337 0.7330
3400.656135 0.7322 0.7314 0.7306 0.7299 0.7291
3405.678589 0.7283 0.7276 0.7269 0.7265 0.7262
3410.701043 0.7260 0.7257 0.7255 0.7253 0.7250
3415.723496 0.7248 0.7245 0.7243 0.7240 0.7237
3420.745950 0.7235 0.7232 0.7230 0.7227 0.7225
3425.768404 0.7222 0.7219 0.7217 0.7214 0.7211
3430.790858 0.7208 0.7205 0.7202 0.7198 0.7195
3435.813312 0.7191 0.7184 0.7176 0.7169 0.7161
3440.835766 0.7154 0.7147 0.7138 0.7127 0.7116
3445.858220 0.7106 0.7095 0.7085 0.7075 0.7065
3450.880674 0.7058 0.7056 0.7055 0.7053 0.7049
3455.903128 0.7036 0.7060 0.7065 0.7070 0.7077
3460.925581 0.7094 0.7113 0.7133 0.7153 0.7173
3465.948035 0.7196 0.7218 0.7239 0.7259 0.7281
3470.970489 0.7305 0.7330 0.7350 0.7365 0.7378
3475.992943 0.7388 0.7393 0.7399 0.7405 0.7412
3481.015397 0.7418 0.7424 0.7430 0.7435 0.7440
3486.037851 0.7444 0.7449 0.7454 0.7458 0.7463
3491.060305 0.7468 0.7473 0.7478 0.7483 0.7488
3496.082759 0.7493 0.7498 0.7503 0.7508 0.7511
3501.105213 0.7514 0.7517 0.7519 0.7522 0.7524
3506.127666 0.7528 0.7534 0.7540 0.7547 0.7554
3511.150120 0.7561 0.7568 0.7574 0.7581 0.7588
3516.172574 0.7595 0.7604 0.7612 0.7620 0.7629
3521.195028 0.7639 0.7650 0.7660 0.7671 0.7681
3526.217482 0.7690 0.7699 0.7707 0.7713 0.7720
3531.239936 0.7727 0.7735 0.7746 0.7758 0.7770
3536.262390 0.7781 0.7795 0.7809 0.7823 0.7837
3541.284844 0.7849 0.7861 0.7873 0.7884 0.7895
3546.307298 0.7905 0.7913 0.7921 0.7929 0.7937
3551.329751 0.7946 0.7954 0.7962 0.7969 0.7976
3556.352205 0.7984 0.7991 0.7998 0.8006 0.8014
3561.374659 0.8021 0.8028 0.8036 0.8043 0.8050
3566.397113 0.8057 0.8065 0.8073 0.8081 0.8089
3571.419567 0.8098 0.8106 0.8114 0.8123 0.8131
3576.442021 0.8139 0.8148 0.8156 0.8163 0.8170
3581.464475 0.8178 0.8185 0.8192 0.8199 0.8207
3586.486929 0.8215 0.8222 0.8229 0.8236 0.8244
3591.509383 0.8252 0.8260 0.8268 0.8276 0.8284
3596.531836 0.8292 0.8300 0.8309 0.8317 0.8325
3601.554290 0.8333 0.8341 0.8350 0.8358 0.8366
3606.576744 0.8374 0.8382 0.8389 0.8397 0.8405
3611.599198 0.8413 0.8421 0.8429 0.8437 0.8445
3616.621652 0.8452 0.8459 0.8466 0.8473 0.8480
3621.644106 0.8487 0.8494 0.8501 0.8508 0.8515
3626.666560 0.8522 0.8528 0.8533 0.8539 0.8545
3631.689014 0.8551 0.8556 0.8562 0.8567 0.8568
3636.711468 0.8570 0.8572 0.8573 0.8575 0.8577
3641.733921 0.8578 0.8579 0.8577 0.8576 0.8574
3646.756375 0.8573 0.8572 0.8570 0.8569 0.8571
3651.778829 0.8573 0.8576 0.8579 0.8586 0.8592
3656.801283 0.8598 0.8605 0.8610 0.8613 0.8613
3661.823737 0.8612 0.8612 0.8612 0.8611 0.8610
3666.846191 0.8608 0.8607 0.8605 0.8602 0.8595
3671.868645 0.8587 0.8579 0.8571 0.8562 0.8552
3676.891099 0.8543 0.8543 0.8551 0.8560 0.8570
3681.913553 0.8579 0.8589 0.8596 0.8600 0.8603
3686.936006 0.8607 0.8610 0.8614 0.8617 0.8621
3691.958460 0.8624 0.8628 0.8631 0.8635 0.8638
3696.980914 0.8642 0.8647 0.8655 0.8663 0.8671
3702.003368 0.8687 0.8696 0.8701 0.8706 0.8706
3707.025822 0.8705 0.8703 0.8702 0.8700 0.8699
3712.048276 0.8699 0.8698 0.8697 0.8696 0.8695
3717.070730 0.8695 0.8697 0.8699 0.8701 0.8703
3722.093184 0.8705 0.8708 0.8710 0.8710 0.8707
3727.115638 0.8703 0.8700 0.8697 0.8693 0.8688
3732.138091 0.8683 0.8678 0.8673 0.8667 0.8661
3737.160545 0.8656 0.8650 0.8644 0.8640 0.8635
3742.182999 0.8631 0.8627 0.8623 0.8619 0.8615
3747.205453 0.8613 0.8614 0.8615 0.8616 0.8617
3752.227907 0.8620 0.8624 0.8629 0.8635 0.8641
3757.250361 0.8647 0.8655 0.8664 0.8674 0.8685
3762.272815 0.8696 0.8708 0.8719 0.8725 0.8731
3767.295269 0.8737 0.8744 0.8749 0.8752 0.8756
3772.317723 0.8759 0.8763 0.8766 0.8767 0.8767
3777.340176 0.8766 0.8766 0.8765 0.8765 0.8765
3782.362630 0.8764 0.8763 0.8761 0.8759 0.8757
3787.385084 0.8756 0.8739 0.8744 0.8750 0.8746
3792.407538 0.8742 0.8738 0.8734 0.8730 0.8726
3797.429992 0.8722 0.8718 0.8714 0.8710 0.8705
3802.452446 0.8701 0.8696 0.8692 0.8687 0.8683
3807.474900 0.8678 0.8674 0.8672 0.8670 0.8668
3812.497354 0.8666 0.8664 0.8664 0.8663 0.8663
3817.519808 0.8663 0.8662 0.8662 0.8661 0.8661
3822.542261 0.8660 0.8659 0.8659 0.8658 0.8657
3827.564715 0.8656 0.8655 0.8655 0.8654 0.8653
3832.587169 0.8652 0.8651 0.8650 0.8649 0.8648
3837.609623 0.8647 0.8646 0.8645 0.8645 0.8644
3842.632077 0.8644 0.8644 0.8644 0.8644 0.8643
3847.654531 0.8643 0.8643 0.8643 0.8645 0.8647
3852.676985 0.8649 0.8652 0.8654 0.8654 0.8649
3857.699439 0.8641 0.8634 0.8627 0.8620 0.8612
3862.721893 0.8604 0.8599 0.8597 0.8596 0.8600
3867.744346 0.8611 0.8624 0.8637 0.8648 0.8656
3872.766800 0.8661 0.8663 0.8663 0.8662 0.8661
3877.789254 0.8660 0.8659 0.8658 0.8657 0.8656
3882.811708 0.8655 0.8654 0.8652 0.8651 0.8650
3887.834162 0.8649 0.8648 0.8646 0.8644 0.8642
3892.856616 0.8640 0.8638 0.8636 0.8633 0.8631
3897.879070 0.8629 0.8627 0.8626 0.8625 0.8623
3902.901524 0.8622 0.8620 0.8619 0.8617 0.8616
3907.923978 0.8615 0.8615 0.8617 0.8619 0.8622
3912.946431 0.8624 0.8626 0.8628 0.8631 0.8635
3917.968885 0.8640 0.8645 0.8649 0.8654 0.8659
3922.991339 0.8663 0.8661 0.8660 0.8658 0.8656
3928.013793 0.8652 0.8648 0.8644 0.8640 0.8636
3933.036247 0.8633 0.8633 0.8632 0.8632 0.8631
3938.058701 0.8630 0.8630 0.8629 0.8628 0.8628
3943.081155 0.8628 0.8628 0.8628 0.8628 0.8628
3948.103609 0.8628 0.8629 0.8629 0.8629 0.8629
3953.126063 0.8629 0.8629 0.8629 0.8628 0.8628
3958.148516 0.8628 0.8628 0.8628 0.8628 0.8627
3963.170970 0.8627 0.8627 0.8626 0.8626 0.8625
3968.193424 0.8624 0.8624 0.8623 0.8623 0.8623
3973.215878 0.8622 0.8622 0.8621 0.8620 0.8620
3978.238332 0.8619 0.8618 0.8617 0.8617 0.8616
3983.260786 0.8615 0.8615 0.8614 0.8613 0.8612
3988.283240 0.8612 0.8612 0.8612 0.8612 0.8613
3993.305694 0.8613 0.8613 0.8613 0.8613 0.8613
3998.328148 0.8614 0.8614 0.8614 0.8614 0.8614
4003.350601 0.8614 0.8615 0.8615 0.8615 0.8615
4008.373055 0.8615 0.8615 0.8616 0.8616 0.8616
4013.395509 0.8616
##END=
