##TITLE=1,3-PROPANEDIOL, 2,2-DIMETHYL-, CYCLIC CHLOROMETHYL PHOSPHONATE
##JCAMP-DX=4.24
##DATA TYPE=INFRARED SPECTRUM
##CLASS=COBLENTZ
##ORIGIN=TENNESSEE EASTMAN COMPANY, RESEARCH LABORATORIES
##OWNER=COBLENTZ SOCIETY
Collection (C) 2018 copyright by the U.S. Secretary of Commerce
on behalf of the United States of America. All rights reserved.
##DATE=1960
##MOLFORM=C10 H19 N O2
##MP=115-116 C
##SOURCE REFERENCE=COBLENTZ NO. 931
##$NIST ID=B6000931
##$NIST SOURCE=COBLENTZ
##$NIST IMAGE=cob931
##SPECTROMETER/DATA SYSTEM=Not specified, most likely a prism, grating, or hybrid spectrometer.
##STATE=SOLID (KBr PELLET)
##PATH LENGTH=
$$SPECTRAL CONTAMINATION DUE H2O AROUND 3500 CM^-^1
##SAMPLING PROCEDURE=TRANSMISSION
##RESOLUTION=4
##DATA PROCESSING=DIGITIZED BY NIST FROM HARD COPY
##XUNITS=MICROMETERS
##YUNITS=TRANSMITTANCE
##XFACTOR=1.000000
##YFACTOR=1
##DELTAX=000.006646
##FIRSTX=2.027
##LASTX=15.9906
##FIRSTY=0.739
##MAXX=15.9906
##MINX=2.027
##MAXY=0.981
##MINY=0.023
##NPOINTS=2102
##XYDATA=(X++(Y..Y))
2.027000 0.7390 0.7390 0.7400 0.7420 0.7440
2.060247 0.7450 0.7470 0.7500 0.7500 0.7500
2.093000 0.7520 0.7520 0.7540 0.7550 0.7520
2.126247 0.7570 0.7590 0.7600 0.7620 0.7640
2.160000 0.7650 0.7690 0.7690 0.7720 0.7720
2.193247 0.7740 0.7740 0.7750 0.7740 0.7750
2.226000 0.7740 0.7740 0.7750 0.7750 0.7750
2.259247 0.7750 0.7770 0.7770 0.7770 0.7790
2.292000 0.7790 0.7820 0.7850 0.7850 0.7870
2.325247 0.7870 0.7890 0.7890 0.7900 0.7900
2.359000 0.7900 0.7900 0.7920 0.7920 0.7940
2.392247 0.7940 0.7950 0.7950 0.7950 0.7970
2.425000 0.7970 0.7990 0.8000 0.8000 0.8000
2.458247 0.8000 0.8020 0.8020 0.8030 0.8020
2.492000 0.8050 0.8050 0.8050 0.8070 0.8070
2.525247 0.8070 0.8070 0.8070 0.8070 0.8080
2.558000 0.8080 0.8100 0.8100 0.8100 0.8100
2.591247 0.8100 0.8080 0.8080 0.8080 0.8080
2.625000 0.8080 0.8100 0.8100 0.8120 0.8100
2.658247 0.8080 0.8080 0.8100 0.8100 0.8100
2.691000 0.8100 0.8100 0.8100 0.8100 0.8070
2.724247 0.7950 0.7850 0.7720 0.7550 0.7390
2.758000 0.7270 0.7150 0.7100 0.7020 0.6910
2.791247 0.6860 0.6810 0.6770 0.6760 0.6590
2.824000 0.6510 0.6410 0.6270 0.6140 0.6020
2.857247 0.5980 0.5890 0.5860 0.5860 0.5840
2.891000 0.5840 0.5860 0.5880 0.5910 0.5990
2.924247 0.6070 0.6220 0.6390 0.6490 0.6560
2.957000 0.6620 0.6720 0.6820 0.6920 0.7040
2.990247 0.7120 0.7220 0.7270 0.7340 0.7370
3.024000 0.7400 0.7450 0.7500 0.7540 0.7600
3.057247 0.7620 0.7640 0.7720 0.7750 0.7790
3.090000 0.7820 0.7850 0.7890 0.7970 0.7990
3.123247 0.8020 0.8030 0.8070 0.8100 0.8180
3.156000 0.8200 0.8250 0.8280 0.8300 0.8320
3.189247 0.8320 0.8350 0.8350 0.8370 0.8370
3.223000 0.8370 0.8370 0.8380 0.8400 0.8400
3.256247 0.8400 0.8420 0.8420 0.8400 0.8400
3.289000 0.8400 0.8400 0.8380 0.8270 0.8070
3.322247 0.7670 0.7120 0.6320 0.5510 0.5480
3.356000 0.5740 0.6410 0.6820 0.6860 0.6820
3.389247 0.6440 0.6440 0.6510 0.6720 0.6860
3.422000 0.7020 0.7270 0.7400 0.7500 0.7570
3.455247 0.7790 0.7970 0.8250 0.8450 0.8520
3.489000 0.8550 0.8600 0.8600 0.8620 0.8650
3.522247 0.8720 0.8730 0.8730 0.8750 0.8750
3.555000 0.8750 0.8750 0.8780 0.8800 0.8850
3.588247 0.8880 0.8920 0.8950 0.8970 0.8970
3.622000 0.8970 0.8970 0.8980 0.8980 0.9000
3.655247 0.9000 0.9010 0.9010 0.9030 0.9010
3.688000 0.9030 0.9050 0.9060 0.9060 0.9080
3.721247 0.9080 0.9080 0.9080 0.9080 0.9080
3.755000 0.9100 0.9100 0.9100 0.9110 0.9110
3.788247 0.9130 0.9150 0.9150 0.9130 0.9150
3.821000 0.9150 0.9160 0.9160 0.9180 0.9160
3.854247 0.9160 0.9180 0.9180 0.9180 0.9200
3.888000 0.9200 0.9200 0.9200 0.9200 0.9200
3.921247 0.9200 0.9200 0.9200 0.9200 0.9200
3.954000 0.9180 0.9180 0.9180 0.9200 0.9200
3.987247 0.9210 0.9210 0.9210 0.9210 0.9210
4.020000 0.9210 0.9210 0.9210 0.9210 0.9210
4.053247 0.9200 0.9180 0.9180 0.9180 0.9180
4.087000 0.9200 0.9200 0.9230 0.9250 0.9250
4.120247 0.9250 0.9250 0.9260 0.9280 0.9280
4.153000 0.9280 0.9280 0.9280 0.9300 0.9300
4.186247 0.9300 0.9300 0.9300 0.9280 0.9260
4.220000 0.9230 0.9160 0.9050 0.9010 0.8980
4.253247 0.8920 0.8900 0.8850 0.8830 0.8830
4.286000 0.8830 0.8830 0.8850 0.8880 0.8920
4.319247 0.8980 0.9030 0.9100 0.9200 0.9250
4.353000 0.9300 0.9310 0.9310 0.9330 0.9330
4.386247 0.9330 0.9330 0.9330 0.9330 0.9350
4.419000 0.9350 0.9350 0.9360 0.9360 0.9380
4.452247 0.9380 0.9380 0.9400 0.9400 0.9380
4.486000 0.9360 0.9330 0.9300 0.9260 0.9280
4.519247 0.9310 0.9310 0.9350 0.9360 0.9380
4.552000 0.9400 0.9400 0.9380 0.9400 0.9400
4.585247 0.9400 0.9410 0.9400 0.9400 0.9400
4.619000 0.9400 0.9400 0.9400 0.9410 0.9410
4.652247 0.9410 0.9410 0.9410 0.9430 0.9430
4.685000 0.9430 0.9430 0.9430 0.9430 0.9410
4.718247 0.9410 0.9410 0.9410 0.9430 0.9430
4.752000 0.9430 0.9430 0.9430 0.9430 0.9450
4.785247 0.9450 0.9450 0.9450 0.9430 0.9450
4.818000 0.9450 0.9450 0.9450 0.9460 0.9460
4.851247 0.9460 0.9460 0.9460 0.9460 0.9460
4.884000 0.9460 0.9480 0.9460 0.9460 0.9460
4.917247 0.9460 0.9460 0.9460 0.9460 0.9460
4.951000 0.9480 0.9500 0.9510 0.9500 0.9510
4.984247 0.9510 0.9530 0.9530 0.9550 0.9560
5.017000 0.9550 0.9530 0.9530 0.9530 0.9530
5.050247 0.9530 0.9510 0.9510 0.9510 0.9530
5.084000 0.9530 0.9530 0.9530 0.9530 0.9530
5.117247 0.9530 0.9530 0.9530 0.9530 0.9530
5.150000 0.9530 0.9530 0.9530 0.9530 0.9510
5.183247 0.9510 0.9510 0.9510 0.9510 0.9510
5.217000 0.9510 0.9510 0.9510 0.9510 0.9510
5.250247 0.9530 0.9530 0.9510 0.9510 0.9510
5.283000 0.9530 0.9530 0.9530 0.9530 0.9510
5.316247 0.9510 0.9510 0.9510 0.9510 0.9530
5.350000 0.9530 0.9530 0.9530 0.9530 0.9530
5.383247 0.9530 0.9510 0.9480 0.9410 0.9360
5.416000 0.9350 0.9350 0.9330 0.9330 0.9330
5.449247 0.9330 0.9330 0.9380 0.9400 0.9400
5.483000 0.9410 0.9430 0.9410 0.9410 0.9400
5.516247 0.9400 0.9380 0.9360 0.9360 0.9300
5.549000 0.9280 0.9280 0.9280 0.9330 0.9360
5.582247 0.9400 0.9410 0.9400 0.9380 0.9360
5.616000 0.9330 0.9330 0.9330 0.9330 0.9330
5.649247 0.9330 0.9330 0.9360 0.9350 0.9350
5.682000 0.9330 0.9310 0.9280 0.9200 0.9180
5.715247 0.9130 0.9130 0.9110 0.9100 0.9100
5.748000 0.9080 0.9100 0.9130 0.9180 0.9200
5.781247 0.9200 0.9180 0.9160 0.9130 0.9100
5.815000 0.9100 0.9080 0.9100 0.9100 0.9100
5.848247 0.9080 0.9030 0.9000 0.8920 0.8900
5.881000 0.8900 0.8900 0.9000 0.9000 0.9000
5.914247 0.9000 0.8930 0.8920 0.8920 0.8920
5.948000 0.8920 0.8920 0.8920 0.8900 0.8880
5.981247 0.8870 0.8780 0.8780 0.8780 0.8780
6.014000 0.8830 0.8830 0.8800 0.8800 0.8750
6.047247 0.8700 0.8670 0.8630 0.8630 0.8620
6.081000 0.8600 0.8600 0.8550 0.8500 0.8500
6.114247 0.8470 0.8470 0.8450 0.8430 0.8430
6.147000 0.8400 0.8320 0.8270 0.8220 0.8220
6.180247 0.8300 0.8450 0.8550 0.8720 0.8870
6.214000 0.8970 0.9050 0.9110 0.9150 0.9200
6.247247 0.9210 0.9230 0.9230 0.9260 0.9300
6.280000 0.9330 0.9380 0.9380 0.9360 0.9330
6.313247 0.9300 0.9260 0.9250 0.9250 0.9250
6.347000 0.9300 0.9300 0.9300 0.9280 0.9200
6.380247 0.9160 0.9100 0.9010 0.9000 0.9000
6.413000 0.9150 0.9200 0.9200 0.9180 0.9080
6.446247 0.8970 0.8920 0.8900 0.8930 0.9000
6.480000 0.9030 0.9080 0.9100 0.9110 0.9100
6.513247 0.9060 0.9030 0.8970 0.8930 0.8930
6.546000 0.9000 0.9000 0.9000 0.9000 0.8950
6.579247 0.8930 0.8930 0.8930 0.8970 0.8970
6.612000 0.8980 0.9000 0.9000 0.8920 0.8830
6.645247 0.8570 0.8350 0.8170 0.7920 0.7720
6.679000 0.7590 0.7490 0.7370 0.7120 0.6890
6.712247 0.6490 0.5980 0.5440 0.5290 0.5290
6.745000 0.5380 0.5780 0.6160 0.6410 0.6590
6.778247 0.6870 0.7140 0.7420 0.7840 0.8200
6.812000 0.8330 0.8370 0.8420 0.8550 0.8670
6.845247 0.8800 0.8830 0.8830 0.8830 0.8830
6.878000 0.8830 0.8830 0.8870 0.8880 0.8950
6.911247 0.8980 0.9000 0.9000 0.9000 0.9010
6.945000 0.9050 0.9110 0.9130 0.9130 0.9110
6.978247 0.9060 0.9010 0.8950 0.8870 0.8770
7.011000 0.8680 0.8620 0.8470 0.8170 0.7770
7.044247 0.7220 0.6560 0.5790 0.5510 0.5510
7.078000 0.5590 0.6340 0.7100 0.7770 0.8130
7.111247 0.8320 0.8400 0.8470 0.8520 0.8620
7.144000 0.8670 0.8720 0.8820 0.8930 0.8980
7.177247 0.9000 0.9010 0.9030 0.9050 0.9030
7.211000 0.9010 0.9000 0.8950 0.8850 0.8720
7.244247 0.8580 0.8330 0.8050 0.7820 0.7570
7.277000 0.7270 0.7100 0.6760 0.6720 0.6720
7.310247 0.6890 0.7670 0.8070 0.8370 0.8530
7.344000 0.8630 0.8680 0.8730 0.8820 0.8970
7.377247 0.9030 0.9080 0.9160 0.9230 0.9230
7.410000 0.9250 0.9250 0.9250 0.9250 0.9230
7.443247 0.9230 0.9210 0.9200 0.9200 0.9200
7.476000 0.9200 0.9200 0.9150 0.9100 0.9050
7.509247 0.9000 0.8900 0.8730 0.8520 0.8220
7.543000 0.7820 0.7440 0.7070 0.6940 0.6940
7.576247 0.7220 0.7670 0.7940 0.8230 0.8350
7.609000 0.8400 0.8400 0.8420 0.8420 0.8400
7.642247 0.8370 0.8280 0.8200 0.8080 0.7950
7.676000 0.7840 0.7600 0.7520 0.7300 0.7150
7.709247 0.7000 0.6710 0.6510 0.6220 0.5910
7.742000 0.5630 0.5310 0.4980 0.4630 0.4410
7.775247 0.4130 0.3580 0.2620 0.1010 0.0590
7.809000 0.0460 0.0340 0.0280 0.0230 0.0230
7.842247 0.0240 0.0240 0.0310 0.0480 0.0690
7.875000 0.0990 0.1360 0.1810 0.2300 0.2870
7.908247 0.3400 0.4010 0.4750 0.5810 0.6290
7.942000 0.6610 0.6840 0.6990 0.7020 0.7020
7.975247 0.6910 0.6770 0.6660 0.6560 0.6470
8.008000 0.6370 0.6240 0.6110 0.6140 0.6440
8.041247 0.6660 0.6860 0.6970 0.7050 0.7070
8.075000 0.7070 0.7070 0.7070 0.7040 0.6970
8.108247 0.6860 0.6790 0.6720 0.6710 0.6710
8.141000 0.6690 0.6620 0.6590 0.6570 0.6570
8.174247 0.6720 0.6940 0.7090 0.7270 0.7400
8.208000 0.7450 0.7550 0.7620 0.7690 0.7720
8.241247 0.7790 0.7840 0.7900 0.7970 0.8050
8.274000 0.8120 0.8120 0.8100 0.8120 0.8130
8.307247 0.8150 0.8220 0.8230 0.8320 0.8350
8.340000 0.8380 0.8380 0.8380 0.8380 0.8370
8.373247 0.8350 0.8320 0.8280 0.8280 0.8270
8.407000 0.8280 0.8370 0.8430 0.8470 0.8480
8.440247 0.8480 0.8480 0.8480 0.8480 0.8500
8.473000 0.8500 0.8520 0.8500 0.8520 0.8520
8.506247 0.8520 0.8520 0.8530 0.8520 0.8550
8.540000 0.8570 0.8580 0.8580 0.8600 0.8620
8.573247 0.8620 0.8650 0.8650 0.8670 0.8680
8.606000 0.8680 0.8650 0.8670 0.8670 0.8680
8.639247 0.8700 0.8700 0.8700 0.8700 0.8700
8.673000 0.8700 0.8680 0.8670 0.8650 0.8630
8.706247 0.8600 0.8550 0.8500 0.8450 0.8370
8.739000 0.8280 0.8170 0.8030 0.7970 0.7920
8.772247 0.7970 0.8030 0.8130 0.8170 0.8250
8.806000 0.8330 0.8380 0.8450 0.8480 0.8480
8.839247 0.8500 0.8500 0.8500 0.8500 0.8500
8.872000 0.8500 0.8500 0.8500 0.8500 0.8480
8.905247 0.8470 0.8450 0.8430 0.8420 0.8420
8.939000 0.8400 0.8400 0.8380 0.8380 0.8370
8.972247 0.8380 0.8380 0.8370 0.8350 0.8330
9.005000 0.8320 0.8300 0.8300 0.8280 0.8270
9.038247 0.8230 0.8220 0.8180 0.8170 0.8120
9.072000 0.8100 0.8080 0.8080 0.8070 0.8020
9.105247 0.8000 0.7950 0.7890 0.7820 0.7770
9.138000 0.7700 0.7650 0.7590 0.7520 0.7440
9.171247 0.7340 0.7200 0.7050 0.6910 0.6720
9.204000 0.6570 0.6470 0.6390 0.6220 0.6060
9.237247 0.5990 0.5930 0.5840 0.5780 0.5740
9.271000 0.5710 0.5690 0.5680 0.5640 0.5610
9.304247 0.5580 0.5510 0.5460 0.5330 0.5090
9.337000 0.4950 0.4780 0.4410 0.4000 0.3550
9.370247 0.3120 0.2670 0.2250 0.1820 0.1390
9.404000 0.0990 0.0710 0.0580 0.0410 0.0310
9.437247 0.0290 0.0290 0.0290 0.0330 0.0510
9.470000 0.0660 0.0910 0.1210 0.1640 0.2150
9.503247 0.2750 0.3350 0.3950 0.4480 0.4930
9.537000 0.5610 0.5890 0.6110 0.6310 0.6460
9.570247 0.6570 0.6690 0.6770 0.6860 0.6940
9.603000 0.6970 0.6990 0.6990 0.7020 0.7050
9.636247 0.7070 0.7090 0.7090 0.7090 0.7090
9.670000 0.7070 0.7000 0.6890 0.6670 0.6520
9.703247 0.6370 0.6260 0.6170 0.6040 0.5980
9.736000 0.5860 0.5680 0.5480 0.5090 0.4880
9.769247 0.4650 0.4200 0.3700 0.3100 0.2250
9.803000 0.1570 0.1220 0.0780 0.0640 0.0460
9.836247 0.0360 0.0330 0.0310 0.0310 0.0310
9.869000 0.0330 0.0380 0.0430 0.0560 0.0710
9.902247 0.0910 0.1240 0.1560 0.2000 0.2420
9.936000 0.2890 0.3380 0.3900 0.4400 0.4860
9.969247 0.5580 0.5790 0.6160 0.6410 0.6690
10.002000 0.6790 0.6920 0.7040 0.7120 0.7200
10.035247 0.7240 0.7270 0.7270 0.7240 0.7220
10.069000 0.7070 0.6960 0.6720 0.6510 0.6160
10.102247 0.5710 0.5240 0.5000 0.4730 0.4210
10.135000 0.3730 0.3270 0.2870 0.2520 0.2290
10.168247 0.2140 0.2070 0.2000 0.1990 0.2000
10.201000 0.2390 0.2750 0.3180 0.3670 0.4150
10.234247 0.4660 0.5630 0.6040 0.6420 0.6710
10.268000 0.6920 0.7170 0.7400 0.7620 0.7740
10.301247 0.7850 0.7970 0.8020 0.8080 0.8120
10.334000 0.8180 0.8220 0.8250 0.8300 0.8320
10.367247 0.8330 0.8350 0.8400 0.8330 0.8220
10.401000 0.8100 0.8020 0.7950 0.7820 0.7750
10.434247 0.7620 0.7540 0.7500 0.7420 0.7400
10.467000 0.7350 0.7320 0.7320 0.7340 0.7450
10.500247 0.7570 0.7720 0.7890 0.7990 0.8070
10.534000 0.8250 0.8430 0.8550 0.8630 0.8720
10.567247 0.8780 0.8830 0.8950 0.9000 0.9060
10.600000 0.9150 0.9180 0.9210 0.9230 0.9230
10.633247 0.9250 0.9250 0.9250 0.9250 0.9230
10.667000 0.9230 0.9210 0.9200 0.9160 0.9060
10.700247 0.8970 0.8870 0.8750 0.8630 0.8500
10.733000 0.8350 0.8180 0.8000 0.7770 0.7490
10.766247 0.7250 0.6940 0.6440 0.5890 0.5330
10.800000 0.5000 0.4660 0.4210 0.3830 0.3820
10.833247 0.3830 0.4310 0.4900 0.6240 0.6940
10.866000 0.7550 0.8050 0.8350 0.8530 0.8670
10.899247 0.8800 0.8900 0.9000 0.9060 0.9150
10.933000 0.9210 0.9300 0.9380 0.9450 0.9480
10.966247 0.9510 0.9550 0.9550 0.9560 0.9600
10.999000 0.9600 0.9600 0.9600 0.9600 0.9600
11.032247 0.9600 0.9600 0.9610 0.9610 0.9610
11.065000 0.9610 0.9610 0.9630 0.9630 0.9630
11.098247 0.9630 0.9630 0.9630 0.9650 0.9650
11.132000 0.9650 0.9650 0.9650 0.9650 0.9650
11.165247 0.9650 0.9650 0.9650 0.9650 0.9650
11.198000 0.9650 0.9650 0.9650 0.9650 0.9650
11.231247 0.9650 0.9650 0.9650 0.9650 0.9650
11.265000 0.9650 0.9650 0.9630 0.9630 0.9630
11.298247 0.9610 0.9610 0.9610 0.9600 0.9580
11.331000 0.9530 0.9500 0.9500 0.9450 0.9430
11.364247 0.9400 0.9400 0.9350 0.9300 0.9230
11.398000 0.9150 0.9060 0.8970 0.8850 0.8730
11.431247 0.8600 0.8450 0.8300 0.8130 0.7920
11.464000 0.7690 0.7400 0.7050 0.6670 0.6210
11.497247 0.5660 0.5060 0.4830 0.4580 0.4030
11.531000 0.3450 0.2970 0.2600 0.2370 0.2250
11.564247 0.2190 0.2190 0.2220 0.2240 0.2350
11.597000 0.2540 0.2740 0.2820 0.3630 0.4030
11.630247 0.4530 0.5460 0.5880 0.6270 0.6620
11.664000 0.6960 0.7240 0.7470 0.7670 0.7890
11.697247 0.8050 0.8170 0.8300 0.8400 0.8520
11.730000 0.8530 0.8580 0.8620 0.8650 0.8720
11.763247 0.8730 0.8750 0.8770 0.8770 0.8770
11.797000 0.8750 0.8730 0.8730 0.8700 0.8680
11.830247 0.8630 0.8530 0.8480 0.8420 0.8330
11.863000 0.8270 0.8150 0.8020 0.7940 0.7790
11.896247 0.7690 0.7540 0.7350 0.7190 0.6920
11.929000 0.6710 0.6420 0.6210 0.5940 0.5530
11.962247 0.5230 0.5090 0.4950 0.4600 0.3750
11.996000 0.3650 0.3470 0.3380 0.3180 0.3030
12.029247 0.2990 0.2890 0.2850 0.2800 0.2800
12.062000 0.2850 0.2950 0.3120 0.3400 0.3720
12.095247 0.4050 0.4380 0.4710 0.5410 0.5760
12.129000 0.6110 0.6440 0.6760 0.6990 0.7220
12.162247 0.7370 0.7470 0.7520 0.7600 0.7670
12.195000 0.7690 0.7700 0.7700 0.7670 0.7650
12.228247 0.7620 0.7540 0.7520 0.7490 0.7490
12.262000 0.7500 0.7540 0.7600 0.7670 0.7770
12.295247 0.7900 0.8050 0.8220 0.8370 0.8500
12.328000 0.8600 0.8700 0.8800 0.8930 0.9000
12.361247 0.9080 0.9200 0.9250 0.9300 0.9400
12.395000 0.9460 0.9480 0.9500 0.9510 0.9510
12.428247 0.9550 0.9560 0.9560 0.9580 0.9580
12.461000 0.9600 0.9610 0.9610 0.9630 0.9650
12.494247 0.9660 0.9660 0.9650 0.9650 0.9650
12.528000 0.9660 0.9660 0.9680 0.9680 0.9680
12.561247 0.9680 0.9680 0.9680 0.9680 0.9700
12.594000 0.9680 0.9700 0.9700 0.9700 0.9700
12.627247 0.9700 0.9680 0.9680 0.9660 0.9650
12.661000 0.9630 0.9630 0.9610 0.9600 0.9580
12.694247 0.9580 0.9600 0.9600 0.9610 0.9610
12.727000 0.9610 0.9610 0.9610 0.9610 0.9610
12.760247 0.9630 0.9630 0.9630 0.9630 0.9610
12.793000 0.9610 0.9600 0.9580 0.9580 0.9550
12.826247 0.9530 0.9530 0.9510 0.9510 0.9510
12.860000 0.9460 0.9450 0.9410 0.9360 0.9350
12.893247 0.9300 0.9230 0.9200 0.9060 0.8970
12.926000 0.8850 0.8730 0.8600 0.8480 0.8330
12.959247 0.8170 0.7990 0.7790 0.7570 0.7300
12.993000 0.7000 0.6690 0.6420 0.6160 0.5940
13.026247 0.5740 0.5560 0.5380 0.5210 0.5030
13.059000 0.5000 0.4950 0.4880 0.4830 0.4830
13.092247 0.4880 0.4980 0.5330 0.5580 0.5840
13.126000 0.6070 0.6320 0.6590 0.6890 0.7120
13.159247 0.7400 0.7720 0.7920 0.8070 0.8200
13.192000 0.8380 0.8620 0.8680 0.8770 0.8870
13.225247 0.8970 0.9030 0.9100 0.9200 0.9260
13.259000 0.9310 0.9380 0.9410 0.9450 0.9500
13.292247 0.9510 0.9530 0.9550 0.9550 0.9580
13.325000 0.9600 0.9610 0.9610 0.9650 0.9660
13.358247 0.9660 0.9700 0.9710 0.9730 0.9750
13.392000 0.9750 0.9760 0.9760 0.9760 0.9760
13.425247 0.9760 0.9780 0.9780 0.9780 0.9780
13.458000 0.9780 0.9780 0.9780 0.9800 0.9800
13.491247 0.9810 0.9810 0.9810 0.9810 0.9810
13.525000 0.9810 0.9810 0.9810 0.9800 0.9800
13.558247 0.9800 0.9800 0.9800 0.9810 0.9810
13.591000 0.9810 0.9810 0.9810 0.9810 0.9800
13.624247 0.9800 0.9800 0.9800 0.9800 0.9800
13.657000 0.9800 0.9800 0.9800 0.9800 0.9800
13.690247 0.9800 0.9800 0.9800 0.9800 0.9800
13.724000 0.9800 0.9800 0.9800 0.9800 0.9780
13.757247 0.9780 0.9760 0.9750 0.9730 0.9730
13.790000 0.9730 0.9710 0.9710 0.9710 0.9710
13.823247 0.9730 0.9710 0.9730 0.9710 0.9710
13.857000 0.9710 0.9710 0.9710 0.9710 0.9710
13.890247 0.9710 0.9710 0.9710 0.9710 0.9710
13.923000 0.9710 0.9710 0.9710 0.9710 0.9680
13.956247 0.9680 0.9680 0.9680 0.9680 0.9660
13.990000 0.9660 0.9650 0.9650 0.9630 0.9630
14.023247 0.9630 0.9630 0.9610 0.9610 0.9610
14.056000 0.9610 0.9610 0.9610 0.9610 0.9610
14.089247 0.9600 0.9600 0.9600 0.9600 0.9580
14.123000 0.9560 0.9550 0.9550 0.9550 0.9530
14.156247 0.9530 0.9530 0.9530 0.9530 0.9510
14.189000 0.9530 0.9510 0.9510 0.9480 0.9460
14.222247 0.9460 0.9460 0.9460 0.9460 0.9450
14.256000 0.9450 0.9450 0.9430 0.9410 0.9380
14.289247 0.9360 0.9350 0.9350 0.9350 0.9350
14.322000 0.9330 0.9310 0.9280 0.9260 0.9230
14.355247 0.9200 0.9180 0.9150 0.9050 0.9030
14.389000 0.8970 0.8880 0.8830 0.8750 0.8670
14.422247 0.8550 0.8450 0.8330 0.8270 0.8150
14.455000 0.8030 0.7920 0.7790 0.7670 0.7520
14.488247 0.7400 0.7270 0.7140 0.7000 0.6890
14.521000 0.6790 0.6670 0.6610 0.6520 0.6510
14.554247 0.6490 0.6470 0.6470 0.6490 0.6540
14.588000 0.6610 0.6690 0.6770 0.6910 0.6940
14.621247 0.7050 0.7190 0.7300 0.7470 0.7520
14.654000 0.7650 0.7740 0.7820 0.7900 0.7940
14.687247 0.8000 0.8050 0.8130 0.8200 0.8280
14.721000 0.8350 0.8380 0.8420 0.8500 0.8520
14.754247 0.8520 0.8550 0.8570 0.8580 0.8600
14.787000 0.8620 0.8630 0.8650 0.8670 0.8680
14.820247 0.8680 0.8680 0.8700 0.8680 0.8680
14.854000 0.8680 0.8680 0.8680 0.8680 0.8670
14.887247 0.8650 0.8630 0.8620 0.8570 0.8550
14.920000 0.8520 0.8500 0.8450 0.8430 0.8430
14.953247 0.8420 0.8400 0.8400 0.8380 0.8380
14.987000 0.8370 0.8350 0.8350 0.8350 0.8350
15.020247 0.8350 0.8350 0.8350 0.8350 0.8350
15.053000 0.8350 0.8350 0.8370 0.8370 0.8350
15.086247 0.8350 0.8350 0.8350 0.8330 0.8330
15.120000 0.8320 0.8280 0.8270 0.8270 0.8230
15.153247 0.8220 0.8200 0.8170 0.8150 0.8120
15.186000 0.8120 0.8100 0.8070 0.8050 0.8030
15.219247 0.8020 0.8020 0.8020 0.8000 0.7990
15.253000 0.7920 0.7920 0.7890 0.7870 0.7850
15.286247 0.7840 0.7820 0.7820 0.7800 0.7770
15.319000 0.7750 0.7740 0.7740 0.7740 0.7720
15.352247 0.7690 0.7690 0.7670 0.7670 0.7650
15.385000 0.7640 0.7620 0.7600 0.7590 0.7590
15.418247 0.7550 0.7540 0.7520 0.7520 0.7500
15.452000 0.7500 0.7490 0.7490 0.7470 0.7470
15.485247 0.7470 0.7450 0.7450 0.7450 0.7450
15.518000 0.7440 0.7420 0.7390 0.7370 0.7340
15.551247 0.7340 0.7320 0.7300 0.7300 0.7290
15.585000 0.7270 0.7270 0.7270 0.7250 0.7220
15.618247 0.7220 0.7200 0.7170 0.7150 0.7140
15.651000 0.7120 0.7100 0.7090 0.7090 0.7070
15.684247 0.7050 0.7040 0.7040 0.7020 0.7020
15.718000 0.7000 0.7000 0.6990 0.6960 0.6940
15.751247 0.6920 0.6920 0.6910 0.6910 0.6910
15.784000 0.6910 0.6890 0.6870 0.6860 0.6860
15.817247 0.6840 0.6820 0.6820 0.6820 0.6820
15.851000 0.6810 0.6790 0.6790 0.6770 0.6770
15.884247 0.6760 0.6740 0.6720 0.6710 0.6710
15.917000 0.6690 0.6670 0.6670 0.6670 0.6670
15.950247 0.6660 0.6660 0.6660 0.6660 0.6640
15.984000 0.6620 0.6640
##END=
