##TITLE=4-[3-(2-TRIFLUOROMETHYL-10-PHENOTHIAZINYL)PROPYL]-1-PIPERAZINEETHANOL, ACETATE, DIHYDROCHLORIDE
##JCAMP-DX=4.24
##DATA TYPE=INFRARED SPECTRUM
##CLASS=COBLENTZ III
##ORIGIN=SMITH KLINE & FRENCH LABS.
##OWNER=COBLENTZ SOCIETY
Collection (C) 2018 copyright by the U.S. Secretary of Commerce
on behalf of the United States of America. All rights reserved.
##DATE=1957/10/23
##MOLFORM=C24 H30 Cl2 F3 N3 O2 S
##SOURCE REFERENCE=COBLENTZ NO. 9126
##$NIST ID=B6009126
##$NIST SOURCE=COBLENTZ
##$NIST IMAGE=cob9126
##SPECTROMETER/DATA SYSTEM=Not specified, most likely a prism spectrometer.
##INSTRUMENT PARAMETERS=NaCl PRISM
##STATE=SOLID (KBr DISC)
##SAMPLING PROCEDURE=TRANSMISSION
##RESOLUTION=2
##DATA PROCESSING=DIGITIZED BY NIST FROM HARD COPY
##XUNITS=MICROMETERS
##YUNITS=TRANSMITTANCE
##XFACTOR=1.000000
##YFACTOR=1
##DELTAX=000.004892
##FIRSTX=1.997
##LASTX=15.0981
##FIRSTY=0.715
##MAXX=15.0981
##MINX=1.997
##MAXY=0.917
##MINY=0.075
##NPOINTS=2679
##XYDATA=(X++(Y..Y))
1.997000 0.7150 0.7150 0.7160 0.7160 0.7160
2.021469 0.7160 0.7170 0.7170 0.7170 0.7160
2.046000 0.7160 0.7160 0.7160 0.7190 0.7210
2.070469 0.7220 0.7220 0.7230 0.7230 0.7250
2.095000 0.7250 0.7270 0.7280 0.7330 0.7340
2.119469 0.7360 0.7370 0.7370 0.7380 0.7380
2.144000 0.7400 0.7400 0.7420 0.7430 0.7430
2.168469 0.7440 0.7440 0.7450 0.7450 0.7460
2.193000 0.7460 0.7460 0.7480 0.7480 0.7480
2.217469 0.7480 0.7490 0.7490 0.7500 0.7500
2.242000 0.7510 0.7510 0.7510 0.7510 0.7500
2.266469 0.7460 0.7450 0.7400 0.7390 0.7380
2.291000 0.7340 0.7320 0.7320 0.7320 0.7340
2.315469 0.7380 0.7430 0.7440 0.7440 0.7440
2.340000 0.7420 0.7420 0.7420 0.7420 0.7440
2.364469 0.7530 0.7550 0.7560 0.7560 0.7570
2.389000 0.7570 0.7570 0.7570 0.7570 0.7570
2.413469 0.7570 0.7570 0.7570 0.7570 0.7590
2.437000 0.7590 0.7570 0.7570 0.7570 0.7570
2.461469 0.7590 0.7600 0.7600 0.7610 0.7610
2.486000 0.7620 0.7620 0.7630 0.7650 0.7660
2.510469 0.7670 0.7680 0.7690 0.7710 0.7720
2.535000 0.7730 0.7740 0.7740 0.7760 0.7760
2.559469 0.7790 0.7800 0.7800 0.7790 0.7780
2.584000 0.7770 0.7770 0.7760 0.7740 0.7760
2.608469 0.7770 0.7790 0.7820 0.7840 0.7860
2.633000 0.7860 0.7880 0.7900 0.7910 0.7950
2.657469 0.7960 0.7970 0.7970 0.7990 0.8000
2.682000 0.8000 0.8010 0.8010 0.8020 0.8020
2.706469 0.8030 0.8030 0.8030 0.8030 0.8030
2.731000 0.8030 0.8060 0.8060 0.8060 0.8060
2.755469 0.8060 0.8030 0.8030 0.8020 0.8010
2.780000 0.8000 0.7970 0.7970 0.7950 0.7940
2.804469 0.7910 0.7900 0.7860 0.7820 0.7770
2.829000 0.7720 0.7660 0.7620 0.7590 0.7550
2.853469 0.7540 0.7530 0.7510 0.7490 0.7440
2.878000 0.7430 0.7360 0.7260 0.7220 0.7220
2.902469 0.7230 0.7230 0.7230 0.7220 0.7220
2.927000 0.7220 0.7210 0.7210 0.7200 0.7190
2.951469 0.7170 0.7160 0.7160 0.7150 0.7140
2.976000 0.7150 0.7190 0.7250 0.7310 0.7370
3.000469 0.7440 0.7500 0.7570 0.7620 0.7660
3.024000 0.7660 0.7680 0.7720 0.7760 0.7790
3.048469 0.7800 0.7880 0.7950 0.7990 0.8000
3.073000 0.8020 0.8050 0.8090 0.8090 0.8120
3.097469 0.8130 0.8150 0.8170 0.8190 0.8220
3.122000 0.8240 0.8250 0.8260 0.8280 0.8280
3.146469 0.8280 0.8280 0.8280 0.8280 0.8290
3.171000 0.8290 0.8300 0.8300 0.8310 0.8320
3.195469 0.8320 0.8340 0.8340 0.8320 0.8320
3.220000 0.8310 0.8300 0.8300 0.8290 0.8260
3.244469 0.8230 0.8170 0.8060 0.8020 0.7990
3.269000 0.7940 0.7920 0.7920 0.7920 0.7920
3.293469 0.7920 0.7920 0.7920 0.7920 0.7920
3.318000 0.7920 0.7900 0.7740 0.7630 0.7510
3.342469 0.7380 0.7250 0.7110 0.6960 0.6810
3.367000 0.6670 0.6510 0.6340 0.6290 0.6230
3.391469 0.6060 0.5920 0.5870 0.5760 0.5550
3.416000 0.5410 0.5370 0.5310 0.5320 0.5530
3.440469 0.5750 0.5890 0.5960 0.6020 0.6080
3.465000 0.6180 0.6330 0.6360 0.6400 0.6410
3.489469 0.6410 0.6420 0.6420 0.6420 0.6420
3.514000 0.6420 0.6420 0.6440 0.6560 0.6640
3.538469 0.6800 0.6940 0.7080 0.7200 0.7320
3.563000 0.7440 0.7570 0.7680 0.7720 0.7760
3.587469 0.7770 0.7770 0.7780 0.7800 0.7820
3.611000 0.7820 0.7830 0.7830 0.7830 0.7830
3.635469 0.7840 0.7890 0.7910 0.7920 0.7950
3.660000 0.7990 0.7990 0.7990 0.7990 0.7990
3.684469 0.7970 0.7860 0.7840 0.7820 0.7800
3.709000 0.7710 0.7670 0.7600 0.7590 0.7590
3.733469 0.7590 0.7590 0.7590 0.7530 0.7310
3.758000 0.7200 0.7150 0.7130 0.7080 0.7030
3.782469 0.6960 0.6900 0.6820 0.6750 0.6670
3.807000 0.6610 0.6540 0.6480 0.6440 0.6420
3.831469 0.6440 0.6440 0.6420 0.6340 0.6330
3.856000 0.6310 0.6270 0.6160 0.6100 0.6060
3.880469 0.6050 0.6040 0.6000 0.5920 0.5900
3.905000 0.5890 0.5790 0.5720 0.5660 0.5600
3.929469 0.5550 0.5500 0.5440 0.5390 0.5330
3.954000 0.5270 0.5190 0.5100 0.5000 0.4830
3.978469 0.4780 0.4730 0.4680 0.4620 0.4560
4.003000 0.4500 0.4410 0.4370 0.4340 0.4340
4.027469 0.4350 0.4390 0.4410 0.4450 0.4460
4.052000 0.4460 0.4490 0.4490 0.4440 0.4340
4.076469 0.4290 0.4180 0.4060 0.3940 0.3830
4.101000 0.3710 0.3600 0.3490 0.3380 0.3280
4.125469 0.3180 0.3070 0.2960 0.2860 0.2770
4.150000 0.2660 0.2480 0.2420 0.2300 0.2230
4.174469 0.2160 0.2140 0.2110 0.2080 0.2000
4.199000 0.1990 0.1990 0.1980 0.1980 0.1960
4.223469 0.1960 0.1960 0.1960 0.1960 0.1960
4.247000 0.1970 0.1970 0.1970 0.1970 0.1970
4.271469 0.1970 0.1970 0.1980 0.1990 0.1990
4.296000 0.1990 0.2000 0.2000 0.2000 0.2020
4.320469 0.2020 0.2020 0.2030 0.2020 0.2030
4.345000 0.2030 0.2050 0.2070 0.2080 0.2090
4.369469 0.2090 0.2110 0.2130 0.2130 0.2150
4.394000 0.2170 0.2210 0.2230 0.2230 0.2230
4.418469 0.2220 0.2220 0.2220 0.2220 0.2220
4.443000 0.2220 0.2220 0.2220 0.2220 0.2230
4.467469 0.2230 0.2230 0.2260 0.2270 0.2300
4.492000 0.2320 0.2360 0.2390 0.2400 0.2420
4.516469 0.2450 0.2490 0.2510 0.2510 0.2510
4.541000 0.2510 0.2510 0.2500 0.2500 0.2510
4.565469 0.2530 0.2540 0.2550 0.2590 0.2650
4.590000 0.2720 0.2800 0.2910 0.3030 0.3170
4.614469 0.3180 0.3200 0.3220 0.3290 0.3350
4.639000 0.3380 0.3430 0.3480 0.3530 0.3580
4.663469 0.3650 0.3720 0.3820 0.3880 0.3910
4.688000 0.3930 0.3970 0.3990 0.4050 0.4150
4.712469 0.4280 0.4330 0.4370 0.4410 0.4450
4.737000 0.4500 0.4520 0.4550 0.4620 0.4680
4.761469 0.4730 0.4780 0.4830 0.4860 0.4900
4.786000 0.4930 0.4980 0.5010 0.5020 0.5070
4.810469 0.5120 0.5160 0.5200 0.5250 0.5320
4.834000 0.5390 0.5460 0.5480 0.5560 0.5620
4.858469 0.5690 0.5730 0.5770 0.5790 0.5820
4.883000 0.5840 0.5870 0.5890 0.5940 0.6000
4.907469 0.6070 0.6170 0.6240 0.6310 0.6380
4.932000 0.6420 0.6470 0.6530 0.6580 0.6620
4.956469 0.6670 0.6740 0.6800 0.6850 0.6880
4.981000 0.6930 0.6970 0.7000 0.7040 0.7090
5.005469 0.7140 0.7200 0.7260 0.7280 0.7300
5.030000 0.7310 0.7310 0.7320 0.7330 0.7360
5.054469 0.7370 0.7450 0.7490 0.7530 0.7550
5.079000 0.7560 0.7570 0.7590 0.7590 0.7600
5.103469 0.7620 0.7630 0.7650 0.7650 0.7670
5.128000 0.7690 0.7780 0.7830 0.7840 0.7840
5.152469 0.7840 0.7830 0.7830 0.7820 0.7820
5.177000 0.7840 0.7860 0.7940 0.7970 0.8010
5.201469 0.8030 0.8060 0.8080 0.8110 0.8180
5.226000 0.8220 0.8250 0.8260 0.8250 0.8250
5.250469 0.8250 0.8260 0.8260 0.8280 0.8290
5.275000 0.8320 0.8340 0.8340 0.8340 0.8340
5.299469 0.8320 0.8310 0.8310 0.8310 0.8300
5.324000 0.8300 0.8400 0.8420 0.8450 0.8470
5.348469 0.8490 0.8520 0.8540 0.8590 0.8640
5.373000 0.8700 0.8760 0.8770 0.8780 0.8820
5.397469 0.8860 0.8890 0.8910 0.8910 0.8930
5.422000 0.8930 0.8940 0.8940 0.8940 0.8940
5.446469 0.8940 0.8940 0.8940 0.8940 0.8940
5.470000 0.8950 0.8950 0.8950 0.8950 0.8980
5.494469 0.9030 0.9060 0.9070 0.9100 0.9110
5.519000 0.9140 0.9140 0.9140 0.9150 0.9140
5.543469 0.9140 0.9140 0.9140 0.9140 0.9140
5.568000 0.9120 0.9110 0.9060 0.9000 0.8980
5.592469 0.8950 0.8950 0.8950 0.8950 0.8930
5.617000 0.8880 0.8810 0.8650 0.8490 0.8340
5.641469 0.8180 0.8020 0.7860 0.7690 0.7510
5.666000 0.7330 0.7140 0.6910 0.6680 0.6440
5.690469 0.6170 0.5880 0.5550 0.5210 0.4440
5.715000 0.4000 0.3530 0.3020 0.2480 0.1880
5.739469 0.1840 0.1750 0.1680 0.1590 0.1580
5.764000 0.1570 0.1580 0.2480 0.3460 0.3540
5.788469 0.3690 0.4060 0.4530 0.4780 0.5010
5.813000 0.5390 0.5670 0.5930 0.6190 0.6450
5.837469 0.6710 0.7000 0.7310 0.7420 0.7450
5.862000 0.7530 0.7540 0.7540 0.7530 0.7530
5.886469 0.7510 0.7510 0.7590 0.7710 0.7860
5.911000 0.8010 0.8150 0.8240 0.8260 0.8300
5.935469 0.8340 0.8370 0.8410 0.8450 0.8490
5.960000 0.8530 0.8570 0.8600 0.8640 0.8690
5.984469 0.8710 0.8750 0.8780 0.8810 0.8830
6.009000 0.8840 0.8860 0.8870 0.8880 0.8890
6.033469 0.8910 0.8920 0.8930 0.8930 0.8940
6.057000 0.8940 0.8940 0.8930 0.8930 0.8910
6.081469 0.8840 0.8810 0.8810 0.8810 0.8810
6.106000 0.8810 0.8810 0.8810 0.8810 0.8820
6.130469 0.8870 0.8910 0.8930 0.8950 0.8980
6.155000 0.9000 0.9010 0.9010 0.9010 0.9010
6.179469 0.9010 0.8820 0.8600 0.8350 0.8090
6.204000 0.7890 0.7690 0.7460 0.7190 0.6800
6.228469 0.6270 0.6020 0.5950 0.6000 0.6010
6.253000 0.6410 0.6990 0.7400 0.7560 0.7620
6.277469 0.7630 0.7680 0.7780 0.7880 0.7990
6.302000 0.8050 0.8090 0.8140 0.8170 0.8220
6.326469 0.8220 0.8220 0.8220 0.8220 0.8190
6.351000 0.7840 0.7670 0.7550 0.7510 0.7490
6.375469 0.7450 0.7510 0.7620 0.7760 0.7900
6.400000 0.8300 0.8310 0.8320 0.8350 0.8400
6.424469 0.8410 0.8630 0.8760 0.8840 0.8890
6.449000 0.8930 0.8950 0.9000 0.9010 0.9010
6.473469 0.9010 0.9000 0.9000 0.8950 0.8940
6.498000 0.8940 0.8970 0.9010 0.9030 0.9030
6.522469 0.9030 0.9030 0.9050 0.9150 0.9170
6.547000 0.9170 0.9140 0.9050 0.9040 0.9040
6.571469 0.9040 0.9040 0.9040 0.9040 0.9040
6.596000 0.9040 0.9030 0.9010 0.8950 0.8910
6.620469 0.8880 0.8770 0.8600 0.8400 0.8170
6.645000 0.7950 0.7760 0.7740 0.7660 0.7490
6.669469 0.7280 0.7040 0.6770 0.6520 0.6270
6.693000 0.6040 0.5900 0.5890 0.5890 0.5890
6.717469 0.5890 0.5870 0.5770 0.5750 0.5730
6.742000 0.5730 0.5730 0.5720 0.5480 0.5240
6.766469 0.5070 0.4800 0.4670 0.4460 0.4200
6.791000 0.3810 0.3260 0.2920 0.2570 0.2210
6.815469 0.1970 0.1930 0.1930 0.1920 0.1920
6.840000 0.1920 0.1980 0.2110 0.2140 0.2150
6.864469 0.2170 0.2190 0.2190 0.2170 0.2170
6.889000 0.2160 0.2140 0.2130 0.2110 0.2100
6.913469 0.2100 0.2110 0.2110 0.2140 0.2360
6.938000 0.2450 0.2540 0.2630 0.2720 0.2730
6.962469 0.2820 0.2880 0.2910 0.2910 0.2910
6.987000 0.2910 0.2860 0.2490 0.2230 0.2090
7.011469 0.1990 0.1920 0.1810 0.1790 0.1770
7.036000 0.1770 0.1770 0.1770 0.1800 0.2050
7.060469 0.2190 0.2360 0.2590 0.2840 0.3120
7.085000 0.3400 0.3680 0.3940 0.4170 0.4370
7.109469 0.4740 0.4900 0.4900 0.4900 0.4900
7.134000 0.4900 0.4870 0.4840 0.4760 0.4700
7.158469 0.4630 0.4620 0.4370 0.4140 0.3930
7.183000 0.3720 0.3580 0.3310 0.2550 0.2360
7.207469 0.2340 0.2370 0.2440 0.2550 0.2650
7.232000 0.2660 0.2660 0.2670 0.2670 0.2680
7.256469 0.2680 0.2710 0.3110 0.3640 0.3980
7.280000 0.4340 0.4440 0.4510 0.4910 0.4960
7.304469 0.5010 0.5120 0.5200 0.5210 0.5200
7.329000 0.5150 0.5080 0.5010 0.4600 0.4450
7.353469 0.4410 0.4400 0.4450 0.4510 0.4560
7.378000 0.4570 0.4570 0.4530 0.4510 0.4490
7.402469 0.4510 0.4610 0.4730 0.4750 0.4780
7.427000 0.4800 0.4800 0.4620 0.4060 0.3580
7.451469 0.3180 0.2830 0.2530 0.2250 0.1980
7.476000 0.1690 0.1650 0.1590 0.1530 0.1530
7.500469 0.1520 0.1510 0.1520 0.1610 0.1690
7.525000 0.1860 0.2030 0.2100 0.2170 0.2190
7.549469 0.2250 0.2310 0.2430 0.2500 0.2500
7.574000 0.2500 0.2500 0.2500 0.2440 0.2270
7.598469 0.2210 0.2150 0.2110 0.2090 0.2070
7.623000 0.2090 0.2130 0.2190 0.2270 0.2380
7.647469 0.2490 0.2610 0.2730 0.2860 0.2990
7.672000 0.3020 0.3170 0.3240 0.3360 0.3530
7.696469 0.3720 0.3930 0.4160 0.4370 0.4430
7.721000 0.4410 0.4400 0.4370 0.4320 0.4270
7.745469 0.4230 0.4220 0.4230 0.4260 0.4300
7.770000 0.4350 0.4400 0.4410 0.4430 0.4440
7.794469 0.4350 0.4280 0.4090 0.3950 0.3860
7.819000 0.3780 0.3740 0.3680 0.3610 0.3530
7.843469 0.3400 0.3220 0.2960 0.2950 0.2910
7.868000 0.2880 0.2800 0.2730 0.2650 0.2480
7.892469 0.2380 0.2280 0.2220 0.2170 0.2220
7.916000 0.2400 0.2560 0.2770 0.2990 0.3280
7.940469 0.3920 0.3930 0.3930 0.3930 0.3930
7.965000 0.3920 0.3660 0.3550 0.3410 0.3220
7.989469 0.3000 0.2760 0.2510 0.2280 0.2080
8.014000 0.1910 0.1800 0.1750 0.1700 0.1690
8.038469 0.1700 0.1750 0.1790 0.1840 0.1960
8.063000 0.2000 0.2000 0.2000 0.2000 0.2000
8.087469 0.2000 0.2000 0.2000 0.1900 0.1710
8.112000 0.1670 0.1610 0.1470 0.1190 0.1000
8.136469 0.0940 0.0850 0.0760 0.0750 0.0760
8.161000 0.0760 0.0780 0.0810 0.0840 0.0880
8.185469 0.0900 0.0940 0.0980 0.1150 0.1670
8.210000 0.1820 0.2070 0.2190 0.2300 0.2360
8.234469 0.2450 0.2660 0.2690 0.2690 0.2660
8.259000 0.2630 0.2450 0.2210 0.2200 0.2200
8.283469 0.2200 0.2210 0.2320 0.2480 0.2670
8.308000 0.2900 0.3150 0.3420 0.3690 0.3970
8.332469 0.4220 0.4440 0.4640 0.4800 0.4910
8.357000 0.4950 0.5030 0.5120 0.5260 0.5440
8.381469 0.5600 0.5670 0.5750 0.5750 0.5750
8.406000 0.5750 0.5720 0.5710 0.5660 0.5620
8.430469 0.5580 0.5530 0.5490 0.5470 0.5200
8.455000 0.5190 0.5180 0.5160 0.5010 0.5000
8.479469 0.4910 0.4900 0.4670 0.4460 0.4390
8.503000 0.4270 0.4110 0.3940 0.3750 0.3540
8.527469 0.3340 0.3120 0.2910 0.2720 0.2540
8.552000 0.2380 0.2260 0.2160 0.2020 0.1930
8.576469 0.1920 0.1880 0.1860 0.1820 0.1840
8.601000 0.1940 0.2000 0.2070 0.2150 0.2230
8.625469 0.2340 0.2480 0.2610 0.2740 0.2900
8.650000 0.3070 0.3240 0.3420 0.3540 0.3630
8.674469 0.3780 0.3640 0.3570 0.3460 0.3280
8.699000 0.2950 0.2840 0.2710 0.2570 0.2440
8.723469 0.2320 0.2310 0.2280 0.2280 0.2280
8.748000 0.2310 0.2450 0.2630 0.2820 0.2920
8.772469 0.2970 0.3020 0.3080 0.3150 0.3190
8.797000 0.3050 0.2960 0.2880 0.2860 0.2740
8.821469 0.2680 0.2610 0.2600 0.2420 0.2320
8.846000 0.2210 0.2200 0.2190 0.2130 0.2070
8.870469 0.2020 0.1970 0.1920 0.1870 0.1840
8.895000 0.1790 0.1740 0.1690 0.1630 0.1560
8.919469 0.1470 0.1350 0.1080 0.1000 0.0940
8.944000 0.0920 0.0930 0.0930 0.0940 0.0940
8.968469 0.0950 0.0960 0.0980 0.1000 0.1060
8.993000 0.1100 0.1150 0.1180 0.1190 0.1190
9.017469 0.1190 0.1190 0.1190 0.1190 0.1220
9.042000 0.1380 0.1520 0.1640 0.1760 0.1870
9.066469 0.1970 0.2080 0.2170 0.2280 0.2400
9.091000 0.2530 0.2660 0.2820 0.2990 0.3170
9.115469 0.3370 0.3550 0.3700 0.3870 0.3990
9.139000 0.4030 0.4060 0.4090 0.4090 0.4090
9.163469 0.4070 0.4090 0.3940 0.3910 0.3710
9.188000 0.3350 0.2960 0.2570 0.2550 0.2420
9.212469 0.2340 0.2330 0.2250 0.2220 0.2190
9.237000 0.2150 0.2110 0.2070 0.2030 0.1980
9.261469 0.1940 0.1930 0.1930 0.1930 0.1930
9.286000 0.1930 0.1930 0.1960 0.2210 0.2460
9.310469 0.2630 0.2770 0.2910 0.3080 0.3230
9.335000 0.3340 0.3340 0.3340 0.3320 0.3240
9.359469 0.3170 0.3150 0.3110 0.2920 0.2780
9.384000 0.2770 0.2760 0.2760 0.2760 0.2760
9.408469 0.2760 0.2760 0.2770 0.2990 0.3090
9.433000 0.3190 0.3290 0.3380 0.3470 0.3530
9.457469 0.3590 0.3610 0.3610 0.3610 0.3570
9.482000 0.3520 0.3380 0.3300 0.3180 0.3060
9.506469 0.2940 0.2760 0.2690 0.2630 0.2570
9.531000 0.2500 0.2500 0.2510 0.2530 0.2540
9.555469 0.2560 0.2590 0.2600 0.2610 0.2630
9.580000 0.2670 0.2710 0.2760 0.2840 0.2910
9.604469 0.2940 0.2970 0.3000 0.3020 0.3050
9.629000 0.3070 0.3120 0.3150 0.3200 0.3250
9.653469 0.3300 0.3360 0.3420 0.3470 0.3540
9.678000 0.3630 0.3710 0.3810 0.3910 0.4010
9.702469 0.4120 0.4240 0.4340 0.4350 0.4400
9.726000 0.4410 0.4450 0.4450 0.4460 0.4460
9.750469 0.4470 0.4470 0.4490 0.4530 0.4600
9.775000 0.4670 0.4730 0.4780 0.4810 0.4860
9.799469 0.4890 0.4920 0.4930 0.4930 0.4950
9.824000 0.4960 0.4970 0.4980 0.4980 0.5060
9.848469 0.5120 0.5200 0.5260 0.5310 0.5350
9.873000 0.5380 0.5430 0.5500 0.5610 0.5750
9.897469 0.5810 0.5900 0.5950 0.5990 0.6000
9.922000 0.6000 0.6000 0.6000 0.6000 0.6010
9.946469 0.6020 0.6020 0.6020 0.6040 0.6040
9.971000 0.6040 0.6050 0.6080 0.6130 0.6170
9.995469 0.6210 0.6250 0.6290 0.6340 0.6390
10.020000 0.6440 0.6500 0.6560 0.6610 0.6620
10.044469 0.6620 0.6630 0.6640 0.6670 0.6690
10.069000 0.6710 0.6760 0.6810 0.6870 0.6870
10.093469 0.6870 0.6900 0.6930 0.6970 0.6990
10.118000 0.7030 0.7050 0.7070 0.7080 0.7090
10.142469 0.7100 0.7130 0.7150 0.7170 0.7170
10.167000 0.7190 0.7190 0.7190 0.7200 0.7200
10.191469 0.7190 0.7170 0.7170 0.7150 0.7130
10.216000 0.7100 0.7090 0.7020 0.6980 0.6960
10.240469 0.6810 0.6740 0.6620 0.6520 0.6420
10.265000 0.6330 0.6210 0.6070 0.5920 0.5720
10.289469 0.5490 0.5380 0.5360 0.5320 0.5290
10.313000 0.5260 0.5250 0.5270 0.5390 0.5410
10.337469 0.5480 0.5600 0.5760 0.5920 0.6060
10.362000 0.6160 0.6180 0.6240 0.6310 0.6380
10.386469 0.6450 0.6520 0.6570 0.6620 0.6630
10.411000 0.6640 0.6670 0.6750 0.6850 0.6920
10.435469 0.6960 0.6990 0.7000 0.7080 0.7130
10.460000 0.7190 0.7230 0.7270 0.7310 0.7330
10.484469 0.7360 0.7380 0.7390 0.7400 0.7420
10.509000 0.7430 0.7440 0.7450 0.7450 0.7450
10.533469 0.7450 0.7460 0.7460 0.7460 0.7460
10.558000 0.7450 0.7430 0.7400 0.7320 0.7210
10.582469 0.7110 0.7000 0.6880 0.6630 0.6410
10.607000 0.6210 0.6010 0.5850 0.5700 0.5550
10.631469 0.5430 0.5300 0.5180 0.5040 0.4780
10.656000 0.4620 0.4460 0.4280 0.4090 0.3860
10.680469 0.3610 0.3340 0.3020 0.2900 0.2710
10.705000 0.2690 0.2690 0.2690 0.2720 0.2740
10.729469 0.2990 0.3170 0.3370 0.3600 0.3830
10.754000 0.4060 0.4300 0.4530 0.4760 0.4980
10.778469 0.5080 0.5180 0.5370 0.5530 0.5660
10.803000 0.5760 0.5830 0.5850 0.5950 0.6020
10.827469 0.6160 0.6230 0.6290 0.6310 0.6350
10.852000 0.6410 0.6420 0.6440 0.6460 0.6460
10.876469 0.6460 0.6460 0.6460 0.6450 0.6450
10.901000 0.6450 0.6440 0.6390 0.6390 0.6350
10.925469 0.6310 0.6230 0.6150 0.5960 0.5820
10.949000 0.5700 0.5600 0.5520 0.5490 0.5480
10.973469 0.5480 0.5500 0.5640 0.5710 0.5750
10.998000 0.5750 0.5750 0.5730 0.5730 0.5730
11.022469 0.5730 0.5730 0.5730 0.5730 0.5750
11.047000 0.5830 0.5950 0.6060 0.6160 0.6250
11.071469 0.6350 0.6450 0.6530 0.6610 0.6690
11.096000 0.6750 0.6810 0.6860 0.6900 0.6940
11.120469 0.6990 0.7040 0.7080 0.7130 0.7150
11.145000 0.7160 0.7170 0.7230 0.7270 0.7340
11.169469 0.7380 0.7390 0.7400 0.7400 0.7400
11.194000 0.7400 0.7420 0.7420 0.7420 0.7420
11.218469 0.7420 0.7420 0.7420 0.7400 0.7390
11.243000 0.7390 0.7380 0.7370 0.7340 0.7330
11.267469 0.7300 0.7160 0.7080 0.6990 0.6920
11.292000 0.6810 0.6670 0.6440 0.6220 0.6040
11.316469 0.5890 0.5770 0.5670 0.5560 0.5530
11.341000 0.5480 0.5430 0.5440 0.5520 0.5610
11.365469 0.5710 0.5820 0.5930 0.6060 0.6180
11.390000 0.6310 0.6450 0.6580 0.6690 0.6800
11.414469 0.6900 0.6980 0.7040 0.7080 0.7090
11.439000 0.7130 0.7150 0.7170 0.7220 0.7220
11.463469 0.7230 0.7260 0.7260 0.7260 0.7260
11.488000 0.7250 0.7230 0.7220 0.7210 0.7190
11.512469 0.7150 0.7100 0.7050 0.7000 0.6960
11.536000 0.6880 0.6790 0.6650 0.6500 0.6300
11.560469 0.6060 0.5890 0.5190 0.4900 0.4830
11.585000 0.4750 0.4740 0.4730 0.4800 0.4860
11.609469 0.4930 0.4970 0.5080 0.5180 0.5370
11.634000 0.5650 0.5880 0.6080 0.6250 0.6400
11.658469 0.6530 0.6650 0.6750 0.6850 0.6940
11.683000 0.7040 0.7150 0.7270 0.7320 0.7370
11.707469 0.7420 0.7480 0.7540 0.7590 0.7650
11.732000 0.7690 0.7740 0.7790 0.7820 0.7900
11.756469 0.7920 0.7950 0.8000 0.8010 0.8090
11.781000 0.8130 0.8150 0.8180 0.8200 0.8220
11.805469 0.8220 0.8240 0.8240 0.8240 0.8250
11.830000 0.8250 0.8250 0.8250 0.8250 0.8250
11.854469 0.8250 0.8250 0.8250 0.8250 0.8250
11.879000 0.8250 0.8250 0.8240 0.8240 0.8240
11.903469 0.8230 0.8220 0.8190 0.8190 0.8140
11.928000 0.8090 0.8000 0.7890 0.7790 0.7690
11.952469 0.7610 0.7510 0.7440 0.7370 0.7300
11.977000 0.7220 0.7170 0.7110 0.7070 0.7030
12.001469 0.6980 0.6940 0.6930 0.6940 0.6990
12.026000 0.7050 0.7090 0.7110 0.7140 0.7110
12.050469 0.7070 0.6930 0.6810 0.6690 0.6580
12.075000 0.6470 0.6380 0.6280 0.6190 0.6100
12.099469 0.6000 0.5920 0.5820 0.5720 0.5610
12.124000 0.5500 0.5310 0.5100 0.4660 0.4400
12.148469 0.4110 0.3810 0.3450 0.3060 0.2600
12.172000 0.2510 0.2480 0.2440 0.2430 0.2420
12.196469 0.2450 0.2720 0.2990 0.3420 0.3610
12.221000 0.3800 0.3990 0.4110 0.4460 0.4760
12.245469 0.4900 0.5030 0.5260 0.5470 0.5650
12.270000 0.5810 0.5950 0.6100 0.6220 0.6350
12.294469 0.6470 0.6580 0.6710 0.6810 0.6880
12.319000 0.6980 0.7000 0.7050 0.7100 0.7140
12.343469 0.7200 0.7260 0.7310 0.7370 0.7420
12.368000 0.7460 0.7500 0.7550 0.7570 0.7600
12.392469 0.7620 0.7630 0.7650 0.7660 0.7680
12.417000 0.7690 0.7720 0.7740 0.7780 0.7820
12.441469 0.7890 0.7910 0.7950 0.7960 0.7970
12.466000 0.7990 0.8000 0.8000 0.8010 0.8030
12.490469 0.8060 0.8120 0.8180 0.8220 0.8240
12.515000 0.8250 0.8260 0.8280 0.8300 0.8320
12.539469 0.8360 0.8380 0.8410 0.8410 0.8410
12.564000 0.8370 0.8370 0.8380 0.8400 0.8400
12.588469 0.8410 0.8410 0.8430 0.8450 0.8470
12.613000 0.8490 0.8530 0.8580 0.8580 0.8590
12.637469 0.8590 0.8590 0.8590 0.8590 0.8590
12.662000 0.8600 0.8610 0.8610 0.8630 0.8630
12.686469 0.8630 0.8630 0.8650 0.8660 0.8680
12.711000 0.8680 0.8690 0.8700 0.8710 0.8710
12.735469 0.8700 0.8700 0.8700 0.8700 0.8700
12.759000 0.8700 0.8700 0.8700 0.8700 0.8690
12.783469 0.8690 0.8690 0.8690 0.8690 0.8690
12.808000 0.8690 0.8690 0.8680 0.8680 0.8660
12.832469 0.8660 0.8650 0.8640 0.8640 0.8640
12.857000 0.8610 0.8610 0.8610 0.8630 0.8640
12.881469 0.8640 0.8640 0.8640 0.8640 0.8640
12.906000 0.8640 0.8640 0.8640 0.8640 0.8640
12.930469 0.8630 0.8610 0.8590 0.8550 0.8530
12.955000 0.8480 0.8430 0.8370 0.8290 0.8190
12.979469 0.8090 0.8000 0.7890 0.7790 0.7680
13.004000 0.7590 0.7480 0.7380 0.7270 0.7160
13.028469 0.7070 0.6960 0.6850 0.6670 0.6640
13.053000 0.6590 0.6560 0.6510 0.6480 0.6480
13.077469 0.6470 0.6470 0.6470 0.6480 0.6480
13.102000 0.6510 0.6560 0.6610 0.6630 0.6650
13.126469 0.6650 0.6750 0.6790 0.6790 0.6790
13.151000 0.6790 0.6790 0.6770 0.6750 0.6740
13.175469 0.6590 0.6480 0.6340 0.6180 0.6010
13.200000 0.5820 0.5620 0.5410 0.5190 0.4740
13.224469 0.4500 0.4270 0.4040 0.3800 0.3580
13.249000 0.3350 0.3140 0.2940 0.2740 0.2560
13.273469 0.2390 0.2330 0.2310 0.2310 0.2310
13.298000 0.2310 0.2310 0.2310 0.2320 0.2440
13.322469 0.2560 0.2840 0.3010 0.3150 0.3260
13.347000 0.3350 0.3410 0.3480 0.3480 0.3480
13.371469 0.3470 0.3430 0.3420 0.3220 0.3110
13.395000 0.3090 0.2790 0.2780 0.2620 0.2610
13.419469 0.2610 0.2610 0.2620 0.2660 0.2690
13.444000 0.2950 0.3300 0.3430 0.3580 0.3910
13.468469 0.4270 0.4430 0.4600 0.4760 0.4860
13.493000 0.4970 0.5080 0.5270 0.5440 0.5600
13.517469 0.5730 0.5870 0.5980 0.6080 0.6180
13.542000 0.6250 0.6340 0.6410 0.6470 0.6530
13.566469 0.6590 0.6620 0.6700 0.6760 0.6920
13.591000 0.6970 0.7090 0.7130 0.7150 0.7160
13.615469 0.7170 0.7200 0.7220 0.7230 0.7250
13.640000 0.7250 0.7250 0.7250 0.7230 0.7140
13.664469 0.7100 0.7030 0.6920 0.6850 0.6790
13.689000 0.6690 0.6450 0.6250 0.6120 0.6040
13.713469 0.6020 0.6010 0.6040 0.6110 0.6180
13.738000 0.6190 0.6270 0.6390 0.6540 0.6690
13.762469 0.6740 0.6810 0.6840 0.6860 0.6900
13.787000 0.6900 0.6900 0.6380 0.6360 0.5930
13.811469 0.5700 0.5690 0.5550 0.5480 0.5410
13.836000 0.5330 0.5320 0.5310 0.5330 0.5550
13.860469 0.5790 0.6010 0.6190 0.6340 0.6470
13.885000 0.6590 0.6700 0.6790 0.6870 0.6940
13.909469 0.7030 0.7110 0.7200 0.7300 0.7400
13.934000 0.7440 0.7460 0.7480 0.7500 0.7570
13.958469 0.7630 0.7650 0.7670 0.7690 0.7720
13.982000 0.7740 0.7760 0.7770 0.7780 0.7800
14.006469 0.7840 0.7860 0.7890 0.7920 0.7950
14.031000 0.7970 0.8000 0.8010 0.8010 0.8020
14.055469 0.8030 0.8050 0.8050 0.8060 0.8070
14.080000 0.8070 0.8090 0.8120 0.8140 0.8170
14.104469 0.8190 0.8200 0.8220 0.8230 0.8240
14.129000 0.8250 0.8250 0.8260 0.8260 0.8280
14.153469 0.8280 0.8290 0.8290 0.8300 0.8300
14.178000 0.8300 0.8300 0.8300 0.8300 0.8300
14.202469 0.8300 0.8300 0.8300 0.8300 0.8300
14.227000 0.8300 0.8290 0.8200 0.8190 0.8120
14.251469 0.8090 0.8010 0.7850 0.7770 0.7680
14.276000 0.7600 0.7530 0.7480 0.7420 0.7380
14.300469 0.7330 0.7310 0.7280 0.7270 0.7260
14.325000 0.7270 0.7280 0.7280 0.7310 0.7340
14.349469 0.7380 0.7440 0.7490 0.7530 0.7550
14.374000 0.7590 0.7620 0.7670 0.7720 0.7790
14.398469 0.7860 0.7910 0.7950 0.7970 0.8010
14.423000 0.8050 0.8070 0.8090 0.8130 0.8180
14.447469 0.8240 0.8300 0.8360 0.8410 0.8420
14.472000 0.8420 0.8430 0.8430 0.8460 0.8480
14.496469 0.8490 0.8470 0.8450 0.8450 0.8460
14.521000 0.8470 0.8490 0.8490 0.8510 0.8510
14.545469 0.8520 0.8520 0.8520 0.8520 0.8520
14.570000 0.8530 0.8530 0.8530 0.8530 0.8530
14.594469 0.8540 0.8550 0.8550 0.8550 0.8570
14.618000 0.8570 0.8570 0.8580 0.8580 0.8580
14.642469 0.8590 0.8590 0.8590 0.8590 0.8580
14.667000 0.8580 0.8570 0.8570 0.8550 0.8530
14.691469 0.8490 0.8460 0.8460 0.8420 0.8410
14.716000 0.8370 0.8360 0.8340 0.8310 0.8300
14.740469 0.8290 0.8280 0.8280 0.8280 0.8280
14.765000 0.8280 0.8290 0.8300 0.8320 0.8350
14.789469 0.8370 0.8380 0.8400 0.8410 0.8420
14.814000 0.8430 0.8430 0.8450 0.8480 0.8520
14.838469 0.8570 0.8600 0.8610 0.8610 0.8610
14.863000 0.8610 0.8610 0.8610 0.8610 0.8610
14.887469 0.8610 0.8610 0.8610 0.8610 0.8610
14.912000 0.8610 0.8610 0.8610 0.8610 0.8610
14.936469 0.8610 0.8610 0.8610 0.8610 0.8610
14.961000 0.8610 0.8590 0.8550 0.8520 0.8480
14.985469 0.8470 0.8470 0.8470 0.8470 0.8480
15.010000 0.8520 0.8530 0.8600 0.8610 0.8610
15.034469 0.8610 0.8610 0.8600 0.8590 0.8580
15.059000 0.8550 0.8520 0.8460 0.8360 0.8300
15.083469 0.8240 0.8140 0.8110 0.8090
##END=
