##TITLE=9H-Purine-9-acetamide, 1,6-dihydro-6-thioxo-
##JCAMP-DX=4.24
##DATA TYPE=INFRARED SPECTRUM
##CLASS=COBLENTZ III
##ORIGIN=SOUTHERN RESEARCH INSTITUTE
##OWNER=Copyright (C) 1987 by the Coblentz Society
Collection (C) 2018 copyright by the U.S. Secretary of Commerce
on behalf of the United States of America. All rights reserved.
##DATE=1959/07/31
##NAMES=2-(6-thioxo-1,6-dihydro-9H-purin-9-yl)acetamide
##MOLFORM=C7 H7 N5 O S
##SOURCE REFERENCE=COBLENTZ NO. 8271
##$NIST ID=B6008271
##$NIST SOURCE=COBLENTZ
##$NIST IMAGE=cob8271
##SPECTROMETER/DATA SYSTEM=PERKIN-ELMER 21 (GRATING)
##INSTRUMENT PARAMETERS=FILTER CHANGE ABOUT 1025 CM^-^1
##STATE=SOLID (1 mg / 650 mg KBr DISC)
##SAMPLING PROCEDURE=TRANSMISSION
##RESOLUTION=2
##DATA PROCESSING=DIGITIZED BY COBLENTZ SOCIETY (BATCH II) FROM HARD COPY (ADJUSTED \addcm-1\10-5-2\)
##XUNITS=1/CM
##YUNITS=TRANSMITTANCE
##XFACTOR=1.0
##YFACTOR=1
##DELTAX=1.004360
##FIRSTX=602.563
##LASTX=4012.36
##FIRSTY=0.4285
##MAXX=4012.36
##MINX=602.563
##MAXY=0.582524
##MINY=0.0239244
##NPOINTS=3396
##XYDATA=(X++(Y..Y))
602.562500 0.4285 0.4278 0.4278 0.4277 0.4276
607.584299 0.4275 0.4274 0.4273 0.4272 0.4287
612.606098 0.4271 0.4268 0.4267 0.4265 0.4262
617.627897 0.4259 0.4256 0.4251 0.4245 0.4240
622.649696 0.4230 0.4217 0.4204 0.4191 0.4177
627.671495 0.4163 0.4148 0.4134 0.4120 0.4107
632.693294 0.4094 0.4081 0.4070 0.4064 0.4060
637.715093 0.4055 0.4053 0.4053 0.4054 0.4053
642.736892 0.4052 0.4051 0.4050 0.4043 0.4031
647.758692 0.4017 0.4001 0.3984 0.3965 0.3953
652.780491 0.3945 0.3939 0.3943 0.3947 0.3950
657.802290 0.3955 0.3960 0.3966 0.3972 0.3980
662.824089 0.3994 0.4015 0.4038 0.4066 0.4098
667.845888 0.4134 0.4170 0.4217 0.4283 0.4359
672.867687 0.4434 0.4637 0.4880 0.4930 0.4958
677.889486 0.4977 0.4985 0.4994 0.5001 0.5008
682.911285 0.5014 0.5019 0.5021 0.5024 0.5028
687.933084 0.5051 0.5103 0.5149 0.5180 0.5203
692.954883 0.5223 0.5243 0.5266 0.5285 0.5295
697.976682 0.5305 0.5315 0.5323 0.5329 0.5336
702.998481 0.5344 0.5351 0.5358 0.5360 0.5362
708.020280 0.5365 0.5368 0.5370 0.5373 0.5375
713.042079 0.5377 0.5379 0.5382 0.5385 0.5389
718.063878 0.5392 0.5396 0.5400 0.5403 0.5408
723.085677 0.5408 0.5409 0.5410 0.5411 0.5412
728.107476 0.5413 0.5413 0.5413 0.5414 0.5414
733.129276 0.5414 0.5414 0.5414 0.5414 0.5412
738.151075 0.5409 0.5407 0.5404 0.5401 0.5398
743.172874 0.5394 0.5390 0.5385 0.5381 0.5376
748.194673 0.5371 0.5367 0.5362 0.5357 0.5352
753.216472 0.5346 0.5340 0.5334 0.5329 0.5321
758.238271 0.5312 0.5303 0.5293 0.5280 0.5259
763.260070 0.5236 0.5212 0.5174 0.5131 0.5085
768.281869 0.4856 0.4654 0.4573 0.4544 0.4528
773.303668 0.4519 0.4517 0.4524 0.4594 0.4683
778.325467 0.4761 0.4839 0.4922 0.4953 0.4944
783.347266 0.4930 0.4908 0.4873 0.4818 0.4714
788.369065 0.4569 0.4414 0.4259 0.4103 0.3948
793.390864 0.3792 0.3637 0.3482 0.3327 0.3171
798.412663 0.3016 0.2858 0.2730 0.2670 0.2647
803.434462 0.2630 0.2618 0.2608 0.2608 0.2627
808.456261 0.2657 0.2792 0.3087 0.3372 0.3657
813.478060 0.3941 0.4226 0.4511 0.4796 0.5080
818.499860 0.5321 0.5421 0.5451 0.5468 0.5486
823.521659 0.5500 0.5507 0.5515 0.5521 0.5524
828.543458 0.5520 0.5526 0.5525 0.5523 0.5520
833.565257 0.5517 0.5513 0.5508 0.5496 0.5485
838.587056 0.5474 0.5462 0.5448 0.5415 0.5393
843.608855 0.5371 0.5350 0.5328 0.5302 0.5264
848.630654 0.5225 0.5189 0.5155 0.5121 0.5087
853.652453 0.5053 0.5020 0.4986 0.4947 0.4904
858.674252 0.4860 0.4834 0.4811 0.4788 0.4775
863.696051 0.4763 0.4751 0.4734 0.4715 0.4689
868.717850 0.4639 0.4461 0.4265 0.4069 0.3871
873.739649 0.3754 0.3706 0.3697 0.3697 0.3677
878.761448 0.3706 0.3770 0.3851 0.3934 0.4018
883.783247 0.4103 0.4187 0.4271 0.4355 0.4439
888.805046 0.4523 0.4607 0.4691 0.4775 0.4859
893.826845 0.4943 0.5027 0.5111 0.5195 0.5279
898.848644 0.5338 0.5378 0.5413 0.5435 0.5445
903.870444 0.5428 0.5429 0.5437 0.5430 0.5419
908.892243 0.5405 0.5389 0.5369 0.5342 0.5309
913.914042 0.5278 0.5253 0.5226 0.5195 0.5161
918.935841 0.5127 0.5094 0.5061 0.5019 0.4962
923.957640 0.4903 0.4844 0.4786 0.4727 0.4668
928.979439 0.4605 0.4541 0.4499 0.4485 0.4477
934.001238 0.4475 0.4489 0.4510 0.4540 0.4584
939.023037 0.4619 0.4631 0.4637 0.4635 0.4630
944.044836 0.4571 0.4362 0.4140 0.3918 0.3696
949.066635 0.3486 0.3358 0.3359 0.3379 0.3466
954.088434 0.3553 0.3583 0.3618 0.3680 0.3746
959.110233 0.3812 0.3878 0.3942 0.3991 0.3992
964.132032 0.3974 0.3990 0.3980 0.3866 0.3140
969.153831 0.2452 0.2314 0.2289 0.2289 0.2278
974.175630 0.2312 0.2341 0.2397 0.2454 0.2530
979.197429 0.2686 0.2930 0.3187 0.3444 0.3701
984.219229 0.3957 0.4214 0.4471 0.4727 0.4983
989.241028 0.5096 0.5107 0.5108 0.5110 0.5111
994.262827 0.5113 0.5117 0.5122 0.5126 0.5135
999.284626 0.5145 0.5156 0.5167 0.5179 0.5191
1004.306425 0.5203 0.5218 0.5233 0.5252 0.5271
1009.328224 0.5301 0.5327 0.5347 0.5368 0.5380
1014.350023 0.5388 0.5392 0.5392 0.5391 0.5389
1019.371822 0.5383 0.5376 0.5353 0.5302 0.5241
1024.393621 0.5179 0.5117 0.5064 0.5044 0.5113
1029.415420 0.5263 0.5435 0.5571 0.5623 0.5627
1034.437219 0.5628 0.5628 0.5628 0.5628 0.5627
1039.459018 0.5626 0.5625 0.5628 0.5627 0.5620
1044.480817 0.5618 0.5616 0.5614 0.5612 0.5611
1049.502616 0.5612 0.5612 0.5612 0.5612 0.5612
1054.524415 0.5612 0.5611 0.5610 0.5609 0.5608
1059.546214 0.5607 0.5606 0.5606 0.5605 0.5604
1064.568013 0.5603 0.5600 0.5596 0.5592 0.5584
1069.589813 0.5575 0.5565 0.5554 0.5539 0.5524
1074.611612 0.5507 0.5487 0.5467 0.5446 0.5425
1079.633411 0.5403 0.5382 0.5360 0.5339 0.5317
1084.655210 0.5295 0.5273 0.5246 0.5212 0.5179
1089.677009 0.5146 0.5112 0.5074 0.5034 0.4994
1094.698808 0.4954 0.4902 0.4851 0.4798 0.4745
1099.720607 0.4692 0.4639 0.4525 0.4477 0.4430
1104.742406 0.4383 0.4343 0.4304 0.4267 0.4231
1109.764205 0.4206 0.4190 0.4207 0.4196 0.4202
1114.786004 0.4226 0.4299 0.4379 0.4458 0.4538
1119.807803 0.4618 0.4695 0.4760 0.4803 0.4835
1124.829602 0.4852 0.4861 0.4863 0.4863 0.4862
1129.851401 0.4869 0.4862 0.4857 0.4852 0.4841
1134.873200 0.4828 0.4794 0.4733 0.4651 0.4564
1139.894999 0.4476 0.4388 0.4301 0.4214 0.4156
1144.916798 0.4119 0.4089 0.4067 0.4073 0.4064
1149.938597 0.4091 0.4193 0.4323 0.4452 0.4581
1154.960397 0.4673 0.4714 0.4727 0.4734 0.4738
1159.982196 0.4738 0.4734 0.4733 0.4733 0.4729
1165.003995 0.4722 0.4706 0.4682 0.4660 0.4624
1170.025794 0.4566 0.4509 0.4460 0.4404 0.4332
1175.047593 0.4228 0.4109 0.3967 0.3773 0.3602
1180.069392 0.3431 0.3260 0.3089 0.2918 0.2747
1185.091191 0.2576 0.2405 0.2234 0.2063 0.1892
1190.112990 0.1721 0.1522 0.1297 0.1179 0.1070
1195.134789 0.0951 0.0816 0.0721 0.0677 0.0659
1200.156588 0.0677 0.0654 0.0671 0.0747 0.0912
1205.178387 0.1078 0.1244 0.1410 0.1577 0.1744
1210.200186 0.1910 0.2072 0.2208 0.2322 0.2415
1215.221985 0.2516 0.2623 0.2684 0.2744 0.2809
1220.243784 0.2876 0.2944 0.3025 0.3157 0.3276
1225.265583 0.3350 0.3425 0.3508 0.3611 0.3711
1230.287382 0.3794 0.3870 0.3946 0.4023 0.4104
1235.309181 0.4186 0.4267 0.4353 0.4446 0.4550
1240.330981 0.4691 0.4817 0.4867 0.4918 0.4969
1245.352780 0.5013 0.5037 0.5062 0.5086 0.5102
1250.374579 0.5110 0.5117 0.5121 0.5121 0.5117
1255.396378 0.5112 0.5118 0.5115 0.5109 0.5102
1260.418177 0.5095 0.5082 0.5067 0.5052 0.5032
1265.439976 0.5004 0.4976 0.4945 0.4909 0.4874
1270.461775 0.4837 0.4797 0.4755 0.4716 0.4682
1275.483574 0.4649 0.4616 0.4583 0.4551 0.4519
1280.505373 0.4487 0.4454 0.4422 0.4390 0.4352
1285.527172 0.4294 0.4221 0.4148 0.4078 0.4019
1290.548971 0.3962 0.3904 0.3847 0.3780 0.3672
1295.570770 0.3516 0.3349 0.3183 0.3016 0.2848
1300.592569 0.2681 0.2519 0.2401 0.2354 0.2306
1305.614368 0.2272 0.2292 0.2293 0.2296 0.2328
1310.636167 0.2436 0.2589 0.2742 0.2896 0.3049
1315.657966 0.3203 0.3357 0.3487 0.3558 0.3578
1320.679765 0.3576 0.3574 0.3572 0.3566 0.3555
1325.701565 0.3538 0.3507 0.3412 0.3238 0.3064
1330.723364 0.2891 0.2716 0.2542 0.2369 0.2256
1335.745163 0.2219 0.2208 0.2251 0.2307 0.2515
1340.766962 0.2844 0.3173 0.3502 0.3795 0.3944
1345.788761 0.3951 0.3949 0.3956 0.3954 0.3928
1350.810560 0.3915 0.3899 0.3878 0.3850 0.3816
1355.832359 0.3779 0.3741 0.3703 0.3669 0.3642
1360.854158 0.3617 0.3592 0.3569 0.3548 0.3527
1365.875957 0.3508 0.3493 0.3481 0.3469 0.3459
1370.897756 0.3454 0.3452 0.3450 0.3449 0.3451
1375.919555 0.3453 0.3455 0.3456 0.3456 0.3451
1380.941354 0.3422 0.3354 0.3268 0.3182 0.3097
1385.963153 0.3011 0.2925 0.2840 0.2754 0.2668
1390.984952 0.2583 0.2497 0.2411 0.2326 0.2240
1396.006751 0.2155 0.2069 0.1983 0.1897 0.1811
1401.028550 0.1725 0.1620 0.1492 0.1379 0.1294
1406.050349 0.1224 0.1163 0.1105 0.1061 0.1031
1411.072149 0.1008 0.0993 0.0989 0.0964 0.0977
1416.093948 0.1017 0.1049 0.1127 0.1251 0.1392
1421.115747 0.1532 0.1672 0.1812 0.1953 0.2093
1426.137546 0.2232 0.2372 0.2512 0.2653 0.2793
1431.159345 0.2933 0.3073 0.3214 0.3353 0.3583
1436.181144 0.3764 0.3855 0.3943 0.4088 0.4218
1441.202943 0.4304 0.4378 0.4444 0.4509 0.4575
1446.224742 0.4624 0.4659 0.4686 0.4714 0.4763
1451.246541 0.4962 0.5113 0.5143 0.5156 0.5168
1456.268340 0.5181 0.5193 0.5204 0.5213 0.5219
1461.290139 0.5219 0.5215 0.5207 0.5199 0.5184
1466.311938 0.5164 0.5147 0.5132 0.5116 0.5098
1471.333737 0.5080 0.5060 0.5030 0.4997 0.4962
1476.355536 0.4925 0.4886 0.4846 0.4805 0.4759
1481.377335 0.4709 0.4637 0.4564 0.4500 0.4434
1486.399134 0.4360 0.4277 0.4184 0.4090 0.4043
1491.420933 0.4030 0.4030 0.4024 0.4047 0.4079
1496.442733 0.4108 0.4161 0.4246 0.4342 0.4437
1501.464532 0.4532 0.4627 0.4698 0.4693 0.4682
1506.486331 0.4682 0.4681 0.4670 0.4652 0.4633
1511.508130 0.4617 0.4602 0.4585 0.4567 0.4551
1516.529929 0.4537 0.4509 0.4285 0.3979 0.3703
1521.551728 0.3566 0.3480 0.3394 0.3178 0.2935
1526.573527 0.2633 0.2487 0.2407 0.2303 0.2185
1531.595326 0.2070 0.1889 0.1797 0.1719 0.1637
1536.617125 0.1560 0.1497 0.1445 0.1398 0.1357
1541.638924 0.1333 0.1324 0.1322 0.1324 0.1327
1546.660723 0.1301 0.1333 0.1362 0.1396 0.1438
1551.682522 0.1493 0.1549 0.1601 0.1651 0.1700
1556.704321 0.1748 0.1792 0.1829 0.1865 0.1884
1561.726120 0.1886 0.1884 0.1906 0.1880 0.1859
1566.747919 0.1843 0.1820 0.1789 0.1756 0.1700
1571.769718 0.1631 0.1560 0.1490 0.1419 0.1349
1576.791517 0.1279 0.1208 0.1138 0.1068 0.0997
1581.813317 0.0926 0.0856 0.0785 0.0715 0.0645
1586.835116 0.0574 0.0509 0.0429 0.0369 0.0326
1591.856915 0.0298 0.0280 0.0274 0.0270 0.0269
1596.878714 0.0239 0.0267 0.0276 0.0280 0.0289
1601.900513 0.0299 0.0315 0.0333 0.0370 0.0428
1606.922312 0.0505 0.0585 0.0665 0.0745 0.0824
1611.944111 0.0904 0.0984 0.1064 0.1144 0.1224
1616.965910 0.1304 0.1383 0.1463 0.1543 0.1622
1621.987709 0.1702 0.1783 0.1882 0.1980 0.2075
1627.009508 0.2141 0.2202 0.2269 0.2341 0.2399
1632.031307 0.2450 0.2477 0.2502 0.2527 0.2546
1637.053106 0.2565 0.2580 0.2587 0.2594 0.2601
1642.074905 0.2611 0.2606 0.2605 0.2603 0.2597
1647.096704 0.2576 0.2552 0.2516 0.2484 0.2453
1652.118503 0.2422 0.2386 0.2346 0.2305 0.2265
1657.140302 0.2225 0.2158 0.2077 0.1985 0.1854
1662.162102 0.1717 0.1580 0.1443 0.1305 0.1168
1667.183901 0.1031 0.0894 0.0757 0.0619 0.0460
1672.205700 0.0389 0.0359 0.0336 0.0321 0.0311
1677.227499 0.0304 0.0306 0.0269 0.0316 0.0325
1682.249298 0.0337 0.0352 0.0374 0.0404 0.0447
1687.271097 0.0507 0.0569 0.0650 0.0745 0.0841
1692.292896 0.0938 0.1035 0.1131 0.1228 0.1324
1697.314695 0.1420 0.1517 0.1614 0.1711 0.1807
1702.336494 0.1903 0.2000 0.2096 0.2193 0.2290
1707.358293 0.2386 0.2483 0.2579 0.2676 0.2772
1712.380092 0.2869 0.2966 0.3070 0.3310 0.3422
1717.401891 0.3521 0.3722 0.3806 0.3892 0.3978
1722.423690 0.4046 0.4103 0.4160 0.4220 0.4317
1727.445489 0.4418 0.4507 0.4585 0.4648 0.4710
1732.467288 0.4771 0.4831 0.4887 0.4939 0.4986
1737.489087 0.5028 0.5061 0.5085 0.5109 0.5129
1742.510886 0.5144 0.5160 0.5174 0.5187 0.5200
1747.532686 0.5213 0.5226 0.5240 0.5254 0.5268
1752.554485 0.5281 0.5295 0.5310 0.5326 0.5342
1757.576284 0.5358 0.5374 0.5389 0.5405 0.5420
1762.598083 0.5434 0.5448 0.5462 0.5477 0.5491
1767.619882 0.5505 0.5518 0.5532 0.5545 0.5559
1772.641681 0.5572 0.5586 0.5599 0.5611 0.5623
1777.663480 0.5634 0.5646 0.5657 0.5669 0.5680
1782.685279 0.5692 0.5702 0.5711 0.5719 0.5728
1787.707078 0.5737 0.5745 0.5754 0.5763 0.5771
1792.728877 0.5777 0.5781 0.5785 0.5790 0.5794
1797.750676 0.5799 0.5801 0.5799 0.5797 0.5795
1802.772475 0.5794 0.5793 0.5801 0.5825 0.5792
1807.794274 0.5791 0.5790 0.5790 0.5789 0.5786
1812.816073 0.5783 0.5780 0.5777 0.5773 0.5770
1817.837872 0.5767 0.5764 0.5760 0.5755 0.5750
1822.859671 0.5744 0.5739 0.5734 0.5728 0.5723
1827.881470 0.5717 0.5711 0.5705 0.5698 0.5692
1832.903270 0.5686 0.5678 0.5670 0.5661 0.5653
1837.925069 0.5644 0.5634 0.5623 0.5611 0.5600
1842.946868 0.5588 0.5576 0.5563 0.5550 0.5537
1847.968667 0.5524 0.5511 0.5498 0.5484 0.5469
1852.990466 0.5454 0.5443 0.5435 0.5427 0.5419
1858.012265 0.5411 0.5407 0.5403 0.5403 0.5423
1863.034064 0.5432 0.5442 0.5454 0.5466 0.5479
1868.055863 0.5495 0.5511 0.5527 0.5542 0.5556
1873.077662 0.5569 0.5583 0.5596 0.5606 0.5614
1878.099461 0.5623 0.5632 0.5637 0.5638 0.5638
1883.121260 0.5637 0.5635 0.5630 0.5638 0.5644
1888.143059 0.5617 0.5613 0.5608 0.5604 0.5599
1893.164858 0.5595 0.5591 0.5586 0.5581 0.5575
1898.186657 0.5570 0.5565 0.5560 0.5554 0.5549
1903.208456 0.5543 0.5535 0.5527 0.5519 0.5511
1908.230255 0.5503 0.5495 0.5487 0.5481 0.5474
1913.252054 0.5467 0.5460 0.5454 0.5451 0.5449
1918.273854 0.5448 0.5447 0.5445 0.5444 0.5443
1923.295653 0.5442 0.5444 0.5446 0.5449 0.5451
1928.317452 0.5454 0.5455 0.5456 0.5457 0.5458
1933.339251 0.5459 0.5461 0.5462 0.5463 0.5464
1938.361050 0.5465 0.5466 0.5467 0.5468 0.5469
1943.382849 0.5469 0.5470 0.5471 0.5472 0.5473
1948.404648 0.5474 0.5474 0.5474 0.5473 0.5473
1953.426447 0.5473 0.5470 0.5465 0.5459 0.5452
1958.448246 0.5444 0.5436 0.5426 0.5416 0.5407
1963.470045 0.5399 0.5393 0.5387 0.5381 0.5374
1968.491844 0.5364 0.5355 0.5345 0.5336 0.5325
1973.513643 0.5312 0.5299 0.5285 0.5273 0.5265
1978.535442 0.5257 0.5249 0.5242 0.5237 0.5232
1983.557241 0.5228 0.5224 0.5223 0.5224 0.5225
1988.579040 0.5227 0.5228 0.5229 0.5230 0.5231
1993.600839 0.5232 0.5228 0.5231 0.5239 0.5241
1998.622638 0.5244 0.5246 0.5249 0.5253 0.5258
2003.644438 0.5263 0.5268 0.5273 0.5278 0.5283
2008.666237 0.5288 0.5293 0.5298 0.5303 0.5308
2013.688036 0.5313 0.5319 0.5324 0.5330 0.5336
2018.709835 0.5341 0.5347 0.5352 0.5358 0.5364
2023.731634 0.5370 0.5375 0.5381 0.5387 0.5393
2028.753433 0.5400 0.5406 0.5412 0.5419 0.5425
2033.775232 0.5431 0.5438 0.5444 0.5450 0.5457
2038.797031 0.5462 0.5467 0.5473 0.5478 0.5483
2043.818830 0.5489 0.5494 0.5499 0.5504 0.5510
2048.840629 0.5515 0.5520 0.5524 0.5527 0.5530
2053.862428 0.5533 0.5536 0.5539 0.5542 0.5546
2058.884227 0.5549 0.5551 0.5551 0.5552 0.5552
2063.906026 0.5552 0.5552 0.5553 0.5553 0.5554
2068.927825 0.5555 0.5555 0.5556 0.5557 0.5558
2073.949624 0.5559 0.5560 0.5561 0.5562 0.5563
2078.971423 0.5565 0.5566 0.5567 0.5568 0.5570
2083.993222 0.5573 0.5575 0.5578 0.5580 0.5584
2089.015022 0.5587 0.5591 0.5594 0.5598 0.5602
2094.036821 0.5605 0.5607 0.5608 0.5609 0.5611
2099.058620 0.5614 0.5618 0.5622 0.5626 0.5630
2104.080419 0.5633 0.5636 0.5638 0.5641 0.5643
2109.102218 0.5645 0.5647 0.5648 0.5648 0.5647
2114.124017 0.5647 0.5647 0.5646 0.5646 0.5645
2119.145816 0.5645 0.5645 0.5644 0.5644 0.5644
2124.167615 0.5645 0.5645 0.5646 0.5647 0.5648
2129.189414 0.5649 0.5650 0.5650 0.5651 0.5652
2134.211213 0.5653 0.5654 0.5654 0.5655 0.5656
2139.233012 0.5657 0.5658 0.5658 0.5659 0.5660
2144.254811 0.5660 0.5659 0.5658 0.5658 0.5657
2149.276610 0.5657 0.5656 0.5656 0.5655 0.5670
2154.298409 0.5658 0.5654 0.5653 0.5653 0.5652
2159.320208 0.5652 0.5651 0.5651 0.5650 0.5650
2164.342007 0.5649 0.5650 0.5650 0.5650 0.5650
2169.363806 0.5651 0.5651 0.5651 0.5651 0.5651
2174.385606 0.5652 0.5652 0.5652 0.5652 0.5653
2179.407405 0.5652 0.5652 0.5652 0.5651 0.5651
2184.429204 0.5651 0.5650 0.5650 0.5650 0.5649
2189.451003 0.5649 0.5649 0.5648 0.5647 0.5646
2194.472802 0.5644 0.5643 0.5641 0.5640 0.5638
2199.494601 0.5636 0.5635 0.5633 0.5632 0.5630
2204.516400 0.5629 0.5628 0.5627 0.5626 0.5624
2209.538199 0.5623 0.5622 0.5621 0.5620 0.5619
2214.559998 0.5617 0.5614 0.5612 0.5610 0.5608
2219.581797 0.5607 0.5606 0.5605 0.5605 0.5604
2224.603596 0.5603 0.5602 0.5602 0.5601 0.5600
2229.625395 0.5599 0.5599 0.5597 0.5595 0.5594
2234.647194 0.5592 0.5590 0.5589 0.5587 0.5585
2239.668993 0.5584 0.5582 0.5580 0.5579 0.5577
2244.690792 0.5576 0.5574 0.5572 0.5571 0.5569
2249.712591 0.5568 0.5568 0.5567 0.5567 0.5567
2254.734390 0.5566 0.5566 0.5566 0.5565 0.5565
2259.756190 0.5565 0.5564 0.5564 0.5564 0.5563
2264.777989 0.5563 0.5563 0.5562 0.5562 0.5562
2269.799788 0.5561 0.5561 0.5561 0.5560 0.5560
2274.821587 0.5560 0.5560 0.5559 0.5558 0.5554
2279.843386 0.5550 0.5546 0.5543 0.5539 0.5535
2284.865185 0.5528 0.5519 0.5510 0.5501 0.5492
2289.886984 0.5483 0.5474 0.5464 0.5453 0.5442
2294.908783 0.5432 0.5422 0.5411 0.5401 0.5390
2299.930582 0.5380 0.5370 0.5360 0.5350 0.5340
2304.952381 0.5330 0.5319 0.5309 0.5299 0.5289
2309.974180 0.5282 0.5274 0.5267 0.5260 0.5253
2314.995979 0.5245 0.5238 0.5231 0.5226 0.5221
2320.017778 0.5216 0.5211 0.5205 0.5200 0.5195
2325.039577 0.5190 0.5185 0.5181 0.5178 0.5176
2330.061376 0.5174 0.5171 0.5169 0.5167 0.5164
2335.083175 0.5162 0.5160 0.5157 0.5155 0.5153
2340.104975 0.5150 0.5150 0.5150 0.5151 0.5151
2345.126774 0.5151 0.5152 0.5152 0.5153 0.5153
2350.148573 0.5154 0.5154 0.5155 0.5155 0.5156
2355.170372 0.5156 0.5157 0.5159 0.5164 0.5168
2360.192171 0.5173 0.5177 0.5182 0.5186 0.5190
2365.213970 0.5195 0.5199 0.5204 0.5210 0.5220
2370.235769 0.5230 0.5239 0.5249 0.5259 0.5268
2375.257568 0.5278 0.5287 0.5294 0.5294 0.5295
2380.279367 0.5294 0.5289 0.5281 0.5273 0.5265
2385.301166 0.5256 0.5245 0.5233 0.5220 0.5203
2390.322965 0.5187 0.5170 0.5153 0.5135 0.5117
2395.344764 0.5099 0.5082 0.5069 0.5057 0.5044
2400.366563 0.5032 0.5020 0.5014 0.5008 0.5003
2405.388362 0.4997 0.4991 0.4986 0.4984 0.4982
2410.410161 0.4980 0.4978 0.4976 0.4971 0.4964
2415.431960 0.4958 0.4951 0.4944 0.4938 0.4931
2420.453759 0.4922 0.4913 0.4905 0.4897 0.4888
2425.475559 0.4880 0.4872 0.4863 0.4855 0.4846
2430.497358 0.4838 0.4830 0.4822 0.4814 0.4806
2435.519157 0.4798 0.4790 0.4783 0.4775 0.4767
2440.540956 0.4759 0.4751 0.4743 0.4735 0.4727
2445.562755 0.4720 0.4712 0.4704 0.4696 0.4687
2450.584554 0.4680 0.4673 0.4665 0.4658 0.4651
2455.606353 0.4644 0.4636 0.4629 0.4622 0.4614
2460.628152 0.4607 0.4600 0.4592 0.4584 0.4576
2465.649951 0.4566 0.4557 0.4548 0.4539 0.4530
2470.671750 0.4521 0.4511 0.4502 0.4493 0.4484
2475.693549 0.4475 0.4465 0.4456 0.4447 0.4438
2480.715348 0.4429 0.4420 0.4411 0.4402 0.4394
2485.737147 0.4386 0.4378 0.4370 0.4362 0.4354
2490.758946 0.4346 0.4338 0.4330 0.4320 0.4311
2495.780745 0.4302 0.4293 0.4284 0.4276 0.4267
2500.802544 0.4258 0.4249 0.4240 0.4231 0.4222
2505.824343 0.4212 0.4203 0.4193 0.4183 0.4174
2510.846143 0.4164 0.4155 0.4145 0.4136 0.4126
2515.867942 0.4116 0.4107 0.4097 0.4089 0.4081
2520.889741 0.4074 0.4066 0.4058 0.4050 0.4043
2525.911540 0.4035 0.4028 0.4020 0.4012 0.4005
2530.933339 0.3997 0.3990 0.3982 0.3975 0.3968
2535.955138 0.3960 0.3953 0.3945 0.3938 0.3931
2540.976937 0.3924 0.3917 0.3910 0.3904 0.3897
2545.998736 0.3891 0.3884 0.3877 0.3871 0.3864
2551.020535 0.3857 0.3851 0.3844 0.3838 0.3831
2556.042334 0.3824 0.3818 0.3811 0.3803 0.3796
2561.064133 0.3790 0.3783 0.3776 0.3769 0.3762
2566.085932 0.3755 0.3748 0.3738 0.3727 0.3717
2571.107731 0.3706 0.3695 0.3684 0.3674 0.3663
2576.129530 0.3652 0.3641 0.3628 0.3615 0.3603
2581.151329 0.3590 0.3580 0.3572 0.3565 0.3558
2586.173128 0.3551 0.3544 0.3538 0.3533 0.3528
2591.194927 0.3523 0.3517 0.3512 0.3507 0.3502
2596.216727 0.3497 0.3490 0.3483 0.3475 0.3468
2601.238526 0.3461 0.3454 0.3446 0.3438 0.3430
2606.260325 0.3423 0.3415 0.3407 0.3399 0.3391
2611.282124 0.3383 0.3374 0.3364 0.3353 0.3343
2616.303923 0.3333 0.3323 0.3315 0.3310 0.3305
2621.325722 0.3301 0.3297 0.3295 0.3292 0.3290
2626.347521 0.3287 0.3285 0.3283 0.3280 0.3278
2631.369320 0.3275 0.3273 0.3269 0.3263 0.3257
2636.391119 0.3251 0.3245 0.3237 0.3230 0.3222
2641.412918 0.3215 0.3207 0.3199 0.3193 0.3186
2646.434717 0.3180 0.3174 0.3168 0.3161 0.3155
2651.456516 0.3149 0.3143 0.3136 0.3130 0.3125
2656.478315 0.3121 0.3117 0.3113 0.3109 0.3105
2661.500114 0.3101 0.3096 0.3092 0.3088 0.3084
2666.521913 0.3080 0.3076 0.3072 0.3068 0.3064
2671.543712 0.3060 0.3056 0.3051 0.3045 0.3039
2676.565511 0.3033 0.3027 0.3022 0.3016 0.3010
2681.587311 0.3004 0.2997 0.2990 0.2984 0.2977
2686.609110 0.2970 0.2963 0.2957 0.2951 0.2945
2691.630909 0.2940 0.2934 0.2929 0.2923 0.2917
2696.652708 0.2912 0.2906 0.2900 0.2895 0.2889
2701.674507 0.2883 0.2877 0.2872 0.2866 0.2862
2706.696306 0.2858 0.2854 0.2850 0.2846 0.2842
2711.718105 0.2840 0.2839 0.2851 0.2840 0.2835
2716.739904 0.2834 0.2832 0.2831 0.2829 0.2828
2721.761703 0.2826 0.2825 0.2825 0.2825 0.2827
2726.783502 0.2832 0.2836 0.2841 0.2846 0.2851
2731.805301 0.2855 0.2860 0.2865 0.2870 0.2874
2736.827100 0.2880 0.2886 0.2892 0.2898 0.2904
2741.848899 0.2910 0.2916 0.2924 0.2931 0.2939
2746.870698 0.2947 0.2955 0.2962 0.2968 0.2975
2751.892497 0.2980 0.2984 0.2987 0.2990 0.2994
2756.914296 0.2997 0.3000 0.3003 0.3007 0.3010
2761.936095 0.3013 0.3016 0.3018 0.3021 0.3023
2766.957895 0.3026 0.3027 0.3027 0.3028 0.3028
2771.979694 0.3029 0.3030 0.3030 0.3031 0.3031
2777.001493 0.3032 0.3032 0.3032 0.3032 0.3031
2782.023292 0.3031 0.3031 0.3031 0.3030 0.3030
2787.045091 0.3030 0.3030 0.3029 0.3029 0.3029
2792.066890 0.3029 0.3028 0.3027 0.3024 0.3022
2797.088689 0.3019 0.3017 0.3014 0.3012 0.3009
2802.110488 0.3007 0.3004 0.3002 0.2999 0.2997
2807.132287 0.2994 0.2992 0.2989 0.2987 0.2984
2812.154086 0.2982 0.2979 0.2977 0.2975 0.2973
2817.175885 0.2971 0.2969 0.2968 0.2966 0.2964
2822.197684 0.2962 0.2960 0.2959 0.2957 0.2955
2827.219483 0.2953 0.2952 0.2950 0.2948 0.2946
2832.241282 0.2944 0.2943 0.2941 0.2939 0.2937
2837.263081 0.2935 0.2933 0.2932 0.2931 0.2933
2842.284880 0.2935 0.2938 0.2940 0.2943 0.2945
2847.306679 0.2947 0.2950 0.2952 0.2955 0.2958
2852.328479 0.2962 0.2966 0.2970 0.2974 0.2978
2857.350278 0.2982 0.2986 0.2990 0.2994 0.2998
2862.372077 0.3002 0.3006 0.3010 0.3014 0.3017
2867.393876 0.3021 0.3025 0.3029 0.3033 0.3037
2872.415675 0.3042 0.3047 0.3052 0.3057 0.3064
2877.437474 0.3075 0.3085 0.3096 0.3108 0.3121
2882.459273 0.3134 0.3146 0.3156 0.3165 0.3175
2887.481072 0.3184 0.3190 0.3194 0.3199 0.3204
2892.502871 0.3209 0.3213 0.3216 0.3219 0.3221
2897.524670 0.3223 0.3224 0.3225 0.3226 0.3226
2902.546469 0.3227 0.3228 0.3229 0.3233 0.3229
2907.568268 0.3229 0.3229 0.3229 0.3229 0.3228
2912.590067 0.3228 0.3228 0.3228 0.3227 0.3226
2917.611866 0.3225 0.3224 0.3223 0.3222 0.3222
2922.633665 0.3220 0.3219 0.3218 0.3216 0.3215
2927.655464 0.3214 0.3213 0.3211 0.3210 0.3209
2932.677263 0.3207 0.3206 0.3204 0.3201 0.3198
2937.699063 0.3195 0.3192 0.3189 0.3185 0.3182
2942.720862 0.3178 0.3175 0.3171 0.3167 0.3164
2947.742661 0.3158 0.3152 0.3146 0.3140 0.3134
2952.764460 0.3128 0.3121 0.3115 0.3107 0.3095
2957.786259 0.3084 0.3073 0.3061 0.3047 0.3032
2962.808058 0.3017 0.3005 0.2998 0.2994 0.2989
2967.829857 0.2985 0.2980 0.2976 0.2971 0.2967
2972.851656 0.2962 0.2956 0.2950 0.2945 0.2939
2977.873455 0.2934 0.2928 0.2922 0.2917 0.2911
2982.895254 0.2906 0.2901 0.2896 0.2890 0.2885
2987.917053 0.2880 0.2876 0.2873 0.2870 0.2867
2992.938852 0.2864 0.2860 0.2857 0.2854 0.2851
2997.960651 0.2848 0.2844 0.2841 0.2838 0.2835
3002.982450 0.2831 0.2828 0.2824 0.2820 0.2815
3008.004249 0.2811 0.2810 0.2809 0.2808 0.2808
3013.026048 0.2807 0.2806 0.2805 0.2805 0.2805
3018.047848 0.2807 0.2809 0.2812 0.2814 0.2816
3023.069647 0.2819 0.2822 0.2825 0.2828 0.2831
3028.091446 0.2834 0.2837 0.2842 0.2847 0.2852
3033.113245 0.2856 0.2860 0.2864 0.2866 0.2866
3038.135044 0.2865 0.2864 0.2864 0.2863 0.2862
3043.156843 0.2860 0.2856 0.2850 0.2843 0.2834
3048.178642 0.2823 0.2812 0.2801 0.2790 0.2777
3053.200441 0.2763 0.2750 0.2739 0.2733 0.2731
3058.222240 0.2729 0.2727 0.2725 0.2723 0.2721
3063.244039 0.2719 0.2717 0.2713 0.2709 0.2708
3068.265838 0.2712 0.2716 0.2720 0.2725 0.2730
3073.287637 0.2735 0.2740 0.2745 0.2750 0.2755
3078.309436 0.2762 0.2769 0.2776 0.2787 0.2807
3083.331235 0.2836 0.2866 0.2895 0.2920 0.2939
3088.353034 0.2954 0.2960 0.2961 0.2961 0.2960
3093.374833 0.2960 0.2959 0.2957 0.2953 0.2949
3098.396632 0.2945 0.2939 0.2931 0.2924 0.2915
3103.418432 0.2905 0.2893 0.2881 0.2866 0.2846
3108.440231 0.2803 0.2741 0.2696 0.2666 0.2643
3113.462030 0.2623 0.2609 0.2594 0.2580 0.2566
3118.483829 0.2553 0.2543 0.2533 0.2523 0.2513
3123.505628 0.2503 0.2493 0.2483 0.2474 0.2466
3128.527427 0.2460 0.2454 0.2447 0.2441 0.2434
3133.549226 0.2428 0.2422 0.2415 0.2409 0.2404
3138.571025 0.2400 0.2397 0.2394 0.2390 0.2386
3143.592824 0.2383 0.2378 0.2370 0.2362 0.2354
3148.614623 0.2342 0.2327 0.2312 0.2297 0.2282
3153.636422 0.2269 0.2260 0.2253 0.2249 0.2247
3158.658221 0.2244 0.2242 0.2239 0.2234 0.2227
3163.680020 0.2219 0.2209 0.2195 0.2181 0.2166
3168.701819 0.2147 0.2122 0.2098 0.2077 0.2056
3173.723618 0.2039 0.2026 0.2013 0.2007 0.2004
3178.745417 0.2002 0.2000 0.1998 0.1996 0.1994
3183.767216 0.1994 0.1995 0.1995 0.1995 0.1997
3188.789016 0.1998 0.1999 0.2001 0.2003 0.2006
3193.810815 0.2008 0.2010 0.2013 0.2016 0.2020
3198.832614 0.2024 0.2027 0.2031 0.2035 0.2041
3203.854413 0.2047 0.2053 0.2059 0.2069 0.2080
3208.876212 0.2092 0.2103 0.2117 0.2135 0.2153
3213.898011 0.2164 0.2171 0.2173 0.2173 0.2174
3218.919810 0.2174 0.2174 0.2174 0.2175 0.2187
3223.941609 0.2181 0.2173 0.2172 0.2172 0.2171
3228.963408 0.2170 0.2169 0.2168 0.2167 0.2167
3233.985207 0.2166 0.2165 0.2164 0.2162 0.2161
3239.007006 0.2160 0.2159 0.2157 0.2155 0.2152
3244.028805 0.2150 0.2144 0.2136 0.2127 0.2118
3249.050604 0.2109 0.2100 0.2089 0.2079 0.2069
3254.072403 0.2058 0.2048 0.2038 0.2028 0.2018
3259.094202 0.2008 0.1997 0.1987 0.1978 0.1969
3264.116001 0.1961 0.1953 0.1944 0.1936 0.1928
3269.137800 0.1920 0.1912 0.1903 0.1895 0.1887
3274.159600 0.1879 0.1871 0.1863 0.1855 0.1847
3279.181399 0.1839 0.1831 0.1824 0.1816 0.1808
3284.203198 0.1800 0.1792 0.1784 0.1776 0.1768
3289.224997 0.1761 0.1753 0.1745 0.1737 0.1729
3294.246796 0.1722 0.1716 0.1709 0.1702 0.1695
3299.268595 0.1689 0.1682 0.1675 0.1668 0.1662
3304.290394 0.1655 0.1648 0.1641 0.1635 0.1627
3309.312193 0.1620 0.1614 0.1608 0.1602 0.1596
3314.333992 0.1590 0.1584 0.1578 0.1572 0.1566
3319.355791 0.1560 0.1554 0.1548 0.1542 0.1536
3324.377590 0.1530 0.1525 0.1518 0.1510 0.1500
3329.399389 0.1491 0.1481 0.1472 0.1462 0.1452
3334.421188 0.1441 0.1431 0.1420 0.1409 0.1398
3339.442987 0.1388 0.1378 0.1368 0.1358 0.1349
3344.464786 0.1339 0.1322 0.1304 0.1286 0.1266
3349.486585 0.1245 0.1227 0.1209 0.1192 0.1175
3354.508384 0.1163 0.1153 0.1148 0.1143 0.1139
3359.530184 0.1134 0.1129 0.1125 0.1120 0.1116
3364.551983 0.1112 0.1108 0.1104 0.1101 0.1097
3369.573782 0.1093 0.1089 0.1086 0.1082 0.1078
3374.595581 0.1074 0.1070 0.1066 0.1062 0.1058
3379.617380 0.1055 0.1052 0.1048 0.1045 0.1042
3384.639179 0.1038 0.1035 0.1032 0.1028 0.1025
3389.660978 0.1022 0.1019 0.1016 0.1013 0.1011
3394.682777 0.1008 0.1005 0.1002 0.0999 0.0996
3399.704576 0.0994 0.0992 0.0990 0.0988 0.0986
3404.726375 0.0984 0.0982 0.0980 0.0978 0.0976
3409.748174 0.0974 0.0973 0.0973 0.0973 0.0972
3414.769973 0.0972 0.0972 0.0958 0.0972 0.0972
3419.791772 0.0972 0.0972 0.0972 0.0972 0.0972
3424.813571 0.0973 0.0974 0.0976 0.0977 0.0978
3429.835370 0.0979 0.0981 0.0982 0.0983 0.0985
3434.857169 0.0986 0.0987 0.0989 0.0991 0.0993
3439.878968 0.0995 0.0997 0.1000 0.1002 0.1005
3444.900768 0.1008 0.1011 0.1014 0.1016 0.1019
3449.922567 0.1022 0.1025 0.1028 0.1031 0.1034
3454.944366 0.1038 0.1041 0.1044 0.1047 0.1050
3459.966165 0.1053 0.1056 0.1057 0.1059 0.1061
3464.987964 0.1063 0.1065 0.1067 0.1068 0.1070
3470.009763 0.1072 0.1079 0.1085 0.1092 0.1100
3475.031562 0.1108 0.1118 0.1127 0.1137 0.1150
3480.053361 0.1164 0.1178 0.1192 0.1205 0.1220
3485.075160 0.1234 0.1248 0.1263 0.1277 0.1291
3490.096959 0.1307 0.1323 0.1338 0.1352 0.1365
3495.118758 0.1379 0.1393 0.1406 0.1420 0.1433
3500.140557 0.1447 0.1461 0.1476 0.1490 0.1505
3505.162356 0.1520 0.1535 0.1551 0.1567 0.1584
3510.184155 0.1600 0.1617 0.1633 0.1650 0.1666
3515.205954 0.1684 0.1703 0.1722 0.1741 0.1760
3520.227753 0.1779 0.1797 0.1813 0.1828 0.1842
3525.249552 0.1856 0.1870 0.1885 0.1899 0.1912
3530.271352 0.1925 0.1938 0.1950 0.1963 0.1973
3535.293151 0.1983 0.1993 0.2004 0.2014 0.2024
3540.314950 0.2034 0.2044 0.2054 0.2064 0.2076
3545.336749 0.2091 0.2105 0.2119 0.2133 0.2148
3550.358548 0.2162 0.2176 0.2191 0.2205 0.2220
3555.380347 0.2234 0.2249 0.2264 0.2279 0.2294
3560.402146 0.2309 0.2324 0.2339 0.2354 0.2370
3565.423945 0.2388 0.2406 0.2424 0.2443 0.2461
3570.445744 0.2479 0.2497 0.2516 0.2536 0.2556
3575.467543 0.2575 0.2592 0.2608 0.2625 0.2642
3580.489342 0.2659 0.2673 0.2682 0.2689 0.2696
3585.511141 0.2704 0.2711 0.2718 0.2726 0.2738
3590.532940 0.2750 0.2763 0.2779 0.2805 0.2834
3595.554739 0.2863 0.2892 0.2921 0.2949 0.2973
3600.576538 0.2996 0.3019 0.3042 0.3065 0.3088
3605.598337 0.3111 0.3133 0.3156 0.3179 0.3202
3610.620136 0.3224 0.3249 0.3277 0.3304 0.3332
3615.641936 0.3360 0.3389 0.3420 0.3452 0.3484
3620.663735 0.3516 0.3547 0.3575 0.3602 0.3630
3625.685534 0.3658 0.3684 0.3704 0.3723 0.3742
3630.707333 0.3761 0.3781 0.3800 0.3820 0.3841
3635.729132 0.3867 0.3893 0.3919 0.3944 0.3966
3640.750931 0.3988 0.4009 0.4030 0.4052 0.4073
3645.772730 0.4094 0.4115 0.4137 0.4158 0.4179
3650.794529 0.4201 0.4222 0.4243 0.4263 0.4280
3655.816328 0.4299 0.4319 0.4339 0.4359 0.4379
3660.838127 0.4399 0.4419 0.4440 0.4461 0.4480
3665.859926 0.4495 0.4507 0.4519 0.4531 0.4542
3670.881725 0.4551 0.4560 0.4568 0.4574 0.4581
3675.903524 0.4587 0.4594 0.4599 0.4602 0.4603
3680.925323 0.4605 0.4606 0.4608 0.4610 0.4612
3685.947122 0.4614 0.4616 0.4618 0.4621 0.4625
3690.968921 0.4630 0.4634 0.4639 0.4645 0.4651
3695.990721 0.4657 0.4664 0.4672 0.4681 0.4689
3701.012520 0.4699 0.4710 0.4722 0.4737 0.4756
3706.034319 0.4775 0.4795 0.4816 0.4837 0.4859
3711.056118 0.4879 0.4894 0.4907 0.4917 0.4925
3716.077917 0.4932 0.4940 0.4947 0.4953 0.4959
3721.099716 0.4965 0.4971 0.4977 0.4983 0.4988
3726.121515 0.4994 0.4999 0.5004 0.5009 0.5015
3731.143314 0.5019 0.5023 0.5027 0.5031 0.5035
3736.165113 0.5039 0.5043 0.5048 0.5053 0.5058
3741.186912 0.5064 0.5070 0.5075 0.5081 0.5086
3746.208711 0.5090 0.5094 0.5098 0.5101 0.5105
3751.230510 0.5108 0.5112 0.5113 0.5113 0.5113
3756.252309 0.5114 0.5114 0.5112 0.5110 0.5107
3761.274108 0.5104 0.5101 0.5099 0.5097 0.5095
3766.295907 0.5093 0.5091 0.5089 0.5089 0.5090
3771.317706 0.5090 0.5090 0.5090 0.5091 0.5091
3776.339505 0.5092 0.5093 0.5096 0.5099 0.5101
3781.361305 0.5104 0.5106 0.5109 0.5112 0.5114
3786.383104 0.5117 0.5120 0.5122 0.5125 0.5128
3791.404903 0.5130 0.5133 0.5136 0.5138 0.5141
3796.426702 0.5144 0.5147 0.5151 0.5156 0.5160
3801.448501 0.5165 0.5169 0.5174 0.5178 0.5183
3806.470300 0.5187 0.5192 0.5199 0.5206 0.5212
3811.492099 0.5219 0.5226 0.5232 0.5239 0.5246
3816.513898 0.5252 0.5259 0.5265 0.5272 0.5278
3821.535697 0.5284 0.5289 0.5294 0.5296 0.5296
3826.557496 0.5295 0.5294 0.5293 0.5290 0.5285
3831.579295 0.5281 0.5277 0.5270 0.5263 0.5251
3836.601094 0.5237 0.5223 0.5209 0.5196 0.5182
3841.622893 0.5168 0.5155 0.5142 0.5130 0.5117
3846.644692 0.5104 0.5091 0.5080 0.5069 0.5057
3851.666491 0.5050 0.5046 0.5042 0.5037 0.5033
3856.688290 0.5028 0.5024 0.5021 0.5019 0.5017
3861.710089 0.5016 0.5014 0.5013 0.5012 0.5011
3866.731889 0.5012 0.5014 0.5016 0.5018 0.5020
3871.753688 0.5021 0.5023 0.5024 0.5026 0.5028
3876.775487 0.5029 0.5031 0.5033 0.5034 0.5035
3881.797286 0.5036 0.5037 0.5038 0.5039 0.5040
3886.819085 0.5041 0.5042 0.5044 0.5045 0.5046
3891.840884 0.5048 0.5049 0.5051 0.5052 0.5053
3896.862683 0.5055 0.5056 0.5057 0.5059 0.5060
3901.884482 0.5062 0.5062 0.5062 0.5062 0.5062
3906.906281 0.5062 0.5062 0.5062 0.5062 0.5062
3911.928080 0.5062 0.5062 0.5062 0.5062 0.5062
3916.949879 0.5062 0.5062 0.5062 0.5062 0.5062
3921.971678 0.5063 0.5063 0.5063 0.5063 0.5064
3926.993477 0.5064 0.5064 0.5064 0.5065 0.5065
3932.015276 0.5065 0.5065 0.5065 0.5066 0.5066
3937.037075 0.5066 0.5066 0.5066 0.5065 0.5065
3942.058874 0.5065 0.5064 0.5064 0.5064 0.5063
3947.080673 0.5063 0.5063 0.5062 0.5062 0.5062
3952.102473 0.5062 0.5062 0.5062 0.5061 0.5061
3957.124272 0.5061 0.5061 0.5061 0.5061 0.5061
3962.146071 0.5061 0.5061 0.5061 0.5060 0.5059
3967.167870 0.5057 0.5056 0.5054 0.5053 0.5052
3972.189669 0.5050 0.5049 0.5048 0.5044 0.5039
3977.211468 0.5035 0.5031 0.5027 0.5022 0.5018
3982.233267 0.5014 0.5013 0.5011 0.5010 0.5008
3987.255066 0.5007 0.5006 0.5004 0.5005 0.5006
3992.276865 0.5007 0.5005 0.5009 0.5010 0.5010
3997.298664 0.5010 0.5010 0.5011 0.5017 0.5023
4002.320463 0.5029 0.5035 0.5041 0.5047 0.5052
4007.342262 0.5058 0.5064 0.5070 0.5076 0.5082
4012.364061 0.5084
##END=
