##TITLE=ERYTHROMYCIN, ETHYL CARBONATE
##JCAMP-DX=4.24
$$ By DXEDIT 1.05 (RS McDonald)
##DATA TYPE=INFRARED SPECTRUM
##CLASS=COBLENTZ III
##OWNER=COBLENTZ SOC.
Collection (C) 2018 copyright by the U.S. Secretary of Commerce
on behalf of the United States of America. All rights reserved.
##DATE=1961/07/19
##MOLFORM=C40 H70 N O15
##SOURCE REFERENCE=COBLENTZ NO. 05035
##$NIST ID=B6005035
##$NIST SOURCE=COBLENTZ
##$NIST IMAGE=cob5035
##SPECTROMETER/DATA SYSTEM=PERKIN-ELMER 21 (GRATING)
##INSTRUMENT PARAMETERS=FILTER AT ABOUT 10 MICRONS
##STATE=SOLID (1 mg / 200 mg KBr DISC)
##SAMPLING PROCEDURE=TRANSMISSION
##RESOLUTION=2
##DATA PROCESSING=DIGITIZED BY COBLENTZ SOCIETY (BATCH I) FROM HARD COPY
##XUNITS=1/CM
##YUNITS=TRANSMITTANCE
##XLABEL=Wavenumbers (cm-1)
##YLABEL=Transmittance
##XFACTOR=1
##YFACTOR=1
##DELTAX=1
##FIRSTX=4000
##LASTX=665
##FIRSTY=0.7788
##MAXX=4000
##MINX=665
##MAXY=0.8484
##MINY=0.1669
##NPOINTS=3336
##XYDATA=(X++(Y..Y))
4000.000000 0.7788 0.7787 0.7786 0.7785 0.7784
3995.000000 0.7783 0.7782 0.7781 0.7780 0.7780
3990.000000 0.7778 0.7778 0.7778 0.7776 0.7776
3985.000000 0.7775 0.7775 0.7775 0.7775 0.7775
3980.000000 0.7774 0.7774 0.7772 0.7772 0.7771
3975.000000 0.7771 0.7771 0.7771 0.7769 0.7769
3970.000000 0.7768 0.7768 0.7768 0.7768 0.7767
3965.000000 0.7767 0.7765 0.7765 0.7765 0.7765
3960.000000 0.7765 0.7764 0.7764 0.7762 0.7762
3955.000000 0.7761 0.7761 0.7761 0.7761 0.7761
3950.000000 0.7761 0.7760 0.7760 0.7758 0.7758
3945.000000 0.7758 0.7758 0.7758 0.7758 0.7758
3940.000000 0.7758 0.7758 0.7758 0.7760 0.7760
3935.000000 0.7760 0.7761 0.7761 0.7761 0.7761
3930.000000 0.7762 0.7762 0.7762 0.7764 0.7764
3925.000000 0.7764 0.7765 0.7765 0.7765 0.7765
3920.000000 0.7767 0.7767 0.7768 0.7768 0.7768
3915.000000 0.7768 0.7769 0.7769 0.7771 0.7771
3910.000000 0.7771 0.7771 0.7772 0.7772 0.7774
3905.000000 0.7774 0.7775 0.7775 0.7775 0.7776
3900.000000 0.7778 0.7778 0.7778 0.7780 0.7781
3895.000000 0.7782 0.7783 0.7783 0.7784 0.7785
3890.000000 0.7786 0.7787 0.7788 0.7789 0.7790
3885.000000 0.7791 0.7791 0.7792 0.7793 0.7794
3880.000000 0.7795 0.7796 0.7797 0.7798 0.7798
3875.000000 0.7799 0.7800 0.7801 0.7801 0.7803
3870.000000 0.7803 0.7804 0.7805 0.7806 0.7807
3865.000000 0.7808 0.7808 0.7810 0.7811 0.7811
3860.000000 0.7812 0.7814 0.7815 0.7815 0.7817
3855.000000 0.7818 0.7818 0.7819 0.7821 0.7821
3850.000000 0.7822 0.7824 0.7825 0.7825 0.7826
3845.000000 0.7828 0.7828 0.7830 0.7831 0.7832
3840.000000 0.7833 0.7834 0.7835 0.7836 0.7837
3835.000000 0.7838 0.7839 0.7840 0.7841 0.7842
3830.000000 0.7843 0.7844 0.7845 0.7846 0.7847
3825.000000 0.7848 0.7849 0.7850 0.7851 0.7851
3820.000000 0.7853 0.7854 0.7854 0.7855 0.7856
3815.000000 0.7857 0.7857 0.7858 0.7858 0.7858
3810.000000 0.7860 0.7861 0.7861 0.7861 0.7862
3805.000000 0.7864 0.7865 0.7865 0.7865 0.7867
3800.000000 0.7868 0.7868 0.7868 0.7869 0.7871
3795.000000 0.7871 0.7871 0.7872 0.7872 0.7874
3790.000000 0.7874 0.7875 0.7875 0.7875 0.7875
3785.000000 0.7874 0.7874 0.7874 0.7872 0.7872
3780.000000 0.7872 0.7871 0.7871 0.7871 0.7871
3775.000000 0.7871 0.7871 0.7869 0.7869 0.7869
3770.000000 0.7868 0.7868 0.7868 0.7868 0.7865
3765.000000 0.7865 0.7865 0.7864 0.7862 0.7861
3760.000000 0.7860 0.7858 0.7858 0.7857 0.7855
3755.000000 0.7854 0.7853 0.7851 0.7850 0.7849
3750.000000 0.7848 0.7847 0.7845 0.7844 0.7843
3745.000000 0.7842 0.7840 0.7839 0.7838 0.7837
3740.000000 0.7835 0.7834 0.7833 0.7832 0.7830
3735.000000 0.7828 0.7826 0.7825 0.7824 0.7821
3730.000000 0.7819 0.7818 0.7815 0.7815 0.7812
3725.000000 0.7811 0.7808 0.7807 0.7806 0.7804
3720.000000 0.7801 0.7800 0.7799 0.7797 0.7796
3715.000000 0.7794 0.7793 0.7792 0.7792 0.7791
3710.000000 0.7790 0.7789 0.7789 0.7788 0.7788
3705.000000 0.7787 0.7787 0.7786 0.7786 0.7785
3700.000000 0.7784 0.7784 0.7783 0.7783 0.7782
3695.000000 0.7782 0.7781 0.7781 0.7780 0.7780
3690.000000 0.7780 0.7780 0.7780 0.7780 0.7780
3685.000000 0.7780 0.7780 0.7780 0.7780 0.7781
3680.000000 0.7781 0.7781 0.7781 0.7781 0.7782
3675.000000 0.7782 0.7782 0.7782 0.7782 0.7783
3670.000000 0.7783 0.7783 0.7783 0.7783 0.7783
3665.000000 0.7784 0.7784 0.7785 0.7785 0.7785
3660.000000 0.7786 0.7786 0.7786 0.7786 0.7786
3655.000000 0.7786 0.7787 0.7787 0.7787 0.7787
3650.000000 0.7787 0.7788 0.7788 0.7788 0.7788
3645.000000 0.7788 0.7788 0.7786 0.7784 0.7782
3640.000000 0.7780 0.7778 0.7775 0.7774 0.7771
3635.000000 0.7769 0.7768 0.7765 0.7764 0.7761
3630.000000 0.7760 0.7758 0.7756 0.7754 0.7751
3625.000000 0.7750 0.7748 0.7746 0.7744 0.7742
3620.000000 0.7740 0.7739 0.7737 0.7735 0.7733
3615.000000 0.7731 0.7728 0.7726 0.7725 0.7722
3610.000000 0.7719 0.7718 0.7715 0.7711 0.7707
3605.000000 0.7701 0.7696 0.7691 0.7686 0.7681
3600.000000 0.7675 0.7671 0.7665 0.7661 0.7656
3595.000000 0.7650 0.7645 0.7640 0.7635 0.7626
3590.000000 0.7618 0.7610 0.7601 0.7593 0.7583
3585.000000 0.7572 0.7562 0.7551 0.7542 0.7531
3580.000000 0.7518 0.7508 0.7496 0.7485 0.7471
3575.000000 0.7457 0.7442 0.7426 0.7411 0.7396
3570.000000 0.7376 0.7358 0.7340 0.7321 0.7298
3565.000000 0.7265 0.7234 0.7201 0.7169 0.7141
3560.000000 0.7118 0.7096 0.7072 0.7051 0.7024
3555.000000 0.6981 0.6938 0.6894 0.6851 0.6810
3550.000000 0.6781 0.6751 0.6722 0.6694 0.6665
3545.000000 0.6635 0.6606 0.6576 0.6548 0.6518
3540.000000 0.6489 0.6460 0.6431 0.6401 0.6373
3535.000000 0.6343 0.6314 0.6285 0.6256 0.6226
3530.000000 0.6197 0.6167 0.6138 0.6108 0.6079
3525.000000 0.6049 0.6020 0.5991 0.5960 0.5932
3520.000000 0.5902 0.5872 0.5843 0.5812 0.5783
3515.000000 0.5754 0.5724 0.5695 0.5665 0.5636
3510.000000 0.5606 0.5576 0.5547 0.5517 0.5487
3505.000000 0.5457 0.5427 0.5397 0.5367 0.5338
3500.000000 0.5308 0.5278 0.5248 0.5218 0.5188
3495.000000 0.5159 0.5129 0.5099 0.5069 0.5040
3490.000000 0.5012 0.4984 0.4956 0.4928 0.4916
3485.000000 0.4908 0.4900 0.4892 0.4884 0.4876
3480.000000 0.4868 0.4860 0.4852 0.4844 0.4837
3475.000000 0.4830 0.4824 0.4817 0.4810 0.4806
3470.000000 0.4801 0.4797 0.4792 0.4788 0.4784
3465.000000 0.4779 0.4775 0.4771 0.4768 0.4765
3460.000000 0.4762 0.4760 0.4757 0.4754 0.4752
3455.000000 0.4749 0.4746 0.4743 0.4743 0.4742
3450.000000 0.4741 0.4720 0.4739 0.4738 0.4738
3445.000000 0.4737 0.4736 0.4735 0.4735 0.4734
3440.000000 0.4733 0.4733 0.4732 0.4732 0.4731
3435.000000 0.4731 0.4730 0.4730 0.4730 0.4729
3430.000000 0.4729 0.4728 0.4728 0.4727 0.4727
3425.000000 0.4727 0.4728 0.4731 0.4734 0.4737
3420.000000 0.4739 0.4742 0.4745 0.4747 0.4750
3415.000000 0.4753 0.4758 0.4764 0.4769 0.4775
3410.000000 0.4781 0.4789 0.4796 0.4803 0.4810
3405.000000 0.4818 0.4826 0.4833 0.4841 0.4850
3400.000000 0.4864 0.4877 0.4891 0.4904 0.4917
3395.000000 0.4931 0.4944 0.4958 0.4971 0.4985
3390.000000 0.4999 0.5012 0.5026 0.5040 0.5055
3385.000000 0.5070 0.5084 0.5099 0.5112 0.5128
3380.000000 0.5142 0.5157 0.5171 0.5185 0.5200
3375.000000 0.5214 0.5229 0.5246 0.5265 0.5283
3370.000000 0.5301 0.5319 0.5338 0.5356 0.5374
3365.000000 0.5392 0.5410 0.5428 0.5446 0.5462
3360.000000 0.5481 0.5498 0.5515 0.5532 0.5549
3355.000000 0.5566 0.5583 0.5600 0.5617 0.5634
3350.000000 0.5651 0.5668 0.5686 0.5703 0.5721
3345.000000 0.5741 0.5760 0.5779 0.5798 0.5818
3340.000000 0.5837 0.5857 0.5876 0.5896 0.5915
3335.000000 0.5935 0.5954 0.5974 0.5994 0.6014
3330.000000 0.6034 0.6053 0.6074 0.6094 0.6115
3325.000000 0.6136 0.6156 0.6177 0.6197 0.6218
3320.000000 0.6239 0.6260 0.6281 0.6302 0.6323
3315.000000 0.6351 0.6382 0.6414 0.6445 0.6474
3310.000000 0.6496 0.6517 0.6539 0.6561 0.6574
3305.000000 0.6585 0.6597 0.6608 0.6619 0.6632
3300.000000 0.6644 0.6656 0.6667 0.6678 0.6690
3295.000000 0.6701 0.6711 0.6721 0.6731 0.6740
3290.000000 0.6749 0.6758 0.6765 0.6775 0.6784
3285.000000 0.6793 0.6801 0.6811 0.6819 0.6828
3280.000000 0.6838 0.6847 0.6856 0.6865 0.6874
3275.000000 0.6883 0.6892 0.6901 0.6908 0.6915
3270.000000 0.6922 0.6930 0.6937 0.6945 0.6951
3265.000000 0.6958 0.6965 0.6972 0.6981 0.6988
3260.000000 0.6995 0.7001 0.7008 0.7015 0.7022
3255.000000 0.7030 0.7037 0.7044 0.7051 0.7058
3250.000000 0.7065 0.7072 0.7080 0.7087 0.7093
3245.000000 0.7099 0.7105 0.7111 0.7117 0.7121
3240.000000 0.7126 0.7132 0.7137 0.7142 0.7147
3235.000000 0.7151 0.7157 0.7161 0.7167 0.7171
3230.000000 0.7176 0.7182 0.7187 0.7192 0.7198
3225.000000 0.7203 0.7208 0.7212 0.7218 0.7222
3220.000000 0.7228 0.7233 0.7238 0.7243 0.7248
3215.000000 0.7253 0.7258 0.7262 0.7268 0.7274
3210.000000 0.7278 0.7284 0.7289 0.7294 0.7299
3205.000000 0.7304 0.7308 0.7314 0.7319 0.7325
3200.000000 0.7330 0.7334 0.7339 0.7344 0.7349
3195.000000 0.7354 0.7358 0.7364 0.7368 0.7374
3190.000000 0.7378 0.7383 0.7389 0.7394 0.7399
3185.000000 0.7404 0.7408 0.7412 0.7418 0.7421
3180.000000 0.7425 0.7431 0.7435 0.7440 0.7444
3175.000000 0.7449 0.7454 0.7458 0.7462 0.7468
3170.000000 0.7471 0.7476 0.7481 0.7486 0.7490
3165.000000 0.7495 0.7499 0.7504 0.7508 0.7512
3160.000000 0.7518 0.7522 0.7526 0.7532 0.7536
3155.000000 0.7541 0.7545 0.7550 0.7554 0.7558
3150.000000 0.7564 0.7568 0.7574 0.7578 0.7584
3145.000000 0.7589 0.7594 0.7599 0.7604 0.7608
3140.000000 0.7614 0.7618 0.7624 0.7628 0.7634
3135.000000 0.7639 0.7645 0.7650 0.7655 0.7660
3130.000000 0.7665 0.7669 0.7674 0.7678 0.7683
3125.000000 0.7688 0.7691 0.7694 0.7697 0.7701
3120.000000 0.7704 0.7708 0.7711 0.7714 0.7718
3115.000000 0.7721 0.7724 0.7728 0.7731 0.7734
3110.000000 0.7737 0.7740 0.7743 0.7747 0.7750
3105.000000 0.7753 0.7754 0.7756 0.7758 0.7758
3100.000000 0.7760 0.7761 0.7761 0.7761 0.7762
3095.000000 0.7765 0.7765 0.7765 0.7767 0.7768
3090.000000 0.7768 0.7769 0.7771 0.7771 0.7772
3085.000000 0.7774 0.7775 0.7775 0.7775 0.7775
3080.000000 0.7775 0.7775 0.7775 0.7775 0.7774
3075.000000 0.7772 0.7772 0.7772 0.7772 0.7771
3070.000000 0.7771 0.7771 0.7771 0.7771 0.7771
3065.000000 0.7771 0.7771 0.7769 0.7769 0.7769
3060.000000 0.7769 0.7768 0.7765 0.7765 0.7762
3055.000000 0.7761 0.7758 0.7757 0.7754 0.7751
3050.000000 0.7750 0.7748 0.7746 0.7744 0.7742
3045.000000 0.7739 0.7737 0.7735 0.7733 0.7730
3040.000000 0.7726 0.7724 0.7721 0.7717 0.7711
3035.000000 0.7706 0.7701 0.7695 0.7689 0.7683
3030.000000 0.7678 0.7671 0.7667 0.7661 0.7651
3025.000000 0.7641 0.7628 0.7618 0.7605 0.7592
3020.000000 0.7578 0.7549 0.7486 0.7422 0.7361
3015.000000 0.7304 0.7251 0.7197 0.7144 0.7088
3010.000000 0.7032 0.6975 0.6897 0.6787 0.6676
3005.000000 0.6567 0.6496 0.6434 0.6373 0.6310
3000.000000 0.6249 0.6187 0.6125 0.6062 0.6001
2995.000000 0.5940 0.5878 0.5815 0.5753 0.5691
2990.000000 0.5629 0.5567 0.5504 0.5442 0.5380
2985.000000 0.5318 0.5256 0.5193 0.5130 0.5068
2980.000000 0.5005 0.4942 0.4880 0.4817 0.4755
2975.000000 0.4691 0.4628 0.4565 0.4503 0.4440
2970.000000 0.4377 0.4314 0.4251 0.4187 0.4124
2965.000000 0.4089 0.4073 0.4045 0.4042 0.4042
2960.000000 0.4041 0.4040 0.4039 0.4039 0.4039
2955.000000 0.4039 0.4040 0.4042 0.4044 0.4047
2950.000000 0.4050 0.4055 0.4059 0.4066 0.4074
2945.000000 0.4080 0.4095 0.4112 0.4129 0.4146
2940.000000 0.4157 0.4169 0.4181 0.4193 0.4204
2935.000000 0.4215 0.4226 0.4236 0.4246 0.4256
2930.000000 0.4264 0.4271 0.4279 0.4287 0.4295
2925.000000 0.4303 0.4310 0.4323 0.4335 0.4346
2920.000000 0.4365 0.4390 0.4414 0.4443 0.4497
2915.000000 0.4551 0.4605 0.4658 0.4710 0.4762
2910.000000 0.4806 0.4836 0.4866 0.4896 0.4922
2905.000000 0.4947 0.4973 0.4999 0.5025 0.5051
2900.000000 0.5078 0.5110 0.5144 0.5177 0.5218
2895.000000 0.5260 0.5303 0.5342 0.5378 0.5414
2890.000000 0.5448 0.5475 0.5503 0.5530 0.5560
2885.000000 0.5591 0.5622 0.5650 0.5674 0.5698
2880.000000 0.5719 0.5726 0.5733 0.5740 0.5745
2875.000000 0.5750 0.5755 0.5759 0.5762 0.5766
2870.000000 0.5769 0.5773 0.5777 0.5780 0.5787
2865.000000 0.5794 0.5801 0.5810 0.5821 0.5831
2860.000000 0.5846 0.5868 0.5890 0.5916 0.5968
2855.000000 0.6020 0.6072 0.6133 0.6196 0.6258
2850.000000 0.6312 0.6360 0.6410 0.6454 0.6490
2845.000000 0.6525 0.6561 0.6598 0.6634 0.6671
2840.000000 0.6684 0.6694 0.6704 0.6711 0.6717
2835.000000 0.6722 0.6730 0.6737 0.6743 0.6750
2830.000000 0.6758 0.6765 0.6771 0.6778 0.6784
2825.000000 0.6791 0.6796 0.6801 0.6807 0.6815
2820.000000 0.6826 0.6838 0.6850 0.6862 0.6875
2815.000000 0.6889 0.6904 0.6919 0.6937 0.6964
2810.000000 0.6991 0.7018 0.7043 0.7068 0.7093
2805.000000 0.7117 0.7141 0.7165 0.7190 0.7215
2800.000000 0.7241 0.7261 0.7278 0.7297 0.7311
2795.000000 0.7322 0.7335 0.7345 0.7351 0.7357
2790.000000 0.7361 0.7365 0.7369 0.7374 0.7378
2785.000000 0.7381 0.7385 0.7388 0.7391 0.7394
2780.000000 0.7396 0.7399 0.7401 0.7404 0.7406
2775.000000 0.7408 0.7414 0.7418 0.7425 0.7432
2770.000000 0.7440 0.7447 0.7455 0.7461 0.7469
2765.000000 0.7478 0.7492 0.7504 0.7515 0.7530
2760.000000 0.7544 0.7557 0.7569 0.7583 0.7596
2755.000000 0.7608 0.7621 0.7634 0.7647 0.7660
2750.000000 0.7672 0.7686 0.7698 0.7711 0.7721
2745.000000 0.7734 0.7746 0.7757 0.7767 0.7778
2740.000000 0.7789 0.7799 0.7810 0.7821 0.7831
2735.000000 0.7842 0.7853 0.7862 0.7874 0.7884
2730.000000 0.7893 0.7903 0.7912 0.7922 0.7933
2725.000000 0.7943 0.7953 0.7962 0.7971 0.7982
2720.000000 0.7992 0.8001 0.8010 0.8018 0.8025
2715.000000 0.8034 0.8042 0.8050 0.8058 0.8065
2710.000000 0.8071 0.8078 0.8085 0.8092 0.8098
2705.000000 0.8104 0.8111 0.8117 0.8121 0.8126
2700.000000 0.8131 0.8136 0.8140 0.8145 0.8150
2695.000000 0.8155 0.8158 0.8164 0.8168 0.8172
2690.000000 0.8178 0.8182 0.8187 0.8191 0.8195
2685.000000 0.8198 0.8198 0.8199 0.8200 0.8201
2680.000000 0.8202 0.8203 0.8204 0.8204 0.8205
2675.000000 0.8206 0.8207 0.8208 0.8209 0.8210
2670.000000 0.8211 0.8211 0.8211 0.8211 0.8211
2665.000000 0.8211 0.8211 0.8211 0.8211 0.8211
2660.000000 0.8211 0.8211 0.8211 0.8211 0.8211
2655.000000 0.8211 0.8211 0.8211 0.8211 0.8210
2650.000000 0.8210 0.8210 0.8210 0.8210 0.8210
2645.000000 0.8209 0.8209 0.8209 0.8208 0.8208
2640.000000 0.8208 0.8208 0.8208 0.8207 0.8207
2635.000000 0.8207 0.8207 0.8207 0.8207 0.8207
2630.000000 0.8207 0.8207 0.8207 0.8208 0.8209
2625.000000 0.8209 0.8210 0.8211 0.8211 0.8211
2620.000000 0.8212 0.8213 0.8213 0.8214 0.8215
2615.000000 0.8216 0.8216 0.8216 0.8217 0.8217
2610.000000 0.8218 0.8218 0.8220 0.8220 0.8221
2605.000000 0.8221 0.8221 0.8221 0.8223 0.8224
2600.000000 0.8225 0.8225 0.8225 0.8225 0.8227
2595.000000 0.8227 0.8228 0.8228 0.8230 0.8230
2590.000000 0.8232 0.8234 0.8235 0.8237 0.8238
2585.000000 0.8240 0.8241 0.8243 0.8244 0.8246
2580.000000 0.8247 0.8249 0.8250 0.8252 0.8253
2575.000000 0.8255 0.8257 0.8258 0.8260 0.8261
2570.000000 0.8263 0.8264 0.8266 0.8268 0.8270
2565.000000 0.8271 0.8273 0.8274 0.8275 0.8277
2560.000000 0.8278 0.8280 0.8282 0.8283 0.8285
2555.000000 0.8286 0.8288 0.8289 0.8291 0.8293
2550.000000 0.8294 0.8296 0.8297 0.8299 0.8301
2545.000000 0.8303 0.8304 0.8306 0.8307 0.8309
2540.000000 0.8311 0.8312 0.8314 0.8315 0.8317
2535.000000 0.8318 0.8320 0.8321 0.8323 0.8324
2530.000000 0.8325 0.8327 0.8328 0.8328 0.8331
2525.000000 0.8332 0.8333 0.8335 0.8337 0.8338
2520.000000 0.8340 0.8341 0.8342 0.8343 0.8345
2515.000000 0.8347 0.8348 0.8350 0.8351 0.8352
2510.000000 0.8354 0.8355 0.8357 0.8358 0.8359
2505.000000 0.8361 0.8362 0.8364 0.8365 0.8367
2500.000000 0.8368 0.8370 0.8371 0.8371 0.8373
2495.000000 0.8375 0.8375 0.8375 0.8377 0.8378
2490.000000 0.8378 0.8378 0.8380 0.8381 0.8382
2485.000000 0.8383 0.8383 0.8384 0.8385 0.8386
2480.000000 0.8387 0.8388 0.8389 0.8390 0.8391
2475.000000 0.8392 0.8393 0.8393 0.8394 0.8395
2470.000000 0.8396 0.8397 0.8397 0.8399 0.8400
2465.000000 0.8401 0.8402 0.8403 0.8403 0.8404
2460.000000 0.8405 0.8407 0.8408 0.8409 0.8409
2455.000000 0.8410 0.8411 0.8412 0.8413 0.8413
2450.000000 0.8414 0.8415 0.8416 0.8417 0.8418
2445.000000 0.8418 0.8418 0.8420 0.8421 0.8421
2440.000000 0.8423 0.8424 0.8424 0.8425 0.8425
2435.000000 0.8428 0.8428 0.8430 0.8430 0.8431
2430.000000 0.8432 0.8433 0.8434 0.8435 0.8436
2425.000000 0.8436 0.8437 0.8438 0.8439 0.8440
2420.000000 0.8442 0.8442 0.8443 0.8444 0.8445
2415.000000 0.8446 0.8447 0.8448 0.8448 0.8449
2410.000000 0.8450 0.8451 0.8452 0.8453 0.8454
2405.000000 0.8454 0.8454 0.8453 0.8451 0.8450
2400.000000 0.8448 0.8446 0.8445 0.8444 0.8442
2395.000000 0.8440 0.8438 0.8437 0.8435 0.8434
2390.000000 0.8432 0.8431 0.8430 0.8428 0.8425
2385.000000 0.8425 0.8424 0.8421 0.8420 0.8418
2380.000000 0.8417 0.8416 0.8415 0.8413 0.8412
2375.000000 0.8410 0.8408 0.8407 0.8406 0.8404
2370.000000 0.8403 0.8401 0.8400 0.8398 0.8397
2365.000000 0.8395 0.8393 0.8392 0.8390 0.8389
2360.000000 0.8388 0.8386 0.8385 0.8383 0.8381
2355.000000 0.8380 0.8378 0.8377 0.8375 0.8373
2350.000000 0.8371 0.8371 0.8368 0.8368 0.8367
2345.000000 0.8365 0.8363 0.8361 0.8360 0.8359
2340.000000 0.8357 0.8356 0.8355 0.8353 0.8352
2335.000000 0.8351 0.8349 0.8348 0.8346 0.8345
2330.000000 0.8344 0.8344 0.8344 0.8345 0.8346
2325.000000 0.8347 0.8349 0.8350 0.8351 0.8352
2320.000000 0.8353 0.8354 0.8355 0.8356 0.8357
2315.000000 0.8358 0.8360 0.8361 0.8362 0.8363
2310.000000 0.8364 0.8366 0.8367 0.8368 0.8371
2305.000000 0.8373 0.8375 0.8377 0.8380 0.8382
2300.000000 0.8384 0.8386 0.8388 0.8390 0.8393
2295.000000 0.8395 0.8397 0.8400 0.8402 0.8404
2290.000000 0.8406 0.8408 0.8411 0.8413 0.8414
2285.000000 0.8416 0.8417 0.8418 0.8420 0.8421
2280.000000 0.8423 0.8424 0.8425 0.8427 0.8428
2275.000000 0.8430 0.8432 0.8433 0.8435 0.8437
2270.000000 0.8438 0.8440 0.8441 0.8443 0.8444
2265.000000 0.8446 0.8447 0.8449 0.8450 0.8452
2260.000000 0.8453 0.8455 0.8456 0.8457 0.8459
2255.000000 0.8460 0.8462 0.8463 0.8465 0.8466
2250.000000 0.8467 0.8468 0.8468 0.8470 0.8471
2245.000000 0.8471 0.8473 0.8474 0.8475 0.8475
2240.000000 0.8477 0.8477 0.8478 0.8478 0.8480
2235.000000 0.8481 0.8482 0.8482 0.8482 0.8482
2230.000000 0.8482 0.8482 0.8482 0.8482 0.8483
2225.000000 0.8483 0.8483 0.8483 0.8483 0.8483
2220.000000 0.8483 0.8483 0.8484 0.8484 0.8484
2215.000000 0.8484 0.8484 0.8484 0.8484 0.8484
2210.000000 0.8483 0.8483 0.8483 0.8483 0.8482
2205.000000 0.8482 0.8481 0.8481 0.8481 0.8481
2200.000000 0.8480 0.8480 0.8480 0.8480 0.8478
2195.000000 0.8478 0.8478 0.8478 0.8478 0.8477
2190.000000 0.8477 0.8477 0.8477 0.8475 0.8475
2185.000000 0.8475 0.8475 0.8475 0.8475 0.8475
2180.000000 0.8475 0.8475 0.8475 0.8475 0.8475
2175.000000 0.8475 0.8475 0.8474 0.8474 0.8474
2170.000000 0.8474 0.8474 0.8473 0.8473 0.8473
2165.000000 0.8473 0.8473 0.8473 0.8473 0.8473
2160.000000 0.8471 0.8471 0.8471 0.8471 0.8471
2155.000000 0.8471 0.8471 0.8471 0.8471 0.8470
2150.000000 0.8470 0.8468 0.8468 0.8468 0.8468
2145.000000 0.8468 0.8468 0.8468 0.8467 0.8467
2140.000000 0.8466 0.8466 0.8466 0.8466 0.8465
2135.000000 0.8465 0.8465 0.8464 0.8464 0.8463
2130.000000 0.8463 0.8463 0.8463 0.8463 0.8463
2125.000000 0.8463 0.8463 0.8463 0.8463 0.8463
2120.000000 0.8463 0.8463 0.8463 0.8463 0.8463
2115.000000 0.8463 0.8463 0.8463 0.8463 0.8463
2110.000000 0.8463 0.8463 0.8463 0.8463 0.8462
2105.000000 0.8462 0.8462 0.8462 0.8462 0.8462
2100.000000 0.8462 0.8462 0.8462 0.8462 0.8462
2095.000000 0.8461 0.8461 0.8460 0.8460 0.8460
2090.000000 0.8459 0.8459 0.8458 0.8458 0.8457
2085.000000 0.8456 0.8456 0.8455 0.8455 0.8454
2080.000000 0.8454 0.8453 0.8452 0.8452 0.8451
2075.000000 0.8451 0.8450 0.8450 0.8449 0.8448
2070.000000 0.8448 0.8448 0.8448 0.8447 0.8446
2065.000000 0.8446 0.8445 0.8445 0.8444 0.8443
2060.000000 0.8443 0.8442 0.8442 0.8441 0.8441
2055.000000 0.8440 0.8439 0.8439 0.8438 0.8438
2050.000000 0.8437 0.8437 0.8437 0.8436 0.8436
2045.000000 0.8435 0.8434 0.8434 0.8433 0.8433
2040.000000 0.8432 0.8432 0.8432 0.8431 0.8431
2035.000000 0.8430 0.8428 0.8428 0.8428 0.8428
2030.000000 0.8427 0.8425 0.8425 0.8425 0.8425
2025.000000 0.8425 0.8424 0.8424 0.8423 0.8421
2020.000000 0.8421 0.8421 0.8421 0.8420 0.8420
2015.000000 0.8420 0.8420 0.8420 0.8420 0.8420
2010.000000 0.8420 0.8420 0.8420 0.8420 0.8420
2005.000000 0.8420 0.8420 0.8420 0.8420 0.8420
2000.000000 0.8420 0.8420 0.8420 0.8420 0.8420
1995.000000 0.8420 0.8420 0.8421 0.8421 0.8421
1990.000000 0.8421 0.8421 0.8421 0.8421 0.8421
1985.000000 0.8421 0.8421 0.8421 0.8421 0.8421
1980.000000 0.8421 0.8421 0.8421 0.8421 0.8421
1975.000000 0.8421 0.8421 0.8421 0.8421 0.8421
1970.000000 0.8421 0.8421 0.8423 0.8423 0.8424
1965.000000 0.8424 0.8424 0.8425 0.8425 0.8425
1960.000000 0.8425 0.8425 0.8425 0.8427 0.8427
1955.000000 0.8427 0.8428 0.8428 0.8428 0.8428
1950.000000 0.8430 0.8430 0.8430 0.8431 0.8431
1945.000000 0.8431 0.8432 0.8432 0.8432 0.8432
1940.000000 0.8433 0.8433 0.8433 0.8434 0.8435
1935.000000 0.8435 0.8435 0.8436 0.8436 0.8436
1930.000000 0.8437 0.8437 0.8437 0.8437 0.8436
1925.000000 0.8436 0.8436 0.8436 0.8436 0.8436
1920.000000 0.8436 0.8436 0.8435 0.8435 0.8435
1915.000000 0.8435 0.8435 0.8435 0.8435 0.8434
1910.000000 0.8434 0.8434 0.8434 0.8434 0.8434
1905.000000 0.8434 0.8433 0.8433 0.8433 0.8433
1900.000000 0.8433 0.8433 0.8433 0.8433 0.8433
1895.000000 0.8432 0.8432 0.8432 0.8432 0.8432
1890.000000 0.8432 0.8432 0.8431 0.8431 0.8428
1885.000000 0.8428 0.8428 0.8427 0.8425 0.8425
1880.000000 0.8424 0.8423 0.8421 0.8421 0.8420
1875.000000 0.8418 0.8418 0.8418 0.8417 0.8416
1870.000000 0.8415 0.8414 0.8413 0.8412 0.8411
1865.000000 0.8410 0.8409 0.8409 0.8407 0.8406
1860.000000 0.8405 0.8404 0.8402 0.8401 0.8401
1855.000000 0.8399 0.8398 0.8397 0.8396 0.8394
1850.000000 0.8393 0.8392 0.8391 0.8390 0.8389
1845.000000 0.8387 0.8386 0.8385 0.8384 0.8383
1840.000000 0.8382 0.8381 0.8378 0.8378 0.8375
1835.000000 0.8373 0.8371 0.8368 0.8367 0.8364
1830.000000 0.8362 0.8360 0.8358 0.8355 0.8353
1825.000000 0.8351 0.8349 0.8346 0.8344 0.8342
1820.000000 0.8340 0.8337 0.8335 0.8333 0.8331
1815.000000 0.8328 0.8327 0.8325 0.8320 0.8316
1810.000000 0.8312 0.8309 0.8305 0.8300 0.8296
1805.000000 0.8292 0.8288 0.8285 0.8281 0.8277
1800.000000 0.8271 0.8268 0.8264 0.8259 0.8252
1795.000000 0.8245 0.8238 0.8231 0.8224 0.8217
1790.000000 0.8210 0.8204 0.8197 0.8190 0.8175
1785.000000 0.8154 0.8131 0.8108 0.8085 0.8054
1780.000000 0.8018 0.7980 0.7928 0.7740 0.7668
1775.000000 0.7619 0.7571 0.7519 0.7468 0.7411
1770.000000 0.7337 0.7211 0.6999 0.6864 0.6608
1765.000000 0.6317 0.6026 0.5735 0.5443 0.5151
1760.000000 0.4859 0.4566 0.4273 0.3980 0.3686
1755.000000 0.3548 0.3516 0.3497 0.3486 0.3468
1750.000000 0.3468 0.3468 0.3468 0.3498 0.3528
1745.000000 0.3555 0.3580 0.3608 0.3637 0.3672
1740.000000 0.3706 0.3757 0.3814 0.3882 0.3968
1735.000000 0.4060 0.4186 0.4312 0.4432 0.4542
1730.000000 0.4650 0.4756 0.4840 0.4922 0.5012
1725.000000 0.5120 0.5238 0.5306 0.5357 0.5407
1720.000000 0.5457 0.5494 0.5512 0.5530 0.5548
1715.000000 0.5566 0.5579 0.5588 0.5596 0.5604
1710.000000 0.5610 0.5620 0.5629 0.5639 0.5649
1705.000000 0.5660 0.5669 0.5679 0.5688 0.5697
1700.000000 0.5724 0.5760 0.5804 0.5855 0.5922
1695.000000 0.5988 0.6052 0.6116 0.6180 0.6249
1690.000000 0.6337 0.6451 0.6574 0.6861 0.6958
1685.000000 0.7035 0.7110 0.7180 0.7246 0.7311
1680.000000 0.7368 0.7405 0.7441 0.7478 0.7517
1675.000000 0.7556 0.7595 0.7634 0.7669 0.7705
1670.000000 0.7740 0.7771 0.7799 0.7825 0.7851
1665.000000 0.7876 0.7899 0.7914 0.7922 0.7933
1660.000000 0.7943 0.7951 0.7958 0.7958 0.7960
1655.000000 0.7958 0.7958 0.7957 0.7953 0.7941
1650.000000 0.7928 0.7915 0.7901 0.7889 0.7875
1645.000000 0.7862 0.7849 0.7836 0.7822 0.7811
1640.000000 0.7799 0.7787 0.7775 0.7764 0.7754
1635.000000 0.7747 0.7745 0.7742 0.7739 0.7735
1630.000000 0.7732 0.7731 0.7730 0.7739 0.7738
1625.000000 0.7738 0.7741 0.7744 0.7750 0.7760
1620.000000 0.7769 0.7778 0.7789 0.7799 0.7808
1615.000000 0.7818 0.7831 0.7844 0.7858 0.7871
1610.000000 0.7886 0.7899 0.7912 0.7926 0.7941
1605.000000 0.7954 0.7968 0.7982 0.7995 0.8005
1600.000000 0.8015 0.8025 0.8035 0.8045 0.8056
1595.000000 0.8065 0.8075 0.8086 0.8096 0.8106
1590.000000 0.8115 0.8125 0.8133 0.8138 0.8144
1585.000000 0.8149 0.8154 0.8160 0.8165 0.8169
1580.000000 0.8172 0.8175 0.8175 0.8178 0.8180
1575.000000 0.8182 0.8184 0.8185 0.8187 0.8189
1570.000000 0.8190 0.8192 0.8193 0.8195 0.8196
1565.000000 0.8197 0.8199 0.8200 0.8201 0.8202
1560.000000 0.8202 0.8203 0.8204 0.8205 0.8206
1555.000000 0.8207 0.8208 0.8208 0.8208 0.8207
1550.000000 0.8207 0.8206 0.8205 0.8204 0.8204
1545.000000 0.8203 0.8202 0.8202 0.8201 0.8200
1540.000000 0.8198 0.8197 0.8196 0.8194 0.8192
1535.000000 0.8191 0.8221 0.8188 0.8187 0.8186
1530.000000 0.8184 0.8182 0.8178 0.8174 0.8168
1525.000000 0.8164 0.8158 0.8155 0.8150 0.8145
1520.000000 0.8141 0.8135 0.8131 0.8126 0.8121
1515.000000 0.8117 0.8111 0.8103 0.8093 0.8082
1510.000000 0.8071 0.8061 0.8050 0.8039 0.8028
1505.000000 0.8017 0.8007 0.7995 0.7978 0.7958
1500.000000 0.7938 0.7917 0.7896 0.7875 0.7854
1495.000000 0.7833 0.7805 0.7764 0.7724 0.7683
1490.000000 0.7643 0.7591 0.7486 0.7384 0.7291
1485.000000 0.7205 0.7138 0.7078 0.7017 0.6886
1480.000000 0.6750 0.6612 0.6475 0.6339 0.6201
1475.000000 0.6065 0.5927 0.5790 0.5651 0.5512
1470.000000 0.5375 0.5236 0.5098 0.4964 0.4901
1465.000000 0.4869 0.4843 0.4818 0.4803 0.4781
1460.000000 0.4790 0.4795 0.4808 0.4823 0.4841
1455.000000 0.4862 0.4901 0.4951 0.4996 0.5039
1450.000000 0.5105 0.5205 0.5304 0.5403 0.5502
1445.000000 0.5601 0.5701 0.5800 0.5900 0.6000
1440.000000 0.6100 0.6200 0.6300 0.6401 0.6501
1435.000000 0.6601 0.6703 0.6804 0.6889 0.6911
1430.000000 0.6968 0.6937 0.6947 0.6942 0.6930
1425.000000 0.6911 0.6885 0.6857 0.6825 0.6788
1420.000000 0.6751 0.6696 0.6618 0.6539 0.6460
1415.000000 0.6381 0.6297 0.6191 0.6085 0.6007
1410.000000 0.5950 0.5895 0.5839 0.5766 0.5687
1405.000000 0.5637 0.5605 0.5585 0.5566 0.5547
1400.000000 0.5531 0.5516 0.5500 0.5482 0.5449
1395.000000 0.5410 0.5374 0.5335 0.5280 0.5219
1390.000000 0.5137 0.5031 0.4886 0.4749 0.4639
1385.000000 0.4482 0.4352 0.4276 0.4203 0.4130
1380.000000 0.4059 0.3989 0.3900 0.3852 0.3838
1375.000000 0.3823 0.3823 0.3823 0.3822 0.3822
1370.000000 0.3866 0.3995 0.4132 0.4270 0.4408
1365.000000 0.4547 0.4685 0.4824 0.4962 0.5133
1360.000000 0.5272 0.5349 0.5327 0.5329 0.5330
1355.000000 0.5314 0.5290 0.5265 0.5231 0.5087
1350.000000 0.4976 0.4905 0.4862 0.4862 0.4857
1345.000000 0.4858 0.4870 0.4882 0.4907 0.4947
1340.000000 0.4989 0.5031 0.5080 0.5141 0.5203
1335.000000 0.5260 0.5314 0.5368 0.5424 0.5483
1330.000000 0.5537 0.5575 0.5610 0.5646 0.5669
1325.000000 0.5691 0.5707 0.5720 0.5727 0.5729
1320.000000 0.5731 0.5719 0.5712 0.5714 0.5720
1315.000000 0.5730 0.5742 0.5760 0.5779 0.5798
1310.000000 0.5816 0.5830 0.5843 0.5844 0.5837
1305.000000 0.5826 0.5803 0.5781 0.5688 0.5570
1300.000000 0.5437 0.5299 0.5164 0.5053 0.4987
1295.000000 0.4922 0.4872 0.4833 0.4815 0.4802
1290.000000 0.4802 0.4802 0.4803 0.4807 0.4806
1285.000000 0.4806 0.4804 0.4801 0.4796 0.4743
1280.000000 0.4681 0.4607 0.4506 0.4362 0.4198
1275.000000 0.4034 0.3870 0.3706 0.3541 0.3376
1270.000000 0.3210 0.3046 0.2880 0.2714 0.2548
1265.000000 0.2381 0.2215 0.2046 0.1879 0.1759
1260.000000 0.1712 0.1690 0.1669 0.1675 0.1690
1255.000000 0.1743 0.1845 0.1950 0.2037 0.2130
1250.000000 0.2311 0.2471 0.2699 0.2931 0.3164
1245.000000 0.3396 0.3630 0.3862 0.4097 0.4318
1240.000000 0.4520 0.4762 0.5032 0.5220 0.5389
1235.000000 0.5578 0.5855 0.6031 0.6195 0.6338
1230.000000 0.6461 0.6540 0.6601 0.6662 0.6728
1225.000000 0.6796 0.6853 0.6903 0.6949 0.6969
1220.000000 0.6987 0.6997 0.7007 0.7015 0.7018
1215.000000 0.7018 0.7010 0.6993 0.6975 0.6951
1210.000000 0.6921 0.6891 0.6835 0.6761 0.6686
1205.000000 0.6608 0.6525 0.6433 0.6338 0.6225
1200.000000 0.6081 0.5896 0.5672 0.5475 0.5316
1195.000000 0.5169 0.5067 0.4972 0.4884 0.4809
1190.000000 0.4735 0.4660 0.4595 0.4534 0.4473
1185.000000 0.4412 0.4345 0.4264 0.4182 0.4100
1180.000000 0.4012 0.3922 0.3832 0.3741 0.3614
1175.000000 0.3487 0.3384 0.3288 0.3199 0.3114
1170.000000 0.3024 0.2884 0.2782 0.2757 0.2766
1165.000000 0.2770 0.2799 0.2855 0.2999 0.3142
1160.000000 0.3273 0.3402 0.3532 0.3664 0.3816
1155.000000 0.4012 0.4162 0.4303 0.4444 0.4586
1150.000000 0.4731 0.4873 0.4996 0.5065 0.5106
1145.000000 0.5124 0.5143 0.5157 0.5167 0.5207
1140.000000 0.5183 0.5188 0.5189 0.5182 0.5148
1135.000000 0.5080 0.4999 0.4893 0.4785 0.4550
1130.000000 0.4384 0.4269 0.4189 0.4124 0.4080
1125.000000 0.4048 0.4032 0.4028 0.4027 0.4027
1120.000000 0.4006 0.4012 0.3996 0.3944 0.3873
1115.000000 0.3814 0.3764 0.3724 0.3687 0.3657
1110.000000 0.3632 0.3649 0.3666 0.3692 0.3725
1105.000000 0.3758 0.3789 0.3816 0.3841 0.3864
1100.000000 0.3877 0.3888 0.3907 0.3878 0.3852
1095.000000 0.3821 0.3789 0.3755 0.3718 0.3684
1090.000000 0.3659 0.3634 0.3610 0.3593 0.3600
1085.000000 0.3614 0.3647 0.3690 0.3747 0.3806
1080.000000 0.3866 0.3912 0.3937 0.3959 0.3959
1075.000000 0.3959 0.3954 0.3936 0.3886 0.3830
1070.000000 0.3758 0.3664 0.3555 0.3450 0.3343
1065.000000 0.3237 0.3131 0.3024 0.2917 0.2810
1060.000000 0.2703 0.2595 0.2488 0.2382 0.2324
1055.000000 0.2262 0.2287 0.2293 0.2332 0.2427
1050.000000 0.2527 0.2626 0.2725 0.2827 0.2930
1045.000000 0.3034 0.3137 0.3224 0.3300 0.3368
1040.000000 0.3397 0.3409 0.3409 0.3409 0.3409
1035.000000 0.3409 0.3420 0.3482 0.3600 0.3739
1030.000000 0.3884 0.4012 0.4139 0.4276 0.4397
1025.000000 0.4474 0.4473 0.4492 0.4445 0.4362
1020.000000 0.4227 0.4007 0.3680 0.3478 0.3162
1015.000000 0.3000 0.2909 0.2872 0.2890 0.2881
1010.000000 0.2922 0.3000 0.3097 0.3170 0.3216
1005.000000 0.3238 0.3258 0.3264 0.3273 0.3286
1000.000000 0.3318 0.3384 0.3472 0.3609 0.3797
995.000000 0.3982 0.4124 0.4269 0.4420 0.4577
990.000000 0.4686 0.4748 0.4796 0.4829 0.4862
985.000000 0.4901 0.4939 0.4979 0.5051 0.5136
980.000000 0.5258 0.5320 0.5370 0.5417 0.5434
975.000000 0.5447 0.5462 0.5476 0.5493 0.5517
970.000000 0.5557 0.5599 0.5631 0.5654 0.5657
965.000000 0.5633 0.5622 0.5594 0.5572 0.5562
960.000000 0.5493 0.5539 0.5544 0.5609 0.5681
955.000000 0.5756 0.5862 0.5971 0.6083 0.6189
950.000000 0.6265 0.6343 0.6511 0.6628 0.6707
945.000000 0.6739 0.6751 0.6762 0.6775 0.6789
940.000000 0.6804 0.6818 0.6839 0.6867 0.6897
935.000000 0.6956 0.7017 0.7082 0.7161 0.7228
930.000000 0.7287 0.7344 0.7396 0.7441 0.7488
925.000000 0.7537 0.7565 0.7582 0.7615 0.7593
920.000000 0.7575 0.7555 0.7517 0.7467 0.7418
915.000000 0.7372 0.7325 0.7278 0.7228 0.7174
910.000000 0.7121 0.7092 0.7092 0.7080 0.7061
905.000000 0.7031 0.7000 0.6964 0.6925 0.6889
900.000000 0.6854 0.6818 0.6778 0.6732 0.6683
895.000000 0.6621 0.6585 0.6553 0.6558 0.6657
890.000000 0.6744 0.6818 0.6880 0.6942 0.7015
885.000000 0.7098 0.7180 0.7278 0.7381 0.7480
880.000000 0.7565 0.7648 0.7715 0.7751 0.7782
875.000000 0.7812 0.7840 0.7865 0.7931 0.7910
870.000000 0.7914 0.7892 0.7869 0.7834 0.7795
865.000000 0.7767 0.7739 0.7722 0.7719 0.7714
860.000000 0.7732 0.7772 0.7837 0.7951 0.8030
855.000000 0.8101 0.8161 0.8228 0.8198 0.8188
850.000000 0.8161 0.8118 0.8128 0.8125 0.8095
845.000000 0.8058 0.7983 0.7857 0.7880 0.7855
840.000000 0.7854 0.7871 0.7889 0.7896 0.7895
835.000000 0.7886 0.7875 0.7861 0.7865 0.7891
830.000000 0.7940 0.7999 0.8043 0.8068 0.8103
825.000000 0.8144 0.8185 0.8208 0.8221 0.8236
820.000000 0.8247 0.8258 0.8268 0.8277 0.8280
815.000000 0.8296 0.8290 0.8290 0.8290 0.8285
810.000000 0.8267 0.8241 0.8211 0.8176 0.8135
805.000000 0.8108 0.8098 0.8101 0.8118 0.8145
800.000000 0.8175 0.8182 0.8189 0.8195 0.8248
795.000000 0.8192 0.8186 0.8175 0.8157 0.8115
790.000000 0.8050 0.7878 0.7668 0.7460 0.7251
785.000000 0.7132 0.7128 0.7115 0.7178 0.7326
780.000000 0.7460 0.7551 0.7632 0.7696 0.7765
775.000000 0.7832 0.7888 0.7924 0.7944 0.7994
770.000000 0.8068 0.8134 0.8178 0.8217 0.8246
765.000000 0.8267 0.8280 0.8284 0.8286 0.8274
760.000000 0.8262 0.8251 0.8241 0.8231 0.8218
755.000000 0.8204 0.8188 0.8168 0.8149 0.8132
750.000000 0.8119 0.8137 0.8153 0.8169 0.8187
745.000000 0.8204 0.8217 0.8221 0.8223 0.8218
740.000000 0.8180 0.8156 0.8137 0.8124 0.8110
735.000000 0.8071 0.8033 0.8012 0.8011 0.7999
730.000000 0.7985 0.7965 0.7953 0.7972 0.8010
725.000000 0.8048 0.8075 0.8095 0.8115 0.8134
720.000000 0.8148 0.8158 0.8168 0.8178 0.8188
715.000000 0.8196 0.8199 0.8202 0.8205 0.8204
710.000000 0.8204 0.8201 0.8194 0.8181 0.8165
705.000000 0.8145 0.8124 0.8093 0.8057 0.8018
700.000000 0.7995 0.7972 0.7971 0.7971 0.7987
695.000000 0.8008 0.8030 0.8053 0.8069 0.8080
690.000000 0.8091 0.8101 0.8108 0.8114 0.8118
685.000000 0.8122 0.8128 0.8131 0.8133 0.8136
680.000000 0.8138 0.8140 0.8142 0.8144 0.8139
675.000000 0.8125 0.8111 0.8095 0.8068 0.8041
670.000000 0.8024 0.8018 0.8018 0.8018 0.8014
665.000000 0.8000
##END=
