##TITLE=BIS(5-NITROIMIDAZOLE-4-CARBOXAMIDO)ETHYLENE
##JCAMP-DX=4.24
##DATA TYPE=INFRARED SPECTRUM
##CLASS=COBLENTZ III
##ORIGIN=SOUTHERN RESEARCH INSTITUTE
##OWNER=COBLENTZ SOCIETY
Collection (C) 2018 copyright by the U.S. Secretary of Commerce
on behalf of the United States of America. All rights reserved.
##DATE=1962/05/14
##NAMES=5-nitro-N-(2-([(5-nitro-1H-imidazol-4-yl)carbonyl]amino)ethyl)-1H-imidazole-4-carboxamide
##MOLFORM=C10 H10 N8 O6
##SOURCE REFERENCE=COBLENTZ NO. 8325
##$NIST ID=B6008325
##$NIST SOURCE=COBLENTZ
##$NIST IMAGE=cob8325
##SPECTROMETER/DATA SYSTEM=PERKIN-ELMER 221 (GRATING)
##INSTRUMENT PARAMETERS=FILTER AT 2490, 980 CM^-^1. GRATING 4000-1428 CM^-^1, NaCl PRISM 1428-650 CM^-^1
##STATE=SOLID (1.0 mg / 650 mg KBr DISC)
$$ PURITY - ANALYTICAL
##SAMPLING PROCEDURE=TRANSMISSION
##RESOLUTION=2
##DATA PROCESSING=DIGITIZED BY NIST FROM HARD COPY (FROM TWO SEGMENTS)
##XUNITS=1/CM
##YUNITS=TRANSMITTANCE
##XFACTOR=1.000000
##YFACTOR=1
##DELTAX=1.319044
##FIRSTX=640
##LASTX=4028.62
##FIRSTY=0.524
##MAXX=4028.62
##MINX=640
##MAXY=0.93
##MINY=0.006
##NPOINTS=2570
##XYDATA=(X++(Y..Y))
640.000000 0.5240 0.4904 0.4578 0.4252 0.3887
646.595220 0.3512 0.3462 0.3478 0.3571 0.3822
653.190440 0.4680 0.5044 0.5480 0.5686 0.5837
659.785660 0.5952 0.6143 0.6496 0.6706 0.6858
666.380880 0.7015 0.7251 0.7401 0.7520 0.7631
672.976100 0.7733 0.7824 0.7906 0.7992 0.8068
679.571320 0.8185 0.8297 0.8369 0.8416 0.8449
686.166540 0.8466 0.8488 0.8506 0.8528 0.8551
692.761760 0.8583 0.8622 0.8645 0.8666 0.8685
699.356980 0.8705 0.8725 0.8740 0.8755 0.8760
705.952200 0.8760 0.8765 0.8770 0.8770 0.8770
712.547420 0.8770 0.8770 0.8770 0.8770 0.8770
719.142640 0.8770 0.8770 0.8767 0.8760 0.8757
725.737860 0.8741 0.8711 0.8676 0.8629 0.8587
732.333080 0.8538 0.8486 0.8431 0.8394 0.8362
738.928300 0.8315 0.8245 0.8213 0.8172 0.8117
745.523520 0.8020 0.7860 0.7623 0.7336 0.7207
752.118740 0.7087 0.7061 0.7094 0.7317 0.7467
758.713960 0.7644 0.7791 0.7851 0.7890 0.7890
765.309180 0.7880 0.7880 0.7851 0.7831 0.7811
771.904400 0.7801 0.7800 0.7800 0.7800 0.7826
778.499620 0.7900 0.7944 0.7992 0.8134 0.8168
785.094840 0.8170 0.8170 0.8170 0.8162 0.8144
791.690060 0.8132 0.8122 0.8098 0.8083 0.8058
798.285280 0.8029 0.8013 0.7989 0.7966 0.7940
804.880500 0.7904 0.7877 0.7845 0.7805 0.7766
811.475720 0.7726 0.7680 0.7625 0.7503 0.7065
818.070940 0.6417 0.5759 0.5102 0.4445 0.4105
824.666160 0.4105 0.4377 0.4822 0.5378 0.6295
831.261380 0.6992 0.7124 0.7130 0.7130 0.7130
837.856600 0.7134 0.7140 0.7140 0.7147 0.7160
844.451820 0.7160 0.7160 0.7160 0.7160 0.7154
851.047040 0.7123 0.7072 0.7039 0.7005 0.6976
857.642260 0.6916 0.6855 0.6779 0.6675 0.6541
864.237480 0.6390 0.6271 0.6162 0.6093 0.5890
870.832700 0.5592 0.5242 0.4610 0.4608 0.4596
877.427920 0.4674 0.4733 0.4792 0.4831 0.4860
884.023140 0.4870 0.4870 0.4870 0.4870 0.4899
890.618360 0.5646 0.5680 0.5887 0.6095 0.6496
897.213580 0.6721 0.6928 0.7507 0.7615 0.7654
903.808800 0.7745 0.7819 0.7872 0.7872 0.7870
910.404020 0.7854 0.7834 0.7814 0.7795 0.7767
916.999240 0.7656 0.7532 0.7413 0.7344 0.7288
923.594460 0.7201 0.7109 0.7000 0.6881 0.6756
930.189680 0.6621 0.6508 0.6414 0.6252 0.6026
936.784900 0.5772 0.5568 0.5410 0.5142 0.4872
943.380120 0.4669 0.4317 0.3963 0.3579 0.3035
949.975340 0.2487 0.1943 0.1636 0.1877 0.2636
956.570560 0.3588 0.4433 0.5185 0.5737 0.6214
963.165780 0.6752 0.7056 0.7409 0.7574 0.7722
969.761000 0.7848 0.7966 0.8132 0.8373 0.8488
976.356220 0.8513 0.8528 0.8557 0.8585 0.8607
982.951440 0.8634 0.8656 0.8686 0.8712 0.8725
989.546660 0.8756 0.8790 0.8791 0.8800 0.8800
996.141880 0.8800 0.8800 0.8800 0.8800 0.8800
1002.737100 0.8800 0.8800 0.8800 0.8810 0.8800
1009.332320 0.8790 0.8770 0.8751 0.8721 0.8691
1015.927540 0.8681 0.8652 0.8641 0.8631 0.8630
1022.522760 0.8630 0.8630 0.8621 0.8603 0.8600
1029.117980 0.8600 0.8600 0.8600 0.8600 0.8600
1035.713200 0.8616 0.8658 0.8678 0.8680 0.8680
1042.308420 0.8680 0.8680 0.8680 0.8680 0.8680
1048.903640 0.8680 0.8673 0.8670 0.8657 0.8644
1055.498860 0.8634 0.8624 0.8608 0.8600 0.8594
1062.094080 0.8590 0.8590 0.8585 0.8569 0.8560
1068.689300 0.8539 0.8495 0.8445 0.8396 0.8342
1075.284520 0.8273 0.8208 0.8154 0.8052 0.7863
1081.879740 0.7620 0.7400 0.7256 0.7062 0.6775
1088.474960 0.6541 0.6396 0.6091 0.5664 0.5658
1095.070180 0.5777 0.5982 0.6324 0.6838 0.7223
1101.665400 0.7647 0.7670 0.7677 0.7704 0.7726
1108.260620 0.7752 0.7760 0.7758 0.7747 0.7729
1114.855840 0.7719 0.7709 0.7698 0.7679 0.7667
1121.451060 0.7640 0.7639 0.7630 0.7629 0.7619
1128.046280 0.7590 0.7580 0.7580 0.7560 0.7560
1134.641500 0.7560 0.7560 0.7560 0.7560 0.7560
1141.236720 0.7560 0.7578 0.7580 0.7589 0.7616
1147.831940 0.7655 0.7677 0.7705 0.7718 0.7745
1154.427160 0.7766 0.7802 0.7826 0.7838 0.7832
1161.022380 0.7830 0.7838 0.7833 0.7830 0.7830
1167.617600 0.7830 0.7830 0.7830 0.7830 0.7817
1174.212820 0.7810 0.7810 0.7810 0.7804 0.7794
1180.808040 0.7778 0.7758 0.7756 0.7743 0.7713
1187.403260 0.7661 0.7587 0.7502 0.7403 0.7325
1193.998480 0.7270 0.7182 0.7059 0.6926 0.6791
1200.593700 0.6658 0.6524 0.6421 0.6355 0.6264
1207.188920 0.6141 0.6039 0.5937 0.5852 0.5779
1213.784140 0.5726 0.5690 0.5670 0.5664 0.5650
1220.379360 0.5653 0.5660 0.5652 0.5610 0.5531
1226.974580 0.5431 0.5258 0.5071 0.4887 0.4733
1233.569800 0.4641 0.4508 0.4234 0.3876 0.3627
1240.165020 0.3358 0.3020 0.2654 0.2199 0.1748
1246.760240 0.1347 0.1150 0.0969 0.0982 0.2026
1253.355460 0.2896 0.3273 0.3816 0.3977 0.4931
1259.950680 0.5755 0.6386 0.6626 0.6788 0.6882
1266.545900 0.6890 0.6908 0.6910 0.6805 0.6583
1273.141120 0.6354 0.5707 0.5507 0.5392 0.5274
1279.736340 0.5042 0.4792 0.4569 0.4344 0.4131
1286.331560 0.3924 0.3804 0.3701 0.3521 0.3446
1292.926780 0.3426 0.3413 0.3410 0.3403 0.3400
1299.522000 0.3381 0.3307 0.3196 0.3084 0.2951
1306.117220 0.2674 0.2307 0.2037 0.1884 0.1770
1312.712440 0.1598 0.1371 0.1138 0.0985 0.0921
1319.307660 0.0847 0.0791 0.0894 0.1142 0.1389
1325.902880 0.1737 0.2123 0.2570 0.3125 0.3486
1332.498100 0.3895 0.4131 0.4543 0.4993 0.4947
1339.093320 0.4876 0.4756 0.4647 0.4464 0.4212
1345.688540 0.3816 0.3344 0.2759 0.2475 0.2209
1352.283760 0.1982 0.1727 0.1378 0.1134 0.1042
1358.878980 0.0921 0.0732 0.0569 0.0561 0.0640
1365.474200 0.1224 0.1584 0.2286 0.2975 0.3360
1372.069420 0.4069 0.4723 0.5047 0.5615 0.5861
1378.664640 0.6079 0.6404 0.6828 0.6850 0.6850
1385.259860 0.6850 0.6850 0.6850 0.6850 0.6841
1391.855080 0.6654 0.6542 0.6470 0.6400 0.6138
1398.450300 0.5750 0.5531 0.5353 0.4982 0.4876
1405.045520 0.4847 0.4832 0.4807 0.4793 0.4533
1411.640740 0.4180 0.3757 0.3311 0.3180 0.3159
1418.235960 0.3130 0.3107 0.3080 0.3051 0.3034
1424.831180 0.2925 0.2756 0.2564 0.2403 0.2240
1431.426400 0.2064 0.1962 0.1913 0.1789 0.1653
1438.021620 0.1610 0.1645 0.1710 0.1861 0.2042
1444.616840 0.2187 0.2371 0.2492 0.2562 0.2698
1451.212060 0.2958 0.3223 0.3329 0.3409 0.3455
1457.807280 0.3487 0.3500 0.3497 0.3449 0.3308
1464.402500 0.3175 0.3072 0.2875 0.2780 0.2610
1470.997720 0.2291 0.2052 0.1805 0.1545 0.1294
1477.592940 0.1272 0.1324 0.1599 0.1959 0.2135
1484.188160 0.2308 0.2522 0.2811 0.2819 0.2810
1490.783380 0.2810 0.2809 0.2787 0.2744 0.2613
1497.378600 0.1998 0.1612 0.1229 0.1051 0.0853
1503.973820 0.0529 0.0116 0.0090 0.0071 0.0061
1510.569040 0.0060 0.0060 0.0177 0.0234 0.0293
1517.164260 0.0369 0.0431 0.0508 0.0596 0.0676
1523.759480 0.0764 0.0844 0.0892 0.0908 0.0925
1530.354700 0.0930 0.0930 0.0937 0.0940 0.0947
1536.949920 0.0964 0.0977 0.0987 0.1003 0.1010
1543.545140 0.1062 0.1135 0.1230 0.1370 0.1528
1550.140360 0.1692 0.2132 0.2517 0.2758 0.3337
1556.735580 0.3813 0.3969 0.4125 0.4376 0.4550
1563.330800 0.4570 0.4555 0.4540 0.4517 0.4378
1569.926020 0.4078 0.3785 0.3582 0.3312 0.2992
1576.521240 0.2814 0.2771 0.2663 0.2526 0.2523
1583.116460 0.2573 0.2727 0.2920 0.3082 0.3262
1589.711680 0.3542 0.3947 0.4267 0.4722 0.4971
1596.306900 0.5273 0.5672 0.5864 0.6028 0.6160
1602.902120 0.6285 0.6445 0.6418 0.6407 0.6387
1609.497340 0.6364 0.6314 0.6255 0.6205 0.6154
1616.092560 0.6085 0.6006 0.5927 0.5856 0.5747
1622.687780 0.5629 0.5510 0.5451 0.5371 0.5215
1629.283000 0.5037 0.4840 0.4633 0.4509 0.4390
1635.878220 0.4146 0.3880 0.3718 0.3560 0.3246
1642.473440 0.2884 0.2746 0.2639 0.2415 0.2185
1649.068660 0.2045 0.1918 0.1697 0.1456 0.1210
1655.663880 0.1105 0.1046 0.0987 0.0771 0.0487
1662.259100 0.0304 0.0246 0.0240 0.0240 0.0253
1668.854320 0.0311 0.0353 0.0409 0.0512 0.0566
1675.449540 0.0582 0.0596 0.0606 0.0632 0.0661
1682.044760 0.0947 0.1325 0.1715 0.2099 0.2657
1688.639980 0.3115 0.3406 0.3884 0.4330 0.5033
1695.235200 0.5572 0.5715 0.5804 0.5875 0.5983
1701.830420 0.6213 0.6524 0.6692 0.6837 0.6966
1708.425640 0.7072 0.7164 0.7291 0.7488 0.7579
1715.020860 0.7638 0.7665 0.7689 0.7738 0.7816
1721.616080 0.7883 0.7938 0.7979 0.8027 0.8067
1728.211300 0.8106 0.8153 0.8235 0.8275 0.8315
1734.806520 0.8352 0.8371 0.8381 0.8391 0.8402
1741.401740 0.8441 0.8470 0.8480 0.8500 0.8500
1747.996960 0.8510 0.8510 0.8510 0.8520 0.8520
1754.592180 0.8520 0.8520 0.8520 0.8520 0.8520
1761.187400 0.8520 0.8520 0.8511 0.8519 0.8512
1767.782620 0.8502 0.8500 0.8476 0.8462 0.8436
1774.377840 0.8407 0.8392 0.8390 0.8390 0.8390
1780.973060 0.8390 0.8390 0.8390 0.8390 0.8390
1787.568280 0.8390 0.8390 0.8390 0.8390 0.8396
1794.163500 0.8394 0.8390 0.8396 0.8400 0.8400
1800.758720 0.8400 0.8394 0.8385 0.8364 0.8345
1807.353940 0.8325 0.8305 0.8295 0.8261 0.8221
1813.949160 0.8196 0.8171 0.8147 0.8126 0.8120
1820.544380 0.8120 0.8112 0.8100 0.8096 0.8086
1827.139600 0.8080 0.8080 0.8073 0.8060 0.8060
1833.734820 0.8060 0.8060 0.8057 0.8050 0.8047
1840.330040 0.8040 0.8033 0.8010 0.8008 0.8000
1846.925260 0.7996 0.7980 0.7978 0.7970 0.7969
1853.520480 0.7960 0.7959 0.7948 0.7928 0.7907
1860.115700 0.7878 0.7849 0.7840 0.7840 0.7830
1866.710920 0.7829 0.7810 0.7810 0.7810 0.7810
1873.306140 0.7810 0.7829 0.7830 0.7839 0.7840
1879.901360 0.7849 0.7850 0.7868 0.7870 0.7879
1886.496580 0.7880 0.7889 0.7890 0.7907 0.7918
1893.091800 0.7920 0.7928 0.7930 0.7946 0.7958
1899.687020 0.7960 0.7967 0.7970 0.7977 0.7994
1906.282240 0.8007 0.8017 0.8034 0.8047 0.8057
1912.877460 0.8073 0.8086 0.8096 0.8112 0.8126
1919.472680 0.8136 0.8152 0.8166 0.8176 0.8197
1926.067900 0.8215 0.8225 0.8246 0.8265 0.8280
1932.663120 0.8295 0.8305 0.8319 0.8335 0.8354
1939.258340 0.8374 0.8384 0.8394 0.8408 0.8424
1945.853560 0.8434 0.8448 0.8464 0.8474 0.8487
1952.448780 0.8503 0.8513 0.8526 0.8543 0.8553
1959.044000 0.8566 0.8580 0.8583 0.8592 0.8605
1965.639220 0.8622 0.8632 0.8642 0.8654 0.8672
1972.234440 0.8680 0.8682 0.8693 0.8711 0.8721
1978.829660 0.8732 0.8752 0.8772 0.8790 0.8791
1985.424880 0.8811 0.8831 0.8840 0.8850 0.8860
1992.020100 0.8880 0.8890 0.8920 0.8930 0.8940
1998.615320 0.8959 0.8970 0.8980 0.8999 0.9009
2005.210540 0.9038 0.9049 0.9059 0.9079 0.9099
2011.805760 0.9128 0.9130 0.9130 0.9139 0.9140
2018.400980 0.9149 0.9150 0.9150 0.9169 0.9170
2024.996200 0.9179 0.9180 0.9180 0.9189 0.9190
2031.591420 0.9209 0.9210 0.9210 0.9219 0.9220
2038.186640 0.9229 0.9230 0.9230 0.9249 0.9250
2044.781860 0.9259 0.9260 0.9269 0.9270 0.9270
2051.377080 0.9270 0.9270 0.9270 0.9270 0.9270
2057.972300 0.9270 0.9289 0.9290 0.9290 0.9290
2064.567520 0.9290 0.9290 0.9290 0.9290 0.9290
2071.162740 0.9290 0.9290 0.9290 0.9290 0.9290
2077.757960 0.9290 0.9290 0.9290 0.9290 0.9290
2084.353180 0.9290 0.9290 0.9290 0.9299 0.9300
2090.948400 0.9300 0.9300 0.9300 0.9291 0.9290
2097.543620 0.9290 0.9290 0.9290 0.9290 0.9290
2104.138840 0.9271 0.9270 0.9270 0.9270 0.9270
2110.734060 0.9261 0.9260 0.9260 0.9260 0.9260
2117.329280 0.9260 0.9260 0.9260 0.9251 0.9250
2123.924500 0.9250 0.9250 0.9250 0.9250 0.9250
2130.519720 0.9231 0.9230 0.9230 0.9230 0.9230
2137.114940 0.9230 0.9230 0.9230 0.9230 0.9230
2143.710160 0.9230 0.9230 0.9230 0.9249 0.9250
2150.305380 0.9250 0.9250 0.9250 0.9250 0.9250
2156.900600 0.9250 0.9250 0.9231 0.9230 0.9221
2163.495820 0.9220 0.9211 0.9191 0.9181 0.9152
2170.091040 0.9150 0.9150 0.9141 0.9140 0.9140
2176.686260 0.9131 0.9111 0.9110 0.9110 0.9110
2183.281480 0.9101 0.9100 0.9100 0.9100 0.9091
2189.876700 0.9090 0.9090 0.9081 0.9080 0.9061
2196.471920 0.9079 0.9080 0.9080 0.9080 0.9080
2203.067140 0.9080 0.9080 0.9080 0.9080 0.9080
2209.662360 0.9080 0.9080 0.9080 0.9061 0.9060
2216.257580 0.9051 0.9022 0.9020 0.9011 0.9010
2222.852800 0.9001 0.8981 0.8980 0.8971 0.8970
2229.448020 0.8961 0.8941 0.8940 0.8931 0.8930
2236.043240 0.8921 0.8901 0.8900 0.8881 0.8880
2242.638460 0.8861 0.8860 0.8851 0.8850 0.8841
2249.233680 0.8840 0.8831 0.8811 0.8810 0.8801
2255.828900 0.8791 0.8771 0.8770 0.8761 0.8751
2262.424120 0.8731 0.8711 0.8710 0.8710 0.8691
2269.019340 0.8690 0.8681 0.8680 0.8671 0.8670
2275.614560 0.8651 0.8640 0.8630 0.8621 0.8601
2282.209780 0.8591 0.8581 0.8561 0.8551 0.8522
2288.805000 0.8501 0.8481 0.8471 0.8461 0.8441
2295.400220 0.8431 0.8421 0.8401 0.8391 0.8381
2301.995440 0.8371 0.8370 0.8351 0.8341 0.8340
2308.590660 0.8331 0.8330 0.8302 0.8272 0.8251
2315.185880 0.8222 0.8210 0.8210 0.8191 0.8181
2321.781100 0.8180 0.8171 0.8170 0.8161 0.8141
2328.376320 0.8131 0.8130 0.8102 0.8081 0.8052
2334.971540 0.8022 0.8001 0.7972 0.7961 0.7951
2341.566760 0.7950 0.7912 0.7853 0.7831 0.7811
2348.161980 0.7791 0.7771 0.7770 0.7761 0.7732
2354.757200 0.7711 0.7672 0.7642 0.7602 0.7553
2361.352420 0.7512 0.7463 0.7413 0.7391 0.7371
2367.947640 0.7342 0.7311 0.7300 0.7291 0.7252
2374.542860 0.7222 0.7211 0.7182 0.7171 0.7142
2381.138080 0.7131 0.7130 0.7121 0.7120 0.7120
2387.733300 0.7101 0.7091 0.7090 0.7090 0.7090
2394.328520 0.7081 0.7080 0.7080 0.7080 0.7080
2400.923740 0.7080 0.7080 0.7080 0.7061 0.7051
2407.518960 0.7050 0.7031 0.7011 0.6972 0.6951
2414.114180 0.6931 0.6930 0.6911 0.6891 0.6890
2420.709400 0.6871 0.6813 0.6753 0.6741 0.6712
2427.304620 0.6701 0.6700 0.6681 0.6671 0.6642
2433.899840 0.6631 0.6620 0.6601 0.6591 0.6581
2440.495060 0.6571 0.6532 0.6492 0.6452 0.6412
2447.090280 0.6382 0.6361 0.6322 0.6282 0.6242
2453.685500 0.6212 0.6172 0.6142 0.6112 0.6082
2460.280720 0.6071 0.6070 0.6070 0.6070 0.6070
2466.875940 0.6079 0.6071 0.6070 0.6070 0.6070
2473.471160 0.6070 0.6051 0.6050 0.6041 0.6040
2480.066380 0.6031 0.6011 0.6001 0.6000 0.5991
2486.661600 0.5971 0.5960 0.5950 0.5922 0.5901
2493.256820 0.5862 0.5803 0.5791 0.5762 0.5741
2499.852040 0.5683 0.5652 0.5593 0.5543 0.5502
2506.447260 0.5491 0.5471 0.5451 0.5365 0.5218
2513.042480 0.5134 0.5111 0.5110 0.5091 0.5081
2519.637700 0.5071 0.5051 0.5050 0.5041 0.5040
2526.232920 0.5040 0.5031 0.5030 0.5030 0.5030
2532.828140 0.5011 0.5010 0.4991 0.4981 0.4961
2539.423360 0.4951 0.4921 0.4920 0.4844 0.4793
2546.018580 0.4781 0.4771 0.4742 0.4712 0.4663
2552.613800 0.4613 0.4610 0.4591 0.4571 0.4551
2559.209020 0.4522 0.4482 0.4404 0.4286 0.4271
2565.804240 0.4270 0.4251 0.4250 0.4241 0.4231
2572.399460 0.4230 0.4230 0.4230 0.4230 0.4230
2578.994680 0.4230 0.4230 0.4230 0.4239 0.4249
2585.589900 0.4269 0.4270 0.4270 0.4270 0.4270
2592.185120 0.4270 0.4270 0.4270 0.4270 0.4270
2598.780340 0.4270 0.4270 0.4251 0.4231 0.4192
2605.375560 0.4152 0.4112 0.4082 0.4042 0.4002
2611.970780 0.3953 0.3912 0.3872 0.3832 0.3792
2618.566000 0.3743 0.3711 0.3710 0.3701 0.3700
2625.161220 0.3691 0.3690 0.3690 0.3690 0.3671
2631.756440 0.3698 0.3710 0.3729 0.3730 0.3739
2638.351660 0.3749 0.3769 0.3770 0.3779 0.3808
2644.946880 0.3848 0.3898 0.3947 0.3997 0.4057
2651.542100 0.4069 0.4089 0.4118 0.4120 0.4120
2658.137320 0.4129 0.4130 0.4130 0.4130 0.4130
2664.732540 0.4130 0.4111 0.4082 0.4071 0.4061
2671.327760 0.4032 0.4021 0.3992 0.3924 0.3863
2677.922980 0.3851 0.3831 0.3830 0.3821 0.3811
2684.518200 0.3782 0.3771 0.3742 0.3712 0.3701
2691.113420 0.3691 0.3652 0.3622 0.3601 0.3581
2697.708640 0.3571 0.3570 0.3570 0.3570 0.3570
2704.303860 0.3561 0.3560 0.3560 0.3560 0.3560
2710.899080 0.3560 0.3560 0.3560 0.3560 0.3560
2717.494300 0.3541 0.3540 0.3540 0.3540 0.3559
2724.089520 0.3560 0.3560 0.3560 0.3560 0.3560
2730.684740 0.3560 0.3560 0.3569 0.3570 0.3561
2737.279960 0.3560 0.3560 0.3560 0.3541 0.3531
2743.875180 0.3521 0.3501 0.3491 0.3481 0.3480
2750.470400 0.3442 0.3412 0.3401 0.3353 0.3274
2757.065620 0.3128 0.3120 0.3111 0.3101 0.3081
2763.660840 0.3071 0.3041 0.3021 0.3020 0.3001
2770.256060 0.3000 0.2981 0.2980 0.2980 0.2961
2776.851280 0.2960 0.2951 0.2941 0.2940 0.2940
2783.446500 0.2940 0.2940 0.2940 0.2931 0.2930
2790.041720 0.2930 0.2930 0.2930 0.2930 0.2930
2796.636940 0.2939 0.2940 0.2940 0.2940 0.2949
2803.232160 0.2950 0.2950 0.2950 0.2959 0.2960
2809.827380 0.2960 0.2979 0.2989 0.2999 0.3019
2816.422600 0.3020 0.3020 0.3039 0.3059 0.3079
2823.017820 0.3099 0.3109 0.3138 0.3149 0.3178
2829.613040 0.3189 0.3209 0.3267 0.3346 0.3407
2836.208260 0.3419 0.3515 0.3690 0.3804 0.3829
2842.803480 0.3896 0.3976 0.4037 0.4116 0.4186
2849.398700 0.4209 0.4229 0.4239 0.4249 0.4250
2855.993920 0.4250 0.4250 0.4250 0.4250 0.4241
2862.589140 0.4212 0.4125 0.4073 0.4032 0.3992
2869.184360 0.3943 0.3864 0.3756 0.3665 0.3575
2875.779580 0.3570 0.3466 0.3337 0.3207 0.3124
2882.374800 0.3111 0.3110 0.3110 0.3110 0.3110
2888.970020 0.3110 0.3110 0.3101 0.3100 0.3100
2895.565240 0.3100 0.3110 0.3110 0.3110 0.3110
2902.160460 0.3110 0.3119 0.3139 0.3149 0.3150
2908.755680 0.3159 0.3179 0.3180 0.3189 0.3190
2915.350900 0.3199 0.3200 0.3209 0.3229 0.3230
2921.946120 0.3249 0.3269 0.3279 0.3289 0.3309
2928.541340 0.3329 0.3358 0.3398 0.3438 0.3478
2935.136560 0.3480 0.3594 0.3619 0.3724 0.3787
2941.731780 0.3818 0.3829 0.3849 0.3859 0.3869
2948.327000 0.3870 0.3880 0.3899 0.3909 0.3938
2954.922220 0.3940 0.3940 0.3949 0.3950 0.3950
2961.517440 0.3950 0.3950 0.3941 0.3912 0.3882
2968.112660 0.3871 0.3861 0.3851 0.3822 0.3792
2974.707880 0.3771 0.3770 0.3770 0.3779 0.3780
2981.303100 0.3780 0.3789 0.3790 0.3790 0.3809
2987.898320 0.3810 0.3820 0.3811 0.3819 0.3820
2994.493540 0.3820 0.3820 0.3820 0.3811 0.3810
3001.088760 0.3791 0.3790 0.3790 0.3790 0.3790
3007.683980 0.3790 0.3790 0.3790 0.3790 0.3790
3014.279200 0.3790 0.3790 0.3781 0.3789 0.3809
3020.874420 0.3810 0.3810 0.3819 0.3896 0.3976
3027.469640 0.4056 0.4117 0.4167 0.4227 0.4277
3034.064860 0.4318 0.4358 0.4398 0.4438 0.4459
3040.660080 0.4488 0.4500 0.4529 0.4540 0.4568
3047.255300 0.4579 0.4608 0.4619 0.4648 0.4659
3053.850520 0.4688 0.4699 0.4709 0.4729 0.4739
3060.445740 0.4749 0.4750 0.4750 0.4750 0.4750
3067.040960 0.4769 0.4779 0.4789 0.4799 0.4819
3073.636180 0.4820 0.4829 0.4830 0.4858 0.4869
3080.231400 0.4870 0.4870 0.4898 0.4919 0.4977
3086.826620 0.5046 0.5069 0.5117 0.5148 0.5159
3093.421840 0.5169 0.5189 0.5200 0.5209 0.5238
3100.017060 0.5240 0.5249 0.5259 0.5260 0.5279
3106.612280 0.5289 0.5290 0.5318 0.5329 0.5358
3113.207500 0.5369 0.5379 0.5418 0.5420 0.5439
3119.802720 0.5440 0.5440 0.5440 0.5440 0.5440
3126.397940 0.5440 0.5440 0.5440 0.5440 0.5440
3132.993160 0.5440 0.5440 0.5440 0.5421 0.5411
3139.588380 0.5410 0.5401 0.5381 0.5371 0.5370
3146.183600 0.5342 0.5330 0.5292 0.5262 0.5222
3152.778820 0.5201 0.5134 0.5045 0.4955 0.4865
3159.374040 0.4784 0.4742 0.4731 0.4739 0.4854
3165.969260 0.4983 0.5104 0.5233 0.5354 0.5559
3172.564480 0.5665 0.5775 0.5865 0.5955 0.6064
3179.159700 0.6155 0.6245 0.6326 0.6377 0.6408
3185.754920 0.6429 0.6449 0.6469 0.6489 0.6499
3192.350140 0.6509 0.6510 0.6529 0.6539 0.6549
3198.945360 0.6550 0.6569 0.6570 0.6570 0.6570
3205.540580 0.6570 0.6570 0.6570 0.6570 0.6570
3212.135800 0.6570 0.6570 0.6570 0.6570 0.6570
3218.731020 0.6570 0.6570 0.6570 0.6570 0.6570
3225.326240 0.6570 0.6570 0.6570 0.6551 0.6550
3231.921460 0.6541 0.6512 0.6491 0.6490 0.6471
3238.516680 0.6470 0.6470 0.6470 0.6461 0.6460
3245.111900 0.6460 0.6460 0.6451 0.6450 0.6431
3251.707120 0.6430 0.6430 0.6430 0.6430 0.6430
3258.302340 0.6421 0.6420 0.6411 0.6391 0.6371
3264.897560 0.6332 0.6292 0.6281 0.6261 0.6241
3271.492780 0.6221 0.6239 0.6221 0.6211 0.6201
3278.088000 0.6181 0.6170 0.6141 0.6131 0.6121
3284.683220 0.6092 0.6081 0.6033 0.6002 0.5972
3291.278440 0.5961 0.5922 0.5873 0.5832 0.5792
3297.873660 0.5724 0.5635 0.5554 0.5512 0.5472
3304.468880 0.5442 0.5402 0.5305 0.5262 0.5251
3311.064100 0.5174 0.5113 0.5034 0.4964 0.4884
3317.659320 0.4757 0.4636 0.4583 0.4533 0.4426
3324.254540 0.4316 0.4206 0.4096 0.4024 0.3992
3330.849760 0.3829 0.3753 0.3693 0.3538 0.3359
3337.444980 0.3160 0.2970 0.2875 0.2775 0.2590
3344.040200 0.2410 0.2267 0.2146 0.2064 0.2013
3350.635420 0.1944 0.1864 0.1851 0.1850 0.1850
3357.230640 0.1926 0.1939 0.1969 0.2017 0.2077
3363.825860 0.2175 0.2265 0.2365 0.2474 0.2575
3370.421080 0.2684 0.2861 0.2946 0.2997 0.3104
3377.016300 0.3195 0.3285 0.3394 0.3485 0.3698
3383.611520 0.3805 0.3905 0.4014 0.4105 0.4205
3390.206740 0.4305 0.4395 0.4495 0.4680 0.4775
3396.801960 0.4856 0.4936 0.5026 0.5106 0.5167
3403.397180 0.5246 0.5316 0.5367 0.5436 0.5525
3409.992400 0.5568 0.5627 0.5677 0.5718 0.5758
3416.587620 0.5798 0.5838 0.5878 0.5908 0.5948
3423.182840 0.5988 0.6028 0.6049 0.6107 0.6129
3429.778060 0.6139 0.6168 0.6179 0.6208 0.6248
3436.373280 0.6259 0.6279 0.6290 0.6299 0.6328
3442.968500 0.6339 0.6359 0.6407 0.6419 0.6448
3449.563720 0.6459 0.6489 0.6500 0.6528 0.6549
3456.158940 0.6569 0.6589 0.6599 0.6619 0.6629
3462.754160 0.6630 0.6640 0.6659 0.6670 0.6679
3469.349380 0.6699 0.6709 0.6719 0.6739 0.6749
3475.944600 0.6759 0.6779 0.6790 0.6799 0.6800
3482.539820 0.6809 0.6829 0.6849 0.6869 0.6870
3489.135040 0.6879 0.6880 0.6880 0.6880 0.6880
3495.730260 0.6880 0.6889 0.6909 0.6919 0.6929
3502.325480 0.6930 0.6959 0.6960 0.6969 0.6989
3508.920700 0.7009 0.7038 0.7059 0.7088 0.7099
3515.515920 0.7128 0.7159 0.7179 0.7208 0.7219
3522.111140 0.7248 0.7269 0.7308 0.7329 0.7349
3528.706360 0.7369 0.7380 0.7390 0.7390 0.7409
3535.301580 0.7410 0.7419 0.7420 0.7429 0.7430
3541.896800 0.7430 0.7449 0.7450 0.7469 0.7489
3548.492020 0.7499 0.7509 0.7519 0.7539 0.7559
3555.087240 0.7579 0.7590 0.7600 0.7619 0.7629
3561.682460 0.7630 0.7658 0.7679 0.7708 0.7729
3568.277680 0.7758 0.7789 0.7800 0.7828 0.7849
3574.872900 0.7878 0.7889 0.7918 0.7948 0.7959
3581.468120 0.7979 0.8009 0.8020 0.8048 0.8059
3588.063340 0.8088 0.8099 0.8128 0.8158 0.8226
3594.658560 0.8258 0.8289 0.8309 0.8329 0.8339
3601.253780 0.8349 0.8369 0.8379 0.8389 0.8399
3607.849000 0.8419 0.8430 0.8440 0.8459 0.8469
3614.444220 0.8498 0.8509 0.8519 0.8548 0.8559
3621.039440 0.8598 0.8629 0.8668 0.8689 0.8709
3627.634660 0.8719 0.8729 0.8768 0.8770 0.8789
3634.229880 0.8799 0.8829 0.8849 0.8878 0.8889
3640.825100 0.8918 0.8939 0.8940 0.8959 0.8969
3647.420320 0.8979 0.8999 0.9000 0.9010 0.9019
3654.015540 0.9020 0.9039 0.9040 0.9040 0.9049
3660.610760 0.9050 0.9050 0.9060 0.9060 0.9060
3667.205980 0.9079 0.9080 0.9089 0.9090 0.9090
3673.801200 0.9099 0.9100 0.9100 0.9110 0.9110
3680.396420 0.9110 0.9110 0.9110 0.9110 0.9110
3686.991640 0.9110 0.9110 0.9110 0.9110 0.9110
3693.586860 0.9110 0.9110 0.9129 0.9130 0.9130
3700.182080 0.9130 0.9130 0.9130 0.9130 0.9130
3706.777300 0.9130 0.9130 0.9130 0.9130 0.9130
3713.372520 0.9130 0.9130 0.9130 0.9130 0.9130
3719.967740 0.9130 0.9130 0.9130 0.9130 0.9130
3726.562960 0.9130 0.9130 0.9130 0.9130 0.9130
3733.158180 0.9130 0.9130 0.9130 0.9130 0.9130
3739.753400 0.9130 0.9130 0.9130 0.9130 0.9130
3746.348620 0.9130 0.9130 0.9130 0.9130 0.9130
3752.943840 0.9130 0.9130 0.9130 0.9130 0.9130
3759.539060 0.9130 0.9130 0.9130 0.9130 0.9130
3766.134280 0.9130 0.9130 0.9130 0.9130 0.9130
3772.729500 0.9130 0.9130 0.9130 0.9130 0.9130
3779.324720 0.9130 0.9130 0.9130 0.9130 0.9130
3785.919940 0.9130 0.9130 0.9130 0.9130 0.9130
3792.515160 0.9130 0.9130 0.9130 0.9130 0.9130
3799.110380 0.9130 0.9130 0.9130 0.9139 0.9140
3805.705600 0.9131 0.9130 0.9130 0.9130 0.9130
3812.300820 0.9130 0.9130 0.9130 0.9130 0.9111
3818.896040 0.9110 0.9110 0.9110 0.9110 0.9110
3825.491260 0.9110 0.9110 0.9110 0.9110 0.9110
3832.086480 0.9101 0.9100 0.9100 0.9091 0.9062
3838.681700 0.9060 0.9060 0.9060 0.9051 0.9050
3845.276920 0.9050 0.9041 0.9040 0.9040 0.9040
3851.872140 0.9021 0.9020 0.9020 0.9011 0.9010
3858.467360 0.9001 0.9000 0.9000 0.9000 0.9000
3865.062580 0.9000 0.9000 0.9000 0.9000 0.9000
3871.657800 0.9000 0.9000 0.9000 0.9000 0.9000
3878.253020 0.8981 0.8980 0.8980 0.8980 0.8971
3884.848240 0.8970 0.8970 0.8970 0.8970 0.8970
3891.443460 0.8970 0.8970 0.8970 0.8970 0.8970
3898.038680 0.8970 0.8970 0.8970 0.8970 0.8970
3904.633900 0.8970 0.8970 0.8970 0.8970 0.8970
3911.229120 0.8979 0.8980 0.8980 0.8980 0.8980
3917.824340 0.8980 0.8980 0.8980 0.8980 0.8980
3924.419560 0.8980 0.8980 0.8980 0.8980 0.8980
3931.014780 0.8971 0.8970 0.8970 0.8970 0.8970
3937.610000 0.8970 0.8970 0.8961 0.8960 0.8960
3944.205220 0.8960 0.8960 0.8960 0.8941 0.8940
3950.800440 0.8940 0.8940 0.8940 0.8940 0.8940
3957.395660 0.8940 0.8940 0.8940 0.8940 0.8940
3963.990880 0.8940 0.8940 0.8931 0.8930 0.8930
3970.586100 0.8930 0.8930 0.8930 0.8930 0.8930
3977.181320 0.8930 0.8930 0.8930 0.8930 0.8930
3983.776540 0.8930 0.8930 0.8930 0.8930 0.8930
3990.371760 0.8930 0.8930 0.8930 0.8930 0.8930
3996.966980 0.8930 0.8930 0.8930 0.8930 0.8930
4003.562200 0.8930 0.8930 0.8930 0.8930 0.8930
4010.157420 0.8930 0.8930 0.8930 0.8930 0.8930
4016.752640 0.8930 0.8930 0.8930 0.8930 0.8930
4023.347860 0.8930 0.8930 0.8930 0.8930 0.8930
##END=
