##TITLE=ISOBUTYRIC ACID, Alpha-CHLORO-2,4-DICHLORO PHENYL ESTER
##JCAMP-DX=4.24
##DATA TYPE=INFRARED SPECTRUM
##CLASS=COBLENTZ
##ORIGIN=DOW CHEMICAL COMPANY
##OWNER=COBLENTZ SOCIETY
Collection (C) 2018 copyright by the U.S. Secretary of Commerce
on behalf of the United States of America. All rights reserved.
##DATE=Not specified, most likely prior to 1970
##NAMES=3,4-dichlorophenyl 2-chloro-2-methylpropanoate
##MOLFORM=C10 H9 Cl3 O2
##SOURCE REFERENCE=COBLENTZ NO. 1978
##$NIST ID=B6001978
##$NIST SOURCE=COBLENTZ
##$NIST IMAGE=cob1978
##SPECTROMETER/DATA SYSTEM=Not specified, most likely a prism, grating, or hybrid spectrometer.
##STATE=SOLUTION (10% CCl4 FOR 5000-1330, 10% CS2 FOR 1330-625 CM^-^1)
##PATH LENGTH=0.0120 CM, 0.0115 CM
$$SPECTRAL CONTAMINATION DUE TO CCl4 AROUND 1550 CM^-^1
##SAMPLING PROCEDURE=TRANSMISSION
##RESOLUTION=4
##DATA PROCESSING=DIGITIZED BY NIST FROM HARD COPY
##XUNITS=MICROMETERS
##YUNITS=TRANSMITTANCE
##XFACTOR=1.000000
##YFACTOR=1
##DELTAX=000.006849
##FIRSTX=2.062
##LASTX=15.829
##FIRSTY=0.902
##MAXX=15.829
##MINX=2.062
##MAXY=0.941
##MINY=0.03
##NPOINTS=2011
##XYDATA=(X++(Y..Y))
2.062000 0.9020 0.9020 0.9020 0.9020 0.9020
2.096264 0.9020 0.9020 0.9000 0.8990 0.8990
2.130000 0.8990 0.8990 0.8990 0.9000 0.9020
2.164264 0.9020 0.9020 0.9020 0.9020 0.9020
2.199000 0.9020 0.9000 0.8990 0.8970 0.8970
2.233264 0.8950 0.8950 0.8950 0.8950 0.8950
2.267000 0.8950 0.8950 0.8950 0.8950 0.8950
2.301264 0.8970 0.8970 0.8970 0.8990 0.8990
2.336000 0.9000 0.9000 0.9000 0.9000 0.9000
2.370264 0.9000 0.9000 0.9000 0.8990 0.8970
2.404000 0.8970 0.8970 0.8970 0.8970 0.8970
2.438264 0.8990 0.8990 0.9000 0.9000 0.9000
2.473000 0.9000 0.9020 0.9020 0.9020 0.9020
2.507264 0.9020 0.9020 0.9020 0.9020 0.9020
2.541000 0.9040 0.9040 0.9050 0.9050 0.9070
2.575264 0.9070 0.9090 0.9090 0.9110 0.9110
2.610000 0.9110 0.9110 0.9110 0.9110 0.9110
2.644264 0.9110 0.9110 0.9110 0.9090 0.9090
2.678000 0.9090 0.9070 0.9070 0.9070 0.9050
2.712264 0.9050 0.9040 0.9040 0.9020 0.9020
2.747000 0.9020 0.9000 0.9000 0.8990 0.8990
2.781264 0.8970 0.8940 0.8710 0.8660 0.8590
2.815000 0.8580 0.8520 0.8510 0.8510 0.8510
2.849264 0.8510 0.8540 0.8640 0.8680 0.8710
2.884000 0.8730 0.8730 0.8710 0.8710 0.8710
2.918264 0.8700 0.8700 0.8680 0.8680 0.8680
2.952000 0.8680 0.8680 0.8680 0.8680 0.8700
2.986264 0.8700 0.8710 0.8730 0.8750 0.8780
3.021000 0.8800 0.8800 0.8800 0.8800 0.8800
3.055264 0.8800 0.8800 0.8800 0.8800 0.8800
3.089000 0.8800 0.8800 0.8800 0.8800 0.8800
3.123264 0.8800 0.8800 0.8800 0.8800 0.8800
3.158000 0.8800 0.8800 0.8800 0.8800 0.8780
3.192264 0.8750 0.8730 0.8680 0.8630 0.8590
3.226000 0.8560 0.8560 0.8560 0.8580 0.8610
3.260264 0.8640 0.8700 0.8710 0.8750 0.8750
3.295000 0.8660 0.8540 0.8460 0.8270 0.8080
3.329264 0.7640 0.7290 0.7260 0.7290 0.7450
3.363000 0.7650 0.7880 0.8220 0.8220 0.8200
3.397264 0.8180 0.8150 0.8130 0.8170 0.8350
3.432000 0.8440 0.8490 0.8800 0.8800 0.8820
3.466264 0.8820 0.8820 0.8820 0.8820 0.8820
3.500000 0.8830 0.8870 0.8920 0.8990 0.9000
3.534264 0.9000 0.9020 0.9020 0.9020 0.9020
3.568000 0.9040 0.9050 0.9070 0.9090 0.9090
3.602264 0.9110 0.9110 0.9120 0.9120 0.9120
3.637000 0.9120 0.9110 0.9090 0.9090 0.9090
3.671264 0.9090 0.9090 0.9070 0.9070 0.9070
3.705000 0.9090 0.9090 0.9090 0.9110 0.9110
3.739264 0.9120 0.9120 0.9120 0.9140 0.9140
3.774000 0.9160 0.9140 0.9140 0.9140 0.9140
3.808264 0.9160 0.9160 0.9170 0.9170 0.9190
3.842000 0.9190 0.9190 0.9170 0.9170 0.9170
3.876264 0.9160 0.9160 0.9160 0.9120 0.9120
3.911000 0.9120 0.9120 0.9120 0.9120 0.9120
3.945264 0.9120 0.9120 0.9120 0.9120 0.9120
3.979000 0.9120 0.9120 0.9140 0.9170 0.9170
4.013264 0.9170 0.9170 0.9170 0.9170 0.9170
4.048000 0.9160 0.9120 0.9120 0.9070 0.9050
4.082264 0.9050 0.9050 0.9070 0.9070 0.9090
4.116000 0.9110 0.9110 0.9120 0.9120 0.9120
4.150264 0.9120 0.9110 0.9050 0.9040 0.8970
4.185000 0.8920 0.8920 0.8920 0.8920 0.8920
4.219264 0.8950 0.8970 0.8990 0.9000 0.9000
4.253000 0.9020 0.9020 0.9020 0.9020 0.9000
4.287264 0.9000 0.8990 0.8970 0.8950 0.8950
4.322000 0.8950 0.8950 0.8950 0.8950 0.8970
4.356264 0.8970 0.8970 0.8990 0.8990 0.9000
4.390000 0.9000 0.9020 0.9040 0.9040 0.9040
4.424264 0.9040 0.9040 0.9050 0.9050 0.9050
4.459000 0.9050 0.9050 0.9070 0.9090 0.9090
4.493264 0.9090 0.9110 0.9120 0.9120 0.9120
4.527000 0.9120 0.9120 0.9120 0.9120 0.9120
4.561264 0.9120 0.9140 0.9140 0.9160 0.9160
4.596000 0.9160 0.9170 0.9170 0.9170 0.9190
4.630264 0.9190 0.9190 0.9190 0.9190 0.9190
4.664000 0.9190 0.9190 0.9190 0.9140 0.9120
4.698264 0.9120 0.9120 0.9120 0.9120 0.9120
4.733000 0.9120 0.9120 0.9120 0.9120 0.9110
4.767264 0.9110 0.9110 0.9110 0.9090 0.9090
4.801000 0.9070 0.9070 0.9070 0.9070 0.9050
4.835264 0.9050 0.9040 0.9040 0.9040 0.9040
4.870000 0.9070 0.9070 0.9090 0.9110 0.9120
4.904264 0.9140 0.9140 0.9140 0.9120 0.9120
4.938000 0.9110 0.9090 0.9070 0.9050 0.9050
4.972264 0.9020 0.9020 0.9020 0.9020 0.9020
5.007000 0.9000 0.8990 0.8990 0.8990 0.8990
5.041264 0.8990 0.8970 0.8970 0.8970 0.8970
5.075000 0.8970 0.8970 0.8970 0.8970 0.8990
5.109264 0.9000 0.9020 0.9020 0.9020 0.9020
5.144000 0.9040 0.9040 0.9040 0.9040 0.9040
5.178264 0.9040 0.9050 0.9050 0.9050 0.9050
5.212000 0.9050 0.9050 0.9050 0.9050 0.9050
5.246264 0.9040 0.9020 0.9000 0.8970 0.8950
5.281000 0.8900 0.8870 0.8820 0.8800 0.8780
5.315264 0.8760 0.8750 0.8760 0.8800 0.8800
5.349000 0.8820 0.8870 0.8940 0.9160 0.9290
5.383264 0.9410 0.9280 0.8900 0.8780 0.8750
5.418000 0.8750 0.8760 0.8800 0.8820 0.8820
5.452264 0.8800 0.8750 0.8700 0.8630 0.8560
5.486000 0.8460 0.8340 0.8170 0.8080 0.8000
5.520264 0.7840 0.7740 0.7520 0.7350 0.7090
5.555000 0.6820 0.6540 0.6270 0.5650 0.5000
5.589264 0.4350 0.3700 0.3380 0.3050 0.2410
5.623000 0.2390 0.2270 0.2110 0.1720 0.1210
5.657264 0.1190 0.1190 0.1210 0.1670 0.2200
5.692000 0.2700 0.3190 0.4130 0.4560 0.4990
5.726264 0.5380 0.5760 0.6100 0.6420 0.6950
5.760000 0.7170 0.7360 0.7520 0.7620 0.7670
5.794264 0.7820 0.7910 0.7960 0.8010 0.8030
5.829000 0.8080 0.8130 0.8230 0.8390 0.8410
5.863264 0.8410 0.8410 0.8440 0.8470 0.8590
5.897000 0.8630 0.8640 0.8700 0.8710 0.8730
5.931264 0.8730 0.8750 0.8750 0.8750 0.8760
5.966000 0.8760 0.8760 0.8780 0.8780 0.8780
6.000264 0.8780 0.8780 0.8780 0.8780 0.8760
6.034000 0.8760 0.8750 0.8680 0.8590 0.8520
6.068264 0.8470 0.8420 0.8300 0.8220 0.8200
6.103000 0.8180 0.8170 0.8170 0.8170 0.8170
6.137264 0.8180 0.8180 0.8180 0.8180 0.8180
6.171000 0.8180 0.8130 0.8030 0.7980 0.7840
6.205264 0.7690 0.7580 0.7500 0.7310 0.7190
6.240000 0.7000 0.6750 0.6610 0.6470 0.6150
6.274264 0.5820 0.5470 0.5120 0.4760 0.4520
6.308000 0.4390 0.4370 0.4390 0.4470 0.4630
6.342264 0.4800 0.5000 0.5210 0.5350 0.5430
6.377000 0.5500 0.5500 0.5480 0.5470 0.5400
6.411264 0.5310 0.5260 0.5210 0.5110 0.5040
6.445000 0.4970 0.4900 0.4880 0.4880 0.4900
6.479264 0.4940 0.4990 0.5090 0.5230 0.5400
6.514000 0.5550 0.5700 0.5840 0.5940 0.6000
6.548264 0.6060 0.6110 0.6180 0.6220 0.6270
6.582000 0.6300 0.6350 0.6390 0.6440 0.6470
6.616264 0.6470 0.6470 0.6470 0.6470 0.6420
6.651000 0.6390 0.6350 0.6300 0.6250 0.6200
6.685264 0.6130 0.6080 0.6000 0.5810 0.5480
6.719000 0.4970 0.4200 0.3720 0.3430 0.3120
6.753264 0.1790 0.1690 0.1570 0.1470 0.1430
6.788000 0.1450 0.1480 0.1670 0.1910 0.2200
6.822264 0.2460 0.2560 0.2660 0.2750 0.2870
6.856000 0.3020 0.3260 0.4000 0.4390 0.4780
6.890264 0.5140 0.5480 0.5760 0.6000 0.6200
6.925000 0.6350 0.6460 0.6510 0.6580 0.6590
6.959264 0.6610 0.6630 0.6660 0.6660 0.6660
6.993000 0.6680 0.6750 0.6800 0.6880 0.6950
7.027264 0.7040 0.7160 0.7280 0.7410 0.7570
7.062000 0.7600 0.7650 0.7670 0.7670 0.7670
7.096264 0.7670 0.7670 0.7670 0.7670 0.7600
7.130000 0.7580 0.7550 0.7170 0.6820 0.6710
7.164264 0.6590 0.6060 0.4970 0.4730 0.4390
7.199000 0.4370 0.4410 0.4680 0.5090 0.5500
7.233264 0.5860 0.6250 0.6510 0.6580 0.6580
7.267000 0.6580 0.6520 0.6460 0.6420 0.6470
7.301264 0.6590 0.7190 0.7500 0.7910 0.8200
7.336000 0.8230 0.8300 0.8510 0.8540 0.8580
7.370264 0.8590 0.8590 0.8590 0.8590 0.8610
7.404000 0.8640 0.8680 0.8680 0.8680 0.8680
7.438264 0.8680 0.8680 0.8680 0.8680 0.8660
7.473000 0.8640 0.8630 0.8630 0.8610 0.8590
7.507264 0.8580 0.8560 0.8560 0.8560 0.8540
7.541000 0.8510 0.8460 0.8440 0.8350 0.8340
7.575264 0.8340 0.8340 0.8340 0.8370 0.8390
7.610000 0.8440 0.8460 0.8460 0.8460 0.8470
7.644264 0.8470 0.8420 0.8410 0.8350 0.8250
7.678000 0.8150 0.8050 0.7980 0.7960 0.7860
7.712264 0.7810 0.7740 0.7650 0.7600 0.7530
7.747000 0.7480 0.7400 0.7240 0.7170 0.7070
7.781264 0.6940 0.6820 0.6680 0.6610 0.6520
7.815000 0.6410 0.6290 0.6170 0.6130 0.6050
7.849264 0.5890 0.5700 0.5470 0.5190 0.4900
7.884000 0.4560 0.4200 0.3940 0.3700 0.3480
7.918264 0.3400 0.3310 0.3160 0.3050 0.2970
7.952000 0.2940 0.2940 0.2920 0.2820 0.2640
7.986264 0.2410 0.2100 0.2000 0.1820 0.1670
8.021000 0.1650 0.1690 0.2080 0.2490 0.2950
8.055264 0.3790 0.4010 0.4320 0.4390 0.4390
8.089000 0.4390 0.4370 0.4060 0.3890 0.3550
8.123264 0.3380 0.3210 0.2820 0.2540 0.2130
8.158000 0.1860 0.1550 0.1350 0.1210 0.1120
8.192264 0.1000 0.0990 0.1000 0.1260 0.1520
8.226000 0.1860 0.2250 0.2640 0.3070 0.3910
8.260264 0.4290 0.4610 0.4880 0.5120 0.5330
8.295000 0.5530 0.5550 0.5640 0.5700 0.5740
8.329264 0.5770 0.5790 0.5810 0.5810 0.5820
8.363000 0.5860 0.5930 0.6000 0.6060 0.6130
8.397264 0.6200 0.6270 0.6340 0.6420 0.6510
8.432000 0.6590 0.6760 0.6870 0.6950 0.7050
8.466264 0.7160 0.7260 0.7360 0.7470 0.7530
8.500000 0.7580 0.7650 0.7670 0.7670 0.7670
8.534264 0.7670 0.7670 0.7670 0.7670 0.7670
8.568000 0.7600 0.7530 0.7480 0.7380 0.7240
8.602264 0.7120 0.7020 0.6940 0.6830 0.6710
8.637000 0.6630 0.6540 0.6340 0.6050 0.5880
8.671264 0.5650 0.5400 0.5090 0.4730 0.4320
8.705000 0.3840 0.3480 0.3290 0.3090 0.2880
8.739264 0.2250 0.1980 0.1650 0.1350 0.1290
8.774000 0.1210 0.1120 0.1040 0.1020 0.0940
8.808264 0.0880 0.0870 0.0870 0.0880 0.0950
8.842000 0.1070 0.1230 0.1430 0.1670 0.1940
8.876264 0.2220 0.2490 0.2750 0.3000 0.3210
8.911000 0.3480 0.3480 0.3470 0.3470 0.3350
8.945264 0.3310 0.3280 0.3170 0.2950 0.2560
8.979000 0.2320 0.1940 0.1640 0.1410 0.1190
9.013264 0.1000 0.0870 0.0750 0.0680 0.0610
9.048000 0.0590 0.0590 0.0590 0.0630 0.0640
9.082264 0.0640 0.0660 0.0660 0.0640 0.0630
9.116000 0.0580 0.0540 0.0460 0.0370 0.0350
9.150264 0.0320 0.0300 0.0300 0.0300 0.0320
9.185000 0.0520 0.0700 0.0750 0.0780 0.0990
9.219264 0.1160 0.1310 0.1470 0.1600 0.1760
9.253000 0.1910 0.1980 0.2050 0.2130 0.2200
9.287264 0.2270 0.2300 0.2350 0.2410 0.2490
9.322000 0.2490 0.2610 0.2630 0.2900 0.3070
9.356264 0.3290 0.3840 0.4130 0.4420 0.4660
9.390000 0.4880 0.5020 0.5160 0.5290 0.5400
9.424264 0.5400 0.5290 0.5050 0.4800 0.4410
9.459000 0.4370 0.4370 0.4390 0.4560 0.4940
9.493264 0.5290 0.5690 0.6050 0.6420 0.6990
9.527000 0.7210 0.7480 0.7530 0.7570 0.7740
9.561264 0.7790 0.7890 0.7960 0.7980 0.8080
9.596000 0.8150 0.8220 0.8270 0.8300 0.8350
9.630264 0.8410 0.8440 0.8490 0.8510 0.8520
9.664000 0.8540 0.8590 0.8610 0.8630 0.8640
9.698264 0.8680 0.8680 0.8700 0.8700 0.8710
9.733000 0.8730 0.8730 0.8750 0.8760 0.8780
9.767264 0.8800 0.8820 0.8820 0.8820 0.8820
9.801000 0.8820 0.8820 0.8820 0.8800 0.8780
9.835264 0.8660 0.8510 0.8300 0.8100 0.7930
9.870000 0.7580 0.7400 0.7210 0.7000 0.6970
9.904264 0.6970 0.6990 0.7090 0.7280 0.7410
9.938000 0.7650 0.8050 0.8290 0.8460 0.8560
9.972264 0.8660 0.8750 0.8760 0.8800 0.8850
10.007000 0.8900 0.8940 0.8970 0.8990 0.9000
10.041264 0.9020 0.9040 0.9040 0.9050 0.9050
10.075000 0.9070 0.9070 0.9070 0.9090 0.9090
10.109264 0.9090 0.9110 0.9120 0.9120 0.9120
10.144000 0.9120 0.9120 0.9120 0.9120 0.9120
10.178264 0.9120 0.9120 0.9120 0.9140 0.9140
10.212000 0.9140 0.9140 0.9140 0.9140 0.9140
10.246264 0.9140 0.9160 0.9160 0.9170 0.9190
10.281000 0.9190 0.9190 0.9190 0.9190 0.9170
10.315264 0.9170 0.9170 0.9190 0.9190 0.9170
10.349000 0.9170 0.9160 0.9160 0.9120 0.9110
10.383264 0.9070 0.9070 0.9050 0.9040 0.9000
10.418000 0.8970 0.8950 0.8950 0.8940 0.8940
10.452264 0.8920 0.8900 0.8850 0.8800 0.8760
10.486000 0.8700 0.8630 0.8590 0.8540 0.8460
10.520264 0.8350 0.8220 0.8080 0.7930 0.7770
10.555000 0.7620 0.7480 0.7360 0.7240 0.7160
10.589264 0.7110 0.7020 0.6920 0.6920 0.6900
10.623000 0.6900 0.6990 0.7190 0.7310 0.7450
10.657264 0.7520 0.7580 0.7530 0.7520 0.7400
10.692000 0.7290 0.7110 0.7020 0.6940 0.6820
10.726264 0.6800 0.6800 0.6800 0.6820 0.6970
10.760000 0.7090 0.7310 0.7430 0.7500 0.7570
10.794264 0.7670 0.7860 0.8150 0.8290 0.8320
10.829000 0.8350 0.8370 0.8460 0.8510 0.8560
10.863264 0.8610 0.8630 0.8640 0.8660 0.8680
10.897000 0.8700 0.8710 0.8780 0.8780 0.8800
10.931264 0.8800 0.8820 0.8820 0.8820 0.8820
10.966000 0.8830 0.8830 0.8830 0.8830 0.8830
11.000264 0.8830 0.8830 0.8830 0.8830 0.8830
11.034000 0.8830 0.8830 0.8830 0.8830 0.8830
11.068264 0.8830 0.8830 0.8820 0.8820 0.8800
11.103000 0.8800 0.8780 0.8780 0.8750 0.8750
11.137264 0.8710 0.8700 0.8700 0.8680 0.8660
11.171000 0.8630 0.8610 0.8580 0.8560 0.8520
11.205264 0.8490 0.8440 0.8440 0.8410 0.8340
11.240000 0.8270 0.8180 0.8170 0.8110 0.8050
11.274264 0.8030 0.7960 0.7810 0.7740 0.7720
11.308000 0.7620 0.7520 0.7400 0.7290 0.7160
11.342264 0.7020 0.6870 0.6700 0.6590 0.6490
11.377000 0.6290 0.6050 0.5770 0.5470 0.5120
11.411264 0.4750 0.4320 0.4130 0.3930 0.3740
11.445000 0.3550 0.3360 0.3260 0.3160 0.2950
11.479264 0.2870 0.2850 0.2800 0.2780 0.2750
11.514000 0.2730 0.2700 0.2700 0.2680 0.2680
11.548264 0.2700 0.2780 0.2870 0.2950 0.3070
11.582000 0.3210 0.3580 0.3840 0.4150 0.4520
11.616264 0.4700 0.4750 0.4800 0.4820 0.4830
11.651000 0.4830 0.4800 0.4750 0.4660 0.4590
11.685264 0.4540 0.4390 0.4370 0.4370 0.4370
11.719000 0.4390 0.4460 0.4580 0.4730 0.4920
11.753264 0.5110 0.5290 0.5480 0.5670 0.5820
11.788000 0.5940 0.6180 0.6370 0.6540 0.6850
11.822264 0.6970 0.7090 0.7190 0.7310 0.7410
11.856000 0.7530 0.7640 0.7700 0.7760 0.7790
11.890264 0.7840 0.7890 0.7940 0.8010 0.8100
11.925000 0.8110 0.8150 0.8180 0.8180 0.8200
11.959264 0.8220 0.8230 0.8250 0.8250 0.8270
11.993000 0.8290 0.8300 0.8300 0.8320 0.8320
12.027264 0.8320 0.8340 0.8340 0.8340 0.8340
12.062000 0.8340 0.8340 0.8340 0.8340 0.8340
12.096264 0.8340 0.8340 0.8340 0.8340 0.8340
12.130000 0.8320 0.8320 0.8300 0.8300 0.8270
12.164264 0.8230 0.8220 0.8200 0.8180 0.8130
12.199000 0.8100 0.8030 0.7960 0.7890 0.7820
12.233264 0.7760 0.7690 0.7640 0.7550 0.7500
12.267000 0.7400 0.7290 0.7230 0.7140 0.7070
12.301264 0.6990 0.6900 0.6800 0.6680 0.6630
12.336000 0.6560 0.6390 0.6200 0.5980 0.5700
12.370264 0.5400 0.5310 0.5110 0.4850 0.4560
12.404000 0.4250 0.3980 0.3790 0.3670 0.3600
12.438264 0.3600 0.3600 0.3690 0.3940 0.4170
12.473000 0.4440 0.4760 0.5110 0.5470 0.5790
12.507264 0.6060 0.6270 0.6370 0.6850 0.6990
12.541000 0.7090 0.7190 0.7260 0.7350 0.7410
12.575264 0.7470 0.7520 0.7580 0.7620 0.7670
12.610000 0.7720 0.7740 0.7770 0.7810 0.7820
12.644264 0.7840 0.7860 0.7880 0.7890 0.7910
12.678000 0.7940 0.7960 0.7960 0.7980 0.7980
12.712264 0.8000 0.8010 0.8010 0.8030 0.8050
12.747000 0.8060 0.8060 0.8080 0.8100 0.8110
12.781264 0.8110 0.8130 0.8130 0.8130 0.8130
12.815000 0.8130 0.8130 0.8130 0.8130 0.8100
12.849264 0.8080 0.8050 0.8030 0.8010 0.7960
12.884000 0.7890 0.7810 0.7740 0.7650 0.7550
12.918264 0.7470 0.7360 0.7260 0.7170 0.7110
12.952000 0.7070 0.7050 0.7040 0.7020 0.7020
12.986264 0.7000 0.7000 0.6970 0.6970 0.6970
13.021000 0.6950 0.6900 0.6830 0.6750 0.6660
13.055264 0.6630 0.6580 0.6470 0.6350 0.6250
13.089000 0.6130 0.6010 0.5910 0.5790 0.5690
13.123264 0.5570 0.5470 0.5350 0.5230 0.5110
13.158000 0.5020 0.4950 0.4880 0.4820 0.4760
13.192264 0.4710 0.4680 0.4630 0.4610 0.4630
13.226000 0.4640 0.4700 0.4760 0.4870 0.4950
13.260264 0.5040 0.5110 0.5190 0.5260 0.5310
13.295000 0.5350 0.5380 0.5400 0.5400 0.5410
13.329264 0.5410 0.5400 0.5350 0.5260 0.5160
13.363000 0.5050 0.4970 0.4870 0.4820 0.4800
13.397264 0.4610 0.4590 0.4590 0.4590 0.4590
13.432000 0.4610 0.4630 0.4640 0.4680 0.4710
13.466264 0.4760 0.4830 0.4920 0.5000 0.5110
13.500000 0.5230 0.5360 0.5470 0.5570 0.5670
13.534264 0.5770 0.5880 0.5980 0.6060 0.6170
13.568000 0.6250 0.6340 0.6440 0.6510 0.6590
13.602264 0.6750 0.6830 0.6900 0.6950 0.6970
13.637000 0.7000 0.7050 0.7090 0.7120 0.7140
13.671264 0.7140 0.7170 0.7170 0.7190 0.7210
13.705000 0.7210 0.7210 0.7210 0.7210 0.7210
13.739264 0.7210 0.7190 0.7160 0.7120 0.7110
13.774000 0.7070 0.7040 0.7020 0.7000 0.6990
13.808264 0.6970 0.6950 0.6950 0.6950 0.6950
13.842000 0.6950 0.6970 0.6970 0.6990 0.7000
13.876264 0.7020 0.7050 0.7090 0.7110 0.7110
13.911000 0.7120 0.7160 0.7160 0.7170 0.7190
13.945264 0.7190 0.7190 0.7190 0.7190 0.7190
13.979000 0.7190 0.7170 0.7160 0.7120 0.7120
14.013264 0.7110 0.7110 0.7090 0.7070 0.7050
14.048000 0.7040 0.7020 0.6990 0.6940 0.6920
14.082264 0.6900 0.6880 0.6870 0.6870 0.6850
14.116000 0.6830 0.6780 0.6760 0.6750 0.6710
14.150264 0.6680 0.6660 0.6630 0.6590 0.6580
14.185000 0.6560 0.6540 0.6510 0.6420 0.6350
14.219264 0.6320 0.6290 0.6250 0.6200 0.6130
14.253000 0.6080 0.6050 0.6050 0.6030 0.6000
14.287264 0.6000 0.5960 0.5930 0.5930 0.5890
14.322000 0.5880 0.5880 0.5880 0.5890 0.5930
14.356264 0.5930 0.5960 0.5980 0.6000 0.6030
14.390000 0.6030 0.6050 0.6060 0.6100 0.6130
14.424264 0.6170 0.6200 0.6200 0.6230 0.6230
14.459000 0.6250 0.6250 0.6270 0.6270 0.6270
14.493264 0.6250 0.6250 0.6230 0.6220 0.6200
14.527000 0.6180 0.6150 0.6130 0.6100 0.6080
14.561264 0.6050 0.6010 0.6000 0.5980 0.5940
14.596000 0.5890 0.5860 0.5810 0.5760 0.5700
14.630264 0.5670 0.5620 0.5580 0.5530 0.5480
14.664000 0.5450 0.5400 0.5360 0.5310 0.5280
14.698264 0.5230 0.5170 0.5140 0.5090 0.5050
14.733000 0.5000 0.4950 0.4900 0.4850 0.4820
14.767264 0.4760 0.4730 0.4680 0.4640 0.4630
14.801000 0.4580 0.4540 0.4520 0.4490 0.4470
14.835264 0.4440 0.4420 0.4410 0.4390 0.4390
14.870000 0.4370 0.4370 0.4370 0.4370 0.4370
14.904264 0.4370 0.4390 0.4420 0.4440 0.4470
14.938000 0.4490 0.4520 0.4560 0.4580 0.4610
14.972264 0.4680 0.4750 0.4780 0.4820 0.4850
15.007000 0.4900 0.4940 0.4950 0.4950 0.4970
15.041264 0.4970 0.4970 0.4970 0.4970 0.4970
15.075000 0.4970 0.4970 0.4970 0.4970 0.4970
15.109264 0.4970 0.4970 0.4970 0.4970 0.4950
15.144000 0.4940 0.4920 0.4920 0.4920 0.4920
15.178264 0.4920 0.4900 0.4900 0.4880 0.4870
15.212000 0.4850 0.4830 0.4820 0.4780 0.4750
15.246264 0.4750 0.4700 0.4680 0.4660 0.4640
15.281000 0.4630 0.4610 0.4590 0.4580 0.4560
15.315264 0.4510 0.4510 0.4470 0.4460 0.4460
15.349000 0.4420 0.4410 0.4390 0.4370 0.4370
15.383264 0.4350 0.4350 0.4340 0.4340 0.4340
15.418000 0.4340 0.4340 0.4320 0.4320 0.4320
15.452264 0.4300 0.4300 0.4300 0.4300 0.4300
15.486000 0.4300 0.4300 0.4290 0.4290 0.4290
15.520264 0.4290 0.4290 0.4270 0.4270 0.4270
15.555000 0.4270 0.4270 0.4250 0.4250 0.4250
15.589264 0.4250 0.4250 0.4250 0.4250 0.4250
15.623000 0.4250 0.4250 0.4250 0.4250 0.4250
15.657264 0.4250 0.4250 0.4250 0.4250 0.4250
15.692000 0.4270 0.4270 0.4290 0.4290 0.4300
15.726264 0.4300 0.4320 0.4320 0.4340 0.4350
15.760000 0.4350 0.4370 0.4370 0.4390 0.4390
15.794264 0.4410 0.4420 0.4420 0.4420 0.4420
15.829000 0.4420
##END=
