##TITLE=4,4'-BIPHENYLDISULFONIC ACID, SODIUM SALT
##JCAMP-DX=4.24
##DATA TYPE=INFRARED SPECTRUM
##CLASS=COBLENTZ
##ORIGIN=DOW CHEMICAL COMPANY
##OWNER=COBLENTZ SOCIETY
Collection (C) 2018 copyright by the U.S. Secretary of Commerce
on behalf of the United States of America. All rights reserved.
##DATE=Not specified, most likely prior to 1970
##MOLFORM=C12 H8 O6 S2 Na2
##SOURCE REFERENCE=COBLENTZ NO. 2293
##$NIST ID=B6002293
##$NIST SOURCE=COBLENTZ
##$NIST IMAGE=cob2293
##SPECTROMETER/DATA SYSTEM=Not specified, most likely a prism, grating, or hybrid spectrometer.
##STATE=SOLID (MINERAL OIL MULL)
##PATH LENGTH=
$$SPECTRAL CONTAMINATION DUE TO OIL AROUND 2900, 1450, 1380 CM^-^1
##SAMPLING PROCEDURE=TRANSMISSION
##RESOLUTION=4
##DATA PROCESSING=DIGITIZED BY NIST FROM HARD COPY
##XUNITS=MICROMETERS
##YUNITS=TRANSMITTANCE
##XFACTOR=1.000000
##YFACTOR=1
##DELTAX=000.006679
##FIRSTX=2.027
##LASTX=15.8797
##FIRSTY=0.495
##MAXX=15.8797
##MINX=2.027
##MAXY=0.956
##MINY=0.009
##NPOINTS=2075
##XYDATA=(X++(Y..Y))
2.027000 0.4950 0.4970 0.4970 0.5000 0.5000
2.060413 0.5020 0.5020 0.5040 0.5040 0.5050
2.094000 0.5050 0.5090 0.5100 0.5100 0.5120
2.127413 0.5140 0.5150 0.5170 0.5190 0.5200
2.160000 0.5220 0.5240 0.5250 0.5250 0.5290
2.193413 0.5300 0.5320 0.5320 0.5320 0.5300
2.227000 0.5290 0.5250 0.5240 0.5220 0.5200
2.260413 0.5190 0.5150 0.5140 0.5120 0.5120
2.294000 0.5120 0.5140 0.5150 0.5150 0.5170
2.327413 0.5200 0.5240 0.5250 0.5290 0.5320
2.361000 0.5370 0.5390 0.5400 0.5420 0.5440
2.394413 0.5450 0.5450 0.5450 0.5470 0.5470
2.427000 0.5500 0.5540 0.5600 0.5650 0.5720
2.460413 0.5750 0.5790 0.5820 0.5840 0.5850
2.494000 0.5890 0.5900 0.5920 0.5920 0.5940
2.527413 0.5940 0.5950 0.5950 0.5970 0.5970
2.561000 0.5990 0.6000 0.6070 0.6080 0.6120
2.594413 0.6170 0.6180 0.6180 0.6170 0.6170
2.628000 0.6170 0.6170 0.6150 0.6150 0.6150
2.661413 0.6150 0.6180 0.6180 0.6220 0.6250
2.695000 0.6250 0.6250 0.6230 0.6200 0.6170
2.728413 0.6130 0.6120 0.6080 0.6070 0.6020
2.761000 0.6000 0.5990 0.5990 0.5950 0.5940
2.794413 0.5890 0.5840 0.5750 0.5740 0.5700
2.828000 0.5690 0.5670 0.5640 0.5620 0.5600
2.861413 0.5590 0.5550 0.5540 0.5540 0.5520
2.895000 0.5520 0.5520 0.5540 0.5550 0.5550
2.928413 0.5570 0.5600 0.5640 0.5690 0.5720
2.962000 0.5750 0.5770 0.5820 0.5850 0.5900
2.995413 0.5920 0.5950 0.5970 0.5990 0.6000
3.029000 0.6000 0.6020 0.6050 0.6080 0.6100
3.062413 0.6100 0.6100 0.6100 0.6100 0.6100
3.095000 0.6100 0.6080 0.6080 0.6070 0.6050
3.128413 0.6050 0.6030 0.6030 0.6030 0.6030
3.162000 0.6030 0.6030 0.6030 0.6030 0.6030
3.195413 0.6020 0.5950 0.5840 0.5740 0.5620
3.229000 0.5470 0.5340 0.5190 0.5070 0.4950
3.262413 0.4870 0.4820 0.4800 0.4800 0.4800
3.296000 0.4790 0.4750 0.4640 0.4320 0.3870
3.329413 0.3260 0.2520 0.1680 0.0780 0.0630
3.363000 0.0440 0.0180 0.0110 0.0090 0.0090
3.396413 0.0130 0.0180 0.0190 0.0190 0.0230
3.429000 0.0230 0.0240 0.0240 0.0260 0.0290
3.462413 0.0310 0.0380 0.0440 0.0630 0.0940
3.496000 0.1430 0.2060 0.2870 0.3860 0.4190
3.529413 0.4900 0.5420 0.5820 0.6050 0.6270
3.563000 0.6400 0.6550 0.6700 0.6820 0.6920
3.596413 0.7100 0.7180 0.7200 0.7180 0.7130
3.630000 0.7130 0.7080 0.7020 0.6970 0.6930
3.663413 0.6920 0.6930 0.6970 0.7000 0.7050
3.697000 0.7120 0.7150 0.7170 0.7180 0.7200
3.730413 0.7220 0.7230 0.7230 0.7250 0.7270
3.763000 0.7280 0.7300 0.7320 0.7330 0.7380
3.796413 0.7400 0.7400 0.7420 0.7430 0.7450
3.830000 0.7480 0.7520 0.7570 0.7600 0.7650
3.863413 0.7700 0.7770 0.7800 0.7870 0.7900
3.897000 0.7930 0.7970 0.7980 0.8000 0.8000
3.930413 0.8030 0.8030 0.8050 0.8050 0.8050
3.964000 0.8060 0.8060 0.8080 0.8080 0.8100
3.997413 0.8100 0.8130 0.8160 0.8180 0.8210
4.031000 0.8210 0.8230 0.8230 0.8230 0.8230
4.064413 0.8230 0.8230 0.8230 0.8230 0.8230
4.097000 0.8230 0.8230 0.8250 0.8250 0.8260
4.130413 0.8260 0.8280 0.8280 0.8300 0.8300
4.164000 0.8300 0.8310 0.8310 0.8310 0.8310
4.197413 0.8310 0.8310 0.8310 0.8310 0.8310
4.231000 0.8310 0.8310 0.8310 0.8310 0.8330
4.264413 0.8330 0.8330 0.8330 0.8330 0.8330
4.298000 0.8330 0.8330 0.8330 0.8330 0.8330
4.331413 0.8330 0.8350 0.8360 0.8380 0.8380
4.365000 0.8380 0.8380 0.8380 0.8380 0.8380
4.398413 0.8380 0.8380 0.8380 0.8380 0.8380
4.431000 0.8380 0.8400 0.8400 0.8400 0.8410
4.464413 0.8410 0.8430 0.8430 0.8460 0.8460
4.498000 0.8500 0.8500 0.8530 0.8560 0.8560
4.531413 0.8630 0.8650 0.8650 0.8650 0.8630
4.565000 0.8630 0.8610 0.8610 0.8610 0.8630
4.598413 0.8650 0.8650 0.8660 0.8660 0.8700
4.632000 0.8730 0.8750 0.8750 0.8750 0.8760
4.665413 0.8780 0.8800 0.8810 0.8810 0.8810
4.698000 0.8810 0.8810 0.8810 0.8810 0.8810
4.731413 0.8810 0.8830 0.8830 0.8830 0.8850
4.765000 0.8850 0.8850 0.8860 0.8860 0.8860
4.798413 0.8880 0.8880 0.8880 0.8900 0.8900
4.832000 0.8910 0.8910 0.8930 0.8950 0.8950
4.865413 0.8950 0.8950 0.8960 0.8960 0.8960
4.899000 0.8960 0.8980 0.8980 0.9000 0.9010
4.932413 0.9030 0.9050 0.9050 0.9060 0.9060
4.966000 0.9080 0.9080 0.9100 0.9100 0.9100
4.999413 0.9100 0.9100 0.9100 0.9100 0.9100
5.032000 0.9110 0.9110 0.9110 0.9110 0.9110
5.065413 0.9110 0.9110 0.9110 0.9110 0.9100
5.099000 0.9080 0.9060 0.9010 0.8960 0.8880
5.132413 0.8810 0.8760 0.8710 0.8680 0.8650
5.166000 0.8630 0.8630 0.8630 0.8660 0.8750
5.199413 0.8830 0.8910 0.9000 0.9080 0.9160
5.233000 0.9180 0.9200 0.9210 0.9230 0.9260
5.266413 0.9280 0.9310 0.9310 0.9350 0.9350
5.300000 0.9350 0.9350 0.9350 0.9350 0.9350
5.333413 0.9350 0.9350 0.9350 0.9350 0.9350
5.366000 0.9350 0.9350 0.9350 0.9350 0.9360
5.399413 0.9360 0.9360 0.9380 0.9380 0.9380
5.433000 0.9380 0.9380 0.9380 0.9380 0.9380
5.466413 0.9380 0.9380 0.9360 0.9360 0.9350
5.500000 0.9310 0.9300 0.9280 0.9280 0.9260
5.533413 0.9260 0.9280 0.9300 0.9330 0.9360
5.567000 0.9380 0.9400 0.9400 0.9410 0.9430
5.600413 0.9450 0.9460 0.9480 0.9480 0.9480
5.634000 0.9500 0.9530 0.9560 0.9560 0.9560
5.667413 0.9560 0.9560 0.9550 0.9550 0.9530
5.700000 0.9510 0.9510 0.9510 0.9510 0.9510
5.733413 0.9510 0.9510 0.9510 0.9510 0.9510
5.767000 0.9510 0.9510 0.9510 0.9510 0.9510
5.800413 0.9510 0.9500 0.9480 0.9460 0.9410
5.834000 0.9360 0.9330 0.9300 0.9260 0.9250
5.867413 0.9200 0.9150 0.9050 0.8960 0.8930
5.901000 0.8930 0.8930 0.8910 0.8910 0.8910
5.934413 0.8910 0.8910 0.8910 0.8910 0.8900
5.968000 0.8810 0.8730 0.8710 0.8680 0.8650
6.001413 0.8650 0.8630 0.8630 0.8650 0.8650
6.034000 0.8660 0.8660 0.8680 0.8680 0.8680
6.067413 0.8680 0.8680 0.8680 0.8680 0.8680
6.101000 0.8680 0.8680 0.8680 0.8680 0.8680
6.134413 0.8680 0.8660 0.8660 0.8660 0.8660
6.168000 0.8650 0.8650 0.8650 0.8630 0.8580
6.201413 0.8500 0.8380 0.8300 0.8230 0.8180
6.235000 0.8160 0.8160 0.8180 0.8260 0.8430
6.268413 0.8680 0.8860 0.9010 0.9110 0.9150
6.302000 0.9160 0.9160 0.9160 0.9160 0.9150
6.335413 0.9150 0.9130 0.9110 0.9060 0.9050
6.368000 0.9000 0.8910 0.8800 0.8680 0.8550
6.401413 0.8400 0.8310 0.8300 0.8310 0.8380
6.435000 0.8510 0.8580 0.8700 0.8780 0.8910
6.468413 0.8960 0.9030 0.9100 0.9200 0.9210
6.502000 0.9250 0.9260 0.9280 0.9280 0.9280
6.535413 0.9280 0.9260 0.9250 0.9210 0.9200
6.569000 0.9150 0.9080 0.9060 0.9030 0.9010
6.602413 0.9010 0.8980 0.8960 0.8910 0.8850
6.635000 0.8750 0.8660 0.8530 0.8410 0.8310
6.668413 0.8130 0.7880 0.7600 0.7300 0.6970
6.702000 0.6670 0.6370 0.6120 0.5940 0.5790
6.735413 0.5590 0.5500 0.5300 0.5100 0.4570
6.769000 0.4250 0.2970 0.2920 0.2560 0.1910
6.802413 0.1710 0.1510 0.1360 0.1210 0.1190
6.836000 0.1210 0.1260 0.1430 0.1560 0.1780
6.869413 0.2020 0.2220 0.2490 0.2720 0.2970
6.903000 0.3240 0.3570 0.3970 0.4370 0.4700
6.936413 0.5190 0.5400 0.5400 0.6480 0.6770
6.969000 0.7070 0.7220 0.7470 0.7480 0.7630
7.002413 0.7680 0.7780 0.7870 0.7930 0.7970
7.036000 0.8010 0.8050 0.8080 0.8100 0.8080
7.069413 0.8060 0.8030 0.8010 0.8000 0.7980
7.103000 0.7920 0.7770 0.7650 0.7520 0.7370
7.136413 0.7220 0.6820 0.6120 0.5390 0.5320
7.170000 0.4670 0.4400 0.3970 0.3720 0.3470
7.203413 0.3420 0.3320 0.3240 0.3140 0.3060
7.237000 0.2970 0.2940 0.2920 0.2920 0.3010
7.270413 0.3390 0.3690 0.3990 0.4250 0.4520
7.303000 0.4750 0.5020 0.5290 0.5570 0.5700
7.336413 0.5890 0.6030 0.6200 0.6230 0.6280
7.370000 0.6320 0.6370 0.6430 0.6520 0.6620
7.403413 0.6700 0.6770 0.6850 0.6950 0.6970
7.437000 0.7000 0.7030 0.7080 0.7130 0.7180
7.470413 0.7230 0.7250 0.7250 0.7250 0.7250
7.504000 0.7230 0.7200 0.7150 0.7120 0.7070
7.537413 0.7050 0.6980 0.6870 0.6830 0.6830
7.571000 0.6820 0.6820 0.6800 0.6780 0.6730
7.604413 0.6600 0.6550 0.6500 0.6480 0.6430
7.637000 0.6420 0.6420 0.6420 0.6430 0.6480
7.670413 0.6570 0.6620 0.6650 0.6670 0.6700
7.704000 0.6700 0.6700 0.6670 0.6630 0.6600
7.737413 0.6530 0.6470 0.6380 0.6270 0.6220
7.771000 0.6170 0.6070 0.5870 0.5740 0.5650
7.804413 0.5550 0.5350 0.5120 0.4850 0.4570
7.838000 0.4290 0.4040 0.3810 0.3620 0.3490
7.871413 0.3420 0.3360 0.3340 0.3340 0.3390
7.905000 0.3410 0.3420 0.3440 0.3420 0.3370
7.938413 0.3270 0.3120 0.2870 0.2640 0.2420
7.971000 0.2220 0.2040 0.1840 0.1630 0.1380
8.004413 0.1110 0.0810 0.0660 0.0530 0.0480
8.038000 0.0380 0.0310 0.0260 0.0240 0.0230
8.071413 0.0230 0.0240 0.0260 0.0310 0.0490
8.105000 0.0580 0.0830 0.1030 0.1180 0.1340
8.138413 0.1480 0.1640 0.1790 0.1910 0.2010
8.172000 0.2040 0.2040 0.2060 0.2060 0.2060
8.205413 0.2060 0.2040 0.1980 0.1890 0.1790
8.239000 0.1690 0.1560 0.1430 0.1290 0.1140
8.272413 0.0980 0.0830 0.0680 0.0580 0.0480
8.305000 0.0380 0.0330 0.0310 0.0240 0.0210
8.338413 0.0180 0.0160 0.0160 0.0140 0.0140
8.372000 0.0130 0.0130 0.0130 0.0130 0.0130
8.405413 0.0130 0.0140 0.0140 0.0160 0.0160
8.439000 0.0160 0.0180 0.0180 0.0210 0.0240
8.472413 0.0310 0.0380 0.0440 0.0510 0.0640
8.506000 0.0740 0.0780 0.0890 0.1030 0.1180
8.539413 0.1330 0.1480 0.1630 0.1790 0.1940
8.573000 0.2070 0.2210 0.2290 0.2340 0.2360
8.606413 0.2420 0.2540 0.2620 0.2620 0.2640
8.639000 0.2640 0.2640 0.2660 0.2660 0.2660
8.672413 0.2640 0.2620 0.2520 0.2370 0.2170
8.706000 0.1960 0.1740 0.1530 0.1340 0.1210
8.739413 0.0930 0.0680 0.0580 0.0440 0.0340
8.773000 0.0280 0.0230 0.0190 0.0180 0.0180
8.806413 0.0190 0.0230 0.0260 0.0280 0.0310
8.840000 0.0330 0.0360 0.0430 0.0530 0.0630
8.873413 0.0660 0.0810 0.0890 0.0990 0.1090
8.906000 0.1240 0.1380 0.1490 0.1630 0.1780
8.939413 0.1930 0.1990 0.2020 0.2120 0.2120
8.973000 0.2160 0.2220 0.2270 0.2310 0.2370
9.006413 0.2460 0.2520 0.2570 0.2640 0.2710
9.040000 0.2770 0.2860 0.2960 0.3060 0.3210
9.073413 0.3360 0.3520 0.3670 0.3810 0.3970
9.107000 0.4170 0.4320 0.4450 0.4570 0.4700
9.140413 0.4820 0.4920 0.5000 0.5120 0.5250
9.174000 0.5370 0.5420 0.5450 0.5520 0.5620
9.207413 0.5720 0.5800 0.5890 0.5940 0.5970
9.240000 0.6000 0.6020 0.6070 0.6080 0.6100
9.273413 0.6120 0.6150 0.6170 0.6180 0.6220
9.307000 0.6230 0.6250 0.6250 0.6280 0.6300
9.340413 0.6320 0.6330 0.6330 0.6330 0.6330
9.374000 0.6330 0.6320 0.6300 0.6220 0.6120
9.407413 0.6020 0.6000 0.5790 0.5450 0.5250
9.441000 0.4850 0.4700 0.4090 0.3760 0.3410
9.474413 0.2910 0.2360 0.2140 0.1460 0.1060
9.508000 0.0760 0.0530 0.0380 0.0280 0.0240
9.541413 0.0230 0.0230 0.0240 0.0310 0.0360
9.574000 0.0510 0.0680 0.0910 0.1240 0.1680
9.607413 0.2120 0.2570 0.2960 0.3260 0.3410
9.641000 0.3660 0.4000 0.4340 0.4550 0.4800
9.674413 0.4970 0.5100 0.5270 0.5400 0.5540
9.708000 0.5650 0.5770 0.5870 0.5950 0.6020
9.741413 0.6080 0.6130 0.6180 0.6200 0.6200
9.775000 0.6180 0.6130 0.6120 0.6100 0.5850
9.808413 0.5820 0.5570 0.4900 0.4670 0.4600
9.842000 0.4550 0.4490 0.4470 0.4490 0.4620
9.875413 0.4740 0.4840 0.4940 0.5620 0.5800
9.908000 0.5990 0.6180 0.6220 0.6220 0.6200
9.941413 0.6030 0.5620 0.5200 0.4800 0.4300
9.975000 0.3190 0.2870 0.2520 0.2190 0.2170
10.008413 0.2210 0.2390 0.2660 0.3140 0.4240
10.042000 0.4770 0.5050 0.5300 0.5670 0.5820
10.075413 0.5990 0.6180 0.6350 0.6500 0.6580
10.109000 0.6700 0.6850 0.6950 0.6950 0.6980
10.142413 0.7030 0.7100 0.7130 0.7180 0.7220
10.176000 0.7230 0.7270 0.7280 0.7280 0.7300
10.209413 0.7300 0.7320 0.7320 0.7330 0.7330
10.242000 0.7330 0.7330 0.7350 0.7350 0.7350
10.275413 0.7370 0.7370 0.7370 0.7380 0.7380
10.309000 0.7380 0.7380 0.7400 0.7450 0.7470
10.342413 0.7480 0.7500 0.7520 0.7530 0.7550
10.376000 0.7550 0.7550 0.7550 0.7570 0.7580
10.409413 0.7580 0.7600 0.7600 0.7620 0.7630
10.443000 0.7670 0.7700 0.7730 0.7770 0.7780
10.476413 0.7800 0.7820 0.7830 0.7870 0.7880
10.510000 0.7880 0.7900 0.7920 0.7930 0.7950
10.543413 0.7970 0.7970 0.7980 0.7980 0.7980
10.576000 0.7980 0.7980 0.7980 0.7980 0.7980
10.609413 0.8000 0.8000 0.8000 0.8000 0.8010
10.643000 0.8010 0.8010 0.8010 0.8010 0.8030
10.676413 0.8030 0.8030 0.8030 0.8050 0.8050
10.710000 0.8060 0.8060 0.8100 0.8100 0.8110
10.743413 0.8110 0.8130 0.8150 0.8180 0.8210
10.777000 0.8230 0.8230 0.8230 0.8250 0.8250
10.810413 0.8250 0.8260 0.8260 0.8260 0.8260
10.844000 0.8260 0.8260 0.8260 0.8260 0.8260
10.877413 0.8280 0.8280 0.8280 0.8300 0.8300
10.910000 0.8300 0.8300 0.8310 0.8310 0.8330
10.943413 0.8380 0.8400 0.8400 0.8410 0.8410
10.977000 0.8430 0.8430 0.8450 0.8450 0.8460
11.010413 0.8460 0.8480 0.8480 0.8500 0.8510
11.044000 0.8510 0.8510 0.8510 0.8510 0.8530
11.077413 0.8530 0.8530 0.8530 0.8530 0.8550
11.111000 0.8550 0.8550 0.8550 0.8550 0.8550
11.144413 0.8550 0.8550 0.8550 0.8550 0.8550
11.177000 0.8550 0.8550 0.8550 0.8550 0.8560
11.210413 0.8560 0.8560 0.8560 0.8560 0.8560
11.244000 0.8580 0.8580 0.8600 0.8600 0.8600
11.277413 0.8610 0.8610 0.8650 0.8660 0.8660
11.311000 0.8680 0.8680 0.8700 0.8730 0.8730
11.344413 0.8750 0.8750 0.8760 0.8760 0.8780
11.378000 0.8780 0.8780 0.8780 0.8780 0.8780
11.411413 0.8760 0.8760 0.8760 0.8760 0.8760
11.445000 0.8760 0.8760 0.8780 0.8780 0.8780
11.478413 0.8780 0.8780 0.8780 0.8760 0.8750
11.511000 0.8730 0.8700 0.8700 0.8680 0.8660
11.544413 0.8660 0.8650 0.8650 0.8630 0.8630
11.578000 0.8610 0.8600 0.8600 0.8580 0.8560
11.611413 0.8560 0.8560 0.8560 0.8560 0.8560
11.645000 0.8550 0.8550 0.8550 0.8550 0.8550
11.678413 0.8550 0.8560 0.8580 0.8600 0.8600
11.712000 0.8600 0.8600 0.8600 0.8600 0.8600
11.745413 0.8600 0.8580 0.8580 0.8560 0.8550
11.779000 0.8510 0.8480 0.8450 0.8410 0.8380
11.812413 0.8360 0.8330 0.8310 0.8260 0.8230
11.845000 0.8180 0.8130 0.8050 0.8010 0.7970
11.878413 0.7930 0.7880 0.7830 0.7770 0.7730
11.912000 0.7600 0.7550 0.7470 0.7420 0.7400
11.945413 0.7380 0.7370 0.7350 0.7350 0.7350
11.979000 0.7370 0.7380 0.7380 0.7400 0.7420
12.012413 0.7420 0.7420 0.7420 0.7400 0.7330
12.046000 0.7220 0.7150 0.6950 0.6720 0.6480
12.079413 0.6250 0.6020 0.5750 0.5450 0.5140
12.113000 0.4750 0.4300 0.4000 0.3510 0.3010
12.146413 0.2610 0.2020 0.1580 0.1160 0.1040
12.179000 0.0880 0.0860 0.0880 0.0960 0.1080
12.212413 0.1790 0.2460 0.3110 0.3720 0.4300
12.246000 0.4850 0.5340 0.5770 0.6150 0.6480
12.279413 0.6730 0.6900 0.7080 0.7220 0.7350
12.313000 0.7470 0.7570 0.7650 0.7730 0.7800
12.346413 0.7870 0.7920 0.7950 0.7980 0.8010
12.380000 0.8050 0.8060 0.8080 0.8110 0.8130
12.413413 0.8150 0.8160 0.8200 0.8210 0.8230
12.447000 0.8250 0.8260 0.8260 0.8280 0.8300
12.480413 0.8300 0.8310 0.8330 0.8330 0.8330
12.513000 0.8330 0.8330 0.8330 0.8330 0.8330
12.546413 0.8330 0.8330 0.8310 0.8310 0.8310
12.580000 0.8310 0.8310 0.8310 0.8310 0.8310
12.613413 0.8310 0.8330 0.8330 0.8350 0.8350
12.647000 0.8360 0.8380 0.8400 0.8410 0.8430
12.680413 0.8430 0.8430 0.8450 0.8450 0.8460
12.714000 0.8460 0.8480 0.8480 0.8480 0.8480
12.747413 0.8480 0.8480 0.8480 0.8480 0.8480
12.781000 0.8480 0.8480 0.8480 0.8480 0.8480
12.814413 0.8480 0.8460 0.8460 0.8450 0.8430
12.847000 0.8430 0.8410 0.8400 0.8380 0.8360
12.880413 0.8350 0.8330 0.8310 0.8300 0.8280
12.914000 0.8260 0.8250 0.8230 0.8210 0.8210
12.947413 0.8210 0.8210 0.8200 0.8200 0.8180
12.981000 0.8180 0.8180 0.8180 0.8160 0.8160
13.014413 0.8130 0.8100 0.8100 0.8080 0.8080
13.048000 0.8060 0.8060 0.8050 0.8050 0.8050
13.081413 0.8050 0.8050 0.8050 0.8050 0.8050
13.115000 0.8060 0.8080 0.8080 0.8100 0.8100
13.148413 0.8110 0.8130 0.8150 0.8150 0.8150
13.181000 0.8150 0.8150 0.8130 0.8110 0.8080
13.214413 0.8080 0.8060 0.8030 0.8000 0.7980
13.248000 0.7970 0.7950 0.7900 0.7870 0.7830
13.281413 0.7800 0.7770 0.7750 0.7730 0.7700
13.315000 0.7670 0.7650 0.7600 0.7570 0.7520
13.348413 0.7470 0.7420 0.7370 0.7330 0.7270
13.382000 0.7220 0.7150 0.7080 0.7000 0.6900
13.415413 0.6800 0.6680 0.6550 0.6400 0.6280
13.448000 0.6150 0.6020 0.5890 0.5750 0.5600
13.481413 0.5470 0.5300 0.5140 0.4970 0.4770
13.515000 0.4570 0.4370 0.4140 0.3910 0.3640
13.548413 0.3360 0.3060 0.2770 0.2510 0.2260
13.582000 0.2040 0.1830 0.1610 0.1390 0.1160
13.615413 0.0890 0.0810 0.0690 0.0580 0.0460
13.649000 0.0380 0.0310 0.0260 0.0240 0.0230
13.682413 0.0230 0.0230 0.0230 0.0240 0.0240
13.716000 0.0240 0.0260 0.0280 0.0290 0.0340
13.749413 0.0380 0.0510 0.0640 0.0780 0.0910
13.782000 0.1060 0.1230 0.1380 0.1540 0.1730
13.815413 0.1910 0.2090 0.2270 0.2440 0.2590
13.849000 0.2720 0.2840 0.2960 0.3070 0.3210
13.882413 0.3290 0.3320 0.3340 0.3370 0.3390
13.916000 0.3410 0.3410 0.3420 0.3420 0.3420
13.949413 0.3440 0.3470 0.3540 0.3620 0.3710
13.983000 0.3820 0.3960 0.4100 0.4290 0.4490
14.016413 0.4700 0.4850 0.4990 0.5120 0.5250
14.050000 0.5400 0.5550 0.5650 0.5740 0.5820
14.083413 0.5900 0.5970 0.6050 0.6120 0.6180
14.116000 0.6250 0.6300 0.6370 0.6400 0.6450
14.149413 0.6480 0.6500 0.6550 0.6570 0.6600
14.183000 0.6630 0.6650 0.6650 0.6680 0.6700
14.216413 0.6720 0.6730 0.6750 0.6750 0.6770
14.250000 0.6770 0.6780 0.6780 0.6780 0.6780
14.283413 0.6780 0.6780 0.6780 0.6780 0.6780
14.317000 0.6780 0.6780 0.6780 0.6780 0.6770
14.350413 0.6750 0.6730 0.6730 0.6720 0.6700
14.384000 0.6700 0.6680 0.6670 0.6650 0.6620
14.417413 0.6600 0.6600 0.6580 0.6550 0.6530
14.450000 0.6530 0.6500 0.6470 0.6470 0.6450
14.483413 0.6430 0.6430 0.6420 0.6420 0.6400
14.517000 0.6400 0.6400 0.6400 0.6400 0.6400
14.550413 0.6400 0.6400 0.6400 0.6400 0.6400
14.584000 0.6380 0.6380 0.6370 0.6370 0.6350
14.617413 0.6350 0.6330 0.6320 0.6320 0.6300
14.651000 0.6280 0.6230 0.6200 0.6170 0.6150
14.684413 0.6150 0.6130 0.6100 0.6100 0.6070
14.718000 0.6070 0.6050 0.6030 0.6030 0.6020
14.751413 0.6020 0.6020 0.6020 0.6020 0.6000
14.784000 0.6000 0.6000 0.6000 0.6020 0.6020
14.817413 0.6020 0.6020 0.6020 0.6020 0.6020
14.851000 0.6020 0.6020 0.6020 0.6020 0.6000
14.884413 0.5990 0.5990 0.5970 0.5970 0.5970
14.918000 0.5950 0.5950 0.5940 0.5940 0.5920
14.951413 0.5920 0.5900 0.5890 0.5870 0.5870
14.985000 0.5850 0.5850 0.5840 0.5820 0.5800
15.018413 0.5790 0.5750 0.5700 0.5700 0.5690
15.052000 0.5690 0.5690 0.5670 0.5670 0.5670
15.085413 0.5670 0.5640 0.5640 0.5640 0.5640
15.118000 0.5640 0.5640 0.5640 0.5620 0.5600
15.151413 0.5590 0.5570 0.5570 0.5550 0.5550
15.185000 0.5540 0.5520 0.5520 0.5500 0.5490
15.218413 0.5450 0.5420 0.5400 0.5400 0.5390
15.252000 0.5390 0.5390 0.5370 0.5370 0.5370
15.285413 0.5350 0.5350 0.5320 0.5290 0.5290
15.319000 0.5270 0.5250 0.5240 0.5240 0.5220
15.352413 0.5200 0.5190 0.5150 0.5140 0.5100
15.385000 0.5050 0.5040 0.5000 0.4990 0.4950
15.418413 0.4920 0.4890 0.4850 0.4820 0.4790
15.452000 0.4750 0.4700 0.4670 0.4620 0.4550
15.485413 0.4500 0.4440 0.4370 0.4300 0.4240
15.519000 0.4150 0.4050 0.4020 0.3970 0.3920
15.552413 0.3910 0.3870 0.3820 0.3770 0.3740
15.586000 0.3720 0.3720 0.3710 0.3710 0.3690
15.619413 0.3690 0.3670 0.3670 0.3670 0.3670
15.653000 0.3670 0.3660 0.3660 0.3660 0.3660
15.686413 0.3640 0.3640 0.3640 0.3640 0.3620
15.719000 0.3620 0.3620 0.3620 0.3620 0.3620
15.752413 0.3610 0.3610 0.3610 0.3610 0.3610
15.786000 0.3610 0.3610 0.3610 0.3590 0.3590
15.819413 0.3590 0.3570 0.3570 0.3560 0.3560
15.853000 0.3540 0.3540 0.3520 0.3510 0.3510
##END=
