##TITLE=BARIUM OXALATE
##JCAMP-DX=4.24
##DATA TYPE=INFRARED SPECTRUM
##CLASS=COBLENTZ
##OWNER=COBLENTZ SOCIETY
Collection (C) 2018 copyright by the U.S. Secretary of Commerce
on behalf of the United States of America. All rights reserved.
##DATE=Not specified, most likely prior to 1970
##MOLFORM=Ba C2 O4  * H2 O
##SOURCE REFERENCE=COBLENTZ NO. 64
##$NIST ID=B6000064
##$NIST SOURCE=COBLENTZ
##$NIST IMAGE=cob64
##SPECTROMETER/DATA SYSTEM=Not specified, most likely a prism, grating, or hybrid spectrometer.
##STATE=SOLID (KBr DISC)
##SAMPLING PROCEDURE=TRANSMISSION
##RESOLUTION=4
##DATA PROCESSING=DIGITIZED BY NIST FROM HARD COPY
##XUNITS=MICROMETERS
##YUNITS=TRANSMITTANCE
##XFACTOR=1.000000
##YFACTOR=1
##DELTAX=000.007660
##FIRSTX=2.07
##LASTX=16.01
##FIRSTY=0.88
##MAXX=16.01
##MINX=2.07
##MAXY=0.976
##MINY=0.072
##NPOINTS=1821
##XYDATA=(X++(Y..Y))
2.070000 0.8800 0.8800 0.8800 0.8820 0.8820
2.108319 0.8830 0.8850 0.8850 0.8860 0.8880
2.146000 0.8890 0.8890 0.8910 0.8910 0.8910
2.184319 0.8910 0.8910 0.8920 0.8940 0.8950
2.223000 0.8970 0.8970 0.8970 0.8980 0.8980
2.261319 0.9000 0.9000 0.9000 0.9000 0.9000
2.300000 0.9010 0.9010 0.9030 0.9030 0.9030
2.338319 0.9040 0.9040 0.9040 0.9040 0.9060
2.376000 0.9060 0.9060 0.9060 0.9070 0.9070
2.414319 0.9070 0.9090 0.9090 0.9100 0.9100
2.453000 0.9100 0.9120 0.9120 0.9120 0.9120
2.491319 0.9120 0.9120 0.9120 0.9120 0.9130
2.529000 0.9130 0.9130 0.9130 0.9150 0.9150
2.567319 0.9150 0.9150 0.9150 0.9150 0.9150
2.606000 0.9150 0.9150 0.9160 0.9160 0.9160
2.644319 0.9160 0.9160 0.9160 0.9180 0.9180
2.683000 0.9180 0.9180 0.9180 0.9180 0.9180
2.721319 0.9180 0.9180 0.9160 0.9130 0.9120
2.759000 0.8970 0.8800 0.8640 0.8240 0.8060
2.797319 0.7930 0.7750 0.7610 0.7520 0.7420
2.836000 0.7290 0.7270 0.7270 0.7260 0.7210
2.874319 0.7120 0.7020 0.6880 0.6830 0.6800
2.912000 0.6780 0.6800 0.6810 0.6810 0.6840
2.950319 0.6880 0.7020 0.7120 0.7210 0.7350
2.989000 0.7450 0.7690 0.7790 0.7870 0.7960
3.027319 0.8030 0.8080 0.8090 0.8160 0.8240
3.066000 0.8310 0.8370 0.8430 0.8480 0.8520
3.104319 0.8580 0.8640 0.8690 0.8720 0.8770
3.142000 0.8820 0.8830 0.8860 0.8920 0.8950
3.180319 0.8970 0.9010 0.9010 0.9010 0.9010
3.219000 0.9010 0.9030 0.9030 0.9030 0.9030
3.257319 0.9040 0.9040 0.9040 0.9060 0.9070
3.295000 0.9100 0.9120 0.9150 0.9160 0.9180
3.333319 0.9210 0.9220 0.9250 0.9280 0.9300
3.372000 0.9310 0.9310 0.9330 0.9330 0.9330
3.410319 0.9330 0.9310 0.9310 0.9300 0.9300
3.449000 0.9280 0.9300 0.9300 0.9300 0.9300
3.487319 0.9310 0.9310 0.9340 0.9360 0.9370
3.525000 0.9370 0.9380 0.9380 0.9400 0.9400
3.563319 0.9400 0.9400 0.9400 0.9400 0.9400
3.602000 0.9400 0.9400 0.9400 0.9400 0.9400
3.640319 0.9410 0.9410 0.9410 0.9430 0.9430
3.678000 0.9440 0.9460 0.9460 0.9460 0.9470
3.716319 0.9470 0.9470 0.9490 0.9490 0.9490
3.755000 0.9490 0.9490 0.9500 0.9500 0.9500
3.793319 0.9500 0.9500 0.9520 0.9520 0.9520
3.831000 0.9530 0.9530 0.9530 0.9530 0.9530
3.869319 0.9530 0.9550 0.9560 0.9550 0.9550
3.908000 0.9550 0.9550 0.9550 0.9550 0.9550
3.946319 0.9560 0.9580 0.9580 0.9580 0.9580
3.985000 0.9580 0.9580 0.9580 0.9580 0.9580
4.023319 0.9580 0.9590 0.9590 0.9590 0.9590
4.061000 0.9590 0.9590 0.9590 0.9610 0.9610
4.099319 0.9610 0.9610 0.9610 0.9610 0.9610
4.138000 0.9610 0.9610 0.9620 0.9620 0.9620
4.176319 0.9640 0.9620 0.9620 0.9620 0.9620
4.214000 0.9640 0.9640 0.9640 0.9640 0.9640
4.252319 0.9640 0.9620 0.9620 0.9620 0.9620
4.291000 0.9620 0.9620 0.9620 0.9620 0.9620
4.329319 0.9620 0.9620 0.9620 0.9620 0.9620
4.368000 0.9640 0.9640 0.9640 0.9650 0.9650
4.406319 0.9670 0.9670 0.9670 0.9680 0.9680
4.444000 0.9680 0.9680 0.9700 0.9700 0.9700
4.482319 0.9700 0.9700 0.9710 0.9710 0.9710
4.521000 0.9710 0.9710 0.9710 0.9710 0.9710
4.559319 0.9710 0.9710 0.9710 0.9710 0.9710
4.597000 0.9710 0.9710 0.9710 0.9710 0.9730
4.635319 0.9730 0.9730 0.9730 0.9730 0.9730
4.674000 0.9730 0.9730 0.9730 0.9730 0.9730
4.712319 0.9730 0.9730 0.9730 0.9730 0.9730
4.751000 0.9730 0.9730 0.9730 0.9730 0.9730
4.789319 0.9730 0.9730 0.9730 0.9730 0.9730
4.827000 0.9730 0.9730 0.9740 0.9740 0.9740
4.865319 0.9740 0.9740 0.9740 0.9740 0.9740
4.904000 0.9740 0.9740 0.9740 0.9740 0.9740
4.942319 0.9740 0.9740 0.9740 0.9740 0.9740
4.980000 0.9740 0.9740 0.9740 0.9740 0.9740
5.018319 0.9760 0.9740 0.9740 0.9740 0.9740
5.057000 0.9740 0.9740 0.9740 0.9740 0.9740
5.095319 0.9740 0.9740 0.9740 0.9730 0.9730
5.134000 0.9730 0.9730 0.9730 0.9730 0.9730
5.172319 0.9730 0.9730 0.9730 0.9730 0.9730
5.210000 0.9730 0.9730 0.9730 0.9730 0.9730
5.248319 0.9730 0.9730 0.9710 0.9710 0.9710
5.287000 0.9710 0.9710 0.9700 0.9700 0.9680
5.325319 0.9680 0.9680 0.9680 0.9700 0.9700
5.363000 0.9700 0.9700 0.9700 0.9700 0.9710
5.401319 0.9710 0.9710 0.9710 0.9710 0.9710
5.440000 0.9710 0.9710 0.9700 0.9700 0.9680
5.478319 0.9680 0.9670 0.9670 0.9650 0.9650
5.517000 0.9650 0.9650 0.9650 0.9650 0.9650
5.555319 0.9650 0.9640 0.9620 0.9590 0.9580
5.593000 0.9560 0.9550 0.9530 0.9530 0.9530
5.631319 0.9520 0.9500 0.9470 0.9460 0.9430
5.670000 0.9400 0.9400 0.9380 0.9380 0.9360
5.708319 0.9340 0.9310 0.9300 0.9280 0.9240
5.746000 0.9240 0.9190 0.9120 0.9100 0.9090
5.784319 0.9070 0.9040 0.9010 0.8950 0.8910
5.823000 0.8850 0.8800 0.8790 0.8760 0.8750
5.861319 0.8720 0.8630 0.8490 0.8340 0.8270
5.900000 0.8060 0.7870 0.7750 0.7630 0.7540
5.938319 0.7450 0.7150 0.6710 0.6420 0.6140
5.976000 0.5740 0.5020 0.4710 0.4380 0.3940
6.014319 0.3450 0.2940 0.2580 0.2210 0.1590
6.053000 0.1290 0.1200 0.1100 0.0990 0.0890
6.091319 0.0810 0.0740 0.0720 0.0720 0.0720
6.129000 0.0720 0.0720 0.0720 0.0720 0.0740
6.167319 0.0750 0.0770 0.0780 0.0800 0.0780
6.206000 0.0780 0.0780 0.0780 0.0780 0.0800
6.244319 0.0830 0.1170 0.1780 0.2090 0.2300
6.283000 0.2760 0.2990 0.3180 0.3340 0.3670
6.321319 0.4330 0.4620 0.4950 0.5440 0.5650
6.359000 0.5690 0.5780 0.5840 0.5950 0.6110
6.397319 0.6500 0.6720 0.6840 0.6900 0.6930
6.436000 0.6940 0.6970 0.7030 0.7110 0.7260
6.474319 0.7470 0.7700 0.7820 0.7910 0.7970
6.512000 0.8030 0.8080 0.8080 0.8090 0.8120
6.550319 0.8180 0.8250 0.8310 0.8390 0.8430
6.589000 0.8460 0.8480 0.8490 0.8510 0.8580
6.627319 0.8610 0.8640 0.8670 0.8700 0.8720
6.666000 0.8760 0.8760 0.8770 0.8770 0.8770
6.704319 0.8790 0.8770 0.8760 0.8750 0.8730
6.742000 0.8690 0.8640 0.8550 0.8510 0.8340
6.780319 0.8270 0.8300 0.8340 0.8430 0.8490
6.819000 0.8540 0.8570 0.8600 0.8610 0.8690
6.857319 0.8770 0.8800 0.8830 0.8860 0.8880
6.895000 0.8880 0.8890 0.8910 0.8910 0.8910
6.933319 0.8910 0.8940 0.8940 0.8950 0.8970
6.972000 0.8970 0.8970 0.8980 0.8970 0.8970
7.010319 0.8970 0.8970 0.8950 0.8950 0.8950
7.049000 0.8950 0.8950 0.8940 0.8940 0.8940
7.087319 0.8940 0.8950 0.8950 0.8950 0.8950
7.125000 0.8970 0.8970 0.8970 0.8980 0.9000
7.163319 0.9010 0.9030 0.9040 0.9040 0.9060
7.202000 0.9070 0.9090 0.9100 0.9100 0.9120
7.240319 0.9120 0.9120 0.9130 0.9130 0.9130
7.278000 0.9130 0.9130 0.9130 0.9130 0.9130
7.316319 0.9130 0.9120 0.9090 0.9070 0.9030
7.355000 0.9010 0.8950 0.8890 0.8830 0.8750
7.393319 0.8690 0.8630 0.8480 0.8240 0.7910
7.431000 0.7670 0.7420 0.6620 0.5810 0.4890
7.469319 0.3970 0.3030 0.2570 0.2090 0.2060
7.508000 0.2030 0.2020 0.2030 0.2080 0.2350
7.546319 0.3130 0.3190 0.3090 0.3000 0.2580
7.585000 0.2170 0.2140 0.2140 0.2240 0.3400
7.623319 0.4160 0.4560 0.4760 0.5560 0.5890
7.661000 0.6160 0.6630 0.6880 0.7110 0.7300
7.699319 0.7420 0.7730 0.7850 0.7900 0.7940
7.738000 0.8000 0.8030 0.8060 0.8090 0.8120
7.776319 0.8160 0.8210 0.8250 0.8280 0.8310
7.814000 0.8330 0.8340 0.8390 0.8430 0.8510
7.852319 0.8570 0.8610 0.8660 0.8690 0.8820
7.891000 0.8850 0.8880 0.8890 0.8910 0.8950
7.929319 0.8970 0.9000 0.9030 0.9040 0.9060
7.968000 0.9070 0.9100 0.9100 0.9120 0.9130
8.006319 0.9130 0.9150 0.9150 0.9160 0.9160
8.044000 0.9180 0.9180 0.9180 0.9190 0.9190
8.082319 0.9210 0.9240 0.9250 0.9250 0.9270
8.121000 0.9270 0.9280 0.9280 0.9300 0.9300
8.159319 0.9300 0.9300 0.9300 0.9310 0.9310
8.197000 0.9310 0.9310 0.9310 0.9310 0.9330
8.235319 0.9330 0.9330 0.9330 0.9330 0.9330
8.274000 0.9330 0.9340 0.9340 0.9340 0.9340
8.312319 0.9360 0.9360 0.9360 0.9360 0.9360
8.351000 0.9360 0.9360 0.9360 0.9360 0.9370
8.389319 0.9370 0.9370 0.9370 0.9370 0.9380
8.427000 0.9380 0.9380 0.9400 0.9400 0.9400
8.465319 0.9400 0.9400 0.9410 0.9410 0.9410
8.504000 0.9400 0.9400 0.9410 0.9410 0.9410
8.542319 0.9410 0.9410 0.9410 0.9410 0.9430
8.580000 0.9430 0.9430 0.9430 0.9430 0.9430
8.618319 0.9430 0.9430 0.9430 0.9430 0.9430
8.657000 0.9430 0.9440 0.9440 0.9440 0.9430
8.695319 0.9440 0.9440 0.9440 0.9440 0.9440
8.734000 0.9440 0.9440 0.9440 0.9440 0.9440
8.772319 0.9440 0.9460 0.9460 0.9460 0.9470
8.810000 0.9470 0.9470 0.9470 0.9470 0.9490
8.848319 0.9490 0.9490 0.9500 0.9500 0.9500
8.887000 0.9500 0.9500 0.9520 0.9520 0.9520
8.925319 0.9520 0.9530 0.9530 0.9530 0.9530
8.963000 0.9530 0.9530 0.9530 0.9550 0.9550
9.001319 0.9550 0.9550 0.9550 0.9550 0.9550
9.040000 0.9550 0.9550 0.9550 0.9550 0.9550
9.078319 0.9550 0.9550 0.9550 0.9550 0.9550
9.117000 0.9550 0.9550 0.9550 0.9550 0.9550
9.155319 0.9550 0.9550 0.9550 0.9550 0.9550
9.193000 0.9550 0.9550 0.9550 0.9550 0.9550
9.231319 0.9550 0.9550 0.9550 0.9550 0.9550
9.270000 0.9550 0.9550 0.9550 0.9550 0.9550
9.308319 0.9550 0.9550 0.9550 0.9550 0.9550
9.346000 0.9560 0.9560 0.9560 0.9560 0.9560
9.384319 0.9560 0.9560 0.9560 0.9560 0.9560
9.423000 0.9560 0.9560 0.9560 0.9560 0.9560
9.461319 0.9560 0.9560 0.9560 0.9580 0.9580
9.500000 0.9580 0.9580 0.9580 0.9580 0.9580
9.538319 0.9580 0.9580 0.9580 0.9580 0.9580
9.576000 0.9580 0.9580 0.9580 0.9580 0.9580
9.614319 0.9580 0.9590 0.9590 0.9590 0.9590
9.653000 0.9590 0.9590 0.9610 0.9610 0.9610
9.691319 0.9610 0.9610 0.9610 0.9610 0.9610
9.729000 0.9610 0.9610 0.9610 0.9610 0.9610
9.767319 0.9610 0.9610 0.9610 0.9610 0.9610
9.806000 0.9610 0.9610 0.9610 0.9610 0.9610
9.844319 0.9610 0.9610 0.9610 0.9610 0.9610
9.883000 0.9610 0.9610 0.9610 0.9610 0.9610
9.921319 0.9610 0.9610 0.9610 0.9610 0.9610
9.959000 0.9610 0.9610 0.9610 0.9610 0.9610
9.997319 0.9610 0.9610 0.9610 0.9590 0.9590
10.036000 0.9610 0.9610 0.9610 0.9610 0.9610
10.074319 0.9590 0.9590 0.9590 0.9590 0.9590
10.112000 0.9610 0.9610 0.9610 0.9610 0.9610
10.150319 0.9610 0.9610 0.9610 0.9610 0.9610
10.189000 0.9610 0.9610 0.9610 0.9610 0.9610
10.227319 0.9610 0.9610 0.9620 0.9620 0.9610
10.266000 0.9610 0.9610 0.9620 0.9620 0.9620
10.304319 0.9620 0.9620 0.9620 0.9610 0.9610
10.342000 0.9610 0.9610 0.9610 0.9610 0.9610
10.380319 0.9610 0.9610 0.9610 0.9610 0.9610
10.419000 0.9610 0.9610 0.9610 0.9610 0.9610
10.457319 0.9610 0.9610 0.9610 0.9610 0.9610
10.495000 0.9610 0.9610 0.9610 0.9610 0.9610
10.533319 0.9610 0.9610 0.9610 0.9610 0.9610
10.572000 0.9610 0.9610 0.9610 0.9610 0.9610
10.610319 0.9610 0.9610 0.9610 0.9610 0.9610
10.649000 0.9610 0.9610 0.9610 0.9610 0.9610
10.687319 0.9610 0.9610 0.9610 0.9610 0.9610
10.725000 0.9610 0.9610 0.9610 0.9610 0.9610
10.763319 0.9610 0.9610 0.9610 0.9610 0.9610
10.802000 0.9610 0.9610 0.9610 0.9610 0.9610
10.840319 0.9610 0.9610 0.9610 0.9610 0.9610
10.878000 0.9610 0.9610 0.9610 0.9610 0.9610
10.916319 0.9610 0.9610 0.9610 0.9610 0.9610
10.955000 0.9590 0.9610 0.9610 0.9610 0.9610
10.993319 0.9610 0.9610 0.9610 0.9610 0.9590
11.031000 0.9590 0.9590 0.9580 0.9560 0.9530
11.069319 0.9520 0.9490 0.9490 0.9490 0.9490
11.108000 0.9470 0.9470 0.9490 0.9490 0.9490
11.146319 0.9500 0.9500 0.9500 0.9520 0.9530
11.185000 0.9530 0.9530 0.9550 0.9550 0.9550
11.223319 0.9550 0.9550 0.9550 0.9550 0.9550
11.261000 0.9550 0.9550 0.9550 0.9550 0.9550
11.299319 0.9550 0.9550 0.9550 0.9550 0.9550
11.338000 0.9550 0.9550 0.9550 0.9560 0.9550
11.376319 0.9550 0.9550 0.9550 0.9550 0.9550
11.414000 0.9550 0.9530 0.9530 0.9550 0.9530
11.452319 0.9500 0.9440 0.9380 0.9270 0.9100
11.491000 0.8980 0.8940 0.8940 0.9000 0.9060
11.529319 0.9150 0.9210 0.9300 0.9340 0.9380
11.568000 0.9410 0.9440 0.9440 0.9440 0.9440
11.606319 0.9440 0.9440 0.9440 0.9440 0.9460
11.644000 0.9460 0.9460 0.9460 0.9460 0.9460
11.682319 0.9460 0.9470 0.9470 0.9470 0.9490
11.721000 0.9490 0.9490 0.9490 0.9500 0.9500
11.759319 0.9500 0.9500 0.9500 0.9500 0.9500
11.797000 0.9500 0.9500 0.9500 0.9500 0.9500
11.835319 0.9520 0.9520 0.9520 0.9520 0.9520
11.874000 0.9520 0.9520 0.9520 0.9520 0.9520
11.912319 0.9520 0.9520 0.9520 0.9520 0.9520
11.951000 0.9520 0.9520 0.9520 0.9520 0.9520
11.989319 0.9520 0.9520 0.9520 0.9520 0.9520
12.027000 0.9520 0.9520 0.9530 0.9530 0.9530
12.065319 0.9530 0.9530 0.9530 0.9530 0.9550
12.104000 0.9550 0.9550 0.9530 0.9530 0.9530
12.142319 0.9530 0.9550 0.9550 0.9550 0.9530
12.180000 0.9530 0.9530 0.9530 0.9530 0.9530
12.218319 0.9530 0.9530 0.9530 0.9530 0.9530
12.257000 0.9530 0.9530 0.9530 0.9530 0.9520
12.295319 0.9520 0.9520 0.9520 0.9520 0.9520
12.334000 0.9520 0.9530 0.9530 0.9530 0.9520
12.372319 0.9520 0.9500 0.9490 0.9490 0.9490
12.410000 0.9490 0.9470 0.9470 0.9460 0.9440
12.448319 0.9430 0.9430 0.9410 0.9400 0.9400
12.487000 0.9400 0.9400 0.9380 0.9380 0.9380
12.525319 0.9380 0.9370 0.9360 0.9330 0.9310
12.563000 0.9280 0.9250 0.9220 0.9190 0.9150
12.601319 0.9130 0.9100 0.9060 0.9010 0.8970
12.640000 0.8910 0.8860 0.8790 0.8760 0.8720
12.678319 0.8510 0.8420 0.8330 0.8190 0.8020
12.717000 0.7720 0.7600 0.7500 0.7380 0.7170
12.755319 0.6380 0.6140 0.5900 0.5500 0.5190
12.793000 0.4890 0.4580 0.4030 0.3880 0.3730
12.831319 0.3510 0.3280 0.3130 0.3050 0.3050
12.870000 0.3060 0.3080 0.3120 0.3150 0.3220
12.908319 0.3250 0.3280 0.3280 0.3300 0.3360
12.946000 0.3460 0.3640 0.4000 0.4250 0.4610
12.984319 0.4880 0.5410 0.5720 0.5950 0.6160
13.023000 0.6570 0.6720 0.7020 0.7170 0.7330
13.061319 0.7470 0.7640 0.7750 0.7820 0.7910
13.100000 0.7970 0.8080 0.8090 0.8130 0.8210
13.138319 0.8280 0.8340 0.8400 0.8430 0.8460
13.176000 0.8490 0.8540 0.8580 0.8610 0.8630
13.214319 0.8660 0.8690 0.8700 0.8720 0.8730
13.253000 0.8760 0.8820 0.8830 0.8850 0.8880
13.291319 0.8910 0.8920 0.8950 0.8970 0.8970
13.329000 0.8980 0.8980 0.8980 0.9000 0.9000
13.367319 0.9000 0.9010 0.9030 0.9030 0.9040
13.406000 0.9040 0.9040 0.9060 0.9070 0.9070
13.444319 0.9070 0.9090 0.9090 0.9090 0.9090
13.483000 0.9090 0.9090 0.9090 0.9090 0.9100
13.521319 0.9100 0.9100 0.9100 0.9120 0.9120
13.559000 0.9120 0.9120 0.9120 0.9120 0.9120
13.597319 0.9120 0.9130 0.9130 0.9130 0.9130
13.636000 0.9130 0.9130 0.9130 0.9130 0.9130
13.674319 0.9130 0.9130 0.9130 0.9130 0.9130
13.712000 0.9130 0.9130 0.9150 0.9150 0.9150
13.750319 0.9150 0.9150 0.9150 0.9150 0.9150
13.789000 0.9150 0.9150 0.9150 0.9160 0.9160
13.827319 0.9160 0.9160 0.9180 0.9180 0.9180
13.866000 0.9180 0.9180 0.9180 0.9180 0.9180
13.904319 0.9180 0.9180 0.9190 0.9190 0.9190
13.942000 0.9190 0.9180 0.9180 0.9180 0.9190
13.980319 0.9190 0.9190 0.9180 0.9180 0.9180
14.019000 0.9180 0.9180 0.9180 0.9180 0.9180
14.057319 0.9180 0.9180 0.9180 0.9180 0.9180
14.095000 0.9180 0.9180 0.9180 0.9180 0.9180
14.133319 0.9180 0.9180 0.9180 0.9180 0.9180
14.172000 0.9180 0.9180 0.9180 0.9180 0.9180
14.210319 0.9180 0.9180 0.9180 0.9180 0.9180
14.249000 0.9180 0.9180 0.9180 0.9180 0.9180
14.287319 0.9160 0.9160 0.9160 0.9160 0.9160
14.325000 0.9160 0.9160 0.9160 0.9160 0.9160
14.363319 0.9160 0.9150 0.9150 0.9150 0.9150
14.402000 0.9150 0.9150 0.9130 0.9130 0.9130
14.440319 0.9120 0.9120 0.9100 0.9100 0.9100
14.478000 0.9100 0.9100 0.9120 0.9120 0.9100
14.516319 0.9090 0.9090 0.9070 0.9060 0.9040
14.555000 0.9030 0.9010 0.9010 0.9000 0.8980
14.593319 0.8970 0.8950 0.8950 0.8940 0.8920
14.631000 0.8910 0.8890 0.8880 0.8880 0.8860
14.669319 0.8860 0.8850 0.8850 0.8830 0.8830
14.708000 0.8820 0.8820 0.8820 0.8800 0.8800
14.746319 0.8820 0.8820 0.8820 0.8820 0.8820
14.785000 0.8800 0.8800 0.8800 0.8800 0.8800
14.823319 0.8800 0.8800 0.8800 0.8800 0.8800
14.861000 0.8790 0.8790 0.8790 0.8790 0.8790
14.899319 0.8790 0.8790 0.8790 0.8790 0.8790
14.938000 0.8790 0.8790 0.8790 0.8790 0.8790
14.976319 0.8790 0.8790 0.8800 0.8800 0.8800
15.014000 0.8800 0.8800 0.8800 0.8800 0.8800
15.052319 0.8800 0.8800 0.8800 0.8800 0.8800
15.091000 0.8800 0.8800 0.8800 0.8800 0.8800
15.129319 0.8800 0.8800 0.8800 0.8800 0.8800
15.168000 0.8820 0.8830 0.8830 0.8850 0.8850
15.206319 0.8850 0.8850 0.8850 0.8850 0.8850
15.244000 0.8860 0.8860 0.8880 0.8880 0.8880
15.282319 0.8880 0.8880 0.8880 0.8890 0.8890
15.321000 0.8890 0.8890 0.8910 0.8910 0.8910
15.359319 0.8910 0.8920 0.8920 0.8940 0.8950
15.397000 0.8950 0.8970 0.8970 0.8980 0.8980
15.435319 0.8980 0.8980 0.8980 0.9000 0.9000
15.474000 0.9000 0.9000 0.9000 0.9010 0.9010
15.512319 0.9010 0.9010 0.9010 0.9010 0.9030
15.551000 0.9030 0.9030 0.9030 0.9030 0.9040
15.589319 0.9040 0.9040 0.9040 0.9040 0.9060
15.627000 0.9060 0.9060 0.9070 0.9090 0.9090
15.665319 0.9090 0.9090 0.9090 0.9090 0.9090
15.704000 0.9090 0.9090 0.9090 0.9090 0.9090
15.742319 0.9090 0.9100 0.9100 0.9100 0.9100
15.780000 0.9100 0.9100 0.9100 0.9100 0.9100
15.818319 0.9090 0.9090 0.9090 0.9090 0.9060
15.857000 0.9040 0.9010 0.8950 0.8890 0.8880
15.895319 0.8850 0.8820 0.8800 0.8790 0.8790
15.934000 0.8820 0.8920 0.9010 0.9070 0.8820
15.972319 0.8800 0.8790 0.8790 0.8820 0.8920
16.010000 0.9010
##END=
