##TITLE=BENZOPHENONE, 2-HYDROXY-4,4'-BIS(TETRADECYLOXY)-
##JCAMP-DX=4.24
##DATA TYPE=INFRARED SPECTRUM
##CLASS=COBLENTZ
##ORIGIN=TENNESSEE EASTMAN COMPANY, RESEARCH LABORATORIES
##OWNER=COBLENTZ SOCIETY
Collection (C) 2018 copyright by the U.S. Secretary of Commerce
on behalf of the United States of America. All rights reserved.
##DATE=Not specified, most likely prior to 1970
##NAMES=[2-hydroxy-4-(tetradecyloxy)phenyl][4-(tetradecyloxy)phenyl]methanone
##MOLFORM=C41 H66 O4
##SOURCE REFERENCE=COBLENTZ NO. 752
##$NIST ID=B6000752
##$NIST SOURCE=COBLENTZ
##$NIST IMAGE=cob752
##SPECTROMETER/DATA SYSTEM=Not specified, most likely a prism, grating, or hybrid spectrometer.
##STATE=SOLID (KBr PELLET)
##SAMPLING PROCEDURE=TRANSMISSION
##RESOLUTION=4
##DATA PROCESSING=DIGITIZED BY NIST FROM HARD COPY
##XUNITS=MICROMETERS
##YUNITS=TRANSMITTANCE
##XFACTOR=1.000000
##YFACTOR=1
##DELTAX=000.006842
##FIRSTX=2.034
##LASTX=15.9988
##FIRSTY=0.689
##MAXX=15.9988
##MINX=2.034
##MAXY=0.991
##MINY=0.07
##NPOINTS=2042
##XYDATA=(X++(Y..Y))
2.034000 0.6890 0.6890 0.6890 0.6890 0.6890
2.068227 0.6870 0.6870 0.6870 0.6890 0.6870
2.103000 0.6890 0.6890 0.6890 0.6890 0.6890
2.137227 0.6870 0.6870 0.6870 0.6870 0.6890
2.171000 0.6890 0.6890 0.6890 0.6890 0.6900
2.205227 0.6900 0.6900 0.6900 0.6920 0.6920
2.239000 0.6920 0.6920 0.6920 0.6920 0.6920
2.273227 0.6920 0.6920 0.6920 0.6920 0.6940
2.308000 0.6940 0.6940 0.6940 0.6950 0.6950
2.342227 0.6950 0.6950 0.6970 0.6990 0.6990
2.376000 0.7010 0.7010 0.7020 0.7020 0.7020
2.410227 0.7040 0.7040 0.7070 0.7090 0.7130
2.445000 0.7140 0.7180 0.7190 0.7210 0.7230
2.479227 0.7250 0.7250 0.7260 0.7260 0.7260
2.513000 0.7260 0.7260 0.7260 0.7280 0.7280
2.547227 0.7280 0.7280 0.7280 0.7280 0.7280
2.582000 0.7300 0.7300 0.7310 0.7330 0.7330
2.616227 0.7330 0.7330 0.7350 0.7350 0.7370
2.650000 0.7370 0.7370 0.7380 0.7400 0.7400
2.684227 0.7400 0.7400 0.7400 0.7380 0.7350
2.718000 0.7300 0.7210 0.7130 0.7040 0.6920
2.752227 0.6820 0.6700 0.6640 0.6580 0.6460
2.787000 0.6350 0.6250 0.6160 0.6090 0.6030
2.821227 0.5970 0.5960 0.5890 0.5820 0.5790
2.855000 0.5720 0.5680 0.5650 0.5610 0.5610
2.889227 0.5610 0.5630 0.5630 0.5650 0.5680
2.924000 0.5770 0.5850 0.5960 0.6060 0.6180
2.958227 0.6270 0.6350 0.6440 0.6510 0.6590
2.992000 0.6780 0.6890 0.7010 0.7040 0.7070
3.026227 0.7180 0.7210 0.7250 0.7280 0.7310
3.061000 0.7350 0.7380 0.7430 0.7470 0.7500
3.095227 0.7560 0.7590 0.7620 0.7660 0.7690
3.129000 0.7730 0.7780 0.7830 0.7860 0.7880
3.163227 0.7900 0.7930 0.7970 0.7980 0.8020
3.197000 0.8040 0.8040 0.8040 0.8040 0.8020
3.231227 0.8020 0.8020 0.8020 0.8000 0.7980
3.266000 0.7980 0.7970 0.7930 0.7920 0.7900
3.300227 0.7860 0.7780 0.7590 0.7330 0.7230
3.334000 0.6870 0.6490 0.4320 0.3570 0.2800
3.368227 0.1850 0.1230 0.0800 0.0700 0.0820
3.403000 0.1400 0.1890 0.2380 0.2800 0.3210
3.437227 0.3280 0.3260 0.2950 0.2130 0.2110
3.471000 0.2190 0.2900 0.4070 0.4810 0.5630
3.505227 0.6460 0.7590 0.7680 0.7780 0.7850
3.539000 0.7950 0.7970 0.8020 0.8100 0.8170
3.573227 0.8260 0.8290 0.8350 0.8400 0.8450
3.608000 0.8480 0.8500 0.8500 0.8520 0.8530
3.642227 0.8570 0.8600 0.8640 0.8690 0.8720
3.676000 0.8760 0.8790 0.8790 0.8810 0.8810
3.710227 0.8830 0.8830 0.8830 0.8840 0.8840
3.745000 0.8840 0.8880 0.8880 0.8910 0.8910
3.779227 0.8930 0.8950 0.8960 0.8980 0.8980
3.813000 0.9000 0.9000 0.9000 0.9020 0.9030
3.847227 0.9080 0.9080 0.9120 0.9170 0.9190
3.882000 0.9200 0.9220 0.9260 0.9270 0.9290
3.916227 0.9270 0.9290 0.9290 0.9290 0.9310
3.950000 0.9340 0.9360 0.9390 0.9430 0.9450
3.984227 0.9460 0.9480 0.9500 0.9500 0.9500
4.018000 0.9500 0.9510 0.9510 0.9510 0.9510
4.052227 0.9510 0.9510 0.9510 0.9510 0.9510
4.087000 0.9510 0.9510 0.9510 0.9510 0.9510
4.121227 0.9500 0.9500 0.9510 0.9510 0.9510
4.155000 0.9510 0.9510 0.9510 0.9500 0.9500
4.189227 0.9500 0.9500 0.9480 0.9480 0.9480
4.224000 0.9480 0.9480 0.9480 0.9460 0.9460
4.258227 0.9460 0.9460 0.9460 0.9460 0.9460
4.292000 0.9480 0.9480 0.9480 0.9480 0.9480
4.326227 0.9480 0.9500 0.9500 0.9500 0.9510
4.361000 0.9500 0.9500 0.9500 0.9500 0.9500
4.395227 0.9500 0.9510 0.9510 0.9510 0.9510
4.429000 0.9510 0.9510 0.9510 0.9510 0.9530
4.463227 0.9530 0.9530 0.9550 0.9550 0.9570
4.497000 0.9580 0.9580 0.9580 0.9600 0.9600
4.531227 0.9620 0.9620 0.9620 0.9620 0.9620
4.566000 0.9620 0.9620 0.9620 0.9630 0.9630
4.600227 0.9620 0.9620 0.9620 0.9620 0.9620
4.634000 0.9620 0.9600 0.9600 0.9580 0.9550
4.668227 0.9550 0.9550 0.9530 0.9530 0.9530
4.703000 0.9530 0.9530 0.9510 0.9510 0.9510
4.737227 0.9510 0.9510 0.9500 0.9500 0.9500
4.771000 0.9480 0.9480 0.9460 0.9460 0.9460
4.805227 0.9450 0.9450 0.9430 0.9450 0.9430
4.839000 0.9430 0.9430 0.9430 0.9410 0.9390
4.873227 0.9390 0.9380 0.9380 0.9360 0.9360
4.908000 0.9340 0.9360 0.9380 0.9380 0.9380
4.942227 0.9380 0.9390 0.9410 0.9410 0.9450
4.976000 0.9460 0.9500 0.9500 0.9510 0.9510
5.010227 0.9510 0.9510 0.9530 0.9530 0.9510
5.045000 0.9510 0.9530 0.9530 0.9530 0.9530
5.079227 0.9530 0.9530 0.9530 0.9530 0.9530
5.113000 0.9530 0.9530 0.9530 0.9530 0.9530
5.147227 0.9510 0.9510 0.9510 0.9500 0.9500
5.182000 0.9500 0.9480 0.9480 0.9500 0.9500
5.216227 0.9500 0.9500 0.9510 0.9510 0.9510
5.250000 0.9530 0.9530 0.9530 0.9510 0.9530
5.284227 0.9530 0.9550 0.9570 0.9580 0.9580
5.318000 0.9600 0.9600 0.9620 0.9620 0.9620
5.352227 0.9630 0.9630 0.9650 0.9650 0.9670
5.387000 0.9670 0.9670 0.9670 0.9670 0.9670
5.421227 0.9670 0.9670 0.9690 0.9690 0.9690
5.455000 0.9690 0.9690 0.9690 0.9690 0.9690
5.489227 0.9510 0.9510 0.9630 0.9750 0.9810
5.524000 0.9770 0.9750 0.9750 0.9750 0.9750
5.558227 0.9750 0.9750 0.9750 0.9740 0.9740
5.592000 0.9740 0.9740 0.9720 0.9720 0.9720
5.626227 0.9720 0.9720 0.9720 0.9720 0.9720
5.661000 0.9700 0.9690 0.9650 0.9650 0.9630
5.695227 0.9630 0.9620 0.9620 0.9620 0.9600
5.729000 0.9500 0.9430 0.9410 0.9430 0.9430
5.763227 0.9450 0.9460 0.9500 0.9500 0.9500
5.797000 0.9500 0.9500 0.9480 0.9480 0.9460
5.831227 0.9450 0.9450 0.9450 0.9430 0.9410
5.866000 0.9410 0.9360 0.9310 0.9240 0.9220
5.900227 0.9200 0.9190 0.9190 0.9170 0.9140
5.934000 0.9100 0.9070 0.9020 0.9000 0.9000
5.968227 0.8950 0.8840 0.8810 0.8670 0.8500
6.003000 0.8380 0.8280 0.8190 0.8090 0.7920
6.037227 0.7680 0.7300 0.6800 0.6460 0.6110
6.071000 0.5240 0.4100 0.3450 0.3140 0.2830
6.105227 0.2370 0.1870 0.1800 0.1900 0.2180
6.139000 0.2500 0.2830 0.3740 0.3950 0.4190
6.173227 0.4240 0.4240 0.4080 0.3710 0.3400
6.208000 0.3090 0.2780 0.2800 0.2810 0.3190
6.242227 0.3280 0.3280 0.3230 0.3050 0.2860
6.276000 0.2810 0.2810 0.2900 0.3140 0.3480
6.310227 0.3520 0.3520 0.3480 0.3400 0.3310
6.345000 0.3310 0.3450 0.3550 0.3790 0.4190
6.379227 0.4690 0.5270 0.5910 0.6420 0.7400
6.413000 0.7500 0.7540 0.7540 0.7520 0.7520
6.447227 0.7540 0.7570 0.7620 0.7690 0.7740
6.482000 0.7780 0.7810 0.7860 0.7860 0.7850
6.516227 0.7810 0.7740 0.7380 0.6940 0.6680
6.550000 0.6420 0.5790 0.5300 0.5030 0.4810
6.584227 0.4600 0.4580 0.4600 0.4720 0.4860
6.618000 0.5030 0.5270 0.5460 0.5540 0.5670
6.652227 0.5720 0.5770 0.5920 0.6010 0.6250
6.687000 0.6300 0.6300 0.6230 0.5850 0.5510
6.721227 0.5200 0.4870 0.4690 0.4690 0.4700
6.755000 0.4960 0.5150 0.5180 0.5180 0.4860
6.789227 0.4860 0.4890 0.5150 0.5490 0.5910
6.824000 0.6370 0.7260 0.7640 0.7920 0.8040
6.858227 0.8050 0.8160 0.8230 0.8310 0.8360
6.892000 0.8400 0.8400 0.8400 0.8400 0.8380
6.926227 0.8290 0.8170 0.8040 0.7850 0.7620
6.961000 0.7350 0.7250 0.7160 0.7070 0.7020
6.995227 0.6750 0.6710 0.6710 0.7160 0.7400
7.029000 0.7560 0.7690 0.7880 0.7980 0.7980
7.063227 0.7980 0.7950 0.7860 0.7760 0.7680
7.097000 0.7560 0.7500 0.7490 0.7470 0.7450
7.131227 0.7470 0.7540 0.7660 0.7800 0.7950
7.166000 0.8070 0.8160 0.8140 0.8240 0.8290
7.200227 0.8260 0.8210 0.8170 0.8120 0.8100
7.234000 0.8100 0.8100 0.8100 0.8100 0.8100
7.268227 0.8090 0.8090 0.8040 0.7970 0.7920
7.303000 0.7830 0.7760 0.7680 0.7560 0.7430
7.337227 0.7280 0.7070 0.6990 0.6780 0.6640
7.371000 0.6490 0.6130 0.5700 0.5200 0.4690
7.405227 0.4140 0.3790 0.3790 0.3810 0.3900
7.439000 0.4150 0.4510 0.4980 0.5480 0.6010
7.473227 0.6510 0.7300 0.7500 0.7660 0.7880
7.508000 0.7950 0.8090 0.8140 0.8140 0.8100
7.542227 0.8090 0.8020 0.7710 0.7560 0.7370
7.576000 0.7180 0.6990 0.6780 0.6760 0.6180
7.610227 0.5600 0.4650 0.4310 0.4120 0.4100
7.645000 0.4100 0.4120 0.4240 0.4310 0.4340
7.679227 0.4320 0.4190 0.3740 0.3450 0.3140
7.713000 0.2810 0.2300 0.1900 0.1660 0.1390
7.747227 0.1340 0.1300 0.1370 0.1540 0.1750
7.782000 0.2020 0.2350 0.2730 0.3120 0.3900
7.816227 0.4220 0.4510 0.4720 0.4890 0.5060
7.850000 0.5250 0.5410 0.5580 0.5700 0.5840
7.884227 0.5850 0.5870 0.5840 0.5630 0.5320
7.918000 0.4740 0.3900 0.3530 0.3170 0.2210
7.952227 0.1990 0.1990 0.1990 0.2300 0.2810
7.987000 0.3230 0.4270 0.4750 0.5240 0.5680
8.021227 0.6090 0.6490 0.7130 0.7420 0.7590
8.055000 0.7660 0.7780 0.7930 0.8050 0.8100
8.089227 0.8160 0.8190 0.8190 0.8190 0.8120
8.124000 0.7980 0.7920 0.7710 0.7690 0.7690
8.158227 0.7710 0.7780 0.8000 0.8090 0.8280
8.192000 0.8410 0.8530 0.8620 0.8710 0.8790
8.226227 0.8880 0.8960 0.8980 0.9000 0.9000
8.261000 0.9000 0.9000 0.9000 0.8910 0.8790
8.295227 0.8600 0.8500 0.8310 0.8090 0.7810
8.329000 0.7520 0.7180 0.6800 0.6590 0.6370
8.363227 0.6160 0.5820 0.5630 0.5420 0.5410
8.397000 0.5420 0.5460 0.5510 0.5510 0.5410
8.431227 0.4910 0.4260 0.3590 0.3260 0.2930
8.466000 0.2180 0.1990 0.1990 0.1990 0.2110
8.500227 0.2430 0.2740 0.3120 0.3470 0.3450
8.534000 0.3410 0.3350 0.3260 0.3140 0.3000
8.568227 0.2980 0.3140 0.4070 0.4530 0.5000
8.603000 0.5320 0.5820 0.6390 0.7160 0.7420
8.637227 0.7620 0.7780 0.7900 0.8020 0.8160
8.671000 0.8240 0.8310 0.8410 0.8430 0.8500
8.705227 0.8500 0.8530 0.8550 0.8550 0.8550
8.739000 0.8530 0.8520 0.8480 0.8280 0.8210
8.773227 0.7740 0.7230 0.6710 0.6460 0.6200
8.808000 0.5720 0.5290 0.5060 0.4790 0.4770
8.842227 0.4790 0.4810 0.5150 0.5360 0.5560
8.876000 0.5770 0.5970 0.6200 0.6400 0.6630
8.910227 0.7060 0.7250 0.7430 0.7620 0.7800
8.945000 0.7950 0.8090 0.8210 0.8260 0.8310
8.979227 0.8380 0.8450 0.8520 0.8570 0.8590
9.013000 0.8590 0.8600 0.8620 0.8640 0.8650
9.047227 0.8710 0.8740 0.8790 0.8840 0.8910
9.082000 0.8960 0.9020 0.9080 0.9140 0.9190
9.116227 0.9200 0.9240 0.9270 0.9290 0.9310
9.150000 0.9320 0.9360 0.9380 0.9390 0.9390
9.184227 0.9410 0.9430 0.9430 0.9450 0.9450
9.218000 0.9460 0.9460 0.9460 0.9460 0.9460
9.252227 0.9480 0.9480 0.9480 0.9480 0.9480
9.287000 0.9480 0.9480 0.9480 0.9480 0.9460
9.321227 0.9450 0.9450 0.9430 0.9430 0.9430
9.355000 0.9430 0.9450 0.9460 0.9460 0.9480
9.389227 0.9500 0.9500 0.9500 0.9450 0.9410
9.424000 0.9390 0.9380 0.9340 0.9310 0.9240
9.458227 0.9200 0.9150 0.9140 0.9120 0.9120
9.492000 0.9120 0.9120 0.9120 0.9100 0.9080
9.526227 0.9050 0.8960 0.8930 0.8760 0.8530
9.561000 0.8280 0.8070 0.7950 0.7780 0.7590
9.595227 0.7380 0.7250 0.7210 0.7210 0.7230
9.629000 0.7260 0.7330 0.7380 0.7400 0.7380
9.663227 0.7350 0.7280 0.7140 0.6990 0.6800
9.697000 0.6700 0.6590 0.6340 0.6040 0.5700
9.731227 0.5560 0.5490 0.5480 0.5490 0.5490
9.766000 0.5530 0.5580 0.5600 0.5610 0.5650
9.800227 0.5680 0.5680 0.5680 0.5680 0.5680
9.834000 0.5670 0.5680 0.5770 0.5890 0.6040
9.868227 0.6210 0.6420 0.6610 0.6990 0.7130
9.903000 0.7210 0.7260 0.7300 0.7310 0.7350
9.937227 0.7400 0.7450 0.7560 0.7660 0.7740
9.971000 0.7830 0.7950 0.8070 0.8210 0.8350
10.005227 0.8470 0.8520 0.8570 0.8640 0.8690
10.039000 0.8710 0.8720 0.8740 0.8780 0.8790
10.073227 0.8810 0.8810 0.8830 0.8840 0.8840
10.108000 0.8840 0.8830 0.8830 0.8810 0.8790
10.142227 0.8780 0.8740 0.8720 0.8720 0.8710
10.176000 0.8710 0.8690 0.8690 0.8720 0.8790
10.210227 0.8810 0.8840 0.8910 0.8950 0.8980
10.245000 0.9000 0.9020 0.9020 0.9020 0.9030
10.279227 0.9030 0.9030 0.9020 0.9020 0.9000
10.313000 0.9000 0.9000 0.8960 0.8880 0.8740
10.347227 0.8650 0.8570 0.8400 0.8380 0.8330
10.382000 0.8310 0.8310 0.8310 0.8330 0.8430
10.416227 0.8570 0.8650 0.8740 0.8810 0.8880
10.450000 0.8950 0.8980 0.9030 0.9120 0.9140
10.484227 0.9170 0.9200 0.9220 0.9240 0.9270
10.518000 0.9290 0.9290 0.9310 0.9310 0.9310
10.552227 0.9310 0.9320 0.9320 0.9320 0.9360
10.587000 0.9380 0.9390 0.9390 0.9410 0.9410
10.621227 0.9430 0.9450 0.9450 0.9450 0.9460
10.655000 0.9460 0.9460 0.9460 0.9480 0.9480
10.689227 0.9480 0.9480 0.9480 0.9480 0.9480
10.724000 0.9480 0.9480 0.9480 0.9480 0.9480
10.758227 0.9480 0.9480 0.9480 0.9480 0.9480
10.792000 0.9460 0.9460 0.9430 0.9430 0.9410
10.826227 0.9390 0.9380 0.9340 0.9340 0.9310
10.861000 0.9260 0.9170 0.9100 0.8980 0.8810
10.895227 0.8520 0.8210 0.8020 0.7810 0.7730
10.929000 0.7730 0.7780 0.7860 0.7970 0.8070
10.963227 0.8170 0.8280 0.8400 0.8520 0.8640
10.997000 0.8780 0.8910 0.9030 0.9080 0.9170
11.031227 0.9260 0.9310 0.9340 0.9390 0.9460
11.066000 0.9500 0.9510 0.9530 0.9550 0.9550
11.100227 0.9570 0.9580 0.9580 0.9600 0.9620
11.134000 0.9620 0.9620 0.9620 0.9620 0.9620
11.168227 0.9630 0.9630 0.9630 0.9630 0.9630
11.203000 0.9620 0.9620 0.9620 0.9620 0.9620
11.237227 0.9620 0.9620 0.9620 0.9620 0.9620
11.271000 0.9620 0.9620 0.9620 0.9620 0.9620
11.305227 0.9620 0.9620 0.9630 0.9620 0.9620
11.339000 0.9630 0.9650 0.9650 0.9650 0.9670
11.373227 0.9690 0.9690 0.9700 0.9690 0.9700
11.408000 0.9700 0.9700 0.9700 0.9700 0.9720
11.442227 0.9720 0.9720 0.9720 0.9720 0.9720
11.476000 0.9720 0.9720 0.9720 0.9720 0.9720
11.510227 0.9720 0.9720 0.9720 0.9720 0.9720
11.545000 0.9720 0.9720 0.9720 0.9700 0.9700
11.579227 0.9700 0.9690 0.9630 0.9580 0.9510
11.613000 0.9450 0.9340 0.9200 0.9030 0.8840
11.647227 0.8600 0.8330 0.8000 0.7490 0.7010
11.682000 0.6800 0.6590 0.6200 0.5870 0.5600
11.716227 0.5360 0.5180 0.5050 0.4930 0.4910
11.750000 0.4910 0.4910 0.4910 0.4930 0.5050
11.784227 0.5180 0.5420 0.5720 0.5990 0.6250
11.818000 0.6470 0.6890 0.7060 0.7210 0.7350
11.852227 0.7430 0.7490 0.7540 0.7610 0.7680
11.887000 0.7710 0.7740 0.7800 0.7830 0.7860
11.921227 0.7900 0.7950 0.8000 0.8070 0.8100
11.955000 0.8160 0.8210 0.8260 0.8310 0.8360
11.989227 0.8400 0.8450 0.8470 0.8480 0.8500
12.024000 0.8520 0.8530 0.8530 0.8530 0.8530
12.058227 0.8530 0.8530 0.8520 0.8520 0.8520
12.092000 0.8530 0.8530 0.8530 0.8530 0.8530
12.126227 0.8530 0.8530 0.8530 0.8530 0.8530
12.161000 0.8530 0.8530 0.8530 0.8530 0.8520
12.195227 0.8500 0.8430 0.8430 0.8400 0.8350
12.229000 0.8330 0.8310 0.8310 0.8310 0.8310
12.263227 0.8310 0.8310 0.8310 0.8310 0.8330
12.297000 0.8330 0.8350 0.8380 0.8400 0.8410
12.331227 0.8430 0.8430 0.8450 0.8470 0.8450
12.366000 0.8480 0.8500 0.8520 0.8520 0.8520
12.400227 0.8500 0.8470 0.8470 0.8450 0.8450
12.434000 0.8430 0.8410 0.8350 0.8310 0.8280
12.468227 0.8230 0.8160 0.8140 0.8100 0.8050
12.503000 0.8020 0.7970 0.7900 0.7850 0.7800
12.537227 0.7730 0.7690 0.7640 0.7570 0.7520
12.571000 0.7430 0.7370 0.7300 0.7230 0.7190
12.605227 0.7140 0.7090 0.7060 0.7020 0.7010
12.639000 0.6990 0.6920 0.6870 0.6820 0.6760
12.673227 0.6730 0.6700 0.6680 0.6640 0.6640
12.708000 0.6630 0.6610 0.6610 0.6610 0.6610
12.742227 0.6610 0.6610 0.6610 0.6610 0.6610
12.776000 0.6610 0.6610 0.6640 0.6660 0.6710
12.810227 0.6750 0.6800 0.6830 0.6890 0.6920
12.845000 0.6970 0.7010 0.7040 0.7090 0.7110
12.879227 0.7130 0.7140 0.7180 0.7190 0.7190
12.913000 0.7190 0.7190 0.7190 0.7210 0.7210
12.947227 0.7210 0.7180 0.7180 0.7140 0.7130
12.982000 0.7110 0.7110 0.7110 0.7140 0.7230
13.016227 0.7310 0.7420 0.7540 0.7680 0.7830
13.050000 0.7970 0.8120 0.8290 0.8430 0.8480
13.084227 0.8570 0.8620 0.8690 0.8710 0.8710
13.118000 0.8720 0.8720 0.8740 0.8740 0.8720
13.152227 0.8720 0.8740 0.8740 0.8760 0.8790
13.187000 0.8840 0.8930 0.9000 0.9050 0.9100
13.221227 0.9140 0.9170 0.9190 0.9200 0.9200
13.255000 0.9220 0.9220 0.9220 0.9220 0.9220
13.289227 0.9220 0.9220 0.9220 0.9240 0.9260
13.324000 0.9270 0.9290 0.9340 0.9380 0.9430
13.358227 0.9480 0.9500 0.9530 0.9550 0.9570
13.392000 0.9600 0.9630 0.9650 0.9670 0.9670
13.426227 0.9670 0.9670 0.9670 0.9670 0.9670
13.461000 0.9670 0.9670 0.9670 0.9670 0.9670
13.495227 0.9670 0.9670 0.9670 0.9650 0.9650
13.529000 0.9620 0.9570 0.9510 0.9460 0.9380
13.563227 0.9290 0.9200 0.9100 0.8960 0.8830
13.597000 0.8650 0.8450 0.8380 0.8210 0.8070
13.631227 0.7980 0.7920 0.7860 0.7850 0.7810
13.666000 0.7810 0.7800 0.7800 0.7810 0.7810
13.700227 0.7850 0.7880 0.7970 0.8040 0.8100
13.734000 0.8160 0.8230 0.8290 0.8350 0.8360
13.768227 0.8400 0.8410 0.8410 0.8410 0.8410
13.803000 0.8410 0.8410 0.8400 0.8400 0.8360
13.837227 0.8350 0.8350 0.8350 0.8350 0.8350
13.871000 0.8350 0.8350 0.8400 0.8480 0.8530
13.905227 0.8620 0.8780 0.8860 0.8960 0.9050
13.939000 0.9150 0.9240 0.9320 0.9380 0.9460
13.973227 0.9480 0.9500 0.9550 0.9650 0.9720
14.008000 0.9750 0.9790 0.9820 0.9860 0.9890
14.042227 0.9890 0.9910 0.9910 0.9910 0.9890
14.076000 0.9860 0.9820 0.9790 0.9750 0.9740
14.110227 0.9740 0.9720 0.9720 0.9720 0.9740
14.145000 0.9720 0.9720 0.9720 0.9720 0.9720
14.179227 0.9720 0.9720 0.9740 0.9720 0.9720
14.213000 0.9720 0.9720 0.9720 0.9720 0.9720
14.247227 0.9700 0.9700 0.9690 0.9670 0.9650
14.282000 0.9650 0.9630 0.9620 0.9600 0.9570
14.316227 0.9530 0.9480 0.9430 0.9320 0.9260
14.350000 0.9170 0.9100 0.9020 0.8930 0.8840
14.384227 0.8720 0.8600 0.8450 0.8330 0.8240
14.418000 0.8190 0.8140 0.8100 0.8040 0.8020
14.452227 0.8000 0.8000 0.8000 0.8000 0.8000
14.487000 0.8020 0.8050 0.8100 0.8140 0.8160
14.521227 0.8210 0.8260 0.8310 0.8380 0.8430
14.555000 0.8470 0.8520 0.8520 0.8530 0.8550
14.589227 0.8570 0.8590 0.8590 0.8620 0.8620
14.624000 0.8640 0.8650 0.8670 0.8690 0.8710
14.658227 0.8740 0.8760 0.8780 0.8790 0.8830
14.692000 0.8880 0.8910 0.8960 0.9020 0.9050
14.726227 0.9070 0.9140 0.9170 0.9200 0.9220
14.761000 0.9240 0.9270 0.9310 0.9320 0.9320
14.795227 0.9360 0.9410 0.9430 0.9450 0.9460
14.829000 0.9480 0.9500 0.9510 0.9510 0.9510
14.863227 0.9530 0.9530 0.9530 0.9530 0.9530
14.897000 0.9530 0.9530 0.9530 0.9530 0.9510
14.931227 0.9510 0.9510 0.9510 0.9480 0.9460
14.966000 0.9450 0.9410 0.9360 0.9260 0.9220
15.000227 0.9220 0.9220 0.9220 0.9220 0.9220
15.034000 0.9220 0.9220 0.9220 0.9240 0.9240
15.068227 0.9220 0.9220 0.9220 0.9220 0.9220
15.103000 0.9220 0.9220 0.9220 0.9220 0.9220
15.137227 0.9220 0.9220 0.9220 0.9220 0.9220
15.171000 0.9220 0.9220 0.9220 0.9220 0.9220
15.205227 0.9220 0.9190 0.9190 0.9190 0.9170
15.239000 0.9140 0.9100 0.9100 0.9070 0.9030
15.273227 0.9030 0.9020 0.9000 0.8960 0.8930
15.308000 0.8900 0.8840 0.8810 0.8760 0.8720
15.342227 0.8710 0.8650 0.8620 0.8570 0.8500
15.376000 0.8470 0.8410 0.8360 0.8330 0.8260
15.410227 0.8190 0.8140 0.8120 0.8070 0.8040
15.445000 0.8000 0.7980 0.7970 0.7920 0.7880
15.479227 0.7860 0.7830 0.7800 0.7760 0.7710
15.513000 0.7680 0.7680 0.7660 0.7620 0.7610
15.547227 0.7590 0.7540 0.7520 0.7450 0.7400
15.582000 0.7350 0.7330 0.7310 0.7260 0.7190
15.616227 0.7180 0.7160 0.7130 0.7040 0.7010
15.650000 0.6970 0.6900 0.6850 0.6780 0.6750
15.684227 0.6700 0.6680 0.6640 0.6610 0.6560
15.718000 0.6510 0.6490 0.6490 0.6490 0.6490
15.752227 0.6470 0.6470 0.6470 0.6460 0.6460
15.787000 0.6460 0.6460 0.6460 0.6460 0.6460
15.821227 0.6460 0.6470 0.6470 0.6490 0.6470
15.855000 0.6490 0.6490 0.6490 0.6510 0.6510
15.889227 0.6510 0.6520 0.6520 0.6520 0.6540
15.924000 0.6520 0.6540 0.6540 0.6540 0.6560
15.958227 0.6560 0.6560 0.6560 0.6560 0.6560
15.992000 0.6560 0.6560
##END=
