##TITLE=Pentachlorooctadecanoic acid, methyl ester
##JCAMP-DX=4.24
$$ By DXEDIT 1.05 (RS McDonald)
##DATA TYPE=INFRARED SPECTRUM
##CLASS=COBLENTZ
##ORIGIN=DOW CHEMICAL COMPANY
##OWNER=COPYRIGHT (C) 1988 by COBLENTZ SOCIETY INC.
Collection (C) 2018 copyright by the U.S. Secretary of Commerce
on behalf of the United States of America. All rights reserved.
##DATE=1970/02/03
##NAMES=MPS-500 (Hooker Chemical)
##MOLFORM=C19 H33 Cl5 O2
##SOURCE REFERENCE=COBLENTZ NO. 09642
##$NIST ID=B6009642
##$NIST SOURCE=COBLENTZ
##$NIST IMAGE=cob9642
##SPECTROMETER/DATA SYSTEM=DOW KBr FOREPRISM-GRATING
##INSTRUMENT PARAMETERS=BLAZED AT 3.5, 12.0, 20.0 MICRON AND CHANGED AT 5.0, 7.5, 14.9 MICRON
##STATE=SOLUTION (10% CCl4 FOR 2.7-7.5, 10% CS2 FOR 7.5-26 MICRON) VS SOLVENT
##PATH LENGTH=0.011 CM, 0.011 CM
##SAMPLING PROCEDURE=TRANSMISSION
##RESOLUTION=2
##DATA PROCESSING=DIGITIZED BY COBLENTZ SOCIETY (BATCH I) FROM HARD COPY
##XUNITS=1/CM
##YUNITS=TRANSMITTANCE
##XFACTOR=1
##YFACTOR=1
##DELTAX=1
##FIRSTX=3798
##LASTX=391
##FIRSTY=0.8584
##MAXX=3798
##MINX=391
##MAXY=0.89
##MINY=0.0875
##NPOINTS=3408
##XYDATA=(X++(Y..Y))
3798.000000 0.8584 0.8584 0.8584 0.8584 0.8585
3793.000000 0.8585 0.8586 0.8586 0.8587 0.8587
3788.000000 0.8588 0.8588 0.8589 0.8589 0.8590
3783.000000 0.8590 0.8591 0.8592 0.8593 0.8593
3778.000000 0.8594 0.8594 0.8595 0.8595 0.8596
3773.000000 0.8596 0.8597 0.8597 0.8598 0.8598
3768.000000 0.8599 0.8599 0.8600 0.8600 0.8601
3763.000000 0.8601 0.8602 0.8602 0.8603 0.8604
3758.000000 0.8605 0.8605 0.8606 0.8606 0.8607
3753.000000 0.8607 0.8608 0.8608 0.8609 0.8610
3748.000000 0.8611 0.8611 0.8612 0.8612 0.8613
3743.000000 0.8613 0.8613 0.8613 0.8614 0.8614
3738.000000 0.8614 0.8614 0.8615 0.8615 0.8616
3733.000000 0.8616 0.8616 0.8616 0.8617 0.8617
3728.000000 0.8617 0.8617 0.8618 0.8618 0.8618
3723.000000 0.8618 0.8618 0.8618 0.8620 0.8620
3718.000000 0.8621 0.8621 0.8621 0.8621 0.8621
3713.000000 0.8621 0.8621 0.8621 0.8621 0.8621
3708.000000 0.8621 0.8621 0.8621 0.8621 0.8621
3703.000000 0.8621 0.8621 0.8621 0.8621 0.8621
3698.000000 0.8621 0.8621 0.8621 0.8621 0.8621
3693.000000 0.8621 0.8621 0.8621 0.8621 0.8621
3688.000000 0.8621 0.8621 0.8621 0.8621 0.8621
3683.000000 0.8621 0.8621 0.8621 0.8621 0.8620
3678.000000 0.8620 0.8620 0.8620 0.8620 0.8620
3673.000000 0.8618 0.8618 0.8618 0.8618 0.8618
3668.000000 0.8618 0.8618 0.8618 0.8618 0.8618
3663.000000 0.8617 0.8617 0.8617 0.8617 0.8617
3658.000000 0.8617 0.8617 0.8617 0.8617 0.8617
3653.000000 0.8617 0.8617 0.8617 0.8617 0.8617
3648.000000 0.8617 0.8617 0.8617 0.8617 0.8617
3643.000000 0.8617 0.8617 0.8617 0.8617 0.8617
3638.000000 0.8617 0.8617 0.8617 0.8617 0.8617
3633.000000 0.8617 0.8618 0.8618 0.8618 0.8618
3628.000000 0.8618 0.8618 0.8618 0.8618 0.8618
3623.000000 0.8618 0.8618 0.8618 0.8618 0.8618
3618.000000 0.8618 0.8618 0.8618 0.8618 0.8618
3613.000000 0.8618 0.8618 0.8618 0.8618 0.8618
3608.000000 0.8618 0.8618 0.8618 0.8618 0.8618
3603.000000 0.8618 0.8618 0.8618 0.8618 0.8618
3598.000000 0.8618 0.8618 0.8618 0.8618 0.8618
3593.000000 0.8618 0.8618 0.8618 0.8620 0.8620
3588.000000 0.8620 0.8620 0.8620 0.8620 0.8621
3583.000000 0.8621 0.8621 0.8621 0.8621 0.8621
3578.000000 0.8621 0.8621 0.8621 0.8621 0.8623
3573.000000 0.8623 0.8623 0.8623 0.8623 0.8623
3568.000000 0.8624 0.8624 0.8624 0.8624 0.8625
3563.000000 0.8625 0.8628 0.8628 0.8630 0.8631
3558.000000 0.8632 0.8633 0.8634 0.8635 0.8636
3553.000000 0.8637 0.8638 0.8639 0.8640 0.8641
3548.000000 0.8642 0.8643 0.8644 0.8645 0.8646
3543.000000 0.8647 0.8648 0.8649 0.8650 0.8651
3538.000000 0.8652 0.8653 0.8655 0.8656 0.8657
3533.000000 0.8658 0.8659 0.8660 0.8661 0.8662
3528.000000 0.8663 0.8664 0.8666 0.8667 0.8668
3523.000000 0.8668 0.8670 0.8671 0.8671 0.8673
3518.000000 0.8675 0.8675 0.8677 0.8678 0.8678
3513.000000 0.8680 0.8681 0.8682 0.8683 0.8684
3508.000000 0.8685 0.8685 0.8686 0.8687 0.8688
3503.000000 0.8689 0.8690 0.8690 0.8691 0.8692
3498.000000 0.8693 0.8694 0.8695 0.8696 0.8697
3493.000000 0.8697 0.8698 0.8699 0.8700 0.8700
3488.000000 0.8701 0.8701 0.8701 0.8701 0.8702
3483.000000 0.8702 0.8702 0.8702 0.8702 0.8702
3478.000000 0.8703 0.8703 0.8703 0.8703 0.8704
3473.000000 0.8704 0.8705 0.8706 0.8707 0.8707
3468.000000 0.8708 0.8708 0.8709 0.8706 0.8704
3463.000000 0.8700 0.8696 0.8691 0.8686 0.8681
3458.000000 0.8677 0.8671 0.8667 0.8663 0.8660
3453.000000 0.8657 0.8654 0.8654 0.8654 0.8657
3448.000000 0.8660 0.8662 0.8665 0.8668 0.8671
3443.000000 0.8675 0.8682 0.8687 0.8693 0.8698
3438.000000 0.8704 0.8709 0.8715 0.8720 0.8725
3433.000000 0.8731 0.8736 0.8741 0.8747 0.8752
3428.000000 0.8758 0.8763 0.8768 0.8773 0.8778
3423.000000 0.8783 0.8788 0.8792 0.8797 0.8802
3418.000000 0.8807 0.8808 0.8810 0.8810 0.8811
3413.000000 0.8811 0.8812 0.8813 0.8814 0.8814
3408.000000 0.8815 0.8815 0.8816 0.8816 0.8817
3403.000000 0.8817 0.8818 0.8818 0.8820 0.8821
3398.000000 0.8821 0.8821 0.8823 0.8824 0.8825
3393.000000 0.8825 0.8827 0.8827 0.8828 0.8828
3388.000000 0.8830 0.8831 0.8832 0.8832 0.8833
3383.000000 0.8834 0.8835 0.8836 0.8837 0.8837
3378.000000 0.8838 0.8839 0.8840 0.8841 0.8842
3373.000000 0.8842 0.8843 0.8844 0.8845 0.8846
3368.000000 0.8847 0.8848 0.8849 0.8849 0.8850
3363.000000 0.8851 0.8852 0.8852 0.8852 0.8852
3358.000000 0.8853 0.8853 0.8854 0.8854 0.8854
3353.000000 0.8854 0.8855 0.8855 0.8855 0.8855
3348.000000 0.8856 0.8856 0.8857 0.8857 0.8857
3343.000000 0.8857 0.8858 0.8858 0.8859 0.8859
3338.000000 0.8859 0.8859 0.8860 0.8860 0.8861
3333.000000 0.8861 0.8861 0.8861 0.8862 0.8862
3328.000000 0.8863 0.8863 0.8863 0.8863 0.8864
3323.000000 0.8864 0.8864 0.8864 0.8865 0.8865
3318.000000 0.8865 0.8865 0.8866 0.8866 0.8867
3313.000000 0.8867 0.8867 0.8867 0.8868 0.8868
3308.000000 0.8868 0.8868 0.8868 0.8868 0.8868
3303.000000 0.8868 0.8870 0.8870 0.8870 0.8870
3298.000000 0.8871 0.8871 0.8871 0.8871 0.8873
3293.000000 0.8873 0.8874 0.8874 0.8875 0.8875
3288.000000 0.8875 0.8875 0.8877 0.8877 0.8878
3283.000000 0.8878 0.8878 0.8878 0.8880 0.8880
3278.000000 0.8881 0.8881 0.8882 0.8882 0.8883
3273.000000 0.8883 0.8884 0.8884 0.8885 0.8885
3268.000000 0.8886 0.8886 0.8887 0.8887 0.8888
3263.000000 0.8888 0.8889 0.8889 0.8890 0.8890
3258.000000 0.8891 0.8892 0.8893 0.8893 0.8894
3253.000000 0.8894 0.8895 0.8895 0.8896 0.8896
3248.000000 0.8897 0.8897 0.8897 0.8897 0.8897
3243.000000 0.8897 0.8897 0.8897 0.8897 0.8897
3238.000000 0.8897 0.8897 0.8898 0.8898 0.8898
3233.000000 0.8898 0.8898 0.8898 0.8898 0.8898
3228.000000 0.8898 0.8898 0.8898 0.8898 0.8899
3223.000000 0.8899 0.8899 0.8899 0.8899 0.8899
3218.000000 0.8899 0.8899 0.8899 0.8899 0.8899
3213.000000 0.8899 0.8900 0.8900 0.8900 0.8900
3208.000000 0.8900 0.8900 0.8900 0.8900 0.8900
3203.000000 0.8900 0.8900 0.8900 0.8900 0.8900
3198.000000 0.8900 0.8899 0.8899 0.8899 0.8899
3193.000000 0.8898 0.8898 0.8898 0.8898 0.8898
3188.000000 0.8898 0.8897 0.8897 0.8897 0.8897
3183.000000 0.8897 0.8897 0.8896 0.8896 0.8896
3178.000000 0.8896 0.8896 0.8896 0.8895 0.8895
3173.000000 0.8895 0.8895 0.8895 0.8895 0.8894
3168.000000 0.8894 0.8894 0.8894 0.8893 0.8893
3163.000000 0.8893 0.8893 0.8892 0.8892 0.8892
3158.000000 0.8892 0.8891 0.8891 0.8891 0.8891
3153.000000 0.8890 0.8890 0.8890 0.8890 0.8889
3148.000000 0.8889 0.8888 0.8888 0.8886 0.8884
3143.000000 0.8882 0.8880 0.8877 0.8875 0.8873
3138.000000 0.8871 0.8868 0.8867 0.8865 0.8863
3133.000000 0.8861 0.8859 0.8857 0.8855 0.8853
3128.000000 0.8852 0.8850 0.8848 0.8846 0.8845
3123.000000 0.8843 0.8841 0.8839 0.8838 0.8836
3118.000000 0.8834 0.8832 0.8831 0.8828 0.8827
3113.000000 0.8825 0.8823 0.8821 0.8820 0.8818
3108.000000 0.8816 0.8814 0.8813 0.8811 0.8810
3103.000000 0.8808 0.8807 0.8805 0.8804 0.8802
3098.000000 0.8800 0.8798 0.8797 0.8794 0.8792
3093.000000 0.8788 0.8785 0.8782 0.8778 0.8775
3088.000000 0.8771 0.8768 0.8766 0.8763 0.8760
3083.000000 0.8757 0.8754 0.8751 0.8749 0.8746
3078.000000 0.8743 0.8740 0.8737 0.8734 0.8731
3073.000000 0.8728 0.8725 0.8723 0.8720 0.8717
3068.000000 0.8714 0.8711 0.8708 0.8705 0.8702
3063.000000 0.8699 0.8697 0.8692 0.8688 0.8683
3058.000000 0.8678 0.8673 0.8668 0.8662 0.8657
3053.000000 0.8651 0.8645 0.8639 0.8633 0.8627
3048.000000 0.8621 0.8616 0.8610 0.8604 0.8599
3043.000000 0.8593 0.8588 0.8582 0.8575 0.8564
3038.000000 0.8553 0.8541 0.8528 0.8517 0.8506
3033.000000 0.8490 0.8475 0.8444 0.8414 0.8384
3028.000000 0.8354 0.8327 0.8301 0.8273 0.8245
3023.000000 0.8210 0.8175 0.8153 0.8131 0.8112
3018.000000 0.8095 0.8080 0.8065 0.8057 0.8050
3013.000000 0.8042 0.8035 0.8026 0.8019 0.8011
3008.000000 0.8005 0.7981 0.7958 0.7933 0.7908
3003.000000 0.7872 0.7837 0.7800 0.7762 0.7721
2998.000000 0.7678 0.7624 0.7568 0.7510 0.7451
2993.000000 0.7368 0.7286 0.7217 0.7148 0.7087
2988.000000 0.7026 0.6980 0.6933 0.6886 0.6840
2983.000000 0.6761 0.6684 0.6462 0.6242 0.6119
2978.000000 0.5997 0.5869 0.5741 0.5457 0.5173
2973.000000 0.5060 0.4949 0.4638 0.4328 0.4219
2968.000000 0.4110 0.4000 0.3891 0.3782 0.3673
2963.000000 0.3564 0.3455 0.3345 0.3236 0.3127
2958.000000 0.3018 0.2908 0.2799 0.2690 0.2581
2953.000000 0.2471 0.2362 0.2264 0.2166 0.2159
2948.000000 0.2145 0.2147 0.2142 0.2142 0.2142
2943.000000 0.2144 0.2146 0.2165 0.2184 0.2207
2938.000000 0.2231 0.2247 0.2263 0.2268 0.2274
2933.000000 0.2279 0.2284 0.2292 0.2300 0.2307
2928.000000 0.2315 0.2334 0.2355 0.2388 0.2422
2923.000000 0.2469 0.2516 0.2563 0.2611 0.2660
2918.000000 0.2709 0.2758 0.2808 0.2911 0.3015
2913.000000 0.3089 0.3163 0.3259 0.3356 0.3460
2908.000000 0.3566 0.3673 0.3779 0.3884 0.3990
2903.000000 0.4096 0.4202 0.4307 0.4412 0.4519
2898.000000 0.4625 0.4731 0.4837 0.4942 0.5048
2893.000000 0.5154 0.5260 0.5365 0.5471 0.5577
2888.000000 0.5683 0.5789 0.5895 0.6000 0.6106
2883.000000 0.6160 0.6214 0.6234 0.6254 0.6253
2878.000000 0.6245 0.6247 0.6242 0.6231 0.6220
2873.000000 0.6164 0.6109 0.5960 0.5810 0.5637
2868.000000 0.5464 0.5290 0.5117 0.5031 0.4946
2863.000000 0.4896 0.4846 0.4752 0.4659 0.4640
2858.000000 0.4622 0.4620 0.4636 0.4616 0.4614
2853.000000 0.4619 0.4624 0.4638 0.4653 0.4703
2848.000000 0.4753 0.4902 0.5051 0.5202 0.5353
2843.000000 0.5503 0.5654 0.5805 0.5956 0.6106
2838.000000 0.6257 0.6408 0.6558 0.6708 0.6860
2833.000000 0.7011 0.7161 0.7311 0.7462 0.7580
2828.000000 0.7697 0.7736 0.7775 0.7804 0.7833
2823.000000 0.7861 0.7892 0.7915 0.7941 0.7964
2818.000000 0.7988 0.8011 0.8035 0.8058 0.8082
2813.000000 0.8098 0.8114 0.8128 0.8144 0.8158
2808.000000 0.8174 0.8188 0.8203 0.8218 0.8233
2803.000000 0.8246 0.8259 0.8270 0.8281 0.8292
2798.000000 0.8304 0.8315 0.8327 0.8337 0.8348
2793.000000 0.8357 0.8367 0.8377 0.8387 0.8396
2788.000000 0.8406 0.8415 0.8425 0.8434 0.8444
2783.000000 0.8451 0.8458 0.8464 0.8470 0.8475
2778.000000 0.8483 0.8489 0.8495 0.8501 0.8507
2773.000000 0.8512 0.8517 0.8520 0.8523 0.8525
2768.000000 0.8528 0.8531 0.8532 0.8533 0.8533
2763.000000 0.8532 0.8531 0.8530 0.8530 0.8528
2758.000000 0.8528 0.8527 0.8527 0.8525 0.8525
2753.000000 0.8524 0.8523 0.8521 0.8521 0.8520
2748.000000 0.8520 0.8518 0.8518 0.8517 0.8516
2743.000000 0.8515 0.8514 0.8513 0.8513 0.8512
2738.000000 0.8511 0.8510 0.8509 0.8508 0.8507
2733.000000 0.8507 0.8508 0.8508 0.8508 0.8508
2728.000000 0.8509 0.8509 0.8509 0.8509 0.8509
2723.000000 0.8509 0.8510 0.8510 0.8510 0.8510
2718.000000 0.8511 0.8511 0.8511 0.8511 0.8512
2713.000000 0.8512 0.8512 0.8512 0.8513 0.8513
2708.000000 0.8513 0.8513 0.8513 0.8513 0.8514
2703.000000 0.8514 0.8514 0.8514 0.8514 0.8514
2698.000000 0.8515 0.8515 0.8515 0.8515 0.8515
2693.000000 0.8515 0.8516 0.8516 0.8516 0.8516
2688.000000 0.8516 0.8516 0.8517 0.8517 0.8517
2683.000000 0.8517 0.8517 0.8517 0.8518 0.8518
2678.000000 0.8518 0.8518 0.8520 0.8521 0.8521
2673.000000 0.8521 0.8523 0.8523 0.8524 0.8524
2668.000000 0.8525 0.8525 0.8525 0.8527 0.8528
2663.000000 0.8528 0.8528 0.8528 0.8530 0.8530
2658.000000 0.8531 0.8531 0.8532 0.8533 0.8534
2653.000000 0.8534 0.8535 0.8535 0.8536 0.8536
2648.000000 0.8537 0.8537 0.8538 0.8539 0.8540
2643.000000 0.8540 0.8541 0.8541 0.8542 0.8542
2638.000000 0.8543 0.8543 0.8544 0.8545 0.8546
2633.000000 0.8546 0.8547 0.8547 0.8547 0.8547
2628.000000 0.8548 0.8548 0.8549 0.8549 0.8549
2623.000000 0.8549 0.8550 0.8550 0.8550 0.8550
2618.000000 0.8551 0.8551 0.8552 0.8552 0.8552
2613.000000 0.8552 0.8553 0.8553 0.8554 0.8554
2608.000000 0.8554 0.8554 0.8555 0.8555 0.8556
2603.000000 0.8556 0.8556 0.8556 0.8557 0.8557
2598.000000 0.8558 0.8558 0.8558 0.8558 0.8559
2593.000000 0.8559 0.8560 0.8560 0.8560 0.8560
2588.000000 0.8561 0.8561 0.8562 0.8562 0.8563
2583.000000 0.8563 0.8564 0.8564 0.8565 0.8565
2578.000000 0.8566 0.8567 0.8568 0.8568 0.8568
2573.000000 0.8568 0.8570 0.8570 0.8571 0.8571
2568.000000 0.8571 0.8571 0.8573 0.8573 0.8574
2563.000000 0.8574 0.8575 0.8575 0.8575 0.8575
2558.000000 0.8577 0.8577 0.8578 0.8578 0.8578
2553.000000 0.8578 0.8580 0.8580 0.8581 0.8582
2548.000000 0.8583 0.8583 0.8584 0.8584 0.8585
2543.000000 0.8586 0.8587 0.8587 0.8588 0.8588
2538.000000 0.8589 0.8589 0.8590 0.8591 0.8592
2533.000000 0.8592 0.8593 0.8593 0.8594 0.8595
2528.000000 0.8596 0.8596 0.8597 0.8597 0.8598
2523.000000 0.8599 0.8600 0.8601 0.8603 0.8604
2518.000000 0.8606 0.8607 0.8609 0.8610 0.8612
2513.000000 0.8613 0.8615 0.8616 0.8618 0.8618
2508.000000 0.8621 0.8621 0.8624 0.8625 0.8627
2503.000000 0.8628 0.8630 0.8631 0.8633 0.8634
2498.000000 0.8636 0.8637 0.8639 0.8640 0.8641
2493.000000 0.8642 0.8644 0.8645 0.8646 0.8647
2488.000000 0.8648 0.8649 0.8651 0.8652 0.8653
2483.000000 0.8654 0.8656 0.8657 0.8658 0.8659
2478.000000 0.8661 0.8662 0.8664 0.8666 0.8668
2473.000000 0.8668 0.8671 0.8671 0.8674 0.8675
2468.000000 0.8678 0.8678 0.8681 0.8682 0.8684
2463.000000 0.8685 0.8687 0.8688 0.8690 0.8690
2458.000000 0.8691 0.8691 0.8692 0.8692 0.8692
2453.000000 0.8692 0.8693 0.8693 0.8694 0.8694
2448.000000 0.8694 0.8694 0.8695 0.8695 0.8696
2443.000000 0.8696 0.8696 0.8695 0.8695 0.8695
2438.000000 0.8695 0.8694 0.8694 0.8694 0.8694
2433.000000 0.8693 0.8693 0.8693 0.8693 0.8692
2428.000000 0.8692 0.8692 0.8692 0.8691 0.8691
2423.000000 0.8689 0.8688 0.8687 0.8686 0.8685
2418.000000 0.8684 0.8682 0.8681 0.8680 0.8678
2413.000000 0.8678 0.8677 0.8675 0.8675 0.8674
2408.000000 0.8674 0.8673 0.8673 0.8671 0.8671
2403.000000 0.8671 0.8671 0.8670 0.8668 0.8668
2398.000000 0.8668 0.8668 0.8668 0.8668 0.8668
2393.000000 0.8667 0.8667 0.8667 0.8667 0.8667
2388.000000 0.8667 0.8667 0.8667 0.8667 0.8667
2383.000000 0.8667 0.8667 0.8667 0.8667 0.8667
2378.000000 0.8667 0.8667 0.8668 0.8668 0.8668
2373.000000 0.8668 0.8668 0.8668 0.8668 0.8668
2368.000000 0.8668 0.8668 0.8668 0.8668 0.8670
2363.000000 0.8670 0.8671 0.8671 0.8671 0.8671
2358.000000 0.8673 0.8673 0.8674 0.8675 0.8675
2353.000000 0.8675 0.8677 0.8677 0.8678 0.8678
2348.000000 0.8678 0.8678 0.8678 0.8678 0.8680
2343.000000 0.8680 0.8681 0.8681 0.8682 0.8682
2338.000000 0.8682 0.8682 0.8683 0.8683 0.8684
2333.000000 0.8684 0.8684 0.8684 0.8684 0.8683
2328.000000 0.8682 0.8678 0.8675 0.8673 0.8670
2323.000000 0.8667 0.8665 0.8662 0.8659 0.8655
2318.000000 0.8651 0.8646 0.8641 0.8636 0.8632
2313.000000 0.8627 0.8623 0.8621 0.8621 0.8621
2308.000000 0.8621 0.8621 0.8623 0.8624 0.8625
2303.000000 0.8625 0.8627 0.8628 0.8628 0.8630
2298.000000 0.8632 0.8634 0.8636 0.8637 0.8639
2293.000000 0.8641 0.8643 0.8645 0.8647 0.8648
2288.000000 0.8650 0.8652 0.8654 0.8655 0.8657
2283.000000 0.8659 0.8661 0.8663 0.8665 0.8666
2278.000000 0.8668 0.8670 0.8671 0.8674 0.8675
2273.000000 0.8677 0.8678 0.8681 0.8683 0.8684
2268.000000 0.8686 0.8688 0.8690 0.8692 0.8694
2263.000000 0.8695 0.8697 0.8699 0.8701 0.8702
2258.000000 0.8703 0.8704 0.8705 0.8706 0.8707
2253.000000 0.8708 0.8709 0.8710 0.8711 0.8712
2248.000000 0.8713 0.8714 0.8716 0.8717 0.8718
2243.000000 0.8718 0.8720 0.8721 0.8721 0.8723
2238.000000 0.8724 0.8724 0.8725 0.8725 0.8727
2233.000000 0.8727 0.8728 0.8728 0.8730 0.8730
2228.000000 0.8731 0.8732 0.8733 0.8733 0.8734
2223.000000 0.8734 0.8735 0.8736 0.8737 0.8738
2218.000000 0.8739 0.8740 0.8741 0.8742 0.8743
2213.000000 0.8744 0.8745 0.8745 0.8746 0.8747
2208.000000 0.8748 0.8749 0.8750 0.8751 0.8752
2203.000000 0.8752 0.8753 0.8753 0.8753 0.8753
2198.000000 0.8753 0.8753 0.8753 0.8753 0.8754
2193.000000 0.8755 0.8756 0.8757 0.8758 0.8761
2188.000000 0.8764 0.8773 0.8782 0.8795 0.8809
2183.000000 0.8817 0.8825 0.8832 0.8839 0.8842
2178.000000 0.8845 0.8846 0.8846 0.8846 0.8845
2173.000000 0.8832 0.8820 0.8806 0.8792 0.8777
2168.000000 0.8763 0.8754 0.8746 0.8745 0.8744
2163.000000 0.8744 0.8744 0.8744 0.8744 0.8744
2158.000000 0.8745 0.8745 0.8745 0.8745 0.8745
2153.000000 0.8745 0.8745 0.8745 0.8746 0.8746
2148.000000 0.8746 0.8746 0.8746 0.8746 0.8746
2143.000000 0.8745 0.8745 0.8745 0.8745 0.8745
2138.000000 0.8746 0.8746 0.8747 0.8747 0.8748
2133.000000 0.8748 0.8749 0.8749 0.8750 0.8750
2128.000000 0.8751 0.8751 0.8751 0.8751 0.8752
2123.000000 0.8752 0.8753 0.8753 0.8753 0.8753
2118.000000 0.8752 0.8751 0.8750 0.8748 0.8747
2113.000000 0.8745 0.8744 0.8742 0.8741 0.8738
2108.000000 0.8736 0.8733 0.8731 0.8728 0.8725
2103.000000 0.8723 0.8721 0.8720 0.8720 0.8718
2098.000000 0.8718 0.8717 0.8717 0.8716 0.8716
2093.000000 0.8715 0.8714 0.8713 0.8713 0.8712
2088.000000 0.8712 0.8711 0.8710 0.8709 0.8708
2083.000000 0.8705 0.8703 0.8701 0.8699 0.8696
2078.000000 0.8694 0.8691 0.8689 0.8686 0.8684
2073.000000 0.8681 0.8678 0.8677 0.8675 0.8673
2068.000000 0.8671 0.8670 0.8668 0.8668 0.8667
2063.000000 0.8666 0.8665 0.8663 0.8662 0.8661
2058.000000 0.8660 0.8659 0.8658 0.8657 0.8656
2053.000000 0.8655 0.8654 0.8652 0.8651 0.8650
2048.000000 0.8649 0.8648 0.8647 0.8647 0.8647
2043.000000 0.8648 0.8649 0.8650 0.8651 0.8652
2038.000000 0.8653 0.8654 0.8655 0.8656 0.8657
2033.000000 0.8658 0.8659 0.8660 0.8661 0.8662
2028.000000 0.8663 0.8664 0.8665 0.8666 0.8667
2023.000000 0.8668 0.8668 0.8670 0.8671 0.8671
2018.000000 0.8673 0.8674 0.8675 0.8675 0.8677
2013.000000 0.8678 0.8678 0.8680 0.8681 0.8682
2008.000000 0.8683 0.8684 0.8685 0.8686 0.8687
2003.000000 0.8688 0.8689 0.8690 0.8692 0.8693
1998.000000 0.8695 0.8696 0.8697 0.8699 0.8700
1993.000000 0.8702 0.8703 0.8704 0.8706 0.8707
1988.000000 0.8709 0.8710 0.8712 0.8713 0.8714
1983.000000 0.8716 0.8717 0.8718 0.8718 0.8720
1978.000000 0.8721 0.8721 0.8723 0.8724 0.8725
1973.000000 0.8725 0.8727 0.8728 0.8728 0.8730
1968.000000 0.8731 0.8732 0.8733 0.8734 0.8735
1963.000000 0.8736 0.8737 0.8738 0.8739 0.8740
1958.000000 0.8740 0.8741 0.8741 0.8741 0.8742
1953.000000 0.8742 0.8743 0.8743 0.8743 0.8744
1948.000000 0.8744 0.8744 0.8745 0.8745 0.8746
1943.000000 0.8746 0.8746 0.8747 0.8747 0.8747
1938.000000 0.8748 0.8748 0.8749 0.8749 0.8749
1933.000000 0.8750 0.8750 0.8750 0.8750 0.8750
1928.000000 0.8751 0.8751 0.8751 0.8751 0.8751
1923.000000 0.8751 0.8751 0.8751 0.8751 0.8751
1918.000000 0.8751 0.8752 0.8752 0.8752 0.8752
1913.000000 0.8752 0.8752 0.8752 0.8752 0.8752
1908.000000 0.8752 0.8753 0.8753 0.8753 0.8753
1903.000000 0.8753 0.8753 0.8753 0.8753 0.8753
1898.000000 0.8753 0.8753 0.8753 0.8753 0.8753
1893.000000 0.8753 0.8753 0.8753 0.8753 0.8753
1888.000000 0.8753 0.8753 0.8753 0.8753 0.8753
1883.000000 0.8753 0.8753 0.8753 0.8753 0.8753
1878.000000 0.8752 0.8752 0.8751 0.8751 0.8750
1873.000000 0.8750 0.8749 0.8748 0.8748 0.8747
1868.000000 0.8747 0.8746 0.8746 0.8745 0.8744
1863.000000 0.8744 0.8743 0.8743 0.8742 0.8742
1858.000000 0.8741 0.8740 0.8740 0.8739 0.8738
1853.000000 0.8736 0.8735 0.8733 0.8731 0.8728
1848.000000 0.8728 0.8725 0.8724 0.8721 0.8721
1843.000000 0.8718 0.8717 0.8715 0.8714 0.8712
1838.000000 0.8710 0.8708 0.8707 0.8705 0.8702
1833.000000 0.8698 0.8694 0.8690 0.8687 0.8683
1828.000000 0.8678 0.8675 0.8671 0.8667 0.8663
1823.000000 0.8656 0.8648 0.8641 0.8633 0.8625
1818.000000 0.8618 0.8611 0.8603 0.8596 0.8588
1813.000000 0.8581 0.8573 0.8565 0.8557 0.8550
1808.000000 0.8542 0.8534 0.8525 0.8515 0.8502
1803.000000 0.8490 0.8478 0.8463 0.8449 0.8434
1798.000000 0.8418 0.8405 0.8390 0.8375 0.8362
1793.000000 0.8349 0.8336 0.8323 0.8310 0.8297
1788.000000 0.8282 0.8261 0.8241 0.8221 0.8194
1783.000000 0.8165 0.8137 0.8108 0.8078 0.8040
1778.000000 0.8001 0.7964 0.7925 0.7847 0.7768
1773.000000 0.7690 0.7594 0.7487 0.7381 0.7278
1768.000000 0.7181 0.7083 0.6972 0.6846 0.6719
1763.000000 0.6593 0.6471 0.6352 0.6232 0.6092
1758.000000 0.5950 0.5450 0.5137 0.4945 0.4737
1753.000000 0.3776 0.3600 0.3437 0.3127 0.2896
1748.000000 0.2665 0.2434 0.2204 0.1973 0.1742
1743.000000 0.1511 0.1280 0.1090 0.1001 0.0922
1738.000000 0.0902 0.0895 0.0875 0.0891 0.0895
1733.000000 0.0917 0.0981 0.1168 0.1622 0.2077
1728.000000 0.2531 0.2984 0.3440 0.3894 0.4312
1723.000000 0.4577 0.4771 0.4962 0.5151 0.5435
1718.000000 0.5754 0.5916 0.6065 0.6190 0.6315
1713.000000 0.6435 0.6555 0.6674 0.6769 0.6857
1708.000000 0.6943 0.7021 0.7086 0.7151 0.7215
1703.000000 0.7280 0.7342 0.7398 0.7453 0.7508
1698.000000 0.7558 0.7600 0.7643 0.7685 0.7728
1693.000000 0.7767 0.7807 0.7846 0.7885 0.7925
1688.000000 0.7956 0.7983 0.8011 0.8039 0.8065
1683.000000 0.8094 0.8112 0.8132 0.8150 0.8168
1678.000000 0.8187 0.8206 0.8218 0.8228 0.8239
1673.000000 0.8249 0.8259 0.8268 0.8278 0.8289
1668.000000 0.8299 0.8309 0.8315 0.8320 0.8325
1663.000000 0.8331 0.8336 0.8341 0.8347 0.8352
1658.000000 0.8357 0.8360 0.8363 0.8366 0.8368
1653.000000 0.8371 0.8373 0.8375 0.8378 0.8381
1648.000000 0.8383 0.8386 0.8388 0.8391 0.8393
1643.000000 0.8396 0.8398 0.8400 0.8403 0.8405
1638.000000 0.8408 0.8410 0.8412 0.8415 0.8416
1633.000000 0.8417 0.8418 0.8418 0.8418 0.8420
1628.000000 0.8421 0.8421 0.8421 0.8423 0.8424
1623.000000 0.8425 0.8425 0.8425 0.8425 0.8427
1618.000000 0.8427 0.8428 0.8428 0.8428 0.8428
1613.000000 0.8430 0.8430 0.8431 0.8431 0.8431
1608.000000 0.8432 0.8432 0.8432 0.8432 0.8432
1603.000000 0.8431 0.8431 0.8430 0.8428 0.8428
1598.000000 0.8428 0.8428 0.8425 0.8423 0.8421
1593.000000 0.8418 0.8416 0.8413 0.8408 0.8402
1588.000000 0.8395 0.8389 0.8383 0.8377 0.8371
1583.000000 0.8368 0.8363 0.8359 0.8355 0.8350
1578.000000 0.8347 0.8347 0.8346 0.8346 0.8346
1573.000000 0.8346 0.8346 0.8346 0.8346 0.8345
1568.000000 0.8345 0.8347 0.8349 0.8351 0.8352
1563.000000 0.8368 0.8356 0.8358 0.8360 0.8361
1558.000000 0.8363 0.8365 0.8367 0.8368 0.8371
1553.000000 0.8373 0.8375 0.8378 0.8380 0.8382
1548.000000 0.8384 0.8386 0.8389 0.8391 0.8393
1543.000000 0.8394 0.8396 0.8398 0.8399 0.8401
1538.000000 0.8403 0.8405 0.8407 0.8409 0.8412
1533.000000 0.8414 0.8416 0.8418 0.8423 0.8428
1528.000000 0.8432 0.8436 0.8440 0.8444 0.8447
1523.000000 0.8450 0.8450 0.8450 0.8449 0.8447
1518.000000 0.8445 0.8443 0.8442 0.8438 0.8433
1513.000000 0.8427 0.8421 0.8417 0.8411 0.8406
1508.000000 0.8401 0.8395 0.8389 0.8383 0.8377
1503.000000 0.8371 0.8365 0.8359 0.8353 0.8347
1498.000000 0.8341 0.8332 0.8321 0.8311 0.8300
1493.000000 0.8290 0.8278 0.8268 0.8258 0.8247
1488.000000 0.8237 0.8225 0.8216 0.8205 0.8195
1483.000000 0.8184 0.8174 0.8162 0.8145 0.8121
1478.000000 0.8098 0.8071 0.8045 0.8018 0.7990
1473.000000 0.7911 0.7808 0.7606 0.5396 0.5382
1468.000000 0.5368 0.5345 0.5316 0.5197 0.4988
1463.000000 0.4779 0.4610 0.4609 0.4620 0.4636
1458.000000 0.4655 0.4682 0.4726 0.4818 0.4910
1453.000000 0.5001 0.5093 0.5117 0.5116 0.4914
1448.000000 0.4634 0.4354 0.4074 0.3866 0.3941
1443.000000 0.4092 0.4169 0.3829 0.3349 0.2895
1438.000000 0.2894 0.3155 0.3652 0.4148 0.4644
1433.000000 0.5140 0.5636 0.6069 0.6196 0.6267
1428.000000 0.6306 0.6336 0.6358 0.6368 0.6362
1423.000000 0.6349 0.6337 0.6334 0.6349 0.6400
1418.000000 0.6496 0.6611 0.6728 0.6845 0.6961
1413.000000 0.7078 0.7194 0.7311 0.7387 0.7426
1408.000000 0.7457 0.7486 0.7508 0.7532 0.7548
1403.000000 0.7562 0.7575 0.7581 0.7578 0.7576
1398.000000 0.7575 0.7568 0.7558 0.7545 0.7531
1393.000000 0.7505 0.7474 0.7395 0.7286 0.7150
1388.000000 0.6987 0.6661 0.6246 0.5829 0.5582
1383.000000 0.5590 0.5595 0.5655 0.5722 0.5754
1378.000000 0.5783 0.5792 0.5802 0.5821 0.5815
1373.000000 0.5807 0.5783 0.5710 0.5648 0.5591
1368.000000 0.5549 0.5536 0.5537 0.5537 0.5564
1363.000000 0.5599 0.5636 0.5673 0.5712 0.5754
1358.000000 0.5796 0.5838 0.5879 0.5914 0.5946
1353.000000 0.5978 0.6010 0.6036 0.6056 0.6076
1348.000000 0.6096 0.6115 0.6135 0.6154 0.6168
1343.000000 0.6182 0.6197 0.6210 0.6221 0.6232
1338.000000 0.6242 0.6253 0.6258 0.6260 0.6266
1333.000000 0.6266 0.6260 0.6251 0.6235 0.6209
1328.000000 0.6150 0.6097 0.6048 0.6010 0.5973
1323.000000 0.5936 0.5898 0.5856 0.5810 0.5765
1318.000000 0.5721 0.5679 0.5638 0.5614 0.5594
1313.000000 0.5574 0.5560 0.5547 0.5534 0.5524
1308.000000 0.5515 0.5506 0.5497 0.5488 0.5479
1303.000000 0.5470 0.5460 0.5450 0.5437 0.5424
1298.000000 0.5410 0.5391 0.5368 0.5340 0.5310
1293.000000 0.5281 0.5243 0.5204 0.5166 0.5123
1288.000000 0.5075 0.5027 0.4979 0.4931 0.4887
1283.000000 0.4850 0.4812 0.4776 0.4740 0.4704
1278.000000 0.4668 0.4633 0.4598 0.4562 0.4527
1273.000000 0.4492 0.4460 0.4431 0.4402 0.4373
1268.000000 0.4342 0.4305 0.4267 0.4237 0.4208
1263.000000 0.4180 0.4153 0.4129 0.4115 0.4101
1258.000000 0.4087 0.4071 0.4056 0.4040 0.4024
1253.000000 0.4012 0.4007 0.4000 0.3993 0.3970
1248.000000 0.3987 0.3992 0.3999 0.4006 0.4014
1243.000000 0.4030 0.4046 0.4062 0.4082 0.4101
1238.000000 0.4120 0.4139 0.4158 0.4177 0.4198
1233.000000 0.4221 0.4243 0.4265 0.4285 0.4300
1228.000000 0.4315 0.4327 0.4337 0.4329 0.4324
1223.000000 0.4314 0.4304 0.4294 0.4283 0.4270
1218.000000 0.4257 0.4244 0.4232 0.4219 0.4204
1213.000000 0.4187 0.4171 0.4155 0.4139 0.4121
1208.000000 0.4101 0.4082 0.4062 0.4044 0.4024
1203.000000 0.4005 0.3984 0.3966 0.3948 0.3934
1198.000000 0.3924 0.3918 0.3914 0.3924 0.3934
1193.000000 0.3962 0.4016 0.4097 0.4160 0.4224
1188.000000 0.4288 0.4352 0.4415 0.4479 0.4525
1183.000000 0.4576 0.4536 0.4517 0.4429 0.4342
1178.000000 0.4254 0.4166 0.4078 0.3990 0.3902
1173.000000 0.3814 0.3726 0.3638 0.3550 0.3493
1168.000000 0.3480 0.3471 0.3464 0.3464 0.3462
1163.000000 0.3472 0.3509 0.3588 0.3679 0.3770
1158.000000 0.3860 0.3932 0.4003 0.4074 0.4149
1153.000000 0.4245 0.4341 0.4460 0.4616 0.4748
1148.000000 0.4835 0.4922 0.5009 0.5093 0.5170
1143.000000 0.5247 0.5324 0.5402 0.5480 0.5558
1138.000000 0.5632 0.5679 0.5726 0.5772 0.5819
1133.000000 0.5865 0.5900 0.5932 0.5962 0.5995
1128.000000 0.6021 0.6037 0.6052 0.6067 0.6085
1123.000000 0.6112 0.6138 0.6168 0.6199 0.6230
1118.000000 0.6259 0.6282 0.6305 0.6328 0.6351
1113.000000 0.6368 0.6385 0.6396 0.6405 0.6415
1108.000000 0.6422 0.6422 0.6422 0.6424 0.6422
1103.000000 0.6421 0.6419 0.6418 0.6414 0.6414
1098.000000 0.6414 0.6418 0.6422 0.6426 0.6431
1093.000000 0.6435 0.6441 0.6450 0.6460 0.6469
1088.000000 0.6478 0.6489 0.6499 0.6508 0.6518
1083.000000 0.6528 0.6541 0.6554 0.6565 0.6578
1078.000000 0.6591 0.6604 0.6615 0.6628 0.6641
1073.000000 0.6654 0.6667 0.6678 0.6692 0.6704
1068.000000 0.6717 0.6728 0.6742 0.6755 0.6767
1063.000000 0.6780 0.6792 0.6804 0.6815 0.6825
1058.000000 0.6837 0.6849 0.6860 0.6871 0.6881
1053.000000 0.6890 0.6898 0.6907 0.6915 0.6924
1048.000000 0.6928 0.6933 0.6937 0.6941 0.6945
1043.000000 0.6948 0.6951 0.6953 0.6955 0.6956
1038.000000 0.6956 0.6956 0.6951 0.6948 0.6943
1033.000000 0.6936 0.6928 0.6919 0.6911 0.6904
1028.000000 0.6896 0.6888 0.6878 0.6868 0.6858
1023.000000 0.6848 0.6837 0.6825 0.6815 0.6808
1018.000000 0.6803 0.6798 0.6793 0.6787 0.6782
1013.000000 0.6778 0.6780 0.6753 0.6782 0.6784
1008.000000 0.6786 0.6795 0.6804 0.6812 0.6821
1003.000000 0.6825 0.6828 0.6834 0.6838 0.6842
998.000000 0.6846 0.6851 0.6855 0.6858 0.6862
993.000000 0.6865 0.6869 0.6874 0.6878 0.6884
988.000000 0.6888 0.6896 0.6903 0.6911 0.6933
983.000000 0.6953 0.6972 0.7001 0.7039 0.7076
978.000000 0.7118 0.7157 0.7196 0.7234 0.7272
973.000000 0.7311 0.7340 0.7365 0.7392 0.7411
968.000000 0.7428 0.7444 0.7460 0.7475 0.7491
963.000000 0.7507 0.7521 0.7535 0.7547 0.7560
958.000000 0.7562 0.7565 0.7568 0.7571 0.7572
953.000000 0.7575 0.7578 0.7580 0.7582 0.7584
948.000000 0.7586 0.7586 0.7585 0.7583 0.7582
943.000000 0.7580 0.7578 0.7575 0.7572 0.7569
938.000000 0.7567 0.7564 0.7561 0.7556 0.7549
933.000000 0.7542 0.7535 0.7528 0.7521 0.7514
928.000000 0.7508 0.7501 0.7496 0.7490 0.7484
923.000000 0.7478 0.7474 0.7471 0.7467 0.7464
918.000000 0.7460 0.7457 0.7453 0.7451 0.7451
913.000000 0.7450 0.7450 0.7450 0.7450 0.7451
908.000000 0.7453 0.7454 0.7455 0.7457 0.7462
903.000000 0.7468 0.7475 0.7484 0.7491 0.7499
898.000000 0.7507 0.7515 0.7522 0.7531 0.7538
893.000000 0.7544 0.7551 0.7557 0.7556 0.7554
888.000000 0.7551 0.7548 0.7543 0.7539 0.7534
883.000000 0.7530 0.7525 0.7521 0.7517 0.7512
878.000000 0.7512 0.7514 0.7514 0.7514 0.7515
873.000000 0.7515 0.7515 0.7521 0.7528 0.7534
868.000000 0.7541 0.7547 0.7557 0.7568 0.7578
863.000000 0.7588 0.7598 0.7608 0.7617 0.7626
858.000000 0.7637 0.7647 0.7657 0.7665 0.7675
853.000000 0.7684 0.7690 0.7696 0.7703 0.7708
848.000000 0.7712 0.7718 0.7722 0.7728 0.7725
843.000000 0.7721 0.7718 0.7711 0.7705 0.7698
838.000000 0.7692 0.7686 0.7680 0.7675 0.7671
833.000000 0.7669 0.7675 0.7681 0.7686 0.7691
828.000000 0.7696 0.7699 0.7701 0.7706 0.7708
823.000000 0.7711 0.7711 0.7712 0.7714 0.7714
818.000000 0.7714 0.7714 0.7700 0.7683 0.7667
813.000000 0.7653 0.7641 0.7628 0.7615 0.7603
808.000000 0.7589 0.7575 0.7561 0.7549 0.7535
803.000000 0.7521 0.7508 0.7495 0.7482 0.7468
798.000000 0.7461 0.7451 0.7444 0.7435 0.7431
793.000000 0.7428 0.7425 0.7421 0.7421 0.7421
788.000000 0.7421 0.7421 0.7425 0.7436 0.7445
783.000000 0.7454 0.7462 0.7472 0.7484 0.7497
778.000000 0.7508 0.7521 0.7533 0.7544 0.7555
773.000000 0.7565 0.7575 0.7587 0.7590 0.7591
768.000000 0.7592 0.7592 0.7591 0.7578 0.7565
763.000000 0.7551 0.7536 0.7519 0.7505 0.7490
758.000000 0.7475 0.7461 0.7449 0.7438 0.7428
753.000000 0.7419 0.7412 0.7405 0.7398 0.7394
748.000000 0.7391 0.7389 0.7387 0.7384 0.7381
743.000000 0.7378 0.7375 0.7372 0.7369 0.7365
738.000000 0.7360 0.7354 0.7347 0.7341 0.7331
733.000000 0.7318 0.7307 0.7297 0.7289 0.7282
728.000000 0.7276 0.7271 0.7271 0.7271 0.7274
723.000000 0.7276 0.7311 0.7368 0.7422 0.7465
718.000000 0.7506 0.7547 0.7585 0.7619 0.7655
713.000000 0.7688 0.7711 0.7735 0.7742 0.7750
708.000000 0.7753 0.7761 0.7757 0.7756 0.7751
703.000000 0.7747 0.7738 0.7721 0.7703 0.7686
698.000000 0.7668 0.7646 0.7621 0.7597 0.7572
693.000000 0.7549 0.7524 0.7498 0.7471 0.7446
688.000000 0.7419 0.7395 0.7368 0.7342 0.7315
683.000000 0.7288 0.7261 0.7234 0.7207 0.7180
678.000000 0.7153 0.7128 0.7105 0.7082 0.7058
673.000000 0.7035 0.7011 0.6989 0.6967 0.6949
668.000000 0.6938 0.6928 0.6919 0.6911 0.6907
663.000000 0.6903 0.6891 0.6878 0.6867 0.6843
658.000000 0.6811 0.6760 0.6705 0.6641 0.6574
653.000000 0.6506 0.6453 0.6421 0.6405 0.6397
648.000000 0.6391 0.6390 0.6390 0.6396 0.6428
643.000000 0.6475 0.6528 0.6583 0.6642 0.6701
638.000000 0.6754 0.6796 0.6838 0.6880 0.6921
633.000000 0.6961 0.7001 0.7036 0.7064 0.7091
628.000000 0.7101 0.7135 0.7103 0.7103 0.7094
623.000000 0.7081 0.7035 0.6974 0.6912 0.6851
618.000000 0.6791 0.6737 0.6687 0.6637 0.6587
613.000000 0.6542 0.6499 0.6461 0.6431 0.6412
608.000000 0.6360 0.6399 0.6399 0.6399 0.6408
603.000000 0.6453 0.6510 0.6589 0.6662 0.6737
598.000000 0.6832 0.6917 0.6982 0.7047 0.7111
593.000000 0.7178 0.7243 0.7301 0.7353 0.7405
588.000000 0.7439 0.7469 0.7501 0.7532 0.7561
583.000000 0.7594 0.7625 0.7658 0.7689 0.7721
578.000000 0.7753 0.7778 0.7799 0.7818 0.7839
573.000000 0.7858 0.7878 0.7899 0.7918 0.7935
568.000000 0.7951 0.7968 0.7986 0.8003 0.8019
563.000000 0.8038 0.8055 0.8068 0.8082 0.8094
558.000000 0.8107 0.8119 0.8132 0.8145 0.8158
553.000000 0.8167 0.8175 0.8184 0.8193 0.8201
548.000000 0.8210 0.8218 0.8227 0.8236 0.8243
543.000000 0.8247 0.8252 0.8257 0.8262 0.8267
538.000000 0.8271 0.8270 0.8268 0.8268 0.8265
533.000000 0.8258 0.8252 0.8245 0.8238 0.8231
528.000000 0.8225 0.8221 0.8217 0.8213 0.8209
523.000000 0.8204 0.8205 0.8206 0.8209 0.8212
518.000000 0.8216 0.8218 0.8223 0.8225 0.8231
513.000000 0.8235 0.8239 0.8244 0.8248 0.8253
508.000000 0.8257 0.8261 0.8266 0.8270 0.8274
503.000000 0.8278 0.8282 0.8284 0.8286 0.8288
498.000000 0.8290 0.8292 0.8294 0.8296 0.8299
493.000000 0.8301 0.8303 0.8305 0.8307 0.8307
488.000000 0.8307 0.8308 0.8308 0.8308 0.8309
483.000000 0.8309 0.8309 0.8309 0.8310 0.8310
478.000000 0.8310 0.8310 0.8311 0.8311 0.8311
473.000000 0.8311 0.8309 0.8307 0.8306 0.8304
468.000000 0.8302 0.8300 0.8298 0.8296 0.8294
463.000000 0.8292 0.8290 0.8288 0.8287 0.8285
458.000000 0.8284 0.8282 0.8280 0.8278 0.8277
453.000000 0.8275 0.8274 0.8273 0.8271 0.8268
448.000000 0.8268 0.8266 0.8265 0.8263 0.8262
443.000000 0.8258 0.8253 0.8249 0.8244 0.8239
438.000000 0.8235 0.8230 0.8225 0.8221 0.8216
433.000000 0.8211 0.8206 0.8201 0.8196 0.8190
428.000000 0.8185 0.8180 0.8174 0.8168 0.8168
423.000000 0.8168 0.8171 0.8172 0.8175 0.8176
418.000000 0.8178 0.8181 0.8183 0.8186 0.8188
413.000000 0.8191 0.8194 0.8197 0.8200 0.8203
408.000000 0.8206 0.8208 0.8211 0.8214 0.8217
403.000000 0.8220 0.8221 0.8221 0.8223 0.8224
398.000000 0.8225 0.8225 0.8227 0.8227 0.8228
393.000000 0.8228 0.8225 0.8225
##END=
