##TITLE=POTASSIUM 6-(p-AMINO-PHENYLACETAMIDO)-PENICILLINATE
##JCAMP-DX=4.24
##DATA TYPE=INFRARED SPECTRUM
##CLASS=COBLENTZ III
##ORIGIN=SMITH KLINE & FRENCH LABS.
##OWNER=Copyright (C) 1987 by the Coblentz Society
Collection (C) 2018 copyright by the U.S. Secretary of Commerce
on behalf of the United States of America. All rights reserved.
##DATE=1962/04/18
##NAMES=4-Thia-1-azabicyclo(3.2.0)heptane-2-carboxylic acid, 6-(2-(p-amino phenyl)acetamido)-3,3-dimethyl-7-oxo-, potassium salt
##MOLFORM=C16 H18 N3 O4 S K
##SOURCE REFERENCE=COBLENTZ NO. 8395
##$NIST ID=B6008395
##$NIST SOURCE=COBLENTZ
##$NIST IMAGE=cob8395
##SPECTROMETER/DATA SYSTEM=PERKIN-ELMER 21 (GRATING)
##INSTRUMENT PARAMETERS=NaCl PRISM
##STATE=SOLID (OIL MULL)
$$SPECTRAL CONTAMINATION DUE TO OIL AROUND 2900, 1455, 1380 CM^-^1
##SAMPLING PROCEDURE=TRANSMISSION
##RESOLUTION=2
##DATA PROCESSING=DIGITIZED BY COBLENTZ SOCIETY (BATCH II) FROM HARD COPY
##XUNITS=1/CM
##YUNITS=TRANSMITTANCE
##XFACTOR=1.0
##YFACTOR=1
##FIRSTX=663
##LASTX=4000
##FIRSTY=0.5773
##MAXX=4000
##MINX=663
##MAXY=0.8335
##MINY=0.0664
##NPOINTS=3338
##XYDATA=(X++(Y..Y))
663.000000 0.5773 0.5798 0.5842 0.5962 0.6125
668.000000 0.6247 0.6276 0.6341 0.6440 0.6470
673.000000 0.6488 0.6507 0.6528 0.6549 0.6568
678.000000 0.6531 0.6528 0.6553 0.6514 0.6547
683.000000 0.6524 0.6440 0.6450 0.6451 0.6325
688.000000 0.6202 0.6172 0.6188 0.6087 0.5977
693.000000 0.5861 0.5786 0.5768 0.5690 0.5669
698.000000 0.5661 0.5653 0.5668 0.5750 0.5802
703.000000 0.5850 0.5904 0.5961 0.6016 0.6113
708.000000 0.6168 0.6196 0.6222 0.6212 0.6180
713.000000 0.6087 0.6068 0.6055 0.5951 0.5871
718.000000 0.5853 0.6010 0.6022 0.6127 0.6219
723.000000 0.6216 0.6162 0.6157 0.6119 0.6077
728.000000 0.6041 0.6056 0.6072 0.5988 0.5929
733.000000 0.5880 0.5804 0.5736 0.5800 0.5756
738.000000 0.5531 0.5461 0.5399 0.5335 0.5276
743.000000 0.5221 0.5158 0.5085 0.5029 0.4987
748.000000 0.4967 0.4961 0.4942 0.4881 0.4851
753.000000 0.4826 0.4805 0.4786 0.4777 0.4769
758.000000 0.4755 0.4742 0.4744 0.4761 0.4783
763.000000 0.4789 0.4776 0.4732 0.4676 0.4595
768.000000 0.4486 0.4366 0.4276 0.4236 0.4220
773.000000 0.4295 0.4363 0.4382 0.4598 0.4762
778.000000 0.4860 0.5085 0.5219 0.5291 0.5549
783.000000 0.5743 0.5782 0.5959 0.6093 0.6104
788.000000 0.5954 0.5891 0.5796 0.5636 0.5466
793.000000 0.5351 0.5232 0.5208 0.5200 0.5171
798.000000 0.5128 0.5121 0.5204 0.5250 0.5269
803.000000 0.5301 0.5116 0.5119 0.5182 0.5201
808.000000 0.5350 0.5526 0.5655 0.5818 0.5980
813.000000 0.6141 0.6245 0.6284 0.6340 0.6378
818.000000 0.6333 0.6244 0.6195 0.6146 0.6094
823.000000 0.5922 0.5829 0.5814 0.5802 0.5785
828.000000 0.5766 0.5733 0.5692 0.5649 0.5594
833.000000 0.5514 0.5417 0.5277 0.5082 0.4941
838.000000 0.4867 0.4808 0.4752 0.4753 0.4815
843.000000 0.4917 0.5110 0.5253 0.5345 0.5414
848.000000 0.5518 0.5662 0.5702 0.5739 0.5783
853.000000 0.5819 0.5833 0.5816 0.5740 0.5690
858.000000 0.5691 0.5684 0.5926 0.6166 0.6236
863.000000 0.6266 0.6391 0.6502 0.6529 0.6548
868.000000 0.6588 0.6659 0.6744 0.6810 0.6831
873.000000 0.6838 0.6851 0.6872 0.6910 0.6967
878.000000 0.7029 0.7054 0.7057 0.7072 0.7047
883.000000 0.7035 0.6965 0.6887 0.6808 0.6620
888.000000 0.6403 0.6336 0.6329 0.6293 0.6426
893.000000 0.6573 0.6685 0.6833 0.7005 0.7208
898.000000 0.7334 0.7406 0.7419 0.7418 0.7394
903.000000 0.7378 0.7375 0.7365 0.7329 0.7268
908.000000 0.7212 0.7159 0.7104 0.7045 0.6986
913.000000 0.6913 0.6860 0.6862 0.6874 0.6888
918.000000 0.6893 0.6886 0.6880 0.6889 0.6946
923.000000 0.7021 0.7066 0.7049 0.7022 0.6992
928.000000 0.6967 0.6962 0.6956 0.6940 0.6860
933.000000 0.6812 0.6789 0.6772 0.6777 0.6816
938.000000 0.6881 0.6971 0.7041 0.7098 0.7131
943.000000 0.7150 0.7160 0.7166 0.7085 0.7009
948.000000 0.6919 0.6838 0.6770 0.6720 0.6700
953.000000 0.6763 0.6904 0.7137 0.7274 0.7337
958.000000 0.7382 0.7418 0.7441 0.7455 0.7463
963.000000 0.7472 0.7505 0.7478 0.7480 0.7479
968.000000 0.7477 0.7477 0.7477 0.7483 0.7510
973.000000 0.7514 0.7504 0.7498 0.7518 0.7527
978.000000 0.7505 0.7443 0.7355 0.7282 0.7232
983.000000 0.7075 0.7008 0.6992 0.7001 0.7031
988.000000 0.7044 0.7036 0.7003 0.6910 0.6812
993.000000 0.6627 0.6284 0.6219 0.6227 0.6204
998.000000 0.6561 0.6805 0.7048 0.7291 0.7448
1003.000000 0.7488 0.7499 0.7505 0.7486 0.7474
1008.000000 0.7450 0.7422 0.7390 0.7353 0.7281
1013.000000 0.7201 0.7029 0.6900 0.6872 0.6927
1018.000000 0.6979 0.7013 0.7013 0.7013 0.7054
1023.000000 0.7192 0.7377 0.7437 0.7457 0.7464
1028.000000 0.7465 0.7465 0.7467 0.7471 0.7478
1033.000000 0.7487 0.7495 0.7501 0.7504 0.7508
1038.000000 0.7492 0.7500 0.7493 0.7483 0.7464
1043.000000 0.7439 0.7410 0.7413 0.7424 0.7439
1048.000000 0.7440 0.7417 0.7389 0.7379 0.7375
1053.000000 0.7371 0.7367 0.7362 0.7353 0.7326
1058.000000 0.7294 0.7258 0.7207 0.7158 0.7121
1063.000000 0.7093 0.7054 0.7009 0.6963 0.6917
1068.000000 0.6863 0.6805 0.6745 0.6673 0.6594
1073.000000 0.6476 0.6280 0.6124 0.6095 0.6102
1078.000000 0.6046 0.6174 0.6246 0.6331 0.6371
1083.000000 0.6368 0.6386 0.6207 0.6062 0.5917
1088.000000 0.5773 0.5635 0.5613 0.5615 0.5660
1093.000000 0.5722 0.5907 0.6107 0.6306 0.6506
1098.000000 0.6704 0.6903 0.7079 0.7115 0.7089
1103.000000 0.7086 0.7081 0.7073 0.7057 0.7014
1108.000000 0.6939 0.6890 0.6859 0.6833 0.6812
1113.000000 0.6791 0.6631 0.6506 0.6472 0.6445
1118.000000 0.6428 0.6415 0.6404 0.6362 0.6522
1123.000000 0.6653 0.6783 0.6829 0.6848 0.6864
1128.000000 0.6885 0.6907 0.6901 0.6904 0.6746
1133.000000 0.6731 0.6722 0.6714 0.6699 0.6662
1138.000000 0.6617 0.6620 0.6624 0.6629 0.6638
1143.000000 0.6646 0.6656 0.6663 0.6662 0.6644
1148.000000 0.6615 0.6556 0.6469 0.6280 0.6236
1153.000000 0.6226 0.6244 0.6279 0.6330 0.6393
1158.000000 0.6480 0.6560 0.6585 0.6580 0.6569
1163.000000 0.6553 0.6495 0.6350 0.6325 0.6333
1168.000000 0.6389 0.6482 0.6564 0.6597 0.6595
1173.000000 0.6519 0.6393 0.6296 0.6188 0.6144
1178.000000 0.6002 0.5969 0.6026 0.6064 0.6061
1183.000000 0.5930 0.5757 0.5585 0.5413 0.5242
1188.000000 0.5082 0.5056 0.5032 0.5082 0.5176
1193.000000 0.5265 0.5268 0.5277 0.5218 0.5159
1198.000000 0.5132 0.5134 0.5254 0.5135 0.5680
1203.000000 0.5892 0.6099 0.6214 0.6323 0.6404
1208.000000 0.6445 0.6465 0.6477 0.6482 0.6485
1213.000000 0.6516 0.6483 0.6478 0.6473 0.6469
1218.000000 0.6469 0.6470 0.6470 0.6373 0.6215
1223.000000 0.6133 0.6053 0.5978 0.5908 0.5834
1228.000000 0.5731 0.5454 0.5169 0.4818 0.4612
1233.000000 0.4583 0.4566 0.4556 0.4553 0.4552
1238.000000 0.4548 0.4606 0.4681 0.4761 0.4860
1243.000000 0.4943 0.5022 0.5121 0.5206 0.5280
1248.000000 0.5346 0.5420 0.5528 0.5775 0.5980
1253.000000 0.6092 0.6114 0.6122 0.6131 0.6116
1258.000000 0.6091 0.6059 0.6010 0.5970 0.5931
1263.000000 0.5890 0.5850 0.5775 0.5641 0.5503
1268.000000 0.5366 0.5229 0.5092 0.4956 0.4819
1273.000000 0.4684 0.4553 0.4432 0.4383 0.4348
1278.000000 0.4336 0.4334 0.4334 0.4345 0.4357
1283.000000 0.4401 0.4487 0.4599 0.4710 0.4820
1288.000000 0.4868 0.4868 0.4860 0.4823 0.4764
1293.000000 0.4613 0.4457 0.4345 0.4148 0.3916
1298.000000 0.3686 0.3455 0.3221 0.3026 0.2864
1303.000000 0.2768 0.2677 0.2517 0.2295 0.2186
1308.000000 0.2108 0.2071 0.2057 0.2061 0.2060
1313.000000 0.2118 0.2208 0.2320 0.2404 0.2475
1318.000000 0.2487 0.2491 0.2495 0.2497 0.2498
1323.000000 0.2495 0.2492 0.2493 0.2494 0.2510
1328.000000 0.2719 0.2959 0.3200 0.3440 0.3678
1333.000000 0.3912 0.4031 0.4219 0.4335 0.4487
1338.000000 0.4637 0.4750 0.4827 0.4888 0.4949
1343.000000 0.5000 0.5048 0.5078 0.5089 0.5118
1348.000000 0.5077 0.5066 0.5051 0.5032 0.5010
1353.000000 0.4961 0.4868 0.4755 0.4602 0.4506
1358.000000 0.4410 0.4316 0.4220 0.4151 0.4094
1363.000000 0.4026 0.3886 0.3515 0.3391 0.3283
1368.000000 0.3138 0.2902 0.2698 0.2625 0.2586
1373.000000 0.2559 0.2540 0.2534 0.2531 0.2530
1378.000000 0.2530 0.2532 0.2534 0.2537 0.2541
1383.000000 0.2544 0.2543 0.2543 0.2541 0.2538
1388.000000 0.2534 0.2529 0.2537 0.2639 0.2793
1393.000000 0.2948 0.3102 0.3257 0.3411 0.3565
1398.000000 0.3717 0.3851 0.3898 0.3911 0.3916
1403.000000 0.3914 0.3908 0.3902 0.3893 0.3883
1408.000000 0.3873 0.3859 0.3840 0.3786 0.3685
1413.000000 0.3610 0.3565 0.3553 0.3566 0.3614
1418.000000 0.3664 0.3702 0.3739 0.3778 0.3915
1423.000000 0.3972 0.3992 0.3994 0.3988 0.3977
1428.000000 0.3927 0.3854 0.3798 0.3758 0.3726
1433.000000 0.3713 0.3704 0.3660 0.3559 0.3452
1438.000000 0.3344 0.3233 0.3124 0.3026 0.2967
1443.000000 0.2913 0.2866 0.2821 0.2782 0.2742
1448.000000 0.2692 0.2625 0.2535 0.2466 0.2405
1453.000000 0.2353 0.2318 0.2301 0.2297 0.2294
1458.000000 0.2295 0.2315 0.2360 0.2392 0.2414
1463.000000 0.2427 0.2438 0.2456 0.2598 0.2821
1468.000000 0.3044 0.3267 0.3467 0.3566 0.3585
1473.000000 0.3585 0.3580 0.3596 0.3488 0.3468
1478.000000 0.3454 0.3437 0.3388 0.3278 0.3159
1483.000000 0.3041 0.2923 0.2804 0.2686 0.2568
1488.000000 0.2451 0.2396 0.2364 0.2290 0.2081
1493.000000 0.1875 0.1658 0.1518 0.1415 0.1338
1498.000000 0.1294 0.1257 0.1230 0.1212 0.1198
1503.000000 0.1189 0.1184 0.1178 0.1212 0.1208
1508.000000 0.1251 0.1335 0.1471 0.1668 0.1890
1513.000000 0.2013 0.2085 0.2152 0.2253 0.2368
1518.000000 0.2585 0.2801 0.3017 0.3232 0.3388
1523.000000 0.3439 0.3467 0.3493 0.3526 0.3596
1528.000000 0.3648 0.3681 0.3694 0.3725 0.3679
1533.000000 0.3647 0.3614 0.3581 0.3561 0.3576
1538.000000 0.3598 0.3598 0.3597 0.3595 0.3591
1543.000000 0.3584 0.3555 0.3489 0.3416 0.3343
1548.000000 0.3271 0.3198 0.3124 0.3048 0.2970
1553.000000 0.2912 0.2887 0.2865 0.2846 0.2827
1558.000000 0.2807 0.2787 0.2767 0.2746 0.2721
1563.000000 0.2700 0.2659 0.2524 0.2389 0.2339
1568.000000 0.2325 0.2320 0.2321 0.2324 0.2330
1573.000000 0.2339 0.2352 0.2371 0.2390 0.2405
1578.000000 0.2418 0.2423 0.2422 0.2229 0.1943
1583.000000 0.1703 0.1601 0.1526 0.1452 0.1403
1588.000000 0.1357 0.1303 0.1248 0.1211 0.1181
1593.000000 0.1153 0.1131 0.1111 0.1092 0.1075
1598.000000 0.1064 0.1057 0.1051 0.1044 0.1032
1603.000000 0.1041 0.1043 0.1048 0.1059 0.1073
1608.000000 0.1089 0.1101 0.1109 0.1116 0.1121
1613.000000 0.1127 0.1133 0.1139 0.1142 0.1146
1618.000000 0.1150 0.1156 0.1164 0.1172 0.1181
1623.000000 0.1189 0.1198 0.1206 0.1269 0.1400
1628.000000 0.1551 0.1701 0.1850 0.1965 0.1977
1633.000000 0.1988 0.2000 0.2101 0.2227 0.2317
1638.000000 0.2362 0.2391 0.2407 0.2416 0.2421
1643.000000 0.2425 0.2456 0.2554 0.2692 0.2830
1648.000000 0.2967 0.3105 0.3242 0.3334 0.3377
1653.000000 0.3402 0.3437 0.3524 0.3681 0.3854
1658.000000 0.3984 0.4141 0.4300 0.4392 0.4441
1663.000000 0.4482 0.4566 0.4707 0.4874 0.5034
1668.000000 0.5195 0.5355 0.5515 0.5676 0.5835
1673.000000 0.5995 0.6233 0.6392 0.6436 0.6479
1678.000000 0.6518 0.6549 0.6580 0.6611 0.6641
1683.000000 0.6661 0.6676 0.6691 0.6706 0.6721
1688.000000 0.6736 0.6751 0.6766 0.6783 0.6821
1693.000000 0.6881 0.6948 0.7017 0.7048 0.7054
1698.000000 0.7057 0.7060 0.7062 0.7079 0.7059
1703.000000 0.7053 0.7046 0.7022 0.6988 0.6934
1708.000000 0.6874 0.6830 0.6787 0.6754 0.6740
1713.000000 0.6729 0.6719 0.6711 0.6706 0.6700
1718.000000 0.6693 0.6686 0.6673 0.6647 0.6607
1723.000000 0.6563 0.6523 0.6483 0.6427 0.6356
1728.000000 0.6266 0.6146 0.5951 0.5804 0.5681
1733.000000 0.5520 0.5302 0.5062 0.4822 0.4583
1738.000000 0.4344 0.4105 0.3867 0.3629 0.3391
1743.000000 0.3153 0.2905 0.2640 0.2402 0.2352
1748.000000 0.2303 0.2234 0.2156 0.2080 0.2013
1753.000000 0.1961 0.1915 0.1884 0.1869 0.1867
1758.000000 0.1867 0.1871 0.1876 0.1882 0.1892
1763.000000 0.1915 0.1871 0.2103 0.2319 0.2558
1768.000000 0.2795 0.3033 0.3271 0.3508 0.3745
1773.000000 0.3982 0.4218 0.4454 0.4689 0.4925
1778.000000 0.5160 0.5395 0.5630 0.5865 0.6099
1783.000000 0.6333 0.6567 0.6800 0.6984 0.7043
1788.000000 0.7124 0.7221 0.7322 0.7413 0.7484
1793.000000 0.7551 0.7609 0.7655 0.7687 0.7694
1798.000000 0.7702 0.7707 0.7708 0.7708 0.7709
1803.000000 0.7709 0.7713 0.7725 0.7736 0.7753
1808.000000 0.7776 0.7803 0.7839 0.7874 0.7906
1813.000000 0.7935 0.7964 0.7986 0.8004 0.8019
1818.000000 0.8033 0.8047 0.8060 0.8070 0.8081
1823.000000 0.8091 0.8102 0.8111 0.8114 0.8117
1828.000000 0.8120 0.8124 0.8127 0.8126 0.8123
1833.000000 0.8118 0.8112 0.8107 0.8101 0.8097
1838.000000 0.8097 0.8102 0.8108 0.8114 0.8121
1843.000000 0.8127 0.8133 0.8138 0.8144 0.8149
1848.000000 0.8154 0.8159 0.8164 0.8166 0.8165
1853.000000 0.8165 0.8164 0.8160 0.8150 0.8141
1858.000000 0.8131 0.8121 0.8108 0.8093 0.8080
1863.000000 0.8071 0.8070 0.8068 0.8066 0.8065
1868.000000 0.8062 0.8061 0.8059 0.8059 0.8057
1873.000000 0.8056 0.8056 0.8056 0.8057 0.8058
1878.000000 0.8058 0.8060 0.8061 0.8061 0.8063
1883.000000 0.8067 0.8076 0.8085 0.8096 0.8111
1888.000000 0.8140 0.8165 0.8186 0.8202 0.8218
1893.000000 0.8234 0.8250 0.8261 0.8267 0.8270
1898.000000 0.8272 0.8275 0.8277 0.8278 0.8280
1903.000000 0.8282 0.8283 0.8285 0.8288 0.8290
1908.000000 0.8292 0.8295 0.8297 0.8299 0.8301
1913.000000 0.8304 0.8306 0.8309 0.8335 0.8312
1918.000000 0.8313 0.8313 0.8313 0.8313 0.8313
1923.000000 0.8313 0.8311 0.8305 0.8295 0.8285
1928.000000 0.8276 0.8267 0.8258 0.8251 0.8245
1933.000000 0.8241 0.8237 0.8234 0.8234 0.8235
1938.000000 0.8237 0.8237 0.8238 0.8240 0.8240
1943.000000 0.8241 0.8242 0.8244 0.8245 0.8246
1948.000000 0.8248 0.8249 0.8250 0.8251 0.8251
1953.000000 0.8251 0.8249 0.8248 0.8248 0.8246
1958.000000 0.8245 0.8244 0.8242 0.8239 0.8236
1963.000000 0.8233 0.8230 0.8228 0.8223 0.8216
1968.000000 0.8210 0.8204 0.8198 0.8193 0.8189
1973.000000 0.8185 0.8181 0.8178 0.8174 0.8171
1978.000000 0.8167 0.8163 0.8159 0.8155 0.8152
1983.000000 0.8148 0.8145 0.8142 0.8139 0.8135
1988.000000 0.8132 0.8128 0.8125 0.8122 0.8119
1993.000000 0.8112 0.8106 0.8101 0.8095 0.8089
1998.000000 0.8084 0.8078 0.8072 0.8066 0.8062
2003.000000 0.8059 0.8060 0.8062 0.8064 0.8067
2008.000000 0.8068 0.8070 0.8072 0.8075 0.8075
2013.000000 0.8073 0.8071 0.8068 0.8063 0.8053
2018.000000 0.8042 0.8032 0.8021 0.8010 0.8000
2023.000000 0.7991 0.7985 0.7980 0.7974 0.7968
2028.000000 0.7963 0.7959 0.7958 0.7956 0.7954
2033.000000 0.7953 0.7952 0.7951 0.7949 0.7947
2038.000000 0.7946 0.7945 0.7943 0.7942 0.7940
2043.000000 0.7939 0.7938 0.7937 0.7936 0.7935
2048.000000 0.7934 0.7933 0.7932 0.7931 0.7930
2053.000000 0.7929 0.7928 0.7927 0.7926 0.7925
2058.000000 0.7924 0.7923 0.7922 0.7922 0.7920
2063.000000 0.7919 0.7919 0.7918 0.7917 0.7915
2068.000000 0.7914 0.7914 0.7913 0.7912 0.7911
2073.000000 0.7910 0.7909 0.7908 0.7908 0.7905
2078.000000 0.7901 0.7897 0.7893 0.7889 0.7885
2083.000000 0.7881 0.7877 0.7874 0.7870 0.7866
2088.000000 0.7862 0.7858 0.7854 0.7850 0.7846
2093.000000 0.7838 0.7830 0.7823 0.7815 0.7808
2098.000000 0.7800 0.7792 0.7789 0.7786 0.7783
2103.000000 0.7781 0.7778 0.7776 0.7773 0.7770
2108.000000 0.7767 0.7764 0.7762 0.7760 0.7757
2113.000000 0.7754 0.7751 0.7749 0.7746 0.7744
2118.000000 0.7742 0.7740 0.7740 0.7739 0.7738
2123.000000 0.7737 0.7737 0.7736 0.7735 0.7735
2128.000000 0.7734 0.7732 0.7730 0.7727 0.7725
2133.000000 0.7723 0.7720 0.7717 0.7715 0.7712
2138.000000 0.7709 0.7706 0.7704 0.7701 0.7698
2143.000000 0.7695 0.7693 0.7690 0.7687 0.7683
2148.000000 0.7678 0.7673 0.7667 0.7662 0.7657
2153.000000 0.7651 0.7646 0.7640 0.7635 0.7631
2158.000000 0.7625 0.7620 0.7615 0.7609 0.7603
2163.000000 0.7596 0.7590 0.7583 0.7576 0.7569
2168.000000 0.7562 0.7561 0.7561 0.7561 0.7561
2173.000000 0.7562 0.7563 0.7563 0.7564 0.7567
2178.000000 0.7569 0.7572 0.7575 0.7577 0.7580
2183.000000 0.7582 0.7585 0.7588 0.7591 0.7594
2188.000000 0.7602 0.7612 0.7622 0.7631 0.7638
2193.000000 0.7646 0.7649 0.7653 0.7657 0.7661
2198.000000 0.7665 0.7669 0.7674 0.7678 0.7682
2203.000000 0.7686 0.7690 0.7693 0.7695 0.7696
2208.000000 0.7698 0.7700 0.7702 0.7703 0.7705
2213.000000 0.7706 0.7708 0.7709 0.7711 0.7713
2218.000000 0.7714 0.7715 0.7715 0.7716 0.7716
2223.000000 0.7716 0.7716 0.7716 0.7716 0.7716
2228.000000 0.7716 0.7716 0.7716 0.7716 0.7716
2233.000000 0.7716 0.7716 0.7716 0.7716 0.7715
2238.000000 0.7715 0.7715 0.7715 0.7714 0.7714
2243.000000 0.7714 0.7714 0.7713 0.7713 0.7713
2248.000000 0.7713 0.7712 0.7712 0.7711 0.7711
2253.000000 0.7710 0.7710 0.7709 0.7709 0.7708
2258.000000 0.7707 0.7706 0.7706 0.7705 0.7705
2263.000000 0.7704 0.7704 0.7703 0.7703 0.7702
2268.000000 0.7702 0.7701 0.7701 0.7700 0.7700
2273.000000 0.7699 0.7699 0.7698 0.7698 0.7697
2278.000000 0.7697 0.7696 0.7695 0.7695 0.7694
2283.000000 0.7693 0.7692 0.7691 0.7690 0.7689
2288.000000 0.7688 0.7688 0.7687 0.7686 0.7685
2293.000000 0.7684 0.7683 0.7682 0.7681 0.7680
2298.000000 0.7679 0.7678 0.7677 0.7676 0.7676
2303.000000 0.7675 0.7674 0.7673 0.7672 0.7670
2308.000000 0.7669 0.7667 0.7666 0.7664 0.7662
2313.000000 0.7661 0.7660 0.7658 0.7656 0.7654
2318.000000 0.7653 0.7652 0.7650 0.7648 0.7646
2323.000000 0.7645 0.7644 0.7642 0.7641 0.7639
2328.000000 0.7637 0.7636 0.7634 0.7633 0.7631
2333.000000 0.7629 0.7628 0.7626 0.7624 0.7622
2338.000000 0.7621 0.7619 0.7616 0.7614 0.7612
2343.000000 0.7610 0.7607 0.7605 0.7603 0.7601
2348.000000 0.7599 0.7597 0.7595 0.7592 0.7590
2353.000000 0.7588 0.7586 0.7583 0.7581 0.7579
2358.000000 0.7577 0.7575 0.7573 0.7571 0.7569
2363.000000 0.7566 0.7564 0.7562 0.7560 0.7558
2368.000000 0.7556 0.7554 0.7552 0.7550 0.7547
2373.000000 0.7545 0.7543 0.7541 0.7538 0.7536
2378.000000 0.7534 0.7532 0.7530 0.7527 0.7525
2383.000000 0.7523 0.7521 0.7519 0.7516 0.7514
2388.000000 0.7511 0.7509 0.7507 0.7504 0.7502
2393.000000 0.7500 0.7498 0.7496 0.7494 0.7491
2398.000000 0.7489 0.7487 0.7485 0.7483 0.7480
2403.000000 0.7478 0.7476 0.7474 0.7472 0.7469
2408.000000 0.7467 0.7465 0.7463 0.7461 0.7459
2413.000000 0.7457 0.7455 0.7453 0.7451 0.7449
2418.000000 0.7447 0.7445 0.7444 0.7442 0.7440
2423.000000 0.7438 0.7436 0.7434 0.7432 0.7430
2428.000000 0.7428 0.7426 0.7425 0.7422 0.7420
2433.000000 0.7419 0.7417 0.7415 0.7413 0.7411
2438.000000 0.7409 0.7408 0.7406 0.7404 0.7403
2443.000000 0.7402 0.7401 0.7400 0.7400 0.7398
2448.000000 0.7397 0.7396 0.7395 0.7394 0.7394
2453.000000 0.7393 0.7392 0.7390 0.7389 0.7389
2458.000000 0.7388 0.7387 0.7386 0.7385 0.7383
2463.000000 0.7382 0.7377 0.7373 0.7368 0.7363
2468.000000 0.7358 0.7354 0.7349 0.7345 0.7340
2473.000000 0.7335 0.7330 0.7324 0.7316 0.7308
2478.000000 0.7300 0.7292 0.7285 0.7277 0.7269
2483.000000 0.7261 0.7253 0.7245 0.7238 0.7231
2488.000000 0.7226 0.7224 0.7223 0.7221 0.7219
2493.000000 0.7218 0.7217 0.7217 0.7217 0.7217
2498.000000 0.7218 0.7218 0.7218 0.7218 0.7218
2503.000000 0.7219 0.7219 0.7219 0.7219 0.7219
2508.000000 0.7220 0.7220 0.7220 0.7220 0.7220
2513.000000 0.7221 0.7221 0.7221 0.7221 0.7222
2518.000000 0.7223 0.7224 0.7224 0.7225 0.7226
2523.000000 0.7227 0.7227 0.7227 0.7225 0.7224
2528.000000 0.7222 0.7221 0.7219 0.7218 0.7216
2533.000000 0.7214 0.7211 0.7208 0.7205 0.7201
2538.000000 0.7197 0.7193 0.7189 0.7185 0.7181
2543.000000 0.7177 0.7174 0.7170 0.7167 0.7163
2548.000000 0.7159 0.7155 0.7151 0.7148 0.7144
2553.000000 0.7141 0.7137 0.7133 0.7129 0.7126
2558.000000 0.7122 0.7118 0.7115 0.7111 0.7108
2563.000000 0.7104 0.7100 0.7096 0.7093 0.7089
2568.000000 0.7086 0.7082 0.7078 0.7075 0.7072
2573.000000 0.7068 0.7064 0.7060 0.7057 0.7054
2578.000000 0.7050 0.7046 0.7042 0.7039 0.7036
2583.000000 0.7032 0.7028 0.7025 0.7021 0.7017
2588.000000 0.7013 0.7010 0.7007 0.7003 0.7000
2593.000000 0.6996 0.6992 0.6988 0.6985 0.6981
2598.000000 0.6977 0.6974 0.6970 0.6966 0.6963
2603.000000 0.6959 0.6956 0.6952 0.6949 0.6945
2608.000000 0.6941 0.6938 0.6934 0.6930 0.6927
2613.000000 0.6923 0.6920 0.6917 0.6914 0.6912
2618.000000 0.6910 0.6908 0.6906 0.6904 0.6902
2623.000000 0.6900 0.6898 0.6896 0.6894 0.6891
2628.000000 0.6889 0.6887 0.6885 0.6884 0.6882
2633.000000 0.6879 0.6877 0.6875 0.6874 0.6872
2638.000000 0.6870 0.6867 0.6865 0.6863 0.6861
2643.000000 0.6859 0.6856 0.6854 0.6851 0.6849
2648.000000 0.6847 0.6845 0.6842 0.6840 0.6837
2653.000000 0.6835 0.6832 0.6822 0.6813 0.6803
2658.000000 0.6794 0.6784 0.6774 0.6765 0.6755
2663.000000 0.6742 0.6727 0.6711 0.6699 0.6688
2668.000000 0.6677 0.6668 0.6659 0.6651 0.6643
2673.000000 0.6635 0.6627 0.6618 0.6610 0.6603
2678.000000 0.6597 0.6592 0.6587 0.6583 0.6578
2683.000000 0.6574 0.6569 0.6564 0.6559 0.6555
2688.000000 0.6550 0.6547 0.6544 0.6541 0.6538
2693.000000 0.6535 0.6532 0.6530 0.6527 0.6524
2698.000000 0.6521 0.6519 0.6516 0.6512 0.6509
2703.000000 0.6505 0.6502 0.6499 0.6499 0.6504
2708.000000 0.6509 0.6517 0.6526 0.6536 0.6543
2713.000000 0.6547 0.6552 0.6554 0.6556 0.6557
2718.000000 0.6557 0.6555 0.6554 0.6553 0.6552
2723.000000 0.6551 0.6549 0.6548 0.6546 0.6544
2728.000000 0.6543 0.6541 0.6537 0.6533 0.6529
2733.000000 0.6516 0.6501 0.6486 0.6473 0.6461
2738.000000 0.6449 0.6436 0.6422 0.6408 0.6391
2743.000000 0.6373 0.6356 0.6332 0.6306 0.6281
2748.000000 0.6258 0.6236 0.6214 0.6193 0.6172
2753.000000 0.6152 0.6126 0.6098 0.6070 0.6041
2758.000000 0.6011 0.5981 0.5948 0.5913 0.5878
2763.000000 0.5844 0.5811 0.5777 0.5746 0.5718
2768.000000 0.5690 0.5658 0.5621 0.5584 0.5539
2773.000000 0.5481 0.5422 0.5362 0.5300 0.5237
2778.000000 0.5163 0.5048 0.4933 0.4818 0.4704
2783.000000 0.4590 0.4475 0.4361 0.4247 0.4132
2788.000000 0.4018 0.3904 0.3790 0.3676 0.3562
2793.000000 0.3448 0.3335 0.3221 0.3108 0.2995
2798.000000 0.2881 0.2768 0.2655 0.2542 0.2429
2803.000000 0.2316 0.2203 0.2091 0.1978 0.1865
2808.000000 0.1753 0.1641 0.1563 0.1486 0.1408
2813.000000 0.1373 0.1346 0.1319 0.1296 0.1275
2818.000000 0.1254 0.1237 0.1225 0.1212 0.1202
2823.000000 0.1197 0.1193 0.1188 0.1187 0.1185
2828.000000 0.1184 0.1183 0.1182 0.1181 0.1181
2833.000000 0.1181 0.1181 0.1180 0.1179 0.1178
2838.000000 0.1177 0.1175 0.1174 0.1172 0.1170
2843.000000 0.1169 0.1167 0.1163 0.1159 0.1155
2848.000000 0.1145 0.1131 0.1117 0.1097 0.1067
2853.000000 0.1037 0.1007 0.0980 0.0952 0.0924
2858.000000 0.0902 0.0880 0.0858 0.0837 0.0818
2863.000000 0.0800 0.0781 0.0764 0.0747 0.0730
2868.000000 0.0721 0.0712 0.0703 0.0696 0.0690
2873.000000 0.0684 0.0678 0.0673 0.0668 0.0664
2878.000000 0.0665 0.0666 0.0667 0.0670 0.0673
2883.000000 0.0676 0.0680 0.0686 0.0691 0.0699
2888.000000 0.0719 0.0738 0.0758 0.0774 0.0790
2893.000000 0.0805 0.0820 0.0833 0.0845 0.0857
2898.000000 0.0864 0.0870 0.0877 0.0881 0.0885
2903.000000 0.0888 0.0892 0.0895 0.0898 0.0902
2908.000000 0.0913 0.0924 0.0935 0.0958 0.0988
2913.000000 0.1019 0.1057 0.1119 0.1180 0.1242
2918.000000 0.1290 0.1335 0.1380 0.1428 0.1478
2923.000000 0.1528 0.1579 0.1629 0.1680 0.1730
2928.000000 0.1781 0.1831 0.1881 0.1931 0.1981
2933.000000 0.2031 0.2081 0.2131 0.2181 0.2231
2938.000000 0.2280 0.2330 0.2380 0.2430 0.2479
2943.000000 0.2529 0.2579 0.2632 0.2690 0.2749
2948.000000 0.2808 0.2830 0.2848 0.2865 0.2883
2953.000000 0.2900 0.2918 0.2936 0.2957 0.2978
2958.000000 0.2998 0.3017 0.3032 0.3048 0.3063
2963.000000 0.3068 0.3073 0.3077 0.3081 0.3085
2968.000000 0.3090 0.3094 0.3098 0.3102 0.3107
2973.000000 0.3111 0.3115 0.3119 0.3124 0.3126
2978.000000 0.3128 0.3129 0.3131 0.3132 0.3134
2983.000000 0.3135 0.3136 0.3137 0.3139 0.3139
2988.000000 0.3139 0.3138 0.3138 0.3137 0.3136
2993.000000 0.3135 0.3135 0.3134 0.3133 0.3132
2998.000000 0.3131 0.3130 0.3130 0.3129 0.3128
3003.000000 0.3128 0.3127 0.3126 0.3126 0.3125
3008.000000 0.3124 0.3123 0.3122 0.3121 0.3121
3013.000000 0.3119 0.3118 0.3116 0.3115 0.3113
3018.000000 0.3110 0.3108 0.3106 0.3104 0.3102
3023.000000 0.3099 0.3097 0.3095 0.3092 0.3090
3028.000000 0.3088 0.3085 0.3083 0.3081 0.3079
3033.000000 0.3077 0.3074 0.3073 0.3071 0.3069
3038.000000 0.3067 0.3065 0.3064 0.3062 0.3060
3043.000000 0.3059 0.3057 0.3056 0.3054 0.3052
3048.000000 0.3051 0.3049 0.3047 0.3045 0.3043
3053.000000 0.3042 0.3042 0.3041 0.3041 0.3040
3058.000000 0.3039 0.3038 0.3037 0.3037 0.3036
3063.000000 0.3036 0.3035 0.3035 0.3034 0.3034
3068.000000 0.3033 0.3032 0.3031 0.3031 0.3030
3073.000000 0.3030 0.3029 0.3029 0.3028 0.3027
3078.000000 0.3026 0.3025 0.3025 0.3025 0.3025
3083.000000 0.3024 0.3024 0.3024 0.3024 0.3023
3088.000000 0.3023 0.3023 0.3023 0.3022 0.3022
3093.000000 0.3022 0.3022 0.3021 0.3021 0.3021
3098.000000 0.3021 0.3021 0.3021 0.3021 0.3020
3103.000000 0.3020 0.3020 0.3020 0.3019 0.3019
3108.000000 0.3019 0.3019 0.3019 0.3019 0.3019
3113.000000 0.3019 0.3019 0.3019 0.3019 0.3019
3118.000000 0.3019 0.3019 0.3019 0.3019 0.3019
3123.000000 0.3019 0.3019 0.3019 0.3019 0.3019
3128.000000 0.3019 0.3019 0.3019 0.3019 0.3019
3133.000000 0.3019 0.3019 0.3019 0.3019 0.3019
3138.000000 0.3019 0.3019 0.3019 0.3019 0.3019
3143.000000 0.3019 0.3019 0.3018 0.3018 0.3018
3148.000000 0.3018 0.3017 0.3016 0.3014 0.3013
3153.000000 0.3012 0.3011 0.3010 0.3009 0.3008
3158.000000 0.3007 0.3005 0.3004 0.3003 0.3002
3163.000000 0.3001 0.3000 0.2999 0.2998 0.2996
3168.000000 0.2995 0.2993 0.2990 0.2987 0.2984
3173.000000 0.2981 0.2978 0.2975 0.2971 0.2968
3178.000000 0.2965 0.2961 0.2958 0.2954 0.2951
3183.000000 0.2948 0.2945 0.2941 0.2937 0.2933
3188.000000 0.2929 0.2925 0.2920 0.2916 0.2912
3193.000000 0.2908 0.2904 0.2900 0.2895 0.2891
3198.000000 0.2887 0.2883 0.2879 0.2875 0.2870
3203.000000 0.2866 0.2862 0.2858 0.2854 0.2849
3208.000000 0.2845 0.2841 0.2837 0.2833 0.2829
3213.000000 0.2825 0.2821 0.2818 0.2814 0.2810
3218.000000 0.2807 0.2803 0.2799 0.2795 0.2791
3223.000000 0.2788 0.2784 0.2780 0.2777 0.2773
3228.000000 0.2770 0.2766 0.2762 0.2759 0.2755
3233.000000 0.2751 0.2747 0.2743 0.2738 0.2734
3238.000000 0.2729 0.2724 0.2718 0.2713 0.2707
3243.000000 0.2702 0.2697 0.2691 0.2686 0.2679
3248.000000 0.2669 0.2659 0.2648 0.2638 0.2624
3253.000000 0.2610 0.2596 0.2581 0.2570 0.2560
3258.000000 0.2550 0.2540 0.2530 0.2520 0.2510
3263.000000 0.2500 0.2490 0.2483 0.2475 0.2467
3268.000000 0.2459 0.2453 0.2446 0.2439 0.2432
3273.000000 0.2429 0.2426 0.2424 0.2422 0.2420
3278.000000 0.2418 0.2416 0.2415 0.2413 0.2413
3283.000000 0.2412 0.2411 0.2411 0.2412 0.2415
3288.000000 0.2417 0.2419 0.2422 0.2424 0.2426
3293.000000 0.2429 0.2431 0.2434 0.2436 0.2439
3298.000000 0.2441 0.2416 0.2451 0.2456 0.2461
3303.000000 0.2467 0.2474 0.2481 0.2488 0.2499
3308.000000 0.2540 0.2581 0.2622 0.2663 0.2706
3313.000000 0.2750 0.2793 0.2837 0.2881 0.2925
3318.000000 0.2969 0.3012 0.3056 0.3100 0.3143
3323.000000 0.3187 0.3230 0.3274 0.3317 0.3360
3328.000000 0.3404 0.3447 0.3491 0.3534 0.3578
3333.000000 0.3621 0.3664 0.3707 0.3751 0.3794
3338.000000 0.3837 0.3880 0.3923 0.3966 0.4009
3343.000000 0.4052 0.4095 0.4138 0.4181 0.4224
3348.000000 0.4267 0.4310 0.4353 0.4396 0.4438
3353.000000 0.4481 0.4524 0.4566 0.4609 0.4652
3358.000000 0.4695 0.4738 0.4780 0.4823 0.4865
3363.000000 0.4908 0.4950 0.4992 0.5032 0.5073
3368.000000 0.5113 0.5154 0.5169 0.5176 0.5183
3373.000000 0.5190 0.5196 0.5198 0.5200 0.5202
3378.000000 0.5205 0.5205 0.5205 0.5205 0.5205
3383.000000 0.5204 0.5204 0.5204 0.5204 0.5204
3388.000000 0.5203 0.5203 0.5203 0.5203 0.5203
3393.000000 0.5217 0.5202 0.5202 0.5202 0.5201
3398.000000 0.5200 0.5198 0.5197 0.5195 0.5194
3403.000000 0.5192 0.5191 0.5190 0.5188 0.5187
3408.000000 0.5185 0.5184 0.5182 0.5181 0.5178
3413.000000 0.5175 0.5173 0.5170 0.5167 0.5164
3418.000000 0.5161 0.5158 0.5154 0.5150 0.5146
3423.000000 0.5142 0.5137 0.5133 0.5127 0.5121
3428.000000 0.5115 0.5110 0.5102 0.5094 0.5085
3433.000000 0.5077 0.5068 0.5059 0.5051 0.5042
3438.000000 0.5033 0.5025 0.5016 0.5008 0.4999
3443.000000 0.4991 0.4983 0.4974 0.4966 0.4957
3448.000000 0.4949 0.4940 0.4932 0.4924 0.4915
3453.000000 0.4907 0.4898 0.4890 0.4882 0.4873
3458.000000 0.4865 0.4856 0.4848 0.4839 0.4831
3463.000000 0.4822 0.4814 0.4806 0.4797 0.4789
3468.000000 0.4781 0.4772 0.4764 0.4756 0.4747
3473.000000 0.4739 0.4731 0.4722 0.4714 0.4706
3478.000000 0.4698 0.4689 0.4681 0.4673 0.4665
3483.000000 0.4656 0.4648 0.4639 0.4631 0.4622
3488.000000 0.4614 0.4606 0.4598 0.4590 0.4581
3493.000000 0.4572 0.4562 0.4553 0.4543 0.4535
3498.000000 0.4527 0.4520 0.4513 0.4505 0.4499
3503.000000 0.4492 0.4486 0.4480 0.4473 0.4467
3508.000000 0.4461 0.4455 0.4448 0.4442 0.4441
3513.000000 0.4442 0.4443 0.4444 0.4444 0.4445
3518.000000 0.4446 0.4447 0.4448 0.4449 0.4451
3523.000000 0.4453 0.4455 0.4457 0.4458 0.4461
3528.000000 0.4464 0.4467 0.4470 0.4473 0.4441
3533.000000 0.4484 0.4490 0.4496 0.4501 0.4510
3538.000000 0.4518 0.4527 0.4535 0.4544 0.4555
3543.000000 0.4567 0.4579 0.4591 0.4602 0.4614
3548.000000 0.4625 0.4637 0.4648 0.4660 0.4688
3553.000000 0.4718 0.4748 0.4779 0.4809 0.4845
3558.000000 0.4883 0.4921 0.4958 0.4996 0.5034
3563.000000 0.5071 0.5109 0.5146 0.5184 0.5221
3568.000000 0.5259 0.5296 0.5334 0.5371 0.5409
3573.000000 0.5446 0.5483 0.5520 0.5557 0.5595
3578.000000 0.5632 0.5669 0.5707 0.5744 0.5774
3583.000000 0.5789 0.5804 0.5819 0.5834 0.5847
3588.000000 0.5853 0.5860 0.5867 0.5873 0.5880
3593.000000 0.5885 0.5891 0.5896 0.5901 0.5907
3598.000000 0.5911 0.5916 0.5920 0.5925 0.5929
3603.000000 0.5932 0.5933 0.5935 0.5936 0.5938
3608.000000 0.5939 0.5941 0.5943 0.5945 0.5946
3613.000000 0.5946 0.5948 0.5949 0.5949 0.5950
3618.000000 0.5951 0.5951 0.5951 0.5952 0.5952
3623.000000 0.5952 0.5953 0.5953 0.5953 0.5953
3628.000000 0.5953 0.5952 0.5952 0.5952 0.5952
3633.000000 0.5952 0.5951 0.5951 0.5951 0.5951
3638.000000 0.5951 0.5951 0.5950 0.5949 0.5949
3643.000000 0.5948 0.5948 0.5947 0.5946 0.5944
3648.000000 0.5943 0.5942 0.5941 0.5940 0.5938
3653.000000 0.5937 0.5936 0.5934 0.5933 0.5932
3658.000000 0.5931 0.5930 0.5929 0.5927 0.5925
3663.000000 0.5923 0.5921 0.5919 0.5917 0.5915
3668.000000 0.5913 0.5911 0.5909 0.5908 0.5906
3673.000000 0.5904 0.5902 0.5899 0.5897 0.5895
3678.000000 0.5893 0.5891 0.5889 0.5887 0.5885
3683.000000 0.5883 0.5882 0.5880 0.5878 0.5876
3688.000000 0.5874 0.5872 0.5870 0.5868 0.5866
3693.000000 0.5864 0.5862 0.5860 0.5858 0.5856
3698.000000 0.5854 0.5852 0.5849 0.5847 0.5845
3703.000000 0.5842 0.5840 0.5837 0.5834 0.5831
3708.000000 0.5828 0.5825 0.5822 0.5820 0.5817
3713.000000 0.5814 0.5811 0.5809 0.5809 0.5808
3718.000000 0.5807 0.5806 0.5806 0.5805 0.5805
3723.000000 0.5805 0.5804 0.5804 0.5803 0.5803
3728.000000 0.5803 0.5802 0.5802 0.5802 0.5802
3733.000000 0.5802 0.5802 0.5802 0.5802 0.5802
3738.000000 0.5802 0.5802 0.5802 0.5802 0.5802
3743.000000 0.5801 0.5801 0.5801 0.5801 0.5801
3748.000000 0.5801 0.5800 0.5799 0.5798 0.5797
3753.000000 0.5796 0.5795 0.5792 0.5790 0.5787
3758.000000 0.5785 0.5782 0.5777 0.5771 0.5764
3763.000000 0.5757 0.5751 0.5744 0.5740 0.5735
3768.000000 0.5731 0.5727 0.5723 0.5719 0.5716
3773.000000 0.5712 0.5709 0.5706 0.5703 0.5700
3778.000000 0.5697 0.5694 0.5691 0.5688 0.5685
3783.000000 0.5684 0.5684 0.5684 0.5684 0.5684
3788.000000 0.5683 0.5683 0.5683 0.5682 0.5682
3793.000000 0.5682 0.5681 0.5681 0.5681 0.5680
3798.000000 0.5680 0.5680 0.5679 0.5679 0.5679
3803.000000 0.5678 0.5678 0.5678 0.5677 0.5677
3808.000000 0.5677 0.5676 0.5676 0.5675 0.5675
3813.000000 0.5675 0.5674 0.5674 0.5674 0.5673
3818.000000 0.5673 0.5673 0.5672 0.5672 0.5672
3823.000000 0.5671 0.5671 0.5671 0.5670 0.5670
3828.000000 0.5670 0.5669 0.5669 0.5669 0.5668
3833.000000 0.5668 0.5668 0.5667 0.5667 0.5667
3838.000000 0.5666 0.5666 0.5666 0.5665 0.5665
3843.000000 0.5665 0.5664 0.5664 0.5664 0.5662
3848.000000 0.5660 0.5658 0.5656 0.5655 0.5653
3853.000000 0.5651 0.5649 0.5648 0.5646 0.5644
3858.000000 0.5643 0.5641 0.5639 0.5637 0.5635
3863.000000 0.5633 0.5631 0.5630 0.5628 0.5626
3868.000000 0.5625 0.5623 0.5621 0.5620 0.5618
3873.000000 0.5616 0.5614 0.5612 0.5610 0.5608
3878.000000 0.5605 0.5603 0.5600 0.5598 0.5595
3883.000000 0.5592 0.5589 0.5586 0.5582 0.5579
3888.000000 0.5576 0.5572 0.5569 0.5566 0.5563
3893.000000 0.5560 0.5557 0.5553 0.5550 0.5547
3898.000000 0.5544 0.5540 0.5537 0.5534 0.5530
3903.000000 0.5527 0.5523 0.5520 0.5516 0.5513
3908.000000 0.5509 0.5506 0.5503 0.5499 0.5496
3913.000000 0.5492 0.5489 0.5485 0.5482 0.5479
3918.000000 0.5475 0.5472 0.5468 0.5465 0.5461
3923.000000 0.5457 0.5454 0.5450 0.5447 0.5443
3928.000000 0.5440 0.5437 0.5433 0.5430 0.5426
3933.000000 0.5423 0.5420 0.5416 0.5413 0.5410
3938.000000 0.5407 0.5404 0.5402 0.5399 0.5397
3943.000000 0.5394 0.5392 0.5390 0.5389 0.5387
3948.000000 0.5385 0.5383 0.5382 0.5380 0.5378
3953.000000 0.5376 0.5374 0.5373 0.5371 0.5369
3958.000000 0.5367 0.5365 0.5363 0.5361 0.5359
3963.000000 0.5358 0.5356 0.5354 0.5352 0.5351
3968.000000 0.5349 0.5347 0.5345 0.5344 0.5342
3973.000000 0.5340 0.5338 0.5336 0.5334 0.5332
3978.000000 0.5329 0.5327 0.5325 0.5322 0.5320
3983.000000 0.5318 0.5315 0.5313 0.5310 0.5308
3988.000000 0.5306 0.5303 0.5301 0.5298 0.5296
3993.000000 0.5293 0.5291 0.5288 0.5286 0.5284
3998.000000 0.5281 0.5279 0.5277
##END=
