##TITLE=CALCIUM ORTHOARSENATE, TRIBASIC
$$ C.P.
##JCAMP-DX=4.24
##DATA TYPE=INFRARED SPECTRUM
##CLASS=COBLENTZ
##ORIGIN=MELLON INSTITUTE
##OWNER=COBLENTZ SOCIETY
Collection (C) 2018 copyright by the U.S. Secretary of Commerce
on behalf of the United States of America. All rights reserved.
##DATE=Not specified, most likely prior to 1970
##MOLFORM=Ca3 ( As O4)2
##SOURCE REFERENCE=COBLENTZ NO. 498
##$NIST ID=B6000498
##$NIST SOURCE=COBLENTZ
##$NIST IMAGE=cob498
##SPECTROMETER/DATA SYSTEM=Not specified, most likely a prism, grating, or hybrid spectrometer.
##STATE=SOLID (NUJOL MULL)
##PATH LENGTH=
$$SPECTRAL CONTAMINATION DUE TO OIL AROUND 2900, 1450, 1380 CM^-^1
##SAMPLING PROCEDURE=TRANSMISSION
##RESOLUTION=4
##DATA PROCESSING=DIGITIZED BY NIST FROM HARD COPY
##XUNITS=MICROMETERS
##YUNITS=TRANSMITTANCE
##XFACTOR=1.000000
##YFACTOR=1
##DELTAX=000.006815
##FIRSTX=2.012
##LASTX=15.9695
##FIRSTY=0.936
##MAXX=15.9695
##MINX=2.012
##MAXY=0.979
##MINY=0.077
##NPOINTS=2049
##XYDATA=(X++(Y..Y))
2.012000 0.9360 0.9550 0.9570 0.9570 0.9580
2.046093 0.9580 0.9600 0.9600 0.9620 0.9620
2.080000 0.9630 0.9650 0.9650 0.9650 0.9670
2.114093 0.9670 0.9670 0.9670 0.9670 0.9670
2.148000 0.9670 0.9670 0.9670 0.9670 0.9670
2.182093 0.9670 0.9670 0.9670 0.9670 0.9670
2.216000 0.9670 0.9670 0.9690 0.9690 0.9690
2.250093 0.9670 0.9650 0.9630 0.9630 0.9620
2.284000 0.9600 0.9600 0.9580 0.9570 0.9550
2.318093 0.9570 0.9570 0.9570 0.9570 0.9580
2.353000 0.9580 0.9580 0.9580 0.9580 0.9580
2.387093 0.9580 0.9580 0.9600 0.9600 0.9620
2.421000 0.9620 0.9620 0.9630 0.9630 0.9630
2.455093 0.9650 0.9650 0.9650 0.9650 0.9690
2.489000 0.9700 0.9700 0.9720 0.9720 0.9740
2.523093 0.9740 0.9750 0.9750 0.9770 0.9770
2.557000 0.9770 0.9790 0.9790 0.9790 0.9790
2.591093 0.9790 0.9790 0.9790 0.9790 0.9790
2.625000 0.9790 0.9790 0.9790 0.9790 0.9770
2.659093 0.9770 0.9770 0.9750 0.9750 0.9750
2.693000 0.9740 0.9720 0.9720 0.9700 0.9630
2.727093 0.9580 0.9530 0.9530 0.9500 0.9460
2.761000 0.9460 0.9430 0.9410 0.9390 0.9380
2.795093 0.9310 0.9220 0.9120 0.8980 0.9000
2.830000 0.8900 0.8810 0.8710 0.8620 0.8550
2.864093 0.8490 0.8420 0.8350 0.8300 0.8250
2.898000 0.8210 0.8160 0.8090 0.8020 0.7990
2.932093 0.7970 0.7920 0.7890 0.7820 0.7780
2.966000 0.7730 0.7710 0.7680 0.7660 0.7650
3.000093 0.7610 0.7590 0.7560 0.7540 0.7540
3.034000 0.7510 0.7470 0.7460 0.7420 0.7390
3.068093 0.7370 0.7340 0.7320 0.7280 0.7270
3.102000 0.7270 0.7250 0.7230 0.7220 0.7200
3.136093 0.7200 0.7180 0.7180 0.7160 0.7160
3.170000 0.7160 0.7160 0.7180 0.7180 0.7200
3.204093 0.7200 0.7200 0.7200 0.7200 0.7200
3.239000 0.7180 0.7180 0.7160 0.7150 0.7150
3.273093 0.7100 0.7040 0.6960 0.6840 0.6700
3.307000 0.6360 0.6030 0.5330 0.4570 0.3820
3.341093 0.3120 0.2480 0.1950 0.1540 0.1300
3.375000 0.1260 0.1090 0.0800 0.0770 0.0780
3.409093 0.1330 0.1760 0.2280 0.2570 0.2710
3.443000 0.2720 0.2690 0.2340 0.2170 0.2100
3.477093 0.2100 0.2360 0.3530 0.4660 0.5380
3.511000 0.5780 0.6190 0.6390 0.6560 0.6720
3.545093 0.6860 0.6960 0.6990 0.7030 0.7110
3.579000 0.7250 0.7270 0.7280 0.7340 0.7350
3.613093 0.7390 0.7420 0.7460 0.7470 0.7510
3.647000 0.7530 0.7560 0.7580 0.7610 0.7630
3.681093 0.7660 0.7680 0.7710 0.7750 0.7770
3.716000 0.7780 0.7800 0.7820 0.7830 0.7830
3.750093 0.7850 0.7850 0.7850 0.7870 0.7870
3.784000 0.7870 0.7870 0.7870 0.7870 0.7870
3.818093 0.7870 0.7870 0.7850 0.7850 0.7850
3.852000 0.7830 0.7820 0.7800 0.7780 0.7770
3.886093 0.7750 0.7730 0.7710 0.7680 0.7660
3.920000 0.7630 0.7610 0.7580 0.7560 0.7530
3.954093 0.7510 0.7470 0.7470 0.7460 0.7460
3.988000 0.7420 0.7400 0.7390 0.7390 0.7370
4.022093 0.7350 0.7340 0.7320 0.7300 0.7280
4.056000 0.7270 0.7250 0.7230 0.7220 0.7200
4.090093 0.7180 0.7160 0.7160 0.7150 0.7130
4.125000 0.7110 0.7100 0.7100 0.7080 0.7060
4.159093 0.7040 0.7030 0.7010 0.7010 0.6990
4.193000 0.6980 0.6980 0.6960 0.6960 0.6940
4.227093 0.6940 0.6920 0.6920 0.6910 0.6910
4.261000 0.6890 0.6890 0.6890 0.6890 0.6890
4.295093 0.6890 0.6890 0.6890 0.6890 0.6870
4.329000 0.6870 0.6870 0.6870 0.6870 0.6870
4.363093 0.6870 0.6870 0.6870 0.6890 0.6890
4.397000 0.6910 0.6910 0.6910 0.6910 0.6920
4.431093 0.6920 0.6920 0.6940 0.6940 0.6940
4.465000 0.6940 0.6980 0.6980 0.6990 0.7010
4.499093 0.7010 0.7040 0.7040 0.7060 0.7060
4.533000 0.7080 0.7080 0.7100 0.7100 0.7110
4.567093 0.7110 0.7100 0.7110 0.7110 0.7110
4.602000 0.7110 0.7130 0.7130 0.7130 0.7130
4.636093 0.7130 0.7160 0.7160 0.7180 0.7200
4.670000 0.7200 0.7220 0.7220 0.7270 0.7280
4.704093 0.7300 0.7320 0.7340 0.7350 0.7370
4.738000 0.7390 0.7400 0.7420 0.7440 0.7460
4.772093 0.7490 0.7510 0.7530 0.7540 0.7540
4.806000 0.7560 0.7560 0.7560 0.7580 0.7580
4.840093 0.7580 0.7580 0.7580 0.7580 0.7580
4.874000 0.7580 0.7580 0.7580 0.7580 0.7590
4.908093 0.7610 0.7630 0.7660 0.7660 0.7680
4.942000 0.7680 0.7710 0.7750 0.7770 0.7780
4.976093 0.7800 0.7800 0.7820 0.7820 0.7830
5.011000 0.7830 0.7830 0.7830 0.7830 0.7830
5.045093 0.7830 0.7830 0.7830 0.7850 0.7870
5.079000 0.7870 0.7890 0.7890 0.7900 0.7900
5.113093 0.7900 0.7920 0.7920 0.7940 0.7940
5.147000 0.7940 0.7950 0.7950 0.7950 0.7970
5.181093 0.7970 0.7970 0.7970 0.7990 0.7990
5.215000 0.7990 0.7990 0.7990 0.7990 0.7990
5.249093 0.7990 0.7990 0.7990 0.7990 0.7990
5.283000 0.7990 0.7990 0.7990 0.7990 0.7990
5.317093 0.7970 0.7970 0.7950 0.7950 0.7940
5.351000 0.7920 0.7920 0.7900 0.7900 0.7890
5.385093 0.7890 0.7890 0.7870 0.7870 0.7870
5.419000 0.7850 0.7850 0.7850 0.7830 0.7830
5.453093 0.7830 0.7820 0.7820 0.7820 0.7800
5.488000 0.7800 0.7780 0.7780 0.7770 0.7770
5.522093 0.7750 0.7750 0.7730 0.7730 0.7710
5.556000 0.7710 0.7710 0.7700 0.7700 0.7680
5.590093 0.7680 0.7660 0.7660 0.7650 0.7650
5.624000 0.7630 0.7630 0.7610 0.7610 0.7610
5.658093 0.7590 0.7580 0.7560 0.7540 0.7530
5.692000 0.7440 0.7400 0.7400 0.7420 0.7460
5.726093 0.7470 0.7470 0.7460 0.7460 0.7420
5.760000 0.7400 0.7350 0.7280 0.7250 0.7230
5.794093 0.7180 0.7160 0.7160 0.7150 0.7150
5.828000 0.7150 0.7130 0.7130 0.7110 0.7080
5.862093 0.7060 0.7010 0.6990 0.6940 0.6920
5.897000 0.6940 0.6940 0.6920 0.6890 0.6840
5.931093 0.6800 0.6770 0.6700 0.6670 0.6650
5.965000 0.6650 0.6600 0.6580 0.6550 0.6510
5.999093 0.6500 0.6500 0.6460 0.6410 0.6390
6.033000 0.6380 0.6340 0.6290 0.6290 0.6260
6.067093 0.6260 0.6240 0.6220 0.6200 0.6190
6.101000 0.6190 0.6170 0.6150 0.6140 0.6120
6.135093 0.6100 0.6080 0.6030 0.6020 0.6020
6.169000 0.6020 0.6000 0.6000 0.5980 0.5980
6.203093 0.5980 0.5980 0.5980 0.5960 0.5960
6.237000 0.5960 0.5980 0.5980 0.6000 0.5980
6.271093 0.5980 0.5980 0.5980 0.5960 0.5960
6.305000 0.5960 0.5960 0.5960 0.5950 0.5950
6.339093 0.5950 0.5950 0.5950 0.5930 0.5930
6.374000 0.5930 0.5930 0.5930 0.5930 0.5950
6.408093 0.5950 0.5950 0.5950 0.5950 0.5950
6.442000 0.5950 0.5950 0.5950 0.5950 0.5950
6.476093 0.5950 0.5950 0.5950 0.5950 0.5950
6.510000 0.5960 0.5960 0.5960 0.5960 0.5980
6.544093 0.5980 0.5980 0.5980 0.6000 0.6000
6.578000 0.6020 0.6020 0.6050 0.6070 0.6070
6.612093 0.6080 0.6080 0.6080 0.6120 0.6120
6.646000 0.6120 0.6150 0.6150 0.6170 0.6170
6.680093 0.6190 0.6190 0.6190 0.6190 0.6190
6.714000 0.6190 0.6170 0.6140 0.6140 0.6120
6.748093 0.6050 0.6000 0.6000 0.5880 0.5690
6.783000 0.5470 0.5210 0.4950 0.4710 0.4510
6.817093 0.4390 0.4270 0.4200 0.4160 0.4160
6.851000 0.4180 0.4180 0.4200 0.4230 0.4300
6.885093 0.4370 0.4440 0.4520 0.4610 0.4730
6.919000 0.4850 0.4990 0.5140 0.5190 0.5230
6.953093 0.5350 0.5450 0.5640 0.5740 0.5780
6.987000 0.5900 0.5960 0.5980 0.5980 0.6000
7.021093 0.6020 0.6020 0.6050 0.6070 0.6080
7.055000 0.6100 0.6140 0.6150 0.6170 0.6170
7.089093 0.6190 0.6200 0.6200 0.6200 0.6200
7.123000 0.6200 0.6200 0.6190 0.6150 0.6140
7.157093 0.6080 0.6030 0.5980 0.5910 0.5830
7.191000 0.5670 0.5620 0.5470 0.5240 0.5190
7.225093 0.5090 0.4970 0.4870 0.4780 0.4750
7.260000 0.4780 0.4810 0.4850 0.4880 0.4930
7.294093 0.4970 0.5000 0.5040 0.5060 0.5060
7.328000 0.5120 0.5160 0.5190 0.5230 0.5260
7.362093 0.5300 0.5310 0.5310 0.5310 0.5330
7.396000 0.5330 0.5330 0.5330 0.5360 0.5360
7.430093 0.5360 0.5360 0.5380 0.5380 0.5400
7.464000 0.5420 0.5420 0.5420 0.5430 0.5450
7.498093 0.5480 0.5540 0.5540 0.5550 0.5600
7.532000 0.5620 0.5620 0.5640 0.5660 0.5660
7.566093 0.5670 0.5670 0.5690 0.5690 0.5710
7.600000 0.5710 0.5720 0.5740 0.5740 0.5740
7.634093 0.5740 0.5740 0.5760 0.5780 0.5790
7.669000 0.5790 0.5810 0.5810 0.5830 0.5830
7.703093 0.5880 0.5900 0.5900 0.5900 0.5910
7.737000 0.5930 0.5950 0.5950 0.5960 0.5980
7.771093 0.5980 0.6000 0.6000 0.6030 0.6050
7.805000 0.6070 0.6070 0.6080 0.6080 0.6100
7.839093 0.6100 0.6100 0.6120 0.6120 0.6140
7.873000 0.6140 0.6150 0.6150 0.6170 0.6190
7.907093 0.6220 0.6240 0.6260 0.6270 0.6270
7.941000 0.6290 0.6290 0.6290 0.6310 0.6310
7.975093 0.6320 0.6320 0.6340 0.6340 0.6360
8.009000 0.6360 0.6380 0.6380 0.6390 0.6390
8.043093 0.6410 0.6410 0.6430 0.6430 0.6430
8.077000 0.6440 0.6460 0.6480 0.6500 0.6500
8.111093 0.6500 0.6510 0.6510 0.6530 0.6530
8.146000 0.6550 0.6550 0.6560 0.6580 0.6580
8.180093 0.6600 0.6600 0.6620 0.6630 0.6630
8.214000 0.6650 0.6650 0.6680 0.6680 0.6680
8.248093 0.6700 0.6720 0.6720 0.6720 0.6740
8.282000 0.6740 0.6750 0.6750 0.6750 0.6770
8.316093 0.6770 0.6770 0.6790 0.6800 0.6800
8.350000 0.6800 0.6820 0.6820 0.6820 0.6840
8.384093 0.6840 0.6860 0.6860 0.6860 0.6870
8.418000 0.6870 0.6870 0.6890 0.6890 0.6910
8.452093 0.6920 0.6940 0.6940 0.6960 0.6960
8.486000 0.6960 0.6980 0.6980 0.6990 0.6990
8.520093 0.6990 0.7010 0.7010 0.7030 0.7030
8.555000 0.7030 0.7040 0.7040 0.7060 0.7060
8.589093 0.7060 0.7080 0.7080 0.7080 0.7100
8.623000 0.7100 0.7100 0.7100 0.7100 0.7110
8.657093 0.7110 0.7110 0.7110 0.7110 0.7110
8.691000 0.7110 0.7110 0.7130 0.7150 0.7150
8.725093 0.7160 0.7160 0.7160 0.7180 0.7180
8.759000 0.7200 0.7200 0.7220 0.7220 0.7220
8.793093 0.7230 0.7230 0.7250 0.7250 0.7250
8.827000 0.7250 0.7250 0.7250 0.7270 0.7270
8.861093 0.7280 0.7280 0.7280 0.7300 0.7300
8.895000 0.7300 0.7320 0.7320 0.7340 0.7340
8.929093 0.7340 0.7350 0.7350 0.7350 0.7370
8.963000 0.7370 0.7390 0.7390 0.7390 0.7400
8.997093 0.7400 0.7400 0.7420 0.7420 0.7440
9.032000 0.7440 0.7440 0.7460 0.7460 0.7460
9.066093 0.7470 0.7470 0.7470 0.7490 0.7490
9.100000 0.7490 0.7510 0.7510 0.7510 0.7510
9.134093 0.7510 0.7510 0.7510 0.7510 0.7510
9.168000 0.7510 0.7510 0.7510 0.7530 0.7530
9.202093 0.7530 0.7530 0.7530 0.7540 0.7540
9.236000 0.7540 0.7540 0.7540 0.7540 0.7540
9.270093 0.7540 0.7540 0.7540 0.7530 0.7530
9.304000 0.7530 0.7530 0.7530 0.7530 0.7530
9.338093 0.7530 0.7530 0.7530 0.7530 0.7530
9.372000 0.7510 0.7510 0.7510 0.7510 0.7510
9.406093 0.7490 0.7490 0.7490 0.7490 0.7490
9.441000 0.7470 0.7470 0.7470 0.7470 0.7470
9.475093 0.7470 0.7460 0.7440 0.7440 0.7440
9.509000 0.7420 0.7420 0.7420 0.7400 0.7400
9.543093 0.7400 0.7390 0.7390 0.7390 0.7390
9.577000 0.7370 0.7350 0.7350 0.7340 0.7340
9.611093 0.7320 0.7320 0.7300 0.7300 0.7280
9.645000 0.7280 0.7280 0.7270 0.7270 0.7250
9.679093 0.7250 0.7230 0.7220 0.7200 0.7180
9.713000 0.7160 0.7150 0.7130 0.7110 0.7110
9.747093 0.7100 0.7100 0.7080 0.7080 0.7060
9.781000 0.7060 0.7040 0.7030 0.7030 0.7010
9.815093 0.7010 0.7010 0.7010 0.6990 0.7010
9.849000 0.6990 0.6980 0.6980 0.6960 0.6940
9.883093 0.6920 0.6910 0.6870 0.6860 0.6860
9.918000 0.6860 0.6860 0.6860 0.6870 0.6870
9.952093 0.6870 0.6860 0.6860 0.6860 0.6860
9.986000 0.6840 0.6840 0.6840 0.6840 0.6840
10.020093 0.6840 0.6840 0.6860 0.6860 0.6860
10.054000 0.6860 0.6840 0.6840 0.6840 0.6840
10.088093 0.6820 0.6820 0.6820 0.6820 0.6820
10.122000 0.6820 0.6820 0.6800 0.6800 0.6800
10.156093 0.6800 0.6800 0.6800 0.6800 0.6790
10.190000 0.6790 0.6790 0.6790 0.6790 0.6790
10.224093 0.6770 0.6750 0.6750 0.6740 0.6720
10.258000 0.6720 0.6720 0.6700 0.6700 0.6700
10.292093 0.6680 0.6680 0.6670 0.6670 0.6670
10.327000 0.6670 0.6670 0.6650 0.6650 0.6630
10.361093 0.6620 0.6600 0.6580 0.6560 0.6550
10.395000 0.6530 0.6530 0.6510 0.6510 0.6480
10.429093 0.6460 0.6440 0.6430 0.6380 0.6340
10.463000 0.6310 0.6270 0.6290 0.6240 0.6200
10.497093 0.6190 0.6170 0.6150 0.6120 0.6080
10.531000 0.6030 0.5950 0.5900 0.5880 0.5860
10.565093 0.5790 0.5720 0.5660 0.5590 0.5520
10.599000 0.5430 0.5360 0.5300 0.5210 0.5140
10.633093 0.5070 0.4990 0.4920 0.4830 0.4760
10.667000 0.4680 0.4590 0.4510 0.4440 0.4350
10.701093 0.4270 0.4180 0.4090 0.4010 0.3920
10.735000 0.3840 0.3730 0.3680 0.3630 0.3580
10.769093 0.3510 0.3460 0.3430 0.3370 0.3340
10.804000 0.3310 0.3250 0.3220 0.3200 0.3170
10.838093 0.3170 0.3150 0.3130 0.3120 0.3120
10.872000 0.3120 0.3120 0.3100 0.3080 0.3080
10.906093 0.3070 0.3050 0.3010 0.3000 0.2960
10.940000 0.2950 0.2880 0.2840 0.2810 0.2740
10.974093 0.2690 0.2640 0.2590 0.2550 0.2520
11.008000 0.2500 0.2430 0.2380 0.2360 0.2310
11.042093 0.2280 0.2210 0.2170 0.2140 0.2100
11.076000 0.2090 0.2070 0.2050 0.2050 0.2020
11.110093 0.2020 0.2000 0.1980 0.1980 0.1970
11.144000 0.1950 0.1900 0.1880 0.1880 0.1860
11.178093 0.1810 0.1780 0.1760 0.1760 0.1760
11.213000 0.1740 0.1740 0.1740 0.1730 0.1730
11.247093 0.1710 0.1690 0.1680 0.1680 0.1680
11.281000 0.1680 0.1680 0.1680 0.1680 0.1680
11.315093 0.1680 0.1680 0.1680 0.1680 0.1680
11.349000 0.1680 0.1680 0.1710 0.1710 0.1710
11.383093 0.1710 0.1710 0.1710 0.1710 0.1710
11.417000 0.1710 0.1730 0.1730 0.1730 0.1730
11.451093 0.1730 0.1740 0.1740 0.1740 0.1740
11.485000 0.1740 0.1740 0.1740 0.1740 0.1740
11.519093 0.1740 0.1740 0.1740 0.1740 0.1740
11.553000 0.1730 0.1730 0.1730 0.1710 0.1710
11.587093 0.1710 0.1690 0.1690 0.1680 0.1680
11.621000 0.1640 0.1620 0.1610 0.1590 0.1590
11.655093 0.1560 0.1560 0.1560 0.1540 0.1540
11.690000 0.1520 0.1520 0.1520 0.1520 0.1520
11.724093 0.1520 0.1520 0.1520 0.1520 0.1540
11.758000 0.1540 0.1540 0.1540 0.1540 0.1540
11.792093 0.1540 0.1540 0.1540 0.1520 0.1520
11.826000 0.1500 0.1500 0.1500 0.1500 0.1520
11.860093 0.1520 0.1520 0.1520 0.1540 0.1540
11.894000 0.1520 0.1520 0.1520 0.1520 0.1520
11.928093 0.1520 0.1520 0.1520 0.1520 0.1520
11.962000 0.1520 0.1520 0.1540 0.1540 0.1560
11.996093 0.1560 0.1570 0.1590 0.1620 0.1640
12.030000 0.1640 0.1680 0.1690 0.1710 0.1710
12.064093 0.1730 0.1740 0.1740 0.1760 0.1760
12.099000 0.1760 0.1780 0.1780 0.1800 0.1810
12.133093 0.1860 0.1900 0.1930 0.1970 0.1950
12.167000 0.1970 0.1980 0.2000 0.2020 0.2020
12.201093 0.2050 0.2090 0.2100 0.2120 0.2140
12.235000 0.2160 0.2170 0.2220 0.2290 0.2310
12.269093 0.2330 0.2400 0.2410 0.2430 0.2450
12.303000 0.2520 0.2530 0.2530 0.2550 0.2550
12.337093 0.2550 0.2550 0.2550 0.2570 0.2570
12.371000 0.2600 0.2620 0.2640 0.2650 0.2690
12.405093 0.2710 0.2720 0.2740 0.2740 0.2740
12.439000 0.2740 0.2740 0.2760 0.2770 0.2770
12.473093 0.2770 0.2770 0.2810 0.2830 0.2840
12.507000 0.2860 0.2880 0.2890 0.2890 0.2930
12.541093 0.2960 0.2980 0.3010 0.3010 0.3030
12.576000 0.3030 0.3070 0.3080 0.3130 0.3150
12.610093 0.3170 0.3190 0.3190 0.3200 0.3200
12.644000 0.3200 0.3220 0.3220 0.3240 0.3220
12.678093 0.3220 0.3220 0.3220 0.3220 0.3220
12.712000 0.3220 0.3220 0.3240 0.3250 0.3270
12.746093 0.3310 0.3320 0.3320 0.3340 0.3340
12.780000 0.3360 0.3370 0.3370 0.3390 0.3410
12.814093 0.3430 0.3440 0.3480 0.3510 0.3530
12.848000 0.3560 0.3580 0.3610 0.3630 0.3670
12.882093 0.3680 0.3680 0.3680 0.3680 0.3700
12.916000 0.3700 0.3720 0.3730 0.3750 0.3750
12.950093 0.3750 0.3750 0.3750 0.3750 0.3770
12.985000 0.3790 0.3800 0.3820 0.3850 0.3870
13.019093 0.3870 0.3870 0.3890 0.3890 0.3910
13.053000 0.3910 0.3920 0.3940 0.3990 0.3990
13.087093 0.4010 0.4030 0.4040 0.4060 0.4080
13.121000 0.4090 0.4110 0.4110 0.4110 0.4130
13.155093 0.4130 0.4130 0.4150 0.4150 0.4150
13.189000 0.4160 0.4160 0.4160 0.4160 0.4180
13.223093 0.4180 0.4180 0.4180 0.4180 0.4180
13.257000 0.4180 0.4180 0.4180 0.4180 0.4180
13.291093 0.4180 0.4200 0.4200 0.4210 0.4210
13.325000 0.4210 0.4210 0.4230 0.4230 0.4230
13.359093 0.4230 0.4250 0.4270 0.4280 0.4300
13.393000 0.4320 0.4330 0.4330 0.4350 0.4350
13.427093 0.4350 0.4350 0.4350 0.4350 0.4350
13.462000 0.4350 0.4370 0.4370 0.4370 0.4370
13.496093 0.4390 0.4400 0.4400 0.4420 0.4440
13.530000 0.4440 0.4450 0.4450 0.4470 0.4470
13.564093 0.4490 0.4490 0.4510 0.4520 0.4520
13.598000 0.4520 0.4540 0.4540 0.4560 0.4560
13.632093 0.4570 0.4570 0.4590 0.4590 0.4610
13.666000 0.4610 0.4630 0.4630 0.4640 0.4660
13.700093 0.4660 0.4680 0.4680 0.4690 0.4690
13.734000 0.4710 0.4710 0.4730 0.4730 0.4760
13.768093 0.4760 0.4780 0.4780 0.4800 0.4800
13.802000 0.4810 0.4830 0.4830 0.4850 0.4870
13.836093 0.4870 0.4880 0.4880 0.4900 0.4920
13.871000 0.4920 0.4930 0.4950 0.4950 0.4970
13.905093 0.4970 0.4990 0.5000 0.5000 0.5020
13.939000 0.5020 0.5040 0.5060 0.5070 0.5090
13.973093 0.5090 0.5110 0.5110 0.5120 0.5120
14.007000 0.5140 0.5180 0.5190 0.5230 0.5280
14.041093 0.5280 0.5300 0.5330 0.5350 0.5360
14.075000 0.5360 0.5380 0.5400 0.5420 0.5420
14.109093 0.5450 0.5450 0.5470 0.5470 0.5520
14.143000 0.5520 0.5550 0.5600 0.5620 0.5640
14.177093 0.5640 0.5660 0.5670 0.5690 0.5710
14.211000 0.5720 0.5740 0.5760 0.5760 0.5780
14.245093 0.5790 0.5810 0.5810 0.5830 0.5830
14.279000 0.5840 0.5860 0.5860 0.5860 0.5880
14.313093 0.5880 0.5900 0.5900 0.5910 0.5910
14.348000 0.5930 0.5950 0.5950 0.5960 0.5960
14.382093 0.5980 0.5980 0.6000 0.6000 0.6000
14.416000 0.6020 0.6020 0.6020 0.6020 0.6020
14.450093 0.6020 0.6030 0.6050 0.6050 0.6050
14.484000 0.6050 0.6070 0.6100 0.6140 0.6190
14.518093 0.6200 0.6220 0.6220 0.6240 0.6260
14.552000 0.6240 0.6270 0.6290 0.6290 0.6320
14.586093 0.6340 0.6340 0.6340 0.6340 0.6340
14.620000 0.6360 0.6380 0.6380 0.6390 0.6390
14.654093 0.6410 0.6410 0.6430 0.6430 0.6430
14.688000 0.6430 0.6430 0.6430 0.6440 0.6440
14.722093 0.6440 0.6460 0.6460 0.6460 0.6480
14.757000 0.6480 0.6480 0.6500 0.6500 0.6510
14.791093 0.6510 0.6510 0.6530 0.6530 0.6530
14.825000 0.6530 0.6550 0.6550 0.6560 0.6560
14.859093 0.6560 0.6580 0.6580 0.6580 0.6580
14.893000 0.6580 0.6580 0.6580 0.6580 0.6580
14.927093 0.6560 0.6560 0.6530 0.6510 0.6510
14.961000 0.6510 0.6510 0.6510 0.6510 0.6510
14.995093 0.6510 0.6510 0.6510 0.6530 0.6580
15.029000 0.6580 0.6580 0.6600 0.6600 0.6630
15.063093 0.6630 0.6630 0.6630 0.6650 0.6630
15.097000 0.6650 0.6670 0.6670 0.6670 0.6670
15.131093 0.6670 0.6670 0.6670 0.6670 0.6670
15.165000 0.6670 0.6670 0.6670 0.6670 0.6670
15.199093 0.6670 0.6670 0.6650 0.6650 0.6650
15.234000 0.6650 0.6630 0.6630 0.6630 0.6630
15.268093 0.6620 0.6600 0.6600 0.6600 0.6580
15.302000 0.6560 0.6560 0.6560 0.6560 0.6560
15.336093 0.6560 0.6560 0.6580 0.6600 0.6650
15.370000 0.6650 0.6670 0.6670 0.6670 0.6670
15.404093 0.6670 0.6650 0.6650 0.6620 0.6620
15.438000 0.6600 0.6600 0.6600 0.6600 0.6580
15.472093 0.6580 0.6580 0.6580 0.6580 0.6580
15.506000 0.6600 0.6620 0.6620 0.6630 0.6630
15.540093 0.6670 0.6670 0.6670 0.6680 0.6680
15.574000 0.6670 0.6670 0.6670 0.6670 0.6670
15.608093 0.6670 0.6670 0.6670 0.6670 0.6670
15.643000 0.6650 0.6620 0.6620 0.6620 0.6630
15.677093 0.6650 0.6670 0.6670 0.6670 0.6680
15.711000 0.6680 0.6680 0.6680 0.6670 0.6670
15.745093 0.6670 0.6670 0.6670 0.6680 0.6670
15.779000 0.6670 0.6670 0.6670 0.6670 0.6720
15.813093 0.6720 0.6720 0.6720 0.6720 0.6700
15.847000 0.6700 0.6700 0.6700 0.6700 0.6700
15.881093 0.6700 0.6700 0.6720 0.6720 0.6720
15.915000 0.6720 0.6720 0.6740 0.6740 0.6740
15.949093 0.6740 0.6740 0.6750 0.6750
##END=
