##TITLE=LACTOBIONIC ACID, SODIUM SALT
##JCAMP-DX=4.24
##DATA TYPE=INFRARED SPECTRUM
##CLASS=COBLENTZ III
##ORIGIN=WYANDOTTE CHEMICALS CORP.
##OWNER=COBLENTZ SOCIETY
Collection (C) 2018 copyright by the U.S. Secretary of Commerce
on behalf of the United States of America. All rights reserved.
##DATE=1956/08/02
##MOLFORM=C12 H21 Na O12
##SOURCE REFERENCE=COBLENTZ NO. 6941
##$NIST ID=B6006941
##$NIST SOURCE=COBLENTZ
##$NIST IMAGE=cob6941
##SPECTROMETER/DATA SYSTEM=BAIRD NaCl PRISM
##STATE=SOLID (OIL MULL)
$$ SPECTRAL CONTAMINATION DUE TO OIL AROUND 2900, 1460, 1375 CM^-^1
##SAMPLING PROCEDURE=TRANSMISSION
##RESOLUTION=4
##DATA PROCESSING=DIGITIZED BY NIST FROM HARD COPY
##XUNITS=MICROMETERS
##YUNITS=TRANSMITTANCE
##XFACTOR=1.000000
##YFACTOR=1
##DELTAX=000.004902
##FIRSTX=2.01
##LASTX=15.9996
##FIRSTY=0.745
##MAXX=15.9996
##MINX=2.01
##MAXY=0.955
##MINY=0.023
##NPOINTS=2855
##XYDATA=(X++(Y..Y))
2.010000 0.7450 0.7450 0.7490 0.7490 0.7500
2.034518 0.7490 0.7500 0.7520 0.7530 0.7570
2.059000 0.7620 0.7640 0.7690 0.7700 0.7730
2.083518 0.7740 0.7780 0.7800 0.7810 0.7810
2.108000 0.7820 0.7820 0.7820 0.7820 0.7840
2.132518 0.7860 0.7870 0.7940 0.7970 0.8020
2.157000 0.8030 0.8070 0.8070 0.8080 0.8080
2.181518 0.8080 0.8070 0.8070 0.8050 0.8020
2.206000 0.8010 0.8000 0.7990 0.7970 0.7970
2.230518 0.7940 0.7900 0.7890 0.7840 0.7810
2.255000 0.7800 0.7810 0.7840 0.7860 0.7870
2.279518 0.7870 0.7910 0.7950 0.8020 0.8050
2.304000 0.8070 0.8110 0.8130 0.8160 0.8190
2.328518 0.8210 0.8230 0.8240 0.8240 0.8260
2.353000 0.8260 0.8260 0.8260 0.8270 0.8270
2.377518 0.8280 0.8290 0.8290 0.8290 0.8290
2.402000 0.8290 0.8290 0.8290 0.8290 0.8290
2.426518 0.8290 0.8280 0.8280 0.8280 0.8290
2.451000 0.8290 0.8310 0.8310 0.8320 0.8330
2.475518 0.8340 0.8360 0.8370 0.8420 0.8480
2.500000 0.8540 0.8600 0.8630 0.8640 0.8700
2.524518 0.8710 0.8750 0.8770 0.8820 0.8860
2.549000 0.8900 0.8920 0.8980 0.9010 0.9030
2.573518 0.9050 0.9070 0.9120 0.9180 0.9210
2.598000 0.9240 0.9280 0.9340 0.9350 0.9370
2.622518 0.9370 0.9350 0.9340 0.9330 0.9320
2.647000 0.9330 0.9340 0.9370 0.9390 0.9420
2.671518 0.9430 0.9510 0.9510 0.9530 0.9550
2.696000 0.9550 0.9530 0.9510 0.9440 0.9380
2.720518 0.9330 0.9270 0.9170 0.9000 0.8720
2.745000 0.8340 0.8030 0.7640 0.7420 0.7070
2.769518 0.6880 0.6680 0.6350 0.5990 0.5650
2.794000 0.5300 0.4590 0.4260 0.3980 0.3660
2.818518 0.3550 0.3300 0.3100 0.2980 0.2740
2.843000 0.2550 0.2390 0.2190 0.2020 0.1960
2.867518 0.1780 0.1680 0.1600 0.1520 0.1500
2.892000 0.1470 0.1380 0.1280 0.1200 0.1180
2.916518 0.1140 0.1120 0.1090 0.1080 0.1060
2.941000 0.1020 0.0980 0.0930 0.0910 0.0880
2.965518 0.0870 0.0850 0.0830 0.0820 0.0820
2.990000 0.0820 0.0810 0.0810 0.0800 0.0780
3.014518 0.0750 0.0730 0.0720 0.0710 0.0710
3.039000 0.0710 0.0710 0.0710 0.0710 0.0720
3.063518 0.0720 0.0730 0.0730 0.0730 0.0720
3.088000 0.0720 0.0710 0.0710 0.0690 0.0660
3.112518 0.0640 0.0620 0.0640 0.0670 0.0690
3.137000 0.0690 0.0690 0.0670 0.0670 0.0700
3.161518 0.0710 0.0760 0.0770 0.0770 0.0770
3.186000 0.0760 0.0760 0.0750 0.0750 0.0730
3.210518 0.0730 0.0750 0.0760 0.0760 0.0800
3.235000 0.0820 0.0850 0.0870 0.0870 0.0880
3.259518 0.0900 0.0900 0.0920 0.0960 0.0970
3.284000 0.0980 0.1020 0.1040 0.1070 0.1070
3.308518 0.1070 0.1040 0.0980 0.0960 0.0880
3.333000 0.0830 0.0780 0.0760 0.0700 0.0620
3.357518 0.0510 0.0460 0.0390 0.0330 0.0300
3.382000 0.0280 0.0240 0.0240 0.0230 0.0230
3.406518 0.0230 0.0240 0.0250 0.0280 0.0290
3.431000 0.0290 0.0290 0.0280 0.0280 0.0270
3.455518 0.0250 0.0250 0.0270 0.0270 0.0270
3.480000 0.0280 0.0280 0.0270 0.0270 0.0280
3.504518 0.0280 0.0280 0.0280 0.0280 0.0290
3.529000 0.0290 0.0290 0.0290 0.0330 0.0440
3.553518 0.0560 0.0750 0.0990 0.1240 0.1470
3.578000 0.1650 0.1780 0.1910 0.2030 0.2150
3.602518 0.2290 0.2420 0.2540 0.2600 0.2630
3.627000 0.2720 0.2790 0.2820 0.2840 0.2870
3.651518 0.2880 0.2890 0.2900 0.2920 0.2920
3.676000 0.2920 0.2900 0.2900 0.2900 0.2920
3.700518 0.2940 0.2990 0.3030 0.3080 0.3090
3.725000 0.3130 0.3160 0.3180 0.3200 0.3230
3.749518 0.3290 0.3340 0.3400 0.3440 0.3470
3.775000 0.3500 0.3530 0.3610 0.3690 0.3810
3.799518 0.3850 0.3930 0.3970 0.4000 0.4030
3.824000 0.4080 0.4150 0.4190 0.4200 0.4220
3.848518 0.4250 0.4300 0.4320 0.4400 0.4420
3.873000 0.4500 0.4520 0.4590 0.4620 0.4640
3.897518 0.4690 0.4710 0.4720 0.4730 0.4790
3.922000 0.4830 0.4900 0.4950 0.4990 0.5010
3.946518 0.5050 0.5120 0.5200 0.5280 0.5300
3.971000 0.5310 0.5320 0.5330 0.5330 0.5380
3.995518 0.5430 0.5460 0.5490 0.5520 0.5570
4.020000 0.5620 0.5720 0.5740 0.5790 0.5800
4.044518 0.5830 0.5840 0.5840 0.5860 0.5900
4.069000 0.5930 0.6000 0.6040 0.6050 0.6100
4.093518 0.6110 0.6140 0.6160 0.6170 0.6180
4.118000 0.6180 0.6200 0.6230 0.6300 0.6330
4.142518 0.6360 0.6420 0.6470 0.6530 0.6550
4.167000 0.6580 0.6600 0.6620 0.6630 0.6640
4.191518 0.6640 0.6650 0.6670 0.6690 0.6690
4.216000 0.6760 0.6790 0.6830 0.6900 0.6910
4.240518 0.6920 0.6920 0.6920 0.6920 0.6920
4.265000 0.6920 0.6910 0.6910 0.6920 0.6940
4.289518 0.7010 0.7050 0.7120 0.7130 0.7170
4.314000 0.7210 0.7230 0.7270 0.7330 0.7370
4.338518 0.7390 0.7410 0.7430 0.7470 0.7550
4.363000 0.7630 0.7660 0.7710 0.7750 0.7810
4.387518 0.7840 0.7870 0.7870 0.7850 0.7840
4.412000 0.7820 0.7800 0.7800 0.7790 0.7790
4.436518 0.7780 0.7780 0.7780 0.7780 0.7780
4.461000 0.7790 0.7800 0.7810 0.7840 0.7850
4.485518 0.7870 0.7890 0.7900 0.7910 0.7920
4.510000 0.7940 0.7960 0.7990 0.7990 0.8000
4.534518 0.8000 0.8010 0.8010 0.8020 0.8020
4.559000 0.8020 0.8010 0.8010 0.8010 0.8010
4.583518 0.8020 0.8020 0.8020 0.8020 0.8020
4.608000 0.8020 0.8030 0.8050 0.8050 0.8070
4.632518 0.8110 0.8130 0.8160 0.8180 0.8190
4.657000 0.8210 0.8220 0.8210 0.8210 0.8180
4.681518 0.8180 0.8170 0.8180 0.8170 0.8160
4.706000 0.8150 0.8150 0.8150 0.8150 0.8160
4.730518 0.8190 0.8230 0.8240 0.8240 0.8260
4.755000 0.8260 0.8260 0.8270 0.8270 0.8280
4.779518 0.8290 0.8310 0.8330 0.8360 0.8370
4.804000 0.8370 0.8380 0.8420 0.8430 0.8470
4.828518 0.8500 0.8500 0.8520 0.8530 0.8540
4.853000 0.8550 0.8560 0.8580 0.8590 0.8630
4.877518 0.8640 0.8660 0.8660 0.8640 0.8630
4.902000 0.8610 0.8580 0.8550 0.8540 0.8530
4.926518 0.8550 0.8560 0.8560 0.8590 0.8610
4.951000 0.8630 0.8650 0.8660 0.8690 0.8710
4.975518 0.8710 0.8720 0.8750 0.8760 0.8770
5.000000 0.8770 0.8790 0.8790 0.8800 0.8810
5.024518 0.8810 0.8810 0.8820 0.8840 0.8840
5.049000 0.8850 0.8860 0.8860 0.8890 0.8910
5.073518 0.8930 0.8950 0.8960 0.8960 0.8980
5.098000 0.8980 0.9000 0.9000 0.9010 0.9010
5.122518 0.9030 0.9050 0.9060 0.9060 0.9070
5.147000 0.9070 0.9070 0.9070 0.9070 0.9060
5.171518 0.9060 0.9060 0.9060 0.9080 0.9080
5.196000 0.9110 0.9120 0.9130 0.9130 0.9130
5.220518 0.9120 0.9120 0.9110 0.9110 0.9140
5.245000 0.9160 0.9180 0.9180 0.9190 0.9210
5.269518 0.9220 0.9220 0.9220 0.9210 0.9210
5.294000 0.9210 0.9210 0.9210 0.9190 0.9190
5.318518 0.9210 0.9210 0.9210 0.9190 0.9210
5.343000 0.9210 0.9190 0.9190 0.9190 0.9190
5.367518 0.9190 0.9210 0.9210 0.9240 0.9260
5.392000 0.9260 0.9270 0.9260 0.9240 0.9230
5.416518 0.9220 0.9220 0.9190 0.9190 0.9190
5.441000 0.9210 0.9220 0.9240 0.9260 0.9270
5.465518 0.9270 0.9270 0.9260 0.9230 0.9230
5.490000 0.9210 0.9210 0.9210 0.9210 0.9190
5.514518 0.9190 0.9190 0.9180 0.9170 0.9170
5.539000 0.9160 0.9140 0.9130 0.9120 0.9110
5.563518 0.9090 0.9080 0.9070 0.9070 0.9060
5.588000 0.9060 0.9060 0.9060 0.9050 0.9020
5.612518 0.9010 0.8980 0.8950 0.8910 0.8870
5.637000 0.8840 0.8800 0.8760 0.8760 0.8740
5.661518 0.8710 0.8690 0.8690 0.8650 0.8610
5.686000 0.8580 0.8540 0.8540 0.8470 0.8430
5.710518 0.8380 0.8370 0.8360 0.8330 0.8280
5.735000 0.8230 0.8180 0.8160 0.8150 0.8120
5.759518 0.8100 0.8080 0.8060 0.8030 0.7970
5.784000 0.7820 0.7740 0.7700 0.7620 0.7590
5.808518 0.7580 0.7580 0.7540 0.7430 0.7330
5.833000 0.7160 0.7060 0.7040 0.6940 0.6910
5.857518 0.6840 0.6760 0.6720 0.6620 0.6540
5.882000 0.6440 0.6320 0.6110 0.5930 0.5740
5.906518 0.5630 0.5530 0.5450 0.5350 0.5220
5.931000 0.5100 0.4800 0.4710 0.4590 0.4520
5.955518 0.4450 0.4380 0.4260 0.4130 0.3980
5.980000 0.3830 0.3680 0.3530 0.3450 0.3340
6.004518 0.3260 0.3230 0.3180 0.3140 0.3100
6.029000 0.3000 0.2880 0.2730 0.2500 0.2300
6.053518 0.2180 0.2020 0.1990 0.1880 0.1800
6.078000 0.1720 0.1670 0.1590 0.1490 0.1280
6.102518 0.1190 0.1150 0.1100 0.1080 0.1060
6.127000 0.1010 0.0980 0.0980 0.0970 0.0920
6.151518 0.0910 0.0870 0.0830 0.0810 0.0780
6.176000 0.0760 0.0760 0.0750 0.0720 0.0710
6.200518 0.0700 0.0700 0.0700 0.0710 0.0720
6.225000 0.0720 0.0730 0.0750 0.0760 0.0760
6.249518 0.0770 0.0780 0.0800 0.0870 0.0960
6.275000 0.0990 0.1020 0.1060 0.1090 0.1180
6.299518 0.1290 0.1400 0.1500 0.1610 0.1720
6.324000 0.1870 0.2000 0.2080 0.2140 0.2170
6.348518 0.2190 0.2230 0.2300 0.2360 0.2570
6.373000 0.2710 0.2890 0.3040 0.3290 0.3360
6.397518 0.3460 0.3480 0.3500 0.3510 0.3520
6.422000 0.3580 0.3640 0.3690 0.3760 0.3820
6.446518 0.3890 0.4000 0.4090 0.4190 0.4210
6.471000 0.4290 0.4320 0.4360 0.4380 0.4400
6.495518 0.4420 0.4430 0.4450 0.4450 0.4470
6.520000 0.4500 0.4500 0.4520 0.4540 0.4570
6.544518 0.4570 0.4580 0.4610 0.4610 0.4590
6.569000 0.4590 0.4580 0.4570 0.4530 0.4510
6.593518 0.4510 0.4480 0.4460 0.4450 0.4410
6.618000 0.4370 0.4340 0.4310 0.4290 0.4210
6.642518 0.4110 0.4030 0.3990 0.3820 0.3740
6.667000 0.3720 0.3680 0.3600 0.3420 0.3290
6.691518 0.3130 0.3000 0.2880 0.2740 0.2670
6.716000 0.2570 0.2490 0.2280 0.2170 0.2000
6.740518 0.1870 0.1770 0.1670 0.1410 0.1170
6.765000 0.0880 0.0720 0.0590 0.0510 0.0430
6.789518 0.0390 0.0360 0.0350 0.0350 0.0350
6.814000 0.0360 0.0360 0.0390 0.0410 0.0430
6.838518 0.0440 0.0440 0.0440 0.0430 0.0430
6.863000 0.0410 0.0410 0.0410 0.0430 0.0460
6.887518 0.0460 0.0510 0.0560 0.0570 0.0590
6.912000 0.0590 0.0570 0.0570 0.0590 0.0610
6.936518 0.0670 0.0760 0.0800 0.0860 0.0900
6.961000 0.0920 0.0960 0.0970 0.0970 0.0990
6.985518 0.1010 0.1030 0.1040 0.1040 0.1060
7.010000 0.1060 0.1040 0.1040 0.1040 0.1030
7.034518 0.1020 0.1020 0.1020 0.1010 0.1010
7.059000 0.1010 0.1010 0.1010 0.0990 0.0990
7.083518 0.0990 0.0990 0.0990 0.0990 0.0990
7.108000 0.0990 0.0990 0.1010 0.1010 0.1040
7.132518 0.1040 0.1060 0.1060 0.1060 0.1040
7.157000 0.1040 0.1030 0.1010 0.0980 0.0970
7.181518 0.0960 0.0920 0.0860 0.0780 0.0660
7.206000 0.0560 0.0490 0.0480 0.0460 0.0410
7.230518 0.0390 0.0390 0.0350 0.0350 0.0380
7.255000 0.0400 0.0460 0.0480 0.0500 0.0540
7.279518 0.0570 0.0590 0.0610 0.0640 0.0650
7.304000 0.0660 0.0660 0.0690 0.0710 0.0780
7.328518 0.0850 0.0880 0.0980 0.1010 0.1030
7.353000 0.1040 0.1040 0.1040 0.1030 0.1020
7.377518 0.1020 0.1040 0.1060 0.1090 0.1180
7.402000 0.1220 0.1270 0.1270 0.1250 0.1250
7.426518 0.1240 0.1240 0.1250 0.1280 0.1280
7.451000 0.1310 0.1350 0.1390 0.1410 0.1430
7.475518 0.1440 0.1460 0.1470 0.1470 0.1470
7.500000 0.1490 0.1500 0.1510 0.1520 0.1540
7.524518 0.1550 0.1550 0.1550 0.1560 0.1570
7.549000 0.1570 0.1590 0.1590 0.1590 0.1590
7.573518 0.1590 0.1570 0.1570 0.1570 0.1570
7.598000 0.1590 0.1590 0.1590 0.1600 0.1600
7.622518 0.1610 0.1610 0.1610 0.1610 0.1610
7.647000 0.1610 0.1620 0.1670 0.1710 0.1750
7.671518 0.1750 0.1760 0.1770 0.1770 0.1780
7.696000 0.1770 0.1770 0.1770 0.1780 0.1800
7.720518 0.1860 0.1880 0.1910 0.1910 0.1920
7.745000 0.1920 0.1920 0.1930 0.1940 0.1970
7.769518 0.1980 0.1980 0.1980 0.1990 0.1990
7.794000 0.2000 0.2000 0.2020 0.2020 0.2020
7.818518 0.2000 0.2000 0.2000 0.2000 0.2000
7.843000 0.2070 0.2080 0.2090 0.2090 0.2090
7.867518 0.2090 0.2090 0.2090 0.2090 0.2080
7.892000 0.2080 0.2070 0.2070 0.2050 0.2040
7.916518 0.2040 0.2040 0.2070 0.2070 0.2090
7.941000 0.2090 0.2090 0.2090 0.2100 0.2100
7.965518 0.2100 0.2100 0.2120 0.2120 0.2090
7.990000 0.2080 0.2070 0.2070 0.2070 0.2050
8.014518 0.2040 0.2040 0.2030 0.2030 0.2030
8.039000 0.2030 0.2030 0.2030 0.2020 0.2030
8.063518 0.2020 0.2020 0.2000 0.1980 0.1970
8.088000 0.1970 0.1970 0.1980 0.1990 0.2020
8.112518 0.2020 0.2000 0.2000 0.2000 0.2000
8.137000 0.2000 0.2000 0.1990 0.1990 0.1980
8.161518 0.1980 0.1980 0.1980 0.1990 0.1990
8.186000 0.2000 0.2000 0.2020 0.2030 0.2070
8.210518 0.2080 0.2100 0.2120 0.2170 0.2190
8.235000 0.2230 0.2260 0.2290 0.2360 0.2390
8.259518 0.2410 0.2420 0.2470 0.2490 0.2540
8.284000 0.2600 0.2680 0.2730 0.2770 0.2810
8.308518 0.2870 0.2900 0.3000 0.3080 0.3110
8.333000 0.3180 0.3210 0.3300 0.3390 0.3480
8.357518 0.3510 0.3520 0.3520 0.3550 0.3560
8.382000 0.3560 0.3630 0.3680 0.3740 0.3770
8.406518 0.3770 0.3760 0.3760 0.3740 0.3730
8.431000 0.3710 0.3680 0.3630 0.3580 0.3530
8.455518 0.3500 0.3400 0.3340 0.3290 0.3210
8.480000 0.3110 0.3030 0.2900 0.2820 0.2680
8.504518 0.2600 0.2510 0.2490 0.2400 0.2330
8.529000 0.2260 0.2180 0.2090 0.2050 0.2000
8.553518 0.1980 0.1880 0.1860 0.1830 0.1800
8.578000 0.1800 0.1780 0.1720 0.1660 0.1590
8.602518 0.1560 0.1540 0.1520 0.1510 0.1500
8.627000 0.1470 0.1470 0.1440 0.1410 0.1390
8.651518 0.1350 0.1330 0.1330 0.1310 0.1310
8.676000 0.1300 0.1290 0.1290 0.1280 0.1270
8.700518 0.1240 0.1220 0.1200 0.1200 0.1190
8.725000 0.1180 0.1170 0.1150 0.1140 0.1130
8.749518 0.1130 0.1120 0.1120 0.1130 0.1140
8.775000 0.1150 0.1170 0.1170 0.1150 0.1150
8.799518 0.1140 0.1140 0.1120 0.1120 0.1090
8.824000 0.1090 0.1070 0.0990 0.0970 0.0960
8.848518 0.0960 0.0960 0.0970 0.0970 0.0980
8.873000 0.0980 0.0980 0.0990 0.0980 0.0980
8.897518 0.0960 0.0960 0.0940 0.0940 0.0940
8.922000 0.0960 0.0960 0.0970 0.0970 0.0970
8.946518 0.0970 0.0970 0.0970 0.0970 0.0970
8.971000 0.0970 0.0970 0.0970 0.0960 0.0940
8.995518 0.0940 0.0960 0.0960 0.0960 0.0960
9.020000 0.0940 0.0940 0.0920 0.0880 0.0850
9.044518 0.0800 0.0780 0.0770 0.0750 0.0730
9.069000 0.0730 0.0720 0.0720 0.0720 0.0720
9.093518 0.0710 0.0710 0.0690 0.0690 0.0670
9.118000 0.0670 0.0660 0.0650 0.0650 0.0620
9.142518 0.0610 0.0600 0.0600 0.0590 0.0570
9.167000 0.0570 0.0570 0.0570 0.0570 0.0570
9.191518 0.0570 0.0560 0.0560 0.0560 0.0560
9.216000 0.0560 0.0560 0.0560 0.0550 0.0550
9.240518 0.0550 0.0540 0.0540 0.0540 0.0530
9.265000 0.0530 0.0530 0.0530 0.0510 0.0510
9.289518 0.0510 0.0510 0.0510 0.0530 0.0530
9.314000 0.0530 0.0530 0.0540 0.0540 0.0540
9.338518 0.0540 0.0550 0.0550 0.0560 0.0570
9.363000 0.0590 0.0600 0.0610 0.0610 0.0610
9.387518 0.0610 0.0600 0.0610 0.0600 0.0600
9.412000 0.0600 0.0600 0.0590 0.0570 0.0560
9.436518 0.0560 0.0550 0.0540 0.0540 0.0530
9.461000 0.0530 0.0510 0.0530 0.0530 0.0540
9.485518 0.0550 0.0560 0.0560 0.0560 0.0560
9.510000 0.0540 0.0540 0.0530 0.0530 0.0530
9.534518 0.0530 0.0530 0.0530 0.0530 0.0530
9.559000 0.0530 0.0530 0.0530 0.0530 0.0530
9.583518 0.0530 0.0530 0.0530 0.0530 0.0530
9.608000 0.0530 0.0530 0.0530 0.0530 0.0530
9.632518 0.0530 0.0530 0.0540 0.0540 0.0560
9.657000 0.0570 0.0560 0.0560 0.0550 0.0540
9.681518 0.0540 0.0530 0.0530 0.0530 0.0540
9.706000 0.0540 0.0550 0.0560 0.0560 0.0560
9.730518 0.0560 0.0560 0.0560 0.0560 0.0560
9.755000 0.0570 0.0570 0.0570 0.0560 0.0560
9.779518 0.0560 0.0570 0.0560 0.0560 0.0560
9.804000 0.0560 0.0560 0.0570 0.0570 0.0590
9.828518 0.0590 0.0590 0.0590 0.0590 0.0590
9.853000 0.0590 0.0590 0.0600 0.0600 0.0610
9.877518 0.0620 0.0670 0.0690 0.0690 0.0700
9.902000 0.0700 0.0710 0.0710 0.0730 0.0760
9.926518 0.0770 0.0770 0.0780 0.0800 0.0810
9.951000 0.0820 0.0850 0.0870 0.0900 0.0980
9.975518 0.0980 0.1010 0.1020 0.1070 0.1080
10.000000 0.1140 0.1200 0.1220 0.1250 0.1290
10.024518 0.1310 0.1330 0.1340 0.1350 0.1380
10.049000 0.1400 0.1490 0.1500 0.1520 0.1540
10.073518 0.1540 0.1560 0.1570 0.1590 0.1610
10.098000 0.1620 0.1660 0.1700 0.1720 0.1750
10.122518 0.1760 0.1800 0.1830 0.1860 0.1880
10.147000 0.1910 0.1930 0.1970 0.2000 0.2020
10.171518 0.2030 0.2040 0.2050 0.2070 0.2080
10.196000 0.2120 0.2140 0.2170 0.2190 0.2200
10.220518 0.2210 0.2280 0.2300 0.2330 0.2360
10.245000 0.2370 0.2400 0.2500 0.2520 0.2560
10.269518 0.2600 0.2610 0.2610 0.2620 0.2650
10.294000 0.2670 0.2700 0.2710 0.2720 0.2720
10.318518 0.2730 0.2730 0.2730 0.2740 0.2740
10.343000 0.2770 0.2790 0.2830 0.2870 0.2880
10.367518 0.2890 0.2890 0.2920 0.2930 0.2950
10.392000 0.2970 0.2980 0.2990 0.2990 0.2990
10.416518 0.3000 0.3000 0.3000 0.3000 0.3000
10.441000 0.3000 0.3000 0.3000 0.3000 0.2990
10.465518 0.2990 0.2980 0.2980 0.2980 0.2980
10.490000 0.2980 0.2980 0.2980 0.2970 0.2970
10.514518 0.2970 0.2950 0.2950 0.2950 0.2970
10.539000 0.2990 0.3000 0.3000 0.3000 0.3000
10.563518 0.3000 0.2990 0.2990 0.2990 0.2990
10.588000 0.2990 0.3000 0.3020 0.3020 0.3030
10.612518 0.3030 0.3050 0.3100 0.3140 0.3190
10.637000 0.3210 0.3240 0.3230 0.3230 0.3210
10.661518 0.3210 0.3230 0.3240 0.3250 0.3260
10.686000 0.3270 0.3290 0.3300 0.3310 0.3310
10.710518 0.3320 0.3360 0.3400 0.3420 0.3440
10.735000 0.3460 0.3470 0.3480 0.3500 0.3510
10.759518 0.3510 0.3520 0.3520 0.3520 0.3510
10.784000 0.3510 0.3510 0.3520 0.3520 0.3530
10.808518 0.3520 0.3530 0.3530 0.3530 0.3530
10.833000 0.3530 0.3530 0.3530 0.3520 0.3520
10.857518 0.3510 0.3510 0.3520 0.3520 0.3530
10.882000 0.3530 0.3530 0.3530 0.3530 0.3530
10.906518 0.3530 0.3550 0.3550 0.3550 0.3560
10.931000 0.3580 0.3610 0.3640 0.3710 0.3730
10.955518 0.3740 0.3740 0.3760 0.3760 0.3760
10.980000 0.3780 0.3790 0.3810 0.3830 0.3850
11.004518 0.3900 0.3940 0.3970 0.4010 0.4030
11.029000 0.4030 0.4010 0.4010 0.3990 0.3950
11.053518 0.3920 0.3840 0.3790 0.3740 0.3720
11.078000 0.3710 0.3710 0.3690 0.3660 0.3620
11.102518 0.3550 0.3510 0.3390 0.3340 0.3340
11.127000 0.3320 0.3320 0.3300 0.3250 0.3230
11.151518 0.3190 0.3150 0.3090 0.3020 0.2990
11.176000 0.2930 0.2920 0.2900 0.2890 0.2890
11.200518 0.2890 0.2840 0.2830 0.2820 0.2810
11.225000 0.2790 0.2770 0.2740 0.2740 0.2730
11.249518 0.2730 0.2730 0.2730 0.2730 0.2740
11.275000 0.2740 0.2760 0.2770 0.2780 0.2780
11.299518 0.2790 0.2810 0.2830 0.2880 0.2900
11.324000 0.2930 0.2940 0.2940 0.2980 0.2990
11.348518 0.2990 0.2990 0.2990 0.3000 0.3000
11.373000 0.3020 0.3030 0.3030 0.3040 0.3050
11.397518 0.3070 0.3080 0.3090 0.3100 0.3130
11.422000 0.3130 0.3150 0.3150 0.3150 0.3160
11.446518 0.3160 0.3160 0.3180 0.3200 0.3230
11.471000 0.3250 0.3270 0.3290 0.3270 0.3270
11.495518 0.3270 0.3260 0.3260 0.3260 0.3250
11.520000 0.3260 0.3270 0.3290 0.3300 0.3310
11.544518 0.3340 0.3350 0.3360 0.3370 0.3370
11.569000 0.3390 0.3400 0.3410 0.3420 0.3440
11.593518 0.3450 0.3460 0.3460 0.3460 0.3470
11.618000 0.3470 0.3480 0.3480 0.3500 0.3500
11.642518 0.3510 0.3520 0.3520 0.3520 0.3530
11.667000 0.3530 0.3530 0.3530 0.3530 0.3530
11.691518 0.3530 0.3530 0.3550 0.3550 0.3560
11.716000 0.3600 0.3610 0.3620 0.3640 0.3670
11.740518 0.3690 0.3720 0.3730 0.3740 0.3740
11.765000 0.3740 0.3760 0.3740 0.3760 0.3760
11.789518 0.3760 0.3760 0.3770 0.3780 0.3810
11.814000 0.3850 0.3920 0.3930 0.3930 0.3970
11.838518 0.3970 0.3980 0.3990 0.4000 0.4000
11.863000 0.4000 0.4000 0.4010 0.4030 0.4040
11.887518 0.4050 0.4050 0.4060 0.4060 0.4080
11.912000 0.4080 0.4090 0.4090 0.4100 0.4100
11.936518 0.4100 0.4110 0.4110 0.4110 0.4110
11.961000 0.4100 0.4100 0.4100 0.4100 0.4090
11.985518 0.4080 0.4080 0.4080 0.4060 0.4060
12.010000 0.4050 0.4050 0.4040 0.4030 0.4030
12.034518 0.4010 0.4010 0.4010 0.4010 0.4000
12.059000 0.3990 0.3980 0.3920 0.3890 0.3870
12.083518 0.3870 0.3870 0.3880 0.3880 0.3870
12.108000 0.3870 0.3850 0.3850 0.3830 0.3810
12.132518 0.3810 0.3810 0.3820 0.3820 0.3840
12.157000 0.3850 0.3850 0.3840 0.3840 0.3830
12.181518 0.3820 0.3810 0.3820 0.3820 0.3830
12.206000 0.3840 0.3840 0.3850 0.3850 0.3870
12.230518 0.3870 0.3880 0.3890 0.3900 0.3890
12.255000 0.3890 0.3890 0.3880 0.3880 0.3870
12.279518 0.3870 0.3850 0.3850 0.3850 0.3840
12.304000 0.3830 0.3820 0.3810 0.3770 0.3740
12.328518 0.3730 0.3730 0.3730 0.3740 0.3740
12.353000 0.3760 0.3760 0.3760 0.3760 0.3740
12.377518 0.3740 0.3730 0.3730 0.3720 0.3710
12.402000 0.3690 0.3680 0.3680 0.3670 0.3670
12.426518 0.3660 0.3660 0.3640 0.3640 0.3640
12.451000 0.3630 0.3620 0.3610 0.3600 0.3550
12.475518 0.3520 0.3460 0.3450 0.3440 0.3420
12.500000 0.3420 0.3410 0.3400 0.3390 0.3390
12.524518 0.3360 0.3350 0.3350 0.3320 0.3310
12.549000 0.3290 0.3260 0.3240 0.3210 0.3200
12.573518 0.3150 0.3110 0.3100 0.3040 0.3030
12.598000 0.3000 0.2980 0.2940 0.2930 0.2930
12.622518 0.2920 0.2920 0.2900 0.2890 0.2840
12.647000 0.2820 0.2810 0.2780 0.2770 0.2740
12.671518 0.2740 0.2730 0.2730 0.2710 0.2710
12.696000 0.2710 0.2680 0.2670 0.2670 0.2670
12.720518 0.2680 0.2680 0.2700 0.2700 0.2680
12.745000 0.2700 0.2710 0.2730 0.2730 0.2700
12.769518 0.2680 0.2670 0.2660 0.2660 0.2630
12.794000 0.2630 0.2620 0.2630 0.2670 0.2700
12.818518 0.2720 0.2730 0.2730 0.2740 0.2760
12.843000 0.2760 0.2760 0.2770 0.2760 0.2760
12.867518 0.2770 0.2780 0.2790 0.2810 0.2820
12.892000 0.2820 0.2810 0.2810 0.2790 0.2810
12.916518 0.2810 0.2810 0.2810 0.2790 0.2780
12.941000 0.2770 0.2760 0.2740 0.2740 0.2730
12.965518 0.2730 0.2730 0.2730 0.2740 0.2740
12.990000 0.2740 0.2760 0.2760 0.2760 0.2760
13.014518 0.2770 0.2770 0.2770 0.2780 0.2770
13.039000 0.2770 0.2770 0.2770 0.2760 0.2760
13.063518 0.2760 0.2740 0.2740 0.2740 0.2740
13.088000 0.2740 0.2730 0.2730 0.2730 0.2730
13.112518 0.2730 0.2740 0.2740 0.2760 0.2740
13.137000 0.2740 0.2740 0.2730 0.2720 0.2710
13.161518 0.2710 0.2700 0.2710 0.2710 0.2710
13.186000 0.2720 0.2720 0.2730 0.2740 0.2740
13.210518 0.2740 0.2730 0.2730 0.2720 0.2720
13.235000 0.2720 0.2710 0.2700 0.2680 0.2670
13.259518 0.2650 0.2630 0.2630 0.2630 0.2650
13.284000 0.2650 0.2660 0.2670 0.2680 0.2680
13.308518 0.2670 0.2660 0.2660 0.2660 0.2650
13.333000 0.2650 0.2650 0.2650 0.2680 0.2660
13.357518 0.2630 0.2620 0.2610 0.2600 0.2560
13.382000 0.2560 0.2580 0.2650 0.2650 0.2610
13.406518 0.2600 0.2580 0.2580 0.2560 0.2560
13.431000 0.2550 0.2540 0.2540 0.2520 0.2500
13.455518 0.2490 0.2490 0.2470 0.2460 0.2460
13.480000 0.2450 0.2420 0.2400 0.2390 0.2360
13.504518 0.2340 0.2330 0.2330 0.2310 0.2310
13.529000 0.2290 0.2280 0.2280 0.2260 0.2250
13.553518 0.2240 0.2230 0.2210 0.2190 0.2180
13.578000 0.2180 0.2140 0.2130 0.2120 0.2100
13.602518 0.2100 0.2090 0.2090 0.2080 0.2080
13.627000 0.2080 0.2080 0.2080 0.2080 0.2080
13.651518 0.2080 0.2080 0.2080 0.2080 0.2080
13.676000 0.2080 0.2080 0.2070 0.2070 0.2050
13.700518 0.2040 0.2030 0.2030 0.2020 0.2000
13.725000 0.1990 0.1980 0.1980 0.1970 0.1980
13.749518 0.1980 0.1980 0.1990 0.2000 0.2000
13.775000 0.2000 0.2000 0.1990 0.1990 0.1970
13.799518 0.1960 0.1940 0.1940 0.1940 0.1940
13.824000 0.1940 0.1940 0.1930 0.1930 0.1930
13.848518 0.1920 0.1910 0.1890 0.1880 0.1880
13.873000 0.1880 0.1890 0.1890 0.1890 0.1910
13.897518 0.1910 0.1910 0.1910 0.1920 0.1920
13.922000 0.1920 0.1910 0.1920 0.1920 0.1920
13.946518 0.1920 0.1920 0.1930 0.1930 0.1930
13.971000 0.1940 0.1940 0.1940 0.1940 0.1940
13.995518 0.1930 0.1920 0.1920 0.1920 0.1930
14.020000 0.1930 0.1940 0.1940 0.1960 0.1960
14.044518 0.1960 0.1960 0.1960 0.1970 0.1970
14.069000 0.1970 0.1970 0.1970 0.1970 0.1970
14.093518 0.1980 0.1980 0.1980 0.1980 0.1980
14.118000 0.1980 0.1980 0.1980 0.1980 0.1990
14.142518 0.1980 0.1980 0.1990 0.1990 0.1990
14.167000 0.1990 0.1980 0.1980 0.1980 0.1980
14.191518 0.1970 0.1970 0.1960 0.1940 0.1940
14.216000 0.1960 0.1960 0.1970 0.1970 0.1970
14.240518 0.1970 0.1980 0.1980 0.1990 0.1990
14.265000 0.1990 0.2000 0.2000 0.1990 0.2000
14.289518 0.2000 0.2000 0.2020 0.2000 0.2000
14.314000 0.2000 0.2020 0.2020 0.2020 0.2000
14.338518 0.2000 0.2000 0.2000 0.2020 0.2020
14.363000 0.2020 0.2020 0.2020 0.2030 0.2030
14.387518 0.2030 0.2040 0.2040 0.2070 0.2070
14.412000 0.2090 0.2100 0.2100 0.2120 0.2130
14.436518 0.2140 0.2150 0.2170 0.2170 0.2180
14.461000 0.2180 0.2180 0.2180 0.2190 0.2190
14.485518 0.2200 0.2200 0.2210 0.2210 0.2230
14.510000 0.2230 0.2240 0.2250 0.2260 0.2280
14.534518 0.2260 0.2280 0.2280 0.2290 0.2300
14.559000 0.2300 0.2310 0.2310 0.2330 0.2330
14.583518 0.2330 0.2340 0.2350 0.2390 0.2400
14.608000 0.2440 0.2450 0.2450 0.2460 0.2460
14.632518 0.2460 0.2460 0.2460 0.2460 0.2460
14.657000 0.2470 0.2490 0.2510 0.2510 0.2520
14.681518 0.2520 0.2520 0.2520 0.2520 0.2520
14.706000 0.2520 0.2520 0.2540 0.2550 0.2550
14.730518 0.2560 0.2560 0.2570 0.2580 0.2580
14.755000 0.2580 0.2600 0.2600 0.2600 0.2600
14.779518 0.2600 0.2600 0.2600 0.2600 0.2600
14.804000 0.2610 0.2610 0.2610 0.2600 0.2600
14.828518 0.2600 0.2600 0.2600 0.2600 0.2600
14.853000 0.2610 0.2610 0.2610 0.2620 0.2630
14.877518 0.2660 0.2680 0.2680 0.2630 0.2600
14.902000 0.2580 0.2580 0.2600 0.2620 0.2620
14.926518 0.2630 0.2660 0.2670 0.2670 0.2680
14.951000 0.2680 0.2700 0.2700 0.2720 0.2720
14.975518 0.2730 0.2740 0.2770 0.2790 0.2820
15.000000 0.2840 0.2860 0.2880 0.2890 0.2890
15.024518 0.2890 0.2890 0.2880 0.2870 0.2870
15.049000 0.2860 0.2860 0.2840 0.2840 0.2830
15.073518 0.2830 0.2820 0.2790 0.2780 0.2780
15.098000 0.2740 0.2730 0.2710 0.2680 0.2670
15.122518 0.2630 0.2630 0.2630 0.2630 0.2650
15.147000 0.2650 0.2660 0.2670 0.2670 0.2670
15.171518 0.2680 0.2700 0.2700 0.2720 0.2730
15.196000 0.2740 0.2760 0.2770 0.2780 0.2790
15.220518 0.2820 0.2840 0.2880 0.2890 0.2890
15.245000 0.2890 0.2890 0.2870 0.2870 0.2870
15.269518 0.2880 0.2880 0.2880 0.2890 0.2890
15.294000 0.2890 0.2890 0.2900 0.2900 0.2930
15.318518 0.2980 0.3000 0.3000 0.3000 0.3020
15.343000 0.3020 0.3030 0.3040 0.3040 0.3050
15.367518 0.3050 0.3070 0.3080 0.3080 0.3090
15.392000 0.3090 0.3090 0.3090 0.3100 0.3090
15.416518 0.3100 0.3100 0.3110 0.3110 0.3140
15.441000 0.3150 0.3190 0.3210 0.3230 0.3240
15.465518 0.3250 0.3240 0.3230 0.3210 0.3210
15.490000 0.3200 0.3190 0.3200 0.3210 0.3240
15.514518 0.3250 0.3270 0.3290 0.3300 0.3320
15.539000 0.3340 0.3340 0.3350 0.3360 0.3360
15.563518 0.3370 0.3370 0.3370 0.3390 0.3400
15.588000 0.3400 0.3370 0.3360 0.3360 0.3350
15.612518 0.3340 0.3350 0.3350 0.3360 0.3390
15.637000 0.3390 0.3410 0.3440 0.3440 0.3450
15.661518 0.3450 0.3440 0.3440 0.3440 0.3420
15.686000 0.3410 0.3410 0.3400 0.3400 0.3400
15.710518 0.3410 0.3410 0.3410 0.3420 0.3440
15.735000 0.3440 0.3450 0.3470 0.3480 0.3510
15.759518 0.3510 0.3530 0.3550 0.3560 0.3560
15.784000 0.3570 0.3570 0.3570 0.3580 0.3580
15.808518 0.3600 0.3600 0.3600 0.3610 0.3610
15.833000 0.3620 0.3620 0.3620 0.3630 0.3620
15.857518 0.3630 0.3630 0.3630 0.3640 0.3640
15.882000 0.3660 0.3660 0.3680 0.3680 0.3690
15.906518 0.3710 0.3690 0.3710 0.3720 0.3720
15.931000 0.3730 0.3740 0.3740 0.3760 0.3770
15.955518 0.3780 0.3780 0.3780 0.3790 0.3780
15.980000 0.3780 0.3780 0.3780 0.3780 0.3790
##END=
