##TITLE=Benzylic acid, 1-methyl-4-piperidyl ester, hydrochloride
##JCAMP-DX=4.24
##DATA TYPE=INFRARED SPECTRUM
##CLASS=COBLENTZ III
##ORIGIN=DOW CHEMICAL COMPANY
##OWNER=Copyright (C) 1987 by the Coblentz Society
Collection (C) 2018 copyright by the U.S. Secretary of Commerce
on behalf of the United States of America. All rights reserved.
##DATE=1964/08/27
##NAMES=1-methyl-4-piperidinyl hydroxy(diphenyl)acetate hydrochloride
##MOLFORM=C20 H24 Cl N O3
##SOURCE REFERENCE=COBLENTZ NO. 8012
##$NIST ID=B6008012
##$NIST SOURCE=COBLENTZ
##$NIST IMAGE=cob8012
##SPECTROMETER/DATA SYSTEM=BECKMAN IR-9 (GRATING)
##INSTRUMENT PARAMETERS=ORDER CHANGES: 670, 1200, 2000 CM^-^1
##STATE=SOLID (SPLIT MULL), FLUOROLUBE FOR 3800-1330 CM^-^1, NUJOL FOR 1330-400 CM^-^1
$$ SPECTRAL FEATURE AT 1325 CM^-^1 IS AFFECTED BY SOLVENT CHANGE
##SAMPLING PROCEDURE=TRANSMISSION
##RESOLUTION=2
##DATA PROCESSING=DIGITIZED BY COBLENTZ SOCIETY (BATCH II) FROM HARD COPY
##XUNITS=1/CM
##YUNITS=TRANSMITTANCE
##XFACTOR=1.0
##YFACTOR=1
##FIRSTX=403
##LASTX=3800
##FIRSTY=0.7637
##MAXX=3800
##MINX=403
##MAXY=0.9143
##MINY=0.2024
##NPOINTS=3398
##XYDATA=(X++(Y..Y))
403.000000 0.7637 0.7650 0.7665 0.7679 0.7693
408.000000 0.7706 0.7718 0.7730 0.7742 0.7781
413.000000 0.7833 0.7952 0.7992 0.8022 0.8037
418.000000 0.8052 0.8064 0.8076 0.8087 0.8099
423.000000 0.8119 0.8139 0.8158 0.8178 0.8198
428.000000 0.8220 0.8243 0.8266 0.8289 0.8312
433.000000 0.8335 0.8370 0.8406 0.8442 0.8477
438.000000 0.8513 0.8548 0.8584 0.8619 0.8654
443.000000 0.8679 0.8693 0.8706 0.8719 0.8724
448.000000 0.8730 0.8736 0.8742 0.8748 0.8755
453.000000 0.8777 0.8799 0.8822 0.8866 0.8910
458.000000 0.8955 0.9036 0.9018 0.8999 0.8983
463.000000 0.8970 0.8957 0.8957 0.8960 0.8967
468.000000 0.8966 0.8977 0.8980 0.8968 0.8948
473.000000 0.8928 0.8889 0.8849 0.8809 0.8802
478.000000 0.8794 0.8788 0.8786 0.8784 0.8781
483.000000 0.8772 0.8762 0.8752 0.8743 0.8733
488.000000 0.8721 0.8701 0.8680 0.8659 0.8638
493.000000 0.8616 0.8593 0.8571 0.8548 0.8524
498.000000 0.8498 0.8472 0.8446 0.8422 0.8419
503.000000 0.8429 0.8439 0.8451 0.8465 0.8479
508.000000 0.8492 0.8493 0.8484 0.8471 0.8454
513.000000 0.8415 0.8380 0.8349 0.8318 0.8298
518.000000 0.8286 0.8272 0.8280 0.8297 0.8317
523.000000 0.8351 0.8387 0.8427 0.8457 0.8476
528.000000 0.8493 0.8482 0.8482 0.8480 0.8475
533.000000 0.8470 0.8465 0.8454 0.8443 0.8432
538.000000 0.8418 0.8403 0.8388 0.8365 0.8341
543.000000 0.8320 0.8305 0.8294 0.8288 0.8282
548.000000 0.8277 0.8268 0.8258 0.8247 0.8237
553.000000 0.8213 0.8180 0.8137 0.8087 0.8037
558.000000 0.7962 0.7885 0.7827 0.7773 0.7719
563.000000 0.7666 0.7612 0.7552 0.7493 0.7433
568.000000 0.7374 0.7310 0.7246 0.7181 0.7162
573.000000 0.7169 0.7180 0.7226 0.7264 0.7322
578.000000 0.7393 0.7478 0.7584 0.7715 0.7810
583.000000 0.7894 0.7952 0.8007 0.8041 0.8068
588.000000 0.8084 0.8096 0.8108 0.8117 0.8121
593.000000 0.8125 0.8125 0.8126 0.8117 0.8102
598.000000 0.8076 0.8038 0.7996 0.7948 0.7877
603.000000 0.7806 0.7737 0.7667 0.7596 0.7526
608.000000 0.7451 0.7363 0.7276 0.7206 0.7142
613.000000 0.7130 0.7125 0.7125 0.7146 0.7260
618.000000 0.7374 0.7487 0.7601 0.7714 0.7700
623.000000 0.7499 0.7248 0.6997 0.6978 0.6987
628.000000 0.7119 0.7251 0.7382 0.7580 0.7664
633.000000 0.7714 0.7761 0.7801 0.7834 0.7866
638.000000 0.7896 0.7922 0.7948 0.7975 0.8001
643.000000 0.8022 0.8041 0.8059 0.8070 0.8076
648.000000 0.8082 0.8088 0.8093 0.8098 0.8105
653.000000 0.8118 0.8167 0.8191 0.8209 0.8222
658.000000 0.8230 0.8237 0.8245 0.8252 0.8257
663.000000 0.8262 0.8267 0.8269 0.8269 0.8270
668.000000 0.8300 0.8266 0.8262 0.7995 0.7459
673.000000 0.6829 0.6818 0.6871 0.7092 0.7314
678.000000 0.7535 0.7702 0.7751 0.7783 0.7812
683.000000 0.7834 0.7841 0.7844 0.7845 0.7847
688.000000 0.7856 0.7875 0.7958 0.8023 0.8071
693.000000 0.8103 0.8133 0.8147 0.8129 0.8149
698.000000 0.8141 0.8132 0.8115 0.8095 0.8056
703.000000 0.6773 0.3769 0.3747 0.3753 0.5032
708.000000 0.5070 0.5111 0.5178 0.5626 0.6121
713.000000 0.6617 0.7001 0.7149 0.7230 0.7266
718.000000 0.7284 0.7274 0.7261 0.7230 0.7139
723.000000 0.7078 0.7076 0.7083 0.7121 0.7166
728.000000 0.7210 0.7254 0.7289 0.7324 0.7360
733.000000 0.7364 0.7390 0.7367 0.7362 0.7336
738.000000 0.7284 0.7119 0.6527 0.5935 0.5658
743.000000 0.5969 0.6357 0.6744 0.7132 0.7321
748.000000 0.7384 0.7513 0.7609 0.7698 0.7755
753.000000 0.7801 0.7819 0.7837 0.7842 0.7843
758.000000 0.7844 0.7860 0.7838 0.7824 0.7811
763.000000 0.7781 0.7730 0.7650 0.7545 0.7373
768.000000 0.6728 0.5529 0.4553 0.4542 0.5035
773.000000 0.5466 0.5898 0.6566 0.6582 0.6335
778.000000 0.5619 0.4903 0.4188 0.3756 0.3753
783.000000 0.6772 0.7187 0.7304 0.7440 0.7569
788.000000 0.7755 0.7852 0.7915 0.7968 0.8013
793.000000 0.8053 0.8054 0.7990 0.7883 0.7776
798.000000 0.7705 0.7693 0.7837 0.7951 0.8064
803.000000 0.8091 0.8131 0.8094 0.8092 0.8084
808.000000 0.8013 0.7921 0.7867 0.7849 0.7839
813.000000 0.7861 0.7910 0.8027 0.8129 0.8170
818.000000 0.8208 0.8241 0.8257 0.8269 0.8281
823.000000 0.8285 0.8289 0.8293 0.8293 0.8287
828.000000 0.8290 0.8288 0.8284 0.8277 0.8270
833.000000 0.8264 0.8257 0.8245 0.8234 0.8222
838.000000 0.8211 0.8195 0.8179 0.8163 0.8147
843.000000 0.8131 0.8115 0.8098 0.8080 0.8062
848.000000 0.8048 0.8037 0.8027 0.8009 0.7967
853.000000 0.7904 0.7833 0.7745 0.7562 0.7246
858.000000 0.6822 0.6398 0.6346 0.6386 0.6876
863.000000 0.7367 0.7725 0.7790 0.7849 0.7895
868.000000 0.7927 0.7952 0.7976 0.7996 0.8015
873.000000 0.8035 0.8053 0.8067 0.8081 0.8094
878.000000 0.8108 0.8111 0.8107 0.8113 0.8108
883.000000 0.8103 0.8098 0.8090 0.8075 0.8060
888.000000 0.8044 0.8029 0.8011 0.7986 0.7960
893.000000 0.7935 0.7903 0.7861 0.7820 0.7767
898.000000 0.7677 0.7588 0.7476 0.7364 0.7234
903.000000 0.7063 0.6562 0.5948 0.5915 0.5887
908.000000 0.6113 0.6373 0.6633 0.6893 0.7110
913.000000 0.7106 0.7096 0.7069 0.7036 0.7003
918.000000 0.6969 0.6942 0.6935 0.6925 0.7030
923.000000 0.7260 0.7497 0.7612 0.7686 0.7740
928.000000 0.7767 0.7773 0.7780 0.7804 0.7777
933.000000 0.7774 0.7755 0.7704 0.7558 0.7366
938.000000 0.7174 0.7010 0.6999 0.7121 0.7256
943.000000 0.7391 0.7525 0.7555 0.7574 0.7587
948.000000 0.7593 0.7599 0.7603 0.7607 0.7616
953.000000 0.7606 0.7605 0.7604 0.7603 0.7597
958.000000 0.7590 0.7561 0.7525 0.7481 0.7398
963.000000 0.7269 0.6841 0.6547 0.6252 0.5958
968.000000 0.5725 0.5706 0.5866 0.6086 0.6306
973.000000 0.6385 0.6420 0.6189 0.6038 0.5887
978.000000 0.5736 0.5710 0.5770 0.5973 0.6176
983.000000 0.6361 0.6444 0.6508 0.6547 0.6586
988.000000 0.6697 0.6827 0.6998 0.7153 0.7290
993.000000 0.7365 0.7398 0.7382 0.7346 0.7292
998.000000 0.7214 0.7146 0.7058 0.6912 0.6781
1003.000000 0.6652 0.6483 0.6443 0.6465 0.6472
1008.000000 0.6484 0.6532 0.6624 0.6787 0.7003
1013.000000 0.7224 0.7297 0.7354 0.7386 0.7400
1018.000000 0.7415 0.7408 0.7406 0.7392 0.7373
1023.000000 0.7337 0.7301 0.7248 0.7195 0.7129
1028.000000 0.7059 0.6948 0.6813 0.6641 0.6338
1033.000000 0.5874 0.5409 0.4945 0.4594 0.4598
1038.000000 0.4580 0.4784 0.5126 0.5469 0.5812
1043.000000 0.6154 0.6497 0.6817 0.6854 0.6871
1048.000000 0.6868 0.6863 0.6853 0.6822 0.6573
1053.000000 0.6095 0.5616 0.5137 0.4659 0.4180
1058.000000 0.3701 0.3223 0.3137 0.3353 0.4425
1063.000000 0.5497 0.6093 0.6274 0.6439 0.6601
1068.000000 0.6756 0.6889 0.6985 0.7039 0.7092
1073.000000 0.7127 0.7147 0.7166 0.7168 0.7170
1078.000000 0.7170 0.7165 0.7152 0.7136 0.7112
1083.000000 0.7088 0.7064 0.7016 0.6971 0.6927
1088.000000 0.6877 0.6822 0.6768 0.6723 0.6625
1093.000000 0.6375 0.5801 0.5584 0.5474 0.5364
1098.000000 0.5296 0.5292 0.5292 0.5642 0.5994
1103.000000 0.6194 0.6056 0.5900 0.6000 0.6441
1108.000000 0.6882 0.7044 0.7114 0.7128 0.7130
1113.000000 0.7129 0.7128 0.7128 0.7125 0.7124
1118.000000 0.7122 0.7120 0.7114 0.7105 0.7092
1123.000000 0.7078 0.7047 0.7016 0.6985 0.6954
1128.000000 0.6922 0.6889 0.6865 0.6848 0.6831
1133.000000 0.6823 0.6818 0.6812 0.6805 0.6799
1138.000000 0.6792 0.6786 0.6776 0.6762 0.6745
1143.000000 0.6705 0.6664 0.6620 0.6566 0.6509
1148.000000 0.6441 0.6372 0.6296 0.6176 0.5874
1153.000000 0.5338 0.4814 0.4849 0.4991 0.5133
1158.000000 0.5276 0.5418 0.5534 0.5580 0.4870
1163.000000 0.4418 0.4418 0.4452 0.4404 0.4836
1168.000000 0.5028 0.5220 0.5413 0.5605 0.5797
1173.000000 0.5989 0.6181 0.6209 0.6178 0.6177
1178.000000 0.6151 0.6065 0.5918 0.5737 0.5724
1183.000000 0.5722 0.5742 0.5787 0.5861 0.5898
1188.000000 0.5896 0.5890 0.5866 0.5829 0.5774
1193.000000 0.5750 0.5743 0.5721 0.5744 0.5763
1198.000000 0.5782 0.5805 0.5829 0.5864 0.5918
1203.000000 0.5980 0.6040 0.6091 0.6135 0.6158
1208.000000 0.6182 0.6200 0.6203 0.6207 0.6215
1213.000000 0.6179 0.6143 0.6087 0.6012 0.5935
1218.000000 0.5866 0.5797 0.5728 0.5659 0.5591
1223.000000 0.5524 0.5456 0.5298 0.5104 0.4848
1228.000000 0.4643 0.4456 0.4076 0.3632 0.3187
1233.000000 0.2740 0.2245 0.2131 0.2067 0.2042
1238.000000 0.2029 0.2024 0.2025 0.2086 0.2347
1243.000000 0.2608 0.2869 0.3130 0.3391 0.3652
1248.000000 0.3913 0.4174 0.4435 0.4696 0.4953
1253.000000 0.5296 0.5579 0.5922 0.6005 0.6087
1258.000000 0.6170 0.6244 0.6317 0.6389 0.6442
1263.000000 0.6458 0.6474 0.6491 0.6507 0.6529
1268.000000 0.6580 0.6632 0.6704 0.6792 0.6886
1273.000000 0.6986 0.7019 0.7046 0.7074 0.7094
1278.000000 0.7101 0.7108 0.7116 0.7151 0.7113
1283.000000 0.7102 0.7066 0.7019 0.6976 0.6934
1288.000000 0.6891 0.6851 0.6820 0.6789 0.6757
1293.000000 0.6728 0.6737 0.6746 0.6773 0.6798
1298.000000 0.6813 0.6817 0.6804 0.6791 0.6763
1303.000000 0.6727 0.6687 0.6647 0.6603 0.6557
1308.000000 0.6511 0.6482 0.6453 0.6439 0.6439
1313.000000 0.6448 0.6460 0.6481 0.6502 0.6509
1318.000000 0.6515 0.6514 0.6513 0.6499 0.6475
1323.000000 0.6450 0.6424 0.6372 0.6467 0.6608
1328.000000 0.6750 0.6892 0.7033 0.7175 0.7318
1333.000000 0.7404 0.7473 0.7532 0.7560 0.7582
1338.000000 0.7570 0.7581 0.7579 0.7573 0.7567
1343.000000 0.7561 0.7549 0.7531 0.7522 0.7516
1348.000000 0.7504 0.7510 0.7519 0.7529 0.7549
1353.000000 0.7577 0.7622 0.7666 0.7710 0.7757
1358.000000 0.7804 0.7852 0.7900 0.7944 0.7984
1363.000000 0.8024 0.8064 0.8096 0.8107 0.8118
1368.000000 0.8129 0.8139 0.8141 0.8120 0.8095
1373.000000 0.8070 0.8060 0.8064 0.8069 0.8075
1378.000000 0.8090 0.8144 0.8196 0.8246 0.8270
1383.000000 0.8274 0.8278 0.8281 0.8284 0.8291
1388.000000 0.8305 0.8320 0.8319 0.8350 0.8317
1393.000000 0.8316 0.8315 0.8309 0.8300 0.8283
1398.000000 0.8267 0.8248 0.8229 0.8209 0.8181
1403.000000 0.8127 0.8063 0.7964 0.7879 0.7804
1408.000000 0.7729 0.7670 0.7615 0.7560 0.7505
1413.000000 0.7454 0.7404 0.7377 0.7370 0.7387
1418.000000 0.7419 0.7506 0.7610 0.7678 0.7782
1423.000000 0.7876 0.7957 0.8022 0.8057 0.8094
1428.000000 0.8072 0.8061 0.8049 0.8019 0.7987
1433.000000 0.7952 0.7914 0.7861 0.7809 0.7757
1438.000000 0.7684 0.7595 0.7442 0.7362 0.7285
1443.000000 0.7241 0.7230 0.7199 0.7260 0.7365
1448.000000 0.7433 0.7494 0.7518 0.7528 0.7524
1453.000000 0.7584 0.7694 0.7784 0.7806 0.7808
1458.000000 0.7814 0.7850 0.7847 0.7826 0.7700
1463.000000 0.7628 0.7557 0.7547 0.7561 0.7560
1468.000000 0.7642 0.7671 0.7695 0.7709 0.7721
1473.000000 0.7727 0.7734 0.7740 0.7757 0.7778
1478.000000 0.7831 0.7940 0.8124 0.8203 0.8223
1483.000000 0.8223 0.8208 0.8193 0.8166 0.8142
1488.000000 0.8123 0.8118 0.8119 0.8129 0.8149
1493.000000 0.8204 0.8295 0.8390 0.8455 0.8492
1498.000000 0.8499 0.8507 0.8512 0.8513 0.8514
1503.000000 0.8516 0.8531 0.8566 0.8599 0.8632
1508.000000 0.8657 0.8671 0.8685 0.8687 0.8689
1513.000000 0.8690 0.8694 0.8693 0.8678 0.8663
1518.000000 0.8630 0.8593 0.8554 0.8515 0.8476
1523.000000 0.8420 0.8342 0.8273 0.8210 0.8151
1528.000000 0.8125 0.8124 0.8126 0.8094 0.8140
1533.000000 0.8194 0.8245 0.8348 0.8458 0.8536
1538.000000 0.8584 0.8622 0.8638 0.8654 0.8669
1543.000000 0.8694 0.8723 0.8751 0.8780 0.8809
1548.000000 0.8839 0.8869 0.8891 0.8901 0.8912
1553.000000 0.8913 0.8911 0.8909 0.8907 0.8905
1558.000000 0.8903 0.8901 0.8897 0.8893 0.8888
1563.000000 0.8884 0.8879 0.8875 0.8870 0.8862
1568.000000 0.8847 0.8832 0.8817 0.8802 0.8787
1573.000000 0.8772 0.8758 0.8744 0.8738 0.8732
1578.000000 0.8726 0.8719 0.8713 0.8707 0.8703
1583.000000 0.8698 0.8694 0.8690 0.8687 0.8694
1588.000000 0.8702 0.8709 0.8716 0.8721 0.8719
1593.000000 0.8717 0.8716 0.8707 0.8695 0.8683
1598.000000 0.8671 0.8659 0.8644 0.8621 0.8599
1603.000000 0.8576 0.8555 0.8547 0.8539 0.8531
1608.000000 0.8522 0.8523 0.8526 0.8529 0.8532
1613.000000 0.8535 0.8538 0.8548 0.8557 0.8567
1618.000000 0.8576 0.8586 0.8591 0.8596 0.8601
1623.000000 0.8605 0.8610 0.8615 0.8614 0.8611
1628.000000 0.8608 0.8602 0.8589 0.8576 0.8563
1633.000000 0.8548 0.8532 0.8517 0.8501 0.8491
1638.000000 0.8491 0.8491 0.8492 0.8492 0.8493
1643.000000 0.8494 0.8496 0.8497 0.8499 0.8500
1648.000000 0.8501 0.8502 0.8500 0.8499 0.8498
1653.000000 0.8496 0.8495 0.8493 0.8492 0.8491
1658.000000 0.8489 0.8487 0.8485 0.8483 0.8482
1663.000000 0.8480 0.8478 0.8476 0.8474 0.8473
1668.000000 0.8469 0.8464 0.8460 0.8455 0.8451
1673.000000 0.8447 0.8442 0.8438 0.8427 0.8416
1678.000000 0.8406 0.8395 0.8384 0.8374 0.8363
1683.000000 0.8348 0.8333 0.8318 0.8312 0.8320
1688.000000 0.8328 0.8336 0.8346 0.8356 0.8366
1693.000000 0.8373 0.8364 0.8355 0.8343 0.8328
1698.000000 0.8312 0.8297 0.8279 0.8261 0.8243
1703.000000 0.8222 0.8193 0.8164 0.8136 0.8104
1708.000000 0.8068 0.8033 0.7987 0.7932 0.7876
1713.000000 0.7821 0.7753 0.7663 0.7574 0.7480
1718.000000 0.7382 0.7285 0.7152 0.6994 0.6642
1723.000000 0.6204 0.5767 0.5329 0.4892 0.4454
1728.000000 0.4017 0.3770 0.3770 0.7863 0.7931
1733.000000 0.7986 0.8017 0.8048 0.8078 0.8109
1738.000000 0.8139 0.8170 0.8200 0.8231 0.8276
1743.000000 0.8333 0.8390 0.8473 0.8568 0.8871
1748.000000 0.8929 0.8956 0.8967 0.8977 0.8998
1753.000000 0.9029 0.9081 0.9120 0.9139 0.9143
1758.000000 0.9140 0.9137 0.9134 0.9131 0.9126
1763.000000 0.9121 0.9115 0.9109 0.9101 0.9094
1768.000000 0.9086 0.9075 0.9063 0.9051 0.9039
1773.000000 0.9026 0.9012 0.8999 0.8986 0.8973
1778.000000 0.8959 0.8946 0.8940 0.8936 0.8931
1783.000000 0.8927 0.8922 0.8918 0.8913 0.8909
1788.000000 0.8906 0.8903 0.8899 0.8896 0.8893
1793.000000 0.8890 0.8886 0.8883 0.8880 0.8877
1798.000000 0.8873 0.8870 0.8867 0.8863 0.8860
1803.000000 0.8856 0.8852 0.8849 0.8845 0.8842
1808.000000 0.8838 0.8834 0.8831 0.8827 0.8823
1813.000000 0.8818 0.8813 0.8807 0.8802 0.8797
1818.000000 0.8791 0.8786 0.8781 0.8776 0.8770
1823.000000 0.8765 0.8760 0.8754 0.8749 0.8744
1828.000000 0.8738 0.8733 0.8727 0.8722 0.8717
1833.000000 0.8711 0.8706 0.8702 0.8699 0.8696
1838.000000 0.8692 0.8689 0.8685 0.8682 0.8679
1843.000000 0.8675 0.8672 0.8668 0.8665 0.8664
1848.000000 0.8662 0.8660 0.8659 0.8657 0.8656
1853.000000 0.8654 0.8652 0.8651 0.8649 0.8648
1858.000000 0.8646 0.8644 0.8643 0.8641 0.8639
1863.000000 0.8638 0.8636 0.8635 0.8633 0.8631
1868.000000 0.8630 0.8628 0.8626 0.8625 0.8623
1873.000000 0.8621 0.8620 0.8618 0.8616 0.8614
1878.000000 0.8613 0.8611 0.8609 0.8608 0.8606
1883.000000 0.8604 0.8603 0.8601 0.8599 0.8597
1888.000000 0.8596 0.8594 0.8592 0.8591 0.8589
1893.000000 0.8587 0.8585 0.8584 0.8582 0.8580
1898.000000 0.8579 0.8578 0.8578 0.8577 0.8577
1903.000000 0.8577 0.8577 0.8577 0.8577 0.8577
1908.000000 0.8576 0.8576 0.8576 0.8576 0.8576
1913.000000 0.8576 0.8576 0.8575 0.8575 0.8575
1918.000000 0.8575 0.8575 0.8575 0.8575 0.8574
1923.000000 0.8574 0.8574 0.8574 0.8574 0.8574
1928.000000 0.8573 0.8573 0.8572 0.8572 0.8571
1933.000000 0.8571 0.8570 0.8570 0.8569 0.8565
1938.000000 0.8562 0.8559 0.8559 0.8558 0.8558
1943.000000 0.8558 0.8557 0.8557 0.8557 0.8557
1948.000000 0.8556 0.8556 0.8555 0.8553 0.8551
1953.000000 0.8548 0.8546 0.8544 0.8541 0.8539
1958.000000 0.8537 0.8535 0.8532 0.8530 0.8528
1963.000000 0.8525 0.8523 0.8521 0.8519 0.8516
1968.000000 0.8514 0.8512 0.8509 0.8507 0.8505
1973.000000 0.8503 0.8500 0.8498 0.8496 0.8494
1978.000000 0.8492 0.8490 0.8488 0.8485 0.8483
1983.000000 0.8481 0.8479 0.8477 0.8475 0.8472
1988.000000 0.8463 0.8454 0.8446 0.8437 0.8429
1993.000000 0.8420 0.8411 0.8403 0.8394 0.8392
1998.000000 0.8392 0.8394 0.8397 0.8413 0.8430
2003.000000 0.8440 0.8450 0.8467 0.8485 0.8502
2008.000000 0.8520 0.8532 0.8544 0.8555 0.8567
2013.000000 0.8578 0.8590 0.8598 0.8606 0.8614
2018.000000 0.8622 0.8629 0.8637 0.8641 0.8645
2023.000000 0.8648 0.8652 0.8656 0.8660 0.8662
2028.000000 0.8664 0.8663 0.8663 0.8662 0.8662
2033.000000 0.8661 0.8661 0.8660 0.8660 0.8659
2038.000000 0.8659 0.8657 0.8655 0.8652 0.8650
2043.000000 0.8647 0.8645 0.8643 0.8641 0.8638
2048.000000 0.8636 0.8634 0.8632 0.8627 0.8623
2053.000000 0.8618 0.8614 0.8610 0.8606 0.8601
2058.000000 0.8597 0.8592 0.8588 0.8584 0.8580
2063.000000 0.8576 0.8572 0.8568 0.8564 0.8560
2068.000000 0.8556 0.8552 0.8548 0.8544 0.8541
2073.000000 0.8537 0.8533 0.8529 0.8525 0.8521
2078.000000 0.8517 0.8513 0.8509 0.8505 0.8501
2083.000000 0.8497 0.8494 0.8490 0.8486 0.8482
2088.000000 0.8478 0.8474 0.8470 0.8466 0.8463
2093.000000 0.8459 0.8455 0.8451 0.8447 0.8443
2098.000000 0.8440 0.8435 0.8431 0.8426 0.8422
2103.000000 0.8418 0.8414 0.8409 0.8405 0.8400
2108.000000 0.8396 0.8391 0.8387 0.8383 0.8379
2113.000000 0.8374 0.8370 0.8365 0.8361 0.8356
2118.000000 0.8352 0.8347 0.8343 0.8339 0.8335
2123.000000 0.8330 0.8326 0.8321 0.8317 0.8312
2128.000000 0.8307 0.8301 0.8296 0.8290 0.8285
2133.000000 0.8279 0.8274 0.8268 0.8263 0.8257
2138.000000 0.8252 0.8246 0.8241 0.8236 0.8231
2143.000000 0.8225 0.8220 0.8214 0.8209 0.8203
2148.000000 0.8198 0.8192 0.8187 0.8181 0.8176
2153.000000 0.8171 0.8166 0.8160 0.8155 0.8149
2158.000000 0.8144 0.8138 0.8133 0.8128 0.8123
2163.000000 0.8118 0.8113 0.8108 0.8103 0.8098
2168.000000 0.8093 0.8088 0.8083 0.8078 0.8073
2173.000000 0.8068 0.8063 0.8058 0.8053 0.8047
2178.000000 0.8042 0.8037 0.8032 0.8027 0.8022
2183.000000 0.8017 0.8012 0.8007 0.8002 0.7997
2188.000000 0.7992 0.7987 0.7982 0.7977 0.7972
2193.000000 0.7967 0.7962 0.7957 0.7952 0.7947
2198.000000 0.7943 0.7938 0.7934 0.7930 0.7926
2203.000000 0.7922 0.7918 0.7913 0.7909 0.7905
2208.000000 0.7901 0.7896 0.7892 0.7888 0.7884
2213.000000 0.7879 0.7875 0.7871 0.7867 0.7862
2218.000000 0.7858 0.7854 0.7850 0.7845 0.7840
2223.000000 0.7834 0.7829 0.7823 0.7817 0.7811
2228.000000 0.7806 0.7800 0.7794 0.7788 0.7783
2233.000000 0.7777 0.7772 0.7766 0.7760 0.7754
2238.000000 0.7749 0.7743 0.7738 0.7732 0.7726
2243.000000 0.7720 0.7715 0.7709 0.7704 0.7698
2248.000000 0.7692 0.7686 0.7681 0.7675 0.7669
2253.000000 0.7663 0.7658 0.7652 0.7647 0.7640
2258.000000 0.7634 0.7627 0.7620 0.7613 0.7607
2263.000000 0.7600 0.7594 0.7587 0.7581 0.7574
2268.000000 0.7568 0.7561 0.7554 0.7547 0.7541
2273.000000 0.7534 0.7528 0.7521 0.7515 0.7508
2278.000000 0.7502 0.7495 0.7488 0.7481 0.7475
2283.000000 0.7468 0.7462 0.7456 0.7450 0.7444
2288.000000 0.7438 0.7432 0.7427 0.7421 0.7416
2293.000000 0.7410 0.7404 0.7398 0.7393 0.7387
2298.000000 0.7382 0.7376 0.7370 0.7364 0.7359
2303.000000 0.7353 0.7347 0.7341 0.7336 0.7330
2308.000000 0.7325 0.7319 0.7313 0.7307 0.7302
2313.000000 0.7296 0.7291 0.7285 0.7279 0.7273
2318.000000 0.7268 0.7262 0.7257 0.7251 0.7245
2323.000000 0.7239 0.7233 0.7227 0.7221 0.7215
2328.000000 0.7209 0.7203 0.7197 0.7191 0.7186
2333.000000 0.7180 0.7174 0.7168 0.7162 0.7156
2338.000000 0.7150 0.7144 0.7138 0.7132 0.7126
2343.000000 0.7120 0.7114 0.7108 0.7103 0.7097
2348.000000 0.7091 0.7085 0.7079 0.7073 0.7067
2353.000000 0.7061 0.7055 0.7049 0.7043 0.7037
2358.000000 0.7032 0.7026 0.7020 0.7014 0.7008
2363.000000 0.7000 0.6993 0.6985 0.6977 0.6969
2368.000000 0.6961 0.6953 0.6945 0.6936 0.6928
2373.000000 0.6920 0.6912 0.6904 0.6896 0.6888
2378.000000 0.6880 0.6872 0.6864 0.6856 0.6848
2383.000000 0.6840 0.6832 0.6823 0.6815 0.6807
2388.000000 0.6799 0.6791 0.6783 0.6774 0.6766
2393.000000 0.6757 0.6749 0.6741 0.6733 0.6725
2398.000000 0.6717 0.6711 0.6705 0.6699 0.6694
2403.000000 0.6688 0.6683 0.6677 0.6671 0.6665
2408.000000 0.6660 0.6654 0.6648 0.6642 0.6637
2413.000000 0.6631 0.6625 0.6619 0.6614 0.6608
2418.000000 0.6603 0.6597 0.6591 0.6585 0.6580
2423.000000 0.6574 0.6568 0.6562 0.6557 0.6552
2428.000000 0.6548 0.6544 0.6540 0.6536 0.6532
2433.000000 0.6528 0.6524 0.6519 0.6515 0.6511
2438.000000 0.6507 0.6503 0.6499 0.6495 0.6491
2443.000000 0.6490 0.6490 0.6489 0.6488 0.6487
2448.000000 0.6487 0.6486 0.6486 0.6479 0.6472
2453.000000 0.6463 0.6454 0.6445 0.6436 0.6425
2458.000000 0.6415 0.6404 0.6394 0.6383 0.6372
2463.000000 0.6361 0.6351 0.6331 0.6312 0.6316
2468.000000 0.6333 0.6323 0.6327 0.6330 0.6334
2473.000000 0.6337 0.6341 0.6344 0.6348 0.6351
2478.000000 0.6355 0.6362 0.6369 0.6378 0.6387
2483.000000 0.6395 0.6404 0.6412 0.6421 0.6430
2488.000000 0.6440 0.6451 0.6463 0.6474 0.6486
2493.000000 0.6497 0.6508 0.6519 0.6531 0.6542
2498.000000 0.6553 0.6564 0.6575 0.6586 0.6598
2503.000000 0.6609 0.6621 0.6635 0.6649 0.6663
2508.000000 0.6678 0.6696 0.6714 0.6734 0.6755
2513.000000 0.6766 0.6778 0.6788 0.6799 0.6809
2518.000000 0.6820 0.6830 0.6841 0.6846 0.6852
2523.000000 0.6856 0.6861 0.6864 0.6868 0.6868
2528.000000 0.6869 0.6870 0.6871 0.6871 0.6872
2533.000000 0.6872 0.6873 0.6872 0.6871 0.6870
2538.000000 0.6869 0.6868 0.6867 0.6856 0.6846
2543.000000 0.6834 0.6822 0.6819 0.6816 0.6813
2548.000000 0.6810 0.6807 0.6804 0.6802 0.6800
2553.000000 0.6809 0.6818 0.6826 0.6835 0.6843
2558.000000 0.6851 0.6860 0.6869 0.6878 0.6887
2563.000000 0.6896 0.6905 0.6910 0.6915 0.6914
2568.000000 0.6914 0.6913 0.6913 0.6910 0.6907
2573.000000 0.6904 0.6901 0.6897 0.6894 0.6891
2578.000000 0.6888 0.6888 0.6889 0.6889 0.6889
2583.000000 0.6889 0.6889 0.6892 0.6895 0.6898
2588.000000 0.6902 0.6905 0.6908 0.6915 0.6922
2593.000000 0.6929 0.6937 0.6944 0.6952 0.6958
2598.000000 0.6965 0.6972 0.6979 0.6986 0.6993
2603.000000 0.6998 0.7004 0.7004 0.7005 0.7005
2608.000000 0.7006 0.7006 0.7007 0.7007 0.7008
2613.000000 0.7008 0.7008 0.7008 0.7009 0.7010
2618.000000 0.7011 0.7011 0.7012 0.7012 0.7013
2623.000000 0.7013 0.7014 0.7016 0.7019 0.7022
2628.000000 0.7025 0.7028 0.7031 0.7034 0.7037
2633.000000 0.7040 0.7043 0.7046 0.7050 0.7053
2638.000000 0.7057 0.7062 0.7067 0.7072 0.7078
2643.000000 0.7083 0.7088 0.7093 0.7099 0.7104
2648.000000 0.7109 0.7114 0.7119 0.7122 0.7126
2653.000000 0.7129 0.7133 0.7136 0.7139 0.7142
2658.000000 0.7146 0.7149 0.7153 0.7158 0.7164
2663.000000 0.7169 0.7175 0.7181 0.7187 0.7193
2668.000000 0.7199 0.7205 0.7211 0.7217 0.7223
2673.000000 0.7229 0.7235 0.7241 0.7247 0.7253
2678.000000 0.7259 0.7264 0.7270 0.7276 0.7282
2683.000000 0.7289 0.7297 0.7304 0.7311 0.7318
2688.000000 0.7326 0.7333 0.7341 0.7348 0.7355
2693.000000 0.7362 0.7370 0.7377 0.7384 0.7390
2698.000000 0.7396 0.7401 0.7407 0.7413 0.7419
2703.000000 0.7425 0.7431 0.7436 0.7442 0.7448
2708.000000 0.7454 0.7459 0.7465 0.7471 0.7477
2713.000000 0.7482 0.7487 0.7490 0.7493 0.7496
2718.000000 0.7500 0.7503 0.7506 0.7507 0.7509
2723.000000 0.7510 0.7511 0.7511 0.7512 0.7512
2728.000000 0.7513 0.7514 0.7515 0.7515 0.7516
2733.000000 0.7516 0.7517 0.7518 0.7519 0.7519
2738.000000 0.7520 0.7520 0.7521 0.7522 0.7523
2743.000000 0.7523 0.7524 0.7524 0.7525 0.7526
2748.000000 0.7527 0.7527 0.7525 0.7528 0.7528
2753.000000 0.7527 0.7526 0.7525 0.7525 0.7524
2758.000000 0.7523 0.7522 0.7522 0.7521 0.7520
2763.000000 0.7519 0.7518 0.7517 0.7516 0.7514
2768.000000 0.7513 0.7511 0.7510 0.7508 0.7507
2773.000000 0.7505 0.7504 0.7502 0.7501 0.7500
2778.000000 0.7499 0.7497 0.7496 0.7494 0.7493
2783.000000 0.7491 0.7490 0.7488 0.7487 0.7485
2788.000000 0.7484 0.7483 0.7482 0.7479 0.7477
2793.000000 0.7474 0.7472 0.7469 0.7467 0.7464
2798.000000 0.7462 0.7459 0.7457 0.7454 0.7451
2803.000000 0.7448 0.7446 0.7443 0.7441 0.7438
2808.000000 0.7436 0.7433 0.7430 0.7427 0.7424
2813.000000 0.7420 0.7417 0.7413 0.7409 0.7405
2818.000000 0.7402 0.7398 0.7395 0.7391 0.7387
2823.000000 0.7383 0.7380 0.7376 0.7373 0.7369
2828.000000 0.7365 0.7361 0.7358 0.7354 0.7351
2833.000000 0.7347 0.7343 0.7339 0.7336 0.7332
2838.000000 0.7328 0.7324 0.7320 0.7315 0.7311
2843.000000 0.7307 0.7303 0.7299 0.7295 0.7290
2848.000000 0.7286 0.7282 0.7278 0.7273 0.7269
2853.000000 0.7265 0.7261 0.7256 0.7252 0.7248
2858.000000 0.7244 0.7239 0.7235 0.7231 0.7227
2863.000000 0.7223 0.7219 0.7215 0.7211 0.7207
2868.000000 0.7204 0.7200 0.7197 0.7193 0.7190
2873.000000 0.7186 0.7183 0.7179 0.7176 0.7172
2878.000000 0.7168 0.7164 0.7161 0.7160 0.7159
2883.000000 0.7158 0.7158 0.7157 0.7156 0.7155
2888.000000 0.7154 0.7153 0.7153 0.7152 0.7151
2893.000000 0.7150 0.7149 0.7142 0.7136 0.7127
2898.000000 0.7118 0.7109 0.7101 0.7092 0.7083
2903.000000 0.7074 0.7066 0.7057 0.7049 0.7040
2908.000000 0.7032 0.7023 0.7015 0.7006 0.6998
2913.000000 0.6989 0.6981 0.6972 0.6964 0.6957
2918.000000 0.6951 0.6944 0.6938 0.6932 0.6926
2923.000000 0.6919 0.6913 0.6907 0.6901 0.6894
2928.000000 0.6888 0.6883 0.6879 0.6881 0.6883
2933.000000 0.6884 0.6885 0.6883 0.6882 0.6881
2938.000000 0.6880 0.6865 0.6851 0.6836 0.6822
2943.000000 0.6804 0.6787 0.6765 0.6743 0.6721
2948.000000 0.6700 0.6683 0.6666 0.6649 0.6633
2953.000000 0.6617 0.6602 0.6601 0.6600 0.6600
2958.000000 0.6610 0.6607 0.6614 0.6629 0.6644
2963.000000 0.6662 0.6681 0.6708 0.6736 0.6779
2968.000000 0.6822 0.6853 0.6885 0.6909 0.6933
2973.000000 0.6951 0.6969 0.6982 0.6995 0.6998
2978.000000 0.6997 0.7001 0.7001 0.6993 0.6986
2983.000000 0.6978 0.6970 0.6962 0.6955 0.6947
2988.000000 0.6939 0.6931 0.6923 0.6915 0.6907
2993.000000 0.6898 0.6889 0.6880 0.6871 0.6869
2998.000000 0.6868 0.6866 0.6864 0.6864 0.6864
3003.000000 0.6867 0.6871 0.6874 0.6878 0.6881
3008.000000 0.6885 0.6888 0.6892 0.6890 0.6889
3013.000000 0.6887 0.6885 0.6883 0.6881 0.6878
3018.000000 0.6875 0.6871 0.6867 0.6863 0.6859
3023.000000 0.6855 0.6851 0.6846 0.6842 0.6839
3028.000000 0.6836 0.6834 0.6833 0.6831 0.6830
3033.000000 0.6829 0.6828 0.6826 0.6825 0.6824
3038.000000 0.6823 0.6820 0.6818 0.6810 0.6803
3043.000000 0.6795 0.6788 0.6780 0.6772 0.6765
3048.000000 0.6759 0.6753 0.6747 0.6741 0.6736
3053.000000 0.6730 0.6724 0.6718 0.6713 0.6716
3058.000000 0.6719 0.6723 0.6727 0.6735 0.6744
3063.000000 0.6752 0.6760 0.6768 0.6776 0.6784
3068.000000 0.6792 0.6799 0.6807 0.6811 0.6815
3073.000000 0.6819 0.6823 0.6827 0.6831 0.6835
3078.000000 0.6839 0.6842 0.6846 0.6849 0.6852
3083.000000 0.6855 0.6858 0.6861 0.6864 0.6867
3088.000000 0.6871 0.6874 0.6877 0.6879 0.6881
3093.000000 0.6880 0.6880 0.6880 0.6880 0.6879
3098.000000 0.6879 0.6878 0.6878 0.6877 0.6877
3103.000000 0.6876 0.6876 0.6873 0.6871 0.6867
3108.000000 0.6864 0.6861 0.6858 0.6854 0.6851
3113.000000 0.6847 0.6844 0.6841 0.6838 0.6834
3118.000000 0.6831 0.6828 0.6825 0.6822 0.6819
3123.000000 0.6816 0.6814 0.6811 0.6809 0.6806
3128.000000 0.6803 0.6800 0.6798 0.6795 0.6792
3133.000000 0.6789 0.6787 0.6784 0.6782 0.6779
3138.000000 0.6776 0.6773 0.6771 0.6769 0.6767
3143.000000 0.6765 0.6763 0.6761 0.6760 0.6758
3148.000000 0.6756 0.6754 0.6752 0.6750 0.6748
3153.000000 0.6746 0.6744 0.6740 0.6737 0.6734
3158.000000 0.6731 0.6728 0.6725 0.6722 0.6719
3163.000000 0.6715 0.6712 0.6706 0.6701 0.6695
3168.000000 0.6689 0.6683 0.6678 0.6672 0.6666
3173.000000 0.6661 0.6657 0.6652 0.6648 0.6643
3178.000000 0.6639 0.6634 0.6630 0.6625 0.6621
3183.000000 0.6616 0.6612 0.6607 0.6603 0.6598
3188.000000 0.6594 0.6589 0.6585 0.6580 0.6576
3193.000000 0.6571 0.6567 0.6562 0.6558 0.6553
3198.000000 0.6548 0.6542 0.6537 0.6532 0.6527
3203.000000 0.6521 0.6516 0.6511 0.6506 0.6500
3208.000000 0.6495 0.6490 0.6485 0.6480 0.6475
3213.000000 0.6469 0.6464 0.6459 0.6454 0.6448
3218.000000 0.6443 0.6438 0.6433 0.6427 0.6422
3223.000000 0.6417 0.6412 0.6406 0.6401 0.6395
3228.000000 0.6390 0.6382 0.6375 0.6367 0.6359
3233.000000 0.6351 0.6344 0.6336 0.6328 0.6320
3238.000000 0.6313 0.6305 0.6298 0.6290 0.6282
3243.000000 0.6274 0.6267 0.6259 0.6251 0.6243
3248.000000 0.6236 0.6228 0.6221 0.6213 0.6205
3253.000000 0.6197 0.6190 0.6182 0.6175 0.6167
3258.000000 0.6159 0.6151 0.6144 0.6134 0.6125
3263.000000 0.6115 0.6106 0.6096 0.6087 0.6077
3268.000000 0.6068 0.6058 0.6049 0.6039 0.6030
3273.000000 0.6020 0.6011 0.6001 0.5992 0.5984
3278.000000 0.5976 0.5968 0.5960 0.5952 0.5945
3283.000000 0.5937 0.5929 0.5922 0.5915 0.5912
3288.000000 0.5909 0.5905 0.5902 0.5899 0.5896
3293.000000 0.5895 0.5892 0.5897 0.5901 0.5904
3298.000000 0.5908 0.5916 0.5925 0.5938 0.5951
3303.000000 0.5962 0.5974 0.5985 0.5997 0.6008
3308.000000 0.6020 0.6032 0.6044 0.6055 0.6067
3313.000000 0.6078 0.6090 0.6101 0.6113 0.6124
3318.000000 0.6136 0.6147 0.6159 0.6170 0.6181
3323.000000 0.6192 0.6204 0.6215 0.6226 0.6237
3328.000000 0.6248 0.6259 0.6271 0.6281 0.6292
3333.000000 0.6302 0.6313 0.6323 0.6334 0.6344
3338.000000 0.6355 0.6365 0.6376 0.6385 0.6395
3343.000000 0.6403 0.6412 0.6420 0.6429 0.6438
3348.000000 0.6447 0.6455 0.6464 0.6471 0.6479
3353.000000 0.6481 0.6484 0.6486 0.6489 0.6491
3358.000000 0.6494 0.6496 0.6499 0.6501 0.6504
3363.000000 0.6506 0.6509 0.6511 0.6514 0.6516
3368.000000 0.6519 0.6521 0.6524 0.6526 0.6529
3373.000000 0.6531 0.6534 0.6536 0.6539 0.6541
3378.000000 0.6544 0.6546 0.6549 0.6551 0.6553
3383.000000 0.6553 0.6554 0.6554 0.6554 0.6554
3388.000000 0.6555 0.6555 0.6555 0.6555 0.6555
3393.000000 0.6555 0.6556 0.6556 0.6556 0.6556
3398.000000 0.6557 0.6557 0.6557 0.6557 0.6557
3403.000000 0.6557 0.6557 0.6557 0.6557 0.6557
3408.000000 0.6557 0.6557 0.6557 0.6557 0.6557
3413.000000 0.6557 0.6557 0.6557 0.6557 0.6557
3418.000000 0.6557 0.6557 0.6557 0.6557 0.6557
3423.000000 0.6559 0.6562 0.6565 0.6568 0.6571
3428.000000 0.6575 0.6578 0.6581 0.6584 0.6587
3433.000000 0.6590 0.6593 0.6596 0.6600 0.6603
3438.000000 0.6606 0.6609 0.6612 0.6615 0.6619
3443.000000 0.6623 0.6628 0.6632 0.6637 0.6641
3448.000000 0.6646 0.6650 0.6655 0.6659 0.6664
3453.000000 0.6668 0.6673 0.6677 0.6682 0.6686
3458.000000 0.6690 0.6691 0.6692 0.6693 0.6694
3463.000000 0.6695 0.6697 0.6698 0.6699 0.6700
3468.000000 0.6701 0.6702 0.6703 0.6704 0.6706
3473.000000 0.6707 0.6708 0.6709 0.6710 0.6711
3478.000000 0.6713 0.6714 0.6715 0.6716 0.6717
3483.000000 0.6718 0.6719 0.6720 0.6722 0.6723
3488.000000 0.6724 0.6725 0.6726 0.6727 0.6728
3493.000000 0.6728 0.6728 0.6728 0.6728 0.6728
3498.000000 0.6728 0.6728 0.6728 0.6728 0.6728
3503.000000 0.6728 0.6728 0.6728 0.6728 0.6727
3508.000000 0.6727 0.6727 0.6727 0.6727 0.6727
3513.000000 0.6727 0.6727 0.6727 0.6727 0.6727
3518.000000 0.6727 0.6727 0.6727 0.6726 0.6726
3523.000000 0.6726 0.6726 0.6726 0.6726 0.6726
3528.000000 0.6726 0.6726 0.6726 0.6726 0.6726
3533.000000 0.6726 0.6726 0.6726 0.6726 0.6725
3538.000000 0.6725 0.6724 0.6724 0.6723 0.6723
3543.000000 0.6722 0.6722 0.6721 0.6721 0.6720
3548.000000 0.6720 0.6720 0.6720 0.6719 0.6719
3553.000000 0.6718 0.6718 0.6717 0.6717 0.6716
3558.000000 0.6716 0.6715 0.6715 0.6714 0.6714
3563.000000 0.6713 0.6713 0.6712 0.6712 0.6711
3568.000000 0.6711 0.6710 0.6710 0.6710 0.6710
3573.000000 0.6709 0.6709 0.6708 0.6708 0.6707
3578.000000 0.6707 0.6706 0.6706 0.6705 0.6705
3583.000000 0.6704 0.6704 0.6703 0.6703 0.6702
3588.000000 0.6702 0.6701 0.6701 0.6701 0.6701
3593.000000 0.6700 0.6700 0.6700 0.6700 0.6699
3598.000000 0.6699 0.6699 0.6699 0.6698 0.6698
3603.000000 0.6698 0.6698 0.6697 0.6697 0.6696
3608.000000 0.6696 0.6696 0.6696 0.6695 0.6695
3613.000000 0.6695 0.6695 0.6694 0.6694 0.6694
3618.000000 0.6694 0.6693 0.6693 0.6692 0.6692
3623.000000 0.6692 0.6692 0.6691 0.6691 0.6691
3628.000000 0.6691 0.6690 0.6690 0.6690 0.6690
3633.000000 0.6689 0.6689 0.6688 0.6688 0.6688
3638.000000 0.6688 0.6687 0.6687 0.6687 0.6687
3643.000000 0.6686 0.6686 0.6685 0.6685 0.6684
3648.000000 0.6684 0.6683 0.6683 0.6682 0.6682
3653.000000 0.6681 0.6680 0.6679 0.6679 0.6678
3658.000000 0.6678 0.6677 0.6677 0.6676 0.6675
3663.000000 0.6674 0.6674 0.6673 0.6673 0.6672
3668.000000 0.6672 0.6671 0.6670 0.6669 0.6669
3673.000000 0.6668 0.6668 0.6667 0.6688 0.6665
3678.000000 0.6665 0.6664 0.6664 0.6663 0.6663
3683.000000 0.6662 0.6661 0.6660 0.6660 0.6659
3688.000000 0.6659 0.6658 0.6658 0.6657 0.6656
3693.000000 0.6655 0.6655 0.6654 0.6654 0.6653
3698.000000 0.6652 0.6651 0.6651 0.6650 0.6649
3703.000000 0.6648 0.6648 0.6647 0.6647 0.6646
3708.000000 0.6645 0.6644 0.6644 0.6643 0.6642
3713.000000 0.6641 0.6641 0.6640 0.6640 0.6639
3718.000000 0.6638 0.6637 0.6637 0.6636 0.6635
3723.000000 0.6634 0.6634 0.6633 0.6633 0.6632
3728.000000 0.6631 0.6630 0.6630 0.6629 0.6628
3733.000000 0.6627 0.6627 0.6626 0.6626 0.6625
3738.000000 0.6624 0.6623 0.6623 0.6622 0.6621
3743.000000 0.6620 0.6620 0.6619 0.6618 0.6617
3748.000000 0.6617 0.6616 0.6616 0.6615 0.6614
3753.000000 0.6613 0.6612 0.6610 0.6609 0.6607
3758.000000 0.6606 0.6604 0.6603 0.6601 0.6600
3763.000000 0.6598 0.6597 0.6595 0.6594 0.6592
3768.000000 0.6591 0.6589 0.6588 0.6586 0.6585
3773.000000 0.6583 0.6582 0.6580 0.6578 0.6576
3778.000000 0.6575 0.6573 0.6572 0.6571 0.6570
3783.000000 0.6569 0.6568 0.6567 0.6566 0.6565
3788.000000 0.6564 0.6563 0.6563 0.6562 0.6561
3793.000000 0.6560 0.6559 0.6558 0.6557 0.6556
3798.000000 0.6556 0.6555 0.6555
##END=
