##TITLE=Metanilic acid, N-(2,4-dinitrophenyl)-6-hydroxy-, sodium salt
##JCAMP-DX=4.24
##DATA TYPE=INFRARED SPECTRUM
##CLASS=COBLENTZ III
##ORIGIN=DOW CHEMICAL COMPANY
##OWNER=COBLENTZ SOC.
Collection (C) 2018 copyright by the U.S. Secretary of Commerce
on behalf of the United States of America. All rights reserved.
##DATE=1964/08/25
##MOLFORM=C12 H8 N3 Na O8 S
##SOURCE REFERENCE=COBLENTZ NO. 07194
##$NIST ID=B6007194
##$NIST SOURCE=COBLENTZ
##$NIST IMAGE=cob7194
##SPECTROMETER/DATA SYSTEM=DOW KBr FOREPRISM-GRATING
##INSTRUMENT PARAMETERS=BLAZED AT 3.5, 12.0, 20.0 MICRON AND CHANGED AT 5.0, 7.5, 14.9 MICRON
##STATE=SOLID (SPLIT MULL), FLUOROLUBE FOR 3800-1330 CM^-^1, NUJOL FOR 1330-450 CM^-^1
##SAMPLING PROCEDURE=TRANSMISSION
##RESOLUTION=2
##DATA PROCESSING=DIGITIZED BY COBLENTZ SOCIETY (BATCH I) FROM HARD COPY
##XUNITS=1/CM
##YUNITS=TRANSMITTANCE
##XLABEL=Wavenumbers (cm-1)
##YLABEL=% Transmission
##XFACTOR=1
##YFACTOR=1
##DELTAX=1
##FIRSTX=458
##LASTX=3796
##FIRSTY=0.8019
##MAXX=3796
##MINX=458
##MAXY=0.9105
##MINY=0.0343
##NPOINTS=3339
##XYDATA=(X++(Y..Y))
458.000000 0.8019 0.8036 0.8051 0.8065 0.8078
463.000000 0.8091 0.8103 0.8115 0.8125 0.8135
468.000000 0.8145 0.8150 0.8153 0.8155 0.8158
473.000000 0.8160 0.8158 0.8158 0.8156 0.8155
478.000000 0.8149 0.8140 0.8131 0.8118 0.8100
483.000000 0.8082 0.8046 0.8011 0.7964 0.7906
488.000000 0.7842 0.7771 0.7621 0.7451 0.7318
493.000000 0.7195 0.7082 0.6846 0.6512 0.6181
498.000000 0.5848 0.5515 0.5182 0.5033 0.5248
503.000000 0.5639 0.6031 0.6421 0.6812 0.7172
508.000000 0.7175 0.7195 0.6999 0.6739 0.6478
513.000000 0.6218 0.5958 0.5697 0.5504 0.5510
518.000000 0.5765 0.5973 0.6181 0.6389 0.6596
523.000000 0.6680 0.6761 0.6999 0.7236 0.7472
528.000000 0.7710 0.7772 0.7740 0.7618 0.7401
533.000000 0.7186 0.6969 0.6755 0.6707 0.6818
538.000000 0.7007 0.7196 0.7385 0.7447 0.7448
543.000000 0.7450 0.7555 0.7768 0.7983 0.8196
548.000000 0.8410 0.8603 0.8668 0.8702 0.8713
553.000000 0.8707 0.8699 0.8689 0.8668 0.8636
558.000000 0.8556 0.8483 0.8348 0.8182 0.8017
563.000000 0.7955 0.7951 0.8051 0.8168 0.8286
568.000000 0.8403 0.8520 0.8637 0.8754 0.8765
573.000000 0.8770 0.8763 0.8765 0.8759 0.8749
578.000000 0.8738 0.8721 0.8705 0.8684 0.8661
583.000000 0.8637 0.8611 0.8585 0.8554 0.8524
588.000000 0.8483 0.8431 0.8383 0.8335 0.8275
593.000000 0.8207 0.8101 0.7983 0.7837 0.7739
598.000000 0.7675 0.7610 0.7515 0.7426 0.7360
603.000000 0.7292 0.7228 0.7215 0.7204 0.7192
608.000000 0.7180 0.7169 0.7161 0.7151 0.7143
613.000000 0.7125 0.7096 0.7056 0.7012 0.6972
618.000000 0.6935 0.6896 0.6834 0.6747 0.6640
623.000000 0.6503 0.6357 0.6200 0.6065 0.5935
628.000000 0.5791 0.4876 0.4660 0.4218 0.3729
633.000000 0.3239 0.2768 0.2779 0.2908 0.3416
638.000000 0.3924 0.4432 0.4940 0.5448 0.5957
643.000000 0.6369 0.6578 0.6825 0.6987 0.7055
648.000000 0.7078 0.7083 0.7091 0.7065 0.7019
653.000000 0.6862 0.6718 0.6587 0.6442 0.6279
658.000000 0.6145 0.5964 0.5145 0.4326 0.3616
663.000000 0.3505 0.3436 0.3444 0.3458 0.3898
668.000000 0.4328 0.4758 0.5188 0.5618 0.5774
673.000000 0.5825 0.5872 0.5906 0.5928 0.5920
678.000000 0.5908 0.5858 0.5765 0.5642 0.5497
683.000000 0.5398 0.5319 0.5288 0.5302 0.5316
688.000000 0.5392 0.5538 0.6185 0.6471 0.6980
693.000000 0.7025 0.7040 0.7038 0.7074 0.6895
698.000000 0.6747 0.6625 0.6521 0.6417 0.6285
703.000000 0.6125 0.5851 0.5426 0.5052 0.4678
708.000000 0.4304 0.3930 0.3556 0.3182 0.3172
713.000000 0.3176 0.3492 0.3778 0.4064 0.4351
718.000000 0.4440 0.4484 0.4662 0.5093 0.5254
723.000000 0.5417 0.5604 0.5810 0.5954 0.6065
728.000000 0.6221 0.6468 0.6718 0.6965 0.7321
733.000000 0.7441 0.7526 0.7508 0.7507 0.7449
738.000000 0.7043 0.6628 0.6212 0.5797 0.5520
743.000000 0.5424 0.5362 0.5306 0.4901 0.4424
748.000000 0.3947 0.3568 0.3554 0.6091 0.6865
753.000000 0.7167 0.7540 0.7825 0.8042 0.8224
758.000000 0.8416 0.8578 0.8692 0.8767 0.8789
763.000000 0.8778 0.8761 0.8635 0.8460 0.8365
768.000000 0.8248 0.8194 0.8205 0.8320 0.8423
773.000000 0.8536 0.8675 0.9092 0.9101 0.9101
778.000000 0.9101 0.9082 0.9081 0.9068 0.9056
783.000000 0.9042 0.9021 0.9000 0.8965 0.8915
788.000000 0.8858 0.8692 0.8414 0.8257 0.8192
793.000000 0.8188 0.8221 0.8299 0.8387 0.8566
798.000000 0.8795 0.8995 0.9078 0.9100 0.9104
803.000000 0.9104 0.9105 0.9099 0.9093 0.9083
808.000000 0.9063 0.9031 0.8988 0.8921 0.8753
813.000000 0.8213 0.7803 0.7050 0.6031 0.5012
818.000000 0.3992 0.3838 0.4295 0.6556 0.7568
823.000000 0.8022 0.8130 0.8165 0.8176 0.8187
828.000000 0.8194 0.8200 0.8283 0.8342 0.8365
833.000000 0.8365 0.8361 0.8345 0.8332 0.8328
838.000000 0.8346 0.8471 0.8553 0.8560 0.8570
843.000000 0.8540 0.8491 0.8414 0.8244 0.8215
848.000000 0.8228 0.8246 0.8651 0.8905 0.8959
853.000000 0.8981 0.8996 0.9009 0.9025 0.9046
858.000000 0.9060 0.9071 0.9071 0.9070 0.9057
863.000000 0.9036 0.9003 0.8945 0.8874 0.8794
868.000000 0.8701 0.8584 0.8439 0.8178 0.7425
873.000000 0.6674 0.5935 0.5935 0.5935 0.6511
878.000000 0.7000 0.7489 0.7976 0.8395 0.8520
883.000000 0.8623 0.8675 0.8714 0.8737 0.8745
888.000000 0.8744 0.8743 0.8737 0.8731 0.8725
893.000000 0.8720 0.8711 0.8701 0.8691 0.8680
898.000000 0.8660 0.8639 0.8618 0.8601 0.8583
903.000000 0.8564 0.8539 0.8513 0.8475 0.8414
908.000000 0.8347 0.8265 0.8172 0.8049 0.7928
913.000000 0.7804 0.7631 0.7548 0.7551 0.7511
918.000000 0.7581 0.7653 0.7756 0.7938 0.8171
923.000000 0.8291 0.8325 0.8349 0.8356 0.8355
928.000000 0.8353 0.8336 0.8320 0.8299 0.8270
933.000000 0.8204 0.8124 0.8021 0.7884 0.7597
938.000000 0.7294 0.6938 0.6939 0.7051 0.7198
943.000000 0.7326 0.7338 0.7211 0.7006 0.6799
948.000000 0.6704 0.6851 0.7098 0.7345 0.7591
953.000000 0.7838 0.7903 0.8018 0.8096 0.8142
958.000000 0.8143 0.8171 0.8168 0.8168 0.8165
963.000000 0.8160 0.8148 0.8134 0.8119 0.8103
968.000000 0.8085 0.8068 0.8051 0.8035 0.8019
973.000000 0.8005 0.7990 0.7974 0.7958 0.7942
978.000000 0.7925 0.7906 0.7888 0.7868 0.7851
983.000000 0.7832 0.7811 0.7789 0.7767 0.7745
988.000000 0.7722 0.7701 0.7678 0.7656 0.7633
993.000000 0.7610 0.7581 0.7550 0.7518 0.7483
998.000000 0.7432 0.7380 0.7324 0.7265 0.7207
1003.000000 0.7148 0.7088 0.7026 0.6946 0.6854
1008.000000 0.6761 0.6654 0.6544 0.6424 0.6302
1013.000000 0.5948 0.5794 0.5603 0.5299 0.4024
1018.000000 0.3326 0.2628 0.1690 0.1690 0.1895
1023.000000 0.2510 0.3123 0.3737 0.4350 0.4964
1028.000000 0.5470 0.5971 0.6219 0.6401 0.6551
1033.000000 0.6661 0.6730 0.6797 0.6842 0.6869
1038.000000 0.6894 0.6908 0.6908 0.6921 0.6921
1043.000000 0.6915 0.6900 0.6855 0.6822 0.6791
1048.000000 0.6741 0.6658 0.6587 0.6515 0.6445
1053.000000 0.6360 0.6269 0.6181 0.6097 0.6001
1058.000000 0.5866 0.5784 0.5698 0.5580 0.5422
1063.000000 0.5172 0.4983 0.4803 0.4356 0.3898
1068.000000 0.3549 0.3550 0.3545 0.3772 0.4118
1073.000000 0.4465 0.4582 0.4603 0.4616 0.4596
1078.000000 0.4575 0.4510 0.4407 0.4082 0.3602
1083.000000 0.3122 0.2643 0.2270 0.2258 0.2276
1088.000000 0.2475 0.2684 0.2894 0.3104 0.3312
1093.000000 0.3522 0.3720 0.3756 0.3770 0.3768
1098.000000 0.3764 0.3782 0.3650 0.3546 0.3442
1103.000000 0.3337 0.3232 0.3128 0.3024 0.2920
1108.000000 0.2815 0.2711 0.2606 0.2502 0.2398
1113.000000 0.2293 0.2189 0.2081 0.1978 0.1911
1118.000000 0.1844 0.1764 0.1683 0.1604 0.1533
1123.000000 0.1462 0.1391 0.1327 0.1263 0.1199
1128.000000 0.1126 0.1051 0.0976 0.0902 0.0826
1133.000000 0.0753 0.0684 0.0616 0.0562 0.0515
1138.000000 0.0515 0.0514 0.0528 0.0564 0.0632
1143.000000 0.0729 0.0871 0.1065 0.1396 0.1469
1148.000000 0.1494 0.1463 0.1421 0.1368 0.1324
1153.000000 0.1279 0.1222 0.1131 0.1013 0.0911
1158.000000 0.0822 0.0739 0.0648 0.0528 0.0380
1163.000000 0.0363 0.0358 0.0358 0.0343 0.0396
1168.000000 0.0452 0.0502 0.0746 0.0989 0.1233
1173.000000 0.1396 0.1832 0.2092 0.2347 0.2485
1178.000000 0.2622 0.2720 0.2804 0.2889 0.2965
1183.000000 0.3035 0.3108 0.3179 0.3245 0.3309
1188.000000 0.3376 0.3428 0.3478 0.3528 0.3555
1193.000000 0.3550 0.3548 0.3540 0.3559 0.3473
1198.000000 0.3377 0.3282 0.3185 0.3091 0.2995
1203.000000 0.2900 0.2805 0.2709 0.2614 0.2518
1208.000000 0.2423 0.2328 0.2232 0.2131 0.2020
1213.000000 0.2018 0.2007 0.2064 0.2104 0.2148
1218.000000 0.2148 0.2138 0.2163 0.1920 0.1841
1223.000000 0.1759 0.1684 0.1613 0.1540 0.1467
1228.000000 0.1399 0.1334 0.1278 0.1260 0.1254
1233.000000 0.1255 0.1246 0.1279 0.1310 0.1358
1238.000000 0.1523 0.1613 0.1722 0.1777 0.1777
1243.000000 0.1778 0.1795 0.1745 0.1716 0.1675
1248.000000 0.1617 0.1553 0.1502 0.1446 0.1361
1253.000000 0.1287 0.1220 0.1153 0.1081 0.1004
1258.000000 0.0981 0.0991 0.1008 0.1176 0.1344
1263.000000 0.1512 0.1653 0.1734 0.1829 0.1944
1268.000000 0.2094 0.2491 0.3156 0.3609 0.4003
1273.000000 0.4178 0.4260 0.4293 0.4338 0.4298
1278.000000 0.4275 0.4169 0.4114 0.4052 0.3980
1283.000000 0.3934 0.3890 0.3850 0.3812 0.3718
1288.000000 0.3618 0.3495 0.3380 0.3273 0.3157
1293.000000 0.3037 0.2913 0.2770 0.2615 0.2462
1298.000000 0.2410 0.2394 0.2385 0.2379 0.2372
1303.000000 0.2082 0.1969 0.1853 0.1731 0.1608
1308.000000 0.1477 0.1344 0.1192 0.1041 0.0910
1313.000000 0.0846 0.0803 0.0785 0.0811 0.0798
1318.000000 0.0817 0.0842 0.0892 0.1052 0.1374
1323.000000 0.1485 0.1596 0.1713 0.1829 0.1925
1328.000000 0.1920 0.1913 0.1818 0.1727 0.1665
1333.000000 0.1836 0.2071 0.2183 0.2209 0.2237
1338.000000 0.2262 0.2285 0.2312 0.2378 0.2494
1343.000000 0.2769 0.2933 0.3125 0.3318 0.3509
1348.000000 0.3692 0.3830 0.3992 0.4180 0.4389
1353.000000 0.4662 0.4884 0.5099 0.5184 0.5228
1358.000000 0.5249 0.5270 0.5284 0.5299 0.5312
1363.000000 0.5328 0.5334 0.5340 0.5346 0.5362
1368.000000 0.5395 0.5456 0.5512 0.5569 0.5641
1373.000000 0.5712 0.5838 0.5999 0.6143 0.6178
1378.000000 0.6199 0.6162 0.6149 0.6115 0.6052
1383.000000 0.5986 0.5920 0.5865 0.5830 0.5796
1388.000000 0.5776 0.5768 0.5762 0.5762 0.5762
1393.000000 0.5762 0.5760 0.5759 0.5757 0.5755
1398.000000 0.5753 0.5751 0.5732 0.5710 0.5691
1403.000000 0.5670 0.5644 0.5610 0.5576 0.5542
1408.000000 0.5509 0.5467 0.5419 0.5371 0.5310
1413.000000 0.5249 0.5188 0.5123 0.5058 0.4995
1418.000000 0.4933 0.4871 0.4810 0.4756 0.4702
1423.000000 0.4647 0.4586 0.4515 0.4446 0.4402
1428.000000 0.4366 0.4393 0.4406 0.4425 0.4488
1433.000000 0.4543 0.4599 0.4676 0.4797 0.4916
1438.000000 0.5067 0.5142 0.5214 0.5244 0.5253
1443.000000 0.5262 0.5269 0.5297 0.5279 0.5278
1448.000000 0.5276 0.5273 0.5268 0.5262 0.5259
1453.000000 0.5240 0.5221 0.5202 0.5174 0.5136
1458.000000 0.5087 0.5038 0.4983 0.4924 0.4862
1463.000000 0.4789 0.4694 0.4584 0.4408 0.4312
1468.000000 0.4270 0.4239 0.4209 0.4183 0.4158
1473.000000 0.4127 0.4078 0.4028 0.3979 0.3929
1478.000000 0.3846 0.3721 0.3609 0.3502 0.3366
1483.000000 0.3022 0.2781 0.2282 0.2141 0.2000
1488.000000 0.1906 0.1811 0.1737 0.1667 0.1598
1493.000000 0.1529 0.1460 0.1387 0.1356 0.1294
1498.000000 0.1353 0.1612 0.1872 0.2131 0.2391
1503.000000 0.2650 0.2910 0.3169 0.3428 0.3777
1508.000000 0.3772 0.3764 0.3564 0.3322 0.3079
1513.000000 0.2835 0.2592 0.2349 0.2106 0.1863
1518.000000 0.1669 0.1673 0.1628 0.2184 0.2640
1523.000000 0.3096 0.3552 0.4009 0.4465 0.4921
1528.000000 0.5377 0.5819 0.6109 0.6264 0.6398
1533.000000 0.6489 0.6580 0.6690 0.6771 0.6839
1538.000000 0.6847 0.6849 0.6899 0.6851 0.6842
1543.000000 0.6828 0.6776 0.6730 0.6683 0.6636
1548.000000 0.6574 0.6506 0.6436 0.6365 0.6275
1553.000000 0.6180 0.6051 0.5860 0.5602 0.5273
1558.000000 0.4966 0.4786 0.4744 0.4685 0.4855
1563.000000 0.4995 0.5138 0.5282 0.5354 0.5425
1568.000000 0.5425 0.5426 0.5251 0.5068 0.4885
1573.000000 0.4702 0.4519 0.4336 0.4152 0.3968
1578.000000 0.3786 0.3603 0.3420 0.3230 0.3020
1583.000000 0.2846 0.2691 0.2673 0.2672 0.2757
1588.000000 0.2890 0.3048 0.3370 0.3459 0.3458
1593.000000 0.3457 0.3468 0.3443 0.3409 0.3330
1598.000000 0.3241 0.3135 0.2978 0.2756 0.2564
1603.000000 0.2426 0.2097 0.1801 0.1437 0.1378
1608.000000 0.1381 0.1392 0.1406 0.1442 0.1476
1613.000000 0.1510 0.1546 0.1590 0.1639 0.1686
1618.000000 0.1764 0.1872 0.1979 0.2270 0.2677
1623.000000 0.3204 0.3616 0.3898 0.4134 0.4546
1628.000000 0.4967 0.5253 0.5429 0.5553 0.5676
1633.000000 0.5814 0.5958 0.6203 0.6946 0.6985
1638.000000 0.7025 0.7051 0.7078 0.7104 0.7128
1643.000000 0.7141 0.7144 0.7147 0.7146 0.7145
1648.000000 0.7143 0.7138 0.7126 0.7105 0.7082
1653.000000 0.7060 0.7037 0.7014 0.6991 0.6968
1658.000000 0.6944 0.6924 0.6908 0.6894 0.6878
1663.000000 0.6864 0.6864 0.6865 0.6868 0.6850
1668.000000 0.6876 0.6888 0.6898 0.6908 0.6922
1673.000000 0.6958 0.6994 0.7034 0.7101 0.7168
1678.000000 0.7221 0.7275 0.7328 0.7393 0.7468
1683.000000 0.7542 0.7617 0.7701 0.7790 0.7878
1688.000000 0.7958 0.8019 0.8082 0.8144 0.8204
1693.000000 0.8264 0.8323 0.8371 0.8386 0.8400
1698.000000 0.8408 0.8416 0.8418 0.8421 0.8425
1703.000000 0.8428 0.8432 0.8433 0.8433 0.8434
1708.000000 0.8434 0.8434 0.8434 0.8437 0.8441
1713.000000 0.8445 0.8450 0.8452 0.8453 0.8452
1718.000000 0.8452 0.8451 0.8450 0.8449 0.8448
1723.000000 0.8442 0.8437 0.8432 0.8425 0.8421
1728.000000 0.8408 0.8394 0.8380 0.8366 0.8352
1733.000000 0.8338 0.8323 0.8307 0.8292 0.8275
1738.000000 0.8260 0.8247 0.8236 0.8227 0.8224
1743.000000 0.8221 0.8218 0.8215 0.8213 0.8210
1748.000000 0.8209 0.8207 0.8206 0.8204 0.8203
1753.000000 0.8201 0.8199 0.8198 0.8196 0.8191
1758.000000 0.8186 0.8180 0.8171 0.8160 0.8149
1763.000000 0.8138 0.8125 0.8115 0.8104 0.8092
1768.000000 0.8081 0.8068 0.8055 0.8042 0.8028
1773.000000 0.8015 0.8007 0.7998 0.7988 0.7978
1778.000000 0.7969 0.7961 0.7951 0.7943 0.7933
1783.000000 0.7924 0.7915 0.7908 0.7901 0.7893
1788.000000 0.7885 0.7878 0.7869 0.7861 0.7854
1793.000000 0.7847 0.7839 0.7831 0.7824 0.7815
1798.000000 0.7808 0.7800 0.7794 0.7788 0.7781
1803.000000 0.7775 0.7768 0.7761 0.7758 0.7757
1808.000000 0.7755 0.7753 0.7751 0.7747 0.7738
1813.000000 0.7730 0.7721 0.7712 0.7705 0.7696
1818.000000 0.7685 0.7672 0.7661 0.7651 0.7640
1823.000000 0.7631 0.7621 0.7611 0.7601 0.7592
1828.000000 0.7584 0.7575 0.7567 0.7558 0.7549
1833.000000 0.7541 0.7532 0.7522 0.7515 0.7506
1838.000000 0.7498 0.7489 0.7480 0.7471 0.7462
1843.000000 0.7454 0.7446 0.7437 0.7428 0.7421
1848.000000 0.7415 0.7410 0.7404 0.7398 0.7391
1853.000000 0.7385 0.7378 0.7372 0.7367 0.7361
1858.000000 0.7353 0.7346 0.7339 0.7332 0.7325
1863.000000 0.7317 0.7310 0.7299 0.7289 0.7278
1868.000000 0.7268 0.7258 0.7251 0.7249 0.7246
1873.000000 0.7242 0.7239 0.7236 0.7233 0.7228
1878.000000 0.7226 0.7226 0.7226 0.7226 0.7228
1883.000000 0.7228 0.7228 0.7228 0.7226 0.7225
1888.000000 0.7221 0.7219 0.7218 0.7215 0.7212
1893.000000 0.7210 0.7208 0.7205 0.7203 0.7200
1898.000000 0.7198 0.7195 0.7193 0.7189 0.7185
1903.000000 0.7181 0.7176 0.7174 0.7169 0.7165
1908.000000 0.7161 0.7158 0.7154 0.7150 0.7146
1913.000000 0.7140 0.7135 0.7130 0.7125 0.7118
1918.000000 0.7114 0.7108 0.7104 0.7099 0.7093
1923.000000 0.7088 0.7083 0.7078 0.7072 0.7068
1928.000000 0.7062 0.7058 0.7054 0.7049 0.7044
1933.000000 0.7040 0.7035 0.7030 0.7025 0.7019
1938.000000 0.7015 0.7011 0.7006 0.7001 0.6997
1943.000000 0.6992 0.6987 0.6982 0.6976 0.6972
1948.000000 0.6968 0.6962 0.6958 0.6954 0.6949
1953.000000 0.6944 0.6939 0.6934 0.6930 0.6925
1958.000000 0.6919 0.6915 0.6911 0.6906 0.6901
1963.000000 0.6896 0.6891 0.6887 0.6883 0.6878
1968.000000 0.6874 0.6868 0.6865 0.6860 0.6856
1973.000000 0.6851 0.6847 0.6842 0.6838 0.6834
1978.000000 0.6828 0.6825 0.6819 0.6815 0.6810
1983.000000 0.6805 0.6801 0.6796 0.6791 0.6786
1988.000000 0.6782 0.6776 0.6771 0.6765 0.6756
1993.000000 0.6747 0.6737 0.6731 0.6728 0.6726
1998.000000 0.6722 0.6718 0.6712 0.6705 0.6697
2003.000000 0.6692 0.6688 0.6683 0.6678 0.6674
2008.000000 0.6668 0.6664 0.6660 0.6655 0.6651
2013.000000 0.6646 0.6641 0.6636 0.6632 0.6626
2018.000000 0.6622 0.6618 0.6612 0.6607 0.6601
2023.000000 0.6596 0.6591 0.6585 0.6580 0.6575
2028.000000 0.6569 0.6564 0.6558 0.6553 0.6548
2033.000000 0.6542 0.6537 0.6532 0.6526 0.6521
2038.000000 0.6515 0.6510 0.6505 0.6500 0.6495
2043.000000 0.6490 0.6485 0.6478 0.6474 0.6468
2048.000000 0.6464 0.6458 0.6454 0.6449 0.6444
2053.000000 0.6439 0.6434 0.6428 0.6424 0.6418
2058.000000 0.6415 0.6410 0.6405 0.6400 0.6395
2063.000000 0.6390 0.6386 0.6381 0.6376 0.6371
2068.000000 0.6366 0.6360 0.6357 0.6352 0.6347
2073.000000 0.6342 0.6338 0.6333 0.6328 0.6322
2078.000000 0.6317 0.6310 0.6306 0.6300 0.6295
2083.000000 0.6289 0.6284 0.6278 0.6273 0.6267
2088.000000 0.6262 0.6256 0.6251 0.6245 0.6240
2093.000000 0.6234 0.6229 0.6223 0.6218 0.6212
2098.000000 0.6207 0.6201 0.6196 0.6190 0.6184
2103.000000 0.6178 0.6173 0.6167 0.6162 0.6156
2108.000000 0.6151 0.6145 0.6139 0.6133 0.6128
2113.000000 0.6122 0.6117 0.6110 0.6105 0.6099
2118.000000 0.6094 0.6088 0.6083 0.6077 0.6071
2123.000000 0.6065 0.6060 0.6054 0.6049 0.6043
2128.000000 0.6037 0.6031 0.6026 0.6020 0.6015
2133.000000 0.6009 0.6003 0.5997 0.5992 0.5986
2138.000000 0.5980 0.5974 0.5968 0.5960 0.5955
2143.000000 0.5949 0.5943 0.5937 0.5931 0.5924
2148.000000 0.5918 0.5912 0.5906 0.5900 0.5894
2153.000000 0.5887 0.5881 0.5875 0.5869 0.5862
2158.000000 0.5857 0.5850 0.5844 0.5838 0.5832
2163.000000 0.5826 0.5820 0.5812 0.5807 0.5800
2168.000000 0.5794 0.5788 0.5782 0.5775 0.5769
2173.000000 0.5762 0.5757 0.5750 0.5744 0.5738
2178.000000 0.5732 0.5725 0.5719 0.5712 0.5707
2183.000000 0.5700 0.5694 0.5687 0.5681 0.5675
2188.000000 0.5669 0.5662 0.5656 0.5650 0.5644
2193.000000 0.5637 0.5631 0.5625 0.5619 0.5612
2198.000000 0.5607 0.5601 0.5595 0.5589 0.5583
2203.000000 0.5577 0.5572 0.5566 0.5560 0.5554
2208.000000 0.5548 0.5542 0.5536 0.5530 0.5524
2213.000000 0.5518 0.5512 0.5506 0.5500 0.5494
2218.000000 0.5488 0.5482 0.5476 0.5470 0.5464
2223.000000 0.5458 0.5453 0.5447 0.5441 0.5435
2228.000000 0.5429 0.5423 0.5417 0.5410 0.5406
2233.000000 0.5400 0.5394 0.5388 0.5382 0.5376
2238.000000 0.5371 0.5365 0.5359 0.5353 0.5347
2243.000000 0.5341 0.5335 0.5329 0.5324 0.5318
2248.000000 0.5312 0.5307 0.5302 0.5296 0.5291
2253.000000 0.5285 0.5280 0.5274 0.5269 0.5262
2258.000000 0.5258 0.5253 0.5248 0.5242 0.5237
2263.000000 0.5231 0.5226 0.5220 0.5215 0.5209
2268.000000 0.5204 0.5199 0.5194 0.5188 0.5183
2273.000000 0.5177 0.5172 0.5166 0.5160 0.5156
2278.000000 0.5151 0.5145 0.5140 0.5134 0.5129
2283.000000 0.5124 0.5119 0.5114 0.5110 0.5105
2288.000000 0.5100 0.5095 0.5091 0.5086 0.5081
2293.000000 0.5076 0.5072 0.5067 0.5062 0.5057
2298.000000 0.5053 0.5048 0.5043 0.5038 0.5034
2303.000000 0.5029 0.5024 0.5019 0.5015 0.5010
2308.000000 0.5005 0.5000 0.4996 0.4991 0.4986
2313.000000 0.4981 0.4977 0.4972 0.4967 0.4962
2318.000000 0.4958 0.4954 0.4950 0.4946 0.4943
2323.000000 0.4939 0.4935 0.4931 0.4928 0.4924
2328.000000 0.4921 0.4917 0.4912 0.4909 0.4906
2333.000000 0.4902 0.4899 0.4896 0.4893 0.4891
2338.000000 0.4890 0.4888 0.4886 0.4884 0.4882
2343.000000 0.4880 0.4879 0.4877 0.4875 0.4873
2348.000000 0.4872 0.4870 0.4868 0.4866 0.4864
2353.000000 0.4862 0.4860 0.4859 0.4857 0.4855
2358.000000 0.4854 0.4852 0.4850 0.4848 0.4847
2363.000000 0.4845 0.4843 0.4841 0.4840 0.4840
2368.000000 0.4840 0.4840 0.4841 0.4841 0.4842
2373.000000 0.4842 0.4843 0.4843 0.4843 0.4843
2378.000000 0.4844 0.4844 0.4843 0.4843 0.4842
2383.000000 0.4838 0.4835 0.4831 0.4828 0.4824
2388.000000 0.4821 0.4817 0.4812 0.4809 0.4806
2393.000000 0.4802 0.4799 0.4795 0.4792 0.4788
2398.000000 0.4784 0.4780 0.4777 0.4773 0.4769
2403.000000 0.4764 0.4760 0.4755 0.4751 0.4746
2408.000000 0.4742 0.4737 0.4733 0.4729 0.4726
2413.000000 0.4723 0.4720 0.4717 0.4714 0.4710
2418.000000 0.4708 0.4706 0.4704 0.4702 0.4701
2423.000000 0.4699 0.4698 0.4696 0.4694 0.4692
2428.000000 0.4691 0.4689 0.4688 0.4686 0.4685
2433.000000 0.4683 0.4682 0.4680 0.4679 0.4677
2438.000000 0.4676 0.4676 0.4676 0.4676 0.4676
2443.000000 0.4676 0.4676 0.4676 0.4677 0.4677
2448.000000 0.4677 0.4676 0.4676 0.4675 0.4674
2453.000000 0.4673 0.4672 0.4671 0.4670 0.4669
2458.000000 0.4668 0.4667 0.4666 0.4665 0.4664
2463.000000 0.4662 0.4662 0.4660 0.4660 0.4659
2468.000000 0.4658 0.4656 0.4654 0.4652 0.4650
2473.000000 0.4648 0.4646 0.4644 0.4642 0.4640
2478.000000 0.4638 0.4636 0.4634 0.4632 0.4630
2483.000000 0.4628 0.4626 0.4624 0.4622 0.4620
2488.000000 0.4618 0.4616 0.4614 0.4612 0.4610
2493.000000 0.4608 0.4606 0.4603 0.4601 0.4598
2498.000000 0.4596 0.4593 0.4591 0.4588 0.4586
2503.000000 0.4583 0.4580 0.4577 0.4575 0.4572
2508.000000 0.4570 0.4567 0.4564 0.4560 0.4559
2513.000000 0.4556 0.4554 0.4551 0.4549 0.4546
2518.000000 0.4543 0.4540 0.4538 0.4534 0.4531
2523.000000 0.4528 0.4525 0.4521 0.4518 0.4515
2528.000000 0.4512 0.4508 0.4505 0.4502 0.4499
2533.000000 0.4495 0.4492 0.4489 0.4486 0.4482
2538.000000 0.4479 0.4476 0.4473 0.4469 0.4466
2543.000000 0.4462 0.4460 0.4456 0.4453 0.4450
2548.000000 0.4447 0.4443 0.4440 0.4437 0.4434
2553.000000 0.4430 0.4427 0.4424 0.4421 0.4417
2558.000000 0.4414 0.4410 0.4408 0.4404 0.4401
2563.000000 0.4398 0.4395 0.4392 0.4389 0.4385
2568.000000 0.4382 0.4379 0.4376 0.4373 0.4370
2573.000000 0.4366 0.4362 0.4360 0.4357 0.4354
2578.000000 0.4351 0.4347 0.4344 0.4341 0.4338
2583.000000 0.4335 0.4332 0.4328 0.4325 0.4322
2588.000000 0.4319 0.4316 0.4312 0.4309 0.4306
2593.000000 0.4303 0.4300 0.4296 0.4293 0.4290
2598.000000 0.4287 0.4283 0.4280 0.4277 0.4274
2603.000000 0.4270 0.4267 0.4264 0.4260 0.4257
2608.000000 0.4254 0.4250 0.4247 0.4244 0.4241
2613.000000 0.4237 0.4234 0.4231 0.4228 0.4224
2618.000000 0.4221 0.4218 0.4215 0.4210 0.4208
2623.000000 0.4204 0.4201 0.4198 0.4195 0.4191
2628.000000 0.4188 0.4185 0.4182 0.4178 0.4175
2633.000000 0.4172 0.4169 0.4165 0.4162 0.4159
2638.000000 0.4156 0.4152 0.4149 0.4146 0.4143
2643.000000 0.4139 0.4136 0.4133 0.4130 0.4127
2648.000000 0.4124 0.4120 0.4117 0.4114 0.4110
2653.000000 0.4107 0.4104 0.4101 0.4098 0.4094
2658.000000 0.4091 0.4088 0.4084 0.4080 0.4078
2663.000000 0.4075 0.4072 0.4068 0.4066 0.4062
2668.000000 0.4059 0.4056 0.4053 0.4049 0.4046
2673.000000 0.4043 0.4040 0.4036 0.4032 0.4030
2678.000000 0.4027 0.4024 0.4021 0.4016 0.4014
2683.000000 0.4010 0.4008 0.4005 0.4002 0.3998
2688.000000 0.3995 0.3992 0.3989 0.3986 0.3982
2693.000000 0.3979 0.3976 0.3973 0.3970 0.3966
2698.000000 0.3964 0.3960 0.3958 0.3954 0.3950
2703.000000 0.3948 0.3945 0.3942 0.3939 0.3934
2708.000000 0.3932 0.3929 0.3926 0.3923 0.3920
2713.000000 0.3916 0.3914 0.3909 0.3907 0.3904
2718.000000 0.3900 0.3898 0.3895 0.3891 0.3888
2723.000000 0.3884 0.3882 0.3879 0.3876 0.3873
2728.000000 0.3870 0.3866 0.3862 0.3859 0.3856
2733.000000 0.3852 0.3849 0.3845 0.3842 0.3839
2738.000000 0.3836 0.3832 0.3829 0.3825 0.3822
2743.000000 0.3818 0.3814 0.3810 0.3808 0.3804
2748.000000 0.3800 0.3798 0.3795 0.3791 0.3788
2753.000000 0.3784 0.3780 0.3777 0.3774 0.3770
2758.000000 0.3766 0.3764 0.3760 0.3757 0.3754
2763.000000 0.3750 0.3747 0.3743 0.3740 0.3736
2768.000000 0.3732 0.3729 0.3726 0.3723 0.3720
2773.000000 0.3716 0.3712 0.3709 0.3706 0.3702
2778.000000 0.3699 0.3695 0.3692 0.3688 0.3684
2783.000000 0.3680 0.3678 0.3674 0.3671 0.3666
2788.000000 0.3664 0.3659 0.3657 0.3653 0.3650
2793.000000 0.3646 0.3643 0.3640 0.3637 0.3632
2798.000000 0.3630 0.3626 0.3623 0.3618 0.3616
2803.000000 0.3612 0.3609 0.3605 0.3602 0.3598
2808.000000 0.3595 0.3591 0.3588 0.3584 0.3580
2813.000000 0.3577 0.3574 0.3570 0.3566 0.3562
2818.000000 0.3559 0.3556 0.3552 0.3548 0.3545
2823.000000 0.3541 0.3538 0.3534 0.3530 0.3526
2828.000000 0.3523 0.3518 0.3514 0.3510 0.3508
2833.000000 0.3504 0.3500 0.3497 0.3493 0.3489
2838.000000 0.3486 0.3482 0.3478 0.3474 0.3471
2843.000000 0.3466 0.3464 0.3459 0.3456 0.3452
2848.000000 0.3449 0.3445 0.3441 0.3437 0.3434
2853.000000 0.3430 0.3427 0.3423 0.3420 0.3416
2858.000000 0.3412 0.3409 0.3405 0.3400 0.3398
2863.000000 0.3394 0.3391 0.3387 0.3384 0.3380
2868.000000 0.3377 0.3373 0.3370 0.3366 0.3362
2873.000000 0.3358 0.3355 0.3350 0.3348 0.3344
2878.000000 0.3341 0.3337 0.3334 0.3330 0.3327
2883.000000 0.3323 0.3318 0.3314 0.3312 0.3308
2888.000000 0.3305 0.3300 0.3298 0.3294 0.3291
2893.000000 0.3287 0.3284 0.3280 0.3276 0.3272
2898.000000 0.3268 0.3264 0.3262 0.3258 0.3255
2903.000000 0.3250 0.3247 0.3243 0.3240 0.3236
2908.000000 0.3232 0.3229 0.3225 0.3221 0.3218
2913.000000 0.3214 0.3210 0.3207 0.3203 0.3199
2918.000000 0.3196 0.3192 0.3189 0.3184 0.3182
2923.000000 0.3178 0.3174 0.3171 0.3169 0.3168
2928.000000 0.3168 0.3167 0.3166 0.3165 0.3165
2933.000000 0.3164 0.3163 0.3162 0.3161 0.3160
2938.000000 0.3160 0.3159 0.3158 0.3157 0.3156
2943.000000 0.3155 0.3154 0.3153 0.3153 0.3152
2948.000000 0.3151 0.3150 0.3149 0.3148 0.3147
2953.000000 0.3146 0.3146 0.3145 0.3144 0.3143
2958.000000 0.3142 0.3141 0.3140 0.3139 0.3138
2963.000000 0.3137 0.3137 0.3135 0.3134 0.3132
2968.000000 0.3130 0.3127 0.3125 0.3122 0.3120
2973.000000 0.3117 0.3114 0.3111 0.3109 0.3106
2978.000000 0.3103 0.3100 0.3098 0.3095 0.3092
2983.000000 0.3089 0.3087 0.3082 0.3078 0.3073
2988.000000 0.3068 0.3062 0.3057 0.3052 0.3047
2993.000000 0.3041 0.3035 0.3031 0.3026 0.3020
2998.000000 0.3015 0.3010 0.3005 0.2999 0.2994
3003.000000 0.2987 0.2981 0.2974 0.2968 0.2962
3008.000000 0.2956 0.2949 0.2943 0.2935 0.2930
3013.000000 0.2924 0.2918 0.2911 0.2905 0.2898
3018.000000 0.2892 0.2884 0.2879 0.2872 0.2866
3023.000000 0.2859 0.2853 0.2846 0.2839 0.2832
3028.000000 0.2826 0.2819 0.2812 0.2805 0.2799
3033.000000 0.2792 0.2784 0.2777 0.2770 0.2762
3038.000000 0.2754 0.2746 0.2738 0.2730 0.2722
3043.000000 0.2714 0.2707 0.2699 0.2691 0.2683
3048.000000 0.2675 0.2666 0.2658 0.2648 0.2638
3053.000000 0.2627 0.2617 0.2607 0.2597 0.2587
3058.000000 0.2577 0.2566 0.2556 0.2546 0.2535
3063.000000 0.2525 0.2514 0.2502 0.2491 0.2479
3068.000000 0.2467 0.2455 0.2444 0.2434 0.2424
3073.000000 0.2420 0.2420 0.2420 0.2410 0.2428
3078.000000 0.2434 0.2453 0.2473 0.2492 0.2512
3083.000000 0.2533 0.2555 0.2582 0.2610 0.2635
3088.000000 0.2662 0.2661 0.2660 0.2656 0.2682
3093.000000 0.2648 0.2644 0.2639 0.2634 0.2628
3098.000000 0.2622 0.2616 0.2611 0.2605 0.2599
3103.000000 0.2593 0.2588 0.2582 0.2576 0.2570
3108.000000 0.2564 0.2558 0.2552 0.2546 0.2540
3113.000000 0.2534 0.2528 0.2522 0.2516 0.2510
3118.000000 0.2504 0.2497 0.2491 0.2483 0.2476
3123.000000 0.2466 0.2457 0.2447 0.2438 0.2429
3128.000000 0.2420 0.2410 0.2401 0.2390 0.2379
3133.000000 0.2367 0.2356 0.2344 0.2332 0.2325
3138.000000 0.2318 0.2317 0.2317 0.2316 0.2316
3143.000000 0.2315 0.2315 0.2314 0.2314 0.2313
3148.000000 0.2312 0.2311 0.2311 0.2306 0.2301
3153.000000 0.2285 0.2272 0.2258 0.2245 0.2229
3158.000000 0.2214 0.2201 0.2189 0.2180 0.2172
3163.000000 0.2163 0.2154 0.2145 0.2137 0.2130
3168.000000 0.2124 0.2120 0.2117 0.2113 0.2110
3173.000000 0.2106 0.2102 0.2102 0.2103 0.2103
3178.000000 0.2104 0.2104 0.2104 0.2104 0.2105
3183.000000 0.2105 0.2106 0.2107 0.2108 0.2112
3188.000000 0.2116 0.2120 0.2124 0.2128 0.2133
3193.000000 0.2137 0.2141 0.2145 0.2149 0.2153
3198.000000 0.2158 0.2165 0.2172 0.2178 0.2184
3203.000000 0.2192 0.2199 0.2205 0.2212 0.2218
3208.000000 0.2224 0.2230 0.2235 0.2240 0.2244
3213.000000 0.2245 0.2246 0.2247 0.2249 0.2250
3218.000000 0.2251 0.2251 0.2251 0.2250 0.2249
3223.000000 0.2248 0.2282 0.2246 0.2246 0.2244
3228.000000 0.2242 0.2239 0.2237 0.2234 0.2232
3233.000000 0.2229 0.2227 0.2224 0.2222 0.2219
3238.000000 0.2217 0.2214 0.2212 0.2209 0.2207
3243.000000 0.2202 0.2197 0.2192 0.2188 0.2183
3248.000000 0.2179 0.2175 0.2171 0.2167 0.2163
3253.000000 0.2159 0.2155 0.2151 0.2147 0.2141
3258.000000 0.2134 0.2128 0.2122 0.2115 0.2108
3263.000000 0.2101 0.2095 0.2088 0.2081 0.2076
3268.000000 0.2071 0.2067 0.2062 0.2058 0.2057
3273.000000 0.2057 0.2058 0.2062 0.2066 0.2070
3278.000000 0.2074 0.2077 0.2081 0.2083 0.2085
3283.000000 0.2087 0.2089 0.2091 0.2093 0.2093
3288.000000 0.2093 0.2093 0.2093 0.2092 0.2091
3293.000000 0.2090 0.2090 0.2089 0.2089 0.2088
3298.000000 0.2087 0.2083 0.2079 0.2075 0.2071
3303.000000 0.2066 0.2061 0.2056 0.2052 0.2046
3308.000000 0.2042 0.2036 0.2033 0.2027 0.2022
3313.000000 0.2016 0.2010 0.2004 0.1998 0.1992
3318.000000 0.1985 0.1979 0.1974 0.1968 0.1962
3323.000000 0.1956 0.1950 0.1944 0.1937 0.1932
3328.000000 0.1926 0.1920 0.1914 0.1908 0.1902
3333.000000 0.1895 0.1890 0.1884 0.1878 0.1872
3338.000000 0.1867 0.1861 0.1854 0.1848 0.1841
3343.000000 0.1834 0.1827 0.1819 0.1812 0.1804
3348.000000 0.1798 0.1791 0.1784 0.1777 0.1770
3353.000000 0.1763 0.1756 0.1748 0.1741 0.1734
3358.000000 0.1727 0.1720 0.1713 0.1706 0.1699
3363.000000 0.1692 0.1685 0.1679 0.1672 0.1665
3368.000000 0.1659 0.1652 0.1644 0.1637 0.1632
3373.000000 0.1626 0.1620 0.1614 0.1609 0.1603
3378.000000 0.1598 0.1592 0.1587 0.1581 0.1576
3383.000000 0.1570 0.1565 0.1560 0.1555 0.1551
3388.000000 0.1546 0.1544 0.1542 0.1539 0.1537
3393.000000 0.1534 0.1532 0.1529 0.1526 0.1523
3398.000000 0.1521 0.1518 0.1516 0.1513 0.1511
3403.000000 0.1508 0.1506 0.1503 0.1501 0.1499
3408.000000 0.1496 0.1495 0.1494 0.1492 0.1490
3413.000000 0.1488 0.1487 0.1485 0.1484 0.1482
3418.000000 0.1480 0.1478 0.1477 0.1475 0.1473
3423.000000 0.1471 0.1470 0.1470 0.1470 0.1470
3428.000000 0.1471 0.1471 0.1472 0.1472 0.1472
3433.000000 0.1472 0.1473 0.1473 0.1473 0.1473
3438.000000 0.1474 0.1474 0.1474 0.1474 0.1475
3443.000000 0.1475 0.1475 0.1475 0.1476 0.1476
3448.000000 0.1477 0.1477 0.1477 0.1477 0.1477
3453.000000 0.1477 0.1477 0.1477 0.1478 0.1478
3458.000000 0.1478 0.1478 0.1478 0.1478 0.1478
3463.000000 0.1478 0.1479 0.1479 0.1479 0.1479
3468.000000 0.1479 0.1479 0.1480 0.1481 0.1482
3473.000000 0.1483 0.1484 0.1485 0.1486 0.1487
3478.000000 0.1488 0.1489 0.1490 0.1491 0.1492
3483.000000 0.1492 0.1494 0.1495 0.1496 0.1501
3488.000000 0.1505 0.1509 0.1513 0.1517 0.1521
3493.000000 0.1525 0.1529 0.1533 0.1537 0.1540
3498.000000 0.1544 0.1549 0.1555 0.1562 0.1570
3503.000000 0.1577 0.1585 0.1592 0.1601 0.1608
3508.000000 0.1616 0.1623 0.1631 0.1639 0.1646
3513.000000 0.1654 0.1662 0.1669 0.1677 0.1684
3518.000000 0.1692 0.1701 0.1710 0.1719 0.1728
3523.000000 0.1735 0.1744 0.1754 0.1763 0.1772
3528.000000 0.1781 0.1790 0.1799 0.1808 0.1817
3533.000000 0.1826 0.1834 0.1844 0.1853 0.1862
3538.000000 0.1871 0.1881 0.1891 0.1901 0.1912
3543.000000 0.1922 0.1933 0.1943 0.1954 0.1964
3548.000000 0.1975 0.1984 0.1995 0.2007 0.2018
3553.000000 0.2028 0.2039 0.2049 0.2060 0.2070
3558.000000 0.2081 0.2092 0.2103 0.2114 0.2125
3563.000000 0.2135 0.2148 0.2159 0.2170 0.2181
3568.000000 0.2192 0.2203 0.2215 0.2226 0.2237
3573.000000 0.2248 0.2260 0.2271 0.2282 0.2292
3578.000000 0.2302 0.2309 0.2317 0.2325 0.2333
3583.000000 0.2341 0.2349 0.2357 0.2365 0.2373
3588.000000 0.2381 0.2388 0.2396 0.2404 0.2412
3593.000000 0.2420 0.2428 0.2435 0.2444 0.2452
3598.000000 0.2460 0.2467 0.2475 0.2483 0.2491
3603.000000 0.2499 0.2507 0.2515 0.2523 0.2529
3608.000000 0.2534 0.2540 0.2546 0.2551 0.2557
3613.000000 0.2562 0.2568 0.2573 0.2579 0.2584
3618.000000 0.2590 0.2595 0.2601 0.2606 0.2612
3623.000000 0.2617 0.2623 0.2628 0.2634 0.2639
3628.000000 0.2645 0.2647 0.2650 0.2653 0.2656
3633.000000 0.2658 0.2661 0.2664 0.2667 0.2669
3638.000000 0.2670 0.2671 0.2671 0.2671 0.2671
3643.000000 0.2670 0.2670 0.2670 0.2669 0.2669
3648.000000 0.2669 0.2667 0.2666 0.2664 0.2662
3653.000000 0.2660 0.2658 0.2656 0.2655 0.2653
3658.000000 0.2651 0.2648 0.2646 0.2643 0.2641
3663.000000 0.2639 0.2637 0.2634 0.2632 0.2629
3668.000000 0.2627 0.2625 0.2623 0.2620 0.2618
3673.000000 0.2616 0.2614 0.2611 0.2609 0.2607
3678.000000 0.2605 0.2603 0.2601 0.2599 0.2597
3683.000000 0.2595 0.2593 0.2590 0.2588 0.2584
3688.000000 0.2583 0.2579 0.2576 0.2573 0.2570
3693.000000 0.2566 0.2563 0.2559 0.2556 0.2553
3698.000000 0.2550 0.2546 0.2543 0.2539 0.2535
3703.000000 0.2533 0.2530 0.2526 0.2523 0.2519
3708.000000 0.2516 0.2513 0.2511 0.2508 0.2506
3713.000000 0.2503 0.2501 0.2498 0.2496 0.2493
3718.000000 0.2491 0.2488 0.2485 0.2483 0.2481
3723.000000 0.2478 0.2476 0.2473 0.2471 0.2468
3728.000000 0.2466 0.2464 0.2463 0.2461 0.2459
3733.000000 0.2457 0.2455 0.2453 0.2451 0.2449
3738.000000 0.2447 0.2445 0.2443 0.2441 0.2440
3743.000000 0.2438 0.2435 0.2434 0.2432 0.2430
3748.000000 0.2428 0.2426 0.2424 0.2422 0.2420
3753.000000 0.2418 0.2416 0.2414 0.2413 0.2411
3758.000000 0.2409 0.2407 0.2405 0.2403 0.2401
3763.000000 0.2399 0.2397 0.2395 0.2393 0.2391
3768.000000 0.2390 0.2388 0.2387 0.2385 0.2384
3773.000000 0.2384 0.2383 0.2382 0.2381 0.2379
3778.000000 0.2378 0.2377 0.2376 0.2375 0.2374
3783.000000 0.2373 0.2372 0.2370 0.2369 0.2368
3788.000000 0.2367 0.2366 0.2365 0.2364 0.2363
3793.000000 0.2361 0.2360 0.2360 0.2360
##END=
