##TITLE=N-(Beta-CYCLOHEXYL-Beta-HYDROXY-Beta-PHENYL-ETHYL)-N'-METHYLPIPERAZINE METHOSULFATE
##JCAMP-DX=4.24
##DATA TYPE=INFRARED SPECTRUM
##CLASS=COBLENTZ
##ORIGIN=ABBOTT LABORATORIES - WASHBURN
##OWNER=COBLENTZ SOCIETY
Collection (C) 2018 copyright by the U.S. Secretary of Commerce
on behalf of the United States of America. All rights reserved.
##DATE=Not specified, most likely prior to 1970
##MOLFORM=C21 H36 N2 O5 S
##SOURCE REFERENCE=COBLENTZ NO. 3523
##$NIST ID=B6003523
##$NIST SOURCE=COBLENTZ
##$NIST IMAGE=cob3523
##SPECTROMETER/DATA SYSTEM=PERKIN-ELMER
##STATE=SOLID (NUJOL MULL)
##SAMPLING PROCEDURE=TRANSMISSION
##RESOLUTION=4
##DATA PROCESSING=DIGITIZED BY NIST FROM HARD COPY (FROM TWO SEGMENTS)
##XUNITS=MICROMETERS
##YUNITS=TRANSMITTANCE
##XFACTOR=1.000000
##YFACTOR=1
##DELTAX=0.006702
##FIRSTX=2.058
##LASTX=15.4352
##FIRSTY=0.708
##MAXX=15.4352
##MINX=2.058
##MAXY=0.862
##MINY=0.0136192
##NPOINTS=1997
##XYDATA=(X++(Y..Y))
2.058000 0.7080 0.7080 0.7060 0.7080 0.7080
2.091510 0.7090 0.7110 0.7130 0.7140 0.7140
2.125020 0.7140 0.7140 0.7160 0.7160 0.7190
2.158530 0.7230 0.7230 0.7240 0.7240 0.7279
2.192040 0.7280 0.7260 0.7240 0.7240 0.7230
2.225550 0.7230 0.7210 0.7141 0.7130 0.7032
2.259060 0.6990 0.6970 0.6940 0.6910 0.6870
2.292570 0.6860 0.6860 0.6860 0.6860 0.6870
2.326080 0.6870 0.6890 0.6910 0.6940 0.6990
2.359590 0.6990 0.7010 0.7030 0.7030 0.7040
2.393100 0.7060 0.7080 0.7080 0.7090 0.7090
2.426610 0.7130 0.7130 0.7130 0.7130 0.7160
2.460120 0.7231 0.7260 0.7260 0.7281 0.7330
2.493630 0.7330 0.7380 0.7410 0.7430 0.7440
2.527140 0.7461 0.7500 0.7500 0.7510 0.7530
2.560650 0.7560 0.7560 0.7580 0.7580 0.7580
2.594160 0.7600 0.7600 0.7610 0.7630 0.7630
2.627670 0.7630 0.7630 0.7650 0.7650 0.7680
2.661180 0.7700 0.7710 0.7710 0.7730 0.7730
2.694690 0.7730 0.7750 0.7750 0.7750 0.7750
2.728200 0.7760 0.7760 0.7760 0.7760 0.7760
2.761710 0.7760 0.7760 0.7750 0.7750 0.7750
2.795220 0.7729 0.7710 0.7699 0.7648 0.7578
2.828730 0.7498 0.7409 0.7328 0.7184 0.6734
2.862240 0.6178 0.5578 0.5517 0.5428 0.5352
2.895750 0.5417 0.5703 0.5821 0.5850 0.5870
2.929260 0.5882 0.5921 0.5951 0.5985 0.6155
2.962770 0.6324 0.6454 0.6612 0.6722 0.6842
2.996280 0.6964 0.7063 0.7143 0.7232 0.7282
3.029790 0.7330 0.7340 0.7341 0.7361 0.7391
3.063300 0.7430 0.7441 0.7460 0.7460 0.7459
3.096810 0.7439 0.7409 0.7390 0.7379 0.7340
3.130320 0.7340 0.7330 0.7329 0.7309 0.7278
3.163830 0.7227 0.7159 0.7129 0.7109 0.7088
3.197340 0.7003 0.6860 0.6664 0.6535 0.6413
3.230850 0.6231 0.6016 0.5910 0.5623 0.5404
3.264360 0.5187 0.4949 0.4733 0.4579 0.4344
3.297870 0.3972 0.3557 0.3218 0.2871 0.2056
3.331380 0.1358 0.1138 0.0914 0.0617 0.0358
3.364890 0.0308 0.0259 0.0229 0.0199 0.0179
3.398400 0.0160 0.0160 0.0161 0.0181 0.0200
3.431910 0.0200 0.0211 0.0230 0.0231 0.0250
3.465420 0.0263 0.0303 0.0356 0.0464 0.0749
3.498930 0.1639 0.2032 0.2947 0.4754 0.5074
3.532440 0.5404 0.5758 0.5893 0.6116 0.6377
3.565950 0.6499 0.6672 0.6897 0.7042 0.7081
3.599460 0.7115 0.7183 0.7232 0.7261 0.7280
3.632970 0.7281 0.7291 0.7310 0.7311 0.7330
3.666480 0.7331 0.7340 0.7341 0.7361 0.7381
3.699990 0.7390 0.7390 0.7388 0.7358 0.7330
3.733500 0.7331 0.7341 0.7362 0.7395 0.7467
3.767010 0.7563 0.7601 0.7611 0.7631 0.7652
3.800520 0.7682 0.7700 0.7697 0.7660 0.7661
3.834030 0.7681 0.7701 0.7711 0.7734 0.7805
3.867540 0.7882 0.7902 0.7932 0.7951 0.7960
3.901050 0.7961 0.7981 0.8001 0.8021 0.8030
3.934560 0.8030 0.8032 0.8056 0.8121 0.8131
3.968070 0.8151 0.8170 0.8170 0.8173 0.8221
4.001580 0.8230 0.8229 0.8218 0.8198 0.8180
4.035090 0.8179 0.8170 0.8171 0.8180 0.8181
4.068600 0.8202 0.8221 0.8230 0.8232 0.8252
4.102110 0.8272 0.8302 0.8319 0.8299 0.8278
4.135620 0.8245 0.8200 0.8203 0.8230 0.8230
4.169130 0.8232 0.8250 0.8252 0.8281 0.8300
4.202640 0.8295 0.8250 0.8253 0.8280 0.8279
4.236150 0.8268 0.8248 0.8218 0.8198 0.8182
4.269660 0.8205 0.8250 0.8250 0.8250 0.8250
4.303170 0.8250 0.8248 0.8229 0.8220 0.8220
4.336680 0.8216 0.8179 0.8168 0.8148 0.8130
4.370190 0.8130 0.8132 0.8152 0.8172 0.8204
4.403700 0.8255 0.8300 0.8302 0.8321 0.8330
4.437210 0.8329 0.8321 0.8330 0.8332 0.8350
4.470720 0.8350 0.8369 0.8380 0.8399 0.8400
4.504230 0.8419 0.8420 0.8429 0.8430 0.8421
4.537740 0.8420 0.8430 0.8449 0.8469 0.8470
4.571250 0.8480 0.8480 0.8480 0.8471 0.8470
4.604760 0.8470 0.8480 0.8499 0.8500 0.8500
4.638270 0.8481 0.8480 0.8480 0.8471 0.8470
4.671780 0.8470 0.8470 0.8470 0.8470 0.8470
4.705290 0.8470 0.8470 0.8480 0.8480 0.8518
4.738800 0.8539 0.8550 0.8550 0.8569 0.8551
4.772310 0.8550 0.8550 0.8550 0.8550 0.8569
4.805820 0.8570 0.8551 0.8550 0.8550 0.8550
4.839330 0.8550 0.8550 0.8540 0.8540 0.8550
4.872840 0.8550 0.8550 0.8540 0.8540 0.8540
4.906350 0.8569 0.8570 0.8551 0.8550 0.8550
4.939860 0.8550 0.8550 0.8550 0.8550 0.8550
4.973370 0.8521 0.8481 0.8451 0.8450 0.8449
5.006880 0.8430 0.8430 0.8420 0.8430 0.8430
5.040390 0.8430 0.8430 0.8430 0.8430 0.8431
5.073900 0.8450 0.8450 0.8471 0.8500 0.8501
5.107410 0.8540 0.8550 0.8550 0.8550 0.8571
5.140920 0.8589 0.8569 0.8550 0.8550 0.8550
5.174430 0.8550 0.8550 0.8540 0.8540 0.8504
5.207940 0.8482 0.8480 0.8480 0.8515 0.8503
5.241450 0.8483 0.8437 0.8421 0.8429 0.8474
5.274960 0.8498 0.8518 0.8538 0.8549 0.8585
5.308470 0.8616 0.8620 0.8620 0.8620 0.8620
5.341980 0.8620 0.8620 0.8602 0.8600 0.8600
5.375490 0.8600 0.8591 0.8590 0.8590 0.8572
5.409000 0.8570 0.8570 0.8570 0.8552 0.8541
5.442510 0.8487 0.8471 0.8470 0.8479 0.8516
5.476020 0.8520 0.8547 0.8568 0.8588 0.8590
5.509530 0.8572 0.8552 0.8550 0.8550 0.8550
5.543040 0.8550 0.8568 0.8552 0.8541 0.8522
5.576550 0.8502 0.8482 0.8471 0.8470 0.8454
5.610060 0.8435 0.8430 0.8423 0.8420 0.8420
5.643570 0.8420 0.8427 0.8430 0.8430 0.8430
5.677080 0.8445 0.8450 0.8450 0.8450 0.8428
5.710590 0.8420 0.8420 0.8420 0.8427 0.8445
5.744100 0.8465 0.8470 0.8470 0.8470 0.8440
5.777610 0.8408 0.8400 0.8415 0.8457 0.8470
5.811120 0.8440 0.8430 0.8430 0.8422 0.8390
5.844630 0.8432 0.8450 0.8413 0.8378 0.8378
5.878140 0.8372 0.8355 0.8327 0.8328 0.8368
5.911650 0.8358 0.8365 0.8370 0.8370 0.8357
5.945160 0.8350 0.8338 0.8330 0.8330 0.8330
5.978670 0.8324 0.8326 0.8324 0.8320 0.8308
6.012180 0.8300 0.8288 0.8292 0.8300 0.8300
6.045690 0.8312 0.8308 0.8270 0.8250 0.8262
6.079200 0.8270 0.8270 0.8270 0.8258 0.8262
6.112710 0.8300 0.8320 0.8290 0.8246 0.8224
6.146220 0.8251 0.8270 0.8258 0.8238 0.8212
6.179730 0.8182 0.8146 0.8082 0.8008 0.7930
6.213240 0.7856 0.7843 0.7856 0.7885 0.7949
6.246750 0.8011 0.8085 0.8150 0.8188 0.8200
6.280260 0.8190 0.8180 0.8175 0.8146 0.8125
6.313770 0.8163 0.8209 0.8211 0.8191 0.8180
6.347280 0.8175 0.8170 0.8151 0.8116 0.8100
6.380790 0.8109 0.8125 0.8139 0.8159 0.8170
6.414300 0.8170 0.8160 0.8150 0.8140 0.8130
6.447810 0.8125 0.8120 0.8125 0.8130 0.8130
6.481320 0.8130 0.8130 0.8125 0.8086 0.8040
6.514830 0.8025 0.8010 0.7991 0.7980 0.7966
6.548340 0.7925 0.7875 0.7840 0.7815 0.7781
6.581850 0.7746 0.7716 0.7643 0.7514 0.7387
6.615360 0.7260 0.6957 0.6616 0.6427 0.6199
6.648870 0.5939 0.5700 0.5441 0.5034 0.4507
6.682380 0.4112 0.3900 0.3676 0.3407 0.3175
6.715890 0.3046 0.2993 0.2987 0.3010 0.3081
6.749400 0.3159 0.3060 0.2890 0.2547 0.1976
6.782910 0.1532 0.1146 0.1090 0.1063 0.1050
6.816420 0.1050 0.1057 0.1077 0.1090 0.1076
6.849930 0.1047 0.1040 0.1040 0.1043 0.1050
6.883440 0.1065 0.1166 0.1386 0.1628 0.1860
6.916950 0.2112 0.2447 0.2752 0.3024 0.3551
6.950460 0.4402 0.4782 0.5133 0.5344 0.5563
6.983970 0.5813 0.6003 0.6174 0.6257 0.6299
7.017480 0.6324 0.6342 0.6386 0.6541 0.6641
7.050990 0.6720 0.6744 0.6840 0.6826 0.6750
7.084500 0.6659 0.6609 0.6531 0.6381 0.6348
7.118010 0.6340 0.6340 0.6340 0.6336 0.6316
7.151520 0.6289 0.6232 0.6155 0.6063 0.5874
7.185030 0.5638 0.5485 0.5109 0.4059 0.3579
7.218540 0.3370 0.3116 0.2763 0.2504 0.2378
7.252050 0.2260 0.2327 0.2642 0.2919 0.3153
7.285560 0.3512 0.3689 0.3870 0.4056 0.4112
7.319070 0.4120 0.4120 0.4124 0.4146 0.4191
7.352580 0.4298 0.4413 0.4501 0.4556 0.4617
7.386090 0.4633 0.4604 0.4571 0.4538 0.4526
7.419600 0.4516 0.4580 0.4573 0.4484 0.4410
7.453110 0.4412 0.4442 0.4474 0.4535 0.4618
7.486620 0.4737 0.4812 0.4828 0.4795 0.4617
7.520130 0.4456 0.4275 0.4077 0.3887 0.3700
7.553640 0.3713 0.3863 0.4096 0.4165 0.4232
7.587150 0.4380 0.4628 0.4847 0.4936 0.5038
7.620660 0.5417 0.5485 0.5532 0.5552 0.5577
7.654170 0.5652 0.5671 0.5684 0.5733 0.5774
7.687680 0.5828 0.5907 0.5975 0.6023 0.6050
7.721190 0.6050 0.6049 0.6033 0.5946 0.5892
7.754700 0.5785 0.5732 0.5673 0.5528 0.5454
7.788210 0.5365 0.5116 0.4643 0.4405 0.4297
7.821720 0.4213 0.4124 0.4091 0.3881 0.3842
7.855230 0.3755 0.3656 0.3603 0.3647 0.3697
7.888740 0.3738 0.4123 0.4169 0.4189 0.4171
7.922250 0.4094 0.4015 0.3784 0.3358 0.3227
7.955760 0.3085 0.2715 0.2346 0.2072 0.1727
7.989270 0.1387 0.1039 0.0907 0.0787 0.0583
8.022780 0.0406 0.0313 0.0262 0.0260 0.0250
8.056290 0.0250 0.0250 0.0231 0.0211 0.0210
8.089800 0.0202 0.0184 0.0164 0.0152 0.0158
8.123310 0.0160 0.0176 0.0180 0.0164 0.0136
8.156820 0.0146 0.0175 0.0180 0.0196 0.0200
8.190330 0.0240 0.0298 0.0366 0.0420 0.0510
8.223840 0.0711 0.0874 0.1138 0.1321 0.1521
8.257350 0.1690 0.1882 0.2073 0.2271 0.2390
8.290860 0.2649 0.2849 0.2938 0.3032 0.3066
8.324370 0.3094 0.3165 0.3196 0.3337 0.3531
8.357880 0.3653 0.3819 0.3966 0.4048 0.4208
8.391390 0.4420 0.4607 0.4884 0.4956 0.4960
8.424900 0.4943 0.4873 0.4802 0.4699 0.4639
8.458410 0.4630 0.4638 0.4681 0.4731 0.4813
8.491920 0.4873 0.4966 0.5055 0.5148 0.5227
8.525430 0.5291 0.5344 0.5387 0.5440 0.5599
8.558940 0.5677 0.5694 0.5700 0.5714 0.5720
8.592450 0.5584 0.5358 0.5125 0.4923 0.4793
8.625960 0.4691 0.4611 0.4507 0.4449 0.4454
8.659470 0.4480 0.4585 0.4704 0.4841 0.4964
8.692980 0.5193 0.5364 0.5483 0.5520 0.5527
8.726490 0.5544 0.5516 0.5500 0.5554 0.5593
8.760000 0.5635 0.5650 0.5664 0.5670 0.5518
8.793510 0.5285 0.5107 0.4944 0.4754 0.4569
8.827020 0.4498 0.4479 0.4470 0.4492 0.4499
8.860530 0.4436 0.4363 0.4340 0.4351 0.4418
8.894040 0.4503 0.4591 0.4668 0.4718 0.4762
8.927550 0.4785 0.4790 0.4656 0.4449 0.4290
8.961060 0.4193 0.4142 0.4114 0.4182 0.4312
8.994570 0.4529 0.4845 0.5151 0.5388 0.5651
9.028080 0.5894 0.6026 0.6137 0.6273 0.6357
9.061590 0.6436 0.6534 0.6597 0.6620 0.6620
9.095100 0.6620 0.6614 0.6582 0.6498 0.6394
9.128610 0.6344 0.6274 0.6204 0.6168 0.6172
9.162120 0.6223 0.6290 0.6348 0.6398 0.6437
9.195630 0.6433 0.6365 0.6249 0.6113 0.6045
9.229140 0.6030 0.6012 0.5987 0.5949 0.5903
9.262650 0.5818 0.5689 0.5577 0.5444 0.5109
9.296160 0.4632 0.4490 0.4498 0.4544 0.4598
9.329670 0.4672 0.4822 0.4967 0.5090 0.5122
9.363180 0.5068 0.4904 0.4582 0.4241 0.3742
9.396690 0.3104 0.2383 0.1828 0.1650 0.1419
9.430200 0.1345 0.1610 0.1936 0.2392 0.3231
9.463710 0.3996 0.4344 0.4568 0.4811 0.5073
9.497220 0.5230 0.5343 0.5404 0.5513 0.5650
9.530730 0.5650 0.5650 0.5617 0.5582 0.5620
9.564240 0.5661 0.5706 0.5784 0.5837 0.5880
9.597750 0.5858 0.5786 0.5731 0.5672 0.5616
9.631260 0.5496 0.5407 0.5295 0.5146 0.5093
9.664770 0.4983 0.4733 0.4478 0.4291 0.4115
9.698280 0.3930 0.3749 0.3656 0.3547 0.3520
9.731790 0.3470 0.3473 0.3486 0.3505 0.3525
9.765300 0.3543 0.3550 0.3550 0.3500 0.3357
9.798810 0.3277 0.3130 0.2853 0.2680 0.2545
9.832320 0.2488 0.2293 0.2022 0.1789 0.1617
9.865830 0.1549 0.1397 0.1376 0.1265 0.1056
9.899340 0.1015 0.0997 0.0980 0.0979 0.0967
9.932850 0.0950 0.0954 0.1006 0.1187 0.1335
9.966360 0.1579 0.1659 0.1793 0.1988 0.2130
9.999870 0.2360 0.2381 0.2548 0.2783 0.2804
10.033380 0.2837 0.2893 0.2995 0.3214 0.3426
10.066890 0.3592 0.3737 0.3861 0.4015 0.4214
10.100400 0.4502 0.4590 0.4651 0.4718 0.4763
10.133910 0.4782 0.4789 0.4774 0.4743 0.4763
10.167420 0.4781 0.4802 0.4909 0.5207 0.5502
10.200930 0.5791 0.5858 0.5903 0.5920 0.5917
10.234440 0.5886 0.5786 0.5712 0.5667 0.5634
10.267950 0.5545 0.5511 0.5377 0.4851 0.4446
10.301460 0.4047 0.3886 0.3716 0.3539 0.3481
10.334970 0.3522 0.3654 0.4162 0.4581 0.4940
10.368480 0.5149 0.5420 0.5790 0.6204 0.6392
10.401990 0.6511 0.6591 0.6671 0.6770 0.6860
10.435500 0.6920 0.6993 0.7090 0.7090 0.7111
10.469010 0.7141 0.7181 0.7231 0.7280 0.7310
10.502520 0.7330 0.7341 0.7361 0.7380 0.7380
10.536030 0.7380 0.7390 0.7410 0.7430 0.7430
10.569540 0.7430 0.7440 0.7440 0.7440 0.7440
10.603050 0.7440 0.7440 0.7429 0.7390 0.7380
10.636560 0.7360 0.7333 0.7312 0.7292 0.7264
10.670070 0.7190 0.7145 0.6922 0.6690 0.6513
10.703580 0.6404 0.6025 0.5731 0.5443 0.5074
10.737090 0.4554 0.4200 0.3836 0.3642 0.3559
10.770600 0.3611 0.3665 0.3911 0.4145 0.4534
10.804110 0.4677 0.4769 0.4824 0.4900 0.4997
10.837620 0.5027 0.5102 0.5235 0.5304 0.5595
10.871130 0.5692 0.5859 0.6021 0.6093 0.6144
10.904640 0.6150 0.6141 0.6122 0.6102 0.6011
10.938150 0.5867 0.5690 0.5590 0.5492 0.5366
10.971660 0.5271 0.5161 0.5150 0.5195 0.5343
11.005170 0.5574 0.5689 0.5815 0.5998 0.6258
11.038680 0.6509 0.6658 0.6819 0.6905 0.6950
11.072190 0.6960 0.6945 0.6866 0.6678 0.6547
11.105700 0.6432 0.6264 0.6106 0.5851 0.5516
11.139210 0.5153 0.4702 0.4439 0.4301 0.4270
11.172720 0.4343 0.4499 0.4891 0.5326 0.5989
11.206230 0.6306 0.6440 0.6537 0.6619 0.6736
11.239740 0.7006 0.7128 0.7178 0.7259 0.7326
11.273250 0.7370 0.7425 0.7522 0.7625 0.7657
11.306760 0.7675 0.7695 0.7708 0.7710 0.7687
11.340270 0.7680 0.7680 0.7665 0.7652 0.7635
11.373780 0.7615 0.7464 0.7309 0.7180 0.7105
11.407290 0.6998 0.6861 0.6786 0.6764 0.6760
11.440800 0.6796 0.6851 0.6914 0.7033 0.7115
11.474310 0.7167 0.7245 0.7347 0.7414 0.7448
11.507820 0.7484 0.7506 0.7523 0.7580 0.7685
11.541330 0.7749 0.7772 0.7823 0.7850 0.7856
11.574840 0.7914 0.7956 0.7960 0.7960 0.7960
11.608350 0.7954 0.7938 0.7918 0.7904 0.7870
11.641860 0.7826 0.7804 0.7775 0.7741 0.7711
11.675370 0.7625 0.7493 0.7421 0.7348 0.7322
11.708880 0.7348 0.7398 0.7435 0.7459 0.7519
11.742390 0.7584 0.7620 0.7644 0.7679 0.7714
11.775900 0.7767 0.7834 0.7870 0.7880 0.7904
11.809410 0.7940 0.7955 0.7970 0.7989 0.8000
11.842920 0.8009 0.8020 0.8025 0.8030 0.8030
11.876430 0.8040 0.8060 0.8070 0.8070 0.8061
11.909940 0.8050 0.8040 0.8030 0.8030 0.8015
11.943450 0.8000 0.8000 0.8000 0.7990 0.7970
11.976960 0.7955 0.7950 0.7940 0.7905 0.7865
12.010470 0.7830 0.7805 0.7776 0.7731 0.7696
12.043980 0.7666 0.7626 0.7575 0.7515 0.7480
12.077490 0.7445 0.7376 0.7316 0.7275 0.7236
12.111000 0.7153 0.7086 0.7084 0.7115 0.7178
12.144510 0.7227 0.7270 0.7321 0.7400 0.7447
12.178020 0.7483 0.7554 0.7618 0.7661 0.7691
12.211530 0.7735 0.7787 0.7803 0.7810 0.7817
12.245040 0.7837 0.7853 0.7867 0.7887 0.7904
12.278550 0.7917 0.7930 0.7923 0.7907 0.7900
12.312060 0.7900 0.7900 0.7900 0.7900 0.7900
12.345570 0.7904 0.7910 0.7917 0.7930 0.7920
12.379080 0.7893 0.7873 0.7860 0.7849 0.7830
12.412590 0.7830 0.7823 0.7810 0.7806 0.7793
12.446100 0.7780 0.7780 0.7776 0.7758 0.7750
12.479610 0.7746 0.7724 0.7685 0.7624 0.7582
12.513120 0.7504 0.7476 0.7442 0.7364 0.7295
12.546630 0.7227 0.7165 0.7104 0.7072 0.7020
12.580140 0.6916 0.6789 0.6652 0.6567 0.6470
12.613650 0.6378 0.6276 0.6175 0.6109 0.6074
12.647160 0.6096 0.6126 0.6159 0.6201 0.6254
12.680670 0.6300 0.6276 0.6160 0.6024 0.5898
12.714180 0.5753 0.5644 0.5611 0.5566 0.5520
12.747690 0.5538 0.5607 0.5656 0.5757 0.5812
12.781200 0.5976 0.6161 0.6205 0.6225 0.6259
12.814710 0.6320 0.6325 0.6340 0.6336 0.6305
12.848220 0.6239 0.6194 0.6165 0.6117 0.6072
12.881730 0.5863 0.5666 0.5488 0.5339 0.5188
12.915240 0.5016 0.4814 0.4579 0.4438 0.4102
12.948750 0.3907 0.3763 0.3678 0.3532 0.3430
12.982260 0.3439 0.3561 0.3712 0.3832 0.3961
13.015770 0.4081 0.4213 0.4466 0.4543 0.4698
13.049280 0.4797 0.4899 0.5015 0.5067 0.5137
13.082790 0.5200 0.5196 0.5144 0.5073 0.4987
13.116300 0.4828 0.4675 0.4462 0.4174 0.3741
13.149810 0.3458 0.3243 0.3161 0.3042 0.2736
13.183320 0.2546 0.2136 0.1823 0.1667 0.1517
13.216830 0.1396 0.1295 0.1243 0.1108 0.1044
13.250340 0.1021 0.0983 0.0932 0.0882 0.0823
13.283850 0.0801 0.0772 0.0723 0.0720 0.0701
13.317360 0.0700 0.0719 0.0730 0.0749 0.0779
13.350870 0.0828 0.0916 0.0929 0.0977 0.1018
13.384380 0.1067 0.1089 0.1167 0.1238 0.1250
13.417890 0.1288 0.1386 0.1419 0.1467 0.1612
13.451400 0.1761 0.1902 0.2036 0.2156 0.2256
13.484910 0.2327 0.2493 0.2643 0.2802 0.2971
13.518420 0.3027 0.3143 0.3428 0.3595 0.3718
13.551930 0.3862 0.3996 0.4101 0.4217 0.4320
13.585440 0.4404 0.4516 0.4622 0.4739 0.4785
13.618950 0.4864 0.4921 0.4995 0.5026 0.5086
13.652460 0.5140 0.5190 0.5241 0.5275 0.5346
13.685970 0.5376 0.5421 0.5471 0.5513 0.5544
13.719480 0.5550 0.5566 0.5570 0.5570 0.5570
13.752990 0.5570 0.5578 0.5596 0.5616 0.5620
13.786500 0.5628 0.5630 0.5622 0.5620 0.5620
13.820010 0.5603 0.5600 0.5584 0.5580 0.5556
13.853520 0.5534 0.5506 0.5483 0.5455 0.5417
13.887030 0.5385 0.5314 0.5242 0.5107 0.5039
13.920540 0.4916 0.4719 0.4629 0.4506 0.4329
13.954050 0.4078 0.3820 0.3625 0.3502 0.3389
13.987560 0.3263 0.3093 0.2858 0.2697 0.2556
14.021070 0.2427 0.2335 0.2310 0.2330 0.2387
14.054580 0.2558 0.2784 0.2970 0.3132 0.3353
14.088090 0.3699 0.3937 0.4113 0.4368 0.4541
14.121600 0.4654 0.4824 0.5001 0.5162 0.5363
14.155110 0.5583 0.5740 0.5849 0.5962 0.6095
14.188620 0.6242 0.6324 0.6396 0.6455 0.6505
14.222130 0.6548 0.6567 0.6605 0.6654 0.6697
14.255640 0.6710 0.6717 0.6732 0.6757 0.6781
14.289150 0.6807 0.6831 0.6840 0.6851 0.6865
14.322660 0.6870 0.6881 0.6906 0.6931 0.6940
14.356170 0.6940 0.6940 0.6940 0.6940 0.6913
14.389680 0.6906 0.6957 0.6990 0.6979 0.6964
14.423190 0.6949 0.6929 0.6931 0.6940 0.6929
14.456700 0.6920 0.6915 0.6888 0.6864 0.6849
14.490210 0.6823 0.6810 0.6799 0.6762 0.6696
14.523720 0.6633 0.6610 0.6599 0.6522 0.6425
14.557230 0.6351 0.6303 0.6223 0.6159 0.6095
14.590740 0.5984 0.5870 0.5764 0.5691 0.5647
14.624250 0.5573 0.5513 0.5472 0.5411 0.5369
14.657760 0.5316 0.5253 0.5220 0.5189 0.5156
14.691270 0.5133 0.5110 0.5118 0.5151 0.5213
14.724780 0.5300 0.5380 0.5501 0.5694 0.5801
14.758290 0.5851 0.5918 0.6003 0.6108 0.6202
14.791800 0.6253 0.6316 0.6361 0.6403 0.6450
14.825310 0.6499 0.6514 0.6520 0.6528 0.6540
14.858820 0.6540 0.6548 0.6560 0.6564 0.6579
14.892330 0.6590 0.6590 0.6590 0.6590 0.6590
14.925840 0.6590 0.6582 0.6566 0.6560 0.6560
14.959350 0.6560 0.6564 0.6579 0.6590 0.6603
14.992860 0.6637 0.6660 0.6645 0.6617 0.6604
15.026370 0.6590 0.6596 0.6604 0.6584 0.6567
15.059880 0.6560 0.6555 0.6540 0.6534 0.6517
15.093390 0.6504 0.6484 0.6470 0.6464 0.6450
15.126900 0.6447 0.6440 0.6440 0.6434 0.6414
15.160410 0.6397 0.6384 0.6361 0.6334 0.6320
15.193920 0.6314 0.6297 0.6276 0.6240 0.6228
15.227430 0.6200 0.6200 0.6200 0.6197 0.6190
15.260940 0.6184 0.6164 0.6147 0.6140 0.6134
15.294450 0.6111 0.6069 0.6008 0.5980 0.5977
15.327960 0.5959 0.5927 0.5910 0.5880 0.5878
15.361470 0.5867 0.5843 0.5796 0.5757 0.5676
15.394980 0.5650 0.5646 0.5617 0.5600 0.5597
15.428490 0.5633 0.5871
##END=
