##TITLE=L-LYSINE MONOHYDROCHLORIDE
##JCAMP-DX=4.24
##DATA TYPE=INFRARED SPECTRUM
##CLASS=COBLENTZ III
##ORIGIN=SMITH KLINE & FRENCH LABS.
##OWNER=COBLENTZ SOCIETY
Collection (C) 2018 copyright by the U.S. Secretary of Commerce
on behalf of the United States of America. All rights reserved.
##DATE=1965/06/18
##NAMES=lysine hydrochloride
##MOLFORM=C6 H15 Cl N2 O2
##MP=263-264 C
##SOURCE REFERENCE=COBLENTZ NO. 5817
##$NIST ID=B6005817
##$NIST SOURCE=COBLENTZ
##$NIST IMAGE=cob5817
##SPECTROMETER/DATA SYSTEM=PERKIN-ELMER 521 (GRATING)
##INSTRUMENT PARAMETERS=ORDER CHANGES: 1999, 690 CM^-^1
##STATE=SOLID (MULL, KBr PLATES)
$$INACTIVE KBr PLATES AROUND 200-400 CM^-^1
$$SPECTRAL CONTAMINATION DUE TO OIL AROUND 2900 CM^-^1
##SAMPLING PROCEDURE=TRANSMISSION
##RESOLUTION=2
##DATA PROCESSING=DIGITIZED BY NIST FROM HARD COPY (FROM TWO SEGMENTS)
##XUNITS=1/CM
##YUNITS=TRANSMITTANCE
##XFACTOR=1.000000
##YFACTOR=1
##DELTAX=0.969699
##FIRSTX=201.212
##LASTX=4014.07
##FIRSTY=0.151
##MAXX=4014.07
##MINX=201.212
##MAXY=0.99
##MINY=0.00202771
##NPOINTS=3933
##XYDATA=(X++(Y..Y))
201.212000 0.1510 0.1510 0.1500 0.1490 0.1470
206.060494 0.1470 0.1460 0.1450 0.1440 0.1440
210.908987 0.1430 0.1410 0.1410 0.1400 0.1400
215.757481 0.1390 0.1390 0.1380 0.1350 0.1310
220.605974 0.1280 0.1280 0.1270 0.1260 0.1250
225.454468 0.1250 0.1230 0.1220 0.1220 0.1220
230.302961 0.1210 0.1210 0.1210 0.1210 0.1210
235.151455 0.1180 0.1180 0.1180 0.1180 0.1170
239.999948 0.1170 0.1160 0.1160 0.1160 0.1150
244.848442 0.1150 0.1140 0.1140 0.1110 0.1100
249.696935 0.1090 0.1080 0.1050 0.1040 0.1030
254.545429 0.1020 0.1000 0.0990 0.0990 0.0990
259.393922 0.0990 0.0990 0.1000 0.1030 0.1030
264.242416 0.1030 0.1030 0.1030 0.1020 0.1000
269.090909 0.0980 0.0980 0.0990 0.1050 0.1060
273.939403 0.1140 0.1140 0.1150 0.1150 0.1140
278.787896 0.1140 0.1140 0.1120 0.1100 0.1060
283.636390 0.1030 0.0990 0.0970 0.0960 0.0960
288.484884 0.0970 0.0970 0.0970 0.0970 0.0980
293.333377 0.0980 0.1050 0.1279 0.1340 0.1390
298.181871 0.1410 0.1470 0.1490 0.1490 0.1460
303.030364 0.1460 0.1460 0.1450 0.1450 0.1460
307.878858 0.1490 0.1530 0.1570 0.1610 0.1620
312.727351 0.1650 0.1690 0.1690 0.1700 0.1710
317.575845 0.1740 0.1760 0.1860 0.1970 0.2000
322.424338 0.2249 0.2310 0.2350 0.2360 0.2360
327.272832 0.2360 0.2360 0.2360 0.2370 0.2400
332.121325 0.2510 0.2640 0.2710 0.2720 0.2740
336.969819 0.2750 0.2770 0.2780 0.2800 0.2830
341.818312 0.2860 0.2890 0.2990 0.3229 0.3777
346.666806 0.3990 0.4130 0.4250 0.4350 0.4430
351.515299 0.4450 0.4470 0.4490 0.4550 0.4590
356.363793 0.4630 0.4720 0.4780 0.4800 0.4830
361.212287 0.4870 0.4890 0.5010 0.5100 0.5140
366.060780 0.5180 0.5260 0.5380 0.5480 0.5520
370.909274 0.5540 0.5550 0.5630 0.5869 0.5880
375.757767 0.5860 0.5820 0.5760 0.5750 0.5690
380.606261 0.5620 0.5620 0.5610 0.5610 0.5610
385.454754 0.5610 0.5610 0.5610 0.5640 0.5690
390.303248 0.5750 0.5760 0.5899 0.6029 0.6348
395.151741 0.6580 0.6590 0.6650 0.6700 0.6800
400.000235 0.6800 0.6770 0.6730 0.6700 0.6700
404.848728 0.6690 0.6630 0.6520 0.6500 0.6400
409.697222 0.6330 0.6280 0.6230 0.6170 0.6001
414.545715 0.5930 0.5900 0.5880 0.6310 0.6699
419.394209 0.6730 0.6740 0.6750 0.6810 0.6820
424.242702 0.6820 0.6810 0.6770 0.6710 0.6650
429.091196 0.6610 0.6500 0.6410 0.6350 0.6330
433.939689 0.6340 0.6440 0.6560 0.6640 0.6760
438.788183 0.6860 0.6970 0.7159 0.7628 0.7740
443.636677 0.7820 0.7930 0.8010 0.8180 0.8260
448.485170 0.8290 0.8310 0.8350 0.8400 0.8440
453.333664 0.8480 0.8550 0.8560 0.8600 0.8600
458.182157 0.8600 0.8600 0.8600 0.8590 0.8580
463.030651 0.8540 0.8530 0.8500 0.8470 0.8310
467.879144 0.8110 0.8070 0.8040 0.8000 0.7960
472.727638 0.7960 0.7990 0.8020 0.8040 0.8180
477.576131 0.8340 0.8480 0.8580 0.8670 0.8680
482.424625 0.8820 0.8830 0.8840 0.8880 0.8910
487.273118 0.8940 0.8970 0.8990 0.9000 0.9000
492.121612 0.9010 0.9000 0.9000 0.9000 0.9010
496.970105 0.9010 0.9030 0.9050 0.9050 0.9060
501.818599 0.9060 0.9070 0.9080 0.9080 0.9090
506.667092 0.9110 0.9110 0.9130 0.9130 0.9130
511.515586 0.9140 0.9150 0.9170 0.9170 0.9170
516.364080 0.9170 0.9150 0.9150 0.9150 0.9130
521.212573 0.9120 0.9110 0.9070 0.9060 0.9050
526.061067 0.9050 0.9030 0.9010 0.8940 0.8930
530.909560 0.8910 0.8900 0.8830 0.8780 0.8730
535.758054 0.8700 0.8640 0.8471 0.8360 0.8181
540.606547 0.8130 0.7700 0.7590 0.7470 0.7151
545.455041 0.6771 0.6501 0.6490 0.6490 0.6619
550.303534 0.6790 0.6930 0.7100 0.7120 0.7110
555.152028 0.7090 0.7060 0.7050 0.7050 0.7070
560.000521 0.7720 0.7920 0.8120 0.8360 0.8590
564.849015 0.8790 0.8880 0.8940 0.9010 0.9129
569.697508 0.9150 0.9170 0.9200 0.9270 0.9290
574.546002 0.9300 0.9320 0.9350 0.9370 0.9390
579.394495 0.9420 0.9440 0.9470 0.9490 0.9530
584.242989 0.9550 0.9560 0.9590 0.9600 0.9620
589.091482 0.9630 0.9660 0.9670 0.9690 0.9710
593.939976 0.9730 0.9740 0.9780 0.9780 0.9800
598.788470 0.9830 0.9840 0.9840 0.9840 0.9850
603.636963 0.9850 0.9850 0.9850 0.9850 0.9850
608.485457 0.9850 0.9850 0.9850 0.9850 0.9850
613.333950 0.9860 0.9860 0.9860 0.9860 0.9860
618.182444 0.9860 0.9860 0.9860 0.9860 0.9860
623.030937 0.9860 0.9860 0.9860 0.9860 0.9860
627.879431 0.9860 0.9860 0.9860 0.9860 0.9870
632.727924 0.9870 0.9870 0.9870 0.9870 0.9870
637.576418 0.9870 0.9870 0.9870 0.9870 0.9870
642.424911 0.9870 0.9870 0.9870 0.9870 0.9870
647.273405 0.9870 0.9870 0.9850 0.9800 0.9740
652.121898 0.9660 0.9500 0.9390 0.9320 0.9270
656.970392 0.9140 0.8960 0.8960 0.8970 0.9020
661.818885 0.9110 0.9150 0.9170 0.9180 0.9409
666.667379 0.9540 0.9550 0.9570 0.9620 0.9630
671.515873 0.9660 0.9670 0.9680 0.9690 0.9690
676.364366 0.9710 0.9710 0.9710 0.9710 0.9710
681.212860 0.9710 0.9710 0.9710 0.9690 0.9680
686.061353 0.9660 0.9630 0.9620 0.9600 0.9560
690.909847 0.9500 0.9450 0.9430 0.9420 0.9022
695.758340 0.8770 0.8710 0.8640 0.8560 0.8520
700.606834 0.8460 0.8310 0.8161 0.8140 0.8130
705.455327 0.8140 0.8760 0.8890 0.9080 0.9200
710.303821 0.9390 0.9420 0.9420 0.9420 0.9410
715.152314 0.9310 0.9240 0.9210 0.9180 0.9140
720.000808 0.9140 0.9130 0.9130 0.9120 0.9120
724.849301 0.9060 0.9010 0.8990 0.8910 0.8830
729.697795 0.8730 0.8311 0.7872 0.7840 0.7840
734.546288 0.8010 0.8360 0.8640 0.8660 0.8640
739.394782 0.8520 0.8400 0.8290 0.8280 0.8290
744.243275 0.8940 0.9130 0.9260 0.9360 0.9450
749.091769 0.9550 0.9650 0.9670 0.9690 0.9690
753.940263 0.9690 0.9690 0.9680 0.9650 0.9570
758.788756 0.9510 0.9241 0.9200 0.9200 0.9240
763.637250 0.9270 0.9310 0.9380 0.9420 0.9490
768.485743 0.9540 0.9570 0.9660 0.9730 0.9730
773.334237 0.9770 0.9790 0.9790 0.9790 0.9800
778.182730 0.9800 0.9790 0.9740 0.9730 0.9650
783.031224 0.9450 0.9320 0.9310 0.9320 0.9420
787.879717 0.9560 0.9670 0.9750 0.9840 0.9850
792.728211 0.9850 0.9840 0.9780 0.9740 0.9730
797.576704 0.9660 0.9550 0.9480 0.9370 0.9300
802.425198 0.9230 0.9240 0.9670 0.9770 0.9830
807.273691 0.9870 0.9890 0.9890 0.9890 0.9900
812.122185 0.9900 0.9900 0.9900 0.9900 0.9900
816.970678 0.9900 0.9900 0.9890 0.9890 0.9870
821.819172 0.9870 0.9860 0.9860 0.9840 0.9840
826.667666 0.9830 0.9810 0.9800 0.9790 0.9780
831.516159 0.9730 0.9680 0.9670 0.9650 0.9610
836.364653 0.9600 0.9570 0.9550 0.9550 0.9540
841.213146 0.9540 0.9470 0.9410 0.9360 0.9320
846.061640 0.9240 0.9130 0.9070 0.8881 0.8711
850.910133 0.8540 0.8340 0.8080 0.7630 0.7420
855.758627 0.7220 0.6971 0.6920 0.6920 0.7647
860.607120 0.7830 0.7940 0.8070 0.8230 0.8350
865.455614 0.8849 0.9020 0.9090 0.9289 0.9390
870.304107 0.9480 0.9510 0.9540 0.9590 0.9570
875.152601 0.9550 0.9540 0.9530 0.9530 0.9530
880.001094 0.9500 0.9470 0.9440 0.9410 0.9380
884.849588 0.9350 0.9350 0.9270 0.9200 0.9150
889.698081 0.9090 0.9070 0.9050 0.8940 0.8910
894.546575 0.8900 0.8820 0.8760 0.8700 0.8541
899.395068 0.8400 0.8250 0.7980 0.7800 0.7800
904.243562 0.7870 0.7930 0.8070 0.8229 0.8300
909.092056 0.8370 0.8470 0.8490 0.8530 0.8840
913.940549 0.8960 0.9060 0.9150 0.9210 0.9260
918.789043 0.9290 0.9300 0.9300 0.9270 0.9230
923.637536 0.9190 0.9150 0.9120 0.8941 0.8880
928.486030 0.8830 0.8750 0.8660 0.8500 0.8310
933.334523 0.7931 0.7740 0.7740 0.7750 0.8119
938.183017 0.8300 0.8550 0.8950 0.9030 0.9070
943.031510 0.9080 0.9060 0.9030 0.9020 0.8990
947.880004 0.8940 0.8890 0.8830 0.8760 0.8720
952.728497 0.8680 0.8640 0.8500 0.8321 0.8290
957.576991 0.8300 0.8750 0.8790 0.8890 0.8900
962.425484 0.8900 0.8950 0.8990 0.8990 0.8960
967.273978 0.8910 0.8890 0.8850 0.8840 0.8810
972.122471 0.8750 0.8720 0.8680 0.8650 0.8610
976.970965 0.8580 0.8540 0.8470 0.8430 0.8380
981.819458 0.8230 0.8170 0.8170 0.8280 0.8380
986.667952 0.8530 0.8650 0.8670 0.8670 0.8650
991.516446 0.8590 0.8480 0.8420 0.8161 0.8050
996.364939 0.7900 0.7760 0.7620 0.7620 0.7630
1001.213433 0.7650 0.7660 0.7660 0.7530 0.7480
1006.061926 0.7420 0.7150 0.6880 0.6750 0.6740
1010.910420 0.6750 0.6760 0.6930 0.7050 0.7538
1015.758913 0.7760 0.8000 0.8290 0.8480 0.8780
1020.607407 0.8780 0.8770 0.8760 0.8710 0.8660
1025.455900 0.8560 0.8520 0.8320 0.8200 0.8170
1030.304394 0.8230 0.8350 0.8749 0.8850 0.8910
1035.152887 0.8950 0.9020 0.9030 0.9020 0.9010
1040.001381 0.8990 0.8950 0.8930 0.8880 0.8840
1044.849874 0.8780 0.8730 0.8670 0.8660 0.8780
1049.698368 0.8780 0.8780 0.8760 0.8720 0.8720
1054.546861 0.8730 0.8790 0.8840 0.8870 0.8890
1059.395355 0.8910 0.8950 0.8960 0.8990 0.8990
1064.243849 0.8970 0.8940 0.8910 0.8900 0.8850
1069.092342 0.8820 0.8770 0.8710 0.8700 0.8770
1073.940836 0.8840 0.8850 0.8870 0.8910 0.8910
1078.789329 0.8910 0.8910 0.8910 0.8910 0.8910
1083.637823 0.8910 0.8910 0.8910 0.8910 0.8910
1088.486316 0.8820 0.8750 0.8750 0.8730 0.8650
1093.334810 0.8580 0.8540 0.8490 0.8380 0.8320
1098.183303 0.8120 0.8120 0.8120 0.8120 0.8190
1103.031797 0.8340 0.8540 0.8580 0.8610 0.8640
1107.880290 0.8640 0.8550 0.8490 0.8480 0.8470
1112.728784 0.8460 0.8420 0.8360 0.8250 0.8160
1117.577277 0.8120 0.8060 0.7840 0.7631 0.7540
1122.425771 0.7510 0.7470 0.7310 0.7280 0.7290
1127.274264 0.7360 0.7400 0.7410 0.7420 0.7420
1132.122758 0.7420 0.7420 0.7420 0.7420 0.7400
1136.971251 0.7220 0.7180 0.7010 0.6801 0.6750
1141.819745 0.6750 0.6920 0.6950 0.6970 0.7070
1146.668239 0.7180 0.7390 0.7390 0.7360 0.7310
1151.516732 0.7280 0.7230 0.7190 0.7150 0.7090
1156.365226 0.6730 0.6750 0.6760 0.7009 0.7568
1161.213719 0.7860 0.7960 0.8140 0.8200 0.8310
1166.062213 0.8320 0.8370 0.8380 0.8370 0.8350
1170.910706 0.8350 0.8340 0.8340 0.8320 0.8320
1175.759200 0.8310 0.8250 0.8190 0.8160 0.8070
1180.607693 0.7980 0.7940 0.7820 0.7680 0.7570
1185.456187 0.7450 0.7180 0.6851 0.6581 0.6570
1190.304680 0.6560 0.6560 0.6790 0.7150 0.7540
1195.153174 0.7710 0.7820 0.7860 0.7870 0.7930
1200.001667 0.8000 0.8160 0.8240 0.8280 0.8350
1204.850161 0.8490 0.8530 0.8530 0.8530 0.8540
1209.698654 0.8540 0.8530 0.8520 0.8480 0.8490
1214.547148 0.8480 0.8470 0.8480 0.8440 0.8410
1219.395642 0.8400 0.8350 0.8230 0.8130 0.8100
1224.244135 0.8100 0.8120 0.8260 0.8280 0.8290
1229.092629 0.8300 0.8280 0.8260 0.8240 0.8170
1233.941122 0.8120 0.8100 0.8000 0.7890 0.7760
1238.789616 0.7690 0.7690 0.7700 0.7860 0.7950
1243.638109 0.8080 0.8110 0.8110 0.8110 0.8100
1248.486603 0.8070 0.8060 0.8020 0.7900 0.7860
1253.335096 0.7810 0.7760 0.7760 0.7750 0.7760
1258.183590 0.7810 0.7870 0.7810 0.7540 0.7500
1263.032083 0.7510 0.7520 0.7620 0.7710 0.7800
1267.880577 0.7820 0.7820 0.7820 0.7820 0.7810
1272.729070 0.7770 0.7640 0.7540 0.7520 0.7480
1277.577564 0.7430 0.7390 0.7170 0.7030 0.6870
1282.426057 0.6450 0.6250 0.6040 0.6040 0.6060
1287.274551 0.6390 0.6510 0.6530 0.6560 0.6650
1292.123044 0.6790 0.7000 0.7120 0.7230 0.7240
1296.971538 0.7240 0.7190 0.7120 0.7050 0.6980
1301.820032 0.6790 0.6680 0.6530 0.6440 0.6390
1306.668525 0.6340 0.6320 0.6280 0.6220 0.6150
1311.517019 0.5960 0.5730 0.5540 0.5390 0.5370
1316.365512 0.5310 0.5240 0.5010 0.5000 0.5000
1321.214006 0.5080 0.5100 0.5100 0.5100 0.5080
1326.062499 0.5000 0.4980 0.4960 0.4930 0.4910
1330.910993 0.4900 0.4900 0.5120 0.5120 0.5080
1335.759486 0.4900 0.4710 0.4570 0.4450 0.4440
1340.607980 0.4450 0.4620 0.5398 0.5420 0.5420
1345.456473 0.5400 0.5370 0.5120 0.5020 0.5020
1350.304967 0.5020 0.5080 0.5130 0.5270 0.5300
1355.153460 0.5280 0.5100 0.4930 0.4770 0.4470
1360.001954 0.4450 0.4450 0.4850 0.5000 0.5010
1364.850447 0.5060 0.5160 0.5240 0.5260 0.5250
1369.698941 0.5020 0.4870 0.4720 0.3912 0.3681
1374.547435 0.3460 0.3430 0.3430 0.3440 0.3470
1379.395928 0.3810 0.4030 0.4289 0.4479 0.4560
1384.244422 0.4791 0.5131 0.5480 0.5700 0.5820
1389.092915 0.5980 0.5990 0.5990 0.5990 0.5980
1393.941409 0.5880 0.5810 0.5800 0.5790 0.5640
1398.789902 0.5580 0.5520 0.5450 0.5380 0.5320
1403.638396 0.5270 0.5240 0.5210 0.5200 0.5200
1408.486889 0.5100 0.5030 0.5010 0.4870 0.4730
1413.335383 0.4670 0.4570 0.4390 0.4230 0.4170
1418.183876 0.4080 0.4060 0.4070 0.4080 0.4130
1423.032370 0.4180 0.4210 0.4260 0.4290 0.4620
1427.880863 0.5070 0.5150 0.5160 0.5180 0.5160
1432.729357 0.5020 0.4910 0.4799 0.4360 0.4200
1437.577850 0.4000 0.3900 0.3840 0.3770 0.3660
1442.426344 0.3539 0.3290 0.3080 0.2890 0.2750
1447.274837 0.2580 0.2500 0.2400 0.2230 0.2060
1452.123331 0.2030 0.1949 0.1670 0.1490 0.1310
1456.971825 0.1280 0.1250 0.1200 0.1170 0.1150
1461.820318 0.1140 0.1120 0.1270 0.1350 0.1390
1466.668812 0.1500 0.1580 0.1620 0.1750 0.2498
1471.517305 0.2680 0.2750 0.2810 0.2990 0.3070
1476.365799 0.3180 0.3190 0.3190 0.3190 0.3190
1481.214292 0.3040 0.2990 0.2920 0.2780 0.2660
1486.062786 0.2520 0.2520 0.2500 0.2480 0.2460
1490.911279 0.2430 0.2400 0.2370 0.2340 0.2330
1495.759773 0.2310 0.2310 0.2310 0.2390 0.2500
1500.608266 0.2700 0.2870 0.2960 0.3010 0.3020
1505.456760 0.3370 0.3380 0.3380 0.3380 0.3400
1510.305253 0.3410 0.3420 0.3560 0.3830 0.3950
1515.153747 0.3960 0.3960 0.3880 0.3810 0.3720
1520.002240 0.3700 0.3670 0.3650 0.3620 0.3600
1524.850734 0.3580 0.3550 0.3530 0.3530 0.3540
1529.699228 0.3591 0.3971 0.4320 0.4390 0.4450
1534.547721 0.4480 0.4670 0.4870 0.4960 0.4960
1539.396215 0.4950 0.4920 0.4910 0.4910 0.4910
1544.244708 0.4930 0.4960 0.5060 0.5140 0.5300
1549.093202 0.5400 0.5510 0.5610 0.5790 0.5920
1553.941695 0.6000 0.6060 0.6090 0.6100 0.6110
1558.790189 0.6110 0.6110 0.6110 0.6080 0.6020
1563.638682 0.5910 0.5870 0.5860 0.5850 0.5680
1568.487176 0.5520 0.5400 0.5340 0.5310 0.5240
1573.335669 0.5080 0.4920 0.4730 0.4510 0.4470
1578.184163 0.4430 0.4390 0.4350 0.4330 0.4320
1583.032656 0.4310 0.4300 0.4290 0.4270 0.4260
1587.881150 0.4250 0.4180 0.4110 0.4020 0.3900
1592.729643 0.3790 0.3730 0.3670 0.3600 0.3550
1597.578137 0.3540 0.3550 0.3580 0.3610 0.3640
1602.426630 0.3700 0.3810 0.3940 0.4000 0.4060
1607.275124 0.4060 0.4070 0.4070 0.4070 0.4070
1612.123618 0.4020 0.3870 0.3770 0.3660 0.3461
1616.972111 0.3280 0.3200 0.3080 0.2950 0.2840
1621.820605 0.2820 0.2810 0.2800 0.2800 0.2810
1626.669098 0.2870 0.2900 0.2920 0.2940 0.2990
1631.517592 0.3180 0.3380 0.3460 0.3460 0.3480
1636.366085 0.3490 0.3500 0.3500 0.3500 0.3520
1641.214579 0.3540 0.3560 0.3560 0.4019 0.4479
1646.063072 0.4491 0.4851 0.5390 0.5850 0.5900
1650.911566 0.6020 0.6450 0.6500 0.6520 0.6530
1655.760059 0.6620 0.6790 0.6870 0.6910 0.6950
1660.608553 0.7160 0.7340 0.7430 0.7510 0.7520
1665.457046 0.7580 0.7720 0.7960 0.8070 0.8070
1670.305540 0.8100 0.8140 0.8140 0.8160 0.8220
1675.154033 0.8280 0.8290 0.8290 0.8320 0.8410
1680.002527 0.8470 0.8490 0.8560 0.8620 0.8620
1684.851021 0.8640 0.8640 0.8650 0.8660 0.8670
1689.699514 0.8680 0.8680 0.8890 0.8940 0.8950
1694.548008 0.8990 0.9010 0.9010 0.9020 0.9020
1699.396501 0.9030 0.9050 0.9060 0.9070 0.9070
1704.244995 0.9080 0.9090 0.9110 0.9120 0.9130
1709.093488 0.9140 0.9150 0.9170 0.9190 0.9200
1713.941982 0.9210 0.9230 0.9240 0.9250 0.9260
1718.790475 0.9270 0.9290 0.9300 0.9310 0.9320
1723.638969 0.9330 0.9350 0.9360 0.9370 0.9380
1728.487462 0.9380 0.9390 0.9410 0.9410 0.9420
1733.335956 0.9420 0.9430 0.9430 0.9440 0.9450
1738.184449 0.9470 0.9490 0.9500 0.9510 0.9530
1743.032943 0.9530 0.9540 0.9550 0.9560 0.9560
1747.881436 0.9560 0.9560 0.9560 0.9570 0.9570
1752.729930 0.9570 0.9590 0.9590 0.9590 0.9590
1757.578423 0.9600 0.9600 0.9600 0.9600 0.9600
1762.426917 0.9610 0.9610 0.9620 0.9620 0.9630
1767.275411 0.9630 0.9630 0.9630 0.9630 0.9630
1772.123904 0.9630 0.9630 0.9630 0.9630 0.9630
1776.972398 0.9620 0.9620 0.9620 0.9620 0.9630
1781.820891 0.9630 0.9630 0.9630 0.9630 0.9630
1786.669385 0.9630 0.9630 0.9630 0.9630 0.9630
1791.517878 0.9630 0.9630 0.9630 0.9630 0.9630
1796.366372 0.9630 0.9630 0.9630 0.9620 0.9620
1801.214865 0.9620 0.9620 0.9610 0.9610 0.9610
1806.063359 0.9610 0.9610 0.9600 0.9600 0.9600
1810.911852 0.9610 0.9600 0.9600 0.9600 0.9600
1815.760346 0.9600 0.9600 0.9600 0.9590 0.9590
1820.608839 0.9590 0.9600 0.9610 0.9610 0.9610
1825.457333 0.9610 0.9610 0.9610 0.9610 0.9600
1830.305826 0.9590 0.9560 0.9560 0.9560 0.9550
1835.154320 0.9550 0.9550 0.9540 0.9540 0.9550
1840.002813 0.9550 0.9550 0.9550 0.9550 0.9550
1844.851307 0.9540 0.9540 0.9530 0.9530 0.9530
1849.699801 0.9510 0.9510 0.9500 0.9490 0.9490
1854.548294 0.9490 0.9490 0.9490 0.9480 0.9480
1859.396788 0.9480 0.9470 0.9470 0.9450 0.9450
1864.245281 0.9450 0.9450 0.9450 0.9440 0.9440
1869.093775 0.9440 0.9440 0.9440 0.9430 0.9430
1873.942268 0.9430 0.9420 0.9420 0.9420 0.9420
1878.790762 0.9410 0.9410 0.9410 0.9410 0.9390
1883.639255 0.9390 0.9390 0.9380 0.9380 0.9380
1888.487749 0.9370 0.9370 0.9370 0.9360 0.9360
1893.336242 0.9360 0.9370 0.9360 0.9360 0.9360
1898.184736 0.9360 0.9350 0.9350 0.9310 0.9260
1903.033229 0.9260 0.9260 0.9260 0.9260 0.9260
1907.881723 0.9260 0.9260 0.9310 0.9320 0.9320
1912.730216 0.9320 0.9320 0.9310 0.9240 0.9210
1917.578710 0.9200 0.9190 0.9190 0.9190 0.9180
1922.427204 0.9190 0.9170 0.9140 0.9120 0.9110
1927.275697 0.9110 0.9110 0.9110 0.9090 0.9090
1932.124191 0.9090 0.9090 0.9070 0.9050 0.9020
1936.972684 0.9010 0.8990 0.8970 0.8970 0.8960
1941.821178 0.8960 0.8950 0.8940 0.8940 0.8930
1946.669671 0.8930 0.8910 0.8910 0.8910 0.8900
1951.518165 0.8900 0.8890 0.8890 0.8890 0.8880
1956.366658 0.8880 0.8870 0.8870 0.8880 0.8870
1961.215152 0.8870 0.8870 0.8870 0.8850 0.8850
1966.063645 0.8850 0.8850 0.8840 0.8840 0.8830
1970.912139 0.8830 0.8820 0.8820 0.8820 0.8810
1975.760632 0.8810 0.8790 0.8790 0.8770 0.8760
1980.609126 0.8760 0.8760 0.8760 0.8770 0.8770
1985.457619 0.8770 0.8770 0.8760 0.8750 0.8720
1990.306113 0.8720 0.8700 0.8680 0.8680 0.8670
1995.154606 0.8670 0.8670 0.8660 0.8660 0.8660
2000.003100 0.8660 0.8660 0.8660 0.8660 0.8660
2004.851594 0.8660 0.8660 0.8660 0.8660 0.8660
2009.700087 0.8660 0.8660 0.8660 0.8660 0.8660
2014.548581 0.8665 0.8670 0.8670 0.8670 0.8670
2019.397074 0.8670 0.8670 0.8669 0.8664 0.8660
2024.245568 0.8660 0.8660 0.8660 0.8659 0.8654
2029.094061 0.8650 0.8650 0.8650 0.8650 0.8649
2033.942555 0.8644 0.8640 0.8640 0.8638 0.8628
2038.791048 0.8620 0.8620 0.8619 0.8614 0.8610
2043.639542 0.8610 0.8609 0.8604 0.8599 0.8594
2048.488035 0.8589 0.8584 0.8577 0.8567 0.8560
2053.336529 0.8560 0.8559 0.8554 0.8549 0.8543
2058.185022 0.8538 0.8533 0.8525 0.8510 0.8500
2063.033516 0.8500 0.8498 0.8493 0.8488 0.8483
2067.882009 0.8480 0.8480 0.8478 0.8473 0.8468
2072.730503 0.8463 0.8460 0.8460 0.8454 0.8439
2077.578997 0.8428 0.8423 0.8418 0.8413 0.8403
2082.427490 0.8388 0.8380 0.8380 0.8378 0.8373
2087.275984 0.8368 0.8363 0.8360 0.8360 0.8358
2092.124477 0.8353 0.8343 0.8328 0.8320 0.8320
2096.972971 0.8320 0.8320 0.8320 0.8320 0.8320
2101.821464 0.8320 0.8326 0.8336 0.8343 0.8348
2106.669958 0.8353 0.8358 0.8363 0.8368 0.8373
2111.518451 0.8378 0.8386 0.8396 0.8403 0.8408
2116.366945 0.8413 0.8418 0.8426 0.8436 0.8447
2121.215438 0.8457 0.8463 0.8468 0.8477 0.8487
2126.063932 0.8504 0.8524 0.8537 0.8547 0.8560
2130.912425 0.8575 0.8591 0.8606 0.8610 0.8610
2135.760919 0.8621 0.8636 0.8644 0.8649 0.8654
2140.609412 0.8659 0.8664 0.8669 0.8674 0.8679
2145.457906 0.8688 0.8698 0.8704 0.8709 0.8714
2150.306399 0.8719 0.8732 0.8747 0.8754 0.8759
2155.154893 0.8764 0.8769 0.8774 0.8779 0.8780
2160.003387 0.8780 0.8784 0.8789 0.8799 0.8809
2164.851880 0.8810 0.8810 0.8814 0.8819 0.8820
2169.700374 0.8820 0.8825 0.8830 0.8830 0.8830
2174.548867 0.8830 0.8830 0.8835 0.8840 0.8840
2179.397361 0.8840 0.8840 0.8840 0.8845 0.8850
2184.245854 0.8850 0.8850 0.8850 0.8850 0.8850
2189.094348 0.8850 0.8850 0.8850 0.8845 0.8840
2193.942841 0.8840 0.8840 0.8840 0.8840 0.8840
2198.791335 0.8840 0.8835 0.8830 0.8830 0.8830
2203.639828 0.8830 0.8830 0.8824 0.8820 0.8820
2208.488322 0.8820 0.8820 0.8820 0.8820 0.8819
2213.336815 0.8814 0.8810 0.8810 0.8810 0.8810
2218.185309 0.8808 0.8798 0.8790 0.8790 0.8789
2223.033802 0.8784 0.8779 0.8774 0.8770 0.8770
2227.882296 0.8769 0.8764 0.8759 0.8754 0.8750
2232.730790 0.8750 0.8747 0.8737 0.8730 0.8730
2237.579283 0.8729 0.8724 0.8719 0.8714 0.8710
2242.427777 0.8710 0.8708 0.8703 0.8695 0.8680
2247.276270 0.8670 0.8670 0.8668 0.8663 0.8658
2252.124764 0.8653 0.8650 0.8650 0.8648 0.8643
2256.973257 0.8636 0.8626 0.8618 0.8613 0.8608
2261.821751 0.8603 0.8600 0.8600 0.8598 0.8593
2266.670244 0.8588 0.8583 0.8576 0.8565 0.8558
2271.518738 0.8553 0.8548 0.8543 0.8538 0.8533
2276.367231 0.8530 0.8530 0.8527 0.8522 0.8520
2281.215725 0.8520 0.8515 0.8505 0.8497 0.8492
2286.064218 0.8490 0.8490 0.8490 0.8490 0.8487
2290.912712 0.8482 0.8480 0.8480 0.8477 0.8472
2295.761205 0.8470 0.8470 0.8467 0.8462 0.8454
2300.609699 0.8444 0.8440 0.8440 0.8437 0.8432
2305.458192 0.8430 0.8430 0.8427 0.8422 0.8417
2310.306686 0.8412 0.8410 0.8410 0.8410 0.8410
2315.155180 0.8410 0.8410 0.8406 0.8401 0.8400
2320.003673 0.8400 0.8393 0.8383 0.8376 0.8371
2324.852167 0.8370 0.8370 0.8366 0.8361 0.8356
2329.700660 0.8351 0.8346 0.8341 0.8332 0.8322
2334.549154 0.8320 0.8320 0.8316 0.8311 0.8306
2339.397647 0.8301 0.8300 0.8300 0.8296 0.8291
2344.246141 0.8286 0.8281 0.8271 0.8261 0.8256
2349.094634 0.8251 0.8241 0.8231 0.8216 0.8201
2353.943128 0.8195 0.8190 0.8181 0.8171 0.8156
2358.791621 0.8141 0.8135 0.8130 0.8116 0.8101
2363.640115 0.8086 0.8071 0.8065 0.8060 0.8055
2368.488608 0.8050 0.8035 0.8020 0.8015 0.8010
2373.337102 0.8000 0.7990 0.7985 0.7980 0.7964
2378.185595 0.7949 0.7934 0.7919 0.7904 0.7889
2383.034089 0.7863 0.7840 0.7835 0.7830 0.7825
2387.882583 0.7818 0.7798 0.7779 0.7774 0.7769
2392.731076 0.7764 0.7759 0.7749 0.7738 0.7723
2397.579570 0.7708 0.7693 0.7677 0.7657 0.7637
2402.428063 0.7617 0.7598 0.7588 0.7579 0.7574
2407.276557 0.7569 0.7564 0.7557 0.7542 0.7528
2412.125050 0.7518 0.7509 0.7504 0.7500 0.7500
2416.973544 0.7500 0.7500 0.7500 0.7500 0.7497
2421.822037 0.7487 0.7480 0.7480 0.7480 0.7480
2426.670531 0.7480 0.7480 0.7478 0.7473 0.7467
2431.519024 0.7457 0.7445 0.7430 0.7418 0.7413
2436.367518 0.7399 0.7369 0.7343 0.7323 0.7308
2441.216011 0.7303 0.7298 0.7293 0.7288 0.7283
2446.064505 0.7274 0.7259 0.7248 0.7243 0.7238
2450.912998 0.7233 0.7226 0.7216 0.7205 0.7195
2455.761492 0.7188 0.7183 0.7175 0.7165 0.7146
2460.609985 0.7116 0.7085 0.7055 0.7027 0.7002
2465.458479 0.6985 0.6975 0.6970 0.6970 0.6965
2470.306973 0.6955 0.6931 0.6896 0.6849 0.6794
2475.155466 0.6759 0.6739 0.6721 0.6706 0.6683
2480.003960 0.6652 0.6631 0.6616 0.6601 0.6586
2484.852453 0.6564 0.6539 0.6520 0.6505 0.6497
2489.700947 0.6492 0.6490 0.6490 0.6483 0.6473
2494.549440 0.6467 0.6462 0.6460 0.6460 0.6460
2499.397934 0.6460 0.6464 0.6469 0.6470 0.6470
2504.246427 0.6470 0.6470 0.6466 0.6461 0.6456
2509.094921 0.6451 0.6446 0.6441 0.6421 0.6396
2513.943414 0.6374 0.6354 0.6346 0.6341 0.6336
2518.791908 0.6331 0.6330 0.6330 0.6326 0.6321
2523.640401 0.6316 0.6311 0.6289 0.6264 0.6243
2528.488895 0.6223 0.6203 0.6183 0.6136 0.6086
2533.337388 0.6071 0.6061 0.6051 0.6041 0.6018
2538.185882 0.5992 0.5976 0.5961 0.5960 0.5960
2543.034375 0.5951 0.5941 0.5935 0.5930 0.5930
2547.882869 0.5930 0.5925 0.5920 0.5896 0.5870
2552.731363 0.5845 0.5820 0.5815 0.5810 0.5810
2557.579856 0.5810 0.5810 0.5810 0.5805 0.5797
2562.428350 0.5737 0.5678 0.5643 0.5609 0.5594
2567.276843 0.5580 0.5575 0.5570 0.5565 0.5557
2572.125337 0.5522 0.5485 0.5435 0.5386 0.5351
2576.973830 0.5317 0.5292 0.5269 0.5264 0.5257
2581.822324 0.5237 0.5219 0.5214 0.5208 0.5198
2586.670817 0.5182 0.5137 0.5096 0.5076 0.5057
2591.519311 0.5042 0.5028 0.5018 0.5009 0.5004
2596.367804 0.5000 0.5000 0.4998 0.4988 0.4977
2601.216298 0.4967 0.4960 0.4960 0.4956 0.4941
2606.064791 0.4930 0.4930 0.4929 0.4924 0.4920
2610.913285 0.4920 0.4920 0.4920 0.4922 0.4927
2615.761778 0.4933 0.4943 0.4950 0.4950 0.4946
2620.610272 0.4936 0.4926 0.4916 0.4891 0.4841
2625.458766 0.4798 0.4768 0.4750 0.4750 0.4748
2630.307259 0.4743 0.4738 0.4733 0.4728 0.4723
2635.155753 0.4718 0.4713 0.4710 0.4710 0.4705
2640.004246 0.4695 0.4690 0.4690 0.4688 0.4683
2644.852740 0.4680 0.4680 0.4678 0.4672 0.4670
2649.701233 0.4670 0.4673 0.4678 0.4683 0.4688
2654.549727 0.4690 0.4690 0.4696 0.4706 0.4710
2659.398220 0.4710 0.4704 0.4694 0.4690 0.4690
2664.246714 0.4687 0.4682 0.4674 0.4664 0.4657
2669.095207 0.4652 0.4644 0.4634 0.4627 0.4622
2673.943701 0.4610 0.4595 0.4580 0.4565 0.4553
2678.792194 0.4543 0.4520 0.4489 0.4456 0.4421
2683.640688 0.4372 0.4316 0.4286 0.4266 0.4256
2688.489181 0.4251 0.4246 0.4241 0.4240 0.4240
2693.337675 0.4236 0.4231 0.4230 0.4230 0.4222
2698.186168 0.4212 0.4206 0.4201 0.4196 0.4191
2703.034662 0.4186 0.4181 0.4176 0.4171 0.4158
2707.883156 0.4143 0.4128 0.4112 0.4093 0.4073
2712.731649 0.4061 0.4051 0.4033 0.4012 0.4006
2717.580143 0.4001 0.3996 0.3991 0.3981 0.3971
2722.428636 0.3965 0.3960 0.3955 0.3950 0.3945
2727.277130 0.3940 0.3935 0.3930 0.3921 0.3911
2732.125623 0.3910 0.3910 0.3910 0.3910 0.3905
2736.974117 0.3900 0.3900 0.3900 0.3900 0.3900
2741.822610 0.3900 0.3900 0.3895 0.3890 0.3890
2746.671104 0.3890 0.3890 0.3890 0.3885 0.3880
2751.519597 0.3875 0.3868 0.3837 0.3809 0.3794
2756.368091 0.3779 0.3769 0.3759 0.3754 0.3748
2761.216584 0.3733 0.3718 0.3697 0.3678 0.3663
2766.065078 0.3649 0.3644 0.3638 0.3623 0.3610
2770.913571 0.3610 0.3609 0.3604 0.3600 0.3600
2775.762065 0.3599 0.3594 0.3589 0.3584 0.3577
2780.610559 0.3562 0.3542 0.3507 0.3479 0.3474
2785.459052 0.3465 0.3445 0.3426 0.3411 0.3395
2790.307546 0.3374 0.3359 0.3354 0.3344 0.3324
2795.156039 0.3305 0.3290 0.3272 0.3247 0.3224
2800.004533 0.3203 0.3185 0.3170 0.3150 0.3120
2804.853026 0.3091 0.3066 0.3037 0.3002 0.2963
2809.701520 0.2918 0.2876 0.2841 0.2808 0.2778
2814.550013 0.2746 0.2710 0.2665 0.2604 0.2559
2819.398507 0.2534 0.2516 0.2506 0.2491 0.2471
2824.247000 0.2430 0.2365 0.2302 0.2242 0.2186
2829.095494 0.2135 0.2082 0.2027 0.1967 0.1902
2833.943987 0.1823 0.1733 0.1616 0.1476 0.1316
2838.792481 0.1141 0.0962 0.0781 0.0689 0.0669
2843.640974 0.0638 0.0597 0.0478 0.0297 0.0214
2848.489468 0.0204 0.0200 0.0200 0.0200 0.0200
2853.337961 0.0197 0.0192 0.0190 0.0190 0.0190
2858.186455 0.0190 0.0190 0.0190 0.0190 0.0190
2863.034949 0.0190 0.0190 0.0193 0.0198 0.0200
2867.883442 0.0200 0.0207 0.0217 0.0231 0.0246
2872.731936 0.0254 0.0259 0.0267 0.0277 0.0280
2877.580429 0.0280 0.0280 0.0280 0.0280 0.0280
2882.428923 0.0272 0.0262 0.0244 0.0224 0.0212
2887.277416 0.0202 0.0192 0.0182 0.0172 0.0162
2892.125910 0.0152 0.0142 0.0136 0.0131 0.0117
2896.974403 0.0102 0.0096 0.0091 0.0081 0.0071
2901.822897 0.0070 0.0070 0.0066 0.0061 0.0060
2906.671390 0.0060 0.0051 0.0041 0.0035 0.0030
2911.519884 0.0030 0.0030 0.0030 0.0030 0.0030
2916.368377 0.0030 0.0030 0.0030 0.0030 0.0030
2921.216871 0.0030 0.0030 0.0030 0.0030 0.0030
2926.065364 0.0030 0.0030 0.0030 0.0030 0.0030
2930.913858 0.0030 0.0030 0.0025 0.0020 0.0025
2935.762352 0.0030 0.0030 0.0030 0.0030 0.0030
2940.610845 0.0030 0.0030 0.0035 0.0041 0.0057
2945.459339 0.0071 0.0076 0.0081 0.0086 0.0091
2950.307832 0.0096 0.0102 0.0112 0.0121 0.0126
2955.156326 0.0131 0.0136 0.0140 0.0140 0.0147
2960.004819 0.0188 0.0226 0.0256 0.0284 0.0304
2964.853313 0.0322 0.0332 0.0346 0.0371 0.0395
2969.701806 0.0415 0.0438 0.0468 0.0505 0.0560
2974.550300 0.0612 0.0658 0.0711 0.0787 0.0860
2979.398793 0.0931 0.0998 0.1058 0.1137 0.1259
2984.247287 0.1358 0.1414 0.1467 0.1517 0.1566
2989.095780 0.1611 0.1658 0.1708 0.1755 0.1795
2993.944274 0.1837 0.1882 0.1924 0.1959 0.1994
2998.792767 0.2029 0.2062 0.2092 0.2125 0.2160
3003.641261 0.2191 0.2216 0.2248 0.2288 0.2315
3008.489754 0.2325 0.2332 0.2337 0.2342 0.2347
3013.338248 0.2369 0.2410 0.2450 0.2490 0.2513
3018.186742 0.2518 0.2523 0.2528 0.2533 0.2538
3023.035235 0.2548 0.2563 0.2576 0.2586 0.2593
3027.883729 0.2598 0.2623 0.2663 0.2697 0.2728
3032.732222 0.2761 0.2796 0.2819 0.2834 0.2849
3037.580716 0.2864 0.2879 0.2894 0.2913 0.2933
3042.429209 0.2953 0.2973 0.3000 0.3030 0.3050
3047.277703 0.3065 0.3080 0.3095 0.3121 0.3151
3052.126196 0.3170 0.3185 0.3211 0.3241 0.3261
3056.974690 0.3276 0.3309 0.3349 0.3382 0.3412
3061.823183 0.3428 0.3438 0.3451 0.3467 0.3489
3066.671677 0.3514 0.3524 0.3529 0.3530 0.3530
3071.520170 0.3542 0.3557 0.3592 0.3632 0.3697
3076.368664 0.3767 0.3792 0.3807 0.3835 0.3866
3081.217157 0.3879 0.3889 0.3899 0.3909 0.3928
3086.065651 0.3948 0.3954 0.3959 0.3960 0.3960
3090.914145 0.3974 0.3989 0.3995 0.4000 0.4005
3095.762638 0.4010 0.4015 0.4020 0.4025 0.4030
3100.611132 0.4040 0.4050 0.4060 0.4070 0.4075
3105.459625 0.4080 0.4080 0.4080 0.4080 0.4080
3110.308119 0.4085 0.4090 0.4090 0.4090 0.4090
3115.156612 0.4090 0.4090 0.4090 0.4090 0.4090
3120.005106 0.4085 0.4080 0.4080 0.4080 0.4080
3124.853599 0.4080 0.4080 0.4079 0.4074 0.4070
3129.702093 0.4070 0.4070 0.4070 0.4071 0.4076
3134.550586 0.4081 0.4086 0.4090 0.4090 0.4092
3139.399080 0.4102 0.4111 0.4116 0.4121 0.4126
3144.247573 0.4131 0.4136 0.4144 0.4164 0.4182
3149.096067 0.4192 0.4206 0.4231 0.4264 0.4324
3153.944560 0.4372 0.4382 0.4398 0.4428 0.4457
3158.793054 0.4482 0.4513 0.4558 0.4600 0.4635
3163.641547 0.4665 0.4680 0.4706 0.4756 0.4809
3168.490041 0.4869 0.4931 0.4997 0.5055 0.5100
3173.338535 0.5133 0.5144 0.5177 0.5253 0.5323
3178.187028 0.5383 0.5428 0.5448 0.5468 0.5488
3183.035522 0.5512 0.5542 0.5570 0.5595 0.5627
3187.884015 0.5667 0.5709 0.5755 0.5798 0.5838
3192.732509 0.5876 0.5911 0.5946 0.5982 0.6019
3197.581002 0.6060 0.6097 0.6132 0.6180 0.6240
3202.429496 0.6288 0.6323 0.6358 0.6393 0.6431
3207.277989 0.6471 0.6512 0.6552 0.6589 0.6624
3212.126483 0.6657 0.6687 0.6717 0.6747 0.6775
3216.974976 0.6800 0.6816 0.6826 0.6863 0.6919
3221.823470 0.6959 0.6989 0.7019 0.7049 0.7076
3226.671963 0.7101 0.7133 0.7168 0.7209 0.7255
3231.520457 0.7283 0.7303 0.7317 0.7327 0.7410
3236.368950 0.7526 0.7585 0.7620 0.7641 0.7656
3241.217444 0.7671 0.7686 0.7712 0.7742 0.7768
3246.065938 0.7794 0.7807 0.7818 0.7850 0.7890
3250.914431 0.7931 0.7971 0.8007 0.8043 0.8074
3255.762925 0.8104 0.8118 0.8128 0.8146 0.8166
3260.611418 0.8195 0.8225 0.8259 0.8294 0.8317
3265.459912 0.8337 0.8344 0.8349 0.8359 0.8369
3270.308405 0.8387 0.8408 0.8446 0.8486 0.8495
3275.156899 0.8500 0.8509 0.8519 0.8548 0.8578
3280.005392 0.8599 0.8619 0.8634 0.8649 0.8655
3284.853886 0.8660 0.8670 0.8680 0.8719 0.8759
3289.702379 0.8770 0.8780 0.8795 0.8810 0.8815
3294.550873 0.8820 0.8846 0.8870 0.8885 0.8900
3299.399366 0.8905 0.8911 0.8926 0.8940 0.8945
3304.247860 0.8950 0.8955 0.8960 0.8965 0.8971
3309.096353 0.8986 0.9000 0.9005 0.9011 0.9016
3313.944847 0.9020 0.9020 0.9020 0.9020 0.9020
3318.793340 0.9020 0.9020 0.9020 0.9020 0.9020
3323.641834 0.9020 0.9020 0.9020 0.9020 0.9020
3328.490328 0.9020 0.9020 0.9020 0.9020 0.9020
3333.338821 0.9020 0.9020 0.9020 0.9020 0.9020
3338.187315 0.9020 0.9020 0.9020 0.9020 0.9020
3343.035808 0.9020 0.9020 0.9020 0.9020 0.9020
3347.884302 0.9020 0.9020 0.9020 0.9020 0.9020
3352.732795 0.9020 0.9020 0.9018 0.9013 0.9008
3357.581289 0.9003 0.8998 0.8993 0.8986 0.8976
3362.429782 0.8966 0.8956 0.8942 0.8922 0.8906
3367.278276 0.8896 0.8888 0.8883 0.8878 0.8873
3372.126769 0.8866 0.8856 0.8846 0.8836 0.8828
3376.975263 0.8823 0.8818 0.8813 0.8810 0.8810
3381.823756 0.8803 0.8788 0.8780 0.8780 0.8778
3386.672250 0.8772 0.8770 0.8770 0.8770 0.8770
3391.520743 0.8770 0.8770 0.8770 0.8770 0.8773
3396.369237 0.8778 0.8780 0.8780 0.8780 0.8780
3401.217730 0.8783 0.8788 0.8790 0.8790 0.8796
3406.066224 0.8806 0.8810 0.8810 0.8813 0.8818
3410.914718 0.8820 0.8820 0.8820 0.8820 0.8820
3415.763211 0.8820 0.8820 0.8820 0.8820 0.8820
3420.611705 0.8823 0.8828 0.8830 0.8830 0.8830
3425.460198 0.8830 0.8830 0.8830 0.8830 0.8830
3430.308692 0.8830 0.8830 0.8830 0.8830 0.8834
3435.157185 0.8839 0.8840 0.8840 0.8840 0.8840
3440.005679 0.8840 0.8840 0.8844 0.8849 0.8850
3444.854172 0.8850 0.8850 0.8850 0.8850 0.8850
3449.702666 0.8859 0.8869 0.8870 0.8870 0.8870
3454.551159 0.8870 0.8874 0.8879 0.8884 0.8889
3459.399653 0.8890 0.8890 0.8899 0.8909 0.8919
3464.248146 0.8929 0.8935 0.8940 0.8945 0.8950
3469.096640 0.8955 0.8960 0.8965 0.8970 0.8980
3473.945133 0.8990 0.8995 0.9000 0.9005 0.9010
3478.793627 0.9015 0.9020 0.9025 0.9030 0.9040
3483.642121 0.9050 0.9055 0.9060 0.9065 0.9070
3488.490614 0.9075 0.9080 0.9085 0.9091 0.9101
3493.339108 0.9110 0.9115 0.9120 0.9125 0.9131
3498.187601 0.9136 0.9141 0.9146 0.9151 0.9161
3503.036095 0.9171 0.9176 0.9181 0.9186 0.9191
3507.884588 0.9196 0.9201 0.9206 0.9210 0.9210
3512.733082 0.9212 0.9222 0.9230 0.9230 0.9231
3517.581575 0.9236 0.9240 0.9240 0.9241 0.9246
3522.430069 0.9250 0.9250 0.9251 0.9256 0.9260
3527.278562 0.9260 0.9261 0.9266 0.9270 0.9270
3532.127056 0.9273 0.9283 0.9290 0.9290 0.9290
3536.975549 0.9290 0.9292 0.9297 0.9302 0.9307
3541.824043 0.9310 0.9310 0.9312 0.9317 0.9320
3546.672536 0.9320 0.9320 0.9320 0.9322 0.9327
3551.521030 0.9330 0.9330 0.9330 0.9330 0.9334
3556.369523 0.9344 0.9350 0.9350 0.9350 0.9350
3561.218017 0.9350 0.9350 0.9352 0.9357 0.9360
3566.066511 0.9360 0.9362 0.9367 0.9370 0.9370
3570.915004 0.9370 0.9370 0.9373 0.9378 0.9380
3575.763498 0.9380 0.9380 0.9380 0.9383 0.9388
3580.611991 0.9390 0.9390 0.9390 0.9390 0.9390
3585.460485 0.9390 0.9390 0.9390 0.9390 0.9390
3590.308978 0.9390 0.9390 0.9390 0.9390 0.9390
3595.157472 0.9390 0.9390 0.9390 0.9390 0.9390
3600.005965 0.9390 0.9390 0.9390 0.9390 0.9390
3604.854459 0.9390 0.9390 0.9390 0.9390 0.9390
3609.702952 0.9390 0.9390 0.9390 0.9390 0.9390
3614.551446 0.9390 0.9390 0.9390 0.9390 0.9390
3619.399939 0.9390 0.9390 0.9390 0.9390 0.9390
3624.248433 0.9390 0.9390 0.9390 0.9390 0.9390
3629.096926 0.9390 0.9390 0.9390 0.9390 0.9390
3633.945420 0.9390 0.9390 0.9390 0.9390 0.9390
3638.793914 0.9390 0.9390 0.9390 0.9390 0.9390
3643.642407 0.9390 0.9390 0.9390 0.9390 0.9390
3648.490901 0.9390 0.9390 0.9390 0.9390 0.9390
3653.339394 0.9390 0.9390 0.9390 0.9390 0.9390
3658.187888 0.9390 0.9390 0.9390 0.9390 0.9390
3663.036381 0.9390 0.9390 0.9390 0.9390 0.9390
3667.884875 0.9390 0.9390 0.9390 0.9390 0.9390
3672.733368 0.9390 0.9390 0.9390 0.9390 0.9390
3677.581862 0.9390 0.9390 0.9384 0.9380 0.9380
3682.430355 0.9380 0.9380 0.9380 0.9380 0.9379
3687.278849 0.9374 0.9370 0.9370 0.9370 0.9370
3692.127342 0.9369 0.9364 0.9360 0.9360 0.9360
3696.975836 0.9360 0.9360 0.9360 0.9360 0.9360
3701.824329 0.9360 0.9360 0.9360 0.9360 0.9360
3706.672823 0.9360 0.9360 0.9360 0.9360 0.9360
3711.521316 0.9359 0.9354 0.9350 0.9350 0.9350
3716.369810 0.9350 0.9350 0.9350 0.9350 0.9350
3721.218304 0.9350 0.9350 0.9350 0.9350 0.9350
3726.066797 0.9350 0.9350 0.9350 0.9350 0.9350
3730.915291 0.9350 0.9350 0.9350 0.9350 0.9350
3735.763784 0.9350 0.9350 0.9350 0.9350 0.9350
3740.612278 0.9350 0.9350 0.9350 0.9350 0.9350
3745.460771 0.9350 0.9350 0.9350 0.9350 0.9350
3750.309265 0.9345 0.9335 0.9330 0.9330 0.9328
3755.157758 0.9322 0.9320 0.9320 0.9317 0.9312
3760.006252 0.9310 0.9310 0.9307 0.9302 0.9297
3764.854745 0.9292 0.9290 0.9290 0.9290 0.9290
3769.703239 0.9290 0.9290 0.9284 0.9274 0.9270
3774.551732 0.9270 0.9270 0.9270 0.9270 0.9270
3779.400226 0.9267 0.9262 0.9260 0.9260 0.9260
3784.248719 0.9260 0.9260 0.9260 0.9260 0.9260
3789.097213 0.9260 0.9260 0.9260 0.9260 0.9256
3793.945707 0.9251 0.9250 0.9250 0.9250 0.9250
3798.794200 0.9250 0.9250 0.9246 0.9241 0.9240
3803.642694 0.9240 0.9240 0.9240 0.9240 0.9240
3808.491187 0.9236 0.9231 0.9230 0.9230 0.9230
3813.339681 0.9230 0.9230 0.9230 0.9222 0.9212
3818.188174 0.9210 0.9210 0.9210 0.9210 0.9210
3823.036668 0.9210 0.9206 0.9201 0.9200 0.9200
3827.885161 0.9200 0.9200 0.9195 0.9190 0.9190
3832.733655 0.9190 0.9190 0.9190 0.9190 0.9190
3837.582148 0.9190 0.9190 0.9190 0.9190 0.9190
3842.430642 0.9190 0.9185 0.9180 0.9180 0.9180
3847.279135 0.9180 0.9180 0.9180 0.9180 0.9180
3852.127629 0.9180 0.9175 0.9170 0.9170 0.9170
3856.976122 0.9170 0.9169 0.9159 0.9150 0.9150
3861.824616 0.9150 0.9150 0.9150 0.9145 0.9140
3866.673109 0.9140 0.9139 0.9134 0.9130 0.9130
3871.521603 0.9130 0.9130 0.9129 0.9124 0.9119
3876.370097 0.9114 0.9110 0.9110 0.9110 0.9110
3881.218590 0.9108 0.9098 0.9090 0.9090 0.9090
3886.067084 0.9090 0.9089 0.9084 0.9080 0.9080
3890.915577 0.9079 0.9074 0.9070 0.9070 0.9070
3895.764071 0.9070 0.9069 0.9064 0.9060 0.9060
3900.612564 0.9060 0.9060 0.9059 0.9053 0.9047
3905.461058 0.9037 0.9030 0.9030 0.9030 0.9030
3910.309551 0.9030 0.9030 0.9030 0.9030 0.9030
3915.158045 0.9030 0.9028 0.9023 0.9020 0.9020
3920.006538 0.9020 0.9020 0.9020 0.9020 0.9018
3924.855032 0.9013 0.9010 0.9010 0.9010 0.9010
3929.703525 0.9008 0.9003 0.9000 0.9000 0.9000
3934.552019 0.9000 0.9000 0.9000 0.8998 0.8993
3939.400512 0.8990 0.8990 0.8990 0.8990 0.8985
3944.249006 0.8975 0.8970 0.8970 0.8970 0.8970
3949.097500 0.8970 0.8970 0.8967 0.8962 0.8960
3953.945993 0.8960 0.8960 0.8960 0.8957 0.8952
3958.794487 0.8950 0.8950 0.8950 0.8950 0.8950
3963.642980 0.8950 0.8947 0.8942 0.8940 0.8940
3968.491474 0.8940 0.8940 0.8930 0.8915 0.8910
3973.339967 0.8910 0.8910 0.8910 0.8910 0.8910
3978.188461 0.8906 0.8901 0.8900 0.8900 0.8900
3983.036954 0.8900 0.8896 0.8891 0.8890 0.8890
3987.885448 0.8890 0.8890 0.8890 0.8890 0.8886
3992.733941 0.8881 0.8884 0.8889 0.8890 0.8890
3997.582435 0.8886 0.8881 0.8880 0.8880 0.8884
4002.430928 0.8889 0.8890 0.8890 0.8886 0.8881
4007.279422 0.8884 0.8889 0.8890 0.8890 0.8886
4012.127915 0.8881 0.8880 0.8880
##END=
