##TITLE=ETHYLENETETRABORANE
##JCAMP-DX=4.24
##DATA TYPE=INFRARED SPECTRUM
##CLASS=COBLENTZ
##ORIGIN=KALLERY CHEMICAL COMPANY
##OWNER=COBLENTZ SOCIETY
Collection (C) 2018 copyright by the U.S. Secretary of Commerce
on behalf of the United States of America. All rights reserved.
##DATE=1960
##NAMES=1-vinyl-1.lambda.<5>,2.lambda.<5>,3.lambda.<5>,4.lambda.<5>-bicyclo[1.1.0]tetraborane
##MOLFORM=C2 H12 B4
##SOURCE REFERENCE=COBLENTZ NO. 844
##$NIST ID=B6000844
##$NIST SOURCE=COBLENTZ
##$NIST IMAGE=cob844
##SPECTROMETER/DATA SYSTEM=Not specified, most likely a prism, grating, or hybrid spectrometer.
##STATE=VAPOR AT 30 mmHg PRESSURE; $$ RESEARCH PURITY
##PATH LENGTH=5 CM
##SAMPLING PROCEDURE=TRANSMISSION
##RESOLUTION=4
##DATA PROCESSING=DIGITIZED BY NIST FROM HARD COPY
##XUNITS=MICROMETERS
##YUNITS=TRANSMITTANCE
##XFACTOR=1.000000
##YFACTOR=1
##DELTAX=000.006972
##FIRSTX=2.01
##LASTX=15.6269
##FIRSTY=0.81
##MAXX=15.6269
##MINX=2.01
##MAXY=0.841
##MINY=0.096
##NPOINTS=1954
##XYDATA=(X++(Y..Y))
2.010000 0.8100 0.8100 0.8120 0.8120 0.8120
2.044878 0.8120 0.8140 0.8150 0.8150 0.8150
2.080000 0.8150 0.8170 0.8170 0.8170 0.8170
2.114878 0.8170 0.8170 0.8170 0.8170 0.8170
2.149000 0.8170 0.8170 0.8170 0.8170 0.8190
2.183878 0.8190 0.8190 0.8190 0.8190 0.8190
2.219000 0.8200 0.8200 0.8200 0.8200 0.8220
2.253878 0.8220 0.8220 0.8220 0.8220 0.8220
2.289000 0.8200 0.8200 0.8200 0.8200 0.8200
2.323878 0.8190 0.8190 0.8190 0.8170 0.8150
2.359000 0.8150 0.8120 0.8100 0.8100 0.8100
2.393878 0.8100 0.8100 0.8120 0.8120 0.8150
2.428000 0.8150 0.8190 0.8190 0.8200 0.8200
2.462878 0.8200 0.8200 0.8220 0.8220 0.8220
2.498000 0.8220 0.8220 0.8220 0.8220 0.8220
2.532878 0.8220 0.8220 0.8220 0.8220 0.8240
2.568000 0.8240 0.8260 0.8260 0.8270 0.8270
2.602878 0.8270 0.8290 0.8290 0.8290 0.8310
2.637000 0.8310 0.8310 0.8330 0.8330 0.8330
2.671878 0.8340 0.8340 0.8340 0.8360 0.8360
2.707000 0.8360 0.8380 0.8380 0.8380 0.8380
2.741878 0.8380 0.8380 0.8380 0.8380 0.8380
2.777000 0.8380 0.8390 0.8390 0.8390 0.8390
2.811878 0.8390 0.8390 0.8390 0.8390 0.8390
2.847000 0.8390 0.8390 0.8390 0.8390 0.8390
2.881878 0.8390 0.8390 0.8390 0.8390 0.8390
2.916000 0.8390 0.8390 0.8390 0.8390 0.8390
2.950878 0.8390 0.8390 0.8390 0.8390 0.8390
2.986000 0.8390 0.8410 0.8390 0.8390 0.8390
3.020878 0.8380 0.8380 0.8380 0.8380 0.8360
3.056000 0.8340 0.8340 0.8340 0.8330 0.8330
3.090878 0.8330 0.8330 0.8310 0.8310 0.8310
3.125000 0.8290 0.8290 0.8290 0.8290 0.8270
3.159878 0.8260 0.8260 0.8240 0.8240 0.8220
3.195000 0.8200 0.8200 0.8200 0.8190 0.8190
3.229878 0.8170 0.8170 0.8170 0.8150 0.8150
3.265000 0.8150 0.8140 0.8140 0.8140 0.8150
3.299878 0.8150 0.8150 0.8140 0.8140 0.8120
3.335000 0.8120 0.8050 0.8020 0.7900 0.7690
3.369878 0.6720 0.5620 0.5240 0.5120 0.4920
3.404000 0.4690 0.4260 0.3830 0.3820 0.3850
3.438878 0.4130 0.4420 0.4710 0.5260 0.5730
3.474000 0.6140 0.6710 0.6830 0.6930 0.7170
3.508878 0.7190 0.7210 0.7220 0.7220 0.7240
3.544000 0.7260 0.7280 0.7380 0.7520 0.7710
3.578878 0.7900 0.8000 0.8080 0.8120 0.8140
3.614000 0.8150 0.8150 0.8190 0.8200 0.8200
3.648878 0.8240 0.8240 0.8240 0.8240 0.8240
3.683000 0.8240 0.8260 0.8260 0.8260 0.8260
3.717878 0.8260 0.8260 0.8260 0.8260 0.8260
3.753000 0.8260 0.8240 0.8240 0.8220 0.8220
3.787878 0.8200 0.8200 0.8190 0.8150 0.8100
3.823000 0.8080 0.8070 0.8020 0.6930 0.5710
3.857878 0.4490 0.4420 0.4330 0.4330 0.2090
3.892000 0.2080 0.2090 0.2180 0.2280 0.2400
3.926878 0.2530 0.2700 0.2700 0.2680 0.2220
3.962000 0.1940 0.1010 0.0980 0.0960 0.0990
3.996878 0.2900 0.3590 0.6190 0.6550 0.6860
4.032000 0.7100 0.7330 0.7500 0.7640 0.7740
4.066878 0.7840 0.7930 0.8020 0.8080 0.8100
4.102000 0.8140 0.8140 0.8140 0.8140 0.8140
4.136878 0.8140 0.8120 0.8120 0.8100 0.8100
4.171000 0.8080 0.8070 0.8070 0.8050 0.8030
4.205878 0.8030 0.8020 0.8000 0.8000 0.7980
4.241000 0.7960 0.7960 0.7950 0.7950 0.7950
4.275878 0.7950 0.7960 0.7960 0.7980 0.7980
4.311000 0.8000 0.8020 0.8020 0.8030 0.8050
4.345878 0.8070 0.8120 0.8140 0.8170 0.8220
4.380000 0.8260 0.8270 0.8310 0.8310 0.8330
4.414878 0.8330 0.8330 0.8330 0.8310 0.8310
4.450000 0.8270 0.8240 0.8220 0.8170 0.8080
4.484878 0.8000 0.7930 0.7900 0.7860 0.7840
4.520000 0.7790 0.7740 0.7650 0.7570 0.7160
4.554878 0.6690 0.6140 0.5610 0.5060 0.4830
4.590000 0.4610 0.4010 0.3760 0.3750 0.3710
4.624878 0.3730 0.3970 0.4110 0.4210 0.4400
4.659000 0.4560 0.4760 0.4950 0.5380 0.5610
4.693878 0.5830 0.6040 0.6240 0.6430 0.6620
4.729000 0.6780 0.6910 0.7020 0.7120 0.7210
4.763878 0.7220 0.7260 0.7280 0.7290 0.7310
4.799000 0.7330 0.7330 0.7330 0.7340 0.7400
4.833878 0.7400 0.7460 0.7520 0.7570 0.7640
4.869000 0.7690 0.7760 0.7830 0.7900 0.7960
4.903878 0.7980 0.8000 0.8020 0.8030 0.8050
4.938000 0.8080 0.8100 0.8120 0.8140 0.8140
4.972878 0.8140 0.8150 0.8150 0.8170 0.8190
5.008000 0.8190 0.8190 0.8190 0.8200 0.8190
5.042878 0.8190 0.8190 0.8190 0.8190 0.8190
5.078000 0.8190 0.8190 0.8200 0.8200 0.8200
5.112878 0.8200 0.8200 0.8200 0.8200 0.8200
5.147000 0.8200 0.8200 0.8200 0.8200 0.8200
5.181878 0.8200 0.8200 0.8200 0.8190 0.8190
5.217000 0.8190 0.8190 0.8190 0.8190 0.8170
5.251878 0.8170 0.8170 0.8170 0.8170 0.8170
5.287000 0.8170 0.8170 0.8190 0.8190 0.8190
5.321878 0.8190 0.8200 0.8200 0.8200 0.8200
5.357000 0.8240 0.8240 0.8240 0.8240 0.8260
5.391878 0.8260 0.8260 0.8260 0.8270 0.8270
5.426000 0.8270 0.8270 0.8290 0.8290 0.8290
5.460878 0.8310 0.8310 0.8310 0.8330 0.8330
5.496000 0.8330 0.8330 0.8330 0.8310 0.8310
5.530878 0.8310 0.8290 0.8290 0.8270 0.8270
5.566000 0.8270 0.8270 0.8270 0.8270 0.8270
5.600878 0.8270 0.8270 0.8270 0.8270 0.8270
5.635000 0.8270 0.8270 0.8270 0.8270 0.8270
5.669878 0.8270 0.8270 0.8270 0.8270 0.8270
5.705000 0.8270 0.8270 0.8270 0.8270 0.8270
5.739878 0.8270 0.8270 0.8270 0.8260 0.8260
5.775000 0.8260 0.8240 0.8240 0.8220 0.8220
5.809878 0.8220 0.8200 0.8200 0.8200 0.8190
5.845000 0.8190 0.8190 0.8170 0.8170 0.8150
5.879878 0.8150 0.8150 0.8150 0.8150 0.8150
5.914000 0.8150 0.8150 0.8150 0.8150 0.8150
5.948878 0.8150 0.8150 0.8150 0.8140 0.8140
5.984000 0.8140 0.8140 0.8120 0.8120 0.8100
6.018878 0.8100 0.8100 0.8100 0.8080 0.8080
6.054000 0.8080 0.8080 0.8070 0.8070 0.8050
6.088878 0.8050 0.8030 0.8030 0.8020 0.8000
6.124000 0.8000 0.8000 0.7980 0.7980 0.7960
6.158878 0.7960 0.7950 0.7930 0.7910 0.7900
6.193000 0.7880 0.7860 0.7840 0.7830 0.7790
6.227878 0.7760 0.7710 0.7670 0.7620 0.7570
6.263000 0.7530 0.7480 0.7450 0.7410 0.7380
6.297878 0.7330 0.7310 0.7290 0.7280 0.7240
6.333000 0.7220 0.7210 0.7170 0.7160 0.7160
6.367878 0.7160 0.7120 0.7120 0.7100 0.7090
6.402000 0.7090 0.7070 0.7050 0.7030 0.7000
6.436878 0.6970 0.6930 0.6910 0.6880 0.6830
6.472000 0.6780 0.6720 0.6640 0.6620 0.6620
6.506878 0.6620 0.6620 0.6620 0.6620 0.6640
6.542000 0.6640 0.6660 0.6670 0.6720 0.6790
6.576878 0.6900 0.7030 0.7160 0.7240 0.7310
6.612000 0.7340 0.7360 0.7380 0.7400 0.7410
6.646878 0.7450 0.7480 0.7500 0.7520 0.7520
6.681000 0.7530 0.7530 0.7530 0.7530 0.7530
6.715878 0.7520 0.7520 0.7520 0.7500 0.7460
6.751000 0.7450 0.7430 0.7430 0.7410 0.7400
6.785878 0.7380 0.7340 0.7330 0.7310 0.7260
6.821000 0.7260 0.7240 0.7240 0.7210 0.7190
6.855878 0.7160 0.7140 0.7140 0.7120 0.7100
6.890000 0.7090 0.7090 0.7050 0.7020 0.7000
6.924878 0.6950 0.6930 0.6850 0.6790 0.6710
6.960000 0.6670 0.6640 0.6570 0.6520 0.6470
6.994878 0.6400 0.6350 0.6280 0.6240 0.6210
7.030000 0.6190 0.6190 0.6190 0.6210 0.6210
7.064878 0.6230 0.6240 0.6280 0.6290 0.6310
7.100000 0.6310 0.6330 0.6350 0.6350 0.6360
7.134878 0.6380 0.6380 0.6380 0.6380 0.6380
7.169000 0.6380 0.6380 0.6380 0.6380 0.6380
7.203878 0.6380 0.6380 0.6380 0.6380 0.6380
7.239000 0.6400 0.6400 0.6410 0.6410 0.6410
7.273878 0.6410 0.6430 0.6450 0.6450 0.6470
7.309000 0.6470 0.6480 0.6500 0.6520 0.6550
7.343878 0.6570 0.6620 0.6660 0.6690 0.6720
7.378000 0.6760 0.6790 0.6810 0.6850 0.6880
7.412878 0.6900 0.6930 0.6950 0.6980 0.7000
7.448000 0.7030 0.7070 0.7090 0.7120 0.7160
7.482878 0.7190 0.7210 0.7220 0.7240 0.7260
7.518000 0.7260 0.7280 0.7280 0.7330 0.7330
7.552878 0.7340 0.7340 0.7360 0.7380 0.7380
7.588000 0.7400 0.7410 0.7430 0.7450 0.7450
7.622878 0.7450 0.7460 0.7460 0.7460 0.7460
7.657000 0.7460 0.7460 0.7460 0.7460 0.7460
7.691878 0.7460 0.7460 0.7460 0.7480 0.7480
7.727000 0.7480 0.7480 0.7480 0.7480 0.7480
7.761878 0.7480 0.7500 0.7500 0.7500 0.7520
7.797000 0.7520 0.7520 0.7520 0.7530 0.7530
7.831878 0.7530 0.7530 0.7550 0.7570 0.7570
7.867000 0.7590 0.7590 0.7590 0.7600 0.7600
7.901878 0.7600 0.7620 0.7620 0.7640 0.7640
7.936000 0.7640 0.7650 0.7650 0.7650 0.7670
7.970878 0.7670 0.7670 0.7690 0.7690 0.7690
8.006000 0.7710 0.7710 0.7710 0.7720 0.7720
8.040878 0.7720 0.7720 0.7720 0.7740 0.7740
8.076000 0.7740 0.7740 0.7740 0.7760 0.7770
8.110878 0.7770 0.7770 0.7790 0.7790 0.7790
8.145000 0.7810 0.7810 0.7810 0.7830 0.7830
8.179878 0.7840 0.7840 0.7840 0.7860 0.7860
8.215000 0.7860 0.7880 0.7880 0.7880 0.7900
8.249878 0.7900 0.7900 0.7900 0.7900 0.7910
8.285000 0.7910 0.7910 0.7910 0.7910 0.7910
8.319878 0.7930 0.7930 0.7930 0.7930 0.7930
8.355000 0.7930 0.7930 0.7950 0.7950 0.7950
8.389878 0.7950 0.7950 0.7950 0.7950 0.7950
8.424000 0.7950 0.7950 0.7950 0.7950 0.7950
8.458878 0.7950 0.7950 0.7950 0.7950 0.7950
8.494000 0.7950 0.7950 0.7950 0.7950 0.7950
8.528878 0.7950 0.7950 0.7950 0.7950 0.7950
8.564000 0.7950 0.7930 0.7930 0.7930 0.7910
8.598878 0.7910 0.7910 0.7910 0.7910 0.7900
8.633000 0.7900 0.7900 0.7900 0.7880 0.7880
8.667878 0.7880 0.7860 0.7860 0.7860 0.7840
8.703000 0.7840 0.7830 0.7830 0.7810 0.7810
8.737878 0.7790 0.7790 0.7770 0.7770 0.7760
8.773000 0.7740 0.7720 0.7710 0.7690 0.7690
8.807878 0.7650 0.7640 0.7620 0.7590 0.7550
8.843000 0.7520 0.7500 0.7460 0.7450 0.7410
8.877878 0.7400 0.7380 0.7360 0.7310 0.7290
8.912000 0.7260 0.7220 0.7190 0.7170 0.7140
8.946878 0.7100 0.7070 0.7050 0.7000 0.6970
8.982000 0.6910 0.6880 0.6850 0.6810 0.6760
9.016878 0.6710 0.6660 0.6600 0.6550 0.6470
9.052000 0.6360 0.6260 0.6160 0.6050 0.5950
9.086878 0.5850 0.5730 0.5620 0.5500 0.5400
9.122000 0.5280 0.5140 0.5020 0.4950 0.4880
9.156878 0.4750 0.4610 0.4450 0.4280 0.4190
9.191000 0.4130 0.4060 0.4020 0.3990 0.3970
9.225878 0.3950 0.3940 0.3920 0.3880 0.3850
9.261000 0.3780 0.3700 0.3610 0.3520 0.3450
9.295878 0.3390 0.3330 0.3250 0.3210 0.3160
9.331000 0.3110 0.3110 0.3090 0.3080 0.3080
9.365878 0.3060 0.3060 0.3040 0.3020 0.3010
9.400000 0.2960 0.2940 0.2870 0.2800 0.2780
9.434878 0.2730 0.2700 0.2660 0.2630 0.2610
9.470000 0.2580 0.2530 0.2490 0.2460 0.2400
9.504878 0.2370 0.2340 0.2320 0.2340 0.2350
9.540000 0.2390 0.2420 0.2470 0.2540 0.2610
9.574878 0.2660 0.2730 0.2780 0.2830 0.2900
9.610000 0.2970 0.3020 0.3110 0.3180 0.3270
9.644878 0.3370 0.3470 0.3590 0.3710 0.3850
9.679000 0.4010 0.4160 0.4350 0.4540 0.4750
9.713878 0.4950 0.5300 0.5450 0.5610 0.5740
9.749000 0.5880 0.6000 0.6140 0.6280 0.6400
9.783878 0.6540 0.6690 0.6850 0.7000 0.7030
9.819000 0.7090 0.7160 0.7220 0.7290 0.7340
9.853878 0.7400 0.7450 0.7480 0.7530 0.7590
9.888000 0.7620 0.7670 0.7720 0.7760 0.7810
9.922878 0.7840 0.7880 0.7900 0.7910 0.7910
9.958000 0.7950 0.7960 0.7960 0.7980 0.8020
9.992878 0.8020 0.8030 0.8050 0.8070 0.8080
10.028000 0.8080 0.8080 0.8100 0.8100 0.8100
10.062878 0.8100 0.8080 0.8070 0.8070 0.8050
10.098000 0.8030 0.8000 0.7960 0.7910 0.7880
10.132878 0.7830 0.7790 0.7760 0.7710 0.7650
10.167000 0.7620 0.7570 0.7520 0.7450 0.7410
10.201878 0.7340 0.7280 0.7190 0.7140 0.7120
10.237000 0.7030 0.7020 0.6980 0.6950 0.6910
10.271878 0.6910 0.6880 0.6850 0.6830 0.6810
10.307000 0.6780 0.6760 0.6740 0.6710 0.6690
10.341878 0.6690 0.6670 0.6670 0.6670 0.6670
10.376000 0.6670 0.6690 0.6710 0.6690 0.6720
10.410878 0.6740 0.6780 0.6790 0.6830 0.6860
10.446000 0.6900 0.6910 0.6950 0.6980 0.7020
10.480878 0.7050 0.7090 0.7120 0.7160 0.7190
10.516000 0.7220 0.7260 0.7290 0.7330 0.7360
10.550878 0.7400 0.7430 0.7460 0.7500 0.7530
10.586000 0.7570 0.7590 0.7600 0.7620 0.7650
10.620878 0.7690 0.7740 0.7760 0.7770 0.7790
10.655000 0.7810 0.7810 0.7830 0.7830 0.7840
10.689878 0.7840 0.7840 0.7840 0.7840 0.7840
10.725000 0.7840 0.7840 0.7840 0.7840 0.7840
10.759878 0.7840 0.7840 0.7840 0.7840 0.7840
10.795000 0.7840 0.7840 0.7840 0.7840 0.7830
10.829878 0.7830 0.7830 0.7810 0.7810 0.7810
10.865000 0.7790 0.7790 0.7770 0.7770 0.7760
10.899878 0.7760 0.7740 0.7720 0.7710 0.7690
10.934000 0.7670 0.7650 0.7640 0.7600 0.7590
10.968878 0.7550 0.7520 0.7480 0.7450 0.7400
11.004000 0.7360 0.7310 0.7260 0.7210 0.7140
11.038878 0.7100 0.7050 0.7000 0.6950 0.6880
11.074000 0.6810 0.6760 0.6690 0.6620 0.6540
11.108878 0.6470 0.6400 0.6310 0.6230 0.6160
11.143000 0.6070 0.5980 0.5920 0.5830 0.5740
11.177878 0.5660 0.5570 0.5500 0.5420 0.5330
11.213000 0.5260 0.5180 0.5090 0.5040 0.5000
11.247878 0.4990 0.4950 0.4930 0.4900 0.4810
11.283000 0.4800 0.4730 0.4690 0.4620 0.4540
11.317878 0.4470 0.4380 0.4300 0.4250 0.4190
11.353000 0.4160 0.4140 0.4140 0.4130 0.4140
11.387878 0.4140 0.4160 0.4160 0.4190 0.4250
11.422000 0.4280 0.4330 0.4380 0.4450 0.4500
11.456878 0.4560 0.4610 0.4640 0.4690 0.4730
11.492000 0.4760 0.4780 0.4810 0.4850 0.4900
11.526878 0.4950 0.4990 0.5060 0.5070 0.5110
11.562000 0.5140 0.5180 0.5230 0.5280 0.5330
11.596878 0.5400 0.5490 0.5570 0.5670 0.5780
11.631000 0.5920 0.6050 0.6120 0.6260 0.6360
11.665878 0.6450 0.6500 0.6590 0.6660 0.6670
11.701000 0.6710 0.6740 0.6760 0.6780 0.6830
11.735878 0.6850 0.6900 0.6930 0.6980 0.7020
11.771000 0.7050 0.7070 0.7090 0.7100 0.7140
11.805878 0.7170 0.7210 0.7240 0.7260 0.7280
11.841000 0.7290 0.7290 0.7330 0.7340 0.7360
11.875878 0.7360 0.7380 0.7410 0.7410 0.7430
11.910000 0.7430 0.7450 0.7450 0.7460 0.7480
11.944878 0.7480 0.7480 0.7500 0.7500 0.7520
11.980000 0.7520 0.7520 0.7530 0.7530 0.7530
12.014878 0.7530 0.7530 0.7530 0.7530 0.7530
12.050000 0.7530 0.7530 0.7530 0.7530 0.7530
12.084878 0.7530 0.7530 0.7530 0.7530 0.7530
12.120000 0.7530 0.7530 0.7530 0.7530 0.7530
12.154878 0.7530 0.7530 0.7530 0.7550 0.7550
12.189000 0.7550 0.7550 0.7550 0.7550 0.7550
12.223878 0.7550 0.7550 0.7550 0.7550 0.7550
12.259000 0.7550 0.7550 0.7550 0.7550 0.7550
12.293878 0.7550 0.7550 0.7570 0.7570 0.7590
12.329000 0.7590 0.7590 0.7600 0.7600 0.7600
12.363878 0.7600 0.7620 0.7620 0.7640 0.7640
12.398000 0.7650 0.7670 0.7690 0.7710 0.7720
12.432878 0.7720 0.7740 0.7760 0.7770 0.7790
12.468000 0.7810 0.7830 0.7840 0.7860 0.7860
12.502878 0.7880 0.7900 0.7910 0.7930 0.7950
12.538000 0.7960 0.7960 0.7980 0.7980 0.8000
12.572878 0.8020 0.8030 0.8020 0.8050 0.8070
12.608000 0.8080 0.8080 0.8100 0.8120 0.8140
12.642878 0.8120 0.8150 0.8150 0.8170 0.8190
12.677000 0.8190 0.8200 0.8220 0.8240 0.8240
12.711878 0.8260 0.8270 0.8270 0.8290 0.8270
12.747000 0.8290 0.8290 0.8310 0.8310 0.8330
12.781878 0.8330 0.8340 0.8360 0.8360 0.8360
12.817000 0.8380 0.8380 0.8380 0.8380 0.8360
12.851878 0.8360 0.8360 0.8360 0.8360 0.8360
12.886000 0.8360 0.8360 0.8360 0.8360 0.8360
12.920878 0.8360 0.8360 0.8360 0.8360 0.8360
12.956000 0.8360 0.8340 0.8340 0.8340 0.8340
12.990878 0.8340 0.8340 0.8330 0.8330 0.8330
13.026000 0.8330 0.8330 0.8310 0.8310 0.8310
13.060878 0.8310 0.8290 0.8290 0.8290 0.8290
13.096000 0.8270 0.8270 0.8270 0.8270 0.8260
13.130878 0.8260 0.8240 0.8240 0.8240 0.8220
13.165000 0.8200 0.8190 0.8190 0.8170 0.8170
13.199878 0.8150 0.8170 0.8170 0.8170 0.8150
13.235000 0.8140 0.8140 0.8120 0.8120 0.8120
13.269878 0.8100 0.8100 0.8080 0.8080 0.8070
13.305000 0.8070 0.8050 0.8030 0.8030 0.8020
13.339878 0.7980 0.7980 0.7960 0.7950 0.7930
13.375000 0.7910 0.7880 0.7860 0.7840 0.7840
13.409878 0.7810 0.7790 0.7760 0.7720 0.7690
13.444000 0.7650 0.7640 0.7600 0.7570 0.7500
13.478878 0.7480 0.7500 0.7460 0.7450 0.7410
13.514000 0.7400 0.7360 0.7340 0.7330 0.7290
13.548878 0.7280 0.7260 0.7220 0.7190 0.7170
13.584000 0.7140 0.7120 0.7070 0.7050 0.7030
13.618878 0.7020 0.7000 0.6980 0.6970 0.6950
13.653000 0.6930 0.6910 0.6900 0.6880 0.6860
13.687878 0.6850 0.6850 0.6830 0.6830 0.6810
13.723000 0.6810 0.6790 0.6790 0.6780 0.6760
13.757878 0.6760 0.6760 0.6760 0.6740 0.6740
13.793000 0.6740 0.6740 0.6720 0.6720 0.6720
13.827878 0.6720 0.6720 0.6720 0.6720 0.6720
13.863000 0.6710 0.6710 0.6710 0.6710 0.6710
13.897878 0.6710 0.6710 0.6710 0.6710 0.6710
13.932000 0.6710 0.6710 0.6710 0.6710 0.6720
13.966878 0.6720 0.6720 0.6720 0.6740 0.6740
14.002000 0.6740 0.6740 0.6760 0.6780 0.6790
14.036878 0.6790 0.6810 0.6830 0.6850 0.6850
14.072000 0.6860 0.6860 0.6880 0.6880 0.6900
14.106878 0.6910 0.6930 0.6950 0.6970 0.7000
14.141000 0.7020 0.7030 0.7050 0.7090 0.7090
14.175878 0.7100 0.7100 0.7100 0.7120 0.7120
14.211000 0.7120 0.7140 0.7140 0.7160 0.7160
14.245878 0.7170 0.7190 0.7210 0.7220 0.7220
14.281000 0.7240 0.7240 0.7260 0.7280 0.7290
14.315878 0.7330 0.7340 0.7360 0.7380 0.7400
14.351000 0.7410 0.7450 0.7460 0.7460 0.7480
14.385878 0.7500 0.7520 0.7520 0.7530 0.7570
14.420000 0.7590 0.7620 0.7640 0.7650 0.7670
14.454878 0.7710 0.7720 0.7710 0.7740 0.7770
14.490000 0.7790 0.7840 0.7840 0.7860 0.7880
14.524878 0.7880 0.7900 0.7900 0.7910 0.7930
14.560000 0.7950 0.7960 0.7960 0.8000 0.7980
14.594878 0.8020 0.8020 0.8020 0.8030 0.8050
14.629000 0.8070 0.8070 0.8080 0.8080 0.8080
14.663878 0.8100 0.8100 0.8120 0.8120 0.8120
14.699000 0.8140 0.8140 0.8150 0.8170 0.8170
14.733878 0.8170 0.8170 0.8190 0.8200 0.8200
14.769000 0.8200 0.8220 0.8220 0.8220 0.8220
14.803878 0.8220 0.8220 0.8240 0.8240 0.8240
14.839000 0.8240 0.8220 0.8220 0.8220 0.8220
14.873878 0.8220 0.8220 0.8200 0.8200 0.8200
14.908000 0.8200 0.8200 0.8200 0.8190 0.8190
14.942878 0.8190 0.8190 0.8190 0.8190 0.8190
14.978000 0.8190 0.8190 0.8190 0.8190 0.8190
15.012878 0.8190 0.8190 0.8190 0.8190 0.8190
15.048000 0.8190 0.8190 0.8190 0.8190 0.8200
15.082878 0.8200 0.8200 0.8200 0.8200 0.8200
15.118000 0.8200 0.8200 0.8200 0.8200 0.8200
15.152878 0.8200 0.8200 0.8200 0.8200 0.8200
15.187000 0.8200 0.8200 0.8200 0.8200 0.8220
15.221878 0.8200 0.8200 0.8200 0.8200 0.8190
15.257000 0.8190 0.8200 0.8190 0.8190 0.8190
15.291878 0.8190 0.8190 0.8190 0.8190 0.8190
15.327000 0.8190 0.8190 0.8190 0.8190 0.8190
15.361878 0.8170 0.8170 0.8170 0.8170 0.8150
15.396000 0.8150 0.8150 0.8140 0.8140 0.8140
15.430878 0.8120 0.8120 0.8100 0.8100 0.8080
15.466000 0.8080 0.8070 0.8070 0.8050 0.8050
15.500878 0.8030 0.8030 0.8020 0.8000 0.8000
15.536000 0.8000 0.7980 0.7980 0.7960 0.7960
15.570878 0.7960 0.7950 0.7950 0.7950 0.7950
15.606000 0.7950 0.7950 0.7930 0.7950
##END=
