##TITLE=SODIUM GLUCOHEPTANATE
##JCAMP-DX=4.24
##DATA TYPE=INFRARED SPECTRUM
##CLASS=COBLENTZ
##ORIGIN=DOW CHEMICAL COMPANY
##OWNER=COBLENTZ SOCIETY
Collection (C) 2018 copyright by the U.S. Secretary of Commerce
on behalf of the United States of America. All rights reserved.
##DATE=Not specified, most likely prior to 1970
##MOLFORM=C7 H13 O8 Na
##SOURCE REFERENCE=COBLENTZ NO. 2264
##$NIST ID=B6002264
##$NIST SOURCE=COBLENTZ
##$NIST IMAGE=cob2264
##SPECTROMETER/DATA SYSTEM=Not specified, most likely a prism, grating, or hybrid spectrometer.
##STATE=SOLID (MINERAL OIL MULL)
##PATH LENGTH=
$$SPECTRAL CONTAMINATION DUE TO OIL AROUND 2900 CM^-^1
##SAMPLING PROCEDURE=TRANSMISSION
##RESOLUTION=4
##DATA PROCESSING=DIGITIZED BY NIST FROM HARD COPY
##XUNITS=MICROMETERS
##YUNITS=TRANSMITTANCE
##XFACTOR=1.000000
##YFACTOR=1
##DELTAX=000.006699
##FIRSTX=2.027
##LASTX=15.8863
##FIRSTY=0.89
##MAXX=15.8863
##MINX=2.027
##MAXY=0.9
##MINY=0.068
##NPOINTS=2070
##XYDATA=(X++(Y..Y))
2.027000 0.8900 0.8880 0.8880 0.8880 0.8900
2.060509 0.8930 0.8930 0.8950 0.8960 0.8960
2.094000 0.8960 0.8960 0.8980 0.8980 0.8980
2.127509 0.8980 0.8980 0.8980 0.8980 0.8980
2.161000 0.8980 0.8960 0.8960 0.8950 0.8950
2.194509 0.8910 0.8900 0.8860 0.8810 0.8780
2.228000 0.8760 0.8750 0.8750 0.8750 0.8750
2.261509 0.8750 0.8760 0.8780 0.8780 0.8800
2.295000 0.8800 0.8810 0.8810 0.8830 0.8830
2.328509 0.8830 0.8830 0.8830 0.8830 0.8830
2.362000 0.8830 0.8830 0.8830 0.8830 0.8830
2.395509 0.8830 0.8850 0.8850 0.8850 0.8850
2.429000 0.8860 0.8860 0.8880 0.8900 0.8900
2.462509 0.8910 0.8930 0.8930 0.8950 0.8950
2.496000 0.8960 0.8960 0.8980 0.8980 0.9000
2.529509 0.9000 0.9000 0.9000 0.9000 0.8980
2.563000 0.8980 0.8960 0.8960 0.8950 0.8950
2.596509 0.8950 0.8950 0.8960 0.8960 0.8960
2.630000 0.8960 0.8960 0.8960 0.8960 0.8950
2.663509 0.8910 0.8880 0.8850 0.8810 0.8780
2.697000 0.8760 0.8730 0.8680 0.8650 0.8600
2.730509 0.8530 0.8450 0.8430 0.8330 0.8260
2.764000 0.8210 0.8110 0.8060 0.8000 0.7950
2.797509 0.7830 0.7670 0.7400 0.7300 0.7150
2.831000 0.6950 0.6700 0.6430 0.6100 0.5740
2.864509 0.5340 0.5120 0.4900 0.4440 0.3940
2.898000 0.3410 0.3120 0.2390 0.2010 0.1990
2.931509 0.2010 0.2070 0.2110 0.2120 0.2010
2.965000 0.1910 0.1710 0.1690 0.1730 0.2090
2.998509 0.2390 0.2640 0.3010 0.3340 0.3510
3.032000 0.3710 0.3760 0.3860 0.3890 0.3890
3.065509 0.3870 0.3690 0.3560 0.3460 0.3440
3.099000 0.3470 0.3590 0.3760 0.3940 0.4140
3.132509 0.4440 0.4490 0.4640 0.4750 0.4850
3.166000 0.4920 0.4990 0.5090 0.5100 0.5140
3.199509 0.5150 0.5170 0.5190 0.5190 0.5190
3.233000 0.5200 0.5200 0.5200 0.5220 0.5270
3.266509 0.5270 0.5270 0.5270 0.5200 0.5090
3.300000 0.4970 0.4850 0.4490 0.4220 0.3990
3.333509 0.3620 0.3040 0.2110 0.1490 0.1140
3.367000 0.0860 0.0760 0.0690 0.0680 0.0690
3.400509 0.0730 0.0940 0.1390 0.1490 0.1590
3.433000 0.1740 0.1790 0.1880 0.1890 0.1940
3.466509 0.1980 0.2740 0.3560 0.4200 0.4700
3.500000 0.5370 0.5570 0.5720 0.5840 0.5940
3.533509 0.6050 0.6130 0.6200 0.6300 0.6370
3.567000 0.6400 0.6420 0.6430 0.6450 0.6450
3.600509 0.6430 0.6420 0.6400 0.6380 0.6380
3.634000 0.6380 0.6380 0.6380 0.6420 0.6420
3.667509 0.6420 0.6400 0.6370 0.6300 0.6250
3.701000 0.6200 0.6200 0.6220 0.6330 0.6450
3.734509 0.6600 0.6730 0.6870 0.6930 0.7050
3.768000 0.7120 0.7180 0.7230 0.7300 0.7350
3.801509 0.7480 0.7480 0.7520 0.7530 0.7570
3.835000 0.7580 0.7600 0.7630 0.7650 0.7650
3.868509 0.7680 0.7700 0.7730 0.7780 0.7820
3.902000 0.7880 0.7930 0.7980 0.8010 0.8030
3.935509 0.8060 0.8080 0.8110 0.8160 0.8160
3.969000 0.8180 0.8210 0.8230 0.8250 0.8260
4.002509 0.8300 0.8330 0.8360 0.8360 0.8380
4.036000 0.8380 0.8400 0.8430 0.8450 0.8460
4.069509 0.8460 0.8480 0.8500 0.8510 0.8530
4.103000 0.8550 0.8550 0.8560 0.8560 0.8580
4.136509 0.8580 0.8600 0.8600 0.8610 0.8630
4.170000 0.8630 0.8630 0.8650 0.8650 0.8650
4.203509 0.8660 0.8660 0.8660 0.8680 0.8680
4.237000 0.8680 0.8700 0.8700 0.8700 0.8700
4.270509 0.8710 0.8710 0.8730 0.8730 0.8750
4.304000 0.8760 0.8760 0.8700 0.8700 0.8700
4.337509 0.8710 0.8730 0.8750 0.8750 0.8760
4.371000 0.8760 0.8760 0.8780 0.8780 0.8780
4.404509 0.8780 0.8780 0.8780 0.8780 0.8800
4.438000 0.8800 0.8810 0.8810 0.8810 0.8810
4.471509 0.8810 0.8800 0.8800 0.8800 0.8800
4.505000 0.8850 0.8850 0.8850 0.8850 0.8850
4.538509 0.8830 0.8810 0.8810 0.8800 0.8800
4.572000 0.8800 0.8800 0.8810 0.8810 0.8830
4.605509 0.8830 0.8830 0.8850 0.8850 0.8860
4.639000 0.8860 0.8860 0.8860 0.8860 0.8850
4.672509 0.8830 0.8830 0.8830 0.8850 0.8850
4.706000 0.8850 0.8860 0.8860 0.8860 0.8860
4.739509 0.8860 0.8860 0.8860 0.8860 0.8880
4.773000 0.8880 0.8880 0.8880 0.8880 0.8880
4.806509 0.8860 0.8860 0.8860 0.8860 0.8880
4.840000 0.8900 0.8910 0.8930 0.8950 0.8960
4.873509 0.8960 0.8960 0.8960 0.8950 0.8950
4.907000 0.8950 0.8900 0.8900 0.8900 0.8900
4.940509 0.8910 0.8910 0.8910 0.8910 0.8930
4.974000 0.8930 0.8930 0.8930 0.8930 0.8950
5.007509 0.8950 0.8950 0.8950 0.8950 0.8950
5.041000 0.8950 0.8950 0.8950 0.8930 0.8930
5.074509 0.8910 0.8910 0.8910 0.8910 0.8930
5.108000 0.8930 0.8950 0.8950 0.8960 0.8960
5.141509 0.8960 0.8960 0.8950 0.8910 0.8910
5.175000 0.8900 0.8900 0.8900 0.8900 0.8880
5.208509 0.8860 0.8860 0.8860 0.8860 0.8860
5.242000 0.8860 0.8860 0.8860 0.8860 0.8880
5.275509 0.8880 0.8880 0.8900 0.8900 0.8900
5.309000 0.8900 0.8900 0.8900 0.8900 0.8900
5.342509 0.8900 0.8880 0.8860 0.8860 0.8860
5.376000 0.8860 0.8860 0.8860 0.8850 0.8860
5.409509 0.8860 0.8860 0.8860 0.8860 0.8860
5.443000 0.8860 0.8860 0.8850 0.8830 0.8830
5.476509 0.8810 0.8810 0.8810 0.8830 0.8830
5.510000 0.8830 0.8850 0.8850 0.8850 0.8850
5.543509 0.8850 0.8830 0.8830 0.8810 0.8780
5.577000 0.8760 0.8760 0.8760 0.8780 0.8780
5.610509 0.8780 0.8780 0.8780 0.8780 0.8780
5.644000 0.8750 0.8730 0.8710 0.8700 0.8700
5.677509 0.8680 0.8680 0.8660 0.8660 0.8660
5.711000 0.8660 0.8660 0.8650 0.8630 0.8630
5.744509 0.8610 0.8610 0.8610 0.8600 0.8580
5.778000 0.8580 0.8560 0.8530 0.8500 0.8480
5.811509 0.8460 0.8460 0.8410 0.8400 0.8360
5.845000 0.8310 0.8260 0.8230 0.8200 0.8180
5.878509 0.8160 0.8100 0.8080 0.8000 0.8000
5.912000 0.7950 0.7880 0.7830 0.7800 0.7770
5.945509 0.7700 0.7670 0.7530 0.7500 0.7470
5.979000 0.7380 0.7350 0.7320 0.7280 0.7230
6.012509 0.6900 0.6800 0.6770 0.6750 0.6680
6.046000 0.6520 0.6380 0.6230 0.6180 0.6000
6.079509 0.5720 0.5490 0.5290 0.5050 0.4920
6.113000 0.4790 0.4540 0.3910 0.3710 0.3590
6.146509 0.3310 0.2840 0.2070 0.1910 0.1810
6.180000 0.1710 0.1610 0.1530 0.1510 0.1510
6.213509 0.1540 0.1760 0.2110 0.2340 0.2870
6.247000 0.3040 0.3460 0.3820 0.4290 0.4740
6.280509 0.4800 0.5170 0.5390 0.5690 0.5850
6.314000 0.6020 0.6150 0.6230 0.6320 0.6380
6.347509 0.6450 0.6530 0.6600 0.6700 0.6780
6.381000 0.6900 0.7020 0.7130 0.7230 0.7230
6.414509 0.7280 0.7300 0.7320 0.7370 0.7420
6.448000 0.7480 0.7500 0.7570 0.7600 0.7620
6.481509 0.7620 0.7630 0.7630 0.7630 0.7630
6.515000 0.7630 0.7630 0.7630 0.7630 0.7630
6.548509 0.7630 0.7670 0.7670 0.7680 0.7680
6.582000 0.7680 0.7650 0.7630 0.7600 0.7570
6.615509 0.7530 0.7520 0.7480 0.7420 0.7380
6.649000 0.7320 0.7270 0.7180 0.7120 0.7020
6.682509 0.6920 0.6800 0.6720 0.6600 0.6550
6.716000 0.6480 0.6380 0.6230 0.6030 0.5750
6.749509 0.5370 0.5140 0.4890 0.4470 0.4140
6.783000 0.3860 0.3660 0.3520 0.3240 0.3020
6.816509 0.2910 0.2820 0.2710 0.2690 0.2710
6.850000 0.2740 0.2810 0.2890 0.3010 0.3140
6.883509 0.3260 0.3360 0.3440 0.3540 0.3640
6.917000 0.3740 0.3870 0.4020 0.4190 0.4340
6.950509 0.4500 0.4600 0.4700 0.4840 0.4940
6.984000 0.5070 0.5170 0.5290 0.5400 0.5470
7.017509 0.5490 0.5490 0.5500 0.5520 0.5550
7.051000 0.5550 0.5550 0.5540 0.5500 0.5470
7.084509 0.5390 0.5300 0.5240 0.5140 0.5000
7.118000 0.4900 0.4800 0.4550 0.4420 0.4240
7.151509 0.4020 0.3810 0.3570 0.3370 0.3190
7.185000 0.3060 0.2990 0.2920 0.2840 0.2820
7.218509 0.2840 0.2970 0.3110 0.3290 0.3440
7.252000 0.3710 0.3960 0.4190 0.4390 0.4400
7.285509 0.4400 0.4370 0.4370 0.4350 0.4350
7.319000 0.4390 0.4490 0.4640 0.4800 0.4990
7.352509 0.5350 0.5540 0.5720 0.5850 0.5950
7.386000 0.6030 0.6070 0.6180 0.6220 0.6280
7.419509 0.6300 0.6350 0.6380 0.6480 0.6550
7.453000 0.6700 0.6800 0.6900 0.6970 0.7000
7.486509 0.7030 0.7070 0.7080 0.7070 0.7070
7.520000 0.7020 0.7000 0.6920 0.6830 0.6680
7.553509 0.6600 0.6570 0.6500 0.6400 0.6330
7.587000 0.6280 0.6250 0.6200 0.6200 0.6200
7.620509 0.6200 0.6180 0.6180 0.6170 0.6170
7.654000 0.6150 0.6130 0.6150 0.6170 0.6200
7.687509 0.6220 0.6270 0.6270 0.6270 0.6250
7.721000 0.6230 0.6180 0.6120 0.6030 0.5970
7.754509 0.5940 0.5920 0.5900 0.5900 0.5900
7.788000 0.6070 0.6200 0.6320 0.6430 0.6580
7.821509 0.6720 0.6830 0.6900 0.6980 0.7030
7.855000 0.7080 0.7100 0.7120 0.7120 0.7120
7.888509 0.7080 0.7080 0.7000 0.6880 0.6800
7.922000 0.6720 0.6670 0.6620 0.6600 0.6580
7.955509 0.6580 0.6600 0.6700 0.6800 0.6850
7.989000 0.6920 0.6970 0.7050 0.7120 0.7150
8.022509 0.7170 0.7200 0.7220 0.7250 0.7280
8.056000 0.7320 0.7370 0.7380 0.7480 0.7570
8.089509 0.7570 0.7570 0.7570 0.7570 0.7570
8.122000 0.7570 0.7570 0.7570 0.7550 0.7480
8.155509 0.7380 0.7300 0.7200 0.7120 0.7030
8.189000 0.7030 0.6820 0.6720 0.6630 0.6580
8.222509 0.6500 0.6470 0.6450 0.6450 0.6480
8.256000 0.6570 0.6670 0.6730 0.6830 0.6970
8.289509 0.7070 0.7150 0.7270 0.7370 0.7480
8.323000 0.7520 0.7600 0.7670 0.7730 0.7780
8.356509 0.7820 0.7870 0.7900 0.7970 0.7980
8.390000 0.8010 0.8060 0.8080 0.8080 0.8100
8.423509 0.8100 0.8100 0.8110 0.8110 0.8130
8.457000 0.8150 0.8150 0.8150 0.8150 0.8130
8.490509 0.8130 0.8150 0.8160 0.8160 0.8160
8.524000 0.8160 0.8160 0.8160 0.8160 0.8150
8.557509 0.8150 0.8130 0.8130 0.8130 0.8130
8.591000 0.8130 0.8130 0.8130 0.8130 0.8110
8.624509 0.8110 0.8110 0.8110 0.8110 0.8110
8.658000 0.8110 0.8110 0.8110 0.8110 0.8110
8.691509 0.8110 0.8110 0.8100 0.8060 0.8000
8.725000 0.8000 0.7980 0.7920 0.7870 0.7780
8.758509 0.7700 0.7620 0.7570 0.7500 0.7470
8.792000 0.7420 0.7380 0.7370 0.7320 0.7300
8.825509 0.7280 0.7250 0.7230 0.7200 0.7170
8.859000 0.7100 0.7020 0.6980 0.6880 0.6780
8.892509 0.6720 0.6670 0.6500 0.6470 0.6380
8.926000 0.6270 0.6120 0.6080 0.6000 0.5870
8.959509 0.5690 0.5490 0.5340 0.5140 0.4870
8.993000 0.4600 0.4500 0.4370 0.4240 0.4100
9.026509 0.3970 0.3870 0.3860 0.3860 0.3890
9.060000 0.4070 0.4290 0.4440 0.4570 0.4620
9.093509 0.4650 0.4650 0.4590 0.4500 0.4450
9.127000 0.4420 0.4390 0.4370 0.4400 0.4500
9.160509 0.4690 0.4740 0.5420 0.5590 0.5790
9.194000 0.6120 0.6230 0.6320 0.6380 0.6400
9.227509 0.6400 0.6400 0.6270 0.5750 0.5520
9.261000 0.5340 0.5300 0.5140 0.4970 0.4820
9.294509 0.4490 0.4040 0.3740 0.3370 0.3060
9.328000 0.2620 0.2620 0.2640 0.2660 0.2790
9.361509 0.3040 0.3310 0.3620 0.3940 0.4140
9.395000 0.4320 0.4500 0.4620 0.4670 0.4700
9.428509 0.4740 0.4800 0.4900 0.5190 0.5440
9.462000 0.5640 0.5990 0.6300 0.6480 0.6550
9.495509 0.6600 0.6770 0.6820 0.6850 0.6850
9.529000 0.6820 0.6780 0.6750 0.6620 0.6450
9.562509 0.6280 0.6120 0.5800 0.5670 0.5420
9.596000 0.5140 0.4970 0.4790 0.4650 0.4070
9.629509 0.3740 0.3440 0.3240 0.3090 0.3090
9.663000 0.3120 0.3390 0.3670 0.4020 0.4090
9.696509 0.4840 0.5470 0.5670 0.5820 0.5950
9.730000 0.6020 0.6030 0.6030 0.6030 0.6030
9.763509 0.6020 0.5990 0.5990 0.5990 0.6020
9.797000 0.6250 0.6420 0.6580 0.6820 0.6930
9.830509 0.7030 0.7200 0.7320 0.7480 0.7580
9.864000 0.7680 0.7770 0.7780 0.7820 0.7850
9.897509 0.7870 0.7880 0.7970 0.7980 0.8000
9.931000 0.8010 0.8030 0.8050 0.8060 0.8060
9.964509 0.8060 0.8080 0.8100 0.8100 0.8080
9.998000 0.8080 0.8060 0.8030 0.8000 0.7970
10.031509 0.7950 0.7920 0.7880 0.7780 0.7770
10.065000 0.7700 0.7620 0.7500 0.7400 0.7350
10.098509 0.7220 0.7080 0.6980 0.6830 0.6770
10.132000 0.6650 0.6630 0.6630 0.6630 0.6630
10.165509 0.6670 0.6750 0.6850 0.6950 0.7080
10.199000 0.7100 0.7450 0.7600 0.7730 0.7770
10.232509 0.7820 0.7880 0.7920 0.7980 0.8000
10.266000 0.8030 0.8080 0.8100 0.8130 0.8160
10.299509 0.8200 0.8210 0.8210 0.8230 0.8250
10.333000 0.8260 0.8260 0.8260 0.8280 0.8300
10.366509 0.8300 0.8300 0.8310 0.8310 0.8310
10.400000 0.8310 0.8300 0.8300 0.8300 0.8300
10.433509 0.8300 0.8300 0.8300 0.8280 0.8260
10.467000 0.8250 0.8230 0.8210 0.8180 0.8110
10.500509 0.8100 0.8060 0.7980 0.7900 0.7770
10.534000 0.7630 0.7470 0.7330 0.7200 0.6950
10.567509 0.6830 0.6680 0.6450 0.6330 0.6030
10.601000 0.5840 0.5700 0.5500 0.5490 0.5490
10.634509 0.5520 0.5770 0.5820 0.6050 0.6080
10.668000 0.6470 0.6870 0.7170 0.7400 0.7550
10.701509 0.7650 0.7700 0.7750 0.7780 0.7820
10.735000 0.7870 0.7900 0.7930 0.7970 0.7970
10.768509 0.7980 0.7980 0.7980 0.7980 0.7980
10.802000 0.7980 0.7980 0.7980 0.7970 0.7950
10.835509 0.7930 0.7930 0.7930 0.7930 0.7950
10.869000 0.7950 0.7970 0.7980 0.7980 0.7980
10.902509 0.7980 0.7980 0.7980 0.7980 0.7980
10.936000 0.7980 0.7980 0.7970 0.7970 0.7950
10.969509 0.7920 0.7880 0.7830 0.7820 0.7770
11.003000 0.7680 0.7600 0.7570 0.7530 0.7480
11.036509 0.7430 0.7350 0.7280 0.7130 0.7020
11.070000 0.6850 0.6700 0.6600 0.6450 0.6200
11.103509 0.5990 0.5800 0.5600 0.5270 0.5170
11.137000 0.5100 0.5000 0.5000 0.4990 0.4990
11.170509 0.4990 0.5270 0.5450 0.5590 0.5920
11.204000 0.6070 0.6070 0.6450 0.6670 0.6850
11.237509 0.6930 0.7030 0.7170 0.7230 0.7300
11.271000 0.7370 0.7400 0.7430 0.7470 0.7470
11.304509 0.7500 0.7500 0.7500 0.7500 0.7500
11.338000 0.7480 0.7470 0.7450 0.7430 0.7420
11.371509 0.7400 0.7400 0.7400 0.7400 0.7400
11.405000 0.7400 0.7400 0.7400 0.7420 0.7420
11.438509 0.7430 0.7450 0.7480 0.7530 0.7580
11.472000 0.7620 0.7650 0.7680 0.7730 0.7780
11.505509 0.7820 0.7880 0.7900 0.7900 0.7930
11.539000 0.7950 0.7970 0.7970 0.7980 0.8000
11.572509 0.8000 0.8000 0.8000 0.8000 0.8000
11.606000 0.8000 0.7980 0.7970 0.7950 0.7880
11.639509 0.7870 0.7830 0.7820 0.7780 0.7770
11.673000 0.7720 0.7700 0.7700 0.7680 0.7670
11.706509 0.7620 0.7580 0.7570 0.7550 0.7530
11.740000 0.7480 0.7470 0.7470 0.7470 0.7470
11.773509 0.7470 0.7470 0.7470 0.7420 0.7380
11.807000 0.7350 0.7300 0.7270 0.7250 0.7250
11.840509 0.7200 0.7180 0.7170 0.7150 0.7120
11.874000 0.7120 0.7100 0.7080 0.7070 0.7000
11.907509 0.6980 0.6950 0.6880 0.6850 0.6800
11.941000 0.6770 0.6750 0.6700 0.6680 0.6670
11.974509 0.6630 0.6600 0.6570 0.6520 0.6500
12.008000 0.6450 0.6420 0.6380 0.6370 0.6330
12.041509 0.6300 0.6280 0.6220 0.6200 0.6180
12.075000 0.6130 0.6130 0.6100 0.6100 0.6080
12.108509 0.6070 0.6070 0.6050 0.6030 0.6020
12.142000 0.6020 0.6020 0.6030 0.6050 0.6050
12.175509 0.6070 0.6080 0.6080 0.6120 0.6120
12.209000 0.6170 0.6180 0.6200 0.6200 0.6220
12.242509 0.6270 0.6300 0.6350 0.6380 0.6400
12.276000 0.6420 0.6430 0.6470 0.6480 0.6500
12.309509 0.6520 0.6530 0.6550 0.6570 0.6600
12.343000 0.6630 0.6670 0.6670 0.6670 0.6700
12.376509 0.6700 0.6700 0.6700 0.6700 0.6720
12.410000 0.6720 0.6750 0.6780 0.6800 0.6850
12.443509 0.6850 0.6870 0.6870 0.6870 0.6880
12.477000 0.6880 0.6900 0.6900 0.6900 0.6920
12.510509 0.6920 0.6920 0.6920 0.6920 0.6920
12.544000 0.6920 0.6920 0.6920 0.6900 0.6900
12.577509 0.6900 0.6880 0.6870 0.6830 0.6780
12.611000 0.6770 0.6770 0.6750 0.6750 0.6720
12.644509 0.6700 0.6680 0.6630 0.6580 0.6530
12.678000 0.6500 0.6470 0.6430 0.6380 0.6330
12.711509 0.6300 0.6250 0.6180 0.6130 0.6080
12.744000 0.6030 0.5990 0.5940 0.5850 0.5820
12.777509 0.5800 0.5770 0.5770 0.5750 0.5740
12.811000 0.5740 0.5750 0.5770 0.5800 0.5850
12.844509 0.5890 0.5950 0.5990 0.6000 0.6070
12.878000 0.6080 0.6100 0.6120 0.6130 0.6130
12.911509 0.6150 0.6170 0.6200 0.6220 0.6220
12.945000 0.6200 0.6200 0.6200 0.6180 0.6170
12.978509 0.6170 0.6120 0.6080 0.6020 0.6000
13.012000 0.5970 0.5970 0.5920 0.5900 0.5890
13.045509 0.5870 0.5850 0.5840 0.5800 0.5750
13.079000 0.5700 0.5700 0.5670 0.5650 0.5640
13.112509 0.5620 0.5590 0.5570 0.5500 0.5490
13.146000 0.5450 0.5420 0.5390 0.5370 0.5340
13.179509 0.5270 0.5200 0.5190 0.5170 0.5150
13.213000 0.5090 0.5040 0.5000 0.5000 0.4990
13.246509 0.4970 0.4920 0.4890 0.4850 0.4820
13.280000 0.4800 0.4790 0.4740 0.4700 0.4670
13.313509 0.4620 0.4590 0.4540 0.4500 0.4490
13.347000 0.4440 0.4390 0.4340 0.4300 0.4270
13.380509 0.4240 0.4220 0.4190 0.4140 0.4100
13.414000 0.4090 0.4070 0.4050 0.4020 0.4000
13.447509 0.3990 0.3960 0.3920 0.3890 0.3870
13.481000 0.3820 0.3790 0.3760 0.3760 0.3740
13.514509 0.3740 0.3740 0.3720 0.3720 0.3690
13.548000 0.3670 0.3660 0.3640 0.3620 0.3620
13.581509 0.3610 0.3610 0.3590 0.3590 0.3590
13.615000 0.3590 0.3590 0.3570 0.3570 0.3570
13.648509 0.3570 0.3570 0.3570 0.3570 0.3590
13.682000 0.3590 0.3590 0.3590 0.3590 0.3590
13.715509 0.3610 0.3620 0.3640 0.3660 0.3670
13.749000 0.3690 0.3690 0.3720 0.3720 0.3740
13.782509 0.3740 0.3760 0.3790 0.3810 0.3810
13.816000 0.3820 0.3840 0.3860 0.3890 0.3910
13.849509 0.3920 0.3960 0.3970 0.4000 0.4040
13.883000 0.4070 0.4100 0.4140 0.4170 0.4190
13.916509 0.4200 0.4220 0.4270 0.4290 0.4300
13.950000 0.4320 0.4350 0.4370 0.4390 0.4400
13.983509 0.4440 0.4470 0.4500 0.4540 0.4570
14.017000 0.4600 0.4640 0.4640 0.4650 0.4670
14.050509 0.4670 0.4690 0.4700 0.4720 0.4720
14.084000 0.4740 0.4750 0.4770 0.4790 0.4820
14.117509 0.4850 0.4850 0.4870 0.4870 0.4870
14.151000 0.4890 0.4900 0.4920 0.4920 0.4940
14.184509 0.4940 0.4950 0.4970 0.4970 0.4970
14.218000 0.4970 0.4990 0.4990 0.4990 0.5000
14.251509 0.5000 0.5020 0.5020 0.5020 0.5040
14.285000 0.5040 0.5050 0.5050 0.5070 0.5070
14.318509 0.5100 0.5100 0.5120 0.5170 0.5170
14.352000 0.5170 0.5170 0.5140 0.5140 0.5140
14.385509 0.5150 0.5170 0.5170 0.5200 0.5200
14.419000 0.5190 0.5170 0.5150 0.5150 0.5170
14.452509 0.5190 0.5190 0.5200 0.5200 0.5200
14.486000 0.5200 0.5190 0.5170 0.5170 0.5170
14.519509 0.5150 0.5150 0.5140 0.5120 0.5100
14.553000 0.5090 0.5070 0.5070 0.5040 0.5000
14.586509 0.5000 0.4990 0.4970 0.4950 0.4940
14.620000 0.4920 0.4890 0.4870 0.4850 0.4820
14.653509 0.4800 0.4770 0.4720 0.4620 0.4620
14.687000 0.4600 0.4540 0.4500 0.4490 0.4440
14.720509 0.4370 0.4350 0.4300 0.4270 0.4190
14.754000 0.4190 0.4170 0.4100 0.4040 0.4000
14.787509 0.3960 0.3910 0.3870 0.3840 0.3790
14.821000 0.3720 0.3670 0.3620 0.3570 0.3510
14.854509 0.3470 0.3420 0.3410 0.3370 0.3340
14.888000 0.3310 0.3290 0.3290 0.3290 0.3270
14.921509 0.3240 0.3210 0.3190 0.3170 0.3160
14.955000 0.3160 0.3160 0.3160 0.3170 0.3190
14.988509 0.3210 0.3220 0.3240 0.3270 0.3310
15.022000 0.3340 0.3360 0.3370 0.3390 0.3410
15.055509 0.3420 0.3460 0.3470 0.3490 0.3510
15.089000 0.3520 0.3540 0.3560 0.3560 0.3570
15.122509 0.3590 0.3620 0.3710 0.3740 0.3770
15.156000 0.3770 0.3790 0.3790 0.3810 0.3820
15.189509 0.3840 0.3890 0.3890 0.3910 0.3910
15.223000 0.3910 0.3910 0.3910 0.3920 0.3920
15.256509 0.3920 0.3920 0.3920 0.3920 0.3920
15.290000 0.3920 0.3920 0.3920 0.3910 0.3910
15.323509 0.3910 0.3910 0.3890 0.3890 0.3890
15.357000 0.3890 0.3890 0.3890 0.3890 0.3890
15.390509 0.3890 0.3870 0.3870 0.3860 0.3860
15.424000 0.3840 0.3840 0.3820 0.3820 0.3810
15.457509 0.3810 0.3790 0.3790 0.3770 0.3770
15.491000 0.3770 0.3740 0.3740 0.3740 0.3720
15.524509 0.3720 0.3710 0.3670 0.3660 0.3620
15.558000 0.3590 0.3570 0.3540 0.3540 0.3520
15.591509 0.3510 0.3510 0.3510 0.3510 0.3510
15.625000 0.3490 0.3490 0.3460 0.3410 0.3360
15.658509 0.3320 0.3310 0.3290 0.3290 0.3270
15.692000 0.3270 0.3270 0.3260 0.3240 0.3220
15.725509 0.3190 0.3190 0.3160 0.3120 0.3090
15.759000 0.3070 0.3060 0.3020 0.3020 0.3020
15.792509 0.3010 0.3010 0.2990 0.2970 0.2970
15.826000 0.2940 0.2920 0.2920 0.2920 0.2920
15.859509 0.2920 0.2910 0.2910 0.2910 0.2910
##END=
