##TITLE=Urea, 1,3-bis(2-chlorocyclohexyl)-
##JCAMP-DX=4.24
##DATA TYPE=INFRARED SPECTRUM
##CLASS=COBLENTZ III
##ORIGIN=SOUTHERN RESEARCH INSTITUTE
##OWNER=Copyright (C) 1987 by the Coblentz Society
Collection (C) 2018 copyright by the U.S. Secretary of Commerce
on behalf of the United States of America. All rights reserved.
##DATE=1964/07/31
##NAMES=N,N'-bis(2-chlorocyclohexyl)urea
##MOLFORM=C13 H22 Cl2 N2 O
##SOURCE REFERENCE=COBLENTZ NO. 6848
##$NIST ID=B6006848
##$NIST SOURCE=COBLENTZ
##$NIST IMAGE=cob6848
##SPECTROMETER/DATA SYSTEM=PERKIN-ELMER 221 (GRATING)
##INSTRUMENT PARAMETERS=FILTER AT 980 CM^-^1. GRATING 4000-1428 CM^-^1, NaCl PRISM 1428-650 CM^-^1
##STATE=SOLID (1 mg / 650 mg KBr DISC)
##RESOLUTION=2
##DATA PROCESSING=(ADJUSTED \addcm-1\10-5-2\)
##XUNITS=1/CM
##YUNITS=TRANSMITTANCE
##XFACTOR=1.0
##YFACTOR=1
##DELTAX=1.003044
##FIRSTX=591.95
##LASTX=4012.33
##FIRSTY=0.7626
##MAXX=4012.33
##MINX=591.95
##MAXY=0.935364
##MINY=0.129031
##NPOINTS=3411
##XYDATA=(X++(Y..Y))
591.950000 0.7626 0.7620 0.7612 0.7604 0.7593
596.965220 0.7582 0.7572 0.7560 0.7547 0.7535
601.980441 0.7523 0.7512 0.7503 0.7494 0.7485
606.995661 0.7476 0.7467 0.7462 0.7457 0.7452
612.010881 0.7448 0.7446 0.7444 0.7442 0.7437
617.026102 0.7431 0.7426 0.7414 0.7399 0.7365
622.041322 0.7328 0.7289 0.7245 0.7206 0.7186
627.056543 0.7187 0.7182 0.7194 0.7220 0.7255
632.071763 0.7288 0.7313 0.7338 0.7356 0.7368
637.086983 0.7380 0.7387 0.7394 0.7402 0.7410
642.102204 0.7418 0.7426 0.7434 0.7442 0.7450
647.117424 0.7458 0.7464 0.7471 0.7478 0.7486
652.132644 0.7494 0.7502 0.7510 0.7519 0.7524
657.147865 0.7528 0.7532 0.7536 0.7540 0.7544
662.163085 0.7548 0.7552 0.7557 0.7563 0.7569
667.178305 0.7575 0.7580 0.7586 0.7592 0.7599
672.193526 0.7606 0.7613 0.7620 0.7627 0.7633
677.208746 0.7640 0.7647 0.7654 0.7661 0.7668
682.223967 0.7675 0.7682 0.7689 0.7696 0.7703
687.239187 0.7710 0.7716 0.7746 0.7734 0.7736
692.254407 0.7742 0.7749 0.7755 0.7756 0.7754
697.269628 0.7752 0.7750 0.7748 0.7742 0.7735
702.284848 0.7728 0.7721 0.7713 0.7701 0.7686
707.300068 0.7671 0.7656 0.7640 0.7623 0.7607
712.315289 0.7591 0.7574 0.7558 0.7542 0.7525
717.330509 0.7506 0.7481 0.7453 0.7425 0.7398
722.345730 0.7354 0.7300 0.7244 0.7187 0.7080
727.360950 0.6937 0.6788 0.6640 0.6490 0.6341
732.376170 0.6193 0.6044 0.5898 0.5857 0.5841
737.391391 0.5844 0.5861 0.6011 0.6252 0.6508
742.406611 0.6764 0.7005 0.7083 0.7093 0.7099
747.421831 0.7105 0.7113 0.7126 0.7175 0.7255
752.437052 0.7342 0.7429 0.7516 0.7602 0.7706
757.452272 0.7751 0.7764 0.7778 0.7787 0.7790
762.467492 0.7790 0.7789 0.7787 0.7786 0.7786
767.482713 0.7791 0.7801 0.7824 0.7859 0.7924
772.497933 0.8014 0.8108 0.8202 0.8296 0.8390
777.513154 0.8485 0.8537 0.8560 0.8572 0.8586
782.528374 0.8583 0.8575 0.8568 0.8558 0.8549
787.543594 0.8539 0.8529 0.8515 0.8498 0.8479
792.558815 0.8460 0.8439 0.8402 0.8320 0.8217
797.574035 0.8113 0.8010 0.7906 0.7830 0.7802
802.589255 0.7791 0.7797 0.7813 0.7877 0.7990
807.604476 0.8114 0.8238 0.8362 0.8486 0.8595
812.619696 0.8676 0.8722 0.8752 0.8779 0.8801
817.634916 0.8822 0.8843 0.8863 0.8879 0.8892
822.650137 0.8905 0.8917 0.8927 0.8931 0.8933
827.665357 0.8933 0.8934 0.8932 0.8925 0.8913
832.680578 0.8902 0.8891 0.8853 0.8774 0.8680
837.695798 0.8586 0.8491 0.8397 0.8302 0.8239
842.711018 0.8215 0.8222 0.8268 0.8342 0.8423
847.726239 0.8504 0.8585 0.8666 0.8747 0.8813
852.741459 0.8844 0.8843 0.8833 0.8808 0.8737
857.756679 0.8642 0.8546 0.8451 0.8356 0.8276
862.771900 0.8225 0.8228 0.8259 0.8329 0.8488
867.787120 0.8637 0.8708 0.8740 0.8770 0.8798
872.802340 0.8833 0.8871 0.8902 0.8925 0.8937
877.817561 0.8962 0.8974 0.8958 0.8959 0.8960
882.832781 0.8961 0.8960 0.8959 0.8957 0.8956
887.848002 0.8951 0.8940 0.8930 0.8919 0.8903
892.863222 0.8878 0.8848 0.8810 0.8768 0.8720
897.878442 0.8662 0.8598 0.8521 0.8425 0.8295
902.893663 0.8185 0.8151 0.8142 0.8163 0.8174
907.908883 0.8196 0.8234 0.8289 0.8339 0.8384
912.924103 0.8430 0.8473 0.8514 0.8556 0.8603
917.939324 0.8665 0.8731 0.8789 0.8850 0.8899
922.954544 0.8902 0.8906 0.8910 0.8911 0.8908
927.969764 0.8902 0.8892 0.8875 0.8858 0.8837
932.984985 0.8810 0.8783 0.8754 0.8726 0.8697
938.000205 0.8665 0.8623 0.8577 0.8531 0.8483
943.015426 0.8429 0.8372 0.8316 0.8258 0.8196
948.030646 0.8091 0.7899 0.7673 0.7446 0.7233
953.045866 0.7095 0.7079 0.7082 0.7113 0.7218
958.061087 0.7336 0.7455 0.7574 0.7692 0.7811
963.076307 0.7929 0.8048 0.8166 0.8285 0.8403
968.091527 0.8531 0.8682 0.8774 0.8723 0.8755
973.106748 0.8824 0.9001 0.9191 0.9354 0.9287
978.121968 0.8746 0.8119 0.7602 0.7544 0.7920
983.137189 0.8417 0.8725 0.8735 0.8741 0.8744
988.152409 0.8744 0.8740 0.8733 0.8722 0.8709
993.167629 0.8695 0.8680 0.8661 0.8643 0.8625
998.182850 0.8607 0.8588 0.8571 0.8556 0.8545
1003.198070 0.8535 0.8524 0.8518 0.8517 0.8517
1008.213290 0.8516 0.8516 0.8515 0.8518 0.8524
1013.228511 0.8530 0.8532 0.8529 0.8526 0.8522
1018.243731 0.8511 0.8496 0.8473 0.8446 0.8418
1023.258951 0.8383 0.8347 0.8311 0.8267 0.8221
1028.274172 0.8168 0.8110 0.8064 0.8018 0.8015
1033.289392 0.8015 0.8019 0.8027 0.8034 0.8041
1038.304613 0.8053 0.8066 0.8078 0.8090 0.8106
1043.319833 0.8122 0.8138 0.8154 0.8168 0.8182
1048.335053 0.8195 0.8209 0.8222 0.8234 0.8245
1053.350274 0.8256 0.8268 0.8278 0.8280 0.8282
1058.365494 0.8283 0.8285 0.8287 0.8287 0.8273
1063.380714 0.8287 0.8286 0.8283 0.8275 0.8260
1068.395935 0.8244 0.8229 0.8213 0.8194 0.8116
1073.411155 0.8029 0.7942 0.7856 0.7769 0.7682
1078.426375 0.7595 0.7508 0.7421 0.7335 0.7248
1083.441596 0.7172 0.7139 0.7135 0.7130 0.7115
1088.456816 0.7161 0.7215 0.7319 0.7423 0.7527
1093.472037 0.7632 0.7736 0.7839 0.7945 0.8106
1098.487257 0.8198 0.8219 0.8235 0.8249 0.8248
1103.502477 0.8242 0.8244 0.8234 0.8212 0.8186
1108.517698 0.8160 0.8124 0.8083 0.8035 0.7973
1113.532918 0.7916 0.7861 0.7778 0.7667 0.7617
1118.548138 0.7568 0.7520 0.7471 0.7430 0.7392
1123.563359 0.7371 0.7356 0.7322 0.7267 0.7211
1128.578579 0.7155 0.7100 0.7045 0.7043 0.7050
1133.593799 0.7204 0.7413 0.7624 0.7772 0.7831
1138.609020 0.7865 0.7889 0.7912 0.7920 0.7929
1143.624240 0.7937 0.7946 0.7952 0.7955 0.7958
1148.639461 0.7961 0.7964 0.7966 0.7969 0.7971
1153.654681 0.7956 0.7974 0.7977 0.7978 0.7979
1158.669901 0.7980 0.7981 0.7978 0.7973 0.7968
1163.685122 0.7962 0.7956 0.7950 0.7944 0.7937
1168.700342 0.7925 0.7911 0.7897 0.7883 0.7869
1173.715562 0.7850 0.7815 0.7777 0.7739 0.7701
1178.730783 0.7662 0.7622 0.7575 0.7527 0.7479
1183.746003 0.7427 0.7369 0.7310 0.7247 0.7170
1188.761223 0.7091 0.7011 0.6902 0.6784 0.6665
1193.776444 0.6546 0.6427 0.6308 0.6189 0.6070
1198.791664 0.5951 0.5934 0.5949 0.6041 0.6225
1203.806885 0.6425 0.6508 0.6510 0.6476 0.6403
1208.822105 0.6323 0.6243 0.6184 0.6167 0.6215
1213.837325 0.6281 0.6347 0.6414 0.6481 0.6547
1218.852546 0.6587 0.6586 0.6580 0.6554 0.6480
1223.867766 0.6393 0.6306 0.6263 0.6260 0.6294
1228.882986 0.6421 0.6532 0.6630 0.6727 0.6825
1233.898207 0.6889 0.6903 0.6903 0.6925 0.6886
1238.913427 0.6821 0.6748 0.6671 0.6544 0.6387
1243.928648 0.6225 0.6063 0.5902 0.5740 0.5578
1248.943868 0.5537 0.5520 0.5525 0.5690 0.5975
1253.959088 0.6285 0.6594 0.6729 0.6747 0.6751
1258.974309 0.6598 0.6456 0.6347 0.6239 0.6147
1263.989529 0.6095 0.6058 0.5964 0.5843 0.5720
1269.004749 0.5598 0.5478 0.5432 0.5423 0.5423
1274.019970 0.5432 0.5532 0.5789 0.6103 0.6417
1279.035190 0.6731 0.6851 0.6861 0.6859 0.6826
1284.050410 0.6795 0.6777 0.6773 0.6775 0.6784
1289.065631 0.6796 0.6829 0.6923 0.7036 0.7190
1294.080851 0.7302 0.7332 0.7339 0.7347 0.7329
1299.096072 0.7307 0.7289 0.7270 0.7247 0.7222
1304.111292 0.7194 0.7158 0.7110 0.7048 0.6781
1309.126512 0.6347 0.5889 0.5430 0.4971 0.4613
1314.141733 0.4504 0.4513 0.4645 0.4959 0.5341
1319.156953 0.5722 0.6104 0.6486 0.6741 0.6829
1324.172173 0.6861 0.6890 0.6915 0.6938 0.6958
1329.187394 0.6976 0.6996 0.7023 0.7053 0.7090
1334.202614 0.7274 0.7460 0.7521 0.7550 0.7572
1339.217834 0.7588 0.7602 0.7617 0.7633 0.7650
1344.233055 0.7669 0.7713 0.7777 0.7841 0.7902
1349.248275 0.7946 0.7977 0.8008 0.8038 0.8064
1354.263496 0.8084 0.8104 0.8124 0.8144 0.8162
1359.278716 0.8181 0.8199 0.8217 0.8231 0.8240
1364.293936 0.8249 0.8258 0.8267 0.8276 0.8286
1369.309157 0.8293 0.8298 0.8303 0.8307 0.8312
1374.324377 0.8317 0.8321 0.8326 0.8331 0.8336
1379.339597 0.8340 0.8345 0.8348 0.8351 0.8354
1384.354818 0.8357 0.8361 0.8364 0.8367 0.8370
1389.370038 0.8374 0.8377 0.8380 0.8383 0.8385
1394.385258 0.8388 0.8390 0.8392 0.8394 0.8397
1399.400479 0.8399 0.8401 0.8403 0.8405 0.8408
1404.415699 0.8409 0.8427 0.8433 0.8410 0.8411
1409.430920 0.8411 0.8411 0.8411 0.8411 0.8411
1414.446140 0.8409 0.8405 0.8400 0.8396 0.8391
1419.461360 0.8387 0.8382 0.8375 0.8367 0.8359
1424.476581 0.8350 0.8337 0.8318 0.8300 0.8281
1429.491801 0.8248 0.8189 0.8129 0.8072 0.8013
1434.507021 0.7946 0.7854 0.7700 0.7498 0.7296
1439.522242 0.7094 0.6892 0.6690 0.6488 0.6286
1444.537462 0.6084 0.5919 0.5855 0.5855 0.5856
1449.552682 0.5867 0.5893 0.5968 0.6150 0.6381
1454.567903 0.6612 0.6843 0.7074 0.7272 0.7366
1459.583123 0.7383 0.7399 0.7416 0.7443 0.7513
1464.598344 0.7657 0.7814 0.7928 0.7975 0.8014
1469.613564 0.8031 0.8035 0.8026 0.8023 0.8020
1474.628784 0.8016 0.8011 0.8006 0.7999 0.7986
1479.644005 0.7968 0.7951 0.7934 0.7917 0.7900
1484.659225 0.7880 0.7850 0.7817 0.7780 0.7727
1489.674445 0.7670 0.7620 0.7571 0.7505 0.7424
1494.689666 0.7364 0.7303 0.7243 0.7183 0.7124
1499.704886 0.7064 0.7004 0.6944 0.6884 0.6824
1504.720107 0.6764 0.6703 0.6639 0.6559 0.6460
1509.735327 0.6372 0.6311 0.6250 0.6198 0.6154
1514.750547 0.6110 0.6065 0.6010 0.5945 0.5880
1519.765768 0.5820 0.5770 0.5719 0.5669 0.5620
1524.780988 0.5573 0.5526 0.5479 0.5432 0.5374
1529.796208 0.5286 0.5197 0.5109 0.5020 0.4929
1534.811429 0.4837 0.4746 0.4654 0.4560 0.4466
1539.826649 0.4371 0.4283 0.4206 0.4129 0.4052
1544.841869 0.3972 0.3879 0.3786 0.3693 0.3579
1549.857090 0.3335 0.3036 0.2588 0.2519 0.2449
1554.872310 0.2378 0.2302 0.2225 0.2149 0.2076
1559.887531 0.2005 0.1938 0.1894 0.1861 0.1830
1564.902751 0.1813 0.1804 0.1806 0.1809 0.1814
1569.917971 0.1824 0.1840 0.1872 0.1910 0.1963
1574.933192 0.2022 0.2082 0.2142 0.2202 0.2263
1579.948412 0.2337 0.2507 0.2628 0.2797 0.2992
1584.963632 0.3088 0.3234 0.3397 0.3562 0.3726
1589.978853 0.3890 0.4055 0.4219 0.4383 0.4547
1594.994073 0.4712 0.4876 0.5040 0.5199 0.5308
1600.009293 0.5396 0.5425 0.5452 0.5447 0.5446
1605.024514 0.5439 0.5427 0.5403 0.5326 0.5096
1610.039734 0.4865 0.4635 0.4405 0.4175 0.3945
1615.054955 0.3714 0.3484 0.3254 0.3024 0.2794
1620.070175 0.2565 0.2334 0.2104 0.1879 0.1756
1625.085395 0.1685 0.1584 0.1449 0.1367 0.1312
1630.100616 0.1300 0.1293 0.1290 0.1297 0.1308
1635.115836 0.1327 0.1352 0.1388 0.1465 0.1655
1640.131056 0.1852 0.2049 0.2246 0.2443 0.2640
1645.146277 0.2836 0.3033 0.3230 0.3427 0.3624
1650.161497 0.3820 0.3990 0.4097 0.4274 0.4352
1655.176717 0.4407 0.4461 0.4516 0.4571 0.4630
1660.191938 0.4713 0.4796 0.4879 0.4964 0.5076
1665.207158 0.5202 0.5328 0.5442 0.5556 0.5667
1670.222379 0.5744 0.5813 0.5882 0.5950 0.6011
1675.237599 0.6050 0.6090 0.6130 0.6169 0.6209
1680.252819 0.6249 0.6288 0.6327 0.6366 0.6406
1685.268040 0.6445 0.6484 0.6520 0.6555 0.6590
1690.283260 0.6625 0.6669 0.6800 0.7008 0.7071
1695.298480 0.7128 0.7181 0.7234 0.7278 0.7320
1700.313701 0.7363 0.7409 0.7462 0.7514 0.7566
1705.328921 0.7618 0.7670 0.7714 0.7757 0.7801
1710.344142 0.7845 0.7888 0.7932 0.7974 0.8014
1715.359362 0.8052 0.8077 0.8097 0.8117 0.8138
1720.374582 0.8158 0.8179 0.8199 0.8219 0.8233
1725.389803 0.8247 0.8260 0.8274 0.8288 0.8301
1730.405023 0.8311 0.8319 0.8327 0.8335 0.8344
1735.420243 0.8352 0.8361 0.8370 0.8379 0.8388
1740.435464 0.8397 0.8406 0.8415 0.8424 0.8433
1745.450684 0.8442 0.8451 0.8460 0.8469 0.8479
1750.465904 0.8489 0.8498 0.8508 0.8519 0.8528
1755.481125 0.8538 0.8548 0.8558 0.8567 0.8577
1760.496345 0.8586 0.8595 0.8603 0.8611 0.8619
1765.511566 0.8627 0.8635 0.8643 0.8651 0.8659
1770.526786 0.8667 0.8675 0.8683 0.8692 0.8700
1775.542006 0.8707 0.8713 0.8719 0.8724 0.8730
1780.557227 0.8736 0.8741 0.8747 0.8752 0.8758
1785.572447 0.8764 0.8769 0.8775 0.8781 0.8785
1790.587667 0.8788 0.8792 0.8795 0.8799 0.8802
1795.602888 0.8806 0.8809 0.8813 0.8816 0.8819
1800.618108 0.8822 0.8825 0.8828 0.8831 0.8833
1805.633328 0.8836 0.8839 0.8842 0.8845 0.8848
1810.648549 0.8850 0.8852 0.8854 0.8857 0.8859
1815.663769 0.8861 0.8863 0.8865 0.8867 0.8869
1820.678990 0.8871 0.8873 0.8875 0.8877 0.8879
1825.694210 0.8881 0.8882 0.8883 0.8883 0.8884
1830.709430 0.8885 0.8885 0.8886 0.8886 0.8887
1835.724651 0.8888 0.8888 0.8889 0.8889 0.8890
1840.739871 0.8891 0.8891 0.8892 0.8893 0.8894
1845.755091 0.8895 0.8896 0.8897 0.8897 0.8898
1850.770312 0.8899 0.8900 0.8901 0.8902 0.8903
1855.785532 0.8904 0.8905 0.8906 0.8907 0.8908
1860.800752 0.8909 0.8909 0.8910 0.8911 0.8912
1865.815973 0.8913 0.8914 0.8915 0.8916 0.8917
1870.831193 0.8918 0.8919 0.8920 0.8920 0.8921
1875.846414 0.8922 0.8923 0.8922 0.8922 0.8922
1880.861634 0.8922 0.8922 0.8922 0.8922 0.8922
1885.876854 0.8922 0.8922 0.8922 0.8921 0.8921
1890.892075 0.8921 0.8920 0.8920 0.8919 0.8919
1895.907295 0.8919 0.8918 0.8918 0.8917 0.8917
1900.922515 0.8916 0.8916 0.8915 0.8915 0.8914
1905.937736 0.8914 0.8913 0.8913 0.8912 0.8912
1910.952956 0.8911 0.8911 0.8910 0.8910 0.8909
1915.968176 0.8909 0.8908 0.8908 0.8907 0.8907
1920.983397 0.8906 0.8906 0.8905 0.8905 0.8904
1925.998617 0.8904 0.8903 0.8903 0.8902 0.8902
1931.013838 0.8902 0.8902 0.8903 0.8903 0.8903
1936.029058 0.8903 0.8903 0.8903 0.8904 0.8904
1941.044278 0.8904 0.8904 0.8904 0.8904 0.8905
1946.059499 0.8905 0.8905 0.8905 0.8905 0.8905
1951.074719 0.8905 0.8906 0.8906 0.8906 0.8906
1956.089939 0.8906 0.8906 0.8907 0.8907 0.8907
1961.105160 0.8907 0.8907 0.8907 0.8908 0.8908
1966.120380 0.8908 0.8908 0.8908 0.8908 0.8908
1971.135601 0.8908 0.8908 0.8908 0.8908 0.8908
1976.150821 0.8908 0.8908 0.8908 0.8908 0.8908
1981.166041 0.8908 0.8908 0.8908 0.8908 0.8908
1986.181262 0.8907 0.8907 0.8907 0.8907 0.8907
1991.196482 0.8907 0.8907 0.8907 0.8907 0.8907
1996.211702 0.8907 0.8907 0.8907 0.8907 0.8907
2001.226923 0.8907 0.8906 0.8906 0.8906 0.8906
2006.242143 0.8906 0.8906 0.8906 0.8906 0.8906
2011.257363 0.8906 0.8906 0.8906 0.8906 0.8906
2016.272584 0.8906 0.8905 0.8905 0.8905 0.8905
2021.287804 0.8904 0.8904 0.8903 0.8903 0.8902
2026.303025 0.8902 0.8901 0.8901 0.8900 0.8900
2031.318245 0.8899 0.8899 0.8899 0.8898 0.8898
2036.333465 0.8897 0.8897 0.8896 0.8896 0.8895
2041.348686 0.8895 0.8894 0.8894 0.8893 0.8893
2046.363906 0.8892 0.8892 0.8892 0.8892 0.8892
2051.379126 0.8892 0.8892 0.8892 0.8892 0.8892
2056.394347 0.8892 0.8892 0.8892 0.8893 0.8893
2061.409567 0.8893 0.8893 0.8893 0.8893 0.8893
2066.424787 0.8893 0.8893 0.8893 0.8893 0.8893
2071.440008 0.8893 0.8893 0.8894 0.8894 0.8894
2076.455228 0.8894 0.8894 0.8894 0.8894 0.8894
2081.470449 0.8894 0.8894 0.8894 0.8894 0.8894
2086.485669 0.8894 0.8894 0.8895 0.8894 0.8894
2091.500889 0.8894 0.8894 0.8894 0.8894 0.8894
2096.516110 0.8894 0.8894 0.8893 0.8893 0.8893
2101.531330 0.8893 0.8893 0.8893 0.8893 0.8893
2106.546550 0.8893 0.8893 0.8892 0.8892 0.8892
2111.561771 0.8892 0.8892 0.8892 0.8892 0.8892
2116.576991 0.8891 0.8889 0.8888 0.8886 0.8885
2121.592211 0.8883 0.8882 0.8880 0.8879 0.8877
2126.607432 0.8876 0.8874 0.8873 0.8872 0.8872
2131.622652 0.8871 0.8871 0.8871 0.8870 0.8870
2136.637873 0.8870 0.8869 0.8869 0.8869 0.8868
2141.653093 0.8868 0.8868 0.8867 0.8867 0.8867
2146.668313 0.8866 0.8866 0.8866 0.8865 0.8865
2151.683534 0.8865 0.8864 0.8864 0.8864 0.8863
2156.698754 0.8863 0.8863 0.8862 0.8863 0.8864
2161.713974 0.8865 0.8866 0.8867 0.8868 0.8869
2166.729195 0.8870 0.8871 0.8872 0.8873 0.8874
2171.744415 0.8875 0.8876 0.8877 0.8878 0.8880
2176.759635 0.8881 0.8882 0.8882 0.8883 0.8884
2181.774856 0.8885 0.8887 0.8888 0.8889 0.8890
2186.790076 0.8891 0.8892 0.8894 0.8894 0.8895
2191.805297 0.8896 0.8897 0.8898 0.8899 0.8900
2196.820517 0.8901 0.8902 0.8909 0.8910 0.8905
2201.835737 0.8906 0.8907 0.8908 0.8909 0.8909
2206.850958 0.8909 0.8909 0.8908 0.8908 0.8908
2211.866178 0.8907 0.8907 0.8907 0.8906 0.8906
2216.881398 0.8905 0.8905 0.8905 0.8904 0.8904
2221.896619 0.8904 0.8903 0.8903 0.8903 0.8902
2226.911839 0.8901 0.8900 0.8898 0.8897 0.8895
2231.927060 0.8893 0.8892 0.8890 0.8888 0.8887
2236.942280 0.8885 0.8883 0.8882 0.8880 0.8878
2241.957500 0.8877 0.8875 0.8873 0.8872 0.8870
2246.972721 0.8868 0.8867 0.8865 0.8863 0.8862
2251.987941 0.8860 0.8858 0.8857 0.8855 0.8854
2257.003161 0.8852 0.8850 0.8849 0.8850 0.8851
2262.018382 0.8851 0.8852 0.8853 0.8853 0.8854
2267.033602 0.8854 0.8855 0.8856 0.8856 0.8857
2272.048822 0.8857 0.8858 0.8858 0.8859 0.8860
2277.064043 0.8860 0.8861 0.8861 0.8862 0.8862
2282.079263 0.8863 0.8864 0.8864 0.8864 0.8864
2287.094484 0.8864 0.8865 0.8865 0.8865 0.8865
2292.109704 0.8865 0.8865 0.8866 0.8866 0.8866
2297.124924 0.8866 0.8866 0.8866 0.8866 0.8867
2302.140145 0.8867 0.8867 0.8867 0.8867 0.8867
2307.155365 0.8868 0.8868 0.8868 0.8869 0.8871
2312.170585 0.8872 0.8873 0.8874 0.8875 0.8877
2317.185806 0.8878 0.8879 0.8880 0.8881 0.8882
2322.201026 0.8884 0.8885 0.8886 0.8887 0.8888
2327.216246 0.8889 0.8891 0.8892 0.8893 0.8894
2332.231467 0.8895 0.8896 0.8898 0.8898 0.8898
2337.246687 0.8899 0.8899 0.8900 0.8900 0.8901
2342.261908 0.8901 0.8902 0.8902 0.8903 0.8903
2347.277128 0.8902 0.8900 0.8897 0.8895 0.8893
2352.292348 0.8891 0.8889 0.8887 0.8885 0.8883
2357.307569 0.8881 0.8878 0.8876 0.8874 0.8872
2362.322789 0.8870 0.8868 0.8866 0.8864 0.8861
2367.338009 0.8859 0.8860 0.8861 0.8862 0.8863
2372.353230 0.8864 0.8865 0.8866 0.8866 0.8867
2377.368450 0.8868 0.8868 0.8868 0.8869 0.8870
2382.383670 0.8870 0.8871 0.8872 0.8872 0.8873
2387.398891 0.8874 0.8874 0.8875 0.8876 0.8877
2392.414111 0.8877 0.8878 0.8879 0.8880 0.8881
2397.429332 0.8882 0.8883 0.8884 0.8885 0.8886
2402.444552 0.8887 0.8887 0.8887 0.8888 0.8888
2407.459772 0.8888 0.8889 0.8889 0.8889 0.8890
2412.474993 0.8890 0.8890 0.8891 0.8891 0.8891
2417.490213 0.8892 0.8892 0.8892 0.8893 0.8893
2422.505433 0.8893 0.8893 0.8892 0.8892 0.8891
2427.520654 0.8891 0.8890 0.8890 0.8889 0.8889
2432.535874 0.8888 0.8888 0.8887 0.8887 0.8886
2437.551094 0.8886 0.8885 0.8885 0.8884 0.8884
2442.566315 0.8883 0.8883 0.8882 0.8882 0.8882
2447.581535 0.8882 0.8882 0.8882 0.8882 0.8882
2452.596756 0.8882 0.8882 0.8882 0.8882 0.8882
2457.611976 0.8882 0.8882 0.8882 0.8883 0.8883
2462.627196 0.8883 0.8883 0.8883 0.8883 0.8883
2467.642417 0.8883 0.8883 0.8883 0.8882 0.8881
2472.657637 0.8881 0.8880 0.8879 0.8878 0.8877
2477.672857 0.8876 0.8875 0.8874 0.8873 0.8872
2482.688078 0.8871 0.8870 0.8869 0.8869 0.8868
2487.703298 0.8867 0.8866 0.8865 0.8864 0.8863
2492.718519 0.8862 0.8861 0.8860 0.8859 0.8858
2497.733739 0.8858 0.8857 0.8856 0.8856 0.8855
2502.748959 0.8854 0.8853 0.8853 0.8852 0.8851
2507.764180 0.8851 0.8850 0.8849 0.8849 0.8848
2512.779400 0.8847 0.8847 0.8846 0.8845 0.8844
2517.794620 0.8844 0.8843 0.8842 0.8842 0.8841
2522.809841 0.8840 0.8839 0.8839 0.8838 0.8837
2527.825061 0.8836 0.8836 0.8835 0.8834 0.8833
2532.840281 0.8833 0.8832 0.8831 0.8830 0.8830
2537.855502 0.8829 0.8828 0.8828 0.8828 0.8828
2542.870722 0.8828 0.8828 0.8828 0.8828 0.8828
2547.885943 0.8828 0.8828 0.8828 0.8828 0.8828
2552.901163 0.8828 0.8828 0.8828 0.8828 0.8828
2557.916383 0.8828 0.8828 0.8828 0.8828 0.8828
2562.931604 0.8828 0.8827 0.8827 0.8827 0.8827
2567.946824 0.8827 0.8827 0.8826 0.8826 0.8826
2572.962044 0.8826 0.8826 0.8826 0.8826 0.8825
2577.977265 0.8825 0.8825 0.8825 0.8825 0.8825
2582.992485 0.8825 0.8824 0.8824 0.8824 0.8823
2588.007705 0.8823 0.8822 0.8822 0.8821 0.8821
2593.022926 0.8821 0.8820 0.8820 0.8819 0.8819
2598.038146 0.8818 0.8818 0.8817 0.8817 0.8817
2603.053367 0.8816 0.8816 0.8815 0.8815 0.8814
2608.068587 0.8814 0.8814 0.8812 0.8811 0.8809
2613.083807 0.8808 0.8806 0.8805 0.8803 0.8802
2618.099028 0.8800 0.8799 0.8797 0.8796 0.8794
2623.114248 0.8793 0.8791 0.8790 0.8788 0.8787
2628.129468 0.8785 0.8784 0.8783 0.8781 0.8778
2633.144689 0.8773 0.8769 0.8764 0.8759 0.8755
2638.159909 0.8750 0.8746 0.8741 0.8736 0.8729
2643.175129 0.8722 0.8715 0.8707 0.8700 0.8693
2648.190350 0.8686 0.8678 0.8672 0.8670 0.8669
2653.205570 0.8668 0.8667 0.8666 0.8665 0.8664
2658.220791 0.8663 0.8662 0.8661 0.8661 0.8660
2663.236011 0.8659 0.8661 0.8665 0.8668 0.8672
2668.251231 0.8676 0.8680 0.8684 0.8687 0.8691
2673.266452 0.8695 0.8699 0.8703 0.8708 0.8714
2678.281672 0.8720 0.8727 0.8733 0.8738 0.8741
2683.296892 0.8745 0.8749 0.8753 0.8755 0.8758
2688.312113 0.8760 0.8762 0.8765 0.8767 0.8770
2693.327333 0.8772 0.8775 0.8777 0.8779 0.8782
2698.342554 0.8784 0.8787 0.8788 0.8789 0.8790
2703.357774 0.8790 0.8791 0.8792 0.8792 0.8793
2708.372994 0.8793 0.8794 0.8795 0.8795 0.8796
2713.388215 0.8797 0.8797 0.8798 0.8797 0.8796
2718.403435 0.8794 0.8793 0.8792 0.8791 0.8789
2723.418655 0.8788 0.8787 0.8786 0.8784 0.8783
2728.433876 0.8782 0.8781 0.8779 0.8778 0.8777
2733.449096 0.8776 0.8775 0.8774 0.8773 0.8772
2738.464316 0.8772 0.8771 0.8770 0.8769 0.8768
2743.479537 0.8768 0.8767 0.8766 0.8765 0.8764
2748.494757 0.8764 0.8762 0.8759 0.8756 0.8753
2753.509978 0.8750 0.8747 0.8744 0.8741 0.8738
2758.525198 0.8735 0.8732 0.8728 0.8725 0.8718
2763.540418 0.8711 0.8703 0.8693 0.8681 0.8668
2768.555639 0.8656 0.8643 0.8634 0.8632 0.8631
2773.570859 0.8629 0.8627 0.8622 0.8610 0.8598
2778.586079 0.8585 0.8573 0.8559 0.8545 0.8530
2783.601300 0.8516 0.8503 0.8493 0.8482 0.8472
2788.616520 0.8462 0.8452 0.8441 0.8435 0.8431
2793.631740 0.8427 0.8423 0.8419 0.8415 0.8411
2798.646961 0.8407 0.8403 0.8399 0.8395 0.8390
2803.662181 0.8389 0.8388 0.8388 0.8387 0.8387
2808.677402 0.8387 0.8386 0.8386 0.8385 0.8385
2813.692622 0.8385 0.8384 0.8384 0.8383 0.8383
2818.707842 0.8382 0.8382 0.8382 0.8381 0.8378
2823.723063 0.8373 0.8369 0.8364 0.8360 0.8354
2828.738283 0.8344 0.8334 0.8323 0.8313 0.8302
2833.753503 0.8287 0.8273 0.8258 0.8243 0.8225
2838.768724 0.8204 0.8182 0.8156 0.8111 0.8065
2843.783944 0.8020 0.7959 0.7890 0.7818 0.7687
2848.799164 0.7455 0.7223 0.6992 0.6761 0.6530
2853.814385 0.6297 0.6067 0.5844 0.5462 0.5233
2858.829605 0.5051 0.4899 0.4776 0.4686 0.4618
2863.844826 0.4576 0.4557 0.4576 0.4552 0.4584
2868.860046 0.4626 0.4699 0.4879 0.5106 0.5331
2873.875266 0.5557 0.5783 0.6009 0.6235 0.6461
2878.890487 0.6687 0.6912 0.7134 0.7292 0.7408
2883.905707 0.7437 0.7442 0.7440 0.7439 0.7428
2888.920927 0.7416 0.7396 0.7378 0.7360 0.7343
2893.936148 0.7326 0.7308 0.7289 0.7271 0.7251
2898.951368 0.7219 0.7178 0.7138 0.7094 0.7047
2903.966588 0.7000 0.6953 0.6905 0.6848 0.6790
2908.981809 0.6732 0.6674 0.6607 0.6531 0.6455
2913.997029 0.6377 0.6284 0.6176 0.5993 0.5810
2919.012250 0.5628 0.5445 0.5262 0.5080 0.4897
2924.027470 0.4713 0.4537 0.4402 0.4251 0.4121
2929.042690 0.4016 0.3886 0.3570 0.3470 0.3373
2934.057911 0.3304 0.3244 0.3184 0.3124 0.3064
2939.073131 0.3004 0.2944 0.2893 0.2873 0.2858
2944.088351 0.2855 0.2854 0.2849 0.2853 0.2861
2949.103572 0.2873 0.2912 0.3012 0.3185 0.3243
2954.118792 0.3297 0.3352 0.3418 0.3514 0.3686
2959.134013 0.3924 0.4163 0.4401 0.4638 0.4876
2964.149233 0.5114 0.5352 0.5590 0.5828 0.6066
2969.164453 0.6283 0.6377 0.6437 0.6486 0.6535
2974.179674 0.6584 0.6640 0.6741 0.6861 0.7002
2979.194894 0.7135 0.7228 0.7321 0.7412 0.7482
2984.210114 0.7551 0.7619 0.7686 0.7739 0.7792
2989.225335 0.7843 0.7882 0.7913 0.7944 0.7975
2994.240555 0.8004 0.8022 0.8037 0.8047 0.8057
2999.255775 0.8065 0.8073 0.8077 0.8070 0.8083
3004.270996 0.8086 0.8088 0.8090 0.8092 0.8091
3009.286216 0.8088 0.8084 0.8081 0.8078 0.8075
3014.301437 0.8071 0.8068 0.8065 0.8062 0.8058
3019.316657 0.8055 0.8051 0.8046 0.8041 0.8036
3024.331877 0.8031 0.8026 0.8021 0.8016 0.8011
3029.347098 0.8006 0.8001 0.7996 0.7991 0.7986
3034.362318 0.7981 0.7977 0.7973 0.7969 0.7965
3039.377538 0.7962 0.7958 0.7954 0.7951 0.7947
3044.392759 0.7943 0.7940 0.7936 0.7932 0.7927
3049.407979 0.7922 0.7918 0.7913 0.7908 0.7904
3054.423199 0.7899 0.7894 0.7890 0.7887 0.7884
3059.438420 0.7882 0.7879 0.7876 0.7874 0.7871
3064.453640 0.7868 0.7866 0.7863 0.7861 0.7858
3069.468861 0.7855 0.7853 0.7853 0.7854 0.7854
3074.484081 0.7855 0.7856 0.7857 0.7858 0.7859
3079.499301 0.7860 0.7861 0.7862 0.7863 0.7864
3084.514522 0.7867 0.7870 0.7872 0.7875 0.7878
3089.529742 0.7880 0.7883 0.7886 0.7888 0.7890
3094.544962 0.7892 0.7892 0.7891 0.7891 0.7890
3099.560183 0.7890 0.7888 0.7878 0.7866 0.7855
3104.575403 0.7843 0.7831 0.7820 0.7808 0.7796
3109.590623 0.7784 0.7772 0.7760 0.7748 0.7739
3114.605844 0.7730 0.7721 0.7712 0.7703 0.7696
3119.621064 0.7695 0.7694 0.7693 0.7692 0.7691
3124.636285 0.7690 0.7691 0.7694 0.7697 0.7700
3129.651505 0.7703 0.7706 0.7708 0.7713 0.7719
3134.666725 0.7725 0.7730 0.7736 0.7741 0.7747
3139.681946 0.7753 0.7758 0.7763 0.7767 0.7771
3144.697166 0.7776 0.7780 0.7784 0.7788 0.7791
3149.712386 0.7795 0.7798 0.7802 0.7805 0.7809
3154.727607 0.7812 0.7816 0.7819 0.7822 0.7823
3159.742827 0.7823 0.7824 0.7825 0.7825 0.7826
3164.758047 0.7826 0.7825 0.7822 0.7818 0.7815
3169.773268 0.7812 0.7808 0.7805 0.7801 0.7793
3174.788488 0.7784 0.7776 0.7768 0.7760 0.7753
3179.803709 0.7745 0.7737 0.7729 0.7721 0.7712
3184.818929 0.7702 0.7693 0.7684 0.7675 0.7665
3189.834149 0.7656 0.7647 0.7638 0.7629 0.7619
3194.849370 0.7610 0.7601 0.7592 0.7582 0.7573
3199.864590 0.7564 0.7554 0.7545 0.7535 0.7526
3204.879810 0.7516 0.7507 0.7497 0.7488 0.7478
3209.895031 0.7469 0.7460 0.7449 0.7437 0.7425
3214.910251 0.7414 0.7402 0.7390 0.7378 0.7367
3219.925472 0.7355 0.7343 0.7332 0.7320 0.7306
3224.940692 0.7290 0.7271 0.7252 0.7234 0.7215
3229.955912 0.7193 0.7170 0.7147 0.7123 0.7100
3234.971133 0.7077 0.7053 0.7030 0.7007 0.6984
3239.986353 0.6958 0.6929 0.6900 0.6871 0.6841
3245.001573 0.6812 0.6782 0.6753 0.6722 0.6688
3250.016794 0.6654 0.6620 0.6586 0.6552 0.6518
3255.032014 0.6484 0.6450 0.6416 0.6381 0.6345
3260.047234 0.6308 0.6272 0.6236 0.6200 0.6163
3265.062455 0.6127 0.6091 0.6055 0.6016 0.5972
3270.077675 0.5923 0.5874 0.5824 0.5775 0.5726
3275.092896 0.5677 0.5629 0.5584 0.5541 0.5499
3280.108116 0.5456 0.5414 0.5372 0.5332 0.5295
3285.123336 0.5259 0.5222 0.5185 0.5148 0.5111
3290.138557 0.5075 0.5038 0.5000 0.4962 0.4924
3295.153777 0.4885 0.4847 0.4809 0.4770 0.4732
3300.168997 0.4694 0.4661 0.4635 0.4609 0.4584
3305.184218 0.4558 0.4532 0.4506 0.4483 0.4466
3310.199438 0.4452 0.4439 0.4426 0.4413 0.4400
3315.214658 0.4387 0.4374 0.4361 0.4348 0.4336
3320.229879 0.4324 0.4313 0.4302 0.4291 0.4281
3325.245099 0.4273 0.4268 0.4262 0.4256 0.4249
3330.260320 0.4243 0.4241 0.4241 0.4242 0.4244
3335.275540 0.4247 0.4253 0.4259 0.4265 0.4271
3340.290760 0.4280 0.4293 0.4307 0.4321 0.4337
3345.305981 0.4354 0.4371 0.4388 0.4407 0.4429
3350.321201 0.4450 0.4472 0.4493 0.4514 0.4536
3355.336421 0.4560 0.4589 0.4617 0.4645 0.4674
3360.351642 0.4702 0.4732 0.4762 0.4792 0.4822
3365.366862 0.4854 0.4891 0.4930 0.4968 0.5007
3370.382082 0.5046 0.5084 0.5123 0.5159 0.5195
3375.397303 0.5232 0.5268 0.5304 0.5343 0.5396
3380.412523 0.5460 0.5524 0.5589 0.5653 0.5719
3385.427744 0.5786 0.5854 0.5910 0.5954 0.5999
3390.442964 0.6044 0.6088 0.6129 0.6165 0.6200
3395.458184 0.6235 0.6271 0.6306 0.6339 0.6366
3400.473405 0.6390 0.6413 0.6436 0.6459 0.6482
3405.488625 0.6506 0.6531 0.6562 0.6597 0.6632
3410.503845 0.6668 0.6699 0.6727 0.6754 0.6782
3415.519066 0.6809 0.6836 0.6863 0.6890 0.6917
3420.534286 0.6944 0.6967 0.6988 0.7008 0.7029
3425.549506 0.7049 0.7070 0.7090 0.7111 0.7131
3430.564727 0.7152 0.7172 0.7189 0.7203 0.7217
3435.579947 0.7232 0.7246 0.7260 0.7274 0.7288
3440.595168 0.7302 0.7317 0.7330 0.7341 0.7350
3445.610388 0.7359 0.7368 0.7377 0.7386 0.7395
3450.625608 0.7403 0.7411 0.7417 0.7424 0.7431
3455.640829 0.7437 0.7444 0.7450 0.7457 0.7464
3460.656049 0.7470 0.7477 0.7484 0.7493 0.7503
3465.671269 0.7514 0.7525 0.7535 0.7545 0.7556
3470.686490 0.7566 0.7576 0.7587 0.7597 0.7607
3475.701710 0.7615 0.7623 0.7632 0.7640 0.7648
3480.716931 0.7657 0.7663 0.7669 0.7674 0.7679
3485.732151 0.7683 0.7688 0.7693 0.7698 0.7704
3490.747371 0.7710 0.7715 0.7721 0.7726 0.7732
3495.762592 0.7738 0.7743 0.7749 0.7755 0.7760
3500.777812 0.7766 0.7770 0.7774 0.7778 0.7782
3505.793032 0.7786 0.7790 0.7794 0.7798 0.7802
3510.808253 0.7806 0.7810 0.7814 0.7818 0.7823
3515.823473 0.7829 0.7834 0.7839 0.7845 0.7850
3520.838693 0.7856 0.7861 0.7866 0.7872 0.7877
3525.853914 0.7883 0.7888 0.7893 0.7899 0.7904
3530.869134 0.7910 0.7915 0.7920 0.7926 0.7931
3535.884355 0.7936 0.7941 0.7946 0.7951 0.7956
3540.899575 0.7961 0.7966 0.7971 0.7976 0.7981
3545.914795 0.7986 0.7992 0.7997 0.8002 0.8007
3550.930016 0.8012 0.8017 0.8022 0.8027 0.8032
3555.945236 0.8037 0.8042 0.8047 0.8052 0.8057
3560.960456 0.8061 0.8066 0.8071 0.8075 0.8080
3565.975677 0.8085 0.8090 0.8094 0.8099 0.8104
3570.990897 0.8108 0.8113 0.8118 0.8124 0.8129
3576.006117 0.8135 0.8140 0.8145 0.8151 0.8156
3581.021338 0.8162 0.8167 0.8172 0.8178 0.8183
3586.036558 0.8188 0.8194 0.8199 0.8205 0.8210
3591.051779 0.8215 0.8221 0.8226 0.8232 0.8237
3596.066999 0.8242 0.8248 0.8253 0.8259 0.8264
3601.082219 0.8269 0.8275 0.8280 0.8284 0.8289
3606.097440 0.8294 0.8298 0.8303 0.8308 0.8312
3611.112660 0.8317 0.8322 0.8326 0.8331 0.8336
3616.127880 0.8340 0.8345 0.8350 0.8354 0.8359
3621.143101 0.8364 0.8368 0.8373 0.8378 0.8382
3626.158321 0.8387 0.8392 0.8396 0.8401 0.8406
3631.173541 0.8411 0.8416 0.8421 0.8426 0.8430
3636.188762 0.8435 0.8440 0.8445 0.8450 0.8455
3641.203982 0.8460 0.8465 0.8470 0.8475 0.8480
3646.219203 0.8485 0.8489 0.8495 0.8499 0.8505
3651.234423 0.8510 0.8515 0.8520 0.8525 0.8530
3656.249643 0.8535 0.8540 0.8545 0.8549 0.8554
3661.264864 0.8559 0.8561 0.8563 0.8566 0.8568
3666.280084 0.8570 0.8573 0.8575 0.8577 0.8580
3671.295304 0.8582 0.8584 0.8587 0.8589 0.8591
3676.310525 0.8594 0.8596 0.8599 0.8601 0.8603
3681.325745 0.8606 0.8608 0.8610 0.8613 0.8615
3686.340966 0.8617 0.8620 0.8622 0.8624 0.8626
3691.356186 0.8628 0.8629 0.8631 0.8632 0.8634
3696.371406 0.8635 0.8637 0.8638 0.8640 0.8641
3701.386627 0.8643 0.8644 0.8646 0.8647 0.8649
3706.401847 0.8650 0.8652 0.8653 0.8656 0.8659
3711.417067 0.8662 0.8665 0.8668 0.8671 0.8674
3716.432288 0.8677 0.8680 0.8683 0.8686 0.8689
3721.447508 0.8693 0.8696 0.8699 0.8702 0.8705
3726.462728 0.8708 0.8711 0.8714 0.8716 0.8716
3731.477949 0.8716 0.8716 0.8716 0.8716 0.8716
3736.493169 0.8717 0.8702 0.8713 0.8717 0.8717
3741.508390 0.8717 0.8718 0.8718 0.8718 0.8718
3746.523610 0.8718 0.8718 0.8719 0.8719 0.8719
3751.538830 0.8719 0.8719 0.8718 0.8717 0.8717
3756.554051 0.8716 0.8715 0.8715 0.8714 0.8714
3761.569271 0.8713 0.8712 0.8712 0.8711 0.8710
3766.584491 0.8710 0.8709 0.8709 0.8708 0.8707
3771.599712 0.8707 0.8706 0.8705 0.8705 0.8705
3776.614932 0.8705 0.8705 0.8705 0.8705 0.8705
3781.630152 0.8705 0.8705 0.8705 0.8705 0.8705
3786.645373 0.8705 0.8705 0.8705 0.8705 0.8706
3791.660593 0.8706 0.8706 0.8706 0.8706 0.8706
3796.675814 0.8706 0.8706 0.8706 0.8706 0.8706
3801.691034 0.8706 0.8706 0.8706 0.8706 0.8706
3806.706254 0.8706 0.8707 0.8707 0.8707 0.8707
3811.721475 0.8707 0.8707 0.8706 0.8706 0.8705
3816.736695 0.8705 0.8704 0.8703 0.8703 0.8702
3821.751915 0.8702 0.8701 0.8701 0.8700 0.8700
3826.767136 0.8699 0.8699 0.8698 0.8698 0.8697
3831.782356 0.8697 0.8696 0.8695 0.8695 0.8694
3836.797576 0.8694 0.8693 0.8693 0.8692 0.8692
3841.812797 0.8691 0.8691 0.8690 0.8690 0.8689
3846.828017 0.8689 0.8688 0.8687 0.8686 0.8685
3851.843238 0.8683 0.8682 0.8680 0.8679 0.8677
3856.858458 0.8676 0.8674 0.8672 0.8671 0.8669
3861.873678 0.8668 0.8666 0.8665 0.8663 0.8662
3866.888899 0.8660 0.8658 0.8657 0.8655 0.8654
3871.904119 0.8652 0.8651 0.8649 0.8648 0.8647
3876.919339 0.8645 0.8644 0.8643 0.8642 0.8641
3881.934560 0.8640 0.8639 0.8638 0.8637 0.8636
3886.949780 0.8635 0.8634 0.8633 0.8632 0.8632
3891.965000 0.8633 0.8634 0.8634 0.8635 0.8636
3896.980221 0.8636 0.8637 0.8638 0.8638 0.8639
3901.995441 0.8640 0.8640 0.8641 0.8641 0.8642
3907.010662 0.8643 0.8643 0.8644 0.8645 0.8645
3912.025882 0.8646 0.8646 0.8646 0.8646 0.8646
3917.041102 0.8646 0.8646 0.8646 0.8646 0.8646
3922.056323 0.8646 0.8646 0.8646 0.8646 0.8646
3927.071543 0.8646 0.8646 0.8646 0.8646 0.8646
3932.086763 0.8646 0.8645 0.8644 0.8644 0.8643
3937.101984 0.8642 0.8642 0.8641 0.8640 0.8640
3942.117204 0.8639 0.8638 0.8638 0.8637 0.8636
3947.132425 0.8636 0.8635 0.8634 0.8634 0.8633
3952.147645 0.8632 0.8632 0.8631 0.8630 0.8630
3957.162865 0.8629 0.8629 0.8628 0.8627 0.8627
3962.178086 0.8626 0.8625 0.8624 0.8623 0.8622
3967.193306 0.8621 0.8620 0.8619 0.8617 0.8616
3972.208526 0.8615 0.8614 0.8613 0.8612 0.8611
3977.223747 0.8610 0.8608 0.8607 0.8606 0.8605
3982.238967 0.8604 0.8603 0.8602 0.8601 0.8599
3987.254187 0.8598 0.8597 0.8596 0.8595 0.8594
3992.269408 0.8593 0.8593 0.8593 0.8593 0.8593
3997.284628 0.8593 0.8593 0.8593 0.8593 0.8593
4002.299849 0.8593 0.8593 0.8593 0.8593 0.8593
4007.315069 0.8593 0.8593 0.8593 0.8593 0.8593
4012.330289 0.8593
##END=
