##TITLE=1,1'-FERROCENE DICARBOXYLIC ACID, DIETHYL ESTER
##JCAMP-DX=4.24
##DATA TYPE=INFRARED SPECTRUM
##CLASS=COBLENTZ
##ORIGIN=WYANDOTTE CHEMICALS CORP., WYANDOTTE, MICHIGAN, USA
##OWNER=COBLENTZ SOCIETY
Collection (C) 2018 copyright by the U.S. Secretary of Commerce
on behalf of the United States of America. All rights reserved.
##DATE=Not specified, most likely prior to 1970
##MOLFORM=C16 H18 Fe O4
##MP=41.5-42 C
##SOURCE REFERENCE=COBLENTZ NO. 3009
##$NIST ID=B6003009
##$NIST SOURCE=COBLENTZ
##$NIST IMAGE=cob3009
##SPECTROMETER/DATA SYSTEM=Not specified, most likely a prism, grating, or hybrid spectrometer.
##STATE=SOLID (MINERAL OIL MULL)
##PATH LENGTH=
$$SPECTRAL CONTAMINATION DUE TO OIL AROUND 2900 CM^-^1
##SAMPLING PROCEDURE=TRANSMISSION
##RESOLUTION=4
##DATA PROCESSING=DIGITIZED BY NIST FROM HARD COPY
##XUNITS=MICROMETERS
##YUNITS=TRANSMITTANCE
##XFACTOR=1.000000
##YFACTOR=1
##DELTAX=000.006793
##FIRSTX=2.034
##LASTX=15.9998
##FIRSTY=0.752
##MAXX=15.9998
##MINX=2.034
##MAXY=0.969
##MINY=0.034
##NPOINTS=2057
##XYDATA=(X++(Y..Y))
2.034000 0.7520 0.7520 0.7520 0.7540 0.7560
2.067981 0.7590 0.7590 0.7590 0.7610 0.7610
2.102000 0.7610 0.7610 0.7610 0.7610 0.7610
2.135981 0.7610 0.7610 0.7610 0.7610 0.7590
2.170000 0.7580 0.7580 0.7560 0.7540 0.7520
2.203981 0.7520 0.7520 0.7540 0.7560 0.7580
2.238000 0.7580 0.7590 0.7630 0.7640 0.7660
2.271981 0.7700 0.7700 0.7700 0.7700 0.7700
2.306000 0.7700 0.7680 0.7680 0.7700 0.7700
2.339981 0.7730 0.7750 0.7750 0.7730 0.7750
2.374000 0.7760 0.7800 0.7800 0.7810 0.7810
2.407981 0.7780 0.7780 0.7780 0.7780 0.7800
2.442000 0.7800 0.7810 0.7830 0.7830 0.7810
2.475981 0.7800 0.7760 0.7730 0.7760 0.7800
2.509000 0.7830 0.7870 0.7900 0.7950 0.8000
2.542981 0.8040 0.8090 0.8100 0.8140 0.8160
2.577000 0.8160 0.8140 0.8000 0.7970 0.8000
2.610981 0.8100 0.8160 0.8190 0.8220 0.8220
2.645000 0.8240 0.8220 0.8220 0.8220 0.8240
2.678981 0.8240 0.8260 0.8260 0.8260 0.8240
2.713000 0.8220 0.8210 0.8210 0.8220 0.8240
2.746981 0.8240 0.8260 0.8260 0.8260 0.8260
2.781000 0.8240 0.8220 0.8160 0.8100 0.8100
2.814981 0.8090 0.8090 0.8090 0.8050 0.8040
2.849000 0.8020 0.8000 0.8000 0.7980 0.7980
2.882981 0.7930 0.7920 0.7900 0.7920 0.7930
2.917000 0.7930 0.7920 0.7880 0.7810 0.7760
2.950981 0.7660 0.7610 0.7610 0.7630 0.7700
2.985000 0.7750 0.7800 0.7810 0.7810 0.7760
3.018981 0.7760 0.7760 0.7760 0.7760 0.7780
3.053000 0.7800 0.7800 0.7800 0.7800 0.7750
3.086981 0.7730 0.7710 0.7710 0.7710 0.7710
3.121000 0.7700 0.7680 0.7630 0.7560 0.7510
3.154981 0.7490 0.7460 0.7440 0.7420 0.7390
3.189000 0.7300 0.7170 0.6960 0.6500 0.6160
3.222981 0.6160 0.6320 0.6720 0.7030 0.7180
3.257000 0.7270 0.7290 0.7290 0.7220 0.7050
3.290981 0.6860 0.6470 0.5720 0.5310 0.4900
3.325000 0.3910 0.3200 0.2870 0.2550 0.2210
3.358981 0.1920 0.1750 0.1650 0.1510 0.1480
3.393000 0.1480 0.1490 0.1700 0.1940 0.2060
3.426981 0.2330 0.2650 0.2910 0.3210 0.3470
3.460000 0.3610 0.3620 0.3610 0.3470 0.3440
3.493981 0.3440 0.3500 0.3960 0.4370 0.4970
3.528000 0.6570 0.7350 0.7850 0.8160 0.8290
3.561981 0.8380 0.8460 0.8530 0.8560 0.8630
3.596000 0.8700 0.8770 0.8790 0.8790 0.8750
3.629981 0.8750 0.8730 0.8720 0.8730 0.8730
3.664000 0.8720 0.8720 0.8680 0.8680 0.8720
3.697981 0.8800 0.8820 0.8840 0.8840 0.8870
3.732000 0.8870 0.8890 0.8890 0.8890 0.8890
3.765981 0.8900 0.8900 0.8900 0.8920 0.8920
3.800000 0.8920 0.8940 0.8960 0.8960 0.8960
3.833981 0.8970 0.8970 0.9010 0.9020 0.9040
3.868000 0.9040 0.9080 0.9080 0.9090 0.9090
3.901981 0.9110 0.9110 0.9110 0.9110 0.9110
3.936000 0.9090 0.9090 0.9090 0.9110 0.9110
3.969981 0.9110 0.9130 0.9130 0.9140 0.9140
4.004000 0.9140 0.9140 0.9130 0.9110 0.9110
4.037981 0.9110 0.9090 0.9090 0.9090 0.9090
4.072000 0.9110 0.9140 0.9140 0.9130 0.9110
4.105981 0.9090 0.9090 0.9090 0.9090 0.9090
4.140000 0.9090 0.9090 0.9080 0.9080 0.9020
4.173981 0.9020 0.9020 0.9020 0.9020 0.9040
4.208000 0.9060 0.9060 0.9060 0.9060 0.9060
4.241981 0.9060 0.9060 0.9060 0.9090 0.9110
4.276000 0.9110 0.9140 0.9180 0.9230 0.9230
4.309981 0.9190 0.9190 0.9190 0.9250 0.9300
4.344000 0.9330 0.9380 0.9420 0.9430 0.9500
4.377981 0.9500 0.9500 0.9470 0.9430 0.9400
4.411000 0.9360 0.9310 0.9260 0.9230 0.9230
4.444981 0.9230 0.9250 0.9260 0.9260 0.9260
4.479000 0.9280 0.9300 0.9300 0.9300 0.9300
4.512981 0.9300 0.9300 0.9300 0.9310 0.9330
4.547000 0.9350 0.9350 0.9350 0.9350 0.9350
4.580981 0.9330 0.9380 0.9420 0.9430 0.9450
4.615000 0.9470 0.9470 0.9470 0.9480 0.9480
4.648981 0.9500 0.9500 0.9500 0.9500 0.9500
4.683000 0.9500 0.9500 0.9500 0.9500 0.9500
4.716981 0.9480 0.9480 0.9470 0.9470 0.9480
4.751000 0.9520 0.9540 0.9540 0.9590 0.9600
4.784981 0.9620 0.9620 0.9600 0.9600 0.9590
4.819000 0.9590 0.9590 0.9590 0.9590 0.9590
4.852981 0.9590 0.9590 0.9590 0.9590 0.9570
4.887000 0.9520 0.9520 0.9520 0.9520 0.9520
4.920981 0.9520 0.9520 0.9520 0.9520 0.9520
4.955000 0.9520 0.9520 0.9520 0.9570 0.9570
4.988981 0.9570 0.9570 0.9550 0.9500 0.9450
5.023000 0.9420 0.9430 0.9450 0.9450 0.9450
5.056981 0.9430 0.9450 0.9480 0.9500 0.9520
5.091000 0.9520 0.9540 0.9540 0.9570 0.9590
5.124981 0.9600 0.9600 0.9620 0.9640 0.9650
5.159000 0.9650 0.9650 0.9650 0.9670 0.9670
5.192981 0.9670 0.9670 0.9670 0.9690 0.9690
5.227000 0.9690 0.9670 0.9670 0.9670 0.9650
5.260981 0.9650 0.9640 0.9600 0.9570 0.9550
5.295000 0.9540 0.9540 0.9540 0.9540 0.9540
5.328981 0.9540 0.9540 0.9540 0.9550 0.9550
5.362000 0.9570 0.9570 0.9570 0.9590 0.9600
5.395981 0.9620 0.9620 0.9620 0.9620 0.9590
5.430000 0.9500 0.9480 0.9500 0.9500 0.9500
5.463981 0.9450 0.9400 0.9360 0.9310 0.9330
5.498000 0.9330 0.9280 0.9230 0.9180 0.9130
5.531981 0.9090 0.9040 0.9040 0.9010 0.8990
5.566000 0.8960 0.8890 0.8850 0.8840 0.8820
5.599981 0.8770 0.8650 0.8510 0.8480 0.8390
5.634000 0.8340 0.8310 0.8270 0.8220 0.8120
5.667981 0.8000 0.7920 0.7880 0.7810 0.7730
5.702000 0.7580 0.7420 0.7220 0.6980 0.6670
5.735981 0.6250 0.5680 0.5330 0.4970 0.4070
5.770000 0.2930 0.1870 0.1720 0.1440 0.1190
5.803981 0.1030 0.0830 0.0710 0.0590 0.0570
5.838000 0.0610 0.0660 0.0760 0.0910 0.1170
5.871981 0.1580 0.2020 0.2450 0.2770 0.3100
5.906000 0.3320 0.3590 0.3910 0.4170 0.4530
5.939981 0.4820 0.5240 0.5330 0.5400 0.5510
5.974000 0.5670 0.5860 0.6060 0.6260 0.6430
6.007981 0.6570 0.6660 0.6710 0.6840 0.7000
6.042000 0.7170 0.7320 0.7410 0.7470 0.7560
6.075981 0.7630 0.7730 0.7800 0.7810 0.7830
6.110000 0.7830 0.7850 0.7880 0.7900 0.7930
6.143981 0.7980 0.8000 0.7980 0.8000 0.8020
6.178000 0.8070 0.8100 0.8170 0.8240 0.8270
6.211981 0.8290 0.8310 0.8330 0.8380 0.8440
6.246000 0.8500 0.8530 0.8550 0.8560 0.8530
6.279981 0.8550 0.8600 0.8630 0.8680 0.8720
6.313000 0.8750 0.8750 0.8730 0.8630 0.8560
6.346981 0.8510 0.8480 0.8440 0.8440 0.8440
6.381000 0.8430 0.8430 0.8430 0.8410 0.8360
6.414981 0.8330 0.8330 0.8330 0.8330 0.8340
6.449000 0.8380 0.8380 0.8430 0.8500 0.8500
6.482981 0.8500 0.8500 0.8440 0.8430 0.8410
6.517000 0.8410 0.8390 0.8390 0.8410 0.8410
6.550981 0.8440 0.8460 0.8500 0.8500 0.8500
6.585000 0.8500 0.8480 0.8430 0.8410 0.8380
6.618981 0.8330 0.8270 0.8210 0.8120 0.8040
6.653000 0.7920 0.7760 0.7610 0.7370 0.6740
6.686981 0.5970 0.5260 0.4820 0.4370 0.3780
6.721000 0.3390 0.3110 0.3100 0.3110 0.3130
6.754981 0.3330 0.3330 0.3300 0.3100 0.2940
6.789000 0.2720 0.2430 0.2410 0.2410 0.2430
6.822981 0.2550 0.2670 0.2870 0.3110 0.3420
6.857000 0.3730 0.4030 0.4310 0.4540 0.4700
6.890981 0.4770 0.4820 0.4920 0.5210 0.5510
6.925000 0.5860 0.6200 0.6570 0.6890 0.7100
6.958981 0.7290 0.7490 0.7610 0.7680 0.7710
6.993000 0.7780 0.7800 0.7780 0.7760 0.7750
7.026981 0.7750 0.7750 0.7750 0.7750 0.7780
7.061000 0.7780 0.7730 0.7660 0.7520 0.7340
7.094981 0.7050 0.6620 0.6320 0.5920 0.5570
7.129000 0.5210 0.5170 0.5190 0.5220 0.5430
7.162981 0.5500 0.5500 0.5500 0.5050 0.4610
7.197000 0.4290 0.4030 0.3320 0.2620 0.2330
7.230981 0.2060 0.2060 0.2180 0.2290 0.2380
7.264000 0.3060 0.3400 0.3660 0.3960 0.4370
7.297981 0.4770 0.5600 0.5970 0.6330 0.6620
7.332000 0.6880 0.7060 0.7180 0.7290 0.7390
7.365981 0.7460 0.7490 0.7490 0.7490 0.7490
7.400000 0.7410 0.7420 0.7580 0.7680 0.7870
7.433981 0.7970 0.8040 0.8070 0.8160 0.8270
7.468000 0.8290 0.8310 0.8330 0.8330 0.8310
7.501981 0.8290 0.8270 0.8260 0.8240 0.8210
7.536000 0.8140 0.8070 0.8020 0.7980 0.7920
7.569981 0.7830 0.7750 0.7630 0.7470 0.7320
7.604000 0.7130 0.6930 0.6720 0.6520 0.6320
7.637981 0.6130 0.5920 0.5700 0.5480 0.5260
7.672000 0.5120 0.4990 0.4780 0.4490 0.4150
7.705981 0.3740 0.3300 0.2820 0.2360 0.1900
7.740000 0.1440 0.1020 0.0740 0.0560 0.0450
7.773981 0.0370 0.0350 0.0340 0.0340 0.0340
7.808000 0.0340 0.0340 0.0350 0.0390 0.0450
7.841981 0.0560 0.0640 0.0760 0.0930 0.1150
7.876000 0.1440 0.1770 0.2010 0.2310 0.2670
7.909981 0.3080 0.3470 0.3860 0.4240 0.4560
7.944000 0.4800 0.5400 0.5600 0.5820 0.5970
7.977981 0.6110 0.6230 0.6350 0.6490 0.6660
8.012000 0.6860 0.6930 0.6980 0.7060 0.7130
8.045981 0.7220 0.7300 0.7370 0.7470 0.7540
8.080000 0.7590 0.7630 0.7680 0.7730 0.7750
8.113981 0.7800 0.7830 0.7870 0.7880 0.7900
8.148000 0.7880 0.7710 0.7540 0.7410 0.7370
8.181981 0.7370 0.7440 0.7640 0.7750 0.7800
8.215000 0.7830 0.7810 0.7830 0.7880 0.7900
8.248981 0.7930 0.8000 0.8090 0.8190 0.8220
8.283000 0.8240 0.8260 0.8260 0.8240 0.8220
8.316981 0.8210 0.8190 0.8140 0.8050 0.7950
8.351000 0.7800 0.7630 0.7390 0.7150 0.7050
8.384981 0.6980 0.6930 0.6880 0.6860 0.6880
8.419000 0.6910 0.7000 0.7000 0.7010 0.7000
8.452981 0.6830 0.6670 0.6490 0.6280 0.6080
8.487000 0.5860 0.5630 0.5400 0.5140 0.5020
8.520981 0.4900 0.4650 0.4410 0.4150 0.3910
8.555000 0.3670 0.3450 0.3230 0.3010 0.2810
8.588981 0.2570 0.2360 0.2280 0.2190 0.2070
8.623000 0.1940 0.1770 0.1630 0.1460 0.1310
8.656981 0.1150 0.1030 0.0930 0.0780 0.0690
8.691000 0.0610 0.0540 0.0520 0.0520 0.0520
8.724981 0.0520 0.0560 0.0590 0.0640 0.0710
8.759000 0.0810 0.0950 0.1070 0.1200 0.1430
8.792981 0.1680 0.2020 0.2410 0.2640 0.2940
8.827000 0.3300 0.3660 0.4000 0.4240 0.4510
8.860981 0.4710 0.4950 0.5310 0.5480 0.5600
8.895000 0.5790 0.5870 0.5910 0.5970 0.6010
8.928981 0.6010 0.6030 0.6010 0.6030 0.6090
8.963000 0.6200 0.6330 0.6470 0.6600 0.6780
8.996981 0.6950 0.7080 0.7220 0.7340 0.7420
9.031000 0.7470 0.7520 0.7540 0.7580 0.7590
9.064981 0.7610 0.7630 0.7700 0.7730 0.7800
9.098000 0.7830 0.7900 0.7930 0.7950 0.7970
9.131981 0.7970 0.7970 0.7970 0.7980 0.7980
9.166000 0.8020 0.8040 0.8040 0.8070 0.8070
9.199981 0.8100 0.8140 0.8160 0.8160 0.8170
9.234000 0.8160 0.8140 0.8100 0.8040 0.7970
9.267981 0.7870 0.7800 0.7710 0.7660 0.7630
9.302000 0.7630 0.7700 0.7850 0.7970 0.8040
9.335981 0.8120 0.8160 0.8160 0.8160 0.8140
9.370000 0.8120 0.8100 0.8090 0.8040 0.8000
9.403981 0.8020 0.8050 0.8100 0.8120 0.8140
9.438000 0.8170 0.8170 0.8100 0.8020 0.7970
9.471981 0.7830 0.7760 0.7580 0.7320 0.7100
9.506000 0.6690 0.6210 0.5800 0.5460 0.5210
9.539981 0.5110 0.4990 0.4820 0.4700 0.4580
9.574000 0.4480 0.4410 0.4370 0.4340 0.4240
9.607981 0.4070 0.3880 0.3670 0.3490 0.3320
9.642000 0.3160 0.3040 0.2910 0.2690 0.2430
9.675981 0.2280 0.2280 0.2290 0.2380 0.2570
9.710000 0.2720 0.3010 0.3400 0.3710 0.3980
9.743981 0.4170 0.4360 0.4420 0.4440 0.4420
9.778000 0.4310 0.4050 0.3830 0.3670 0.3500
9.811981 0.3440 0.3330 0.3370 0.3540 0.3670
9.846000 0.3910 0.4100 0.4410 0.4650 0.4900
9.879981 0.5360 0.5580 0.5770 0.5960 0.6180
9.914000 0.6370 0.6540 0.6670 0.6830 0.6950
9.947981 0.7060 0.7180 0.7290 0.7370 0.7460
9.982000 0.7520 0.7610 0.7680 0.7750 0.7800
10.015981 0.7870 0.7900 0.7950 0.7980 0.8020
10.049000 0.8040 0.8040 0.8070 0.8120 0.8140
10.082981 0.8190 0.8210 0.8220 0.8240 0.8260
10.117000 0.8270 0.8290 0.8290 0.8310 0.8340
10.150981 0.8360 0.8390 0.8410 0.8410 0.8430
10.185000 0.8440 0.8480 0.8500 0.8500 0.8500
10.218981 0.8500 0.8500 0.8500 0.8510 0.8530
10.253000 0.8550 0.8550 0.8560 0.8560 0.8560
10.286981 0.8550 0.8560 0.8580 0.8600 0.8600
10.321000 0.8620 0.8630 0.8670 0.8670 0.8680
10.354981 0.8680 0.8700 0.8720 0.8720 0.8720
10.389000 0.8730 0.8730 0.8730 0.8750 0.8750
10.422981 0.8770 0.8770 0.8770 0.8770 0.8770
10.457000 0.8790 0.8800 0.8800 0.8800 0.8790
10.490981 0.8770 0.8770 0.8750 0.8770 0.8790
10.525000 0.8790 0.8800 0.8820 0.8800 0.8800
10.558981 0.8800 0.8790 0.8790 0.8790 0.8800
10.593000 0.8800 0.8800 0.8790 0.8750 0.8750
10.626981 0.8730 0.8720 0.8700 0.8670 0.8600
10.661000 0.8530 0.8500 0.8410 0.8390 0.8290
10.694981 0.8170 0.8040 0.7900 0.7730 0.7510
10.729000 0.7220 0.6880 0.6430 0.6010 0.5650
10.762981 0.5360 0.5050 0.4940 0.4820 0.4610
10.797000 0.4420 0.4200 0.4170 0.4170 0.4200
10.830981 0.4390 0.4580 0.4780 0.5260 0.5530
10.865000 0.5790 0.6040 0.6280 0.6520 0.6720
10.898981 0.6890 0.7030 0.7200 0.7320 0.7440
10.933000 0.7540 0.7640 0.7710 0.7800 0.7880
10.966981 0.7930 0.7950 0.7980 0.8000 0.8000
11.000000 0.8000 0.8000 0.7980 0.7970 0.7930
11.033981 0.7930 0.7900 0.7880 0.7900 0.7930
11.068000 0.8000 0.8040 0.8100 0.8160 0.8220
11.101981 0.8290 0.8330 0.8390 0.8460 0.8510
11.136000 0.8530 0.8550 0.8580 0.8600 0.8600
11.169981 0.8600 0.8600 0.8620 0.8620 0.8620
11.204000 0.8620 0.8620 0.8620 0.8630 0.8650
11.237981 0.8650 0.8670 0.8670 0.8680 0.8700
11.272000 0.8720 0.8720 0.8730 0.8720 0.8720
11.305981 0.8700 0.8720 0.8720 0.8730 0.8790
11.340000 0.8790 0.8790 0.8790 0.8800 0.8840
11.373981 0.8850 0.8870 0.8870 0.8890 0.8870
11.408000 0.8820 0.8800 0.8790 0.8730 0.8670
11.441981 0.8600 0.8550 0.8460 0.8440 0.8500
11.476000 0.8500 0.8500 0.8500 0.8500 0.8500
11.509981 0.8430 0.8390 0.8330 0.8260 0.8050
11.544000 0.7980 0.7880 0.7810 0.7780 0.7700
11.577981 0.7590 0.7540 0.7460 0.7410 0.7370
11.612000 0.7350 0.7370 0.7390 0.7460 0.7590
11.645981 0.7700 0.7800 0.7880 0.7980 0.8050
11.680000 0.8160 0.8210 0.8290 0.8330 0.8360
11.713981 0.8390 0.8390 0.8330 0.8220 0.8160
11.748000 0.8040 0.7830 0.7560 0.7370 0.7170
11.781981 0.6960 0.6790 0.6780 0.6790 0.6830
11.816000 0.6980 0.7010 0.7080 0.7080 0.7050
11.849981 0.7010 0.6980 0.6960 0.6950 0.6960
11.884000 0.6980 0.7050 0.7180 0.7250 0.7340
11.917981 0.7370 0.7350 0.7320 0.7240 0.7050
11.951000 0.6860 0.6520 0.6230 0.6040 0.5870
11.984981 0.5740 0.5600 0.5530 0.5410 0.5380
12.019000 0.5380 0.5410 0.5500 0.5580 0.5700
12.052981 0.5860 0.6040 0.6280 0.6520 0.6760
12.087000 0.6960 0.7170 0.7300 0.7460 0.7520
12.120981 0.7610 0.7710 0.7800 0.7850 0.7880
12.155000 0.7900 0.7920 0.7900 0.7900 0.7900
12.188981 0.7900 0.7950 0.8000 0.8070 0.8190
12.223000 0.8220 0.8310 0.8380 0.8390 0.8480
12.256981 0.8530 0.8600 0.8620 0.8620 0.8630
12.291000 0.8630 0.8670 0.8700 0.8720 0.8730
12.324981 0.8720 0.8730 0.8750 0.8750 0.8750
12.359000 0.8770 0.8790 0.8790 0.8790 0.8770
12.392981 0.8790 0.8790 0.8800 0.8800 0.8800
12.427000 0.8820 0.8820 0.8820 0.8820 0.8820
12.460981 0.8820 0.8800 0.8800 0.8820 0.8870
12.495000 0.8870 0.8890 0.8890 0.8890 0.8870
12.528981 0.8840 0.8820 0.8800 0.8800 0.8790
12.563000 0.8790 0.8800 0.8800 0.8800 0.8790
12.596981 0.8790 0.8800 0.8800 0.8800 0.8800
12.631000 0.8820 0.8840 0.8870 0.8890 0.8850
12.664981 0.8840 0.8840 0.8870 0.8890 0.8890
12.699000 0.8890 0.8840 0.8800 0.8770 0.8700
12.732981 0.8620 0.8510 0.8430 0.8330 0.8220
12.767000 0.8070 0.7980 0.7870 0.7730 0.7510
12.800981 0.7320 0.7080 0.6880 0.6690 0.6490
12.835000 0.6260 0.6010 0.5750 0.5460 0.5170
12.868981 0.5020 0.4870 0.4540 0.4310 0.4120
12.902000 0.4020 0.4020 0.4080 0.4360 0.4660
12.935981 0.4990 0.5620 0.5940 0.6250 0.6520
12.970000 0.6780 0.7010 0.7200 0.7340 0.7420
13.003981 0.7560 0.7700 0.7800 0.7880 0.7930
13.038000 0.8000 0.8040 0.8070 0.8100 0.8140
13.071981 0.8190 0.8220 0.8260 0.8270 0.8290
13.106000 0.8310 0.8330 0.8330 0.8330 0.8330
13.139981 0.8340 0.8340 0.8360 0.8380 0.8380
13.174000 0.8390 0.8390 0.8430 0.8480 0.8510
13.207981 0.8530 0.8530 0.8550 0.8550 0.8560
13.242000 0.8560 0.8600 0.8630 0.8730 0.8730
13.275981 0.8720 0.8720 0.8730 0.8770 0.8770
13.310000 0.8790 0.8790 0.8800 0.8820 0.8840
13.343981 0.8870 0.8890 0.8890 0.8890 0.8900
13.378000 0.8940 0.8990 0.9010 0.9010 0.9010
13.411981 0.8990 0.8920 0.8920 0.8940 0.8970
13.446000 0.8970 0.8990 0.8990 0.8990 0.8990
13.479981 0.8990 0.8990 0.8990 0.8990 0.8990
13.514000 0.9010 0.9010 0.9010 0.9020 0.9040
13.547981 0.9040 0.9060 0.9080 0.9020 0.9020
13.582000 0.9040 0.9040 0.9040 0.9020 0.9020
13.615981 0.9020 0.9040 0.9040 0.9040 0.9020
13.650000 0.9010 0.9010 0.9010 0.9080 0.9090
13.683981 0.9090 0.9090 0.9090 0.9080 0.9060
13.718000 0.9010 0.9060 0.9080 0.9090 0.9090
13.751981 0.9080 0.9060 0.9010 0.9020 0.9080
13.786000 0.9090 0.9090 0.9090 0.9110 0.9110
13.819981 0.9090 0.9090 0.9090 0.9080 0.9080
13.853000 0.9080 0.9040 0.9040 0.9040 0.9020
13.886981 0.9020 0.9040 0.9040 0.9040 0.9040
13.921000 0.9080 0.9080 0.9130 0.9130 0.9140
13.954981 0.9140 0.9160 0.9180 0.9190 0.9190
13.989000 0.9210 0.9230 0.9230 0.9250 0.9260
14.022981 0.9250 0.9260 0.9260 0.9260 0.9280
14.057000 0.9280 0.9280 0.9280 0.9260 0.9260
14.090981 0.9280 0.9300 0.9300 0.9310 0.9310
14.125000 0.9330 0.9330 0.9310 0.9310 0.9310
14.158981 0.9310 0.9310 0.9310 0.9330 0.9330
14.193000 0.9330 0.9330 0.9330 0.9310 0.9300
14.226981 0.9300 0.9310 0.9310 0.9330 0.9310
14.261000 0.9330 0.9350 0.9360 0.9380 0.9380
14.294981 0.9380 0.9400 0.9380 0.9380 0.9360
14.329000 0.9350 0.9330 0.9310 0.9300 0.9310
14.362981 0.9310 0.9310 0.9310 0.9300 0.9300
14.397000 0.9300 0.9280 0.9230 0.9210 0.9210
14.430981 0.9210 0.9210 0.9190 0.9190 0.9180
14.465000 0.9160 0.9160 0.9190 0.9190 0.9190
14.498981 0.9180 0.9180 0.9140 0.9140 0.9140
14.533000 0.9140 0.9160 0.9160 0.9160 0.9140
14.566981 0.9140 0.9130 0.9110 0.9110 0.9110
14.601000 0.9110 0.9110 0.9130 0.9130 0.9130
14.634981 0.9130 0.9130 0.9130 0.9130 0.9130
14.669000 0.9130 0.9130 0.9130 0.9110 0.9080
14.702981 0.9060 0.9040 0.9040 0.9040 0.9040
14.737000 0.9020 0.9010 0.8990 0.8990 0.8990
14.770981 0.8970 0.8970 0.9010 0.9010 0.9010
14.804000 0.8990 0.8960 0.8960 0.8960 0.8960
14.837981 0.8960 0.8960 0.8970 0.8970 0.8970
14.872000 0.8990 0.8990 0.8990 0.8990 0.8990
14.905981 0.8990 0.8990 0.8970 0.8970 0.8960
14.940000 0.8940 0.8920 0.8900 0.8890 0.8870
14.973981 0.8800 0.8790 0.8750 0.8680 0.8630
15.008000 0.8550 0.8460 0.8360 0.8330 0.8270
15.041981 0.8210 0.8170 0.8120 0.8100 0.8100
15.076000 0.8140 0.8210 0.8270 0.8330 0.8380
15.109981 0.8390 0.8460 0.8550 0.8620 0.8670
15.144000 0.8680 0.8700 0.8720 0.8730 0.8730
15.177981 0.8730 0.8730 0.8730 0.8730 0.8720
15.212000 0.8700 0.8680 0.8650 0.8620 0.8580
15.245981 0.8550 0.8530 0.8510 0.8500 0.8480
15.280000 0.8480 0.8480 0.8480 0.8480 0.8460
15.313981 0.8440 0.8410 0.8390 0.8380 0.8380
15.348000 0.8360 0.8360 0.8340 0.8340 0.8310
15.381981 0.8290 0.8290 0.8290 0.8270 0.8240
15.416000 0.8220 0.8210 0.8210 0.8190 0.8170
15.449981 0.8160 0.8140 0.8140 0.8120 0.8100
15.484000 0.8090 0.8040 0.8020 0.8020 0.8000
15.517981 0.7980 0.7980 0.7970 0.7920 0.7920
15.552000 0.7920 0.7900 0.7900 0.7900 0.7900
15.585981 0.7900 0.7900 0.7900 0.7900 0.7880
15.620000 0.7870 0.7850 0.7850 0.7830 0.7810
15.653981 0.7800 0.7780 0.7760 0.7730 0.7710
15.688000 0.7700 0.7700 0.7680 0.7660 0.7640
15.721981 0.7610 0.7590 0.7590 0.7580 0.7560
15.755000 0.7520 0.7510 0.7490 0.7490 0.7490
15.788981 0.7490 0.7490 0.7470 0.7460 0.7420
15.823000 0.7410 0.7370 0.7300 0.7290 0.7240
15.856981 0.7220 0.7200 0.7180 0.7200 0.7220
15.891000 0.7240 0.7240 0.7240 0.7240 0.7240
15.924981 0.7240 0.7220 0.7220 0.7180 0.7170
15.959000 0.7130 0.7060 0.7000 0.7000 0.6980
15.992981 0.6960 0.6980
##END=
