##TITLE=Potassium orthophosphate
##JCAMP-DX=4.24
##DATA TYPE=INFRARED SPECTRUM
##CLASS=COBLENTZ III
##ORIGIN=SOUTHERN RESEARCH INSTITUTE
##OWNER=Copyright (C) 1987 by the Coblentz Society
Collection (C) 2018 copyright by the U.S. Secretary of Commerce
on behalf of the United States of America. All rights reserved.
##DATE=1966/01/04
##NAMES=POTASSIUM PHOSPHATE
##MOLFORM=H2 K O4 P
##SOURCE REFERENCE=COBLENTZ NO. 7871
##$NIST ID=B6007871
##$NIST SOURCE=COBLENTZ
##$NIST IMAGE=cob7871
##SPECTROMETER/DATA SYSTEM=PERKIN-ELMER 521 (GRATING)
##INSTRUMENT PARAMETERS=FILTERS AT 3150, 2500, 2000, 1150, 700, 410. GRATING CHANGES: 2000, 630
##STATE=SOLID (1 mg / 650 mg KBr DISC)
##SAMPLING PROCEDURE=TRANSMISSION
##RESOLUTION=2
##DATA PROCESSING=DIGITIZED BY COBLENTZ SOCIETY (BATCH II) FROM HARD COPY (ADJUSTED \addcm-1\10-8-2\)
##XUNITS=1/CM
##YUNITS=TRANSMITTANCE
##XFACTOR=1.0
##YFACTOR=1
##DELTAX=1.002665
##FIRSTX=249
##LASTX=4010
##FIRSTY=0.1738
##MAXX=4010
##MINX=249
##MAXY=0.8438
##MINY=0.1738
##NPOINTS=3752
##XYDATA=(X++(Y..Y))
249.000000 0.1738 0.1779 0.1819 0.1848 0.1876
254.013326 0.1905 0.1935 0.1981 0.2026 0.2071
259.026652 0.2117 0.2162 0.2208 0.2254 0.2298
264.039979 0.2336 0.2374 0.2411 0.2449 0.2487
269.053305 0.2524 0.2562 0.2594 0.2622 0.2650
274.066631 0.2677 0.2705 0.2733 0.2762 0.2805
279.079957 0.2851 0.2897 0.2942 0.2980 0.3011
284.093284 0.3043 0.3079 0.3126 0.3172 0.3217
289.106610 0.3247 0.3273 0.3300 0.3327 0.3354
294.119936 0.3381 0.3408 0.3435 0.3469 0.3503
299.133262 0.3538 0.3572 0.3607 0.3641 0.3673
304.146588 0.3691 0.3709 0.3723 0.3736 0.3748
309.159915 0.3761 0.3774 0.3786 0.3799 0.3811
314.173241 0.3824 0.3836 0.3849 0.3861 0.3873
319.186567 0.3886 0.3898 0.3908 0.3917 0.3927
324.199893 0.3936 0.3945 0.3954 0.3963 0.3972
329.213220 0.3982 0.3991 0.4000 0.4009 0.4016
334.226546 0.4022 0.4029 0.4036 0.4042 0.4049
339.239872 0.4055 0.4061 0.4065 0.4070 0.4074
344.253198 0.4078 0.4083 0.4087 0.4091 0.4095
349.266525 0.4100 0.4104 0.4108 0.4113 0.4117
354.279851 0.4121 0.4125 0.4130 0.4134 0.4138
359.293177 0.4142 0.4146 0.4150 0.4154 0.4158
364.306503 0.4162 0.4166 0.4170 0.4174 0.4178
369.319829 0.4181 0.4185 0.4189 0.4192 0.4196
374.333156 0.4199 0.4203 0.4207 0.4211 0.4214
379.346482 0.4218 0.4222 0.4225 0.4223 0.4221
384.359808 0.4216 0.4208 0.4198 0.4185 0.4168
389.373134 0.4152 0.4136 0.4120 0.4107 0.4098
394.386461 0.4091 0.4085 0.4078 0.4073 0.4072
399.399787 0.4073 0.4073 0.4074 0.4080 0.4083
404.413113 0.4075 0.4076 0.4077 0.4079 0.4082
409.426439 0.4084 0.4087 0.4089 0.4092 0.4094
414.439765 0.4097 0.4099 0.4102 0.4105 0.4108
419.453092 0.4111 0.4114 0.4117 0.4120 0.4123
424.466418 0.4126 0.4129 0.4132 0.4135 0.4139
429.479744 0.4144 0.4148 0.4153 0.4158 0.4163
434.493070 0.4167 0.4172 0.4177 0.4182 0.4187
439.506397 0.4192 0.4199 0.4207 0.4215 0.4222
444.519723 0.4230 0.4238 0.4245 0.4254 0.4265
449.533049 0.4276 0.4287 0.4297 0.4308 0.4325
454.546375 0.4344 0.4364 0.4384 0.4404 0.4424
459.559701 0.4444 0.4465 0.4487 0.4509 0.4532
464.573028 0.4555 0.4577 0.4600 0.4622 0.4651
469.586354 0.4688 0.4725 0.4763 0.4801 0.4839
474.599680 0.4876 0.4914 0.4957 0.5002 0.5047
479.613006 0.5092 0.5137 0.5181 0.5225 0.5267
484.626333 0.5310 0.5352 0.5395 0.5438 0.5489
489.639659 0.5554 0.5625 0.5695 0.5766 0.5850
494.652985 0.5945 0.6044 0.6217 0.6446 0.6594
499.666311 0.6685 0.6748 0.6799 0.6850 0.6897
504.679638 0.6940 0.6972 0.6981 0.6977 0.6971
509.692964 0.6999 0.6992 0.6945 0.6930 0.6909
514.706290 0.6837 0.6687 0.6515 0.6343 0.6171
519.719616 0.5999 0.5827 0.5654 0.5482 0.5310
524.732942 0.5138 0.4966 0.4794 0.4622 0.4450
529.746269 0.4277 0.4104 0.3932 0.3767 0.3658
534.759595 0.3609 0.3544 0.3568 0.3570 0.3580
539.772921 0.3589 0.3598 0.3617 0.3640 0.3674
544.786247 0.3724 0.3784 0.3845 0.3906 0.3967
549.799574 0.4028 0.4089 0.4150 0.4211 0.4272
554.812900 0.4333 0.4394 0.4455 0.4516 0.4577
559.826226 0.4638 0.4698 0.4759 0.4820 0.4880
564.839552 0.4941 0.4993 0.5036 0.5075 0.5113
569.852878 0.5147 0.5178 0.5209 0.5239 0.5270
574.866205 0.5301 0.5334 0.5373 0.5414 0.5454
579.879531 0.5494 0.5534 0.5573 0.5612 0.5644
584.892857 0.5674 0.5702 0.5731 0.5759 0.5785
589.906183 0.5805 0.5825 0.5835 0.5839 0.5843
594.919510 0.5848 0.5852 0.5856 0.5860 0.5861
599.932836 0.5862 0.5863 0.5864 0.5865 0.5865
604.946162 0.5866 0.5867 0.5868 0.5869 0.5869
609.959488 0.5868 0.5868 0.5868 0.5868 0.5867
614.972814 0.5867 0.5867 0.5866 0.5866 0.5865
619.986141 0.5865 0.5864 0.5863 0.5862 0.5861
624.999467 0.5875 0.5872 0.5859 0.5858 0.5858
630.012793 0.5857 0.5856 0.5856 0.5855 0.5855
635.026119 0.5854 0.5854 0.5854 0.5853 0.5853
640.039446 0.5852 0.5852 0.5851 0.5851 0.5850
645.052772 0.5849 0.5848 0.5848 0.5847 0.5846
650.066098 0.5845 0.5842 0.5836 0.5831 0.5825
655.079424 0.5818 0.5810 0.5794 0.5779 0.5766
660.092751 0.5757 0.5750 0.5788 0.5852 0.5871
665.106077 0.5869 0.5867 0.5862 0.5850 0.5822
670.119403 0.5792 0.5764 0.5751 0.5750 0.5750
675.132729 0.5750 0.5747 0.5742 0.5735 0.5728
680.146055 0.5719 0.5711 0.5701 0.5689 0.5676
685.159382 0.5663 0.5651 0.5640 0.5628 0.5617
690.172708 0.5606 0.5595 0.5583 0.5572 0.5561
695.186034 0.5550 0.5539 0.5527 0.5516 0.5505
700.199360 0.5494 0.5482 0.5470 0.5460 0.5450
705.212687 0.5441 0.5432 0.5423 0.5414 0.5405
710.226013 0.5396 0.5387 0.5377 0.5369 0.5360
715.239339 0.5351 0.5341 0.5330 0.5319 0.5309
720.252665 0.5298 0.5287 0.5276 0.5265 0.5254
725.265991 0.5244 0.5233 0.5223 0.5212 0.5201
730.279318 0.5191 0.5179 0.5168 0.5157 0.5146
735.292644 0.5135 0.5124 0.5112 0.5101 0.5090
740.305970 0.5079 0.5068 0.5057 0.5045 0.5034
745.319296 0.5023 0.5012 0.5001 0.4990 0.4978
750.332623 0.4964 0.4948 0.4933 0.4918 0.4902
755.345949 0.4887 0.4872 0.4856 0.4841 0.4826
760.359275 0.4811 0.4795 0.4780 0.4765 0.4750
765.372601 0.4734 0.4720 0.4704 0.4689 0.4675
770.385928 0.4661 0.4646 0.4632 0.4618 0.4604
775.399254 0.4589 0.4574 0.4560 0.4546 0.4532
780.412580 0.4517 0.4503 0.4489 0.4474 0.4459
785.425906 0.4445 0.4431 0.4417 0.4402 0.4388
790.439232 0.4374 0.4359 0.4344 0.4329 0.4314
795.452559 0.4298 0.4283 0.4267 0.4252 0.4237
800.465885 0.4221 0.4206 0.4190 0.4175 0.4159
805.479211 0.4144 0.4128 0.4113 0.4098 0.4082
810.492537 0.4067 0.4052 0.4036 0.4021 0.4006
815.505864 0.3990 0.3973 0.3956 0.3938 0.3921
820.519190 0.3904 0.3887 0.3870 0.3853 0.3835
825.532516 0.3818 0.3802 0.3784 0.3767 0.3750
830.545842 0.3733 0.3715 0.3698 0.3681 0.3664
835.559168 0.3646 0.3630 0.3612 0.3595 0.3578
840.572495 0.3561 0.3543 0.3526 0.3509 0.3492
845.585821 0.3474 0.3458 0.3440 0.3423 0.3406
850.599147 0.3389 0.3372 0.3355 0.3338 0.3321
855.612473 0.3304 0.3287 0.3270 0.3253 0.3236
860.625800 0.3219 0.3202 0.3185 0.3167 0.3151
865.639126 0.3134 0.3116 0.3100 0.3083 0.3068
870.652452 0.3053 0.3037 0.3022 0.3007 0.2992
875.665778 0.2977 0.2961 0.2946 0.2931 0.2916
880.679104 0.2901 0.2886 0.2876 0.2867 0.2858
885.692431 0.2848 0.2838 0.2828 0.2818 0.2808
890.705757 0.2799 0.2789 0.2782 0.2778 0.2773
895.719083 0.2769 0.2764 0.2760 0.2755 0.2751
900.732409 0.2747 0.2745 0.2743 0.2742 0.2740
905.745736 0.2738 0.2737 0.2735 0.2737 0.2738
910.759062 0.2740 0.2742 0.2755 0.2750 0.2748
915.772388 0.2750 0.2754 0.2759 0.2765 0.2770
920.785714 0.2775 0.2780 0.2785 0.2791 0.2796
925.799041 0.2804 0.2813 0.2822 0.2831 0.2841
930.812367 0.2850 0.2859 0.2868 0.2878 0.2890
935.825693 0.2903 0.2915 0.2928 0.2940 0.2953
940.839019 0.2965 0.2979 0.2997 0.3016 0.3035
945.852345 0.3054 0.3073 0.3092 0.3111 0.3130
950.865672 0.3149 0.3168 0.3187 0.3205 0.3224
955.878998 0.3243 0.3261 0.3280 0.3298 0.3317
960.892324 0.3335 0.3354 0.3371 0.3387 0.3403
965.905650 0.3418 0.3434 0.3449 0.3465 0.3481
970.918977 0.3496 0.3512 0.3527 0.3542 0.3555
975.932303 0.3569 0.3583 0.3595 0.3603 0.3610
980.945629 0.3617 0.3623 0.3630 0.3633 0.3633
985.958955 0.3633 0.3632 0.3632 0.3631 0.3629
990.972281 0.3628 0.3628 0.3624 0.3620 0.3615
995.985608 0.3610 0.3605 0.3601 0.3596 0.3591
1000.998934 0.3586 0.3580 0.3571 0.3562 0.3552
1006.012260 0.3543 0.3534 0.3525 0.3515 0.3506
1011.025586 0.3497 0.3488 0.3479 0.3469 0.3457
1016.038913 0.3444 0.3432 0.3420 0.3408 0.3396
1021.052239 0.3384 0.3372 0.3360 0.3348 0.3336
1026.065565 0.3324 0.3311 0.3299 0.3286 0.3274
1031.078891 0.3262 0.3249 0.3236 0.3224 0.3211
1036.092217 0.3199 0.3186 0.3174 0.3162 0.3149
1041.105544 0.3137 0.3125 0.3113 0.3100 0.3089
1046.118870 0.3077 0.3065 0.3052 0.3040 0.3027
1051.132196 0.3013 0.2998 0.2983 0.2968 0.2953
1056.145522 0.2938 0.2923 0.2908 0.2893 0.2878
1061.158849 0.2863 0.2849 0.2837 0.2824 0.2811
1066.172175 0.2799 0.2787 0.2774 0.2762 0.2749
1071.185501 0.2737 0.2724 0.2712 0.2699 0.2686
1076.198827 0.2675 0.2665 0.2655 0.2644 0.2634
1081.212154 0.2624 0.2614 0.2603 0.2593 0.2584
1086.225480 0.2574 0.2565 0.2556 0.2546 0.2537
1091.238806 0.2528 0.2527 0.2527 0.2528 0.2528
1096.252132 0.2528 0.2528 0.2528 0.2512 0.2528
1101.265458 0.2529 0.2531 0.2532 0.2534 0.2535
1106.278785 0.2537 0.2543 0.2548 0.2554 0.2559
1111.292111 0.2569 0.2579 0.2590 0.2601 0.2612
1116.305437 0.2622 0.2633 0.2651 0.2668 0.2685
1121.318763 0.2703 0.2721 0.2739 0.2765 0.2793
1126.332090 0.2822 0.2851 0.2879 0.2908 0.2940
1131.345416 0.2971 0.3002 0.3033 0.3064 0.3096
1136.358742 0.3128 0.3161 0.3193 0.3225 0.3257
1141.372068 0.3289 0.3322 0.3362 0.3403 0.3445
1146.385394 0.3487 0.3529 0.3571 0.3611 0.3642
1151.398721 0.3671 0.3699 0.3728 0.3756 0.3785
1156.412047 0.3814 0.3843 0.3875 0.3909 0.3943
1161.425373 0.3976 0.4010 0.4044 0.4078 0.4113
1166.438699 0.4145 0.4173 0.4201 0.4229 0.4257
1171.452026 0.4285 0.4313 0.4339 0.4361 0.4380
1176.465352 0.4400 0.4419 0.4439 0.4458 0.4477
1181.478678 0.4497 0.4516 0.4525 0.4530 0.4535
1186.492004 0.4540 0.4542 0.4543 0.4544 0.4544
1191.505330 0.4545 0.4546 0.4548 0.4550 0.4552
1196.518657 0.4579 0.4572 0.4556 0.4553 0.4551
1201.531983 0.4548 0.4546 0.4543 0.4541 0.4536
1206.545309 0.4528 0.4520 0.4511 0.4503 0.4494
1211.558635 0.4485 0.4473 0.4458 0.4442 0.4427
1216.571962 0.4411 0.4396 0.4381 0.4366 0.4350
1221.585288 0.4335 0.4320 0.4305 0.4290 0.4275
1226.598614 0.4260 0.4245 0.4228 0.4208 0.4189
1231.611940 0.4169 0.4149 0.4130 0.4110 0.4090
1236.625267 0.4067 0.4041 0.4013 0.3986 0.3958
1241.638593 0.3931 0.3903 0.3876 0.3849 0.3821
1246.651919 0.3794 0.3767 0.3740 0.3713 0.3686
1251.665245 0.3661 0.3638 0.3615 0.3591 0.3567
1256.678571 0.3544 0.3520 0.3497 0.3473 0.3449
1261.691898 0.3424 0.3399 0.3374 0.3349 0.3324
1266.705224 0.3299 0.3274 0.3249 0.3224 0.3198
1271.718550 0.3172 0.3146 0.3120 0.3094 0.3068
1276.731876 0.3042 0.3016 0.2991 0.2965 0.2939
1281.745203 0.2913 0.2887 0.2862 0.2842 0.2823
1286.758529 0.2804 0.2785 0.2765 0.2749 0.2737
1291.771855 0.2727 0.2717 0.2713 0.2731 0.2716
1296.785181 0.2712 0.2715 0.2720 0.2724 0.2728
1301.798507 0.2736 0.2744 0.2753 0.2761 0.2773
1306.811834 0.2789 0.2805 0.2822 0.2840 0.2865
1311.825160 0.2892 0.2919 0.2951 0.2990 0.3034
1316.838486 0.3097 0.3164 0.3232 0.3299 0.3366
1321.851812 0.3433 0.3500 0.3567 0.3634 0.3701
1326.865139 0.3768 0.3835 0.3902 0.3970 0.4037
1331.878465 0.4104 0.4171 0.4238 0.4285 0.4319
1336.891791 0.4363 0.4413 0.4462 0.4499 0.4533
1341.905117 0.4565 0.4597 0.4629 0.4662 0.4701
1346.918443 0.4740 0.4779 0.4818 0.4857 0.4888
1351.931770 0.4915 0.4942 0.4969 0.4996 0.5023
1356.945096 0.5051 0.5080 0.5110 0.5139 0.5168
1361.958422 0.5186 0.5200 0.5215 0.5230 0.5245
1366.971748 0.5258 0.5269 0.5281 0.5288 0.5287
1371.985075 0.5286 0.5286 0.5285 0.5284 0.5300
1376.998401 0.5282 0.5282 0.5280 0.5276 0.5272
1382.011727 0.5268 0.5264 0.5260 0.5256 0.5252
1387.025053 0.5248 0.5244 0.5240 0.5236 0.5231
1392.038380 0.5224 0.5218 0.5212 0.5205 0.5199
1397.051706 0.5193 0.5186 0.5180 0.5174 0.5167
1402.065032 0.5158 0.5150 0.5142 0.5133 0.5125
1407.078358 0.5117 0.5108 0.5100 0.5092 0.5083
1412.091684 0.5074 0.5064 0.5055 0.5045 0.5036
1417.105011 0.5026 0.5016 0.5007 0.4997 0.4987
1422.118337 0.4978 0.4968 0.4959 0.4949 0.4939
1427.131663 0.4930 0.4920 0.4911 0.4901 0.4892
1432.144989 0.4883 0.4873 0.4864 0.4854 0.4845
1437.158316 0.4836 0.4826 0.4817 0.4808 0.4798
1442.171642 0.4788 0.4778 0.4767 0.4756 0.4745
1447.184968 0.4734 0.4724 0.4713 0.4702 0.4691
1452.198294 0.4680 0.4669 0.4659 0.4650 0.4642
1457.211620 0.4633 0.4624 0.4616 0.4607 0.4599
1462.224947 0.4590 0.4581 0.4573 0.4564 0.4556
1467.238273 0.4548 0.4540 0.4533 0.4525 0.4517
1472.251599 0.4510 0.4502 0.4494 0.4486 0.4479
1477.264925 0.4471 0.4463 0.4456 0.4449 0.4442
1482.278252 0.4435 0.4428 0.4420 0.4412 0.4405
1487.291578 0.4397 0.4389 0.4381 0.4373 0.4366
1492.304904 0.4358 0.4350 0.4342 0.4335 0.4326
1497.318230 0.4319 0.4312 0.4305 0.4298 0.4291
1502.331557 0.4284 0.4277 0.4270 0.4263 0.4256
1507.344883 0.4249 0.4242 0.4235 0.4228 0.4221
1512.358209 0.4214 0.4207 0.4200 0.4193 0.4186
1517.371535 0.4179 0.4172 0.4165 0.4158 0.4151
1522.384861 0.4144 0.4138 0.4132 0.4127 0.4123
1527.398188 0.4118 0.4113 0.4109 0.4104 0.4099
1532.411514 0.4095 0.4090 0.4086 0.4081 0.4076
1537.424840 0.4072 0.4067 0.4062 0.4058 0.4053
1542.438166 0.4049 0.4044 0.4039 0.4035 0.4030
1547.451493 0.4026 0.4021 0.4016 0.4012 0.4007
1552.464819 0.4002 0.3998 0.3993 0.3989 0.3984
1557.478145 0.3979 0.3975 0.3971 0.3967 0.3963
1562.491471 0.3958 0.3954 0.3950 0.3946 0.3941
1567.504797 0.3937 0.3933 0.3929 0.3924 0.3920
1572.518124 0.3916 0.3912 0.3907 0.3903 0.3899
1577.531450 0.3895 0.3891 0.3886 0.3882 0.3878
1582.544776 0.3874 0.3869 0.3865 0.3861 0.3858
1587.558102 0.3854 0.3851 0.3847 0.3844 0.3840
1592.571429 0.3837 0.3833 0.3830 0.3826 0.3823
1597.584755 0.3819 0.3816 0.3812 0.3809 0.3805
1602.598081 0.3802 0.3798 0.3795 0.3791 0.3788
1607.611407 0.3784 0.3781 0.3777 0.3774 0.3771
1612.624733 0.3769 0.3766 0.3764 0.3761 0.3759
1617.638060 0.3756 0.3754 0.3751 0.3749 0.3746
1622.651386 0.3744 0.3741 0.3739 0.3736 0.3734
1627.664712 0.3712 0.3719 0.3727 0.3724 0.3722
1632.678038 0.3721 0.3721 0.3722 0.3722 0.3723
1637.691365 0.3723 0.3724 0.3724 0.3725 0.3726
1642.704691 0.3726 0.3727 0.3727 0.3728 0.3728
1647.718017 0.3729 0.3730 0.3732 0.3735 0.3738
1652.731343 0.3741 0.3744 0.3748 0.3751 0.3754
1657.744670 0.3757 0.3760 0.3763 0.3766 0.3770
1662.757996 0.3773 0.3776 0.3779 0.3782 0.3785
1667.771322 0.3788 0.3791 0.3794 0.3796 0.3799
1672.784648 0.3801 0.3804 0.3806 0.3809 0.3811
1677.797974 0.3814 0.3816 0.3819 0.3821 0.3823
1682.811301 0.3824 0.3825 0.3827 0.3828 0.3829
1687.824627 0.3830 0.3832 0.3833 0.3835 0.3837
1692.837953 0.3839 0.3841 0.3843 0.3845 0.3847
1697.851279 0.3849 0.3851 0.3854 0.3857 0.3860
1702.864606 0.3863 0.3866 0.3869 0.3872 0.3875
1707.877932 0.3878 0.3881 0.3884 0.3887 0.3891
1712.891258 0.3898 0.3904 0.3911 0.3917 0.3924
1717.904584 0.3929 0.3934 0.3939 0.3944 0.3949
1722.917910 0.3953 0.3958 0.3963 0.3967 0.3972
1727.931237 0.3977 0.3981 0.3986 0.3990 0.3995
1732.944563 0.4000 0.4004 0.4009 0.4013 0.4018
1737.957889 0.4023 0.4027 0.4032 0.4036 0.4041
1742.971215 0.4045 0.4050 0.4055 0.4059 0.4064
1747.984542 0.4070 0.4076 0.4082 0.4088 0.4094
1752.997868 0.4100 0.4105 0.4111 0.4117 0.4123
1758.011194 0.4129 0.4135 0.4141 0.4147 0.4153
1763.024520 0.4158 0.4164 0.4170 0.4176 0.4182
1768.037846 0.4188 0.4194 0.4200 0.4205 0.4212
1773.051173 0.4219 0.4226 0.4233 0.4240 0.4247
1778.064499 0.4254 0.4262 0.4269 0.4277 0.4284
1783.077825 0.4291 0.4298 0.4305 0.4312 0.4319
1788.091151 0.4326 0.4333 0.4340 0.4347 0.4354
1793.104478 0.4361 0.4368 0.4375 0.4382 0.4390
1798.117804 0.4397 0.4404 0.4411 0.4418 0.4425
1803.131130 0.4432 0.4439 0.4447 0.4456 0.4465
1808.144456 0.4474 0.4483 0.4492 0.4500 0.4509
1813.157783 0.4518 0.4527 0.4536 0.4544 0.4554
1818.171109 0.4563 0.4572 0.4581 0.4589 0.4598
1823.184435 0.4607 0.4616 0.4625 0.4634 0.4642
1828.197761 0.4651 0.4660 0.4669 0.4678 0.4687
1833.211087 0.4695 0.4704 0.4714 0.4723 0.4733
1838.224414 0.4742 0.4752 0.4761 0.4771 0.4780
1843.237740 0.4790 0.4799 0.4809 0.4818 0.4828
1848.251066 0.4838 0.4847 0.4856 0.4865 0.4873
1853.264392 0.4881 0.4889 0.4897 0.4905 0.4913
1858.277719 0.4920 0.4928 0.4936 0.4944 0.4952
1863.291045 0.4960 0.4967 0.4975 0.4983 0.4991
1868.304371 0.4999 0.5007 0.5015 0.5022 0.5031
1873.317697 0.5038 0.5044 0.5050 0.5056 0.5062
1878.331023 0.5068 0.5074 0.5080 0.5087 0.5093
1883.344350 0.5099 0.5105 0.5111 0.5117 0.5123
1888.357676 0.5129 0.5136 0.5142 0.5148 0.5154
1893.371002 0.5160 0.5166 0.5172 0.5178 0.5184
1898.384328 0.5190 0.5197 0.5203 0.5209 0.5215
1903.397655 0.5221 0.5227 0.5233 0.5239 0.5245
1908.410981 0.5251 0.5257 0.5263 0.5270 0.5276
1913.424307 0.5282 0.5288 0.5294 0.5300 0.5306
1918.437633 0.5312 0.5318 0.5324 0.5330 0.5336
1923.450959 0.5342 0.5348 0.5354 0.5360 0.5366
1928.464286 0.5372 0.5378 0.5384 0.5390 0.5396
1933.477612 0.5402 0.5409 0.5415 0.5421 0.5427
1938.490938 0.5433 0.5439 0.5445 0.5451 0.5457
1943.504264 0.5463 0.5469 0.5475 0.5482 0.5488
1948.517591 0.5494 0.5500 0.5506 0.5512 0.5518
1953.530917 0.5524 0.5530 0.5537 0.5543 0.5549
1958.544243 0.5555 0.5561 0.5567 0.5573 0.5579
1963.557569 0.5585 0.5591 0.5596 0.5601 0.5605
1968.570896 0.5609 0.5614 0.5618 0.5622 0.5627
1973.584222 0.5631 0.5635 0.5640 0.5644 0.5648
1978.597548 0.5650 0.5652 0.5654 0.5656 0.5658
1983.610874 0.5660 0.5663 0.5665 0.5667 0.5671
1988.624200 0.5677 0.5682 0.5693 0.5714 0.5741
1993.637527 0.5770 0.5801 0.5823 0.5839 0.5850
1998.650853 0.5856 0.5859 0.5861 0.5863 0.5864
2003.664179 0.5866 0.5867 0.5869 0.5870 0.5872
2008.677505 0.5873 0.5875 0.5877 0.5879 0.5881
2013.690832 0.5883 0.5885 0.5888 0.5890 0.5892
2018.704158 0.5894 0.5896 0.5898 0.5900 0.5902
2023.717484 0.5906 0.5910 0.5914 0.5918 0.5922
2028.730810 0.5926 0.5929 0.5933 0.5937 0.5941
2033.744136 0.5945 0.5949 0.5952 0.5956 0.5960
2038.757463 0.5964 0.5968 0.5972 0.5975 0.5979
2043.770789 0.5982 0.5985 0.5989 0.5992 0.5996
2048.784115 0.5999 0.6003 0.6006 0.6009 0.6013
2053.797441 0.6016 0.6019 0.6022 0.6025 0.6027
2058.810768 0.6030 0.6032 0.6035 0.6037 0.6040
2063.824094 0.6042 0.6045 0.6047 0.6050 0.6052
2068.837420 0.6055 0.6058 0.6061 0.6062 0.6063
2073.850746 0.6063 0.6063 0.6063 0.6063 0.6063
2078.864072 0.6063 0.6063 0.6063 0.6064 0.6064
2083.877399 0.6065 0.6066 0.6066 0.6067 0.6067
2088.890725 0.6068 0.6069 0.6069 0.6070 0.6070
2093.904051 0.6071 0.6072 0.6072 0.6073 0.6073
2098.917377 0.6074 0.6074 0.6075 0.6098 0.6078
2103.930704 0.6077 0.6078 0.6079 0.6080 0.6080
2108.944030 0.6081 0.6082 0.6083 0.6084 0.6085
2113.957356 0.6085 0.6086 0.6087 0.6088 0.6089
2118.970682 0.6089 0.6090 0.6091 0.6091 0.6092
2123.984009 0.6092 0.6093 0.6093 0.6094 0.6095
2128.997335 0.6095 0.6096 0.6096 0.6097 0.6097
2134.010661 0.6098 0.6098 0.6098 0.6098 0.6098
2139.023987 0.6098 0.6099 0.6099 0.6099 0.6099
2144.037313 0.6098 0.6097 0.6096 0.6095 0.6094
2149.050640 0.6093 0.6092 0.6091 0.6090 0.6090
2154.063966 0.6089 0.6088 0.6087 0.6086 0.6085
2159.077292 0.6083 0.6080 0.6077 0.6074 0.6071
2164.090618 0.6068 0.6066 0.6063 0.6060 0.6057
2169.103945 0.6054 0.6051 0.6048 0.6045 0.6042
2174.117271 0.6039 0.6036 0.6033 0.6029 0.6025
2179.130597 0.6022 0.6018 0.6015 0.6011 0.6008
2184.143923 0.6004 0.6001 0.5997 0.5994 0.5990
2189.157249 0.5987 0.5984 0.5980 0.5977 0.5973
2194.170576 0.5969 0.5966 0.5962 0.5959 0.5955
2199.183902 0.5952 0.5948 0.5945 0.5941 0.5938
2204.197228 0.5934 0.5930 0.5926 0.5922 0.5918
2209.210554 0.5914 0.5910 0.5906 0.5902 0.5898
2214.223881 0.5894 0.5890 0.5886 0.5882 0.5878
2219.237207 0.5874 0.5870 0.5866 0.5862 0.5859
2224.250533 0.5855 0.5851 0.5847 0.5843 0.5839
2229.263859 0.5835 0.5832 0.5828 0.5825 0.5822
2234.277186 0.5819 0.5815 0.5812 0.5809 0.5806
2239.290512 0.5802 0.5799 0.5796 0.5793 0.5789
2244.303838 0.5786 0.5783 0.5780 0.5776 0.5773
2249.317164 0.5770 0.5767 0.5763 0.5760 0.5757
2254.330490 0.5754 0.5750 0.5747 0.5744 0.5741
2259.343817 0.5737 0.5734 0.5731 0.5728 0.5724
2264.357143 0.5721 0.5718 0.5715 0.5712 0.5709
2269.370469 0.5706 0.5702 0.5699 0.5696 0.5693
2274.383795 0.5690 0.5687 0.5684 0.5681 0.5678
2279.397122 0.5675 0.5671 0.5668 0.5665 0.5662
2284.410448 0.5659 0.5656 0.5653 0.5650 0.5647
2289.423774 0.5644 0.5640 0.5637 0.5634 0.5631
2294.437100 0.5628 0.5625 0.5621 0.5618 0.5614
2299.450426 0.5610 0.5606 0.5602 0.5598 0.5594
2304.463753 0.5590 0.5586 0.5582 0.5578 0.5574
2309.477079 0.5571 0.5567 0.5563 0.5559 0.5555
2314.490405 0.5551 0.5547 0.5543 0.5539 0.5535
2319.503731 0.5531 0.5527 0.5523 0.5520 0.5517
2324.517058 0.5514 0.5512 0.5509 0.5506 0.5503
2329.530384 0.5500 0.5498 0.5495 0.5492 0.5489
2334.543710 0.5487 0.5484 0.5481 0.5478 0.5475
2339.557036 0.5473 0.5470 0.5467 0.5464 0.5462
2344.570362 0.5459 0.5456 0.5453 0.5450 0.5448
2349.583689 0.5445 0.5443 0.5440 0.5438 0.5436
2354.597015 0.5433 0.5431 0.5428 0.5426 0.5423
2359.610341 0.5421 0.5419 0.5416 0.5414 0.5413
2364.623667 0.5412 0.5411 0.5410 0.5410 0.5409
2369.636994 0.5409 0.5408 0.5408 0.5407 0.5407
2374.650320 0.5406 0.5406 0.5405 0.5405 0.5404
2379.663646 0.5404 0.5403 0.5402 0.5402 0.5401
2384.676972 0.5401 0.5400 0.5400 0.5399 0.5399
2389.690299 0.5400 0.5402 0.5404 0.5405 0.5407
2394.703625 0.5409 0.5410 0.5412 0.5414 0.5415
2399.716951 0.5417 0.5418 0.5420 0.5422 0.5423
2404.730277 0.5425 0.5427 0.5428 0.5430 0.5432
2409.743603 0.5433 0.5435 0.5436 0.5438 0.5440
2414.756930 0.5442 0.5444 0.5445 0.5447 0.5448
2419.770256 0.5450 0.5452 0.5453 0.5455 0.5456
2424.783582 0.5458 0.5460 0.5461 0.5463 0.5464
2429.796908 0.5466 0.5468 0.5469 0.5470 0.5471
2434.810235 0.5472 0.5473 0.5473 0.5474 0.5475
2439.823561 0.5476 0.5478 0.5481 0.5485 0.5488
2444.836887 0.5492 0.5495 0.5499 0.5502 0.5505
2449.850213 0.5509 0.5512 0.5515 0.5519 0.5522
2454.863539 0.5525 0.5529 0.5532 0.5536 0.5540
2459.876866 0.5544 0.5547 0.5551 0.5554 0.5558
2464.890192 0.5562 0.5566 0.5571 0.5576 0.5582
2469.903518 0.5586 0.5590 0.5594 0.5597 0.5601
2474.916844 0.5604 0.5608 0.5613 0.5618 0.5623
2479.930171 0.5627 0.5632 0.5637 0.5641 0.5646
2484.943497 0.5651 0.5656 0.5661 0.5666 0.5672
2489.956823 0.5677 0.5682 0.5688 0.5693 0.5699
2494.970149 0.5704 0.5709 0.5715 0.5720 0.5726
2499.983475 0.5733 0.5740 0.5748 0.5755 0.5763
2504.996802 0.5770 0.5777 0.5785 0.5792 0.5799
2510.010128 0.5807 0.5814 0.5822 0.5830 0.5838
2515.023454 0.5846 0.5853 0.5861 0.5869 0.5877
2520.036780 0.5885 0.5892 0.5900 0.5908 0.5916
2525.050107 0.5924 0.5931 0.5939 0.5947 0.5955
2530.063433 0.5963 0.5971 0.5979 0.5987 0.5994
2535.076759 0.6000 0.6007 0.6014 0.6021 0.6027
2540.090085 0.6034 0.6041 0.6048 0.6054 0.6061
2545.103412 0.6068 0.6074 0.6081 0.6088 0.6094
2550.116738 0.6101 0.6108 0.6115 0.6120 0.6125
2555.130064 0.6130 0.6135 0.6140 0.6145 0.6149
2560.143390 0.6154 0.6159 0.6164 0.6169 0.6174
2565.156716 0.6178 0.6183 0.6188 0.6193 0.6198
2570.170043 0.6202 0.6207 0.6212 0.6217 0.6219
2575.183369 0.6222 0.6224 0.6227 0.6230 0.6232
2580.196695 0.6235 0.6238 0.6240 0.6243 0.6246
2585.210021 0.6248 0.6251 0.6253 0.6256 0.6259
2590.223348 0.6261 0.6263 0.6263 0.6262 0.6261
2595.236674 0.6267 0.6281 0.6259 0.6258 0.6257
2600.250000 0.6256 0.6255 0.6254 0.6253 0.6252
2605.263326 0.6251 0.6250 0.6248 0.6246 0.6243
2610.276652 0.6241 0.6239 0.6237 0.6234 0.6232
2615.289979 0.6230 0.6227 0.6225 0.6223 0.6221
2620.303305 0.6218 0.6216 0.6213 0.6210 0.6207
2625.316631 0.6204 0.6201 0.6198 0.6195 0.6192
2630.329957 0.6189 0.6186 0.6183 0.6180 0.6176
2635.343284 0.6173 0.6169 0.6166 0.6162 0.6158
2640.356610 0.6155 0.6151 0.6148 0.6144 0.6141
2645.369936 0.6137 0.6134 0.6130 0.6127 0.6124
2650.383262 0.6121 0.6117 0.6114 0.6111 0.6108
2655.396588 0.6105 0.6102 0.6100 0.6098 0.6096
2660.409915 0.6093 0.6091 0.6089 0.6087 0.6084
2665.423241 0.6082 0.6080 0.6078 0.6075 0.6073
2670.436567 0.6071 0.6069 0.6066 0.6064 0.6062
2675.449893 0.6060 0.6057 0.6056 0.6054 0.6053
2680.463220 0.6051 0.6050 0.6048 0.6047 0.6045
2685.476546 0.6044 0.6042 0.6041 0.6039 0.6038
2690.489872 0.6036 0.6035 0.6033 0.6031 0.6030
2695.503198 0.6029 0.6027 0.6025 0.6024 0.6022
2700.516525 0.6021 0.6020 0.6020 0.6020 0.6020
2705.529851 0.6020 0.6020 0.6020 0.6020 0.6020
2710.543177 0.6021 0.6021 0.6021 0.6021 0.6021
2715.556503 0.6021 0.6021 0.6021 0.6021 0.6021
2720.569829 0.6021 0.6021 0.6021 0.6022 0.6022
2725.583156 0.6022 0.6022 0.6022 0.6023 0.6023
2730.596482 0.6023 0.6023 0.6024 0.6024 0.6024
2735.609808 0.6024 0.6025 0.6025 0.6025 0.6025
2740.623134 0.6026 0.6026 0.6026 0.6026 0.6027
2745.636461 0.6027 0.6027 0.6027 0.6028 0.6028
2750.649787 0.6028 0.6028 0.6029 0.6029 0.6029
2755.663113 0.6029 0.6030 0.6030 0.6030 0.6030
2760.676439 0.6031 0.6031 0.6031 0.6031 0.6032
2765.689765 0.6032 0.6032 0.6032 0.6068 0.6049
2770.703092 0.6035 0.6036 0.6038 0.6039 0.6041
2775.716418 0.6042 0.6044 0.6045 0.6047 0.6048
2780.729744 0.6050 0.6051 0.6053 0.6054 0.6056
2785.743070 0.6057 0.6059 0.6060 0.6062 0.6064
2790.756397 0.6065 0.6067 0.6068 0.6070 0.6071
2795.769723 0.6073 0.6074 0.6076 0.6077 0.6079
2800.783049 0.6080 0.6082 0.6083 0.6085 0.6086
2805.796375 0.6088 0.6089 0.6091 0.6092 0.6094
2810.809701 0.6095 0.6097 0.6099 0.6100 0.6102
2815.823028 0.6103 0.6105 0.6106 0.6108 0.6109
2820.836354 0.6111 0.6112 0.6114 0.6115 0.6117
2825.849680 0.6118 0.6120 0.6121 0.6122 0.6123
2830.863006 0.6123 0.6123 0.6123 0.6123 0.6123
2835.876333 0.6123 0.6123 0.6123 0.6123 0.6123
2840.889659 0.6125 0.6129 0.6134 0.6138 0.6143
2845.902985 0.6148 0.6153 0.6158 0.6163 0.6167
2850.916311 0.6172 0.6178 0.6184 0.6190 0.6196
2855.929638 0.6203 0.6209 0.6215 0.6221 0.6228
2860.942964 0.6234 0.6239 0.6243 0.6246 0.6250
2865.956290 0.6253 0.6257 0.6260 0.6264 0.6267
2870.969616 0.6271 0.6274 0.6278 0.6281 0.6282
2875.982942 0.6283 0.6285 0.6286 0.6287 0.6288
2880.996269 0.6289 0.6290 0.6291 0.6292 0.6294
2886.009595 0.6295 0.6296 0.6297 0.6298 0.6297
2891.022921 0.6296 0.6296 0.6295 0.6294 0.6294
2896.036247 0.6293 0.6293 0.6292 0.6291 0.6291
2901.049574 0.6290 0.6290 0.6289 0.6288 0.6288
2906.062900 0.6288 0.6290 0.6292 0.6294 0.6296
2911.076226 0.6298 0.6300 0.6302 0.6308 0.6314
2916.089552 0.6321 0.6328 0.6334 0.6341 0.6349
2921.102878 0.6358 0.6366 0.6375 0.6383 0.6392
2926.116205 0.6400 0.6408 0.6416 0.6424 0.6433
2931.129531 0.6441 0.6449 0.6457 0.6464 0.6470
2936.142857 0.6477 0.6483 0.6489 0.6495 0.6502
2941.156183 0.6508 0.6515 0.6521 0.6528 0.6534
2946.169510 0.6541 0.6548 0.6554 0.6561 0.6567
2951.182836 0.6574 0.6581 0.6587 0.6594 0.6600
2956.196162 0.6606 0.6611 0.6617 0.6622 0.6628
2961.209488 0.6633 0.6639 0.6645 0.6650 0.6656
2966.222814 0.6661 0.6667 0.6672 0.6678 0.6683
2971.236141 0.6689 0.6694 0.6700 0.6705 0.6711
2976.249467 0.6716 0.6722 0.6727 0.6733 0.6738
2981.262793 0.6743 0.6749 0.6754 0.6760 0.6765
2986.276119 0.6769 0.6774 0.6778 0.6783 0.6787
2991.289446 0.6792 0.6796 0.6801 0.6806 0.6811
2996.302772 0.6815 0.6820 0.6824 0.6829 0.6833
3001.316098 0.6838 0.6843 0.6847 0.6852 0.6856
3006.329424 0.6861 0.6865 0.6870 0.6874 0.6878
3011.342751 0.6882 0.6886 0.6890 0.6894 0.6898
3016.356077 0.6901 0.6905 0.6909 0.6913 0.6917
3021.369403 0.6920 0.6924 0.6928 0.6933 0.6937
3026.382729 0.6940 0.6944 0.6948 0.6952 0.6956
3031.396055 0.6960 0.6963 0.6967 0.6971 0.6975
3036.409382 0.6979 0.6982 0.6986 0.6990 0.6994
3041.422708 0.6998 0.7002 0.7005 0.7009 0.7012
3046.436034 0.7015 0.7018 0.7021 0.7023 0.7026
3051.449360 0.7029 0.7032 0.7034 0.7037 0.7040
3056.462687 0.7043 0.7045 0.7047 0.7049 0.7050
3061.476013 0.7052 0.7054 0.7056 0.7058 0.7060
3066.489339 0.7061 0.7063 0.7065 0.7067 0.7069
3071.502665 0.7070 0.7072 0.7074 0.7076 0.7078
3076.515991 0.7080 0.7082 0.7083 0.7085 0.7087
3081.529318 0.7089 0.7091 0.7093 0.7095 0.7097
3086.542644 0.7100 0.7102 0.7104 0.7107 0.7109
3091.555970 0.7111 0.7114 0.7116 0.7118 0.7121
3096.569296 0.7123 0.7125 0.7128 0.7130 0.7132
3101.582623 0.7135 0.7137 0.7139 0.7142 0.7144
3106.595949 0.7146 0.7149 0.7154 0.7159 0.7164
3111.609275 0.7168 0.7173 0.7178 0.7183 0.7188
3116.622601 0.7195 0.7204 0.7212 0.7214 0.7213
3121.635928 0.7210 0.7204 0.7196 0.7188 0.7180
3126.649254 0.7174 0.7172 0.7170 0.7170 0.7171
3131.662580 0.7172 0.7173 0.7174 0.7175 0.7176
3136.675906 0.7177 0.7179 0.7180 0.7181 0.7182
3141.689232 0.7183 0.7184 0.7185 0.7185 0.7186
3146.702559 0.7187 0.7188 0.7189 0.7190 0.7191
3151.715885 0.7192 0.7192 0.7193 0.7194 0.7195
3156.729211 0.7195 0.7195 0.7195 0.7195 0.7195
3161.742537 0.7195 0.7195 0.7194 0.7194 0.7194
3166.755864 0.7194 0.7194 0.7194 0.7194 0.7194
3171.769190 0.7222 0.7202 0.7194 0.7194 0.7194
3176.782516 0.7194 0.7194 0.7194 0.7194 0.7194
3181.795842 0.7194 0.7194 0.7194 0.7194 0.7194
3186.809168 0.7194 0.7194 0.7194 0.7194 0.7194
3191.822495 0.7194 0.7194 0.7194 0.7194 0.7195
3196.835821 0.7195 0.7195 0.7196 0.7196 0.7197
3201.849147 0.7197 0.7197 0.7198 0.7198 0.7198
3206.862473 0.7199 0.7199 0.7200 0.7200 0.7200
3211.875800 0.7201 0.7201 0.7201 0.7202 0.7202
3216.889126 0.7203 0.7203 0.7203 0.7204 0.7204
3221.902452 0.7204 0.7205 0.7205 0.7205 0.7206
3226.915778 0.7206 0.7207 0.7207 0.7207 0.7208
3231.929104 0.7208 0.7209 0.7209 0.7210 0.7210
3236.942431 0.7211 0.7211 0.7212 0.7212 0.7213
3241.955757 0.7213 0.7214 0.7214 0.7215 0.7215
3246.969083 0.7216 0.7216 0.7217 0.7217 0.7218
3251.982409 0.7219 0.7219 0.7220 0.7220 0.7221
3256.995736 0.7221 0.7222 0.7222 0.7223 0.7223
3262.009062 0.7224 0.7224 0.7225 0.7225 0.7226
3267.022388 0.7226 0.7226 0.7226 0.7227 0.7227
3272.035714 0.7227 0.7227 0.7227 0.7227 0.7227
3277.049041 0.7227 0.7227 0.7227 0.7227 0.7227
3282.062367 0.7227 0.7228 0.7228 0.7228 0.7228
3287.075693 0.7228 0.7228 0.7228 0.7228 0.7228
3292.089019 0.7228 0.7228 0.7228 0.7228 0.7228
3297.102345 0.7229 0.7229 0.7229 0.7228 0.7227
3302.115672 0.7226 0.7225 0.7223 0.7222 0.7221
3307.128998 0.7219 0.7218 0.7217 0.7216 0.7214
3312.142324 0.7213 0.7212 0.7210 0.7209 0.7208
3317.155650 0.7207 0.7205 0.7204 0.7203 0.7202
3322.168977 0.7200 0.7199 0.7198 0.7196 0.7195
3327.182303 0.7194 0.7193 0.7191 0.7190 0.7188
3332.195629 0.7184 0.7180 0.7177 0.7173 0.7169
3337.208955 0.7165 0.7161 0.7157 0.7153 0.7149
3342.222281 0.7145 0.7141 0.7137 0.7133 0.7130
3347.235608 0.7126 0.7122 0.7118 0.7114 0.7110
3352.248934 0.7106 0.7102 0.7098 0.7094 0.7090
3357.262260 0.7086 0.7082 0.7079 0.7075 0.7069
3362.275586 0.7064 0.7058 0.7053 0.7047 0.7042
3367.288913 0.7036 0.7031 0.7025 0.7020 0.7014
3372.302239 0.7008 0.7003 0.6997 0.6992 0.6987
3377.315565 0.6981 0.6976 0.6970 0.6965 0.6960
3382.328891 0.6956 0.6952 0.6948 0.6944 0.6940
3387.342217 0.6935 0.6931 0.6927 0.6923 0.6919
3392.355544 0.6915 0.6910 0.6906 0.6902 0.6898
3397.368870 0.6895 0.6893 0.6891 0.6889 0.6887
3402.382196 0.6885 0.6882 0.6880 0.6878 0.6876
3407.395522 0.6874 0.6872 0.6869 0.6867 0.6865
3412.408849 0.6863 0.6861 0.6859 0.6858 0.6856
3417.422175 0.6861 0.6861 0.6850 0.6848 0.6846
3422.435501 0.6844 0.6843 0.6844 0.6847 0.6850
3427.448827 0.6854 0.6857 0.6860 0.6863 0.6866
3432.462154 0.6870 0.6873 0.6876 0.6879 0.6883
3437.475480 0.6886 0.6889 0.6892 0.6895 0.6899
3442.488806 0.6902 0.6905 0.6908 0.6912 0.6916
3447.502132 0.6919 0.6922 0.6925 0.6929 0.6932
3452.515458 0.6936 0.6939 0.6943 0.6946 0.6950
3457.528785 0.6954 0.6957 0.6961 0.6964 0.6968
3462.542111 0.6971 0.6975 0.6978 0.6982 0.6986
3467.555437 0.6989 0.6993 0.6996 0.7000 0.7003
3472.568763 0.7007 0.7011 0.7014 0.7018 0.7021
3477.582090 0.7025 0.7028 0.7032 0.7035 0.7039
3482.595416 0.7043 0.7046 0.7050 0.7054 0.7059
3487.608742 0.7063 0.7068 0.7073 0.7078 0.7083
3492.622068 0.7087 0.7092 0.7097 0.7102 0.7107
3497.635394 0.7111 0.7116 0.7121 0.7126 0.7131
3502.648721 0.7135 0.7140 0.7145 0.7150 0.7155
3507.662047 0.7159 0.7164 0.7169 0.7174 0.7180
3512.675373 0.7187 0.7193 0.7200 0.7206 0.7212
3517.688699 0.7219 0.7225 0.7232 0.7238 0.7244
3522.702026 0.7251 0.7257 0.7264 0.7270 0.7277
3527.715352 0.7283 0.7289 0.7296 0.7302 0.7309
3532.728678 0.7315 0.7321 0.7328 0.7334 0.7341
3537.742004 0.7347 0.7353 0.7360 0.7367 0.7373
3542.755330 0.7380 0.7386 0.7393 0.7399 0.7405
3547.768657 0.7412 0.7418 0.7425 0.7431 0.7437
3552.781983 0.7444 0.7450 0.7457 0.7463 0.7470
3557.795309 0.7476 0.7482 0.7489 0.7495 0.7501
3562.808635 0.7508 0.7514 0.7521 0.7527 0.7533
3567.821962 0.7540 0.7546 0.7552 0.7559 0.7565
3572.835288 0.7572 0.7578 0.7584 0.7591 0.7598
3577.848614 0.7605 0.7613 0.7620 0.7627 0.7634
3582.861940 0.7641 0.7648 0.7655 0.7663 0.7670
3587.875267 0.7677 0.7684 0.7691 0.7698 0.7705
3592.888593 0.7713 0.7720 0.7727 0.7734 0.7741
3597.901919 0.7748 0.7755 0.7762 0.7770 0.7777
3602.915245 0.7785 0.7793 0.7801 0.7809 0.7817
3607.928571 0.7825 0.7833 0.7840 0.7848 0.7857
3612.941898 0.7865 0.7873 0.7880 0.7888 0.7896
3617.955224 0.7904 0.7912 0.7920 0.7928 0.7935
3622.968550 0.7943 0.7949 0.7955 0.7961 0.7967
3627.981876 0.7973 0.7979 0.7985 0.7991 0.7996
3632.995203 0.8002 0.8008 0.8014 0.8020 0.8026
3638.008529 0.8032 0.8038 0.8044 0.8050 0.8056
3643.021855 0.8059 0.8060 0.8062 0.8064 0.8065
3648.035181 0.8067 0.8069 0.8071 0.8072 0.8074
3653.048507 0.8076 0.8077 0.8079 0.8081 0.8082
3658.061834 0.8084 0.8086 0.8087 0.8089 0.8091
3663.075160 0.8092 0.8094 0.8095 0.8096 0.8097
3668.088486 0.8098 0.8099 0.8100 0.8101 0.8102
3673.101812 0.8103 0.8104 0.8105 0.8106 0.8107
3678.115139 0.8108 0.8109 0.8110 0.8111 0.8114
3683.128465 0.8116 0.8119 0.8122 0.8125 0.8128
3688.141791 0.8130 0.8133 0.8136 0.8139 0.8142
3693.155117 0.8144 0.8147 0.8150 0.8153 0.8156
3698.168443 0.8159 0.8163 0.8166 0.8169 0.8172
3703.181770 0.8176 0.8179 0.8182 0.8185 0.8189
3708.195096 0.8192 0.8195 0.8198 0.8202 0.8205
3713.208422 0.8208 0.8211 0.8215 0.8218 0.8221
3718.221748 0.8224 0.8228 0.8231 0.8234 0.8236
3723.235075 0.8237 0.8239 0.8241 0.8243 0.8244
3728.248401 0.8246 0.8248 0.8250 0.8252 0.8254
3733.261727 0.8256 0.8257 0.8259 0.8261 0.8263
3738.275053 0.8264 0.8266 0.8268 0.8270 0.8272
3743.288380 0.8273 0.8275 0.8277 0.8279 0.8280
3748.301706 0.8282 0.8284 0.8286 0.8287 0.8289
3753.315032 0.8291 0.8293 0.8294 0.8295 0.8296
3758.328358 0.8298 0.8299 0.8300 0.8301 0.8302
3763.341684 0.8303 0.8304 0.8305 0.8306 0.8307
3768.355011 0.8308 0.8309 0.8310 0.8311 0.8312
3773.368337 0.8313 0.8314 0.8315 0.8316 0.8317
3778.381663 0.8319 0.8320 0.8321 0.8322 0.8323
3783.394989 0.8324 0.8325 0.8326 0.8327 0.8328
3788.408316 0.8329 0.8330 0.8331 0.8332 0.8333
3793.421642 0.8334 0.8335 0.8336 0.8337 0.8338
3798.434968 0.8340 0.8341 0.8342 0.8343 0.8344
3803.448294 0.8345 0.8345 0.8346 0.8346 0.8347
3808.461620 0.8347 0.8347 0.8348 0.8348 0.8348
3813.474947 0.8349 0.8349 0.8350 0.8350 0.8350
3818.488273 0.8351 0.8351 0.8351 0.8352 0.8353
3823.501599 0.8353 0.8353 0.8354 0.8354 0.8354
3828.514925 0.8355 0.8355 0.8356 0.8356 0.8356
3833.528252 0.8357 0.8357 0.8357 0.8358 0.8358
3838.541578 0.8358 0.8359 0.8359 0.8360 0.8360
3843.554904 0.8360 0.8361 0.8361 0.8361 0.8362
3848.568230 0.8362 0.8363 0.8363 0.8363 0.8364
3853.581557 0.8364 0.8364 0.8365 0.8365 0.8365
3858.594883 0.8365 0.8365 0.8365 0.8365 0.8365
3863.608209 0.8365 0.8365 0.8365 0.8365 0.8366
3868.621535 0.8366 0.8366 0.8366 0.8366 0.8366
3873.634861 0.8366 0.8366 0.8366 0.8366 0.8366
3878.648188 0.8366 0.8366 0.8366 0.8367 0.8367
3883.661514 0.8367 0.8367 0.8367 0.8367 0.8367
3888.674840 0.8367 0.8367 0.8367 0.8367 0.8365
3893.688166 0.8366 0.8368 0.8368 0.8368 0.8368
3898.701493 0.8368 0.8368 0.8368 0.8368 0.8368
3903.714819 0.8368 0.8368 0.8369 0.8369 0.8369
3908.728145 0.8369 0.8370 0.8370 0.8370 0.8371
3913.741471 0.8371 0.8371 0.8371 0.8372 0.8372
3918.754797 0.8372 0.8373 0.8373 0.8373 0.8373
3923.768124 0.8374 0.8374 0.8374 0.8374 0.8375
3928.781450 0.8375 0.8375 0.8376 0.8376 0.8376
3933.794776 0.8376 0.8377 0.8377 0.8377 0.8378
3938.808102 0.8378 0.8378 0.8378 0.8379 0.8379
3943.821429 0.8379 0.8379 0.8380 0.8380 0.8380
3948.834755 0.8380 0.8381 0.8381 0.8381 0.8381
3953.848081 0.8381 0.8382 0.8382 0.8382 0.8382
3958.861407 0.8383 0.8383 0.8383 0.8383 0.8383
3963.874733 0.8384 0.8384 0.8384 0.8384 0.8385
3968.888060 0.8386 0.8389 0.8391 0.8394 0.8396
3973.901386 0.8398 0.8401 0.8403 0.8406 0.8408
3978.914712 0.8410 0.8413 0.8415 0.8417 0.8420
3983.928038 0.8422 0.8425 0.8427 0.8429 0.8432
3988.941365 0.8433 0.8433 0.8433 0.8434 0.8434
3993.954691 0.8434 0.8434 0.8435 0.8435 0.8435
3998.968017 0.8435 0.8436 0.8436 0.8436 0.8436
4003.981343 0.8437 0.8437 0.8437 0.8437 0.8438
4008.994670 0.8438 0.8438
##END=
