##TITLE=PHOSPHONIC ACID, CHLORO, CYCLIC 2-ETHYL-2-HYDROXY-METHYLTRIMETHYLENE ESTER
$$ WESTON CHEM.
##JCAMP-DX=4.24
##DATA TYPE=INFRARED SPECTRUM
##CLASS=COBLENTZ
##ORIGIN=TENNESSEE EASTMAN COMPANY, RESEARCH LABORATORIES
##OWNER=COBLENTZ SOCIETY
Collection (C) 2018 copyright by the U.S. Secretary of Commerce
on behalf of the United States of America. All rights reserved.
##DATE=Not specified, most likely prior to 1970
##NAMES=(2-chloro-5-ethyl-2-oxido-1,3,2-dioxaphosphinan-5-yl)methanol
##MOLFORM=C6 H12 Cl O4 P
##SOURCE REFERENCE=COBLENTZ NO. 1546
##$NIST ID=B6001546
##$NIST SOURCE=COBLENTZ
##$NIST IMAGE=cob1546
##SPECTROMETER/DATA SYSTEM=Not specified, most likely a prism, grating, or hybrid spectrometer.
##PATH LENGTH=SMEAR
##SAMPLING PROCEDURE=TRANSMISSION
##RESOLUTION=4
##DATA PROCESSING=DIGITIZED BY NIST FROM HARD COPY
##XUNITS=MICROMETERS
##YUNITS=TRANSMITTANCE
##XFACTOR=1.000000
##YFACTOR=1
##DELTAX=000.006806
##FIRSTX=1.986
##LASTX=15.9458
##FIRSTY=0.965
##MAXX=15.9458
##MINX=1.986
##MAXY=0.965
##MINY=0.15
##NPOINTS=2052
##XYDATA=(X++(Y..Y))
1.986000 0.9650 0.9640 0.9620 0.9620 0.9600
2.020047 0.9650 0.9640 0.9620 0.9620 0.9600
2.054000 0.9600 0.9580 0.9580 0.9580 0.9580
2.088047 0.9580 0.9580 0.9580 0.9580 0.9580
2.123000 0.9580 0.9580 0.9580 0.9580 0.9580
2.157047 0.9580 0.9580 0.9580 0.9580 0.9580
2.191000 0.9580 0.9580 0.9580 0.9580 0.9570
2.225047 0.9570 0.9530 0.9520 0.9500 0.9460
2.259000 0.9430 0.9410 0.9400 0.9400 0.9400
2.293047 0.9400 0.9400 0.9400 0.9400 0.9400
2.327000 0.9400 0.9400 0.9400 0.9400 0.9410
2.361047 0.9410 0.9430 0.9430 0.9430 0.9430
2.395000 0.9430 0.9450 0.9450 0.9450 0.9450
2.429047 0.9460 0.9460 0.9460 0.9480 0.9480
2.463000 0.9480 0.9480 0.9500 0.9500 0.9500
2.497047 0.9500 0.9500 0.9520 0.9520 0.9520
2.531000 0.9520 0.9520 0.9520 0.9520 0.9520
2.565047 0.9520 0.9520 0.9520 0.9520 0.9520
2.599000 0.9520 0.9520 0.9520 0.9520 0.9520
2.633047 0.9520 0.9520 0.9520 0.9520 0.9500
2.667000 0.9500 0.9500 0.9480 0.9480 0.9460
2.701047 0.9450 0.9430 0.9430 0.9410 0.9410
2.735000 0.9400 0.9380 0.9340 0.9280 0.9210
2.769047 0.9120 0.9040 0.8970 0.8900 0.8810
2.803000 0.8750 0.8690 0.8610 0.8540 0.8450
2.837047 0.8350 0.8130 0.8030 0.7910 0.7770
2.871000 0.7630 0.7460 0.7270 0.7050 0.6910
2.905047 0.6720 0.6430 0.6310 0.6230 0.6180
2.939000 0.6160 0.6160 0.6180 0.6310 0.6430
2.973047 0.6550 0.6620 0.6670 0.6780 0.6900
3.007000 0.7020 0.7120 0.7220 0.7320 0.7430
3.041047 0.7510 0.7600 0.7680 0.7770 0.7850
3.075000 0.7920 0.8010 0.8080 0.8130 0.8180
3.109047 0.8230 0.8280 0.8320 0.8350 0.8420
3.143000 0.8450 0.8490 0.8520 0.8570 0.8640
3.177047 0.8680 0.8710 0.8730 0.8750 0.8780
3.211000 0.8800 0.8830 0.8830 0.8850 0.8850
3.245047 0.8850 0.8850 0.8850 0.8850 0.8850
3.280000 0.8850 0.8830 0.8780 0.8730 0.8640
3.314047 0.8540 0.8420 0.7940 0.7670 0.7390
3.348000 0.6950 0.5870 0.5390 0.4530 0.4570
3.382047 0.4980 0.5130 0.5270 0.5420 0.5490
3.416000 0.5630 0.5800 0.5870 0.5900 0.5940
3.450047 0.5950 0.5990 0.6010 0.6350 0.6620
3.484000 0.6880 0.7290 0.7580 0.7800 0.7960
3.518047 0.8080 0.8150 0.8230 0.8320 0.8330
3.552000 0.8350 0.8390 0.8450 0.8510 0.8540
3.586047 0.8570 0.8560 0.8570 0.8590 0.8610
3.620000 0.8610 0.8630 0.8640 0.8660 0.8680
3.654047 0.8690 0.8710 0.8710 0.8730 0.8750
3.688000 0.8760 0.8760 0.8780 0.8800 0.8810
3.722047 0.8830 0.8850 0.8860 0.8880 0.8900
3.756000 0.8920 0.8920 0.8930 0.8930 0.8930
3.790047 0.8930 0.8950 0.8970 0.8970 0.8970
3.824000 0.8980 0.9000 0.9000 0.9000 0.9020
3.858047 0.9020 0.9040 0.9050 0.9050 0.9090
3.892000 0.9090 0.9100 0.9100 0.9100 0.9100
3.926047 0.9100 0.9120 0.9120 0.9140 0.9140
3.960000 0.9160 0.9160 0.9160 0.9160 0.9160
3.994047 0.9160 0.9160 0.9160 0.9140 0.9140
4.028000 0.9120 0.9120 0.9100 0.9070 0.9050
4.062047 0.9000 0.8950 0.8920 0.8860 0.8800
4.096000 0.8690 0.8610 0.8510 0.8420 0.8330
4.130047 0.8160 0.8110 0.8040 0.8010 0.7960
4.164000 0.7940 0.7920 0.7910 0.7890 0.7890
4.198047 0.7940 0.8110 0.8250 0.8320 0.8390
4.232000 0.8490 0.8570 0.8630 0.8660 0.8660
4.266047 0.8680 0.8690 0.8690 0.8710 0.8730
4.300000 0.8750 0.8750 0.8760 0.8810 0.8850
4.334047 0.8880 0.8930 0.8980 0.9040 0.9090
4.368000 0.9120 0.9160 0.9190 0.9220 0.9240
4.402047 0.9260 0.9280 0.9310 0.9310 0.9330
4.437000 0.9330 0.9340 0.9340 0.9360 0.9360
4.471047 0.9380 0.9380 0.9380 0.9380 0.9400
4.505000 0.9400 0.9400 0.9410 0.9410 0.9410
4.539047 0.9430 0.9430 0.9430 0.9430 0.9450
4.573000 0.9450 0.9450 0.9450 0.9450 0.9450
4.607047 0.9450 0.9450 0.9450 0.9450 0.9450
4.641000 0.9450 0.9450 0.9450 0.9450 0.9450
4.675047 0.9450 0.9450 0.9450 0.9450 0.9460
4.709000 0.9460 0.9460 0.9460 0.9460 0.9460
4.743047 0.9460 0.9460 0.9480 0.9480 0.9480
4.777000 0.9480 0.9480 0.9480 0.9480 0.9480
4.811047 0.9500 0.9500 0.9500 0.9500 0.9500
4.845000 0.9520 0.9520 0.9520 0.9530 0.9530
4.879047 0.9530 0.9530 0.9530 0.9530 0.9530
4.913000 0.9530 0.9530 0.9530 0.9530 0.9530
4.947047 0.9530 0.9530 0.9550 0.9550 0.9550
4.981000 0.9550 0.9570 0.9580 0.9600 0.9620
5.015047 0.9620 0.9620 0.9620 0.9620 0.9620
5.049000 0.9620 0.9620 0.9620 0.9620 0.9600
5.083047 0.9600 0.9600 0.9580 0.9580 0.9580
5.117000 0.9580 0.9570 0.9550 0.9550 0.9530
5.151047 0.9520 0.9520 0.9520 0.9500 0.9500
5.185000 0.9500 0.9500 0.9500 0.9500 0.9500
5.219047 0.9500 0.9500 0.9500 0.9500 0.9500
5.253000 0.9500 0.9500 0.9500 0.9500 0.9500
5.287047 0.9480 0.9480 0.9480 0.9460 0.9460
5.321000 0.9450 0.9450 0.9410 0.9410 0.9400
5.355047 0.9380 0.9380 0.9360 0.9360 0.9360
5.389000 0.9360 0.9380 0.9380 0.9410 0.9410
5.423047 0.9410 0.9410 0.9410 0.9410 0.9410
5.457000 0.9410 0.9410 0.9400 0.9400 0.9400
5.491047 0.9400 0.9380 0.9360 0.9340 0.9340
5.526000 0.9340 0.9340 0.9340 0.9340 0.9340
5.560047 0.9340 0.9340 0.9340 0.9340 0.9340
5.594000 0.9330 0.9330 0.9330 0.9330 0.9340
5.628047 0.9380 0.9400 0.9400 0.9400 0.9400
5.662000 0.9400 0.9400 0.9400 0.9400 0.9400
5.696047 0.9400 0.9400 0.9380 0.9380 0.9360
5.730000 0.9330 0.9310 0.9310 0.9310 0.9290
5.764047 0.9280 0.9280 0.9260 0.9280 0.9310
5.798000 0.9360 0.9400 0.9380 0.9360 0.9330
5.832047 0.9260 0.9220 0.9220 0.9260 0.9290
5.866000 0.9310 0.9290 0.9280 0.9240 0.9170
5.900047 0.9100 0.9070 0.9070 0.9070 0.9140
5.934000 0.9190 0.9190 0.9140 0.9100 0.9050
5.968047 0.9040 0.9040 0.9040 0.9020 0.9000
6.002000 0.8980 0.8950 0.8930 0.8920 0.8920
6.036047 0.8920 0.8920 0.8920 0.8900 0.8880
6.070000 0.8810 0.8710 0.8660 0.8660 0.8690
6.104047 0.8760 0.8800 0.8800 0.8760 0.8760
6.138000 0.8760 0.8800 0.8860 0.8900 0.8880
6.172047 0.8900 0.8920 0.8920 0.8930 0.9000
6.206000 0.9050 0.9100 0.9120 0.9160 0.9170
6.240047 0.9190 0.9220 0.9220 0.9240 0.9260
6.274000 0.9260 0.9280 0.9290 0.9310 0.9330
6.308047 0.9340 0.9340 0.9340 0.9330 0.9290
6.342000 0.9260 0.9220 0.9220 0.9220 0.9220
6.376047 0.9220 0.9220 0.9260 0.9240 0.9050
6.410000 0.9050 0.9070 0.9100 0.9210 0.9240
6.444047 0.9240 0.9240 0.9220 0.9160 0.9090
6.478000 0.9050 0.9040 0.9050 0.9100 0.9170
6.512047 0.9190 0.9210 0.9210 0.9190 0.9170
6.546000 0.9100 0.9050 0.9000 0.8980 0.9000
6.580047 0.9000 0.9000 0.9050 0.9050 0.9040
6.614000 0.8950 0.8900 0.8880 0.8860 0.8880
6.648047 0.8850 0.8760 0.8660 0.8520 0.8390
6.683000 0.8080 0.7680 0.7360 0.7070 0.6840
6.717047 0.6740 0.6330 0.6180 0.6090 0.5990
6.751000 0.5830 0.5540 0.5290 0.5100 0.4930
6.785047 0.4890 0.4880 0.4880 0.4890 0.5000
6.819000 0.5080 0.5150 0.5470 0.5900 0.6190
6.853047 0.6470 0.6550 0.6570 0.6600 0.6660
6.887000 0.6690 0.6710 0.6790 0.6950 0.7080
6.921047 0.7220 0.7310 0.7530 0.7700 0.7870
6.955000 0.7990 0.8110 0.8210 0.8280 0.8320
6.989047 0.8330 0.8370 0.8400 0.8420 0.8440
7.023000 0.8440 0.8440 0.8440 0.8440 0.8440
7.057047 0.8450 0.8450 0.8450 0.8450 0.8440
7.091000 0.8420 0.8370 0.8250 0.8230 0.8200
7.125047 0.8150 0.8060 0.7990 0.7840 0.7750
7.159000 0.7670 0.7580 0.7550 0.7480 0.7460
7.193047 0.7440 0.7460 0.7460 0.7580 0.7700
7.227000 0.7840 0.7960 0.8030 0.8060 0.8090
7.261047 0.8180 0.8230 0.8250 0.8280 0.8300
7.295000 0.8320 0.8330 0.8330 0.8330 0.8300
7.329047 0.8250 0.8200 0.8110 0.8060 0.8040
7.363000 0.8030 0.8040 0.8060 0.8080 0.8090
7.397047 0.8130 0.8160 0.8200 0.8210 0.8210
7.431000 0.8210 0.8210 0.8210 0.8200 0.8110
7.465047 0.8080 0.7990 0.7910 0.7870 0.7850
7.499000 0.7820 0.7770 0.7700 0.7630 0.7580
7.533047 0.7560 0.7530 0.7510 0.7480 0.7440
7.567000 0.7390 0.7320 0.7260 0.7170 0.7070
7.601047 0.6930 0.6810 0.6480 0.6280 0.6060
7.635000 0.5800 0.5460 0.5180 0.4570 0.4290
7.669047 0.4040 0.3760 0.3510 0.3060 0.2870
7.703000 0.2720 0.2580 0.2500 0.2340 0.2240
7.737047 0.2170 0.2080 0.2030 0.2020 0.1930
7.772000 0.1900 0.1880 0.1840 0.1840 0.1830
7.806047 0.1830 0.1830 0.1830 0.1830 0.1830
7.840000 0.1830 0.1840 0.1860 0.1900 0.1910
7.874047 0.1950 0.1980 0.2000 0.2030 0.2050
7.908000 0.2070 0.2070 0.2080 0.2120 0.2140
7.942047 0.2170 0.2220 0.2270 0.2320 0.2380
7.976000 0.2430 0.2510 0.2580 0.2680 0.2770
8.010047 0.2890 0.2990 0.3110 0.3230 0.3300
8.044000 0.3350 0.3490 0.3610 0.3750 0.3880
8.078047 0.4000 0.4140 0.4260 0.4400 0.4520
8.112000 0.4640 0.4740 0.4840 0.4980 0.5030
8.146047 0.5060 0.5170 0.5270 0.5350 0.5460
8.180000 0.5540 0.5630 0.5700 0.5800 0.5870
8.214047 0.5890 0.5920 0.5970 0.6020 0.6040
8.248000 0.6040 0.6040 0.6060 0.6070 0.6110
8.282047 0.6140 0.6160 0.6160 0.6060 0.6040
8.316000 0.6060 0.6060 0.6090 0.6130 0.6140
8.350047 0.6160 0.6160 0.6160 0.6180 0.6180
8.384000 0.6190 0.6190 0.6190 0.6210 0.6210
8.418047 0.6210 0.6210 0.6210 0.6210 0.6210
8.452000 0.6230 0.6250 0.6280 0.6330 0.6360
8.486047 0.6420 0.6430 0.6450 0.6470 0.6480
8.520000 0.6480 0.6500 0.6500 0.6500 0.6500
8.554047 0.6500 0.6500 0.6480 0.6480 0.6470
8.588000 0.6470 0.6450 0.6430 0.6420 0.6400
8.622047 0.6400 0.6400 0.6400 0.6420 0.6450
8.656000 0.6500 0.6540 0.6570 0.6570 0.6640
8.690047 0.6660 0.6670 0.6720 0.6740 0.6760
8.724000 0.6760 0.6760 0.6780 0.6780 0.6760
8.758047 0.6760 0.6740 0.6690 0.6570 0.6540
8.792000 0.6520 0.6450 0.6430 0.6420 0.6420
8.826047 0.6400 0.6400 0.6380 0.6360 0.6360
8.860000 0.6350 0.6330 0.6330 0.6300 0.6280
8.894047 0.6260 0.6250 0.6190 0.6090 0.6060
8.929000 0.6010 0.5970 0.5850 0.5780 0.5710
8.963047 0.5650 0.5590 0.5530 0.5440 0.5340
8.997000 0.5200 0.5010 0.4770 0.4620 0.4580
9.031047 0.4520 0.4480 0.4450 0.4450 0.4430
9.065000 0.4430 0.4430 0.4430 0.4430 0.4410
9.099047 0.4360 0.4280 0.4210 0.4120 0.4040
9.133000 0.3930 0.3830 0.3730 0.3630 0.3520
9.167047 0.3440 0.3330 0.3130 0.3030 0.2910
9.201000 0.2750 0.2680 0.2580 0.2500 0.2410
9.235047 0.2320 0.2260 0.2200 0.2140 0.2080
9.269000 0.2070 0.2000 0.1980 0.1980 0.1980
9.303047 0.1980 0.2000 0.2020 0.2050 0.2070
9.337000 0.2080 0.2100 0.2120 0.2140 0.2150
9.371047 0.2150 0.2170 0.2190 0.2190 0.2200
9.405000 0.2200 0.2220 0.2220 0.2240 0.2240
9.439047 0.2240 0.2240 0.2240 0.2240 0.2240
9.473000 0.2240 0.2240 0.2260 0.2260 0.2260
9.507047 0.2240 0.2240 0.2240 0.2240 0.2240
9.541000 0.2220 0.2220 0.2200 0.2190 0.2170
9.575047 0.2150 0.2140 0.2120 0.2080 0.2020
9.609000 0.1960 0.1950 0.1880 0.1830 0.1790
9.643047 0.1780 0.1760 0.1720 0.1710 0.1710
9.677000 0.1710 0.1710 0.1720 0.1740 0.1790
9.711047 0.1860 0.1900 0.1910 0.1950 0.1960
9.745000 0.1980 0.2020 0.2050 0.2070 0.2120
9.779047 0.2150 0.2150 0.2170 0.2200 0.2240
9.813000 0.2270 0.2290 0.2310 0.2320 0.2340
9.847047 0.2340 0.2380 0.2390 0.2440 0.2460
9.881000 0.2480 0.2500 0.2510 0.2530 0.2530
9.915047 0.2550 0.2550 0.2580 0.2610 0.2630
9.949000 0.2630 0.2630 0.2630 0.2610 0.2600
9.983047 0.2600 0.2580 0.2560 0.2550 0.2500
10.018000 0.2430 0.2410 0.2380 0.2340 0.2310
10.052047 0.2270 0.2240 0.2200 0.2150 0.2120
10.086000 0.2080 0.2070 0.2050 0.2030 0.2020
10.120047 0.1950 0.1910 0.1900 0.1860 0.1840
10.154000 0.1830 0.1790 0.1790 0.1780 0.1760
10.188047 0.1760 0.1740 0.1740 0.1710 0.1690
10.222000 0.1660 0.1640 0.1640 0.1600 0.1590
10.256047 0.1570 0.1550 0.1550 0.1540 0.1520
10.290000 0.1520 0.1500 0.1500 0.1500 0.1500
10.324047 0.1520 0.1520 0.1520 0.1520 0.1520
10.358000 0.1520 0.1540 0.1540 0.1570 0.1590
10.392047 0.1600 0.1640 0.1660 0.1670 0.1720
10.426000 0.1780 0.1840 0.1900 0.1980 0.2050
10.460047 0.2150 0.2260 0.2390 0.2530 0.2630
10.494000 0.2730 0.2820 0.2920 0.3030 0.3130
10.528047 0.3250 0.3320 0.3370 0.3470 0.3540
10.562000 0.3630 0.3710 0.3830 0.3900 0.3970
10.596047 0.4000 0.4050 0.4160 0.4220 0.4280
10.630000 0.4330 0.4380 0.4450 0.4480 0.4570
10.664047 0.4640 0.4700 0.4760 0.4820 0.4890
10.698000 0.4960 0.5000 0.5030 0.5110 0.5180
10.732047 0.5270 0.5340 0.5420 0.5530 0.5580
10.766000 0.5660 0.5770 0.5820 0.5870 0.5900
10.800047 0.5990 0.6020 0.6090 0.6180 0.6230
10.834000 0.6260 0.6300 0.6330 0.6380 0.6430
10.868047 0.6470 0.6480 0.6520 0.6540 0.6570
10.902000 0.6620 0.6640 0.6660 0.6670 0.6690
10.936047 0.6710 0.6720 0.6740 0.6740 0.6780
10.970000 0.6780 0.6790 0.6790 0.6790 0.6790
11.004047 0.6790 0.6790 0.6780 0.6760 0.6740
11.038000 0.6720 0.6710 0.6670 0.6660 0.6660
11.072047 0.6640 0.6620 0.6550 0.6540 0.6540
11.106000 0.6540 0.6520 0.6500 0.6480 0.6480
11.140047 0.6480 0.6470 0.6450 0.6450 0.6430
11.175000 0.6430 0.6420 0.6420 0.6400 0.6400
11.209047 0.6380 0.6360 0.6360 0.6360 0.6360
11.243000 0.6360 0.6360 0.6360 0.6350 0.6330
11.277047 0.6300 0.6300 0.6280 0.6280 0.6260
11.311000 0.6250 0.6250 0.6210 0.6180 0.6160
11.345047 0.6130 0.6110 0.6090 0.6060 0.6040
11.379000 0.6020 0.5990 0.5970 0.5940 0.5900
11.413047 0.5850 0.5820 0.5780 0.5770 0.5730
11.447000 0.5680 0.5630 0.5630 0.5580 0.5540
11.481047 0.5510 0.5440 0.5390 0.5350 0.5340
11.515000 0.5320 0.5290 0.5290 0.5250 0.5250
11.549047 0.5220 0.5220 0.5220 0.5220 0.5220
11.583000 0.5220 0.5220 0.5220 0.5230 0.5230
11.617047 0.5230 0.5230 0.5230 0.5230 0.5230
11.651000 0.5230 0.5230 0.5220 0.5220 0.5170
11.685047 0.5130 0.5060 0.5010 0.4890 0.4860
11.719000 0.4790 0.4740 0.4670 0.4580 0.4530
11.753047 0.4460 0.4400 0.4340 0.4280 0.4220
11.787000 0.4160 0.4090 0.4050 0.4040 0.3930
11.821047 0.3880 0.3860 0.3850 0.3830 0.3800
11.855000 0.3780 0.3750 0.3750 0.3730 0.3730
11.889047 0.3750 0.3750 0.3760 0.3800 0.3850
11.923000 0.3900 0.3930 0.4000 0.4050 0.4120
11.957047 0.4190 0.4260 0.4330 0.4400 0.4460
11.991000 0.4530 0.4600 0.4670 0.4770 0.4890
12.025047 0.4980 0.5000 0.5010 0.5050 0.5080
12.059000 0.5170 0.5270 0.5340 0.5410 0.5460
12.093047 0.5490 0.5560 0.5610 0.5680 0.5750
12.127000 0.5780 0.5800 0.5830 0.5890 0.5950
12.161047 0.5990 0.6020 0.6040 0.6060 0.6070
12.195000 0.6130 0.6140 0.6160 0.6180 0.6210
12.229047 0.6230 0.6230 0.6250 0.6260 0.6260
12.263000 0.6260 0.6260 0.6280 0.6280 0.6280
12.297047 0.6280 0.6280 0.6280 0.6260 0.6250
12.332000 0.6210 0.6160 0.6130 0.6070 0.6020
12.366047 0.5970 0.5920 0.5850 0.5800 0.5730
12.400000 0.5700 0.5630 0.5580 0.5490 0.5410
12.434047 0.5340 0.5250 0.5200 0.5130 0.5060
12.468000 0.5010 0.4890 0.4860 0.4810 0.4760
12.502047 0.4720 0.4690 0.4670 0.4650 0.4600
12.536000 0.4600 0.4580 0.4580 0.4580 0.4580
12.570047 0.4580 0.4580 0.4600 0.4600 0.4640
12.604000 0.4670 0.4700 0.4760 0.4790 0.4840
12.638047 0.4880 0.4890 0.4930 0.4960 0.5000
12.672000 0.5010 0.5050 0.5080 0.5110 0.5150
12.706047 0.5170 0.5200 0.5230 0.5250 0.5270
12.740000 0.5300 0.5320 0.5350 0.5370 0.5390
12.774047 0.5420 0.5440 0.5490 0.5540 0.5540
12.808000 0.5580 0.5610 0.5650 0.5680 0.5710
12.842047 0.5750 0.5780 0.5830 0.5900 0.5950
12.876000 0.6010 0.6040 0.6090 0.6140 0.6180
12.910047 0.6210 0.6260 0.6300 0.6350 0.6400
12.944000 0.6470 0.6520 0.6590 0.6620 0.6660
12.978047 0.6670 0.6690 0.6740 0.6780 0.6810
13.012000 0.6840 0.6900 0.6930 0.6980 0.7030
13.046047 0.7030 0.7070 0.7120 0.7150 0.7200
13.080000 0.7240 0.7260 0.7260 0.7270 0.7290
13.114047 0.7310 0.7320 0.7320 0.7340 0.7340
13.148000 0.7340 0.7360 0.7360 0.7360 0.7360
13.182047 0.7380 0.7380 0.7380 0.7380 0.7380
13.216000 0.7380 0.7380 0.7360 0.7340 0.7340
13.250047 0.7320 0.7320 0.7320 0.7320 0.7320
13.284000 0.7320 0.7320 0.7320 0.7320 0.7320
13.318047 0.7320 0.7320 0.7320 0.7320 0.7320
13.352000 0.7320 0.7320 0.7320 0.7320 0.7320
13.386047 0.7320 0.7320 0.7320 0.7320 0.7320
13.421000 0.7320 0.7310 0.7310 0.7290 0.7260
13.455047 0.7240 0.7220 0.7200 0.7170 0.7140
13.489000 0.7100 0.7080 0.7070 0.7070 0.7030
13.523047 0.7000 0.6930 0.6900 0.6880 0.6840
13.557000 0.6790 0.6740 0.6720 0.6670 0.6590
13.591047 0.6550 0.6540 0.6480 0.6420 0.6380
13.625000 0.6310 0.6280 0.6260 0.6230 0.6210
13.659047 0.6190 0.6180 0.6160 0.6140 0.6130
13.693000 0.6070 0.6060 0.6060 0.6040 0.6040
13.727047 0.6060 0.6070 0.6090 0.6110 0.6140
13.761000 0.6210 0.6230 0.6280 0.6330 0.6360
13.795047 0.6420 0.6470 0.6520 0.6590 0.6660
13.829000 0.6670 0.6690 0.6720 0.6790 0.6860
13.863047 0.6910 0.6950 0.7000 0.7020 0.7050
13.897000 0.7080 0.7140 0.7170 0.7220 0.7270
13.931047 0.7320 0.7340 0.7340 0.7380 0.7390
13.965000 0.7410 0.7430 0.7440 0.7460 0.7480
13.999047 0.7500 0.7510 0.7550 0.7560 0.7580
14.033000 0.7600 0.7610 0.7610 0.7630 0.7650
14.067047 0.7670 0.7670 0.7680 0.7700 0.7700
14.101000 0.7720 0.7720 0.7730 0.7730 0.7730
14.135047 0.7750 0.7750 0.7750 0.7770 0.7770
14.169000 0.7770 0.7790 0.7790 0.7790 0.7790
14.203047 0.7800 0.7800 0.7800 0.7800 0.7800
14.237000 0.7800 0.7820 0.7820 0.7820 0.7840
14.271047 0.7840 0.7840 0.7840 0.7840 0.7840
14.305000 0.7840 0.7840 0.7840 0.7840 0.7840
14.339047 0.7840 0.7850 0.7850 0.7870 0.7870
14.373000 0.7890 0.7890 0.7890 0.7910 0.7910
14.407047 0.7910 0.7910 0.7920 0.7920 0.7920
14.441000 0.7940 0.7940 0.7940 0.7940 0.7960
14.475047 0.7940 0.7940 0.7940 0.7940 0.7960
14.509000 0.7960 0.7960 0.7960 0.7960 0.7970
14.543047 0.7970 0.7970 0.7970 0.7970 0.7970
14.578000 0.7970 0.7990 0.7990 0.7990 0.8010
14.612047 0.8010 0.8010 0.8010 0.8010 0.8010
14.646000 0.8010 0.8010 0.8010 0.8010 0.8010
14.680047 0.8010 0.8010 0.8010 0.8010 0.8010
14.714000 0.8010 0.8010 0.8010 0.8010 0.8010
14.748047 0.8010 0.8010 0.8010 0.8010 0.8010
14.782000 0.7990 0.7990 0.7990 0.7990 0.7970
14.816047 0.7970 0.7970 0.7970 0.7960 0.7960
14.850000 0.7960 0.7940 0.7940 0.7920 0.7920
14.884047 0.7910 0.7870 0.7850 0.7850 0.7840
14.918000 0.7840 0.7840 0.7820 0.7800 0.7790
14.952047 0.7770 0.7770 0.7770 0.7770 0.7770
14.986000 0.7770 0.7770 0.7770 0.7770 0.7770
15.020047 0.7770 0.7770 0.7770 0.7770 0.7770
15.054000 0.7770 0.7770 0.7770 0.7750 0.7750
15.088047 0.7750 0.7750 0.7730 0.7730 0.7730
15.122000 0.7720 0.7700 0.7700 0.7680 0.7680
15.156047 0.7670 0.7670 0.7670 0.7670 0.7650
15.190000 0.7650 0.7650 0.7630 0.7630 0.7610
15.224047 0.7600 0.7600 0.7600 0.7600 0.7560
15.258000 0.7560 0.7560 0.7550 0.7550 0.7550
15.292047 0.7530 0.7530 0.7530 0.7510 0.7510
15.326000 0.7510 0.7500 0.7510 0.7500 0.7500
15.360047 0.7500 0.7480 0.7460 0.7460 0.7460
15.394000 0.7460 0.7460 0.7440 0.7440 0.7440
15.428047 0.7440 0.7430 0.7430 0.7430 0.7430
15.462000 0.7430 0.7430 0.7430 0.7430 0.7430
15.496047 0.7430 0.7430 0.7430 0.7430 0.7430
15.530000 0.7430 0.7410 0.7410 0.7410 0.7410
15.564047 0.7410 0.7410 0.7390 0.7390 0.7390
15.598000 0.7390 0.7390 0.7390 0.7380 0.7380
15.632047 0.7360 0.7360 0.7340 0.7340 0.7340
15.667000 0.7320 0.7320 0.7310 0.7310 0.7290
15.701047 0.7290 0.7270 0.7270 0.7260 0.7260
15.735000 0.7240 0.7240 0.7220 0.7220 0.7220
15.769047 0.7220 0.7200 0.7200 0.7200 0.7200
15.803000 0.7200 0.7190 0.7190 0.7190 0.7190
15.837047 0.7190 0.7170 0.7170 0.7170 0.7170
15.871000 0.7170 0.7150 0.7170 0.7170 0.7170
15.905047 0.7170 0.7170 0.7170 0.7170 0.7170
15.939000 0.7170 0.7170
##END=
