##TITLE=SODIUM TUNGSTATE
$$ C.P.
##JCAMP-DX=4.24
##DATA TYPE=INFRARED SPECTRUM
##CLASS=COBLENTZ
##ORIGIN=MELLON INSTITUTE
##OWNER=COBLENTZ SOCIETY
Collection (C) 2018 copyright by the U.S. Secretary of Commerce
on behalf of the United States of America. All rights reserved.
##DATE=Not specified, most likely prior to 1970
##MOLFORM=Na2 W O4  * 2 H2 O
##SOURCE REFERENCE=COBLENTZ NO. 481
##$NIST ID=B6000481
##$NIST SOURCE=COBLENTZ
##$NIST IMAGE=cob481
##SPECTROMETER/DATA SYSTEM=Not specified, most likely a prism, grating, or hybrid spectrometer.
##STATE=SOLID (NUJOL MULL)
##PATH LENGTH=
$$SPECTRAL CONTAMINATION DUE TO OIL AROUND 2900, 1450, 1380 CM^-^1
##SAMPLING PROCEDURE=TRANSMISSION
##RESOLUTION=4
##DATA PROCESSING=DIGITIZED BY NIST FROM HARD COPY
##XUNITS=MICROMETERS
##YUNITS=TRANSMITTANCE
##XFACTOR=1.000000
##YFACTOR=1
##DELTAX=000.006815
##FIRSTX=2.059
##LASTX=16.0039
##FIRSTY=0.816
##MAXX=16.0039
##MINX=2.059
##MAXY=0.975
##MINY=0.252
##NPOINTS=2047
##XYDATA=(X++(Y..Y))
2.059000 0.8160 0.8160 0.8160 0.8160 0.8180
2.093093 0.8180 0.8180 0.8190 0.8190 0.8180
2.128000 0.8180 0.8180 0.8180 0.8180 0.8180
2.162093 0.8190 0.8190 0.8190 0.8190 0.8190
2.196000 0.8190 0.8180 0.8180 0.8160 0.8180
2.230093 0.8180 0.8180 0.8190 0.8160 0.8160
2.264000 0.8160 0.8160 0.8160 0.8160 0.8160
2.298093 0.8160 0.8160 0.8140 0.8140 0.8140
2.332000 0.8140 0.8140 0.8140 0.8160 0.8140
2.366093 0.8140 0.8140 0.8130 0.8140 0.8130
2.400000 0.8130 0.8130 0.8110 0.8130 0.8130
2.434093 0.8130 0.8130 0.8140 0.8130 0.8130
2.468000 0.8130 0.8110 0.8110 0.8110 0.8090
2.502093 0.8090 0.8090 0.8070 0.8070 0.8070
2.537000 0.8070 0.8070 0.8070 0.8070 0.8070
2.571093 0.8070 0.8070 0.8070 0.8090 0.8090
2.605000 0.8090 0.8070 0.8090 0.8090 0.8110
2.639093 0.8110 0.8110 0.8130 0.8130 0.8140
2.673000 0.8130 0.8130 0.8130 0.8130 0.8130
2.707093 0.8130 0.8130 0.8130 0.8110 0.8110
2.741000 0.8110 0.8090 0.8070 0.8040 0.8040
2.775093 0.8020 0.8010 0.7990 0.7940 0.7900
2.809000 0.7850 0.7820 0.7780 0.7700 0.7590
2.843093 0.7440 0.7250 0.7060 0.6920 0.6820
2.877000 0.6740 0.6630 0.6460 0.6270 0.6140
2.911093 0.6000 0.5980 0.5570 0.5380 0.5210
2.945000 0.5110 0.4990 0.4730 0.4490 0.4230
2.979093 0.4030 0.3940 0.3480 0.3410 0.3340
3.014000 0.3250 0.3220 0.3190 0.3190 0.3200
3.048093 0.3250 0.3310 0.3490 0.3610 0.3840
3.082000 0.4130 0.4320 0.4560 0.4870 0.5230
3.116093 0.5350 0.5500 0.5690 0.6000 0.6030
3.150000 0.6240 0.6310 0.6410 0.6530 0.6600
3.184093 0.6770 0.6840 0.6920 0.7010 0.7040
3.218000 0.7100 0.7180 0.7230 0.7280 0.7340
3.252093 0.7390 0.7440 0.7470 0.7510 0.7540
3.286000 0.7580 0.7580 0.7590 0.7590 0.7580
3.320093 0.7470 0.7220 0.6680 0.5950 0.5210
3.354000 0.4810 0.4420 0.4230 0.3890 0.3610
3.388093 0.3530 0.3510 0.3530 0.3610 0.4230
3.423000 0.4490 0.4780 0.4990 0.5190 0.5310
3.457093 0.5420 0.5480 0.5420 0.5230 0.5210
3.491000 0.5230 0.5330 0.5860 0.6410 0.7010
3.525093 0.7340 0.7590 0.7710 0.7820 0.7920
3.559000 0.7990 0.8060 0.8130 0.8180 0.8210
3.593093 0.8250 0.8280 0.8310 0.8370 0.8400
3.627000 0.8400 0.8420 0.8430 0.8450 0.8450
3.661093 0.8450 0.8470 0.8470 0.8470 0.8470
3.695000 0.8490 0.8490 0.8490 0.8490 0.8500
3.729093 0.8500 0.8520 0.8520 0.8540 0.8540
3.763000 0.8540 0.8540 0.8550 0.8540 0.8570
3.797093 0.8570 0.8570 0.8570 0.8590 0.8590
3.831000 0.8590 0.8590 0.8590 0.8610 0.8610
3.865093 0.8610 0.8610 0.8610 0.8620 0.8620
3.900000 0.8620 0.8620 0.8620 0.8640 0.8640
3.934093 0.8640 0.8640 0.8640 0.8660 0.8660
3.968000 0.8660 0.8660 0.8660 0.8670 0.8670
4.002093 0.8670 0.8670 0.8670 0.8690 0.8690
4.036000 0.8690 0.8690 0.8690 0.8690 0.8730
4.070093 0.8730 0.8730 0.8730 0.8730 0.8740
4.104000 0.8740 0.8740 0.8740 0.8740 0.8740
4.138093 0.8740 0.8740 0.8740 0.8740 0.8760
4.172000 0.8740 0.8740 0.8740 0.8730 0.8710
4.206093 0.8710 0.8690 0.8670 0.8670 0.8660
4.240000 0.8660 0.8640 0.8610 0.8590 0.8570
4.274093 0.8550 0.8550 0.8540 0.8540 0.8520
4.309000 0.8500 0.8500 0.8500 0.8490 0.8490
4.343093 0.8470 0.8470 0.8470 0.8450 0.8450
4.377000 0.8450 0.8450 0.8450 0.8450 0.8470
4.411093 0.8470 0.8490 0.8490 0.8500 0.8520
4.445000 0.8540 0.8540 0.8540 0.8540 0.8540
4.479093 0.8540 0.8540 0.8540 0.8540 0.8520
4.513000 0.8520 0.8520 0.8520 0.8520 0.8520
4.547093 0.8520 0.8520 0.8520 0.8520 0.8520
4.581000 0.8520 0.8520 0.8520 0.8520 0.8520
4.615093 0.8540 0.8540 0.8550 0.8550 0.8570
4.649000 0.8570 0.8570 0.8590 0.8620 0.8620
4.683093 0.8640 0.8640 0.8660 0.8670 0.8670
4.717000 0.8690 0.8710 0.8710 0.8730 0.8730
4.751093 0.8730 0.8730 0.8740 0.8740 0.8740
4.786000 0.8780 0.8790 0.8790 0.8810 0.8830
4.820093 0.8830 0.8830 0.8830 0.8850 0.8850
4.854000 0.8860 0.8860 0.8860 0.8860 0.8880
4.888093 0.8880 0.8900 0.8900 0.8900 0.8910
4.922000 0.8910 0.8910 0.8930 0.8930 0.8930
4.956093 0.8930 0.8930 0.8950 0.8950 0.8950
4.990000 0.8950 0.8950 0.8970 0.8970 0.8970
5.024093 0.8970 0.8970 0.8980 0.8980 0.8980
5.058000 0.8980 0.8980 0.8980 0.9000 0.9000
5.092093 0.9000 0.9000 0.9000 0.9000 0.9000
5.126000 0.9000 0.9000 0.9000 0.9000 0.9000
5.160093 0.9020 0.9020 0.9020 0.9020 0.9020
5.195000 0.9020 0.9020 0.9020 0.9020 0.9020
5.229093 0.9030 0.9030 0.9030 0.9050 0.9030
5.263000 0.9030 0.9050 0.9050 0.9050 0.9050
5.297093 0.9050 0.9050 0.9050 0.9050 0.9050
5.331000 0.9050 0.9070 0.9070 0.9070 0.9070
5.365093 0.9070 0.9070 0.9070 0.9070 0.9070
5.399000 0.9070 0.9070 0.9070 0.9070 0.9070
5.433093 0.9070 0.9070 0.9070 0.9070 0.9070
5.467000 0.9070 0.9090 0.9090 0.9090 0.9090
5.501093 0.9090 0.9090 0.9100 0.9100 0.9100
5.535000 0.9100 0.9100 0.9100 0.9100 0.9100
5.569093 0.9120 0.9120 0.9120 0.9120 0.9120
5.603000 0.9120 0.9120 0.9140 0.9140 0.9140
5.637093 0.9140 0.9140 0.9140 0.9140 0.9140
5.672000 0.9140 0.9140 0.9140 0.9150 0.9150
5.706093 0.9150 0.9150 0.9150 0.9150 0.9150
5.740000 0.9150 0.9150 0.9150 0.9150 0.9150
5.774093 0.9150 0.9150 0.9170 0.9150 0.9150
5.808000 0.9140 0.9140 0.9120 0.9120 0.9120
5.842093 0.9100 0.9100 0.9090 0.9070 0.9070
5.876000 0.9030 0.9020 0.8980 0.8980 0.8860
5.910093 0.8810 0.8710 0.8620 0.8550 0.8500
5.944000 0.8430 0.8430 0.8370 0.8330 0.8310
5.978093 0.8300 0.8260 0.8250 0.8230 0.8210
6.012000 0.8190 0.8210 0.8230 0.8250 0.8280
6.046093 0.8430 0.8500 0.8550 0.8610 0.8640
6.081000 0.8670 0.8710 0.8740 0.8780 0.8830
6.115093 0.8850 0.8880 0.8910 0.8970 0.8980
6.149000 0.9020 0.9030 0.9030 0.9050 0.9090
6.183093 0.9120 0.9140 0.9150 0.9190 0.9210
6.217000 0.9220 0.9240 0.9260 0.9260 0.9290
6.251093 0.9310 0.9310 0.9340 0.9360 0.9360
6.285000 0.9360 0.9360 0.9340 0.9340 0.9340
6.319093 0.9340 0.9330 0.9330 0.9310 0.9310
6.353000 0.9310 0.9290 0.9290 0.9290 0.9270
6.387093 0.9270 0.9270 0.9270 0.9270 0.9270
6.421000 0.9260 0.9260 0.9260 0.9260 0.9260
6.455093 0.9260 0.9240 0.9240 0.9240 0.9240
6.489000 0.9240 0.9240 0.9240 0.9240 0.9240
6.523093 0.9240 0.9240 0.9240 0.9240 0.9240
6.558000 0.9240 0.9240 0.9240 0.9240 0.9240
6.592093 0.9240 0.9240 0.9240 0.9240 0.9240
6.626000 0.9240 0.9240 0.9240 0.9240 0.9240
6.660093 0.9240 0.9240 0.9240 0.9240 0.9240
6.694000 0.9240 0.9260 0.9260 0.9270 0.9270
6.728093 0.9270 0.9270 0.9270 0.9260 0.9240
6.762000 0.9220 0.9210 0.9150 0.9070 0.9020
6.796093 0.9000 0.8880 0.8780 0.8620 0.8570
6.830000 0.8370 0.8350 0.8310 0.8280 0.8250
6.864093 0.8210 0.8180 0.8180 0.8160 0.8160
6.898000 0.8140 0.8160 0.8180 0.8190 0.8230
6.932093 0.8260 0.8300 0.8380 0.8430 0.8490
6.967000 0.8520 0.8590 0.8610 0.8660 0.8690
7.001093 0.8740 0.8780 0.8810 0.8850 0.8880
7.035000 0.8910 0.8930 0.8950 0.8980 0.9000
7.069093 0.9020 0.9020 0.9030 0.9050 0.9050
7.103000 0.9050 0.9070 0.9070 0.9090 0.9100
7.137093 0.9100 0.9120 0.9140 0.9140 0.9150
7.171000 0.9150 0.9150 0.9150 0.9150 0.9140
7.205093 0.9090 0.9030 0.8980 0.8950 0.8900
7.239000 0.8850 0.8790 0.8780 0.8740 0.8730
7.273093 0.8730 0.8740 0.8760 0.8760 0.8780
7.307000 0.8810 0.8850 0.8860 0.8880 0.8900
7.341093 0.8910 0.8950 0.8970 0.9020 0.9050
7.375000 0.9070 0.9100 0.9120 0.9120 0.9140
7.409093 0.9150 0.9150 0.9170 0.9170 0.9190
7.444000 0.9210 0.9220 0.9220 0.9220 0.9240
7.478093 0.9240 0.9260 0.9260 0.9270 0.9290
7.512000 0.9290 0.9310 0.9310 0.9310 0.9310
7.546093 0.9330 0.9330 0.9360 0.9360 0.9360
7.580000 0.9380 0.9380 0.9390 0.9390 0.9390
7.614093 0.9410 0.9410 0.9410 0.9410 0.9410
7.648000 0.9410 0.9410 0.9410 0.9410 0.9410
7.682093 0.9430 0.9430 0.9430 0.9430 0.9430
7.716000 0.9430 0.9430 0.9450 0.9430 0.9430
7.750093 0.9430 0.9430 0.9450 0.9450 0.9450
7.784000 0.9460 0.9460 0.9460 0.9460 0.9480
7.818093 0.9480 0.9460 0.9480 0.9480 0.9480
7.853000 0.9480 0.9500 0.9500 0.9500 0.9510
7.887093 0.9510 0.9510 0.9510 0.9530 0.9510
7.921000 0.9510 0.9510 0.9510 0.9530 0.9530
7.955093 0.9530 0.9530 0.9530 0.9530 0.9530
7.989000 0.9530 0.9530 0.9530 0.9530 0.9550
8.023093 0.9550 0.9550 0.9550 0.9550 0.9550
8.057000 0.9550 0.9550 0.9550 0.9550 0.9550
8.091093 0.9550 0.9550 0.9570 0.9570 0.9570
8.125000 0.9570 0.9570 0.9570 0.9580 0.9580
8.159093 0.9580 0.9580 0.9580 0.9580 0.9580
8.193000 0.9580 0.9580 0.9580 0.9580 0.9580
8.227093 0.9580 0.9580 0.9580 0.9580 0.9580
8.261000 0.9580 0.9580 0.9580 0.9600 0.9600
8.295093 0.9600 0.9600 0.9600 0.9600 0.9600
8.330000 0.9600 0.9600 0.9600 0.9620 0.9620
8.364093 0.9620 0.9620 0.9620 0.9620 0.9620
8.398000 0.9620 0.9620 0.9620 0.9620 0.9630
8.432093 0.9630 0.9630 0.9630 0.9630 0.9650
8.466000 0.9650 0.9650 0.9650 0.9650 0.9650
8.500093 0.9650 0.9650 0.9650 0.9650 0.9650
8.534000 0.9650 0.9650 0.9650 0.9650 0.9650
8.568093 0.9650 0.9650 0.9650 0.9650 0.9650
8.602000 0.9650 0.9650 0.9650 0.9650 0.9650
8.636093 0.9650 0.9630 0.9630 0.9630 0.9630
8.670000 0.9630 0.9630 0.9630 0.9630 0.9630
8.704093 0.9630 0.9630 0.9620 0.9620 0.9620
8.739000 0.9620 0.9620 0.9620 0.9600 0.9600
8.773093 0.9600 0.9600 0.9600 0.9600 0.9600
8.807000 0.9600 0.9600 0.9600 0.9600 0.9600
8.841093 0.9580 0.9580 0.9580 0.9580 0.9580
8.875000 0.9570 0.9570 0.9570 0.9570 0.9570
8.909093 0.9570 0.9570 0.9570 0.9570 0.9570
8.943000 0.9570 0.9570 0.9570 0.9570 0.9570
8.977093 0.9570 0.9570 0.9570 0.9570 0.9570
9.011000 0.9570 0.9570 0.9570 0.9570 0.9570
9.045093 0.9570 0.9570 0.9570 0.9570 0.9570
9.079000 0.9570 0.9570 0.9570 0.9570 0.9570
9.113093 0.9570 0.9570 0.9550 0.9570 0.9570
9.147000 0.9570 0.9570 0.9570 0.9570 0.9570
9.181093 0.9570 0.9570 0.9570 0.9570 0.9570
9.216000 0.9570 0.9570 0.9570 0.9570 0.9570
9.250093 0.9580 0.9580 0.9580 0.9580 0.9580
9.284000 0.9580 0.9580 0.9580 0.9580 0.9580
9.318093 0.9580 0.9580 0.9580 0.9580 0.9580
9.352000 0.9580 0.9580 0.9580 0.9580 0.9580
9.386093 0.9580 0.9580 0.9580 0.9580 0.9580
9.420000 0.9580 0.9580 0.9580 0.9580 0.9580
9.454093 0.9580 0.9600 0.9600 0.9600 0.9600
9.488000 0.9600 0.9600 0.9600 0.9600 0.9600
9.522093 0.9600 0.9600 0.9600 0.9600 0.9600
9.556000 0.9600 0.9620 0.9620 0.9620 0.9630
9.590093 0.9630 0.9630 0.9630 0.9630 0.9630
9.625000 0.9630 0.9630 0.9630 0.9630 0.9630
9.659093 0.9630 0.9630 0.9630 0.9630 0.9630
9.693000 0.9630 0.9630 0.9630 0.9650 0.9650
9.727093 0.9650 0.9650 0.9650 0.9670 0.9670
9.761000 0.9670 0.9670 0.9670 0.9670 0.9670
9.795093 0.9670 0.9670 0.9670 0.9670 0.9670
9.829000 0.9670 0.9670 0.9670 0.9670 0.9670
9.863093 0.9670 0.9690 0.9690 0.9690 0.9690
9.897000 0.9690 0.9690 0.9690 0.9690 0.9690
9.931093 0.9690 0.9690 0.9690 0.9690 0.9690
9.965000 0.9690 0.9690 0.9690 0.9690 0.9690
9.999093 0.9690 0.9700 0.9700 0.9700 0.9700
10.033000 0.9700 0.9700 0.9700 0.9700 0.9720
10.067093 0.9720 0.9720 0.9720 0.9720 0.9720
10.102000 0.9720 0.9720 0.9740 0.9740 0.9740
10.136093 0.9740 0.9740 0.9740 0.9740 0.9740
10.170000 0.9740 0.9740 0.9740 0.9740 0.9740
10.204093 0.9740 0.9740 0.9740 0.9750 0.9750
10.238000 0.9750 0.9750 0.9750 0.9750 0.9750
10.272093 0.9750 0.9750 0.9750 0.9750 0.9750
10.306000 0.9750 0.9750 0.9750 0.9750 0.9750
10.340093 0.9750 0.9750 0.9750 0.9750 0.9750
10.374000 0.9750 0.9750 0.9750 0.9750 0.9750
10.408093 0.9750 0.9750 0.9750 0.9750 0.9750
10.442000 0.9750 0.9750 0.9750 0.9750 0.9750
10.476093 0.9750 0.9750 0.9750 0.9750 0.9750
10.511000 0.9750 0.9750 0.9750 0.9750 0.9750
10.545093 0.9750 0.9750 0.9750 0.9750 0.9750
10.579000 0.9750 0.9750 0.9750 0.9750 0.9750
10.613093 0.9750 0.9750 0.9750 0.9750 0.9740
10.647000 0.9740 0.9740 0.9750 0.9750 0.9750
10.681093 0.9750 0.9750 0.9750 0.9720 0.9700
10.715000 0.9700 0.9670 0.9650 0.9580 0.9530
10.749093 0.9480 0.9380 0.9270 0.9240 0.9190
10.783000 0.9170 0.9150 0.9150 0.9170 0.9190
10.817093 0.9210 0.9220 0.9240 0.9260 0.9260
10.851000 0.9260 0.9270 0.9290 0.9310 0.9330
10.885093 0.9330 0.9340 0.9360 0.9380 0.9380
10.919000 0.9390 0.9410 0.9410 0.9430 0.9450
10.953093 0.9450 0.9460 0.9460 0.9460 0.9460
10.988000 0.9500 0.9500 0.9480 0.9480 0.9480
11.022093 0.9480 0.9480 0.9480 0.9480 0.9460
11.056000 0.9460 0.9460 0.9460 0.9460 0.9460
11.090093 0.9450 0.9450 0.9450 0.9430 0.9430
11.124000 0.9410 0.9410 0.9390 0.9380 0.9380
11.158093 0.9360 0.9340 0.9340 0.9340 0.9330
11.192000 0.9270 0.9220 0.9190 0.9190 0.9120
11.226093 0.9070 0.9050 0.9020 0.9000 0.8980
11.260000 0.8910 0.8830 0.8780 0.8690 0.8550
11.294093 0.8470 0.8350 0.8210 0.8140 0.8040
11.328000 0.7990 0.7820 0.7710 0.7630 0.7540
11.362093 0.7440 0.7350 0.7270 0.7160 0.7030
11.397000 0.6990 0.6820 0.6700 0.6650 0.6580
11.431093 0.6510 0.6390 0.6240 0.6150 0.6000
11.465000 0.5880 0.5760 0.5620 0.5480 0.5360
11.499093 0.5190 0.5070 0.5000 0.4920 0.4780
11.533000 0.4690 0.4590 0.4520 0.4450 0.4370
11.567093 0.4350 0.4270 0.4160 0.4060 0.3990
11.601000 0.3800 0.3770 0.3700 0.3650 0.3600
11.635093 0.3490 0.3460 0.3390 0.3360 0.3310
11.669000 0.3250 0.3200 0.3170 0.3130 0.3130
11.703093 0.3130 0.3130 0.3130 0.3150 0.3150
11.737000 0.3130 0.3130 0.3130 0.3130 0.3130
11.771093 0.3130 0.3150 0.3150 0.3170 0.3170
11.805000 0.3170 0.3170 0.3170 0.3170 0.3170
11.839093 0.3170 0.3170 0.3170 0.3190 0.3190
11.874000 0.3190 0.3190 0.3190 0.3170 0.3150
11.908093 0.3150 0.3150 0.3130 0.3120 0.3100
11.942000 0.3070 0.3050 0.3030 0.3030 0.3010
11.976093 0.2980 0.2950 0.2930 0.2890 0.2860
12.010000 0.2830 0.2790 0.2740 0.2740 0.2710
12.044093 0.2690 0.2670 0.2650 0.2640 0.2620
12.078000 0.2620 0.2600 0.2600 0.2600 0.2590
12.112093 0.2550 0.2550 0.2530 0.2530 0.2530
12.146000 0.2530 0.2530 0.2530 0.2530 0.2520
12.180093 0.2530 0.2530 0.2530 0.2570 0.2620
12.214000 0.2620 0.2720 0.2770 0.2880 0.2950
12.248093 0.3050 0.3130 0.3220 0.3560 0.3650
12.283000 0.3700 0.3770 0.3870 0.3920 0.3970
12.317093 0.3990 0.4010 0.4030 0.4040 0.4060
12.351000 0.4080 0.4130 0.4150 0.4180 0.4210
12.385093 0.4250 0.4300 0.4330 0.4440 0.4570
12.419000 0.4690 0.4760 0.4830 0.4990 0.5180
12.453093 0.5260 0.5400 0.5550 0.5690 0.5790
12.487000 0.5980 0.6030 0.6150 0.6260 0.6320
12.521093 0.6500 0.6550 0.6650 0.6770 0.6840
12.555000 0.6890 0.6980 0.7030 0.7100 0.7150
12.589093 0.7180 0.7280 0.7340 0.7370 0.7400
12.623000 0.7440 0.7510 0.7530 0.7530 0.7580
12.657093 0.7650 0.7660 0.7710 0.7730 0.7780
12.691000 0.7830 0.7850 0.7890 0.7920 0.7940
12.725093 0.7970 0.7990 0.8010 0.8020 0.8040
12.760000 0.8040 0.8060 0.8090 0.8130 0.8160
12.794093 0.8180 0.8210 0.8210 0.8230 0.8250
12.828000 0.8250 0.8260 0.8280 0.8300 0.8310
12.862093 0.8350 0.8370 0.8380 0.8400 0.8400
12.896000 0.8420 0.8420 0.8420 0.8430 0.8430
12.930093 0.8430 0.8450 0.8450 0.8470 0.8470
12.964000 0.8470 0.8490 0.8490 0.8490 0.8500
12.998093 0.8500 0.8500 0.8540 0.8520 0.8540
13.032000 0.8540 0.8540 0.8550 0.8570 0.8570
13.066093 0.8570 0.8570 0.8550 0.8570 0.8570
13.100000 0.8590 0.8590 0.8590 0.8590 0.8610
13.134093 0.8590 0.8590 0.8610 0.8590 0.8610
13.169000 0.8610 0.8620 0.8620 0.8620 0.8620
13.203093 0.8640 0.8660 0.8660 0.8660 0.8660
13.237000 0.8670 0.8660 0.8670 0.8670 0.8670
13.271093 0.8670 0.8670 0.8690 0.8690 0.8690
13.305000 0.8690 0.8710 0.8730 0.8730 0.8730
13.339093 0.8730 0.8730 0.8730 0.8730 0.8740
13.373000 0.8740 0.8740 0.8740 0.8740 0.8760
13.407093 0.8760 0.8760 0.8760 0.8760 0.8760
13.441000 0.8760 0.8760 0.8760 0.8740 0.8740
13.475093 0.8740 0.8740 0.8740 0.8740 0.8740
13.509000 0.8740 0.8760 0.8760 0.8760 0.8760
13.543093 0.8760 0.8760 0.8740 0.8740 0.8740
13.577000 0.8740 0.8740 0.8740 0.8740 0.8740
13.611093 0.8740 0.8760 0.8740 0.8740 0.8740
13.646000 0.8740 0.8740 0.8740 0.8740 0.8740
13.680093 0.8740 0.8740 0.8740 0.8740 0.8740
13.714000 0.8740 0.8740 0.8740 0.8740 0.8740
13.748093 0.8740 0.8740 0.8740 0.8760 0.8760
13.782000 0.8760 0.8760 0.8760 0.8760 0.8760
13.816093 0.8740 0.8740 0.8740 0.8740 0.8740
13.850000 0.8730 0.8710 0.8730 0.8710 0.8710
13.884093 0.8710 0.8710 0.8690 0.8670 0.8670
13.918000 0.8670 0.8670 0.8670 0.8670 0.8660
13.952093 0.8660 0.8690 0.8690 0.8690 0.8670
13.986000 0.8670 0.8660 0.8660 0.8640 0.8640
14.020093 0.8620 0.8620 0.8610 0.8610 0.8570
14.055000 0.8550 0.8550 0.8550 0.8550 0.8540
14.089093 0.8540 0.8540 0.8520 0.8520 0.8520
14.123000 0.8520 0.8490 0.8490 0.8470 0.8450
14.157093 0.8430 0.8420 0.8420 0.8380 0.8370
14.191000 0.8350 0.8350 0.8330 0.8330 0.8330
14.225093 0.8310 0.8310 0.8310 0.8300 0.8280
14.259000 0.8280 0.8260 0.8250 0.8210 0.8210
14.293093 0.8210 0.8210 0.8190 0.8190 0.8190
14.327000 0.8180 0.8180 0.8160 0.8140 0.8140
14.361093 0.8130 0.8130 0.8110 0.8110 0.8090
14.395000 0.8090 0.8070 0.8070 0.8060 0.8060
14.429093 0.8040 0.8020 0.8020 0.8010 0.8010
14.463000 0.7990 0.7990 0.7970 0.7970 0.7950
14.497093 0.7950 0.7940 0.7940 0.7920 0.7900
14.532000 0.7900 0.7890 0.7890 0.7870 0.7870
14.566093 0.7870 0.7850 0.7830 0.7830 0.7820
14.600000 0.7800 0.7800 0.7780 0.7780 0.7780
14.634093 0.7770 0.7750 0.7750 0.7730 0.7730
14.668000 0.7710 0.7710 0.7710 0.7700 0.7700
14.702093 0.7680 0.7660 0.7660 0.7650 0.7650
14.736000 0.7650 0.7650 0.7630 0.7630 0.7610
14.770093 0.7610 0.7610 0.7590 0.7590 0.7590
14.804000 0.7580 0.7580 0.7560 0.7560 0.7540
14.838093 0.7540 0.7540 0.7530 0.7530 0.7530
14.872000 0.7510 0.7510 0.7510 0.7490 0.7490
14.906093 0.7490 0.7470 0.7470 0.7470 0.7460
14.941000 0.7460 0.7460 0.7460 0.7440 0.7440
14.975093 0.7440 0.7420 0.7420 0.7400 0.7420
15.009000 0.7400 0.7400 0.7390 0.7390 0.7390
15.043093 0.7390 0.7370 0.7370 0.7370 0.7370
15.077000 0.7370 0.7350 0.7350 0.7340 0.7340
15.111093 0.7340 0.7320 0.7320 0.7300 0.7300
15.145000 0.7280 0.7280 0.7270 0.7280 0.7270
15.179093 0.7250 0.7250 0.7250 0.7250 0.7250
15.213000 0.7250 0.7230 0.7230 0.7230 0.7230
15.247093 0.7220 0.7220 0.7220 0.7220 0.7200
15.281000 0.7220 0.7220 0.7220 0.7220 0.7220
15.315093 0.7200 0.7200 0.7200 0.7180 0.7180
15.349000 0.7180 0.7180 0.7180 0.7180 0.7180
15.383093 0.7160 0.7180 0.7150 0.7150 0.7150
15.418000 0.7150 0.7150 0.7150 0.7130 0.7130
15.452093 0.7150 0.7130 0.7130 0.7110 0.7110
15.486000 0.7110 0.7110 0.7110 0.7110 0.7110
15.520093 0.7110 0.7110 0.7110 0.7110 0.7110
15.554000 0.7100 0.7100 0.7100 0.7100 0.7100
15.588093 0.7100 0.7100 0.7100 0.7100 0.7100
15.622000 0.7100 0.7100 0.7080 0.7080 0.7080
15.656093 0.7080 0.7080 0.7080 0.7080 0.7080
15.690000 0.7080 0.7080 0.7080 0.7080 0.7080
15.724093 0.7060 0.7060 0.7060 0.7060 0.7060
15.758000 0.7060 0.7060 0.7060 0.7060 0.7060
15.792093 0.7060 0.7060 0.7060 0.7060 0.7060
15.827000 0.7040 0.7040 0.7040 0.7040 0.7040
15.861093 0.7040 0.7040 0.7040 0.7040 0.7040
15.895000 0.7040 0.7040 0.7040 0.7040 0.7040
15.929093 0.7030 0.7030 0.7030 0.7030 0.7030
15.963000 0.7030 0.7030 0.7030 0.7030 0.7030
15.997093 0.7030 0.7030
##END=
