##TITLE=4,4'-BIS[7-(1-AMINO-8-HYDROXY-2,4-DISULFO)-NAPHTHYLAZO]-3,3'-BITOLYL TETRASODIUM SALT
##JCAMP-DX=4.24
##DATA TYPE=INFRARED SPECTRUM
##CLASS=COBLENTZ
##ORIGIN=WYANDOTTE CHEMICALS CORP., WYANDOTTE, MICHIGAN, USA
##OWNER=COBLENTZ SOCIETY
Collection (C) 2018 copyright by the U.S. Secretary of Commerce
on behalf of the United States of America. All rights reserved.
##DATE=Not specified, most likely prior to 1970
##NAMES=EVANS BLUE
##MOLFORM=C34 H24 N6 O14 S4 Na4
##SOURCE REFERENCE=COBLENTZ NO. 3836
##$NIST ID=B6003836
##$NIST SOURCE=COBLENTZ
##$NIST IMAGE=cob3836
##SPECTROMETER/DATA SYSTEM=Not specified, most likely a prism, grating, or hybrid spectrometer.
##STATE=SOLID (MINERAL OIL MULL)
##PATH LENGTH=
$$SPECTRAL CONTAMINATION DUE TO OIL AROUND 2900 CM^-^1
##SAMPLING PROCEDURE=TRANSMISSION
##RESOLUTION=4
##DATA PROCESSING=DIGITIZED BY NIST FROM HARD COPY
##XUNITS=MICROMETERS
##YUNITS=TRANSMITTANCE
##XFACTOR=1.000000
##YFACTOR=1
##DELTAX=000.006203
##FIRSTX=2.019
##LASTX=15.9998
##FIRSTY=0.33
##MAXX=15.9998
##MINX=2.019
##MAXY=0.979
##MINY=0.023
##NPOINTS=2255
##XYDATA=(X++(Y..Y))
2.019000 0.3300 0.3300 0.3280 0.3300 0.3280
2.050028 0.3280 0.3280 0.3300 0.3300 0.3310
2.081000 0.3330 0.3330 0.3370 0.3390 0.3420
2.112028 0.3480 0.3500 0.3510 0.3530 0.3550
2.143000 0.3550 0.3550 0.3560 0.3580 0.3580
2.174028 0.3580 0.3580 0.3580 0.3560 0.3560
2.205000 0.3560 0.3560 0.3560 0.3550 0.3550
2.236028 0.3530 0.3530 0.3530 0.3530 0.3530
2.267000 0.3530 0.3530 0.3530 0.3530 0.3550
2.298028 0.3550 0.3550 0.3550 0.3560 0.3560
2.329000 0.3610 0.3650 0.3650 0.3670 0.3670
2.360028 0.3670 0.3680 0.3700 0.3720 0.3720
2.391000 0.3780 0.3820 0.3840 0.3860 0.3890
2.422028 0.3890 0.3900 0.3900 0.3900 0.3900
2.453000 0.3920 0.3920 0.3920 0.3930 0.3930
2.484028 0.3930 0.3930 0.3950 0.3950 0.3960
2.515000 0.3960 0.3980 0.4000 0.4010 0.4030
2.546028 0.4060 0.4070 0.4100 0.4130 0.4170
2.577000 0.4200 0.4290 0.4290 0.4310 0.4310
2.608028 0.4290 0.4290 0.4290 0.4310 0.4320
2.639000 0.4370 0.4410 0.4440 0.4440 0.4480
2.670028 0.4480 0.4440 0.4380 0.4230 0.4170
2.701000 0.4100 0.4010 0.3790 0.3500 0.3480
2.732028 0.3390 0.3370 0.3280 0.3080 0.2890
2.763000 0.2790 0.2580 0.2400 0.2380 0.2230
2.794028 0.2060 0.1890 0.1790 0.1760 0.1720
2.825000 0.1680 0.1670 0.1610 0.1550 0.1500
2.856028 0.1480 0.1440 0.1390 0.1370 0.1360
2.887000 0.1340 0.1310 0.1300 0.1300 0.1280
2.918028 0.1270 0.1240 0.1220 0.1170 0.1130
2.949000 0.1110 0.1110 0.1110 0.1110 0.1130
2.980028 0.1130 0.1130 0.1110 0.1110 0.1110
3.011000 0.1130 0.1160 0.1240 0.1280 0.1330
3.042028 0.1330 0.1360 0.1360 0.1340 0.1330
3.073000 0.1310 0.1300 0.1300 0.1330 0.1360
3.104028 0.1360 0.1360 0.1330 0.1310 0.1310
3.135000 0.1330 0.1480 0.1530 0.1560 0.1580
3.166028 0.1580 0.1590 0.1590 0.1610 0.1640
3.197000 0.1680 0.1720 0.1760 0.1810 0.1840
3.228028 0.1870 0.1920 0.1930 0.1930 0.1920
3.259000 0.1900 0.1890 0.1840 0.1790 0.1780
3.290028 0.1720 0.1650 0.1500 0.1310 0.1080
3.321000 0.0790 0.0710 0.0510 0.0380 0.0340
3.352028 0.0320 0.0290 0.0270 0.0270 0.0240
3.383000 0.0230 0.0230 0.0230 0.0230 0.0240
3.414028 0.0240 0.0270 0.0270 0.0310 0.0320
3.445000 0.0340 0.0340 0.0340 0.0350 0.0350
3.476028 0.0350 0.0350 0.0350 0.0370 0.0400
3.507000 0.0510 0.0600 0.0930 0.1310 0.1920
3.538028 0.2310 0.2600 0.2890 0.3170 0.3500
3.569000 0.3700 0.3780 0.3900 0.4100 0.4180
3.600028 0.4270 0.4370 0.4400 0.4460 0.4540
3.631000 0.4540 0.4490 0.4480 0.4480 0.4430
3.662028 0.4400 0.4320 0.4380 0.4460 0.4480
3.693000 0.4540 0.4600 0.4620 0.4660 0.4660
3.724028 0.4660 0.4680 0.4770 0.4830 0.4890
3.755000 0.4910 0.4930 0.4930 0.4910 0.4890
3.786028 0.4890 0.4930 0.4970 0.5000 0.5030
3.817000 0.5080 0.5110 0.5110 0.5190 0.5270
3.848028 0.5300 0.5310 0.5360 0.5370 0.5410
3.879000 0.5470 0.5470 0.5480 0.5480 0.5500
3.910028 0.5510 0.5530 0.5580 0.5590 0.5620
3.942000 0.5680 0.5720 0.5750 0.5760 0.5780
3.973028 0.5780 0.5790 0.5790 0.5790 0.5790
4.004000 0.5810 0.5870 0.5900 0.5930 0.5980
4.035028 0.5980 0.5980 0.5980 0.6000 0.6010
4.066000 0.6010 0.6010 0.6030 0.6030 0.6060
4.097028 0.6060 0.6090 0.6100 0.6100 0.6100
4.128000 0.6090 0.6090 0.6090 0.6090 0.6090
4.159028 0.6090 0.6090 0.6100 0.6130 0.6180
4.190000 0.6180 0.6180 0.6210 0.6210 0.6180
4.221028 0.6180 0.6170 0.6150 0.6010 0.5870
4.252000 0.5810 0.5810 0.5760 0.5790 0.5860
4.283028 0.5890 0.5960 0.6000 0.6000 0.6060
4.314000 0.6100 0.6120 0.6180 0.6210 0.6260
4.345028 0.6290 0.6380 0.6490 0.6620 0.6710
4.376000 0.6770 0.6790 0.6800 0.6800 0.6800
4.407028 0.6800 0.6800 0.6790 0.6770 0.6750
4.438000 0.6750 0.6720 0.6690 0.6680 0.6680
4.469028 0.6680 0.6680 0.6680 0.6680 0.6690
4.500000 0.6710 0.6710 0.6740 0.6740 0.6710
4.531028 0.6710 0.6690 0.6710 0.6740 0.6790
4.562000 0.6800 0.6830 0.6830 0.6830 0.6850
4.593028 0.6860 0.6860 0.6880 0.6880 0.6880
4.624000 0.6890 0.6910 0.6930 0.6970 0.6990
4.655028 0.7020 0.7110 0.7160 0.7170 0.7190
4.686000 0.7200 0.7220 0.7250 0.7270 0.7280
4.717028 0.7280 0.7280 0.7300 0.7300 0.7300
4.748000 0.7310 0.7310 0.7330 0.7390 0.7420
4.779028 0.7480 0.7500 0.7530 0.7560 0.7610
4.810000 0.7640 0.7650 0.7650 0.7670 0.7670
4.841028 0.7670 0.7650 0.7650 0.7670 0.7730
4.872000 0.7760 0.7790 0.7820 0.7870 0.7920
4.903028 0.7930 0.7980 0.7980 0.8000 0.8010
4.934000 0.8010 0.8070 0.8130 0.8200 0.8230
4.965028 0.8130 0.8130 0.8130 0.8170 0.8180
4.996000 0.8210 0.8260 0.8290 0.8310 0.8320
5.027028 0.8320 0.8340 0.8400 0.8430 0.8430
5.058000 0.8490 0.8570 0.8630 0.8680 0.8690
5.089028 0.8690 0.8690 0.8680 0.8680 0.8660
5.120000 0.8680 0.8710 0.8720 0.8740 0.8790
5.151028 0.8790 0.8790 0.8790 0.8790 0.8800
5.182000 0.8800 0.8820 0.8880 0.8910 0.8930
5.213028 0.8960 0.8970 0.8970 0.8970 0.8880
5.244000 0.8930 0.8970 0.8990 0.9020 0.9080
5.275028 0.9140 0.9190 0.9160 0.9160 0.9130
5.306000 0.9130 0.9160 0.9170 0.9170 0.9190
5.337028 0.9190 0.9170 0.9130 0.9030 0.9030
5.368000 0.9170 0.9220 0.9370 0.9420 0.9310
5.399028 0.9300 0.9300 0.9280 0.9240 0.9240
5.430000 0.9220 0.9170 0.9240 0.9270 0.9440
5.461028 0.9440 0.9410 0.9410 0.9300 0.9370
5.492000 0.9410 0.9500 0.9530 0.9580 0.9590
5.523028 0.9580 0.9580 0.9590 0.9590 0.9590
5.554000 0.9590 0.9590 0.9590 0.9590 0.9590
5.585028 0.9590 0.9640 0.9730 0.9790 0.9790
5.616000 0.9620 0.9620 0.9530 0.9530 0.9470
5.647028 0.9470 0.9480 0.9560 0.9560 0.9480
5.678000 0.9410 0.9390 0.9330 0.9240 0.9200
5.709028 0.9200 0.9200 0.9190 0.9190 0.9110
5.740000 0.9110 0.9100 0.9060 0.9060 0.9000
5.771028 0.8800 0.8600 0.8490 0.8200 0.8200
5.802000 0.8170 0.8150 0.7960 0.7790 0.7700
5.833028 0.7510 0.7410 0.7310 0.7270 0.7240
5.864000 0.7220 0.7220 0.7200 0.7060 0.6860
5.895028 0.6660 0.6490 0.6400 0.6380 0.6350
5.926000 0.6270 0.6180 0.6000 0.5870 0.5820
5.957028 0.5810 0.5790 0.5680 0.5470 0.5300
5.988000 0.5240 0.5110 0.4990 0.4860 0.4740
6.019028 0.4680 0.4650 0.4650 0.4650 0.4630
6.051000 0.4490 0.4270 0.4180 0.4120 0.4060
6.082028 0.4030 0.3810 0.3550 0.3270 0.3110
6.113000 0.3060 0.3000 0.2930 0.2880 0.3000
6.144028 0.3060 0.3160 0.3220 0.3270 0.3280
6.175000 0.3280 0.3250 0.3250 0.3220 0.3170
6.206028 0.3110 0.3060 0.3050 0.3030 0.2880
6.237000 0.2750 0.2680 0.2550 0.2370 0.2120
6.268028 0.2090 0.2040 0.1900 0.1860 0.1810
6.299000 0.1680 0.1560 0.1470 0.1390 0.1370
6.330028 0.1330 0.1330 0.1360 0.1370 0.1410
6.361000 0.1480 0.1580 0.1870 0.1930 0.1950
6.392028 0.1960 0.1980 0.2000 0.2010 0.2030
6.423000 0.2040 0.2070 0.2170 0.2370 0.2490
6.454028 0.2600 0.2800 0.2970 0.3110 0.3200
6.485000 0.3300 0.3310 0.3310 0.3360 0.3390
6.516028 0.3390 0.3390 0.3390 0.3360 0.3280
6.547000 0.3250 0.3080 0.2800 0.2660 0.2570
6.578028 0.2540 0.2320 0.2010 0.1700 0.1560
6.609000 0.1390 0.1280 0.1190 0.1110 0.1110
6.640028 0.1000 0.1000 0.1020 0.1020 0.1020
6.671000 0.1060 0.1100 0.1170 0.1200 0.1200
6.702028 0.1200 0.1200 0.1170 0.1170 0.1110
6.733000 0.1060 0.0990 0.0860 0.0750 0.0620
6.764028 0.0510 0.0490 0.0440 0.0440 0.0440
6.795000 0.0460 0.0460 0.0480 0.0490 0.0490
6.826028 0.0510 0.0510 0.0510 0.0520 0.0550
6.857000 0.0620 0.0660 0.0710 0.0860 0.1000
6.888028 0.1110 0.1170 0.1220 0.1250 0.1280
6.919000 0.1360 0.1480 0.1590 0.1700 0.1750
6.950028 0.1680 0.1670 0.1610 0.1560 0.1530
6.981000 0.1480 0.1420 0.1410 0.1410 0.1410
7.012028 0.1420 0.1440 0.1440 0.1450 0.1450
7.043000 0.1450 0.1470 0.1480 0.1510 0.1620
7.074028 0.1700 0.1790 0.1860 0.1980 0.2010
7.105000 0.2060 0.2170 0.2210 0.2260 0.2370
7.136028 0.2460 0.2510 0.2600 0.2710 0.2660
7.167000 0.2570 0.2510 0.2460 0.2130 0.1810
7.198028 0.1750 0.1590 0.1480 0.1310 0.1310
7.229000 0.1270 0.1270 0.1410 0.1560 0.1700
7.260028 0.2200 0.2510 0.2710 0.2910 0.2970
7.291000 0.3000 0.3110 0.3300 0.3590 0.3960
7.322028 0.4200 0.4660 0.4790 0.4820 0.4890
7.353000 0.4970 0.5000 0.4960 0.4960 0.4910
7.384028 0.4910 0.4880 0.4800 0.4710 0.4600
7.415000 0.4480 0.4400 0.4270 0.4170 0.4100
7.446028 0.3890 0.3780 0.3610 0.3470 0.3410
7.477000 0.3360 0.3270 0.3200 0.3170 0.3110
7.508028 0.3080 0.3020 0.3000 0.3100 0.3140
7.539000 0.3140 0.3100 0.3050 0.2970 0.2800
7.570028 0.2660 0.2660 0.2580 0.2490 0.2400
7.601000 0.2380 0.2290 0.2290 0.2380 0.2380
7.632028 0.2480 0.2690 0.2820 0.2890 0.3110
7.663000 0.3300 0.3500 0.3700 0.3780 0.3900
7.694028 0.4000 0.4260 0.4370 0.4490 0.4600
7.725000 0.4710 0.4820 0.4860 0.4880 0.4860
7.756028 0.4860 0.4850 0.4820 0.4790 0.4770
7.787000 0.4720 0.4710 0.4710 0.4690 0.4690
7.818028 0.4680 0.4680 0.4680 0.4660 0.4650
7.849000 0.4620 0.4600 0.4580 0.4490 0.4370
7.880028 0.4210 0.4120 0.4000 0.3900 0.3790
7.911000 0.3610 0.3510 0.3410 0.3250 0.3190
7.942028 0.3080 0.2990 0.2910 0.2820 0.2750
7.973000 0.2740 0.2580 0.2400 0.2210 0.2170
8.004028 0.2070 0.1960 0.1840 0.1810 0.1700
8.035000 0.1610 0.1510 0.1480 0.1470 0.1410
8.066028 0.1310 0.1300 0.1280 0.1270 0.1270
8.097000 0.1220 0.1200 0.1170 0.1140 0.1140
8.128028 0.1130 0.1130 0.1130 0.1130 0.1130
8.160000 0.1140 0.1140 0.1160 0.1160 0.1160
8.191028 0.1160 0.1160 0.1160 0.1160 0.1160
8.222000 0.1140 0.1160 0.1160 0.1140 0.1130
8.253028 0.1110 0.1110 0.1110 0.1110 0.1110
8.284000 0.1130 0.1130 0.1140 0.1140 0.1170
8.315028 0.1170 0.1190 0.1200 0.1220 0.1240
8.346000 0.1240 0.1240 0.1250 0.1250 0.1250
8.377028 0.1240 0.1220 0.1200 0.1200 0.1240
8.408000 0.1250 0.1270 0.1270 0.1300 0.1300
8.439028 0.1300 0.1310 0.1360 0.1360 0.1300
8.470000 0.1270 0.1220 0.1220 0.1250 0.1270
8.501028 0.1280 0.1300 0.1310 0.1300 0.1300
8.532000 0.1300 0.1300 0.1300 0.1300 0.1310
8.563028 0.1330 0.1340 0.1340 0.1340 0.1330
8.594000 0.1310 0.1300 0.1300 0.1310 0.1370
8.625028 0.1390 0.1410 0.1420 0.1470 0.1510
8.656000 0.1590 0.1620 0.1680 0.1700 0.1720
8.687028 0.1810 0.1900 0.2000 0.2090 0.2120
8.718000 0.2210 0.2310 0.2400 0.2510 0.2600
8.749028 0.2690 0.2800 0.2860 0.2970 0.3080
8.780000 0.3140 0.3270 0.3360 0.3410 0.3480
8.811028 0.3510 0.3560 0.3580 0.3670 0.3720
8.842000 0.3870 0.3900 0.3960 0.4000 0.4090
8.873028 0.4090 0.4000 0.4000 0.4000 0.3980
8.904000 0.3960 0.3890 0.3670 0.3580 0.3360
8.935028 0.3190 0.3100 0.3000 0.2930 0.2850
8.966000 0.2820 0.2800 0.2820 0.2850 0.2940
8.997028 0.3030 0.3220 0.3330 0.3610 0.3680
9.028000 0.3780 0.3810 0.3820 0.3820 0.3890
9.059028 0.4000 0.4010 0.4090 0.4120 0.4130
9.090000 0.4130 0.4170 0.4200 0.4210 0.4260
9.121028 0.4260 0.4230 0.4230 0.4230 0.4210
9.152000 0.4210 0.4210 0.4210 0.4230 0.4230
9.183028 0.4230 0.4210 0.4200 0.4170 0.4150
9.214000 0.4130 0.4100 0.4070 0.4000 0.3980
9.245028 0.3890 0.3790 0.3610 0.3420 0.3310
9.276000 0.3170 0.3000 0.2880 0.2690 0.2410
9.307028 0.2210 0.2010 0.2000 0.1870 0.1810
9.338000 0.1720 0.1620 0.1590 0.1530 0.1480
9.369028 0.1410 0.1370 0.1340 0.1310 0.1280
9.400000 0.1280 0.1280 0.1270 0.1250 0.1240
9.431028 0.1220 0.1170 0.1080 0.0930 0.0890
9.462000 0.0830 0.0820 0.0790 0.0770 0.0720
9.493028 0.0720 0.0660 0.0630 0.0620 0.0600
9.524000 0.0570 0.0570 0.0550 0.0570 0.0580
9.555028 0.0580 0.0620 0.0630 0.0650 0.0660
9.586000 0.0660 0.0660 0.0690 0.0720 0.0770
9.617028 0.0770 0.0790 0.0800 0.0820 0.0830
9.648000 0.0890 0.0970 0.0990 0.1020 0.1020
9.679028 0.1000 0.1000 0.0990 0.0970 0.0960
9.710000 0.0940 0.0940 0.0940 0.0960 0.0960
9.741028 0.0970 0.0990 0.0990 0.1020 0.1080
9.772000 0.1130 0.1130 0.1170 0.1270 0.1330
9.803028 0.1410 0.1410 0.1500 0.1510 0.1610
9.834000 0.1670 0.1720 0.1870 0.1980 0.2000
9.865028 0.2070 0.2120 0.2210 0.2290 0.2320
9.896000 0.2410 0.2480 0.2510 0.2520 0.2580
9.927028 0.2690 0.2770 0.2820 0.2830 0.2910
9.958000 0.3000 0.3110 0.3220 0.3270 0.3310
9.989028 0.3360 0.3370 0.3420 0.3450 0.3470
10.020000 0.3500 0.3500 0.3510 0.3510 0.3530
10.051028 0.3550 0.3560 0.3580 0.3610 0.3620
10.082000 0.3700 0.3730 0.3760 0.3790 0.3820
10.113028 0.3890 0.3920 0.3980 0.4010 0.4120
10.144000 0.4130 0.4210 0.4270 0.4310 0.4320
10.175028 0.4400 0.4430 0.4480 0.4510 0.4600
10.206000 0.4620 0.4630 0.4660 0.4680 0.4710
10.237028 0.4720 0.4720 0.4740 0.4790 0.4800
10.268000 0.4820 0.4880 0.4910 0.4930 0.4930
10.299028 0.4930 0.4940 0.4960 0.4990 0.5020
10.331000 0.5020 0.5080 0.5110 0.5130 0.5160
10.362028 0.5200 0.5220 0.5220 0.5220 0.5250
10.393000 0.5270 0.5310 0.5360 0.5370 0.5370
10.424028 0.5370 0.5410 0.5450 0.5480 0.5500
10.455000 0.5510 0.5550 0.5550 0.5550 0.5550
10.486028 0.5560 0.5560 0.5580 0.5590 0.5610
10.517000 0.5620 0.5680 0.5700 0.5720 0.5760
10.548028 0.5780 0.5780 0.5780 0.5780 0.5790
10.579000 0.5790 0.5790 0.5810 0.5840 0.5840
10.610028 0.5820 0.5820 0.5820 0.5820 0.5860
10.641000 0.5900 0.5980 0.5980 0.5920 0.5900
10.672028 0.5890 0.5870 0.5860 0.5820 0.5790
10.703000 0.5760 0.5750 0.5760 0.5760 0.5760
10.734028 0.5760 0.5760 0.5780 0.5730 0.5730
10.765000 0.5720 0.5720 0.5720 0.5720 0.5750
10.796028 0.5760 0.5780 0.5870 0.5900 0.5920
10.827000 0.5930 0.5980 0.6010 0.6060 0.6100
10.858028 0.6120 0.6180 0.6210 0.6270 0.6310
10.889000 0.6370 0.6430 0.6480 0.6520 0.6600
10.920028 0.6620 0.6630 0.6690 0.6720 0.6790
10.951000 0.6820 0.6860 0.6890 0.6930 0.6990
10.982028 0.7020 0.7050 0.7050 0.7060 0.7080
11.013000 0.7100 0.7110 0.7190 0.7220 0.7220
11.044028 0.7270 0.7280 0.7280 0.7280 0.7280
11.075000 0.7280 0.7280 0.7280 0.7280 0.7280
11.106028 0.7300 0.7300 0.7300 0.7300 0.7300
11.137000 0.7310 0.7310 0.7310 0.7300 0.7300
11.168028 0.7300 0.7300 0.7300 0.7300 0.7300
11.199000 0.7300 0.7280 0.7270 0.7270 0.7190
11.230028 0.7160 0.7160 0.7160 0.7110 0.7100
11.261000 0.7020 0.7000 0.6970 0.6910 0.6880
11.292028 0.6830 0.6800 0.6770 0.6740 0.6720
11.323000 0.6620 0.6510 0.6460 0.6400 0.6320
11.354028 0.6270 0.6230 0.6210 0.6180 0.6180
11.385000 0.6170 0.6170 0.6120 0.6090 0.6060
11.416028 0.6010 0.6010 0.6010 0.6000 0.5980
11.447000 0.5980 0.5920 0.5890 0.5780 0.5670
11.478028 0.5590 0.5500 0.5370 0.5310 0.5160
11.509000 0.5020 0.5000 0.4970 0.4970 0.4930
11.540028 0.4910 0.4970 0.4970 0.5000 0.5100
11.571000 0.5110 0.5200 0.5280 0.5420 0.5510
11.602028 0.5610 0.5700 0.5790 0.5860 0.5890
11.633000 0.5900 0.5900 0.5980 0.6010 0.6010
11.664028 0.6060 0.6060 0.6060 0.6060 0.6030
11.695000 0.6030 0.6010 0.6010 0.6000 0.6000
11.726028 0.5920 0.5900 0.5890 0.5890 0.5890
11.757000 0.5890 0.5890 0.5890 0.5870 0.5870
11.788028 0.5870 0.5860 0.5820 0.5790 0.5750
11.819000 0.5780 0.5790 0.5810 0.5820 0.5820
11.850028 0.5980 0.5890 0.5890 0.5890 0.5870
11.881000 0.5860 0.5860 0.5860 0.5860 0.5860
11.912028 0.5870 0.5870 0.5870 0.5870 0.5870
11.943000 0.5870 0.5870 0.5870 0.5870 0.5810
11.974028 0.5780 0.5730 0.5720 0.5720 0.5750
12.005000 0.5760 0.5790 0.5790 0.5790 0.5790
12.036028 0.5790 0.5780 0.5780 0.5780 0.5760
12.067000 0.5760 0.5720 0.5720 0.5680 0.5680
12.098028 0.5670 0.5650 0.5610 0.5580 0.5510
12.129000 0.5500 0.5480 0.5450 0.5410 0.5310
12.160028 0.5220 0.5170 0.5110 0.5080 0.4990
12.191000 0.4910 0.4890 0.4820 0.4660 0.4580
12.222028 0.4510 0.4460 0.4410 0.4340 0.4270
12.253000 0.4240 0.4240 0.4240 0.4240 0.4240
12.284028 0.4240 0.4240 0.4240 0.4230 0.4210
12.315000 0.4120 0.4090 0.4010 0.4010 0.4000
12.346028 0.3980 0.3980 0.3920 0.3900 0.3890
12.377000 0.3870 0.3820 0.3810 0.3780 0.3760
12.408028 0.3730 0.3680 0.3670 0.3670 0.3650
12.440000 0.3650 0.3640 0.3640 0.3650 0.3670
12.471028 0.3720 0.3790 0.3860 0.3920 0.4000
12.502000 0.4010 0.4100 0.4120 0.4120 0.4130
12.533028 0.4200 0.4200 0.4210 0.4210 0.4230
12.564000 0.4270 0.4310 0.4370 0.4370 0.4380
12.595028 0.4380 0.4410 0.4440 0.4480 0.4490
12.626000 0.4510 0.4520 0.4600 0.4620 0.4620
12.657028 0.4620 0.4620 0.4620 0.4620 0.4620
12.688000 0.4620 0.4620 0.4630 0.4630 0.4650
12.719028 0.4650 0.4650 0.4650 0.4660 0.4660
12.750000 0.4660 0.4660 0.4660 0.4680 0.4690
12.781028 0.4690 0.4690 0.4690 0.4710 0.4710
12.812000 0.4710 0.4720 0.4740 0.4750 0.4750
12.843028 0.4820 0.4850 0.4860 0.4890 0.4910
12.874000 0.4930 0.4960 0.4970 0.4990 0.5000
12.905028 0.5000 0.5060 0.5080 0.5080 0.5110
12.936000 0.5130 0.5160 0.5220 0.5220 0.5270
12.967028 0.5280 0.5280 0.5300 0.5300 0.5340
12.998000 0.5360 0.5390 0.5390 0.5390 0.5410
13.029028 0.5410 0.5420 0.5420 0.5450 0.5470
13.060000 0.5500 0.5510 0.5560 0.5590 0.5590
13.091028 0.5590 0.5590 0.5610 0.5610 0.5620
13.122000 0.5620 0.5620 0.5620 0.5620 0.5620
13.153028 0.5620 0.5620 0.5620 0.5670 0.5700
13.184000 0.5750 0.5720 0.5700 0.5680 0.5650
13.215028 0.5640 0.5620 0.5620 0.5640 0.5650
13.246000 0.5650 0.5650 0.5640 0.5620 0.5620
13.277028 0.5610 0.5590 0.5590 0.5580 0.5550
13.308000 0.5530 0.5510 0.5480 0.5450 0.5410
13.339028 0.5310 0.5270 0.5220 0.5200 0.5170
13.370000 0.5130 0.5110 0.5080 0.4990 0.4910
13.401028 0.4800 0.4620 0.4490 0.4430 0.4370
13.432000 0.4290 0.4180 0.4120 0.4010 0.3920
13.463028 0.3900 0.3860 0.3790 0.3720 0.3720
13.494000 0.3680 0.3620 0.3620 0.3620 0.3640
13.525028 0.3640 0.3670 0.3680 0.3720 0.3790
13.556000 0.3870 0.3920 0.3960 0.3980 0.4000
13.587028 0.4070 0.4070 0.4150 0.4200 0.4210
13.618000 0.4260 0.4290 0.4380 0.4410 0.4460
13.649028 0.4480 0.4490 0.4570 0.4580 0.4620
13.680000 0.4660 0.4680 0.4680 0.4680 0.4690
13.711028 0.4710 0.4770 0.4770 0.4770 0.4770
13.742000 0.4800 0.4820 0.4820 0.4830 0.4820
13.773028 0.4790 0.4770 0.4740 0.4720 0.4720
13.804000 0.4710 0.4680 0.4660 0.4660 0.4650
13.835028 0.4650 0.4630 0.4630 0.4630 0.4620
13.866000 0.4620 0.4630 0.4650 0.4660 0.4660
13.897028 0.4660 0.4680 0.4690 0.4720 0.4750
13.928000 0.4750 0.4720 0.4710 0.4690 0.4690
13.959028 0.4680 0.4680 0.4680 0.4680 0.4680
13.990000 0.4690 0.4720 0.4750 0.4820 0.4820
14.021028 0.4850 0.4860 0.4890 0.4930 0.4960
14.052000 0.4960 0.4990 0.5000 0.5020 0.5020
14.083028 0.5020 0.5020 0.5110 0.5130 0.5170
14.114000 0.5190 0.5200 0.5220 0.5220 0.5220
14.145028 0.5200 0.5200 0.5200 0.5190 0.5160
14.176000 0.5140 0.5110 0.5110 0.5100 0.5100
14.207028 0.5080 0.5080 0.5050 0.5020 0.5020
14.238000 0.5000 0.4990 0.4970 0.4970 0.4960
14.269028 0.4910 0.4880 0.4800 0.4770 0.4750
14.300000 0.4770 0.4770 0.4770 0.4770 0.4750
14.331028 0.4710 0.4620 0.4510 0.4460 0.4430
14.362000 0.4400 0.4310 0.4260 0.4230 0.4210
14.393028 0.4200 0.4120 0.4090 0.4030 0.3980
14.424000 0.3920 0.3790 0.3700 0.3620 0.3620
14.455028 0.3610 0.3500 0.3420 0.3370 0.3220
14.486000 0.3160 0.3110 0.3060 0.3000 0.3000
14.517028 0.3000 0.2970 0.2890 0.2820 0.2720
14.549000 0.2690 0.2620 0.2520 0.2510 0.2510
14.580028 0.2490 0.2490 0.2480 0.2480 0.2460
14.611000 0.2410 0.2380 0.2370 0.2350 0.2340
14.642028 0.2340 0.2350 0.2380 0.2410 0.2440
14.673000 0.2510 0.2510 0.2510 0.2510 0.2520
14.704028 0.2540 0.2570 0.2580 0.2600 0.2600
14.735000 0.2620 0.2660 0.2710 0.2790 0.2820
14.766028 0.2970 0.2990 0.2990 0.3000 0.3020
14.797000 0.3030 0.3050 0.3080 0.3110 0.3130
14.828028 0.3130 0.3140 0.3170 0.3170 0.3200
14.859000 0.3220 0.3270 0.3300 0.3360 0.3360
14.890028 0.3310 0.3300 0.3280 0.3270 0.3270
14.921000 0.3270 0.3270 0.3250 0.3220 0.3130
14.952028 0.3080 0.3060 0.3080 0.3080 0.3080
14.983000 0.3060 0.3060 0.3030 0.3020 0.3000
15.014028 0.3000 0.3000 0.2990 0.2910 0.2890
15.045000 0.2860 0.2850 0.2820 0.2790 0.2710
15.076028 0.2680 0.2660 0.2620 0.2570 0.2520
15.107000 0.2510 0.2510 0.2460 0.2400 0.2320
15.138028 0.2310 0.2290 0.2270 0.2260 0.2210
15.169000 0.2210 0.2200 0.2200 0.2200 0.2200
15.200028 0.2200 0.2200 0.2200 0.2200 0.2200
15.231000 0.2210 0.2210 0.2230 0.2230 0.2230
15.262028 0.2230 0.2260 0.2270 0.2310 0.2380
15.293000 0.2510 0.2520 0.2570 0.2570 0.2580
15.324028 0.2620 0.2660 0.2680 0.2710 0.2720
15.355000 0.2720 0.2770 0.2800 0.2860 0.2890
15.386028 0.2910 0.2910 0.2910 0.2940 0.2970
15.417000 0.3020 0.3030 0.3080 0.3110 0.3160
15.448028 0.3170 0.3200 0.3200 0.3190 0.3170
15.479000 0.3190 0.3190 0.3190 0.3170 0.3170
15.510028 0.3190 0.3170 0.3170 0.3160 0.3160
15.541000 0.3160 0.3170 0.3170 0.3170 0.3170
15.572028 0.3170 0.3140 0.3140 0.3130 0.3130
15.603000 0.3130 0.3110 0.3110 0.3110 0.3110
15.634028 0.3130 0.3130 0.3130 0.3130 0.3130
15.665000 0.3130 0.3130 0.3110 0.3110 0.3100
15.696028 0.3100 0.3100 0.3100 0.3100 0.3100
15.727000 0.3110 0.3110 0.3100 0.3100 0.3100
15.758028 0.3100 0.3100 0.3110 0.3110 0.3110
15.789000 0.3110 0.3130 0.3140 0.3140 0.3130
15.820028 0.3130 0.3130 0.3130 0.3160 0.3160
15.851000 0.3160 0.3170 0.3170 0.3170 0.3190
15.882028 0.3190 0.3200 0.3200 0.3220 0.3270
15.913000 0.3310 0.3310 0.3390 0.3390 0.3410
15.944028 0.3420 0.3420 0.3420 0.3420 0.3450
15.975000 0.3420 0.3420 0.3370 0.3370 0.3340
##END=
