##TITLE=1-CYANO-6(OR 8)-METHYL-2,3-PHTHALOYL-PYRROCOLINE
##JCAMP-DX=4.24
##DATA TYPE=INFRARED SPECTRUM
##CLASS=COBLENTZ
##ORIGIN=EASTMAN KODAK COMPANY, RESEARCH LABORATORIES, ROCHESTER, N.Y.
##OWNER=COBLENTZ SOCIETY
Collection (C) 2018 copyright by the U.S. Secretary of Commerce
on behalf of the United States of America. All rights reserved.
##DATE=Not specified, most likely prior to 1970
##MOLFORM=C18 H10 N2 O2
##MP=278 C
##SOURCE REFERENCE=COBLENTZ NO. 4432
##$NIST ID=B6004432
##$NIST SOURCE=COBLENTZ
##$NIST IMAGE=cob4432
##SPECTROMETER/DATA SYSTEM=Not specified, most likely a prism, grating, or hybrid spectrometer.
##STATE=SOLID (KBr PRESSING)
##PATH LENGTH=
$$ SEE J. ORG. CHEM., VOL. 28, PAGE 3502 (1963)
##SAMPLING PROCEDURE=TRANSMISSION
##RESOLUTION=4
##DATA PROCESSING=DIGITIZED BY NIST FROM HARD COPY
##XUNITS=MICROMETERS
##YUNITS=TRANSMITTANCE
##XFACTOR=1.000000
##YFACTOR=1
##DELTAX=000.006663
##FIRSTX=2.013
##LASTX=16
##FIRSTY=0.483
##MAXX=16
##MINX=2.013
##MAXY=0.88
##MINY=0.052
##NPOINTS=2100
##XYDATA=(X++(Y..Y))
2.013000 0.4830 0.4850 0.4860 0.4860 0.4880
2.046333 0.4880 0.4880 0.4900 0.4900 0.4900
2.080000 0.4900 0.4910 0.4910 0.4910 0.4910
2.113333 0.4930 0.4930 0.4930 0.4930 0.4950
2.147000 0.4960 0.4960 0.4980 0.5000 0.5000
2.180333 0.5010 0.5010 0.5030 0.5040 0.5040
2.213000 0.5060 0.5060 0.5060 0.5080 0.5080
2.246333 0.5090 0.5090 0.5090 0.5090 0.5090
2.280000 0.5110 0.5110 0.5110 0.5130 0.5130
2.313333 0.5140 0.5160 0.5160 0.5180 0.5190
2.347000 0.5190 0.5190 0.5190 0.5210 0.5220
2.380333 0.5240 0.5260 0.5260 0.5260 0.5260
2.413000 0.5270 0.5270 0.5290 0.5290 0.5310
2.446333 0.5310 0.5320 0.5320 0.5340 0.5340
2.480000 0.5360 0.5360 0.5360 0.5370 0.5370
2.513333 0.5390 0.5400 0.5400 0.5420 0.5420
2.546000 0.5440 0.5440 0.5450 0.5470 0.5490
2.579333 0.5500 0.5520 0.5520 0.5540 0.5540
2.613000 0.5550 0.5570 0.5570 0.5590 0.5600
2.646333 0.5600 0.5620 0.5630 0.5630 0.5650
2.680000 0.5650 0.5670 0.5670 0.5670 0.5680
2.713333 0.5680 0.5680 0.5680 0.5680 0.5680
2.746000 0.5670 0.5670 0.5670 0.5670 0.5670
2.779333 0.5650 0.5620 0.5600 0.5590 0.5570
2.813000 0.5540 0.5500 0.5470 0.5450 0.5440
2.846333 0.5420 0.5360 0.5320 0.5310 0.5270
2.880000 0.5260 0.5240 0.5220 0.5210 0.5190
2.913333 0.5180 0.5180 0.5160 0.5160 0.5160
2.946000 0.5160 0.5180 0.5190 0.5220 0.5260
2.979333 0.5290 0.5340 0.5370 0.5500 0.5590
3.013000 0.5600 0.5630 0.5650 0.5670 0.5680
3.046333 0.5680 0.5700 0.5700 0.5720 0.5720
3.079000 0.5730 0.5750 0.5750 0.5770 0.5770
3.112333 0.5780 0.5800 0.5810 0.5830 0.5830
3.146000 0.5850 0.5860 0.5880 0.5900 0.5910
3.179333 0.5910 0.5930 0.5930 0.5910 0.5900
3.213000 0.5880 0.5800 0.5680 0.5550 0.5420
3.246333 0.5400 0.5420 0.5450 0.5490 0.5500
3.279000 0.5520 0.5520 0.5540 0.5550 0.5570
3.312333 0.5600 0.5670 0.5750 0.5780 0.5800
3.346000 0.5830 0.5850 0.5880 0.5900 0.5900
3.379333 0.5930 0.5960 0.5980 0.6000 0.6000
3.413000 0.6000 0.5980 0.5950 0.5900 0.5880
3.446333 0.5880 0.5900 0.5960 0.6000 0.6010
3.479000 0.6040 0.6090 0.6090 0.6110 0.6110
3.512333 0.6110 0.6110 0.6130 0.6180 0.6220
3.546000 0.6290 0.6360 0.6400 0.6400 0.6420
3.579333 0.6440 0.6440 0.6440 0.6450 0.6450
3.613000 0.6450 0.6470 0.6470 0.6470 0.6490
3.646333 0.6500 0.6500 0.6520 0.6520 0.6520
3.679000 0.6540 0.6540 0.6550 0.6550 0.6570
3.712333 0.6570 0.6590 0.6600 0.6600 0.6620
3.746000 0.6620 0.6620 0.6630 0.6630 0.6650
3.779333 0.6650 0.6650 0.6670 0.6670 0.6670
3.812000 0.6680 0.6680 0.6680 0.6680 0.6680
3.845333 0.6680 0.6700 0.6720 0.6720 0.6730
3.879000 0.6750 0.6780 0.6780 0.6800 0.6810
3.912333 0.6830 0.6850 0.6850 0.6860 0.6880
3.946000 0.6880 0.6900 0.6910 0.6910 0.6910
3.979333 0.6910 0.6930 0.6950 0.6960 0.6960
4.012000 0.6960 0.6960 0.6980 0.6980 0.6980
4.045333 0.6980 0.7000 0.7000 0.7000 0.7000
4.079000 0.7000 0.7000 0.7000 0.7000 0.7010
4.112333 0.7040 0.7080 0.7090 0.7110 0.7110
4.146000 0.7130 0.7130 0.7160 0.7160 0.7160
4.179333 0.7160 0.7160 0.7180 0.7180 0.7180
4.212000 0.7190 0.7190 0.7190 0.7190 0.7190
4.245333 0.7190 0.7190 0.7190 0.7190 0.7190
4.279000 0.7190 0.7190 0.7190 0.7190 0.7190
4.312333 0.7190 0.7190 0.7190 0.7190 0.7210
4.346000 0.7220 0.7220 0.7290 0.7290 0.7310
4.379333 0.7320 0.7370 0.7400 0.7450 0.7470
4.412000 0.7470 0.7490 0.7490 0.7470 0.7440
4.445333 0.7370 0.7310 0.6910 0.4520 0.3130
4.479000 0.3140 0.4220 0.5420 0.6060 0.6370
4.512333 0.6550 0.6830 0.7000 0.7040 0.7080
4.545000 0.7110 0.7180 0.7210 0.7290 0.7310
4.578333 0.7320 0.7340 0.7360 0.7370 0.7400
4.612000 0.7420 0.7440 0.7470 0.7490 0.7500
4.645333 0.7500 0.7520 0.7520 0.7520 0.7540
4.679000 0.7540 0.7550 0.7550 0.7570 0.7590
4.712333 0.7590 0.7590 0.7600 0.7600 0.7600
4.745000 0.7600 0.7620 0.7620 0.7620 0.7630
4.778333 0.7630 0.7630 0.7650 0.7650 0.7670
4.812000 0.7680 0.7680 0.7680 0.7680 0.7700
4.845333 0.7700 0.7700 0.7700 0.7700 0.7720
4.879000 0.7720 0.7720 0.7720 0.7730 0.7730
4.912333 0.7750 0.7770 0.7770 0.7770 0.7770
4.945000 0.7780 0.7780 0.7780 0.7780 0.7780
4.978333 0.7780 0.7780 0.7780 0.7780 0.7780
5.012000 0.7780 0.7780 0.7780 0.7780 0.7800
5.045333 0.7800 0.7800 0.7800 0.7780 0.7780
5.079000 0.7780 0.7780 0.7780 0.7780 0.7780
5.112333 0.7780 0.7780 0.7780 0.7780 0.7780
5.145000 0.7780 0.7780 0.7780 0.7780 0.7780
5.178333 0.7780 0.7780 0.7780 0.7780 0.7780
5.212000 0.7800 0.7800 0.7800 0.7800 0.7810
5.245333 0.7850 0.7880 0.7900 0.7900 0.7910
5.278000 0.7930 0.7930 0.7930 0.7930 0.7930
5.311333 0.7930 0.7930 0.7930 0.7930 0.7930
5.345000 0.7950 0.7950 0.7950 0.7950 0.7950
5.378333 0.7950 0.7960 0.7960 0.7980 0.7980
5.412000 0.8000 0.8000 0.8010 0.8030 0.8030
5.445333 0.8030 0.8030 0.8030 0.8030 0.8030
5.478000 0.8030 0.8030 0.8040 0.8060 0.8060
5.511333 0.8080 0.8090 0.8090 0.8090 0.8090
5.545000 0.8090 0.8090 0.8090 0.8090 0.8090
5.578333 0.8090 0.8090 0.8090 0.8090 0.8090
5.612000 0.8090 0.8090 0.8090 0.8090 0.8090
5.645333 0.8090 0.8110 0.8090 0.8090 0.8090
5.678000 0.8090 0.8090 0.8090 0.8090 0.8090
5.711333 0.8090 0.8090 0.8090 0.8090 0.8090
5.745000 0.8090 0.8090 0.8090 0.8090 0.8090
5.778333 0.8090 0.8090 0.8090 0.8090 0.8090
5.812000 0.8090 0.8090 0.8090 0.8090 0.8090
5.845333 0.8090 0.8090 0.8090 0.8090 0.8090
5.878000 0.8090 0.8080 0.8080 0.8080 0.8030
5.911333 0.8010 0.8000 0.7910 0.7830 0.7750
5.945000 0.7600 0.7260 0.6650 0.5670 0.5540
5.978333 0.4440 0.3930 0.3440 0.2180 0.2140
6.011000 0.2180 0.2500 0.2910 0.3060 0.3210
6.044333 0.3220 0.3220 0.3210 0.3060 0.2910
6.078000 0.2570 0.2220 0.2010 0.1830 0.1810
6.111333 0.1830 0.2060 0.2370 0.2770 0.3110
6.145000 0.3520 0.3810 0.4140 0.4390 0.4570
6.178333 0.4730 0.4860 0.5000 0.5180 0.5400
6.211000 0.5700 0.5910 0.6030 0.6040 0.6030
6.244333 0.5910 0.5700 0.5540 0.5110 0.4450
6.278000 0.3960 0.3550 0.3260 0.3030 0.3010
6.311333 0.3030 0.3260 0.3520 0.3810 0.4110
6.345000 0.4420 0.4670 0.4860 0.4960 0.5080
6.378333 0.5260 0.5310 0.5500 0.5670 0.5860
6.411000 0.6060 0.6240 0.6290 0.6290 0.6310
6.444333 0.6310 0.6320 0.6390 0.6400 0.6490
6.478000 0.6520 0.6540 0.6550 0.6550 0.6550
6.511333 0.6550 0.6540 0.6520 0.6500 0.6420
6.545000 0.6320 0.6160 0.6040 0.5860 0.5720
6.578333 0.5550 0.5440 0.5140 0.4810 0.4470
6.611000 0.4090 0.3770 0.3630 0.3570 0.3500
6.644333 0.3360 0.3210 0.2980 0.2700 0.2680
6.678000 0.2700 0.2770 0.2910 0.3080 0.3270
6.711333 0.3470 0.3700 0.3910 0.4210 0.4520
6.744000 0.4810 0.5060 0.5310 0.5390 0.5390
6.777333 0.5340 0.5290 0.5240 0.5220 0.5190
6.811000 0.5180 0.5160 0.5180 0.5220 0.5320
6.844333 0.5550 0.5720 0.5900 0.5910 0.5930
6.878000 0.5960 0.5960 0.5960 0.5960 0.5980
6.911333 0.5980 0.6010 0.6090 0.6180 0.6290
6.944000 0.6390 0.6490 0.6520 0.6590 0.6590
6.977333 0.6590 0.6590 0.6590 0.6620 0.6650
7.011000 0.6700 0.6730 0.6780 0.6800 0.6810
7.044333 0.6810 0.6810 0.6800 0.6800 0.6800
7.078000 0.6800 0.6800 0.6800 0.6800 0.6800
7.111333 0.6780 0.6780 0.6700 0.6550 0.6400
7.144000 0.6210 0.6010 0.5810 0.5650 0.5500
7.177333 0.5360 0.5310 0.5090 0.4880 0.4550
7.211000 0.4140 0.3780 0.3500 0.3210 0.3030
7.244333 0.2910 0.2900 0.2910 0.3140 0.3420
7.277000 0.3850 0.4220 0.4590 0.4900 0.5190
7.310333 0.5470 0.5750 0.6010 0.6260 0.6450
7.344000 0.6650 0.6810 0.6960 0.7090 0.7110
7.377333 0.7130 0.7130 0.7140 0.7180 0.7190
7.411000 0.7220 0.7290 0.7360 0.7400 0.7420
7.444333 0.7490 0.7500 0.7490 0.7420 0.7370
7.477000 0.7160 0.6960 0.6770 0.6600 0.6420
7.510333 0.6400 0.6400 0.6490 0.6600 0.6720
7.544000 0.6860 0.6960 0.7090 0.7090 0.7110
7.577333 0.7090 0.7040 0.6950 0.6750 0.6620
7.611000 0.6320 0.6160 0.6010 0.5770 0.5700
7.644333 0.5680 0.5680 0.5680 0.5700 0.5800
7.677000 0.5830 0.5960 0.6030 0.6090 0.6090
7.710333 0.6030 0.5960 0.5770 0.5520 0.5320
7.744000 0.5010 0.4800 0.4680 0.4670 0.4700
7.777333 0.4880 0.5000 0.5240 0.5590 0.5960
7.811000 0.6320 0.6620 0.6750 0.6850 0.6960
7.844333 0.7110 0.7210 0.7290 0.7310 0.7320
7.877000 0.7340 0.7340 0.7340 0.7320 0.7290
7.910333 0.7160 0.6960 0.6720 0.6360 0.5780
7.944000 0.5260 0.5030 0.4880 0.4750 0.4600
7.977333 0.4470 0.4440 0.4450 0.4540 0.4630
8.010000 0.4720 0.4720 0.4400 0.3700 0.1620
8.043333 0.1290 0.0910 0.0550 0.0520 0.0550
8.077000 0.0720 0.0910 0.1040 0.1310 0.1550
8.110333 0.1590 0.1590 0.1550 0.1440 0.1420
8.144000 0.1440 0.1470 0.1750 0.2060 0.2440
8.177333 0.2830 0.3290 0.3800 0.4340 0.4930
8.210000 0.5550 0.5810 0.6000 0.6110 0.6220
8.243333 0.6360 0.6470 0.6600 0.6700 0.6810
8.277000 0.6910 0.7010 0.7090 0.7110 0.7130
8.310333 0.7190 0.7190 0.7210 0.7240 0.7290
8.344000 0.7290 0.7310 0.7390 0.7390 0.7420
8.377333 0.7440 0.7490 0.7490 0.7500 0.7520
8.410000 0.7520 0.7520 0.7520 0.7500 0.7500
8.443333 0.7490 0.7490 0.7490 0.7490 0.7490
8.477000 0.7500 0.7540 0.7550 0.7590 0.7590
8.510333 0.7590 0.7570 0.7550 0.7500 0.7390
8.544000 0.7140 0.6900 0.6500 0.6110 0.5810
8.577333 0.5520 0.5420 0.5390 0.5420 0.5770
8.610000 0.6080 0.6160 0.6260 0.6420 0.6500
8.643333 0.6540 0.6550 0.6550 0.6540 0.6520
8.677000 0.6470 0.6310 0.6160 0.5960 0.5750
8.710333 0.5500 0.5400 0.5390 0.5400 0.5500
8.743000 0.5700 0.5930 0.6190 0.6440 0.6650
8.776333 0.6810 0.6960 0.7000 0.7060 0.7270
8.810000 0.7360 0.7390 0.7400 0.7420 0.7450
8.843333 0.7470 0.7520 0.7600 0.7670 0.7720
8.877000 0.7780 0.7800 0.7800 0.7800 0.7780
8.910333 0.7780 0.7730 0.7680 0.7600 0.7520
8.943000 0.7500 0.7450 0.7440 0.7420 0.7440
8.976333 0.7500 0.7540 0.7600 0.7700 0.7730
9.010000 0.7750 0.7780 0.7830 0.7860 0.7900
9.043333 0.7900 0.7960 0.7980 0.8000 0.8010
9.077000 0.8080 0.8110 0.8160 0.8180 0.8180
9.110333 0.8190 0.8190 0.8190 0.8190 0.8190
9.143000 0.8180 0.8180 0.8110 0.8030 0.7950
9.176333 0.7830 0.7730 0.7680 0.7590 0.7540
9.210000 0.7470 0.7450 0.7450 0.7490 0.7540
9.243333 0.7600 0.7680 0.7770 0.7800 0.7860
9.277000 0.7880 0.7910 0.7950 0.7960 0.7980
9.310333 0.7980 0.8000 0.8010 0.8010 0.8040
9.343000 0.8040 0.8060 0.8080 0.8080 0.8090
9.376333 0.8090 0.8090 0.8090 0.8080 0.8040
9.410000 0.7950 0.7850 0.7630 0.7400 0.7000
9.443333 0.6600 0.6520 0.6320 0.6290 0.6290
9.476000 0.6310 0.6450 0.6630 0.6830 0.7000
9.509333 0.7140 0.7290 0.7390 0.7490 0.7630
9.543000 0.7700 0.7770 0.7780 0.7800 0.7800
9.576333 0.7800 0.7800 0.7780 0.7770 0.7750
9.610000 0.7720 0.7680 0.7680 0.7670 0.7590
9.643333 0.7570 0.7550 0.7550 0.7570 0.7590
9.676000 0.7600 0.7620 0.7650 0.7670 0.7670
9.709333 0.7670 0.7670 0.7670 0.7670 0.7670
9.743000 0.7670 0.7670 0.7680 0.7700 0.7770
9.776333 0.7770 0.7780 0.7800 0.7810 0.7830
9.810000 0.7850 0.7810 0.7800 0.7770 0.7700
9.843333 0.7590 0.7440 0.7340 0.7190 0.7030
9.876000 0.6960 0.6950 0.6930 0.6930 0.6950
9.909333 0.6960 0.7000 0.7090 0.7190 0.7290
9.943000 0.7400 0.7500 0.7600 0.7680 0.7730
9.976333 0.7800 0.7830 0.7860 0.7880 0.7910
10.010000 0.7950 0.7980 0.8000 0.8010 0.8040
10.043333 0.8040 0.8060 0.8080 0.8090 0.8090
10.076000 0.8090 0.8090 0.8090 0.8110 0.8130
10.109333 0.8140 0.8160 0.8160 0.8160 0.8140
10.143000 0.8130 0.8110 0.8080 0.8030 0.7950
10.176333 0.7810 0.7650 0.7470 0.7210 0.6880
10.209000 0.6440 0.6000 0.5540 0.5290 0.5000
10.242333 0.4700 0.4600 0.4600 0.4700 0.4950
10.276000 0.5140 0.5440 0.5680 0.6010 0.6290
10.309333 0.6550 0.6770 0.6960 0.7140 0.7290
10.343000 0.7440 0.7570 0.7600 0.7680 0.7700
10.376333 0.7720 0.7770 0.7770 0.7780 0.7800
10.409000 0.7860 0.7880 0.7900 0.7910 0.7950
10.442333 0.7950 0.7960 0.7980 0.7980 0.8000
10.476000 0.8000 0.8010 0.8030 0.8040 0.8040
10.509333 0.8060 0.8060 0.8080 0.8090 0.8090
10.543000 0.8090 0.8090 0.8090 0.8090 0.8090
10.576333 0.8080 0.8080 0.8030 0.8030 0.7930
10.609000 0.7830 0.7650 0.7470 0.7320 0.7140
10.642333 0.6880 0.6540 0.6320 0.6040 0.5850
10.676000 0.5700 0.5670 0.5670 0.5780 0.5960
10.709333 0.6140 0.6390 0.6590 0.6770 0.6950
10.743000 0.7130 0.7290 0.7440 0.7590 0.7680
10.776333 0.7770 0.7770 0.7780 0.7780 0.7800
10.809000 0.7830 0.7860 0.7900 0.7930 0.7960
10.842333 0.7980 0.7980 0.7930 0.7950 0.8000
10.876000 0.8080 0.8140 0.8210 0.8290 0.8370
10.909333 0.8370 0.8400 0.8400 0.8420 0.8440
10.942000 0.8450 0.8450 0.8470 0.8470 0.8470
10.975333 0.8490 0.8490 0.8490 0.8490 0.8500
11.009000 0.8520 0.8520 0.8540 0.8540 0.8550
11.042333 0.8550 0.8570 0.8570 0.8570 0.8570
11.076000 0.8570 0.8570 0.8570 0.8570 0.8570
11.109333 0.8570 0.8570 0.8570 0.8570 0.8570
11.142000 0.8570 0.8570 0.8570 0.8570 0.8570
11.175333 0.8570 0.8570 0.8570 0.8570 0.8550
11.209000 0.8520 0.8440 0.8340 0.8260 0.8240
11.242333 0.8110 0.8030 0.7980 0.7960 0.7960
11.276000 0.7960 0.7980 0.8030 0.8060 0.8130
11.309333 0.8210 0.8270 0.8310 0.8370 0.8400
11.342000 0.8440 0.8450 0.8470 0.8490 0.8520
11.375333 0.8570 0.8590 0.8590 0.8600 0.8600
11.409000 0.8600 0.8600 0.8600 0.8600 0.8600
11.442333 0.8600 0.8600 0.8600 0.8600 0.8600
11.475000 0.8600 0.8600 0.8600 0.8600 0.8600
11.508333 0.8600 0.8600 0.8600 0.8600 0.8600
11.542000 0.8600 0.8600 0.8590 0.8590 0.8590
11.575333 0.8590 0.8590 0.8590 0.8590 0.8600
11.609000 0.8600 0.8600 0.8600 0.8600 0.8620
11.642333 0.8620 0.8620 0.8630 0.8630 0.8650
11.675000 0.8670 0.8670 0.8670 0.8680 0.8680
11.708333 0.8700 0.8700 0.8720 0.8720 0.8730
11.742000 0.8750 0.8750 0.8750 0.8750 0.8770
11.775333 0.8770 0.8770 0.8770 0.8770 0.8770
11.809000 0.8770 0.8780 0.8780 0.8780 0.8780
11.842333 0.8780 0.8780 0.8780 0.8800 0.8800
11.875000 0.8800 0.8780 0.8780 0.8780 0.8780
11.908333 0.8800 0.8800 0.8800 0.8800 0.8800
11.942000 0.8800 0.8800 0.8800 0.8800 0.8800
11.975333 0.8800 0.8800 0.8800 0.8800 0.8800
12.009000 0.8800 0.8800 0.8780 0.8780 0.8770
12.042333 0.8770 0.8770 0.8770 0.8720 0.8680
12.075000 0.8670 0.8590 0.8500 0.8490 0.8390
12.108333 0.8310 0.8240 0.8180 0.8110 0.8080
12.142000 0.8030 0.8000 0.7980 0.7960 0.7960
12.175333 0.7960 0.7960 0.7960 0.7960 0.7950
12.208000 0.7950 0.7950 0.7950 0.7960 0.7960
12.241333 0.7980 0.7980 0.7980 0.7980 0.7980
12.275000 0.7980 0.7980 0.7980 0.7980 0.7960
12.308333 0.7950 0.7950 0.7950 0.7930 0.7910
12.342000 0.7880 0.7880 0.7880 0.7880 0.7880
12.375333 0.7860 0.7860 0.7860 0.7860 0.7860
12.408000 0.7860 0.7880 0.7880 0.7880 0.7880
12.441333 0.7910 0.7910 0.7930 0.7930 0.7930
12.475000 0.7960 0.7960 0.7960 0.7950 0.7930
12.508333 0.7900 0.7880 0.7880 0.7860 0.7850
12.542000 0.7770 0.7630 0.7540 0.7420 0.7220
12.575333 0.7130 0.6950 0.6850 0.6730 0.6650
12.608000 0.6590 0.6520 0.6500 0.6500 0.6520
12.641333 0.6550 0.6590 0.6620 0.6630 0.6630
12.675000 0.6670 0.6680 0.6680 0.6670 0.6590
12.708333 0.6550 0.6390 0.6240 0.6130 0.5950
12.742000 0.5800 0.5680 0.5550 0.5470 0.5400
12.775333 0.5400 0.5450 0.5540 0.5600 0.5800
12.808000 0.5960 0.6160 0.6310 0.6490 0.6540
12.841333 0.6630 0.6770 0.6880 0.6980 0.7080
12.875000 0.7140 0.7240 0.7290 0.7340 0.7390
12.908333 0.7450 0.7500 0.7570 0.7630 0.7680
12.941000 0.7730 0.7780 0.7860 0.7880 0.7950
12.974333 0.8000 0.8090 0.8140 0.8210 0.8260
13.008000 0.8290 0.8370 0.8420 0.8470 0.8500
13.041333 0.8520 0.8540 0.8570 0.8570 0.8590
13.075000 0.8590 0.8600 0.8620 0.8620 0.8670
13.108333 0.8670 0.8680 0.8680 0.8700 0.8700
13.141000 0.8700 0.8730 0.8730 0.8730 0.8730
13.174333 0.8730 0.8730 0.8750 0.8750 0.8770
13.208000 0.8770 0.8770 0.8780 0.8780 0.8770
13.241333 0.8770 0.8770 0.8770 0.8770 0.8770
13.275000 0.8770 0.8730 0.8720 0.8700 0.8680
13.308333 0.8680 0.8670 0.8630 0.8600 0.8590
13.341000 0.8570 0.8500 0.8490 0.8400 0.8370
13.374333 0.8310 0.8210 0.8180 0.8140 0.8130
13.408000 0.8080 0.8060 0.8060 0.8060 0.8080
13.441333 0.8080 0.8110 0.8180 0.8210 0.8290
13.475000 0.8310 0.8390 0.8440 0.8490 0.8500
13.508333 0.8520 0.8570 0.8590 0.8600 0.8600
13.541000 0.8620 0.8630 0.8630 0.8620 0.8600
13.574333 0.8590 0.8540 0.8500 0.8450 0.8440
13.608000 0.8360 0.8260 0.8190 0.8180 0.8180
13.641333 0.8180 0.8190 0.8210 0.8290 0.8340
13.674000 0.8390 0.8420 0.8470 0.8500 0.8540
13.707333 0.8590 0.8620 0.8670 0.8680 0.8700
13.741000 0.8720 0.8730 0.8730 0.8750 0.8750
13.774333 0.8770 0.8770 0.8750 0.8750 0.8730
13.808000 0.8720 0.8670 0.8670 0.8650 0.8600
13.841333 0.8550 0.8490 0.8390 0.8310 0.8190
13.874000 0.8060 0.7900 0.7750 0.7590 0.7440
13.907333 0.7240 0.7000 0.6750 0.6470 0.6210
13.941000 0.5980 0.5800 0.5650 0.5310 0.5090
13.974333 0.4900 0.4700 0.4500 0.4290 0.4090
14.008000 0.3880 0.3670 0.3440 0.3190 0.3010
14.041333 0.2950 0.2800 0.2720 0.2650 0.2630
14.074000 0.2650 0.2720 0.2850 0.2960 0.3190
14.107333 0.3390 0.3650 0.3980 0.4310 0.4630
14.141000 0.4980 0.5310 0.5650 0.5960 0.6290
14.174333 0.6590 0.6780 0.7000 0.7080 0.7190
14.208000 0.7360 0.7490 0.7570 0.7620 0.7650
14.241333 0.7670 0.7670 0.7600 0.7540 0.7440
14.274000 0.7320 0.7140 0.7010 0.6880 0.6680
14.307333 0.6490 0.6340 0.6140 0.6030 0.5850
14.341000 0.5750 0.5600 0.5590 0.5570 0.5570
14.374333 0.5590 0.5700 0.5810 0.5930 0.6060
14.407000 0.6210 0.6340 0.6500 0.6650 0.6800
14.440333 0.6950 0.7110 0.7260 0.7390 0.7520
14.474000 0.7650 0.7770 0.7860 0.7950 0.8030
14.507333 0.8110 0.8180 0.8210 0.8270 0.8290
14.541000 0.8310 0.8320 0.8370 0.8390 0.8400
14.574333 0.8420 0.8440 0.8470 0.8490 0.8490
14.607000 0.8500 0.8500 0.8540 0.8550 0.8570
14.640333 0.8570 0.8570 0.8590 0.8600 0.8600
14.674000 0.8620 0.8620 0.8630 0.8630 0.8670
14.707333 0.8670 0.8680 0.8680 0.8680 0.8700
14.741000 0.8720 0.8730 0.8730 0.8750 0.8750
14.774333 0.8770 0.8770 0.8770 0.8770 0.8770
14.807000 0.8780 0.8780 0.8780 0.8780 0.8780
14.840333 0.8780 0.8780 0.8780 0.8780 0.8780
14.874000 0.8780 0.8780 0.8780 0.8780 0.8780
14.907333 0.8780 0.8780 0.8780 0.8780 0.8770
14.941000 0.8770 0.8770 0.8770 0.8770 0.8730
14.974333 0.8720 0.8700 0.8650 0.8630 0.8600
15.007000 0.8570 0.8540 0.8470 0.8400 0.8320
15.040333 0.8290 0.8260 0.8260 0.8240 0.8240
15.074000 0.8260 0.8260 0.8270 0.8290 0.8320
15.107333 0.8370 0.8420 0.8470 0.8520 0.8540
15.140000 0.8590 0.8620 0.8630 0.8680 0.8700
15.173333 0.8700 0.8720 0.8720 0.8730 0.8750
15.207000 0.8750 0.8770 0.8770 0.8770 0.8770
15.240333 0.8770 0.8770 0.8770 0.8750 0.8750
15.274000 0.8750 0.8770 0.8770 0.8780 0.8780
15.307333 0.8780 0.8780 0.8780 0.8780 0.8780
15.340000 0.8780 0.8780 0.8780 0.8780 0.8780
15.373333 0.8780 0.8780 0.8780 0.8780 0.8780
15.407000 0.8780 0.8800 0.8800 0.8800 0.8780
15.440333 0.8780 0.8780 0.8780 0.8780 0.8780
15.474000 0.8780 0.8780 0.8780 0.8780 0.8780
15.507333 0.8770 0.8770 0.8780 0.8770 0.8770
15.540000 0.8770 0.8770 0.8770 0.8770 0.8770
15.573333 0.8770 0.8750 0.8750 0.8750 0.8750
15.607000 0.8750 0.8730 0.8730 0.8730 0.8730
15.640333 0.8720 0.8720 0.8720 0.8720 0.8720
15.673000 0.8720 0.8720 0.8700 0.8700 0.8700
15.706333 0.8680 0.8680 0.8680 0.8680 0.8680
15.740000 0.8680 0.8680 0.8680 0.8680 0.8680
15.773333 0.8670 0.8670 0.8670 0.8670 0.8670
15.807000 0.8670 0.8670 0.8670 0.8670 0.8650
15.840333 0.8650 0.8650 0.8650 0.8630 0.8630
15.873000 0.8630 0.8620 0.8620 0.8600 0.8600
15.906333 0.8590 0.8590 0.8570 0.8570 0.8540
15.940000 0.8520 0.8520 0.8490 0.8490 0.8490
15.973333 0.8490 0.8470 0.8470 0.8450 0.8400
##END=
