##TITLE=PHENYLMERCURIC NITRATE
##JCAMP-DX=4.24
##DATA TYPE=INFRARED SPECTRUM
##CLASS=COBLENTZ
##ORIGIN=WYANDOTTE CHEMICALS CORP., WYANDOTTE, MICHIGAN, USA
##OWNER=COBLENTZ SOCIETY
Collection (C) 2018 copyright by the U.S. Secretary of Commerce
on behalf of the United States of America. All rights reserved.
##DATE=Not specified, most likely prior to 1970
##MOLFORM=C12 H11 N O4 Hg2
##MP=249-251 C
##SOURCE REFERENCE=COBLENTZ NO. 3826
##$NIST ID=B6003826
##$NIST SOURCE=COBLENTZ
##$NIST IMAGE=cob3826
##SPECTROMETER/DATA SYSTEM=Not specified, most likely a prism, grating, or hybrid spectrometer.
##STATE=SOLID (MINERAL OIL MULL)
##PATH LENGTH=
$$SPECTRAL CONTAMINATION DUE TO OIL AROUND 2900 CM^-^1
##SAMPLING PROCEDURE=TRANSMISSION
##RESOLUTION=4
##DATA PROCESSING=DIGITIZED BY NIST FROM HARD COPY
##XUNITS=MICROMETERS
##YUNITS=TRANSMITTANCE
##XFACTOR=1.000000
##YFACTOR=1
##DELTAX=000.006189
##FIRSTX=2.019
##LASTX=15.9997
##FIRSTY=0.387
##MAXX=15.9997
##MINX=2.019
##MAXY=0.95
##MINY=0.015
##NPOINTS=2260
##XYDATA=(X++(Y..Y))
2.019000 0.3870 0.3870 0.3870 0.3900 0.3900
2.049960 0.3910 0.3910 0.3950 0.3960 0.3960
2.080000 0.3980 0.3980 0.3990 0.3990 0.4010
2.110960 0.4010 0.4010 0.4020 0.4040 0.4050
2.142000 0.4050 0.4070 0.4070 0.4070 0.4070
2.172960 0.4070 0.4050 0.4050 0.4040 0.4020
2.204000 0.4010 0.4010 0.3990 0.3980 0.3960
2.234960 0.3950 0.3950 0.3950 0.3950 0.3960
2.266000 0.4010 0.4100 0.4120 0.4120 0.4130
2.296960 0.4150 0.4150 0.4160 0.4160 0.4160
2.328000 0.4160 0.4160 0.4150 0.4130 0.4120
2.358960 0.4120 0.4120 0.4120 0.4120 0.4120
2.390000 0.4130 0.4130 0.4150 0.4180 0.4190
2.420960 0.4210 0.4230 0.4260 0.4270 0.4290
2.452000 0.4290 0.4300 0.4300 0.4300 0.4290
2.482960 0.4300 0.4320 0.4370 0.4380 0.4410
2.514000 0.4430 0.4460 0.4470 0.4490 0.4490
2.544960 0.4520 0.4520 0.4460 0.4460 0.4490
2.576000 0.4520 0.4520 0.4490 0.4490 0.4510
2.606960 0.4520 0.4540 0.4540 0.4570 0.4570
2.637000 0.4610 0.4650 0.4660 0.4680 0.4690
2.667960 0.4740 0.4770 0.4790 0.4830 0.4830
2.699000 0.4820 0.4800 0.4790 0.4790 0.4770
2.729960 0.4790 0.4790 0.4790 0.4790 0.4720
2.761000 0.4680 0.4610 0.4610 0.4690 0.4690
2.791960 0.4680 0.4660 0.4650 0.4610 0.4600
2.823000 0.4570 0.4540 0.4470 0.4470 0.4440
2.853960 0.4430 0.4440 0.4430 0.4410 0.4400
2.885000 0.4400 0.4370 0.4330 0.4330 0.4290
2.915960 0.4230 0.4150 0.4090 0.4020 0.3960
2.947000 0.3910 0.3870 0.3820 0.3790 0.3740
2.977960 0.3710 0.3650 0.3590 0.3510 0.3430
3.009000 0.3390 0.3370 0.3370 0.3340 0.3320
3.039960 0.3210 0.3210 0.3090 0.3070 0.3060
3.071000 0.3040 0.3040 0.3060 0.3070 0.3070
3.101960 0.3070 0.3090 0.3090 0.3090 0.3090
3.133000 0.3070 0.3070 0.3070 0.3070 0.3090
3.163960 0.3110 0.3120 0.3140 0.3140 0.3140
3.195000 0.3170 0.3250 0.3320 0.3420 0.3430
3.225960 0.3400 0.3390 0.3370 0.3350 0.3340
3.256000 0.3310 0.3230 0.3000 0.2890 0.2890
3.286960 0.2980 0.2980 0.2980 0.2900 0.2690
3.318000 0.2310 0.1950 0.1550 0.1240 0.0910
3.348960 0.0550 0.0380 0.0200 0.0150 0.0150
3.380000 0.0180 0.0200 0.0260 0.0270 0.0310
3.410960 0.0310 0.0320 0.0320 0.0350 0.0350
3.442000 0.0400 0.0430 0.0430 0.0490 0.0490
3.472960 0.0480 0.0460 0.0460 0.0480 0.0510
3.504000 0.0600 0.0800 0.1080 0.1610 0.2090
3.534960 0.2900 0.3540 0.4050 0.4440 0.4690
3.566000 0.4830 0.4960 0.5050 0.5100 0.5160
3.596960 0.5250 0.5330 0.5410 0.5450 0.5480
3.628000 0.5480 0.5500 0.5500 0.5480 0.5450
3.658960 0.5420 0.5380 0.5250 0.5240 0.5250
3.690000 0.5280 0.5340 0.5380 0.5390 0.5390
3.720960 0.5390 0.5380 0.5380 0.5380 0.5390
3.752000 0.5410 0.5440 0.5470 0.5520 0.5580
3.782960 0.5590 0.5590 0.5590 0.5590 0.5610
3.813000 0.5640 0.5660 0.5690 0.5690 0.5690
3.843960 0.5690 0.5700 0.5720 0.5760 0.5800
3.875000 0.5800 0.5800 0.5800 0.5800 0.5810
3.905960 0.5830 0.5870 0.5950 0.5980 0.6010
3.937000 0.6030 0.6030 0.6030 0.5980 0.5980
3.967960 0.5980 0.5980 0.6000 0.6000 0.6010
3.999000 0.6030 0.6060 0.6090 0.6090 0.6110
4.029960 0.6120 0.6120 0.6140 0.6140 0.6140
4.061000 0.6140 0.6120 0.6120 0.6120 0.6120
4.091960 0.6120 0.6110 0.6090 0.6110 0.6110
4.123000 0.6110 0.6090 0.6090 0.6080 0.6090
4.153960 0.6090 0.6090 0.6080 0.6080 0.6080
4.185000 0.6060 0.6040 0.6040 0.6000 0.5920
4.215960 0.5920 0.6000 0.6080 0.6080 0.6040
4.247000 0.5950 0.5920 0.5900 0.5920 0.6040
4.277960 0.6090 0.6140 0.6170 0.6180 0.6220
4.309000 0.6230 0.6250 0.6290 0.6320 0.6390
4.339960 0.6430 0.6480 0.6510 0.6540 0.6570
4.370000 0.6590 0.6590 0.6540 0.6540 0.6540
4.400960 0.6500 0.6530 0.6530 0.6530 0.6530
4.432000 0.6530 0.6530 0.6530 0.6530 0.6530
4.462960 0.6500 0.6480 0.6480 0.6500 0.6530
4.494000 0.6590 0.6590 0.6590 0.6560 0.6540
4.524960 0.6480 0.6420 0.6420 0.6460 0.6530
4.556000 0.6540 0.6570 0.6590 0.6570 0.6590
4.586960 0.6600 0.6600 0.6620 0.6670 0.6700
4.618000 0.6730 0.6730 0.6590 0.6590 0.6620
4.648960 0.6620 0.6670 0.6700 0.6730 0.6780
4.680000 0.6790 0.6810 0.6790 0.6810 0.6810
4.710960 0.6820 0.6820 0.6820 0.6840 0.6880
4.742000 0.6870 0.6900 0.6920 0.6920 0.6960
4.772960 0.6990 0.7010 0.7020 0.7060 0.7070
4.804000 0.7070 0.7090 0.7090 0.7090 0.7070
4.834960 0.7070 0.7070 0.7070 0.7070 0.7070
4.866000 0.7070 0.7090 0.7100 0.7130 0.7160
4.896960 0.7200 0.7210 0.7230 0.7240 0.7240
4.927000 0.7240 0.7240 0.7230 0.7200 0.7150
4.957960 0.7150 0.7160 0.7210 0.7240 0.7260
4.989000 0.7260 0.7270 0.7260 0.7240 0.7260
5.019960 0.7260 0.7300 0.7320 0.7340 0.7350
5.051000 0.7380 0.7380 0.7380 0.7370 0.7350
5.081960 0.7340 0.7320 0.7300 0.7290 0.7290
5.113000 0.7300 0.7340 0.7340 0.7340 0.7320
5.143960 0.7320 0.7320 0.7320 0.7300 0.7300
5.175000 0.7300 0.7320 0.7320 0.7320 0.7340
5.205960 0.7410 0.7480 0.7550 0.7580 0.7520
5.237000 0.7520 0.7520 0.7520 0.7520 0.7550
5.267960 0.7570 0.7580 0.7580 0.7580 0.7580
5.299000 0.7550 0.7510 0.7490 0.7440 0.7410
5.329960 0.7400 0.7410 0.7410 0.7460 0.7490
5.361000 0.7540 0.7540 0.7600 0.7650 0.7720
5.391960 0.7740 0.7740 0.7740 0.7720 0.7720
5.423000 0.7710 0.7710 0.7690 0.7690 0.7690
5.453960 0.7690 0.7710 0.7710 0.7710 0.7710
5.485000 0.7690 0.7680 0.7680 0.7660 0.7650
5.515960 0.7620 0.7620 0.7600 0.7620 0.7690
5.546000 0.7760 0.7820 0.7830 0.7830 0.7860
5.576960 0.7900 0.7930 0.8000 0.8020 0.8020
5.608000 0.8000 0.8000 0.7900 0.7880 0.7850
5.638960 0.7830 0.7800 0.7760 0.7720 0.7720
5.670000 0.7830 0.7800 0.7790 0.7740 0.7710
5.700960 0.7690 0.7660 0.7630 0.7630 0.7680
5.732000 0.7720 0.7800 0.7830 0.7850 0.7910
5.762960 0.8020 0.8130 0.8130 0.8100 0.8100
5.794000 0.7990 0.7970 0.7990 0.8020 0.8050
5.824960 0.8080 0.8080 0.8080 0.8070 0.8080
5.856000 0.8100 0.8110 0.8130 0.8130 0.8180
5.886960 0.8180 0.8140 0.8130 0.8100 0.8000
5.918000 0.8000 0.8110 0.8250 0.8220 0.8210
5.948960 0.8100 0.8070 0.8110 0.8210 0.8220
5.980000 0.8210 0.8210 0.8160 0.8140 0.8100
6.010960 0.8070 0.8020 0.8000 0.8020 0.8100
6.042000 0.8160 0.8240 0.8240 0.8210 0.8000
6.072960 0.7990 0.8000 0.8270 0.8280 0.8110
6.103000 0.8110 0.8130 0.8160 0.8180 0.8180
6.133960 0.8190 0.8220 0.8270 0.8350 0.8420
6.165000 0.8420 0.8390 0.8390 0.8350 0.8380
6.195960 0.8360 0.8330 0.8320 0.8270 0.8220
6.227000 0.8210 0.8220 0.8330 0.8380 0.8390
6.257960 0.8410 0.8440 0.8420 0.8330 0.8140
6.289000 0.7800 0.7300 0.6780 0.6780 0.6880
6.319960 0.7350 0.7650 0.7830 0.8000 0.8020
6.351000 0.8080 0.8140 0.8190 0.8240 0.8360
6.381960 0.8440 0.8490 0.8470 0.8460 0.8460
6.413000 0.8440 0.8440 0.8420 0.8460 0.8470
6.443960 0.8520 0.8560 0.8630 0.8690 0.8740
6.475000 0.8740 0.8690 0.8660 0.8630 0.8670
6.505960 0.8640 0.8630 0.8610 0.8610 0.8600
6.537000 0.8610 0.8640 0.8690 0.8700 0.8720
6.567960 0.8700 0.8660 0.8600 0.8580 0.8600
6.599000 0.8610 0.8660 0.8690 0.8700 0.8690
6.629960 0.8530 0.8520 0.8500 0.8460 0.8390
6.660000 0.8360 0.8300 0.8160 0.7990 0.7650
6.690960 0.7100 0.6340 0.5800 0.5470 0.5110
6.722000 0.4820 0.4660 0.4460 0.4400 0.4300
6.752960 0.4190 0.3960 0.3340 0.2810 0.2560
6.784000 0.2410 0.2360 0.2220 0.2200 0.2200
6.814960 0.2220 0.2340 0.2470 0.2650 0.2730
6.846000 0.2830 0.2970 0.3060 0.3150 0.3320
6.876960 0.3490 0.3650 0.3960 0.4070 0.4300
6.908000 0.4490 0.4600 0.4680 0.4680 0.4600
6.938960 0.4150 0.3770 0.3370 0.3370 0.3670
6.970000 0.4300 0.5000 0.5550 0.5750 0.5870
7.000960 0.6040 0.6170 0.6220 0.6250 0.6280
7.032000 0.6280 0.6250 0.6170 0.6040 0.5870
7.062960 0.5700 0.5560 0.5410 0.5310 0.5160
7.094000 0.4990 0.4770 0.4550 0.4320 0.4120
7.124960 0.3950 0.3700 0.3510 0.3150 0.2790
7.156000 0.2550 0.2270 0.2020 0.1850 0.1610
7.186960 0.1390 0.1300 0.1050 0.0800 0.0680
7.218000 0.0550 0.0490 0.0410 0.0410 0.0450
7.248960 0.0480 0.0510 0.0590 0.0620 0.0630
7.279000 0.0660 0.0740 0.0850 0.0930 0.0960
7.309960 0.1010 0.1110 0.1300 0.1530 0.1690
7.341000 0.1920 0.2050 0.2130 0.2190 0.2300
7.371960 0.2410 0.2500 0.2500 0.2580 0.2580
7.403000 0.2510 0.2450 0.2410 0.2300 0.2190
7.433960 0.2080 0.2020 0.1950 0.1780 0.1710
7.465000 0.1500 0.1350 0.1320 0.1300 0.1290
7.495960 0.1300 0.1330 0.1380 0.1430 0.1500
7.527000 0.1550 0.1550 0.1500 0.1490 0.1490
7.557960 0.1460 0.1360 0.1210 0.1180 0.1160
7.589000 0.1150 0.1130 0.1110 0.1130 0.1160
7.619960 0.1190 0.1210 0.1290 0.1290 0.1320
7.651000 0.1330 0.1410 0.1500 0.1630 0.1720
7.681960 0.1810 0.1920 0.2020 0.2030 0.2090
7.713000 0.2140 0.2300 0.2390 0.2480 0.2550
7.743960 0.2620 0.2700 0.2730 0.2830 0.2950
7.775000 0.3060 0.3140 0.3200 0.3250 0.3320
7.805960 0.3400 0.3560 0.3590 0.3630 0.3700
7.836000 0.3790 0.3880 0.3930 0.3990 0.4010
7.866960 0.4010 0.4100 0.4160 0.4190 0.4230
7.898000 0.4240 0.4290 0.4380 0.4510 0.4580
7.928960 0.4600 0.4650 0.4720 0.4830 0.4860
7.960000 0.4890 0.4970 0.5000 0.5020 0.5030
7.990960 0.5100 0.5140 0.5170 0.5220 0.5270
8.022000 0.5280 0.5300 0.5310 0.5380 0.5480
8.052960 0.5520 0.5530 0.5550 0.5560 0.5590
8.084000 0.5640 0.5690 0.5760 0.5780 0.5780
8.114960 0.5780 0.5800 0.5810 0.5860 0.5920
8.146000 0.5940 0.5950 0.5980 0.5980 0.6010
8.176960 0.6030 0.6040 0.6040 0.6080 0.6090
8.208000 0.6140 0.6150 0.6170 0.6180 0.6180
8.238960 0.6180 0.6180 0.6220 0.6250 0.6280
8.270000 0.6310 0.6340 0.6340 0.6390 0.6400
8.300960 0.6400 0.6420 0.6430 0.6460 0.6480
8.332000 0.6500 0.6510 0.6510 0.6510 0.6500
8.362960 0.6500 0.6500 0.6500 0.6500 0.6510
8.393000 0.6510 0.6530 0.6530 0.6530 0.6460
8.423960 0.6460 0.6500 0.6530 0.6540 0.6560
8.455000 0.6570 0.6570 0.6590 0.6590 0.6590
8.485960 0.6590 0.6600 0.6600 0.6600 0.6590
8.517000 0.6570 0.6530 0.6530 0.6530 0.6590
8.547960 0.6590 0.6530 0.6510 0.6500 0.6460
8.579000 0.6430 0.6430 0.6430 0.6480 0.6530
8.609960 0.6540 0.6540 0.6540 0.6570 0.6590
8.641000 0.6590 0.6540 0.6450 0.6420 0.6320
8.671960 0.6290 0.6290 0.6360 0.6390 0.6480
8.703000 0.6560 0.6620 0.6650 0.6650 0.6650
8.733960 0.6650 0.6640 0.6640 0.6620 0.6620
8.765000 0.6600 0.6590 0.6600 0.6600 0.6600
8.795960 0.6600 0.6620 0.6600 0.6570 0.6560
8.827000 0.6510 0.6500 0.6480 0.6480 0.6460
8.857960 0.6450 0.6420 0.6340 0.6310 0.6280
8.889000 0.6280 0.6280 0.6310 0.6310 0.6150
8.919960 0.6120 0.6090 0.6090 0.6080 0.6060
8.950000 0.6040 0.6040 0.6030 0.6030 0.6030
8.980960 0.6010 0.6010 0.6000 0.6000 0.5980
9.012000 0.5980 0.5970 0.5970 0.5970 0.5970
9.042960 0.5980 0.5980 0.5980 0.5980 0.6000
9.074000 0.6000 0.6010 0.6010 0.6030 0.6030
9.104960 0.6060 0.6060 0.6090 0.6120 0.6180
9.136000 0.6200 0.6200 0.6150 0.6090 0.6110
9.166960 0.6200 0.6260 0.6260 0.6230 0.6230
9.198000 0.6250 0.6290 0.6370 0.6370 0.6340
9.228960 0.6290 0.6230 0.6220 0.6230 0.6230
9.260000 0.6230 0.6260 0.6250 0.6180 0.6150
9.290960 0.6150 0.6220 0.6310 0.6360 0.6360
9.322000 0.6360 0.6340 0.6340 0.6340 0.6340
9.352960 0.6320 0.6310 0.6290 0.6280 0.6260
9.384000 0.6280 0.6280 0.6290 0.6310 0.6400
9.414960 0.6560 0.6620 0.6620 0.6640 0.6640
9.446000 0.6650 0.6670 0.6700 0.6730 0.6810
9.476960 0.6850 0.6900 0.6900 0.6920 0.6930
9.508000 0.6930 0.6930 0.6900 0.6840 0.6560
9.538960 0.6310 0.6090 0.5870 0.5780 0.5780
9.569000 0.5890 0.6040 0.6220 0.6320 0.6370
9.599960 0.6460 0.6510 0.6570 0.6670 0.6700
9.631000 0.6730 0.6790 0.6810 0.6840 0.6880
9.661960 0.6880 0.6900 0.6900 0.6930 0.6990
9.693000 0.7010 0.6990 0.6990 0.6930 0.6780
9.723960 0.6560 0.6310 0.5950 0.5640 0.5330
9.755000 0.5170 0.5060 0.4970 0.4890 0.4890
9.785960 0.4970 0.5220 0.5560 0.5890 0.6150
9.817000 0.6360 0.6430 0.6500 0.6570 0.6650
9.847960 0.6700 0.6710 0.6740 0.6810 0.6850
9.879000 0.6850 0.6870 0.6880 0.6900 0.6930
9.909960 0.7010 0.7040 0.7070 0.7130 0.7150
9.941000 0.7160 0.7210 0.7230 0.7270 0.7270
9.971960 0.7270 0.7260 0.7200 0.7150 0.7060
10.003000 0.6840 0.6570 0.6430 0.6320 0.6390
10.033960 0.6600 0.6780 0.6990 0.7100 0.7150
10.065000 0.7200 0.7210 0.7230 0.7230 0.7240
10.095960 0.7260 0.7270 0.7270 0.7290 0.7290
10.126000 0.7300 0.7290 0.7300 0.7300 0.7300
10.156960 0.7300 0.7320 0.7320 0.7340 0.7350
10.188000 0.7350 0.7350 0.7350 0.7340 0.7320
10.218960 0.7320 0.7320 0.7320 0.7320 0.7340
10.250000 0.7340 0.7340 0.7350 0.7350 0.7340
10.280960 0.7340 0.7340 0.7340 0.7340 0.7340
10.312000 0.7340 0.7340 0.7340 0.7350 0.7350
10.342960 0.7370 0.7400 0.7410 0.7430 0.7490
10.374000 0.7510 0.7520 0.7550 0.7600 0.7620
10.404960 0.7520 0.7520 0.7520 0.7540 0.7620
10.436000 0.7620 0.7540 0.7540 0.7580 0.7580
10.466960 0.7580 0.7600 0.7630 0.7660 0.7630
10.498000 0.7660 0.7680 0.7690 0.7740 0.7770
10.528960 0.7770 0.7720 0.7740 0.7770 0.7820
10.560000 0.7910 0.7930 0.7930 0.7880 0.7900
10.590960 0.7900 0.7910 0.7930 0.7940 0.7960
10.622000 0.7930 0.7930 0.7930 0.7930 0.7940
10.652960 0.7940 0.7960 0.7960 0.7960 0.7960
10.683000 0.7970 0.7970 0.7970 0.7960 0.7960
10.713960 0.7970 0.7970 0.7970 0.7990 0.7990
10.745000 0.7990 0.7990 0.7990 0.8000 0.8000
10.775960 0.8040 0.8080 0.8110 0.8190 0.8190
10.807000 0.8110 0.8130 0.8130 0.8180 0.8180
10.837960 0.8160 0.8160 0.8140 0.8140 0.8130
10.869000 0.8110 0.8070 0.7970 0.7910 0.7880
10.899960 0.7860 0.7860 0.7860 0.7930 0.7930
10.931000 0.7900 0.7860 0.7850 0.7850 0.7850
10.961960 0.7830 0.7690 0.7540 0.7430 0.7400
10.993000 0.7520 0.7600 0.7720 0.7820 0.7940
11.023960 0.8210 0.8240 0.8270 0.8280 0.8300
11.055000 0.8330 0.8410 0.8490 0.8550 0.8550
11.085960 0.8560 0.8530 0.8530 0.8530 0.8550
11.117000 0.8560 0.8600 0.8600 0.8610 0.8670
11.147960 0.8690 0.8670 0.8670 0.8670 0.8660
11.179000 0.8660 0.8670 0.8690 0.8670 0.8700
11.209960 0.8720 0.8720 0.8720 0.8720 0.8700
11.240000 0.8700 0.8690 0.8700 0.8720 0.8740
11.270960 0.8750 0.8750 0.8780 0.8800 0.8780
11.302000 0.8810 0.8840 0.8860 0.8860 0.8860
11.332960 0.8840 0.8830 0.8830 0.8840 0.8840
11.364000 0.8860 0.8890 0.8910 0.8920 0.8950
11.394960 0.8980 0.9020 0.9030 0.9030 0.9030
11.426000 0.9030 0.9030 0.9030 0.9030 0.9030
11.456960 0.9030 0.9030 0.9030 0.9030 0.9030
11.488000 0.9030 0.9050 0.9030 0.9030 0.9020
11.518960 0.9000 0.9000 0.9000 0.9000 0.9000
11.550000 0.9000 0.9000 0.8980 0.8970 0.8950
11.580960 0.8950 0.8950 0.8950 0.8970 0.8970
11.612000 0.8970 0.8980 0.9000 0.9020 0.9030
11.642960 0.9050 0.9020 0.8940 0.8910 0.8840
11.674000 0.8800 0.8750 0.8720 0.8700 0.8700
11.704960 0.8720 0.8740 0.8750 0.8770 0.8800
11.736000 0.8840 0.8920 0.8940 0.8970 0.9000
11.766960 0.9020 0.8940 0.8940 0.9000 0.9030
11.798000 0.9050 0.9050 0.9060 0.9060 0.9060
11.828960 0.9060 0.9060 0.9050 0.9080 0.9080
11.859000 0.9110 0.9140 0.9170 0.9190 0.9190
11.889960 0.9110 0.9110 0.9120 0.9190 0.9190
11.921000 0.9190 0.9190 0.9200 0.9200 0.9200
11.951960 0.9200 0.9200 0.9200 0.9190 0.9170
11.983000 0.9160 0.9140 0.9160 0.9170 0.9200
12.013960 0.9220 0.9220 0.9200 0.9200 0.9190
12.045000 0.9190 0.9190 0.9190 0.9200 0.9220
12.075960 0.9250 0.9250 0.9230 0.9190 0.9200
12.107000 0.9200 0.9200 0.9200 0.9170 0.9190
12.137960 0.9200 0.9190 0.9120 0.9140 0.9120
12.169000 0.9110 0.9050 0.8940 0.8840 0.8750
12.199960 0.8560 0.8420 0.8270 0.8040 0.8020
12.231000 0.7990 0.7910 0.7830 0.7660 0.7410
12.261960 0.7160 0.6930 0.6740 0.6620 0.6590
12.293000 0.6640 0.6850 0.7150 0.7540 0.7970
12.323960 0.8220 0.8490 0.8700 0.8810 0.8910
12.355000 0.9000 0.9090 0.9200 0.9300 0.9300
12.385960 0.9260 0.9260 0.9260 0.9280 0.9310
12.416000 0.9330 0.9360 0.9400 0.9400 0.9390
12.446960 0.9360 0.9330 0.9330 0.9330 0.9330
12.478000 0.9330 0.9330 0.9330 0.9370 0.9370
12.508960 0.9340 0.9310 0.9330 0.9360 0.9400
12.540000 0.9420 0.9420 0.9400 0.9390 0.9340
12.570960 0.9310 0.9310 0.9340 0.9420 0.9440
12.602000 0.9440 0.9440 0.9420 0.9400 0.9400
12.632960 0.9400 0.9420 0.9450 0.9500 0.9450
12.664000 0.9420 0.9400 0.9400 0.9400 0.9400
12.694960 0.9440 0.9440 0.9400 0.9400 0.9400
12.726000 0.9400 0.9400 0.9400 0.9400 0.9400
12.756960 0.9400 0.9400 0.9390 0.9390 0.9370
12.788000 0.9370 0.9360 0.9370 0.9420 0.9440
12.818960 0.9440 0.9420 0.9400 0.9400 0.9400
12.850000 0.9370 0.9370 0.9370 0.9370 0.9370
12.880960 0.9360 0.9360 0.9340 0.9340 0.9330
12.912000 0.9330 0.9310 0.9310 0.9310 0.9310
12.942960 0.9330 0.9330 0.9300 0.9300 0.9280
12.973000 0.9280 0.9280 0.9280 0.9300 0.9300
13.003960 0.9300 0.9280 0.9260 0.9260 0.9260
13.035000 0.9280 0.9280 0.9250 0.9230 0.9220
13.065960 0.9220 0.9220 0.9230 0.9250 0.9250
13.097000 0.9250 0.9230 0.9220 0.9220 0.9220
13.127960 0.9200 0.9200 0.9200 0.9200 0.9190
13.159000 0.9190 0.9170 0.9170 0.9170 0.9170
13.189960 0.9170 0.9170 0.9170 0.9160 0.9140
13.221000 0.9160 0.9140 0.9140 0.9120 0.9110
13.251960 0.9110 0.9090 0.9080 0.9050 0.9030
13.283000 0.9020 0.9020 0.9000 0.9000 0.9000
13.313960 0.9000 0.8950 0.8940 0.8920 0.8920
13.345000 0.8910 0.8890 0.8890 0.8880 0.8860
13.375960 0.8840 0.8810 0.8810 0.8800 0.8780
13.407000 0.8750 0.8720 0.8700 0.8690 0.8660
13.437960 0.8630 0.8610 0.8550 0.8470 0.7930
13.469000 0.7550 0.7520 0.7510 0.7510 0.7440
13.499960 0.7370 0.7270 0.7210 0.7160 0.7100
13.531000 0.6980 0.6900 0.6780 0.6650 0.6510
13.561960 0.6370 0.6260 0.6200 0.6080 0.6000
13.592000 0.5870 0.5730 0.5530 0.5310 0.5080
13.622960 0.4890 0.4770 0.4550 0.4240 0.4010
13.654000 0.3740 0.3460 0.3060 0.2810 0.2580
13.684960 0.2330 0.2090 0.1860 0.1670 0.1500
13.716000 0.1330 0.1210 0.1130 0.1070 0.1020
13.746960 0.1010 0.1020 0.1110 0.1190 0.1320
13.778000 0.1460 0.1640 0.1850 0.2090 0.2370
13.808960 0.2700 0.3000 0.3310 0.3560 0.3770
13.840000 0.4150 0.4430 0.4610 0.4880 0.5030
13.870960 0.5200 0.5390 0.5590 0.5830 0.5940
13.902000 0.6060 0.6250 0.6430 0.6640 0.6740
13.932960 0.6900 0.6990 0.7020 0.7120 0.7290
13.964000 0.7400 0.7480 0.7570 0.7650 0.7680
13.994960 0.7720 0.7790 0.7900 0.8000 0.8070
14.026000 0.8160 0.8210 0.8270 0.8300 0.8300
14.056960 0.8320 0.8350 0.8390 0.8410 0.8410
14.088000 0.8440 0.8460 0.8460 0.8440 0.8380
14.118960 0.8360 0.8410 0.8440 0.8460 0.8490
14.149000 0.8500 0.8500 0.8500 0.8490 0.8460
14.179960 0.8420 0.8410 0.8390 0.8360 0.8350
14.211000 0.8300 0.8240 0.8180 0.8130 0.8050
14.241960 0.8000 0.7960 0.7800 0.7710 0.7570
14.273000 0.7410 0.7320 0.7160 0.7010 0.6780
14.303960 0.6600 0.6320 0.6140 0.5900 0.5700
14.335000 0.5610 0.5440 0.5300 0.5110 0.4990
14.365960 0.4800 0.4610 0.4520 0.4460 0.4350
14.397000 0.4260 0.4090 0.4010 0.3880 0.3760
14.427960 0.3680 0.3570 0.3510 0.3490 0.3430
14.459000 0.3370 0.3340 0.3390 0.3510 0.3540
14.489960 0.3650 0.3810 0.4020 0.4240 0.4460
14.521000 0.4630 0.4800 0.4960 0.5080 0.5300
14.551960 0.5470 0.5640 0.5830 0.6030 0.6110
14.583000 0.6150 0.6260 0.6370 0.6500 0.6620
14.613960 0.6730 0.6870 0.6900 0.6980 0.7040
14.645000 0.7100 0.7120 0.7130 0.7180 0.7240
14.675960 0.7320 0.7350 0.7350 0.7380 0.7400
14.706000 0.7430 0.7460 0.7490 0.7510 0.7540
14.736960 0.7550 0.7570 0.7600 0.7600 0.7630
14.768000 0.7660 0.7690 0.7740 0.7760 0.7760
14.798960 0.7770 0.7790 0.7770 0.7690 0.7680
14.830000 0.7710 0.7710 0.7710 0.7690 0.7690
14.860960 0.7690 0.7650 0.7630 0.7600 0.7570
14.892000 0.7540 0.7490 0.7440 0.7410 0.7370
14.922960 0.7320 0.7300 0.7270 0.7230 0.7260
14.954000 0.7240 0.7230 0.7200 0.7130 0.7120
14.984960 0.7130 0.7120 0.7090 0.7040 0.6960
15.016000 0.6850 0.6740 0.6710 0.6590 0.6510
15.046960 0.6450 0.6390 0.6370 0.6360 0.6320
15.078000 0.6290 0.6260 0.6260 0.6230 0.6230
15.108960 0.6230 0.6250 0.6260 0.6290 0.6320
15.140000 0.6340 0.6390 0.6460 0.6530 0.6570
15.170960 0.6640 0.6700 0.6780 0.6840 0.6850
15.202000 0.6880 0.6920 0.6960 0.7040 0.7100
15.232960 0.7130 0.7100 0.7100 0.7120 0.7130
15.263000 0.7150 0.7200 0.7200 0.7200 0.7200
15.293960 0.7150 0.7150 0.7150 0.7150 0.7160
15.325000 0.7160 0.7130 0.7120 0.7100 0.7100
15.355960 0.7100 0.7100 0.7090 0.7100 0.7100
15.387000 0.7100 0.7100 0.7100 0.7100 0.7100
15.417960 0.7100 0.7090 0.7090 0.7090 0.7020
15.449000 0.7010 0.6990 0.7010 0.6990 0.6950
15.479960 0.6930 0.6930 0.6950 0.6920 0.6850
15.511000 0.6810 0.6780 0.6790 0.6780 0.6780
15.541960 0.6760 0.6730 0.6710 0.6740 0.6740
15.573000 0.6730 0.6710 0.6680 0.6650 0.6640
15.603960 0.6650 0.6700 0.6670 0.6670 0.6650
15.635000 0.6650 0.6640 0.6640 0.6640 0.6620
15.665960 0.6620 0.6600 0.6590 0.6540 0.6530
15.697000 0.6510 0.6480 0.6460 0.6430 0.6430
15.727960 0.6420 0.6400 0.6400 0.6360 0.6310
15.759000 0.6290 0.6230 0.6200 0.6170 0.6120
15.789960 0.6110 0.6090 0.6090 0.6080 0.6060
15.821000 0.6040 0.6030 0.6010 0.6010 0.6010
15.851960 0.6000 0.5980 0.5950 0.5920 0.5900
15.882000 0.5830 0.5830 0.5840 0.5840 0.5840
15.912960 0.5840 0.5830 0.5830 0.5830 0.5810
15.944000 0.5800 0.5780 0.5750 0.5720 0.5690
15.974960 0.5660 0.5620 0.5590 0.5560 0.5520
##END=
