##TITLE=Choline Iodide, O-(p-ChloroCinnamoyl)
##JCAMP-DX=4.24
##DATA TYPE=INFRARED SPECTRUM
##CLASS=COBLENTZ III
##ORIGIN=SOUTHERN RESEARCH INSTITUTE
##OWNER=Copyright (C) 1987 by the Coblentz Society
Collection (C) 2018 copyright by the U.S. Secretary of Commerce
on behalf of the United States of America. All rights reserved.
##DATE=1962/11/23
##NAMES=2-(trimethyl-.lambda.<5>-azanyl)ethyl (2E)-3-(4-chlorophenyl)-2-propenoate hydroiodide
##MOLFORM=C14 H19 Cl I N O2
##SOURCE REFERENCE=COBLENTZ NO. 8360
##$NIST ID=B6008360
##$NIST SOURCE=COBLENTZ
##$NIST IMAGE=cob8360
##SPECTROMETER/DATA SYSTEM=PERKIN-ELMER 221 (GRATING)
##INSTRUMENT PARAMETERS=FILTER AT 2490, 980 CM^-^1. GRATING 4000-1428 CM^-^1, NaCl PRISM 1428-650 CM^-^1
##STATE=SOLID (NUJOL MULL)
##SAMPLING PROCEDURE=TRANSMISSION
##RESOLUTION=2
##DATA PROCESSING=DIGITIZED BY COBLENTZ SOCIETY (BATCH II) FROM HARD COPY (ADJUSTED \addcm-1\20-10-2\)
##XUNITS=1/CM
##YUNITS=TRANSMITTANCE
##XFACTOR=1.0
##YFACTOR=1
##DELTAX=1.005936
##FIRSTX=632
##LASTX=4019.99
##FIRSTY=0.7709
##MAXX=4019.99
##MINX=632
##MAXY=0.861074
##MINY=0.0045
##NPOINTS=3369
##XYDATA=(X++(Y..Y))
632.000000 0.7709 0.7720 0.7731 0.7741 0.7752
637.029682 0.7762 0.7771 0.7790 0.7788 0.7801
642.059365 0.7817 0.7833 0.7843 0.7851 0.7859
647.089047 0.7864 0.7864 0.7865 0.7865 0.7870
652.118730 0.7886 0.7904 0.7941 0.7983 0.8034
657.148412 0.8085 0.8126 0.8164 0.8200 0.8230
662.178094 0.8256 0.8282 0.8307 0.8330 0.8347
667.207777 0.8362 0.8377 0.8389 0.8393 0.8393
672.237459 0.8392 0.8392 0.8388 0.8373 0.8349
677.267142 0.8285 0.8149 0.8049 0.8032 0.8034
682.296824 0.8045 0.8075 0.8121 0.8187 0.8266
687.326506 0.8383 0.8526 0.8554 0.8579 0.8593
692.356189 0.8604 0.8611 0.8605 0.8603 0.8599
697.385871 0.8594 0.8589 0.8583 0.8571 0.8556
702.415554 0.8535 0.8504 0.8470 0.8425 0.8374
707.445236 0.8320 0.8263 0.8203 0.8127 0.8023
712.474918 0.7919 0.7815 0.7740 0.7731 0.7741
717.504601 0.7751 0.7758 0.7760 0.7758 0.7755
722.534283 0.7750 0.7741 0.7728 0.7709 0.7685
727.563966 0.7659 0.7621 0.7599 0.7589 0.7626
732.593648 0.7734 0.7866 0.7998 0.8131 0.8263
737.623330 0.8378 0.8425 0.8431 0.8429 0.8442
742.653013 0.8431 0.8417 0.8410 0.8402 0.8395
747.682695 0.8387 0.8377 0.8366 0.8354 0.8343
752.712378 0.8331 0.8310 0.8287 0.8265 0.8237
757.742060 0.8199 0.8158 0.8079 0.7887 0.7662
762.771742 0.7440 0.7374 0.7365 0.7361 0.7338
767.801425 0.7536 0.7769 0.7998 0.8225 0.8421
772.831107 0.8478 0.8501 0.8515 0.8524 0.8516
777.860790 0.8524 0.8519 0.8503 0.8481 0.8455
782.890472 0.8424 0.8392 0.8363 0.8335 0.8309
787.920154 0.8274 0.8229 0.8184 0.8115 0.8039
792.949837 0.7950 0.7858 0.7776 0.7699 0.7624
797.979519 0.7498 0.7291 0.6645 0.5722 0.5522
803.009202 0.5497 0.5477 0.5463 0.5452 0.5439
808.038884 0.5427 0.5398 0.5079 0.4729 0.4377
813.068566 0.4025 0.3674 0.3322 0.2971 0.2807
818.098249 0.3016 0.3483 0.3969 0.4455 0.4941
823.127931 0.5427 0.6744 0.6500 0.6871 0.6924
828.157614 0.6749 0.6332 0.5885 0.5438 0.4990
833.187296 0.4542 0.4340 0.4320 0.4445 0.4799
838.216978 0.5191 0.5584 0.5976 0.6369 0.6761
843.246661 0.7153 0.7534 0.7691 0.7776 0.8122
848.276343 0.8242 0.8255 0.8260 0.8272 0.8269
853.306026 0.8266 0.8264 0.8256 0.8245 0.8230
858.335708 0.8211 0.8191 0.8164 0.8131 0.8091
863.365390 0.8042 0.7976 0.7893 0.7813 0.7784
868.395073 0.7783 0.7826 0.7886 0.7945 0.8003
873.424755 0.8022 0.8022 0.8021 0.8021 0.8020
878.454438 0.8016 0.8011 0.8005 0.7998 0.7986
883.484120 0.7971 0.7948 0.7921 0.7895 0.7872
888.513802 0.7851 0.7831 0.7812 0.7793 0.7774
893.543485 0.7755 0.7736 0.7717 0.7699 0.7666
898.573167 0.7588 0.7494 0.7409 0.7330 0.7268
903.602850 0.7215 0.7076 0.6803 0.6478 0.6153
908.632532 0.5827 0.5502 0.5177 0.4851 0.4526
913.662214 0.4091 0.3839 0.3835 0.3995 0.4344
918.691897 0.4737 0.5130 0.5522 0.5915 0.6307
923.721579 0.6700 0.6903 0.6919 0.6719 0.6350
928.751262 0.6052 0.5754 0.5455 0.5157 0.4859
933.780944 0.4561 0.4263 0.3965 0.3667 0.3368
938.810626 0.3141 0.3056 0.3100 0.3276 0.3516
943.840309 0.3757 0.3997 0.4238 0.4478 0.4719
948.869991 0.4959 0.5199 0.5440 0.5681 0.5921
953.899673 0.6162 0.6402 0.6643 0.6883 0.7174
958.929356 0.7404 0.7367 0.7337 0.7308 0.7281
963.959038 0.7254 0.7228 0.7203 0.7179 0.7155
968.988721 0.7130 0.7100 0.7064 0.7018 0.6936
974.018403 0.6754 0.6460 0.6167 0.5874 0.5581
979.048085 0.5287 0.4993 0.4731 0.4597 0.4540
984.077768 0.4499 0.4435 0.4306 0.4177 0.4048
989.107450 0.3919 0.3818 0.3804 0.3811 0.3821
994.137133 0.3860 0.4081 0.4427 0.4772 0.5118
999.166815 0.5464 0.5809 0.6155 0.6500 0.6789
1004.196497 0.6781 0.6529 0.5972 0.5415 0.4947
1009.226180 0.5003 0.5350 0.5751 0.6154 0.6556
1014.255862 0.6958 0.7311 0.7325 0.7256 0.7117
1019.285545 0.6978 0.6839 0.6699 0.6560 0.6415
1024.315227 0.6231 0.6265 0.6449 0.6652 0.6856
1029.344909 0.7059 0.7263 0.7465 0.7622 0.7629
1034.374592 0.7614 0.7613 0.7612 0.7604 0.7588
1039.404274 0.7571 0.7551 0.7526 0.7499 0.7473
1044.433957 0.7446 0.7417 0.7388 0.7357 0.7326
1049.463639 0.7308 0.7290 0.7273 0.7261 0.7251
1054.493321 0.7239 0.7219 0.7198 0.7170 0.7142
1059.523004 0.7098 0.7052 0.6986 0.6921 0.6890
1064.552686 0.6882 0.6868 0.6841 0.6802 0.6665
1069.582369 0.6542 0.6334 0.6146 0.5464 0.5098
1074.612051 0.4773 0.4447 0.4122 0.3953 0.3917
1079.641733 0.4297 0.4708 0.5114 0.5521 0.5928
1084.671416 0.6334 0.6652 0.6697 0.6694 0.6684
1089.701098 0.6575 0.6448 0.6320 0.6192 0.6064
1094.730781 0.5937 0.5839 0.5824 0.5829 0.5839
1099.760463 0.5909 0.6006 0.6105 0.6205 0.6304
1104.790145 0.6403 0.6503 0.6602 0.6702 0.6801
1109.819828 0.6900 0.6986 0.7004 0.6995 0.6983
1114.849510 0.6943 0.6862 0.6797 0.6744 0.6693
1119.879193 0.6643 0.6591 0.6537 0.6482 0.6427
1124.908875 0.6366 0.6282 0.6186 0.6106 0.6046
1129.938557 0.5992 0.5938 0.5884 0.5830 0.5770
1134.968240 0.5706 0.5641 0.5573 0.5503 0.5432
1139.997922 0.5353 0.5205 0.5046 0.4935 0.4841
1145.027605 0.4747 0.4624 0.4473 0.4304 0.4120
1150.057287 0.3927 0.3731 0.3536 0.3346 0.3161
1155.086969 0.2967 0.2778 0.2584 0.2378 0.2172
1160.116652 0.1966 0.1760 0.1555 0.1348 0.1181
1165.146334 0.1104 0.1099 0.1138 0.1325 0.1625
1170.176017 0.1925 0.2225 0.2524 0.2824 0.3034
1175.205699 0.3085 0.2938 0.2658 0.2377 0.2134
1180.235381 0.2027 0.2034 0.2163 0.2536 0.3043
1185.265064 0.3549 0.4055 0.4561 0.5067 0.5432
1190.294746 0.5548 0.5566 0.5574 0.5579 0.5584
1195.324429 0.5590 0.5596 0.5603 0.5619 0.5696
1200.354111 0.5874 0.6093 0.6313 0.6533 0.6752
1205.383793 0.6971 0.7191 0.7411 0.7595 0.7697
1210.413476 0.7758 0.7803 0.7836 0.7856 0.7858
1215.443158 0.7843 0.7837 0.7827 0.7807 0.7773
1220.472841 0.7718 0.7660 0.7605 0.7541 0.7478
1225.502523 0.7466 0.7454 0.7451 0.7511 0.7552
1230.532205 0.7592 0.7635 0.7670 0.7699 0.7718
1235.561888 0.7723 0.7733 0.7747 0.7709 0.7699
1240.591570 0.7687 0.7668 0.7649 0.7630 0.7610
1245.621253 0.7585 0.7555 0.7525 0.7493 0.7460
1250.650935 0.7427 0.7393 0.7354 0.7316 0.7277
1255.680617 0.7234 0.7174 0.7113 0.7039 0.6934
1260.710300 0.6743 0.6401 0.6016 0.5631 0.5280
1265.739982 0.5166 0.5185 0.5355 0.5598 0.5840
1270.769665 0.6083 0.6327 0.6570 0.6801 0.6913
1275.799347 0.6910 0.6908 0.6924 0.6844 0.6788
1280.829029 0.6738 0.6689 0.6641 0.6605 0.6572
1285.858712 0.6542 0.6509 0.6469 0.6429 0.6371
1290.888394 0.6300 0.6213 0.6112 0.6005 0.5869
1295.918077 0.5704 0.5555 0.5480 0.5407 0.4575
1300.947759 0.3102 0.2528 0.2464 0.2445 0.2420
1305.977441 0.2432 0.2435 0.2670 0.2982 0.3297
1311.007124 0.3433 0.3464 0.3487 0.3526 0.3717
1316.036806 0.3982 0.4252 0.4522 0.4792 0.5062
1321.066489 0.5330 0.5504 0.5620 0.5685 0.5713
1326.096171 0.5739 0.5764 0.5791 0.5847 0.5994
1331.125853 0.6154 0.6313 0.6368 0.6397 0.6370
1336.155536 0.6318 0.6243 0.6166 0.6093 0.6020
1341.185218 0.5938 0.5773 0.5512 0.5234 0.4958
1346.214901 0.4874 0.4924 0.5027 0.5140 0.5252
1351.244583 0.5364 0.5476 0.5588 0.5701 0.5779
1356.274265 0.5791 0.5787 0.5647 0.5457 0.5265
1361.303948 0.5133 0.5098 0.5090 0.5045 0.4841
1366.333630 0.4583 0.4325 0.4067 0.3809 0.3598
1371.363313 0.3531 0.3586 0.3776 0.4012 0.4247
1376.392995 0.4482 0.4718 0.4953 0.5188 0.5423
1381.422677 0.5659 0.5790 0.5814 0.5762 0.5685
1386.452360 0.5608 0.5531 0.5453 0.5376 0.5300
1391.482042 0.5274 0.5322 0.5452 0.5616 0.5778
1396.511725 0.5925 0.5978 0.5918 0.5817 0.5716
1401.541407 0.5616 0.5516 0.5416 0.5368 0.5365
1406.571089 0.5562 0.6025 0.6580 0.6993 0.7120
1411.600772 0.7106 0.7091 0.7070 0.7045 0.7018
1416.630454 0.6989 0.6957 0.6923 0.6885 0.6845
1421.660137 0.6803 0.6750 0.6494 0.6126 0.5839
1426.689819 0.5551 0.5264 0.4977 0.4703 0.4540
1431.719501 0.4463 0.4289 0.4031 0.3790 0.3619
1436.749184 0.3507 0.3373 0.3207 0.3064 0.2961
1441.778866 0.2844 0.2716 0.2605 0.2508 0.2410
1446.808549 0.2301 0.2174 0.2054 0.1948 0.1848
1451.838231 0.1730 0.1630 0.1613 0.1614 0.1615
1456.867913 0.1621 0.1628 0.1634 0.1645 0.1711
1461.897596 0.1872 0.2047 0.2223 0.2399 0.2575
1466.927278 0.2750 0.2910 0.3024 0.3102 0.3149
1471.956961 0.3169 0.3188 0.3208 0.3377 0.4042
1476.986643 0.4809 0.4886 0.4876 0.4867 0.4725
1482.016325 0.4450 0.4174 0.3899 0.3624 0.3349
1487.046008 0.3093 0.2946 0.3105 0.3728 0.4324
1492.075690 0.4919 0.5514 0.6109 0.6704 0.7219
1497.105373 0.7430 0.7631 0.7699 0.7728 0.7737
1502.135055 0.7746 0.7751 0.7747 0.7741 0.7735
1507.164737 0.7726 0.7716 0.7704 0.7691 0.7678
1512.194420 0.7661 0.7640 0.7624 0.7621 0.7619
1517.224102 0.7619 0.7622 0.7624 0.7627 0.7630
1522.253785 0.7632 0.7633 0.7634 0.7635 0.7631
1527.283467 0.7625 0.7618 0.7610 0.7602 0.7594
1532.313149 0.7583 0.7571 0.7560 0.7548 0.7537
1537.342832 0.7524 0.7508 0.7491 0.7475 0.7458
1542.372514 0.7438 0.7406 0.7374 0.7323 0.7261
1547.402196 0.7135 0.6995 0.6902 0.6858 0.6836
1552.431879 0.6820 0.6809 0.6797 0.6785 0.6771
1557.461561 0.6756 0.6707 0.6328 0.5934 0.5539
1562.491244 0.5407 0.5417 0.5866 0.6344 0.7098
1567.520926 0.7137 0.7122 0.7095 0.7074 0.7009
1572.550608 0.6906 0.6820 0.6756 0.6697 0.6630
1577.580291 0.6492 0.6284 0.6053 0.5819 0.5584
1582.609973 0.5350 0.5116 0.4881 0.4790 0.4761
1587.639656 0.5024 0.5304 0.5578 0.5851 0.6125
1592.669338 0.6399 0.6994 0.7019 0.7050 0.7053
1597.699020 0.7037 0.7007 0.6971 0.6935 0.6898
1602.728703 0.6861 0.6793 0.6737 0.6661 0.6587
1607.758385 0.6537 0.6493 0.6449 0.6407 0.6362
1612.788068 0.6305 0.6246 0.6197 0.6150 0.6074
1617.817750 0.5960 0.5815 0.5691 0.5599 0.5517
1622.847432 0.5421 0.5292 0.5143 0.4973 0.4789
1627.877115 0.4098 0.3400 0.2808 0.2215 0.1916
1632.906797 0.1837 0.1845 0.2040 0.2440 0.2905
1637.936480 0.3371 0.3837 0.4302 0.4768 0.5233
1642.966162 0.5699 0.6165 0.6630 0.7039 0.7282
1647.995844 0.7367 0.7396 0.7413 0.7418 0.7418
1653.025527 0.7432 0.7422 0.7401 0.7387 0.7350
1658.055209 0.7287 0.7220 0.7157 0.7101 0.7049
1663.084892 0.6998 0.6928 0.6843 0.6772 0.6715
1668.114574 0.6651 0.6607 0.6593 0.6584 0.6574
1673.144256 0.6565 0.6556 0.6535 0.6440 0.6316
1678.173939 0.6239 0.6173 0.6113 0.6063 0.6022
1683.203621 0.5981 0.5943 0.5906 0.5868 0.5831
1688.233304 0.5787 0.5731 0.5673 0.5610 0.5537
1693.262986 0.5456 0.5375 0.5269 0.5121 0.4962
1698.292668 0.4778 0.4387 0.3686 0.2928 0.2171
1703.322351 0.1601 0.1432 0.1424 0.1425 0.1410
1708.352033 0.1414 0.1523 0.1665 0.1808 0.1950
1713.381716 0.2093 0.2235 0.2378 0.2521 0.2663
1718.411398 0.2822 0.3121 0.3639 0.4157 0.4676
1723.441080 0.5195 0.5713 0.6129 0.6311 0.6466
1728.470763 0.6547 0.6699 0.7030 0.7389 0.7588
1733.500445 0.7760 0.7864 0.7922 0.7964 0.7998
1738.530128 0.8022 0.8044 0.8065 0.8085 0.8099
1743.559810 0.8105 0.8111 0.8117 0.8124 0.8135
1748.589492 0.8153 0.8193 0.8213 0.8220 0.8214
1753.619175 0.8212 0.8219 0.8197 0.8191 0.8184
1758.648857 0.8176 0.8168 0.8158 0.8149 0.8139
1763.678540 0.8130 0.8120 0.8111 0.8102 0.8093
1768.708222 0.8085 0.8076 0.8067 0.8058 0.8048
1773.737904 0.8039 0.8030 0.8020 0.8011 0.8001
1778.767587 0.7992 0.7982 0.7972 0.7962 0.7952
1783.797269 0.7942 0.7932 0.7922 0.7912 0.7901
1788.826952 0.7889 0.7877 0.7866 0.7854 0.7844
1793.856634 0.7838 0.7832 0.7826 0.7820 0.7814
1798.886316 0.7808 0.7804 0.7803 0.7801 0.7800
1803.915999 0.7799 0.7797 0.7796 0.7797 0.7800
1808.945681 0.7803 0.7807 0.7810 0.7813 0.7817
1813.975364 0.7820 0.7825 0.7832 0.7838 0.7845
1819.005046 0.7851 0.7857 0.7864 0.7870 0.7877
1824.034728 0.7883 0.7890 0.7896 0.7903 0.7908
1829.064411 0.7909 0.7910 0.7911 0.7911 0.7912
1834.094093 0.7913 0.7914 0.7914 0.7913 0.7911
1839.123776 0.7908 0.7906 0.7904 0.7902 0.7900
1844.153458 0.7898 0.7896 0.7894 0.7890 0.7886
1849.183140 0.7882 0.7878 0.7874 0.7870 0.7865
1854.212823 0.7861 0.7857 0.7853 0.7849 0.7845
1859.242505 0.7841 0.7837 0.7834 0.7830 0.7826
1864.272188 0.7821 0.7814 0.7807 0.7800 0.7793
1869.301870 0.7786 0.7779 0.7772 0.7765 0.7759
1874.331552 0.7752 0.7745 0.7738 0.7731 0.7724
1879.361235 0.7717 0.7710 0.7703 0.7696 0.7689
1884.390917 0.7682 0.7675 0.7668 0.7660 0.7654
1889.420600 0.7647 0.7639 0.7632 0.7625 0.7617
1894.450282 0.7610 0.7603 0.7596 0.7588 0.7581
1899.479964 0.7574 0.7566 0.7560 0.7553 0.7547
1904.509647 0.7540 0.7534 0.7528 0.7521 0.7515
1909.539329 0.7508 0.7502 0.7495 0.7489 0.7482
1914.569012 0.7476 0.7469 0.7463 0.7458 0.7456
1919.598694 0.7454 0.7452 0.7451 0.7449 0.7447
1924.628376 0.7445 0.7443 0.7441 0.7439 0.7439
1929.658059 0.7441 0.7444 0.7447 0.7450 0.7453
1934.687741 0.7456 0.7459 0.7462 0.7465 0.7468
1939.717424 0.7470 0.7473 0.7475 0.7476 0.7478
1944.747106 0.7480 0.7481 0.7483 0.7485 0.7486
1949.776788 0.7488 0.7489 0.7491 0.7491 0.7488
1954.806471 0.7485 0.7481 0.7478 0.7475 0.7472
1959.836153 0.7469 0.7465 0.7461 0.7456 0.7450
1964.865836 0.7444 0.7437 0.7431 0.7425 0.7419
1969.895518 0.7413 0.7407 0.7401 0.7394 0.7388
1974.925200 0.7382 0.7376 0.7370 0.7363 0.7355
1979.954883 0.7346 0.7337 0.7329 0.7320 0.7303
1984.984565 0.7279 0.7254 0.7229 0.7204 0.7153
1990.014248 0.7074 0.7005 0.6968 0.6963 0.6961
1995.043930 0.6961 0.6974 0.7008 0.7048 0.7083
2000.073612 0.7117 0.7157 0.7202 0.7225 0.7226
2005.103295 0.7224 0.7222 0.7220 0.7219 0.7217
2010.132977 0.7215 0.7214 0.7212 0.7211 0.7209
2015.162660 0.7208 0.7206 0.7204 0.7199 0.7195
2020.192342 0.7190 0.7186 0.7182 0.7178 0.7174
2025.222024 0.7170 0.7167 0.7164 0.7160 0.7157
2030.251707 0.7154 0.7150 0.7146 0.7141 0.7134
2035.281389 0.7128 0.7122 0.7115 0.7109 0.7105
2040.311072 0.7102 0.7098 0.7094 0.7091 0.7087
2045.340754 0.7083 0.7080 0.7076 0.7073 0.7072
2050.370436 0.7071 0.7071 0.7071 0.7070 0.7070
2055.400119 0.7069 0.7067 0.7066 0.7064 0.7063
2060.429801 0.7061 0.7060 0.7058 0.7056 0.7055
2065.459484 0.7053 0.7052 0.7050 0.7048 0.7046
2070.489166 0.7044 0.7042 0.7040 0.7038 0.7036
2075.518848 0.7034 0.7032 0.7030 0.7028 0.7025
2080.548531 0.7023 0.7021 0.7019 0.7017 0.7014
2085.578213 0.7012 0.7010 0.7008 0.7005 0.7001
2090.607896 0.6996 0.6991 0.6987 0.6982 0.6977
2095.637578 0.6972 0.6967 0.6963 0.6958 0.6953
2100.667260 0.6948 0.6943 0.6939 0.6935 0.6930
2105.696943 0.6925 0.6921 0.6916 0.6911 0.6907
2110.726625 0.6902 0.6898 0.6895 0.6892 0.6889
2115.756308 0.6886 0.6883 0.6880 0.6877 0.6874
2120.785990 0.6873 0.6872 0.6871 0.6871 0.6870
2125.815672 0.6869 0.6867 0.6864 0.6861 0.6859
2130.845355 0.6856 0.6853 0.6851 0.6848 0.6845
2135.875037 0.6842 0.6840 0.6837 0.6834 0.6831
2140.904720 0.6829 0.6826 0.6823 0.6820 0.6818
2145.934402 0.6815 0.6812 0.6810 0.6807 0.6804
2150.964084 0.6802 0.6799 0.6797 0.6794 0.6792
2155.993767 0.6789 0.6786 0.6784 0.6781 0.6779
2161.023449 0.6776 0.6774 0.6771 0.6768 0.6766
2166.053131 0.6763 0.6761 0.6758 0.6756 0.6753
2171.082814 0.6750 0.6748 0.6745 0.6743 0.6740
2176.112496 0.6738 0.6735 0.6732 0.6730 0.6727
2181.142179 0.6725 0.6722 0.6719 0.6716 0.6712
2186.171861 0.6709 0.6706 0.6704 0.6701 0.6698
2191.201543 0.6695 0.6692 0.6689 0.6686 0.6683
2196.231226 0.6680 0.6677 0.6674 0.6671 0.6668
2201.260908 0.6665 0.6662 0.6659 0.6656 0.6653
2206.290591 0.6650 0.6647 0.6644 0.6640 0.6637
2211.320273 0.6634 0.6631 0.6628 0.6625 0.6622
2216.349955 0.6618 0.6614 0.6611 0.6607 0.6604
2221.379638 0.6600 0.6596 0.6593 0.6589 0.6585
2226.409320 0.6582 0.6578 0.6575 0.6571 0.6567
2231.439003 0.6564 0.6560 0.6557 0.6553 0.6549
2236.468685 0.6546 0.6542 0.6538 0.6535 0.6531
2241.498367 0.6528 0.6524 0.6520 0.6517 0.6513
2246.528050 0.6510 0.6506 0.6502 0.6499 0.6496
2251.557732 0.6493 0.6490 0.6487 0.6484 0.6482
2256.587415 0.6479 0.6476 0.6473 0.6470 0.6467
2261.617097 0.6464 0.6461 0.6458 0.6455 0.6453
2266.646779 0.6450 0.6447 0.6444 0.6441 0.6438
2271.676462 0.6435 0.6432 0.6429 0.6426 0.6424
2276.706144 0.6421 0.6418 0.6415 0.6412 0.6410
2281.735827 0.6407 0.6405 0.6402 0.6399 0.6397
2286.765509 0.6394 0.6392 0.6389 0.6386 0.6384
2291.795191 0.6382 0.6379 0.6376 0.6374 0.6371
2296.824874 0.6369 0.6366 0.6364 0.6361 0.6359
2301.854556 0.6356 0.6353 0.6351 0.6348 0.6346
2306.884239 0.6343 0.6341 0.6338 0.6335 0.6333
2311.913921 0.6330 0.6328 0.6325 0.6323 0.6320
2316.943603 0.6318 0.6315 0.6313 0.6310 0.6307
2321.973286 0.6305 0.6302 0.6300 0.6297 0.6295
2327.002968 0.6292 0.6290 0.6287 0.6285 0.6282
2332.032651 0.6280 0.6277 0.6275 0.6272 0.6271
2337.062333 0.6271 0.6272 0.6273 0.6274 0.6274
2342.092015 0.6275 0.6276 0.6278 0.6281 0.6285
2347.121698 0.6288 0.6292 0.6295 0.6298 0.6297
2352.151380 0.6296 0.6295 0.6294 0.6293 0.6292
2357.181063 0.6291 0.6290 0.6289 0.6288 0.6287
2362.210745 0.6286 0.6285 0.6285 0.6284 0.6282
2367.240427 0.6279 0.6277 0.6274 0.6272 0.6270
2372.270110 0.6267 0.6265 0.6262 0.6260 0.6258
2377.299792 0.6255 0.6251 0.6247 0.6243 0.6240
2382.329475 0.6236 0.6232 0.6228 0.6224 0.6220
2387.359157 0.6217 0.6213 0.6209 0.6205 0.6201
2392.388839 0.6197 0.6193 0.6190 0.6188 0.6185
2397.418522 0.6182 0.6180 0.6178 0.6175 0.6173
2402.448204 0.6170 0.6167 0.6164 0.6161 0.6158
2407.477887 0.6155 0.6152 0.6149 0.6146 0.6143
2412.507569 0.6140 0.6136 0.6133 0.6130 0.6127
2417.537251 0.6124 0.6121 0.6118 0.6115 0.6112
2422.566934 0.6109 0.6106 0.6102 0.6099 0.6096
2427.596616 0.6093 0.6090 0.6087 0.6084 0.6081
2432.626299 0.6078 0.6075 0.6071 0.6068 0.6065
2437.655981 0.6062 0.6059 0.6056 0.6053 0.6049
2442.685663 0.6046 0.6043 0.6040 0.6037 0.6034
2447.715346 0.6030 0.6027 0.6024 0.6021 0.6018
2452.745028 0.6015 0.6012 0.6008 0.6005 0.6002
2457.774711 0.5999 0.5997 0.5994 0.5991 0.5989
2462.804393 0.5986 0.5983 0.5981 0.5978 0.5975
2467.834075 0.5973 0.5970 0.5967 0.5965 0.5962
2472.863758 0.5959 0.5957 0.5954 0.5951 0.5949
2477.893440 0.5947 0.5946 0.5946 0.5946 0.5946
2482.923123 0.5946 0.5946 0.5945 0.5945 0.5945
2487.952805 0.5945 0.5945 0.5945 0.5944 0.5944
2492.982487 0.5944 0.5944 0.5944 0.5943 0.5942
2498.012170 0.5942 0.5941 0.5939 0.5937 0.5935
2503.041852 0.5933 0.5931 0.5929 0.5927 0.5925
2508.071535 0.5922 0.5920 0.5918 0.5916 0.5914
2513.101217 0.5911 0.5908 0.5905 0.5902 0.5899
2518.130899 0.5896 0.5893 0.5890 0.5887 0.5883
2523.160582 0.5878 0.5873 0.5868 0.5863 0.5858
2528.190264 0.5853 0.5848 0.5843 0.5838 0.5833
2533.219947 0.5828 0.5822 0.5815 0.5809 0.5803
2538.249629 0.5796 0.5790 0.5783 0.5777 0.5771
2543.279311 0.5764 0.5758 0.5751 0.5745 0.5739
2548.308994 0.5733 0.5728 0.5723 0.5719 0.5714
2553.338676 0.5710 0.5705 0.5701 0.5696 0.5692
2558.368359 0.5687 0.5683 0.5678 0.5674 0.5669
2563.398041 0.5665 0.5660 0.5655 0.5651 0.5646
2568.427723 0.5642 0.5638 0.5633 0.5629 0.5624
2573.457406 0.5620 0.5615 0.5611 0.5608 0.5605
2578.487088 0.5601 0.5598 0.5595 0.5592 0.5588
2583.516771 0.5585 0.5582 0.5578 0.5575 0.5572
2588.546453 0.5569 0.5565 0.5562 0.5559 0.5555
2593.576135 0.5552 0.5549 0.5546 0.5542 0.5539
2598.605818 0.5536 0.5532 0.5529 0.5526 0.5523
2603.635500 0.5519 0.5516 0.5513 0.5510 0.5507
2608.665183 0.5504 0.5501 0.5497 0.5494 0.5491
2613.694865 0.5488 0.5484 0.5481 0.5478 0.5474
2618.724547 0.5471 0.5468 0.5465 0.5461 0.5458
2623.754230 0.5455 0.5451 0.5448 0.5445 0.5441
2628.783912 0.5438 0.5434 0.5431 0.5428 0.5424
2633.813595 0.5421 0.5418 0.5414 0.5411 0.5408
2638.843277 0.5404 0.5401 0.5398 0.5394 0.5391
2643.872959 0.5388 0.5386 0.5383 0.5380 0.5378
2648.902642 0.5375 0.5372 0.5370 0.5367 0.5364
2653.932324 0.5362 0.5359 0.5356 0.5353 0.5351
2658.962007 0.5348 0.5345 0.5343 0.5341 0.5341
2663.991689 0.5340 0.5339 0.5339 0.5338 0.5337
2669.021371 0.5336 0.5336 0.5335 0.5334 0.5334
2674.051054 0.5333 0.5333 0.5333 0.5333 0.5333
2679.080736 0.5333 0.5332 0.5332 0.5332 0.5332
2684.110419 0.5332 0.5331 0.5329 0.5327 0.5326
2689.140101 0.5324 0.5322 0.5320 0.5319 0.5317
2694.169783 0.5315 0.5314 0.5312 0.5310 0.5308
2699.199466 0.5305 0.5301 0.5298 0.5295 0.5292
2704.229148 0.5289 0.5286 0.5283 0.5280 0.5277
2709.258831 0.5274 0.5271 0.5269 0.5266 0.5263
2714.288513 0.5260 0.5257 0.5254 0.5251 0.5248
2719.318195 0.5245 0.5242 0.5238 0.5235 0.5232
2724.347878 0.5234 0.5235 0.5237 0.5239 0.5240
2729.377560 0.5242 0.5243 0.5245 0.5247 0.5248
2734.407243 0.5250 0.5251 0.5255 0.5258 0.5262
2739.436925 0.5265 0.5269 0.5272 0.5276 0.5279
2744.466607 0.5283 0.5286 0.5288 0.5289 0.5290
2749.496290 0.5292 0.5293 0.5294 0.5296 0.5297
2754.525972 0.5299 0.5300 0.5301 0.5299 0.5297
2759.555654 0.5295 0.5293 0.5291 0.5289 0.5287
2764.585337 0.5285 0.5282 0.5277 0.5273 0.5269
2769.615019 0.5264 0.5260 0.5256 0.5250 0.5244
2774.644702 0.5237 0.5231 0.5225 0.5212 0.5197
2779.674384 0.5182 0.5162 0.5142 0.5122 0.5096
2784.704066 0.5049 0.5026 0.5008 0.4990 0.4974
2789.733749 0.4959 0.4944 0.4930 0.4923 0.4917
2794.763431 0.4911 0.4906 0.4898 0.4890 0.4882
2799.793114 0.4873 0.4865 0.4857 0.4840 0.4822
2804.822796 0.4803 0.4779 0.4752 0.4724 0.4696
2809.852478 0.4668 0.4640 0.4612 0.4580 0.4540
2814.882161 0.4499 0.4457 0.4415 0.4374 0.4321
2819.911843 0.4265 0.4209 0.4153 0.4093 0.4022
2824.941526 0.3948 0.3875 0.3801 0.3727 0.3635
2829.971208 0.3534 0.3431 0.3328 0.3197 0.3058
2835.000890 0.2931 0.2841 0.2762 0.2682 0.2602
2840.030573 0.2472 0.2279 0.1962 0.1731 0.1562
2845.060255 0.1402 0.1109 0.0847 0.0618 0.0483
2850.089938 0.0412 0.0351 0.0307 0.0273 0.0238
2855.119620 0.0212 0.0191 0.0176 0.0171 0.0170
2860.149302 0.0169 0.0171 0.0174 0.0178 0.0181
2865.178985 0.0185 0.0190 0.0197 0.0205 0.0212
2870.208667 0.0220 0.0229 0.0238 0.0246 0.0256
2875.238350 0.0267 0.0279 0.0290 0.0302 0.0313
2880.268032 0.0326 0.0341 0.0356 0.0362 0.0362
2885.297714 0.0360 0.0354 0.0347 0.0340 0.0332
2890.327397 0.0319 0.0302 0.0283 0.0264 0.0245
2895.357079 0.0225 0.0201 0.0178 0.0154 0.0131
2900.386762 0.0107 0.0086 0.0069 0.0054 0.0047
2905.416444 0.0046 0.0046 0.0046 0.0046 0.0045
2910.446126 0.0045 0.0045 0.0046 0.0047 0.0047
2915.475809 0.0048 0.0049 0.0049 0.0050 0.0051
2920.505491 0.0051 0.0052 0.0053 0.0053 0.0054
2925.535174 0.0054 0.0055 0.0055 0.0056 0.0057
2930.564856 0.0057 0.0058 0.0058 0.0059 0.0059
2935.594538 0.0060 0.0060 0.0061 0.0061 0.0061
2940.624221 0.0061 0.0062 0.0062 0.0062 0.0063
2945.653903 0.0063 0.0063 0.0064 0.0065 0.0066
2950.683586 0.0068 0.0070 0.0071 0.0073 0.0075
2955.713268 0.0077 0.0078 0.0080 0.0082 0.0084
2960.742950 0.0085 0.0087 0.0090 0.0091 0.0093
2965.772633 0.0096 0.0099 0.0109 0.0128 0.0147
2970.802315 0.0167 0.0187 0.0215 0.0246 0.0276
2975.831998 0.0306 0.0337 0.0369 0.0400 0.0460
2980.861680 0.0528 0.0596 0.0682 0.0771 0.0904
2985.891362 0.1068 0.1293 0.1408 0.1510 0.1597
2990.921045 0.1683 0.1753 0.1806 0.1857 0.1907
2995.950727 0.1950 0.1976 0.2000 0.2016 0.2017
3000.980410 0.2018 0.2019 0.2020 0.2021 0.1996
3006.010092 0.1970 0.1934 0.1896 0.1856 0.1804
3011.039774 0.1752 0.1701 0.1669 0.1640 0.1632
3016.069457 0.1629 0.1625 0.1646 0.1961 0.2319
3021.099139 0.2677 0.3019 0.3202 0.3256 0.3271
3026.128822 0.3283 0.3284 0.3286 0.3287 0.3290
3031.158504 0.3294 0.3297 0.3301 0.3306 0.3310
3036.188186 0.3316 0.3332 0.3351 0.3370 0.3397
3041.217869 0.3429 0.3465 0.3511 0.3547 0.3576
3046.247551 0.3601 0.3612 0.3622 0.3633 0.3644
3051.277234 0.3653 0.3659 0.3665 0.3672 0.3678
3056.306916 0.3684 0.3690 0.3696 0.3705 0.3720
3061.336598 0.3735 0.3751 0.3770 0.3794 0.3813
3066.366281 0.3820 0.3822 0.3824 0.3827 0.3829
3071.395963 0.3832 0.3835 0.3839 0.3846 0.3853
3076.425646 0.3860 0.3866 0.3874 0.3886 0.3903
3081.455328 0.3917 0.3928 0.3936 0.3944 0.3953
3086.485010 0.3961 0.3968 0.3972 0.3976 0.3980
3091.514693 0.3983 0.3986 0.3989 0.3992 0.3996
3096.544375 0.3999 0.4002 0.4005 0.4009 0.4012
3101.574058 0.4016 0.4020 0.4024 0.4028 0.4032
3106.603740 0.4036 0.4040 0.4044 0.4048 0.4053
3111.633422 0.4057 0.4061 0.4065 0.4069 0.4073
3116.663105 0.4077 0.4081 0.4085 0.4089 0.4093
3121.692787 0.4097 0.4101 0.4105 0.4109 0.4112
3126.722470 0.4115 0.4118 0.4121 0.4123 0.4126
3131.752152 0.4129 0.4132 0.4135 0.4138 0.4140
3136.781834 0.4143 0.4146 0.4149 0.4152 0.4154
3141.811517 0.4157 0.4160 0.4163 0.4165 0.4169
3146.841199 0.4172 0.4175 0.4177 0.4180 0.4182
3151.870882 0.4183 0.4184 0.4184 0.4185 0.4185
3156.900564 0.4186 0.4186 0.4187 0.4187 0.4188
3161.930246 0.4188 0.4189 0.4190 0.4190 0.4191
3166.959929 0.4191 0.4192 0.4192 0.4193 0.4193
3171.989611 0.4194 0.4195 0.4195 0.4196 0.4196
3177.019294 0.4197 0.4197 0.4198 0.4198 0.4199
3182.048976 0.4199 0.4199 0.4199 0.4199 0.4199
3187.078658 0.4200 0.4200 0.4200 0.4200 0.4200
3192.108341 0.4200 0.4200 0.4200 0.4200 0.4200
3197.138023 0.4201 0.4201 0.4201 0.4201 0.4201
3202.167706 0.4201 0.4202 0.4202 0.4203 0.4204
3207.197388 0.4204 0.4205 0.4206 0.4207 0.4207
3212.227070 0.4208 0.4209 0.4210 0.4210 0.4211
3217.256753 0.4212 0.4213 0.4213 0.4214 0.4214
3222.286435 0.4213 0.4213 0.4212 0.4212 0.4211
3227.316118 0.4211 0.4210 0.4210 0.4209 0.4209
3232.345800 0.4208 0.4208 0.4207 0.4207 0.4206
3237.375482 0.4206 0.4205 0.4205 0.4204 0.4204
3242.405165 0.4203 0.4202 0.4202 0.4201 0.4200
3247.434847 0.4200 0.4199 0.4198 0.4197 0.4197
3252.464530 0.4196 0.4195 0.4195 0.4194 0.4193
3257.494212 0.4192 0.4192 0.4190 0.4190 0.4189
3262.523894 0.4188 0.4187 0.4186 0.4185 0.4184
3267.553577 0.4182 0.4181 0.4180 0.4178 0.4177
3272.583259 0.4175 0.4174 0.4173 0.4171 0.4170
3277.612942 0.4170 0.4170 0.4170 0.4169 0.4169
3282.642624 0.4169 0.4168 0.4168 0.4168 0.4168
3287.672306 0.4167 0.4167 0.4167 0.4166 0.4166
3292.701989 0.4166 0.4166 0.4165 0.4165 0.4165
3297.731671 0.4164 0.4164 0.4164 0.4164 0.4163
3302.761354 0.4163 0.4163 0.4162 0.4162 0.4162
3307.791036 0.4162 0.4161 0.4161 0.4161 0.4160
3312.820718 0.4160 0.4159 0.4159 0.4158 0.4158
3317.850401 0.4157 0.4157 0.4157 0.4156 0.4156
3322.880083 0.4155 0.4155 0.4154 0.4154 0.4154
3327.909766 0.4153 0.4153 0.4152 0.4152 0.4151
3332.939448 0.4151 0.4150 0.4150 0.4150 0.4149
3337.969130 0.4149 0.4148 0.4148 0.4147 0.4147
3342.998813 0.4146 0.4145 0.4144 0.4143 0.4142
3348.028495 0.4141 0.4140 0.4139 0.4138 0.4137
3353.058178 0.4136 0.4135 0.4134 0.4133 0.4132
3358.087860 0.4131 0.4130 0.4129 0.4127 0.4126
3363.117542 0.4125 0.4124 0.4123 0.4122 0.4121
3368.147225 0.4120 0.4119 0.4118 0.4117 0.4116
3373.176907 0.4115 0.4114 0.4113 0.4112 0.4111
3378.206589 0.4110 0.4109 0.4108 0.4107 0.4106
3383.236272 0.4105 0.4104 0.4102 0.4099 0.4097
3388.265954 0.4095 0.4093 0.4091 0.4089 0.4087
3393.295637 0.4085 0.4083 0.4081 0.4079 0.4076
3398.325319 0.4074 0.4072 0.4070 0.4068 0.4066
3403.355001 0.4064 0.4062 0.4060 0.4059 0.4058
3408.384684 0.4057 0.4056 0.4056 0.4055 0.4055
3413.414366 0.4054 0.4054 0.4053 0.4052 0.4052
3418.444049 0.4051 0.4051 0.4050 0.4050 0.4049
3423.473731 0.4048 0.4048 0.4047 0.4047 0.4046
3428.503413 0.4046 0.4044 0.4044 0.4043 0.4042
3433.533096 0.4042 0.4041 0.4040 0.4039 0.4039
3438.562778 0.4038 0.4037 0.4037 0.4036 0.4036
3443.592461 0.4036 0.4037 0.4037 0.4037 0.4037
3448.622143 0.4037 0.4037 0.4037 0.4037 0.4037
3453.651825 0.4037 0.4037 0.4037 0.4037 0.4037
3458.681508 0.4037 0.4037 0.4036 0.4035 0.4033
3463.711190 0.4032 0.4031 0.4029 0.4028 0.4027
3468.740873 0.4026 0.4024 0.4023 0.4022 0.4020
3473.770555 0.4019 0.4018 0.4016 0.4015 0.4014
3478.800237 0.4013 0.4011 0.4010 0.4009 0.4008
3483.829920 0.4007 0.4007 0.4006 0.4006 0.4005
3488.859602 0.4005 0.4004 0.4003 0.4003 0.4002
3493.889285 0.4002 0.4001 0.4001 0.4000 0.4000
3498.918967 0.3999 0.3998 0.3998 0.3997 0.3997
3503.948649 0.3996 0.3996 0.3995 0.3994 0.3994
3508.978332 0.3993 0.3993 0.3992 0.3992 0.3991
3514.008014 0.3990 0.3990 0.3989 0.3989 0.3988
3519.037697 0.3988 0.3988 0.3988 0.3989 0.3989
3524.067379 0.3990 0.3991 0.3991 0.3992 0.3992
3529.097061 0.3993 0.3993 0.3994 0.3995 0.3995
3534.126744 0.3996 0.3996 0.3997 0.3997 0.3998
3539.156426 0.3998 0.3999 0.4000 0.4000 0.4001
3544.186109 0.4001 0.4002 0.4002 0.4003 0.4004
3549.215791 0.4003 0.4002 0.4001 0.4001 0.4000
3554.245473 0.3999 0.3998 0.3998 0.3997 0.3996
3559.275156 0.3995 0.3995 0.3994 0.3993 0.3992
3564.304838 0.3990 0.3989 0.3987 0.3985 0.3983
3569.334521 0.3982 0.3980 0.3978 0.3976 0.3975
3574.364203 0.3973 0.3971 0.3969 0.3968 0.3966
3579.393885 0.3964 0.3962 0.3961 0.3959 0.3957
3584.423568 0.3955 0.3954 0.3952 0.3950 0.3948
3589.453250 0.3947 0.3945 0.3943 0.3941 0.3940
3594.482933 0.3938 0.3936 0.3934 0.3932 0.3930
3599.512615 0.3928 0.3926 0.3924 0.3922 0.3920
3604.542297 0.3918 0.3916 0.3914 0.3912 0.3910
3609.571980 0.3908 0.3907 0.3905 0.3903 0.3901
3614.601662 0.3899 0.3897 0.3895 0.3893 0.3891
3619.631345 0.3889 0.3887 0.3885 0.3883 0.3881
3624.661027 0.3879 0.3877 0.3875 0.3874 0.3872
3629.690709 0.3870 0.3868 0.3867 0.3865 0.3863
3634.720392 0.3861 0.3860 0.3858 0.3856 0.3854
3639.750074 0.3852 0.3850 0.3848 0.3847 0.3845
3644.779757 0.3843 0.3841 0.3840 0.3838 0.3836
3649.809439 0.3834 0.3832 0.3831 0.3829 0.3827
3654.839121 0.3825 0.3824 0.3822 0.3820 0.3818
3659.868804 0.3817 0.3815 0.3814 0.3813 0.3812
3664.898486 0.3812 0.3811 0.3810 0.3810 0.3809
3669.928169 0.3808 0.3808 0.3807 0.3806 0.3806
3674.957851 0.3805 0.3804 0.3804 0.3803 0.3802
3679.987533 0.3802 0.3801 0.3800 0.3800 0.3799
3685.017216 0.3798 0.3798 0.3797 0.3796 0.3795
3690.046898 0.3795 0.3794 0.3793 0.3793 0.3792
3695.076581 0.3791 0.3791 0.3790 0.3789 0.3789
3700.106263 0.3788 0.3787 0.3787 0.3786 0.3786
3705.135945 0.3786 0.3785 0.3785 0.3785 0.3784
3710.165628 0.3784 0.3784 0.3784 0.3783 0.3783
3715.195310 0.3783 0.3782 0.3782 0.3782 0.3782
3720.224993 0.3781 0.3781 0.3781 0.3780 0.3780
3725.254675 0.3780 0.3779 0.3779 0.3779 0.3779
3730.284357 0.3778 0.3778 0.3778 0.3777 0.3777
3735.314040 0.3777 0.3777 0.3776 0.3776 0.3776
3740.343722 0.3775 0.3775 0.3775 0.3774 0.3774
3745.373405 0.3774 0.3774 0.3773 0.3773 0.3773
3750.403087 0.3772 0.3772 0.3772 0.3771 0.3771
3755.432769 0.3771 0.3770 0.3770 0.3770 0.3769
3760.462452 0.3769 0.3769 0.3768 0.3768 0.3768
3765.492134 0.3767 0.3766 0.3766 0.3766 0.3765
3770.521817 0.3765 0.3765 0.3764 0.3764 0.3764
3775.551499 0.3763 0.3763 0.3763 0.3762 0.3762
3780.581181 0.3762 0.3761 0.3761 0.3761 0.3760
3785.610864 0.3760 0.3760 0.3759 0.3759 0.3759
3790.640546 0.3758 0.3758 0.3758 0.3757 0.3757
3795.670229 0.3756 0.3756 0.3756 0.3755 0.3755
3800.699911 0.3754 0.3752 0.3750 0.3748 0.3747
3805.729593 0.3745 0.3743 0.3741 0.3740 0.3737
3810.759276 0.3735 0.3734 0.3732 0.3730 0.3728
3815.788958 0.3727 0.3725 0.3723 0.3721 0.3720
3820.818641 0.3718 0.3716 0.3714 0.3713 0.3711
3825.848323 0.3709 0.3707 0.3706 0.3704 0.3702
3830.878005 0.3700 0.3699 0.3697 0.3695 0.3693
3835.907688 0.3692 0.3690 0.3688 0.3686 0.3685
3840.937370 0.3683 0.3681 0.3679 0.3678 0.3676
3845.967053 0.3674 0.3672 0.3671 0.3669 0.3668
3850.996735 0.3666 0.3665 0.3663 0.3662 0.3660
3856.026417 0.3658 0.3657 0.3655 0.3654 0.3652
3861.056100 0.3651 0.3649 0.3648 0.3646 0.3644
3866.085782 0.3643 0.3641 0.3640 0.3638 0.3637
3871.115465 0.3635 0.3634 0.3632 0.3630 0.3629
3876.145147 0.3627 0.3626 0.3624 0.3623 0.3621
3881.174829 0.3620 0.3618 0.3616 0.3615 0.3613
3886.204512 0.3612 0.3611 0.3610 0.3609 0.3608
3891.234194 0.3607 0.3606 0.3605 0.3604 0.3603
3896.263877 0.3602 0.3601 0.3600 0.3599 0.3598
3901.293559 0.3597 0.3596 0.3595 0.3594 0.3593
3906.323241 0.3592 0.3591 0.3590 0.3589 0.3588
3911.352924 0.3587 0.3586 0.3585 0.3584 0.3583
3916.382606 0.3582 0.3581 0.3580 0.3579 0.3578
3921.412289 0.3577 0.3576 0.3575 0.3574 0.3573
3926.441971 0.3573 0.3572 0.3571 0.3571 0.3570
3931.471653 0.3570 0.3569 0.3568 0.3568 0.3567
3936.501336 0.3567 0.3565 0.3565 0.3564 0.3563
3941.531018 0.3563 0.3562 0.3562 0.3561 0.3560
3946.560701 0.3560 0.3559 0.3559 0.3558 0.3557
3951.590383 0.3557 0.3556 0.3556 0.3555 0.3554
3956.620065 0.3554 0.3553 0.3552 0.3551 0.3550
3961.649748 0.3541 0.3544 0.3548 0.3547 0.3546
3966.679430 0.3545 0.3544 0.3543 0.3542 0.3542
3971.709112 0.3541 0.3540 0.3539 0.3538 0.3537
3976.738795 0.3536 0.3536 0.3535 0.3534 0.3533
3981.768477 0.3532 0.3531 0.3530 0.3530 0.3529
3986.798160 0.3528 0.3527 0.3526 0.3526 0.3525
3991.827842 0.3524 0.3524 0.3523 0.3522 0.3522
3996.857524 0.3521 0.3520 0.3520 0.3519 0.3518
4001.887207 0.3518 0.3517 0.3516 0.3516 0.3515
4006.916889 0.3514 0.3513 0.3513 0.3512 0.3511
4011.946572 0.3511 0.3510 0.3509 0.3509 0.3508
4016.976254 0.3507 0.3507 0.3506 0.3506
##END=
