##TITLE=UREA, (2-MERCAPTOETHYL)-
##JCAMP-DX=4.24
##DATA TYPE=INFRARED SPECTRUM
##CLASS=COBLENTZ III
##ORIGIN=SOUTHERN RESEARCH INSTITUTE
##OWNER=COBLENTZ SOCIETY
Collection (C) 2018 copyright by the U.S. Secretary of Commerce
on behalf of the United States of America. All rights reserved.
##DATE=1960/02/29
##MOLFORM=C3 H8 O S
##SOURCE REFERENCE=COBLENTZ NO. 7394
##$NIST ID=B6007394
##$NIST SOURCE=COBLENTZ
##$NIST IMAGE=cob7394
##SPECTROMETER/DATA SYSTEM=PERKIN-ELMER 21 (GRATING)
##INSTRUMENT PARAMETERS=FILTER CHANGE AT ABOUT 1020 CM^-^1
##STATE=SOLID (0.8 mg / 650 mg, KBr DISC)
##SAMPLING PROCEDURE=TRANSMISSION
##RESOLUTION=2
##DATA PROCESSING=DIGITIZED BY NIST FROM HARD COPY (FROM TWO SEGMENTS)
##XUNITS=1/CM
##YUNITS=TRANSMITTANCE
##XFACTOR=1.000000
##YFACTOR=1
##DELTAX=1.309329
##FIRSTX=605.941
##LASTX=4011.51
##FIRSTY=0.423
##MAXX=4011.51
##MINX=605.941
##MAXY=0.943
##MINY=0.039
##NPOINTS=2602
##XYDATA=(X++(Y..Y))
605.941000 0.4230 0.4230 0.4230 0.4230 0.4230
612.487645 0.4240 0.4240 0.4240 0.4259 0.4269
619.034290 0.4270 0.4279 0.4298 0.4318 0.4346
625.580935 0.4350 0.4350 0.4359 0.4360 0.4368
632.127580 0.4387 0.4398 0.4400 0.4408 0.4426
638.674225 0.4438 0.4448 0.4465 0.4478 0.4488
645.220870 0.4498 0.4500 0.4515 0.4527 0.4530
651.767515 0.4537 0.4554 0.4567 0.4570 0.4570
658.314160 0.4570 0.4570 0.4577 0.4580 0.4580
664.860805 0.4593 0.4606 0.4628 0.4658 0.4688
671.407450 0.4724 0.4763 0.4809 0.4847 0.4866
677.954095 0.4875 0.4944 0.5048 0.5137 0.5216
684.500740 0.5285 0.5345 0.5395 0.5463 0.5534
691.047385 0.5579 0.5614 0.5648 0.5687 0.5719
697.594030 0.5743 0.5777 0.5812 0.5838 0.5862
704.140675 0.5884 0.5901 0.5924 0.5934 0.5947
710.687320 0.5963 0.5973 0.5990 0.6016 0.6039
717.233965 0.6063 0.6079 0.6108 0.6133 0.6143
723.780610 0.6158 0.6185 0.6210 0.6245 0.6265
730.327255 0.6284 0.6304 0.6326 0.6358 0.6392
736.873900 0.6407 0.6445 0.6473 0.6496 0.6536
743.420545 0.6575 0.6615 0.6655 0.6694 0.6735
749.967190 0.6783 0.6810 0.6811 0.6820 0.6820
756.513835 0.6820 0.6820 0.6820 0.6809 0.6790
763.060480 0.6780 0.6730 0.6710 0.6700 0.6690
769.607125 0.6690 0.6671 0.6651 0.6641 0.6640
776.153770 0.6621 0.6620 0.6620 0.6620 0.6620
782.700415 0.6620 0.6620 0.6646 0.6762 0.6900
789.247060 0.6996 0.7078 0.7149 0.7210 0.7286
795.793705 0.7389 0.7482 0.7563 0.7650 0.7740
802.340350 0.7791 0.7823 0.7845 0.7872 0.7887
808.886995 0.7890 0.7890 0.7890 0.7890 0.7890
815.433640 0.7890 0.7897 0.7900 0.7900 0.7900
821.980285 0.7900 0.7900 0.7900 0.7894 0.7890
828.526930 0.7890 0.7890 0.7890 0.7890 0.7884
835.073575 0.7869 0.7854 0.7823 0.7795 0.7774
841.620220 0.7755 0.7750 0.7740 0.7725 0.7720
848.166865 0.7720 0.7720 0.7720 0.7734 0.7754
854.713510 0.7764 0.7770 0.7770 0.7770 0.7770
861.260155 0.7770 0.7770 0.7770 0.7763 0.7750
867.806800 0.7750 0.7750 0.7750 0.7753 0.7770
874.353445 0.7793 0.7803 0.7816 0.7833 0.7840
880.900090 0.7845 0.7865 0.7880 0.7883 0.7890
887.446735 0.7890 0.7890 0.7890 0.7890 0.7890
893.993380 0.7888 0.7876 0.7860 0.7858 0.7850
900.540025 0.7847 0.7830 0.7827 0.7809 0.7799
907.086670 0.7788 0.7769 0.7759 0.7748 0.7729
913.633315 0.7719 0.7709 0.7689 0.7680 0.7670
920.179960 0.7659 0.7640 0.7629 0.7600 0.7590
926.726605 0.7580 0.7560 0.7550 0.7540 0.7511
933.273250 0.7491 0.7490 0.7490 0.7434 0.7430
939.819895 0.7430 0.7421 0.7420 0.7420 0.7420
946.366540 0.7420 0.7420 0.7420 0.7445 0.7450
952.913185 0.7458 0.7460 0.7460 0.7460 0.7468
959.459830 0.7462 0.7460 0.7452 0.7458 0.7452
966.006475 0.7450 0.7435 0.7423 0.7413 0.7396
972.553120 0.7383 0.7380 0.7373 0.7356 0.7343
979.099765 0.7333 0.7323 0.7301 0.7264 0.7231
985.646410 0.7195 0.7168 0.7142 0.7106 0.7078
992.193055 0.7052 0.7023 0.6999 0.6973 0.6949
998.739700 0.6924 0.6905 0.6884 0.6854 0.6830
1005.286345 0.6805 0.6780 0.6755 0.6735 0.6716
1011.832990 0.6686 0.6661 0.6646 0.6640 0.6631
1018.379635 0.6620 0.6616 0.6606 0.6600 0.6592
1024.926280 0.6576 0.6570 0.6566 0.6560 0.6560
1031.472925 0.6553 0.6540 0.6537 0.6530 0.6527
1038.019570 0.6520 0.6514 0.6500 0.6500 0.6497
1044.566215 0.6490 0.6490 0.6488 0.6480 0.6473
1051.112860 0.6448 0.6438 0.6426 0.6408 0.6400
1057.659505 0.6398 0.6387 0.6368 0.6360 0.6359
1064.206150 0.6347 0.6329 0.6320 0.6320 0.6320
1070.752795 0.6320 0.6320 0.6319 0.6310 0.6309
1077.299440 0.6300 0.6300 0.6299 0.6280 0.6280
1083.846085 0.6280 0.6270 0.6270 0.6270 0.6260
1090.392730 0.6221 0.6182 0.6142 0.6112 0.6072
1096.939375 0.6033 0.5975 0.5906 0.5819 0.5730
1103.486020 0.5649 0.5561 0.5524 0.5494 0.5430
1110.032665 0.5361 0.5308 0.5225 0.5161 0.5126
1116.579310 0.5120 0.5112 0.5110 0.5094 0.5082
1123.125955 0.5080 0.5080 0.5080 0.5080 0.5080
1129.672600 0.5073 0.5056 0.5022 0.4975 0.4918
1136.219245 0.4838 0.4736 0.4593 0.4468 0.4158
1142.765890 0.3940 0.3831 0.3697 0.3634 0.3648
1149.312535 0.3744 0.3853 0.3931 0.4018 0.4162
1155.859180 0.4335 0.4498 0.4645 0.4790 0.4934
1162.405825 0.5063 0.5181 0.5295 0.5454 0.5599
1168.952470 0.5697 0.5779 0.5800 0.5800 0.5800
1175.499115 0.5800 0.5800 0.5800 0.5800 0.5796
1182.045760 0.5758 0.5695 0.5659 0.5622 0.5564
1188.592405 0.5502 0.5449 0.5352 0.5154 0.4858
1195.139050 0.4457 0.4025 0.3634 0.3321 0.3306
1201.685695 0.3359 0.3519 0.3755 0.4047 0.4352
1208.232340 0.4638 0.4868 0.5011 0.5091 0.5319
1214.778985 0.5615 0.5742 0.5856 0.5942 0.6005
1221.325630 0.6033 0.6050 0.6050 0.6050 0.6050
1227.872275 0.6048 0.6027 0.5996 0.5954 0.5885
1234.418920 0.5823 0.5713 0.5596 0.5506 0.5401
1240.965565 0.4948 0.4870 0.4870 0.4881 0.5049
1247.512210 0.5129 0.5218 0.5491 0.6007 0.6250
1254.058855 0.6260 0.6260 0.6260 0.6260 0.6260
1260.605500 0.6242 0.6240 0.6231 0.6230 0.6221
1267.152145 0.6203 0.6191 0.6182 0.6163 0.6152
1273.698790 0.6134 0.6114 0.6094 0.6074 0.6054
1280.245435 0.6034 0.6014 0.5972 0.5915 0.5855
1286.792080 0.5781 0.5687 0.5552 0.5503 0.5479
1293.338725 0.5428 0.5361 0.5299 0.5226 0.5013
1299.885370 0.4696 0.4359 0.4234 0.4224 0.4226
1306.432015 0.4236 0.4344 0.4434 0.4492 0.4590
1312.978660 0.4726 0.4790 0.4784 0.4775 0.4770
1319.525305 0.4759 0.4745 0.4735 0.4663 0.4540
1326.071950 0.4406 0.4257 0.4094 0.3911 0.3722
1332.618595 0.3524 0.3361 0.3247 0.3094 0.2879
1339.165240 0.2649 0.2423 0.2205 0.2001 0.1837
1345.711885 0.1796 0.1794 0.1800 0.1803 0.1881
1352.258530 0.2090 0.2256 0.2470 0.3054 0.3679
1358.805175 0.3964 0.4200 0.4402 0.4591 0.4774
1365.351820 0.4905 0.4920 0.4890 0.4761 0.4598
1371.898465 0.4285 0.3968 0.3962 0.3996 0.4144
1378.445110 0.4330 0.4508 0.4685 0.4855 0.5031
1384.991755 0.5213 0.5520 0.5676 0.5817 0.5972
1391.538400 0.6101 0.6230 0.6357 0.6453 0.6501
1398.085045 0.6521 0.6540 0.6540 0.6540 0.6560
1404.631690 0.6560 0.6540 0.6520 0.6500 0.6490
1411.178335 0.6490 0.6471 0.6413 0.6372 0.6333
1417.724980 0.6302 0.6245 0.6159 0.6061 0.5908
1424.271625 0.5695 0.5530 0.5423 0.5316 0.5147
1430.818270 0.5011 0.4741 0.4493 0.4312 0.4143
1437.364915 0.3966 0.3715 0.3416 0.3070 0.2706
1443.911560 0.2605 0.2607 0.2617 0.2795 0.2983
1450.458205 0.3303 0.4216 0.5188 0.5516 0.5622
1457.004850 0.5728 0.5760 0.5760 0.5760 0.5734
1463.551495 0.5720 0.5695 0.5655 0.5628 0.5584
1470.098140 0.5536 0.5502 0.5467 0.5393 0.5333
1476.644785 0.5276 0.5180 0.5108 0.5058 0.4988
1483.191430 0.4914 0.4845 0.4761 0.4657 0.4357
1489.738075 0.4076 0.4046 0.4021 0.3997 0.3945
1496.284720 0.3870 0.3800 0.3727 0.3656 0.3596
1502.831365 0.3537 0.3430 0.3294 0.3224 0.3133
1509.378010 0.3011 0.2882 0.2730 0.2624 0.2567
1515.924655 0.2532 0.2409 0.2211 0.2019 0.1840
1522.471300 0.1664 0.1499 0.1338 0.1176 0.1052
1529.017945 0.0972 0.0874 0.0718 0.0586 0.0524
1535.564590 0.0496 0.0478 0.0470 0.0470 0.0470
1542.111235 0.0471 0.0480 0.0485 0.0521 0.0533
1548.657880 0.0562 0.0583 0.0613 0.0652 0.0672
1555.204525 0.0701 0.0711 0.0731 0.0751 0.0770
1561.751170 0.0780 0.0790 0.0820 0.0860 0.1047
1568.297815 0.1118 0.1149 0.1179 0.1218 0.1239
1574.844460 0.1259 0.1260 0.1260 0.1223 0.1202
1581.391105 0.1155 0.1096 0.1046 0.1005 0.0957
1587.937750 0.0838 0.0641 0.0492 0.0437 0.0405
1594.484395 0.0392 0.0390 0.0390 0.0390 0.0390
1601.031040 0.0398 0.0400 0.0408 0.0432 0.0462
1607.577685 0.0507 0.0578 0.0643 0.0717 0.0761
1614.124330 0.0784 0.0804 0.0817 0.0847 0.0979
1620.670975 0.1073 0.1109 0.1158 0.1243 0.1286
1627.217620 0.1290 0.1290 0.1290 0.1272 0.1185
1633.764265 0.1073 0.1002 0.0941 0.0860 0.0755
1640.310910 0.0636 0.0507 0.0435 0.0420 0.0420
1646.857555 0.0430 0.0430 0.0440 0.0506 0.0593
1653.404200 0.0652 0.0708 0.0747 0.0770 0.0778
1659.950845 0.0810 0.0916 0.1062 0.1145 0.1234
1666.497490 0.1327 0.1433 0.1552 0.1664 0.1773
1673.044135 0.1899 0.2018 0.2138 0.2250 0.2379
1679.590780 0.2557 0.2672 0.2733 0.2774 0.2900
1686.137425 0.3021 0.3174 0.3383 0.3539 0.3714
1692.684070 0.3753 0.3860 0.3962 0.4078 0.4180
1699.230715 0.4298 0.4407 0.4517 0.4621 0.4719
1705.777360 0.4925 0.5032 0.5050 0.5053 0.5091
1712.324005 0.5236 0.5556 0.5648 0.5761 0.5778
1718.870650 0.5922 0.5962 0.6011 0.6060 0.6090
1725.417295 0.6110 0.6130 0.6140 0.6238 0.6279
1731.963940 0.6357 0.6427 0.6534 0.6633 0.6668
1738.510585 0.6688 0.6735 0.6821 0.6839 0.6946
1745.057230 0.7074 0.7107 0.7153 0.7194 0.7234
1751.603875 0.7257 0.7293 0.7325 0.7363 0.7386
1758.150520 0.7414 0.7428 0.7453 0.7468 0.7493
1764.697165 0.7508 0.7540 0.7572 0.7609 0.7656
1771.243810 0.7684 0.7704 0.7738 0.7777 0.7817
1777.790455 0.7843 0.7857 0.7880 0.7864 0.7876
1784.337100 0.7915 0.7936 0.7983 0.8022 0.8054
1790.883745 0.8088 0.8123 0.8169 0.8213 0.8252
1797.430390 0.8264 0.8282 0.8311 0.8336 0.8355
1803.977035 0.8375 0.8395 0.8405 0.8420 0.8435
1810.523680 0.8445 0.8464 0.8485 0.8503 0.8524
1817.070325 0.8543 0.8560 0.8568 0.8588 0.8616
1823.616970 0.8652 0.8678 0.8694 0.8704 0.8717
1830.163615 0.8730 0.8730 0.8733 0.8743 0.8756
1836.710260 0.8773 0.8783 0.8790 0.8796 0.8813
1843.256905 0.8820 0.8823 0.8830 0.8832 0.8840
1849.803550 0.8844 0.8862 0.8872 0.8880 0.8884
1856.350195 0.8900 0.8903 0.8923 0.8940 0.8942
1862.896840 0.8951 0.8964 0.8992 0.9013 0.9040
1869.443485 0.9041 0.9050 0.9050 0.9050 0.9051
1875.990130 0.9070 0.9070 0.9070 0.9070 0.9080
1882.536775 0.9080 0.9090 0.9090 0.9110 0.9110
1889.083420 0.9110 0.9110 0.9110 0.9120 0.9120
1895.630065 0.9120 0.9120 0.9120 0.9129 0.9130
1902.176710 0.9130 0.9148 0.9150 0.9150 0.9159
1908.723355 0.9160 0.9160 0.9168 0.9170 0.9170
1915.270000 0.9178 0.9180 0.9180 0.9196 0.9200
1921.816645 0.9208 0.9218 0.9220 0.9235 0.9240
1928.363290 0.9240 0.9240 0.9240 0.9240 0.9240
1934.909935 0.9240 0.9240 0.9240 0.9247 0.9250
1941.456580 0.9250 0.9256 0.9260 0.9260 0.9260
1948.003225 0.9272 0.9280 0.9280 0.9280 0.9280
1954.549870 0.9280 0.9280 0.9280 0.9280 0.9280
1961.096515 0.9280 0.9280 0.9280 0.9280 0.9280
1967.643160 0.9280 0.9280 0.9280 0.9280 0.9280
1974.189805 0.9280 0.9280 0.9280 0.9280 0.9280
1980.736450 0.9280 0.9280 0.9280 0.9280 0.9280
1987.283095 0.9280 0.9284 0.9293 0.9300 0.9300
1993.829740 0.9306 0.9323 0.9333 0.9340 0.9340
2000.376385 0.9340 0.9343 0.9347 0.9334 0.9320
2006.923030 0.9314 0.9297 0.9290 0.9287 0.9280
2013.469675 0.9280 0.9280 0.9280 0.9280 0.9280
2020.016320 0.9280 0.9280 0.9280 0.9280 0.9280
2026.562965 0.9283 0.9290 0.9290 0.9287 0.9283
2033.109610 0.9290 0.9293 0.9300 0.9306 0.9320
2039.656255 0.9320 0.9320 0.9320 0.9320 0.9320
2046.202900 0.9314 0.9300 0.9300 0.9297 0.9290
2052.749545 0.9290 0.9290 0.9290 0.9290 0.9290
2059.296190 0.9290 0.9287 0.9280 0.9280 0.9280
2065.842835 0.9280 0.9274 0.9260 0.9260 0.9260
2072.389480 0.9260 0.9260 0.9260 0.9260 0.9260
2078.936125 0.9260 0.9260 0.9260 0.9260 0.9266
2085.482770 0.9280 0.9280 0.9280 0.9280 0.9283
2092.029415 0.9290 0.9290 0.9290 0.9290 0.9293
2098.576060 0.9300 0.9306 0.9320 0.9323 0.9333
2105.122705 0.9343 0.9359 0.9383 0.9390 0.9396
2111.669350 0.9410 0.9413 0.9420 0.9423 0.9430
2118.215995 0.9430 0.9430 0.9430 0.9430 0.9430
2124.762640 0.9430 0.9430 0.9430 0.9430 0.9430
2131.309285 0.9430 0.9430 0.9430 0.9430 0.9430
2137.855930 0.9430 0.9430 0.9430 0.9430 0.9430
2144.402575 0.9430 0.9430 0.9430 0.9430 0.9430
2150.949220 0.9430 0.9430 0.9430 0.9430 0.9430
2157.495865 0.9427 0.9420 0.9420 0.9420 0.9420
2164.042510 0.9420 0.9420 0.9420 0.9420 0.9420
2170.589155 0.9420 0.9420 0.9420 0.9420 0.9420
2177.135800 0.9420 0.9420 0.9420 0.9420 0.9420
2183.682445 0.9420 0.9420 0.9420 0.9417 0.9410
2190.229090 0.9410 0.9410 0.9404 0.9390 0.9390
2196.775735 0.9390 0.9387 0.9380 0.9383 0.9390
2203.322380 0.9390 0.9390 0.9390 0.9390 0.9390
2209.869025 0.9390 0.9390 0.9390 0.9390 0.9390
2216.415670 0.9390 0.9390 0.9390 0.9390 0.9396
2222.962315 0.9410 0.9410 0.9410 0.9410 0.9410
2229.508960 0.9413 0.9420 0.9420 0.9420 0.9420
2236.055605 0.9420 0.9420 0.9420 0.9420 0.9417
2242.602250 0.9410 0.9410 0.9410 0.9410 0.9410
2249.148895 0.9404 0.9390 0.9390 0.9390 0.9390
2255.695540 0.9387 0.9380 0.9380 0.9380 0.9377
2262.242185 0.9370 0.9370 0.9370 0.9370 0.9370
2268.788830 0.9364 0.9350 0.9350 0.9350 0.9347
2275.335475 0.9340 0.9337 0.9330 0.9327 0.9320
2281.882120 0.9314 0.9300 0.9294 0.9280 0.9280
2288.428765 0.9280 0.9280 0.9280 0.9280 0.9280
2294.975410 0.9280 0.9280 0.9280 0.9280 0.9280
2301.522055 0.9280 0.9280 0.9280 0.9280 0.9280
2308.068700 0.9280 0.9280 0.9280 0.9280 0.9280
2314.615345 0.9280 0.9280 0.9280 0.9280 0.9274
2321.161990 0.9260 0.9260 0.9260 0.9260 0.9260
2327.708635 0.9260 0.9260 0.9260 0.9260 0.9260
2334.255280 0.9260 0.9260 0.9260 0.9260 0.9260
2340.801925 0.9260 0.9266 0.9280 0.9280 0.9280
2347.348570 0.9280 0.9283 0.9290 0.9290 0.9293
2353.895215 0.9300 0.9306 0.9323 0.9333 0.9343
2360.441860 0.9350 0.9350 0.9350 0.9350 0.9350
2366.988505 0.9350 0.9350 0.9350 0.9350 0.9350
2373.535150 0.9347 0.9343 0.9347 0.9337 0.9327
2380.081795 0.9314 0.9297 0.9287 0.9280 0.9274
2386.628440 0.9260 0.9257 0.9250 0.9250 0.9250
2393.175085 0.9250 0.9250 0.9250 0.9250 0.9253
2399.721730 0.9260 0.9260 0.9257 0.9250 0.9250
2406.268375 0.9250 0.9250 0.9250 0.9250 0.9250
2412.815020 0.9250 0.9250 0.9250 0.9247 0.9240
2419.361665 0.9234 0.9217 0.9201 0.9177 0.9167
2425.908310 0.9160 0.9160 0.9157 0.9153 0.9157
2432.454955 0.9150 0.9150 0.9144 0.9130 0.9127
2439.001600 0.9117 0.9110 0.9104 0.9087 0.9080
2445.548245 0.9077 0.9064 0.9050 0.9047 0.9037
2452.094890 0.9024 0.9007 0.8994 0.8972 0.8942
2458.641535 0.8920 0.8914 0.8900 0.8900 0.8894
2465.188180 0.8880 0.8877 0.8867 0.8860 0.8860
2471.734825 0.8860 0.8854 0.8840 0.8840 0.8840
2478.281470 0.8840 0.8840 0.8846 0.8860 0.8860
2484.828115 0.8860 0.8860 0.8860 0.8860 0.8860
2491.374760 0.8863 0.8870 0.8873 0.8880 0.8886
2497.921405 0.8900 0.8903 0.8910 0.8910 0.8910
2504.468050 0.8910 0.8907 0.8900 0.8900 0.8894
2511.014695 0.8880 0.8880 0.8877 0.8870 0.8867
2517.561340 0.8860 0.8860 0.8860 0.8860 0.8860
2524.107985 0.8854 0.8840 0.8840 0.8840 0.8840
2530.654630 0.8840 0.8840 0.8840 0.8834 0.8820
2537.201275 0.8820 0.8817 0.8810 0.8810 0.8810
2543.747920 0.8810 0.8810 0.8813 0.8823 0.8841
2550.294565 0.8870 0.8870 0.8873 0.8880 0.8886
2556.841210 0.8906 0.8926 0.8943 0.8953 0.8966
2563.387855 0.8983 0.8993 0.9003 0.9010 0.9010
2569.934500 0.9016 0.9030 0.9030 0.9033 0.9040
2576.481145 0.9040 0.9040 0.9040 0.9040 0.9040
2583.027790 0.9040 0.9040 0.9040 0.9040 0.9040
2589.574435 0.9040 0.9040 0.9040 0.9040 0.9040
2596.121080 0.9043 0.9050 0.9050 0.9044 0.9030
2602.667725 0.9030 0.9033 0.9040 0.9040 0.9037
2609.214370 0.9030 0.9030 0.9030 0.9030 0.9030
2615.761015 0.9033 0.9040 0.9043 0.9047 0.9040
2622.307660 0.9037 0.9030 0.9024 0.9010 0.9007
2628.854305 0.8997 0.8987 0.8971 0.8950 0.8947
2635.400950 0.8940 0.8934 0.8920 0.8917 0.8910
2641.947595 0.8907 0.8900 0.8900 0.8894 0.8880
2648.494240 0.8877 0.8870 0.8867 0.8860 0.8854
2655.040885 0.8840 0.8840 0.8837 0.8830 0.8830
2661.587530 0.8827 0.8820 0.8820 0.8820 0.8823
2668.134175 0.8830 0.8830 0.8830 0.8830 0.8830
2674.680820 0.8830 0.8830 0.8827 0.8809 0.8777
2681.227465 0.8761 0.8740 0.8737 0.8730 0.8730
2687.774110 0.8724 0.8710 0.8707 0.8700 0.8700
2694.320755 0.8697 0.8690 0.8684 0.8670 0.8667
2700.867400 0.8654 0.8634 0.8617 0.8610 0.8607
2707.414045 0.8594 0.8577 0.8567 0.8554 0.8537
2713.960690 0.8521 0.8500 0.8497 0.8490 0.8487
2720.507335 0.8480 0.8480 0.8477 0.8473 0.8480
2727.053980 0.8480 0.8477 0.8470 0.8470 0.8470
2733.600625 0.8470 0.8470 0.8464 0.8450 0.8450
2740.147270 0.8450 0.8450 0.8450 0.8450 0.8450
2746.693915 0.8450 0.8450 0.8450 0.8450 0.8450
2753.240560 0.8450 0.8450 0.8450 0.8450 0.8450
2759.787205 0.8450 0.8450 0.8450 0.8450 0.8450
2766.333850 0.8450 0.8450 0.8450 0.8450 0.8450
2772.880495 0.8456 0.8470 0.8470 0.8470 0.8470
2779.427140 0.8470 0.8470 0.8470 0.8470 0.8470
2785.973785 0.8470 0.8470 0.8470 0.8464 0.8450
2792.520430 0.8447 0.8440 0.8437 0.8424 0.8407
2799.067075 0.8397 0.8384 0.8367 0.8357 0.8339
2805.613720 0.8299 0.8262 0.8240 0.8234 0.8209
2812.160365 0.8171 0.8147 0.8137 0.8119 0.8081
2818.707010 0.8051 0.8024 0.8007 0.7994 0.7977
2825.253655 0.7961 0.7934 0.7914 0.7900 0.7897
2831.800300 0.7887 0.7880 0.7872 0.7850 0.7850
2838.346945 0.7850 0.7850 0.7850 0.7847 0.7840
2844.893590 0.7840 0.7840 0.7840 0.7840 0.7840
2851.440235 0.7837 0.7830 0.7830 0.7824 0.7810
2857.986880 0.7810 0.7799 0.7767 0.7757 0.7744
2864.533525 0.7730 0.7727 0.7720 0.7717 0.7704
2871.080170 0.7687 0.7677 0.7667 0.7654 0.7637
2877.626815 0.7630 0.7627 0.7614 0.7597 0.7587
2884.173460 0.7574 0.7554 0.7532 0.7499 0.7459
2890.720105 0.7416 0.7371 0.7299 0.7147 0.7076
2897.266750 0.7026 0.6982 0.6954 0.6932 0.6902
2903.813395 0.6866 0.6816 0.6754 0.6681 0.6649
2910.360040 0.6606 0.6562 0.6515 0.6444 0.6424
2916.906685 0.6407 0.6400 0.6400 0.6400 0.6400
2923.453330 0.6400 0.6397 0.6390 0.6390 0.6393
2929.999975 0.6400 0.6403 0.6416 0.6456 0.6548
2936.546620 0.6654 0.6763 0.6843 0.6925 0.7001
2943.093265 0.7041 0.7084 0.7131 0.7174 0.7224
2949.639910 0.7266 0.7286 0.7308 0.7333 0.7340
2956.186555 0.7340 0.7340 0.7340 0.7340 0.7340
2962.733200 0.7340 0.7340 0.7340 0.7340 0.7340
2969.279845 0.7340 0.7340 0.7340 0.7340 0.7340
2975.826490 0.7343 0.7359 0.7388 0.7416 0.7439
2982.373135 0.7471 0.7503 0.7513 0.7526 0.7540
2988.919780 0.7540 0.7540 0.7540 0.7540 0.7540
2995.466425 0.7540 0.7540 0.7540 0.7540 0.7540
3002.013070 0.7540 0.7540 0.7540 0.7540 0.7540
3008.559715 0.7534 0.7517 0.7507 0.7497 0.7484
3015.106360 0.7470 0.7467 0.7460 0.7460 0.7460
3021.653005 0.7460 0.7457 0.7450 0.7450 0.7444
3028.199650 0.7427 0.7420 0.7417 0.7404 0.7384
3034.746295 0.7364 0.7347 0.7334 0.7320 0.7314
3041.292940 0.7297 0.7290 0.7282 0.7243 0.7189
3047.839585 0.7146 0.7101 0.7069 0.7029 0.6994
3054.386230 0.6963 0.6906 0.6859 0.6816 0.6766
3060.932875 0.6713 0.6661 0.6629 0.6591 0.6561
3067.479520 0.6537 0.6527 0.6512 0.6484 0.6450
3074.026165 0.6403 0.6407 0.6397 0.6390 0.6384
3080.572810 0.6367 0.6360 0.6357 0.6344 0.6327
3087.119455 0.6317 0.6307 0.6294 0.6277 0.6270
3093.666100 0.6267 0.6254 0.6234 0.6214 0.6189
3100.212745 0.6157 0.6144 0.6130 0.6124 0.6107
3106.759390 0.6100 0.6100 0.6086 0.6042 0.6009
3113.306035 0.5974 0.5917 0.5793 0.5739 0.5701
3119.852680 0.5654 0.5570 0.5512 0.5479 0.5430
3126.399325 0.5363 0.5309 0.5269 0.5231 0.5201
3132.945970 0.5177 0.5164 0.5116 0.5022 0.4994
3139.492615 0.4971 0.4936 0.4883 0.4814 0.4719
3146.039260 0.4597 0.4453 0.4332 0.4229 0.4127
3152.585905 0.4050 0.3980 0.3916 0.3866 0.3813
3159.132550 0.3756 0.3706 0.3647 0.3567 0.3482
3165.679195 0.3378 0.3286 0.3230 0.3151 0.3052
3172.225840 0.2952 0.2860 0.2787 0.2707 0.2636
3178.772485 0.2589 0.2549 0.2514 0.2494 0.2480
3185.319130 0.2477 0.2470 0.2470 0.2470 0.2470
3191.865775 0.2470 0.2470 0.2470 0.2470 0.2470
3198.412420 0.2470 0.2470 0.2470 0.2473 0.2480
3204.959065 0.2483 0.2490 0.2490 0.2493 0.2506
3211.505710 0.2523 0.2530 0.2538 0.2563 0.2573
3218.052355 0.2589 0.2613 0.2626 0.2643 0.2656
3224.599000 0.2676 0.2693 0.2700 0.2700 0.2700
3231.145645 0.2700 0.2700 0.2700 0.2700 0.2700
3237.692290 0.2697 0.2690 0.2684 0.2670 0.2670
3244.238935 0.2667 0.2654 0.2634 0.2617 0.2601
3250.785580 0.2574 0.2549 0.2514 0.2497 0.2487
3257.332225 0.2460 0.2407 0.2397 0.2384 0.2353
3263.878870 0.2307 0.2289 0.2252 0.2216 0.2169
3270.425515 0.2129 0.2097 0.2084 0.2067 0.2051
3276.972160 0.2024 0.2007 0.2000 0.1992 0.1967
3283.518805 0.1951 0.1927 0.1911 0.1887 0.1871
3290.065450 0.1847 0.1831 0.1807 0.1792 0.1767
3296.612095 0.1751 0.1730 0.1724 0.1701 0.1677
3303.158740 0.1667 0.1654 0.1634 0.1614 0.1597
3309.705385 0.1590 0.1581 0.1557 0.1541 0.1517
3316.252030 0.1504 0.1484 0.1456 0.1412 0.1390
3322.798675 0.1379 0.1344 0.1327 0.1314 0.1297
3329.345320 0.1290 0.1287 0.1274 0.1257 0.1250
3335.891965 0.1247 0.1240 0.1234 0.1220 0.1217
3342.438610 0.1210 0.1210 0.1210 0.1210 0.1213
3348.985255 0.1220 0.1220 0.1220 0.1226 0.1240
3355.531900 0.1240 0.1240 0.1243 0.1250 0.1250
3362.078545 0.1250 0.1253 0.1260 0.1260 0.1260
3368.625190 0.1260 0.1260 0.1260 0.1260 0.1260
3375.171835 0.1260 0.1260 0.1260 0.1260 0.1260
3381.718480 0.1260 0.1260 0.1260 0.1260 0.1260
3388.265125 0.1260 0.1260 0.1260 0.1260 0.1260
3394.811770 0.1260 0.1260 0.1260 0.1260 0.1260
3401.358415 0.1260 0.1260 0.1266 0.1280 0.1274
3407.905060 0.1266 0.1280 0.1283 0.1290 0.1290
3414.451705 0.1293 0.1306 0.1323 0.1336 0.1356
3420.998350 0.1376 0.1401 0.1438 0.1474 0.1519
3427.544995 0.1552 0.1586 0.1611 0.1646 0.1674
3434.091640 0.1721 0.1761 0.1810 0.1888 0.1971
3440.638285 0.2009 0.2062 0.2163 0.2237 0.2306
3447.184930 0.2390 0.2457 0.2523 0.2600 0.2664
3453.731575 0.2723 0.2797 0.2860 0.2936 0.3031
3460.278220 0.3121 0.3193 0.3323 0.3411 0.3516
3466.824865 0.3606 0.3696 0.3783 0.3866 0.3953
3473.371510 0.4033 0.4110 0.4183 0.4263 0.4343
3479.918155 0.4423 0.4503 0.4583 0.4660 0.4721
3486.464800 0.4761 0.4804 0.4868 0.4943 0.4958
3493.011445 0.4994 0.5047 0.5121 0.5229 0.5363
3499.558090 0.5548 0.5637 0.5714 0.5814 0.5864
3506.104735 0.5923 0.5986 0.6009 0.6050 0.6109
3512.651380 0.6136 0.6159 0.6203 0.6266 0.6289
3519.198025 0.6316 0.6347 0.6396 0.6416 0.6441
3525.744670 0.6487 0.6555 0.6654 0.6754 0.6824
3532.291315 0.6921 0.6959 0.6980 0.6989 0.7021
3538.837960 0.7061 0.7110 0.7171 0.7206 0.7226
3545.384605 0.7246 0.7269 0.7293 0.7311 0.7351
3551.931250 0.7389 0.7416 0.7438 0.7463 0.7476
3558.477895 0.7493 0.7503 0.7513 0.7526 0.7540
3565.024540 0.7554 0.7599 0.7623 0.7633 0.7651
3571.571185 0.7689 0.7716 0.7736 0.7753 0.7760
3578.117830 0.7763 0.7781 0.7824 0.7868 0.7899
3584.664475 0.7923 0.7939 0.7966 0.7991 0.8023
3591.211120 0.8041 0.8076 0.8101 0.8147 0.8210
3597.757765 0.8266 0.8289 0.8316 0.8330 0.8336
3604.304410 0.8353 0.8369 0.8393 0.8408 0.8433
3610.851055 0.8449 0.8473 0.8486 0.8500 0.8509
3617.397700 0.8533 0.8546 0.8563 0.8578 0.8603
3623.944345 0.8619 0.8643 0.8656 0.8676 0.8693
3630.490990 0.8709 0.8733 0.8740 0.8743 0.8756
3637.037635 0.8773 0.8783 0.8796 0.8813 0.8826
3643.584280 0.8840 0.8846 0.8863 0.8870 0.8873
3650.130925 0.8880 0.8886 0.8900 0.8903 0.8910
3656.677570 0.8913 0.8920 0.8926 0.8940 0.8943
3663.224215 0.8950 0.8953 0.8960 0.8966 0.8980
3669.770860 0.8980 0.8980 0.8983 0.8990 0.8993
3676.317505 0.9003 0.9016 0.9033 0.9040 0.9043
3682.864150 0.9056 0.9073 0.9083 0.9090 0.9096
3689.410795 0.9110 0.9113 0.9120 0.9120 0.9123
3695.957440 0.9130 0.9130 0.9136 0.9150 0.9153
3702.504085 0.9160 0.9160 0.9163 0.9170 0.9173
3709.050730 0.9180 0.9180 0.9180 0.9180 0.9180
3715.597375 0.9180 0.9186 0.9200 0.9200 0.9200
3722.144020 0.9200 0.9200 0.9203 0.9210 0.9210
3728.690665 0.9210 0.9210 0.9213 0.9220 0.9220
3735.237310 0.9220 0.9226 0.9240 0.9240 0.9240
3741.783955 0.9243 0.9250 0.9250 0.9253 0.9260
3748.330600 0.9260 0.9260 0.9266 0.9280 0.9280
3754.877245 0.9283 0.9290 0.9293 0.9300 0.9306
3761.423890 0.9320 0.9323 0.9330 0.9333 0.9340
3767.970535 0.9340 0.9340 0.9343 0.9350 0.9350
3774.517180 0.9350 0.9350 0.9350 0.9350 0.9350
3781.063825 0.9350 0.9347 0.9340 0.9340 0.9340
3787.610470 0.9340 0.9337 0.9330 0.9330 0.9327
3794.157115 0.9320 0.9320 0.9320 0.9320 0.9320
3800.703760 0.9320 0.9320 0.9314 0.9300 0.9300
3807.250405 0.9300 0.9300 0.9300 0.9300 0.9300
3813.797050 0.9300 0.9300 0.9297 0.9290 0.9290
3820.343695 0.9290 0.9290 0.9290 0.9290 0.9290
3826.890340 0.9290 0.9290 0.9290 0.9290 0.9290
3833.436985 0.9290 0.9290 0.9290 0.9290 0.9290
3839.983630 0.9290 0.9290 0.9290 0.9290 0.9290
3846.530275 0.9290 0.9290 0.9290 0.9290 0.9290
3853.076920 0.9290 0.9290 0.9290 0.9290 0.9290
3859.623565 0.9290 0.9290 0.9290 0.9290 0.9290
3866.170210 0.9290 0.9290 0.9290 0.9290 0.9290
3872.716855 0.9290 0.9290 0.9290 0.9290 0.9290
3879.263500 0.9290 0.9290 0.9290 0.9290 0.9290
3885.810145 0.9290 0.9293 0.9300 0.9300 0.9297
3892.356790 0.9290 0.9290 0.9290 0.9290 0.9290
3898.903435 0.9290 0.9290 0.9290 0.9290 0.9290
3905.450080 0.9290 0.9290 0.9290 0.9290 0.9290
3911.996725 0.9290 0.9290 0.9290 0.9290 0.9290
3918.543370 0.9290 0.9290 0.9290 0.9290 0.9290
3925.090015 0.9290 0.9290 0.9290 0.9290 0.9290
3931.636660 0.9290 0.9290 0.9290 0.9290 0.9290
3938.183305 0.9290 0.9290 0.9290 0.9290 0.9287
3944.729950 0.9283 0.9290 0.9290 0.9290 0.9290
3951.276595 0.9290 0.9287 0.9280 0.9280 0.9280
3957.823240 0.9280 0.9280 0.9280 0.9280 0.9280
3964.369885 0.9280 0.9280 0.9280 0.9280 0.9280
3970.916530 0.9280 0.9280 0.9280 0.9283 0.9287
3977.463175 0.9280 0.9280 0.9280 0.9280 0.9280
3984.009820 0.9280 0.9280 0.9280 0.9280 0.9280
3990.556465 0.9280 0.9280 0.9274 0.9260 0.9260
3997.103110 0.9260 0.9260 0.9260 0.9260 0.9260
4003.649755 0.9260 0.9260 0.9260 0.9260 0.9260
4010.196400 0.9260 0.9260
##END=
