##TITLE=Alpha,Alpha-DICHLOROPROPIONIC ACID, MONO ETHANOL AMINE SALT
##JCAMP-DX=4.24
##DATA TYPE=INFRARED SPECTRUM
##CLASS=COBLENTZ
##ORIGIN=DOW CHEMICAL COMPANY
##OWNER=COBLENTZ SOCIETY
Collection (C) 2018 copyright by the U.S. Secretary of Commerce
on behalf of the United States of America. All rights reserved.
##DATE=Not specified, most likely prior to 1970
##MOLFORM=C5 H11 Cl2 N O3
##SOURCE REFERENCE=COBLENTZ NO. 3242
##$NIST ID=B6003242
##$NIST SOURCE=COBLENTZ
##$NIST IMAGE=cob3242
##SPECTROMETER/DATA SYSTEM=Not specified, most likely a prism, grating, or hybrid spectrometer.
##PATH LENGTH=FILM
##SAMPLING PROCEDURE=TRANSMISSION
##RESOLUTION=4
##DATA PROCESSING=DIGITIZED BY NIST FROM HARD COPY
##XUNITS=MICROMETERS
##YUNITS=TRANSMITTANCE
##XFACTOR=1.000000
##YFACTOR=1
##DELTAX=000.006863
##FIRSTX=2.027
##LASTX=15.8838
##FIRSTY=0.861
##MAXX=15.8838
##MINX=2.027
##MAXY=0.929
##MINY=0.114
##NPOINTS=2020
##XYDATA=(X++(Y..Y))
2.027000 0.8610 0.8610 0.8590 0.8590 0.8590
2.061331 0.8590 0.8630 0.8630 0.8610 0.8590
2.096000 0.8590 0.8590 0.8590 0.8610 0.8610
2.130331 0.8610 0.8630 0.8630 0.8630 0.8630
2.165000 0.8630 0.8630 0.8610 0.8610 0.8590
2.199331 0.8570 0.8560 0.8560 0.8540 0.8540
2.233000 0.8560 0.8560 0.8570 0.8590 0.8610
2.267331 0.8630 0.8640 0.8660 0.8680 0.8680
2.302000 0.8690 0.8710 0.8710 0.8730 0.8730
2.336331 0.8760 0.8760 0.8780 0.8780 0.8780
2.371000 0.8780 0.8780 0.8760 0.8750 0.8730
2.405331 0.8710 0.8710 0.8730 0.8730 0.8750
2.439000 0.8800 0.8800 0.8810 0.8830 0.8850
2.473331 0.8860 0.8900 0.8920 0.8920 0.8920
2.508000 0.8920 0.8930 0.8950 0.8970 0.8970
2.542331 0.8980 0.9000 0.9000 0.9000 0.9000
2.576000 0.9000 0.9000 0.9000 0.9000 0.9020
2.610331 0.9020 0.9020 0.9020 0.9020 0.9000
2.645000 0.9000 0.9000 0.8970 0.8950 0.8920
2.679331 0.8900 0.8850 0.8810 0.8760 0.8690
2.714000 0.8610 0.8540 0.8450 0.8350 0.8200
2.748331 0.8060 0.7960 0.7790 0.7610 0.7480
2.782000 0.7270 0.7070 0.6840 0.6620 0.6400
2.816331 0.6180 0.5940 0.5710 0.5510 0.5290
2.851000 0.5080 0.4860 0.4670 0.4460 0.4290
2.885331 0.4100 0.3930 0.3780 0.3640 0.3510
2.920000 0.3390 0.3270 0.3160 0.3110 0.3060
2.954331 0.3030 0.3010 0.2970 0.2920 0.2910
2.988000 0.2890 0.2840 0.2820 0.2790 0.2790
3.022331 0.2730 0.2700 0.2700 0.2680 0.2670
3.057000 0.2670 0.2650 0.2650 0.2650 0.2650
3.091331 0.2630 0.2610 0.2600 0.2530 0.2510
3.125000 0.2480 0.2410 0.2340 0.2320 0.2310
3.159331 0.2240 0.2190 0.2170 0.2140 0.2120
3.194000 0.2100 0.2050 0.2030 0.2000 0.1960
3.228331 0.1930 0.1910 0.1900 0.1900 0.1880
3.263000 0.1860 0.1860 0.1840 0.1830 0.1830
3.297331 0.1830 0.1810 0.1810 0.1810 0.1810
3.331000 0.1810 0.1810 0.1810 0.1810 0.1790
3.365331 0.1790 0.1790 0.1790 0.1790 0.1810
3.400000 0.1840 0.1950 0.2020 0.2050 0.2080
3.434331 0.2100 0.2120 0.2170 0.2220 0.2310
3.469000 0.2390 0.2480 0.2560 0.2670 0.2750
3.503331 0.2820 0.2910 0.2970 0.3030 0.3060
3.537000 0.3160 0.3230 0.3320 0.3370 0.3400
3.571331 0.3440 0.3470 0.3490 0.3510 0.3510
3.606000 0.3540 0.3570 0.3660 0.3780 0.3860
3.640331 0.3970 0.4050 0.4140 0.4240 0.4310
3.675000 0.4330 0.4340 0.4400 0.4410 0.4460
3.709331 0.4520 0.4530 0.4530 0.4600 0.4600
3.743000 0.4620 0.4650 0.4700 0.4720 0.4740
3.777331 0.4810 0.4810 0.4840 0.4910 0.4960
3.812000 0.5010 0.5050 0.5080 0.5100 0.5180
3.846331 0.5230 0.5320 0.5410 0.5470 0.5540
3.880000 0.5610 0.5660 0.5710 0.5750 0.5770
3.914331 0.5800 0.5830 0.5850 0.5890 0.5900
3.949000 0.5920 0.5940 0.5970 0.6010 0.6060
3.983331 0.6110 0.6190 0.6280 0.6380 0.6500
4.018000 0.6620 0.6670 0.6720 0.6780 0.6860
4.052331 0.6960 0.7020 0.7070 0.7170 0.7240
4.086000 0.7310 0.7380 0.7440 0.7510 0.7550
4.120331 0.7600 0.7630 0.7670 0.7700 0.7730
4.155000 0.7750 0.7770 0.7790 0.7790 0.7790
4.189331 0.7790 0.7800 0.7820 0.7850 0.7970
4.224000 0.8010 0.8030 0.8060 0.8110 0.8150
4.258331 0.8210 0.8250 0.8300 0.8300 0.8330
4.292000 0.8350 0.8390 0.8400 0.8400 0.8420
4.326331 0.8420 0.8440 0.8490 0.8510 0.8520
4.361000 0.8540 0.8590 0.8590 0.8610 0.8610
4.395331 0.8610 0.8610 0.8610 0.8630 0.8630
4.429000 0.8640 0.8660 0.8680 0.8690 0.8710
4.463331 0.8730 0.8730 0.8730 0.8730 0.8730
4.498000 0.8730 0.8730 0.8730 0.8730 0.8730
4.532331 0.8710 0.8710 0.8710 0.8690 0.8680
4.567000 0.8640 0.8610 0.8590 0.8560 0.8540
4.601331 0.8540 0.8520 0.8510 0.8470 0.8450
4.635000 0.8440 0.8420 0.8400 0.8350 0.8320
4.669331 0.8300 0.8300 0.8280 0.8270 0.8250
4.704000 0.8230 0.8210 0.8210 0.8210 0.8200
4.738331 0.8200 0.8200 0.8200 0.8200 0.8200
4.773000 0.8200 0.8200 0.8200 0.8200 0.8200
4.807331 0.8200 0.8200 0.8200 0.8200 0.8200
4.841000 0.8210 0.8210 0.8250 0.8250 0.8270
4.875331 0.8270 0.8280 0.8300 0.8320 0.8330
4.910000 0.8350 0.8400 0.8400 0.8420 0.8420
4.944331 0.8470 0.8510 0.8540 0.8560 0.8610
4.978000 0.8630 0.8640 0.8640 0.8660 0.8690
5.012331 0.8730 0.8750 0.8750 0.8760 0.8780
5.047000 0.8800 0.8800 0.8810 0.8810 0.8850
5.081331 0.8850 0.8860 0.8900 0.8900 0.8920
5.116000 0.8930 0.8970 0.9000 0.9040 0.9070
5.150331 0.9090 0.9100 0.9100 0.9100 0.9100
5.184000 0.9100 0.9120 0.9120 0.9140 0.9160
5.218331 0.9190 0.9210 0.9210 0.9220 0.9240
5.253000 0.9240 0.9240 0.9240 0.9240 0.9240
5.287331 0.9260 0.9260 0.9290 0.9290 0.9290
5.322000 0.9290 0.9290 0.9290 0.9290 0.9280
5.356331 0.9280 0.9260 0.9260 0.9240 0.9240
5.390000 0.9240 0.9240 0.9260 0.9260 0.9260
5.424331 0.9260 0.9240 0.9240 0.9220 0.9220
5.459000 0.9210 0.9190 0.9140 0.9120 0.9090
5.493331 0.9090 0.9070 0.9070 0.9070 0.9090
5.527000 0.9100 0.9140 0.9160 0.9190 0.9190
5.561331 0.9210 0.9210 0.9210 0.9210 0.9220
5.596000 0.9220 0.9220 0.9220 0.9210 0.9190
5.630331 0.9170 0.9140 0.9120 0.9100 0.9100
5.665000 0.9090 0.9050 0.9040 0.9020 0.9000
5.699331 0.8970 0.8930 0.8900 0.8900 0.8850
5.733000 0.8830 0.8810 0.8760 0.8730 0.8710
5.767331 0.8640 0.8630 0.8570 0.8520 0.8490
5.802000 0.8440 0.8370 0.8250 0.8150 0.7990
5.836331 0.7960 0.7820 0.7680 0.7560 0.7460
5.871000 0.7290 0.7050 0.6790 0.6520 0.6230
5.905331 0.5950 0.5700 0.5470 0.5180 0.4930
5.939000 0.4720 0.4380 0.4120 0.3780 0.3490
5.973331 0.3280 0.2940 0.2720 0.2560 0.2380
6.008000 0.2140 0.1720 0.1670 0.1590 0.1570
6.042331 0.1540 0.1480 0.1450 0.1380 0.1330
6.076000 0.1280 0.1230 0.1210 0.1180 0.1160
6.110331 0.1140 0.1140 0.1140 0.1140 0.1180
6.145000 0.1250 0.1280 0.1330 0.1400 0.1470
6.179331 0.1540 0.1600 0.1660 0.1710 0.1760
6.214000 0.1830 0.1880 0.1930 0.1960 0.2020
6.248331 0.2140 0.2190 0.2290 0.2390 0.2460
6.282000 0.2530 0.2580 0.2630 0.2700 0.2770
6.316331 0.2840 0.2920 0.3030 0.3150 0.3280
6.351000 0.3420 0.3520 0.3630 0.3680 0.3750
6.385331 0.3800 0.3830 0.3900 0.3980 0.4040
6.420000 0.4090 0.4120 0.4120 0.4120 0.4120
6.454331 0.4120 0.4100 0.4070 0.4040 0.3980
6.488000 0.3950 0.3930 0.3920 0.3850 0.3810
6.522331 0.3760 0.3730 0.3710 0.3710 0.3690
6.557000 0.3690 0.3710 0.3730 0.3780 0.3810
6.591331 0.3850 0.3900 0.3980 0.4100 0.4210
6.625000 0.4310 0.4410 0.4530 0.4670 0.4770
6.659331 0.4880 0.4930 0.4980 0.5060 0.5130
6.694000 0.5220 0.5300 0.5320 0.5340 0.5350
6.728331 0.5340 0.5320 0.5300 0.5270 0.5250
6.763000 0.5230 0.5250 0.5320 0.5370 0.5420
6.797331 0.5460 0.5460 0.5420 0.5350 0.5270
6.831000 0.5230 0.5100 0.4980 0.4880 0.4720
6.865331 0.4570 0.4450 0.4310 0.4170 0.4140
6.900000 0.4070 0.4050 0.4070 0.4100 0.4160
6.934331 0.4360 0.4620 0.5080 0.5370 0.5560
6.969000 0.5650 0.5730 0.5800 0.5820 0.5830
7.003331 0.5850 0.5870 0.5890 0.5890 0.5890
7.037000 0.5900 0.5900 0.5900 0.5890 0.5850
7.071331 0.5820 0.5770 0.5730 0.5630 0.5580
7.106000 0.5470 0.5390 0.5320 0.5180 0.5060
7.140331 0.4980 0.4840 0.4670 0.4480 0.4280
7.175000 0.4070 0.3830 0.3630 0.3320 0.3060
7.209331 0.2670 0.2360 0.2240 0.2120 0.2100
7.243000 0.2140 0.2290 0.2530 0.2840 0.3080
7.277331 0.3330 0.3420 0.3420 0.3400 0.3210
7.312000 0.2920 0.2630 0.2440 0.2240 0.1980
7.346331 0.1690 0.1660 0.1660 0.1670 0.1710
7.380000 0.1830 0.1930 0.2080 0.2260 0.2530
7.414331 0.2870 0.3160 0.3230 0.3520 0.3920
7.449000 0.4120 0.4480 0.4770 0.4980 0.5060
7.483331 0.5180 0.5320 0.5420 0.5510 0.5580
7.518000 0.5630 0.5710 0.5780 0.5870 0.5920
7.552331 0.5990 0.6040 0.6110 0.6180 0.6280
7.586000 0.6360 0.6420 0.6480 0.6590 0.6670
7.620331 0.6780 0.6840 0.6900 0.6930 0.7000
7.655000 0.7030 0.7070 0.7120 0.7170 0.7200
7.689331 0.7220 0.7240 0.7260 0.7290 0.7310
7.724000 0.7310 0.7310 0.7310 0.7310 0.7290
7.758331 0.7290 0.7290 0.7260 0.7220 0.7220
7.792000 0.7190 0.7170 0.7170 0.7170 0.7170
7.826331 0.7190 0.7320 0.7340 0.7360 0.7390
7.861000 0.7410 0.7460 0.7500 0.7560 0.7610
7.895331 0.7670 0.7720 0.7770 0.7840 0.7890
7.929000 0.7920 0.7970 0.8010 0.8030 0.8080
7.963331 0.8110 0.8150 0.8180 0.8210 0.8230
7.998000 0.8230 0.8230 0.8250 0.8250 0.8230
8.032331 0.8230 0.8210 0.8210 0.8210 0.8210
8.067000 0.8210 0.8210 0.8210 0.8210 0.8210
8.101331 0.8210 0.8210 0.8230 0.8230 0.8230
8.135000 0.8250 0.8270 0.8280 0.8280 0.8300
8.169331 0.8320 0.8330 0.8350 0.8370 0.8390
8.204000 0.8390 0.8420 0.8420 0.8420 0.8420
8.238331 0.8440 0.8450 0.8490 0.8510 0.8510
8.273000 0.8540 0.8570 0.8570 0.8590 0.8590
8.307331 0.8590 0.8590 0.8590 0.8590 0.8590
8.341000 0.8610 0.8610 0.8610 0.8630 0.8640
8.375331 0.8640 0.8630 0.8610 0.8610 0.8560
8.410000 0.8520 0.8510 0.8490 0.8470 0.8420
8.444331 0.8400 0.8330 0.8300 0.8270 0.8210
8.478000 0.8200 0.8180 0.8150 0.8150 0.8110
8.512331 0.8090 0.8030 0.7990 0.7960 0.7920
8.547000 0.7890 0.7850 0.7840 0.7800 0.7790
8.581331 0.7730 0.7720 0.7680 0.7650 0.7610
8.616000 0.7580 0.7560 0.7530 0.7510 0.7500
8.650331 0.7440 0.7410 0.7360 0.7320 0.7290
8.684000 0.7260 0.7240 0.7200 0.7150 0.7120
8.718331 0.7100 0.7030 0.7020 0.6960 0.6860
8.753000 0.6810 0.6710 0.6640 0.6570 0.6500
8.787331 0.6430 0.6380 0.6360 0.6330 0.6330
8.822000 0.6350 0.6360 0.6400 0.6420 0.6430
8.856331 0.6500 0.6540 0.6570 0.6620 0.6710
8.890000 0.6740 0.6810 0.6840 0.6910 0.6930
8.924331 0.6980 0.7020 0.7020 0.7050 0.7070
8.959000 0.7080 0.7100 0.7120 0.7140 0.7150
8.993331 0.7170 0.7170 0.7190 0.7190 0.7200
9.027000 0.7220 0.7220 0.7220 0.7220 0.7220
9.061331 0.7220 0.7200 0.7190 0.7140 0.7100
9.096000 0.7030 0.7000 0.6930 0.6860 0.6790
9.130331 0.6710 0.6600 0.6520 0.6420 0.6300
9.165000 0.6140 0.5970 0.5800 0.5610 0.5410
9.199331 0.5180 0.4960 0.4740 0.4520 0.4280
9.233000 0.4040 0.3800 0.3590 0.3350 0.3160
9.267331 0.2990 0.2840 0.2680 0.2580 0.2440
9.302000 0.2380 0.2320 0.2310 0.2260 0.2240
9.336331 0.2240 0.2220 0.2220 0.2220 0.2240
9.371000 0.2310 0.2320 0.2410 0.2480 0.2580
9.405331 0.2700 0.2850 0.3030 0.3110 0.3330
9.439000 0.3640 0.3930 0.4170 0.4280 0.4480
9.473331 0.4670 0.4880 0.5080 0.5290 0.5470
9.508000 0.5650 0.5820 0.5990 0.6130 0.6250
9.542331 0.6330 0.6470 0.6520 0.6550 0.6600
9.576000 0.6600 0.6620 0.6660 0.6660 0.6660
9.610331 0.6660 0.6640 0.6620 0.6590 0.6540
9.645000 0.6500 0.6450 0.6400 0.6330 0.6300
9.679331 0.6210 0.6130 0.6020 0.5970 0.5870
9.714000 0.5730 0.5630 0.5530 0.5420 0.5300
9.748331 0.5220 0.5060 0.4980 0.4890 0.4810
9.782000 0.4720 0.4670 0.4620 0.4580 0.4550
9.816331 0.4520 0.4500 0.4480 0.4480 0.4460
9.851000 0.4460 0.4480 0.4530 0.4600 0.4690
9.885331 0.4770 0.4880 0.5000 0.5110 0.5230
9.920000 0.5370 0.5510 0.5630 0.5730 0.5830
9.954331 0.5940 0.6020 0.6110 0.6160 0.6210
9.988000 0.6260 0.6330 0.6380 0.6450 0.6500
10.022331 0.6540 0.6550 0.6570 0.6570 0.6590
10.057000 0.6600 0.6640 0.6660 0.6670 0.6670
10.091331 0.6690 0.6690 0.6690 0.6690 0.6710
10.125000 0.6710 0.6720 0.6740 0.6790 0.6830
10.159331 0.6880 0.6900 0.6960 0.6980 0.7020
10.194000 0.7030 0.7080 0.7170 0.7240 0.7270
10.228331 0.7290 0.7320 0.7410 0.7480 0.7530
10.263000 0.7600 0.7610 0.7650 0.7720 0.7750
10.297331 0.7790 0.7820 0.7890 0.7920 0.7960
10.331000 0.8010 0.8030 0.8060 0.8090 0.8150
10.365331 0.8200 0.8210 0.8250 0.8270 0.8280
10.400000 0.8300 0.8330 0.8400 0.8440 0.8450
10.434331 0.8470 0.8490 0.8520 0.8560 0.8610
10.469000 0.8640 0.8690 0.8690 0.8710 0.8730
10.503331 0.8750 0.8760 0.8780 0.8810 0.8830
10.537000 0.8850 0.8880 0.8900 0.8920 0.8930
10.571331 0.8950 0.8980 0.8980 0.9000 0.9000
10.606000 0.9020 0.9050 0.9050 0.9090 0.9090
10.640331 0.9090 0.9100 0.9100 0.9120 0.9120
10.675000 0.9140 0.9140 0.9160 0.9160 0.9170
10.709331 0.9170 0.9170 0.9190 0.9190 0.9210
10.743000 0.9220 0.9220 0.9240 0.9240 0.9260
10.777331 0.9280 0.9280 0.9280 0.9290 0.9290
10.812000 0.9290 0.9290 0.9290 0.9290 0.9290
10.846331 0.9290 0.9290 0.9290 0.9290 0.9290
10.880000 0.9290 0.9290 0.9290 0.9290 0.9290
10.914331 0.9290 0.9290 0.9290 0.9290 0.9290
10.949000 0.9290 0.9290 0.9290 0.9280 0.9280
10.983331 0.9260 0.9240 0.9220 0.9220 0.9210
11.018000 0.9210 0.9210 0.9210 0.9210 0.9210
11.052331 0.9190 0.9190 0.9190 0.9170 0.9120
11.086000 0.9090 0.9050 0.9040 0.9020 0.9000
11.120331 0.8980 0.8980 0.8970 0.8900 0.8880
11.155000 0.8810 0.8800 0.8780 0.8750 0.8690
11.189331 0.8660 0.8630 0.8540 0.8470 0.8370
11.224000 0.8300 0.8210 0.8150 0.8060 0.7990
11.258331 0.7920 0.7840 0.7750 0.7680 0.7600
11.292000 0.7510 0.7410 0.7320 0.7290 0.7200
11.326331 0.7120 0.7050 0.7020 0.7000 0.6960
11.361000 0.6930 0.6900 0.6880 0.6840 0.6830
11.395331 0.6830 0.6840 0.6880 0.6930 0.6960
11.429000 0.7020 0.7050 0.7150 0.7200 0.7260
11.463331 0.7310 0.7360 0.7390 0.7430 0.7500
11.498000 0.7530 0.7600 0.7610 0.7680 0.7700
11.532331 0.7750 0.7790 0.7890 0.7960 0.7990
11.567000 0.8040 0.8080 0.8090 0.8150 0.8180
11.601331 0.8230 0.8270 0.8300 0.8330 0.8350
11.635000 0.8400 0.8420 0.8450 0.8490 0.8510
11.669331 0.8520 0.8560 0.8570 0.8590 0.8590
11.704000 0.8590 0.8590 0.8590 0.8590 0.8590
11.738331 0.8590 0.8590 0.8590 0.8590 0.8570
11.773000 0.8520 0.8490 0.8450 0.8440 0.8420
11.807331 0.8370 0.8320 0.8280 0.8280 0.8230
11.841000 0.8210 0.8200 0.8180 0.8130 0.8110
11.875331 0.8090 0.8090 0.8080 0.8080 0.8060
11.910000 0.8040 0.8030 0.8010 0.7990 0.7990
11.944331 0.7990 0.7990 0.7990 0.7990 0.8010
11.978000 0.8030 0.8030 0.8060 0.8080 0.8090
12.012331 0.8130 0.8150 0.8180 0.8200 0.8210
12.047000 0.8210 0.8230 0.8250 0.8270 0.8280
12.081331 0.8280 0.8280 0.8300 0.8320 0.8320
12.116000 0.8320 0.8320 0.8320 0.8300 0.8300
12.150331 0.8270 0.8270 0.8270 0.8230 0.8210
12.184000 0.8180 0.8130 0.8090 0.8060 0.8030
12.218331 0.7970 0.7940 0.7920 0.7910 0.7890
12.253000 0.7870 0.7820 0.7800 0.7800 0.7790
12.287331 0.7790 0.7790 0.7770 0.7770 0.7770
12.322000 0.7770 0.7770 0.7770 0.7770 0.7770
12.356331 0.7770 0.7770 0.7790 0.7790 0.7790
12.390000 0.7790 0.7790 0.7800 0.7800 0.7790
12.424331 0.7790 0.7790 0.7790 0.7790 0.7790
12.459000 0.7800 0.7790 0.7790 0.7770 0.7770
12.493331 0.7750 0.7730 0.7730 0.7730 0.7720
12.527000 0.7720 0.7700 0.7700 0.7700 0.7720
12.561331 0.7720 0.7720 0.7700 0.7700 0.7700
12.596000 0.7700 0.7700 0.7700 0.7700 0.7700
12.630331 0.7700 0.7700 0.7700 0.7700 0.7700
12.665000 0.7700 0.7700 0.7700 0.7700 0.7700
12.699331 0.7700 0.7700 0.7700 0.7700 0.7700
12.733000 0.7700 0.7720 0.7720 0.7730 0.7750
12.767331 0.7750 0.7750 0.7750 0.7750 0.7770
12.802000 0.7770 0.7770 0.7770 0.7770 0.7770
12.836331 0.7770 0.7770 0.7770 0.7750 0.7730
12.871000 0.7720 0.7700 0.7700 0.7680 0.7680
12.905331 0.7680 0.7670 0.7630 0.7610 0.7610
12.939000 0.7600 0.7580 0.7580 0.7560 0.7560
12.973331 0.7560 0.7560 0.7550 0.7550 0.7530
13.008000 0.7530 0.7510 0.7500 0.7480 0.7460
13.042331 0.7460 0.7430 0.7390 0.7390 0.7380
13.076000 0.7380 0.7320 0.7290 0.7290 0.7270
13.110331 0.7270 0.7270 0.7240 0.7200 0.7190
13.145000 0.7150 0.7100 0.7100 0.7080 0.7070
13.179331 0.7030 0.7030 0.7000 0.6980 0.6950
13.214000 0.6910 0.6880 0.6880 0.6840 0.6810
13.248331 0.6790 0.6780 0.6760 0.6720 0.6690
13.282000 0.6670 0.6600 0.6590 0.6570 0.6520
13.316331 0.6500 0.6480 0.6480 0.6450 0.6430
13.351000 0.6400 0.6400 0.6380 0.6330 0.6310
13.385331 0.6300 0.6260 0.6250 0.6210 0.6180
13.420000 0.6180 0.6160 0.6130 0.6110 0.6090
13.454331 0.6040 0.6010 0.6010 0.5990 0.5950
13.488000 0.5900 0.5890 0.5890 0.5820 0.5800
13.522331 0.5780 0.5750 0.5710 0.5700 0.5680
13.557000 0.5630 0.5590 0.5580 0.5530 0.5510
13.591331 0.5490 0.5460 0.5410 0.5370 0.5340
13.625000 0.5320 0.5290 0.5220 0.5180 0.5130
13.659331 0.5100 0.5050 0.5000 0.5000 0.4890
13.694000 0.4880 0.4790 0.4720 0.4690 0.4600
13.728331 0.4580 0.4500 0.4450 0.4400 0.4340
13.763000 0.4290 0.4210 0.4170 0.4120 0.4100
13.797331 0.4040 0.3950 0.3880 0.3810 0.3780
13.831000 0.3710 0.3640 0.3590 0.3510 0.3490
13.865331 0.3400 0.3350 0.3300 0.3280 0.3210
13.900000 0.3150 0.3110 0.3090 0.3080 0.3060
13.934331 0.3040 0.3040 0.3030 0.3030 0.3030
13.969000 0.3030 0.3040 0.3040 0.3080 0.3110
14.003331 0.3150 0.3180 0.3210 0.3270 0.3300
14.037000 0.3350 0.3400 0.3440 0.3510 0.3560
14.071331 0.3610 0.3690 0.3710 0.3800 0.3850
14.106000 0.3900 0.3980 0.4000 0.4090 0.4100
14.140331 0.4170 0.4190 0.4220 0.4280 0.4310
14.175000 0.4330 0.4380 0.4380 0.4400 0.4410
14.209331 0.4430 0.4460 0.4480 0.4480 0.4500
14.243000 0.4500 0.4520 0.4520 0.4520 0.4520
14.277331 0.4530 0.4530 0.4530 0.4530 0.4520
14.312000 0.4520 0.4520 0.4520 0.4500 0.4480
14.346331 0.4460 0.4450 0.4430 0.4410 0.4380
14.380000 0.4380 0.4340 0.4330 0.4310 0.4280
14.414331 0.4240 0.4210 0.4190 0.4120 0.4100
14.449000 0.4090 0.4040 0.4000 0.3950 0.3920
14.483331 0.3880 0.3880 0.3810 0.3780 0.3730
14.518000 0.3690 0.3680 0.3610 0.3570 0.3510
14.552331 0.3450 0.3390 0.3370 0.3320 0.3300
14.586000 0.3280 0.3230 0.3200 0.3160 0.3160
14.620331 0.3130 0.3090 0.3090 0.3080 0.3040
14.655000 0.3030 0.3030 0.3010 0.3010 0.3010
14.689331 0.2990 0.2990 0.2970 0.2970 0.2990
14.724000 0.2990 0.2990 0.3010 0.3010 0.3030
14.758331 0.3030 0.3060 0.3060 0.3080 0.3090
14.792000 0.3110 0.3150 0.3160 0.3180 0.3200
14.826331 0.3210 0.3230 0.3250 0.3250 0.3270
14.861000 0.3270 0.3280 0.3280 0.3300 0.3300
14.895331 0.3300 0.3320 0.3330 0.3350 0.3370
14.929000 0.3390 0.3390 0.3400 0.3420 0.3420
14.963331 0.3440 0.3450 0.3450 0.3470 0.3470
14.998000 0.3470 0.3490 0.3490 0.3490 0.3490
15.032331 0.3490 0.3470 0.3470 0.3440 0.3420
15.067000 0.3400 0.3390 0.3370 0.3350 0.3350
15.101331 0.3330 0.3320 0.3300 0.3270 0.3270
15.135000 0.3250 0.3230 0.3230 0.3210 0.3210
15.169331 0.3200 0.3180 0.3150 0.3150 0.3130
15.204000 0.3110 0.3090 0.3090 0.3090 0.3080
15.238331 0.3080 0.3080 0.3060 0.3040 0.3040
15.273000 0.3030 0.3030 0.3010 0.3010 0.2990
15.307331 0.2990 0.2990 0.2970 0.2970 0.2960
15.341000 0.2960 0.2940 0.2940 0.2940 0.2940
15.375331 0.2940 0.2940 0.2920 0.2920 0.2920
15.410000 0.2920 0.2940 0.2940 0.2940 0.2940
15.444331 0.2940 0.2940 0.2960 0.2960 0.2970
15.478000 0.2970 0.2970 0.2970 0.2990 0.2990
15.512331 0.3010 0.3010 0.3030 0.3030 0.3060
15.547000 0.3060 0.3060 0.3080 0.3080 0.3080
15.581331 0.3090 0.3090 0.3110 0.3130 0.3130
15.616000 0.3150 0.3150 0.3160 0.3180 0.3160
15.650331 0.3180 0.3180 0.3200 0.3200 0.3200
15.684000 0.3210 0.3210 0.3210 0.3210 0.3230
15.718331 0.3250 0.3270 0.3270 0.3280 0.3280
15.753000 0.3280 0.3300 0.3300 0.3300 0.3320
15.787331 0.3330 0.3370 0.3390 0.3390 0.3390
15.822000 0.3400 0.3400 0.3400 0.3400 0.3390
15.856331 0.3390 0.3400 0.3400 0.3400 0.3400
##END=
