##TITLE=N-STEAROYL P-AMINO PHENOL
##JCAMP-DX=4.24
##DATA TYPE=INFRARED SPECTRUM
##CLASS=COBLENTZ
##ORIGIN=US INDUSTRIAL CHEMICALS COMPANY, 1275 SECTION ROAD, CINCINNATI 37, OHIO
##OWNER=COBLENTZ SOCIETY
Collection (C) 2018 copyright by the U.S. Secretary of Commerce
on behalf of the United States of America. All rights reserved.
##DATE=Not specified, most likely prior to 1970
##NAMES=SUCONOX-18
##MOLFORM=C24 H41 O2
##SOURCE REFERENCE=COBLENTZ NO. 2525
##$NIST ID=B6002525
##$NIST SOURCE=COBLENTZ
##$NIST IMAGE=cob2525
##SPECTROMETER/DATA SYSTEM=PERKIN-ELMER
##STATE=SOLID (KBr PELLET)
$$ TECHNICAL GRADE, MILES CHEMICAL COMPANY
##SAMPLING PROCEDURE=TRANSMISSION
##RESOLUTION=4
##DATA PROCESSING=DIGITIZED BY NIST FROM HARD COPY (FROM TWO SEGMENTS)
##XUNITS=1/CM
##YUNITS=TRANSMITTANCE
##XFACTOR=1.000000
##YFACTOR=1
##DELTAX=0.841425
##FIRSTX=599.871
##LASTX=3592.82
##FIRSTY=0.662
##MAXX=3592.82
##MINX=599.871
##MAXY=0.899711
##MINY=0.005
##NPOINTS=3558
##XYDATA=(X++(Y..Y))
599.871000 0.6620 0.6620 0.6630 0.6630 0.6650
604.078124 0.6650 0.6650 0.6650 0.6670 0.6650
608.285247 0.6650 0.6650 0.6650 0.6650 0.6670
612.492371 0.6670 0.6680 0.6700 0.6720 0.6720
616.699494 0.6720 0.6720 0.6720 0.6720 0.6720
620.906618 0.6720 0.6720 0.6720 0.6720 0.6720
625.113741 0.6700 0.6700 0.6680 0.6680 0.6680
629.320865 0.6680 0.6680 0.6680 0.6680 0.6680
633.527988 0.6680 0.6680 0.6680 0.6680 0.6680
637.735112 0.6680 0.6680 0.6680 0.6680 0.6680
641.942236 0.6670 0.6670 0.6650 0.6630 0.6630
646.149359 0.6620 0.6620 0.6620 0.6620 0.6620
650.356483 0.6620 0.6620 0.6600 0.6600 0.6580
654.563606 0.6580 0.6580 0.6530 0.6480 0.6430
658.770730 0.6380 0.6330 0.6260 0.6250 0.6250
662.977853 0.6250 0.6250 0.6230 0.6130 0.6060
667.184977 0.6010 0.5970 0.5960 0.5890 0.5840
671.392100 0.5790 0.5740 0.5670 0.5600 0.5540
675.599224 0.5470 0.5400 0.5330 0.5270 0.5200
679.806348 0.5110 0.5060 0.5000 0.4930 0.4880
684.013471 0.4830 0.4780 0.4720 0.4690 0.4660
688.220595 0.4640 0.4620 0.4610 0.4590 0.4590
692.427718 0.4610 0.4640 0.4660 0.4710 0.4760
696.634842 0.4790 0.4810 0.4810 0.4810 0.4810
700.841965 0.4830 0.4810 0.4710 0.4570 0.4400
705.049089 0.4220 0.4030 0.3851 0.3681 0.3660
709.256212 0.3680 0.3830 0.4130 0.4390 0.4610
713.463336 0.4790 0.4979 0.5159 0.5349 0.5519
717.670460 0.5690 0.5840 0.5970 0.6110 0.6250
721.877583 0.6360 0.6460 0.6570 0.6670 0.6770
726.084707 0.6850 0.6940 0.7010 0.7070 0.7140
730.291830 0.7210 0.7260 0.7310 0.7340 0.7380
734.498954 0.7430 0.7440 0.7480 0.7500 0.7510
738.706077 0.7530 0.7580 0.7610 0.7630 0.7650
742.913201 0.7660 0.7680 0.7700 0.7700 0.7700
747.120324 0.7700 0.7700 0.7700 0.7710 0.7710
751.327448 0.7710 0.7710 0.7710 0.7730 0.7730
755.534572 0.7710 0.7710 0.7710 0.7710 0.7710
759.741695 0.7710 0.7710 0.7700 0.7680 0.7680
763.948819 0.7660 0.7650 0.7630 0.7600 0.7580
768.155942 0.7560 0.7550 0.7510 0.7500 0.7480
772.363066 0.7480 0.7480 0.7430 0.7390 0.7330
776.570189 0.7290 0.7240 0.7220 0.7070 0.6920
780.777313 0.6820 0.6730 0.6571 0.6530 0.6530
784.984436 0.6530 0.6530 0.6570 0.6680 0.6790
789.191560 0.6900 0.7010 0.7070 0.7140 0.7190
793.398684 0.7190 0.7190 0.7190 0.7170 0.7160
797.605807 0.7120 0.7110 0.7070 0.7020 0.6970
801.812931 0.6940 0.6900 0.6890 0.6850 0.6770
806.020054 0.6700 0.6630 0.6500 0.6351 0.6181
810.227178 0.5990 0.5790 0.5550 0.5300 0.5031
814.434301 0.4721 0.4371 0.4001 0.3592 0.3142
818.641425 0.2650 0.2090 0.2070 0.2070 0.2090
822.848549 0.2170 0.2260 0.2499 0.2659 0.2849
827.055672 0.3090 0.3440 0.3910 0.4609 0.5199
831.262796 0.5699 0.6109 0.6459 0.6749 0.6989
835.469919 0.7170 0.7340 0.7480 0.7600 0.7700
839.677043 0.7730 0.7780 0.7820 0.7820 0.7820
843.884166 0.7830 0.7830 0.7850 0.7850 0.7850
848.091290 0.7850 0.7850 0.7850 0.7850 0.7850
852.298413 0.7870 0.7900 0.7930 0.8000 0.8090
856.505537 0.8150 0.8190 0.8200 0.8220 0.8270
860.712661 0.8290 0.8310 0.8310 0.8320 0.8320
864.919784 0.8320 0.8320 0.8320 0.8320 0.8320
869.126908 0.8320 0.8320 0.8320 0.8320 0.8320
873.334031 0.8320 0.8340 0.8340 0.8340 0.8340
877.541155 0.8340 0.8340 0.8340 0.8340 0.8340
881.748278 0.8340 0.8340 0.8340 0.8340 0.8340
885.955402 0.8340 0.8340 0.8340 0.8340 0.8340
890.162525 0.8340 0.8340 0.8340 0.8340 0.8340
894.369649 0.8340 0.8320 0.8320 0.8310 0.8310
898.576773 0.8290 0.8290 0.8290 0.8290 0.8270
902.783896 0.8270 0.8260 0.8260 0.8260 0.8240
906.991020 0.8240 0.8220 0.8220 0.8220 0.8220
911.198143 0.8200 0.8200 0.8200 0.8190 0.8170
915.405267 0.8170 0.8150 0.8150 0.8140 0.8140
919.612390 0.8140 0.8140 0.8150 0.8150 0.8190
923.819514 0.8220 0.8240 0.8240 0.8240 0.8240
928.026637 0.8220 0.8220 0.8220 0.8200 0.8190
932.233761 0.8190 0.8150 0.8120 0.8100 0.8020
936.440885 0.7950 0.7900 0.7870 0.7800 0.7710
940.648008 0.7610 0.7530 0.7440 0.7380 0.7261
944.855132 0.7140 0.7040 0.6940 0.6840 0.6750
949.062255 0.6700 0.6650 0.6620 0.6600 0.6600
953.269379 0.6630 0.6790 0.6940 0.7120 0.7290
957.476502 0.7460 0.7600 0.7730 0.7820 0.7870
961.683626 0.7880 0.7880 0.7880 0.7900 0.7900
965.890749 0.7930 0.7950 0.8000 0.8020 0.8050
970.097873 0.8090 0.8100 0.8100 0.8100 0.8120
974.304997 0.8120 0.8120 0.8120 0.8120 0.8120
978.512120 0.8120 0.8120 0.8120 0.8120 0.8120
982.719244 0.8120 0.8120 0.8120 0.8120 0.8100
986.926367 0.8100 0.8100 0.8100 0.8090 0.8050
991.133491 0.8020 0.8000 0.8000 0.7980 0.7970
995.340614 0.7950 0.7900 0.7850 0.7800 0.7780
999.547738 0.7770 0.7710 0.7680 0.7630 0.7600
1003.754861 0.7560 0.7560 0.7550 0.7560 0.7680
1007.961985 0.7780 0.7920 0.7980 0.8050 0.8070
1012.169109 0.8070 0.8090 0.8090 0.8090 0.8090
1016.376232 0.8090 0.8090 0.8090 0.8090 0.8090
1020.583356 0.8090 0.8090 0.8090 0.8090 0.8090
1024.790479 0.8090 0.8070 0.8070 0.8050 0.8050
1028.997603 0.8050 0.8040 0.8040 0.8040 0.8040
1033.204726 0.8040 0.8040 0.8040 0.8040 0.8040
1037.411850 0.8040 0.8020 0.8020 0.8020 0.8020
1041.618973 0.8020 0.8020 0.8020 0.8020 0.8020
1045.826097 0.8020 0.8020 0.8020 0.8020 0.8020
1050.033221 0.8020 0.8020 0.8000 0.8000 0.8000
1054.240344 0.8000 0.8000 0.8000 0.8020 0.8020
1058.447468 0.8020 0.8020 0.8020 0.8020 0.8000
1062.654591 0.7980 0.7980 0.7980 0.7970 0.7970
1066.861715 0.7950 0.7920 0.7920 0.7920 0.7920
1071.068838 0.7900 0.7880 0.7880 0.7870 0.7830
1075.275962 0.7800 0.7780 0.7750 0.7700 0.7660
1079.483085 0.7650 0.7600 0.7530 0.7480 0.7410
1083.690209 0.7260 0.7120 0.7010 0.6900 0.6800
1087.897333 0.6700 0.6550 0.6360 0.6140 0.5860
1092.104456 0.5481 0.5031 0.4811 0.4561 0.4540
1096.311580 0.4540 0.4560 0.4840 0.5299 0.5839
1100.518703 0.6279 0.6629 0.6939 0.7169 0.7339
1104.725827 0.7500 0.7580 0.7650 0.7680 0.7700
1108.932950 0.7700 0.7710 0.7710 0.7730 0.7730
1113.140074 0.7750 0.7750 0.7770 0.7770 0.7780
1117.347197 0.7770 0.7780 0.7800 0.7800 0.7780
1121.554321 0.7800 0.7800 0.7800 0.7800 0.7820
1125.761445 0.7820 0.7820 0.7820 0.7820 0.7820
1129.968568 0.7800 0.7780 0.7800 0.7780 0.7780
1134.175692 0.7770 0.7750 0.7730 0.7710 0.7710
1138.382815 0.7700 0.7700 0.7680 0.7680 0.7660
1142.589939 0.7650 0.7610 0.7600 0.7600 0.7560
1146.797062 0.7550 0.7530 0.7500 0.7430 0.7380
1151.004186 0.7310 0.7260 0.7170 0.7160 0.7110
1155.211309 0.7020 0.6900 0.6790 0.6680 0.6580
1159.418433 0.6520 0.6480 0.6460 0.6460 0.6480
1163.625557 0.6580 0.6600 0.6600 0.6580 0.6500
1167.832680 0.6410 0.6250 0.5941 0.5771 0.5720
1172.039804 0.5700 0.5720 0.5820 0.5960 0.6060
1176.246927 0.6190 0.6399 0.6569 0.6580 0.6580
1180.454051 0.6570 0.6530 0.6500 0.6460 0.6410
1184.661174 0.6360 0.6310 0.6260 0.6230 0.6210
1188.868298 0.6210 0.6210 0.6230 0.6260 0.6280
1193.075421 0.6300 0.6310 0.6330 0.6330 0.6330
1197.282545 0.6310 0.6310 0.6300 0.6260 0.6230
1201.489669 0.6160 0.6080 0.5990 0.5890 0.5790
1205.696792 0.5690 0.5590 0.5480 0.5370 0.5270
1209.903916 0.5160 0.5050 0.4940 0.4840 0.4740
1214.111039 0.4640 0.4560 0.4450 0.4370 0.4300
1218.318163 0.4220 0.4150 0.4100 0.4030 0.4000
1222.525286 0.3960 0.3830 0.3690 0.3580 0.3470
1226.732410 0.3390 0.3290 0.3200 0.3100 0.2980
1230.939534 0.2850 0.2700 0.2530 0.2310 0.2170
1235.146657 0.1990 0.1850 0.1670 0.1630 0.1620
1239.353781 0.1630 0.1650 0.1670 0.1750 0.1840
1243.560904 0.1920 0.2040 0.2140 0.2260 0.2389
1247.768028 0.2510 0.2630 0.2820 0.3020 0.3100
1251.975151 0.3190 0.3220 0.3609 0.3979 0.4319
1256.182275 0.4591 0.4930 0.5180 0.5350 0.5470
1260.389398 0.5550 0.5620 0.5690 0.5810 0.5870
1264.596522 0.5920 0.5970 0.6030 0.6060 0.6130
1268.803646 0.6190 0.6280 0.6350 0.6410 0.6450
1273.010769 0.6480 0.6500 0.6530 0.6580 0.6580
1277.217893 0.6580 0.6580 0.6580 0.6580 0.6570
1281.425016 0.6480 0.6450 0.6410 0.6350 0.6330
1285.632140 0.6230 0.6080 0.6040 0.5940 0.5820
1289.839263 0.5700 0.5620 0.5570 0.5550 0.5550
1294.046387 0.5550 0.5590 0.5620 0.5640 0.5690
1298.253510 0.5700 0.5700 0.5700 0.5690 0.5690
1302.460634 0.5670 0.5670 0.5670 0.5670 0.5670
1306.667758 0.5700 0.5810 0.5910 0.6030 0.6080
1310.874881 0.6190 0.6210 0.6210 0.6210 0.6210
1315.082005 0.6190 0.6130 0.6060 0.6060 0.5990
1319.289128 0.5920 0.5890 0.5870 0.5870 0.5870
1323.496252 0.5870 0.5870 0.5910 0.5910 0.5890
1327.703375 0.5890 0.5890 0.5890 0.5890 0.5870
1331.910499 0.5870 0.5860 0.5860 0.5860 0.5840
1336.117622 0.5810 0.5790 0.5790 0.5770 0.5770
1340.324746 0.5770 0.5760 0.5740 0.5720 0.5720
1344.531870 0.5720 0.5720 0.5700 0.5690 0.5670
1348.738993 0.5650 0.5640 0.5620 0.5550 0.5480
1352.946117 0.5430 0.5400 0.5370 0.5330 0.5300
1357.153240 0.5270 0.5210 0.5150 0.5110 0.5010
1361.360364 0.4860 0.4690 0.4510 0.4321 0.4121
1365.567487 0.3930 0.3780 0.3640 0.3560 0.3530
1369.774611 0.3440 0.3390 0.3370 0.3390 0.3420
1373.981734 0.3470 0.3530 0.3630 0.4020 0.4270
1378.188858 0.4440 0.4570 0.4690 0.4859 0.5099
1382.395982 0.5130 0.5280 0.5400 0.5590 0.5670
1386.603105 0.5690 0.5690 0.5690 0.5700 0.5700
1390.810229 0.5700 0.5690 0.5670 0.5670 0.5640
1395.017352 0.5640 0.5640 0.5620 0.5600 0.5570
1399.224476 0.5550 0.5480 0.5380 0.5230 0.5080
1403.431599 0.4890 0.4690 0.4510 0.4301 0.4131
1407.638723 0.3960 0.3830 0.3730 0.3680 0.3660
1411.845846 0.3640 0.3630 0.3630 0.3640 0.3640
1416.052970 0.3660 0.3660 0.3640 0.3630 0.3630
1420.260094 0.3540 0.3540 0.3540 0.3540 0.3540
1424.467217 0.3560 0.3580 0.3630 0.3660 0.3680
1428.674341 0.3710 0.3730 0.3750 0.3750 0.3730
1432.881464 0.3730 0.3690 0.3640 0.3580 0.3510
1437.088588 0.3440 0.3390 0.3360 0.3290 0.3200
1441.295711 0.3120 0.3090 0.3040 0.3020 0.3020
1445.502835 0.3020 0.3020 0.3020 0.3040 0.3040
1449.709958 0.3040 0.3040 0.3020 0.2930 0.2870
1453.917082 0.2710 0.2510 0.2311 0.2121 0.2010
1458.124206 0.1990 0.1970 0.1950 0.1940 0.1950
1462.331329 0.2060 0.2459 0.2849 0.3468 0.4665
1466.538453 0.5050 0.5110 0.5370 0.5620 0.5810
1470.745576 0.5890 0.5920 0.5990 0.6130 0.6140
1474.952700 0.6140 0.6140 0.6140 0.6130 0.6090
1479.159823 0.6060 0.6060 0.6040 0.6030 0.6010
1483.366947 0.6010 0.5970 0.5920 0.5810 0.5690
1487.574070 0.5600 0.5550 0.5540 0.5520 0.5500
1491.781194 0.5450 0.5370 0.5250 0.5050 0.4780
1495.988318 0.4401 0.3931 0.3322 0.2802 0.2382
1500.195441 0.2070 0.1850 0.1720 0.1630 0.1580
1504.402565 0.1570 0.1530 0.1530 0.1550 0.1570
1508.609688 0.1600 0.1670 0.1750 0.1870 0.1950
1512.816812 0.2040 0.2070 0.2090 0.2090 0.2090
1517.023935 0.2090 0.2070 0.2070 0.2060 0.2040
1521.231059 0.1940 0.1820 0.1651 0.1481 0.1311
1525.438182 0.1160 0.0970 0.0920 0.0890 0.0860
1529.645306 0.0810 0.0770 0.0760 0.0760 0.0760
1533.852430 0.0760 0.0760 0.0760 0.0760 0.0760
1538.059553 0.0770 0.0840 0.0890 0.0970 0.1030
1542.266677 0.1060 0.1160 0.1250 0.1520 0.1990
1546.473800 0.2440 0.2700 0.2949 0.3199 0.3529
1550.680924 0.3690 0.3780 0.3800 0.3800 0.3850
1554.888047 0.4000 0.4269 0.4659 0.4939 0.5149
1559.095171 0.5380 0.5540 0.6040 0.6190 0.6210
1563.302294 0.6260 0.6310 0.6400 0.6579 0.6630
1567.509418 0.6630 0.6630 0.6630 0.6630 0.6650
1571.716542 0.6650 0.6650 0.6650 0.6650 0.6650
1575.923665 0.6650 0.6630 0.6630 0.6620 0.6620
1580.130789 0.6620 0.6600 0.6570 0.6530 0.6500
1584.337912 0.6450 0.6400 0.6350 0.6280 0.6180
1588.545036 0.6060 0.5910 0.5760 0.5591 0.5401
1592.752159 0.5200 0.5000 0.4780 0.4560 0.4320
1596.959283 0.4080 0.3851 0.3611 0.3560 0.3560
1601.166407 0.3560 0.3580 0.3680 0.3800 0.3910
1605.373530 0.4050 0.4170 0.4270 0.4320 0.4370
1609.580654 0.4390 0.4420 0.4450 0.4520 0.4560
1613.787777 0.4660 0.4660 0.4670 0.4660 0.4660
1617.994901 0.4610 0.4560 0.4520 0.4490 0.4450
1622.202024 0.4400 0.4250 0.4051 0.3831 0.3611
1626.409148 0.3420 0.3290 0.3200 0.3150 0.3050
1630.616271 0.2880 0.2680 0.2441 0.2191 0.1921
1634.823395 0.1670 0.1410 0.0970 0.0810 0.0690
1639.030519 0.0650 0.0650 0.0650 0.0650 0.0690
1643.237642 0.0720 0.0720 0.0760 0.0770 0.0770
1647.444766 0.0790 0.0840 0.0990 0.1090 0.1190
1651.651889 0.1520 0.1790 0.2060 0.2360 0.2749
1655.859013 0.3239 0.3390 0.3829 0.4468 0.5127
1660.066136 0.5720 0.6060 0.6350 0.6380 0.6500
1664.273260 0.6600 0.6730 0.6900 0.7059 0.7189
1668.480383 0.7260 0.7290 0.7360 0.7500 0.7650
1672.687507 0.7710 0.7780 0.7820 0.7920 0.7950
1676.894631 0.7950 0.7930 0.7930 0.7930 0.7950
1681.101754 0.8050 0.8120 0.8150 0.8190 0.8200
1685.308878 0.8270 0.8310 0.8370 0.8410 0.8420
1689.516001 0.8420 0.8420 0.8420 0.8420 0.8420
1693.723125 0.8410 0.8410 0.8410 0.8410 0.8410
1697.930248 0.8410 0.8410 0.8410 0.8410 0.8410
1702.137372 0.8420 0.8440 0.8460 0.8460 0.8470
1706.344495 0.8470 0.8470 0.8470 0.8470 0.8470
1710.551619 0.8470 0.8470 0.8470 0.8470 0.8470
1714.758743 0.8490 0.8490 0.8490 0.8490 0.8490
1718.965866 0.8510 0.8510 0.8510 0.8510 0.8510
1723.172990 0.8510 0.8490 0.8510 0.8510 0.8510
1727.380113 0.8510 0.8510 0.8510 0.8510 0.8530
1731.587237 0.8530 0.8540 0.8540 0.8560 0.8560
1735.794360 0.8560 0.8560 0.8560 0.8560 0.8580
1740.001484 0.8580 0.8580 0.8580 0.8580 0.8590
1744.208607 0.8590 0.8590 0.8590 0.8590 0.8590
1748.415731 0.8590 0.8590 0.8610 0.8630 0.8640
1752.622855 0.8640 0.8640 0.8660 0.8660 0.8660
1756.829978 0.8680 0.8680 0.8690 0.8710 0.8730
1761.037102 0.8750 0.8750 0.8750 0.8750 0.8760
1765.244225 0.8760 0.8760 0.8760 0.8760 0.8760
1769.451349 0.8760 0.8760 0.8780 0.8800 0.8800
1773.658472 0.8800 0.8800 0.8810 0.8810 0.8810
1777.865596 0.8810 0.8810 0.8810 0.8810 0.8810
1782.072719 0.8810 0.8810 0.8810 0.8810 0.8810
1786.279843 0.8810 0.8810 0.8810 0.8810 0.8810
1790.486967 0.8810 0.8810 0.8810 0.8810 0.8810
1794.694090 0.8810 0.8810 0.8810 0.8810 0.8830
1798.901214 0.8830 0.8830 0.8830 0.8830 0.8830
1803.108337 0.8810 0.8810 0.8810 0.8800 0.8800
1807.315461 0.8800 0.8800 0.8800 0.8800 0.8800
1811.522584 0.8810 0.8810 0.8810 0.8800 0.8800
1815.729708 0.8800 0.8810 0.8810 0.8810 0.8810
1819.936831 0.8810 0.8810 0.8810 0.8810 0.8810
1824.143955 0.8810 0.8810 0.8810 0.8830 0.8830
1828.351079 0.8830 0.8830 0.8830 0.8830 0.8830
1832.558202 0.8830 0.8830 0.8830 0.8830 0.8830
1836.765326 0.8830 0.8810 0.8810 0.8810 0.8810
1840.972449 0.8800 0.8800 0.8780 0.8780 0.8780
1845.179573 0.8760 0.8750 0.8750 0.8730 0.8710
1849.386696 0.8680 0.8660 0.8630 0.8610 0.8590
1853.593820 0.8580 0.8560 0.8560 0.8560 0.8560
1857.800943 0.8540 0.8540 0.8530 0.8530 0.8510
1862.008067 0.8510 0.8490 0.8490 0.8470 0.8460
1866.215191 0.8440 0.8420 0.8370 0.8360 0.8360
1870.422314 0.8360 0.8360 0.8360 0.8370 0.8390
1874.629438 0.8420 0.8440 0.8470 0.8530 0.8580
1878.836561 0.8630 0.8680 0.8730 0.8800 0.8860
1883.043685 0.8910 0.8910 0.8910 0.8910 0.8910
1887.250808 0.8910 0.8910 0.8910 0.8910 0.8910
1891.457932 0.8910 0.8910 0.8910 0.8910 0.8930
1895.665055 0.8930 0.8930 0.8930 0.8930 0.8930
1899.872179 0.8930 0.8930 0.8930 0.8930 0.8930
1904.079303 0.8930 0.8930 0.8930 0.8930 0.8930
1908.286426 0.8930 0.8930 0.8930 0.8930 0.8930
1912.493550 0.8930 0.8930 0.8930 0.8930 0.8930
1916.700673 0.8930 0.8930 0.8930 0.8930 0.8930
1920.907797 0.8930 0.8930 0.8930 0.8930 0.8930
1925.114920 0.8930 0.8930 0.8930 0.8930 0.8930
1929.322044 0.8930 0.8950 0.8950 0.8950 0.8950
1933.529167 0.8950 0.8950 0.8950 0.8950 0.8950
1937.736291 0.8950 0.8950 0.8950 0.8950 0.8950
1941.943415 0.8950 0.8950 0.8950 0.8950 0.8950
1946.150538 0.8950 0.8950 0.8950 0.8950 0.8950
1950.357662 0.8950 0.8950 0.8950 0.8950 0.8950
1954.564785 0.8950 0.8950 0.8950 0.8930 0.8930
1958.771909 0.8930 0.8930 0.8930 0.8930 0.8930
1962.979032 0.8930 0.8930 0.8930 0.8930 0.8930
1967.186156 0.8910 0.8910 0.8900 0.8900 0.8900
1971.393279 0.8900 0.8900 0.8900 0.8900 0.8900
1975.600403 0.8880 0.8900 0.8900 0.8880 0.8880
1979.807527 0.8880 0.8860 0.8860 0.8860 0.8860
1984.014650 0.8860 0.8850 0.8850 0.8850 0.8830
1988.221774 0.8830 0.8810 0.8810 0.8780 0.8780
1992.428897 0.8750 0.8750 0.8730 0.8730 0.8710
1996.636021 0.8710 0.8710 0.8730 0.8730 0.8750
2000.843144 0.8750 0.8750 0.8750 0.8750 0.8752
2005.050268 0.8755 0.8757 0.8760 0.8760 0.8760
2009.257392 0.8760 0.8760 0.8765 0.8770 0.8775
2013.464515 0.8780 0.8780 0.8780 0.8780 0.8780
2017.671639 0.8785 0.8790 0.8795 0.8800 0.8800
2021.878762 0.8800 0.8800 0.8800 0.8800 0.8800
2026.085886 0.8800 0.8800 0.8800 0.8800 0.8800
2030.293009 0.8800 0.8800 0.8800 0.8800 0.8800
2034.500133 0.8800 0.8800 0.8800 0.8800 0.8800
2038.707256 0.8800 0.8800 0.8800 0.8800 0.8800
2042.914380 0.8800 0.8800 0.8800 0.8800 0.8800
2047.121504 0.8800 0.8800 0.8800 0.8800 0.8800
2051.328627 0.8800 0.8800 0.8800 0.8800 0.8800
2055.535751 0.8800 0.8800 0.8800 0.8800 0.8800
2059.742874 0.8800 0.8800 0.8800 0.8800 0.8800
2063.949998 0.8800 0.8800 0.8800 0.8800 0.8800
2068.157121 0.8803 0.8805 0.8808 0.8810 0.8810
2072.364245 0.8810 0.8810 0.8810 0.8815 0.8820
2076.571368 0.8825 0.8830 0.8830 0.8830 0.8830
2080.778492 0.8830 0.8830 0.8830 0.8830 0.8830
2084.985616 0.8830 0.8830 0.8830 0.8830 0.8830
2089.192739 0.8830 0.8830 0.8830 0.8830 0.8830
2093.399863 0.8830 0.8830 0.8830 0.8830 0.8830
2097.606986 0.8830 0.8830 0.8830 0.8830 0.8830
2101.814110 0.8830 0.8830 0.8830 0.8830 0.8830
2106.021233 0.8830 0.8830 0.8830 0.8830 0.8830
2110.228357 0.8830 0.8830 0.8830 0.8830 0.8830
2114.435480 0.8830 0.8830 0.8830 0.8830 0.8830
2118.642604 0.8830 0.8830 0.8830 0.8831 0.8836
2122.849728 0.8841 0.8846 0.8850 0.8850 0.8850
2127.056851 0.8850 0.8850 0.8850 0.8850 0.8850
2131.263975 0.8850 0.8850 0.8850 0.8850 0.8850
2135.471098 0.8850 0.8850 0.8850 0.8850 0.8850
2139.678222 0.8850 0.8850 0.8850 0.8850 0.8850
2143.885345 0.8850 0.8850 0.8850 0.8850 0.8850
2148.092469 0.8850 0.8850 0.8850 0.8850 0.8850
2152.299592 0.8850 0.8850 0.8850 0.8850 0.8850
2156.506716 0.8850 0.8850 0.8849 0.8844 0.8839
2160.713840 0.8834 0.8830 0.8830 0.8830 0.8830
2164.920963 0.8830 0.8830 0.8830 0.8830 0.8830
2169.128087 0.8830 0.8830 0.8830 0.8830 0.8830
2173.335210 0.8830 0.8830 0.8830 0.8830 0.8830
2177.542334 0.8830 0.8830 0.8830 0.8830 0.8830
2181.749457 0.8830 0.8830 0.8830 0.8830 0.8830
2185.956581 0.8830 0.8830 0.8830 0.8830 0.8830
2190.163704 0.8830 0.8830 0.8830 0.8830 0.8830
2194.370828 0.8830 0.8830 0.8830 0.8830 0.8830
2198.577952 0.8830 0.8830 0.8830 0.8830 0.8830
2202.785075 0.8830 0.8830 0.8830 0.8830 0.8830
2206.992199 0.8830 0.8830 0.8830 0.8830 0.8830
2211.199322 0.8830 0.8830 0.8830 0.8830 0.8830
2215.406446 0.8830 0.8830 0.8830 0.8830 0.8830
2219.613569 0.8830 0.8830 0.8830 0.8830 0.8830
2223.820693 0.8830 0.8830 0.8830 0.8830 0.8830
2228.027816 0.8830 0.8830 0.8830 0.8830 0.8830
2232.234940 0.8830 0.8830 0.8830 0.8830 0.8830
2236.442064 0.8830 0.8830 0.8830 0.8830 0.8830
2240.649187 0.8830 0.8830 0.8830 0.8830 0.8830
2244.856311 0.8830 0.8830 0.8830 0.8830 0.8830
2249.063434 0.8830 0.8830 0.8830 0.8830 0.8830
2253.270558 0.8830 0.8830 0.8830 0.8830 0.8830
2257.477681 0.8830 0.8830 0.8830 0.8830 0.8830
2261.684805 0.8830 0.8828 0.8823 0.8818 0.8813
2265.891928 0.8810 0.8810 0.8810 0.8810 0.8810
2270.099052 0.8810 0.8810 0.8810 0.8810 0.8810
2274.306176 0.8810 0.8810 0.8810 0.8810 0.8810
2278.513299 0.8810 0.8810 0.8810 0.8810 0.8810
2282.720423 0.8810 0.8810 0.8810 0.8810 0.8810
2286.927546 0.8810 0.8810 0.8810 0.8810 0.8810
2291.134670 0.8810 0.8810 0.8809 0.8807 0.8804
2295.341793 0.8802 0.8800 0.8800 0.8800 0.8800
2299.548917 0.8800 0.8800 0.8800 0.8800 0.8800
2303.756040 0.8800 0.8800 0.8800 0.8800 0.8800
2307.963164 0.8800 0.8800 0.8800 0.8800 0.8800
2312.170288 0.8800 0.8800 0.8800 0.8800 0.8800
2316.377411 0.8800 0.8800 0.8800 0.8800 0.8800
2320.584535 0.8800 0.8800 0.8800 0.8800 0.8800
2324.791658 0.8800 0.8800 0.8800 0.8800 0.8800
2328.998782 0.8800 0.8800 0.8800 0.8800 0.8800
2333.205905 0.8800 0.8800 0.8800 0.8800 0.8800
2337.413029 0.8800 0.8800 0.8800 0.8800 0.8800
2341.620152 0.8800 0.8800 0.8800 0.8800 0.8800
2345.827276 0.8800 0.8800 0.8800 0.8800 0.8800
2350.034400 0.8800 0.8800 0.8800 0.8800 0.8797
2354.241523 0.8792 0.8788 0.8782 0.8780 0.8780
2358.448647 0.8780 0.8780 0.8780 0.8780 0.8780
2362.655770 0.8780 0.8780 0.8780 0.8780 0.8780
2366.862894 0.8778 0.8772 0.8767 0.8762 0.8760
2371.070017 0.8760 0.8760 0.8760 0.8760 0.8760
2375.277141 0.8760 0.8760 0.8760 0.8760 0.8760
2379.484264 0.8760 0.8760 0.8760 0.8760 0.8760
2383.691388 0.8759 0.8756 0.8754 0.8751 0.8750
2387.898512 0.8750 0.8750 0.8750 0.8750 0.8750
2392.105635 0.8750 0.8750 0.8750 0.8750 0.8750
2396.312759 0.8750 0.8750 0.8750 0.8750 0.8750
2400.519882 0.8747 0.8742 0.8737 0.8732 0.8730
2404.727006 0.8730 0.8730 0.8730 0.8730 0.8730
2408.934129 0.8730 0.8730 0.8730 0.8730 0.8730
2413.141253 0.8730 0.8727 0.8722 0.8717 0.8712
2417.348377 0.8705 0.8698 0.8690 0.8683 0.8680
2421.555500 0.8680 0.8680 0.8680 0.8677 0.8672
2425.762624 0.8667 0.8662 0.8657 0.8652 0.8647
2429.969747 0.8642 0.8640 0.8640 0.8640 0.8640
2434.176871 0.8638 0.8636 0.8633 0.8631 0.8630
2438.383994 0.8630 0.8630 0.8630 0.8630 0.8630
2442.591118 0.8630 0.8630 0.8627 0.8622 0.8617
2446.798241 0.8612 0.8605 0.8598 0.8590 0.8583
2451.005365 0.8580 0.8580 0.8580 0.8580 0.8580
2455.212489 0.8580 0.8580 0.8580 0.8585 0.8592
2459.419612 0.8600 0.8607 0.8621 0.8639 0.8656
2463.626736 0.8674 0.8682 0.8684 0.8687 0.8689
2467.833859 0.8690 0.8690 0.8690 0.8690 0.8690
2472.040983 0.8690 0.8690 0.8690 0.8688 0.8686
2476.248106 0.8683 0.8681 0.8680 0.8680 0.8680
2480.455230 0.8680 0.8680 0.8680 0.8680 0.8680
2484.662353 0.8676 0.8671 0.8666 0.8661 0.8660
2488.869477 0.8660 0.8660 0.8660 0.8660 0.8660
2493.076601 0.8660 0.8660 0.8656 0.8651 0.8646
2497.283724 0.8641 0.8638 0.8636 0.8633 0.8631
2501.490848 0.8630 0.8630 0.8630 0.8630 0.8626
2505.697971 0.8621 0.8616 0.8611 0.8610 0.8610
2509.905095 0.8610 0.8610 0.8606 0.8601 0.8596
2514.112218 0.8591 0.8580 0.8568 0.8555 0.8543
2518.319342 0.8538 0.8536 0.8533 0.8531 0.8526
2522.526465 0.8521 0.8516 0.8511 0.8510 0.8510
2526.733589 0.8510 0.8510 0.8510 0.8510 0.8510
2530.940713 0.8510 0.8506 0.8501 0.8496 0.8491
2535.147836 0.8490 0.8490 0.8490 0.8490 0.8486
2539.354960 0.8481 0.8476 0.8471 0.8468 0.8465
2543.562083 0.8463 0.8460 0.8456 0.8451 0.8446
2547.769207 0.8441 0.8440 0.8440 0.8440 0.8440
2551.976330 0.8436 0.8431 0.8426 0.8421 0.8418
2556.183454 0.8415 0.8413 0.8410 0.8406 0.8401
2560.390577 0.8396 0.8391 0.8386 0.8381 0.8376
2564.597701 0.8371 0.8368 0.8365 0.8363 0.8360
2568.804825 0.8352 0.8342 0.8331 0.8321 0.8318
2573.011948 0.8315 0.8313 0.8310 0.8306 0.8301
2577.219072 0.8296 0.8291 0.8286 0.8281 0.8276
2581.426195 0.8271 0.8268 0.8265 0.8263 0.8260
2585.633319 0.8260 0.8260 0.8260 0.8260 0.8256
2589.840442 0.8251 0.8246 0.8241 0.8240 0.8240
2594.047566 0.8240 0.8240 0.8240 0.8240 0.8240
2598.254689 0.8240 0.8240 0.8240 0.8240 0.8240
2602.461813 0.8240 0.8240 0.8240 0.8240 0.8240
2606.668937 0.8240 0.8240 0.8240 0.8240 0.8240
2610.876060 0.8240 0.8240 0.8240 0.8240 0.8240
2615.083184 0.8240 0.8240 0.8240 0.8240 0.8240
2619.290307 0.8240 0.8240 0.8240 0.8240 0.8240
2623.497431 0.8240 0.8240 0.8240 0.8240 0.8240
2627.704554 0.8240 0.8240 0.8240 0.8240 0.8240
2631.911678 0.8240 0.8240 0.8240 0.8240 0.8240
2636.118801 0.8240 0.8240 0.8240 0.8240 0.8240
2640.325925 0.8240 0.8240 0.8240 0.8240 0.8240
2644.533049 0.8240 0.8240 0.8240 0.8240 0.8240
2648.740172 0.8240 0.8240 0.8240 0.8240 0.8240
2652.947296 0.8235 0.8230 0.8225 0.8220 0.8220
2657.154419 0.8220 0.8220 0.8220 0.8215 0.8210
2661.361543 0.8205 0.8200 0.8193 0.8185 0.8178
2665.568666 0.8170 0.8163 0.8155 0.8148 0.8140
2669.775790 0.8130 0.8120 0.8110 0.8100 0.8097
2673.982913 0.8095 0.8092 0.8090 0.8085 0.8080
2678.190037 0.8075 0.8070 0.8065 0.8060 0.8055
2682.397161 0.8050 0.8050 0.8050 0.8050 0.8050
2686.604284 0.8047 0.8045 0.8042 0.8040 0.8040
2690.811408 0.8040 0.8040 0.8040 0.8040 0.8040
2695.018531 0.8040 0.8040 0.8040 0.8040 0.8040
2699.225655 0.8040 0.8040 0.8040 0.8040 0.8040
2703.432778 0.8040 0.8040 0.8040 0.8040 0.8040
2707.639902 0.8040 0.8040 0.8040 0.8035 0.8030
2711.847025 0.8025 0.8020 0.8015 0.8010 0.8005
2716.054149 0.8000 0.8000 0.8000 0.8000 0.8000
2720.261273 0.8000 0.8000 0.8000 0.8000 0.7995
2724.468396 0.7990 0.7985 0.7980 0.7977 0.7975
2728.675520 0.7972 0.7969 0.7959 0.7949 0.7939
2732.882643 0.7929 0.7917 0.7904 0.7892 0.7880
2737.089767 0.7872 0.7864 0.7857 0.7847 0.7827
2741.296890 0.7807 0.7787 0.7765 0.7730 0.7695
2745.504014 0.7660 0.7628 0.7616 0.7603 0.7591
2749.711137 0.7578 0.7566 0.7553 0.7541 0.7527
2753.918261 0.7505 0.7482 0.7460 0.7437 0.7409
2758.125385 0.7382 0.7354 0.7326 0.7296 0.7266
2762.332508 0.7236 0.7206 0.7171 0.7136 0.7101
2766.539632 0.7067 0.7037 0.7007 0.6977 0.6946
2770.746755 0.6913 0.6880 0.6847 0.6815 0.6790
2774.953879 0.6765 0.6740 0.6715 0.6690 0.6665
2779.161002 0.6640 0.6607 0.6534 0.6462 0.6389
2783.368126 0.6321 0.6274 0.6226 0.6179 0.6136
2787.575249 0.6111 0.6086 0.6061 0.6033 0.5996
2791.782373 0.5958 0.5921 0.5880 0.5826 0.5771
2795.989497 0.5716 0.5653 0.5556 0.5459 0.5361
2800.196620 0.5253 0.5094 0.4934 0.4774 0.4600
2804.403744 0.4358 0.4116 0.3873 0.3524 0.2845
2808.610867 0.2166 0.1486 0.0921 0.0716 0.0511
2812.817991 0.0306 0.0148 0.0138 0.0128 0.0118
2817.025114 0.0111 0.0116 0.0121 0.0126 0.0144
2821.232238 0.0204 0.0264 0.0324 0.0380 0.0425
2825.439362 0.0470 0.0515 0.0583 0.0730 0.0878
2829.646485 0.1025 0.1172 0.1317 0.1462 0.1607
2833.853609 0.1751 0.1893 0.2036 0.2178 0.2298
2838.060732 0.2336 0.2375 0.2413 0.2465 0.2550
2842.267856 0.2635 0.2720 0.2781 0.2786 0.2791
2846.474979 0.2796 0.2800 0.2800 0.2800 0.2800
2850.682103 0.2788 0.2745 0.2703 0.2660 0.2576
2854.889226 0.2386 0.2197 0.2007 0.1836 0.1713
2859.096350 0.1591 0.1469 0.1370 0.1332 0.1295
2863.303474 0.1257 0.1205 0.1112 0.1020 0.0927
2867.510597 0.0847 0.0800 0.0752 0.0705 0.0643
2871.717721 0.0544 0.0444 0.0345 0.0261 0.0206
2875.924844 0.0151 0.0096 0.0059 0.0057 0.0054
2880.131968 0.0052 0.0050 0.0050 0.0050 0.0050
2884.339091 0.0051 0.0053 0.0056 0.0058 0.0060
2888.546215 0.0060 0.0060 0.0060 0.0066 0.0083
2892.753338 0.0101 0.0118 0.0137 0.0157 0.0177
2896.960462 0.0196 0.0212 0.0217 0.0222 0.0227
2901.167586 0.0252 0.0319 0.0387 0.0454 0.0563
2905.374709 0.0762 0.0961 0.1160 0.1358 0.1553
2909.581833 0.1747 0.1942 0.2060 0.2060 0.2060
2913.788956 0.2060 0.2060 0.2060 0.2060 0.2060
2917.996080 0.2051 0.2029 0.2006 0.1984 0.1963
2922.203203 0.1946 0.1928 0.1911 0.1897 0.1890
2926.410327 0.1882 0.1875 0.1872 0.1877 0.1882
2930.617450 0.1887 0.1927 0.2024 0.2122 0.2219
2934.824574 0.2431 0.2836 0.3240 0.3645 0.3992
2939.031698 0.4243 0.4493 0.4743 0.4971 0.5173
2943.238821 0.5376 0.5578 0.5746 0.5871 0.5996
2947.445945 0.6121 0.6230 0.6320 0.6410 0.6500
2951.653068 0.6576 0.6636 0.6696 0.6756 0.6807
2955.860192 0.6847 0.6887 0.6927 0.6962 0.6989
2960.067315 0.7017 0.7044 0.7071 0.7096 0.7121
2964.274439 0.7146 0.7171 0.7196 0.7221 0.7246
2968.481562 0.7262 0.7267 0.7272 0.7277 0.7281
2972.688686 0.7284 0.7286 0.7289 0.7290 0.7290
2976.895810 0.7290 0.7290 0.7290 0.7290 0.7290
2981.102933 0.7290 0.7289 0.7286 0.7284 0.7281
2985.310057 0.7273 0.7258 0.7243 0.7228 0.7213
2989.517180 0.7198 0.7183 0.7168 0.7148 0.7123
2993.724304 0.7098 0.7073 0.7049 0.7027 0.7004
2997.931427 0.6982 0.6958 0.6933 0.6908 0.6883
3002.138551 0.6860 0.6840 0.6821 0.6801 0.6779
3006.345674 0.6756 0.6733 0.6710 0.6690 0.6673
3010.552798 0.6655 0.6638 0.6626 0.6618 0.6611
3014.759922 0.6603 0.6597 0.6592 0.6587 0.6582
3018.967045 0.6569 0.6549 0.6529 0.6509 0.6493
3023.174169 0.6481 0.6468 0.6456 0.6447 0.6442
3027.381292 0.6437 0.6432 0.6430 0.6430 0.6430
3031.588416 0.6430 0.6430 0.6430 0.6430 0.6430
3035.795539 0.6430 0.6430 0.6430 0.6430 0.6433
3040.002663 0.6438 0.6443 0.6448 0.6473 0.6510
3044.209786 0.6548 0.6585 0.6615 0.6640 0.6665
3048.416910 0.6690 0.6713 0.6736 0.6758 0.6781
3052.624034 0.6802 0.6822 0.6842 0.6862 0.6877
3056.831157 0.6890 0.6902 0.6915 0.6930 0.6948
3061.038281 0.6965 0.6983 0.6997 0.7010 0.7022
3065.245404 0.7035 0.7043 0.7048 0.7053 0.7058
3069.452528 0.7060 0.7060 0.7060 0.7060 0.7060
3073.659651 0.7060 0.7060 0.7060 0.7053 0.7043
3077.866775 0.7033 0.7023 0.6995 0.6958 0.6921
3082.073898 0.6883 0.6862 0.6849 0.6837 0.6824
3086.281022 0.6805 0.6783 0.6760 0.6738 0.6720
3090.488146 0.6705 0.6690 0.6675 0.6654 0.6629
3094.695269 0.6604 0.6579 0.6552 0.6525 0.6498
3098.902393 0.6470 0.6439 0.6407 0.6374 0.6342
3103.109516 0.6308 0.6273 0.6238 0.6203 0.6164
3107.316640 0.6124 0.6083 0.6042 0.5993 0.5940
3111.523763 0.5888 0.5835 0.5797 0.5765 0.5732
3115.730887 0.5700 0.5686 0.5681 0.5676 0.5672
3119.938010 0.5670 0.5670 0.5670 0.5670 0.5667
3124.145134 0.5662 0.5657 0.5652 0.5650 0.5650
3128.352258 0.5650 0.5650 0.5648 0.5646 0.5643
3132.559381 0.5641 0.5640 0.5640 0.5640 0.5640
3136.766505 0.5633 0.5623 0.5613 0.5603 0.5590
3140.973628 0.5574 0.5559 0.5544 0.5504 0.5456
3145.180752 0.5409 0.5361 0.5314 0.5267 0.5219
3149.387875 0.5172 0.5130 0.5090 0.5050 0.5010
3153.594999 0.4970 0.4930 0.4890 0.4850 0.4812
3157.802122 0.4774 0.4737 0.4700 0.4668 0.4638
3162.009246 0.4608 0.4578 0.4548 0.4518 0.4488
3166.216370 0.4458 0.4430 0.4402 0.4375 0.4347
3170.423493 0.4320 0.4292 0.4265 0.4237 0.4211
3174.630617 0.4186 0.4160 0.4135 0.4110 0.4085
3178.837740 0.4060 0.4035 0.4010 0.3985 0.3960
3183.044864 0.3935 0.3914 0.3894 0.3874 0.3854
3187.251987 0.3830 0.3805 0.3780 0.3755 0.3732
3191.459111 0.3710 0.3687 0.3665 0.3640 0.3615
3195.666234 0.3590 0.3565 0.3542 0.3520 0.3497
3199.873358 0.3475 0.3448 0.3421 0.3393 0.3366
3204.080482 0.3340 0.3315 0.3290 0.3265 0.3236
3208.287605 0.3205 0.3175 0.3144 0.3110 0.3075
3212.494729 0.3040 0.3005 0.2950 0.2893 0.2836
3216.701852 0.2778 0.2723 0.2668 0.2613 0.2558
3220.908976 0.2509 0.2462 0.2414 0.2367 0.2324
3225.116099 0.2281 0.2239 0.2196 0.2158 0.2121
3229.323223 0.2083 0.2046 0.2010 0.1975 0.1940
3233.530347 0.1906 0.1877 0.1849 0.1822 0.1794
3237.737470 0.1767 0.1739 0.1712 0.1685 0.1659
3241.944594 0.1633 0.1608 0.1582 0.1557 0.1532
3246.151717 0.1507 0.1482 0.1457 0.1432 0.1407
3250.358841 0.1382 0.1357 0.1332 0.1307 0.1282
3254.565964 0.1174 0.1056 0.0939 0.0821 0.0751
3258.773088 0.0686 0.0621 0.0557 0.0516 0.0479
3262.980211 0.0441 0.0404 0.0378 0.0353 0.0328
3267.187335 0.0303 0.0293 0.0286 0.0278 0.0271
3271.394459 0.0266 0.0261 0.0256 0.0251 0.0250
3275.601582 0.0250 0.0250 0.0250 0.0262 0.0275
3279.808706 0.0287 0.0300 0.0358 0.0418 0.0478
3284.015829 0.0538 0.0571 0.0604 0.0636 0.0669
3288.222953 0.0739 0.0812 0.0884 0.0957 0.0991
3292.430076 0.1024 0.1056 0.1088 0.1123 0.1158
3296.637200 0.1193 0.1228 0.1299 0.1371 0.1444
3300.844323 0.1516 0.1586 0.1656 0.1726 0.1796
3305.051447 0.1899 0.2004 0.2109 0.2214 0.2273
3309.258571 0.2329 0.2385 0.2441 0.2471 0.2501
3313.465694 0.2531 0.2560 0.2573 0.2585 0.2598
3317.672818 0.2610 0.2633 0.2655 0.2678 0.2700
3321.879941 0.2733 0.2765 0.2798 0.2830 0.2840
3326.087065 0.2850 0.2860 0.2870 0.2883 0.2895
3330.294188 0.2908 0.2920 0.2935 0.2950 0.2965
3334.501312 0.2980 0.3007 0.3035 0.3062 0.3090
3338.708435 0.3122 0.3155 0.3187 0.3220 0.3250
3342.915559 0.3281 0.3312 0.3343 0.3380 0.3418
3347.122683 0.3455 0.3492 0.3527 0.3562 0.3597
3351.329806 0.3632 0.3670 0.3707 0.3745 0.3782
3355.536930 0.3820 0.3857 0.3895 0.3932 0.3962
3359.744053 0.3992 0.4022 0.4052 0.4082 0.4112
3363.951177 0.4142 0.4171 0.4186 0.4201 0.4216
3368.158300 0.4230 0.4235 0.4240 0.4245 0.4254
3372.365424 0.4344 0.4434 0.4524 0.4610 0.4613
3376.572547 0.4615 0.4618 0.4624 0.4659 0.4694
3380.779671 0.4729 0.4764 0.4796 0.4829 0.4861
3384.986795 0.4898 0.4963 0.5028 0.5092 0.5150
3389.193918 0.5153 0.5155 0.5158 0.5162 0.5185
3393.401042 0.5207 0.5230 0.5252 0.5272 0.5292
3397.608165 0.5312 0.5332 0.5355 0.5377 0.5400
3401.815289 0.5421 0.5434 0.5446 0.5459 0.5479
3406.022412 0.5566 0.5653 0.5741 0.5821 0.5834
3410.229536 0.5847 0.5859 0.5873 0.5891 0.5908
3414.436659 0.5926 0.5942 0.5955 0.5967 0.5980
3418.643783 0.5994 0.6019 0.6044 0.6069 0.6094
3422.850907 0.6119 0.6144 0.6169 0.6194 0.6222
3427.058030 0.6249 0.6277 0.6303 0.6323 0.6343
3431.265154 0.6363 0.6383 0.6403 0.6423 0.6443
3435.472277 0.6463 0.6486 0.6508 0.6531 0.6553
3439.679401 0.6573 0.6593 0.6613 0.6633 0.6650
3443.886524 0.6668 0.6686 0.6705 0.6728 0.6750
3448.093648 0.6773 0.6794 0.6814 0.6834 0.6854
3452.300771 0.6874 0.6891 0.6909 0.6926 0.6944
3456.507895 0.6964 0.6984 0.7004 0.7024 0.7041
3460.715019 0.7059 0.7076 0.7094 0.7114 0.7134
3464.922142 0.7154 0.7174 0.7191 0.7209 0.7226
3469.129266 0.7243 0.7255 0.7268 0.7280 0.7294
3473.336389 0.7311 0.7328 0.7346 0.7363 0.7375
3477.543513 0.7388 0.7401 0.7413 0.7426 0.7438
3481.750636 0.7451 0.7465 0.7482 0.7500 0.7517
3485.957760 0.7533 0.7546 0.7558 0.7571 0.7582
3490.164883 0.7590 0.7597 0.7605 0.7611 0.7616
3494.372007 0.7621 0.7626 0.7632 0.7639 0.7647
3498.579131 0.7654 0.7665 0.7682 0.7700 0.7717
3502.786254 0.7736 0.7758 0.7781 0.7803 0.7824
3506.993378 0.7839 0.7854 0.7869 0.7883 0.7896
3511.200501 0.7909 0.7921 0.7936 0.7953 0.7971
3515.407625 0.7988 0.8004 0.8017 0.8029 0.8042
3519.614748 0.8054 0.8067 0.8079 0.8092 0.8104
3523.821872 0.8116 0.8129 0.8141 0.8154 0.8166
3528.028995 0.8179 0.8191 0.8205 0.8220 0.8235
3532.236119 0.8250 0.8262 0.8270 0.8277 0.8285
3536.443243 0.8290 0.8290 0.8290 0.8290 0.8295
3540.650366 0.8313 0.8330 0.8348 0.8368 0.8393
3544.857490 0.8419 0.8444 0.8463 0.8470 0.8478
3549.064613 0.8485 0.8492 0.8497 0.8502 0.8507
3553.271737 0.8512 0.8517 0.8522 0.8527 0.8535
3557.478860 0.8547 0.8560 0.8572 0.8585 0.8597
3561.685984 0.8610 0.8622 0.8635 0.8650 0.8665
3565.893107 0.8680 0.8696 0.8714 0.8731 0.8749
3570.100231 0.8764 0.8777 0.8789 0.8802 0.8814
3574.307355 0.8824 0.8834 0.8844 0.8853 0.8860
3578.514478 0.8868 0.8876 0.8882 0.8887 0.8892
3582.721602 0.8897 0.8905 0.8918 0.8930 0.8943
3586.928725 0.8953 0.8961 0.8968 0.8976 0.8982
3591.135849 0.8987 0.8992 0.8997
##END=
