##TITLE=Ethomeen 18/25 hydrochloride
##JCAMP-DX=4.24
##DATA TYPE=INFRARED SPECTRUM
##CLASS=COBLENTZ III
##ORIGIN=BRITISH PETROLEUM CO. LTD., ENGLAND
##OWNER=Copyright (C) 1987 by the Coblentz Society
Collection (C) 2018 copyright by the U.S. Secretary of Commerce
on behalf of the United States of America. All rights reserved.
##DATE=1972/07/31
##NAMES=9-octadecyl-3,6,12-trioxa-9-azatetradecane-1,14-diol hydrochloride
##MOLFORM=C28 H60 Cl N O5
##SOURCE REFERENCE=COBLENTZ NO. 9071
##$NIST ID=B6009071
##$NIST SOURCE=COBLENTZ
##$NIST IMAGE=cob9071
##SPECTROMETER/DATA SYSTEM=PERKIN-ELMER 157
##STATE=SEMI-SOLID (NEAT)
$$ REF. Can. J. Spec., 18,4,101, '73 C. S. DOUSE and P. B. TOOKE
##SAMPLING PROCEDURE=TRANSMISSION
##RESOLUTION=2
##DATA PROCESSING=DIGITIZED BY COBLENTZ SOCIETY (BATCH II) FROM HARD COPY
##XUNITS=1/CM
##YUNITS=TRANSMITTANCE
##XFACTOR=1.0
##YFACTOR=1
##FIRSTX=668
##LASTX=4000
##FIRSTY=0.3471
##MAXX=4000
##MINX=668
##MAXY=0.7497
##MINY=0.0284
##NPOINTS=3333
##XYDATA=(X++(Y..Y))
668.000000 0.3471 0.3486 0.3511 0.3553 0.3619
673.000000 0.3677 0.3735 0.3790 0.3834 0.3878
678.000000 0.3912 0.3946 0.3973 0.3997 0.4015
683.000000 0.4029 0.4041 0.4049 0.4058 0.4067
688.000000 0.4076 0.4082 0.4095 0.4088 0.4090
693.000000 0.4087 0.4084 0.4081 0.4077 0.4072
698.000000 0.4065 0.4058 0.4050 0.4039 0.4027
703.000000 0.4009 0.3989 0.3946 0.3903 0.3856
708.000000 0.3807 0.3742 0.3666 0.3581 0.3486
713.000000 0.3367 0.3247 0.3123 0.2978 0.2811
718.000000 0.2688 0.2629 0.2571 0.2539 0.2534
723.000000 0.2585 0.2708 0.2865 0.3021 0.3191
728.000000 0.3302 0.3379 0.3455 0.3536 0.3607
733.000000 0.3671 0.3739 0.3808 0.3863 0.3910
738.000000 0.3957 0.3992 0.4027 0.4062 0.4092
743.000000 0.4122 0.4166 0.4216 0.4274 0.4282
748.000000 0.4295 0.4311 0.4361 0.4427 0.4487
753.000000 0.4537 0.4549 0.4556 0.4570 0.4595
758.000000 0.4644 0.4692 0.4737 0.4765 0.4792
763.000000 0.4811 0.4826 0.4841 0.4855 0.4871
768.000000 0.4887 0.4898 0.4904 0.4910 0.4916
773.000000 0.4922 0.4929 0.4932 0.4934 0.4935
778.000000 0.4976 0.4931 0.4926 0.4921 0.4915
783.000000 0.4904 0.4887 0.4870 0.4856 0.4844
788.000000 0.4831 0.4821 0.4813 0.4805 0.4797
793.000000 0.4789 0.4781 0.4773 0.4764 0.4754
798.000000 0.4733 0.4694 0.4635 0.4577 0.4525
803.000000 0.4486 0.4451 0.4414 0.4376 0.4338
808.000000 0.4303 0.4300 0.4298 0.4286 0.4255
813.000000 0.4214 0.4170 0.4139 0.4119 0.4099
818.000000 0.4080 0.4072 0.4064 0.4056 0.4048
823.000000 0.4040 0.4027 0.4015 0.3997 0.3971
828.000000 0.3947 0.3931 0.3924 0.3916 0.3908
833.000000 0.3933 0.3907 0.3910 0.3914 0.3920
838.000000 0.3936 0.3953 0.3988 0.4019 0.4032
843.000000 0.4045 0.4050 0.4056 0.4061 0.4067
848.000000 0.4070 0.4074 0.4078 0.4082 0.4085
853.000000 0.4086 0.4103 0.4086 0.4078 0.4067
858.000000 0.4048 0.4022 0.3995 0.3954 0.3913
863.000000 0.3867 0.3809 0.3751 0.3701 0.3653
868.000000 0.3606 0.3560 0.3512 0.3460 0.3413
873.000000 0.3367 0.3321 0.3275 0.3230 0.3183
878.000000 0.3122 0.3065 0.3004 0.2940 0.2878
883.000000 0.2817 0.2757 0.2660 0.2614 0.2577
888.000000 0.2556 0.2544 0.2542 0.2536 0.2547
893.000000 0.2558 0.2584 0.2644 0.2733 0.2820
898.000000 0.2890 0.2965 0.3015 0.3052 0.3076
903.000000 0.3087 0.3097 0.3102 0.3101 0.3107
908.000000 0.3091 0.3080 0.3064 0.3040 0.3011
913.000000 0.2972 0.2919 0.2851 0.2800 0.2789
918.000000 0.2767 0.2730 0.2695 0.2660 0.2627
923.000000 0.2597 0.2567 0.2539 0.2514 0.2488
928.000000 0.2468 0.2455 0.2440 0.2428 0.2421
933.000000 0.2416 0.2409 0.2405 0.2402 0.2400
938.000000 0.2371 0.2399 0.2402 0.2405 0.2410
943.000000 0.2417 0.2425 0.2437 0.2454 0.2483
948.000000 0.2515 0.2538 0.2544 0.2549 0.2553
953.000000 0.2561 0.2569 0.2578 0.2593 0.2608
958.000000 0.2620 0.2633 0.2646 0.2663 0.2683
963.000000 0.2706 0.2733 0.2758 0.2770 0.2778
968.000000 0.2786 0.2795 0.2817 0.2852 0.2872
973.000000 0.2883 0.2889 0.2891 0.2893 0.2889
978.000000 0.2886 0.2901 0.2876 0.2868 0.2854
983.000000 0.2838 0.2815 0.2792 0.2766 0.2733
988.000000 0.2698 0.2665 0.2631 0.2597 0.2564
993.000000 0.2530 0.2497 0.2463 0.2430 0.2397
998.000000 0.2364 0.2331 0.2298 0.2265 0.2232
1003.000000 0.2199 0.2166 0.2134 0.2106 0.2081
1008.000000 0.2059 0.2037 0.2012 0.1983 0.1954
1013.000000 0.1914 0.1865 0.1817 0.1767 0.1718
1018.000000 0.1667 0.1611 0.1559 0.1521 0.1482
1023.000000 0.1444 0.1392 0.1341 0.1294 0.1253
1028.000000 0.1212 0.1168 0.1120 0.1072 0.1026
1033.000000 0.0983 0.0941 0.0903 0.0872 0.0853
1038.000000 0.0835 0.0819 0.0805 0.0793 0.0783
1043.000000 0.0772 0.0746 0.0715 0.0649 0.0617
1048.000000 0.0591 0.0572 0.0554 0.0539 0.0524
1053.000000 0.0509 0.0494 0.0479 0.0464 0.0451
1058.000000 0.0436 0.0422 0.0412 0.0403 0.0394
1063.000000 0.0385 0.0376 0.0368 0.0361 0.0355
1068.000000 0.0348 0.0341 0.0337 0.0334 0.0316
1073.000000 0.0328 0.0325 0.0327 0.0331 0.0334
1078.000000 0.0338 0.0344 0.0349 0.0354 0.0360
1083.000000 0.0365 0.0367 0.0370 0.0372 0.0376
1088.000000 0.0375 0.0373 0.0371 0.0369 0.0367
1093.000000 0.0363 0.0359 0.0355 0.0351 0.0346
1098.000000 0.0341 0.0337 0.0333 0.0329 0.0325
1103.000000 0.0320 0.0315 0.0313 0.0310 0.0307
1108.000000 0.0305 0.0302 0.0299 0.0297 0.0295
1113.000000 0.0293 0.0291 0.0290 0.0288 0.0286
1118.000000 0.0286 0.0287 0.0287 0.0284 0.0289
1123.000000 0.0292 0.0295 0.0298 0.0301 0.0303
1128.000000 0.0305 0.0307 0.0309 0.0311 0.0313
1133.000000 0.0316 0.0319 0.0323 0.0326 0.0330
1138.000000 0.0334 0.0338 0.0344 0.0349 0.0356
1143.000000 0.0362 0.0374 0.0399 0.0452 0.0512
1148.000000 0.0549 0.0587 0.0638 0.0693 0.0755
1153.000000 0.0825 0.0906 0.1017 0.1126 0.1227
1158.000000 0.1346 0.1466 0.1586 0.1706 0.1811
1163.000000 0.1895 0.1990 0.2136 0.2297 0.2438
1168.000000 0.2547 0.2630 0.2707 0.2767 0.2826
1173.000000 0.2887 0.2951 0.3014 0.3076 0.3136
1178.000000 0.3200 0.3299 0.3380 0.3423 0.3466
1183.000000 0.3503 0.3529 0.3554 0.3569 0.3578
1188.000000 0.3587 0.3595 0.3598 0.3600 0.3610
1193.000000 0.3600 0.3598 0.3589 0.3579 0.3568
1198.000000 0.3555 0.3542 0.3526 0.3506 0.3487
1203.000000 0.3467 0.3448 0.3425 0.3397 0.3370
1208.000000 0.3340 0.3306 0.3272 0.3238 0.3199
1213.000000 0.3161 0.3119 0.3071 0.3028 0.2992
1218.000000 0.2950 0.2887 0.2831 0.2792 0.2757
1223.000000 0.2734 0.2711 0.2689 0.2666 0.2643
1228.000000 0.2621 0.2599 0.2576 0.2551 0.2526
1233.000000 0.2500 0.2472 0.2444 0.2416 0.2385
1238.000000 0.2354 0.2316 0.2273 0.2208 0.2158
1243.000000 0.2117 0.2086 0.2057 0.2041 0.2026
1248.000000 0.2022 0.2018 0.2016 0.2013 0.2011
1253.000000 0.2011 0.1996 0.2032 0.2052 0.2074
1258.000000 0.2097 0.2121 0.2146 0.2170 0.2194
1263.000000 0.2217 0.2236 0.2254 0.2266 0.2277
1268.000000 0.2288 0.2298 0.2302 0.2310 0.2295
1273.000000 0.2289 0.2278 0.2266 0.2246 0.2227
1278.000000 0.2207 0.2187 0.2163 0.2140 0.2116
1283.000000 0.2093 0.2070 0.2047 0.2026 0.2004
1288.000000 0.1982 0.1962 0.1943 0.1924 0.1905
1293.000000 0.1891 0.1877 0.1866 0.1859 0.1852
1298.000000 0.1850 0.1834 0.1862 0.1876 0.1898
1303.000000 0.1924 0.1962 0.1996 0.2030 0.2059
1308.000000 0.2087 0.2114 0.2143 0.2171 0.2197
1313.000000 0.2216 0.2233 0.2251 0.2268 0.2285
1318.000000 0.2301 0.2316 0.2331 0.2346 0.2359
1323.000000 0.2369 0.2378 0.2387 0.2397 0.2406
1328.000000 0.2411 0.2416 0.2421 0.2425 0.2422
1333.000000 0.2418 0.2445 0.2396 0.2371 0.2343
1338.000000 0.2313 0.2267 0.2224 0.2187 0.2145
1343.000000 0.2055 0.1969 0.1883 0.1798 0.1711
1348.000000 0.1626 0.1530 0.1457 0.1418 0.1395
1353.000000 0.1371 0.1396 0.1399 0.1410 0.1433
1358.000000 0.1464 0.1489 0.1512 0.1534 0.1559
1363.000000 0.1588 0.1604 0.1614 0.1619 0.1624
1368.000000 0.1628 0.1630 0.1633 0.1633 0.1634
1373.000000 0.1634 0.1634 0.1634 0.1635 0.1637
1378.000000 0.1639 0.1649 0.1675 0.1726 0.1779
1383.000000 0.1807 0.1821 0.1830 0.1839 0.1841
1388.000000 0.1842 0.1839 0.1836 0.1829 0.1818
1393.000000 0.1796 0.1778 0.1762 0.1747 0.1733
1398.000000 0.1718 0.1704 0.1692 0.1686 0.1682
1403.000000 0.1679 0.1678 0.1676 0.1673 0.1664
1408.000000 0.1655 0.1638 0.1620 0.1611 0.1601
1413.000000 0.1591 0.1586 0.1581 0.1577 0.1573
1418.000000 0.1571 0.1568 0.1566 0.1563 0.1561
1423.000000 0.1558 0.1554 0.1551 0.1547 0.1539
1428.000000 0.1524 0.1504 0.1465 0.1419 0.1339
1433.000000 0.1289 0.1240 0.1171 0.1089 0.1005
1438.000000 0.0944 0.0894 0.0844 0.0797 0.0757
1443.000000 0.0737 0.0717 0.0696 0.0676 0.0656
1448.000000 0.0635 0.0615 0.0595 0.0575 0.0556
1453.000000 0.0544 0.0531 0.0520 0.0516 0.0514
1458.000000 0.0513 0.0513 0.0512 0.0512 0.0523
1463.000000 0.0512 0.0513 0.0515 0.0516 0.0518
1468.000000 0.0526 0.0540 0.0569 0.0632 0.0730
1473.000000 0.0827 0.0924 0.1021 0.1117 0.1214
1478.000000 0.1294 0.1331 0.1351 0.1381 0.1426
1483.000000 0.1521 0.1620 0.1875 0.2048 0.2108
1488.000000 0.2144 0.2165 0.2299 0.2973 0.3014
1493.000000 0.3096 0.3235 0.3377 0.3520 0.3662
1498.000000 0.3803 0.3945 0.4086 0.4227 0.4369
1503.000000 0.4509 0.4650 0.4790 0.4930 0.5070
1508.000000 0.5211 0.5358 0.5491 0.5542 0.5579
1513.000000 0.5610 0.5630 0.5644 0.5659 0.5673
1518.000000 0.5703 0.5740 0.5779 0.5820 0.5875
1523.000000 0.5946 0.6002 0.6046 0.6083 0.6112
1528.000000 0.6131 0.6150 0.6167 0.6184 0.6200
1533.000000 0.6216 0.6231 0.6246 0.6260 0.6274
1538.000000 0.6286 0.6293 0.6300 0.6307 0.6311
1543.000000 0.6315 0.6319 0.6322 0.6326 0.6329
1548.000000 0.6332 0.6335 0.6337 0.6340 0.6342
1553.000000 0.6344 0.6347 0.6349 0.6351 0.6352
1558.000000 0.6353 0.6354 0.6355 0.6355 0.6356
1563.000000 0.6357 0.6358 0.6359 0.6360 0.6379
1568.000000 0.6359 0.6359 0.6359 0.6359 0.6359
1573.000000 0.6359 0.6358 0.6358 0.6358 0.6358
1578.000000 0.6357 0.6357 0.6356 0.6356 0.6355
1583.000000 0.6355 0.6354 0.6354 0.6353 0.6351
1588.000000 0.6350 0.6349 0.6347 0.6346 0.6344
1593.000000 0.6343 0.6340 0.6335 0.6329 0.6315
1598.000000 0.6295 0.6276 0.6257 0.6237 0.6219
1603.000000 0.6202 0.6184 0.6165 0.6145 0.6124
1608.000000 0.6103 0.6082 0.6060 0.6034 0.6006
1613.000000 0.5978 0.5952 0.5927 0.5902 0.5878
1618.000000 0.5854 0.5832 0.5810 0.5789 0.5768
1623.000000 0.5733 0.5683 0.5630 0.5585 0.5556
1628.000000 0.5540 0.5524 0.5511 0.5502 0.5493
1633.000000 0.5488 0.5484 0.5481 0.5477 0.5474
1638.000000 0.5473 0.5472 0.5471 0.5463 0.5473
1643.000000 0.5476 0.5480 0.5489 0.5506 0.5534
1648.000000 0.5564 0.5611 0.5682 0.5735 0.5769
1653.000000 0.5789 0.5802 0.5811 0.5817 0.5822
1658.000000 0.5828 0.5832 0.5835 0.5840 0.5844
1663.000000 0.5856 0.5875 0.5897 0.5919 0.5942
1668.000000 0.5979 0.6060 0.6112 0.6130 0.6157
1673.000000 0.6189 0.6255 0.6356 0.6451 0.6507
1678.000000 0.6535 0.6548 0.6560 0.6573 0.6585
1683.000000 0.6597 0.6610 0.6620 0.6628 0.6636
1688.000000 0.6644 0.6652 0.6657 0.6660 0.6682
1693.000000 0.6665 0.6665 0.6664 0.6664 0.6664
1698.000000 0.6661 0.6657 0.6647 0.6626 0.6591
1703.000000 0.6555 0.6515 0.6497 0.6483 0.6471
1708.000000 0.6463 0.6459 0.6453 0.6450 0.6447
1713.000000 0.6428 0.6398 0.6369 0.6349 0.6328
1718.000000 0.6307 0.6289 0.6272 0.6258 0.6248
1723.000000 0.6247 0.6247 0.6249 0.6254 0.6262
1728.000000 0.6235 0.6317 0.6365 0.6391 0.6415
1733.000000 0.6439 0.6459 0.6474 0.6489 0.6504
1738.000000 0.6519 0.6534 0.6551 0.6568 0.6585
1743.000000 0.6602 0.6616 0.6627 0.6635 0.6642
1748.000000 0.6650 0.6659 0.6668 0.6678 0.6688
1753.000000 0.6701 0.6720 0.6739 0.6759 0.6778
1758.000000 0.6798 0.6827 0.6856 0.6886 0.6915
1763.000000 0.6944 0.6973 0.7000 0.7027 0.7054
1768.000000 0.7082 0.7110 0.7139 0.7169 0.7198
1773.000000 0.7222 0.7234 0.7245 0.7253 0.7259
1778.000000 0.7264 0.7269 0.7272 0.7274 0.7277
1783.000000 0.7278 0.7280 0.7281 0.7283 0.7284
1788.000000 0.7285 0.7286 0.7287 0.7288 0.7289
1793.000000 0.7290 0.7291 0.7292 0.7294 0.7294
1798.000000 0.7296 0.7297 0.7298 0.7298 0.7299
1803.000000 0.7300 0.7301 0.7301 0.7301 0.7302
1808.000000 0.7303 0.7304 0.7304 0.7304 0.7305
1813.000000 0.7306 0.7306 0.7306 0.7307 0.7307
1818.000000 0.7307 0.7308 0.7308 0.7309 0.7309
1823.000000 0.7304 0.7309 0.7310 0.7310 0.7310
1828.000000 0.7311 0.7311 0.7311 0.7310 0.7309
1833.000000 0.7308 0.7308 0.7307 0.7306 0.7304
1838.000000 0.7304 0.7303 0.7302 0.7301 0.7301
1843.000000 0.7300 0.7298 0.7296 0.7293 0.7290
1848.000000 0.7288 0.7285 0.7282 0.7279 0.7276
1853.000000 0.7273 0.7270 0.7267 0.7263 0.7259
1858.000000 0.7255 0.7250 0.7246 0.7242 0.7237
1863.000000 0.7233 0.7229 0.7224 0.7220 0.7216
1868.000000 0.7210 0.7204 0.7199 0.7194 0.7188
1873.000000 0.7183 0.7177 0.7171 0.7166 0.7161
1878.000000 0.7155 0.7149 0.7144 0.7138 0.7132
1883.000000 0.7127 0.7121 0.7115 0.7109 0.7103
1888.000000 0.7097 0.7091 0.7085 0.7079 0.7073
1893.000000 0.7066 0.7060 0.7053 0.7047 0.7040
1898.000000 0.7034 0.7028 0.7021 0.7014 0.7008
1903.000000 0.7000 0.6993 0.6985 0.6976 0.6968
1908.000000 0.6960 0.6952 0.6944 0.6936 0.6928
1913.000000 0.6921 0.6913 0.6906 0.6898 0.6891
1918.000000 0.6883 0.6875 0.6867 0.6859 0.6851
1923.000000 0.6843 0.6833 0.6822 0.6811 0.6800
1928.000000 0.6788 0.6777 0.6764 0.6749 0.6732
1933.000000 0.6691 0.6656 0.6626 0.6622 0.6618
1938.000000 0.6613 0.6609 0.6606 0.6604 0.6602
1943.000000 0.6600 0.6598 0.6596 0.6594 0.6592
1948.000000 0.6590 0.6589 0.6588 0.6586 0.6586
1953.000000 0.6586 0.6585 0.6584 0.6584 0.6587
1958.000000 0.6583 0.6583 0.6582 0.6582 0.6582
1963.000000 0.6582 0.6583 0.6583 0.6583 0.6584
1968.000000 0.6584 0.6584 0.6586 0.6593 0.6599
1973.000000 0.6605 0.6612 0.6619 0.6628 0.6637
1978.000000 0.6646 0.6656 0.6665 0.6675 0.6680
1983.000000 0.6684 0.6686 0.6688 0.6690 0.6692
1988.000000 0.6694 0.6697 0.6698 0.6699 0.6699
1993.000000 0.6699 0.6699 0.6699 0.6699 0.6699
1998.000000 0.6699 0.6699 0.6699 0.6699 0.6699
2003.000000 0.6699 0.6710 0.6699 0.6699 0.6699
2008.000000 0.6699 0.6697 0.6695 0.6692 0.6690
2013.000000 0.6688 0.6686 0.6684 0.6682 0.6678
2018.000000 0.6673 0.6668 0.6663 0.6659 0.6654
2023.000000 0.6649 0.6644 0.6639 0.6634 0.6629
2028.000000 0.6624 0.6619 0.6614 0.6609 0.6606
2033.000000 0.6603 0.6600 0.6597 0.6594 0.6591
2038.000000 0.6589 0.6587 0.6584 0.6582 0.6580
2043.000000 0.6579 0.6577 0.6575 0.6573 0.6571
2048.000000 0.6569 0.6567 0.6565 0.6563 0.6561
2053.000000 0.6559 0.6555 0.6550 0.6545 0.6540
2058.000000 0.6534 0.6529 0.6524 0.6519 0.6513
2063.000000 0.6508 0.6503 0.6499 0.6494 0.6490
2068.000000 0.6486 0.6481 0.6477 0.6474 0.6471
2073.000000 0.6467 0.6464 0.6460 0.6457 0.6453
2078.000000 0.6450 0.6447 0.6443 0.6440 0.6437
2083.000000 0.6432 0.6425 0.6417 0.6410 0.6401
2088.000000 0.6387 0.6374 0.6360 0.6347 0.6333
2093.000000 0.6306 0.6282 0.6272 0.6262 0.6253
2098.000000 0.6245 0.6236 0.6227 0.6218 0.6209
2103.000000 0.6200 0.6192 0.6183 0.6174 0.6165
2108.000000 0.6156 0.6147 0.6139 0.6130 0.6121
2113.000000 0.6113 0.6105 0.6097 0.6089 0.6080
2118.000000 0.6073 0.6065 0.6058 0.6052 0.6045
2123.000000 0.6039 0.6033 0.6026 0.6020 0.6014
2128.000000 0.6007 0.6001 0.5995 0.5988 0.5980
2133.000000 0.5971 0.5962 0.5952 0.5941 0.5931
2138.000000 0.5921 0.5911 0.5902 0.5891 0.5881
2143.000000 0.5873 0.5866 0.5860 0.5853 0.5846
2148.000000 0.5839 0.5832 0.5826 0.5819 0.5812
2153.000000 0.5806 0.5799 0.5792 0.5785 0.5779
2158.000000 0.5772 0.5765 0.5758 0.5752 0.5745
2163.000000 0.5738 0.5731 0.5724 0.5716 0.5707
2168.000000 0.5699 0.5691 0.5683 0.5675 0.5667
2173.000000 0.5658 0.5650 0.5642 0.5634 0.5626
2178.000000 0.5618 0.5610 0.5603 0.5596 0.5589
2183.000000 0.5582 0.5575 0.5569 0.5562 0.5555
2188.000000 0.5548 0.5541 0.5535 0.5528 0.5521
2193.000000 0.5514 0.5508 0.5501 0.5494 0.5487
2198.000000 0.5481 0.5475 0.5468 0.5461 0.5454
2203.000000 0.5447 0.5440 0.5432 0.5425 0.5417
2208.000000 0.5410 0.5403 0.5395 0.5387 0.5380
2213.000000 0.5373 0.5364 0.5356 0.5348 0.5340
2218.000000 0.5331 0.5323 0.5315 0.5306 0.5298
2223.000000 0.5290 0.5281 0.5258 0.5232 0.5205
2228.000000 0.5177 0.5151 0.5124 0.5106 0.5088
2233.000000 0.5075 0.5063 0.5052 0.5040 0.5029
2238.000000 0.5017 0.5005 0.4993 0.4982 0.4970
2243.000000 0.4955 0.4938 0.4921 0.4904 0.4888
2248.000000 0.4873 0.4861 0.4850 0.4839 0.4827
2253.000000 0.4816 0.4806 0.4794 0.4783 0.4771
2258.000000 0.4760 0.4746 0.4731 0.4717 0.4703
2263.000000 0.4687 0.4669 0.4649 0.4627 0.4604
2268.000000 0.4582 0.4560 0.4539 0.4517 0.4496
2273.000000 0.4475 0.4453 0.4433 0.4413 0.4394
2278.000000 0.4378 0.4363 0.4347 0.4331 0.4315
2283.000000 0.4299 0.4283 0.4268 0.4252 0.4236
2288.000000 0.4220 0.4204 0.4185 0.4162 0.4138
2293.000000 0.4112 0.4085 0.4059 0.4033 0.4007
2298.000000 0.3980 0.3955 0.3929 0.3904 0.3878
2303.000000 0.3853 0.3827 0.3802 0.3777 0.3753
2308.000000 0.3730 0.3706 0.3683 0.3660 0.3637
2313.000000 0.3614 0.3591 0.3568 0.3550 0.3532
2318.000000 0.3514 0.3496 0.3478 0.3460 0.3443
2323.000000 0.3425 0.3408 0.3392 0.3377 0.3363
2328.000000 0.3350 0.3337 0.3323 0.3310 0.3297
2333.000000 0.3283 0.3270 0.3257 0.3243 0.3229
2338.000000 0.3214 0.3199 0.3183 0.3168 0.3152
2343.000000 0.3137 0.3123 0.3109 0.3095 0.3081
2348.000000 0.3067 0.3053 0.3042 0.3035 0.3028
2353.000000 0.3021 0.3014 0.3007 0.3000 0.2993
2358.000000 0.2986 0.2979 0.2972 0.2965 0.2958
2363.000000 0.2952 0.2946 0.2941 0.2935 0.2930
2368.000000 0.2924 0.2919 0.2914 0.2908 0.2902
2373.000000 0.2897 0.2891 0.2886 0.2881 0.2875
2378.000000 0.2869 0.2862 0.2852 0.2842 0.2830
2383.000000 0.2817 0.2805 0.2793 0.2780 0.2768
2388.000000 0.2756 0.2745 0.2733 0.2722 0.2710
2393.000000 0.2699 0.2688 0.2677 0.2666 0.2655
2398.000000 0.2643 0.2632 0.2621 0.2610 0.2593
2403.000000 0.2571 0.2548 0.2523 0.2498 0.2473
2408.000000 0.2448 0.2426 0.2406 0.2387 0.2372
2413.000000 0.2356 0.2341 0.2325 0.2309 0.2293
2418.000000 0.2277 0.2258 0.2239 0.2220 0.2201
2423.000000 0.2182 0.2163 0.2144 0.2126 0.2107
2428.000000 0.2088 0.2070 0.2051 0.2033 0.2015
2433.000000 0.1999 0.1983 0.1970 0.1957 0.1945
2438.000000 0.1932 0.1920 0.1907 0.1895 0.1882
2443.000000 0.1869 0.1857 0.1844 0.1832 0.1819
2448.000000 0.1807 0.1794 0.1782 0.1770 0.1758
2453.000000 0.1745 0.1733 0.1720 0.1708 0.1696
2458.000000 0.1683 0.1673 0.1664 0.1656 0.1650
2463.000000 0.1644 0.1637 0.1631 0.1624 0.1618
2468.000000 0.1612 0.1606 0.1601 0.1598 0.1596
2473.000000 0.1595 0.1594 0.1593 0.1592 0.1590
2478.000000 0.1589 0.1589 0.1589 0.1588 0.1588
2483.000000 0.1587 0.1586 0.1586 0.1585 0.1585
2488.000000 0.1584 0.1584 0.1584 0.1583 0.1583
2493.000000 0.1582 0.1582 0.1582 0.1581 0.1581
2498.000000 0.1580 0.1580 0.1580 0.1579 0.1579
2503.000000 0.1578 0.1578 0.1578 0.1577 0.1577
2508.000000 0.1577 0.1577 0.1577 0.1576 0.1576
2513.000000 0.1576 0.1576 0.1576 0.1575 0.1575
2518.000000 0.1575 0.1575 0.1575 0.1575 0.1575
2523.000000 0.1574 0.1572 0.1570 0.1566 0.1562
2528.000000 0.1558 0.1553 0.1548 0.1543 0.1537
2533.000000 0.1531 0.1522 0.1513 0.1504 0.1495
2538.000000 0.1486 0.1478 0.1470 0.1462 0.1456
2543.000000 0.1449 0.1442 0.1436 0.1430 0.1427
2548.000000 0.1425 0.1422 0.1420 0.1419 0.1417
2553.000000 0.1415 0.1413 0.1412 0.1411 0.1410
2558.000000 0.1409 0.1408 0.1408 0.1407 0.1406
2563.000000 0.1405 0.1405 0.1404 0.1403 0.1403
2568.000000 0.1403 0.1403 0.1402 0.1402 0.1402
2573.000000 0.1402 0.1402 0.1401 0.1401 0.1401
2578.000000 0.1401 0.1401 0.1400 0.1400 0.1400
2583.000000 0.1400 0.1400 0.1400 0.1399 0.1399
2588.000000 0.1399 0.1399 0.1399 0.1401 0.1399
2593.000000 0.1400 0.1401 0.1401 0.1401 0.1402
2598.000000 0.1402 0.1403 0.1403 0.1404 0.1405
2603.000000 0.1405 0.1405 0.1406 0.1406 0.1407
2608.000000 0.1407 0.1407 0.1408 0.1411 0.1413
2613.000000 0.1415 0.1417 0.1419 0.1422 0.1424
2618.000000 0.1426 0.1428 0.1430 0.1432 0.1435
2623.000000 0.1437 0.1439 0.1442 0.1444 0.1447
2628.000000 0.1450 0.1453 0.1458 0.1463 0.1467
2633.000000 0.1472 0.1477 0.1481 0.1486 0.1490
2638.000000 0.1495 0.1499 0.1504 0.1508 0.1512
2643.000000 0.1515 0.1519 0.1522 0.1525 0.1528
2648.000000 0.1531 0.1534 0.1537 0.1540 0.1542
2653.000000 0.1545 0.1547 0.1547 0.1548 0.1549
2658.000000 0.1549 0.1550 0.1551 0.1552 0.1552
2663.000000 0.1553 0.1554 0.1554 0.1555 0.1556
2668.000000 0.1557 0.1558 0.1559 0.1560 0.1560
2673.000000 0.1560 0.1560 0.1560 0.1560 0.1560
2678.000000 0.1560 0.1560 0.1561 0.1561 0.1561
2683.000000 0.1561 0.1561 0.1561 0.1561 0.1561
2688.000000 0.1561 0.1561 0.1561 0.1561 0.1562
2693.000000 0.1562 0.1562 0.1562 0.1562 0.1562
2698.000000 0.1562 0.1562 0.1562 0.1562 0.1562
2703.000000 0.1563 0.1563 0.1563 0.1563 0.1563
2708.000000 0.1563 0.1581 0.1562 0.1562 0.1562
2713.000000 0.1562 0.1562 0.1562 0.1562 0.1562
2718.000000 0.1562 0.1562 0.1562 0.1562 0.1562
2723.000000 0.1562 0.1562 0.1562 0.1562 0.1562
2728.000000 0.1562 0.1562 0.1562 0.1562 0.1562
2733.000000 0.1561 0.1561 0.1561 0.1561 0.1561
2738.000000 0.1561 0.1561 0.1561 0.1561 0.1561
2743.000000 0.1561 0.1561 0.1560 0.1559 0.1559
2748.000000 0.1558 0.1557 0.1556 0.1555 0.1554
2753.000000 0.1553 0.1550 0.1546 0.1542 0.1536
2758.000000 0.1528 0.1521 0.1514 0.1507 0.1500
2763.000000 0.1493 0.1486 0.1479 0.1472 0.1465
2768.000000 0.1457 0.1450 0.1443 0.1435 0.1428
2773.000000 0.1421 0.1413 0.1406 0.1397 0.1388
2778.000000 0.1379 0.1368 0.1357 0.1346 0.1335
2783.000000 0.1323 0.1312 0.1301 0.1290 0.1279
2788.000000 0.1268 0.1257 0.1246 0.1232 0.1218
2793.000000 0.1205 0.1191 0.1177 0.1162 0.1148
2798.000000 0.1134 0.1119 0.1105 0.1091 0.1076
2803.000000 0.1062 0.1048 0.1033 0.1018 0.0998
2808.000000 0.0978 0.0958 0.0936 0.0914 0.0892
2813.000000 0.0870 0.0848 0.0825 0.0803 0.0781
2818.000000 0.0759 0.0737 0.0715 0.0693 0.0671
2823.000000 0.0648 0.0626 0.0603 0.0581 0.0559
2828.000000 0.0537 0.0520 0.0504 0.0488 0.0475
2833.000000 0.0464 0.0453 0.0442 0.0430 0.0419
2838.000000 0.0408 0.0397 0.0386 0.0375 0.0367
2843.000000 0.0359 0.0351 0.0344 0.0337 0.0330
2848.000000 0.0327 0.0326 0.0324 0.0323 0.0322
2853.000000 0.0321 0.0319 0.0319 0.0319 0.0319
2858.000000 0.0319 0.0319 0.0319 0.0318 0.0318
2863.000000 0.0318 0.0318 0.0318 0.0318 0.0318
2868.000000 0.0318 0.0318 0.0318 0.0318 0.0318
2873.000000 0.0318 0.0318 0.0318 0.0318 0.0319
2878.000000 0.0319 0.0319 0.0319 0.0319 0.0319
2883.000000 0.0319 0.0319 0.0319 0.0319 0.0319
2888.000000 0.0319 0.0319 0.0319 0.0320 0.0320
2893.000000 0.0320 0.0309 0.0320 0.0320 0.0320
2898.000000 0.0320 0.0320 0.0320 0.0321 0.0321
2903.000000 0.0321 0.0322 0.0322 0.0322 0.0323
2908.000000 0.0323 0.0323 0.0323 0.0324 0.0324
2913.000000 0.0324 0.0325 0.0325 0.0325 0.0325
2918.000000 0.0325 0.0325 0.0325 0.0326 0.0326
2923.000000 0.0326 0.0327 0.0328 0.0329 0.0331
2928.000000 0.0333 0.0336 0.0338 0.0341 0.0343
2933.000000 0.0346 0.0348 0.0351 0.0354 0.0356
2938.000000 0.0360 0.0367 0.0374 0.0380 0.0387
2943.000000 0.0394 0.0400 0.0408 0.0417 0.0426
2948.000000 0.0435 0.0444 0.0453 0.0462 0.0477
2953.000000 0.0501 0.0524 0.0548 0.0583 0.0620
2958.000000 0.0657 0.0694 0.0731 0.0768 0.0804
2963.000000 0.0841 0.0878 0.0915 0.0951 0.0987
2968.000000 0.1024 0.1060 0.1097 0.1133 0.1170
2973.000000 0.1206 0.1243 0.1279 0.1316 0.1352
2978.000000 0.1388 0.1425 0.1461 0.1497 0.1534
2983.000000 0.1570 0.1606 0.1642 0.1678 0.1715
2988.000000 0.1750 0.1786 0.1822 0.1858 0.1894
2993.000000 0.1930 0.1966 0.2002 0.2038 0.2074
2998.000000 0.2110 0.2146 0.2181 0.2217 0.2263
3003.000000 0.2310 0.2358 0.2401 0.2423 0.2445
3008.000000 0.2467 0.2486 0.2501 0.2517 0.2533
3013.000000 0.2548 0.2563 0.2578 0.2591 0.2598
3018.000000 0.2604 0.2611 0.2618 0.2625 0.2631
3023.000000 0.2638 0.2644 0.2651 0.2657 0.2664
3028.000000 0.2669 0.2675 0.2681 0.2684 0.2686
3033.000000 0.2688 0.2691 0.2692 0.2694 0.2696
3038.000000 0.2698 0.2700 0.2703 0.2705 0.2707
3043.000000 0.2708 0.2710 0.2711 0.2712 0.2712
3048.000000 0.2712 0.2713 0.2713 0.2713 0.2713
3053.000000 0.2714 0.2714 0.2714 0.2714 0.2728
3058.000000 0.2714 0.2714 0.2713 0.2713 0.2712
3063.000000 0.2711 0.2710 0.2709 0.2708 0.2707
3068.000000 0.2704 0.2698 0.2692 0.2687 0.2677
3073.000000 0.2666 0.2654 0.2643 0.2631 0.2619
3078.000000 0.2606 0.2594 0.2582 0.2570 0.2558
3083.000000 0.2546 0.2534 0.2522 0.2510 0.2499
3088.000000 0.2486 0.2474 0.2462 0.2450 0.2439
3093.000000 0.2427 0.2415 0.2403 0.2391 0.2379
3098.000000 0.2367 0.2356 0.2344 0.2332 0.2320
3103.000000 0.2308 0.2296 0.2285 0.2273 0.2261
3108.000000 0.2249 0.2238 0.2226 0.2214 0.2202
3113.000000 0.2190 0.2179 0.2167 0.2155 0.2144
3118.000000 0.2132 0.2120 0.2108 0.2097 0.2085
3123.000000 0.2074 0.2062 0.2051 0.2039 0.2027
3128.000000 0.2015 0.2003 0.1992 0.1981 0.1969
3133.000000 0.1958 0.1946 0.1934 0.1922 0.1911
3138.000000 0.1899 0.1888 0.1877 0.1865 0.1853
3143.000000 0.1842 0.1830 0.1819 0.1807 0.1796
3148.000000 0.1784 0.1773 0.1761 0.1750 0.1738
3153.000000 0.1727 0.1716 0.1704 0.1693 0.1681
3158.000000 0.1670 0.1658 0.1647 0.1636 0.1624
3163.000000 0.1613 0.1602 0.1590 0.1579 0.1567
3168.000000 0.1556 0.1545 0.1533 0.1522 0.1511
3173.000000 0.1500 0.1488 0.1476 0.1465 0.1453
3178.000000 0.1440 0.1427 0.1415 0.1402 0.1390
3183.000000 0.1378 0.1365 0.1353 0.1342 0.1330
3188.000000 0.1318 0.1307 0.1298 0.1288 0.1279
3193.000000 0.1269 0.1259 0.1250 0.1240 0.1231
3198.000000 0.1221 0.1212 0.1202 0.1193 0.1183
3203.000000 0.1174 0.1164 0.1155 0.1144 0.1134
3208.000000 0.1123 0.1113 0.1102 0.1090 0.1078
3213.000000 0.1067 0.1055 0.1044 0.1032 0.1020
3218.000000 0.1010 0.1000 0.0990 0.0980 0.0971
3223.000000 0.0962 0.0954 0.0945 0.0937 0.0928
3228.000000 0.0920 0.0912 0.0903 0.0895 0.0887
3233.000000 0.0878 0.0870 0.0861 0.0853 0.0845
3238.000000 0.0836 0.0828 0.0820 0.0813 0.0805
3243.000000 0.0797 0.0789 0.0781 0.0773 0.0766
3248.000000 0.0758 0.0750 0.0742 0.0734 0.0727
3253.000000 0.0721 0.0714 0.0707 0.0700 0.0694
3258.000000 0.0687 0.0680 0.0677 0.0675 0.0674
3263.000000 0.0672 0.0671 0.0670 0.0668 0.0667
3268.000000 0.0665 0.0664 0.0663 0.0661 0.0660
3273.000000 0.0660 0.0660 0.0660 0.0660 0.0660
3278.000000 0.0660 0.0660 0.0660 0.0660 0.0660
3283.000000 0.0660 0.0660 0.0660 0.0661 0.0662
3288.000000 0.0662 0.0663 0.0664 0.0665 0.0665
3293.000000 0.0666 0.0653 0.0667 0.0668 0.0669
3298.000000 0.0669 0.0670 0.0671 0.0672 0.0673
3303.000000 0.0674 0.0675 0.0676 0.0677 0.0678
3308.000000 0.0679 0.0679 0.0680 0.0681 0.0682
3313.000000 0.0683 0.0685 0.0686 0.0687 0.0688
3318.000000 0.0689 0.0690 0.0690 0.0692 0.0693
3323.000000 0.0695 0.0696 0.0697 0.0699 0.0701
3328.000000 0.0702 0.0704 0.0705 0.0707 0.0709
3333.000000 0.0711 0.0713 0.0714 0.0716 0.0718
3338.000000 0.0720 0.0722 0.0723 0.0725 0.0727
3343.000000 0.0729 0.0730 0.0732 0.0733 0.0735
3348.000000 0.0737 0.0739 0.0740 0.0742 0.0744
3353.000000 0.0746 0.0747 0.0749 0.0751 0.0753
3358.000000 0.0754 0.0756 0.0757 0.0759 0.0761
3363.000000 0.0762 0.0764 0.0766 0.0767 0.0768
3368.000000 0.0770 0.0771 0.0772 0.0774 0.0775
3373.000000 0.0776 0.0778 0.0779 0.0780 0.0782
3378.000000 0.0783 0.0784 0.0786 0.0788 0.0789
3383.000000 0.0791 0.0792 0.0793 0.0794 0.0796
3388.000000 0.0797 0.0799 0.0801 0.0803 0.0804
3393.000000 0.0811 0.0820 0.0828 0.0836 0.0847
3398.000000 0.0867 0.0887 0.0907 0.0927 0.0941
3403.000000 0.0951 0.0961 0.0971 0.0981 0.0984
3408.000000 0.0988 0.0991 0.0995 0.0999 0.1002
3413.000000 0.1006 0.1010 0.1013 0.1016 0.1019
3418.000000 0.1022 0.1025 0.1028 0.1030 0.1032
3423.000000 0.1035 0.1037 0.1040 0.1043 0.1046
3428.000000 0.1049 0.1052 0.1056 0.1060 0.1064
3433.000000 0.1068 0.1072 0.1081 0.1090 0.1099
3438.000000 0.1107 0.1117 0.1132 0.1146 0.1160
3443.000000 0.1174 0.1185 0.1193 0.1201 0.1209
3448.000000 0.1216 0.1252 0.1299 0.1346 0.1393
3453.000000 0.1440 0.1477 0.1513 0.1550 0.1587
3458.000000 0.1622 0.1650 0.1679 0.1707 0.1735
3463.000000 0.1763 0.1788 0.1814 0.1839 0.1865
3468.000000 0.1890 0.1915 0.1940 0.1964 0.1989
3473.000000 0.2014 0.2039 0.2064 0.2088 0.2113
3478.000000 0.2138 0.2162 0.2187 0.2212 0.2236
3483.000000 0.2261 0.2286 0.2310 0.2335 0.2360
3488.000000 0.2384 0.2408 0.2433 0.2457 0.2482
3493.000000 0.2506 0.2530 0.2555 0.2579 0.2604
3498.000000 0.2628 0.2653 0.2677 0.2702 0.2726
3503.000000 0.2750 0.2774 0.2799 0.2823 0.2847
3508.000000 0.2871 0.2895 0.2920 0.2944 0.2968
3513.000000 0.2992 0.3017 0.3041 0.3065 0.3089
3518.000000 0.3113 0.3137 0.3161 0.3185 0.3209
3523.000000 0.3233 0.3257 0.3281 0.3305 0.3329
3528.000000 0.3353 0.3378 0.3402 0.3426 0.3450
3533.000000 0.3473 0.3497 0.3521 0.3545 0.3569
3538.000000 0.3592 0.3616 0.3640 0.3664 0.3687
3543.000000 0.3711 0.3735 0.3758 0.3782 0.3827
3548.000000 0.3873 0.3920 0.3966 0.4013 0.4097
3553.000000 0.4187 0.4277 0.4367 0.4457 0.4519
3558.000000 0.4575 0.4631 0.4687 0.4743 0.4799
3563.000000 0.4855 0.4910 0.4966 0.5022 0.5078
3568.000000 0.5133 0.5189 0.5244 0.5300 0.5355
3573.000000 0.5411 0.5466 0.5521 0.5577 0.5632
3578.000000 0.5686 0.5741 0.5795 0.5849 0.5892
3583.000000 0.5913 0.5934 0.5954 0.5975 0.5996
3588.000000 0.6016 0.6037 0.6058 0.6079 0.6100
3593.000000 0.6123 0.6147 0.6170 0.6194 0.6218
3598.000000 0.6249 0.6282 0.6315 0.6348 0.6380
3603.000000 0.6415 0.6450 0.6485 0.6520 0.6555
3608.000000 0.6579 0.6593 0.6606 0.6619 0.6633
3613.000000 0.6646 0.6658 0.6671 0.6683 0.6696
3618.000000 0.6708 0.6717 0.6726 0.6735 0.6745
3623.000000 0.6754 0.6763 0.6772 0.6781 0.6790
3628.000000 0.6799 0.6809 0.6818 0.6827 0.6836
3633.000000 0.6845 0.6854 0.6863 0.6872 0.6881
3638.000000 0.6890 0.6899 0.6910 0.6920 0.6930
3643.000000 0.6940 0.6950 0.6960 0.6970 0.6980
3648.000000 0.6990 0.7000 0.7010 0.7020 0.7030
3653.000000 0.7041 0.7051 0.7061 0.7073 0.7085
3658.000000 0.7097 0.7109 0.7121 0.7134 0.7149
3663.000000 0.7163 0.7178 0.7192 0.7207 0.7221
3668.000000 0.7236 0.7250 0.7265 0.7279 0.7290
3673.000000 0.7299 0.7309 0.7319 0.7329 0.7339
3678.000000 0.7349 0.7359 0.7369 0.7379 0.7388
3683.000000 0.7392 0.7396 0.7401 0.7405 0.7409
3688.000000 0.7413 0.7418 0.7422 0.7426 0.7430
3693.000000 0.7434 0.7438 0.7443 0.7447 0.7451
3698.000000 0.7455 0.7457 0.7458 0.7460 0.7461
3703.000000 0.7462 0.7464 0.7466 0.7467 0.7469
3708.000000 0.7471 0.7472 0.7474 0.7475 0.7477
3713.000000 0.7479 0.7480 0.7482 0.7483 0.7484
3718.000000 0.7484 0.7485 0.7486 0.7487 0.7487
3723.000000 0.7487 0.7488 0.7488 0.7489 0.7489
3728.000000 0.7489 0.7489 0.7489 0.7489 0.7490
3733.000000 0.7490 0.7490 0.7491 0.7491 0.7492
3738.000000 0.7492 0.7492 0.7493 0.7493 0.7493
3743.000000 0.7493 0.7494 0.7494 0.7494 0.7494
3748.000000 0.7494 0.7495 0.7495 0.7496 0.7496
3753.000000 0.7496 0.7497 0.7497 0.7497 0.7497
3758.000000 0.7497 0.7497 0.7496 0.7496 0.7496
3763.000000 0.7496 0.7496 0.7496 0.7495 0.7495
3768.000000 0.7495 0.7495 0.7495 0.7494 0.7494
3773.000000 0.7494 0.7493 0.7493 0.7493 0.7492
3778.000000 0.7492 0.7492 0.7492 0.7492 0.7492
3783.000000 0.7491 0.7491 0.7491 0.7490 0.7490
3788.000000 0.7489 0.7489 0.7488 0.7488 0.7487
3793.000000 0.7487 0.7486 0.7486 0.7486 0.7485
3798.000000 0.7485 0.7485 0.7484 0.7484 0.7483
3803.000000 0.7483 0.7482 0.7482 0.7481 0.7481
3808.000000 0.7480 0.7480 0.7479 0.7478 0.7478
3813.000000 0.7477 0.7477 0.7476 0.7476 0.7475
3818.000000 0.7475 0.7475 0.7474 0.7474 0.7474
3823.000000 0.7473 0.7473 0.7472 0.7472 0.7471
3828.000000 0.7471 0.7470 0.7469 0.7468 0.7466
3833.000000 0.7465 0.7464 0.7463 0.7462 0.7461
3838.000000 0.7460 0.7459 0.7458 0.7457 0.7455
3843.000000 0.7454 0.7453 0.7452 0.7451 0.7448
3848.000000 0.7446 0.7443 0.7441 0.7438 0.7436
3853.000000 0.7433 0.7430 0.7428 0.7425 0.7422
3858.000000 0.7420 0.7417 0.7414 0.7411 0.7408
3863.000000 0.7405 0.7402 0.7398 0.7394 0.7390
3868.000000 0.7386 0.7382 0.7378 0.7374 0.7369
3873.000000 0.7364 0.7360 0.7355 0.7350 0.7345
3878.000000 0.7340 0.7335 0.7330 0.7325 0.7319
3883.000000 0.7313 0.7307 0.7301 0.7295 0.7289
3888.000000 0.7283 0.7277 0.7271 0.7266 0.7260
3893.000000 0.7255 0.7249 0.7245 0.7241 0.7237
3898.000000 0.7234 0.7230 0.7226 0.7222 0.7219
3903.000000 0.7215 0.7211 0.7207 0.7203 0.7200
3908.000000 0.7196 0.7192 0.7188 0.7185 0.7181
3913.000000 0.7176 0.7171 0.7165 0.7160 0.7155
3918.000000 0.7149 0.7146 0.7144 0.7142 0.7140
3923.000000 0.7138 0.7137 0.7135 0.7133 0.7131
3928.000000 0.7130 0.7128 0.7126 0.7124 0.7122
3933.000000 0.7121 0.7119 0.7117 0.7115 0.7114
3938.000000 0.7112 0.7111 0.7110 0.7109 0.7108
3943.000000 0.7107 0.7106 0.7104 0.7103 0.7102
3948.000000 0.7101 0.7100 0.7099 0.7098 0.7097
3953.000000 0.7096 0.7095 0.7094 0.7093 0.7092
3958.000000 0.7091 0.7090 0.7089 0.7088 0.7086
3963.000000 0.7085 0.7084 0.7083 0.7082 0.7081
3968.000000 0.7080 0.7079 0.7078 0.7076 0.7075
3973.000000 0.7074 0.7073 0.7072 0.7071 0.7070
3978.000000 0.7069 0.7068 0.7067 0.7066 0.7065
3983.000000 0.7064 0.7063 0.7062 0.7061 0.7060
3988.000000 0.7059 0.7058 0.7056 0.7055 0.7054
3993.000000 0.7053 0.7052 0.7052 0.7052 0.7052
3998.000000 0.7052 0.7052 0.7052
##END=
