##TITLE=1,4-BUTANEDIAMINE, N,N'-BIS-(3-AMINOPROPYL)-, DIPHOSPHATE
##JCAMP-DX=4.24
##DATA TYPE=INFRARED SPECTRUM
##CLASS=COBLENTZ III
##ORIGIN=DOW CHEMICAL COMPANY
##OWNER=COBLENTZ SOC.
Collection (C) 2018 copyright by the U.S. Secretary of Commerce
on behalf of the United States of America. All rights reserved.
##DATE=1966/02/03
##MOLFORM=C10 H26 N4  * ( H3 O4 P)2
##SOURCE REFERENCE=COBLENTZ NO. 06539
##$NIST ID=B6006539
##$NIST SOURCE=COBLENTZ
##$NIST IMAGE=cob6539
##SPECTROMETER/DATA SYSTEM=DOW KBr FOREPRISM-GRATING
##INSTRUMENT PARAMETERS=BLAZED AT 3.5, 12.0, 20.0 MICRON AND CHANGED AT 5.0, 7.5, 14.9 MICRON
##STATE=SOLID (SPLIT MULL)
$$ SPECTRAL FEATURE AT 1342 CM^-^1 IS AFFECTED BY GRATING CHANGE
##SAMPLING PROCEDURE=TRANSMISSION
##RESOLUTION=2
##DATA PROCESSING=DIGITIZED BY COBLENTZ SOCIETY (BATCH I) FROM HARD COPY
##XUNITS=1/CM
##YUNITS=TRANSMITTANCE
##XLABEL=Wavenumbers (cm-1)
##YLABEL=% Transmission
##XFACTOR=1
##YFACTOR=1
##DELTAX=1
##FIRSTX=377
##LASTX=3800
##FIRSTY=1.0228
##MAXX=3800
##MINX=377
##MAXY=1.0286
##MINY=0.0345
##NPOINTS=3424
##XYDATA=(X++(Y..Y))
377.000000 1.0228 1.0231 1.0234 1.0237 1.0239
382.000000 1.0242 1.0245 1.0247 1.0250 1.0252
387.000000 1.0255 1.0258 1.0260 1.0262 1.0264
392.000000 1.0265 1.0267 1.0268 1.0265 1.0260
397.000000 1.0255 1.0250 1.0244 1.0239 1.0234
402.000000 1.0228 1.0220 1.0212 1.0203 1.0195
407.000000 1.0186 1.0175 1.0160 1.0143 1.0127
412.000000 1.0109 1.0092 1.0074 1.0056 1.0038
417.000000 1.0024 1.0011 0.9997 0.9997 0.9997
422.000000 0.9982 0.9981 0.9991 1.0007 1.0021
427.000000 1.0057 1.0092 1.0118 1.0136 1.0155
432.000000 1.0171 1.0187 1.0204 1.0220 1.0235
437.000000 1.0249 1.0264 1.0286 1.0259 1.0251
442.000000 1.0237 1.0223 1.0205 1.0185 1.0165
447.000000 1.0146 1.0127 1.0109 1.0091 1.0073
452.000000 1.0055 1.0034 1.0014 0.9993 0.9973
457.000000 0.9953 0.9932 0.9913 0.9895 0.9875
462.000000 0.9857 0.9838 0.9820 0.9800 0.9780
467.000000 0.9760 0.9739 0.9718 0.9699 0.9673
472.000000 0.9646 0.9618 0.9592 0.9567 0.9542
477.000000 0.9517 0.9493 0.9464 0.9431 0.9399
482.000000 0.9367 0.9334 0.9284 0.9228 0.9170
487.000000 0.9118 0.9104 0.9100 0.9099 0.9099
492.000000 0.9093 0.9083 0.9073 0.9059 0.9043
497.000000 0.9017 0.8984 0.8941 0.8898 0.8853
502.000000 0.8806 0.8759 0.8701 0.8638 0.8575
507.000000 0.8516 0.8456 0.8395 0.8320 0.8244
512.000000 0.8167 0.8019 0.7871 0.7769 0.7668
517.000000 0.7568 0.7465 0.7360 0.7256 0.7048
522.000000 0.6800 0.6621 0.6443 0.6237 0.6028
527.000000 0.5845 0.5671 0.5347 0.5023 0.4699
532.000000 0.4374 0.4050 0.3726 0.3427 0.3395
537.000000 0.3421 0.3421 0.3718 0.4038 0.4358
542.000000 0.4678 0.4997 0.5180 0.5226 0.5251
547.000000 0.5264 0.5293 0.5160 0.5014 0.4869
552.000000 0.4724 0.4579 0.4433 0.4288 0.4143
557.000000 0.4082 0.4100 0.4396 0.4641 0.4885
562.000000 0.5130 0.5277 0.5324 0.5379 0.5436
567.000000 0.5503 0.5587 0.5714 0.5847 0.5995
572.000000 0.6152 0.6332 0.6504 0.6653 0.6754
577.000000 0.6845 0.6918 0.6991 0.7042 0.7092
582.000000 0.7133 0.7160 0.7187 0.7215 0.7240
587.000000 0.7265 0.7289 0.7314 0.7328 0.7342
592.000000 0.7357 0.7371 0.7385 0.7399 0.7403
597.000000 0.7406 0.7410 0.7414 0.7417 0.7421
602.000000 0.7393 0.7415 0.7411 0.7408 0.7404
607.000000 0.7399 0.7388 0.7376 0.7367 0.7353
612.000000 0.7337 0.7321 0.7306 0.7290 0.7275
617.000000 0.7258 0.7243 0.7228 0.7208 0.7189
622.000000 0.7168 0.7148 0.7128 0.7106 0.7081
627.000000 0.7055 0.7030 0.7005 0.6980 0.6949
632.000000 0.6915 0.6882 0.6848 0.6814 0.6774
637.000000 0.6735 0.6695 0.6656 0.6615 0.6576
642.000000 0.6536 0.6496 0.6456 0.6415 0.6375
647.000000 0.6333 0.6287 0.6241 0.6196 0.6150
652.000000 0.6109 0.6069 0.6029 0.5989 0.5949
657.000000 0.5914 0.5879 0.5845 0.5810 0.5772
662.000000 0.5733 0.5710 0.5710 0.5709 0.5708
667.000000 0.5706 0.5644 0.5477 0.5470 0.5473
672.000000 0.5436 0.5486 0.5497 0.5509 0.5531
677.000000 0.5555 0.5578 0.5602 0.5625 0.5649
682.000000 0.5672 0.5696 0.5719 0.5742 0.5766
687.000000 0.5790 0.5819 0.5847 0.5873 0.5895
692.000000 0.5914 0.5932 0.5951 0.5970 0.5983
697.000000 0.5992 0.6002 0.6010 0.6012 0.6012
702.000000 0.6009 0.6005 0.5999 0.6032 0.5988
707.000000 0.5982 0.5974 0.5962 0.5951 0.5940
712.000000 0.5929 0.5912 0.5892 0.5873 0.5854
717.000000 0.5825 0.5786 0.5718 0.5710 0.5708
722.000000 0.5712 0.5716 0.5740 0.5768 0.5807
727.000000 0.5846 0.5871 0.5893 0.5914 0.5934
732.000000 0.5953 0.5971 0.5987 0.6002 0.6018
737.000000 0.6026 0.6034 0.6042 0.6050 0.6058
742.000000 0.6066 0.6072 0.6073 0.6074 0.6075
747.000000 0.6076 0.6078 0.6079 0.6080 0.6080
752.000000 0.6079 0.6082 0.6073 0.6070 0.6067
757.000000 0.6048 0.6026 0.5999 0.5957 0.5916
762.000000 0.5866 0.5804 0.5734 0.5652 0.5571
767.000000 0.5460 0.5299 0.5157 0.5044 0.4936
772.000000 0.4836 0.4741 0.4612 0.4503 0.4450
777.000000 0.4429 0.4421 0.4418 0.4455 0.4669
782.000000 0.4945 0.5221 0.5497 0.5773 0.6050
787.000000 0.6326 0.6595 0.6661 0.6675 0.6682
792.000000 0.6658 0.6621 0.6583 0.6544 0.6506
797.000000 0.6468 0.6428 0.6391 0.6353 0.6314
802.000000 0.6276 0.6237 0.6199 0.6179 0.6156
807.000000 0.6127 0.6098 0.6065 0.6033 0.6001
812.000000 0.5973 0.5944 0.5916 0.5886 0.5852
817.000000 0.5817 0.5782 0.5740 0.5692 0.5645
822.000000 0.5597 0.5549 0.5500 0.5452 0.5410
827.000000 0.5371 0.5331 0.5291 0.5250 0.5209
832.000000 0.5164 0.5128 0.5118 0.5117 0.5117
837.000000 0.5117 0.5127 0.5154 0.5202 0.5260
842.000000 0.5312 0.5369 0.5427 0.5479 0.5529
847.000000 0.5578 0.5625 0.5666 0.5707 0.5748
852.000000 0.5786 0.5823 0.5860 0.5897 0.5932
857.000000 0.5965 0.5997 0.6026 0.6049 0.6071
862.000000 0.6081 0.6090 0.6085 0.6085 0.6084
867.000000 0.6054 0.6027 0.5962 0.5890 0.5795
872.000000 0.5697 0.5598 0.5498 0.5397 0.5291
877.000000 0.5092 0.4860 0.4627 0.4394 0.4160
882.000000 0.3928 0.3695 0.3462 0.3229 0.2996
887.000000 0.2763 0.2557 0.2560 0.2547 0.2998
892.000000 0.3328 0.3657 0.3986 0.4316 0.4645
897.000000 0.4974 0.5303 0.5633 0.5962 0.6291
902.000000 0.6901 0.7049 0.7167 0.7272 0.7374
907.000000 0.7432 0.7478 0.7522 0.7549 0.7575
912.000000 0.7591 0.7599 0.7608 0.7608 0.7610
917.000000 0.7607 0.7604 0.7600 0.7595 0.7590
922.000000 0.7584 0.7574 0.7565 0.7530 0.7489
927.000000 0.7440 0.7365 0.7274 0.7194 0.7115
932.000000 0.7038 0.6961 0.6885 0.6791 0.6689
937.000000 0.6601 0.6512 0.6408 0.6252 0.6099
942.000000 0.5955 0.5810 0.5601 0.5449 0.5326
947.000000 0.5174 0.4817 0.3747 0.2496 0.2325
952.000000 0.2142 0.1951 0.1768 0.1585 0.1402
957.000000 0.1219 0.1120 0.1121 0.1139 0.1495
962.000000 0.1829 0.2166 0.2502 0.2838 0.3174
967.000000 0.3509 0.3846 0.4181 0.4517 0.4853
972.000000 0.5010 0.5053 0.5077 0.5082 0.5083
977.000000 0.5094 0.5068 0.4946 0.4795 0.4643
982.000000 0.4492 0.4340 0.4189 0.4037 0.3966
987.000000 0.4068 0.4420 0.4770 0.5120 0.5471
992.000000 0.5821 0.5930 0.6050 0.6216 0.6321
997.000000 0.6350 0.6366 0.6379 0.6379 0.6379
1002.000000 0.6371 0.6350 0.6318 0.6282 0.6238
1007.000000 0.6192 0.6138 0.6085 0.6019 0.5950
1012.000000 0.5878 0.5804 0.5729 0.5653 0.5577
1017.000000 0.5491 0.5396 0.5220 0.5038 0.4856
1022.000000 0.4675 0.4493 0.4310 0.4130 0.3948
1027.000000 0.3766 0.3584 0.3403 0.3221 0.3040
1032.000000 0.2858 0.2676 0.2495 0.2313 0.2131
1037.000000 0.1950 0.1768 0.1586 0.1405 0.1223
1042.000000 0.0999 0.0814 0.0737 0.0698 0.0708
1047.000000 0.0710 0.0726 0.0745 0.0781 0.0809
1052.000000 0.0830 0.0835 0.0843 0.0832 0.0826
1057.000000 0.0809 0.0737 0.0655 0.0559 0.0473
1062.000000 0.0388 0.0346 0.0346 0.0345 0.0352
1067.000000 0.0355 0.0362 0.0368 0.0386 0.0409
1072.000000 0.0435 0.0460 0.0486 0.0520 0.0556
1077.000000 0.0611 0.0673 0.0735 0.0833 0.0933
1082.000000 0.1021 0.1105 0.1191 0.1276 0.1362
1087.000000 0.1519 0.1687 0.1857 0.2025 0.2194
1092.000000 0.2363 0.2501 0.2969 0.3049 0.3128
1097.000000 0.3234 0.3404 0.3574 0.3744 0.3914
1102.000000 0.4084 0.4255 0.4425 0.4660 0.4791
1107.000000 0.4870 0.4949 0.5036 0.5135 0.5228
1112.000000 0.5310 0.5392 0.5474 0.5557 0.5639
1117.000000 0.5721 0.5793 0.5856 0.5918 0.5978
1122.000000 0.6015 0.6052 0.6089 0.6126 0.6157
1127.000000 0.6187 0.6216 0.6243 0.6281 0.6371
1132.000000 0.6435 0.6493 0.6545 0.6596 0.6642
1137.000000 0.6689 0.6732 0.6769 0.6808 0.6844
1142.000000 0.6861 0.6878 0.6890 0.6897 0.6901
1147.000000 0.6901 0.6904 0.6904 0.6901 0.6900
1152.000000 0.6937 0.6896 0.6893 0.6891 0.6888
1157.000000 0.6882 0.6875 0.6858 0.6835 0.6805
1162.000000 0.6775 0.6746 0.6710 0.6671 0.6634
1167.000000 0.6594 0.6549 0.6504 0.6458 0.6414
1172.000000 0.6365 0.6317 0.6269 0.6216 0.6159
1177.000000 0.6103 0.6047 0.5992 0.5940 0.5887
1182.000000 0.5829 0.5769 0.5723 0.5688 0.5652
1187.000000 0.5606 0.5551 0.5497 0.5442 0.5387
1192.000000 0.5332 0.5273 0.5210 0.5141 0.5062
1197.000000 0.4980 0.4886 0.4806 0.4733 0.4622
1202.000000 0.4545 0.4546 0.4627 0.4795 0.4964
1207.000000 0.5132 0.5301 0.5470 0.5628 0.5690
1212.000000 0.5798 0.5940 0.6124 0.6262 0.6358
1217.000000 0.6469 0.6589 0.6761 0.6918 0.7012
1222.000000 0.7101 0.7161 0.7221 0.7281 0.7348
1227.000000 0.7425 0.7501 0.7548 0.7581 0.7614
1232.000000 0.7646 0.7674 0.7701 0.7718 0.7733
1237.000000 0.7745 0.7754 0.7754 0.7754 0.7754
1242.000000 0.7748 0.7736 0.7675 0.7601 0.7536
1247.000000 0.7461 0.7350 0.7265 0.7211 0.7215
1252.000000 0.7219 0.7203 0.7339 0.7508 0.7676
1257.000000 0.7847 0.7987 0.8008 0.8018 0.8030
1262.000000 0.8041 0.8051 0.8061 0.8072 0.8084
1267.000000 0.8091 0.8098 0.8104 0.8110 0.8115
1272.000000 0.8121 0.8125 0.8130 0.8134 0.8138
1277.000000 0.8142 0.8143 0.8144 0.8145 0.8145
1282.000000 0.8140 0.8128 0.8118 0.8095 0.8071
1287.000000 0.8050 0.8005 0.7942 0.7880 0.7825
1292.000000 0.7801 0.7817 0.7881 0.7946 0.8010
1297.000000 0.8061 0.8105 0.8137 0.8143 0.8149
1302.000000 0.8154 0.8157 0.8157 0.8157 0.8157
1307.000000 0.8157 0.8157 0.8157 0.8157 0.8157
1312.000000 0.8165 0.8176 0.8188 0.8200 0.8212
1317.000000 0.8224 0.8236 0.8248 0.8260 0.8268
1322.000000 0.8275 0.8282 0.8288 0.8290 0.8286
1327.000000 0.8325 0.8277 0.8271 0.8258 0.8244
1332.000000 0.8228 0.8204 0.8181 0.8100 0.7490
1337.000000 0.6881 0.6271 0.5662 0.5052 0.4928
1342.000000 0.4918 0.4917 0.4917 0.4962 0.5047
1347.000000 0.5131 0.5215 0.5299 0.5383 0.5466
1352.000000 0.5538 0.5585 0.5617 0.5636 0.5650
1357.000000 0.5662 0.5675 0.5701 0.5726 0.5751
1362.000000 0.5779 0.5810 0.5846 0.5883 0.5910
1367.000000 0.5935 0.5951 0.5967 0.5982 0.5991
1372.000000 0.5998 0.6004 0.6010 0.6018 0.6025
1377.000000 0.6032 0.6039 0.6046 0.6072 0.6107
1382.000000 0.6127 0.6141 0.6154 0.6133 0.6120
1387.000000 0.6062 0.5968 0.5909 0.5873 0.5845
1392.000000 0.5817 0.5779 0.5740 0.5702 0.5664
1397.000000 0.5617 0.5556 0.5369 0.5179 0.4989
1402.000000 0.4799 0.4673 0.4597 0.4589 0.4781
1407.000000 0.5003 0.5146 0.5146 0.5146 0.5138
1412.000000 0.5131 0.5141 0.5191 0.5242 0.5293
1417.000000 0.5353 0.5385 0.5399 0.5407 0.5415
1422.000000 0.5400 0.5385 0.5370 0.5350 0.5327
1427.000000 0.5303 0.5280 0.5258 0.5235 0.5221
1432.000000 0.5208 0.5196 0.5185 0.5173 0.5148
1437.000000 0.5123 0.5099 0.5074 0.5051 0.5027
1442.000000 0.5003 0.4979 0.4955 0.4931 0.4907
1447.000000 0.4883 0.4858 0.4833 0.4805 0.4777
1452.000000 0.4749 0.4721 0.4693 0.4665 0.4634
1457.000000 0.4603 0.4572 0.4541 0.4501 0.4462
1462.000000 0.4465 0.4490 0.4519 0.4524 0.4525
1467.000000 0.4520 0.4503 0.4426 0.4330 0.4233
1472.000000 0.4137 0.4041 0.3944 0.3848 0.3752
1477.000000 0.3655 0.3559 0.2913 0.2463 0.2052
1482.000000 0.2046 0.2049 0.2308 0.2670 0.2926
1487.000000 0.2988 0.3063 0.3262 0.3460 0.3659
1492.000000 0.3857 0.4055 0.4253 0.4451 0.4649
1497.000000 0.5007 0.5139 0.5229 0.5312 0.5382
1502.000000 0.5444 0.5505 0.5540 0.5575 0.5603
1507.000000 0.5625 0.5647 0.5666 0.5681 0.5690
1512.000000 0.5699 0.5709 0.5718 0.5727 0.5736
1517.000000 0.5746 0.5750 0.5753 0.5756 0.5756
1522.000000 0.5756 0.5755 0.5753 0.5752 0.5749
1527.000000 0.5744 0.5739 0.5734 0.5724 0.5714
1532.000000 0.5705 0.5694 0.5682 0.5670 0.5658
1537.000000 0.5646 0.5634 0.5615 0.5596 0.5577
1542.000000 0.5558 0.5533 0.5507 0.5482 0.5451
1547.000000 0.5409 0.5366 0.5320 0.5251 0.5182
1552.000000 0.5100 0.5010 0.4923 0.4841 0.4758
1557.000000 0.4669 0.4575 0.4476 0.4373 0.4262
1562.000000 0.4143 0.4079 0.4058 0.4057 0.4057
1567.000000 0.4050 0.4041 0.4030 0.3975 0.3788
1572.000000 0.3598 0.3491 0.3462 0.3462 0.3462
1577.000000 0.3496 0.3668 0.3994 0.4320 0.4659
1582.000000 0.4781 0.4836 0.4855 0.4868 0.4874
1587.000000 0.4880 0.4886 0.4890 0.4895 0.4900
1592.000000 0.4904 0.4910 0.4919 0.4938 0.4977
1597.000000 0.5020 0.5081 0.5152 0.5240 0.5325
1602.000000 0.5408 0.5439 0.5467 0.5476 0.5485
1607.000000 0.5491 0.5494 0.5498 0.5499 0.5519
1612.000000 0.5496 0.5493 0.5489 0.5485 0.5481
1617.000000 0.5475 0.5468 0.5458 0.5447 0.5435
1622.000000 0.5417 0.5394 0.5374 0.5355 0.5336
1627.000000 0.5317 0.5298 0.5279 0.5260 0.5241
1632.000000 0.5224 0.5210 0.5196 0.5181 0.5167
1637.000000 0.5151 0.5134 0.5117 0.5099 0.5082
1642.000000 0.5064 0.5045 0.5019 0.4993 0.4959
1647.000000 0.4922 0.4885 0.4844 0.4801 0.4755
1652.000000 0.4700 0.4645 0.4598 0.4551 0.4505
1657.000000 0.4453 0.4399 0.4345 0.4277 0.4190
1662.000000 0.4145 0.4146 0.4146 0.4165 0.4191
1667.000000 0.4230 0.4285 0.4464 0.4628 0.4793
1672.000000 0.4957 0.5122 0.5264 0.5355 0.5439
1677.000000 0.5495 0.5549 0.5600 0.5632 0.5660
1682.000000 0.5672 0.5683 0.5694 0.5705 0.5710
1687.000000 0.5716 0.5722 0.5727 0.5733 0.5737
1692.000000 0.5742 0.5746 0.5751 0.5755 0.5760
1697.000000 0.5766 0.5776 0.5786 0.5798 0.5820
1702.000000 0.5842 0.5864 0.5890 0.5920 0.5949
1707.000000 0.5987 0.6034 0.6081 0.6117 0.6153
1712.000000 0.6189 0.6225 0.6262 0.6299 0.6336
1717.000000 0.6374 0.6411 0.6451 0.6491 0.6531
1722.000000 0.6561 0.6592 0.6621 0.6658 0.6698
1727.000000 0.6738 0.6768 0.6790 0.6811 0.6833
1732.000000 0.6854 0.6865 0.6875 0.6885 0.6895
1737.000000 0.6900 0.6905 0.6908 0.6912 0.6917
1742.000000 0.6921 0.6922 0.6925 0.6928 0.6945
1747.000000 0.6933 0.6935 0.6936 0.6937 0.6938
1752.000000 0.6938 0.6939 0.6940 0.6941 0.6941
1757.000000 0.6941 0.6939 0.6938 0.6937 0.6935
1762.000000 0.6934 0.6933 0.6931 0.6928 0.6928
1767.000000 0.6925 0.6924 0.6921 0.6921 0.6918
1772.000000 0.6918 0.6915 0.6915 0.6912 0.6911
1777.000000 0.6911 0.6908 0.6908 0.6908 0.6911
1782.000000 0.6914 0.6917 0.6919 0.6922 0.6931
1787.000000 0.6935 0.6939 0.6942 0.6946 0.6946
1792.000000 0.6945 0.6942 0.6940 0.6937 0.6935
1797.000000 0.6932 0.6930 0.6926 0.6921 0.6914
1802.000000 0.6908 0.6901 0.6895 0.6889 0.6883
1807.000000 0.6875 0.6865 0.6858 0.6854 0.6849
1812.000000 0.6843 0.6838 0.6832 0.6826 0.6821
1817.000000 0.6815 0.6811 0.6803 0.6801 0.6805
1822.000000 0.6808 0.6811 0.6815 0.6818 0.6822
1827.000000 0.6824 0.6824 0.6824 0.6824 0.6824
1832.000000 0.6821 0.6819 0.6817 0.6815 0.6812
1837.000000 0.6810 0.6808 0.6804 0.6799 0.6795
1842.000000 0.6790 0.6785 0.6780 0.6775 0.6771
1847.000000 0.6765 0.6761 0.6757 0.6751 0.6746
1852.000000 0.6738 0.6731 0.6722 0.6715 0.6708
1857.000000 0.6701 0.6693 0.6684 0.6674 0.6665
1862.000000 0.6655 0.6648 0.6648 0.6647 0.6647
1867.000000 0.6647 0.6647 0.6647 0.6647 0.6647
1872.000000 0.6646 0.6643 0.6640 0.6638 0.6635
1877.000000 0.6632 0.6628 0.6625 0.6622 0.6618
1882.000000 0.6615 0.6611 0.6608 0.6604 0.6600
1887.000000 0.6596 0.6593 0.6589 0.6585 0.6580
1892.000000 0.6575 0.6568 0.6564 0.6558 0.6554
1897.000000 0.6547 0.6538 0.6528 0.6519 0.6511
1902.000000 0.6501 0.6493 0.6484 0.6475 0.6465
1907.000000 0.6455 0.6443 0.6432 0.6419 0.6408
1912.000000 0.6405 0.6403 0.6401 0.6398 0.6396
1917.000000 0.6394 0.6392 0.6389 0.6387 0.6385
1922.000000 0.6382 0.6380 0.6380 0.6381 0.6382
1927.000000 0.6382 0.6383 0.6384 0.6384 0.6385
1932.000000 0.6386 0.6387 0.6387 0.6387 0.6383
1937.000000 0.6380 0.6376 0.6372 0.6368 0.6364
1942.000000 0.6360 0.6356 0.6348 0.6341 0.6334
1947.000000 0.6326 0.6319 0.6310 0.6304 0.6295
1952.000000 0.6286 0.6278 0.6268 0.6259 0.6250
1957.000000 0.6241 0.6231 0.6222 0.6212 0.6203
1962.000000 0.6195 0.6188 0.6181 0.6174 0.6167
1967.000000 0.6160 0.6152 0.6145 0.6138 0.6131
1972.000000 0.6124 0.6115 0.6104 0.6093 0.6081
1977.000000 0.6070 0.6062 0.6055 0.6047 0.6040
1982.000000 0.6032 0.6025 0.6017 0.6009 0.6001
1987.000000 0.5993 0.5984 0.5976 0.5965 0.5954
1992.000000 0.5944 0.5933 0.5922 0.5912 0.5905
1997.000000 0.5897 0.5889 0.5881 0.5872 0.5858
2002.000000 0.5845 0.5838 0.5831 0.5822 0.5814
2007.000000 0.5802 0.5791 0.5779 0.5768 0.5756
2012.000000 0.5744 0.5732 0.5721 0.5709 0.5698
2017.000000 0.5686 0.5675 0.5664 0.5653 0.5642
2022.000000 0.5631 0.5620 0.5609 0.5598 0.5587
2027.000000 0.5574 0.5562 0.5549 0.5537 0.5525
2032.000000 0.5512 0.5500 0.5488 0.5475 0.5462
2037.000000 0.5451 0.5439 0.5426 0.5414 0.5402
2042.000000 0.5390 0.5378 0.5366 0.5354 0.5342
2047.000000 0.5330 0.5318 0.5306 0.5294 0.5281
2052.000000 0.5269 0.5255 0.5242 0.5228 0.5215
2057.000000 0.5201 0.5188 0.5174 0.5160 0.5147
2062.000000 0.5134 0.5120 0.5106 0.5090 0.5075
2067.000000 0.5060 0.5045 0.5030 0.5015 0.5000
2072.000000 0.4985 0.4969 0.4954 0.4939 0.4924
2077.000000 0.4903 0.4883 0.4860 0.4840 0.4818
2082.000000 0.4797 0.4775 0.4754 0.4733 0.4712
2087.000000 0.4690 0.4669 0.4648 0.4628 0.4607
2092.000000 0.4587 0.4567 0.4547 0.4527 0.4507
2097.000000 0.4486 0.4466 0.4446 0.4426 0.4405
2102.000000 0.4385 0.4364 0.4344 0.4323 0.4302
2107.000000 0.4281 0.4260 0.4240 0.4220 0.4199
2112.000000 0.4179 0.4158 0.4138 0.4120 0.4102
2117.000000 0.4084 0.4068 0.4050 0.4032 0.4016
2122.000000 0.3999 0.3982 0.3964 0.3947 0.3930
2127.000000 0.3912 0.3896 0.3878 0.3860 0.3841
2132.000000 0.3821 0.3800 0.3780 0.3759 0.3740
2137.000000 0.3720 0.3700 0.3682 0.3664 0.3647
2142.000000 0.3629 0.3610 0.3593 0.3575 0.3558
2147.000000 0.3540 0.3522 0.3502 0.3482 0.3454
2152.000000 0.3426 0.3409 0.3392 0.3382 0.3372
2157.000000 0.3368 0.3366 0.3366 0.3366 0.3370
2162.000000 0.3372 0.3374 0.3376 0.3382 0.3388
2167.000000 0.3398 0.3409 0.3422 0.3436 0.3449
2172.000000 0.3462 0.3468 0.3476 0.3476 0.3476
2177.000000 0.3476 0.3476 0.3475 0.3474 0.3473
2182.000000 0.3472 0.3471 0.3471 0.3470 0.3470
2187.000000 0.3468 0.3468 0.3468 0.3468 0.3476
2192.000000 0.3482 0.3490 0.3497 0.3504 0.3512
2197.000000 0.3520 0.3528 0.3537 0.3546 0.3552
2202.000000 0.3558 0.3564 0.3570 0.3575 0.3580
2207.000000 0.3587 0.3593 0.3599 0.3605 0.3610
2212.000000 0.3616 0.3623 0.3629 0.3632 0.3638
2217.000000 0.3642 0.3646 0.3650 0.3655 0.3658
2222.000000 0.3660 0.3662 0.3664 0.3666 0.3666
2227.000000 0.3666 0.3666 0.3664 0.3664 0.3660
2232.000000 0.3684 0.3655 0.3652 0.3649 0.3646
2237.000000 0.3643 0.3640 0.3634 0.3630 0.3625
2242.000000 0.3620 0.3614 0.3609 0.3604 0.3599
2247.000000 0.3593 0.3588 0.3582 0.3577 0.3571
2252.000000 0.3566 0.3559 0.3552 0.3545 0.3539
2257.000000 0.3532 0.3526 0.3518 0.3512 0.3503
2262.000000 0.3494 0.3484 0.3476 0.3466 0.3458
2267.000000 0.3446 0.3434 0.3421 0.3409 0.3397
2272.000000 0.3384 0.3372 0.3359 0.3348 0.3336
2277.000000 0.3323 0.3310 0.3297 0.3284 0.3268
2282.000000 0.3253 0.3237 0.3222 0.3207 0.3192
2287.000000 0.3176 0.3161 0.3141 0.3122 0.3096
2292.000000 0.3071 0.3045 0.3020 0.2995 0.2971
2297.000000 0.2953 0.2934 0.2917 0.2900 0.2882
2302.000000 0.2864 0.2846 0.2828 0.2810 0.2792
2307.000000 0.2773 0.2755 0.2735 0.2718 0.2699
2312.000000 0.2680 0.2667 0.2654 0.2644 0.2634
2317.000000 0.2624 0.2614 0.2604 0.2595 0.2584
2322.000000 0.2575 0.2565 0.2556 0.2546 0.2537
2327.000000 0.2528 0.2520 0.2511 0.2503 0.2494
2332.000000 0.2485 0.2477 0.2469 0.2465 0.2461
2337.000000 0.2456 0.2452 0.2447 0.2443 0.2438
2342.000000 0.2434 0.2429 0.2425 0.2421 0.2417
2347.000000 0.2412 0.2408 0.2405 0.2403 0.2401
2352.000000 0.2399 0.2397 0.2395 0.2393 0.2391
2357.000000 0.2389 0.2387 0.2384 0.2383 0.2381
2362.000000 0.2379 0.2377 0.2375 0.2372 0.2370
2367.000000 0.2366 0.2362 0.2358 0.2355 0.2351
2372.000000 0.2347 0.2343 0.2340 0.2335 0.2332
2377.000000 0.2328 0.2324 0.2320 0.2316 0.2312
2382.000000 0.2308 0.2303 0.2299 0.2294 0.2290
2387.000000 0.2285 0.2282 0.2277 0.2273 0.2268
2392.000000 0.2264 0.2260 0.2256 0.2251 0.2247
2397.000000 0.2242 0.2238 0.2234 0.2231 0.2227
2402.000000 0.2224 0.2220 0.2217 0.2213 0.2210
2407.000000 0.2206 0.2203 0.2199 0.2195 0.2192
2412.000000 0.2189 0.2185 0.2184 0.2181 0.2179
2417.000000 0.2176 0.2173 0.2170 0.2168 0.2165
2422.000000 0.2163 0.2160 0.2158 0.2155 0.2153
2427.000000 0.2150 0.2148 0.2145 0.2143 0.2140
2432.000000 0.2138 0.2134 0.2133 0.2130 0.2128
2437.000000 0.2123 0.2118 0.2111 0.2105 0.2098
2442.000000 0.2091 0.2084 0.2077 0.2067 0.2058
2447.000000 0.2048 0.2037 0.2027 0.2017 0.2007
2452.000000 0.1996 0.1987 0.1979 0.1972 0.1966
2457.000000 0.1959 0.1952 0.1944 0.1937 0.1931
2462.000000 0.1925 0.1918 0.1911 0.1904 0.1898
2467.000000 0.1891 0.1884 0.1877 0.1870 0.1863
2472.000000 0.1856 0.1849 0.1842 0.1834 0.1828
2477.000000 0.1821 0.1815 0.1809 0.1804 0.1798
2482.000000 0.1793 0.1787 0.1783 0.1781 0.1779
2487.000000 0.1779 0.1779 0.1779 0.1779 0.1781
2492.000000 0.1783 0.1784 0.1785 0.1787 0.1790
2497.000000 0.1792 0.1794 0.1800 0.1807 0.1814
2502.000000 0.1822 0.1829 0.1837 0.1846 0.1857
2507.000000 0.1867 0.1877 0.1884 0.1894 0.1894
2512.000000 0.1894 0.1894 0.1893 0.1891 0.1889
2517.000000 0.1886 0.1884 0.1883 0.1882 0.1879
2522.000000 0.1879 0.1873 0.1868 0.1857 0.1846
2527.000000 0.1834 0.1821 0.1809 0.1798 0.1786
2532.000000 0.1777 0.1767 0.1757 0.1749 0.1742
2537.000000 0.1736 0.1733 0.1729 0.1725 0.1722
2542.000000 0.1721 0.1722 0.1722 0.1724 0.1726
2547.000000 0.1728 0.1729 0.1731 0.1733 0.1733
2552.000000 0.1734 0.1734 0.1734 0.1735 0.1736
2557.000000 0.1736 0.1737 0.1739 0.1740 0.1741
2562.000000 0.1743 0.1744 0.1745 0.1748 0.1750
2567.000000 0.1751 0.1753 0.1753 0.1754 0.1754
2572.000000 0.1754 0.1754 0.1756 0.1756 0.1757
2577.000000 0.1757 0.1757 0.1758 0.1759 0.1761
2582.000000 0.1763 0.1764 0.1766 0.1768 0.1770
2587.000000 0.1771 0.1773 0.1775 0.1777 0.1778
2592.000000 0.1779 0.1782 0.1784 0.1784 0.1786
2597.000000 0.1789 0.1791 0.1792 0.1794 0.1795
2602.000000 0.1798 0.1799 0.1801 0.1802 0.1804
2607.000000 0.1806 0.1808 0.1809 0.1811 0.1812
2612.000000 0.1812 0.1812 0.1812 0.1811 0.1811
2617.000000 0.1810 0.1809 0.1806 0.1804 0.1800
2622.000000 0.1796 0.1794 0.1791 0.1786 0.1784
2627.000000 0.1778 0.1773 0.1766 0.1759 0.1752
2632.000000 0.1745 0.1739 0.1733 0.1726 0.1720
2637.000000 0.1714 0.1708 0.1704 0.1700 0.1694
2642.000000 0.1691 0.1685 0.1682 0.1677 0.1673
2647.000000 0.1668 0.1664 0.1659 0.1654 0.1650
2652.000000 0.1644 0.1640 0.1634 0.1629 0.1624
2657.000000 0.1619 0.1614 0.1609 0.1604 0.1598
2662.000000 0.1592 0.1588 0.1584 0.1579 0.1575
2667.000000 0.1571 0.1567 0.1562 0.1558 0.1553
2672.000000 0.1549 0.1545 0.1541 0.1537 0.1533
2677.000000 0.1529 0.1525 0.1521 0.1517 0.1513
2682.000000 0.1510 0.1506 0.1502 0.1498 0.1494
2687.000000 0.1490 0.1486 0.1482 0.1479 0.1475
2692.000000 0.1472 0.1469 0.1466 0.1462 0.1459
2697.000000 0.1456 0.1453 0.1450 0.1446 0.1444
2702.000000 0.1441 0.1438 0.1435 0.1432 0.1429
2707.000000 0.1426 0.1424 0.1421 0.1418 0.1415
2712.000000 0.1413 0.1410 0.1408 0.1405 0.1402
2717.000000 0.1399 0.1396 0.1394 0.1391 0.1389
2722.000000 0.1387 0.1385 0.1384 0.1382 0.1380
2727.000000 0.1378 0.1376 0.1374 0.1373 0.1371
2732.000000 0.1369 0.1367 0.1365 0.1362 0.1360
2737.000000 0.1357 0.1355 0.1352 0.1349 0.1346
2742.000000 0.1344 0.1341 0.1339 0.1336 0.1333
2747.000000 0.1330 0.1328 0.1325 0.1323 0.1320
2752.000000 0.1317 0.1313 0.1309 0.1304 0.1299
2757.000000 0.1294 0.1290 0.1285 0.1281 0.1275
2762.000000 0.1270 0.1264 0.1258 0.1252 0.1246
2767.000000 0.1241 0.1235 0.1229 0.1224 0.1218
2772.000000 0.1212 0.1206 0.1201 0.1195 0.1189
2777.000000 0.1183 0.1177 0.1171 0.1165 0.1159
2782.000000 0.1153 0.1146 0.1141 0.1137 0.1134
2787.000000 0.1132 0.1130 0.1128 0.1126 0.1124
2792.000000 0.1140 0.1120 0.1120 0.1120 0.1121
2797.000000 0.1121 0.1122 0.1123 0.1124 0.1125
2802.000000 0.1127 0.1129 0.1132 0.1134 0.1137
2807.000000 0.1139 0.1142 0.1144 0.1146 0.1149
2812.000000 0.1151 0.1153 0.1156 0.1158 0.1161
2817.000000 0.1163 0.1166 0.1170 0.1174 0.1176
2822.000000 0.1179 0.1181 0.1184 0.1186 0.1189
2827.000000 0.1191 0.1194 0.1196 0.1199 0.1199
2832.000000 0.1200 0.1195 0.1191 0.1186 0.1182
2837.000000 0.1177 0.1173 0.1168 0.1163 0.1158
2842.000000 0.1154 0.1145 0.1137 0.1129 0.1121
2847.000000 0.1112 0.1104 0.1095 0.1086 0.1075
2852.000000 0.1065 0.1063 0.1064 0.1064 0.1066
2857.000000 0.1068 0.1070 0.1072 0.1074 0.1076
2862.000000 0.1078 0.1080 0.1082 0.1084 0.1087
2867.000000 0.1090 0.1092 0.1099 0.1105 0.1113
2872.000000 0.1121 0.1130 0.1139 0.1150 0.1161
2877.000000 0.1172 0.1183 0.1195 0.1208 0.1220
2882.000000 0.1233 0.1245 0.1258 0.1270 0.1283
2887.000000 0.1295 0.1308 0.1321 0.1334 0.1346
2892.000000 0.1360 0.1373 0.1386 0.1398 0.1410
2897.000000 0.1420 0.1431 0.1441 0.1452 0.1460
2902.000000 0.1468 0.1471 0.1475 0.1479 0.1483
2907.000000 0.1483 0.1483 0.1482 0.1482 0.1481
2912.000000 0.1481 0.1482 0.1483 0.1478 0.1476
2917.000000 0.1473 0.1470 0.1467 0.1464 0.1461
2922.000000 0.1458 0.1455 0.1452 0.1448 0.1444
2927.000000 0.1438 0.1432 0.1425 0.1419 0.1412
2932.000000 0.1405 0.1396 0.1389 0.1380 0.1372
2937.000000 0.1363 0.1355 0.1346 0.1338 0.1330
2942.000000 0.1322 0.1313 0.1305 0.1295 0.1285
2947.000000 0.1274 0.1263 0.1252 0.1241 0.1230
2952.000000 0.1220 0.1212 0.1205 0.1196 0.1190
2957.000000 0.1182 0.1174 0.1166 0.1159 0.1151
2962.000000 0.1142 0.1135 0.1128 0.1121 0.1114
2967.000000 0.1107 0.1101 0.1094 0.1087 0.1080
2972.000000 0.1073 0.1066 0.1059 0.1052 0.1046
2977.000000 0.1041 0.1037 0.1034 0.1031 0.1027
2982.000000 0.1024 0.1024 0.1024 0.1025 0.1026
2987.000000 0.1027 0.1027 0.1027 0.1026 0.1025
2992.000000 0.1024 0.1022 0.1022 0.1021 0.1020
2997.000000 0.1019 0.1018 0.1017 0.1016 0.1013
3002.000000 0.1011 0.1008 0.1005 0.1000 0.0996
3007.000000 0.0988 0.0980 0.0972 0.0965 0.0957
3012.000000 0.0950 0.0942 0.0935 0.0926 0.0920
3017.000000 0.0914 0.0908 0.0902 0.0896 0.0891
3022.000000 0.0886 0.0880 0.0875 0.0870 0.0866
3027.000000 0.0862 0.0858 0.0854 0.0850 0.0846
3032.000000 0.0842 0.0838 0.0834 0.0830 0.0826
3037.000000 0.0822 0.0820 0.0818 0.0816 0.0814
3042.000000 0.0812 0.0810 0.0808 0.0806 0.0805
3047.000000 0.0804 0.0804 0.0804 0.0804 0.0804
3052.000000 0.0805 0.0805 0.0806 0.0806 0.0807
3057.000000 0.0810 0.0813 0.0816 0.0819 0.0822
3062.000000 0.0825 0.0828 0.0831 0.0834 0.0837
3067.000000 0.0839 0.0842 0.0846 0.0851 0.0856
3072.000000 0.0861 0.0865 0.0870 0.0874 0.0879
3077.000000 0.0883 0.0888 0.0892 0.0896 0.0900
3082.000000 0.0904 0.0908 0.0912 0.0916 0.0920
3087.000000 0.0924 0.0929 0.0933 0.0937 0.0941
3092.000000 0.0945 0.0946 0.0950 0.0952 0.0954
3097.000000 0.0956 0.0959 0.0961 0.0964 0.0966
3102.000000 0.0968 0.0969 0.0971 0.0972 0.0974
3107.000000 0.0975 0.0976 0.0978 0.0980 0.0983
3112.000000 0.0986 0.0989 0.0992 0.0995 0.0999
3117.000000 0.1002 0.1006 0.1009 0.1012 0.1015
3122.000000 0.1019 0.1022 0.1025 0.1028 0.1032
3127.000000 0.1035 0.1038 0.1041 0.1044 0.1046
3132.000000 0.1051 0.1054 0.1057 0.1060 0.1064
3137.000000 0.1067 0.1070 0.1073 0.1076 0.1079
3142.000000 0.1082 0.1084 0.1086 0.1088 0.1090
3147.000000 0.1091 0.1092 0.1095 0.1096 0.1099
3152.000000 0.1101 0.1102 0.1104 0.1107 0.1110
3157.000000 0.1114 0.1118 0.1121 0.1125 0.1128
3162.000000 0.1132 0.1136 0.1140 0.1142 0.1146
3167.000000 0.1150 0.1154 0.1160 0.1166 0.1171
3172.000000 0.1177 0.1182 0.1188 0.1192 0.1198
3177.000000 0.1202 0.1207 0.1212 0.1217 0.1222
3182.000000 0.1227 0.1231 0.1236 0.1241 0.1246
3187.000000 0.1250 0.1255 0.1260 0.1265 0.1269
3192.000000 0.1274 0.1278 0.1283 0.1288 0.1292
3197.000000 0.1296 0.1302 0.1307 0.1312 0.1317
3202.000000 0.1322 0.1326 0.1331 0.1336 0.1341
3207.000000 0.1346 0.1351 0.1355 0.1360 0.1365
3212.000000 0.1370 0.1375 0.1380 0.1384 0.1389
3217.000000 0.1392 0.1398 0.1400 0.1403 0.1404
3222.000000 0.1405 0.1406 0.1408 0.1409 0.1411
3227.000000 0.1412 0.1413 0.1414 0.1416 0.1417
3232.000000 0.1419 0.1420 0.1422 0.1423 0.1425
3237.000000 0.1426 0.1427 0.1428 0.1430 0.1432
3242.000000 0.1435 0.1437 0.1440 0.1442 0.1445
3247.000000 0.1446 0.1450 0.1452 0.1455 0.1457
3252.000000 0.1460 0.1462 0.1465 0.1467 0.1470
3257.000000 0.1473 0.1476 0.1479 0.1483 0.1486
3262.000000 0.1489 0.1492 0.1496 0.1499 0.1502
3267.000000 0.1505 0.1509 0.1512 0.1515 0.1518
3272.000000 0.1521 0.1524 0.1527 0.1530 0.1533
3277.000000 0.1536 0.1539 0.1542 0.1545 0.1548
3282.000000 0.1551 0.1554 0.1557 0.1560 0.1563
3287.000000 0.1566 0.1569 0.1572 0.1575 0.1577
3292.000000 0.1580 0.1583 0.1587 0.1590 0.1592
3297.000000 0.1596 0.1600 0.1604 0.1608 0.1613
3302.000000 0.1619 0.1624 0.1629 0.1634 0.1641
3307.000000 0.1645 0.1652 0.1657 0.1663 0.1668
3312.000000 0.1674 0.1679 0.1684 0.1690 0.1695
3317.000000 0.1701 0.1707 0.1712 0.1718 0.1724
3322.000000 0.1729 0.1737 0.1746 0.1754 0.1764
3327.000000 0.1772 0.1781 0.1789 0.1796 0.1804
3332.000000 0.1814 0.1822 0.1831 0.1839 0.1848
3337.000000 0.1856 0.1865 0.1873 0.1881 0.1887
3342.000000 0.1895 0.1903 0.1910 0.1917 0.1924
3347.000000 0.1931 0.1937 0.1944 0.1952 0.1963
3352.000000 0.1975 0.1985 0.1998 0.2009 0.2020
3357.000000 0.2029 0.2041 0.2051 0.2062 0.2072
3362.000000 0.2083 0.2093 0.2104 0.2115 0.2126
3367.000000 0.2137 0.2148 0.2159 0.2170 0.2181
3372.000000 0.2192 0.2203 0.2214 0.2225 0.2237
3377.000000 0.2251 0.2265 0.2278 0.2292 0.2305
3382.000000 0.2319 0.2332 0.2346 0.2359 0.2373
3387.000000 0.2389 0.2405 0.2424 0.2444 0.2463
3392.000000 0.2483 0.2502 0.2522 0.2541 0.2561
3397.000000 0.2580 0.2600 0.2618 0.2637 0.2656
3402.000000 0.2675 0.2694 0.2713 0.2730 0.2748
3407.000000 0.2765 0.2783 0.2801 0.2819 0.2835
3412.000000 0.2854 0.2871 0.2889 0.2907 0.2925
3417.000000 0.2942 0.2960 0.2980 0.3000 0.3025
3422.000000 0.3051 0.3077 0.3103 0.3129 0.3155
3427.000000 0.3180 0.3206 0.3232 0.3258 0.3286
3432.000000 0.3314 0.3343 0.3372 0.3400 0.3429
3437.000000 0.3458 0.3487 0.3514 0.3544 0.3577
3442.000000 0.3609 0.3646 0.3682 0.3718 0.3754
3447.000000 0.3789 0.3825 0.3864 0.3904 0.3948
3452.000000 0.3993 0.4037 0.4080 0.4125 0.4169
3457.000000 0.4206 0.4244 0.4281 0.4319 0.4356
3462.000000 0.4394 0.4431 0.4469 0.4515 0.4560
3467.000000 0.4612 0.4665 0.4715 0.4765 0.4800
3472.000000 0.4836 0.4871 0.4907 0.4942 0.4977
3477.000000 0.5012 0.5048 0.5084 0.5120 0.5156
3482.000000 0.5192 0.5228 0.5264 0.5300 0.5336
3487.000000 0.5377 0.5419 0.5460 0.5502 0.5543
3492.000000 0.5585 0.5626 0.5668 0.5706 0.5744
3497.000000 0.5781 0.5819 0.5856 0.5894 0.5933
3502.000000 0.5972 0.6012 0.6052 0.6091 0.6131
3507.000000 0.6170 0.6210 0.6252 0.6294 0.6342
3512.000000 0.6390 0.6437 0.6485 0.6526 0.6568
3517.000000 0.6606 0.6643 0.6678 0.6715 0.6745
3522.000000 0.6774 0.6793 0.6812 0.6833 0.6853
3527.000000 0.6871 0.6892 0.6912 0.6934 0.6956
3532.000000 0.6978 0.7001 0.7022 0.7100 0.7178
3537.000000 0.7250 0.7321 0.7361 0.7403 0.7435
3542.000000 0.7468 0.7496 0.7524 0.7551 0.7578
3547.000000 0.7607 0.7635 0.7661 0.7690 0.7717
3552.000000 0.7745 0.7776 0.7810 0.7855 0.7900
3557.000000 0.7940 0.7980 0.8015 0.8051 0.8076
3562.000000 0.8103 0.8125 0.8150 0.8168 0.8186
3567.000000 0.8203 0.8221 0.8234 0.8247 0.8259
3572.000000 0.8271 0.8284 0.8297 0.8321 0.8348
3577.000000 0.8423 0.8498 0.8550 0.8602 0.8632
3582.000000 0.8662 0.8682 0.8702 0.8721 0.8742
3587.000000 0.8762 0.8782 0.8802 0.8823 0.8843
3592.000000 0.8863 0.8883 0.8904 0.8923 0.8943
3597.000000 0.8957 0.8971 0.8986 0.9001 0.9015
3602.000000 0.9030 0.9045 0.9060 0.9071 0.9083
3607.000000 0.9094 0.9106 0.9117 0.9128 0.9140
3612.000000 0.9152 0.9163 0.9175 0.9185 0.9196
3617.000000 0.9205 0.9215 0.9225 0.9235 0.9244
3622.000000 0.9254 0.9264 0.9274 0.9283 0.9293
3627.000000 0.9303 0.9313 0.9323 0.9333 0.9343
3632.000000 0.9353 0.9363 0.9373 0.9382 0.9392
3637.000000 0.9401 0.9410 0.9416 0.9423 0.9428
3642.000000 0.9436 0.9442 0.9449 0.9455 0.9462
3647.000000 0.9468 0.9475 0.9480 0.9486 0.9489
3652.000000 0.9492 0.9494 0.9497 0.9500 0.9503
3657.000000 0.9505 0.9508 0.9510 0.9512 0.9513
3662.000000 0.9515 0.9516 0.9518 0.9518 0.9520
3667.000000 0.9521 0.9523 0.9524 0.9525 0.9527
3672.000000 0.9528 0.9528 0.9531 0.9531 0.9531
3677.000000 0.9531 0.9531 0.9531 0.9531 0.9531
3682.000000 0.9531 0.9531 0.9531 0.9530 0.9542
3687.000000 0.9527 0.9525 0.9524 0.9521 0.9520
3692.000000 0.9518 0.9516 0.9514 0.9511 0.9509
3697.000000 0.9505 0.9502 0.9499 0.9496 0.9493
3702.000000 0.9490 0.9487 0.9484 0.9480 0.9477
3707.000000 0.9473 0.9470 0.9466 0.9463 0.9459
3712.000000 0.9456 0.9452 0.9449 0.9446 0.9443
3717.000000 0.9440 0.9437 0.9434 0.9432 0.9428
3722.000000 0.9425 0.9423 0.9421 0.9418 0.9415
3727.000000 0.9412 0.9410 0.9407 0.9404 0.9401
3732.000000 0.9399 0.9395 0.9392 0.9389 0.9386
3737.000000 0.9383 0.9380 0.9375 0.9373 0.9370
3742.000000 0.9367 0.9364 0.9361 0.9357 0.9354
3747.000000 0.9351 0.9348 0.9345 0.9343 0.9340
3752.000000 0.9337 0.9334 0.9331 0.9328 0.9325
3757.000000 0.9321 0.9318 0.9316 0.9313 0.9310
3762.000000 0.9307 0.9304 0.9301 0.9298 0.9296
3767.000000 0.9293 0.9290 0.9287 0.9284 0.9281
3772.000000 0.9278 0.9275 0.9271 0.9268 0.9266
3777.000000 0.9263 0.9261 0.9258 0.9255 0.9252
3782.000000 0.9249 0.9246 0.9243 0.9240 0.9237
3787.000000 0.9234 0.9231 0.9228 0.9225 0.9221
3792.000000 0.9218 0.9216 0.9213 0.9210 0.9207
3797.000000 0.9204 0.9201 0.9201 0.9201
##END=
