##TITLE=Carbamic acid, diethyldithio-, sodium salt, trihydrate
##JCAMP-DX=4.24
##DATA TYPE=INFRARED SPECTRUM
##CLASS=COBLENTZ III
##ORIGIN=K. K. DEB-NCI FREDERICK CANCER RESEARCH CENTER
##OWNER=Copyright (C) 1987 by the Coblentz Society
Collection (C) 2018 copyright by the U.S. Secretary of Commerce
on behalf of the United States of America. All rights reserved.
##DATE=1973/10/04
##NAMES=SDDC
##MOLFORM=C5 H10 N S2 Na  * 3 H2 O
##MP=91 C
##SOURCE REFERENCE=COBLENTZ NO. 9026
##$NIST ID=B6009026
##$NIST SOURCE=COBLENTZ
##$NIST IMAGE=cob9026
##SPECTROMETER/DATA SYSTEM=PERKIN-ELMER 180 (GRATING)
##INSTRUMENT PARAMETERS=GRATINGS: 2000, 1000, 500, 250 CM^-^1; FILTER CHANGE: 2970, 2000, 1485, 1000, 743, 500, 372, 250, 186 CM^-^1.
##STATE=SOLID (1 mg / 300 mg KBr DISC)
$$ PURITY - ANALYTICAL
##PATH LENGTH=SCALE ATTENUATION INCREASED 1.7 x
##SAMPLING PROCEDURE=TRANSMISSION
##RESOLUTION=2
##DATA PROCESSING=DIGITIZED BY COBLENTZ SOCIETY (BATCH II) FROM HARD COPY
##XUNITS=1/CM
##YUNITS=TRANSMITTANCE
##XFACTOR=1.0
##YFACTOR=1
##FIRSTX=388
##LASTX=3788
##FIRSTY=0.2747
##MAXX=3788
##MINX=388
##MAXY=0.9471
##MINY=0.1001
##NPOINTS=3401
##XYDATA=(X++(Y..Y))
388.000000 0.2747 0.2588 0.2429 0.2270 0.2149
393.000000 0.2127 0.2153 0.2453 0.2849 0.3245
398.000000 0.3642 0.4038 0.4434 0.4831 0.4977
403.000000 0.4977 0.4976 0.4994 0.4966 0.4955
408.000000 0.4929 0.4870 0.4749 0.4628 0.4507
413.000000 0.4385 0.4264 0.4143 0.4022 0.3900
418.000000 0.3779 0.3658 0.3536 0.3415 0.3294
423.000000 0.3173 0.3051 0.2973 0.2967 0.2988
428.000000 0.3068 0.3153 0.3238 0.3323 0.3408
433.000000 0.3454 0.3432 0.3368 0.3296 0.3225
438.000000 0.3153 0.3082 0.3010 0.2939 0.2867
443.000000 0.2796 0.2724 0.2653 0.2581 0.2510
448.000000 0.2438 0.2367 0.2309 0.2268 0.2228
453.000000 0.2189 0.2150 0.2108 0.2065 0.2023
458.000000 0.1980 0.1938 0.1896 0.1861 0.1827
463.000000 0.1792 0.1759 0.1732 0.1704 0.1676
468.000000 0.1659 0.1641 0.1634 0.1611 0.1635
473.000000 0.1641 0.1647 0.1662 0.1681 0.1704
478.000000 0.1729 0.1754 0.1780 0.1817 0.1861
483.000000 0.1915 0.1969 0.2021 0.2073 0.2121
488.000000 0.2151 0.2181 0.2209 0.2232 0.2255
493.000000 0.2259 0.2261 0.2263 0.2257 0.2248
498.000000 0.2237 0.2224 0.2210 0.2196 0.2185
503.000000 0.2181 0.2179 0.2179 0.2182 0.2194
508.000000 0.2208 0.2220 0.2220 0.2220 0.2216
513.000000 0.2206 0.2191 0.2172 0.2154 0.2114
518.000000 0.2077 0.2040 0.2000 0.1958 0.1917
523.000000 0.1882 0.1847 0.1813 0.1780 0.1750
528.000000 0.1719 0.1689 0.1666 0.1642 0.1618
533.000000 0.1594 0.1573 0.1557 0.1540 0.1524
538.000000 0.1507 0.1492 0.1480 0.1469 0.1457
543.000000 0.1446 0.1435 0.1425 0.1415 0.1404
548.000000 0.1395 0.1389 0.1383 0.1376 0.1370
553.000000 0.1363 0.1354 0.1346 0.1338 0.1329
558.000000 0.1317 0.1300 0.1283 0.1266 0.1254
563.000000 0.1244 0.1236 0.1237 0.1240 0.1240
568.000000 0.1272 0.1295 0.1319 0.1343 0.1368
573.000000 0.1394 0.1424 0.1453 0.1483 0.1526
578.000000 0.1572 0.1618 0.1663 0.1707 0.1752
583.000000 0.1797 0.1842 0.1887 0.1932 0.1978
588.000000 0.2023 0.2068 0.2114 0.2159 0.2204
593.000000 0.2250 0.2295 0.2340 0.2386 0.2431
598.000000 0.2476 0.2522 0.2567 0.2612 0.2657
603.000000 0.2703 0.2784 0.2826 0.2845 0.2855
608.000000 0.2866 0.2879 0.2893 0.2938 0.2987
613.000000 0.3034 0.3081 0.3148 0.3215 0.3268
618.000000 0.3318 0.3368 0.3417 0.3466 0.3515
623.000000 0.3564 0.3611 0.3658 0.3696 0.3728
628.000000 0.3761 0.3789 0.3798 0.3806 0.3815
633.000000 0.3819 0.3819 0.3820 0.3820 0.3842
638.000000 0.3814 0.3809 0.3805 0.3801 0.3797
643.000000 0.3792 0.3787 0.3782 0.3777 0.3772
648.000000 0.3766 0.3761 0.3755 0.3750 0.3744
653.000000 0.3739 0.3733 0.3727 0.3723 0.3720
658.000000 0.3717 0.3713 0.3710 0.3708 0.3702
663.000000 0.3710 0.3711 0.3711 0.3712 0.3719
668.000000 0.3725 0.3732 0.3742 0.3755 0.3768
673.000000 0.3781 0.3793 0.3806 0.3826 0.3846
678.000000 0.3867 0.3887 0.3911 0.3938 0.3966
683.000000 0.3993 0.4021 0.4049 0.4079 0.4108
688.000000 0.4140 0.4176 0.4211 0.4245 0.4263
693.000000 0.4282 0.4300 0.4308 0.4314 0.4316
698.000000 0.4335 0.4314 0.4309 0.4301 0.4292
703.000000 0.4277 0.4261 0.4241 0.4221 0.4200
708.000000 0.4171 0.4142 0.4114 0.4088 0.4062
713.000000 0.4036 0.4012 0.3991 0.3969 0.3948
718.000000 0.3927 0.3910 0.3895 0.3881 0.3866
723.000000 0.3855 0.3852 0.3848 0.3848 0.3848
728.000000 0.3848 0.3842 0.3849 0.3851 0.3854
733.000000 0.3857 0.3860 0.3865 0.3875 0.3886
738.000000 0.3896 0.3910 0.3936 0.3962 0.3992
743.000000 0.4033 0.4074 0.4115 0.4166 0.4221
748.000000 0.4280 0.4354 0.4428 0.4502 0.4576
753.000000 0.4650 0.4724 0.4798 0.4872 0.4946
758.000000 0.5020 0.5094 0.5168 0.5242 0.5316
763.000000 0.5330 0.5332 0.5355 0.5319 0.5301
768.000000 0.5172 0.5032 0.4892 0.4752 0.4612
773.000000 0.4472 0.4332 0.4167 0.4171 0.4177
778.000000 0.4381 0.4659 0.4937 0.5215 0.5493
783.000000 0.5771 0.6045 0.6204 0.6343 0.6428
788.000000 0.6519 0.6635 0.6745 0.6849 0.6934
793.000000 0.6995 0.7057 0.7118 0.7169 0.7219
798.000000 0.7269 0.7303 0.7335 0.7368 0.7400
803.000000 0.7420 0.7437 0.7447 0.7449 0.7451
808.000000 0.7453 0.7455 0.7469 0.7450 0.7445
813.000000 0.7435 0.7425 0.7410 0.7396 0.7369
818.000000 0.7334 0.7292 0.7242 0.7178 0.7114
823.000000 0.7015 0.6908 0.6736 0.6579 0.6460
828.000000 0.6302 0.5906 0.5392 0.4878 0.4364
833.000000 0.3850 0.3335 0.2821 0.2352 0.2346
838.000000 0.3021 0.3840 0.4659 0.5478 0.6297
843.000000 0.7041 0.7158 0.7331 0.7420 0.7509
848.000000 0.7653 0.7703 0.7733 0.7752 0.7771
853.000000 0.7773 0.7787 0.7769 0.7764 0.7756
858.000000 0.7744 0.7730 0.7714 0.7695 0.7661
863.000000 0.7615 0.7570 0.7528 0.7485 0.7443
868.000000 0.7395 0.7341 0.7286 0.7229 0.7162
873.000000 0.7095 0.7029 0.6966 0.6907 0.6847
878.000000 0.6788 0.6721 0.6649 0.6578 0.6503
883.000000 0.6414 0.6324 0.6244 0.6177 0.6111
888.000000 0.6045 0.5979 0.5850 0.5714 0.5280
893.000000 0.5132 0.5004 0.4897 0.4790 0.4677
898.000000 0.4253 0.3877 0.3501 0.3124 0.2748
903.000000 0.2372 0.1996 0.1732 0.1565 0.1446
908.000000 0.1264 0.1130 0.1143 0.1133 0.1161
913.000000 0.1587 0.2016 0.2445 0.2875 0.3304
918.000000 0.3733 0.4162 0.4592 0.5021 0.5450
923.000000 0.5879 0.6309 0.6594 0.6675 0.6770
928.000000 0.6870 0.6941 0.7006 0.7040 0.7073
933.000000 0.7089 0.7101 0.7099 0.7092 0.7086
938.000000 0.7078 0.7065 0.7048 0.7009 0.6965
943.000000 0.6899 0.6829 0.6751 0.6667 0.6524
948.000000 0.6381 0.6238 0.6095 0.5953 0.5810
953.000000 0.5667 0.5524 0.5382 0.5239 0.5096
958.000000 0.4953 0.4810 0.4668 0.4477 0.4341
963.000000 0.4240 0.4151 0.4069 0.3998 0.3868
968.000000 0.3675 0.3482 0.3289 0.3095 0.2902
973.000000 0.2709 0.2516 0.2323 0.2130 0.1937
978.000000 0.1744 0.1551 0.1382 0.1289 0.1208
983.000000 0.1141 0.1118 0.1117 0.1129 0.1145
988.000000 0.1172 0.1221 0.1319 0.1434 0.1522
993.000000 0.1609 0.1758 0.1971 0.2133 0.2231
998.000000 0.2297 0.2357 0.2789 0.3249 0.3709
1003.000000 0.4168 0.4628 0.5087 0.5350 0.5493
1008.000000 0.5739 0.6246 0.6482 0.6543 0.6603
1013.000000 0.6665 0.6747 0.6829 0.6911 0.6982
1018.000000 0.7048 0.7115 0.7180 0.7239 0.7299
1023.000000 0.7332 0.7358 0.7376 0.7384 0.7407
1028.000000 0.7385 0.7381 0.7376 0.7366 0.7352
1033.000000 0.7334 0.7316 0.7295 0.7270 0.7245
1038.000000 0.7202 0.7159 0.7116 0.7074 0.7029
1043.000000 0.6974 0.6918 0.6862 0.6803 0.6722
1048.000000 0.6640 0.6535 0.6394 0.6115 0.5727
1053.000000 0.5339 0.4950 0.4562 0.4174 0.3786
1058.000000 0.3398 0.3009 0.2621 0.2233 0.2028
1063.000000 0.2022 0.2483 0.2997 0.3510 0.3729
1068.000000 0.3732 0.3610 0.3309 0.3007 0.2706
1073.000000 0.2405 0.2313 0.2688 0.3156 0.3623
1078.000000 0.4091 0.4558 0.5026 0.5494 0.5512
1083.000000 0.5509 0.5487 0.5315 0.5144 0.4973
1088.000000 0.4801 0.4630 0.4588 0.4589 0.4695
1093.000000 0.4867 0.5040 0.5212 0.5385 0.5557
1098.000000 0.5729 0.5902 0.6031 0.6020 0.6014
1103.000000 0.5996 0.5939 0.5853 0.5776 0.5712
1108.000000 0.5578 0.5388 0.5198 0.5007 0.4817
1113.000000 0.4627 0.4437 0.4246 0.4056 0.3866
1118.000000 0.3676 0.3485 0.3295 0.3105 0.2914
1123.000000 0.2724 0.2534 0.2344 0.2153 0.1963
1128.000000 0.1773 0.1693 0.1690 0.1695 0.2044
1133.000000 0.2455 0.2866 0.3277 0.3688 0.4099
1138.000000 0.4510 0.4921 0.5332 0.5605 0.5745
1143.000000 0.5886 0.6027 0.6184 0.6305 0.6389
1148.000000 0.6433 0.6472 0.6487 0.6501 0.6515
1153.000000 0.6519 0.6521 0.6537 0.6520 0.6514
1158.000000 0.6506 0.6492 0.6473 0.6447 0.6408
1163.000000 0.6351 0.6281 0.6196 0.6105 0.5996
1168.000000 0.5881 0.5780 0.5692 0.5681 0.5671
1173.000000 0.5662 0.5655 0.5649 0.5636 0.5586
1178.000000 0.5514 0.5446 0.5380 0.5304 0.5228
1183.000000 0.5152 0.5084 0.5018 0.4953 0.4841
1188.000000 0.4075 0.3862 0.3650 0.3437 0.3224
1193.000000 0.3011 0.2799 0.2586 0.2373 0.2160
1198.000000 0.1948 0.1735 0.1522 0.1309 0.1097
1203.000000 0.1090 0.1086 0.1238 0.1575 0.1912
1208.000000 0.2250 0.2587 0.2924 0.3262 0.3599
1213.000000 0.3936 0.4274 0.4611 0.4948 0.5286
1218.000000 0.5528 0.5673 0.5789 0.5896 0.5980
1223.000000 0.6064 0.6106 0.6135 0.6164 0.6170
1228.000000 0.6188 0.6163 0.6150 0.6136 0.6111
1233.000000 0.6082 0.6019 0.5956 0.5896 0.5838
1238.000000 0.5780 0.5556 0.5330 0.5104 0.4878
1243.000000 0.4652 0.4426 0.4200 0.3974 0.3748
1248.000000 0.3522 0.3296 0.3070 0.2844 0.2618
1253.000000 0.2392 0.2166 0.1940 0.1412 0.1260
1258.000000 0.1194 0.1138 0.1097 0.1082 0.1100
1263.000000 0.1110 0.1171 0.1233 0.1590 0.2020
1268.000000 0.2449 0.2878 0.3307 0.3736 0.4165
1273.000000 0.4594 0.5023 0.5453 0.5745 0.5933
1278.000000 0.5996 0.6013 0.6017 0.6002 0.6003
1283.000000 0.5988 0.5955 0.5900 0.5816 0.5731
1288.000000 0.5616 0.5277 0.4851 0.4425 0.4000
1293.000000 0.3574 0.3148 0.2722 0.2297 0.1933
1298.000000 0.1933 0.1945 0.2681 0.3264 0.3847
1303.000000 0.4429 0.5012 0.5595 0.5938 0.6045
1308.000000 0.6127 0.6208 0.6301 0.6401 0.6510
1313.000000 0.6625 0.6767 0.6938 0.7060 0.7097
1318.000000 0.7134 0.7152 0.7167 0.7161 0.7174
1323.000000 0.7165 0.7133 0.7084 0.7022 0.6966
1328.000000 0.6911 0.6814 0.6725 0.6649 0.6564
1333.000000 0.6466 0.6341 0.6122 0.5886 0.5651
1338.000000 0.5415 0.5180 0.4945 0.4709 0.4474
1343.000000 0.4438 0.4442 0.4544 0.4646 0.4697
1348.000000 0.4698 0.4407 0.4099 0.3791 0.3483
1353.000000 0.3175 0.2867 0.2559 0.2411 0.2407
1358.000000 0.2975 0.3413 0.3851 0.4289 0.4797
1363.000000 0.4785 0.4542 0.4275 0.4008 0.3741
1368.000000 0.3592 0.3582 0.3568 0.3358 0.3122
1373.000000 0.2886 0.2650 0.2414 0.2178 0.1941
1378.000000 0.1840 0.1965 0.2276 0.2586 0.2897
1383.000000 0.3207 0.3518 0.3828 0.4139 0.4449
1388.000000 0.4835 0.4822 0.4814 0.4790 0.4606
1393.000000 0.4407 0.4208 0.4008 0.3809 0.3610
1398.000000 0.3410 0.3211 0.3012 0.2812 0.2613
1403.000000 0.2414 0.2214 0.2015 0.1816 0.1616
1408.000000 0.1417 0.1218 0.1086 0.1031 0.1027
1413.000000 0.1001 0.1052 0.1354 0.1656 0.1958
1418.000000 0.2260 0.2562 0.2865 0.3167 0.3469
1423.000000 0.3771 0.4073 0.4375 0.4677 0.4884
1428.000000 0.4869 0.4676 0.4483 0.4289 0.4096
1433.000000 0.4140 0.4078 0.4518 0.4707 0.4897
1438.000000 0.5086 0.5136 0.4955 0.4741 0.4527
1443.000000 0.4313 0.4099 0.3885 0.3671 0.3457
1448.000000 0.3243 0.3028 0.2814 0.2600 0.2386
1453.000000 0.2172 0.1958 0.1949 0.1937 0.2310
1458.000000 0.2491 0.2673 0.2855 0.3036 0.3218
1463.000000 0.3281 0.3273 0.3106 0.2890 0.2675
1468.000000 0.2460 0.2245 0.2030 0.1815 0.1600
1473.000000 0.1385 0.1169 0.1016 0.1026 0.1077
1478.000000 0.1401 0.1725 0.2048 0.2372 0.2696
1483.000000 0.3019 0.3343 0.3667 0.3991 0.4314
1488.000000 0.4638 0.4962 0.5286 0.5483 0.5570
1493.000000 0.5676 0.5804 0.5973 0.6048 0.6121
1498.000000 0.6198 0.6330 0.6461 0.6589 0.6717
1503.000000 0.6993 0.7158 0.7309 0.7425 0.7520
1508.000000 0.7615 0.7701 0.7768 0.7836 0.7900
1513.000000 0.7958 0.8015 0.8074 0.8141 0.8207
1518.000000 0.8251 0.8288 0.8324 0.8355 0.8382
1523.000000 0.8409 0.8436 0.8463 0.8475 0.8485
1528.000000 0.8496 0.8507 0.8513 0.8514 0.8514
1533.000000 0.8523 0.8513 0.8511 0.8508 0.8506
1538.000000 0.8494 0.8481 0.8469 0.8451 0.8426
1543.000000 0.8400 0.8375 0.8349 0.8313 0.8277
1548.000000 0.8241 0.8199 0.8154 0.8108 0.8064
1553.000000 0.8023 0.7981 0.7955 0.7928 0.7911
1558.000000 0.7895 0.7916 0.7923 0.7936 0.7962
1563.000000 0.7996 0.8029 0.8069 0.8109 0.8149
1568.000000 0.8187 0.8225 0.8262 0.8297 0.8333
1573.000000 0.8368 0.8403 0.8439 0.8474 0.8509
1578.000000 0.8532 0.8551 0.8569 0.8571 0.8582
1583.000000 0.8571 0.8570 0.8565 0.8551 0.8537
1588.000000 0.8515 0.8492 0.8463 0.8427 0.8391
1593.000000 0.8348 0.8302 0.8256 0.8199 0.8134
1598.000000 0.8068 0.7958 0.7759 0.7526 0.7292
1603.000000 0.7058 0.6825 0.6591 0.6357 0.6123
1608.000000 0.5916 0.5759 0.5658 0.5432 0.5350
1613.000000 0.5269 0.5203 0.5160 0.5141 0.5145
1618.000000 0.5151 0.5328 0.5491 0.5654 0.5818
1623.000000 0.5981 0.6145 0.6308 0.6471 0.6635
1628.000000 0.6798 0.6961 0.7125 0.7289 0.7343
1633.000000 0.7416 0.7456 0.7479 0.7467 0.7459
1638.000000 0.7444 0.7428 0.7412 0.7397 0.7383
1643.000000 0.7375 0.7371 0.7360 0.7307 0.7245
1648.000000 0.7174 0.7113 0.7054 0.6999 0.6953
1653.000000 0.6906 0.6860 0.6703 0.6517 0.6332
1658.000000 0.6147 0.5962 0.5776 0.5591 0.5406
1663.000000 0.5221 0.5035 0.4850 0.4665 0.4480
1668.000000 0.4294 0.4109 0.3924 0.3906 0.3906
1673.000000 0.4084 0.4303 0.4523 0.4743 0.4963
1678.000000 0.5183 0.5402 0.5622 0.5842 0.6062
1683.000000 0.6281 0.6501 0.6721 0.6941 0.7161
1688.000000 0.7380 0.7600 0.7887 0.8052 0.8144
1693.000000 0.8233 0.8301 0.8368 0.8435 0.8480
1698.000000 0.8522 0.8564 0.8606 0.8646 0.8682
1703.000000 0.8718 0.8753 0.8786 0.8813 0.8840
1708.000000 0.8867 0.8894 0.8921 0.8946 0.8964
1713.000000 0.8982 0.8999 0.9017 0.9034 0.9052
1718.000000 0.9066 0.9080 0.9094 0.9107 0.9121
1723.000000 0.9135 0.9149 0.9161 0.9170 0.9180
1728.000000 0.9189 0.9199 0.9208 0.9218 0.9223
1733.000000 0.9228 0.9233 0.9238 0.9243 0.9246
1738.000000 0.9243 0.9239 0.9232 0.9222 0.9213
1743.000000 0.9203 0.9195 0.9186 0.9178 0.9178
1748.000000 0.9183 0.9196 0.9209 0.9223 0.9237
1753.000000 0.9256 0.9276 0.9285 0.9291 0.9294
1758.000000 0.9291 0.9288 0.9282 0.9275 0.9268
1763.000000 0.9261 0.9253 0.9247 0.9241 0.9236
1768.000000 0.9254 0.9272 0.9289 0.9305 0.9322
1773.000000 0.9338 0.9354 0.9370 0.9387 0.9397
1778.000000 0.9408 0.9418 0.9429 0.9435 0.9440
1783.000000 0.9444 0.9449 0.9454 0.9458 0.9463
1788.000000 0.9468 0.9471 0.9459 0.9471 0.9471
1793.000000 0.9471 0.9466 0.9460 0.9454 0.9449
1798.000000 0.9443 0.9437 0.9432 0.9424 0.9409
1803.000000 0.9395 0.9380 0.9365 0.9349 0.9332
1808.000000 0.9315 0.9298 0.9281 0.9264 0.9247
1813.000000 0.9232 0.9217 0.9202 0.9189 0.9181
1818.000000 0.9173 0.9165 0.9157 0.9157 0.9158
1823.000000 0.9146 0.9180 0.9192 0.9221 0.9253
1828.000000 0.9267 0.9282 0.9296 0.9305 0.9313
1833.000000 0.9322 0.9330 0.9338 0.9347 0.9355
1838.000000 0.9362 0.9370 0.9377 0.9385 0.9393
1843.000000 0.9401 0.9409 0.9417 0.9425 0.9433
1848.000000 0.9441 0.9447 0.9436 0.9454 0.9458
1853.000000 0.9455 0.9451 0.9447 0.9443 0.9440
1858.000000 0.9436 0.9432 0.9428 0.9423 0.9417
1863.000000 0.9410 0.9403 0.9396 0.9389 0.9383
1868.000000 0.9376 0.9369 0.9363 0.9356 0.9350
1873.000000 0.9344 0.9337 0.9331 0.9325 0.9318
1878.000000 0.9305 0.9290 0.9274 0.9254 0.9235
1883.000000 0.9215 0.9198 0.9180 0.9162 0.9145
1888.000000 0.9129 0.9120 0.9110 0.9101 0.9098
1893.000000 0.9083 0.9093 0.9095 0.9098 0.9101
1898.000000 0.9105 0.9109 0.9113 0.9118 0.9122
1903.000000 0.9127 0.9132 0.9138 0.9144 0.9149
1908.000000 0.9155 0.9160 0.9165 0.9171 0.9176
1913.000000 0.9181 0.9187 0.9192 0.9197 0.9200
1918.000000 0.9202 0.9205 0.9208 0.9210 0.9213
1923.000000 0.9216 0.9219 0.9221 0.9224 0.9223
1928.000000 0.9222 0.9220 0.9235 0.9217 0.9216
1933.000000 0.9215 0.9213 0.9212 0.9210 0.9209
1938.000000 0.9205 0.9198 0.9191 0.9184 0.9178
1943.000000 0.9171 0.9164 0.9157 0.9151 0.9144
1948.000000 0.9134 0.9123 0.9112 0.9101 0.9090
1953.000000 0.9079 0.9068 0.9057 0.9044 0.9028
1958.000000 0.9012 0.8997 0.8981 0.8965 0.8949
1963.000000 0.8933 0.8917 0.8901 0.8885 0.8868
1968.000000 0.8850 0.8832 0.8813 0.8795 0.8776
1973.000000 0.8758 0.8739 0.8721 0.8705 0.8694
1978.000000 0.8683 0.8672 0.8662 0.8661 0.8664
1983.000000 0.8666 0.8675 0.8687 0.8700 0.8706
1988.000000 0.8703 0.8700 0.8697 0.8690 0.8679
1993.000000 0.8669 0.8655 0.8637 0.8618 0.8600
1998.000000 0.8580 0.8550 0.8520 0.8490 0.8461
2003.000000 0.8424 0.8388 0.8347 0.8307 0.8266
2008.000000 0.8225 0.8184 0.8144 0.8103 0.8062
2013.000000 0.8021 0.7981 0.7940 0.7899 0.7858
2018.000000 0.7818 0.7777 0.7736 0.7695 0.7655
2023.000000 0.7614 0.7573 0.7532 0.7492 0.7451
2028.000000 0.7410 0.7369 0.7329 0.7288 0.7247
2033.000000 0.7206 0.7166 0.7125 0.7084 0.7043
2038.000000 0.7003 0.6962 0.6921 0.6880 0.6840
2043.000000 0.6799 0.6758 0.6717 0.6677 0.6636
2048.000000 0.6595 0.6554 0.6514 0.6473 0.6432
2053.000000 0.6391 0.6351 0.6310 0.6269 0.6228
2058.000000 0.6188 0.6159 0.6131 0.6104 0.6077
2063.000000 0.6050 0.6024 0.6006 0.5989 0.5971
2068.000000 0.5954 0.5938 0.5922 0.5914 0.5907
2073.000000 0.5908 0.5896 0.5934 0.5959 0.5990
2078.000000 0.6021 0.6052 0.6083 0.6114 0.6146
2083.000000 0.6177 0.6208 0.6239 0.6270 0.6301
2088.000000 0.6332 0.6363 0.6394 0.6425 0.6457
2093.000000 0.6487 0.6518 0.6538 0.6558 0.6577
2098.000000 0.6597 0.6618 0.6640 0.6661 0.6683
2103.000000 0.6704 0.6725 0.6745 0.6765 0.6785
2108.000000 0.6805 0.6841 0.6878 0.6915 0.6953
2113.000000 0.6982 0.7011 0.7034 0.7057 0.7079
2118.000000 0.7102 0.7120 0.7138 0.7151 0.7164
2123.000000 0.7176 0.7189 0.7202 0.7215 0.7228
2128.000000 0.7241 0.7253 0.7266 0.7278 0.7291
2133.000000 0.7303 0.7315 0.7327 0.7340 0.7352
2138.000000 0.7364 0.7376 0.7388 0.7400 0.7412
2143.000000 0.7424 0.7436 0.7445 0.7455 0.7464
2148.000000 0.7474 0.7483 0.7492 0.7501 0.7510
2153.000000 0.7519 0.7528 0.7536 0.7545 0.7551
2158.000000 0.7557 0.7562 0.7568 0.7573 0.7579
2163.000000 0.7584 0.7590 0.7592 0.7595 0.7595
2168.000000 0.7596 0.7596 0.7597 0.7597 0.7598
2173.000000 0.7599 0.7600 0.7600 0.7601 0.7602
2178.000000 0.7604 0.7613 0.7622 0.7631 0.7640
2183.000000 0.7649 0.7659 0.7669 0.7680 0.7690
2188.000000 0.7701 0.7712 0.7723 0.7735 0.7748
2193.000000 0.7760 0.7773 0.7785 0.7798 0.7811
2198.000000 0.7824 0.7838 0.7852 0.7865 0.7879
2203.000000 0.7892 0.7906 0.7920 0.7934 0.7948
2208.000000 0.7962 0.7976 0.7990 0.8004 0.8019
2213.000000 0.8036 0.8053 0.8070 0.8088 0.8105
2218.000000 0.8122 0.8139 0.8157 0.8174 0.8192
2223.000000 0.8205 0.8218 0.8230 0.8243 0.8255
2228.000000 0.8268 0.8280 0.8293 0.8305 0.8318
2233.000000 0.8330 0.8343 0.8355 0.8368 0.8380
2238.000000 0.8393 0.8406 0.8420 0.8433 0.8447
2243.000000 0.8460 0.8473 0.8486 0.8500 0.8512
2248.000000 0.8524 0.8535 0.8546 0.8556 0.8567
2253.000000 0.8577 0.8588 0.8598 0.8609 0.8619
2258.000000 0.8630 0.8636 0.8643 0.8648 0.8653
2263.000000 0.8657 0.8662 0.8667 0.8672 0.8676
2268.000000 0.8681 0.8686 0.8691 0.8695 0.8700
2273.000000 0.8705 0.8710 0.8714 0.8719 0.8723
2278.000000 0.8727 0.8729 0.8731 0.8733 0.8735
2283.000000 0.8737 0.8739 0.8741 0.8743 0.8745
2288.000000 0.8747 0.8749 0.8751 0.8753 0.8755
2293.000000 0.8757 0.8759 0.8759 0.8759 0.8759
2298.000000 0.8760 0.8760 0.8760 0.8760 0.8760
2303.000000 0.8760 0.8760 0.8760 0.8761 0.8761
2308.000000 0.8761 0.8762 0.8764 0.8765 0.8767
2313.000000 0.8768 0.8770 0.8772 0.8774 0.8775
2318.000000 0.8777 0.8778 0.8779 0.8780 0.8781
2323.000000 0.8781 0.8769 0.8783 0.8784 0.8783
2328.000000 0.8783 0.8781 0.8779 0.8777 0.8775
2333.000000 0.8772 0.8770 0.8768 0.8766 0.8764
2338.000000 0.8762 0.8760 0.8758 0.8756 0.8754
2343.000000 0.8752 0.8751 0.8749 0.8747 0.8745
2348.000000 0.8743 0.8741 0.8739 0.8737 0.8735
2353.000000 0.8733 0.8731 0.8728 0.8726 0.8724
2358.000000 0.8722 0.8719 0.8717 0.8715 0.8713
2363.000000 0.8710 0.8708 0.8706 0.8704 0.8701
2368.000000 0.8699 0.8697 0.8695 0.8691 0.8688
2373.000000 0.8684 0.8680 0.8676 0.8672 0.8667
2378.000000 0.8663 0.8659 0.8655 0.8651 0.8647
2383.000000 0.8643 0.8639 0.8635 0.8631 0.8627
2388.000000 0.8623 0.8619 0.8615 0.8611 0.8607
2393.000000 0.8603 0.8599 0.8595 0.8591 0.8591
2398.000000 0.8591 0.8591 0.8591 0.8590 0.8590
2403.000000 0.8590 0.8590 0.8590 0.8590 0.8587
2408.000000 0.8584 0.8580 0.8577 0.8573 0.8569
2413.000000 0.8565 0.8562 0.8558 0.8555 0.8551
2418.000000 0.8547 0.8543 0.8540 0.8535 0.8531
2423.000000 0.8526 0.8521 0.8516 0.8511 0.8506
2428.000000 0.8501 0.8496 0.8491 0.8486 0.8482
2433.000000 0.8477 0.8472 0.8467 0.8462 0.8457
2438.000000 0.8452 0.8447 0.8442 0.8437 0.8433
2443.000000 0.8428 0.8423 0.8418 0.8413 0.8408
2448.000000 0.8403 0.8398 0.8393 0.8388 0.8383
2453.000000 0.8378 0.8373 0.8368 0.8363 0.8361
2458.000000 0.8359 0.8356 0.8354 0.8352 0.8350
2463.000000 0.8348 0.8346 0.8343 0.8341 0.8339
2468.000000 0.8337 0.8335 0.8333 0.8330 0.8328
2473.000000 0.8324 0.8320 0.8315 0.8311 0.8306
2478.000000 0.8301 0.8296 0.8292 0.8287 0.8282
2483.000000 0.8277 0.8273 0.8268 0.8263 0.8257
2488.000000 0.8251 0.8244 0.8238 0.8231 0.8225
2493.000000 0.8219 0.8213 0.8206 0.8200 0.8194
2498.000000 0.8188 0.8181 0.8175 0.8169 0.8163
2503.000000 0.8156 0.8150 0.8146 0.8142 0.8137
2508.000000 0.8133 0.8129 0.8125 0.8120 0.8116
2513.000000 0.8112 0.8108 0.8103 0.8099 0.8098
2518.000000 0.8097 0.8098 0.8099 0.8099 0.8100
2523.000000 0.8100 0.8101 0.8102 0.8103 0.8104
2528.000000 0.8105 0.8106 0.8107 0.8107 0.8108
2533.000000 0.8109 0.8110 0.8110 0.8110 0.8108
2538.000000 0.8107 0.8105 0.8104 0.8102 0.8101
2543.000000 0.8099 0.8098 0.8096 0.8095 0.8094
2548.000000 0.8093 0.8089 0.8086 0.8081 0.8077
2553.000000 0.8072 0.8067 0.8062 0.8058 0.8053
2558.000000 0.8048 0.8043 0.8039 0.8034 0.8029
2563.000000 0.8024 0.8019 0.8012 0.8005 0.7998
2568.000000 0.7992 0.7985 0.7979 0.7972 0.7965
2573.000000 0.7958 0.7952 0.7945 0.7938 0.7931
2578.000000 0.7925 0.7918 0.7911 0.7905 0.7899
2583.000000 0.7892 0.7886 0.7880 0.7874 0.7868
2588.000000 0.7862 0.7856 0.7850 0.7844 0.7838
2593.000000 0.7832 0.7826 0.7819 0.7813 0.7807
2598.000000 0.7801 0.7795 0.7789 0.7783 0.7778
2603.000000 0.7772 0.7767 0.7761 0.7756 0.7751
2608.000000 0.7746 0.7740 0.7735 0.7729 0.7724
2613.000000 0.7719 0.7714 0.7708 0.7703 0.7697
2618.000000 0.7692 0.7686 0.7681 0.7675 0.7670
2623.000000 0.7663 0.7656 0.7649 0.7643 0.7636
2628.000000 0.7629 0.7622 0.7615 0.7608 0.7602
2633.000000 0.7595 0.7588 0.7581 0.7574 0.7567
2638.000000 0.7561 0.7553 0.7545 0.7536 0.7528
2643.000000 0.7519 0.7511 0.7502 0.7494 0.7485
2648.000000 0.7476 0.7467 0.7459 0.7450 0.7442
2653.000000 0.7430 0.7419 0.7403 0.7388 0.7372
2658.000000 0.7357 0.7341 0.7326 0.7310 0.7295
2663.000000 0.7279 0.7264 0.7246 0.7228 0.7210
2668.000000 0.7193 0.7180 0.7167 0.7161 0.7156
2673.000000 0.7150 0.7145 0.7148 0.7151 0.7162
2678.000000 0.7173 0.7191 0.7210 0.7217 0.7224
2683.000000 0.7224 0.7224 0.7220 0.7216 0.7212
2688.000000 0.7208 0.7199 0.7191 0.7181 0.7172
2693.000000 0.7161 0.7151 0.7141 0.7132 0.7126
2698.000000 0.7121 0.7115 0.7110 0.7106 0.7103
2703.000000 0.7104 0.7105 0.7106 0.7107 0.7102
2708.000000 0.7098 0.7089 0.7081 0.7061 0.7041
2713.000000 0.7023 0.7006 0.6993 0.6980 0.6967
2718.000000 0.6955 0.6942 0.6929 0.6922 0.6916
2723.000000 0.6910 0.6905 0.6899 0.6894 0.6888
2728.000000 0.6882 0.6878 0.6875 0.6871 0.6867
2733.000000 0.6863 0.6860 0.6854 0.6848 0.6842
2738.000000 0.6836 0.6830 0.6824 0.6818 0.6812
2743.000000 0.6806 0.6800 0.6794 0.6788 0.6776
2748.000000 0.6764 0.6752 0.6740 0.6728 0.6716
2753.000000 0.6704 0.6693 0.6677 0.6662 0.6645
2758.000000 0.6629 0.6612 0.6595 0.6578 0.6562
2763.000000 0.6547 0.6532 0.6517 0.6502 0.6487
2768.000000 0.6472 0.6465 0.6459 0.6457 0.6455
2773.000000 0.6454 0.6454 0.6456 0.6458 0.6456
2778.000000 0.6455 0.6447 0.6439 0.6430 0.6422
2783.000000 0.6409 0.6396 0.6382 0.6369 0.6354
2788.000000 0.6340 0.6322 0.6305 0.6288 0.6271
2793.000000 0.6249 0.6227 0.6195 0.6164 0.6132
2798.000000 0.6101 0.6072 0.6044 0.6020 0.5997
2803.000000 0.5973 0.5949 0.5925 0.5902 0.5878
2808.000000 0.5854 0.5833 0.5813 0.5793 0.5773
2813.000000 0.5753 0.5734 0.5725 0.5717 0.5716
2818.000000 0.5716 0.5719 0.5723 0.5726 0.5730
2823.000000 0.5732 0.5735 0.5736 0.5737 0.5732
2828.000000 0.5728 0.5711 0.5694 0.5680 0.5667
2833.000000 0.5652 0.5638 0.5621 0.5605 0.5588
2838.000000 0.5571 0.5552 0.5534 0.5513 0.5493
2843.000000 0.5478 0.5464 0.5449 0.5435 0.5420
2848.000000 0.5405 0.5389 0.5373 0.5331 0.5290
2853.000000 0.5253 0.5216 0.5179 0.5143 0.4942
2858.000000 0.4742 0.4670 0.4598 0.4526 0.4455
2863.000000 0.4383 0.4311 0.4239 0.4167 0.4110
2868.000000 0.4054 0.4084 0.4114 0.4163 0.4213
2873.000000 0.4263 0.4313 0.4362 0.4412 0.4432
2878.000000 0.4452 0.4430 0.4408 0.4346 0.4284
2883.000000 0.4221 0.4159 0.4097 0.4035 0.3973
2888.000000 0.3911 0.3849 0.3787 0.3729 0.3671
2893.000000 0.3671 0.3671 0.3717 0.3764 0.3820
2898.000000 0.3877 0.3898 0.3919 0.3911 0.3904
2903.000000 0.3831 0.3759 0.3686 0.3614 0.3541
2908.000000 0.3469 0.3396 0.3324 0.3251 0.3179
2913.000000 0.3106 0.3034 0.2961 0.2889 0.2816
2918.000000 0.2744 0.2671 0.2599 0.2560 0.2522
2923.000000 0.2522 0.2522 0.2526 0.2504 0.2543
2928.000000 0.2555 0.2572 0.2590 0.2611 0.2633
2933.000000 0.2660 0.2688 0.2713 0.2738 0.2793
2938.000000 0.2848 0.2969 0.3091 0.3233 0.3375
2943.000000 0.3516 0.3658 0.3746 0.3836 0.3832
2948.000000 0.3829 0.3770 0.3711 0.3637 0.3564
2953.000000 0.3491 0.3418 0.3344 0.3271 0.3197
2958.000000 0.3124 0.3051 0.2978 0.2983 0.2989
2963.000000 0.3057 0.3125 0.3088 0.3052 0.2895
2968.000000 0.2739 0.2582 0.2425 0.2268 0.2112
2973.000000 0.1955 0.1798 0.1641 0.1484 0.1496
2978.000000 0.1470 0.1716 0.1925 0.2133 0.2341
2983.000000 0.2549 0.2758 0.2966 0.3174 0.3382
2988.000000 0.3590 0.3798 0.4007 0.4215 0.4423
2993.000000 0.4465 0.4529 0.4497 0.4487 0.4446
2998.000000 0.4405 0.4364 0.4323 0.4282 0.4241
3003.000000 0.4200 0.4159 0.4118 0.4077 0.4036
3008.000000 0.3995 0.3954 0.3913 0.3875 0.3838
3013.000000 0.3839 0.3841 0.3869 0.3898 0.3931
3018.000000 0.3965 0.3974 0.3984 0.3980 0.3977
3023.000000 0.3958 0.3939 0.3920 0.3902 0.3883
3028.000000 0.3865 0.3846 0.3827 0.3808 0.3790
3033.000000 0.3771 0.3752 0.3733 0.3715 0.3696
3038.000000 0.3678 0.3659 0.3640 0.3621 0.3603
3043.000000 0.3584 0.3566 0.3547 0.3528 0.3509
3048.000000 0.3491 0.3472 0.3453 0.3434 0.3416
3053.000000 0.3397 0.3379 0.3360 0.3341 0.3322
3058.000000 0.3304 0.3285 0.3267 0.3248 0.3229
3063.000000 0.3210 0.3192 0.3173 0.3155 0.3136
3068.000000 0.3117 0.3098 0.3080 0.3061 0.3042
3073.000000 0.3023 0.3005 0.2986 0.2968 0.2949
3078.000000 0.2930 0.2911 0.2893 0.2874 0.2856
3083.000000 0.2837 0.2818 0.2799 0.2781 0.2762
3088.000000 0.2743 0.2724 0.2706 0.2687 0.2669
3093.000000 0.2650 0.2631 0.2612 0.2594 0.2574
3098.000000 0.2555 0.2534 0.2514 0.2497 0.2481
3103.000000 0.2465 0.2450 0.2435 0.2420 0.2404
3108.000000 0.2389 0.2369 0.2350 0.2330 0.2311
3113.000000 0.2291 0.2272 0.2252 0.2233 0.2208
3118.000000 0.2184 0.2158 0.2133 0.2108 0.2083
3123.000000 0.2059 0.2036 0.2015 0.1995 0.1974
3128.000000 0.1954 0.1934 0.1914 0.1896 0.1878
3133.000000 0.1863 0.1848 0.1832 0.1817 0.1801
3138.000000 0.1786 0.1770 0.1755 0.1740 0.1725
3143.000000 0.1709 0.1693 0.1676 0.1660 0.1643
3148.000000 0.1627 0.1610 0.1594 0.1577 0.1561
3153.000000 0.1547 0.1534 0.1521 0.1508 0.1495
3158.000000 0.1483 0.1470 0.1457 0.1444 0.1432
3163.000000 0.1422 0.1412 0.1406 0.1401 0.1395
3168.000000 0.1390 0.1384 0.1378 0.1372 0.1367
3173.000000 0.1361 0.1355 0.1349 0.1344 0.1338
3178.000000 0.1333 0.1327 0.1321 0.1315 0.1310
3183.000000 0.1304 0.1299 0.1293 0.1288 0.1284
3188.000000 0.1281 0.1277 0.1274 0.1270 0.1267
3193.000000 0.1264 0.1261 0.1257 0.1254 0.1250
3198.000000 0.1247 0.1243 0.1240 0.1236 0.1233
3203.000000 0.1229 0.1226 0.1222 0.1219 0.1215
3208.000000 0.1212 0.1208 0.1205 0.1201 0.1198
3213.000000 0.1195 0.1192 0.1190 0.1188 0.1185
3218.000000 0.1183 0.1181 0.1179 0.1176 0.1174
3223.000000 0.1172 0.1170 0.1167 0.1165 0.1163
3228.000000 0.1161 0.1158 0.1156 0.1154 0.1152
3233.000000 0.1149 0.1147 0.1145 0.1143 0.1140
3238.000000 0.1138 0.1136 0.1134 0.1131 0.1129
3243.000000 0.1127 0.1125 0.1124 0.1123 0.1122
3248.000000 0.1121 0.1120 0.1119 0.1118 0.1117
3253.000000 0.1116 0.1115 0.1114 0.1113 0.1111
3258.000000 0.1110 0.1109 0.1108 0.1106 0.1105
3263.000000 0.1103 0.1102 0.1100 0.1099 0.1097
3268.000000 0.1096 0.1094 0.1093 0.1091 0.1090
3273.000000 0.1088 0.1086 0.1084 0.1083 0.1082
3278.000000 0.1081 0.1080 0.1079 0.1077 0.1076
3283.000000 0.1075 0.1074 0.1073 0.1072 0.1070
3288.000000 0.1069 0.1068 0.1067 0.1066 0.1065
3293.000000 0.1064 0.1063 0.1062 0.1061 0.1060
3298.000000 0.1060 0.1059 0.1059 0.1059 0.1059
3303.000000 0.1058 0.1058 0.1057 0.1057 0.1057
3308.000000 0.1057 0.1056 0.1056 0.1055 0.1055
3313.000000 0.1055 0.1055 0.1054 0.1054 0.1053
3318.000000 0.1053 0.1053 0.1053 0.1052 0.1052
3323.000000 0.1051 0.1051 0.1051 0.1051 0.1050
3328.000000 0.1050 0.1049 0.1049 0.1049 0.1049
3333.000000 0.1049 0.1049 0.1049 0.1049 0.1049
3338.000000 0.1049 0.1049 0.1050 0.1048 0.1048
3343.000000 0.1048 0.1048 0.1048 0.1048 0.1048
3348.000000 0.1048 0.1048 0.1048 0.1048 0.1048
3353.000000 0.1048 0.1048 0.1048 0.1048 0.1047
3358.000000 0.1047 0.1047 0.1047 0.1047 0.1047
3363.000000 0.1047 0.1047 0.1047 0.1048 0.1048
3368.000000 0.1049 0.1049 0.1049 0.1049 0.1050
3373.000000 0.1050 0.1051 0.1051 0.1051 0.1051
3378.000000 0.1052 0.1052 0.1053 0.1053 0.1053
3383.000000 0.1053 0.1054 0.1054 0.1055 0.1055
3388.000000 0.1055 0.1055 0.1056 0.1056 0.1057
3393.000000 0.1057 0.1058 0.1059 0.1060 0.1061
3398.000000 0.1062 0.1063 0.1064 0.1065 0.1066
3403.000000 0.1067 0.1068 0.1069 0.1070 0.1070
3408.000000 0.1071 0.1072 0.1073 0.1074 0.1075
3413.000000 0.1076 0.1077 0.1078 0.1080 0.1082
3418.000000 0.1084 0.1086 0.1088 0.1090 0.1092
3423.000000 0.1093 0.1095 0.1097 0.1099 0.1101
3428.000000 0.1103 0.1105 0.1107 0.1109 0.1111
3433.000000 0.1113 0.1115 0.1117 0.1119 0.1120
3438.000000 0.1122 0.1125 0.1128 0.1131 0.1135
3443.000000 0.1138 0.1142 0.1145 0.1149 0.1152
3448.000000 0.1156 0.1159 0.1163 0.1166 0.1170
3453.000000 0.1173 0.1177 0.1180 0.1184 0.1187
3458.000000 0.1191 0.1194 0.1198 0.1201 0.1205
3463.000000 0.1210 0.1215 0.1222 0.1230 0.1237
3468.000000 0.1244 0.1251 0.1259 0.1266 0.1274
3473.000000 0.1281 0.1288 0.1295 0.1303 0.1310
3478.000000 0.1317 0.1324 0.1332 0.1339 0.1347
3483.000000 0.1355 0.1363 0.1371 0.1379 0.1387
3488.000000 0.1395 0.1403 0.1411 0.1419 0.1427
3493.000000 0.1435 0.1444 0.1452 0.1460 0.1468
3498.000000 0.1476 0.1484 0.1493 0.1505 0.1518
3503.000000 0.1530 0.1543 0.1555 0.1567 0.1579
3508.000000 0.1592 0.1604 0.1616 0.1630 0.1644
3513.000000 0.1662 0.1680 0.1697 0.1715 0.1733
3518.000000 0.1751 0.1768 0.1786 0.1804 0.1823
3523.000000 0.1841 0.1860 0.1878 0.1896 0.1914
3528.000000 0.1933 0.1951 0.1969 0.1990 0.2011
3533.000000 0.2040 0.2069 0.2097 0.2126 0.2154
3538.000000 0.2183 0.2211 0.2240 0.2272 0.2304
3543.000000 0.2337 0.2371 0.2405 0.2439 0.2472
3548.000000 0.2506 0.2537 0.2568 0.2596 0.2625
3553.000000 0.2653 0.2682 0.2711 0.2741 0.2792
3558.000000 0.2843 0.2893 0.2944 0.2994 0.3045
3563.000000 0.3096 0.3147 0.3197 0.3248 0.3298
3568.000000 0.3349 0.3400 0.3451 0.3501 0.3552
3573.000000 0.3602 0.3653 0.3705 0.3757 0.3824
3578.000000 0.3891 0.3996 0.4102 0.4202 0.4302
3583.000000 0.4375 0.4448 0.4515 0.4583 0.4647
3588.000000 0.4712 0.4776 0.4841 0.4902 0.4964
3593.000000 0.5022 0.5080 0.5138 0.5197 0.5233
3598.000000 0.5270 0.5304 0.5339 0.5373 0.5408
3603.000000 0.5442 0.5476 0.5516 0.5556 0.5598
3608.000000 0.5641 0.5683 0.5726 0.5768 0.5811
3613.000000 0.5854 0.5898 0.5942 0.5986 0.6029
3618.000000 0.6072 0.6114 0.6157 0.6199 0.6241
3623.000000 0.6294 0.6348 0.6420 0.6492 0.6535
3628.000000 0.6578 0.6611 0.6644 0.6677 0.6711
3633.000000 0.6745 0.6780 0.6815 0.6850 0.6885
3638.000000 0.6920 0.6954 0.6989 0.7020 0.7051
3643.000000 0.7079 0.7107 0.7135 0.7163 0.7191
3648.000000 0.7219 0.7246 0.7274 0.7302 0.7331
3653.000000 0.7365 0.7399 0.7433 0.7468 0.7502
3658.000000 0.7537 0.7571 0.7605 0.7629 0.7654
3663.000000 0.7675 0.7697 0.7718 0.7740 0.7761
3668.000000 0.7783 0.7804 0.7826 0.7841 0.7857
3673.000000 0.7872 0.7888 0.7904 0.7920 0.7935
3678.000000 0.7951 0.7966 0.7982 0.7995 0.8009
3683.000000 0.8020 0.8031 0.8042 0.8053 0.8064
3688.000000 0.8075 0.8086 0.8097 0.8106 0.8115
3693.000000 0.8121 0.8128 0.8135 0.8142 0.8149
3698.000000 0.8156 0.8162 0.8169 0.8176 0.8183
3703.000000 0.8190 0.8197 0.8203 0.8210 0.8217
3708.000000 0.8224 0.8229 0.8235 0.8239 0.8243
3713.000000 0.8247 0.8252 0.8256 0.8260 0.8264
3718.000000 0.8268 0.8272 0.8277 0.8281 0.8285
3723.000000 0.8289 0.8293 0.8297 0.8302 0.8305
3728.000000 0.8309 0.8312 0.8315 0.8318 0.8322
3733.000000 0.8325 0.8328 0.8331 0.8335 0.8338
3738.000000 0.8341 0.8344 0.8348 0.8351 0.8354
3743.000000 0.8357 0.8360 0.8363 0.8367 0.8370
3748.000000 0.8373 0.8375 0.8378 0.8381 0.8384
3753.000000 0.8387 0.8390 0.8393 0.8396 0.8399
3758.000000 0.8402 0.8404 0.8406 0.8408 0.8410
3763.000000 0.8412 0.8414 0.8416 0.8418 0.8420
3768.000000 0.8422 0.8423 0.8419 0.8425 0.8425
3773.000000 0.8425 0.8425 0.8425 0.8425 0.8425
3778.000000 0.8425 0.8425 0.8425 0.8425 0.8425
3783.000000 0.8425 0.8425 0.8424 0.8424 0.8424
3788.000000 0.8424
##END=
