##TITLE=Pregna-1,4-dien-3-one, 11Beta,17Alpha,20,21-tetrahydroxy-, 21-acetate
##JCAMP-DX=4.24
##DATA TYPE=INFRARED SPECTRUM
##CLASS=COBLENTZ III
##ORIGIN=DOW CHEMICAL COMPANY
##OWNER=COBLENTZ SOC.
Collection (C) 2018 copyright by the U.S. Secretary of Commerce
on behalf of the United States of America. All rights reserved.
##DATE=1964/06/26
##NAMES=11,17,20-trihydroxy-3-oxopregna-1,4-dien-21-yl acetate
##MOLFORM=C23 H32 O6
##MP=246 C
##SOURCE REFERENCE=COBLENTZ NO. 08958
##$NIST ID=B6008958
##$NIST SOURCE=COBLENTZ
##$NIST IMAGE=cob8958
##SPECTROMETER/DATA SYSTEM=DOW KBr FOREPRISM-GRATING
##INSTRUMENT PARAMETERS=BLAZED AT 3.5, 12.0, 20.0 MICRON AND CHANGED AT 5.0, 7.5, 14.9 MICRON
##STATE=SOLID (SPLIT MULL), FLUOROLUBE FOR 3800-1330 CM^-^1, NUJOL FOR 1330-400 CM^-^1
$$ SEE SPECTRUM NO. 5458 FOR "KBr DISC" RUN
##SAMPLING PROCEDURE=TRANSMISSION
##RESOLUTION=2
##DATA PROCESSING=DIGITIZED BY COBLENTZ SOCIETY (BATCH I) FROM HARD COPY
##XUNITS=1/CM
##YUNITS=TRANSMITTANCE
##XLABEL=Wavenumbers (cm-1)
##YLABEL=% Transmission
##XFACTOR=1
##YFACTOR=1
##DELTAX=1
##FIRSTX=382
##LASTX=3810
##FIRSTY=0.7833
##MAXX=3810
##MINX=382
##MAXY=0.9031
##MINY=0.0521
##NPOINTS=3429
##XYDATA=(X++(Y..Y))
382.000000 0.7833 0.7836 0.7838 0.7841 0.7844
387.000000 0.7846 0.7849 0.7851 0.7853 0.7856
392.000000 0.7858 0.7860 0.7862 0.7865 0.7868
397.000000 0.7871 0.7874 0.7875 0.7878 0.7881
402.000000 0.7884 0.7887 0.7890 0.7894 0.7897
407.000000 0.7901 0.7904 0.7907 0.7911 0.7915
412.000000 0.7922 0.7930 0.7937 0.7944 0.7951
417.000000 0.7958 0.7965 0.7994 0.7993 0.7992
422.000000 0.8001 0.8010 0.8018 0.8028 0.8037
427.000000 0.8046 0.8055 0.8062 0.8069 0.8078
432.000000 0.8085 0.8092 0.8100 0.8107 0.8115
437.000000 0.8121 0.8125 0.8125 0.8125 0.8125
442.000000 0.8121 0.8114 0.8106 0.8098 0.8075
447.000000 0.8051 0.8031 0.8012 0.7983 0.7949
452.000000 0.7911 0.7868 0.7825 0.7783 0.7491
457.000000 0.7157 0.6822 0.6711 0.6701 0.7005
462.000000 0.7381 0.7757 0.7903 0.8050 0.8114
467.000000 0.8160 0.8194 0.8227 0.8254 0.8267
472.000000 0.8280 0.8293 0.8305 0.8305 0.8305
477.000000 0.8310 0.8312 0.8306 0.8300 0.8294
482.000000 0.8280 0.8263 0.8243 0.8207 0.8171
487.000000 0.8068 0.7960 0.7958 0.7949 0.8034
492.000000 0.8131 0.8228 0.8277 0.8273 0.8286
497.000000 0.8263 0.8246 0.8143 0.7964 0.7785
502.000000 0.7606 0.7426 0.7346 0.7338 0.7358
507.000000 0.7405 0.7588 0.7771 0.7955 0.8138
512.000000 0.8321 0.8371 0.8404 0.8428 0.8443
517.000000 0.8457 0.8459 0.8473 0.8461 0.8454
522.000000 0.8448 0.8436 0.8404 0.8352 0.8287
527.000000 0.8213 0.8139 0.8044 0.7955 0.7891
532.000000 0.7876 0.7862 0.7878 0.7893 0.7915
537.000000 0.7982 0.8057 0.8132 0.8206 0.8278
542.000000 0.8293 0.8291 0.8285 0.8267 0.8250
547.000000 0.8245 0.8257 0.8285 0.8313 0.8350
552.000000 0.8391 0.8425 0.8456 0.8470 0.8468
557.000000 0.8468 0.8466 0.8463 0.8460 0.8456
562.000000 0.8451 0.8446 0.8438 0.8428 0.8418
567.000000 0.8402 0.8382 0.8363 0.8345 0.8320
572.000000 0.8285 0.8280 0.8274 0.8274 0.8274
577.000000 0.8278 0.8288 0.8297 0.8308 0.8318
582.000000 0.8318 0.8318 0.8314 0.8308 0.8302
587.000000 0.8284 0.8255 0.8224 0.8175 0.8141
592.000000 0.8131 0.8128 0.8122 0.8105 0.8068
597.000000 0.8022 0.8008 0.8012 0.8017 0.8025
602.000000 0.8040 0.8054 0.8065 0.8076 0.8085
607.000000 0.8089 0.8089 0.8086 0.8083 0.8080
612.000000 0.8075 0.8072 0.8069 0.8067 0.8065
617.000000 0.8065 0.8062 0.8061 0.8058 0.8056
622.000000 0.8053 0.8061 0.8049 0.8048 0.8047
627.000000 0.8046 0.8044 0.8042 0.8040 0.8038
632.000000 0.8036 0.8032 0.8022 0.8012 0.8004
637.000000 0.7995 0.7986 0.7978 0.7968 0.7968
642.000000 0.7972 0.7987 0.8017 0.8069 0.8112
647.000000 0.8150 0.8178 0.8205 0.8217 0.8221
652.000000 0.8220 0.8192 0.8216 0.8214 0.8204
657.000000 0.8194 0.8184 0.8176 0.8171 0.8164
662.000000 0.8157 0.8148 0.8140 0.8132 0.8125
667.000000 0.8117 0.8108 0.8097 0.8086 0.8075
672.000000 0.8064 0.8053 0.8041 0.8028 0.8018
677.000000 0.8006 0.7993 0.7974 0.7955 0.7937
682.000000 0.7915 0.7888 0.7889 0.7889 0.7911
687.000000 0.7996 0.8051 0.8125 0.8143 0.8143
692.000000 0.8133 0.8125 0.8108 0.8093 0.8071
697.000000 0.8039 0.7993 0.7947 0.7905 0.7862
702.000000 0.7822 0.7782 0.7746 0.7737 0.7728
707.000000 0.7703 0.7665 0.7643 0.7621 0.7612
712.000000 0.7615 0.7615 0.7635 0.7631 0.7622
717.000000 0.7617 0.7615 0.7615 0.7669 0.7728
722.000000 0.7776 0.7828 0.7880 0.7932 0.7984
727.000000 0.8021 0.8051 0.8081 0.8110 0.8133
732.000000 0.8157 0.8180 0.8204 0.8228 0.8251
737.000000 0.8271 0.8278 0.8284 0.8282 0.8278
742.000000 0.8271 0.8256 0.8240 0.8203 0.8165
747.000000 0.8132 0.8108 0.8098 0.8097 0.8133
752.000000 0.8223 0.8313 0.8403 0.8489 0.8528
757.000000 0.8563 0.8575 0.8581 0.8588 0.8596
762.000000 0.8575 0.8568 0.8562 0.8556 0.8550
767.000000 0.8544 0.8538 0.8532 0.8521 0.8510
772.000000 0.8500 0.8483 0.8460 0.8430 0.8391
777.000000 0.8339 0.8275 0.8211 0.8150 0.7988
782.000000 0.7795 0.7601 0.7408 0.7287 0.7300
787.000000 0.7280 0.7397 0.7725 0.8051 0.8380
792.000000 0.8520 0.8592 0.8650 0.8678 0.8693
797.000000 0.8704 0.8714 0.8713 0.8704 0.8695
802.000000 0.8685 0.8675 0.8668 0.8661 0.8657
807.000000 0.8682 0.8713 0.8738 0.8750 0.8750
812.000000 0.8751 0.8741 0.8716 0.8675 0.8528
817.000000 0.8386 0.8291 0.7854 0.7243 0.6637
822.000000 0.6601 0.6871 0.6625 0.7657 0.8050
827.000000 0.8115 0.8090 0.8056 0.7868 0.7683
832.000000 0.7496 0.7397 0.7397 0.7665 0.7951
837.000000 0.8192 0.8194 0.8187 0.8075 0.7946
842.000000 0.7815 0.7757 0.7799 0.7997 0.8194
847.000000 0.8392 0.8589 0.8650 0.8668 0.8681
852.000000 0.8667 0.8678 0.8673 0.8660 0.8634
857.000000 0.8577 0.8491 0.8364 0.8165 0.7968
862.000000 0.7771 0.7574 0.7394 0.7393 0.8106
867.000000 0.8545 0.8552 0.8554 0.8532 0.8478
872.000000 0.8410 0.8343 0.8275 0.8208 0.8197
877.000000 0.8201 0.8228 0.8262 0.8258 0.8253
882.000000 0.8206 0.8149 0.8096 0.8031 0.7958
887.000000 0.7868 0.7721 0.7560 0.7400 0.6803
892.000000 0.6282 0.5760 0.5241 0.4720 0.4337
897.000000 0.4314 0.5210 0.5983 0.5888 0.5755
902.000000 0.5702 0.6267 0.7007 0.7748 0.8143
907.000000 0.8180 0.8189 0.8191 0.8209 0.8181
912.000000 0.8169 0.8139 0.8101 0.7951 0.7690
917.000000 0.7428 0.7212 0.7215 0.7194 0.7311
922.000000 0.7403 0.7495 0.7586 0.7678 0.7768
927.000000 0.7861 0.7914 0.7895 0.7751 0.7437
932.000000 0.7121 0.6808 0.6521 0.6501 0.6508
937.000000 0.6528 0.7098 0.7400 0.7648 0.7628
942.000000 0.7578 0.7530 0.7501 0.7525 0.7738
947.000000 0.7951 0.8175 0.8178 0.8174 0.8146
952.000000 0.8074 0.7944 0.7814 0.7701 0.7674
957.000000 0.7685 0.7793 0.7900 0.8007 0.8081
962.000000 0.8071 0.8058 0.8036 0.8011 0.7984
967.000000 0.7926 0.7907 0.7911 0.7980 0.8040
972.000000 0.8100 0.8164 0.8249 0.8283 0.8299
977.000000 0.8299 0.8299 0.8291 0.8275 0.8249
982.000000 0.8225 0.8176 0.8108 0.7995 0.7471
987.000000 0.6878 0.6692 0.6696 0.7043 0.7368
992.000000 0.7692 0.7740 0.7747 0.7821 0.7924
997.000000 0.8022 0.8055 0.8053 0.8048 0.8010
1002.000000 0.7933 0.7857 0.7781 0.7704 0.7657
1007.000000 0.7658 0.7731 0.7817 0.7903 0.7931
1012.000000 0.7921 0.7903 0.7856 0.7808 0.7761
1017.000000 0.7721 0.7718 0.7715 0.7715 0.7658
1022.000000 0.7589 0.7536 0.7487 0.7439 0.7400
1027.000000 0.7396 0.7393 0.7378 0.7186 0.6964
1032.000000 0.6741 0.6518 0.6297 0.6075 0.5853
1037.000000 0.5631 0.5493 0.5424 0.5423 0.5429
1042.000000 0.5527 0.5626 0.5662 0.5658 0.5523
1047.000000 0.5054 0.4585 0.4117 0.3888 0.3916
1052.000000 0.4305 0.5305 0.6304 0.6961 0.7121
1057.000000 0.7340 0.7441 0.7462 0.7467 0.7468
1062.000000 0.7454 0.7433 0.7407 0.7383 0.7358
1067.000000 0.7348 0.7351 0.7410 0.7474 0.7554
1072.000000 0.7604 0.7626 0.7628 0.7625 0.7608
1077.000000 0.7571 0.7362 0.7124 0.6886 0.6647
1082.000000 0.6408 0.6169 0.5946 0.5898 0.5905
1087.000000 0.5912 0.6366 0.6840 0.7315 0.7465
1092.000000 0.7542 0.7584 0.7605 0.7617 0.7601
1097.000000 0.7587 0.7556 0.7301 0.6980 0.6658
1102.000000 0.6336 0.6015 0.5693 0.5371 0.5101
1107.000000 0.5069 0.5059 0.5155 0.5445 0.5734
1112.000000 0.6024 0.6312 0.6603 0.6892 0.7182
1117.000000 0.7282 0.7283 0.7284 0.7269 0.7206
1122.000000 0.6903 0.6601 0.6299 0.5997 0.5694
1127.000000 0.5392 0.5090 0.4904 0.4920 0.5120
1132.000000 0.5534 0.5949 0.6362 0.6778 0.7192
1137.000000 0.7539 0.7708 0.7735 0.7756 0.7774
1142.000000 0.7754 0.7745 0.7721 0.7693 0.7654
1147.000000 0.7468 0.7200 0.6932 0.6787 0.6755
1152.000000 0.6725 0.6793 0.6940 0.7087 0.7233
1157.000000 0.7293 0.7280 0.7289 0.7258 0.7151
1162.000000 0.7040 0.6930 0.6818 0.6708 0.6591
1167.000000 0.6537 0.6507 0.6534 0.6512 0.6650
1172.000000 0.6841 0.7031 0.7221 0.7411 0.7484
1177.000000 0.7474 0.7472 0.7437 0.7351 0.7265
1182.000000 0.7180 0.7095 0.7034 0.7026 0.7022
1187.000000 0.7018 0.7004 0.6867 0.6426 0.5988
1192.000000 0.5834 0.5796 0.5803 0.5853 0.6235
1197.000000 0.6507 0.6778 0.7051 0.7321 0.7435
1202.000000 0.7447 0.7451 0.7451 0.7448 0.7443
1207.000000 0.7425 0.7394 0.7268 0.7137 0.7005
1212.000000 0.6872 0.6741 0.6610 0.6478 0.6338
1217.000000 0.6177 0.5940 0.5621 0.5100 0.4579
1222.000000 0.4058 0.3537 0.3016 0.2495 0.1974
1227.000000 0.1707 0.1707 0.1707 0.1752 0.2220
1232.000000 0.2688 0.3156 0.3624 0.4092 0.4560
1237.000000 0.5028 0.5400 0.5419 0.5422 0.5400
1242.000000 0.5346 0.5292 0.5238 0.5199 0.5212
1247.000000 0.5689 0.6455 0.6481 0.6498 0.6501
1252.000000 0.6474 0.6478 0.6412 0.6145 0.5877
1257.000000 0.5608 0.5340 0.5072 0.4804 0.4535
1262.000000 0.4267 0.4077 0.4082 0.4201 0.4323
1267.000000 0.4423 0.4469 0.4836 0.4988 0.5062
1272.000000 0.5129 0.5181 0.5253 0.5329 0.5390
1277.000000 0.6026 0.6608 0.6778 0.6865 0.6905
1282.000000 0.6941 0.6975 0.7018 0.7068 0.7138
1287.000000 0.7211 0.7218 0.7226 0.7162 0.7135
1292.000000 0.7096 0.7058 0.7036 0.7014 0.6999
1297.000000 0.6985 0.6967 0.6949 0.6928 0.6904
1302.000000 0.6806 0.6698 0.6590 0.6481 0.6373
1307.000000 0.6265 0.6157 0.6103 0.6084 0.6081
1312.000000 0.6102 0.6254 0.6399 0.6543 0.6590
1317.000000 0.6588 0.6594 0.6522 0.6415 0.6329
1322.000000 0.6260 0.6191 0.6123 0.6219 0.6315
1327.000000 0.6368 0.6386 0.6397 0.6389 0.6379
1332.000000 0.6368 0.6337 0.6284 0.6221 0.6156
1337.000000 0.6091 0.6027 0.5962 0.5897 0.5833
1342.000000 0.5768 0.5722 0.5706 0.5689 0.5664
1347.000000 0.5631 0.5575 0.5510 0.5484 0.5478
1352.000000 0.5459 0.5512 0.5599 0.5697 0.5818
1357.000000 0.5953 0.6012 0.6027 0.6023 0.6032
1362.000000 0.5960 0.5815 0.5424 0.5034 0.4643
1367.000000 0.4252 0.3860 0.3471 0.3080 0.2965
1372.000000 0.2968 0.3230 0.3978 0.4725 0.5452
1377.000000 0.5522 0.5581 0.5608 0.5617 0.5621
1382.000000 0.5625 0.5628 0.5630 0.5694 0.5822
1387.000000 0.5950 0.6078 0.6206 0.6320 0.6320
1392.000000 0.6319 0.6310 0.6296 0.6280 0.6247
1397.000000 0.6187 0.6010 0.5755 0.5500 0.5245
1402.000000 0.4990 0.4735 0.4480 0.4225 0.3970
1407.000000 0.3818 0.3822 0.4000 0.4255 0.4509
1412.000000 0.4764 0.5019 0.5274 0.5504 0.5574
1417.000000 0.5739 0.5851 0.5880 0.5885 0.5885
1422.000000 0.5875 0.5818 0.5732 0.5646 0.5560
1427.000000 0.5492 0.5485 0.5485 0.5673 0.5817
1432.000000 0.5962 0.6106 0.6160 0.6193 0.6207
1437.000000 0.6212 0.6219 0.6191 0.6132 0.6034
1442.000000 0.5912 0.5792 0.5758 0.5766 0.6139
1447.000000 0.6336 0.6534 0.6625 0.6649 0.6675
1452.000000 0.6871 0.7017 0.7195 0.7282 0.7318
1457.000000 0.7350 0.7372 0.7411 0.7468 0.7530
1462.000000 0.7600 0.7703 0.7806 0.7900 0.7934
1467.000000 0.7940 0.7942 0.7944 0.7944 0.7940
1472.000000 0.7933 0.7914 0.7895 0.7875 0.7864
1477.000000 0.7860 0.7867 0.7888 0.7930 0.7983
1482.000000 0.8039 0.8093 0.8147 0.8212 0.8270
1487.000000 0.8304 0.8314 0.8324 0.8334 0.8343
1492.000000 0.8347 0.8351 0.8354 0.8358 0.8362
1497.000000 0.8366 0.8370 0.8371 0.8370 0.8370
1502.000000 0.8368 0.8368 0.8367 0.8364 0.8361
1507.000000 0.8357 0.8354 0.8348 0.8342 0.8335
1512.000000 0.8328 0.8318 0.8308 0.8296 0.8281
1517.000000 0.8267 0.8252 0.8238 0.8223 0.8209
1522.000000 0.8194 0.8186 0.8178 0.8171 0.8162
1527.000000 0.8155 0.8148 0.8139 0.8130 0.8121
1532.000000 0.8111 0.8101 0.8090 0.8075 0.8061
1537.000000 0.8049 0.8035 0.8021 0.8008 0.7995
1542.000000 0.7982 0.7961 0.7932 0.7904 0.7878
1547.000000 0.7853 0.7815 0.7769 0.7725 0.7678
1552.000000 0.7614 0.7551 0.7490 0.7430 0.7369
1557.000000 0.7308 0.7272 0.7237 0.7201 0.7160
1562.000000 0.7118 0.7064 0.7008 0.6944 0.6853
1567.000000 0.6758 0.6608 0.6476 0.6352 0.6234
1572.000000 0.6040 0.5854 0.5759 0.5664 0.5566
1577.000000 0.5424 0.5047 0.4671 0.4295 0.3918
1582.000000 0.3444 0.3083 0.2721 0.2359 0.1996
1587.000000 0.1634 0.1274 0.1026 0.0975 0.0975
1592.000000 0.0986 0.1125 0.1924 0.2722 0.3521
1597.000000 0.3630 0.3620 0.3552 0.3270 0.2988
1602.000000 0.2707 0.2615 0.2834 0.3309 0.3784
1607.000000 0.4259 0.4734 0.5187 0.5994 0.6162
1612.000000 0.6320 0.6468 0.6574 0.6675 0.6808
1617.000000 0.6878 0.6918 0.6925 0.6932 0.6910
1622.000000 0.6867 0.6803 0.6719 0.6680 0.6681
1627.000000 0.6681 0.6686 0.6684 0.6682 0.6639
1632.000000 0.6551 0.6401 0.6043 0.5686 0.5329
1637.000000 0.4971 0.4614 0.4257 0.3932 0.3620
1642.000000 0.3308 0.2996 0.2684 0.2372 0.2060
1647.000000 0.1748 0.1436 0.1124 0.0584 0.0521
1652.000000 0.0521 0.0521 0.0522 0.0586 0.1242
1657.000000 0.1939 0.2634 0.3330 0.4162 0.4712
1662.000000 0.5262 0.5810 0.6360 0.6910 0.7288
1667.000000 0.7512 0.7638 0.7781 0.7928 0.8001
1672.000000 0.8040 0.8053 0.8058 0.8064 0.8064
1677.000000 0.8064 0.8062 0.8061 0.8061 0.8061
1682.000000 0.8071 0.8083 0.8098 0.8115 0.8134
1687.000000 0.8151 0.8151 0.8151 0.8147 0.8131
1692.000000 0.8108 0.8083 0.8053 0.8021 0.7978
1697.000000 0.7928 0.7861 0.7778 0.7665 0.7571
1702.000000 0.7533 0.7500 0.7468 0.7418 0.7334
1707.000000 0.7050 0.6562 0.6461 0.6331 0.5959
1712.000000 0.5587 0.5214 0.4842 0.4470 0.3828
1717.000000 0.3643 0.3547 0.2024 0.1956 0.1971
1722.000000 0.2155 0.2647 0.3138 0.3629 0.4120
1727.000000 0.4612 0.5103 0.5594 0.5895 0.5933
1732.000000 0.5929 0.5937 0.5902 0.5867 0.5788
1737.000000 0.5733 0.5662 0.5237 0.4798 0.4360
1742.000000 0.3921 0.3482 0.3044 0.2606 0.2167
1747.000000 0.1728 0.1558 0.1556 0.2253 0.3158
1752.000000 0.4062 0.4967 0.5871 0.6775 0.7946
1757.000000 0.8157 0.8301 0.8413 0.8574 0.8670
1762.000000 0.8725 0.8768 0.8791 0.8808 0.8825
1767.000000 0.8841 0.8856 0.8870 0.8882 0.8890
1772.000000 0.8898 0.8906 0.8912 0.8914 0.8914
1777.000000 0.8914 0.8913 0.8910 0.8907 0.8904
1782.000000 0.8902 0.8899 0.8896 0.8894 0.8893
1787.000000 0.8892 0.8892 0.8894 0.8896 0.8898
1792.000000 0.8899 0.8901 0.8903 0.8905 0.8908
1797.000000 0.8915 0.8921 0.8928 0.8936 0.8940
1802.000000 0.8943 0.8947 0.8950 0.8954 0.8958
1807.000000 0.8961 0.8965 0.8968 0.8971 0.8975
1812.000000 0.8977 0.8978 0.8981 0.8983 0.8985
1817.000000 0.8987 0.8989 0.8991 0.8993 0.8994
1822.000000 0.8996 0.8997 0.8999 0.9001 0.9002
1827.000000 0.9004 0.9005 0.9006 0.9008 0.9009
1832.000000 0.9010 0.9011 0.9013 0.9014 0.9015
1837.000000 0.9016 0.9018 0.9018 0.9018 0.9018
1842.000000 0.9018 0.9018 0.9018 0.9018 0.9018
1847.000000 0.9018 0.9018 0.9018 0.9018 0.9018
1852.000000 0.9018 0.9018 0.9018 0.9018 0.9018
1857.000000 0.9020 0.9020 0.9021 0.9021 0.9021
1862.000000 0.9021 0.9020 0.9018 0.9017 0.9015
1867.000000 0.9013 0.9011 0.9009 0.9007 0.9005
1872.000000 0.9004 0.9004 0.8998 0.8995 0.8993
1877.000000 0.8991 0.8988 0.8987 0.8987 0.8986
1882.000000 0.8985 0.8984 0.8983 0.8982 0.8981
1887.000000 0.8980 0.8978 0.8978 0.8977 0.8975
1892.000000 0.8975 0.8973 0.8971 0.8971 0.8970
1897.000000 0.8970 0.8970 0.8971 0.8971 0.8971
1902.000000 0.8971 0.8971 0.8973 0.8973 0.8975
1907.000000 0.8978 0.8982 0.8985 0.8988 0.8991
1912.000000 0.8995 0.8998 0.9001 0.9004 0.9006
1917.000000 0.9009 0.9012 0.9014 0.9017 0.9017
1922.000000 0.9016 0.9015 0.9013 0.9012 0.9010
1927.000000 0.9009 0.9007 0.9006 0.9004 0.9001
1932.000000 0.8999 0.8997 0.8995 0.8993 0.8991
1937.000000 0.8989 0.8987 0.8985 0.8984 0.8983
1942.000000 0.8982 0.8981 0.8980 0.8978 0.8978
1947.000000 0.8978 0.8978 0.8978 0.8978 0.8978
1952.000000 0.8978 0.8980 0.8981 0.8990 0.9004
1957.000000 0.9018 0.9031 0.9021 0.8975 0.8918
1962.000000 0.8910 0.8901 0.8896 0.8890 0.8886
1967.000000 0.8882 0.8878 0.8875 0.8871 0.8867
1972.000000 0.8862 0.8856 0.8850 0.8844 0.8838
1977.000000 0.8831 0.8825 0.8818 0.8814 0.8812
1982.000000 0.8809 0.8806 0.8803 0.8802 0.8803
1987.000000 0.8803 0.8804 0.8806 0.8807 0.8808
1992.000000 0.8735 0.8627 0.8602 0.8575 0.8551
1997.000000 0.8525 0.8500 0.8475 0.8449 0.8447
2002.000000 0.8447 0.8447 0.8449 0.8449 0.8450
2007.000000 0.8451 0.8452 0.8452 0.8452 0.8451
2012.000000 0.8450 0.8449 0.8449 0.8447 0.8446
2017.000000 0.8444 0.8442 0.8440 0.8438 0.8435
2022.000000 0.8433 0.8431 0.8428 0.8425 0.8423
2027.000000 0.8420 0.8417 0.8414 0.8411 0.8408
2032.000000 0.8406 0.8403 0.8400 0.8397 0.8394
2037.000000 0.8390 0.8386 0.8382 0.8378 0.8374
2042.000000 0.8370 0.8366 0.8362 0.8358 0.8354
2047.000000 0.8349 0.8345 0.8341 0.8337 0.8332
2052.000000 0.8327 0.8321 0.8318 0.8316 0.8315
2057.000000 0.8313 0.8311 0.8309 0.8308 0.8306
2062.000000 0.8305 0.8303 0.8302 0.8300 0.8299
2067.000000 0.8299 0.8300 0.8300 0.8301 0.8301
2072.000000 0.8301 0.8301 0.8301 0.8300 0.8299
2077.000000 0.8298 0.8297 0.8296 0.8295 0.8291
2082.000000 0.8287 0.8281 0.8275 0.8271 0.8266
2087.000000 0.8260 0.8255 0.8251 0.8247 0.8244
2092.000000 0.8242 0.8239 0.8237 0.8234 0.8232
2097.000000 0.8228 0.8227 0.8225 0.8225 0.8228
2102.000000 0.8230 0.8232 0.8235 0.8237 0.8239
2107.000000 0.8241 0.8243 0.8245 0.8248 0.8249
2112.000000 0.8249 0.8249 0.8249 0.8249 0.8249
2117.000000 0.8248 0.8248 0.8247 0.8247 0.8247
2122.000000 0.8247 0.8246 0.8246 0.8245 0.8244
2127.000000 0.8242 0.8241 0.8240 0.8239 0.8237
2132.000000 0.8236 0.8235 0.8234 0.8232 0.8231
2137.000000 0.8230 0.8228 0.8227 0.8225 0.8225
2142.000000 0.8224 0.8221 0.8218 0.8215 0.8212
2147.000000 0.8208 0.8205 0.8202 0.8199 0.8196
2152.000000 0.8193 0.8190 0.8187 0.8184 0.8181
2157.000000 0.8178 0.8175 0.8171 0.8168 0.8165
2162.000000 0.8161 0.8158 0.8156 0.8153 0.8151
2167.000000 0.8149 0.8147 0.8145 0.8144 0.8142
2172.000000 0.8140 0.8138 0.8137 0.8135 0.8133
2177.000000 0.8131 0.8128 0.8126 0.8125 0.8124
2182.000000 0.8121 0.8119 0.8118 0.8117 0.8115
2187.000000 0.8112 0.8111 0.8108 0.8108 0.8106
2192.000000 0.8104 0.8101 0.8100 0.8098 0.8097
2197.000000 0.8095 0.8093 0.8091 0.8090 0.8088
2202.000000 0.8087 0.8085 0.8084 0.8082 0.8081
2207.000000 0.8078 0.8076 0.8075 0.8074 0.8071
2212.000000 0.8071 0.8068 0.8068 0.8065 0.8064
2217.000000 0.8061 0.8060 0.8057 0.8055 0.8051
2222.000000 0.8050 0.8047 0.8044 0.8041 0.8039
2227.000000 0.8036 0.8033 0.8030 0.8028 0.8025
2232.000000 0.8021 0.8018 0.8015 0.8011 0.8007
2237.000000 0.8003 0.8000 0.7996 0.7993 0.7989
2242.000000 0.7985 0.7982 0.7978 0.7975 0.7972
2247.000000 0.7968 0.7965 0.7962 0.7960 0.7957
2252.000000 0.7954 0.7951 0.7948 0.7945 0.7942
2257.000000 0.7939 0.7937 0.7935 0.7934 0.7932
2262.000000 0.7931 0.7928 0.7926 0.7925 0.7924
2267.000000 0.7921 0.7921 0.7918 0.7917 0.7915
2272.000000 0.7914 0.7912 0.7911 0.7911 0.7911
2277.000000 0.7910 0.7910 0.7908 0.7908 0.7908
2282.000000 0.7908 0.7907 0.7907 0.7906 0.7906
2287.000000 0.7905 0.7905 0.7904 0.7904 0.7903
2292.000000 0.7903 0.7901 0.7901 0.7901 0.7901
2297.000000 0.7901 0.7901 0.7901 0.7901 0.7901
2302.000000 0.7901 0.7901 0.7901 0.7901 0.7901
2307.000000 0.7901 0.7901 0.7901 0.7901 0.7900
2312.000000 0.7900 0.7899 0.7898 0.7897 0.7897
2317.000000 0.7896 0.7896 0.7895 0.7894 0.7893
2322.000000 0.7893 0.7892 0.7891 0.7890 0.7890
2327.000000 0.7889 0.7888 0.7887 0.7887 0.7886
2332.000000 0.7886 0.7885 0.7884 0.7883 0.7883
2337.000000 0.7882 0.7881 0.7880 0.7878 0.7878
2342.000000 0.7876 0.7875 0.7875 0.7872 0.7871
2347.000000 0.7871 0.7869 0.7868 0.7868 0.7867
2352.000000 0.7867 0.7865 0.7865 0.7865 0.7865
2357.000000 0.7865 0.7865 0.7864 0.7864 0.7864
2362.000000 0.7864 0.7864 0.7864 0.7864 0.7864
2367.000000 0.7864 0.7864 0.7864 0.7864 0.7864
2372.000000 0.7864 0.7864 0.7864 0.7864 0.7864
2377.000000 0.7861 0.7861 0.7858 0.7858 0.7856
2382.000000 0.7855 0.7853 0.7851 0.7850 0.7848
2387.000000 0.7846 0.7845 0.7843 0.7842 0.7840
2392.000000 0.7838 0.7837 0.7837 0.7836 0.7835
2397.000000 0.7834 0.7834 0.7833 0.7833 0.7832
2402.000000 0.7832 0.7831 0.7831 0.7830 0.7828
2407.000000 0.7828 0.7828 0.7826 0.7826 0.7825
2412.000000 0.7825 0.7825 0.7824 0.7822 0.7822
2417.000000 0.7821 0.7821 0.7821 0.7821 0.7819
2422.000000 0.7818 0.7818 0.7818 0.7817 0.7815
2427.000000 0.7815 0.7815 0.7815 0.7815 0.7815
2432.000000 0.7815 0.7815 0.7815 0.7815 0.7817
2437.000000 0.7817 0.7817 0.7817 0.7817 0.7817
2442.000000 0.7818 0.7818 0.7818 0.7818 0.7818
2447.000000 0.7818 0.7818 0.7817 0.7817 0.7815
2452.000000 0.7815 0.7815 0.7815 0.7814 0.7814
2457.000000 0.7812 0.7812 0.7811 0.7811 0.7811
2462.000000 0.7811 0.7810 0.7808 0.7808 0.7808
2467.000000 0.7807 0.7806 0.7805 0.7805 0.7804
2472.000000 0.7803 0.7801 0.7801 0.7800 0.7800
2477.000000 0.7799 0.7798 0.7797 0.7797 0.7796
2482.000000 0.7795 0.7794 0.7793 0.7792 0.7792
2487.000000 0.7792 0.7792 0.7792 0.7792 0.7792
2492.000000 0.7792 0.7792 0.7792 0.7792 0.7792
2497.000000 0.7792 0.7792 0.7792 0.7792 0.7792
2502.000000 0.7792 0.7792 0.7792 0.7792 0.7792
2507.000000 0.7792 0.7792 0.7792 0.7792 0.7792
2512.000000 0.7792 0.7791 0.7791 0.7790 0.7790
2517.000000 0.7789 0.7789 0.7789 0.7789 0.7788
2522.000000 0.7788 0.7787 0.7787 0.7786 0.7786
2527.000000 0.7786 0.7786 0.7785 0.7785 0.7784
2532.000000 0.7784 0.7783 0.7783 0.7783 0.7783
2537.000000 0.7782 0.7782 0.7781 0.7781 0.7780
2542.000000 0.7778 0.7778 0.7776 0.7775 0.7774
2547.000000 0.7772 0.7771 0.7771 0.7769 0.7768
2552.000000 0.7767 0.7765 0.7765 0.7762 0.7761
2557.000000 0.7761 0.7760 0.7757 0.7754 0.7750
2562.000000 0.7747 0.7743 0.7739 0.7735 0.7731
2567.000000 0.7726 0.7724 0.7719 0.7715 0.7711
2572.000000 0.7708 0.7705 0.7701 0.7697 0.7693
2577.000000 0.7689 0.7686 0.7682 0.7678 0.7674
2582.000000 0.7671 0.7667 0.7664 0.7660 0.7657
2587.000000 0.7653 0.7650 0.7646 0.7643 0.7640
2592.000000 0.7637 0.7633 0.7630 0.7625 0.7622
2597.000000 0.7619 0.7617 0.7614 0.7611 0.7608
2602.000000 0.7607 0.7604 0.7601 0.7598 0.7596
2607.000000 0.7593 0.7591 0.7588 0.7586 0.7583
2612.000000 0.7581 0.7578 0.7575 0.7575 0.7575
2617.000000 0.7575 0.7575 0.7575 0.7575 0.7575
2622.000000 0.7575 0.7575 0.7575 0.7575 0.7575
2627.000000 0.7575 0.7575 0.7575 0.7575 0.7575
2632.000000 0.7575 0.7575 0.7575 0.7575 0.7575
2637.000000 0.7575 0.7575 0.7575 0.7575 0.7575
2642.000000 0.7575 0.7575 0.7575 0.7575 0.7575
2647.000000 0.7575 0.7575 0.7574 0.7572 0.7571
2652.000000 0.7571 0.7571 0.7569 0.7568 0.7568
2657.000000 0.7568 0.7567 0.7562 0.7560 0.7556
2662.000000 0.7551 0.7547 0.7543 0.7537 0.7532
2667.000000 0.7525 0.7518 0.7511 0.7505 0.7498
2672.000000 0.7492 0.7485 0.7478 0.7472 0.7467
2677.000000 0.7461 0.7455 0.7449 0.7444 0.7438
2682.000000 0.7433 0.7426 0.7421 0.7415 0.7410
2687.000000 0.7404 0.7399 0.7393 0.7388 0.7382
2692.000000 0.7375 0.7368 0.7362 0.7356 0.7349
2697.000000 0.7342 0.7336 0.7328 0.7322 0.7315
2702.000000 0.7308 0.7301 0.7296 0.7289 0.7283
2707.000000 0.7275 0.7268 0.7261 0.7256 0.7249
2712.000000 0.7243 0.7236 0.7230 0.7222 0.7217
2717.000000 0.7211 0.7205 0.7199 0.7193 0.7187
2722.000000 0.7181 0.7175 0.7168 0.7162 0.7157
2727.000000 0.7151 0.7148 0.7144 0.7141 0.7137
2732.000000 0.7133 0.7128 0.7125 0.7121 0.7118
2737.000000 0.7118 0.7119 0.7121 0.7122 0.7124
2742.000000 0.7125 0.7125 0.7126 0.7128 0.7130
2747.000000 0.7133 0.7136 0.7138 0.7141 0.7143
2752.000000 0.7146 0.7148 0.7151 0.7153 0.7155
2757.000000 0.7157 0.7158 0.7161 0.7165 0.7167
2762.000000 0.7169 0.7172 0.7175 0.7178 0.7181
2767.000000 0.7183 0.7183 0.7184 0.7184 0.7183
2772.000000 0.7183 0.7182 0.7182 0.7178 0.7176
2777.000000 0.7174 0.7171 0.7168 0.7167 0.7164
2782.000000 0.7161 0.7157 0.7153 0.7146 0.7140
2787.000000 0.7133 0.7126 0.7119 0.7114 0.7107
2792.000000 0.7101 0.7094 0.7088 0.7081 0.7075
2797.000000 0.7068 0.7061 0.7055 0.7048 0.7041
2802.000000 0.7035 0.7028 0.7021 0.7014 0.7008
2807.000000 0.7001 0.6994 0.6987 0.6981 0.6974
2812.000000 0.6968 0.6961 0.6954 0.6946 0.6939
2817.000000 0.6928 0.6918 0.6908 0.6900 0.6890
2822.000000 0.6881 0.6871 0.6861 0.6851 0.6843
2827.000000 0.6833 0.6822 0.6805 0.6788 0.6768
2832.000000 0.6750 0.6732 0.6714 0.6696 0.6678
2837.000000 0.6660 0.6642 0.6621 0.6601 0.6578
2842.000000 0.6556 0.6533 0.6510 0.6480 0.6451
2847.000000 0.6417 0.6383 0.6344 0.6306 0.6260
2852.000000 0.6217 0.6171 0.6125 0.6099 0.6073
2857.000000 0.6066 0.6060 0.6062 0.6062 0.6062
2862.000000 0.6060 0.6047 0.6034 0.6006 0.5978
2867.000000 0.5951 0.5925 0.5895 0.5866 0.5839
2872.000000 0.5812 0.5787 0.5760 0.5742 0.5724
2877.000000 0.5724 0.5724 0.5726 0.5728 0.5739
2882.000000 0.5750 0.5760 0.5772 0.5781 0.5790
2887.000000 0.5797 0.5805 0.5774 0.5743 0.5690
2892.000000 0.5637 0.5584 0.5531 0.5478 0.5425
2897.000000 0.5372 0.5319 0.5271 0.5223 0.5210
2902.000000 0.5197 0.5182 0.5168 0.5151 0.5135
2907.000000 0.5125 0.5115 0.5107 0.5099 0.5099
2912.000000 0.5087 0.5159 0.5219 0.5266 0.5312
2917.000000 0.5333 0.5353 0.5360 0.5368 0.5365
2922.000000 0.5362 0.5364 0.5365 0.5354 0.5349
2927.000000 0.5343 0.5337 0.5323 0.5309 0.5288
2932.000000 0.5267 0.5224 0.5182 0.5127 0.5073
2937.000000 0.5018 0.4962 0.4908 0.4853 0.4798
2942.000000 0.4744 0.4689 0.4634 0.4579 0.4525
2947.000000 0.4475 0.4426 0.4406 0.4372 0.4390
2952.000000 0.4393 0.4438 0.4483 0.4572 0.4662
2957.000000 0.4751 0.4841 0.4958 0.5075 0.5236
2962.000000 0.5397 0.5535 0.5674 0.5879 0.6084
2967.000000 0.6112 0.6140 0.6155 0.6170 0.6178
2972.000000 0.6203 0.6190 0.6193 0.6188 0.6184
2977.000000 0.6171 0.6159 0.6137 0.6115 0.6091
2982.000000 0.6067 0.6027 0.5988 0.5941 0.5894
2987.000000 0.5864 0.5835 0.5832 0.5831 0.5831
2992.000000 0.5832 0.6170 0.6508 0.6533 0.6558
2997.000000 0.6565 0.6571 0.6576 0.6583 0.6589
3002.000000 0.6595 0.6650 0.6706 0.6792 0.6878
3007.000000 0.6872 0.6867 0.6858 0.6851 0.6845
3012.000000 0.6838 0.6833 0.6828 0.6825 0.6825
3017.000000 0.6825 0.6826 0.6837 0.6848 0.6872
3022.000000 0.6899 0.6922 0.6947 0.6955 0.6964
3027.000000 0.6964 0.6964 0.6962 0.6951 0.6961
3032.000000 0.6960 0.6958 0.6956 0.6951 0.6948
3037.000000 0.6943 0.6938 0.6933 0.6928 0.6921
3042.000000 0.6912 0.6903 0.6893 0.6883 0.6874
3047.000000 0.6864 0.6855 0.6847 0.6839 0.6844
3052.000000 0.6849 0.6858 0.6867 0.6876 0.6887
3057.000000 0.6886 0.6886 0.6884 0.6883 0.6882
3062.000000 0.6881 0.6880 0.6878 0.6878 0.6876
3067.000000 0.6875 0.6875 0.6872 0.6871 0.6871
3072.000000 0.6869 0.6868 0.6867 0.6865 0.6864
3077.000000 0.6862 0.6861 0.6860 0.6858 0.6855
3082.000000 0.6851 0.6846 0.6841 0.6836 0.6832
3087.000000 0.6826 0.6822 0.6818 0.6814 0.6808
3092.000000 0.6804 0.6798 0.6793 0.6786 0.6778
3097.000000 0.6771 0.6765 0.6758 0.6751 0.6742
3102.000000 0.6733 0.6724 0.6715 0.6705 0.6696
3107.000000 0.6687 0.6678 0.6668 0.6660 0.6651
3112.000000 0.6642 0.6632 0.6622 0.6611 0.6599
3117.000000 0.6586 0.6574 0.6561 0.6550 0.6537
3122.000000 0.6525 0.6512 0.6501 0.6488 0.6475
3127.000000 0.6461 0.6448 0.6434 0.6421 0.6407
3132.000000 0.6394 0.6380 0.6367 0.6353 0.6340
3137.000000 0.6326 0.6312 0.6299 0.6286 0.6273
3142.000000 0.6260 0.6251 0.6242 0.6232 0.6222
3147.000000 0.6212 0.6203 0.6193 0.6183 0.6173
3152.000000 0.6164 0.6154 0.6145 0.6135 0.6125
3157.000000 0.6115 0.6106 0.6095 0.6085 0.6073
3162.000000 0.6062 0.6051 0.6040 0.6028 0.6017
3167.000000 0.6005 0.5994 0.5983 0.5972 0.5958
3172.000000 0.5944 0.5930 0.5916 0.5901 0.5887
3177.000000 0.5872 0.5858 0.5844 0.5830 0.5815
3182.000000 0.5801 0.5787 0.5773 0.5759 0.5745
3187.000000 0.5731 0.5717 0.5704 0.5692 0.5681
3192.000000 0.5671 0.5660 0.5649 0.5638 0.5628
3197.000000 0.5608 0.5589 0.5568 0.5548 0.5529
3202.000000 0.5510 0.5494 0.5477 0.5460 0.5443
3207.000000 0.5426 0.5409 0.5392 0.5375 0.5351
3212.000000 0.5328 0.5302 0.5276 0.5249 0.5223
3217.000000 0.5197 0.5171 0.5148 0.5125 0.5104
3222.000000 0.5083 0.5060 0.5040 0.5019 0.4998
3227.000000 0.4976 0.4955 0.4932 0.4910 0.4887
3232.000000 0.4864 0.4840 0.4817 0.4794 0.4771
3237.000000 0.4747 0.4724 0.4701 0.4678 0.4654
3242.000000 0.4631 0.4606 0.4582 0.4556 0.4531
3247.000000 0.4506 0.4481 0.4456 0.4431 0.4406
3252.000000 0.4381 0.4356 0.4331 0.4303 0.4276
3257.000000 0.4245 0.4215 0.4185 0.4155 0.4124
3262.000000 0.4094 0.4064 0.4034 0.4000 0.3966
3267.000000 0.3929 0.3893 0.3857 0.3821 0.3784
3272.000000 0.3749 0.3709 0.3671 0.3627 0.3582
3277.000000 0.3539 0.3496 0.3445 0.3395 0.3334
3282.000000 0.3276 0.3230 0.3187 0.3160 0.3133
3287.000000 0.3123 0.3113 0.3102 0.3092 0.3083
3292.000000 0.3074 0.3071 0.3070 0.3070 0.3053
3297.000000 0.3074 0.3076 0.3078 0.3080 0.3083
3302.000000 0.3085 0.3095 0.3104 0.3114 0.3124
3307.000000 0.3134 0.3144 0.3154 0.3165 0.3175
3312.000000 0.3184 0.3195 0.3205 0.3214 0.3226
3317.000000 0.3236 0.3246 0.3257 0.3268 0.3280
3322.000000 0.3291 0.3304 0.3318 0.3334 0.3352
3327.000000 0.3368 0.3387 0.3400 0.3416 0.3428
3332.000000 0.3440 0.3452 0.3464 0.3471 0.3478
3337.000000 0.3480 0.3482 0.3484 0.3486 0.3488
3342.000000 0.3490 0.3492 0.3492 0.3492 0.3491
3347.000000 0.3487 0.3521 0.3480 0.3478 0.3475
3352.000000 0.3472 0.3468 0.3466 0.3462 0.3458
3357.000000 0.3453 0.3449 0.3444 0.3440 0.3434
3362.000000 0.3430 0.3425 0.3421 0.3416 0.3412
3367.000000 0.3403 0.3395 0.3384 0.3376 0.3366
3372.000000 0.3357 0.3347 0.3338 0.3328 0.3318
3377.000000 0.3308 0.3299 0.3284 0.3268 0.3254
3382.000000 0.3240 0.3225 0.3210 0.3189 0.3168
3387.000000 0.3145 0.3122 0.3099 0.3076 0.3053
3392.000000 0.3030 0.3006 0.2983 0.2957 0.2931
3397.000000 0.2905 0.2880 0.2853 0.2827 0.2792
3402.000000 0.2758 0.2725 0.2693 0.2672 0.2651
3407.000000 0.2646 0.2641 0.2644 0.2660 0.2658
3412.000000 0.2668 0.2684 0.2701 0.2716 0.2732
3417.000000 0.2774 0.2817 0.2866 0.2916 0.2966
3422.000000 0.3016 0.3066 0.3116 0.3165 0.3214
3427.000000 0.3264 0.3314 0.3364 0.3414 0.3456
3432.000000 0.3497 0.3540 0.3582 0.3624 0.3664
3437.000000 0.3690 0.3714 0.3740 0.3764 0.3794
3442.000000 0.3823 0.3879 0.3936 0.3991 0.4047
3447.000000 0.4097 0.4148 0.4197 0.4247 0.4293
3452.000000 0.4340 0.4387 0.4434 0.4485 0.4536
3457.000000 0.4588 0.4640 0.4686 0.4732 0.4757
3462.000000 0.4783 0.4809 0.4835 0.4860 0.4886
3467.000000 0.4910 0.4937 0.4962 0.4988 0.5014
3472.000000 0.5040 0.5065 0.5091 0.5117 0.5143
3477.000000 0.5169 0.5195 0.5221 0.5248 0.5274
3482.000000 0.5300 0.5324 0.5349 0.5371 0.5394
3487.000000 0.5416 0.5439 0.5460 0.5483 0.5505
3492.000000 0.5528 0.5550 0.5573 0.5595 0.5617
3497.000000 0.5639 0.5662 0.5685 0.5708 0.5730
3502.000000 0.5753 0.5775 0.5798 0.5820 0.5843
3507.000000 0.5865 0.5888 0.5910 0.5933 0.5952
3512.000000 0.5972 0.5992 0.6012 0.6031 0.6051
3517.000000 0.6070 0.6090 0.6109 0.6129 0.6148
3522.000000 0.6168 0.6188 0.6208 0.6227 0.6247
3527.000000 0.6266 0.6286 0.6306 0.6326 0.6345
3532.000000 0.6365 0.6384 0.6404 0.6422 0.6443
3537.000000 0.6458 0.6475 0.6492 0.6508 0.6525
3542.000000 0.6541 0.6557 0.6574 0.6590 0.6607
3547.000000 0.6622 0.6640 0.6655 0.6669 0.6683
3552.000000 0.6697 0.6710 0.6722 0.6736 0.6749
3557.000000 0.6761 0.6775 0.6788 0.6801 0.6815
3562.000000 0.6828 0.6839 0.6850 0.6858 0.6865
3567.000000 0.6874 0.6882 0.6890 0.6898 0.6906
3572.000000 0.6914 0.6921 0.6930 0.6938 0.6946
3577.000000 0.6954 0.6961 0.6969 0.6978 0.6985
3582.000000 0.6993 0.6999 0.7006 0.7011 0.7018
3587.000000 0.7025 0.7032 0.7038 0.7045 0.7051
3592.000000 0.7058 0.7064 0.7071 0.7076 0.7084
3597.000000 0.7088 0.7092 0.7095 0.7099 0.7101
3602.000000 0.7106 0.7108 0.7112 0.7115 0.7119
3607.000000 0.7124 0.7128 0.7131 0.7135 0.7138
3612.000000 0.7142 0.7145 0.7149 0.7151 0.7156
3617.000000 0.7158 0.7162 0.7165 0.7169 0.7171
3622.000000 0.7175 0.7176 0.7180 0.7182 0.7185
3627.000000 0.7187 0.7190 0.7192 0.7195 0.7198
3632.000000 0.7201 0.7203 0.7206 0.7208 0.7211
3637.000000 0.7212 0.7215 0.7218 0.7221 0.7222
3642.000000 0.7225 0.7228 0.7230 0.7232 0.7234
3647.000000 0.7236 0.7238 0.7240 0.7243 0.7245
3652.000000 0.7247 0.7249 0.7251 0.7253 0.7255
3657.000000 0.7257 0.7258 0.7261 0.7264 0.7265
3662.000000 0.7268 0.7269 0.7271 0.7272 0.7274
3667.000000 0.7274 0.7274 0.7274 0.7275 0.7275
3672.000000 0.7275 0.7275 0.7275 0.7275 0.7276
3677.000000 0.7276 0.7278 0.7278 0.7278 0.7278
3682.000000 0.7278 0.7278 0.7280 0.7280 0.7280
3687.000000 0.7280 0.7280 0.7278 0.7278 0.7278
3692.000000 0.7278 0.7278 0.7278 0.7276 0.7276
3697.000000 0.7275 0.7275 0.7275 0.7275 0.7274
3702.000000 0.7274 0.7272 0.7272 0.7272 0.7272
3707.000000 0.7271 0.7271 0.7271 0.7271 0.7269
3712.000000 0.7269 0.7268 0.7268 0.7265 0.7265
3717.000000 0.7262 0.7261 0.7260 0.7258 0.7257
3722.000000 0.7255 0.7253 0.7251 0.7250 0.7249
3727.000000 0.7247 0.7245 0.7243 0.7242 0.7240
3732.000000 0.7239 0.7237 0.7251 0.7234 0.7232
3737.000000 0.7230 0.7228 0.7226 0.7225 0.7224
3742.000000 0.7222 0.7221 0.7219 0.7218 0.7217
3747.000000 0.7215 0.7212 0.7211 0.7210 0.7208
3752.000000 0.7207 0.7205 0.7204 0.7201 0.7201
3757.000000 0.7199 0.7198 0.7196 0.7195 0.7193
3762.000000 0.7192 0.7190 0.7188 0.7186 0.7185
3767.000000 0.7183 0.7181 0.7178 0.7176 0.7175
3772.000000 0.7174 0.7171 0.7169 0.7168 0.7167
3777.000000 0.7165 0.7162 0.7161 0.7158 0.7157
3782.000000 0.7156 0.7154 0.7151 0.7150 0.7148
3787.000000 0.7146 0.7145 0.7143 0.7141 0.7138
3792.000000 0.7136 0.7133 0.7131 0.7128 0.7125
3797.000000 0.7122 0.7121 0.7118 0.7115 0.7112
3802.000000 0.7111 0.7107 0.7103 0.7098 0.7093
3807.000000 0.7088 0.7083 0.7082 0.7082
##END=
