##TITLE=9H-IMIDAZO[2,1-i]PURINE, 9-ETHYL-7,8-DIHYDRO-, HYDROCHLORIDE
##JCAMP-DX=4.24
##DATA TYPE=INFRARED SPECTRUM
##CLASS=COBLENTZ III
##ORIGIN=SOUTHERN RESEARCH INSTITUTE
##OWNER=COBLENTZ SOCIETY
Collection (C) 2018 copyright by the U.S. Secretary of Commerce
on behalf of the United States of America. All rights reserved.
##DATE=1961/03/09
##NAMES=9-ethyl-8,9-dihydro-7H-imidazo[2,1-i]purine hydrochloride
##MOLFORM=C9 H12 Cl N5
##SOURCE REFERENCE=COBLENTZ NO. 6939
##$NIST ID=B6006939
##$NIST SOURCE=COBLENTZ
##$NIST IMAGE=cob6939
##SPECTROMETER/DATA SYSTEM=PERKIN-ELMER 21 (GRATING)
##INSTRUMENT PARAMETERS=FILTER CHANGE ABOUT 980 CM^-^1
##STATE=SOLID (1.0 mg / 650 mg KBr DISC)
##SAMPLING PROCEDURE=TRANSMISSION
##RESOLUTION=4
##DATA PROCESSING=DIGITIZED BY NIST FROM HARD COPY (FROM TWO SEGMENTS)
##XUNITS=1/CM
##YUNITS=TRANSMITTANCE
##XFACTOR=1.000000
##YFACTOR=1
##DELTAX=1.228070
##FIRSTX=647.121
##LASTX=3806.95
##FIRSTY=0.915
##MAXX=3806.95
##MINX=647.121
##MAXY=0.931593
##MINY=0
##NPOINTS=2574
##XYDATA=(X++(Y..Y))
647.121000 0.9150 0.9150 0.9150 0.9150 0.9150
653.261350 0.9150 0.9150 0.9150 0.9150 0.9159
659.401700 0.9160 0.9169 0.9170 0.9170 0.9170
665.542050 0.9162 0.9160 0.9152 0.9142 0.9108
671.682400 0.9052 0.9008 0.8945 0.8907 0.8839
677.822750 0.8752 0.8574 0.8366 0.8014 0.7558
683.963100 0.7378 0.7360 0.7526 0.8021 0.8554
690.103450 0.8904 0.9130 0.9264 0.9306 0.9310
696.243800 0.9310 0.9310 0.9316 0.9314 0.9310
702.384150 0.9304 0.9289 0.9280 0.9280 0.9280
708.524500 0.9275 0.9265 0.9255 0.9240 0.9230
714.664850 0.9230 0.9230 0.9226 0.9220 0.9220
720.805200 0.9216 0.9210 0.9202 0.9182 0.9166
726.945550 0.9156 0.9146 0.9133 0.9113 0.9090
733.085900 0.9064 0.9047 0.9037 0.9024 0.9007
739.226250 0.8986 0.8945 0.8920 0.8890 0.8885
745.366600 0.8866 0.8848 0.8836 0.8804 0.8734
751.506950 0.8705 0.8667 0.8592 0.8547 0.8518
757.647300 0.8409 0.8159 0.7917 0.7798 0.7665
763.787650 0.7389 0.7086 0.6302 0.5482 0.4710
769.928000 0.4776 0.7231 0.7285 0.7612 0.8186
776.068350 0.8219 0.8230 0.8220 0.8096 0.8015
782.208700 0.7917 0.7715 0.7443 0.7293 0.6993
788.349050 0.6809 0.6641 0.6482 0.6315 0.6282
794.489400 0.6288 0.6481 0.6701 0.6918 0.7120
800.629750 0.7278 0.7481 0.7714 0.7914 0.7990
806.770100 0.8007 0.8025 0.8088 0.8124 0.8137
812.910450 0.8147 0.8164 0.8170 0.8157 0.8143
819.050800 0.8127 0.8114 0.8097 0.8084 0.8074
825.191150 0.8052 0.8034 0.8024 0.8020 0.8014
831.331500 0.7988 0.7959 0.7939 0.7920 0.7823
837.471850 0.7725 0.7700 0.7671 0.7641 0.7616
843.612200 0.7596 0.7581 0.7548 0.7482 0.7401
849.752550 0.7328 0.7252 0.7195 0.7122 0.7004
855.892900 0.6901 0.6796 0.6693 0.6587 0.6418
862.033250 0.6058 0.5648 0.5304 0.4926 0.4691
868.173600 0.4431 0.4166 0.3907 0.3652 0.3460
874.313950 0.3536 0.3896 0.4270 0.4843 0.6230
880.454300 0.6931 0.7062 0.7471 0.7457 0.7299
886.594650 0.7213 0.7160 0.7164 0.7205 0.7265
892.735000 0.7339 0.7474 0.7541 0.7551 0.7579
898.875350 0.7548 0.7418 0.7230 0.7052 0.6464
905.015700 0.6189 0.5922 0.5090 0.4729 0.4402
911.156050 0.4066 0.3757 0.3730 0.4407 0.5141
917.296400 0.5265 0.5433 0.5794 0.5960 0.6365
923.436750 0.6770 0.7248 0.7404 0.7420 0.7420
929.577100 0.7358 0.7248 0.7144 0.6985 0.6859
935.717450 0.6742 0.6595 0.6394 0.6232 0.6162
941.857800 0.6150 0.6183 0.6399 0.6709 0.7084
947.998150 0.7528 0.7961 0.8230 0.8336 0.8348
954.138500 0.8334 0.8290 0.8254 0.8244 0.8218
960.278850 0.8152 0.8015 0.7817 0.7518 0.7117
966.419200 0.6842 0.6780 0.6972 0.7333 0.7559
972.559550 0.7780 0.8043 0.8211 0.8326 0.8354
978.699900 0.8368 0.8384 0.8394 0.8400 0.8404
984.840250 0.8413 0.8427 0.8443 0.8453 0.8469
990.980600 0.8493 0.8508 0.8541 0.8664 0.8959
997.120950 0.9100 0.9190 0.9190 0.9190 0.9184
1003.261300 0.9158 0.9150 0.9148 0.9140 0.9137
1009.401650 0.9117 0.9094 0.9059 0.9050 0.9050
1015.542000 0.9050 0.9050 0.9050 0.9049 0.9040
1021.682350 0.9039 0.9030 0.9029 0.9010 0.9010
1027.822700 0.9010 0.9010 0.9000 0.8990 0.8942
1033.963050 0.8902 0.8891 0.8852 0.8804 0.8763
1040.103400 0.8733 0.8694 0.8655 0.8624 0.8620
1046.243750 0.8629 0.8647 0.8675 0.8688 0.8706
1052.384100 0.8718 0.8720 0.8720 0.8720 0.8712
1058.524450 0.8695 0.8682 0.8658 0.8628 0.8591
1064.664800 0.8573 0.8556 0.8522 0.8476 0.8358
1070.805150 0.8263 0.8168 0.8000 0.7745 0.7634
1076.945500 0.7636 0.7664 0.7716 0.7882 0.8032
1083.085850 0.8081 0.8084 0.8058 0.8018 0.7984
1089.226200 0.7949 0.7905 0.7840 0.7765 0.7662
1095.366550 0.7538 0.7410 0.7225 0.6806 0.6236
1101.506900 0.5809 0.5536 0.5388 0.5213 0.5040
1107.647250 0.4926 0.4927 0.4997 0.5156 0.5351
1113.787600 0.5782 0.6446 0.6769 0.6918 0.7279
1119.927950 0.7635 0.8210 0.8295 0.8315 0.8342
1126.068300 0.8385 0.8400 0.8396 0.8376 0.8358
1132.208650 0.8348 0.8324 0.8237 0.8161 0.8088
1138.349000 0.7941 0.7798 0.7620 0.7435 0.7194
1144.489350 0.6937 0.6689 0.6439 0.6291 0.6157
1150.629700 0.6315 0.6698 0.6993 0.7152 0.7441
1156.770050 0.7649 0.7876 0.7977 0.8192 0.8295
1162.910400 0.8404 0.8419 0.8438 0.8440 0.8449
1169.050750 0.8450 0.8450 0.8450 0.8441 0.8423
1175.191100 0.8412 0.8402 0.8392 0.8382 0.8356
1181.331450 0.8334 0.8290 0.8257 0.8250 0.8242
1187.471800 0.8240 0.8233 0.8223 0.8199 0.8154
1193.612150 0.8126 0.8099 0.8069 0.8006 0.7934
1199.752500 0.7838 0.7742 0.7704 0.7694 0.7690
1205.892850 0.7696 0.7700 0.7706 0.7710 0.7710
1212.033200 0.7704 0.7695 0.7685 0.7670 0.7650
1218.173550 0.7635 0.7605 0.7526 0.7393 0.7221
1224.313900 0.7042 0.6856 0.6666 0.6493 0.6217
1230.454250 0.5793 0.5339 0.4902 0.4479 0.4070
1236.594600 0.3790 0.3650 0.3718 0.4009 0.4473
1242.734950 0.4997 0.5715 0.6422 0.6954 0.7274
1248.875300 0.7499 0.7701 0.7827 0.7855 0.7868
1255.015650 0.7851 0.7818 0.7798 0.7739 0.7663
1261.156000 0.7521 0.7396 0.7180 0.6928 0.6753
1267.296350 0.6467 0.6206 0.5894 0.5404 0.5250
1273.436700 0.5263 0.5428 0.5575 0.6022 0.6072
1279.577050 0.6119 0.6079 0.6016 0.5600 0.5412
1285.717400 0.5234 0.5037 0.4858 0.4576 0.4307
1291.857750 0.4178 0.4087 0.3989 0.3971 0.3970
1297.998100 0.4049 0.4130 0.4183 0.4292 0.4704
1304.138450 0.4947 0.5088 0.5330 0.5461 0.5607
1310.278800 0.5852 0.6003 0.6145 0.6180 0.6173
1316.419150 0.6148 0.6125 0.6098 0.6083 0.6080
1322.559500 0.6238 0.6385 0.6507 0.6622 0.6705
1328.699850 0.6762 0.6939 0.7030 0.6975 0.6579
1334.840200 0.5979 0.5451 0.5221 0.4881 0.4322
1340.980550 0.3771 0.3520 0.3736 0.4163 0.4593
1347.120900 0.5023 0.5449 0.5836 0.6220 0.6463
1353.261250 0.6494 0.6496 0.6490 0.6473 0.6446
1359.401600 0.6404 0.6241 0.5949 0.5636 0.5262
1365.541950 0.4909 0.4850 0.4860 0.5003 0.5442
1371.682300 0.5931 0.6254 0.6617 0.6864 0.6933
1377.822650 0.6940 0.6940 0.6940 0.6940 0.6942
1383.963000 0.6958 0.7002 0.7061 0.7131 0.7243
1390.103350 0.7313 0.7335 0.7360 0.7356 0.7329
1396.243700 0.7297 0.7075 0.6728 0.6366 0.5909
1402.384050 0.5173 0.4542 0.4225 0.3910 0.3937
1408.524400 0.5051 0.5151 0.5527 0.5864 0.5870
1414.664750 0.4035 0.3931 0.3968 0.4130 0.4298
1420.805100 0.4631 0.4905 0.5226 0.5605 0.5869
1426.945450 0.6012 0.6125 0.6327 0.6562 0.6833
1433.085800 0.6970 0.7168 0.7290 0.7302 0.7284
1439.226150 0.7257 0.7082 0.6932 0.6803 0.6667
1445.366500 0.6514 0.6413 0.6299 0.6198 0.6129
1451.506850 0.6050 0.5947 0.5831 0.5771 0.5754
1457.647200 0.5756 0.5809 0.5895 0.5978 0.6115
1463.787550 0.6334 0.6565 0.6789 0.7028 0.7292
1469.927900 0.7532 0.7672 0.7776 0.7850 0.7855
1476.068250 0.7845 0.7831 0.7806 0.7772 0.7697
1482.208600 0.7469 0.7179 0.6884 0.6568 0.6368
1488.348950 0.6054 0.5730 0.5408 0.5074 0.4850
1494.489300 0.5131 0.5811 0.6299 0.6859 0.7149
1500.629650 0.7414 0.7603 0.7833 0.8151 0.8353
1506.770000 0.8365 0.8380 0.8380 0.8380 0.8380
1512.910350 0.8380 0.8380 0.8376 0.8360 0.8358
1519.050700 0.8349 0.8336 0.8309 0.8295 0.8259
1525.191050 0.8249 0.8239 0.8229 0.8219 0.8199
1531.331400 0.8188 0.8149 0.8130 0.8119 0.8040
1537.471750 0.7970 0.7921 0.7900 0.7842 0.7744
1543.612100 0.7711 0.7701 0.7653 0.7641 0.7604
1549.752450 0.7573 0.7526 0.7449 0.7256 0.7083
1555.892800 0.6940 0.6725 0.6623 0.6519 0.6451
1562.033150 0.6311 0.6058 0.5621 0.5192 0.4715
1568.173500 0.3962 0.3213 0.2616 0.1895 0.1163
1574.313850 0.0960 0.1176 0.1637 0.2293 0.3161
1580.454200 0.4127 0.4983 0.5710 0.6320 0.6847
1586.594550 0.7223 0.7430 0.7555 0.7635 0.7677
1592.734900 0.7696 0.7694 0.7685 0.7680 0.7680
1598.875250 0.7670 0.7635 0.7595 0.7560 0.7521
1605.015600 0.7486 0.7456 0.7435 0.7430 0.7430
1611.155950 0.7426 0.7396 0.7344 0.7249 0.7128
1617.296300 0.7091 0.7060 0.7056 0.6999 0.6853
1623.436650 0.6750 0.6724 0.6698 0.6637 0.6551
1629.577000 0.6527 0.6504 0.6457 0.6401 0.6245
1635.717350 0.6212 0.6146 0.6118 0.6056 0.5990
1641.857700 0.5950 0.5919 0.5752 0.5651 0.5593
1647.998050 0.5533 0.5401 0.5238 0.5028 0.4748
1654.138400 0.4618 0.4478 0.4323 0.4215 0.4112
1660.278750 0.3921 0.3653 0.3358 0.3148 0.2940
1666.419100 0.2683 0.2494 0.2180 0.1835 0.1536
1672.559450 0.1323 0.1014 0.0807 0.0598 0.0354
1678.699800 0.0089 0.0007 0.0000 0.0000 0.0000
1684.840150 0.0000 0.0000 0.0000 0.0000 0.0008
1690.980500 0.0018 0.0051 0.0076 0.0111 0.0173
1697.120850 0.0235 0.0287 0.0531 0.0814 0.1203
1703.261200 0.1638 0.2067 0.2635 0.2954 0.3128
1709.401550 0.3391 0.3793 0.4104 0.4358 0.4577
1715.541900 0.4765 0.4970 0.5095 0.5131 0.5140
1721.682250 0.5129 0.5120 0.5115 0.5110 0.5105
1727.822600 0.5095 0.5090 0.5095 0.5100 0.5119
1733.962950 0.5149 0.5227 0.5323 0.5383 0.5486
1740.103300 0.5628 0.5828 0.6026 0.6217 0.6419
1746.243650 0.6591 0.6762 0.6870 0.6953 0.7039
1752.384000 0.7167 0.7312 0.7428 0.7470 0.7475
1758.524350 0.7498 0.7520 0.7522 0.7535 0.7555
1764.664700 0.7572 0.7584 0.7606 0.7639 0.7689
1770.805050 0.7732 0.7743 0.7764 0.7793 0.7811
1776.945400 0.7820 0.7820 0.7820 0.7820 0.7820
1783.085750 0.7821 0.7841 0.7853 0.7910 0.7920
1789.226100 0.7920 0.7931 0.7980 0.8069 0.8119
1795.366450 0.8198 0.8248 0.8336 0.8359 0.8407
1801.506800 0.8466 0.8507 0.8601 0.8646 0.8685
1807.647150 0.8708 0.8719 0.8737 0.8791 0.8817
1813.787500 0.8837 0.8889 0.8924 0.8938 0.8940
1819.927850 0.8956 0.8983 0.8998 0.9007 0.9025
1826.068200 0.9030 0.9037 0.9040 0.9040 0.9040
1832.208550 0.9040 0.9047 0.9057 0.9060 0.9066
1838.348900 0.9064 0.9060 0.9060 0.9054 0.9056
1844.489250 0.9060 0.9060 0.9060 0.9060 0.9060
1850.629600 0.9060 0.9060 0.9060 0.9060 0.9060
1856.769950 0.9055 0.9050 0.9050 0.9050 0.9050
1862.910300 0.9050 0.9050 0.9054 0.9056 0.9046
1869.050650 0.9040 0.9040 0.9040 0.9044 0.9046
1875.191000 0.9040 0.9040 0.9040 0.9040 0.9040
1881.331350 0.9040 0.9037 0.9030 0.9025 0.9007
1887.471700 0.9000 0.9000 0.8995 0.8976 0.8958
1893.612050 0.8948 0.8938 0.8928 0.8917 0.8898
1899.752400 0.8890 0.8889 0.8880 0.8879 0.8870
1905.892750 0.8867 0.8840 0.8838 0.8820 0.8819
1912.033100 0.8799 0.8789 0.8770 0.8759 0.8740
1918.173450 0.8740 0.8730 0.8710 0.8690 0.8661
1924.313800 0.8650 0.8650 0.8631 0.8630 0.8630
1930.454150 0.8630 0.8621 0.8620 0.8611 0.8610
1936.594500 0.8610 0.8610 0.8602 0.8600 0.8600
1942.734850 0.8608 0.8610 0.8618 0.8620 0.8620
1948.875200 0.8628 0.8645 0.8665 0.8707 0.8778
1955.015550 0.8836 0.8878 0.8925 0.8947 0.8970
1961.155900 0.8980 0.8987 0.8997 0.9000 0.9006
1967.296250 0.9022 0.9030 0.9030 0.9030 0.9036
1973.436600 0.9040 0.9046 0.9050 0.9050 0.9050
1979.576950 0.9050 0.9050 0.9050 0.9050 0.9050
1985.717300 0.9050 0.9045 0.9045 0.9055 0.9056
1991.857650 0.9050 0.9050 0.9046 0.9044 0.9050
1997.998000 0.9050 0.9050 0.9050 0.9050 0.9050
2004.138350 0.9050 0.9050 0.9050 0.9050 0.9050
2010.278700 0.9054 0.9060 0.9060 0.9053 0.9040
2016.419050 0.9044 0.9050 0.9046 0.9040 0.9040
2022.559400 0.9040 0.9040 0.9040 0.9040 0.9036
2028.699750 0.9030 0.9030 0.9030 0.9030 0.9030
2034.840100 0.9030 0.9030 0.9034 0.9040 0.9040
2040.980450 0.9040 0.9044 0.9046 0.9040 0.9040
2047.120800 0.9040 0.9044 0.9046 0.9040 0.9040
2053.261150 0.9040 0.9036 0.9023 0.9006 0.8996
2059.401500 0.8986 0.8973 0.8960 0.8960 0.8960
2065.541850 0.8960 0.8960 0.8956 0.8946 0.8940
2071.682200 0.8940 0.8940 0.8936 0.8930 0.8930
2077.822550 0.8930 0.8934 0.8940 0.8940 0.8936
2083.962900 0.8930 0.8926 0.8920 0.8920 0.8920
2090.103250 0.8920 0.8920 0.8920 0.8909 0.8894
2096.243600 0.8900 0.8896 0.8890 0.8886 0.8880
2102.383950 0.8880 0.8880 0.8876 0.8870 0.8870
2108.524300 0.8870 0.8863 0.8850 0.8846 0.8836
2114.664650 0.8830 0.8819 0.8800 0.8800 0.8796
2120.805000 0.8790 0.8786 0.8776 0.8766 0.8764
2126.945350 0.8766 0.8760 0.8760 0.8753 0.8740
2133.085700 0.8733 0.8716 0.8710 0.8710 0.8703
2139.226050 0.8690 0.8697 0.8703 0.8690 0.8690
2145.366400 0.8686 0.8684 0.8690 0.8690 0.8690
2151.506750 0.8690 0.8690 0.8690 0.8690 0.8697
2157.647100 0.8710 0.8710 0.8703 0.8690 0.8697
2163.787450 0.8714 0.8720 0.8720 0.8720 0.8720
2169.927800 0.8720 0.8720 0.8716 0.8710 0.8710
2176.068150 0.8703 0.8686 0.8669 0.8643 0.8626
2182.208500 0.8616 0.8606 0.8593 0.8580 0.8580
2188.348850 0.8576 0.8566 0.8556 0.8550 0.8543
2194.489200 0.8526 0.8513 0.8500 0.8496 0.8490
2200.629550 0.8483 0.8466 0.8460 0.8456 0.8450
2206.769900 0.8450 0.8446 0.8440 0.8440 0.8440
2212.910250 0.8440 0.8440 0.8440 0.8440 0.8440
2219.050600 0.8440 0.8440 0.8444 0.8450 0.8450
2225.190950 0.8454 0.8460 0.8460 0.8460 0.8460
2231.331300 0.8464 0.8470 0.8470 0.8466 0.8464
2237.471650 0.8470 0.8470 0.8470 0.8466 0.8464
2243.612000 0.8466 0.8460 0.8456 0.8450 0.8450
2249.752350 0.8446 0.8440 0.8440 0.8433 0.8420
2255.892700 0.8420 0.8416 0.8410 0.8410 0.8414
2262.033050 0.8420 0.8420 0.8416 0.8410 0.8410
2268.173400 0.8410 0.8406 0.8393 0.8369 0.8350
2274.313750 0.8350 0.8350 0.8350 0.8350 0.8346
2280.454100 0.8336 0.8323 0.8306 0.8300 0.8296
2286.594450 0.8290 0.8290 0.8290 0.8290 0.8286
2292.734800 0.8280 0.8280 0.8280 0.8280 0.8273
2298.875150 0.8253 0.8225 0.8189 0.8159 0.8140
2305.015500 0.8136 0.8126 0.8120 0.8116 0.8103
2311.155850 0.8072 0.8036 0.8023 0.8006 0.7993
2317.296200 0.7976 0.7963 0.7943 0.7926 0.7894
2323.436550 0.7835 0.7810 0.7788 0.7735 0.7688
2329.576900 0.7643 0.7623 0.7606 0.7596 0.7583
2335.717250 0.7559 0.7536 0.7526 0.7513 0.7493
2341.857600 0.7473 0.7453 0.7436 0.7430 0.7430
2347.997950 0.7423 0.7403 0.7383 0.7366 0.7349
2354.138300 0.7326 0.7313 0.7289 0.7266 0.7256
2360.278650 0.7243 0.7230 0.7226 0.7216 0.7210
2366.419000 0.7210 0.7210 0.7210 0.7206 0.7200
2372.559350 0.7196 0.7190 0.7183 0.7163 0.7146
2378.699700 0.7133 0.7120 0.7116 0.7110 0.7110
2384.840050 0.7106 0.7096 0.7090 0.7083 0.7066
2390.980400 0.7060 0.7053 0.7040 0.7036 0.7030
2397.120750 0.7030 0.7023 0.7006 0.6996 0.6979
2403.261100 0.6960 0.6956 0.6950 0.6946 0.6936
2409.401450 0.6930 0.6890 0.6805 0.6776 0.6770
2415.541800 0.6766 0.6753 0.6736 0.6723 0.6699
2421.682150 0.6669 0.6635 0.6610 0.6606 0.6600
2427.822500 0.6593 0.6576 0.6570 0.6563 0.6543
2433.962850 0.6526 0.6520 0.6513 0.6496 0.6479
2440.103200 0.6456 0.6446 0.6399 0.6323 0.6299
2446.243550 0.6251 0.6171 0.6087 0.6004 0.5949
2452.383900 0.5926 0.5894 0.5846 0.5833 0.5809
2458.524250 0.5779 0.5756 0.5746 0.5729 0.5706
2464.664600 0.5685 0.5653 0.5629 0.5603 0.5572
2470.804950 0.5514 0.5466 0.5449 0.5430 0.5397
2476.945300 0.5329 0.5299 0.5276 0.5266 0.5256
2483.085650 0.5243 0.5226 0.5209 0.5139 0.5035
2489.226000 0.4999 0.4973 0.4949 0.4871 0.4759
2495.366350 0.4718 0.4654 0.4581 0.4501 0.4424
2501.506700 0.4351 0.4282 0.4206 0.4108 0.4033
2507.647050 0.3926 0.3810 0.3707 0.3635 0.3606
2513.787400 0.3596 0.3590 0.3590 0.3594 0.3604
2519.927750 0.3617 0.3637 0.3665 0.3719 0.3799
2526.068100 0.3890 0.4026 0.4192 0.4343 0.4498
2532.208450 0.4609 0.4671 0.4697 0.4714 0.4724
2538.348800 0.4730 0.4734 0.4740 0.4740 0.4740
2544.489150 0.4740 0.4736 0.4726 0.4702 0.4652
2550.629500 0.4595 0.4539 0.4509 0.4483 0.4463
2556.769850 0.4424 0.4369 0.4335 0.4288 0.4232
2562.910200 0.4196 0.4186 0.4165 0.4110 0.4027
2569.050550 0.3963 0.3910 0.3811 0.3716 0.3629
2575.190900 0.3588 0.3532 0.3493 0.3476 0.3459
2581.331250 0.3436 0.3423 0.3399 0.3376 0.3355
2587.471600 0.3305 0.3234 0.3172 0.3122 0.3072
2593.611950 0.3022 0.2953 0.2853 0.2753 0.2668
2599.752300 0.2605 0.2545 0.2509 0.2479 0.2453
2605.892650 0.2381 0.2243 0.2158 0.2098 0.2027
2612.033000 0.1966 0.1956 0.1935 0.1906 0.1893
2618.173350 0.1876 0.1866 0.1856 0.1832 0.1785
2624.313700 0.1742 0.1699 0.1673 0.1656 0.1650
2630.454050 0.1650 0.1654 0.1660 0.1660 0.1667
2636.594400 0.1687 0.1711 0.1737 0.1765 0.1808
2642.734750 0.1851 0.1874 0.1887 0.1922 0.1967
2648.875100 0.2038 0.2191 0.2332 0.2453 0.2525
2655.015450 0.2587 0.2683 0.2758 0.2805 0.2834
2661.155800 0.2844 0.2857 0.2870 0.2863 0.2850
2667.296150 0.2846 0.2836 0.2819 0.2796 0.2783
2673.436500 0.2770 0.2766 0.2760 0.2764 0.2770
2679.576850 0.2774 0.2784 0.2794 0.2807 0.2824
2685.717200 0.2834 0.2855 0.2887 0.2907 0.2924
2691.857550 0.2930 0.2930 0.2926 0.2909 0.2883
2697.997900 0.2855 0.2812 0.2776 0.2766 0.2760
2704.138250 0.2760 0.2760 0.2760 0.2760 0.2760
2710.278600 0.2760 0.2760 0.2760 0.2764 0.2774
2716.418950 0.2784 0.2801 0.2827 0.2844 0.2886
2722.559300 0.2961 0.3006 0.3054 0.3064 0.3081
2728.699650 0.3104 0.3114 0.3120 0.3127 0.3144
2734.840000 0.3157 0.3181 0.3218 0.3276 0.3357
2740.980350 0.3442 0.3484 0.3508 0.3555 0.3606
2747.120700 0.3661 0.3702 0.3788 0.3922 0.4069
2753.261050 0.4177 0.4208 0.4244 0.4254 0.4267
2759.401400 0.4280 0.4280 0.4280 0.4273 0.4260
2765.541750 0.4256 0.4250 0.4250 0.4250 0.4250
2771.682100 0.4254 0.4267 0.4287 0.4318 0.4361
2777.822450 0.4380 0.4384 0.4390 0.4394 0.4404
2783.962800 0.4410 0.4414 0.4420 0.4420 0.4420
2790.103150 0.4420 0.4420 0.4420 0.4427 0.4440
2796.243500 0.4444 0.4450 0.4454 0.4464 0.4477
2802.383850 0.4497 0.4517 0.4537 0.4554 0.4567
2808.524200 0.4635 0.4785 0.4902 0.4947 0.4989
2814.664550 0.5058 0.5127 0.5219 0.5332 0.5480
2820.804900 0.5586 0.5687 0.5783 0.5855 0.5887
2826.945250 0.5900 0.5900 0.5900 0.5889 0.5863
2833.085600 0.5839 0.5813 0.5785 0.5742 0.5666
2839.225950 0.5542 0.5416 0.5300 0.5215 0.5113
2845.366300 0.4885 0.4621 0.4335 0.4099 0.3967
2851.506650 0.3746 0.3524 0.3476 0.3466 0.3402
2857.647000 0.3285 0.3256 0.3250 0.3243 0.3230
2863.787350 0.3226 0.3213 0.3196 0.3190 0.3190
2869.927700 0.3194 0.3200 0.3207 0.3224 0.3237
2876.068050 0.3261 0.3291 0.3317 0.3345 0.3377
2882.208400 0.3419 0.3488 0.3542 0.3591 0.3625
2888.348750 0.3668 0.3715 0.3751 0.3785 0.3821
2894.489100 0.3847 0.3897 0.3967 0.4039 0.4177
2900.629450 0.4299 0.4433 0.4512 0.4568 0.4618
2906.769800 0.4654 0.4664 0.4670 0.4670 0.4670
2912.910150 0.4670 0.4670 0.4670 0.4670 0.4670
2919.050500 0.4666 0.4660 0.4660 0.4660 0.4656
2925.190850 0.4650 0.4650 0.4650 0.4650 0.4650
2931.331200 0.4654 0.4660 0.4667 0.4684 0.4701
2937.471550 0.4727 0.4813 0.4973 0.5063 0.5131
2943.611900 0.5157 0.5181 0.5204 0.5210 0.5214
2949.752250 0.5220 0.5220 0.5220 0.5213 0.5196
2955.892600 0.5139 0.5013 0.4843 0.4612 0.4438
2962.032950 0.4192 0.3967 0.3770 0.3592 0.3483
2968.173300 0.3466 0.3464 0.3477 0.3508 0.3551
2974.313650 0.3577 0.3616 0.3770 0.4008 0.4123
2980.454000 0.4206 0.4250 0.4254 0.4260 0.4260
2986.594350 0.4267 0.4284 0.4294 0.4304 0.4321
2992.734700 0.4347 0.4400 0.4503 0.4604 0.4713
2998.875050 0.4818 0.4948 0.5081 0.5199 0.5257
3005.015400 0.5285 0.5314 0.5324 0.5330 0.5334
3011.155750 0.5340 0.5340 0.5340 0.5347 0.5364
3017.296100 0.5370 0.5377 0.5408 0.5451 0.5477
3023.436450 0.5519 0.5581 0.5648 0.5763 0.5860
3029.576800 0.5941 0.5964 0.5988 0.6038 0.6114
3035.717150 0.6260 0.6424 0.6522 0.6578 0.6625
3041.857500 0.6654 0.6660 0.6660 0.6664 0.6670
3047.997850 0.6670 0.6674 0.6691 0.6714 0.6727
3054.138200 0.6751 0.6781 0.6852 0.6955 0.7006
3060.278550 0.7057 0.7081 0.7107 0.7135 0.7186
3066.418900 0.7248 0.7309 0.7364 0.7374 0.7380
3072.559250 0.7380 0.7384 0.7390 0.7390 0.7397
3078.699600 0.7403 0.7390 0.7390 0.7390 0.7386
3084.839950 0.7380 0.7380 0.7380 0.7376 0.7355
3090.980300 0.7319 0.7285 0.7260 0.7245 0.7198
3097.120650 0.7145 0.7098 0.7034 0.6953 0.6843
3103.261000 0.6724 0.6590 0.6370 0.6071 0.5677
3109.401350 0.5318 0.5210 0.5243 0.5362 0.5572
3115.541700 0.5852 0.6147 0.6435 0.6654 0.6883
3121.682050 0.7155 0.7364 0.7451 0.7477 0.7512
3127.822400 0.7586 0.7672 0.7717 0.7734 0.7744
3133.962750 0.7754 0.7764 0.7796 0.7851 0.7892
3140.103100 0.7937 0.7954 0.7964 0.8003 0.8064
3146.243450 0.8085 0.8121 0.8151 0.8177 0.8201
3152.383800 0.8224 0.8234 0.8262 0.8311 0.8337
3158.524150 0.8361 0.8384 0.8397 0.8410 0.8414
3164.664500 0.8420 0.8427 0.8440 0.8440 0.8440
3170.804850 0.8440 0.8444 0.8450 0.8450 0.8450
3176.945200 0.8450 0.8450 0.8454 0.8460 0.8460
3183.085550 0.8460 0.8460 0.8460 0.8460 0.8456
3189.225900 0.8454 0.8460 0.8460 0.8460 0.8460
3195.366250 0.8460 0.8460 0.8460 0.8456 0.8450
3201.506600 0.8450 0.8450 0.8450 0.8450 0.8450
3207.646950 0.8454 0.8460 0.8460 0.8456 0.8450
3213.787300 0.8446 0.8433 0.8416 0.8406 0.8400
3219.927650 0.8393 0.8380 0.8380 0.8380 0.8380
3226.068000 0.8373 0.8360 0.8360 0.8360 0.8360
3232.208350 0.8356 0.8350 0.8350 0.8350 0.8350
3238.348700 0.8350 0.8350 0.8350 0.8350 0.8350
3244.489050 0.8350 0.8350 0.8350 0.8350 0.8350
3250.629400 0.8350 0.8350 0.8350 0.8354 0.8360
3256.769750 0.8360 0.8360 0.8360 0.8360 0.8360
3262.910100 0.8360 0.8360 0.8360 0.8360 0.8360
3269.050450 0.8360 0.8360 0.8360 0.8360 0.8360
3275.190800 0.8360 0.8360 0.8360 0.8360 0.8367
3281.331150 0.8373 0.8360 0.8360 0.8360 0.8360
3287.471500 0.8360 0.8360 0.8360 0.8360 0.8356
3293.611850 0.8346 0.8336 0.8330 0.8323 0.8306
3299.752200 0.8300 0.8296 0.8290 0.8286 0.8280
3305.892550 0.8284 0.8290 0.8290 0.8290 0.8290
3312.032900 0.8286 0.8280 0.8280 0.8280 0.8280
3318.173250 0.8269 0.8232 0.8196 0.8186 0.8180
3324.313600 0.8169 0.8146 0.8136 0.8126 0.8109
3330.453950 0.8090 0.8090 0.8086 0.8080 0.8080
3336.594300 0.8080 0.8080 0.8080 0.8080 0.8076
3342.734650 0.8052 0.8013 0.7993 0.7976 0.7966
3348.875000 0.7945 0.7913 0.7885 0.7860 0.7856
3355.015350 0.7839 0.7820 0.7816 0.7810 0.7810
3361.155700 0.7806 0.7782 0.7735 0.7710 0.7706
3367.296050 0.7693 0.7680 0.7673 0.7660 0.7656
3373.436400 0.7650 0.7643 0.7619 0.7596 0.7583
3379.576750 0.7555 0.7530 0.7526 0.7520 0.7520
3385.717100 0.7513 0.7500 0.7496 0.7490 0.7486
3391.857450 0.7476 0.7466 0.7460 0.7449 0.7430
3397.997800 0.7423 0.7410 0.7410 0.7410 0.7403
3404.138150 0.7390 0.7397 0.7410 0.7410 0.7410
3410.278500 0.7410 0.7403 0.7390 0.7390 0.7390
3416.418850 0.7390 0.7386 0.7380 0.7380 0.7380
3422.559200 0.7380 0.7380 0.7380 0.7380 0.7384
3428.699550 0.7390 0.7390 0.7390 0.7397 0.7410
3434.839900 0.7414 0.7420 0.7420 0.7420 0.7420
3440.980250 0.7420 0.7424 0.7430 0.7434 0.7440
3447.120600 0.7440 0.7440 0.7440 0.7447 0.7460
3453.260950 0.7464 0.7470 0.7474 0.7480 0.7484
3459.401300 0.7494 0.7500 0.7507 0.7520 0.7520
3465.541650 0.7524 0.7530 0.7530 0.7530 0.7530
3471.682000 0.7530 0.7530 0.7530 0.7534 0.7540
3477.822350 0.7540 0.7544 0.7550 0.7550 0.7561
3483.962700 0.7598 0.7641 0.7671 0.7694 0.7700
3490.103050 0.7700 0.7704 0.7710 0.7710 0.7717
3496.243400 0.7730 0.7730 0.7730 0.7734 0.7740
3502.383750 0.7744 0.7754 0.7764 0.7770 0.7777
3508.524100 0.7790 0.7794 0.7804 0.7810 0.7814
3514.664450 0.7820 0.7820 0.7827 0.7840 0.7840
3520.804800 0.7840 0.7844 0.7850 0.7854 0.7860
3526.945150 0.7860 0.7864 0.7870 0.7870 0.7870
3533.085500 0.7874 0.7880 0.7887 0.7900 0.7904
3539.225850 0.7914 0.7924 0.7930 0.7937 0.7950
3545.366200 0.7950 0.7954 0.7964 0.7970 0.7981
3551.506550 0.8004 0.8014 0.8024 0.8030 0.8034
3557.646900 0.8051 0.8077 0.8097 0.8114 0.8120
3563.787250 0.8120 0.8120 0.8120 0.8120 0.8124
3569.927600 0.8134 0.8151 0.8177 0.8194 0.8207
3576.067950 0.8227 0.8244 0.8254 0.8260 0.8267
3582.208300 0.8280 0.8280 0.8280 0.8284 0.8290
3588.348650 0.8294 0.8300 0.8311 0.8334 0.8358
3594.489000 0.8394 0.8404 0.8414 0.8427 0.8440
3600.629350 0.8444 0.8450 0.8454 0.8460 0.8464
3606.769700 0.8481 0.8504 0.8517 0.8530 0.8537
3612.910050 0.8550 0.8554 0.8560 0.8560 0.8575
3619.050400 0.8604 0.8614 0.8620 0.8624 0.8637
3625.190750 0.8654 0.8664 0.8670 0.8677 0.8690
3631.331100 0.8690 0.8690 0.8690 0.8690 0.8690
3637.471450 0.8697 0.8710 0.8710 0.8714 0.8720
3643.611800 0.8720 0.8724 0.8730 0.8730 0.8730
3649.752150 0.8730 0.8730 0.8730 0.8730 0.8730
3655.892500 0.8734 0.8740 0.8740 0.8740 0.8740
3662.032850 0.8740 0.8740 0.8740 0.8740 0.8740
3668.173200 0.8740 0.8740 0.8740 0.8740 0.8740
3674.313550 0.8740 0.8740 0.8740 0.8740 0.8740
3680.453900 0.8740 0.8740 0.8740 0.8740 0.8740
3686.594250 0.8740 0.8740 0.8740 0.8740 0.8747
3692.734600 0.8760 0.8760 0.8760 0.8760 0.8760
3698.874950 0.8760 0.8760 0.8760 0.8760 0.8760
3705.015300 0.8760 0.8760 0.8764 0.8770 0.8766
3711.155650 0.8760 0.8760 0.8760 0.8760 0.8753
3717.296000 0.8740 0.8740 0.8740 0.8740 0.8740
3723.436350 0.8740 0.8740 0.8740 0.8740 0.8736
3729.576700 0.8730 0.8730 0.8730 0.8730 0.8730
3735.717050 0.8730 0.8730 0.8730 0.8730 0.8726
3741.857400 0.8720 0.8720 0.8724 0.8730 0.8730
3747.997750 0.8730 0.8730 0.8730 0.8730 0.8730
3754.138100 0.8730 0.8730 0.8734 0.8740 0.8740
3760.278450 0.8740 0.8740 0.8740 0.8740 0.8740
3766.418800 0.8740 0.8740 0.8740 0.8740 0.8740
3772.559150 0.8740 0.8736 0.8730 0.8726 0.8720
3778.699500 0.8716 0.8710 0.8710 0.8710 0.8710
3784.839850 0.8710 0.8710 0.8710 0.8710 0.8710
3790.980200 0.8710 0.8703 0.8690 0.8686 0.8680
3797.120550 0.8680 0.8680 0.8676 0.8670 0.8670
3803.260900 0.8670 0.8670 0.8666 0.8660
##END=
