##TITLE=SODIUM METAARSENITE
$$ A.R.
##JCAMP-DX=4.24
##DATA TYPE=INFRARED SPECTRUM
##CLASS=COBLENTZ
##ORIGIN=MELLON INSTITUTE
##OWNER=COBLENTZ SOCIETY
Collection (C) 2018 copyright by the U.S. Secretary of Commerce
on behalf of the United States of America. All rights reserved.
##DATE=Not specified, most likely prior to 1970
##MOLFORM=Na As O2
##SOURCE REFERENCE=COBLENTZ NO. 497
##$NIST ID=B6000497
##$NIST SOURCE=COBLENTZ
##$NIST IMAGE=cob497
##SPECTROMETER/DATA SYSTEM=Not specified, most likely a prism, grating, or hybrid spectrometer.
##STATE=SOLID (NUJOL AND FLUOROLUBE MULLS)
##SAMPLING PROCEDURE=TRANSMISSION
##RESOLUTION=4
##DATA PROCESSING=DIGITIZED BY NIST FROM HARD COPY
##XUNITS=MICROMETERS
##YUNITS=TRANSMITTANCE
##XFACTOR=1.000000
##YFACTOR=1
##DELTAX=000.006828
##FIRSTX=2.017
##LASTX=16.0006
##FIRSTY=0.74
##MAXX=16.0006
##MINX=2.017
##MAXY=0.979
##MINY=0.113
##NPOINTS=2049
##XYDATA=(X++(Y..Y))
2.017000 0.7400 0.7400 0.7420 0.7430 0.7430
2.051157 0.7450 0.7450 0.7470 0.7490 0.7500
2.085000 0.7500 0.7520 0.7540 0.7540 0.7540
2.119157 0.7560 0.7570 0.7590 0.7590 0.7610
2.153000 0.7620 0.7640 0.7640 0.7660 0.7660
2.187157 0.7680 0.7690 0.7710 0.7730 0.7730
2.222000 0.7740 0.7740 0.7740 0.7760 0.7760
2.256157 0.7780 0.7780 0.7800 0.7800 0.7810
2.290000 0.7810 0.7830 0.7850 0.7850 0.7860
2.324157 0.7860 0.7880 0.7900 0.7900 0.7920
2.358000 0.7920 0.7950 0.7950 0.7970 0.7970
2.392157 0.7980 0.7980 0.7980 0.8000 0.8000
2.426000 0.8000 0.8020 0.8020 0.8040 0.8040
2.460157 0.8040 0.8050 0.8050 0.8070 0.8090
2.495000 0.8100 0.8100 0.8100 0.8120 0.8120
2.529157 0.8140 0.8140 0.8160 0.8160 0.8160
2.563000 0.8170 0.8170 0.8190 0.8190 0.8190
2.597157 0.8190 0.8210 0.8210 0.8230 0.8230
2.631000 0.8230 0.8240 0.8240 0.8260 0.8260
2.665157 0.8260 0.8260 0.8280 0.8280 0.8280
2.700000 0.8280 0.8280 0.8280 0.8280 0.8280
2.734157 0.8260 0.8240 0.8240 0.8230 0.8230
2.768000 0.8210 0.8190 0.8160 0.8140 0.8120
2.802157 0.8050 0.8020 0.8000 0.8000 0.7930
2.836000 0.7920 0.7880 0.7880 0.7860 0.7850
2.870157 0.7830 0.7830 0.7830 0.7830 0.7830
2.904000 0.7830 0.7830 0.7830 0.7850 0.7850
2.938157 0.7850 0.7850 0.7860 0.7860 0.7860
2.973000 0.7880 0.7880 0.7900 0.7900 0.7880
3.007157 0.7920 0.7920 0.7930 0.7930 0.7950
3.041000 0.7950 0.7970 0.7970 0.7970 0.7980
3.075157 0.7980 0.8000 0.8000 0.8020 0.8020
3.109000 0.8020 0.8020 0.8040 0.8040 0.8090
3.143157 0.8090 0.8100 0.8100 0.8120 0.8120
3.178000 0.8140 0.8140 0.8160 0.8170 0.8190
3.212157 0.8190 0.8210 0.8230 0.8230 0.8240
3.246000 0.8240 0.8240 0.8240 0.8240 0.8260
3.280157 0.8280 0.8280 0.8290 0.8290 0.8290
3.314000 0.8310 0.8330 0.8330 0.8350 0.8350
3.348157 0.8380 0.8380 0.8400 0.8410 0.8410
3.382000 0.8430 0.8450 0.8480 0.8520 0.8530
3.416157 0.8570 0.8620 0.8620 0.8640 0.8650
3.451000 0.8670 0.8690 0.8710 0.8740 0.8740
3.485157 0.8760 0.8780 0.8790 0.8810 0.8830
3.519000 0.8830 0.8840 0.8840 0.8860 0.8880
3.553157 0.8880 0.8900 0.8900 0.8910 0.8910
3.587000 0.8930 0.8950 0.8950 0.8950 0.8960
3.621157 0.8960 0.8980 0.8980 0.9000 0.9000
3.655000 0.9000 0.9000 0.9000 0.9000 0.9020
3.689157 0.9020 0.9020 0.9030 0.9030 0.9030
3.724000 0.9030 0.9050 0.9050 0.9070 0.9070
3.758157 0.9070 0.9070 0.9070 0.9070 0.9080
3.792000 0.9080 0.9080 0.9080 0.9080 0.9080
3.826157 0.9080 0.9100 0.9100 0.9100 0.9100
3.860000 0.9120 0.9120 0.9120 0.9120 0.9120
3.894157 0.9120 0.9120 0.9140 0.9140 0.9140
3.929000 0.9140 0.9140 0.9140 0.9150 0.9150
3.963157 0.9150 0.9150 0.9170 0.9150 0.9150
3.997000 0.9150 0.9150 0.9150 0.9150 0.9150
4.031157 0.9150 0.9150 0.9150 0.9150 0.9170
4.065000 0.9170 0.9170 0.9150 0.9150 0.9150
4.099157 0.9150 0.9150 0.9150 0.9150 0.9140
4.133000 0.9140 0.9140 0.9120 0.9100 0.9100
4.167157 0.9100 0.9080 0.9080 0.9080 0.9080
4.202000 0.9070 0.9080 0.9070 0.9050 0.9030
4.236157 0.9030 0.9000 0.8980 0.8960 0.8950
4.270000 0.8930 0.8900 0.8880 0.8860 0.8860
4.304157 0.8860 0.8860 0.8880 0.8900 0.8930
4.338000 0.8950 0.8980 0.9000 0.9020 0.9020
4.372157 0.9030 0.9020 0.9020 0.9030 0.9030
4.407000 0.9030 0.9050 0.9050 0.9070 0.9070
4.441157 0.9070 0.9080 0.9080 0.9080 0.9100
4.475000 0.9100 0.9100 0.9120 0.9120 0.9120
4.509157 0.9140 0.9140 0.9150 0.9150 0.9150
4.543000 0.9150 0.9150 0.9150 0.9150 0.9170
4.577157 0.9190 0.9190 0.9190 0.9190 0.9200
4.611000 0.9200 0.9200 0.9200 0.9200 0.9240
4.645157 0.9240 0.9240 0.9260 0.9260 0.9260
4.680000 0.9260 0.9260 0.9260 0.9260 0.9260
4.714157 0.9270 0.9270 0.9270 0.9270 0.9270
4.748000 0.9270 0.9290 0.9290 0.9290 0.9310
4.782157 0.9320 0.9320 0.9320 0.9320 0.9320
4.816000 0.9320 0.9320 0.9320 0.9340 0.9340
4.850157 0.9340 0.9340 0.9340 0.9340 0.9340
4.885000 0.9340 0.9340 0.9340 0.9340 0.9340
4.919157 0.9340 0.9340 0.9340 0.9340 0.9340
4.953000 0.9360 0.9360 0.9360 0.9380 0.9380
4.987157 0.9390 0.9390 0.9410 0.9410 0.9430
5.021000 0.9450 0.9430 0.9430 0.9430 0.9430
5.055157 0.9450 0.9450 0.9460 0.9460 0.9460
5.089000 0.9460 0.9460 0.9480 0.9480 0.9480
5.123157 0.9480 0.9500 0.9500 0.9500 0.9500
5.158000 0.9510 0.9510 0.9510 0.9510 0.9510
5.192157 0.9510 0.9500 0.9510 0.9500 0.9500
5.226000 0.9500 0.9500 0.9500 0.9500 0.9500
5.260157 0.9500 0.9500 0.9500 0.9500 0.9500
5.294000 0.9500 0.9480 0.9480 0.9500 0.9500
5.328157 0.9500 0.9500 0.9500 0.9500 0.9500
5.363000 0.9500 0.9480 0.9480 0.9460 0.9460
5.397157 0.9480 0.9480 0.9500 0.9480 0.9480
5.431000 0.9480 0.9480 0.9480 0.9480 0.9480
5.465157 0.9500 0.9500 0.9500 0.9510 0.9510
5.499000 0.9510 0.9510 0.9510 0.9530 0.9530
5.533157 0.9550 0.9550 0.9570 0.9570 0.9570
5.567000 0.9580 0.9580 0.9600 0.9600 0.9620
5.601157 0.9620 0.9620 0.9620 0.9630 0.9620
5.636000 0.9620 0.9600 0.9580 0.9580 0.9580
5.670157 0.9570 0.9570 0.9570 0.9570 0.9570
5.704000 0.9570 0.9570 0.9570 0.9570 0.9570
5.738157 0.9570 0.9570 0.9550 0.9550 0.9550
5.772000 0.9550 0.9530 0.9530 0.9530 0.9530
5.806157 0.9530 0.9530 0.9510 0.9510 0.9510
5.840000 0.9500 0.9500 0.9500 0.9480 0.9480
5.874157 0.9460 0.9460 0.9450 0.9430 0.9410
5.909000 0.9380 0.9360 0.9360 0.9320 0.9310
5.943157 0.9310 0.9290 0.9290 0.9290 0.9290
5.977000 0.9290 0.9290 0.9310 0.9320 0.9340
6.011157 0.9340 0.9360 0.9360 0.9380 0.9380
6.045000 0.9390 0.9390 0.9390 0.9410 0.9410
6.079157 0.9430 0.9430 0.9450 0.9460 0.9480
6.114000 0.9480 0.9510 0.9530 0.9550 0.9550
6.148157 0.9570 0.9570 0.9600 0.9620 0.9630
6.182000 0.9650 0.9670 0.9670 0.9690 0.9700
6.216157 0.9720 0.9720 0.9740 0.9740 0.9750
6.250000 0.9770 0.9770 0.9790 0.9790 0.9790
6.284157 0.9790 0.9790 0.9790 0.9790 0.9770
6.318000 0.9770 0.9770 0.9750 0.9740 0.9740
6.352157 0.9720 0.9720 0.9700 0.9670 0.9650
6.387000 0.9630 0.9600 0.9570 0.9530 0.9530
6.421157 0.9530 0.9550 0.9600 0.9620 0.9620
6.455000 0.9620 0.9630 0.9630 0.9630 0.9630
6.489157 0.9620 0.9620 0.9600 0.9580 0.9570
6.523000 0.9570 0.9550 0.9530 0.9510 0.9500
6.557157 0.9480 0.9460 0.9460 0.9450 0.9430
6.592000 0.9410 0.9360 0.9320 0.9290 0.9260
6.626157 0.9260 0.9240 0.9170 0.9140 0.9070
6.660000 0.9000 0.8910 0.8830 0.8740 0.8600
6.694157 0.8520 0.8350 0.8170 0.7980 0.7800
6.728000 0.7660 0.7620 0.7520 0.7450 0.7400
6.762157 0.7350 0.7300 0.7260 0.7210 0.7160
6.796000 0.7110 0.7040 0.7010 0.6950 0.6920
6.830157 0.6890 0.6890 0.6870 0.6850 0.6850
6.865000 0.6850 0.6870 0.6900 0.6940 0.7020
6.899157 0.7060 0.7190 0.7300 0.7490 0.7620
6.933000 0.7730 0.7830 0.7930 0.8040 0.8120
6.967157 0.8280 0.8380 0.8470 0.8590 0.8670
7.001000 0.8760 0.8790 0.8830 0.8860 0.8880
7.035157 0.8880 0.8880 0.8860 0.8860 0.8810
7.070000 0.8790 0.8790 0.8790 0.8810 0.8860
7.104157 0.8910 0.8960 0.9020 0.9050 0.9030
7.138000 0.9050 0.9070 0.9070 0.9100 0.9120
7.172157 0.9140 0.9140 0.9140 0.9140 0.9140
7.206000 0.9140 0.9140 0.9140 0.9140 0.9140
7.240157 0.9140 0.9140 0.9140 0.9140 0.9140
7.274000 0.9140 0.9140 0.9140 0.9140 0.9140
7.308157 0.9140 0.9140 0.9140 0.9140 0.9140
7.343000 0.9120 0.9120 0.9120 0.9120 0.9120
7.377157 0.9120 0.9120 0.9120 0.9120 0.9120
7.411000 0.9120 0.9120 0.9120 0.9120 0.9120
7.445157 0.9120 0.9120 0.9120 0.9100 0.9100
7.479000 0.9100 0.9100 0.9100 0.9100 0.9100
7.513157 0.9100 0.9100 0.9100 0.9100 0.9100
7.547000 0.9100 0.9100 0.9100 0.9100 0.9100
7.581157 0.9100 0.9100 0.9080 0.9080 0.9080
7.616000 0.9080 0.9080 0.9080 0.9080 0.9080
7.650157 0.9080 0.9080 0.9080 0.9080 0.9080
7.684000 0.9080 0.9080 0.9080 0.9080 0.9080
7.718157 0.9080 0.9080 0.9080 0.9080 0.9080
7.752000 0.9080 0.9080 0.9080 0.9080 0.9080
7.786157 0.9080 0.9080 0.9080 0.9080 0.9080
7.821000 0.9080 0.9080 0.9080 0.9080 0.9080
7.855157 0.9080 0.9080 0.9080 0.9080 0.9080
7.889000 0.9080 0.9080 0.9080 0.9080 0.9080
7.923157 0.9080 0.9080 0.9080 0.9080 0.9080
7.957000 0.9080 0.9080 0.9080 0.9080 0.9080
7.991157 0.9080 0.9080 0.9080 0.9080 0.9080
8.025000 0.9080 0.9080 0.9080 0.9080 0.9080
8.059157 0.9080 0.9080 0.9080 0.9080 0.9080
8.094000 0.9080 0.9080 0.9080 0.9080 0.9080
8.128157 0.9080 0.9080 0.9080 0.9080 0.9080
8.162000 0.9080 0.9080 0.9080 0.9080 0.9080
8.196157 0.9080 0.9080 0.9080 0.9080 0.9080
8.230000 0.9080 0.9080 0.9080 0.9080 0.9080
8.264157 0.9080 0.9080 0.9080 0.9080 0.9080
8.299000 0.9080 0.9080 0.9080 0.9080 0.9080
8.333157 0.9080 0.9080 0.9080 0.9080 0.9080
8.367000 0.9080 0.9080 0.9080 0.9080 0.9080
8.401157 0.9080 0.9080 0.9080 0.9080 0.9080
8.435000 0.9080 0.9080 0.9080 0.9080 0.9080
8.469157 0.9080 0.9080 0.9080 0.9080 0.9080
8.503000 0.9070 0.9070 0.9070 0.9070 0.9070
8.537157 0.9070 0.9070 0.9070 0.9070 0.9070
8.572000 0.9070 0.9070 0.9070 0.9070 0.9070
8.606157 0.9070 0.9070 0.9070 0.9070 0.9070
8.640000 0.9070 0.9070 0.9070 0.9070 0.9070
8.674157 0.9070 0.9070 0.9070 0.9070 0.9070
8.708000 0.9070 0.9070 0.9070 0.9070 0.9070
8.742157 0.9070 0.9070 0.9070 0.9070 0.9070
8.777000 0.9070 0.9070 0.9080 0.9080 0.9080
8.811157 0.9080 0.9080 0.9080 0.9080 0.9100
8.845000 0.9100 0.9100 0.9100 0.9100 0.9100
8.879157 0.9100 0.9100 0.9100 0.9120 0.9120
8.913000 0.9120 0.9120 0.9120 0.9120 0.9120
8.947157 0.9120 0.9140 0.9140 0.9140 0.9140
8.981000 0.9140 0.9140 0.9140 0.9140 0.9140
9.015157 0.9150 0.9150 0.9150 0.9150 0.9150
9.050000 0.9150 0.9150 0.9150 0.9150 0.9150
9.084157 0.9170 0.9170 0.9170 0.9170 0.9170
9.118000 0.9170 0.9170 0.9190 0.9190 0.9190
9.152157 0.9190 0.9190 0.9190 0.9190 0.9190
9.186000 0.9190 0.9190 0.9190 0.9190 0.9190
9.220157 0.9190 0.9190 0.9190 0.9190 0.9190
9.255000 0.9190 0.9190 0.9190 0.9190 0.9190
9.289157 0.9200 0.9190 0.9190 0.9190 0.9200
9.323000 0.9200 0.9200 0.9190 0.9190 0.9200
9.357157 0.9190 0.9190 0.9190 0.9190 0.9200
9.391000 0.9200 0.9190 0.9190 0.9190 0.9190
9.425157 0.9190 0.9190 0.9190 0.9190 0.9190
9.459000 0.9190 0.9190 0.9190 0.9190 0.9190
9.493157 0.9190 0.9190 0.9190 0.9200 0.9200
9.528000 0.9200 0.9200 0.9220 0.9220 0.9240
9.562157 0.9240 0.9240 0.9240 0.9240 0.9260
9.596000 0.9260 0.9270 0.9260 0.9270 0.9260
9.630157 0.9260 0.9260 0.9260 0.9270 0.9270
9.664000 0.9270 0.9270 0.9270 0.9270 0.9270
9.698157 0.9270 0.9260 0.9260 0.9260 0.9260
9.732000 0.9260 0.9260 0.9260 0.9260 0.9260
9.766157 0.9260 0.9260 0.9270 0.9270 0.9270
9.801000 0.9290 0.9290 0.9270 0.9270 0.9270
9.835157 0.9270 0.9270 0.9270 0.9270 0.9270
9.869000 0.9270 0.9260 0.9260 0.9260 0.9260
9.903157 0.9260 0.9260 0.9240 0.9240 0.9240
9.937000 0.9240 0.9240 0.9240 0.9240 0.9240
9.971157 0.9240 0.9240 0.9240 0.9240 0.9240
10.006000 0.9240 0.9240 0.9240 0.9240 0.9240
10.040157 0.9240 0.9240 0.9240 0.9240 0.9240
10.074000 0.9240 0.9240 0.9240 0.9240 0.9240
10.108157 0.9260 0.9260 0.9260 0.9260 0.9260
10.142000 0.9270 0.9270 0.9270 0.9270 0.9270
10.176157 0.9270 0.9270 0.9260 0.9260 0.9260
10.210000 0.9270 0.9270 0.9270 0.9270 0.9270
10.244157 0.9270 0.9270 0.9270 0.9270 0.9270
10.279000 0.9270 0.9270 0.9270 0.9270 0.9270
10.313157 0.9270 0.9270 0.9270 0.9270 0.9270
10.347000 0.9260 0.9260 0.9260 0.9260 0.9260
10.381157 0.9260 0.9240 0.9240 0.9220 0.9240
10.415000 0.9240 0.9240 0.9240 0.9220 0.9220
10.449157 0.9220 0.9220 0.9220 0.9220 0.9200
10.484000 0.9200 0.9200 0.9200 0.9200 0.9190
10.518157 0.9190 0.9190 0.9190 0.9190 0.9190
10.552000 0.9170 0.9170 0.9190 0.9190 0.9170
10.586157 0.9170 0.9170 0.9170 0.9170 0.9170
10.620000 0.9170 0.9150 0.9150 0.9150 0.9150
10.654157 0.9150 0.9150 0.9150 0.9140 0.9140
10.688000 0.9120 0.9120 0.9120 0.9080 0.9070
10.722157 0.9080 0.9080 0.9080 0.9070 0.9070
10.757000 0.9070 0.9070 0.9070 0.9070 0.9070
10.791157 0.9070 0.9070 0.9070 0.9070 0.9050
10.825000 0.9050 0.9050 0.9050 0.9050 0.9050
10.859157 0.9050 0.9030 0.9030 0.9030 0.9020
10.893000 0.9020 0.9030 0.9030 0.9030 0.9030
10.927157 0.9020 0.9020 0.9030 0.9000 0.9000
10.962000 0.9000 0.8980 0.8980 0.8980 0.9000
10.996157 0.8980 0.8980 0.8980 0.8980 0.8980
11.030000 0.8980 0.8960 0.8960 0.8950 0.8950
11.064157 0.8950 0.8950 0.8950 0.8950 0.8930
11.098000 0.8930 0.8910 0.8910 0.8910 0.8910
11.132157 0.8910 0.8900 0.8900 0.8900 0.8900
11.166000 0.8900 0.8900 0.8880 0.8880 0.8880
11.200157 0.8860 0.8860 0.8860 0.8840 0.8840
11.235000 0.8840 0.8840 0.8830 0.8810 0.8790
11.269157 0.8790 0.8780 0.8760 0.8760 0.8740
11.303000 0.8740 0.8720 0.8710 0.8670 0.8670
11.337157 0.8670 0.8650 0.8640 0.8620 0.8570
11.371000 0.8550 0.8530 0.8530 0.8520 0.8480
11.405157 0.8450 0.8410 0.8380 0.8350 0.8330
11.439000 0.8280 0.8190 0.8140 0.8070 0.8020
11.473157 0.7980 0.7850 0.7780 0.7710 0.7610
11.508000 0.7540 0.7500 0.7430 0.7380 0.7350
11.542157 0.7310 0.7260 0.7230 0.7190 0.7140
11.576000 0.7130 0.7090 0.7040 0.6950 0.6870
11.610157 0.6820 0.6750 0.6640 0.6510 0.6440
11.644000 0.6200 0.6030 0.5850 0.5630 0.5460
11.678157 0.5120 0.5000 0.4820 0.4690 0.4500
11.713000 0.4320 0.4100 0.3910 0.3780 0.3640
11.747157 0.3530 0.3400 0.3260 0.3160 0.3020
11.781000 0.3000 0.2970 0.2970 0.2950 0.2930
11.815157 0.2930 0.2930 0.2950 0.2970 0.3000
11.849000 0.3000 0.3020 0.3040 0.3070 0.3170
11.883157 0.3280 0.3450 0.3710 0.3880 0.4000
11.917000 0.4070 0.4200 0.4310 0.4270 0.4260
11.951157 0.4200 0.4150 0.4100 0.4030 0.3910
11.986000 0.3790 0.3720 0.3670 0.3640 0.3670
12.020157 0.3720 0.3790 0.4000 0.4150 0.4310
12.054000 0.4570 0.4820 0.5080 0.5340 0.5530
12.088157 0.5700 0.5820 0.5940 0.6060 0.6200
12.122000 0.6340 0.6440 0.6580 0.6660 0.6760
12.156157 0.6830 0.6920 0.6990 0.7040 0.7130
12.191000 0.7160 0.7230 0.7260 0.7300 0.7330
12.225157 0.7370 0.7370 0.7400 0.7420 0.7430
12.259000 0.7450 0.7490 0.7500 0.7520 0.7560
12.293157 0.7570 0.7610 0.7620 0.7640 0.7660
12.327000 0.7680 0.7680 0.7690 0.7710 0.7710
12.361157 0.7710 0.7730 0.7730 0.7730 0.7730
12.395000 0.7730 0.7730 0.7730 0.7730 0.7730
12.429157 0.7730 0.7710 0.7710 0.7690 0.7680
12.464000 0.7680 0.7680 0.7660 0.7640 0.7640
12.498157 0.7620 0.7610 0.7610 0.7610 0.7590
12.532000 0.7560 0.7570 0.7520 0.7520 0.7490
12.566157 0.7470 0.7430 0.7380 0.7370 0.7350
12.600000 0.7300 0.7210 0.7180 0.7130 0.7040
12.634157 0.7010 0.6940 0.6850 0.6820 0.6750
12.669000 0.6680 0.6640 0.6580 0.6540 0.6510
12.703157 0.6420 0.6350 0.6280 0.6230 0.6180
12.737000 0.6060 0.5970 0.5850 0.5750 0.5670
12.771157 0.5560 0.5460 0.5420 0.5410 0.5360
12.805000 0.5270 0.5240 0.5200 0.5170 0.5150
12.839157 0.5130 0.5100 0.5050 0.5050 0.5030
12.873000 0.5030 0.5030 0.5010 0.5000 0.5000
12.907157 0.5000 0.4960 0.4960 0.4960 0.4940
12.942000 0.4940 0.4930 0.4910 0.4890 0.4860
12.976157 0.4840 0.4820 0.4790 0.4750 0.4720
13.010000 0.4690 0.4650 0.4630 0.4580 0.4570
13.044157 0.4550 0.4530 0.4500 0.4460 0.4430
13.078000 0.4390 0.4380 0.4320 0.4310 0.4260
13.112157 0.4240 0.4170 0.4150 0.4140 0.4120
13.146000 0.4070 0.4030 0.4030 0.4020 0.4000
13.180157 0.3950 0.3910 0.3900 0.3860 0.3830
13.215000 0.3790 0.3780 0.3780 0.3740 0.3720
13.249157 0.3710 0.3670 0.3650 0.3650 0.3640
13.283000 0.3620 0.3600 0.3570 0.3570 0.3570
13.317157 0.3550 0.3550 0.3530 0.3530 0.3530
13.351000 0.3530 0.3530 0.3530 0.3530 0.3530
13.385157 0.3550 0.3550 0.3570 0.3570 0.3570
13.420000 0.3600 0.3600 0.3620 0.3640 0.3650
13.454157 0.3670 0.3670 0.3690 0.3710 0.3720
13.488000 0.3740 0.3760 0.3760 0.3780 0.3780
13.522157 0.3780 0.3780 0.3760 0.3760 0.3740
13.556000 0.3720 0.3710 0.3690 0.3670 0.3650
13.590157 0.3640 0.3600 0.3590 0.3550 0.3550
13.624000 0.3530 0.3520 0.3480 0.3470 0.3450
13.658157 0.3410 0.3380 0.3350 0.3350 0.3310
13.693000 0.3290 0.3260 0.3230 0.3210 0.3160
13.727157 0.3140 0.3140 0.3120 0.3100 0.3070
13.761000 0.3050 0.3050 0.3050 0.3040 0.3020
13.795157 0.3000 0.2980 0.2970 0.2950 0.2900
13.829000 0.2880 0.2880 0.2860 0.2830 0.2810
13.863157 0.2780 0.2760 0.2740 0.2710 0.2680
13.898000 0.2640 0.2620 0.2610 0.2570 0.2560
13.932157 0.2520 0.2490 0.2450 0.2420 0.2380
13.966000 0.2350 0.2300 0.2260 0.2230 0.2180
14.000157 0.2110 0.2040 0.2010 0.1990 0.1890
14.034000 0.1870 0.1830 0.1800 0.1760 0.1730
14.068157 0.1710 0.1680 0.1640 0.1610 0.1580
14.102000 0.1540 0.1520 0.1510 0.1490 0.1470
14.136157 0.1440 0.1440 0.1420 0.1400 0.1390
14.171000 0.1350 0.1340 0.1340 0.1320 0.1300
14.205157 0.1280 0.1270 0.1230 0.1230 0.1230
14.239000 0.1210 0.1200 0.1200 0.1180 0.1160
14.273157 0.1150 0.1150 0.1150 0.1150 0.1130
14.307000 0.1130 0.1130 0.1130 0.1130 0.1150
14.341157 0.1150 0.1150 0.1150 0.1150 0.1150
14.376000 0.1150 0.1160 0.1160 0.1160 0.1180
14.410157 0.1180 0.1180 0.1200 0.1210 0.1210
14.444000 0.1230 0.1250 0.1250 0.1300 0.1340
14.478157 0.1350 0.1390 0.1400 0.1400 0.1420
14.512000 0.1440 0.1440 0.1440 0.1460 0.1470
14.546157 0.1470 0.1490 0.1510 0.1510 0.1510
14.580000 0.1520 0.1520 0.1520 0.1540 0.1560
14.614157 0.1560 0.1590 0.1610 0.1630 0.1660
14.649000 0.1680 0.1700 0.1710 0.1710 0.1730
14.683157 0.1730 0.1750 0.1750 0.1750 0.1750
14.717000 0.1750 0.1760 0.1760 0.1760 0.1760
14.751157 0.1780 0.1800 0.1820 0.1820 0.1830
14.785000 0.1830 0.1850 0.1850 0.1890 0.1920
14.819157 0.2010 0.2020 0.2040 0.2060 0.2070
14.854000 0.2130 0.2140 0.2140 0.2140 0.2140
14.888157 0.2140 0.2140 0.2140 0.2140 0.2160
14.922000 0.2140 0.2140 0.2140 0.2140 0.2140
14.956157 0.2140 0.2140 0.2160 0.2160 0.2160
14.990000 0.2160 0.2160 0.2180 0.2180 0.2190
15.024157 0.2190 0.2210 0.2210 0.2210 0.2210
15.058000 0.2230 0.2250 0.2250 0.2260 0.2280
15.092157 0.2300 0.2310 0.2310 0.2330 0.2330
15.127000 0.2350 0.2370 0.2380 0.2400 0.2420
15.161157 0.2430 0.2430 0.2450 0.2470 0.2470
15.195000 0.2490 0.2490 0.2500 0.2520 0.2520
15.229157 0.2520 0.2520 0.2540 0.2540 0.2540
15.263000 0.2540 0.2560 0.2560 0.2560 0.2560
15.297157 0.2560 0.2560 0.2560 0.2560 0.2560
15.331000 0.2560 0.2560 0.2570 0.2570 0.2570
15.365157 0.2570 0.2570 0.2560 0.2540 0.2540
15.400000 0.2560 0.2540 0.2540 0.2560 0.2560
15.434157 0.2560 0.2560 0.2570 0.2570 0.2570
15.468000 0.2590 0.2590 0.2590 0.2590 0.2590
15.502157 0.2590 0.2610 0.2590 0.2590 0.2610
15.536000 0.2610 0.2620 0.2620 0.2620 0.2620
15.570157 0.2620 0.2620 0.2620 0.2640 0.2640
15.605000 0.2640 0.2660 0.2640 0.2660 0.2660
15.639157 0.2680 0.2680 0.2690 0.2690 0.2690
15.673000 0.2710 0.2710 0.2710 0.2710 0.2710
15.707157 0.2710 0.2730 0.2730 0.2730 0.2740
15.741000 0.2740 0.2760 0.2780 0.2780 0.2780
15.775157 0.2800 0.2800 0.2810 0.2810 0.2810
15.809000 0.2810 0.2850 0.2860 0.2860 0.2880
15.843157 0.2880 0.2900 0.2920 0.2930 0.2950
15.878000 0.2970 0.2980 0.3000 0.3020 0.3020
15.912157 0.3040 0.3040 0.3090 0.3100 0.3120
15.946000 0.3160 0.3170 0.3190 0.3210 0.3240
15.980157 0.3260 0.3260 0.3280 0.3280
##END=
