##TITLE=Nicotinamide hydroiodide
##JCAMP-DX=4.24
$$ By DXEDIT 1.05 (RS McDonald)
##DATA TYPE=INFRARED SPECTRUM
##CLASS=COBLENTZ III
##ORIGIN=DOW CHEMICAL COMPANY
##OWNER=COPYRIGHT (C) 1988 by COBLENTZ SOCIETY INC.
Collection (C) 2018 copyright by the U.S. Secretary of Commerce
on behalf of the United States of America. All rights reserved.
##DATE=1965/01/06
##MOLFORM=C6 H7 I N2 O
##SOURCE REFERENCE=COBLENTZ NO. 06624
##$NIST ID=B6006624
##$NIST SOURCE=COBLENTZ
##$NIST IMAGE=cob6624
##SPECTROMETER/DATA SYSTEM=BECKMAN IR-9 (GRATING)
##INSTRUMENT PARAMETERS=ORDER CHANGES: 670, 1200, 2000 CM^-^1
##STATE=SOLID (SPLIT MULL)
##SAMPLING PROCEDURE=TRANSMISSION
##RESOLUTION=2
##DATA PROCESSING=DIGITIZED BY COBLENTZ SOCIETY (BATCH I) FROM HARD COPY
##XUNITS=1/CM
##YUNITS=TRANSMITTANCE
##XFACTOR=1
##YFACTOR=1
##DELTAX=1
##FIRSTX=3790
##LASTX=402
##FIRSTY=0.6465
##MAXX=3790
##MINX=402
##MAXY=0.9889
##MINY=0.1413
##NPOINTS=3389
##XYDATA=(X++(Y..Y))
3790.000000 0.6465 0.6465 0.6467 0.6474 0.6482
3785.000000 0.6490 0.6498 0.6505 0.6512 0.6518
3780.000000 0.6522 0.6525 0.6528 0.6530 0.6533
3775.000000 0.6535 0.6538 0.6540 0.6543 0.6545
3770.000000 0.6548 0.6549 0.6551 0.6553 0.6555
3765.000000 0.6556 0.6558 0.6558 0.6561 0.6562
3760.000000 0.6565 0.6565 0.6568 0.6569 0.6571
3755.000000 0.6572 0.6575 0.6575 0.6578 0.6580
3750.000000 0.6582 0.6585 0.6588 0.6590 0.6593
3745.000000 0.6595 0.6598 0.6600 0.6603 0.6605
3740.000000 0.6608 0.6611 0.6614 0.6615 0.6618
3735.000000 0.6621 0.6624 0.6625 0.6628 0.6631
3730.000000 0.6634 0.6636 0.6639 0.6642 0.6645
3725.000000 0.6647 0.6650 0.6651 0.6655 0.6657
3720.000000 0.6660 0.6661 0.6665 0.6668 0.6671
3715.000000 0.6672 0.6675 0.6678 0.6681 0.6683
3710.000000 0.6686 0.6689 0.6692 0.6694 0.6697
3705.000000 0.6699 0.6701 0.6704 0.6707 0.6710
3700.000000 0.6712 0.6715 0.6718 0.6719 0.6722
3695.000000 0.6725 0.6728 0.6731 0.6734 0.6736
3690.000000 0.6739 0.6742 0.6745 0.6748 0.6751
3685.000000 0.6755 0.6758 0.6761 0.6765 0.6768
3680.000000 0.6771 0.6775 0.6778 0.6782 0.6786
3675.000000 0.6789 0.6793 0.6796 0.6800 0.6803
3670.000000 0.6807 0.6810 0.6812 0.6815 0.6819
3665.000000 0.6822 0.6826 0.6830 0.6834 0.6837
3660.000000 0.6841 0.6843 0.6846 0.6848 0.6851
3655.000000 0.6853 0.6856 0.6858 0.6861 0.6862
3650.000000 0.6865 0.6867 0.6869 0.6871 0.6875
3645.000000 0.6876 0.6880 0.6882 0.6884 0.6886
3640.000000 0.6889 0.6891 0.6894 0.6896 0.6899
3635.000000 0.6901 0.6903 0.6905 0.6907 0.6908
3630.000000 0.6911 0.6912 0.6915 0.6917 0.6918
3625.000000 0.6921 0.6922 0.6925 0.6926 0.6928
3620.000000 0.6931 0.6932 0.6933 0.6934 0.6935
3615.000000 0.6936 0.6937 0.6938 0.6939 0.6939
3610.000000 0.6940 0.6941 0.6942 0.6943 0.6944
3605.000000 0.6945 0.6946 0.6947 0.6948 0.6950
3600.000000 0.6951 0.6954 0.6956 0.6958 0.6960
3595.000000 0.6961 0.6965 0.6967 0.6968 0.6971
3590.000000 0.6972 0.6975 0.6978 0.6980 0.6982
3585.000000 0.6984 0.6986 0.6988 0.6990 0.6992
3580.000000 0.6995 0.6997 0.6999 0.7001 0.7003
3575.000000 0.7005 0.7008 0.7011 0.7014 0.7017
3570.000000 0.7021 0.7024 0.7028 0.7031 0.7034
3565.000000 0.7037 0.7041 0.7044 0.7048 0.7051
3560.000000 0.7055 0.7058 0.7061 0.7064 0.7068
3555.000000 0.7071 0.7075 0.7078 0.7081 0.7084
3550.000000 0.7088 0.7091 0.7095 0.7098 0.7101
3545.000000 0.7105 0.7108 0.7112 0.7117 0.7121
3540.000000 0.7125 0.7128 0.7133 0.7137 0.7141
3535.000000 0.7145 0.7149 0.7153 0.7157 0.7161
3530.000000 0.7165 0.7168 0.7174 0.7178 0.7182
3525.000000 0.7186 0.7190 0.7194 0.7198 0.7201
3520.000000 0.7206 0.7210 0.7214 0.7218 0.7221
3515.000000 0.7225 0.7231 0.7235 0.7239 0.7243
3510.000000 0.7248 0.7251 0.7256 0.7260 0.7264
3505.000000 0.7268 0.7272 0.7276 0.7281 0.7285
3500.000000 0.7290 0.7294 0.7298 0.7301 0.7306
3495.000000 0.7310 0.7315 0.7318 0.7324 0.7328
3490.000000 0.7334 0.7339 0.7345 0.7350 0.7355
3485.000000 0.7360 0.7365 0.7369 0.7375 0.7380
3480.000000 0.7385 0.7390 0.7395 0.7400 0.7405
3475.000000 0.7410 0.7415 0.7421 0.7426 0.7433
3470.000000 0.7439 0.7445 0.7451 0.7458 0.7464
3465.000000 0.7469 0.7475 0.7482 0.7488 0.7494
3460.000000 0.7501 0.7507 0.7512 0.7518 0.7525
3455.000000 0.7531 0.7537 0.7543 0.7549 0.7555
3450.000000 0.7561 0.7567 0.7572 0.7578 0.7585
3445.000000 0.7589 0.7594 0.7598 0.7601 0.7606
3440.000000 0.7610 0.7614 0.7618 0.7621 0.7625
3435.000000 0.7630 0.7634 0.7637 0.7641 0.7642
3430.000000 0.7644 0.7645 0.7647 0.7648 0.7650
3425.000000 0.7651 0.7653 0.7654 0.7655 0.7655
3420.000000 0.7655 0.7654 0.7653 0.7651 0.7651
3415.000000 0.7649 0.7656 0.7646 0.7645 0.7643
3410.000000 0.7641 0.7639 0.7637 0.7633 0.7630
3405.000000 0.7625 0.7619 0.7614 0.7608 0.7603
3400.000000 0.7598 0.7592 0.7586 0.7578 0.7572
3395.000000 0.7565 0.7560 0.7549 0.7538 0.7519
3390.000000 0.7503 0.7485 0.7467 0.7443 0.7419
3385.000000 0.7397 0.7374 0.7336 0.7299 0.7255
3380.000000 0.7211 0.7161 0.7110 0.7058 0.7007
3375.000000 0.6938 0.6869 0.6788 0.6707 0.6606
3370.000000 0.6506 0.6399 0.6293 0.6184 0.6075
3365.000000 0.5985 0.5896 0.5802 0.5709 0.5600
3360.000000 0.5492 0.4856 0.4221 0.4158 0.4096
3355.000000 0.4047 0.3999 0.3944 0.3889 0.3648
3350.000000 0.3408 0.3167 0.2926 0.2684 0.2444
3345.000000 0.2325 0.2207 0.2199 0.2183 0.2184
3340.000000 0.2180 0.2179 0.2179 0.2195 0.2212
3335.000000 0.2248 0.2284 0.2354 0.2425 0.2554
3330.000000 0.2683 0.2819 0.2956 0.3092 0.3229
3325.000000 0.3364 0.3502 0.3638 0.3775 0.3910
3320.000000 0.4048 0.4168 0.4289 0.4379 0.4470
3315.000000 0.4535 0.4600 0.4662 0.4724 0.4772
3310.000000 0.4820 0.4868 0.4916 0.4962 0.5008
3305.000000 0.5031 0.5054 0.5076 0.5099 0.5122
3300.000000 0.5145 0.5168 0.5191 0.5212 0.5236
3295.000000 0.5257 0.5279 0.5300 0.5322 0.5343
3290.000000 0.5364 0.5385 0.5407 0.5428 0.5450
3285.000000 0.5469 0.5489 0.5508 0.5527 0.5546
3280.000000 0.5565 0.5583 0.5602 0.5621 0.5640
3275.000000 0.5659 0.5679 0.5698 0.5718 0.5737
3270.000000 0.5757 0.5776 0.5796 0.5818 0.5840
3265.000000 0.5858 0.5877 0.5888 0.5899 0.5901
3260.000000 0.5912 0.5905 0.5907 0.5907 0.5907
3255.000000 0.5907 0.5904 0.5886 0.5868 0.5847
3250.000000 0.5827 0.5806 0.5786 0.5765 0.5745
3245.000000 0.5726 0.5707 0.5689 0.5671 0.5652
3240.000000 0.5634 0.5615 0.5597 0.5577 0.5558
3235.000000 0.5539 0.5520 0.5508 0.5496 0.5489
3230.000000 0.5482 0.5478 0.5474 0.5473 0.5472
3225.000000 0.5475 0.5478 0.5487 0.5496 0.5504
3220.000000 0.5512 0.5522 0.5531 0.5540 0.5550
3215.000000 0.5547 0.5545 0.5535 0.5525 0.5515
3210.000000 0.5505 0.5497 0.5490 0.5484 0.5478
3205.000000 0.5475 0.5473 0.5472 0.5471 0.5470
3200.000000 0.5470 0.5468 0.5466 0.5460 0.5456
3195.000000 0.5440 0.5424 0.5408 0.5392 0.5367
3190.000000 0.5343 0.5310 0.5280 0.5248 0.5216
3185.000000 0.5157 0.5099 0.4853 0.4607 0.4459
3180.000000 0.4312 0.4130 0.3949 0.3766 0.3586
3175.000000 0.3430 0.3276 0.3259 0.3244 0.3237
3170.000000 0.3200 0.3226 0.3223 0.3221 0.3220
3165.000000 0.3227 0.3234 0.3253 0.3272 0.3296
3160.000000 0.3320 0.3362 0.3404 0.3446 0.3488
3155.000000 0.3539 0.3590 0.3666 0.3743 0.3791
3150.000000 0.3839 0.3886 0.3932 0.3982 0.4032
3145.000000 0.4086 0.4141 0.4195 0.4249 0.4303
3140.000000 0.4358 0.4412 0.4467 0.4521 0.4576
3135.000000 0.4630 0.4684 0.4738 0.4793 0.4847
3130.000000 0.4902 0.4956 0.5010 0.5064 0.5119
3125.000000 0.5173 0.5228 0.5282 0.5336 0.5390
3120.000000 0.5445 0.5499 0.5554 0.5565 0.5577
3115.000000 0.5580 0.5571 0.5586 0.5587 0.5587
3110.000000 0.5586 0.5585 0.5585 0.5584 0.5584
3105.000000 0.5562 0.5541 0.5508 0.5475 0.5434
3100.000000 0.5393 0.5341 0.5289 0.5236 0.5118
3095.000000 0.5169 0.5155 0.5150 0.5145 0.5169
3090.000000 0.5194 0.5248 0.5302 0.5356 0.5410
3085.000000 0.5464 0.5518 0.5572 0.5626 0.5617
3080.000000 0.5644 0.5587 0.5566 0.5494 0.5422
3075.000000 0.4930 0.4438 0.4194 0.3927 0.4040
3070.000000 0.4129 0.4291 0.4453 0.4615 0.4778
3065.000000 0.4937 0.5096 0.5129 0.5162 0.5171
3060.000000 0.5180 0.5185 0.5190 0.5192 0.5223
3055.000000 0.5194 0.5194 0.5081 0.4969 0.4850
3050.000000 0.4732 0.4612 0.4495 0.4400 0.4290
3045.000000 0.4304 0.4303 0.4365 0.4428 0.4499
3040.000000 0.4570 0.4641 0.4712 0.4782 0.4853
3035.000000 0.4888 0.4924 0.4934 0.4944 0.4949
3030.000000 0.4985 0.4958 0.4959 0.4960 0.4958
3025.000000 0.4952 0.4946 0.4921 0.4897 0.4872
3020.000000 0.4847 0.4824 0.4802 0.4781 0.4760
3015.000000 0.4747 0.4734 0.4729 0.4724 0.4718
3010.000000 0.4712 0.4710 0.4707 0.4704 0.4701
3005.000000 0.4698 0.4696 0.4693 0.4691 0.4688
3000.000000 0.4686 0.4684 0.4682 0.4680 0.4678
2995.000000 0.4676 0.4674 0.4672 0.4670 0.4668
2990.000000 0.4666 0.4665 0.4664 0.4662 0.4660
2985.000000 0.4660 0.4659 0.4657 0.4656 0.4655
2980.000000 0.4654 0.4652 0.4651 0.4651 0.4650
2975.000000 0.4651 0.4652 0.4655 0.4658 0.4660
2970.000000 0.4664 0.4667 0.4670 0.4693 0.4716
2965.000000 0.4733 0.4750 0.4766 0.4783 0.4800
2960.000000 0.4818 0.4835 0.4852 0.4869 0.4886
2955.000000 0.4903 0.4921 0.4937 0.4954 0.4971
2950.000000 0.4988 0.5003 0.5019 0.5033 0.5048
2945.000000 0.5062 0.5078 0.5093 0.5108 0.5122
2940.000000 0.5136 0.5150 0.5164 0.5177 0.5191
2935.000000 0.5206 0.5221 0.5241 0.5260 0.5278
2930.000000 0.5295 0.5312 0.5332 0.5350 0.5369
2925.000000 0.5379 0.5378 0.5378 0.5368 0.5356
2920.000000 0.5344 0.5320 0.5296 0.5266 0.5237
2915.000000 0.5205 0.5174 0.5154 0.5134 0.5126
2910.000000 0.5118 0.5114 0.5110 0.5117 0.5123
2905.000000 0.5143 0.5164 0.5186 0.5209 0.5224
2900.000000 0.5240 0.5249 0.5258 0.5254 0.5251
2895.000000 0.5240 0.5230 0.5215 0.5200 0.5181
2890.000000 0.5162 0.5154 0.5146 0.5143 0.5140
2885.000000 0.5147 0.5155 0.5170 0.5186 0.5207
2880.000000 0.5229 0.5252 0.5275 0.5294 0.5314
2875.000000 0.5330 0.5347 0.5358 0.5369 0.5380
2870.000000 0.5392 0.5397 0.5403 0.5404 0.5405
2865.000000 0.5384 0.5362 0.5328 0.5294 0.5260
2860.000000 0.5227 0.5194 0.5160 0.5156 0.5152
2855.000000 0.5152 0.5152 0.5153 0.5155 0.5157
2850.000000 0.5159 0.5167 0.5176 0.5188 0.5200
2845.000000 0.5214 0.5229 0.5243 0.5258 0.5272
2840.000000 0.5287 0.5301 0.5316 0.5333 0.5351
2835.000000 0.5368 0.5386 0.5403 0.5420 0.5437
2830.000000 0.5455 0.5472 0.5490 0.5507 0.5524
2825.000000 0.5540 0.5557 0.5573 0.5589 0.5605
2820.000000 0.5621 0.5637 0.5653 0.5669 0.5686
2815.000000 0.5702 0.5718 0.5734 0.5751 0.5767
2810.000000 0.5783 0.5799 0.5816 0.5831 0.5847
2805.000000 0.5862 0.5877 0.5891 0.5906 0.5916
2800.000000 0.5926 0.5931 0.5937 0.5942 0.5947
2795.000000 0.5950 0.5953 0.5956 0.5960 0.5962
2790.000000 0.5967 0.5971 0.5976 0.5980 0.5985
2785.000000 0.5989 0.5994 0.5999 0.6005 0.6010
2780.000000 0.6017 0.6025 0.6034 0.6043 0.6052
2775.000000 0.6060 0.6070 0.6089 0.6109 0.6133
2770.000000 0.6157 0.6175 0.6194 0.6207 0.6221
2765.000000 0.6234 0.6248 0.6260 0.6275 0.6289
2760.000000 0.6303 0.6317 0.6331 0.6344 0.6357
2755.000000 0.6362 0.6370 0.6376 0.6382 0.6388
2750.000000 0.6394 0.6400 0.6406 0.6408 0.6412
2745.000000 0.6415 0.6419 0.6421 0.6425 0.6426
2740.000000 0.6430 0.6433 0.6437 0.6441 0.6446
2735.000000 0.6451 0.6456 0.6460 0.6465 0.6469
2730.000000 0.6475 0.6483 0.6491 0.6501 0.6511
2725.000000 0.6521 0.6533 0.6543 0.6554 0.6564
2720.000000 0.6575 0.6583 0.6592 0.6601 0.6610
2715.000000 0.6618 0.6628 0.6637 0.6646 0.6654
2710.000000 0.6662 0.6671 0.6681 0.6690 0.6699
2705.000000 0.6707 0.6715 0.6725 0.6734 0.6742
2700.000000 0.6751 0.6758 0.6768 0.6776 0.6786
2695.000000 0.6794 0.6803 0.6811 0.6821 0.6831
2690.000000 0.6840 0.6849 0.6858 0.6868 0.6876
2685.000000 0.6886 0.6896 0.6905 0.6914 0.6921
2680.000000 0.6931 0.6938 0.6945 0.6951 0.6960
2675.000000 0.6967 0.6974 0.6981 0.6988 0.6995
2670.000000 0.7001 0.7008 0.7015 0.7021 0.7026
2665.000000 0.7032 0.7038 0.7044 0.7050 0.7055
2660.000000 0.7061 0.7065 0.7071 0.7078 0.7084
2655.000000 0.7089 0.7095 0.7100 0.7106 0.7111
2650.000000 0.7118 0.7122 0.7128 0.7135 0.7142
2645.000000 0.7148 0.7155 0.7161 0.7168 0.7174
2640.000000 0.7181 0.7187 0.7194 0.7200 0.7207
2635.000000 0.7212 0.7219 0.7225 0.7233 0.7239
2630.000000 0.7246 0.7251 0.7258 0.7264 0.7269
2625.000000 0.7275 0.7281 0.7286 0.7292 0.7298
2620.000000 0.7304 0.7308 0.7315 0.7321 0.7326
2615.000000 0.7332 0.7338 0.7344 0.7350 0.7353
2610.000000 0.7357 0.7360 0.7364 0.7367 0.7371
2605.000000 0.7372 0.7375 0.7375 0.7378 0.7378
2600.000000 0.7380 0.7381 0.7382 0.7383 0.7384
2595.000000 0.7384 0.7384 0.7384 0.7383 0.7381
2590.000000 0.7380 0.7378 0.7376 0.7375 0.7374
2585.000000 0.7374 0.7374 0.7375 0.7375 0.7376
2580.000000 0.7378 0.7380 0.7381 0.7382 0.7384
2575.000000 0.7385 0.7386 0.7387 0.7388 0.7392
2570.000000 0.7397 0.7401 0.7406 0.7410 0.7415
2565.000000 0.7418 0.7424 0.7428 0.7434 0.7439
2560.000000 0.7445 0.7451 0.7457 0.7461 0.7468
2555.000000 0.7474 0.7480 0.7486 0.7492 0.7498
2550.000000 0.7505 0.7511 0.7517 0.7522 0.7528
2545.000000 0.7535 0.7542 0.7545 0.7548 0.7550
2540.000000 0.7551 0.7554 0.7556 0.7558 0.7560
2535.000000 0.7561 0.7564 0.7565 0.7568 0.7569
2530.000000 0.7571 0.7574 0.7575 0.7578 0.7581
2525.000000 0.7583 0.7585 0.7587 0.7590 0.7592
2520.000000 0.7594 0.7596 0.7598 0.7600 0.7603
2515.000000 0.7605 0.7607 0.7608 0.7611 0.7614
2510.000000 0.7615 0.7618 0.7619 0.7621 0.7624
2505.000000 0.7625 0.7628 0.7631 0.7633 0.7635
2500.000000 0.7637 0.7639 0.7641 0.7643 0.7645
2495.000000 0.7647 0.7649 0.7651 0.7653 0.7655
2490.000000 0.7658 0.7660 0.7661 0.7664 0.7665
2485.000000 0.7668 0.7669 0.7671 0.7674 0.7675
2480.000000 0.7676 0.7678 0.7680 0.7681 0.7683
2475.000000 0.7684 0.7686 0.7687 0.7689 0.7690
2470.000000 0.7692 0.7693 0.7695 0.7697 0.7699
2465.000000 0.7700 0.7701 0.7703 0.7705 0.7706
2460.000000 0.7707 0.7708 0.7708 0.7710 0.7711
2455.000000 0.7711 0.7712 0.7714 0.7715 0.7715
2450.000000 0.7718 0.7718 0.7719 0.7721 0.7721
2445.000000 0.7722 0.7724 0.7725 0.7725 0.7726
2440.000000 0.7728 0.7728 0.7731 0.7731 0.7732
2435.000000 0.7732 0.7733 0.7734 0.7735 0.7735
2430.000000 0.7736 0.7736 0.7737 0.7737 0.7738
2425.000000 0.7738 0.7739 0.7739 0.7740 0.7740
2420.000000 0.7741 0.7741 0.7742 0.7742 0.7743
2415.000000 0.7744 0.7746 0.7747 0.7749 0.7750
2410.000000 0.7751 0.7753 0.7755 0.7756 0.7758
2405.000000 0.7758 0.7761 0.7761 0.7762 0.7764
2400.000000 0.7765 0.7767 0.7768 0.7769 0.7771
2395.000000 0.7771 0.7771 0.7771 0.7772 0.7772
2390.000000 0.7774 0.7775 0.7776 0.7778 0.7781
2385.000000 0.7783 0.7785 0.7791 0.7797 0.7806
2380.000000 0.7815 0.7824 0.7833 0.7842 0.7851
2375.000000 0.7865 0.7878 0.7892 0.7905 0.7917
2370.000000 0.7928 0.7934 0.7940 0.7945 0.7951
2365.000000 0.7949 0.7948 0.7946 0.7945 0.7943
2360.000000 0.7942 0.7940 0.7938 0.7936 0.7935
2355.000000 0.7934 0.7934 0.7933 0.7933 0.7933
2350.000000 0.7933 0.7932 0.7932 0.7932 0.7932
2345.000000 0.7931 0.7931 0.7931 0.7931 0.7930
2340.000000 0.7930 0.7930 0.7930 0.7928 0.7928
2335.000000 0.7928 0.7928 0.7928 0.7928 0.7928
2330.000000 0.7928 0.7926 0.7926 0.7925 0.7925
2325.000000 0.7925 0.7925 0.7925 0.7925 0.7924
2320.000000 0.7924 0.7922 0.7922 0.7921 0.7921
2315.000000 0.7921 0.7921 0.7919 0.7919 0.7918
2310.000000 0.7918 0.7918 0.7918 0.7918 0.7918
2305.000000 0.7918 0.7918 0.7918 0.7919 0.7919
2300.000000 0.7921 0.7921 0.7921 0.7921 0.7921
2295.000000 0.7921 0.7922 0.7922 0.7924 0.7924
2290.000000 0.7924 0.7924 0.7925 0.7925 0.7925
2285.000000 0.7925 0.7926 0.7928 0.7928 0.7928
2280.000000 0.7930 0.7930 0.7931 0.7931 0.7932
2275.000000 0.7932 0.7933 0.7933 0.7934 0.7934
2270.000000 0.7935 0.7936 0.7937 0.7938 0.7940
2265.000000 0.7941 0.7943 0.7944 0.7946 0.7947
2260.000000 0.7949 0.7950 0.7951 0.7953 0.7955
2255.000000 0.7956 0.7958 0.7960 0.7961 0.7965
2250.000000 0.7969 0.7974 0.7978 0.7983 0.7989
2245.000000 0.7996 0.8003 0.8010 0.8017 0.8024
2240.000000 0.8031 0.8038 0.8045 0.8051 0.8058
2235.000000 0.8065 0.8071 0.8078 0.8085 0.8091
2230.000000 0.8098 0.8104 0.8111 0.8118 0.8125
2225.000000 0.8131 0.8138 0.8144 0.8151 0.8157
2220.000000 0.8162 0.8167 0.8171 0.8176 0.8182
2215.000000 0.8186 0.8191 0.8196 0.8202 0.8207
2210.000000 0.8213 0.8218 0.8224 0.8230 0.8236
2205.000000 0.8241 0.8247 0.8252 0.8257 0.8261
2200.000000 0.8265 0.8268 0.8271 0.8275 0.8278
2195.000000 0.8283 0.8287 0.8290 0.8294 0.8297
2190.000000 0.8301 0.8304 0.8308 0.8311 0.8315
2185.000000 0.8318 0.8321 0.8325 0.8328 0.8331
2180.000000 0.8335 0.8338 0.8342 0.8345 0.8348
2175.000000 0.8351 0.8355 0.8358 0.8361 0.8364
2170.000000 0.8368 0.8371 0.8374 0.8377 0.8381
2165.000000 0.8384 0.8387 0.8390 0.8393 0.8396
2160.000000 0.8400 0.8403 0.8406 0.8409 0.8412
2155.000000 0.8413 0.8415 0.8417 0.8418 0.8420
2150.000000 0.8421 0.8424 0.8425 0.8427 0.8428
2145.000000 0.8431 0.8433 0.8435 0.8437 0.8438
2140.000000 0.8440 0.8442 0.8444 0.8445 0.8447
2135.000000 0.8449 0.8451 0.8453 0.8455 0.8456
2130.000000 0.8458 0.8460 0.8462 0.8463 0.8465
2125.000000 0.8467 0.8468 0.8471 0.8473 0.8475
2120.000000 0.8477 0.8478 0.8481 0.8483 0.8486
2115.000000 0.8488 0.8490 0.8492 0.8494 0.8496
2110.000000 0.8498 0.8500 0.8502 0.8504 0.8506
2105.000000 0.8508 0.8511 0.8513 0.8515 0.8517
2100.000000 0.8518 0.8521 0.8523 0.8525 0.8527
2095.000000 0.8528 0.8531 0.8533 0.8535 0.8537
2090.000000 0.8540 0.8542 0.8544 0.8546 0.8548
2085.000000 0.8550 0.8553 0.8555 0.8557 0.8559
2080.000000 0.8561 0.8563 0.8566 0.8568 0.8570
2075.000000 0.8571 0.8574 0.8575 0.8578 0.8581
2070.000000 0.8583 0.8585 0.8588 0.8590 0.8593
2065.000000 0.8595 0.8598 0.8600 0.8602 0.8604
2060.000000 0.8607 0.8609 0.8612 0.8614 0.8617
2055.000000 0.8618 0.8621 0.8624 0.8627 0.8628
2050.000000 0.8632 0.8634 0.8637 0.8638 0.8640
2045.000000 0.8642 0.8644 0.8646 0.8648 0.8650
2040.000000 0.8652 0.8653 0.8655 0.8657 0.8659
2035.000000 0.8661 0.8663 0.8664 0.8665 0.8665
2030.000000 0.8666 0.8667 0.8668 0.8668 0.8670
2025.000000 0.8670 0.8671 0.8671 0.8671 0.8671
2020.000000 0.8671 0.8671 0.8673 0.8673 0.8673
2015.000000 0.8673 0.8673 0.8671 0.8670 0.8668
2010.000000 0.8667 0.8664 0.8662 0.8659 0.8657
2005.000000 0.8654 0.8652 0.8649 0.8647 0.8643
2000.000000 0.8640 0.8636 0.8633 0.8630 0.8631
1995.000000 0.8665 0.8684 0.8700 0.8715 0.8728
1990.000000 0.8735 0.8742 0.8749 0.8755 0.8757
1985.000000 0.8760 0.8762 0.8763 0.8764 0.8761
1980.000000 0.8758 0.8750 0.8743 0.8736 0.8727
1975.000000 0.8717 0.8708 0.8705 0.8703 0.8703
1970.000000 0.8704 0.8705 0.8712 0.8731 0.8750
1965.000000 0.8768 0.8784 0.8798 0.8812 0.8821
1960.000000 0.8828 0.8837 0.8845 0.8853 0.8859
1955.000000 0.8864 0.8870 0.8874 0.8875 0.8875
1950.000000 0.8875 0.8875 0.8868 0.8863 0.8855
1945.000000 0.8844 0.8834 0.8824 0.8813 0.8800
1940.000000 0.8787 0.8775 0.8762 0.8749 0.8737
1935.000000 0.8733 0.8731 0.8728 0.8728 0.8746
1930.000000 0.8764 0.8783 0.8797 0.8811 0.8824
1925.000000 0.8838 0.8852 0.8862 0.8870 0.8878
1920.000000 0.8885 0.8893 0.8901 0.8904 0.8905
1915.000000 0.8906 0.8908 0.8909 0.8910 0.8910
1910.000000 0.8910 0.8910 0.8909 0.8909 0.8907
1905.000000 0.8904 0.8902 0.8902 0.8902 0.8903
1900.000000 0.8904 0.8904 0.8904 0.8904 0.8904
1895.000000 0.8904 0.8904 0.8906 0.8907 0.8908
1890.000000 0.8910 0.8911 0.8913 0.8914 0.8916
1885.000000 0.8917 0.8917 0.8918 0.8916 0.8913
1880.000000 0.8908 0.8901 0.8894 0.8887 0.8881
1875.000000 0.8874 0.8865 0.8855 0.8845 0.8835
1870.000000 0.8824 0.8814 0.8804 0.8798 0.8792
1865.000000 0.8786 0.8787 0.8794 0.8801 0.8811
1860.000000 0.8825 0.8838 0.8852 0.8865 0.8878
1855.000000 0.8892 0.8906 0.8920 0.8936 0.8953
1850.000000 0.8971 0.8988 0.9006 0.9023 0.9039
1845.000000 0.9052 0.9066 0.9078 0.9092 0.9099
1840.000000 0.9105 0.9111 0.9118 0.9124 0.9131
1835.000000 0.9136 0.9135 0.9134 0.9133 0.9131
1830.000000 0.9130 0.9128 0.9128 0.9127 0.9125
1825.000000 0.9121 0.9118 0.9115 0.9112 0.9109
1820.000000 0.9106 0.9103 0.9099 0.9096 0.9093
1815.000000 0.9090 0.9087 0.9085 0.9082 0.9078
1810.000000 0.9075 0.9075 0.9080 0.9084 0.9088
1805.000000 0.9092 0.9095 0.9099 0.9103 0.9107
1800.000000 0.9113 0.9118 0.9125 0.9131 0.9137
1795.000000 0.9143 0.9149 0.9155 0.9159 0.9162
1790.000000 0.9166 0.9168 0.9173 0.9175 0.9178
1785.000000 0.9182 0.9185 0.9187 0.9190 0.9193
1780.000000 0.9196 0.9199 0.9199 0.9199 0.9199
1775.000000 0.9198 0.9198 0.9198 0.9198 0.9196
1770.000000 0.9194 0.9191 0.9189 0.9187 0.9185
1765.000000 0.9183 0.9181 0.9178 0.9175 0.9174
1760.000000 0.9171 0.9171 0.9171 0.9171 0.9171
1755.000000 0.9174 0.9194 0.9213 0.9231 0.9249
1750.000000 0.9266 0.9277 0.9286 0.9295 0.9304
1745.000000 0.9312 0.9316 0.9321 0.9325 0.9328
1740.000000 0.9328 0.9330 0.9332 0.9333 0.9334
1735.000000 0.9334 0.9334 0.9331 0.9324 0.9316
1730.000000 0.9309 0.9300 0.9289 0.9278 0.9268
1725.000000 0.9258 0.9246 0.9235 0.9234 0.9233
1720.000000 0.9233 0.9235 0.9237 0.9239 0.9240
1715.000000 0.9240 0.9237 0.9220 0.9203 0.9186
1710.000000 0.9162 0.9138 0.9114 0.9080 0.9045
1705.000000 0.9010 0.8947 0.8875 0.8806 0.8737
1700.000000 0.8668 0.8598 0.8528 0.8458 0.8388
1695.000000 0.8316 0.8245 0.8165 0.8068 0.7972
1690.000000 0.7872 0.7765 0.7658 0.7557 0.7460
1685.000000 0.7364 0.7172 0.6924 0.6761 0.6521
1680.000000 0.6106 0.5771 0.5470 0.5203 0.3798
1675.000000 0.3209 0.2619 0.2029 0.1446 0.1413
1670.000000 0.1415 0.1415 0.1452 0.1518 0.1629
1665.000000 0.1826 0.1999 0.2192 0.2467 0.2724
1660.000000 0.2949 0.3123 0.3322 0.3609 0.3922
1655.000000 0.4177 0.4543 0.4909 0.5275 0.5598
1650.000000 0.5637 0.5698 0.5889 0.6142 0.6396
1645.000000 0.6650 0.6904 0.7076 0.7222 0.7333
1640.000000 0.7407 0.7458 0.7493 0.7511 0.7512
1635.000000 0.7508 0.7501 0.7491 0.7465 0.7415
1630.000000 0.6946 0.6337 0.5728 0.5118 0.5028
1625.000000 0.4995 0.5346 0.5593 0.5840 0.6242
1620.000000 0.6242 0.6241 0.6228 0.6169 0.5962
1615.000000 0.5384 0.4842 0.4252 0.3660 0.3521
1610.000000 0.3528 0.3556 0.3691 0.4124 0.4557
1605.000000 0.4990 0.5423 0.5856 0.6289 0.6824
1600.000000 0.6811 0.6811 0.6598 0.6373 0.6149
1595.000000 0.5924 0.5805 0.5770 0.6308 0.6861
1590.000000 0.7011 0.7101 0.7178 0.7256 0.7368
1585.000000 0.7484 0.7569 0.7656 0.7738 0.7815
1580.000000 0.7895 0.7972 0.8044 0.8114 0.8175
1575.000000 0.8217 0.8258 0.8295 0.8332 0.8364
1570.000000 0.8394 0.8412 0.8423 0.8445 0.8433
1565.000000 0.8432 0.8430 0.8420 0.8403 0.8351
1560.000000 0.8321 0.8296 0.8277 0.8260 0.8243
1555.000000 0.8225 0.8203 0.8182 0.8155 0.8112
1550.000000 0.8035 0.7911 0.7500 0.6943 0.6387
1545.000000 0.5830 0.5172 0.5075 0.5054 0.5062
1540.000000 0.5067 0.5110 0.5172 0.5248 0.5354
1535.000000 0.5501 0.5730 0.6288 0.6586 0.6814
1530.000000 0.6975 0.7137 0.7300 0.7464 0.7618
1525.000000 0.7757 0.7897 0.7988 0.8069 0.8133
1520.000000 0.8184 0.8236 0.8267 0.8296 0.8325
1515.000000 0.8354 0.8378 0.8398 0.8417 0.8437
1510.000000 0.8456 0.8475 0.8495 0.8514 0.8527
1505.000000 0.8540 0.8552 0.8565 0.8578 0.8590
1500.000000 0.8603 0.8615 0.8628 0.8636 0.8644
1495.000000 0.8652 0.8661 0.8668 0.8677 0.8684
1490.000000 0.8687 0.8689 0.8692 0.8694 0.8697
1485.000000 0.8697 0.8697 0.8670 0.8691 0.8688
1480.000000 0.8683 0.8674 0.8665 0.8657 0.8648
1475.000000 0.8640 0.8632 0.8624 0.8617 0.8609
1470.000000 0.8603 0.8598 0.8593 0.8588 0.8581
1465.000000 0.8574 0.8567 0.8559 0.8547 0.8528
1460.000000 0.8495 0.8435 0.8333 0.8199 0.7957
1455.000000 0.6096 0.4193 0.3475 0.3480 0.4333
1450.000000 0.5187 0.6041 0.6894 0.7899 0.8010
1445.000000 0.8071 0.8124 0.8153 0.8181 0.8200
1440.000000 0.8218 0.8233 0.8243 0.8250 0.8249
1435.000000 0.8249 0.8259 0.8260 0.8257 0.8253
1430.000000 0.8232 0.8209 0.8186 0.8143 0.8094
1425.000000 0.8037 0.7969 0.7904 0.7799 0.7691
1420.000000 0.7549 0.7414 0.7258 0.7053 0.6848
1415.000000 0.6643 0.6438 0.6233 0.6028 0.5822
1410.000000 0.5617 0.5412 0.5207 0.5002 0.4797
1405.000000 0.4600 0.4568 0.4580 0.4629 0.4718
1400.000000 0.4824 0.4954 0.5110 0.5371 0.5643
1395.000000 0.5783 0.5924 0.6044 0.6151 0.6258
1390.000000 0.6366 0.6467 0.6560 0.6651 0.6745
1385.000000 0.6843 0.6947 0.7051 0.7118 0.7185
1380.000000 0.7251 0.7298 0.7343 0.7387 0.7425
1375.000000 0.7454 0.7483 0.7511 0.7539 0.7558
1370.000000 0.7578 0.7596 0.7607 0.7617 0.7628
1365.000000 0.7638 0.7644 0.7649 0.7680 0.7651
1360.000000 0.7646 0.7641 0.7636 0.7626 0.7615
1355.000000 0.7601 0.7590 0.7575 0.7542 0.7508
1350.000000 0.7457 0.7388 0.7312 0.7218 0.7161
1345.000000 0.7118 0.7097 0.7095 0.7094 0.7094
1340.000000 0.7094 0.7095 0.7096 0.7084 0.7071
1335.000000 0.7043 0.7011 0.6947 0.6846 0.6046
1330.000000 0.5278 0.5241 0.5233 0.5465 0.5710
1325.000000 0.5958 0.6204 0.6451 0.6698 0.6961
1320.000000 0.6928 0.6936 0.6937 0.6925 0.6864
1315.000000 0.6737 0.6525 0.5397 0.5066 0.5053
1310.000000 0.5354 0.5681 0.6009 0.6336 0.6514
1305.000000 0.6625 0.6737 0.6884 0.7028 0.7089
1300.000000 0.7122 0.7142 0.7155 0.7168 0.7182
1295.000000 0.7195 0.7208 0.7219 0.7232 0.7244
1290.000000 0.7253 0.7261 0.7268 0.7276 0.7285
1285.000000 0.7293 0.7301 0.7308 0.7318 0.7325
1280.000000 0.7333 0.7340 0.7347 0.7351 0.7357
1275.000000 0.7355 0.7353 0.7344 0.7335 0.7325
1270.000000 0.7314 0.7303 0.7300 0.7300 0.7310
1265.000000 0.7321 0.7339 0.7364 0.7386 0.7404
1260.000000 0.7418 0.7421 0.7425 0.7415 0.7405
1255.000000 0.7371 0.7325 0.7265 0.7176 0.6772
1250.000000 0.6371 0.6392 0.6394 0.6404 0.6428
1245.000000 0.6503 0.6642 0.6835 0.6997 0.7294
1240.000000 0.7461 0.7631 0.7799 0.7968 0.8136
1235.000000 0.8225 0.8284 0.8342 0.8400 0.8457
1230.000000 0.8492 0.8523 0.8554 0.8582 0.8608
1225.000000 0.8635 0.8661 0.8678 0.8696 0.8712
1220.000000 0.8721 0.8721 0.8721 0.8721 0.8724
1215.000000 0.8725 0.8728 0.8734 0.8751 0.8768
1210.000000 0.8786 0.8803 0.8823 0.8843 0.8862
1205.000000 0.8882 0.8902 0.8921 0.8943 0.8964
1200.000000 0.8985 0.9007 0.9028 0.9048 0.9066
1195.000000 0.9085 0.9093 0.9100 0.9106 0.9112
1190.000000 0.9112 0.9112 0.9102 0.9087 0.9066
1185.000000 0.9034 0.8997 0.8953 0.8920 0.8893
1180.000000 0.8908 0.8946 0.9024 0.9059 0.9102
1175.000000 0.9087 0.9087 0.9083 0.9078 0.9073
1170.000000 0.9063 0.9054 0.9044 0.9032 0.9018
1165.000000 0.9006 0.8987 0.8946 0.8901 0.8850
1160.000000 0.8797 0.8778 0.8773 0.8768 0.8763
1155.000000 0.8761 0.8765 0.8782 0.8801 0.8831
1150.000000 0.8860 0.8893 0.8937 0.8981 0.9027
1145.000000 0.9071 0.9114 0.9155 0.9191 0.9230
1140.000000 0.9216 0.9209 0.9199 0.9189 0.9171
1135.000000 0.9154 0.9125 0.9088 0.9041 0.8962
1130.000000 0.8848 0.8628 0.7543 0.6641 0.5740
1125.000000 0.4838 0.3937 0.3714 0.3742 0.5073
1120.000000 0.6020 0.6965 0.7911 0.8499 0.8632
1115.000000 0.8677 0.8675 0.8683 0.8683 0.8160
1110.000000 0.7528 0.6941 0.6933 0.7331 0.7865
1105.000000 0.8400 0.8881 0.9004 0.9095 0.9139
1100.000000 0.9171 0.9200 0.9218 0.9236 0.9249
1095.000000 0.9259 0.9268 0.9278 0.9286 0.9290
1090.000000 0.9294 0.9298 0.9302 0.9305 0.9306
1085.000000 0.9310 0.9310 0.9309 0.9309 0.9309
1080.000000 0.9309 0.9309 0.9305 0.9300 0.9294
1075.000000 0.9289 0.9271 0.9249 0.9225 0.9200
1070.000000 0.9166 0.9132 0.9100 0.9068 0.9039
1065.000000 0.9018 0.9021 0.9025 0.9052 0.9118
1060.000000 0.9198 0.9263 0.9321 0.9368 0.9407
1055.000000 0.9428 0.9449 0.9470 0.9490 0.9501
1050.000000 0.9511 0.9521 0.9528 0.9533 0.9487
1045.000000 0.9540 0.9525 0.9511 0.9492 0.9464
1040.000000 0.9425 0.9368 0.9344 0.9332 0.9341
1035.000000 0.9368 0.9395 0.9410 0.9418 0.9421
1030.000000 0.9405 0.9367 0.9309 0.9249 0.9093
1025.000000 0.8777 0.8155 0.7532 0.6910 0.6731
1020.000000 0.6735 0.8056 0.9021 0.9138 0.9193
1015.000000 0.9218 0.9236 0.9254 0.9264 0.9300
1010.000000 0.9271 0.9208 0.9145 0.9081 0.9018
1005.000000 0.8954 0.8950 0.8974 0.9039 0.9159
1000.000000 0.9256 0.9283 0.9302 0.9296 0.9294
995.000000 0.9283 0.9261 0.9192 0.9058 0.8711
990.000000 0.8351 0.7990 0.7628 0.7612 0.7658
985.000000 0.8057 0.8455 0.8854 0.9044 0.9161
980.000000 0.9278 0.9366 0.9391 0.9406 0.9421
975.000000 0.9432 0.9439 0.9447 0.9454 0.9461
970.000000 0.9468 0.9477 0.9485 0.9493 0.9501
965.000000 0.9509 0.9517 0.9524 0.9530 0.9536
960.000000 0.9542 0.9540 0.9539 0.9537 0.9523
955.000000 0.9506 0.9488 0.9462 0.9435 0.9408
950.000000 0.9383 0.9370 0.9378 0.9408 0.9453
945.000000 0.9500 0.9545 0.9555 0.9565 0.9571
940.000000 0.9577 0.9581 0.9586 0.9591 0.9596
935.000000 0.9601 0.9605 0.9610 0.9615 0.9620
930.000000 0.9625 0.9631 0.9636 0.9641 0.9647
925.000000 0.9649 0.9649 0.9649 0.9648 0.9640
920.000000 0.9633 0.9633 0.9634 0.9637 0.9640
915.000000 0.9643 0.9646 0.9646 0.9646 0.9645
910.000000 0.9644 0.9643 0.9640 0.9633 0.9625
905.000000 0.9618 0.9611 0.9598 0.9582 0.9566
900.000000 0.9550 0.9534 0.9500 0.9464 0.9423
895.000000 0.9380 0.9336 0.9283 0.9228 0.9148
890.000000 0.9024 0.8656 0.8078 0.7446 0.7471
885.000000 0.7471 0.7537 0.7758 0.8142 0.8404
880.000000 0.8666 0.8928 0.9190 0.9413 0.9484
875.000000 0.9548 0.9590 0.9630 0.9656 0.9681
870.000000 0.9699 0.9716 0.9734 0.9750 0.9762
865.000000 0.9773 0.9784 0.9795 0.9806 0.9817
860.000000 0.9825 0.9833 0.9839 0.9846 0.9853
855.000000 0.9859 0.9866 0.9871 0.9871 0.9871
850.000000 0.9882 0.9884 0.9887 0.9889 0.9889
845.000000 0.9889 0.9886 0.9884 0.9878 0.9861
840.000000 0.9843 0.9825 0.9807 0.9781 0.9752
835.000000 0.9723 0.9695 0.9640 0.9581 0.9512
830.000000 0.9418 0.9328 0.9244 0.9160 0.9075
825.000000 0.8221 0.6954 0.5685 0.5360 0.5381
820.000000 0.5931 0.6332 0.6538 0.6636 0.6965
815.000000 0.7946 0.8925 0.9257 0.9374 0.9496
810.000000 0.9570 0.9636 0.9670 0.9689 0.9702
805.000000 0.9709 0.9711 0.9711 0.9707 0.9704
800.000000 0.9701 0.9699 0.9684 0.9668 0.9654
795.000000 0.9628 0.9595 0.9561 0.9513 0.9464
790.000000 0.9409 0.9344 0.9275 0.9182 0.9078
785.000000 0.8831 0.8620 0.8368 0.8118 0.7867
780.000000 0.7749 0.7730 0.7739 0.7747 0.7782
775.000000 0.7851 0.7965 0.8144 0.8325 0.8483
770.000000 0.8608 0.8702 0.8782 0.8862 0.8937
765.000000 0.9011 0.9075 0.9128 0.9171 0.9207
760.000000 0.9240 0.9268 0.9295 0.9316 0.9337
755.000000 0.9345 0.9386 0.9355 0.9356 0.9356
750.000000 0.9356 0.9350 0.9339 0.9328 0.9318
745.000000 0.9307 0.9295 0.9283 0.9270 0.9258
740.000000 0.9245 0.9230 0.9214 0.9198 0.9182
735.000000 0.9161 0.9140 0.9118 0.9094 0.9062
730.000000 0.9030 0.8986 0.8933 0.8881 0.8828
725.000000 0.8771 0.8739 0.8731 0.8752 0.8850
720.000000 0.8964 0.9062 0.9088 0.9096 0.9104
715.000000 0.9111 0.9111 0.9112 0.9096 0.9059
710.000000 0.8968 0.8831 0.8709 0.8601 0.8416
705.000000 0.8230 0.8045 0.7860 0.7674 0.7442
700.000000 0.7456 0.7571 0.7789 0.8005 0.8221
695.000000 0.8438 0.8658 0.8728 0.8775 0.8814
690.000000 0.8838 0.8850 0.8850 0.8842 0.8818
685.000000 0.8787 0.8756 0.8703 0.8649 0.8568
680.000000 0.8461 0.8246 0.8058 0.7601 0.7176
675.000000 0.6751 0.6326 0.5901 0.5515 0.5504
670.000000 0.5724 0.6172 0.6621 0.6919 0.6925
665.000000 0.6968 0.6906 0.6875 0.6830 0.6734
660.000000 0.6445 0.6226 0.6008 0.5789 0.5570
655.000000 0.5352 0.5133 0.4915 0.4696 0.4477
650.000000 0.4259 0.4135 0.4084 0.4105 0.4110
645.000000 0.4141 0.4184 0.4266 0.4619 0.5041
640.000000 0.5462 0.5987 0.5971 0.5526 0.4920
635.000000 0.4312 0.4187 0.4166 0.5302 0.6558
630.000000 0.7491 0.7605 0.7776 0.7948 0.8119
625.000000 0.8291 0.8463 0.8561 0.8598 0.8598
620.000000 0.8597 0.8397 0.7305 0.6214 0.5304
615.000000 0.5321 0.6221 0.7787 0.8155 0.8405
610.000000 0.8631 0.8842 0.8978 0.9067 0.9141
605.000000 0.9194 0.9247 0.9299 0.9342 0.9384
600.000000 0.9420 0.9449 0.9478 0.9507 0.9533
595.000000 0.9548 0.9562 0.9577 0.9591 0.9604
590.000000 0.9617 0.9628 0.9641 0.9651 0.9658
585.000000 0.9666 0.9674 0.9681 0.9689 0.9697
580.000000 0.9703 0.9709 0.9715 0.9721 0.9727
575.000000 0.9733 0.9737 0.9739 0.9742 0.9734
570.000000 0.9748 0.9750 0.9750 0.9750 0.9750
565.000000 0.9750 0.9749 0.9744 0.9740 0.9736
560.000000 0.9732 0.9727 0.9721 0.9714 0.9705
555.000000 0.9697 0.9688 0.9680 0.9670 0.9657
550.000000 0.9643 0.9628 0.9611 0.9584 0.9556
545.000000 0.9505 0.9443 0.9380 0.9313 0.9225
540.000000 0.9104 0.8208 0.8038 0.8030 0.8075
535.000000 0.8235 0.8395 0.8555 0.8715 0.8874
530.000000 0.9034 0.9194 0.9354 0.9514 0.9616
525.000000 0.9625 0.9633 0.9642 0.9646 0.9648
520.000000 0.9650 0.9652 0.9654 0.9656 0.9656
515.000000 0.9655 0.9654 0.9653 0.9652 0.9664
510.000000 0.9650 0.9649 0.9648 0.9646 0.9645
505.000000 0.9644 0.9642 0.9641 0.9639 0.9638
500.000000 0.9634 0.9631 0.9627 0.9624 0.9620
495.000000 0.9617 0.9611 0.9605 0.9598 0.9592
490.000000 0.9586 0.9580 0.9574 0.9566 0.9553
485.000000 0.9541 0.9528 0.9516 0.9504 0.9491
480.000000 0.9478 0.9466 0.9451 0.9436 0.9420
475.000000 0.9405 0.9389 0.9374 0.9359 0.9341
470.000000 0.9323 0.9304 0.9285 0.9267 0.9248
465.000000 0.9228 0.9210 0.9185 0.9160 0.9135
460.000000 0.9110 0.9084 0.9059 0.9032 0.8996
455.000000 0.8960 0.8924 0.8889 0.8853 0.8814
450.000000 0.8774 0.8733 0.8692 0.8652 0.8602
445.000000 0.8546 0.8490 0.8435 0.8370 0.8295
440.000000 0.8221 0.8151 0.8096 0.8042 0.7987
435.000000 0.7932 0.7868 0.7805 0.7742 0.7678
430.000000 0.7614 0.7561 0.7508 0.7455 0.7401
425.000000 0.7347 0.7292 0.7237 0.7187 0.7146
420.000000 0.7111 0.7101 0.7090 0.7078 0.7093
415.000000 0.7074 0.7075 0.7078 0.7084 0.7092
410.000000 0.7101 0.7111 0.7124 0.7144 0.7164
405.000000 0.7196 0.7234 0.7271 0.7318
##END=
