##TITLE=HISTAMINE DIHYDROCHLORIDE
$$ E.K. NO. 2533
##JCAMP-DX=4.24
##DATA TYPE=INFRARED SPECTRUM
##CLASS=COBLENTZ
##ORIGIN=DOW CHEMICAL COMPANY
##OWNER=COBLENTZ SOCIETY
Collection (C) 2018 copyright by the U.S. Secretary of Commerce
on behalf of the United States of America. All rights reserved.
##DATE=Not specified, most likely prior to 1970
##MOLFORM=C5 H11 Cl2 N3
##SOURCE REFERENCE=COBLENTZ NO. 1870
##$NIST ID=B6001870
##$NIST SOURCE=COBLENTZ
##$NIST IMAGE=cob1870
##SPECTROMETER/DATA SYSTEM=Not specified, most likely a prism, grating, or hybrid spectrometer.
##STATE=SOLID (MINERAL OIL MULL)
##SAMPLING PROCEDURE=TRANSMISSION
##RESOLUTION=4
##DATA PROCESSING=DIGITIZED BY NIST FROM HARD COPY
##XUNITS=MICROMETERS
##YUNITS=TRANSMITTANCE
##XFACTOR=1.000000
##YFACTOR=1
##DELTAX=000.006849
##FIRSTX=2.034
##LASTX=15.8837
##FIRSTY=0.721
##MAXX=15.8837
##MINX=2.034
##MAXY=0.9
##MINY=0.023
##NPOINTS=2023
##XYDATA=(X++(Y..Y))
2.034000 0.7210 0.7210 0.7230 0.7240 0.7240
2.068264 0.7240 0.7240 0.7280 0.7280 0.7290
2.103000 0.7310 0.7310 0.7330 0.7350 0.7350
2.137264 0.7380 0.7400 0.7400 0.7410 0.7410
2.171000 0.7410 0.7410 0.7410 0.7410 0.7410
2.205264 0.7410 0.7410 0.7410 0.7410 0.7410
2.240000 0.7410 0.7410 0.7410 0.7400 0.7400
2.274264 0.7380 0.7380 0.7380 0.7380 0.7400
2.308000 0.7410 0.7410 0.7430 0.7450 0.7480
2.342264 0.7520 0.7530 0.7550 0.7570 0.7580
2.377000 0.7600 0.7640 0.7670 0.7690 0.7700
2.411264 0.7720 0.7740 0.7770 0.7790 0.7810
2.445000 0.7840 0.7880 0.7890 0.7910 0.7930
2.479264 0.7940 0.7960 0.7980 0.8000 0.8030
2.514000 0.8050 0.8060 0.8080 0.8100 0.8110
2.548264 0.8110 0.8130 0.8150 0.8170 0.8180
2.582000 0.8230 0.8250 0.8270 0.8300 0.8300
2.616264 0.8300 0.8320 0.8320 0.8320 0.8320
2.651000 0.8320 0.8340 0.8350 0.8390 0.8390
2.685264 0.8410 0.8420 0.8420 0.8440 0.8470
2.719000 0.8490 0.8510 0.8510 0.8520 0.8520
2.753264 0.8540 0.8560 0.8580 0.8590 0.8590
2.788000 0.8610 0.8630 0.8640 0.8660 0.8660
2.822264 0.8680 0.8680 0.8680 0.8680 0.8680
2.856000 0.8680 0.8660 0.8660 0.8660 0.8660
2.890264 0.8660 0.8660 0.8640 0.8640 0.8630
2.925000 0.8630 0.8610 0.8590 0.8560 0.8540
2.959264 0.8510 0.8460 0.8410 0.8350 0.8320
2.993000 0.8250 0.8150 0.8100 0.8010 0.7890
3.027264 0.7770 0.7620 0.7480 0.7330 0.7160
3.062000 0.6990 0.6800 0.6630 0.6410 0.6170
3.096264 0.5880 0.5430 0.5410 0.5230 0.5000
3.130000 0.4800 0.4630 0.4370 0.4130 0.4010
3.164264 0.3770 0.3550 0.3240 0.3160 0.2760
3.199000 0.2460 0.2180 0.2150 0.2100 0.2080
3.233264 0.2080 0.2100 0.2130 0.2270 0.2410
3.267000 0.2610 0.2680 0.2700 0.2700 0.2640
3.301264 0.2420 0.2230 0.1980 0.1840 0.1690
3.336000 0.1520 0.1310 0.1120 0.0940 0.0730
3.370264 0.0540 0.0370 0.0290 0.0230 0.0230
3.404000 0.0230 0.0250 0.0270 0.0290 0.0300
3.438264 0.0340 0.0410 0.0440 0.0490 0.0520
3.473000 0.0540 0.0540 0.0590 0.0710 0.0900
3.507264 0.1280 0.1480 0.1860 0.2030 0.2220
3.541000 0.2370 0.2520 0.2630 0.2710 0.2820
3.575264 0.2850 0.2970 0.3070 0.3210 0.3350
3.610000 0.3480 0.3620 0.3770 0.3960 0.4060
3.644264 0.4220 0.4300 0.4390 0.4410 0.4420
3.678000 0.4510 0.4540 0.4610 0.4660 0.4730
3.712264 0.4780 0.4780 0.4800 0.4800 0.4800
3.747000 0.4830 0.4900 0.5000 0.5120 0.5210
3.781264 0.5230 0.5280 0.5280 0.5310 0.5330
3.815000 0.5350 0.5360 0.5410 0.5480 0.5580
3.849264 0.5690 0.5910 0.6050 0.6150 0.6220
3.884000 0.6290 0.6320 0.6350 0.6410 0.6420
3.918264 0.6460 0.6560 0.6660 0.6730 0.6800
3.952000 0.6820 0.6870 0.6880 0.6920 0.6920
3.986264 0.6920 0.6920 0.6680 0.6590 0.6370
4.021000 0.6350 0.6390 0.6560 0.6730 0.6880
4.055264 0.7050 0.7160 0.7470 0.7480 0.7520
4.089000 0.7570 0.7580 0.7600 0.7600 0.7640
4.123264 0.7670 0.7700 0.7720 0.7740 0.7760
4.158000 0.7770 0.7790 0.7810 0.7810 0.7820
4.192264 0.7840 0.7840 0.7880 0.7880 0.7880
4.226000 0.7880 0.7890 0.7910 0.7930 0.8000
4.260264 0.8000 0.8010 0.8010 0.8030 0.8050
4.295000 0.8080 0.8110 0.8150 0.8150 0.8170
4.329264 0.8170 0.8180 0.8200 0.8230 0.8250
4.363000 0.8290 0.8290 0.8300 0.8300 0.8300
4.397264 0.8300 0.8300 0.8320 0.8320 0.8320
4.432000 0.8340 0.8350 0.8350 0.8350 0.8350
4.466264 0.8370 0.8390 0.8420 0.8420 0.8420
4.500000 0.8420 0.8420 0.8420 0.8420 0.8490
4.534264 0.8490 0.8490 0.8490 0.8490 0.8490
4.568000 0.8490 0.8470 0.8470 0.8470 0.8470
4.602264 0.8470 0.8510 0.8510 0.8540 0.8590
4.637000 0.8610 0.8610 0.8630 0.8640 0.8640
4.671264 0.8640 0.8640 0.8640 0.8640 0.8640
4.705000 0.8640 0.8640 0.8640 0.8640 0.8640
4.739264 0.8640 0.8640 0.8640 0.8640 0.8640
4.774000 0.8640 0.8660 0.8680 0.8680 0.8680
4.808264 0.8700 0.8700 0.8710 0.8710 0.8730
4.842000 0.8730 0.8750 0.8750 0.8760 0.8760
4.876264 0.8780 0.8780 0.8780 0.8800 0.8820
4.911000 0.8820 0.8820 0.8830 0.8830 0.8830
4.945264 0.8850 0.8870 0.8870 0.8880 0.8880
4.979000 0.8880 0.8880 0.8880 0.8880 0.8870
5.013264 0.8850 0.8850 0.8830 0.8830 0.8830
5.048000 0.8830 0.8850 0.8850 0.8850 0.8850
5.082264 0.8880 0.8880 0.8880 0.8880 0.8900
5.116000 0.8900 0.8900 0.8900 0.8900 0.8880
5.150264 0.8880 0.8830 0.8820 0.8820 0.8820
5.185000 0.8800 0.8780 0.8760 0.8750 0.8730
5.219264 0.8710 0.8710 0.8710 0.8710 0.8710
5.253000 0.8710 0.8710 0.8710 0.8710 0.8710
5.287264 0.8710 0.8710 0.8730 0.8730 0.8730
5.322000 0.8780 0.8780 0.8780 0.8800 0.8800
5.356264 0.8800 0.8820 0.8830 0.8830 0.8830
5.390000 0.8830 0.8830 0.8830 0.8830 0.8850
5.424264 0.8850 0.8850 0.8870 0.8880 0.8900
5.459000 0.8900 0.8900 0.8880 0.8880 0.8870
5.493264 0.8850 0.8850 0.8850 0.8850 0.8830
5.527000 0.8830 0.8830 0.8830 0.8830 0.8830
5.561264 0.8830 0.8830 0.8830 0.8830 0.8830
5.596000 0.8830 0.8830 0.8830 0.8820 0.8820
5.630264 0.8780 0.8710 0.8680 0.8630 0.8630
5.664000 0.8630 0.8630 0.8630 0.8630 0.8630
5.698264 0.8630 0.8630 0.8630 0.8630 0.8640
5.733000 0.8660 0.8660 0.8700 0.8700 0.8680
5.767264 0.8680 0.8660 0.8660 0.8640 0.8630
5.801000 0.8610 0.8610 0.8590 0.8580 0.8560
5.835264 0.8540 0.8540 0.8520 0.8510 0.8490
5.870000 0.8470 0.8420 0.8410 0.8410 0.8390
5.904264 0.8390 0.8390 0.8370 0.8340 0.8300
5.938000 0.8250 0.8220 0.8200 0.8180 0.8150
5.972264 0.8110 0.8080 0.8060 0.8050 0.8030
6.007000 0.8010 0.8010 0.8000 0.8000 0.7980
6.041264 0.7980 0.7980 0.7980 0.7960 0.7930
6.075000 0.7910 0.7770 0.7580 0.7190 0.7110
6.109264 0.6950 0.6750 0.6390 0.6200 0.6180
6.144000 0.6180 0.6220 0.6340 0.6390 0.6440
6.178264 0.6990 0.7020 0.7040 0.7040 0.7020
6.212000 0.6940 0.6830 0.6800 0.6780 0.6780
6.246264 0.6780 0.6800 0.6830 0.6990 0.7110
6.281000 0.7260 0.7280 0.7290 0.7410 0.7500
6.315264 0.7520 0.7580 0.7580 0.7600 0.7620
6.349000 0.7620 0.7650 0.7650 0.7670 0.7670
6.383264 0.7690 0.7690 0.7670 0.7670 0.7650
6.418000 0.7580 0.7580 0.7570 0.7570 0.7550
6.452264 0.7530 0.7520 0.7480 0.7360 0.7160
6.486000 0.6950 0.6490 0.6250 0.5890 0.5580
6.520264 0.5400 0.5310 0.5330 0.5350 0.5600
6.555000 0.5810 0.5960 0.6680 0.6700 0.7140
6.589264 0.7500 0.7760 0.7910 0.8100 0.8110
6.623000 0.8170 0.8170 0.8290 0.8320 0.8320
6.657264 0.8340 0.8340 0.8340 0.8320 0.8300
6.692000 0.8180 0.8050 0.7770 0.7410 0.6990
6.726264 0.6730 0.6390 0.5810 0.5520 0.5240
6.760000 0.4950 0.4540 0.4250 0.4080 0.3940
6.794264 0.3820 0.3620 0.3570 0.3480 0.3480
6.829000 0.3470 0.3450 0.3450 0.3450 0.3450
6.863264 0.3480 0.3600 0.3740 0.3910 0.4050
6.897000 0.4170 0.4300 0.4410 0.4520 0.4640
6.931264 0.4780 0.4820 0.5310 0.5980 0.6350
6.966000 0.6490 0.6900 0.7110 0.7260 0.7410
7.000264 0.7480 0.7520 0.7580 0.7620 0.7620
7.034000 0.7640 0.7640 0.7650 0.7650 0.7650
7.068264 0.7640 0.7640 0.7640 0.7640 0.7650
7.103000 0.7740 0.7790 0.7840 0.7930 0.8000
7.137264 0.8010 0.8030 0.8050 0.8050 0.8010
7.171000 0.7960 0.7720 0.7500 0.7450 0.7350
7.205264 0.6780 0.6610 0.6300 0.6150 0.5940
7.240000 0.5810 0.5790 0.5810 0.5860 0.6050
7.274264 0.6320 0.6630 0.6800 0.7000 0.7050
7.308000 0.7160 0.7260 0.7360 0.7480 0.7700
7.342264 0.7820 0.7890 0.7890 0.7890 0.7890
7.377000 0.7820 0.7700 0.7690 0.7670 0.7670
7.411264 0.7690 0.7700 0.7810 0.7890 0.7960
7.445000 0.8060 0.8180 0.8230 0.8300 0.8320
7.479264 0.8320 0.8320 0.8300 0.8290 0.8270
7.514000 0.8270 0.8230 0.8220 0.8200 0.8200
7.548264 0.8170 0.8150 0.8150 0.8180 0.8250
7.582000 0.8270 0.8290 0.8320 0.8350 0.8350
7.616264 0.8370 0.8370 0.8370 0.8370 0.8370
7.651000 0.8370 0.8370 0.8350 0.8350 0.8370
7.685264 0.8370 0.8370 0.8370 0.8370 0.8370
7.719000 0.8390 0.8420 0.8460 0.8490 0.8490
7.753264 0.8510 0.8510 0.8510 0.8520 0.8540
7.788000 0.8540 0.8540 0.8540 0.8540 0.8540
7.822264 0.8540 0.8560 0.8560 0.8560 0.8520
7.856000 0.8520 0.8520 0.8520 0.8520 0.8520
7.890264 0.8520 0.8520 0.8520 0.8520 0.8520
7.925000 0.8520 0.8580 0.8590 0.8610 0.8630
7.959264 0.8630 0.8630 0.8630 0.8610 0.8590
7.993000 0.8520 0.8440 0.8290 0.8130 0.7910
8.027264 0.7860 0.7690 0.7520 0.7360 0.7310
8.062000 0.7290 0.7290 0.7310 0.7470 0.7650
8.096264 0.7930 0.8080 0.8250 0.8350 0.8440
8.130000 0.8510 0.8580 0.8580 0.8610 0.8630
8.164264 0.8640 0.8660 0.8660 0.8680 0.8680
8.199000 0.8700 0.8710 0.8750 0.8780 0.8800
8.233264 0.8800 0.8820 0.8830 0.8830 0.8830
8.267000 0.8830 0.8830 0.8850 0.8850 0.8880
8.301264 0.8900 0.8900 0.8900 0.8900 0.8900
8.336000 0.8900 0.8900 0.8900 0.8880 0.8880
8.370264 0.8870 0.8820 0.8780 0.8710 0.8700
8.404000 0.8680 0.8640 0.8630 0.8630 0.8630
8.438264 0.8630 0.8630 0.8640 0.8660 0.8660
8.473000 0.8680 0.8700 0.8710 0.8710 0.8700
8.507264 0.8680 0.8680 0.8610 0.8590 0.8520
8.541000 0.8490 0.8470 0.8460 0.8460 0.8440
8.575264 0.8440 0.8440 0.8420 0.8410 0.8390
8.610000 0.8290 0.8180 0.8050 0.8000 0.7880
8.644264 0.7740 0.7640 0.7480 0.7330 0.7310
8.678000 0.7240 0.7230 0.7230 0.7230 0.7290
8.712264 0.7450 0.7600 0.7760 0.7960 0.8060
8.747000 0.8180 0.8270 0.8320 0.8390 0.8470
8.781264 0.8510 0.8520 0.8560 0.8630 0.8680
8.815000 0.8680 0.8680 0.8700 0.8700 0.8700
8.849264 0.8710 0.8710 0.8710 0.8710 0.8730
8.884000 0.8730 0.8730 0.8730 0.8730 0.8730
8.918264 0.8730 0.8730 0.8710 0.8700 0.8680
8.952000 0.8630 0.8560 0.8490 0.8390 0.8300
8.986264 0.8270 0.8110 0.8100 0.8100 0.8100
9.021000 0.8110 0.8110 0.8220 0.8300 0.8390
9.055264 0.8410 0.8490 0.8510 0.8520 0.8520
9.089000 0.8560 0.8580 0.8540 0.8510 0.8370
9.123264 0.8200 0.8010 0.7740 0.7450 0.7090
9.158000 0.6880 0.6680 0.6520 0.6510 0.6510
9.192264 0.6540 0.6800 0.7090 0.7310 0.7720
9.226000 0.7910 0.8100 0.8230 0.8270 0.8460
9.260264 0.8510 0.8520 0.8560 0.8580 0.8590
9.295000 0.8630 0.8640 0.8660 0.8700 0.8700
9.329264 0.8780 0.8780 0.8800 0.8820 0.8820
9.363000 0.8820 0.8820 0.8820 0.8820 0.8820
9.397264 0.8830 0.8850 0.8870 0.8880 0.8880
9.432000 0.8880 0.8900 0.8900 0.8900 0.8900
9.466264 0.8900 0.8900 0.8900 0.8900 0.8900
9.500000 0.8920 0.8920 0.8920 0.8900 0.8900
9.534264 0.8900 0.8900 0.8900 0.8880 0.8880
9.568000 0.8870 0.8870 0.8850 0.8830 0.8820
9.602264 0.8800 0.8780 0.8710 0.8660 0.8630
9.637000 0.8590 0.8540 0.8460 0.8320 0.8250
9.671264 0.8130 0.8030 0.7910 0.7890 0.7880
9.705000 0.7860 0.7860 0.7860 0.7890 0.8030
9.739264 0.8110 0.8220 0.8320 0.8410 0.8490
9.774000 0.8520 0.8590 0.8630 0.8640 0.8700
9.808264 0.8710 0.8750 0.8800 0.8800 0.8820
9.842000 0.8820 0.8850 0.8880 0.8900 0.8900
9.876264 0.8900 0.8920 0.8920 0.8920 0.8940
9.911000 0.8940 0.8950 0.8950 0.8970 0.8970
9.945264 0.8990 0.8990 0.8990 0.8990 0.9000
9.979000 0.9000 0.9000 0.9000 0.9000 0.8990
10.013264 0.8990 0.8990 0.8970 0.8970 0.8970
10.048000 0.8970 0.8950 0.8940 0.8880 0.8850
10.082264 0.8820 0.8780 0.8680 0.8590 0.8580
10.116000 0.8520 0.8510 0.8490 0.8470 0.8470
10.150264 0.8470 0.8490 0.8510 0.8580 0.8610
10.185000 0.8680 0.8700 0.8710 0.8750 0.8780
10.219264 0.8780 0.8780 0.8780 0.8780 0.8780
10.253000 0.8780 0.8780 0.8780 0.8780 0.8760
10.287264 0.8760 0.8760 0.8710 0.8710 0.8680
10.322000 0.8640 0.8630 0.8590 0.8580 0.8540
10.356264 0.8510 0.8440 0.8300 0.8230 0.8050
10.390000 0.7890 0.7640 0.7470 0.7120 0.6950
10.424264 0.6800 0.6640 0.6610 0.6610 0.6610
10.459000 0.6610 0.6700 0.6990 0.7040 0.7310
10.493264 0.7530 0.7690 0.7810 0.7910 0.8000
10.527000 0.8110 0.8230 0.8290 0.8320 0.8370
10.561264 0.8390 0.8420 0.8440 0.8460 0.8490
10.596000 0.8490 0.8510 0.8510 0.8510 0.8510
10.630264 0.8510 0.8520 0.8520 0.8540 0.8540
10.664000 0.8540 0.8540 0.8560 0.8560 0.8560
10.698264 0.8560 0.8560 0.8560 0.8540 0.8540
10.733000 0.8540 0.8520 0.8510 0.8510 0.8510
10.767264 0.8510 0.8510 0.8510 0.8510 0.8510
10.801000 0.8510 0.8490 0.8470 0.8420 0.8390
10.835264 0.8370 0.8320 0.8300 0.8290 0.8230
10.870000 0.8220 0.8200 0.8180 0.8130 0.8080
10.904264 0.8030 0.8010 0.8000 0.7930 0.7890
10.938000 0.7820 0.7790 0.7770 0.7720 0.7690
10.972264 0.7670 0.7640 0.7640 0.7620 0.7620
11.007000 0.7600 0.7600 0.7600 0.7600 0.7600
11.041264 0.7620 0.7620 0.7620 0.7620 0.7640
11.075000 0.7640 0.7670 0.7700 0.7770 0.7820
11.109264 0.7880 0.7890 0.7940 0.8010 0.8030
11.144000 0.8060 0.8110 0.8150 0.8200 0.8230
11.178264 0.8290 0.8300 0.8320 0.8370 0.8410
11.212000 0.8440 0.8470 0.8490 0.8490 0.8520
11.246264 0.8580 0.8580 0.8590 0.8610 0.8630
11.281000 0.8640 0.8680 0.8680 0.8680 0.8680
11.315264 0.8680 0.8680 0.8680 0.8680 0.8700
11.349000 0.8700 0.8700 0.8680 0.8680 0.8660
11.383264 0.8640 0.8630 0.8610 0.8580 0.8560
11.418000 0.8540 0.8510 0.8470 0.8460 0.8410
11.452264 0.8390 0.8320 0.8250 0.8200 0.8130
11.486000 0.8050 0.8000 0.7930 0.7840 0.7740
11.520264 0.7620 0.7520 0.7400 0.7240 0.7110
11.555000 0.6940 0.6730 0.6590 0.6420 0.6220
11.589264 0.6010 0.5790 0.5550 0.5350 0.5160
11.623000 0.5000 0.4900 0.4710 0.4560 0.4470
11.657264 0.4300 0.4250 0.4180 0.4170 0.4170
11.692000 0.4170 0.4180 0.4220 0.4300 0.4440
11.726264 0.4560 0.4660 0.4800 0.4870 0.5050
11.760000 0.5170 0.5330 0.5500 0.5620 0.5860
11.794264 0.6010 0.6080 0.6110 0.6320 0.6510
11.829000 0.6660 0.6700 0.6830 0.6950 0.7050
11.863264 0.7050 0.7110 0.7260 0.7330 0.7360
11.897000 0.7430 0.7500 0.7530 0.7580 0.7600
11.931264 0.7640 0.7690 0.7720 0.7740 0.7790
11.966000 0.7810 0.7820 0.7840 0.7860 0.7880
12.000264 0.7880 0.7860 0.7840 0.7840 0.7840
12.034000 0.7820 0.7790 0.7740 0.7690 0.7620
12.068264 0.7580 0.7570 0.7480 0.7350 0.7280
12.103000 0.7190 0.7120 0.7040 0.6940 0.6830
12.137264 0.6750 0.6700 0.6610 0.6560 0.6520
12.171000 0.6510 0.6510 0.6490 0.6490 0.6490
12.205264 0.6490 0.6490 0.6490 0.6510 0.6510
12.240000 0.6510 0.6510 0.6510 0.6510 0.6510
12.274264 0.6490 0.6470 0.6460 0.6390 0.6340
12.308000 0.6250 0.6220 0.6180 0.6110 0.6080
12.342264 0.6050 0.6000 0.5980 0.5980 0.5980
12.377000 0.5980 0.5980 0.5980 0.5980 0.6000
12.411264 0.6010 0.6050 0.6080 0.6110 0.6220
12.445000 0.6300 0.6440 0.6510 0.6580 0.6640
12.479264 0.6710 0.6780 0.6820 0.6880 0.6990
12.514000 0.7040 0.7140 0.7190 0.7240 0.7280
12.548264 0.7330 0.7360 0.7410 0.7470 0.7500
12.582000 0.7520 0.7580 0.7640 0.7670 0.7720
12.616264 0.7740 0.7760 0.7770 0.7790 0.7790
12.651000 0.7810 0.7820 0.7840 0.7860 0.7880
12.685264 0.7880 0.7880 0.7890 0.7890 0.7890
12.719000 0.7890 0.7890 0.7880 0.7820 0.7790
12.753264 0.7720 0.7690 0.7650 0.7640 0.7600
12.788000 0.7600 0.7580 0.7580 0.7580 0.7600
12.822264 0.7620 0.7640 0.7670 0.7700 0.7740
12.856000 0.7770 0.7880 0.7910 0.7960 0.7980
12.890264 0.8000 0.8000 0.8010 0.8010 0.8050
12.925000 0.8060 0.8100 0.8100 0.8110 0.8110
12.959264 0.8130 0.8130 0.8130 0.8150 0.8150
12.993000 0.8150 0.8150 0.8170 0.8180 0.8200
13.027264 0.8200 0.8220 0.8220 0.8230 0.8250
13.062000 0.8250 0.8250 0.8250 0.8250 0.8270
13.096264 0.8270 0.8270 0.8270 0.8270 0.8290
13.130000 0.8290 0.8290 0.8290 0.8290 0.8290
13.164264 0.8290 0.8290 0.8290 0.8290 0.8290
13.199000 0.8290 0.8290 0.8290 0.8290 0.8290
13.233264 0.8290 0.8290 0.8290 0.8290 0.8290
13.267000 0.8290 0.8290 0.8290 0.8290 0.8290
13.301264 0.8290 0.8270 0.8270 0.8270 0.8250
13.336000 0.8230 0.8220 0.8220 0.8220 0.8220
13.370264 0.8220 0.8220 0.8220 0.8220 0.8220
13.404000 0.8220 0.8200 0.8200 0.8200 0.8180
13.438264 0.8180 0.8170 0.8170 0.8150 0.8110
13.473000 0.8100 0.8100 0.8080 0.8060 0.8050
13.507264 0.8050 0.8030 0.8010 0.8000 0.7980
13.541000 0.7960 0.7940 0.7930 0.7890 0.7860
13.575264 0.7860 0.7820 0.7790 0.7760 0.7700
13.610000 0.7690 0.7650 0.7620 0.7600 0.7580
13.644264 0.7570 0.7550 0.7530 0.7520 0.7520
13.678000 0.7520 0.7520 0.7520 0.7520 0.7520
13.712264 0.7520 0.7520 0.7520 0.7530 0.7550
13.747000 0.7550 0.7570 0.7570 0.7580 0.7580
13.781264 0.7580 0.7580 0.7580 0.7580 0.7580
13.815000 0.7580 0.7580 0.7580 0.7580 0.7580
13.849264 0.7580 0.7580 0.7580 0.7580 0.7580
13.884000 0.7580 0.7600 0.7600 0.7620 0.7620
13.918264 0.7620 0.7640 0.7650 0.7670 0.7690
13.952000 0.7700 0.7720 0.7740 0.7760 0.7760
13.986264 0.7760 0.7760 0.7760 0.7760 0.7770
14.021000 0.7770 0.7790 0.7790 0.7790 0.7790
14.055264 0.7790 0.7790 0.7790 0.7790 0.7790
14.089000 0.7790 0.7790 0.7790 0.7790 0.7790
14.123264 0.7790 0.7790 0.7790 0.7790 0.7790
14.158000 0.7790 0.7790 0.7790 0.7790 0.7790
14.192264 0.7770 0.7770 0.7770 0.7760 0.7760
14.226000 0.7760 0.7740 0.7740 0.7720 0.7700
14.260264 0.7690 0.7690 0.7670 0.7670 0.7670
14.295000 0.7670 0.7670 0.7650 0.7650 0.7640
14.329264 0.7620 0.7620 0.7600 0.7580 0.7580
14.363000 0.7580 0.7570 0.7550 0.7550 0.7550
14.397264 0.7530 0.7530 0.7500 0.7500 0.7480
14.432000 0.7480 0.7480 0.7480 0.7470 0.7450
14.466264 0.7430 0.7410 0.7410 0.7400 0.7400
14.500000 0.7360 0.7360 0.7360 0.7360 0.7360
14.534264 0.7360 0.7360 0.7350 0.7330 0.7330
14.568000 0.7310 0.7290 0.7280 0.7280 0.7260
14.602264 0.7230 0.7230 0.7210 0.7210 0.7190
14.637000 0.7190 0.7170 0.7170 0.7140 0.7140
14.671264 0.7140 0.7140 0.7140 0.7120 0.7120
14.705000 0.7120 0.7090 0.7090 0.7090 0.7070
14.739264 0.7050 0.7040 0.7020 0.7020 0.7000
14.774000 0.7000 0.6990 0.6990 0.6990 0.6970
14.808264 0.6950 0.6900 0.6900 0.6880 0.6870
14.842000 0.6850 0.6830 0.6820 0.6820 0.6800
14.876264 0.6800 0.6800 0.6780 0.6780 0.6780
14.911000 0.6760 0.6750 0.6730 0.6730 0.6710
14.945264 0.6700 0.6680 0.6680 0.6680 0.6660
14.979000 0.6660 0.6660 0.6660 0.6640 0.6640
15.013264 0.6610 0.6590 0.6590 0.6580 0.6560
15.048000 0.6540 0.6520 0.6510 0.6510 0.6490
15.082264 0.6460 0.6440 0.6440 0.6420 0.6410
15.116000 0.6410 0.6390 0.6390 0.6370 0.6370
15.150264 0.6350 0.6340 0.6340 0.6320 0.6290
15.185000 0.6290 0.6290 0.6270 0.6230 0.6220
15.219264 0.6180 0.6180 0.6180 0.6180 0.6180
15.253000 0.6170 0.6170 0.6170 0.6130 0.6110
15.287264 0.6100 0.6100 0.6080 0.6060 0.6060
15.322000 0.6030 0.6010 0.6010 0.6010 0.6010
15.356264 0.6010 0.6000 0.5980 0.5940 0.5910
15.390000 0.5890 0.5890 0.5890 0.5890 0.5890
15.424264 0.5890 0.5890 0.5890 0.5890 0.5880
15.459000 0.5860 0.5860 0.5860 0.5820 0.5790
15.493264 0.5770 0.5770 0.5720 0.5700 0.5690
15.527000 0.5670 0.5620 0.5600 0.5600 0.5600
15.561264 0.5600 0.5580 0.5580 0.5580 0.5570
15.596000 0.5570 0.5570 0.5550 0.5470 0.5450
15.630264 0.5450 0.5430 0.5410 0.5400 0.5400
15.664000 0.5400 0.5380 0.5380 0.5360 0.5350
15.698264 0.5330 0.5330 0.5290 0.5280 0.5280
15.733000 0.5280 0.5260 0.5260 0.5230 0.5210
15.767264 0.5210 0.5210 0.5190 0.5190 0.5170
15.801000 0.5170 0.5190 0.5170 0.5170 0.5170
15.835264 0.5170 0.5170 0.5170 0.5170 0.5160
15.870000 0.5140 0.5140 0.5140
##END=
