##TITLE=2-Chloro-10-(3'-dimethylaminopropyl)-5,5-phenothiazinedioxide, hydrochloride, monohydrate
##JCAMP-DX=4.24
$$ By DXEDIT 1.05 (RS McDonald)
##DATA TYPE=INFRARED SPECTRUM
##CLASS=COBLENTZ III
##ORIGIN=SMITH KLINE & FRENCH LABS.
##OWNER=COPYRIGHT (C) 1988 by COBLENTZ SOCIETY INC.
Collection (C) 2018 copyright by the U.S. Secretary of Commerce
on behalf of the United States of America. All rights reserved.
##DATE=1962/08/20
##MOLFORM=C17 H20 Cl2 N2 O2 S  * H2 O
##SOURCE REFERENCE=COBLENTZ NO. 08402
##$NIST ID=B6008402
##$NIST SOURCE=COBLENTZ
##$NIST IMAGE=cob8402
##SPECTROMETER/DATA SYSTEM=PERKIN-ELMER 21 (GRATING)
##INSTRUMENT PARAMETERS=NaCl PRISM
##STATE=SOLID (OIL MULL)
$$SPECTRAL CONTAMINATION DUE TO OIL AROUND 2870, 1455, 1370, 722 CM^-^1
##SAMPLING PROCEDURE=TRANSMISSION
##RESOLUTION=2
##DATA PROCESSING=DIGITIZED BY COBLENTZ SOCIETY (BATCH I) FROM HARD COPY
##XUNITS=1/CM
##YUNITS=TRANSMITTANCE
##XFACTOR=1
##YFACTOR=1
##DELTAX=1
##FIRSTX=4000
##LASTX=684
##FIRSTY=0.622
##MAXX=4000
##MINX=684
##MAXY=0.9575
##MINY=0.0881
##NPOINTS=3317
##XYDATA=(X++(Y..Y))
4000.000000 0.6220 0.6220 0.6220 0.6221 0.6221
3995.000000 0.6222 0.6222 0.6226 0.6231 0.6236
3990.000000 0.6241 0.6246 0.6251 0.6256 0.6260
3985.000000 0.6264 0.6268 0.6273 0.6277 0.6281
3980.000000 0.6284 0.6287 0.6289 0.6292 0.6295
3975.000000 0.6297 0.6299 0.6300 0.6301 0.6302
3970.000000 0.6304 0.6305 0.6306 0.6307 0.6308
3965.000000 0.6309 0.6310 0.6310 0.6310 0.6312
3960.000000 0.6314 0.6315 0.6316 0.6317 0.6318
3955.000000 0.6319 0.6320 0.6321 0.6322 0.6323
3950.000000 0.6324 0.6325 0.6326 0.6327 0.6328
3945.000000 0.6329 0.6331 0.6332 0.6333 0.6334
3940.000000 0.6335 0.6336 0.6337 0.6338 0.6340
3935.000000 0.6342 0.6344 0.6347 0.6349 0.6351
3930.000000 0.6353 0.6356 0.6358 0.6360 0.6362
3925.000000 0.6366 0.6368 0.6371 0.6374 0.6377
3920.000000 0.6380 0.6383 0.6387 0.6393 0.6399
3915.000000 0.6404 0.6410 0.6415 0.6421 0.6428
3910.000000 0.6436 0.6443 0.6449 0.6456 0.6461
3905.000000 0.6465 0.6468 0.6471 0.6472 0.6475
3900.000000 0.6478 0.6482 0.6484 0.6487 0.6489
3895.000000 0.6492 0.6495 0.6497 0.6499 0.6501
3890.000000 0.6503 0.6504 0.6504 0.6504 0.6501
3885.000000 0.6499 0.6497 0.6495 0.6493 0.6490
3880.000000 0.6487 0.6485 0.6482 0.6478 0.6476
3875.000000 0.6474 0.6471 0.6468 0.6465 0.6461
3870.000000 0.6460 0.6456 0.6453 0.6450 0.6446
3865.000000 0.6443 0.6440 0.6436 0.6433 0.6430
3860.000000 0.6426 0.6424 0.6419 0.6418 0.6415
3855.000000 0.6412 0.6411 0.6408 0.6408 0.6408
3850.000000 0.6408 0.6411 0.6411 0.6412 0.6415
3845.000000 0.6415 0.6417 0.6418 0.6419 0.6421
3840.000000 0.6422 0.6426 0.6431 0.6435 0.6438
3835.000000 0.6442 0.6446 0.6450 0.6455 0.6458
3830.000000 0.6462 0.6467 0.6471 0.6475 0.6481
3825.000000 0.6485 0.6489 0.6494 0.6501 0.6511
3820.000000 0.6521 0.6532 0.6542 0.6551 0.6560
3815.000000 0.6567 0.6575 0.6582 0.6589 0.6596
3810.000000 0.6605 0.6614 0.6621 0.6631 0.6639
3805.000000 0.6648 0.6654 0.6661 0.6668 0.6675
3800.000000 0.6681 0.6686 0.6689 0.6691 0.6694
3795.000000 0.6696 0.6699 0.6701 0.6703 0.6706
3790.000000 0.6708 0.6711 0.6712 0.6715 0.6717
3785.000000 0.6718 0.6721 0.6722 0.6725 0.6725
3780.000000 0.6725 0.6726 0.6726 0.6728 0.6728
3775.000000 0.6730 0.6730 0.6731 0.6732 0.6732
3770.000000 0.6733 0.6734 0.6734 0.6735 0.6736
3765.000000 0.6736 0.6736 0.6736 0.6735 0.6735
3760.000000 0.6735 0.6734 0.6734 0.6733 0.6732
3755.000000 0.6731 0.6731 0.6728 0.6725 0.6721
3750.000000 0.6718 0.6715 0.6712 0.6711 0.6708
3745.000000 0.6706 0.6704 0.6701 0.6700 0.6699
3740.000000 0.6699 0.6698 0.6697 0.6697 0.6696
3735.000000 0.6695 0.6694 0.6694 0.6693 0.6693
3730.000000 0.6694 0.6695 0.6696 0.6697 0.6698
3725.000000 0.6701 0.6704 0.6707 0.6708 0.6711
3720.000000 0.6715 0.6718 0.6721 0.6722 0.6725
3715.000000 0.6728 0.6731 0.6734 0.6736 0.6739
3710.000000 0.6741 0.6744 0.6747 0.6749 0.6751
3705.000000 0.6754 0.6757 0.6758 0.6761 0.6764
3700.000000 0.6767 0.6769 0.6771 0.6774 0.6776
3695.000000 0.6778 0.6782 0.6784 0.6786 0.6789
3690.000000 0.6792 0.6794 0.6797 0.6799 0.6801
3685.000000 0.6804 0.6807 0.6810 0.6811 0.6814
3680.000000 0.6815 0.6818 0.6819 0.6821 0.6821
3675.000000 0.6821 0.6818 0.6818 0.6833 0.6814
3670.000000 0.6808 0.6801 0.6795 0.6789 0.6782
3665.000000 0.6775 0.6765 0.6758 0.6750 0.6741
3660.000000 0.6733 0.6726 0.6721 0.6714 0.6708
3655.000000 0.6701 0.6699 0.6697 0.6695 0.6693
3650.000000 0.6691 0.6691 0.6692 0.6693 0.6695
3645.000000 0.6696 0.6697 0.6700 0.6701 0.6705
3640.000000 0.6707 0.6710 0.6714 0.6718 0.6721
3635.000000 0.6725 0.6730 0.6733 0.6736 0.6738
3630.000000 0.6741 0.6743 0.6745 0.6746 0.6746
3625.000000 0.6747 0.6748 0.6748 0.6748 0.6748
3620.000000 0.6747 0.6747 0.6747 0.6746 0.6746
3615.000000 0.6745 0.6745 0.6745 0.6743 0.6740
3610.000000 0.6737 0.6735 0.6732 0.6728 0.6725
3605.000000 0.6722 0.6719 0.6718 0.6714 0.6708
3600.000000 0.6704 0.6699 0.6694 0.6689 0.6683
3595.000000 0.6678 0.6672 0.6667 0.6661 0.6649
3590.000000 0.6635 0.6621 0.6608 0.6595 0.6528
3585.000000 0.6447 0.6367 0.6286 0.6206 0.6117
3580.000000 0.6025 0.5933 0.5840 0.5748 0.5656
3575.000000 0.5562 0.5471 0.5379 0.5286 0.5194
3570.000000 0.5101 0.5008 0.4915 0.4822 0.4729
3565.000000 0.4636 0.4543 0.4450 0.4357 0.4271
3560.000000 0.4208 0.4144 0.4080 0.4016 0.3964
3555.000000 0.3956 0.3948 0.3940 0.3932 0.3925
3550.000000 0.3918 0.3912 0.3905 0.3898 0.3892
3545.000000 0.3887 0.3880 0.3876 0.3866 0.3864
3540.000000 0.3864 0.3862 0.3862 0.3860 0.3860
3535.000000 0.3875 0.3889 0.3903 0.3916 0.3930
3530.000000 0.3953 0.3974 0.3996 0.4018 0.4040
3525.000000 0.4060 0.4082 0.4105 0.4127 0.4149
3520.000000 0.4171 0.4193 0.4215 0.4236 0.4258
3515.000000 0.4280 0.4302 0.4325 0.4347 0.4369
3510.000000 0.4391 0.4412 0.4434 0.4456 0.4478
3505.000000 0.4501 0.4523 0.4545 0.4567 0.4589
3500.000000 0.4610 0.4633 0.4655 0.4678 0.4700
3495.000000 0.4722 0.4744 0.4766 0.4788 0.4810
3490.000000 0.4833 0.4855 0.4878 0.4900 0.4922
3485.000000 0.4944 0.4967 0.4989 0.5010 0.5034
3480.000000 0.5056 0.5079 0.5101 0.5124 0.5146
3475.000000 0.5168 0.5191 0.5212 0.5236 0.5258
3470.000000 0.5281 0.5303 0.5326 0.5349 0.5371
3465.000000 0.5394 0.5416 0.5439 0.5460 0.5484
3460.000000 0.5507 0.5530 0.5552 0.5575 0.5598
3455.000000 0.5620 0.5643 0.5665 0.5680 0.5694
3450.000000 0.5709 0.5724 0.5736 0.5740 0.5745
3445.000000 0.5750 0.5754 0.5758 0.5760 0.5762
3440.000000 0.5766 0.5776 0.5770 0.5771 0.5771
3435.000000 0.5772 0.5773 0.5773 0.5774 0.5775
3430.000000 0.5776 0.5776 0.5775 0.5774 0.5774
3425.000000 0.5773 0.5771 0.5768 0.5765 0.5762
3420.000000 0.5759 0.5748 0.5737 0.5725 0.5714
3415.000000 0.5702 0.5688 0.5674 0.5660 0.5647
3410.000000 0.5631 0.5615 0.5599 0.5583 0.5567
3405.000000 0.5492 0.5417 0.5342 0.5267 0.5202
3400.000000 0.5155 0.5107 0.5060 0.5012 0.4964
3395.000000 0.4916 0.4869 0.4821 0.4773 0.4725
3390.000000 0.4677 0.4629 0.4581 0.4533 0.4485
3385.000000 0.4437 0.4389 0.4341 0.4293 0.4245
3380.000000 0.4197 0.4148 0.4100 0.4052 0.4003
3375.000000 0.3955 0.3906 0.3892 0.3884 0.3879
3370.000000 0.3872 0.3868 0.3868 0.3868 0.3868
3365.000000 0.3868 0.3870 0.3871 0.3872 0.3873
3360.000000 0.3874 0.3875 0.3876 0.3878 0.3859
3355.000000 0.3880 0.3884 0.3887 0.3889 0.3896
3350.000000 0.3916 0.3938 0.3959 0.3980 0.4009
3345.000000 0.4043 0.4076 0.4109 0.4143 0.4176
3340.000000 0.4209 0.4242 0.4275 0.4309 0.4342
3335.000000 0.4376 0.4409 0.4443 0.4476 0.4509
3330.000000 0.4543 0.4576 0.4610 0.4643 0.4677
3325.000000 0.4710 0.4744 0.4778 0.4812 0.4846
3320.000000 0.4879 0.4912 0.4947 0.4980 0.5014
3315.000000 0.5048 0.5081 0.5115 0.5149 0.5183
3310.000000 0.5217 0.5251 0.5285 0.5318 0.5352
3305.000000 0.5387 0.5421 0.5455 0.5486 0.5515
3300.000000 0.5544 0.5572 0.5597 0.5603 0.5609
3295.000000 0.5615 0.5621 0.5627 0.5633 0.5639
3290.000000 0.5644 0.5649 0.5653 0.5657 0.5660
3285.000000 0.5664 0.5667 0.5670 0.5673 0.5676
3280.000000 0.5679 0.5681 0.5684 0.5686 0.5689
3275.000000 0.5691 0.5693 0.5696 0.5699 0.5705
3270.000000 0.5710 0.5717 0.5723 0.5746 0.5769
3265.000000 0.5792 0.5815 0.5838 0.5860 0.5884
3260.000000 0.5907 0.5930 0.5953 0.5976 0.5998
3255.000000 0.6021 0.6044 0.6068 0.6091 0.6114
3250.000000 0.6137 0.6160 0.6184 0.6207 0.6230
3245.000000 0.6253 0.6277 0.6300 0.6315 0.6322
3240.000000 0.6329 0.6337 0.6343 0.6347 0.6350
3235.000000 0.6354 0.6358 0.6362 0.6366 0.6370
3230.000000 0.6373 0.6377 0.6381 0.6385 0.6389
3225.000000 0.6392 0.6396 0.6400 0.6403 0.6406
3220.000000 0.6408 0.6410 0.6411 0.6412 0.6415
3215.000000 0.6417 0.6418 0.6421 0.6422 0.6425
3210.000000 0.6426 0.6428 0.6431 0.6433 0.6436
3205.000000 0.6438 0.6440 0.6442 0.6444 0.6446
3200.000000 0.6448 0.6449 0.6451 0.6453 0.6456
3195.000000 0.6458 0.6461 0.6464 0.6467 0.6469
3190.000000 0.6474 0.6476 0.6480 0.6483 0.6486
3185.000000 0.6490 0.6493 0.6496 0.6499 0.6501
3180.000000 0.6506 0.6510 0.6512 0.6517 0.6521
3175.000000 0.6524 0.6528 0.6531 0.6535 0.6538
3170.000000 0.6542 0.6546 0.6549 0.6553 0.6556
3165.000000 0.6560 0.6562 0.6565 0.6568 0.6569
3160.000000 0.6572 0.6575 0.6578 0.6580 0.6583
3155.000000 0.6585 0.6588 0.6590 0.6593 0.6595
3150.000000 0.6597 0.6600 0.6601 0.6605 0.6607
3145.000000 0.6610 0.6611 0.6615 0.6617 0.6619
3140.000000 0.6621 0.6625 0.6626 0.6630 0.6632
3135.000000 0.6635 0.6637 0.6639 0.6640 0.6641
3130.000000 0.6642 0.6642 0.6643 0.6643 0.6644
3125.000000 0.6645 0.6645 0.6646 0.6646 0.6647
3120.000000 0.6647 0.6648 0.6649 0.6650 0.6650
3115.000000 0.6651 0.6651 0.6653 0.6653 0.6654
3110.000000 0.6654 0.6655 0.6656 0.6656 0.6657
3105.000000 0.6658 0.6660 0.6661 0.6661 0.6662
3100.000000 0.6665 0.6665 0.6667 0.6669 0.6671
3095.000000 0.6674 0.6676 0.6680 0.6682 0.6685
3090.000000 0.6688 0.6691 0.6693 0.6696 0.6698
3085.000000 0.6700 0.6701 0.6694 0.6705 0.6705
3080.000000 0.6706 0.6706 0.6706 0.6705 0.6704
3075.000000 0.6703 0.6703 0.6701 0.6701 0.6700
3070.000000 0.6699 0.6698 0.6697 0.6694 0.6689
3065.000000 0.6684 0.6678 0.6662 0.6642 0.6621
3060.000000 0.6601 0.6569 0.6539 0.6508 0.6482
3055.000000 0.6469 0.6458 0.6446 0.6434 0.6421
3050.000000 0.6410 0.6398 0.6391 0.6386 0.6381
3045.000000 0.6375 0.6371 0.6367 0.6362 0.6359
3040.000000 0.6355 0.6351 0.6347 0.6343 0.6339
3035.000000 0.6335 0.6331 0.6327 0.6323 0.6320
3030.000000 0.6317 0.6315 0.6312 0.6310 0.6308
3025.000000 0.6305 0.6303 0.6301 0.6298 0.6296
3020.000000 0.6294 0.6292 0.6290 0.6287 0.6285
3015.000000 0.6282 0.6278 0.6275 0.6271 0.6267
3010.000000 0.6262 0.6259 0.6255 0.6251 0.6246
3005.000000 0.6242 0.6238 0.6234 0.6230 0.6225
3000.000000 0.6219 0.6212 0.6206 0.6198 0.6190
2995.000000 0.6182 0.6173 0.6164 0.6155 0.6146
2990.000000 0.6135 0.6123 0.6110 0.6098 0.6086
2985.000000 0.6073 0.6060 0.6047 0.6032 0.6017
2980.000000 0.6002 0.5986 0.5970 0.5954 0.5937
2975.000000 0.5921 0.5905 0.5888 0.5872 0.5855
2970.000000 0.5839 0.5823 0.5806 0.5790 0.5773
2965.000000 0.5754 0.5732 0.5710 0.5687 0.5646
2960.000000 0.5605 0.5565 0.5526 0.5489 0.5452
2955.000000 0.5414 0.5368 0.5321 0.5275 0.5195
2950.000000 0.5091 0.4987 0.4884 0.4780 0.4676
2945.000000 0.4573 0.4469 0.4365 0.4260 0.4156
2940.000000 0.4052 0.3947 0.3843 0.3738 0.3632
2935.000000 0.3529 0.3424 0.3318 0.3214 0.3109
2930.000000 0.3004 0.2899 0.2794 0.2689 0.2584
2925.000000 0.2478 0.2373 0.2267 0.2162 0.2056
2920.000000 0.1950 0.1844 0.1737 0.1641 0.1588
2915.000000 0.1536 0.1484 0.1464 0.1453 0.1442
2910.000000 0.1433 0.1426 0.1419 0.1413 0.1406
2905.000000 0.1400 0.1392 0.1386 0.1378 0.1370
2900.000000 0.1362 0.1351 0.1340 0.1329 0.1312
2895.000000 0.1295 0.1277 0.1263 0.1252 0.1241
2890.000000 0.1230 0.1219 0.1207 0.1195 0.1185
2885.000000 0.1175 0.1165 0.1157 0.1150 0.1142
2880.000000 0.1135 0.1130 0.1125 0.1119 0.1114
2875.000000 0.1109 0.1104 0.1099 0.1096 0.1092
2870.000000 0.1089 0.1085 0.1082 0.1081 0.1081
2865.000000 0.1083 0.1086 0.1090 0.1096 0.1102
2860.000000 0.1111 0.1124 0.1136 0.1150 0.1167
2855.000000 0.1185 0.1202 0.1217 0.1232 0.1246
2850.000000 0.1256 0.1261 0.1266 0.1270 0.1271
2845.000000 0.1272 0.1272 0.1270 0.1268 0.1266
2840.000000 0.1263 0.1261 0.1258 0.1256 0.1253
2835.000000 0.1251 0.1248 0.1246 0.1242 0.1241
2830.000000 0.1240 0.1239 0.1239 0.1241 0.1244
2825.000000 0.1246 0.1252 0.1258 0.1264 0.1282
2820.000000 0.1308 0.1333 0.1405 0.1525 0.1645
2815.000000 0.1757 0.1848 0.1937 0.2029 0.2119
2810.000000 0.2210 0.2300 0.2391 0.2483 0.2574
2805.000000 0.2665 0.2755 0.2846 0.2938 0.3029
2800.000000 0.3121 0.3212 0.3303 0.3395 0.3486
2795.000000 0.3578 0.3670 0.3762 0.3853 0.3945
2790.000000 0.4037 0.4129 0.4221 0.4314 0.4406
2785.000000 0.4498 0.4590 0.4683 0.4776 0.4868
2780.000000 0.4960 0.5053 0.5146 0.5239 0.5332
2775.000000 0.5425 0.5518 0.5610 0.5704 0.5797
2770.000000 0.5890 0.5983 0.6077 0.6171 0.6264
2765.000000 0.6352 0.6432 0.6511 0.6560 0.6567
2760.000000 0.6574 0.6580 0.6584 0.6589 0.6593
2755.000000 0.6597 0.6601 0.6604 0.6607 0.6610
2750.000000 0.6612 0.6615 0.6618 0.6621 0.6625
2745.000000 0.6628 0.6632 0.6635 0.6638 0.6641
2740.000000 0.6644 0.6647 0.6650 0.6653 0.6655
2735.000000 0.6658 0.6660 0.6661 0.6662 0.6665
2730.000000 0.6665 0.6668 0.6669 0.6671 0.6672
2725.000000 0.6675 0.6675 0.6676 0.6676 0.6675
2720.000000 0.6675 0.6674 0.6671 0.6669 0.6668
2715.000000 0.6665 0.6649 0.6612 0.6576 0.6553
2710.000000 0.6540 0.6525 0.6517 0.6511 0.6507
2705.000000 0.6501 0.6496 0.6490 0.6486 0.6481
2700.000000 0.6476 0.6472 0.6468 0.6464 0.6460
2695.000000 0.6455 0.6451 0.6445 0.6439 0.6433
2690.000000 0.6424 0.6415 0.6406 0.6397 0.6389
2685.000000 0.6378 0.6364 0.6349 0.6330 0.6302
2680.000000 0.6275 0.6244 0.6208 0.6172 0.6130
2675.000000 0.6085 0.6041 0.5975 0.5905 0.5835
2670.000000 0.5783 0.5732 0.5681 0.5634 0.5586
2665.000000 0.5539 0.5493 0.5448 0.5403 0.5360
2660.000000 0.5317 0.5272 0.5226 0.5179 0.5110
2655.000000 0.5033 0.4956 0.4840 0.4721 0.4608
2650.000000 0.4539 0.4470 0.4402 0.4335 0.4269
2645.000000 0.4199 0.4125 0.4052 0.4008 0.3977
2640.000000 0.3945 0.3914 0.3882 0.3850 0.3820
2635.000000 0.3789 0.3757 0.3725 0.3692 0.3659
2630.000000 0.3627 0.3595 0.3568 0.3543 0.3518
2625.000000 0.3491 0.3464 0.3436 0.3405 0.3375
2620.000000 0.3345 0.3314 0.3284 0.3254 0.3224
2615.000000 0.3194 0.3163 0.3133 0.3102 0.3072
2610.000000 0.3042 0.3011 0.2981 0.2950 0.2920
2605.000000 0.2889 0.2858 0.2828 0.2797 0.2766
2600.000000 0.2735 0.2705 0.2674 0.2644 0.2613
2595.000000 0.2582 0.2551 0.2520 0.2490 0.2459
2590.000000 0.2430 0.2401 0.2373 0.2371 0.2369
2585.000000 0.2367 0.2365 0.2362 0.2362 0.2362
2580.000000 0.2363 0.2364 0.2365 0.2368 0.2374
2575.000000 0.2381 0.2391 0.2402 0.2413 0.2437
2570.000000 0.2462 0.2496 0.2546 0.2596 0.2642
2565.000000 0.2687 0.2731 0.2776 0.2820 0.2865
2560.000000 0.2909 0.2954 0.2999 0.3043 0.3088
2555.000000 0.3133 0.3178 0.3223 0.3268 0.3312
2550.000000 0.3356 0.3399 0.3436 0.3462 0.3488
2545.000000 0.3514 0.3541 0.3568 0.3594 0.3620
2540.000000 0.3647 0.3674 0.3700 0.3732 0.3764
2535.000000 0.3797 0.3832 0.3866 0.3910 0.3957
2530.000000 0.4003 0.4053 0.4102 0.4131 0.4156
2525.000000 0.4176 0.4184 0.4192 0.4197 0.4185
2520.000000 0.4204 0.4207 0.4210 0.4212 0.4217
2515.000000 0.4217 0.4216 0.4212 0.4203 0.4190
2510.000000 0.4177 0.4162 0.4149 0.4135 0.4121
2505.000000 0.4107 0.4093 0.4079 0.4066 0.4057
2500.000000 0.4047 0.4046 0.4045 0.4044 0.4043
2495.000000 0.4043 0.4044 0.4046 0.4048 0.4050
2490.000000 0.4055 0.4059 0.4064 0.4068 0.4075
2485.000000 0.4080 0.4082 0.4084 0.4086 0.4087
2480.000000 0.4089 0.4089 0.4090 0.4091 0.4091
2475.000000 0.4091 0.4086 0.4080 0.4066 0.4047
2470.000000 0.4016 0.3962 0.3907 0.3879 0.3854
2465.000000 0.3834 0.3814 0.3806 0.3804 0.3802
2460.000000 0.3802 0.3802 0.3803 0.3805 0.3807
2455.000000 0.3809 0.3810 0.3814 0.3816 0.3820
2450.000000 0.3829 0.3839 0.3848 0.3858 0.3868
2445.000000 0.3889 0.3908 0.3930 0.3954 0.3980
2440.000000 0.4010 0.4041 0.4080 0.4121 0.4157
2435.000000 0.4191 0.4225 0.4257 0.4290 0.4325
2430.000000 0.4360 0.4400 0.4445 0.4487 0.4525
2425.000000 0.4562 0.4591 0.4618 0.4646 0.4673
2420.000000 0.4700 0.4727 0.4754 0.4781 0.4809
2415.000000 0.4836 0.4864 0.4892 0.4923 0.4953
2410.000000 0.4984 0.5015 0.5045 0.5076 0.5106
2405.000000 0.5137 0.5168 0.5193 0.5218 0.5241
2400.000000 0.5262 0.5283 0.5305 0.5326 0.5347
2395.000000 0.5368 0.5389 0.5410 0.5432 0.5453
2390.000000 0.5475 0.5496 0.5517 0.5538 0.5560
2385.000000 0.5580 0.5599 0.5618 0.5637 0.5657
2380.000000 0.5676 0.5695 0.5715 0.5734 0.5753
2375.000000 0.5772 0.5792 0.5810 0.5830 0.5845
2370.000000 0.5860 0.5874 0.5888 0.5902 0.5916
2365.000000 0.5930 0.5944 0.5958 0.5972 0.5986
2360.000000 0.6000 0.6014 0.6029 0.6044 0.6059
2355.000000 0.6074 0.6089 0.6105 0.6121 0.6136
2350.000000 0.6152 0.6167 0.6183 0.6198 0.6214
2345.000000 0.6230 0.6245 0.6260 0.6275 0.6289
2340.000000 0.6303 0.6316 0.6330 0.6344 0.6358
2335.000000 0.6372 0.6386 0.6400 0.6414 0.6428
2330.000000 0.6444 0.6460 0.6475 0.6493 0.6508
2325.000000 0.6525 0.6541 0.6558 0.6578 0.6598
2320.000000 0.6618 0.6640 0.6661 0.6682 0.6703
2315.000000 0.6724 0.6745 0.6765 0.6787 0.6808
2310.000000 0.6828 0.6851 0.6871 0.6893 0.6914
2305.000000 0.6935 0.6957 0.6978 0.6999 0.7019
2300.000000 0.7042 0.7062 0.7084 0.7105 0.7126
2295.000000 0.7148 0.7169 0.7192 0.7212 0.7235
2290.000000 0.7256 0.7278 0.7299 0.7321 0.7342
2285.000000 0.7389 0.7546 0.7690 0.7737 0.7784
2280.000000 0.7808 0.7834 0.7858 0.7884 0.7898
2275.000000 0.7910 0.7921 0.7932 0.7943 0.7954
2270.000000 0.7961 0.7967 0.7972 0.7978 0.7984
2265.000000 0.7990 0.7995 0.8001 0.8005 0.8008
2260.000000 0.8011 0.8015 0.8017 0.8018 0.8021
2255.000000 0.8024 0.8025 0.8028 0.8031 0.8038
2250.000000 0.8044 0.8050 0.8057 0.8061 0.8067
2245.000000 0.8072 0.8078 0.8084 0.8089 0.8095
2240.000000 0.8100 0.8101 0.8101 0.8103 0.8104
2235.000000 0.8106 0.8108 0.8110 0.8111 0.8114
2230.000000 0.8115 0.8118 0.8121 0.8124 0.8126
2225.000000 0.8133 0.8139 0.8145 0.8151 0.8158
2220.000000 0.8164 0.8169 0.8175 0.8182 0.8188
2215.000000 0.8195 0.8201 0.8207 0.8214 0.8220
2210.000000 0.8225 0.8233 0.8241 0.8249 0.8258
2205.000000 0.8267 0.8275 0.8284 0.8293 0.8301
2200.000000 0.8310 0.8318 0.8325 0.8333 0.8338
2195.000000 0.8343 0.8348 0.8352 0.8357 0.8362
2190.000000 0.8366 0.8371 0.8375 0.8380 0.8384
2185.000000 0.8389 0.8393 0.8397 0.8402 0.8407
2180.000000 0.8412 0.8417 0.8421 0.8428 0.8433
2175.000000 0.8445 0.8457 0.8471 0.8484 0.8497
2170.000000 0.8509 0.8521 0.8533 0.8540 0.8546
2165.000000 0.8550 0.8554 0.8558 0.8562 0.8566
2160.000000 0.8568 0.8570 0.8571 0.8574 0.8575
2155.000000 0.8578 0.8580 0.8582 0.8584 0.8585
2150.000000 0.8585 0.8582 0.8578 0.8575 0.8571
2145.000000 0.8567 0.8563 0.8561 0.8560 0.8560
2140.000000 0.8560 0.8560 0.8559 0.8559 0.8559
2135.000000 0.8559 0.8558 0.8558 0.8558 0.8560
2130.000000 0.8565 0.8570 0.8575 0.8580 0.8585
2125.000000 0.8590 0.8595 0.8599 0.8604 0.8609
2120.000000 0.8614 0.8618 0.8624 0.8628 0.8634
2115.000000 0.8640 0.8645 0.8650 0.8656 0.8661
2110.000000 0.8667 0.8671 0.8678 0.8684 0.8689
2105.000000 0.8694 0.8698 0.8701 0.8703 0.8704
2100.000000 0.8706 0.8708 0.8710 0.8712 0.8714
2095.000000 0.8715 0.8717 0.8718 0.8721 0.8723
2090.000000 0.8725 0.8727 0.8728 0.8730 0.8732
2085.000000 0.8735 0.8736 0.8738 0.8740 0.8741
2080.000000 0.8742 0.8743 0.8744 0.8744 0.8745
2075.000000 0.8746 0.8747 0.8747 0.8748 0.8749
2070.000000 0.8750 0.8751 0.8751 0.8752 0.8753
2065.000000 0.8754 0.8755 0.8755 0.8752 0.8749
2060.000000 0.8747 0.8745 0.8742 0.8740 0.8738
2055.000000 0.8735 0.8733 0.8731 0.8728 0.8725
2050.000000 0.8721 0.8720 0.8717 0.8714 0.8710
2045.000000 0.8706 0.8702 0.8698 0.8695 0.8691
2040.000000 0.8688 0.8684 0.8680 0.8677 0.8673
2035.000000 0.8674 0.8675 0.8675 0.8677 0.8678
2030.000000 0.8680 0.8681 0.8682 0.8683 0.8684
2025.000000 0.8686 0.8687 0.8688 0.8689 0.8691
2020.000000 0.8692 0.8694 0.8698 0.8705 0.8713
2015.000000 0.8721 0.8730 0.8738 0.8746 0.8755
2010.000000 0.8763 0.8771 0.8782 0.8793 0.8804
2005.000000 0.8815 0.8825 0.8837 0.8848 0.8859
2000.000000 0.8870 0.8880 0.8887 0.8892 0.8897
1995.000000 0.8902 0.8907 0.8912 0.8917 0.8921
1990.000000 0.8925 0.8931 0.8936 0.8943 0.8953
1985.000000 0.8962 0.8971 0.8981 0.8990 0.8999
1980.000000 0.9009 0.9018 0.9028 0.9040 0.9052
1975.000000 0.9063 0.9075 0.9088 0.9100 0.9110
1970.000000 0.9118 0.9125 0.9131 0.9137 0.9137
1965.000000 0.9137 0.9137 0.9136 0.9135 0.9135
1960.000000 0.9134 0.9133 0.9133 0.9132 0.9130
1955.000000 0.9127 0.9125 0.9123 0.9121 0.9118
1950.000000 0.9116 0.9114 0.9112 0.9109 0.9107
1945.000000 0.9106 0.9106 0.9108 0.9111 0.9113
1940.000000 0.9116 0.9118 0.9121 0.9125 0.9128
1935.000000 0.9132 0.9136 0.9139 0.9143 0.9147
1930.000000 0.9150 0.9154 0.9158 0.9161 0.9165
1925.000000 0.9168 0.9171 0.9174 0.9175 0.9178
1920.000000 0.9182 0.9185 0.9187 0.9190 0.9193
1915.000000 0.9195 0.9198 0.9202 0.9205 0.9208
1910.000000 0.9211 0.9214 0.9217 0.9218 0.9221
1905.000000 0.9221 0.9224 0.9224 0.9224 0.9221
1900.000000 0.9220 0.9216 0.9210 0.9205 0.9197
1895.000000 0.9186 0.9171 0.9157 0.9143 0.9130
1890.000000 0.9118 0.9109 0.9098 0.9088 0.9090
1885.000000 0.9097 0.9108 0.9118 0.9136 0.9161
1880.000000 0.9193 0.9216 0.9235 0.9252 0.9270
1875.000000 0.9288 0.9305 0.9318 0.9330 0.9342
1870.000000 0.9354 0.9366 0.9374 0.9378 0.9382
1865.000000 0.9386 0.9390 0.9393 0.9397 0.9400
1860.000000 0.9402 0.9403 0.9404 0.9405 0.9406
1855.000000 0.9407 0.9408 0.9410 0.9410 0.9412
1850.000000 0.9413 0.9414 0.9415 0.9417 0.9418
1845.000000 0.9418 0.9420 0.9421 0.9421 0.9423
1840.000000 0.9425 0.9425 0.9428 0.9428 0.9430
1835.000000 0.9431 0.9433 0.9434 0.9435 0.9437
1830.000000 0.9439 0.9441 0.9444 0.9447 0.9449
1825.000000 0.9451 0.9453 0.9456 0.9458 0.9460
1820.000000 0.9462 0.9465 0.9468 0.9471 0.9474
1815.000000 0.9477 0.9480 0.9483 0.9486 0.9488
1810.000000 0.9490 0.9490 0.9492 0.9493 0.9494
1805.000000 0.9495 0.9495 0.9496 0.9497 0.9498
1800.000000 0.9498 0.9499 0.9500 0.9502 0.9502
1795.000000 0.9504 0.9506 0.9508 0.9511 0.9513
1790.000000 0.9515 0.9518 0.9520 0.9521 0.9525
1785.000000 0.9527 0.9530 0.9532 0.9534 0.9538
1780.000000 0.9542 0.9547 0.9552 0.9557 0.9561
1775.000000 0.9565 0.9567 0.9568 0.9568 0.9568
1770.000000 0.9568 0.9570 0.9571 0.9571 0.9570
1765.000000 0.9568 0.9566 0.9563 0.9561 0.9557
1760.000000 0.9551 0.9544 0.9538 0.9532 0.9525
1755.000000 0.9518 0.9511 0.9501 0.9491 0.9481
1750.000000 0.9471 0.9461 0.9453 0.9449 0.9447
1745.000000 0.9445 0.9442 0.9439 0.9436 0.9434
1740.000000 0.9431 0.9428 0.9427 0.9425 0.9421
1735.000000 0.9421 0.9418 0.9416 0.9414 0.9412
1730.000000 0.9410 0.9410 0.9409 0.9408 0.9407
1725.000000 0.9406 0.9405 0.9405 0.9409 0.9415
1720.000000 0.9421 0.9428 0.9434 0.9440 0.9447
1715.000000 0.9453 0.9459 0.9466 0.9473 0.9481
1710.000000 0.9487 0.9492 0.9494 0.9496 0.9497
1705.000000 0.9498 0.9500 0.9501 0.9503 0.9505
1700.000000 0.9506 0.9507 0.9509 0.9511 0.9513
1695.000000 0.9513 0.9514 0.9515 0.9515 0.9516
1690.000000 0.9517 0.9517 0.9518 0.9518 0.9518
1685.000000 0.9518 0.9520 0.9521 0.9521 0.9521
1680.000000 0.9521 0.9521 0.9521 0.9521 0.9521
1675.000000 0.9521 0.9520 0.9518 0.9517 0.9516
1670.000000 0.9515 0.9515 0.9513 0.9512 0.9511
1665.000000 0.9511 0.9512 0.9512 0.9513 0.9515
1660.000000 0.9521 0.9528 0.9535 0.9543 0.9550
1655.000000 0.9559 0.9565 0.9575 0.9570 0.9559
1650.000000 0.9539 0.9518 0.9492 0.9467 0.9449
1645.000000 0.9440 0.9434 0.9431 0.9427 0.9424
1640.000000 0.9417 0.9402 0.9384 0.9362 0.9321
1635.000000 0.9278 0.9182 0.9046 0.8910 0.8774
1630.000000 0.8637 0.8500 0.8367 0.8310 0.8302
1625.000000 0.8295 0.8287 0.8281 0.8278 0.8275
1620.000000 0.8275 0.8275 0.8286 0.8292 0.8293
1615.000000 0.8165 0.7990 0.7815 0.7640 0.7465
1610.000000 0.7289 0.7112 0.6937 0.6761 0.6584
1605.000000 0.6407 0.6230 0.6053 0.5876 0.5369
1600.000000 0.4962 0.4922 0.4882 0.4843 0.4794
1595.000000 0.4672 0.4432 0.4142 0.3850 0.3559
1590.000000 0.3268 0.2976 0.2684 0.2391 0.2098
1585.000000 0.1804 0.1511 0.1251 0.1123 0.1114
1580.000000 0.1114 0.1113 0.1123 0.1141 0.1165
1575.000000 0.1203 0.1242 0.1309 0.1441 0.1589
1570.000000 0.1848 0.2304 0.2767 0.3230 0.3694
1565.000000 0.4159 0.4624 0.5090 0.5557 0.5984
1560.000000 0.6218 0.6319 0.6293 0.6306 0.6319
1555.000000 0.6265 0.6173 0.6078 0.5983 0.5887
1550.000000 0.5802 0.5785 0.5760 0.5782 0.5918
1545.000000 0.6066 0.6214 0.6362 0.6511 0.6660
1540.000000 0.6808 0.6958 0.7107 0.7257 0.7407
1535.000000 0.7556 0.7707 0.7857 0.8007 0.8158
1530.000000 0.8287 0.8304 0.8310 0.8315 0.8317
1525.000000 0.8318 0.8331 0.8321 0.8321 0.8305
1520.000000 0.8273 0.8237 0.8195 0.8151 0.8104
1515.000000 0.8054 0.8005 0.7964 0.7933 0.7903
1510.000000 0.7880 0.7862 0.7849 0.7835 0.7795
1505.000000 0.7825 0.7825 0.7835 0.7862 0.7899
1500.000000 0.7918 0.7930 0.7928 0.7928 0.7918
1495.000000 0.7871 0.7822 0.7744 0.7565 0.7226
1490.000000 0.6833 0.6439 0.6045 0.5649 0.5253
1485.000000 0.4862 0.4516 0.4196 0.3875 0.3554
1480.000000 0.3230 0.2909 0.2501 0.2232 0.2196
1475.000000 0.2164 0.2131 0.2093 0.2054 0.2012
1470.000000 0.1959 0.1902 0.1837 0.1734 0.1548
1465.000000 0.1154 0.0926 0.0901 0.0887 0.0884
1460.000000 0.0881 0.0881 0.0886 0.0892 0.0904
1455.000000 0.0918 0.0934 0.0934 0.0934 0.0930
1450.000000 0.0926 0.0926 0.0928 0.0946 0.0972
1445.000000 0.1102 0.1211 0.1305 0.1427 0.1623
1440.000000 0.2412 0.2591 0.2725 0.2854 0.2975
1435.000000 0.3108 0.3324 0.3527 0.3730 0.3934
1430.000000 0.4140 0.4309 0.4355 0.4352 0.4341
1425.000000 0.4162 0.3710 0.3259 0.2808 0.2355
1420.000000 0.2065 0.2017 0.1998 0.1996 0.2014
1415.000000 0.2055 0.2107 0.2180 0.2414 0.2809
1410.000000 0.3225 0.3642 0.4059 0.4478 0.4897
1405.000000 0.5316 0.5770 0.6012 0.6096 0.6144
1400.000000 0.6169 0.6179 0.6182 0.6185 0.6188
1395.000000 0.6192 0.6203 0.6235 0.6314 0.6418
1390.000000 0.6524 0.6630 0.6735 0.6841 0.6917
1385.000000 0.6928 0.6919 0.6895 0.6828 0.6674
1380.000000 0.6394 0.6114 0.5834 0.5553 0.5271
1375.000000 0.4990 0.4708 0.4425 0.4208 0.4141
1370.000000 0.4118 0.4134 0.4190 0.4389 0.4655
1365.000000 0.4921 0.5188 0.5455 0.5722 0.5941
1360.000000 0.6083 0.6180 0.6246 0.6233 0.6237
1355.000000 0.6237 0.6120 0.5724 0.5296 0.4868
1350.000000 0.4439 0.4108 0.4082 0.4112 0.4247
1345.000000 0.4804 0.5501 0.6112 0.6436 0.6822
1340.000000 0.6912 0.6953 0.7025 0.7172 0.7333
1335.000000 0.7465 0.7537 0.7586 0.7626 0.7665
1330.000000 0.7689 0.7711 0.7733 0.7756 0.7771
1325.000000 0.7786 0.7801 0.7815 0.7826 0.7839
1320.000000 0.7851 0.7851 0.7853 0.7853 0.7851
1315.000000 0.7846 0.7841 0.7832 0.7810 0.7787
1310.000000 0.7718 0.7600 0.7491 0.7415 0.7367
1305.000000 0.7324 0.7284 0.7251 0.7215 0.7181
1300.000000 0.7141 0.7100 0.7040 0.6917 0.6662
1295.000000 0.6303 0.5943 0.5583 0.5221 0.5070
1290.000000 0.5091 0.5132 0.5159 0.5171 0.5174
1285.000000 0.5019 0.4749 0.4479 0.4210 0.3939
1280.000000 0.3668 0.3396 0.3124 0.2853 0.2580
1275.000000 0.2307 0.2033 0.1759 0.1485 0.0895
1270.000000 0.0976 0.0899 0.0893 0.0908 0.0937
1265.000000 0.0983 0.1084 0.1331 0.1775 0.2484
1260.000000 0.3199 0.3914 0.4560 0.4748 0.4810
1255.000000 0.4856 0.4886 0.4902 0.4902 0.4902
1250.000000 0.4860 0.4787 0.4750 0.4739 0.4729
1245.000000 0.4712 0.4585 0.4201 0.3787 0.3372
1240.000000 0.3024 0.3027 0.3253 0.3814 0.4379
1235.000000 0.4921 0.5297 0.5723 0.5938 0.6092
1230.000000 0.6194 0.6268 0.6331 0.6382 0.6428
1225.000000 0.6487 0.6565 0.6649 0.6825 0.7111
1220.000000 0.7400 0.7643 0.7769 0.7858 0.7939
1215.000000 0.7994 0.8047 0.8098 0.8134 0.8171
1210.000000 0.8208 0.8244 0.8275 0.8301 0.8318
1205.000000 0.8325 0.8324 0.8321 0.8321 0.8321
1200.000000 0.8325 0.8339 0.8351 0.8342 0.8333
1195.000000 0.8317 0.8281 0.8241 0.8202 0.8156
1190.000000 0.8101 0.8046 0.7990 0.7934 0.7867
1185.000000 0.7801 0.7731 0.7639 0.7526 0.7325
1180.000000 0.7104 0.6790 0.6393 0.5931 0.5398
1175.000000 0.4864 0.4451 0.4370 0.3947 0.3347
1170.000000 0.3118 0.3053 0.2816 0.2539 0.2365
1165.000000 0.2335 0.2299 0.2073 0.1981 0.1975
1160.000000 0.1973 0.1986 0.2007 0.2152 0.2385
1155.000000 0.2615 0.2844 0.3073 0.3302 0.3532
1150.000000 0.3728 0.3766 0.3876 0.4347 0.4859
1145.000000 0.5355 0.5503 0.5180 0.4733 0.4287
1140.000000 0.3839 0.3390 0.2941 0.2489 0.2037
1135.000000 0.1587 0.1172 0.1146 0.1189 0.1458
1130.000000 0.2198 0.2989 0.3784 0.4578 0.5300
1125.000000 0.5627 0.5967 0.6306 0.6648 0.6968
1120.000000 0.7047 0.7145 0.7253 0.7322 0.7312
1115.000000 0.7261 0.6665 0.5997 0.5329 0.4659
1110.000000 0.3988 0.3314 0.2296 0.2280 0.2305
1105.000000 0.2431 0.3566 0.5120 0.5748 0.6468
1100.000000 0.7137 0.7399 0.7510 0.7571 0.7661
1095.000000 0.7718 0.7711 0.7672 0.7615 0.7562
1090.000000 0.7507 0.7378 0.6893 0.6365 0.5835
1085.000000 0.5304 0.4772 0.4239 0.3706 0.3171
1080.000000 0.2634 0.2428 0.2415 0.2674 0.3255
1075.000000 0.3838 0.4272 0.4464 0.4760 0.5058
1070.000000 0.5356 0.5654 0.5953 0.6098 0.6191
1065.000000 0.6356 0.6641 0.6937 0.7235 0.7528
1060.000000 0.7743 0.7828 0.7886 0.7928 0.7942
1055.000000 0.7949 0.7964 0.7942 0.7936 0.7928
1050.000000 0.7914 0.7888 0.7806 0.7615 0.7418
1045.000000 0.6999 0.7025 0.7038 0.7236 0.7289
1040.000000 0.7475 0.7622 0.7665 0.7695 0.7744
1035.000000 0.7707 0.7626 0.7476 0.7311 0.7147
1030.000000 0.6982 0.6504 0.6649 0.6519 0.6604
1025.000000 0.6996 0.7578 0.7838 0.7961 0.8057
1020.000000 0.8175 0.8296 0.8385 0.8458 0.8518
1015.000000 0.8562 0.8589 0.8644 0.8621 0.8624
1010.000000 0.8599 0.8494 0.8396 0.8353 0.8304
1005.000000 0.8018 0.7783 0.7608 0.7480 0.7508
1000.000000 0.7640 0.7891 0.8067 0.8320 0.8499
995.000000 0.8609 0.8628 0.8691 0.8748 0.8788
990.000000 0.8858 0.8899 0.8900 0.8900 0.8887
985.000000 0.8874 0.8861 0.8844 0.8827 0.8810
980.000000 0.8794 0.8780 0.8765 0.8751 0.8738
975.000000 0.8724 0.8705 0.8593 0.8425 0.8294
970.000000 0.7911 0.7528 0.7146 0.6762 0.6379
965.000000 0.5879 0.5882 0.5882 0.5960 0.6467
960.000000 0.6941 0.7415 0.7757 0.7856 0.7965
955.000000 0.8072 0.8133 0.8182 0.8180 0.8158
950.000000 0.8040 0.7940 0.7862 0.7814 0.7812
945.000000 0.7878 0.7931 0.7903 0.7890 0.7649
940.000000 0.7511 0.7405 0.6905 0.5839 0.4770
935.000000 0.3700 0.2426 0.2402 0.2422 0.2771
930.000000 0.3530 0.4291 0.5052 0.5817 0.6585
925.000000 0.7425 0.7622 0.7764 0.7903 0.8047
920.000000 0.8145 0.8240 0.8325 0.8348 0.8428
915.000000 0.8536 0.8528 0.8498 0.8536 0.8625
910.000000 0.8678 0.8700 0.8715 0.8731 0.8746
905.000000 0.8760 0.8774 0.8788 0.8805 0.8827
900.000000 0.8864 0.8912 0.8921 0.8921 0.8885
895.000000 0.8873 0.8835 0.8815 0.8803 0.8785
890.000000 0.8740 0.8624 0.8525 0.8440 0.8161
885.000000 0.8068 0.7978 0.7648 0.7150 0.6588
880.000000 0.6026 0.4965 0.4339 0.3640 0.3641
875.000000 0.3732 0.4044 0.4381 0.4655 0.5059
870.000000 0.5498 0.5939 0.6380 0.6818 0.7176
865.000000 0.7472 0.7686 0.7871 0.7984 0.8096
860.000000 0.8241 0.8331 0.8373 0.8453 0.8545
855.000000 0.8568 0.8613 0.8610 0.8558 0.8525
850.000000 0.8561 0.8537 0.8484 0.8427 0.8363
845.000000 0.8334 0.8335 0.8428 0.8459 0.8466
840.000000 0.8465 0.8430 0.8377 0.8346 0.8321
835.000000 0.8301 0.8282 0.8268 0.8278 0.8352
830.000000 0.8446 0.8577 0.8693 0.8799 0.8882
825.000000 0.8948 0.8995 0.9012 0.8917 0.8825
820.000000 0.8793 0.8843 0.8859 0.8831 0.8771
815.000000 0.8674 0.8544 0.8382 0.8201 0.8012
810.000000 0.7851 0.7690 0.7491 0.7001 0.6471
805.000000 0.5965 0.5827 0.5881 0.6312 0.6765
800.000000 0.7217 0.7669 0.7721 0.7528 0.6941
795.000000 0.6351 0.5601 0.5577 0.5853 0.6867
790.000000 0.7449 0.7875 0.8259 0.8378 0.8486
785.000000 0.8617 0.8646 0.8665 0.8678 0.8725
780.000000 0.8691 0.8686 0.8671 0.8623 0.8591
775.000000 0.8575 0.8530 0.8433 0.8309 0.8178
770.000000 0.8026 0.7864 0.7674 0.7412 0.7160
765.000000 0.6781 0.5930 0.5238 0.4574 0.3899
760.000000 0.3222 0.2543 0.2162 0.2059 0.2026
755.000000 0.2028 0.2118 0.2168 0.2176 0.2177
750.000000 0.2200 0.2271 0.2405 0.2656 0.3925
745.000000 0.4720 0.5633 0.6390 0.6868 0.7222
740.000000 0.7471 0.7705 0.7764 0.7812 0.7862
735.000000 0.7930 0.7982 0.8034 0.8086 0.8133
730.000000 0.8182 0.8236 0.8278 0.8241 0.8204
725.000000 0.8054 0.7769 0.7696 0.7667 0.7785
720.000000 0.7860 0.7972 0.8081 0.8171 0.8251
715.000000 0.8294 0.8308 0.8261 0.8151 0.7891
710.000000 0.7383 0.6669 0.6669 0.6841 0.7251
705.000000 0.7651 0.7864 0.7962 0.8221 0.8358
700.000000 0.8398 0.8421 0.8427 0.8402 0.8404
695.000000 0.8424 0.8418 0.8402 0.8406 0.8409
690.000000 0.8411 0.8411 0.8412 0.8409 0.8402
685.000000 0.8360 0.8309
##END=
