##TITLE=BERYLLIUM CARBONATE
$$ E.H. SARGENT CO.
##JCAMP-DX=4.24
##DATA TYPE=INFRARED SPECTRUM
##CLASS=COBLENTZ
##ORIGIN=WYANDOTTE CHEMICALS CORP., WYANDOTTE, MICHIGAN, USA
##OWNER=COBLENTZ SOCIETY
Collection (C) 2018 copyright by the U.S. Secretary of Commerce
on behalf of the United States of America. All rights reserved.
##DATE=Not specified, most likely prior to 1970
##MOLFORM=Be C O3
##SOURCE REFERENCE=COBLENTZ NO. 1436
##$NIST ID=B6001436
##$NIST SOURCE=COBLENTZ
##$NIST IMAGE=cob1436
##SPECTROMETER/DATA SYSTEM=Not specified, most likely a prism, grating, or hybrid spectrometer.
##STATE=SOLID (MINERAL OIL MULL)
##PATH LENGTH=
$$SPECTRAL CONTAMINATION DUE TO OIL AROUND 2900, 1450, 1380 CM^-^1
##SAMPLING PROCEDURE=TRANSMISSION
##RESOLUTION=4
##DATA PROCESSING=DIGITIZED BY NIST FROM HARD COPY
##XUNITS=MICROMETERS
##YUNITS=TRANSMITTANCE
##XFACTOR=1.000000
##YFACTOR=1
##DELTAX=000.006819
##FIRSTX=2.014
##LASTX=15.993
##FIRSTY=0.683
##MAXX=15.993
##MINX=2.014
##MAXY=0.959
##MINY=0.051
##NPOINTS=2051
##XYDATA=(X++(Y..Y))
2.014000 0.6830 0.6840 0.6860 0.6860 0.6880
2.048113 0.6880 0.6890 0.6910 0.6930 0.6930
2.082000 0.6950 0.6960 0.6980 0.6980 0.7010
2.116113 0.7010 0.7080 0.7120 0.7130 0.7150
2.150000 0.7150 0.7170 0.7200 0.7220 0.7240
2.184113 0.7270 0.7290 0.7290 0.7300 0.7290
2.218000 0.7290 0.7290 0.7270 0.7270 0.7270
2.252113 0.7290 0.7300 0.7300 0.7290 0.7290
2.286000 0.7290 0.7300 0.7300 0.7290 0.7290
2.320113 0.7290 0.7290 0.7290 0.7290 0.7290
2.355000 0.7290 0.7290 0.7290 0.7290 0.7290
2.389113 0.7290 0.7290 0.7290 0.7290 0.7290
2.423000 0.7290 0.7290 0.7290 0.7290 0.7290
2.457113 0.7300 0.7300 0.7300 0.7300 0.7300
2.491000 0.7300 0.7300 0.7300 0.7300 0.7300
2.525113 0.7300 0.7300 0.7300 0.7320 0.7320
2.559000 0.7300 0.7300 0.7320 0.7320 0.7320
2.593113 0.7320 0.7300 0.7300 0.7290 0.7220
2.627000 0.7180 0.7150 0.7130 0.7010 0.7010
2.661113 0.6930 0.6790 0.6690 0.6550 0.6470
2.696000 0.6260 0.5990 0.5790 0.5620 0.5430
2.730113 0.5190 0.4940 0.4780 0.4580 0.4320
2.764000 0.4080 0.3980 0.3780 0.3540 0.3300
2.798113 0.3040 0.2870 0.2690 0.2530 0.2480
2.832000 0.2410 0.2330 0.2230 0.2120 0.2060
2.866113 0.1990 0.1990 0.1920 0.1890 0.1850
2.900000 0.1820 0.1780 0.1730 0.1720 0.1680
2.934113 0.1610 0.1600 0.1560 0.1560 0.1530
2.968000 0.1530 0.1530 0.1510 0.1510 0.1510
3.002113 0.1510 0.1530 0.1550 0.1580 0.1610
3.037000 0.1650 0.1700 0.1730 0.1800 0.1870
3.071113 0.1920 0.1990 0.2010 0.2040 0.2140
3.105000 0.2230 0.2330 0.2410 0.2480 0.2550
3.139113 0.2670 0.2740 0.2820 0.2890 0.2980
3.173000 0.3010 0.3130 0.3200 0.3280 0.3330
3.207113 0.3440 0.3540 0.3610 0.3670 0.3710
3.241000 0.3760 0.3830 0.3910 0.3980 0.4000
3.275113 0.4050 0.4130 0.4200 0.4240 0.4270
3.309000 0.4320 0.4290 0.4200 0.4100 0.3980
3.343113 0.3520 0.3280 0.2910 0.2520 0.2190
3.377000 0.2060 0.1830 0.1610 0.1390 0.1220
3.411113 0.1120 0.1020 0.0970 0.0910 0.0900
3.446000 0.0880 0.0880 0.0880 0.0880 0.0900
3.480113 0.0900 0.0900 0.0910 0.0910 0.0910
3.514000 0.0910 0.0950 0.1170 0.1310 0.1730
3.548113 0.2210 0.2580 0.3100 0.3590 0.3980
3.582000 0.4440 0.4680 0.5000 0.5280 0.5510
3.616113 0.5750 0.5990 0.6010 0.6210 0.6320
3.650000 0.6430 0.6520 0.6660 0.6740 0.6790
3.684113 0.6840 0.6880 0.6910 0.6960 0.7010
3.718000 0.7120 0.7130 0.7180 0.7240 0.7290
3.752113 0.7290 0.7300 0.7300 0.7340 0.7390
3.787000 0.7440 0.7470 0.7510 0.7520 0.7560
3.821113 0.7590 0.7630 0.7660 0.7680 0.7680
3.855000 0.7680 0.7700 0.7700 0.7710 0.7730
3.889113 0.7760 0.7800 0.7870 0.7920 0.7930
3.923000 0.7950 0.7980 0.8000 0.8040 0.8050
3.957113 0.8090 0.8100 0.8140 0.8190 0.8210
3.991000 0.8220 0.8240 0.8220 0.8240 0.8260
4.025113 0.8260 0.8270 0.8270 0.8290 0.8290
4.059000 0.8290 0.8290 0.8290 0.8290 0.8310
4.093113 0.8310 0.8340 0.8360 0.8390 0.8410
4.128000 0.8440 0.8460 0.8480 0.8480 0.8480
4.162113 0.8480 0.8500 0.8500 0.8510 0.8500
4.196000 0.8500 0.8500 0.8500 0.8500 0.8500
4.230113 0.8500 0.8500 0.8500 0.8480 0.8480
4.264000 0.8460 0.8460 0.8460 0.8460 0.8480
4.298113 0.8480 0.8480 0.8500 0.8500 0.8500
4.332000 0.8510 0.8550 0.8580 0.8620 0.8650
4.366113 0.8680 0.8720 0.8720 0.8750 0.8790
4.400000 0.8800 0.8800 0.8820 0.8820 0.8820
4.434113 0.8840 0.8840 0.8850 0.8840 0.8840
4.469000 0.8840 0.8840 0.8840 0.8840 0.8840
4.503113 0.8840 0.8840 0.8840 0.8840 0.8840
4.537000 0.8820 0.8840 0.8840 0.8840 0.8840
4.571113 0.8850 0.8870 0.8870 0.8890 0.8900
4.605000 0.8900 0.8920 0.8920 0.8940 0.8960
4.639113 0.8990 0.9010 0.9010 0.9010 0.9040
4.673000 0.9080 0.9080 0.9090 0.9090 0.9090
4.707113 0.9110 0.9110 0.9110 0.9110 0.9110
4.741000 0.9110 0.9110 0.9090 0.9090 0.9090
4.775113 0.9090 0.9090 0.9080 0.9060 0.9060
4.810000 0.9060 0.9090 0.9130 0.9160 0.9180
4.844113 0.9180 0.9180 0.9180 0.9190 0.9190
4.878000 0.9190 0.9210 0.9230 0.9250 0.9300
4.912113 0.9310 0.9310 0.9330 0.9330 0.9350
4.946000 0.9350 0.9360 0.9380 0.9380 0.9380
4.980113 0.9380 0.9400 0.9400 0.9420 0.9420
5.014000 0.9430 0.9430 0.9450 0.9470 0.9480
5.048113 0.9480 0.9500 0.9500 0.9500 0.9520
5.082000 0.9540 0.9550 0.9570 0.9570 0.9590
5.116113 0.9590 0.9590 0.9590 0.9590 0.9590
5.151000 0.9590 0.9590 0.9590 0.9590 0.9590
5.185113 0.9590 0.9590 0.9590 0.9590 0.9570
5.219000 0.9570 0.9540 0.9520 0.9520 0.9500
5.253113 0.9500 0.9500 0.9500 0.9500 0.9500
5.287000 0.9500 0.9500 0.9520 0.9520 0.9520
5.321113 0.9520 0.9540 0.9550 0.9570 0.9570
5.355000 0.9550 0.9540 0.9520 0.9500 0.9500
5.389113 0.9480 0.9500 0.9500 0.9520 0.9500
5.423000 0.9500 0.9500 0.9500 0.9500 0.9500
5.457113 0.9500 0.9480 0.9480 0.9480 0.9480
5.491000 0.9480 0.9480 0.9450 0.9450 0.9470
5.525113 0.9470 0.9480 0.9480 0.9470 0.9430
5.560000 0.9420 0.9400 0.9380 0.9380 0.9360
5.594113 0.9380 0.9380 0.9400 0.9400 0.9420
5.628000 0.9420 0.9400 0.9360 0.9360 0.9330
5.662113 0.9310 0.9310 0.9300 0.9260 0.9230
5.696000 0.9210 0.9190 0.9180 0.9090 0.8990
5.730113 0.8920 0.8890 0.8820 0.8730 0.8680
5.764000 0.8630 0.8600 0.8510 0.8460 0.8330
5.798113 0.8270 0.8160 0.8090 0.8070 0.8000
5.832000 0.8000 0.7980 0.7880 0.7810 0.7710
5.866113 0.7640 0.7610 0.7610 0.7590 0.7540
5.901000 0.7490 0.7340 0.7180 0.7060 0.7000
5.935113 0.6930 0.6860 0.6780 0.6720 0.6590
5.969000 0.6520 0.6500 0.6420 0.6400 0.6350
6.003113 0.6280 0.6230 0.6180 0.6130 0.6080
6.037000 0.6010 0.5990 0.5970 0.5970 0.5970
6.071113 0.5910 0.5820 0.5800 0.5800 0.5800
6.105000 0.5840 0.5890 0.5920 0.5960 0.5970
6.139113 0.5970 0.5970 0.5990 0.6010 0.6010
6.173000 0.6080 0.6090 0.6090 0.6090 0.6080
6.207113 0.6030 0.6030 0.5990 0.5990 0.5960
6.242000 0.5910 0.5890 0.5870 0.5870 0.5860
6.276113 0.5800 0.5700 0.5580 0.5500 0.5460
6.310000 0.5360 0.5210 0.5050 0.4970 0.4710
6.344113 0.4580 0.4480 0.4410 0.4270 0.4150
6.378000 0.4130 0.3930 0.3710 0.3470 0.3350
6.412113 0.3160 0.3060 0.2940 0.2810 0.2810
6.446000 0.2720 0.2670 0.2580 0.2500 0.2470
6.480113 0.2290 0.2180 0.2160 0.2090 0.2040
6.514000 0.1990 0.1950 0.1950 0.1940 0.1940
6.548113 0.1920 0.1920 0.1920 0.1920 0.1920
6.583000 0.1920 0.1900 0.1900 0.1900 0.1900
6.617113 0.1900 0.1900 0.1890 0.1890 0.1890
6.651000 0.1890 0.1890 0.1890 0.1890 0.1890
6.685113 0.1890 0.1890 0.1890 0.1890 0.1890
6.719000 0.1890 0.1890 0.1890 0.1890 0.1890
6.753113 0.1870 0.1820 0.1770 0.1770 0.1700
6.787000 0.1530 0.1320 0.1170 0.1140 0.1120
6.821113 0.1140 0.1200 0.1200 0.1270 0.1310
6.855000 0.1320 0.1390 0.1600 0.1650 0.1680
6.889113 0.1770 0.1890 0.2070 0.2280 0.2480
6.924000 0.2580 0.2670 0.2860 0.3060 0.3280
6.958113 0.3470 0.3660 0.3760 0.3980 0.4080
6.992000 0.4270 0.4460 0.4480 0.4680 0.4770
7.026113 0.4970 0.5000 0.5090 0.5210 0.5260
7.060000 0.5330 0.5400 0.5480 0.5600 0.5770
7.094113 0.5800 0.5910 0.5970 0.5970 0.6010
7.128000 0.6090 0.6160 0.6200 0.6210 0.6260
7.162113 0.6280 0.6280 0.6300 0.6300 0.6200
7.196000 0.6090 0.5970 0.5670 0.5550 0.5380
7.230113 0.5210 0.5050 0.4880 0.4710 0.4710
7.264000 0.4710 0.4730 0.4970 0.5220 0.5460
7.298113 0.5620 0.5750 0.5770 0.5870 0.5970
7.333000 0.6160 0.6300 0.6470 0.6690 0.6780
7.367113 0.6830 0.6880 0.6950 0.6980 0.7000
7.401000 0.7050 0.7120 0.7170 0.7220 0.7250
7.435113 0.7270 0.7300 0.7320 0.7350 0.7370
7.469000 0.7410 0.7420 0.7460 0.7490 0.7510
7.503113 0.7510 0.7580 0.7580 0.7610 0.7630
7.537000 0.7630 0.7640 0.7660 0.7660 0.7680
7.571113 0.7700 0.7700 0.7700 0.7700 0.7700
7.605000 0.7680 0.7660 0.7660 0.7640 0.7630
7.639113 0.7630 0.7640 0.7640 0.7630 0.7630
7.674000 0.7640 0.7640 0.7630 0.7630 0.7630
7.708113 0.7610 0.7590 0.7580 0.7580 0.7560
7.742000 0.7540 0.7510 0.7510 0.7510 0.7510
7.776113 0.7520 0.7540 0.7540 0.7540 0.7560
7.810000 0.7560 0.7540 0.7520 0.7510 0.7490
7.844113 0.7440 0.7410 0.7410 0.7410 0.7410
7.878000 0.7410 0.7410 0.7390 0.7370 0.7340
7.912113 0.7320 0.7290 0.7250 0.7220 0.7180
7.946000 0.7170 0.7120 0.7100 0.7030 0.7000
7.980113 0.6960 0.6930 0.6890 0.6840 0.6790
8.015000 0.6760 0.6720 0.6690 0.6660 0.6600
8.049113 0.6570 0.6490 0.6490 0.6450 0.6380
8.083000 0.6320 0.6250 0.6200 0.6140 0.6080
8.117113 0.5970 0.5960 0.5800 0.5790 0.5750
8.151000 0.5700 0.5670 0.5650 0.5600 0.5570
8.185113 0.5480 0.5400 0.5290 0.5240 0.5160
8.219000 0.5050 0.4950 0.4870 0.4770 0.4700
8.253113 0.4660 0.4590 0.4540 0.4490 0.4460
8.287000 0.4340 0.4250 0.4100 0.4000 0.3960
8.321113 0.3880 0.3790 0.3760 0.3660 0.3560
8.356000 0.3470 0.3370 0.3270 0.3250 0.3160
8.390113 0.3100 0.3040 0.2990 0.2960 0.2870
8.424000 0.2810 0.2770 0.2700 0.2650 0.2550
8.458113 0.2480 0.2400 0.2350 0.2280 0.2190
8.492000 0.2190 0.2160 0.2060 0.1990 0.1970
8.526113 0.1970 0.1890 0.1820 0.1800 0.1750
8.560000 0.1700 0.1660 0.1650 0.1610 0.1600
8.594113 0.1550 0.1490 0.1460 0.1390 0.1360
8.628000 0.1310 0.1310 0.1260 0.1240 0.1200
8.662113 0.1200 0.1190 0.1190 0.1170 0.1140
8.697000 0.1120 0.1100 0.1090 0.1090 0.1070
8.731113 0.1030 0.1030 0.1020 0.1000 0.0980
8.765000 0.0980 0.0970 0.0970 0.0950 0.0910
8.799113 0.0880 0.0850 0.0830 0.0800 0.0800
8.833000 0.0780 0.0760 0.0730 0.0710 0.0710
8.867113 0.0710 0.0690 0.0690 0.0680 0.0680
8.901000 0.0680 0.0680 0.0680 0.0690 0.0690
8.935113 0.0690 0.0680 0.0680 0.0680 0.0680
8.969000 0.0660 0.0660 0.0640 0.0640 0.0630
9.003113 0.0630 0.0610 0.0610 0.0610 0.0610
9.038000 0.0610 0.0610 0.0610 0.0610 0.0630
9.072113 0.0630 0.0630 0.0640 0.0640 0.0640
9.106000 0.0640 0.0660 0.0660 0.0710 0.0710
9.140113 0.0730 0.0730 0.0740 0.0740 0.0760
9.174000 0.0760 0.0780 0.0810 0.0830 0.0850
9.208113 0.0860 0.0860 0.0880 0.0900 0.0900
9.242000 0.0900 0.0900 0.0900 0.0910 0.0930
9.276113 0.0970 0.1000 0.1000 0.1000 0.1020
9.310000 0.1070 0.1100 0.1120 0.1120 0.1120
9.344113 0.1120 0.1120 0.1120 0.1120 0.1150
9.378000 0.1170 0.1170 0.1190 0.1190 0.1190
9.412113 0.1220 0.1260 0.1290 0.1340 0.1370
9.447000 0.1390 0.1390 0.1410 0.1430 0.1430
9.481113 0.1440 0.1460 0.1460 0.1480 0.1480
9.515000 0.1480 0.1480 0.1480 0.1480 0.1480
9.549113 0.1480 0.1480 0.1490 0.1490 0.1490
9.583000 0.1490 0.1490 0.1490 0.1490 0.1490
9.617113 0.1490 0.1490 0.1510 0.1510 0.1510
9.651000 0.1510 0.1560 0.1610 0.1650 0.1680
9.685113 0.1680 0.1720 0.1720 0.1750 0.1770
9.719000 0.1780 0.1800 0.1800 0.1820 0.1850
9.753113 0.1890 0.1890 0.1890 0.1890 0.1890
9.788000 0.1890 0.1900 0.1940 0.1950 0.1950
9.822113 0.1970 0.1970 0.1990 0.2010 0.2010
9.856000 0.2020 0.2060 0.2120 0.2160 0.2190
9.890113 0.2190 0.2190 0.2210 0.2230 0.2240
9.924000 0.2240 0.2240 0.2240 0.2260 0.2280
9.958113 0.2290 0.2310 0.2310 0.2330 0.2360
9.992000 0.2400 0.2470 0.2470 0.2500 0.2520
10.026113 0.2550 0.2580 0.2600 0.2600 0.2600
10.060000 0.2600 0.2650 0.2670 0.2670 0.2690
10.094113 0.2690 0.2700 0.2700 0.2700 0.2700
10.129000 0.2700 0.2720 0.2740 0.2770 0.2790
10.163113 0.2810 0.2810 0.2820 0.2820 0.2820
10.197000 0.2840 0.2860 0.2870 0.2890 0.2930
10.231113 0.2930 0.2940 0.2940 0.2960 0.2960
10.265000 0.2960 0.2940 0.2960 0.2960 0.2960
10.299113 0.2960 0.2960 0.2980 0.2980 0.2990
10.333000 0.2990 0.3010 0.3010 0.3010 0.3030
10.367113 0.3030 0.3010 0.3010 0.2990 0.2990
10.401000 0.2990 0.2990 0.2990 0.2990 0.2990
10.435113 0.2990 0.2990 0.2990 0.2990 0.2990
10.470000 0.3010 0.3010 0.2990 0.2990 0.2990
10.504113 0.2960 0.2960 0.2930 0.2910 0.2910
10.538000 0.2910 0.2890 0.2870 0.2860 0.2860
10.572113 0.2860 0.2860 0.2820 0.2810 0.2810
10.606000 0.2790 0.2790 0.2770 0.2770 0.2770
10.640113 0.2750 0.2720 0.2690 0.2670 0.2670
10.674000 0.2670 0.2650 0.2600 0.2570 0.2520
10.708113 0.2500 0.2480 0.2470 0.2450 0.2450
10.742000 0.2410 0.2400 0.2360 0.2350 0.2330
10.776113 0.2290 0.2260 0.2210 0.2180 0.2140
10.811000 0.2040 0.2020 0.2010 0.1990 0.1990
10.845113 0.1990 0.1990 0.1970 0.1970 0.1970
10.879000 0.1900 0.1890 0.1870 0.1850 0.1820
10.913113 0.1800 0.1770 0.1750 0.1730 0.1720
10.947000 0.1680 0.1650 0.1610 0.1600 0.1580
10.981113 0.1550 0.1530 0.1510 0.1510 0.1490
11.015000 0.1480 0.1480 0.1460 0.1460 0.1460
11.049113 0.1410 0.1410 0.1390 0.1370 0.1320
11.083000 0.1310 0.1270 0.1220 0.1200 0.1190
11.117113 0.1190 0.1170 0.1120 0.1070 0.1070
11.151000 0.1030 0.1030 0.1020 0.1020 0.1020
11.185113 0.1020 0.1020 0.1020 0.1020 0.1020
11.220000 0.1020 0.1000 0.1000 0.0980 0.0980
11.254113 0.0950 0.0950 0.0910 0.0910 0.0910
11.288000 0.0910 0.0910 0.0910 0.0910 0.0910
11.322113 0.0910 0.0910 0.0910 0.0910 0.0910
11.356000 0.0930 0.0910 0.0900 0.0900 0.0900
11.390113 0.0880 0.0880 0.0860 0.0860 0.0860
11.424000 0.0850 0.0860 0.0860 0.0860 0.0850
11.458113 0.0850 0.0850 0.0830 0.0830 0.0830
11.492000 0.0810 0.0810 0.0810 0.0810 0.0800
11.526113 0.0800 0.0800 0.0780 0.0780 0.0760
11.561000 0.0760 0.0760 0.0760 0.0740 0.0730
11.595113 0.0710 0.0710 0.0710 0.0690 0.0690
11.629000 0.0690 0.0690 0.0690 0.0680 0.0680
11.663113 0.0690 0.0690 0.0690 0.0690 0.0690
11.697000 0.0680 0.0680 0.0680 0.0680 0.0660
11.731113 0.0680 0.0680 0.0680 0.0680 0.0680
11.765000 0.0660 0.0640 0.0630 0.0630 0.0630
11.799113 0.0630 0.0630 0.0610 0.0610 0.0630
11.833000 0.0630 0.0630 0.0630 0.0630 0.0630
11.867113 0.0630 0.0610 0.0610 0.0610 0.0630
11.902000 0.0630 0.0660 0.0660 0.0660 0.0680
11.936113 0.0680 0.0660 0.0640 0.0630 0.0610
11.970000 0.0610 0.0630 0.0630 0.0630 0.0610
12.004113 0.0590 0.0590 0.0570 0.0570 0.0570
12.038000 0.0560 0.0560 0.0560 0.0560 0.0560
12.072113 0.0560 0.0560 0.0560 0.0570 0.0570
12.106000 0.0570 0.0570 0.0570 0.0570 0.0570
12.140113 0.0570 0.0560 0.0560 0.0570 0.0560
12.174000 0.0560 0.0570 0.0560 0.0570 0.0570
12.208113 0.0570 0.0590 0.0590 0.0590 0.0590
12.243000 0.0590 0.0590 0.0610 0.0610 0.0610
12.277113 0.0590 0.0590 0.0590 0.0590 0.0570
12.311000 0.0570 0.0570 0.0570 0.0570 0.0570
12.345113 0.0590 0.0590 0.0590 0.0570 0.0570
12.379000 0.0570 0.0570 0.0570 0.0570 0.0570
12.413113 0.0590 0.0630 0.0640 0.0660 0.0640
12.447000 0.0610 0.0610 0.0610 0.0610 0.0590
12.481113 0.0610 0.0610 0.0610 0.0590 0.0590
12.515000 0.0570 0.0560 0.0510 0.0510 0.0510
12.549113 0.0560 0.0560 0.0570 0.0590 0.0590
12.584000 0.0590 0.0570 0.0520 0.0520 0.0570
12.618113 0.0570 0.0570 0.0570 0.0570 0.0570
12.652000 0.0570 0.0570 0.0570 0.0570 0.0590
12.686113 0.0590 0.0590 0.0610 0.0630 0.0630
12.720000 0.0630 0.0630 0.0630 0.0630 0.0610
12.754113 0.0610 0.0610 0.0610 0.0610 0.0610
12.788000 0.0640 0.0640 0.0660 0.0680 0.0690
12.822113 0.0690 0.0690 0.0690 0.0690 0.0680
12.856000 0.0680 0.0660 0.0640 0.0630 0.0610
12.890113 0.0630 0.0640 0.0660 0.0660 0.0660
12.925000 0.0660 0.0680 0.0680 0.0690 0.0690
12.959113 0.0690 0.0690 0.0690 0.0680 0.0660
12.993000 0.0660 0.0640 0.0660 0.0660 0.0680
13.027113 0.0660 0.0660 0.0640 0.0640 0.0640
13.061000 0.0640 0.0640 0.0640 0.0660 0.0660
13.095113 0.0660 0.0640 0.0660 0.0660 0.0660
13.129000 0.0680 0.0680 0.0680 0.0690 0.0690
13.163113 0.0710 0.0710 0.0710 0.0710 0.0710
13.197000 0.0690 0.0690 0.0690 0.0690 0.0690
13.231113 0.0710 0.0710 0.0760 0.0760 0.0780
13.265000 0.0780 0.0780 0.0780 0.0780 0.0800
13.299113 0.0800 0.0810 0.0810 0.0810 0.0810
13.334000 0.0810 0.0800 0.0800 0.0810 0.0810
13.368113 0.0810 0.0810 0.0810 0.0810 0.0810
13.402000 0.0800 0.0800 0.0810 0.0850 0.0860
13.436113 0.0860 0.0860 0.0880 0.0880 0.0880
13.470000 0.0900 0.0910 0.0970 0.0970 0.0970
13.504113 0.0970 0.0970 0.0950 0.0950 0.0950
13.538000 0.0930 0.0910 0.0900 0.0910 0.0930
13.572113 0.0950 0.0950 0.0980 0.0970 0.0950
13.606000 0.0950 0.0930 0.0930 0.0910 0.0930
13.640113 0.0930 0.0950 0.0970 0.0970 0.0970
13.675000 0.0970 0.0970 0.0970 0.0980 0.1000
13.709113 0.1020 0.1030 0.1030 0.1050 0.1050
13.743000 0.1050 0.1070 0.1050 0.1070 0.1090
13.777113 0.1090 0.1090 0.1100 0.1120 0.1140
13.811000 0.1150 0.1150 0.1150 0.1170 0.1170
13.845113 0.1170 0.1190 0.1190 0.1170 0.1170
13.879000 0.1170 0.1170 0.1170 0.1170 0.1190
13.913113 0.1190 0.1190 0.1200 0.1200 0.1220
13.947000 0.1270 0.1270 0.1270 0.1270 0.1290
13.981113 0.1270 0.1270 0.1290 0.1260 0.1270
14.016000 0.1270 0.1270 0.1270 0.1270 0.1270
14.050113 0.1270 0.1290 0.1290 0.1290 0.1290
14.084000 0.1290 0.1310 0.1310 0.1340 0.1360
14.118113 0.1370 0.1410 0.1460 0.1480 0.1480
14.152000 0.1480 0.1480 0.1490 0.1490 0.1510
14.186113 0.1550 0.1550 0.1560 0.1580 0.1580
14.220000 0.1580 0.1600 0.1580 0.1600 0.1600
14.254113 0.1610 0.1610 0.1630 0.1650 0.1650
14.288000 0.1660 0.1660 0.1680 0.1700 0.1700
14.322113 0.1730 0.1750 0.1770 0.1780 0.1800
14.357000 0.1870 0.1870 0.1870 0.1890 0.1890
14.391113 0.1900 0.1900 0.1900 0.1900 0.1900
14.425000 0.1900 0.1900 0.1900 0.1920 0.1920
14.459113 0.1940 0.1940 0.1950 0.1950 0.1970
14.493000 0.1970 0.1990 0.1990 0.1990 0.2020
14.527113 0.2040 0.2060 0.2070 0.2090 0.2110
14.561000 0.2160 0.2160 0.2180 0.2180 0.2190
14.595113 0.2190 0.2210 0.2210 0.2260 0.2260
14.629000 0.2280 0.2290 0.2290 0.2290 0.2290
14.663113 0.2310 0.2310 0.2310 0.2310 0.2310
14.698000 0.2310 0.2360 0.2360 0.2380 0.2400
14.732113 0.2400 0.2400 0.2410 0.2410 0.2410
14.766000 0.2480 0.2500 0.2520 0.2520 0.2550
14.800113 0.2580 0.2600 0.2600 0.2620 0.2650
14.834000 0.2670 0.2670 0.2690 0.2700 0.2720
14.868113 0.2720 0.2720 0.2770 0.2790 0.2790
14.902000 0.2790 0.2810 0.2810 0.2810 0.2810
14.936113 0.2820 0.2870 0.2890 0.2910 0.2910
14.970000 0.2930 0.2940 0.2960 0.2960 0.2980
15.004113 0.2990 0.3010 0.3030 0.3030 0.3040
15.038000 0.3040 0.3080 0.3080 0.3110 0.3150
15.072113 0.3160 0.3180 0.3200 0.3200 0.3210
15.107000 0.3210 0.3230 0.3230 0.3250 0.3250
15.141113 0.3250 0.3250 0.3250 0.3250 0.3270
15.175000 0.3280 0.3280 0.3280 0.3280 0.3280
15.209113 0.3280 0.3280 0.3300 0.3280 0.3280
15.243000 0.3300 0.3300 0.3320 0.3320 0.3320
15.277113 0.3320 0.3330 0.3330 0.3330 0.3330
15.311000 0.3370 0.3390 0.3420 0.3450 0.3470
15.345113 0.3470 0.3470 0.3500 0.3500 0.3520
15.379000 0.3520 0.3520 0.3560 0.3570 0.3590
15.413113 0.3610 0.3610 0.3620 0.3640 0.3640
15.448000 0.3660 0.3660 0.3660 0.3670 0.3690
15.482113 0.3690 0.3690 0.3690 0.3710 0.3710
15.516000 0.3740 0.3790 0.3830 0.3830 0.3850
15.550113 0.3860 0.3880 0.3880 0.3910 0.3930
15.584000 0.3950 0.3960 0.3980 0.3980 0.3980
15.618113 0.3980 0.3960 0.3950 0.3930 0.3900
15.652000 0.3880 0.3880 0.3880 0.3880 0.3900
15.686113 0.3930 0.3960 0.3960 0.3960 0.3960
15.720000 0.3980 0.4000 0.4000 0.4000 0.4000
15.754113 0.4020 0.4020 0.4030 0.4030 0.4050
15.789000 0.4070 0.4080 0.4100 0.4120 0.4130
15.823113 0.4150 0.4190 0.4190 0.4200 0.4200
15.857000 0.4200 0.4200 0.4240 0.4270 0.4290
15.891113 0.4290 0.4290 0.4290 0.4290 0.4310
15.925000 0.4320 0.4340 0.4340 0.4340 0.4360
15.959113 0.4390 0.4390 0.4390 0.4390 0.4410
15.993000 0.4410
##END=
