##TITLE=ETHANOL, 2-AMINO-, HYDROCHLORIDE
##JCAMP-DX=4.24
$$ By DXEDIT 1.05 (RS McDonald)
##DATA TYPE=INFRARED SPECTRUM
##CLASS=COBLENTZ III
##ORIGIN=WYANDOTTE CHEMICALS CORP.
##OWNER=COBLENTZ SOC.
Collection (C) 2018 copyright by the U.S. Secretary of Commerce
on behalf of the United States of America. All rights reserved.
##DATE=1961/12/11
##MOLFORM=C2 H8 Cl N O
##SOURCE REFERENCE=COBLENTZ NO. 05917
##$NIST ID=B6005917
##$NIST SOURCE=COBLENTZ
##$NIST IMAGE=cob5917
##SPECTROMETER/DATA SYSTEM=BAIRD (GRATING)
##INSTRUMENT PARAMETERS=NaCl PRISM
##STATE=SOLID (OIL MULL)
##PATH LENGTH=
$$SPECTRAL CONTAMINATION DUE TO OIL AROUND 2900 CM^-^1
##SAMPLING PROCEDURE=TRANSMISSION
##RESOLUTION=2
##DATA PROCESSING=DIGITIZED BY COBLENTZ SOCIETY (BATCH I) FROM HARD COPY
##XUNITS=1/CM
##YUNITS=TRANSMITTANCE
##XLABEL=Wavenumbers (cm-1)
##YLABEL=Transmittance
##XFACTOR=1
##YFACTOR=1
##DELTAX=1
##FIRSTX=4000
##LASTX=626
##FIRSTY=0.8636
##MAXX=4000
##MINX=626
##MAXY=0.9778
##MINY=0.012
##NPOINTS=3375
##XYDATA=(X++(Y..Y))
4000.000000 0.8636 0.8641 0.8646 0.8651 0.8657
3995.000000 0.8662 0.8667 0.8673 0.8678 0.8683
3990.000000 0.8689 0.8694 0.8699 0.8705 0.8711
3985.000000 0.8716 0.8721 0.8728 0.8733 0.8739
3980.000000 0.8745 0.8751 0.8756 0.8762 0.8768
3975.000000 0.8774 0.8780 0.8786 0.8792 0.8798
3970.000000 0.8804 0.8810 0.8816 0.8821 0.8828
3965.000000 0.8834 0.8840 0.8846 0.8852 0.8858
3960.000000 0.8863 0.8868 0.8874 0.8878 0.8885
3955.000000 0.8890 0.8896 0.8901 0.8907 0.8912
3950.000000 0.8917 0.8923 0.8928 0.8934 0.8939
3945.000000 0.8945 0.8950 0.8956 0.8961 0.8966
3940.000000 0.8971 0.8977 0.8982 0.8988 0.8992
3935.000000 0.8996 0.9000 0.9004 0.9009 0.9013
3930.000000 0.9017 0.9020 0.9024 0.9028 0.9031
3925.000000 0.9035 0.9038 0.9039 0.9041 0.9042
3920.000000 0.9044 0.9046 0.9047 0.9047 0.9048
3915.000000 0.9048 0.9049 0.9049 0.9049 0.9047
3910.000000 0.9046 0.9045 0.9043 0.9042 0.9040
3905.000000 0.9039 0.9037 0.9036 0.9034 0.9033
3900.000000 0.9031 0.9030 0.9028 0.9027 0.9025
3895.000000 0.9024 0.9021 0.9021 0.9021 0.9021
3890.000000 0.9021 0.9021 0.9020 0.9020 0.9018
3885.000000 0.9018 0.9018 0.9018 0.9018 0.9017
3880.000000 0.9017 0.9016 0.9016 0.9015 0.9015
3875.000000 0.9014 0.9014 0.9013 0.9013 0.9012
3870.000000 0.9012 0.9014 0.9017 0.9020 0.9023
3865.000000 0.9025 0.9028 0.9032 0.9035 0.9039
3860.000000 0.9043 0.9046 0.9050 0.9053 0.9057
3855.000000 0.9060 0.9064 0.9067 0.9071 0.9075
3850.000000 0.9080 0.9084 0.9088 0.9093 0.9100
3845.000000 0.9121 0.9142 0.9164 0.9185 0.9206
3840.000000 0.9227 0.9245 0.9263 0.9281 0.9300
3835.000000 0.9318 0.9341 0.9373 0.9405 0.9438
3830.000000 0.9470 0.9502 0.9525 0.9540 0.9554
3825.000000 0.9568 0.9583 0.9597 0.9609 0.9618
3820.000000 0.9628 0.9639 0.9649 0.9658 0.9667
3815.000000 0.9675 0.9683 0.9690 0.9698 0.9706
3810.000000 0.9709 0.9712 0.9715 0.9717 0.9720
3805.000000 0.9723 0.9724 0.9725 0.9727 0.9728
3800.000000 0.9731 0.9732 0.9733 0.9734 0.9736
3795.000000 0.9737 0.9738 0.9739 0.9741 0.9742
3790.000000 0.9744 0.9745 0.9746 0.9747 0.9748
3785.000000 0.9750 0.9751 0.9752 0.9753 0.9754
3780.000000 0.9754 0.9755 0.9756 0.9757 0.9758
3775.000000 0.9759 0.9760 0.9761 0.9761 0.9762
3770.000000 0.9763 0.9764 0.9765 0.9766 0.9760
3765.000000 0.9768 0.9768 0.9768 0.9770 0.9770
3760.000000 0.9771 0.9771 0.9771 0.9771 0.9773
3755.000000 0.9773 0.9773 0.9774 0.9774 0.9774
3750.000000 0.9775 0.9775 0.9775 0.9775 0.9775
3745.000000 0.9777 0.9777 0.9777 0.9778 0.9778
3740.000000 0.9778 0.9778 0.9778 0.9778 0.9778
3735.000000 0.9778 0.9778 0.9778 0.9778 0.9777
3730.000000 0.9777 0.9777 0.9775 0.9775 0.9775
3725.000000 0.9775 0.9775 0.9774 0.9773 0.9773
3720.000000 0.9771 0.9771 0.9771 0.9771 0.9771
3715.000000 0.9771 0.9770 0.9768 0.9768 0.9768
3710.000000 0.9767 0.9766 0.9765 0.9764 0.9762
3705.000000 0.9761 0.9760 0.9759 0.9757 0.9756
3700.000000 0.9755 0.9753 0.9752 0.9751 0.9749
3695.000000 0.9748 0.9746 0.9745 0.9744 0.9742
3690.000000 0.9741 0.9740 0.9738 0.9737 0.9734
3685.000000 0.9732 0.9730 0.9727 0.9725 0.9718
3680.000000 0.9711 0.9704 0.9697 0.9690 0.9683
3675.000000 0.9675 0.9670 0.9663 0.9656 0.9649
3670.000000 0.9641 0.9633 0.9625 0.9617 0.9609
3665.000000 0.9598 0.9586 0.9573 0.9561 0.9549
3660.000000 0.9537 0.9524 0.9512 0.9500 0.9487
3655.000000 0.9475 0.9462 0.9450 0.9438 0.9425
3650.000000 0.9413 0.9398 0.9383 0.9367 0.9351
3645.000000 0.9335 0.9318 0.9296 0.9275 0.9253
3640.000000 0.9232 0.9210 0.9183 0.9157 0.9130
3635.000000 0.9103 0.9075 0.9042 0.9005 0.8968
3630.000000 0.8932 0.8895 0.8858 0.8821 0.8786
3625.000000 0.8750 0.8714 0.8678 0.8644 0.8609
3620.000000 0.8575 0.8541 0.8506 0.8471 0.8438
3615.000000 0.8403 0.8368 0.8334 0.8308 0.8284
3610.000000 0.8261 0.8238 0.8214 0.8191 0.8168
3605.000000 0.8145 0.8121 0.8099 0.8075 0.8051
3600.000000 0.8028 0.8005 0.7982 0.7958 0.7934
3595.000000 0.7910 0.7886 0.7861 0.7838 0.7811
3590.000000 0.7787 0.7761 0.7737 0.7711 0.7686
3585.000000 0.7661 0.7636 0.7610 0.7585 0.7562
3580.000000 0.7543 0.7521 0.7501 0.7482 0.7461
3575.000000 0.7444 0.7425 0.7406 0.7387 0.7368
3570.000000 0.7350 0.7331 0.7312 0.7294 0.7275
3565.000000 0.7256 0.7237 0.7218 0.7200 0.7180
3560.000000 0.7157 0.7134 0.7111 0.7089 0.7065
3555.000000 0.7043 0.7018 0.6995 0.6971 0.6948
3550.000000 0.6925 0.6901 0.6878 0.6855 0.6831
3545.000000 0.6808 0.6785 0.6762 0.6740 0.6717
3540.000000 0.6700 0.6683 0.6665 0.6649 0.6631
3535.000000 0.6614 0.6597 0.6580 0.6561 0.6545
3530.000000 0.6528 0.6511 0.6494 0.6476 0.6460
3525.000000 0.6443 0.6425 0.6408 0.6391 0.6373
3520.000000 0.6354 0.6334 0.6315 0.6296 0.6276
3515.000000 0.6256 0.6236 0.6216 0.6196 0.6176
3510.000000 0.6156 0.6136 0.6115 0.6095 0.6073
3505.000000 0.6046 0.6018 0.5991 0.5964 0.5929
3500.000000 0.5884 0.5839 0.5793 0.5748 0.5688
3495.000000 0.5612 0.5538 0.5464 0.5389 0.5339
3490.000000 0.5304 0.5269 0.5233 0.5198 0.5170
3485.000000 0.5143 0.5116 0.5090 0.5062 0.5037
3480.000000 0.5010 0.4983 0.4956 0.4929 0.4902
3475.000000 0.4875 0.4848 0.4821 0.4795 0.4768
3470.000000 0.4741 0.4714 0.4687 0.4660 0.4633
3465.000000 0.4606 0.4579 0.4552 0.4525 0.4498
3460.000000 0.4471 0.4444 0.4417 0.4390 0.4362
3455.000000 0.4336 0.4309 0.4281 0.4254 0.4227
3450.000000 0.4200 0.4173 0.4146 0.4119 0.4091
3445.000000 0.4064 0.4036 0.4009 0.3982 0.3955
3440.000000 0.3927 0.3900 0.3873 0.3845 0.3818
3435.000000 0.3790 0.3762 0.3734 0.3708 0.3680
3430.000000 0.3653 0.3626 0.3598 0.3570 0.3543
3425.000000 0.3514 0.3487 0.3459 0.3432 0.3404
3420.000000 0.3376 0.3349 0.3321 0.3293 0.3266
3415.000000 0.3239 0.3216 0.3193 0.3169 0.3146
3410.000000 0.3125 0.3106 0.3087 0.3068 0.3049
3405.000000 0.3029 0.3010 0.2991 0.2972 0.2953
3400.000000 0.2933 0.2914 0.2895 0.2876 0.2852
3395.000000 0.2826 0.2801 0.2776 0.2750 0.2724
3390.000000 0.2697 0.2671 0.2645 0.2618 0.2592
3385.000000 0.2566 0.2539 0.2513 0.2485 0.2460
3380.000000 0.2433 0.2407 0.2384 0.2367 0.2349
3375.000000 0.2332 0.2315 0.2298 0.2282 0.2266
3370.000000 0.2250 0.2234 0.2218 0.2202 0.2185
3365.000000 0.2170 0.2154 0.2137 0.2121 0.2105
3360.000000 0.2089 0.2073 0.2057 0.2040 0.2024
3355.000000 0.2008 0.1992 0.1976 0.1959 0.1941
3350.000000 0.1916 0.1891 0.1866 0.1841 0.1803
3345.000000 0.1760 0.1717 0.1674 0.1633 0.1598
3340.000000 0.1563 0.1529 0.1494 0.1476 0.1463
3335.000000 0.1450 0.1436 0.1423 0.1410 0.1396
3330.000000 0.1383 0.1370 0.1357 0.1344 0.1331
3325.000000 0.1317 0.1304 0.1291 0.1278 0.1264
3320.000000 0.1251 0.1237 0.1224 0.1210 0.1196
3315.000000 0.1181 0.1166 0.1150 0.1134 0.1118
3310.000000 0.1103 0.1087 0.1072 0.1056 0.1042
3305.000000 0.1028 0.1014 0.1000 0.0987 0.0972
3300.000000 0.0960 0.0946 0.0934 0.0921 0.0908
3295.000000 0.0896 0.0883 0.0876 0.0871 0.0866
3290.000000 0.0860 0.0855 0.0850 0.0843 0.0839
3285.000000 0.0834 0.0831 0.0828 0.0824 0.0821
3280.000000 0.0818 0.0815 0.0811 0.0808 0.0805
3275.000000 0.0801 0.0798 0.0795 0.0792 0.0790
3270.000000 0.0788 0.0786 0.0784 0.0781 0.0779
3265.000000 0.0777 0.0774 0.0772 0.0769 0.0767
3260.000000 0.0765 0.0762 0.0760 0.0758 0.0755
3255.000000 0.0753 0.0751 0.0749 0.0747 0.0745
3250.000000 0.0743 0.0742 0.0740 0.0739 0.0738
3245.000000 0.0736 0.0735 0.0734 0.0733 0.0732
3240.000000 0.0731 0.0730 0.0729 0.0728 0.0727
3235.000000 0.0726 0.0724 0.0723 0.0722 0.0721
3230.000000 0.0720 0.0718 0.0717 0.0716 0.0715
3225.000000 0.0714 0.0712 0.0711 0.0710 0.0709
3220.000000 0.0708 0.0707 0.0706 0.0705 0.0704
3215.000000 0.0702 0.0701 0.0700 0.0699 0.0698
3210.000000 0.0696 0.0695 0.0694 0.0693 0.0692
3205.000000 0.0690 0.0690 0.0689 0.0688 0.0687
3200.000000 0.0687 0.0686 0.0685 0.0685 0.0684
3195.000000 0.0683 0.0682 0.0682 0.0681 0.0680
3190.000000 0.0679 0.0679 0.0678 0.0677 0.0676
3185.000000 0.0676 0.0675 0.0674 0.0673 0.0673
3180.000000 0.0672 0.0671 0.0671 0.0670 0.0669
3175.000000 0.0668 0.0668 0.0667 0.0666 0.0665
3170.000000 0.0665 0.0664 0.0663 0.0662 0.0662
3165.000000 0.0661 0.0660 0.0659 0.0659 0.0658
3160.000000 0.0657 0.0656 0.0656 0.0655 0.0654
3155.000000 0.0653 0.0653 0.0652 0.0651 0.0650
3150.000000 0.0650 0.0649 0.0648 0.0647 0.0647
3145.000000 0.0646 0.0645 0.0644 0.0643 0.0643
3140.000000 0.0642 0.0641 0.0640 0.0639 0.0638
3135.000000 0.0636 0.0635 0.0634 0.0632 0.0631
3130.000000 0.0630 0.0629 0.0627 0.0626 0.0625
3125.000000 0.0624 0.0622 0.0621 0.0620 0.0619
3120.000000 0.0618 0.0617 0.0616 0.0614 0.0613
3115.000000 0.0612 0.0610 0.0609 0.0608 0.0606
3110.000000 0.0605 0.0604 0.0603 0.0602 0.0601
3105.000000 0.0600 0.0598 0.0597 0.0596 0.0595
3100.000000 0.0593 0.0592 0.0591 0.0589 0.0588
3095.000000 0.0587 0.0585 0.0584 0.0583 0.0582
3090.000000 0.0581 0.0580 0.0579 0.0577 0.0576
3085.000000 0.0574 0.0572 0.0570 0.0568 0.0567
3080.000000 0.0565 0.0563 0.0561 0.0559 0.0557
3075.000000 0.0555 0.0553 0.0551 0.0549 0.0547
3070.000000 0.0545 0.0543 0.0541 0.0540 0.0538
3065.000000 0.0536 0.0534 0.0532 0.0530 0.0528
3060.000000 0.0526 0.0524 0.0522 0.0520 0.0518
3055.000000 0.0516 0.0514 0.0512 0.0510 0.0508
3050.000000 0.0506 0.0504 0.0502 0.0500 0.0498
3045.000000 0.0496 0.0491 0.0486 0.0482 0.0477
3040.000000 0.0471 0.0467 0.0463 0.0458 0.0454
3035.000000 0.0449 0.0445 0.0440 0.0435 0.0431
3030.000000 0.0425 0.0421 0.0416 0.0411 0.0407
3025.000000 0.0402 0.0397 0.0393 0.0387 0.0382
3020.000000 0.0377 0.0372 0.0366 0.0361 0.0355
3015.000000 0.0350 0.0345 0.0339 0.0334 0.0329
3010.000000 0.0324 0.0318 0.0313 0.0308 0.0303
3005.000000 0.0298 0.0292 0.0286 0.0281 0.0275
3000.000000 0.0270 0.0265 0.0260 0.0254 0.0249
2995.000000 0.0244 0.0237 0.0234 0.0231 0.0227
2990.000000 0.0223 0.0217 0.0213 0.0209 0.0206
2985.000000 0.0202 0.0198 0.0194 0.0190 0.0185
2980.000000 0.0183 0.0179 0.0177 0.0174 0.0171
2975.000000 0.0170 0.0169 0.0168 0.0167 0.0165
2970.000000 0.0164 0.0162 0.0161 0.0159 0.0158
2965.000000 0.0157 0.0156 0.0155 0.0153 0.0152
2960.000000 0.0151 0.0149 0.0148 0.0146 0.0145
2955.000000 0.0143 0.0142 0.0141 0.0140 0.0139
2950.000000 0.0137 0.0135 0.0133 0.0133 0.0133
2945.000000 0.0132 0.0131 0.0131 0.0131 0.0130
2940.000000 0.0130 0.0130 0.0130 0.0129 0.0129
2935.000000 0.0128 0.0127 0.0127 0.0127 0.0127
2930.000000 0.0126 0.0126 0.0126 0.0125 0.0125
2925.000000 0.0124 0.0124 0.0123 0.0123 0.0123
2920.000000 0.0122 0.0122 0.0122 0.0121 0.0121
2915.000000 0.0120 0.0120 0.0120 0.0121 0.0122
2910.000000 0.0123 0.0124 0.0125 0.0126 0.0127
2905.000000 0.0128 0.0129 0.0130 0.0131 0.0132
2900.000000 0.0133 0.0134 0.0135 0.0138 0.0140
2895.000000 0.0142 0.0144 0.0145 0.0147 0.0149
2890.000000 0.0151 0.0153 0.0154 0.0156 0.0159
2885.000000 0.0163 0.0166 0.0169 0.0172 0.0176
2880.000000 0.0179 0.0182 0.0185 0.0189 0.0193
2875.000000 0.0196 0.0200 0.0204 0.0207 0.0210
2870.000000 0.0214 0.0220 0.0225 0.0230 0.0241
2865.000000 0.0251 0.0261 0.0272 0.0282 0.0292
2860.000000 0.0303 0.0313 0.0324 0.0334 0.0345
2855.000000 0.0355 0.0366 0.0377 0.0388 0.0398
2850.000000 0.0409 0.0419 0.0431 0.0442 0.0452
2845.000000 0.0463 0.0473 0.0485 0.0496 0.0507
2840.000000 0.0517 0.0528 0.0539 0.0550 0.0560
2835.000000 0.0571 0.0580 0.0588 0.0596 0.0605
2830.000000 0.0613 0.0622 0.0630 0.0638 0.0647
2825.000000 0.0655 0.0664 0.0672 0.0680 0.0688
2820.000000 0.0697 0.0705 0.0714 0.0722 0.0730
2815.000000 0.0738 0.0747 0.0755 0.0764 0.0772
2810.000000 0.0781 0.0789 0.0798 0.0806 0.0814
2805.000000 0.0822 0.0831 0.0839 0.0845 0.0851
2800.000000 0.0857 0.0863 0.0868 0.0874 0.0880
2795.000000 0.0886 0.0891 0.0896 0.0903 0.0909
2790.000000 0.0916 0.0921 0.0926 0.0933 0.0939
2785.000000 0.0943 0.0950 0.0956 0.0962 0.0968
2780.000000 0.0974 0.0979 0.0985 0.0991 0.0996
2775.000000 0.1001 0.1005 0.1009 0.1013 0.1017
2770.000000 0.1021 0.1025 0.1029 0.1033 0.1037
2765.000000 0.1041 0.1045 0.1049 0.1053 0.1057
2760.000000 0.1061 0.1065 0.1069 0.1073 0.1077
2755.000000 0.1081 0.1086 0.1090 0.1095 0.1100
2750.000000 0.1105 0.1110 0.1116 0.1121 0.1126
2745.000000 0.1131 0.1137 0.1142 0.1148 0.1154
2740.000000 0.1159 0.1164 0.1170 0.1175 0.1180
2735.000000 0.1186 0.1192 0.1199 0.1206 0.1214
2730.000000 0.1222 0.1231 0.1239 0.1246 0.1256
2725.000000 0.1264 0.1273 0.1281 0.1290 0.1298
2720.000000 0.1307 0.1317 0.1327 0.1337 0.1348
2715.000000 0.1358 0.1369 0.1380 0.1390 0.1401
2710.000000 0.1411 0.1422 0.1433 0.1444 0.1454
2705.000000 0.1471 0.1491 0.1512 0.1535 0.1559
2700.000000 0.1583 0.1612 0.1642 0.1672 0.1694
2695.000000 0.1718 0.1741 0.1759 0.1777 0.1794
2690.000000 0.1806 0.1817 0.1828 0.1834 0.1843
2685.000000 0.1851 0.1858 0.1865 0.1871 0.1875
2680.000000 0.1879 0.1882 0.1884 0.1884 0.1886
2675.000000 0.1887 0.1890 0.1892 0.1894 0.1894
2670.000000 0.1894 0.1893 0.1891 0.1890 0.1889
2665.000000 0.1886 0.1884 0.1884 0.1882 0.1879
2660.000000 0.1878 0.1877 0.1875 0.1874 0.1871
2655.000000 0.1867 0.1863 0.1858 0.1854 0.1849
2650.000000 0.1844 0.1840 0.1835 0.1832 0.1828
2645.000000 0.1823 0.1819 0.1814 0.1809 0.1804
2640.000000 0.1801 0.1798 0.1795 0.1793 0.1791
2635.000000 0.1789 0.1786 0.1784 0.1782 0.1779
2630.000000 0.1777 0.1775 0.1773 0.1771 0.1768
2625.000000 0.1767 0.1766 0.1766 0.1766 0.1766
2620.000000 0.1767 0.1767 0.1767 0.1768 0.1768
2615.000000 0.1768 0.1769 0.1776 0.1775 0.1781
2610.000000 0.1786 0.1793 0.1800 0.1806 0.1812
2605.000000 0.1818 0.1825 0.1832 0.1839 0.1846
2600.000000 0.1854 0.1863 0.1872 0.1879 0.1889
2595.000000 0.1896 0.1904 0.1913 0.1918 0.1924
2590.000000 0.1929 0.1933 0.1936 0.1942 0.1945
2585.000000 0.1950 0.1954 0.1958 0.1962 0.1965
2580.000000 0.1968 0.1969 0.1969 0.1969 0.1969
2575.000000 0.1969 0.1970 0.1970 0.1971 0.1971
2570.000000 0.1971 0.1971 0.1971 0.1971 0.1972
2565.000000 0.1972 0.1972 0.1972 0.1972 0.1973
2560.000000 0.1973 0.1973 0.1973 0.1974 0.1975
2555.000000 0.1976 0.1978 0.1979 0.1981 0.1983
2550.000000 0.1984 0.1985 0.1986 0.1989 0.1990
2545.000000 0.1992 0.1993 0.1995 0.2001 0.2006
2540.000000 0.2015 0.2027 0.2039 0.2066 0.2092
2535.000000 0.2122 0.2154 0.2185 0.2220 0.2255
2530.000000 0.2289 0.2323 0.2357 0.2417 0.2483
2525.000000 0.2548 0.2610 0.2672 0.2727 0.2778
2520.000000 0.2827 0.2860 0.2894 0.2928 0.2962
2515.000000 0.2996 0.3027 0.3058 0.3082 0.3100
2510.000000 0.3118 0.3122 0.3126 0.3131 0.3148
2505.000000 0.3141 0.3145 0.3149 0.3150 0.3150
2500.000000 0.3150 0.3149 0.3148 0.3146 0.3143
2495.000000 0.3139 0.3130 0.3120 0.3110 0.3101
2490.000000 0.3091 0.3078 0.3065 0.3052 0.3038
2485.000000 0.3024 0.3011 0.2998 0.2984 0.2971
2480.000000 0.2957 0.2942 0.2926 0.2905 0.2881
2475.000000 0.2858 0.2834 0.2811 0.2789 0.2766
2470.000000 0.2744 0.2724 0.2703 0.2683 0.2663
2465.000000 0.2642 0.2621 0.2599 0.2576 0.2553
2460.000000 0.2522 0.2487 0.2453 0.2420 0.2388
2455.000000 0.2366 0.2346 0.2333 0.2329 0.2326
2450.000000 0.2322 0.2318 0.2318 0.2322 0.2326
2445.000000 0.2331 0.2337 0.2345 0.2354 0.2369
2440.000000 0.2391 0.2414 0.2437 0.2459 0.2491
2435.000000 0.2529 0.2567 0.2610 0.2653 0.2688
2430.000000 0.2722 0.2749 0.2771 0.2793 0.2815
2425.000000 0.2837 0.2859 0.2880 0.2902 0.2924
2420.000000 0.2945 0.2967 0.2989 0.3013 0.3038
2415.000000 0.3064 0.3090 0.3117 0.3144 0.3170
2410.000000 0.3197 0.3224 0.3250 0.3276 0.3303
2405.000000 0.3329 0.3355 0.3382 0.3408 0.3434
2400.000000 0.3462 0.3491 0.3518 0.3548 0.3576
2395.000000 0.3604 0.3647 0.3697 0.3768 0.3879
2390.000000 0.3984 0.4004 0.4024 0.4037 0.4047
2385.000000 0.4056 0.4064 0.4072 0.4076 0.4080
2380.000000 0.4086 0.4091 0.4094 0.4096 0.4098
2375.000000 0.4099 0.4100 0.4084 0.4070 0.4053
2370.000000 0.4037 0.4023 0.4009 0.3996 0.3984
2365.000000 0.3973 0.3964 0.3958 0.3952 0.3946
2360.000000 0.3946 0.3948 0.3949 0.3950 0.3952
2355.000000 0.3953 0.3955 0.3956 0.3958 0.3959
2350.000000 0.3962 0.3966 0.3971 0.3977 0.3982
2345.000000 0.3988 0.3993 0.3999 0.4004 0.4009
2340.000000 0.4014 0.4020 0.4026 0.4030 0.4037
2335.000000 0.4042 0.4048 0.4053 0.4059 0.4066
2330.000000 0.4073 0.4084 0.4096 0.4107 0.4119
2325.000000 0.4130 0.4141 0.4152 0.4164 0.4176
2320.000000 0.4187 0.4199 0.4210 0.4222 0.4233
2315.000000 0.4244 0.4256 0.4267 0.4278 0.4289
2310.000000 0.4301 0.4312 0.4325 0.4340 0.4355
2305.000000 0.4373 0.4391 0.4409 0.4426 0.4444
2300.000000 0.4462 0.4480 0.4498 0.4516 0.4535
2295.000000 0.4553 0.4572 0.4590 0.4610 0.4631
2290.000000 0.4656 0.4681 0.4706 0.4731 0.4756
2285.000000 0.4782 0.4808 0.4835 0.4860 0.4885
2280.000000 0.4901 0.4918 0.4934 0.4950 0.4966
2275.000000 0.4982 0.4999 0.5015 0.5031 0.5048
2270.000000 0.5064 0.5079 0.5094 0.5109 0.5123
2265.000000 0.5137 0.5152 0.5166 0.5181 0.5196
2260.000000 0.5210 0.5224 0.5239 0.5253 0.5266
2255.000000 0.5276 0.5286 0.5296 0.5306 0.5316
2250.000000 0.5327 0.5337 0.5347 0.5357 0.5367
2245.000000 0.5378 0.5388 0.5399 0.5409 0.5419
2240.000000 0.5429 0.5438 0.5448 0.5457 0.5467
2235.000000 0.5476 0.5486 0.5495 0.5505 0.5514
2230.000000 0.5524 0.5533 0.5542 0.5552 0.5560
2225.000000 0.5570 0.5578 0.5587 0.5595 0.5604
2220.000000 0.5612 0.5621 0.5630 0.5639 0.5647
2215.000000 0.5656 0.5665 0.5673 0.5682 0.5691
2210.000000 0.5699 0.5709 0.5718 0.5726 0.5735
2205.000000 0.5744 0.5753 0.5760 0.5770 0.5778
2200.000000 0.5785 0.5792 0.5799 0.5805 0.5812
2195.000000 0.5819 0.5826 0.5832 0.5839 0.5846
2190.000000 0.5849 0.5852 0.5855 0.5858 0.5860
2185.000000 0.5862 0.5867 0.5870 0.5873 0.5876
2180.000000 0.5879 0.5882 0.5885 0.5887 0.5890
2175.000000 0.5893 0.5895 0.5898 0.5901 0.5903
2170.000000 0.5906 0.5909 0.5910 0.5912 0.5912
2165.000000 0.5912 0.5912 0.5912 0.5910 0.5910
2160.000000 0.5909 0.5908 0.5907 0.5905 0.5902
2155.000000 0.5899 0.5895 0.5891 0.5888 0.5885
2150.000000 0.5882 0.5878 0.5874 0.5871 0.5868
2145.000000 0.5864 0.5860 0.5856 0.5853 0.5849
2140.000000 0.5846 0.5842 0.5840 0.5838 0.5836
2135.000000 0.5835 0.5833 0.5833 0.5833 0.5833
2130.000000 0.5835 0.5836 0.5838 0.5840 0.5841
2125.000000 0.5846 0.5852 0.5858 0.5864 0.5870
2120.000000 0.5876 0.5882 0.5887 0.5892 0.5897
2115.000000 0.5903 0.5908 0.5910 0.5910 0.5910
2110.000000 0.5908 0.5907 0.5906 0.5904 0.5902
2105.000000 0.5900 0.5897 0.5895 0.5892 0.5890
2100.000000 0.5888 0.5886 0.5886 0.5886 0.5886
2095.000000 0.5887 0.5887 0.5887 0.5888 0.5888
2090.000000 0.5888 0.5888 0.5888 0.5888 0.5888
2085.000000 0.5887 0.5887 0.5887 0.5887 0.5885
2080.000000 0.5883 0.5880 0.5878 0.5876 0.5874
2075.000000 0.5871 0.5865 0.5857 0.5832 0.5792
2070.000000 0.5710 0.5659 0.5635 0.5610 0.5586
2065.000000 0.5560 0.5536 0.5510 0.5486 0.5460
2060.000000 0.5434 0.5409 0.5383 0.5357 0.5331
2055.000000 0.5308 0.5285 0.5262 0.5242 0.5220
2050.000000 0.5198 0.5176 0.5153 0.5132 0.5110
2045.000000 0.5088 0.5066 0.5045 0.5021 0.4995
2040.000000 0.4978 0.4962 0.4944 0.4924 0.4902
2035.000000 0.4880 0.4859 0.4836 0.4814 0.4792
2030.000000 0.4771 0.4749 0.4726 0.4704 0.4682
2025.000000 0.4660 0.4638 0.4596 0.4599 0.4586
2020.000000 0.4586 0.4587 0.4600 0.4617 0.4637
2015.000000 0.4657 0.4676 0.4696 0.4716 0.4736
2010.000000 0.4755 0.4762 0.4762 0.4764 0.4751
2005.000000 0.4742 0.4721 0.4698 0.4675 0.4651
2000.000000 0.4628 0.4604 0.4588 0.4586 0.4585
1995.000000 0.4584 0.4574 0.4621 0.4651 0.4682
1990.000000 0.4712 0.4743 0.4774 0.4805 0.4836
1985.000000 0.4867 0.4898 0.4929 0.4960 0.4991
1980.000000 0.5022 0.5053 0.5085 0.5116 0.5146
1975.000000 0.5178 0.5209 0.5241 0.5272 0.5303
1970.000000 0.5334 0.5366 0.5397 0.5429 0.5460
1965.000000 0.5492 0.5523 0.5555 0.5587 0.5619
1960.000000 0.5651 0.5680 0.5701 0.5722 0.5742
1955.000000 0.5762 0.5782 0.5802 0.5822 0.5843
1950.000000 0.5862 0.5884 0.5905 0.5925 0.5946
1945.000000 0.5966 0.5987 0.6010 0.6034 0.6058
1940.000000 0.6083 0.6106 0.6128 0.6143 0.6157
1935.000000 0.6171 0.6186 0.6199 0.6210 0.6218
1930.000000 0.6226 0.6232 0.6233 0.6235 0.6237
1925.000000 0.6238 0.6240 0.6242 0.6243 0.6246
1920.000000 0.6249 0.6252 0.6256 0.6259 0.6262
1915.000000 0.6266 0.6270 0.6277 0.6292 0.6312
1910.000000 0.6341 0.6374 0.6408 0.6442 0.6478
1905.000000 0.6515 0.6553 0.6590 0.6626 0.6664
1900.000000 0.6698 0.6728 0.6757 0.6785 0.6814
1895.000000 0.6841 0.6865 0.6886 0.6907 0.6928
1890.000000 0.6948 0.6968 0.6989 0.7004 0.7018
1885.000000 0.7034 0.7049 0.7062 0.7072 0.7078
1880.000000 0.7086 0.7092 0.7098 0.7105 0.7110
1875.000000 0.7087 0.7118 0.7121 0.7125 0.7128
1870.000000 0.7132 0.7133 0.7134 0.7135 0.7135
1865.000000 0.7133 0.7128 0.7122 0.7118 0.7111
1860.000000 0.7101 0.7091 0.7081 0.7071 0.7061
1855.000000 0.7046 0.7030 0.7015 0.7000 0.6986
1850.000000 0.6972 0.6961 0.6949 0.6938 0.6925
1845.000000 0.6914 0.6908 0.6901 0.6896 0.6897
1840.000000 0.6898 0.6898 0.6901 0.6906 0.6910
1835.000000 0.6917 0.6926 0.6940 0.6953 0.6965
1830.000000 0.6978 0.6989 0.6996 0.7003 0.7011
1825.000000 0.7018 0.7025 0.7032 0.7038 0.7042
1820.000000 0.7046 0.7050 0.7054 0.7058 0.7062
1815.000000 0.7067 0.7069 0.7069 0.7071 0.7071
1810.000000 0.7071 0.7071 0.7071 0.7072 0.7075
1805.000000 0.7078 0.7082 0.7085 0.7093 0.7111
1800.000000 0.7157 0.7231 0.7276 0.7297 0.7317
1795.000000 0.7337 0.7355 0.7371 0.7387 0.7403
1790.000000 0.7415 0.7424 0.7428 0.7433 0.7438
1785.000000 0.7443 0.7447 0.7451 0.7455 0.7458
1780.000000 0.7464 0.7471 0.7481 0.7491 0.7501
1775.000000 0.7511 0.7521 0.7532 0.7531 0.7530
1770.000000 0.7525 0.7521 0.7514 0.7501 0.7488
1765.000000 0.7475 0.7461 0.7449 0.7432 0.7414
1760.000000 0.7395 0.7376 0.7358 0.7341 0.7322
1755.000000 0.7301 0.7278 0.7256 0.7232 0.7208
1750.000000 0.7191 0.7175 0.7161 0.7147 0.7132
1745.000000 0.7118 0.7104 0.7091 0.7076 0.7062
1740.000000 0.7050 0.7038 0.7025 0.7015 0.7003
1735.000000 0.6992 0.6976 0.6962 0.6948 0.6928
1730.000000 0.6897 0.6861 0.6815 0.6780 0.6751
1725.000000 0.6717 0.6675 0.6641 0.6628 0.6621
1720.000000 0.6619 0.6619 0.6619 0.6621 0.6622
1715.000000 0.6628 0.6649 0.6674 0.6697 0.6717
1710.000000 0.6731 0.6743 0.6755 0.6760 0.6762
1705.000000 0.6761 0.6761 0.6737 0.6683 0.6646
1700.000000 0.6614 0.6583 0.6555 0.6530 0.6507
1695.000000 0.6483 0.6460 0.6442 0.6425 0.6408
1690.000000 0.6393 0.6377 0.6360 0.6344 0.6321
1685.000000 0.6296 0.6270 0.6243 0.6212 0.6178
1680.000000 0.6144 0.6109 0.6073 0.6021 0.5965
1675.000000 0.5910 0.5857 0.5806 0.5757 0.5708
1670.000000 0.5659 0.5574 0.5488 0.5391 0.5288
1665.000000 0.5182 0.4952 0.4636 0.4445 0.4253
1660.000000 0.4059 0.3868 0.3676 0.3482 0.3290
1655.000000 0.3097 0.2904 0.2710 0.2516 0.2322
1650.000000 0.2128 0.1934 0.1739 0.1542 0.1354
1645.000000 0.1321 0.1324 0.1329 0.1336 0.1348
1640.000000 0.1369 0.1399 0.1457 0.1654 0.2137
1635.000000 0.2253 0.2370 0.2487 0.2603 0.2721
1630.000000 0.2838 0.2955 0.3072 0.3190 0.3278
1625.000000 0.3323 0.3352 0.3386 0.3436 0.3518
1620.000000 0.3637 0.3755 0.3873 0.3992 0.4107
1615.000000 0.4123 0.4123 0.4123 0.4123 0.4123
1610.000000 0.4124 0.4125 0.4080 0.3997 0.3902
1605.000000 0.3807 0.3712 0.3616 0.3522 0.3427
1600.000000 0.3371 0.3386 0.3354 0.3357 0.3368
1595.000000 0.3395 0.3455 0.3609 0.3852 0.4097
1590.000000 0.4341 0.4556 0.4669 0.4701 0.4732
1585.000000 0.4758 0.4773 0.4781 0.4789 0.4798
1580.000000 0.4810 0.4824 0.4845 0.4885 0.4915
1575.000000 0.4948 0.4983 0.5015 0.5044 0.5090
1570.000000 0.5080 0.5087 0.5089 0.5085 0.5062
1565.000000 0.5003 0.4918 0.4832 0.4753 0.4717
1560.000000 0.4715 0.4746 0.4803 0.4859 0.4903
1555.000000 0.4914 0.4912 0.4832 0.4718 0.4601
1550.000000 0.4484 0.4367 0.4250 0.4157 0.4093
1545.000000 0.4030 0.3964 0.3897 0.3830 0.3748
1540.000000 0.3625 0.3492 0.3362 0.3236 0.3131
1535.000000 0.3059 0.2997 0.2934 0.2871 0.2804
1530.000000 0.2734 0.2664 0.2565 0.2447 0.2297
1525.000000 0.2123 0.1996 0.1859 0.1743 0.1672
1520.000000 0.1601 0.1529 0.1459 0.1387 0.1315
1515.000000 0.1244 0.1173 0.1101 0.1042 0.1021
1510.000000 0.1020 0.1020 0.1019 0.1038 0.1090
1505.000000 0.1144 0.1198 0.1252 0.1306 0.1361
1500.000000 0.1415 0.1470 0.1524 0.1573 0.1567
1495.000000 0.1481 0.1395 0.1308 0.1222 0.1136
1490.000000 0.1049 0.0961 0.0910 0.0909 0.0909
1485.000000 0.0910 0.0911 0.0913 0.0896 0.0847
1480.000000 0.0797 0.0746 0.0695 0.0644 0.0592
1475.000000 0.0561 0.0554 0.0555 0.0566 0.0597
1470.000000 0.0651 0.0709 0.0762 0.0815 0.0868
1465.000000 0.0941 0.1042 0.1167 0.1350 0.1487
1460.000000 0.1601 0.1681 0.1759 0.1834 0.1906
1455.000000 0.1987 0.2145 0.2325 0.2505 0.2685
1450.000000 0.2866 0.3048 0.3229 0.3410 0.3592
1445.000000 0.3774 0.3957 0.4140 0.4262 0.4325
1440.000000 0.4379 0.4429 0.4475 0.4516 0.4551
1435.000000 0.4576 0.4600 0.4620 0.4633 0.4646
1430.000000 0.4652 0.4657 0.4662 0.4667 0.4672
1425.000000 0.4676 0.4681 0.4703 0.4689 0.4691
1420.000000 0.4693 0.4694 0.4697 0.4697 0.4695
1415.000000 0.4694 0.4691 0.4690 0.4687 0.4682
1410.000000 0.4675 0.4669 0.4662 0.4656 0.4648
1405.000000 0.4639 0.4629 0.4616 0.4600 0.4544
1400.000000 0.4409 0.4245 0.4080 0.3916 0.3752
1395.000000 0.3587 0.3422 0.3256 0.3090 0.2925
1390.000000 0.2759 0.2593 0.2502 0.2450 0.2367
1385.000000 0.2274 0.2147 0.1987 0.2003 0.2019
1380.000000 0.2160 0.2333 0.2507 0.2680 0.2854
1375.000000 0.3028 0.3162 0.3242 0.3340 0.3436
1370.000000 0.3538 0.3684 0.3742 0.3880 0.3808
1365.000000 0.3821 0.3741 0.3604 0.3466 0.3329
1360.000000 0.3190 0.3053 0.2914 0.2776 0.2635
1355.000000 0.2498 0.2359 0.2219 0.2079 0.1939
1350.000000 0.1800 0.1659 0.1518 0.1363 0.1371
1345.000000 0.1465 0.1666 0.1873 0.2080 0.2287
1340.000000 0.2495 0.2702 0.2910 0.3119 0.3328
1335.000000 0.3537 0.3745 0.3924 0.4030 0.4103
1330.000000 0.4173 0.4243 0.4297 0.4340 0.4364
1325.000000 0.4381 0.4380 0.4379 0.4369 0.4351
1320.000000 0.4333 0.4312 0.4290 0.4266 0.4234
1315.000000 0.4179 0.4028 0.3847 0.3666 0.3482
1310.000000 0.3300 0.3119 0.2934 0.2752 0.2569
1305.000000 0.2384 0.2201 0.2016 0.1832 0.1646
1300.000000 0.1470 0.1413 0.1438 0.1439 0.1498
1295.000000 0.1645 0.1794 0.1944 0.2093 0.2242
1290.000000 0.2392 0.2542 0.2692 0.2842 0.2992
1285.000000 0.3000 0.2996 0.2995 0.2962 0.2933
1280.000000 0.2884 0.2810 0.2618 0.2362 0.2106
1275.000000 0.1850 0.1600 0.1587 0.1590 0.1608
1270.000000 0.1663 0.1744 0.1902 0.2184 0.2476
1265.000000 0.2768 0.3060 0.3237 0.3341 0.3602
1260.000000 0.3770 0.3937 0.4080 0.4204 0.4385
1255.000000 0.4566 0.4698 0.4768 0.4829 0.4891
1250.000000 0.4954 0.4996 0.5038 0.5080 0.5121
1245.000000 0.5162 0.5197 0.5227 0.5258 0.5289
1240.000000 0.5320 0.5349 0.5373 0.5398 0.5422
1235.000000 0.5447 0.5471 0.5494 0.5507 0.5518
1230.000000 0.5529 0.5540 0.5549 0.5556 0.5564
1225.000000 0.5571 0.5578 0.5585 0.5592 0.5600
1220.000000 0.5606 0.5615 0.5625 0.5635 0.5645
1215.000000 0.5656 0.5666 0.5677 0.5687 0.5697
1210.000000 0.5707 0.5718 0.5733 0.5753 0.5773
1205.000000 0.5793 0.5812 0.5828 0.5845 0.5860
1200.000000 0.5878 0.5895 0.5912 0.5928 0.5942
1195.000000 0.5952 0.5960 0.5968 0.5973 0.5977
1190.000000 0.5978 0.5954 0.5973 0.5965 0.5952
1185.000000 0.5936 0.5919 0.5901 0.5870 0.5836
1180.000000 0.5802 0.5738 0.5664 0.5541 0.5304
1175.000000 0.5005 0.4709 0.4412 0.4114 0.3816
1170.000000 0.3518 0.3218 0.2919 0.2619 0.2211
1165.000000 0.2201 0.2208 0.2234 0.2399 0.2715
1160.000000 0.3018 0.3322 0.3626 0.3930 0.4236
1155.000000 0.4542 0.4848 0.5155 0.5462 0.5769
1150.000000 0.5926 0.6038 0.6125 0.6228 0.6315
1145.000000 0.6376 0.6424 0.6451 0.6456 0.6488
1140.000000 0.6448 0.6430 0.6399 0.6345 0.6289
1135.000000 0.6181 0.6054 0.5917 0.5791 0.5584
1130.000000 0.4920 0.4321 0.3722 0.3122 0.2010
1125.000000 0.2043 0.2051 0.2198 0.2452 0.2707
1120.000000 0.2962 0.3216 0.3473 0.3729 0.3984
1115.000000 0.4220 0.4389 0.4535 0.4630 0.4680
1110.000000 0.4736 0.4712 0.4724 0.4730 0.4727
1105.000000 0.4704 0.4676 0.4616 0.4495 0.4350
1100.000000 0.4189 0.4057 0.3902 0.3755 0.3614
1095.000000 0.3474 0.3334 0.3194 0.3053 0.2912
1090.000000 0.2770 0.2628 0.2485 0.2344 0.2201
1085.000000 0.2058 0.1915 0.1772 0.1629 0.1484
1080.000000 0.1340 0.1209 0.1132 0.1053 0.0997
1075.000000 0.0957 0.0953 0.0945 0.0946 0.0960
1070.000000 0.1004 0.1086 0.1190 0.1286 0.1377
1065.000000 0.1466 0.1560 0.1669 0.1778 0.1895
1060.000000 0.2049 0.2211 0.2373 0.2535 0.2699
1055.000000 0.2862 0.3025 0.3190 0.3354 0.3518
1050.000000 0.3682 0.3849 0.4014 0.4180 0.4346
1045.000000 0.4512 0.4679 0.4847 0.5012 0.5181
1040.000000 0.5337 0.5454 0.5534 0.5634 0.5599
1035.000000 0.5607 0.5609 0.5603 0.5581 0.5557
1030.000000 0.5510 0.5462 0.5412 0.5326 0.5231
1025.000000 0.5046 0.4795 0.4552 0.4296 0.4138
1020.000000 0.3982 0.3824 0.3558 0.3254 0.2948
1015.000000 0.2642 0.2334 0.2027 0.1719 0.1411
1010.000000 0.1222 0.1108 0.1010 0.0932 0.0868
1005.000000 0.0806 0.0766 0.0729 0.0698 0.0678
1000.000000 0.0658 0.0639 0.0623 0.0607 0.0592
995.000000 0.0578 0.0564 0.0551 0.0539 0.0529
990.000000 0.0517 0.0507 0.0499 0.0497 0.0517
985.000000 0.0493 0.0502 0.0514 0.0538 0.0569
980.000000 0.0625 0.0682 0.0754 0.0833 0.0943
975.000000 0.1057 0.1177 0.1301 0.1404 0.1486
970.000000 0.1566 0.1646 0.1727 0.1808 0.1887
965.000000 0.1969 0.2050 0.2131 0.2213 0.2294
960.000000 0.2376 0.2458 0.2541 0.2622 0.2705
955.000000 0.2788 0.2870 0.2953 0.3035 0.3120
950.000000 0.3203 0.3287 0.3370 0.3459 0.3559
945.000000 0.3659 0.3754 0.3846 0.3939 0.4018
940.000000 0.4094 0.4156 0.4220 0.4281 0.4334
935.000000 0.4376 0.4412 0.4452 0.4612 0.4920
930.000000 0.4828 0.4654 0.4704 0.4769 0.4840
925.000000 0.4910 0.4973 0.5003 0.5030 0.5057
920.000000 0.5090 0.5123 0.5156 0.5190 0.5233
915.000000 0.5276 0.5319 0.5362 0.5406 0.5449
910.000000 0.5481 0.5515 0.5548 0.5581 0.5616
905.000000 0.5651 0.5686 0.5721 0.5752 0.5780
900.000000 0.5807 0.5835 0.5862 0.5880 0.5896
895.000000 0.5912 0.5918 0.5918 0.5918 0.5914
890.000000 0.5909 0.5930 0.5993 0.6041 0.6067
885.000000 0.6084 0.6097 0.6088 0.6110 0.6107
880.000000 0.6090 0.6032 0.5552 0.4922 0.4290
875.000000 0.3656 0.3021 0.2643 0.2883 0.3330
870.000000 0.3779 0.4228 0.4672 0.4927 0.5114
865.000000 0.5262 0.5401 0.5517 0.5622 0.5712
860.000000 0.5786 0.5842 0.5881 0.5912 0.5943
855.000000 0.5972 0.6003 0.6034 0.6066 0.6098
850.000000 0.6131 0.6164 0.6196 0.6250 0.6233
845.000000 0.6215 0.6190 0.6158 0.6082 0.5583
840.000000 0.5405 0.5304 0.5339 0.5386 0.5467
835.000000 0.5567 0.5660 0.5723 0.5766 0.5799
830.000000 0.5831 0.5852 0.5865 0.5878 0.5915
825.000000 0.5969 0.5962 0.5940 0.5955 0.5912
820.000000 0.5912 0.5939 0.5979 0.5995 0.5981
815.000000 0.5929 0.5897 0.5883 0.5873 0.5862
810.000000 0.5854 0.5850 0.5845 0.5841 0.5837
805.000000 0.5832 0.5826 0.5819 0.5812 0.5803
800.000000 0.5790 0.5777 0.5762 0.5742 0.5717
795.000000 0.5691 0.5665 0.5639 0.5612 0.5587
790.000000 0.5560 0.5535 0.5502 0.5440 0.5380
785.000000 0.5319 0.5258 0.5202 0.5153 0.5105
780.000000 0.5056 0.5007 0.4955 0.4896 0.4837
775.000000 0.4781 0.4739 0.4698 0.4657 0.4615
770.000000 0.4574 0.4536 0.4510 0.4485 0.4458
765.000000 0.4422 0.4387 0.4365 0.4343 0.4321
760.000000 0.4306 0.4292 0.4222 0.4269 0.4260
755.000000 0.4250 0.4241 0.4231 0.4225 0.4218
750.000000 0.4210 0.4205 0.4200 0.4197 0.4197
745.000000 0.4197 0.4202 0.4204 0.4200 0.4196
740.000000 0.4191 0.4187 0.4182 0.4177 0.4175
735.000000 0.4172 0.4170 0.4167 0.4165 0.4156
730.000000 0.4142 0.4127 0.4114 0.4100 0.4084
725.000000 0.4068 0.4053 0.4050 0.4022 0.4004
720.000000 0.3978 0.3952 0.3927 0.3900 0.3855
715.000000 0.3808 0.3760 0.3710 0.3662 0.3612
710.000000 0.3562 0.3516 0.3468 0.3420 0.3371
705.000000 0.3305 0.3239 0.3172 0.3104 0.3035
700.000000 0.2967 0.2895 0.2825 0.2768 0.2711
695.000000 0.2647 0.2582 0.2526 0.2480 0.2443
690.000000 0.2409 0.2370 0.2322 0.2282 0.2257
685.000000 0.2308 0.2285 0.2280 0.2267 0.2290
680.000000 0.2308 0.2329 0.2357 0.2385 0.2416
675.000000 0.2445 0.2482 0.2517 0.2559 0.2639
670.000000 0.2817 0.2887 0.2942 0.3012 0.3126
665.000000 0.3242 0.3304 0.3604 0.3380 0.3402
660.000000 0.3510 0.3616 0.3708 0.3734 0.3828
655.000000 0.4010 0.4059 0.4091 0.4142 0.4220
650.000000 0.4312 0.4386 0.4409 0.4449 0.4534
645.000000 0.4595 0.4604 0.4614 0.4628 0.4647
640.000000 0.4687 0.4731 0.4758 0.4769 0.4762
635.000000 0.4750 0.4735 0.4716 0.4703 0.4698
630.000000 0.4692 0.4688 0.4686 0.4683 0.4688
##END=
