##TITLE=Butric acid, 2-benzamido-4[(carboxymethyl)thio]-, dimethyl ester
##JCAMP-DX=4.24
##DATA TYPE=INFRARED SPECTRUM
##CLASS=COBLENTZ III
##ORIGIN=SOUTHERN RESEARCH INSTITUTE
##OWNER=Copyright (C) 1987 by the Coblentz Society
Collection (C) 2018 copyright by the U.S. Secretary of Commerce
on behalf of the United States of America. All rights reserved.
##DATE=1959/02/19
##NAMES=methyl 2-(benzoylamino)-4-[(2-methoxy-2-oxoethyl)sulfanyl]butanoate
##MOLFORM=C15 H19 N O5 S
##SOURCE REFERENCE=COBLENTZ NO. 8689
##$NIST ID=B6008689
##$NIST SOURCE=COBLENTZ
##$NIST IMAGE=cob8689
##SPECTROMETER/DATA SYSTEM=PERKIN-ELMER 21 (GRATING)
##INSTRUMENT PARAMETERS=FILTER CHANGE ABOUT 1090 CM^-^1
##STATE=SOLID (1 mg / 650 mg KBr DISC)
##SAMPLING PROCEDURE=TRANSMISSION
##RESOLUTION=2
##DATA PROCESSING=DIGITIZED BY COBLENTZ SOCIETY (BATCH II) FROM HARD COPY
##XUNITS=1/CM
##YUNITS=TRANSMITTANCE
##XFACTOR=1.0
##YFACTOR=1
##FIRSTX=601
##LASTX=4000
##FIRSTY=0.8665
##MAXX=4000
##MINX=601
##MAXY=0.9117
##MINY=0.1391
##NPOINTS=3400
##XYDATA=(X++(Y..Y))
601.000000 0.8665 0.8671 0.8676 0.8679 0.8682
606.000000 0.8684 0.8687 0.8689 0.8689 0.8690
611.000000 0.8678 0.8681 0.8675 0.8666 0.8655
616.000000 0.8644 0.8633 0.8613 0.8592 0.8571
621.000000 0.8550 0.8526 0.8495 0.8464 0.8415
626.000000 0.8360 0.8306 0.8256 0.8206 0.8156
631.000000 0.8106 0.8056 0.8000 0.7939 0.7878
636.000000 0.7817 0.7756 0.7694 0.7631 0.7569
641.000000 0.7507 0.7445 0.7374 0.7300 0.7226
646.000000 0.7152 0.7087 0.7032 0.6976 0.6920
651.000000 0.6864 0.6812 0.6759 0.6706 0.6658
656.000000 0.6629 0.6600 0.6572 0.6569 0.6577
661.000000 0.6550 0.6612 0.6650 0.6723 0.6803
666.000000 0.6905 0.7017 0.7088 0.7131 0.7152
671.000000 0.7170 0.7182 0.7194 0.7288 0.7370
676.000000 0.7490 0.7639 0.7714 0.7757 0.7783
681.000000 0.7800 0.7803 0.7776 0.7799 0.7791
686.000000 0.7764 0.7705 0.7577 0.7307 0.7000
691.000000 0.6693 0.6386 0.6079 0.5772 0.5465
696.000000 0.5158 0.5054 0.5057 0.5051 0.5154
701.000000 0.5479 0.5803 0.6127 0.6451 0.6776
706.000000 0.7100 0.7168 0.7163 0.7148 0.7146
711.000000 0.7132 0.7115 0.6918 0.6712 0.6506
716.000000 0.6301 0.6095 0.5890 0.5684 0.5479
721.000000 0.5273 0.5067 0.4862 0.4656 0.4451
726.000000 0.4243 0.4236 0.4243 0.4244 0.4665
731.000000 0.5228 0.5792 0.6355 0.6919 0.7482
736.000000 0.7793 0.7949 0.8076 0.8158 0.8206
741.000000 0.8254 0.8271 0.8288 0.8305 0.8328
746.000000 0.8354 0.8439 0.8478 0.8516 0.8546
751.000000 0.8572 0.8596 0.8599 0.8602 0.8605
756.000000 0.8635 0.8607 0.8604 0.8588 0.8550
761.000000 0.8510 0.8468 0.8424 0.8380 0.8333
766.000000 0.8285 0.8237 0.8185 0.8131 0.8075
771.000000 0.8006 0.7936 0.7635 0.7606 0.7602
776.000000 0.7891 0.8130 0.8220 0.8281 0.8336
781.000000 0.8374 0.8411 0.8438 0.8460 0.8483
786.000000 0.8501 0.8507 0.8499 0.8456 0.8412
791.000000 0.8371 0.8337 0.8303 0.8274 0.8253
796.000000 0.8232 0.8222 0.8219 0.8216 0.8213
801.000000 0.8208 0.8187 0.8151 0.8113 0.8083
806.000000 0.8053 0.8022 0.8004 0.8004 0.8013
811.000000 0.8119 0.8345 0.8570 0.8788 0.8805
816.000000 0.8813 0.8818 0.8820 0.8821 0.8822
821.000000 0.8784 0.8820 0.8815 0.8807 0.8798
826.000000 0.8790 0.8774 0.8758 0.8742 0.8727
831.000000 0.8709 0.8682 0.8655 0.8628 0.8598
836.000000 0.8569 0.8540 0.8510 0.8483 0.8457
841.000000 0.8431 0.8405 0.8379 0.8350 0.8321
846.000000 0.8292 0.8263 0.8236 0.8233 0.8248
851.000000 0.8267 0.8289 0.8325 0.8359 0.8380
856.000000 0.8393 0.8398 0.8396 0.8395 0.8389
861.000000 0.8375 0.8338 0.8302 0.8255 0.8177
866.000000 0.8087 0.8008 0.7936 0.7766 0.7596
871.000000 0.7426 0.7255 0.7106 0.7028 0.7026
876.000000 0.7058 0.7311 0.7565 0.7818 0.8071
881.000000 0.8325 0.8497 0.8520 0.8572 0.8547
886.000000 0.8553 0.8552 0.8550 0.8548 0.8545
891.000000 0.8540 0.8536 0.8532 0.8527 0.8522
896.000000 0.8517 0.8512 0.8507 0.8501 0.8496
901.000000 0.8491 0.8486 0.8482 0.8478 0.8474
906.000000 0.8470 0.8465 0.8461 0.8457 0.8445
911.000000 0.8432 0.8409 0.8380 0.8354 0.8344
916.000000 0.8346 0.8350 0.8397 0.8452 0.8482
921.000000 0.8493 0.8492 0.8489 0.8484 0.8479
926.000000 0.8475 0.8469 0.8464 0.8420 0.8343
931.000000 0.8260 0.8191 0.8136 0.8095 0.8053
936.000000 0.8007 0.7982 0.7966 0.7905 0.7936
941.000000 0.7936 0.7936 0.7945 0.7956 0.7975
946.000000 0.8000 0.8025 0.8051 0.8093 0.8178
951.000000 0.8336 0.8433 0.8471 0.8483 0.8487
956.000000 0.8484 0.8481 0.8477 0.8473 0.8469
961.000000 0.8463 0.8436 0.8404 0.8367 0.8328
966.000000 0.8319 0.8311 0.8303 0.8295 0.8277
971.000000 0.8230 0.8160 0.8081 0.7997 0.7913
976.000000 0.7834 0.7767 0.7700 0.7624 0.7441
981.000000 0.7321 0.7224 0.7128 0.7039 0.6952
986.000000 0.6875 0.6818 0.6761 0.6703 0.6581
991.000000 0.6564 0.6515 0.6542 0.6543 0.6545
996.000000 0.6546 0.6564 0.6706 0.6858 0.6940
1001.000000 0.6940 0.6912 0.6865 0.6807 0.6747
1006.000000 0.6687 0.6626 0.6566 0.6505 0.6445
1011.000000 0.6353 0.6368 0.6369 0.6769 0.7217
1016.000000 0.7535 0.7621 0.7687 0.7716 0.7737
1021.000000 0.7750 0.7749 0.7743 0.7729 0.7705
1026.000000 0.7677 0.7637 0.7607 0.7584 0.7574
1031.000000 0.7575 0.7590 0.7836 0.7873 0.7877
1036.000000 0.7907 0.7872 0.7866 0.7852 0.7830
1041.000000 0.7803 0.7744 0.7677 0.7656 0.7662
1046.000000 0.7668 0.7674 0.7682 0.7698 0.7713
1051.000000 0.7724 0.7726 0.7723 0.7720 0.7717
1056.000000 0.7713 0.7708 0.7700 0.7692 0.7680
1061.000000 0.7667 0.7655 0.7642 0.7627 0.7601
1066.000000 0.7576 0.7551 0.7524 0.7491 0.7459
1071.000000 0.7426 0.7386 0.7339 0.7291 0.7244
1076.000000 0.7196 0.7148 0.7100 0.7052 0.7005
1081.000000 0.6956 0.6891 0.6845 0.6780 0.6718
1086.000000 0.6663 0.6595 0.6623 0.6914 0.6910
1091.000000 0.6761 0.6579 0.6398 0.6217 0.6156
1096.000000 0.6157 0.6151 0.6334 0.6633 0.6932
1101.000000 0.7192 0.7224 0.7212 0.7216 0.7212
1106.000000 0.7208 0.7199 0.7184 0.7169 0.7146
1111.000000 0.7124 0.7101 0.7078 0.7051 0.7017
1116.000000 0.6983 0.6948 0.6910 0.6869 0.6828
1121.000000 0.6786 0.6742 0.6692 0.6642 0.6592
1126.000000 0.6494 0.6123 0.5902 0.5685 0.5502
1131.000000 0.5403 0.5305 0.5154 0.4878 0.4542
1136.000000 0.4207 0.3871 0.3535 0.3200 0.2864
1141.000000 0.2808 0.2846 0.2857 0.3115 0.3512
1146.000000 0.3909 0.4306 0.4702 0.5099 0.5658
1151.000000 0.5735 0.5746 0.5745 0.5773 0.5742
1156.000000 0.5740 0.5737 0.5734 0.5730 0.5709
1161.000000 0.5618 0.5541 0.5470 0.5393 0.5315
1166.000000 0.5238 0.5156 0.4905 0.4570 0.4234
1171.000000 0.3568 0.3606 0.3599 0.3599 0.3839
1176.000000 0.4122 0.4404 0.4687 0.4970 0.5253
1181.000000 0.5535 0.5818 0.5891 0.5926 0.5914
1186.000000 0.5936 0.5934 0.5932 0.5928 0.5924
1191.000000 0.5917 0.5909 0.5900 0.5891 0.5879
1196.000000 0.5867 0.5856 0.5842 0.5828 0.5775
1201.000000 0.5629 0.5483 0.5336 0.5190 0.5043
1206.000000 0.4897 0.4751 0.4604 0.4458 0.4312
1211.000000 0.4165 0.4019 0.3873 0.3725 0.3660
1216.000000 0.3598 0.3536 0.3472 0.3405 0.3339
1221.000000 0.2162 0.2070 0.2040 0.2011 0.2044
1226.000000 0.2290 0.2601 0.2912 0.3223 0.3535
1231.000000 0.3846 0.4157 0.4468 0.4667 0.4656
1236.000000 0.4674 0.4676 0.4340 0.3608 0.3661
1241.000000 0.3660 0.4036 0.4748 0.5346 0.5600
1246.000000 0.5747 0.5860 0.5934 0.6008 0.6073
1251.000000 0.6135 0.6180 0.6209 0.6238 0.6252
1256.000000 0.6259 0.6266 0.6267 0.6316 0.6254
1261.000000 0.6240 0.6142 0.6059 0.6000 0.5942
1266.000000 0.5881 0.5819 0.5758 0.5696 0.5621
1271.000000 0.5537 0.5454 0.5365 0.5275 0.5184
1276.000000 0.5077 0.4965 0.4853 0.4751 0.4655
1281.000000 0.4560 0.4372 0.4174 0.4013 0.3893
1286.000000 0.3780 0.3694 0.3609 0.3492 0.3373
1291.000000 0.3320 0.3351 0.3314 0.3316 0.3325
1296.000000 0.3381 0.3453 0.3525 0.3623 0.3608
1301.000000 0.3604 0.3582 0.3549 0.3515 0.3481
1306.000000 0.3448 0.3442 0.3455 0.3435 0.3836
1311.000000 0.4049 0.4263 0.4473 0.4667 0.4901
1316.000000 0.5000 0.5099 0.5198 0.5297 0.5396
1321.000000 0.5494 0.5573 0.5651 0.5730 0.5803
1326.000000 0.5850 0.5898 0.5946 0.5994 0.6058
1331.000000 0.6139 0.6221 0.6321 0.6422 0.6524
1336.000000 0.6625 0.6764 0.6863 0.6898 0.6914
1341.000000 0.6930 0.6945 0.6953 0.6995 0.6967
1346.000000 0.6941 0.6915 0.6863 0.6830 0.6797
1351.000000 0.6766 0.6742 0.6717 0.6701 0.6660
1356.000000 0.6693 0.6700 0.6746 0.6819 0.6879
1361.000000 0.6933 0.6969 0.7027 0.6991 0.6989
1366.000000 0.6979 0.6971 0.6941 0.6881 0.6791
1371.000000 0.6680 0.6597 0.6515 0.6438 0.6353
1376.000000 0.6212 0.5657 0.5141 0.5137 0.5137
1381.000000 0.5408 0.5691 0.5973 0.6256 0.6539
1386.000000 0.6821 0.7071 0.7174 0.7243 0.7312
1391.000000 0.7371 0.7416 0.7460 0.7501 0.7533
1396.000000 0.7565 0.7592 0.7600 0.7607 0.7615
1401.000000 0.7621 0.7618 0.7614 0.7630 0.7600
1406.000000 0.7589 0.7579 0.7568 0.7557 0.7545
1411.000000 0.7534 0.7522 0.7506 0.7490 0.7308
1416.000000 0.7104 0.6899 0.6698 0.6700 0.6720
1421.000000 0.6818 0.6915 0.7012 0.7109 0.7207
1426.000000 0.7200 0.7187 0.7229 0.7143 0.7092
1431.000000 0.6999 0.6922 0.6859 0.6658 0.6283
1436.000000 0.5907 0.5532 0.5156 0.4781 0.4573
1441.000000 0.4516 0.4462 0.4384 0.4354 0.4317
1446.000000 0.4353 0.4361 0.4377 0.4398 0.4426
1451.000000 0.4454 0.4482 0.4520 0.4912 0.5305
1456.000000 0.5697 0.5767 0.5807 0.5846 0.5885
1461.000000 0.5926 0.5976 0.6026 0.6076 0.6178
1466.000000 0.6295 0.6388 0.6481 0.6581 0.6697
1471.000000 0.6813 0.6917 0.7021 0.7104 0.7166
1476.000000 0.7218 0.7236 0.7254 0.7271 0.7292
1481.000000 0.7280 0.7278 0.7274 0.7253 0.7223
1486.000000 0.7177 0.7135 0.7027 0.6806 0.6596
1491.000000 0.6386 0.6175 0.5981 0.5797 0.5902
1496.000000 0.5896 0.6029 0.6307 0.6585 0.6862
1501.000000 0.7140 0.7418 0.7511 0.7511 0.7553
1506.000000 0.7113 0.7025 0.6996 0.6937 0.6874
1511.000000 0.6797 0.6687 0.6616 0.6538 0.6439
1516.000000 0.6342 0.6252 0.6162 0.6011 0.5818
1521.000000 0.5421 0.5289 0.5099 0.4964 0.4847
1526.000000 0.4744 0.4646 0.4548 0.4463 0.4383
1531.000000 0.4304 0.4186 0.4039 0.3910 0.3781
1536.000000 0.3652 0.3523 0.3389 0.2716 0.2630
1541.000000 0.2688 0.2693 0.2752 0.2946 0.3158
1546.000000 0.3305 0.3371 0.3418 0.3454 0.3489
1551.000000 0.3784 0.4139 0.4494 0.4849 0.5204
1556.000000 0.5559 0.5814 0.6074 0.6228 0.6420
1561.000000 0.6480 0.6523 0.6551 0.6573 0.6592
1566.000000 0.6610 0.6624 0.6721 0.6637 0.6632
1571.000000 0.6607 0.6580 0.6544 0.6518 0.6491
1576.000000 0.6448 0.6378 0.6015 0.5370 0.5362
1581.000000 0.5355 0.5382 0.5741 0.6100 0.6459
1586.000000 0.6818 0.7099 0.7222 0.7244 0.7253
1591.000000 0.7256 0.7259 0.7305 0.7085 0.6740
1596.000000 0.6395 0.6369 0.6375 0.6384 0.6394
1601.000000 0.6403 0.6409 0.6416 0.6419 0.6397
1606.000000 0.6374 0.6350 0.6326 0.6302 0.6276
1611.000000 0.6233 0.6192 0.6151 0.6098 0.5953
1616.000000 0.5720 0.5707 0.5694 0.5684 0.5674
1621.000000 0.5627 0.5277 0.4926 0.4575 0.4225
1626.000000 0.3874 0.3523 0.3173 0.2822 0.2471
1631.000000 0.2121 0.1770 0.1421 0.1409 0.1391
1636.000000 0.1811 0.2184 0.2556 0.2929 0.3302
1641.000000 0.3675 0.3918 0.3985 0.4075 0.4119
1646.000000 0.4154 0.4309 0.4501 0.4692 0.4883
1651.000000 0.5074 0.5266 0.5457 0.5648 0.5785
1656.000000 0.5833 0.5874 0.5897 0.5919 0.5937
1661.000000 0.5970 0.6064 0.6309 0.6582 0.6730
1666.000000 0.6811 0.6883 0.6949 0.7009 0.7055
1671.000000 0.7100 0.7146 0.7199 0.7258 0.7315
1676.000000 0.7357 0.7413 0.7410 0.7410 0.7403
1681.000000 0.7395 0.7387 0.7379 0.7371 0.7359
1686.000000 0.7345 0.7329 0.7313 0.7294 0.7274
1691.000000 0.7219 0.7143 0.7079 0.7005 0.6913
1696.000000 0.6838 0.6764 0.6653 0.6539 0.6467
1701.000000 0.6414 0.6376 0.6338 0.6301 0.6263
1706.000000 0.6226 0.6190 0.6153 0.6116 0.6077
1711.000000 0.6010 0.5699 0.5388 0.5077 0.4400
1716.000000 0.4196 0.4060 0.3885 0.3710 0.3508
1721.000000 0.3287 0.3098 0.2691 0.2356 0.2332
1726.000000 0.2325 0.2327 0.2330 0.2385 0.2523
1731.000000 0.2662 0.2801 0.2940 0.2956 0.2945
1736.000000 0.2822 0.2698 0.2574 0.2451 0.2353
1741.000000 0.2354 0.2357 0.2362 0.2581 0.2718
1746.000000 0.2856 0.2993 0.3101 0.3106 0.3111
1751.000000 0.3118 0.3124 0.3138 0.3162 0.4649
1756.000000 0.4765 0.5190 0.5304 0.5403 0.5491
1761.000000 0.5574 0.5666 0.5772 0.5874 0.6087
1766.000000 0.6156 0.6242 0.6327 0.6638 0.6762
1771.000000 0.6845 0.6928 0.6987 0.7036 0.7086
1776.000000 0.7136 0.7186 0.7236 0.7286 0.7327
1781.000000 0.7368 0.7409 0.7443 0.7470 0.7497
1786.000000 0.7524 0.7557 0.7590 0.7623 0.7656
1791.000000 0.7690 0.7737 0.7783 0.7828 0.7846
1796.000000 0.7864 0.7883 0.7901 0.7920 0.7937
1801.000000 0.7953 0.7969 0.7986 0.8002 0.8018
1806.000000 0.8034 0.8050 0.8066 0.8082 0.8098
1811.000000 0.8114 0.8129 0.8146 0.8163 0.8181
1816.000000 0.8198 0.8216 0.8233 0.8251 0.8262
1821.000000 0.8274 0.8285 0.8297 0.8308 0.8319
1826.000000 0.8331 0.8342 0.8353 0.8364 0.8374
1831.000000 0.8384 0.8394 0.8405 0.8415 0.8425
1836.000000 0.8435 0.8445 0.8455 0.8463 0.8472
1841.000000 0.8480 0.8489 0.8497 0.8505 0.8514
1846.000000 0.8522 0.8531 0.8539 0.8547 0.8556
1851.000000 0.8564 0.8573 0.8582 0.8591 0.8601
1856.000000 0.8610 0.8620 0.8629 0.8639 0.8648
1861.000000 0.8658 0.8667 0.8677 0.8685 0.8693
1866.000000 0.8702 0.8710 0.8718 0.8721 0.8723
1871.000000 0.8725 0.8727 0.8728 0.8730 0.8732
1876.000000 0.8733 0.8735 0.8736 0.8738 0.8742
1881.000000 0.8747 0.8751 0.8756 0.8761 0.8766
1886.000000 0.8771 0.8775 0.8778 0.8781 0.8784
1891.000000 0.8787 0.8790 0.8793 0.8796 0.8799
1896.000000 0.8799 0.8798 0.8798 0.8798 0.8798
1901.000000 0.8798 0.8798 0.8798 0.8797 0.8791
1906.000000 0.8780 0.8770 0.8758 0.8745 0.8731
1911.000000 0.8718 0.8710 0.8708 0.8705 0.8710
1916.000000 0.8715 0.8721 0.8727 0.8732 0.8738
1921.000000 0.8745 0.8754 0.8762 0.8770 0.8777
1926.000000 0.8782 0.8788 0.8793 0.8799 0.8804
1931.000000 0.8810 0.8815 0.8821 0.8826 0.8832
1936.000000 0.8837 0.8842 0.8848 0.8853 0.8858
1941.000000 0.8864 0.8868 0.8873 0.8878 0.8882
1946.000000 0.8887 0.8891 0.8896 0.8901 0.8905
1951.000000 0.8910 0.8915 0.8917 0.8919 0.8921
1956.000000 0.8923 0.8924 0.8919 0.8912 0.8905
1961.000000 0.8898 0.8891 0.8884 0.8877 0.8857
1966.000000 0.8836 0.8815 0.8798 0.8783 0.8768
1971.000000 0.8761 0.8754 0.8747 0.8739 0.8732
1976.000000 0.8725 0.8718 0.8712 0.8706 0.8700
1981.000000 0.8693 0.8688 0.8692 0.8696 0.8700
1986.000000 0.8704 0.8708 0.8712 0.8716 0.8731
1991.000000 0.8748 0.8765 0.8783 0.8801 0.8819
1996.000000 0.8834 0.8845 0.8852 0.8858 0.8864
2001.000000 0.8870 0.8876 0.8881 0.8887 0.8893
2006.000000 0.8897 0.8900 0.8903 0.8906 0.8909
2011.000000 0.8912 0.8912 0.8913 0.8914 0.8914
2016.000000 0.8915 0.8916 0.8917 0.8917 0.8921
2021.000000 0.8927 0.8932 0.8938 0.8953 0.8969
2026.000000 0.8977 0.8984 0.8991 0.8998 0.9001
2031.000000 0.9002 0.9003 0.9004 0.9004 0.9003
2036.000000 0.9002 0.9002 0.9001 0.9000 0.8999
2041.000000 0.8999 0.8998 0.8997 0.8996 0.8996
2046.000000 0.8995 0.8994 0.8993 0.8992 0.8992
2051.000000 0.8991 0.8990 0.8989 0.8988 0.8988
2056.000000 0.8987 0.8986 0.8986 0.8985 0.8984
2061.000000 0.8983 0.8983 0.8982 0.8981 0.8980
2066.000000 0.8979 0.8978 0.8977 0.8976 0.8975
2071.000000 0.8974 0.8973 0.8972 0.8972 0.8971
2076.000000 0.8970 0.8970 0.8971 0.8972 0.8973
2081.000000 0.8973 0.8974 0.8975 0.8975 0.8977
2086.000000 0.8979 0.8981 0.8982 0.8984 0.8986
2091.000000 0.8988 0.8990 0.8992 0.8994 0.8995
2096.000000 0.8997 0.8999 0.9001 0.9003 0.9005
2101.000000 0.9006 0.9007 0.9008 0.9009 0.9010
2106.000000 0.9011 0.9012 0.9012 0.9013 0.9014
2111.000000 0.9015 0.9016 0.9017 0.9018 0.9018
2116.000000 0.9019 0.9020 0.9021 0.9022 0.9022
2121.000000 0.9023 0.9024 0.9025 0.9026 0.9026
2126.000000 0.9027 0.9028 0.9030 0.9034 0.9037
2131.000000 0.9040 0.9041 0.9042 0.9043 0.9045
2136.000000 0.9046 0.9047 0.9048 0.9049 0.9051
2141.000000 0.9052 0.9053 0.9055 0.9056 0.9057
2146.000000 0.9059 0.9060 0.9062 0.9063 0.9064
2151.000000 0.9066 0.9067 0.9068 0.9070 0.9072
2156.000000 0.9074 0.9075 0.9077 0.9079 0.9081
2161.000000 0.9082 0.9082 0.9083 0.9083 0.9083
2166.000000 0.9083 0.9084 0.9084 0.9084 0.9084
2171.000000 0.9083 0.9083 0.9082 0.9081 0.9080
2176.000000 0.9079 0.9079 0.9078 0.9077 0.9076
2181.000000 0.9076 0.9076 0.9076 0.9077 0.9077
2186.000000 0.9077 0.9077 0.9078 0.9078 0.9078
2191.000000 0.9078 0.9079 0.9079 0.9079 0.9117
2196.000000 0.9077 0.9076 0.9075 0.9074 0.9072
2201.000000 0.9071 0.9070 0.9068 0.9067 0.9066
2206.000000 0.9065 0.9063 0.9062 0.9061 0.9060
2211.000000 0.9059 0.9058 0.9057 0.9057 0.9056
2216.000000 0.9055 0.9054 0.9054 0.9053 0.9052
2221.000000 0.9051 0.9051 0.9050 0.9049 0.9049
2226.000000 0.9049 0.9050 0.9050 0.9051 0.9051
2231.000000 0.9052 0.9052 0.9053 0.9053 0.9053
2236.000000 0.9054 0.9054 0.9055 0.9055 0.9056
2241.000000 0.9056 0.9057 0.9057 0.9057 0.9055
2246.000000 0.9054 0.9052 0.9051 0.9049 0.9048
2251.000000 0.9046 0.9045 0.9043 0.9042 0.9040
2256.000000 0.9039 0.9037 0.9036 0.9034 0.9033
2261.000000 0.9031 0.9031 0.9032 0.9032 0.9032
2266.000000 0.9032 0.9033 0.9033 0.9033 0.9033
2271.000000 0.9034 0.9034 0.9034 0.9033 0.9033
2276.000000 0.9033 0.9033 0.9033 0.9032 0.9032
2281.000000 0.9032 0.9032 0.9032 0.9032 0.9032
2286.000000 0.9031 0.9031 0.9031 0.9031 0.9031
2291.000000 0.9031 0.9031 0.9031 0.9030 0.9030
2296.000000 0.9030 0.9030 0.9030 0.9030 0.9030
2301.000000 0.9026 0.9023 0.9019 0.9016 0.9012
2306.000000 0.9004 0.8995 0.8986 0.8978 0.8974
2311.000000 0.8970 0.8965 0.8961 0.8961 0.8961
2316.000000 0.8961 0.8962 0.8962 0.8962 0.8962
2321.000000 0.8961 0.8961 0.8961 0.8961 0.8961
2326.000000 0.8960 0.8960 0.8960 0.8959 0.8959
2331.000000 0.8958 0.8958 0.8958 0.8957 0.8957
2336.000000 0.8956 0.8956 0.8956 0.8956 0.8956
2341.000000 0.8956 0.8957 0.8957 0.8957 0.8957
2346.000000 0.8958 0.8958 0.8958 0.8958 0.8959
2351.000000 0.8959 0.8959 0.8959 0.8960 0.8960
2356.000000 0.8961 0.8962 0.8963 0.8964 0.8964
2361.000000 0.8965 0.8966 0.8967 0.8968 0.8969
2366.000000 0.8970 0.8970 0.8970 0.8970 0.8970
2371.000000 0.8969 0.8969 0.8969 0.8968 0.8968
2376.000000 0.8968 0.8967 0.8967 0.8967 0.8966
2381.000000 0.8967 0.8968 0.8969 0.8969 0.8970
2386.000000 0.8971 0.8969 0.8966 0.8962 0.8959
2391.000000 0.8956 0.8953 0.8949 0.8946 0.8943
2396.000000 0.8939 0.8934 0.8930 0.8926 0.8921
2401.000000 0.8917 0.8913 0.8908 0.8904 0.8900
2406.000000 0.8894 0.8889 0.8884 0.8879 0.8874
2411.000000 0.8869 0.8863 0.8858 0.8851 0.8842
2416.000000 0.8833 0.8824 0.8815 0.8808 0.8803
2421.000000 0.8799 0.8795 0.8791 0.8791 0.8791
2426.000000 0.8791 0.8791 0.8796 0.8801 0.8805
2431.000000 0.8810 0.8817 0.8825 0.8833 0.8841
2436.000000 0.8849 0.8855 0.8862 0.8868 0.8875
2441.000000 0.8878 0.8877 0.8874 0.8867 0.8860
2446.000000 0.8853 0.8847 0.8835 0.8824 0.8812
2451.000000 0.8801 0.8789 0.8778 0.8766 0.8757
2456.000000 0.8752 0.8746 0.8744 0.8748 0.8752
2461.000000 0.8760 0.8774 0.8787 0.8811 0.8835
2466.000000 0.8836 0.8837 0.8838 0.8839 0.8839
2471.000000 0.8840 0.8841 0.8842 0.8843 0.8844
2476.000000 0.8845 0.8845 0.8846 0.8847 0.8848
2481.000000 0.8849 0.8850 0.8850 0.8851 0.8852
2486.000000 0.8853 0.8854 0.8855 0.8856 0.8856
2491.000000 0.8855 0.8850 0.8845 0.8840 0.8835
2496.000000 0.8830 0.8825 0.8820 0.8814 0.8804
2501.000000 0.8798 0.8795 0.8792 0.8790 0.8787
2506.000000 0.8785 0.8782 0.8779 0.8778 0.8780
2511.000000 0.8781 0.8782 0.8789 0.8796 0.8807
2516.000000 0.8819 0.8831 0.8850 0.8864 0.8878
2521.000000 0.8884 0.8888 0.8892 0.8892 0.8892
2526.000000 0.8892 0.8891 0.8889 0.8887 0.8884
2531.000000 0.8882 0.8879 0.8877 0.8875 0.8873
2536.000000 0.8870 0.8868 0.8866 0.8864 0.8861
2541.000000 0.8859 0.8855 0.8849 0.8843 0.8836
2546.000000 0.8830 0.8823 0.8816 0.8811 0.8806
2551.000000 0.8801 0.8795 0.8790 0.8785 0.8780
2556.000000 0.8775 0.8773 0.8781 0.8786 0.8790
2561.000000 0.8795 0.8799 0.8803 0.8807 0.8809
2566.000000 0.8812 0.8814 0.8815 0.8813 0.8811
2571.000000 0.8809 0.8805 0.8800 0.8796 0.8792
2576.000000 0.8786 0.8780 0.8774 0.8768 0.8762
2581.000000 0.8757 0.8752 0.8747 0.8745 0.8752
2586.000000 0.8762 0.8771 0.8780 0.8789 0.8797
2591.000000 0.8806 0.8814 0.8823 0.8830 0.8832
2596.000000 0.8834 0.8833 0.8833 0.8832 0.8832
2601.000000 0.8830 0.8829 0.8827 0.8826 0.8824
2606.000000 0.8823 0.8821 0.8820 0.8818 0.8817
2611.000000 0.8815 0.8814 0.8812 0.8810 0.8809
2616.000000 0.8807 0.8806 0.8804 0.8803 0.8800
2621.000000 0.8796 0.8792 0.8788 0.8784 0.8773
2626.000000 0.8761 0.8750 0.8743 0.8741 0.8739
2631.000000 0.8737 0.8735 0.8733 0.8731 0.8729
2636.000000 0.8727 0.8726 0.8724 0.8723 0.8721
2641.000000 0.8720 0.8718 0.8717 0.8715 0.8714
2646.000000 0.8713 0.8711 0.8710 0.8709 0.8707
2651.000000 0.8706 0.8704 0.8703 0.8702 0.8700
2656.000000 0.8699 0.8698 0.8696 0.8694 0.8692
2661.000000 0.8690 0.8689 0.8687 0.8685 0.8683
2666.000000 0.8681 0.8680 0.8678 0.8678 0.8680
2671.000000 0.8682 0.8684 0.8686 0.8688 0.8690
2676.000000 0.8692 0.8695 0.8697 0.8699 0.8702
2681.000000 0.8704 0.8706 0.8709 0.8711 0.8713
2686.000000 0.8716 0.8718 0.8720 0.8721 0.8722
2691.000000 0.8724 0.8725 0.8726 0.8727 0.8728
2696.000000 0.8729 0.8730 0.8730 0.8730 0.8731
2701.000000 0.8731 0.8729 0.8728 0.8727 0.8725
2706.000000 0.8723 0.8721 0.8719 0.8717 0.8715
2711.000000 0.8713 0.8711 0.8708 0.8704 0.8700
2716.000000 0.8696 0.8692 0.8688 0.8684 0.8680
2721.000000 0.8676 0.8672 0.8669 0.8666 0.8664
2726.000000 0.8661 0.8658 0.8656 0.8653 0.8650
2731.000000 0.8647 0.8644 0.8642 0.8638 0.8634
2736.000000 0.8629 0.8625 0.8620 0.8616 0.8611
2741.000000 0.8607 0.8602 0.8598 0.8593 0.8589
2746.000000 0.8585 0.8581 0.8577 0.8573 0.8570
2751.000000 0.8567 0.8564 0.8561 0.8558 0.8556
2756.000000 0.8553 0.8550 0.8548 0.8545 0.8542
2761.000000 0.8540 0.8537 0.8535 0.8533 0.8530
2766.000000 0.8528 0.8525 0.8523 0.8520 0.8517
2771.000000 0.8515 0.8512 0.8509 0.8507 0.8504
2776.000000 0.8502 0.8499 0.8497 0.8494 0.8491
2781.000000 0.8485 0.8478 0.8469 0.8458 0.8448
2786.000000 0.8438 0.8428 0.8418 0.8408 0.8396
2791.000000 0.8385 0.8373 0.8361 0.8350 0.8338
2796.000000 0.8327 0.8316 0.8305 0.8294 0.8282
2801.000000 0.8271 0.8263 0.8255 0.8246 0.8238
2806.000000 0.8230 0.8222 0.8214 0.8206 0.8193
2811.000000 0.8180 0.8167 0.8154 0.8143 0.8134
2816.000000 0.8124 0.8120 0.8119 0.8118 0.8118
2821.000000 0.8118 0.8120 0.8122 0.8125 0.8127
2826.000000 0.8127 0.8123 0.8113 0.8090 0.8068
2831.000000 0.8037 0.7997 0.7944 0.7898 0.7885
2836.000000 0.7871 0.7858 0.7844 0.7833 0.7823
2841.000000 0.7813 0.7802 0.7792 0.7782 0.7771
2846.000000 0.7761 0.7751 0.7742 0.7735 0.7729
2851.000000 0.7722 0.7715 0.7711 0.7709 0.7708
2856.000000 0.7713 0.7709 0.7715 0.7721 0.7727
2861.000000 0.7733 0.7741 0.7750 0.7759 0.7769
2866.000000 0.7780 0.7789 0.7796 0.7803 0.7804
2871.000000 0.7804 0.7800 0.7796 0.7792 0.7788
2876.000000 0.7782 0.7775 0.7769 0.7768 0.7776
2881.000000 0.7784 0.7792 0.7798 0.7804 0.7810
2886.000000 0.7814 0.7817 0.7819 0.7817 0.7815
2891.000000 0.7813 0.7807 0.7800 0.7792 0.7784
2896.000000 0.7776 0.7765 0.7755 0.7745 0.7734
2901.000000 0.7720 0.7704 0.7688 0.7671 0.7650
2906.000000 0.7630 0.7611 0.7592 0.7573 0.7554
2911.000000 0.7536 0.7515 0.7493 0.7472 0.7450
2916.000000 0.7428 0.7407 0.7385 0.7363 0.7343
2921.000000 0.7322 0.7302 0.7282 0.7262 0.7243
2926.000000 0.7225 0.7207 0.7190 0.7172 0.7155
2931.000000 0.7137 0.7119 0.7102 0.7087 0.7074
2936.000000 0.7061 0.7047 0.7034 0.7020 0.7007
2941.000000 0.6994 0.6983 0.6973 0.6962 0.6952
2946.000000 0.6941 0.6931 0.6921 0.6910 0.6902
2951.000000 0.6896 0.6858 0.6889 0.6893 0.6899
2956.000000 0.6905 0.6912 0.6918 0.6925 0.6939
2961.000000 0.6954 0.6969 0.6987 0.7013 0.7042
2966.000000 0.7081 0.7128 0.7175 0.7222 0.7272
2971.000000 0.7375 0.7438 0.7487 0.7507 0.7527
2976.000000 0.7542 0.7534 0.7548 0.7545 0.7539
2981.000000 0.7530 0.7516 0.7501 0.7487 0.7471
2986.000000 0.7454 0.7438 0.7423 0.7409 0.7396
2991.000000 0.7382 0.7369 0.7357 0.7348 0.7338
2996.000000 0.7329 0.7319 0.7310 0.7296 0.7280
3001.000000 0.7265 0.7239 0.7206 0.7175 0.7145
3006.000000 0.7114 0.7090 0.7068 0.7047 0.7036
3011.000000 0.6987 0.7047 0.7054 0.7060 0.7067
3016.000000 0.7073 0.7078 0.7084 0.7089 0.7095
3021.000000 0.7101 0.7107 0.7113 0.7119 0.7128
3026.000000 0.7137 0.7146 0.7154 0.7162 0.7170
3031.000000 0.7181 0.7192 0.7197 0.7201 0.7204
3036.000000 0.7206 0.7203 0.7200 0.7198 0.7195
3041.000000 0.7192 0.7190 0.7191 0.7194 0.7197
3046.000000 0.7208 0.7219 0.7231 0.7241 0.7249
3051.000000 0.7282 0.7257 0.7252 0.7246 0.7237
3056.000000 0.7227 0.7218 0.7208 0.7199 0.7191
3061.000000 0.7183 0.7174 0.7166 0.7158 0.7150
3066.000000 0.7142 0.7135 0.7128 0.7121 0.7114
3071.000000 0.7107 0.7101 0.7101 0.7100 0.7100
3076.000000 0.7099 0.7061 0.7119 0.7138 0.7156
3081.000000 0.7174 0.7184 0.7183 0.7183 0.7182
3086.000000 0.7181 0.7174 0.7167 0.7160 0.7178
3091.000000 0.7226 0.7275 0.7335 0.7411 0.7458
3096.000000 0.7493 0.7527 0.7547 0.7567 0.7588
3101.000000 0.7607 0.7624 0.7641 0.7654 0.7663
3106.000000 0.7672 0.7680 0.7689 0.7696 0.7703
3111.000000 0.7710 0.7714 0.7717 0.7720 0.7722
3116.000000 0.7725 0.7710 0.7725 0.7725 0.7726
3121.000000 0.7722 0.7716 0.7711 0.7705 0.7700
3126.000000 0.7694 0.7688 0.7679 0.7671 0.7662
3131.000000 0.7653 0.7645 0.7636 0.7628 0.7619
3136.000000 0.7611 0.7603 0.7596 0.7588 0.7580
3141.000000 0.7572 0.7564 0.7557 0.7549 0.7543
3146.000000 0.7536 0.7530 0.7523 0.7516 0.7508
3151.000000 0.7499 0.7492 0.7486 0.7479 0.7472
3156.000000 0.7465 0.7459 0.7452 0.7445 0.7438
3161.000000 0.7432 0.7425 0.7418 0.7411 0.7404
3166.000000 0.7398 0.7391 0.7384 0.7379 0.7375
3171.000000 0.7371 0.7367 0.7364 0.7360 0.7356
3176.000000 0.7353 0.7349 0.7345 0.7341 0.7338
3181.000000 0.7336 0.7335 0.7333 0.7332 0.7331
3186.000000 0.7329 0.7327 0.7324 0.7321 0.7318
3191.000000 0.7314 0.7311 0.7304 0.7296 0.7288
3196.000000 0.7280 0.7272 0.7257 0.7240 0.7224
3201.000000 0.7207 0.7190 0.7164 0.7138 0.7112
3206.000000 0.7087 0.7061 0.7033 0.7004 0.6975
3211.000000 0.6946 0.6917 0.6888 0.6864 0.6839
3216.000000 0.6814 0.6790 0.6765 0.6741 0.6717
3221.000000 0.6693 0.6669 0.6645 0.6608 0.6571
3226.000000 0.6535 0.6498 0.6461 0.6396 0.6330
3231.000000 0.6264 0.6199 0.6133 0.6069 0.6017
3236.000000 0.5964 0.5912 0.5860 0.5814 0.5769
3241.000000 0.5725 0.5680 0.5636 0.5591 0.5546
3246.000000 0.5501 0.5455 0.5409 0.5364 0.5311
3251.000000 0.5233 0.5155 0.5077 0.4994 0.4904
3256.000000 0.4815 0.4737 0.4668 0.4599 0.4530
3261.000000 0.4460 0.4387 0.4315 0.4243 0.4175
3266.000000 0.4107 0.4040 0.4006 0.3972 0.3939
3271.000000 0.3905 0.3871 0.3842 0.3814 0.3787
3276.000000 0.3760 0.3733 0.3705 0.3680 0.3667
3281.000000 0.3655 0.3642 0.3636 0.3635 0.3676
3286.000000 0.3636 0.3638 0.3641 0.3646 0.3656
3291.000000 0.3667 0.3679 0.3690 0.3702 0.3739
3296.000000 0.3786 0.3856 0.3925 0.3988 0.4049
3301.000000 0.4107 0.4161 0.4213 0.4351 0.4417
3306.000000 0.4510 0.4627 0.4766 0.4848 0.4927
3311.000000 0.5003 0.5107 0.5206 0.5260 0.5315
3316.000000 0.5370 0.5424 0.5471 0.5519 0.5566
3321.000000 0.5617 0.5667 0.5718 0.5754 0.5790
3326.000000 0.5826 0.5861 0.5903 0.5947 0.5990
3331.000000 0.6031 0.6067 0.6102 0.6138 0.6173
3336.000000 0.6200 0.6225 0.6251 0.6276 0.6301
3341.000000 0.6327 0.6352 0.6376 0.6399 0.6421
3346.000000 0.6442 0.6462 0.6483 0.6503 0.6520
3351.000000 0.6536 0.6551 0.6573 0.6594 0.6598
3356.000000 0.6599 0.6600 0.6602 0.6604 0.6606
3361.000000 0.6609 0.6612 0.6616 0.6620 0.6627
3366.000000 0.6635 0.6644 0.6654 0.6665 0.6675
3371.000000 0.6686 0.6695 0.6705 0.6714 0.6724
3376.000000 0.6730 0.6735 0.6741 0.6746 0.6751
3381.000000 0.6757 0.6761 0.6764 0.6767 0.6769
3386.000000 0.6792 0.6774 0.6775 0.6776 0.6777
3391.000000 0.6778 0.6779 0.6778 0.6777 0.6775
3396.000000 0.6774 0.6773 0.6771 0.6767 0.6764
3401.000000 0.6760 0.6756 0.6752 0.6748 0.6744
3406.000000 0.6740 0.6736 0.6732 0.6729 0.6725
3411.000000 0.6721 0.6717 0.6713 0.6710 0.6706
3416.000000 0.6703 0.6701 0.6700 0.6698 0.6696
3421.000000 0.6694 0.6692 0.6690 0.6688 0.6686
3426.000000 0.6684 0.6684 0.6683 0.6683 0.6682
3431.000000 0.6682 0.6681 0.6680 0.6637 0.6679
3436.000000 0.6683 0.6687 0.6691 0.6694 0.6698
3441.000000 0.6702 0.6707 0.6712 0.6717 0.6723
3446.000000 0.6728 0.6733 0.6739 0.6744 0.6749
3451.000000 0.6754 0.6759 0.6763 0.6768 0.6772
3456.000000 0.6777 0.6781 0.6786 0.6790 0.6795
3461.000000 0.6799 0.6804 0.6808 0.6812 0.6815
3466.000000 0.6819 0.6823 0.6827 0.6831 0.6835
3471.000000 0.6839 0.6843 0.6847 0.6850 0.6854
3476.000000 0.6858 0.6862 0.6865 0.6868 0.6871
3481.000000 0.6874 0.6878 0.6881 0.6884 0.6885
3486.000000 0.6883 0.6882 0.6880 0.6878 0.6877
3491.000000 0.6876 0.6878 0.6880 0.6919 0.6945
3496.000000 0.6959 0.6973 0.6986 0.6999 0.7011
3501.000000 0.7022 0.7033 0.7045 0.7056 0.7066
3506.000000 0.7076 0.7086 0.7096 0.7106 0.7117
3511.000000 0.7127 0.7137 0.7148 0.7161 0.7174
3516.000000 0.7187 0.7201 0.7215 0.7229 0.7244
3521.000000 0.7258 0.7267 0.7275 0.7282 0.7290
3526.000000 0.7298 0.7306 0.7313 0.7321 0.7329
3531.000000 0.7337 0.7345 0.7352 0.7360 0.7368
3536.000000 0.7376 0.7384 0.7392 0.7399 0.7407
3541.000000 0.7415 0.7423 0.7431 0.7439 0.7447
3546.000000 0.7455 0.7462 0.7470 0.7478 0.7486
3551.000000 0.7494 0.7502 0.7510 0.7518 0.7527
3556.000000 0.7535 0.7543 0.7551 0.7559 0.7567
3561.000000 0.7576 0.7584 0.7591 0.7598 0.7604
3566.000000 0.7611 0.7617 0.7624 0.7630 0.7636
3571.000000 0.7643 0.7649 0.7656 0.7662 0.7669
3576.000000 0.7680 0.7691 0.7702 0.7713 0.7724
3581.000000 0.7735 0.7747 0.7760 0.7771 0.7782
3586.000000 0.7792 0.7803 0.7813 0.7824 0.7837
3591.000000 0.7853 0.7868 0.7881 0.7892 0.7903
3596.000000 0.7914 0.7924 0.7935 0.7945 0.7954
3601.000000 0.7962 0.7971 0.7980 0.7988 0.7997
3606.000000 0.8006 0.8014 0.8019 0.8023 0.8027
3611.000000 0.8032 0.8036 0.8040 0.8044 0.8049
3616.000000 0.8053 0.8057 0.8063 0.8072 0.8087
3621.000000 0.8128 0.8167 0.8202 0.8216 0.8229
3626.000000 0.8243 0.8256 0.8266 0.8275 0.8284
3631.000000 0.8294 0.8303 0.8312 0.8319 0.8325
3636.000000 0.8330 0.8336 0.8341 0.8346 0.8350
3641.000000 0.8355 0.8359 0.8364 0.8368 0.8375
3646.000000 0.8384 0.8394 0.8408 0.8422 0.8436
3651.000000 0.8450 0.8459 0.8464 0.8469 0.8475
3656.000000 0.8479 0.8482 0.8485 0.8489 0.8492
3661.000000 0.8496 0.8501 0.8507 0.8512 0.8518
3666.000000 0.8524 0.8539 0.8555 0.8560 0.8562
3671.000000 0.8563 0.8557 0.8551 0.8545 0.8539
3676.000000 0.8534 0.8534 0.8533 0.8532 0.8532
3681.000000 0.8533 0.8535 0.8537 0.8540 0.8542
3686.000000 0.8544 0.8549 0.8553 0.8558 0.8563
3691.000000 0.8567 0.8572 0.8578 0.8585 0.8592
3696.000000 0.8598 0.8604 0.8606 0.8608 0.8610
3701.000000 0.8611 0.8612 0.8607 0.8603 0.8593
3706.000000 0.8583 0.8572 0.8562 0.8558 0.8560
3711.000000 0.8563 0.8567 0.8570 0.8574 0.8578
3716.000000 0.8582 0.8586 0.8591 0.8595 0.8600
3721.000000 0.8604 0.8609 0.8613 0.8617 0.8622
3726.000000 0.8626 0.8633 0.8640 0.8647 0.8654
3731.000000 0.8661 0.8668 0.8675 0.8682 0.8689
3736.000000 0.8696 0.8703 0.8711 0.8718 0.8725
3741.000000 0.8732 0.8741 0.8751 0.8762 0.8772
3746.000000 0.8783 0.8793 0.8804 0.8819 0.8833
3751.000000 0.8848 0.8863 0.8877 0.8892 0.8906
3756.000000 0.8916 0.8917 0.8919 0.8920 0.8922
3761.000000 0.8923 0.8925 0.8923 0.8921 0.8919
3766.000000 0.8917 0.8915 0.8914 0.8912 0.8911
3771.000000 0.8909 0.8908 0.8906 0.8905 0.8903
3776.000000 0.8902 0.8901 0.8899 0.8898 0.8898
3781.000000 0.8898 0.8897 0.8897 0.8896 0.8896
3786.000000 0.8897 0.8898 0.8899 0.8900 0.8901
3791.000000 0.8899 0.8897 0.8896 0.8894 0.8893
3796.000000 0.8889 0.8875 0.8862 0.8850 0.8843
3801.000000 0.8835 0.8836 0.8836 0.8836 0.8836
3806.000000 0.8837 0.8837 0.8838 0.8839 0.8840
3811.000000 0.8841 0.8842 0.8845 0.8848 0.8850
3816.000000 0.8853 0.8855 0.8858 0.8860 0.8863
3821.000000 0.8868 0.8874 0.8881 0.8887 0.8893
3826.000000 0.8896 0.8897 0.8898 0.8899 0.8898
3831.000000 0.8893 0.8889 0.8884 0.8880 0.8875
3836.000000 0.8871 0.8866 0.8861 0.8855 0.8850
3841.000000 0.8845 0.8840 0.8834 0.8828 0.8823
3846.000000 0.8817 0.8811 0.8805 0.8799 0.8794
3851.000000 0.8788 0.8782 0.8776 0.8770 0.8764
3856.000000 0.8758 0.8752 0.8746 0.8740 0.8734
3861.000000 0.8728 0.8722 0.8716 0.8710 0.8704
3866.000000 0.8698 0.8692 0.8686 0.8680 0.8676
3871.000000 0.8671 0.8667 0.8662 0.8658 0.8653
3876.000000 0.8649 0.8644 0.8642 0.8642 0.8638
3881.000000 0.8643 0.8643 0.8647 0.8654 0.8661
3886.000000 0.8667 0.8674 0.8679 0.8679 0.8679
3891.000000 0.8679 0.8680 0.8680 0.8680 0.8680
3896.000000 0.8681 0.8681 0.8682 0.8687 0.8691
3901.000000 0.8696 0.8701 0.8710 0.8719 0.8728
3906.000000 0.8737 0.8745 0.8749 0.8752 0.8750
3911.000000 0.8749 0.8747 0.8745 0.8743 0.8741
3916.000000 0.8739 0.8737 0.8735 0.8733 0.8731
3921.000000 0.8730 0.8729 0.8727 0.8726 0.8725
3926.000000 0.8723 0.8722 0.8721 0.8720 0.8725
3931.000000 0.8731 0.8738 0.8744 0.8751 0.8755
3936.000000 0.8760 0.8765 0.8769 0.8774 0.8773
3941.000000 0.8769 0.8766 0.8763 0.8760 0.8758
3946.000000 0.8756 0.8754 0.8753 0.8751 0.8749
3951.000000 0.8749 0.8752 0.8756 0.8759 0.8763
3956.000000 0.8762 0.8761 0.8759 0.8757 0.8755
3961.000000 0.8751 0.8745 0.8738 0.8732 0.8726
3966.000000 0.8719 0.8713 0.8708 0.8705 0.8701
3971.000000 0.8698 0.8698 0.8703 0.8721 0.8742
3976.000000 0.8760 0.8778 0.8786 0.8788 0.8788
3981.000000 0.8783 0.8775 0.8766 0.8754 0.8746
3986.000000 0.8741 0.8738 0.8740 0.8741 0.8745
3991.000000 0.8750 0.8755 0.8761 0.8773 0.8785
3996.000000 0.8796 0.8808 0.8820 0.8832 0.8832
##END=
