##TITLE=DIFERROCENYL KETONE
##JCAMP-DX=4.24
##DATA TYPE=INFRARED SPECTRUM
##CLASS=COBLENTZ
##ORIGIN=WYANDOTTE CHEMICALS CORP., WYANDOTTE, MICHIGAN, USA
##OWNER=COBLENTZ SOCIETY
Collection (C) 2018 copyright by the U.S. Secretary of Commerce
on behalf of the United States of America. All rights reserved.
##DATE=Not specified, most likely prior to 1970
##MOLFORM=C21 H18 O Fe2
##MP=209.5-210 C
##SOURCE REFERENCE=COBLENTZ NO. 3025
##$NIST ID=B6003025
##$NIST SOURCE=COBLENTZ
##$NIST IMAGE=cob3025
##SPECTROMETER/DATA SYSTEM=Not specified, most likely a prism, grating, or hybrid spectrometer.
##STATE=SOLID (MINERAL OIL MULL)
##PATH LENGTH=
$$SPECTRAL CONTAMINATION DUE TO OIL AROUND 2900 CM^-^1
##SAMPLING PROCEDURE=TRANSMISSION
##RESOLUTION=4
##DATA PROCESSING=DIGITIZED BY NIST FROM HARD COPY
##XUNITS=MICROMETERS
##YUNITS=TRANSMITTANCE
##XFACTOR=1.000000
##YFACTOR=1
##DELTAX=000.006813
##FIRSTX=2.034
##LASTX=16
##FIRSTY=0.321
##MAXX=16
##MINX=2.034
##MAXY=0.95
##MINY=0.041
##NPOINTS=2051
##XYDATA=(X++(Y..Y))
2.034000 0.3210 0.3230 0.3270 0.3270 0.3280
2.068080 0.3320 0.3330 0.3370 0.3400 0.3420
2.102000 0.3440 0.3450 0.3490 0.3490 0.3490
2.136080 0.3510 0.3520 0.3560 0.3570 0.3590
2.170000 0.3590 0.3590 0.3590 0.3610 0.3630
2.204080 0.3640 0.3660 0.3680 0.3690 0.3710
2.238000 0.3730 0.3780 0.3800 0.3810 0.3830
2.272080 0.3830 0.3850 0.3900 0.3970 0.3980
2.307000 0.4000 0.4000 0.4020 0.4020 0.4020
2.341080 0.4020 0.3980 0.3980 0.3980 0.4000
2.375000 0.4090 0.4120 0.4160 0.4170 0.4190
2.409080 0.4190 0.4190 0.4190 0.4190 0.4190
2.443000 0.4190 0.4190 0.4190 0.4190 0.4170
2.477080 0.4170 0.4160 0.4120 0.4120 0.4170
2.511000 0.4290 0.4360 0.4410 0.4460 0.4500
2.545080 0.4520 0.4530 0.4570 0.4580 0.4620
2.579000 0.4640 0.4640 0.4620 0.4600 0.4600
2.613080 0.4600 0.4600 0.4600 0.4620 0.4640
2.647000 0.4690 0.4760 0.4810 0.4840 0.4860
2.681080 0.4890 0.4890 0.4890 0.4890 0.4890
2.715000 0.4890 0.4910 0.4930 0.4940 0.4940
2.749080 0.4940 0.4980 0.5000 0.5000 0.5000
2.783000 0.5010 0.5010 0.5050 0.5050 0.5010
2.817080 0.5010 0.5010 0.5010 0.5010 0.5060
2.852000 0.5080 0.5080 0.5080 0.5060 0.5080
2.886080 0.5100 0.5100 0.5110 0.5130 0.5130
2.920000 0.5130 0.5110 0.5110 0.5110 0.5130
2.954080 0.5150 0.5170 0.5180 0.5180 0.5180
2.988000 0.5180 0.5180 0.5200 0.5200 0.5220
3.022080 0.5220 0.5230 0.5230 0.5220 0.5230
3.056000 0.5230 0.5230 0.5250 0.5270 0.5250
3.090080 0.5250 0.5230 0.5200 0.5170 0.5130
3.124000 0.5100 0.5060 0.5030 0.5010 0.5030
3.158080 0.5050 0.5080 0.5100 0.5080 0.5050
3.192000 0.4940 0.4670 0.4260 0.4100 0.4090
3.226080 0.4090 0.4140 0.4400 0.4600 0.4820
3.260000 0.4910 0.4930 0.4890 0.4820 0.4770
3.294080 0.4720 0.4640 0.4460 0.4210 0.3930
3.328000 0.3560 0.3060 0.2240 0.1690 0.1190
3.362080 0.0710 0.0490 0.0460 0.0440 0.0420
3.397000 0.0410 0.0410 0.0410 0.0440 0.0580
3.431080 0.0770 0.0920 0.1060 0.1210 0.1350
3.465000 0.1400 0.1400 0.1350 0.1300 0.1260
3.499080 0.1260 0.1310 0.1740 0.2120 0.2800
3.533000 0.3860 0.4860 0.5540 0.5940 0.6180
3.567080 0.6280 0.6330 0.6400 0.6430 0.6470
3.601000 0.6570 0.6620 0.6620 0.6640 0.6640
3.635080 0.6660 0.6670 0.6690 0.6690 0.6690
3.669000 0.6690 0.6690 0.6670 0.6670 0.6690
3.703080 0.6690 0.6690 0.6690 0.6670 0.6690
3.737000 0.6710 0.6740 0.6740 0.6720 0.6720
3.771080 0.6720 0.6720 0.6740 0.6810 0.6860
3.805000 0.6910 0.6910 0.6930 0.6930 0.6980
3.839080 0.7000 0.7020 0.7030 0.7030 0.7050
3.873000 0.7050 0.7070 0.7070 0.7100 0.7140
3.907080 0.7190 0.7220 0.7260 0.7270 0.7290
3.942000 0.7290 0.7270 0.7240 0.7260 0.7290
3.976080 0.7320 0.7320 0.7340 0.7340 0.7340
4.010000 0.7340 0.7360 0.7360 0.7360 0.7380
4.044080 0.7390 0.7380 0.7380 0.7360 0.7380
4.078000 0.7380 0.7390 0.7410 0.7410 0.7390
4.112080 0.7390 0.7360 0.7360 0.7390 0.7430
4.146000 0.7440 0.7480 0.7500 0.7500 0.7510
4.180080 0.7510 0.7500 0.7500 0.7480 0.7500
4.214000 0.7480 0.7480 0.7480 0.7460 0.7500
4.248080 0.7500 0.7440 0.7430 0.7410 0.7430
4.282000 0.7440 0.7480 0.7510 0.7550 0.7560
4.316080 0.7580 0.7600 0.7630 0.7700 0.7730
4.350000 0.7790 0.7850 0.7920 0.7990 0.7990
4.384080 0.8010 0.8010 0.8010 0.7960 0.7940
4.418000 0.7920 0.7920 0.7940 0.7940 0.7940
4.452080 0.7920 0.7910 0.7910 0.7890 0.7870
4.487000 0.7840 0.7820 0.7800 0.7800 0.7800
4.521080 0.7800 0.7800 0.7820 0.7840 0.7850
4.555000 0.7910 0.7960 0.8010 0.8030 0.8030
4.589080 0.8030 0.8030 0.8030 0.8060 0.8060
4.623000 0.8090 0.8130 0.8130 0.8130 0.8110
4.657080 0.8130 0.8130 0.8160 0.8210 0.8230
4.691000 0.8230 0.8250 0.8250 0.8230 0.8230
4.725080 0.8250 0.8270 0.8270 0.8300 0.8320
4.759000 0.8330 0.8350 0.8350 0.8370 0.8370
4.793080 0.8370 0.8370 0.8400 0.8400 0.8390
4.827000 0.8370 0.8370 0.8370 0.8350 0.8350
4.861080 0.8330 0.8320 0.8320 0.8320 0.8350
4.895000 0.8400 0.8420 0.8420 0.8400 0.8400
4.929080 0.8400 0.8400 0.8420 0.8440 0.8450
4.964000 0.8450 0.8470 0.8510 0.8520 0.8560
4.998080 0.8570 0.8590 0.8610 0.8610 0.8610
5.032000 0.8610 0.8610 0.8590 0.8560 0.8520
5.066080 0.8520 0.8510 0.8520 0.8630 0.8660
5.100000 0.8680 0.8690 0.8690 0.8690 0.8690
5.134080 0.8690 0.8690 0.8690 0.8710 0.8690
5.168000 0.8690 0.8690 0.8690 0.8680 0.8680
5.202080 0.8710 0.8730 0.8750 0.8760 0.8780
5.236000 0.8780 0.8780 0.8800 0.8800 0.8800
5.270080 0.8800 0.8800 0.8800 0.8800 0.8800
5.304000 0.8730 0.8750 0.8810 0.8830 0.8810
5.338080 0.8810 0.8810 0.8800 0.8780 0.8780
5.372000 0.8800 0.8800 0.8810 0.8810 0.8830
5.406080 0.8830 0.8810 0.8830 0.8830 0.8830
5.440000 0.8850 0.8850 0.8850 0.8860 0.8880
5.474080 0.8880 0.8900 0.8930 0.8950 0.9000
5.509000 0.9000 0.9000 0.8930 0.8900 0.8900
5.543080 0.8880 0.8850 0.8800 0.8710 0.8690
5.577000 0.8640 0.8610 0.8610 0.8590 0.8570
5.611080 0.8510 0.8450 0.8390 0.8300 0.8130
5.645000 0.8010 0.8010 0.8010 0.8080 0.8210
5.679080 0.8300 0.8370 0.8420 0.8440 0.8420
5.713000 0.8400 0.8350 0.8300 0.8270 0.8210
5.747080 0.8160 0.8160 0.8180 0.8160 0.8150
5.781000 0.8150 0.8130 0.8110 0.8090 0.8090
5.815080 0.8080 0.8060 0.8010 0.7910 0.7840
5.849000 0.7790 0.7750 0.7720 0.7720 0.7730
5.883080 0.7730 0.7730 0.7730 0.7730 0.7750
5.917000 0.7790 0.7910 0.8010 0.8010 0.7940
5.951080 0.7910 0.7910 0.7850 0.7730 0.7700
5.985000 0.7700 0.7670 0.7630 0.7560 0.7500
6.019080 0.7430 0.7410 0.7410 0.7390 0.7290
6.054000 0.7050 0.6900 0.6740 0.6450 0.6070
6.088080 0.5900 0.5470 0.5060 0.4620 0.4000
6.122000 0.3150 0.1910 0.1300 0.0730 0.0540
6.156080 0.0490 0.0460 0.0440 0.0490 0.0970
6.190000 0.1400 0.1930 0.2600 0.3040 0.3590
6.224080 0.4170 0.4580 0.4960 0.5320 0.5610
6.258000 0.5870 0.6060 0.6190 0.6280 0.6330
6.292080 0.6330 0.6330 0.6360 0.6480 0.6710
6.326000 0.6960 0.7150 0.7260 0.7270 0.7310
6.360080 0.7410 0.7530 0.7610 0.7650 0.7650
6.394000 0.7680 0.7680 0.7650 0.7560 0.7460
6.428080 0.7310 0.7170 0.7020 0.7000 0.7020
6.462000 0.7050 0.7190 0.7320 0.7380 0.7410
6.496080 0.7440 0.7500 0.7550 0.7630 0.7730
6.530000 0.7820 0.7890 0.7990 0.8030 0.8040
6.564080 0.8040 0.8040 0.8030 0.8030 0.8010
6.599000 0.7970 0.7970 0.7960 0.7890 0.7790
6.633080 0.7580 0.7460 0.7340 0.7270 0.7200
6.667000 0.7170 0.7150 0.7120 0.7050 0.6880
6.701080 0.6520 0.6250 0.6040 0.5850 0.5610
6.735000 0.5270 0.4740 0.4190 0.3440 0.1640
6.769080 0.1140 0.0680 0.0560 0.0560 0.0610
6.803000 0.0970 0.1160 0.1420 0.1600 0.1860
6.837080 0.2030 0.2170 0.2290 0.2460 0.2670
6.871000 0.3030 0.3330 0.3590 0.3830 0.4050
6.905080 0.4240 0.4450 0.4650 0.4860 0.5100
6.939000 0.5440 0.5750 0.6090 0.6350 0.6550
6.973080 0.6720 0.7070 0.7100 0.7120 0.7120
7.007000 0.7100 0.7080 0.6960 0.6790 0.6090
7.041080 0.5590 0.5350 0.5350 0.5470 0.5820
7.075000 0.6090 0.6360 0.6570 0.6760 0.6910
7.109080 0.7000 0.6980 0.6910 0.6780 0.6520
7.144000 0.6210 0.6130 0.6130 0.6180 0.6400
7.178080 0.6450 0.6480 0.6430 0.6070 0.5390
7.212000 0.4770 0.4280 0.3800 0.3010 0.2290
7.246080 0.2290 0.2510 0.3060 0.3690 0.4310
7.280000 0.4980 0.5700 0.5940 0.6180 0.6310
7.314080 0.6430 0.6550 0.6780 0.6900 0.6910
7.348000 0.6900 0.6420 0.6280 0.6300 0.6400
7.382080 0.6620 0.6900 0.7070 0.7360 0.7550
7.416000 0.7600 0.7630 0.7670 0.7630 0.7530
7.450080 0.7460 0.7430 0.7440 0.7510 0.7510
7.484000 0.7500 0.7390 0.7340 0.7320 0.7310
7.518080 0.7320 0.7480 0.7670 0.7840 0.7970
7.552000 0.8010 0.8040 0.8060 0.8060 0.8060
7.586080 0.8060 0.8040 0.7960 0.7850 0.7790
7.620000 0.7680 0.7480 0.7150 0.6640 0.6330
7.654080 0.6160 0.6070 0.5950 0.5770 0.5440
7.689000 0.4860 0.3980 0.1960 0.1420 0.1330
7.723080 0.1380 0.1810 0.2140 0.2720 0.3570
7.757000 0.4460 0.5200 0.5770 0.6130 0.6430
7.791080 0.6600 0.6760 0.7100 0.7360 0.7510
7.825000 0.7600 0.7680 0.7770 0.7820 0.7870
7.859080 0.7920 0.8010 0.8010 0.8010 0.8010
7.893000 0.7910 0.7890 0.7870 0.7800 0.7770
7.927080 0.7750 0.7750 0.7790 0.7850 0.7910
7.961000 0.7970 0.8040 0.8150 0.8200 0.8230
7.995080 0.8300 0.8370 0.8390 0.8400 0.8420
8.029000 0.8450 0.8490 0.8490 0.8490 0.8490
8.063080 0.8510 0.8520 0.8520 0.8540 0.8570
8.097000 0.8630 0.8640 0.8640 0.8660 0.8680
8.131080 0.8680 0.8660 0.8640 0.8640 0.8640
8.165000 0.8660 0.8680 0.8710 0.8710 0.8690
8.199080 0.8690 0.8690 0.8690 0.8680 0.8660
8.234000 0.8630 0.8560 0.8520 0.8510 0.8400
8.268080 0.8130 0.7820 0.7510 0.7120 0.6790
8.302000 0.6190 0.6110 0.6110 0.6250 0.6500
8.336080 0.6740 0.7000 0.7270 0.7500 0.7700
8.370000 0.7840 0.7970 0.8040 0.8160 0.8230
8.404080 0.8300 0.8390 0.8510 0.8590 0.8630
8.438000 0.8660 0.8680 0.8690 0.8730 0.8780
8.472080 0.8810 0.8850 0.8860 0.8880 0.8900
8.506000 0.8900 0.8900 0.8900 0.8900 0.8880
8.540080 0.8900 0.8900 0.8920 0.8920 0.8980
8.574000 0.8980 0.9000 0.9000 0.9000 0.9000
8.608080 0.9020 0.9040 0.9020 0.9040 0.9050
8.642000 0.9050 0.9070 0.9090 0.9120 0.9140
8.676080 0.9160 0.9160 0.9170 0.9170 0.9170
8.710000 0.9190 0.9240 0.9280 0.9310 0.9330
8.744080 0.9340 0.9330 0.9340 0.9360 0.9380
8.779000 0.9400 0.9400 0.9380 0.9360 0.9360
8.813080 0.9410 0.9430 0.9480 0.9500 0.9500
8.847000 0.9500 0.9500 0.9500 0.9500 0.9480
8.881080 0.9450 0.9430 0.9410 0.9360 0.9280
8.915000 0.9260 0.9260 0.9280 0.9280 0.9290
8.949080 0.9340 0.9340 0.9310 0.9280 0.9170
8.983000 0.8970 0.8520 0.7730 0.6810 0.6040
9.017080 0.4910 0.4910 0.5580 0.6620 0.7480
9.051000 0.8130 0.8450 0.8510 0.8540 0.8640
9.085080 0.8760 0.8970 0.9020 0.9100 0.9120
9.119000 0.9140 0.9140 0.9140 0.9160 0.9160
9.153080 0.9140 0.9120 0.9100 0.9090 0.9090
9.187000 0.9070 0.9070 0.9070 0.9050 0.9050
9.221080 0.9050 0.9040 0.9020 0.9020 0.9020
9.255000 0.9000 0.9000 0.8930 0.8920 0.8900
9.289080 0.8880 0.8850 0.8810 0.8710 0.8560
9.324000 0.8300 0.8030 0.7610 0.6980 0.6130
9.358080 0.5510 0.4570 0.3400 0.2680 0.2700
9.392000 0.2890 0.3270 0.4000 0.4760 0.5320
9.426080 0.5370 0.5370 0.5200 0.4720 0.4170
9.460000 0.3900 0.3520 0.3510 0.3510 0.3830
9.494080 0.4500 0.5030 0.5440 0.5650 0.5660
9.528000 0.5610 0.5470 0.5410 0.5390 0.5390
9.562080 0.5410 0.5610 0.5990 0.6420 0.6860
9.596000 0.7260 0.7580 0.7730 0.7940 0.8010
9.630080 0.8060 0.8150 0.8200 0.8200 0.8200
9.664000 0.8180 0.8180 0.8040 0.7850 0.7500
9.698080 0.6950 0.6090 0.5460 0.4520 0.4170
9.732000 0.4170 0.4330 0.4940 0.5510 0.6190
9.766080 0.6810 0.7220 0.7510 0.7730 0.7890
9.800000 0.7970 0.8040 0.8080 0.8080 0.8060
9.834080 0.8010 0.7940 0.7700 0.7460 0.7120
9.869000 0.6550 0.6010 0.5410 0.4640 0.3980
9.903080 0.3660 0.3660 0.3760 0.4380 0.4910
9.937000 0.5410 0.5750 0.6060 0.6250 0.6280
9.971080 0.6280 0.6180 0.5710 0.5290 0.5000
10.005000 0.4930 0.4930 0.5010 0.5590 0.5970
10.039080 0.6360 0.6760 0.7100 0.7390 0.7580
10.073000 0.7800 0.7970 0.8060 0.8200 0.8300
10.107080 0.8370 0.8420 0.8450 0.8490 0.8510
10.141000 0.8540 0.8610 0.8660 0.8680 0.8690
10.175080 0.8710 0.8760 0.8780 0.8800 0.8800
10.209000 0.8760 0.8760 0.8800 0.8810 0.8850
10.243080 0.8860 0.8860 0.8880 0.8880 0.8880
10.277000 0.8880 0.8880 0.8860 0.8850 0.8850
10.311080 0.8850 0.8880 0.8900 0.8900 0.8900
10.345000 0.8900 0.8900 0.8900 0.8880 0.8860
10.379080 0.8850 0.8850 0.8850 0.8850 0.8830
10.414000 0.8810 0.8830 0.8880 0.8950 0.8980
10.448080 0.8950 0.8950 0.8930 0.8950 0.8980
10.482000 0.9000 0.9000 0.9000 0.9000 0.8980
10.516080 0.9000 0.9000 0.9020 0.9040 0.9040
10.550000 0.9040 0.9020 0.9040 0.9040 0.9050
10.584080 0.9070 0.9090 0.9140 0.9160 0.9170
10.618000 0.9170 0.9120 0.9120 0.9100 0.9100
10.652080 0.9100 0.9100 0.9100 0.9100 0.9100
10.686000 0.9100 0.9100 0.9100 0.9100 0.9100
10.720080 0.9100 0.9100 0.9100 0.9100 0.9100
10.754000 0.9090 0.9090 0.9090 0.9100 0.9120
10.788080 0.9120 0.9160 0.9170 0.9170 0.9190
10.822000 0.9210 0.9190 0.9170 0.9170 0.9190
10.856080 0.9210 0.9210 0.9210 0.9170 0.9170
10.891000 0.9160 0.9160 0.9160 0.9140 0.9100
10.925080 0.9100 0.9100 0.9100 0.9090 0.9090
10.959000 0.9070 0.9050 0.9040 0.9040 0.9020
10.993080 0.9000 0.8980 0.8950 0.8900 0.8800
11.027000 0.8690 0.8560 0.8350 0.8080 0.7750
11.061080 0.7390 0.7080 0.6720 0.6210 0.6110
11.095000 0.6110 0.6280 0.6470 0.6790 0.7080
11.129080 0.7430 0.7730 0.7890 0.7990 0.8010
11.163000 0.8010 0.8030 0.8040 0.8040 0.8040
11.197080 0.7990 0.8010 0.8060 0.8210 0.8370
11.231000 0.8420 0.8510 0.8610 0.8750 0.8830
11.265080 0.8880 0.8920 0.8930 0.8930 0.8950
11.299000 0.8930 0.8930 0.8930 0.8920 0.8920
11.333080 0.8920 0.8920 0.8920 0.8920 0.8900
11.367000 0.8900 0.8830 0.8750 0.8710 0.8630
11.401080 0.8590 0.8540 0.8490 0.8400 0.8370
11.436000 0.8320 0.8250 0.8210 0.8210 0.8200
11.470080 0.8210 0.8280 0.8420 0.8520 0.8590
11.504000 0.8610 0.8640 0.8690 0.8710 0.8710
11.538080 0.8730 0.8730 0.8710 0.8680 0.8640
11.572000 0.8610 0.8540 0.8510 0.8440 0.8400
11.606080 0.8350 0.8270 0.8060 0.7970 0.7840
11.640000 0.7650 0.7340 0.7120 0.6910 0.6570
11.674080 0.6350 0.6310 0.6350 0.6470 0.6600
11.708000 0.6790 0.7070 0.7310 0.7460 0.7580
11.742080 0.7680 0.7700 0.7680 0.7580 0.7360
11.776000 0.7050 0.6720 0.6230 0.5950 0.5660
11.810080 0.5390 0.5350 0.5350 0.5510 0.6010
11.844000 0.6470 0.6810 0.7050 0.7290 0.7360
11.878080 0.7360 0.7220 0.6900 0.6380 0.5920
11.912000 0.5220 0.4500 0.3810 0.3560 0.3560
11.946080 0.3630 0.3950 0.4240 0.4520 0.4600
11.981000 0.4580 0.4220 0.3810 0.3510 0.3660
12.015080 0.4340 0.4410 0.4760 0.5030 0.5560
12.049000 0.6110 0.6450 0.6740 0.7000 0.7140
12.083080 0.7200 0.7260 0.7260 0.7100 0.6980
12.117000 0.6840 0.6670 0.6540 0.6420 0.6300
12.151080 0.6210 0.6110 0.5940 0.5750 0.5470
12.185000 0.5170 0.4760 0.4450 0.4100 0.3810
12.219080 0.3540 0.3420 0.3400 0.3420 0.3420
12.253000 0.3490 0.3540 0.3680 0.3800 0.3970
12.287080 0.4160 0.4410 0.4650 0.4880 0.5080
12.321000 0.5320 0.5490 0.5510 0.5530 0.5490
12.355080 0.5200 0.4890 0.4460 0.4020 0.3510
12.389000 0.2920 0.2290 0.2020 0.1790 0.1640
12.423080 0.1640 0.1740 0.1960 0.2220 0.2510
12.457000 0.2750 0.3160 0.3560 0.3950 0.4280
12.491080 0.4570 0.4760 0.4960 0.5170 0.5320
12.526000 0.5490 0.5660 0.5850 0.6040 0.6260
12.560080 0.6380 0.6480 0.6620 0.6830 0.7000
12.594000 0.7150 0.7290 0.7430 0.7500 0.7610
12.628080 0.7700 0.7800 0.7890 0.7970 0.8040
12.662000 0.8090 0.8160 0.8210 0.8250 0.8300
12.696080 0.8350 0.8390 0.8440 0.8470 0.8490
12.730000 0.8510 0.8510 0.8520 0.8560 0.8560
12.764080 0.8570 0.8570 0.8560 0.8560 0.8570
12.798000 0.8570 0.8570 0.8570 0.8590 0.8590
12.832080 0.8570 0.8560 0.8520 0.8450 0.8420
12.866000 0.8390 0.8370 0.8330 0.8320 0.8300
12.900080 0.8230 0.8080 0.7960 0.7630 0.7270
12.934000 0.6790 0.6110 0.5800 0.5460 0.5100
12.968080 0.5010 0.5060 0.5270 0.5610 0.6060
13.002000 0.6480 0.6760 0.7150 0.7560 0.7770
13.036080 0.7960 0.8030 0.8090 0.8130 0.8180
13.071000 0.8230 0.8300 0.8370 0.8440 0.8470
13.105080 0.8490 0.8540 0.8560 0.8590 0.8610
13.139000 0.8590 0.8590 0.8590 0.8590 0.8590
13.173080 0.8610 0.8610 0.8630 0.8630 0.8640
13.207000 0.8640 0.8630 0.8630 0.8640 0.8640
13.241080 0.8640 0.8680 0.8680 0.8680 0.8680
13.275000 0.8680 0.8690 0.8690 0.8690 0.8710
13.309080 0.8730 0.8750 0.8760 0.8760 0.8750
13.343000 0.8750 0.8730 0.8730 0.8750 0.8760
13.377080 0.8760 0.8800 0.8800 0.8800 0.8810
13.411000 0.8810 0.8800 0.8800 0.8780 0.8780
13.445080 0.8760 0.8760 0.8760 0.8760 0.8760
13.479000 0.8750 0.8730 0.8730 0.8730 0.8730
13.513080 0.8730 0.8710 0.8710 0.8710 0.8710
13.547000 0.8710 0.8710 0.8710 0.8710 0.8710
13.581080 0.8710 0.8710 0.8690 0.8680 0.8660
13.616000 0.8660 0.8660 0.8680 0.8680 0.8690
13.650080 0.8690 0.8690 0.8690 0.8690 0.8690
13.684000 0.8690 0.8690 0.8690 0.8690 0.8690
13.718080 0.8750 0.8750 0.8690 0.8680 0.8680
13.752000 0.8680 0.8680 0.8680 0.8680 0.8680
13.786080 0.8660 0.8640 0.8630 0.8610 0.8590
13.820000 0.8590 0.8570 0.8570 0.8590 0.8590
13.854080 0.8610 0.8630 0.8640 0.8640 0.8630
13.888000 0.8590 0.8590 0.8590 0.8590 0.8590
13.922080 0.8590 0.8610 0.8610 0.8630 0.8680
13.956000 0.8710 0.8750 0.8760 0.8780 0.8800
13.990080 0.8800 0.8810 0.8850 0.8880 0.8880
14.024000 0.8900 0.8920 0.8930 0.8930 0.8930
14.058080 0.8970 0.8970 0.8980 0.8980 0.8980
14.092000 0.8980 0.9000 0.9000 0.9000 0.9000
14.126080 0.9020 0.9000 0.9020 0.9020 0.9040
14.161000 0.9040 0.9020 0.9040 0.9040 0.9050
14.195080 0.9070 0.9070 0.9070 0.9070 0.9090
14.229000 0.9070 0.9070 0.9050 0.9050 0.9040
14.263080 0.9020 0.9040 0.9050 0.9050 0.9040
14.297000 0.9020 0.9020 0.9020 0.9020 0.9040
14.331080 0.9040 0.9040 0.9020 0.9000 0.9000
14.365000 0.9000 0.9020 0.9020 0.9040 0.9050
14.399080 0.9040 0.9000 0.9000 0.8980 0.8980
14.433000 0.8970 0.8930 0.8920 0.8930 0.8980
14.467080 0.8980 0.8980 0.8980 0.8900 0.8900
14.501000 0.8900 0.8900 0.8920 0.8930 0.8930
14.535080 0.8930 0.8920 0.8920 0.8920 0.8920
14.569000 0.8880 0.8880 0.8860 0.8860 0.8850
14.603080 0.8850 0.8850 0.8850 0.8830 0.8830
14.637000 0.8850 0.8850 0.8850 0.8830 0.8810
14.671080 0.8780 0.8760 0.8760 0.8780 0.8780
14.706000 0.8800 0.8810 0.8810 0.8810 0.8810
14.740080 0.8800 0.8780 0.8760 0.8750 0.8730
14.774000 0.8710 0.8690 0.8690 0.8680 0.8680
14.808080 0.8690 0.8690 0.8680 0.8660 0.8640
14.842000 0.8630 0.8630 0.8610 0.8610 0.8610
14.876080 0.8590 0.8590 0.8590 0.8590 0.8570
14.910000 0.8570 0.8570 0.8560 0.8560 0.8540
14.944080 0.8540 0.8540 0.8520 0.8510 0.8490
14.978000 0.8490 0.8470 0.8420 0.8370 0.8320
15.012080 0.8230 0.8160 0.8080 0.8010 0.7910
15.046000 0.7820 0.7790 0.7730 0.7720 0.7700
15.080080 0.7680 0.7680 0.7700 0.7770 0.7890
15.114000 0.7990 0.8010 0.8080 0.8180 0.8210
15.148080 0.8250 0.8250 0.8270 0.8300 0.8350
15.182000 0.8370 0.8390 0.8390 0.8390 0.8390
15.216080 0.8350 0.8330 0.8300 0.8270 0.8180
15.251000 0.8130 0.8110 0.8110 0.8090 0.8080
15.285080 0.8080 0.8060 0.8030 0.8010 0.8010
15.319000 0.7990 0.7970 0.7910 0.7890 0.7890
15.353080 0.7870 0.7890 0.7890 0.7870 0.7850
15.387000 0.7820 0.7800 0.7770 0.7750 0.7700
15.421080 0.7680 0.7650 0.7630 0.7610 0.7610
15.455000 0.7610 0.7600 0.7580 0.7550 0.7530
15.489080 0.7530 0.7500 0.7460 0.7410 0.7380
15.523000 0.7360 0.7320 0.7270 0.7260 0.7240
15.557080 0.7240 0.7240 0.7240 0.7220 0.7190
15.591000 0.7150 0.7100 0.7050 0.7000 0.7000
15.625080 0.7000 0.7000 0.7000 0.7020 0.7020
15.659000 0.7000 0.7000 0.7000 0.7000 0.6980
15.693080 0.6980 0.6980 0.6980 0.6980 0.6960
15.727000 0.6960 0.6960 0.6910 0.6910 0.6880
15.761080 0.6840 0.6830 0.6830 0.6830 0.6830
15.796000 0.6830 0.6810 0.6790 0.6780 0.6760
15.830080 0.6720 0.6690 0.6670 0.6670 0.6640
15.864000 0.6640 0.6640 0.6620 0.6620 0.6590
15.898080 0.6570 0.6550 0.6520 0.6500 0.6470
15.932000 0.6470 0.6450 0.6450 0.6430 0.6360
15.966080 0.6310 0.6300 0.6280 0.6260 0.6250
16.000000 0.6210
##END=
