##TITLE=9H-Purine, 6-[(2-mercaptoethyl)thio]-, S-acetate
##JCAMP-DX=4.24
##DATA TYPE=INFRARED SPECTRUM
##CLASS=COBLENTZ III
##ORIGIN=SOUTHERN RESEARCH INSTITUTE
##OWNER=Copyright (C) 1987 by the Coblentz Society
Collection (C) 2018 copyright by the U.S. Secretary of Commerce
on behalf of the United States of America. All rights reserved.
##DATE=1959/01/09
##NAMES=S-[2-(9H-purin-6-ylsulfanyl)ethyl] ethanethioate
Ethanethiol, 2-(9H-Purin-6-ylthio)-, S-acetate
##MOLFORM=C9 H10 N4 O S2
##SOURCE REFERENCE=COBLENTZ NO. 8692
##$NIST ID=B6008692
##$NIST SOURCE=COBLENTZ
##$NIST IMAGE=cob8692
##SPECTROMETER/DATA SYSTEM=PERKIN-ELMER 21 (GRATING)
##INSTRUMENT PARAMETERS=FILTER CHANGE ABOUT 1090 CM^-^1
##STATE=SOLID (KBr DISC)
##SAMPLING PROCEDURE=TRANSMISSION
##RESOLUTION=2
##DATA PROCESSING=DIGITIZED BY COBLENTZ SOCIETY (BATCH II) FROM HARD COPY (ADJUSTED \addcm-1\5-5-0\)
##XUNITS=1/CM
##YUNITS=TRANSMITTANCE
##XFACTOR=1.0
##YFACTOR=1
##DELTAX=1.002443
##FIRSTX=597.693
##LASTX=4005
##FIRSTY=0.4542
##MAXX=4005
##MINX=597.693
##MAXY=0.883289
##MINY=0.079545
##NPOINTS=3400
##XYDATA=(X++(Y..Y))
597.693333 0.4542 0.4539 0.4536 0.4539 0.4542
602.705549 0.4546 0.4553 0.4566 0.4579 0.4594
607.717765 0.4610 0.4626 0.4642 0.4659 0.4679
612.729980 0.4702 0.4726 0.4750 0.4774 0.4802
617.742196 0.4831 0.4860 0.4889 0.4920 0.4955
622.754412 0.4994 0.5032 0.5098 0.5213 0.5341
627.766627 0.5577 0.5924 0.5949 0.5952 0.5953
632.778843 0.5950 0.5958 0.5949 0.5936 0.5903
637.791059 0.5851 0.5797 0.5744 0.5690 0.5637
642.803275 0.5471 0.5519 0.5476 0.5459 0.5460
647.815490 0.5466 0.6082 0.7047 0.8067 0.8675
652.827706 0.8807 0.8808 0.8807 0.8833 0.8804
657.839922 0.8755 0.8718 0.8678 0.8642 0.8599
662.852137 0.8537 0.8476 0.8427 0.8376 0.8321
667.864353 0.8265 0.8208 0.8147 0.8087 0.8031
672.876569 0.7981 0.7913 0.7773 0.7632 0.7489
677.888784 0.7346 0.7201 0.7180 0.7217 0.7914
682.901000 0.8491 0.8517 0.8515 0.8521 0.8525
687.913216 0.8524 0.8523 0.8517 0.8510 0.8501
692.925431 0.8493 0.8486 0.8479 0.8469 0.8452
697.937647 0.8387 0.8299 0.8212 0.8124 0.8036
702.949863 0.7916 0.7789 0.7714 0.7678 0.7641
707.962078 0.7624 0.7664 0.7744 0.7821 0.7881
712.974294 0.7940 0.7994 0.8034 0.8058 0.8083
717.986510 0.8104 0.8114 0.8121 0.8127 0.8136
722.998725 0.8141 0.8144 0.8146 0.8148 0.8147
728.010941 0.8147 0.8146 0.8144 0.8140 0.8135
733.023157 0.8132 0.8136 0.8140 0.8145 0.8165
738.035373 0.8204 0.8255 0.8297 0.8330 0.8354
743.047588 0.8374 0.8391 0.8416 0.8431 0.8436
748.059804 0.8449 0.8457 0.8459 0.8458 0.8454
753.072020 0.8447 0.8438 0.8427 0.8416 0.8405
758.084235 0.8395 0.8386 0.8377 0.8369 0.8360
763.096451 0.8351 0.8342 0.8329 0.8317 0.8304
768.108667 0.8291 0.8278 0.8266 0.8253 0.8240
773.120882 0.8224 0.8204 0.8184 0.8163 0.8143
778.133098 0.8122 0.8100 0.8078 0.8056 0.8035
783.145314 0.8012 0.7990 0.7963 0.7933 0.7903
788.157529 0.7869 0.7834 0.7790 0.7641 0.7367
793.169745 0.7077 0.6786 0.6496 0.6244 0.6106
798.181961 0.6079 0.6567 0.7911 0.7905 0.7897
803.194176 0.7890 0.7886 0.7886 0.7864 0.7852
808.206392 0.7838 0.7820 0.7799 0.7776 0.7752
813.218608 0.7727 0.7697 0.7667 0.7635 0.7601
818.230824 0.7567 0.7530 0.7492 0.7453 0.7415
823.243039 0.7374 0.7332 0.7282 0.7232 0.7182
828.255255 0.7136 0.7016 0.6510 0.5895 0.5166
833.267471 0.4970 0.4850 0.4781 0.4712 0.4643
838.279686 0.4572 0.4499 0.4425 0.4335 0.4177
843.291902 0.4089 0.4005 0.3922 0.3838 0.3755
848.304118 0.3671 0.3603 0.3612 0.3612 0.3852
853.316333 0.4270 0.4689 0.5106 0.5524 0.5942
858.328549 0.6381 0.6870 0.6901 0.6913 0.6907
863.340765 0.6871 0.6895 0.6880 0.6862 0.6841
868.352980 0.6813 0.6779 0.6738 0.6673 0.6596
873.365196 0.6484 0.6376 0.6253 0.6185 0.6150
878.377412 0.6149 0.6148 0.6158 0.6190 0.6225
883.389627 0.6147 0.6492 0.6622 0.6753 0.6884
888.401843 0.7015 0.7140 0.7232 0.7277 0.7302
893.414059 0.7307 0.7310 0.7309 0.7309 0.7330
898.426275 0.7283 0.7263 0.7240 0.7212 0.7184
903.438490 0.7153 0.7122 0.7091 0.7044 0.6983
908.450706 0.6923 0.6863 0.6802 0.6742 0.6682
913.462922 0.6622 0.6562 0.6502 0.6442 0.6382
918.475137 0.6322 0.6261 0.6201 0.6141 0.6081
923.487353 0.5996 0.5646 0.5315 0.4921 0.4837
928.499569 0.4788 0.4746 0.4709 0.4675 0.4650
933.511784 0.4625 0.4600 0.4567 0.4511 0.4233
938.524000 0.4055 0.3905 0.3704 0.3610 0.3519
943.536216 0.3477 0.3431 0.3343 0.3251 0.3158
948.548431 0.3066 0.2974 0.2882 0.2790 0.2698
953.560647 0.2619 0.2623 0.2623 0.2663 0.3360
958.572863 0.4363 0.5335 0.5752 0.5853 0.5925
963.585078 0.5987 0.6041 0.6084 0.6127 0.6168
968.597294 0.6201 0.6234 0.6269 0.6326 0.6390
973.609510 0.6452 0.6516 0.6604 0.6757 0.6911
978.621725 0.6979 0.6995 0.7006 0.7009 0.7040
983.633941 0.7010 0.7006 0.7001 0.6994 0.6982
988.646157 0.6954 0.6920 0.6876 0.6832 0.6789
993.658373 0.6741 0.6667 0.6600 0.6553 0.6505
998.670588 0.6458 0.6426 0.6400 0.6373 0.6492
1003.682804 0.6920 0.7156 0.7256 0.7316 0.7371
1008.695020 0.7415 0.7458 0.7491 0.7514 0.7536
1013.707235 0.7556 0.7576 0.7593 0.7605 0.7617
1018.719451 0.7628 0.7638 0.7649 0.7658 0.7665
1023.731667 0.7671 0.7678 0.7685 0.7692 0.7706
1028.743882 0.7699 0.7699 0.7699 0.7699 0.7700
1033.756098 0.7700 0.7700 0.7698 0.7695 0.7692
1038.768314 0.7689 0.7687 0.7684 0.7677 0.7667
1043.780529 0.7657 0.7647 0.7637 0.7627 0.7618
1048.792745 0.7608 0.7598 0.7588 0.7578 0.7566
1053.804961 0.7553 0.7541 0.7528 0.7515 0.7502
1058.817176 0.7489 0.7476 0.7463 0.7447 0.7426
1063.829392 0.7406 0.7385 0.7364 0.7343 0.7323
1068.841608 0.7302 0.7272 0.7241 0.7210 0.7179
1073.853824 0.7149 0.7119 0.7088 0.7044 0.6997
1078.866039 0.6952 0.6906 0.6858 0.6797 0.6737
1083.878255 0.6596 0.6356 0.6110 0.5864 0.5617
1088.890471 0.5559 0.5555 0.5657 0.5855 0.6058
1093.902686 0.6180 0.6113 0.5848 0.5570 0.5294
1098.914902 0.5016 0.4849 0.4806 0.4773 0.4752
1103.927118 0.4737 0.4728 0.4728 0.4729 0.4731
1108.939333 0.4733 0.4737 0.4741 0.4745 0.4749
1113.951549 0.4751 0.4748 0.4746 0.4736 0.4718
1118.963765 0.4699 0.4655 0.4605 0.4564 0.4525
1123.975980 0.4476 0.4415 0.4347 0.4251 0.4154
1128.988196 0.4036 0.3907 0.3764 0.3609 0.3393
1134.000412 0.3086 0.2973 0.2951 0.2949 0.2948
1139.012627 0.2947 0.2964 0.2945 0.3093 0.3292
1144.024843 0.3382 0.3437 0.3490 0.3776 0.4150
1149.037059 0.4533 0.4914 0.5296 0.5679 0.5849
1154.049275 0.5927 0.5975 0.6019 0.6070 0.6122
1159.061490 0.6197 0.6572 0.6722 0.6822 0.6890
1164.073706 0.6954 0.7014 0.7066 0.7117 0.7150
1169.085922 0.7167 0.7182 0.7196 0.7201 0.7202
1174.098137 0.7204 0.7205 0.7179 0.7191 0.7189
1179.110353 0.7181 0.7165 0.7146 0.7117 0.7084
1184.122569 0.7046 0.7022 0.7003 0.6988 0.6981
1189.134784 0.6974 0.6967 0.6960 0.6953 0.6946
1194.147000 0.6939 0.6932 0.6860 0.6771 0.6688
1199.159216 0.6606 0.6523 0.6439 0.6339 0.6151
1204.171431 0.6023 0.5943 0.5871 0.5810 0.5765
1209.183647 0.5724 0.5684 0.5668 0.5657 0.5645
1214.195863 0.5634 0.5626 0.5620 0.5614 0.5608
1219.208078 0.5601 0.5593 0.5584 0.5576 0.5522
1224.220294 0.5284 0.5061 0.4918 0.4816 0.4503
1229.232510 0.4316 0.4065 0.3789 0.3513 0.3238
1234.244725 0.2961 0.2800 0.2167 0.1905 0.1865
1239.256941 0.1853 0.1818 0.1889 0.1937 0.1969
1244.269157 0.2000 0.2032 0.2064 0.2112 0.2178
1249.281373 0.2272 0.2411 0.4549 0.6295 0.6630
1254.293588 0.6651 0.6662 0.6668 0.6673 0.6650
1259.305804 0.6556 0.6444 0.6332 0.6221 0.6114
1264.318020 0.6086 0.6318 0.6737 0.6892 0.6931
1269.330235 0.6958 0.6973 0.6979 0.6968 0.6946
1274.342451 0.6911 0.6873 0.6832 0.6791 0.6750
1279.354667 0.6709 0.6671 0.6646 0.6641 0.6641
1284.366882 0.6642 0.6647 0.6667 0.6738 0.7046
1289.379098 0.7207 0.7267 0.7317 0.7366 0.7415
1294.391314 0.7462 0.7511 0.7561 0.7605 0.7638
1299.403529 0.7656 0.7670 0.7664 0.7663 0.7646
1304.415745 0.7622 0.7597 0.7571 0.7540 0.7504
1309.427961 0.7457 0.7406 0.7365 0.7327 0.7287
1314.440176 0.7245 0.7203 0.7138 0.6881 0.6557
1319.452392 0.6233 0.5910 0.5586 0.5262 0.4939
1324.464608 0.4615 0.4291 0.3967 0.3644 0.3320
1329.476824 0.2996 0.2825 0.2769 0.2752 0.2748
1334.489039 0.2913 0.3386 0.2948 0.4125 0.5088
1339.501255 0.5655 0.6222 0.6608 0.6764 0.6834
1344.513471 0.6879 0.6904 0.6919 0.6969 0.6934
1349.525686 0.6850 0.6747 0.6636 0.6526 0.6416
1354.537902 0.6305 0.6195 0.6112 0.6062 0.6026
1359.550118 0.6024 0.6036 0.6049 0.6066 0.6091
1364.562333 0.6125 0.6149 0.6155 0.6152 0.6144
1369.574549 0.6113 0.6058 0.5995 0.5930 0.5868
1374.586765 0.5806 0.5668 0.5211 0.4622 0.4034
1379.598980 0.3445 0.2885 0.2612 0.2506 0.2424
1384.611196 0.2214 0.2064 0.2015 0.2011 0.1965
1389.623412 0.2098 0.2558 0.3129 0.3700 0.4270
1394.635627 0.4841 0.5412 0.5983 0.6338 0.6415
1399.647843 0.6405 0.6396 0.6386 0.6387 0.6369
1404.660059 0.6350 0.6320 0.6242 0.6144 0.6046
1409.672275 0.5948 0.5849 0.5751 0.5653 0.5587
1414.684490 0.5549 0.5516 0.5496 0.5486 0.5473
1419.696706 0.5441 0.5386 0.5322 0.5252 0.5177
1424.708922 0.5089 0.4943 0.4762 0.4611 0.4545
1429.721137 0.4531 0.4560 0.4599 0.4630 0.4671
1434.733353 0.4715 0.4748 0.4764 0.4770 0.4776
1439.745569 0.4785 0.4801 0.4824 0.4852 0.4885
1444.757784 0.4920 0.4957 0.4997 0.5037 0.5101
1449.770000 0.6047 0.6847 0.6894 0.6910 0.6909
1454.782216 0.6904 0.6897 0.6899 0.6891 0.6874
1459.794431 0.6862 0.6849 0.6835 0.6822 0.6807
1464.806647 0.6790 0.6774 0.6759 0.6745 0.6695
1469.818863 0.6593 0.6477 0.6361 0.6244 0.6128
1474.831078 0.6057 0.6042 0.6024 0.6019 0.6055
1479.843294 0.6187 0.6410 0.6633 0.6857 0.7050
1484.855510 0.7165 0.7214 0.7240 0.7252 0.7261
1489.867725 0.7267 0.7268 0.7268 0.7263 0.7246
1494.879941 0.7234 0.7234 0.7221 0.7208 0.7194
1499.892157 0.7181 0.7165 0.7145 0.7125 0.7105
1504.904373 0.7085 0.7064 0.7042 0.7020 0.6999
1509.916588 0.6977 0.6956 0.6935 0.6912 0.6888
1514.928804 0.6865 0.6842 0.6818 0.6794 0.6768
1519.941020 0.6741 0.6713 0.6686 0.6659 0.6631
1524.953235 0.6604 0.6577 0.6550 0.6524 0.6500
1529.965451 0.6476 0.6449 0.6412 0.6364 0.6311
1534.977667 0.6250 0.6188 0.6127 0.6067 0.5990
1539.989882 0.5880 0.5767 0.5660 0.5573 0.5491
1545.002098 0.5408 0.5327 0.5249 0.5149 0.4861
1550.014314 0.4258 0.3703 0.3361 0.3259 0.3175
1555.026529 0.3098 0.3021 0.2930 0.2803 0.2657
1560.038745 0.2457 0.2249 0.2075 0.1947 0.1822
1565.050961 0.1658 0.1426 0.1159 0.1057 0.0958
1570.063176 0.0867 0.0833 0.0795 0.0841 0.0849
1575.075392 0.0906 0.1138 0.1454 0.1771 0.2087
1580.087608 0.2403 0.2720 0.3036 0.3353 0.3669
1585.099824 0.3920 0.3913 0.3905 0.3889 0.3856
1590.112039 0.3817 0.3775 0.3732 0.3688 0.3644
1595.124255 0.3592 0.3541 0.3517 0.3506 0.3537
1600.136471 0.3737 0.3937 0.4137 0.4337 0.4536
1605.148686 0.4737 0.4937 0.5139 0.5339 0.5540
1610.160902 0.5744 0.5963 0.6252 0.6714 0.6787
1615.173118 0.6845 0.6866 0.6886 0.6907 0.6927
1620.185333 0.6944 0.6953 0.6961 0.6969 0.6976
1625.197549 0.6979 0.6980 0.6981 0.6986 0.6997
1630.209765 0.6977 0.6973 0.6968 0.6955 0.6936
1635.221980 0.6917 0.6898 0.6878 0.6856 0.6830
1640.234196 0.6804 0.6778 0.6752 0.6726 0.6699
1645.246412 0.6670 0.6640 0.6611 0.6581 0.6547
1650.258627 0.6507 0.6467 0.6432 0.6400 0.6369
1655.270843 0.6338 0.6310 0.6289 0.6269 0.6248
1660.283059 0.6227 0.6205 0.6180 0.6151 0.6122
1665.295275 0.6086 0.6034 0.5973 0.5898 0.5815
1670.307490 0.5721 0.5590 0.5397 0.5137 0.4891
1675.319706 0.4708 0.4597 0.4500 0.4412 0.4321
1680.331922 0.4217 0.4095 0.3809 0.2849 0.1710
1685.344137 0.1593 0.1529 0.1465 0.1409 0.1370
1690.356353 0.1349 0.1348 0.1343 0.1352 0.1392
1695.368569 0.1419 0.1457 0.1501 0.1569 0.1729
1700.380784 0.1956 0.2183 0.2410 0.2637 0.2863
1705.393000 0.3090 0.3317 0.3544 0.4264 0.5204
1710.405216 0.5384 0.5586 0.5813 0.6038 0.6176
1715.417431 0.6282 0.6358 0.6414 0.6470 0.6521
1720.429647 0.6558 0.6584 0.6609 0.6635 0.6661
1725.441863 0.6684 0.6702 0.6720 0.6738 0.6755
1730.454078 0.6769 0.6780 0.6792 0.6803 0.6809
1735.466294 0.6810 0.6811 0.6812 0.6813 0.6812
1740.478510 0.6808 0.6804 0.6799 0.6790 0.6778
1745.490725 0.6764 0.6751 0.6739 0.6729 0.6719
1750.502941 0.6709 0.6699 0.6689 0.6679 0.6669
1755.515157 0.6659 0.6650 0.6645 0.6644 0.6643
1760.527373 0.6642 0.6641 0.6640 0.6639 0.6638
1765.539588 0.6637 0.6638 0.6642 0.6649 0.6657
1770.551804 0.6664 0.6672 0.6679 0.6687 0.6694
1775.564020 0.6702 0.6710 0.6718 0.6726 0.6734
1780.576235 0.6742 0.6749 0.6757 0.6765 0.6773
1785.588451 0.6781 0.6789 0.6797 0.6805 0.6813
1790.600667 0.6821 0.6829 0.6836 0.6844 0.6851
1795.612882 0.6859 0.6866 0.6874 0.6881 0.6886
1800.625098 0.6889 0.6891 0.6893 0.6896 0.6898
1805.637314 0.6900 0.6903 0.6905 0.6907 0.6909
1810.649529 0.6912 0.6914 0.6919 0.6925 0.6932
1815.661745 0.6938 0.6945 0.6951 0.6957 0.6964
1820.673961 0.6970 0.6977 0.6983 0.6989 0.6996
1825.686176 0.7002 0.7008 0.7015 0.7021 0.7027
1830.698392 0.7034 0.7040 0.7046 0.7053 0.7059
1835.710608 0.7065 0.7072 0.7078 0.7082 0.7085
1840.722824 0.7088 0.7091 0.7095 0.7098 0.7101
1845.735039 0.7104 0.7108 0.7111 0.7114 0.7117
1850.747255 0.7121 0.7124 0.7127 0.7130 0.7134
1855.759471 0.7137 0.7140 0.7145 0.7149 0.7153
1860.771686 0.7158 0.7162 0.7166 0.7170 0.7175
1865.783902 0.7179 0.7183 0.7188 0.7192 0.7196
1870.796118 0.7200 0.7204 0.7206 0.7207 0.7207
1875.808333 0.7208 0.7209 0.7210 0.7210 0.7211
1880.820549 0.7212 0.7213 0.7213 0.7214 0.7215
1885.832765 0.7215 0.7216 0.7217 0.7219 0.7220
1890.844980 0.7221 0.7223 0.7224 0.7225 0.7227
1895.857196 0.7228 0.7230 0.7231 0.7232 0.7234
1900.869412 0.7236 0.7243 0.7251 0.7259 0.7267
1905.881627 0.7275 0.7283 0.7289 0.7295 0.7301
1910.893843 0.7307 0.7313 0.7319 0.7325 0.7330
1915.906059 0.7332 0.7334 0.7335 0.7337 0.7338
1920.918275 0.7340 0.7341 0.7343 0.7345 0.7346
1925.930490 0.7348 0.7349 0.7351 0.7352 0.7354
1930.942706 0.7356 0.7357 0.7359 0.7360 0.7362
1935.954922 0.7362 0.7362 0.7362 0.7362 0.7362
1940.967137 0.7362 0.7362 0.7362 0.7362 0.7362
1945.979353 0.7362 0.7362 0.7362 0.7362 0.7362
1950.991569 0.7362 0.7360 0.7357 0.7354 0.7351
1956.003784 0.7348 0.7345 0.7342 0.7339 0.7336
1961.016000 0.7333 0.7330 0.7327 0.7342 0.7328
1966.028216 0.7328 0.7329 0.7330 0.7331 0.7331
1971.040431 0.7332 0.7333 0.7333 0.7334 0.7335
1976.052647 0.7335 0.7336 0.7337 0.7338 0.7339
1981.064863 0.7341 0.7344 0.7346 0.7348 0.7351
1986.077078 0.7353 0.7355 0.7357 0.7360 0.7362
1991.089294 0.7364 0.7367 0.7369 0.7371 0.7373
1996.101510 0.7376 0.7378 0.7380 0.7380 0.7379
2001.113725 0.7379 0.7378 0.7377 0.7377 0.7376
2006.125941 0.7376 0.7375 0.7374 0.7374 0.7373
2011.138157 0.7372 0.7370 0.7368 0.7366 0.7364
2016.150373 0.7362 0.7360 0.7358 0.7356 0.7354
2021.162588 0.7352 0.7350 0.7348 0.7345 0.7343
2026.174804 0.7341 0.7339 0.7336 0.7333 0.7330
2031.187020 0.7326 0.7323 0.7320 0.7317 0.7314
2036.199235 0.7311 0.7307 0.7304 0.7301 0.7298
2041.211451 0.7295 0.7292 0.7290 0.7288 0.7285
2046.223667 0.7283 0.7281 0.7279 0.7276 0.7274
2051.235882 0.7272 0.7270 0.7267 0.7265 0.7263
2056.248098 0.7260 0.7258 0.7255 0.7252 0.7250
2061.260314 0.7247 0.7245 0.7242 0.7240 0.7237
2066.272529 0.7235 0.7232 0.7230 0.7227 0.7225
2071.284745 0.7222 0.7220 0.7217 0.7215 0.7212
2076.296961 0.7210 0.7207 0.7205 0.7202 0.7199
2081.309176 0.7197 0.7194 0.7191 0.7188 0.7186
2086.321392 0.7183 0.7180 0.7178 0.7175 0.7172
2091.333608 0.7170 0.7167 0.7164 0.7162 0.7159
2096.345824 0.7154 0.7148 0.7143 0.7138 0.7132
2101.358039 0.7127 0.7121 0.7116 0.7111 0.7105
2106.370255 0.7100 0.7094 0.7089 0.7082 0.7073
2111.382471 0.7064 0.7055 0.7045 0.7035 0.7026
2116.394686 0.7017 0.7008 0.6998 0.6989 0.6980
2121.406902 0.6972 0.6967 0.6964 0.6961 0.6958
2126.419118 0.6955 0.6951 0.6948 0.6945 0.6942
2131.431333 0.6939 0.6936 0.6933 0.6929 0.6926
2136.443549 0.6923 0.6920 0.6917 0.6914 0.6911
2141.455765 0.6907 0.6904 0.6901 0.6898 0.6895
2146.467980 0.6892 0.6888 0.6885 0.6882 0.6879
2151.480196 0.6876 0.6873 0.6869 0.6864 0.6857
2156.492412 0.6849 0.6840 0.6832 0.6824 0.6816
2161.504627 0.6807 0.6799 0.6791 0.6783 0.6775
2166.516843 0.6767 0.6759 0.6751 0.6744 0.6736
2171.529059 0.6729 0.6721 0.6714 0.6706 0.6698
2176.541275 0.6691 0.6683 0.6676 0.6668 0.6661
2181.553490 0.6653 0.6645 0.6635 0.6625 0.6615
2186.565706 0.6605 0.6594 0.6584 0.6574 0.6564
2191.577922 0.6553 0.6543 0.6532 0.6516 0.6499
2196.590137 0.6482 0.6464 0.6447 0.6437 0.6432
2201.602353 0.6426 0.6421 0.6416 0.6411 0.6405
2206.614569 0.6400 0.6395 0.6390 0.6385 0.6381
2211.626784 0.6377 0.6374 0.6370 0.6366 0.6363
2216.639000 0.6359 0.6355 0.6352 0.6348 0.6345
2221.651216 0.6341 0.6337 0.6332 0.6325 0.6318
2226.663431 0.6311 0.6303 0.6296 0.6289 0.6281
2231.675647 0.6274 0.6267 0.6259 0.6252 0.6245
2236.687863 0.6237 0.6230 0.6222 0.6212 0.6203
2241.700078 0.6193 0.6183 0.6173 0.6163 0.6154
2246.712294 0.6144 0.6134 0.6124 0.6114 0.6105
2251.724510 0.6095 0.6085 0.6075 0.6065 0.6054
2256.736725 0.6043 0.6032 0.6021 0.6010 0.5999
2261.748941 0.5988 0.5977 0.5966 0.5956 0.5945
2266.761157 0.5934 0.5923 0.5912 0.5901 0.5890
2271.773373 0.5882 0.5874 0.5866 0.5858 0.5850
2276.785588 0.5842 0.5834 0.5826 0.5818 0.5810
2281.797804 0.5802 0.5794 0.5786 0.5778 0.5771
2286.810020 0.5763 0.5756 0.5748 0.5741 0.5730
2291.822235 0.5717 0.5704 0.5691 0.5678 0.5663
2296.834451 0.5639 0.5615 0.5591 0.5566 0.5542
2301.846667 0.5513 0.5483 0.5456 0.5439 0.5424
2306.858882 0.5410 0.5395 0.5380 0.5365 0.5350
2311.871098 0.5335 0.5320 0.5305 0.5290 0.5275
2316.883314 0.5261 0.5246 0.5231 0.5216 0.5201
2321.895529 0.5186 0.5171 0.5155 0.5140 0.5126
2326.907745 0.5110 0.5094 0.5083 0.5073 0.5063
2331.919961 0.5053 0.5044 0.5040 0.5036 0.5033
2336.932176 0.5030 0.5036 0.5043 0.5049 0.5056
2341.944392 0.5062 0.5069 0.5073 0.5076 0.5080
2346.956608 0.5084 0.5086 0.5083 0.5072 0.5061
2351.968824 0.5049 0.5038 0.5027 0.5016 0.5006
2356.981039 0.4996 0.4986 0.4977 0.4967 0.4958
2361.993255 0.4949 0.4941 0.4933 0.4925 0.4917
2367.005471 0.4909 0.4901 0.4893 0.4885 0.4877
2372.017686 0.4869 0.4861 0.4853 0.4843 0.4833
2377.029902 0.4824 0.4814 0.4805 0.4795 0.4786
2382.042118 0.4776 0.4767 0.4757 0.4751 0.4744
2387.054333 0.4738 0.4732 0.4726 0.4720 0.4715
2392.066549 0.4711 0.4707 0.4703 0.4699 0.4695
2397.078765 0.4692 0.4694 0.4696 0.4698 0.4699
2402.090980 0.4700 0.4699 0.4697 0.4695 0.4693
2407.103196 0.4691 0.4690 0.4688 0.4686 0.4684
2412.115412 0.4682 0.4679 0.4666 0.4651 0.4638
2417.127627 0.4625 0.4612 0.4599 0.4586 0.4573
2422.139843 0.4562 0.4555 0.4549 0.4542 0.4537
2427.152059 0.4535 0.4534 0.4532 0.4530 0.4528
2432.164275 0.4526 0.4524 0.4525 0.4525 0.4526
2437.176490 0.4526 0.4527 0.4527 0.4528 0.4528
2442.188706 0.4529 0.4530 0.4530 0.4531 0.4530
2447.200922 0.4528 0.4527 0.4526 0.4525 0.4524
2452.213137 0.4523 0.4522 0.4520 0.4518 0.4515
2457.225353 0.4507 0.4485 0.4464 0.4443 0.4421
2462.237569 0.4399 0.4384 0.4369 0.4355 0.4341
2467.249784 0.4330 0.4319 0.4310 0.4302 0.4295
2472.262000 0.4288 0.4281 0.4273 0.4266 0.4259
2477.274216 0.4252 0.4242 0.4231 0.4221 0.4211
2482.286431 0.4200 0.4190 0.4180 0.4169 0.4159
2487.298647 0.4149 0.4138 0.4128 0.4118 0.4108
2492.310863 0.4098 0.4089 0.4080 0.4071 0.4062
2497.323078 0.4053 0.4044 0.4035 0.4026 0.4017
2502.335294 0.4008 0.3999 0.3991 0.3982 0.3974
2507.347510 0.3966 0.3958 0.3949 0.3941 0.3933
2512.359725 0.3925 0.3916 0.3908 0.3900 0.3894
2517.371941 0.3887 0.3881 0.3875 0.3868 0.3862
2522.384157 0.3856 0.3849 0.3843 0.3837 0.3830
2527.396373 0.3824 0.3818 0.3812 0.3806 0.3800
2532.408588 0.3792 0.3792 0.3803 0.3808 0.3816
2537.420804 0.3824 0.3832 0.3840 0.3848 0.3853
2542.433020 0.3859 0.3865 0.3871 0.3877 0.3883
2547.445235 0.3887 0.3887 0.3886 0.3884 0.3883
2552.457451 0.3881 0.3879 0.3877 0.3876 0.3874
2557.469667 0.3872 0.3870 0.3868 0.3866 0.3864
2562.481882 0.3863 0.3864 0.3867 0.3876 0.3890
2567.494098 0.3904 0.3917 0.3931 0.3945 0.3958
2572.506314 0.3971 0.3984 0.3997 0.4009 0.4020
2577.518529 0.4030 0.4039 0.4049 0.4059 0.4069
2582.530745 0.4080 0.4090 0.4100 0.4110 0.4120
2587.542961 0.4130 0.4139 0.4152 0.4169 0.4189
2592.555176 0.4205 0.4216 0.4242 0.4240 0.4222
2597.567392 0.4217 0.4211 0.4205 0.4199 0.4192
2602.579608 0.4184 0.4175 0.4163 0.4151 0.4139
2607.591824 0.4127 0.4114 0.4100 0.4085 0.4072
2612.604039 0.4061 0.4050 0.4039 0.4028 0.4016
2617.616255 0.4006 0.3996 0.3987 0.3977 0.3968
2622.628471 0.3959 0.3950 0.3941 0.3931 0.3922
2627.640686 0.3913 0.3905 0.3897 0.3889 0.3880
2632.652902 0.3872 0.3864 0.3856 0.3848 0.3840
2637.665118 0.3831 0.3823 0.3815 0.3807 0.3799
2642.677333 0.3791 0.3782 0.3776 0.3772 0.3768
2647.689549 0.3764 0.3760 0.3757 0.3753 0.3749
2652.701765 0.3745 0.3741 0.3739 0.3737 0.3737
2657.713980 0.3736 0.3736 0.3735 0.3735 0.3735
2662.726196 0.3734 0.3722 0.3729 0.3734 0.3734
2667.738412 0.3735 0.3737 0.3739 0.3742 0.3745
2672.750627 0.3746 0.3749 0.3754 0.3761 0.3777
2677.762843 0.3799 0.3824 0.3849 0.3867 0.3881
2682.775059 0.3893 0.3905 0.3915 0.3923 0.3930
2687.787275 0.3937 0.3942 0.3946 0.3950 0.3955
2692.799490 0.3958 0.3958 0.3958 0.3958 0.3957
2697.811706 0.3956 0.3954 0.3947 0.3939 0.3930
2702.823922 0.3921 0.3911 0.3901 0.3890 0.3882
2707.836137 0.3881 0.3883 0.3888 0.3894 0.3905
2712.848353 0.3921 0.3937 0.3954 0.3971 0.3989
2717.860569 0.4006 0.4024 0.4040 0.4054 0.4066
2722.872784 0.4075 0.4083 0.4091 0.4099 0.4108
2727.885000 0.4119 0.4129 0.4140 0.4146 0.4152
2732.897216 0.4157 0.4163 0.4169 0.4175 0.4180
2737.909431 0.4186 0.4191 0.4196 0.4197 0.4195
2742.921647 0.4193 0.4190 0.4186 0.4182 0.4178
2747.933863 0.4174 0.4169 0.4161 0.4153 0.4145
2752.946078 0.4136 0.4128 0.4121 0.4114 0.4107
2757.958294 0.4100 0.4094 0.4088 0.4081 0.4075
2762.970510 0.4069 0.4063 0.4061 0.4059 0.4058
2767.982725 0.4056 0.4052 0.4049 0.4045 0.4041
2772.994941 0.4036 0.4032 0.4028 0.4023 0.4020
2778.007157 0.4020 0.4020 0.4021 0.4021 0.4019
2783.019373 0.3898 0.4030 0.4038 0.4047 0.4056
2788.031588 0.4065 0.4074 0.4087 0.4107 0.4130
2793.043804 0.4156 0.4180 0.4202 0.4220 0.4231
2798.056020 0.4240 0.4250 0.4259 0.4269 0.4278
2803.068235 0.4285 0.4291 0.4297 0.4303 0.4308
2808.080451 0.4314 0.4320 0.4326 0.4331 0.4337
2813.092667 0.4342 0.4347 0.4353 0.4362 0.4374
2818.104882 0.4389 0.4428 0.4470 0.4517 0.4540
2823.117098 0.4560 0.4580 0.4599 0.4616 0.4633
2828.129314 0.4655 0.4678 0.4700 0.4721 0.4742
2833.141529 0.4763 0.4784 0.4806 0.4825 0.4845
2838.153745 0.4865 0.4885 0.4904 0.4922 0.4939
2843.165961 0.4957 0.4974 0.4991 0.5009 0.5026
2848.178176 0.5044 0.5061 0.5078 0.5096 0.5110
2853.190392 0.5122 0.5135 0.5148 0.5160 0.5173
2858.202608 0.5185 0.5198 0.5210 0.5223 0.5236
2863.214824 0.5247 0.5258 0.5268 0.5277 0.5287
2868.227039 0.5297 0.5307 0.5318 0.5328 0.5340
2873.239255 0.5357 0.5373 0.5387 0.5386 0.5389
2878.251471 0.5389 0.5384 0.5379 0.5374 0.5368
2883.263686 0.5361 0.5354 0.5347 0.5340 0.5332
2888.275902 0.5324 0.5316 0.5307 0.5298 0.5289
2893.288118 0.5279 0.5270 0.5260 0.5249 0.5235
2898.300333 0.5222 0.5208 0.5193 0.5175 0.5158
2903.312549 0.5140 0.5122 0.5104 0.5087 0.5069
2908.324765 0.5051 0.5033 0.5015 0.4998 0.4980
2913.336980 0.4962 0.4944 0.4925 0.4905 0.4887
2918.349196 0.4870 0.4855 0.4839 0.4823 0.4808
2923.361412 0.4792 0.4777 0.4762 0.4746 0.4731
2928.373627 0.4716 0.4701 0.4686 0.4673 0.4664
2933.385843 0.4655 0.4646 0.4636 0.4626 0.4617
2938.398059 0.4608 0.4599 0.4590 0.4580 0.4572
2943.410275 0.4566 0.4560 0.4555 0.4548 0.4542
2948.422490 0.4537 0.4531 0.4494 0.4478 0.4520
2953.434706 0.4528 0.4538 0.4549 0.4559 0.4570
2958.446922 0.4580 0.4591 0.4602 0.4612 0.4623
2963.459137 0.4634 0.4647 0.4660 0.4671 0.4676
2968.471353 0.4678 0.4681 0.4683 0.4684 0.4685
2973.483569 0.4686 0.4687 0.4687 0.4687 0.4688
2978.495784 0.4689 0.4693 0.4701 0.4711 0.4726
2983.508000 0.4746 0.4767 0.4787 0.4806 0.4825
2988.520216 0.4843 0.4858 0.4873 0.4887 0.4898
2993.532431 0.4907 0.4915 0.4922 0.4927 0.4934
2998.544647 0.4944 0.4957 0.4971 0.4984 0.5002
3003.556863 0.5024 0.5047 0.5071 0.5105 0.5151
3008.569078 0.5204 0.5277 0.5339 0.5365 0.5373
3013.581294 0.5379 0.5384 0.5391 0.5397 0.5403
3018.593510 0.5410 0.5417 0.5423 0.5446 0.5444
3023.605725 0.5437 0.5439 0.5436 0.5431 0.5425
3028.617941 0.5420 0.5414 0.5408 0.5401 0.5395
3033.630157 0.5389 0.5382 0.5376 0.5369 0.5362
3038.642373 0.5355 0.5348 0.5342 0.5336 0.5331
3043.654588 0.5325 0.5319 0.5314 0.5308 0.5302
3048.666804 0.5296 0.5290 0.5284 0.5278 0.5272
3053.679020 0.5266 0.5260 0.5254 0.5242 0.5224
3058.691235 0.5205 0.5186 0.5167 0.5147 0.5117
3063.703451 0.5083 0.5049 0.5015 0.4983 0.4954
3068.715667 0.4926 0.4898 0.4870 0.4841 0.4812
3073.727882 0.4787 0.4769 0.4756 0.4762 0.4772
3078.740098 0.4791 0.4812 0.4833 0.4852 0.4871
3083.752314 0.4890 0.4908 0.4926 0.4946 0.4969
3088.764529 0.4994 0.5020 0.5048 0.5076 0.5111
3093.776745 0.5150 0.5195 0.5238 0.5270 0.5298
3098.788961 0.5322 0.5339 0.5354 0.5365 0.5374
3103.801176 0.5383 0.5392 0.5400 0.5409 0.5418
3108.813392 0.5427 0.5435 0.5444 0.5453 0.5461
3113.825608 0.5470 0.5478 0.5487 0.5498 0.5511
3118.837824 0.5524 0.5537 0.5550 0.5562 0.5575
3123.850039 0.5588 0.5601 0.5616 0.5631 0.5646
3128.862255 0.5661 0.5675 0.5690 0.5705 0.5720
3133.874471 0.5735 0.5750 0.5765 0.5779 0.5788
3138.886686 0.5793 0.5798 0.5803 0.5808 0.5812
3143.898902 0.5813 0.5815 0.5817 0.5819 0.5820
3148.911118 0.5822 0.5824 0.5828 0.5831 0.5834
3153.923333 0.5838 0.5841 0.5845 0.5848 0.5852
3158.935549 0.5855 0.5863 0.5873 0.5883 0.5894
3163.947765 0.5904 0.5909 0.5903 0.5897 0.5891
3168.959980 0.5885 0.5872 0.5857 0.5852 0.5847
3173.972196 0.5842 0.5841 0.5841 0.5841 0.5842
3178.984412 0.5842 0.5844 0.5846 0.5849 0.5851
3183.996627 0.5853 0.5862 0.5880 0.5896 0.5910
3189.008843 0.5923 0.5936 0.5950 0.5963 0.5977
3194.021059 0.5990 0.6004 0.6017 0.6035 0.6038
3199.033275 0.6038 0.6038 0.6039 0.6039 0.6039
3204.045490 0.6039 0.6042 0.6044 0.6047 0.6050
3209.057706 0.6052 0.6055 0.6058 0.6061 0.6064
3214.069922 0.6067 0.6070 0.6073 0.6076 0.6079
3219.082137 0.6082 0.6085 0.6088 0.6090 0.6093
3224.094353 0.6095 0.6097 0.6099 0.6101 0.6103
3229.106569 0.6105 0.6107 0.6109 0.6111 0.6111
3234.118784 0.6110 0.6110 0.6110 0.6110 0.6109
3239.131000 0.6109 0.6109 0.6109 0.6109 0.6108
3244.143216 0.6108 0.6108 0.6108 0.6108 0.6107
3249.155431 0.6105 0.6101 0.6098 0.6095 0.6091
3254.167647 0.6088 0.6084 0.6081 0.6077 0.6074
3259.179863 0.6071 0.6069 0.6066 0.6063 0.6061
3264.192078 0.6058 0.6055 0.6053 0.6050 0.6047
3269.204294 0.6044 0.6042 0.6039 0.6036 0.6034
3274.216510 0.6031 0.6028 0.6025 0.6023 0.6020
3279.228725 0.6017 0.6014 0.6012 0.6010 0.6008
3284.240941 0.6008 0.6008 0.6008 0.6008 0.6008
3289.253157 0.6007 0.6007 0.6007 0.6007 0.6008
3294.265373 0.6010 0.6013 0.6016 0.6019 0.6022
3299.277588 0.6025 0.6028 0.6031 0.6033 0.6035
3304.289804 0.6038 0.6040 0.6042 0.6043 0.6041
3309.302020 0.6037 0.6033 0.6029 0.6025 0.6020
3314.314235 0.6010 0.5998 0.5986 0.5973 0.5957
3319.326451 0.5933 0.5912 0.5900 0.5891 0.5882
3324.338667 0.5877 0.5872 0.5867 0.5862 0.5856
3329.350882 0.5851 0.5846 0.5841 0.5837 0.5833
3334.363098 0.5830 0.5827 0.5824 0.5820 0.5817
3339.375314 0.5814 0.5811 0.5807 0.5804 0.5802
3344.387529 0.5801 0.5801 0.5803 0.5811 0.5822
3349.399745 0.5834 0.5846 0.5859 0.5872 0.5881
3354.411961 0.5882 0.5880 0.5878 0.5875 0.5867
3359.424176 0.5857 0.5847 0.5837 0.5823 0.5800
3364.436392 0.5770 0.5739 0.5699 0.5655 0.5622
3369.448608 0.5602 0.5591 0.5580 0.5570 0.5560
3374.460824 0.5551 0.5542 0.5533 0.5524 0.5515
3379.473039 0.5503 0.5487 0.5468 0.5448 0.5424
3384.485255 0.5397 0.5376 0.5360 0.5344 0.5329
3389.497471 0.5315 0.5304 0.5294 0.5285 0.5275
3394.509686 0.5263 0.5250 0.5238 0.5225 0.5212
3399.521902 0.5199 0.5186 0.5171 0.5157 0.5144
3404.534118 0.5133 0.5124 0.5116 0.5107 0.5099
3409.546333 0.5090 0.5081 0.5073 0.5066 0.5061
3414.558549 0.5056 0.5051 0.5046 0.5041 0.5036
3419.570765 0.5031 0.5025 0.5021 0.5018 0.5015
3424.582980 0.5011 0.5008 0.5005 0.5001 0.4998
3429.595196 0.4995 0.4991 0.4988 0.4985 0.4981
3434.607412 0.4978 0.4975 0.4971 0.4969 0.4966
3439.619627 0.4964 0.4961 0.4958 0.4956 0.4953
3444.631843 0.4950 0.4947 0.4944 0.4941 0.4939
3449.644059 0.4936 0.4933 0.4930 0.4927 0.4924
3454.656275 0.4921 0.4917 0.4914 0.4911 0.4908
3459.668490 0.4904 0.4901 0.4899 0.4898 0.4897
3464.680706 0.4897 0.4896 0.4896 0.4897 0.4903
3469.692922 0.4910 0.4917 0.4924 0.4931 0.4940
3474.705137 0.4953 0.4966 0.4979 0.4993 0.5006
3479.717353 0.5029 0.5056 0.5073 0.5083 0.5092
3484.729569 0.5101 0.5107 0.5111 0.5115 0.5118
3489.741784 0.5119 0.5120 0.5120 0.5120 0.5120
3494.754000 0.5120 0.5121 0.5123 0.5124 0.5125
3499.766216 0.5126 0.5129 0.5133 0.5136 0.5140
3504.778431 0.5143 0.5147 0.5151 0.5154 0.5158
3509.790647 0.5163 0.5168 0.5173 0.5178 0.5183
3514.802863 0.5188 0.5193 0.5198 0.5203 0.5208
3519.815078 0.5213 0.5217 0.5222 0.5226 0.5231
3524.827294 0.5235 0.5240 0.5244 0.5249 0.5254
3529.839510 0.5258 0.5263 0.5267 0.5272 0.5276
3534.851725 0.5281 0.5286 0.5291 0.5297 0.5302
3539.863941 0.5308 0.5313 0.5319 0.5324 0.5329
3544.876157 0.5335 0.5340 0.5346 0.5351 0.5357
3549.888373 0.5364 0.5372 0.5380 0.5387 0.5396
3554.900588 0.5405 0.5414 0.5424 0.5433 0.5442
3559.912804 0.5452 0.5462 0.5475 0.5488 0.5501
3564.925020 0.5514 0.5527 0.5540 0.5552 0.5564
3569.937235 0.5576 0.5587 0.5599 0.5611 0.5623
3574.949451 0.5635 0.5647 0.5662 0.5677 0.5691
3579.961667 0.5706 0.5721 0.5736 0.5753 0.5769
3584.973882 0.5784 0.5799 0.5808 0.5817 0.5826
3589.986098 0.5832 0.5838 0.5845 0.5850 0.5852
3594.998314 0.5855 0.5858 0.5861 0.5862 0.5863
3600.010529 0.5864 0.5865 0.5867 0.5871 0.5875
3605.022745 0.5879 0.5883 0.5887 0.5891 0.5895
3610.034961 0.5900 0.5904 0.5908 0.5913 0.5917
3615.047176 0.5921 0.5925 0.5930 0.5935 0.5941
3620.059392 0.5946 0.5952 0.5957 0.5963 0.5969
3625.071608 0.5974 0.5980 0.5985 0.5991 0.5997
3630.083824 0.6003 0.6010 0.6017 0.6023 0.6030
3635.096039 0.6037 0.6044 0.6050 0.6057 0.6064
3640.108255 0.6074 0.6086 0.6098 0.6110 0.6122
3645.120471 0.6134 0.6146 0.6158 0.6168 0.6179
3650.132686 0.6189 0.6200 0.6211 0.6221 0.6231
3655.144902 0.6241 0.6249 0.6257 0.6265 0.6272
3660.157118 0.6268 0.6262 0.6256 0.6250 0.6244
3665.169333 0.6241 0.6242 0.6245 0.6250 0.6261
3670.181549 0.6272 0.6283 0.6294 0.6305 0.6316
3675.193765 0.6329 0.6341 0.6353 0.6365 0.6376
3680.205980 0.6386 0.6396 0.6404 0.6410 0.6412
3685.218196 0.6414 0.6415 0.6417 0.6417 0.6415
3690.230412 0.6413 0.6410 0.6408 0.6405 0.6402
3695.242627 0.6398 0.6393 0.6389 0.6384 0.6380
3700.254843 0.6375 0.6371 0.6366 0.6360 0.6352
3705.267059 0.6344 0.6336 0.6328 0.6321 0.6313
3710.279275 0.6307 0.6301 0.6296 0.6290 0.6285
3715.291490 0.6282 0.6282 0.6288 0.6294 0.6301
3720.303706 0.6308 0.6321 0.6336 0.6351 0.6366
3725.315922 0.6382 0.6404 0.6427 0.6448 0.6463
3730.328137 0.6474 0.6476 0.6473 0.6471 0.6467
3735.340353 0.6462 0.6457 0.6453 0.6448 0.6443
3740.352569 0.6439 0.6435 0.6431 0.6427 0.6423
3745.364784 0.6419 0.6415 0.6411 0.6408 0.6405
3750.377000 0.6401 0.6398 0.6395 0.6392 0.6389
3755.389216 0.6388 0.6387 0.6386 0.6385 0.6385
3760.401431 0.6384 0.6383 0.6382 0.6381 0.6380
3765.413647 0.6380 0.6380 0.6380 0.6381 0.6382
3770.425863 0.6382 0.6383 0.6384 0.6384 0.6385
3775.438078 0.6386 0.6387 0.6389 0.6390 0.6391
3780.450294 0.6392 0.6393 0.6395 0.6397 0.6399
3785.462510 0.6400 0.6402 0.6404 0.6406 0.6408
3790.474725 0.6410 0.6412 0.6414 0.6416 0.6418
3795.486941 0.6420 0.6422 0.6426 0.6429 0.6432
3800.499157 0.6435 0.6439 0.6442 0.6445 0.6449
3805.511373 0.6451 0.6453 0.6456 0.6458 0.6460
3810.523588 0.6462 0.6460 0.6456 0.6452 0.6449
3815.535804 0.6445 0.6441 0.6437 0.6432 0.6424
3820.548020 0.6414 0.6404 0.6395 0.6385 0.6377
3825.560235 0.6368 0.6359 0.6350 0.6345 0.6345
3830.572451 0.6345 0.6345 0.6345 0.6346 0.6348
3835.584667 0.6351 0.6353 0.6356 0.6359 0.6362
3840.596882 0.6365 0.6368 0.6371 0.6374 0.6379
3845.609098 0.6383 0.6387 0.6391 0.6396 0.6400
3850.621314 0.6404 0.6409 0.6412 0.6414 0.6416
3855.633529 0.6418 0.6420 0.6422 0.6424 0.6423
3860.645745 0.6422 0.6421 0.6419 0.6418 0.6417
3865.657961 0.6416 0.6415 0.6412 0.6409 0.6406
3870.670176 0.6403 0.6400 0.6397 0.6394 0.6391
3875.682392 0.6388 0.6386 0.6383 0.6380 0.6378
3880.694608 0.6375 0.6372 0.6370 0.6367 0.6365
3885.706824 0.6362 0.6359 0.6357 0.6357 0.6362
3890.719039 0.6366 0.6371 0.6376 0.6381 0.6385
3895.731255 0.6345 0.6378 0.6400 0.6408 0.6418
3900.743471 0.6427 0.6436 0.6445 0.6455 0.6459
3905.755686 0.6461 0.6462 0.6462 0.6460 0.6457
3910.767902 0.6455 0.6453 0.6451 0.6448 0.6443
3915.780118 0.6438 0.6433 0.6428 0.6414 0.6398
3920.792333 0.6382 0.6366 0.6350 0.6333 0.6315
3925.804549 0.6297 0.6282 0.6276 0.6274 0.6276
3930.816765 0.6280 0.6283 0.6287 0.6291 0.6294
3935.828980 0.6295 0.6297 0.6298 0.6299 0.6301
3940.841196 0.6302 0.6302 0.6302 0.6301 0.6301
3945.853412 0.6301 0.6300 0.6299 0.6296 0.6293
3950.865627 0.6289 0.6286 0.6282 0.6279 0.6276
3955.877843 0.6267 0.6259 0.6250 0.6241 0.6232
3960.890059 0.6222 0.6203 0.6183 0.6162 0.6142
3965.902275 0.6122 0.6112 0.6115 0.6119 0.6123
3970.914490 0.6126 0.6127 0.6129 0.6131 0.6132
3975.926706 0.6134 0.6132 0.6128 0.6124 0.6119
3980.938922 0.6113 0.6104 0.6093 0.6082 0.6075
3985.951137 0.6069 0.6064 0.6063 0.6063 0.6062
3990.963353 0.6061 0.6061 0.6060 0.6060 0.6059
3995.975569 0.6057 0.6052 0.6046 0.6041 0.6035
4000.987784 0.6029 0.6024 0.6018 0.6012 0.6011
##END=
