##TITLE=RAW UMBER
##JCAMP-DX=4.24
##DATA TYPE=INFRARED SPECTRUM
##CLASS=COBLENTZ
##ORIGIN=DESOTO CHEMICAL COATINGS, INC.
##OWNER=COBLENTZ SOCIETY
Collection (C) 2018 copyright by the U.S. Secretary of Commerce
on behalf of the United States of America. All rights reserved.
##DATE=Not specified, most likely prior to 1970
##NAMES=BURNT UMBER
##MOLFORM=O3 Fe2
$$ Fe2O3 50-55%, MnO2 13%, CaCO3 4%, SILICATES 28-33%
##SOURCE REFERENCE=COBLENTZ NO. 4680
##$NIST ID=B6004680
##$NIST SOURCE=COBLENTZ
##$NIST IMAGE=cob4680
##SPECTROMETER/DATA SYSTEM=Not specified, most likely a grating spectrometer.
##STATE=SOLID (2.5 mg / 300 mg CsI DISC)
##SAMPLING PROCEDURE=TRANSMISSION
##RESOLUTION=4
##DATA PROCESSING=DIGITIZED BY NIST FROM HARD COPY (FROM TWO SEGMENTS)
##XUNITS=1/CM
##YUNITS=TRANSMITTANCE
##XFACTOR=1.000000
##YFACTOR=1
##DELTAX=1.330380
##FIRSTX=198.67
##LASTX=3988.92
##FIRSTY=0.962
##MAXX=3988.92
##MINX=198.67
##MAXY=0.969
##MINY=0.081
##NPOINTS=2850
##XYDATA=(X++(Y..Y))
198.670000 0.9620 0.9640 0.9620 0.9640 0.9640
205.321900 0.9640 0.9650 0.9650 0.9650 0.9650
211.973799 0.9660 0.9660 0.9680 0.9680 0.9690
218.625699 0.9690 0.9690 0.9690 0.9690 0.9690
225.277599 0.9690 0.9680 0.9680 0.9660 0.9660
231.929499 0.9660 0.9650 0.9640 0.9620 0.9610
238.581398 0.9610 0.9600 0.9580 0.9560 0.9540
245.233298 0.9540 0.9530 0.9530 0.9520 0.9490
251.885198 0.9480 0.9420 0.9400 0.9340 0.9330
258.537097 0.9320 0.9260 0.9200 0.9120 0.9050
265.188997 0.8940 0.8920 0.8840 0.8780 0.8700
271.840897 0.8640 0.8610 0.8570 0.8520 0.8500
278.492796 0.8460 0.8410 0.8400 0.8370 0.8300
285.144696 0.8210 0.8100 0.8020 0.7970 0.7781
291.796596 0.7530 0.7090 0.6750 0.6441 0.6231
298.448496 0.6031 0.5891 0.5800 0.5770 0.5760
305.100395 0.5690 0.5630 0.5550 0.5440 0.5290
311.752295 0.5150 0.5080 0.4951 0.4801 0.4591
318.404195 0.4260 0.3920 0.3660 0.3421 0.3310
325.056094 0.3220 0.3110 0.3040 0.2702 0.2670
331.707994 0.2590 0.2410 0.2310 0.2270 0.2190
338.359894 0.2170 0.2130 0.2110 0.2070 0.2050
345.011794 0.2020 0.2010 0.2010 0.1990 0.1990
351.663693 0.1990 0.1990 0.2010 0.2010 0.2020
358.315593 0.2060 0.2070 0.2110 0.2150 0.2190
364.967493 0.2210 0.2290 0.2310 0.2370 0.2410
371.619392 0.2500 0.2540 0.2580 0.2590 0.2680
378.271292 0.2740 0.2869 0.2999 0.3139 0.3200
384.923192 0.3280 0.3320 0.3390 0.3420 0.3480
391.575092 0.3510 0.3520 0.3520 0.3510 0.3510
398.226991 0.3500 0.3480 0.3480 0.3500 0.3560
404.878891 0.3580 0.3600 0.3640 0.3680 0.3680
411.530791 0.3670 0.3630 0.3580 0.3580 0.3560
418.182690 0.3510 0.3440 0.3340 0.3310 0.3201
424.834590 0.3100 0.3000 0.2980 0.2900 0.2790
431.486490 0.2680 0.2551 0.2490 0.2391 0.2310
438.138389 0.2260 0.2170 0.2010 0.1870 0.1810
444.790289 0.1710 0.1620 0.1580 0.1530 0.1470
451.442189 0.1380 0.1300 0.1230 0.1220 0.1190
458.094089 0.1170 0.1140 0.1110 0.1090 0.1060
464.745988 0.1030 0.1010 0.0970 0.0940 0.0900
471.397888 0.0850 0.0830 0.0830 0.0830 0.0850
478.049788 0.0860 0.0890 0.0900 0.0940 0.0990
484.701687 0.1030 0.1100 0.1140 0.1210 0.1290
491.353587 0.1350 0.1410 0.1430 0.1490 0.1540
498.005487 0.1590 0.1650 0.1690 0.1710 0.1740
504.657387 0.1750 0.1750 0.1750 0.1750 0.1740
511.309286 0.1740 0.1730 0.1700 0.1690 0.1610
517.961186 0.1580 0.1510 0.1420 0.1330 0.1290
524.613086 0.1250 0.1190 0.1130 0.1090 0.1050
531.264985 0.1010 0.0970 0.0950 0.0930 0.0890
537.916885 0.0890 0.0870 0.0830 0.0820 0.0820
544.568785 0.0810 0.0810 0.0810 0.0810 0.0810
551.220685 0.0820 0.0820 0.0830 0.0850 0.0870
557.872584 0.0890 0.0900 0.0930 0.0940 0.0970
564.524484 0.0980 0.0990 0.1010 0.1030 0.1060
571.176384 0.1090 0.1110 0.1140 0.1170 0.1210
577.828283 0.1220 0.1290 0.1330 0.1370 0.1390
584.480183 0.1420 0.1490 0.1500 0.1530 0.1580
591.132083 0.1630 0.1670 0.1690 0.1730 0.1780
597.783982 0.1810 0.1870 0.1930 0.1980 0.2020
604.435882 0.2030 0.2090 0.2110 0.2150 0.2190
611.087782 0.2260 0.2310 0.2340 0.2380 0.2420
617.739682 0.2490 0.2560 0.2600 0.2670 0.2720
624.391581 0.2790 0.2820 0.2840 0.2920 0.3000
631.043481 0.3070 0.3120 0.3150 0.3200 0.3280
637.695381 0.3310 0.3390 0.3440 0.3510 0.3600
644.347280 0.3680 0.3780 0.3860 0.3950 0.4069
650.999180 0.4280 0.4350 0.4420 0.4510 0.4590
657.651080 0.4640 0.4780 0.4909 0.5010 0.5159
664.302980 0.5280 0.5370 0.5440 0.5470 0.5490
670.954879 0.5630 0.5760 0.5830 0.5910 0.5990
677.606779 0.6040 0.6110 0.6190 0.6270 0.6310
684.258679 0.6390 0.6410 0.6480 0.6480 0.6570
690.910578 0.6600 0.6610 0.6630 0.6640 0.6680
697.562478 0.6730 0.6800 0.6840 0.6880 0.6960
704.214378 0.7080 0.7130 0.7200 0.7240 0.7320
710.866278 0.7450 0.7490 0.7520 0.7580 0.7640
717.518177 0.7680 0.7800 0.7890 0.7920 0.7980
724.170077 0.8000 0.8080 0.8090 0.8100 0.8180
730.821977 0.8250 0.8290 0.8290 0.8320 0.8320
737.473876 0.8360 0.8400 0.8410 0.8420 0.8440
744.125776 0.8440 0.8450 0.8450 0.8460 0.8480
750.777676 0.8480 0.8480 0.8460 0.8440 0.8440
757.429575 0.8440 0.8450 0.8460 0.8480 0.8480
764.081475 0.8480 0.8460 0.8460 0.8450 0.8400
770.733375 0.8370 0.8320 0.8290 0.8200 0.8120
777.385275 0.8090 0.8010 0.8000 0.8000 0.8010
784.037174 0.8050 0.8090 0.8100 0.8120 0.8120
790.689074 0.8100 0.8090 0.8010 0.7920 0.7860
797.340974 0.7810 0.7800 0.7800 0.7810 0.7940
803.992873 0.7980 0.8100 0.8210 0.8369 0.8489
810.644773 0.8600 0.8700 0.8780 0.8820 0.8890
817.296673 0.8900 0.8960 0.8980 0.9000 0.9010
823.948573 0.9040 0.9060 0.9060 0.9080 0.9080
830.600472 0.9090 0.9100 0.9100 0.9120 0.9130
837.252372 0.9160 0.9180 0.9200 0.9200 0.9200
843.904272 0.9210 0.9210 0.9200 0.9200 0.9200
850.556171 0.9200 0.9180 0.9140 0.9130 0.9120
857.208071 0.9100 0.9100 0.9090 0.9050 0.9010
863.859971 0.8960 0.8930 0.8900 0.8860 0.8810
870.511870 0.8760 0.8700 0.8690 0.8620 0.8600
877.163770 0.8580 0.8530 0.8490 0.8440 0.8400
883.815670 0.8330 0.8300 0.8290 0.8250 0.8200
890.467570 0.8120 0.8090 0.8040 0.8010 0.8000
897.119469 0.7930 0.7880 0.7800 0.7691 0.7610
903.771369 0.7580 0.7490 0.7470 0.7430 0.7290
910.423269 0.7230 0.7170 0.7120 0.7080 0.7050
917.075168 0.7040 0.7030 0.7030 0.7030 0.7030
923.727068 0.7010 0.7010 0.7010 0.7000 0.7000
930.378968 0.6990 0.6950 0.6920 0.6890 0.6880
937.030868 0.6850 0.6800 0.6730 0.6710 0.6690
943.682767 0.6690 0.6670 0.6640 0.6610 0.6530
950.334667 0.6400 0.6320 0.6210 0.6120 0.6040
956.986567 0.5960 0.5880 0.5770 0.5600 0.5470
963.638466 0.5330 0.5200 0.5080 0.4951 0.4821
970.290366 0.4630 0.4500 0.4350 0.4230 0.4150
976.942266 0.4040 0.3920 0.3820 0.3681 0.3580
983.594166 0.3430 0.3390 0.3300 0.3220 0.3100
990.246065 0.2990 0.2870 0.2780 0.2720 0.2680
996.897965 0.2600 0.2520 0.2450 0.2350 0.2250
1003.549865 0.2150 0.2110 0.2020 0.1990 0.1940
1010.201764 0.1910 0.1890 0.1860 0.1850 0.1820
1016.853664 0.1820 0.1810 0.1790 0.1780 0.1770
1023.505564 0.1770 0.1750 0.1740 0.1730 0.1730
1030.157463 0.1710 0.1700 0.1700 0.1700 0.1700
1036.809363 0.1710 0.1710 0.1730 0.1740 0.1770
1043.461263 0.1810 0.1850 0.1900 0.1910 0.1930
1050.113163 0.1980 0.2010 0.2020 0.2030 0.2050
1056.765062 0.2090 0.2100 0.2110 0.2150 0.2170
1063.416962 0.2180 0.2180 0.2190 0.2190 0.2190
1070.068862 0.2210 0.2210 0.2190 0.2190 0.2180
1076.720761 0.2180 0.2180 0.2170 0.2170 0.2180
1083.372661 0.2180 0.2180 0.2180 0.2190 0.2190
1090.024561 0.2210 0.2250 0.2260 0.2260 0.2270
1096.676461 0.2300 0.2330 0.2410 0.2559 0.2590
1103.328360 0.2640 0.2680 0.2700 0.2750 0.2800
1109.980260 0.2910 0.3020 0.3150 0.3220 0.3280
1116.632160 0.3320 0.3440 0.3540 0.3670 0.3750
1123.284059 0.3800 0.3910 0.4000 0.4100 0.4150
1129.935959 0.4240 0.4380 0.4460 0.4510 0.4600
1136.587859 0.4680 0.4750 0.4820 0.4910 0.5000
1143.239759 0.5080 0.5110 0.5170 0.5210 0.5280
1149.891658 0.5390 0.5470 0.5550 0.5590 0.5640
1156.543558 0.5690 0.5770 0.5800 0.5840 0.5870
1163.195458 0.5890 0.5890 0.5920 0.5970 0.5990
1169.847357 0.6080 0.6170 0.6200 0.6230 0.6310
1176.499257 0.6350 0.6400 0.6440 0.6530 0.6610
1183.151157 0.6640 0.6690 0.6730 0.6800 0.6840
1189.803056 0.6920 0.7030 0.7040 0.7090 0.7190
1196.454956 0.7210 0.7270 0.7310 0.7370 0.7410
1203.106856 0.7470 0.7490 0.7530 0.7580 0.7600
1209.758756 0.7690 0.7740 0.7740 0.7800 0.7850
1216.410655 0.7880 0.7900 0.7930 0.7980 0.8020
1223.062555 0.8080 0.8090 0.8120 0.8140 0.8170
1229.714455 0.8210 0.8290 0.8320 0.8340 0.8400
1236.366354 0.8440 0.8450 0.8480 0.8490 0.8500
1243.018254 0.8520 0.8530 0.8540 0.8600 0.8600
1249.670154 0.8620 0.8650 0.8680 0.8690 0.8700
1256.322054 0.8730 0.8730 0.8740 0.8780 0.8810
1262.973953 0.8820 0.8840 0.8840 0.8850 0.8850
1269.625853 0.8860 0.8860 0.8880 0.8880 0.8890
1276.277753 0.8890 0.8890 0.8890 0.8900 0.8900
1282.929652 0.8900 0.8920 0.8920 0.8920 0.8900
1289.581552 0.8900 0.8920 0.8940 0.8940 0.8960
1296.233452 0.8970 0.8980 0.8980 0.8980 0.8980
1302.885352 0.8970 0.8970 0.8960 0.8960 0.8970
1309.537251 0.8970 0.8970 0.8970 0.8970 0.8980
1316.189151 0.8980 0.9000 0.9000 0.9000 0.9000
1322.841051 0.9000 0.9000 0.9000 0.9000 0.9000
1329.492950 0.9010 0.8980 0.8980 0.8980 0.8980
1336.144850 0.8980 0.8980 0.8970 0.8970 0.8960
1342.796750 0.8960 0.8970 0.8970 0.8960 0.8970
1349.448649 0.8970 0.8970 0.8970 0.8980 0.8980
1356.100549 0.8980 0.9000 0.9000 0.9000 0.9000
1362.752449 0.9000 0.9000 0.8980 0.8980 0.8980
1369.404349 0.8970 0.8970 0.8960 0.8940 0.8940
1376.056248 0.8930 0.8930 0.8930 0.8930 0.8940
1382.708148 0.8940 0.8940 0.8960 0.8960 0.8960
1389.360048 0.8970 0.8970 0.8970 0.8960 0.8960
1396.011947 0.8960 0.8960 0.8940 0.8940 0.8940
1402.663847 0.8940 0.8930 0.8930 0.8930 0.8920
1409.315747 0.8880 0.8860 0.8860 0.8860 0.8880
1415.967647 0.8880 0.8890 0.8890 0.8880 0.8880
1422.619546 0.8850 0.8850 0.8840 0.8840 0.8840
1429.271446 0.8840 0.8840 0.8820 0.8810 0.8800
1435.923346 0.8780 0.8770 0.8770 0.8760 0.8760
1442.575245 0.8760 0.8760 0.8760 0.8760 0.8770
1449.227145 0.8770 0.8780 0.8800 0.8800 0.8800
1455.879045 0.8810 0.8820 0.8840 0.8840 0.8860
1462.530944 0.8890 0.8890 0.8900 0.8900 0.8900
1469.182844 0.8920 0.8960 0.8960 0.8970 0.8970
1475.834744 0.8980 0.9000 0.9000 0.9010 0.9010
1482.486644 0.9050 0.9050 0.9060 0.9060 0.9080
1489.138543 0.9080 0.9090 0.9090 0.9090 0.9090
1495.790443 0.9090 0.9090 0.9090 0.9090 0.9090
1502.442343 0.9090 0.9090 0.9090 0.9090 0.9090
1509.094242 0.9090 0.9090 0.9090 0.9090 0.9090
1515.746142 0.9090 0.9090 0.9080 0.9080 0.9080
1522.398042 0.9080 0.9080 0.9080 0.9060 0.9060
1529.049942 0.9050 0.9040 0.9040 0.9020 0.9010
1535.701841 0.9000 0.9000 0.8970 0.8970 0.8960
1542.353741 0.8940 0.8930 0.8920 0.8900 0.8900
1549.005641 0.8860 0.8850 0.8840 0.8820 0.8820
1555.657540 0.8810 0.8800 0.8780 0.8760 0.8730
1562.309440 0.8700 0.8700 0.8690 0.8690 0.8640
1568.961340 0.8610 0.8580 0.8560 0.8490 0.8490
1575.613240 0.8440 0.8410 0.8370 0.8330 0.8290
1582.265139 0.8220 0.8200 0.8160 0.8100 0.8080
1588.917039 0.8050 0.8010 0.8000 0.7980 0.7920
1595.568939 0.7890 0.7820 0.7770 0.7720 0.7690
1602.220838 0.7620 0.7600 0.7540 0.7520 0.7500
1608.872738 0.7490 0.7490 0.7450 0.7430 0.7410
1615.524638 0.7400 0.7390 0.7390 0.7400 0.7410
1622.176537 0.7430 0.7430 0.7450 0.7470 0.7480
1628.828437 0.7500 0.7540 0.7580 0.7620 0.7640
1635.480337 0.7650 0.7690 0.7720 0.7760 0.7820
1642.132237 0.7880 0.7900 0.7940 0.8000 0.8010
1648.784136 0.8020 0.8060 0.8090 0.8120 0.8130
1655.436036 0.8140 0.8200 0.8210 0.8260 0.8330
1662.087936 0.8380 0.8400 0.8420 0.8460 0.8500
1668.739835 0.8530 0.8540 0.8570 0.8600 0.8610
1675.391735 0.8640 0.8660 0.8680 0.8690 0.8700
1682.043635 0.8700 0.8720 0.8730 0.8760 0.8800
1688.695535 0.8810 0.8820 0.8840 0.8850 0.8860
1695.347434 0.8880 0.8890 0.8900 0.8900 0.8920
1701.999334 0.8920 0.8930 0.8940 0.8940 0.8960
1708.651234 0.8960 0.8970 0.8980 0.9000 0.9000
1715.303133 0.9010 0.9010 0.9020 0.9020 0.9040
1721.955033 0.9040 0.9060 0.9060 0.9080 0.9100
1728.606933 0.9100 0.9120 0.9130 0.9130 0.9130
1735.258833 0.9130 0.9130 0.9130 0.9140 0.9140
1741.910732 0.9160 0.9170 0.9170 0.9170 0.9180
1748.562632 0.9180 0.9180 0.9180 0.9180 0.9180
1755.214532 0.9180 0.9200 0.9200 0.9200 0.9200
1761.866431 0.9210 0.9210 0.9210 0.9200 0.9160
1768.518331 0.9160 0.9160 0.9160 0.9160 0.9160
1775.170231 0.9160 0.9170 0.9170 0.9170 0.9170
1781.822130 0.9180 0.9180 0.9180 0.9200 0.9200
1788.474030 0.9180 0.9180 0.9180 0.9170 0.9160
1795.125930 0.9140 0.9140 0.9140 0.9140 0.9160
1801.777830 0.9160 0.9160 0.9140 0.9130 0.9140
1808.429729 0.9140 0.9140 0.9120 0.9120 0.9120
1815.081629 0.9130 0.9130 0.9130 0.9130 0.9130
1821.733529 0.9140 0.9140 0.9130 0.9130 0.9130
1828.385428 0.9130 0.9130 0.9130 0.9130 0.9130
1835.037328 0.9130 0.9130 0.9130 0.9130 0.9120
1841.689228 0.9100 0.9100 0.9100 0.9100 0.9100
1848.341128 0.9090 0.9100 0.9090 0.9080 0.9060
1854.993027 0.9060 0.9060 0.9080 0.9080 0.9080
1861.644927 0.9080 0.9060 0.9060 0.9060 0.9060
1868.296827 0.9060 0.9060 0.9050 0.9050 0.9040
1874.948726 0.9040 0.9020 0.9010 0.9010 0.9000
1881.600626 0.8980 0.8980 0.8980 0.8980 0.8980
1888.252526 0.8970 0.8960 0.8930 0.8920 0.8920
1894.904426 0.8920 0.8920 0.8900 0.8900 0.8900
1901.556325 0.8920 0.8920 0.8920 0.8920 0.8920
1908.208225 0.8900 0.8900 0.8900 0.8900 0.8900
1914.860125 0.8900 0.8900 0.8900 0.8900 0.8890
1921.512024 0.8890 0.8890 0.8890 0.8880 0.8880
1928.163924 0.8880 0.8880 0.8880 0.8850 0.8860
1934.815824 0.8860 0.8860 0.8860 0.8860 0.8850
1941.467723 0.8850 0.8850 0.8840 0.8840 0.8820
1948.119623 0.8840 0.8840 0.8850 0.8840 0.8820
1954.771523 0.8810 0.8810 0.8800 0.8800 0.8800
1961.423423 0.8770 0.8760 0.8770 0.8770 0.8800
1968.075322 0.8800 0.8800 0.8770 0.8760 0.8740
1974.727222 0.8740 0.8730 0.8730 0.8730 0.8720
1981.379122 0.8720 0.8720 0.8720 0.8720 0.8730
1988.031021 0.8730 0.8720 0.8700 0.8690 0.8690
1994.682921 0.8690 0.8690 0.8690 0.8680 0.8660
2001.334821 0.8655 0.8650 0.8650 0.8650 0.8645
2007.986721 0.8640 0.8630 0.8620 0.8615 0.8610
2014.638620 0.8610 0.8610 0.8610 0.8610 0.8605
2021.290520 0.8600 0.8600 0.8600 0.8600 0.8600
2027.942420 0.8600 0.8600 0.8600 0.8600 0.8605
2034.594319 0.8610 0.8610 0.8610 0.8596 0.8581
2041.246219 0.8570 0.8560 0.8560 0.8560 0.8550
2047.898119 0.8540 0.8540 0.8540 0.8540 0.8540
2054.550019 0.8535 0.8530 0.8530 0.8530 0.8525
2061.201918 0.8520 0.8520 0.8520 0.8520 0.8520
2067.853818 0.8520 0.8520 0.8511 0.8501 0.8500
2074.505718 0.8500 0.8500 0.8500 0.8495 0.8490
2081.157617 0.8490 0.8490 0.8490 0.8490 0.8476
2087.809517 0.8461 0.8455 0.8450 0.8450 0.8450
2094.461417 0.8450 0.8450 0.8445 0.8440 0.8431
2101.113316 0.8421 0.8415 0.8410 0.8410 0.8410
2107.765216 0.8410 0.8410 0.8405 0.8400 0.8400
2114.417116 0.8400 0.8391 0.8381 0.8375 0.8370
2121.069016 0.8370 0.8370 0.8365 0.8360 0.8360
2127.720915 0.8360 0.8351 0.8341 0.8335 0.8330
2134.372815 0.8330 0.8330 0.8330 0.8330 0.8325
2141.024715 0.8320 0.8320 0.8320 0.8311 0.8301
2147.676614 0.8300 0.8300 0.8300 0.8300 0.8300
2154.328514 0.8300 0.8300 0.8300 0.8296 0.8291
2160.980414 0.8290 0.8290 0.8286 0.8281 0.8280
2167.632314 0.8280 0.8271 0.8261 0.8260 0.8260
2174.284213 0.8260 0.8260 0.8260 0.8260 0.8256
2180.936113 0.8251 0.8250 0.8250 0.8250 0.8250
2187.588013 0.8246 0.8241 0.8231 0.8221 0.8216
2194.239912 0.8211 0.8206 0.8201 0.8191 0.8181
2200.891812 0.8171 0.8161 0.8160 0.8160 0.8160
2207.543712 0.8160 0.8152 0.8142 0.8140 0.8140
2214.195611 0.8136 0.8131 0.8130 0.8130 0.8126
2220.847511 0.8121 0.8120 0.8120 0.8112 0.8102
2227.499411 0.8100 0.8100 0.8096 0.8091 0.8090
2234.151311 0.8090 0.8086 0.8081 0.8080 0.8080
2240.803210 0.8072 0.8062 0.8060 0.8060 0.8056
2247.455110 0.8051 0.8050 0.8050 0.8050 0.8050
2254.107010 0.8050 0.8050 0.8046 0.8041 0.8040
2260.758909 0.8040 0.8040 0.8040 0.8040 0.8040
2267.410809 0.8032 0.8022 0.8020 0.8020 0.8020
2274.062709 0.8020 0.8016 0.8011 0.8010 0.8010
2280.714609 0.8010 0.8010 0.8006 0.8001 0.8000
2287.366508 0.8000 0.8000 0.8000 0.8000 0.8000
2294.018408 0.7992 0.7982 0.7980 0.7980 0.7980
2300.670308 0.7980 0.7976 0.7971 0.7970 0.7970
2307.322207 0.7970 0.7970 0.7966 0.7961 0.7960
2313.974107 0.7960 0.7960 0.7960 0.7952 0.7942
2320.626007 0.7940 0.7940 0.7936 0.7931 0.7930
2327.277907 0.7930 0.7926 0.7921 0.7920 0.7920
2333.929806 0.7912 0.7902 0.7900 0.7900 0.7896
2340.581706 0.7891 0.7890 0.7890 0.7890 0.7890
2347.233606 0.7890 0.7890 0.7886 0.7881 0.7880
2353.885505 0.7880 0.7880 0.7880 0.7872 0.7862
2360.537405 0.7860 0.7860 0.7860 0.7860 0.7856
2367.189305 0.7851 0.7850 0.7850 0.7850 0.7850
2373.841204 0.7846 0.7841 0.7840 0.7840 0.7840
2380.493104 0.7840 0.7825 0.7805 0.7793 0.7783
2387.145004 0.7780 0.7780 0.7780 0.7780 0.7776
2393.796904 0.7771 0.7766 0.7761 0.7753 0.7743
2400.448803 0.7736 0.7731 0.7726 0.7721 0.7709
2407.100703 0.7694 0.7686 0.7681 0.7680 0.7680
2413.752603 0.7680 0.7680 0.7673 0.7663 0.7656
2420.404502 0.7651 0.7646 0.7642 0.7640 0.7640
2427.056402 0.7640 0.7640 0.7633 0.7623 0.7616
2433.708302 0.7611 0.7606 0.7601 0.7590 0.7575
2440.360202 0.7573 0.7578 0.7573 0.7563 0.7560
2447.012101 0.7560 0.7553 0.7543 0.7540 0.7540
2453.664001 0.7537 0.7532 0.7530 0.7530 0.7527
2460.315901 0.7522 0.7520 0.7520 0.7513 0.7503
2466.967800 0.7507 0.7517 0.7520 0.7520 0.7520
2473.619700 0.7520 0.7520 0.7520 0.7513 0.7503
2480.271600 0.7500 0.7500 0.7500 0.7500 0.7497
2486.923500 0.7492 0.7487 0.7482 0.7480 0.7480
2493.575399 0.7480 0.7480 0.7477 0.7472 0.7460
2500.227299 0.7445 0.7440 0.7440 0.7437 0.7432
2506.879199 0.7430 0.7430 0.7423 0.7413 0.7417
2513.531098 0.7427 0.7430 0.7430 0.7424 0.7414
2520.182998 0.7407 0.7402 0.7400 0.7400 0.7400
2526.834898 0.7400 0.7397 0.7392 0.7390 0.7390
2533.486797 0.7390 0.7390 0.7390 0.7390 0.7377
2540.138697 0.7357 0.7350 0.7350 0.7350 0.7350
2546.790597 0.7344 0.7334 0.7330 0.7330 0.7336
2553.442497 0.7346 0.7350 0.7350 0.7344 0.7334
2560.094396 0.7324 0.7314 0.7310 0.7310 0.7310
2566.746296 0.7310 0.7304 0.7294 0.7290 0.7290
2573.398196 0.7290 0.7290 0.7287 0.7282 0.7280
2580.050095 0.7280 0.7271 0.7256 0.7250 0.7250
2586.701995 0.7244 0.7234 0.7230 0.7230 0.7224
2593.353895 0.7214 0.7210 0.7210 0.7207 0.7202
2600.005795 0.7200 0.7200 0.7197 0.7192 0.7190
2606.657694 0.7190 0.7184 0.7174 0.7170 0.7170
2613.309594 0.7167 0.7162 0.7151 0.7136 0.7127
2619.961494 0.7122 0.7120 0.7120 0.7117 0.7112
2626.613393 0.7110 0.7110 0.7104 0.7094 0.7090
2633.265293 0.7090 0.7084 0.7074 0.7064 0.7054
2639.917193 0.7050 0.7050 0.7044 0.7034 0.7030
2646.569093 0.7030 0.7030 0.7030 0.7030 0.7030
2653.220992 0.7030 0.7030 0.7025 0.7015 0.7010
2659.872892 0.7010 0.7007 0.7002 0.7000 0.7000
2666.524792 0.6997 0.6992 0.6990 0.6990 0.6985
2673.176691 0.6975 0.6967 0.6962 0.6952 0.6937
2679.828591 0.6927 0.6922 0.6917 0.6912 0.6910
2686.480491 0.6910 0.6905 0.6895 0.6887 0.6882
2693.132390 0.6880 0.6880 0.6880 0.6880 0.6877
2699.784290 0.6872 0.6870 0.6870 0.6865 0.6855
2706.436190 0.6850 0.6850 0.6847 0.6842 0.6837
2713.088090 0.6832 0.6825 0.6815 0.6810 0.6810
2719.739989 0.6807 0.6802 0.6800 0.6800 0.6797
2726.391889 0.6792 0.6790 0.6790 0.6785 0.6775
2733.043789 0.6770 0.6770 0.6765 0.6755 0.6745
2739.695688 0.6735 0.6730 0.6730 0.6730 0.6730
2746.347588 0.6727 0.6722 0.6720 0.6720 0.6720
2752.999488 0.6720 0.6718 0.6713 0.6710 0.6710
2759.651388 0.6710 0.6710 0.6705 0.6695 0.6690
2766.303287 0.6690 0.6688 0.6683 0.6680 0.6680
2772.955187 0.6678 0.6673 0.6670 0.6670 0.6665
2779.607087 0.6655 0.6650 0.6650 0.6648 0.6643
2786.258986 0.6638 0.6633 0.6630 0.6630 0.6625
2792.910886 0.6615 0.6610 0.6610 0.6608 0.6603
2799.562786 0.6593 0.6578 0.6568 0.6563 0.6558
2806.214685 0.6553 0.6545 0.6535 0.6528 0.6523
2812.866585 0.6518 0.6513 0.6503 0.6488 0.6478
2819.518485 0.6473 0.6457 0.6427 0.6408 0.6403
2826.170385 0.6400 0.6400 0.6398 0.6393 0.6390
2832.822284 0.6390 0.6386 0.6376 0.6366 0.6356
2839.474184 0.6344 0.6329 0.6314 0.6299 0.6288
2846.126084 0.6283 0.6280 0.6280 0.6280 0.6280
2852.777983 0.6273 0.6259 0.6248 0.6243 0.6238
2859.429883 0.6233 0.6224 0.6209 0.6200 0.6200
2866.081783 0.6200 0.6200 0.6198 0.6193 0.6190
2872.733683 0.6190 0.6190 0.6190 0.6186 0.6176
2879.385582 0.6166 0.6156 0.6146 0.6136 0.6130
2886.037482 0.6130 0.6128 0.6123 0.6118 0.6113
2892.689382 0.6102 0.6082 0.6070 0.6070 0.6066
2899.341281 0.6056 0.6048 0.6043 0.6038 0.6033
2905.993181 0.6026 0.6016 0.6008 0.6003 0.5998
2912.645081 0.5993 0.5986 0.5976 0.5966 0.5956
2919.296981 0.5946 0.5936 0.5928 0.5923 0.5918
2925.948880 0.5913 0.5905 0.5890 0.5878 0.5873
2932.600780 0.5866 0.5856 0.5848 0.5843 0.5838
2939.252680 0.5833 0.5826 0.5816 0.5810 0.5810
2945.904579 0.5808 0.5803 0.5800 0.5800 0.5800
2952.556479 0.5800 0.5800 0.5800 0.5800 0.5800
2959.208379 0.5800 0.5800 0.5802 0.5807 0.5810
2965.860278 0.5810 0.5810 0.5810 0.5810 0.5810
2972.512178 0.5810 0.5810 0.5813 0.5823 0.5830
2979.164078 0.5830 0.5827 0.5817 0.5810 0.5810
2985.815978 0.5810 0.5810 0.5808 0.5803 0.5800
2992.467877 0.5800 0.5798 0.5793 0.5787 0.5777
2999.119777 0.5768 0.5763 0.5754 0.5734 0.5715
3005.771677 0.5700 0.5687 0.5677 0.5670 0.5670
3012.423576 0.5667 0.5657 0.5650 0.5650 0.5650
3019.075476 0.5650 0.5650 0.5650 0.5650 0.5650
3025.727376 0.5648 0.5643 0.5640 0.5640 0.5639
3032.379276 0.5634 0.5627 0.5617 0.5609 0.5603
3039.031175 0.5595 0.5580 0.5568 0.5563 0.5558
3045.683075 0.5553 0.5550 0.5550 0.5546 0.5531
3052.334975 0.5520 0.5520 0.5520 0.5520 0.5519
3058.986874 0.5514 0.5510 0.5510 0.5507 0.5497
3065.638774 0.5490 0.5490 0.5490 0.5490 0.5490
3072.290674 0.5490 0.5490 0.5490 0.5490 0.5490
3078.942574 0.5490 0.5490 0.5489 0.5484 0.5480
3085.594473 0.5480 0.5479 0.5474 0.5467 0.5457
3092.246373 0.5450 0.5450 0.5449 0.5444 0.5439
3098.898273 0.5434 0.5427 0.5417 0.5409 0.5404
3105.550172 0.5399 0.5394 0.5390 0.5390 0.5390
3112.202072 0.5390 0.5388 0.5378 0.5370 0.5370
3118.853972 0.5369 0.5364 0.5355 0.5335 0.5319
3125.505871 0.5314 0.5308 0.5298 0.5290 0.5290
3132.157771 0.5290 0.5290 0.5290 0.5290 0.5288
3138.809671 0.5278 0.5270 0.5270 0.5267 0.5252
3145.461571 0.5239 0.5234 0.5230 0.5230 0.5228
3152.113470 0.5218 0.5205 0.5185 0.5166 0.5146
3158.765370 0.5129 0.5124 0.5117 0.5102 0.5090
3165.417270 0.5090 0.5089 0.5084 0.5079 0.5074
3172.069169 0.5068 0.5058 0.5046 0.5026 0.5009
3178.721069 0.5004 0.4999 0.4994 0.4990 0.4990
3185.372969 0.4990 0.4990 0.4990 0.4990 0.4989
3192.024869 0.4984 0.4978 0.4968 0.4959 0.4954
3198.676768 0.4947 0.4932 0.4918 0.4908 0.4900
3205.328668 0.4900 0.4898 0.4888 0.4878 0.4868
3211.980568 0.4858 0.4848 0.4838 0.4828 0.4818
3218.632467 0.4808 0.4800 0.4800 0.4799 0.4794
3225.284367 0.4789 0.4784 0.4780 0.4780 0.4778
3231.936267 0.4768 0.4759 0.4754 0.4747 0.4727
3238.588167 0.4709 0.4704 0.4698 0.4688 0.4676
3245.240066 0.4651 0.4628 0.4613 0.4600 0.4600
3251.891966 0.4599 0.4594 0.4590 0.4590 0.4589
3258.543866 0.4584 0.4578 0.4568 0.4560 0.4560
3265.195765 0.4559 0.4554 0.4550 0.4550 0.4549
3271.847665 0.4544 0.4539 0.4529 0.4519 0.4514
3278.499565 0.4508 0.4493 0.4480 0.4480 0.4477
3285.151464 0.4457 0.4439 0.4429 0.4420 0.4420
3291.803364 0.4419 0.4409 0.4399 0.4394 0.4389
3298.455264 0.4384 0.4378 0.4363 0.4349 0.4344
3305.107164 0.4339 0.4329 0.4319 0.4309 0.4299
3311.759063 0.4289 0.4280 0.4280 0.4279 0.4274
3318.410963 0.4268 0.4253 0.4238 0.4218 0.4199
3325.062863 0.4194 0.4189 0.4185 0.4180 0.4180
3331.714762 0.4178 0.4163 0.4148 0.4128 0.4108
3338.366662 0.4093 0.4077 0.4052 0.4029 0.4014
3345.018562 0.4000 0.3995 0.3990 0.3985 0.3978
3351.670462 0.3958 0.3939 0.3924 0.3908 0.3888
3358.322361 0.3869 0.3854 0.3839 0.3829 0.3819
3364.974261 0.3804 0.3789 0.3774 0.3759 0.3749
3371.626161 0.3740 0.3740 0.3739 0.3724 0.3710
3378.278060 0.3705 0.3699 0.3689 0.3680 0.3675
3384.929960 0.3668 0.3648 0.3628 0.3603 0.3579
3391.581860 0.3564 0.3550 0.3545 0.3539 0.3529
3398.233759 0.3518 0.3488 0.3459 0.3439 0.3419
3404.885659 0.3404 0.3390 0.3385 0.3379 0.3359
3411.537559 0.3340 0.3340 0.3339 0.3329 0.3320
3418.189459 0.3315 0.3309 0.3294 0.3280 0.3275
3424.841358 0.3269 0.3254 0.3240 0.3230 0.3220
3431.493258 0.3210 0.3200 0.3200 0.3200 0.3195
3438.145158 0.3190 0.3185 0.3180 0.3170 0.3160
3444.797057 0.3155 0.3150 0.3150 0.3150 0.3150
3451.448957 0.3150 0.3150 0.3150 0.3155 0.3160
3458.100857 0.3160 0.3160 0.3170 0.3180 0.3180
3464.752757 0.3180 0.3180 0.3180 0.3180 0.3180
3471.404656 0.3180 0.3180 0.3180 0.3180 0.3180
3478.056556 0.3180 0.3185 0.3190 0.3190 0.3190
3484.708456 0.3195 0.3200 0.3200 0.3200 0.3210
3491.360355 0.3220 0.3225 0.3230 0.3235 0.3240
3498.012255 0.3255 0.3270 0.3275 0.3280 0.3280
3504.664155 0.3280 0.3290 0.3300 0.3300 0.3300
3511.316055 0.3310 0.3320 0.3320 0.3320 0.3335
3517.967954 0.3350 0.3370 0.3390 0.3390 0.3390
3524.619854 0.3405 0.3420 0.3444 0.3469 0.3470
3531.271754 0.3470 0.3485 0.3500 0.3505 0.3510
3537.923653 0.3524 0.3539 0.3545 0.3550 0.3550
3544.575553 0.3550 0.3555 0.3560 0.3570 0.3580
3551.227453 0.3590 0.3600 0.3619 0.3639 0.3654
3557.879352 0.3669 0.3684 0.3699 0.3705 0.3710
3564.531252 0.3734 0.3759 0.3774 0.3789 0.3795
3571.183152 0.3800 0.3819 0.3839 0.3854 0.3869
3577.835052 0.3875 0.3880 0.3894 0.3909 0.3915
3584.486951 0.3920 0.3929 0.3939 0.3945 0.3950
3591.138851 0.3964 0.3979 0.3989 0.3999 0.4000
3597.790751 0.4000 0.4009 0.4019 0.4020 0.4020
3604.442650 0.4025 0.4030 0.4035 0.4040 0.4049
3611.094550 0.4059 0.4065 0.4070 0.4075 0.4080
3617.746450 0.4089 0.4099 0.4100 0.4100 0.4109
3624.398350 0.4119 0.4129 0.4139 0.4158 0.4178
3631.050249 0.4189 0.4199 0.4214 0.4229 0.4253
3637.702149 0.4278 0.4307 0.4337 0.4349 0.4359
3644.354049 0.4369 0.4379 0.4384 0.4389 0.4394
3651.005948 0.4400 0.4400 0.4400 0.4427 0.4457
3657.657848 0.4469 0.4479 0.4493 0.4508 0.4541
3664.309748 0.4576 0.4580 0.4580 0.4584 0.4589
3670.961648 0.4603 0.4618 0.4642 0.4667 0.4674
3677.613547 0.4679 0.4680 0.4680 0.4680 0.4680
3684.265447 0.4676 0.4671 0.4666 0.4661 0.4660
3690.917347 0.4660 0.4660 0.4660 0.4651 0.4641
3697.569246 0.4649 0.4659 0.4664 0.4669 0.4674
3704.221146 0.4679 0.4693 0.4708 0.4723 0.4738
3710.873046 0.4740 0.4740 0.4757 0.4777 0.4784
3717.524945 0.4789 0.4790 0.4790 0.4790 0.4790
3724.176845 0.4790 0.4790 0.4790 0.4790 0.4786
3730.828745 0.4781 0.4780 0.4780 0.4772 0.4762
3737.480645 0.4756 0.4751 0.4750 0.4750 0.4750
3744.132544 0.4750 0.4750 0.4750 0.4750 0.4750
3750.784444 0.4746 0.4741 0.4740 0.4740 0.4744
3757.436344 0.4749 0.4754 0.4759 0.4760 0.4760
3764.088243 0.4768 0.4778 0.4780 0.4780 0.4784
3770.740143 0.4789 0.4790 0.4790 0.4790 0.4790
3777.392043 0.4786 0.4781 0.4780 0.4780 0.4768
3784.043943 0.4753 0.4750 0.4750 0.4746 0.4741
3790.695842 0.4740 0.4740 0.4732 0.4722 0.4716
3797.347742 0.4711 0.4710 0.4710 0.4706 0.4701
3803.999642 0.4700 0.4700 0.4692 0.4682 0.4680
3810.651541 0.4680 0.4680 0.4680 0.4680 0.4680
3817.303441 0.4680 0.4680 0.4680 0.4680 0.4680
3823.955341 0.4680 0.4680 0.4680 0.4680 0.4680
3830.607241 0.4676 0.4671 0.4666 0.4661 0.4652
3837.259140 0.4642 0.4636 0.4631 0.4626 0.4621
3843.911040 0.4620 0.4620 0.4620 0.4620 0.4620
3850.562940 0.4620 0.4620 0.4620 0.4620 0.4620
3857.214839 0.4624 0.4629 0.4630 0.4630 0.4630
3863.866739 0.4630 0.4630 0.4630 0.4630 0.4630
3870.518639 0.4626 0.4621 0.4613 0.4603 0.4600
3877.170538 0.4600 0.4596 0.4591 0.4590 0.4590
3883.822438 0.4590 0.4590 0.4590 0.4590 0.4590
3890.474338 0.4590 0.4590 0.4590 0.4590 0.4590
3897.126238 0.4590 0.4590 0.4575 0.4555 0.4546
3903.778137 0.4541 0.4540 0.4540 0.4540 0.4540
3910.430037 0.4540 0.4540 0.4533 0.4523 0.4520
3917.081937 0.4520 0.4516 0.4511 0.4510 0.4510
3923.733836 0.4506 0.4501 0.4500 0.4500 0.4500
3930.385736 0.4500 0.4500 0.4500 0.4493 0.4483
3937.037636 0.4480 0.4480 0.4480 0.4480 0.4480
3943.689536 0.4480 0.4476 0.4471 0.4470 0.4470
3950.341435 0.4470 0.4470 0.4467 0.4462 0.4460
3956.993335 0.4460 0.4460 0.4460 0.4453 0.4443
3963.645235 0.4440 0.4440 0.4440 0.4440 0.4437
3970.297134 0.4432 0.4427 0.4422 0.4420 0.4420
3976.949034 0.4413 0.4403 0.4397 0.4392 0.4390
3983.600934 0.4390 0.4390 0.4390 0.4387 0.4382
##END=
