##TITLE=P-PHENYLAZO CARBANILIC ACID, CITRONELLOL ESTER
##JCAMP-DX=4.24
##DATA TYPE=INFRARED SPECTRUM
##CLASS=COBLENTZ
##ORIGIN=CITRUS EXPERIMENT STATION, UNIVERSITY OF FLORIDA (G. EDWARDS)
##OWNER=COBLENTZ SOCIETY
Collection (C) 2018 copyright by the U.S. Secretary of Commerce
on behalf of the United States of America. All rights reserved.
##DATE=Not specified, most likely prior to 1970
##MOLFORM=C23 H29 N3 O2
##MP=75.5 C (SHARP)
##SOURCE REFERENCE=COBLENTZ NO. 2469
##$NIST ID=B6002469
##$NIST SOURCE=COBLENTZ
##$NIST IMAGE=cob2469
##SPECTROMETER/DATA SYSTEM=Not specified, most likely a grating spectrometer.
##STATE=SOLID (1.5 mg / 100 mg KBr)
##SAMPLING PROCEDURE=TRANSMISSION
##RESOLUTION=4
##DATA PROCESSING=DIGITIZED BY NIST FROM HARD COPY
##XUNITS=MICROMETERS
##YUNITS=TRANSMITTANCE
##XFACTOR=1.000000
##YFACTOR=1
##DELTAX=000.006638
##FIRSTX=2.013
##LASTX=15.0045
##FIRSTY=0.575
##MAXX=15.0045
##MINX=2.013
##MAXY=0.945
##MINY=0.131
##NPOINTS=1958
##XYDATA=(X++(Y..Y))
2.013000 0.5750 0.5780 0.5780 0.5790 0.5790
2.046208 0.5820 0.5820 0.5830 0.5850 0.5850
2.080000 0.5860 0.5860 0.5870 0.5890 0.5890
2.113208 0.5900 0.5900 0.5910 0.5910 0.5940
2.146000 0.5950 0.5980 0.5980 0.5980 0.5980
2.179208 0.5970 0.5950 0.5940 0.5940 0.5940
2.212000 0.5970 0.6010 0.6050 0.6070 0.6070
2.245208 0.6070 0.6070 0.6090 0.6090 0.6090
2.279000 0.6090 0.6110 0.6110 0.6130 0.6150
2.312208 0.6170 0.6190 0.6220 0.6230 0.6250
2.345000 0.6250 0.6260 0.6260 0.6260 0.6270
2.378208 0.6270 0.6270 0.6280 0.6280 0.6280
2.412000 0.6310 0.6320 0.6320 0.6350 0.6380
2.445208 0.6400 0.6420 0.6430 0.6440 0.6460
2.478000 0.6460 0.6470 0.6480 0.6510 0.6520
2.511208 0.6520 0.6520 0.6540 0.6540 0.6550
2.544000 0.6550 0.6560 0.6580 0.6590 0.6600
2.577208 0.6600 0.6620 0.6640 0.6660 0.6680
2.611000 0.6700 0.6710 0.6720 0.6720 0.6740
2.644208 0.6760 0.6780 0.6780 0.6780 0.6790
2.677000 0.6790 0.6790 0.6780 0.6780 0.6780
2.710208 0.6780 0.6780 0.6790 0.6790 0.6800
2.743000 0.6800 0.6800 0.6800 0.6800 0.6820
2.776208 0.6830 0.6840 0.6860 0.6870 0.6880
2.810000 0.6900 0.6910 0.6910 0.6910 0.6920
2.843208 0.6920 0.6920 0.6920 0.6940 0.6940
2.876000 0.6950 0.6980 0.6980 0.6980 0.6980
2.909208 0.6960 0.6950 0.6940 0.6920 0.6900
2.943000 0.6800 0.6700 0.6590 0.6480 0.6220
2.976208 0.5890 0.5390 0.4840 0.4580 0.4570
3.009000 0.4600 0.4840 0.5140 0.5410 0.5690
3.042208 0.5970 0.6340 0.6470 0.6560 0.6620
3.075000 0.6670 0.6720 0.6800 0.6840 0.6860
3.108208 0.6870 0.6880 0.6900 0.6900 0.6940
3.142000 0.6990 0.7000 0.7000 0.7020 0.7020
3.175208 0.7020 0.7040 0.7040 0.7040 0.7040
3.208000 0.7040 0.7030 0.7000 0.6950 0.6870
3.241208 0.6840 0.6830 0.6830 0.6860 0.6870
3.275000 0.6900 0.6910 0.6980 0.7020 0.7110
3.308208 0.7110 0.7110 0.7100 0.7000 0.6820
3.341000 0.6520 0.6030 0.5690 0.5380 0.5300
3.374208 0.5270 0.5260 0.5100 0.5060 0.5020
3.407000 0.5050 0.5140 0.5330 0.5500 0.5830
3.440208 0.6060 0.6060 0.6060 0.6050 0.6030
3.474000 0.6030 0.6050 0.6170 0.6390 0.6590
3.507208 0.6790 0.6960 0.7120 0.7240 0.7270
3.540000 0.7340 0.7350 0.7380 0.7390 0.7420
3.573208 0.7420 0.7430 0.7430 0.7430 0.7430
3.606000 0.7430 0.7440 0.7460 0.7480 0.7510
3.639208 0.7530 0.7560 0.7590 0.7610 0.7630
3.673000 0.7640 0.7680 0.7710 0.7720 0.7720
3.706208 0.7730 0.7730 0.7730 0.7730 0.7730
3.739000 0.7750 0.7750 0.7750 0.7750 0.7760
3.772208 0.7760 0.7760 0.7770 0.7770 0.7790
3.806000 0.7790 0.7790 0.7800 0.7800 0.7800
3.839208 0.7800 0.7800 0.7800 0.7800 0.7800
3.872000 0.7810 0.7810 0.7830 0.7840 0.7850
3.905208 0.7880 0.7920 0.7930 0.7960 0.7960
3.938000 0.7970 0.7990 0.7990 0.8000 0.8000
3.971208 0.8010 0.8010 0.8010 0.8030 0.8030
4.005000 0.8030 0.8040 0.8040 0.8040 0.8040
4.038208 0.8040 0.8040 0.8040 0.8040 0.8050
4.071000 0.8050 0.8080 0.8090 0.8110 0.8120
4.104208 0.8120 0.8150 0.8160 0.8160 0.8160
4.138000 0.8170 0.8170 0.8170 0.8200 0.8200
4.171208 0.8210 0.8230 0.8230 0.8270 0.8290
4.204000 0.8290 0.8290 0.8310 0.8310 0.8290
4.237208 0.8290 0.8290 0.8280 0.8270 0.8270
4.270000 0.8270 0.8250 0.8250 0.8250 0.8250
4.303208 0.8250 0.8250 0.8250 0.8270 0.8270
4.337000 0.8270 0.8280 0.8280 0.8290 0.8290
4.370208 0.8310 0.8310 0.8320 0.8320 0.8320
4.403000 0.8310 0.8290 0.8290 0.8310 0.8310
4.436208 0.8310 0.8320 0.8330 0.8350 0.8360
4.469000 0.8370 0.8390 0.8400 0.8410 0.8410
4.502208 0.8430 0.8430 0.8440 0.8440 0.8440
4.536000 0.8440 0.8440 0.8440 0.8440 0.8440
4.569208 0.8440 0.8440 0.8440 0.8450 0.8450
4.602000 0.8450 0.8450 0.8470 0.8470 0.8470
4.635208 0.8470 0.8470 0.8480 0.8490 0.8490
4.669000 0.8510 0.8510 0.8520 0.8530 0.8530
4.702208 0.8530 0.8550 0.8550 0.8550 0.8560
4.735000 0.8560 0.8560 0.8570 0.8570 0.8570
4.768208 0.8590 0.8590 0.8590 0.8600 0.8600
4.801000 0.8600 0.8600 0.8600 0.8600 0.8600
4.834208 0.8600 0.8600 0.8610 0.8610 0.8610
4.868000 0.8610 0.8610 0.8610 0.8630 0.8630
4.901208 0.8630 0.8630 0.8630 0.8630 0.8640
4.934000 0.8640 0.8640 0.8640 0.8640 0.8640
4.967208 0.8650 0.8650 0.8650 0.8650 0.8650
5.000000 0.8650 0.8650 0.8650 0.8650 0.8650
5.033208 0.8650 0.8650 0.8650 0.8650 0.8650
5.067000 0.8650 0.8650 0.8650 0.8650 0.8650
5.100208 0.8650 0.8650 0.8650 0.8650 0.8650
5.133000 0.8650 0.8650 0.8650 0.8650 0.8650
5.166208 0.8650 0.8650 0.8650 0.8650 0.8650
5.200000 0.8650 0.8650 0.8650 0.8650 0.8670
5.233208 0.8670 0.8680 0.8680 0.8690 0.8710
5.266000 0.8710 0.8710 0.8710 0.8710 0.8720
5.299208 0.8730 0.8770 0.8810 0.8840 0.8840
5.332000 0.8850 0.8850 0.8850 0.8850 0.8850
5.365208 0.8850 0.8850 0.8860 0.8860 0.8860
5.399000 0.8860 0.8860 0.8860 0.8860 0.8850
5.432208 0.8850 0.8820 0.8810 0.8810 0.8810
5.465000 0.8800 0.8800 0.8800 0.8800 0.8800
5.498208 0.8780 0.8780 0.8770 0.8770 0.8760
5.532000 0.8750 0.8720 0.8720 0.8710 0.8720
5.565208 0.8720 0.8750 0.8770 0.8780 0.8780
5.598000 0.8780 0.8800 0.8810 0.8810 0.8780
5.631208 0.8760 0.8750 0.8710 0.8690 0.8680
5.664000 0.8670 0.8610 0.8560 0.8520 0.8440
5.697208 0.8370 0.8210 0.8110 0.7990 0.7830
5.731000 0.7730 0.7550 0.7350 0.7110 0.6840
5.764208 0.6470 0.6310 0.6180 0.5950 0.5700
5.797000 0.5420 0.5190 0.5020 0.4560 0.4450
5.830208 0.4280 0.4080 0.3860 0.3820 0.3820
5.863000 0.4320 0.4820 0.5410 0.5820 0.6170
5.896208 0.6390 0.6510 0.6870 0.7260 0.7480
5.930000 0.7720 0.7850 0.7920 0.7950 0.7970
5.963208 0.8030 0.8050 0.8110 0.8150 0.8210
5.996000 0.8240 0.8290 0.8350 0.8390 0.8430
6.029208 0.8440 0.8450 0.8450 0.8470 0.8470
6.063000 0.8480 0.8490 0.8490 0.8510 0.8510
6.096208 0.8510 0.8510 0.8490 0.8480 0.8440
6.129000 0.8430 0.8410 0.8310 0.8090 0.7930
6.162208 0.7720 0.7570 0.7430 0.7120 0.6700
6.195000 0.6470 0.6180 0.5710 0.4840 0.4120
6.228208 0.3610 0.3590 0.3640 0.3900 0.4250
6.262000 0.4740 0.5270 0.5730 0.6220 0.6590
6.295208 0.6950 0.7100 0.7220 0.7680 0.7800
6.328000 0.7880 0.7930 0.7930 0.7930 0.7920
6.361208 0.7850 0.7640 0.7360 0.7180 0.6820
6.394000 0.6470 0.5950 0.4520 0.4160 0.4060
6.427208 0.3860 0.3520 0.3080 0.2790 0.2790
6.461000 0.2870 0.2920 0.2950 0.2970 0.3010
6.494208 0.3090 0.3400 0.3730 0.4080 0.4410
6.527000 0.4780 0.5110 0.5570 0.5980 0.6180
6.560208 0.6320 0.6400 0.6470 0.6510 0.6520
6.594000 0.6520 0.6520 0.6480 0.6460 0.6440
6.627208 0.6440 0.6480 0.6520 0.6630 0.6780
6.660000 0.6940 0.7180 0.7310 0.7520 0.7640
6.693208 0.7760 0.7830 0.7890 0.7920 0.7950
6.726000 0.7970 0.7960 0.7950 0.7910 0.7870
6.759208 0.7810 0.7650 0.7500 0.7380 0.7280
6.793000 0.7240 0.7220 0.7040 0.6720 0.6500
6.826208 0.6430 0.6430 0.6600 0.6780 0.7040
6.859000 0.7200 0.7280 0.7320 0.7340 0.7350
6.892208 0.7360 0.7360 0.7340 0.7270 0.7150
6.926000 0.7040 0.6760 0.6420 0.5750 0.5740
6.959208 0.5770 0.6010 0.6270 0.6550 0.6870
6.992000 0.7150 0.7340 0.7420 0.7570 0.7600
7.025208 0.7600 0.7460 0.7190 0.6910 0.6550
7.058000 0.6250 0.6020 0.5980 0.6020 0.6170
7.091208 0.6460 0.6680 0.7030 0.7270 0.7430
7.125000 0.7650 0.7850 0.7910 0.7930 0.8000
7.158208 0.8010 0.8010 0.8010 0.8030 0.8030
7.191000 0.8010 0.7920 0.7810 0.7730 0.7640
7.224208 0.7570 0.7480 0.7460 0.7400 0.7390
7.257000 0.7430 0.7550 0.7610 0.7690 0.7800
7.290208 0.7870 0.7910 0.7920 0.7920 0.7950
7.324000 0.7970 0.8010 0.8090 0.8130 0.8150
7.357208 0.8160 0.8160 0.8160 0.8160 0.8160
7.390000 0.8160 0.8130 0.8120 0.8110 0.8110
7.423208 0.8090 0.8080 0.8070 0.8030 0.7930
7.457000 0.7770 0.7640 0.7520 0.7420 0.7310
7.490208 0.7160 0.6960 0.6670 0.6400 0.6220
7.523000 0.6130 0.6060 0.6020 0.5990 0.5940
7.556208 0.5940 0.5900 0.5890 0.5870 0.5860
7.589000 0.5850 0.5660 0.5450 0.5290 0.5140
7.622208 0.4810 0.4810 0.4900 0.5130 0.5330
7.656000 0.5500 0.5670 0.5860 0.6060 0.6400
7.689208 0.6680 0.6990 0.7160 0.7460 0.7670
7.722000 0.7790 0.7920 0.8010 0.8040 0.8110
7.755208 0.8150 0.8160 0.8170 0.8170 0.8170
7.789000 0.8160 0.8120 0.8110 0.8110 0.8030
7.822208 0.8010 0.8000 0.7970 0.7950 0.7930
7.855000 0.7910 0.7890 0.7880 0.7850 0.7810
7.888208 0.7770 0.7760 0.7730 0.7720 0.7640
7.921000 0.7520 0.7440 0.7380 0.7310 0.7260
7.954208 0.7200 0.7110 0.7100 0.7080 0.7070
7.988000 0.7030 0.6910 0.6780 0.6540 0.6220
8.021208 0.5860 0.5460 0.5060 0.4680 0.4360
8.054000 0.4090 0.3770 0.2930 0.2440 0.2060
8.087208 0.1860 0.1670 0.1510 0.1390 0.1310
8.120000 0.1310 0.1340 0.1430 0.1540 0.1670
8.153208 0.1830 0.2060 0.2270 0.2520 0.2770
8.187000 0.3090 0.3370 0.3600 0.3850 0.4200
8.220208 0.4480 0.4720 0.4920 0.5090 0.5250
8.253000 0.5410 0.5570 0.5730 0.5940 0.6050
8.286208 0.6210 0.6320 0.6460 0.6580 0.6710
8.320000 0.6820 0.6910 0.6950 0.7070 0.7150
8.353208 0.7220 0.7280 0.7350 0.7420 0.7550
8.386000 0.7630 0.7710 0.7750 0.7790 0.7810
8.419208 0.7830 0.7840 0.7850 0.7930 0.8000
8.452000 0.8030 0.8030 0.8040 0.8120 0.8160
8.485208 0.8200 0.8230 0.8280 0.8310 0.8350
8.519000 0.8360 0.8410 0.8440 0.8440 0.8440
8.552208 0.8440 0.8430 0.8410 0.8350 0.8280
8.585000 0.8190 0.8080 0.7930 0.7650 0.7430
8.618208 0.6950 0.6420 0.5980 0.5530 0.5000
8.651000 0.4460 0.4420 0.4480 0.4680 0.5220
8.684208 0.5630 0.6030 0.6360 0.6620 0.6630
8.718000 0.6640 0.6660 0.6680 0.6740 0.6840
8.751208 0.6920 0.7000 0.7200 0.7320 0.7470
8.784000 0.7610 0.7750 0.7830 0.7920 0.8040
8.817208 0.8120 0.8200 0.8270 0.8270 0.8290
8.851000 0.8320 0.8330 0.8360 0.8360 0.8370
8.884208 0.8390 0.8400 0.8400 0.8400 0.8400
8.917000 0.8400 0.8400 0.8370 0.8360 0.8350
8.950208 0.8330 0.8310 0.8280 0.8240 0.8210
8.983000 0.8150 0.8120 0.8110 0.8110 0.8120
9.016208 0.8170 0.8250 0.8310 0.8320 0.8370
9.050000 0.8400 0.8430 0.8480 0.8520 0.8520
9.083208 0.8530 0.8530 0.8530 0.8550 0.8550
9.116000 0.8550 0.8550 0.8530 0.8520 0.8510
9.149208 0.8490 0.8480 0.8440 0.8430 0.8410
9.183000 0.8370 0.8350 0.8330 0.8250 0.8230
9.216208 0.8190 0.8150 0.8130 0.8110 0.8030
9.249000 0.7920 0.7810 0.7680 0.7530 0.7380
9.282208 0.7190 0.6960 0.6720 0.6420 0.6180
9.315000 0.5940 0.5670 0.5420 0.5180 0.4970
9.348208 0.4880 0.4720 0.4650 0.4620 0.4600
9.382000 0.4580 0.4600 0.4770 0.4900 0.5010
9.415208 0.5180 0.5370 0.5430 0.5610 0.5670
9.448000 0.5830 0.5980 0.6110 0.6250 0.6360
9.481208 0.6460 0.6550 0.6620 0.6670 0.6780
9.514000 0.6860 0.6900 0.6950 0.7020 0.7070
9.547208 0.7100 0.7110 0.7110 0.7120 0.7140
9.581000 0.7150 0.7160 0.7160 0.7180 0.7190
9.614208 0.7230 0.7270 0.7320 0.7380 0.7440
9.647000 0.7520 0.7630 0.7640 0.7680 0.7830
9.680208 0.7870 0.7950 0.7990 0.8000 0.8090
9.714000 0.8200 0.8230 0.8240 0.8250 0.8280
9.747208 0.8320 0.8330 0.8360 0.8370 0.8370
9.780000 0.8370 0.8350 0.8330 0.8330 0.8310
9.813208 0.8250 0.8120 0.8030 0.8030 0.8030
9.846000 0.8070 0.8150 0.8190 0.8190 0.8210
9.879208 0.8210 0.8210 0.8230 0.8270 0.8280
9.913000 0.8320 0.8360 0.8400 0.8450 0.8510
9.946208 0.8560 0.8590 0.8610 0.8610 0.8630
9.979000 0.8630 0.8630 0.8610 0.8600 0.8600
10.012208 0.8610 0.8650 0.8730 0.8800 0.8850
10.046000 0.8860 0.8860 0.8860 0.8860 0.8880
10.079208 0.8880 0.8880 0.8890 0.8890 0.8890
10.112000 0.8890 0.8890 0.8890 0.8890 0.8890
10.145208 0.8890 0.8890 0.8890 0.8890 0.8890
10.178000 0.8900 0.8900 0.8900 0.8920 0.8920
10.211208 0.8920 0.8920 0.8920 0.8920 0.8920
10.245000 0.8920 0.8900 0.8900 0.8890 0.8890
10.278208 0.8880 0.8860 0.8850 0.8850 0.8820
10.311000 0.8800 0.8780 0.8770 0.8760 0.8750
10.344208 0.8730 0.8730 0.8730 0.8760 0.8850
10.377000 0.8880 0.8920 0.8940 0.8980 0.9010
10.410208 0.9040 0.9050 0.9060 0.9060 0.9080
10.444000 0.9080 0.9090 0.9090 0.9100 0.9160
10.477208 0.9170 0.9180 0.9180 0.9180 0.9200
10.510000 0.9200 0.9200 0.9200 0.9200 0.9200
10.543208 0.9200 0.9200 0.9200 0.9200 0.9200
10.577000 0.9210 0.9210 0.9210 0.9210 0.9210
10.610208 0.9210 0.9210 0.9220 0.9240 0.9240
10.643000 0.9240 0.9240 0.9250 0.9250 0.9260
10.676208 0.9280 0.9280 0.9290 0.9300 0.9300
10.709000 0.9320 0.9320 0.9320 0.9320 0.9300
10.742208 0.9300 0.9290 0.9280 0.9260 0.9260
10.776000 0.9250 0.9220 0.9210 0.9200 0.9170
10.809208 0.9160 0.9120 0.9040 0.9020 0.8980
10.842000 0.8930 0.8880 0.8860 0.8860 0.8860
10.875208 0.8860 0.8890 0.8900 0.8920 0.8960
10.908000 0.8970 0.9010 0.9020 0.9040 0.9050
10.941208 0.9060 0.9060 0.9090 0.9140 0.9180
10.975000 0.9240 0.9250 0.9260 0.9280 0.9290
11.008208 0.9290 0.9300 0.9300 0.9320 0.9320
11.041000 0.9330 0.9330 0.9340 0.9340 0.9360
11.074208 0.9360 0.9410 0.9420 0.9440 0.9450
11.108000 0.9450 0.9450 0.9450 0.9450 0.9440
11.141208 0.9410 0.9400 0.9400 0.9400 0.9400
11.174000 0.9400 0.9400 0.9400 0.9400 0.9400
11.207208 0.9400 0.9400 0.9380 0.9370 0.9360
11.240000 0.9360 0.9360 0.9340 0.9340 0.9340
11.273208 0.9330 0.9330 0.9330 0.9330 0.9340
11.307000 0.9340 0.9360 0.9370 0.9370 0.9370
11.340208 0.9370 0.9380 0.9380 0.9380 0.9380
11.373000 0.9380 0.9380 0.9380 0.9380 0.9370
11.406208 0.9360 0.9340 0.9330 0.9330 0.9330
11.440000 0.9300 0.9300 0.9300 0.9300 0.9300
11.473208 0.9300 0.9300 0.9300 0.9300 0.9300
11.506000 0.9290 0.9290 0.9290 0.9290 0.9280
11.539208 0.9260 0.9220 0.9210 0.9200 0.9180
11.572000 0.9170 0.9160 0.9140 0.9120 0.9090
11.605208 0.9080 0.9050 0.9020 0.9000 0.8900
11.639000 0.8820 0.8770 0.8730 0.8670 0.8550
11.672208 0.8410 0.8290 0.8190 0.8090 0.8000
11.705000 0.7910 0.7770 0.7630 0.7440 0.7400
11.738208 0.7390 0.7320 0.7300 0.7240 0.7200
11.771000 0.7160 0.7160 0.7140 0.7140 0.7140
11.804208 0.7150 0.7220 0.7240 0.7280 0.7320
11.838000 0.7390 0.7480 0.7560 0.7630 0.7650
11.871208 0.7710 0.7730 0.7800 0.7870 0.7910
11.904000 0.7960 0.8040 0.8190 0.8270 0.8290
11.937208 0.8320 0.8330 0.8350 0.8370 0.8430
11.971000 0.8510 0.8520 0.8550 0.8570 0.8590
12.004208 0.8610 0.8640 0.8650 0.8670 0.8680
12.037000 0.8690 0.8720 0.8730 0.8730 0.8750
12.070208 0.8760 0.8760 0.8770 0.8770 0.8780
12.103000 0.8800 0.8810 0.8820 0.8840 0.8860
12.136208 0.8860 0.8880 0.8880 0.8890 0.8890
12.170000 0.8900 0.8920 0.8920 0.8930 0.8960
12.203208 0.8970 0.8980 0.9000 0.9040 0.9050
12.236000 0.9060 0.9060 0.9090 0.9120 0.9120
12.269208 0.9130 0.9130 0.9140 0.9140 0.9160
12.303000 0.9170 0.9170 0.9170 0.9170 0.9170
12.336208 0.9160 0.9160 0.9160 0.9160 0.9140
12.369000 0.9140 0.9130 0.9130 0.9130 0.9140
12.402208 0.9140 0.9160 0.9160 0.9170 0.9170
12.435000 0.9180 0.9180 0.9180 0.9200 0.9200
12.468208 0.9200 0.9200 0.9200 0.9200 0.9200
12.502000 0.9210 0.9210 0.9210 0.9220 0.9220
12.535208 0.9240 0.9240 0.9240 0.9250 0.9250
12.568000 0.9250 0.9250 0.9250 0.9250 0.9250
12.601208 0.9250 0.9250 0.9250 0.9260 0.9260
12.634000 0.9260 0.9260 0.9260 0.9260 0.9260
12.667208 0.9260 0.9260 0.9250 0.9250 0.9240
12.701000 0.9220 0.9210 0.9200 0.9200 0.9200
12.734208 0.9180 0.9170 0.9170 0.9170 0.9160
12.767000 0.9160 0.9160 0.9140 0.9140 0.9130
12.800208 0.9120 0.9100 0.9060 0.9050 0.9020
12.834000 0.9020 0.9010 0.8960 0.8930 0.8880
12.867208 0.8840 0.8810 0.8770 0.8730 0.8720
12.900000 0.8670 0.8590 0.8440 0.8430 0.8360
12.933208 0.8280 0.8170 0.8080 0.7990 0.7910
12.966000 0.7790 0.7670 0.7600 0.7500 0.7380
12.999208 0.7260 0.7120 0.6990 0.6860 0.6740
13.033000 0.6630 0.6560 0.6460 0.6400 0.6400
13.066208 0.6430 0.6480 0.6550 0.6680 0.6790
13.099000 0.6920 0.6980 0.7180 0.7400 0.7520
13.132208 0.7670 0.7840 0.7930 0.8010 0.8070
13.165000 0.8150 0.8270 0.8320 0.8350 0.8410
13.198208 0.8450 0.8470 0.8480 0.8490 0.8520
13.232000 0.8530 0.8550 0.8560 0.8570 0.8590
13.265208 0.8590 0.8600 0.8600 0.8610 0.8630
13.298000 0.8630 0.8630 0.8640 0.8640 0.8640
13.331208 0.8640 0.8650 0.8650 0.8650 0.8650
13.365000 0.8650 0.8650 0.8670 0.8680 0.8690
13.398208 0.8710 0.8710 0.8720 0.8720 0.8750
13.431000 0.8750 0.8760 0.8760 0.8760 0.8760
13.464208 0.8760 0.8760 0.8760 0.8760 0.8760
13.497000 0.8760 0.8760 0.8760 0.8750 0.8750
13.530208 0.8750 0.8750 0.8750 0.8760 0.8760
13.564000 0.8760 0.8760 0.8760 0.8760 0.8760
13.597208 0.8760 0.8760 0.8760 0.8760 0.8760
13.630000 0.8750 0.8750 0.8750 0.8730 0.8730
13.663208 0.8730 0.8730 0.8730 0.8730 0.8720
13.697000 0.8720 0.8720 0.8710 0.8710 0.8710
13.730208 0.8690 0.8690 0.8690 0.8690 0.8690
13.763000 0.8690 0.8690 0.8690 0.8690 0.8690
13.796208 0.8680 0.8670 0.8650 0.8560 0.8520
13.829000 0.8510 0.8450 0.8410 0.8400 0.8370
13.862208 0.8330 0.8240 0.8190 0.8130 0.8080
13.896000 0.8040 0.8030 0.8010 0.8010 0.8010
13.929208 0.8010 0.8010 0.8040 0.8040 0.8040
13.962000 0.8040 0.8030 0.8030 0.8030 0.8030
13.995208 0.8030 0.8050 0.8050 0.8070 0.8090
14.028000 0.8090 0.8120 0.8120 0.8130 0.8130
14.061208 0.8150 0.8160 0.8170 0.8230 0.8250
14.095000 0.8270 0.8280 0.8280 0.8290 0.8310
14.128208 0.8320 0.8320 0.8320 0.8320 0.8320
14.161000 0.8320 0.8320 0.8320 0.8320 0.8320
14.194208 0.8320 0.8320 0.8310 0.8310 0.8310
14.228000 0.8290 0.8290 0.8270 0.8270 0.8270
14.261208 0.8270 0.8270 0.8270 0.8270 0.8270
14.294000 0.8270 0.8250 0.8250 0.8240 0.8230
14.327208 0.8210 0.8190 0.8120 0.8110 0.8080
14.360000 0.8070 0.8050 0.8030 0.8010 0.8000
14.393208 0.7960 0.7950 0.7930 0.7910 0.7850
14.427000 0.7810 0.7800 0.7770 0.7730 0.7710
14.460208 0.7640 0.7590 0.7510 0.7420 0.7350
14.493000 0.7300 0.7150 0.7060 0.7040 0.6920
14.526208 0.6780 0.6660 0.6600 0.6520 0.6430
14.560000 0.6300 0.6220 0.6150 0.6130 0.6130
14.593208 0.6110 0.6110 0.6100 0.6100 0.6110
14.626000 0.6170 0.6220 0.6300 0.6340 0.6430
14.659208 0.6510 0.6620 0.6680 0.6780 0.6860
14.692000 0.6900 0.6940 0.6990 0.7040 0.7110
14.725208 0.7200 0.7220 0.7280 0.7310 0.7400
14.759000 0.7420 0.7430 0.7440 0.7460 0.7480
14.792208 0.7500 0.7510 0.7510 0.7520 0.7530
14.825000 0.7550 0.7550 0.7550 0.7550 0.7550
14.858208 0.7530 0.7530 0.7530 0.7520 0.7510
14.891000 0.7480 0.7420 0.7360 0.7280 0.7200
14.924208 0.7150 0.7080 0.7030 0.7020 0.7030
14.958000 0.7060 0.7110 0.7190 0.7310 0.7470
14.991208 0.7670 0.7750 0.7800
##END=
