##TITLE=Copper-3-phenylsalicylate
##JCAMP-DX=4.24
$$ By DXEDIT 1.05 (RS McDonald)
##DATA TYPE=INFRARED SPECTRUM
##CLASS=COBLENTZ III
##ORIGIN=DOW CHEMICAL COMPANY
##OWNER=COPYRIGHT (C) 1988 by COBLENTZ SOCIETY INC.
Collection (C) 2018 copyright by the U.S. Secretary of Commerce
on behalf of the United States of America. All rights reserved.
##DATE=1964/03/31
##MOLFORM=C26 H18 O6 Cu
##SOURCE REFERENCE=COBLENTZ NO. 08887
##$NIST ID=B6008887
##$NIST SOURCE=COBLENTZ
##$NIST IMAGE=cob8887
##SPECTROMETER/DATA SYSTEM=BECKMAN IR-9 (GRATING)
##INSTRUMENT PARAMETERS=ORDER CHANGES: 670, 1200, 2000 CM^-^1
##STATE=SOLID (SPLIT MULL), FLUOROLUBE FOR 3800-1330 CM^-^1, NUJOL FOR 1330-400 CM^-^1
$$ STRUCTURE NOT VERIFIED, CLASS II TECHNICAL QUALITY
##SAMPLING PROCEDURE=TRANSMISSION
##RESOLUTION=2
##DATA PROCESSING=DIGITIZED BY COBLENTZ SOCIETY (BATCH I) FROM HARD COPY
##XUNITS=1/CM
##YUNITS=TRANSMITTANCE
##XFACTOR=1
##YFACTOR=1
##DELTAX=1
##FIRSTX=3810
##LASTX=404
##FIRSTY=0.7635
##MAXX=3810
##MINX=404
##MAXY=0.8993
##MINY=0.0919
##NPOINTS=3407
##XYDATA=(X++(Y..Y))
3810.000000 0.7635 0.7635 0.7635 0.7636 0.7637
3805.000000 0.7637 0.7638 0.7639 0.7640 0.7640
3800.000000 0.7641 0.7641 0.7642 0.7643 0.7644
3795.000000 0.7644 0.7645 0.7646 0.7647 0.7647
3790.000000 0.7648 0.7649 0.7650 0.7651 0.7653
3785.000000 0.7654 0.7656 0.7657 0.7658 0.7658
3780.000000 0.7661 0.7661 0.7664 0.7665 0.7665
3775.000000 0.7667 0.7668 0.7669 0.7671 0.7671
3770.000000 0.7674 0.7675 0.7676 0.7678 0.7681
3765.000000 0.7682 0.7684 0.7686 0.7688 0.7689
3760.000000 0.7691 0.7692 0.7694 0.7696 0.7698
3755.000000 0.7699 0.7701 0.7703 0.7705 0.7706
3750.000000 0.7708 0.7708 0.7696 0.7711 0.7714
3745.000000 0.7715 0.7715 0.7717 0.7718 0.7719
3740.000000 0.7721 0.7721 0.7722 0.7724 0.7725
3735.000000 0.7726 0.7728 0.7728 0.7731 0.7732
3730.000000 0.7733 0.7734 0.7735 0.7736 0.7738
3725.000000 0.7739 0.7740 0.7740 0.7740 0.7740
3720.000000 0.7741 0.7741 0.7742 0.7742 0.7742
3715.000000 0.7742 0.7743 0.7743 0.7743 0.7743
3710.000000 0.7744 0.7744 0.7745 0.7745 0.7745
3705.000000 0.7745 0.7746 0.7746 0.7746 0.7743
3700.000000 0.7740 0.7737 0.7734 0.7730 0.7726
3695.000000 0.7724 0.7721 0.7717 0.7714 0.7711
3690.000000 0.7708 0.7704 0.7701 0.7697 0.7694
3685.000000 0.7686 0.7678 0.7668 0.7661 0.7651
3680.000000 0.7644 0.7635 0.7626 0.7618 0.7608
3675.000000 0.7600 0.7592 0.7583 0.7575 0.7565
3670.000000 0.7556 0.7546 0.7536 0.7525 0.7515
3665.000000 0.7506 0.7497 0.7487 0.7476 0.7467
3660.000000 0.7457 0.7447 0.7437 0.7426 0.7417
3655.000000 0.7407 0.7398 0.7389 0.7380 0.7371
3650.000000 0.7364 0.7356 0.7348 0.7340 0.7332
3645.000000 0.7324 0.7315 0.7308 0.7300 0.7291
3640.000000 0.7283 0.7275 0.7267 0.7258 0.7251
3635.000000 0.7243 0.7235 0.7226 0.7218 0.7211
3630.000000 0.7203 0.7197 0.7191 0.7186 0.7182
3625.000000 0.7176 0.7172 0.7168 0.7164 0.7158
3620.000000 0.7155 0.7150 0.7145 0.7140 0.7136
3615.000000 0.7131 0.7126 0.7121 0.7118 0.7112
3610.000000 0.7108 0.7104 0.7100 0.7096 0.7092
3605.000000 0.7088 0.7085 0.7081 0.7076 0.7072
3600.000000 0.7068 0.7065 0.7061 0.7058 0.7054
3595.000000 0.7050 0.7046 0.7042 0.7038 0.7034
3590.000000 0.7031 0.7026 0.7022 0.7018 0.7015
3585.000000 0.7011 0.7007 0.7003 0.7000 0.6996
3580.000000 0.6992 0.6988 0.6984 0.6980 0.6976
3575.000000 0.6974 0.6971 0.6967 0.6964 0.6961
3570.000000 0.6958 0.6955 0.6951 0.6948 0.6945
3565.000000 0.6942 0.6939 0.6935 0.6932 0.6928
3560.000000 0.6925 0.6921 0.6918 0.6915 0.6912
3555.000000 0.6908 0.6906 0.6903 0.6900 0.6896
3550.000000 0.6893 0.6890 0.6887 0.6883 0.6880
3545.000000 0.6876 0.6874 0.6871 0.6868 0.6865
3540.000000 0.6864 0.6861 0.6860 0.6857 0.6855
3535.000000 0.6853 0.6851 0.6848 0.6846 0.6844
3530.000000 0.6842 0.6839 0.6837 0.6835 0.6833
3525.000000 0.6830 0.6828 0.6825 0.6822 0.6821
3520.000000 0.6818 0.6815 0.6814 0.6811 0.6810
3515.000000 0.6807 0.6805 0.6803 0.6801 0.6798
3510.000000 0.6796 0.6794 0.6792 0.6790 0.6788
3505.000000 0.6786 0.6784 0.6782 0.6781 0.6778
3500.000000 0.6776 0.6775 0.6774 0.6771 0.6769
3495.000000 0.6768 0.6767 0.6765 0.6762 0.6761
3490.000000 0.6760 0.6758 0.6756 0.6754 0.6753
3485.000000 0.6751 0.6749 0.6747 0.6746 0.6744
3480.000000 0.6742 0.6740 0.6739 0.6737 0.6735
3475.000000 0.6733 0.6732 0.6730 0.6728 0.6725
3470.000000 0.6725 0.6722 0.6721 0.6718 0.6718
3465.000000 0.6715 0.6714 0.6711 0.6711 0.6708
3460.000000 0.6708 0.6706 0.6704 0.6701 0.6701
3455.000000 0.6699 0.6697 0.6695 0.6694 0.6692
3450.000000 0.6690 0.6688 0.6687 0.6685 0.6684
3445.000000 0.6682 0.6681 0.6680 0.6678 0.6676
3440.000000 0.6675 0.6675 0.6674 0.6672 0.6671
3435.000000 0.6669 0.6668 0.6668 0.6667 0.6665
3430.000000 0.6665 0.6662 0.6661 0.6661 0.6660
3425.000000 0.6658 0.6658 0.6656 0.6655 0.6654
3420.000000 0.6653 0.6651 0.6651 0.6649 0.6648
3415.000000 0.6647 0.6646 0.6645 0.6644 0.6642
3410.000000 0.6641 0.6640 0.6639 0.6638 0.6637
3405.000000 0.6636 0.6635 0.6634 0.6633 0.6631
3400.000000 0.6630 0.6628 0.6628 0.6626 0.6625
3395.000000 0.6625 0.6624 0.6622 0.6621 0.6621
3390.000000 0.6619 0.6618 0.6618 0.6617 0.6615
3385.000000 0.6615 0.6614 0.6612 0.6611 0.6611
3380.000000 0.6610 0.6608 0.6607 0.6606 0.6605
3375.000000 0.6604 0.6603 0.6601 0.6601 0.6600
3370.000000 0.6599 0.6598 0.6597 0.6596 0.6595
3365.000000 0.6594 0.6593 0.6592 0.6591 0.6590
3360.000000 0.6589 0.6585 0.6582 0.6578 0.6575
3355.000000 0.6571 0.6568 0.6565 0.6561 0.6558
3350.000000 0.6555 0.6551 0.6549 0.6545 0.6542
3345.000000 0.6538 0.6535 0.6531 0.6526 0.6522
3340.000000 0.6518 0.6515 0.6511 0.6508 0.6504
3335.000000 0.6500 0.6497 0.6493 0.6489 0.6485
3330.000000 0.6481 0.6476 0.6474 0.6468 0.6465
3325.000000 0.6458 0.6454 0.6448 0.6443 0.6437
3320.000000 0.6432 0.6426 0.6421 0.6415 0.6411
3315.000000 0.6405 0.6400 0.6394 0.6389 0.6383
3310.000000 0.6378 0.6373 0.6368 0.6362 0.6357
3305.000000 0.6351 0.6346 0.6340 0.6335 0.6330
3300.000000 0.6325 0.6319 0.6314 0.6308 0.6303
3295.000000 0.6297 0.6292 0.6286 0.6281 0.6275
3290.000000 0.6270 0.6264 0.6258 0.6252 0.6246
3285.000000 0.6240 0.6235 0.6229 0.6223 0.6217
3280.000000 0.6210 0.6205 0.6199 0.6193 0.6188
3275.000000 0.6182 0.6176 0.6170 0.6164 0.6158
3270.000000 0.6153 0.6147 0.6141 0.6135 0.6129
3265.000000 0.6122 0.6115 0.6108 0.6102 0.6095
3260.000000 0.6088 0.6081 0.6074 0.6067 0.6060
3255.000000 0.6054 0.6047 0.6040 0.6033 0.6026
3250.000000 0.6019 0.6012 0.6006 0.5999 0.5992
3245.000000 0.5985 0.5978 0.5971 0.5964 0.5957
3240.000000 0.5951 0.5944 0.5938 0.5932 0.5926
3235.000000 0.5920 0.5914 0.5907 0.5901 0.5895
3230.000000 0.5889 0.5883 0.5877 0.5871 0.5866
3225.000000 0.5862 0.5858 0.5854 0.5851 0.5847
3220.000000 0.5844 0.5840 0.5836 0.5832 0.5829
3215.000000 0.5826 0.5823 0.5821 0.5819 0.5816
3210.000000 0.5814 0.5810 0.5809 0.5809 0.5809
3205.000000 0.5810 0.5810 0.5812 0.5814 0.5815
3200.000000 0.5816 0.5817 0.5818 0.5819 0.5820
3195.000000 0.5821 0.5823 0.5824 0.5825 0.5826
3190.000000 0.5827 0.5828 0.5829 0.5831 0.5833
3185.000000 0.5834 0.5836 0.5837 0.5839 0.5840
3180.000000 0.5842 0.5843 0.5845 0.5846 0.5848
3175.000000 0.5849 0.5851 0.5852 0.5854 0.5856
3170.000000 0.5858 0.5859 0.5860 0.5862 0.5862
3165.000000 0.5862 0.5864 0.5865 0.5866 0.5866
3160.000000 0.5867 0.5868 0.5869 0.5869 0.5870
3155.000000 0.5871 0.5872 0.5872 0.5873 0.5874
3150.000000 0.5875 0.5875 0.5876 0.5876 0.5876
3145.000000 0.5875 0.5875 0.5875 0.5875 0.5874
3140.000000 0.5874 0.5874 0.5874 0.5873 0.5873
3135.000000 0.5873 0.5873 0.5872 0.5871 0.5869
3130.000000 0.5867 0.5865 0.5862 0.5860 0.5859
3125.000000 0.5856 0.5854 0.5852 0.5850 0.5842
3120.000000 0.5834 0.5825 0.5816 0.5807 0.5799
3115.000000 0.5790 0.5782 0.5773 0.5765 0.5757
3110.000000 0.5749 0.5747 0.5746 0.5744 0.5742
3105.000000 0.5740 0.5739 0.5737 0.5736 0.5734
3100.000000 0.5733 0.5731 0.5731 0.5731 0.5733
3095.000000 0.5734 0.5735 0.5736 0.5737 0.5733
3090.000000 0.5730 0.5726 0.5722 0.5718 0.5714
3085.000000 0.5709 0.5705 0.5697 0.5690 0.5682
3080.000000 0.5675 0.5667 0.5660 0.5652 0.5645
3075.000000 0.5639 0.5634 0.5629 0.5624 0.5619
3070.000000 0.5607 0.5614 0.5614 0.5620 0.5626
3065.000000 0.5635 0.5645 0.5655 0.5665 0.5675
3060.000000 0.5685 0.5695 0.5705 0.5710 0.5717
3055.000000 0.5719 0.5722 0.5723 0.5723 0.5723
3050.000000 0.5723 0.5722 0.5721 0.5718 0.5719
3045.000000 0.5719 0.5723 0.5730 0.5738 0.5764
3040.000000 0.5790 0.5815 0.5841 0.5867 0.5893
3035.000000 0.5915 0.5938 0.5958 0.5978 0.5997
3030.000000 0.6017 0.6037 0.6057 0.6077 0.6097
3025.000000 0.6117 0.6137 0.6150 0.6164 0.6176
3020.000000 0.6188 0.6200 0.6212 0.6224 0.6236
3015.000000 0.6248 0.6260 0.6272 0.6284 0.6296
3010.000000 0.6308 0.6318 0.6328 0.6338 0.6348
3005.000000 0.6358 0.6368 0.6378 0.6388 0.6397
3000.000000 0.6407 0.6417 0.6426 0.6435 0.6444
2995.000000 0.6450 0.6457 0.6462 0.6468 0.6475
2990.000000 0.6481 0.6487 0.6493 0.6499 0.6506
2985.000000 0.6511 0.6518 0.6524 0.6530 0.6536
2980.000000 0.6542 0.6548 0.6554 0.6558 0.6564
2975.000000 0.6568 0.6572 0.6576 0.6582 0.6586
2970.000000 0.6591 0.6595 0.6600 0.6604 0.6608
2965.000000 0.6612 0.6618 0.6621 0.6626 0.6631
2960.000000 0.6636 0.6640 0.6645 0.6649 0.6654
2955.000000 0.6658 0.6662 0.6667 0.6671 0.6675
2950.000000 0.6681 0.6685 0.6690 0.6694 0.6698
2945.000000 0.6701 0.6706 0.6710 0.6714 0.6718
2940.000000 0.6721 0.6725 0.6730 0.6733 0.6737
2935.000000 0.6741 0.6745 0.6749 0.6753 0.6757
2930.000000 0.6761 0.6765 0.6768 0.6771 0.6775
2925.000000 0.6780 0.6784 0.6788 0.6792 0.6795
2920.000000 0.6799 0.6801 0.6805 0.6808 0.6811
2915.000000 0.6814 0.6817 0.6819 0.6822 0.6825
2910.000000 0.6828 0.6832 0.6835 0.6838 0.6841
2905.000000 0.6844 0.6847 0.6850 0.6853 0.6855
2900.000000 0.6858 0.6858 0.6861 0.6862 0.6865
2895.000000 0.6865 0.6868 0.6868 0.6871 0.6872
2890.000000 0.6875 0.6875 0.6878 0.6880 0.6882
2885.000000 0.6883 0.6885 0.6888 0.6892 0.6895
2880.000000 0.6899 0.6901 0.6906 0.6908 0.6912
2875.000000 0.6915 0.6919 0.6924 0.6928 0.6931
2870.000000 0.6935 0.6938 0.6942 0.6945 0.6949
2865.000000 0.6953 0.6957 0.6961 0.6965 0.6971
2860.000000 0.6976 0.6982 0.6988 0.6993 0.6999
2855.000000 0.7005 0.7011 0.7015 0.7021 0.7026
2850.000000 0.7033 0.7038 0.7044 0.7049 0.7055
2845.000000 0.7060 0.7065 0.7071 0.7076 0.7082
2840.000000 0.7088 0.7093 0.7099 0.7105 0.7111
2835.000000 0.7115 0.7121 0.7126 0.7132 0.7137
2830.000000 0.7142 0.7146 0.7151 0.7156 0.7161
2825.000000 0.7165 0.7171 0.7175 0.7180 0.7185
2820.000000 0.7190 0.7194 0.7199 0.7204 0.7208
2815.000000 0.7212 0.7218 0.7222 0.7228 0.7233
2810.000000 0.7238 0.7242 0.7247 0.7251 0.7257
2805.000000 0.7261 0.7265 0.7271 0.7275 0.7280
2800.000000 0.7285 0.7290 0.7295 0.7300 0.7305
2795.000000 0.7308 0.7314 0.7318 0.7324 0.7328
2790.000000 0.7333 0.7337 0.7342 0.7346 0.7350
2785.000000 0.7354 0.7358 0.7361 0.7365 0.7369
2780.000000 0.7375 0.7378 0.7383 0.7387 0.7391
2775.000000 0.7395 0.7400 0.7404 0.7408 0.7411
2770.000000 0.7415 0.7419 0.7425 0.7428 0.7433
2765.000000 0.7437 0.7441 0.7445 0.7450 0.7453
2760.000000 0.7457 0.7461 0.7465 0.7468 0.7472
2755.000000 0.7475 0.7480 0.7484 0.7488 0.7492
2750.000000 0.7496 0.7500 0.7504 0.7507 0.7511
2745.000000 0.7515 0.7518 0.7522 0.7526 0.7530
2740.000000 0.7534 0.7538 0.7542 0.7546 0.7550
2735.000000 0.7554 0.7558 0.7561 0.7565 0.7568
2730.000000 0.7572 0.7575 0.7580 0.7584 0.7588
2725.000000 0.7591 0.7595 0.7598 0.7601 0.7606
2720.000000 0.7610 0.7612 0.7617 0.7621 0.7625
2715.000000 0.7628 0.7632 0.7635 0.7639 0.7642
2710.000000 0.7646 0.7649 0.7651 0.7655 0.7658
2705.000000 0.7660 0.7662 0.7665 0.7668 0.7671
2700.000000 0.7675 0.7676 0.7680 0.7683 0.7686
2695.000000 0.7688 0.7691 0.7694 0.7697 0.7700
2690.000000 0.7703 0.7705 0.7708 0.7711 0.7714
2685.000000 0.7715 0.7718 0.7721 0.7725 0.7728
2680.000000 0.7731 0.7733 0.7736 0.7739 0.7742
2675.000000 0.7745 0.7748 0.7750 0.7753 0.7756
2670.000000 0.7758 0.7761 0.7764 0.7767 0.7769
2665.000000 0.7769 0.7771 0.7771 0.7771 0.7771
2660.000000 0.7772 0.7772 0.7774 0.7774 0.7774
2655.000000 0.7774 0.7775 0.7775 0.7775 0.7775
2650.000000 0.7776 0.7776 0.7776 0.7776 0.7776
2645.000000 0.7776 0.7776 0.7776 0.7776 0.7776
2640.000000 0.7776 0.7776 0.7776 0.7776 0.7776
2635.000000 0.7776 0.7776 0.7776 0.7776 0.7776
2630.000000 0.7776 0.7776 0.7776 0.7776 0.7776
2625.000000 0.7776 0.7776 0.7775 0.7775 0.7775
2620.000000 0.7776 0.7778 0.7780 0.7782 0.7784
2615.000000 0.7785 0.7787 0.7788 0.7790 0.7791
2610.000000 0.7793 0.7794 0.7796 0.7798 0.7800
2605.000000 0.7801 0.7803 0.7804 0.7806 0.7807
2600.000000 0.7808 0.7811 0.7812 0.7814 0.7815
2595.000000 0.7817 0.7818 0.7819 0.7821 0.7824
2590.000000 0.7825 0.7826 0.7828 0.7830 0.7832
2585.000000 0.7833 0.7834 0.7835 0.7836 0.7837
2580.000000 0.7839 0.7840 0.7841 0.7842 0.7843
2575.000000 0.7844 0.7845 0.7846 0.7848 0.7849
2570.000000 0.7850 0.7851 0.7851 0.7853 0.7855
2565.000000 0.7856 0.7857 0.7858 0.7858 0.7860
2560.000000 0.7861 0.7861 0.7864 0.7865 0.7865
2555.000000 0.7867 0.7868 0.7868 0.7871 0.7871
2550.000000 0.7872 0.7874 0.7875 0.7875 0.7876
2545.000000 0.7878 0.7878 0.7880 0.7881 0.7882
2540.000000 0.7883 0.7884 0.7885 0.7886 0.7887
2535.000000 0.7888 0.7889 0.7890 0.7891 0.7892
2530.000000 0.7893 0.7894 0.7895 0.7895 0.7896
2525.000000 0.7897 0.7898 0.7899 0.7900 0.7901
2520.000000 0.7901 0.7903 0.7904 0.7905 0.7906
2515.000000 0.7907 0.7908 0.7908 0.7910 0.7911
2510.000000 0.7911 0.7911 0.7912 0.7914 0.7915
2505.000000 0.7915 0.7915 0.7917 0.7918 0.7918
2500.000000 0.7918 0.7918 0.7919 0.7921 0.7921
2495.000000 0.7921 0.7922 0.7922 0.7924 0.7924
2490.000000 0.7925 0.7925 0.7926 0.7926 0.7928
2485.000000 0.7928 0.7928 0.7930 0.7931 0.7931
2480.000000 0.7932 0.7932 0.7933 0.7934 0.7935
2475.000000 0.7935 0.7936 0.7937 0.7938 0.7939
2470.000000 0.7940 0.7941 0.7942 0.7943 0.7944
2465.000000 0.7945 0.7946 0.7947 0.7948 0.7949
2460.000000 0.7950 0.7951 0.7951 0.7953 0.7954
2455.000000 0.7955 0.7956 0.7957 0.7958 0.7958
2450.000000 0.7960 0.7960 0.7961 0.7961 0.7961
2445.000000 0.7961 0.7962 0.7962 0.7964 0.7964
2440.000000 0.7965 0.7965 0.7965 0.7965 0.7967
2435.000000 0.7967 0.7968 0.7968 0.7968 0.7968
2430.000000 0.7969 0.7969 0.7969 0.7969 0.7969
2425.000000 0.7969 0.7969 0.7968 0.7968 0.7968
2420.000000 0.7968 0.7968 0.7968 0.7968 0.7968
2415.000000 0.7968 0.7968 0.7967 0.7967 0.7965
2410.000000 0.7965 0.7965 0.7964 0.7962 0.7961
2405.000000 0.7961 0.7961 0.7960 0.7958 0.7958
2400.000000 0.7957 0.7956 0.7955 0.7954 0.7953
2395.000000 0.7951 0.7951 0.7949 0.7947 0.7945
2390.000000 0.7943 0.7941 0.7939 0.7937 0.7935
2385.000000 0.7933 0.7931 0.7928 0.7926 0.7925
2380.000000 0.7922 0.7921 0.7918 0.7917 0.7915
2375.000000 0.7911 0.7908 0.7905 0.7901 0.7898
2370.000000 0.7895 0.7891 0.7888 0.7884 0.7881
2365.000000 0.7876 0.7874 0.7869 0.7867 0.7865
2360.000000 0.7862 0.7861 0.7860 0.7858 0.7858
2355.000000 0.7858 0.7858 0.7858 0.7858 0.7858
2350.000000 0.7858 0.7858 0.7858 0.7858 0.7858
2345.000000 0.7858 0.7858 0.7858 0.7858 0.7858
2340.000000 0.7860 0.7860 0.7860 0.7860 0.7860
2335.000000 0.7860 0.7860 0.7861 0.7861 0.7862
2330.000000 0.7864 0.7864 0.7865 0.7865 0.7867
2325.000000 0.7868 0.7868 0.7868 0.7869 0.7871
2320.000000 0.7871 0.7872 0.7874 0.7875 0.7876
2315.000000 0.7878 0.7881 0.7883 0.7885 0.7887
2310.000000 0.7889 0.7891 0.7893 0.7895 0.7897
2305.000000 0.7899 0.7901 0.7903 0.7905 0.7906
2300.000000 0.7908 0.7910 0.7911 0.7914 0.7915
2295.000000 0.7918 0.7919 0.7922 0.7925 0.7928
2290.000000 0.7933 0.7937 0.7941 0.7944 0.7948
2285.000000 0.7951 0.7956 0.7958 0.7962 0.7967
2280.000000 0.7971 0.7976 0.7984 0.7990 0.7996
2275.000000 0.8001 0.8008 0.8015 0.8021 0.8028
2270.000000 0.8034 0.8040 0.8047 0.8053 0.8060
2265.000000 0.8068 0.8075 0.8084 0.8092 0.8100
2260.000000 0.8108 0.8115 0.8122 0.8131 0.8139
2255.000000 0.8147 0.8155 0.8161 0.8169 0.8176
2250.000000 0.8185 0.8192 0.8200 0.8208 0.8216
2245.000000 0.8223 0.8231 0.8238 0.8246 0.8253
2240.000000 0.8261 0.8268 0.8277 0.8285 0.8294
2235.000000 0.8302 0.8310 0.8318 0.8325 0.8332
2230.000000 0.8339 0.8343 0.8348 0.8352 0.8357
2225.000000 0.8361 0.8366 0.8370 0.8375 0.8378
2220.000000 0.8384 0.8388 0.8393 0.8397 0.8402
2215.000000 0.8406 0.8410 0.8413 0.8416 0.8418
2210.000000 0.8421 0.8425 0.8428 0.8431 0.8434
2205.000000 0.8437 0.8440 0.8443 0.8446 0.8449
2200.000000 0.8452 0.8455 0.8458 0.8461 0.8464
2195.000000 0.8467 0.8470 0.8473 0.8475 0.8478
2190.000000 0.8483 0.8486 0.8490 0.8493 0.8496
2185.000000 0.8499 0.8503 0.8506 0.8510 0.8513
2180.000000 0.8516 0.8518 0.8523 0.8525 0.8530
2175.000000 0.8533 0.8536 0.8539 0.8543 0.8546
2170.000000 0.8549 0.8552 0.8556 0.8559 0.8563
2165.000000 0.8566 0.8568 0.8571 0.8575 0.8578
2160.000000 0.8583 0.8586 0.8590 0.8593 0.8597
2155.000000 0.8600 0.8604 0.8607 0.8611 0.8614
2150.000000 0.8618 0.8621 0.8625 0.8628 0.8632
2145.000000 0.8635 0.8639 0.8642 0.8646 0.8649
2140.000000 0.8653 0.8656 0.8660 0.8663 0.8667
2135.000000 0.8670 0.8674 0.8678 0.8682 0.8686
2130.000000 0.8690 0.8694 0.8698 0.8702 0.8707
2125.000000 0.8711 0.8715 0.8718 0.8723 0.8727
2120.000000 0.8732 0.8736 0.8740 0.8744 0.8748
2115.000000 0.8752 0.8756 0.8760 0.8765 0.8768
2110.000000 0.8773 0.8777 0.8781 0.8785 0.8790
2105.000000 0.8794 0.8798 0.8802 0.8806 0.8810
2100.000000 0.8815 0.8818 0.8821 0.8825 0.8828
2095.000000 0.8832 0.8836 0.8839 0.8843 0.8846
2090.000000 0.8850 0.8853 0.8857 0.8860 0.8864
2085.000000 0.8867 0.8871 0.8874 0.8878 0.8881
2080.000000 0.8885 0.8888 0.8892 0.8895 0.8899
2075.000000 0.8902 0.8905 0.8907 0.8910 0.8913
2070.000000 0.8916 0.8918 0.8921 0.8923 0.8925
2065.000000 0.8928 0.8931 0.8933 0.8936 0.8939
2060.000000 0.8942 0.8944 0.8946 0.8948 0.8950
2055.000000 0.8952 0.8954 0.8956 0.8958 0.8960
2050.000000 0.8962 0.8963 0.8964 0.8965 0.8966
2045.000000 0.8967 0.8968 0.8968 0.8968 0.8970
2040.000000 0.8971 0.8971 0.8973 0.8974 0.8975
2035.000000 0.8977 0.8978 0.8980 0.8982 0.8983
2030.000000 0.8985 0.8986 0.8988 0.8989 0.8990
2025.000000 0.8991 0.8992 0.8993 0.8993 0.8993
2020.000000 0.8992 0.8989 0.8986 0.8982 0.8978
2015.000000 0.8974 0.8968 0.8963 0.8958 0.8952
2010.000000 0.8947 0.8941 0.8935 0.8931 0.8928
2005.000000 0.8925 0.8923 0.8921 0.8920 0.8920
2000.000000 0.8920 0.8925 0.8930 0.8936 0.8942
1995.000000 0.8948 0.8953 0.8956 0.8958 0.8961
1990.000000 0.8963 0.8966 0.8968 0.8971 0.8986
1985.000000 0.8965 0.8963 0.8960 0.8957 0.8954
1980.000000 0.8952 0.8946 0.8941 0.8934 0.8925
1975.000000 0.8918 0.8911 0.8904 0.8897 0.8890
1970.000000 0.8883 0.8875 0.8868 0.8863 0.8857
1965.000000 0.8851 0.8845 0.8834 0.8821 0.8810
1960.000000 0.8801 0.8796 0.8791 0.8787 0.8787
1955.000000 0.8787 0.8787 0.8787 0.8787 0.8787
1950.000000 0.8789 0.8794 0.8799 0.8803 0.8808
1945.000000 0.8813 0.8818 0.8823 0.8828 0.8832
1940.000000 0.8837 0.8842 0.8847 0.8851 0.8856
1935.000000 0.8858 0.8859 0.8860 0.8862 0.8863
1930.000000 0.8865 0.8866 0.8868 0.8868 0.8868
1925.000000 0.8868 0.8868 0.8867 0.8866 0.8865
1920.000000 0.8864 0.8863 0.8860 0.8855 0.8850
1915.000000 0.8845 0.8840 0.8835 0.8828 0.8823
1910.000000 0.8817 0.8811 0.8805 0.8799 0.8793
1905.000000 0.8786 0.8778 0.8771 0.8765 0.8758
1900.000000 0.8751 0.8745 0.8746 0.8746 0.8748
1895.000000 0.8750 0.8752 0.8754 0.8756 0.8758
1890.000000 0.8760 0.8763 0.8766 0.8768 0.8771
1885.000000 0.8774 0.8777 0.8780 0.8783 0.8786
1880.000000 0.8789 0.8792 0.8795 0.8798 0.8801
1875.000000 0.8804 0.8807 0.8810 0.8813 0.8816
1870.000000 0.8818 0.8821 0.8825 0.8828 0.8832
1865.000000 0.8835 0.8838 0.8841 0.8844 0.8847
1860.000000 0.8850 0.8854 0.8857 0.8860 0.8863
1855.000000 0.8866 0.8868 0.8871 0.8875 0.8878
1850.000000 0.8881 0.8884 0.8887 0.8888 0.8889
1845.000000 0.8890 0.8890 0.8891 0.8892 0.8892
1840.000000 0.8893 0.8894 0.8894 0.8895 0.8895
1835.000000 0.8896 0.8897 0.8897 0.8898 0.8899
1830.000000 0.8899 0.8900 0.8901 0.8901 0.8901
1825.000000 0.8900 0.8900 0.8899 0.8898 0.8897
1820.000000 0.8896 0.8895 0.8895 0.8894 0.8893
1815.000000 0.8892 0.8891 0.8891 0.8890 0.8889
1810.000000 0.8888 0.8887 0.8887 0.8886 0.8885
1805.000000 0.8885 0.8885 0.8885 0.8884 0.8884
1800.000000 0.8884 0.8884 0.8883 0.8883 0.8883
1795.000000 0.8883 0.8882 0.8882 0.8882 0.8882
1790.000000 0.8881 0.8881 0.8881 0.8881 0.8880
1785.000000 0.8880 0.8880 0.8880 0.8880 0.8880
1780.000000 0.8880 0.8880 0.8880 0.8880 0.8880
1775.000000 0.8880 0.8880 0.8880 0.8880 0.8880
1770.000000 0.8878 0.8878 0.8878 0.8878 0.8878
1765.000000 0.8878 0.8878 0.8878 0.8878 0.8875
1760.000000 0.8874 0.8871 0.8870 0.8868 0.8866
1755.000000 0.8864 0.8863 0.8861 0.8859 0.8857
1750.000000 0.8855 0.8853 0.8850 0.8848 0.8846
1745.000000 0.8844 0.8840 0.8836 0.8832 0.8828
1740.000000 0.8824 0.8818 0.8813 0.8807 0.8800
1735.000000 0.8794 0.8787 0.8775 0.8762 0.8750
1730.000000 0.8737 0.8725 0.8712 0.8699 0.8687
1725.000000 0.8674 0.8662 0.8650 0.8638 0.8625
1720.000000 0.8614 0.8603 0.8589 0.8574 0.8559
1715.000000 0.8544 0.8527 0.8504 0.8481 0.8459
1710.000000 0.8436 0.8414 0.8391 0.8368 0.8340
1705.000000 0.8311 0.8282 0.8253 0.8218 0.8185
1700.000000 0.8156 0.8132 0.8108 0.8084 0.8060
1695.000000 0.8038 0.8015 0.7994 0.7974 0.7955
1690.000000 0.7935 0.7915 0.7894 0.7874 0.7853
1685.000000 0.7832 0.7811 0.7791 0.7769 0.7747
1680.000000 0.7721 0.7697 0.7671 0.7648 0.7621
1675.000000 0.7592 0.7561 0.7531 0.7500 0.7469
1670.000000 0.7439 0.7408 0.7374 0.7322 0.7271
1665.000000 0.7219 0.7168 0.7118 0.7064 0.7006
1660.000000 0.6947 0.6889 0.6830 0.6784 0.6738
1655.000000 0.6692 0.6647 0.6601 0.6553 0.6501
1650.000000 0.6450 0.6398 0.6347 0.6270 0.6195
1645.000000 0.6127 0.6070 0.6024 0.5978 0.5931
1640.000000 0.5882 0.5832 0.5783 0.5743 0.5708
1635.000000 0.5674 0.5639 0.5604 0.5569 0.5530
1630.000000 0.5489 0.5447 0.5406 0.5353 0.5293
1625.000000 0.5222 0.5119 0.5016 0.4944 0.4874
1620.000000 0.4804 0.4734 0.4636 0.4538 0.4395
1615.000000 0.4227 0.3673 0.3414 0.3272 0.3199
1610.000000 0.3126 0.3054 0.2981 0.2908 0.2872
1605.000000 0.2868 0.2875 0.2880 0.2895 0.2910
1600.000000 0.2927 0.2944 0.2962 0.2989 0.3020
1595.000000 0.3077 0.3150 0.3227 0.3300 0.3377
1590.000000 0.3466 0.3558 0.3659 0.3762 0.3845
1585.000000 0.3903 0.3968 0.4022 0.4059 0.4080
1580.000000 0.4097 0.4114 0.4110 0.4109 0.4107
1575.000000 0.4103 0.4093 0.4064 0.4016 0.3950
1570.000000 0.3879 0.3712 0.3609 0.3525 0.3439
1565.000000 0.3372 0.3307 0.3242 0.3162 0.3073
1560.000000 0.2973 0.2909 0.2879 0.2872 0.2839
1555.000000 0.2863 0.2858 0.2859 0.2861 0.2863
1550.000000 0.2872 0.2894 0.2915 0.2945 0.2988
1545.000000 0.3040 0.3094 0.3273 0.3399 0.3449
1540.000000 0.3477 0.3504 0.3530 0.3556 0.3582
1535.000000 0.3607 0.3662 0.3728 0.3816 0.3895
1530.000000 0.3970 0.4036 0.4097 0.4157 0.4218
1525.000000 0.4287 0.4358 0.4424 0.4487 0.4559
1520.000000 0.4640 0.4727 0.4830 0.4931 0.5032
1515.000000 0.5115 0.5189 0.5262 0.5353 0.5439
1510.000000 0.5514 0.5601 0.5762 0.5829 0.5845
1505.000000 0.5870 0.5869 0.5874 0.5878 0.5545
1500.000000 0.5125 0.4705 0.4285 0.3864 0.3799
1495.000000 0.3830 0.3953 0.4172 0.4392 0.4610
1490.000000 0.4831 0.5050 0.5269 0.5489 0.5587
1485.000000 0.5589 0.5590 0.5586 0.5560 0.5460
1480.000000 0.5119 0.4790 0.4460 0.4133 0.3871
1475.000000 0.3843 0.3814 0.3787 0.3759 0.3742
1470.000000 0.3726 0.3709 0.3704 0.3699 0.3699
1465.000000 0.3699 0.3699 0.3698 0.3693 0.3680
1460.000000 0.3576 0.3502 0.3389 0.3310 0.3300
1455.000000 0.3308 0.3290 0.3292 0.3308 0.3491
1450.000000 0.3634 0.3758 0.3897 0.4084 0.4272
1445.000000 0.4459 0.4646 0.4831 0.4877 0.4904
1440.000000 0.4904 0.4905 0.4837 0.4451 0.3848
1435.000000 0.3245 0.2642 0.2039 0.1436 0.0929
1430.000000 0.0919 0.0956 0.0922 0.0951 0.1094
1425.000000 0.1250 0.1406 0.1562 0.1718 0.1874
1420.000000 0.2029 0.2185 0.2216 0.2227 0.2214
1415.000000 0.2235 0.2231 0.2202 0.2059 0.1976
1410.000000 0.1890 0.1802 0.1761 0.1745 0.1733
1405.000000 0.1728 0.1742 0.1741 0.1772 0.1823
1400.000000 0.1874 0.1934 0.2003 0.2071 0.2150
1395.000000 0.2255 0.2360 0.2463 0.2561 0.2659
1390.000000 0.2756 0.2849 0.2939 0.3030 0.3112
1385.000000 0.3181 0.3250 0.3318 0.3405 0.3516
1380.000000 0.3612 0.3709 0.3806 0.3903 0.3999
1375.000000 0.4096 0.4193 0.4290 0.4364 0.4384
1370.000000 0.4405 0.4425 0.4443 0.4454 0.4465
1365.000000 0.4476 0.4488 0.4495 0.4501 0.4506
1360.000000 0.4506 0.4506 0.4523 0.4518 0.4510
1355.000000 0.4503 0.4488 0.4460 0.4403 0.4317
1350.000000 0.4243 0.4151 0.4050 0.3980 0.3966
1345.000000 0.3962 0.3959 0.3959 0.3962 0.3962
1340.000000 0.3964 0.3971 0.3978 0.3984 0.3996
1335.000000 0.4009 0.4025 0.4047 0.4076 0.4106
1330.000000 0.4140 0.4199 0.4256 0.4307 0.4358
1325.000000 0.4406 0.4452 0.4499 0.4557 0.4606
1320.000000 0.4621 0.4624 0.4607 0.4588 0.4588
1315.000000 0.4588 0.4588 0.4612 0.4649 0.4693
1310.000000 0.4737 0.4784 0.4830 0.4877 0.4916
1305.000000 0.4952 0.4981 0.5004 0.5016 0.5016
1300.000000 0.5016 0.5007 0.4999 0.4977 0.4956
1295.000000 0.4932 0.4897 0.4860 0.4820 0.4778
1290.000000 0.4732 0.4685 0.4636 0.4575 0.4468
1285.000000 0.4362 0.4255 0.4148 0.4010 0.3988
1280.000000 0.3988 0.4032 0.4142 0.4251 0.4360
1275.000000 0.4470 0.4579 0.4688 0.4690 0.4695
1270.000000 0.4686 0.4603 0.4520 0.4438 0.4355
1265.000000 0.4272 0.4195 0.4195 0.4206 0.4217
1260.000000 0.4276 0.4394 0.4468 0.4562 0.4527
1255.000000 0.4522 0.4503 0.4457 0.4392 0.4226
1250.000000 0.4022 0.3818 0.3614 0.3410 0.3207
1245.000000 0.3038 0.3038 0.3039 0.3042 0.3058
1240.000000 0.3076 0.3133 0.3189 0.3243 0.3298
1235.000000 0.3356 0.3414 0.3488 0.3575 0.3660
1230.000000 0.3747 0.3832 0.3916 0.4000 0.4104
1225.000000 0.4250 0.4449 0.4560 0.4666 0.4768
1220.000000 0.4870 0.5006 0.5143 0.5250 0.5347
1215.000000 0.5431 0.5504 0.5577 0.5646 0.5714
1210.000000 0.5762 0.5808 0.5847 0.5877 0.5907
1205.000000 0.5932 0.5929 0.5947 0.5935 0.5923
1200.000000 0.5899 0.5874 0.5849 0.5823 0.5758
1195.000000 0.5785 0.5777 0.5769 0.5773 0.5777
1190.000000 0.5782 0.5791 0.5806 0.5821 0.5844
1185.000000 0.5869 0.5895 0.5932 0.5980 0.6034
1180.000000 0.6089 0.6134 0.6176 0.6210 0.6244
1175.000000 0.6280 0.6289 0.6295 0.6303 0.6264
1170.000000 0.6208 0.6122 0.6017 0.5872 0.5726
1165.000000 0.5581 0.5435 0.5290 0.5184 0.5102
1160.000000 0.5122 0.5115 0.5118 0.5188 0.5308
1155.000000 0.5387 0.5467 0.5558 0.5649 0.5743
1150.000000 0.5839 0.5936 0.6054 0.6178 0.6295
1145.000000 0.6407 0.6508 0.6586 0.6664 0.6719
1140.000000 0.6758 0.6796 0.6834 0.6871 0.6895
1135.000000 0.6917 0.6940 0.6962 0.6986 0.7008
1130.000000 0.7025 0.7040 0.7056 0.7071 0.7086
1125.000000 0.7101 0.7115 0.7130 0.7141 0.7151
1120.000000 0.7161 0.7171 0.7182 0.7188 0.7194
1115.000000 0.7199 0.7261 0.7210 0.7214 0.7214
1110.000000 0.7215 0.7207 0.7194 0.7165 0.7138
1105.000000 0.7110 0.7061 0.6995 0.6928 0.6862
1100.000000 0.6806 0.6749 0.6693 0.6641 0.6610
1095.000000 0.6578 0.6547 0.6519 0.6498 0.6480
1090.000000 0.6469 0.6465 0.6467 0.6471 0.6504
1085.000000 0.6537 0.6574 0.6596 0.6605 0.6611
1080.000000 0.6611 0.6611 0.6608 0.6503 0.6458
1075.000000 0.6438 0.6425 0.6418 0.6415 0.6411
1070.000000 0.6405 0.6397 0.6365 0.6301 0.6039
1065.000000 0.5778 0.5612 0.5609 0.5605 0.5628
1060.000000 0.5693 0.5867 0.6118 0.6368 0.6618
1055.000000 0.6869 0.7005 0.7056 0.7107 0.7151
1050.000000 0.7194 0.7226 0.7255 0.7267 0.7274
1045.000000 0.7282 0.7282 0.7282 0.7299 0.7301
1040.000000 0.7304 0.7306 0.7307 0.7307 0.7306
1035.000000 0.7305 0.7293 0.7275 0.7260 0.7222
1030.000000 0.7181 0.7118 0.6998 0.5927 0.5952
1025.000000 0.5934 0.6072 0.6294 0.6515 0.6738
1020.000000 0.6960 0.7082 0.7110 0.7131 0.7151
1015.000000 0.7171 0.7190 0.7203 0.7217 0.7230
1010.000000 0.7236 0.7242 0.7248 0.7253 0.7258
1005.000000 0.7261 0.7261 0.7257 0.7247 0.7235
1000.000000 0.7218 0.7218 0.7219 0.7235 0.7249
995.000000 0.7256 0.7260 0.7261 0.7261 0.7258
990.000000 0.7254 0.7245 0.7235 0.7225 0.7214
985.000000 0.7204 0.7190 0.7175 0.7161 0.7146
980.000000 0.7132 0.7119 0.7108 0.7097 0.7086
975.000000 0.7078 0.7072 0.7067 0.7061 0.7056
970.000000 0.7053 0.7050 0.7069 0.7044 0.7041
965.000000 0.7047 0.7055 0.7075 0.7103 0.7131
960.000000 0.7158 0.7186 0.7208 0.7228 0.7249
955.000000 0.7265 0.7278 0.7290 0.7295 0.7293
950.000000 0.7290 0.7281 0.7272 0.7264 0.7255
945.000000 0.7244 0.7234 0.7222 0.7211 0.7201
940.000000 0.7190 0.7175 0.7161 0.7148 0.7133
935.000000 0.7118 0.7103 0.7094 0.7089 0.7083
930.000000 0.7078 0.7078 0.7078 0.7078 0.7078
925.000000 0.7078 0.7076 0.7075 0.7072 0.7071
920.000000 0.7053 0.7017 0.6976 0.6940 0.6903
915.000000 0.6878 0.6861 0.6851 0.6844 0.6845
910.000000 0.6846 0.6857 0.6875 0.6895 0.6914
905.000000 0.6921 0.6921 0.6921 0.6918 0.6915
900.000000 0.6911 0.6908 0.6905 0.6903 0.6901
895.000000 0.6899 0.6897 0.6895 0.6892 0.6889
890.000000 0.6886 0.6883 0.6878 0.6881 0.6883
885.000000 0.6897 0.6912 0.6928 0.6942 0.6951
880.000000 0.6961 0.6971 0.6978 0.6983 0.6988
875.000000 0.6991 0.6994 0.6994 0.6994 0.6988
870.000000 0.6981 0.6975 0.6964 0.6948 0.6925
865.000000 0.6894 0.6843 0.6790 0.6741 0.6686
860.000000 0.6619 0.6550 0.6439 0.6303 0.6170
855.000000 0.6091 0.6039 0.6009 0.6008 0.6007
850.000000 0.6031 0.6186 0.6312 0.6388 0.6410
845.000000 0.6431 0.6465 0.6485 0.6498 0.6501
840.000000 0.6505 0.6531 0.6437 0.6340 0.6148
835.000000 0.5956 0.5762 0.5571 0.5390 0.5390
830.000000 0.5394 0.5732 0.5931 0.6130 0.6329
825.000000 0.6526 0.6725 0.6925 0.7047 0.7065
820.000000 0.7069 0.7074 0.7074 0.7071 0.7065
815.000000 0.7087 0.7050 0.7042 0.7031 0.7018
810.000000 0.7006 0.6994 0.6981 0.6965 0.6950
805.000000 0.6934 0.6914 0.6885 0.6855 0.6810
800.000000 0.6764 0.6717 0.6669 0.6621 0.6535
795.000000 0.6445 0.6356 0.6268 0.6184 0.6107
790.000000 0.6030 0.5953 0.5880 0.5806 0.5731
785.000000 0.5649 0.5567 0.5485 0.5397 0.5307
780.000000 0.5212 0.5115 0.5019 0.4925 0.4817
775.000000 0.4682 0.4560 0.4442 0.4326 0.4153
770.000000 0.3949 0.3809 0.3183 0.3001 0.2818
765.000000 0.2635 0.2453 0.2271 0.2088 0.1906
760.000000 0.1723 0.1639 0.1673 0.1674 0.1698
755.000000 0.1754 0.1837 0.1994 0.2351 0.2643
750.000000 0.3004 0.3410 0.3818 0.4226 0.4925
745.000000 0.4928 0.4920 0.4906 0.4880 0.4832
740.000000 0.4746 0.4623 0.4555 0.4556 0.4556
735.000000 0.4568 0.4603 0.4712 0.4854 0.4986
730.000000 0.5118 0.5249 0.5381 0.5512 0.5560
725.000000 0.5558 0.5533 0.5492 0.5459 0.5439
720.000000 0.5444 0.5471 0.5557 0.5690 0.5822
715.000000 0.5899 0.5940 0.5932 0.5936 0.5928
710.000000 0.5873 0.5796 0.5545 0.5153 0.4762
705.000000 0.4370 0.3978 0.3586 0.3195 0.2803
700.000000 0.2515 0.2534 0.2518 0.2593 0.3043
695.000000 0.3493 0.3943 0.4393 0.4842 0.5292
690.000000 0.5742 0.6192 0.6614 0.6658 0.6689
685.000000 0.6705 0.6715 0.6696 0.6711 0.6708
680.000000 0.6703 0.6682 0.6650 0.6605 0.6545
675.000000 0.6472 0.6399 0.6323 0.6250 0.6181
670.000000 0.6099 0.5966 0.5718 0.5660 0.5624
665.000000 0.5586 0.5548 0.5501 0.5452 0.5407
660.000000 0.5364 0.5334 0.5306 0.5285 0.5274
655.000000 0.5260 0.5268 0.5290 0.5312 0.5393
650.000000 0.5489 0.5577 0.5710 0.5846 0.5982
645.000000 0.6118 0.6254 0.6391 0.6526 0.6662
640.000000 0.6799 0.6906 0.6947 0.6988 0.7026
635.000000 0.7067 0.7104 0.7138 0.7165 0.7186
630.000000 0.7205 0.7205 0.7205 0.7205 0.7206
625.000000 0.7207 0.7210 0.7218 0.7236 0.7265
620.000000 0.7291 0.7308 0.7319 0.7325 0.7331
615.000000 0.7319 0.7310 0.7293 0.7267 0.7222
610.000000 0.7106 0.6988 0.6871 0.6753 0.6636
605.000000 0.6537 0.6542 0.6546 0.6701 0.6880
600.000000 0.7058 0.7101 0.7118 0.7132 0.7144
595.000000 0.7146 0.7140 0.7122 0.7008 0.6888
590.000000 0.6768 0.6648 0.6528 0.6407 0.6287
585.000000 0.6155 0.6167 0.6171 0.6181 0.6233
580.000000 0.6350 0.6467 0.6584 0.6701 0.6818
575.000000 0.6935 0.7051 0.7168 0.7287 0.7344
570.000000 0.7338 0.7333 0.7326 0.7322 0.7318
565.000000 0.7315 0.7325 0.7340 0.7354 0.7364
560.000000 0.7372 0.7382 0.7391 0.7399 0.7403
555.000000 0.7408 0.7411 0.7397 0.7408 0.7406
550.000000 0.7403 0.7398 0.7393 0.7389 0.7384
545.000000 0.7378 0.7372 0.7368 0.7351 0.7325
540.000000 0.7283 0.7240 0.7189 0.7137 0.7086
535.000000 0.7041 0.6997 0.6964 0.6938 0.6918
530.000000 0.6906 0.6906 0.6906 0.6907 0.6908
525.000000 0.6908 0.6908 0.6908 0.6908 0.6908
520.000000 0.6908 0.6906 0.6903 0.6900 0.6897
515.000000 0.6886 0.6874 0.6861 0.6848 0.6833
510.000000 0.6818 0.6803 0.6784 0.6762 0.6743
505.000000 0.6712 0.6682 0.6649 0.6610 0.6569
500.000000 0.6511 0.6443 0.6383 0.6349 0.6306
495.000000 0.6306 0.6306 0.6305 0.6310 0.6325
490.000000 0.6338 0.6352 0.6366 0.6379 0.6392
485.000000 0.6405 0.6418 0.6425 0.6432 0.6439
480.000000 0.6446 0.6453 0.6451 0.6451 0.6451
475.000000 0.6450 0.6450 0.6448 0.6437 0.6425
470.000000 0.6415 0.6404 0.6389 0.6307 0.6225
465.000000 0.6143 0.6064 0.5985 0.5906 0.5827
460.000000 0.5734 0.5645 0.5598 0.5577 0.5574
455.000000 0.5571 0.5568 0.5565 0.5562 0.5562
450.000000 0.5562 0.5562 0.5565 0.5566 0.5566
445.000000 0.5559 0.5552 0.5544 0.5537 0.5528
440.000000 0.5486 0.5444 0.5402 0.5357 0.5310
435.000000 0.5262 0.5216 0.5169 0.5122 0.5075
430.000000 0.5014 0.4954 0.4894 0.4834 0.4767
425.000000 0.4698 0.4630 0.4562 0.4508 0.4462
420.000000 0.4417 0.4372 0.4327 0.4281 0.4249
415.000000 0.4218 0.4188 0.4158 0.4128 0.4098
410.000000 0.4076 0.4053 0.4030 0.4008 0.3984
405.000000 0.3962 0.3943
##END=
