##TITLE=D-(+)-MALTOSE
##JCAMP-DX=4.24
##DATA TYPE=INFRARED SPECTRUM
##CLASS=COBLENTZ
##ORIGIN=WYANDOTTE CHEMICALS CORP., WYANDOTTE, MICHIGAN, USA
##OWNER=COBLENTZ SOCIETY
Collection (C) 2018 copyright by the U.S. Secretary of Commerce
on behalf of the United States of America. All rights reserved.
##DATE=Not specified, most likely prior to 1970
##MOLFORM=C12 H22 O11  * H2 O
##MP=120 C
##SOURCE REFERENCE=COBLENTZ NO. 94
##$NIST ID=B6000094
##$NIST SOURCE=COBLENTZ
##$NIST IMAGE=cob94
##SPECTROMETER/DATA SYSTEM=Not specified, most likely a prism, grating, or hybrid spectrometer.
##SAMPLING PROCEDURE=TRANSMISSION
##RESOLUTION=4
##DATA PROCESSING=DIGITIZED BY NIST FROM HARD COPY
##XUNITS=MICROMETERS
##YUNITS=TRANSMITTANCE
##XFACTOR=1.000000
##YFACTOR=1
##DELTAX=000.006618
##FIRSTX=2.061
##LASTX=15.9911
##FIRSTY=0.904
##MAXX=15.9911
##MINX=2.061
##MAXY=0.96
##MINY=0.031
##NPOINTS=2106
##XYDATA=(X++(Y..Y))
2.061000 0.9040 0.9040 0.9040 0.9040 0.9060
2.094104 0.9070 0.9110 0.9120 0.9120 0.9140
2.127000 0.9150 0.9190 0.9220 0.9250 0.9250
2.160104 0.9270 0.9290 0.9290 0.9300 0.9290
2.193000 0.9240 0.9170 0.9070 0.9020 0.8970
2.226104 0.8920 0.8890 0.8890 0.8890 0.8890
2.260000 0.8870 0.8860 0.8840 0.8840 0.8830
2.293104 0.8810 0.8840 0.8840 0.8890 0.8970
2.326000 0.8990 0.9010 0.9010 0.9020 0.9020
2.359104 0.9010 0.9010 0.9010 0.8970 0.8970
2.392000 0.8940 0.8890 0.8840 0.8840 0.8840
2.425104 0.8860 0.8910 0.8940 0.8940 0.8960
2.458000 0.8990 0.9010 0.9020 0.9060 0.9120
2.491104 0.9140 0.9150 0.9170 0.9190 0.9190
2.524000 0.9200 0.9240 0.9270 0.9300 0.9320
2.557104 0.9350 0.9390 0.9420 0.9480 0.9500
2.590000 0.9500 0.9530 0.9550 0.9550 0.9570
2.623104 0.9570 0.9550 0.9520 0.9520 0.9480
2.657000 0.9480 0.9500 0.9530 0.9580 0.9600
2.690104 0.9600 0.9600 0.9550 0.9520 0.9500
2.723000 0.9500 0.9480 0.9400 0.9290 0.9090
2.756104 0.8920 0.8560 0.8270 0.8020 0.7770
2.789000 0.7010 0.6440 0.6340 0.6290 0.6140
2.822104 0.5980 0.5420 0.4810 0.4310 0.4010
2.855000 0.3700 0.3470 0.3040 0.2680 0.2380
2.888104 0.2150 0.2070 0.1970 0.1810 0.1680
2.921000 0.1540 0.1380 0.1200 0.1130 0.1020
2.954104 0.0920 0.0840 0.0790 0.0750 0.0740
2.987000 0.0690 0.0640 0.0570 0.0560 0.0510
3.020104 0.0440 0.0420 0.0420 0.0420 0.0440
3.054000 0.0490 0.0510 0.0540 0.0540 0.0540
3.087104 0.0540 0.0540 0.0540 0.0570 0.0570
3.120000 0.0600 0.0620 0.0640 0.0670 0.0700
3.153104 0.0750 0.0790 0.0820 0.0870 0.0950
3.186000 0.1030 0.1130 0.1180 0.1360 0.1510
3.219104 0.1740 0.1810 0.1960 0.2140 0.2170
3.252000 0.2250 0.2330 0.2450 0.2530 0.2610
3.285104 0.2660 0.2680 0.2660 0.2650 0.2530
3.318000 0.2270 0.2140 0.1990 0.1590 0.0980
3.351104 0.0650 0.0470 0.0320 0.0310 0.0310
3.385000 0.0310 0.0310 0.0310 0.0310 0.0310
3.418104 0.0310 0.0310 0.0310 0.0320 0.0320
3.451000 0.0320 0.0340 0.0340 0.0340 0.0340
3.484104 0.0360 0.0360 0.0360 0.0360 0.0370
3.517000 0.0410 0.0440 0.0850 0.1400 0.1690
3.550104 0.2660 0.3010 0.3370 0.3720 0.4210
3.583000 0.4460 0.4530 0.4570 0.4610 0.4820
3.616104 0.4940 0.5050 0.5270 0.5320 0.5430
3.649000 0.5480 0.5510 0.5560 0.5600 0.5550
3.682104 0.5510 0.5480 0.5450 0.5430 0.5450
3.715000 0.5460 0.5510 0.5550 0.5600 0.5630
3.748104 0.5680 0.5760 0.5860 0.5930 0.5990
3.782000 0.6120 0.6190 0.6270 0.6340 0.6420
3.815104 0.6470 0.6520 0.6580 0.6630 0.6670
3.848000 0.6700 0.6720 0.6730 0.6770 0.6800
3.881104 0.6830 0.6880 0.6950 0.6960 0.7000
3.914000 0.7010 0.7030 0.7030 0.7060 0.7080
3.947104 0.7140 0.7180 0.7210 0.7240 0.7260
3.980000 0.7310 0.7340 0.7380 0.7410 0.7440
4.013104 0.7470 0.7510 0.7520 0.7540 0.7560
4.046000 0.7570 0.7610 0.7620 0.7660 0.7670
4.079104 0.7670 0.7690 0.7690 0.7690 0.7720
4.112000 0.7740 0.7740 0.7770 0.7800 0.7820
4.145104 0.7840 0.7850 0.7870 0.7900 0.7940
4.179000 0.8000 0.8000 0.7990 0.8080 0.8150
4.212104 0.8220 0.8230 0.8250 0.8270 0.8250
4.245000 0.8170 0.8130 0.8030 0.8020 0.8020
4.278104 0.8030 0.8130 0.8180 0.8220 0.8250
4.311000 0.8250 0.8270 0.8280 0.8280 0.8300
4.344104 0.8310 0.8350 0.8400 0.8430 0.8500
4.377000 0.8560 0.8590 0.8660 0.8690 0.8730
4.410104 0.8740 0.8740 0.8760 0.8760 0.8760
4.443000 0.8740 0.8730 0.8710 0.8710 0.8690
4.476104 0.8680 0.8660 0.8640 0.8660 0.8660
4.510000 0.8690 0.8730 0.8730 0.8740 0.8740
4.543104 0.8740 0.8740 0.8740 0.8730 0.8730
4.576000 0.8710 0.8690 0.8690 0.8680 0.8660
4.609104 0.8660 0.8640 0.8630 0.8630 0.8610
4.642000 0.8590 0.8590 0.8580 0.8560 0.8560
4.675104 0.8550 0.8530 0.8510 0.8500 0.8480
4.708000 0.8480 0.8460 0.8480 0.8500 0.8500
4.741104 0.8530 0.8560 0.8610 0.8640 0.8680
4.774000 0.8690 0.8690 0.8690 0.8710 0.8710
4.807104 0.8710 0.8730 0.8730 0.8740 0.8760
4.840000 0.8810 0.8840 0.8870 0.8910 0.8910
4.873104 0.8920 0.8910 0.8910 0.8910 0.8890
4.907000 0.8890 0.8890 0.8890 0.8890 0.8890
4.940104 0.8910 0.8890 0.8890 0.8910 0.8920
4.973000 0.8920 0.8920 0.8920 0.8940 0.8960
5.006104 0.8970 0.8970 0.9010 0.9010 0.9010
5.039000 0.9020 0.9020 0.9020 0.9010 0.9020
5.072104 0.9040 0.9060 0.9060 0.9060 0.9060
5.105000 0.9060 0.9060 0.9070 0.9070 0.9070
5.138104 0.9070 0.9070 0.9070 0.9070 0.9070
5.171000 0.9070 0.9070 0.9070 0.9070 0.9070
5.204104 0.9070 0.9070 0.9070 0.9070 0.9070
5.237000 0.9070 0.9110 0.9110 0.9120 0.9120
5.270104 0.9140 0.9190 0.9190 0.9140 0.9140
5.304000 0.9140 0.9150 0.9190 0.9200 0.9220
5.337104 0.9250 0.9220 0.9200 0.9190 0.9150
5.370000 0.9150 0.9190 0.9240 0.9300 0.9300
5.403104 0.9290 0.9270 0.9240 0.9220 0.9190
5.436000 0.9190 0.9140 0.9170 0.9170 0.9170
5.469104 0.9220 0.9220 0.9200 0.9150 0.9170
5.502000 0.9170 0.9240 0.9240 0.9150 0.9120
5.535104 0.9120 0.9110 0.9110 0.9110 0.9070
5.568000 0.9090 0.9090 0.9110 0.9110 0.9120
5.601104 0.9150 0.9140 0.9110 0.9090 0.9020
5.635000 0.9020 0.9020 0.9010 0.9020 0.9020
5.668104 0.9010 0.9010 0.8990 0.8990 0.8970
5.701000 0.8970 0.8960 0.8940 0.8920 0.8910
5.734104 0.8890 0.8890 0.8870 0.8870 0.8860
5.767000 0.8840 0.8790 0.8690 0.8580 0.8550
5.800104 0.8530 0.8510 0.8510 0.8500 0.8450
5.833000 0.8430 0.8380 0.8330 0.8280 0.8230
5.866104 0.8250 0.8230 0.8200 0.8150 0.8070
5.899000 0.8030 0.8000 0.8000 0.7990 0.7990
5.932104 0.7950 0.7850 0.7770 0.7670 0.7640
5.965000 0.7620 0.7620 0.7610 0.7590 0.7570
5.998104 0.7570 0.7560 0.7560 0.7560 0.7590
6.032000 0.7610 0.7640 0.7690 0.7720 0.7740
6.065104 0.7750 0.7770 0.7790 0.7850 0.7890
6.098000 0.7920 0.7940 0.7940 0.7950 0.7950
6.131104 0.7990 0.8030 0.8070 0.8030 0.8020
6.164000 0.8000 0.7990 0.7970 0.7990 0.8020
6.197104 0.8080 0.8150 0.8170 0.8180 0.8200
6.230000 0.8180 0.8150 0.8120 0.8100 0.8020
6.263104 0.8020 0.8070 0.8100 0.8100 0.8130
6.296000 0.8170 0.8170 0.8130 0.8120 0.8070
6.329104 0.8020 0.8000 0.7970 0.7950 0.7940
6.362000 0.7920 0.7920 0.7900 0.7900 0.7870
6.395104 0.7850 0.7820 0.7770 0.7710 0.7640
6.429000 0.7590 0.7510 0.7510 0.7470 0.7440
6.462104 0.7440 0.7440 0.7420 0.7440 0.7460
6.495000 0.7460 0.7460 0.7460 0.7460 0.7460
6.528104 0.7440 0.7440 0.7420 0.7390 0.7360
6.561000 0.7340 0.7310 0.7280 0.7240 0.7080
6.594104 0.7050 0.6980 0.6900 0.6750 0.6650
6.627000 0.6620 0.6550 0.6470 0.6270 0.6060
6.660104 0.6010 0.5960 0.5840 0.5460 0.5180
6.693000 0.4900 0.4540 0.4180 0.4030 0.3880
6.726104 0.3620 0.3260 0.2750 0.2370 0.1990
6.760000 0.1300 0.1030 0.0920 0.0800 0.0770
6.793104 0.0750 0.0750 0.0770 0.0790 0.0800
6.826000 0.0880 0.0920 0.0920 0.0920 0.0970
6.859104 0.0980 0.1000 0.1070 0.1080 0.1160
6.892000 0.1230 0.1250 0.1280 0.1300 0.1300
6.925104 0.1310 0.1310 0.1350 0.1400 0.1480
6.958000 0.1580 0.1840 0.2200 0.2480 0.2570
6.991104 0.2750 0.2910 0.3090 0.3270 0.3450
7.024000 0.3620 0.3720 0.3800 0.3870 0.3900
7.057104 0.3950 0.3930 0.3920 0.3900 0.3870
7.090000 0.3770 0.3690 0.3590 0.3540 0.3520
7.123104 0.3500 0.3500 0.3540 0.3550 0.3550
7.157000 0.3500 0.3270 0.3170 0.2760 0.2300
7.190104 0.2000 0.1870 0.1740 0.1580 0.1480
7.223000 0.1310 0.1260 0.1160 0.1120 0.1120
7.256104 0.1410 0.1770 0.1960 0.2140 0.2090
7.289000 0.2070 0.2040 0.2000 0.2000 0.2000
7.322104 0.1990 0.1970 0.1990 0.2150 0.2220
7.355000 0.2240 0.2270 0.2280 0.2320 0.2350
7.388104 0.2500 0.2610 0.2810 0.2960 0.3010
7.421000 0.3190 0.3260 0.3450 0.3590 0.3750
7.454104 0.3850 0.3900 0.3930 0.3970 0.3820
7.487000 0.3650 0.3520 0.3470 0.3470 0.3520
7.520104 0.3620 0.3700 0.3800 0.3950 0.3970
7.554000 0.3980 0.4100 0.4150 0.4180 0.4230
7.587104 0.4260 0.4200 0.4010 0.3900 0.3780
7.620000 0.3420 0.3420 0.3570 0.3780 0.4030
7.653104 0.4180 0.4290 0.4440 0.4480 0.4490
7.686000 0.4530 0.4540 0.4560 0.4560 0.4530
7.719104 0.4440 0.4310 0.4290 0.4290 0.4250
7.752000 0.4230 0.4200 0.4100 0.4080 0.3950
7.785104 0.3800 0.3640 0.3360 0.2990 0.2880
7.818000 0.2810 0.2780 0.2710 0.2710 0.2800
7.851104 0.2890 0.3060 0.3420 0.3640 0.3880
7.885000 0.4180 0.4360 0.4480 0.4510 0.4510
7.918104 0.4460 0.4390 0.4310 0.4210 0.4160
7.951000 0.4080 0.4030 0.3980 0.3950 0.3930
7.984104 0.3920 0.3950 0.3970 0.4130 0.4250
8.017000 0.4290 0.4430 0.4480 0.4510 0.4560
8.050104 0.4610 0.4660 0.4740 0.4840 0.4890
8.083000 0.4890 0.4840 0.4810 0.4770 0.4720
8.116104 0.4720 0.4810 0.4870 0.4950 0.5020
8.149000 0.5090 0.5120 0.5170 0.5230 0.5270
8.182104 0.5280 0.5300 0.5220 0.5180 0.5100
8.215000 0.5050 0.5000 0.4870 0.4720 0.4640
8.248104 0.4480 0.4480 0.4510 0.4610 0.4840
8.282000 0.5000 0.5040 0.5170 0.5270 0.5320
8.315104 0.5350 0.5400 0.5450 0.5480 0.5530
8.348000 0.5560 0.5580 0.5600 0.5650 0.5680
8.381104 0.5740 0.5760 0.5790 0.5810 0.5810
8.414000 0.5830 0.5810 0.5780 0.5730 0.5700
8.447104 0.5660 0.5630 0.5600 0.5550 0.5460
8.480000 0.5370 0.5250 0.5170 0.5100 0.5020
8.513104 0.4950 0.4870 0.4760 0.4690 0.4530
8.546000 0.4390 0.4230 0.4030 0.3970 0.3880
8.579104 0.3800 0.3750 0.3700 0.3520 0.3160
8.613000 0.2990 0.2710 0.2430 0.2190 0.2090
8.646104 0.1970 0.1820 0.1740 0.1660 0.1630
8.679000 0.1610 0.1610 0.1610 0.1590 0.1540
8.712104 0.1490 0.1440 0.1360 0.1300 0.1260
8.745000 0.1200 0.1150 0.1120 0.1100 0.1100
8.778104 0.1100 0.1100 0.1100 0.1100 0.1100
8.811000 0.1130 0.1160 0.1260 0.1360 0.1460
8.844104 0.1480 0.1480 0.1380 0.1350 0.1350
8.877000 0.1360 0.1380 0.1380 0.1330 0.1260
8.910104 0.1210 0.1160 0.1100 0.1020 0.1000
8.943000 0.0970 0.0970 0.0950 0.0920 0.0880
8.976104 0.0840 0.0820 0.0750 0.0740 0.0740
9.010000 0.0740 0.0740 0.0720 0.0740 0.0750
9.043104 0.0790 0.0820 0.0850 0.0870 0.0880
9.076000 0.0970 0.0980 0.1030 0.1080 0.1130
9.109104 0.1160 0.1160 0.1100 0.1020 0.0970
9.142000 0.0950 0.0820 0.0800 0.0790 0.0790
9.175104 0.0770 0.0750 0.0750 0.0740 0.0740
9.208000 0.0720 0.0700 0.0650 0.0620 0.0600
9.241104 0.0590 0.0570 0.0560 0.0520 0.0510
9.274000 0.0490 0.0490 0.0490 0.0470 0.0470
9.307104 0.0490 0.0510 0.0600 0.0720 0.0850
9.340000 0.0970 0.1030 0.1120 0.1200 0.1260
9.373104 0.1310 0.1380 0.1440 0.1480 0.1490
9.407000 0.1510 0.1530 0.1530 0.1540 0.1540
9.440104 0.1530 0.1480 0.1400 0.1310 0.1280
9.473000 0.1230 0.1100 0.1020 0.0970 0.0850
9.506104 0.0800 0.0790 0.0720 0.0650 0.0540
9.539000 0.0510 0.0470 0.0470 0.0470 0.0460
9.572104 0.0460 0.0440 0.0420 0.0420 0.0410
9.605000 0.0410 0.0410 0.0410 0.0410 0.0410
9.638104 0.0410 0.0420 0.0420 0.0420 0.0420
9.671000 0.0420 0.0420 0.0420 0.0420 0.0420
9.704104 0.0420 0.0420 0.0420 0.0420 0.0460
9.738000 0.0460 0.0490 0.0490 0.0510 0.0540
9.771104 0.0590 0.0590 0.0620 0.0620 0.0640
9.804000 0.0670 0.0690 0.0700 0.0740 0.0790
9.837104 0.0880 0.0980 0.1050 0.1150 0.1200
9.870000 0.1200 0.1200 0.1200 0.1200 0.1200
9.903104 0.1200 0.1200 0.1210 0.1230 0.1260
9.936000 0.1330 0.1360 0.1380 0.1400 0.1400
9.969104 0.1400 0.1400 0.1380 0.1380 0.1380
10.002000 0.1360 0.1260 0.1150 0.1030 0.0880
10.035104 0.0840 0.0800 0.0750 0.0750 0.0790
10.068000 0.0800 0.0850 0.0970 0.1000 0.1130
10.101104 0.1250 0.1350 0.1480 0.1630 0.1690
10.135000 0.1840 0.1970 0.2240 0.2370 0.2430
10.168104 0.2520 0.2600 0.2680 0.2760 0.2890
10.201000 0.2990 0.3090 0.3170 0.3240 0.3320
10.234104 0.3450 0.3500 0.3640 0.3690 0.3750
10.267000 0.3850 0.3950 0.3980 0.4080 0.4110
10.300104 0.4200 0.4250 0.4290 0.4360 0.4410
10.333000 0.4440 0.4480 0.4530 0.4570 0.4610
10.366104 0.4660 0.4690 0.4760 0.4820 0.4870
10.399000 0.4890 0.4920 0.4970 0.4970 0.4990
10.432104 0.5000 0.5020 0.5120 0.5170 0.5180
10.465000 0.5200 0.5200 0.5200 0.5220 0.5220
10.498104 0.5230 0.5270 0.5270 0.5280 0.5320
10.532000 0.5400 0.5450 0.5480 0.5500 0.5510
10.565104 0.5510 0.5510 0.5530 0.5550 0.5580
10.598000 0.5580 0.5600 0.5580 0.5580 0.5600
10.631104 0.5580 0.5580 0.5580 0.5580 0.5580
10.664000 0.5580 0.5600 0.5600 0.5610 0.5610
10.697104 0.5610 0.5630 0.5630 0.5610 0.5580
10.730000 0.5560 0.5530 0.5510 0.5510 0.5500
10.763104 0.5500 0.5480 0.5480 0.5450 0.5380
10.796000 0.5330 0.5270 0.5180 0.5170 0.5140
10.829104 0.5100 0.5120 0.5120 0.5120 0.5120
10.863000 0.5120 0.5120 0.5100 0.5040 0.5020
10.896104 0.4990 0.4970 0.4870 0.4810 0.4670
10.929000 0.4460 0.4260 0.4060 0.4000 0.3930
10.962104 0.3690 0.3520 0.3320 0.3080 0.2830
10.995000 0.2550 0.2370 0.2300 0.2270 0.2220
11.028104 0.2200 0.2240 0.2320 0.2520 0.2730
11.061000 0.2890 0.2980 0.3030 0.3080 0.3190
11.094104 0.3240 0.3270 0.3270 0.3290 0.3390
11.127000 0.3470 0.3600 0.3730 0.3900 0.3980
11.160104 0.4200 0.4290 0.4360 0.4390 0.4480
11.193000 0.4590 0.4660 0.4710 0.4770 0.4790
11.226104 0.4810 0.4820 0.4840 0.4890 0.4920
11.260000 0.4940 0.4950 0.4970 0.4970 0.4970
11.293104 0.4990 0.4990 0.4990 0.4990 0.4990
11.326000 0.4990 0.4970 0.4890 0.4870 0.4840
11.359104 0.4840 0.4840 0.4820 0.4820 0.4790
11.392000 0.4760 0.4720 0.4720 0.4690 0.4690
11.425104 0.4660 0.4620 0.4590 0.4560 0.4530
11.458000 0.4510 0.4510 0.4510 0.4490 0.4480
11.491104 0.4440 0.4440 0.4390 0.4390 0.4390
11.524000 0.4390 0.4380 0.4390 0.4390 0.4390
11.557104 0.4390 0.4380 0.4380 0.4380 0.4360
11.590000 0.4360 0.4360 0.4360 0.4360 0.4340
11.623104 0.4310 0.4290 0.4280 0.4250 0.4210
11.657000 0.4210 0.4200 0.4180 0.4160 0.4100
11.690104 0.4030 0.4000 0.4000 0.3980 0.3970
11.723000 0.3930 0.3780 0.3670 0.3550 0.3500
11.756104 0.3420 0.3390 0.3340 0.3270 0.3240
11.789000 0.3210 0.3220 0.3370 0.3440 0.3490
11.822104 0.3540 0.3700 0.3800 0.3970 0.4160
11.855000 0.4230 0.4360 0.4490 0.4540 0.4620
11.888104 0.4670 0.4710 0.4790 0.4820 0.4890
11.921000 0.4950 0.4970 0.4990 0.5000 0.5000
11.954104 0.5070 0.5100 0.5140 0.5170 0.5200
11.988000 0.5230 0.5270 0.5280 0.5300 0.5300
12.021104 0.5320 0.5330 0.5380 0.5420 0.5480
12.054000 0.5480 0.5500 0.5510 0.5530 0.5550
12.087104 0.5550 0.5530 0.5500 0.5480 0.5500
12.120000 0.5510 0.5550 0.5580 0.5610 0.5610
12.153104 0.5630 0.5630 0.5630 0.5630 0.5630
12.186000 0.5630 0.5630 0.5630 0.5630 0.5610
12.219104 0.5610 0.5600 0.5580 0.5560 0.5560
12.252000 0.5550 0.5550 0.5530 0.5530 0.5530
12.285104 0.5530 0.5530 0.5530 0.5530 0.5530
12.318000 0.5510 0.5510 0.5500 0.5500 0.5460
12.351104 0.5460 0.5450 0.5430 0.5420 0.5420
12.385000 0.5380 0.5370 0.5330 0.5330 0.5320
12.418104 0.5320 0.5300 0.5280 0.5270 0.5250
12.451000 0.5200 0.5180 0.5170 0.5150 0.5140
12.484104 0.5100 0.5090 0.5040 0.4990 0.4990
12.517000 0.4970 0.4950 0.4940 0.4940 0.4890
12.550104 0.4840 0.4820 0.4810 0.4770 0.4770
12.583000 0.4740 0.4690 0.4670 0.4590 0.4530
12.616104 0.4460 0.4410 0.4380 0.4360 0.4330
12.649000 0.4290 0.4250 0.4200 0.4150 0.4030
12.682104 0.4000 0.3980 0.3970 0.3930 0.3830
12.715000 0.3730 0.3670 0.3590 0.3540 0.3520
12.748104 0.3470 0.3360 0.3310 0.3290 0.3240
12.782000 0.3190 0.3140 0.3040 0.3030 0.2980
12.815104 0.2960 0.2940 0.2930 0.2940 0.2960
12.848000 0.2990 0.3030 0.3090 0.3110 0.3140
12.881104 0.3170 0.3220 0.3260 0.3290 0.3310
12.914000 0.3340 0.3370 0.3450 0.3470 0.3490
12.947104 0.3500 0.3520 0.3520 0.3520 0.3540
12.980000 0.3540 0.3570 0.3570 0.3590 0.3590
13.013104 0.3590 0.3600 0.3590 0.3590 0.3570
13.046000 0.3570 0.3550 0.3540 0.3520 0.3500
13.079104 0.3490 0.3490 0.3490 0.3490 0.3470
13.113000 0.3470 0.3470 0.3470 0.3470 0.3470
13.146104 0.3470 0.3470 0.3450 0.3470 0.3470
13.179000 0.3450 0.3450 0.3440 0.3440 0.3440
13.212104 0.3440 0.3440 0.3440 0.3440 0.3440
13.245000 0.3420 0.3410 0.3390 0.3370 0.3370
13.278104 0.3370 0.3370 0.3370 0.3360 0.3360
13.311000 0.3360 0.3360 0.3360 0.3360 0.3360
13.344104 0.3370 0.3370 0.3370 0.3370 0.3370
13.377000 0.3390 0.3390 0.3410 0.3410 0.3410
13.410104 0.3410 0.3410 0.3410 0.3410 0.3390
13.443000 0.3370 0.3360 0.3340 0.3340 0.3340
13.476104 0.3340 0.3340 0.3340 0.3340 0.3340
13.510000 0.3340 0.3340 0.3340 0.3340 0.3360
13.543104 0.3340 0.3340 0.3340 0.3340 0.3320
13.576000 0.3320 0.3320 0.3310 0.3310 0.3290
13.609104 0.3270 0.3270 0.3290 0.3290 0.3290
13.642000 0.3270 0.3270 0.3270 0.3260 0.3240
13.675104 0.3240 0.3240 0.3240 0.3240 0.3240
13.708000 0.3240 0.3240 0.3240 0.3290 0.3290
13.741104 0.3220 0.3220 0.3210 0.3210 0.3190
13.774000 0.3190 0.3190 0.3190 0.3190 0.3210
13.807104 0.3210 0.3190 0.3160 0.3140 0.3130
13.840000 0.3130 0.3130 0.3090 0.3090 0.3090
13.873104 0.3080 0.3080 0.3080 0.3080 0.3090
13.907000 0.3090 0.3090 0.3090 0.3110 0.3110
13.940104 0.3110 0.3130 0.3130 0.3140 0.3140
13.973000 0.3140 0.3160 0.3170 0.3190 0.3260
14.006104 0.3310 0.3360 0.3390 0.3410 0.3420
14.039000 0.3440 0.3450 0.3490 0.3500 0.3520
14.072104 0.3550 0.3550 0.3570 0.3570 0.3570
14.105000 0.3570 0.3570 0.3570 0.3570 0.3570
14.138104 0.3570 0.3570 0.3570 0.3550 0.3550
14.171000 0.3550 0.3550 0.3550 0.3550 0.3550
14.204104 0.3550 0.3550 0.3550 0.3550 0.3540
14.238000 0.3540 0.3540 0.3520 0.3500 0.3490
14.271104 0.3470 0.3450 0.3440 0.3440 0.3440
14.304000 0.3440 0.3420 0.3440 0.3440 0.3440
14.337104 0.3420 0.3420 0.3410 0.3390 0.3390
14.370000 0.3410 0.3410 0.3410 0.3390 0.3390
14.403104 0.3390 0.3370 0.3370 0.3360 0.3360
14.436000 0.3340 0.3340 0.3320 0.3340 0.3340
14.469104 0.3360 0.3340 0.3340 0.3320 0.3310
14.502000 0.3270 0.3270 0.3290 0.3310 0.3310
14.535104 0.3310 0.3310 0.3320 0.3310 0.3310
14.568000 0.3290 0.3270 0.3260 0.3260 0.3240
14.601104 0.3220 0.3220 0.3220 0.3220 0.3220
14.635000 0.3220 0.3220 0.3220 0.3220 0.3220
14.668104 0.3220 0.3210 0.3220 0.3220 0.3240
14.701000 0.3260 0.3260 0.3270 0.3310 0.3310
14.734104 0.3270 0.3260 0.3240 0.3240 0.3240
14.767000 0.3240 0.3260 0.3270 0.3290 0.3290
14.800104 0.3290 0.3310 0.3310 0.3320 0.3340
14.833000 0.3360 0.3360 0.3390 0.3390 0.3410
14.866104 0.3410 0.3410 0.3410 0.3420 0.3440
14.899000 0.3440 0.3450 0.3420 0.3420 0.3390
14.932104 0.3370 0.3390 0.3420 0.3470 0.3500
14.965000 0.3540 0.3550 0.3570 0.3570 0.3590
14.998104 0.3590 0.3620 0.3640 0.3650 0.3670
15.032000 0.3670 0.3690 0.3690 0.3700 0.3700
15.065104 0.3690 0.3650 0.3620 0.3620 0.3570
15.098000 0.3550 0.3520 0.3500 0.3500 0.3500
15.131104 0.3500 0.3500 0.3500 0.3500 0.3520
15.164000 0.3540 0.3540 0.3590 0.3620 0.3650
15.197104 0.3690 0.3720 0.3730 0.3750 0.3730
15.230000 0.3750 0.3770 0.3780 0.3820 0.3880
15.263104 0.3930 0.3970 0.3980 0.4000 0.4000
15.296000 0.4000 0.4000 0.4010 0.4010 0.4030
15.329104 0.4050 0.4100 0.4150 0.4160 0.4160
15.363000 0.4160 0.4180 0.4200 0.4200 0.4200
15.396104 0.4210 0.4230 0.4230 0.4250 0.4250
15.429000 0.4260 0.4280 0.4290 0.4310 0.4310
15.462104 0.4330 0.4330 0.4360 0.4380 0.4380
15.495000 0.4390 0.4390 0.4410 0.4410 0.4410
15.528104 0.4410 0.4410 0.4390 0.4380 0.4380
15.561000 0.4360 0.4360 0.4340 0.4340 0.4340
15.594104 0.4360 0.4360 0.4390 0.4410 0.4410
15.627000 0.4430 0.4460 0.4480 0.4490 0.4510
15.660104 0.4510 0.4530 0.4540 0.4560 0.4560
15.693000 0.4570 0.4620 0.4640 0.4670 0.4690
15.726104 0.4710 0.4720 0.4720 0.4740 0.4770
15.760000 0.4810 0.4840 0.4850 0.4900 0.4940
15.793104 0.4950 0.4950 0.4970 0.4990 0.4990
15.826000 0.5000 0.5000 0.5000 0.5020 0.5020
15.859104 0.5040 0.5040 0.5040 0.5040 0.5070
15.892000 0.5070 0.5090 0.5090 0.5100 0.5100
15.925104 0.5120 0.5140 0.5150 0.5170 0.5170
15.958000 0.5180 0.5200 0.5220 0.5230 0.5200
15.991104 0.5220
##END=
