##TITLE=LEAD PHOSPHATE, TRIBASIC
$$ C.P.
##JCAMP-DX=4.24
##DATA TYPE=INFRARED SPECTRUM
##CLASS=COBLENTZ
##ORIGIN=MELLON INSTITUTE
##OWNER=COBLENTZ SOCIETY
Collection (C) 2018 copyright by the U.S. Secretary of Commerce
on behalf of the United States of America. All rights reserved.
##DATE=Not specified, most likely prior to 1970
##MOLFORM=Pb3 ( P O4)2
##SOURCE REFERENCE=COBLENTZ NO. 572
##$NIST ID=B6000572
##$NIST SOURCE=COBLENTZ
##$NIST IMAGE=cob572
##SPECTROMETER/DATA SYSTEM=Not specified, most likely a prism, grating, or hybrid spectrometer.
##STATE=SOLID (NUJOL MULL)
##PATH LENGTH=
$$SPECTRAL CONTAMINATION DUE TO OIL AROUND 2900, 1450, 1380 CM^-^1
##SAMPLING PROCEDURE=TRANSMISSION
##RESOLUTION=4
##DATA PROCESSING=DIGITIZED BY NIST FROM HARD COPY
##XUNITS=MICROMETERS
##YUNITS=TRANSMITTANCE
##XFACTOR=1.000000
##YFACTOR=1
##DELTAX=000.006651
##FIRSTX=2.042
##LASTX=16.0147
##FIRSTY=0.855
##MAXX=16.0147
##MINX=2.042
##MAXY=0.951
##MINY=0.162
##NPOINTS=2102
##XYDATA=(X++(Y..Y))
2.042000 0.8550 0.8550 0.8590 0.8590 0.8600
2.075269 0.8620 0.8640 0.8640 0.8640 0.8640
2.109000 0.8640 0.8650 0.8650 0.8670 0.8670
2.142269 0.8670 0.8690 0.8690 0.8700 0.8720
2.175000 0.8720 0.8740 0.8740 0.8740 0.8750
2.208269 0.8770 0.8790 0.8790 0.8790 0.8800
2.242000 0.8800 0.8800 0.8800 0.8820 0.8820
2.275269 0.8790 0.8790 0.8770 0.8750 0.8750
2.308000 0.8750 0.8750 0.8750 0.8750 0.8750
2.341269 0.8770 0.8770 0.8770 0.8790 0.8790
2.375000 0.8790 0.8800 0.8820 0.8820 0.8820
2.408269 0.8820 0.8840 0.8840 0.8840 0.8850
2.441000 0.8870 0.8870 0.8870 0.8870 0.8870
2.474269 0.8890 0.8900 0.8920 0.8920 0.8940
2.508000 0.8940 0.8950 0.8990 0.8990 0.8990
2.541269 0.8990 0.8990 0.8990 0.8990 0.8990
2.574000 0.8990 0.9010 0.9010 0.9010 0.9010
2.607269 0.9010 0.9010 0.9020 0.9040 0.9090
2.641000 0.9110 0.9120 0.9120 0.9110 0.9040
2.674269 0.9040 0.9010 0.9010 0.9020 0.9040
2.707000 0.9040 0.9040 0.9040 0.9040 0.9020
2.740269 0.9010 0.8990 0.8990 0.8990 0.8970
2.774000 0.8920 0.8900 0.8870 0.8850 0.8820
2.807269 0.8800 0.8770 0.8720 0.8670 0.8650
2.840000 0.8620 0.8600 0.8590 0.8550 0.8520
2.873269 0.8500 0.8500 0.8480 0.8470 0.8450
2.907000 0.8400 0.8380 0.8380 0.8380 0.8380
2.940269 0.8370 0.8370 0.8370 0.8350 0.8350
2.973000 0.8350 0.8370 0.8380 0.8380 0.8380
3.006269 0.8420 0.8420 0.8420 0.8430 0.8430
3.040000 0.8430 0.8430 0.8450 0.8450 0.8450
3.073269 0.8450 0.8470 0.8470 0.8470 0.8470
3.106000 0.8480 0.8500 0.8500 0.8500 0.8540
3.139269 0.8550 0.8550 0.8570 0.8570 0.8570
3.173000 0.8570 0.8570 0.8590 0.8590 0.8600
3.206269 0.8600 0.8620 0.8620 0.8620 0.8640
3.239000 0.8640 0.8650 0.8650 0.8640 0.8640
3.272269 0.8640 0.8590 0.8540 0.8470 0.8370
3.306000 0.8270 0.8020 0.7750 0.7330 0.6910
3.339269 0.5620 0.4760 0.3900 0.3270 0.2710
3.372000 0.2530 0.2340 0.1870 0.1840 0.1870
3.405269 0.2110 0.2330 0.3030 0.3590 0.3850
3.439000 0.4160 0.4190 0.4090 0.3990 0.3800
3.472269 0.3790 0.3790 0.3940 0.4410 0.4940
3.505000 0.6220 0.6890 0.7910 0.8230 0.8330
3.538269 0.8450 0.8600 0.8750 0.8900 0.8940
3.572000 0.8990 0.9010 0.9040 0.9060 0.9090
3.605269 0.9120 0.9120 0.9120 0.9120 0.9140
3.638000 0.9140 0.9120 0.9120 0.9120 0.9120
3.671269 0.9140 0.9140 0.9140 0.9160 0.9160
3.705000 0.9160 0.9160 0.9160 0.9160 0.9160
3.738269 0.9170 0.9170 0.9170 0.9170 0.9190
3.771000 0.9190 0.9210 0.9220 0.9220 0.9240
3.804269 0.9240 0.9240 0.9240 0.9240 0.9240
3.838000 0.9240 0.9240 0.9240 0.9240 0.9240
3.871269 0.9240 0.9240 0.9260 0.9270 0.9270
3.904000 0.9270 0.9270 0.9290 0.9290 0.9290
3.937269 0.9310 0.9310 0.9310 0.9310 0.9310
3.971000 0.9320 0.9320 0.9320 0.9340 0.9340
4.004269 0.9340 0.9340 0.9340 0.9320 0.9320
4.037000 0.9340 0.9340 0.9340 0.9340 0.9360
4.070269 0.9360 0.9360 0.9360 0.9360 0.9360
4.104000 0.9370 0.9360 0.9360 0.9360 0.9360
4.137269 0.9360 0.9340 0.9340 0.9340 0.9340
4.170000 0.9340 0.9340 0.9340 0.9340 0.9320
4.203269 0.9310 0.9270 0.9240 0.9190 0.9160
4.237000 0.9140 0.9120 0.9110 0.9110 0.9090
4.270269 0.9090 0.9060 0.9040 0.9020 0.9020
4.304000 0.9020 0.9010 0.9010 0.9010 0.9010
4.337269 0.9010 0.9010 0.9010 0.9020 0.9020
4.370000 0.9040 0.9040 0.9120 0.9120 0.9120
4.403269 0.9140 0.9160 0.9170 0.9170 0.9170
4.437000 0.9170 0.9160 0.9160 0.9170 0.9170
4.470269 0.9170 0.9170 0.9170 0.9170 0.9160
4.503000 0.9160 0.9140 0.9140 0.9140 0.9160
4.536269 0.9160 0.9140 0.9140 0.9140 0.9120
4.570000 0.9120 0.9120 0.9120 0.9120 0.9140
4.603269 0.9120 0.9120 0.9120 0.9120 0.9120
4.636000 0.9120 0.9120 0.9120 0.9120 0.9120
4.669269 0.9120 0.9120 0.9120 0.9140 0.9140
4.703000 0.9120 0.9120 0.9120 0.9110 0.9110
4.736269 0.9110 0.9120 0.9120 0.9140 0.9140
4.769000 0.9140 0.9140 0.9140 0.9140 0.9140
4.802269 0.9140 0.9140 0.9140 0.9120 0.9120
4.836000 0.9120 0.9120 0.9120 0.9120 0.9120
4.869269 0.9120 0.9120 0.9120 0.9110 0.9110
4.902000 0.9110 0.9110 0.9110 0.9110 0.9110
4.935269 0.9120 0.9120 0.9120 0.9120 0.9140
4.969000 0.9140 0.9140 0.9140 0.9140 0.9140
5.002269 0.9140 0.9120 0.9120 0.9120 0.9120
5.035000 0.9120 0.9120 0.9120 0.9120 0.9110
5.068269 0.9110 0.9120 0.9110 0.9110 0.9120
5.102000 0.9120 0.9120 0.9120 0.9120 0.9120
5.135269 0.9110 0.9110 0.9110 0.9110 0.9110
5.168000 0.9110 0.9120 0.9120 0.9120 0.9120
5.201269 0.9140 0.9140 0.9160 0.9160 0.9160
5.235000 0.9160 0.9140 0.9140 0.9140 0.9110
5.268269 0.9110 0.9110 0.9120 0.9120 0.9110
5.301000 0.9110 0.9110 0.9110 0.9110 0.9120
5.334269 0.9120 0.9120 0.9120 0.9110 0.9110
5.368000 0.9120 0.9120 0.9120 0.9120 0.9140
5.401269 0.9140 0.9120 0.9120 0.9120 0.9120
5.434000 0.9120 0.9160 0.9160 0.9160 0.9140
5.467269 0.9120 0.9110 0.9110 0.9120 0.9140
5.501000 0.9140 0.9140 0.9140 0.9140 0.9140
5.534269 0.9160 0.9170 0.9170 0.9190 0.9210
5.567000 0.9220 0.9240 0.9240 0.9240 0.9240
5.600269 0.9260 0.9270 0.9270 0.9260 0.9270
5.634000 0.9270 0.9270 0.9270 0.9270 0.9270
5.667269 0.9270 0.9270 0.9270 0.9270 0.9260
5.700000 0.9270 0.9270 0.9270 0.9290 0.9290
5.733269 0.9290 0.9290 0.9290 0.9310 0.9290
5.767000 0.9310 0.9310 0.9320 0.9320 0.9320
5.800269 0.9320 0.9320 0.9360 0.9410 0.9440
5.833000 0.9440 0.9420 0.9420 0.9410 0.9410
5.866269 0.9410 0.9420 0.9440 0.9440 0.9440
5.900000 0.9440 0.9410 0.9390 0.9370 0.9370
5.933269 0.9370 0.9390 0.9390 0.9390 0.9370
5.966000 0.9360 0.9370 0.9370 0.9370 0.9370
5.999269 0.9390 0.9390 0.9370 0.9370 0.9370
6.033000 0.9370 0.9370 0.9370 0.9340 0.9320
6.066269 0.9310 0.9310 0.9310 0.9320 0.9320
6.099000 0.9320 0.9320 0.9310 0.9310 0.9320
6.132269 0.9320 0.9320 0.9320 0.9320 0.9310
6.166000 0.9310 0.9370 0.9390 0.9390 0.9390
6.199269 0.9410 0.9420 0.9420 0.9440 0.9440
6.232000 0.9440 0.9470 0.9490 0.9510 0.9510
6.265269 0.9510 0.9510 0.9490 0.9490 0.9490
6.299000 0.9490 0.9490 0.9470 0.9470 0.9470
6.332269 0.9440 0.9410 0.9360 0.9310 0.9310
6.365000 0.9360 0.9370 0.9390 0.9390 0.9370
6.398269 0.9340 0.9320 0.9320 0.9320 0.9310
6.432000 0.9320 0.9320 0.9340 0.9340 0.9360
6.465269 0.9370 0.9370 0.9370 0.9390 0.9390
6.498000 0.9390 0.9370 0.9340 0.9320 0.9310
6.531269 0.9310 0.9290 0.9290 0.9270 0.9270
6.565000 0.9270 0.9270 0.9290 0.9290 0.9310
6.598269 0.9310 0.9310 0.9270 0.9270 0.9270
6.631000 0.9270 0.9290 0.9290 0.9290 0.9290
6.664269 0.9290 0.9260 0.9260 0.9240 0.9240
6.698000 0.9190 0.9160 0.9140 0.9120 0.9120
6.731269 0.9110 0.9060 0.9010 0.8950 0.8840
6.764000 0.8740 0.8600 0.8430 0.8350 0.8020
6.797269 0.7730 0.7580 0.7410 0.7190 0.7030
6.831000 0.6970 0.6890 0.6860 0.6820 0.6770
6.864269 0.6770 0.6770 0.6770 0.6770 0.6790
6.897000 0.6820 0.6890 0.6960 0.7030 0.7180
6.930269 0.7280 0.7390 0.7430 0.7530 0.7550
6.964000 0.7700 0.7830 0.7930 0.8020 0.8100
6.997269 0.8180 0.8250 0.8300 0.8330 0.8330
7.030000 0.8330 0.8330 0.8330 0.8350 0.8350
7.063269 0.8370 0.8370 0.8380 0.8420 0.8420
7.097000 0.8430 0.8430 0.8450 0.8450 0.8450
7.130269 0.8450 0.8450 0.8430 0.8420 0.8400
7.163000 0.8380 0.8370 0.8330 0.8270 0.8200
7.196269 0.8020 0.7910 0.7810 0.7710 0.7610
7.230000 0.7510 0.7500 0.7460 0.7360 0.7330
7.263269 0.7310 0.7330 0.7360 0.7390 0.7430
7.296000 0.7460 0.7480 0.7510 0.7560 0.7630
7.329269 0.7710 0.7750 0.7780 0.7850 0.7880
7.363000 0.7900 0.7910 0.7950 0.7960 0.8020
7.396269 0.8030 0.8050 0.8050 0.8050 0.8070
7.429000 0.8070 0.8100 0.8120 0.8150 0.8180
7.462269 0.8220 0.8250 0.8280 0.8320 0.8350
7.496000 0.8380 0.8400 0.8420 0.8450 0.8470
7.529269 0.8520 0.8520 0.8540 0.8540 0.8550
7.562000 0.8570 0.8570 0.8590 0.8590 0.8600
7.595269 0.8620 0.8640 0.8650 0.8650 0.8690
7.629000 0.8700 0.8700 0.8720 0.8740 0.8750
7.662269 0.8770 0.8790 0.8820 0.8840 0.8840
7.695000 0.8870 0.8900 0.8920 0.8950 0.8970
7.728269 0.9010 0.9010 0.9010 0.9040 0.9040
7.762000 0.9060 0.9090 0.9110 0.9110 0.9120
7.795269 0.9120 0.9140 0.9160 0.9170 0.9170
7.828000 0.9190 0.9210 0.9220 0.9220 0.9220
7.861269 0.9220 0.9240 0.9240 0.9240 0.9260
7.895000 0.9260 0.9260 0.9270 0.9270 0.9290
7.928269 0.9290 0.9310 0.9310 0.9310 0.9320
7.961000 0.9340 0.9340 0.9360 0.9360 0.9360
7.994269 0.9370 0.9370 0.9370 0.9370 0.9370
8.028000 0.9370 0.9370 0.9370 0.9390 0.9390
8.061269 0.9410 0.9410 0.9410 0.9410 0.9420
8.094000 0.9420 0.9420 0.9420 0.9420 0.9420
8.127269 0.9420 0.9420 0.9420 0.9440 0.9440
8.161000 0.9420 0.9420 0.9440 0.9440 0.9440
8.194269 0.9440 0.9440 0.9440 0.9440 0.9440
8.227000 0.9440 0.9440 0.9440 0.9460 0.9460
8.260269 0.9470 0.9470 0.9470 0.9470 0.9470
8.294000 0.9490 0.9490 0.9490 0.9490 0.9490
8.327269 0.9490 0.9470 0.9470 0.9470 0.9470
8.360000 0.9470 0.9460 0.9460 0.9470 0.9470
8.393269 0.9470 0.9470 0.9470 0.9470 0.9470
8.427000 0.9470 0.9470 0.9470 0.9470 0.9470
8.460269 0.9470 0.9470 0.9470 0.9440 0.9440
8.493000 0.9420 0.9420 0.9420 0.9410 0.9410
8.526269 0.9410 0.9410 0.9390 0.9390 0.9390
8.560000 0.9370 0.9370 0.9360 0.9340 0.9320
8.593269 0.9320 0.9270 0.9260 0.9260 0.9260
8.626000 0.9240 0.9240 0.9240 0.9240 0.9240
8.659269 0.9240 0.9240 0.9210 0.9210 0.9210
8.693000 0.9210 0.9170 0.9170 0.9160 0.9160
8.726269 0.9160 0.9140 0.9140 0.9120 0.9120
8.759000 0.9120 0.9110 0.9110 0.9090 0.9060
8.792269 0.9060 0.9040 0.9020 0.9010 0.9010
8.826000 0.8990 0.8950 0.8950 0.8940 0.8920
8.859269 0.8920 0.8900 0.8890 0.8870 0.8850
8.892000 0.8840 0.8820 0.8800 0.8790 0.8770
8.925269 0.8740 0.8720 0.8700 0.8670 0.8640
8.959000 0.8620 0.8550 0.8520 0.8500 0.8450
8.992269 0.8420 0.8320 0.8270 0.8200 0.8170
9.025000 0.8130 0.8100 0.8030 0.8020 0.7950
9.058269 0.7900 0.7810 0.7700 0.7550 0.7510
9.092000 0.7460 0.7410 0.7310 0.7280 0.7190
9.125269 0.7080 0.7030 0.6940 0.6820 0.6740
9.158000 0.6610 0.6510 0.6370 0.6270 0.6200
9.191269 0.6140 0.6000 0.5830 0.5670 0.5650
9.225000 0.5550 0.5430 0.5330 0.5210 0.5110
9.258269 0.5030 0.5010 0.4980 0.4860 0.4780
9.291000 0.4680 0.4580 0.4510 0.4440 0.4320
9.324269 0.4210 0.4110 0.4020 0.3990 0.3840
9.358000 0.3750 0.3690 0.3600 0.3520 0.3470
9.391269 0.3380 0.3320 0.3230 0.3150 0.3120
9.424000 0.3030 0.3000 0.2960 0.2910 0.2850
9.457269 0.2780 0.2710 0.2700 0.2680 0.2650
9.491000 0.2600 0.2560 0.2510 0.2500 0.2500
9.524269 0.2480 0.2440 0.2430 0.2390 0.2380
9.557000 0.2360 0.2340 0.2310 0.2290 0.2290
9.590269 0.2280 0.2290 0.2280 0.2280 0.2260
9.624000 0.2260 0.2240 0.2240 0.2230 0.2230
9.657269 0.2210 0.2190 0.2190 0.2180 0.2180
9.690000 0.2180 0.2160 0.2160 0.2160 0.2140
9.723269 0.2130 0.2130 0.2110 0.2090 0.2090
9.757000 0.2090 0.2080 0.2060 0.2060 0.2040
9.790269 0.2040 0.2030 0.2030 0.2010 0.2010
9.823000 0.1990 0.1990 0.1970 0.1970 0.1960
9.856269 0.1960 0.1940 0.1940 0.1920 0.1920
9.890000 0.1910 0.1910 0.1890 0.1890 0.1870
9.923269 0.1860 0.1840 0.1820 0.1820 0.1820
9.956000 0.1810 0.1810 0.1810 0.1790 0.1790
9.989269 0.1790 0.1770 0.1770 0.1770 0.1760
10.023000 0.1760 0.1760 0.1740 0.1740 0.1740
10.056269 0.1740 0.1720 0.1720 0.1720 0.1710
10.089000 0.1710 0.1690 0.1690 0.1690 0.1690
10.122269 0.1670 0.1670 0.1660 0.1660 0.1660
10.156000 0.1660 0.1660 0.1640 0.1640 0.1640
10.189269 0.1640 0.1640 0.1640 0.1640 0.1640
10.222000 0.1620 0.1620 0.1620 0.1620 0.1620
10.255269 0.1620 0.1620 0.1620 0.1620 0.1620
10.289000 0.1620 0.1620 0.1620 0.1620 0.1620
10.322269 0.1620 0.1620 0.1620 0.1620 0.1620
10.356000 0.1620 0.1640 0.1640 0.1660 0.1660
10.389269 0.1670 0.1670 0.1670 0.1690 0.1720
10.422000 0.1740 0.1740 0.1770 0.1790 0.1820
10.455269 0.1860 0.1910 0.1990 0.1990 0.2030
10.489000 0.2090 0.2110 0.2140 0.2190 0.2240
10.522269 0.2330 0.2360 0.2410 0.2480 0.2610
10.555000 0.2650 0.2700 0.2750 0.2830 0.2850
10.588269 0.2910 0.2980 0.3030 0.3150 0.3220
10.622000 0.3250 0.3320 0.3380 0.3500 0.3550
10.655269 0.3640 0.3700 0.3750 0.3820 0.3900
10.688000 0.3950 0.3990 0.4020 0.4110 0.4170
10.721269 0.4210 0.4260 0.4320 0.4360 0.4390
10.755000 0.4420 0.4470 0.4510 0.4540 0.4590
10.788269 0.4630 0.4680 0.4690 0.4760 0.4810
10.821000 0.4840 0.4890 0.4960 0.5050 0.5150
10.854269 0.5230 0.5260 0.5400 0.5450 0.5480
10.888000 0.5520 0.5600 0.5680 0.5780 0.5830
10.921269 0.5900 0.5930 0.6000 0.6020 0.6140
10.954000 0.6190 0.6270 0.6320 0.6420 0.6440
10.987269 0.6520 0.6570 0.6620 0.6670 0.6720
11.021000 0.6760 0.6790 0.6840 0.6870 0.6910
11.054269 0.6940 0.6990 0.7010 0.7040 0.7110
11.087000 0.7130 0.7180 0.7190 0.7240 0.7310
11.120269 0.7330 0.7340 0.7360 0.7360 0.7390
11.154000 0.7430 0.7460 0.7510 0.7530 0.7530
11.187269 0.7550 0.7550 0.7580 0.7600 0.7610
11.220000 0.7630 0.7660 0.7700 0.7710 0.7730
11.253269 0.7730 0.7750 0.7760 0.7800 0.7810
11.287000 0.7810 0.7850 0.7860 0.7880 0.7880
11.320269 0.7900 0.7910 0.7950 0.7960 0.8000
11.353000 0.8000 0.8020 0.8030 0.8030 0.8050
11.386269 0.8050 0.8080 0.8100 0.8100 0.8100
11.420000 0.8120 0.8150 0.8170 0.8200 0.8200
11.453269 0.8200 0.8200 0.8220 0.8220 0.8230
11.486000 0.8230 0.8230 0.8250 0.8250 0.8250
11.519269 0.8250 0.8270 0.8270 0.8280 0.8300
11.553000 0.8300 0.8300 0.8300 0.8320 0.8320
11.586269 0.8320 0.8330 0.8330 0.8320 0.8320
11.619000 0.8320 0.8330 0.8330 0.8330 0.8350
11.652269 0.8350 0.8350 0.8370 0.8370 0.8380
11.686000 0.8400 0.8400 0.8400 0.8400 0.8420
11.719269 0.8420 0.8430 0.8430 0.8450 0.8450
11.752000 0.8470 0.8470 0.8480 0.8500 0.8520
11.785269 0.8520 0.8520 0.8540 0.8550 0.8550
11.819000 0.8550 0.8550 0.8570 0.8570 0.8590
11.852269 0.8600 0.8620 0.8620 0.8640 0.8650
11.885000 0.8650 0.8650 0.8650 0.8670 0.8690
11.918269 0.8690 0.8720 0.8720 0.8740 0.8740
11.952000 0.8740 0.8740 0.8750 0.8770 0.8770
11.985269 0.8790 0.8790 0.8800 0.8820 0.8820
12.018000 0.8840 0.8840 0.8840 0.8850 0.8850
12.051269 0.8850 0.8870 0.8870 0.8870 0.8890
12.085000 0.8890 0.8890 0.8890 0.8890 0.8890
12.118269 0.8890 0.8900 0.8920 0.8920 0.8920
12.151000 0.8920 0.8920 0.8940 0.8950 0.8950
12.184269 0.8950 0.8970 0.8990 0.8990 0.8990
12.218000 0.8990 0.9010 0.9010 0.9020 0.9020
12.251269 0.9020 0.9020 0.9020 0.9020 0.9020
12.284000 0.9040 0.9040 0.9020 0.9020 0.9040
12.317269 0.9040 0.9040 0.9040 0.9040 0.9060
12.351000 0.9060 0.9070 0.9090 0.9110 0.9110
12.384269 0.9090 0.9090 0.9090 0.9110 0.9090
12.417000 0.9090 0.9090 0.9110 0.9110 0.9110
12.450269 0.9110 0.9110 0.9110 0.9110 0.9110
12.484000 0.9110 0.9110 0.9110 0.9120 0.9120
12.517269 0.9120 0.9120 0.9140 0.9140 0.9140
12.550000 0.9140 0.9140 0.9140 0.9140 0.9140
12.583269 0.9140 0.9160 0.9160 0.9160 0.9160
12.617000 0.9170 0.9170 0.9170 0.9170 0.9170
12.650269 0.9170 0.9170 0.9170 0.9170 0.9170
12.683000 0.9170 0.9170 0.9170 0.9190 0.9190
12.716269 0.9210 0.9210 0.9190 0.9190 0.9190
12.750000 0.9190 0.9190 0.9210 0.9210 0.9210
12.783269 0.9210 0.9220 0.9220 0.9220 0.9210
12.816000 0.9210 0.9210 0.9220 0.9220 0.9220
12.849269 0.9220 0.9220 0.9240 0.9240 0.9240
12.883000 0.9240 0.9240 0.9240 0.9240 0.9240
12.916269 0.9220 0.9210 0.9210 0.9210 0.9210
12.949000 0.9220 0.9220 0.9210 0.9220 0.9210
12.982269 0.9210 0.9210 0.9220 0.9220 0.9220
13.016000 0.9210 0.9210 0.9190 0.9190 0.9170
13.049269 0.9170 0.9170 0.9190 0.9170 0.9170
13.082000 0.9170 0.9170 0.9170 0.9170 0.9170
13.115269 0.9170 0.9170 0.9190 0.9190 0.9210
13.149000 0.9210 0.9210 0.9210 0.9210 0.9210
13.182269 0.9210 0.9210 0.9220 0.9220 0.9220
13.215000 0.9210 0.9220 0.9220 0.9220 0.9220
13.248269 0.9220 0.9220 0.9220 0.9220 0.9220
13.282000 0.9220 0.9220 0.9220 0.9220 0.9220
13.315269 0.9220 0.9220 0.9220 0.9220 0.9220
13.348000 0.9220 0.9220 0.9220 0.9210 0.9210
13.381269 0.9210 0.9210 0.9190 0.9210 0.9210
13.415000 0.9210 0.9210 0.9210 0.9210 0.9210
13.448269 0.9210 0.9210 0.9210 0.9190 0.9190
13.481000 0.9190 0.9190 0.9190 0.9190 0.9170
13.514269 0.9160 0.9160 0.9160 0.9140 0.9120
13.548000 0.9120 0.9120 0.9120 0.9120 0.9120
13.581269 0.9120 0.9110 0.9110 0.9110 0.9090
13.614000 0.9090 0.9090 0.9090 0.9090 0.9090
13.647269 0.9090 0.9090 0.9090 0.9070 0.9070
13.681000 0.9060 0.9040 0.9060 0.9040 0.9040
13.714269 0.9020 0.9020 0.9020 0.9020 0.9020
13.747000 0.9010 0.9010 0.9010 0.9010 0.9010
13.780269 0.9010 0.9010 0.8990 0.8990 0.8990
13.814000 0.9010 0.8990 0.8990 0.8970 0.8950
13.847269 0.8950 0.8970 0.8970 0.8950 0.8950
13.880000 0.8950 0.8940 0.8920 0.8920 0.8920
13.913269 0.8920 0.8920 0.8900 0.8890 0.8890
13.947000 0.8900 0.8900 0.8900 0.8900 0.8900
13.980269 0.8920 0.8920 0.8940 0.8940 0.8920
14.013000 0.8920 0.8920 0.8920 0.8920 0.8920
14.046269 0.8900 0.8900 0.8900 0.8900 0.8900
14.080000 0.8900 0.8890 0.8890 0.8890 0.8870
14.113269 0.8870 0.8870 0.8870 0.8870 0.8870
14.146000 0.8850 0.8850 0.8870 0.8870 0.8870
14.179269 0.8850 0.8850 0.8850 0.8850 0.8840
14.213000 0.8840 0.8840 0.8820 0.8820 0.8820
14.246269 0.8820 0.8800 0.8790 0.8790 0.8790
14.279000 0.8770 0.8770 0.8770 0.8790 0.8790
14.312269 0.8770 0.8750 0.8750 0.8750 0.8750
14.346000 0.8750 0.8750 0.8750 0.8750 0.8740
14.379269 0.8720 0.8720 0.8720 0.8720 0.8700
14.412000 0.8700 0.8690 0.8670 0.8670 0.8650
14.445269 0.8650 0.8640 0.8620 0.8620 0.8620
14.479000 0.8600 0.8590 0.8590 0.8590 0.8590
14.512269 0.8570 0.8550 0.8520 0.8520 0.8520
14.545000 0.8520 0.8500 0.8500 0.8470 0.8470
14.578269 0.8470 0.8450 0.8450 0.8430 0.8420
14.612000 0.8420 0.8420 0.8420 0.8380 0.8350
14.645269 0.8350 0.8350 0.8330 0.8330 0.8320
14.678000 0.8320 0.8320 0.8300 0.8300 0.8280
14.711269 0.8280 0.8270 0.8270 0.8250 0.8250
14.745000 0.8230 0.8230 0.8230 0.8230 0.8230
14.778269 0.8220 0.8220 0.8200 0.8200 0.8180
14.811000 0.8170 0.8150 0.8130 0.8100 0.8100
14.844269 0.8070 0.8070 0.8070 0.8070 0.8050
14.878000 0.8050 0.8050 0.8030 0.8030 0.8030
14.911269 0.8030 0.8030 0.8030 0.8030 0.8020
14.944000 0.8020 0.8000 0.8000 0.7960 0.7950
14.977269 0.7930 0.7930 0.7930 0.7930 0.7930
15.011000 0.7910 0.7900 0.7900 0.7880 0.7860
15.044269 0.7860 0.7860 0.7850 0.7830 0.7830
15.077000 0.7810 0.7800 0.7780 0.7760 0.7760
15.110269 0.7750 0.7730 0.7730 0.7730 0.7710
15.144000 0.7710 0.7710 0.7710 0.7700 0.7700
15.177269 0.7680 0.7680 0.7680 0.7680 0.7680
15.210000 0.7660 0.7650 0.7630 0.7630 0.7610
15.243269 0.7610 0.7600 0.7600 0.7600 0.7600
15.277000 0.7580 0.7580 0.7560 0.7560 0.7560
15.310269 0.7560 0.7550 0.7530 0.7510 0.7500
15.343000 0.7480 0.7460 0.7460 0.7440 0.7430
15.376269 0.7430 0.7430 0.7430 0.7430 0.7430
15.410000 0.7410 0.7410 0.7390 0.7390 0.7390
15.443269 0.7380 0.7380 0.7360 0.7340 0.7340
15.476000 0.7340 0.7330 0.7310 0.7310 0.7310
15.509269 0.7310 0.7310 0.7290 0.7290 0.7290
15.543000 0.7290 0.7280 0.7280 0.7280 0.7260
15.576269 0.7260 0.7260 0.7240 0.7240 0.7240
15.609000 0.7240 0.7230 0.7230 0.7230 0.7210
15.642269 0.7210 0.7190 0.7190 0.7190 0.7190
15.676000 0.7190 0.7180 0.7180 0.7180 0.7180
15.709269 0.7160 0.7160 0.7160 0.7160 0.7160
15.742000 0.7140 0.7130 0.7130 0.7130 0.7130
15.775269 0.7110 0.7110 0.7110 0.7110 0.7090
15.809000 0.7090 0.7080 0.7060 0.7060 0.7060
15.842269 0.7060 0.7060 0.7040 0.7040 0.7040
15.875000 0.7040 0.7040 0.7040 0.7030 0.7030
15.908269 0.7030 0.7030 0.7030 0.7030 0.7030
15.942000 0.7030 0.7030 0.7030 0.7030 0.7040
15.975269 0.7030 0.7030 0.7010 0.7010 0.6990
16.008000 0.7010 0.7010
##END=
