##TITLE=ETHER, 2-[(2-METHYLALLYL)THIO]ETHYL 2,6-XYLYL
##JCAMP-DX=4.24
##DATA TYPE=INFRARED SPECTRUM
##CLASS=COBLENTZ III
##ORIGIN=SMITH KLINE & FRENCH LABS.
##OWNER=COBLENTZ SOCIETY
Collection (C) 2018 copyright by the U.S. Secretary of Commerce
on behalf of the United States of America. All rights reserved.
##DATE=1963/02/08
##NAMES=1,3-dimethyl-2-(2-[(2-methyl-2-propenyl)sulfanyl]ethoxy)benzene
2,6-dimethylphenyl 2-[(2-methyl-2-propenyl)sulfanyl]ethyl ether
##MOLFORM=C14 H20 O S
##SOURCE REFERENCE=COBLENTZ NO. 7322
##$NIST ID=B6007322
##$NIST SOURCE=COBLENTZ
##$NIST IMAGE=cob7322
##SPECTROMETER/DATA SYSTEM=PERKIN-ELMER 21 (GRATING)
##INSTRUMENT PARAMETERS=NaCl PRISM
##STATE=LIQUID (NEAT)
##PATH LENGTH=CAPILLARY
##SAMPLING PROCEDURE=TRANSMISSION
##RESOLUTION=2
##DATA PROCESSING=DIGITIZED BY NIST FROM HARD COPY
##XUNITS=MICROMETERS
##YUNITS=TRANSMITTANCE
##XFACTOR=1.000000
##YFACTOR=1
##DELTAX=000.004874
##FIRSTX=1.996
##LASTX=15.0629
##FIRSTY=0.803
##MAXX=15.0629
##MINX=1.996
##MAXY=0.831
##MINY=0.113
##NPOINTS=2682
##XYDATA=(X++(Y..Y))
1.996000 0.8030 0.8030 0.8030 0.8030 0.8030
2.020380 0.8030 0.8030 0.8030 0.8030 0.8030
2.045000 0.8040 0.8040 0.8040 0.8060 0.8060
2.069380 0.8060 0.8060 0.8060 0.8070 0.8070
2.093000 0.8070 0.8070 0.8090 0.8100 0.8120
2.117380 0.8130 0.8130 0.8140 0.8140 0.8150
2.142000 0.8150 0.8170 0.8170 0.8180 0.8180
2.166380 0.8190 0.8190 0.8190 0.8180 0.8140
2.191000 0.8120 0.8090 0.8080 0.8080 0.8070
2.215380 0.8060 0.8040 0.8040 0.8030 0.8030
2.240000 0.8020 0.8010 0.8010 0.7980 0.7970
2.264380 0.7950 0.7890 0.7870 0.7870 0.7850
2.288000 0.7840 0.7820 0.7790 0.7780 0.7750
2.312380 0.7740 0.7740 0.7740 0.7740 0.7730
2.337000 0.7740 0.7760 0.7760 0.7780 0.7800
2.361380 0.7810 0.7810 0.7820 0.7820 0.7840
2.386000 0.7850 0.7870 0.7870 0.7910 0.7920
2.410380 0.7930 0.7930 0.7950 0.7950 0.7950
2.435000 0.7950 0.7950 0.7930 0.7950 0.7950
2.459380 0.7950 0.7950 0.7950 0.7960 0.7970
2.483000 0.7970 0.8000 0.8020 0.8030 0.8030
2.507380 0.8040 0.8040 0.8040 0.8040 0.8040
2.532000 0.8040 0.8040 0.8040 0.8030 0.8030
2.556380 0.8030 0.8020 0.8020 0.8010 0.8020
2.581000 0.8020 0.8030 0.8060 0.8070 0.8080
2.605380 0.8090 0.8100 0.8120 0.8120 0.8130
2.630000 0.8140 0.8150 0.8150 0.8150 0.8150
2.654380 0.8140 0.8130 0.8120 0.8100 0.8090
2.678000 0.8090 0.8090 0.8090 0.8080 0.8080
2.702380 0.8080 0.8080 0.8080 0.8070 0.8070
2.727000 0.8070 0.8070 0.8070 0.8060 0.8060
2.751380 0.8060 0.8060 0.8060 0.8070 0.8070
2.776000 0.8080 0.8090 0.8100 0.8100 0.8140
2.800380 0.8150 0.8150 0.8170 0.8170 0.8170
2.825000 0.8170 0.8170 0.8150 0.8150 0.8140
2.849380 0.8120 0.8080 0.8080 0.8070 0.8060
2.873000 0.8070 0.8070 0.8080 0.8080 0.8070
2.897380 0.8070 0.8080 0.8100 0.8120 0.8130
2.922000 0.8130 0.8140 0.8150 0.8170 0.8170
2.946380 0.8140 0.8140 0.8130 0.8130 0.8100
2.971000 0.8080 0.8070 0.8070 0.8070 0.8080
2.995380 0.8080 0.8080 0.8090 0.8090 0.8090
3.019000 0.8090 0.8080 0.8080 0.8070 0.8070
3.043380 0.8020 0.8000 0.8000 0.7960 0.7950
3.068000 0.7930 0.7930 0.7930 0.7950 0.7950
3.092380 0.7960 0.8000 0.8010 0.8040 0.8040
3.117000 0.8080 0.8090 0.8080 0.8100 0.8120
3.141380 0.8130 0.8130 0.8180 0.8200 0.8200
3.166000 0.8200 0.8200 0.8200 0.8200 0.8200
3.190380 0.8200 0.8190 0.8100 0.8100 0.8060
3.214000 0.8000 0.7890 0.7760 0.7620 0.7460
3.238380 0.7280 0.7070 0.7020 0.6930 0.6850
3.263000 0.6820 0.6810 0.6740 0.6700 0.6620
3.287380 0.6570 0.6520 0.6470 0.6450 0.6420
3.312000 0.6410 0.6400 0.6390 0.6370 0.6360
3.336380 0.6290 0.6090 0.5970 0.5840 0.5700
3.361000 0.5450 0.5250 0.5120 0.5030 0.4850
3.385380 0.4730 0.4640 0.4500 0.4390 0.4130
3.409000 0.4040 0.3930 0.3670 0.3650 0.3640
3.433380 0.3650 0.3650 0.3680 0.3840 0.3920
3.458000 0.4010 0.4090 0.4200 0.4260 0.4310
3.482380 0.4360 0.4470 0.4650 0.4760 0.4960
3.507000 0.5060 0.5150 0.5460 0.5700 0.5930
3.531380 0.6030 0.6140 0.6250 0.6310 0.6450
3.556000 0.6520 0.6580 0.6650 0.6740 0.6810
3.580380 0.6870 0.6960 0.7000 0.7140 0.7250
3.604000 0.7320 0.7390 0.7410 0.7470 0.7510
3.628380 0.7570 0.7590 0.7600 0.7620 0.7580
3.653000 0.7560 0.7530 0.7520 0.7510 0.7520
3.677380 0.7520 0.7530 0.7600 0.7630 0.7650
3.702000 0.7730 0.7890 0.7910 0.7920 0.7970
3.726380 0.7980 0.8000 0.8020 0.8070 0.8070
3.751000 0.8080 0.8080 0.8090 0.8090 0.8100
3.775380 0.8100 0.8100 0.8120 0.8120 0.8120
3.799000 0.8120 0.8120 0.8120 0.8120 0.8120
3.823380 0.8120 0.8120 0.8120 0.8120 0.8120
3.848000 0.8130 0.8120 0.8120 0.8100 0.8100
3.872380 0.8130 0.8130 0.8120 0.8120 0.8100
3.897000 0.8100 0.8100 0.8100 0.8090 0.8090
3.921380 0.8100 0.8140 0.8170 0.8190 0.8200
3.946000 0.8200 0.8200 0.8210 0.8210 0.8210
3.970380 0.8230 0.8210 0.8210 0.8210 0.8210
3.994000 0.8210 0.8210 0.8200 0.8200 0.8200
4.018380 0.8200 0.8200 0.8200 0.8200 0.8200
4.043000 0.8200 0.8200 0.8200 0.8190 0.8180
4.067380 0.8180 0.8180 0.8180 0.8200 0.8200
4.092000 0.8200 0.8200 0.8190 0.8190 0.8180
4.116380 0.8180 0.8180 0.8170 0.8170 0.8150
4.141000 0.8150 0.8150 0.8150 0.8150 0.8150
4.165380 0.8150 0.8180 0.8180 0.8200 0.8200
4.189000 0.8230 0.8250 0.8280 0.8280 0.8290
4.213380 0.8290 0.8290 0.8280 0.8280 0.8260
4.238000 0.8250 0.8250 0.8240 0.8250 0.8250
4.262380 0.8260 0.8280 0.8290 0.8290 0.8290
4.287000 0.8280 0.8280 0.8280 0.8260 0.8250
4.311380 0.8250 0.8240 0.8250 0.8250 0.8250
4.335000 0.8240 0.8230 0.8210 0.8200 0.8190
4.359380 0.8190 0.8180 0.8180 0.8180 0.8180
4.384000 0.8180 0.8180 0.8180 0.8190 0.8230
4.408380 0.8240 0.8260 0.8260 0.8290 0.8290
4.433000 0.8300 0.8300 0.8310 0.8310 0.8310
4.457380 0.8310 0.8310 0.8310 0.8310 0.8310
4.482000 0.8310 0.8300 0.8290 0.8280 0.8280
4.506380 0.8260 0.8260 0.8250 0.8260 0.8280
4.530000 0.8280 0.8280 0.8250 0.8240 0.8260
4.554380 0.8250 0.8250 0.8250 0.8250 0.8240
4.579000 0.8240 0.8240 0.8240 0.8240 0.8240
4.603380 0.8240 0.8240 0.8240 0.8240 0.8240
4.628000 0.8240 0.8240 0.8240 0.8240 0.8240
4.652380 0.8250 0.8250 0.8260 0.8260 0.8260
4.677000 0.8260 0.8260 0.8250 0.8250 0.8230
4.701380 0.8210 0.8230 0.8230 0.8250 0.8250
4.725000 0.8260 0.8290 0.8290 0.8290 0.8300
4.749380 0.8300 0.8310 0.8300 0.8300 0.8300
4.774000 0.8290 0.8290 0.8290 0.8280 0.8260
4.798380 0.8260 0.8290 0.8280 0.8280 0.8280
4.823000 0.8280 0.8260 0.8260 0.8250 0.8250
4.847380 0.8250 0.8250 0.8250 0.8240 0.8240
4.872000 0.8240 0.8240 0.8240 0.8230 0.8230
4.896380 0.8230 0.8230 0.8230 0.8210 0.8210
4.920000 0.8210 0.8210 0.8200 0.8200 0.8200
4.944380 0.8200 0.8210 0.8210 0.8210 0.8210
4.969000 0.8210 0.8210 0.8230 0.8210 0.8210
4.993380 0.8210 0.8200 0.8200 0.8190 0.8180
5.018000 0.8180 0.8180 0.8180 0.8190 0.8190
5.042380 0.8200 0.8210 0.8210 0.8230 0.8230
5.067000 0.8240 0.8260 0.8260 0.8260 0.8280
5.091380 0.8280 0.8280 0.8280 0.8280 0.8280
5.115000 0.8280 0.8280 0.8260 0.8210 0.8190
5.139380 0.8190 0.8170 0.8150 0.8130 0.8100
5.164000 0.8070 0.8060 0.8040 0.8040 0.8040
5.188380 0.8060 0.8060 0.8060 0.8070 0.8080
5.213000 0.8090 0.8140 0.8170 0.8190 0.8200
5.237380 0.8230 0.8260 0.8260 0.8280 0.8280
5.262000 0.8280 0.8280 0.8290 0.8290 0.8290
5.286380 0.8290 0.8290 0.8290 0.8280 0.8260
5.310000 0.8240 0.8210 0.8210 0.8200 0.8190
5.334380 0.8180 0.8180 0.8170 0.8170 0.8150
5.359000 0.8150 0.8140 0.8130 0.8120 0.8120
5.383380 0.8120 0.8100 0.8120 0.8120 0.8130
5.408000 0.8130 0.8140 0.8150 0.8170 0.8180
5.432380 0.8200 0.8240 0.8240 0.8250 0.8230
5.457000 0.8230 0.8190 0.8190 0.8170 0.8120
5.481380 0.8100 0.8120 0.8120 0.8120 0.8100
5.505000 0.8090 0.8040 0.8020 0.8000 0.7960
5.529380 0.7930 0.7920 0.7920 0.7910 0.7920
5.554000 0.7930 0.7930 0.7950 0.7970 0.7980
5.578380 0.8000 0.8010 0.8010 0.8020 0.8020
5.603000 0.8030 0.8030 0.8060 0.8060 0.8070
5.627380 0.8080 0.8120 0.8150 0.8180 0.8180
5.652000 0.8190 0.8200 0.8210 0.8230 0.8240
5.676380 0.8240 0.8230 0.8240 0.8240 0.8250
5.700000 0.8250 0.8250 0.8260 0.8260 0.8260
5.724380 0.8280 0.8280 0.8280 0.8280 0.8280
5.749000 0.8280 0.8280 0.8280 0.8280 0.8290
5.773380 0.8290 0.8280 0.8260 0.8260 0.8260
5.798000 0.8250 0.8250 0.8240 0.8240 0.8240
5.822380 0.8240 0.8240 0.8240 0.8240 0.8240
5.846000 0.8240 0.8240 0.8240 0.8240 0.8230
5.870380 0.8200 0.8180 0.8140 0.8120 0.8120
5.895000 0.8130 0.8140 0.8140 0.8180 0.8180
5.919380 0.8180 0.8180 0.8170 0.8150 0.8150
5.944000 0.8140 0.8130 0.8100 0.8090 0.8070
5.968380 0.8030 0.8020 0.7980 0.7890 0.7840
5.993000 0.7740 0.7600 0.7450 0.7290 0.7100
6.017380 0.6920 0.6740 0.6580 0.6430 0.6320
6.041000 0.6240 0.6200 0.6180 0.6180 0.6240
6.065380 0.6400 0.6640 0.6810 0.6970 0.7020
6.090000 0.7090 0.7200 0.7280 0.7290 0.7310
6.114380 0.7340 0.7370 0.7460 0.7520 0.7570
6.139000 0.7590 0.7620 0.7640 0.7670 0.7690
6.163380 0.7710 0.7730 0.7740 0.7750 0.7750
6.188000 0.7750 0.7750 0.7750 0.7740 0.7710
6.212380 0.7700 0.7630 0.7540 0.7360 0.7260
6.236000 0.7070 0.7000 0.6890 0.6850 0.6840
6.260380 0.6860 0.6930 0.7070 0.7240 0.7360
6.285000 0.7480 0.7600 0.7630 0.7690 0.7710
6.309380 0.7740 0.7760 0.7780 0.7780 0.7820
6.334000 0.7850 0.7850 0.7860 0.7870 0.7870
6.358380 0.7890 0.7890 0.7870 0.7870 0.7860
6.383000 0.7860 0.7850 0.7820 0.7800 0.7780
6.407380 0.7750 0.7740 0.7730 0.7730 0.7700
6.431000 0.7680 0.7650 0.7640 0.7630 0.7630
6.455380 0.7620 0.7600 0.7570 0.7530 0.7480
6.480000 0.7430 0.7420 0.7420 0.7420 0.7420
6.504380 0.7420 0.7420 0.7420 0.7470 0.7470
6.529000 0.7470 0.7470 0.7430 0.7430 0.7410
6.553380 0.7360 0.7290 0.7200 0.7100 0.7060
6.578000 0.7040 0.7030 0.7020 0.7020 0.7000
6.602380 0.7000 0.6980 0.6960 0.6870 0.6850
6.626000 0.6840 0.6810 0.6730 0.6650 0.6580
6.650380 0.6390 0.6180 0.6040 0.6000 0.5920
6.675000 0.5810 0.5670 0.5470 0.5170 0.4600
6.699380 0.4300 0.4010 0.3730 0.3420 0.3100
6.724000 0.2750 0.2560 0.2400 0.2300 0.2210
6.748380 0.2200 0.2200 0.2200 0.2280 0.2290
6.773000 0.2320 0.2390 0.2480 0.2530 0.2600
6.797380 0.2710 0.2750 0.2870 0.2900 0.3020
6.821000 0.3080 0.3120 0.3140 0.3150 0.3170
6.845380 0.3180 0.3190 0.3250 0.3360 0.3460
6.870000 0.3530 0.3590 0.3600 0.3620 0.3630
6.894380 0.3630 0.3630 0.3630 0.3630 0.3630
6.919000 0.3640 0.3640 0.3640 0.3700 0.3700
6.943380 0.3740 0.3790 0.3810 0.3850 0.3890
6.968000 0.3950 0.3960 0.4020 0.4100 0.4170
6.992380 0.4240 0.4310 0.4370 0.4460 0.4540
7.016000 0.4670 0.4810 0.4920 0.5020 0.5170
7.040380 0.5310 0.5430 0.5540 0.5700 0.5890
7.065000 0.5900 0.6020 0.6090 0.6130 0.6170
7.089380 0.6210 0.6240 0.6230 0.6210 0.6150
7.114000 0.6140 0.6150 0.6180 0.6210 0.6250
7.138380 0.6310 0.6410 0.6460 0.6510 0.6570
7.162000 0.6600 0.6620 0.6630 0.6640 0.6650
7.186380 0.6650 0.6650 0.6600 0.6520 0.6340
7.211000 0.6090 0.5950 0.5670 0.5480 0.5280
7.235380 0.5100 0.4540 0.4350 0.4070 0.3790
7.260000 0.3700 0.3590 0.3580 0.3590 0.3600
7.284380 0.3910 0.4250 0.4620 0.4980 0.5170
7.309000 0.5350 0.5700 0.6010 0.6280 0.6480
7.333380 0.6690 0.6850 0.6950 0.7040 0.7140
7.357000 0.7250 0.7360 0.7410 0.7430 0.7460
7.381380 0.7470 0.7500 0.7520 0.7540 0.7590
7.406000 0.7600 0.7620 0.7620 0.7630 0.7630
7.430380 0.7630 0.7650 0.7650 0.7670 0.7670
7.455000 0.7690 0.7690 0.7700 0.7700 0.7700
7.479380 0.7700 0.7690 0.7690 0.7680 0.7680
7.504000 0.7670 0.7670 0.7650 0.7650 0.7640
7.528380 0.7640 0.7630 0.7580 0.7560 0.7540
7.552000 0.7530 0.7520 0.7510 0.7510 0.7510
7.576380 0.7530 0.7540 0.7540 0.7540 0.7530
7.601000 0.7520 0.7520 0.7510 0.7500 0.7470
7.625380 0.7400 0.7360 0.7320 0.7290 0.7290
7.650000 0.7250 0.7250 0.7230 0.7210 0.7190
7.674380 0.7170 0.7170 0.7150 0.7130 0.7080
7.699000 0.7020 0.6970 0.6950 0.6870 0.6760
7.723380 0.6670 0.6650 0.6630 0.6600 0.6540
7.747000 0.6430 0.6250 0.6190 0.6100 0.6080
7.771380 0.6070 0.6040 0.6040 0.6070 0.6080
7.796000 0.6190 0.6310 0.6420 0.6510 0.6520
7.820380 0.6580 0.6580 0.6580 0.6590 0.6580
7.845000 0.6510 0.6470 0.6350 0.6170 0.6040
7.869380 0.5810 0.5520 0.5190 0.4590 0.4170
7.894000 0.3820 0.3180 0.2980 0.2750 0.2650
7.918380 0.2650 0.2680 0.2920 0.3430 0.3980
7.942000 0.4510 0.4820 0.5130 0.5600 0.5950
7.966380 0.6200 0.6370 0.6480 0.6540 0.6590
7.991000 0.6650 0.6730 0.6860 0.6870 0.6870
8.015380 0.6840 0.6810 0.6690 0.6650 0.6560
8.040000 0.6510 0.6460 0.6400 0.6340 0.6290
8.064380 0.6280 0.6260 0.6260 0.6260 0.6260
8.089000 0.6260 0.6250 0.6240 0.6200 0.6120
8.113380 0.6010 0.5840 0.5680 0.5540 0.5360
8.137000 0.5300 0.5170 0.5120 0.5100 0.5090
8.161380 0.5120 0.5170 0.5170 0.5170 0.5170
8.186000 0.5170 0.5150 0.5130 0.5090 0.5000
8.210380 0.4620 0.4480 0.4350 0.4190 0.4000
8.235000 0.3780 0.3500 0.3140 0.2890 0.2670
8.259380 0.2500 0.2310 0.2120 0.1850 0.1540
8.284000 0.1370 0.1340 0.1260 0.1210 0.1140
8.308380 0.1130 0.1130 0.1140 0.1140 0.1140
8.332000 0.1140 0.1150 0.1190 0.1260 0.1400
8.356380 0.1590 0.1700 0.1800 0.2030 0.2230
8.381000 0.2340 0.2430 0.2730 0.2930 0.3010
8.405380 0.3060 0.3150 0.3190 0.3280 0.3390
8.430000 0.3410 0.3400 0.3420 0.3470 0.3510
8.454380 0.3620 0.3790 0.3950 0.4200 0.4500
8.478000 0.4850 0.5000 0.5140 0.5300 0.5450
8.502380 0.5640 0.5790 0.5920 0.6030 0.6150
8.527000 0.6280 0.6450 0.6500 0.6560 0.6630
8.551380 0.6670 0.6680 0.6680 0.6670 0.6670
8.576000 0.6650 0.6640 0.6630 0.6620 0.6600
8.600380 0.6590 0.6600 0.6620 0.6670 0.6750
8.625000 0.6800 0.6850 0.6870 0.6920 0.6980
8.649380 0.7030 0.7080 0.7130 0.7180 0.7230
8.673000 0.7250 0.7280 0.7280 0.7370 0.7400
8.697380 0.7530 0.7570 0.7580 0.7590 0.7590
8.722000 0.7600 0.7620 0.7620 0.7620 0.7640
8.746380 0.7650 0.7650 0.7680 0.7700 0.7710
8.771000 0.7740 0.7750 0.7750 0.7760 0.7780
8.795380 0.7810 0.7850 0.7870 0.7870 0.7890
8.820000 0.7890 0.7900 0.7900 0.7900 0.7900
8.844380 0.7900 0.7890 0.7890 0.7890 0.7890
8.868000 0.7890 0.7870 0.7870 0.7870 0.7870
8.892380 0.7860 0.7860 0.7860 0.7850 0.7850
8.917000 0.7850 0.7840 0.7820 0.7810 0.7800
8.941380 0.7790 0.7780 0.7780 0.7760 0.7750
8.966000 0.7740 0.7730 0.7710 0.7700 0.7700
8.990380 0.7690 0.7680 0.7670 0.7620 0.7600
9.015000 0.7570 0.7520 0.7450 0.7360 0.7230
9.039380 0.7070 0.6850 0.6760 0.6680 0.6600
9.063000 0.6520 0.6450 0.6360 0.6260 0.6130
9.087380 0.5980 0.5810 0.5590 0.5320 0.4640
9.112000 0.4450 0.4250 0.4030 0.3690 0.3520
9.136380 0.3420 0.3260 0.3170 0.3120 0.3100
9.161000 0.3090 0.3120 0.3240 0.3430 0.3560
9.185380 0.3620 0.3640 0.3810 0.4000 0.4400
9.210000 0.4740 0.4870 0.5010 0.5260 0.5460
9.234380 0.5620 0.5750 0.5900 0.6060 0.6140
9.258000 0.6210 0.6340 0.6520 0.6690 0.6700
9.282380 0.6690 0.6690 0.6670 0.6640 0.6640
9.307000 0.6620 0.6620 0.6620 0.6600 0.6590
9.331380 0.6540 0.6470 0.6340 0.6250 0.6120
9.356000 0.6000 0.5910 0.5820 0.5730 0.5640
9.380380 0.5560 0.5470 0.5410 0.5360 0.5310
9.405000 0.5260 0.5210 0.5210 0.5210 0.5210
9.429380 0.5230 0.5300 0.5340 0.5450 0.5510
9.453000 0.5590 0.5600 0.5690 0.5930 0.5960
9.477380 0.6010 0.6040 0.6070 0.6170 0.6260
9.502000 0.6350 0.6430 0.6500 0.6540 0.6570
9.526380 0.6590 0.6620 0.6630 0.6630 0.6620
9.551000 0.6600 0.6590 0.6580 0.6570 0.6560
9.575380 0.6510 0.6500 0.6460 0.6400 0.6350
9.600000 0.6310 0.6290 0.6280 0.6260 0.6250
9.624380 0.6230 0.6200 0.6140 0.6060 0.6030
9.648000 0.6010 0.6010 0.6000 0.5970 0.5980
9.672380 0.6000 0.5960 0.5950 0.5910 0.5850
9.697000 0.5810 0.5790 0.5780 0.5780 0.5780
9.721380 0.5750 0.5710 0.5650 0.5540 0.5400
9.746000 0.5360 0.5230 0.5060 0.4780 0.4750
9.770380 0.4690 0.4640 0.4580 0.4470 0.4290
9.794000 0.4070 0.3890 0.3740 0.3640 0.3560
9.818380 0.3500 0.3430 0.3400 0.3350 0.3320
9.843000 0.3310 0.3300 0.3300 0.3250 0.3200
9.867380 0.3140 0.3120 0.3120 0.3100 0.3080
9.892000 0.3040 0.3020 0.2970 0.2910 0.2850
9.916380 0.2760 0.2650 0.2600 0.2540 0.2510
9.941000 0.2470 0.2430 0.2420 0.2420 0.2410
9.965380 0.2400 0.2400 0.2400 0.2410 0.2410
9.989000 0.2420 0.2430 0.2500 0.2570 0.2690
10.013380 0.2850 0.2960 0.3030 0.3120 0.3200
10.038000 0.3320 0.3460 0.3520 0.3590 0.3670
10.062380 0.3760 0.3860 0.3970 0.4070 0.4150
10.087000 0.4240 0.4300 0.4410 0.4540 0.4620
10.111380 0.4740 0.4820 0.4850 0.4920 0.4970
10.136000 0.5020 0.5120 0.5200 0.5250 0.5310
10.160380 0.5370 0.5410 0.5480 0.5670 0.5730
10.184000 0.5760 0.5860 0.5920 0.5980 0.6040
10.208380 0.6040 0.6080 0.6090 0.6090 0.6140
10.233000 0.6230 0.6300 0.6320 0.6350 0.6370
10.257380 0.6400 0.6410 0.6420 0.6430 0.6450
10.282000 0.6470 0.6470 0.6480 0.6520 0.6560
10.306380 0.6590 0.6650 0.6700 0.6710 0.6730
10.331000 0.6740 0.6740 0.6750 0.6760 0.6790
10.355380 0.6810 0.6840 0.6860 0.6900 0.6920
10.379000 0.6970 0.7000 0.7020 0.7030 0.7070
10.403380 0.7100 0.7120 0.7130 0.7130 0.7170
10.428000 0.7200 0.7240 0.7320 0.7370 0.7400
10.452380 0.7430 0.7450 0.7460 0.7470 0.7470
10.477000 0.7480 0.7500 0.7500 0.7510 0.7520
10.501380 0.7520 0.7570 0.7590 0.7620 0.7670
10.526000 0.7730 0.7710 0.7740 0.7750 0.7750
10.550380 0.7760 0.7760 0.7780 0.7790 0.7800
10.574000 0.7810 0.7840 0.7870 0.7870 0.7910
10.598380 0.7920 0.7920 0.7930 0.7950 0.7950
10.623000 0.7960 0.7970 0.7970 0.7970 0.7970
10.647380 0.7970 0.7970 0.7970 0.7970 0.7970
10.672000 0.7960 0.7970 0.7960 0.7960 0.7950
10.696380 0.7910 0.7870 0.7860 0.7860 0.7870
10.721000 0.7900 0.7920 0.7950 0.7960 0.7960
10.745380 0.7950 0.7930 0.7910 0.7900 0.7870
10.769000 0.7870 0.7840 0.7820 0.7790 0.7750
10.793380 0.7730 0.7690 0.7670 0.7670 0.7640
10.818000 0.7630 0.7620 0.7600 0.7580 0.7500
10.842380 0.7430 0.7410 0.7390 0.7370 0.7370
10.867000 0.7290 0.7040 0.7000 0.6950 0.6910
10.891380 0.6890 0.6860 0.6850 0.6840 0.6810
10.916000 0.6800 0.6780 0.6760 0.6730 0.6710
10.940380 0.6690 0.6650 0.6620 0.6570 0.6560
10.964000 0.6540 0.6530 0.6460 0.6390 0.6320
10.988380 0.6230 0.6120 0.6010 0.5900 0.5790
11.013000 0.5690 0.5580 0.5470 0.5360 0.5250
11.037380 0.5140 0.5030 0.4820 0.4710 0.4620
11.062000 0.4510 0.4400 0.4200 0.4100 0.4040
11.086380 0.4030 0.3970 0.3850 0.3730 0.3650
11.110000 0.3640 0.3630 0.3620 0.3600 0.3500
11.134380 0.3460 0.3430 0.3430 0.3420 0.3420
11.159000 0.3410 0.3420 0.3420 0.3420 0.3430
11.183380 0.3450 0.3460 0.3470 0.3480 0.3510
11.208000 0.3540 0.3570 0.3590 0.3640 0.3700
11.232380 0.3800 0.3860 0.3900 0.3960 0.4070
11.257000 0.4200 0.4390 0.4590 0.4700 0.4800
11.281380 0.4870 0.4890 0.4910 0.4980 0.5030
11.305000 0.5070 0.5260 0.5460 0.5590 0.5620
11.329380 0.5690 0.5760 0.5840 0.6040 0.6150
11.354000 0.6190 0.6200 0.6240 0.6310 0.6410
11.378380 0.6510 0.6600 0.6650 0.6740 0.6860
11.403000 0.6910 0.6930 0.6950 0.6970 0.7010
11.427380 0.7020 0.7090 0.7100 0.7120 0.7130
11.452000 0.7130 0.7130 0.7130 0.7130 0.7140
11.476380 0.7140 0.7140 0.7150 0.7150 0.7170
11.500000 0.7170 0.7170 0.7180 0.7180 0.7180
11.524380 0.7180 0.7190 0.7200 0.7210 0.7280
11.549000 0.7290 0.7300 0.7300 0.7300 0.7310
11.573380 0.7320 0.7320 0.7320 0.7310 0.7260
11.598000 0.7250 0.7190 0.7170 0.7140 0.7120
11.622380 0.7030 0.6970 0.6930 0.6910 0.6900
11.647000 0.6890 0.6870 0.6870 0.6870 0.6870
11.671380 0.6870 0.6900 0.6900 0.6910 0.6920
11.695000 0.6960 0.6980 0.7030 0.7070 0.7080
11.719380 0.7120 0.7170 0.7180 0.7240 0.7300
11.744000 0.7340 0.7370 0.7390 0.7400 0.7420
11.768380 0.7420 0.7430 0.7420 0.7410 0.7370
11.793000 0.7340 0.7300 0.7250 0.7210 0.7150
11.817380 0.7100 0.7030 0.6930 0.6860 0.6840
11.842000 0.6810 0.6790 0.6780 0.6760 0.6750
11.866380 0.6750 0.6750 0.6750 0.6750 0.6760
11.890000 0.6780 0.6820 0.6840 0.6870 0.6910
11.914380 0.6920 0.6960 0.7010 0.7070 0.7100
11.939000 0.7190 0.7250 0.7320 0.7390 0.7400
11.963380 0.7420 0.7420 0.7430 0.7460 0.7460
11.988000 0.7470 0.7500 0.7540 0.7590 0.7640
12.012380 0.7690 0.7710 0.7750 0.7790 0.7800
12.037000 0.7820 0.7860 0.7890 0.7900 0.7910
12.061380 0.7920 0.7930 0.7930 0.7930 0.7930
12.085000 0.7930 0.7930 0.7930 0.7930 0.7930
12.109380 0.7930 0.7930 0.7930 0.7930 0.7930
12.134000 0.7930 0.7930 0.7920 0.7910 0.7910
12.158380 0.7900 0.7900 0.7890 0.7860 0.7850
12.183000 0.7850 0.7840 0.7820 0.7810 0.7800
12.207380 0.7790 0.7750 0.7730 0.7700 0.7680
12.232000 0.7670 0.7630 0.7620 0.7600 0.7600
12.256380 0.7600 0.7600 0.7620 0.7620 0.7620
12.280000 0.7630 0.7640 0.7650 0.7670 0.7670
12.304380 0.7680 0.7690 0.7710 0.7730 0.7740
12.329000 0.7740 0.7760 0.7760 0.7780 0.7790
12.353380 0.7800 0.7800 0.7810 0.7810 0.7810
12.378000 0.7810 0.7810 0.7810 0.7810 0.7810
12.402380 0.7810 0.7810 0.7810 0.7810 0.7810
12.426000 0.7800 0.7790 0.7780 0.7780 0.7760
12.450380 0.7750 0.7740 0.7740 0.7710 0.7700
12.475000 0.7690 0.7630 0.7570 0.7520 0.7510
12.499380 0.7500 0.7480 0.7470 0.7470 0.7470
12.524000 0.7470 0.7470 0.7470 0.7460 0.7460
12.548380 0.7460 0.7460 0.7460 0.7460 0.7450
12.573000 0.7430 0.7430 0.7420 0.7420 0.7410
12.597380 0.7400 0.7400 0.7390 0.7390 0.7370
12.621000 0.7370 0.7360 0.7350 0.7310 0.7300
12.645380 0.7260 0.7250 0.7230 0.7180 0.7120
12.670000 0.7000 0.7000 0.6980 0.6970 0.6970
12.694380 0.6960 0.6930 0.6890 0.6860 0.6840
12.719000 0.6820 0.6820 0.6760 0.6710 0.6630
12.743380 0.6590 0.6570 0.6540 0.6520 0.6470
12.768000 0.6400 0.6290 0.6260 0.6240 0.6240
12.792380 0.6210 0.6180 0.6080 0.5980 0.5870
12.816000 0.5790 0.5710 0.5670 0.5640 0.5520
12.840380 0.5460 0.5400 0.5320 0.5230 0.5070
12.865000 0.4820 0.4650 0.4580 0.4530 0.4450
12.889380 0.4290 0.4180 0.4060 0.3950 0.3810
12.914000 0.3690 0.3540 0.3450 0.3370 0.3370
12.938380 0.3290 0.3170 0.3000 0.2840 0.2700
12.963000 0.2680 0.2670 0.2640 0.2620 0.2590
12.987380 0.2540 0.2470 0.2320 0.2260 0.2210
13.011000 0.2180 0.2140 0.2100 0.2100 0.2120
13.035380 0.2120 0.2130 0.2170 0.2190 0.2230
13.060000 0.2230 0.2240 0.2250 0.2290 0.2360
13.084380 0.2500 0.2600 0.2670 0.2790 0.2950
13.109000 0.3140 0.3320 0.3500 0.3590 0.3700
13.133380 0.3840 0.4040 0.4250 0.4370 0.4520
13.158000 0.4590 0.4730 0.4840 0.4950 0.5000
13.182380 0.5040 0.5100 0.5180 0.5250 0.5370
13.206000 0.5560 0.5570 0.5590 0.5640 0.5710
13.230380 0.5820 0.5890 0.5910 0.5970 0.5980
13.255000 0.6020 0.6040 0.6090 0.6100 0.6100
13.279380 0.6200 0.6280 0.6340 0.6360 0.6370
13.304000 0.6390 0.6420 0.6500 0.6510 0.6510
13.328380 0.6530 0.6580 0.6620 0.6640 0.6680
13.353000 0.6690 0.6710 0.6750 0.6790 0.6810
13.377380 0.6820 0.6840 0.6850 0.6860 0.6870
13.401000 0.6900 0.6910 0.6920 0.6930 0.6950
13.425380 0.6960 0.6970 0.7000 0.7000 0.7000
13.450000 0.7010 0.7020 0.7020 0.7030 0.7040
13.474380 0.7070 0.7080 0.7080 0.7090 0.7090
13.499000 0.7100 0.7100 0.7120 0.7130 0.7130
13.523380 0.7140 0.7150 0.7170 0.7180 0.7190
13.548000 0.7200 0.7240 0.7290 0.7290 0.7310
13.572380 0.7320 0.7350 0.7360 0.7370 0.7390
13.596000 0.7390 0.7390 0.7400 0.7410 0.7410
13.620380 0.7420 0.7420 0.7430 0.7450 0.7450
13.645000 0.7460 0.7460 0.7470 0.7470 0.7480
13.669380 0.7480 0.7480 0.7480 0.7480 0.7480
13.694000 0.7500 0.7500 0.7510 0.7520 0.7520
13.718380 0.7530 0.7540 0.7540 0.7560 0.7570
13.742000 0.7570 0.7580 0.7580 0.7590 0.7590
13.766380 0.7590 0.7600 0.7600 0.7620 0.7620
13.791000 0.7630 0.7630 0.7630 0.7640 0.7640
13.815380 0.7640 0.7640 0.7650 0.7650 0.7650
13.840000 0.7650 0.7670 0.7670 0.7670 0.7670
13.864380 0.7670 0.7670 0.7670 0.7670 0.7670
13.889000 0.7670 0.7670 0.7670 0.7670 0.7670
13.913380 0.7670 0.7670 0.7670 0.7670 0.7670
13.937000 0.7680 0.7670 0.7670 0.7670 0.7670
13.961380 0.7670 0.7670 0.7670 0.7670 0.7670
13.986000 0.7670 0.7670 0.7670 0.7670 0.7670
14.010380 0.7670 0.7670 0.7670 0.7670 0.7670
14.035000 0.7680 0.7680 0.7680 0.7670 0.7650
14.059380 0.7640 0.7630 0.7620 0.7590 0.7580
14.084000 0.7570 0.7570 0.7580 0.7580 0.7580
14.108380 0.7580 0.7590 0.7590 0.7590 0.7580
14.132000 0.7580 0.7590 0.7590 0.7590 0.7590
14.156380 0.7530 0.7520 0.7500 0.7480 0.7480
14.181000 0.7480 0.7480 0.7500 0.7520 0.7530
14.205380 0.7540 0.7560 0.7570 0.7570 0.7570
14.230000 0.7580 0.7580 0.7580 0.7580 0.7580
14.254380 0.7570 0.7570 0.7570 0.7540 0.7530
14.279000 0.7520 0.7480 0.7480 0.7470 0.7470
14.303380 0.7470 0.7470 0.7480 0.7520 0.7520
14.327000 0.7520 0.7510 0.7510 0.7480 0.7470
14.351380 0.7420 0.7400 0.7370 0.7370 0.7390
14.376000 0.7410 0.7420 0.7430 0.7450 0.7450
14.400380 0.7450 0.7450 0.7450 0.7430 0.7430
14.425000 0.7430 0.7420 0.7410 0.7400 0.7400
14.449380 0.7390 0.7390 0.7390 0.7390 0.7390
14.474000 0.7390 0.7390 0.7370 0.7370 0.7370
14.498380 0.7370 0.7370 0.7370 0.7370 0.7360
14.522000 0.7360 0.7350 0.7340 0.7320 0.7310
14.546380 0.7260 0.7230 0.7200 0.7200 0.7190
14.571000 0.7190 0.7190 0.7190 0.7190 0.7190
14.595380 0.7190 0.7190 0.7190 0.7180 0.7170
14.620000 0.7140 0.7140 0.7140 0.7130 0.7130
14.644380 0.7130 0.7120 0.7120 0.7120 0.7100
14.669000 0.7100 0.7100 0.7080 0.7070 0.7060
14.693380 0.7040 0.7040 0.7040 0.7040 0.7040
14.717000 0.7040 0.7040 0.7040 0.7030 0.7020
14.741380 0.7010 0.7010 0.7000 0.6980 0.6970
14.766000 0.6970 0.6970 0.6970 0.6960 0.6960
14.790380 0.6960 0.6930 0.6920 0.6910 0.6900
14.815000 0.6890 0.6870 0.6860 0.6850 0.6840
14.839380 0.6810 0.6810 0.6810 0.6820 0.6820
14.864000 0.6820 0.6820 0.6820 0.6820 0.6820
14.888380 0.6820 0.6820 0.6820 0.6820 0.6820
14.912000 0.6820 0.6820 0.6820 0.6820 0.6820
14.936380 0.6820 0.6820 0.6820 0.6820 0.6820
14.961000 0.6820 0.6810 0.6810 0.6810 0.6810
14.985380 0.6810 0.6800 0.6800 0.6800 0.6800
15.010000 0.6800 0.6790 0.6790 0.6790 0.6790
15.034380 0.6790 0.6780 0.6780 0.6780 0.6780
15.058000 0.6780 0.6760
##END=
