##TITLE=ETHANAMINE, 2-HYDROXY-2-(m-HYDROXYPHENYL)-N-METHYL-, 2-HYDROXY-3-PHENYL BENZOIC ACID SALT
##JCAMP-DX=4.24
##DATA TYPE=INFRARED SPECTRUM
##CLASS=COBLENTZ III
##ORIGIN=SMITH KLINE & FRENCH LABS.
##OWNER=COBLENTZ SOCIETY
Collection (C) 2018 copyright by the U.S. Secretary of Commerce
on behalf of the United States of America. All rights reserved.
##DATE=1965/03/16
##MOLFORM=C22 H23 N O5
##SOURCE REFERENCE=COBLENTZ NO. 9132
##$NIST ID=B6009132
##$NIST SOURCE=COBLENTZ
##$NIST IMAGE=cob9132
##SPECTROMETER/DATA SYSTEM=Not specified, most likely a prism spectrometer.
##INSTRUMENT PARAMETERS=NaCl PRISM
##STATE=SOLID (OIL MULL)
$$SPECTRAL CONTAMINATION DUE TO OIL AROUND 2900, 1450 CM^-^1
##SAMPLING PROCEDURE=TRANSMISSION
##RESOLUTION=2
##DATA PROCESSING=DIGITIZED BY NIST FROM HARD COPY
##XUNITS=MICROMETERS
##YUNITS=TRANSMITTANCE
##XFACTOR=1.000000
##YFACTOR=1
##DELTAX=000.004882
##FIRSTX=2.004
##LASTX=15.7131
##FIRSTY=0.8
##MAXX=15.7131
##MINX=2.004
##MAXY=0.931
##MINY=0.01
##NPOINTS=2809
##XYDATA=(X++(Y..Y))
2.004000 0.8000 0.8000 0.8000 0.8000 0.8010
2.028419 0.8020 0.8020 0.8020 0.8050 0.8070
2.053000 0.8080 0.8100 0.8110 0.8130 0.8140
2.077419 0.8160 0.8170 0.8180 0.8180 0.8190
2.102000 0.8190 0.8220 0.8230 0.8230 0.8240
2.126419 0.8250 0.8250 0.8270 0.8280 0.8280
2.151000 0.8290 0.8300 0.8300 0.8310 0.8310
2.175419 0.8340 0.8340 0.8350 0.8350 0.8360
2.199000 0.8370 0.8370 0.8390 0.8390 0.8400
2.223419 0.8420 0.8450 0.8460 0.8460 0.8470
2.248000 0.8470 0.8470 0.8470 0.8470 0.8470
2.272419 0.8470 0.8470 0.8480 0.8500 0.8520
2.297000 0.8520 0.8530 0.8530 0.8530 0.8520
2.321419 0.8520 0.8520 0.8510 0.8500 0.8480
2.346000 0.8480 0.8480 0.8480 0.8480 0.8480
2.370419 0.8480 0.8500 0.8520 0.8530 0.8530
2.395000 0.8530 0.8540 0.8540 0.8560 0.8560
2.419419 0.8580 0.8600 0.8620 0.8620 0.8630
2.443000 0.8630 0.8640 0.8640 0.8640 0.8640
2.467419 0.8660 0.8680 0.8680 0.8680 0.8680
2.492000 0.8680 0.8680 0.8680 0.8680 0.8660
2.516419 0.8680 0.8690 0.8710 0.8740 0.8760
2.541000 0.8800 0.8830 0.8850 0.8860 0.8870
2.565419 0.8870 0.8880 0.8890 0.8890 0.8910
2.590000 0.8910 0.8920 0.8930 0.8960 0.8960
2.614419 0.8970 0.8970 0.8970 0.8970 0.8980
2.639000 0.8980 0.8980 0.8980 0.8980 0.8980
2.663419 0.8970 0.8990 0.9000 0.9000 0.9020
2.688000 0.9030 0.9040 0.9050 0.9080 0.9080
2.712419 0.9090 0.9100 0.9100 0.9110 0.9110
2.736000 0.9110 0.9110 0.9110 0.9110 0.9110
2.760419 0.9110 0.9110 0.9100 0.9120 0.9120
2.785000 0.9120 0.9140 0.9120 0.9120 0.9120
2.809419 0.9110 0.9110 0.9100 0.9080 0.9050
2.834000 0.9040 0.9020 0.9000 0.8980 0.8970
2.858419 0.8940 0.8920 0.8880 0.8860 0.8830
2.883000 0.8800 0.8760 0.8710 0.8660 0.8620
2.907419 0.8570 0.8510 0.8450 0.8390 0.8300
2.932000 0.8270 0.8130 0.7930 0.7670 0.7360
2.956419 0.7020 0.6660 0.6280 0.5920 0.5570
2.980000 0.5240 0.5180 0.5240 0.5590 0.5930
3.004419 0.6260 0.6570 0.7260 0.7330 0.7420
3.029000 0.7490 0.7580 0.7650 0.7750 0.7780
3.053419 0.7820 0.7880 0.7900 0.7930 0.7940
3.078000 0.7960 0.7990 0.7990 0.8010 0.8020
3.102419 0.8020 0.8040 0.8040 0.8020 0.8020
3.127000 0.8010 0.8010 0.8000 0.7980 0.7950
3.151419 0.7930 0.7890 0.7880 0.7840 0.7830
3.176000 0.7780 0.7730 0.7690 0.7670 0.7590
3.200419 0.7540 0.7490 0.7430 0.7400 0.7360
3.225000 0.7320 0.7290 0.7250 0.7210 0.7130
3.249419 0.7040 0.6960 0.6950 0.6880 0.6830
3.273000 0.6790 0.6720 0.6620 0.6500 0.6380
3.297419 0.6250 0.6100 0.5970 0.5860 0.5760
3.322000 0.5690 0.5640 0.5560 0.5480 0.5420
3.346419 0.5390 0.5340 0.5320 0.5270 0.5230
3.371000 0.5170 0.5100 0.5010 0.4890 0.4750
3.395419 0.4580 0.4360 0.4090 0.3840 0.3560
3.420000 0.3280 0.2970 0.2630 0.2270 0.1850
3.444419 0.1370 0.0830 0.0610 0.0370 0.0350
3.469000 0.0320 0.0290 0.0250 0.0120 0.0100
3.493419 0.0130 0.0260 0.0360 0.0470 0.0560
3.517000 0.0670 0.0770 0.0880 0.0970 0.1080
3.541419 0.1340 0.1480 0.1690 0.1660 0.1640
3.566000 0.1620 0.1600 0.1590 0.1590 0.1710
3.590419 0.2520 0.3090 0.3540 0.3920 0.4380
3.615000 0.4990 0.5360 0.5450 0.5480 0.5520
3.639419 0.5530 0.5560 0.5620 0.5630 0.5640
3.664000 0.5640 0.5640 0.5640 0.5620 0.5580
3.688419 0.5560 0.5550 0.5510 0.5470 0.5450
3.713000 0.5410 0.5390 0.5340 0.5340 0.5320
3.737419 0.5320 0.5320 0.5320 0.5320 0.5330
3.762000 0.5420 0.5510 0.5590 0.5650 0.5730
3.786419 0.5770 0.5820 0.5870 0.5910 0.5960
3.810000 0.5980 0.6020 0.6050 0.6080 0.6100
3.834419 0.6140 0.6160 0.6200 0.6230 0.6270
3.859000 0.6310 0.6340 0.6390 0.6450 0.6500
3.883419 0.6570 0.6650 0.6720 0.6780 0.6810
3.908000 0.6850 0.6880 0.6890 0.6900 0.6920
3.932419 0.6940 0.6940 0.6960 0.7000 0.7020
3.957000 0.7040 0.7070 0.7110 0.7150 0.7180
3.981419 0.7200 0.7240 0.7250 0.7250 0.7260
4.006000 0.7270 0.7290 0.7290 0.7310 0.7330
4.030419 0.7350 0.7360 0.7360 0.7370 0.7380
4.055000 0.7380 0.7400 0.7400 0.7360 0.7290
4.079419 0.7190 0.7170 0.7120 0.7110 0.7110
4.103000 0.7120 0.7170 0.7260 0.7380 0.7430
4.127419 0.7470 0.7520 0.7550 0.7620 0.7710
4.152000 0.7770 0.7810 0.7840 0.7870 0.7900
4.176419 0.7940 0.7990 0.8050 0.8120 0.8220
4.201000 0.8270 0.8300 0.8330 0.8360 0.8400
4.225419 0.8420 0.8470 0.8510 0.8540 0.8540
4.250000 0.8560 0.8570 0.8570 0.8580 0.8580
4.274419 0.8590 0.8590 0.8590 0.8590 0.8620
4.299000 0.8630 0.8630 0.8640 0.8650 0.8650
4.323419 0.8660 0.8680 0.8680 0.8660 0.8680
4.347000 0.8680 0.8690 0.8700 0.8740 0.8790
4.371419 0.8850 0.8860 0.8870 0.8880 0.8910
4.396000 0.8920 0.8930 0.8940 0.8960 0.8960
4.420419 0.8980 0.8980 0.8990 0.9000 0.9020
4.445000 0.9020 0.9030 0.9030 0.9030 0.9030
4.469419 0.9040 0.9040 0.9040 0.9040 0.9050
4.494000 0.9050 0.9060 0.9090 0.9090 0.9100
4.518419 0.9100 0.9110 0.9140 0.9180 0.9180
4.543000 0.9180 0.9180 0.9170 0.9160 0.9160
4.567419 0.9160 0.9150 0.9140 0.9140 0.9150
4.592000 0.9150 0.9150 0.9150 0.9150 0.9150
4.616419 0.9150 0.9150 0.9160 0.9170 0.9200
4.640000 0.9220 0.9220 0.9230 0.9230 0.9230
4.664419 0.9250 0.9250 0.9260 0.9260 0.9260
4.689000 0.9270 0.9270 0.9280 0.9280 0.9290
4.713419 0.9290 0.9310 0.9310 0.9310 0.9310
4.738000 0.9290 0.9290 0.9290 0.9290 0.9290
4.762419 0.9290 0.9290 0.9270 0.9270 0.9270
4.787000 0.9260 0.9260 0.9260 0.9290 0.9290
4.811419 0.9290 0.9290 0.9290 0.9290 0.9290
4.836000 0.9260 0.9250 0.9220 0.9220 0.9220
4.860419 0.9220 0.9220 0.9220 0.9220 0.9250
4.884000 0.9250 0.9250 0.9270 0.9280 0.9280
4.908419 0.9290 0.9290 0.9290 0.9290 0.9310
4.933000 0.9290 0.9270 0.9270 0.9270 0.9270
4.957419 0.9290 0.9290 0.9290 0.9280 0.9280
4.982000 0.9280 0.9280 0.9280 0.9280 0.9280
5.006419 0.9270 0.9270 0.9270 0.9270 0.9270
5.031000 0.9270 0.9270 0.9270 0.9260 0.9260
5.055419 0.9260 0.9260 0.9260 0.9250 0.9250
5.080000 0.9250 0.9250 0.9250 0.9250 0.9230
5.104419 0.9230 0.9230 0.9230 0.9220 0.9220
5.129000 0.9220 0.9220 0.9210 0.9210 0.9210
5.153419 0.9210 0.9210 0.9210 0.9210 0.9210
5.177000 0.9210 0.9210 0.9210 0.9210 0.9210
5.201419 0.9210 0.9210 0.9200 0.9210 0.9210
5.226000 0.9210 0.9210 0.9210 0.9210 0.9210
5.250419 0.9210 0.9210 0.9210 0.9220 0.9220
5.275000 0.9210 0.9210 0.9200 0.9180 0.9180
5.299419 0.9170 0.9170 0.9170 0.9170 0.9170
5.324000 0.9170 0.9180 0.9180 0.9200 0.9200
5.348419 0.9200 0.9200 0.9210 0.9210 0.9210
5.373000 0.9210 0.9210 0.9200 0.9200 0.9180
5.397419 0.9180 0.9180 0.9180 0.9180 0.9180
5.421000 0.9180 0.9180 0.9180 0.9180 0.9180
5.445419 0.9180 0.9180 0.9180 0.9180 0.9180
5.470000 0.9180 0.9200 0.9200 0.9200 0.9200
5.494419 0.9210 0.9210 0.9210 0.9210 0.9210
5.519000 0.9210 0.9210 0.9210 0.9210 0.9210
5.543419 0.9210 0.9210 0.9200 0.9200 0.9200
5.568000 0.9200 0.9200 0.9200 0.9200 0.9210
5.592419 0.9210 0.9210 0.9200 0.9200 0.9180
5.617000 0.9160 0.9160 0.9150 0.9160 0.9160
5.641419 0.9160 0.9170 0.9180 0.9200 0.9200
5.666000 0.9200 0.9170 0.9160 0.9160 0.9160
5.690419 0.9150 0.9150 0.9140 0.9120 0.9120
5.714000 0.9120 0.9110 0.9110 0.9110 0.9110
5.738419 0.9100 0.9090 0.9060 0.9030 0.9020
5.763000 0.9000 0.9020 0.9020 0.9040 0.9060
5.787419 0.9080 0.9090 0.9110 0.9140 0.9140
5.812000 0.9120 0.9110 0.9110 0.9110 0.9100
5.836419 0.9100 0.9090 0.9040 0.9040 0.8910
5.861000 0.8890 0.8890 0.8910 0.8910 0.8910
5.885419 0.8990 0.8990 0.8990 0.8990 0.8990
5.910000 0.8990 0.8940 0.8850 0.8820 0.8800
5.934419 0.8790 0.8760 0.8760 0.8760 0.8760
5.959000 0.8750 0.8740 0.8730 0.8710 0.8700
5.983419 0.8650 0.8640 0.8640 0.8630 0.8630
6.007000 0.8620 0.8620 0.8620 0.8600 0.8600
6.031419 0.8600 0.8580 0.8540 0.8520 0.8470
6.056000 0.8440 0.8420 0.8410 0.8390 0.8340
6.080419 0.8270 0.8220 0.8170 0.8110 0.8050
6.105000 0.7980 0.7900 0.7810 0.7690 0.7550
6.129419 0.7380 0.7200 0.6980 0.6740 0.6450
6.154000 0.6130 0.5810 0.5800 0.5800 0.5810
6.178419 0.5900 0.5930 0.5970 0.5990 0.6000
6.203000 0.5960 0.5930 0.5850 0.5760 0.5730
6.227419 0.5730 0.5730 0.5820 0.5820 0.5810
6.251000 0.5610 0.5400 0.5220 0.5070 0.4960
6.275419 0.4870 0.4780 0.4700 0.4610 0.4520
6.300000 0.4460 0.4440 0.4440 0.4470 0.5190
6.324419 0.5700 0.6040 0.6260 0.6430 0.6590
6.349000 0.6790 0.6900 0.6960 0.7020 0.7080
6.373419 0.7170 0.7250 0.7310 0.7320 0.7370
6.398000 0.7360 0.7320 0.7270 0.7170 0.7040
6.422419 0.6920 0.6860 0.6850 0.6770 0.6620
6.447000 0.6440 0.6250 0.6050 0.5870 0.5710
6.471419 0.5700 0.5710 0.5750 0.5790 0.5850
6.496000 0.5940 0.5980 0.6030 0.6100 0.6220
6.520419 0.6290 0.6380 0.6430 0.6790 0.6970
6.544000 0.7120 0.7260 0.7400 0.7530 0.7660
6.568419 0.7760 0.7820 0.7870 0.7920 0.7950
6.593000 0.7990 0.8010 0.8060 0.8100 0.8130
6.617419 0.8140 0.8160 0.8180 0.8180 0.8180
6.642000 0.8180 0.8080 0.8040 0.7980 0.7950
6.666419 0.7780 0.7670 0.7580 0.7460 0.7330
6.691000 0.7320 0.7020 0.6860 0.6690 0.6680
6.715419 0.6610 0.6510 0.6400 0.6290 0.6090
6.740000 0.5900 0.5750 0.5470 0.5220 0.4960
6.764419 0.4950 0.4950 0.4950 0.4980 0.5150
6.788000 0.5300 0.5320 0.5320 0.5290 0.4780
6.812419 0.4510 0.4240 0.3970 0.3620 0.3320
6.837000 0.3020 0.2700 0.2400 0.2100 0.2090
6.861419 0.2070 0.2070 0.2120 0.2180 0.2240
6.886000 0.2320 0.2450 0.2520 0.2590 0.2670
6.910419 0.2740 0.2810 0.2900 0.3140 0.3310
6.935000 0.3480 0.3650 0.3820 0.4000 0.5340
6.959419 0.5420 0.5520 0.5610 0.5620 0.5620
6.984000 0.5620 0.5620 0.5100 0.4590 0.4080
7.008419 0.4000 0.3780 0.3490 0.3190 0.2920
7.033000 0.2500 0.2300 0.2270 0.2270 0.2280
7.057419 0.2550 0.2950 0.3450 0.3990 0.4470
7.081000 0.4870 0.5100 0.5100 0.5110 0.5210
7.105419 0.5330 0.5450 0.5500 0.5550 0.5620
7.130000 0.5630 0.5590 0.5550 0.5460 0.5390
7.154419 0.5280 0.5150 0.4990 0.4840 0.4720
7.179000 0.4630 0.4570 0.4540 0.4510 0.4490
7.203419 0.4430 0.4230 0.4080 0.3920 0.3730
7.228000 0.3510 0.3260 0.2980 0.2660 0.2430
7.252419 0.2350 0.2260 0.2240 0.2240 0.2270
7.277000 0.2370 0.2450 0.2590 0.2610 0.2610
7.301419 0.2610 0.2610 0.2610 0.2610 0.2630
7.325000 0.2670 0.2740 0.2910 0.3010 0.3100
7.349419 0.3180 0.3240 0.3300 0.3340 0.3380
7.374000 0.3400 0.3420 0.3430 0.3430 0.3470
7.398419 0.3530 0.3610 0.3710 0.3830 0.3970
7.423000 0.4130 0.4290 0.4460 0.4630 0.4810
7.447419 0.4980 0.5150 0.5300 0.5460 0.5610
7.472000 0.5730 0.5840 0.5920 0.5980 0.6000
7.496419 0.6070 0.6110 0.6210 0.6310 0.6390
7.521000 0.6450 0.6500 0.6550 0.6570 0.6610
7.545419 0.6630 0.6660 0.6680 0.6710 0.6740
7.570000 0.6780 0.6830 0.6860 0.6910 0.6970
7.594419 0.7030 0.7090 0.7140 0.7190 0.7210
7.618000 0.7210 0.7210 0.7230 0.7210 0.7180
7.642419 0.7120 0.7040 0.6960 0.6860 0.6850
7.667000 0.6810 0.6850 0.6910 0.6980 0.7060
7.691419 0.7120 0.7190 0.7270 0.7350 0.7430
7.716000 0.7440 0.7480 0.7500 0.7500 0.7540
7.740419 0.7550 0.7580 0.7580 0.7560 0.7540
7.765000 0.7530 0.7470 0.7310 0.7300 0.7170
7.789419 0.7010 0.6920 0.6720 0.6590 0.6490
7.814000 0.6320 0.6080 0.6000 0.5990 0.5990
7.838419 0.5990 0.5980 0.5980 0.5980 0.5970
7.862000 0.5940 0.5900 0.5700 0.5460 0.5160
7.886419 0.4840 0.4520 0.4220 0.3950 0.3890
7.911000 0.3860 0.3850 0.3880 0.4060 0.4220
7.935419 0.4420 0.4660 0.4930 0.5220 0.5510
7.960000 0.5810 0.6090 0.6340 0.6430 0.6450
7.984419 0.6520 0.6620 0.6710 0.6730 0.6780
8.009000 0.6770 0.6730 0.6540 0.6440 0.6360
8.033419 0.6260 0.6170 0.6080 0.5990 0.5970
8.058000 0.5820 0.5590 0.5240 0.5050 0.4810
8.082419 0.4670 0.4550 0.4530 0.4550 0.4860
8.107000 0.5060 0.5180 0.5770 0.5960 0.6230
8.131419 0.6400 0.6590 0.6860 0.6980 0.7120
8.155000 0.7290 0.7350 0.7400 0.7460 0.7520
8.179419 0.7560 0.7620 0.7670 0.7730 0.7790
8.204000 0.7840 0.7900 0.7920 0.7990 0.8050
8.228419 0.8060 0.8080 0.8100 0.8110 0.8120
8.253000 0.8130 0.8140 0.8160 0.8160 0.8180
8.277419 0.8210 0.8230 0.8240 0.8250 0.8280
8.302000 0.8290 0.8300 0.8330 0.8350 0.8360
8.326419 0.8390 0.8400 0.8400 0.8400 0.8400
8.351000 0.8400 0.8400 0.8410 0.8400 0.8400
8.375419 0.8400 0.8400 0.8400 0.8390 0.8360
8.400000 0.8340 0.8310 0.8290 0.8290 0.8290
8.424419 0.8290 0.8310 0.8310 0.8350 0.8400
8.448000 0.8400 0.8400 0.8400 0.8400 0.8400
8.472419 0.8390 0.8390 0.8390 0.8390 0.8370
8.497000 0.8360 0.8340 0.8310 0.8280 0.8250
8.521419 0.8240 0.8230 0.8220 0.8220 0.8220
8.546000 0.8220 0.8220 0.8220 0.8210 0.8210
8.570419 0.8210 0.8190 0.8170 0.8120 0.8060
8.595000 0.7990 0.7890 0.7880 0.7880 0.7880
8.619419 0.7900 0.7920 0.7920 0.7920 0.7820
8.644000 0.7770 0.7710 0.7640 0.7590 0.7520
8.668419 0.7460 0.7380 0.7360 0.7310 0.7260
8.692000 0.7210 0.7200 0.7200 0.7200 0.7230
8.716419 0.7310 0.7350 0.7360 0.7350 0.7330
8.741000 0.7320 0.7310 0.7300 0.7310 0.7380
8.765419 0.7470 0.7540 0.7620 0.7700 0.7770
8.790000 0.7850 0.7930 0.8000 0.8060 0.8120
8.814419 0.8180 0.8230 0.8280 0.8310 0.8350
8.839000 0.8360 0.8410 0.8440 0.8470 0.8480
8.863419 0.8500 0.8500 0.8510 0.8510 0.8520
8.888000 0.8520 0.8530 0.8530 0.8560 0.8570
8.912419 0.8580 0.8590 0.8590 0.8590 0.8590
8.937000 0.8590 0.8590 0.8590 0.8590 0.8590
8.961419 0.8590 0.8590 0.8590 0.8590 0.8590
8.985000 0.8590 0.8590 0.8590 0.8590 0.8590
9.009419 0.8590 0.8590 0.8590 0.8590 0.8580
9.034000 0.8580 0.8580 0.8580 0.8580 0.8580
9.058419 0.8580 0.8580 0.8570 0.8560 0.8540
9.083000 0.8520 0.8500 0.8450 0.8400 0.8330
9.107419 0.8270 0.8190 0.8130 0.8050 0.7960
9.132000 0.7870 0.7770 0.7660 0.7540 0.7410
9.156419 0.7240 0.7110 0.7030 0.7020 0.7020
9.181000 0.7010 0.7020 0.7030 0.7060 0.7080
9.205419 0.7090 0.7120 0.7140 0.7170 0.7180
9.229000 0.7180 0.7190 0.7190 0.7210 0.7230
9.253419 0.7240 0.7290 0.7350 0.7370 0.7380
9.278000 0.7400 0.7400 0.7400 0.7410 0.7480
9.302419 0.7550 0.7650 0.7730 0.7820 0.7900
9.327000 0.7960 0.8000 0.8000 0.8050 0.8060
9.351419 0.8070 0.8080 0.8120 0.8140 0.8160
9.376000 0.8170 0.8170 0.8170 0.8170 0.8170
9.400419 0.8170 0.8130 0.8060 0.8040 0.7990
9.425000 0.7920 0.7870 0.7830 0.7780 0.7730
9.449419 0.7650 0.7560 0.7550 0.7560 0.7650
9.474000 0.7730 0.7820 0.7890 0.8000 0.8140
9.498419 0.8210 0.8230 0.8250 0.8300 0.8340
9.522000 0.8370 0.8370 0.8400 0.8410 0.8420
9.546419 0.8420 0.8440 0.8450 0.8460 0.8470
9.571000 0.8480 0.8500 0.8510 0.8510 0.8520
9.595419 0.8520 0.8520 0.8520 0.8520 0.8520
9.620000 0.8500 0.8400 0.8330 0.8280 0.8220
9.644419 0.8160 0.8100 0.8060 0.8010 0.7980
9.669000 0.7920 0.7930 0.7960 0.8010 0.8050
9.693419 0.8100 0.8130 0.8180 0.8210 0.8210
9.718000 0.8220 0.8220 0.8180 0.8170 0.8080
9.742419 0.7880 0.7750 0.7580 0.7370 0.7150
9.766000 0.6920 0.6690 0.6460 0.6260 0.6070
9.790419 0.5910 0.5870 0.5860 0.5880 0.5930
9.815000 0.5990 0.6050 0.6630 0.7140 0.7300
9.839419 0.7440 0.7580 0.7710 0.7820 0.7930
9.864000 0.8040 0.8120 0.8210 0.8290 0.8350
9.888419 0.8410 0.8460 0.8510 0.8530 0.8560
9.913000 0.8590 0.8630 0.8630 0.8650 0.8660
9.937419 0.8680 0.8700 0.8730 0.8740 0.8750
9.962000 0.8760 0.8770 0.8790 0.8800 0.8800
9.986419 0.8800 0.8800 0.8800 0.8800 0.8790
10.011000 0.8750 0.8710 0.8680 0.8630 0.8580
10.035419 0.8520 0.8500 0.8480 0.8460 0.8440
10.059000 0.8420 0.8440 0.8530 0.8630 0.8680
10.083419 0.8730 0.8750 0.8790 0.8830 0.8850
10.108000 0.8860 0.8870 0.8880 0.8880 0.8890
10.132419 0.8890 0.8910 0.8910 0.8910 0.8920
10.157000 0.8920 0.8920 0.8920 0.8920 0.8920
10.181419 0.8920 0.8920 0.8930 0.8930 0.8930
10.206000 0.8930 0.8930 0.8930 0.8930 0.8920
10.230419 0.8920 0.8920 0.8910 0.8910 0.8890
10.255000 0.8890 0.8890 0.8880 0.8880 0.8880
10.279419 0.8870 0.8870 0.8860 0.8860 0.8850
10.303000 0.8830 0.8830 0.8830 0.8820 0.8820
10.327419 0.8810 0.8810 0.8800 0.8800 0.8800
10.352000 0.8800 0.8790 0.8800 0.8800 0.8800
10.376419 0.8800 0.8820 0.8830 0.8850 0.8850
10.401000 0.8820 0.8810 0.8760 0.8730 0.8650
10.425419 0.8630 0.8570 0.8540 0.8520 0.8520
10.450000 0.8530 0.8520 0.8530 0.8540 0.8560
10.474419 0.8580 0.8600 0.8630 0.8650 0.8680
10.499000 0.8740 0.8800 0.8850 0.8880 0.8880
10.523419 0.8880 0.8880 0.8910 0.8910 0.8910
10.548000 0.8890 0.8890 0.8890 0.8890 0.8890
10.572419 0.8890 0.8880 0.8880 0.8870 0.8850
10.596000 0.8800 0.8770 0.8760 0.8760 0.8750
10.620419 0.8750 0.8750 0.8750 0.8760 0.8760
10.645000 0.8790 0.8800 0.8820 0.8830 0.8860
10.669419 0.8870 0.8880 0.8890 0.8880 0.8880
10.694000 0.8880 0.8880 0.8880 0.8880 0.8860
10.718419 0.8850 0.8850 0.8830 0.8820 0.8810
10.743000 0.8810 0.8800 0.8800 0.8790 0.8790
10.767419 0.8790 0.8770 0.8770 0.8770 0.8770
10.792000 0.8770 0.8790 0.8790 0.8800 0.8800
10.816419 0.8800 0.8800 0.8820 0.8820 0.8830
10.841000 0.8850 0.8850 0.8860 0.8860 0.8860
10.865419 0.8860 0.8850 0.8820 0.8770 0.8750
10.889000 0.8730 0.8700 0.8660 0.8640 0.8600
10.913419 0.8560 0.8500 0.8440 0.8360 0.8270
10.938000 0.8160 0.8110 0.8060 0.8000 0.7930
10.962419 0.7820 0.7690 0.7500 0.7400 0.7360
10.987000 0.7120 0.7040 0.6960 0.6940 0.6920
11.011419 0.6910 0.6910 0.6910 0.6910 0.6940
11.036000 0.6950 0.6970 0.7000 0.7020 0.7110
11.060419 0.7190 0.7270 0.7350 0.7430 0.7490
11.085000 0.7560 0.7640 0.7700 0.7760 0.7820
11.109419 0.7880 0.7940 0.8000 0.8040 0.8070
11.133000 0.8100 0.8120 0.8140 0.8170 0.8190
11.157419 0.8210 0.8230 0.8240 0.8270 0.8290
11.182000 0.8300 0.8330 0.8350 0.8360 0.8390
11.206419 0.8390 0.8400 0.8390 0.8400 0.8400
11.231000 0.8410 0.8400 0.8400 0.8390 0.8390
11.255419 0.8370 0.8370 0.8360 0.8360 0.8350
11.280000 0.8350 0.8340 0.8340 0.8330 0.8330
11.304419 0.8310 0.8310 0.8310 0.8310 0.8310
11.329000 0.8310 0.8310 0.8300 0.8300 0.8290
11.353419 0.8280 0.8280 0.8270 0.8270 0.8250
11.378000 0.8240 0.8240 0.8230 0.8230 0.8220
11.402419 0.8210 0.8190 0.8160 0.8120 0.8020
11.426000 0.7890 0.7750 0.7590 0.7430 0.7300
11.450419 0.7190 0.7120 0.7090 0.7070 0.7030
11.475000 0.7000 0.6960 0.6900 0.6850 0.6790
11.499419 0.6720 0.6650 0.6550 0.6450 0.6340
11.524000 0.6220 0.6090 0.6050 0.6000 0.5940
11.548419 0.5880 0.5810 0.5750 0.5680 0.5610
11.573000 0.5570 0.5550 0.5520 0.5510 0.5480
11.597419 0.5480 0.5480 0.5480 0.5480 0.5510
11.622000 0.5560 0.5610 0.5650 0.5700 0.5760
11.646419 0.5850 0.5920 0.5990 0.6070 0.6150
11.670000 0.6320 0.6430 0.6510 0.6710 0.6830
11.694419 0.6960 0.7070 0.7170 0.7260 0.7330
11.719000 0.7420 0.7480 0.7540 0.7590 0.7650
11.743419 0.7690 0.7730 0.7770 0.7810 0.7840
11.768000 0.7880 0.7920 0.7950 0.7980 0.8000
11.792419 0.8020 0.8060 0.8100 0.8130 0.8180
11.817000 0.8190 0.8210 0.8220 0.8250 0.8300
11.841419 0.8330 0.8340 0.8350 0.8360 0.8360
11.866000 0.8370 0.8370 0.8390 0.8390 0.8390
11.890419 0.8390 0.8390 0.8390 0.8390 0.8390
11.915000 0.8390 0.8390 0.8400 0.8400 0.8400
11.939419 0.8400 0.8400 0.8400 0.8390 0.8300
11.963000 0.8250 0.8220 0.8180 0.8120 0.8010
11.987419 0.7840 0.7580 0.7500 0.7400 0.7380
12.012000 0.7320 0.7250 0.7200 0.7140 0.7080
12.036419 0.7000 0.6910 0.6790 0.6680 0.6610
12.061000 0.6570 0.6610 0.6680 0.6800 0.6940
12.085419 0.7170 0.7250 0.7330 0.7420 0.7500
12.110000 0.7560 0.7710 0.7840 0.7920 0.7980
12.134419 0.8020 0.8070 0.8110 0.8140 0.8170
12.159000 0.8190 0.8210 0.8220 0.8230 0.8250
12.183419 0.8270 0.8280 0.8280 0.8290 0.8300
12.207000 0.8300 0.8300 0.8300 0.8300 0.8300
12.231419 0.8300 0.8300 0.8300 0.8300 0.8300
12.256000 0.8300 0.8300 0.8300 0.8300 0.8300
12.280419 0.8290 0.8290 0.8290 0.8280 0.8280
12.305000 0.8280 0.8280 0.8250 0.8240 0.8230
12.329419 0.8210 0.8190 0.8180 0.8180 0.8180
12.354000 0.8170 0.8170 0.8170 0.8160 0.8170
12.378419 0.8170 0.8160 0.8160 0.8160 0.8160
12.403000 0.8160 0.8160 0.8160 0.8140 0.8130
12.427419 0.8120 0.8100 0.8070 0.8060 0.8060
12.452000 0.8060 0.8060 0.8060 0.8060 0.8060
12.476419 0.8060 0.8060 0.8060 0.8050 0.8050
12.500000 0.8050 0.8050 0.8040 0.8040 0.8040
12.524419 0.8020 0.8020 0.8020 0.8010 0.8010
12.549000 0.8010 0.8000 0.7990 0.7980 0.7950
12.573419 0.7920 0.7890 0.7880 0.7850 0.7830
12.598000 0.7820 0.7810 0.7780 0.7770 0.7750
12.622419 0.7730 0.7710 0.7670 0.7650 0.7610
12.647000 0.7560 0.7520 0.7470 0.7420 0.7380
12.671419 0.7360 0.7320 0.7260 0.7190 0.7090
12.696000 0.6950 0.6770 0.6560 0.6380 0.6250
12.720419 0.6130 0.6030 0.5910 0.5900 0.5880
12.745000 0.5910 0.6090 0.6220 0.6400 0.6670
12.769419 0.6920 0.7120 0.7210 0.7320 0.7400
12.793000 0.7690 0.7940 0.8000 0.8270 0.8270
12.817419 0.8280 0.8290 0.8290 0.8280 0.8270
12.842000 0.8180 0.8110 0.7990 0.7980 0.7880
12.866419 0.7760 0.7640 0.7530 0.7430 0.7320
12.891000 0.7230 0.7130 0.7020 0.6900 0.6770
12.915419 0.6750 0.6660 0.6540 0.6430 0.6390
12.940000 0.6380 0.6360 0.6320 0.6310 0.6320
12.964419 0.6400 0.6560 0.6710 0.6840 0.6970
12.989000 0.7090 0.7210 0.7330 0.7430 0.7530
13.013419 0.7620 0.7700 0.7760 0.7820 0.7850
13.037000 0.7880 0.7900 0.7940 0.7950 0.7950
13.061419 0.7950 0.7950 0.7940 0.7920 0.7890
13.086000 0.7820 0.7770 0.7720 0.7670 0.7660
13.110419 0.7600 0.7440 0.7270 0.7070 0.6850
13.135000 0.6610 0.6360 0.6090 0.5800 0.5510
13.159419 0.5190 0.4870 0.4540 0.4200 0.3850
13.184000 0.3650 0.3610 0.3200 0.3190 0.3210
13.208419 0.3420 0.3760 0.4060 0.4360 0.4630
13.233000 0.4890 0.5250 0.5560 0.5840 0.6070
13.257419 0.6270 0.6450 0.6610 0.6730 0.6850
13.282000 0.6950 0.7040 0.7120 0.7130 0.7180
13.306419 0.7230 0.7240 0.7250 0.7260 0.7260
13.330000 0.7260 0.7260 0.7230 0.7200 0.7130
13.354419 0.7110 0.7090 0.7090 0.7090 0.7090
13.379000 0.7110 0.7120 0.7130 0.7150 0.7180
13.403419 0.7210 0.7250 0.7300 0.7350 0.7400
13.428000 0.7460 0.7500 0.7530 0.7560 0.7590
13.452419 0.7610 0.7620 0.7640 0.7650 0.7670
13.477000 0.7690 0.7700 0.7710 0.7710 0.7710
13.501419 0.7710 0.7710 0.7700 0.7700 0.7660
13.526000 0.7520 0.7440 0.7360 0.7290 0.7200
13.550419 0.7110 0.6980 0.6840 0.6670 0.6480
13.574000 0.6220 0.6150 0.6070 0.5980 0.5920
13.598419 0.5900 0.5920 0.6070 0.6170 0.6260
13.623000 0.6390 0.6540 0.6690 0.6850 0.6980
13.647419 0.7080 0.7190 0.7260 0.7310 0.7350
13.672000 0.7380 0.7410 0.7460 0.7500 0.7580
13.696419 0.7660 0.7690 0.7700 0.7720 0.7720
13.721000 0.7750 0.7770 0.7790 0.7820 0.7840
13.745419 0.7870 0.7880 0.7890 0.7920 0.7930
13.770000 0.7940 0.7960 0.7980 0.7990 0.8010
13.794419 0.8020 0.8040 0.8050 0.8060 0.8070
13.819000 0.8070 0.8080 0.8080 0.8080 0.8080
13.843419 0.8080 0.8080 0.8080 0.8080 0.8080
13.867000 0.8080 0.8070 0.8070 0.8070 0.8060
13.891419 0.8070 0.8070 0.8070 0.8070 0.8070
13.916000 0.8070 0.8070 0.8070 0.8070 0.8070
13.940419 0.8070 0.8070 0.8070 0.8070 0.8080
13.965000 0.8100 0.8100 0.8100 0.8110 0.8110
13.989419 0.8120 0.8120 0.8120 0.8140 0.8140
14.014000 0.8160 0.8160 0.8170 0.8180 0.8180
14.038419 0.8190 0.8190 0.8210 0.8210 0.8210
14.063000 0.8220 0.8220 0.8220 0.8220 0.8220
14.087419 0.8220 0.8220 0.8230 0.8210 0.8190
14.111000 0.8190 0.8170 0.8160 0.8120 0.8120
14.135419 0.8110 0.8100 0.8070 0.8040 0.8040
14.160000 0.8010 0.8000 0.7980 0.7950 0.7940
14.184419 0.7940 0.7920 0.7880 0.7870 0.7850
14.209000 0.7830 0.7810 0.7780 0.7750 0.7720
14.233419 0.7690 0.7640 0.7600 0.7560 0.7530
14.258000 0.7480 0.7440 0.7410 0.7370 0.7320
14.282419 0.7270 0.7190 0.7150 0.7090 0.7020
14.307000 0.6940 0.6850 0.6740 0.6630 0.6520
14.331419 0.6400 0.6280 0.6160 0.6040 0.5910
14.356000 0.5800 0.5680 0.5570 0.5460 0.5360
14.380419 0.5270 0.5190 0.5120 0.5030 0.4940
14.404000 0.4860 0.4760 0.4670 0.4600 0.4520
14.428419 0.4430 0.4340 0.4280 0.4260 0.4240
14.453000 0.4230 0.4230 0.4250 0.4460 0.4640
14.477419 0.4810 0.4920 0.5120 0.5320 0.5500
14.502000 0.5680 0.5860 0.6030 0.6190 0.6340
14.526419 0.6490 0.6630 0.6750 0.6880 0.6980
14.551000 0.7090 0.7180 0.7250 0.7310 0.7360
14.575419 0.7410 0.7430 0.7430 0.7500 0.7520
14.600000 0.7540 0.7550 0.7560 0.7590 0.7600
14.624419 0.7600 0.7610 0.7640 0.7660 0.7660
14.648000 0.7670 0.7670 0.7670 0.7670 0.7670
14.672419 0.7670 0.7670 0.7670 0.7670 0.7670
14.697000 0.7670 0.7670 0.7660 0.7660 0.7660
14.721419 0.7660 0.7650 0.7650 0.7640 0.7620
14.746000 0.7620 0.7610 0.7600 0.7600 0.7600
14.770419 0.7600 0.7600 0.7600 0.7600 0.7600
14.795000 0.7600 0.7590 0.7590 0.7580 0.7580
14.819419 0.7580 0.7560 0.7550 0.7550 0.7540
14.844000 0.7530 0.7530 0.7520 0.7500 0.7490
14.868419 0.7490 0.7480 0.7470 0.7460 0.7440
14.893000 0.7430 0.7420 0.7410 0.7400 0.7380
14.917419 0.7370 0.7370 0.7370 0.7370 0.7370
14.941000 0.7370 0.7360 0.7360 0.7360 0.7360
14.965419 0.7360 0.7350 0.7330 0.7330 0.7320
14.990000 0.7300 0.7260 0.7240 0.7210 0.7200
15.014419 0.7190 0.7170 0.7150 0.7130 0.7120
15.039000 0.7110 0.7110 0.7110 0.7110 0.7110
15.063419 0.7120 0.7120 0.7140 0.7140 0.7150
15.088000 0.7150 0.7150 0.7150 0.7150 0.7140
15.112419 0.7140 0.7120 0.7120 0.7120 0.7110
15.137000 0.7110 0.7090 0.7090 0.7090 0.7080
15.161419 0.7080 0.7080 0.7070 0.7070 0.7060
15.186000 0.7060 0.7040 0.7030 0.7020 0.7020
15.210419 0.7010 0.7000 0.7000 0.6980 0.6970
15.234000 0.6960 0.6960 0.6950 0.6940 0.6940
15.258419 0.6920 0.6910 0.6900 0.6900 0.6890
15.283000 0.6880 0.6860 0.6860 0.6850 0.6840
15.307419 0.6830 0.6810 0.6780 0.6750 0.6710
15.332000 0.6650 0.6620 0.6600 0.6560 0.6540
15.356419 0.6500 0.6480 0.6440 0.6400 0.6370
15.381000 0.6320 0.6280 0.6230 0.6190 0.6130
15.405419 0.6070 0.6000 0.5930 0.5900 0.5850
15.430000 0.5790 0.5740 0.5690 0.5630 0.5580
15.454419 0.5530 0.5480 0.5450 0.5410 0.5400
15.478000 0.5400 0.5400 0.5410 0.5420 0.5450
15.502419 0.5530 0.5580 0.5650 0.5730 0.5790
15.527000 0.5850 0.5900 0.5930 0.5980 0.6000
15.551419 0.6040 0.6070 0.6090 0.6110 0.6140
15.576000 0.6150 0.6160 0.6190 0.6200 0.6210
15.600419 0.6230 0.6250 0.6260 0.6260 0.6270
15.625000 0.6270 0.6280 0.6280 0.6290 0.6310
15.649419 0.6310 0.6310 0.6310 0.6310 0.6310
15.674000 0.6310 0.6310 0.6310 0.6310 0.6310
15.698419 0.6310 0.6310 0.6310 0.6310
##END=
