##TITLE=MERCURIC OXALATE
##JCAMP-DX=4.24
##DATA TYPE=INFRARED SPECTRUM
##CLASS=COBLENTZ
##OWNER=COBLENTZ SOCIETY
Collection (C) 2018 copyright by the U.S. Secretary of Commerce
on behalf of the United States of America. All rights reserved.
##DATE=Not specified, most likely prior to 1970
##MOLFORM=Hg C2 O4
##SOURCE REFERENCE=COBLENTZ NO. 68
##$NIST ID=B6000068
##$NIST SOURCE=COBLENTZ
##$NIST IMAGE=cob68
##SPECTROMETER/DATA SYSTEM=Not specified, most likely a prism, grating, or hybrid spectrometer.
##STATE=SOLID (KBr DISC)
##SAMPLING PROCEDURE=TRANSMISSION
##RESOLUTION=4
##DATA PROCESSING=DIGITIZED BY NIST FROM HARD COPY
##XUNITS=MICROMETERS
##YUNITS=TRANSMITTANCE
##XFACTOR=1.000000
##YFACTOR=1
##DELTAX=000.007653
##FIRSTX=1.964
##LASTX=15.3116
##FIRSTY=0.545
##MAXX=15.3116
##MINX=1.964
##MAXY=0.964
##MINY=0.051
##NPOINTS=1745
##XYDATA=(X++(Y..Y))
1.964000 0.5450 0.5470 0.5510 0.5510 0.5450
2.002287 0.5470 0.5510 0.5510 0.5540 0.5590
2.041000 0.5600 0.5630 0.5660 0.5680 0.5710
2.079287 0.5720 0.5770 0.5800 0.5830 0.5840
2.117000 0.5900 0.5930 0.5960 0.5990 0.6000
2.155287 0.6030 0.6060 0.6090 0.6090 0.6110
2.194000 0.6170 0.6180 0.6200 0.6230 0.6240
2.232287 0.6240 0.6260 0.6260 0.6290 0.6300
2.270000 0.6330 0.6350 0.6360 0.6390 0.6420
2.308287 0.6450 0.6460 0.6480 0.6490 0.6520
2.347000 0.6540 0.6540 0.6580 0.6640 0.6670
2.385287 0.6690 0.6690 0.6720 0.6720 0.6750
2.423000 0.6790 0.6820 0.6820 0.6830 0.6830
2.461287 0.6850 0.6880 0.6890 0.6890 0.6920
2.500000 0.6950 0.6980 0.7010 0.7040 0.7060
2.538287 0.7060 0.7070 0.7090 0.7100 0.7130
2.577000 0.7160 0.7180 0.7210 0.7240 0.7250
2.615287 0.7270 0.7270 0.7280 0.7290 0.7290
2.653000 0.7290 0.7310 0.7320 0.7350 0.7410
2.691287 0.7410 0.7430 0.7430 0.7430 0.7440
2.730000 0.7440 0.7440 0.7410 0.7400 0.7310
2.768287 0.7280 0.7210 0.7150 0.7060 0.7010
2.806000 0.6920 0.6810 0.6750 0.6660 0.6610
2.844287 0.6510 0.6460 0.6420 0.6360 0.6320
2.883000 0.6270 0.6210 0.6150 0.6120 0.6110
2.921287 0.6090 0.6090 0.6080 0.6080 0.6090
2.959000 0.6150 0.6230 0.6260 0.6270 0.6350
2.997287 0.6430 0.6510 0.6540 0.6630 0.6690
3.036000 0.6750 0.6790 0.6820 0.6910 0.6980
3.074287 0.7040 0.7130 0.7190 0.7240 0.7340
3.112000 0.7410 0.7460 0.7500 0.7560 0.7590
3.150287 0.7670 0.7680 0.7740 0.7810 0.7870
3.189000 0.7900 0.7930 0.7950 0.7960 0.7980
3.227287 0.7990 0.8010 0.8020 0.8040 0.8050
3.265000 0.8070 0.8070 0.8080 0.8100 0.8110
3.303287 0.8140 0.8160 0.8170 0.8170 0.8180
3.342000 0.8180 0.8210 0.8260 0.8270 0.8300
3.380287 0.8320 0.8330 0.8330 0.8350 0.8360
3.418000 0.8360 0.8360 0.8360 0.8380 0.8360
3.456287 0.8380 0.8390 0.8410 0.8440 0.8470
3.495000 0.8510 0.8540 0.8560 0.8560 0.8570
3.533287 0.8590 0.8600 0.8600 0.8620 0.8630
3.571000 0.8640 0.8660 0.8660 0.8670 0.8670
3.609287 0.8670 0.8690 0.8700 0.8700 0.8700
3.648000 0.8700 0.8700 0.8720 0.8720 0.8720
3.686287 0.8720 0.8720 0.8730 0.8730 0.8730
3.724000 0.8730 0.8730 0.8730 0.8730 0.8730
3.762287 0.8730 0.8720 0.8720 0.8720 0.8730
3.801000 0.8730 0.8730 0.8750 0.8760 0.8760
3.839287 0.8780 0.8790 0.8820 0.8840 0.8850
3.878000 0.8870 0.8880 0.8880 0.8880 0.8880
3.916287 0.8880 0.8900 0.8900 0.8900 0.8900
3.954000 0.8910 0.8910 0.8930 0.8930 0.8940
3.992287 0.8940 0.8940 0.8960 0.8960 0.8960
4.031000 0.8970 0.8990 0.8990 0.8990 0.8990
4.069287 0.9020 0.9030 0.9050 0.9060 0.9080
4.107000 0.9080 0.9090 0.9090 0.9100 0.9100
4.145287 0.9100 0.9100 0.9120 0.9130 0.9130
4.184000 0.9130 0.9130 0.9150 0.9150 0.9130
4.222287 0.9130 0.9150 0.9150 0.9150 0.9150
4.260000 0.9150 0.9150 0.9130 0.9130 0.9130
4.298287 0.9130 0.9130 0.9130 0.9150 0.9160
4.337000 0.9180 0.9190 0.9210 0.9220 0.9240
4.375287 0.9240 0.9240 0.9240 0.9250 0.9250
4.413000 0.9250 0.9270 0.9270 0.9270 0.9270
4.451287 0.9280 0.9280 0.9280 0.9300 0.9300
4.490000 0.9300 0.9300 0.9300 0.9300 0.9310
4.528287 0.9300 0.9300 0.9300 0.9300 0.9300
4.566000 0.9310 0.9310 0.9310 0.9300 0.9310
4.604287 0.9330 0.9310 0.9310 0.9330 0.9310
4.643000 0.9330 0.9330 0.9310 0.9330 0.9330
4.681287 0.9340 0.9340 0.9360 0.9360 0.9360
4.719000 0.9360 0.9370 0.9370 0.9370 0.9370
4.757287 0.9370 0.9370 0.9370 0.9390 0.9390
4.796000 0.9390 0.9390 0.9390 0.9390 0.9400
4.834287 0.9400 0.9420 0.9420 0.9420 0.9430
4.872000 0.9430 0.9430 0.9430 0.9430 0.9430
4.910287 0.9430 0.9450 0.9450 0.9460 0.9460
4.949000 0.9460 0.9480 0.9480 0.9480 0.9480
4.987287 0.9480 0.9480 0.9490 0.9490 0.9490
5.026000 0.9490 0.9490 0.9510 0.9510 0.9510
5.064287 0.9510 0.9510 0.9510 0.9520 0.9520
5.102000 0.9520 0.9520 0.9510 0.9520 0.9520
5.140287 0.9520 0.9520 0.9520 0.9510 0.9510
5.179000 0.9490 0.9480 0.9480 0.9460 0.9460
5.217287 0.9460 0.9450 0.9430 0.9430 0.9420
5.255000 0.9400 0.9400 0.9400 0.9400 0.9400
5.293287 0.9400 0.9400 0.9400 0.9400 0.9400
5.332000 0.9400 0.9400 0.9400 0.9400 0.9400
5.370287 0.9400 0.9390 0.9390 0.9390 0.9390
5.408000 0.9390 0.9390 0.9370 0.9370 0.9370
5.446287 0.9360 0.9360 0.9360 0.9360 0.9360
5.485000 0.9340 0.9330 0.9310 0.9280 0.9270
5.523287 0.9250 0.9240 0.9210 0.9180 0.9160
5.561000 0.9150 0.9100 0.9090 0.9030 0.9000
5.599287 0.8990 0.8990 0.8990 0.8990 0.9000
5.638000 0.9020 0.9030 0.9050 0.9050 0.9050
5.676287 0.9030 0.9030 0.9030 0.9000 0.8970
5.714000 0.8940 0.8910 0.8870 0.8850 0.8820
5.752287 0.8780 0.8750 0.8530 0.8450 0.8360
5.791000 0.8300 0.8230 0.8140 0.8010 0.7840
5.829287 0.7640 0.7520 0.7220 0.7090 0.6820
5.867000 0.6460 0.6000 0.5780 0.5600 0.5400
5.905287 0.4850 0.4650 0.4190 0.3870 0.3480
5.944000 0.3160 0.2860 0.2610 0.2040 0.1690
5.982287 0.1600 0.1450 0.1320 0.1060 0.0910
6.020000 0.0830 0.0770 0.0720 0.0680 0.0560
6.058287 0.0540 0.0530 0.0530 0.0530 0.0530
6.097000 0.0510 0.0510 0.0510 0.0510 0.0530
6.135287 0.0540 0.0540 0.0570 0.0600 0.0650
6.173000 0.0710 0.0840 0.1000 0.1140 0.1260
6.211287 0.1640 0.1820 0.2320 0.2440 0.2560
6.250000 0.2800 0.3140 0.3380 0.3570 0.3750
6.288287 0.4030 0.4330 0.4640 0.4950 0.5080
6.327000 0.5220 0.5430 0.5500 0.5990 0.6080
6.365287 0.6150 0.6210 0.6270 0.6360 0.6510
6.403000 0.6720 0.6880 0.7150 0.7220 0.7310
6.441287 0.7320 0.7350 0.7430 0.7470 0.7520
6.480000 0.7610 0.7740 0.7860 0.7900 0.7950
6.518287 0.7960 0.8010 0.8040 0.8050 0.8070
6.556000 0.8130 0.8130 0.8170 0.8210 0.8240
6.594287 0.8300 0.8300 0.8330 0.8350 0.8380
6.633000 0.8420 0.8440 0.8440 0.8470 0.8500
6.671287 0.8530 0.8530 0.8540 0.8560 0.8570
6.709000 0.8590 0.8620 0.8640 0.8660 0.8660
6.747287 0.8670 0.8690 0.8690 0.8700 0.8720
6.786000 0.8730 0.8750 0.8760 0.8780 0.8790
6.824287 0.8810 0.8820 0.8840 0.8850 0.8870
6.862000 0.8880 0.8900 0.8910 0.8930 0.8940
6.900287 0.8940 0.8940 0.8960 0.8960 0.8970
6.939000 0.8970 0.8970 0.8970 0.8970 0.8990
6.977287 0.8990 0.8990 0.8990 0.8990 0.9000
7.015000 0.9000 0.9000 0.9000 0.9000 0.9000
7.053287 0.9000 0.9000 0.9000 0.9000 0.9000
7.092000 0.9000 0.9000 0.9000 0.9000 0.9000
7.130287 0.9000 0.9000 0.9000 0.8960 0.8910
7.168000 0.8850 0.8750 0.8240 0.8070 0.7770
7.206287 0.7530 0.6830 0.6760 0.6700 0.6700
7.245000 0.6980 0.7060 0.7290 0.7490 0.7670
7.283287 0.7960 0.8160 0.8270 0.8410 0.8510
7.321000 0.8660 0.8730 0.8790 0.8850 0.8940
7.359287 0.8970 0.9020 0.9030 0.9050 0.9060
7.398000 0.9080 0.9080 0.9080 0.9080 0.9080
7.436287 0.9080 0.9080 0.9080 0.9060 0.9050
7.474000 0.9020 0.8970 0.8940 0.8880 0.8810
7.512287 0.8760 0.8640 0.8600 0.8530 0.8470
7.551000 0.8390 0.8260 0.8130 0.7980 0.7860
7.589287 0.7680 0.7500 0.7220 0.7000 0.6780
7.628000 0.6610 0.6600 0.6570 0.6600 0.6630
7.666287 0.6640 0.6700 0.6660 0.6610 0.5870
7.704000 0.5430 0.4670 0.4340 0.3910 0.2830
7.742287 0.2150 0.1970 0.1600 0.1400 0.1090
7.781000 0.1080 0.1050 0.1060 0.1110 0.1120
7.819287 0.1150 0.1240 0.1260 0.1260 0.1200
7.857000 0.1030 0.0970 0.0960 0.0910 0.0900
7.895287 0.0910 0.0940 0.1080 0.1200 0.1300
7.934000 0.1940 0.2560 0.2980 0.3170 0.3530
7.972287 0.4060 0.4590 0.5110 0.5410 0.6110
8.010000 0.6330 0.6540 0.6790 0.6920 0.7070
8.048287 0.7350 0.7490 0.7620 0.7740 0.7800
8.087000 0.7860 0.7920 0.7990 0.8050 0.8110
8.125287 0.8140 0.8170 0.8230 0.8290 0.8350
8.163000 0.8380 0.8390 0.8420 0.8440 0.8450
8.201287 0.8480 0.8510 0.8560 0.8590 0.8600
8.240000 0.8620 0.8620 0.8630 0.8640 0.8660
8.278287 0.8690 0.8730 0.8750 0.8760 0.8790
8.316000 0.8820 0.8850 0.8880 0.8910 0.8930
8.354287 0.8960 0.8970 0.9000 0.9020 0.9050
8.393000 0.9090 0.9100 0.9120 0.9130 0.9150
8.431287 0.9180 0.9190 0.9190 0.9220 0.9220
8.469000 0.9240 0.9250 0.9250 0.9250 0.9270
8.507287 0.9270 0.9270 0.9280 0.9280 0.9300
8.546000 0.9300 0.9300 0.9300 0.9310 0.9310
8.584287 0.9310 0.9310 0.9310 0.9330 0.9330
8.622000 0.9330 0.9330 0.9340 0.9340 0.9340
8.660287 0.9340 0.9340 0.9340 0.9340 0.9340
8.699000 0.9340 0.9340 0.9340 0.9360 0.9360
8.737287 0.9370 0.9370 0.9370 0.9390 0.9390
8.776000 0.9390 0.9390 0.9400 0.9400 0.9400
8.814287 0.9400 0.9400 0.9400 0.9400 0.9420
8.852000 0.9420 0.9400 0.9400 0.9400 0.9420
8.890287 0.9420 0.9420 0.9420 0.9420 0.9420
8.929000 0.9430 0.9430 0.9430 0.9430 0.9430
8.967287 0.9430 0.9430 0.9430 0.9430 0.9450
9.005000 0.9450 0.9460 0.9480 0.9490 0.9510
9.043287 0.9510 0.9520 0.9520 0.9540 0.9540
9.082000 0.9540 0.9540 0.9540 0.9550 0.9550
9.120287 0.9550 0.9550 0.9550 0.9550 0.9550
9.158000 0.9560 0.9560 0.9560 0.9560 0.9560
9.196287 0.9560 0.9560 0.9560 0.9560 0.9560
9.235000 0.9560 0.9560 0.9560 0.9560 0.9560
9.273287 0.9560 0.9560 0.9560 0.9560 0.9560
9.311000 0.9560 0.9560 0.9560 0.9560 0.9560
9.349287 0.9560 0.9560 0.9580 0.9580 0.9580
9.388000 0.9580 0.9580 0.9580 0.9580 0.9580
9.426287 0.9580 0.9590 0.9590 0.9590 0.9580
9.464000 0.9580 0.9580 0.9580 0.9580 0.9580
9.502287 0.9580 0.9580 0.9580 0.9590 0.9590
9.541000 0.9590 0.9590 0.9590 0.9590 0.9590
9.579287 0.9590 0.9590 0.9590 0.9590 0.9590
9.617000 0.9590 0.9590 0.9610 0.9610 0.9610
9.655287 0.9610 0.9610 0.9610 0.9610 0.9610
9.694000 0.9610 0.9610 0.9610 0.9610 0.9610
9.732287 0.9610 0.9610 0.9610 0.9620 0.9620
9.770000 0.9620 0.9620 0.9620 0.9620 0.9620
9.808287 0.9620 0.9620 0.9640 0.9640 0.9640
9.847000 0.9640 0.9640 0.9640 0.9640 0.9640
9.885287 0.9640 0.9640 0.9640 0.9640 0.9640
9.923000 0.9640 0.9640 0.9640 0.9640 0.9640
9.961287 0.9640 0.9640 0.9640 0.9640 0.9640
10.000000 0.9640 0.9640 0.9640 0.9640 0.9640
10.038287 0.9640 0.9640 0.9620 0.9620 0.9620
10.077000 0.9620 0.9620 0.9620 0.9620 0.9620
10.115287 0.9620 0.9620 0.9640 0.9620 0.9620
10.153000 0.9620 0.9620 0.9620 0.9620 0.9620
10.191287 0.9620 0.9620 0.9620 0.9620 0.9620
10.230000 0.9620 0.9620 0.9620 0.9620 0.9620
10.268287 0.9620 0.9620 0.9620 0.9620 0.9620
10.306000 0.9620 0.9620 0.9620 0.9620 0.9620
10.344287 0.9620 0.9620 0.9620 0.9620 0.9620
10.383000 0.9620 0.9620 0.9620 0.9620 0.9620
10.421287 0.9620 0.9620 0.9620 0.9620 0.9610
10.459000 0.9610 0.9610 0.9610 0.9610 0.9610
10.497287 0.9610 0.9610 0.9610 0.9610 0.9610
10.536000 0.9610 0.9610 0.9610 0.9610 0.9610
10.574287 0.9610 0.9610 0.9610 0.9610 0.9610
10.612000 0.9610 0.9610 0.9610 0.9610 0.9610
10.650287 0.9610 0.9590 0.9610 0.9610 0.9610
10.689000 0.9610 0.9610 0.9610 0.9610 0.9610
10.727287 0.9610 0.9610 0.9610 0.9610 0.9610
10.765000 0.9610 0.9610 0.9610 0.9610 0.9610
10.803287 0.9610 0.9610 0.9610 0.9610 0.9610
10.842000 0.9610 0.9610 0.9610 0.9610 0.9610
10.880287 0.9610 0.9610 0.9610 0.9610 0.9610
10.918000 0.9590 0.9590 0.9610 0.9610 0.9610
10.956287 0.9610 0.9610 0.9610 0.9610 0.9610
10.995000 0.9610 0.9620 0.9620 0.9620 0.9620
11.033287 0.9620 0.9620 0.9620 0.9620 0.9620
11.071000 0.9620 0.9620 0.9620 0.9620 0.9620
11.109287 0.9620 0.9620 0.9620 0.9620 0.9620
11.148000 0.9620 0.9620 0.9640 0.9640 0.9620
11.186287 0.9620 0.9620 0.9620 0.9620 0.9620
11.224000 0.9620 0.9620 0.9620 0.9620 0.9610
11.262287 0.9610 0.9610 0.9610 0.9590 0.9590
11.301000 0.9590 0.9590 0.9590 0.9590 0.9590
11.339287 0.9590 0.9590 0.9590 0.9580 0.9580
11.378000 0.9580 0.9580 0.9580 0.9580 0.9560
11.416287 0.9560 0.9560 0.9560 0.9580 0.9580
11.454000 0.9580 0.9580 0.9580 0.9580 0.9580
11.492287 0.9580 0.9580 0.9580 0.9580 0.9580
11.531000 0.9580 0.9580 0.9580 0.9580 0.9580
11.569287 0.9580 0.9580 0.9580 0.9580 0.9580
11.607000 0.9580 0.9580 0.9580 0.9580 0.9580
11.645287 0.9580 0.9580 0.9580 0.9580 0.9580
11.684000 0.9580 0.9580 0.9580 0.9580 0.9580
11.722287 0.9580 0.9580 0.9580 0.9580 0.9580
11.760000 0.9580 0.9580 0.9580 0.9580 0.9580
11.798287 0.9560 0.9560 0.9560 0.9560 0.9580
11.837000 0.9580 0.9580 0.9560 0.9550 0.9550
11.875287 0.9550 0.9550 0.9550 0.9550 0.9550
11.913000 0.9550 0.9550 0.9550 0.9550 0.9550
11.951287 0.9550 0.9550 0.9550 0.9550 0.9540
11.990000 0.9540 0.9540 0.9540 0.9540 0.9540
12.028287 0.9540 0.9540 0.9540 0.9550 0.9540
12.066000 0.9540 0.9540 0.9540 0.9540 0.9540
12.104287 0.9540 0.9540 0.9540 0.9540 0.9540
12.143000 0.9540 0.9540 0.9540 0.9540 0.9540
12.181287 0.9540 0.9540 0.9540 0.9540 0.9540
12.219000 0.9540 0.9540 0.9540 0.9520 0.9520
12.257287 0.9520 0.9520 0.9520 0.9520 0.9520
12.296000 0.9520 0.9510 0.9510 0.9510 0.9510
12.334287 0.9510 0.9510 0.9510 0.9510 0.9510
12.372000 0.9510 0.9510 0.9510 0.9510 0.9490
12.410287 0.9480 0.9480 0.9460 0.9450 0.9430
12.449000 0.9430 0.9420 0.9400 0.9400 0.9400
12.487287 0.9390 0.9390 0.9390 0.9390 0.9340
12.526000 0.9340 0.9330 0.9310 0.9280 0.9280
12.564287 0.9270 0.9270 0.9250 0.9240 0.9220
12.602000 0.9150 0.9090 0.9030 0.8960 0.8900
12.640287 0.8840 0.8750 0.8560 0.8380 0.8180
12.679000 0.7960 0.7740 0.7500 0.6730 0.6350
12.717287 0.5340 0.4090 0.3380 0.3160 0.2720
12.755000 0.2220 0.2100 0.2040 0.1970 0.1950
12.793287 0.1920 0.1920 0.1920 0.1950 0.2130
12.832000 0.2620 0.3100 0.3730 0.4360 0.4850
12.870287 0.5340 0.6080 0.6360 0.6640 0.7030
12.908000 0.7320 0.7430 0.7530 0.7700 0.7870
12.946287 0.7980 0.7990 0.8020 0.8040 0.8050
12.985000 0.8070 0.8070 0.8070 0.8070 0.8110
13.023287 0.8160 0.8330 0.8380 0.8420 0.8450
13.061000 0.8500 0.8560 0.8620 0.8700 0.8730
13.099287 0.8750 0.8780 0.8810 0.8840 0.8880
13.138000 0.8900 0.8910 0.8960 0.8970 0.9000
13.176287 0.9000 0.9020 0.9030 0.9030 0.9060
13.214000 0.9080 0.9090 0.9100 0.9120 0.9130
13.252287 0.9130 0.9150 0.9150 0.9160 0.9160
13.291000 0.9160 0.9160 0.9160 0.9180 0.9190
13.329287 0.9190 0.9210 0.9210 0.9220 0.9240
13.367000 0.9240 0.9250 0.9250 0.9250 0.9250
13.405287 0.9250 0.9250 0.9250 0.9250 0.9250
13.444000 0.9250 0.9250 0.9250 0.9250 0.9250
13.482287 0.9250 0.9250 0.9250 0.9270 0.9270
13.520000 0.9270 0.9270 0.9270 0.9270 0.9270
13.558287 0.9270 0.9270 0.9270 0.9270 0.9270
13.597000 0.9270 0.9270 0.9270 0.9270 0.9270
13.635287 0.9270 0.9270 0.9270 0.9250 0.9250
13.673000 0.9250 0.9250 0.9250 0.9250 0.9250
13.711287 0.9250 0.9250 0.9250 0.9250 0.9250
13.750000 0.9250 0.9250 0.9250 0.9250 0.9250
13.788287 0.9250 0.9250 0.9250 0.9250 0.9250
13.827000 0.9250 0.9270 0.9270 0.9270 0.9270
13.865287 0.9270 0.9270 0.9270 0.9270 0.9270
13.903000 0.9270 0.9270 0.9270 0.9270 0.9270
13.941287 0.9270 0.9270 0.9270 0.9270 0.9270
13.980000 0.9270 0.9270 0.9270 0.9270 0.9270
14.018287 0.9270 0.9270 0.9270 0.9270 0.9270
14.056000 0.9270 0.9270 0.9270 0.9270 0.9270
14.094287 0.9280 0.9270 0.9270 0.9270 0.9270
14.133000 0.9270 0.9270 0.9270 0.9270 0.9270
14.171287 0.9270 0.9270 0.9270 0.9270 0.9270
14.209000 0.9270 0.9270 0.9270 0.9280 0.9280
14.247287 0.9270 0.9250 0.9250 0.9250 0.9250
14.286000 0.9270 0.9270 0.9270 0.9270 0.9270
14.324287 0.9270 0.9270 0.9270 0.9250 0.9250
14.362000 0.9250 0.9250 0.9250 0.9250 0.9250
14.400287 0.9240 0.9240 0.9240 0.9240 0.9220
14.439000 0.9220 0.9220 0.9240 0.9220 0.9220
14.477287 0.9220 0.9210 0.9210 0.9210 0.9210
14.515000 0.9210 0.9210 0.9210 0.9210 0.9210
14.553287 0.9210 0.9210 0.9210 0.9210 0.9190
14.592000 0.9190 0.9190 0.9180 0.9180 0.9180
14.630287 0.9180 0.9180 0.9160 0.9160 0.9160
14.668000 0.9160 0.9160 0.9150 0.9150 0.9150
14.706287 0.9150 0.9150 0.9150 0.9130 0.9130
14.745000 0.9130 0.9130 0.9130 0.9130 0.9120
14.783287 0.9120 0.9120 0.9120 0.9120 0.9100
14.821000 0.9100 0.9100 0.9100 0.9090 0.9090
14.859287 0.9080 0.9080 0.9060 0.9060 0.9080
14.898000 0.9080 0.9060 0.9060 0.9060 0.9050
14.936287 0.9050 0.9050 0.9050 0.9050 0.9050
14.974000 0.9050 0.9050 0.9030 0.9030 0.9030
15.012287 0.9020 0.9020 0.9020 0.9020 0.9020
15.051000 0.9020 0.9020 0.9020 0.9000 0.9000
15.089287 0.9000 0.9000 0.9000 0.8990 0.8990
15.128000 0.8990 0.8990 0.8990 0.8970 0.8970
15.166287 0.8970 0.8970 0.8960 0.8960 0.8960
15.204000 0.8960 0.8960 0.8960 0.8960 0.8960
15.242287 0.8960 0.8960 0.8960 0.8960 0.8960
15.281000 0.8960 0.8940 0.8940 0.8940 0.8930
##END=
