##TITLE=5-P-ANISYL-7-OXO-1,2,3a,4-TETRAZAINDENE
##JCAMP-DX=4.24
##DATA TYPE=INFRARED SPECTRUM
##CLASS=COBLENTZ
##ORIGIN=EASTMAN KODAK COMPANY, RESEARCH LABORATORIES, ROCHESTER, N.Y.
##OWNER=COBLENTZ SOCIETY
Collection (C) 2018 copyright by the U.S. Secretary of Commerce
on behalf of the United States of America. All rights reserved.
##DATE=Not specified, most likely prior to 1970
##NAMES=6-(4-methoxyphenyl)[1,2,4]triazolo[1,5-b]pyridazin-8(5H)-one
##MOLFORM=C12 H10 N4 O2
$$ J. ORG. CHEM. 26, 3834(1961), COMPOUND V
##MP=283-285 C
##SOURCE REFERENCE=COBLENTZ NO. 2147
##$NIST ID=B6002147
##$NIST SOURCE=COBLENTZ
##$NIST IMAGE=cob2147
##SPECTROMETER/DATA SYSTEM=Not specified, most likely a prism, grating, or hybrid spectrometer.
##STATE=SOLID (KBr PRESSING)
##SAMPLING PROCEDURE=TRANSMISSION
##RESOLUTION=4
##DATA PROCESSING=DIGITIZED BY NIST FROM HARD COPY
##XUNITS=MICROMETERS
##YUNITS=TRANSMITTANCE
##XFACTOR=1.000000
##YFACTOR=1
##DELTAX=000.007004
##FIRSTX=2.033
##LASTX=16.007
##FIRSTY=0.687
##MAXX=16.007
##MINX=2.033
##MAXY=0.926
##MINY=0.08
##NPOINTS=1996
##XYDATA=(X++(Y..Y))
2.033000 0.6870 0.6870 0.6870 0.6890 0.6910
2.068039 0.6910 0.6910 0.6920 0.6920 0.6940
2.103000 0.6960 0.6980 0.7010 0.7030 0.7050
2.138039 0.7060 0.7080 0.7100 0.7120 0.7130
2.173000 0.7130 0.7130 0.7130 0.7130 0.7130
2.208039 0.7150 0.7240 0.7260 0.7260 0.7270
2.244000 0.7270 0.7270 0.7270 0.7290 0.7290
2.279039 0.7310 0.7310 0.7320 0.7340 0.7360
2.314000 0.7360 0.7380 0.7380 0.7380 0.7380
2.349039 0.7380 0.7380 0.7390 0.7390 0.7390
2.384000 0.7430 0.7430 0.7450 0.7450 0.7460
2.419039 0.7460 0.7480 0.7500 0.7500 0.7500
2.454000 0.7500 0.7520 0.7520 0.7530 0.7530
2.489039 0.7530 0.7550 0.7550 0.7550 0.7570
2.524000 0.7570 0.7570 0.7590 0.7590 0.7600
2.559039 0.7620 0.7640 0.7670 0.7710 0.7740
2.594000 0.7760 0.7800 0.7810 0.7830 0.7870
2.629039 0.7900 0.7920 0.7940 0.7950 0.7970
2.664000 0.7990 0.7990 0.7970 0.7970 0.7920
2.699039 0.7880 0.7800 0.7670 0.7600 0.7530
2.734000 0.7460 0.7220 0.7010 0.6800 0.6750
2.769039 0.6630 0.6470 0.6280 0.6090 0.5880
2.804000 0.5680 0.5560 0.5440 0.5350 0.5270
2.839039 0.5180 0.5070 0.5020 0.5000 0.4950
2.874000 0.4830 0.4810 0.4810 0.4810 0.4810
2.909039 0.4810 0.4880 0.4970 0.5060 0.5230
2.944000 0.5340 0.5440 0.5540 0.5680 0.5840
2.979039 0.5930 0.6000 0.6090 0.6160 0.6240
3.014000 0.6330 0.6420 0.6500 0.6570 0.6640
3.049039 0.6700 0.6750 0.6800 0.6840 0.6850
3.084000 0.6870 0.6870 0.6870 0.6890 0.6890
3.119039 0.6890 0.6890 0.6890 0.6870 0.6870
3.154000 0.6870 0.6850 0.6770 0.6570 0.5890
3.189039 0.5440 0.4950 0.4950 0.5060 0.5180
3.224000 0.5300 0.5410 0.5560 0.5560 0.5560
3.259039 0.5540 0.5530 0.5510 0.5440 0.5370
3.294000 0.5210 0.4970 0.4950 0.4920 0.4900
3.329039 0.4850 0.4790 0.4760 0.4720 0.4600
3.364000 0.4480 0.4200 0.3970 0.3960 0.3960
3.399039 0.3970 0.4130 0.4220 0.4290 0.4340
3.434000 0.4410 0.4520 0.4570 0.4580 0.4600
3.469039 0.4580 0.4580 0.4550 0.4460 0.4410
3.504000 0.4410 0.4410 0.4460 0.4530 0.4580
3.539039 0.4600 0.4620 0.4650 0.4690 0.4690
3.574000 0.4690 0.4690 0.4710 0.4830 0.4850
3.609039 0.4880 0.4900 0.4930 0.4930 0.4930
3.644000 0.4930 0.4930 0.4920 0.4880 0.4880
3.679039 0.4850 0.4850 0.4790 0.4760 0.4740
3.714000 0.4640 0.4570 0.4550 0.4530 0.4520
3.749039 0.4480 0.4410 0.4390 0.4390 0.4340
3.784000 0.4290 0.4240 0.4180 0.4130 0.4100
3.819039 0.4040 0.3960 0.3920 0.3920 0.3900
3.855000 0.3890 0.3870 0.3830 0.3800 0.3760
3.890039 0.3730 0.3690 0.3640 0.3610 0.3590
3.925000 0.3610 0.3630 0.3630 0.3640 0.3640
3.960039 0.3640 0.3640 0.3630 0.3630 0.3630
3.995000 0.3630 0.3630 0.3640 0.3730 0.3750
4.030039 0.3800 0.3850 0.3890 0.3940 0.4010
4.065000 0.4060 0.4130 0.4200 0.4270 0.4310
4.100039 0.4360 0.4410 0.4430 0.4480 0.4520
4.135000 0.4550 0.4640 0.4690 0.4710 0.4710
4.170039 0.4720 0.4720 0.4740 0.4760 0.4780
4.205000 0.4780 0.4790 0.4790 0.4810 0.4830
4.240039 0.4860 0.4900 0.4920 0.4970 0.5000
4.275000 0.5020 0.5060 0.5130 0.5210 0.5300
4.310039 0.5390 0.5470 0.5560 0.5670 0.5740
4.345000 0.5790 0.5840 0.5910 0.5980 0.6030
4.380039 0.6100 0.6170 0.6230 0.6310 0.6330
4.415000 0.6360 0.6400 0.6430 0.6500 0.6540
4.450039 0.6630 0.6700 0.6730 0.6800 0.6840
4.485000 0.6870 0.6910 0.6940 0.6980 0.6990
4.520039 0.7030 0.7060 0.7080 0.7130 0.7200
4.555000 0.7240 0.7270 0.7310 0.7320 0.7360
4.590039 0.7390 0.7410 0.7430 0.7450 0.7480
4.625000 0.7500 0.7520 0.7550 0.7600 0.7620
4.660039 0.7640 0.7670 0.7710 0.7710 0.7710
4.695000 0.7730 0.7730 0.7730 0.7730 0.7730
4.730039 0.7730 0.7740 0.7780 0.7800 0.7800
4.765000 0.7810 0.7830 0.7830 0.7850 0.7850
4.800039 0.7870 0.7880 0.7880 0.7880 0.7900
4.835000 0.7900 0.7900 0.7920 0.7920 0.7920
4.870039 0.7940 0.7940 0.7940 0.7940 0.7940
4.905000 0.7940 0.7920 0.7920 0.7920 0.7920
4.940039 0.7940 0.7970 0.7990 0.8020 0.8060
4.975000 0.8110 0.8150 0.8150 0.8160 0.8180
5.010039 0.8180 0.8180 0.8180 0.8160 0.8160
5.045000 0.8160 0.8160 0.8160 0.8160 0.8160
5.080039 0.8160 0.8160 0.8160 0.8160 0.8160
5.115000 0.8160 0.8160 0.8180 0.8180 0.8200
5.150039 0.8230 0.8270 0.8280 0.8300 0.8300
5.185000 0.8300 0.8300 0.8300 0.8280 0.8200
5.220039 0.8180 0.8110 0.8090 0.8080 0.8080
5.255000 0.8090 0.8090 0.8130 0.8160 0.8180
5.290039 0.8180 0.8230 0.8230 0.8210 0.8210
5.325000 0.8200 0.8200 0.8180 0.8180 0.8180
5.360039 0.8180 0.8180 0.8160 0.8160 0.8130
5.395000 0.8130 0.8130 0.8130 0.8150 0.8150
5.430039 0.8160 0.8160 0.8160 0.8160 0.8160
5.466000 0.8150 0.8130 0.8130 0.8130 0.8130
5.501039 0.8130 0.8110 0.8110 0.8090 0.8080
5.536000 0.8060 0.8020 0.8010 0.8010 0.8010
5.571039 0.8010 0.7990 0.7990 0.7990 0.7970
5.606000 0.7950 0.7950 0.7950 0.7950 0.7940
5.641039 0.7920 0.7920 0.7900 0.7880 0.7880
5.676000 0.7880 0.7870 0.7830 0.7800 0.7760
5.711039 0.7740 0.7730 0.7690 0.7660 0.7600
5.746000 0.7530 0.7480 0.7410 0.7390 0.7360
5.781039 0.7360 0.7340 0.7320 0.7290 0.7270
5.816000 0.7270 0.7290 0.7340 0.7410 0.7450
5.851039 0.7460 0.7480 0.7500 0.7520 0.7550
5.886000 0.7570 0.7600 0.7600 0.7640 0.7640
5.921039 0.7640 0.7620 0.7620 0.7620 0.7620
5.956000 0.7600 0.7530 0.7520 0.7460 0.7410
5.991039 0.7380 0.7310 0.7200 0.7130 0.7120
6.026000 0.7050 0.6920 0.6910 0.6910 0.6920
6.061039 0.6940 0.6940 0.6920 0.6920 0.6800
6.096000 0.6710 0.6700 0.6700 0.6700 0.6630
6.131039 0.6420 0.6170 0.6020 0.5790 0.5530
6.166000 0.5210 0.5000 0.4550 0.3570 0.2420
6.201039 0.0900 0.0870 0.0900 0.1510 0.1710
6.236000 0.2370 0.3280 0.3960 0.4430 0.4790
6.271039 0.4830 0.4810 0.4430 0.4030 0.3470
6.306000 0.3280 0.3260 0.3240 0.3240 0.3070
6.341039 0.2770 0.2420 0.2050 0.1760 0.1620
6.376000 0.1010 0.0920 0.0920 0.0920 0.0920
6.411039 0.0920 0.0950 0.1020 0.1160 0.1410
6.446000 0.1620 0.1830 0.1950 0.2070 0.2180
6.481039 0.2370 0.2650 0.3050 0.3450 0.3690
6.516000 0.3900 0.4010 0.4030 0.3900 0.3660
6.551039 0.3490 0.3360 0.3150 0.2800 0.2680
6.586000 0.2680 0.2680 0.2720 0.2790 0.2870
6.621039 0.2930 0.3070 0.3290 0.3490 0.3640
6.656000 0.3660 0.3660 0.3630 0.3490 0.3350
6.691039 0.3030 0.2860 0.2800 0.2610 0.2350
6.726000 0.1810 0.1710 0.1710 0.1720 0.2120
6.761039 0.2530 0.2610 0.2650 0.2670 0.2700
6.796000 0.2700 0.2400 0.2320 0.2230 0.2210
6.831039 0.2210 0.2210 0.2230 0.2250 0.2260
6.866000 0.2260 0.2160 0.2090 0.2070 0.2040
6.901039 0.2040 0.2040 0.2040 0.2020 0.2020
6.936000 0.2000 0.1970 0.1930 0.1930 0.1930
6.971039 0.1930 0.1970 0.2020 0.2090 0.2190
7.006000 0.2320 0.2330 0.2330 0.2230 0.2070
7.041039 0.1910 0.1900 0.1900 0.1930 0.2140
7.077000 0.2470 0.2870 0.3140 0.3380 0.3500
7.112039 0.3570 0.3640 0.3730 0.3890 0.4060
7.147000 0.4310 0.4580 0.4860 0.5070 0.5420
7.182039 0.5670 0.5860 0.5980 0.6070 0.6140
7.217000 0.6230 0.6330 0.6470 0.6560 0.6640
7.252039 0.6730 0.6780 0.6800 0.6890 0.6920
7.287000 0.6960 0.6980 0.7010 0.7010 0.6820
7.322039 0.6560 0.6300 0.5960 0.5280 0.4390
7.357000 0.4080 0.3450 0.2750 0.2180 0.1950
7.392039 0.1710 0.1640 0.1600 0.1600 0.1600
7.427000 0.1620 0.1670 0.1690 0.1710 0.1760
7.462039 0.1860 0.2000 0.2250 0.2720 0.3170
7.497000 0.3590 0.3920 0.4310 0.4520 0.4710
7.532039 0.4950 0.5130 0.5280 0.5390 0.5470
7.567000 0.5540 0.5580 0.5610 0.5650 0.5650
7.602039 0.5610 0.5600 0.5530 0.5370 0.5090
7.637000 0.4860 0.4460 0.4060 0.3710 0.3210
7.672039 0.3170 0.3170 0.3210 0.3380 0.3380
7.707000 0.3330 0.3080 0.2890 0.2870 0.2890
7.742039 0.3030 0.3490 0.3830 0.4110 0.4380
7.777000 0.4640 0.4950 0.5350 0.5530 0.5670
7.812039 0.5790 0.5880 0.5960 0.6030 0.6120
7.847000 0.6170 0.6190 0.6190 0.6170 0.6030
7.882039 0.5910 0.5610 0.5200 0.4760 0.4290
7.917000 0.3800 0.3290 0.2840 0.2420 0.2050
7.952039 0.1810 0.1650 0.1640 0.1650 0.1810
7.987000 0.1980 0.2110 0.2230 0.2350 0.2470
8.022039 0.2600 0.2720 0.2820 0.2890 0.2910
8.057000 0.2890 0.2720 0.2510 0.2160 0.1860
8.092039 0.1570 0.1250 0.1040 0.0950 0.0820
8.127000 0.0800 0.0800 0.0820 0.0870 0.1020
8.162039 0.1320 0.1810 0.2510 0.3220 0.4060
8.197000 0.4450 0.4810 0.5090 0.5340 0.5540
8.232039 0.5720 0.5880 0.6020 0.6160 0.6280
8.267000 0.6380 0.6470 0.6520 0.6560 0.6610
8.302039 0.6640 0.6660 0.6660 0.6700 0.6700
8.337000 0.6700 0.6700 0.6700 0.6700 0.6660
8.372039 0.6560 0.6450 0.6210 0.5910 0.5470
8.407000 0.4970 0.4360 0.3710 0.3000 0.2160
8.442039 0.1510 0.1010 0.0990 0.0990 0.0990
8.477000 0.1010 0.1390 0.1600 0.1810 0.1930
8.512039 0.2230 0.2650 0.3140 0.3680 0.4220
8.547000 0.4690 0.5070 0.5300 0.5510 0.5650
8.582039 0.5770 0.5880 0.5930 0.6050 0.6100
8.617000 0.6170 0.6240 0.6280 0.6280 0.6260
8.652039 0.6240 0.6210 0.6190 0.6140 0.6100
8.688000 0.6090 0.6090 0.6090 0.6120 0.6210
8.723039 0.6240 0.6300 0.6330 0.6360 0.6430
8.758000 0.6500 0.6610 0.6730 0.6870 0.6940
8.793039 0.6980 0.6990 0.7030 0.7100 0.7190
8.828000 0.7200 0.7220 0.7220 0.7200 0.7030
8.863039 0.6750 0.6520 0.6240 0.6230 0.6230
8.898000 0.6300 0.6400 0.6520 0.6660 0.6780
8.933039 0.6960 0.7060 0.7170 0.7240 0.7340
8.968000 0.7450 0.7530 0.7600 0.7670 0.7740
9.003039 0.7760 0.7780 0.7810 0.7850 0.7870
9.038000 0.7900 0.7920 0.7940 0.7950 0.7970
9.073039 0.7970 0.7990 0.8010 0.8020 0.8020
9.108000 0.8020 0.8020 0.8010 0.8010 0.8010
9.143039 0.8010 0.8040 0.8040 0.8060 0.8060
9.178000 0.8090 0.8110 0.8130 0.8130 0.8130
9.213039 0.8150 0.8160 0.8160 0.8160 0.8160
9.248000 0.8160 0.8160 0.8150 0.8150 0.8150
9.283039 0.8150 0.8130 0.8090 0.8060 0.8040
9.318000 0.8010 0.7950 0.7940 0.7940 0.7920
9.353039 0.7920 0.7920 0.7940 0.7950 0.7970
9.388000 0.7970 0.8010 0.8020 0.8040 0.8060
9.423039 0.8080 0.8080 0.8090 0.8110 0.8130
9.458000 0.8130 0.8130 0.8130 0.8130 0.8130
9.493039 0.8110 0.8110 0.8040 0.7990 0.7970
9.528000 0.7940 0.7850 0.7810 0.7760 0.7730
9.563039 0.7660 0.7600 0.7570 0.7480 0.7410
9.598000 0.7340 0.7310 0.7220 0.7080 0.6990
9.633039 0.6910 0.6700 0.6490 0.6280 0.6050
9.668000 0.5930 0.5630 0.5350 0.4880 0.4450
9.703039 0.4060 0.3540 0.2940 0.2490 0.2140
9.738000 0.1900 0.1840 0.1830 0.1860 0.2110
9.773039 0.2260 0.2470 0.3310 0.3680 0.4030
9.808000 0.4410 0.4760 0.5130 0.5460 0.5700
9.843039 0.5840 0.5960 0.6030 0.6360 0.6660
9.878000 0.6870 0.7010 0.7170 0.7340 0.7430
9.913039 0.7500 0.7530 0.7620 0.7740 0.7760
9.948000 0.7830 0.7900 0.7970 0.8020 0.8060
9.983039 0.8080 0.8130 0.8210 0.8270 0.8320
10.018000 0.8340 0.8410 0.8440 0.8480 0.8490
10.053039 0.8510 0.8510 0.8510 0.8530 0.8550
10.088000 0.8560 0.8560 0.8560 0.8550 0.8550
10.123039 0.8530 0.8530 0.8510 0.8510 0.8510
10.158000 0.8510 0.8510 0.8510 0.8510 0.8510
10.193039 0.8490 0.8480 0.8420 0.8410 0.8370
10.228000 0.8350 0.8320 0.8270 0.8110 0.7990
10.263039 0.7660 0.7270 0.6870 0.6450 0.6430
10.298000 0.6470 0.6850 0.7150 0.7500 0.7690
10.333039 0.7920 0.8020 0.8060 0.8130 0.8160
10.369000 0.8200 0.8200 0.8200 0.8210 0.8210
10.404039 0.8230 0.8250 0.8270 0.8270 0.8280
10.439000 0.8300 0.8320 0.8340 0.8340 0.8350
10.474039 0.8370 0.8410 0.8440 0.8510 0.8530
10.509000 0.8560 0.8580 0.8580 0.8560 0.8550
10.544039 0.8530 0.8440 0.8420 0.8420 0.8420
10.579000 0.8420 0.8390 0.8280 0.8180 0.8130
10.614039 0.8040 0.7990 0.7920 0.7900 0.7800
10.649000 0.7620 0.7410 0.6990 0.6260 0.5490
10.684039 0.4810 0.4220 0.4100 0.4100 0.4150
10.719000 0.4500 0.4720 0.5020 0.5280 0.5490
10.754039 0.5670 0.5820 0.5980 0.6160 0.6330
10.789000 0.6560 0.6820 0.7150 0.7360 0.7550
10.824039 0.7670 0.7830 0.7970 0.8020 0.8060
10.859000 0.8150 0.8180 0.8200 0.8230 0.8270
10.894039 0.8320 0.8390 0.8420 0.8510 0.8530
10.929000 0.8530 0.8480 0.8460 0.8440 0.8440
10.964039 0.8440 0.8440 0.8440 0.8440 0.8440
10.999000 0.8440 0.8440 0.8420 0.8420 0.8410
11.034039 0.8410 0.8390 0.8370 0.8370 0.8390
11.069000 0.8390 0.8410 0.8410 0.8390 0.8370
11.104039 0.8370 0.8370 0.8370 0.8370 0.8370
11.139000 0.8370 0.8370 0.8370 0.8370 0.8370
11.174039 0.8390 0.8390 0.8390 0.8390 0.8350
11.209000 0.8340 0.8320 0.8300 0.8280 0.8270
11.244039 0.8230 0.8210 0.8210 0.8200 0.8150
11.279000 0.8080 0.8040 0.8020 0.7950 0.7900
11.314039 0.7880 0.7880 0.7880 0.7880 0.7830
11.349000 0.7760 0.7710 0.7640 0.7590 0.7520
11.384039 0.7450 0.7390 0.7360 0.7340 0.7340
11.419000 0.7320 0.7320 0.7340 0.7340 0.7390
11.454039 0.7460 0.7520 0.7530 0.7530 0.7550
11.489000 0.7570 0.7600 0.7640 0.7730 0.7810
11.524039 0.7850 0.7940 0.8010 0.8020 0.8040
11.559000 0.8080 0.8150 0.8180 0.8200 0.8210
11.594039 0.8250 0.8280 0.8340 0.8370 0.8420
11.629000 0.8480 0.8480 0.8440 0.8420 0.8420
11.664039 0.8410 0.8410 0.8410 0.8410 0.8410
11.699000 0.8410 0.8410 0.8410 0.8410 0.8390
11.734039 0.8370 0.8340 0.8280 0.8230 0.8160
11.769000 0.8080 0.8020 0.7920 0.7830 0.7730
11.804039 0.7620 0.7530 0.7450 0.7320 0.7120
11.839000 0.6980 0.6800 0.6570 0.6350 0.6020
11.874039 0.5750 0.5490 0.4990 0.4600 0.4200
11.909000 0.3870 0.3590 0.3310 0.3280 0.3280
11.944039 0.3280 0.3310 0.3560 0.3690 0.3820
11.980000 0.3960 0.4040 0.4150 0.4240 0.4320
12.015039 0.4410 0.4390 0.4310 0.4170 0.4040
12.050000 0.3900 0.3640 0.3360 0.2960 0.2700
12.085039 0.2460 0.2250 0.2040 0.1950 0.1790
12.120000 0.1780 0.1780 0.1780 0.1790 0.1830
12.155039 0.1900 0.1980 0.2020 0.2020 0.2050
12.190000 0.2120 0.2280 0.2540 0.2940 0.3260
12.225039 0.3640 0.3990 0.4250 0.4520 0.4810
12.260000 0.5020 0.5210 0.5410 0.5490 0.5490
12.295039 0.5490 0.5390 0.5230 0.5020 0.4900
12.330000 0.4880 0.4900 0.4920 0.5090 0.5320
12.365039 0.5600 0.5810 0.5910 0.6030 0.6490
12.400000 0.6630 0.6680 0.6820 0.6990 0.7220
12.435039 0.7340 0.7430 0.7520 0.7590 0.7690
12.470000 0.7830 0.7870 0.7920 0.7940 0.8010
12.505039 0.8040 0.8080 0.8080 0.8090 0.8110
12.540000 0.8130 0.8150 0.8180 0.8230 0.8280
12.575039 0.8300 0.8300 0.8320 0.8340 0.8340
12.610000 0.8340 0.8340 0.8340 0.8340 0.8340
12.645039 0.8350 0.8350 0.8370 0.8420 0.8440
12.680000 0.8460 0.8480 0.8480 0.8480 0.8480
12.715039 0.8480 0.8480 0.8480 0.8480 0.8480
12.750000 0.8480 0.8480 0.8480 0.8530 0.8530
12.785039 0.8530 0.8530 0.8530 0.8510 0.8460
12.820000 0.8460 0.8460 0.8460 0.8440 0.8440
12.855039 0.8440 0.8440 0.8440 0.8440 0.8420
12.890000 0.8420 0.8420 0.8420 0.8410 0.8390
12.925039 0.8350 0.8340 0.8320 0.8300 0.8280
12.960000 0.8280 0.8270 0.8250 0.8230 0.8180
12.995039 0.8130 0.8080 0.8060 0.8010 0.7900
13.030000 0.7830 0.7800 0.7780 0.7780 0.7760
13.065039 0.7760 0.7780 0.7780 0.7800 0.7810
13.100000 0.7830 0.7870 0.7880 0.7940 0.7990
13.135039 0.8010 0.8020 0.8020 0.8020 0.8020
13.170000 0.8020 0.8020 0.8020 0.8020 0.8020
13.205039 0.8020 0.8040 0.8040 0.8040 0.8040
13.240000 0.8060 0.8060 0.8060 0.8060 0.8060
13.275039 0.8080 0.8080 0.8080 0.8080 0.8080
13.310000 0.8080 0.8080 0.8090 0.8090 0.8090
13.345039 0.8090 0.8080 0.8060 0.8040 0.8040
13.380000 0.8040 0.8080 0.8130 0.8180 0.8280
13.415039 0.8370 0.8480 0.8550 0.8600 0.8620
13.450000 0.8630 0.8690 0.8720 0.8770 0.8810
13.485039 0.8830 0.8830 0.8840 0.8840 0.8860
13.520000 0.8900 0.8910 0.8910 0.8910 0.8880
13.555039 0.8830 0.8770 0.8740 0.8690 0.8630
13.591000 0.8600 0.8560 0.8550 0.8550 0.8560
13.626039 0.8600 0.8630 0.8670 0.8740 0.8790
13.661000 0.8840 0.8910 0.8910 0.8930 0.8950
13.696039 0.9000 0.9020 0.9040 0.9050 0.9090
13.731000 0.9090 0.9100 0.9120 0.9140 0.9160
13.766039 0.9190 0.9210 0.9230 0.9240 0.9260
13.801000 0.9260 0.9260 0.9240 0.9240 0.9230
13.836039 0.9210 0.9170 0.9140 0.9140 0.9140
13.871000 0.9140 0.9140 0.9140 0.9140 0.9160
13.906039 0.9160 0.9170 0.9190 0.9190 0.9190
13.941000 0.9190 0.9190 0.9190 0.9170 0.9160
13.976039 0.9160 0.9160 0.9140 0.9120 0.9090
14.011000 0.9050 0.9040 0.9000 0.8970 0.8970
14.046039 0.8970 0.8970 0.8970 0.8950 0.8910
14.081000 0.8900 0.8880 0.8840 0.8830 0.8770
14.116039 0.8720 0.8630 0.8550 0.8530 0.8460
14.151000 0.8410 0.8320 0.8230 0.8090 0.8040
14.186039 0.7990 0.7900 0.7830 0.7740 0.7660
14.221000 0.7550 0.7450 0.7320 0.7240 0.7150
14.256039 0.7050 0.6960 0.6870 0.6780 0.6710
14.291000 0.6630 0.6520 0.6430 0.6330 0.6260
14.326039 0.6210 0.6160 0.6160 0.6160 0.6140
14.361000 0.6140 0.6140 0.6160 0.6230 0.6260
14.396039 0.6330 0.6420 0.6540 0.6730 0.6990
14.431000 0.7130 0.7270 0.7390 0.7530 0.7670
14.466039 0.7780 0.7900 0.7990 0.8040 0.8150
14.501000 0.8230 0.8300 0.8350 0.8420 0.8460
14.536039 0.8530 0.8530 0.8560 0.8580 0.8620
14.571000 0.8630 0.8670 0.8690 0.8700 0.8700
14.606039 0.8670 0.8650 0.8630 0.8630 0.8620
14.641000 0.8600 0.8560 0.8560 0.8550 0.8530
14.676039 0.8510 0.8440 0.8420 0.8340 0.8250
14.711000 0.8180 0.8080 0.8040 0.7950 0.7920
14.746039 0.7900 0.7900 0.7900 0.7900 0.7900
14.781000 0.7900 0.7920 0.7970 0.8040 0.8130
14.816039 0.8250 0.8370 0.8390 0.8420 0.8420
14.851000 0.8440 0.8440 0.8460 0.8460 0.8460
14.886039 0.8460 0.8460 0.8440 0.8420 0.8420
14.921000 0.8410 0.8390 0.8350 0.8320 0.8250
14.956039 0.8180 0.8080 0.8010 0.7950 0.7800
14.991000 0.7670 0.7570 0.7460 0.7320 0.7310
15.026039 0.7310 0.7320 0.7320 0.7340 0.7360
15.061000 0.7430 0.7520 0.7550 0.7570 0.7570
15.096039 0.7570 0.7570 0.7530 0.7390 0.7220
15.131000 0.7010 0.6800 0.6590 0.6380 0.6230
15.166039 0.6090 0.6000 0.5840 0.5700 0.5670
15.202000 0.5670 0.5680 0.5770 0.5880 0.6030
15.237039 0.6240 0.6420 0.6570 0.6730 0.6870
15.272000 0.7030 0.7170 0.7320 0.7480 0.7620
15.307039 0.7740 0.7780 0.7850 0.7900 0.7940
15.342000 0.8010 0.8040 0.8080 0.8090 0.8130
15.377039 0.8150 0.8150 0.8160 0.8160 0.8200
15.412000 0.8200 0.8230 0.8230 0.8230 0.8230
15.447039 0.8230 0.8230 0.8230 0.8230 0.8230
15.482000 0.8230 0.8230 0.8230 0.8230 0.8230
15.517039 0.8230 0.8230 0.8230 0.8230 0.8230
15.552000 0.8230 0.8210 0.8200 0.8180 0.8160
15.587039 0.8160 0.8150 0.8130 0.8110 0.8080
15.622000 0.8060 0.8040 0.8040 0.8020 0.8010
15.657039 0.7920 0.7880 0.7850 0.7810 0.7760
15.692000 0.7730 0.7690 0.7640 0.7570 0.7530
15.727039 0.7430 0.7390 0.7380 0.7360 0.7340
15.762000 0.7320 0.7310 0.7290 0.7290 0.7290
15.797039 0.7310 0.7310 0.7320 0.7340 0.7340
15.832000 0.7340 0.7360 0.7360 0.7380 0.7390
15.867039 0.7410 0.7410 0.7430 0.7450 0.7450
15.902000 0.7460 0.7460 0.7460 0.7460 0.7480
15.937039 0.7480 0.7480 0.7480 0.7480 0.7480
15.972000 0.7480 0.7450 0.7430 0.7380 0.7360
16.007039 0.7310
##END=
