##TITLE=p-TOLUENESULFONAMIDE, N,N'-(1,4-CYCLOHEXYLENE)BIS[N-(2-HYDROXYETHYL)-, DIACETATE
##JCAMP-DX=4.24
##DATA TYPE=INFRARED SPECTRUM
##CLASS=COBLENTZ III
##ORIGIN=SOUTHERN RESEARCH INSTITUTE
##OWNER=COBLENTZ SOCIETY
Collection (C) 2018 copyright by the U.S. Secretary of Commerce
on behalf of the United States of America. All rights reserved.
##DATE=1966/04/15
##NAMES=2-((4-([2-(acetyloxy)ethyl][(4-methylphenyl)sulfonyl]amino)cyclohexyl)[(4-methylphenyl)sulfonyl]amino)ethyl acetate
##MOLFORM=C28 H38 N2 O8 S2
##SOURCE REFERENCE=COBLENTZ NO. 7362
##$NIST ID=B6007362
##$NIST SOURCE=COBLENTZ
##$NIST IMAGE=cob7362
##SPECTROMETER/DATA SYSTEM=PERKIN-ELMER 521 (GRATING)
##INSTRUMENT PARAMETERS=FILTERS AT 3130, 2475, 2000, 620. GRATING CHANGES: 2000, 630 CM^-^1
##STATE=SOLID (1 mg / 650 mg KBr DISC)
$$ PURITY - ANALYTICAL
$$SPECTRAL CONTAMINATION DUE TO H2O AROUND 3450 CM^-^1
##SAMPLING PROCEDURE=TRANSMISSION
##RESOLUTION=2
##DATA PROCESSING=DIGITIZED BY NIST FROM HARD COPY (FROM TWO SEGMENTS)
##XUNITS=1/CM
##YUNITS=TRANSMITTANCE
##XFACTOR=1.000000
##YFACTOR=1
##DELTAX=1.200566
##FIRSTX=256.78
##LASTX=3812.86
##FIRSTY=0.274
##MAXX=3812.86
##MINX=256.78
##MAXY=0.878
##MINY=0.082
##NPOINTS=2963
##XYDATA=(X++(Y..Y))
256.780000 0.2740 0.2860 0.2970 0.3080 0.3170
262.782830 0.3280 0.3380 0.3470 0.3569 0.3659
268.785660 0.3750 0.3830 0.4000 0.4080 0.4150
274.788490 0.4220 0.4300 0.4370 0.4440 0.4510
280.791319 0.4570 0.4640 0.4700 0.4760 0.4820
286.794149 0.4880 0.4940 0.5000 0.5050 0.5110
292.796979 0.5170 0.5220 0.5260 0.5320 0.5380
298.799809 0.5490 0.5540 0.5590 0.5630 0.5680
304.802639 0.5730 0.5780 0.5830 0.5840 0.5860
310.805469 0.5870 0.5870 0.5890 0.5890 0.5900
316.808298 0.5900 0.5910 0.5940 0.5980 0.6000
322.811128 0.6080 0.6150 0.6210 0.6220 0.6270
328.813958 0.6320 0.6340 0.6350 0.6360 0.6360
334.816788 0.6370 0.6350 0.6330 0.6300 0.6290
340.819618 0.6260 0.6230 0.6230 0.6240 0.6330
346.822448 0.6509 0.6630 0.6710 0.6770 0.6830
352.825277 0.6890 0.7000 0.7020 0.7030 0.7040
358.828107 0.7070 0.7080 0.7100 0.7140 0.7200
364.830937 0.7240 0.7280 0.7310 0.7330 0.7350
370.833767 0.7380 0.7400 0.7410 0.7430 0.7440
376.836597 0.7460 0.7470 0.7490 0.7500 0.7500
382.839427 0.7500 0.7500 0.7490 0.7470 0.7460
388.842256 0.7440 0.7410 0.7400 0.7390 0.7340
394.845086 0.7310 0.7280 0.7260 0.7220 0.7200
400.847916 0.7180 0.7120 0.7090 0.7040 0.7020
406.850746 0.6980 0.6920 0.6761 0.6730 0.6730
412.853576 0.6750 0.7030 0.7150 0.7250 0.7370
418.856406 0.7520 0.7590 0.7630 0.7640 0.7670
424.859235 0.7690 0.7700 0.7710 0.7720 0.7740
430.862065 0.7740 0.7750 0.7750 0.7750 0.7760
436.864895 0.7760 0.7760 0.7770 0.7770 0.7770
442.867725 0.7780 0.7780 0.7780 0.7780 0.7780
448.870555 0.7780 0.7780 0.7770 0.7770 0.7760
454.873385 0.7710 0.7690 0.7630 0.7580 0.7491
460.876214 0.7400 0.7220 0.7210 0.7220 0.7240
466.879044 0.7390 0.7549 0.7679 0.7740 0.7740
472.881874 0.7740 0.7720 0.7720 0.7710 0.7700
478.884704 0.7690 0.7680 0.7670 0.7640 0.7620
484.887534 0.7570 0.7520 0.7350 0.7340 0.7340
490.890364 0.7350 0.7400 0.7490 0.7560 0.7669
496.893193 0.7750 0.7800 0.7810 0.7820 0.7860
502.896023 0.7870 0.7860 0.7860 0.7840 0.7840
508.898853 0.7830 0.7830 0.7810 0.7810 0.7800
514.901683 0.7780 0.7770 0.7750 0.7720 0.7690
520.904513 0.7650 0.7620 0.7570 0.7510 0.7450
526.907343 0.7380 0.7290 0.7200 0.7081 0.7020
532.910173 0.6960 0.6820 0.6660 0.6480 0.6211
538.913002 0.5841 0.5661 0.5481 0.5112 0.4553
544.915832 0.4080 0.3850 0.3630 0.3171 0.2721
550.918662 0.2491 0.2271 0.2250 0.2638 0.4062
556.921492 0.4910 0.4920 0.4610 0.4301 0.4001
562.924322 0.3701 0.3401 0.3380 0.3390 0.4116
568.927152 0.4480 0.5999 0.7059 0.7080 0.7120
574.929981 0.7160 0.7200 0.7240 0.7310 0.7370
580.932811 0.7410 0.7410 0.7430 0.7430 0.7410
586.935641 0.7380 0.7290 0.7180 0.7011 0.6911
592.938471 0.6820 0.6600 0.6360 0.6090 0.5890
598.941301 0.5750 0.5730 0.5740 0.6058 0.6179
604.944131 0.6300 0.6410 0.6410 0.6390 0.6051
610.946960 0.5910 0.5671 0.5421 0.5410 0.5679
616.949790 0.5960 0.6210 0.7699 0.7710 0.7720
622.952620 0.7740 0.7740 0.7720 0.7700 0.7531
628.955450 0.7510 0.7490 0.7460 0.7440 0.7280
634.958280 0.7190 0.7100 0.7030 0.7030 0.7119
640.961110 0.7190 0.7310 0.7310 0.7290 0.7210
646.963939 0.7070 0.6960 0.6850 0.6601 0.6302
652.966769 0.5980 0.5650 0.5480 0.5300 0.4951
658.969599 0.4611 0.4281 0.4131 0.3971 0.3692
664.972429 0.2670 0.1640 0.1620 0.1630 0.1889
670.975259 0.2159 0.2678 0.2949 0.3159 0.5645
676.978089 0.6361 0.7330 0.7640 0.7840 0.7980
682.980918 0.8050 0.8100 0.8130 0.8180 0.8250
688.983748 0.8270 0.8270 0.8270 0.8260 0.8240
694.986578 0.8230 0.8210 0.8061 0.7881 0.7502
700.989408 0.7140 0.7010 0.6860 0.6471 0.6450
706.992238 0.7188 0.7917 0.8189 0.8200 0.8230
712.995068 0.8300 0.8310 0.8320 0.8320 0.8320
718.997897 0.8310 0.8310 0.8290 0.8250 0.8230
725.000727 0.8180 0.8130 0.8080 0.8050 0.8010
731.003557 0.7990 0.7950 0.7920 0.7880 0.7830
737.006387 0.7770 0.7700 0.7620 0.7510 0.7390
743.009217 0.7240 0.7061 0.6960 0.6851 0.6611
749.012047 0.6340 0.6040 0.5680 0.5320 0.4971
755.014876 0.4182 0.4150 0.4160 0.5643 0.6157
761.017706 0.6590 0.7240 0.7460 0.7640 0.7780
767.020536 0.7880 0.7960 0.8020 0.8070 0.8120
773.023366 0.8180 0.8250 0.8260 0.8260 0.8260
779.026196 0.8260 0.8260 0.8250 0.8240 0.8200
785.029026 0.8170 0.8110 0.8010 0.7950 0.7860
791.031856 0.7770 0.7640 0.7630 0.7610 0.7610
797.034685 0.7580 0.7560 0.7550 0.7520 0.7510
803.037515 0.7500 0.7450 0.7340 0.7201 0.7071
809.040345 0.6920 0.6460 0.5971 0.5720 0.5471
815.043175 0.4982 0.4502 0.4490 0.5704 0.6386
821.046005 0.6410 0.6390 0.6080 0.5830 0.5810
827.048835 0.5830 0.6119 0.6409 0.6699 0.7605
833.051664 0.7980 0.8010 0.8130 0.8140 0.8140
839.054494 0.8140 0.8130 0.8130 0.8130 0.8130
845.057324 0.8130 0.8130 0.8130 0.8120 0.8120
851.060154 0.8080 0.8060 0.8050 0.8040 0.8000
857.062984 0.7960 0.7930 0.7880 0.7810 0.7710
863.065814 0.7610 0.7470 0.7321 0.7141 0.7041
869.068643 0.6940 0.6700 0.6430 0.6140 0.5801
875.071473 0.5621 0.5431 0.5042 0.4582 0.4182
881.074303 0.4162 0.5770 0.6360 0.7409 0.7879
887.077133 0.7920 0.7920 0.7930 0.7920 0.7860
893.079963 0.7800 0.7710 0.7640 0.7550 0.7440
899.082793 0.7310 0.7151 0.7070 0.6970 0.6861
905.085622 0.6760 0.6750 0.7010 0.7250 0.7380
911.088452 0.7579 0.7719 0.7780 0.7810 0.7810
917.091282 0.7800 0.7750 0.7710 0.7650 0.7620
923.094112 0.7570 0.7570 0.7560 0.7550 0.7530
929.096942 0.7520 0.7520 0.7520 0.7510 0.7500
935.099772 0.7470 0.7450 0.7400 0.7330 0.7211
941.102601 0.7210 0.7150 0.7030 0.6940 0.6840
947.105431 0.6611 0.6331 0.5991 0.5602 0.5381
953.108261 0.5170 0.4700 0.4180 0.3900 0.3620
959.111091 0.2952 0.2930 0.2960 0.3209 0.3528
965.113921 0.4280 0.4670 0.5060 0.5739 0.5999
971.116751 0.6199 0.6290 0.6400 0.6410 0.6430
977.119580 0.6430 0.6530 0.6730 0.6880 0.7020
983.122410 0.7080 0.7080 0.7070 0.7030 0.7000
989.125240 0.6950 0.6850 0.6810 0.6770 0.6710
995.128070 0.6580 0.6480 0.6390 0.6261 0.5942
1001.130900 0.5710 0.5470 0.4850 0.4121 0.3381
1007.133730 0.3360 0.3380 0.3390 0.5599 0.5620
1013.136559 0.5610 0.5320 0.5040 0.4731 0.4700
1019.139389 0.4710 0.5308 0.5320 0.5310 0.5181
1025.142219 0.5060 0.4990 0.4870 0.4710 0.4550
1031.145049 0.4331 0.4101 0.3970 0.3841 0.3512
1037.147879 0.3290 0.3280 0.3290 0.3560 0.4029
1043.150709 0.4269 0.4499 0.4709 0.4919 0.5109
1049.153539 0.5300 0.5620 0.5750 0.5800 0.5810
1055.156368 0.5830 0.5840 0.5850 0.5910 0.6059
1061.159198 0.6210 0.6270 0.6300 0.6320 0.6320
1067.162028 0.6330 0.6340 0.6340 0.6340 0.6340
1073.164858 0.6330 0.6320 0.6290 0.6240 0.6220
1079.167688 0.6120 0.6100 0.6060 0.5493 0.5122
1085.170518 0.4750 0.4200 0.4160 0.4200 0.4360
1091.173347 0.4759 0.5856 0.6388 0.6698 0.6720
1097.176177 0.6720 0.6700 0.6400 0.6340 0.6330
1103.179007 0.6290 0.6260 0.6210 0.6150 0.6060
1109.181837 0.5980 0.5890 0.5780 0.5660 0.5530
1115.184667 0.5450 0.5370 0.5221 0.5041 0.4851
1121.187497 0.4640 0.4420 0.4180 0.4000 0.3990
1127.190326 0.3970 0.4319 0.4539 0.4799 0.5138
1133.193156 0.5990 0.6000 0.6000 0.5990 0.5990
1139.195986 0.5850 0.5621 0.5490 0.5351 0.5012
1145.198816 0.4640 0.4250 0.4050 0.3840 0.3421
1151.201646 0.3011 0.2611 0.2421 0.2231 0.1892
1157.204476 0.1600 0.1370 0.1190 0.1090 0.1010
1163.207305 0.0930 0.0910 0.1189 0.1688 0.2635
1169.210135 0.3081 0.4010 0.4500 0.5589 0.5909
1175.212965 0.6159 0.6230 0.6230 0.6260 0.6280
1181.215795 0.6290 0.6320 0.6360 0.6580 0.6770
1187.218625 0.7119 0.7240 0.7290 0.7380 0.7390
1193.221455 0.7390 0.7350 0.7290 0.7210 0.7000
1199.224284 0.6940 0.6880 0.6840 0.6810 0.6770
1205.227114 0.6650 0.6600 0.6530 0.6420 0.6320
1211.229944 0.6170 0.6020 0.5841 0.5631 0.5531
1217.232774 0.5410 0.5170 0.4890 0.4620 0.4311
1223.235604 0.4140 0.3971 0.3631 0.3262 0.2872
1229.238434 0.2670 0.2460 0.2030 0.1570 0.1091
1235.241263 0.1070 0.1070 0.1080 0.1239 0.1399
1241.244093 0.1600 0.1810 0.2040 0.2539 0.2790
1247.246923 0.3069 0.3339 0.3619 0.4148 0.4399
1253.249753 0.4490 0.4510 0.4640 0.5009 0.5279
1259.252583 0.5599 0.5600 0.5530 0.5480 0.5430
1265.255413 0.5290 0.5190 0.5180 0.5190 0.5609
1271.258243 0.5800 0.5979 0.6040 0.6040 0.6030
1277.261072 0.5860 0.5730 0.5560 0.5490 0.5410
1283.263902 0.4752 0.4730 0.4730 0.4740 0.4810
1289.266732 0.5530 0.5780 0.5920 0.5930 0.5920
1295.269562 0.5711 0.5600 0.5480 0.5251 0.5021
1301.272392 0.3959 0.2900 0.2870 0.2890 0.3299
1307.275222 0.3519 0.4128 0.4548 0.4819 0.5059
1313.278051 0.5070 0.5060 0.4870 0.4441 0.4190
1319.280881 0.3931 0.3382 0.2852 0.2621 0.2401
1325.283711 0.2070 0.1920 0.1540 0.1170 0.1150
1331.286541 0.1180 0.1379 0.2108 0.2469 0.2530
1337.289371 0.2580 0.2710 0.2800 0.4129 0.4579
1343.292201 0.4919 0.5169 0.5509 0.5649 0.5779
1349.295030 0.5930 0.6120 0.6330 0.6360 0.6320
1355.297860 0.6170 0.5891 0.5691 0.5441 0.5191
1361.300690 0.4570 0.4550 0.4550 0.4560 0.5039
1367.303520 0.5679 0.5899 0.6040 0.6150 0.6220
1373.306350 0.6280 0.6340 0.6410 0.6510 0.6590
1379.309180 0.6600 0.6600 0.6580 0.6461 0.6321
1385.312009 0.6180 0.6050 0.5920 0.5800 0.5670
1391.314839 0.5490 0.5311 0.5290 0.5290 0.5718
1397.317669 0.6120 0.6160 0.6140 0.6100 0.6050
1403.320499 0.6020 0.5890 0.5860 0.5870 0.6049
1409.323329 0.6230 0.6410 0.6510 0.6660 0.6780
1415.326159 0.6850 0.6890 0.6900 0.6900 0.6900
1421.328988 0.6900 0.6900 0.6890 0.6860 0.6850
1427.331818 0.6840 0.6820 0.6810 0.6710 0.6601
1433.334648 0.6580 0.6520 0.6490 0.6420 0.6330
1439.337478 0.6220 0.6160 0.6150 0.6160 0.6230
1445.340308 0.6280 0.6270 0.6110 0.6060 0.5970
1451.343138 0.5810 0.5790 0.5790 0.5830 0.6029
1457.345967 0.6290 0.6470 0.6550 0.6780 0.6780
1463.348797 0.6660 0.6590 0.6520 0.6520 0.6729
1469.351627 0.7160 0.7370 0.7640 0.7650 0.7720
1475.354457 0.7800 0.7820 0.7840 0.7860 0.7840
1481.357287 0.7820 0.7800 0.7770 0.7370 0.7160
1487.360117 0.6960 0.6541 0.6221 0.6200 0.6200
1493.362946 0.6491 0.7320 0.7780 0.7800 0.8059
1499.365776 0.8070 0.8110 0.8130 0.8130 0.8140
1505.368606 0.8160 0.8170 0.8180 0.8190 0.8200
1511.371436 0.8210 0.8230 0.8230 0.8240 0.8250
1517.374266 0.8260 0.8260 0.8270 0.8290 0.8290
1523.377096 0.8300 0.8300 0.8310 0.8310 0.8310
1529.379926 0.8310 0.8310 0.8310 0.8310 0.8310
1535.382755 0.8310 0.8310 0.8310 0.8310 0.8310
1541.385585 0.8310 0.8310 0.8320 0.8320 0.8330
1547.388415 0.8330 0.8330 0.8330 0.8330 0.8330
1553.391245 0.8330 0.8330 0.8330 0.8330 0.8330
1559.394075 0.8330 0.8330 0.8330 0.8330 0.8330
1565.396905 0.8330 0.8320 0.8320 0.8320 0.8310
1571.399734 0.8310 0.8300 0.8260 0.8240 0.8210
1577.402564 0.8190 0.8170 0.8140 0.8120 0.8100
1583.405394 0.8000 0.7900 0.7551 0.7261 0.7041
1589.408224 0.6830 0.6490 0.5870 0.5850 0.5860
1595.411054 0.6119 0.6399 0.7336 0.7549 0.7620
1601.413884 0.7940 0.7950 0.7980 0.7980 0.7990
1607.416713 0.7990 0.7980 0.7980 0.7960 0.7960
1613.419543 0.7960 0.7950 0.7950 0.7950 0.7950
1619.422373 0.7960 0.7960 0.7980 0.7980 0.7990
1625.425203 0.7990 0.7990 0.7990 0.7990 0.7990
1631.428033 0.7980 0.7980 0.7980 0.7960 0.7960
1637.430863 0.7950 0.7950 0.7940 0.7940 0.7940
1643.433692 0.7930 0.7930 0.7930 0.7930 0.7930
1649.436522 0.7940 0.7950 0.7950 0.7960 0.7980
1655.439352 0.7980 0.7990 0.7990 0.8000 0.8050
1661.442182 0.8070 0.8100 0.8130 0.8130 0.8140
1667.445012 0.8160 0.8140 0.8140 0.8140 0.8130
1673.447842 0.8130 0.8130 0.8110 0.8120 0.8100
1679.450671 0.8070 0.8040 0.7990 0.7940 0.7890
1685.453501 0.7830 0.7770 0.7720 0.7670 0.7620
1691.456331 0.7580 0.7550 0.7520 0.7510 0.7510
1697.459161 0.7500 0.7490 0.7460 0.7440 0.7410
1703.461991 0.7380 0.7310 0.7250 0.7200 0.7150
1709.464821 0.7090 0.7020 0.6950 0.6830 0.6730
1715.467650 0.6630 0.6530 0.6351 0.6230 0.6111
1721.470480 0.5720 0.5570 0.5420 0.4741 0.4061
1727.473310 0.3621 0.3171 0.2791 0.2412 0.2102
1733.476140 0.1800 0.1500 0.1090 0.0960 0.0830
1739.478970 0.0820 0.0820 0.1149 0.1479 0.1759
1745.481800 0.2491 0.3021 0.4210 0.4830 0.6029
1751.484629 0.7038 0.7409 0.7500 0.7550 0.7590
1757.487459 0.7630 0.7650 0.7690 0.7760 0.7820
1763.490289 0.7880 0.7930 0.7980 0.8000 0.8020
1769.493119 0.8040 0.8050 0.8060 0.8070 0.8100
1775.495949 0.8120 0.8140 0.8160 0.8180 0.8190
1781.498779 0.8230 0.8250 0.8260 0.8270 0.8300
1787.501609 0.8300 0.8310 0.8310 0.8320 0.8320
1793.504438 0.8320 0.8320 0.8320 0.8320 0.8330
1799.507268 0.8350 0.8360 0.8360 0.8370 0.8370
1805.510098 0.8380 0.8380 0.8410 0.8410 0.8420
1811.512928 0.8420 0.8430 0.8430 0.8440 0.8440
1817.515758 0.8450 0.8530 0.8550 0.8570 0.8600
1823.518588 0.8630 0.8640 0.8660 0.8660 0.8670
1829.521417 0.8680 0.8680 0.8680 0.8680 0.8680
1835.524247 0.8680 0.8680 0.8680 0.8680 0.8680
1841.527077 0.8690 0.8690 0.8690 0.8690 0.8690
1847.529907 0.8690 0.8690 0.8690 0.8690 0.8690
1853.532737 0.8690 0.8690 0.8690 0.8690 0.8700
1859.535567 0.8700 0.8700 0.8700 0.8700 0.8700
1865.538396 0.8700 0.8700 0.8700 0.8720 0.8720
1871.541226 0.8720 0.8730 0.8730 0.8730 0.8740
1877.544056 0.8740 0.8750 0.8750 0.8750 0.8750
1883.546886 0.8750 0.8750 0.8750 0.8760 0.8760
1889.549716 0.8760 0.8760 0.8760 0.8780 0.8780
1895.552546 0.8780 0.8760 0.8760 0.8750 0.8750
1901.555375 0.8750 0.8740 0.8740 0.8740 0.8730
1907.558205 0.8730 0.8730 0.8720 0.8700 0.8700
1913.561035 0.8690 0.8670 0.8640 0.8630 0.8610
1919.563865 0.8600 0.8550 0.8500 0.8490 0.8470
1925.566695 0.8430 0.8390 0.8360 0.8350 0.8350
1931.569525 0.8360 0.8410 0.8500 0.8550 0.8590
1937.572354 0.8610 0.8640 0.8660 0.8670 0.8670
1943.575184 0.8680 0.8690 0.8700 0.8720 0.8730
1949.578014 0.8730 0.8740 0.8740 0.8740 0.8740
1955.580844 0.8740 0.8750 0.8750 0.8750 0.8750
1961.583674 0.8750 0.8760 0.8760 0.8760 0.8760
1967.586504 0.8760 0.8760 0.8760 0.8760 0.8760
1973.589333 0.8760 0.8760 0.8760 0.8760 0.8760
1979.592163 0.8760 0.8760 0.8760 0.8760 0.8760
1985.594993 0.8760 0.8760 0.8760 0.8750 0.8750
1991.597823 0.8750 0.8750 0.8750 0.8740 0.8740
1997.600653 0.8740 0.8730 0.8730 0.8730 0.8720
2003.603483 0.8720 0.8720 0.8720 0.8720 0.8720
2009.606312 0.8720 0.8700 0.8700 0.8700 0.8700
2015.609142 0.8700 0.8700 0.8700 0.8700 0.8700
2021.611972 0.8700 0.8700 0.8700 0.8700 0.8700
2027.614802 0.8700 0.8700 0.8700 0.8700 0.8700
2033.617632 0.8691 0.8690 0.8690 0.8690 0.8690
2039.620462 0.8690 0.8690 0.8690 0.8690 0.8690
2045.623292 0.8690 0.8690 0.8690 0.8690 0.8690
2051.626121 0.8690 0.8681 0.8680 0.8680 0.8680
2057.628951 0.8680 0.8680 0.8671 0.8679 0.8680
2063.631781 0.8680 0.8680 0.8680 0.8689 0.8690
2069.634611 0.8690 0.8690 0.8699 0.8700 0.8700
2075.637441 0.8700 0.8700 0.8700 0.8700 0.8700
2081.640271 0.8700 0.8700 0.8700 0.8700 0.8700
2087.643100 0.8700 0.8700 0.8700 0.8700 0.8700
2093.645930 0.8700 0.8700 0.8700 0.8700 0.8692
2099.648760 0.8690 0.8690 0.8690 0.8690 0.8690
2105.651590 0.8690 0.8690 0.8690 0.8690 0.8690
2111.654420 0.8682 0.8680 0.8680 0.8672 0.8670
2117.657250 0.8662 0.8660 0.8660 0.8660 0.8660
2123.660079 0.8660 0.8660 0.8660 0.8660 0.8660
2129.662909 0.8660 0.8668 0.8670 0.8670 0.8670
2135.665739 0.8670 0.8670 0.8678 0.8680 0.8680
2141.668569 0.8688 0.8690 0.8690 0.8698 0.8700
2147.671399 0.8700 0.8700 0.8700 0.8700 0.8700
2153.674229 0.8700 0.8700 0.8700 0.8700 0.8700
2159.677058 0.8700 0.8700 0.8700 0.8700 0.8700
2165.679888 0.8700 0.8700 0.8700 0.8700 0.8700
2171.682718 0.8700 0.8700 0.8700 0.8700 0.8700
2177.685548 0.8700 0.8700 0.8700 0.8700 0.8700
2183.688378 0.8700 0.8700 0.8700 0.8700 0.8700
2189.691208 0.8700 0.8700 0.8700 0.8700 0.8700
2195.694037 0.8700 0.8700 0.8700 0.8700 0.8700
2201.696867 0.8700 0.8700 0.8700 0.8693 0.8690
2207.699697 0.8690 0.8690 0.8690 0.8690 0.8690
2213.702527 0.8690 0.8690 0.8690 0.8690 0.8690
2219.705357 0.8690 0.8696 0.8700 0.8700 0.8694
2225.708187 0.8690 0.8684 0.8680 0.8680 0.8674
2231.711016 0.8664 0.8660 0.8660 0.8660 0.8660
2237.713846 0.8660 0.8660 0.8660 0.8660 0.8660
2243.716676 0.8666 0.8670 0.8670 0.8676 0.8680
2249.719506 0.8680 0.8686 0.8690 0.8690 0.8690
2255.722336 0.8690 0.8690 0.8690 0.8690 0.8690
2261.725166 0.8690 0.8690 0.8690 0.8690 0.8690
2267.727995 0.8690 0.8690 0.8690 0.8690 0.8690
2273.730825 0.8690 0.8684 0.8680 0.8680 0.8674
2279.733655 0.8670 0.8670 0.8670 0.8670 0.8670
2285.736485 0.8670 0.8670 0.8670 0.8670 0.8670
2291.739315 0.8670 0.8670 0.8670 0.8670 0.8670
2297.742145 0.8670 0.8670 0.8670 0.8665 0.8660
2303.744975 0.8660 0.8660 0.8660 0.8660 0.8660
2309.747804 0.8660 0.8660 0.8660 0.8660 0.8660
2315.750634 0.8665 0.8670 0.8670 0.8670 0.8670
2321.753464 0.8670 0.8670 0.8670 0.8670 0.8670
2327.756294 0.8670 0.8670 0.8675 0.8680 0.8680
2333.759124 0.8680 0.8680 0.8680 0.8680 0.8685
2339.761954 0.8690 0.8685 0.8680 0.8676 0.8670
2345.764783 0.8670 0.8670 0.8670 0.8670 0.8670
2351.767613 0.8670 0.8670 0.8670 0.8670 0.8674
2357.770443 0.8680 0.8680 0.8680 0.8680 0.8680
2363.773273 0.8680 0.8680 0.8680 0.8680 0.8680
2369.776103 0.8684 0.8682 0.8678 0.8686 0.8680
2375.778933 0.8680 0.8680 0.8676 0.8670 0.8670
2381.781762 0.8670 0.8666 0.8660 0.8660 0.8660
2387.784592 0.8652 0.8640 0.8640 0.8640 0.8640
2393.787422 0.8636 0.8630 0.8630 0.8630 0.8630
2399.790252 0.8630 0.8630 0.8630 0.8630 0.8630
2405.793082 0.8630 0.8633 0.8640 0.8640 0.8640
2411.795912 0.8640 0.8640 0.8640 0.8640 0.8647
2417.798741 0.8660 0.8660 0.8660 0.8660 0.8660
2423.801571 0.8660 0.8660 0.8660 0.8660 0.8660
2429.804401 0.8660 0.8660 0.8660 0.8660 0.8660
2435.807231 0.8660 0.8660 0.8660 0.8660 0.8660
2441.810061 0.8660 0.8660 0.8660 0.8660 0.8660
2447.812891 0.8660 0.8660 0.8660 0.8655 0.8640
2453.815720 0.8640 0.8640 0.8640 0.8635 0.8620
2459.818550 0.8617 0.8610 0.8610 0.8610 0.8610
2465.821380 0.8610 0.8610 0.8610 0.8610 0.8610
2471.824210 0.8610 0.8610 0.8612 0.8620 0.8620
2477.827040 0.8620 0.8622 0.8630 0.8630 0.8630
2483.829870 0.8632 0.8640 0.8640 0.8640 0.8640
2489.832699 0.8640 0.8640 0.8640 0.8640 0.8640
2495.835529 0.8640 0.8640 0.8640 0.8640 0.8640
2501.838359 0.8640 0.8640 0.8640 0.8640 0.8640
2507.841189 0.8644 0.8660 0.8660 0.8660 0.8662
2513.844019 0.8670 0.8670 0.8670 0.8672 0.8680
2519.846849 0.8680 0.8680 0.8680 0.8680 0.8680
2525.849678 0.8680 0.8680 0.8680 0.8680 0.8680
2531.852508 0.8680 0.8680 0.8680 0.8680 0.8680
2537.855338 0.8680 0.8680 0.8680 0.8680 0.8680
2543.858168 0.8679 0.8670 0.8670 0.8669 0.8660
2549.860998 0.8660 0.8660 0.8660 0.8660 0.8660
2555.863828 0.8660 0.8658 0.8640 0.8640 0.8640
2561.866658 0.8640 0.8640 0.8640 0.8638 0.8620
2567.869487 0.8620 0.8620 0.8619 0.8610 0.8610
2573.872317 0.8610 0.8610 0.8610 0.8610 0.8610
2579.875147 0.8610 0.8610 0.8610 0.8610 0.8610
2585.877977 0.8610 0.8610 0.8610 0.8611 0.8620
2591.880807 0.8620 0.8620 0.8620 0.8620 0.8620
2597.883637 0.8630 0.8630 0.8630 0.8630 0.8630
2603.886466 0.8630 0.8630 0.8640 0.8640 0.8630
2609.889296 0.8630 0.8630 0.8630 0.8630 0.8630
2615.892126 0.8630 0.8630 0.8630 0.8630 0.8630
2621.894956 0.8630 0.8630 0.8630 0.8630 0.8630
2627.897786 0.8630 0.8630 0.8630 0.8630 0.8630
2633.900616 0.8630 0.8630 0.8630 0.8630 0.8620
2639.903445 0.8620 0.8620 0.8610 0.8610 0.8610
2645.906275 0.8600 0.8600 0.8600 0.8590 0.8590
2651.909105 0.8571 0.8570 0.8570 0.8570 0.8570
2657.911935 0.8570 0.8561 0.8560 0.8560 0.8560
2663.914765 0.8560 0.8551 0.8550 0.8550 0.8550
2669.917595 0.8541 0.8540 0.8540 0.8540 0.8540
2675.920424 0.8540 0.8540 0.8540 0.8540 0.8540
2681.923254 0.8540 0.8540 0.8540 0.8540 0.8540
2687.926084 0.8540 0.8540 0.8540 0.8540 0.8540
2693.928914 0.8540 0.8540 0.8540 0.8540 0.8540
2699.931744 0.8540 0.8540 0.8540 0.8540 0.8540
2705.934574 0.8540 0.8540 0.8540 0.8540 0.8540
2711.937403 0.8540 0.8540 0.8540 0.8540 0.8540
2717.940233 0.8540 0.8540 0.8540 0.8540 0.8540
2723.943063 0.8540 0.8540 0.8540 0.8540 0.8540
2729.945893 0.8540 0.8540 0.8540 0.8540 0.8540
2735.948723 0.8540 0.8540 0.8540 0.8540 0.8540
2741.951553 0.8540 0.8540 0.8540 0.8540 0.8540
2747.954382 0.8540 0.8540 0.8540 0.8540 0.8540
2753.957212 0.8540 0.8540 0.8532 0.8530 0.8530
2759.960042 0.8530 0.8530 0.8530 0.8515 0.8510
2765.962872 0.8510 0.8510 0.8502 0.8500 0.8500
2771.965702 0.8492 0.8482 0.8457 0.8450 0.8443
2777.968532 0.8440 0.8433 0.8423 0.8420 0.8413
2783.971362 0.8410 0.8410 0.8410 0.8410 0.8417
2789.974191 0.8420 0.8427 0.8430 0.8430 0.8437
2795.977021 0.8440 0.8440 0.8447 0.8450 0.8450
2801.979851 0.8450 0.8450 0.8450 0.8450 0.8450
2807.982681 0.8443 0.8440 0.8433 0.8430 0.8423
2813.985511 0.8420 0.8413 0.8410 0.8410 0.8396
2819.988341 0.8383 0.8373 0.8363 0.8360 0.8353
2825.991170 0.8337 0.8323 0.8313 0.8297 0.8277
2831.994000 0.8257 0.8243 0.8220 0.8197 0.8177
2837.996830 0.8144 0.8117 0.8084 0.8051 0.8008
2843.999660 0.7964 0.7918 0.7862 0.7802 0.7742
2850.002490 0.7676 0.7606 0.7530 0.7444 0.7354
2856.005320 0.7258 0.7158 0.7052 0.6973 0.6907
2862.008149 0.6782 0.6714 0.6704 0.6706 0.6783
2868.010979 0.6933 0.7060 0.7214 0.7386 0.7611
2874.013809 0.7720 0.7732 0.7740 0.7740 0.7740
2880.016639 0.7740 0.7728 0.7708 0.7688 0.7657
2886.019469 0.7629 0.7591 0.7547 0.7496 0.7447
2892.022299 0.7402 0.7346 0.7281 0.7200 0.7138
2898.025128 0.7103 0.7084 0.7080 0.7080 0.7080
2904.027958 0.7080 0.7075 0.7070 0.7070 0.7070
2910.030788 0.7070 0.7065 0.7060 0.7049 0.7019
2916.033618 0.6989 0.6975 0.6944 0.6915 0.6884
2922.036448 0.6834 0.6759 0.6659 0.6549 0.6424
2928.039278 0.6289 0.6154 0.6014 0.5870 0.5735
2934.042107 0.5601 0.5466 0.5326 0.5245 0.5245
2940.044937 0.5255 0.5372 0.5553 0.5683 0.5807
2946.047767 0.5927 0.6047 0.6162 0.6267 0.6367
2952.050597 0.6467 0.6557 0.6642 0.6727 0.6807
2958.053427 0.6882 0.6984 0.7078 0.7127 0.7183
2964.056257 0.7233 0.7273 0.7308 0.7352 0.7389
2970.059086 0.7404 0.7406 0.7387 0.7357 0.7318
2976.061916 0.7273 0.7224 0.7152 0.7096 0.7090
2982.064746 0.7094 0.7133 0.7238 0.7366 0.7467
2988.067576 0.7549 0.7611 0.7660 0.7702 0.7736
2994.070406 0.7780 0.7822 0.7860 0.7918 0.7992
3000.073236 0.8044 0.8054 0.8060 0.8064 0.8070
3006.076065 0.8070 0.8070 0.8070 0.8066 0.8060
3012.078895 0.8056 0.8046 0.8029 0.8003 0.7979
3018.081725 0.7956 0.7946 0.7936 0.7926 0.7913
3024.084555 0.7896 0.7886 0.7877 0.7860 0.7833
3030.087385 0.7806 0.7770 0.7737 0.7690 0.7630
3036.090215 0.7563 0.7447 0.7317 0.7310 0.7313
3042.093045 0.7336 0.7389 0.7443 0.7489 0.7546
3048.095874 0.7596 0.7649 0.7706 0.7749 0.7785
3054.098704 0.7832 0.7866 0.7886 0.7900 0.7906
3060.101534 0.7920 0.7920 0.7914 0.7897 0.7893
3066.104364 0.7909 0.7936 0.7964 0.8017 0.8071
3072.107194 0.8100 0.8100 0.8100 0.8100 0.8095
3078.110024 0.8077 0.8062 0.8032 0.8007 0.7997
3084.112853 0.7980 0.7935 0.7887 0.7880 0.7880
3090.115683 0.7882 0.7890 0.7892 0.7905 0.7927
3096.118513 0.7952 0.7967 0.7992 0.8005 0.8025
3102.121343 0.8045 0.8062 0.8077 0.8102 0.8114
3108.124173 0.8132 0.8153 0.8213 0.8268 0.8302
3114.127003 0.8318 0.8350 0.8352 0.8360 0.8358
3120.129832 0.8346 0.8326 0.8308 0.8300 0.8300
3126.132662 0.8300 0.8300 0.8298 0.8290 0.8290
3132.135492 0.8286 0.8270 0.8270 0.8270 0.8270
3138.138322 0.8270 0.8270 0.8270 0.8273 0.8290
3144.141152 0.8290 0.8290 0.8290 0.8290 0.8290
3150.143982 0.8291 0.8300 0.8299 0.8290 0.8290
3156.146811 0.8287 0.8270 0.8269 0.8259 0.8250
3162.149641 0.8250 0.8250 0.8249 0.8240 0.8240
3168.152471 0.8240 0.8239 0.8230 0.8230 0.8228
3174.155301 0.8210 0.8210 0.8210 0.8210 0.8210
3180.158131 0.8210 0.8210 0.8210 0.8210 0.8210
3186.160961 0.8210 0.8210 0.8210 0.8210 0.8210
3192.163790 0.8210 0.8210 0.8210 0.8209 0.8200
3198.166620 0.8200 0.8200 0.8200 0.8200 0.8200
3204.169450 0.8200 0.8200 0.8200 0.8200 0.8200
3210.172280 0.8200 0.8200 0.8200 0.8190 0.8190
3216.175110 0.8190 0.8180 0.8170 0.8170 0.8159
3222.177940 0.8140 0.8140 0.8130 0.8130 0.8120
3228.180769 0.8110 0.8110 0.8110 0.8110 0.8100
3234.183599 0.8100 0.8100 0.8080 0.8080 0.8080
3240.186429 0.8070 0.8070 0.8060 0.8050 0.8050
3246.189259 0.8050 0.8050 0.8050 0.8050 0.8050
3252.192089 0.8040 0.8040 0.8040 0.8040 0.8040
3258.194919 0.8020 0.8020 0.8020 0.8010 0.8010
3264.197748 0.8010 0.8010 0.8000 0.8000 0.7990
3270.200578 0.7990 0.7990 0.7990 0.7990 0.7990
3276.203408 0.7990 0.7990 0.7981 0.7980 0.7980
3282.206238 0.7980 0.7980 0.7961 0.7960 0.7960
3288.209068 0.7960 0.7951 0.7950 0.7950 0.7941
3294.211898 0.7931 0.7930 0.7930 0.7930 0.7930
3300.214728 0.7930 0.7930 0.7930 0.7930 0.7930
3306.217557 0.7930 0.7930 0.7921 0.7920 0.7920
3312.220387 0.7920 0.7902 0.7900 0.7900 0.7891
3318.223217 0.7890 0.7890 0.7881 0.7880 0.7871
3324.226047 0.7870 0.7870 0.7861 0.7860 0.7843
3330.228877 0.7840 0.7840 0.7831 0.7830 0.7821
3336.231707 0.7811 0.7810 0.7802 0.7783 0.7772
3342.234536 0.7770 0.7762 0.7752 0.7742 0.7740
3348.237366 0.7723 0.7712 0.7693 0.7682 0.7672
3354.240196 0.7670 0.7654 0.7642 0.7632 0.7622
3360.243026 0.7612 0.7594 0.7582 0.7572 0.7562
3366.245856 0.7552 0.7550 0.7534 0.7506 0.7492
3372.248686 0.7474 0.7470 0.7462 0.7452 0.7450
3378.251515 0.7442 0.7432 0.7430 0.7415 0.7394
3384.254345 0.7390 0.7382 0.7380 0.7372 0.7370
3390.257175 0.7355 0.7342 0.7340 0.7332 0.7330
3396.260005 0.7315 0.7310 0.7310 0.7310 0.7295
3402.262835 0.7290 0.7290 0.7283 0.7280 0.7280
3408.265665 0.7280 0.7273 0.7270 0.7263 0.7260
3414.268494 0.7260 0.7253 0.7250 0.7250 0.7243
3420.271324 0.7240 0.7226 0.7220 0.7220 0.7213
3426.274154 0.7203 0.7200 0.7200 0.7193 0.7190
3432.276984 0.7190 0.7183 0.7166 0.7160 0.7160
3438.279814 0.7160 0.7153 0.7150 0.7143 0.7140
3444.282644 0.7140 0.7140 0.7140 0.7147 0.7150
3450.285473 0.7150 0.7150 0.7150 0.7157 0.7173
3456.288303 0.7180 0.7187 0.7197 0.7200 0.7207
3462.291133 0.7216 0.7233 0.7246 0.7256 0.7266
3468.293963 0.7276 0.7286 0.7303 0.7316 0.7320
3474.296793 0.7326 0.7330 0.7336 0.7340 0.7340
3480.299623 0.7346 0.7350 0.7350 0.7362 0.7376
3486.302452 0.7380 0.7386 0.7390 0.7396 0.7406
3492.305282 0.7422 0.7430 0.7436 0.7446 0.7456
3498.308112 0.7466 0.7470 0.7482 0.7490 0.7496
3504.310942 0.7500 0.7506 0.7510 0.7510 0.7510
3510.313772 0.7516 0.7520 0.7526 0.7541 0.7556
3516.316602 0.7566 0.7576 0.7586 0.7590 0.7601
3522.319431 0.7616 0.7625 0.7641 0.7666 0.7685
3528.322261 0.7701 0.7710 0.7710 0.7715 0.7720
3534.325091 0.7720 0.7720 0.7720 0.7730 0.7740
3540.327921 0.7745 0.7750 0.7750 0.7755 0.7760
3546.330751 0.7760 0.7765 0.7770 0.7785 0.7815
3552.333581 0.7835 0.7840 0.7855 0.7870 0.7875
3558.336411 0.7885 0.7895 0.7910 0.7925 0.7935
3564.339240 0.7945 0.7950 0.7955 0.7960 0.7970
3570.342070 0.7980 0.7985 0.7990 0.7995 0.8000
3576.344900 0.8005 0.8015 0.8034 0.8059 0.8075
3582.347730 0.8080 0.8080 0.8089 0.8100 0.8104
3588.350560 0.8114 0.8124 0.8130 0.8134 0.8149
3594.353390 0.8160 0.8164 0.8174 0.8180 0.8180
3600.356219 0.8184 0.8194 0.8204 0.8218 0.8230
3606.359049 0.8234 0.8244 0.8254 0.8264 0.8278
3612.361879 0.8290 0.8298 0.8314 0.8324 0.8338
3618.364709 0.8354 0.8360 0.8364 0.8370 0.8374
3624.367539 0.8380 0.8384 0.8390 0.8398 0.8410
3630.370369 0.8414 0.8420 0.8424 0.8434 0.8444
3636.373198 0.8450 0.8457 0.8470 0.8474 0.8480
3642.376028 0.8480 0.8484 0.8494 0.8500 0.8500
3648.378858 0.8500 0.8504 0.8510 0.8510 0.8517
3654.381688 0.8530 0.8530 0.8530 0.8530 0.8530
3660.384518 0.8530 0.8530 0.8530 0.8530 0.8530
3666.387348 0.8530 0.8524 0.8510 0.8507 0.8500
3672.390177 0.8500 0.8500 0.8500 0.8500 0.8500
3678.393007 0.8500 0.8503 0.8510 0.8510 0.8510
3684.395837 0.8510 0.8516 0.8530 0.8530 0.8533
3690.398667 0.8540 0.8540 0.8543 0.8550 0.8550
3696.401497 0.8553 0.8563 0.8570 0.8570 0.8570
3702.404327 0.8570 0.8570 0.8570 0.8570 0.8570
3708.407156 0.8570 0.8570 0.8575 0.8590 0.8590
3714.409986 0.8590 0.8592 0.8600 0.8600 0.8602
3720.412816 0.8610 0.8610 0.8610 0.8610 0.8610
3726.415646 0.8610 0.8608 0.8598 0.8590 0.8586
3732.418476 0.8570 0.8570 0.8568 0.8560 0.8558
3738.421306 0.8550 0.8550 0.8550 0.8550 0.8552
3744.424135 0.8560 0.8560 0.8562 0.8570 0.8570
3750.426965 0.8574 0.8590 0.8590 0.8590 0.8590
3756.429795 0.8592 0.8600 0.8600 0.8602 0.8610
3762.432625 0.8610 0.8612 0.8620 0.8620 0.8620
3768.435455 0.8620 0.8620 0.8620 0.8620 0.8620
3774.438285 0.8620 0.8620 0.8620 0.8620 0.8619
3780.441114 0.8610 0.8610 0.8610 0.8610 0.8610
3786.443944 0.8611 0.8620 0.8620 0.8620 0.8620
3792.446774 0.8620 0.8620 0.8620 0.8619 0.8610
3798.449604 0.8610 0.8610 0.8610 0.8608 0.8590
3804.452434 0.8590 0.8588 0.8570 0.8572 0.8590
3810.455264 0.8590 0.8588 0.8570
##END=
