##TITLE=PHTHALIMIDE, N-[2-(2-OXO-3-OXAZOLIDINYL)ETHOXY]-
##JCAMP-DX=4.24
##DATA TYPE=INFRARED SPECTRUM
##CLASS=COBLENTZ III
##ORIGIN=SOUTHERN RESEARCH INSTITUTE
##OWNER=COBLENTZ SOCIETY
Collection (C) 2018 copyright by the U.S. Secretary of Commerce
on behalf of the United States of America. All rights reserved.
##DATE=1966/03/24
##NAMES=2-[2-(2-oxo-1,3-oxazolidin-3-yl)ethoxy]-1H-isoindole-1,3(2H)-dione
##MOLFORM=C13 H12 N2 O5
##SOURCE REFERENCE=COBLENTZ NO. 8450
##$NIST ID=B6008450
##$NIST SOURCE=COBLENTZ
##$NIST IMAGE=cob8450
##SPECTROMETER/DATA SYSTEM=PERKIN-ELMER 521 (GRATING)
##INSTRUMENT PARAMETERS=FILTER CHANGE AT 3150, 2500, 2000, 1150, 700, 410 CM^-^1, GRATING CHANGES AT 2000, 630 CM^-^1
##STATE=SOLID (1 mg / 650 mg KBr DISC)
##PATH LENGTH=
$$SPECTRAL CONTAMINATION DUE TO H2O AROUND 3450 CM^-^1
##SAMPLING PROCEDURE=TRANSMISSION
##RESOLUTION=4
##DATA PROCESSING=DIGITIZED BY NIST FROM HARD COPY
##XUNITS=1/CM
##YUNITS=TRANSMITTANCE
##XFACTOR=1.000000
##YFACTOR=1
##DELTAX=001.806240
##FIRSTX=229.557
##LASTX=3811.33
##FIRSTY=0.195
##MAXX=3811.33
##MINX=229.557
##MAXY=0.94
##MINY=0.072
##NPOINTS=1984
##XYDATA=(X++(Y..Y))
229.557000 0.1950 0.1970 0.1980 0.2000 0.2020
238.592755 0.2040 0.2110 0.2130 0.2220 0.2400
247.619000 0.2560 0.2720 0.2880 0.3020 0.3150
256.654755 0.3290 0.3420 0.3540 0.3660 0.3770
265.681000 0.3870 0.3980 0.4080 0.4180 0.4280
274.716755 0.4370 0.4470 0.4560 0.4650 0.4740
283.744000 0.4830 0.4920 0.5010 0.5100 0.5190
292.779755 0.5280 0.5580 0.5700 0.5790 0.5870
301.806000 0.5940 0.5980 0.6020 0.6030 0.6030
310.841755 0.6050 0.6060 0.6070 0.6050 0.5990
319.869000 0.5920 0.5490 0.5310 0.5110 0.5090
328.904755 0.5660 0.6410 0.6520 0.6630 0.6740
337.931000 0.6840 0.6950 0.7020 0.7140 0.7230
346.966755 0.7310 0.7380 0.7450 0.7490 0.7550
355.993000 0.7600 0.7650 0.7660 0.7670 0.7720
365.028755 0.7760 0.7810 0.7850 0.7900 0.7930
374.056000 0.7970 0.8010 0.8030 0.8050 0.8060
383.091755 0.8280 0.8280 0.8270 0.8110 0.8060
392.118000 0.8040 0.8040 0.8050 0.8110 0.8160
401.153755 0.8190 0.8230 0.8280 0.8320 0.8340
410.181000 0.8360 0.8370 0.8370 0.8370 0.8380
419.216755 0.8400 0.8410 0.8420 0.8420 0.8430
428.243000 0.8430 0.8450 0.8450 0.8460 0.8460
437.278755 0.8470 0.8480 0.8480 0.8470 0.8460
446.305000 0.8460 0.8430 0.8420 0.8420 0.8420
455.340755 0.8430 0.8450 0.8460 0.8480 0.8470
464.368000 0.8420 0.8340 0.8260 0.8100 0.7910
473.403755 0.7770 0.7740 0.7770 0.7950 0.8180
482.430000 0.8280 0.8370 0.8460 0.8520 0.8570
491.465755 0.8680 0.8690 0.8690 0.8670 0.8530
500.493000 0.8400 0.8240 0.8010 0.7660 0.7240
509.528755 0.6740 0.6230 0.6220 0.6220 0.6360
518.555000 0.6750 0.7560 0.8120 0.8390 0.8660
527.590755 0.8640 0.8580 0.8500 0.8380 0.8330
536.617000 0.8320 0.8330 0.8460 0.8570 0.8640
545.652755 0.8720 0.8760 0.8800 0.8800 0.8800
554.680000 0.8800 0.8810 0.8810 0.8810 0.8820
563.715755 0.8820 0.8820 0.8820 0.8830 0.8830
572.742000 0.8830 0.8840 0.8840 0.8840 0.8840
581.777755 0.8840 0.8830 0.8830 0.8820 0.8820
590.805000 0.8810 0.8800 0.8780 0.8770 0.8760
599.840755 0.8750 0.8750 0.8740 0.8730 0.8730
608.867000 0.8730 0.8730 0.8730 0.8730 0.8730
617.902755 0.8730 0.8730 0.8720 0.8720 0.8720
626.929000 0.8710 0.8710 0.8710 0.8700 0.8680
635.964755 0.8550 0.8460 0.8360 0.8260 0.8150
644.992000 0.8150 0.8350 0.8730 0.8750 0.8740
654.027755 0.8710 0.8640 0.8490 0.8280 0.8280
663.054000 0.8410 0.8480 0.8670 0.8670 0.8640
672.089755 0.8590 0.8520 0.8510 0.8440 0.8400
681.117000 0.8140 0.7920 0.7760 0.7740 0.5800
690.152755 0.5310 0.4830 0.4070 0.4050 0.4020
699.179000 0.3920 0.3820 0.3820 0.4080 0.7650
708.214755 0.8380 0.8560 0.8620 0.8670 0.8760
717.241000 0.8940 0.8950 0.8960 0.8970 0.8980
726.276755 0.8980 0.8970 0.8970 0.8960 0.8950
735.304000 0.8940 0.8910 0.8880 0.8860 0.8820
744.339755 0.8770 0.6930 0.6380 0.5840 0.5570
753.366000 0.5300 0.6030 0.6750 0.7640 0.8210
762.401755 0.8470 0.8510 0.8530 0.8530 0.8530
771.429000 0.8520 0.8500 0.8460 0.8440 0.8410
780.464755 0.8380 0.6300 0.6290 0.6300 0.6790
789.491000 0.7270 0.7900 0.7920 0.7940 0.7930
798.526755 0.7940 0.8690 0.8860 0.8870 0.8880
807.553000 0.8860 0.8820 0.8790 0.8750 0.8720
816.588755 0.8550 0.8320 0.7930 0.7930 0.7960
825.616000 0.8100 0.8360 0.8520 0.8620 0.8680
834.651755 0.8720 0.8750 0.8810 0.8820 0.8820
843.678000 0.8810 0.8750 0.8710 0.8650 0.8630
852.713755 0.8610 0.8580 0.8300 0.8210 0.7990
861.741000 0.7380 0.5960 0.5580 0.5210 0.4460
870.776755 0.3710 0.3710 0.5810 0.7570 0.8290
879.803000 0.8740 0.8830 0.8860 0.8890 0.8910
888.838755 0.8900 0.8890 0.8860 0.8840 0.8820
897.865000 0.8780 0.8750 0.8710 0.8670 0.8640
906.900755 0.8590 0.8550 0.8510 0.8460 0.8420
915.928000 0.8370 0.8330 0.7540 0.7200 0.6880
924.963755 0.6560 0.6230 0.6230 0.6340 0.7040
933.990000 0.7440 0.8010 0.8380 0.8410 0.8400
943.025755 0.8340 0.8270 0.7950 0.7670 0.7670
952.053000 0.7860 0.8140 0.8250 0.8300 0.8370
961.088755 0.8370 0.8260 0.8120 0.7910 0.7780
970.115000 0.7710 0.7460 0.7060 0.7040 0.7060
979.150755 0.7210 0.7370 0.7730 0.7730 0.7110
988.177000 0.6780 0.6450 0.5970 0.5490 0.5420
997.212755 0.5790 0.6410 0.7380 0.7970 0.7980
1006.240000 0.7890 0.7740 0.7520 0.7190 0.6860
1015.275755 0.6590 0.6260 0.5920 0.5580 0.5410
1024.302000 0.5240 0.4590 0.4550 0.4590 0.4890
1033.337755 0.5860 0.6480 0.6880 0.7100 0.7230
1042.365000 0.7330 0.7880 0.8170 0.8180 0.8160
1051.400755 0.7820 0.5940 0.5620 0.5620 0.6450
1060.427000 0.7470 0.7670 0.7880 0.8070 0.8080
1069.462755 0.8090 0.8080 0.7520 0.7520 0.7000
1078.489000 0.7000 0.7130 0.7750 0.8140 0.8510
1087.524755 0.8520 0.8520 0.8500 0.8440 0.8390
1096.552000 0.8240 0.8010 0.7640 0.7380 0.7200
1105.587755 0.7080 0.6440 0.5820 0.5820 0.6130
1114.614000 0.6140 0.6130 0.6120 0.6100 0.5990
1123.649755 0.5840 0.5650 0.5550 0.5420 0.5290
1132.677000 0.5270 0.5560 0.5820 0.6000 0.7250
1141.712755 0.7830 0.8350 0.8380 0.8400 0.8400
1150.739000 0.8360 0.8300 0.8250 0.8200 0.8170
1159.774755 0.8110 0.7950 0.7750 0.7190 0.6660
1168.801000 0.6630 0.6660 0.7250 0.7250 0.6070
1177.836755 0.4880 0.4500 0.4120 0.4120 0.6130
1186.864000 0.7130 0.7580 0.7660 0.7740 0.7820
1195.899755 0.7950 0.7960 0.8000 0.8020 0.8050
1204.926000 0.8070 0.8080 0.8100 0.8120 0.8150
1213.961755 0.8150 0.8160 0.8160 0.8160 0.8160
1222.989000 0.8140 0.8120 0.8100 0.8080 0.8040
1232.024755 0.8000 0.7980 0.7930 0.7870 0.7770
1241.051000 0.7660 0.7540 0.7390 0.7240 0.7080
1250.086755 0.6910 0.6730 0.6550 0.6370 0.6180
1259.113000 0.5810 0.5800 0.6370 0.6340 0.6290
1268.148755 0.6080 0.5900 0.5580 0.5560 0.5570
1277.176000 0.5700 0.5900 0.6280 0.6910 0.7150
1286.211755 0.7200 0.7230 0.7430 0.7600 0.7780
1295.238000 0.7960 0.8140 0.8290 0.8420 0.8500
1304.273755 0.8510 0.8490 0.8450 0.8370 0.8240
1313.301000 0.8100 0.8010 0.7990 0.8010 0.8100
1322.336755 0.8390 0.8410 0.8390 0.8380 0.8370
1331.363000 0.8320 0.8190 0.8140 0.8120 0.8100
1340.398755 0.8060 0.7740 0.7290 0.6570 0.5850
1349.425000 0.5840 0.5850 0.5970 0.6030 0.6130
1358.460755 0.6200 0.6230 0.6210 0.6120 0.5940
1367.488000 0.5800 0.5590 0.5390 0.5170 0.4960
1376.523755 0.4960 0.5520 0.6850 0.7610 0.7970
1385.550000 0.8100 0.8180 0.8370 0.8380 0.8380
1394.585755 0.8370 0.8370 0.8110 0.7810 0.7500
1403.612000 0.7330 0.6300 0.5810 0.5810 0.6230
1412.647755 0.7870 0.7880 0.7830 0.7770 0.7720
1421.675000 0.7650 0.7600 0.7550 0.7480 0.7190
1430.710755 0.6590 0.6130 0.5600 0.5580 0.5600
1439.737000 0.5910 0.6310 0.6720 0.6990 0.7630
1448.772755 0.7640 0.7640 0.7380 0.7010 0.6900
1457.800000 0.6790 0.6680 0.6570 0.6440 0.6120
1466.835755 0.6110 0.6120 0.6830 0.6930 0.7030
1475.862000 0.7220 0.7410 0.7420 0.7420 0.6300
1484.897755 0.5160 0.5140 0.5550 0.6020 0.6310
1493.924000 0.6610 0.6910 0.7190 0.7230 0.8730
1502.959755 0.8830 0.8950 0.9000 0.9030 0.9070
1511.987000 0.9070 0.9070 0.9060 0.9050 0.9030
1521.022755 0.9000 0.8930 0.8790 0.8640 0.8640
1530.049000 0.8640 0.8910 0.8960 0.9000 0.9030
1539.084755 0.9050 0.9040 0.9030 0.9010 0.9000
1548.112000 0.8970 0.8950 0.8930 0.8920 0.8910
1557.147755 0.8890 0.8870 0.8840 0.8810 0.8780
1566.174000 0.8750 0.8720 0.8690 0.8660 0.8640
1575.209755 0.8630 0.8620 0.8600 0.8590 0.8580
1584.236000 0.8580 0.8560 0.8550 0.8540 0.8530
1593.271755 0.8520 0.8500 0.8470 0.8420 0.8340
1602.299000 0.8230 0.7690 0.7670 0.7680 0.7980
1611.334755 0.8280 0.8270 0.8260 0.8230 0.8190
1620.361000 0.8160 0.8120 0.8090 0.8050 0.8010
1629.396755 0.8000 0.7990 0.7980 0.7970 0.7940
1638.424000 0.7900 0.7850 0.7800 0.7740 0.7690
1647.459755 0.7640 0.7600 0.7560 0.7530 0.7480
1656.486000 0.7430 0.7380 0.7310 0.7250 0.7180
1665.521755 0.7100 0.7020 0.6930 0.6830 0.6720
1674.548000 0.6610 0.6480 0.6360 0.6230 0.6090
1683.583755 0.5940 0.5770 0.5610 0.5520 0.5430
1692.611000 0.5240 0.5040 0.4840 0.4620 0.4400
1701.646755 0.4160 0.3910 0.3660 0.3380 0.3150
1710.673000 0.2540 0.2060 0.1660 0.1180 0.0950
1719.708755 0.0720 0.1210 0.1620 0.1800 0.2120
1728.736000 0.2490 0.2450 0.1890 0.1500 0.1110
1737.771755 0.0910 0.0720 0.1320 0.1600 0.1850
1746.798000 0.1840 0.1730 0.1610 0.1490 0.1380
1755.833755 0.1280 0.1280 0.1660 0.2040 0.2390
1764.860000 0.3560 0.3860 0.4230 0.4660 0.5070
1773.895755 0.5760 0.5950 0.6150 0.6240 0.6250
1782.923000 0.6280 0.6310 0.6320 0.6380 0.6400
1791.958755 0.6610 0.6860 0.7060 0.7250 0.7400
1800.985000 0.7540 0.7650 0.7750 0.7830 0.7920
1810.020755 0.7990 0.8050 0.8110 0.8190 0.8270
1819.048000 0.8350 0.8450 0.8550 0.8620 0.8640
1828.083755 0.8650 0.8690 0.8730 0.8760 0.8800
1837.110000 0.8830 0.8870 0.8910 0.8930 0.8950
1846.145755 0.8980 0.9010 0.9020 0.9030 0.9030
1855.172000 0.9040 0.9040 0.9050 0.9050 0.9060
1864.207755 0.9060 0.9060 0.9060 0.9070 0.9070
1873.235000 0.9070 0.9070 0.9070 0.9080 0.9080
1882.270755 0.9080 0.9090 0.9090 0.9120 0.9150
1891.297000 0.9180 0.9190 0.9220 0.9240 0.9260
1900.332755 0.9280 0.9300 0.9320 0.9330 0.9340
1909.360000 0.9350 0.9360 0.9360 0.9360 0.9360
1918.395755 0.9360 0.9360 0.9370 0.9370 0.9370
1927.422000 0.9380 0.9380 0.9390 0.9390 0.9390
1936.457755 0.9400 0.9400 0.9400 0.9400 0.9400
1945.484000 0.9400 0.9400 0.9400 0.9400 0.9400
1954.519755 0.9400 0.9400 0.9390 0.9390 0.9380
1963.547000 0.9380 0.9380 0.9370 0.9370 0.9360
1972.582755 0.9360 0.9360 0.9360 0.9360 0.9350
1981.609000 0.9350 0.9340 0.9340 0.9330 0.9330
1990.644755 0.9330 0.9320 0.9310 0.9310 0.9300
1999.672000 0.9300 0.9290 0.9290 0.9290 0.9290
2008.707755 0.9290 0.9290 0.9280 0.9280 0.9280
2017.734000 0.9280 0.9280 0.9280 0.9290 0.9290
2026.769755 0.9290 0.9290 0.9290 0.9290 0.9300
2035.796000 0.9300 0.9300 0.9300 0.9300 0.9300
2044.831755 0.9310 0.9310 0.9310 0.9310 0.9310
2053.859000 0.9310 0.9320 0.9320 0.9320 0.9320
2062.894755 0.9320 0.9320 0.9320 0.9320 0.9320
2071.921000 0.9320 0.9320 0.9320 0.9320 0.9320
2080.956755 0.9320 0.9320 0.9320 0.9320 0.9320
2089.984000 0.9320 0.9320 0.9320 0.9320 0.9320
2099.019755 0.9320 0.9320 0.9320 0.9320 0.9320
2108.046000 0.9320 0.9320 0.9320 0.9320 0.9320
2117.081755 0.9320 0.9320 0.9320 0.9320 0.9320
2126.108000 0.9320 0.9320 0.9320 0.9320 0.9320
2135.143755 0.9310 0.9310 0.9310 0.9310 0.9310
2144.171000 0.9310 0.9310 0.9310 0.9310 0.9310
2153.206755 0.9310 0.9310 0.9300 0.9300 0.9300
2162.233000 0.9300 0.9300 0.9300 0.9300 0.9300
2171.268755 0.9300 0.9300 0.9300 0.9300 0.9300
2180.296000 0.9300 0.9300 0.9300 0.9300 0.9300
2189.331755 0.9300 0.9300 0.9300 0.9300 0.9290
2198.358000 0.9290 0.9290 0.9280 0.9280 0.9280
2207.393755 0.9270 0.9270 0.9270 0.9270 0.9260
2216.420000 0.9260 0.9250 0.9240 0.9240 0.9230
2225.455755 0.9220 0.9220 0.9220 0.9210 0.9210
2234.483000 0.9210 0.9210 0.9220 0.9220 0.9220
2243.518755 0.9230 0.9230 0.9230 0.9240 0.9240
2252.545000 0.9240 0.9240 0.9250 0.9250 0.9250
2261.580755 0.9250 0.9250 0.9250 0.9250 0.9250
2270.607000 0.9250 0.9250 0.9250 0.9250 0.9240
2279.642755 0.9240 0.9240 0.9240 0.9240 0.9230
2288.670000 0.9230 0.9230 0.9230 0.9230 0.9220
2297.705755 0.9220 0.9220 0.9210 0.9210 0.9210
2306.732000 0.9210 0.9200 0.9200 0.9200 0.9200
2315.767755 0.9190 0.9190 0.9190 0.9190 0.9180
2324.795000 0.9180 0.9180 0.9180 0.9180 0.9180
2333.830755 0.9180 0.9180 0.9180 0.9170 0.9170
2342.857000 0.9170 0.9170 0.9170 0.9170 0.9170
2351.892755 0.9170 0.9170 0.9170 0.9170 0.9170
2360.919000 0.9170 0.9170 0.9170 0.9170 0.9170
2369.954755 0.9170 0.9170 0.9170 0.9160 0.9160
2378.982000 0.9160 0.9160 0.9160 0.9160 0.9160
2388.017755 0.9160 0.9160 0.9160 0.9160 0.9150
2397.044000 0.9150 0.9150 0.9140 0.9140 0.9140
2406.079755 0.9140 0.9130 0.9130 0.9130 0.9120
2415.107000 0.9120 0.9120 0.9120 0.9110 0.9110
2424.142755 0.9110 0.9110 0.9100 0.9100 0.9100
2433.169000 0.9100 0.9090 0.9090 0.9090 0.9090
2442.204755 0.9090 0.9090 0.9080 0.9080 0.9080
2451.231000 0.9080 0.9070 0.9070 0.9070 0.9060
2460.266755 0.9060 0.9060 0.9050 0.9050 0.9040
2469.294000 0.9040 0.9040 0.9040 0.9030 0.9030
2478.329755 0.9030 0.9020 0.9020 0.9020 0.9020
2487.356000 0.9020 0.9020 0.9020 0.9020 0.9020
2496.391755 0.9020 0.9020 0.9020 0.9020 0.9020
2505.419000 0.9020 0.9020 0.9020 0.9020 0.9020
2514.454755 0.9020 0.9020 0.9020 0.9020 0.9020
2523.481000 0.9020 0.9020 0.9020 0.9030 0.9030
2532.516755 0.9030 0.9030 0.9030 0.9030 0.9030
2541.543000 0.9030 0.9030 0.9030 0.9030 0.9030
2550.578755 0.9030 0.9030 0.9030 0.9030 0.9030
2559.606000 0.9030 0.9030 0.9030 0.9030 0.9030
2568.641755 0.9030 0.9030 0.9030 0.9030 0.9030
2577.668000 0.9030 0.9030 0.9030 0.9030 0.9030
2586.703755 0.9030 0.9030 0.9030 0.9020 0.9020
2595.731000 0.9020 0.9020 0.9020 0.9020 0.9020
2604.766755 0.9020 0.9010 0.9010 0.9010 0.9010
2613.793000 0.9010 0.9010 0.9000 0.9000 0.9000
2622.828755 0.9000 0.9000 0.9000 0.9000 0.9000
2631.855000 0.9000 0.9000 0.9000 0.9000 0.9000
2640.890755 0.9000 0.9000 0.9000 0.9000 0.9000
2649.918000 0.9000 0.9000 0.9000 0.9000 0.9000
2658.953755 0.9000 0.9000 0.9000 0.9000 0.9000
2667.980000 0.8990 0.8990 0.8990 0.8990 0.8990
2677.015755 0.8990 0.8990 0.8990 0.8980 0.8980
2686.043000 0.8980 0.8980 0.8980 0.8980 0.8980
2695.078755 0.8980 0.8970 0.8970 0.8970 0.8970
2704.105000 0.8970 0.8970 0.8970 0.8960 0.8960
2713.140755 0.8960 0.8960 0.8960 0.8960 0.8950
2722.167000 0.8950 0.8950 0.8950 0.8950 0.8950
2731.202755 0.8940 0.8940 0.8940 0.8940 0.8930
2740.230000 0.8930 0.8930 0.8930 0.8920 0.8920
2749.265755 0.8920 0.8910 0.8910 0.8910 0.8910
2758.292000 0.8910 0.8910 0.8910 0.8900 0.8900
2767.327755 0.8900 0.8890 0.8890 0.8880 0.8880
2776.355000 0.8870 0.8870 0.8860 0.8860 0.8850
2785.390755 0.8850 0.8840 0.8840 0.8830 0.8830
2794.417000 0.8820 0.8820 0.8820 0.8810 0.8810
2803.452755 0.8810 0.8800 0.8800 0.8790 0.8790
2812.479000 0.8790 0.8780 0.8780 0.8770 0.8770
2821.514755 0.8760 0.8750 0.8740 0.8730 0.8720
2830.542000 0.8700 0.8690 0.8670 0.8650 0.8590
2839.577755 0.8550 0.8540 0.8520 0.8510 0.8500
2848.604000 0.8500 0.8490 0.8490 0.8490 0.8490
2857.639755 0.8490 0.8480 0.8480 0.8480 0.8470
2866.667000 0.8470 0.8470 0.8460 0.8460 0.8460
2875.702755 0.8450 0.8440 0.8440 0.8410 0.8380
2884.729000 0.8370 0.8340 0.8320 0.8290 0.8270
2893.764755 0.8240 0.8200 0.8160 0.8110 0.8050
2902.792000 0.7970 0.7920 0.7920 0.7920 0.7920
2911.827755 0.7930 0.7940 0.7940 0.7920 0.7910
2920.854000 0.7860 0.7800 0.7740 0.7680 0.7630
2929.889755 0.7580 0.7560 0.7540 0.7530 0.7540
2938.916000 0.7550 0.7560 0.7630 0.7770 0.7860
2947.951755 0.7920 0.7970 0.8010 0.8080 0.8170
2956.979000 0.8260 0.8280 0.8280 0.8260 0.8240
2966.014755 0.8210 0.8190 0.8180 0.8170 0.8160
2975.041000 0.8150 0.8150 0.8150 0.8150 0.8150
2984.076755 0.8160 0.8160 0.8170 0.8180 0.8200
2993.104000 0.8220 0.8250 0.8300 0.8370 0.8420
3002.139755 0.8430 0.8450 0.8460 0.8510 0.8560
3011.166000 0.8570 0.8570 0.8550 0.8510 0.8470
3020.201755 0.8410 0.8350 0.8250 0.8170 0.8150
3029.228000 0.8170 0.8220 0.8280 0.8420 0.8540
3038.263755 0.8580 0.8640 0.8670 0.8680 0.8690
3047.291000 0.8690 0.8690 0.8690 0.8690 0.8680
3056.326755 0.8680 0.8670 0.8670 0.8660 0.8660
3065.353000 0.8660 0.8660 0.8660 0.8660 0.8650
3074.388755 0.8650 0.8640 0.8640 0.8630 0.8630
3083.416000 0.8630 0.8630 0.8620 0.8620 0.8620
3092.451755 0.8620 0.8630 0.8640 0.8640 0.8660
3101.478000 0.8680 0.8680 0.8690 0.8700 0.8710
3110.513755 0.8720 0.8720 0.8730 0.8730 0.8720
3119.540000 0.8710 0.8700 0.8680 0.8670 0.8660
3128.575755 0.8640 0.8640 0.8640 0.8640 0.8630
3137.603000 0.8630 0.8630 0.8620 0.8620 0.8610
3146.638755 0.8610 0.8610 0.8610 0.8610 0.8610
3155.665000 0.8610 0.8610 0.8610 0.8610 0.8610
3164.700755 0.8610 0.8610 0.8610 0.8610 0.8610
3173.727000 0.8610 0.8610 0.8600 0.8600 0.8600
3182.762755 0.8600 0.8590 0.8590 0.8590 0.8580
3191.790000 0.8580 0.8570 0.8570 0.8570 0.8560
3200.825755 0.8560 0.8550 0.8550 0.8550 0.8550
3209.852000 0.8540 0.8540 0.8540 0.8540 0.8540
3218.887755 0.8540 0.8540 0.8540 0.8540 0.8540
3227.915000 0.8540 0.8540 0.8540 0.8530 0.8530
3236.950755 0.8530 0.8530 0.8530 0.8530 0.8520
3245.977000 0.8520 0.8520 0.8520 0.8510 0.8510
3255.012755 0.8510 0.8510 0.8500 0.8490 0.8490
3264.039000 0.8480 0.8480 0.8470 0.8470 0.8460
3273.074755 0.8460 0.8460 0.8450 0.8450 0.8440
3282.102000 0.8440 0.8440 0.8430 0.8430 0.8430
3291.137755 0.8420 0.8420 0.8410 0.8410 0.8400
3300.164000 0.8400 0.8390 0.8390 0.8390 0.8380
3309.199755 0.8380 0.8370 0.8370 0.8370 0.8360
3318.227000 0.8360 0.8350 0.8350 0.8340 0.8330
3327.262755 0.8330 0.8320 0.8320 0.8310 0.8290
3336.289000 0.8280 0.8280 0.8270 0.8260 0.8250
3345.324755 0.8240 0.8230 0.8220 0.8200 0.8190
3354.351000 0.8190 0.8180 0.8170 0.8160 0.8150
3363.386755 0.8140 0.8130 0.8120 0.8110 0.8100
3372.414000 0.8100 0.8100 0.8090 0.8080 0.8070
3381.449755 0.8070 0.8060 0.8050 0.8040 0.8030
3390.476000 0.8020 0.8020 0.8010 0.8010 0.8010
3399.511755 0.8000 0.7990 0.7990 0.7980 0.7960
3408.539000 0.7960 0.7950 0.7950 0.7940 0.7940
3417.574755 0.7930 0.7920 0.7920 0.7920 0.7910
3426.601000 0.7900 0.7900 0.7890 0.7890 0.7880
3435.636755 0.7880 0.7870 0.7860 0.7860 0.7850
3444.663000 0.7850 0.7840 0.7840 0.7840 0.7840
3453.698755 0.7840 0.7840 0.7840 0.7850 0.7850
3462.726000 0.7860 0.7870 0.7870 0.7880 0.7880
3471.761755 0.7880 0.7880 0.7880 0.7870 0.7870
3480.788000 0.7840 0.7830 0.7820 0.7800 0.7790
3489.823755 0.7790 0.7790 0.7790 0.7800 0.7820
3498.851000 0.7830 0.7880 0.7920 0.7940 0.7950
3507.886755 0.7970 0.7990 0.8010 0.8020 0.8020
3516.913000 0.8040 0.8060 0.8070 0.8080 0.8100
3525.948755 0.8100 0.8120 0.8130 0.8140 0.8150
3534.975000 0.8160 0.8170 0.8180 0.8190 0.8190
3544.010755 0.8200 0.8210 0.8220 0.8230 0.8240
3553.038000 0.8250 0.8260 0.8260 0.8270 0.8280
3562.073755 0.8280 0.8290 0.8290 0.8300 0.8310
3571.100000 0.8320 0.8330 0.8330 0.8340 0.8350
3580.135755 0.8360 0.8370 0.8370 0.8370 0.8380
3589.163000 0.8380 0.8390 0.8400 0.8410 0.8420
3598.198755 0.8430 0.8440 0.8450 0.8460 0.8460
3607.225000 0.8460 0.8470 0.8480 0.8490 0.8490
3616.260755 0.8500 0.8510 0.8520 0.8520 0.8530
3625.287000 0.8530 0.8530 0.8530 0.8540 0.8540
3634.322755 0.8540 0.8540 0.8540 0.8550 0.8550
3643.350000 0.8550 0.8550 0.8550 0.8550 0.8550
3652.385755 0.8550 0.8550 0.8560 0.8560 0.8560
3661.412000 0.8560 0.8560 0.8560 0.8560 0.8560
3670.447755 0.8560 0.8560 0.8560 0.8560 0.8560
3679.475000 0.8560 0.8560 0.8560 0.8570 0.8570
3688.510755 0.8570 0.8570 0.8570 0.8570 0.8570
3697.537000 0.8570 0.8570 0.8570 0.8570 0.8570
3706.572755 0.8570 0.8570 0.8570 0.8570 0.8570
3715.599000 0.8570 0.8570 0.8570 0.8570 0.8570
3724.634755 0.8570 0.8570 0.8570 0.8570 0.8570
3733.662000 0.8560 0.8560 0.8560 0.8560 0.8560
3742.697755 0.8560 0.8560 0.8560 0.8560 0.8560
3751.724000 0.8560 0.8560 0.8560 0.8560 0.8560
3760.759755 0.8560 0.8560 0.8560 0.8560 0.8560
3769.787000 0.8560 0.8560 0.8560 0.8560 0.8560
3778.822755 0.8560 0.8550 0.8550 0.8550 0.8550
3787.849000 0.8550 0.8550 0.8550 0.8550 0.8540
3796.884755 0.8540 0.8530 0.8530 0.8520 0.8520
3805.911000 0.8510 0.8510 0.8500 0.8500
##END=
