##TITLE=N,N'-BIS-(2-CHLOROCYCLOHEXYL)UREA
##JCAMP-DX=4.24
##DATA TYPE=INFRARED SPECTRUM
##CLASS=COBLENTZ III
##ORIGIN=SOUTHERN RESEARCH INSTITUTE
##OWNER=COBLENTZ SOCIETY
Collection (C) 2018 copyright by the U.S. Secretary of Commerce
on behalf of the United States of America. All rights reserved.
##DATE=1964/07/13
##NAMES=N,N'-bis(2-chlorocyclohexyl)urea
##MOLFORM=C13 H22 Cl2 N2 O
##SOURCE REFERENCE=COBLENTZ NO. 8426
##$NIST ID=B6008426
##$NIST SOURCE=COBLENTZ
##$NIST IMAGE=cob8426
##SPECTROMETER/DATA SYSTEM=PERKIN-ELMER 221 (GRATING)
##INSTRUMENT PARAMETERS=FILTER CHANGE AT 2490, 980 CM^-^1, GRATING FOR 4000-1428 CM^-^1, NaCl PRISM FOR 1428-650 CM^-^1
##STATE=SOLID (1 mg / 650 mg KBr DISC)
##SAMPLING PROCEDURE=TRANSMISSION
##RESOLUTION=4
##DATA PROCESSING=DIGITIZED BY NIST FROM HARD COPY
##XUNITS=1/CM
##YUNITS=TRANSMITTANCE
##XFACTOR=1.000000
##YFACTOR=1
##DELTAX=001.534091
##FIRSTX=609.489
##LASTX=4005.97
##FIRSTY=0.796
##MAXX=4005.97
##MINX=609.489
##MAXY=0.915
##MINY=0.201
##NPOINTS=2215
##XYDATA=(X++(Y..Y))
609.489000 0.7960 0.7960 0.7950 0.7950 0.7950
617.162920 0.7950 0.7960 0.7960 0.7970 0.7990
624.830000 0.8020 0.8060 0.8110 0.8150 0.8170
632.503920 0.8180 0.8210 0.8240 0.8240 0.8240
640.170000 0.8240 0.8240 0.8240 0.8070 0.8040
647.843920 0.7990 0.7920 0.7860 0.7840 0.7830
655.511000 0.7830 0.7830 0.7860 0.7870 0.7910
663.184920 0.7930 0.7960 0.8010 0.8020 0.8050
670.852000 0.8050 0.8050 0.8050 0.8030 0.7970
678.525920 0.7870 0.7320 0.6770 0.6240 0.5700
686.193000 0.5690 0.5700 0.5740 0.5940 0.6540
693.866920 0.7130 0.7290 0.7590 0.8220 0.8280
701.534000 0.8320 0.8340 0.8360 0.8380 0.8460
709.207920 0.8520 0.8600 0.8670 0.8730 0.8750
716.875000 0.8780 0.8780 0.8800 0.8820 0.8830
724.548920 0.8850 0.8870 0.8880 0.8880 0.8880
732.216000 0.8880 0.8880 0.8860 0.8850 0.8810
739.889920 0.8790 0.8800 0.8820 0.8860 0.8880
747.557000 0.8900 0.8920 0.8940 0.8940 0.8940
755.230920 0.8940 0.8950 0.8950 0.8940 0.8940
762.898000 0.8940 0.8940 0.8920 0.8910 0.8900
770.571920 0.8880 0.8860 0.8800 0.8750 0.8720
778.239000 0.8720 0.8720 0.8750 0.8800 0.8860
785.912920 0.8890 0.8920 0.8940 0.8950 0.8920
793.580000 0.8850 0.8840 0.8850 0.8860 0.8880
801.253920 0.8950 0.9000 0.9040 0.9070 0.9100
808.920000 0.9140 0.9150 0.9150 0.9140 0.9140
816.593920 0.9130 0.9130 0.9120 0.9120 0.9110
824.261000 0.9110 0.9100 0.9090 0.9070 0.9040
831.934920 0.8840 0.8690 0.8570 0.8330 0.8320
839.602000 0.8330 0.8340 0.8430 0.8520 0.8610
847.275920 0.8650 0.8880 0.9040 0.9050 0.9050
854.943000 0.9060 0.9060 0.9030 0.9000 0.8630
862.616920 0.8410 0.7920 0.7910 0.7910 0.7920
870.284000 0.8120 0.8340 0.8780 0.8910 0.8980
877.957920 0.9020 0.9040 0.9040 0.9050 0.9050
885.625000 0.9050 0.9050 0.9050 0.9030 0.9030
893.298920 0.9010 0.9000 0.8990 0.8980 0.8960
900.966000 0.8940 0.8940 0.8870 0.8670 0.8660
908.639920 0.8400 0.8150 0.7880 0.7860 0.7860
916.307000 0.7860 0.7920 0.8300 0.8440 0.8590
923.980920 0.8740 0.8880 0.9020 0.9030 0.9030
931.648000 0.9040 0.9060 0.9070 0.9070 0.9070
939.321920 0.9070 0.9070 0.9060 0.9050 0.9040
946.989000 0.9040 0.9040 0.9030 0.9020 0.9020
954.662920 0.9010 0.9000 0.8980 0.8940 0.8850
962.330000 0.8770 0.8750 0.8650 0.8550 0.8450
970.003920 0.8280 0.8270 0.8260 0.8270 0.8280
977.670000 0.8310 0.8390 0.8520 0.8630 0.8720
985.343920 0.8790 0.8850 0.8890 0.8910 0.8910
993.011000 0.8920 0.8930 0.8940 0.8940 0.8950
1000.684920 0.8950 0.8950 0.8940 0.8940 0.8930
1008.352000 0.8930 0.8920 0.8910 0.8910 0.8890
1016.025920 0.8880 0.8850 0.8830 0.8780 0.8730
1023.693000 0.8700 0.8680 0.8660 0.8650 0.8640
1031.366920 0.8620 0.8610 0.8590 0.8590 0.8580
1039.034000 0.8470 0.8350 0.8260 0.8240 0.8250
1046.707920 0.8320 0.8390 0.8470 0.8500 0.8480
1054.375000 0.8450 0.8360 0.8320 0.8310 0.8320
1062.048920 0.8340 0.8380 0.8440 0.8500 0.8520
1069.716000 0.8520 0.8530 0.8530 0.8520 0.8500
1077.389920 0.8490 0.8350 0.8290 0.8250 0.8250
1085.057000 0.8260 0.8330 0.8400 0.8410 0.8430
1092.730920 0.8430 0.8400 0.8370 0.8310 0.8260
1100.398000 0.7610 0.7480 0.7360 0.7230 0.7220
1108.071920 0.7220 0.7210 0.7210 0.7220 0.7250
1115.739000 0.7320 0.7500 0.7640 0.7770 0.7880
1123.412920 0.8010 0.8140 0.8210 0.8220 0.8240
1131.080000 0.8240 0.8240 0.8240 0.8240 0.8250
1138.753920 0.8300 0.8370 0.8430 0.8480 0.8490
1146.420000 0.8510 0.8520 0.8540 0.8540 0.8540
1154.093920 0.8540 0.8530 0.8530 0.8530 0.8530
1161.761000 0.8520 0.8500 0.8500 0.8470 0.8430
1169.434920 0.8370 0.8310 0.8240 0.8180 0.8130
1177.102000 0.8080 0.8070 0.8060 0.8040 0.8010
1184.775920 0.7990 0.7960 0.7930 0.7900 0.7890
1192.443000 0.7880 0.7880 0.7890 0.7890 0.7910
1200.116920 0.7960 0.7990 0.8030 0.8050 0.8060
1207.784000 0.8070 0.8060 0.8050 0.8020 0.8020
1215.457920 0.8010 0.7920 0.7910 0.7900 0.7910
1223.125000 0.7920 0.7920 0.7920 0.7870 0.7740
1230.798920 0.7660 0.7580 0.7490 0.7410 0.7320
1238.466000 0.7230 0.7150 0.7040 0.6940 0.6620
1246.139920 0.6300 0.6060 0.5820 0.5810 0.5820
1253.807000 0.5850 0.6200 0.6380 0.6560 0.6630
1261.480920 0.6680 0.6710 0.6720 0.6730 0.6740
1269.148000 0.6750 0.6800 0.7210 0.7560 0.7800
1276.821920 0.7930 0.8020 0.8050 0.8080 0.8080
1284.489000 0.8090 0.8080 0.8080 0.8050 0.7990
1292.162920 0.7920 0.7780 0.7630 0.7440 0.7410
1299.830000 0.7400 0.7410 0.7540 0.7540 0.7180
1307.503920 0.7170 0.7180 0.7410 0.7550 0.7640
1315.170000 0.7890 0.7960 0.8000 0.8020 0.8030
1322.843920 0.8040 0.8040 0.8030 0.8020 0.7980
1330.511000 0.7890 0.7670 0.7320 0.7280 0.7160
1338.184920 0.7150 0.7160 0.7290 0.7470 0.7650
1345.852000 0.7830 0.7830 0.7850 0.7890 0.7890
1353.525920 0.7980 0.8060 0.8140 0.8210 0.8270
1361.193000 0.8350 0.8450 0.8460 0.8470 0.8500
1368.866920 0.8520 0.8530 0.8560 0.8590 0.8620
1376.534000 0.8660 0.8680 0.8690 0.8690 0.8690
1384.207920 0.8690 0.8700 0.8700 0.8710 0.8720
1391.875000 0.8720 0.8720 0.8720 0.8730 0.8730
1399.548920 0.8730 0.8740 0.8740 0.8740 0.8730
1407.216000 0.8730 0.8720 0.8720 0.8710 0.8710
1414.889920 0.8690 0.8680 0.8590 0.8590 0.8560
1422.557000 0.8550 0.8500 0.8470 0.8450 0.8400
1430.230920 0.8330 0.8200 0.8070 0.7790 0.7540
1437.898000 0.7520 0.7520 0.7510 0.7440 0.7090
1445.571920 0.7030 0.6960 0.6390 0.6370 0.6380
1453.239000 0.6540 0.7170 0.7990 0.7990 0.7940
1460.912920 0.7800 0.7680 0.7660 0.7680 0.7730
1468.580000 0.7850 0.8060 0.8190 0.8310 0.8380
1476.253920 0.8430 0.8440 0.8450 0.8430 0.8380
1483.920000 0.8320 0.8220 0.8150 0.8120 0.8060
1491.593920 0.8010 0.7940 0.7880 0.7810 0.7750
1499.261000 0.7680 0.7630 0.7580 0.7540 0.7510
1506.934920 0.7450 0.7380 0.7290 0.7190 0.7100
1514.602000 0.7000 0.6970 0.6920 0.6840 0.6760
1522.275920 0.6680 0.6590 0.6510 0.6420 0.6320
1529.943000 0.6210 0.6100 0.5970 0.5830 0.5690
1537.616920 0.5520 0.5350 0.5150 0.4930 0.4700
1545.284000 0.4440 0.4160 0.4010 0.3850 0.3720
1552.957920 0.3640 0.3400 0.3330 0.3240 0.3160
1560.625000 0.3150 0.3150 0.3150 0.3160 0.3190
1568.298920 0.3210 0.3270 0.3310 0.3360 0.3500
1575.966000 0.3690 0.4200 0.4470 0.4720 0.4930
1583.639920 0.5090 0.5390 0.5660 0.5760 0.5890
1591.307000 0.5950 0.5990 0.6180 0.6360 0.6650
1598.980920 0.6660 0.6710 0.6780 0.6780 0.6780
1606.648000 0.6750 0.6690 0.6610 0.6510 0.6390
1614.321920 0.6190 0.6040 0.5680 0.4970 0.4330
1621.989000 0.3900 0.3470 0.3130 0.2750 0.2380
1629.662920 0.2020 0.2010 0.2020 0.2150 0.2290
1637.329000 0.2440 0.2560 0.2740 0.3120 0.4080
1645.002920 0.4360 0.4610 0.4860 0.5090 0.5300
1652.670000 0.5500 0.5700 0.5880 0.6050 0.6210
1660.343920 0.6350 0.6490 0.6610 0.6710 0.6810
1668.011000 0.6900 0.7040 0.7100 0.7130 0.7190
1675.684920 0.7260 0.7320 0.7390 0.7460 0.7530
1683.352000 0.7600 0.7650 0.7690 0.7710 0.7730
1691.025920 0.7770 0.7810 0.7850 0.7890 0.7950
1698.693000 0.7990 0.8030 0.8050 0.8080 0.8130
1706.366920 0.8190 0.8260 0.8320 0.8380 0.8430
1714.034000 0.8460 0.8460 0.8480 0.8490 0.8510
1721.707920 0.8510 0.8530 0.8540 0.8540 0.8560
1729.375000 0.8580 0.8590 0.8600 0.8610 0.8610
1737.048920 0.8610 0.8620 0.8620 0.8630 0.8630
1744.716000 0.8630 0.8630 0.8630 0.8630 0.8630
1752.389920 0.8640 0.8650 0.8650 0.8670 0.8690
1760.057000 0.8720 0.8740 0.8750 0.8750 0.8760
1767.730920 0.8770 0.8770 0.8770 0.8770 0.8770
1775.398000 0.8770 0.8780 0.8780 0.8790 0.8790
1783.071920 0.8820 0.8840 0.8850 0.8860 0.8870
1790.739000 0.8880 0.8880 0.8880 0.8880 0.8880
1798.412920 0.8880 0.8890 0.8890 0.8900 0.8900
1806.079000 0.8910 0.8910 0.8910 0.8910 0.8920
1813.752920 0.8920 0.8930 0.8930 0.8940 0.8940
1821.420000 0.8940 0.8940 0.8950 0.8950 0.8960
1829.093920 0.8960 0.8960 0.8970 0.8970 0.8970
1836.761000 0.8980 0.8980 0.8980 0.8980 0.8980
1844.434920 0.8980 0.8990 0.8990 0.8990 0.8990
1852.102000 0.8990 0.9000 0.9000 0.9000 0.9000
1859.775920 0.9000 0.9010 0.9010 0.9010 0.9010
1867.443000 0.9010 0.9010 0.9010 0.9010 0.9010
1875.116920 0.9010 0.9010 0.9010 0.9010 0.9010
1882.784000 0.9010 0.9010 0.9010 0.9010 0.9010
1890.457920 0.9010 0.9010 0.9010 0.9010 0.9010
1898.125000 0.9010 0.9010 0.9010 0.9010 0.9010
1905.798920 0.9010 0.9010 0.9010 0.9010 0.9010
1913.466000 0.9010 0.9010 0.9010 0.9010 0.9010
1921.139920 0.9010 0.9010 0.9010 0.9010 0.9010
1928.807000 0.9010 0.9010 0.9010 0.9010 0.9010
1936.480920 0.9010 0.9010 0.9010 0.9010 0.9010
1944.148000 0.9010 0.9010 0.9010 0.9010 0.9010
1951.821920 0.9010 0.9010 0.9010 0.9010 0.9010
1959.489000 0.9010 0.9000 0.9000 0.9000 0.9000
1967.162920 0.9000 0.9000 0.9000 0.9000 0.9000
1974.829000 0.9000 0.9000 0.9000 0.9000 0.9000
1982.502920 0.9000 0.9000 0.9000 0.9000 0.9000
1990.170000 0.8990 0.8990 0.8990 0.8990 0.8990
1997.843920 0.8990 0.8990 0.8990 0.8990 0.8990
2005.511000 0.8990 0.8990 0.8990 0.8990 0.8990
2013.184920 0.8990 0.8990 0.8990 0.8990 0.8990
2020.852000 0.8990 0.8990 0.8990 0.8990 0.8990
2028.525920 0.8980 0.8980 0.8980 0.8980 0.8980
2036.193000 0.8980 0.8980 0.8980 0.8980 0.8980
2043.866920 0.8980 0.8980 0.8980 0.8980 0.8980
2051.534000 0.8980 0.8980 0.8980 0.8980 0.8980
2059.207920 0.8980 0.8980 0.8980 0.8980 0.8980
2066.875000 0.8980 0.8980 0.8980 0.8980 0.8980
2074.548920 0.8980 0.8980 0.8980 0.8980 0.8980
2082.216000 0.8970 0.8970 0.8970 0.8970 0.8970
2089.889920 0.8970 0.8970 0.8970 0.8970 0.8960
2097.557000 0.8960 0.8960 0.8960 0.8960 0.8960
2105.230920 0.8960 0.8960 0.8950 0.8950 0.8950
2112.898000 0.8950 0.8950 0.8950 0.8950 0.8940
2120.571920 0.8940 0.8940 0.8940 0.8940 0.8940
2128.239000 0.8940 0.8940 0.8940 0.8940 0.8940
2135.912920 0.8940 0.8940 0.8940 0.8940 0.8940
2143.580000 0.8940 0.8940 0.8940 0.8940 0.8940
2151.253920 0.8940 0.8940 0.8940 0.8940 0.8940
2158.920000 0.8940 0.8950 0.8950 0.8950 0.8950
2166.593920 0.8950 0.8960 0.8960 0.8960 0.8960
2174.261000 0.8970 0.8970 0.8970 0.8970 0.8980
2181.934920 0.8980 0.8980 0.8980 0.8980 0.8980
2189.602000 0.8980 0.8980 0.8980 0.8980 0.8980
2197.275920 0.8980 0.8980 0.8980 0.8980 0.8980
2204.943000 0.8980 0.8980 0.8980 0.8980 0.8980
2212.616920 0.8980 0.8980 0.8980 0.8980 0.8980
2220.284000 0.8980 0.8980 0.8980 0.8980 0.8980
2227.957920 0.8980 0.8980 0.8980 0.8980 0.8980
2235.625000 0.8980 0.8980 0.8980 0.8980 0.8980
2243.298920 0.8980 0.8980 0.8980 0.8980 0.8980
2250.966000 0.8980 0.8970 0.8970 0.8970 0.8970
2258.639920 0.8970 0.8970 0.8970 0.8970 0.8960
2266.307000 0.8960 0.8960 0.8960 0.8960 0.8960
2273.980920 0.8960 0.8960 0.8960 0.8960 0.8960
2281.648000 0.8950 0.8950 0.8950 0.8950 0.8950
2289.321920 0.8950 0.8950 0.8950 0.8950 0.8940
2296.989000 0.8940 0.8940 0.8940 0.8940 0.8940
2304.662920 0.8940 0.8940 0.8940 0.8940 0.8940
2312.330000 0.8940 0.8940 0.8940 0.8940 0.8940
2320.003920 0.8930 0.8930 0.8930 0.8920 0.8920
2327.670000 0.8920 0.8910 0.8910 0.8910 0.8910
2335.343920 0.8910 0.8910 0.8910 0.8910 0.8910
2343.011000 0.8910 0.8910 0.8910 0.8910 0.8910
2350.684920 0.8910 0.8910 0.8910 0.8910 0.8910
2358.352000 0.8910 0.8910 0.8900 0.8900 0.8900
2366.025920 0.8900 0.8900 0.8900 0.8900 0.8900
2373.693000 0.8900 0.8900 0.8900 0.8900 0.8900
2381.366920 0.8900 0.8900 0.8900 0.8900 0.8900
2389.034000 0.8900 0.8900 0.8900 0.8900 0.8900
2396.707920 0.8900 0.8900 0.8900 0.8900 0.8900
2404.375000 0.8900 0.8900 0.8900 0.8900 0.8900
2412.048920 0.8900 0.8900 0.8900 0.8900 0.8900
2419.716000 0.8900 0.8900 0.8900 0.8900 0.8900
2427.389920 0.8900 0.8900 0.8900 0.8890 0.8890
2435.057000 0.8890 0.8890 0.8890 0.8890 0.8890
2442.730920 0.8890 0.8890 0.8890 0.8890 0.8890
2450.398000 0.8890 0.8890 0.8890 0.8890 0.8890
2458.071920 0.8890 0.8890 0.8890 0.8880 0.8880
2465.739000 0.8880 0.8880 0.8880 0.8880 0.8880
2473.412920 0.8880 0.8880 0.8880 0.8880 0.8880
2481.080000 0.8880 0.8880 0.8880 0.8880 0.8880
2488.753920 0.8880 0.8880 0.8880 0.8880 0.8880
2496.420000 0.8880 0.8880 0.8880 0.8880 0.8880
2504.093920 0.8880 0.8880 0.8880 0.8880 0.8880
2511.761000 0.8880 0.8880 0.8880 0.8880 0.8880
2519.434920 0.8880 0.8880 0.8880 0.8880 0.8870
2527.102000 0.8870 0.8870 0.8870 0.8870 0.8870
2534.775920 0.8870 0.8870 0.8870 0.8870 0.8870
2542.443000 0.8870 0.8870 0.8870 0.8870 0.8870
2550.116920 0.8870 0.8870 0.8870 0.8870 0.8870
2557.784000 0.8870 0.8860 0.8860 0.8860 0.8860
2565.457920 0.8860 0.8860 0.8860 0.8860 0.8860
2573.125000 0.8860 0.8860 0.8860 0.8860 0.8860
2580.798920 0.8860 0.8860 0.8860 0.8860 0.8860
2588.466000 0.8860 0.8860 0.8860 0.8860 0.8860
2596.139920 0.8860 0.8860 0.8860 0.8860 0.8860
2603.807000 0.8860 0.8860 0.8860 0.8860 0.8870
2611.480920 0.8870 0.8870 0.8870 0.8870 0.8880
2619.148000 0.8880 0.8880 0.8880 0.8880 0.8880
2626.821920 0.8880 0.8880 0.8880 0.8880 0.8870
2634.489000 0.8850 0.8850 0.8830 0.8810 0.8800
2642.162920 0.8800 0.8790 0.8790 0.8780 0.8780
2649.830000 0.8780 0.8780 0.8770 0.8770 0.8770
2657.503920 0.8770 0.8770 0.8780 0.8780 0.8780
2665.170000 0.8780 0.8780 0.8780 0.8780 0.8780
2672.843920 0.8780 0.8780 0.8780 0.8780 0.8780
2680.511000 0.8780 0.8780 0.8780 0.8780 0.8790
2688.184920 0.8790 0.8790 0.8790 0.8800 0.8800
2695.852000 0.8800 0.8800 0.8800 0.8810 0.8810
2703.525920 0.8810 0.8810 0.8810 0.8810 0.8810
2711.193000 0.8810 0.8810 0.8810 0.8810 0.8810
2718.866920 0.8810 0.8810 0.8810 0.8810 0.8800
2726.534000 0.8800 0.8800 0.8800 0.8800 0.8790
2734.207920 0.8790 0.8780 0.8780 0.8760 0.8740
2741.875000 0.8740 0.8730 0.8720 0.8720 0.8720
2749.548920 0.8720 0.8720 0.8720 0.8720 0.8710
2757.216000 0.8700 0.8690 0.8690 0.8690 0.8680
2764.889920 0.8680 0.8670 0.8660 0.8660 0.8650
2772.557000 0.8650 0.8640 0.8630 0.8630 0.8630
2780.230920 0.8630 0.8620 0.8610 0.8610 0.8600
2787.898000 0.8600 0.8590 0.8590 0.8590 0.8590
2795.571920 0.8580 0.8580 0.8580 0.8580 0.8570
2803.239000 0.8570 0.8570 0.8570 0.8570 0.8570
2810.912920 0.8560 0.8560 0.8560 0.8560 0.8550
2818.580000 0.8550 0.8540 0.8540 0.8540 0.8540
2826.253920 0.8540 0.8530 0.8520 0.8510 0.8500
2833.920000 0.8470 0.8370 0.8270 0.8170 0.8100
2841.593920 0.7880 0.7710 0.7580 0.7500 0.7440
2849.261000 0.7400 0.7370 0.7150 0.7020 0.6860
2856.934920 0.6700 0.6510 0.6320 0.6300 0.6300
2864.602000 0.6310 0.6340 0.6400 0.6570 0.7040
2872.275920 0.7260 0.7340 0.7490 0.7640 0.7730
2879.943000 0.7770 0.7830 0.7830 0.7810 0.7800
2887.616920 0.7790 0.7730 0.7670 0.7590 0.7510
2895.284000 0.7420 0.7350 0.7280 0.7220 0.7190
2902.957920 0.7170 0.7150 0.7120 0.7070 0.7030
2910.625000 0.6990 0.6910 0.6810 0.6680 0.6550
2918.298920 0.6400 0.6230 0.6030 0.5820 0.5410
2925.966000 0.5100 0.4860 0.4770 0.4610 0.4450
2933.639920 0.4290 0.4140 0.4000 0.4000 0.3990
2941.307000 0.4010 0.4100 0.4180 0.4390 0.4580
2948.980920 0.4780 0.4970 0.5160 0.5350 0.5560
2956.648000 0.5760 0.5970 0.6170 0.6360 0.6540
2964.321920 0.6710 0.7010 0.7140 0.7270 0.7380
2971.989000 0.7490 0.7590 0.7680 0.7770 0.7840
2979.662920 0.7920 0.7980 0.8030 0.8080 0.8130
2987.330000 0.8170 0.8200 0.8230 0.8260 0.8280
2995.003920 0.8300 0.8310 0.8330 0.8340 0.8340
3002.670000 0.8350 0.8360 0.8360 0.8370 0.8370
3010.343920 0.8370 0.8370 0.8380 0.8380 0.8380
3018.011000 0.8380 0.8380 0.8380 0.8380 0.8380
3025.684920 0.8390 0.8390 0.8390 0.8390 0.8390
3033.352000 0.8390 0.8390 0.8390 0.8400 0.8400
3041.025920 0.8400 0.8400 0.8400 0.8400 0.8400
3048.693000 0.8400 0.8410 0.8410 0.8420 0.8420
3056.366920 0.8430 0.8430 0.8430 0.8430 0.8440
3064.034000 0.8440 0.8450 0.8450 0.8450 0.8460
3071.707920 0.8460 0.8460 0.8460 0.8460 0.8440
3079.375000 0.8430 0.8420 0.8400 0.8400 0.8390
3087.048920 0.8380 0.8370 0.8360 0.8350 0.8340
3094.716000 0.8340 0.8330 0.8330 0.8330 0.8320
3102.389920 0.8320 0.8310 0.8310 0.8310 0.8310
3110.057000 0.8310 0.8310 0.8310 0.8310 0.8310
3117.730920 0.8310 0.8310 0.8310 0.8310 0.8310
3125.398000 0.8310 0.8320 0.8320 0.8320 0.8330
3133.071920 0.8330 0.8340 0.8340 0.8340 0.8340
3140.739000 0.8340 0.8340 0.8330 0.8330 0.8330
3148.412920 0.8330 0.8320 0.8320 0.8310 0.8310
3156.080000 0.8290 0.8280 0.8280 0.8280 0.8280
3163.753920 0.8270 0.8260 0.8260 0.8260 0.8260
3171.420000 0.8260 0.8260 0.8260 0.8260 0.8260
3179.093920 0.8260 0.8260 0.8250 0.8240 0.8240
3186.761000 0.8240 0.8230 0.8220 0.8210 0.8200
3194.434920 0.8180 0.8180 0.8180 0.8170 0.8160
3202.102000 0.8150 0.8140 0.8120 0.8110 0.8100
3209.775920 0.8090 0.8080 0.8050 0.8050 0.8040
3217.443000 0.8040 0.8030 0.8030 0.8020 0.8020
3225.116920 0.8010 0.7990 0.7990 0.7980 0.7970
3232.784000 0.7960 0.7950 0.7940 0.7930 0.7920
3240.457920 0.7890 0.7880 0.7870 0.7860 0.7830
3248.125000 0.7800 0.7750 0.7700 0.7650 0.7610
3255.798920 0.7570 0.7540 0.7510 0.7480 0.7450
3263.466000 0.7430 0.7400 0.7370 0.7330 0.7290
3271.139920 0.7240 0.7180 0.7120 0.7050 0.7020
3278.807000 0.6980 0.6920 0.6870 0.6830 0.6800
3286.480920 0.6790 0.6670 0.6560 0.6480 0.6400
3294.148000 0.6340 0.6300 0.6240 0.6200 0.6140
3301.821920 0.6080 0.6010 0.5920 0.5820 0.5760
3309.489000 0.5710 0.5650 0.5590 0.5540 0.5470
3317.162920 0.5420 0.5360 0.5310 0.5270 0.5220
3324.830000 0.5190 0.5170 0.5160 0.5150 0.5140
3332.503920 0.5130 0.5120 0.5120 0.5120 0.5120
3340.170000 0.5110 0.5100 0.5100 0.5100 0.5100
3347.843920 0.5110 0.5110 0.5120 0.5170 0.5190
3355.511000 0.5240 0.5280 0.5300 0.5320 0.5360
3363.184920 0.5420 0.5510 0.5600 0.5680 0.5760
3370.852000 0.5840 0.5910 0.5980 0.6050 0.6110
3378.525920 0.6170 0.6310 0.6420 0.6490 0.6560
3386.193000 0.6620 0.6660 0.6700 0.6750 0.6810
3393.866920 0.6890 0.7030 0.7100 0.7160 0.7210
3401.534000 0.7250 0.7290 0.7310 0.7340 0.7350
3409.207920 0.7370 0.7380 0.7390 0.7410 0.7420
3416.875000 0.7440 0.7470 0.7500 0.7530 0.7570
3424.548920 0.7610 0.7650 0.7670 0.7710 0.7730
3432.216000 0.7730 0.7730 0.7740 0.7760 0.7770
3439.889920 0.7780 0.7790 0.7790 0.7800 0.7800
3447.557000 0.7810 0.7820 0.7820 0.7830 0.7830
3455.230920 0.7830 0.7850 0.7850 0.7860 0.7870
3462.898000 0.7880 0.7890 0.7900 0.7910 0.7920
3470.571920 0.7920 0.7920 0.7920 0.7930 0.7930
3478.239000 0.7930 0.7930 0.7930 0.7930 0.7930
3485.912920 0.7930 0.7940 0.7940 0.7950 0.7950
3493.580000 0.7960 0.7960 0.7960 0.7960 0.7970
3501.253920 0.7970 0.7980 0.7990 0.7990 0.7990
3508.920000 0.7990 0.8000 0.8010 0.8010 0.8020
3516.593920 0.8030 0.8040 0.8050 0.8060 0.8070
3524.261000 0.8080 0.8090 0.8100 0.8110 0.8120
3531.934920 0.8130 0.8140 0.8150 0.8150 0.8160
3539.602000 0.8160 0.8180 0.8180 0.8190 0.8190
3547.275920 0.8200 0.8200 0.8210 0.8210 0.8210
3554.943000 0.8210 0.8220 0.8220 0.8230 0.8230
3562.616920 0.8240 0.8240 0.8240 0.8250 0.8250
3570.284000 0.8270 0.8280 0.8300 0.8300 0.8310
3577.957920 0.8310 0.8310 0.8310 0.8310 0.8310
3585.625000 0.8320 0.8320 0.8330 0.8330 0.8340
3593.298920 0.8340 0.8350 0.8350 0.8360 0.8360
3600.966000 0.8370 0.8370 0.8370 0.8370 0.8380
3608.639920 0.8380 0.8390 0.8390 0.8400 0.8400
3616.307000 0.8410 0.8410 0.8430 0.8440 0.8450
3623.980920 0.8460 0.8470 0.8470 0.8470 0.8470
3631.648000 0.8480 0.8480 0.8480 0.8490 0.8490
3639.321920 0.8490 0.8500 0.8500 0.8500 0.8500
3646.989000 0.8500 0.8500 0.8500 0.8500 0.8500
3654.662920 0.8500 0.8500 0.8500 0.8500 0.8500
3662.330000 0.8500 0.8500 0.8500 0.8500 0.8500
3670.003920 0.8500 0.8500 0.8500 0.8500 0.8500
3677.670000 0.8500 0.8500 0.8500 0.8500 0.8500
3685.343920 0.8500 0.8500 0.8500 0.8510 0.8510
3693.011000 0.8510 0.8520 0.8520 0.8520 0.8530
3700.684920 0.8530 0.8540 0.8540 0.8550 0.8550
3708.352000 0.8560 0.8560 0.8560 0.8560 0.8560
3716.025920 0.8560 0.8560 0.8560 0.8550 0.8550
3723.693000 0.8550 0.8550 0.8540 0.8540 0.8540
3731.366920 0.8530 0.8530 0.8530 0.8530 0.8530
3739.034000 0.8520 0.8520 0.8510 0.8510 0.8500
3746.707920 0.8500 0.8500 0.8500 0.8500 0.8500
3754.375000 0.8510 0.8510 0.8510 0.8520 0.8540
3762.048920 0.8540 0.8550 0.8550 0.8540 0.8550
3769.716000 0.8540 0.8540 0.8540 0.8530 0.8530
3777.389920 0.8530 0.8530 0.8530 0.8530 0.8530
3785.057000 0.8530 0.8530 0.8530 0.8530 0.8530
3792.730920 0.8530 0.8530 0.8530 0.8530 0.8520
3800.398000 0.8520 0.8510 0.8510 0.8500 0.8500
3808.071920 0.8500 0.8500 0.8500 0.8500 0.8500
3815.739000 0.8500 0.8500 0.8500 0.8500 0.8500
3823.412920 0.8490 0.8490 0.8490 0.8490 0.8490
3831.080000 0.8490 0.8490 0.8490 0.8490 0.8490
3838.753920 0.8490 0.8490 0.8490 0.8490 0.8490
3846.420000 0.8490 0.8490 0.8490 0.8490 0.8490
3854.093920 0.8490 0.8490 0.8490 0.8490 0.8480
3861.761000 0.8480 0.8480 0.8480 0.8480 0.8480
3869.434920 0.8480 0.8480 0.8480 0.8480 0.8480
3877.102000 0.8480 0.8480 0.8480 0.8480 0.8480
3884.775920 0.8480 0.8480 0.8480 0.8480 0.8480
3892.443000 0.8480 0.8480 0.8480 0.8480 0.8480
3900.116920 0.8480 0.8480 0.8480 0.8480 0.8480
3907.784000 0.8480 0.8480 0.8480 0.8480 0.8480
3915.457920 0.8480 0.8480 0.8480 0.8480 0.8480
3923.125000 0.8480 0.8480 0.8480 0.8480 0.8480
3930.798920 0.8480 0.8480 0.8480 0.8480 0.8480
3938.466000 0.8480 0.8480 0.8480 0.8480 0.8480
3946.139920 0.8480 0.8480 0.8480 0.8480 0.8480
3953.807000 0.8480 0.8480 0.8480 0.8480 0.8480
3961.480920 0.8470 0.8470 0.8470 0.8470 0.8470
3969.148000 0.8470 0.8470 0.8470 0.8470 0.8470
3976.821920 0.8470 0.8470 0.8470 0.8470 0.8470
3984.489000 0.8470 0.8470 0.8470 0.8470 0.8470
3992.162920 0.8470 0.8470 0.8480 0.8480 0.8480
3999.830000 0.8490 0.8490 0.8490 0.8490 0.8490
##END=
