##TITLE=Aniline, 4-tert-butyl-N-(1,3-dimethylbutyl)-
##JCAMP-DX=4.24
##DATA TYPE=INFRARED SPECTRUM
##CLASS=COBLENTZ III
##ORIGIN=MONSANTO (J. FREEMAN)
##OWNER=Copyright (C) 1987 by the Coblentz Society
Collection (C) 2018 copyright by the U.S. Secretary of Commerce
on behalf of the United States of America. All rights reserved.
##DATE=1959/12/15
##NAMES=N-(4-tert-butylphenyl)-N-(1,3-dimethylbutyl)amine
4-tert-butyl-N-(1,3-dimethylbutyl)aniline
##MOLFORM=C16 H27 N
##SOURCE REFERENCE=COBLENTZ NO. 9268
##$NIST ID=B6009268
##$NIST SOURCE=COBLENTZ
##$NIST IMAGE=cob9268
##SPECTROMETER/DATA SYSTEM=BECKMAN IR-4 (HYBRID PRISM-GRATING)
##INSTRUMENT PARAMETERS=NaCl PRISM
##STATE=LIQUID (NEAT)
##PATH LENGTH=CAPILLARY
##SAMPLING PROCEDURE=TRANSMISSION
##RESOLUTION=2
##DATA PROCESSING=DIGITIZED BY COBLENTZ SOCIETY (BATCH II) FROM HARD COPY
##XUNITS=1/CM
##YUNITS=TRANSMITTANCE
##XFACTOR=1.0
##YFACTOR=1
##FIRSTX=626
##LASTX=4000
##FIRSTY=0.8071
##MAXX=4000
##MINX=626
##MAXY=0.9842
##MINY=0.0579
##NPOINTS=3375
##XYDATA=(X++(Y..Y))
626.000000 0.8071 0.8072 0.8073 0.8071 0.8059
631.000000 0.8048 0.8036 0.8024 0.8010 0.7996
636.000000 0.7964 0.7914 0.7856 0.7838 0.7828
641.000000 0.7824 0.7818 0.7810 0.7847 0.7794
646.000000 0.7804 0.7815 0.7833 0.7857 0.7853
651.000000 0.7853 0.7860 0.7868 0.7877 0.7902
656.000000 0.7926 0.7947 0.7974 0.7999 0.8014
661.000000 0.8029 0.8047 0.8067 0.8089 0.8120
666.000000 0.8149 0.8172 0.8195 0.8223 0.8262
671.000000 0.8303 0.8330 0.8349 0.8371 0.8391
676.000000 0.8407 0.8421 0.8439 0.8455 0.8470
681.000000 0.8459 0.8517 0.8430 0.8414 0.8395
686.000000 0.8372 0.8312 0.8185 0.8090 0.8018
691.000000 0.7967 0.7890 0.7800 0.7787 0.7734
696.000000 0.7710 0.7713 0.7713 0.7738 0.7753
701.000000 0.7769 0.7789 0.7811 0.7832 0.7853
706.000000 0.7872 0.7875 0.7881 0.7912 0.7917
711.000000 0.7925 0.7939 0.7961 0.7991 0.8016
716.000000 0.8036 0.8036 0.8028 0.8018 0.8005
721.000000 0.8035 0.7975 0.7951 0.7904 0.7820
726.000000 0.7659 0.7462 0.7228 0.7009 0.6925
731.000000 0.6903 0.7125 0.7394 0.7663 0.7933
736.000000 0.8089 0.8144 0.8190 0.8216 0.8241
741.000000 0.8263 0.8285 0.8300 0.8312 0.8334
746.000000 0.8292 0.8226 0.8126 0.8014 0.7912
751.000000 0.7804 0.7763 0.7788 0.7848 0.7948
756.000000 0.8091 0.8264 0.8394 0.8499 0.8569
761.000000 0.8630 0.8678 0.8722 0.8749 0.8771
766.000000 0.8779 0.8786 0.8751 0.8778 0.8769
771.000000 0.8756 0.8744 0.8731 0.8712 0.8695
776.000000 0.8676 0.8654 0.8633 0.8613 0.8587
781.000000 0.8561 0.8533 0.8501 0.8469 0.8430
786.000000 0.8382 0.8332 0.8263 0.8190 0.8086
791.000000 0.7975 0.7856 0.7731 0.7603 0.7457
796.000000 0.7263 0.7012 0.6736 0.6460 0.6185
801.000000 0.5910 0.5414 0.5205 0.5021 0.4860
806.000000 0.4695 0.4509 0.4311 0.4113 0.3937
811.000000 0.3717 0.3345 0.2838 0.2380 0.1923
816.000000 0.1472 0.1196 0.1144 0.1129 0.1140
821.000000 0.1228 0.1570 0.1932 0.2293 0.2654
826.000000 0.3013 0.3371 0.3729 0.4086 0.4442
831.000000 0.4832 0.5076 0.5294 0.5614 0.5959
836.000000 0.6111 0.6247 0.6376 0.6491 0.6594
841.000000 0.6685 0.6761 0.6839 0.6933 0.7032
846.000000 0.7137 0.7384 0.7678 0.7870 0.8085
851.000000 0.8221 0.8267 0.8312 0.8356 0.8394
856.000000 0.8436 0.8477 0.8516 0.8556 0.8595
861.000000 0.8631 0.8665 0.8691 0.8716 0.8730
866.000000 0.8729 0.8731 0.8721 0.8686 0.8647
871.000000 0.8606 0.8559 0.8509 0.8484 0.8473
876.000000 0.8487 0.8512 0.8531 0.8517 0.8485
881.000000 0.8440 0.8374 0.8282 0.8172 0.8082
886.000000 0.8023 0.8003 0.8073 0.8140 0.8259
891.000000 0.8438 0.8572 0.8673 0.8744 0.8801
896.000000 0.8858 0.8916 0.8959 0.9000 0.9039
901.000000 0.9077 0.9097 0.9107 0.9114 0.9119
906.000000 0.9119 0.9106 0.9114 0.9095 0.9077
911.000000 0.9039 0.8992 0.8944 0.8864 0.8769
916.000000 0.8631 0.8447 0.8267 0.8106 0.7936
921.000000 0.7779 0.7734 0.7714 0.7789 0.7864
926.000000 0.7965 0.8025 0.8034 0.8041 0.8049
931.000000 0.8056 0.8061 0.8070 0.8135 0.8264
936.000000 0.8354 0.8414 0.8466 0.8496 0.8518
941.000000 0.8516 0.8512 0.8499 0.8471 0.8440
946.000000 0.8406 0.8370 0.8338 0.8325 0.8298
951.000000 0.8359 0.8454 0.8602 0.8724 0.8808
956.000000 0.8852 0.8900 0.8950 0.9000 0.9046
961.000000 0.9089 0.9118 0.9146 0.9171 0.9184
966.000000 0.9189 0.9187 0.9180 0.9166 0.9140
971.000000 0.9087 0.8980 0.8852 0.8722 0.8593
976.000000 0.8352 0.8113 0.8001 0.7890 0.7865
981.000000 0.7870 0.8023 0.8246 0.8470 0.8693
986.000000 0.8843 0.8956 0.9047 0.9128 0.9193
991.000000 0.9254 0.9281 0.9307 0.9332 0.9349
996.000000 0.9366 0.9379 0.9391 0.9402 0.9415
1001.000000 0.9414 0.9441 0.9413 0.9413 0.9390
1006.000000 0.9364 0.9309 0.9223 0.9074 0.8950
1011.000000 0.8906 0.8900 0.8906 0.8920 0.8940
1016.000000 0.8958 0.8959 0.8945 0.8912 0.8804
1021.000000 0.8630 0.8502 0.8431 0.8363 0.8295
1026.000000 0.8266 0.8246 0.8227 0.8210 0.8194
1031.000000 0.8178 0.8142 0.8084 0.8028 0.7968
1036.000000 0.7926 0.7916 0.7894 0.7945 0.7977
1041.000000 0.8018 0.8077 0.8176 0.8335 0.8434
1046.000000 0.8510 0.8561 0.8575 0.8562 0.8545
1051.000000 0.8513 0.8438 0.8329 0.8215 0.8099
1056.000000 0.7983 0.7889 0.7842 0.7798 0.7754
1061.000000 0.7720 0.7686 0.7656 0.7628 0.7598
1066.000000 0.7560 0.7522 0.7480 0.7437 0.7392
1071.000000 0.7350 0.7316 0.7301 0.7294 0.7289
1076.000000 0.7314 0.7299 0.7312 0.7324 0.7343
1081.000000 0.7407 0.7526 0.7644 0.7763 0.7881
1086.000000 0.7999 0.8117 0.8234 0.8352 0.8474
1091.000000 0.8547 0.8593 0.8625 0.8638 0.8652
1096.000000 0.8646 0.8659 0.8656 0.8651 0.8637
1101.000000 0.8605 0.8555 0.8479 0.8394 0.8283
1106.000000 0.8169 0.8052 0.7892 0.7735 0.7453
1111.000000 0.6967 0.6481 0.5996 0.5513 0.4987
1116.000000 0.4789 0.4661 0.4586 0.4561 0.4552
1121.000000 0.4559 0.4730 0.4874 0.5018 0.5162
1126.000000 0.5305 0.5379 0.5387 0.5384 0.5381
1131.000000 0.5378 0.5376 0.5374 0.5378 0.5387
1136.000000 0.5398 0.5418 0.5440 0.5464 0.5518
1141.000000 0.5589 0.5654 0.5706 0.5741 0.5756
1146.000000 0.5768 0.5755 0.5758 0.5733 0.5605
1151.000000 0.5435 0.5264 0.5095 0.4925 0.4757
1156.000000 0.4587 0.4419 0.4251 0.4111 0.4016
1161.000000 0.3920 0.3785 0.3623 0.3437 0.3246
1166.000000 0.3115 0.3020 0.2914 0.2837 0.2796
1171.000000 0.2781 0.2804 0.2800 0.3000 0.3206
1176.000000 0.3413 0.3618 0.3824 0.4029 0.4234
1181.000000 0.4438 0.4642 0.4846 0.5049 0.5252
1186.000000 0.5454 0.5549 0.5555 0.5554 0.5549
1191.000000 0.5445 0.4924 0.4389 0.3854 0.3321
1196.000000 0.2789 0.2257 0.1739 0.1489 0.1457
1201.000000 0.1467 0.1912 0.2339 0.2767 0.3194
1206.000000 0.3619 0.4045 0.4541 0.4867 0.5177
1211.000000 0.5486 0.5795 0.6103 0.6598 0.6852
1216.000000 0.7010 0.7119 0.7211 0.7278 0.7340
1221.000000 0.7376 0.7409 0.7427 0.7435 0.7467
1226.000000 0.7437 0.7431 0.7420 0.7403 0.7371
1231.000000 0.7310 0.7231 0.7165 0.7088 0.6987
1236.000000 0.6837 0.6707 0.6544 0.6361 0.6241
1241.000000 0.6145 0.6054 0.5974 0.5922 0.5873
1246.000000 0.5825 0.5776 0.5722 0.5663 0.5588
1251.000000 0.5495 0.5271 0.4883 0.4495 0.4107
1256.000000 0.3721 0.3335 0.2950 0.2644 0.2447
1261.000000 0.2293 0.2187 0.2098 0.1969 0.1899
1266.000000 0.1853 0.1826 0.1805 0.1800 0.1802
1271.000000 0.1824 0.1819 0.1834 0.1865 0.1923
1276.000000 0.2038 0.2253 0.2507 0.2760 0.3014
1281.000000 0.3267 0.3520 0.3772 0.4024 0.4082
1286.000000 0.4145 0.4219 0.4285 0.4343 0.4401
1291.000000 0.4440 0.4470 0.4499 0.4527 0.4533
1296.000000 0.4539 0.4552 0.4532 0.4477 0.4302
1301.000000 0.4113 0.3923 0.3734 0.3544 0.3356
1306.000000 0.3167 0.2979 0.2791 0.2604 0.2416
1311.000000 0.2229 0.2042 0.1952 0.1963 0.2183
1316.000000 0.2555 0.2926 0.3298 0.3596 0.3650
1321.000000 0.3646 0.3642 0.3635 0.3442 0.3277
1326.000000 0.3113 0.2949 0.2784 0.2621 0.2458
1331.000000 0.2294 0.2131 0.2032 0.2056 0.2333
1336.000000 0.2611 0.2888 0.3165 0.3442 0.3692
1341.000000 0.3864 0.3981 0.4069 0.4170 0.4304
1346.000000 0.4423 0.4507 0.4585 0.4667 0.4749
1351.000000 0.4831 0.4884 0.4922 0.4954 0.4972
1356.000000 0.4984 0.5007 0.4982 0.4973 0.4944
1361.000000 0.4894 0.4828 0.4613 0.4340 0.4072
1366.000000 0.3806 0.3539 0.3273 0.3008 0.2743
1371.000000 0.2478 0.2214 0.1977 0.1951 0.1943
1376.000000 0.2139 0.2315 0.2489 0.2664 0.2833
1381.000000 0.2959 0.3067 0.3177 0.3287 0.3397
1386.000000 0.3506 0.3616 0.3725 0.3824 0.3840
1391.000000 0.3814 0.3736 0.3651 0.3564 0.3479
1396.000000 0.3475 0.3556 0.3732 0.3907 0.4049
1401.000000 0.4078 0.4103 0.4271 0.4374 0.4476
1406.000000 0.4578 0.4671 0.4698 0.4709 0.4719
1411.000000 0.4654 0.4569 0.4483 0.4397 0.4313
1416.000000 0.4270 0.4278 0.4392 0.4748 0.5111
1421.000000 0.5474 0.5837 0.6199 0.6560 0.6838
1426.000000 0.6926 0.6970 0.6998 0.7015 0.7022
1431.000000 0.7020 0.7008 0.6960 0.6812 0.6652
1436.000000 0.6494 0.6335 0.6176 0.6018 0.5860
1441.000000 0.5702 0.5545 0.5388 0.5231 0.5074
1446.000000 0.4918 0.4749 0.4604 0.4459 0.4314
1451.000000 0.4170 0.4027 0.3882 0.3739 0.3595
1456.000000 0.3452 0.3309 0.3166 0.3001 0.2877
1461.000000 0.2805 0.2730 0.2656 0.2593 0.2538
1466.000000 0.2493 0.2449 0.2403 0.2338 0.2262
1471.000000 0.2196 0.2149 0.2118 0.2099 0.2083
1476.000000 0.2073 0.2066 0.2060 0.2060 0.2064
1481.000000 0.2069 0.2056 0.2113 0.2142 0.2176
1486.000000 0.2216 0.2270 0.2344 0.2420 0.2484
1491.000000 0.2562 0.2655 0.2831 0.3064 0.3249
1496.000000 0.3433 0.3617 0.3801 0.3975 0.4102
1501.000000 0.4266 0.4432 0.4506 0.4547 0.4572
1506.000000 0.4595 0.4601 0.4600 0.4592 0.4587
1511.000000 0.4574 0.4546 0.4508 0.4420 0.4309
1516.000000 0.4219 0.4137 0.4010 0.3714 0.3400
1521.000000 0.3085 0.2771 0.2458 0.2145 0.1832
1526.000000 0.1519 0.1208 0.0904 0.0760 0.0685
1531.000000 0.0647 0.0636 0.0651 0.0641 0.0696
1536.000000 0.0913 0.1236 0.1559 0.1881 0.2203
1541.000000 0.2525 0.2846 0.3167 0.3487 0.3788
1546.000000 0.3925 0.4030 0.4090 0.4148 0.4219
1551.000000 0.4307 0.4460 0.4660 0.4859 0.5058
1556.000000 0.5257 0.5455 0.5649 0.5805 0.5932
1561.000000 0.6082 0.6246 0.6401 0.6506 0.6584
1566.000000 0.6651 0.6777 0.7021 0.7193 0.7291
1571.000000 0.7367 0.7408 0.7422 0.7429 0.7436
1576.000000 0.7443 0.7443 0.7440 0.7435 0.7417
1581.000000 0.7372 0.7301 0.7229 0.7156 0.7084
1586.000000 0.7012 0.6940 0.6868 0.6796 0.6724
1591.000000 0.6657 0.6635 0.6637 0.6652 0.6676
1596.000000 0.6702 0.6717 0.6719 0.6719 0.6667
1601.000000 0.6513 0.6302 0.6092 0.5882 0.5672
1606.000000 0.5463 0.5253 0.5044 0.4836 0.4627
1611.000000 0.4419 0.4211 0.4003 0.3796 0.3589
1616.000000 0.3382 0.3175 0.2969 0.2763 0.2557
1621.000000 0.2352 0.2147 0.1942 0.1737 0.1532
1626.000000 0.1330 0.1219 0.1244 0.1224 0.1329
1631.000000 0.1678 0.2071 0.2464 0.2856 0.3248
1636.000000 0.3639 0.4030 0.4420 0.4702 0.4899
1641.000000 0.5103 0.5328 0.5553 0.5777 0.6001
1646.000000 0.6225 0.6448 0.6669 0.6708 0.6752
1651.000000 0.6813 0.6865 0.6906 0.6943 0.6980
1656.000000 0.7020 0.7063 0.7106 0.7144 0.7171
1661.000000 0.7197 0.7223 0.7250 0.7279 0.7311
1666.000000 0.7344 0.7376 0.7412 0.7461 0.7513
1671.000000 0.7565 0.7617 0.7668 0.7719 0.7770
1676.000000 0.7824 0.7881 0.7940 0.7999 0.8055
1681.000000 0.8107 0.8160 0.8212 0.8275 0.8349
1686.000000 0.8424 0.8501 0.8581 0.8614 0.8643
1691.000000 0.8672 0.8698 0.8722 0.8746 0.8769
1696.000000 0.8793 0.8817 0.8842 0.8866 0.8890
1701.000000 0.8915 0.8939 0.8961 0.8971 0.8982
1706.000000 0.8993 0.9003 0.9013 0.9024 0.9035
1711.000000 0.9046 0.9056 0.9067 0.9078 0.9088
1716.000000 0.9098 0.9106 0.9115 0.9124 0.9133
1721.000000 0.9141 0.9150 0.9159 0.9167 0.9176
1726.000000 0.9185 0.9192 0.9197 0.9201 0.9206
1731.000000 0.9210 0.9215 0.9220 0.9224 0.9229
1736.000000 0.9233 0.9236 0.9236 0.9234 0.9232
1741.000000 0.9229 0.9228 0.9225 0.9223 0.9221
1746.000000 0.9219 0.9218 0.9215 0.9211 0.9205
1751.000000 0.9199 0.9192 0.9186 0.9179 0.9173
1756.000000 0.9166 0.9160 0.9153 0.9147 0.9140
1761.000000 0.9133 0.9126 0.9120 0.9113 0.9106
1766.000000 0.9103 0.9105 0.9110 0.9117 0.9128
1771.000000 0.9140 0.9152 0.9164 0.9176 0.9188
1776.000000 0.9202 0.9221 0.9240 0.9258 0.9277
1781.000000 0.9296 0.9314 0.9333 0.9352 0.9370
1786.000000 0.9388 0.9402 0.9415 0.9429 0.9443
1791.000000 0.9457 0.9470 0.9483 0.9495 0.9507
1796.000000 0.9517 0.9523 0.9529 0.9535 0.9541
1801.000000 0.9547 0.9549 0.9552 0.9554 0.9556
1806.000000 0.9557 0.9558 0.9558 0.9558 0.9558
1811.000000 0.9558 0.9558 0.9558 0.9558 0.9558
1816.000000 0.9557 0.9556 0.9555 0.9554 0.9553
1821.000000 0.9551 0.9551 0.9549 0.9548 0.9547
1826.000000 0.9546 0.9544 0.9541 0.9537 0.9532
1831.000000 0.9528 0.9523 0.9519 0.9514 0.9510
1836.000000 0.9506 0.9502 0.9498 0.9493 0.9488
1841.000000 0.9483 0.9478 0.9473 0.9469 0.9464
1846.000000 0.9460 0.9458 0.9456 0.9455 0.9453
1851.000000 0.9452 0.9450 0.9449 0.9448 0.9447
1856.000000 0.9445 0.9445 0.9444 0.9441 0.9437
1861.000000 0.9414 0.9389 0.9364 0.9338 0.9309
1866.000000 0.9276 0.9234 0.9190 0.9145 0.9098
1871.000000 0.9042 0.8962 0.8885 0.8832 0.8779
1876.000000 0.8738 0.8710 0.8681 0.8652 0.8624
1881.000000 0.8597 0.8570 0.8548 0.8531 0.8524
1886.000000 0.8521 0.8519 0.8517 0.8515 0.8524
1891.000000 0.8514 0.8516 0.8520 0.8527 0.8586
1896.000000 0.8683 0.8802 0.8921 0.9006 0.9062
1901.000000 0.9081 0.9100 0.9119 0.9141 0.9165
1906.000000 0.9188 0.9212 0.9233 0.9254 0.9276
1911.000000 0.9297 0.9317 0.9336 0.9353 0.9369
1916.000000 0.9385 0.9401 0.9416 0.9430 0.9443
1921.000000 0.9455 0.9467 0.9480 0.9492 0.9504
1926.000000 0.9517 0.9525 0.9532 0.9539 0.9547
1931.000000 0.9554 0.9562 0.9569 0.9575 0.9580
1936.000000 0.9584 0.9589 0.9593 0.9597 0.9602
1941.000000 0.9607 0.9609 0.9611 0.9613 0.9615
1946.000000 0.9616 0.9617 0.9619 0.9620 0.9621
1951.000000 0.9622 0.9623 0.9623 0.9624 0.9625
1956.000000 0.9626 0.9627 0.9628 0.9628 0.9629
1961.000000 0.9630 0.9631 0.9632 0.9634 0.9635
1966.000000 0.9636 0.9637 0.9638 0.9639 0.9640
1971.000000 0.9642 0.9643 0.9643 0.9646 0.9648
1976.000000 0.9650 0.9652 0.9654 0.9656 0.9658
1981.000000 0.9661 0.9662 0.9664 0.9666 0.9669
1986.000000 0.9671 0.9674 0.9676 0.9679 0.9681
1991.000000 0.9684 0.9687 0.9691 0.9694 0.9698
1996.000000 0.9701 0.9704 0.9707 0.9710 0.9714
2001.000000 0.9717 0.9720 0.9724 0.9726 0.9729
2006.000000 0.9731 0.9734 0.9736 0.9739 0.9741
2011.000000 0.9744 0.9745 0.9746 0.9743 0.9740
2016.000000 0.9737 0.9734 0.9732 0.9729 0.9726
2021.000000 0.9725 0.9722 0.9720 0.9718 0.9716
2026.000000 0.9714 0.9713 0.9711 0.9709 0.9709
2031.000000 0.9711 0.9711 0.9712 0.9713 0.9714
2036.000000 0.9715 0.9715 0.9716 0.9717 0.9718
2041.000000 0.9719 0.9720 0.9722 0.9724 0.9727
2046.000000 0.9730 0.9732 0.9735 0.9738 0.9740
2051.000000 0.9743 0.9746 0.9749 0.9751 0.9754
2056.000000 0.9757 0.9759 0.9761 0.9764 0.9767
2061.000000 0.9769 0.9772 0.9774 0.9777 0.9779
2066.000000 0.9782 0.9785 0.9788 0.9791 0.9794
2071.000000 0.9797 0.9800 0.9803 0.9805 0.9808
2076.000000 0.9811 0.9814 0.9817 0.9820 0.9824
2081.000000 0.9827 0.9830 0.9833 0.9834 0.9835
2086.000000 0.9836 0.9837 0.9837 0.9838 0.9839
2091.000000 0.9840 0.9840 0.9841 0.9842 0.9842
2096.000000 0.9841 0.9841 0.9840 0.9840 0.9839
2101.000000 0.9838 0.9838 0.9837 0.9837 0.9836
2106.000000 0.9835 0.9833 0.9831 0.9830 0.9828
2111.000000 0.9826 0.9825 0.9823 0.9821 0.9820
2116.000000 0.9818 0.9816 0.9815 0.9813 0.9811
2121.000000 0.9809 0.9807 0.9805 0.9803 0.9800
2126.000000 0.9797 0.9794 0.9792 0.9789 0.9786
2131.000000 0.9784 0.9782 0.9779 0.9776 0.9773
2136.000000 0.9771 0.9768 0.9766 0.9764 0.9761
2141.000000 0.9760 0.9760 0.9759 0.9759 0.9758
2146.000000 0.9756 0.9756 0.9756 0.9756 0.9757
2151.000000 0.9757 0.9758 0.9759 0.9760 0.9760
2156.000000 0.9761 0.9762 0.9765 0.9767 0.9770
2161.000000 0.9773 0.9776 0.9778 0.9781 0.9784
2166.000000 0.9786 0.9789 0.9792 0.9794 0.9797
2171.000000 0.9800 0.9802 0.9805 0.9808 0.9811
2176.000000 0.9814 0.9815 0.9817 0.9819 0.9820
2181.000000 0.9821 0.9822 0.9822 0.9821 0.9821
2186.000000 0.9821 0.9821 0.9820 0.9820 0.9804
2191.000000 0.9820 0.9820 0.9819 0.9819 0.9818
2196.000000 0.9818 0.9817 0.9817 0.9816 0.9816
2201.000000 0.9815 0.9815 0.9814 0.9814 0.9813
2206.000000 0.9813 0.9812 0.9812 0.9811 0.9811
2211.000000 0.9810 0.9810 0.9809 0.9809 0.9808
2216.000000 0.9808 0.9807 0.9807 0.9806 0.9806
2221.000000 0.9805 0.9805 0.9804 0.9804 0.9803
2226.000000 0.9803 0.9803 0.9803 0.9803 0.9803
2231.000000 0.9803 0.9803 0.9803 0.9803 0.9803
2236.000000 0.9803 0.9803 0.9803 0.9803 0.9803
2241.000000 0.9803 0.9803 0.9803 0.9803 0.9803
2246.000000 0.9804 0.9805 0.9806 0.9807 0.9808
2251.000000 0.9809 0.9810 0.9811 0.9812 0.9813
2256.000000 0.9813 0.9814 0.9815 0.9816 0.9817
2261.000000 0.9818 0.9818 0.9819 0.9820 0.9821
2266.000000 0.9821 0.9822 0.9822 0.9823 0.9823
2271.000000 0.9824 0.9824 0.9825 0.9825 0.9826
2276.000000 0.9826 0.9825 0.9825 0.9824 0.9824
2281.000000 0.9824 0.9823 0.9823 0.9822 0.9822
2286.000000 0.9821 0.9820 0.9819 0.9819 0.9818
2291.000000 0.9818 0.9817 0.9817 0.9816 0.9814
2296.000000 0.9813 0.9811 0.9809 0.9807 0.9805
2301.000000 0.9803 0.9802 0.9800 0.9798 0.9796
2306.000000 0.9794 0.9792 0.9790 0.9788 0.9785
2311.000000 0.9782 0.9779 0.9776 0.9773 0.9770
2316.000000 0.9767 0.9764 0.9762 0.9759 0.9756
2321.000000 0.9752 0.9749 0.9747 0.9744 0.9741
2326.000000 0.9739 0.9737 0.9735 0.9734 0.9732
2331.000000 0.9731 0.9730 0.9728 0.9727 0.9725
2336.000000 0.9724 0.9723 0.9721 0.9720 0.9719
2341.000000 0.9717 0.9716 0.9715 0.9713 0.9712
2346.000000 0.9712 0.9712 0.9713 0.9715 0.9716
2351.000000 0.9718 0.9720 0.9721 0.9722 0.9724
2356.000000 0.9726 0.9728 0.9730 0.9731 0.9733
2361.000000 0.9734 0.9736 0.9738 0.9739 0.9740
2366.000000 0.9742 0.9744 0.9746 0.9747 0.9750
2371.000000 0.9755 0.9760 0.9764 0.9769 0.9773
2376.000000 0.9778 0.9782 0.9787 0.9792 0.9795
2381.000000 0.9799 0.9801 0.9804 0.9807 0.9810
2386.000000 0.9813 0.9815 0.9818 0.9821 0.9823
2391.000000 0.9818 0.9812 0.9807 0.9802 0.9796
2396.000000 0.9790 0.9784 0.9778 0.9771 0.9764
2401.000000 0.9757 0.9750 0.9744 0.9738 0.9731
2406.000000 0.9725 0.9716 0.9708 0.9699 0.9691
2411.000000 0.9683 0.9674 0.9666 0.9657 0.9648
2416.000000 0.9641 0.9635 0.9631 0.9632 0.9632
2421.000000 0.9633 0.9633 0.9634 0.9635 0.9636
2426.000000 0.9636 0.9636 0.9637 0.9638 0.9639
2431.000000 0.9640 0.9641 0.9641 0.9642 0.9643
2436.000000 0.9645 0.9646 0.9647 0.9647 0.9648
2441.000000 0.9649 0.9650 0.9652 0.9653 0.9654
2446.000000 0.9654 0.9655 0.9656 0.9657 0.9658
2451.000000 0.9659 0.9659 0.9659 0.9660 0.9661
2456.000000 0.9662 0.9662 0.9662 0.9663 0.9664
2461.000000 0.9665 0.9665 0.9665 0.9666 0.9667
2466.000000 0.9668 0.9668 0.9667 0.9667 0.9667
2471.000000 0.9666 0.9666 0.9665 0.9665 0.9665
2476.000000 0.9664 0.9664 0.9663 0.9662 0.9662
2481.000000 0.9660 0.9659 0.9657 0.9654 0.9652
2486.000000 0.9649 0.9646 0.9643 0.9641 0.9639
2491.000000 0.9636 0.9634 0.9631 0.9629 0.9627
2496.000000 0.9624 0.9622 0.9619 0.9616 0.9614
2501.000000 0.9610 0.9607 0.9604 0.9601 0.9598
2506.000000 0.9594 0.9591 0.9588 0.9585 0.9583
2511.000000 0.9579 0.9576 0.9573 0.9570 0.9567
2516.000000 0.9564 0.9561 0.9558 0.9556 0.9553
2521.000000 0.9551 0.9548 0.9546 0.9544 0.9542
2526.000000 0.9540 0.9537 0.9535 0.9533 0.9530
2531.000000 0.9528 0.9526 0.9524 0.9522 0.9520
2536.000000 0.9518 0.9516 0.9515 0.9514 0.9513
2541.000000 0.9512 0.9511 0.9510 0.9509 0.9508
2546.000000 0.9507 0.9506 0.9505 0.9504 0.9503
2551.000000 0.9502 0.9498 0.9495 0.9491 0.9487
2556.000000 0.9483 0.9480 0.9476 0.9472 0.9466
2561.000000 0.9459 0.9453 0.9445 0.9437 0.9430
2566.000000 0.9422 0.9414 0.9407 0.9399 0.9390
2571.000000 0.9379 0.9369 0.9358 0.9348 0.9337
2576.000000 0.9326 0.9315 0.9304 0.9293 0.9282
2581.000000 0.9272 0.9261 0.9251 0.9240 0.9229
2586.000000 0.9218 0.9207 0.9196 0.9185 0.9174
2591.000000 0.9163 0.9152 0.9141 0.9131 0.9120
2596.000000 0.9110 0.9101 0.9091 0.9082 0.9073
2601.000000 0.9064 0.9055 0.9047 0.9039 0.9032
2606.000000 0.9025 0.9019 0.9012 0.9005 0.8999
2611.000000 0.8992 0.8985 0.8978 0.8972 0.8965
2616.000000 0.8962 0.8960 0.8958 0.8958 0.8957
2621.000000 0.8957 0.8958 0.8958 0.8960 0.8963
2626.000000 0.8965 0.8968 0.8970 0.8974 0.8979
2631.000000 0.8984 0.8990 0.8995 0.9000 0.9008
2636.000000 0.9017 0.9026 0.9036 0.9046 0.9057
2641.000000 0.9071 0.9085 0.9097 0.9106 0.9114
2646.000000 0.9122 0.9130 0.9137 0.9142 0.9146
2651.000000 0.9150 0.9152 0.9153 0.9155 0.9155
2656.000000 0.9156 0.9157 0.9157 0.9158 0.9159
2661.000000 0.9159 0.9159 0.9158 0.9157 0.9157
2666.000000 0.9156 0.9155 0.9155 0.9154 0.9153
2671.000000 0.9152 0.9152 0.9151 0.9150 0.9149
2676.000000 0.9148 0.9147 0.9146 0.9144 0.9143
2681.000000 0.9141 0.9140 0.9138 0.9136 0.9134
2686.000000 0.9132 0.9130 0.9128 0.9125 0.9123
2691.000000 0.9121 0.9118 0.9116 0.9113 0.9111
2696.000000 0.9109 0.9107 0.9106 0.9105 0.9103
2701.000000 0.9101 0.9100 0.9098 0.9097 0.9095
2706.000000 0.9094 0.9092 0.9090 0.9089 0.9088
2711.000000 0.9086 0.9085 0.9084 0.9083 0.9082
2716.000000 0.9080 0.9079 0.9078 0.9077 0.9076
2721.000000 0.9074 0.9070 0.9067 0.9056 0.9040
2726.000000 0.9025 0.9007 0.8988 0.8968 0.8946
2731.000000 0.8923 0.8900 0.8878 0.8856 0.8834
2736.000000 0.8813 0.8792 0.8772 0.8752 0.8732
2741.000000 0.8712 0.8693 0.8673 0.8654 0.8636
2746.000000 0.8619 0.8602 0.8584 0.8567 0.8549
2751.000000 0.8531 0.8511 0.8492 0.8478 0.8465
2756.000000 0.8453 0.8447 0.8445 0.8443 0.8443
2761.000000 0.8444 0.8444 0.8446 0.8448 0.8450
2766.000000 0.8452 0.8454 0.8456 0.8460 0.8465
2771.000000 0.8470 0.8477 0.8488 0.8498 0.8509
2776.000000 0.8522 0.8535 0.8547 0.8560 0.8573
2781.000000 0.8586 0.8595 0.8604 0.8613 0.8620
2786.000000 0.8628 0.8635 0.8641 0.8647 0.8653
2791.000000 0.8655 0.8656 0.8657 0.8657 0.8657
2796.000000 0.8657 0.8656 0.8654 0.8652 0.8650
2801.000000 0.8647 0.8644 0.8639 0.8633 0.8626
2806.000000 0.8615 0.8583 0.8551 0.8519 0.8494
2811.000000 0.8469 0.8443 0.8407 0.8368 0.8330
2816.000000 0.8294 0.8259 0.8224 0.8191 0.8160
2821.000000 0.8129 0.8097 0.8062 0.8027 0.7992
2826.000000 0.7957 0.7921 0.7885 0.7854 0.7823
2831.000000 0.7792 0.7763 0.7734 0.7705 0.7680
2836.000000 0.7658 0.7636 0.7615 0.7593 0.7572
2841.000000 0.7551 0.7529 0.7507 0.7486 0.7461
2846.000000 0.7435 0.7410 0.7384 0.7356 0.7329
2851.000000 0.7302 0.7277 0.7252 0.7227 0.7204
2856.000000 0.7181 0.7158 0.7135 0.7112 0.7090
2861.000000 0.7014 0.6902 0.6789 0.6674 0.6552
2866.000000 0.6431 0.6309 0.6188 0.6067 0.5945
2871.000000 0.5824 0.5703 0.5582 0.5461 0.5340
2876.000000 0.5219 0.5099 0.4978 0.4857 0.4737
2881.000000 0.4617 0.4496 0.4376 0.4256 0.4136
2886.000000 0.4017 0.3897 0.3777 0.3657 0.3537
2891.000000 0.3418 0.3299 0.3179 0.3060 0.2941
2896.000000 0.2821 0.2702 0.2583 0.2465 0.2346
2901.000000 0.2228 0.2109 0.1991 0.1904 0.1866
2906.000000 0.1829 0.1791 0.1782 0.1774 0.1765
2911.000000 0.1757 0.1749 0.1742 0.1736 0.1732
2916.000000 0.1728 0.1724 0.1720 0.1716 0.1712
2921.000000 0.1709 0.1707 0.1706 0.1704 0.1703
2926.000000 0.1702 0.1700 0.1686 0.1663 0.1640
2931.000000 0.1618 0.1595 0.1572 0.1549 0.1525
2936.000000 0.1501 0.1478 0.1453 0.1425 0.1397
2941.000000 0.1369 0.1343 0.1317 0.1290 0.1269
2946.000000 0.1258 0.1247 0.1236 0.1227 0.1218
2951.000000 0.1209 0.1201 0.1195 0.1190 0.1184
2956.000000 0.1178 0.1172 0.1166 0.1161 0.1157
2961.000000 0.1153 0.1149 0.1146 0.1143 0.1139
2966.000000 0.1136 0.1134 0.1131 0.1129 0.1127
2971.000000 0.1126 0.1124 0.1112 0.1080 0.1047
2976.000000 0.1015 0.0983 0.0952 0.0921 0.0887
2981.000000 0.0844 0.0801 0.0758 0.0727 0.0700
2986.000000 0.0674 0.0650 0.0638 0.0626 0.0614
2991.000000 0.0605 0.0598 0.0592 0.0586 0.0584
2996.000000 0.0583 0.0581 0.0580 0.0580 0.0579
3001.000000 0.0579 0.0608 0.0579 0.0579 0.0583
3006.000000 0.0606 0.0628 0.0651 0.0703 0.0778
3011.000000 0.0852 0.0927 0.1002 0.1076 0.1151
3016.000000 0.1225 0.1300 0.1374 0.1448 0.1523
3021.000000 0.1596 0.1670 0.1744 0.1818 0.1892
3026.000000 0.1967 0.2041 0.2114 0.2188 0.2262
3031.000000 0.2336 0.2409 0.2483 0.2556 0.2629
3036.000000 0.2703 0.2776 0.2850 0.2923 0.2997
3041.000000 0.3070 0.3143 0.3216 0.3289 0.3362
3046.000000 0.3435 0.3508 0.3581 0.3653 0.3726
3051.000000 0.3798 0.3871 0.3944 0.4016 0.4089
3056.000000 0.4161 0.4234 0.4306 0.4379 0.4451
3061.000000 0.4523 0.4595 0.4667 0.4739 0.4811
3066.000000 0.4883 0.4956 0.5028 0.5099 0.5171
3071.000000 0.5243 0.5284 0.5315 0.5346 0.5377
3076.000000 0.5390 0.5403 0.5416 0.5428 0.5434
3081.000000 0.5441 0.5447 0.5453 0.5456 0.5459
3086.000000 0.5462 0.5465 0.5467 0.5470 0.5472
3091.000000 0.5500 0.5536 0.5572 0.5607 0.5666
3096.000000 0.5726 0.5786 0.5846 0.5906 0.5966
3101.000000 0.6025 0.6085 0.6145 0.6205 0.6264
3106.000000 0.6324 0.6383 0.6443 0.6503 0.6562
3111.000000 0.6621 0.6681 0.6740 0.6799 0.6858
3116.000000 0.6917 0.6976 0.7035 0.7094 0.7154
3121.000000 0.7213 0.7267 0.7321 0.7375 0.7430
3126.000000 0.7439 0.7449 0.7459 0.7470 0.7484
3131.000000 0.7499 0.7513 0.7527 0.7535 0.7543
3136.000000 0.7550 0.7559 0.7570 0.7581 0.7593
3141.000000 0.7609 0.7636 0.7663 0.7691 0.7715
3146.000000 0.7735 0.7755 0.7775 0.7863 0.8057
3151.000000 0.8252 0.8447 0.8564 0.8572 0.8579
3156.000000 0.8587 0.8594 0.8600 0.8606 0.8612
3161.000000 0.8617 0.8621 0.8625 0.8628 0.8632
3166.000000 0.8636 0.8639 0.8643 0.8645 0.8647
3171.000000 0.8649 0.8651 0.8653 0.8655 0.8657
3176.000000 0.8659 0.8661 0.8663 0.8665 0.8667
3181.000000 0.8669 0.8671 0.8673 0.8674 0.8676
3186.000000 0.8678 0.8679 0.8681 0.8683 0.8685
3191.000000 0.8686 0.8688 0.8690 0.8691 0.8693
3196.000000 0.8695 0.8697 0.8698 0.8700 0.8702
3201.000000 0.8703 0.8705 0.8707 0.8709 0.8710
3206.000000 0.8712 0.8714 0.8715 0.8717 0.8718
3211.000000 0.8719 0.8720 0.8721 0.8722 0.8722
3216.000000 0.8722 0.8722 0.8723 0.8723 0.8724
3221.000000 0.8724 0.8725 0.8725 0.8725 0.8725
3226.000000 0.8726 0.8726 0.8727 0.8727 0.8728
3231.000000 0.8729 0.8730 0.8732 0.8733 0.8739
3236.000000 0.8746 0.8753 0.8760 0.8769 0.8780
3241.000000 0.8790 0.8801 0.8812 0.8825 0.8837
3246.000000 0.8850 0.8862 0.8874 0.8886 0.8897
3251.000000 0.8909 0.8919 0.8929 0.8939 0.8948
3256.000000 0.8956 0.8963 0.8970 0.8976 0.8982
3261.000000 0.8987 0.8992 0.8997 0.9002 0.9007
3266.000000 0.9011 0.9016 0.9021 0.9025 0.9030
3271.000000 0.9034 0.9038 0.9042 0.9046 0.9050
3276.000000 0.9053 0.9057 0.9061 0.9065 0.9069
3281.000000 0.9073 0.9075 0.9077 0.9078 0.9080
3286.000000 0.9082 0.9083 0.9085 0.9087 0.9088
3291.000000 0.9090 0.9091 0.9092 0.9094 0.9094
3296.000000 0.9095 0.9096 0.9096 0.9097 0.9097
3301.000000 0.9098 0.9098 0.9099 0.9099 0.9100
3306.000000 0.9100 0.9100 0.9100 0.9100 0.9100
3311.000000 0.9100 0.9099 0.9099 0.9099 0.9099
3316.000000 0.9091 0.9098 0.9097 0.9097 0.9097
3321.000000 0.9095 0.9093 0.9092 0.9090 0.9088
3326.000000 0.9086 0.9084 0.9082 0.9080 0.9077
3331.000000 0.9074 0.9071 0.9068 0.9064 0.9060
3336.000000 0.9055 0.9050 0.9041 0.9017 0.8993
3341.000000 0.8969 0.8945 0.8921 0.8897 0.8872
3346.000000 0.8848 0.8824 0.8799 0.8775 0.8751
3351.000000 0.8727 0.8702 0.8678 0.8654 0.8630
3356.000000 0.8605 0.8581 0.8557 0.8533 0.8509
3361.000000 0.8485 0.8460 0.8436 0.8412 0.8388
3366.000000 0.8364 0.8340 0.8316 0.8292 0.8268
3371.000000 0.8244 0.8221 0.8197 0.8173 0.8149
3376.000000 0.8125 0.8101 0.8078 0.8054 0.8030
3381.000000 0.8006 0.7982 0.7958 0.7935 0.7911
3386.000000 0.7887 0.7863 0.7839 0.7816 0.7792
3391.000000 0.7768 0.7745 0.7721 0.7697 0.7674
3396.000000 0.7650 0.7626 0.7603 0.7579 0.7556
3401.000000 0.7532 0.7508 0.7485 0.7461 0.7438
3406.000000 0.7414 0.7391 0.7368 0.7345 0.7321
3411.000000 0.7298 0.7275 0.7251 0.7228 0.7205
3416.000000 0.7181 0.7158 0.7135 0.7111 0.7088
3421.000000 0.7065 0.7041 0.7018 0.6995 0.6972
3426.000000 0.6948 0.6925 0.6902 0.6879 0.6856
3431.000000 0.6832 0.6809 0.6786 0.6763 0.6740
3436.000000 0.6717 0.6694 0.6671 0.6648 0.6625
3441.000000 0.6602 0.6579 0.6556 0.6533 0.6510
3446.000000 0.6487 0.6464 0.6441 0.6418 0.6395
3451.000000 0.6373 0.6350 0.6327 0.6324 0.6321
3456.000000 0.6318 0.6315 0.6344 0.6312 0.6312
3461.000000 0.6312 0.6312 0.6312 0.6315 0.6317
3466.000000 0.6319 0.6322 0.6417 0.6577 0.6737
3471.000000 0.6897 0.7057 0.7174 0.7278 0.7383
3476.000000 0.7488 0.7592 0.7631 0.7667 0.7703
3481.000000 0.7739 0.7782 0.7894 0.8006 0.8117
3486.000000 0.8229 0.8317 0.8337 0.8356 0.8375
3491.000000 0.8395 0.8415 0.8437 0.8459 0.8481
3496.000000 0.8502 0.8526 0.8553 0.8579 0.8605
3501.000000 0.8631 0.8662 0.8695 0.8728 0.8762
3506.000000 0.8795 0.8818 0.8836 0.8854 0.8872
3511.000000 0.8890 0.8907 0.8924 0.8940 0.8957
3516.000000 0.8974 0.8984 0.8993 0.9003 0.9012
3521.000000 0.9021 0.9030 0.9039 0.9049 0.9058
3526.000000 0.9067 0.9076 0.9085 0.9094 0.9103
3531.000000 0.9112 0.9120 0.9128 0.9136 0.9144
3536.000000 0.9152 0.9160 0.9168 0.9175 0.9183
3541.000000 0.9191 0.9199 0.9207 0.9215 0.9223
3546.000000 0.9231 0.9237 0.9242 0.9248 0.9253
3551.000000 0.9259 0.9263 0.9268 0.9273 0.9277
3556.000000 0.9282 0.9286 0.9291 0.9295 0.9300
3561.000000 0.9304 0.9308 0.9311 0.9315 0.9318
3566.000000 0.9321 0.9325 0.9328 0.9331 0.9335
3571.000000 0.9338 0.9341 0.9345 0.9348 0.9351
3576.000000 0.9355 0.9358 0.9361 0.9365 0.9368
3581.000000 0.9371 0.9375 0.9378 0.9381 0.9384
3586.000000 0.9387 0.9390 0.9392 0.9395 0.9397
3591.000000 0.9399 0.9402 0.9404 0.9406 0.9408
3596.000000 0.9410 0.9412 0.9414 0.9416 0.9419
3601.000000 0.9421 0.9423 0.9425 0.9427 0.9429
3606.000000 0.9431 0.9433 0.9436 0.9438 0.9440
3611.000000 0.9443 0.9445 0.9447 0.9449 0.9451
3616.000000 0.9453 0.9456 0.9458 0.9459 0.9461
3621.000000 0.9463 0.9464 0.9466 0.9468 0.9469
3626.000000 0.9470 0.9472 0.9473 0.9474 0.9476
3631.000000 0.9477 0.9478 0.9480 0.9481 0.9482
3636.000000 0.9483 0.9484 0.9485 0.9486 0.9488
3641.000000 0.9489 0.9490 0.9492 0.9493 0.9494
3646.000000 0.9495 0.9497 0.9498 0.9499 0.9500
3651.000000 0.9501 0.9501 0.9502 0.9503 0.9504
3656.000000 0.9504 0.9505 0.9506 0.9507 0.9507
3661.000000 0.9508 0.9509 0.9509 0.9510 0.9511
3666.000000 0.9512 0.9513 0.9514 0.9515 0.9516
3671.000000 0.9516 0.9517 0.9518 0.9519 0.9519
3676.000000 0.9520 0.9521 0.9522 0.9522 0.9523
3681.000000 0.9524 0.9525 0.9526 0.9526 0.9527
3686.000000 0.9528 0.9529 0.9530 0.9530 0.9531
3691.000000 0.9532 0.9532 0.9533 0.9533 0.9533
3696.000000 0.9534 0.9534 0.9534 0.9535 0.9535
3701.000000 0.9536 0.9536 0.9536 0.9537 0.9537
3706.000000 0.9538 0.9538 0.9539 0.9539 0.9540
3711.000000 0.9540 0.9541 0.9541 0.9541 0.9542
3716.000000 0.9542 0.9542 0.9543 0.9543 0.9543
3721.000000 0.9544 0.9544 0.9544 0.9545 0.9545
3726.000000 0.9546 0.9546 0.9546 0.9546 0.9546
3731.000000 0.9546 0.9546 0.9546 0.9546 0.9546
3736.000000 0.9546 0.9546 0.9546 0.9546 0.9546
3741.000000 0.9546 0.9546 0.9557 0.9546 0.9546
3746.000000 0.9546 0.9546 0.9546 0.9547 0.9547
3751.000000 0.9547 0.9547 0.9547 0.9547 0.9547
3756.000000 0.9547 0.9547 0.9547 0.9547 0.9546
3761.000000 0.9546 0.9546 0.9545 0.9545 0.9545
3766.000000 0.9544 0.9544 0.9543 0.9543 0.9543
3771.000000 0.9542 0.9542 0.9541 0.9541 0.9540
3776.000000 0.9540 0.9539 0.9539 0.9539 0.9538
3781.000000 0.9538 0.9538 0.9537 0.9537 0.9537
3786.000000 0.9536 0.9536 0.9535 0.9535 0.9534
3791.000000 0.9534 0.9533 0.9533 0.9532 0.9532
3796.000000 0.9531 0.9531 0.9530 0.9530 0.9529
3801.000000 0.9528 0.9528 0.9527 0.9526 0.9526
3806.000000 0.9525 0.9524 0.9523 0.9522 0.9521
3811.000000 0.9520 0.9520 0.9519 0.9518 0.9518
3816.000000 0.9517 0.9516 0.9516 0.9515 0.9514
3821.000000 0.9514 0.9513 0.9512 0.9512 0.9511
3826.000000 0.9510 0.9510 0.9509 0.9508 0.9507
3831.000000 0.9507 0.9506 0.9505 0.9505 0.9504
3836.000000 0.9502 0.9501 0.9500 0.9498 0.9497
3841.000000 0.9495 0.9494 0.9492 0.9491 0.9489
3846.000000 0.9488 0.9486 0.9485 0.9484 0.9482
3851.000000 0.9481 0.9480 0.9478 0.9476 0.9474
3856.000000 0.9472 0.9470 0.9469 0.9465 0.9461
3861.000000 0.9457 0.9453 0.9449 0.9445 0.9442
3866.000000 0.9439 0.9436 0.9433 0.9430 0.9427
3871.000000 0.9426 0.9425 0.9424 0.9423 0.9422
3876.000000 0.9421 0.9421 0.9420 0.9419 0.9418
3881.000000 0.9417 0.9416 0.9416 0.9415 0.9415
3886.000000 0.9415 0.9414 0.9414 0.9413 0.9412
3891.000000 0.9412 0.9411 0.9410 0.9410 0.9409
3896.000000 0.9409 0.9408 0.9408 0.9407 0.9407
3901.000000 0.9406 0.9405 0.9405 0.9404 0.9403
3906.000000 0.9403 0.9402 0.9401 0.9401 0.9400
3911.000000 0.9399 0.9399 0.9398 0.9398 0.9397
3916.000000 0.9397 0.9396 0.9396 0.9395 0.9395
3921.000000 0.9394 0.9393 0.9393 0.9392 0.9391
3926.000000 0.9391 0.9390 0.9390 0.9389 0.9389
3931.000000 0.9388 0.9388 0.9387 0.9386 0.9386
3936.000000 0.9385 0.9385 0.9384 0.9383 0.9383
3941.000000 0.9382 0.9381 0.9381 0.9380 0.9380
3946.000000 0.9379 0.9379 0.9378 0.9378 0.9377
3951.000000 0.9377 0.9376 0.9375 0.9375 0.9374
3956.000000 0.9373 0.9373 0.9372 0.9371 0.9371
3961.000000 0.9370 0.9369 0.9369 0.9369 0.9368
3966.000000 0.9368 0.9367 0.9367 0.9366 0.9365
3971.000000 0.9365 0.9364 0.9363 0.9363 0.9362
3976.000000 0.9362 0.9361 0.9360 0.9360 0.9359
3981.000000 0.9358 0.9358 0.9358 0.9357 0.9357
3986.000000 0.9356 0.9356 0.9355 0.9354 0.9354
3991.000000 0.9353 0.9353 0.9352 0.9351 0.9350
3996.000000 0.9350 0.9349 0.9348 0.9347 0.9347
##END=
