##TITLE=OCTATETRAENE DICARBOXYLIC ACID, DIMETHYL ESTER
##JCAMP-DX=4.24
##DATA TYPE=INFRARED SPECTRUM
##CLASS=COBLENTZ
##ORIGIN=ABBOTT LABORATORIES
##OWNER=COBLENTZ SOCIETY
Collection (C) 2018 copyright by the U.S. Secretary of Commerce
on behalf of the United States of America. All rights reserved.
##DATE=Not specified, most likely prior to 1970
##NAMES=dimethyl (2E,4E,6E,8E)-2,4,6,8-decatetraenedioate
##MOLFORM=C12 H14 O4
##SOURCE REFERENCE=COBLENTZ NO. 663
##$NIST ID=B6000663
##$NIST SOURCE=COBLENTZ
##$NIST IMAGE=cob663
##SPECTROMETER/DATA SYSTEM=Not specified, most likely a grating spectrometer.
##STATE=SOLID (OIL MULL)
##SAMPLING PROCEDURE=TRANSMISSION
##RESOLUTION=4
##DATA PROCESSING=DIGITIZED BY NIST FROM HARD COPY
##XUNITS=MICROMETERS
##YUNITS=TRANSMITTANCE
##XFACTOR=1.000000
##YFACTOR=1
##DELTAX=000.006696
##FIRSTX=1.989
##LASTX=15.4758
##FIRSTY=0.312
##MAXX=15.4758
##MINX=1.989
##MAXY=0.828
##MINY=0.103
##NPOINTS=2015
##XYDATA=(X++(Y..Y))
1.989000 0.3120 0.3120 0.3120 0.3120 0.3120
2.022499 0.3120 0.3140 0.3120 0.3120 0.3120
2.056000 0.3140 0.3150 0.3150 0.3150 0.3170
2.089499 0.3170 0.3170 0.3190 0.3200 0.3200
2.123000 0.3200 0.3200 0.3220 0.3240 0.3240
2.156499 0.3240 0.3240 0.3240 0.3240 0.3240
2.190000 0.3220 0.3200 0.3200 0.3200 0.3190
2.223499 0.3190 0.3200 0.3200 0.3200 0.3200
2.257000 0.3200 0.3200 0.3190 0.3190 0.3190
2.290499 0.3190 0.3190 0.3200 0.3200 0.3200
2.324000 0.3220 0.3200 0.3200 0.3200 0.3200
2.357499 0.3200 0.3200 0.3220 0.3240 0.3240
2.391000 0.3250 0.3250 0.3250 0.3270 0.3280
2.424499 0.3280 0.3280 0.3300 0.3300 0.3300
2.458000 0.3320 0.3320 0.3350 0.3370 0.3400
2.491499 0.3400 0.3400 0.3400 0.3380 0.3370
2.525000 0.3350 0.3350 0.3350 0.3350 0.3350
2.558499 0.3350 0.3350 0.3350 0.3350 0.3330
2.592000 0.3350 0.3350 0.3370 0.3370 0.3380
2.625499 0.3380 0.3380 0.3380 0.3380 0.3400
2.658000 0.3400 0.3420 0.3430 0.3430 0.3450
2.691499 0.3470 0.3470 0.3480 0.3480 0.3500
2.725000 0.3500 0.3500 0.3500 0.3500 0.3500
2.758499 0.3500 0.3500 0.3510 0.3510 0.3510
2.792000 0.3510 0.3530 0.3510 0.3510 0.3510
2.825499 0.3510 0.3510 0.3510 0.3500 0.3500
2.859000 0.3500 0.3500 0.3500 0.3500 0.3510
2.892499 0.3510 0.3500 0.3500 0.3500 0.3510
2.926000 0.3530 0.3530 0.3530 0.3560 0.3580
2.959499 0.3580 0.3580 0.3580 0.3560 0.3560
2.993000 0.3560 0.3560 0.3580 0.3580 0.3600
3.026499 0.3580 0.3580 0.3580 0.3580 0.3580
3.060000 0.3600 0.3600 0.3610 0.3630 0.3650
3.093499 0.3650 0.3650 0.3650 0.3650 0.3630
3.127000 0.3610 0.3600 0.3600 0.3580 0.3580
3.160499 0.3600 0.3600 0.3600 0.3600 0.3600
3.194000 0.3600 0.3600 0.3600 0.3610 0.3600
3.227499 0.3600 0.3580 0.3580 0.3580 0.3550
3.261000 0.3500 0.3450 0.3330 0.3270 0.3200
3.294499 0.3050 0.2920 0.2790 0.2580 0.2300
3.328000 0.2020 0.1750 0.1520 0.1280 0.1230
3.361499 0.1200 0.1160 0.1130 0.1110 0.1080
3.395000 0.1060 0.1030 0.1050 0.1180 0.1250
3.428499 0.1330 0.1360 0.1380 0.1430 0.1430
3.462000 0.1430 0.1460 0.1790 0.2020 0.2170
3.495499 0.2330 0.2610 0.2910 0.3150 0.3320
3.529000 0.3430 0.3470 0.3500 0.3530 0.3550
3.562499 0.3560 0.3660 0.3700 0.3710 0.3730
3.596000 0.3750 0.3780 0.3790 0.3810 0.3810
3.629499 0.3830 0.3830 0.3830 0.3840 0.3840
3.663000 0.3860 0.3860 0.3860 0.3880 0.3860
3.696499 0.3860 0.3860 0.3860 0.3860 0.3860
3.730000 0.3880 0.3890 0.3890 0.3890 0.3890
3.763499 0.3890 0.3910 0.3910 0.3910 0.3930
3.797000 0.3930 0.3940 0.3940 0.3960 0.3960
3.830499 0.3980 0.3960 0.3980 0.3980 0.3990
3.864000 0.3990 0.4010 0.4010 0.4010 0.4020
3.897499 0.4020 0.4020 0.4060 0.4070 0.4070
3.931000 0.4090 0.4090 0.4090 0.4110 0.4110
3.964499 0.4110 0.4120 0.4120 0.4170 0.4190
3.998000 0.4210 0.4220 0.4240 0.4250 0.4270
4.031499 0.4270 0.4270 0.4270 0.4270 0.4270
4.065000 0.4270 0.4290 0.4290 0.4270 0.4250
4.098499 0.4240 0.4240 0.4240 0.4240 0.4240
4.132000 0.4240 0.4240 0.4220 0.4220 0.4220
4.165499 0.4220 0.4210 0.4210 0.4210 0.4210
4.199000 0.4210 0.4220 0.4240 0.4250 0.4270
4.232499 0.4290 0.4300 0.4320 0.4320 0.4320
4.266000 0.4320 0.4300 0.4300 0.4320 0.4320
4.299499 0.4340 0.4340 0.4350 0.4370 0.4400
4.333000 0.4420 0.4470 0.4470 0.4490 0.4490
4.366499 0.4500 0.4500 0.4500 0.4500 0.4500
4.400000 0.4500 0.4520 0.4520 0.4530 0.4530
4.433499 0.4530 0.4530 0.4570 0.4570 0.4580
4.467000 0.4580 0.4570 0.4570 0.4570 0.4580
4.500499 0.4600 0.4620 0.4630 0.4630 0.4630
4.533000 0.4650 0.4680 0.4700 0.4720 0.4720
4.566499 0.4720 0.4730 0.4730 0.4720 0.4720
4.600000 0.4730 0.4750 0.4760 0.4780 0.4800
4.633499 0.4780 0.4760 0.4760 0.4760 0.4760
4.667000 0.4780 0.4780 0.4800 0.4810 0.4830
4.700499 0.4850 0.4860 0.4850 0.4850 0.4850
4.734000 0.4810 0.4800 0.4810 0.4830 0.4830
4.767499 0.4850 0.4850 0.4850 0.4850 0.4860
4.801000 0.4860 0.4880 0.4880 0.4900 0.4910
4.834499 0.4930 0.4930 0.4930 0.4950 0.4950
4.868000 0.4960 0.4960 0.4960 0.4960 0.4960
4.901499 0.4960 0.4960 0.4980 0.4980 0.5000
4.935000 0.5000 0.5000 0.5000 0.5000 0.5000
4.968499 0.5000 0.4980 0.4980 0.5000 0.5060
5.002000 0.5080 0.5080 0.5090 0.5110 0.5160
5.035499 0.5160 0.5160 0.5160 0.5180 0.5180
5.069000 0.5180 0.5190 0.5210 0.5260 0.5270
5.102499 0.5270 0.5290 0.5290 0.5290 0.5290
5.136000 0.5290 0.5290 0.5310 0.5310 0.5310
5.169499 0.5290 0.5290 0.5310 0.5310 0.5310
5.203000 0.5320 0.5320 0.5340 0.5360 0.5370
5.236499 0.5390 0.5390 0.5390 0.5410 0.5420
5.270000 0.5440 0.5460 0.5470 0.5470 0.5470
5.303499 0.5470 0.5470 0.5470 0.5490 0.5500
5.337000 0.5540 0.5550 0.5590 0.5600 0.5620
5.370499 0.5640 0.5640 0.5650 0.5650 0.5670
5.404000 0.5670 0.5690 0.5690 0.5690 0.5690
5.437499 0.5670 0.5690 0.5690 0.5700 0.5720
5.471000 0.5720 0.5740 0.5740 0.5750 0.5770
5.504499 0.5780 0.5780 0.5780 0.5770 0.5770
5.538000 0.5770 0.5770 0.5780 0.5780 0.5780
5.571499 0.5770 0.5750 0.5750 0.5750 0.5750
5.605000 0.5750 0.5770 0.5770 0.5750 0.5720
5.638499 0.5720 0.5740 0.5740 0.5770 0.5770
5.672000 0.5770 0.5770 0.5770 0.5750 0.5720
5.705499 0.5690 0.5620 0.5550 0.5490 0.5470
5.739000 0.5460 0.5410 0.5340 0.5270 0.5190
5.772499 0.5000 0.4760 0.4570 0.4490 0.4350
5.806000 0.4140 0.3860 0.3610 0.3330 0.3150
5.839499 0.2970 0.2710 0.2430 0.2230 0.2050
5.873000 0.1870 0.1850 0.1890 0.1990 0.2380
5.906499 0.3050 0.3500 0.3680 0.3780 0.4070
5.940000 0.4680 0.5060 0.5320 0.5490 0.5690
5.973499 0.5950 0.6050 0.6180 0.6310 0.6380
6.007000 0.6460 0.6480 0.6610 0.6590 0.6570
6.040499 0.6520 0.6520 0.6520 0.6510 0.6490
6.074000 0.6480 0.6510 0.6800 0.6870 0.6920
6.107499 0.6640 0.5950 0.5420 0.4930 0.4070
6.141000 0.3380 0.2790 0.2360 0.2150 0.2000
6.174499 0.2000 0.2120 0.2220 0.2450 0.2630
6.208000 0.2960 0.3170 0.3380 0.3530 0.3990
6.241499 0.4340 0.4450 0.4570 0.4680 0.4810
6.275000 0.4950 0.5090 0.5210 0.5420 0.5620
6.308499 0.5770 0.5950 0.5970 0.5870 0.5420
6.342000 0.5010 0.4760 0.4340 0.4160 0.3990
6.375499 0.3960 0.4010 0.4090 0.4160 0.4190
6.408000 0.4220 0.4300 0.4350 0.4500 0.4620
6.441499 0.4720 0.4830 0.4880 0.4950 0.4980
6.475000 0.5040 0.5110 0.5130 0.5140 0.5390
6.508499 0.5460 0.5550 0.5620 0.5650 0.5690
6.542000 0.5740 0.5750 0.5800 0.5820 0.5830
6.575499 0.5870 0.5880 0.5920 0.5930 0.5950
6.609000 0.5980 0.6010 0.6030 0.6060 0.6080
6.642499 0.6130 0.6160 0.6200 0.6250 0.6280
6.676000 0.6290 0.6330 0.6330 0.6340 0.6340
6.709499 0.6360 0.6360 0.6340 0.6340 0.6340
6.743000 0.6340 0.6360 0.6340 0.6330 0.6280
6.776499 0.6250 0.6160 0.6050 0.5830 0.5600
6.810000 0.5240 0.5140 0.4910 0.4650 0.4320
6.843499 0.4250 0.4210 0.4190 0.4120 0.4170
6.877000 0.4190 0.4250 0.4340 0.4530 0.4730
6.910499 0.4810 0.4950 0.4980 0.5040 0.5090
6.944000 0.5130 0.5140 0.5240 0.5240 0.4570
6.977499 0.4320 0.3860 0.3860 0.3910 0.4550
7.011000 0.4860 0.5140 0.5470 0.5820 0.6310
7.044499 0.6540 0.6610 0.6660 0.6720 0.6900
7.078000 0.6940 0.7020 0.7080 0.7150 0.7200
7.111499 0.7300 0.7400 0.7410 0.7460 0.7540
7.145000 0.7580 0.7680 0.7730 0.7740 0.7760
7.178499 0.7770 0.7810 0.7820 0.7820 0.7820
7.212000 0.7820 0.7810 0.7770 0.7640 0.7430
7.245499 0.7220 0.7120 0.6970 0.6770 0.6570
7.279000 0.6490 0.6440 0.6490 0.6710 0.6870
7.312499 0.7120 0.7410 0.7510 0.7590 0.7690
7.346000 0.7740 0.7860 0.7910 0.7940 0.8090
7.379499 0.8170 0.8280 0.8280 0.8250 0.8250
7.413000 0.8250 0.8220 0.8170 0.8050 0.7940
7.446499 0.7860 0.7730 0.7560 0.7460 0.7400
7.480000 0.7280 0.7080 0.6920 0.6820 0.6740
7.513499 0.6490 0.6390 0.6230 0.6010 0.5740
7.547000 0.5470 0.5190 0.4930 0.4370 0.4220
7.580499 0.3990 0.3560 0.3320 0.2970 0.2690
7.614000 0.2410 0.2180 0.2070 0.1950 0.1940
7.647499 0.1940 0.1900 0.1890 0.1890 0.1900
7.681000 0.1940 0.2020 0.2170 0.2380 0.2540
7.714499 0.2660 0.2920 0.3050 0.3240 0.3330
7.748000 0.3400 0.3530 0.3760 0.3940 0.4110
7.781499 0.4220 0.4350 0.4320 0.4250 0.3960
7.815000 0.3510 0.3480 0.3470 0.3450 0.3730
7.848499 0.3990 0.4060 0.4170 0.4420 0.4750
7.882000 0.4980 0.5090 0.5210 0.5410 0.5520
7.915499 0.5740 0.6000 0.6210 0.6280 0.6440
7.949000 0.6640 0.6870 0.6970 0.7100 0.7230
7.982499 0.7400 0.7450 0.7540 0.7630 0.7740
8.016000 0.7790 0.7820 0.7940 0.7990 0.7990
8.049499 0.7910 0.7840 0.7730 0.7410 0.7220
8.083000 0.7000 0.6840 0.6460 0.6230 0.5850
8.116499 0.5590 0.5160 0.4950 0.4350 0.4190
8.150000 0.3650 0.3240 0.2940 0.2630 0.2460
8.183499 0.2230 0.2000 0.1890 0.1870 0.1840
8.217000 0.1770 0.1770 0.1790 0.2020 0.2150
8.250499 0.2250 0.2360 0.2400 0.2480 0.2580
8.283000 0.2810 0.2960 0.3000 0.3100 0.3140
8.316499 0.3330 0.3510 0.3580 0.3750 0.3910
8.350000 0.3960 0.3980 0.4060 0.4270 0.4400
8.383499 0.4440 0.4470 0.4630 0.4750 0.4810
8.417000 0.4900 0.4980 0.5130 0.5370 0.5550
8.450499 0.5720 0.5880 0.5950 0.6030 0.6260
8.484000 0.6410 0.6570 0.6690 0.6790 0.6790
8.517499 0.6610 0.6410 0.5970 0.5490 0.5030
8.551000 0.4580 0.3930 0.3430 0.3000 0.2640
8.584499 0.2350 0.2150 0.2020 0.1990 0.1970
8.618000 0.1990 0.2000 0.2120 0.2300 0.2430
8.651499 0.2540 0.2630 0.2710 0.2810 0.3020
8.685000 0.3090 0.3330 0.3510 0.3710 0.3840
8.718499 0.4060 0.4270 0.4450 0.4680 0.4750
8.752000 0.5190 0.5550 0.5830 0.6000 0.6260
8.785499 0.6440 0.6640 0.6640 0.6410 0.5850
8.819000 0.5130 0.4620 0.4110 0.3560 0.3050
8.852499 0.2580 0.2300 0.2120 0.2070 0.1850
8.886000 0.1820 0.1790 0.1790 0.1840 0.1850
8.919499 0.1920 0.1940 0.1950 0.1990 0.2030
8.953000 0.2130 0.2230 0.2260 0.2330 0.2360
8.986499 0.2410 0.2480 0.2580 0.2640 0.2710
9.020000 0.2710 0.2760 0.2790 0.2840 0.2910
9.053499 0.2960 0.2970 0.2990 0.2990 0.3000
9.087000 0.3000 0.3000 0.2990 0.2990 0.2990
9.120499 0.2990 0.2990 0.2990 0.3040 0.3090
9.154000 0.3120 0.3150 0.3170 0.3200 0.3240
9.187499 0.3270 0.3300 0.3330 0.3370 0.3380
9.221000 0.3380 0.3400 0.3430 0.3480 0.3530
9.254499 0.3560 0.3580 0.3600 0.3650 0.3700
9.288000 0.3710 0.3780 0.3760 0.3730 0.3710
9.321499 0.3680 0.3660 0.3660 0.3700 0.3700
9.355000 0.3700 0.3700 0.3730 0.3730 0.3760
9.388499 0.3760 0.3760 0.3760 0.3760 0.3780
9.422000 0.3760 0.3780 0.3840 0.3860 0.3880
9.455499 0.3880 0.3880 0.3880 0.3880 0.3860
9.489000 0.3880 0.3860 0.3860 0.3840 0.3830
9.522499 0.3810 0.3790 0.3780 0.3780 0.3780
9.556000 0.3760 0.3750 0.3750 0.3750 0.3750
9.589499 0.3710 0.3680 0.3660 0.3600 0.3550
9.623000 0.3500 0.3450 0.3370 0.3280 0.3190
9.656499 0.3120 0.3100 0.3000 0.2940 0.2820
9.690000 0.2730 0.2530 0.2410 0.2180 0.2080
9.723499 0.2020 0.1970 0.1850 0.1720 0.1690
9.757000 0.1640 0.1610 0.1610 0.1670 0.1720
9.790499 0.1840 0.2030 0.2180 0.2260 0.2360
9.824000 0.2560 0.2740 0.2990 0.3170 0.3240
9.857499 0.3300 0.3380 0.3510 0.3700 0.3760
9.891000 0.3890 0.3960 0.4060 0.4250 0.4420
9.924499 0.4450 0.4570 0.4680 0.4750 0.4810
9.958000 0.4910 0.4950 0.5030 0.5040 0.5060
9.991499 0.5110 0.5140 0.5180 0.5210 0.5260
10.025000 0.5310 0.5370 0.5390 0.5410 0.5420
10.058499 0.5420 0.5460 0.5460 0.5460 0.5460
10.092000 0.5470 0.5520 0.5520 0.5540 0.5540
10.125499 0.5550 0.5570 0.5590 0.5600 0.5620
10.158000 0.5640 0.5650 0.5650 0.5650 0.5650
10.191499 0.5650 0.5650 0.5620 0.5590 0.5570
10.225000 0.5520 0.5520 0.5540 0.5540 0.5540
10.258499 0.5550 0.5570 0.5600 0.5650 0.5700
10.292000 0.5720 0.5740 0.5800 0.5830 0.5850
10.325499 0.5870 0.5880 0.5880 0.5920 0.5920
10.359000 0.5930 0.5950 0.5970 0.5970 0.6000
10.392499 0.6000 0.6000 0.6000 0.6000 0.6000
10.426000 0.6000 0.6000 0.6000 0.6010 0.6010
10.459499 0.6010 0.6010 0.6010 0.6030 0.6050
10.493000 0.6050 0.6060 0.6050 0.6060 0.6060
10.526499 0.6100 0.6100 0.6100 0.6100 0.6100
10.560000 0.6080 0.6080 0.6080 0.6060 0.6060
10.593499 0.6080 0.6100 0.6100 0.6110 0.6110
10.627000 0.6130 0.6130 0.6130 0.6130 0.6130
10.660499 0.6130 0.6130 0.6130 0.6130 0.6110
10.694000 0.6110 0.6110 0.6130 0.6110 0.6110
10.727499 0.6110 0.6110 0.6100 0.6100 0.6110
10.761000 0.6110 0.6110 0.6110 0.6110 0.6110
10.794499 0.6110 0.6080 0.6060 0.6010 0.5970
10.828000 0.5920 0.5870 0.5750 0.5600 0.5460
10.861499 0.5410 0.5290 0.5260 0.5310 0.5340
10.895000 0.5360 0.5410 0.5440 0.5540 0.5620
10.928499 0.5700 0.5780 0.5930 0.5950 0.6050
10.962000 0.6110 0.6110 0.6110 0.6130 0.6130
10.995499 0.6130 0.6130 0.6130 0.6150 0.6160
11.029000 0.6180 0.6160 0.6180 0.6180 0.6200
11.062499 0.6210 0.6210 0.6230 0.6250 0.6250
11.096000 0.6250 0.6250 0.6250 0.6250 0.6230
11.129499 0.6210 0.6160 0.6150 0.6150 0.6130
11.163000 0.6110 0.6050 0.6000 0.5920 0.5850
11.196499 0.5820 0.5740 0.5690 0.5620 0.5550
11.230000 0.5420 0.5190 0.5090 0.5010 0.4950
11.263499 0.4780 0.4620 0.4290 0.3930 0.3580
11.297000 0.3370 0.3270 0.3250 0.3270 0.3480
11.330499 0.3610 0.3910 0.3990 0.4160 0.4300
11.364000 0.4340 0.5320 0.5800 0.5870 0.5950
11.397499 0.6060 0.6230 0.6380 0.6520 0.6610
11.431000 0.6640 0.6710 0.6740 0.6740 0.6750
11.464499 0.6770 0.6790 0.6820 0.6820 0.6840
11.498000 0.6850 0.6850 0.6870 0.6870 0.6870
11.531499 0.6890 0.6890 0.6890 0.6900 0.6920
11.565000 0.6920 0.6900 0.6900 0.6890 0.6890
11.598499 0.6890 0.6890 0.6900 0.6900 0.6900
11.632000 0.6920 0.6920 0.6940 0.6970 0.7000
11.665499 0.7000 0.7000 0.7000 0.6990 0.6990
11.699000 0.6990 0.6970 0.6970 0.6970 0.6970
11.732499 0.6970 0.6970 0.6970 0.6990 0.6990
11.766000 0.6990 0.6990 0.7000 0.7000 0.7000
11.799499 0.7030 0.7030 0.7030 0.7030 0.7030
11.833000 0.7020 0.7020 0.7020 0.7020 0.7020
11.866499 0.7020 0.7020 0.7020 0.7020 0.7020
11.900000 0.7020 0.7030 0.7030 0.7030 0.7050
11.933499 0.7050 0.7050 0.7050 0.7070 0.7070
11.967000 0.7070 0.7050 0.7050 0.7030 0.7020
12.000499 0.7000 0.6920 0.6890 0.6840 0.6750
12.033000 0.6640 0.6540 0.6460 0.6340 0.6110
12.066499 0.5920 0.5820 0.5780 0.5830 0.5880
12.100000 0.6080 0.6380 0.6480 0.6670 0.6770
12.133499 0.6870 0.6890 0.6900 0.6940 0.7000
12.167000 0.7030 0.7070 0.7130 0.7170 0.7180
12.200499 0.7200 0.7220 0.7250 0.7260 0.7300
12.234000 0.7310 0.7310 0.7310 0.7310 0.7330
12.267499 0.7350 0.7380 0.7380 0.7380 0.7380
12.301000 0.7380 0.7380 0.7360 0.7360 0.7350
12.334499 0.7360 0.7400 0.7400 0.7400 0.7380
12.368000 0.7380 0.7360 0.7350 0.7400 0.7410
12.401499 0.7430 0.7430 0.7430 0.7430 0.7410
12.435000 0.7400 0.7380 0.7380 0.7360 0.7330
12.468499 0.7380 0.7380 0.7400 0.7410 0.7410
12.502000 0.7410 0.7410 0.7430 0.7430 0.7430
12.535499 0.7430 0.7430 0.7430 0.7430 0.7430
12.569000 0.7430 0.7430 0.7450 0.7450 0.7430
12.602499 0.7430 0.7430 0.7430 0.7410 0.7400
12.636000 0.7400 0.7400 0.7400 0.7410 0.7410
12.669499 0.7430 0.7430 0.7430 0.7430 0.7480
12.703000 0.7480 0.7430 0.7430 0.7410 0.7400
12.736499 0.7400 0.7410 0.7430 0.7460 0.7430
12.770000 0.7430 0.7430 0.7410 0.7430 0.7430
12.803499 0.7430 0.7450 0.7430 0.7430 0.7430
12.837000 0.7430 0.7450 0.7450 0.7460 0.7460
12.870499 0.7460 0.7450 0.7450 0.7460 0.7510
12.904000 0.7510 0.7510 0.7530 0.7530 0.7510
12.937499 0.7450 0.7450 0.7450 0.7450 0.7450
12.971000 0.7450 0.7450 0.7500 0.7500 0.7460
13.004499 0.7460 0.7450 0.7450 0.7450 0.7450
13.038000 0.7450 0.7450 0.7450 0.7480 0.7480
13.071499 0.7460 0.7460 0.7460 0.7480 0.7450
13.105000 0.7450 0.7450 0.7430 0.7430 0.7430
13.138499 0.7410 0.7430 0.7450 0.7460 0.7460
13.172000 0.7460 0.7460 0.7460 0.7460 0.7450
13.205499 0.7450 0.7430 0.7430 0.7430 0.7430
13.239000 0.7430 0.7430 0.7430 0.7430 0.7410
13.272499 0.7430 0.7450 0.7430 0.7450 0.7450
13.306000 0.7430 0.7410 0.7410 0.7410 0.7410
13.339499 0.7410 0.7400 0.7400 0.7400 0.7400
13.373000 0.7400 0.7400 0.7400 0.7400 0.7380
13.406499 0.7380 0.7360 0.7380 0.7380 0.7360
13.440000 0.7360 0.7350 0.7350 0.7360 0.7380
13.473499 0.7380 0.7360 0.7360 0.7350 0.7360
13.507000 0.7350 0.7350 0.7350 0.7330 0.7310
13.540499 0.7310 0.7310 0.7300 0.7300 0.7280
13.574000 0.7280 0.7260 0.7260 0.7260 0.7250
13.607499 0.7250 0.7200 0.7150 0.7130 0.7080
13.641000 0.7080 0.7070 0.7000 0.6990 0.6900
13.674499 0.6800 0.6710 0.6430 0.6340 0.6180
13.708000 0.6000 0.5820 0.5640 0.5460 0.5270
13.741499 0.5260 0.5270 0.5290 0.5570 0.5750
13.775000 0.5920 0.6160 0.6210 0.6290 0.6390
13.808499 0.6480 0.6560 0.6640 0.6660 0.6720
13.842000 0.6740 0.6750 0.6790 0.6820 0.6840
13.875499 0.6870 0.6890 0.6890 0.6890 0.6870
13.908000 0.6870 0.6870 0.6820 0.6740 0.6610
13.941499 0.6540 0.6440 0.6200 0.6030 0.5850
13.975000 0.5620 0.5470 0.5290 0.5270 0.5290
14.008499 0.5360 0.5590 0.5850 0.6060 0.6130
14.042000 0.6200 0.6390 0.6610 0.6710 0.6800
14.075499 0.6900 0.6950 0.7100 0.7180 0.7280
14.109000 0.7280 0.7300 0.7310 0.7380 0.7400
14.142499 0.7400 0.7410 0.7410 0.7410 0.7430
14.176000 0.7430 0.7430 0.7430 0.7430 0.7430
14.209499 0.7410 0.7410 0.7410 0.7430 0.7430
14.243000 0.7450 0.7480 0.7540 0.7540 0.7540
14.276499 0.7540 0.7540 0.7540 0.7540 0.7540
14.310000 0.7540 0.7540 0.7560 0.7590 0.7590
14.343499 0.7580 0.7560 0.7540 0.7540 0.7530
14.377000 0.7530 0.7530 0.7540 0.7540 0.7560
14.410499 0.7560 0.7560 0.7560 0.7560 0.7540
14.444000 0.7540 0.7560 0.7580 0.7590 0.7590
14.477499 0.7590 0.7590 0.7590 0.7580 0.7580
14.511000 0.7580 0.7560 0.7510 0.7500 0.7450
14.544499 0.7430 0.7430 0.7430 0.7430 0.7460
14.578000 0.7460 0.7460 0.7480 0.7460 0.7460
14.611499 0.7460 0.7460 0.7460 0.7480 0.7500
14.645000 0.7500 0.7510 0.7510 0.7510 0.7510
14.678499 0.7500 0.7480 0.7450 0.7450 0.7430
14.712000 0.7430 0.7410 0.7410 0.7400 0.7400
14.745499 0.7400 0.7400 0.7400 0.7400 0.7400
14.779000 0.7380 0.7360 0.7360 0.7360 0.7360
14.812499 0.7360 0.7360 0.7360 0.7360 0.7350
14.846000 0.7350 0.7350 0.7350 0.7350 0.7350
14.879499 0.7330 0.7330 0.7330 0.7330 0.7330
14.913000 0.7330 0.7350 0.7350 0.7350 0.7330
14.946499 0.7310 0.7310 0.7310 0.7310 0.7310
14.980000 0.7310 0.7330 0.7330 0.7310 0.7310
15.013499 0.7310 0.7300 0.7280 0.7260 0.7260
15.047000 0.7220 0.7220 0.7220 0.7180 0.7180
15.080499 0.7170 0.7170 0.7170 0.7180 0.7200
15.114000 0.7220 0.7230 0.7230 0.7220 0.7220
15.147499 0.7170 0.7150 0.7150 0.7150 0.7150
15.181000 0.7150 0.7150 0.7150 0.7150 0.7130
15.214499 0.7130 0.7120 0.7120 0.7120 0.7120
15.248000 0.7150 0.7150 0.7180 0.7180 0.7180
15.281499 0.7180 0.7170 0.7150 0.7130 0.7120
15.315000 0.7120 0.7100 0.7120 0.7120 0.7150
15.348499 0.7150 0.7150 0.7130 0.7120 0.7120
15.382000 0.7120 0.7130 0.7120 0.7130 0.7120
15.415499 0.7100 0.7100 0.7100 0.7100 0.7120
15.449000 0.7130 0.7130 0.7130 0.7120 0.7120
##END=
