##TITLE=PICOLINE, COMPOUND WITH BORANE
##JCAMP-DX=4.24
##DATA TYPE=INFRARED SPECTRUM
##CLASS=COBLENTZ III
##ORIGIN=DOW CHEMICAL COMPANY
##OWNER=COBLENTZ SOC.
Collection (C) 2018 copyright by the U.S. Secretary of Commerce
on behalf of the United States of America. All rights reserved.
##DATE=1965/03/17
##MOLFORM=C6 H10 B N
##SOURCE REFERENCE=COBLENTZ NO. 07095
##$NIST ID=B6007095
##$NIST SOURCE=COBLENTZ
##$NIST IMAGE=cob7095
##SPECTROMETER/DATA SYSTEM=DOW KBr FOREPRISM-GRATING
##INSTRUMENT PARAMETERS=BLAZED AT 3.5, 12.0, 20.0 MICRON AND CHANGED AT 5.0, 7.5, 14.9 MICRON
##STATE=LIQUID (NEAT)
##PATH LENGTH=CAPILLARY
##SAMPLING PROCEDURE=TRANSMISSION
##RESOLUTION=2
##DATA PROCESSING=DIGITIZED BY COBLENTZ SOCIETY (BATCH I) FROM HARD COPY
##XUNITS=1/CM
##YUNITS=TRANSMITTANCE
##XLABEL=Wavenumbers (cm-1)
##YLABEL=% Transmission
##XFACTOR=1
##YFACTOR=1
##DELTAX=1
##FIRSTX=381
##LASTX=3800
##FIRSTY=0.7128
##MAXX=3800
##MINX=381
##MAXY=0.8975
##MINY=0.0545
##NPOINTS=3420
##XYDATA=(X++(Y..Y))
381.000000 0.7128 0.7135 0.7142 0.7151 0.7161
386.000000 0.7171 0.7182 0.7192 0.7203 0.7214
391.000000 0.7225 0.7237 0.7248 0.7258 0.7271
396.000000 0.7283 0.7295 0.7307 0.7318 0.7331
401.000000 0.7345 0.7358 0.7372 0.7388 0.7401
406.000000 0.7415 0.7432 0.7448 0.7465 0.7482
411.000000 0.7498 0.7515 0.7528 0.7540 0.7551
416.000000 0.7561 0.7572 0.7575 0.7578 0.7580
421.000000 0.7582 0.7583 0.7585 0.7587 0.7588
426.000000 0.7590 0.7592 0.7593 0.7595 0.7611
431.000000 0.7628 0.7649 0.7675 0.7701 0.7728
436.000000 0.7753 0.7778 0.7801 0.7818 0.7835
441.000000 0.7851 0.7868 0.7878 0.7888 0.7898
446.000000 0.7908 0.7918 0.7922 0.7925 0.7928
451.000000 0.7931 0.7933 0.7936 0.7936 0.7951
456.000000 0.7932 0.7931 0.7928 0.7926 0.7924
461.000000 0.7918 0.7914 0.7910 0.7905 0.7900
466.000000 0.7895 0.7883 0.7869 0.7857 0.7845
471.000000 0.7832 0.7812 0.7793 0.7771 0.7751
476.000000 0.7719 0.7678 0.7635 0.7575 0.7499
481.000000 0.7378 0.7215 0.6915 0.6581 0.6246
486.000000 0.6017 0.6082 0.6032 0.6575 0.6822
491.000000 0.7069 0.7315 0.7562 0.7806 0.7955
496.000000 0.8158 0.8210 0.8262 0.8315 0.8363
501.000000 0.8383 0.8403 0.8423 0.8439 0.8451
506.000000 0.8462 0.8474 0.8484 0.8492 0.8500
511.000000 0.8508 0.8516 0.8521 0.8525 0.8530
516.000000 0.8535 0.8539 0.8544 0.8548 0.8552
521.000000 0.8555 0.8559 0.8563 0.8566 0.8570
526.000000 0.8573 0.8575 0.8577 0.8578 0.8580
531.000000 0.8582 0.8584 0.8586 0.8587 0.8589
536.000000 0.8592 0.8596 0.8600 0.8603 0.8607
541.000000 0.8611 0.8614 0.8617 0.8618 0.8618
546.000000 0.8620 0.8621 0.8621 0.8623 0.8623
551.000000 0.8623 0.8620 0.8616 0.8613 0.8610
556.000000 0.8606 0.8606 0.8616 0.8625 0.8635
561.000000 0.8645 0.8659 0.8673 0.8688 0.8702
566.000000 0.8711 0.8718 0.8728 0.8736 0.8744
571.000000 0.8748 0.8751 0.8754 0.8754 0.8755
576.000000 0.8755 0.8756 0.8757 0.8757 0.8758
581.000000 0.8758 0.8768 0.8778 0.8789 0.8800
586.000000 0.8809 0.8818 0.8828 0.8837 0.8843
591.000000 0.8848 0.8854 0.8856 0.8857 0.8859
596.000000 0.8860 0.8861 0.8862 0.8863 0.8864
601.000000 0.8865 0.8868 0.8873 0.8877 0.8881
606.000000 0.8885 0.8889 0.8893 0.8897 0.8901
611.000000 0.8904 0.8908 0.8911 0.8915 0.8918
616.000000 0.8921 0.8925 0.8927 0.8928 0.8930
621.000000 0.8932 0.8933 0.8935 0.8937 0.8938
626.000000 0.8940 0.8941 0.8942 0.8943 0.8943
631.000000 0.8943 0.8943 0.8943 0.8943 0.8943
636.000000 0.8943 0.8942 0.8940 0.8939 0.8937
641.000000 0.8936 0.8934 0.8933 0.8932 0.8931
646.000000 0.8930 0.8928 0.8928 0.8928 0.8932
651.000000 0.8935 0.8938 0.8941 0.8948 0.8962
656.000000 0.8975 0.8944 0.8864 0.8803 0.8755
661.000000 0.8773 0.8746 0.8720 0.8695 0.8668
666.000000 0.8639 0.8610 0.8580 0.8545 0.8491
671.000000 0.8440 0.8389 0.8331 0.8268 0.8202
676.000000 0.8128 0.8055 0.7925 0.7768 0.7108
681.000000 0.6711 0.6316 0.5920 0.5524 0.5127
686.000000 0.4731 0.4389 0.4387 0.4397 0.5717
691.000000 0.6575 0.7418 0.7565 0.7721 0.7762
696.000000 0.7790 0.7780 0.7764 0.7693 0.7628
701.000000 0.7565 0.7494 0.7415 0.7334 0.7243
706.000000 0.7149 0.6995 0.6676 0.6472 0.6323
711.000000 0.6197 0.6151 0.6146 0.7258 0.7378
716.000000 0.7522 0.7600 0.7639 0.7655 0.7662
721.000000 0.7660 0.7655 0.7654 0.7654 0.7658
726.000000 0.7675 0.7696 0.7722 0.7756 0.7791
731.000000 0.7815 0.7825 0.7821 0.7812 0.7803
736.000000 0.7790 0.7775 0.7754 0.7725 0.7692
741.000000 0.7655 0.7610 0.7555 0.7481 0.7401
746.000000 0.7322 0.7194 0.6875 0.5456 0.4700
751.000000 0.4560 0.4434 0.4295 0.4059 0.3805
756.000000 0.3595 0.3368 0.3129 0.2908 0.2756
761.000000 0.2307 0.2089 0.2014 0.1999 0.2034
766.000000 0.2091 0.2223 0.2387 0.2629 0.3218
771.000000 0.3409 0.3775 0.4141 0.4507 0.4873
776.000000 0.5238 0.5409 0.5581 0.5730 0.5870
781.000000 0.6166 0.6284 0.6465 0.6593 0.6654
786.000000 0.6672 0.6662 0.6651 0.6639 0.6557
791.000000 0.6440 0.6310 0.6210 0.6116 0.6024
796.000000 0.5960 0.5957 0.6001 0.6024 0.6079
801.000000 0.5989 0.5964 0.5958 0.5990 0.5966
806.000000 0.6510 0.6506 0.6506 0.6425 0.6336
811.000000 0.6191 0.6140 0.6143 0.6151 0.6184
816.000000 0.6144 0.6371 0.6740 0.7031 0.7178
821.000000 0.7412 0.7475 0.7537 0.7584 0.7628
826.000000 0.7678 0.7736 0.7794 0.7844 0.7885
831.000000 0.7904 0.7912 0.7911 0.7910 0.7889
836.000000 0.7908 0.7906 0.7904 0.7901 0.7900
841.000000 0.7898 0.7893 0.7888 0.7882 0.7875
846.000000 0.7871 0.7858 0.7842 0.7825 0.7808
851.000000 0.7791 0.7772 0.7748 0.7711 0.7685
856.000000 0.7668 0.7669 0.7672 0.7687 0.7701
861.000000 0.7718 0.7738 0.7758 0.7765 0.7765
866.000000 0.7757 0.7744 0.7730 0.7715 0.7701
871.000000 0.7689 0.7676 0.7661 0.7641 0.7619
876.000000 0.7599 0.7575 0.7551 0.7528 0.7504
881.000000 0.7480 0.7456 0.7433 0.7410 0.7386
886.000000 0.7361 0.7334 0.7307 0.7280 0.7253
891.000000 0.7225 0.7189 0.7150 0.7111 0.7048
896.000000 0.6965 0.6885 0.6758 0.6611 0.6505
901.000000 0.6396 0.6279 0.6172 0.6078 0.5985
906.000000 0.5892 0.5806 0.5724 0.5642 0.5560
911.000000 0.5462 0.5359 0.5252 0.5104 0.4972
916.000000 0.4883 0.4795 0.4706 0.4621 0.4537
921.000000 0.4452 0.4364 0.4275 0.4147 0.4145
926.000000 0.4129 0.4147 0.4168 0.4189 0.4210
931.000000 0.4233 0.4259 0.4284 0.4310 0.4338
936.000000 0.4429 0.4482 0.4522 0.4571 0.4639
941.000000 0.4798 0.5099 0.5230 0.5344 0.5504
946.000000 0.5677 0.5810 0.5910 0.6003 0.6085
951.000000 0.6167 0.6247 0.6432 0.6686 0.6751
956.000000 0.6776 0.6787 0.6797 0.6808 0.6817
961.000000 0.6825 0.6835 0.6843 0.6851 0.6858
966.000000 0.6868 0.6875 0.6885 0.6893 0.6901
971.000000 0.6908 0.6917 0.6924 0.6932 0.6939
976.000000 0.6946 0.6953 0.6957 0.6961 0.6965
981.000000 0.6978 0.6971 0.6968 0.6967 0.6964
986.000000 0.6961 0.6921 0.6875 0.6830 0.6785
991.000000 0.6757 0.6728 0.6701 0.6656 0.6628
996.000000 0.6605 0.6589 0.6572 0.6556 0.6538
1001.000000 0.6515 0.6493 0.6471 0.6449 0.6428
1006.000000 0.6408 0.6388 0.6368 0.6347 0.6321
1011.000000 0.6294 0.6267 0.6240 0.6210 0.6175
1016.000000 0.6140 0.6103 0.5987 0.5743 0.5794
1021.000000 0.5835 0.5864 0.5879 0.5853 0.5815
1026.000000 0.5775 0.5732 0.5668 0.5597 0.5509
1031.000000 0.5418 0.5321 0.5180 0.5018 0.4857
1036.000000 0.4766 0.4758 0.4780 0.4826 0.4909
1041.000000 0.4910 0.4899 0.4895 0.4864 0.4755
1046.000000 0.4731 0.4734 0.4756 0.4773 0.4845
1051.000000 0.5320 0.5396 0.5396 0.5396 0.5395
1056.000000 0.5375 0.5355 0.5337 0.5335 0.5335
1061.000000 0.5322 0.5310 0.5297 0.5265 0.5235
1066.000000 0.5207 0.5173 0.5126 0.5079 0.5022
1071.000000 0.4962 0.4899 0.4832 0.4777 0.4724
1076.000000 0.4670 0.4615 0.4559 0.4501 0.4442
1081.000000 0.4350 0.4256 0.3593 0.3241 0.2956
1086.000000 0.2592 0.2266 0.2228 0.2213 0.2304
1091.000000 0.2500 0.2697 0.2894 0.3090 0.3287
1096.000000 0.3458 0.3684 0.3925 0.4165 0.4195
1101.000000 0.4205 0.4215 0.4226 0.4244 0.4265
1106.000000 0.4290 0.4334 0.4405 0.4776 0.4868
1111.000000 0.4906 0.4891 0.4889 0.4877 0.4840
1116.000000 0.4702 0.4546 0.4364 0.3795 0.3227
1121.000000 0.2658 0.2582 0.2652 0.2932 0.3212
1126.000000 0.3494 0.3774 0.4002 0.4190 0.4390
1131.000000 0.4535 0.5024 0.5104 0.5141 0.5143
1136.000000 0.5144 0.5132 0.5108 0.5062 0.5009
1141.000000 0.4943 0.4873 0.4795 0.4708 0.4606
1146.000000 0.4453 0.4141 0.4059 0.3714 0.2597
1151.000000 0.2450 0.2342 0.2241 0.2141 0.2046
1156.000000 0.1954 0.1864 0.1777 0.1691 0.1586
1161.000000 0.1474 0.1340 0.1265 0.1190 0.1105
1166.000000 0.1055 0.1020 0.1019 0.1019 0.1019
1171.000000 0.1030 0.1049 0.1090 0.1135 0.1180
1176.000000 0.1236 0.1294 0.1337 0.1380 0.1376
1181.000000 0.1375 0.1364 0.1318 0.1292 0.1284
1186.000000 0.1281 0.1278 0.1313 0.1360 0.1425
1191.000000 0.1550 0.1778 0.2004 0.2233 0.2460
1196.000000 0.2688 0.2915 0.3108 0.3364 0.3562
1201.000000 0.3782 0.3996 0.4153 0.4370 0.4588
1206.000000 0.4723 0.4819 0.4917 0.5023 0.5147
1211.000000 0.5305 0.5392 0.5554 0.5710 0.5789
1216.000000 0.5847 0.5868 0.5871 0.5879 0.5876
1221.000000 0.5862 0.5847 0.5823 0.5798 0.5773
1226.000000 0.5752 0.5737 0.5723 0.5714 0.5708
1231.000000 0.5702 0.5690 0.5676 0.5646 0.5589
1236.000000 0.5488 0.5460 0.5448 0.5442 0.5444
1241.000000 0.5445 0.5434 0.5421 0.5372 0.5324
1246.000000 0.5269 0.5207 0.5142 0.5077 0.5014
1251.000000 0.4964 0.4956 0.4955 0.4975 0.4986
1256.000000 0.4998 0.5010 0.5023 0.5040 0.5056
1261.000000 0.5072 0.5096 0.5054 0.5022 0.4991
1266.000000 0.4962 0.4934 0.4906 0.4878 0.4848
1271.000000 0.4817 0.4787 0.4757 0.4721 0.4683
1276.000000 0.4646 0.4608 0.4571 0.4536 0.4501
1281.000000 0.4466 0.4431 0.4390 0.4342 0.4294
1286.000000 0.4246 0.4194 0.4141 0.4089 0.4034
1291.000000 0.3980 0.3927 0.3856 0.3779 0.3691
1296.000000 0.3591 0.3366 0.3143 0.2919 0.2803
1301.000000 0.2858 0.3067 0.3288 0.3462 0.3559
1306.000000 0.3642 0.3694 0.3738 0.3779 0.3818
1311.000000 0.3855 0.3891 0.3928 0.3964 0.4003
1316.000000 0.4041 0.4077 0.4110 0.4145 0.4173
1321.000000 0.4200 0.4267 0.4354 0.4442 0.4530
1326.000000 0.4617 0.4705 0.4740 0.4760 0.4770
1331.000000 0.4774 0.4778 0.4782 0.4782 0.4781
1336.000000 0.4779 0.4771 0.4756 0.4736 0.4749
1341.000000 0.4750 0.4751 0.4767 0.4784 0.4793
1346.000000 0.4802 0.4807 0.4798 0.4789 0.4774
1351.000000 0.4758 0.4743 0.4726 0.4707 0.4688
1356.000000 0.4668 0.4642 0.4615 0.4589 0.4562
1361.000000 0.4537 0.4512 0.4487 0.4462 0.4437
1366.000000 0.4410 0.4372 0.4333 0.4294 0.4247
1371.000000 0.4179 0.4112 0.4045 0.3984 0.3689
1376.000000 0.3797 0.3703 0.3700 0.3698 0.3697
1381.000000 0.3696 0.3695 0.3695 0.3700 0.3712
1386.000000 0.3725 0.3738 0.3757 0.3776 0.3795
1391.000000 0.3800 0.3791 0.3759 0.3724 0.3692
1396.000000 0.3660 0.3630 0.3602 0.3574 0.3547
1401.000000 0.3518 0.3484 0.3452 0.3418 0.3386
1406.000000 0.3354 0.3323 0.3293 0.3262 0.3230
1411.000000 0.3200 0.3169 0.3125 0.3077 0.3030
1416.000000 0.2976 0.2915 0.2855 0.2784 0.2710
1421.000000 0.2601 0.2562 0.2559 0.2556 0.2556
1426.000000 0.2557 0.2558 0.2563 0.2569 0.2580
1431.000000 0.2591 0.2602 0.2617 0.2638 0.2659
1436.000000 0.2680 0.2702 0.2725 0.2748 0.2777
1441.000000 0.2772 0.2768 0.2763 0.2746 0.2789
1446.000000 0.2688 0.2631 0.2572 0.2485 0.2400
1451.000000 0.2315 0.2227 0.2114 0.1972 0.1808
1456.000000 0.1603 0.1209 0.0911 0.0863 0.1035
1461.000000 0.1275 0.1442 0.1784 0.1996 0.2212
1466.000000 0.2501 0.2884 0.3499 0.3655 0.3762
1471.000000 0.3850 0.3864 0.3862 0.3862 0.3682
1476.000000 0.3547 0.3406 0.3307 0.3146 0.2721
1481.000000 0.2401 0.2280 0.2162 0.2049 0.1901
1486.000000 0.1906 0.1935 0.1933 0.2263 0.2516
1491.000000 0.2745 0.3042 0.3242 0.3584 0.3987
1496.000000 0.4390 0.4793 0.5196 0.5554 0.5734
1501.000000 0.5807 0.5836 0.5850 0.5864 0.5876
1506.000000 0.5918 0.6000 0.6152 0.6373 0.6535
1511.000000 0.6674 0.6797 0.6903 0.6978 0.7044
1516.000000 0.7108 0.7154 0.7190 0.7225 0.7262
1521.000000 0.7299 0.7328 0.7358 0.7386 0.7415
1526.000000 0.7444 0.7474 0.7504 0.7534 0.7564
1531.000000 0.7594 0.7610 0.7625 0.7642 0.7658
1536.000000 0.7668 0.7678 0.7689 0.7699 0.7708
1541.000000 0.7715 0.7718 0.7719 0.7722 0.7725
1546.000000 0.7725 0.7725 0.7725 0.7725 0.7725
1551.000000 0.7715 0.7705 0.7685 0.7665 0.7632
1556.000000 0.7596 0.7548 0.7497 0.7445 0.7394
1561.000000 0.7331 0.7265 0.7198 0.7088 0.6878
1566.000000 0.6532 0.6277 0.6077 0.5847 0.5734
1571.000000 0.5712 0.5902 0.6525 0.6661 0.6746
1576.000000 0.6828 0.6918 0.7028 0.7141 0.7289
1581.000000 0.7380 0.7401 0.7408 0.7411 0.7411
1586.000000 0.7410 0.7408 0.7406 0.7403 0.7401
1591.000000 0.7401 0.7401 0.7407 0.7430 0.7444
1596.000000 0.7443 0.7443 0.7443 0.7424 0.7410
1601.000000 0.7369 0.7269 0.7111 0.6978 0.6838
1606.000000 0.6715 0.6591 0.6464 0.6329 0.6164
1611.000000 0.5901 0.5341 0.4832 0.4324 0.3814
1616.000000 0.3306 0.2797 0.2288 0.2006 0.2097
1621.000000 0.1984 0.3552 0.4279 0.5007 0.5462
1626.000000 0.5438 0.5425 0.5285 0.5144 0.5038
1631.000000 0.5182 0.5057 0.6634 0.6831 0.6932
1636.000000 0.7038 0.7315 0.7371 0.7386 0.7390
1641.000000 0.7395 0.7384 0.7368 0.7351 0.7324
1646.000000 0.7283 0.7237 0.7165 0.7158 0.7158
1651.000000 0.7180 0.7286 0.7465 0.7615 0.7701
1656.000000 0.7778 0.7858 0.7936 0.8007 0.8068
1661.000000 0.8125 0.8168 0.8208 0.8247 0.8283
1666.000000 0.8301 0.8318 0.8325 0.8332 0.8337
1671.000000 0.8339 0.8340 0.8342 0.8344 0.8346
1676.000000 0.8347 0.8349 0.8351 0.8352 0.8354
1681.000000 0.8355 0.8356 0.8357 0.8358 0.8358
1686.000000 0.8359 0.8360 0.8360 0.8361 0.8361
1691.000000 0.8361 0.8360 0.8356 0.8352 0.8347
1696.000000 0.8343 0.8339 0.8334 0.8328 0.8324
1701.000000 0.8318 0.8313 0.8310 0.8306 0.8303
1706.000000 0.8300 0.8297 0.8295 0.8293 0.8290
1711.000000 0.8288 0.8286 0.8283 0.8281 0.8278
1716.000000 0.8278 0.8278 0.8278 0.8278 0.8278
1721.000000 0.8278 0.8278 0.8278 0.8278 0.8280
1726.000000 0.8280 0.8282 0.8309 0.8287 0.8289
1731.000000 0.8291 0.8293 0.8295 0.8299 0.8303
1736.000000 0.8307 0.8311 0.8315 0.8318 0.8323
1741.000000 0.8327 0.8331 0.8335 0.8340 0.8344
1746.000000 0.8349 0.8354 0.8358 0.8363 0.8367
1751.000000 0.8371 0.8375 0.8378 0.8383 0.8387
1756.000000 0.8391 0.8395 0.8398 0.8402 0.8406
1761.000000 0.8410 0.8414 0.8417 0.8420 0.8424
1766.000000 0.8427 0.8431 0.8434 0.8437 0.8441
1771.000000 0.8444 0.8448 0.8450 0.8453 0.8456
1776.000000 0.8458 0.8461 0.8463 0.8466 0.8468
1781.000000 0.8471 0.8474 0.8475 0.8478 0.8481
1786.000000 0.8483 0.8485 0.8488 0.8490 0.8492
1791.000000 0.8495 0.8497 0.8499 0.8499 0.8497
1796.000000 0.8496 0.8494 0.8493 0.8491 0.8489
1801.000000 0.8488 0.8486 0.8485 0.8483 0.8482
1806.000000 0.8480 0.8478 0.8477 0.8474 0.8470
1811.000000 0.8466 0.8463 0.8459 0.8456 0.8452
1816.000000 0.8449 0.8445 0.8441 0.8433 0.8424
1821.000000 0.8416 0.8408 0.8399 0.8388 0.8373
1826.000000 0.8358 0.8343 0.8328 0.8314 0.8299
1831.000000 0.8284 0.8268 0.8254 0.8239 0.8224
1836.000000 0.8208 0.8192 0.8175 0.8160 0.8144
1841.000000 0.8125 0.8108 0.8090 0.8076 0.8074
1846.000000 0.8071 0.8068 0.8050 0.8065 0.8062
1851.000000 0.8062 0.8062 0.8065 0.8068 0.8071
1856.000000 0.8078 0.8084 0.8090 0.8095 0.8101
1861.000000 0.8110 0.8119 0.8131 0.8141 0.8151
1866.000000 0.8161 0.8171 0.8180 0.8190 0.8200
1871.000000 0.8210 0.8218 0.8228 0.8239 0.8249
1876.000000 0.8258 0.8265 0.8271 0.8278 0.8286
1881.000000 0.8293 0.8301 0.8308 0.8315 0.8321
1886.000000 0.8327 0.8331 0.8336 0.8340 0.8344
1891.000000 0.8349 0.8353 0.8357 0.8361 0.8366
1896.000000 0.8370 0.8374 0.8375 0.8377 0.8378
1901.000000 0.8380 0.8382 0.8383 0.8385 0.8386
1906.000000 0.8386 0.8386 0.8386 0.8387 0.8387
1911.000000 0.8387 0.8387 0.8387 0.8384 0.8380
1916.000000 0.8375 0.8373 0.8368 0.8365 0.8362
1921.000000 0.8358 0.8354 0.8351 0.8347 0.8344
1926.000000 0.8341 0.8338 0.8335 0.8332 0.8328
1931.000000 0.8325 0.8323 0.8320 0.8317 0.8314
1936.000000 0.8310 0.8309 0.8308 0.8307 0.8306
1941.000000 0.8305 0.8304 0.8303 0.8302 0.8301
1946.000000 0.8300 0.8299 0.8297 0.8296 0.8295
1951.000000 0.8294 0.8293 0.8292 0.8291 0.8290
1956.000000 0.8289 0.8288 0.8287 0.8286 0.8285
1961.000000 0.8285 0.8285 0.8285 0.8284 0.8284
1966.000000 0.8284 0.8284 0.8284 0.8284 0.8284
1971.000000 0.8284 0.8284 0.8284 0.8284 0.8284
1976.000000 0.8284 0.8284 0.8286 0.8287 0.8288
1981.000000 0.8289 0.8290 0.8291 0.8293 0.8294
1986.000000 0.8295 0.8296 0.8297 0.8298 0.8299
1991.000000 0.8301 0.8303 0.8305 0.8307 0.8309
1996.000000 0.8311 0.8314 0.8316 0.8318 0.8320
2001.000000 0.8321 0.8324 0.8325 0.8327 0.8328
2006.000000 0.8328 0.8330 0.8331 0.8332 0.8334
2011.000000 0.8335 0.8337 0.8339 0.8341 0.8342
2016.000000 0.8343 0.8340 0.8337 0.8334 0.8331
2021.000000 0.8328 0.8325 0.8321 0.8318 0.8315
2026.000000 0.8312 0.8308 0.8305 0.8299 0.8293
2031.000000 0.8287 0.8281 0.8275 0.8268 0.8262
2036.000000 0.8256 0.8248 0.8241 0.8233 0.8225
2041.000000 0.8218 0.8210 0.8203 0.8196 0.8190
2046.000000 0.8185 0.8178 0.8174 0.8167 0.8161
2051.000000 0.8151 0.8142 0.8128 0.8117 0.8104
2056.000000 0.8091 0.8078 0.8068 0.8056 0.8044
2061.000000 0.8032 0.8021 0.8008 0.7997 0.7985
2066.000000 0.7974 0.7960 0.7946 0.7932 0.7918
2071.000000 0.7904 0.7890 0.7875 0.7861 0.7845
2076.000000 0.7828 0.7811 0.7796 0.7787 0.7778
2081.000000 0.7774 0.7768 0.7769 0.7771 0.7771
2086.000000 0.7771 0.7772 0.7775 0.7778 0.7783
2091.000000 0.7787 0.7791 0.7795 0.7799 0.7803
2096.000000 0.7807 0.7811 0.7818 0.7825 0.7832
2101.000000 0.7839 0.7846 0.7851 0.7858 0.7862
2106.000000 0.7868 0.7874 0.7880 0.7885 0.7891
2111.000000 0.7896 0.7901 0.7907 0.7912 0.7919
2116.000000 0.7928 0.7935 0.7942 0.7949 0.7957
2121.000000 0.7964 0.7971 0.7978 0.7987 0.7996
2126.000000 0.8005 0.8014 0.8024 0.8033 0.8043
2131.000000 0.8054 0.8065 0.8076 0.8090 0.8101
2136.000000 0.8112 0.8117 0.8121 0.8125 0.8128
2141.000000 0.8128 0.8130 0.8130 0.8130 0.8130
2146.000000 0.8130 0.8130 0.8128 0.8126 0.8125
2151.000000 0.8125 0.8124 0.8121 0.8121 0.8118
2156.000000 0.8115 0.8111 0.8107 0.8101 0.8098
2161.000000 0.8093 0.8089 0.8081 0.8074 0.8065
2166.000000 0.8058 0.8051 0.8044 0.8036 0.8028
2171.000000 0.8021 0.8012 0.8001 0.7990 0.7978
2176.000000 0.7967 0.7956 0.7945 0.7935 0.7925
2181.000000 0.7915 0.7907 0.7898 0.7889 0.7880
2186.000000 0.7871 0.7861 0.7853 0.7843 0.7834
2191.000000 0.7822 0.7811 0.7801 0.7790 0.7778
2196.000000 0.7768 0.7757 0.7745 0.7732 0.7718
2201.000000 0.7706 0.7693 0.7680 0.7667 0.7654
2206.000000 0.7642 0.7630 0.7618 0.7607 0.7596
2211.000000 0.7585 0.7575 0.7565 0.7556 0.7528
2216.000000 0.7503 0.7461 0.7421 0.7389 0.7358
2221.000000 0.7328 0.7299 0.7262 0.7228 0.7178
2226.000000 0.7128 0.7080 0.7032 0.6987 0.6942
2231.000000 0.6897 0.6851 0.6797 0.6743 0.6553
2236.000000 0.6362 0.6252 0.6141 0.6039 0.5938
2241.000000 0.5808 0.5678 0.5548 0.5418 0.5288
2246.000000 0.5158 0.5028 0.4898 0.4768 0.4638
2251.000000 0.4508 0.4378 0.4248 0.4118 0.3988
2256.000000 0.3858 0.3728 0.3598 0.3516 0.3436
2261.000000 0.3391 0.3347 0.3316 0.3286 0.3266
2266.000000 0.3246 0.3234 0.3224 0.3214 0.3206
2271.000000 0.3195 0.3184 0.3168 0.3152 0.3114
2276.000000 0.3076 0.3012 0.2949 0.2860 0.2772
2281.000000 0.2691 0.2611 0.2565 0.2519 0.2505
2286.000000 0.2492 0.2481 0.2471 0.2462 0.2453
2291.000000 0.2445 0.2437 0.2420 0.2404 0.2375
2296.000000 0.2347 0.2283 0.2220 0.2108 0.1996
2301.000000 0.1856 0.1716 0.1611 0.1507 0.1445
2306.000000 0.1384 0.1349 0.1315 0.1298 0.1281
2311.000000 0.1269 0.1257 0.1253 0.1250 0.1246
2316.000000 0.1244 0.1240 0.1237 0.1225 0.1214
2321.000000 0.1198 0.1183 0.1168 0.1154 0.1140
2326.000000 0.1126 0.1110 0.1095 0.1080 0.1065
2331.000000 0.1050 0.1035 0.1020 0.1005 0.0989
2336.000000 0.0974 0.0958 0.0942 0.0931 0.0920
2341.000000 0.0909 0.0897 0.0885 0.0872 0.0858
2346.000000 0.0843 0.0830 0.0816 0.0799 0.0783
2351.000000 0.0763 0.0744 0.0724 0.0705 0.0689
2356.000000 0.0674 0.0659 0.0645 0.0631 0.0617
2361.000000 0.0602 0.0588 0.0577 0.0566 0.0562
2366.000000 0.0558 0.0553 0.0549 0.0547 0.0545
2371.000000 0.0545 0.0559 0.0547 0.0548 0.0549
2376.000000 0.0551 0.0553 0.0556 0.0563 0.0570
2381.000000 0.0583 0.0596 0.0608 0.0621 0.0632
2386.000000 0.0643 0.0653 0.0663 0.0682 0.0702
2391.000000 0.0722 0.0742 0.0762 0.0782 0.0806
2396.000000 0.0831 0.0856 0.0882 0.0942 0.1002
2401.000000 0.1449 0.1895 0.1944 0.1993 0.2208
2406.000000 0.2424 0.2776 0.3129 0.3262 0.3396
2411.000000 0.3509 0.3622 0.3726 0.3830 0.3953
2416.000000 0.4076 0.4169 0.4262 0.4322 0.4382
2421.000000 0.4442 0.4503 0.4567 0.4631 0.4716
2426.000000 0.4802 0.4889 0.4977 0.5096 0.5215
2431.000000 0.5310 0.5406 0.5480 0.5555 0.5633
2436.000000 0.5712 0.5793 0.5874 0.5937 0.6000
2441.000000 0.6058 0.6116 0.6174 0.6233 0.6276
2446.000000 0.6319 0.6354 0.6390 0.6425 0.6460
2451.000000 0.6495 0.6531 0.6565 0.6601 0.6635
2456.000000 0.6668 0.6703 0.6737 0.6769 0.6804
2461.000000 0.6842 0.6880 0.6918 0.6957 0.6992
2466.000000 0.7028 0.7048 0.7068 0.7090 0.7111
2471.000000 0.7131 0.7151 0.7172 0.7194 0.7214
2476.000000 0.7235 0.7254 0.7274 0.7292 0.7310
2481.000000 0.7328 0.7347 0.7365 0.7383 0.7401
2486.000000 0.7419 0.7438 0.7456 0.7474 0.7493
2491.000000 0.7508 0.7522 0.7538 0.7553 0.7568
2496.000000 0.7583 0.7598 0.7612 0.7628 0.7643
2501.000000 0.7656 0.7669 0.7678 0.7688 0.7696
2506.000000 0.7705 0.7714 0.7722 0.7731 0.7740
2511.000000 0.7749 0.7758 0.7765 0.7775 0.7783
2516.000000 0.7792 0.7801 0.7810 0.7817 0.7824
2521.000000 0.7831 0.7839 0.7846 0.7854 0.7861
2526.000000 0.7868 0.7875 0.7883 0.7890 0.7898
2531.000000 0.7905 0.7911 0.7918 0.7925 0.7932
2536.000000 0.7938 0.7943 0.7949 0.7955 0.7961
2541.000000 0.7967 0.7972 0.7978 0.7984 0.7990
2546.000000 0.7996 0.8001 0.8007 0.8012 0.8018
2551.000000 0.8024 0.8028 0.8034 0.8040 0.8045
2556.000000 0.8050 0.8055 0.8060 0.8065 0.8071
2561.000000 0.8075 0.8081 0.8086 0.8091 0.8096
2566.000000 0.8101 0.8106 0.8111 0.8114 0.8118
2571.000000 0.8121 0.8125 0.8128 0.8132 0.8135
2576.000000 0.8138 0.8141 0.8145 0.8148 0.8151
2581.000000 0.8155 0.8158 0.8161 0.8165 0.8168
2586.000000 0.8171 0.8175 0.8178 0.8178 0.8178
2591.000000 0.8180 0.8181 0.8181 0.8182 0.8183
2596.000000 0.8184 0.8185 0.8186 0.8186 0.8187
2601.000000 0.8188 0.8189 0.8189 0.8190 0.8191
2606.000000 0.8192 0.8192 0.8193 0.8195 0.8198
2611.000000 0.8200 0.8203 0.8206 0.8209 0.8212
2616.000000 0.8215 0.8218 0.8221 0.8223 0.8225
2621.000000 0.8228 0.8233 0.8242 0.8252 0.8257
2626.000000 0.8263 0.8265 0.8268 0.8270 0.8271
2631.000000 0.8274 0.8275 0.8278 0.8280 0.8281
2636.000000 0.8283 0.8284 0.8286 0.8288 0.8290
2641.000000 0.8291 0.8293 0.8294 0.8296 0.8296
2646.000000 0.8296 0.8296 0.8296 0.8295 0.8295
2651.000000 0.8294 0.8293 0.8292 0.8292 0.8291
2656.000000 0.8290 0.8289 0.8288 0.8287 0.8287
2661.000000 0.8286 0.8285 0.8284 0.8284 0.8283
2666.000000 0.8282 0.8281 0.8280 0.8278 0.8278
2671.000000 0.8275 0.8275 0.8273 0.8271 0.8268
2676.000000 0.8268 0.8266 0.8265 0.8263 0.8261
2681.000000 0.8259 0.8258 0.8256 0.8255 0.8253
2686.000000 0.8252 0.8250 0.8248 0.8246 0.8245
2691.000000 0.8243 0.8242 0.8240 0.8239 0.8237
2696.000000 0.8236 0.8234 0.8232 0.8230 0.8228
2701.000000 0.8227 0.8225 0.8224 0.8223 0.8220
2706.000000 0.8218 0.8216 0.8214 0.8212 0.8210
2711.000000 0.8208 0.8206 0.8204 0.8202 0.8199
2716.000000 0.8197 0.8192 0.8188 0.8183 0.8178
2721.000000 0.8172 0.8167 0.8160 0.8153 0.8146
2726.000000 0.8139 0.8132 0.8125 0.8121 0.8117
2731.000000 0.8114 0.8111 0.8108 0.8107 0.8105
2736.000000 0.8103 0.8100 0.8098 0.8096 0.8094
2741.000000 0.8092 0.8091 0.8091 0.8092 0.8092
2746.000000 0.8092 0.8092 0.8093 0.8093 0.8094
2751.000000 0.8094 0.8094 0.8094 0.8095 0.8095
2756.000000 0.8096 0.8096 0.8096 0.8096 0.8097
2761.000000 0.8097 0.8097 0.8097 0.8098 0.8098
2766.000000 0.8099 0.8099 0.8099 0.8099 0.8100
2771.000000 0.8100 0.8101 0.8098 0.8096 0.8092
2776.000000 0.8089 0.8086 0.8083 0.8078 0.8075
2781.000000 0.8072 0.8069 0.8065 0.8062 0.8060
2786.000000 0.8057 0.8053 0.8050 0.8044 0.8039
2791.000000 0.8033 0.8028 0.8021 0.8017 0.8011
2796.000000 0.8006 0.8000 0.7995 0.7989 0.7984
2801.000000 0.7978 0.7972 0.7967 0.7961 0.7957
2806.000000 0.7951 0.7946 0.7940 0.7934 0.7928
2811.000000 0.7921 0.7915 0.7910 0.7904 0.7898
2816.000000 0.7892 0.7886 0.7880 0.7872 0.7867
2821.000000 0.7861 0.7855 0.7849 0.7843 0.7837
2826.000000 0.7831 0.7824 0.7817 0.7808 0.7801
2831.000000 0.7794 0.7787 0.7778 0.7771 0.7764
2836.000000 0.7757 0.7749 0.7742 0.7734 0.7726
2841.000000 0.7718 0.7711 0.7704 0.7697 0.7689
2846.000000 0.7682 0.7674 0.7667 0.7658 0.7651
2851.000000 0.7642 0.7634 0.7625 0.7618 0.7610
2856.000000 0.7601 0.7594 0.7586 0.7584 0.7582
2861.000000 0.7580 0.7578 0.7576 0.7576 0.7578
2866.000000 0.7581 0.7583 0.7585 0.7587 0.7589
2871.000000 0.7591 0.7593 0.7594 0.7596 0.7598
2876.000000 0.7600 0.7601 0.7601 0.7601 0.7601
2881.000000 0.7600 0.7600 0.7599 0.7598 0.7588
2886.000000 0.7578 0.7567 0.7557 0.7547 0.7537
2891.000000 0.7526 0.7517 0.7501 0.7486 0.7468
2896.000000 0.7451 0.7434 0.7417 0.7398 0.7380
2901.000000 0.7361 0.7342 0.7322 0.7304 0.7284
2906.000000 0.7265 0.7244 0.7222 0.7201 0.7180
2911.000000 0.7161 0.7143 0.7128 0.7114 0.7099
2916.000000 0.7085 0.7074 0.7064 0.7058 0.7054
2921.000000 0.7049 0.7049 0.7050 0.7007 0.7061
2926.000000 0.7068 0.7075 0.7084 0.7090 0.7096
2931.000000 0.7101 0.7107 0.7104 0.7101 0.7100
2936.000000 0.7107 0.7095 0.7093 0.7091 0.7089
2941.000000 0.7085 0.7082 0.7075 0.7069 0.7065
2946.000000 0.7060 0.7058 0.7058 0.7058 0.7028
2951.000000 0.7062 0.7068 0.7072 0.7078 0.7084
2956.000000 0.7091 0.7101 0.7111 0.7121 0.7132
2961.000000 0.7143 0.7154 0.7167 0.7180 0.7194
2966.000000 0.7208 0.7221 0.7237 0.7244 0.7251
2971.000000 0.7255 0.7258 0.7261 0.7265 0.7265
2976.000000 0.7265 0.7265 0.7265 0.7268 0.7272
2981.000000 0.7278 0.7284 0.7289 0.7294 0.7301
2986.000000 0.7308 0.7319 0.7332 0.7343 0.7355
2991.000000 0.7365 0.7378 0.7384 0.7390 0.7395
2996.000000 0.7401 0.7406 0.7411 0.7414 0.7417
3001.000000 0.7417 0.7417 0.7415 0.7415 0.7415
3006.000000 0.7415 0.7415 0.7415 0.7415 0.7415
3011.000000 0.7415 0.7415 0.7408 0.7404 0.7395
3016.000000 0.7425 0.7375 0.7367 0.7354 0.7341
3021.000000 0.7328 0.7315 0.7301 0.7287 0.7267
3026.000000 0.7248 0.7228 0.7208 0.7189 0.7169
3031.000000 0.7154 0.7138 0.7121 0.7106 0.7090
3036.000000 0.7074 0.7058 0.7043 0.7026 0.7011
3041.000000 0.6997 0.6984 0.6972 0.6961 0.6950
3046.000000 0.6939 0.6928 0.6917 0.6906 0.6895
3051.000000 0.6887 0.6878 0.6871 0.6862 0.6855
3056.000000 0.6848 0.6840 0.6833 0.6828 0.6822
3061.000000 0.6818 0.6815 0.6815 0.6817 0.6817
3066.000000 0.6817 0.6818 0.6775 0.6824 0.6828
3071.000000 0.6831 0.6835 0.6839 0.6843 0.6846
3076.000000 0.6850 0.6856 0.6862 0.6869 0.6876
3081.000000 0.6884 0.6892 0.6899 0.6906 0.6912
3086.000000 0.6921 0.6932 0.6943 0.6954 0.6965
3091.000000 0.6975 0.6987 0.6998 0.7010 0.7021
3096.000000 0.7034 0.7046 0.7058 0.7069 0.7083
3101.000000 0.7095 0.7107 0.7118 0.7128 0.7139
3106.000000 0.7150 0.7160 0.7171 0.7182 0.7193
3111.000000 0.7200 0.7208 0.7214 0.7219 0.7225
3116.000000 0.7232 0.7238 0.7245 0.7256 0.7268
3121.000000 0.7283 0.7298 0.7318 0.7339 0.7350
3126.000000 0.7361 0.7368 0.7375 0.7382 0.7389
3131.000000 0.7393 0.7397 0.7400 0.7404 0.7408
3136.000000 0.7411 0.7415 0.7418 0.7418 0.7418
3141.000000 0.7419 0.7421 0.7421 0.7421 0.7421
3146.000000 0.7422 0.7424 0.7425 0.7425 0.7425
3151.000000 0.7425 0.7426 0.7426 0.7428 0.7428
3156.000000 0.7428 0.7428 0.7428 0.7428 0.7430
3161.000000 0.7430 0.7430 0.7430 0.7430 0.7428
3166.000000 0.7428 0.7426 0.7426 0.7425 0.7425
3171.000000 0.7425 0.7425 0.7424 0.7424 0.7422
3176.000000 0.7421 0.7421 0.7421 0.7418 0.7415
3181.000000 0.7411 0.7407 0.7403 0.7399 0.7395
3186.000000 0.7392 0.7388 0.7384 0.7378 0.7375
3191.000000 0.7371 0.7367 0.7361 0.7358 0.7354
3196.000000 0.7350 0.7345 0.7341 0.7336 0.7332
3201.000000 0.7330 0.7328 0.7325 0.7324 0.7321
3206.000000 0.7321 0.7321 0.7322 0.7322 0.7324
3211.000000 0.7325 0.7325 0.7328 0.7331 0.7334
3216.000000 0.7337 0.7339 0.7342 0.7344 0.7347
3221.000000 0.7349 0.7351 0.7355 0.7358 0.7360
3226.000000 0.7362 0.7365 0.7368 0.7369 0.7371
3231.000000 0.7374 0.7376 0.7378 0.7381 0.7383
3236.000000 0.7385 0.7387 0.7389 0.7391 0.7393
3241.000000 0.7395 0.7397 0.7399 0.7401 0.7403
3246.000000 0.7405 0.7405 0.7406 0.7406 0.7407
3251.000000 0.7407 0.7408 0.7408 0.7408 0.7408
3256.000000 0.7408 0.7408 0.7410 0.7410 0.7411
3261.000000 0.7411 0.7411 0.7411 0.7412 0.7412
3266.000000 0.7414 0.7414 0.7415 0.7415 0.7415
3271.000000 0.7415 0.7417 0.7418 0.7419 0.7421
3276.000000 0.7422 0.7425 0.7426 0.7428 0.7430
3281.000000 0.7432 0.7434 0.7436 0.7438 0.7440
3286.000000 0.7443 0.7446 0.7449 0.7451 0.7454
3291.000000 0.7457 0.7460 0.7461 0.7465 0.7468
3296.000000 0.7471 0.7472 0.7475 0.7478 0.7482
3301.000000 0.7484 0.7487 0.7490 0.7493 0.7497
3306.000000 0.7501 0.7506 0.7511 0.7515 0.7519
3311.000000 0.7524 0.7528 0.7533 0.7538 0.7543
3316.000000 0.7548 0.7551 0.7557 0.7561 0.7565
3321.000000 0.7569 0.7575 0.7580 0.7585 0.7590
3326.000000 0.7595 0.7600 0.7606 0.7611 0.7615
3331.000000 0.7621 0.7625 0.7631 0.7637 0.7642
3336.000000 0.7647 0.7651 0.7657 0.7661 0.7668
3341.000000 0.7672 0.7678 0.7683 0.7688 0.7693
3346.000000 0.7699 0.7704 0.7708 0.7711 0.7715
3351.000000 0.7718 0.7721 0.7722 0.7725 0.7726
3356.000000 0.7730 0.7732 0.7734 0.7736 0.7739
3361.000000 0.7741 0.7743 0.7745 0.7748 0.7750
3366.000000 0.7751 0.7754 0.7757 0.7758 0.7761
3371.000000 0.7762 0.7765 0.7768 0.7769 0.7771
3376.000000 0.7775 0.7776 0.7780 0.7782 0.7784
3381.000000 0.7786 0.7789 0.7791 0.7794 0.7796
3386.000000 0.7798 0.7801 0.7804 0.7808 0.7812
3391.000000 0.7817 0.7821 0.7825 0.7830 0.7834
3396.000000 0.7839 0.7843 0.7847 0.7851 0.7856
3401.000000 0.7860 0.7865 0.7868 0.7872 0.7876
3406.000000 0.7882 0.7886 0.7890 0.7894 0.7899
3411.000000 0.7903 0.7907 0.7911 0.7915 0.7918
3416.000000 0.7922 0.7926 0.7931 0.7935 0.7939
3421.000000 0.7942 0.7946 0.7950 0.7954 0.7958
3426.000000 0.7961 0.7965 0.7969 0.7974 0.7978
3431.000000 0.7981 0.7985 0.7989 0.7993 0.7997
3436.000000 0.8001 0.8004 0.8008 0.8011 0.8015
3441.000000 0.8018 0.8022 0.8026 0.8031 0.8034
3446.000000 0.8038 0.8042 0.8046 0.8049 0.8053
3451.000000 0.8057 0.8061 0.8064 0.8068 0.8071
3456.000000 0.8075 0.8078 0.8083 0.8086 0.8090
3461.000000 0.8094 0.8098 0.8101 0.8104 0.8107
3466.000000 0.8111 0.8114 0.8117 0.8119 0.8122
3471.000000 0.8125 0.8130 0.8133 0.8136 0.8139
3476.000000 0.8143 0.8146 0.8149 0.8151 0.8155
3481.000000 0.8158 0.8161 0.8165 0.8168 0.8169
3486.000000 0.8172 0.8175 0.8178 0.8182 0.8185
3491.000000 0.8187 0.8190 0.8193 0.8196 0.8199
3496.000000 0.8202 0.8204 0.8207 0.8210 0.8213
3501.000000 0.8216 0.8218 0.8223 0.8227 0.8231
3506.000000 0.8236 0.8240 0.8244 0.8248 0.8253
3511.000000 0.8257 0.8261 0.8265 0.8270 0.8274
3516.000000 0.8278 0.8282 0.8287 0.8291 0.8295
3521.000000 0.8299 0.8304 0.8309 0.8314 0.8320
3526.000000 0.8327 0.8333 0.8340 0.8346 0.8352
3531.000000 0.8358 0.8365 0.8371 0.8378 0.8384
3536.000000 0.8390 0.8396 0.8403 0.8410 0.8417
3541.000000 0.8423 0.8430 0.8437 0.8444 0.8451
3546.000000 0.8458 0.8464 0.8471 0.8478 0.8485
3551.000000 0.8492 0.8500 0.8507 0.8515 0.8521
3556.000000 0.8530 0.8537 0.8544 0.8551 0.8559
3561.000000 0.8566 0.8574 0.8578 0.8584 0.8589
3566.000000 0.8595 0.8600 0.8606 0.8611 0.8616
3571.000000 0.8621 0.8627 0.8631 0.8636 0.8641
3576.000000 0.8646 0.8650 0.8655 0.8659 0.8664
3581.000000 0.8668 0.8671 0.8675 0.8678 0.8682
3586.000000 0.8686 0.8689 0.8693 0.8696 0.8699
3591.000000 0.8702 0.8706 0.8708 0.8711 0.8713
3596.000000 0.8716 0.8718 0.8721 0.8723 0.8725
3601.000000 0.8728 0.8731 0.8734 0.8737 0.8739
3606.000000 0.8742 0.8744 0.8746 0.8748 0.8750
3611.000000 0.8752 0.8754 0.8756 0.8758 0.8760
3616.000000 0.8762 0.8764 0.8766 0.8767 0.8768
3621.000000 0.8770 0.8771 0.8774 0.8775 0.8777
3626.000000 0.8778 0.8780 0.8782 0.8783 0.8785
3631.000000 0.8786 0.8788 0.8789 0.8791 0.8792
3636.000000 0.8794 0.8796 0.8798 0.8799 0.8801
3641.000000 0.8802 0.8804 0.8805 0.8807 0.8809
3646.000000 0.8811 0.8812 0.8814 0.8815 0.8817
3651.000000 0.8818 0.8820 0.8821 0.8824 0.8825
3656.000000 0.8827 0.8828 0.8831 0.8832 0.8834
3661.000000 0.8836 0.8838 0.8840 0.8842 0.8843
3666.000000 0.8845 0.8846 0.8848 0.8849 0.8850
3671.000000 0.8851 0.8852 0.8853 0.8854 0.8851
3676.000000 0.8849 0.8846 0.8843 0.8841 0.8839
3681.000000 0.8837 0.8836 0.8834 0.8833 0.8833
3686.000000 0.8833 0.8833 0.8833 0.8835 0.8837
3691.000000 0.8844 0.8851 0.8858 0.8865 0.8871
3696.000000 0.8878 0.8884 0.8889 0.8889 0.8889
3701.000000 0.8889 0.8889 0.8889 0.8889 0.8889
3706.000000 0.8889 0.8889 0.8889 0.8888 0.8888
3711.000000 0.8887 0.8887 0.8886 0.8886 0.8885
3716.000000 0.8885 0.8884 0.8884 0.8883 0.8883
3721.000000 0.8882 0.8882 0.8881 0.8880 0.8878
3726.000000 0.8878 0.8878 0.8877 0.8875 0.8875
3731.000000 0.8875 0.8874 0.8873 0.8873 0.8871
3736.000000 0.8871 0.8870 0.8870 0.8868 0.8868
3741.000000 0.8868 0.8868 0.8868 0.8868 0.8867
3746.000000 0.8867 0.8867 0.8867 0.8866 0.8866
3751.000000 0.8866 0.8866 0.8865 0.8865 0.8864
3756.000000 0.8864 0.8863 0.8863 0.8862 0.8861
3761.000000 0.8860 0.8860 0.8859 0.8858 0.8857
3766.000000 0.8857 0.8856 0.8855 0.8854 0.8854
3771.000000 0.8854 0.8854 0.8853 0.8853 0.8853
3776.000000 0.8853 0.8852 0.8852 0.8852 0.8852
3781.000000 0.8852 0.8852 0.8852 0.8853 0.8853
3786.000000 0.8854 0.8855 0.8856 0.8856 0.8857
3791.000000 0.8858 0.8859 0.8859 0.8860 0.8861
3796.000000 0.8862 0.8862 0.8863 0.8863 0.8864
##END=
