##TITLE=PURINE, 6-[p-(Beta-CHLOROETHYLTHIO)ANILINO]-
##JCAMP-DX=4.24
##DATA TYPE=INFRARED SPECTRUM
##CLASS=COBLENTZ III
##ORIGIN=SOUTHERN RESEARCH INSTITUTE
##OWNER=Copyright (C) 1987 by the Coblentz Society
Collection (C) 2018 copyright by the U.S. Secretary of Commerce
on behalf of the United States of America. All rights reserved.
##DATE=1960/06/29
##NAMES=N-(4-[(2-chloroethyl)sulfanyl]phenyl)-N-(7H-purin-6-yl)amine
N-(4-[(2-chloroethyl)sulfanyl]phenyl)-7H-purin-6-amine
Adenine, N-(p-((2-chloroethyl)-thio)phenyl)-
##MOLFORM=C13 H12 Cl N5 S
##SOURCE REFERENCE=COBLENTZ NO. 8279
##$NIST ID=B6008279
##$NIST SOURCE=COBLENTZ
##$NIST IMAGE=cob8279
##SPECTROMETER/DATA SYSTEM=PERKIN-ELMER 221 (GRATING)
##INSTRUMENT PARAMETERS=FILTER AT 2490, 980 CM^-^1. GRATING 4000-1428 CM^-^1, NaCl PRISM 1428-650 CM^-^1
##STATE=SOLID (1.0 mg / 650 mg KBr DISC)
##SAMPLING PROCEDURE=TRANSMISSION
##RESOLUTION=2
##DATA PROCESSING=DIGITIZED BY COBLENTZ SOCIETY (BATCH II) FROM HARD COPY (ADJUSTED \addcm-1\5-5-0\)
##XUNITS=1/CM
##YUNITS=TRANSMITTANCE
##XFACTOR=1.0
##YFACTOR=1
##DELTAX=1.001783
##FIRSTX=635
##LASTX=4006
##FIRSTY=0.5084
##MAXX=4006
##MINX=635
##MAXY=1.00423
##MINY=0.0277124
##NPOINTS=3366
##XYDATA=(X++(Y..Y))
635.000000 0.5084 0.5099 0.5110 0.5259 0.5111
640.008913 0.6135 0.6571 0.7007 0.7449 0.8258
645.017825 0.8441 0.8538 0.8624 0.8719 0.8845
650.026738 0.8971 0.9022 0.9070 0.9101 0.9113
655.035651 0.9124 0.9117 0.9115 0.9107 0.9096
660.044563 0.9084 0.9065 0.9044 0.9023 0.8967
665.053476 0.8682 0.8402 0.8131 0.7860 0.7589
670.062389 0.7317 0.7046 0.6775 0.6504 0.6232
675.071301 0.5961 0.5680 0.5306 0.5237 0.5222
680.080214 0.5220 0.5306 0.5400 0.5494 0.5583
685.089127 0.5604 0.5585 0.5499 0.5415 0.5360
690.098039 0.5401 0.5838 0.6417 0.6997 0.7554
695.106952 0.7897 0.8008 0.8095 0.8182 0.8272
700.115865 0.8360 0.8444 0.8507 0.8558 0.8617
705.124777 0.8708 0.8770 0.8811 0.8831 0.8847
710.133690 0.8856 0.8864 0.8865 0.8856 0.8865
715.142602 0.8863 0.8855 0.8844 0.8824 0.8796
720.151515 0.8755 0.8684 0.8538 0.8409 0.8319
725.160428 0.8192 0.8117 0.8058 0.8020 0.7995
730.169340 0.7968 0.8006 0.8064 0.8136 0.8206
735.178253 0.8271 0.8335 0.8396 0.8455 0.8508
740.187166 0.8536 0.8549 0.8565 0.8530 0.8514
745.196078 0.8484 0.8449 0.8407 0.8367 0.8337
750.204991 0.8305 0.8273 0.8241 0.8209 0.8169
755.213904 0.8116 0.8149 0.8172 0.8218 0.8258
760.222816 0.8295 0.8331 0.8370 0.8422 0.8494
765.231729 0.8546 0.8571 0.8580 0.8584 0.8563
770.240642 0.8550 0.8522 0.8475 0.8430 0.8385
775.249554 0.8332 0.8246 0.8067 0.7702 0.7545
780.258467 0.7500 0.7439 0.7321 0.7168 0.7016
785.267380 0.6863 0.6710 0.6558 0.6405 0.6252
790.276292 0.6100 0.5947 0.5794 0.5642 0.5489
795.285205 0.5337 0.5217 0.5185 0.5172 0.5300
800.294118 0.5740 0.6180 0.6620 0.7059 0.7499
805.303030 0.7798 0.7783 0.7785 0.7761 0.7689
810.311943 0.7552 0.7415 0.7278 0.7142 0.7005
815.320856 0.6868 0.6732 0.6595 0.6455 0.6316
820.329768 0.6214 0.6146 0.6086 0.6035 0.5987
825.338681 0.5947 0.5912 0.5875 0.5797 0.5628
830.347594 0.5422 0.5216 0.5048 0.4976 0.4975
835.356506 0.4999 0.5020 0.5059 0.5126 0.5305
840.365419 0.5615 0.5924 0.6233 0.6543 0.6852
845.374332 0.7134 0.7290 0.7307 0.7319 0.7332
850.383244 0.7322 0.7256 0.7167 0.7077 0.6988
855.392157 0.6925 0.6934 0.7013 0.7121 0.7229
860.401070 0.7337 0.7446 0.7539 0.7583 0.7589
865.409982 0.7597 0.7604 0.7610 0.7616 0.7622
870.418895 0.7628 0.7634 0.7640 0.7646 0.7652
875.427807 0.7658 0.7663 0.7667 0.7671 0.7676
880.436720 0.7681 0.7687 0.7693 0.7699 0.7705
885.445633 0.7730 0.7743 0.7728 0.7727 0.7715
890.454545 0.7693 0.7658 0.7620 0.7581 0.7539
895.463458 0.7494 0.7450 0.7404 0.7355 0.7305
900.472371 0.7254 0.7189 0.7109 0.7031 0.6965
905.481283 0.6911 0.6856 0.6780 0.6557 0.6203
910.490196 0.5848 0.5494 0.5251 0.5162 0.5287
915.499109 0.5632 0.6023 0.6414 0.6805 0.7197
920.508021 0.7576 0.7765 0.7563 0.7106 0.6606
925.516934 0.6106 0.5606 0.5106 0.4606 0.4106
930.525847 0.3606 0.3106 0.2670 0.2507 0.2600
935.534759 0.2971 0.3533 0.4096 0.4659 0.5222
940.543672 0.5784 0.6262 0.6456 0.6470 0.6483
945.552585 0.6494 0.6506 0.6518 0.6583 0.6827
950.561497 0.7180 0.7532 0.7884 0.8237 0.8525
955.570410 0.8661 0.8730 0.8825 0.8944 0.9091
960.579323 0.9241 0.9327 0.9369 0.9395 0.9411
965.588235 0.9421 0.9425 0.9429 0.9433 0.9437
970.597148 0.9447 0.9463 0.9484 0.9538 0.9623
975.606061 0.9701 0.9744 0.9770 0.9784 0.9790
980.614973 0.9796 0.9802 0.9821 0.9871 0.9937
985.623886 0.9874 0.9958 1.0041 1.0042 0.9962
990.632799 0.9785 0.9645 0.9598 0.9584 0.9572
995.641711 0.9559 0.9544 0.9528 0.9512 0.9497
1000.650624 0.9482 0.9467 0.9452 0.9435 0.9416
1005.659537 0.9396 0.9376 0.9354 0.9326 0.9286
1010.668449 0.9238 0.9177 0.9090 0.8948 0.8835
1015.677362 0.8803 0.8805 0.8804 0.8808 0.8851
1020.686275 0.8957 0.9058 0.9103 0.9124 0.9136
1025.695187 0.9141 0.9131 0.9136 0.9135 0.9125
1030.704100 0.9114 0.9101 0.9084 0.9061 0.9026
1035.713012 0.8981 0.8865 0.8738 0.8617 0.8525
1040.721925 0.8501 0.8562 0.8647 0.8733 0.8819
1045.730838 0.8904 0.8984 0.9041 0.9075 0.9089
1050.739750 0.9091 0.9090 0.9089 0.9112 0.9077
1055.748663 0.9046 0.9026 0.9007 0.8989 0.8968
1060.757576 0.8943 0.8917 0.8891 0.8865 0.8838
1065.766488 0.8810 0.8781 0.8752 0.8722 0.8690
1070.775401 0.8658 0.8626 0.8586 0.8529 0.8468
1075.784314 0.8383 0.8273 0.7887 0.7349 0.7232
1080.793226 0.7254 0.7254 0.7405 0.7517 0.7609
1085.802139 0.7700 0.7792 0.7884 0.7971 0.8015
1090.811052 0.8026 0.8032 0.8035 0.8034 0.8032
1095.819964 0.8030 0.8032 0.8045 0.8060 0.8080
1100.828877 0.8102 0.8125 0.8141 0.8157 0.8168
1105.837790 0.8170 0.8170 0.8170 0.8181 0.8167
1110.846702 0.8158 0.8151 0.8144 0.8132 0.8106
1115.855615 0.8057 0.7870 0.7736 0.7676 0.7627
1120.864528 0.7581 0.7556 0.7550 0.7546 0.7542
1125.873440 0.7539 0.7535 0.7535 0.7488 0.7438
1130.882353 0.7390 0.7342 0.7305 0.7270 0.7234
1135.891266 0.7200 0.7171 0.7143 0.7135 0.7129
1140.900178 0.7150 0.7259 0.7337 0.7410 0.7483
1145.909091 0.7556 0.7629 0.7703 0.7746 0.7756
1150.918004 0.7757 0.7753 0.7748 0.7728 0.7668
1155.926916 0.7581 0.7489 0.7395 0.7301 0.7208
1160.935829 0.7180 0.7173 0.7278 0.7369 0.7458
1165.944742 0.7548 0.7637 0.7816 0.7817 0.7810
1170.953654 0.7774 0.7695 0.7614 0.7533 0.7452
1175.962567 0.7371 0.7290 0.7209 0.7128 0.7046
1180.971480 0.6965 0.6884 0.6793 0.6838 0.6917
1185.980392 0.7013 0.7109 0.7206 0.7303 0.7399
1190.989305 0.7451 0.7438 0.7432 0.7422 0.7412
1195.998217 0.7377 0.7328 0.7177 0.6875 0.6571
1201.007130 0.6275 0.5978 0.5681 0.5384 0.5086
1206.016043 0.4790 0.4689 0.4676 0.4674 0.4690
1211.024955 0.4709 0.4729 0.4748 0.4768 0.4788
1216.033868 0.4807 0.4578 0.4266 0.4129 0.4082
1221.042781 0.4041 0.3999 0.3956 0.3911 0.3880
1226.051693 0.3863 0.3847 0.3848 0.3878 0.3925
1231.060606 0.3977 0.4038 0.4121 0.4222 0.4329
1236.069519 0.4436 0.4544 0.4652 0.4729 0.4739
1241.078431 0.4692 0.4490 0.4287 0.4084 0.3881
1246.087344 0.3678 0.3497 0.3455 0.3584 0.3858
1251.096257 0.4132 0.4407 0.4679 0.4931 0.5486
1256.105169 0.5781 0.6075 0.6369 0.6663 0.6883
1261.114082 0.6929 0.6893 0.6868 0.6825 0.6762
1266.122995 0.6691 0.6644 0.6528 0.6387 0.6244
1271.131907 0.6100 0.5957 0.5814 0.5671 0.5528
1276.140820 0.5384 0.5241 0.5098 0.4955 0.4812
1281.149733 0.4668 0.4525 0.4382 0.4239 0.4112
1286.158645 0.3996 0.3601 0.3137 0.3008 0.2863
1291.167558 0.2579 0.2167 0.1767 0.1509 0.1495
1296.176471 0.1490 0.1509 0.1615 0.1918 0.2222
1301.185383 0.2524 0.2828 0.3131 0.3435 0.3738
1306.194296 0.4042 0.4345 0.4649 0.4952 0.5256
1311.203209 0.5552 0.5559 0.5570 0.5484 0.5324
1316.212121 0.5161 0.4999 0.4837 0.4674 0.4512
1321.221034 0.4349 0.4270 0.4260 0.4290 0.4262
1326.229947 0.4504 0.4692 0.4834 0.4975 0.5116
1331.238859 0.5257 0.5398 0.5539 0.5616 0.5602
1336.247772 0.5526 0.5396 0.5238 0.5080 0.4923
1341.256684 0.4795 0.4715 0.4658 0.4599 0.4512
1346.265597 0.4298 0.3942 0.3586 0.3229 0.2910
1351.274510 0.2742 0.2783 0.2988 0.3393 0.3798
1356.283422 0.4202 0.4607 0.5008 0.5362 0.5535
1361.292335 0.5664 0.5767 0.5870 0.5972 0.6075
1366.301248 0.6177 0.6280 0.6382 0.6406 0.6439
1371.310160 0.6402 0.6381 0.6323 0.6211 0.6012
1376.319073 0.5802 0.5592 0.5383 0.5174 0.4964
1381.327986 0.4847 0.4812 0.4802 0.4796 0.4789
1386.336898 0.4783 0.4778 0.4712 0.4544 0.4338
1391.345811 0.4131 0.3924 0.3718 0.3511 0.3304
1396.354724 0.3098 0.2891 0.2685 0.2478 0.2293
1401.363636 0.2202 0.2192 0.2189 0.2205 0.2212
1406.372549 0.2223 0.2358 0.2761 0.3230 0.3699
1411.381462 0.4168 0.4585 0.4822 0.4899 0.4931
1416.390374 0.4958 0.4975 0.5031 0.5211 0.5405
1421.399287 0.5514 0.5511 0.5482 0.5410 0.5280
1426.408200 0.5150 0.5020 0.4890 0.4759 0.4629
1431.417112 0.4501 0.4383 0.4266 0.4141 0.4040
1436.426025 0.3982 0.3931 0.3896 0.3894 0.3900
1441.434938 0.3909 0.3919 0.3930 0.3941 0.3953
1446.443850 0.3956 0.3953 0.3946 0.3511 0.3238
1451.452763 0.2830 0.2443 0.2209 0.2053 0.1982
1456.461676 0.1915 0.1847 0.1765 0.1682 0.1599
1461.470588 0.1519 0.1465 0.1428 0.1393 0.1359
1466.479501 0.1322 0.1284 0.1175 0.1098 0.1056
1471.488414 0.1020 0.0992 0.0967 0.0944 0.0900
1476.497326 0.0908 0.0911 0.0935 0.1030 0.1145
1481.506239 0.1260 0.1375 0.1481 0.1510 0.1493
1486.515152 0.1392 0.1280 0.1177 0.1074 0.1027
1491.524064 0.1184 0.1479 0.1800 0.2120 0.2441
1496.532977 0.2762 0.3083 0.3404 0.3724 0.3969
1501.541889 0.4066 0.4078 0.4075 0.4063 0.4043
1506.550802 0.4011 0.3977 0.3932 0.3810 0.3630
1511.559715 0.3450 0.3271 0.3100 0.3007 0.2995
1516.568627 0.3000 0.2997 0.3099 0.3308 0.3429
1521.577540 0.3544 0.3614 0.3666 0.3794 0.3958
1526.586453 0.4122 0.4285 0.4449 0.4610 0.4740
1531.595365 0.4807 0.4843 0.4844 0.4841 0.4831
1536.604278 0.4816 0.4796 0.4767 0.4733 0.4698
1541.613191 0.4669 0.4651 0.4633 0.4578 0.4382
1546.622103 0.4165 0.3948 0.3731 0.3513 0.3295
1551.631016 0.3078 0.2861 0.2646 0.2459 0.2354
1556.639929 0.2236 0.1874 0.1415 0.1275 0.1128
1561.648841 0.0988 0.0891 0.0788 0.0684 0.0633
1566.657754 0.0620 0.0622 0.0628 0.0636 0.0713
1571.666667 0.0768 0.0821 0.0867 0.0912 0.0935
1576.675579 0.0932 0.0926 0.0920 0.0914 0.0831
1581.684492 0.0757 0.0571 0.0346 0.0288 0.0281
1586.693405 0.0278 0.0277 0.0460 0.0690 0.0923
1591.702317 0.1156 0.1389 0.1621 0.1855 0.2088
1596.711230 0.2266 0.2313 0.2256 0.2075 0.1867
1601.720143 0.1658 0.1450 0.1241 0.1032 0.0824
1606.729055 0.0614 0.0405 0.0370 0.0389 0.0448
1611.737968 0.0555 0.0619 0.0666 0.0692 0.0710
1616.746881 0.0727 0.0741 0.0754 0.0767 0.0779
1621.755793 0.0802 0.0828 0.0858 0.0897 0.0941
1626.764706 0.0996 0.1055 0.1132 0.1220 0.1314
1631.773619 0.1713 0.2402 0.3149 0.3891 0.4106
1636.782531 0.4158 0.4208 0.4261 0.4313 0.4370
1641.791444 0.4428 0.4476 0.4519 0.4648 0.5019
1646.800357 0.5447 0.5700 0.5754 0.5774 0.5813
1651.809269 0.6153 0.6469 0.6574 0.6632 0.6676
1656.818182 0.6704 0.6730 0.6756 0.6789 0.6842
1661.827094 0.6898 0.6964 0.7635 0.7854 0.7934
1666.836007 0.8020 0.8111 0.8384 0.8506 0.8554
1671.844920 0.8595 0.8637 0.8684 0.8731 0.8776
1676.853832 0.8821 0.8862 0.8895 0.8926 0.8958
1681.862745 0.8994 0.9033 0.9047 0.9056 0.9065
1686.871658 0.9067 0.9067 0.9068 0.9068 0.9067
1691.880570 0.9061 0.9054 0.9047 0.9040 0.9035
1696.889483 0.9030 0.9025 0.9020 0.9015 0.9014
1701.898396 0.9014 0.9017 0.9026 0.9044 0.9064
1706.907308 0.9088 0.9112 0.9138 0.9172 0.9220
1711.916221 0.9257 0.9285 0.9312 0.9321 0.9325
1716.925134 0.9321 0.9315 0.9304 0.9293 0.9283
1721.934046 0.9275 0.9267 0.9265 0.9268 0.9272
1726.942959 0.9282 0.9292 0.9302 0.9311 0.9318
1731.951872 0.9326 0.9333 0.9339 0.9344 0.9350
1736.960784 0.9355 0.9360 0.9365 0.9371 0.9378
1741.969697 0.9384 0.9391 0.9397 0.9404 0.9410
1746.978610 0.9419 0.9429 0.9440 0.9450 0.9461
1751.987522 0.9472 0.9484 0.9495 0.9504 0.9504
1756.996435 0.9504 0.9504 0.9504 0.9505 0.9503
1762.005348 0.9502 0.9521 0.9498 0.9497 0.9495
1767.014260 0.9492 0.9484 0.9477 0.9469 0.9461
1772.023173 0.9453 0.9445 0.9435 0.9426 0.9416
1777.032086 0.9406 0.9397 0.9388 0.9379 0.9371
1782.040998 0.9362 0.9354 0.9346 0.9337 0.9329
1787.049911 0.9320 0.9312 0.9309 0.9308 0.9307
1792.058824 0.9306 0.9305 0.9304 0.9303 0.9307
1797.067736 0.9310 0.9314 0.9318 0.9322 0.9326
1802.076649 0.9330 0.9333 0.9337 0.9341 0.9346
1807.085561 0.9351 0.9355 0.9360 0.9365 0.9369
1812.094474 0.9374 0.9379 0.9383 0.9388 0.9391
1817.103387 0.9393 0.9396 0.9399 0.9402 0.9404
1822.112299 0.9407 0.9410 0.9413 0.9414 0.9415
1827.121212 0.9416 0.9417 0.9417 0.9418 0.9418
1832.130125 0.9414 0.9409 0.9405 0.9400 0.9390
1837.139037 0.9379 0.9368 0.9357 0.9342 0.9326
1842.147950 0.9312 0.9301 0.9291 0.9283 0.9277
1847.156863 0.9271 0.9265 0.9259 0.9254 0.9248
1852.165775 0.9243 0.9237 0.9232 0.9227 0.9220
1857.174688 0.9213 0.9206 0.9199 0.9192 0.9185
1862.183601 0.9178 0.9171 0.9163 0.9154 0.9146
1867.192513 0.9138 0.9126 0.9114 0.9103 0.9091
1872.201426 0.9079 0.9068 0.9056 0.9044 0.9032
1877.210339 0.9019 0.9007 0.8994 0.8982 0.8970
1882.219251 0.8957 0.8945 0.8932 0.8921 0.8911
1887.228164 0.8901 0.8890 0.8880 0.8870 0.8860
1892.237077 0.8851 0.8849 0.8848 0.8848 0.8848
1897.245989 0.8848 0.8847 0.8847 0.8848 0.8850
1902.254902 0.8853 0.8855 0.8858 0.8861 0.8864
1907.263815 0.8867 0.8871 0.8874 0.8877 0.8881
1912.272727 0.8884 0.8887 0.8891 0.8894 0.8897
1917.281640 0.8901 0.8903 0.8906 0.8909 0.8912
1922.290553 0.8915 0.8918 0.8920 0.8920 0.8920
1927.299465 0.8921 0.8921 0.8921 0.8921 0.8921
1932.308378 0.8922 0.8922 0.8922 0.8921 0.8920
1937.317291 0.8919 0.8918 0.8917 0.8916 0.8915
1942.326203 0.8915 0.8914 0.8914 0.8913 0.8911
1947.335116 0.8907 0.8902 0.8897 0.8893 0.8888
1952.344029 0.8884 0.8879 0.8874 0.8870 0.8865
1957.352941 0.8861 0.8857 0.8853 0.8850 0.8846
1962.361854 0.8842 0.8839 0.8835 0.8831 0.8828
1967.370766 0.8824 0.8821 0.8817 0.8813 0.8809
1972.379679 0.8805 0.8801 0.8797 0.8793 0.8788
1977.388592 0.8784 0.8779 0.8775 0.8770 0.8766
1982.397504 0.8761 0.8757 0.8753 0.8748 0.8744
1987.406417 0.8739 0.8734 0.8728 0.8723 0.8717
1992.415330 0.8712 0.8706 0.8700 0.8695 0.8689
1997.424242 0.8684 0.8678 0.8673 0.8667 0.8662
2002.433155 0.8656 0.8650 0.8644 0.8637 0.8631
2007.442068 0.8624 0.8618 0.8611 0.8605 0.8598
2012.450980 0.8592 0.8585 0.8579 0.8572 0.8565
2017.459893 0.8559 0.8552 0.8545 0.8538 0.8532
2022.468806 0.8525 0.8518 0.8511 0.8505 0.8498
2027.477718 0.8493 0.8488 0.8484 0.8480 0.8476
2032.486631 0.8471 0.8467 0.8463 0.8458 0.8453
2037.495544 0.8448 0.8443 0.8438 0.8433 0.8427
2042.504456 0.8422 0.8417 0.8412 0.8406 0.8400
2047.513369 0.8394 0.8387 0.8380 0.8373 0.8365
2052.522282 0.8357 0.8349 0.8341 0.8334 0.8326
2057.531194 0.8320 0.8316 0.8313 0.8311 0.8308
2062.540107 0.8305 0.8302 0.8299 0.8296 0.8293
2067.549020 0.8290 0.8287 0.8284 0.8281 0.8279
2072.557932 0.8276 0.8273 0.8270 0.8268 0.8267
2077.566845 0.8266 0.8265 0.8265 0.8264 0.8263
2082.575758 0.8262 0.8262 0.8261 0.8260 0.8259
2087.584670 0.8258 0.8256 0.8252 0.8249 0.8245
2092.593583 0.8241 0.8238 0.8232 0.8226 0.8220
2097.602496 0.8214 0.8208 0.8202 0.8196 0.8190
2102.611408 0.8184 0.8178 0.8172 0.8166 0.8160
2107.620321 0.8154 0.8148 0.8142 0.8136 0.8129
2112.629234 0.8122 0.8114 0.8107 0.8099 0.8092
2117.638146 0.8085 0.8077 0.8070 0.8062 0.8054
2122.647059 0.8046 0.8038 0.8029 0.8021 0.8013
2127.655971 0.8005 0.7996 0.7988 0.7980 0.7972
2132.664884 0.7963 0.7955 0.7947 0.7942 0.7938
2137.673797 0.7934 0.7929 0.7925 0.7921 0.7916
2142.682709 0.7912 0.7908 0.7902 0.7895 0.7887
2147.691622 0.7880 0.7873 0.7866 0.7859 0.7852
2152.700535 0.7844 0.7837 0.7830 0.7823 0.7816
2157.709447 0.7809 0.7801 0.7794 0.7787 0.7780
2162.718360 0.7773 0.7765 0.7758 0.7751 0.7743
2167.727273 0.7736 0.7729 0.7721 0.7714 0.7707
2172.736185 0.7704 0.7703 0.7702 0.7701 0.7699
2177.745098 0.7698 0.7697 0.7695 0.7694 0.7693
2182.754011 0.7691 0.7690 0.7689 0.7687 0.7685
2187.762923 0.7683 0.7680 0.7678 0.7676 0.7673
2192.771836 0.7671 0.7669 0.7666 0.7664 0.7662
2197.780749 0.7659 0.7657 0.7654 0.7652 0.7647
2202.789661 0.7641 0.7636 0.7630 0.7624 0.7618
2207.798574 0.7612 0.7606 0.7600 0.7594 0.7587
2212.807487 0.7579 0.7569 0.7560 0.7551 0.7541
2217.816399 0.7532 0.7522 0.7513 0.7504 0.7494
2222.825312 0.7485 0.7476 0.7466 0.7457 0.7447
2227.834225 0.7437 0.7429 0.7420 0.7411 0.7402
2232.843137 0.7393 0.7385 0.7376 0.7367 0.7358
2237.852050 0.7349 0.7341 0.7332 0.7323 0.7314
2242.860963 0.7305 0.7296 0.7287 0.7278 0.7269
2247.869875 0.7259 0.7250 0.7241 0.7232 0.7223
2252.878788 0.7214 0.7205 0.7196 0.7187 0.7178
2257.887701 0.7169 0.7160 0.7151 0.7142 0.7131
2262.896613 0.7120 0.7109 0.7098 0.7087 0.7076
2267.905526 0.7065 0.7054 0.7043 0.7032 0.7021
2272.914439 0.7010 0.6997 0.6984 0.6971 0.6959
2277.923351 0.6946 0.6933 0.6920 0.6908 0.6895
2282.932264 0.6882 0.6869 0.6857 0.6844 0.6831
2287.941176 0.6820 0.6809 0.6798 0.6787 0.6776
2292.950089 0.6765 0.6754 0.6744 0.6732 0.6721
2297.959002 0.6710 0.6698 0.6684 0.6669 0.6654
2302.967914 0.6639 0.6625 0.6611 0.6596 0.6582
2307.976827 0.6567 0.6553 0.6540 0.6528 0.6516
2312.985740 0.6504 0.6492 0.6480 0.6468 0.6456
2317.994652 0.6444 0.6432 0.6420 0.6408 0.6395
2323.003565 0.6383 0.6371 0.6359 0.6347 0.6335
2328.012478 0.6323 0.6311 0.6299 0.6288 0.6279
2333.021390 0.6269 0.6260 0.6250 0.6241 0.6232
2338.030303 0.6222 0.6213 0.6204 0.6194 0.6185
2343.039216 0.6176 0.6167 0.6160 0.6153 0.6145
2348.048128 0.6138 0.6133 0.6129 0.6126 0.6122
2353.057041 0.6119 0.6115 0.6112 0.6108 0.6107
2358.065954 0.6106 0.6105 0.6104 0.6103 0.6101
2363.074866 0.6100 0.6099 0.6098 0.6097 0.6096
2368.083779 0.6094 0.6093 0.6092 0.6091 0.6090
2373.092692 0.6088 0.6087 0.6085 0.6083 0.6082
2378.101604 0.6080 0.6078 0.6076 0.6074 0.6073
2383.110517 0.6071 0.6069 0.6067 0.6065 0.6063
2388.119430 0.6060 0.6057 0.6054 0.6051 0.6049
2393.128342 0.6046 0.6043 0.6040 0.6037 0.6034
2398.137255 0.6030 0.6023 0.6017 0.6010 0.6003
2403.146168 0.5996 0.5989 0.5982 0.5975 0.5968
2408.155080 0.5962 0.5955 0.5948 0.5941 0.5934
2413.163993 0.5927 0.5920 0.5912 0.5902 0.5892
2418.172906 0.5882 0.5872 0.5863 0.5853 0.5843
2423.181818 0.5833 0.5823 0.5813 0.5803 0.5793
2428.190731 0.5783 0.5773 0.5764 0.5755 0.5747
2433.199643 0.5739 0.5730 0.5722 0.5714 0.5706
2438.208556 0.5697 0.5689 0.5681 0.5673 0.5664
2443.217469 0.5656 0.5648 0.5639 0.5631 0.5623
2448.226381 0.5614 0.5606 0.5597 0.5588 0.5579
2453.235294 0.5571 0.5562 0.5553 0.5545 0.5537
2458.244207 0.5529 0.5521 0.5513 0.5506 0.5498
2463.253119 0.5490 0.5483 0.5478 0.5472 0.5467
2468.262032 0.5462 0.5457 0.5451 0.5445 0.5439
2473.270945 0.5430 0.5409 0.5376 0.5333 0.5287
2478.279857 0.5239 0.5190 0.5149 0.5123 0.5101
2483.288770 0.5093 0.5088 0.5084 0.5083 0.5081
2488.297683 0.5080 0.5078 0.5075 0.5072 0.5069
2493.306595 0.5066 0.5061 0.5057 0.5052 0.5048
2498.315508 0.5043 0.5038 0.5030 0.5023 0.5015
2503.324421 0.5005 0.4993 0.4981 0.4969 0.4957
2508.333333 0.4944 0.4932 0.4920 0.4909 0.4897
2513.342246 0.4885 0.4873 0.4861 0.4849 0.4836
2518.351159 0.4824 0.4811 0.4798 0.4786 0.4773
2523.360071 0.4761 0.4748 0.4735 0.4721 0.4708
2528.368984 0.4694 0.4681 0.4667 0.4652 0.4636
2533.377897 0.4620 0.4604 0.4588 0.4572 0.4557
2538.386809 0.4541 0.4526 0.4510 0.4495 0.4480
2543.395722 0.4466 0.4452 0.4438 0.4424 0.4413
2548.404635 0.4406 0.4399 0.4393 0.4386 0.4381
2553.413547 0.4380 0.4379 0.4379 0.4378 0.4378
2558.422460 0.4378 0.4379 0.4381 0.4383 0.4385
2563.431373 0.4387 0.4389 0.4391 0.4393 0.4395
2568.440285 0.4399 0.4402 0.4406 0.4409 0.4413
2573.449198 0.4415 0.4416 0.4415 0.4415 0.4413
2578.458111 0.4410 0.4404 0.4399 0.4393 0.4388
2583.467023 0.4382 0.4376 0.4369 0.4362 0.4356
2588.475936 0.4349 0.4342 0.4335 0.4329 0.4322
2593.484848 0.4315 0.4308 0.4301 0.4294 0.4287
2598.493761 0.4281 0.4275 0.4270 0.4264 0.4259
2603.502674 0.4253 0.4248 0.4242 0.4237 0.4230
2608.511586 0.4223 0.4216 0.4210 0.4203 0.4196
2613.520499 0.4189 0.4182 0.4175 0.4168 0.4161
2618.529412 0.4153 0.4145 0.4137 0.4129 0.4122
2623.538324 0.4114 0.4106 0.4098 0.4088 0.4077
2628.547237 0.4066 0.4055 0.4044 0.4033 0.4022
2633.556150 0.4011 0.4000 0.3985 0.3968 0.3950
2638.565062 0.3932 0.3914 0.3897 0.3882 0.3868
2643.573975 0.3854 0.3840 0.3826 0.3812 0.3798
2648.582888 0.3784 0.3772 0.3761 0.3751 0.3741
2653.591800 0.3730 0.3720 0.3714 0.3710 0.3707
2658.600713 0.3704 0.3701 0.3699 0.3697 0.3695
2663.609626 0.3693 0.3692 0.3690 0.3689 0.3689
2668.618538 0.3690 0.3690 0.3691 0.3691 0.3692
2673.627451 0.3693 0.3693 0.3694 0.3694 0.3695
2678.636364 0.3696 0.3696 0.3697 0.3697 0.3698
2683.645276 0.3698 0.3699 0.3699 0.3700 0.3701
2688.654189 0.3700 0.3697 0.3693 0.3686 0.3677
2693.663102 0.3669 0.3661 0.3652 0.3644 0.3638
2698.672014 0.3635 0.3632 0.3630 0.3627 0.3624
2703.680927 0.3623 0.3623 0.3623 0.3623 0.3623
2708.689840 0.3622 0.3622 0.3622 0.3622 0.3622
2713.698752 0.3622 0.3622 0.3622 0.3623 0.3623
2718.707665 0.3623 0.3623 0.3623 0.3624 0.3624
2723.716578 0.3625 0.3626 0.3627 0.3629 0.3630
2728.725490 0.3632 0.3633 0.3635 0.3636 0.3638
2733.734403 0.3639 0.3641 0.3642 0.3638 0.3632
2738.743316 0.3625 0.3616 0.3600 0.3581 0.3562
2743.752228 0.3544 0.3523 0.3497 0.3468 0.3440
2748.761141 0.3421 0.3405 0.3390 0.3379 0.3372
2753.770053 0.3366 0.3360 0.3354 0.3348 0.3343
2758.778966 0.3337 0.3331 0.3326 0.3322 0.3318
2763.787879 0.3314 0.3311 0.3307 0.3303 0.3299
2768.796791 0.3296 0.3293 0.3291 0.3289 0.3287
2773.805704 0.3286 0.3284 0.3282 0.3281 0.3318
2778.814617 0.3290 0.3282 0.3283 0.3284 0.3285
2783.823529 0.3285 0.3286 0.3287 0.3289 0.3292
2788.832442 0.3296 0.3300 0.3303 0.3306 0.3310
2793.841355 0.3313 0.3317 0.3327 0.3338 0.3350
2798.850267 0.3362 0.3374 0.3385 0.3397 0.3408
2803.859180 0.3418 0.3429 0.3439 0.3450 0.3461
2808.868093 0.3476 0.3501 0.3528 0.3555 0.3582
2813.877005 0.3608 0.3635 0.3662 0.3688 0.3713
2818.885918 0.3739 0.3765 0.3784 0.3802 0.3820
2823.894831 0.3838 0.3856 0.3874 0.3890 0.3905
2828.903743 0.3919 0.3932 0.3946 0.3959 0.3973
2833.912656 0.3981 0.3989 0.3996 0.4003 0.4011
2838.921569 0.4020 0.4031 0.4041 0.4052 0.4062
2843.930481 0.4073 0.4083 0.4092 0.4102 0.4112
2848.939394 0.4121 0.4131 0.4141 0.4150 0.4160
2853.948307 0.4168 0.4173 0.4179 0.4184 0.4189
2858.957219 0.4194 0.4198 0.4203 0.4207 0.4211
2863.966132 0.4215 0.4217 0.4205 0.4219 0.4220
2868.975045 0.4221 0.4221 0.4215 0.4207 0.4199
2873.983957 0.4178 0.4157 0.4136 0.4115 0.4090
2878.992870 0.4065 0.4040 0.4026 0.4016 0.4005
2884.001783 0.3995 0.3989 0.3983 0.3977 0.3974
2889.010695 0.3971 0.3968 0.3965 0.3961 0.3957
2894.019608 0.3953 0.3948 0.3944 0.3939 0.3934
2899.028520 0.3929 0.3924 0.3920 0.3915 0.3910
2904.037433 0.3905 0.3901 0.3897 0.3892 0.3888
2909.046346 0.3882 0.3872 0.3861 0.3851 0.3840
2914.055258 0.3830 0.3816 0.3802 0.3787 0.3773
2919.064171 0.3757 0.3740 0.3723 0.3706 0.3689
2924.073084 0.3675 0.3667 0.3659 0.3652 0.3644
2929.081996 0.3636 0.3628 0.3621 0.3615 0.3613
2934.090909 0.3612 0.3610 0.3608 0.3606 0.3604
2939.099822 0.3603 0.3601 0.3599 0.3597 0.3593
2944.108734 0.3590 0.3586 0.3583 0.3579 0.3576
2949.117647 0.3572 0.3569 0.3563 0.3548 0.3559
2954.126560 0.3558 0.3557 0.3558 0.3563 0.3570
2959.135472 0.3578 0.3586 0.3593 0.3602 0.3610
2964.144385 0.3619 0.3627 0.3635 0.3644 0.3652
2969.153298 0.3660 0.3667 0.3674 0.3681 0.3688
2974.162210 0.3695 0.3703 0.3711 0.3720 0.3728
2979.171123 0.3737 0.3745 0.3754 0.3762 0.3769
2984.180036 0.3776 0.3783 0.3789 0.3796 0.3803
2989.188948 0.3810 0.3818 0.3830 0.3842 0.3854
2994.197861 0.3867 0.3881 0.3898 0.3916 0.3933
2999.206774 0.3951 0.3967 0.3983 0.3999 0.4014
3004.215686 0.4029 0.4045 0.4059 0.4068 0.4078
3009.224599 0.4085 0.4087 0.4089 0.4090 0.4092
3014.233512 0.4093 0.4095 0.4091 0.4084 0.4085
3019.242424 0.4081 0.4077 0.4073 0.4069 0.4065
3024.251337 0.4061 0.4056 0.4052 0.4048 0.4043
3029.260250 0.4039 0.4035 0.4029 0.4019 0.4007
3034.269162 0.3996 0.3985 0.3974 0.3962 0.3950
3039.278075 0.3932 0.3910 0.3888 0.3866 0.3842
3044.286988 0.3811 0.3777 0.3753 0.3733 0.3713
3049.295900 0.3693 0.3675 0.3664 0.3655 0.3646
3054.304813 0.3634 0.3623 0.3628 0.3632 0.3636
3059.313725 0.3641 0.3645 0.3649 0.3653 0.3658
3064.322638 0.3664 0.3670 0.3676 0.3682 0.3688
3069.331551 0.3694 0.3702 0.3714 0.3725 0.3737
3074.340463 0.3748 0.3760 0.3771 0.3783 0.3794
3079.349376 0.3806 0.3817 0.3829 0.3840 0.3851
3084.358289 0.3863 0.3874 0.3886 0.3899 0.3913
3089.367201 0.3926 0.3940 0.3954 0.3967 0.3981
3094.376114 0.3994 0.4008 0.4022 0.4035 0.4049
3099.385027 0.4062 0.4073 0.4082 0.4091 0.4099
3104.393939 0.4108 0.4116 0.4125 0.4133 0.4142
3109.402852 0.4150 0.4161 0.4175 0.4189 0.4206
3114.411765 0.4230 0.4259 0.4289 0.4319 0.4349
3119.420677 0.4382 0.4425 0.4473 0.4511 0.4540
3124.429590 0.4568 0.4597 0.4627 0.4659 0.4691
3129.438503 0.4721 0.4742 0.4757 0.4771 0.4785
3134.447415 0.4796 0.4804 0.4811 0.4819 0.4826
3139.456328 0.4833 0.4838 0.4842 0.4847 0.4852
3144.465241 0.4856 0.4859 0.4860 0.4862 0.4863
3149.474153 0.4865 0.4866 0.4867 0.4867 0.4866
3154.483066 0.4864 0.4863 0.4861 0.4860 0.4858
3159.491979 0.4856 0.4854 0.4851 0.4849 0.4846
3164.500891 0.4844 0.4841 0.4838 0.4836 0.4834
3169.509804 0.4832 0.4830 0.4828 0.4826 0.4824
3174.518717 0.4822 0.4820 0.4822 0.4821 0.4818
3179.527629 0.4819 0.4820 0.4820 0.4821 0.4821
3184.536542 0.4822 0.4823 0.4823 0.4823 0.4822
3189.545455 0.4822 0.4822 0.4822 0.4821 0.4821
3194.554367 0.4821 0.4821 0.4822 0.4822 0.4823
3199.563280 0.4823 0.4824 0.4824 0.4825 0.4826
3204.572193 0.4826 0.4827 0.4827 0.4830 0.4835
3209.581105 0.4842 0.4849 0.4855 0.4862 0.4868
3214.590018 0.4874 0.4881 0.4887 0.4894 0.4900
3219.598930 0.4907 0.4915 0.4923 0.4932 0.4940
3224.607843 0.4948 0.4957 0.4965 0.4968 0.4969
3229.616756 0.4969 0.4969 0.4969 0.4969 0.4970
3234.625668 0.4970 0.4967 0.4962 0.4955 0.4948
3239.634581 0.4942 0.4935 0.4928 0.4922 0.4914
3244.643494 0.4905 0.4896 0.4886 0.4877 0.4868
3249.652406 0.4858 0.4849 0.4840 0.4830 0.4821
3254.661319 0.4812 0.4803 0.4794 0.4784 0.4775
3259.670232 0.4766 0.4757 0.4748 0.4739 0.4729
3264.679144 0.4720 0.4711 0.4702 0.4693 0.4683
3269.688057 0.4674 0.4665 0.4656 0.4647 0.4638
3274.696970 0.4630 0.4621 0.4612 0.4603 0.4594
3279.705882 0.4586 0.4577 0.4568 0.4559 0.4550
3284.714795 0.4542 0.4534 0.4527 0.4520 0.4513
3289.723708 0.4506 0.4499 0.4492 0.4485 0.4478
3294.732620 0.4471 0.4464 0.4458 0.4455 0.4453
3299.741533 0.4451 0.4449 0.4447 0.4445 0.4444
3304.750446 0.4439 0.4439 0.4441 0.4445 0.4449
3309.759358 0.4454 0.4461 0.4469 0.4477 0.4485
3314.768271 0.4493 0.4504 0.4515 0.4527 0.4538
3319.777184 0.4549 0.4561 0.4572 0.4582 0.4593
3324.786096 0.4604 0.4615 0.4626 0.4637 0.4648
3329.795009 0.4658 0.4669 0.4680 0.4690 0.4701
3334.803922 0.4711 0.4722 0.4732 0.4743 0.4753
3339.812834 0.4762 0.4770 0.4777 0.4784 0.4792
3344.821747 0.4799 0.4806 0.4811 0.4817 0.4823
3349.830660 0.4828 0.4833 0.4838 0.4843 0.4847
3354.839572 0.4852 0.4857 0.4862 0.4867 0.4871
3359.848485 0.4876 0.4881 0.4885 0.4889 0.4893
3364.857398 0.4897 0.4901 0.4905 0.4909 0.4913
3369.866310 0.4917 0.4921 0.4925 0.4929 0.4933
3374.875223 0.4937 0.4941 0.4945 0.4949 0.4953
3379.884135 0.4957 0.4961 0.4964 0.4968 0.4972
3384.893048 0.4976 0.4980 0.4984 0.4988 0.4992
3389.901961 0.4995 0.4999 0.5003 0.5008 0.5014
3394.910873 0.5020 0.5026 0.5032 0.5039 0.5049
3399.919786 0.5061 0.5074 0.5086 0.5099 0.5111
3404.928699 0.5125 0.5139 0.5151 0.5155 0.5158
3409.937611 0.5161 0.5164 0.5168 0.5171 0.5174
3414.946524 0.5177 0.5177 0.5177 0.5177 0.5178
3419.955437 0.5178 0.5178 0.5178 0.5178 0.5179
3424.964349 0.5179 0.5179 0.5181 0.5183 0.5185
3429.973262 0.5187 0.5190 0.5192 0.5194 0.5197
3434.982175 0.5199 0.5201 0.5203 0.5206 0.5208
3439.991087 0.5210 0.5213 0.5215 0.5216 0.5216
3445.000000 0.5217 0.5218 0.5219 0.5220 0.5221
3450.008913 0.5222 0.5223 0.5223 0.5224 0.5225
3455.017825 0.5226 0.5227 0.5228 0.5229 0.5230
3460.026738 0.5231 0.5232 0.5234 0.5235 0.5237
3465.035651 0.5238 0.5240 0.5242 0.5243 0.5245
3470.044563 0.5246 0.5248 0.5249 0.5251 0.5252
3475.053476 0.5254 0.5256 0.5257 0.5259 0.5261
3480.062389 0.5263 0.5265 0.5267 0.5269 0.5271
3485.071301 0.5273 0.5275 0.5278 0.5280 0.5282
3490.080214 0.5284 0.5286 0.5288 0.5290 0.5293
3495.089127 0.5296 0.5299 0.5301 0.5304 0.5307
3500.098039 0.5310 0.5313 0.5316 0.5318 0.5321
3505.106952 0.5324 0.5327 0.5330 0.5333 0.5335
3510.115865 0.5338 0.5341 0.5344 0.5347 0.5349
3515.124777 0.5352 0.5356 0.5359 0.5362 0.5365
3520.133690 0.5369 0.5372 0.5375 0.5379 0.5382
3525.142602 0.5385 0.5388 0.5392 0.5395 0.5398
3530.151515 0.5402 0.5405 0.5409 0.5412 0.5416
3535.160428 0.5419 0.5423 0.5426 0.5430 0.5433
3540.169340 0.5437 0.5440 0.5444 0.5447 0.5451
3545.178253 0.5454 0.5458 0.5461 0.5465 0.5468
3550.187166 0.5471 0.5475 0.5478 0.5482 0.5485
3555.196078 0.5489 0.5492 0.5496 0.5499 0.5502
3560.204991 0.5506 0.5509 0.5512 0.5516 0.5519
3565.213904 0.5522 0.5526 0.5529 0.5532 0.5536
3570.222816 0.5539 0.5542 0.5546 0.5549 0.5552
3575.231729 0.5556 0.5559 0.5562 0.5565 0.5568
3580.240642 0.5570 0.5573 0.5575 0.5578 0.5581
3585.249554 0.5583 0.5585 0.5588 0.5591 0.5594
3590.258467 0.5596 0.5599 0.5601 0.5604 0.5605
3595.267380 0.5606 0.5608 0.5609 0.5610 0.5612
3600.276292 0.5613 0.5614 0.5615 0.5617 0.5618
3605.285205 0.5619 0.5621 0.5622 0.5623 0.5624
3610.294118 0.5624 0.5624 0.5624 0.5624 0.5624
3615.303030 0.5624 0.5624 0.5636 0.5650 0.5624
3620.311943 0.5624 0.5624 0.5624 0.5624 0.5624
3625.320856 0.5624 0.5624 0.5624 0.5624 0.5625
3630.329768 0.5625 0.5625 0.5625 0.5625 0.5624
3635.338681 0.5624 0.5623 0.5622 0.5621 0.5620
3640.347594 0.5620 0.5619 0.5618 0.5617 0.5616
3645.356506 0.5616 0.5615 0.5614 0.5613 0.5612
3650.365419 0.5610 0.5608 0.5605 0.5603 0.5601
3655.374332 0.5599 0.5596 0.5594 0.5592 0.5589
3660.383244 0.5587 0.5585 0.5582 0.5580 0.5577
3665.392157 0.5572 0.5568 0.5564 0.5559 0.5555
3670.401070 0.5551 0.5546 0.5542 0.5537 0.5533
3675.409982 0.5529 0.5524 0.5520 0.5516 0.5513
3680.418895 0.5511 0.5509 0.5508 0.5506 0.5504
3685.427807 0.5503 0.5501 0.5499 0.5498 0.5496
3690.436720 0.5494 0.5493 0.5491 0.5489 0.5488
3695.445633 0.5486 0.5484 0.5483 0.5482 0.5481
3700.454545 0.5480 0.5479 0.5478 0.5478 0.5477
3705.463458 0.5476 0.5475 0.5474 0.5474 0.5473
3710.472371 0.5472 0.5471 0.5470 0.5470 0.5469
3715.481283 0.5468 0.5467 0.5467 0.5466 0.5465
3720.490196 0.5464 0.5463 0.5463 0.5462 0.5461
3725.499109 0.5460 0.5458 0.5457 0.5455 0.5453
3730.508021 0.5451 0.5449 0.5448 0.5446 0.5444
3735.516934 0.5442 0.5440 0.5438 0.5437 0.5435
3740.525847 0.5433 0.5431 0.5429 0.5427 0.5426
3745.534759 0.5424 0.5422 0.5420 0.5418 0.5416
3750.543672 0.5415 0.5413 0.5411 0.5409 0.5407
3755.552585 0.5405 0.5404 0.5402 0.5400 0.5398
3760.561497 0.5396 0.5394 0.5393 0.5391 0.5389
3765.570410 0.5387 0.5385 0.5383 0.5382 0.5380
3770.579323 0.5378 0.5376 0.5374 0.5371 0.5369
3775.588235 0.5367 0.5364 0.5362 0.5360 0.5357
3780.597148 0.5355 0.5353 0.5350 0.5348 0.5346
3785.606061 0.5344 0.5341 0.5339 0.5337 0.5334
3790.614973 0.5332 0.5330 0.5327 0.5325 0.5323
3795.623886 0.5320 0.5318 0.5316 0.5313 0.5311
3800.632799 0.5309 0.5306 0.5304 0.5302 0.5299
3805.641711 0.5296 0.5293 0.5290 0.5287 0.5284
3810.650624 0.5281 0.5278 0.5275 0.5272 0.5268
3815.659537 0.5265 0.5262 0.5259 0.5256 0.5253
3820.668449 0.5250 0.5247 0.5244 0.5241 0.5238
3825.677362 0.5235 0.5232 0.5229 0.5226 0.5222
3830.686275 0.5219 0.5216 0.5213 0.5210 0.5207
3835.695187 0.5203 0.5200 0.5197 0.5194 0.5191
3840.704100 0.5188 0.5184 0.5181 0.5178 0.5175
3845.713012 0.5172 0.5169 0.5165 0.5162 0.5159
3850.721925 0.5156 0.5153 0.5150 0.5146 0.5143
3855.730838 0.5140 0.5137 0.5135 0.5132 0.5129
3860.739750 0.5127 0.5124 0.5122 0.5119 0.5117
3865.748663 0.5114 0.5111 0.5109 0.5106 0.5104
3870.757576 0.5101 0.5099 0.5096 0.5094 0.5091
3875.766488 0.5089 0.5086 0.5084 0.5081 0.5079
3880.775401 0.5076 0.5074 0.5071 0.5068 0.5066
3885.784314 0.5063 0.5060 0.5057 0.5054 0.5051
3890.793226 0.5048 0.5045 0.5042 0.5039 0.5036
3895.802139 0.5033 0.5030 0.5027 0.5024 0.5022
3900.811052 0.5019 0.5016 0.5013 0.5010 0.5007
3905.819964 0.5004 0.5001 0.4998 0.4995 0.4992
3910.828877 0.4989 0.4986 0.4983 0.4981 0.4979
3915.837790 0.4976 0.4974 0.4972 0.4970 0.4968
3920.846702 0.4966 0.4964 0.4962 0.4959 0.4957
3925.855615 0.4955 0.4953 0.4951 0.4949 0.4947
3930.864528 0.4945 0.4943 0.4940 0.4938 0.4936
3935.873440 0.4936 0.4935 0.4934 0.4934 0.4933
3940.882353 0.4933 0.4932 0.4931 0.4931 0.4930
3945.891266 0.4930 0.4929 0.4928 0.4928 0.4927
3950.900178 0.4926 0.4926 0.4925 0.4925 0.4924
3955.909091 0.4923 0.4923 0.4922 0.4922 0.4922
3960.918004 0.4923 0.4924 0.4925 0.4926 0.4927
3965.926916 0.4927 0.4928 0.4935 0.4930 0.4931
3970.935829 0.4932 0.4933 0.4934 0.4935 0.4936
3975.944742 0.4937 0.4938 0.4941 0.4943 0.4946
3980.953654 0.4948 0.4951 0.4954 0.4956 0.4959
3985.962567 0.4961 0.4963 0.4965 0.4966 0.4967
3990.971480 0.4968 0.4969 0.4970 0.4972 0.4973
3995.980392 0.4968 0.4962 0.4956 0.4949 0.4943
4000.989305 0.4937 0.4930 0.4924 0.4918 0.4912
4005.998217 0.4907
##END=
