##TITLE=STEARIC ACID, STRONTIUM SALT
##JCAMP-DX=4.24
##DATA TYPE=INFRARED SPECTRUM
##CLASS=COBLENTZ III
##ORIGIN=WYANDOTTE CHEMICALS CORP.
##OWNER=COBLENTZ SOCIETY
Collection (C) 2018 copyright by the U.S. Secretary of Commerce
on behalf of the United States of America. All rights reserved.
##DATE=1956/03/02
##MOLFORM=C36 H70 O4 Sr
##SOURCE REFERENCE=COBLENTZ NO. 6292
##$NIST ID=B6006292
##$NIST SOURCE=COBLENTZ
##$NIST IMAGE=cob6292
##SPECTROMETER/DATA SYSTEM=BAIRD (PRISM)
##INSTRUMENT PARAMETERS=NaCl PRISM
##STATE=SOLID (OIL MULL)
$$SPECTRAL CONTAMINATION DUE TO AN UNKNOWN (IMPURITY) AROUND 1700 CM^-^1
##SAMPLING PROCEDURE=TRANSMISSION
##RESOLUTION=2
##DATA PROCESSING=DIGITIZED BY NIST FROM HARD COPY
##XUNITS=MICROMETERS
##YUNITS=TRANSMITTANCE
##XFACTOR=1.000000
##YFACTOR=1
##DELTAX=000.004776
##FIRSTX=1.956
##LASTX=15.9402
##FIRSTY=0.947
##MAXX=15.9402
##MINX=1.956
##MAXY=0.948
##MINY=0.028
##NPOINTS=2929
##XYDATA=(X++(Y..Y))
1.956000 0.9470 0.9470 0.9460 0.9460 0.9460
1.979889 0.9470 0.9470 0.9460 0.9460 0.9460
2.004000 0.9440 0.9440 0.9440 0.9430 0.9420
2.027889 0.9410 0.9410 0.9410 0.9430 0.9460
2.051000 0.9470 0.9470 0.9470 0.9470 0.9470
2.074889 0.9470 0.9470 0.9470 0.9470 0.9480
2.099000 0.9480 0.9480 0.9470 0.9470 0.9460
2.122889 0.9460 0.9440 0.9440 0.9440 0.9430
2.147000 0.9410 0.9410 0.9400 0.9400 0.9380
2.170889 0.9380 0.9370 0.9340 0.9280 0.9180
2.195000 0.9100 0.9050 0.8990 0.8990 0.8980
2.218889 0.8970 0.8970 0.8970 0.8970 0.8970
2.242000 0.8950 0.8940 0.8930 0.8920 0.8880
2.265889 0.8850 0.8830 0.8810 0.8800 0.8790
2.290000 0.8770 0.8770 0.8770 0.8760 0.8760
2.313889 0.8770 0.8770 0.8790 0.8790 0.8800
2.338000 0.8810 0.8810 0.8810 0.8820 0.8830
2.361889 0.8850 0.8850 0.8860 0.8860 0.8870
2.386000 0.8880 0.8930 0.8990 0.9000 0.9000
2.409889 0.9050 0.9060 0.9070 0.9090 0.9090
2.433000 0.9100 0.9100 0.9110 0.9130 0.9130
2.456889 0.9130 0.9130 0.9130 0.9130 0.9150
2.481000 0.9150 0.9150 0.9150 0.9160 0.9170
2.504889 0.9170 0.9170 0.9170 0.9160 0.9160
2.529000 0.9150 0.9150 0.9160 0.9160 0.9170
2.552889 0.9180 0.9210 0.9220 0.9230 0.9230
2.577000 0.9230 0.9240 0.9240 0.9250 0.9250
2.600889 0.9250 0.9270 0.9270 0.9270 0.9270
2.624000 0.9280 0.9280 0.9280 0.9280 0.9280
2.647889 0.9280 0.9280 0.9280 0.9280 0.9280
2.672000 0.9280 0.9280 0.9270 0.9270 0.9250
2.695889 0.9250 0.9240 0.9230 0.9220 0.9110
2.720000 0.9070 0.9070 0.9010 0.9010 0.9000
2.743889 0.8990 0.8980 0.8890 0.8850 0.8800
2.768000 0.8740 0.8700 0.8670 0.8660 0.8610
2.791889 0.8570 0.8500 0.8480 0.8480 0.8460
2.816000 0.8460 0.8450 0.8450 0.8450 0.8450
2.839889 0.8450 0.8440 0.8440 0.8440 0.8420
2.863000 0.8420 0.8420 0.8400 0.8400 0.8380
2.886889 0.8360 0.8330 0.8310 0.8300 0.8270
2.911000 0.8260 0.8260 0.8250 0.8250 0.8240
2.934889 0.8240 0.8240 0.8240 0.8240 0.8240
2.959000 0.8240 0.8240 0.8240 0.8220 0.8220
2.982889 0.8220 0.8210 0.8210 0.8210 0.8210
3.007000 0.8210 0.8210 0.8210 0.8210 0.8210
3.030889 0.8210 0.8210 0.8210 0.8210 0.8210
3.054000 0.8210 0.8220 0.8240 0.8240 0.8240
3.077889 0.8240 0.8220 0.8220 0.8210 0.8200
3.102000 0.8190 0.8190 0.8190 0.8180 0.8160
3.125889 0.8160 0.8130 0.8120 0.8090 0.8080
3.150000 0.8080 0.8070 0.8060 0.8060 0.8060
3.173889 0.8060 0.8060 0.8050 0.8050 0.8050
3.198000 0.8030 0.8020 0.8000 0.7990 0.7950
3.221889 0.7940 0.7910 0.7880 0.7820 0.7780
3.245000 0.7720 0.7690 0.7610 0.7550 0.7510
3.268889 0.7410 0.7340 0.7280 0.7160 0.7090
3.293000 0.6900 0.6740 0.6240 0.6050 0.5700
3.316889 0.5340 0.5040 0.4300 0.4040 0.3600
3.341000 0.2790 0.2390 0.1880 0.1020 0.0780
3.364889 0.0510 0.0350 0.0330 0.0310 0.0290
3.389000 0.0280 0.0310 0.0340 0.0340 0.0350
3.412889 0.0350 0.0340 0.0340 0.0340 0.0340
3.436000 0.0330 0.0330 0.0320 0.0320 0.0330
3.459889 0.0330 0.0340 0.0350 0.0370 0.0370
3.484000 0.0380 0.0390 0.0390 0.0400 0.0400
3.507889 0.0410 0.0470 0.0490 0.0640 0.0880
3.532000 0.1370 0.1800 0.2230 0.3310 0.3920
3.555889 0.4530 0.5080 0.5620 0.6110 0.6270
3.580000 0.6490 0.6620 0.6720 0.6800 0.7060
3.603889 0.7170 0.7290 0.7400 0.7520 0.7590
3.627000 0.7630 0.7710 0.7750 0.7770 0.7780
3.650889 0.7780 0.7790 0.7790 0.7790 0.7780
3.675000 0.7780 0.7770 0.7770 0.7780 0.7790
3.698889 0.7820 0.7830 0.7880 0.7900 0.7930
3.723000 0.7960 0.7990 0.8010 0.8020 0.8030
3.746889 0.8060 0.8060 0.8070 0.8070 0.8070
3.771000 0.8070 0.8080 0.8090 0.8090 0.8110
3.794889 0.8120 0.8140 0.8160 0.8190 0.8190
3.819000 0.8200 0.8210 0.8220 0.8260 0.8280
3.842889 0.8310 0.8340 0.8370 0.8390 0.8390
3.866000 0.8400 0.8400 0.8430 0.8450 0.8490
3.889889 0.8510 0.8520 0.8540 0.8570 0.8600
3.914000 0.8630 0.8680 0.8730 0.8730 0.8740
3.937889 0.8750 0.8760 0.8790 0.8810 0.8820
3.962000 0.8820 0.8820 0.8820 0.8830 0.8850
3.985889 0.8880 0.8890 0.8930 0.8950 0.8980
4.010000 0.8990 0.9010 0.9040 0.9030 0.9040
4.033889 0.9040 0.9040 0.9040 0.9040 0.9050
4.057000 0.9050 0.9050 0.9050 0.9050 0.9050
4.080889 0.9040 0.9030 0.9030 0.9010 0.9030
4.105000 0.9030 0.9040 0.9040 0.9040 0.9010
4.128889 0.9010 0.9050 0.9060 0.9070 0.9070
4.153000 0.9070 0.9070 0.9060 0.9060 0.9060
4.176889 0.9050 0.9050 0.9040 0.9040 0.9040
4.201000 0.9040 0.9040 0.9030 0.9030 0.9030
4.224889 0.9030 0.9030 0.9030 0.9010 0.9010
4.248000 0.9030 0.9010 0.9010 0.9010 0.9010
4.271889 0.9010 0.9030 0.9040 0.9070 0.9110
4.296000 0.9120 0.9130 0.9130 0.9160 0.9170
4.319889 0.9190 0.9220 0.9230 0.9250 0.9280
4.344000 0.9290 0.9300 0.9310 0.9330 0.9330
4.367889 0.9330 0.9310 0.9300 0.9290 0.9290
4.392000 0.9270 0.9230 0.9210 0.9180 0.9160
4.415889 0.9130 0.9130 0.9120 0.9110 0.9110
4.439000 0.9120 0.9120 0.9120 0.9120 0.9120
4.462889 0.9120 0.9120 0.9120 0.9120 0.9120
4.487000 0.9120 0.9130 0.9130 0.9150 0.9160
4.510889 0.9170 0.9170 0.9170 0.9170 0.9160
4.535000 0.9160 0.9160 0.9170 0.9180 0.9180
4.558889 0.9180 0.9180 0.9180 0.9180 0.9170
4.583000 0.9170 0.9180 0.9190 0.9220 0.9240
4.606889 0.9270 0.9270 0.9280 0.9280 0.9280
4.630000 0.9280 0.9280 0.9270 0.9250 0.9240
4.653889 0.9240 0.9240 0.9240 0.9240 0.9240
4.678000 0.9240 0.9240 0.9240 0.9240 0.9240
4.701889 0.9240 0.9240 0.9240 0.9240 0.9240
4.726000 0.9240 0.9230 0.9230 0.9230 0.9240
4.749889 0.9240 0.9250 0.9250 0.9270 0.9270
4.774000 0.9270 0.9280 0.9280 0.9280 0.9280
4.797889 0.9280 0.9280 0.9280 0.9280 0.9280
4.821000 0.9280 0.9280 0.9280 0.9280 0.9280
4.844889 0.9280 0.9280 0.9280 0.9280 0.9280
4.869000 0.9280 0.9280 0.9270 0.9270 0.9270
4.892889 0.9250 0.9250 0.9240 0.9240 0.9240
4.917000 0.9240 0.9250 0.9250 0.9270 0.9270
4.940889 0.9270 0.9280 0.9280 0.9280 0.9280
4.965000 0.9280 0.9280 0.9270 0.9270 0.9250
4.988889 0.9250 0.9240 0.9230 0.9210 0.9210
5.013000 0.9190 0.9190 0.9210 0.9210 0.9210
5.036889 0.9210 0.9210 0.9210 0.9210 0.9210
5.060000 0.9190 0.9190 0.9190 0.9210 0.9220
5.083889 0.9220 0.9230 0.9230 0.9230 0.9230
5.108000 0.9240 0.9240 0.9230 0.9230 0.9220
5.131889 0.9220 0.9230 0.9230 0.9230 0.9230
5.156000 0.9220 0.9220 0.9220 0.9220 0.9220
5.179889 0.9220 0.9220 0.9220 0.9220 0.9210
5.204000 0.9210 0.9220 0.9220 0.9220 0.9220
5.227889 0.9220 0.9220 0.9220 0.9210 0.9210
5.251000 0.9210 0.9190 0.9190 0.9190 0.9190
5.274889 0.9190 0.9180 0.9180 0.9180 0.9180
5.299000 0.9180 0.9180 0.9180 0.9170 0.9170
5.322889 0.9160 0.9160 0.9170 0.9170 0.9180
5.347000 0.9180 0.9180 0.9180 0.9180 0.9180
5.370889 0.9180 0.9180 0.9180 0.9180 0.9180
5.395000 0.9190 0.9190 0.9190 0.9190 0.9190
5.418889 0.9190 0.9180 0.9180 0.9180 0.9170
5.442000 0.9160 0.9150 0.9150 0.9150 0.9160
5.465889 0.9160 0.9160 0.9170 0.9170 0.9170
5.490000 0.9170 0.9160 0.9160 0.9160 0.9160
5.513889 0.9150 0.9160 0.9160 0.9160 0.9160
5.538000 0.9160 0.9160 0.9160 0.9160 0.9160
5.561889 0.9160 0.9160 0.9160 0.9160 0.9150
5.586000 0.9150 0.9150 0.9130 0.9130 0.9130
5.609889 0.9120 0.9130 0.9120 0.9120 0.9110
5.633000 0.9110 0.9100 0.9100 0.9090 0.9090
5.656889 0.9070 0.9070 0.9060 0.9060 0.9050
5.681000 0.9040 0.9030 0.9010 0.9000 0.8990
5.704889 0.8970 0.8910 0.8790 0.8740 0.8670
5.729000 0.8620 0.8600 0.8540 0.8480 0.8440
5.752889 0.8390 0.8380 0.8380 0.8390 0.8390
5.777000 0.8420 0.8430 0.8450 0.8460 0.8480
5.800889 0.8500 0.8500 0.8520 0.8520 0.8520
5.824000 0.8520 0.8520 0.8520 0.8540 0.8540
5.847889 0.8540 0.8540 0.8540 0.8540 0.8540
5.872000 0.8540 0.8540 0.8550 0.8550 0.8550
5.895889 0.8550 0.8550 0.8550 0.8550 0.8550
5.920000 0.8550 0.8550 0.8540 0.8540 0.8520
5.943889 0.8510 0.8500 0.8480 0.8460 0.8440
5.968000 0.8430 0.8390 0.8380 0.8340 0.8280
5.991889 0.8240 0.8210 0.8150 0.8110 0.8030
6.016000 0.8010 0.7970 0.7930 0.7890 0.7850
6.039889 0.7820 0.7790 0.7750 0.7720 0.7690
6.063000 0.7640 0.7600 0.7580 0.7570 0.7570
6.086889 0.7570 0.7570 0.7550 0.7540 0.7510
6.111000 0.7440 0.7350 0.7320 0.7290 0.7290
6.134889 0.7280 0.7280 0.7270 0.7270 0.7260
6.159000 0.7220 0.7160 0.7100 0.7020 0.6920
6.182889 0.6870 0.6810 0.6720 0.6720 0.6420
6.207000 0.6310 0.6170 0.6040 0.6010 0.5900
6.230889 0.5780 0.5660 0.5510 0.5310 0.5100
6.254000 0.4670 0.4520 0.4340 0.4210 0.4150
6.277889 0.4010 0.3810 0.3720 0.3640 0.3510
6.302000 0.3340 0.3020 0.2890 0.2720 0.2590
6.325889 0.2570 0.2550 0.2540 0.2530 0.2530
6.350000 0.2530 0.2520 0.2510 0.2510 0.2500
6.373889 0.2500 0.2480 0.2470 0.2440 0.2410
6.398000 0.2390 0.2300 0.2210 0.2110 0.2050
6.421889 0.2000 0.1930 0.1880 0.1810 0.1780
6.445000 0.1750 0.1730 0.1720 0.1710 0.1690
6.468889 0.1570 0.1470 0.1410 0.1310 0.1300
6.493000 0.1260 0.1250 0.1240 0.1230 0.1220
6.516889 0.1220 0.1200 0.1180 0.1170 0.1130
6.541000 0.1120 0.1080 0.1020 0.0990 0.0920
6.564889 0.0870 0.0840 0.0800 0.0740 0.0710
6.589000 0.0700 0.0710 0.0820 0.0930 0.1110
6.612889 0.1500 0.1800 0.2090 0.2650 0.3010
6.636000 0.3140 0.3320 0.3460 0.3600 0.4010
6.659889 0.4230 0.4530 0.4660 0.4820 0.4900
6.684000 0.4920 0.4970 0.5000 0.5020 0.5020
6.707889 0.5030 0.5020 0.4740 0.4610 0.4520
6.732000 0.4330 0.4170 0.4010 0.3720 0.3510
6.755889 0.2930 0.2610 0.2290 0.1920 0.1220
6.780000 0.0900 0.0760 0.0630 0.0620 0.0620
6.803889 0.0640 0.0660 0.0700 0.0760 0.0760
6.827000 0.0780 0.0780 0.0810 0.0810 0.0830
6.850889 0.0830 0.0840 0.0860 0.0860 0.0860
6.875000 0.0880 0.0880 0.0900 0.0940 0.1010
6.898889 0.1080 0.1130 0.1220 0.1370 0.1500
6.923000 0.1620 0.1680 0.1730 0.1830 0.2000
6.946889 0.2100 0.2260 0.2400 0.2600 0.2730
6.971000 0.2890 0.3010 0.3110 0.3260 0.3380
6.994889 0.3500 0.3640 0.3760 0.3850 0.3890
7.019000 0.3930 0.3950 0.3980 0.3890 0.3830
7.042889 0.3790 0.3740 0.3680 0.3500 0.3450
7.066000 0.3320 0.3330 0.3340 0.3420 0.3460
7.089889 0.3500 0.3520 0.3500 0.3490 0.3480
7.114000 0.3490 0.3500 0.3580 0.3870 0.4240
7.137889 0.4660 0.4840 0.5020 0.5230 0.5510
7.162000 0.5640 0.5890 0.6010 0.6020 0.6050
7.185889 0.6050 0.6040 0.5960 0.5880 0.5800
7.210000 0.5620 0.5510 0.5260 0.5070 0.4710
7.233889 0.4520 0.4300 0.4110 0.3850 0.3620
7.257000 0.3460 0.3400 0.3390 0.3420 0.3560
7.280889 0.3730 0.4070 0.4420 0.4770 0.4890
7.305000 0.5010 0.5100 0.5150 0.5190 0.5230
7.328889 0.5340 0.5440 0.5570 0.5750 0.5930
7.353000 0.6120 0.6240 0.6310 0.6370 0.6420
7.376889 0.6440 0.6450 0.6450 0.6450 0.6450
7.401000 0.6470 0.6470 0.6470 0.6480 0.6510
7.424889 0.6550 0.6570 0.6600 0.6620 0.6630
7.448000 0.6630 0.6630 0.6620 0.6620 0.6560
7.471889 0.6530 0.6500 0.6490 0.6490 0.6500
7.496000 0.6530 0.6600 0.6650 0.6680 0.6710
7.519889 0.6770 0.6830 0.6860 0.6900 0.6940
7.544000 0.6940 0.6900 0.6800 0.6710 0.6620
7.567889 0.6600 0.6590 0.6600 0.6660 0.6680
7.592000 0.6710 0.6750 0.6800 0.6860 0.6920
7.615889 0.6980 0.7040 0.7050 0.7080 0.7060
7.639000 0.7060 0.7030 0.7020 0.6960 0.6940
7.662889 0.6920 0.6880 0.6860 0.6810 0.6790
7.687000 0.6770 0.6730 0.6730 0.6720 0.6730
7.710889 0.6750 0.6770 0.6790 0.6800 0.6830
7.735000 0.6840 0.6850 0.6850 0.6840 0.6840
7.758889 0.6830 0.6840 0.6850 0.6930 0.6970
7.783000 0.7020 0.7060 0.7110 0.7110 0.7120
7.806889 0.7110 0.7100 0.7050 0.7000 0.6980
7.830000 0.6970 0.6940 0.6930 0.6940 0.6980
7.853889 0.7000 0.7120 0.7200 0.7240 0.7320
7.878000 0.7350 0.7380 0.7380 0.7390 0.7390
7.901889 0.7390 0.7390 0.7380 0.7380 0.7390
7.926000 0.7400 0.7410 0.7410 0.7410 0.7410
7.949889 0.7400 0.7380 0.7380 0.7360 0.7360
7.974000 0.7350 0.7350 0.7360 0.7400 0.7420
7.997889 0.7450 0.7510 0.7520 0.7520 0.7530
8.021000 0.7530 0.7540 0.7570 0.7570 0.7580
8.044889 0.7600 0.7610 0.7630 0.7640 0.7640
8.069000 0.7640 0.7630 0.7610 0.7580 0.7540
8.092889 0.7530 0.7520 0.7510 0.7500 0.7480
8.117000 0.7470 0.7460 0.7470 0.7480 0.7510
8.140889 0.7530 0.7540 0.7590 0.7630 0.7640
8.165000 0.7650 0.7660 0.7690 0.7710 0.7750
8.188889 0.7770 0.7780 0.7810 0.7810 0.7810
8.213000 0.7790 0.7790 0.7770 0.7730 0.7700
8.236889 0.7670 0.7640 0.7610 0.7600 0.7590
8.260000 0.7590 0.7590 0.7590 0.7580 0.7580
8.283889 0.7600 0.7630 0.7650 0.7670 0.7670
8.308000 0.7670 0.7690 0.7700 0.7730 0.7770
8.331889 0.7820 0.7830 0.7850 0.7870 0.7880
8.356000 0.7890 0.7910 0.7940 0.7940 0.7940
8.379889 0.7930 0.7930 0.7880 0.7840 0.7790
8.404000 0.7780 0.7750 0.7710 0.7710 0.7690
8.427889 0.7690 0.7700 0.7720 0.7780 0.7830
8.451000 0.7850 0.7880 0.7910 0.7950 0.7970
8.474889 0.8000 0.8000 0.8000 0.8010 0.8010
8.499000 0.8010 0.8010 0.8010 0.8000 0.8000
8.522889 0.8000 0.7990 0.7970 0.7950 0.7940
8.547000 0.7930 0.7930 0.7930 0.7940 0.7940
8.570889 0.7940 0.7960 0.7960 0.7970 0.7970
8.595000 0.7990 0.8000 0.8000 0.8000 0.8010
8.618889 0.8010 0.8010 0.8020 0.8030 0.8030
8.642000 0.8050 0.8050 0.8060 0.8060 0.8080
8.665889 0.8110 0.8110 0.8120 0.8130 0.8140
8.690000 0.8150 0.8150 0.8160 0.8160 0.8180
8.713889 0.8190 0.8200 0.8200 0.8200 0.8210
8.738000 0.8210 0.8210 0.8220 0.8220 0.8220
8.761889 0.8220 0.8220 0.8220 0.8220 0.8220
8.786000 0.8220 0.8220 0.8220 0.8220 0.8220
8.809889 0.8220 0.8220 0.8220 0.8240 0.8220
8.833000 0.8210 0.8210 0.8210 0.8220 0.8220
8.856889 0.8220 0.8240 0.8240 0.8240 0.8220
8.881000 0.8220 0.8210 0.8150 0.8120 0.8090
8.904889 0.8060 0.8030 0.8010 0.8010 0.7890
8.929000 0.7790 0.7670 0.7630 0.7530 0.7520
8.952889 0.7480 0.7450 0.7420 0.7410 0.7400
8.977000 0.7400 0.7410 0.7440 0.7450 0.7470
9.000889 0.7480 0.7500 0.7520 0.7530 0.7540
9.024000 0.7540 0.7570 0.7580 0.7600 0.7600
9.047889 0.7630 0.7650 0.7650 0.7650 0.7650
9.072000 0.7660 0.7670 0.7690 0.7690 0.7690
9.095889 0.7700 0.7720 0.7730 0.7790 0.7820
9.120000 0.7850 0.7870 0.7890 0.7910 0.7990
9.143889 0.8000 0.8020 0.8060 0.8120 0.8130
9.168000 0.8140 0.8140 0.8140 0.8130 0.8130
9.191889 0.8120 0.8120 0.8120 0.8120 0.8120
9.216000 0.8120 0.8130 0.8130 0.8130 0.8130
9.239889 0.8130 0.8130 0.8130 0.8130 0.8130
9.263000 0.8130 0.8130 0.8120 0.8120 0.8120
9.286889 0.8120 0.8110 0.8110 0.8090 0.8090
9.311000 0.8070 0.8060 0.8060 0.8060 0.8070
9.334889 0.8070 0.8070 0.8070 0.8050 0.8030
9.359000 0.8020 0.8020 0.8020 0.8010 0.8010
9.382889 0.8010 0.8010 0.8010 0.8010 0.8020
9.407000 0.8030 0.8030 0.8020 0.8020 0.8020
9.430889 0.8020 0.8020 0.8020 0.8050 0.8080
9.454000 0.8090 0.8110 0.8110 0.8110 0.8110
9.477889 0.8110 0.8110 0.8110 0.8110 0.8110
9.502000 0.8110 0.8110 0.8110 0.8120 0.8130
9.525889 0.8130 0.8130 0.8120 0.8120 0.8120
9.550000 0.8120 0.8120 0.8110 0.8110 0.8110
9.573889 0.8120 0.8120 0.8120 0.8120 0.8120
9.598000 0.8120 0.8110 0.8110 0.8110 0.8110
9.621889 0.8110 0.8120 0.8120 0.8130 0.8140
9.645000 0.8140 0.8150 0.8150 0.8150 0.8150
9.668889 0.8140 0.8140 0.8120 0.8110 0.8110
9.693000 0.8090 0.8090 0.8090 0.8110 0.8110
9.716889 0.8120 0.8120 0.8120 0.8120 0.8130
9.741000 0.8130 0.8140 0.8140 0.8140 0.8140
9.764889 0.8140 0.8140 0.8140 0.8140 0.8150
9.789000 0.8150 0.8150 0.8150 0.8140 0.8140
9.812889 0.8140 0.8130 0.8130 0.8130 0.8130
9.836000 0.8130 0.8140 0.8140 0.8140 0.8140
9.859889 0.8140 0.8140 0.8130 0.8130 0.8130
9.884000 0.8120 0.8120 0.8120 0.8110 0.8110
9.907889 0.8110 0.8110 0.8120 0.8130 0.8140
9.932000 0.8160 0.8180 0.8180 0.8190 0.8180
9.955889 0.8190 0.8190 0.8190 0.8200 0.8210
9.980000 0.8220 0.8240 0.8250 0.8250 0.8260
10.003889 0.8260 0.8280 0.8300 0.8300 0.8300
10.027000 0.8300 0.8300 0.8280 0.8280 0.8280
10.050889 0.8280 0.8280 0.8280 0.8280 0.8280
10.075000 0.8280 0.8280 0.8280 0.8280 0.8270
10.098889 0.8270 0.8270 0.8270 0.8270 0.8260
10.123000 0.8260 0.8260 0.8260 0.8260 0.8260
10.146889 0.8260 0.8260 0.8260 0.8260 0.8260
10.171000 0.8260 0.8250 0.8250 0.8240 0.8220
10.194889 0.8210 0.8210 0.8210 0.8200 0.8190
10.219000 0.8190 0.8190 0.8190 0.8180 0.8160
10.242889 0.8160 0.8160 0.8160 0.8150 0.8130
10.266000 0.8120 0.8120 0.8110 0.8110 0.8110
10.289889 0.8120 0.8120 0.8120 0.8120 0.8120
10.314000 0.8120 0.8120 0.8120 0.8120 0.8120
10.337889 0.8130 0.8130 0.8130 0.8140 0.8140
10.362000 0.8130 0.8120 0.8110 0.8090 0.8080
10.385889 0.8080 0.8090 0.8090 0.8110 0.8110
10.410000 0.8110 0.8120 0.8120 0.8130 0.8150
10.433889 0.8160 0.8180 0.8190 0.8190 0.8190
10.457000 0.8190 0.8190 0.8190 0.8160 0.8190
10.480889 0.8190 0.8200 0.8200 0.8200 0.8200
10.505000 0.8200 0.8190 0.8190 0.8180 0.8180
10.528889 0.8160 0.8160 0.8160 0.8160 0.8160
10.553000 0.8180 0.8190 0.8190 0.8190 0.8190
10.576889 0.8190 0.8180 0.8180 0.8180 0.8180
10.601000 0.8180 0.8180 0.8180 0.8160 0.8160
10.624889 0.8160 0.8130 0.8090 0.8080 0.8070
10.648000 0.8050 0.8020 0.8020 0.8010 0.8000
10.671889 0.7990 0.7950 0.7910 0.7890 0.7820
10.696000 0.7790 0.7760 0.7730 0.7720 0.7700
10.719889 0.7670 0.7630 0.7590 0.7580 0.7570
10.744000 0.7570 0.7580 0.7590 0.7610 0.7630
10.767889 0.7630 0.7630 0.7640 0.7650 0.7650
10.792000 0.7670 0.7710 0.7760 0.7810 0.7820
10.815889 0.7840 0.7870 0.7880 0.7890 0.7910
10.839000 0.7940 0.7970 0.7990 0.8000 0.8020
10.862889 0.8070 0.8090 0.8110 0.8110 0.8120
10.887000 0.8130 0.8140 0.8150 0.8150 0.8160
10.910889 0.8180 0.8180 0.8180 0.8180 0.8180
10.935000 0.8180 0.8190 0.8190 0.8190 0.8200
10.958889 0.8200 0.8200 0.8200 0.8200 0.8210
10.983000 0.8210 0.8210 0.8240 0.8250 0.8250
11.006889 0.8250 0.8250 0.8250 0.8260 0.8260
11.030000 0.8270 0.8260 0.8260 0.8260 0.8270
11.053889 0.8270 0.8270 0.8270 0.8270 0.8270
11.078000 0.8270 0.8280 0.8280 0.8280 0.8280
11.101889 0.8270 0.8270 0.8280 0.8280 0.8280
11.126000 0.8280 0.8270 0.8270 0.8260 0.8260
11.149889 0.8260 0.8270 0.8270 0.8270 0.8260
11.174000 0.8260 0.8250 0.8220 0.8220 0.8210
11.197889 0.8190 0.8180 0.8160 0.8160 0.8160
11.221000 0.8160 0.8140 0.8140 0.8140 0.8130
11.244889 0.8120 0.8110 0.8090 0.8090 0.8090
11.269000 0.8090 0.8090 0.8090 0.8090 0.8090
11.292889 0.8090 0.8110 0.8110 0.8120 0.8130
11.317000 0.8150 0.8180 0.8190 0.8190 0.8190
11.340889 0.8190 0.8190 0.8200 0.8210 0.8210
11.365000 0.8220 0.8220 0.8220 0.8220 0.8220
11.388889 0.8220 0.8220 0.8220 0.8210 0.8200
11.413000 0.8200 0.8200 0.8200 0.8200 0.8210
11.436889 0.8210 0.8210 0.8210 0.8210 0.8210
11.460000 0.8210 0.8210 0.8210 0.8210 0.8210
11.483889 0.8210 0.8210 0.8210 0.8220 0.8220
11.508000 0.8220 0.8220 0.8220 0.8220 0.8220
11.531889 0.8210 0.8210 0.8220 0.8220 0.8240
11.556000 0.8240 0.8240 0.8240 0.8240 0.8240
11.579889 0.8240 0.8240 0.8220 0.8220 0.8220
11.604000 0.8220 0.8220 0.8220 0.8220 0.8210
11.627889 0.8210 0.8200 0.8200 0.8200 0.8200
11.651000 0.8200 0.8200 0.8200 0.8200 0.8200
11.674889 0.8190 0.8190 0.8180 0.8180 0.8180
11.699000 0.8160 0.8150 0.8140 0.8140 0.8130
11.722889 0.8130 0.8130 0.8120 0.8110 0.8110
11.747000 0.8110 0.8110 0.8090 0.8090 0.8080
11.770889 0.8080 0.8070 0.8070 0.8070 0.8070
11.795000 0.8070 0.8070 0.8070 0.8070 0.8070
11.818889 0.8070 0.8070 0.8070 0.8070 0.8070
11.842000 0.8070 0.8070 0.8060 0.8060 0.8060
11.865889 0.8060 0.8070 0.8080 0.8080 0.8080
11.890000 0.8080 0.8080 0.8090 0.8090 0.8110
11.913889 0.8110 0.8120 0.8120 0.8130 0.8130
11.938000 0.8140 0.8150 0.8150 0.8150 0.8140
11.961889 0.8140 0.8140 0.8140 0.8150 0.8150
11.986000 0.8160 0.8160 0.8180 0.8180 0.8180
12.009889 0.8180 0.8180 0.8180 0.8160 0.8160
12.033000 0.8160 0.8160 0.8150 0.8150 0.8150
12.056889 0.8150 0.8150 0.8140 0.8140 0.8140
12.081000 0.8140 0.8140 0.8140 0.8140 0.8140
12.104889 0.8150 0.8150 0.8160 0.8160 0.8160
12.129000 0.8160 0.8160 0.8160 0.8160 0.8160
12.152889 0.8160 0.8180 0.8180 0.8180 0.8180
12.177000 0.8180 0.8180 0.8180 0.8160 0.8160
12.200889 0.8160 0.8160 0.8160 0.8150 0.8150
12.224000 0.8150 0.8150 0.8140 0.8140 0.8140
12.247889 0.8140 0.8130 0.8130 0.8130 0.8130
12.272000 0.8130 0.8130 0.8130 0.8130 0.8130
12.295889 0.8120 0.8110 0.8090 0.8080 0.8080
12.320000 0.8070 0.8060 0.8050 0.8030 0.8020
12.343889 0.8020 0.8020 0.8020 0.8010 0.8010
12.368000 0.8010 0.8010 0.8020 0.8020 0.8020
12.391889 0.8020 0.8030 0.8030 0.8030 0.8030
12.416000 0.8030 0.8030 0.8030 0.8030 0.8050
12.439889 0.8050 0.8060 0.8070 0.8080 0.8090
12.463000 0.8090 0.8090 0.8090 0.8090 0.8110
12.486889 0.8110 0.8120 0.8130 0.8130 0.8120
12.511000 0.8120 0.8120 0.8120 0.8130 0.8150
12.534889 0.8150 0.8130 0.8120 0.8120 0.8110
12.559000 0.8090 0.8090 0.8110 0.8110 0.8110
12.582889 0.8110 0.8090 0.8090 0.8090 0.8090
12.607000 0.8080 0.8080 0.8080 0.8080 0.8070
12.630889 0.8080 0.8060 0.8050 0.8050 0.8030
12.654000 0.8030 0.8050 0.8050 0.8050 0.8050
12.677889 0.8050 0.8030 0.8030 0.8000 0.7990
12.702000 0.7970 0.7970 0.7970 0.7970 0.7960
12.725889 0.7960 0.7960 0.7950 0.7900 0.7880
12.750000 0.7840 0.7820 0.7790 0.7780 0.7760
12.773889 0.7730 0.7700 0.7690 0.7650 0.7650
12.798000 0.7640 0.7640 0.7640 0.7640 0.7650
12.821889 0.7650 0.7650 0.7650 0.7660 0.7670
12.845000 0.7690 0.7700 0.7720 0.7760 0.7780
12.868889 0.7820 0.7850 0.7880 0.7910 0.7910
12.893000 0.7900 0.7870 0.7870 0.7880 0.7890
12.916889 0.7900 0.7930 0.7930 0.7940 0.7940
12.941000 0.7940 0.7940 0.7940 0.7940 0.7930
12.964889 0.7900 0.7900 0.7890 0.7890 0.7890
12.989000 0.7890 0.7890 0.7890 0.7890 0.7890
13.012889 0.7890 0.7890 0.7890 0.7890 0.7900
13.036000 0.7900 0.7900 0.7910 0.7900 0.7900
13.059889 0.7900 0.7900 0.7890 0.7890 0.7890
13.084000 0.7890 0.7890 0.7890 0.7890 0.7880
13.107889 0.7870 0.7830 0.7810 0.7810 0.7790
13.132000 0.7790 0.7790 0.7790 0.7790 0.7790
13.155889 0.7810 0.7820 0.7820 0.7820 0.7820
13.180000 0.7820 0.7820 0.7810 0.7810 0.7790
13.203889 0.7790 0.7790 0.7790 0.7790 0.7790
13.227000 0.7810 0.7810 0.7810 0.7810 0.7810
13.250889 0.7810 0.7810 0.7810 0.7810 0.7810
13.275000 0.7810 0.7810 0.7820 0.7820 0.7820
13.298889 0.7820 0.7830 0.7830 0.7840 0.7840
13.323000 0.7830 0.7820 0.7810 0.7790 0.7780
13.346889 0.7780 0.7780 0.7770 0.7770 0.7770
13.371000 0.7770 0.7770 0.7760 0.7750 0.7730
13.394889 0.7710 0.7690 0.7670 0.7660 0.7660
13.419000 0.7660 0.7660 0.7650 0.7640 0.7630
13.442889 0.7630 0.7600 0.7590 0.7590 0.7580
13.466000 0.7580 0.7570 0.7550 0.7540 0.7480
13.489889 0.7480 0.7470 0.7450 0.7440 0.7390
13.514000 0.7380 0.7360 0.7350 0.7320 0.7300
13.537889 0.7290 0.7280 0.7270 0.7240 0.7230
13.562000 0.7210 0.7180 0.7170 0.7180 0.7210
13.585889 0.7220 0.7240 0.7230 0.7220 0.7200
13.610000 0.7170 0.7160 0.7140 0.7120 0.7120
13.633889 0.7120 0.7110 0.7100 0.7090 0.7090
13.657000 0.7060 0.7050 0.6990 0.6980 0.6960
13.680889 0.6960 0.6910 0.6870 0.6790 0.6750
13.705000 0.6690 0.6670 0.6630 0.6610 0.6590
13.728889 0.6550 0.6480 0.6430 0.6380 0.6360
13.753000 0.6350 0.6320 0.6300 0.6270 0.6240
13.776889 0.6200 0.6170 0.6110 0.6060 0.6000
13.801000 0.5930 0.5890 0.5840 0.5800 0.5780
13.824889 0.5760 0.5740 0.5690 0.5660 0.5590
13.848000 0.5490 0.5470 0.5400 0.5370 0.5290
13.871889 0.5260 0.5220 0.5170 0.5140 0.5070
13.896000 0.4950 0.4890 0.4860 0.4830 0.4790
13.919889 0.4770 0.4730 0.4710 0.4710 0.4670
13.944000 0.4660 0.4670 0.4700 0.4730 0.4790
13.967889 0.4840 0.4950 0.5000 0.5040 0.5090
13.992000 0.5220 0.5350 0.5470 0.5620 0.5750
14.015889 0.5860 0.5960 0.6050 0.6140 0.6230
14.039000 0.6330 0.6380 0.6440 0.6480 0.6570
14.062889 0.6650 0.6670 0.6690 0.6770 0.6830
14.087000 0.6860 0.6870 0.6880 0.6910 0.6940
14.110889 0.6960 0.6990 0.7050 0.7060 0.7080
14.135000 0.7090 0.7120 0.7150 0.7150 0.7160
14.158889 0.7170 0.7180 0.7200 0.7200 0.7220
14.183000 0.7240 0.7260 0.7300 0.7320 0.7330
14.206889 0.7340 0.7340 0.7340 0.7340 0.7350
14.230000 0.7360 0.7380 0.7390 0.7400 0.7410
14.253889 0.7420 0.7420 0.7440 0.7440 0.7460
14.278000 0.7470 0.7480 0.7480 0.7500 0.7510
14.301889 0.7520 0.7520 0.7520 0.7520 0.7520
14.326000 0.7520 0.7530 0.7540 0.7550 0.7580
14.349889 0.7600 0.7640 0.7650 0.7650 0.7660
14.374000 0.7660 0.7660 0.7660 0.7660 0.7660
14.397889 0.7670 0.7670 0.7690 0.7700 0.7710
14.421000 0.7730 0.7730 0.7760 0.7770 0.7780
14.444889 0.7790 0.7790 0.7810 0.7810 0.7810
14.469000 0.7810 0.7820 0.7820 0.7810 0.7810
14.492889 0.7810 0.7820 0.7820 0.7820 0.7820
14.517000 0.7830 0.7840 0.7840 0.7830 0.7830
14.540889 0.7830 0.7840 0.7850 0.7850 0.7880
14.565000 0.7880 0.7890 0.7890 0.7900 0.7900
14.588889 0.7900 0.7910 0.7910 0.7930 0.7930
14.613000 0.7930 0.7930 0.7930 0.7930 0.7930
14.636889 0.7910 0.7910 0.7910 0.7910 0.7900
14.660000 0.7900 0.7900 0.7900 0.7900 0.7900
14.683889 0.7900 0.7900 0.7900 0.7900 0.7900
14.708000 0.7900 0.7900 0.7900 0.7900 0.7890
14.731889 0.7890 0.7890 0.7890 0.7880 0.7880
14.756000 0.7880 0.7880 0.7870 0.7870 0.7850
14.779889 0.7850 0.7840 0.7820 0.7820 0.7820
14.804000 0.7810 0.7810 0.7790 0.7790 0.7790
14.827889 0.7790 0.7790 0.7810 0.7810 0.7810
14.851000 0.7790 0.7790 0.7790 0.7790 0.7790
14.874889 0.7790 0.7790 0.7790 0.7790 0.7790
14.899000 0.7790 0.7780 0.7780 0.7770 0.7780
14.922889 0.7770 0.7770 0.7770 0.7760 0.7750
14.947000 0.7750 0.7730 0.7720 0.7720 0.7710
14.970889 0.7710 0.7700 0.7690 0.7670 0.7660
14.995000 0.7630 0.7600 0.7590 0.7570 0.7550
15.018889 0.7530 0.7520 0.7510 0.7510 0.7500
15.042000 0.7500 0.7510 0.7510 0.7520 0.7530
15.065889 0.7540 0.7550 0.7570 0.7570 0.7590
15.090000 0.7590 0.7600 0.7600 0.7600 0.7600
15.113889 0.7630 0.7640 0.7640 0.7640 0.7640
15.138000 0.7650 0.7660 0.7660 0.7670 0.7670
15.161889 0.7670 0.7670 0.7670 0.7670 0.7670
15.186000 0.7670 0.7670 0.7670 0.7660 0.7660
15.209889 0.7650 0.7650 0.7650 0.7640 0.7640
15.233000 0.7640 0.7640 0.7630 0.7610 0.7610
15.256889 0.7600 0.7600 0.7600 0.7600 0.7590
15.281000 0.7570 0.7550 0.7550 0.7540 0.7540
15.304889 0.7530 0.7530 0.7530 0.7530 0.7520
15.329000 0.7520 0.7520 0.7520 0.7520 0.7530
15.352889 0.7530 0.7530 0.7530 0.7530 0.7530
15.377000 0.7520 0.7530 0.7530 0.7530 0.7520
15.400889 0.7520 0.7520 0.7510 0.7510 0.7500
15.424000 0.7500 0.7480 0.7480 0.7470 0.7470
15.447889 0.7460 0.7460 0.7460 0.7460 0.7460
15.472000 0.7460 0.7460 0.7460 0.7460 0.7460
15.495889 0.7460 0.7450 0.7450 0.7440 0.7440
15.520000 0.7420 0.7420 0.7410 0.7400 0.7400
15.543889 0.7400 0.7400 0.7400 0.7400 0.7390
15.568000 0.7390 0.7390 0.7390 0.7390 0.7380
15.591889 0.7380 0.7380 0.7380 0.7380 0.7380
15.616000 0.7380 0.7360 0.7360 0.7360 0.7360
15.639889 0.7360 0.7360 0.7360 0.7360 0.7350
15.663000 0.7350 0.7340 0.7340 0.7330 0.7330
15.686889 0.7330 0.7320 0.7320 0.7300 0.7300
15.711000 0.7300 0.7280 0.7280 0.7270 0.7270
15.734889 0.7270 0.7260 0.7260 0.7260 0.7240
15.759000 0.7240 0.7240 0.7240 0.7230 0.7230
15.782889 0.7230 0.7220 0.7220 0.7220 0.7220
15.807000 0.7220 0.7220 0.7220 0.7220 0.7220
15.830889 0.7210 0.7210 0.7200 0.7200 0.7180
15.854000 0.7180 0.7170 0.7160 0.7150 0.7140
15.877889 0.7120 0.7120 0.7120 0.7110 0.7110
15.902000 0.7110 0.7100 0.7100 0.7090 0.7090
15.925889 0.7090 0.7090 0.7090 0.7090
##END=
