##TITLE=PYRIDINE, 4-[(S-TRIAZOL-3-YL-AMINO)METHYL]-
##JCAMP-DX=4.24
##DATA TYPE=INFRARED SPECTRUM
##CLASS=COBLENTZ III
##ORIGIN=DOW CHEMICAL COMPANY
##OWNER=COBLENTZ SOCIETY
Collection (C) 2018 copyright by the U.S. Secretary of Commerce
on behalf of the United States of America. All rights reserved.
##DATE=1964/12/30
##NAMES=N-(4-pyridinylmethyl)-N-(1H-1,2,4-triazol-3-yl)amine
N-(4-pyridinylmethyl)-1H-1,2,4-triazol-3-amine
##MOLFORM=C8 H9 N5
##MP=189 C
##SOURCE REFERENCE=COBLENTZ NO. 9187
##$NIST ID=B6009187
##$NIST SOURCE=COBLENTZ
##$NIST IMAGE=cob9187
##SPECTROMETER/DATA SYSTEM=BECKMAN IR-9 (GRATING)
##INSTRUMENT PARAMETERS=ORDER CHANGES: 670, 1200, 2000 CM^-^1
##STATE=SOLID (SPLIT MULL), FLUOROLUBE FOR 3800-1330 CM^-^1, NUJOL FOR 1330-400 CM^-^1
##SAMPLING PROCEDURE=TRANSMISSION
##RESOLUTION=2
##DATA PROCESSING=DIGITIZED BY NIST FROM HARD COPY (FROM TWO SEGMENTS)
##XUNITS=1/CM
##YUNITS=TRANSMITTANCE
##XFACTOR=1.000000
##YFACTOR=1
##DELTAX=0.879767
##FIRSTX=403.226
##LASTX=3800
##FIRSTY=0.675
##MAXX=3800
##MINX=403.226
##MAXY=1.026
##MINY=0.061
##NPOINTS=3862
##XYDATA=(X++(Y..Y))
403.226000 0.6750 0.6720 0.6710 0.6680 0.6670
407.624833 0.6640 0.6620 0.6620 0.6610 0.6610
412.023665 0.6600 0.6600 0.6600 0.6600 0.6600
416.422498 0.6610 0.6620 0.6640 0.6650 0.6650
420.821331 0.6670 0.6690 0.6720 0.6750 0.6780
425.220163 0.6820 0.6860 0.6900 0.6940 0.7010
429.618996 0.7020 0.7130 0.7200 0.7240 0.7260
434.017829 0.7270 0.7340 0.7370 0.7410 0.7440
438.416661 0.7460 0.7510 0.7570 0.7600 0.7620
442.815494 0.7620 0.7630 0.7640 0.7680 0.7700
447.214326 0.7710 0.7710 0.7710 0.7710 0.7710
451.613159 0.7700 0.7660 0.7640 0.7620 0.7530
456.011992 0.7520 0.7520 0.7530 0.7570 0.7630
460.410824 0.7810 0.7920 0.8000 0.8040 0.8110
464.809657 0.8180 0.8280 0.8320 0.8330 0.8330
469.208490 0.8340 0.8360 0.8360 0.8360 0.8360
473.607322 0.8360 0.8360 0.8370 0.8390 0.8400
478.006155 0.8400 0.8410 0.8440 0.8450 0.8470
482.404988 0.8480 0.8510 0.8520 0.8540 0.8540
486.803820 0.8540 0.8540 0.8540 0.8540 0.8540
491.202653 0.8540 0.8540 0.8540 0.8540 0.8540
495.601486 0.8540 0.8540 0.8540 0.8540 0.8540
500.000318 0.8540 0.8520 0.8510 0.8510 0.8500
504.399151 0.8480 0.8440 0.8400 0.8390 0.8390
508.797984 0.8390 0.8370 0.8370 0.8360 0.8360
513.196816 0.8340 0.8330 0.8330 0.8300 0.8300
517.595649 0.8290 0.8260 0.8210 0.8170 0.8120
521.994482 0.8070 0.8030 0.7990 0.7930 0.7860
526.393314 0.7790 0.7730 0.7260 0.6970 0.6681
530.792147 0.6401 0.6121 0.5831 0.5551 0.5440
535.190979 0.5320 0.5070 0.4840 0.4600 0.4361
539.589812 0.4330 0.4340 0.4450 0.4560 0.4640
543.988645 0.4971 0.5690 0.6050 0.6290 0.6490
548.387477 0.6650 0.6859 0.7119 0.7289 0.7409
552.786310 0.7520 0.7600 0.7680 0.7740 0.7780
557.185143 0.7820 0.7880 0.7920 0.7970 0.8030
561.583975 0.8040 0.8040 0.8040 0.8040 0.7791
565.982808 0.7341 0.7091 0.6582 0.6341 0.6320
570.381641 0.6320 0.6340 0.6620 0.7000 0.7439
574.780473 0.7560 0.7660 0.7770 0.7770 0.7790
579.179306 0.7810 0.7820 0.7840 0.7850 0.7880
583.578139 0.7880 0.7880 0.7880 0.7880 0.7880
587.976971 0.7880 0.7880 0.7880 0.7880 0.7880
592.375804 0.7860 0.7860 0.7860 0.7850 0.7850
596.774637 0.7850 0.7840 0.7840 0.7820 0.7810
601.173469 0.7790 0.7770 0.7750 0.7750 0.7710
605.572302 0.7680 0.7630 0.7600 0.7570 0.7520
609.971135 0.7460 0.7400 0.7350 0.7270 0.7260
614.369967 0.7290 0.7340 0.7420 0.7550 0.7740
618.768800 0.7820 0.7930 0.8229 0.8389 0.8400
623.167632 0.8400 0.8400 0.8400 0.8400 0.8400
627.566465 0.8400 0.8390 0.8390 0.8370 0.8370
631.965298 0.8370 0.8360 0.8360 0.8340 0.8330
636.364130 0.8330 0.8330 0.8330 0.8330 0.8330
640.762963 0.8330 0.8330 0.8320 0.8320 0.8320
645.161796 0.8320 0.8320 0.8320 0.8300 0.8320
649.560628 0.8320 0.8320 0.8320 0.8320 0.8320
653.959461 0.8330 0.8330 0.8330 0.8340 0.8340
658.358294 0.8360 0.8360 0.8360 0.8370 0.8370
662.757126 0.8370 0.8390 0.8390 0.8390 0.8390
667.155959 0.8400 0.8410 0.8410 0.8410 0.8410
671.554792 0.8410 0.8410 0.8430 0.8430 0.8430
675.953624 0.8430 0.8400 0.8400 0.8400 0.8400
680.352457 0.8400 0.8410 0.8410 0.8430 0.8430
684.751290 0.8440 0.8440 0.8450 0.8450 0.8470
689.150122 0.8470 0.8480 0.8480 0.8500 0.8500
693.548955 0.8500 0.8500 0.8500 0.8500 0.8500
697.947788 0.8500 0.8500 0.8500 0.8480 0.8480
702.346620 0.8480 0.8470 0.8450 0.8450 0.8450
706.745453 0.8450 0.8430 0.8430 0.8410 0.8400
711.144285 0.8370 0.8360 0.8330 0.8300 0.8280
715.543118 0.8260 0.8220 0.8190 0.8170 0.8120
719.941951 0.8030 0.7950 0.7930 0.7920 0.7920
724.340783 0.7930 0.7930 0.8030 0.8110 0.8140
728.739616 0.8150 0.8190 0.8250 0.8290 0.8370
733.138449 0.8370 0.8370 0.8370 0.8370 0.8370
737.537281 0.8340 0.8290 0.8210 0.8040 0.8010
741.936114 0.8010 0.8030 0.8030 0.8040 0.8060
746.334947 0.8070 0.8070 0.8080 0.8080 0.8030
750.733779 0.7731 0.7461 0.6782 0.5634 0.5172
755.132612 0.4700 0.4670 0.4690 0.4800 0.5739
759.531445 0.6469 0.6959 0.7129 0.7409 0.7559
763.930277 0.7630 0.7750 0.7790 0.7810 0.7860
768.329110 0.7880 0.7920 0.7960 0.7970 0.7970
772.727943 0.7970 0.7970 0.7970 0.7960 0.7950
777.126775 0.7930 0.7920 0.7920 0.7900 0.7900
781.525608 0.7920 0.7850 0.7850 0.7930 0.8100
785.924441 0.8190 0.8360 0.8450 0.8450 0.8589
790.323273 0.8630 0.8650 0.8660 0.8630 0.8630
794.722106 0.8630 0.8620 0.8620 0.8580 0.8441
799.120938 0.8170 0.7730 0.7290 0.6850 0.6401
803.519771 0.5951 0.5691 0.5411 0.4334 0.4300
807.918604 0.4300 0.4480 0.6179 0.6680 0.7019
812.317436 0.7190 0.7350 0.7490 0.7620 0.7710
816.716269 0.7810 0.7860 0.7890 0.7900 0.7920
821.115102 0.7950 0.7950 0.7950 0.7950 0.7950
825.513934 0.7950 0.7950 0.7930 0.7930 0.7930
829.912767 0.7920 0.7900 0.7890 0.7860 0.7850
834.311600 0.7810 0.7770 0.7710 0.7660 0.7600
838.710432 0.7560 0.7510 0.7440 0.7380 0.7340
843.109265 0.7290 0.7230 0.7180 0.7130 0.7110
847.508098 0.7050 0.6980 0.6930 0.6870 0.6820
851.906930 0.6750 0.6720 0.6710 0.6650 0.6620
856.305763 0.6580 0.6560 0.6540 0.6530 0.6510
860.704596 0.6510 0.6510 0.6510 0.6510 0.6530
865.103428 0.6540 0.6540 0.6540 0.6580 0.6610
869.502261 0.6690 0.6750 0.6860 0.6930 0.6930
873.901094 0.6710 0.6670 0.6670 0.6690 0.6800
878.299926 0.6890 0.7080 0.7240 0.7350 0.7450
882.698759 0.7520 0.7590 0.7640 0.7710 0.7790
887.097591 0.7860 0.7950 0.8000 0.8170 0.8300
891.496424 0.8440 0.8540 0.8620 0.8650 0.8700
895.895257 0.8730 0.8740 0.8740 0.8740 0.8740
900.294089 0.8740 0.8740 0.8740 0.8760 0.8760
904.692922 0.8760 0.8760 0.8770 0.8780 0.8800
909.091755 0.8810 0.8830 0.8840 0.8850 0.8880
913.490587 0.8880 0.8890 0.8910 0.8920 0.8920
917.889420 0.8940 0.8950 0.8960 0.8960 0.8980
922.288253 0.8990 0.9000 0.9020 0.9020 0.9030
926.687085 0.9050 0.9050 0.9050 0.9050 0.9050
931.085918 0.9050 0.9050 0.9050 0.9060 0.9060
935.484751 0.9070 0.9070 0.9090 0.9090 0.9100
939.883583 0.9100 0.9100 0.9100 0.9100 0.9100
944.282416 0.9100 0.9100 0.9100 0.9100 0.9100
948.681249 0.9100 0.9090 0.9070 0.9060 0.9030
953.080081 0.9000 0.8950 0.8940 0.8920 0.8910
957.478914 0.8800 0.8730 0.8660 0.8560 0.8410
961.877747 0.8290 0.8190 0.8170 0.8170 0.8180
966.276579 0.8180 0.8150 0.7950 0.7640 0.7291
970.675412 0.6981 0.6761 0.6620 0.6620 0.6680
975.074244 0.6830 0.6860 0.6860 0.6790 0.6061
979.473077 0.5681 0.5291 0.3824 0.3790 0.3820
983.871910 0.3850 0.3960 0.4660 0.5769 0.6200
988.270742 0.6470 0.6690 0.6909 0.7159 0.7180
992.669575 0.7160 0.6910 0.6860 0.6850 0.6870
997.068408 0.7189 0.7559 0.7749 0.7969 0.8139
1001.467240 0.8300 0.8390 0.8450 0.8480 0.8520
1005.866073 0.8560 0.8610 0.8650 0.8670 0.8700
1010.264906 0.8720 0.8740 0.8760 0.8760 0.8760
1014.663738 0.8760 0.8760 0.8740 0.8760 0.8780
1019.062571 0.8830 0.8870 0.8870 0.8890 0.8920
1023.461404 0.8940 0.8940 0.8940 0.8950 0.8950
1027.860236 0.8950 0.8940 0.8940 0.8940 0.8940
1032.259069 0.8940 0.8940 0.8940 0.8940 0.8940
1036.657902 0.8940 0.8940 0.8940 0.8940 0.8940
1041.056734 0.8940 0.8940 0.8940 0.8940 0.8940
1045.455567 0.8940 0.8940 0.8920 0.8920 0.8920
1049.854400 0.8910 0.8890 0.8870 0.8850 0.8840
1054.253232 0.8830 0.8800 0.8760 0.8730 0.8690
1058.652065 0.8630 0.8540 0.8440 0.8330 0.8141
1063.050897 0.7959 0.7080 0.6680 0.6250 0.5870
1067.449730 0.5471 0.5410 0.5390 0.5609 0.6357
1071.848563 0.6830 0.7200 0.7530 0.7780 0.8000
1076.247395 0.8170 0.8320 0.8430 0.8520 0.8560
1080.646228 0.8650 0.8730 0.8760 0.8770 0.8780
1085.045061 0.8800 0.8830 0.8830 0.8840 0.8850
1089.443893 0.8870 0.8890 0.8910 0.8920 0.8940
1093.842726 0.8960 0.8980 0.8980 0.8980 0.8980
1098.241559 0.8980 0.8960 0.8940 0.8890 0.8840
1102.640391 0.8690 0.8540 0.8480 0.8320 0.7991
1107.039224 0.7619 0.7220 0.7200 0.7220 0.7310
1111.438057 0.7450 0.7839 0.7990 0.8169 0.8300
1115.836889 0.8370 0.8450 0.8510 0.8550 0.8560
1120.235722 0.8620 0.8660 0.8690 0.8720 0.8720
1124.634555 0.8730 0.8740 0.8740 0.8760 0.8800
1129.033387 0.8810 0.8810 0.8810 0.8830 0.8840
1133.432220 0.8840 0.8840 0.8850 0.8850 0.8850
1137.831053 0.8870 0.8870 0.8870 0.8870 0.8870
1142.229885 0.8870 0.8870 0.8870 0.8870 0.8870
1146.628718 0.8870 0.8870 0.8870 0.8870 0.8850
1151.027550 0.8830 0.8800 0.8770 0.8740 0.8730
1155.426383 0.8730 0.8720 0.8720 0.8700 0.8700
1159.825216 0.8690 0.8690 0.8670 0.8660 0.8660
1164.224048 0.8650 0.8620 0.8610 0.8590 0.8580
1168.622881 0.8550 0.8520 0.8500 0.8470 0.8410
1173.021714 0.8360 0.8330 0.8320 0.8280 0.8230
1177.420546 0.8170 0.8110 0.8060 0.7970 0.7880
1181.819379 0.7750 0.7640 0.7570 0.7420 0.7340
1186.218212 0.7240 0.7160 0.7080 0.7000 0.6900
1190.617044 0.6780 0.6710 0.6680 0.6690 0.6740
1195.015877 0.6760 0.6800 0.6860 0.6940 0.7070
1199.414710 0.7130 0.7190 0.7220 0.7230 0.7230
1203.813542 0.7230 0.7260 0.7300 0.7400 0.7520
1208.212375 0.7550 0.7590 0.7560 0.7450 0.7370
1212.611208 0.7200 0.7080 0.7070 0.7020 0.6960
1217.010040 0.6740 0.6361 0.5951 0.5521 0.5331
1221.408873 0.5140 0.4670 0.4340 0.3870 0.2352
1225.807706 0.2320 0.2320 0.2330 0.2390 0.2689
1230.206538 0.2990 0.3270 0.3530 0.3720 0.3870
1234.605371 0.3930 0.4080 0.4310 0.4509 0.4669
1239.004203 0.4820 0.4860 0.4950 0.5070 0.5190
1243.403036 0.5290 0.5320 0.5619 0.5829 0.6019
1247.801869 0.6200 0.6320 0.6580 0.6800 0.7010
1252.200701 0.7180 0.7310 0.7440 0.7560 0.7670
1256.599534 0.7770 0.7860 0.7960 0.8030 0.8110
1260.998367 0.8140 0.8180 0.8180 0.8190 0.8220
1265.397199 0.8220 0.8220 0.8220 0.8170 0.8140
1269.796032 0.8100 0.8060 0.8010 0.7990 0.7851
1274.194865 0.7630 0.7150 0.6690 0.6230 0.5631
1278.593697 0.5171 0.4691 0.3793 0.3421 0.3430
1282.992530 0.3450 0.3640 0.3760 0.4010 0.4560
1287.391363 0.5499 0.5869 0.6179 0.6499 0.6799
1291.790195 0.7050 0.7330 0.7410 0.7570 0.7740
1296.189028 0.7780 0.7900 0.7960 0.7990 0.8060
1300.587861 0.8120 0.8170 0.8180 0.8190 0.8210
1304.986693 0.8220 0.8230 0.8280 0.8300 0.8340
1309.385526 0.8370 0.8390 0.8400 0.8400 0.8410
1313.784359 0.8410 0.8410 0.8430 0.8430 0.8430
1318.183191 0.8440 0.8450 0.8470 0.8470 0.8450
1322.582024 0.8450 0.8450 0.8450 0.8440 0.8430
1326.980856 0.8370 0.8330 0.8120 0.7850 0.7820
1331.379689 0.7840 0.7920 0.7950 0.7960 0.7960
1335.778522 0.7960 0.7960 0.7960 0.7950 0.7930
1340.177354 0.7920 0.7880 0.7820 0.7780 0.7740
1344.576187 0.7710 0.7680 0.7670 0.7670 0.7670
1348.975020 0.7680 0.7740 0.7780 0.7820 0.7900
1353.373852 0.7950 0.7950 0.7960 0.7960 0.7960
1357.772685 0.7950 0.7810 0.7660 0.7480 0.7301
1362.171518 0.7220 0.7220 0.7230 0.7730 0.7930
1366.570350 0.8000 0.8110 0.8150 0.8180 0.8190
1370.969183 0.8220 0.8230 0.8250 0.8250 0.8250
1375.368016 0.8230 0.8230 0.8220 0.8220 0.8210
1379.766848 0.8210 0.8220 0.8230 0.8220 0.8230
1384.165681 0.8230 0.8250 0.8260 0.8260 0.8300
1388.564514 0.8300 0.8330 0.8340 0.8340 0.8360
1392.963346 0.8360 0.8360 0.8370 0.8360 0.8340
1397.362179 0.8330 0.8320 0.8260 0.8150 0.8070
1401.761012 0.7860 0.7601 0.7371 0.7230 0.6911
1406.159844 0.6419 0.5809 0.5210 0.4930 0.4590
1410.558677 0.4220 0.4190 0.4200 0.4340 0.4510
1414.957509 0.4921 0.5500 0.5760 0.6020 0.6240
1419.356342 0.6380 0.6799 0.7119 0.7349 0.7629
1423.755175 0.7710 0.7790 0.7950 0.8140 0.8250
1428.154007 0.8330 0.8360 0.8390 0.8440 0.8480
1432.552840 0.8480 0.8500 0.8500 0.8500 0.8500
1436.951673 0.8500 0.8500 0.8480 0.8450 0.8430
1441.350505 0.8410 0.8400 0.8370 0.8340 0.8340
1445.749338 0.8320 0.8260 0.8250 0.8220 0.8220
1450.148171 0.8170 0.8110 0.8040 0.8010 0.7970
1454.547003 0.7950 0.7920 0.7850 0.7810 0.7790
1458.945836 0.7780 0.7750 0.7570 0.7340 0.7180
1463.344669 0.7020 0.6940 0.6760 0.6560 0.6341
1467.743501 0.6019 0.5720 0.5590 0.5470 0.5250
1472.142334 0.5080 0.4950 0.4770 0.4740 0.4770
1476.541167 0.5760 0.5770 0.5770 0.5790 0.5800
1480.939999 0.5790 0.5610 0.5570 0.5430 0.5281
1485.338832 0.5190 0.5080 0.4960 0.4810 0.4780
1489.737665 0.4780 0.4780 0.4780 0.4800 0.4780
1494.136497 0.4840 0.4890 0.5000 0.5100 0.5190
1498.535330 0.5300 0.5580 0.5730 0.5900 0.6059
1502.934162 0.6210 0.6280 0.6340 0.6390 0.6450
1507.332995 0.6460 0.6490 0.6500 0.6540 0.6580
1511.731828 0.6580 0.6620 0.6650 0.6680 0.6720
1516.130660 0.6750 0.6830 0.6830 0.6830 0.6820
1520.529493 0.6800 0.6790 0.6760 0.6750 0.6740
1524.928326 0.6710 0.6680 0.6640 0.6540 0.6490
1529.327158 0.6450 0.6290 0.6180 0.6120 0.6060
1533.725991 0.6030 0.6010 0.5850 0.5681 0.5501
1538.124824 0.5470 0.5440 0.5430 0.5350 0.5110
1542.523656 0.4600 0.3721 0.2862 0.2531 0.2211
1546.922489 0.1889 0.1290 0.1120 0.0960 0.0640
1551.321322 0.0610 0.0610 0.0610 0.0630 0.0680
1555.720154 0.1210 0.1450 0.1650 0.1800 0.1870
1560.118987 0.1950 0.1990 0.1990 0.1990 0.1990
1564.517820 0.1990 0.1990 0.1910 0.1850 0.1690
1568.916652 0.1540 0.1400 0.1230 0.1040 0.0940
1573.315485 0.0830 0.0810 0.0810 0.0810 0.0810
1577.714318 0.0810 0.0820 0.1379 0.2168 0.2728
1582.113150 0.3121 0.3390 0.3630 0.3850 0.4120
1586.511983 0.4490 0.4810 0.4850 0.5030 0.5220
1590.910815 0.5350 0.5510 0.5610 0.5730 0.5730
1595.309648 0.5730 0.5720 0.5550 0.5211 0.4861
1599.708481 0.4688 0.3459 0.2750 0.2720 0.2750
1604.107313 0.2910 0.3160 0.3489 0.4408 0.5536
1608.506146 0.5811 0.6060 0.6280 0.6500 0.6740
1612.904979 0.6960 0.7020 0.7220 0.7300 0.7400
1617.303811 0.7420 0.7460 0.7560 0.7590 0.7730
1621.702644 0.7820 0.7900 0.7950 0.7960 0.7960
1626.101477 0.7970 0.7990 0.8010 0.8030 0.8060
1630.500309 0.8080 0.8080 0.8100 0.8100 0.8100
1634.899142 0.8100 0.8100 0.8100 0.8080 0.8080
1639.297975 0.8080 0.8070 0.8060 0.8060 0.8040
1643.696807 0.8040 0.8030 0.8030 0.8010 0.8010
1648.095640 0.8000 0.8000 0.7970 0.7970 0.7960
1652.494473 0.7950 0.7930 0.7900 0.7890 0.7880
1656.893305 0.7850 0.7840 0.7810 0.7780 0.7780
1661.292138 0.7770 0.7750 0.7750 0.7750 0.7740
1665.690971 0.7730 0.7730 0.7730 0.7730 0.7730
1670.089803 0.7730 0.7730 0.7730 0.7740 0.7740
1674.488636 0.7750 0.7770 0.7780 0.7790 0.7810
1678.887468 0.7820 0.7820 0.7850 0.7880 0.7900
1683.286301 0.7920 0.7950 0.7960 0.7990 0.8010
1687.685134 0.8060 0.8120 0.8170 0.8230 0.8320
1692.083966 0.8400 0.8480 0.8550 0.8610 0.8700
1696.482799 0.8720 0.8730 0.8760 0.8830 0.8890
1700.881632 0.8960 0.9030 0.9060 0.9110 0.9200
1705.280464 0.9270 0.9320 0.9350 0.9380 0.9440
1709.679297 0.9490 0.9530 0.9580 0.9610 0.9640
1714.078130 0.9650 0.9680 0.9720 0.9730 0.9770
1718.476962 0.9790 0.9790 0.9800 0.9820 0.9830
1722.875795 0.9840 0.9840 0.9860 0.9870 0.9880
1727.274628 0.9900 0.9910 0.9940 0.9970 1.0010
1731.673460 1.0010 1.0020 1.0020 1.0020 1.0040
1736.072293 1.0040 1.0040 1.0040 1.0050 1.0050
1740.471126 1.0060 1.0060 1.0080 1.0080 1.0090
1744.869958 1.0090 1.0090 1.0090 1.0090 1.0090
1749.268791 1.0090 1.0090 1.0090 1.0090 1.0090
1753.667624 1.0090 1.0090 1.0090 1.0090 1.0090
1758.066456 1.0090 1.0090 1.0090 1.0090 1.0090
1762.465289 1.0090 1.0090 1.0090 1.0090 1.0090
1766.864121 1.0080 1.0080 1.0080 1.0060 1.0060
1771.262954 1.0050 1.0020 1.0000 1.0000 0.9980
1775.661787 0.9950 0.9940 0.9910 0.9910 0.9910
1780.060619 0.9910 0.9910 0.9930 0.9970 1.0010
1784.459452 1.0010 1.0040 1.0050 1.0080 1.0090
1788.858285 1.0110 1.0120 1.0130 1.0150 1.0160
1793.257117 1.0160 1.0170 1.0170 1.0190 1.0190
1797.655950 1.0190 1.0200 1.0200 1.0200 1.0220
1802.054783 1.0220 1.0220 1.0230 1.0230 1.0230
1806.453615 1.0230 1.0230 1.0230 1.0230 1.0230
1810.852448 1.0230 1.0230 1.0230 1.0230 1.0230
1815.251281 1.0230 1.0230 1.0230 1.0230 1.0230
1819.650113 1.0230 1.0230 1.0230 1.0230 1.0230
1824.048946 1.0230 1.0230 1.0230 1.0230 1.0230
1828.447779 1.0230 1.0230 1.0230 1.0230 1.0230
1832.846611 1.0230 1.0230 1.0220 1.0230 1.0230
1837.245444 1.0230 1.0230 1.0230 1.0230 1.0230
1841.644277 1.0230 1.0230 1.0230 1.0230 1.0230
1846.043109 1.0230 1.0230 1.0230 1.0230 1.0230
1850.441942 1.0230 1.0230 1.0230 1.0230 1.0230
1854.840774 1.0230 1.0230 1.0230 1.0230 1.0230
1859.239607 1.0230 1.0230 1.0230 1.0230 1.0230
1863.638440 1.0230 1.0230 1.0230 1.0230 1.0230
1868.037272 1.0230 1.0230 1.0240 1.0240 1.0240
1872.436105 1.0240 1.0240 1.0240 1.0240 1.0240
1876.834938 1.0240 1.0240 1.0240 1.0240 1.0240
1881.233770 1.0240 1.0240 1.0240 1.0240 1.0240
1885.632603 1.0260 1.0260 1.0260 1.0260 1.0260
1890.031436 1.0260 1.0260 1.0260 1.0260 1.0260
1894.430268 1.0260 1.0260 1.0260 1.0260 1.0260
1898.829101 1.0260 1.0260 1.0260 1.0260 1.0260
1903.227934 1.0260 1.0260 1.0260 1.0260 1.0260
1907.626766 1.0260 1.0260 1.0260 1.0260 1.0260
1912.025599 1.0260 1.0260 1.0260 1.0260 1.0260
1916.424432 1.0260 1.0240 1.0240 1.0240 1.0240
1920.823264 1.0240 1.0240 1.0240 1.0240 1.0240
1925.222097 1.0240 1.0240 1.0230 1.0230 1.0230
1929.620930 1.0230 1.0230 1.0220 1.0220 1.0220
1934.019762 1.0220 1.0220 1.0170 1.0150 1.0130
1938.418595 1.0130 1.0120 1.0110 1.0040 1.0010
1942.817427 0.9970 0.9940 0.9900 0.9870 0.9840
1947.216260 0.9830 0.9830 0.9830 0.9840 0.9860
1951.615093 0.9900 0.9930 1.0000 1.0020 1.0050
1956.013925 1.0090 1.0110 1.0120 1.0130 1.0130
1960.412758 1.0150 1.0150 1.0160 1.0160 1.0160
1964.811591 1.0160 1.0160 1.0160 1.0160 1.0160
1969.210423 1.0170 1.0160 1.0160 1.0160 1.0160
1973.609256 1.0160 1.0160 1.0160 1.0160 1.0160
1978.008089 1.0160 1.0160 1.0160 1.0160 1.0160
1982.406921 1.0160 1.0160 1.0160 1.0160 1.0160
1986.805754 1.0160 1.0160 1.0160 1.0160 1.0160
1991.204587 1.0150 1.0150 1.0150 1.0150 1.0130
1995.603419 1.0130 1.0130 1.0120 1.0120 1.0120
2000.002252 1.0120 1.0115 1.0110 1.0110 1.0110
2004.401085 1.0110 1.0110 1.0100 1.0090 1.0090
2008.799917 1.0090 1.0090 1.0090 1.0085 1.0080
2013.198750 1.0080 1.0080 1.0070 1.0060 1.0060
2017.597583 1.0060 1.0060 1.0060 1.0055 1.0050
2021.996415 1.0050 1.0050 1.0050 1.0050 1.0045
2026.395248 1.0040 1.0040 1.0039 1.0029 1.0020
2030.794080 1.0020 1.0020 1.0020 1.0020 1.0015
2035.192913 1.0010 1.0010 1.0009 1.0004 1.0000
2039.591746 1.0000 1.0000 1.0000 1.0000 1.0000
2043.990578 0.9999 0.9989 0.9980 0.9980 0.9980
2048.389411 0.9980 0.9979 0.9974 0.9970 0.9970
2052.788244 0.9968 0.9958 0.9950 0.9950 0.9950
2057.187076 0.9950 0.9949 0.9944 0.9939 0.9934
2061.585909 0.9930 0.9930 0.9928 0.9918 0.9910
2065.984742 0.9910 0.9909 0.9904 0.9900 0.9900
2070.383574 0.9898 0.9888 0.9880 0.9880 0.9879
2074.782407 0.9874 0.9869 0.9864 0.9860 0.9860
2079.181240 0.9857 0.9847 0.9840 0.9840 0.9839
2083.580072 0.9834 0.9830 0.9830 0.9829 0.9824
2087.978905 0.9820 0.9820 0.9815 0.9800 0.9790
2092.377738 0.9790 0.9790 0.9790 0.9790 0.9790
2096.776570 0.9787 0.9777 0.9770 0.9770 0.9770
2101.175403 0.9770 0.9770 0.9770 0.9768 0.9763
2105.574236 0.9760 0.9760 0.9760 0.9760 0.9760
2109.973068 0.9760 0.9758 0.9753 0.9750 0.9750
2114.371901 0.9746 0.9736 0.9730 0.9730 0.9728
2118.770733 0.9723 0.9718 0.9713 0.9706 0.9696
2123.169566 0.9690 0.9690 0.9688 0.9683 0.9676
2127.568399 0.9666 0.9658 0.9653 0.9650 0.9650
2131.967231 0.9648 0.9643 0.9636 0.9626 0.9620
2136.366064 0.9620 0.9620 0.9620 0.9620 0.9620
2140.764897 0.9618 0.9613 0.9610 0.9610 0.9610
2145.163729 0.9610 0.9608 0.9603 0.9600 0.9600
2149.562562 0.9600 0.9600 0.9595 0.9585 0.9580
2153.961395 0.9580 0.9580 0.9580 0.9577 0.9572
2158.360227 0.9570 0.9570 0.9570 0.9570 0.9565
2162.759060 0.9555 0.9550 0.9550 0.9550 0.9550
2167.157893 0.9545 0.9534 0.9524 0.9514 0.9510
2171.556725 0.9510 0.9507 0.9502 0.9497 0.9492
2175.955558 0.9490 0.9490 0.9484 0.9474 0.9467
2180.354391 0.9462 0.9460 0.9460 0.9454 0.9444
2184.753223 0.9437 0.9432 0.9430 0.9430 0.9427
2189.152056 0.9422 0.9420 0.9420 0.9414 0.9404
2193.550889 0.9397 0.9392 0.9390 0.9390 0.9387
2197.949721 0.9382 0.9373 0.9363 0.9360 0.9360
2202.348554 0.9357 0.9352 0.9343 0.9333 0.9330
2206.747386 0.9330 0.9323 0.9313 0.9310 0.9310
2211.146219 0.9303 0.9293 0.9290 0.9290 0.9286
2215.545052 0.9281 0.9280 0.9280 0.9276 0.9271
2219.943884 0.9270 0.9270 0.9263 0.9253 0.9246
2224.342717 0.9241 0.9240 0.9240 0.9233 0.9222
2228.741550 0.9220 0.9220 0.9216 0.9211 0.9210
2233.140382 0.9210 0.9198 0.9183 0.9180 0.9180
2237.539215 0.9180 0.9180 0.9176 0.9171 0.9170
2241.938048 0.9170 0.9166 0.9161 0.9160 0.9160
2246.336880 0.9152 0.9142 0.9140 0.9140 0.9136
2250.735713 0.9131 0.9122 0.9112 0.9110 0.9110
2255.134546 0.9106 0.9101 0.9096 0.9091 0.9081
2259.533378 0.9071 0.9066 0.9061 0.9060 0.9060
2263.932211 0.9056 0.9051 0.9041 0.9031 0.9017
2268.331044 0.9002 0.9000 0.9000 0.8996 0.8991
2272.729876 0.8990 0.8990 0.8985 0.8980 0.8971
2277.128709 0.8961 0.8960 0.8960 0.8955 0.8950
2281.527542 0.8945 0.8940 0.8940 0.8940 0.8931
2285.926374 0.8921 0.8920 0.8920 0.8920 0.8920
2290.325207 0.8920 0.8920 0.8915 0.8910 0.8900
2294.724039 0.8890 0.8880 0.8870 0.8870 0.8870
2299.122872 0.8860 0.8850 0.8850 0.8850 0.8850
2303.521705 0.8850 0.8850 0.8850 0.8850 0.8850
2307.920537 0.8850 0.8850 0.8850 0.8850 0.8850
2312.319370 0.8850 0.8850 0.8850 0.8850 0.8850
2316.718203 0.8850 0.8851 0.8861 0.8869 0.8859
2321.117035 0.8851 0.8861 0.8870 0.8870 0.8870
2325.515868 0.8870 0.8870 0.8870 0.8870 0.8875
2329.914701 0.8880 0.8880 0.8880 0.8880 0.8880
2334.313533 0.8880 0.8881 0.8886 0.8890 0.8890
2338.712366 0.8890 0.8890 0.8890 0.8890 0.8890
2343.111199 0.8890 0.8890 0.8890 0.8891 0.8901
2347.510031 0.8910 0.8910 0.8910 0.8910 0.8910
2351.908864 0.8910 0.8910 0.8910 0.8910 0.8910
2356.307697 0.8910 0.8910 0.8910 0.8910 0.8910
2360.706529 0.8910 0.8910 0.8910 0.8910 0.8910
2365.105362 0.8910 0.8910 0.8908 0.8898 0.8890
2369.504195 0.8890 0.8890 0.8890 0.8890 0.8890
2373.903027 0.8890 0.8890 0.8889 0.8884 0.8879
2378.301860 0.8874 0.8866 0.8851 0.8836 0.8821
2382.700692 0.8806 0.8791 0.8779 0.8774 0.8764
2387.099525 0.8744 0.8726 0.8711 0.8700 0.8700
2391.498358 0.8698 0.8693 0.8687 0.8677 0.8668
2395.897190 0.8663 0.8660 0.8660 0.8658 0.8653
2400.296023 0.8647 0.8637 0.8628 0.8623 0.8620
2404.694856 0.8620 0.8618 0.8613 0.8606 0.8596
2409.093688 0.8588 0.8583 0.8580 0.8580 0.8576
2413.492521 0.8566 0.8560 0.8560 0.8558 0.8553
2417.891354 0.8548 0.8543 0.8540 0.8540 0.8536
2422.290186 0.8526 0.8518 0.8513 0.8508 0.8503
2426.689019 0.8496 0.8486 0.8478 0.8473 0.8466
2431.087852 0.8456 0.8448 0.8443 0.8438 0.8433
2435.486684 0.8426 0.8416 0.8408 0.8403 0.8398
2439.885517 0.8393 0.8385 0.8375 0.8368 0.8363
2444.284350 0.8360 0.8360 0.8355 0.8345 0.8340
2448.683182 0.8340 0.8340 0.8340 0.8338 0.8333
2453.082015 0.8332 0.8337 0.8340 0.8340 0.8340
2457.480848 0.8340 0.8340 0.8340 0.8337 0.8332
2461.879680 0.8330 0.8330 0.8327 0.8322 0.8315
2466.278513 0.8305 0.8300 0.8300 0.8297 0.8292
2470.677345 0.8287 0.8282 0.8280 0.8280 0.8274
2475.076178 0.8264 0.8251 0.8236 0.8230 0.8230
2479.475011 0.8227 0.8222 0.8217 0.8212 0.8204
2483.873843 0.8194 0.8187 0.8182 0.8177 0.8172
2488.272676 0.8164 0.8154 0.8147 0.8142 0.8134
2492.671509 0.8124 0.8117 0.8112 0.8107 0.8102
2497.070341 0.8080 0.8050 0.8027 0.8007 0.8000
2501.469174 0.8000 0.7990 0.7975 0.7970 0.7970
2505.868007 0.7970 0.7970 0.7970 0.7970 0.7970
2510.266839 0.7970 0.7966 0.7961 0.7960 0.7960
2514.665672 0.7960 0.7960 0.7960 0.7960 0.7960
2519.064505 0.7960 0.7960 0.7960 0.7960 0.7960
2523.463337 0.7960 0.7960 0.7960 0.7960 0.7960
2527.862170 0.7960 0.7956 0.7951 0.7950 0.7950
2532.261003 0.7950 0.7950 0.7950 0.7950 0.7942
2536.659835 0.7932 0.7930 0.7930 0.7930 0.7930
2541.058668 0.7926 0.7921 0.7920 0.7920 0.7912
2545.457501 0.7902 0.7896 0.7891 0.7878 0.7863
2549.856333 0.7860 0.7860 0.7856 0.7851 0.7846
2554.255166 0.7841 0.7832 0.7822 0.7816 0.7811
2558.653998 0.7797 0.7782 0.7780 0.7780 0.7776
2563.052831 0.7771 0.7770 0.7770 0.7761 0.7751
2567.451664 0.7746 0.7741 0.7740 0.7740 0.7727
2571.850496 0.7712 0.7710 0.7710 0.7705 0.7700
2576.249329 0.7700 0.7700 0.7691 0.7681 0.7680
2580.648162 0.7680 0.7675 0.7670 0.7651 0.7631
2585.046994 0.7616 0.7601 0.7600 0.7600 0.7595
2589.445827 0.7590 0.7580 0.7570 0.7560 0.7550
2593.844660 0.7540 0.7530 0.7525 0.7520 0.7515
2598.243492 0.7510 0.7500 0.7490 0.7475 0.7460
2602.642325 0.7435 0.7410 0.7395 0.7380 0.7380
2607.041158 0.7380 0.7375 0.7370 0.7355 0.7339
2611.439990 0.7304 0.7269 0.7249 0.7229 0.7214
2615.838823 0.7199 0.7174 0.7149 0.7134 0.7119
2620.237656 0.7099 0.7080 0.7075 0.7069 0.7059
2624.636488 0.7050 0.7045 0.7039 0.7029 0.7020
2629.035321 0.7015 0.7010 0.7005 0.6998 0.6983
2633.434154 0.6968 0.6948 0.6929 0.6919 0.6909
2637.832986 0.6904 0.6897 0.6872 0.6849 0.6839
2642.231819 0.6828 0.6813 0.6799 0.6794 0.6788
2646.630651 0.6773 0.6757 0.6737 0.6717 0.6702
2651.029484 0.6688 0.6678 0.6667 0.6652 0.6635
2655.428317 0.6605 0.6576 0.6556 0.6537 0.6522
2659.827149 0.6506 0.6486 0.6468 0.6458 0.6448
2664.225982 0.6438 0.6427 0.6412 0.6399 0.6394
2668.624815 0.6387 0.6372 0.6358 0.6348 0.6340
2673.023647 0.6340 0.6340 0.6340 0.6340 0.6340
2677.422480 0.6338 0.6327 0.6320 0.6320 0.6320
2681.821313 0.6320 0.6319 0.6314 0.6307 0.6297
2686.220145 0.6289 0.6284 0.6279 0.6274 0.6266
2690.618978 0.6251 0.6235 0.6220 0.6205 0.6190
2695.017811 0.6178 0.6173 0.6168 0.6163 0.6157
2699.416643 0.6147 0.6138 0.6133 0.6128 0.6123
2703.815476 0.6111 0.6086 0.6054 0.6009 0.5969
2708.214309 0.5939 0.5916 0.5906 0.5896 0.5886
2712.613141 0.5874 0.5859 0.5846 0.5836 0.5824
2717.011974 0.5809 0.5798 0.5793 0.5784 0.5769
2721.410807 0.5756 0.5746 0.5738 0.5733 0.5732
2725.809639 0.5737 0.5740 0.5740 0.5740 0.5740
2730.208472 0.5740 0.5740 0.5740 0.5740 0.5740
2734.607304 0.5740 0.5740 0.5740 0.5740 0.5740
2739.006137 0.5745 0.5755 0.5760 0.5760 0.5760
2743.404970 0.5760 0.5760 0.5760 0.5760 0.5760
2747.803802 0.5760 0.5760 0.5760 0.5760 0.5760
2752.202635 0.5760 0.5760 0.5760 0.5760 0.5760
2756.601468 0.5760 0.5760 0.5760 0.5760 0.5755
2761.000300 0.5745 0.5735 0.5725 0.5709 0.5689
2765.399133 0.5664 0.5634 0.5612 0.5597 0.5584
2769.797966 0.5574 0.5564 0.5554 0.5541 0.5526
2774.196798 0.5514 0.5504 0.5500 0.5500 0.5494
2778.595631 0.5484 0.5474 0.5464 0.5451 0.5436
2782.994464 0.5424 0.5414 0.5404 0.5394 0.5378
2787.393296 0.5358 0.5341 0.5326 0.5310 0.5295
2791.792129 0.5287 0.5282 0.5270 0.5255 0.5240
2796.190962 0.5225 0.5217 0.5212 0.5200 0.5185
2800.589794 0.5170 0.5155 0.5147 0.5142 0.5137
2804.988627 0.5132 0.5123 0.5113 0.5100 0.5085
2809.387460 0.5066 0.5046 0.5026 0.5006 0.4989
2813.786292 0.4974 0.4966 0.4961 0.4956 0.4951
2818.185125 0.4939 0.4924 0.4909 0.4894 0.4861
2822.583957 0.4821 0.4784 0.4749 0.4729 0.4714
2826.982790 0.4702 0.4692 0.4671 0.4646 0.4632
2831.381623 0.4622 0.4608 0.4593 0.4578 0.4563
2835.780455 0.4556 0.4551 0.4538 0.4523 0.4500
2840.179288 0.4475 0.4442 0.4407 0.4359 0.4309
2844.578121 0.4239 0.4164 0.4134 0.4114 0.4094
2848.976953 0.4073 0.4053 0.4033 0.4009 0.3984
2853.375786 0.3963 0.3943 0.3923 0.3903 0.3883
2857.774619 0.3863 0.3847 0.3832 0.3826 0.3821
2862.173451 0.3816 0.3811 0.3810 0.3810 0.3810
2866.572284 0.3810 0.3814 0.3819 0.3833 0.3848
2870.971117 0.3859 0.3869 0.3883 0.3899 0.3918
2875.369949 0.3938 0.3949 0.3959 0.3960 0.3960
2879.768782 0.3960 0.3960 0.3960 0.3960 0.3960
2884.167615 0.3960 0.3960 0.3960 0.3951 0.3940
2888.566447 0.3935 0.3930 0.3925 0.3920 0.3910
2892.965280 0.3900 0.3895 0.3890 0.3890 0.3890
2897.364113 0.3880 0.3870 0.3865 0.3860 0.3865
2901.762945 0.3870 0.3880 0.3890 0.3905 0.3920
2906.161778 0.3945 0.3971 0.4031 0.4091 0.4121
2910.560610 0.4151 0.4186 0.4222 0.4267 0.4312
2914.959443 0.4357 0.4401 0.4426 0.4450 0.4445
2919.358276 0.4442 0.4477 0.4511 0.4521 0.4531
2923.757108 0.4541 0.4550 0.4555 0.4561 0.4571
2928.155941 0.4581 0.4591 0.4601 0.4611 0.4621
2932.554774 0.4626 0.4631 0.4636 0.4641 0.4651
2936.953606 0.4661 0.4666 0.4671 0.4681 0.4690
2941.352439 0.4690 0.4691 0.4696 0.4700 0.4700
2945.751272 0.4700 0.4700 0.4700 0.4700 0.4700
2950.150104 0.4700 0.4700 0.4700 0.4699 0.4694
2954.548937 0.4690 0.4690 0.4688 0.4678 0.4672
2958.947770 0.4682 0.4690 0.4690 0.4691 0.4696
2963.346602 0.4701 0.4706 0.4712 0.4722 0.4730
2967.745435 0.4730 0.4731 0.4736 0.4740 0.4740
2972.144268 0.4740 0.4740 0.4739 0.4734 0.4726
2976.543100 0.4711 0.4696 0.4681 0.4665 0.4645
2980.941933 0.4626 0.4611 0.4594 0.4574 0.4556
2985.340766 0.4541 0.4527 0.4517 0.4507 0.4497
2989.739598 0.4487 0.4477 0.4467 0.4457 0.4445
2994.138431 0.4430 0.4417 0.4407 0.4395 0.4380
2998.537263 0.4365 0.4350 0.4335 0.4320 0.4307
3002.936096 0.4297 0.4285 0.4270 0.4255 0.4240
3007.334929 0.4225 0.4210 0.4196 0.4186 0.4175
3011.733761 0.4160 0.4145 0.4129 0.4114 0.4099
3016.132594 0.4088 0.4083 0.4074 0.4059 0.4046
3020.531427 0.4036 0.4016 0.3981 0.3946 0.3911
3024.930259 0.3882 0.3862 0.3846 0.3836 0.3834
3029.329092 0.3844 0.3867 0.3907 0.3932 0.3937
3033.727925 0.3940 0.3940 0.3954 0.3984 0.4002
3038.126757 0.4007 0.4015 0.4025 0.4032 0.4037
3042.525590 0.4042 0.4047 0.4055 0.4065 0.4072
3046.924423 0.4077 0.4082 0.4087 0.4090 0.4090
3051.323255 0.4090 0.4090 0.4090 0.4090 0.4090
3055.722088 0.4090 0.4090 0.4090 0.4090 0.4090
3060.120921 0.4090 0.4090 0.4087 0.4082 0.4077
3064.519753 0.4072 0.4065 0.4055 0.4039 0.4019
3068.918586 0.3999 0.3979 0.3961 0.3946 0.3934
3073.317419 0.3924 0.3914 0.3904 0.3897 0.3892
3077.716251 0.3884 0.3874 0.3864 0.3854 0.3844
3082.115084 0.3834 0.3824 0.3814 0.3804 0.3794
3086.513916 0.3787 0.3782 0.3774 0.3764 0.3760
3090.912749 0.3760 0.3760 0.3760 0.3760 0.3760
3095.311582 0.3760 0.3760 0.3767 0.3777 0.3780
3099.710414 0.3780 0.3790 0.3805 0.3813 0.3818
3104.109247 0.3823 0.3828 0.3840 0.3855 0.3863
3108.508080 0.3868 0.3877 0.3887 0.3894 0.3899
3112.906912 0.3911 0.3926 0.3934 0.3939 0.3947
3117.305745 0.3957 0.3964 0.3969 0.3974 0.3979
3121.704578 0.3987 0.3997 0.4004 0.4009 0.4018
3126.103410 0.4028 0.4030 0.4030 0.4019 0.4004
3130.502243 0.3985 0.3965 0.3945 0.3925 0.3881
3134.901076 0.3831 0.3808 0.3793 0.3798 0.3808
3139.299908 0.3877 0.3963 0.4045 0.4125 0.4185
3143.698741 0.4240 0.4287 0.4332 0.4369 0.4404
3148.097574 0.4439 0.4474 0.4501 0.4526 0.4555
3152.496406 0.4585 0.4611 0.4636 0.4653 0.4668
3156.895239 0.4679 0.4689 0.4712 0.4737 0.4753
3161.294072 0.4768 0.4770 0.4770 0.4774 0.4779
3165.692904 0.4789 0.4799 0.4809 0.4819 0.4833
3170.091737 0.4848 0.4863 0.4878 0.4893 0.4908
3174.490569 0.4919 0.4929 0.4930 0.4930 0.4949
3178.889402 0.4969 0.4979 0.4989 0.4995 0.5000
3183.288235 0.5009 0.5019 0.5025 0.5030 0.5044
3187.687067 0.5059 0.5070 0.5080 0.5090 0.5100
3192.085900 0.5100 0.5100 0.5100 0.5100 0.5100
3196.484733 0.5100 0.5105 0.5110 0.5110 0.5110
3200.883565 0.5120 0.5130 0.5130 0.5130 0.5135
3205.282398 0.5140 0.5140 0.5140 0.5140 0.5140
3209.681231 0.5140 0.5140 0.5140 0.5140 0.5140
3214.080063 0.5140 0.5140 0.5140 0.5140 0.5140
3218.478896 0.5140 0.5140 0.5140 0.5140 0.5140
3222.877729 0.5140 0.5140 0.5140 0.5140 0.5140
3227.276561 0.5140 0.5140 0.5135 0.5130 0.5130
3231.675394 0.5129 0.5119 0.5109 0.5104 0.5098
3236.074227 0.5083 0.5068 0.5053 0.5038 0.5018
3240.473059 0.4998 0.4983 0.4969 0.4959 0.4949
3244.871892 0.4939 0.4927 0.4907 0.4889 0.4884
3249.270725 0.4873 0.4833 0.4794 0.4759 0.4725
3253.669557 0.4695 0.4666 0.4646 0.4625 0.4600
3258.068390 0.4574 0.4544 0.4513 0.4478 0.4432
3262.467222 0.4335 0.4228 0.4077 0.3945 0.3875
3266.866055 0.3800 0.3710 0.3618 0.3523 0.3429
3271.264888 0.3339 0.3248 0.3153 0.3059 0.2968
3275.663720 0.2883 0.2813 0.2746 0.2691 0.2623
3280.062553 0.2517 0.2437 0.2427 0.2413 0.2388
3284.461386 0.2355 0.2299 0.2239 0.2163 0.2072
3288.860218 0.1942 0.1796 0.1610 0.1479 0.1474
3293.259051 0.1473 0.1483 0.1527 0.1647 0.1775
3297.657884 0.1922 0.2068 0.2213 0.2369 0.2544
3302.056716 0.2714 0.2875 0.3032 0.3182 0.3329
3306.455549 0.3469 0.3607 0.3743 0.3873 0.3993
3310.854382 0.4111 0.4227 0.4338 0.4443 0.4545
3315.253214 0.4641 0.4735 0.4825 0.4916 0.5006
3319.652047 0.5090 0.5165 0.5238 0.5308 0.5397
3324.050880 0.5512 0.5603 0.5658 0.5711 0.5761
3328.449712 0.5807 0.5847 0.5887 0.5927 0.5965
3332.848545 0.6000 0.6031 0.6056 0.6086 0.6121
3337.247378 0.6149 0.6169 0.6194 0.6224 0.6249
3341.646210 0.6269 0.6289 0.6309 0.6329 0.6350
3346.045043 0.6370 0.6390 0.6412 0.6437 0.6455
3350.443875 0.6465 0.6480 0.6500 0.6523 0.6548
3354.842708 0.6570 0.6590 0.6605 0.6615 0.6633
3359.241541 0.6658 0.6675 0.6685 0.6695 0.6705
3363.640373 0.6718 0.6733 0.6743 0.6748 0.6758
3368.039206 0.6773 0.6783 0.6788 0.6799 0.6814
3372.438039 0.6823 0.6828 0.6839 0.6854 0.6863
3376.836871 0.6868 0.6876 0.6886 0.6893 0.6898
3381.235704 0.6903 0.6908 0.6916 0.6926 0.6933
3385.634537 0.6938 0.6946 0.6956 0.6963 0.6968
3390.033369 0.6973 0.6978 0.6990 0.7005 0.7013
3394.432202 0.7018 0.7026 0.7036 0.7050 0.7065
3398.831035 0.7077 0.7087 0.7097 0.7107 0.7117
3403.229867 0.7127 0.7137 0.7147 0.7153 0.7158
3407.628700 0.7167 0.7177 0.7183 0.7188 0.7194
3412.027533 0.7199 0.7211 0.7226 0.7234 0.7239
3416.426365 0.7240 0.7240 0.7251 0.7266 0.7277
3420.825198 0.7287 0.7294 0.7299 0.7304 0.7309
3425.224031 0.7310 0.7310 0.7318 0.7328 0.7330
3429.622863 0.7330 0.7334 0.7339 0.7351 0.7367
3434.021696 0.7374 0.7379 0.7392 0.7407 0.7410
3438.420528 0.7410 0.7414 0.7419 0.7428 0.7438
3442.819361 0.7444 0.7449 0.7462 0.7477 0.7484
3447.218194 0.7489 0.7498 0.7508 0.7518 0.7528
3451.617026 0.7538 0.7548 0.7558 0.7568 0.7570
3456.015859 0.7570 0.7579 0.7589 0.7590 0.7590
3460.414692 0.7594 0.7599 0.7600 0.7600 0.7609
3464.813524 0.7619 0.7624 0.7629 0.7634 0.7639
3469.212357 0.7640 0.7640 0.7649 0.7659 0.7665
3473.611190 0.7670 0.7670 0.7670 0.7684 0.7699
3478.010022 0.7705 0.7710 0.7719 0.7729 0.7739
3482.408855 0.7749 0.7759 0.7769 0.7775 0.7780
3486.807688 0.7780 0.7780 0.7785 0.7790 0.7800
3491.206520 0.7810 0.7815 0.7820 0.7830 0.7840
3495.605353 0.7840 0.7840 0.7845 0.7850 0.7850
3500.004186 0.7850 0.7855 0.7860 0.7860 0.7860
3504.403018 0.7870 0.7880 0.7885 0.7890 0.7895
3508.801851 0.7900 0.7900 0.7900 0.7900 0.7900
3513.200684 0.7910 0.7920 0.7920 0.7920 0.7920
3517.599516 0.7920 0.7920 0.7920 0.7920 0.7920
3521.998349 0.7920 0.7920 0.7925 0.7930 0.7930
3526.397181 0.7930 0.7930 0.7930 0.7930 0.7930
3530.796014 0.7930 0.7930 0.7930 0.7931 0.7941
3535.194847 0.7950 0.7950 0.7950 0.7950 0.7950
3539.593679 0.7950 0.7950 0.7950 0.7950 0.7950
3543.992512 0.7950 0.7950 0.7950 0.7950 0.7950
3548.391345 0.7950 0.7950 0.7950 0.7950 0.7950
3552.790177 0.7950 0.7950 0.7950 0.7950 0.7950
3557.189010 0.7950 0.7950 0.7950 0.7950 0.7950
3561.587843 0.7950 0.7950 0.7950 0.7950 0.7950
3565.986675 0.7950 0.7950 0.7950 0.7950 0.7950
3570.385508 0.7950 0.7950 0.7950 0.7950 0.7950
3574.784341 0.7950 0.7950 0.7950 0.7950 0.7950
3579.183173 0.7950 0.7950 0.7950 0.7950 0.7950
3583.582006 0.7950 0.7950 0.7950 0.7947 0.7937
3587.980839 0.7930 0.7930 0.7930 0.7930 0.7930
3592.379671 0.7930 0.7930 0.7930 0.7930 0.7930
3596.778504 0.7930 0.7930 0.7930 0.7930 0.7930
3601.177337 0.7930 0.7928 0.7923 0.7920 0.7920
3605.576169 0.7920 0.7920 0.7920 0.7920 0.7920
3609.975002 0.7920 0.7920 0.7920 0.7920 0.7920
3614.373834 0.7920 0.7920 0.7920 0.7920 0.7916
3618.772667 0.7906 0.7900 0.7900 0.7900 0.7900
3623.171500 0.7900 0.7900 0.7900 0.7900 0.7900
3627.570332 0.7900 0.7900 0.7900 0.7900 0.7900
3631.969165 0.7898 0.7893 0.7890 0.7890 0.7890
3636.367998 0.7890 0.7890 0.7890 0.7888 0.7883
3640.766830 0.7880 0.7880 0.7880 0.7880 0.7880
3645.165663 0.7880 0.7875 0.7865 0.7860 0.7860
3649.564496 0.7860 0.7860 0.7860 0.7860 0.7857
3653.963328 0.7852 0.7850 0.7850 0.7850 0.7850
3658.362161 0.7850 0.7850 0.7847 0.7842 0.7840
3662.760994 0.7840 0.7840 0.7840 0.7835 0.7824
3667.159826 0.7820 0.7820 0.7820 0.7820 0.7820
3671.558659 0.7820 0.7817 0.7812 0.7810 0.7810
3675.957492 0.7810 0.7810 0.7810 0.7810 0.7804
3680.356324 0.7794 0.7790 0.7790 0.7790 0.7790
3684.755157 0.7787 0.7782 0.7780 0.7780 0.7780
3689.153990 0.7780 0.7780 0.7780 0.7777 0.7772
3693.552822 0.7770 0.7770 0.7770 0.7770 0.7764
3697.951655 0.7753 0.7750 0.7750 0.7750 0.7750
3702.350487 0.7747 0.7742 0.7740 0.7740 0.7740
3706.749320 0.7740 0.7737 0.7732 0.7730 0.7730
3711.148153 0.7730 0.7730 0.7730 0.7730 0.7730
3715.546985 0.7730 0.7730 0.7730 0.7723 0.7713
3719.945818 0.7710 0.7710 0.7710 0.7710 0.7710
3724.344651 0.7710 0.7706 0.7701 0.7700 0.7700
3728.743483 0.7692 0.7682 0.7680 0.7680 0.7676
3733.142316 0.7671 0.7670 0.7670 0.7666 0.7661
3737.541149 0.7660 0.7660 0.7652 0.7642 0.7640
3741.939981 0.7640 0.7636 0.7631 0.7630 0.7630
3746.338814 0.7626 0.7621 0.7612 0.7602 0.7600
3750.737647 0.7600 0.7600 0.7600 0.7596 0.7591
3755.136479 0.7590 0.7590 0.7590 0.7590 0.7581
3759.535312 0.7571 0.7570 0.7570 0.7566 0.7561
3763.934145 0.7560 0.7560 0.7560 0.7560 0.7556
3768.332977 0.7551 0.7550 0.7550 0.7550 0.7550
3772.731810 0.7541 0.7531 0.7525 0.7520 0.7520
3777.130643 0.7520 0.7520 0.7520 0.7520 0.7520
3781.529475 0.7520 0.7520 0.7520 0.7520 0.7520
3785.928308 0.7520 0.7520 0.7520 0.7515 0.7510
3790.327140 0.7510 0.7510 0.7510 0.7510 0.7510
3794.725973 0.7510 0.7510 0.7510 0.7510 0.7510
3799.124806 0.7510 0.7510
##END=
