##TITLE=FERROCENIC ACID, PHENYL ESTER
##JCAMP-DX=4.24
##DATA TYPE=INFRARED SPECTRUM
##CLASS=COBLENTZ
##ORIGIN=WYANDOTTE CHEMICALS CORP., WYANDOTTE, MICHIGAN, USA
##OWNER=COBLENTZ SOCIETY
Collection (C) 2018 copyright by the U.S. Secretary of Commerce
on behalf of the United States of America. All rights reserved.
##DATE=Not specified, most likely prior to 1970
##MOLFORM=C17 H14 Fe O2
##MP=123-124 C
##SOURCE REFERENCE=COBLENTZ NO. 3028
##$NIST ID=B6003028
##$NIST SOURCE=COBLENTZ
##$NIST IMAGE=cob3028
##SPECTROMETER/DATA SYSTEM=Not specified, most likely a prism, grating, or hybrid spectrometer.
##STATE=SOLID (MINERAL OIL MULL)
##PATH LENGTH=
$$SPECTRAL CONTAMINATION DUE TO OIL AROUND 2900 CM^-^1
##SAMPLING PROCEDURE=TRANSMISSION
##RESOLUTION=4
##DATA PROCESSING=DIGITIZED BY NIST FROM HARD COPY
##XUNITS=MICROMETERS
##YUNITS=TRANSMITTANCE
##XFACTOR=1.000000
##YFACTOR=1
##DELTAX=000.006813
##FIRSTX=2.027
##LASTX=15.993
##FIRSTY=0.393
##MAXX=15.993
##MINX=2.027
##MAXY=0.962
##MINY=0.049
##NPOINTS=2051
##XYDATA=(X++(Y..Y))
2.027000 0.3930 0.3940 0.3940 0.3960 0.3980
2.061080 0.3980 0.3980 0.3980 0.4000 0.4000
2.095000 0.4030 0.4060 0.4100 0.4130 0.4150
2.129080 0.4170 0.4180 0.4180 0.4220 0.4220
2.164000 0.4230 0.4230 0.4250 0.4250 0.4270
2.198080 0.4290 0.4300 0.4320 0.4340 0.4340
2.232000 0.4300 0.4300 0.4300 0.4300 0.4340
2.266080 0.4340 0.4390 0.4440 0.4470 0.4490
2.300000 0.4490 0.4460 0.4460 0.4440 0.4440
2.334080 0.4440 0.4460 0.4470 0.4510 0.4520
2.368000 0.4580 0.4590 0.4590 0.4590 0.4610
2.402080 0.4630 0.4640 0.4680 0.4700 0.4730
2.436000 0.4780 0.4780 0.4780 0.4780 0.4800
2.470080 0.4800 0.4830 0.4870 0.4870 0.4880
2.504000 0.4880 0.4870 0.4830 0.4820 0.4800
2.538080 0.4800 0.4820 0.4880 0.4920 0.4990
2.572000 0.5090 0.5120 0.5160 0.5190 0.5260
2.606080 0.5280 0.5290 0.5290 0.5310 0.5310
2.640000 0.5310 0.5310 0.5380 0.5410 0.5470
2.674080 0.5480 0.5480 0.5480 0.5480 0.5500
2.709000 0.5530 0.5580 0.5580 0.5580 0.5580
2.743080 0.5600 0.5600 0.5600 0.5620 0.5620
2.777000 0.5620 0.5640 0.5650 0.5650 0.5620
2.811080 0.5620 0.5620 0.5620 0.5640 0.5650
2.845000 0.5650 0.5650 0.5670 0.5670 0.5670
2.879080 0.5670 0.5670 0.5670 0.5670 0.5670
2.913000 0.5670 0.5670 0.5670 0.5670 0.5650
2.947080 0.5640 0.5620 0.5600 0.5550 0.5550
2.981000 0.5530 0.5530 0.5550 0.5570 0.5580
3.015080 0.5580 0.5620 0.5670 0.5690 0.5690
3.049000 0.5690 0.5700 0.5700 0.5720 0.5760
3.083080 0.5770 0.5770 0.5770 0.5770 0.5770
3.117000 0.5770 0.5720 0.5690 0.5670 0.5670
3.151080 0.5670 0.5670 0.5620 0.5550 0.5480
3.185000 0.5410 0.5400 0.5410 0.5410 0.5410
3.219080 0.5400 0.5260 0.5120 0.4990 0.4510
3.254000 0.4110 0.4080 0.4180 0.4460 0.4590
3.288080 0.4700 0.4730 0.4730 0.4680 0.4510
3.322000 0.4490 0.4420 0.4320 0.4200 0.3960
3.356080 0.3760 0.3450 0.2950 0.2460 0.1960
3.390000 0.1640 0.1330 0.1110 0.1000 0.0940
3.424080 0.0880 0.0830 0.0830 0.0870 0.0990
3.458000 0.1110 0.1260 0.1530 0.1720 0.1890
3.492080 0.2000 0.2000 0.2000 0.2000 0.1910
3.526000 0.1930 0.2050 0.2420 0.3120 0.3860
3.560080 0.4680 0.5890 0.6410 0.6700 0.6900
3.594000 0.7040 0.7120 0.7190 0.7190 0.7230
3.628080 0.7240 0.7280 0.7290 0.7330 0.7360
3.662000 0.7400 0.7410 0.7430 0.7430 0.7410
3.696080 0.7400 0.7380 0.7330 0.7290 0.7280
3.730000 0.7280 0.7280 0.7290 0.7310 0.7330
3.764080 0.7380 0.7400 0.7430 0.7470 0.7480
3.799000 0.7500 0.7520 0.7550 0.7570 0.7570
3.833080 0.7570 0.7570 0.7600 0.7670 0.7690
3.867000 0.7700 0.7700 0.7720 0.7740 0.7760
3.901080 0.7770 0.7770 0.7760 0.7760 0.7770
3.935000 0.7790 0.7790 0.7810 0.7820 0.7820
3.969080 0.7810 0.7810 0.7840 0.7860 0.7910
4.003000 0.7940 0.7960 0.7980 0.7980 0.7980
4.037080 0.7980 0.7980 0.7980 0.7940 0.7940
4.071000 0.7960 0.7960 0.7980 0.7980 0.7980
4.105080 0.7960 0.7940 0.7910 0.7910 0.7930
4.139000 0.7960 0.7980 0.7980 0.8000 0.8000
4.173080 0.8000 0.8010 0.8030 0.8030 0.8030
4.207000 0.8050 0.8050 0.8050 0.8060 0.8080
4.241080 0.8080 0.8080 0.8000 0.7960 0.7840
4.275000 0.7760 0.7740 0.7740 0.7770 0.7790
4.309080 0.7880 0.7940 0.7980 0.8000 0.8010
4.344000 0.8080 0.8110 0.8200 0.8230 0.8290
4.378080 0.8340 0.8440 0.8520 0.8590 0.8590
4.412000 0.8580 0.8580 0.8580 0.8590 0.8590
4.446080 0.8580 0.8560 0.8520 0.8510 0.8510
4.480000 0.8520 0.8520 0.8510 0.8510 0.8510
4.514080 0.8490 0.8470 0.8470 0.8490 0.8490
4.548000 0.8460 0.8420 0.8420 0.8420 0.8460
4.582080 0.8510 0.8540 0.8630 0.8680 0.8700
4.616000 0.8710 0.8710 0.8710 0.8700 0.8700
4.650080 0.8710 0.8730 0.8760 0.8780 0.8780
4.684000 0.8800 0.8830 0.8850 0.8870 0.8880
4.718080 0.8880 0.8920 0.8920 0.8970 0.8990
4.752000 0.9000 0.9020 0.9040 0.9040 0.9000
4.786080 0.9000 0.9000 0.9000 0.9000 0.9000
4.820000 0.9000 0.9040 0.9070 0.9070 0.9090
4.854080 0.9110 0.9110 0.9110 0.9120 0.9210
4.889000 0.9210 0.9190 0.9190 0.9190 0.9190
4.923080 0.9170 0.9170 0.9170 0.9140 0.9140
4.957000 0.9140 0.9140 0.9140 0.9140 0.9140
4.991080 0.9120 0.9110 0.9070 0.9070 0.9050
5.025000 0.9050 0.9050 0.9070 0.9070 0.9090
5.059080 0.9090 0.9160 0.9160 0.9090 0.9020
5.093000 0.9000 0.8990 0.9000 0.9090 0.9140
5.127080 0.9190 0.9210 0.9230 0.9190 0.9170
5.161000 0.9040 0.8780 0.8710 0.8800 0.8800
5.195080 0.8970 0.9070 0.9140 0.9170 0.9190
5.229000 0.9210 0.9230 0.9280 0.9290 0.9330
5.263080 0.9380 0.9410 0.9480 0.9500 0.9520
5.297000 0.9500 0.9480 0.9410 0.9380 0.9310
5.331080 0.9290 0.9290 0.9290 0.9290 0.9310
5.365000 0.9330 0.9350 0.9350 0.9380 0.9380
5.399080 0.9410 0.9520 0.9620 0.9620 0.9600
5.434000 0.9580 0.9570 0.9500 0.9400 0.9290
5.468080 0.9280 0.9290 0.9310 0.9410 0.9480
5.502000 0.9430 0.9360 0.9310 0.9310 0.9310
5.536080 0.9290 0.9280 0.9280 0.9170 0.9110
5.570000 0.9070 0.8990 0.8950 0.8880 0.8850
5.604080 0.8820 0.8800 0.8800 0.8820 0.8780
5.638000 0.8730 0.8700 0.8640 0.8560 0.8410
5.672080 0.8370 0.8390 0.8390 0.8390 0.8370
5.706000 0.8300 0.8200 0.7940 0.7600 0.7240
5.740080 0.6870 0.6390 0.5820 0.5110 0.4470
5.774000 0.3840 0.3160 0.2250 0.1230 0.0510
5.808080 0.0490 0.0510 0.0520 0.0610 0.0710
5.842000 0.0870 0.1000 0.1190 0.1450 0.1650
5.876080 0.1910 0.2350 0.2680 0.3160 0.3600
5.910000 0.4010 0.4350 0.4520 0.4680 0.4710
5.944080 0.4730 0.4730 0.4750 0.4750 0.4800
5.979000 0.4950 0.5400 0.5670 0.5880 0.6050
6.013080 0.6170 0.6290 0.6300 0.6300 0.6320
6.047000 0.6410 0.6510 0.6640 0.6750 0.6900
6.081080 0.6990 0.6990 0.7000 0.7090 0.7350
6.115000 0.7500 0.7570 0.7580 0.7580 0.7600
6.149080 0.7670 0.7720 0.7770 0.7770 0.7810
6.183000 0.7820 0.7840 0.7880 0.7840 0.7740
6.217080 0.7650 0.7480 0.6990 0.6300 0.5360
6.251000 0.4940 0.4490 0.4170 0.4170 0.5860
6.285080 0.6560 0.6950 0.7140 0.7230 0.7290
6.319000 0.7380 0.7470 0.7580 0.7760 0.7940
6.353080 0.8030 0.8080 0.8080 0.8060 0.8060
6.387000 0.8060 0.8080 0.8170 0.8220 0.8300
6.421080 0.8300 0.8320 0.8340 0.8320 0.8250
6.455000 0.8180 0.8110 0.8080 0.8050 0.8000
6.489080 0.8030 0.8010 0.7980 0.7890 0.7810
6.524000 0.7700 0.7620 0.7580 0.7500 0.7480
6.558080 0.7500 0.7580 0.7670 0.7770 0.7820
6.592000 0.7840 0.7840 0.7770 0.7530 0.7450
6.626080 0.7160 0.6640 0.6200 0.5820 0.5430
6.660000 0.5020 0.4780 0.4520 0.3860 0.3640
6.694080 0.3360 0.3210 0.3160 0.3120 0.3280
6.728000 0.3810 0.4250 0.4580 0.4820 0.4900
6.762080 0.4940 0.4990 0.4920 0.4710 0.4410
6.796000 0.4060 0.3700 0.3260 0.2900 0.2710
6.830080 0.2170 0.1890 0.1670 0.1470 0.1160
6.864000 0.1000 0.0950 0.0950 0.1260 0.1620
6.898080 0.1980 0.2410 0.2900 0.3360 0.3700
6.932000 0.3960 0.4290 0.4820 0.5500 0.5760
6.966080 0.6050 0.6250 0.6460 0.6610 0.6750
7.000000 0.6950 0.7210 0.7280 0.7360 0.7430
7.034080 0.7480 0.7430 0.7280 0.6900 0.6540
7.069000 0.6050 0.5650 0.5400 0.5310 0.5280
7.103080 0.5400 0.5840 0.6200 0.6540 0.6780
7.137000 0.6800 0.6780 0.6590 0.6300 0.6300
7.171080 0.6410 0.6940 0.7280 0.7310 0.7290
7.205000 0.7020 0.6780 0.6350 0.5790 0.5110
7.239080 0.4750 0.4370 0.3720 0.3210 0.2610
7.273000 0.2220 0.2220 0.2610 0.3470 0.4100
7.307080 0.4800 0.5700 0.6100 0.6460 0.6680
7.341000 0.6820 0.6950 0.7140 0.7190 0.7230
7.375080 0.7230 0.7210 0.7090 0.6700 0.6180
7.409000 0.6080 0.6080 0.6180 0.6350 0.6640
7.443080 0.7000 0.7190 0.7310 0.7400 0.7500
7.477000 0.7620 0.7760 0.7880 0.7910 0.7980
7.511080 0.7980 0.7980 0.7980 0.7910 0.7860
7.545000 0.7770 0.7690 0.7640 0.7620 0.7550
7.579080 0.7480 0.7450 0.7410 0.7350 0.7230
7.614000 0.7140 0.7070 0.7000 0.6950 0.6880
7.648080 0.6800 0.6680 0.6460 0.6250 0.6050
7.682000 0.5940 0.5570 0.5240 0.5110 0.4970
7.716080 0.4510 0.4220 0.3940 0.3700 0.3700
7.750000 0.3690 0.3690 0.3600 0.3470 0.3120
7.784080 0.2780 0.2590 0.2150 0.1760 0.1470
7.818000 0.1120 0.0970 0.0710 0.0520 0.0520
7.852080 0.0610 0.0710 0.0780 0.0950 0.1160
7.886000 0.1520 0.1930 0.2440 0.2750 0.3140
7.920080 0.3470 0.3760 0.4100 0.4540 0.4850
7.954000 0.5430 0.5570 0.5700 0.5770 0.5810
7.988080 0.5910 0.6010 0.6100 0.6250 0.6440
8.022000 0.6490 0.6630 0.6750 0.6830 0.6900
8.056080 0.7000 0.7210 0.7280 0.7280 0.7310
8.091000 0.7330 0.7350 0.7310 0.7210 0.7120
8.125080 0.7050 0.6990 0.6820 0.6640 0.6350
8.159000 0.6150 0.5940 0.5620 0.5290 0.5120
8.193080 0.4940 0.4320 0.3620 0.3160 0.2830
8.227000 0.2830 0.2900 0.3290 0.3600 0.3840
8.261080 0.3890 0.3890 0.3700 0.3360 0.3110
8.295000 0.2850 0.2560 0.2350 0.2060 0.1770
8.329080 0.1450 0.1210 0.1040 0.0870 0.0700
8.363000 0.0590 0.0590 0.0580 0.0580 0.0580
8.397080 0.0580 0.0590 0.0630 0.0660 0.0710
8.431000 0.0870 0.0990 0.1160 0.1450 0.1890
8.465080 0.2250 0.2510 0.2850 0.3160 0.3470
8.499000 0.3770 0.4050 0.4290 0.4440 0.4710
8.533080 0.5380 0.5640 0.5910 0.6000 0.6000
8.567000 0.5720 0.5290 0.4850 0.4050 0.3310
8.601080 0.2560 0.1960 0.1620 0.2000 0.2590
8.636000 0.3050 0.3400 0.3620 0.3720 0.3940
8.670080 0.4320 0.4800 0.5890 0.6100 0.6340
8.704000 0.6510 0.6660 0.6820 0.6950 0.7110
8.738080 0.7230 0.7350 0.7430 0.7520 0.7580
8.772000 0.7650 0.7720 0.7770 0.7840 0.7880
8.806080 0.7960 0.7980 0.7980 0.7980 0.7980
8.840000 0.7890 0.7700 0.7640 0.7520 0.7350
8.874080 0.7140 0.6900 0.6630 0.6300 0.5930
8.908000 0.5520 0.5040 0.4750 0.4440 0.3760
8.942080 0.3050 0.2370 0.2050 0.1550 0.0970
8.976000 0.0590 0.0580 0.0560 0.0560 0.0580
9.010080 0.0590 0.0630 0.0640 0.0660 0.0680
9.044000 0.0710 0.0730 0.0730 0.0800 0.0950
9.078080 0.1170 0.1360 0.1570 0.1760 0.2030
9.112000 0.2220 0.2460 0.2660 0.2850 0.3040
9.146080 0.3230 0.3400 0.3550 0.3700 0.3860
9.181000 0.4010 0.4150 0.4270 0.4350 0.4540
9.215080 0.4730 0.4820 0.4880 0.4950 0.5120
9.249000 0.5230 0.5280 0.5280 0.5290 0.5290
9.283080 0.5290 0.5280 0.5110 0.5040 0.4950
9.317000 0.4750 0.4460 0.4250 0.3960 0.3910
9.351080 0.3910 0.4110 0.4410 0.4640 0.4950
9.385000 0.5310 0.5410 0.5470 0.5600 0.5620
9.419080 0.5580 0.5140 0.4970 0.4780 0.4270
9.453000 0.3810 0.3720 0.3810 0.4220 0.4590
9.487080 0.4990 0.5530 0.5670 0.5840 0.6050
9.521000 0.6180 0.6250 0.6370 0.6390 0.6460
9.555080 0.6510 0.6580 0.6610 0.6630 0.6610
9.589000 0.6630 0.6680 0.6700 0.6710 0.6760
9.623080 0.6760 0.6730 0.6730 0.6730 0.6750
9.657000 0.6750 0.6630 0.6300 0.6000 0.5550
9.691080 0.5260 0.4970 0.4460 0.3980 0.3960
9.726000 0.4110 0.4700 0.4880 0.4880 0.4880
9.760080 0.4610 0.3960 0.3450 0.2900 0.2460
9.794000 0.2300 0.2010 0.1700 0.1690 0.1690
9.828080 0.1720 0.1980 0.2320 0.2710 0.3160
9.862000 0.3580 0.3960 0.4230 0.4510 0.4800
9.896080 0.5160 0.5290 0.5380 0.5380 0.5290
9.930000 0.5160 0.5050 0.4950 0.4460 0.4050
9.964080 0.3600 0.3310 0.3000 0.2710 0.2680
9.998000 0.2680 0.2880 0.3230 0.3600 0.4000
10.032080 0.4390 0.4760 0.5380 0.5600 0.5700
10.066000 0.5790 0.5880 0.5940 0.6010 0.6130
10.100080 0.6220 0.6340 0.6440 0.6540 0.6680
10.134000 0.6730 0.6800 0.6880 0.6900 0.6990
10.168080 0.7020 0.7050 0.7090 0.7120 0.7140
10.202000 0.7170 0.7230 0.7280 0.7290 0.7310
10.236080 0.7330 0.7360 0.7360 0.7350 0.7360
10.271000 0.7380 0.7410 0.7480 0.7480 0.7480
10.305080 0.7480 0.7480 0.7480 0.7450 0.7450
10.339000 0.7470 0.7480 0.7500 0.7500 0.7530
10.373080 0.7550 0.7550 0.7570 0.7570 0.7570
10.407000 0.7570 0.7570 0.7570 0.7580 0.7600
10.441080 0.7620 0.7640 0.7640 0.7650 0.7690
10.475000 0.7690 0.7700 0.7700 0.7720 0.7770
10.509080 0.7770 0.7770 0.7770 0.7790 0.7820
10.543000 0.7820 0.7810 0.7810 0.7810 0.7810
10.577080 0.7810 0.7810 0.7820 0.7860 0.7890
10.611000 0.7890 0.7910 0.7910 0.7910 0.7910
10.645080 0.7910 0.7910 0.7910 0.7910 0.7910
10.679000 0.7910 0.7910 0.7890 0.7890 0.7880
10.713080 0.7880 0.7810 0.7770 0.7700 0.7640
10.747000 0.7580 0.7450 0.7330 0.7090 0.6750
10.781080 0.6340 0.6030 0.5240 0.4850 0.4440
10.816000 0.3570 0.3120 0.3110 0.3140 0.3520
10.850080 0.4030 0.4560 0.5640 0.6050 0.6390
10.884000 0.6680 0.6900 0.7110 0.7260 0.7400
10.918080 0.7500 0.7580 0.7670 0.7700 0.7770
10.952000 0.7770 0.7790 0.7820 0.7820 0.7860
10.986080 0.7860 0.7820 0.7670 0.7310 0.7020
11.020000 0.6760 0.6460 0.6080 0.5530 0.5170
11.054080 0.4800 0.4100 0.3500 0.3090 0.2800
11.088000 0.2710 0.2760 0.2870 0.3140 0.3410
11.122080 0.3690 0.3910 0.4050 0.4320 0.4590
11.156000 0.4850 0.5350 0.5570 0.5760 0.5940
11.190080 0.6100 0.6200 0.6340 0.6460 0.6540
11.224000 0.6580 0.6630 0.6680 0.6750 0.6830
11.258080 0.6950 0.7090 0.7240 0.7380 0.7480
11.292000 0.7620 0.7690 0.7760 0.7820 0.7910
11.326080 0.7980 0.8050 0.8080 0.8080 0.8080
11.361000 0.8100 0.8100 0.8110 0.8180 0.8200
11.395080 0.8200 0.8180 0.8150 0.8150 0.8110
11.429000 0.8110 0.8030 0.7940 0.7890 0.7820
11.463080 0.7740 0.7670 0.7580 0.7500 0.7500
11.497000 0.7580 0.7650 0.7690 0.7760 0.7790
11.531080 0.7890 0.8000 0.8100 0.8110 0.8170
11.565000 0.8180 0.8220 0.8270 0.8290 0.8300
11.599080 0.8270 0.8250 0.8200 0.8200 0.8200
11.633000 0.8200 0.8200 0.8200 0.8200 0.8200
11.667080 0.8180 0.8170 0.8170 0.8170 0.8110
11.701000 0.8080 0.8000 0.7940 0.7880 0.7770
11.735080 0.7690 0.7570 0.7410 0.7230 0.7020
11.769000 0.6780 0.6520 0.6230 0.5940 0.5640
11.803080 0.5290 0.5120 0.4950 0.4580 0.4410
11.837000 0.4170 0.4030 0.3880 0.3790 0.3700
11.871080 0.3550 0.3430 0.3240 0.3090 0.2950
11.906000 0.2900 0.2900 0.2990 0.3140 0.3350
11.940080 0.3530 0.3650 0.3770 0.3790 0.3810
11.974000 0.3790 0.3740 0.3600 0.3400 0.3230
12.008080 0.2970 0.2700 0.2560 0.2410 0.2370
12.042000 0.2390 0.2520 0.2730 0.2920 0.3160
12.076080 0.3330 0.3380 0.3380 0.3310 0.3140
12.110000 0.2990 0.2950 0.2970 0.3040 0.3120
12.144080 0.3170 0.3210 0.3230 0.3120 0.2800
12.178000 0.2510 0.2230 0.2000 0.1840 0.1740
12.212080 0.1480 0.1410 0.1410 0.1500 0.1740
12.246000 0.1940 0.2200 0.2420 0.2780 0.3040
12.280080 0.3400 0.3640 0.3740 0.3840 0.4000
12.314000 0.4150 0.4200 0.4340 0.4460 0.4590
12.348080 0.4710 0.4820 0.4920 0.5110 0.5190
12.382000 0.5290 0.5400 0.5520 0.5650 0.5810
12.416080 0.5960 0.6110 0.6250 0.6390 0.6490
12.451000 0.6610 0.6700 0.6800 0.6940 0.7040
12.485080 0.7170 0.7210 0.7230 0.7260 0.7260
12.519000 0.7190 0.7110 0.7000 0.6940 0.6900
12.553080 0.6900 0.6970 0.7210 0.7350 0.7570
12.587000 0.7740 0.7840 0.8060 0.8370 0.8460
12.621080 0.8520 0.8560 0.8590 0.8630 0.8680
12.655000 0.8700 0.8710 0.8710 0.8730 0.8730
12.689080 0.8750 0.8750 0.8760 0.8760 0.8780
12.723000 0.8780 0.8780 0.8760 0.8750 0.8730
12.757080 0.8730 0.8710 0.8710 0.8710 0.8710
12.791000 0.8710 0.8710 0.8730 0.8730 0.8750
12.825080 0.8760 0.8760 0.8750 0.8750 0.8750
12.859000 0.8750 0.8750 0.8760 0.8760 0.8820
12.893080 0.8850 0.8850 0.8780 0.8750 0.8700
12.927000 0.8680 0.8680 0.8660 0.8630 0.8560
12.961080 0.8490 0.8470 0.8460 0.8390 0.8320
12.996000 0.8250 0.8060 0.7930 0.7810 0.7720
13.030080 0.7620 0.7480 0.7330 0.7120 0.6830
13.064000 0.6540 0.6270 0.5890 0.5640 0.5290
13.098080 0.5040 0.4920 0.4780 0.4630 0.4460
13.132000 0.4410 0.4410 0.4490 0.4730 0.4830
13.166080 0.5360 0.5670 0.5940 0.6080 0.6130
13.200000 0.6300 0.6470 0.6630 0.6760 0.6760
13.234080 0.6760 0.6750 0.6700 0.6630 0.6560
13.268000 0.6470 0.6420 0.6250 0.6110 0.5940
13.302080 0.5820 0.5530 0.5190 0.5020 0.4830
13.336000 0.4490 0.4100 0.3690 0.3280 0.2850
13.370080 0.2490 0.2010 0.1690 0.1500 0.1380
13.404000 0.1140 0.0940 0.0850 0.0800 0.0800
13.438080 0.0820 0.0920 0.1040 0.1190 0.1350
13.473000 0.1520 0.1690 0.1930 0.2200 0.2510
13.507080 0.2830 0.3160 0.3480 0.3790 0.4060
13.541000 0.4290 0.4630 0.4970 0.5620 0.5890
13.575080 0.6150 0.6370 0.6580 0.6780 0.6970
13.609000 0.7140 0.7330 0.7470 0.7620 0.7740
13.643080 0.7820 0.7940 0.8030 0.8130 0.8180
13.677000 0.8250 0.8300 0.8370 0.8390 0.8460
13.711080 0.8490 0.8560 0.8660 0.8680 0.8680
13.745000 0.8660 0.8640 0.8640 0.8660 0.8700
13.779080 0.8760 0.8780 0.8800 0.8820 0.8830
13.813000 0.8830 0.8850 0.8850 0.8850 0.8850
13.847080 0.8850 0.8850 0.8850 0.8850 0.8850
13.881000 0.8870 0.8870 0.8850 0.8850 0.8830
13.915080 0.8830 0.8870 0.8880 0.8880 0.8900
13.949000 0.8920 0.8970 0.9000 0.9020 0.9040
13.983080 0.9040 0.9070 0.9090 0.9110 0.9140
14.018000 0.9160 0.9160 0.9160 0.9160 0.9190
14.052080 0.9260 0.9280 0.9280 0.9240 0.9240
14.086000 0.9240 0.9260 0.9290 0.9310 0.9330
14.120080 0.9350 0.9350 0.9360 0.9380 0.9380
14.154000 0.9380 0.9360 0.9350 0.9350 0.9350
14.188080 0.9350 0.9350 0.9350 0.9330 0.9330
14.222000 0.9330 0.9350 0.9350 0.9350 0.9350
14.256080 0.9350 0.9350 0.9260 0.9240 0.9240
14.290000 0.9190 0.9170 0.9170 0.9170 0.9170
14.324080 0.9160 0.9110 0.9050 0.8990 0.8990
14.358000 0.8950 0.8940 0.8880 0.8800 0.8700
14.392080 0.8520 0.8390 0.8230 0.8100 0.8030
14.426000 0.7890 0.7690 0.7430 0.7140 0.6830
14.460080 0.6510 0.6200 0.5890 0.5480 0.5040
14.494000 0.4870 0.4680 0.4390 0.4050 0.3820
14.528080 0.3620 0.3400 0.3350 0.3350 0.3400
14.563000 0.3550 0.3720 0.3980 0.4230 0.4490
14.597080 0.4780 0.5410 0.5770 0.6130 0.6510
14.631000 0.6730 0.6940 0.7120 0.7380 0.7640
14.665080 0.7810 0.7910 0.7980 0.8060 0.8150
14.699000 0.8270 0.8420 0.8470 0.8580 0.8640
14.733080 0.8640 0.8680 0.8700 0.8700 0.8710
14.767000 0.8710 0.8730 0.8750 0.8760 0.8780
14.801080 0.8800 0.8820 0.8870 0.8880 0.8880
14.835000 0.8880 0.8870 0.8870 0.8850 0.8850
14.869080 0.8850 0.8870 0.8880 0.8880 0.8870
14.903000 0.8870 0.8870 0.8870 0.8850 0.8850
14.937080 0.8830 0.8820 0.8800 0.8800 0.8780
14.971000 0.8780 0.8760 0.8750 0.8700 0.8610
15.005080 0.8520 0.8420 0.8350 0.8250 0.8170
15.039000 0.8030 0.7930 0.7810 0.7700 0.7650
15.073080 0.7600 0.7570 0.7550 0.7530 0.7520
15.108000 0.7520 0.7520 0.7530 0.7600 0.7650
15.142080 0.7720 0.7770 0.7820 0.7860 0.7960
15.176000 0.7980 0.8010 0.8060 0.8130 0.8170
15.210080 0.8180 0.8180 0.8180 0.8180 0.8200
15.244000 0.8230 0.8230 0.8230 0.8230 0.8230
15.278080 0.8200 0.8180 0.8150 0.8100 0.8080
15.312000 0.8060 0.8050 0.8010 0.7980 0.7940
15.346080 0.7930 0.7930 0.7940 0.7980 0.7980
15.380000 0.7960 0.7910 0.7880 0.7840 0.7840
15.414080 0.7840 0.7810 0.7790 0.7760 0.7740
15.448000 0.7740 0.7740 0.7740 0.7700 0.7690
15.482080 0.7670 0.7650 0.7640 0.7640 0.7620
15.516000 0.7640 0.7640 0.7640 0.7600 0.7580
15.550080 0.7570 0.7550 0.7550 0.7550 0.7530
15.584000 0.7530 0.7500 0.7470 0.7470 0.7470
15.618080 0.7470 0.7470 0.7470 0.7450 0.7410
15.653000 0.7360 0.7350 0.7350 0.7350 0.7330
15.687080 0.7350 0.7330 0.7310 0.7290 0.7280
15.721000 0.7240 0.7210 0.7170 0.7160 0.7140
15.755080 0.7070 0.7050 0.7050 0.7040 0.7000
15.789000 0.6990 0.6920 0.6870 0.6880 0.6870
15.823080 0.6880 0.6850 0.6820 0.6760 0.6750
15.857000 0.6750 0.6750 0.6730 0.6710 0.6710
15.891080 0.6710 0.6700 0.6700 0.6680 0.6680
15.925000 0.6640 0.6580 0.6580 0.6560 0.6540
15.959080 0.6520 0.6490 0.6470 0.6420 0.6350
15.993000 0.6420
##END=
