##TITLE=5-AMINO-7-OXO-1,2,3,4,6-PENTAZAINDENE
##JCAMP-DX=4.24
##DATA TYPE=INFRARED SPECTRUM
##CLASS=COBLENTZ
##ORIGIN=EASTMAN KODAK COMPANY, RESEARCH LABORATORIES, ROCHESTER, N.Y.
##OWNER=COBLENTZ SOCIETY
Collection (C) 2018 copyright by the U.S. Secretary of Commerce
on behalf of the United States of America. All rights reserved.
##DATE=Not specified, most likely prior to 1970
##NAMES=5-amino-7H-[1,2,3]triazolo[4,5-d]pyrimidin-7-one
##MOLFORM=C4 H2 N6 O
$$ J. ORG. CHEM. 26, 3834(1961), COMPOUND XVI
##MP=ABOVE 300 C
##SOURCE REFERENCE=COBLENTZ NO. 2140
##$NIST ID=B6002140
##$NIST SOURCE=COBLENTZ
##$NIST IMAGE=cob2140
##SPECTROMETER/DATA SYSTEM=Not specified, most likely a prism, grating, or hybrid spectrometer.
##STATE=SOLID (KBr PRESSING)
##SAMPLING PROCEDURE=TRANSMISSION
##RESOLUTION=4
##DATA PROCESSING=DIGITIZED BY NIST FROM HARD COPY
##XUNITS=MICROMETERS
##YUNITS=TRANSMITTANCE
##XFACTOR=1.000000
##YFACTOR=1
##DELTAX=000.007011
##FIRSTX=2.033
##LASTX=15.9631
##FIRSTY=0.804
##MAXX=15.9631
##MINX=2.033
##MAXY=0.891
##MINY=0.181
##NPOINTS=1988
##XYDATA=(X++(Y..Y))
2.033000 0.8040 0.8040 0.8020 0.8020 0.8000
2.068072 0.8000 0.8000 0.8000 0.8000 0.8000
2.103000 0.8000 0.8000 0.8000 0.8020 0.8020
2.138072 0.8020 0.8040 0.8040 0.8040 0.8070
2.173000 0.8070 0.8090 0.8090 0.8110 0.8110
2.208072 0.8110 0.8090 0.8090 0.8110 0.8110
2.243000 0.8110 0.8110 0.8110 0.8110 0.8110
2.278072 0.8120 0.8120 0.8140 0.8140 0.8140
2.313000 0.8140 0.8160 0.8160 0.8160 0.8180
2.348072 0.8180 0.8180 0.8180 0.8190 0.8190
2.383000 0.8190 0.8190 0.8190 0.8190 0.8190
2.418072 0.8190 0.8190 0.8210 0.8210 0.8210
2.453000 0.8190 0.8190 0.8190 0.8190 0.8190
2.488072 0.8190 0.8210 0.8230 0.8250 0.8260
2.523000 0.8260 0.8260 0.8300 0.8300 0.8300
2.558072 0.8320 0.8320 0.8320 0.8320 0.8330
2.593000 0.8330 0.8370 0.8390 0.8400 0.8400
2.628072 0.8420 0.8440 0.8460 0.8460 0.8470
2.663000 0.8470 0.8470 0.8470 0.8460 0.8440
2.698072 0.8390 0.8370 0.8260 0.8210 0.8020
2.734000 0.7970 0.7830 0.7530 0.7360 0.7180
2.769072 0.7010 0.6830 0.6660 0.6480 0.6310
2.804000 0.6130 0.5970 0.5800 0.5640 0.5500
2.839072 0.5340 0.5200 0.5050 0.4960 0.4870
2.874000 0.4800 0.4730 0.4540 0.4490 0.4420
2.909072 0.4300 0.4170 0.4070 0.3980 0.3860
2.944000 0.3680 0.3560 0.3530 0.3530 0.3540
2.979072 0.3650 0.3790 0.3930 0.4070 0.4190
3.014000 0.4310 0.4440 0.4540 0.4680 0.4770
3.049072 0.4800 0.4820 0.4820 0.4790 0.4720
3.084000 0.4630 0.4540 0.4510 0.4400 0.4240
3.119072 0.4230 0.4160 0.4140 0.4140 0.4160
3.154000 0.4190 0.4230 0.4260 0.4310 0.4330
3.189072 0.4330 0.4380 0.4440 0.4510 0.4510
3.224000 0.4520 0.4520 0.4540 0.4540 0.4580
3.259072 0.4610 0.4650 0.4720 0.4800 0.4870
3.294000 0.4940 0.5010 0.5130 0.5240 0.5290
3.329072 0.5310 0.5310 0.5290 0.5270 0.5260
3.365000 0.5170 0.5080 0.5000 0.4940 0.4890
3.400072 0.4840 0.4790 0.4770 0.4730 0.4730
3.435000 0.4730 0.4730 0.4730 0.4750 0.4750
3.470072 0.4750 0.4770 0.4770 0.4790 0.4800
3.505000 0.4980 0.5080 0.5190 0.5220 0.5260
3.540072 0.5260 0.5270 0.5270 0.5270 0.5270
3.575000 0.5270 0.5260 0.5260 0.5260 0.5290
3.610072 0.5290 0.5340 0.5380 0.5430 0.5480
3.645000 0.5550 0.5590 0.5680 0.5730 0.5800
3.680072 0.5850 0.5870 0.5900 0.5960 0.6010
3.715000 0.6040 0.6150 0.6180 0.6270 0.6310
3.750072 0.6340 0.6360 0.6390 0.6430 0.6480
3.785000 0.6550 0.6660 0.6800 0.6850 0.6900
3.820072 0.6950 0.7010 0.7080 0.7130 0.7180
3.855000 0.7230 0.7290 0.7340 0.7370 0.7410
3.890072 0.7460 0.7480 0.7500 0.7510 0.7560
3.925000 0.7600 0.7630 0.7650 0.7650 0.7670
3.960072 0.7690 0.7700 0.7760 0.7770 0.7790
3.996000 0.7810 0.7840 0.7860 0.7880 0.7900
4.031072 0.7910 0.7930 0.7970 0.7970 0.7980
4.066000 0.8000 0.8040 0.8050 0.8070 0.8110
4.101072 0.8140 0.8180 0.8190 0.8210 0.8230
4.136000 0.8230 0.8230 0.8250 0.8250 0.8260
4.171072 0.8260 0.8280 0.8300 0.8320 0.8330
4.206000 0.8350 0.8370 0.8390 0.8420 0.8460
4.241072 0.8470 0.8490 0.8530 0.8560 0.8610
4.276000 0.8630 0.8670 0.8670 0.8650 0.8600
4.311072 0.8580 0.8580 0.8560 0.8540 0.8510
4.346000 0.8490 0.8470 0.8470 0.8470 0.8490
4.381072 0.8530 0.8560 0.8600 0.8600 0.8610
4.416000 0.8610 0.8610 0.8610 0.8610 0.8630
4.451072 0.8630 0.8630 0.8630 0.8650 0.8650
4.486000 0.8650 0.8650 0.8650 0.8670 0.8670
4.521072 0.8670 0.8670 0.8680 0.8680 0.8680
4.556000 0.8680 0.8680 0.8680 0.8680 0.8680
4.591072 0.8680 0.8700 0.8700 0.8720 0.8700
4.627000 0.8700 0.8700 0.8700 0.8700 0.8700
4.662072 0.8700 0.8700 0.8700 0.8700 0.8720
4.697000 0.8720 0.8720 0.8740 0.8740 0.8740
4.732072 0.8740 0.8740 0.8740 0.8740 0.8740
4.767000 0.8740 0.8740 0.8770 0.8770 0.8770
4.802072 0.8770 0.8770 0.8790 0.8790 0.8790
4.837000 0.8790 0.8790 0.8790 0.8810 0.8790
4.872072 0.8790 0.8790 0.8790 0.8790 0.8790
4.907000 0.8790 0.8810 0.8810 0.8810 0.8820
4.942072 0.8820 0.8840 0.8860 0.8860 0.8880
4.977000 0.8890 0.8910 0.8910 0.8910 0.8910
5.012072 0.8910 0.8890 0.8880 0.8860 0.8820
5.047000 0.8820 0.8810 0.8810 0.8820 0.8820
5.082072 0.8840 0.8860 0.8860 0.8820 0.8820
5.117000 0.8810 0.8810 0.8810 0.8810 0.8810
5.152072 0.8810 0.8810 0.8810 0.8820 0.8820
5.187000 0.8820 0.8820 0.8810 0.8790 0.8790
5.222072 0.8790 0.8770 0.8770 0.8770 0.8750
5.257000 0.8740 0.8720 0.8700 0.8700 0.8700
5.292072 0.8700 0.8720 0.8740 0.8770 0.8770
5.328000 0.8770 0.8770 0.8770 0.8790 0.8790
5.363072 0.8790 0.8790 0.8790 0.8790 0.8770
5.398000 0.8770 0.8770 0.8750 0.8750 0.8750
5.433072 0.8740 0.8740 0.8740 0.8740 0.8700
5.468000 0.8700 0.8700 0.8700 0.8680 0.8670
5.503072 0.8630 0.8600 0.8580 0.8540 0.8540
5.538000 0.8490 0.8490 0.8490 0.8510 0.8540
5.573072 0.8540 0.8560 0.8560 0.8540 0.8490
5.608000 0.8470 0.8460 0.8390 0.8370 0.8370
5.643072 0.8350 0.8320 0.8280 0.8210 0.8160
5.678000 0.8090 0.8020 0.7980 0.7950 0.7860
5.713072 0.7810 0.7760 0.7630 0.7440 0.7320
5.748000 0.6950 0.6740 0.6380 0.6320 0.5990
5.783072 0.5380 0.4580 0.4170 0.3930 0.3880
5.818000 0.3810 0.3770 0.3740 0.3680 0.3530
5.853072 0.3280 0.3040 0.3000 0.2950 0.2930
5.888000 0.2930 0.2930 0.2930 0.2910 0.2900
5.923072 0.2860 0.2840 0.2860 0.2880 0.2910
5.959000 0.3000 0.3040 0.3040 0.2930 0.2740
5.994072 0.2550 0.2390 0.2230 0.2090 0.1920
6.029000 0.1830 0.1830 0.1810 0.1810 0.1880
6.064072 0.2010 0.2130 0.2250 0.2430 0.2560
6.099000 0.2720 0.2830 0.2930 0.3070 0.3300
6.134072 0.3390 0.3470 0.3580 0.3630 0.3630
6.169000 0.3600 0.3560 0.3490 0.3390 0.3070
6.204072 0.3020 0.2980 0.2970 0.2900 0.2880
6.239000 0.2880 0.2860 0.2880 0.2980 0.3120
6.274072 0.3390 0.3630 0.3930 0.4120 0.4420
6.309000 0.4680 0.4930 0.5010 0.5130 0.5310
6.344072 0.5430 0.5540 0.5640 0.5690 0.5710
6.379000 0.5710 0.5730 0.5730 0.5730 0.5730
6.414072 0.5750 0.5800 0.5830 0.5870 0.5920
6.449000 0.6010 0.6030 0.6080 0.6100 0.6130
6.484072 0.6170 0.6180 0.6180 0.6180 0.6170
6.519000 0.6170 0.6180 0.6250 0.6320 0.6410
6.554072 0.6530 0.6640 0.6740 0.6850 0.6990
6.590000 0.7110 0.7250 0.7360 0.7370 0.7440
6.625072 0.7480 0.7530 0.7580 0.7600 0.7600
6.660000 0.7580 0.7560 0.7410 0.7230 0.7110
6.695072 0.6880 0.6870 0.6880 0.7130 0.7340
6.730000 0.7480 0.7530 0.7600 0.7630 0.7650
6.765072 0.7670 0.7690 0.7700 0.7720 0.7720
6.800000 0.7740 0.7740 0.7720 0.7670 0.7670
6.835072 0.7630 0.7600 0.7530 0.7500 0.7440
6.870000 0.7300 0.6900 0.6480 0.6390 0.6390
6.905072 0.6410 0.6520 0.6690 0.6940 0.6990
6.940000 0.7010 0.7080 0.7130 0.7200 0.7250
6.975072 0.7300 0.7360 0.7410 0.7460 0.7500
7.010000 0.7550 0.7580 0.7580 0.7600 0.7620
7.045072 0.7620 0.7630 0.7630 0.7620 0.7510
7.080000 0.7440 0.7320 0.7220 0.7090 0.7020
7.115072 0.6990 0.6900 0.6800 0.6690 0.6600
7.150000 0.6570 0.6520 0.6500 0.6450 0.6380
7.185072 0.6320 0.6200 0.6060 0.5970 0.5960
7.221000 0.5940 0.5900 0.5870 0.5850 0.5820
7.256072 0.5800 0.5800 0.5830 0.5900 0.5970
7.291000 0.6060 0.6150 0.6180 0.6220 0.6270
7.326072 0.6320 0.6360 0.6410 0.6480 0.6550
7.361000 0.6660 0.6760 0.6830 0.6870 0.6920
7.396072 0.6990 0.7110 0.7300 0.7410 0.7460
7.431000 0.7500 0.7500 0.7530 0.7580 0.7620
7.466072 0.7690 0.7790 0.7860 0.7900 0.7910
7.501000 0.7950 0.7950 0.7970 0.7970 0.7980
7.536072 0.7980 0.8000 0.8000 0.8020 0.8020
7.571000 0.8020 0.8040 0.8040 0.8050 0.8050
7.606072 0.8050 0.8050 0.8050 0.8050 0.8040
7.641000 0.8000 0.7970 0.7880 0.7830 0.7760
7.676072 0.7650 0.7460 0.7290 0.7040 0.6880
7.711000 0.6640 0.6530 0.6460 0.6450 0.6460
7.746072 0.6590 0.6800 0.6950 0.7040 0.7130
7.781000 0.7200 0.7290 0.7390 0.7410 0.7430
7.816072 0.7440 0.7460 0.7460 0.7460 0.7460
7.851000 0.7410 0.7390 0.7360 0.7300 0.7290
7.886072 0.7290 0.7290 0.7300 0.7300 0.7300
7.922000 0.7290 0.7290 0.7300 0.7320 0.7340
7.957072 0.7370 0.7390 0.7410 0.7440 0.7460
7.992000 0.7480 0.7480 0.7500 0.7500 0.7500
8.027072 0.7500 0.7500 0.7480 0.7460 0.7440
8.062000 0.7440 0.7440 0.7440 0.7440 0.7430
8.097072 0.7430 0.7440 0.7460 0.7500 0.7550
8.132000 0.7600 0.7650 0.7720 0.7770 0.7790
8.167072 0.7810 0.7840 0.7900 0.7910 0.7910
8.202000 0.7930 0.7930 0.7910 0.7880 0.7860
8.237072 0.7810 0.7720 0.7630 0.7510 0.7440
8.272000 0.7320 0.7270 0.7200 0.7110 0.7010
8.307072 0.6940 0.6870 0.6800 0.6780 0.6780
8.342000 0.6780 0.6780 0.6810 0.6880 0.6880
8.377072 0.6900 0.6940 0.6970 0.7010 0.7040
8.412000 0.7040 0.7110 0.7160 0.7220 0.7250
8.447072 0.7270 0.7270 0.7270 0.7270 0.7270
8.482000 0.7270 0.7270 0.7230 0.7200 0.7180
8.517072 0.7150 0.7080 0.7010 0.6970 0.6950
8.553000 0.6950 0.6950 0.6950 0.6950 0.6950
8.588072 0.6950 0.6950 0.6950 0.6950 0.6950
8.623000 0.6970 0.6970 0.6990 0.7020 0.7080
8.658072 0.7110 0.7150 0.7160 0.7160 0.7160
8.693000 0.7130 0.7110 0.7010 0.6950 0.6870
8.728072 0.6810 0.6780 0.6760 0.6740 0.6760
8.763000 0.6800 0.6870 0.6940 0.6970 0.7020
8.798072 0.7060 0.7110 0.7160 0.7200 0.7250
8.833000 0.7270 0.7290 0.7290 0.7300 0.7320
8.868072 0.7320 0.7300 0.7290 0.7290 0.7270
8.903000 0.7270 0.7290 0.7290 0.7300 0.7320
8.938072 0.7300 0.7290 0.7270 0.7270 0.7270
8.973000 0.7270 0.7290 0.7300 0.7300 0.7300
9.008072 0.7320 0.7320 0.7340 0.7360 0.7360
9.043000 0.7370 0.7370 0.7370 0.7390 0.7430
9.078072 0.7460 0.7480 0.7480 0.7480 0.7460
9.113000 0.7480 0.7480 0.7480 0.7480 0.7500
9.148072 0.7500 0.7510 0.7550 0.7560 0.7600
9.184000 0.7600 0.7620 0.7620 0.7630 0.7630
9.219072 0.7670 0.7670 0.7690 0.7700 0.7720
9.254000 0.7740 0.7760 0.7770 0.7770 0.7770
9.289072 0.7770 0.7790 0.7790 0.7810 0.7840
9.324000 0.7860 0.7880 0.7880 0.7880 0.7880
9.359072 0.7880 0.7880 0.7900 0.7900 0.7930
9.394000 0.7950 0.7970 0.7970 0.7970 0.7970
9.429072 0.7970 0.7970 0.7970 0.7970 0.7950
9.464000 0.7910 0.7910 0.7910 0.7900 0.7900
9.499072 0.7900 0.7900 0.7900 0.7880 0.7860
9.534000 0.7840 0.7840 0.7840 0.7840 0.7840
9.569072 0.7860 0.7860 0.7860 0.7840 0.7840
9.604000 0.7840 0.7830 0.7810 0.7790 0.7760
9.639072 0.7720 0.7700 0.7690 0.7630 0.7620
9.674000 0.7620 0.7600 0.7600 0.7580 0.7600
9.709072 0.7620 0.7620 0.7630 0.7670 0.7700
9.744000 0.7740 0.7770 0.7790 0.7790 0.7790
9.779072 0.7810 0.7810 0.7840 0.7840 0.7860
9.815000 0.7860 0.7880 0.7910 0.7950 0.7970
9.850072 0.8000 0.8020 0.8020 0.8040 0.8040
9.885000 0.8050 0.8050 0.8090 0.8120 0.8120
9.920072 0.8110 0.8090 0.8050 0.8050 0.8040
9.955000 0.8040 0.8020 0.8020 0.8000 0.7980
9.990072 0.7980 0.7970 0.7970 0.7970 0.7970
10.025000 0.7950 0.7950 0.7930 0.7930 0.7910
10.060072 0.7910 0.7900 0.7900 0.7880 0.7860
10.095000 0.7830 0.7770 0.7700 0.7630 0.7500
10.130072 0.7300 0.7090 0.6940 0.6760 0.6690
10.165000 0.6620 0.6570 0.6530 0.6520 0.6550
10.200072 0.6690 0.6950 0.7160 0.7340 0.7500
10.235000 0.7620 0.7720 0.7810 0.7900 0.7980
10.270072 0.8000 0.8020 0.8040 0.8050 0.8140
10.305000 0.8180 0.8190 0.8190 0.8210 0.8210
10.340072 0.8230 0.8250 0.8260 0.8300 0.8300
10.375000 0.8300 0.8320 0.8330 0.8350 0.8370
10.410072 0.8400 0.8400 0.8420 0.8420 0.8420
10.446000 0.8420 0.8440 0.8440 0.8420 0.8400
10.481072 0.8400 0.8390 0.8390 0.8400 0.8420
10.516000 0.8420 0.8420 0.8440 0.8420 0.8440
10.551072 0.8440 0.8440 0.8460 0.8460 0.8460
10.586000 0.8460 0.8460 0.8460 0.8460 0.8460
10.621072 0.8460 0.8460 0.8440 0.8440 0.8440
10.656000 0.8420 0.8400 0.8400 0.8400 0.8420
10.691072 0.8420 0.8420 0.8420 0.8420 0.8420
10.726000 0.8420 0.8420 0.8420 0.8420 0.8420
10.761072 0.8420 0.8420 0.8420 0.8420 0.8400
10.796000 0.8400 0.8370 0.8350 0.8350 0.8330
10.831072 0.8320 0.8300 0.8260 0.8210 0.8190
10.866000 0.8190 0.8140 0.8110 0.8090 0.8070
10.901072 0.8050 0.8040 0.8020 0.8020 0.8000
10.936000 0.7980 0.7970 0.7950 0.7930 0.7910
10.971072 0.7900 0.7860 0.7840 0.7790 0.7760
11.006000 0.7740 0.7700 0.7690 0.7670 0.7670
11.041072 0.7650 0.7630 0.7620 0.7620 0.7620
11.076000 0.7600 0.7600 0.7560 0.7530 0.7530
11.111072 0.7510 0.7510 0.7500 0.7500 0.7500
11.147000 0.7500 0.7500 0.7500 0.7500 0.7480
11.182072 0.7460 0.7460 0.7460 0.7430 0.7430
11.217000 0.7430 0.7430 0.7440 0.7440 0.7440
11.252072 0.7480 0.7500 0.7500 0.7500 0.7500
11.287000 0.7500 0.7500 0.7500 0.7500 0.7500
11.322072 0.7440 0.7440 0.7430 0.7410 0.7390
11.357000 0.7390 0.7390 0.7390 0.7410 0.7410
11.392072 0.7430 0.7440 0.7460 0.7480 0.7500
11.427000 0.7510 0.7530 0.7550 0.7560 0.7560
11.462072 0.7560 0.7560 0.7560 0.7560 0.7560
11.497000 0.7530 0.7510 0.7480 0.7440 0.7410
11.532072 0.7340 0.7290 0.7230 0.7220 0.7150
11.567000 0.7020 0.6940 0.6920 0.6870 0.6850
11.602072 0.6850 0.6870 0.6880 0.6900 0.6940
11.637000 0.6990 0.6990 0.6990 0.6940 0.6940
11.672072 0.6920 0.6900 0.6870 0.6830 0.6830
11.707000 0.6810 0.6810 0.6800 0.6800 0.6780
11.742072 0.6780 0.6780 0.6800 0.6810 0.6880
11.778000 0.6920 0.6940 0.6950 0.6970 0.7010
11.813072 0.7020 0.7040 0.7060 0.7080 0.7080
11.848000 0.7110 0.7150 0.7160 0.7200 0.7230
11.883072 0.7300 0.7300 0.7320 0.7360 0.7360
11.918000 0.7370 0.7410 0.7440 0.7500 0.7510
11.953072 0.7530 0.7550 0.7580 0.7600 0.7620
11.988000 0.7630 0.7650 0.7690 0.7720 0.7740
12.023072 0.7770 0.7790 0.7830 0.7860 0.7880
12.058000 0.7880 0.7880 0.7900 0.7910 0.7930
12.093072 0.7930 0.7930 0.7930 0.7910 0.7910
12.128000 0.7910 0.7910 0.7910 0.7930 0.7930
12.163072 0.7930 0.7930 0.7930 0.7930 0.7930
12.198000 0.7930 0.7950 0.7950 0.7950 0.7970
12.233072 0.7970 0.7980 0.7980 0.8000 0.8000
12.268000 0.8000 0.8000 0.8000 0.8020 0.8000
12.303072 0.8000 0.8000 0.8000 0.7980 0.7980
12.338000 0.7980 0.7980 0.7980 0.7980 0.7970
12.373072 0.7970 0.7950 0.7950 0.7950 0.7930
12.409000 0.7910 0.7910 0.7910 0.7910 0.7910
12.444072 0.7910 0.7910 0.7910 0.7910 0.7910
12.479000 0.7910 0.7900 0.7880 0.7880 0.7880
12.514072 0.7860 0.7840 0.7810 0.7760 0.7740
12.549000 0.7690 0.7630 0.7600 0.7550 0.7500
12.584072 0.7390 0.7360 0.7220 0.7130 0.7130
12.619000 0.7130 0.7130 0.7130 0.7150 0.7200
12.654072 0.7220 0.7220 0.7220 0.7220 0.7220
12.689000 0.7220 0.7220 0.7230 0.7250 0.7300
12.724072 0.7340 0.7440 0.7510 0.7530 0.7530
12.759000 0.7560 0.7620 0.7630 0.7690 0.7740
12.794072 0.7760 0.7790 0.7790 0.7770 0.7770
12.829000 0.7740 0.7740 0.7720 0.7720 0.7720
12.864072 0.7720 0.7740 0.7740 0.7720 0.7720
12.899000 0.7720 0.7700 0.7700 0.7690 0.7670
12.934072 0.7670 0.7670 0.7670 0.7650 0.7650
12.969000 0.7650 0.7650 0.7650 0.7630 0.7630
13.004072 0.7600 0.7560 0.7550 0.7530 0.7530
13.040000 0.7510 0.7460 0.7430 0.7410 0.7370
13.075072 0.7370 0.7360 0.7360 0.7360 0.7340
13.110000 0.7320 0.7320 0.7300 0.7290 0.7290
13.145072 0.7270 0.7250 0.7250 0.7250 0.7250
13.180000 0.7270 0.7270 0.7290 0.7290 0.7290
13.215072 0.7300 0.7320 0.7320 0.7340 0.7340
13.250000 0.7340 0.7340 0.7340 0.7340 0.7340
13.285072 0.7360 0.7340 0.7340 0.7340 0.7370
13.320000 0.7410 0.7430 0.7440 0.7460 0.7480
13.355072 0.7500 0.7500 0.7510 0.7510 0.7530
13.390000 0.7530 0.7550 0.7580 0.7580 0.7620
13.425072 0.7630 0.7670 0.7690 0.7700 0.7700
13.460000 0.7720 0.7720 0.7720 0.7720 0.7720
13.495072 0.7720 0.7700 0.7700 0.7690 0.7690
13.530000 0.7670 0.7690 0.7690 0.7700 0.7700
13.565072 0.7700 0.7700 0.7700 0.7740 0.7740
13.600000 0.7770 0.7810 0.7810 0.7830 0.7830
13.635072 0.7830 0.7840 0.7840 0.7840 0.7860
13.670000 0.7880 0.7910 0.7910 0.7930 0.7950
13.705072 0.7980 0.8000 0.8000 0.8020 0.8020
13.741000 0.8020 0.8020 0.8000 0.8000 0.8000
13.776072 0.8000 0.8000 0.8000 0.8000 0.8000
13.811000 0.8000 0.8020 0.8020 0.8040 0.8040
13.846072 0.8040 0.8040 0.8040 0.8040 0.8020
13.881000 0.8000 0.7980 0.7970 0.7950 0.7950
13.916072 0.7930 0.7910 0.7880 0.7860 0.7830
13.951000 0.7830 0.7830 0.7840 0.7880 0.7860
13.986072 0.7840 0.7830 0.7810 0.7790 0.7770
14.021000 0.7760 0.7720 0.7700 0.7650 0.7600
14.056072 0.7530 0.7440 0.7410 0.7320 0.7230
14.091000 0.7160 0.7130 0.7020 0.6990 0.6900
14.126072 0.6850 0.6810 0.6800 0.6760 0.6740
14.161000 0.6710 0.6690 0.6640 0.6620 0.6570
14.196072 0.6550 0.6460 0.6380 0.6320 0.6290
14.231000 0.6220 0.6150 0.6060 0.6030 0.5970
14.266072 0.5890 0.5820 0.5730 0.5690 0.5610
14.301000 0.5550 0.5500 0.5430 0.5380 0.5310
14.336072 0.5270 0.5240 0.5200 0.5190 0.5170
14.372000 0.5170 0.5170 0.5190 0.5200 0.5270
14.407072 0.5360 0.5480 0.5620 0.5780 0.5920
14.442000 0.6030 0.6180 0.6310 0.6390 0.6520
14.477072 0.6670 0.6740 0.6830 0.6900 0.6940
14.512000 0.6990 0.7010 0.7040 0.7040 0.7060
14.547072 0.7080 0.7090 0.7110 0.7110 0.7130
14.582000 0.7150 0.7150 0.7150 0.7150 0.7150
14.617072 0.7160 0.7180 0.7200 0.7200 0.7200
14.652000 0.7220 0.7220 0.7220 0.7220 0.7220
14.687072 0.7220 0.7220 0.7220 0.7220 0.7220
14.722000 0.7230 0.7230 0.7250 0.7270 0.7270
14.757072 0.7290 0.7320 0.7320 0.7320 0.7320
14.792000 0.7320 0.7320 0.7340 0.7340 0.7360
14.827072 0.7370 0.7390 0.7390 0.7390 0.7410
14.862000 0.7430 0.7430 0.7430 0.7430 0.7440
14.897072 0.7460 0.7480 0.7510 0.7530 0.7560
14.932000 0.7600 0.7620 0.7630 0.7650 0.7650
14.967072 0.7650 0.7650 0.7620 0.7620 0.7600
15.003000 0.7560 0.7550 0.7530 0.7510 0.7500
15.038072 0.7500 0.7510 0.7510 0.7530 0.7550
15.073000 0.7550 0.7560 0.7560 0.7560 0.7560
15.108072 0.7550 0.7550 0.7550 0.7550 0.7550
15.143000 0.7550 0.7550 0.7550 0.7550 0.7550
15.178072 0.7550 0.7550 0.7550 0.7550 0.7550
15.213000 0.7550 0.7560 0.7560 0.7560 0.7560
15.248072 0.7560 0.7560 0.7560 0.7580 0.7580
15.283000 0.7580 0.7600 0.7600 0.7600 0.7600
15.318072 0.7620 0.7630 0.7630 0.7650 0.7670
15.353000 0.7690 0.7690 0.7690 0.7690 0.7690
15.388072 0.7700 0.7700 0.7700 0.7720 0.7720
15.423000 0.7720 0.7720 0.7720 0.7720 0.7720
15.458072 0.7720 0.7720 0.7700 0.7700 0.7700
15.493000 0.7700 0.7700 0.7700 0.7720 0.7720
15.528072 0.7720 0.7740 0.7740 0.7740 0.7740
15.563000 0.7740 0.7740 0.7740 0.7740 0.7740
15.598072 0.7720 0.7720 0.7720 0.7720 0.7720
15.634000 0.7720 0.7720 0.7720 0.7720 0.7720
15.669072 0.7720 0.7720 0.7720 0.7720 0.7740
15.704000 0.7740 0.7740 0.7740 0.7740 0.7740
15.739072 0.7760 0.7760 0.7760 0.7770 0.7770
15.774000 0.7790 0.7830 0.7840 0.7840 0.7840
15.809072 0.7840 0.7830 0.7830 0.7830 0.7840
15.844000 0.7840 0.7840 0.7840 0.7840 0.7860
15.879072 0.7860 0.7840 0.7840 0.7830 0.7830
15.914000 0.7830 0.7830 0.7830 0.7830 0.7830
15.949072 0.7830 0.7830 0.7830
##END=
