##TITLE=Butyric acid, 2-amino-, L-(+)-
##JCAMP-DX=4.24
##DATA TYPE=INFRARED SPECTRUM
##CLASS=COBLENTZ III
##ORIGIN=DOW CHEMICAL COMPANY
##OWNER=Copyright (C) 1987 by the Coblentz Society
Collection (C) 2018 copyright by the U.S. Secretary of Commerce
on behalf of the United States of America. All rights reserved.
##DATE=1966/03/31
##NAMES=2-aminobutanoic acid
##MOLFORM=C4 H9 N O2
##SOURCE REFERENCE=COBLENTZ NO. 8156
##$NIST ID=B6008156
##$NIST SOURCE=COBLENTZ
##$NIST IMAGE=cob8156
##SPECTROMETER/DATA SYSTEM=DOW KBr FOREPRISM-GRATING
##INSTRUMENT PARAMETERS=BLAZED AT 3.5, 12.0, 20.0 MICRON AND CHANGED AT 5.0, 7.5, 14.9 MICRON
##STATE=SOLID (SPLIT MULL), FLUOROLUBE FOR 3800-1330 CM^-^1, NUJOL FOR 1330-400 CM^-^1
##SAMPLING PROCEDURE=TRANSMISSION
##RESOLUTION=2
##DATA PROCESSING=DIGITIZED BY COBLENTZ SOCIETY (BATCH II) FROM HARD COPY
##XUNITS=1/CM
##YUNITS=TRANSMITTANCE
##XFACTOR=1.0
##YFACTOR=1
##FIRSTX=385
##LASTX=3800
##FIRSTY=0.4778
##MAXX=3800
##MINX=385
##MAXY=0.9534
##MINY=0.0316
##NPOINTS=3416
##XYDATA=(X++(Y..Y))
385.000000 0.4778 0.4762 0.4746 0.4726 0.4704
390.000000 0.4677 0.4650 0.4622 0.4586 0.4549
395.000000 0.4513 0.4476 0.4440 0.4408 0.4377
400.000000 0.4346 0.4315 0.4289 0.4274 0.4260
405.000000 0.4245 0.4231 0.4220 0.4223 0.4229
410.000000 0.4241 0.4257 0.4275 0.4335 0.4475
415.000000 0.4616 0.4756 0.4897 0.5037 0.5178
420.000000 0.5319 0.5459 0.5600 0.5757 0.5884
425.000000 0.6105 0.6425 0.6603 0.6737 0.6852
430.000000 0.6950 0.6995 0.7040 0.7076 0.7099
435.000000 0.7123 0.7139 0.7149 0.7154 0.7153
440.000000 0.7150 0.7174 0.7117 0.7075 0.7036
445.000000 0.6996 0.6954 0.6904 0.6841 0.6763
450.000000 0.6664 0.6566 0.6468 0.6372 0.6276
455.000000 0.6198 0.6143 0.6088 0.6056 0.6035
460.000000 0.6039 0.6035 0.6060 0.6080 0.6106
465.000000 0.6137 0.6167 0.6198 0.6244 0.6304
470.000000 0.6384 0.6485 0.6595 0.6727 0.6865
475.000000 0.6985 0.7069 0.7121 0.7166 0.7207
480.000000 0.7317 0.7415 0.7482 0.7545 0.7584
485.000000 0.7623 0.7663 0.7691 0.7712 0.7733
490.000000 0.7746 0.7755 0.7764 0.7773 0.7774
495.000000 0.7775 0.7780 0.7774 0.7770 0.7766
500.000000 0.7761 0.7752 0.7744 0.7734 0.7720
505.000000 0.7705 0.7683 0.7662 0.7640 0.7607
510.000000 0.7573 0.7537 0.7494 0.7451 0.7379
515.000000 0.7298 0.7193 0.7079 0.6932 0.6779
520.000000 0.6623 0.5502 0.4884 0.4267 0.3649
525.000000 0.3032 0.2649 0.2653 0.2653 0.2796
530.000000 0.2966 0.3032 0.3037 0.3043 0.3049
535.000000 0.3063 0.3094 0.3180 0.3316 0.3437
540.000000 0.3932 0.4325 0.4717 0.5109 0.5501
545.000000 0.5894 0.6286 0.6678 0.7486 0.7671
550.000000 0.7846 0.7993 0.8111 0.8210 0.8299
555.000000 0.8356 0.8414 0.8471 0.8530 0.8588
560.000000 0.8647 0.8682 0.8715 0.8749 0.8775
565.000000 0.8797 0.8819 0.8841 0.8863 0.8879
570.000000 0.8893 0.8906 0.8920 0.8933 0.8942
575.000000 0.8949 0.8956 0.8963 0.8970 0.8977
580.000000 0.8983 0.8985 0.8986 0.8988 0.8990
585.000000 0.8992 0.8998 0.9004 0.9010 0.9016
590.000000 0.9023 0.9036 0.9054 0.9073 0.9110
595.000000 0.9153 0.9215 0.9277 0.9339 0.9384
600.000000 0.9421 0.9452 0.9472 0.9492 0.9500
605.000000 0.9505 0.9507 0.9505 0.9534 0.9501
610.000000 0.9496 0.9488 0.9481 0.9474 0.9461
615.000000 0.9446 0.9429 0.9399 0.9368 0.9338
620.000000 0.9292 0.9237 0.9158 0.9082 0.9011
625.000000 0.8939 0.8790 0.8641 0.8491 0.8341
630.000000 0.8192 0.8042 0.7892 0.7743 0.7632
635.000000 0.7599 0.7572 0.7574 0.7576 0.7634
640.000000 0.7704 0.7777 0.7844 0.7895 0.7923
645.000000 0.7945 0.7951 0.7950 0.7955 0.7915
650.000000 0.7820 0.7696 0.7581 0.7279 0.7167
655.000000 0.7019 0.6618 0.6350 0.6067 0.5783
660.000000 0.5500 0.5274 0.5281 0.5289 0.6744
665.000000 0.6810 0.6846 0.6890 0.7095 0.7640
670.000000 0.8185 0.8641 0.8731 0.8825 0.8909
675.000000 0.8977 0.9018 0.9042 0.9042 0.9037
680.000000 0.9053 0.9019 0.9005 0.8982 0.8952
685.000000 0.8911 0.8863 0.8793 0.8730 0.8704
690.000000 0.8711 0.8724 0.8761 0.8807 0.8882
695.000000 0.8942 0.8987 0.9029 0.9068 0.9085
700.000000 0.9094 0.9093 0.9087 0.9105 0.9072
705.000000 0.9061 0.9040 0.9019 0.8992 0.8964
710.000000 0.8935 0.8872 0.8812 0.8722 0.8612
715.000000 0.8506 0.8397 0.8229 0.8093 0.7999
720.000000 0.8014 0.8023 0.8088 0.8187 0.8289
725.000000 0.8383 0.8449 0.8515 0.8575 0.8635
730.000000 0.8681 0.8715 0.8749 0.8774 0.8796
735.000000 0.8816 0.8829 0.8842 0.8856 0.8867
740.000000 0.8876 0.8885 0.8888 0.8886 0.8882
745.000000 0.8893 0.8871 0.8861 0.8841 0.8796
750.000000 0.8719 0.8585 0.8343 0.8107 0.7870
755.000000 0.7634 0.7398 0.7161 0.6925 0.6689
760.000000 0.6450 0.6398 0.6409 0.6536 0.6835
765.000000 0.7134 0.7432 0.7731 0.8030 0.8329
770.000000 0.8607 0.8714 0.8757 0.8763 0.8767
775.000000 0.8746 0.8759 0.8735 0.8702 0.8553
780.000000 0.8475 0.8475 0.8463 0.8581 0.8626
785.000000 0.8646 0.8645 0.8641 0.8623 0.8607
790.000000 0.8583 0.8545 0.8481 0.8363 0.8163
795.000000 0.7972 0.7824 0.7638 0.7497 0.7057
800.000000 0.6148 0.5238 0.4329 0.3617 0.3469
805.000000 0.3386 0.3386 0.3401 0.3399 0.3429
810.000000 0.3738 0.4427 0.5117 0.5806 0.6496
815.000000 0.6988 0.7710 0.7972 0.8184 0.8345
820.000000 0.8542 0.8645 0.8707 0.8740 0.8754
825.000000 0.8755 0.8743 0.8746 0.8731 0.8709
830.000000 0.8676 0.8627 0.8569 0.8482 0.8331
835.000000 0.8180 0.8028 0.7877 0.7726 0.7624
840.000000 0.7610 0.7614 0.7726 0.7884 0.8042
845.000000 0.8200 0.8358 0.8485 0.8576 0.8639
850.000000 0.8692 0.8720 0.8728 0.8725 0.8716
855.000000 0.8702 0.8678 0.8648 0.8602 0.8496
860.000000 0.8341 0.8185 0.8030 0.7875 0.7720
865.000000 0.7577 0.7507 0.7507 0.7570 0.7973
870.000000 0.8376 0.8720 0.8825 0.8881 0.8896
875.000000 0.8909 0.8907 0.8906 0.8883 0.8885
880.000000 0.8862 0.8829 0.8794 0.8760 0.8725
885.000000 0.8686 0.8647 0.8600 0.8552 0.8499
890.000000 0.8436 0.8374 0.8295 0.8208 0.8124
895.000000 0.8039 0.7952 0.7865 0.7764 0.7657
900.000000 0.7112 0.6551 0.6011 0.5882 0.5772
905.000000 0.5662 0.5669 0.5612 0.5945 0.6253
910.000000 0.6561 0.6869 0.7118 0.7189 0.7260
915.000000 0.7330 0.7393 0.7455 0.7523 0.7592
920.000000 0.7679 0.7776 0.7866 0.8455 0.8572
925.000000 0.8618 0.8657 0.8678 0.8691 0.8701
930.000000 0.8708 0.8713 0.8718 0.8723 0.8726
935.000000 0.8726 0.8726 0.8724 0.8745 0.8717
940.000000 0.8714 0.8710 0.8705 0.8700 0.8694
945.000000 0.8688 0.8675 0.8660 0.8645 0.8630
950.000000 0.8614 0.8594 0.8575 0.8555 0.8535
955.000000 0.8514 0.8492 0.8470 0.8449 0.8425
960.000000 0.8393 0.8360 0.8328 0.8294 0.8249
965.000000 0.8205 0.8157 0.8108 0.8052 0.7964
970.000000 0.7833 0.7471 0.7413 0.7446 0.7444
975.000000 0.7486 0.7547 0.7634 0.7721 0.7807
980.000000 0.7894 0.7974 0.8007 0.8019 0.8025
985.000000 0.8026 0.8020 0.8015 0.8007 0.7975
990.000000 0.7941 0.7906 0.7866 0.7826 0.7781
995.000000 0.7729 0.7677 0.7625 0.7573 0.7517
1000.000000 0.7437 0.7370 0.7302 0.7206 0.7103
1005.000000 0.6993 0.6926 0.6937 0.6919 0.6943
1010.000000 0.6983 0.7018 0.7042 0.7055 0.7058
1015.000000 0.7059 0.7057 0.7040 0.7022 0.6982
1020.000000 0.6918 0.6840 0.6757 0.6560 0.6422
1025.000000 0.6251 0.6017 0.5717 0.5512 0.5297
1030.000000 0.5067 0.4976 0.4994 0.5049 0.5140
1035.000000 0.5207 0.5225 0.5225 0.5207 0.5178
1040.000000 0.5073 0.4940 0.4572 0.4528 0.4525
1045.000000 0.4530 0.4522 0.4531 0.4578 0.4745
1050.000000 0.5297 0.5468 0.5611 0.5788 0.5882
1055.000000 0.5981 0.6027 0.6061 0.6075 0.6083
1060.000000 0.6103 0.6088 0.6085 0.6079 0.6075
1065.000000 0.6072 0.6059 0.6041 0.6023 0.6005
1070.000000 0.5989 0.5973 0.5956 0.5938 0.5920
1075.000000 0.5898 0.5874 0.5851 0.5827 0.5803
1080.000000 0.5778 0.5754 0.5730 0.5705 0.5681
1085.000000 0.5656 0.5631 0.5603 0.5575 0.5548
1090.000000 0.5520 0.5492 0.5462 0.5427 0.5392
1095.000000 0.5356 0.5299 0.5242 0.5181 0.5118
1100.000000 0.4981 0.4835 0.4708 0.4690 0.4676
1105.000000 0.4665 0.4644 0.4582 0.4377 0.4315
1110.000000 0.4283 0.4278 0.4275 0.4278 0.4297
1115.000000 0.4330 0.4445 0.4558 0.4680 0.4799
1120.000000 0.4909 0.5002 0.5071 0.5099 0.5123
1125.000000 0.5141 0.5156 0.5170 0.5184 0.5199
1130.000000 0.5215 0.5234 0.5254 0.5273 0.5292
1135.000000 0.5319 0.5347 0.5375 0.5428 0.5501
1140.000000 0.5569 0.5626 0.5683 0.5712 0.5735
1145.000000 0.5758 0.5781 0.5796 0.5810 0.5825
1150.000000 0.5839 0.5848 0.5855 0.5862 0.5868
1155.000000 0.5875 0.5877 0.5877 0.5877 0.5918
1160.000000 0.5875 0.5866 0.5858 0.5845 0.5826
1165.000000 0.5776 0.5697 0.5616 0.5535 0.5408
1170.000000 0.5186 0.4919 0.4651 0.4384 0.4117
1175.000000 0.3849 0.3737 0.3637 0.3568 0.3512
1180.000000 0.3505 0.3574 0.3974 0.4378 0.4782
1185.000000 0.5073 0.5277 0.5532 0.5721 0.5831
1190.000000 0.5892 0.5907 0.5912 0.5919 0.5915
1195.000000 0.5895 0.5849 0.5770 0.5691 0.5597
1200.000000 0.5487 0.5376 0.5303 0.5236 0.5185
1205.000000 0.5168 0.5168 0.5172 0.5201 0.5271
1210.000000 0.5454 0.5687 0.5833 0.5975 0.6125
1215.000000 0.6241 0.6336 0.6392 0.6445 0.6464
1220.000000 0.6478 0.6484 0.6487 0.6490 0.6493
1225.000000 0.6488 0.6482 0.6476 0.6501 0.6467
1230.000000 0.6463 0.6458 0.6454 0.6450 0.6445
1235.000000 0.6440 0.6435 0.6431 0.6409 0.6375
1240.000000 0.6342 0.6300 0.6254 0.6207 0.6153
1245.000000 0.6093 0.6028 0.5928 0.5832 0.5744
1250.000000 0.5655 0.5448 0.5222 0.4997 0.4772
1255.000000 0.4637 0.4547 0.4503 0.4505 0.4473
1260.000000 0.4780 0.5011 0.5333 0.5406 0.5433
1265.000000 0.5460 0.5494 0.5535 0.5617 0.5857
1270.000000 0.5939 0.5965 0.5980 0.6009 0.5991
1275.000000 0.5991 0.5991 0.5983 0.5958 0.5926
1280.000000 0.5884 0.5832 0.5779 0.5717 0.5654
1285.000000 0.5573 0.5492 0.5407 0.5316 0.5203
1290.000000 0.5093 0.5006 0.4920 0.4810 0.4685
1295.000000 0.4505 0.4299 0.4105 0.3774 0.3389
1300.000000 0.3102 0.2764 0.2348 0.2342 0.2344
1305.000000 0.2492 0.2656 0.2821 0.2985 0.3149
1310.000000 0.3314 0.3478 0.3598 0.3537 0.3448
1315.000000 0.3352 0.3090 0.2799 0.2385 0.1970
1320.000000 0.1555 0.1141 0.0726 0.0581 0.0613
1325.000000 0.0954 0.1296 0.1638 0.1979 0.2321
1330.000000 0.2663 0.3004 0.3346 0.3688 0.4029
1335.000000 0.4383 0.4475 0.4530 0.4539 0.4578
1340.000000 0.4541 0.4535 0.4473 0.4416 0.4356
1345.000000 0.4305 0.4266 0.4245 0.4226 0.4214
1350.000000 0.4173 0.3858 0.3543 0.3222 0.3119
1355.000000 0.3008 0.2973 0.3013 0.3114 0.3245
1360.000000 0.3561 0.3877 0.4193 0.4510 0.4826
1365.000000 0.5039 0.5131 0.5193 0.5227 0.5251
1370.000000 0.5285 0.5260 0.5227 0.5183 0.5129
1375.000000 0.5060 0.4952 0.4840 0.4728 0.4616
1380.000000 0.4504 0.4392 0.4315 0.4268 0.4205
1385.000000 0.4080 0.3874 0.3774 0.3680 0.3589
1390.000000 0.3500 0.3404 0.3268 0.3146 0.3048
1395.000000 0.2944 0.2829 0.2629 0.2380 0.2130
1400.000000 0.1881 0.1632 0.1426 0.1286 0.1133
1405.000000 0.0980 0.0877 0.0791 0.0746 0.0705
1410.000000 0.0715 0.0733 0.0756 0.0858 0.1061
1415.000000 0.1320 0.1497 0.1962 0.2257 0.2552
1420.000000 0.2846 0.3141 0.3436 0.3730 0.4025
1425.000000 0.4515 0.5011 0.5138 0.5189 0.5213
1430.000000 0.5227 0.5231 0.5217 0.5199 0.5146
1435.000000 0.5091 0.5024 0.4741 0.4514 0.4287
1440.000000 0.4060 0.3833 0.3606 0.3379 0.3334
1445.000000 0.3343 0.3413 0.3559 0.3704 0.3849
1450.000000 0.3965 0.3974 0.3956 0.3879 0.3764
1455.000000 0.3675 0.3600 0.3530 0.3458 0.3378
1460.000000 0.3222 0.3065 0.2908 0.2867 0.2864
1465.000000 0.2926 0.3224 0.3523 0.3822 0.4120
1470.000000 0.4419 0.4493 0.4492 0.4461 0.4478
1475.000000 0.4460 0.4376 0.4279 0.4182 0.4085
1480.000000 0.3988 0.3891 0.3793 0.3696 0.3599
1485.000000 0.3502 0.3405 0.3308 0.3209 0.3006
1490.000000 0.2895 0.2787 0.2685 0.2584 0.2458
1495.000000 0.2330 0.2232 0.2137 0.2043 0.1942
1500.000000 0.1839 0.1737 0.1637 0.1537 0.1450
1505.000000 0.1365 0.1281 0.1217 0.1152 0.1088
1510.000000 0.1022 0.0954 0.0887 0.0821 0.0762
1515.000000 0.0725 0.0690 0.0675 0.0668 0.0640
1520.000000 0.0663 0.0671 0.0682 0.0705 0.0732
1525.000000 0.0764 0.0799 0.0839 0.0914 0.0997
1530.000000 0.1091 0.1386 0.1544 0.1723 0.1984
1535.000000 0.2180 0.2325 0.2428 0.2531 0.2656
1540.000000 0.2780 0.2897 0.3006 0.3080 0.3146
1545.000000 0.3171 0.3160 0.3145 0.3130 0.3109
1550.000000 0.3069 0.3014 0.2935 0.2813 0.2727
1555.000000 0.2647 0.2570 0.2495 0.2420 0.2247
1560.000000 0.2149 0.2054 0.1958 0.1868 0.1779
1565.000000 0.1690 0.1594 0.1465 0.1337 0.1209
1570.000000 0.1083 0.0976 0.0874 0.0793 0.0735
1575.000000 0.0676 0.0619 0.0561 0.0507 0.0453
1580.000000 0.0405 0.0369 0.0343 0.0325 0.0318
1585.000000 0.0316 0.0316 0.0320 0.0325 0.0334
1590.000000 0.0359 0.0393 0.0445 0.0502 0.0566
1595.000000 0.0611 0.0654 0.0697 0.0733 0.0768
1600.000000 0.0785 0.0794 0.0801 0.0808 0.0815
1605.000000 0.0821 0.0827 0.0833 0.0838 0.0847
1610.000000 0.0859 0.0890 0.0937 0.0999 0.1077
1615.000000 0.1151 0.1214 0.1277 0.1341 0.1404
1620.000000 0.1468 0.1531 0.1595 0.1661 0.1728
1625.000000 0.1795 0.1862 0.1945 0.2036 0.2162
1630.000000 0.2355 0.2437 0.2520 0.2602 0.2684
1635.000000 0.2767 0.2849 0.2927 0.3102 0.3211
1640.000000 0.3316 0.3382 0.3448 0.3514 0.4149
1645.000000 0.4350 0.4441 0.4532 0.4623 0.4714
1650.000000 0.4857 0.5044 0.5184 0.5305 0.5434
1655.000000 0.5676 0.5859 0.5942 0.6015 0.6079
1660.000000 0.6129 0.6192 0.6296 0.6389 0.6453
1665.000000 0.6517 0.6582 0.6648 0.6714 0.6781
1670.000000 0.6847 0.6910 0.6974 0.7038 0.7102
1675.000000 0.7158 0.7212 0.7266 0.7320 0.7365
1680.000000 0.7406 0.7446 0.7487 0.7528 0.7568
1685.000000 0.7610 0.7652 0.7694 0.7730 0.7762
1690.000000 0.7793 0.7824 0.7855 0.7887 0.7915
1695.000000 0.7938 0.7961 0.7983 0.8006 0.8029
1700.000000 0.8052 0.8076 0.8100 0.8123 0.8137
1705.000000 0.8151 0.8165 0.8178 0.8192 0.8205
1710.000000 0.8217 0.8228 0.8240 0.8252 0.8264
1715.000000 0.8276 0.8287 0.8299 0.8311 0.8322
1720.000000 0.8334 0.8345 0.8357 0.8368 0.8380
1725.000000 0.8391 0.8402 0.8410 0.8419 0.8427
1730.000000 0.8436 0.8445 0.8453 0.8458 0.8463
1735.000000 0.8467 0.8472 0.8476 0.8481 0.8485
1740.000000 0.8490 0.8494 0.8499 0.8503 0.8505
1745.000000 0.8507 0.8509 0.8511 0.8513 0.8515
1750.000000 0.8516 0.8517 0.8545 0.8519 0.8520
1755.000000 0.8521 0.8522 0.8523 0.8524 0.8525
1760.000000 0.8525 0.8525 0.8525 0.8525 0.8525
1765.000000 0.8525 0.8526 0.8526 0.8526 0.8526
1770.000000 0.8525 0.8523 0.8522 0.8520 0.8519
1775.000000 0.8517 0.8515 0.8514 0.8512 0.8511
1780.000000 0.8509 0.8507 0.8506 0.8504 0.8502
1785.000000 0.8501 0.8499 0.8497 0.8496 0.8494
1790.000000 0.8492 0.8490 0.8489 0.8487 0.8485
1795.000000 0.8484 0.8482 0.8480 0.8479 0.8477
1800.000000 0.8475 0.8473 0.8472 0.8470 0.8468
1805.000000 0.8467 0.8465 0.8464 0.8463 0.8462
1810.000000 0.8462 0.8461 0.8460 0.8459 0.8458
1815.000000 0.8457 0.8456 0.8455 0.8455 0.8454
1820.000000 0.8453 0.8452 0.8451 0.8450 0.8449
1825.000000 0.8448 0.8447 0.8446 0.8445 0.8444
1830.000000 0.8443 0.8442 0.8441 0.8440 0.8439
1835.000000 0.8438 0.8437 0.8436 0.8435 0.8434
1840.000000 0.8433 0.8432 0.8431 0.8430 0.8429
1845.000000 0.8428 0.8427 0.8426 0.8425 0.8424
1850.000000 0.8423 0.8422 0.8422 0.8421 0.8421
1855.000000 0.8420 0.8420 0.8419 0.8419 0.8418
1860.000000 0.8417 0.8417 0.8416 0.8416 0.8415
1865.000000 0.8415 0.8414 0.8413 0.8413 0.8412
1870.000000 0.8412 0.8411 0.8411 0.8410 0.8410
1875.000000 0.8409 0.8417 0.8424 0.8431 0.8438
1880.000000 0.8444 0.8451 0.8454 0.8457 0.8460
1885.000000 0.8463 0.8466 0.8466 0.8466 0.8466
1890.000000 0.8467 0.8467 0.8467 0.8467 0.8467
1895.000000 0.8467 0.8467 0.8465 0.8463 0.8462
1900.000000 0.8460 0.8459 0.8457 0.8455 0.8453
1905.000000 0.8451 0.8449 0.8447 0.8445 0.8443
1910.000000 0.8441 0.8439 0.8437 0.8435 0.8433
1915.000000 0.8431 0.8429 0.8428 0.8425 0.8422
1920.000000 0.8419 0.8416 0.8413 0.8410 0.8407
1925.000000 0.8404 0.8401 0.8398 0.8395 0.8392
1930.000000 0.8389 0.8386 0.8383 0.8380 0.8377
1935.000000 0.8374 0.8371 0.8368 0.8365 0.8362
1940.000000 0.8359 0.8356 0.8352 0.8349 0.8346
1945.000000 0.8343 0.8340 0.8337 0.8335 0.8332
1950.000000 0.8330 0.8327 0.8325 0.8322 0.8319
1955.000000 0.8317 0.8314 0.8312 0.8308 0.8304
1960.000000 0.8300 0.8296 0.8293 0.8289 0.8285
1965.000000 0.8281 0.8277 0.8273 0.8269 0.8265
1970.000000 0.8261 0.8257 0.8252 0.8247 0.8243
1975.000000 0.8238 0.8233 0.8229 0.8224 0.8219
1980.000000 0.8215 0.8210 0.8205 0.8201 0.8196
1985.000000 0.8194 0.8191 0.8189 0.8187 0.8185
1990.000000 0.8182 0.8185 0.8187 0.8189 0.8191
1995.000000 0.8194 0.8208 0.8227 0.8246 0.8297
2000.000000 0.8459 0.8373 0.8287 0.8234 0.8182
2005.000000 0.8130 0.8078 0.8054 0.8031 0.8026
2010.000000 0.8022 0.8014 0.8006 0.7998 0.7991
2015.000000 0.7984 0.7977 0.7969 0.7962 0.7954
2020.000000 0.7946 0.7936 0.7926 0.7915 0.7905
2025.000000 0.7895 0.7885 0.7875 0.7865 0.7855
2030.000000 0.7846 0.7836 0.7827 0.7817 0.7808
2035.000000 0.7798 0.7789 0.7779 0.7770 0.7761
2040.000000 0.7752 0.7743 0.7735 0.7726 0.7717
2045.000000 0.7708 0.7700 0.7691 0.7683 0.7674
2050.000000 0.7665 0.7656 0.7648 0.7639 0.7630
2055.000000 0.7620 0.7611 0.7600 0.7590 0.7579
2060.000000 0.7569 0.7558 0.7548 0.7537 0.7527
2065.000000 0.7516 0.7505 0.7494 0.7484 0.7473
2070.000000 0.7463 0.7452 0.7441 0.7430 0.7420
2075.000000 0.7409 0.7399 0.7388 0.7378 0.7367
2080.000000 0.7356 0.7345 0.7335 0.7324 0.7314
2085.000000 0.7302 0.7290 0.7277 0.7265 0.7252
2090.000000 0.7240 0.7227 0.7215 0.7202 0.7190
2095.000000 0.7177 0.7165 0.7152 0.7140 0.7128
2100.000000 0.7116 0.7102 0.7088 0.7073 0.7059
2105.000000 0.7044 0.7030 0.7016 0.7002 0.6987
2110.000000 0.6973 0.6965 0.6958 0.6952 0.6946
2115.000000 0.6940 0.6934 0.6928 0.6922 0.6915
2120.000000 0.6909 0.6914 0.6919 0.6927 0.6885
2125.000000 0.6941 0.6947 0.6952 0.6958 0.6968
2130.000000 0.6978 0.6988 0.6999 0.7008 0.7018
2135.000000 0.7027 0.7037 0.7046 0.7056 0.7064
2140.000000 0.7072 0.7080 0.7089 0.7101 0.7113
2145.000000 0.7124 0.7136 0.7147 0.7159 0.7169
2150.000000 0.7180 0.7190 0.7200 0.7210 0.7221
2155.000000 0.7231 0.7241 0.7251 0.7262 0.7272
2160.000000 0.7282 0.7292 0.7303 0.7312 0.7322
2165.000000 0.7331 0.7341 0.7350 0.7359 0.7368
2170.000000 0.7378 0.7387 0.7397 0.7406 0.7415
2175.000000 0.7424 0.7434 0.7442 0.7450 0.7457
2180.000000 0.7465 0.7472 0.7479 0.7486 0.7493
2185.000000 0.7500 0.7507 0.7511 0.7515 0.7517
2190.000000 0.7520 0.7522 0.7525 0.7527 0.7530
2195.000000 0.7532 0.7535 0.7537 0.7540 0.7540
2200.000000 0.7540 0.7539 0.7539 0.7538 0.7538
2205.000000 0.7537 0.7537 0.7536 0.7536 0.7535
2210.000000 0.7535 0.7534 0.7533 0.7532 0.7531
2215.000000 0.7531 0.7530 0.7528 0.7527 0.7525
2220.000000 0.7524 0.7522 0.7521 0.7520 0.7519
2225.000000 0.7516 0.7514 0.7511 0.7509 0.7506
2230.000000 0.7503 0.7500 0.7498 0.7495 0.7492
2235.000000 0.7489 0.7487 0.7484 0.7481 0.7478
2240.000000 0.7476 0.7473 0.7470 0.7467 0.7464
2245.000000 0.7461 0.7459 0.7456 0.7453 0.7451
2250.000000 0.7449 0.7446 0.7444 0.7442 0.7440
2255.000000 0.7437 0.7435 0.7433 0.7431 0.7428
2260.000000 0.7426 0.7423 0.7420 0.7417 0.7414
2265.000000 0.7411 0.7408 0.7405 0.7402 0.7399
2270.000000 0.7397 0.7394 0.7391 0.7388 0.7385
2275.000000 0.7382 0.7379 0.7376 0.7373 0.7370
2280.000000 0.7367 0.7364 0.7361 0.7356 0.7352
2285.000000 0.7347 0.7342 0.7337 0.7333 0.7328
2290.000000 0.7323 0.7318 0.7314 0.7309 0.7305
2295.000000 0.7300 0.7295 0.7290 0.7286 0.7281
2300.000000 0.7276 0.7271 0.7267 0.7262 0.7258
2305.000000 0.7253 0.7248 0.7244 0.7240 0.7236
2310.000000 0.7233 0.7229 0.7226 0.7222 0.7219
2315.000000 0.7215 0.7211 0.7207 0.7204 0.7200
2320.000000 0.7197 0.7193 0.7190 0.7184 0.7179
2325.000000 0.7172 0.7166 0.7159 0.7153 0.7147
2330.000000 0.7141 0.7134 0.7128 0.7121 0.7115
2335.000000 0.7108 0.7102 0.7095 0.7089 0.7082
2340.000000 0.7076 0.7070 0.7064 0.7057 0.7051
2345.000000 0.7044 0.7038 0.7031 0.7024 0.7016
2350.000000 0.7008 0.7000 0.6992 0.6984 0.6976
2355.000000 0.6968 0.6961 0.6953 0.6945 0.6937
2360.000000 0.6929 0.6921 0.6913 0.6905 0.6898
2365.000000 0.6890 0.6882 0.6874 0.6866 0.6858
2370.000000 0.6850 0.6842 0.6835 0.6827 0.6819
2375.000000 0.6810 0.6801 0.6790 0.6779 0.6768
2380.000000 0.6757 0.6746 0.6735 0.6724 0.6713
2385.000000 0.6702 0.6691 0.6680 0.6669 0.6657
2390.000000 0.6645 0.6631 0.6617 0.6603 0.6590
2395.000000 0.6576 0.6563 0.6549 0.6536 0.6522
2400.000000 0.6508 0.6494 0.6481 0.6465 0.6450
2405.000000 0.6435 0.6420 0.6405 0.6390 0.6375
2410.000000 0.6360 0.6347 0.6334 0.6326 0.6318
2415.000000 0.6310 0.6303 0.6295 0.6288 0.6280
2420.000000 0.6273 0.6265 0.6257 0.6249 0.6242
2425.000000 0.6234 0.6226 0.6218 0.6211 0.6204
2430.000000 0.6197 0.6191 0.6186 0.6181 0.6176
2435.000000 0.6171 0.6166 0.6159 0.6153 0.6147
2440.000000 0.6141 0.6134 0.6128 0.6121 0.6115
2445.000000 0.6109 0.6103 0.6096 0.6090 0.6080
2450.000000 0.6071 0.6060 0.6049 0.6037 0.6026
2455.000000 0.6015 0.6004 0.5992 0.5981 0.5969
2460.000000 0.5958 0.5946 0.5935 0.5923 0.5911
2465.000000 0.5899 0.5887 0.5875 0.5863 0.5851
2470.000000 0.5839 0.5819 0.5799 0.5777 0.5756
2475.000000 0.5735 0.5714 0.5692 0.5671 0.5650
2480.000000 0.5629 0.5608 0.5587 0.5568 0.5550
2485.000000 0.5531 0.5512 0.5493 0.5474 0.5455
2490.000000 0.5436 0.5417 0.5399 0.5380 0.5361
2495.000000 0.5342 0.5323 0.5303 0.5284 0.5263
2500.000000 0.5242 0.5221 0.5201 0.5180 0.5159
2505.000000 0.5138 0.5118 0.5097 0.5077 0.5056
2510.000000 0.5035 0.5014 0.4994 0.4973 0.4952
2515.000000 0.4930 0.4909 0.4887 0.4865 0.4843
2520.000000 0.4822 0.4800 0.4778 0.4756 0.4734
2525.000000 0.4712 0.4691 0.4674 0.4657 0.4640
2530.000000 0.4623 0.4605 0.4588 0.4571 0.4554
2535.000000 0.4539 0.4525 0.4510 0.4496 0.4488
2540.000000 0.4480 0.4475 0.4470 0.4465 0.4461
2545.000000 0.4458 0.4455 0.4453 0.4451 0.4449
2550.000000 0.4447 0.4445 0.4444 0.4442 0.4440
2555.000000 0.4438 0.4436 0.4434 0.4432 0.4429
2560.000000 0.4427 0.4424 0.4422 0.4419 0.4417
2565.000000 0.4414 0.4412 0.4409 0.4407 0.4405
2570.000000 0.4403 0.4395 0.4387 0.4375 0.4363
2575.000000 0.4344 0.4325 0.4307 0.4290 0.4273
2580.000000 0.4256 0.4239 0.4222 0.4204 0.4187
2585.000000 0.4170 0.4153 0.4129 0.4105 0.4080
2590.000000 0.4056 0.4042 0.4028 0.4014 0.4001
2595.000000 0.3987 0.3974 0.3961 0.3948 0.3934
2600.000000 0.3921 0.3907 0.3894 0.3882 0.3871
2605.000000 0.3860 0.3849 0.3843 0.3837 0.3831
2610.000000 0.3825 0.3823 0.3822 0.3822 0.3822
2615.000000 0.3822 0.3818 0.3822 0.3822 0.3824
2620.000000 0.3826 0.3828 0.3831 0.3835 0.3839
2625.000000 0.3845 0.3852 0.3859 0.3866 0.3872
2630.000000 0.3879 0.3887 0.3895 0.3902 0.3910
2635.000000 0.3917 0.3925 0.3932 0.3940 0.3949
2640.000000 0.3958 0.3967 0.3976 0.3985 0.3994
2645.000000 0.3997 0.4001 0.4005 0.4009 0.4008
2650.000000 0.4007 0.4005 0.4004 0.3999 0.3994
2655.000000 0.3986 0.3988 0.3971 0.3964 0.3955
2660.000000 0.3947 0.3938 0.3930 0.3921 0.3913
2665.000000 0.3904 0.3896 0.3887 0.3879 0.3870
2670.000000 0.3862 0.3853 0.3845 0.3836 0.3828
2675.000000 0.3819 0.3811 0.3803 0.3795 0.3786
2680.000000 0.3778 0.3769 0.3761 0.3752 0.3744
2685.000000 0.3738 0.3732 0.3728 0.3724 0.3720
2690.000000 0.3716 0.3712 0.3708 0.3706 0.3704
2695.000000 0.3702 0.3701 0.3699 0.3698 0.3696
2700.000000 0.3695 0.3693 0.3692 0.3690 0.3689
2705.000000 0.3687 0.3685 0.3681 0.3678 0.3662
2710.000000 0.3647 0.3639 0.3631 0.3620 0.3610
2715.000000 0.3600 0.3590 0.3579 0.3568 0.3556
2720.000000 0.3544 0.3531 0.3519 0.3507 0.3496
2725.000000 0.3485 0.3475 0.3464 0.3453 0.3443
2730.000000 0.3433 0.3424 0.3416 0.3409 0.3402
2735.000000 0.3401 0.3400 0.3399 0.3398 0.3396
2740.000000 0.3395 0.3394 0.3393 0.3392 0.3391
2745.000000 0.3390 0.3389 0.3389 0.3389 0.3389
2750.000000 0.3389 0.3387 0.3386 0.3383 0.3380
2755.000000 0.3371 0.3363 0.3351 0.3340 0.3328
2760.000000 0.3317 0.3305 0.3294 0.3282 0.3270
2765.000000 0.3257 0.3244 0.3230 0.3217 0.3205
2770.000000 0.3193 0.3182 0.3171 0.3160 0.3149
2775.000000 0.3138 0.3127 0.3115 0.3104 0.3093
2780.000000 0.3082 0.3071 0.3060 0.3048 0.3037
2785.000000 0.3025 0.3014 0.3003 0.2992 0.2980
2790.000000 0.2969 0.2958 0.2947 0.2935 0.2924
2795.000000 0.2913 0.2902 0.2890 0.2878 0.2866
2800.000000 0.2854 0.2842 0.2830 0.2815 0.2801
2805.000000 0.2790 0.2780 0.2776 0.2773 0.2769
2810.000000 0.2765 0.2762 0.2760 0.2758 0.2757
2815.000000 0.2754 0.2752 0.2749 0.2747 0.2744
2820.000000 0.2742 0.2739 0.2737 0.2735 0.2734
2825.000000 0.2733 0.2732 0.2731 0.2730 0.2725
2830.000000 0.2721 0.2717 0.2713 0.2706 0.2699
2835.000000 0.2686 0.2673 0.2660 0.2648 0.2635
2840.000000 0.2622 0.2608 0.2595 0.2580 0.2566
2845.000000 0.2550 0.2534 0.2517 0.2500 0.2481
2850.000000 0.2463 0.2445 0.2427 0.2408 0.2390
2855.000000 0.2373 0.2357 0.2343 0.2329 0.2314
2860.000000 0.2300 0.2285 0.2271 0.2256 0.2242
2865.000000 0.2227 0.2213 0.2199 0.2185 0.2170
2870.000000 0.2156 0.2141 0.2127 0.2113 0.2099
2875.000000 0.2093 0.2087 0.2088 0.2089 0.2090
2880.000000 0.2092 0.2093 0.2094 0.2094 0.2095
2885.000000 0.2094 0.2094 0.2091 0.2089 0.2083
2890.000000 0.2078 0.2072 0.2067 0.2060 0.2054
2895.000000 0.2047 0.2040 0.2029 0.2018 0.2007
2900.000000 0.1996 0.1986 0.1976 0.1966 0.1956
2905.000000 0.1940 0.1924 0.1907 0.1891 0.1875
2910.000000 0.1859 0.1844 0.1830 0.1816 0.1802
2915.000000 0.1788 0.1775 0.1759 0.1743 0.1726
2920.000000 0.1710 0.1694 0.1679 0.1666 0.1653
2925.000000 0.1640 0.1627 0.1615 0.1603 0.1609
2930.000000 0.1615 0.1620 0.1626 0.1638 0.1650
2935.000000 0.1661 0.1673 0.1684 0.1696 0.1709
2940.000000 0.1722 0.1735 0.1748 0.1761 0.1774
2945.000000 0.1779 0.1784 0.1785 0.1787 0.1783
2950.000000 0.1780 0.1774 0.1800 0.1761 0.1753
2955.000000 0.1714 0.1676 0.1638 0.1600 0.1571
2960.000000 0.1543 0.1508 0.1474 0.1453 0.1433
2965.000000 0.1427 0.1421 0.1426 0.1431 0.1439
2970.000000 0.1425 0.1498 0.1550 0.1645 0.1740
2975.000000 0.1773 0.1806 0.1839 0.1872 0.1901
2980.000000 0.1930 0.1945 0.1960 0.1977 0.1994
2985.000000 0.2010 0.2027 0.2042 0.2057 0.2071
2990.000000 0.2085 0.2097 0.2110 0.2122 0.2134
2995.000000 0.2144 0.2154 0.2163 0.2173 0.2183
3000.000000 0.2193 0.2203 0.2213 0.2223 0.2233
3005.000000 0.2243 0.2253 0.2263 0.2273 0.2283
3010.000000 0.2293 0.2304 0.2316 0.2327 0.2339
3015.000000 0.2349 0.2359 0.2368 0.2377 0.2386
3020.000000 0.2395 0.2404 0.2413 0.2421 0.2430
3025.000000 0.2439 0.2449 0.2458 0.2468 0.2478
3030.000000 0.2488 0.2497 0.2507 0.2517 0.2527
3035.000000 0.2536 0.2546 0.2555 0.2565 0.2575
3040.000000 0.2585 0.2594 0.2604 0.2614 0.2624
3045.000000 0.2634 0.2644 0.2654 0.2664 0.2674
3050.000000 0.2684 0.2695 0.2706 0.2717 0.2729
3055.000000 0.2740 0.2752 0.2763 0.2775 0.2786
3060.000000 0.2798 0.2809 0.2821 0.2833 0.2845
3065.000000 0.2860 0.2876 0.2890 0.2905 0.2918
3070.000000 0.2932 0.2946 0.2960 0.2973 0.2987
3075.000000 0.3001 0.3015 0.3028 0.3042 0.3056
3080.000000 0.3071 0.3085 0.3100 0.3115 0.3131
3085.000000 0.3147 0.3164 0.3181 0.3198 0.3219
3090.000000 0.3240 0.3274 0.3309 0.3341 0.3373
3095.000000 0.3399 0.3425 0.3451 0.3478 0.3505
3100.000000 0.3532 0.3562 0.3593 0.3650 0.3708
3105.000000 0.3755 0.3802 0.3829 0.3857 0.3884
3110.000000 0.3911 0.3938 0.3965 0.3991 0.4018
3115.000000 0.4044 0.4071 0.4098 0.4125 0.4151
3120.000000 0.4178 0.4204 0.4231 0.4258 0.4285
3125.000000 0.4320 0.4356 0.4397 0.4438 0.4480
3130.000000 0.4523 0.4565 0.4608 0.4670 0.4733
3135.000000 0.4793 0.4853 0.4908 0.4964 0.5005
3140.000000 0.5047 0.5085 0.5124 0.5162 0.5200
3145.000000 0.5237 0.5275 0.5305 0.5336 0.5366
3150.000000 0.5397 0.5427 0.5457 0.5487 0.5518
3155.000000 0.5552 0.5587 0.5623 0.5660 0.5696
3160.000000 0.5732 0.5768 0.5804 0.5840 0.5877
3165.000000 0.5914 0.5951 0.5988 0.6025 0.6062
3170.000000 0.6100 0.6131 0.6163 0.6189 0.6216
3175.000000 0.6242 0.6269 0.6296 0.6323 0.6349
3180.000000 0.6376 0.6402 0.6429 0.6456 0.6483
3185.000000 0.6513 0.6544 0.6574 0.6605 0.6635
3190.000000 0.6666 0.6696 0.6727 0.6757 0.6788
3195.000000 0.6821 0.6855 0.6889 0.6923 0.6957
3200.000000 0.6991 0.7028 0.7066 0.7105 0.7145
3205.000000 0.7182 0.7220 0.7246 0.7272 0.7298
3210.000000 0.7324 0.7349 0.7375 0.7401 0.7427
3215.000000 0.7454 0.7481 0.7509 0.7537 0.7564
3220.000000 0.7592 0.7617 0.7642 0.7664 0.7687
3225.000000 0.7710 0.7733 0.7756 0.7779 0.7794
3230.000000 0.7809 0.7823 0.7838 0.7853 0.7868
3235.000000 0.7882 0.7897 0.7912 0.7927 0.7941
3240.000000 0.7956 0.7969 0.7982 0.7995 0.8009
3245.000000 0.8022 0.8035 0.8048 0.8062 0.8074
3250.000000 0.8086 0.8097 0.8108 0.8119 0.8130
3255.000000 0.8141 0.8152 0.8163 0.8174 0.8186
3260.000000 0.8198 0.8209 0.8221 0.8233 0.8245
3265.000000 0.8257 0.8269 0.8280 0.8292 0.8303
3270.000000 0.8314 0.8324 0.8335 0.8345 0.8355
3275.000000 0.8365 0.8376 0.8386 0.8396 0.8405
3280.000000 0.8415 0.8424 0.8434 0.8443 0.8453
3285.000000 0.8462 0.8472 0.8481 0.8491 0.8500
3290.000000 0.8509 0.8517 0.8525 0.8533 0.8541
3295.000000 0.8549 0.8557 0.8565 0.8574 0.8582
3300.000000 0.8590 0.8598 0.8606 0.8614 0.8622
3305.000000 0.8628 0.8635 0.8640 0.8646 0.8651
3310.000000 0.8657 0.8662 0.8668 0.8673 0.8679
3315.000000 0.8684 0.8690 0.8695 0.8701 0.8705
3320.000000 0.8710 0.8714 0.8719 0.8723 0.8728
3325.000000 0.8732 0.8737 0.8739 0.8742 0.8744
3330.000000 0.8746 0.8748 0.8750 0.8752 0.8754
3335.000000 0.8756 0.8758 0.8760 0.8762 0.8763
3340.000000 0.8765 0.8767 0.8769 0.8770 0.8772
3345.000000 0.8773 0.8775 0.8777 0.8779 0.8780
3350.000000 0.8781 0.8781 0.8782 0.8783 0.8784
3355.000000 0.8784 0.8785 0.8785 0.8786 0.8787
3360.000000 0.8788 0.8788 0.8789 0.8789 0.8790
3365.000000 0.8790 0.8791 0.8791 0.8792 0.8793
3370.000000 0.8794 0.8794 0.8795 0.8795 0.8796
3375.000000 0.8796 0.8797 0.8797 0.8798 0.8798
3380.000000 0.8799 0.8800 0.8801 0.8801 0.8802
3385.000000 0.8802 0.8802 0.8802 0.8802 0.8802
3390.000000 0.8802 0.8802 0.8802 0.8802 0.8802
3395.000000 0.8802 0.8802 0.8802 0.8803 0.8803
3400.000000 0.8803 0.8803 0.8803 0.8803 0.8803
3405.000000 0.8802 0.8802 0.8802 0.8802 0.8802
3410.000000 0.8802 0.8801 0.8801 0.8801 0.8801
3415.000000 0.8801 0.8801 0.8800 0.8800 0.8800
3420.000000 0.8800 0.8800 0.8800 0.8799 0.8799
3425.000000 0.8799 0.8799 0.8799 0.8799 0.8798
3430.000000 0.8798 0.8798 0.8798 0.8797 0.8797
3435.000000 0.8796 0.8796 0.8795 0.8795 0.8794
3440.000000 0.8794 0.8793 0.8793 0.8792 0.8792
3445.000000 0.8791 0.8791 0.8790 0.8790 0.8789
3450.000000 0.8788 0.8787 0.8787 0.8786 0.8786
3455.000000 0.8785 0.8785 0.8784 0.8784 0.8783
3460.000000 0.8783 0.8782 0.8782 0.8781 0.8781
3465.000000 0.8780 0.8780 0.8779 0.8778 0.8777
3470.000000 0.8777 0.8776 0.8776 0.8775 0.8775
3475.000000 0.8775 0.8775 0.8774 0.8774 0.8773
3480.000000 0.8773 0.8772 0.8772 0.8771 0.8771
3485.000000 0.8770 0.8770 0.8769 0.8769 0.8768
3490.000000 0.8768 0.8767 0.8767 0.8766 0.8766
3495.000000 0.8766 0.8766 0.8766 0.8766 0.8766
3500.000000 0.8767 0.8767 0.8767 0.8767 0.8767
3505.000000 0.8767 0.8768 0.8768 0.8768 0.8768
3510.000000 0.8768 0.8768 0.8769 0.8769 0.8769
3515.000000 0.8769 0.8770 0.8770 0.8770 0.8770
3520.000000 0.8770 0.8770 0.8771 0.8771 0.8771
3525.000000 0.8771 0.8771 0.8771 0.8771 0.8771
3530.000000 0.8771 0.8770 0.8770 0.8770 0.8770
3535.000000 0.8769 0.8769 0.8769 0.8769 0.8768
3540.000000 0.8768 0.8768 0.8768 0.8767 0.8767
3545.000000 0.8767 0.8767 0.8767 0.8767 0.8766
3550.000000 0.8766 0.8765 0.8765 0.8764 0.8764
3555.000000 0.8763 0.8762 0.8761 0.8752 0.8760
3560.000000 0.8759 0.8758 0.8758 0.8757 0.8757
3565.000000 0.8756 0.8755 0.8754 0.8754 0.8753
3570.000000 0.8752 0.8751 0.8751 0.8750 0.8750
3575.000000 0.8749 0.8748 0.8747 0.8747 0.8746
3580.000000 0.8746 0.8746 0.8747 0.8747 0.8747
3585.000000 0.8747 0.8748 0.8748 0.8748 0.8748
3590.000000 0.8749 0.8749 0.8749 0.8749 0.8750
3595.000000 0.8750 0.8750 0.8750 0.8750 0.8750
3600.000000 0.8751 0.8751 0.8751 0.8751 0.8752
3605.000000 0.8752 0.8752 0.8752 0.8752 0.8752
3610.000000 0.8752 0.8752 0.8752 0.8752 0.8752
3615.000000 0.8752 0.8752 0.8752 0.8753 0.8753
3620.000000 0.8753 0.8753 0.8753 0.8750 0.8747
3625.000000 0.8743 0.8740 0.8736 0.8732 0.8728
3630.000000 0.8725 0.8722 0.8719 0.8716 0.8714
3635.000000 0.8711 0.8709 0.8706 0.8704 0.8701
3640.000000 0.8699 0.8696 0.8694 0.8692 0.8690
3645.000000 0.8689 0.8689 0.8689 0.8690 0.8690
3650.000000 0.8690 0.8690 0.8691 0.8691 0.8692
3655.000000 0.8693 0.8694 0.8695 0.8696 0.8697
3660.000000 0.8698 0.8699 0.8700 0.8701 0.8703
3665.000000 0.8704 0.8705 0.8706 0.8707 0.8708
3670.000000 0.8709 0.8710 0.8712 0.8713 0.8714
3675.000000 0.8715 0.8716 0.8717 0.8718 0.8718
3680.000000 0.8719 0.8719 0.8720 0.8721 0.8722
3685.000000 0.8722 0.8723 0.8723 0.8724 0.8725
3690.000000 0.8726 0.8726 0.8727 0.8727 0.8728
3695.000000 0.8727 0.8727 0.8725 0.8724 0.8722
3700.000000 0.8721 0.8720 0.8719 0.8717 0.8716
3705.000000 0.8714 0.8713 0.8712 0.8711 0.8710
3710.000000 0.8709 0.8708 0.8707 0.8705 0.8704
3715.000000 0.8703 0.8702 0.8701 0.8700 0.8699
3720.000000 0.8698 0.8697 0.8696 0.8695 0.8694
3725.000000 0.8693 0.8693 0.8692 0.8692 0.8691
3730.000000 0.8691 0.8690 0.8690 0.8689 0.8688
3735.000000 0.8687 0.8687 0.8686 0.8686 0.8685
3740.000000 0.8685 0.8684 0.8684 0.8683 0.8683
3745.000000 0.8682 0.8682 0.8681 0.8680 0.8678
3750.000000 0.8677 0.8676 0.8675 0.8673 0.8672
3755.000000 0.8671 0.8670 0.8668 0.8667 0.8666
3760.000000 0.8665 0.8663 0.8662 0.8661 0.8660
3765.000000 0.8657 0.8655 0.8652 0.8650 0.8647
3770.000000 0.8645 0.8642 0.8640 0.8637 0.8635
3775.000000 0.8632 0.8630 0.8627 0.8625 0.8623
3780.000000 0.8622 0.8621 0.8620 0.8619 0.8618
3785.000000 0.8617 0.8616 0.8615 0.8614 0.8612
3790.000000 0.8611 0.8609 0.8608 0.8606 0.8605
3795.000000 0.8603 0.8602 0.8600 0.8599 0.8597
3800.000000 0.8596
##END=
