##TITLE=Malonic dilactone, Alpha-[2-(diethylamino)ethyl]-cis-1(Me),3(H),4(H)-cis-3(H)-1,8-dihydroxy-3-p-menthyl
##JCAMP-DX=4.24
##DATA TYPE=INFRARED SPECTRUM
##CLASS=COBLENTZ
##ORIGIN=ABBOTT LABORATORIES
##OWNER=Copyright (C) 1987 by the Coblentz Society
Collection (C) 2018 copyright by the U.S. Secretary of Commerce
on behalf of the United States of America. All rights reserved.
##DATE=1962/08/17
##MOLFORM=C19 H31 N O4
##SOURCE REFERENCE=COBLENTZ NO. 6142
##$NIST ID=B6006142
##$NIST SOURCE=COBLENTZ
##$NIST IMAGE=cob6142
##SPECTROMETER/DATA SYSTEM=PERKIN-ELMER 21 (GRATING)
##INSTRUMENT PARAMETERS=FILTER AT ABOUT 10 MICRONS
##STATE=SOLUTION (7% CHCl3 FOR 2.5-12.5 MICRON) VS SOLVENT
##PATH LENGTH=0.01 CM
$$ INACTIVE (CHCl3) AROUND 1220 CM^-^1
$$ SPECTRAL FEATURE AT 1072 CM^-^1 IS AN ARTIFACT
##RESOLUTION=2
##XUNITS=1/CM
##YUNITS=TRANSMITTANCE
##XFACTOR=1.0
##YFACTOR=1
##FIRSTX=798
##LASTX=4000
##FIRSTY=0.9965
##MAXX=4000
##MINX=798
##MAXY=0.9123
##MINY=0.0258
##NPOINTS=3203
##XYDATA=(X++(Y..Y))
798.000000 0.9965 0.9910 0.9889 0.9826 0.9780
803.000000 0.9725 0.9675 0.9625 0.9579 0.9536
808.000000 0.9494 0.9453 0.9411 0.9369 0.9327
813.000000 0.9285 0.9240 0.9201 0.9184 0.9167
818.000000 0.9150 0.9134 0.9117 0.9106 0.9101
823.000000 0.9057 0.8958 0.8880 0.8842 0.8829
828.000000 0.8816 0.8808 0.8795 0.8772 0.8744
833.000000 0.8700 0.8651 0.8598 0.8543 0.8521
838.000000 0.8579 0.8721 0.8885 0.8997 0.9050
843.000000 0.9074 0.9096 0.9106 0.9116 0.9117
848.000000 0.9115 0.9123 0.9101 0.9088 0.9060
853.000000 0.9018 0.8953 0.8879 0.8823 0.8771
858.000000 0.8758 0.8763 0.8787 0.8805 0.8823
863.000000 0.8836 0.8833 0.8819 0.8800 0.8773
868.000000 0.8739 0.8691 0.8630 0.8571 0.8515
873.000000 0.8459 0.8402 0.8341 0.8280 0.8211
878.000000 0.8141 0.8076 0.8029 0.8032 0.8026
883.000000 0.7971 0.7861 0.7782 0.7798 0.7875
888.000000 0.7917 0.7898 0.7843 0.7759 0.7570
893.000000 0.7455 0.7454 0.7454 0.7517 0.7848
898.000000 0.8078 0.8182 0.8252 0.8304 0.8345
903.000000 0.8381 0.8408 0.8423 0.8434 0.8457
908.000000 0.8404 0.8353 0.8294 0.8235 0.8171
913.000000 0.8106 0.8023 0.7936 0.7843 0.7753
918.000000 0.7668 0.7595 0.7552 0.7538 0.7529
923.000000 0.7519 0.7506 0.7488 0.7434 0.7164
928.000000 0.6797 0.6432 0.6066 0.5702 0.5338
933.000000 0.4980 0.4675 0.4509 0.4369 0.4378
938.000000 0.4398 0.4724 0.5089 0.5440 0.5651
943.000000 0.5835 0.6035 0.6128 0.6190 0.6242
948.000000 0.6285 0.6339 0.6452 0.6731 0.6972
953.000000 0.7175 0.7354 0.7529 0.7700 0.7849
958.000000 0.7945 0.8023 0.7971 0.7868 0.7761
963.000000 0.7659 0.7562 0.7466 0.7370 0.7278
968.000000 0.7185 0.7093 0.6983 0.6872 0.6761
973.000000 0.6652 0.6542 0.6427 0.6299 0.6214
978.000000 0.6178 0.6187 0.6323 0.6487 0.6651
983.000000 0.6815 0.6978 0.7140 0.7396 0.7445
988.000000 0.7457 0.7465 0.7470 0.7474 0.7481
993.000000 0.7490 0.7516 0.7559 0.7616 0.7689
998.000000 0.7767 0.7838 0.7863 0.7846 0.7797
1003.000000 0.7742 0.7695 0.7638 0.7557 0.7380
1008.000000 0.7225 0.7088 0.6921 0.6808 0.6789
1013.000000 0.6784 0.6876 0.6985 0.7088 0.7189
1018.000000 0.7298 0.7360 0.7353 0.7334 0.7299
1023.000000 0.7270 0.7259 0.7260 0.7271 0.7292
1028.000000 0.7341 0.7396 0.7453 0.7513 0.7540
1033.000000 0.7558 0.7513 0.7487 0.7451 0.7412
1038.000000 0.7374 0.7329 0.7284 0.7240 0.7198
1043.000000 0.7155 0.7113 0.7068 0.7025 0.6980
1048.000000 0.6925 0.6867 0.6809 0.6744 0.6671
1053.000000 0.6596 0.6521 0.6437 0.6296 0.6164
1058.000000 0.6039 0.5891 0.5696 0.5181 0.5153
1063.000000 0.5125 0.5110 0.5108 0.5103 0.5098
1068.000000 0.5096 0.5037 0.4721 0.4408 0.4377
1073.000000 0.5021 0.5509 0.5517 0.5510 0.5487
1078.000000 0.5424 0.5248 0.5070 0.4891 0.4714
1083.000000 0.4536 0.4358 0.4182 0.4008 0.3867
1088.000000 0.3775 0.3711 0.3692 0.3655 0.3770
1093.000000 0.3871 0.4020 0.4167 0.4314 0.4496
1098.000000 0.4632 0.4730 0.4838 0.4946 0.5027
1103.000000 0.5082 0.5105 0.5114 0.5121 0.5143
1108.000000 0.5186 0.5208 0.5220 0.5221 0.5219
1113.000000 0.5258 0.5207 0.5187 0.5136 0.5032
1118.000000 0.4874 0.4737 0.4441 0.4118 0.3796
1123.000000 0.3475 0.3154 0.2833 0.2514 0.2194
1128.000000 0.1875 0.1557 0.1254 0.1111 0.1001
1133.000000 0.0912 0.0835 0.0814 0.0802 0.0974
1138.000000 0.1108 0.1223 0.1318 0.1408 0.1542
1143.000000 0.1921 0.2314 0.2701 0.2904 0.2956
1148.000000 0.2960 0.2979 0.2872 0.2783 0.2727
1153.000000 0.2681 0.2667 0.2645 0.2730 0.2801
1158.000000 0.2820 0.2816 0.2832 0.2586 0.2471
1163.000000 0.2403 0.2395 0.2483 0.2729 0.3001
1168.000000 0.3272 0.3543 0.3813 0.4083 0.4352
1173.000000 0.4494 0.4526 0.4550 0.4790 0.5064
1178.000000 0.5194 0.5267 0.5278 0.5279 0.5248
1183.000000 0.5078 0.4872 0.4668 0.4463 0.4259
1188.000000 0.4059 0.3966 0.3943 0.3945 0.3953
1193.000000 0.3995 0.4076 0.4187 0.4314 0.4427
1198.000000 0.4517 0.4582 0.4625 0.4640 0.4651
1203.000000 0.4650 0.4646 0.4643 0.4636 0.4631
1208.000000 0.4620 0.4608 0.4598 0.4589 0.4580
1213.000000 0.4572 0.4571 0.4571 0.4571 0.4573
1218.000000 0.4577 0.4581 0.4585 0.4590 0.4595
1223.000000 0.4600 0.4607 0.4618 0.4629 0.4654
1228.000000 0.4703 0.4786 0.4879 0.4975 0.5077
1233.000000 0.5165 0.5211 0.5245 0.5258 0.5268
1238.000000 0.5272 0.5295 0.5245 0.5199 0.5056
1243.000000 0.4866 0.4676 0.4487 0.4299 0.4110
1248.000000 0.3922 0.3734 0.3547 0.3372 0.3249
1253.000000 0.3202 0.3196 0.3199 0.3174 0.3245
1258.000000 0.3311 0.3406 0.3498 0.3624 0.3842
1263.000000 0.4017 0.4073 0.4106 0.4125 0.4139
1268.000000 0.4142 0.4143 0.4143 0.4130 0.4136
1273.000000 0.4122 0.4105 0.4075 0.4039 0.3985
1278.000000 0.3926 0.3858 0.3797 0.3722 0.3744
1283.000000 0.3766 0.3791 0.3822 0.3864 0.3911
1288.000000 0.3964 0.4032 0.4153 0.4342 0.4530
1293.000000 0.4718 0.4905 0.5093 0.5280 0.5467
1298.000000 0.5653 0.5838 0.5961 0.5988 0.5992
1303.000000 0.5984 0.5928 0.5850 0.5772 0.5695
1308.000000 0.5617 0.5540 0.5474 0.5455 0.5461
1313.000000 0.5462 0.5586 0.5673 0.5760 0.5846
1318.000000 0.5933 0.6019 0.6105 0.6191 0.6278
1323.000000 0.6364 0.6449 0.6529 0.6569 0.6593
1328.000000 0.6611 0.6612 0.6569 0.6362 0.6094
1333.000000 0.5825 0.5556 0.5308 0.5221 0.5244
1338.000000 0.5573 0.5778 0.5982 0.6186 0.6379
1343.000000 0.6417 0.6424 0.6422 0.6418 0.6412
1348.000000 0.6400 0.6382 0.6363 0.6351 0.6349
1353.000000 0.6357 0.6403 0.6485 0.6572 0.6619
1358.000000 0.6640 0.6644 0.6646 0.6631 0.6469
1363.000000 0.6186 0.5904 0.5621 0.5339 0.5058
1368.000000 0.4777 0.4496 0.4261 0.4205 0.4142
1373.000000 0.4082 0.3993 0.3908 0.3811 0.3745
1378.000000 0.3720 0.3714 0.3809 0.4089 0.4387
1383.000000 0.4638 0.4711 0.4734 0.4753 0.4775
1388.000000 0.4803 0.5325 0.5974 0.6623 0.7268
1393.000000 0.7639 0.7716 0.7779 0.7843 0.7926
1398.000000 0.8006 0.8075 0.8140 0.8191 0.8220
1403.000000 0.8249 0.8277 0.8306 0.8331 0.8351
1408.000000 0.8370 0.8390 0.8401 0.8407 0.8413
1413.000000 0.8419 0.8425 0.8429 0.8425 0.8423
1418.000000 0.8410 0.8395 0.8379 0.8353 0.8320
1423.000000 0.8270 0.8183 0.8043 0.7896 0.7750
1428.000000 0.7603 0.7457 0.7310 0.7164 0.7019
1433.000000 0.6874 0.6728 0.6583 0.6438 0.6293
1438.000000 0.6149 0.6004 0.5860 0.5716 0.5582
1443.000000 0.5494 0.5430 0.5369 0.5318 0.5288
1448.000000 0.5281 0.5285 0.5292 0.5303 0.5330
1453.000000 0.5270 0.5470 0.5544 0.5606 0.5667
1458.000000 0.5729 0.5792 0.5854 0.5910 0.5957
1463.000000 0.6002 0.6044 0.6075 0.6103 0.6131
1468.000000 0.6159 0.6189 0.6230 0.6294 0.6376
1473.000000 0.6701 0.6952 0.7157 0.7369 0.7477
1478.000000 0.7585 0.7692 0.7799 0.7906 0.8033
1483.000000 0.8161 0.8291 0.8403 0.8478 0.8540
1488.000000 0.8596 0.8638 0.8678 0.8706 0.8727
1493.000000 0.8748 0.8769 0.8789 0.8809 0.8829
1498.000000 0.8846 0.8863 0.8880 0.8898 0.8916
1503.000000 0.8936 0.8956 0.8975 0.8994 0.9013
1508.000000 0.9031 0.9049 0.9059 0.9067 0.9074
1513.000000 0.9079 0.9082 0.9084 0.9086 0.9089
1518.000000 0.9089 0.9089 0.9089 0.9089 0.9089
1523.000000 0.9087 0.9085 0.9082 0.9078 0.9075
1528.000000 0.9101 0.9069 0.9065 0.9062 0.9059
1533.000000 0.9056 0.9052 0.9048 0.9045 0.9042
1538.000000 0.9039 0.9035 0.9032 0.9028 0.9025
1543.000000 0.9020 0.9015 0.9010 0.9006 0.9001
1548.000000 0.8995 0.8990 0.8986 0.8980 0.8974
1553.000000 0.8968 0.8962 0.8957 0.8951 0.8945
1558.000000 0.8940 0.8938 0.8937 0.8935 0.8934
1563.000000 0.8931 0.8930 0.8928 0.8926 0.8925
1568.000000 0.8923 0.8923 0.8924 0.8925 0.8926
1573.000000 0.8926 0.8927 0.8928 0.8929 0.8930
1578.000000 0.8930 0.8929 0.8929 0.8928 0.8927
1583.000000 0.8926 0.8926 0.8925 0.8924 0.8921
1588.000000 0.8915 0.8909 0.8903 0.8898 0.8892
1593.000000 0.8886 0.8881 0.8875 0.8869 0.8862
1598.000000 0.8854 0.8845 0.8836 0.8826 0.8817
1603.000000 0.8809 0.8800 0.8791 0.8782 0.8773
1608.000000 0.8762 0.8751 0.8740 0.8729 0.8718
1613.000000 0.8707 0.8697 0.8687 0.8679 0.8671
1618.000000 0.8663 0.8655 0.8652 0.8650 0.8648
1623.000000 0.8647 0.8645 0.8644 0.8643 0.8641
1628.000000 0.8640 0.8638 0.8637 0.8636 0.8634
1633.000000 0.8633 0.8631 0.8628 0.8622 0.8617
1638.000000 0.8612 0.8607 0.8602 0.8597 0.8590
1643.000000 0.8581 0.8570 0.8560 0.8549 0.8538
1648.000000 0.8527 0.8515 0.8501 0.8486 0.8472
1653.000000 0.8458 0.8443 0.8429 0.8415 0.8401
1658.000000 0.8387 0.8373 0.8359 0.8343 0.8328
1663.000000 0.8313 0.8298 0.8282 0.8260 0.8232
1668.000000 0.8205 0.8177 0.8150 0.8118 0.8087
1673.000000 0.8056 0.8026 0.7994 0.7961 0.7927
1678.000000 0.7894 0.7859 0.7794 0.7686 0.7574
1683.000000 0.7461 0.7348 0.7235 0.7123 0.7010
1688.000000 0.6898 0.6810 0.6774 0.6747 0.6675
1693.000000 0.6526 0.6316 0.6108 0.5900 0.5693
1698.000000 0.5486 0.5280 0.5073 0.4883 0.4752
1703.000000 0.4741 0.4730 0.4718 0.4705 0.4691
1708.000000 0.4678 0.4665 0.4651 0.4632 0.4611
1713.000000 0.4586 0.4559 0.4530 0.4500 0.4463
1718.000000 0.4414 0.4356 0.4303 0.4254 0.4205
1723.000000 0.4149 0.4083 0.3953 0.3702 0.3395
1728.000000 0.3089 0.2783 0.2478 0.2173 0.1869
1733.000000 0.1565 0.1261 0.0957 0.0654 0.0353
1738.000000 0.0258 0.0258 0.0269 0.0262 0.0265
1743.000000 0.0274 0.0285 0.0307 0.0347 0.0404
1748.000000 0.0448 0.0493 0.0573 0.0671 0.0740
1753.000000 0.0843 0.0948 0.1126 0.1375 0.1669
1758.000000 0.1962 0.2255 0.2547 0.2839 0.3132
1763.000000 0.3423 0.3714 0.4005 0.4295 0.4585
1768.000000 0.4876 0.5165 0.5454 0.5743 0.6031
1773.000000 0.6319 0.6534 0.6678 0.6851 0.7073
1778.000000 0.7167 0.7261 0.7366 0.7478 0.7601
1783.000000 0.7824 0.7951 0.8031 0.8090 0.8149
1788.000000 0.8208 0.8260 0.8308 0.8352 0.8397
1793.000000 0.8442 0.8478 0.8508 0.8535 0.8562
1798.000000 0.8590 0.8616 0.8640 0.8656 0.8672
1803.000000 0.8687 0.8701 0.8711 0.8717 0.8723
1808.000000 0.8730 0.8737 0.8743 0.8749 0.8755
1813.000000 0.8761 0.8767 0.8771 0.8775 0.8779
1818.000000 0.8783 0.8787 0.8790 0.8794 0.8798
1823.000000 0.8802 0.8805 0.8809 0.8813 0.8817
1828.000000 0.8820 0.8824 0.8828 0.8831 0.8834
1833.000000 0.8838 0.8842 0.8845 0.8848 0.8852
1838.000000 0.8856 0.8859 0.8862 0.8866 0.8869
1843.000000 0.8873 0.8876 0.8879 0.8883 0.8886
1848.000000 0.8888 0.8890 0.8893 0.8896 0.8898
1853.000000 0.8900 0.8902 0.8905 0.8908 0.8910
1858.000000 0.8912 0.8914 0.8917 0.8919 0.8922
1863.000000 0.8924 0.8927 0.8930 0.8933 0.8936
1868.000000 0.8940 0.8943 0.8946 0.8950 0.8953
1873.000000 0.8956 0.8959 0.8962 0.8965 0.8969
1878.000000 0.8972 0.8975 0.8978 0.8981 0.8985
1883.000000 0.8988 0.8991 0.8993 0.8995 0.8997
1888.000000 0.8998 0.9000 0.9002 0.9003 0.9005
1893.000000 0.9007 0.9009 0.9010 0.9012 0.9014
1898.000000 0.9015 0.9017 0.9019 0.9020 0.9022
1903.000000 0.9023 0.9025 0.9027 0.9028 0.9030
1908.000000 0.9032 0.9033 0.9035 0.9035 0.9036
1913.000000 0.9037 0.9037 0.9038 0.9039 0.9039
1918.000000 0.9041 0.9042 0.9042 0.9043 0.9044
1923.000000 0.9044 0.9045 0.9046 0.9046 0.9048
1928.000000 0.9049 0.9049 0.9050 0.9051 0.9052
1933.000000 0.9052 0.9053 0.9054 0.9054 0.9055
1938.000000 0.9057 0.9057 0.9057 0.9058 0.9058
1943.000000 0.9058 0.9058 0.9059 0.9059 0.9059
1948.000000 0.9060 0.9061 0.9061 0.9061 0.9062
1953.000000 0.9062 0.9062 0.9063 0.9063 0.9064
1958.000000 0.9064 0.9064 0.9065 0.9065 0.9065
1963.000000 0.9066 0.9066 0.9066 0.9067 0.9068
1968.000000 0.9068 0.9068 0.9068 0.9068 0.9068
1973.000000 0.9068 0.9068 0.9068 0.9068 0.9068
1978.000000 0.9069 0.9069 0.9069 0.9069 0.9069
1983.000000 0.9069 0.9069 0.9069 0.9069 0.9069
1988.000000 0.9069 0.9069 0.9069 0.9069 0.9069
1993.000000 0.9069 0.9069 0.9069 0.9069 0.9069
1998.000000 0.9069 0.9069 0.9069 0.9069 0.9069
2003.000000 0.9069 0.9069 0.9069 0.9069 0.9068
2008.000000 0.9068 0.9068 0.9067 0.9067 0.9067
2013.000000 0.9077 0.9066 0.9066 0.9066 0.9065
2018.000000 0.9065 0.9065 0.9064 0.9064 0.9063
2023.000000 0.9063 0.9063 0.9062 0.9062 0.9062
2028.000000 0.9061 0.9061 0.9061 0.9060 0.9060
2033.000000 0.9060 0.9060 0.9059 0.9058 0.9058
2038.000000 0.9057 0.9056 0.9055 0.9054 0.9054
2043.000000 0.9053 0.9052 0.9051 0.9050 0.9050
2048.000000 0.9049 0.9048 0.9047 0.9046 0.9046
2053.000000 0.9045 0.9044 0.9043 0.9042 0.9042
2058.000000 0.9041 0.9040 0.9039 0.9039 0.9037
2063.000000 0.9036 0.9035 0.9034 0.9033 0.9032
2068.000000 0.9031 0.9030 0.9029 0.9028 0.9027
2073.000000 0.9025 0.9024 0.9023 0.9022 0.9021
2078.000000 0.9020 0.9019 0.9017 0.9016 0.9015
2083.000000 0.9014 0.9013 0.9013 0.9011 0.9010
2088.000000 0.9009 0.9008 0.9007 0.9006 0.9005
2093.000000 0.9003 0.9002 0.9002 0.9001 0.9000
2098.000000 0.8999 0.8998 0.8997 0.8996 0.8995
2103.000000 0.8994 0.8993 0.8992 0.8992 0.8991
2108.000000 0.8989 0.8988 0.8987 0.8987 0.8986
2113.000000 0.8985 0.8984 0.8983 0.8982 0.8981
2118.000000 0.8980 0.8979 0.8978 0.8977 0.8977
2123.000000 0.8976 0.8975 0.8973 0.8972 0.8972
2128.000000 0.8972 0.8972 0.8971 0.8971 0.8970
2133.000000 0.8970 0.8970 0.8969 0.8969 0.8969
2138.000000 0.8969 0.8968 0.8968 0.8968 0.8968
2143.000000 0.8967 0.8967 0.8967 0.8966 0.8966
2148.000000 0.8965 0.8965 0.8965 0.8965 0.8964
2153.000000 0.8964 0.8964 0.8964 0.8963 0.8963
2158.000000 0.8963 0.8962 0.8962 0.8962 0.8962
2163.000000 0.8961 0.8961 0.8961 0.8961 0.8960
2168.000000 0.8960 0.8960 0.8960 0.8960 0.8960
2173.000000 0.8959 0.8959 0.8959 0.8958 0.8958
2178.000000 0.8958 0.8958 0.8957 0.8957 0.8957
2183.000000 0.8957 0.8957 0.8957 0.8956 0.8956
2188.000000 0.8956 0.8956 0.8955 0.8955 0.8954
2193.000000 0.8954 0.8954 0.8953 0.8953 0.8953
2198.000000 0.8953 0.8952 0.8952 0.8951 0.8951
2203.000000 0.8951 0.8951 0.8950 0.8950 0.8950
2208.000000 0.8950 0.8949 0.8949 0.8948 0.8948
2213.000000 0.8948 0.8948 0.8947 0.8947 0.8947
2218.000000 0.8947 0.8946 0.8946 0.8946 0.8946
2223.000000 0.8945 0.8945 0.8945 0.8945 0.8945
2228.000000 0.8945 0.8945 0.8945 0.8944 0.8944
2233.000000 0.8944 0.8944 0.8944 0.8944 0.8943
2238.000000 0.8943 0.8943 0.8943 0.8943 0.8943
2243.000000 0.8943 0.8943 0.8942 0.8942 0.8942
2248.000000 0.8942 0.8942 0.8942 0.8942 0.8942
2253.000000 0.8941 0.8941 0.8941 0.8941 0.8941
2258.000000 0.8941 0.8940 0.8940 0.8940 0.8940
2263.000000 0.8940 0.8940 0.8940 0.8940 0.8940
2268.000000 0.8940 0.8941 0.8941 0.8941 0.8941
2273.000000 0.8941 0.8941 0.8941 0.8941 0.8942
2278.000000 0.8942 0.8942 0.8942 0.8942 0.8942
2283.000000 0.8942 0.8943 0.8943 0.8943 0.8943
2288.000000 0.8943 0.8943 0.8943 0.8943 0.8944
2293.000000 0.8944 0.8944 0.8944 0.8944 0.8944
2298.000000 0.8943 0.8943 0.8943 0.8943 0.8943
2303.000000 0.8943 0.8943 0.8942 0.8942 0.8942
2308.000000 0.8942 0.8941 0.8941 0.8941 0.8941
2313.000000 0.8941 0.8941 0.8940 0.8940 0.8940
2318.000000 0.8940 0.8940 0.8940 0.8940 0.8939
2323.000000 0.8939 0.8939 0.8939 0.8938 0.8938
2328.000000 0.8938 0.8938 0.8938 0.8938 0.8938
2333.000000 0.8937 0.8937 0.8937 0.8937 0.8936
2338.000000 0.8936 0.8936 0.8936 0.8936 0.8936
2343.000000 0.8936 0.8935 0.8935 0.8935 0.8935
2348.000000 0.8934 0.8934 0.8934 0.8934 0.8934
2353.000000 0.8934 0.8934 0.8933 0.8933 0.8933
2358.000000 0.8933 0.8932 0.8932 0.8932 0.8932
2363.000000 0.8931 0.8931 0.8931 0.8931 0.8931
2368.000000 0.8930 0.8930 0.8930 0.8930 0.8930
2373.000000 0.8930 0.8930 0.8929 0.8929 0.8929
2378.000000 0.8929 0.8928 0.8928 0.8927 0.8927
2383.000000 0.8927 0.8927 0.8927 0.8926 0.8926
2388.000000 0.8925 0.8925 0.8925 0.8924 0.8924
2393.000000 0.8923 0.8923 0.8922 0.8922 0.8921
2398.000000 0.8918 0.8914 0.8904 0.8891 0.8879
2403.000000 0.8867 0.8856 0.8845 0.8834 0.8823
2408.000000 0.8812 0.8801 0.8791 0.8782 0.8777
2413.000000 0.8771 0.8766 0.8761 0.8756 0.8752
2418.000000 0.8748 0.8746 0.8745 0.8743 0.8742
2423.000000 0.8741 0.8739 0.8737 0.8736 0.8735
2428.000000 0.8733 0.8731 0.8730 0.8729 0.8727
2433.000000 0.8727 0.8726 0.8725 0.8724 0.8723
2438.000000 0.8722 0.8722 0.8721 0.8720 0.8719
2443.000000 0.8718 0.8717 0.8716 0.8716 0.8715
2448.000000 0.8714 0.8713 0.8712 0.8711 0.8711
2453.000000 0.8710 0.8709 0.8708 0.8707 0.8707
2458.000000 0.8706 0.8705 0.8704 0.8703 0.8702
2463.000000 0.8702 0.8701 0.8700 0.8699 0.8698
2468.000000 0.8697 0.8697 0.8696 0.8695 0.8694
2473.000000 0.8693 0.8693 0.8693 0.8693 0.8693
2478.000000 0.8693 0.8693 0.8693 0.8692 0.8692
2483.000000 0.8692 0.8692 0.8692 0.8692 0.8692
2488.000000 0.8692 0.8692 0.8692 0.8692 0.8692
2493.000000 0.8691 0.8691 0.8691 0.8691 0.8691
2498.000000 0.8691 0.8691 0.8691 0.8691 0.8691
2503.000000 0.8691 0.8691 0.8691 0.8690 0.8690
2508.000000 0.8690 0.8690 0.8690 0.8690 0.8690
2513.000000 0.8690 0.8690 0.8690 0.8689 0.8689
2518.000000 0.8689 0.8689 0.8689 0.8689 0.8689
2523.000000 0.8689 0.8689 0.8689 0.8688 0.8688
2528.000000 0.8688 0.8688 0.8688 0.8688 0.8688
2533.000000 0.8688 0.8688 0.8688 0.8688 0.8688
2538.000000 0.8688 0.8687 0.8687 0.8687 0.8687
2543.000000 0.8687 0.8688 0.8688 0.8689 0.8689
2548.000000 0.8689 0.8689 0.8689 0.8689 0.8690
2553.000000 0.8690 0.8691 0.8691 0.8691 0.8692
2558.000000 0.8692 0.8692 0.8692 0.8692 0.8693
2563.000000 0.8693 0.8693 0.8694 0.8694 0.8695
2568.000000 0.8695 0.8695 0.8694 0.8694 0.8694
2573.000000 0.8694 0.8694 0.8694 0.8694 0.8694
2578.000000 0.8693 0.8693 0.8693 0.8693 0.8693
2583.000000 0.8692 0.8692 0.8692 0.8692 0.8692
2588.000000 0.8692 0.8692 0.8692 0.8692 0.8692
2593.000000 0.8692 0.8692 0.8692 0.8692 0.8692
2598.000000 0.8692 0.8692 0.8692 0.8692 0.8692
2603.000000 0.8692 0.8692 0.8692 0.8692 0.8692
2608.000000 0.8692 0.8692 0.8691 0.8690 0.8689
2613.000000 0.8687 0.8685 0.8683 0.8681 0.8679
2618.000000 0.8677 0.8675 0.8673 0.8671 0.8669
2623.000000 0.8667 0.8665 0.8663 0.8661 0.8658
2628.000000 0.8655 0.8652 0.8649 0.8645 0.8642
2633.000000 0.8639 0.8636 0.8632 0.8629 0.8626
2638.000000 0.8623 0.8620 0.8617 0.8614 0.8611
2643.000000 0.8608 0.8604 0.8601 0.8598 0.8595
2648.000000 0.8591 0.8588 0.8585 0.8582 0.8579
2653.000000 0.8575 0.8572 0.8567 0.8561 0.8556
2658.000000 0.8550 0.8545 0.8539 0.8534 0.8529
2663.000000 0.8523 0.8518 0.8512 0.8507 0.8501
2668.000000 0.8496 0.8491 0.8485 0.8480 0.8475
2673.000000 0.8469 0.8463 0.8458 0.8453 0.8448
2678.000000 0.8442 0.8436 0.8430 0.8424 0.8417
2683.000000 0.8410 0.8403 0.8396 0.8390 0.8383
2688.000000 0.8376 0.8369 0.8362 0.8355 0.8348
2693.000000 0.8342 0.8335 0.8326 0.8317 0.8307
2698.000000 0.8298 0.8289 0.8280 0.8270 0.8261
2703.000000 0.8252 0.8242 0.8233 0.8223 0.8214
2708.000000 0.8205 0.8195 0.8186 0.8177 0.8167
2713.000000 0.8157 0.8146 0.8135 0.8124 0.8113
2718.000000 0.8102 0.8091 0.8079 0.8068 0.8057
2723.000000 0.8046 0.8035 0.8024 0.8013 0.8001
2728.000000 0.7989 0.7978 0.7965 0.7953 0.7940
2733.000000 0.7928 0.7916 0.7904 0.7892 0.7880
2738.000000 0.7868 0.7856 0.7844 0.7832 0.7820
2743.000000 0.7808 0.7796 0.7783 0.7769 0.7755
2748.000000 0.7739 0.7723 0.7706 0.7690 0.7673
2753.000000 0.7657 0.7640 0.7622 0.7605 0.7585
2758.000000 0.7562 0.7539 0.7517 0.7494 0.7471
2763.000000 0.7449 0.7428 0.7407 0.7386 0.7365
2768.000000 0.7344 0.7318 0.7287 0.7256 0.7224
2773.000000 0.7193 0.7161 0.7130 0.7100 0.7070
2778.000000 0.7040 0.7010 0.6980 0.6948 0.6909
2783.000000 0.6869 0.6830 0.6794 0.6758 0.6722
2788.000000 0.6695 0.6669 0.6642 0.6616 0.6590
2793.000000 0.6564 0.6529 0.6489 0.6450 0.6377
2798.000000 0.6281 0.6184 0.6123 0.6106 0.6088
2803.000000 0.6075 0.6068 0.6062 0.6057 0.6058
2808.000000 0.6059 0.6061 0.6066 0.6071 0.6077
2813.000000 0.6091 0.6107 0.6123 0.6141 0.6160
2818.000000 0.6178 0.6196 0.6212 0.6229 0.6243
2823.000000 0.6255 0.6267 0.6277 0.6282 0.6287
2828.000000 0.6291 0.6292 0.6293 0.6293 0.6294
2833.000000 0.6295 0.6296 0.6297 0.6297 0.6297
2838.000000 0.6298 0.6298 0.6298 0.6297 0.6297
2843.000000 0.6297 0.6297 0.6295 0.6293 0.6291
2848.000000 0.6289 0.6287 0.6285 0.6282 0.6278
2853.000000 0.6274 0.6269 0.6260 0.6251 0.6242
2858.000000 0.6224 0.6205 0.6186 0.6151 0.6104
2863.000000 0.6058 0.6011 0.5965 0.5919 0.5872
2868.000000 0.5823 0.5773 0.5724 0.5670 0.5614
2873.000000 0.5559 0.5512 0.5475 0.5439 0.5404
2878.000000 0.5375 0.5346 0.5318 0.5294 0.5272
2883.000000 0.5249 0.5227 0.5206 0.5184 0.5163
2888.000000 0.5144 0.5125 0.5106 0.5088 0.5070
2893.000000 0.5052 0.5030 0.5004 0.4979 0.4953
2898.000000 0.4926 0.4898 0.4871 0.4845 0.4819
2903.000000 0.4793 0.4767 0.4742 0.4716 0.4691
2908.000000 0.4662 0.4632 0.4603 0.4573 0.4541
2913.000000 0.4510 0.4477 0.4441 0.4405 0.4368
2918.000000 0.4323 0.4276 0.4229 0.4152 0.4039
2923.000000 0.3925 0.3812 0.3737 0.3662 0.3587
2928.000000 0.3545 0.3523 0.3501 0.3480 0.3458
2933.000000 0.3437 0.3415 0.3401 0.3390 0.3379
2938.000000 0.3369 0.3360 0.3352 0.3343 0.3337
2943.000000 0.3332 0.3327 0.3322 0.3319 0.3315
2948.000000 0.3312 0.3309 0.3306 0.3302 0.3300
2953.000000 0.3298 0.3297 0.3296 0.3296 0.3297
2958.000000 0.3297 0.3298 0.3298 0.3299 0.3299
2963.000000 0.3299 0.3301 0.3302 0.3303 0.3306
2968.000000 0.3308 0.3310 0.3339 0.3372 0.3405
2973.000000 0.3459 0.3553 0.3647 0.3742 0.3835
2978.000000 0.3929 0.4022 0.4116 0.4210 0.4303
2983.000000 0.4397 0.4491 0.4584 0.4677 0.4771
2988.000000 0.4864 0.4957 0.5050 0.5143 0.5236
2993.000000 0.5329 0.5422 0.5515 0.5608 0.5701
2998.000000 0.5793 0.5885 0.5978 0.6070 0.6162
3003.000000 0.6255 0.6347 0.6439 0.6531 0.6623
3008.000000 0.6715 0.6807 0.6899 0.6991 0.7083
3013.000000 0.7138 0.7192 0.7245 0.7296 0.7340
3018.000000 0.7385 0.7429 0.7468 0.7503 0.7539
3023.000000 0.7574 0.7604 0.7633 0.7663 0.7691
3028.000000 0.7718 0.7745 0.7772 0.7798 0.7822
3033.000000 0.7847 0.7872 0.7897 0.7922 0.7947
3038.000000 0.7972 0.7997 0.8022 0.8046 0.8067
3043.000000 0.8086 0.8104 0.8122 0.8139 0.8155
3048.000000 0.8171 0.8187 0.8203 0.8219 0.8235
3053.000000 0.8251 0.8269 0.8287 0.8304 0.8323
3058.000000 0.8342 0.8361 0.8380 0.8398 0.8416
3063.000000 0.8434 0.8451 0.8465 0.8479 0.8493
3068.000000 0.8506 0.8520 0.8534 0.8547 0.8556
3073.000000 0.8564 0.8572 0.8579 0.8584 0.8589
3078.000000 0.8594 0.8599 0.8605 0.8610 0.8615
3083.000000 0.8620 0.8625 0.8630 0.8635 0.8639
3088.000000 0.8643 0.8646 0.8650 0.8652 0.8653
3093.000000 0.8655 0.8656 0.8658 0.8659 0.8660
3098.000000 0.8662 0.8663 0.8664 0.8666 0.8667
3103.000000 0.8668 0.8670 0.8672 0.8673 0.8674
3108.000000 0.8676 0.8677 0.8678 0.8679 0.8681
3113.000000 0.8682 0.8683 0.8684 0.8685 0.8685
3118.000000 0.8686 0.8686 0.8686 0.8686 0.8687
3123.000000 0.8687 0.8687 0.8688 0.8688 0.8688
3128.000000 0.8688 0.8707 0.8689 0.8689 0.8689
3133.000000 0.8690 0.8690 0.8691 0.8691 0.8692
3138.000000 0.8692 0.8692 0.8692 0.8693 0.8693
3143.000000 0.8693 0.8693 0.8692 0.8692 0.8692
3148.000000 0.8692 0.8692 0.8692 0.8692 0.8692
3153.000000 0.8691 0.8691 0.8691 0.8691 0.8691
3158.000000 0.8691 0.8691 0.8691 0.8690 0.8690
3163.000000 0.8690 0.8690 0.8690 0.8690 0.8690
3168.000000 0.8690 0.8689 0.8689 0.8689 0.8689
3173.000000 0.8688 0.8688 0.8687 0.8687 0.8686
3178.000000 0.8686 0.8686 0.8686 0.8685 0.8685
3183.000000 0.8684 0.8684 0.8683 0.8683 0.8682
3188.000000 0.8682 0.8681 0.8681 0.8680 0.8680
3193.000000 0.8679 0.8679 0.8678 0.8678 0.8677
3198.000000 0.8677 0.8676 0.8676 0.8676 0.8675
3203.000000 0.8675 0.8674 0.8674 0.8673 0.8673
3208.000000 0.8673 0.8673 0.8672 0.8671 0.8670
3213.000000 0.8670 0.8669 0.8669 0.8668 0.8668
3218.000000 0.8667 0.8667 0.8666 0.8666 0.8665
3223.000000 0.8665 0.8664 0.8664 0.8663 0.8663
3228.000000 0.8662 0.8662 0.8661 0.8661 0.8661
3233.000000 0.8660 0.8660 0.8659 0.8659 0.8658
3238.000000 0.8658 0.8657 0.8656 0.8656 0.8655
3243.000000 0.8654 0.8654 0.8653 0.8653 0.8652
3248.000000 0.8652 0.8651 0.8651 0.8650 0.8650
3253.000000 0.8650 0.8649 0.8649 0.8648 0.8648
3258.000000 0.8647 0.8647 0.8646 0.8646 0.8645
3263.000000 0.8645 0.8644 0.8644 0.8643 0.8643
3268.000000 0.8642 0.8642 0.8642 0.8641 0.8641
3273.000000 0.8640 0.8640 0.8639 0.8639 0.8638
3278.000000 0.8638 0.8637 0.8637 0.8636 0.8636
3283.000000 0.8635 0.8635 0.8635 0.8634 0.8634
3288.000000 0.8633 0.8633 0.8632 0.8632 0.8631
3293.000000 0.8631 0.8630 0.8630 0.8629 0.8629
3298.000000 0.8629 0.8628 0.8628 0.8628 0.8628
3303.000000 0.8627 0.8627 0.8626 0.8626 0.8625
3308.000000 0.8625 0.8625 0.8624 0.8624 0.8623
3313.000000 0.8623 0.8622 0.8622 0.8621 0.8621
3318.000000 0.8620 0.8620 0.8620 0.8619 0.8619
3323.000000 0.8619 0.8619 0.8618 0.8618 0.8617
3328.000000 0.8617 0.8616 0.8616 0.8616 0.8615
3333.000000 0.8615 0.8614 0.8614 0.8613 0.8613
3338.000000 0.8612 0.8612 0.8612 0.8612 0.8612
3343.000000 0.8611 0.8611 0.8610 0.8610 0.8609
3348.000000 0.8609 0.8608 0.8608 0.8608 0.8607
3353.000000 0.8607 0.8606 0.8606 0.8606 0.8606
3358.000000 0.8606 0.8606 0.8606 0.8606 0.8606
3363.000000 0.8606 0.8606 0.8606 0.8606 0.8606
3368.000000 0.8606 0.8606 0.8606 0.8606 0.8606
3373.000000 0.8606 0.8606 0.8606 0.8606 0.8606
3378.000000 0.8606 0.8613 0.8606 0.8606 0.8606
3383.000000 0.8606 0.8606 0.8606 0.8606 0.8606
3388.000000 0.8606 0.8606 0.8606 0.8606 0.8606
3393.000000 0.8606 0.8606 0.8606 0.8606 0.8606
3398.000000 0.8606 0.8606 0.8606 0.8606 0.8607
3403.000000 0.8608 0.8609 0.8610 0.8611 0.8611
3408.000000 0.8612 0.8613 0.8614 0.8615 0.8616
3413.000000 0.8617 0.8617 0.8618 0.8619 0.8620
3418.000000 0.8621 0.8622 0.8623 0.8623 0.8624
3423.000000 0.8625 0.8626 0.8627 0.8628 0.8628
3428.000000 0.8629 0.8630 0.8631 0.8632 0.8632
3433.000000 0.8633 0.8633 0.8635 0.8637 0.8638
3438.000000 0.8640 0.8642 0.8644 0.8645 0.8647
3443.000000 0.8649 0.8650 0.8652 0.8654 0.8655
3448.000000 0.8657 0.8659 0.8660 0.8662 0.8664
3453.000000 0.8665 0.8667 0.8669 0.8670 0.8672
3458.000000 0.8674 0.8675 0.8677 0.8679 0.8680
3463.000000 0.8682 0.8684 0.8685 0.8687 0.8689
3468.000000 0.8690 0.8692 0.8694 0.8695 0.8697
3473.000000 0.8699 0.8701 0.8703 0.8705 0.8706
3478.000000 0.8708 0.8710 0.8711 0.8713 0.8715
3483.000000 0.8716 0.8718 0.8720 0.8721 0.8723
3488.000000 0.8725 0.8728 0.8730 0.8732 0.8735
3493.000000 0.8737 0.8740 0.8742 0.8745 0.8748
3498.000000 0.8750 0.8753 0.8756 0.8758 0.8761
3503.000000 0.8763 0.8766 0.8768 0.8771 0.8773
3508.000000 0.8776 0.8779 0.8781 0.8784 0.8787
3513.000000 0.8789 0.8792 0.8794 0.8797 0.8800
3518.000000 0.8802 0.8805 0.8808 0.8810 0.8813
3523.000000 0.8815 0.8818 0.8821 0.8823 0.8826
3528.000000 0.8828 0.8831 0.8833 0.8835 0.8838
3533.000000 0.8840 0.8842 0.8844 0.8846 0.8848
3538.000000 0.8849 0.8851 0.8852 0.8853 0.8855
3543.000000 0.8856 0.8858 0.8859 0.8860 0.8862
3548.000000 0.8863 0.8865 0.8866 0.8867 0.8869
3553.000000 0.8870 0.8872 0.8874 0.8875 0.8877
3558.000000 0.8878 0.8879 0.8881 0.8882 0.8884
3563.000000 0.8885 0.8886 0.8888 0.8889 0.8890
3568.000000 0.8892 0.8893 0.8895 0.8896 0.8897
3573.000000 0.8899 0.8900 0.8901 0.8903 0.8904
3578.000000 0.8905 0.8907 0.8908 0.8910 0.8911
3583.000000 0.8912 0.8912 0.8913 0.8914 0.8915
3588.000000 0.8915 0.8915 0.8916 0.8916 0.8917
3593.000000 0.8917 0.8917 0.8918 0.8918 0.8918
3598.000000 0.8919 0.8919 0.8920 0.8920 0.8920
3603.000000 0.8921 0.8921 0.8922 0.8922 0.8922
3608.000000 0.8923 0.8923 0.8923 0.8924 0.8924
3613.000000 0.8925 0.8925 0.8925 0.8926 0.8926
3618.000000 0.8927 0.8927 0.8927 0.8928 0.8928
3623.000000 0.8928 0.8929 0.8929 0.8930 0.8930
3628.000000 0.8930 0.8931 0.8931 0.8932 0.8933
3633.000000 0.8933 0.8934 0.8934 0.8934 0.8934
3638.000000 0.8934 0.8934 0.8935 0.8935 0.8935
3643.000000 0.8935 0.8935 0.8934 0.8934 0.8934
3648.000000 0.8934 0.8934 0.8934 0.8934 0.8934
3653.000000 0.8934 0.8934 0.8933 0.8933 0.8933
3658.000000 0.8933 0.8933 0.8933 0.8933 0.8933
3663.000000 0.8933 0.8933 0.8933 0.8932 0.8932
3668.000000 0.8932 0.8932 0.8932 0.8932 0.8932
3673.000000 0.8932 0.8932 0.8932 0.8932 0.8931
3678.000000 0.8931 0.8931 0.8931 0.8931 0.8931
3683.000000 0.8931 0.8931 0.8931 0.8931 0.8931
3688.000000 0.8930 0.8930 0.8930 0.8930 0.8930
3693.000000 0.8930 0.8930 0.8930 0.8930 0.8930
3698.000000 0.8930 0.8929 0.8929 0.8929 0.8929
3703.000000 0.8929 0.8929 0.8929 0.8929 0.8929
3708.000000 0.8929 0.8929 0.8928 0.8928 0.8928
3713.000000 0.8928 0.8928 0.8927 0.8927 0.8927
3718.000000 0.8927 0.8927 0.8927 0.8926 0.8926
3723.000000 0.8926 0.8926 0.8926 0.8926 0.8926
3728.000000 0.8926 0.8926 0.8926 0.8926 0.8925
3733.000000 0.8925 0.8925 0.8925 0.8925 0.8924
3738.000000 0.8924 0.8924 0.8924 0.8924 0.8924
3743.000000 0.8923 0.8923 0.8923 0.8923 0.8923
3748.000000 0.8923 0.8923 0.8923 0.8923 0.8923
3753.000000 0.8923 0.8922 0.8922 0.8922 0.8922
3758.000000 0.8922 0.8922 0.8921 0.8921 0.8921
3763.000000 0.8921 0.8921 0.8921 0.8921 0.8921
3768.000000 0.8921 0.8921 0.8921 0.8920 0.8920
3773.000000 0.8920 0.8920 0.8920 0.8920 0.8919
3778.000000 0.8919 0.8919 0.8919 0.8919 0.8919
3783.000000 0.8918 0.8918 0.8918 0.8918 0.8918
3788.000000 0.8917 0.8917 0.8917 0.8917 0.8917
3793.000000 0.8917 0.8917 0.8917 0.8917 0.8917
3798.000000 0.8917 0.8917 0.8916 0.8916 0.8916
3803.000000 0.8916 0.8916 0.8916 0.8915 0.8915
3808.000000 0.8915 0.8915 0.8915 0.8914 0.8914
3813.000000 0.8914 0.8914 0.8914 0.8914 0.8913
3818.000000 0.8913 0.8913 0.8913 0.8913 0.8913
3823.000000 0.8912 0.8912 0.8912 0.8912 0.8912
3828.000000 0.8912 0.8911 0.8911 0.8911 0.8911
3833.000000 0.8911 0.8911 0.8911 0.8911 0.8911
3838.000000 0.8911 0.8911 0.8911 0.8910 0.8910
3843.000000 0.8910 0.8910 0.8910 0.8910 0.8909
3848.000000 0.8909 0.8909 0.8909 0.8909 0.8909
3853.000000 0.8908 0.8908 0.8908 0.8908 0.8908
3858.000000 0.8908 0.8907 0.8907 0.8907 0.8907
3863.000000 0.8907 0.8907 0.8907 0.8907 0.8907
3868.000000 0.8907 0.8907 0.8906 0.8906 0.8906
3873.000000 0.8906 0.8906 0.8906 0.8905 0.8905
3878.000000 0.8905 0.8905 0.8905 0.8905 0.8904
3883.000000 0.8904 0.8904 0.8904 0.8904 0.8904
3888.000000 0.8904 0.8904 0.8904 0.8904 0.8904
3893.000000 0.8904 0.8904 0.8903 0.8903 0.8903
3898.000000 0.8903 0.8903 0.8903 0.8902 0.8902
3903.000000 0.8902 0.8902 0.8902 0.8902 0.8901
3908.000000 0.8901 0.8901 0.8901 0.8901 0.8901
3913.000000 0.8901 0.8901 0.8901 0.8901 0.8901
3918.000000 0.8901 0.8900 0.8900 0.8900 0.8900
3923.000000 0.8900 0.8900 0.8899 0.8899 0.8899
3928.000000 0.8899 0.8899 0.8899 0.8898 0.8898
3933.000000 0.8898 0.8898 0.8898 0.8898 0.8898
3938.000000 0.8898 0.8898 0.8898 0.8898 0.8898
3943.000000 0.8898 0.8897 0.8897 0.8897 0.8897
3948.000000 0.8897 0.8897 0.8896 0.8896 0.8896
3953.000000 0.8896 0.8896 0.8896 0.8895 0.8895
3958.000000 0.8895 0.8895 0.8895 0.8895 0.8895
3963.000000 0.8895 0.8895 0.8895 0.8895 0.8895
3968.000000 0.8895 0.8894 0.8894 0.8894 0.8894
3973.000000 0.8894 0.8894 0.8893 0.8893 0.8893
3978.000000 0.8893 0.8893 0.8893 0.8892 0.8892
3983.000000 0.8892 0.8892 0.8892 0.8892 0.8892
3988.000000 0.8892 0.8892 0.8892 0.8892 0.8892
3993.000000 0.8892 0.8891 0.8891 0.8891 0.8891
3998.000000 0.8891 0.8891 0.8891
##END=
