##TITLE=BARIUM CAPROATE
##JCAMP-DX=4.24
##DATA TYPE=INFRARED SPECTRUM
##CLASS=COBLENTZ
##OWNER=COBLENTZ SOCIETY
Collection (C) 2018 copyright by the U.S. Secretary of Commerce
on behalf of the United States of America. All rights reserved.
##DATE=Not specified, most likely prior to 1970
##MOLFORM=C12 H22 Ba O4
##SOURCE REFERENCE=COBLENTZ NO. 150
##$NIST ID=B6000150
##$NIST SOURCE=COBLENTZ
##$NIST IMAGE=cob150
##SPECTROMETER/DATA SYSTEM=Not specified, most likely a prism, grating, or hybrid spectrometer.
##STATE=SOLID (0.14% IN KBr PELLET)
##PATH LENGTH=0.0031 CM THICK
##SAMPLING PROCEDURE=TRANSMISSION
##RESOLUTION=4
##DATA PROCESSING=DIGITIZED BY NIST FROM HARD COPY
##XUNITS=MICROMETERS
##YUNITS=TRANSMITTANCE
##XFACTOR=1.000000
##YFACTOR=1
##DELTAX=000.006469
##FIRSTX=2.017
##LASTX=15.9703
##FIRSTY=0.274
##MAXX=15.9703
##MINX=2.017
##MAXY=0.91
##MINY=0.003
##NPOINTS=2158
##XYDATA=(X++(Y..Y))
2.017000 0.2740 0.2740 0.2740 0.2740 0.2740
2.049360 0.2740 0.2730 0.2730 0.2730 0.2740
2.081000 0.2740 0.2730 0.2730 0.2740 0.2760
2.113360 0.2790 0.2810 0.2810 0.2820 0.2840
2.146000 0.2860 0.2860 0.2860 0.2870 0.2890
2.178360 0.2890 0.2910 0.2910 0.2920 0.2950
2.211000 0.2990 0.3000 0.3020 0.3050 0.3070
2.243360 0.3080 0.3100 0.3120 0.3130 0.3150
2.275000 0.3170 0.3200 0.3210 0.3250 0.3280
2.307360 0.3310 0.3340 0.3380 0.3390 0.3430
2.340000 0.3440 0.3440 0.3460 0.3470 0.3490
2.372360 0.3520 0.3540 0.3570 0.3600 0.3600
2.405000 0.3650 0.3670 0.3690 0.3690 0.3700
2.437360 0.3720 0.3720 0.3730 0.3750 0.3750
2.470000 0.3770 0.3770 0.3780 0.3780 0.3800
2.502360 0.3820 0.3850 0.3900 0.3910 0.3930
2.534000 0.3960 0.4000 0.4030 0.4090 0.4170
2.566360 0.4210 0.4220 0.4220 0.4240 0.4240
2.599000 0.4260 0.4290 0.4320 0.4350 0.4370
2.631360 0.4390 0.4390 0.4390 0.4390 0.4400
2.664000 0.4400 0.4400 0.4400 0.4420 0.4420
2.696360 0.4420 0.4420 0.4420 0.4400 0.4400
2.728000 0.4390 0.4340 0.4290 0.4260 0.4220
2.760360 0.4190 0.4170 0.4140 0.4110 0.4060
2.793000 0.4030 0.4010 0.3980 0.3980 0.3960
2.825360 0.3950 0.3950 0.3930 0.3910 0.3910
2.858000 0.3910 0.3910 0.3910 0.3910 0.3930
2.890360 0.3950 0.3950 0.3980 0.4010 0.4090
2.922000 0.4090 0.4130 0.4160 0.4190 0.4240
2.954360 0.4270 0.4320 0.4350 0.4390 0.4420
2.987000 0.4450 0.4480 0.4520 0.4580 0.4600
3.019360 0.4610 0.4660 0.4660 0.4680 0.4690
3.052000 0.4710 0.4740 0.4780 0.4790 0.4820
3.084360 0.4860 0.4890 0.4910 0.4920 0.4940
3.116000 0.4950 0.4990 0.5000 0.5020 0.5040
3.148360 0.5070 0.5070 0.5080 0.5100 0.5120
3.181000 0.5130 0.5130 0.5170 0.5180 0.5200
3.213360 0.5180 0.5180 0.5180 0.5180 0.5180
3.246000 0.5200 0.5180 0.5170 0.5050 0.5000
3.278360 0.4870 0.4690 0.4550 0.4290 0.4090
3.311000 0.3880 0.3390 0.2840 0.2130 0.1730
3.343360 0.1250 0.0970 0.0820 0.0660 0.0580
3.375000 0.0560 0.0560 0.0600 0.0780 0.0910
3.407360 0.0990 0.1210 0.1440 0.1670 0.1930
3.440000 0.2030 0.2160 0.2160 0.1980 0.1880
3.472360 0.1880 0.2170 0.2470 0.2780 0.3020
3.505000 0.3390 0.3910 0.4990 0.5080 0.5330
3.537360 0.5490 0.5560 0.5650 0.5750 0.5800
3.569000 0.5850 0.6000 0.6010 0.6040 0.6090
3.601360 0.6140 0.6240 0.6260 0.6260 0.6270
3.634000 0.6290 0.6300 0.6340 0.6350 0.6390
3.666360 0.6420 0.6470 0.6480 0.6500 0.6530
3.699000 0.6550 0.6600 0.6610 0.6610 0.6610
3.731360 0.6630 0.6630 0.6650 0.6660 0.6680
3.763000 0.6690 0.6710 0.6730 0.6740 0.6760
3.795360 0.6760 0.6790 0.6820 0.6870 0.6870
3.828000 0.6890 0.6890 0.6910 0.6910 0.6910
3.860360 0.6910 0.6920 0.6950 0.6990 0.7000
3.893000 0.7000 0.7040 0.7040 0.7070 0.7080
3.925360 0.7080 0.7100 0.7120 0.7120 0.7120
3.957000 0.7120 0.7120 0.7120 0.7120 0.7130
3.989360 0.7150 0.7170 0.7180 0.7200 0.7210
4.022000 0.7230 0.7230 0.7230 0.7230 0.7230
4.054360 0.7250 0.7250 0.7260 0.7300 0.7310
4.087000 0.7340 0.7380 0.7390 0.7410 0.7410
4.119360 0.7430 0.7440 0.7440 0.7460 0.7490
4.151000 0.7490 0.7510 0.7510 0.7510 0.7510
4.183360 0.7510 0.7510 0.7510 0.7520 0.7520
4.216000 0.7540 0.7560 0.7570 0.7590 0.7590
4.248360 0.7600 0.7620 0.7620 0.7640 0.7650
4.281000 0.7650 0.7670 0.7690 0.7690 0.7700
4.313360 0.7700 0.7700 0.7720 0.7720 0.7730
4.346000 0.7730 0.7750 0.7780 0.7800 0.7820
4.378360 0.7820 0.7820 0.7830 0.7830 0.7830
4.410000 0.7860 0.7860 0.7880 0.7880 0.7880
4.442360 0.7900 0.7910 0.7930 0.7950 0.7950
4.475000 0.7960 0.7960 0.7980 0.7980 0.8000
4.507360 0.8000 0.8010 0.8030 0.8030 0.8040
4.540000 0.8040 0.8060 0.8060 0.8090 0.8110
4.572360 0.8110 0.8110 0.8110 0.8110 0.8110
4.604000 0.8130 0.8140 0.8140 0.8160 0.8160
4.636360 0.8160 0.8170 0.8170 0.8170 0.8170
4.669000 0.8190 0.8190 0.8190 0.8210 0.8220
4.701360 0.8240 0.8260 0.8260 0.8260 0.8270
4.734000 0.8270 0.8270 0.8270 0.8290 0.8290
4.766360 0.8300 0.8300 0.8300 0.8300 0.8300
4.798000 0.8320 0.8350 0.8370 0.8370 0.8370
4.830360 0.8370 0.8370 0.8390 0.8390 0.8400
4.863000 0.8420 0.8420 0.8430 0.8430 0.8430
4.895360 0.8450 0.8470 0.8470 0.8470 0.8470
4.928000 0.8480 0.8500 0.8520 0.8530 0.8550
4.960360 0.8550 0.8560 0.8560 0.8560 0.8580
4.992000 0.8600 0.8610 0.8630 0.8680 0.8690
5.024360 0.8690 0.8690 0.8690 0.8690 0.8690
5.057000 0.8690 0.8690 0.8710 0.8710 0.8710
5.089360 0.8710 0.8710 0.8710 0.8710 0.8710
5.122000 0.8710 0.8710 0.8740 0.8760 0.8780
5.154360 0.8780 0.8780 0.8780 0.8760 0.8730
5.187000 0.8730 0.8780 0.8780 0.8810 0.8820
5.219360 0.8840 0.8840 0.8840 0.8840 0.8840
5.251000 0.8840 0.8840 0.8840 0.8840 0.8840
5.283360 0.8840 0.8870 0.8890 0.8890 0.8910
5.316000 0.8910 0.8870 0.8860 0.8810 0.8810
5.348360 0.8860 0.8910 0.8970 0.8990 0.8990
5.381000 0.8990 0.8970 0.8940 0.8910 0.8910
5.413360 0.8870 0.8910 0.8920 0.8950 0.8990
5.445000 0.8990 0.8970 0.8950 0.8940 0.8920
5.477360 0.8950 0.8970 0.9000 0.9040 0.9040
5.510000 0.9000 0.8970 0.8940 0.8920 0.8920
5.542360 0.8910 0.8890 0.8890 0.8890 0.8890
5.575000 0.8910 0.8910 0.8940 0.8940 0.8890
5.607360 0.8820 0.8790 0.8710 0.8710 0.8780
5.639000 0.8790 0.8810 0.8820 0.8790 0.8730
5.671360 0.8680 0.8610 0.8560 0.8550 0.8520
5.704000 0.8520 0.8520 0.8520 0.8520 0.8500
5.736360 0.8500 0.8470 0.8420 0.8390 0.8390
5.769000 0.8370 0.8390 0.8390 0.8400 0.8420
5.801360 0.8400 0.8300 0.8210 0.8190 0.8030
5.833000 0.8030 0.8190 0.8190 0.8270 0.8270
5.865360 0.8160 0.8110 0.8010 0.8000 0.8110
5.898000 0.8110 0.8220 0.8260 0.8320 0.8320
5.930360 0.8170 0.8130 0.8130 0.8140 0.8140
5.963000 0.8160 0.8160 0.8130 0.8110 0.8060
5.995360 0.8040 0.8010 0.7980 0.7930 0.7850
6.027000 0.7730 0.7650 0.7570 0.7520 0.7520
6.059360 0.7570 0.7590 0.7590 0.7670 0.7670
6.092000 0.7520 0.7380 0.7310 0.7280 0.7260
6.124360 0.7200 0.7130 0.7020 0.6970 0.6970
6.157000 0.6920 0.6920 0.6910 0.6840 0.6810
6.189360 0.6760 0.6680 0.6560 0.6470 0.6300
6.222000 0.6090 0.5900 0.5720 0.5570 0.5380
6.254360 0.5100 0.4860 0.4470 0.4220 0.3960
6.286000 0.3410 0.2890 0.2480 0.2010 0.1300
6.318360 0.1000 0.0580 0.0320 0.0290 0.0290
6.351000 0.0320 0.0350 0.0430 0.0430 0.0450
6.383360 0.0450 0.0430 0.0350 0.0220 0.0110
6.416000 0.0090 0.0090 0.0090 0.0080 0.0080
6.448360 0.0080 0.0080 0.0080 0.0080 0.0060
6.480000 0.0040 0.0040 0.0040 0.0040 0.0030
6.512360 0.0030 0.0030 0.0030 0.0030 0.0030
6.545000 0.0040 0.0040 0.0080 0.0130 0.0210
6.577360 0.0240 0.0370 0.0480 0.0580 0.0780
6.610000 0.1050 0.1150 0.1310 0.1590 0.1700
6.642360 0.2000 0.2110 0.2270 0.2580 0.2780
6.674000 0.2990 0.3200 0.3470 0.3600 0.3820
6.706360 0.4240 0.4320 0.4400 0.4430 0.4340
6.739000 0.4220 0.4140 0.4010 0.3880 0.3730
6.771360 0.3340 0.3020 0.2630 0.2190 0.1820
6.804000 0.1690 0.1640 0.1640 0.1620 0.1590
6.836360 0.1520 0.1470 0.1390 0.1260 0.1130
6.868000 0.1040 0.0870 0.0740 0.0600 0.0520
6.900360 0.0400 0.0300 0.0270 0.0220 0.0220
6.933000 0.0210 0.0190 0.0190 0.0190 0.0190
6.965360 0.0190 0.0190 0.0210 0.0220 0.0260
6.998000 0.0340 0.0370 0.0430 0.0500 0.0560
7.030360 0.0610 0.0730 0.0840 0.0950 0.1040
7.063000 0.1150 0.1280 0.1410 0.1520 0.1600
7.095360 0.1820 0.2010 0.2080 0.2210 0.2290
7.127000 0.2350 0.2400 0.2480 0.2550 0.2660
7.159360 0.2820 0.3080 0.3260 0.3510 0.3620
7.192000 0.3960 0.4340 0.4470 0.4520 0.4600
7.224360 0.4630 0.4680 0.4780 0.5000 0.5170
7.257000 0.5470 0.5720 0.6010 0.6240 0.6390
7.289360 0.6450 0.6530 0.6550 0.6560 0.6560
7.321000 0.6550 0.6530 0.6560 0.6680 0.6710
7.353360 0.6760 0.6810 0.6820 0.6810 0.6790
7.386000 0.6740 0.6690 0.6630 0.6530 0.6370
7.418360 0.6190 0.6000 0.5700 0.5470 0.5280
7.451000 0.5000 0.5000 0.5250 0.5470 0.5750
7.483360 0.6090 0.6400 0.6780 0.7020 0.7280
7.515000 0.7430 0.7520 0.7600 0.7770 0.7820
7.547360 0.7880 0.7910 0.7950 0.7980 0.8000
7.580000 0.8000 0.8000 0.8000 0.7960 0.7960
7.612360 0.7900 0.7830 0.7770 0.7690 0.7620
7.645000 0.7570 0.7510 0.7410 0.7340 0.7230
7.677360 0.7120 0.6940 0.6630 0.6390 0.6060
7.709000 0.5910 0.5820 0.5720 0.5720 0.5770
7.741360 0.5820 0.5900 0.6040 0.6320 0.6580
7.774000 0.6780 0.7070 0.7210 0.7440 0.7590
7.806360 0.7690 0.7820 0.7860 0.7880 0.7900
7.839000 0.7900 0.7900 0.7900 0.7860 0.7800
7.871360 0.7650 0.7520 0.7430 0.7310 0.7200
7.904000 0.7080 0.7000 0.6970 0.6910 0.6890
7.936360 0.6920 0.7000 0.7120 0.7310 0.7520
7.968000 0.7670 0.7780 0.7960 0.8010 0.8110
8.000360 0.8190 0.8270 0.8340 0.8400 0.8430
8.033000 0.8470 0.8500 0.8520 0.8530 0.8530
8.065360 0.8530 0.8520 0.8450 0.8400 0.8370
8.098000 0.8260 0.8170 0.8060 0.8000 0.7780
8.130360 0.7620 0.7440 0.7210 0.6910 0.6550
8.162000 0.6430 0.6340 0.6190 0.6190 0.6430
8.194360 0.6500 0.6710 0.7040 0.7340 0.7640
8.227000 0.7720 0.8010 0.8090 0.8210 0.8300
8.259360 0.8400 0.8500 0.8530 0.8560 0.8600
8.292000 0.8610 0.8630 0.8630 0.8630 0.8550
8.324360 0.8500 0.8450 0.8420 0.8370 0.8320
8.356000 0.8270 0.8260 0.8220 0.8240 0.8260
8.388360 0.8300 0.8320 0.8340 0.8400 0.8470
8.421000 0.8530 0.8550 0.8580 0.8630 0.8730
8.453360 0.8760 0.8780 0.8790 0.8810 0.8820
8.486000 0.8840 0.8870 0.8910 0.8940 0.8950
8.518360 0.8990 0.9000 0.9000 0.9000 0.9000
8.550000 0.9000 0.9020 0.9020 0.9020 0.9020
8.582360 0.9020 0.9020 0.9040 0.9000 0.9000
8.615000 0.9020 0.9020 0.9020 0.9040 0.9040
8.647360 0.9040 0.9040 0.9040 0.9020 0.9020
8.680000 0.9020 0.9020 0.9020 0.9020 0.9020
8.712360 0.9020 0.9040 0.9040 0.9040 0.9040
8.744000 0.9040 0.9040 0.9040 0.9040 0.9040
8.776360 0.9040 0.9040 0.9040 0.9040 0.9040
8.809000 0.9040 0.9020 0.9000 0.8990 0.8970
8.841360 0.8940 0.8890 0.8820 0.8790 0.8740
8.874000 0.8680 0.8610 0.8550 0.8500 0.8430
8.906360 0.8320 0.8220 0.8140 0.8010 0.7830
8.939000 0.7700 0.7560 0.7430 0.7210 0.7080
8.971360 0.6990 0.6810 0.6610 0.6420 0.6130
9.003000 0.5980 0.5930 0.5780 0.5780 0.5900
9.035360 0.6030 0.6160 0.6400 0.6580 0.6860
9.068000 0.7080 0.7280 0.7490 0.7670 0.7860
9.100360 0.8000 0.8030 0.8090 0.8170 0.8220
9.133000 0.8290 0.8350 0.8390 0.8400 0.8430
9.165360 0.8430 0.8450 0.8470 0.8480 0.8480
9.197000 0.8480 0.8520 0.8520 0.8530 0.8530
9.229360 0.8530 0.8530 0.8550 0.8550 0.8550
9.262000 0.8550 0.8550 0.8550 0.8560 0.8560
9.294360 0.8580 0.8580 0.8600 0.8600 0.8600
9.327000 0.8600 0.8610 0.8610 0.8610 0.8610
9.359360 0.8610 0.8600 0.8560 0.8530 0.8480
9.391000 0.8450 0.8430 0.8400 0.8400 0.8390
9.423360 0.8390 0.8390 0.8390 0.8390 0.8390
9.456000 0.8390 0.8390 0.8370 0.8370 0.8370
9.488360 0.8350 0.8340 0.8340 0.8340 0.8340
9.521000 0.8340 0.8350 0.8350 0.8370 0.8370
9.553360 0.8390 0.8400 0.8400 0.8420 0.8420
9.585000 0.8430 0.8450 0.8470 0.8480 0.8520
9.617360 0.8530 0.8550 0.8560 0.8580 0.8580
9.650000 0.8600 0.8610 0.8610 0.8610 0.8610
9.682360 0.8610 0.8610 0.8630 0.8630 0.8650
9.715000 0.8650 0.8630 0.8630 0.8630 0.8650
9.747360 0.8650 0.8650 0.8650 0.8650 0.8650
9.780000 0.8650 0.8650 0.8650 0.8650 0.8660
9.812360 0.8650 0.8650 0.8650 0.8650 0.8630
9.844000 0.8630 0.8630 0.8600 0.8550 0.8520
9.876360 0.8480 0.8430 0.8420 0.8370 0.8320
9.909000 0.8290 0.8270 0.8270 0.8270 0.8270
9.941360 0.8290 0.8320 0.8350 0.8420 0.8500
9.974000 0.8530 0.8560 0.8610 0.8650 0.8680
10.006360 0.8740 0.8780 0.8820 0.8840 0.8860
10.038000 0.8870 0.8890 0.8910 0.8910 0.8910
10.070360 0.8910 0.8910 0.8910 0.8910 0.8920
10.103000 0.8920 0.8920 0.8920 0.8920 0.8920
10.135360 0.8890 0.8860 0.8790 0.8760 0.8730
10.168000 0.8710 0.8710 0.8710 0.8710 0.8710
10.200360 0.8710 0.8710 0.8690 0.8690 0.8690
10.232000 0.8690 0.8690 0.8690 0.8710 0.8710
10.264360 0.8730 0.8730 0.8740 0.8760 0.8780
10.297000 0.8780 0.8780 0.8780 0.8760 0.8740
10.329360 0.8680 0.8630 0.8560 0.8520 0.8400
10.362000 0.8370 0.8210 0.8140 0.8090 0.8080
10.394360 0.8080 0.8090 0.8110 0.8160 0.8160
10.426000 0.8240 0.8290 0.8350 0.8430 0.8480
10.458360 0.8530 0.8610 0.8660 0.8690 0.8730
10.491000 0.8740 0.8760 0.8780 0.8780 0.8780
10.523360 0.8780 0.8740 0.8650 0.8580 0.8500
10.556000 0.8420 0.8340 0.8240 0.8170 0.8040
10.588360 0.7980 0.7900 0.7800 0.7780 0.7750
10.620000 0.7730 0.7720 0.7720 0.7720 0.7730
10.652360 0.7750 0.7800 0.7820 0.7830 0.7850
10.685000 0.7860 0.7860 0.7860 0.7860 0.7860
10.717360 0.7860 0.7880 0.7880 0.7880 0.7880
10.750000 0.7900 0.7930 0.7980 0.8010 0.8080
10.782360 0.8130 0.8170 0.8220 0.8260 0.8290
10.815000 0.8320 0.8320 0.8340 0.8350 0.8370
10.847360 0.8400 0.8450 0.8500 0.8580 0.8650
10.879000 0.8710 0.8740 0.8790 0.8840 0.8890
10.911360 0.8910 0.8920 0.8990 0.8990 0.9000
10.944000 0.9000 0.9040 0.9040 0.9040 0.9040
10.976360 0.9040 0.9050 0.9050 0.9070 0.9070
11.009000 0.9100 0.9080 0.9100 0.9080 0.9080
11.041360 0.9080 0.9080 0.9080 0.9080 0.9080
11.073000 0.9100 0.9100 0.9080 0.9080 0.9080
11.105360 0.9080 0.9080 0.9080 0.9070 0.9040
11.138000 0.9040 0.9020 0.8990 0.8990 0.8970
11.170360 0.8940 0.8870 0.8810 0.8760 0.8710
11.203000 0.8660 0.8550 0.8500 0.8390 0.8220
11.235360 0.8130 0.8040 0.8000 0.7960 0.7930
11.267000 0.7910 0.7900 0.7900 0.7910 0.7930
11.299360 0.8010 0.8060 0.8140 0.8240 0.8320
11.332000 0.8370 0.8480 0.8550 0.8610 0.8680
11.364360 0.8710 0.8780 0.8790 0.8820 0.8840
11.397000 0.8860 0.8860 0.8860 0.8890 0.8890
11.429360 0.8890 0.8890 0.8870 0.8870 0.8860
11.461000 0.8820 0.8780 0.8710 0.8660 0.8630
11.493360 0.8530 0.8450 0.8350 0.8240 0.8170
11.526000 0.8130 0.8060 0.8030 0.8010 0.8010
11.558360 0.8010 0.8030 0.8040 0.8060 0.8110
11.591000 0.8160 0.8160 0.8170 0.8170 0.8130
11.623360 0.8060 0.8030 0.7930 0.7830 0.7720
11.656000 0.7540 0.7410 0.7230 0.7120 0.7040
11.688360 0.6840 0.6760 0.6650 0.6520 0.6420
11.720000 0.6390 0.6340 0.6300 0.6290 0.6290
11.752360 0.6290 0.6300 0.6350 0.6500 0.6610
11.785000 0.6690 0.6790 0.6970 0.7130 0.7410
11.817360 0.7540 0.7620 0.7700 0.7750 0.7860
11.850000 0.8030 0.8040 0.8110 0.8170 0.8260
11.882360 0.8320 0.8370 0.8420 0.8500 0.8520
11.914000 0.8550 0.8600 0.8650 0.8680 0.8730
11.946360 0.8740 0.8780 0.8790 0.8840 0.8860
11.979000 0.8890 0.8910 0.8920 0.8920 0.8940
12.011360 0.8940 0.8940 0.8950 0.8950 0.8950
12.044000 0.8950 0.8950 0.8950 0.8970 0.8970
12.076360 0.9000 0.9000 0.8990 0.8990 0.8990
12.108000 0.8990 0.8990 0.8990 0.8990 0.9000
12.140360 0.9000 0.9000 0.9000 0.9000 0.9000
12.173000 0.9000 0.9000 0.9000 0.9000 0.9000
12.205360 0.9000 0.9020 0.9000 0.8990 0.8990
12.238000 0.9000 0.9000 0.9000 0.8990 0.8990
12.270360 0.8990 0.8990 0.8990 0.8990 0.8970
12.302000 0.8970 0.8970 0.9000 0.9000 0.8970
12.334360 0.8970 0.8950 0.8950 0.8940 0.8920
12.367000 0.8910 0.8890 0.8890 0.8870 0.8870
12.399360 0.8860 0.8840 0.8860 0.8860 0.8860
12.432000 0.8860 0.8840 0.8840 0.8860 0.8840
12.464360 0.8840 0.8840 0.8840 0.8820 0.8820
12.496000 0.8820 0.8810 0.8810 0.8810 0.8810
12.528360 0.8790 0.8790 0.8790 0.8790 0.8790
12.561000 0.8790 0.8780 0.8780 0.8780 0.8790
12.593360 0.8780 0.8780 0.8760 0.8760 0.8740
12.626000 0.8730 0.8730 0.8710 0.8710 0.8710
12.658360 0.8710 0.8690 0.8680 0.8680 0.8660
12.691000 0.8660 0.8650 0.8600 0.8600 0.8560
12.723360 0.8530 0.8500 0.8470 0.8430 0.8400
12.755000 0.8370 0.8340 0.8300 0.8270 0.8270
12.787360 0.8240 0.8210 0.8110 0.8040 0.8000
12.820000 0.7980 0.7880 0.7830 0.7780 0.7730
12.852360 0.7690 0.7640 0.7590 0.7520 0.7470
12.885000 0.7410 0.7360 0.7310 0.7280 0.7210
12.917360 0.7150 0.7080 0.7040 0.7020 0.6990
12.949000 0.6950 0.6920 0.6920 0.6890 0.6890
12.981360 0.6870 0.6870 0.6890 0.6920 0.6950
13.014000 0.7040 0.7250 0.7340 0.7440 0.7490
13.046360 0.7540 0.7570 0.7650 0.7720 0.7820
13.079000 0.7880 0.8010 0.8030 0.8060 0.8060
13.111360 0.8080 0.8110 0.8130 0.8190 0.8190
13.143000 0.8220 0.8220 0.8220 0.8240 0.8240
13.175360 0.8240 0.8260 0.8270 0.8270 0.8270
13.208000 0.8270 0.8270 0.8290 0.8290 0.8270
13.240360 0.8270 0.8290 0.8290 0.8270 0.8270
13.273000 0.8260 0.8270 0.8260 0.8220 0.8190
13.305360 0.8170 0.8160 0.8130 0.8090 0.8090
13.337000 0.8060 0.8060 0.8060 0.8040 0.8030
13.369360 0.8010 0.8000 0.7910 0.7900 0.7860
13.402000 0.7850 0.7820 0.7770 0.7720 0.7690
13.434360 0.7640 0.7600 0.7570 0.7540 0.7510
13.467000 0.7470 0.7440 0.7430 0.7390 0.7360
13.499360 0.7330 0.7330 0.7330 0.7310 0.7300
13.532000 0.7280 0.7260 0.7230 0.7210 0.7200
13.564360 0.7170 0.7130 0.7120 0.7070 0.7020
13.596000 0.7000 0.6920 0.6820 0.6790 0.6710
13.628360 0.6600 0.6550 0.6430 0.6370 0.6260
13.661000 0.6170 0.6110 0.6030 0.6000 0.5850
13.693360 0.5770 0.5700 0.5650 0.5590 0.5570
13.726000 0.5560 0.5540 0.5540 0.5540 0.5560
13.758360 0.5570 0.5600 0.5670 0.5700 0.5800
13.790000 0.5850 0.5880 0.6090 0.6110 0.6190
13.822360 0.6340 0.6350 0.6470 0.6480 0.6630
13.855000 0.6650 0.6660 0.6740 0.6790 0.6840
13.887360 0.6890 0.6920 0.6950 0.7000 0.7040
13.920000 0.7070 0.7070 0.7080 0.7100 0.7120
13.952360 0.7120 0.7120 0.7130 0.7150 0.7150
13.984000 0.7170 0.7170 0.7170 0.7170 0.7180
14.016360 0.7180 0.7180 0.7180 0.7170 0.7170
14.049000 0.7170 0.7170 0.7170 0.7170 0.7170
14.081360 0.7150 0.7130 0.7120 0.7120 0.7120
14.114000 0.7120 0.7100 0.7100 0.7050 0.7050
14.146360 0.7040 0.7040 0.7040 0.7020 0.7020
14.178000 0.7020 0.7020 0.7020 0.7000 0.6990
14.210360 0.6990 0.6970 0.6950 0.6950 0.6950
14.243000 0.6940 0.6920 0.6890 0.6890 0.6860
14.275360 0.6840 0.6820 0.6780 0.6760 0.6710
14.308000 0.6690 0.6660 0.6630 0.6600 0.6530
14.340360 0.6500 0.6400 0.6340 0.6290 0.6210
14.373000 0.6130 0.6040 0.6000 0.5900 0.5770
14.405360 0.5640 0.5520 0.5440 0.5280 0.5210
14.437000 0.5080 0.4990 0.4890 0.4810 0.4740
14.469360 0.4680 0.4660 0.4610 0.4600 0.4580
14.502000 0.4580 0.4580 0.4600 0.4610 0.4650
14.534360 0.4680 0.4790 0.4860 0.4870 0.5020
14.567000 0.5080 0.5170 0.5230 0.5300 0.5380
14.599360 0.5520 0.5600 0.5690 0.5770 0.5800
14.631000 0.5820 0.5880 0.5950 0.6030 0.6080
14.663360 0.6130 0.6190 0.6240 0.6290 0.6350
14.696000 0.6420 0.6450 0.6500 0.6550 0.6600
14.728360 0.6630 0.6690 0.6740 0.6780 0.6820
14.761000 0.6870 0.6910 0.6940 0.6970 0.6990
14.793360 0.7020 0.7020 0.7070 0.7120 0.7150
14.825000 0.7170 0.7170 0.7170 0.7200 0.7210
14.857360 0.7230 0.7250 0.7260 0.7260 0.7280
14.890000 0.7280 0.7260 0.7260 0.7280 0.7280
14.922360 0.7300 0.7310 0.7310 0.7310 0.7310
14.955000 0.7330 0.7330 0.7340 0.7340 0.7340
14.987360 0.7340 0.7360 0.7360 0.7360 0.7360
15.019000 0.7340 0.7330 0.7310 0.7300 0.7260
15.051360 0.7260 0.7230 0.7210 0.7200 0.7180
15.084000 0.7180 0.7170 0.7170 0.7150 0.7150
15.116360 0.7130 0.7130 0.7120 0.7100 0.7080
15.149000 0.7050 0.7050 0.7040 0.7040 0.7040
15.181360 0.7020 0.7020 0.7000 0.6990 0.6950
15.213000 0.6950 0.6940 0.6940 0.6920 0.6910
15.245360 0.6870 0.6860 0.6840 0.6820 0.6820
15.278000 0.6820 0.6820 0.6820 0.6810 0.6810
15.310360 0.6810 0.6790 0.6790 0.6790 0.6790
15.343000 0.6780 0.6780 0.6760 0.6740 0.6740
15.375360 0.6740 0.6730 0.6730 0.6730 0.6710
15.408000 0.6710 0.6710 0.6690 0.6690 0.6690
15.440360 0.6690 0.6680 0.6680 0.6680 0.6680
15.472000 0.6680 0.6680 0.6680 0.6680 0.6680
15.504360 0.6680 0.6660 0.6660 0.6660 0.6660
15.537000 0.6660 0.6660 0.6660 0.6660 0.6660
15.569360 0.6660 0.6680 0.6680 0.6680 0.6680
15.602000 0.6680 0.6680 0.6680 0.6680 0.6680
15.634360 0.6680 0.6680 0.6680 0.6680 0.6680
15.666000 0.6680 0.6680 0.6680 0.6680 0.6680
15.698360 0.6680 0.6680 0.6660 0.6660 0.6660
15.731000 0.6680 0.6680 0.6710 0.6710 0.6690
15.763360 0.6690 0.6690 0.6690 0.6690 0.6690
15.796000 0.6690 0.6690 0.6690 0.6690 0.6690
15.828360 0.6690 0.6690 0.6690 0.6690 0.6690
15.860000 0.6690 0.6690 0.6690 0.6690 0.6690
15.892360 0.6680 0.6680 0.6680 0.6680 0.6680
15.925000 0.6680 0.6660 0.6660 0.6660 0.6650
15.957360 0.6650 0.6650 0.6650
##END=
