##TITLE=Adenine, N-[p-(methylthio)phenyl]-
##JCAMP-DX=4.24
##DATA TYPE=INFRARED SPECTRUM
##CLASS=COBLENTZ III
##ORIGIN=SOUTHERN RESEARCH INSTITUTE
##OWNER=Copyright (C) 1987 by the Coblentz Society
Collection (C) 2018 copyright by the U.S. Secretary of Commerce
on behalf of the United States of America. All rights reserved.
##DATE=1959/07/10
##NAMES=N-[4-(methylsulfanyl)phenyl]-N-(9H-purin-6-yl)amine
N-[4-(methylsulfanyl)phenyl]-9H-purin-6-amine
##MOLFORM=C12 H11 N5 S
##SOURCE REFERENCE=COBLENTZ NO. 8707
##$NIST ID=B6008707
##$NIST SOURCE=COBLENTZ
##$NIST IMAGE=cob8707
##SPECTROMETER/DATA SYSTEM=PERKIN-ELMER 21 (GRATING)
##INSTRUMENT PARAMETERS=FILTER CHANGE ABOUT 1090 CM^-^1
##STATE=SOLID (1 mg / 650 mg KBr DISC)
$$SPECTRAL CONTAMINATION DUE TO H2O AROUND 3400 CM^-^1
##SAMPLING PROCEDURE=TRANSMISSION
##RESOLUTION=2
##DATA PROCESSING=DIGITIZED BY COBLENTZ SOCIETY (BATCH II) FROM HARD COPY
##XUNITS=1/CM
##YUNITS=TRANSMITTANCE
##XFACTOR=1.0
##YFACTOR=1
##FIRSTX=608
##LASTX=4000
##FIRSTY=0.9714
##MAXX=4000
##MINX=608
##MAXY=0.9793
##MINY=0.1284
##NPOINTS=3393
##XYDATA=(X++(Y..Y))
608.000000 0.9714 0.9731 0.9746 0.9777 0.9773
613.000000 0.9783 0.9792 0.9793 0.9784 0.9774
618.000000 0.9753 0.9733 0.9713 0.9695 0.9677
623.000000 0.9659 0.9641 0.9624 0.9607 0.9590
628.000000 0.9568 0.9545 0.9517 0.9488 0.9459
633.000000 0.9429 0.9393 0.9357 0.9311 0.9222
638.000000 0.9135 0.9053 0.8977 0.8907 0.8837
643.000000 0.8768 0.8701 0.8635 0.8475 0.8448
648.000000 0.8421 0.8411 0.8405 0.8405 0.8429
653.000000 0.8625 0.8857 0.9089 0.9320 0.9485
658.000000 0.9537 0.9551 0.9554 0.9555 0.9551
663.000000 0.9547 0.9577 0.9505 0.9458 0.9391
668.000000 0.9349 0.9315 0.9287 0.9281 0.9274
673.000000 0.9272 0.9267 0.9252 0.9231 0.9208
678.000000 0.9174 0.9140 0.9105 0.9071 0.9040
683.000000 0.9030 0.9022 0.9026 0.9030 0.9035
688.000000 0.9045 0.9056 0.9074 0.9095 0.9122
693.000000 0.9155 0.9188 0.9222 0.9255 0.9282
698.000000 0.9299 0.9299 0.9292 0.9287 0.9255
703.000000 0.9231 0.9215 0.9198 0.9181 0.9175
708.000000 0.9170 0.9169 0.9172 0.9175 0.9178
713.000000 0.9183 0.9187 0.9186 0.9182 0.9178
718.000000 0.9171 0.9164 0.9158 0.9151 0.9144
723.000000 0.9138 0.9131 0.9124 0.9118 0.9111
728.000000 0.9105 0.9100 0.9095 0.9090 0.9085
733.000000 0.9083 0.9084 0.9085 0.9086 0.9087
738.000000 0.9089 0.9095 0.9102 0.9108 0.9114
743.000000 0.9121 0.9127 0.9132 0.9138 0.9144
748.000000 0.9149 0.9155 0.9156 0.9156 0.9155
753.000000 0.9154 0.9148 0.9140 0.9132 0.9124
758.000000 0.9115 0.9105 0.9094 0.9083 0.9062
763.000000 0.9027 0.8991 0.8919 0.8815 0.8780
768.000000 0.8752 0.8735 0.8717 0.8532 0.8326
773.000000 0.8119 0.7913 0.7706 0.7496 0.7280
778.000000 0.7206 0.7187 0.7196 0.7187 0.7209
783.000000 0.7251 0.7300 0.7358 0.7420 0.7489
788.000000 0.7548 0.7608 0.7673 0.7833 0.7981
793.000000 0.7981 0.7997 0.7965 0.7708 0.7451
798.000000 0.7194 0.6937 0.6904 0.6904 0.7366
803.000000 0.8097 0.8096 0.8094 0.8089 0.8082
808.000000 0.8070 0.8054 0.8027 0.7997 0.7969
813.000000 0.7782 0.7665 0.7522 0.7482 0.7442
818.000000 0.7402 0.7350 0.7292 0.7238 0.7189
823.000000 0.7162 0.7148 0.7151 0.7178 0.7152
828.000000 0.7253 0.7299 0.7344 0.7387 0.7438
833.000000 0.7498 0.7543 0.7584 0.7622 0.7654
838.000000 0.7687 0.7719 0.7748 0.7773 0.7799
843.000000 0.7817 0.7832 0.7847 0.7850 0.7853
848.000000 0.7856 0.7858 0.7862 0.7866 0.7871
853.000000 0.7875 0.7880 0.7884 0.7895 0.7907
858.000000 0.7918 0.7930 0.7945 0.7960 0.7976
863.000000 0.7992 0.8002 0.8013 0.8024 0.8033
868.000000 0.8041 0.8049 0.8063 0.8108 0.8117
873.000000 0.8126 0.8136 0.8144 0.8147 0.8150
878.000000 0.8153 0.8156 0.8200 0.8244 0.8285
883.000000 0.8320 0.8310 0.8301 0.8321 0.8284
888.000000 0.8278 0.8272 0.8266 0.8264 0.8194
893.000000 0.8106 0.8045 0.7996 0.7980 0.7960
898.000000 0.7933 0.7901 0.7717 0.7431 0.7144
903.000000 0.6988 0.6899 0.6837 0.6809 0.6800
908.000000 0.6799 0.6798 0.6805 0.6820 0.6790
913.000000 0.6990 0.7104 0.7218 0.7331 0.7445
918.000000 0.7524 0.7540 0.7545 0.7551 0.7537
923.000000 0.7526 0.7509 0.7482 0.7391 0.7225
928.000000 0.7058 0.6892 0.6725 0.6559 0.6392
933.000000 0.6226 0.6059 0.5984 0.5982 0.5983
938.000000 0.5988 0.5986 0.6278 0.6450 0.6622
943.000000 0.6794 0.6966 0.7139 0.7311 0.7483
948.000000 0.7655 0.7799 0.7866 0.7912 0.7935
953.000000 0.7958 0.7983 0.8008 0.8033 0.8058
958.000000 0.8083 0.8122 0.8162 0.8209 0.8239
963.000000 0.8260 0.8275 0.8285 0.8295 0.8304
968.000000 0.8315 0.8331 0.8347 0.8362 0.8387
973.000000 0.8422 0.8451 0.8478 0.8505 0.8539
978.000000 0.8575 0.8612 0.8652 0.8692 0.8733
983.000000 0.8777 0.8833 0.8873 0.8894 0.8894
988.000000 0.8893 0.8891 0.8889 0.8887 0.8885
993.000000 0.8899 0.8881 0.8878 0.8875 0.8872
998.000000 0.8868 0.8865 0.8861 0.8855 0.8847
1003.000000 0.8840 0.8833 0.8826 0.8819 0.8812
1008.000000 0.8804 0.8794 0.8782 0.8729 0.8663
1013.000000 0.8569 0.8441 0.8422 0.8405 0.8394
1018.000000 0.8382 0.8380 0.8389 0.8424 0.8469
1023.000000 0.8514 0.8572 0.8624 0.8661 0.8689
1028.000000 0.8707 0.8718 0.8722 0.8726 0.8729
1033.000000 0.8733 0.8736 0.8737 0.8739 0.8741
1038.000000 0.8742 0.8744 0.8741 0.8736 0.8732
1043.000000 0.8727 0.8723 0.8718 0.8709 0.8698
1048.000000 0.8688 0.8677 0.8666 0.8651 0.8636
1053.000000 0.8621 0.8605 0.8590 0.8575 0.8560
1058.000000 0.8543 0.8525 0.8508 0.8490 0.8472
1063.000000 0.8454 0.8429 0.8395 0.8361 0.8327
1068.000000 0.8293 0.8238 0.8180 0.8121 0.8063
1073.000000 0.7980 0.7895 0.7821 0.7760 0.7699
1078.000000 0.7636 0.7555 0.6840 0.6768 0.6729
1083.000000 0.6703 0.6686 0.6661 0.6615 0.6569
1088.000000 0.6524 0.6499 0.6499 0.6501 0.6503
1093.000000 0.7048 0.7550 0.7617 0.7750 0.7784
1098.000000 0.7810 0.7830 0.7847 0.7862 0.7869
1103.000000 0.7876 0.7883 0.7892 0.7900 0.7911
1108.000000 0.7927 0.7996 0.8032 0.8040 0.8040
1113.000000 0.8036 0.8041 0.8041 0.8041 0.8036
1118.000000 0.8031 0.8024 0.8011 0.7998 0.7984
1123.000000 0.7968 0.7959 0.7953 0.7955 0.7956
1128.000000 0.7958 0.7960 0.7981 0.8005 0.8027
1133.000000 0.8024 0.8019 0.8014 0.8008 0.8003
1138.000000 0.7999 0.7994 0.7989 0.7929 0.7895
1143.000000 0.7879 0.7863 0.7845 0.7816 0.7654
1148.000000 0.7567 0.7506 0.7446 0.7390 0.7334
1153.000000 0.7279 0.7238 0.7227 0.7226 0.7225
1158.000000 0.7227 0.7209 0.7234 0.7243 0.7259
1163.000000 0.7298 0.7370 0.7457 0.7557 0.7665
1168.000000 0.7779 0.7934 0.7989 0.8000 0.7998
1173.000000 0.7995 0.7991 0.7987 0.7982 0.7977
1178.000000 0.7962 0.7927 0.7835 0.7768 0.7762
1183.000000 0.7765 0.7780 0.7794 0.7807 0.7820
1188.000000 0.7838 0.7858 0.7879 0.7982 0.8089
1193.000000 0.8105 0.8122 0.8134 0.8146 0.8156
1198.000000 0.8157 0.8159 0.8152 0.8157 0.8153
1203.000000 0.8149 0.8141 0.8133 0.8122 0.8103
1208.000000 0.8078 0.8044 0.8001 0.7948 0.7889
1213.000000 0.7841 0.7818 0.7810 0.7803 0.7795
1218.000000 0.7783 0.7616 0.7511 0.7434 0.7362
1223.000000 0.7304 0.7247 0.7206 0.7070 0.6766
1228.000000 0.6537 0.6469 0.5965 0.5758 0.5653
1233.000000 0.5548 0.5439 0.5309 0.5142 0.5055
1238.000000 0.4988 0.4955 0.4922 0.4890 0.4859
1243.000000 0.4829 0.4814 0.4806 0.4803 0.4811
1248.000000 0.4866 0.5013 0.5161 0.5308 0.5456
1253.000000 0.5603 0.5751 0.5887 0.5955 0.6004
1258.000000 0.6037 0.6067 0.6096 0.7536 0.7608
1263.000000 0.7610 0.7611 0.7609 0.7603 0.7595
1268.000000 0.7587 0.7573 0.7545 0.7507 0.7475
1273.000000 0.7447 0.7422 0.7396 0.7375 0.7357
1278.000000 0.7339 0.7318 0.7291 0.7264 0.7237
1283.000000 0.7211 0.7165 0.7107 0.7056 0.6997
1288.000000 0.6937 0.6876 0.6810 0.6743 0.6664
1293.000000 0.6568 0.6496 0.6432 0.6390 0.6295
1298.000000 0.5654 0.5622 0.5597 0.5576 0.5567
1303.000000 0.5561 0.5559 0.5598 0.5571 0.5608
1308.000000 0.5903 0.6209 0.6492 0.6511 0.6522
1313.000000 0.6522 0.6440 0.6494 0.6354 0.6152
1318.000000 0.5951 0.5749 0.5548 0.5429 0.5380
1323.000000 0.5333 0.5286 0.5262 0.5263 0.5268
1328.000000 0.5270 0.5348 0.5511 0.5673 0.5836
1333.000000 0.5999 0.6161 0.6324 0.6486 0.6612
1338.000000 0.6636 0.6645 0.6642 0.6634 0.6620
1343.000000 0.6605 0.6590 0.6560 0.6530 0.6447
1348.000000 0.6163 0.5878 0.5594 0.5392 0.5386
1353.000000 0.5388 0.5391 0.5366 0.5435 0.5488
1358.000000 0.5588 0.5709 0.5822 0.5933 0.6036
1363.000000 0.6105 0.6174 0.6254 0.6641 0.6735
1368.000000 0.6792 0.6848 0.6952 0.7016 0.7052
1373.000000 0.7063 0.7074 0.6979 0.6832 0.6781
1378.000000 0.6739 0.6697 0.6628 0.6553 0.6430
1383.000000 0.6295 0.6206 0.6056 0.5850 0.5773
1388.000000 0.5718 0.5671 0.5670 0.5671 0.5674
1393.000000 0.5663 0.5638 0.5604 0.5560 0.5518
1398.000000 0.5449 0.5341 0.5270 0.5254 0.5237
1403.000000 0.5231 0.5231 0.5232 0.5228 0.5250
1408.000000 0.5297 0.5360 0.5425 0.5491 0.5557
1413.000000 0.5623 0.5689 0.5754 0.5820 0.5886
1418.000000 0.5952 0.6017 0.6036 0.6075 0.6012
1423.000000 0.5974 0.5933 0.5894 0.5849 0.5797
1428.000000 0.5748 0.5707 0.5665 0.5624 0.5581
1433.000000 0.5538 0.5496 0.5301 0.5219 0.5154
1438.000000 0.5095 0.5037 0.4976 0.4958 0.4958
1443.000000 0.4961 0.4965 0.4963 0.4956 0.4948
1448.000000 0.4927 0.4874 0.4804 0.4735 0.4670
1453.000000 0.4625 0.4610 0.4594 0.4572 0.4515
1458.000000 0.4401 0.4251 0.4224 0.4200 0.4178
1463.000000 0.4156 0.4135 0.4098 0.3985 0.3890
1468.000000 0.3883 0.3875 0.3873 0.3873 0.3873
1473.000000 0.3874 0.3874 0.3874 0.3871 0.3863
1478.000000 0.3854 0.3842 0.3841 0.3844 0.3857
1483.000000 0.3921 0.4000 0.4014 0.4013 0.4013
1488.000000 0.3904 0.3733 0.3563 0.3393 0.3223
1493.000000 0.3053 0.2883 0.2752 0.2791 0.2861
1498.000000 0.3374 0.3888 0.4401 0.4914 0.5396
1503.000000 0.5528 0.5610 0.5669 0.5702 0.5735
1508.000000 0.5738 0.5738 0.5742 0.5729 0.5723
1513.000000 0.5708 0.5652 0.5572 0.5438 0.5179
1518.000000 0.4974 0.4871 0.4833 0.4834 0.4834
1523.000000 0.4844 0.4862 0.5025 0.5162 0.5378
1528.000000 0.5439 0.5500 0.5541 0.5582 0.5617
1533.000000 0.5645 0.5674 0.5701 0.5728 0.5861
1538.000000 0.5976 0.5990 0.5987 0.5984 0.5981
1543.000000 0.5977 0.6011 0.5971 0.5964 0.5954
1548.000000 0.5934 0.5894 0.5824 0.5765 0.5709
1553.000000 0.5592 0.5492 0.5432 0.5375 0.5322
1558.000000 0.4175 0.3581 0.3464 0.3437 0.3416
1563.000000 0.3394 0.3372 0.3355 0.3343 0.3331
1568.000000 0.3319 0.3307 0.3296 0.3285 0.3274
1573.000000 0.3220 0.3107 0.2991 0.2876 0.2760
1578.000000 0.2644 0.2528 0.2413 0.2297 0.2181
1583.000000 0.2098 0.2082 0.2106 0.2144 0.2298
1588.000000 0.2452 0.2607 0.2761 0.2915 0.3069
1593.000000 0.3223 0.3377 0.3367 0.3377 0.3372
1598.000000 0.3266 0.3137 0.3009 0.2881 0.2752
1603.000000 0.2624 0.2496 0.2367 0.2239 0.2110
1608.000000 0.1982 0.1860 0.1793 0.1751 0.1705
1613.000000 0.1425 0.1351 0.1314 0.1293 0.1284
1618.000000 0.1290 0.1294 0.1300 0.1338 0.1437
1623.000000 0.1548 0.1622 0.1707 0.1805 0.1948
1628.000000 0.2081 0.2210 0.2359 0.2567 0.2760
1633.000000 0.2928 0.3046 0.3160 0.3426 0.3693
1638.000000 0.3960 0.4226 0.4493 0.4759 0.5026
1643.000000 0.5293 0.5559 0.5826 0.6092 0.6291
1648.000000 0.6362 0.6540 0.6603 0.6667 0.6729
1653.000000 0.6786 0.6843 0.6891 0.6930 0.7005
1658.000000 0.7418 0.7462 0.7499 0.7535 0.7570
1663.000000 0.7605 0.7640 0.7675 0.7719 0.7762
1668.000000 0.7806 0.7848 0.7891 0.7933 0.7974
1673.000000 0.8014 0.8047 0.8078 0.8110 0.8127
1678.000000 0.8144 0.8161 0.8171 0.8181 0.8190
1683.000000 0.8198 0.8203 0.8208 0.8213 0.8219
1688.000000 0.8223 0.8225 0.8226 0.8228 0.8229
1693.000000 0.8231 0.8232 0.8235 0.8239 0.8242
1698.000000 0.8245 0.8249 0.8252 0.8255 0.8259
1703.000000 0.8262 0.8265 0.8270 0.8275 0.8279
1708.000000 0.8284 0.8289 0.8294 0.8299 0.8303
1713.000000 0.8302 0.8302 0.8302 0.8302 0.8302
1718.000000 0.8302 0.8302 0.8301 0.8301 0.8301
1723.000000 0.8300 0.8299 0.8297 0.8295 0.8294
1728.000000 0.8292 0.8290 0.8290 0.8289 0.8288
1733.000000 0.8287 0.8287 0.8286 0.8285 0.8285
1738.000000 0.8287 0.8290 0.8292 0.8295 0.8297
1743.000000 0.8299 0.8302 0.8304 0.8307 0.8309
1748.000000 0.8312 0.8314 0.8316 0.8319 0.8321
1753.000000 0.8324 0.8326 0.8329 0.8331 0.8330
1758.000000 0.8329 0.8328 0.8327 0.8325 0.8324
1763.000000 0.8323 0.8322 0.8321 0.8321 0.8320
1768.000000 0.8320 0.8319 0.8319 0.8318 0.8318
1773.000000 0.8317 0.8317 0.8316 0.8316 0.8316
1778.000000 0.8315 0.8315 0.8314 0.8314 0.8313
1783.000000 0.8312 0.8310 0.8308 0.8307 0.8305
1788.000000 0.8304 0.8302 0.8300 0.8299 0.8297
1793.000000 0.8296 0.8294 0.8293 0.8291 0.8289
1798.000000 0.8288 0.8286 0.8287 0.8288 0.8289
1803.000000 0.8291 0.8294 0.8297 0.8301 0.8304
1808.000000 0.8307 0.8311 0.8314 0.8317 0.8320
1813.000000 0.8324 0.8327 0.8330 0.8334 0.8337
1818.000000 0.8339 0.8341 0.8343 0.8346 0.8348
1823.000000 0.8350 0.8352 0.8355 0.8357 0.8359
1828.000000 0.8361 0.8362 0.8361 0.8361 0.8361
1833.000000 0.8360 0.8360 0.8359 0.8359 0.8359
1838.000000 0.8358 0.8358 0.8357 0.8357 0.8355
1843.000000 0.8354 0.8353 0.8351 0.8350 0.8348
1848.000000 0.8347 0.8345 0.8343 0.8341 0.8339
1853.000000 0.8337 0.8335 0.8334 0.8332 0.8330
1858.000000 0.8330 0.8331 0.8332 0.8333 0.8334
1863.000000 0.8335 0.8336 0.8337 0.8338 0.8339
1868.000000 0.8336 0.8331 0.8326 0.8322 0.8314
1873.000000 0.8305 0.8295 0.8286 0.8277 0.8268
1878.000000 0.8259 0.8250 0.8245 0.8239 0.8234
1883.000000 0.8229 0.8206 0.8222 0.8222 0.8228
1888.000000 0.8233 0.8239 0.8250 0.8262 0.8274
1893.000000 0.8284 0.8293 0.8302 0.8299 0.8296
1898.000000 0.8294 0.8291 0.8288 0.8286 0.8284
1903.000000 0.8287 0.8290 0.8292 0.8295 0.8297
1908.000000 0.8300 0.8304 0.8307 0.8310 0.8313
1913.000000 0.8316 0.8319 0.8322 0.8325 0.8328
1918.000000 0.8330 0.8333 0.8336 0.8338 0.8341
1923.000000 0.8342 0.8341 0.8340 0.8339 0.8337
1928.000000 0.8336 0.8335 0.8334 0.8332 0.8327
1933.000000 0.8323 0.8318 0.8314 0.8309 0.8305
1938.000000 0.8300 0.8302 0.8305 0.8308 0.8311
1943.000000 0.8315 0.8318 0.8321 0.8324 0.8328
1948.000000 0.8331 0.8335 0.8339 0.8342 0.8346
1953.000000 0.8350 0.8353 0.8357 0.8355 0.8353
1958.000000 0.8350 0.8347 0.8345 0.8342 0.8339
1963.000000 0.8337 0.8335 0.8334 0.8333 0.8332
1968.000000 0.8331 0.8331 0.8330 0.8329 0.8328
1973.000000 0.8327 0.8326 0.8329 0.8332 0.8334
1978.000000 0.8337 0.8339 0.8340 0.8341 0.8342
1983.000000 0.8343 0.8344 0.8346 0.8347 0.8348
1988.000000 0.8348 0.8343 0.8339 0.8334 0.8329
1993.000000 0.8324 0.8319 0.8315 0.8310 0.8307
1998.000000 0.8304 0.8301 0.8298 0.8295 0.8292
2003.000000 0.8289 0.8286 0.8283 0.8280 0.8277
2008.000000 0.8274 0.8272 0.8269 0.8267 0.8265
2013.000000 0.8262 0.8260 0.8257 0.8255 0.8253
2018.000000 0.8252 0.8250 0.8248 0.8246 0.8244
2023.000000 0.8242 0.8240 0.8238 0.8235 0.8232
2028.000000 0.8229 0.8227 0.8224 0.8221 0.8218
2033.000000 0.8215 0.8212 0.8209 0.8206 0.8205
2038.000000 0.8204 0.8203 0.8202 0.8201 0.8199
2043.000000 0.8198 0.8197 0.8196 0.8195 0.8194
2048.000000 0.8192 0.8190 0.8188 0.8185 0.8183
2053.000000 0.8181 0.8178 0.8176 0.8174 0.8171
2058.000000 0.8169 0.8167 0.8164 0.8162 0.8160
2063.000000 0.8157 0.8155 0.8153 0.8150 0.8148
2068.000000 0.8146 0.8143 0.8141 0.8139 0.8137
2073.000000 0.8135 0.8133 0.8129 0.8125 0.8121
2078.000000 0.8116 0.8112 0.8108 0.8104 0.8099
2083.000000 0.8095 0.8090 0.8085 0.8081 0.8076
2088.000000 0.8072 0.8068 0.8064 0.8061 0.8059
2093.000000 0.8056 0.8053 0.8051 0.8048 0.8045
2098.000000 0.8042 0.8040 0.8038 0.8037 0.8036
2103.000000 0.8035 0.8033 0.8033 0.8033 0.8033
2108.000000 0.8034 0.8035 0.8037 0.8039 0.8041
2113.000000 0.8044 0.8049 0.8054 0.8059 0.8064
2118.000000 0.8069 0.8073 0.8078 0.8083 0.8081
2123.000000 0.8078 0.8075 0.8072 0.8069 0.8065
2128.000000 0.8061 0.8056 0.8052 0.8047 0.8041
2133.000000 0.8035 0.8030 0.8025 0.8020 0.8015
2138.000000 0.8010 0.8006 0.8001 0.7996 0.7991
2143.000000 0.7987 0.7982 0.7977 0.7973 0.7968
2148.000000 0.7963 0.7959 0.7954 0.7950 0.7945
2153.000000 0.7940 0.7936 0.7931 0.7927 0.7923
2158.000000 0.7919 0.7915 0.7911 0.7909 0.7906
2163.000000 0.7903 0.7901 0.7898 0.7895 0.7893
2168.000000 0.7890 0.7888 0.7885 0.7882 0.7880
2173.000000 0.7877 0.7874 0.7872 0.7869 0.7866
2178.000000 0.7864 0.7861 0.7858 0.7854 0.7851
2183.000000 0.7848 0.7844 0.7841 0.7837 0.7834
2188.000000 0.7831 0.7827 0.7824 0.7821 0.7817
2193.000000 0.7814 0.7810 0.7807 0.7804 0.7800
2198.000000 0.7797 0.7793 0.7787 0.7780 0.7774
2203.000000 0.7768 0.7762 0.7756 0.7750 0.7744
2208.000000 0.7738 0.7733 0.7727 0.7721 0.7717
2213.000000 0.7714 0.7711 0.7708 0.7705 0.7702
2218.000000 0.7699 0.7697 0.7695 0.7694 0.7693
2223.000000 0.7692 0.7690 0.7689 0.7688 0.7687
2228.000000 0.7685 0.7684 0.7683 0.7682 0.7680
2233.000000 0.7679 0.7678 0.7676 0.7675 0.7673
2238.000000 0.7671 0.7669 0.7667 0.7666 0.7664
2243.000000 0.7662 0.7660 0.7658 0.7655 0.7652
2248.000000 0.7648 0.7645 0.7642 0.7639 0.7636
2253.000000 0.7633 0.7630 0.7627 0.7623 0.7619
2258.000000 0.7615 0.7611 0.7607 0.7603 0.7599
2263.000000 0.7595 0.7591 0.7586 0.7582 0.7578
2268.000000 0.7574 0.7566 0.7557 0.7548 0.7539
2273.000000 0.7530 0.7521 0.7512 0.7504 0.7495
2278.000000 0.7486 0.7477 0.7468 0.7459 0.7450
2283.000000 0.7442 0.7434 0.7426 0.7418 0.7410
2288.000000 0.7402 0.7394 0.7386 0.7376 0.7367
2293.000000 0.7358 0.7349 0.7340 0.7331 0.7322
2298.000000 0.7313 0.7303 0.7294 0.7285 0.7276
2303.000000 0.7267 0.7258 0.7248 0.7238 0.7228
2308.000000 0.7218 0.7208 0.7198 0.7188 0.7178
2313.000000 0.7168 0.7158 0.7150 0.7142 0.7134
2318.000000 0.7126 0.7118 0.7110 0.7102 0.7093
2323.000000 0.7084 0.7076 0.7067 0.7058 0.7050
2328.000000 0.7041 0.7034 0.7029 0.7023 0.7018
2333.000000 0.7013 0.7008 0.7002 0.6997 0.6993
2338.000000 0.6991 0.6988 0.6986 0.6983 0.6981
2343.000000 0.6978 0.6976 0.6973 0.6974 0.6975
2348.000000 0.6976 0.6977 0.6978 0.6979 0.6981
2353.000000 0.6982 0.6984 0.6987 0.6991 0.6995
2358.000000 0.6999 0.7003 0.7006 0.7008 0.7010
2363.000000 0.7011 0.7013 0.7015 0.7016 0.7018
2368.000000 0.7019 0.7021 0.7020 0.7019 0.7018
2373.000000 0.7017 0.7017 0.7016 0.7015 0.7014
2378.000000 0.7011 0.7009 0.7007 0.7005 0.7003
2383.000000 0.7001 0.6999 0.6997 0.6994 0.6990
2388.000000 0.6986 0.6983 0.6979 0.6975 0.6972
2393.000000 0.6968 0.6966 0.6963 0.6960 0.6957
2398.000000 0.6954 0.6951 0.6948 0.6947 0.6946
2403.000000 0.6944 0.6943 0.6942 0.6939 0.6937
2408.000000 0.6935 0.6932 0.6930 0.6928 0.6922
2413.000000 0.6916 0.6910 0.6904 0.6899 0.6893
2418.000000 0.6887 0.6881 0.6876 0.6870 0.6864
2423.000000 0.6858 0.6853 0.6845 0.6835 0.6825
2428.000000 0.6814 0.6804 0.6793 0.6783 0.6773
2433.000000 0.6762 0.6752 0.6742 0.6733 0.6723
2438.000000 0.6714 0.6705 0.6696 0.6687 0.6677
2443.000000 0.6668 0.6660 0.6652 0.6643 0.6635
2448.000000 0.6627 0.6619 0.6610 0.6602 0.6596
2453.000000 0.6593 0.6591 0.6589 0.6590 0.6591
2458.000000 0.6591 0.6592 0.6593 0.6594 0.6594
2463.000000 0.6597 0.6601 0.6605 0.6608 0.6612
2468.000000 0.6615 0.6609 0.6602 0.6596 0.6588
2473.000000 0.6580 0.6571 0.6563 0.6554 0.6546
2478.000000 0.6537 0.6529 0.6523 0.6517 0.6513
2483.000000 0.6514 0.6515 0.6516 0.6517 0.6518
2488.000000 0.6519 0.6520 0.6522 0.6520 0.6510
2493.000000 0.6500 0.6486 0.6468 0.6450 0.6432
2498.000000 0.6416 0.6404 0.6391 0.6378 0.6366
2503.000000 0.6353 0.6340 0.6328 0.6318 0.6308
2508.000000 0.6298 0.6289 0.6279 0.6269 0.6260
2513.000000 0.6250 0.6240 0.6231 0.6222 0.6213
2518.000000 0.6205 0.6196 0.6185 0.6166 0.6147
2523.000000 0.6139 0.6135 0.6132 0.6128 0.6125
2528.000000 0.6125 0.6129 0.6132 0.6137 0.6143
2533.000000 0.6149 0.6155 0.6161 0.6167 0.6174
2538.000000 0.6181 0.6188 0.6192 0.6193 0.6193
2543.000000 0.6193 0.6193 0.6187 0.6181 0.6175
2548.000000 0.6168 0.6161 0.6154 0.6147 0.6140
2553.000000 0.6133 0.6129 0.6125 0.6122 0.6118
2558.000000 0.6115 0.6111 0.6111 0.6111 0.6111
2563.000000 0.6111 0.6109 0.6104 0.6098 0.6093
2568.000000 0.6082 0.6072 0.6061 0.6050 0.6039
2573.000000 0.6028 0.6021 0.6014 0.6008 0.6001
2578.000000 0.6002 0.6004 0.6006 0.6007 0.6009
2583.000000 0.6012 0.6015 0.6018 0.6021 0.6024
2588.000000 0.6027 0.6030 0.6032 0.6033 0.6034
2593.000000 0.6036 0.6037 0.6038 0.6040 0.6041
2598.000000 0.6042 0.6044 0.6045 0.6044 0.6044
2603.000000 0.6043 0.6043 0.6043 0.6042 0.6042
2608.000000 0.6041 0.6041 0.6040 0.6040 0.6040
2613.000000 0.6039 0.6038 0.6037 0.6036 0.6035
2618.000000 0.6034 0.6033 0.6032 0.6032 0.6031
2623.000000 0.6030 0.6029 0.6028 0.6027 0.6024
2628.000000 0.6021 0.6018 0.6014 0.6011 0.6008
2633.000000 0.6004 0.6001 0.5998 0.5994 0.5991
2638.000000 0.5988 0.5984 0.5981 0.5978 0.5974
2643.000000 0.5971 0.5967 0.5963 0.5960 0.5956
2648.000000 0.5952 0.5949 0.5945 0.5941 0.5938
2653.000000 0.5935 0.5932 0.5930 0.5927 0.5924
2658.000000 0.5921 0.5919 0.5916 0.5913 0.5909
2663.000000 0.5905 0.5900 0.5896 0.5891 0.5887
2668.000000 0.5882 0.5878 0.5876 0.5873 0.5871
2673.000000 0.5869 0.5866 0.5862 0.5856 0.5850
2678.000000 0.5843 0.5837 0.5831 0.5824 0.5818
2683.000000 0.5812 0.5806 0.5801 0.5796 0.5792
2688.000000 0.5787 0.5782 0.5777 0.5773 0.5769
2693.000000 0.5767 0.5765 0.5762 0.5760 0.5757
2698.000000 0.5755 0.5753 0.5750 0.5748 0.5746
2703.000000 0.5743 0.5741 0.5739 0.5736 0.5734
2708.000000 0.5732 0.5731 0.5730 0.5729 0.5728
2713.000000 0.5728 0.5727 0.5726 0.5726 0.5725
2718.000000 0.5724 0.5724 0.5723 0.5722 0.5721
2723.000000 0.5721 0.5720 0.5719 0.5717 0.5714
2728.000000 0.5711 0.5708 0.5705 0.5687 0.5668
2733.000000 0.5649 0.5631 0.5615 0.5600 0.5589
2738.000000 0.5582 0.5576 0.5569 0.5562 0.5556
2743.000000 0.5549 0.5542 0.5536 0.5530 0.5524
2748.000000 0.5519 0.5513 0.5507 0.5505 0.5504
2753.000000 0.5503 0.5502 0.5501 0.5500 0.5499
2758.000000 0.5499 0.5499 0.5498 0.5498 0.5498
2763.000000 0.5498 0.5497 0.5497 0.5496 0.5491
2768.000000 0.5486 0.5481 0.5476 0.5471 0.5465
2773.000000 0.5459 0.5452 0.5445 0.5439 0.5433
2778.000000 0.5432 0.5432 0.5432 0.5432 0.5432
2783.000000 0.5432 0.5431 0.5431 0.5431 0.5432
2788.000000 0.5423 0.5442 0.5447 0.5452 0.5458
2793.000000 0.5467 0.5476 0.5485 0.5494 0.5503
2798.000000 0.5512 0.5521 0.5532 0.5544 0.5556
2803.000000 0.5567 0.5579 0.5591 0.5601 0.5611
2808.000000 0.5621 0.5630 0.5640 0.5650 0.5656
2813.000000 0.5662 0.5667 0.5673 0.5678 0.5684
2818.000000 0.5689 0.5694 0.5699 0.5704 0.5709
2823.000000 0.5713 0.5718 0.5723 0.5728 0.5734
2828.000000 0.5739 0.5745 0.5750 0.5756 0.5761
2833.000000 0.5767 0.5772 0.5775 0.5777 0.5778
2838.000000 0.5778 0.5805 0.5778 0.5778 0.5779
2843.000000 0.5775 0.5769 0.5763 0.5757 0.5747
2848.000000 0.5733 0.5719 0.5706 0.5692 0.5677
2853.000000 0.5661 0.5647 0.5640 0.5633 0.5625
2858.000000 0.5618 0.5610 0.5606 0.5603 0.5599
2863.000000 0.5595 0.5591 0.5587 0.5583 0.5580
2868.000000 0.5577 0.5573 0.5570 0.5567 0.5564
2873.000000 0.5560 0.5557 0.5554 0.5551 0.5548
2878.000000 0.5544 0.5541 0.5538 0.5535 0.5531
2883.000000 0.5525 0.5519 0.5514 0.5508 0.5502
2888.000000 0.5496 0.5490 0.5484 0.5469 0.5455
2893.000000 0.5441 0.5426 0.5412 0.5397 0.5383
2898.000000 0.5365 0.5346 0.5327 0.5310 0.5309
2903.000000 0.5308 0.5307 0.5308 0.5310 0.5312
2908.000000 0.5314 0.5316 0.5318 0.5319 0.5318
2913.000000 0.5316 0.5313 0.5310 0.5307 0.5305
2918.000000 0.5302 0.5292 0.5282 0.5273 0.5263
2923.000000 0.5254 0.5242 0.5227 0.5212 0.5197
2928.000000 0.5190 0.5186 0.5181 0.5176 0.5171
2933.000000 0.5166 0.5159 0.5152 0.5145 0.5138
2938.000000 0.5132 0.5126 0.5120 0.5114 0.5108
2943.000000 0.5105 0.5102 0.5099 0.5096 0.5093
2948.000000 0.5090 0.5087 0.5084 0.5081 0.5078
2953.000000 0.5077 0.5076 0.5075 0.5074 0.5073
2958.000000 0.5071 0.5070 0.5069 0.5068 0.5067
2963.000000 0.5065 0.5064 0.5063 0.5062 0.5060
2968.000000 0.5059 0.5059 0.5060 0.5062 0.5063
2973.000000 0.5065 0.5066 0.5067 0.5068 0.5068
2978.000000 0.5068 0.5068 0.5069 0.5069 0.5069
2983.000000 0.5069 0.5069 0.5070 0.5070 0.5070
2988.000000 0.5070 0.5070 0.5071 0.5071 0.5071
2993.000000 0.5071 0.5071 0.5071 0.5071 0.5071
2998.000000 0.5071 0.5071 0.5070 0.5070 0.5070
3003.000000 0.5070 0.5070 0.5069 0.5067 0.5065
3008.000000 0.5063 0.5061 0.5059 0.5057 0.5054
3013.000000 0.5043 0.5031 0.5020 0.5009 0.5003
3018.000000 0.5000 0.4997 0.4993 0.4990 0.4987
3023.000000 0.4986 0.4986 0.4985 0.4984 0.4984
3028.000000 0.4983 0.4982 0.4982 0.4980 0.4978
3033.000000 0.4976 0.4974 0.4972 0.4970 0.4968
3038.000000 0.4966 0.4964 0.4963 0.4961 0.4959
3043.000000 0.4957 0.4955 0.4953 0.4951 0.4949
3048.000000 0.4947 0.4945 0.4943 0.4941 0.4939
3053.000000 0.4931 0.4936 0.4936 0.4937 0.4938
3058.000000 0.4938 0.4939 0.4940 0.4941 0.4941
3063.000000 0.4942 0.4943 0.4944 0.4944 0.4945
3068.000000 0.4946 0.4947 0.4950 0.4952 0.4954
3073.000000 0.4956 0.4958 0.4960 0.4963 0.4965
3078.000000 0.4967 0.4970 0.4973 0.4976 0.4980
3083.000000 0.4983 0.4986 0.4990 0.4993 0.4997
3088.000000 0.5000 0.5003 0.5007 0.5010 0.5013
3093.000000 0.5017 0.5020 0.5023 0.5027 0.5030
3098.000000 0.5034 0.5037 0.5041 0.5044 0.5047
3103.000000 0.5051 0.5054 0.5058 0.5061 0.5065
3108.000000 0.5068 0.5072 0.5075 0.5078 0.5082
3113.000000 0.5085 0.5089 0.5092 0.5096 0.5099
3118.000000 0.5101 0.5104 0.5107 0.5109 0.5112
3123.000000 0.5115 0.5117 0.5120 0.5123 0.5126
3128.000000 0.5128 0.5131 0.5134 0.5136 0.5139
3133.000000 0.5142 0.5144 0.5143 0.5143 0.5142
3138.000000 0.5142 0.5142 0.5141 0.5141 0.5140
3143.000000 0.5140 0.5140 0.5139 0.5139 0.5139
3148.000000 0.5139 0.5140 0.5140 0.5141 0.5142
3153.000000 0.5142 0.5143 0.5143 0.5144 0.5144
3158.000000 0.5145 0.5147 0.5150 0.5152 0.5155
3163.000000 0.5157 0.5162 0.5167 0.5173 0.5179
3168.000000 0.5186 0.5194 0.5202 0.5211 0.5219
3173.000000 0.5227 0.5235 0.5244 0.5253 0.5262
3178.000000 0.5270 0.5279 0.5288 0.5297 0.5306
3183.000000 0.5313 0.5317 0.5321 0.5326 0.5330
3188.000000 0.5334 0.5339 0.5343 0.5347 0.5350
3193.000000 0.5353 0.5356 0.5359 0.5362 0.5365
3198.000000 0.5368 0.5371 0.5374 0.5377 0.5379
3203.000000 0.5382 0.5385 0.5388 0.5391 0.5394
3208.000000 0.5397 0.5400 0.5403 0.5406 0.5409
3213.000000 0.5411 0.5414 0.5416 0.5419 0.5421
3218.000000 0.5423 0.5425 0.5426 0.5428 0.5429
3223.000000 0.5431 0.5432 0.5434 0.5435 0.5437
3228.000000 0.5434 0.5430 0.5427 0.5423 0.5419
3233.000000 0.5415 0.5411 0.5411 0.5411 0.5412
3238.000000 0.5417 0.5423 0.5428 0.5434 0.5449
3243.000000 0.5468 0.5486 0.5508 0.5536 0.5564
3248.000000 0.5592 0.5607 0.5615 0.5624 0.5632
3253.000000 0.5641 0.5649 0.5656 0.5664 0.5671
3258.000000 0.5679 0.5686 0.5694 0.5701 0.5709
3263.000000 0.5717 0.5724 0.5732 0.5740 0.5747
3268.000000 0.5755 0.5763 0.5770 0.5778 0.5786
3273.000000 0.5791 0.5795 0.5800 0.5805 0.5810
3278.000000 0.5814 0.5819 0.5824 0.5828 0.5833
3283.000000 0.5838 0.5842 0.5847 0.5852 0.5857
3288.000000 0.5861 0.5866 0.5870 0.5873 0.5877
3293.000000 0.5881 0.5885 0.5889 0.5893 0.5897
3298.000000 0.5901 0.5905 0.5908 0.5912 0.5915
3303.000000 0.5916 0.5918 0.5919 0.5921 0.5922
3308.000000 0.5924 0.5925 0.5927 0.5929 0.5931
3313.000000 0.5933 0.5935 0.5935 0.5931 0.5927
3318.000000 0.5923 0.5919 0.5916 0.5912 0.5908
3323.000000 0.5904 0.5901 0.5895 0.5888 0.5882
3328.000000 0.5875 0.5869 0.5862 0.5855 0.5849
3333.000000 0.5842 0.5835 0.5829 0.5822 0.5812
3338.000000 0.5803 0.5794 0.5784 0.5775 0.5766
3343.000000 0.5756 0.5747 0.5738 0.5728 0.5719
3348.000000 0.5709 0.5699 0.5689 0.5679 0.5668
3353.000000 0.5658 0.5648 0.5637 0.5627 0.5617
3358.000000 0.5607 0.5596 0.5586 0.5575 0.5565
3363.000000 0.5554 0.5543 0.5533 0.5522 0.5511
3368.000000 0.5501 0.5490 0.5479 0.5469 0.5458
3373.000000 0.5448 0.5437 0.5427 0.5421 0.5414
3378.000000 0.5407 0.5401 0.5394 0.5388 0.5381
3383.000000 0.5375 0.5372 0.5372 0.5371 0.5371
3388.000000 0.5371 0.5371 0.5371 0.5370 0.5370
3393.000000 0.5370 0.5371 0.5372 0.5373 0.5374
3398.000000 0.5375 0.5376 0.5377 0.5378 0.5379
3403.000000 0.5380 0.5382 0.5383 0.5385 0.5387
3408.000000 0.5388 0.5390 0.5392 0.5393 0.5395
3413.000000 0.5397 0.5398 0.5399 0.5400 0.5400
3418.000000 0.5401 0.5402 0.5403 0.5403 0.5404
3423.000000 0.5405 0.5406 0.5406 0.5407 0.5408
3428.000000 0.5410 0.5414 0.5417 0.5421 0.5425
3433.000000 0.5429 0.5433 0.5436 0.5440 0.5444
3438.000000 0.5448 0.5453 0.5459 0.5465 0.5472
3443.000000 0.5478 0.5484 0.5490 0.5497 0.5503
3448.000000 0.5509 0.5516 0.5529 0.5541 0.5554
3453.000000 0.5567 0.5579 0.5591 0.5600 0.5610
3458.000000 0.5620 0.5630 0.5640 0.5639 0.5636
3463.000000 0.5632 0.5629 0.5625 0.5628 0.5634
3468.000000 0.5640 0.5647 0.5655 0.5663 0.5671
3473.000000 0.5679 0.5687 0.5695 0.5702 0.5708
3478.000000 0.5714 0.5720 0.5726 0.5732 0.5738
3483.000000 0.5744 0.5751 0.5757 0.5763 0.5769
3488.000000 0.5775 0.5782 0.5788 0.5794 0.5801
3493.000000 0.5807 0.5813 0.5820 0.5826 0.5832
3498.000000 0.5839 0.5845 0.5852 0.5860 0.5867
3503.000000 0.5874 0.5882 0.5889 0.5897 0.5904
3508.000000 0.5911 0.5919 0.5926 0.5934 0.5941
3513.000000 0.5948 0.5956 0.5963 0.5971 0.5979
3518.000000 0.5987 0.5995 0.6003 0.6011 0.6019
3523.000000 0.6028 0.6036 0.6044 0.6052 0.6060
3528.000000 0.6068 0.6076 0.6084 0.6092 0.6101
3533.000000 0.6109 0.6117 0.6125 0.6133 0.6142
3538.000000 0.6152 0.6161 0.6171 0.6180 0.6190
3543.000000 0.6199 0.6209 0.6219 0.6228 0.6238
3548.000000 0.6247 0.6257 0.6266 0.6276 0.6285
3553.000000 0.6295 0.6304 0.6314 0.6323 0.6333
3558.000000 0.6343 0.6354 0.6365 0.6376 0.6387
3563.000000 0.6398 0.6408 0.6419 0.6430 0.6441
3568.000000 0.6452 0.6463 0.6474 0.6485 0.6495
3573.000000 0.6506 0.6517 0.6528 0.6539 0.6550
3578.000000 0.6561 0.6573 0.6585 0.6597 0.6608
3583.000000 0.6620 0.6632 0.6644 0.6656 0.6667
3588.000000 0.6679 0.6690 0.6702 0.6711 0.6716
3593.000000 0.6722 0.6727 0.6732 0.6738 0.6743
3598.000000 0.6746 0.6749 0.6752 0.6756 0.6759
3603.000000 0.6762 0.6765 0.6768 0.6772 0.6775
3608.000000 0.6778 0.6781 0.6784 0.6786 0.6788
3613.000000 0.6791 0.6793 0.6796 0.6803 0.6814
3618.000000 0.6824 0.6836 0.6852 0.6868 0.6879
3623.000000 0.6890 0.6902 0.6913 0.6922 0.6931
3628.000000 0.6939 0.6947 0.6956 0.6964 0.6973
3633.000000 0.6981 0.6988 0.6995 0.7002 0.7010
3638.000000 0.7017 0.7024 0.7031 0.7038 0.7043
3643.000000 0.7046 0.7049 0.7052 0.7055 0.7059
3648.000000 0.7062 0.7062 0.7063 0.7063 0.7063
3653.000000 0.7064 0.7064 0.7065 0.7065 0.7066
3658.000000 0.7066 0.7067 0.7067 0.7068 0.7068
3663.000000 0.7069 0.7069 0.7069 0.7069 0.7070
3668.000000 0.7070 0.7070 0.7070 0.7070 0.7071
3673.000000 0.7071 0.7071 0.7071 0.7071 0.7072
3678.000000 0.7072 0.7072 0.7072 0.7072 0.7072
3683.000000 0.7072 0.7072 0.7072 0.7072 0.7072
3688.000000 0.7072 0.7072 0.7072 0.7072 0.7072
3693.000000 0.7072 0.7072 0.7072 0.7072 0.7072
3698.000000 0.7071 0.7070 0.7069 0.7068 0.7067
3703.000000 0.7066 0.7065 0.7064 0.7063 0.7062
3708.000000 0.7061 0.7060 0.7059 0.7058 0.7057
3713.000000 0.7056 0.7054 0.7052 0.7050 0.7048
3718.000000 0.7047 0.7045 0.7043 0.7041 0.7039
3723.000000 0.7037 0.7035 0.7033 0.7031 0.7029
3728.000000 0.7025 0.7018 0.7011 0.7004 0.6997
3733.000000 0.6990 0.6983 0.6976 0.6975 0.6976
3738.000000 0.6977 0.6977 0.6978 0.6979 0.6980
3743.000000 0.6982 0.6983 0.6984 0.6986 0.6987
3748.000000 0.6988 0.6990 0.6991 0.6992 0.6994
3753.000000 0.6996 0.6998 0.7000 0.7002 0.7004
3758.000000 0.7006 0.7008 0.7010 0.7012 0.7014
3763.000000 0.7018 0.7021 0.7025 0.7029 0.7033
3768.000000 0.7037 0.7041 0.7044 0.7048 0.7052
3773.000000 0.7056 0.7060 0.7064 0.7068 0.7072
3778.000000 0.7076 0.7079 0.7083 0.7085 0.7083
3783.000000 0.7081 0.7080 0.7078 0.7076 0.7072
3788.000000 0.7060 0.7048 0.7036 0.7024 0.7011
3793.000000 0.6998 0.6985 0.6974 0.6969 0.6964
3798.000000 0.6959 0.6955 0.6950 0.6945 0.6944
3803.000000 0.6943 0.6943 0.6942 0.6941 0.6940
3808.000000 0.6940 0.6939 0.6938 0.6937 0.6936
3813.000000 0.6935 0.6935 0.6934 0.6933 0.6932
3818.000000 0.6931 0.6930 0.6929 0.6928 0.6927
3823.000000 0.6926 0.6926 0.6925 0.6924 0.6924
3828.000000 0.6926 0.6928 0.6930 0.6932 0.6934
3833.000000 0.6937 0.6939 0.6941 0.6943 0.6945
3838.000000 0.6947 0.6951 0.6957 0.6964 0.6970
3843.000000 0.6977 0.6983 0.6990 0.6996 0.7003
3848.000000 0.7009 0.7013 0.7010 0.7006 0.7003
3853.000000 0.7000 0.6997 0.6993 0.6990 0.6987
3858.000000 0.6984 0.6980 0.6975 0.6971 0.6966
3863.000000 0.6961 0.6956 0.6952 0.6947 0.6942
3868.000000 0.6937 0.6936 0.6936 0.6935 0.6935
3873.000000 0.6935 0.6935 0.6935 0.6935 0.6935
3878.000000 0.6935 0.6934 0.6934 0.6934 0.6933
3883.000000 0.6932 0.6931 0.6930 0.6929 0.6928
3888.000000 0.6927 0.6925 0.6923 0.6920 0.6918
3893.000000 0.6916 0.6914 0.6912 0.6910 0.6908
3898.000000 0.6908 0.6910 0.6912 0.6915 0.6917
3903.000000 0.6919 0.6922 0.6924 0.6927 0.6929
3908.000000 0.6931 0.6934 0.6936 0.6939 0.6943
3913.000000 0.6946 0.6961 0.6953 0.6957 0.6961
3918.000000 0.6964 0.6964 0.6961 0.6957 0.6954
3923.000000 0.6951 0.6947 0.6944 0.6937 0.6930
3928.000000 0.6923 0.6916 0.6909 0.6902 0.6895
3933.000000 0.6889 0.6884 0.6880 0.6875 0.6870
3938.000000 0.6866 0.6861 0.6857 0.6852 0.6848
3943.000000 0.6844 0.6841 0.6838 0.6835 0.6832
3948.000000 0.6829 0.6826 0.6823 0.6820 0.6817
3953.000000 0.6814 0.6811 0.6808 0.6805 0.6804
3958.000000 0.6803 0.6802 0.6801 0.6800 0.6799
3963.000000 0.6798 0.6797 0.6796 0.6798 0.6801
3968.000000 0.6804 0.6807 0.6810 0.6812 0.6815
3973.000000 0.6818 0.6821 0.6824 0.6826 0.6829
3978.000000 0.6836 0.6842 0.6849 0.6856 0.6862
3983.000000 0.6869 0.6876 0.6884 0.6893 0.6903
3988.000000 0.6912 0.6921 0.6930 0.6940 0.6956
3993.000000 0.6973 0.6991 0.7009 0.7026 0.7044
3998.000000 0.7062 0.7080 0.7088
##END=
