##TITLE=Phosphorothioic acid, S-3-aminopropyl ester, hydrate
##JCAMP-DX=4.24
##DATA TYPE=INFRARED SPECTRUM
##CLASS=COBLENTZ III
##ORIGIN=SOUTHERN RESEARCH INSTITUTE
##OWNER=Copyright (C) 1987 by the Coblentz Society
Collection (C) 2018 copyright by the U.S. Secretary of Commerce
on behalf of the United States of America. All rights reserved.
##DATE=1966/06/08
##NAMES=S-(3-aminopropyl) dihydrogen thiophosphate hydrate
##MOLFORM=C3 H10 N O3 P S  * H2 O
##SOURCE REFERENCE=COBLENTZ NO. 6883
##$NIST ID=B6006883
##$NIST SOURCE=COBLENTZ
##$NIST IMAGE=cob6883
##SPECTROMETER/DATA SYSTEM=PERKIN-ELMER 521 (GRATING)
##INSTRUMENT PARAMETERS=FILTERS AT 3150, 2500, 2000, 1150, 700, 410. GRATING CHANGES: 2000, 630
##STATE=SOLID (1 mg / 650 mg KBr DISC)
##RESOLUTION=2
##XUNITS=1/CM
##YUNITS=TRANSMITTANCE
##XFACTOR=1.0
##YFACTOR=1
##FIRSTX=249
##LASTX=3800
##FIRSTY=0.1998
##MAXX=3800
##MINX=249
##MAXY=0.7942
##MINY=0.1288
##NPOINTS=3552
##XYDATA=(X++(Y..Y))
249.000000 0.1998 0.2033 0.2062 0.2088 0.2113
254.000000 0.2140 0.2168 0.2196 0.2225 0.2252
259.000000 0.2278 0.2305 0.2331 0.2357 0.2383
264.000000 0.2411 0.2440 0.2468 0.2497 0.2525
269.000000 0.2554 0.2582 0.2611 0.2639 0.2670
274.000000 0.2700 0.2730 0.2760 0.2791 0.2821
279.000000 0.2851 0.2881 0.2912 0.2942 0.2975
284.000000 0.3008 0.3041 0.3074 0.3107 0.3140
289.000000 0.3177 0.3223 0.3269 0.3315 0.3368
294.000000 0.3433 0.3498 0.4057 0.4106 0.4156
299.000000 0.4206 0.4252 0.4294 0.4337 0.4359
304.000000 0.4378 0.4397 0.4416 0.4435 0.4454
309.000000 0.4474 0.4494 0.4514 0.4534 0.4558
314.000000 0.4582 0.4606 0.4630 0.4654 0.4678
319.000000 0.4705 0.4737 0.4768 0.4800 0.4832
324.000000 0.4864 0.4899 0.4942 0.4984 0.5026
329.000000 0.5069 0.5111 0.5150 0.5186 0.5222
334.000000 0.5253 0.5260 0.5268 0.5275 0.5272
339.000000 0.5262 0.5251 0.5237 0.5229 0.5224
344.000000 0.5220 0.5220 0.5222 0.5229 0.5240
349.000000 0.5252 0.5264 0.5292 0.5329 0.5382
354.000000 0.5471 0.5560 0.5616 0.5672 0.5728
359.000000 0.5783 0.5838 0.5897 0.5968 0.6018
364.000000 0.6041 0.6063 0.6086 0.6109 0.6126
369.000000 0.6139 0.6153 0.6166 0.6179 0.6188
374.000000 0.6196 0.6203 0.6210 0.6215 0.6210
379.000000 0.6204 0.6198 0.6192 0.6183 0.6225
384.000000 0.6155 0.6141 0.6127 0.6106 0.6081
389.000000 0.6055 0.6030 0.5993 0.5940 0.5888
394.000000 0.5844 0.5801 0.5757 0.5643 0.5588
399.000000 0.5562 0.5559 0.5560 0.5544 0.5589
404.000000 0.5618 0.5700 0.5809 0.5885 0.5935
409.000000 0.5982 0.6019 0.6056 0.6091 0.6126
414.000000 0.6161 0.6196 0.6228 0.6253 0.6279
419.000000 0.6289 0.6291 0.6294 0.6309 0.6293
424.000000 0.6289 0.6279 0.6268 0.6240 0.6195
429.000000 0.6155 0.6119 0.6082 0.6040 0.5979
434.000000 0.5913 0.5822 0.5740 0.5682 0.5625
439.000000 0.5568 0.5498 0.5419 0.5340 0.5281
444.000000 0.5224 0.5167 0.5106 0.5034 0.4961
449.000000 0.4888 0.4815 0.4739 0.4662 0.4596
454.000000 0.4564 0.4531 0.4498 0.4466 0.4434
459.000000 0.4403 0.4373 0.4343 0.4313 0.4291
464.000000 0.4269 0.4247 0.4225 0.4203 0.4181
469.000000 0.4159 0.4136 0.4114 0.4091 0.4069
474.000000 0.4046 0.4024 0.3990 0.3953 0.3915
479.000000 0.3878 0.3840 0.3798 0.3754 0.3709
484.000000 0.3694 0.3686 0.3678 0.3654 0.3678
489.000000 0.3690 0.3709 0.3741 0.3773 0.3830
494.000000 0.3887 0.3999 0.4125 0.4234 0.4343
499.000000 0.4758 0.5004 0.5149 0.5220 0.5292
504.000000 0.5363 0.5435 0.5498 0.5556 0.5615
509.000000 0.5673 0.5732 0.5801 0.5873 0.5944
514.000000 0.6009 0.6052 0.6094 0.6137 0.6180
519.000000 0.6214 0.6227 0.6241 0.6254 0.6268
524.000000 0.6281 0.6295 0.6308 0.6322 0.6335
529.000000 0.6349 0.6359 0.6364 0.6370 0.6376
534.000000 0.6382 0.6388 0.6393 0.6397 0.6396
539.000000 0.6396 0.6396 0.6395 0.6416 0.6393
544.000000 0.6388 0.6382 0.6377 0.6372 0.6366
549.000000 0.6352 0.6330 0.6307 0.6285 0.6256
554.000000 0.6225 0.6194 0.6162 0.6114 0.6061
559.000000 0.6009 0.5956 0.5898 0.5840 0.5782
564.000000 0.5722 0.5661 0.5599 0.5538 0.5469
569.000000 0.5397 0.5325 0.5240 0.5102 0.4964
574.000000 0.4825 0.4687 0.4549 0.4411 0.4273
579.000000 0.4135 0.3997 0.3859 0.3721 0.3583
584.000000 0.3445 0.3307 0.3169 0.3030 0.2892
589.000000 0.2754 0.2616 0.2386 0.2271 0.2186
594.000000 0.2148 0.2131 0.2118 0.2118 0.2122
599.000000 0.2097 0.2401 0.2580 0.2758 0.2937
604.000000 0.3116 0.3295 0.3474 0.3653 0.3832
609.000000 0.4011 0.4190 0.4369 0.4548 0.4727
614.000000 0.4906 0.5085 0.5264 0.5818 0.6016
619.000000 0.6201 0.6362 0.6542 0.6664 0.6726
624.000000 0.6788 0.6850 0.6909 0.6939 0.6969
629.000000 0.7000 0.7030 0.7060 0.7089 0.7117
634.000000 0.7145 0.7173 0.7195 0.7208 0.7220
639.000000 0.7233 0.7245 0.7258 0.7270 0.7283
644.000000 0.7293 0.7303 0.7313 0.7323 0.7333
649.000000 0.7343 0.7353 0.7364 0.7374 0.7384
654.000000 0.7393 0.7403 0.7413 0.7422 0.7432
659.000000 0.7442 0.7451 0.7461 0.7470 0.7475
664.000000 0.7481 0.7486 0.7491 0.7496 0.7501
669.000000 0.7506 0.7511 0.7512 0.7513 0.7514
674.000000 0.7515 0.7516 0.7514 0.7512 0.7513
679.000000 0.7507 0.7505 0.7502 0.7500 0.7498
684.000000 0.7495 0.7492 0.7490 0.7485 0.7480
689.000000 0.7475 0.7470 0.7465 0.7456 0.7445
694.000000 0.7434 0.7423 0.7412 0.7401 0.7390
699.000000 0.7378 0.7363 0.7348 0.7332 0.7317
704.000000 0.7302 0.7286 0.7263 0.7233 0.7203
709.000000 0.7172 0.7129 0.7055 0.6981 0.6923
714.000000 0.6898 0.6873 0.6876 0.6879 0.6907
719.000000 0.6942 0.6978 0.7017 0.7054 0.7063
724.000000 0.7053 0.7039 0.7015 0.6987 0.6953
729.000000 0.6903 0.6862 0.6826 0.6809 0.6800
734.000000 0.6791 0.6783 0.6786 0.6795 0.6804
739.000000 0.6813 0.6822 0.6830 0.6839 0.6848
744.000000 0.6857 0.6865 0.6874 0.6880 0.6882
749.000000 0.6884 0.6887 0.6889 0.6891 0.6886
754.000000 0.6877 0.6869 0.6857 0.6841 0.6825
759.000000 0.6803 0.6779 0.6756 0.6731 0.6706
764.000000 0.6681 0.6657 0.6632 0.6597 0.6558
769.000000 0.6520 0.6485 0.6463 0.6440 0.6417
774.000000 0.6394 0.6384 0.6379 0.6374 0.6370
779.000000 0.6364 0.6358 0.6352 0.6346 0.6337
784.000000 0.6319 0.6301 0.6284 0.6266 0.6249
789.000000 0.6230 0.6211 0.6192 0.6173 0.6154
794.000000 0.6135 0.6116 0.6097 0.6078 0.6060
799.000000 0.6041 0.6022 0.6003 0.5984 0.5965
804.000000 0.5946 0.5925 0.5903 0.5881 0.5859
809.000000 0.5837 0.5815 0.5793 0.5771 0.5748
814.000000 0.5725 0.5701 0.5678 0.5655 0.5632
819.000000 0.5610 0.5589 0.5567 0.5545 0.5529
824.000000 0.5515 0.5501 0.5487 0.5472 0.5458
829.000000 0.5445 0.5431 0.5413 0.5381 0.5349
834.000000 0.5316 0.5302 0.5296 0.5290 0.5296
839.000000 0.5305 0.5332 0.5286 0.5447 0.5547
844.000000 0.5670 0.5773 0.5868 0.5927 0.5987
849.000000 0.6008 0.6023 0.6032 0.6033 0.6034
854.000000 0.6032 0.6035 0.6026 0.6018 0.6005
859.000000 0.5987 0.5969 0.5948 0.5927 0.5906
864.000000 0.5884 0.5862 0.5830 0.5792 0.5758
869.000000 0.5731 0.5705 0.5678 0.5652 0.5625
874.000000 0.5599 0.5572 0.5542 0.5510 0.5479
879.000000 0.5447 0.5415 0.5383 0.5347 0.5311
884.000000 0.5293 0.5278 0.5263 0.5248 0.5230
889.000000 0.5209 0.5187 0.5154 0.5117 0.5068
894.000000 0.5013 0.4948 0.4862 0.4759 0.4695
899.000000 0.4631 0.4563 0.4453 0.4355 0.4262
904.000000 0.4174 0.4088 0.4011 0.3934 0.3857
909.000000 0.3682 0.3558 0.3450 0.3345 0.3245
914.000000 0.3145 0.3036 0.2869 0.2737 0.2657
919.000000 0.2577 0.2473 0.2324 0.2249 0.2249
924.000000 0.2226 0.2255 0.2266 0.2281 0.2309
929.000000 0.2360 0.2437 0.2714 0.2928 0.3141
934.000000 0.3354 0.3567 0.3781 0.3994 0.4207
939.000000 0.4421 0.4739 0.4819 0.4894 0.4963
944.000000 0.5032 0.5101 0.5185 0.5260 0.5295
949.000000 0.5331 0.5366 0.5401 0.5425 0.5448
954.000000 0.5459 0.5460 0.5474 0.5453 0.5449
959.000000 0.5445 0.5433 0.5385 0.5347 0.5318
964.000000 0.5302 0.5287 0.5272 0.5257 0.5242
969.000000 0.5227 0.5200 0.5162 0.5108 0.5050
974.000000 0.4986 0.4922 0.4832 0.4734 0.4666
979.000000 0.4602 0.4537 0.4419 0.4296 0.4189
984.000000 0.4082 0.4000 0.3935 0.3870 0.3809
989.000000 0.3767 0.3725 0.3683 0.3641 0.3600
994.000000 0.3558 0.3501 0.3425 0.3348 0.3272
999.000000 0.3196 0.3120 0.3045 0.2969 0.2883
1004.000000 0.2737 0.2632 0.2560 0.2488 0.2416
1009.000000 0.2344 0.2220 0.2084 0.1982 0.1894
1014.000000 0.1807 0.1737 0.1667 0.1625 0.1587
1019.000000 0.1548 0.1510 0.1473 0.1439 0.1406
1024.000000 0.1372 0.1329 0.1324 0.1318 0.1315
1029.000000 0.1288 0.1315 0.1317 0.1321 0.1327
1034.000000 0.1332 0.1372 0.1419 0.1488 0.1572
1039.000000 0.1643 0.1701 0.1789 0.1963 0.2070
1044.000000 0.2182 0.2310 0.2419 0.2515 0.2612
1049.000000 0.2665 0.2715 0.2766 0.2816 0.2867
1054.000000 0.3009 0.3173 0.3320 0.3467 0.3637
1059.000000 0.3823 0.4004 0.4196 0.4521 0.4670
1064.000000 0.4791 0.4877 0.4964 0.5032 0.5077
1069.000000 0.5122 0.5167 0.5212 0.5256 0.5296
1074.000000 0.5336 0.5376 0.5415 0.5444 0.5466
1079.000000 0.5488 0.5510 0.5532 0.5551 0.5567
1084.000000 0.5583 0.5599 0.5615 0.5620 0.5625
1089.000000 0.5645 0.5629 0.5627 0.5625 0.5617
1094.000000 0.5603 0.5585 0.5565 0.5540 0.5510
1099.000000 0.5481 0.5451 0.5410 0.5368 0.5326
1104.000000 0.5266 0.5202 0.5144 0.5088 0.5033
1109.000000 0.4979 0.4925 0.4899 0.4885 0.4870
1114.000000 0.4858 0.4852 0.4830 0.4611 0.4508
1119.000000 0.4419 0.4336 0.4254 0.4172 0.4111
1124.000000 0.4051 0.3991 0.3931 0.3846 0.3756
1129.000000 0.3665 0.3579 0.3495 0.3412 0.3328
1134.000000 0.3253 0.3184 0.3115 0.3045 0.2976
1139.000000 0.2838 0.2716 0.2641 0.2566 0.2492
1144.000000 0.2426 0.2363 0.2299 0.2235 0.2176
1149.000000 0.2119 0.2062 0.1998 0.1919 0.1868
1154.000000 0.1848 0.1849 0.1849 0.1820 0.1857
1159.000000 0.1863 0.1870 0.1882 0.1905 0.1937
1164.000000 0.1995 0.2119 0.2194 0.2297 0.2364
1169.000000 0.2431 0.2490 0.2543 0.2597 0.2649
1174.000000 0.2685 0.2721 0.2756 0.2771 0.2787
1179.000000 0.2791 0.2794 0.2798 0.2796 0.2793
1184.000000 0.2790 0.2788 0.2785 0.2782 0.2775
1189.000000 0.2768 0.2761 0.2754 0.2763 0.2796
1194.000000 0.2829 0.2861 0.2897 0.2933 0.2969
1199.000000 0.3013 0.3061 0.3108 0.3159 0.3213
1204.000000 0.3267 0.3322 0.3437 0.3592 0.3712
1209.000000 0.3806 0.3871 0.3924 0.4029 0.4063
1214.000000 0.4098 0.4112 0.4124 0.4133 0.4137
1219.000000 0.4147 0.4158 0.4170 0.4191 0.4222
1224.000000 0.4254 0.4286 0.4318 0.4364 0.4412
1229.000000 0.4460 0.4518 0.4577 0.4637 0.4706
1234.000000 0.4776 0.4844 0.4910 0.4976 0.5055
1239.000000 0.5159 0.5199 0.5235 0.5234 0.5232
1244.000000 0.5228 0.5217 0.5165 0.5108 0.5031
1249.000000 0.4980 0.4959 0.4964 0.4971 0.5011
1254.000000 0.5073 0.5147 0.5261 0.5383 0.5478
1259.000000 0.5562 0.5700 0.5861 0.6002 0.6150
1264.000000 0.6234 0.6304 0.6348 0.6391 0.6435
1269.000000 0.6472 0.6499 0.6526 0.6553 0.6580
1274.000000 0.6606 0.6628 0.6650 0.6672 0.6693
1279.000000 0.6702 0.6709 0.6715 0.6722 0.6725
1284.000000 0.6730 0.6711 0.6700 0.6687 0.6674
1289.000000 0.6658 0.6642 0.6625 0.6614 0.6604
1294.000000 0.6608 0.6613 0.6582 0.6641 0.6672
1299.000000 0.6715 0.6762 0.6805 0.6846 0.6878
1304.000000 0.6899 0.6911 0.6911 0.6912 0.6912
1309.000000 0.6930 0.6908 0.6898 0.6888 0.6877
1314.000000 0.6867 0.6848 0.6829 0.6810 0.6786
1319.000000 0.6746 0.6737 0.6729 0.6720 0.6715
1324.000000 0.6711 0.6670 0.6625 0.6600 0.6599
1329.000000 0.6598 0.6599 0.6602 0.6598 0.6608
1334.000000 0.6626 0.6656 0.6702 0.6757 0.6832
1339.000000 0.6901 0.6964 0.7010 0.7047 0.7079
1344.000000 0.7102 0.7126 0.7150 0.7174 0.7186
1349.000000 0.7198 0.7209 0.7221 0.7227 0.7232
1354.000000 0.7237 0.7242 0.7245 0.7241 0.7250
1359.000000 0.7232 0.7228 0.7224 0.7214 0.7202
1364.000000 0.7190 0.7178 0.7166 0.7151 0.7115
1369.000000 0.7079 0.7043 0.6989 0.6924 0.6859
1374.000000 0.6803 0.6747 0.6692 0.6628 0.6563
1379.000000 0.6497 0.6436 0.6375 0.6215 0.6271
1384.000000 0.6258 0.6259 0.6265 0.6290 0.6343
1389.000000 0.6420 0.6502 0.6565 0.6627 0.6725
1394.000000 0.6826 0.6884 0.6934 0.6984 0.7031
1399.000000 0.7071 0.7111 0.7151 0.7174 0.7190
1404.000000 0.7205 0.7209 0.7210 0.7207 0.7196
1409.000000 0.7187 0.7178 0.7164 0.7149 0.7135
1414.000000 0.7121 0.7106 0.7088 0.7070 0.7052
1419.000000 0.7034 0.7015 0.6992 0.6958 0.6924
1424.000000 0.6890 0.6854 0.6817 0.6781 0.6733
1429.000000 0.6679 0.6624 0.6455 0.6385 0.6327
1434.000000 0.6293 0.6259 0.6253 0.6257 0.6262
1439.000000 0.6293 0.6325 0.6365 0.6408 0.6447
1444.000000 0.6485 0.6516 0.6530 0.6530 0.6529
1449.000000 0.6525 0.6515 0.6504 0.6490 0.6448
1454.000000 0.6307 0.6166 0.6024 0.5883 0.5742
1459.000000 0.5719 0.5698 0.5831 0.5937 0.6044
1464.000000 0.6151 0.6258 0.6364 0.6471 0.6578
1469.000000 0.6685 0.6792 0.6858 0.6883 0.6890
1474.000000 0.6890 0.6885 0.6904 0.6876 0.6872
1479.000000 0.6868 0.6865 0.6860 0.6854 0.6848
1484.000000 0.6841 0.6833 0.6824 0.6814 0.6794
1489.000000 0.6774 0.6750 0.6723 0.6696 0.6669
1494.000000 0.6635 0.6596 0.6557 0.6518 0.6481
1499.000000 0.6444 0.6407 0.6370 0.6333 0.6295
1504.000000 0.6258 0.6220 0.6180 0.6113 0.6046
1509.000000 0.5979 0.5911 0.5836 0.5759 0.5682
1514.000000 0.5604 0.5524 0.5444 0.5364 0.5269
1519.000000 0.5171 0.5100 0.5030 0.4901 0.4789
1524.000000 0.4738 0.4712 0.4701 0.4708 0.4694
1529.000000 0.4698 0.4701 0.4705 0.4723 0.4746
1534.000000 0.4795 0.4858 0.4994 0.5236 0.5349
1539.000000 0.5463 0.5586 0.5704 0.5796 0.5888
1544.000000 0.5944 0.5993 0.6042 0.6086 0.6117
1549.000000 0.6149 0.6180 0.6211 0.6232 0.6251
1554.000000 0.6270 0.6284 0.6293 0.6302 0.6311
1559.000000 0.6319 0.6318 0.6316 0.6314 0.6311
1564.000000 0.6325 0.6306 0.6301 0.6295 0.6289
1569.000000 0.6284 0.6278 0.6272 0.6267 0.6255
1574.000000 0.6243 0.6231 0.6218 0.6206 0.6194
1579.000000 0.6181 0.6167 0.6154 0.6140 0.6127
1584.000000 0.6113 0.6100 0.6086 0.6073 0.6057
1589.000000 0.6041 0.6024 0.6008 0.5992 0.5975
1594.000000 0.5959 0.5942 0.5920 0.5890 0.5860
1599.000000 0.5831 0.5801 0.5771 0.5741 0.5704
1604.000000 0.5666 0.5628 0.5590 0.5548 0.5505
1609.000000 0.5462 0.5419 0.5380 0.5342 0.5304
1614.000000 0.5266 0.5227 0.5189 0.5151 0.5111
1619.000000 0.5063 0.5014 0.4971 0.4943 0.4915
1624.000000 0.4901 0.4898 0.4882 0.4895 0.4903
1629.000000 0.4911 0.4930 0.4957 0.4988 0.5018
1634.000000 0.5050 0.5088 0.5125 0.5165 0.5217
1639.000000 0.5269 0.5322 0.5385 0.5449 0.5534
1644.000000 0.5726 0.5806 0.5886 0.5961 0.6029
1649.000000 0.6096 0.6197 0.6336 0.6373 0.6409
1654.000000 0.6470 0.6492 0.6513 0.6535 0.6557
1659.000000 0.6579 0.6597 0.6613 0.6629 0.6644
1664.000000 0.6655 0.6667 0.6679 0.6690 0.6702
1669.000000 0.6714 0.6725 0.6737 0.6749 0.6764
1674.000000 0.6781 0.6798 0.6814 0.6831 0.6843
1679.000000 0.6850 0.6858 0.6865 0.6872 0.6880
1684.000000 0.6887 0.6894 0.6900 0.6905 0.6911
1689.000000 0.6917 0.6923 0.6929 0.6935 0.6941
1694.000000 0.6947 0.6953 0.6959 0.6965 0.6971
1699.000000 0.6977 0.6983 0.6989 0.6995 0.7001
1704.000000 0.7007 0.7013 0.7019 0.7026 0.7031
1709.000000 0.7037 0.7043 0.7048 0.7054 0.7060
1714.000000 0.7065 0.7071 0.7077 0.7082 0.7088
1719.000000 0.7093 0.7098 0.7103 0.7108 0.7113
1724.000000 0.7118 0.7123 0.7128 0.7133 0.7138
1729.000000 0.7143 0.7147 0.7152 0.7157 0.7162
1734.000000 0.7167 0.7171 0.7176 0.7181 0.7186
1739.000000 0.7191 0.7195 0.7200 0.7205 0.7210
1744.000000 0.7214 0.7219 0.7224 0.7229 0.7234
1749.000000 0.7238 0.7243 0.7248 0.7251 0.7255
1754.000000 0.7259 0.7262 0.7266 0.7269 0.7273
1759.000000 0.7276 0.7280 0.7284 0.7287 0.7291
1764.000000 0.7294 0.7298 0.7302 0.7305 0.7309
1769.000000 0.7312 0.7314 0.7317 0.7320 0.7323
1774.000000 0.7325 0.7328 0.7331 0.7334 0.7337
1779.000000 0.7339 0.7342 0.7345 0.7348 0.7350
1784.000000 0.7353 0.7356 0.7359 0.7362 0.7364
1789.000000 0.7367 0.7370 0.7373 0.7375 0.7378
1794.000000 0.7380 0.7382 0.7383 0.7385 0.7386
1799.000000 0.7388 0.7390 0.7391 0.7393 0.7394
1804.000000 0.7396 0.7397 0.7399 0.7401 0.7402
1809.000000 0.7404 0.7405 0.7407 0.7408 0.7410
1814.000000 0.7412 0.7413 0.7415 0.7416 0.7418
1819.000000 0.7419 0.7421 0.7423 0.7424 0.7426
1824.000000 0.7427 0.7429 0.7430 0.7431 0.7432
1829.000000 0.7433 0.7434 0.7435 0.7436 0.7437
1834.000000 0.7438 0.7439 0.7440 0.7441 0.7442
1839.000000 0.7443 0.7444 0.7445 0.7446 0.7447
1844.000000 0.7448 0.7449 0.7450 0.7451 0.7463
1849.000000 0.7452 0.7453 0.7454 0.7455 0.7456
1854.000000 0.7457 0.7458 0.7459 0.7460 0.7461
1859.000000 0.7462 0.7463 0.7464 0.7465 0.7466
1864.000000 0.7467 0.7468 0.7469 0.7470 0.7471
1869.000000 0.7473 0.7474 0.7475 0.7476 0.7477
1874.000000 0.7478 0.7479 0.7480 0.7481 0.7482
1879.000000 0.7483 0.7484 0.7485 0.7486 0.7487
1884.000000 0.7488 0.7489 0.7490 0.7492 0.7493
1889.000000 0.7494 0.7495 0.7496 0.7497 0.7498
1894.000000 0.7499 0.7500 0.7501 0.7502 0.7503
1899.000000 0.7504 0.7503 0.7502 0.7502 0.7501
1904.000000 0.7501 0.7500 0.7500 0.7499 0.7499
1909.000000 0.7498 0.7497 0.7497 0.7496 0.7496
1914.000000 0.7495 0.7495 0.7494 0.7493 0.7493
1919.000000 0.7492 0.7492 0.7491 0.7491 0.7490
1924.000000 0.7489 0.7489 0.7488 0.7488 0.7487
1929.000000 0.7487 0.7486 0.7484 0.7481 0.7479
1934.000000 0.7476 0.7474 0.7471 0.7469 0.7466
1939.000000 0.7463 0.7461 0.7458 0.7456 0.7453
1944.000000 0.7451 0.7448 0.7445 0.7442 0.7437
1949.000000 0.7431 0.7426 0.7420 0.7415 0.7410
1954.000000 0.7403 0.7395 0.7387 0.7378 0.7370
1959.000000 0.7361 0.7353 0.7345 0.7336 0.7328
1964.000000 0.7319 0.7311 0.7303 0.7294 0.7286
1969.000000 0.7277 0.7269 0.7260 0.7252 0.7244
1974.000000 0.7235 0.7227 0.7218 0.7210 0.7202
1979.000000 0.7193 0.7185 0.7177 0.7168 0.7160
1984.000000 0.7153 0.7151 0.7149 0.7147 0.7144
1989.000000 0.7142 0.7140 0.7137 0.7134 0.7131
1994.000000 0.7128 0.7125 0.7122 0.7119 0.7116
1999.000000 0.7113 0.7109 0.7102 0.7095 0.7087
2004.000000 0.7080 0.7073 0.7066 0.7059 0.7052
2009.000000 0.7045 0.7038 0.7030 0.7022 0.7015
2014.000000 0.7007 0.6999 0.6992 0.6984 0.6976
2019.000000 0.6969 0.6961 0.6953 0.6946 0.6937
2024.000000 0.6927 0.6917 0.6906 0.6896 0.6886
2029.000000 0.6876 0.6865 0.6855 0.6845 0.6835
2034.000000 0.6825 0.6814 0.6804 0.6794 0.6783
2039.000000 0.6771 0.6759 0.6747 0.6735 0.6723
2044.000000 0.6711 0.6699 0.6687 0.6675 0.6663
2049.000000 0.6651 0.6639 0.6627 0.6616 0.6604
2054.000000 0.6592 0.6580 0.6567 0.6553 0.6540
2059.000000 0.6526 0.6513 0.6499 0.6486 0.6472
2064.000000 0.6459 0.6446 0.6432 0.6419 0.6405
2069.000000 0.6392 0.6378 0.6364 0.6349 0.6335
2074.000000 0.6320 0.6306 0.6292 0.6277 0.6263
2079.000000 0.6249 0.6234 0.6220 0.6206 0.6191
2084.000000 0.6179 0.6168 0.6157 0.6146 0.6135
2089.000000 0.6124 0.6113 0.6102 0.6091 0.6080
2094.000000 0.6069 0.6059 0.6048 0.6044 0.6039
2099.000000 0.6034 0.6030 0.6025 0.6020 0.6015
2104.000000 0.6011 0.6006 0.6001 0.5997 0.5992
2109.000000 0.5987 0.5983 0.5979 0.5976 0.5973
2114.000000 0.5970 0.5967 0.5965 0.5962 0.5959
2119.000000 0.5956 0.5953 0.5950 0.5947 0.5944
2124.000000 0.5942 0.5939 0.5936 0.5933 0.5930
2129.000000 0.5927 0.5924 0.5922 0.5919 0.5916
2134.000000 0.5913 0.5909 0.5906 0.5903 0.5900
2139.000000 0.5872 0.5893 0.5891 0.5893 0.5895
2144.000000 0.5896 0.5898 0.5900 0.5904 0.5908
2149.000000 0.5916 0.5924 0.5932 0.5940 0.5948
2154.000000 0.5957 0.5963 0.5969 0.5975 0.5981
2159.000000 0.5987 0.5993 0.5999 0.6005 0.6011
2164.000000 0.6017 0.6019 0.6020 0.6020 0.6021
2169.000000 0.6022 0.6022 0.6023 0.6023 0.6016
2174.000000 0.6016 0.6013 0.6009 0.6006 0.6003
2179.000000 0.5999 0.5996 0.5993 0.5989 0.5983
2184.000000 0.5977 0.5972 0.5966 0.5960 0.5954
2189.000000 0.5948 0.5943 0.5934 0.5925 0.5916
2194.000000 0.5906 0.5897 0.5888 0.5878 0.5869
2199.000000 0.5860 0.5851 0.5841 0.5832 0.5823
2204.000000 0.5814 0.5804 0.5795 0.5786 0.5777
2209.000000 0.5767 0.5758 0.5749 0.5739 0.5730
2214.000000 0.5721 0.5712 0.5702 0.5697 0.5694
2219.000000 0.5690 0.5686 0.5683 0.5679 0.5675
2224.000000 0.5672 0.5668 0.5664 0.5662 0.5660
2229.000000 0.5658 0.5656 0.5654 0.5652 0.5650
2234.000000 0.5648 0.5647 0.5645 0.5641 0.5637
2239.000000 0.5632 0.5627 0.5622 0.5618 0.5613
2244.000000 0.5608 0.5600 0.5593 0.5586 0.5579
2249.000000 0.5571 0.5564 0.5557 0.5550 0.5542
2254.000000 0.5533 0.5524 0.5514 0.5505 0.5496
2259.000000 0.5487 0.5478 0.5468 0.5459 0.5450
2264.000000 0.5441 0.5431 0.5422 0.5412 0.5403
2269.000000 0.5393 0.5384 0.5374 0.5364 0.5355
2274.000000 0.5345 0.5336 0.5326 0.5317 0.5309
2279.000000 0.5301 0.5293 0.5285 0.5278 0.5270
2284.000000 0.5262 0.5254 0.5246 0.5238 0.5230
2289.000000 0.5222 0.5214 0.5206 0.5198 0.5191
2294.000000 0.5183 0.5178 0.5173 0.5167 0.5162
2299.000000 0.5157 0.5152 0.5147 0.5142 0.5145
2304.000000 0.5147 0.5150 0.5146 0.5155 0.5157
2309.000000 0.5160 0.5162 0.5165 0.5167 0.5170
2314.000000 0.5172 0.5175 0.5177 0.5180 0.5182
2319.000000 0.5185 0.5187 0.5190 0.5192 0.5195
2324.000000 0.5197 0.5199 0.5202 0.5204 0.5206
2329.000000 0.5208 0.5211 0.5213 0.5215 0.5217
2334.000000 0.5220 0.5222 0.5224 0.5226 0.5228
2339.000000 0.5231 0.5233 0.5235 0.5237 0.5240
2344.000000 0.5242 0.5244 0.5246 0.5248 0.5251
2349.000000 0.5253 0.5255 0.5257 0.5259 0.5261
2354.000000 0.5263 0.5265 0.5267 0.5269 0.5272
2359.000000 0.5274 0.5276 0.5278 0.5280 0.5282
2364.000000 0.5284 0.5286 0.5288 0.5289 0.5291
2369.000000 0.5293 0.5295 0.5297 0.5299 0.5301
2374.000000 0.5303 0.5305 0.5307 0.5310 0.5312
2379.000000 0.5314 0.5317 0.5319 0.5321 0.5324
2384.000000 0.5326 0.5329 0.5331 0.5333 0.5336
2389.000000 0.5338 0.5341 0.5342 0.5343 0.5344
2394.000000 0.5345 0.5346 0.5347 0.5348 0.5349
2399.000000 0.5350 0.5351 0.5352 0.5353 0.5354
2404.000000 0.5355 0.5356 0.5357 0.5358 0.5359
2409.000000 0.5360 0.5360 0.5359 0.5357 0.5356
2414.000000 0.5355 0.5353 0.5352 0.5351 0.5350
2419.000000 0.5348 0.5347 0.5346 0.5344 0.5343
2424.000000 0.5342 0.5341 0.5364 0.5338 0.5337
2429.000000 0.5335 0.5334 0.5332 0.5327 0.5323
2434.000000 0.5318 0.5314 0.5309 0.5305 0.5300
2439.000000 0.5296 0.5291 0.5286 0.5282 0.5272
2444.000000 0.5262 0.5252 0.5242 0.5233 0.5223
2449.000000 0.5213 0.5203 0.5193 0.5183 0.5172
2454.000000 0.5160 0.5147 0.5134 0.5121 0.5108
2459.000000 0.5095 0.5082 0.5069 0.5056 0.5043
2464.000000 0.5030 0.5018 0.5003 0.4989 0.4975
2469.000000 0.4960 0.4946 0.4931 0.4917 0.4903
2474.000000 0.4888 0.4874 0.4859 0.4845 0.4834
2479.000000 0.4822 0.4810 0.4798 0.4786 0.4774
2484.000000 0.4762 0.4750 0.4738 0.4726 0.4714
2489.000000 0.4702 0.4690 0.4679 0.4668 0.4657
2494.000000 0.4646 0.4635 0.4625 0.4614 0.4603
2499.000000 0.4592 0.4581 0.4570 0.4559 0.4552
2504.000000 0.4546 0.4540 0.4534 0.4528 0.4522
2509.000000 0.4516 0.4510 0.4504 0.4498 0.4492
2514.000000 0.4487 0.4481 0.4475 0.4469 0.4466
2519.000000 0.4463 0.4460 0.4457 0.4454 0.4451
2524.000000 0.4448 0.4445 0.4442 0.4437 0.4432
2529.000000 0.4427 0.4421 0.4416 0.4410 0.4405
2534.000000 0.4400 0.4393 0.4386 0.4379 0.4372
2539.000000 0.4365 0.4358 0.4351 0.4344 0.4337
2544.000000 0.4330 0.4323 0.4316 0.4308 0.4298
2549.000000 0.4288 0.4278 0.4269 0.4259 0.4249
2554.000000 0.4239 0.4229 0.4220 0.4210 0.4200
2559.000000 0.4190 0.4178 0.4162 0.4147 0.4132
2564.000000 0.4117 0.4102 0.4087 0.4072 0.4056
2569.000000 0.4041 0.4027 0.4014 0.4001 0.3988
2574.000000 0.3974 0.3961 0.3948 0.3935 0.3922
2579.000000 0.3909 0.3895 0.3882 0.3869 0.3856
2584.000000 0.3843 0.3830 0.3816 0.3803 0.3790
2589.000000 0.3776 0.3762 0.3748 0.3734 0.3720
2594.000000 0.3706 0.3692 0.3678 0.3664 0.3650
2599.000000 0.3636 0.3622 0.3608 0.3594 0.3580
2604.000000 0.3569 0.3558 0.3546 0.3535 0.3524
2609.000000 0.3513 0.3501 0.3490 0.3479 0.3468
2614.000000 0.3456 0.3445 0.3434 0.3423 0.3411
2619.000000 0.3400 0.3390 0.3380 0.3370 0.3360
2624.000000 0.3350 0.3341 0.3331 0.3321 0.3311
2629.000000 0.3303 0.3300 0.3297 0.3293 0.3290
2634.000000 0.3287 0.3284 0.3280 0.3278 0.3275
2639.000000 0.3272 0.3269 0.3267 0.3264 0.3261
2644.000000 0.3258 0.3256 0.3253 0.3250 0.3247
2649.000000 0.3244 0.3242 0.3239 0.3237 0.3236
2654.000000 0.3235 0.3233 0.3232 0.3231 0.3230
2659.000000 0.3228 0.3227 0.3226 0.3225 0.3224
2664.000000 0.3222 0.3221 0.3220 0.3224 0.3229
2669.000000 0.3235 0.3240 0.3245 0.3252 0.3265
2674.000000 0.3279 0.3284 0.3286 0.3288 0.3290
2679.000000 0.3292 0.3294 0.3294 0.3292 0.3288
2684.000000 0.3288 0.3287 0.3285 0.3283 0.3279
2689.000000 0.3273 0.3267 0.3261 0.3255 0.3249
2694.000000 0.3241 0.3228 0.3215 0.3203 0.3190
2699.000000 0.3177 0.3165 0.3152 0.3139 0.3125
2704.000000 0.3110 0.3094 0.3079 0.3063 0.3048
2709.000000 0.3032 0.3016 0.3001 0.2985 0.2958
2714.000000 0.2932 0.2906 0.2880 0.2860 0.2850
2719.000000 0.2839 0.2829 0.2818 0.2808 0.2797
2724.000000 0.2787 0.2776 0.2766 0.2755 0.2750
2729.000000 0.2746 0.2742 0.2738 0.2732 0.2740
2734.000000 0.2742 0.2745 0.2747 0.2750 0.2752
2739.000000 0.2755 0.2757 0.2761 0.2768 0.2775
2744.000000 0.2782 0.2790 0.2797 0.2805 0.2813
2749.000000 0.2821 0.2830 0.2838 0.2847 0.2855
2754.000000 0.2863 0.2872 0.2874 0.2873 0.2873
2759.000000 0.2872 0.2872 0.2871 0.2870 0.2870
2764.000000 0.2869 0.2869 0.2868 0.2868 0.2867
2769.000000 0.2866 0.2865 0.2864 0.2862 0.2861
2774.000000 0.2860 0.2859 0.2872 0.2856 0.2855
2779.000000 0.2853 0.2852 0.2849 0.2844 0.2839
2784.000000 0.2834 0.2829 0.2824 0.2819 0.2814
2789.000000 0.2810 0.2802 0.2791 0.2781 0.2770
2794.000000 0.2759 0.2749 0.2738 0.2727 0.2717
2799.000000 0.2704 0.2688 0.2672 0.2655 0.2639
2804.000000 0.2622 0.2606 0.2589 0.2573 0.2557
2809.000000 0.2542 0.2527 0.2511 0.2496 0.2481
2814.000000 0.2466 0.2450 0.2435 0.2420 0.2405
2819.000000 0.2393 0.2383 0.2374 0.2365 0.2356
2824.000000 0.2347 0.2338 0.2329 0.2320 0.2318
2829.000000 0.2316 0.2314 0.2312 0.2310 0.2300
2834.000000 0.2306 0.2304 0.2305 0.2306 0.2306
2839.000000 0.2307 0.2308 0.2309 0.2310 0.2311
2844.000000 0.2312 0.2312 0.2313 0.2315 0.2319
2849.000000 0.2324 0.2328 0.2332 0.2337 0.2341
2854.000000 0.2346 0.2347 0.2347 0.2346 0.2345
2859.000000 0.2344 0.2343 0.2339 0.2328 0.2318
2864.000000 0.2307 0.2295 0.2279 0.2263 0.2247
2869.000000 0.2231 0.2217 0.2202 0.2188 0.2173
2874.000000 0.2158 0.2142 0.2126 0.2110 0.2094
2879.000000 0.2079 0.2068 0.2056 0.2044 0.2033
2884.000000 0.2021 0.2018 0.2014 0.2010 0.2007
2889.000000 0.2003 0.2000 0.1996 0.1993 0.1989
2894.000000 0.1986 0.1982 0.1979 0.1975 0.1974
2899.000000 0.1974 0.1974 0.1975 0.1975 0.1975
2904.000000 0.1975 0.1976 0.1976 0.1994 0.1976
2909.000000 0.1976 0.1977 0.1980 0.1985 0.1989
2914.000000 0.1994 0.1999 0.2004 0.2009 0.2013
2919.000000 0.2018 0.2023 0.2028 0.2033 0.2037
2924.000000 0.2042 0.2047 0.2052 0.2057 0.2062
2929.000000 0.2066 0.2075 0.2085 0.2095 0.2105
2934.000000 0.2114 0.2124 0.2134 0.2144 0.2153
2939.000000 0.2163 0.2172 0.2181 0.2191 0.2202
2944.000000 0.2212 0.2223 0.2234 0.2245 0.2256
2949.000000 0.2267 0.2278 0.2288 0.2299 0.2309
2954.000000 0.2320 0.2330 0.2336 0.2341 0.2345
2959.000000 0.2350 0.2355 0.2360 0.2365 0.2369
2964.000000 0.2369 0.2368 0.2368 0.2367 0.2366
2969.000000 0.2366 0.2365 0.2365 0.2364 0.2363
2974.000000 0.2362 0.2360 0.2359 0.2358 0.2357
2979.000000 0.2355 0.2354 0.2353 0.2354 0.2359
2984.000000 0.2364 0.2369 0.2374 0.2379 0.2384
2989.000000 0.2391 0.2399 0.2407 0.2415 0.2423
2994.000000 0.2431 0.2439 0.2447 0.2455 0.2463
2999.000000 0.2471 0.2481 0.2490 0.2500 0.2509
3004.000000 0.2519 0.2529 0.2538 0.2548 0.2557
3009.000000 0.2567 0.2576 0.2586 0.2595 0.2605
3014.000000 0.2614 0.2623 0.2633 0.2642 0.2651
3019.000000 0.2661 0.2670 0.2679 0.2688 0.2698
3024.000000 0.2707 0.2716 0.2726 0.2735 0.2745
3029.000000 0.2754 0.2764 0.2774 0.2784 0.2793
3034.000000 0.2803 0.2813 0.2822 0.2832 0.2842
3039.000000 0.2851 0.2861 0.2871 0.2881 0.2894
3044.000000 0.2908 0.2921 0.2934 0.2948 0.2961
3049.000000 0.2974 0.2988 0.3001 0.3014 0.3028
3054.000000 0.3041 0.3054 0.3068 0.3081 0.3094
3059.000000 0.3108 0.3121 0.3134 0.3147 0.3160
3064.000000 0.3173 0.3186 0.3199 0.3212 0.3225
3069.000000 0.3237 0.3250 0.3263 0.3276 0.3289
3074.000000 0.3302 0.3315 0.3327 0.3340 0.3352
3079.000000 0.3365 0.3377 0.3389 0.3402 0.3414
3084.000000 0.3426 0.3439 0.3451 0.3464 0.3476
3089.000000 0.3488 0.3501 0.3516 0.3531 0.3546
3094.000000 0.3561 0.3576 0.3592 0.3607 0.3622
3099.000000 0.3637 0.3652 0.3667 0.3682 0.3697
3104.000000 0.3712 0.3727 0.3743 0.3760 0.3777
3109.000000 0.3794 0.3811 0.3828 0.3845 0.3861
3114.000000 0.3876 0.3891 0.3906 0.3921 0.3936
3119.000000 0.3951 0.3966 0.3981 0.3996 0.4011
3124.000000 0.4025 0.4040 0.4054 0.4066 0.4078
3129.000000 0.4090 0.4102 0.4113 0.4125 0.4137
3134.000000 0.4149 0.4161 0.4172 0.4184 0.4196
3139.000000 0.4208 0.4218 0.4226 0.4235 0.4243
3144.000000 0.4252 0.4261 0.4269 0.4278 0.4284
3149.000000 0.4287 0.4291 0.4295 0.4299 0.4307
3154.000000 0.4315 0.4323 0.4330 0.4338 0.4357
3159.000000 0.4377 0.4397 0.4417 0.4438 0.4458
3164.000000 0.4476 0.4492 0.4508 0.4523 0.4539
3169.000000 0.4555 0.4571 0.4586 0.4602 0.4617
3174.000000 0.4633 0.4648 0.4664 0.4679 0.4695
3179.000000 0.4711 0.4727 0.4743 0.4759 0.4775
3184.000000 0.4791 0.4807 0.4823 0.4838 0.4853
3189.000000 0.4868 0.4883 0.4898 0.4913 0.4928
3194.000000 0.4943 0.4958 0.4973 0.4988 0.5002
3199.000000 0.5017 0.5031 0.5045 0.5060 0.5074
3204.000000 0.5089 0.5103 0.5118 0.5133 0.5147
3209.000000 0.5162 0.5176 0.5191 0.5206 0.5220
3214.000000 0.5233 0.5247 0.5261 0.5274 0.5288
3219.000000 0.5302 0.5315 0.5329 0.5342 0.5355
3224.000000 0.5363 0.5371 0.5379 0.5386 0.5394
3229.000000 0.5402 0.5409 0.5417 0.5425 0.5433
3234.000000 0.5440 0.5448 0.5456 0.5464 0.5471
3239.000000 0.5478 0.5486 0.5493 0.5500 0.5507
3244.000000 0.5514 0.5521 0.5529 0.5536 0.5543
3249.000000 0.5550 0.5557 0.5565 0.5573 0.5581
3254.000000 0.5589 0.5597 0.5605 0.5613 0.5622
3259.000000 0.5630 0.5638 0.5646 0.5654 0.5662
3264.000000 0.5670 0.5679 0.5687 0.5695 0.5705
3269.000000 0.5714 0.5724 0.5733 0.5743 0.5753
3274.000000 0.5762 0.5772 0.5782 0.5791 0.5801
3279.000000 0.5810 0.5820 0.5831 0.5842 0.5853
3284.000000 0.5864 0.5874 0.5885 0.5896 0.5907
3289.000000 0.5918 0.5928 0.5937 0.5947 0.5957
3294.000000 0.5967 0.5977 0.5986 0.5996 0.6006
3299.000000 0.6016 0.6024 0.6030 0.6037 0.6043
3304.000000 0.6050 0.6056 0.6062 0.6069 0.6074
3309.000000 0.6077 0.6080 0.6083 0.6086 0.6089
3314.000000 0.6091 0.6094 0.6097 0.6099 0.6102
3319.000000 0.6104 0.6106 0.6109 0.6111 0.6113
3324.000000 0.6116 0.6118 0.6120 0.6122 0.6125
3329.000000 0.6127 0.6128 0.6130 0.6132 0.6133
3334.000000 0.6135 0.6137 0.6138 0.6140 0.6142
3339.000000 0.6144 0.6145 0.6146 0.6147 0.6147
3344.000000 0.6147 0.6148 0.6148 0.6149 0.6149
3349.000000 0.6150 0.6150 0.6151 0.6151 0.6152
3354.000000 0.6152 0.6152 0.6153 0.6152 0.6149
3359.000000 0.6147 0.6144 0.6141 0.6139 0.6136
3364.000000 0.6134 0.6131 0.6129 0.6126 0.6118
3369.000000 0.6110 0.6102 0.6093 0.6088 0.6086
3374.000000 0.6085 0.6083 0.6082 0.6083 0.6084
3379.000000 0.6085 0.6085 0.6086 0.6087 0.6088
3384.000000 0.6088 0.6089 0.6089 0.6090 0.6090
3389.000000 0.6091 0.6091 0.6092 0.6092 0.6093
3394.000000 0.6093 0.6094 0.6096 0.6098 0.6099
3399.000000 0.6101 0.6102 0.6104 0.6106 0.6106
3404.000000 0.6109 0.6111 0.6112 0.6114 0.6115
3409.000000 0.6117 0.6119 0.6120 0.6122 0.6123
3414.000000 0.6125 0.6126 0.6128 0.6130 0.6131
3419.000000 0.6133 0.6134 0.6136 0.6137 0.6138
3424.000000 0.6140 0.6141 0.6142 0.6143 0.6145
3429.000000 0.6146 0.6147 0.6148 0.6151 0.6154
3434.000000 0.6158 0.6162 0.6165 0.6169 0.6172
3439.000000 0.6176 0.6179 0.6183 0.6187 0.6190
3444.000000 0.6194 0.6197 0.6201 0.6206 0.6212
3449.000000 0.6219 0.6225 0.6231 0.6237 0.6244
3454.000000 0.6250 0.6256 0.6262 0.6269 0.6275
3459.000000 0.6281 0.6287 0.6294 0.6300 0.6306
3464.000000 0.6312 0.6319 0.6325 0.6331 0.6337
3469.000000 0.6343 0.6350 0.6356 0.6362 0.6368
3474.000000 0.6375 0.6381 0.6387 0.6393 0.6399
3479.000000 0.6406 0.6412 0.6418 0.6424 0.6431
3484.000000 0.6438 0.6445 0.6452 0.6459 0.6466
3489.000000 0.6473 0.6480 0.6487 0.6494 0.6501
3494.000000 0.6508 0.6515 0.6522 0.6529 0.6536
3499.000000 0.6546 0.6555 0.6565 0.6574 0.6584
3504.000000 0.6594 0.6603 0.6613 0.6622 0.6632
3509.000000 0.6641 0.6651 0.6660 0.6670 0.6679
3514.000000 0.6689 0.6698 0.6708 0.6717 0.6727
3519.000000 0.6738 0.6748 0.6758 0.6768 0.6778
3524.000000 0.6789 0.6799 0.6809 0.6819 0.6830
3529.000000 0.6840 0.6850 0.6860 0.6870 0.6881
3534.000000 0.6891 0.6901 0.6911 0.6922 0.6932
3539.000000 0.6942 0.6952 0.6962 0.6973 0.6983
3544.000000 0.6993 0.7003 0.7014 0.7023 0.7031
3549.000000 0.7039 0.7048 0.7056 0.7064 0.7073
3554.000000 0.7081 0.7089 0.7097 0.7106 0.7114
3559.000000 0.7122 0.7131 0.7139 0.7147 0.7155
3564.000000 0.7163 0.7169 0.7176 0.7182 0.7189
3569.000000 0.7195 0.7202 0.7208 0.7214 0.7221
3574.000000 0.7227 0.7234 0.7240 0.7247 0.7253
3579.000000 0.7260 0.7266 0.7273 0.7279 0.7286
3584.000000 0.7293 0.7300 0.7306 0.7313 0.7320
3589.000000 0.7327 0.7334 0.7340 0.7347 0.7354
3594.000000 0.7361 0.7367 0.7374 0.7381 0.7388
3599.000000 0.7395 0.7402 0.7409 0.7415 0.7422
3604.000000 0.7429 0.7436 0.7443 0.7450 0.7457
3609.000000 0.7464 0.7471 0.7478 0.7485 0.7491
3614.000000 0.7498 0.7505 0.7512 0.7519 0.7526
3619.000000 0.7533 0.7540 0.7547 0.7554 0.7561
3624.000000 0.7568 0.7575 0.7582 0.7589 0.7597
3629.000000 0.7604 0.7612 0.7619 0.7626 0.7634
3634.000000 0.7637 0.7641 0.7644 0.7647 0.7648
3639.000000 0.7643 0.7638 0.7633 0.7628 0.7625
3644.000000 0.7622 0.7620 0.7628 0.7637 0.7646
3649.000000 0.7654 0.7667 0.7679 0.7692 0.7705
3654.000000 0.7717 0.7725 0.7733 0.7742 0.7750
3659.000000 0.7754 0.7751 0.7747 0.7744 0.7741
3664.000000 0.7734 0.7719 0.7704 0.7684 0.7660
3669.000000 0.7637 0.7629 0.7631 0.7632 0.7637
3674.000000 0.7646 0.7655 0.7665 0.7675 0.7686
3679.000000 0.7695 0.7693 0.7691 0.7689 0.7687
3684.000000 0.7686 0.7682 0.7679 0.7676 0.7673
3689.000000 0.7678 0.7686 0.7694 0.7720 0.7749
3694.000000 0.7778 0.7794 0.7810 0.7801 0.7803
3699.000000 0.7802 0.7800 0.7799 0.7798 0.7796
3704.000000 0.7795 0.7794 0.7793 0.7792 0.7792
3709.000000 0.7791 0.7790 0.7790 0.7789 0.7789
3714.000000 0.7789 0.7790 0.7796 0.7815 0.7834
3719.000000 0.7848 0.7850 0.7852 0.7854 0.7856
3724.000000 0.7856 0.7857 0.7857 0.7857 0.7857
3729.000000 0.7851 0.7845 0.7838 0.7832 0.7825
3734.000000 0.7819 0.7812 0.7809 0.7807 0.7804
3739.000000 0.7801 0.7798 0.7795 0.7793 0.7790
3744.000000 0.7787 0.7784 0.7781 0.7779 0.7776
3749.000000 0.7778 0.7781 0.7783 0.7786 0.7788
3754.000000 0.7791 0.7801 0.7819 0.7836 0.7854
3759.000000 0.7872 0.7890 0.7908 0.7911 0.7914
3764.000000 0.7918 0.7920 0.7921 0.7922 0.7923
3769.000000 0.7924 0.7925 0.7926 0.7927 0.7928
3774.000000 0.7928 0.7930 0.7931 0.7932 0.7933
3779.000000 0.7934 0.7935 0.7936 0.7938 0.7939
3784.000000 0.7940 0.7941 0.7942 0.7942 0.7941
3789.000000 0.7940 0.7940 0.7939 0.7938 0.7937
3794.000000 0.7935 0.7933 0.7931 0.7918 0.7904
3799.000000 0.7890 0.7888
##END=
