##TITLE=MORPHINONE, DIHYDRO-
##JCAMP-DX=4.24
$$ By DXEDIT 1.05 (RS McDonald)
##DATA TYPE=INFRARED SPECTRUM
##CLASS=COBLENTZ III
##ORIGIN=BUREAU OF CUSTOMS
##OWNER=COBLENTZ SOC.
Collection (C) 2018 copyright by the U.S. Secretary of Commerce
on behalf of the United States of America. All rights reserved.
##DATE=Not specified, most likely prior to 1970
##NAMES=DILAUDID HYDROCHLORIDE
##MOLFORM=C17 H19 Cl N O3
##MP=305-315 C DECOMP.
##SOURCE REFERENCE=COBLENTZ NO. 05007
##$NIST ID=B6005007
##$NIST SOURCE=COBLENTZ
##$NIST IMAGE=cob5007
##SPECTROMETER/DATA SYSTEM=PERKIN-ELMER 21 (GRATING)
##INSTRUMENT PARAMETERS=FILTER AT ABOUT 10 MICRONS
##STATE=SOLID (1.2 mg / 250 mg KBr DISC)
$$PURITY 99+
##SAMPLING PROCEDURE=TRANSMISSION
##RESOLUTION=2
##DATA PROCESSING=DIGITIZED BY COBLENTZ SOCIETY (BATCH I) FROM HARD COPY
##XUNITS=1/CM
##YUNITS=TRANSMITTANCE
##XLABEL=Wavenumbers (cm-1)
##YLABEL=Transmittance
##XFACTOR=1
##YFACTOR=1
##DELTAX=1
##FIRSTX=4000
##LASTX=652
##FIRSTY=0.7685
##MAXX=4000
##MINX=652
##MAXY=0.9101
##MINY=0.0834
##NPOINTS=3349
##XYDATA=(X++(Y..Y))
4000.000000 0.7685 0.7685 0.7686 0.7687 0.7688
3995.000000 0.7688 0.7689 0.7690 0.7691 0.7692
3990.000000 0.7692 0.7693 0.7694 0.7695 0.7695
3985.000000 0.7695 0.7695 0.7695 0.7695 0.7695
3980.000000 0.7695 0.7695 0.7695 0.7695 0.7695
3975.000000 0.7695 0.7695 0.7695 0.7695 0.7695
3970.000000 0.7695 0.7695 0.7695 0.7695 0.7695
3965.000000 0.7695 0.7695 0.7695 0.7695 0.7695
3960.000000 0.7695 0.7695 0.7695 0.7695 0.7695
3955.000000 0.7695 0.7695 0.7695 0.7695 0.7695
3950.000000 0.7695 0.7695 0.7695 0.7695 0.7695
3945.000000 0.7695 0.7695 0.7695 0.7695 0.7695
3940.000000 0.7695 0.7695 0.7695 0.7695 0.7695
3935.000000 0.7695 0.7695 0.7695 0.7695 0.7695
3930.000000 0.7695 0.7695 0.7695 0.7696 0.7696
3925.000000 0.7696 0.7697 0.7698 0.7698 0.7699
3920.000000 0.7700 0.7700 0.7701 0.7701 0.7701
3915.000000 0.7703 0.7703 0.7704 0.7705 0.7705
3910.000000 0.7706 0.7707 0.7707 0.7708 0.7708
3905.000000 0.7708 0.7710 0.7711 0.7711 0.7711
3900.000000 0.7712 0.7712 0.7714 0.7715 0.7715
3895.000000 0.7715 0.7717 0.7718 0.7718 0.7721
3890.000000 0.7721 0.7722 0.7725 0.7728 0.7732
3885.000000 0.7735 0.7738 0.7742 0.7745 0.7749
3880.000000 0.7753 0.7756 0.7760 0.7764 0.7767
3875.000000 0.7771 0.7774 0.7778 0.7781 0.7785
3870.000000 0.7788 0.7792 0.7795 0.7799 0.7801
3865.000000 0.7806 0.7808 0.7811 0.7815 0.7818
3860.000000 0.7821 0.7824 0.7826 0.7828 0.7832
3855.000000 0.7835 0.7838 0.7841 0.7844 0.7846
3850.000000 0.7849 0.7851 0.7855 0.7857 0.7860
3845.000000 0.7862 0.7865 0.7868 0.7871 0.7874
3840.000000 0.7876 0.7880 0.7883 0.7886 0.7889
3835.000000 0.7892 0.7894 0.7897 0.7900 0.7903
3830.000000 0.7905 0.7908 0.7911 0.7914 0.7917
3825.000000 0.7919 0.7922 0.7925 0.7926 0.7928
3820.000000 0.7931 0.7932 0.7934 0.7935 0.7937
3815.000000 0.7938 0.7939 0.7941 0.7942 0.7943
3810.000000 0.7945 0.7946 0.7948 0.7949 0.7950
3805.000000 0.7951 0.7953 0.7955 0.7956 0.7957
3800.000000 0.7958 0.7960 0.7961 0.7962 0.7964
3795.000000 0.7965 0.7967 0.7968 0.7969 0.7971
3790.000000 0.7972 0.7975 0.7975 0.7976 0.7976
3785.000000 0.7978 0.7978 0.7980 0.7980 0.7980
3780.000000 0.7980 0.7980 0.7980 0.7980 0.7980
3775.000000 0.7980 0.7980 0.7980 0.7980 0.7980
3770.000000 0.7980 0.7980 0.7980 0.7980 0.7980
3765.000000 0.7980 0.7980 0.7980 0.7980 0.7980
3760.000000 0.7980 0.7980 0.7980 0.7980 0.7980
3755.000000 0.7980 0.7980 0.7980 0.7980 0.7980
3750.000000 0.7980 0.7980 0.7978 0.7978 0.7978
3745.000000 0.7978 0.7978 0.7978 0.7976 0.7975
3740.000000 0.7974 0.7971 0.7969 0.7968 0.7965
3735.000000 0.7964 0.7961 0.7960 0.7958 0.7956
3730.000000 0.7954 0.7951 0.7950 0.7948 0.7946
3725.000000 0.7944 0.7942 0.7940 0.7938 0.7936
3720.000000 0.7934 0.7931 0.7928 0.7925 0.7921
3715.000000 0.7918 0.7912 0.7908 0.7901 0.7896
3710.000000 0.7890 0.7884 0.7878 0.7872 0.7867
3705.000000 0.7861 0.7856 0.7850 0.7845 0.7839
3700.000000 0.7833 0.7826 0.7821 0.7812 0.7805
3695.000000 0.7797 0.7788 0.7780 0.7771 0.7764
3690.000000 0.7756 0.7747 0.7739 0.7731 0.7722
3685.000000 0.7715 0.7707 0.7699 0.7690 0.7674
3680.000000 0.7656 0.7639 0.7621 0.7604 0.7578
3675.000000 0.7547 0.7515 0.7483 0.7451 0.7419
3670.000000 0.7403 0.7386 0.7368 0.7351 0.7334
3665.000000 0.7317 0.7299 0.7282 0.7265 0.7247
3660.000000 0.7230 0.7212 0.7195 0.7178 0.7160
3655.000000 0.7143 0.7126 0.7111 0.7095 0.7078
3650.000000 0.7061 0.7046 0.7030 0.7014 0.6998
3645.000000 0.6982 0.6965 0.6950 0.6934 0.6918
3640.000000 0.6901 0.6886 0.6869 0.6855 0.6839
3635.000000 0.6822 0.6807 0.6787 0.6765 0.6744
3630.000000 0.6721 0.6700 0.6676 0.6651 0.6625
3625.000000 0.6601 0.6575 0.6550 0.6524 0.6499
3620.000000 0.6474 0.6448 0.6422 0.6401 0.6380
3615.000000 0.6359 0.6338 0.6317 0.6298 0.6282
3610.000000 0.6265 0.6248 0.6231 0.6214 0.6197
3605.000000 0.6181 0.6164 0.6147 0.6130 0.6112
3600.000000 0.6096 0.6079 0.6062 0.6045 0.6028
3595.000000 0.6010 0.5994 0.5977 0.5960 0.5944
3590.000000 0.5928 0.5910 0.5895 0.5879 0.5862
3585.000000 0.5847 0.5831 0.5816 0.5800 0.5784
3580.000000 0.5768 0.5752 0.5737 0.5721 0.5705
3575.000000 0.5689 0.5673 0.5657 0.5642 0.5626
3570.000000 0.5610 0.5594 0.5578 0.5562 0.5546
3565.000000 0.5530 0.5514 0.5498 0.5482 0.5466
3560.000000 0.5451 0.5435 0.5419 0.5403 0.5388
3555.000000 0.5372 0.5356 0.5340 0.5324 0.5308
3550.000000 0.5292 0.5277 0.5260 0.5245 0.5229
3545.000000 0.5212 0.5197 0.5181 0.5164 0.5148
3540.000000 0.5131 0.5114 0.5097 0.5080 0.5062
3535.000000 0.5043 0.5023 0.5003 0.4983 0.4962
3530.000000 0.4943 0.4922 0.4902 0.4882 0.4862
3525.000000 0.4841 0.4821 0.4801 0.4780 0.4760
3520.000000 0.4743 0.4725 0.4708 0.4690 0.4673
3515.000000 0.4656 0.4639 0.4623 0.4606 0.4590
3510.000000 0.4573 0.4556 0.4540 0.4523 0.4506
3505.000000 0.4490 0.4473 0.4456 0.4440 0.4423
3500.000000 0.4406 0.4389 0.4372 0.4355 0.4338
3495.000000 0.4321 0.4304 0.4288 0.4271 0.4256
3490.000000 0.4241 0.4227 0.4212 0.4198 0.4188
3485.000000 0.4179 0.4170 0.4160 0.4152 0.4144
3480.000000 0.4135 0.4126 0.4117 0.4108 0.4099
3475.000000 0.4090 0.4080 0.4072 0.4062 0.4054
3470.000000 0.4044 0.4034 0.4025 0.4014 0.4003
3465.000000 0.3992 0.3980 0.3968 0.3959 0.3950
3460.000000 0.3942 0.3932 0.3924 0.3920 0.3916
3455.000000 0.3912 0.3909 0.3905 0.3902 0.3899
3450.000000 0.3896 0.3893 0.3890 0.3889 0.3888
3445.000000 0.3887 0.3886 0.3886 0.3886 0.3886
3440.000000 0.3886 0.3886 0.3887 0.3888 0.3889
3435.000000 0.3890 0.3891 0.3892 0.3894 0.3895
3430.000000 0.3897 0.3899 0.3905 0.3910 0.3916
3425.000000 0.3922 0.3928 0.3934 0.3941 0.3947
3420.000000 0.3953 0.3960 0.3968 0.3976 0.3984
3415.000000 0.3993 0.4007 0.4020 0.4032 0.4047
3410.000000 0.4059 0.4073 0.4086 0.4099 0.4112
3405.000000 0.4126 0.4139 0.4153 0.4166 0.4180
3400.000000 0.4195 0.4209 0.4224 0.4239 0.4255
3395.000000 0.4272 0.4289 0.4307 0.4324 0.4341
3390.000000 0.4359 0.4376 0.4393 0.4410 0.4428
3385.000000 0.4446 0.4462 0.4481 0.4498 0.4515
3380.000000 0.4532 0.4550 0.4566 0.4581 0.4596
3375.000000 0.4610 0.4626 0.4641 0.4656 0.4671
3370.000000 0.4686 0.4701 0.4716 0.4731 0.4746
3365.000000 0.4760 0.4773 0.4785 0.4797 0.4809
3360.000000 0.4821 0.4830 0.4839 0.4848 0.4858
3355.000000 0.4867 0.4876 0.4886 0.4895 0.4904
3350.000000 0.4914 0.4923 0.4933 0.4942 0.4951
3345.000000 0.4960 0.4970 0.4979 0.4989 0.4999
3340.000000 0.5008 0.5018 0.5027 0.5038 0.5049
3335.000000 0.5060 0.5071 0.5082 0.5094 0.5105
3330.000000 0.5116 0.5127 0.5134 0.5139 0.5145
3325.000000 0.5150 0.5156 0.5160 0.5166 0.5171
3320.000000 0.5176 0.5181 0.5186 0.5191 0.5196
3315.000000 0.5199 0.5201 0.5202 0.5204 0.5206
3310.000000 0.5207 0.5209 0.5210 0.5210 0.5212
3305.000000 0.5214 0.5215 0.5217 0.5218 0.5219
3300.000000 0.5220 0.5234 0.5223 0.5223 0.5223
3295.000000 0.5223 0.5223 0.5223 0.5221 0.5220
3290.000000 0.5219 0.5218 0.5216 0.5215 0.5214
3285.000000 0.5212 0.5210 0.5210 0.5209 0.5208
3280.000000 0.5206 0.5203 0.5201 0.5199 0.5195
3275.000000 0.5191 0.5187 0.5183 0.5178 0.5174
3270.000000 0.5170 0.5165 0.5160 0.5156 0.5152
3265.000000 0.5148 0.5144 0.5139 0.5135 0.5130
3260.000000 0.5126 0.5122 0.5117 0.5112 0.5109
3255.000000 0.5105 0.5100 0.5095 0.5090 0.5086
3250.000000 0.5076 0.5066 0.5057 0.5047 0.5037
3245.000000 0.5027 0.5018 0.5008 0.4998 0.4988
3240.000000 0.4979 0.4969 0.4959 0.4949 0.4940
3235.000000 0.4930 0.4920 0.4910 0.4900 0.4891
3230.000000 0.4881 0.4871 0.4860 0.4851 0.4841
3225.000000 0.4831 0.4821 0.4810 0.4801 0.4791
3220.000000 0.4781 0.4771 0.4760 0.4751 0.4741
3215.000000 0.4731 0.4721 0.4710 0.4701 0.4690
3210.000000 0.4680 0.4670 0.4660 0.4650 0.4639
3205.000000 0.4629 0.4619 0.4609 0.4599 0.4589
3200.000000 0.4578 0.4567 0.4556 0.4544 0.4533
3195.000000 0.4522 0.4510 0.4499 0.4488 0.4477
3190.000000 0.4466 0.4455 0.4444 0.4432 0.4421
3185.000000 0.4410 0.4399 0.4388 0.4378 0.4367
3180.000000 0.4356 0.4346 0.4335 0.4325 0.4310
3175.000000 0.4296 0.4280 0.4265 0.4244 0.4218
3170.000000 0.4193 0.4167 0.4142 0.4116 0.4091
3165.000000 0.4064 0.4044 0.4026 0.4009 0.3991
3160.000000 0.3974 0.3957 0.3939 0.3922 0.3905
3155.000000 0.3887 0.3870 0.3853 0.3834 0.3818
3150.000000 0.3800 0.3782 0.3762 0.3742 0.3721
3145.000000 0.3700 0.3679 0.3658 0.3636 0.3614
3140.000000 0.3593 0.3572 0.3550 0.3529 0.3507
3135.000000 0.3484 0.3464 0.3442 0.3390 0.3330
3130.000000 0.3272 0.3214 0.3128 0.3039 0.2950
3125.000000 0.2862 0.2847 0.2832 0.2818 0.2803
3120.000000 0.2789 0.2774 0.2760 0.2745 0.2727
3115.000000 0.2710 0.2692 0.2674 0.2653 0.2633
3110.000000 0.2613 0.2592 0.2571 0.2551 0.2530
3105.000000 0.2509 0.2487 0.2465 0.2443 0.2421
3100.000000 0.2400 0.2378 0.2356 0.2334 0.2312
3095.000000 0.2290 0.2268 0.2234 0.2201 0.2168
3090.000000 0.2134 0.2098 0.2062 0.2025 0.1989
3085.000000 0.1953 0.1917 0.1881 0.1850 0.1820
3080.000000 0.1791 0.1762 0.1733 0.1704 0.1675
3075.000000 0.1645 0.1624 0.1601 0.1579 0.1558
3070.000000 0.1542 0.1525 0.1508 0.1491 0.1475
3065.000000 0.1458 0.1441 0.1426 0.1412 0.1396
3060.000000 0.1383 0.1369 0.1355 0.1340 0.1328
3055.000000 0.1324 0.1320 0.1316 0.1312 0.1309
3050.000000 0.1306 0.1303 0.1303 0.1303 0.1303
3045.000000 0.1304 0.1304 0.1304 0.1304 0.1305
3040.000000 0.1305 0.1305 0.1305 0.1309 0.1315
3035.000000 0.1321 0.1326 0.1338 0.1350 0.1361
3030.000000 0.1378 0.1405 0.1432 0.1459 0.1492
3025.000000 0.1532 0.1571 0.1610 0.1656 0.1702
3020.000000 0.1748 0.1792 0.1834 0.1877 0.1919
3015.000000 0.1945 0.1966 0.1985 0.2006 0.2024
3010.000000 0.2041 0.2058 0.2071 0.2077 0.2083
3005.000000 0.2089 0.2094 0.2099 0.2103 0.2107
3000.000000 0.2108 0.2109 0.2110 0.2111 0.2112
2995.000000 0.2113 0.2115 0.2116 0.2117 0.2118
2990.000000 0.2119 0.2120 0.2121 0.2122 0.2123
2985.000000 0.2124 0.2125 0.2126 0.2127 0.2128
2980.000000 0.2129 0.2130 0.2131 0.2133 0.2134
2975.000000 0.2134 0.2135 0.2137 0.2140 0.2143
2970.000000 0.2146 0.2149 0.2152 0.2156 0.2159
2965.000000 0.2163 0.2166 0.2170 0.2174 0.2178
2960.000000 0.2181 0.2184 0.2189 0.2192 0.2196
2955.000000 0.2201 0.2218 0.2235 0.2253 0.2272
2950.000000 0.2292 0.2311 0.2332 0.2360 0.2389
2945.000000 0.2417 0.2451 0.2489 0.2526 0.2563
2940.000000 0.2600 0.2638 0.2675 0.2713 0.2752
2935.000000 0.2791 0.2830 0.2870 0.2910 0.2950
2930.000000 0.2990 0.3030 0.3070 0.3107 0.3140
2925.000000 0.3173 0.3207 0.3232 0.3258 0.3282
2920.000000 0.3309 0.3334 0.3359 0.3384 0.3410
2915.000000 0.3437 0.3462 0.3489 0.3516 0.3544
2910.000000 0.3572 0.3602 0.3630 0.3660 0.3677
2905.000000 0.3694 0.3709 0.3720 0.3726 0.3730
2900.000000 0.3737 0.3743 0.3749 0.3755 0.3756
2895.000000 0.3757 0.3757 0.3758 0.3758 0.3758
2890.000000 0.3759 0.3759 0.3759 0.3759 0.3764
2885.000000 0.3772 0.3778 0.3787 0.3798 0.3809
2880.000000 0.3820 0.3830 0.3842 0.3853 0.3862
2875.000000 0.3873 0.3882 0.3893 0.3902 0.3910
2870.000000 0.3920 0.3929 0.3938 0.3947 0.3956
2865.000000 0.3966 0.3975 0.3984 0.3993 0.4002
2860.000000 0.4010 0.4020 0.4030 0.4039 0.4047
2855.000000 0.4055 0.4064 0.4070 0.4077 0.4084
2850.000000 0.4091 0.4098 0.4104 0.4110 0.4118
2845.000000 0.4125 0.4133 0.4140 0.4147 0.4155
2840.000000 0.4164 0.4173 0.4182 0.4191 0.4200
2835.000000 0.4209 0.4218 0.4226 0.4235 0.4244
2830.000000 0.4253 0.4262 0.4271 0.4281 0.4291
2825.000000 0.4301 0.4312 0.4325 0.4337 0.4348
2820.000000 0.4360 0.4372 0.4381 0.4387 0.4393
2815.000000 0.4399 0.4403 0.4407 0.4410 0.4415
2810.000000 0.4419 0.4423 0.4428 0.4432 0.4436
2805.000000 0.4436 0.4436 0.4435 0.4435 0.4434
2800.000000 0.4434 0.4433 0.4433 0.4433 0.4432
2795.000000 0.4432 0.4432 0.4431 0.4431 0.4431
2790.000000 0.4430 0.4430 0.4429 0.4428 0.4423
2785.000000 0.4419 0.4414 0.4409 0.4403 0.4398
2780.000000 0.4393 0.4388 0.4384 0.4378 0.4373
2775.000000 0.4368 0.4362 0.4358 0.4353 0.4348
2770.000000 0.4343 0.4338 0.4333 0.4327 0.4322
2765.000000 0.4312 0.4297 0.4282 0.4267 0.4251
2760.000000 0.4236 0.4221 0.4205 0.4190 0.4174
2755.000000 0.4159 0.4144 0.4128 0.4112 0.4095
2750.000000 0.4077 0.4058 0.4039 0.4020 0.4000
2745.000000 0.3980 0.3960 0.3941 0.3922 0.3902
2740.000000 0.3882 0.3862 0.3844 0.3824 0.3805
2735.000000 0.3786 0.3771 0.3755 0.3740 0.3725
2730.000000 0.3709 0.3695 0.3680 0.3664 0.3650
2725.000000 0.3634 0.3620 0.3605 0.3590 0.3574
2720.000000 0.3558 0.3539 0.3521 0.3500 0.3477
2715.000000 0.3454 0.3430 0.3408 0.3384 0.3366
2710.000000 0.3355 0.3342 0.3332 0.3327 0.3322
2705.000000 0.3316 0.3309 0.3303 0.3297 0.3292
2700.000000 0.3286 0.3280 0.3273 0.3266 0.3260
2695.000000 0.3255 0.3249 0.3243 0.3237 0.3230
2690.000000 0.3223 0.3214 0.3207 0.3198 0.3189
2685.000000 0.3180 0.3171 0.3162 0.3153 0.3143
2680.000000 0.3134 0.3125 0.3116 0.3107 0.3097
2675.000000 0.3087 0.3077 0.3065 0.3053 0.3041
2670.000000 0.3030 0.3018 0.3006 0.2994 0.2983
2665.000000 0.2971 0.2960 0.2949 0.2938 0.2928
2660.000000 0.2917 0.2907 0.2896 0.2885 0.2877
2655.000000 0.2868 0.2859 0.2858 0.2856 0.2855
2650.000000 0.2854 0.2844 0.2852 0.2851 0.2850
2645.000000 0.2849 0.2848 0.2848 0.2849 0.2851
2640.000000 0.2852 0.2854 0.2856 0.2858 0.2860
2635.000000 0.2861 0.2863 0.2865 0.2868 0.2870
2630.000000 0.2871 0.2873 0.2875 0.2877 0.2879
2625.000000 0.2880 0.2882 0.2884 0.2885 0.2888
2620.000000 0.2889 0.2891 0.2893 0.2896 0.2899
2615.000000 0.2902 0.2905 0.2909 0.2913 0.2916
2610.000000 0.2919 0.2923 0.2926 0.2930 0.2933
2605.000000 0.2937 0.2940 0.2944 0.2947 0.2951
2600.000000 0.2954 0.2958 0.2961 0.2964 0.2968
2595.000000 0.2975 0.2983 0.2990 0.2998 0.3005
2590.000000 0.3013 0.3021 0.3028 0.3035 0.3043
2585.000000 0.3054 0.3070 0.3087 0.3105 0.3125
2580.000000 0.3144 0.3164 0.3183 0.3209 0.3246
2575.000000 0.3284 0.3322 0.3360 0.3399 0.3427
2570.000000 0.3456 0.3491 0.3540 0.3588 0.3609
2565.000000 0.3620 0.3630 0.3639 0.3648 0.3655
2560.000000 0.3662 0.3668 0.3668 0.3671 0.3672
2555.000000 0.3672 0.3672 0.3672 0.3668 0.3664
2550.000000 0.3655 0.3645 0.3637 0.3632 0.3627
2545.000000 0.3624 0.3622 0.3620 0.3620 0.3620
2540.000000 0.3624 0.3628 0.3634 0.3662 0.3690
2535.000000 0.3714 0.3738 0.3760 0.3773 0.3784
2530.000000 0.3794 0.3805 0.3814 0.3826 0.3837
2525.000000 0.3848 0.3859 0.3868 0.3880 0.3891
2520.000000 0.3902 0.3912 0.3923 0.3934 0.3945
2515.000000 0.3957 0.3971 0.3984 0.4000 0.4016
2510.000000 0.4032 0.4048 0.4064 0.4080 0.4095
2505.000000 0.4110 0.4127 0.4143 0.4159 0.4175
2500.000000 0.4191 0.4207 0.4224 0.4241 0.4258
2495.000000 0.4275 0.4292 0.4308 0.4325 0.4342
2490.000000 0.4359 0.4376 0.4393 0.4410 0.4427
2485.000000 0.4444 0.4460 0.4478 0.4496 0.4515
2480.000000 0.4535 0.4555 0.4575 0.4594 0.4614
2475.000000 0.4633 0.4653 0.4673 0.4693 0.4712
2470.000000 0.4733 0.4753 0.4773 0.4793 0.4812
2465.000000 0.4833 0.4855 0.4878 0.4903 0.4927
2460.000000 0.4952 0.4977 0.5002 0.5027 0.5051
2455.000000 0.5076 0.5101 0.5126 0.5151 0.5176
2450.000000 0.5201 0.5226 0.5251 0.5275 0.5300
2445.000000 0.5324 0.5348 0.5371 0.5394 0.5417
2440.000000 0.5441 0.5464 0.5488 0.5510 0.5534
2435.000000 0.5558 0.5581 0.5605 0.5628 0.5649
2430.000000 0.5668 0.5687 0.5706 0.5724 0.5742
2425.000000 0.5760 0.5778 0.5796 0.5814 0.5833
2420.000000 0.5851 0.5869 0.5888 0.5905 0.5923
2415.000000 0.5941 0.5958 0.5976 0.5993 0.6010
2410.000000 0.6029 0.6046 0.6064 0.6082 0.6101
2405.000000 0.6120 0.6139 0.6158 0.6177 0.6196
2400.000000 0.6215 0.6232 0.6244 0.6257 0.6268
2395.000000 0.6280 0.6292 0.6304 0.6316 0.6327
2390.000000 0.6339 0.6347 0.6356 0.6359 0.6360
2385.000000 0.6360 0.6362 0.6364 0.6365 0.6366
2380.000000 0.6368 0.6370 0.6371 0.6373 0.6376
2375.000000 0.6381 0.6387 0.6393 0.6400 0.6411
2370.000000 0.6424 0.6439 0.6456 0.6472 0.6490
2365.000000 0.6508 0.6525 0.6543 0.6560 0.6576
2360.000000 0.6594 0.6611 0.6628 0.6646 0.6662
2355.000000 0.6681 0.6698 0.6715 0.6734 0.6751
2350.000000 0.6771 0.6790 0.6808 0.6828 0.6848
2345.000000 0.6868 0.6887 0.6906 0.6925 0.6945
2340.000000 0.6965 0.6984 0.7004 0.7022 0.7042
2335.000000 0.7061 0.7084 0.7114 0.7143 0.7176
2330.000000 0.7210 0.7242 0.7274 0.7306 0.7338
2325.000000 0.7369 0.7401 0.7431 0.7460 0.7486
2320.000000 0.7506 0.7525 0.7538 0.7551 0.7553
2315.000000 0.7555 0.7557 0.7560 0.7561 0.7564
2310.000000 0.7567 0.7568 0.7569 0.7572 0.7575
2305.000000 0.7576 0.7580 0.7582 0.7584 0.7590
2300.000000 0.7596 0.7605 0.7614 0.7622 0.7633
2295.000000 0.7642 0.7651 0.7660 0.7668 0.7678
2290.000000 0.7687 0.7696 0.7706 0.7715 0.7724
2285.000000 0.7733 0.7742 0.7750 0.7757 0.7764
2280.000000 0.7769 0.7776 0.7784 0.7792 0.7798
2275.000000 0.7805 0.7811 0.7818 0.7825 0.7832
2270.000000 0.7839 0.7847 0.7854 0.7860 0.7867
2265.000000 0.7874 0.7881 0.7888 0.7896 0.7901
2260.000000 0.7908 0.7915 0.7922 0.7930 0.7937
2255.000000 0.7944 0.7951 0.7958 0.7965 0.7971
2250.000000 0.7978 0.7985 0.7992 0.7998 0.8004
2245.000000 0.8010 0.8015 0.8021 0.8026 0.8033
2240.000000 0.8038 0.8044 0.8050 0.8056 0.8061
2235.000000 0.8068 0.8072 0.8078 0.8085 0.8091
2230.000000 0.8097 0.8103 0.8108 0.8115 0.8121
2225.000000 0.8126 0.8133 0.8138 0.8144 0.8150
2220.000000 0.8156 0.8161 0.8168 0.8174 0.8178
2215.000000 0.8182 0.8186 0.8189 0.8193 0.8196
2210.000000 0.8199 0.8202 0.8205 0.8209 0.8212
2205.000000 0.8215 0.8218 0.8221 0.8225 0.8228
2200.000000 0.8232 0.8235 0.8238 0.8242 0.8245
2195.000000 0.8248 0.8251 0.8254 0.8258 0.8262
2190.000000 0.8265 0.8268 0.8271 0.8274 0.8277
2185.000000 0.8280 0.8284 0.8287 0.8289 0.8292
2180.000000 0.8294 0.8297 0.8301 0.8303 0.8306
2175.000000 0.8309 0.8311 0.8314 0.8318 0.8320
2170.000000 0.8323 0.8325 0.8328 0.8332 0.8335
2165.000000 0.8337 0.8340 0.8343 0.8345 0.8348
2160.000000 0.8351 0.8354 0.8357 0.8360 0.8362
2155.000000 0.8365 0.8368 0.8371 0.8374 0.8377
2150.000000 0.8378 0.8382 0.8386 0.8389 0.8391
2145.000000 0.8394 0.8397 0.8400 0.8403 0.8406
2140.000000 0.8409 0.8411 0.8414 0.8417 0.8420
2135.000000 0.8423 0.8425 0.8428 0.8432 0.8434
2130.000000 0.8437 0.8440 0.8443 0.8445 0.8448
2125.000000 0.8451 0.8454 0.8456 0.8459 0.8462
2120.000000 0.8465 0.8468 0.8470 0.8473 0.8475
2115.000000 0.8478 0.8481 0.8484 0.8487 0.8490
2110.000000 0.8492 0.8494 0.8497 0.8500 0.8503
2105.000000 0.8506 0.8509 0.8511 0.8514 0.8517
2100.000000 0.8520 0.8523 0.8525 0.8528 0.8531
2095.000000 0.8534 0.8537 0.8540 0.8543 0.8546
2090.000000 0.8548 0.8551 0.8554 0.8557 0.8559
2085.000000 0.8562 0.8564 0.8566 0.8568 0.8571
2080.000000 0.8573 0.8575 0.8578 0.8580 0.8583
2075.000000 0.8586 0.8588 0.8590 0.8593 0.8595
2070.000000 0.8597 0.8600 0.8602 0.8604 0.8607
2065.000000 0.8609 0.8611 0.8614 0.8616 0.8618
2060.000000 0.8621 0.8624 0.8627 0.8628 0.8631
2055.000000 0.8634 0.8636 0.8638 0.8641 0.8643
2050.000000 0.8646 0.8648 0.8650 0.8653 0.8655
2045.000000 0.8658 0.8661 0.8663 0.8666 0.8668
2040.000000 0.8671 0.8674 0.8675 0.8678 0.8681
2035.000000 0.8684 0.8687 0.8689 0.8692 0.8694
2030.000000 0.8697 0.8700 0.8702 0.8705 0.8707
2025.000000 0.8710 0.8713 0.8716 0.8718 0.8721
2020.000000 0.8724 0.8725 0.8728 0.8731 0.8734
2015.000000 0.8737 0.8740 0.8742 0.8745 0.8747
2010.000000 0.8750 0.8753 0.8756 0.8758 0.8761
2005.000000 0.8764 0.8767 0.8768 0.8771 0.8774
2000.000000 0.8777 0.8778 0.8782 0.8784 0.8787
1995.000000 0.8789 0.8792 0.8794 0.8797 0.8799
1990.000000 0.8802 0.8804 0.8807 0.8809 0.8812
1985.000000 0.8814 0.8817 0.8818 0.8821 0.8823
1980.000000 0.8825 0.8828 0.8831 0.8833 0.8835
1975.000000 0.8837 0.8839 0.8841 0.8843 0.8845
1970.000000 0.8848 0.8850 0.8851 0.8853 0.8855
1965.000000 0.8857 0.8859 0.8861 0.8863 0.8865
1960.000000 0.8867 0.8868 0.8871 0.8873 0.8875
1955.000000 0.8878 0.8880 0.8882 0.8884 0.8887
1950.000000 0.8890 0.8892 0.8895 0.8898 0.8900
1945.000000 0.8902 0.8905 0.8907 0.8910 0.8912
1940.000000 0.8914 0.8916 0.8916 0.8918 0.8918
1935.000000 0.8918 0.8920 0.8920 0.8920 0.8916
1930.000000 0.8913 0.8909 0.8907 0.8903 0.8899
1925.000000 0.8895 0.8891 0.8886 0.8881 0.8877
1920.000000 0.8871 0.8868 0.8863 0.8859 0.8859
1915.000000 0.8859 0.8859 0.8859 0.8860 0.8860
1910.000000 0.8860 0.8860 0.8861 0.8861 0.8867
1905.000000 0.8875 0.8885 0.8895 0.8904 0.8914
1900.000000 0.8924 0.8933 0.8943 0.8951 0.8956
1895.000000 0.8960 0.8965 0.8970 0.8975 0.8978
1890.000000 0.8984 0.8989 0.8994 0.8998 0.9003
1885.000000 0.9007 0.9012 0.9017 0.9021 0.9024
1880.000000 0.9027 0.9030 0.9034 0.9037 0.9040
1875.000000 0.9043 0.9046 0.9049 0.9052 0.9055
1870.000000 0.9059 0.9062 0.9065 0.9068 0.9070
1865.000000 0.9071 0.9074 0.9075 0.9078 0.9080
1860.000000 0.9082 0.9084 0.9086 0.9087 0.9089
1855.000000 0.9092 0.9093 0.9095 0.9097 0.9099
1850.000000 0.9101 0.9101 0.9101 0.9101 0.9101
1845.000000 0.9101 0.9101 0.9101 0.9101 0.9101
1840.000000 0.9101 0.9100 0.9099 0.9099 0.9099
1835.000000 0.9098 0.9098 0.9098 0.9097 0.9097
1830.000000 0.9097 0.9097 0.9097 0.9097 0.9098
1825.000000 0.9098 0.9099 0.9099 0.9099 0.9098
1820.000000 0.9096 0.9095 0.9093 0.9092 0.9090
1815.000000 0.9088 0.9086 0.9085 0.9082 0.9078
1810.000000 0.9075 0.9073 0.9068 0.9065 0.9062
1805.000000 0.9059 0.9056 0.9053 0.9049 0.9046
1800.000000 0.9043 0.9040 0.9034 0.9024 0.9008
1795.000000 0.8992 0.8975 0.8959 0.8943 0.8925
1790.000000 0.8908 0.8887 0.8864 0.8842 0.8818
1785.000000 0.8797 0.8774 0.8752 0.8728 0.8707
1780.000000 0.8686 0.8665 0.8644 0.8623 0.8602
1775.000000 0.8581 0.8560 0.8539 0.8518 0.8489
1770.000000 0.8450 0.8404 0.8358 0.8312 0.8252
1765.000000 0.8178 0.8096 0.8011 0.7910 0.7801
1760.000000 0.7690 0.7341 0.6564 0.6465 0.6339
1755.000000 0.6184 0.5966 0.5667 0.5364 0.5060
1750.000000 0.4756 0.4452 0.4148 0.3843 0.3538
1745.000000 0.3232 0.2927 0.2620 0.2313 0.2007
1740.000000 0.1699 0.1391 0.1084 0.0864 0.0836
1735.000000 0.0835 0.0834 0.0867 0.1024 0.1291
1730.000000 0.1557 0.1824 0.2091 0.2358 0.2626
1725.000000 0.2893 0.3161 0.3430 0.3700 0.3968
1720.000000 0.4238 0.4508 0.4778 0.5048 0.5319
1715.000000 0.5590 0.5860 0.6133 0.6405 0.6644
1710.000000 0.6701 0.6724 0.6744 0.6758 0.6765
1705.000000 0.6774 0.6781 0.6787 0.6795 0.6801
1700.000000 0.6808 0.6817 0.6828 0.6839 0.6849
1695.000000 0.6861 0.6871 0.6882 0.6893 0.6907
1690.000000 0.6928 0.6951 0.6975 0.6994 0.7010
1685.000000 0.7025 0.7039 0.7105 0.7054 0.7054
1680.000000 0.7021 0.6899 0.6775 0.6653 0.6530
1675.000000 0.6406 0.6282 0.6159 0.6035 0.5910
1670.000000 0.5787 0.5662 0.5538 0.5412 0.5288
1665.000000 0.5162 0.5038 0.4912 0.4787 0.4662
1660.000000 0.4536 0.4410 0.4285 0.4254 0.4240
1655.000000 0.4293 0.4355 0.4420 0.4486 0.4552
1650.000000 0.4617 0.4684 0.4750 0.4815 0.4877
1645.000000 0.4873 0.4787 0.4649 0.4510 0.4370
1640.000000 0.4242 0.4169 0.4171 0.4187 0.4375
1635.000000 0.4646 0.4918 0.5191 0.5462 0.5736
1630.000000 0.5973 0.6124 0.6247 0.6379 0.6526
1625.000000 0.6683 0.6815 0.6901 0.6964 0.7026
1620.000000 0.7089 0.7151 0.7214 0.7272 0.7326
1615.000000 0.7382 0.7437 0.7492 0.7547 0.7603
1610.000000 0.7647 0.7687 0.7726 0.7767 0.7807
1605.000000 0.7848 0.7892 0.7938 0.7983 0.8019
1600.000000 0.8051 0.8082 0.8112 0.8141 0.8162
1595.000000 0.8181 0.8199 0.8217 0.8235 0.8252
1590.000000 0.8266 0.8278 0.8292 0.8306 0.8318
1585.000000 0.8325 0.8330 0.8336 0.8341 0.8345
1580.000000 0.8345 0.8345 0.8345 0.8356 0.8375
1575.000000 0.8402 0.8428 0.8454 0.8475 0.8495
1570.000000 0.8508 0.8513 0.8517 0.8521 0.8547
1565.000000 0.8525 0.8524 0.8517 0.8499 0.8478
1560.000000 0.8461 0.8445 0.8430 0.8415 0.8403
1555.000000 0.8398 0.8396 0.8394 0.8391 0.8387
1550.000000 0.8375 0.8360 0.8346 0.8332 0.8316
1545.000000 0.8287 0.8251 0.8214 0.8175 0.8128
1540.000000 0.8068 0.8010 0.7951 0.7880 0.7786
1535.000000 0.7685 0.7585 0.7450 0.7290 0.7126
1530.000000 0.6967 0.6811 0.6622 0.6236 0.5974
1525.000000 0.5328 0.4805 0.4281 0.3757 0.3230
1520.000000 0.2705 0.2178 0.1651 0.1124 0.1079
1515.000000 0.1101 0.1255 0.1572 0.1887 0.2205
1510.000000 0.2523 0.2840 0.3159 0.3478 0.3797
1505.000000 0.4116 0.4436 0.5021 0.4969 0.4997
1500.000000 0.4896 0.4722 0.4546 0.4370 0.4194
1495.000000 0.4018 0.3842 0.3664 0.3488 0.3386
1490.000000 0.3352 0.3326 0.3226 0.3078 0.2931
1485.000000 0.2783 0.2634 0.2487 0.2338 0.2190
1480.000000 0.2042 0.1892 0.1743 0.1594 0.1512
1475.000000 0.1541 0.1549 0.1694 0.1839 0.1984
1470.000000 0.2129 0.2275 0.2421 0.2567 0.2721
1465.000000 0.2880 0.2962 0.3003 0.3029 0.3049
1460.000000 0.3069 0.3087 0.3102 0.3118 0.3138
1455.000000 0.3165 0.3259 0.3399 0.3539 0.3678
1450.000000 0.3818 0.3957 0.4072 0.4138 0.4121
1445.000000 0.4010 0.3766 0.3520 0.3274 0.3055
1440.000000 0.3021 0.3052 0.3138 0.3257 0.3375
1435.000000 0.3494 0.3612 0.3730 0.3800 0.3812
1430.000000 0.3854 0.3778 0.3682 0.3500 0.3334
1425.000000 0.3216 0.3151 0.3115 0.3084 0.3060
1420.000000 0.3048 0.3034 0.3051 0.3073 0.3212
1415.000000 0.3475 0.3609 0.3716 0.3823 0.3930
1410.000000 0.4037 0.4144 0.4252 0.4359 0.4466
1405.000000 0.4574 0.4682 0.4791 0.4899 0.5007
1400.000000 0.5115 0.5224 0.5332 0.5421 0.5453
1395.000000 0.5453 0.5453 0.5439 0.5404 0.5319
1390.000000 0.5110 0.4899 0.4688 0.4476 0.4264
1385.000000 0.4084 0.4100 0.4098 0.4110 0.4184
1380.000000 0.4271 0.4394 0.4528 0.4660 0.4794
1375.000000 0.4928 0.5062 0.5195 0.5233 0.5253
1370.000000 0.5262 0.5266 0.5294 0.5250 0.5115
1365.000000 0.4873 0.4630 0.4387 0.4144 0.3900
1360.000000 0.3671 0.3578 0.3577 0.3652 0.3802
1355.000000 0.3950 0.4100 0.4250 0.4329 0.4328
1350.000000 0.4328 0.3971 0.3700 0.3430 0.3189
1345.000000 0.3068 0.2980 0.2891 0.2801 0.2710
1340.000000 0.2618 0.2501 0.2359 0.2255 0.2187
1335.000000 0.2124 0.2078 0.2036 0.1995 0.1952
1330.000000 0.1904 0.1857 0.1778 0.1686 0.1565
1325.000000 0.1445 0.1364 0.1321 0.1349 0.1407
1320.000000 0.1600 0.1827 0.2053 0.2281 0.2508
1315.000000 0.2737 0.2965 0.3193 0.3423 0.3652
1310.000000 0.3882 0.4112 0.4342 0.4573 0.4745
1305.000000 0.4783 0.4802 0.4838 0.4807 0.4745
1300.000000 0.4612 0.4478 0.4344 0.4112 0.4156
1295.000000 0.4148 0.4193 0.4293 0.4391 0.4491
1290.000000 0.4590 0.4662 0.4544 0.4239 0.3932
1285.000000 0.3625 0.3316 0.3009 0.2702 0.2513
1280.000000 0.2559 0.2902 0.3258 0.3614 0.3970
1275.000000 0.4327 0.4685 0.5043 0.5143 0.5142
1270.000000 0.5141 0.4886 0.4707 0.4527 0.4347
1265.000000 0.4271 0.4260 0.4445 0.4688 0.4931
1260.000000 0.5175 0.5419 0.5639 0.5728 0.5728
1255.000000 0.5729 0.5667 0.5526 0.5385 0.5243
1250.000000 0.5101 0.5102 0.5103 0.5248 0.5393
1245.000000 0.5538 0.5684 0.5829 0.5953 0.6054
1240.000000 0.6027 0.6039 0.5997 0.5789 0.5568
1235.000000 0.5346 0.5125 0.4960 0.4962 0.4938
1230.000000 0.5114 0.5325 0.5537 0.5748 0.5960
1225.000000 0.6173 0.6386 0.6499 0.6525 0.6543
1220.000000 0.6553 0.6562 0.6574 0.6587 0.6598
1215.000000 0.6643 0.6703 0.6762 0.6821 0.6882
1210.000000 0.6934 0.6962 0.6944 0.6788 0.6578
1205.000000 0.6371 0.6300 0.6343 0.6496 0.6649
1200.000000 0.6803 0.6957 0.7111 0.7221 0.7244
1195.000000 0.7233 0.7204 0.7107 0.6942 0.6765
1190.000000 0.6397 0.6020 0.5641 0.5262 0.4882
1185.000000 0.4502 0.4399 0.4435 0.4781 0.5216
1180.000000 0.5652 0.6043 0.6208 0.6347 0.6425
1175.000000 0.6476 0.6511 0.6534 0.6578 0.6546
1170.000000 0.6224 0.5719 0.5212 0.4706 0.4199
1165.000000 0.3690 0.3180 0.2978 0.3050 0.3362
1160.000000 0.3714 0.4068 0.4422 0.4777 0.5132
1155.000000 0.5449 0.5453 0.5309 0.5129 0.4948
1150.000000 0.4767 0.4586 0.4428 0.4408 0.4398
1145.000000 0.4396 0.4395 0.4408 0.4456 0.4624
1140.000000 0.4871 0.5119 0.5366 0.5615 0.5862
1135.000000 0.6541 0.6540 0.6539 0.6530 0.6187
1130.000000 0.5731 0.5275 0.4818 0.4360 0.3900
1125.000000 0.3441 0.3022 0.3061 0.3604 0.4107
1120.000000 0.4112 0.4003 0.3866 0.3730 0.3600
1115.000000 0.3610 0.4082 0.4595 0.5104 0.5512
1110.000000 0.5705 0.5862 0.6033 0.6164 0.6223
1105.000000 0.6248 0.6276 0.6347 0.6445 0.6545
1100.000000 0.6711 0.6921 0.7126 0.7257 0.7385
1095.000000 0.7478 0.7568 0.7650 0.7725 0.7788
1090.000000 0.7836 0.7883 0.7925 0.7961 0.7988
1085.000000 0.8011 0.8025 0.8037 0.8061 0.8042
1080.000000 0.8034 0.8012 0.7991 0.7961 0.7925
1075.000000 0.7886 0.7838 0.7792 0.7748 0.7717
1070.000000 0.7701 0.7672 0.7811 0.7882 0.7939
1065.000000 0.7995 0.8035 0.8068 0.8092 0.8114
1060.000000 0.8122 0.8130 0.8158 0.8110 0.8058
1055.000000 0.7982 0.7848 0.7730 0.7648 0.7584
1050.000000 0.7538 0.7508 0.7492 0.7464 0.7421
1045.000000 0.7353 0.7250 0.7068 0.6778 0.6312
1040.000000 0.5846 0.5378 0.4910 0.4440 0.3970
1035.000000 0.3499 0.3145 0.3139 0.3324 0.3522
1030.000000 0.3524 0.3154 0.2758 0.2313 0.2295
1025.000000 0.2565 0.3015 0.3466 0.3724 0.3599
1020.000000 0.3404 0.3295 0.3527 0.4162 0.4800
1015.000000 0.5439 0.6079 0.6719 0.7007 0.7228
1010.000000 0.7365 0.7480 0.7562 0.7626 0.7689
1005.000000 0.7745 0.7783 0.7857 0.7834 0.7847
1000.000000 0.7840 0.7798 0.7675 0.7481 0.7193
995.000000 0.6834 0.6474 0.6112 0.5752 0.5390
990.000000 0.5027 0.4662 0.4299 0.3934 0.3568
985.000000 0.3200 0.2834 0.2466 0.2187 0.2181
980.000000 0.2232 0.2648 0.3064 0.3482 0.3900
975.000000 0.4320 0.4740 0.5160 0.5473 0.5489
970.000000 0.5460 0.5184 0.4891 0.4598 0.4305
965.000000 0.3964 0.3943 0.4091 0.4298 0.4508
960.000000 0.4593 0.4425 0.4228 0.4227 0.4336
955.000000 0.4562 0.4788 0.4889 0.4938 0.5068
950.000000 0.5326 0.5591 0.5856 0.6120 0.6387
945.000000 0.6653 0.6941 0.7183 0.7354 0.7480
940.000000 0.7549 0.7598 0.7632 0.7661 0.7683
935.000000 0.7687 0.7619 0.7364 0.6718 0.6072
930.000000 0.5425 0.4775 0.4189 0.4167 0.4371
925.000000 0.4653 0.4933 0.4951 0.4781 0.4535
920.000000 0.4382 0.4523 0.5024 0.5527 0.6033
915.000000 0.6492 0.6738 0.6978 0.7206 0.7417
910.000000 0.7571 0.7703 0.7831 0.7943 0.8053
905.000000 0.8138 0.8218 0.8274 0.8320 0.8362
900.000000 0.8396 0.8428 0.8450 0.8503 0.8492
895.000000 0.8498 0.8500 0.8481 0.8442 0.8378
890.000000 0.8237 0.7997 0.7578 0.7218 0.6597
885.000000 0.5897 0.5195 0.4490 0.3784 0.3477
880.000000 0.3691 0.4260 0.4832 0.5404 0.5978
875.000000 0.6553 0.7128 0.7334 0.7344 0.7180
870.000000 0.6547 0.5912 0.5277 0.4908 0.5010
865.000000 0.5419 0.5826 0.6139 0.6319 0.6453
860.000000 0.6497 0.6548 0.6512 0.6511 0.6531
855.000000 0.6615 0.6962 0.7282 0.7487 0.7671
850.000000 0.7826 0.7978 0.8111 0.8198 0.8261
845.000000 0.8306 0.8344 0.8344 0.8344 0.8325
840.000000 0.8285 0.8225 0.8099 0.7906 0.7589
835.000000 0.6621 0.5845 0.5060 0.4275 0.3556
830.000000 0.3571 0.4173 0.4592 0.4733 0.4806
825.000000 0.4721 0.4325 0.3928 0.3529 0.3227
820.000000 0.3248 0.3554 0.3790 0.3982 0.4312
815.000000 0.4657 0.5002 0.5348 0.5550 0.5562
810.000000 0.5539 0.5571 0.5783 0.5983 0.6204
805.000000 0.6412 0.6615 0.6784 0.6957 0.7134
800.000000 0.7294 0.7430 0.7565 0.7686 0.7792
795.000000 0.7878 0.7956 0.8021 0.8064 0.8101
790.000000 0.8108 0.8108 0.8101 0.8092 0.8078
785.000000 0.8075 0.8080 0.8093 0.8105 0.8128
780.000000 0.8150 0.8168 0.8175 0.8187 0.8196
775.000000 0.8196 0.8195 0.8191 0.8176 0.8134
770.000000 0.8065 0.7975 0.7875 0.7745 0.7624
765.000000 0.7547 0.7504 0.7471 0.7381 0.7172
760.000000 0.6898 0.6455 0.5932 0.5093 0.4260
755.000000 0.4271 0.4717 0.5186 0.5653 0.5924
750.000000 0.6043 0.6039 0.5914 0.5577 0.5215
745.000000 0.4910 0.4703 0.4486 0.4357 0.4269
740.000000 0.4234 0.4197 0.4231 0.4357 0.4526
735.000000 0.4710 0.4885 0.5041 0.5182 0.5324
730.000000 0.5483 0.5647 0.5807 0.5959 0.6109
725.000000 0.6243 0.6378 0.6476 0.6571 0.6645
720.000000 0.6700 0.6743 0.6778 0.6797 0.6735
715.000000 0.6649 0.6572 0.6454 0.6487 0.6565
710.000000 0.6665 0.6755 0.6834 0.6871 0.6958
705.000000 0.6901 0.6901 0.6898 0.6885 0.6850
700.000000 0.6794 0.6688 0.6594 0.6511 0.6385
695.000000 0.6435 0.6515 0.6593 0.6669 0.6745
690.000000 0.6808 0.6858 0.6906 0.6925 0.6943
685.000000 0.6951 0.6955 0.6960 0.6964 0.6969
680.000000 0.6975 0.6981 0.6987 0.6987 0.6981
675.000000 0.6975 0.6993 0.6955 0.6950 0.6950
670.000000 0.6951 0.6958 0.6962 0.6956 0.6951
665.000000 0.6944 0.6930 0.6917 0.6904 0.6890
660.000000 0.6865 0.6836 0.6803 0.6760 0.6718
655.000000 0.6675 0.6628 0.6582 0.6531
##END=
