##TITLE=ETHANOL, 2,2'-(5-CHLORO-2-ETHOXY PHENYLIMIDO) DI
##JCAMP-DX=4.24
##DATA TYPE=INFRARED SPECTRUM
##CLASS=COBLENTZ
##ORIGIN=TENNESSEE EASTMAN COMPANY, RESEARCH LABORATORIES
##OWNER=COBLENTZ SOCIETY
Collection (C) 2018 copyright by the U.S. Secretary of Commerce
on behalf of the United States of America. All rights reserved.
##DATE=Not specified, most likely prior to 1970
##NAMES=ANILINE, 2-ETHOXY-5-CHLORO-N,N-(2,2'-DIETHANOL)
##MOLFORM=C12 H18 Cl N O3
##SOURCE REFERENCE=COBLENTZ NO. 33
##$NIST ID=B6000033
##$NIST SOURCE=COBLENTZ
##$NIST IMAGE=cob33
##SPECTROMETER/DATA SYSTEM=Not specified, most likely a prism, grating, or hybrid spectrometer.
##STATE=SOLID (NUJOL MULL)
##SAMPLING PROCEDURE=TRANSMISSION
##RESOLUTION=4
##DATA PROCESSING=DIGITIZED BY NIST FROM HARD COPY
##XUNITS=MICROMETERS
##YUNITS=TRANSMITTANCE
##XFACTOR=1.000000
##YFACTOR=1
##DELTAX=000.006609
##FIRSTX=2.035
##LASTX=16.0074
##FIRSTY=0.751
##MAXX=16.0074
##MINX=2.035
##MAXY=0.823
##MINY=0.011
##NPOINTS=2115
##XYDATA=(X++(Y..Y))
2.035000 0.7510 0.7510 0.7510 0.7510 0.7510
2.068063 0.7510 0.7510 0.7510 0.7510 0.7510
2.101000 0.7510 0.7510 0.7510 0.7510 0.7510
2.134063 0.7510 0.7530 0.7550 0.7550 0.7550
2.167000 0.7550 0.7550 0.7550 0.7550 0.7550
2.200063 0.7550 0.7550 0.7550 0.7550 0.7530
2.233000 0.7500 0.7460 0.7410 0.7330 0.7280
2.266063 0.7250 0.7230 0.7250 0.7250 0.7260
2.299000 0.7280 0.7300 0.7330 0.7330 0.7350
2.332063 0.7350 0.7360 0.7360 0.7380 0.7400
2.365000 0.7400 0.7410 0.7410 0.7430 0.7450
2.398063 0.7450 0.7460 0.7460 0.7460 0.7460
2.432000 0.7460 0.7460 0.7460 0.7460 0.7460
2.465063 0.7460 0.7460 0.7480 0.7480 0.7480
2.498000 0.7500 0.7500 0.7510 0.7560 0.7600
2.531063 0.7610 0.7630 0.7650 0.7660 0.7660
2.564000 0.7660 0.7660 0.7680 0.7700 0.7700
2.597063 0.7710 0.7730 0.7710 0.7730 0.7730
2.630000 0.7750 0.7750 0.7760 0.7800 0.7810
2.663063 0.7810 0.7810 0.7810 0.7830 0.7830
2.696000 0.7830 0.7810 0.7800 0.7780 0.7760
2.729063 0.7710 0.7630 0.7510 0.7380 0.7230
2.762000 0.7080 0.6910 0.6760 0.6700 0.6550
2.795063 0.6380 0.6130 0.6000 0.5910 0.5810
2.828000 0.5580 0.5330 0.5050 0.4730 0.4410
2.861063 0.4100 0.3950 0.3780 0.3500 0.3230
2.894000 0.2980 0.2760 0.2530 0.2350 0.2150
2.927063 0.2060 0.1960 0.1830 0.1700 0.1600
2.960000 0.1510 0.1410 0.1350 0.1280 0.1210
2.993063 0.1160 0.1080 0.0960 0.0880 0.0800
3.026000 0.0750 0.0680 0.0630 0.0550 0.0510
3.059063 0.0460 0.0430 0.0380 0.0360 0.0360
3.093000 0.0360 0.0360 0.0360 0.0360 0.0380
3.126063 0.0410 0.0410 0.0430 0.0430 0.0430
3.159000 0.0430 0.0450 0.0450 0.0460 0.0510
3.192063 0.0580 0.0630 0.0800 0.0960 0.1130
3.225000 0.1280 0.1430 0.1530 0.1650 0.1780
3.258063 0.1950 0.2360 0.2600 0.2730 0.2900
3.291000 0.3010 0.3030 0.3030 0.3010 0.2760
3.324063 0.2300 0.1950 0.1600 0.1380 0.0760
3.357000 0.0610 0.0550 0.0500 0.0460 0.0380
3.390063 0.0280 0.0250 0.0250 0.0230 0.0210
3.423000 0.0200 0.0200 0.0200 0.0200 0.0200
3.456063 0.0200 0.0200 0.0200 0.0210 0.0400
3.489000 0.0650 0.0910 0.1200 0.1510 0.1860
3.522063 0.2660 0.3050 0.3260 0.3430 0.3700
3.555000 0.3900 0.4230 0.4360 0.4450 0.4480
3.588063 0.4600 0.4760 0.4800 0.4950 0.5000
3.621000 0.5000 0.4980 0.4980 0.4980 0.4980
3.654063 0.4980 0.4980 0.5000 0.5030 0.5100
3.687000 0.5200 0.5250 0.5300 0.5350 0.5360
3.720063 0.5400 0.5430 0.5480 0.5530 0.5600
3.753000 0.5660 0.5760 0.5860 0.5980 0.6130
3.786063 0.6180 0.6210 0.6300 0.6350 0.6360
3.820000 0.6410 0.6430 0.6450 0.6450 0.6450
3.853063 0.6460 0.6480 0.6500 0.6510 0.6550
3.886000 0.6630 0.6700 0.6780 0.6800 0.6830
3.919063 0.6850 0.6880 0.6880 0.6900 0.6900
3.952000 0.6880 0.6860 0.6810 0.6710 0.6710
3.985063 0.6750 0.6800 0.6850 0.6910 0.6980
4.018000 0.7050 0.7100 0.7160 0.7200 0.7210
4.051063 0.7230 0.7250 0.7250 0.7250 0.7260
4.084000 0.7280 0.7330 0.7380 0.7430 0.7460
4.117063 0.7480 0.7510 0.7560 0.7600 0.7610
4.150000 0.7630 0.7650 0.7660 0.7660 0.7660
4.183063 0.7680 0.7700 0.7700 0.7710 0.7730
4.216000 0.7780 0.7810 0.7830 0.7830 0.7830
4.249063 0.7850 0.7850 0.7830 0.7850 0.7850
4.282000 0.7850 0.7850 0.7850 0.7850 0.7850
4.315063 0.7850 0.7850 0.7860 0.7880 0.7860
4.348000 0.7860 0.7860 0.7860 0.7880 0.7880
4.381063 0.7880 0.7880 0.7880 0.7910 0.7910
4.414000 0.7930 0.7930 0.7950 0.7960 0.8000
4.447063 0.8000 0.8000 0.7980 0.7980 0.7980
4.481000 0.7980 0.8010 0.8010 0.8010 0.8010
4.514063 0.8010 0.8010 0.8010 0.8010 0.8010
4.547000 0.8030 0.8050 0.8050 0.8050 0.8030
4.580063 0.8030 0.8050 0.8030 0.8050 0.8050
4.613000 0.8050 0.8060 0.8080 0.8100 0.8110
4.646063 0.8130 0.8130 0.8130 0.8130 0.8150
4.679000 0.8150 0.8160 0.8160 0.8160 0.8160
4.712063 0.8160 0.8160 0.8180 0.8160 0.8160
4.745000 0.8160 0.8160 0.8160 0.8160 0.8160
4.778063 0.8180 0.8180 0.8180 0.8180 0.8180
4.811000 0.8180 0.8180 0.8200 0.8200 0.8160
4.844063 0.8150 0.8150 0.8150 0.8130 0.8150
4.877000 0.8150 0.8150 0.8150 0.8130 0.8130
4.910063 0.8150 0.8150 0.8150 0.8150 0.8160
4.943000 0.8160 0.8180 0.8180 0.8200 0.8200
4.976063 0.8210 0.8210 0.8210 0.8210 0.8200
5.009000 0.8200 0.8160 0.8110 0.8050 0.8030
5.042063 0.8030 0.8030 0.8030 0.8010 0.8010
5.075000 0.8010 0.8010 0.8000 0.7980 0.7960
5.108063 0.7960 0.7950 0.7930 0.7930 0.7930
5.141000 0.7930 0.7930 0.7950 0.7980 0.8050
5.174063 0.8080 0.8110 0.8150 0.8180 0.8200
5.208000 0.8210 0.8210 0.8210 0.8210 0.8210
5.241063 0.8230 0.8230 0.8230 0.8230 0.8230
5.274000 0.8230 0.8230 0.8230 0.8230 0.8230
5.307063 0.8230 0.8230 0.8230 0.8210 0.8210
5.340000 0.8200 0.8180 0.8160 0.8130 0.8100
5.373063 0.8060 0.8030 0.8010 0.8000 0.8000
5.406000 0.8000 0.8030 0.8060 0.8080 0.8080
5.439063 0.8110 0.8130 0.8130 0.8130 0.8150
5.472000 0.8160 0.8180 0.8200 0.8200 0.8210
5.505063 0.8210 0.8210 0.8230 0.8230 0.8210
5.538000 0.8210 0.8210 0.8210 0.8200 0.8200
5.571063 0.8180 0.8180 0.8160 0.8160 0.8180
5.604000 0.8180 0.8200 0.8200 0.8200 0.8200
5.637063 0.8200 0.8200 0.8200 0.8200 0.8180
5.670000 0.8180 0.8180 0.8180 0.8200 0.8180
5.703063 0.8150 0.8110 0.8050 0.8030 0.8000
5.736000 0.8000 0.7980 0.7960 0.7910 0.7900
5.769063 0.7860 0.7850 0.7850 0.7860 0.7880
5.802000 0.7900 0.7900 0.7910 0.7930 0.7960
5.835063 0.7980 0.8010 0.8010 0.8010 0.8010
5.868000 0.8030 0.8030 0.8030 0.8030 0.8000
5.901063 0.8000 0.7980 0.7980 0.7950 0.7930
5.935000 0.7910 0.7880 0.7830 0.7780 0.7750
5.968063 0.7730 0.7710 0.7680 0.7660 0.7610
6.001000 0.7600 0.7600 0.7580 0.7580 0.7600
6.034063 0.7600 0.7600 0.7600 0.7600 0.7600
6.067000 0.7600 0.7580 0.7560 0.7530 0.7510
6.100063 0.7510 0.7510 0.7510 0.7510 0.7550
6.133000 0.7550 0.7530 0.7530 0.7510 0.7500
6.166063 0.7480 0.7450 0.7360 0.7330 0.7230
6.199000 0.7150 0.7050 0.6860 0.6550 0.6010
6.232063 0.5730 0.5430 0.4950 0.4310 0.4150
6.265000 0.3980 0.3450 0.3400 0.3400 0.3460
6.298063 0.3960 0.4510 0.4800 0.5100 0.5380
6.331000 0.5650 0.5860 0.6150 0.6180 0.6210
6.364063 0.6250 0.6300 0.6360 0.6410 0.6480
6.397000 0.6530 0.6600 0.6650 0.6680 0.6700
6.430063 0.6710 0.6710 0.6710 0.6700 0.6660
6.463000 0.6580 0.6500 0.6360 0.6250 0.6100
6.496063 0.6010 0.5980 0.5930 0.5830 0.5730
6.529000 0.5630 0.5500 0.5260 0.4930 0.4410
6.562063 0.4080 0.3980 0.3880 0.3750 0.3550
6.596000 0.3210 0.2600 0.2030 0.1800 0.1560
6.629063 0.1100 0.1000 0.0880 0.0830 0.0810
6.662000 0.0780 0.0760 0.0730 0.0660 0.0600
6.695063 0.0530 0.0450 0.0360 0.0310 0.0300
6.728000 0.0310 0.0350 0.0380 0.0400 0.0400
6.761063 0.0380 0.0380 0.0330 0.0260 0.0210
6.794000 0.0200 0.0210 0.0210 0.0230 0.0260
6.827063 0.0300 0.0360 0.0430 0.0510 0.0610
6.860000 0.0710 0.0830 0.0950 0.1060 0.1180
6.893063 0.1310 0.1410 0.1460 0.1510 0.1560
6.926000 0.1630 0.1710 0.1810 0.1910 0.2200
6.959063 0.2300 0.2380 0.2480 0.2480 0.2480
6.992000 0.2480 0.2460 0.2450 0.2400 0.2350
7.025063 0.2300 0.2230 0.2180 0.2110 0.2100
7.058000 0.2080 0.2030 0.2010 0.2000 0.1980
7.091063 0.1960 0.1950 0.1880 0.1860 0.1860
7.124000 0.1900 0.1880 0.1880 0.1880 0.1880
7.157063 0.1780 0.1500 0.1300 0.1080 0.0850
7.190000 0.0810 0.0850 0.1010 0.1230 0.1510
7.223063 0.1730 0.1930 0.2250 0.2380 0.2480
7.256000 0.2580 0.2680 0.2780 0.2860 0.2960
7.289063 0.3000 0.3000 0.3000 0.3000 0.3000
7.323000 0.3000 0.3010 0.3010 0.3030 0.3030
7.356063 0.3030 0.2950 0.2860 0.2760 0.2610
7.389000 0.2350 0.2050 0.2010 0.1980 0.1850
7.422063 0.1760 0.1600 0.1580 0.1600 0.1760
7.455000 0.2380 0.2700 0.3000 0.3280 0.3550
7.488063 0.3750 0.3880 0.3950 0.3980 0.4060
7.521000 0.4150 0.4160 0.4180 0.4180 0.4200
7.554063 0.4210 0.4210 0.4210 0.4200 0.4230
7.587000 0.4230 0.4180 0.4030 0.3880 0.3730
7.620063 0.3460 0.3180 0.2880 0.2650 0.2480
7.653000 0.2300 0.2280 0.2250 0.2230 0.2230
7.686063 0.2230 0.2230 0.2230 0.2180 0.2050
7.719000 0.1960 0.1880 0.1680 0.1460 0.1230
7.752063 0.1000 0.0780 0.0600 0.0430 0.0330
7.785000 0.0310 0.0350 0.0550 0.0700 0.0880
7.818063 0.1060 0.1210 0.1400 0.1630 0.1810
7.851000 0.1960 0.2050 0.2110 0.2150 0.2150
7.884063 0.2110 0.2100 0.2030 0.2000 0.1980
7.917000 0.1950 0.1900 0.1860 0.1850 0.1830
7.950063 0.1830 0.1810 0.1780 0.1700 0.1650
7.983000 0.1510 0.1350 0.1210 0.1050 0.0830
8.016063 0.0630 0.0530 0.0410 0.0310 0.0250
8.050000 0.0200 0.0150 0.0110 0.0110 0.0110
8.083063 0.0110 0.0110 0.0110 0.0150 0.0210
8.116000 0.0330 0.0460 0.0630 0.0810 0.1010
8.149063 0.1210 0.1410 0.1610 0.1800 0.1960
8.182000 0.2210 0.2430 0.2580 0.2610 0.2710
8.215063 0.2780 0.2810 0.2850 0.2860 0.2880
8.248000 0.2910 0.2930 0.2950 0.2960 0.3000
8.281063 0.3010 0.3000 0.2980 0.2930 0.2760
8.314000 0.2530 0.2200 0.2060 0.1930 0.1580
8.347063 0.1510 0.1510 0.1580 0.1900 0.2530
8.380000 0.2830 0.3150 0.3430 0.3710 0.3950
8.413063 0.4350 0.4480 0.4560 0.4660 0.4780
8.446000 0.4860 0.4930 0.4950 0.4950 0.4950
8.479063 0.4930 0.4910 0.4900 0.4860 0.4830
8.512000 0.4760 0.4680 0.4560 0.4480 0.4400
8.545063 0.4310 0.4230 0.4110 0.4050 0.3960
8.578000 0.3760 0.3500 0.3160 0.2710 0.2460
8.611063 0.2210 0.2080 0.1950 0.1700 0.1460
8.644000 0.1260 0.1080 0.0980 0.0960 0.0960
8.677063 0.0980 0.1010 0.1050 0.1100 0.1110
8.711000 0.1100 0.1100 0.1030 0.1010 0.1000
8.744063 0.0960 0.0950 0.0960 0.0960 0.0980
8.777000 0.1010 0.1050 0.1110 0.1180 0.1250
8.810063 0.1330 0.1410 0.1480 0.1550 0.1560
8.843000 0.1560 0.1560 0.1580 0.1580 0.1560
8.876063 0.1560 0.1560 0.1560 0.1550 0.1530
8.909000 0.1510 0.1450 0.1430 0.1360 0.1280
8.942063 0.1180 0.1080 0.0980 0.0910 0.0910
8.975000 0.0900 0.0960 0.1050 0.1160 0.1360
9.008063 0.1530 0.1660 0.1800 0.1900 0.1960
9.041000 0.2080 0.2110 0.2130 0.2130 0.2130
9.074063 0.2100 0.2080 0.2010 0.1960 0.1910
9.107000 0.1780 0.1630 0.1480 0.1310 0.1160
9.140063 0.1030 0.0910 0.0750 0.0660 0.0560
9.173000 0.0530 0.0460 0.0430 0.0360 0.0300
9.206063 0.0300 0.0310 0.0350 0.0380 0.0430
9.239000 0.0480 0.0550 0.0580 0.0600 0.0610
9.272063 0.0610 0.0580 0.0580 0.0560 0.0550
9.305000 0.0530 0.0510 0.0510 0.0510 0.0530
9.338063 0.0530 0.0550 0.0550 0.0560 0.0580
9.371000 0.0630 0.0650 0.0660 0.0680 0.0700
9.404063 0.0700 0.0700 0.0700 0.0700 0.0700
9.438000 0.0660 0.0660 0.0650 0.0630 0.0630
9.471063 0.0610 0.0580 0.0580 0.0580 0.0550
9.504000 0.0510 0.0500 0.0480 0.0430 0.0410
9.537063 0.0400 0.0380 0.0380 0.0360 0.0360
9.570000 0.0380 0.0380 0.0400 0.0450 0.0500
9.603063 0.0550 0.0600 0.0660 0.0710 0.0780
9.636000 0.0830 0.0900 0.0950 0.0980 0.1000
9.669063 0.1010 0.1050 0.1060 0.1080 0.1080
9.702000 0.1080 0.1100 0.1100 0.1110 0.1100
9.735063 0.1110 0.1150 0.1210 0.1300 0.1410
9.768000 0.1550 0.1700 0.1850 0.2200 0.2380
9.801063 0.2550 0.2630 0.2730 0.2880 0.3010
9.834000 0.3150 0.3230 0.3330 0.3410 0.3480
9.867063 0.3550 0.3600 0.3650 0.3700 0.3760
9.900000 0.3810 0.3880 0.3950 0.3980 0.4010
9.933063 0.4110 0.4160 0.4200 0.4230 0.4250
9.966000 0.4260 0.4280 0.4300 0.4310 0.4350
9.999063 0.4400 0.4430 0.4450 0.4460 0.4500
10.032000 0.4510 0.4550 0.4580 0.4600 0.4610
10.065063 0.4650 0.4680 0.4730 0.4780 0.4850
10.098000 0.4880 0.4910 0.4910 0.4930 0.4930
10.131063 0.4960 0.5000 0.5010 0.5010 0.5030
10.165000 0.5060 0.5100 0.5150 0.5200 0.5250
10.198063 0.5310 0.5360 0.5400 0.5450 0.5460
10.231000 0.5480 0.5510 0.5530 0.5560 0.5580
10.264063 0.5630 0.5660 0.5680 0.5680 0.5710
10.297000 0.5730 0.5750 0.5780 0.5800 0.5800
10.330063 0.5810 0.5810 0.5830 0.5830 0.5830
10.363000 0.5830 0.5830 0.5810 0.5810 0.5810
10.396063 0.5810 0.5810 0.5810 0.5810 0.5810
10.429000 0.5800 0.5760 0.5730 0.5680 0.5650
10.462063 0.5610 0.5580 0.5530 0.5510 0.5450
10.495000 0.5400 0.5350 0.5310 0.5250 0.5180
10.528063 0.5130 0.5050 0.5010 0.5000 0.4980
10.561000 0.4910 0.4860 0.4830 0.4780 0.4710
10.594063 0.4610 0.4530 0.4430 0.4330 0.4210
10.627000 0.4100 0.4000 0.3930 0.3860 0.3750
10.660063 0.3610 0.3500 0.3360 0.3230 0.3110
10.693000 0.2980 0.2850 0.2730 0.2600 0.2480
10.726063 0.2350 0.2260 0.2180 0.2110 0.2100
10.759000 0.2100 0.2110 0.2110 0.2130 0.2160
10.792063 0.2200 0.2210 0.2210 0.2210 0.2210
10.826000 0.2200 0.2200 0.2250 0.2310 0.2380
10.859063 0.2450 0.2530 0.2600 0.2660 0.2700
10.892000 0.2710 0.2700 0.2610 0.2530 0.2450
10.925063 0.2230 0.2050 0.1950 0.1830 0.1630
10.958000 0.1450 0.1330 0.1260 0.1230 0.1180
10.991063 0.1150 0.1180 0.1410 0.1580 0.1860
11.024000 0.2280 0.2510 0.2730 0.2860 0.2950
11.057063 0.3080 0.3160 0.3230 0.3260 0.3280
11.090000 0.3280 0.3280 0.3280 0.3260 0.3260
11.123063 0.3250 0.3200 0.3150 0.3060 0.3030
11.156000 0.2980 0.2930 0.2880 0.2860 0.2860
11.189063 0.2880 0.2900 0.2910 0.2930 0.2960
11.222000 0.3000 0.3010 0.3010 0.3030 0.3030
11.255063 0.3030 0.3030 0.3010 0.3010 0.3000
11.288000 0.2960 0.2910 0.2860 0.2810 0.2730
11.321063 0.2650 0.2560 0.2480 0.2380 0.2280
11.354000 0.2200 0.2100 0.2010 0.1980 0.1930
11.387063 0.1830 0.1760 0.1680 0.1630 0.1560
11.420000 0.1510 0.1480 0.1450 0.1400 0.1360
11.453063 0.1330 0.1300 0.1280 0.1260 0.1280
11.486000 0.1280 0.1280 0.1260 0.1260 0.1250
11.519063 0.1230 0.1200 0.1150 0.1110 0.1100
11.553000 0.1080 0.1100 0.1110 0.1130 0.1180
11.586063 0.1280 0.1430 0.1650 0.1930 0.2230
11.619000 0.2360 0.2480 0.2600 0.2700 0.2780
11.652063 0.2860 0.2950 0.3010 0.3080 0.3130
11.685000 0.3200 0.3230 0.3280 0.3330 0.3360
11.718063 0.3410 0.3450 0.3480 0.3510 0.3530
11.751000 0.3550 0.3580 0.3600 0.3630 0.3650
11.784063 0.3680 0.3710 0.3730 0.3760 0.3800
11.817000 0.3810 0.3850 0.3880 0.3900 0.3930
11.850063 0.3960 0.3980 0.4010 0.4030 0.4060
11.883000 0.4080 0.4100 0.4110 0.4130 0.4130
11.916063 0.4130 0.4130 0.4150 0.4150 0.4150
11.949000 0.4150 0.4150 0.4150 0.4150 0.4150
11.982063 0.4150 0.4150 0.4150 0.4130 0.4130
12.015000 0.4130 0.4130 0.4130 0.4130 0.4150
12.048063 0.4160 0.4200 0.4230 0.4260 0.4280
12.081000 0.4300 0.4330 0.4350 0.4350 0.4360
12.114063 0.4360 0.4360 0.4380 0.4380 0.4380
12.147000 0.4380 0.4380 0.4380 0.4380 0.4380
12.180063 0.4380 0.4380 0.4380 0.4380 0.4380
12.213000 0.4380 0.4360 0.4360 0.4350 0.4310
12.246063 0.4280 0.4210 0.4130 0.4050 0.3980
12.280000 0.3900 0.3710 0.3410 0.3060 0.2900
12.313063 0.2630 0.2350 0.2030 0.1900 0.1750
12.346000 0.1460 0.1230 0.1030 0.0910 0.0860
12.379063 0.0750 0.0680 0.0600 0.0500 0.0460
12.412000 0.0430 0.0410 0.0380 0.0380 0.0360
12.445063 0.0360 0.0380 0.0450 0.0550 0.0680
12.478000 0.0850 0.1010 0.1210 0.1430 0.1630
12.511063 0.1830 0.2210 0.2360 0.2480 0.2600
12.544000 0.2700 0.2800 0.2880 0.2960 0.3050
12.577063 0.3130 0.3200 0.3280 0.3360 0.3450
12.610000 0.3530 0.3560 0.3600 0.3650 0.3680
12.643063 0.3750 0.3800 0.3860 0.3910 0.3980
12.676000 0.4100 0.4160 0.4230 0.4250 0.4310
12.709063 0.4360 0.4410 0.4450 0.4480 0.4510
12.742000 0.4560 0.4600 0.4660 0.4710 0.4780
12.775063 0.4850 0.4900 0.4930 0.4960 0.4980
12.808000 0.5000 0.5000 0.5010 0.5010 0.5030
12.841063 0.5050 0.5030 0.5060 0.5060 0.5080
12.874000 0.5100 0.5100 0.5110 0.5130 0.5130
12.907063 0.5150 0.5160 0.5180 0.5180 0.5180
12.941000 0.5180 0.5180 0.5200 0.5200 0.5200
12.974063 0.5200 0.5210 0.5210 0.5210 0.5210
13.007000 0.5210 0.5210 0.5210 0.5210 0.5210
13.040063 0.5210 0.5210 0.5210 0.5200 0.5200
13.073000 0.5180 0.5180 0.5160 0.5150 0.5130
13.106063 0.5100 0.5050 0.5030 0.5050 0.5010
13.139000 0.5010 0.5000 0.5000 0.4980 0.4960
13.172063 0.4960 0.4950 0.4930 0.4910 0.4880
13.205000 0.4830 0.4800 0.4780 0.4710 0.4610
13.238063 0.4560 0.4460 0.4410 0.4380 0.4330
13.271000 0.4280 0.4250 0.4230 0.4230 0.4250
13.304063 0.4250 0.4250 0.4250 0.4250 0.4250
13.337000 0.4260 0.4260 0.4260 0.4280 0.4280
13.370063 0.4260 0.4250 0.4250 0.4230 0.4130
13.403000 0.4050 0.4010 0.3980 0.3930 0.3830
13.436063 0.3700 0.3580 0.3460 0.3380 0.3310
13.469000 0.3250 0.3160 0.3100 0.3030 0.3010
13.502063 0.3010 0.3010 0.3010 0.3030 0.3050
13.535000 0.3100 0.3160 0.3260 0.3350 0.3450
13.568063 0.3560 0.3660 0.3760 0.3860 0.3960
13.601000 0.4060 0.4130 0.4250 0.4330 0.4350
13.634063 0.4410 0.4430 0.4460 0.4480 0.4510
13.668000 0.4530 0.4550 0.4580 0.4600 0.4630
13.701063 0.4630 0.4650 0.4660 0.4660 0.4680
13.734000 0.4700 0.4710 0.4710 0.4730 0.4750
13.767063 0.4760 0.4780 0.4800 0.4810 0.4830
13.800000 0.4850 0.4880 0.4900 0.4910 0.4910
13.833063 0.4910 0.4910 0.4910 0.4930 0.4930
13.866000 0.4950 0.4950 0.4950 0.4950 0.4960
13.899063 0.4960 0.4960 0.4960 0.4960 0.4980
13.932000 0.4980 0.4980 0.4980 0.4980 0.4980
13.965063 0.4980 0.5010 0.5010 0.5010 0.5010
13.998000 0.5010 0.5010 0.5010 0.5010 0.5010
14.031063 0.5010 0.5010 0.5010 0.5010 0.5010
14.064000 0.5010 0.5010 0.5010 0.5010 0.5010
14.097063 0.5010 0.5010 0.5010 0.5010 0.5010
14.130000 0.5010 0.5010 0.5010 0.5010 0.5010
14.163063 0.5010 0.5010 0.5010 0.5010 0.5010
14.196000 0.5010 0.5010 0.5010 0.5010 0.5010
14.229063 0.5010 0.5010 0.5010 0.5010 0.5010
14.262000 0.5010 0.5010 0.5010 0.5010 0.5010
14.295063 0.5010 0.5010 0.5010 0.5010 0.5010
14.328000 0.5010 0.5010 0.5010 0.5010 0.5010
14.361063 0.5010 0.5010 0.5010 0.5000 0.5000
14.395000 0.5000 0.5000 0.5000 0.5000 0.5000
14.428063 0.5000 0.5000 0.5000 0.5000 0.5000
14.461000 0.5000 0.5000 0.5000 0.5000 0.5000
14.494063 0.5000 0.5000 0.5000 0.5000 0.5000
14.527000 0.4980 0.4980 0.4980 0.4980 0.4980
14.560063 0.4980 0.4980 0.4960 0.4960 0.4960
14.593000 0.4960 0.4960 0.4960 0.4950 0.4950
14.626063 0.4950 0.4950 0.4950 0.4950 0.4950
14.659000 0.4950 0.4930 0.4930 0.4930 0.4930
14.692063 0.4930 0.4930 0.4930 0.4930 0.4910
14.725000 0.4910 0.4910 0.4900 0.4900 0.4880
14.758063 0.4880 0.4860 0.4860 0.4850 0.4850
14.791000 0.4850 0.4850 0.4830 0.4810 0.4800
14.824063 0.4780 0.4760 0.4730 0.4710 0.4710
14.857000 0.4700 0.4700 0.4680 0.4660 0.4650
14.890063 0.4630 0.4610 0.4610 0.4610 0.4600
14.923000 0.4600 0.4580 0.4580 0.4580 0.4580
14.956063 0.4560 0.4560 0.4560 0.4550 0.4550
14.989000 0.4550 0.4530 0.4510 0.4480 0.4450
15.022063 0.4410 0.4380 0.4350 0.4280 0.4230
15.056000 0.4160 0.4110 0.4060 0.4000 0.3960
15.089063 0.3930 0.3850 0.3750 0.3680 0.3600
15.122000 0.3510 0.3450 0.3410 0.3330 0.3250
15.155063 0.3160 0.3100 0.3000 0.2910 0.2780
15.188000 0.2730 0.2660 0.2580 0.2510 0.2450
15.221063 0.2360 0.2310 0.2260 0.2210 0.2160
15.254000 0.2110 0.2100 0.2100 0.2100 0.2060
15.287063 0.2060 0.2060 0.2060 0.2060 0.2060
15.320000 0.2060 0.2060 0.2100 0.2100 0.2110
15.353063 0.2160 0.2180 0.2250 0.2300 0.2330
15.386000 0.2380 0.2430 0.2500 0.2580 0.2610
15.419063 0.2650 0.2660 0.2710 0.2750 0.2800
15.452000 0.2830 0.2850 0.2900 0.2910 0.2950
15.485063 0.2950 0.2980 0.3000 0.3010 0.3030
15.518000 0.3050 0.3060 0.3060 0.3080 0.3080
15.551063 0.3110 0.3130 0.3150 0.3160 0.3160
15.584000 0.3180 0.3180 0.3200 0.3210 0.3210
15.617063 0.3210 0.3230 0.3250 0.3260 0.3260
15.650000 0.3280 0.3280 0.3300 0.3310 0.3330
15.683063 0.3330 0.3350 0.3350 0.3360 0.3360
15.716000 0.3380 0.3380 0.3400 0.3400 0.3410
15.749063 0.3430 0.3450 0.3450 0.3460 0.3460
15.783000 0.3480 0.3500 0.3500 0.3510 0.3510
15.816063 0.3530 0.3550 0.3550 0.3560 0.3560
15.849000 0.3580 0.3600 0.3600 0.3600 0.3610
15.882063 0.3610 0.3630 0.3630 0.3650 0.3650
15.915000 0.3650 0.3660 0.3660 0.3680 0.3680
15.948063 0.3680 0.3680 0.3680 0.3680 0.3680
15.981000 0.3680 0.3680 0.3680 0.3680 0.3680
##END=
