##TITLE=TRIMETHYL VINYL AMMONIUM IODIDE
##JCAMP-DX=4.24
##DATA TYPE=INFRARED SPECTRUM
##CLASS=COBLENTZ
##ORIGIN=DOW CHEMICAL COMPANY
##OWNER=COBLENTZ SOCIETY
Collection (C) 2018 copyright by the U.S. Secretary of Commerce
on behalf of the United States of America. All rights reserved.
##DATE=Not specified, most likely prior to 1970
##NAMES=trimethyl(vinyl)-.lambda.<5>-azane hydroiodide
##MOLFORM=C5 H12 I N
##SOURCE REFERENCE=COBLENTZ NO. 3220
##$NIST ID=B6003220
##$NIST SOURCE=COBLENTZ
##$NIST IMAGE=cob3220
##SPECTROMETER/DATA SYSTEM=Not specified, most likely a prism, grating, or hybrid spectrometer.
##STATE=SOLID (MINERAL OIL MULL)
##PATH LENGTH=
$$SPECTRAL CONTAMINATION DUE TO OIL AROUND 2900 AND 1450 CM^-^1
##SAMPLING PROCEDURE=TRANSMISSION
##RESOLUTION=4
##DATA PROCESSING=DIGITIZED BY NIST FROM HARD COPY
##XUNITS=MICROMETERS
##YUNITS=TRANSMITTANCE
##XFACTOR=1.000000
##YFACTOR=1
##DELTAX=000.006859
##FIRSTX=2.014
##LASTX=15.8906
##FIRSTY=0.54
##MAXX=15.8906
##MINX=2.014
##MAXY=0.924
##MINY=0.015
##NPOINTS=2024
##XYDATA=(X++(Y..Y))
2.014000 0.5400 0.5380 0.5400 0.5380 0.5360
2.048314 0.5380 0.5400 0.5400 0.5410 0.5430
2.082000 0.5450 0.5500 0.5520 0.5530 0.5570
2.116314 0.5580 0.5580 0.5580 0.5580 0.5580
2.151000 0.5580 0.5600 0.5600 0.5600 0.5620
2.185314 0.5640 0.5640 0.5670 0.5670 0.5650
2.220000 0.5640 0.5620 0.5580 0.5530 0.5520
2.254314 0.5480 0.5470 0.5450 0.5450 0.5430
2.288000 0.5430 0.5430 0.5470 0.5500 0.5520
2.322314 0.5550 0.5580 0.5600 0.5620 0.5650
2.357000 0.5700 0.5720 0.5720 0.5740 0.5760
2.391314 0.5760 0.5770 0.5810 0.5820 0.5840
2.425000 0.5860 0.5890 0.5910 0.5940 0.5960
2.459314 0.6000 0.6010 0.6010 0.6050 0.6100
2.494000 0.6110 0.6130 0.6150 0.6180 0.6200
2.528314 0.6200 0.6220 0.6230 0.6250 0.6270
2.562000 0.6290 0.6290 0.6290 0.6300 0.6300
2.596314 0.6350 0.6420 0.6440 0.6460 0.6460
2.631000 0.6470 0.6490 0.6510 0.6510 0.6510
2.665314 0.6520 0.6520 0.6540 0.6590 0.6610
2.700000 0.6640 0.6660 0.6660 0.6660 0.6680
2.734314 0.6700 0.6700 0.6700 0.6710 0.6710
2.768000 0.6750 0.6750 0.6760 0.6780 0.6800
2.802314 0.6800 0.6800 0.6820 0.6820 0.6800
2.837000 0.6800 0.6800 0.6800 0.6800 0.6800
2.871314 0.6800 0.6800 0.6800 0.6760 0.6760
2.905000 0.6760 0.6730 0.6730 0.6760 0.6760
2.939314 0.6800 0.6800 0.6800 0.6820 0.6830
2.974000 0.6830 0.6830 0.6830 0.6850 0.6850
3.008314 0.6870 0.6880 0.6900 0.6900 0.6900
3.043000 0.6920 0.6940 0.6950 0.6990 0.6990
3.077314 0.7000 0.7000 0.7020 0.7020 0.7000
3.111000 0.7000 0.6950 0.6920 0.6900 0.6880
3.145314 0.6870 0.6870 0.6850 0.6830 0.6820
3.180000 0.6760 0.6700 0.6660 0.6540 0.6440
3.214314 0.6370 0.6290 0.6220 0.6150 0.6060
3.248000 0.6010 0.5960 0.5910 0.5840 0.5770
3.282314 0.5690 0.5550 0.5380 0.5170 0.4900
3.317000 0.4560 0.4150 0.3770 0.3400 0.3020
3.351314 0.2660 0.2290 0.1930 0.1550 0.1190
3.386000 0.0820 0.0560 0.0370 0.0180 0.0150
3.420314 0.0150 0.0180 0.0230 0.0300 0.0320
3.454000 0.0350 0.0390 0.0420 0.0470 0.0540
3.488314 0.0560 0.0610 0.0820 0.1330 0.2080
3.523000 0.3720 0.4920 0.5430 0.6010 0.6420
3.557314 0.6630 0.6780 0.6870 0.6970 0.7000
3.591000 0.7120 0.7280 0.7350 0.7380 0.7400
3.625314 0.7400 0.7410 0.7410 0.7410 0.7400
3.660000 0.7360 0.7350 0.7350 0.7350 0.7350
3.694314 0.7380 0.7400 0.7410 0.7450 0.7470
3.729000 0.7470 0.7500 0.7520 0.7530 0.7550
3.763314 0.7600 0.7620 0.7640 0.7640 0.7640
3.797000 0.7650 0.7690 0.7720 0.7740 0.7770
3.831314 0.7810 0.7810 0.7820 0.7840 0.7860
3.866000 0.7880 0.7910 0.7930 0.7940 0.8000
3.900314 0.8030 0.8050 0.8060 0.8100 0.8100
3.934000 0.8100 0.8100 0.8110 0.8130 0.8150
3.968314 0.8170 0.8200 0.8230 0.8270 0.8320
4.003000 0.8340 0.8340 0.8340 0.8350 0.8350
4.037314 0.8340 0.8340 0.8350 0.8350 0.8350
4.072000 0.8350 0.8370 0.8390 0.8420 0.8440
4.106314 0.8460 0.8470 0.8470 0.8460 0.8440
4.140000 0.8440 0.8440 0.8440 0.8440 0.8440
4.174314 0.8440 0.8440 0.8460 0.8470 0.8470
4.209000 0.8490 0.8510 0.8510 0.8520 0.8540
4.243314 0.8560 0.8560 0.8590 0.8610 0.8640
4.277000 0.8680 0.8710 0.8710 0.8730 0.8730
4.311314 0.8730 0.8750 0.8730 0.8730 0.8700
4.346000 0.8680 0.8660 0.8660 0.8660 0.8680
4.380314 0.8700 0.8710 0.8750 0.8780 0.8800
4.415000 0.8800 0.8800 0.8780 0.8780 0.8780
4.449314 0.8780 0.8780 0.8780 0.8780 0.8780
4.483000 0.8780 0.8800 0.8820 0.8820 0.8820
4.517314 0.8820 0.8800 0.8800 0.8800 0.8800
4.552000 0.8800 0.8800 0.8800 0.8800 0.8800
4.586314 0.8820 0.8820 0.8830 0.8830 0.8830
4.620000 0.8830 0.8850 0.8850 0.8850 0.8850
4.654314 0.8850 0.8850 0.8870 0.8870 0.8870
4.689000 0.8870 0.8870 0.8870 0.8870 0.8870
4.723314 0.8870 0.8870 0.8870 0.8880 0.8880
4.757000 0.8900 0.8920 0.8940 0.8950 0.8990
4.791314 0.9000 0.9000 0.9000 0.8990 0.8990
4.826000 0.9000 0.8990 0.8990 0.8970 0.8990
4.860314 0.8990 0.9000 0.9000 0.8990 0.9000
4.895000 0.9000 0.9000 0.9000 0.9000 0.9000
4.929314 0.9000 0.9000 0.9000 0.9000 0.8990
4.963000 0.9000 0.9000 0.9000 0.9000 0.9000
4.997314 0.9000 0.9020 0.9020 0.9020 0.9020
5.032000 0.9020 0.9020 0.9020 0.9020 0.9040
5.066314 0.9040 0.9040 0.9040 0.9040 0.9040
5.100000 0.9040 0.9040 0.9040 0.9040 0.9020
5.134314 0.9020 0.9000 0.9000 0.8990 0.8990
5.169000 0.8970 0.8970 0.8970 0.8940 0.8920
5.203314 0.8900 0.8900 0.8880 0.8870 0.8870
5.238000 0.8870 0.8870 0.8870 0.8870 0.8870
5.272314 0.8870 0.8880 0.8900 0.8900 0.8920
5.306000 0.8920 0.8920 0.8920 0.8920 0.8920
5.340314 0.8920 0.8940 0.8970 0.9000 0.9020
5.375000 0.9020 0.9020 0.9020 0.9020 0.9020
5.409314 0.9020 0.9020 0.9020 0.9020 0.9020
5.443000 0.9000 0.9000 0.8990 0.8970 0.8970
5.477314 0.8970 0.8970 0.8970 0.8970 0.8970
5.512000 0.8970 0.8970 0.8970 0.8970 0.8970
5.546314 0.8970 0.8970 0.8970 0.8970 0.8970
5.581000 0.8970 0.8940 0.8940 0.8940 0.8940
5.615314 0.8940 0.8940 0.8970 0.8990 0.8990
5.649000 0.8990 0.8990 0.8990 0.8990 0.9000
5.683314 0.9000 0.9000 0.9020 0.9020 0.9020
5.718000 0.9040 0.9020 0.9040 0.9040 0.9040
5.752314 0.9040 0.9050 0.9070 0.9070 0.9070
5.786000 0.9050 0.9050 0.9050 0.9070 0.9090
5.820314 0.9090 0.9090 0.9090 0.9090 0.9090
5.855000 0.9090 0.9090 0.9090 0.9070 0.9050
5.889314 0.9040 0.9040 0.9020 0.8920 0.8900
5.924000 0.8880 0.8870 0.8850 0.8820 0.8760
5.958314 0.8710 0.8580 0.8370 0.8130 0.7860
5.992000 0.7580 0.7230 0.6820 0.6490 0.6320
6.026314 0.6230 0.6230 0.6300 0.6630 0.7230
6.061000 0.7890 0.8370 0.8680 0.8830 0.8870
6.095314 0.8880 0.8880 0.8880 0.8880 0.8880
6.129000 0.8900 0.8900 0.8920 0.8950 0.9000
6.163314 0.9000 0.9020 0.9020 0.9020 0.9040
6.198000 0.9040 0.9020 0.9020 0.9040 0.9040
6.232314 0.9040 0.9050 0.9050 0.9090 0.9090
6.267000 0.9110 0.9110 0.9110 0.9110 0.9090
6.301314 0.9090 0.9070 0.9070 0.9070 0.9070
6.335000 0.9070 0.9070 0.9070 0.9050 0.9040
6.369314 0.9040 0.9020 0.9020 0.9020 0.9020
6.404000 0.9020 0.9040 0.9040 0.9040 0.9040
6.438314 0.9020 0.9020 0.9020 0.9020 0.9000
6.472000 0.9000 0.8990 0.8970 0.8940 0.8940
6.506314 0.8920 0.8900 0.8900 0.8900 0.8880
6.541000 0.8870 0.8850 0.8830 0.8830 0.8820
6.575314 0.8820 0.8820 0.8800 0.8760 0.8750
6.610000 0.8730 0.8710 0.8660 0.8630 0.8540
6.644314 0.8390 0.8200 0.8000 0.7840 0.7620
6.678000 0.7470 0.7260 0.6990 0.6680 0.6390
6.712314 0.6150 0.5960 0.5770 0.5650 0.5600
6.747000 0.5530 0.5410 0.5230 0.4970 0.4470
6.781314 0.3770 0.3350 0.2940 0.2510 0.2080
6.815000 0.1880 0.1670 0.1640 0.1640 0.1690
6.849314 0.1820 0.1930 0.2080 0.2290 0.2520
6.884000 0.2800 0.3070 0.3380 0.3670 0.3930
6.918314 0.4410 0.4880 0.5280 0.5670 0.6060
6.952000 0.6460 0.6920 0.7160 0.7380 0.7520
6.986314 0.7650 0.7790 0.7840 0.7890 0.7910
7.021000 0.7940 0.7980 0.8000 0.8000 0.7960
7.055314 0.7940 0.7860 0.7740 0.7520 0.7360
7.090000 0.7120 0.6970 0.6780 0.6560 0.6370
7.124314 0.6200 0.6030 0.6010 0.6030 0.6060
7.158000 0.6200 0.6440 0.6660 0.6750 0.6800
7.192314 0.6800 0.6630 0.6200 0.5880 0.5520
7.227000 0.5230 0.4880 0.4640 0.4460 0.4350
7.261314 0.4340 0.4350 0.4630 0.5000 0.5380
7.295000 0.5670 0.5960 0.6060 0.6230 0.6470
7.329314 0.6700 0.6970 0.7170 0.7330 0.7500
7.364000 0.7550 0.7580 0.7600 0.7620 0.7640
7.398314 0.7640 0.7640 0.7640 0.7640 0.7650
7.433000 0.7650 0.7650 0.7670 0.7700 0.7720
7.467314 0.7810 0.7840 0.7890 0.7980 0.8030
7.501000 0.8060 0.8130 0.8200 0.8230 0.8250
7.535314 0.8270 0.8300 0.8300 0.8320 0.8320
7.570000 0.8340 0.8340 0.8320 0.8180 0.8060
7.604314 0.8030 0.8030 0.8030 0.8050 0.8050
7.638000 0.8060 0.8060 0.8080 0.8100 0.8100
7.672314 0.8110 0.8110 0.8130 0.8130 0.8170
7.707000 0.8200 0.8220 0.8230 0.8230 0.8250
7.741314 0.8250 0.8230 0.8230 0.8220 0.8220
7.776000 0.8200 0.8200 0.8180 0.8150 0.8130
7.810314 0.8130 0.8150 0.8170 0.8200 0.8220
7.844000 0.8250 0.8300 0.8320 0.8320 0.8340
7.878314 0.8340 0.8350 0.8410 0.8410 0.8420
7.913000 0.8440 0.8440 0.8440 0.8440 0.8440
7.947314 0.8440 0.8420 0.8410 0.8320 0.8200
7.981000 0.8170 0.8100 0.8050 0.7980 0.7960
8.015314 0.7960 0.7960 0.7980 0.8000 0.8030
8.050000 0.8080 0.8170 0.8230 0.8340 0.8410
8.084314 0.8460 0.8510 0.8510 0.8520 0.8520
8.119000 0.8520 0.8540 0.8580 0.8610 0.8630
8.153314 0.8660 0.8700 0.8710 0.8710 0.8710
8.187000 0.8730 0.8750 0.8750 0.8730 0.8730
8.221314 0.8730 0.8730 0.8730 0.8730 0.8730
8.256000 0.8730 0.8730 0.8750 0.8760 0.8760
8.290314 0.8760 0.8760 0.8760 0.8780 0.8780
8.324000 0.8780 0.8780 0.8780 0.8780 0.8780
8.358314 0.8780 0.8780 0.8780 0.8780 0.8780
8.393000 0.8780 0.8780 0.8780 0.8780 0.8780
8.427314 0.8780 0.8760 0.8760 0.8750 0.8730
8.462000 0.8730 0.8710 0.8700 0.8680 0.8660
8.496314 0.8640 0.8630 0.8610 0.8610 0.8580
8.530000 0.8560 0.8540 0.8540 0.8540 0.8540
8.564314 0.8540 0.8540 0.8540 0.8540 0.8540
8.599000 0.8520 0.8520 0.8520 0.8520 0.8520
8.633314 0.8510 0.8510 0.8510 0.8470 0.8470
8.667000 0.8470 0.8470 0.8470 0.8510 0.8510
8.701314 0.8510 0.8510 0.8510 0.8490 0.8470
8.736000 0.8470 0.8440 0.8420 0.8410 0.8410
8.770314 0.8410 0.8410 0.8390 0.8370 0.8350
8.805000 0.8350 0.8410 0.8440 0.8510 0.8540
8.839314 0.8560 0.8590 0.8610 0.8630 0.8640
8.873000 0.8700 0.8730 0.8750 0.8760 0.8780
8.907314 0.8780 0.8780 0.8780 0.8800 0.8800
8.942000 0.8800 0.8800 0.8800 0.8800 0.8800
8.976314 0.8800 0.8800 0.8760 0.8760 0.8750
9.010000 0.8750 0.8760 0.8760 0.8780 0.8780
9.044314 0.8780 0.8780 0.8780 0.8800 0.8800
9.079000 0.8780 0.8780 0.8800 0.8800 0.8800
9.113314 0.8800 0.8800 0.8800 0.8800 0.8800
9.147000 0.8780 0.8780 0.8780 0.8780 0.8780
9.181314 0.8760 0.8760 0.8750 0.8750 0.8730
9.216000 0.8710 0.8700 0.8700 0.8680 0.8660
9.250314 0.8640 0.8610 0.8590 0.8540 0.8510
9.285000 0.8410 0.8320 0.8250 0.8200 0.8110
9.319314 0.8080 0.8030 0.8010 0.8000 0.7930
9.353000 0.7910 0.7890 0.7890 0.7890 0.7890
9.387314 0.7880 0.7890 0.7910 0.7960 0.8000
9.422000 0.8030 0.8110 0.8200 0.8250 0.8300
9.456314 0.8340 0.8390 0.8410 0.8440 0.8490
9.490000 0.8510 0.8520 0.8590 0.8590 0.8610
9.524314 0.8630 0.8630 0.8640 0.8640 0.8660
9.559000 0.8700 0.8710 0.8730 0.8730 0.8750
9.593314 0.8750 0.8750 0.8760 0.8760 0.8760
9.628000 0.8760 0.8780 0.8780 0.8780 0.8780
9.662314 0.8780 0.8780 0.8780 0.8780 0.8780
9.696000 0.8780 0.8800 0.8780 0.8780 0.8780
9.730314 0.8780 0.8780 0.8780 0.8780 0.8780
9.765000 0.8780 0.8780 0.8780 0.8780 0.8780
9.799314 0.8780 0.8780 0.8780 0.8800 0.8800
9.833000 0.8800 0.8800 0.8800 0.8800 0.8800
9.867314 0.8800 0.8800 0.8800 0.8800 0.8800
9.902000 0.8800 0.8800 0.8800 0.8800 0.8800
9.936314 0.8800 0.8800 0.8800 0.8780 0.8760
9.971000 0.8760 0.8760 0.8750 0.8730 0.8730
10.005314 0.8750 0.8730 0.8730 0.8730 0.8730
10.039000 0.8730 0.8730 0.8710 0.8710 0.8700
10.073314 0.8700 0.8680 0.8640 0.8630 0.8590
10.108000 0.8580 0.8520 0.8510 0.8440 0.8410
10.142314 0.8320 0.8230 0.8180 0.8100 0.8030
10.176000 0.8010 0.7960 0.7890 0.7760 0.7670
10.210314 0.7570 0.7500 0.7410 0.7330 0.7240
10.245000 0.7190 0.7070 0.6990 0.6900 0.6820
10.279314 0.6750 0.6700 0.6640 0.6630 0.6630
10.314000 0.6610 0.6610 0.6610 0.6610 0.6610
10.348314 0.6610 0.6610 0.6610 0.6610 0.6630
10.382000 0.6630 0.6640 0.6640 0.6630 0.6580
10.416314 0.6540 0.6470 0.6410 0.6270 0.6150
10.451000 0.6030 0.5880 0.5690 0.5470 0.5210
10.485314 0.4950 0.4700 0.4410 0.4130 0.3880
10.519000 0.3600 0.3360 0.3140 0.2950 0.2780
10.553314 0.2610 0.2520 0.2440 0.2420 0.2420
10.588000 0.2410 0.2410 0.2390 0.2350 0.2340
10.622314 0.2340 0.2350 0.2420 0.2490 0.2540
10.657000 0.2630 0.2730 0.2870 0.3050 0.3240
10.691314 0.3480 0.3740 0.4030 0.4440 0.4760
10.725000 0.5040 0.5330 0.5580 0.5790 0.6030
10.759314 0.6230 0.6410 0.6630 0.6780 0.6940
10.794000 0.7050 0.7210 0.7360 0.7470 0.7570
10.828314 0.7620 0.7690 0.7700 0.7720 0.7760
10.862000 0.7810 0.7840 0.7890 0.7910 0.8000
10.896314 0.8030 0.8050 0.8100 0.8110 0.8130
10.931000 0.8200 0.8220 0.8230 0.8290 0.8300
10.965314 0.8300 0.8300 0.8300 0.8300 0.8300
11.000000 0.8300 0.8300 0.8300 0.8300 0.8290
11.034314 0.8220 0.8130 0.8030 0.8000 0.7860
11.068000 0.7790 0.7640 0.7520 0.7360 0.7240
11.102314 0.7120 0.6970 0.6780 0.6520 0.6270
11.137000 0.6010 0.5720 0.5470 0.5230 0.4990
11.171314 0.4780 0.4630 0.4490 0.4420 0.4370
11.205000 0.4250 0.4230 0.4250 0.4420 0.4560
11.239314 0.4710 0.4940 0.5170 0.5430 0.5670
11.274000 0.5910 0.6110 0.6320 0.6470 0.6760
11.308314 0.6950 0.7120 0.7280 0.7480 0.7580
11.342000 0.7720 0.7820 0.7910 0.8000 0.8050
11.376314 0.8150 0.8200 0.8290 0.8410 0.8460
11.411000 0.8520 0.8520 0.8580 0.8590 0.8640
11.445314 0.8680 0.8730 0.8760 0.8780 0.8780
11.480000 0.8780 0.8780 0.8820 0.8820 0.8830
11.514314 0.8850 0.8870 0.8880 0.8880 0.8880
11.548000 0.8900 0.8900 0.8900 0.8900 0.8920
11.582314 0.8950 0.8990 0.9000 0.9000 0.8990
11.617000 0.8990 0.9000 0.9000 0.9000 0.9000
11.651314 0.9020 0.9020 0.9020 0.9020 0.9020
11.685000 0.9020 0.9020 0.9040 0.9040 0.9040
11.719314 0.9040 0.9040 0.9040 0.9040 0.9040
11.754000 0.9040 0.9040 0.9040 0.9050 0.9050
11.788314 0.9070 0.9070 0.9050 0.9050 0.9050
11.823000 0.9050 0.9070 0.9070 0.9070 0.9070
11.857314 0.9070 0.9070 0.9070 0.9090 0.9090
11.891000 0.9110 0.9140 0.9160 0.9160 0.9170
11.925314 0.9160 0.9160 0.9160 0.9160 0.9160
11.960000 0.9160 0.9160 0.9160 0.9160 0.9170
11.994314 0.9170 0.9190 0.9190 0.9190 0.9190
12.028000 0.9190 0.9190 0.9190 0.9190 0.9190
12.062314 0.9210 0.9210 0.9210 0.9230 0.9230
12.097000 0.9230 0.9210 0.9210 0.9210 0.9210
12.131314 0.9210 0.9210 0.9210 0.9210 0.9210
12.166000 0.9210 0.9210 0.9210 0.9210 0.9210
12.200314 0.9210 0.9210 0.9210 0.9210 0.9210
12.234000 0.9210 0.9210 0.9210 0.9210 0.9210
12.268314 0.9210 0.9210 0.9210 0.9210 0.9210
12.303000 0.9210 0.9210 0.9210 0.9210 0.9210
12.337314 0.9210 0.9210 0.9210 0.9210 0.9210
12.371000 0.9210 0.9210 0.9230 0.9240 0.9230
12.405314 0.9230 0.9230 0.9240 0.9240 0.9230
12.440000 0.9210 0.9210 0.9210 0.9190 0.9190
12.474314 0.9190 0.9170 0.9170 0.9170 0.9170
12.509000 0.9170 0.9170 0.9170 0.9170 0.9170
12.543314 0.9190 0.9190 0.9190 0.9190 0.9170
12.577000 0.9170 0.9160 0.9140 0.9090 0.9090
12.611314 0.9110 0.9110 0.9110 0.9110 0.9090
12.646000 0.9090 0.9090 0.9090 0.9090 0.9090
12.680314 0.9090 0.9070 0.9070 0.9070 0.9020
12.714000 0.9000 0.9000 0.9000 0.9000 0.9000
12.748314 0.8990 0.8990 0.8970 0.8970 0.8970
12.783000 0.8950 0.8940 0.8940 0.8940 0.8940
12.817314 0.8940 0.8920 0.8900 0.8880 0.8870
12.852000 0.8870 0.8870 0.8870 0.8870 0.8850
12.886314 0.8820 0.8800 0.8800 0.8800 0.8800
12.920000 0.8800 0.8800 0.8800 0.8800 0.8800
12.954314 0.8800 0.8800 0.8800 0.8800 0.8800
12.989000 0.8780 0.8780 0.8760 0.8760 0.8750
13.023314 0.8750 0.8750 0.8730 0.8730 0.8730
13.057000 0.8730 0.8730 0.8730 0.8730 0.8730
13.091314 0.8730 0.8730 0.8730 0.8730 0.8730
13.126000 0.8730 0.8730 0.8730 0.8730 0.8730
13.160314 0.8710 0.8700 0.8700 0.8700 0.8700
13.195000 0.8680 0.8680 0.8680 0.8660 0.8660
13.229314 0.8640 0.8630 0.8630 0.8630 0.8630
13.263000 0.8630 0.8610 0.8610 0.8590 0.8580
13.297314 0.8520 0.8510 0.8490 0.8490 0.8490
13.332000 0.8490 0.8490 0.8490 0.8490 0.8460
13.366314 0.8460 0.8440 0.8420 0.8420 0.8410
13.400000 0.8370 0.8350 0.8340 0.8340 0.8320
13.434314 0.8300 0.8290 0.8270 0.8250 0.8230
13.469000 0.8220 0.8220 0.8200 0.8180 0.8130
13.503314 0.8100 0.8100 0.8080 0.8030 0.8010
13.537000 0.8000 0.8000 0.8000 0.8000 0.8000
13.571314 0.7980 0.7960 0.7940 0.7910 0.7880
13.606000 0.7860 0.7860 0.7840 0.7820 0.7820
13.640314 0.7810 0.7790 0.7770 0.7760 0.7700
13.675000 0.7700 0.7690 0.7690 0.7670 0.7670
13.709314 0.7640 0.7600 0.7580 0.7520 0.7500
13.743000 0.7480 0.7480 0.7480 0.7470 0.7430
13.777314 0.7410 0.7400 0.7380 0.7360 0.7330
13.812000 0.7290 0.7260 0.7210 0.7210 0.7190
13.846314 0.7190 0.7190 0.7190 0.7190 0.7190
13.880000 0.7190 0.7190 0.7190 0.7190 0.7190
13.914314 0.7170 0.7170 0.7120 0.7090 0.7040
13.949000 0.7000 0.6990 0.6970 0.6920 0.6880
13.983314 0.6800 0.6730 0.6660 0.6580 0.6540
14.018000 0.6490 0.6460 0.6370 0.6290 0.6220
14.052314 0.6130 0.6100 0.6060 0.6050 0.6010
14.086000 0.6010 0.6000 0.6000 0.6000 0.6010
14.120314 0.6010 0.6050 0.6060 0.6130 0.6200
14.155000 0.6270 0.6320 0.6410 0.6460 0.6490
14.189314 0.6540 0.6590 0.6660 0.6750 0.6780
14.223000 0.6800 0.6820 0.6880 0.6900 0.6950
14.257314 0.6990 0.6990 0.7000 0.7020 0.7020
14.292000 0.7070 0.7070 0.7070 0.7090 0.7110
14.326314 0.7110 0.7120 0.7120 0.7140 0.7140
14.361000 0.7160 0.7170 0.7170 0.7170 0.7170
14.395314 0.7170 0.7170 0.7170 0.7190 0.7190
14.429000 0.7190 0.7190 0.7190 0.7170 0.7170
14.463314 0.7170 0.7140 0.7140 0.7120 0.7120
14.498000 0.7120 0.7120 0.7120 0.7090 0.7070
14.532314 0.7070 0.7070 0.7050 0.7040 0.7040
14.566000 0.7040 0.7020 0.7020 0.7000 0.6990
14.600314 0.6990 0.6970 0.6970 0.6950 0.6950
14.635000 0.6940 0.6900 0.6900 0.6880 0.6880
14.669314 0.6870 0.6830 0.6820 0.6820 0.6820
14.704000 0.6820 0.6820 0.6820 0.6800 0.6780
14.738314 0.6750 0.6730 0.6710 0.6710 0.6710
14.772000 0.6710 0.6710 0.6700 0.6640 0.6630
14.806314 0.6610 0.6590 0.6590 0.6590 0.6590
14.841000 0.6590 0.6580 0.6580 0.6520 0.6510
14.875314 0.6520 0.6510 0.6490 0.6490 0.6490
14.909000 0.6470 0.6460 0.6420 0.6420 0.6410
14.943314 0.6390 0.6390 0.6390 0.6350 0.6320
14.978000 0.6320 0.6300 0.6300 0.6290 0.6270
15.012314 0.6230 0.6220 0.6180 0.6170 0.6130
15.047000 0.6110 0.6110 0.6100 0.6100 0.6100
15.081314 0.6080 0.6050 0.6030 0.6030 0.6010
15.115000 0.6000 0.5980 0.5960 0.5930 0.5890
15.149314 0.5890 0.5880 0.5860 0.5860 0.5840
15.184000 0.5840 0.5840 0.5840 0.5840 0.5820
15.218314 0.5820 0.5810 0.5790 0.5790 0.5770
15.252000 0.5740 0.5720 0.5700 0.5690 0.5690
15.286314 0.5670 0.5670 0.5650 0.5650 0.5640
15.321000 0.5600 0.5600 0.5580 0.5580 0.5580
15.355314 0.5580 0.5530 0.5520 0.5500 0.5500
15.390000 0.5500 0.5480 0.5430 0.5400 0.5400
15.424314 0.5400 0.5380 0.5380 0.5350 0.5330
15.458000 0.5330 0.5310 0.5290 0.5290 0.5290
15.492314 0.5240 0.5230 0.5230 0.5230 0.5210
15.527000 0.5210 0.5190 0.5190 0.5140 0.5120
15.561314 0.5110 0.5070 0.5040 0.5020 0.4990
15.595000 0.4990 0.4970 0.4970 0.4970 0.4970
15.629314 0.4950 0.4940 0.4920 0.4900 0.4880
15.664000 0.4880 0.4880 0.4850 0.4850 0.4850
15.698314 0.4850 0.4850 0.4850 0.4850 0.4850
15.732000 0.4830 0.4830 0.4850 0.4850 0.4830
15.766314 0.4830 0.4820 0.4820 0.4820 0.4800
15.801000 0.4780 0.4760 0.4730 0.4710 0.4710
15.835314 0.4700 0.4680 0.4680 0.4680 0.4680
15.870000 0.4680 0.4680 0.4680 0.4700
##END=
