##TITLE=Phenothiazine,10-[2-(1-methyl-4-piperazinyl)ethyl]-2-trifluoromethyl-, dihydrochloride
##JCAMP-DX=4.24
##DATA TYPE=INFRARED SPECTRUM
##CLASS=COBLENTZ III
##ORIGIN=SMITH KLINE & FRENCH LABS.
##OWNER=Copyright (C) 1987 by the Coblentz Society
Collection (C) 2018 copyright by the U.S. Secretary of Commerce
on behalf of the United States of America. All rights reserved.
##DATE=1960/01/21
##MOLFORM=C20 H24 Cl2 F3 N3 S
##SOURCE REFERENCE=COBLENTZ NO. 9080
##$NIST ID=B6009080
##$NIST SOURCE=COBLENTZ
##$NIST IMAGE=cob9080
##SPECTROMETER/DATA SYSTEM=PERKIN-ELMER 21 (GRATING)
##INSTRUMENT PARAMETERS=NaCl PRISM
##STATE=SOLID (KBr DISC)
$$SPECTRAL CONTAMINATION DUE TO H2O AROUND 3400 CM^-^1
##SAMPLING PROCEDURE=TRANSMISSION
##RESOLUTION=2
##DATA PROCESSING=DIGITIZED BY COBLENTZ SOCIETY (BATCH II) FROM HARD COPY
##XUNITS=1/CM
##YUNITS=TRANSMITTANCE
##XFACTOR=1.0
##YFACTOR=1
##FIRSTX=654
##LASTX=4000
##FIRSTY=0.6454
##MAXX=4000
##MINX=654
##MAXY=0.7727
##MINY=0.0774
##NPOINTS=3347
##XYDATA=(X++(Y..Y))
654.000000 0.6454 0.6360 0.6202 0.5982 0.5766
659.000000 0.5718 0.5775 0.6018 0.6326 0.6596
664.000000 0.6629 0.6623 0.6728 0.6873 0.7004
669.000000 0.7090 0.7102 0.7030 0.6971 0.6884
674.000000 0.6758 0.6632 0.6519 0.6497 0.6556
679.000000 0.6636 0.6734 0.6803 0.6828 0.6835
684.000000 0.6922 0.7030 0.7063 0.7051 0.7087
689.000000 0.7111 0.7114 0.7044 0.6955 0.6846
694.000000 0.6708 0.6537 0.6281 0.6017 0.5830
699.000000 0.5749 0.6004 0.6524 0.6812 0.6971
704.000000 0.7029 0.6990 0.6952 0.6913 0.6870
709.000000 0.6824 0.6774 0.6719 0.6656 0.6579
714.000000 0.6496 0.6400 0.6260 0.6035 0.5829
719.000000 0.5191 0.4624 0.4341 0.4300 0.5010
724.000000 0.5336 0.5341 0.5122 0.4955 0.4839
729.000000 0.4846 0.4783 0.4635 0.4636 0.4791
734.000000 0.5259 0.5399 0.5408 0.5357 0.4780
739.000000 0.4444 0.4188 0.3862 0.3716 0.3601
744.000000 0.3510 0.3371 0.3204 0.3033 0.2843
749.000000 0.2639 0.2310 0.1694 0.1436 0.1395
754.000000 0.1384 0.1897 0.2079 0.2157 0.2238
759.000000 0.2320 0.2410 0.2528 0.3956 0.5284
764.000000 0.5789 0.6369 0.6696 0.7012 0.7310
769.000000 0.7548 0.7652 0.7695 0.7723 0.7715
774.000000 0.7727 0.7698 0.7663 0.7623 0.7573
779.000000 0.7529 0.7489 0.7452 0.7416 0.7400
784.000000 0.7394 0.7395 0.7385 0.7371 0.7351
789.000000 0.7328 0.7304 0.7269 0.7234 0.7198
794.000000 0.7144 0.7090 0.7029 0.6956 0.6857
799.000000 0.6781 0.6706 0.6689 0.6693 0.6714
804.000000 0.6713 0.6709 0.6689 0.6627 0.6517
809.000000 0.6346 0.6148 0.5877 0.5473 0.4906
814.000000 0.4339 0.3824 0.3735 0.3779 0.3982
819.000000 0.4037 0.4067 0.3852 0.3732 0.3629
824.000000 0.3619 0.3621 0.3906 0.4368 0.4828
829.000000 0.5288 0.5772 0.6102 0.6462 0.6611
834.000000 0.6701 0.6667 0.6643 0.6629 0.6707
839.000000 0.6720 0.6697 0.6659 0.6580 0.6428
844.000000 0.6189 0.5921 0.5607 0.5241 0.4849
849.000000 0.4502 0.4467 0.4462 0.4522 0.4689
854.000000 0.4979 0.5649 0.5819 0.5827 0.5775
859.000000 0.5658 0.5493 0.5184 0.4789 0.4383
864.000000 0.4185 0.4165 0.4154 0.4303 0.4577
869.000000 0.4936 0.5254 0.5521 0.5740 0.5937
874.000000 0.6058 0.6055 0.5993 0.5900 0.5735
879.000000 0.5539 0.5317 0.5065 0.4825 0.4588
884.000000 0.4587 0.4724 0.4936 0.5227 0.5717
889.000000 0.5986 0.6155 0.6340 0.6486 0.6576
894.000000 0.6604 0.6602 0.6553 0.6455 0.6355
899.000000 0.6246 0.6105 0.5943 0.5755 0.5525
904.000000 0.5380 0.5433 0.5634 0.5862 0.6029
909.000000 0.6127 0.6195 0.6212 0.6197 0.6200
914.000000 0.6033 0.5849 0.5667 0.5486 0.5294
919.000000 0.5115 0.4863 0.4503 0.4144 0.3695
924.000000 0.3396 0.3174 0.3119 0.3096 0.3347
929.000000 0.3622 0.3805 0.3826 0.3597 0.3289
934.000000 0.3003 0.2960 0.3028 0.3342 0.4000
939.000000 0.4893 0.5644 0.5855 0.5957 0.6014
944.000000 0.6051 0.6061 0.6056 0.6060 0.6004
949.000000 0.5949 0.5840 0.5679 0.5532 0.5409
954.000000 0.5270 0.5107 0.4951 0.4788 0.4564
959.000000 0.3961 0.3483 0.3025 0.2677 0.2570
964.000000 0.2539 0.2548 0.2538 0.2971 0.3431
969.000000 0.3889 0.4347 0.4803 0.5114 0.5446
974.000000 0.5700 0.5949 0.6140 0.6266 0.6355
979.000000 0.6416 0.6448 0.6464 0.6451 0.6459
984.000000 0.6439 0.6413 0.6384 0.6349 0.6303
989.000000 0.6244 0.6188 0.6133 0.6079 0.6026
994.000000 0.5974 0.5940 0.5907 0.5880 0.5857
999.000000 0.5834 0.5818 0.5804 0.5796 0.5791
1004.000000 0.5787 0.5762 0.5735 0.5688 0.5625
1009.000000 0.5533 0.5427 0.5329 0.5218 0.5098
1014.000000 0.4984 0.4861 0.4712 0.4521 0.4350
1019.000000 0.4000 0.3472 0.2990 0.2912 0.2897
1024.000000 0.3102 0.3486 0.3868 0.4183 0.4230
1029.000000 0.4234 0.4214 0.4132 0.4026 0.3944
1034.000000 0.3822 0.3754 0.3777 0.3902 0.4041
1039.000000 0.4179 0.4317 0.4400 0.4399 0.4420
1044.000000 0.4351 0.4300 0.4232 0.4164 0.4087
1049.000000 0.4012 0.3938 0.3871 0.3814 0.3758
1054.000000 0.3702 0.3648 0.3594 0.3455 0.3243
1059.000000 0.3097 0.2976 0.2895 0.2802 0.2684
1064.000000 0.2585 0.2497 0.2417 0.2338 0.2278
1069.000000 0.2219 0.2146 0.2065 0.1973 0.1881
1074.000000 0.1768 0.1603 0.1471 0.1374 0.1280
1079.000000 0.1208 0.1189 0.1183 0.1193 0.1177
1084.000000 0.1623 0.2006 0.2137 0.2143 0.2144
1089.000000 0.2118 0.2105 0.2110 0.2100 0.2210
1094.000000 0.2248 0.2243 0.2151 0.1976 0.1860
1099.000000 0.1746 0.1638 0.1510 0.1386 0.1274
1104.000000 0.1158 0.1052 0.0979 0.0906 0.0858
1109.000000 0.0824 0.0804 0.0788 0.0785 0.0787
1114.000000 0.0774 0.0797 0.0802 0.0817 0.0841
1119.000000 0.0915 0.0984 0.1049 0.1102 0.1149
1124.000000 0.1192 0.1227 0.1260 0.1289 0.1316
1129.000000 0.1381 0.1460 0.1541 0.1761 0.1957
1134.000000 0.2092 0.2152 0.2185 0.2200 0.2049
1139.000000 0.1937 0.1826 0.1715 0.1604 0.1531
1144.000000 0.1518 0.1877 0.2101 0.2325 0.2549
1149.000000 0.2772 0.2994 0.3093 0.2924 0.2640
1154.000000 0.2357 0.2073 0.1791 0.1533 0.1465
1159.000000 0.1437 0.1413 0.1471 0.1405 0.1732
1164.000000 0.1862 0.1980 0.2011 0.2031 0.2049
1169.000000 0.2061 0.2077 0.2100 0.2144 0.2198
1174.000000 0.2272 0.2356 0.2431 0.2493 0.2555
1179.000000 0.2612 0.2669 0.2725 0.2790 0.2860
1184.000000 0.2933 0.3022 0.3113 0.3225 0.3572
1189.000000 0.4254 0.4642 0.4945 0.4958 0.4951
1194.000000 0.4931 0.4876 0.4823 0.4811 0.4878
1199.000000 0.5089 0.5300 0.5510 0.5717 0.5834
1204.000000 0.5864 0.5873 0.5868 0.5860 0.5842
1209.000000 0.5819 0.5789 0.5751 0.5697 0.5615
1214.000000 0.5549 0.5481 0.5410 0.5333 0.5240
1219.000000 0.5104 0.4731 0.4300 0.4089 0.3945
1224.000000 0.3881 0.3841 0.3802 0.3710 0.3522
1229.000000 0.3333 0.3137 0.3051 0.3049 0.3070
1234.000000 0.3101 0.3130 0.3124 0.3101 0.3063
1239.000000 0.2990 0.2904 0.2763 0.2581 0.2442
1244.000000 0.2276 0.2053 0.1808 0.1540 0.1309
1249.000000 0.1210 0.1177 0.1172 0.1169 0.1170
1254.000000 0.1177 0.1181 0.1263 0.1516 0.1803
1259.000000 0.2088 0.2374 0.2659 0.2944 0.3228
1264.000000 0.3512 0.3795 0.4028 0.4039 0.4008
1269.000000 0.3871 0.3686 0.3503 0.3320 0.3256
1274.000000 0.3255 0.3252 0.3458 0.3590 0.3722
1279.000000 0.3779 0.3780 0.3775 0.3329 0.3116
1284.000000 0.3046 0.2978 0.2899 0.2833 0.2772
1289.000000 0.2723 0.2675 0.2629 0.2587 0.2544
1294.000000 0.2499 0.2453 0.2397 0.2339 0.2280
1299.000000 0.2227 0.2197 0.2187 0.2180 0.2173
1304.000000 0.2167 0.2165 0.2164 0.2162 0.2159
1309.000000 0.2155 0.2151 0.2146 0.2131 0.2105
1314.000000 0.2040 0.1864 0.1646 0.1555 0.1480
1319.000000 0.1411 0.1341 0.1268 0.1200 0.1148
1324.000000 0.1097 0.1061 0.1035 0.1009 0.0996
1329.000000 0.0980 0.1002 0.1020 0.1049 0.1078
1334.000000 0.1106 0.1136 0.1168 0.1203 0.1253
1339.000000 0.1758 0.2008 0.2165 0.2272 0.2368
1344.000000 0.2685 0.2911 0.3118 0.3325 0.3531
1349.000000 0.3737 0.3943 0.4148 0.4354 0.4558
1354.000000 0.4762 0.4907 0.4938 0.4958 0.4983
1359.000000 0.4953 0.4825 0.4595 0.4361 0.4128
1364.000000 0.3895 0.3662 0.3430 0.3198 0.2966
1369.000000 0.2852 0.2849 0.2847 0.3045 0.3510
1374.000000 0.4001 0.4516 0.4689 0.4760 0.4814
1379.000000 0.4855 0.4875 0.4895 0.4909 0.4915
1384.000000 0.4922 0.4923 0.4922 0.4904 0.4872
1389.000000 0.4736 0.4586 0.4437 0.4288 0.4139
1394.000000 0.3991 0.3843 0.3786 0.3748 0.3721
1399.000000 0.3715 0.3703 0.3619 0.3493 0.3366
1404.000000 0.3241 0.3114 0.2989 0.2864 0.2738
1409.000000 0.2613 0.2488 0.2363 0.2239 0.2114
1414.000000 0.1990 0.1866 0.1742 0.1621 0.1530
1419.000000 0.1458 0.1393 0.1343 0.1299 0.1255
1424.000000 0.1216 0.1198 0.1197 0.1199 0.1198
1429.000000 0.1283 0.1470 0.1619 0.1780 0.2023
1434.000000 0.2247 0.2355 0.2391 0.2396 0.2398
1439.000000 0.2393 0.2364 0.2434 0.2240 0.2188
1444.000000 0.2132 0.2071 0.2009 0.1948 0.1891
1449.000000 0.1834 0.1778 0.1725 0.1676 0.1626
1454.000000 0.1579 0.1535 0.1493 0.1449 0.1406
1459.000000 0.1365 0.1324 0.1296 0.1283 0.1286
1464.000000 0.1283 0.1296 0.1300 0.1306 0.1315
1469.000000 0.1331 0.1367 0.1467 0.1586 0.1692
1474.000000 0.1806 0.1913 0.2000 0.2131 0.2431
1479.000000 0.2718 0.2928 0.3138 0.3348 0.3557
1484.000000 0.3766 0.3976 0.4185 0.4393 0.4602
1489.000000 0.4687 0.4694 0.4640 0.4554 0.4470
1494.000000 0.4422 0.4455 0.4621 0.4816 0.5012
1499.000000 0.5207 0.5403 0.5598 0.5792 0.5987
1504.000000 0.6181 0.6375 0.6568 0.6693 0.6731
1509.000000 0.6772 0.6805 0.6835 0.6865 0.6896
1514.000000 0.6926 0.6956 0.6986 0.7015 0.7028
1519.000000 0.7041 0.7055 0.7068 0.7081 0.7092
1524.000000 0.7096 0.7096 0.7097 0.7097 0.7097
1529.000000 0.7096 0.7090 0.7086 0.7082 0.7077
1534.000000 0.7071 0.7061 0.7052 0.7042 0.7032
1539.000000 0.7021 0.7008 0.6995 0.6981 0.6967
1544.000000 0.6954 0.6940 0.6926 0.6908 0.6887
1549.000000 0.6867 0.6846 0.6819 0.6787 0.6756
1554.000000 0.6721 0.6678 0.6634 0.6591 0.6552
1559.000000 0.6514 0.6476 0.6438 0.6365 0.6250
1564.000000 0.6131 0.6012 0.5893 0.5775 0.5656
1569.000000 0.5605 0.5603 0.5611 0.5624 0.5771
1574.000000 0.5865 0.5958 0.6051 0.6145 0.6185
1579.000000 0.6198 0.6179 0.6199 0.6184 0.6117
1584.000000 0.6011 0.5897 0.5784 0.5671 0.5559
1589.000000 0.5477 0.5456 0.5478 0.5525 0.5564
1594.000000 0.5576 0.5536 0.5446 0.5340 0.5234
1599.000000 0.5128 0.5023 0.4917 0.4811 0.4745
1604.000000 0.4740 0.4742 0.4891 0.4996 0.5101
1609.000000 0.5207 0.5312 0.5416 0.5521 0.5625
1614.000000 0.5723 0.5809 0.5898 0.5991 0.6359
1619.000000 0.6514 0.6638 0.6739 0.6769 0.6774
1624.000000 0.6778 0.6776 0.6772 0.6768 0.6764
1629.000000 0.6759 0.6755 0.6751 0.6747 0.6742
1634.000000 0.6739 0.6738 0.6737 0.6735 0.6735
1639.000000 0.6738 0.6742 0.6746 0.6752 0.6762
1644.000000 0.6776 0.6791 0.6808 0.6830 0.6851
1649.000000 0.6873 0.6896 0.6920 0.6951 0.6984
1654.000000 0.7017 0.7048 0.7073 0.7093 0.7112
1659.000000 0.7124 0.7131 0.7139 0.7147 0.7154
1664.000000 0.7161 0.7169 0.7175 0.7177 0.7179
1669.000000 0.7180 0.7180 0.7188 0.7179 0.7179
1674.000000 0.7179 0.7178 0.7177 0.7176 0.7174
1679.000000 0.7172 0.7171 0.7168 0.7165 0.7162
1684.000000 0.7159 0.7156 0.7153 0.7151 0.7150
1689.000000 0.7148 0.7147 0.7145 0.7143 0.7141
1694.000000 0.7138 0.7136 0.7135 0.7132 0.7130
1699.000000 0.7128 0.7125 0.7123 0.7120 0.7117
1704.000000 0.7110 0.7100 0.7090 0.7081 0.7071
1709.000000 0.7062 0.7052 0.7043 0.7033 0.7021
1714.000000 0.7008 0.6994 0.6982 0.6969 0.6964
1719.000000 0.6959 0.6953 0.6947 0.6942 0.6937
1724.000000 0.6931 0.6926 0.6921 0.6919 0.6919
1729.000000 0.6921 0.6921 0.6923 0.6925 0.6927
1734.000000 0.6931 0.6936 0.6941 0.6945 0.6950
1739.000000 0.6954 0.6959 0.6964 0.6965 0.6967
1744.000000 0.6969 0.6970 0.6972 0.6973 0.6975
1749.000000 0.6974 0.6969 0.6961 0.6954 0.6947
1754.000000 0.6939 0.6932 0.6924 0.6916 0.6909
1759.000000 0.6903 0.6896 0.6888 0.6881 0.6875
1764.000000 0.6869 0.6865 0.6862 0.6859 0.6856
1769.000000 0.6852 0.6849 0.6846 0.6844 0.6842
1774.000000 0.6840 0.6838 0.6836 0.6834 0.6832
1779.000000 0.6830 0.6828 0.6826 0.6824 0.6823
1784.000000 0.6823 0.6824 0.6825 0.6825 0.6825
1789.000000 0.6826 0.6826 0.6827 0.6827 0.6828
1794.000000 0.6828 0.6829 0.6829 0.6829 0.6830
1799.000000 0.6831 0.6831 0.6832 0.6833 0.6834
1804.000000 0.6835 0.6835 0.6831 0.6827 0.6823
1809.000000 0.6820 0.6817 0.6813 0.6809 0.6805
1814.000000 0.6801 0.6794 0.6786 0.6778 0.6771
1819.000000 0.6763 0.6755 0.6747 0.6740 0.6731
1824.000000 0.6721 0.6712 0.6702 0.6692 0.6682
1829.000000 0.6673 0.6663 0.6654 0.6645 0.6635
1834.000000 0.6625 0.6616 0.6605 0.6593 0.6581
1839.000000 0.6569 0.6558 0.6546 0.6534 0.6522
1844.000000 0.6510 0.6498 0.6486 0.6474 0.6461
1849.000000 0.6449 0.6436 0.6424 0.6412 0.6399
1854.000000 0.6387 0.6375 0.6362 0.6350 0.6338
1859.000000 0.6325 0.6313 0.6301 0.6288 0.6276
1864.000000 0.6265 0.6253 0.6241 0.6229 0.6217
1869.000000 0.6205 0.6194 0.6182 0.6170 0.6158
1874.000000 0.6146 0.6136 0.6124 0.6113 0.6103
1879.000000 0.6092 0.6081 0.6070 0.6062 0.6057
1884.000000 0.6055 0.6053 0.6051 0.6049 0.6048
1889.000000 0.6046 0.6044 0.6042 0.6039 0.6036
1894.000000 0.6033 0.6031 0.6028 0.6025 0.6022
1899.000000 0.6019 0.6016 0.6013 0.6010 0.6006
1904.000000 0.6001 0.5995 0.5988 0.5982 0.5977
1909.000000 0.5971 0.5965 0.5958 0.5951 0.5944
1914.000000 0.5935 0.5926 0.5917 0.5907 0.5898
1919.000000 0.5889 0.5881 0.5872 0.5863 0.5853
1924.000000 0.5841 0.5828 0.5813 0.5798 0.5783
1929.000000 0.5769 0.5754 0.5739 0.5723 0.5709
1934.000000 0.5694 0.5679 0.5665 0.5651 0.5637
1939.000000 0.5625 0.5613 0.5600 0.5588 0.5577
1944.000000 0.5565 0.5552 0.5540 0.5527 0.5514
1949.000000 0.5502 0.5489 0.5476 0.5464 0.5451
1954.000000 0.5438 0.5425 0.5413 0.5400 0.5388
1959.000000 0.5375 0.5362 0.5349 0.5335 0.5320
1964.000000 0.5304 0.5288 0.5272 0.5257 0.5241
1969.000000 0.5226 0.5210 0.5195 0.5179 0.5164
1974.000000 0.5149 0.5133 0.5118 0.5103 0.5087
1979.000000 0.5073 0.5059 0.5045 0.5031 0.5018
1984.000000 0.5004 0.4990 0.4976 0.4962 0.4948
1989.000000 0.4935 0.4921 0.4907 0.4894 0.4880
1994.000000 0.4866 0.4852 0.4839 0.4825 0.4812
1999.000000 0.4799 0.4786 0.4772 0.4759 0.4746
2004.000000 0.4733 0.4720 0.4707 0.4694 0.4681
2009.000000 0.4668 0.4655 0.4642 0.4629 0.4616
2014.000000 0.4603 0.4590 0.4577 0.4562 0.4545
2019.000000 0.4529 0.4513 0.4497 0.4480 0.4464
2024.000000 0.4447 0.4431 0.4414 0.4398 0.4382
2029.000000 0.4365 0.4339 0.4310 0.4278 0.4245
2034.000000 0.4211 0.4181 0.4153 0.4133 0.4112
2039.000000 0.4092 0.4071 0.4051 0.4030 0.4010
2044.000000 0.3989 0.3968 0.3948 0.3928 0.3907
2049.000000 0.3887 0.3864 0.3840 0.3805 0.3771
2054.000000 0.3736 0.3703 0.3669 0.3637 0.3609
2059.000000 0.3586 0.3562 0.3539 0.3516 0.3492
2064.000000 0.3465 0.3438 0.3411 0.3379 0.3345
2069.000000 0.3302 0.3260 0.3217 0.3191 0.3171
2074.000000 0.3151 0.3131 0.3112 0.3092 0.3072
2079.000000 0.3053 0.3033 0.3015 0.2998 0.2981
2084.000000 0.2964 0.2947 0.2930 0.2913 0.2896
2089.000000 0.2879 0.2862 0.2846 0.2828 0.2812
2094.000000 0.2797 0.2782 0.2768 0.2753 0.2738
2099.000000 0.2724 0.2709 0.2695 0.2680 0.2666
2104.000000 0.2651 0.2637 0.2623 0.2608 0.2593
2109.000000 0.2578 0.2562 0.2546 0.2530 0.2515
2114.000000 0.2499 0.2483 0.2468 0.2452 0.2437
2119.000000 0.2421 0.2405 0.2390 0.2374 0.2359
2124.000000 0.2343 0.2325 0.2307 0.2288 0.2269
2129.000000 0.2250 0.2232 0.2214 0.2195 0.2176
2134.000000 0.2099 0.2019 0.1993 0.1968 0.1942
2139.000000 0.1917 0.1892 0.1866 0.1841 0.1816
2144.000000 0.1791 0.1766 0.1741 0.1716 0.1692
2149.000000 0.1667 0.1645 0.1627 0.1609 0.1590
2154.000000 0.1572 0.1555 0.1536 0.1518 0.1500
2159.000000 0.1483 0.1470 0.1458 0.1448 0.1438
2164.000000 0.1427 0.1416 0.1406 0.1396 0.1386
2169.000000 0.1376 0.1365 0.1355 0.1346 0.1340
2174.000000 0.1335 0.1330 0.1324 0.1319 0.1314
2179.000000 0.1309 0.1304 0.1299 0.1294 0.1289
2184.000000 0.1283 0.1278 0.1273 0.1268 0.1262
2189.000000 0.1257 0.1252 0.1247 0.1242 0.1236
2194.000000 0.1232 0.1228 0.1226 0.1223 0.1220
2199.000000 0.1217 0.1214 0.1211 0.1208 0.1205
2204.000000 0.1202 0.1199 0.1197 0.1194 0.1191
2209.000000 0.1188 0.1185 0.1182 0.1180 0.1178
2214.000000 0.1175 0.1173 0.1171 0.1169 0.1166
2219.000000 0.1164 0.1161 0.1159 0.1157 0.1155
2224.000000 0.1152 0.1150 0.1148 0.1145 0.1143
2229.000000 0.1141 0.1139 0.1136 0.1134 0.1131
2234.000000 0.1129 0.1125 0.1121 0.1117 0.1113
2239.000000 0.1109 0.1105 0.1101 0.1097 0.1093
2244.000000 0.1089 0.1085 0.1081 0.1077 0.1073
2249.000000 0.1069 0.1065 0.1061 0.1057 0.1054
2254.000000 0.1050 0.1046 0.1042 0.1038 0.1034
2259.000000 0.1030 0.1027 0.1023 0.1020 0.1017
2264.000000 0.1013 0.1010 0.1006 0.1003 0.1000
2269.000000 0.0996 0.0993 0.0989 0.0986 0.0983
2274.000000 0.0979 0.0976 0.0974 0.0972 0.0972
2279.000000 0.0971 0.0971 0.0971 0.0970 0.0970
2284.000000 0.0969 0.0969 0.0968 0.0967 0.0966
2289.000000 0.0966 0.0965 0.0965 0.0983 0.0967
2294.000000 0.0969 0.0971 0.0973 0.0975 0.0977
2299.000000 0.0979 0.0981 0.0983 0.0984 0.0986
2304.000000 0.0988 0.0990 0.0992 0.0994 0.0997
2309.000000 0.0999 0.1000 0.1003 0.1006 0.1009
2314.000000 0.1012 0.1015 0.1019 0.1023 0.1026
2319.000000 0.1030 0.1034 0.1038 0.1041 0.1045
2324.000000 0.1048 0.1052 0.1055 0.1059 0.1062
2329.000000 0.1066 0.1070 0.1074 0.1079 0.1084
2334.000000 0.1088 0.1093 0.1097 0.1102 0.1107
2339.000000 0.1111 0.1116 0.1121 0.1126 0.1130
2344.000000 0.1135 0.1140 0.1144 0.1149 0.1153
2349.000000 0.1158 0.1162 0.1167 0.1171 0.1176
2354.000000 0.1180 0.1185 0.1189 0.1194 0.1198
2359.000000 0.1203 0.1207 0.1210 0.1212 0.1214
2364.000000 0.1215 0.1217 0.1219 0.1221 0.1222
2369.000000 0.1224 0.1225 0.1225 0.1226 0.1226
2374.000000 0.1226 0.1226 0.1226 0.1226 0.1226
2379.000000 0.1227 0.1227 0.1227 0.1231 0.1235
2384.000000 0.1246 0.1261 0.1275 0.1289 0.1303
2389.000000 0.1317 0.1331 0.1359 0.1388 0.1418
2394.000000 0.1448 0.1485 0.1534 0.1592 0.1781
2399.000000 0.1971 0.2035 0.2061 0.2088 0.2114
2404.000000 0.2138 0.2158 0.2177 0.2191 0.2204
2409.000000 0.2217 0.2230 0.2243 0.2256 0.2270
2414.000000 0.2283 0.2296 0.2308 0.2321 0.2334
2419.000000 0.2347 0.2360 0.2373 0.2385 0.2398
2424.000000 0.2411 0.2424 0.2436 0.2448 0.2461
2429.000000 0.2474 0.2486 0.2498 0.2511 0.2523
2434.000000 0.2536 0.2548 0.2561 0.2577 0.2603
2439.000000 0.2628 0.2655 0.2682 0.2710 0.2737
2444.000000 0.2764 0.2792 0.2819 0.2848 0.2877
2449.000000 0.2906 0.2934 0.2963 0.2992 0.3021
2454.000000 0.3046 0.3067 0.3087 0.3104 0.3121
2459.000000 0.3138 0.3154 0.3169 0.3182 0.3195
2464.000000 0.3201 0.3208 0.3213 0.3219 0.3225
2469.000000 0.3231 0.3237 0.3243 0.3249 0.3254
2474.000000 0.3258 0.3262 0.3265 0.3268 0.3270
2479.000000 0.3273 0.3276 0.3279 0.3281 0.3283
2484.000000 0.3286 0.3288 0.3291 0.3293 0.3296
2489.000000 0.3298 0.3300 0.3303 0.3305 0.3308
2494.000000 0.3310 0.3312 0.3315 0.3317 0.3320
2499.000000 0.3322 0.3325 0.3327 0.3329 0.3333
2504.000000 0.3338 0.3342 0.3348 0.3353 0.3358
2509.000000 0.3364 0.3369 0.3375 0.3380 0.3386
2514.000000 0.3391 0.3396 0.3404 0.3412 0.3421
2519.000000 0.3430 0.3439 0.3448 0.3456 0.3465
2524.000000 0.3474 0.3483 0.3492 0.3501 0.3510
2529.000000 0.3518 0.3526 0.3532 0.3539 0.3545
2534.000000 0.3551 0.3557 0.3564 0.3570 0.3576
2539.000000 0.3582 0.3588 0.3595 0.3601 0.3607
2544.000000 0.3614 0.3621 0.3629 0.3644 0.3659
2549.000000 0.3674 0.3688 0.3702 0.3711 0.3720
2554.000000 0.3729 0.3737 0.3746 0.3754 0.3763
2559.000000 0.3772 0.3784 0.3795 0.3809 0.3824
2564.000000 0.3840 0.3855 0.3871 0.3887 0.3902
2569.000000 0.3918 0.3943 0.3974 0.4005 0.4093
2574.000000 0.4182 0.4262 0.4323 0.4384 0.4428
2579.000000 0.4465 0.4501 0.4517 0.4532 0.4548
2584.000000 0.4564 0.4580 0.4592 0.4603 0.4614
2589.000000 0.4621 0.4628 0.4636 0.4643 0.4650
2594.000000 0.4657 0.4664 0.4671 0.4679 0.4686
2599.000000 0.4693 0.4700 0.4707 0.4714 0.4721
2604.000000 0.4728 0.4737 0.4746 0.4755 0.4767
2609.000000 0.4780 0.4792 0.4804 0.4817 0.4829
2614.000000 0.4841 0.4853 0.4868 0.4883 0.4899
2619.000000 0.4920 0.4940 0.4960 0.4980 0.5000
2624.000000 0.5020 0.5040 0.5060 0.5084 0.5107
2629.000000 0.5130 0.5153 0.5176 0.5199 0.5223
2634.000000 0.5246 0.5269 0.5292 0.5315 0.5338
2639.000000 0.5361 0.5384 0.5406 0.5427 0.5449
2644.000000 0.5470 0.5492 0.5513 0.5534 0.5555
2649.000000 0.5576 0.5598 0.5619 0.5642 0.5664
2654.000000 0.5687 0.5711 0.5735 0.5759 0.5783
2659.000000 0.5807 0.5831 0.5854 0.5878 0.5901
2664.000000 0.5924 0.5947 0.5969 0.5991 0.6014
2669.000000 0.6034 0.6054 0.6073 0.6083 0.6093
2674.000000 0.6102 0.6112 0.6121 0.6131 0.6141
2679.000000 0.6150 0.6160 0.6169 0.6179 0.6188
2684.000000 0.6197 0.6206 0.6213 0.6219 0.6225
2689.000000 0.6231 0.6237 0.6243 0.6249 0.6255
2694.000000 0.6261 0.6267 0.6273 0.6279 0.6285
2699.000000 0.6291 0.6297 0.6303 0.6308 0.6314
2704.000000 0.6319 0.6324 0.6329 0.6333 0.6337
2709.000000 0.6341 0.6346 0.6350 0.6355 0.6359
2714.000000 0.6363 0.6365 0.6367 0.6368 0.6368
2719.000000 0.6368 0.6368 0.6368 0.6368 0.6368
2724.000000 0.6368 0.6368 0.6368 0.6367 0.6367
2729.000000 0.6367 0.6372 0.6380 0.6388 0.6418
2734.000000 0.6400 0.6406 0.6411 0.6416 0.6421
2739.000000 0.6424 0.6427 0.6429 0.6430 0.6430
2744.000000 0.6430 0.6429 0.6428 0.6427 0.6424
2749.000000 0.6421 0.6418 0.6415 0.6412 0.6409
2754.000000 0.6406 0.6403 0.6400 0.6395 0.6390
2759.000000 0.6385 0.6380 0.6374 0.6369 0.6364
2764.000000 0.6358 0.6353 0.6348 0.6343 0.6337
2769.000000 0.6332 0.6327 0.6322 0.6316 0.6309
2774.000000 0.6301 0.6294 0.6287 0.6280 0.6273
2779.000000 0.6266 0.6259 0.6252 0.6244 0.6237
2784.000000 0.6230 0.6223 0.6215 0.6208 0.6199
2789.000000 0.6190 0.6181 0.6172 0.6163 0.6154
2794.000000 0.6145 0.6136 0.6127 0.6118 0.6109
2799.000000 0.6100 0.6092 0.6083 0.6074 0.6064
2804.000000 0.6054 0.6044 0.6033 0.6018 0.6003
2809.000000 0.5988 0.5973 0.5958 0.5943 0.5928
2814.000000 0.5913 0.5898 0.5879 0.5858 0.5838
2819.000000 0.5816 0.5794 0.5771 0.5749 0.5728
2824.000000 0.5706 0.5684 0.5663 0.5642 0.5621
2829.000000 0.5599 0.5578 0.5557 0.5534 0.5511
2834.000000 0.5487 0.5458 0.5424 0.5389 0.5355
2839.000000 0.5320 0.5285 0.5251 0.5220 0.5189
2844.000000 0.5159 0.5128 0.5097 0.5066 0.5044
2849.000000 0.5027 0.5009 0.4993 0.4978 0.4963
2854.000000 0.4949 0.4934 0.4919 0.4905 0.4890
2859.000000 0.4876 0.4861 0.4847 0.4833 0.4819
2864.000000 0.4807 0.4799 0.4790 0.4782 0.4774
2869.000000 0.4766 0.4758 0.4750 0.4742 0.4734
2874.000000 0.4726 0.4718 0.4710 0.4703 0.4697
2879.000000 0.4692 0.4687 0.4681 0.4676 0.4671
2884.000000 0.4666 0.4660 0.4655 0.4650 0.4645
2889.000000 0.4639 0.4634 0.4629 0.4624 0.4618
2894.000000 0.4613 0.4608 0.4603 0.4598 0.4592
2899.000000 0.4587 0.4582 0.4577 0.4572 0.4567
2904.000000 0.4562 0.4559 0.4556 0.4553 0.4550
2909.000000 0.4547 0.4544 0.4541 0.4538 0.4535
2914.000000 0.4530 0.4520 0.4509 0.4499 0.4469
2919.000000 0.4435 0.4401 0.4368 0.4334 0.4300
2924.000000 0.4267 0.4233 0.4200 0.4166 0.4132
2929.000000 0.4099 0.4065 0.4032 0.3998 0.3964
2934.000000 0.3931 0.3897 0.3864 0.3831 0.3800
2939.000000 0.3777 0.3754 0.3732 0.3722 0.3716
2944.000000 0.3710 0.3705 0.3703 0.3701 0.3699
2949.000000 0.3698 0.3698 0.3698 0.3698 0.3698
2954.000000 0.3698 0.3698 0.3673 0.3798 0.3850
2959.000000 0.3906 0.3967 0.4028 0.4089 0.4150
2964.000000 0.4211 0.4271 0.4332 0.4393 0.4453
2969.000000 0.4514 0.4575 0.4635 0.4695 0.4756
2974.000000 0.4816 0.4877 0.4937 0.5133 0.5362
2979.000000 0.5590 0.5765 0.5788 0.5812 0.5836
2984.000000 0.5851 0.5863 0.5874 0.5886 0.5897
2989.000000 0.5907 0.5918 0.5924 0.5927 0.5930
2994.000000 0.5932 0.5935 0.5937 0.5940 0.5943
2999.000000 0.5945 0.5948 0.5951 0.5950 0.5948
3004.000000 0.5945 0.5943 0.5940 0.5937 0.5935
3009.000000 0.5930 0.5924 0.5918 0.5912 0.5906
3014.000000 0.5900 0.5894 0.5888 0.5881 0.5873
3019.000000 0.5866 0.5858 0.5850 0.5842 0.5834
3024.000000 0.5824 0.5814 0.5804 0.5795 0.5789
3029.000000 0.5783 0.5776 0.5774 0.5772 0.5771
3034.000000 0.5770 0.5771 0.5772 0.5773 0.5774
3039.000000 0.5777 0.5780 0.5783 0.5786 0.5791
3044.000000 0.5796 0.5800 0.5809 0.5818 0.5827
3049.000000 0.5837 0.5853 0.5869 0.5885 0.5903
3054.000000 0.5922 0.5940 0.5959 0.5980 0.6003
3059.000000 0.6025 0.6047 0.6069 0.6091 0.6113
3064.000000 0.6134 0.6156 0.6178 0.6200 0.6219
3069.000000 0.6236 0.6253 0.6270 0.6284 0.6297
3074.000000 0.6309 0.6322 0.6335 0.6347 0.6359
3079.000000 0.6372 0.6384 0.6397 0.6410 0.6422
3084.000000 0.6432 0.6443 0.6454 0.6463 0.6471
3089.000000 0.6479 0.6488 0.6496 0.6504 0.6512
3094.000000 0.6520 0.6528 0.6536 0.6544 0.6552
3099.000000 0.6556 0.6559 0.6563 0.6585 0.6568
3104.000000 0.6570 0.6572 0.6574 0.6577 0.6579
3109.000000 0.6581 0.6583 0.6585 0.6586 0.6588
3114.000000 0.6587 0.6586 0.6584 0.6583 0.6581
3119.000000 0.6580 0.6579 0.6578 0.6576 0.6575
3124.000000 0.6574 0.6573 0.6571 0.6569 0.6568
3129.000000 0.6566 0.6564 0.6561 0.6559 0.6556
3134.000000 0.6553 0.6550 0.6548 0.6545 0.6542
3139.000000 0.6539 0.6536 0.6533 0.6530 0.6527
3144.000000 0.6524 0.6521 0.6518 0.6515 0.6512
3149.000000 0.6509 0.6507 0.6504 0.6501 0.6498
3154.000000 0.6495 0.6492 0.6489 0.6486 0.6483
3159.000000 0.6480 0.6476 0.6473 0.6469 0.6466
3164.000000 0.6462 0.6459 0.6456 0.6453 0.6449
3169.000000 0.6446 0.6443 0.6440 0.6436 0.6433
3174.000000 0.6430 0.6426 0.6423 0.6419 0.6416
3179.000000 0.6413 0.6410 0.6406 0.6403 0.6400
3184.000000 0.6397 0.6394 0.6390 0.6387 0.6384
3189.000000 0.6381 0.6377 0.6373 0.6370 0.6366
3194.000000 0.6362 0.6359 0.6355 0.6351 0.6348
3199.000000 0.6344 0.6340 0.6337 0.6333 0.6329
3204.000000 0.6326 0.6322 0.6318 0.6315 0.6311
3209.000000 0.6307 0.6304 0.6300 0.6296 0.6293
3214.000000 0.6289 0.6286 0.6282 0.6278 0.6275
3219.000000 0.6271 0.6267 0.6264 0.6260 0.6257
3224.000000 0.6253 0.6249 0.6246 0.6242 0.6239
3229.000000 0.6235 0.6231 0.6228 0.6224 0.6220
3234.000000 0.6216 0.6212 0.6208 0.6203 0.6199
3239.000000 0.6195 0.6190 0.6186 0.6182 0.6178
3244.000000 0.6174 0.6170 0.6166 0.6161 0.6157
3249.000000 0.6153 0.6149 0.6144 0.6140 0.6136
3254.000000 0.6132 0.6127 0.6123 0.6119 0.6115
3259.000000 0.6110 0.6106 0.6102 0.6098 0.6093
3264.000000 0.6089 0.6085 0.6081 0.6077 0.6072
3269.000000 0.6068 0.6064 0.6060 0.6056 0.6052
3274.000000 0.6048 0.6044 0.6040 0.6036 0.6031
3279.000000 0.6027 0.6023 0.6019 0.6015 0.6010
3284.000000 0.6006 0.6002 0.5998 0.5994 0.5990
3289.000000 0.5985 0.5981 0.5975 0.5970 0.5965
3294.000000 0.5959 0.5950 0.5942 0.5933 0.5925
3299.000000 0.5916 0.5908 0.5899 0.5891 0.5882
3304.000000 0.5874 0.5865 0.5857 0.5848 0.5840
3309.000000 0.5832 0.5823 0.5815 0.5806 0.5798
3314.000000 0.5790 0.5782 0.5774 0.5765 0.5757
3319.000000 0.5748 0.5740 0.5732 0.5724 0.5715
3324.000000 0.5707 0.5699 0.5691 0.5683 0.5676
3329.000000 0.5668 0.5660 0.5651 0.5643 0.5635
3334.000000 0.5627 0.5619 0.5612 0.5604 0.5596
3339.000000 0.5588 0.5580 0.5572 0.5564 0.5556
3344.000000 0.5548 0.5540 0.5532 0.5524 0.5517
3349.000000 0.5509 0.5501 0.5493 0.5485 0.5478
3354.000000 0.5470 0.5462 0.5454 0.5447 0.5440
3359.000000 0.5433 0.5426 0.5420 0.5414 0.5408
3364.000000 0.5403 0.5397 0.5391 0.5385 0.5379
3369.000000 0.5373 0.5367 0.5361 0.5355 0.5349
3374.000000 0.5343 0.5338 0.5332 0.5326 0.5320
3379.000000 0.5314 0.5308 0.5302 0.5296 0.5290
3384.000000 0.5284 0.5278 0.5273 0.5267 0.5261
3389.000000 0.5255 0.5249 0.5243 0.5237 0.5234
3394.000000 0.5231 0.5228 0.5225 0.5223 0.5223
3399.000000 0.5223 0.5223 0.5223 0.5222 0.5222
3404.000000 0.5222 0.5222 0.5222 0.5222 0.5222
3409.000000 0.5222 0.5222 0.5222 0.5222 0.5222
3414.000000 0.5222 0.5222 0.5223 0.5224 0.5224
3419.000000 0.5225 0.5226 0.5226 0.5227 0.5227
3424.000000 0.5228 0.5229 0.5229 0.5230 0.5231
3429.000000 0.5231 0.5232 0.5233 0.5233 0.5234
3434.000000 0.5234 0.5235 0.5237 0.5238 0.5239
3439.000000 0.5240 0.5242 0.5243 0.5245 0.5247
3444.000000 0.5248 0.5250 0.5251 0.5253 0.5254
3449.000000 0.5256 0.5257 0.5259 0.5261 0.5262
3454.000000 0.5264 0.5265 0.5267 0.5268 0.5270
3459.000000 0.5271 0.5273 0.5275 0.5276 0.5278
3464.000000 0.5280 0.5281 0.5283 0.5285 0.5287
3469.000000 0.5289 0.5291 0.5294 0.5296 0.5298
3474.000000 0.5300 0.5302 0.5304 0.5306 0.5309
3479.000000 0.5311 0.5313 0.5315 0.5318 0.5320
3484.000000 0.5322 0.5324 0.5326 0.5328 0.5330
3489.000000 0.5333 0.5335 0.5337 0.5340 0.5343
3494.000000 0.5346 0.5349 0.5352 0.5356 0.5361
3499.000000 0.5365 0.5370 0.5375 0.5379 0.5384
3504.000000 0.5389 0.5394 0.5399 0.5404 0.5408
3509.000000 0.5413 0.5418 0.5422 0.5427 0.5432
3514.000000 0.5436 0.5441 0.5446 0.5450 0.5455
3519.000000 0.5460 0.5464 0.5469 0.5474 0.5479
3524.000000 0.5483 0.5488 0.5493 0.5498 0.5503
3529.000000 0.5508 0.5512 0.5517 0.5522 0.5527
3534.000000 0.5532 0.5537 0.5542 0.5547 0.5553
3539.000000 0.5558 0.5563 0.5568 0.5573 0.5578
3544.000000 0.5583 0.5588 0.5593 0.5598 0.5603
3549.000000 0.5608 0.5613 0.5618 0.5623 0.5628
3554.000000 0.5633 0.5638 0.5643 0.5648 0.5652
3559.000000 0.5657 0.5662 0.5667 0.5672 0.5676
3564.000000 0.5681 0.5685 0.5690 0.5694 0.5699
3569.000000 0.5703 0.5707 0.5712 0.5716 0.5720
3574.000000 0.5725 0.5729 0.5733 0.5737 0.5742
3579.000000 0.5746 0.5750 0.5755 0.5759 0.5763
3584.000000 0.5768 0.5772 0.5776 0.5780 0.5785
3589.000000 0.5789 0.5793 0.5797 0.5802 0.5806
3594.000000 0.5810 0.5814 0.5819 0.5823 0.5827
3599.000000 0.5831 0.5836 0.5840 0.5844 0.5848
3604.000000 0.5850 0.5853 0.5856 0.5859 0.5862
3609.000000 0.5864 0.5866 0.5868 0.5870 0.5872
3614.000000 0.5874 0.5876 0.5878 0.5880 0.5882
3619.000000 0.5884 0.5886 0.5888 0.5890 0.5892
3624.000000 0.5894 0.5896 0.5898 0.5900 0.5902
3629.000000 0.5903 0.5905 0.5906 0.5907 0.5909
3634.000000 0.5910 0.5910 0.5910 0.5910 0.5910
3639.000000 0.5910 0.5909 0.5909 0.5909 0.5909
3644.000000 0.5909 0.5909 0.5909 0.5909 0.5909
3649.000000 0.5909 0.5908 0.5908 0.5908 0.5908
3654.000000 0.5908 0.5908 0.5908 0.5908 0.5908
3659.000000 0.5908 0.5908 0.5907 0.5907 0.5907
3664.000000 0.5907 0.5907 0.5907 0.5907 0.5907
3669.000000 0.5907 0.5907 0.5907 0.5906 0.5906
3674.000000 0.5906 0.5906 0.5906 0.5905 0.5905
3679.000000 0.5905 0.5905 0.5905 0.5904 0.5904
3684.000000 0.5904 0.5903 0.5903 0.5903 0.5902
3689.000000 0.5902 0.5901 0.5900 0.5900 0.5906
3694.000000 0.5899 0.5899 0.5898 0.5898 0.5898
3699.000000 0.5897 0.5897 0.5896 0.5895 0.5895
3704.000000 0.5894 0.5894 0.5894 0.5893 0.5893
3709.000000 0.5893 0.5892 0.5892 0.5891 0.5890
3714.000000 0.5890 0.5889 0.5889 0.5889 0.5888
3719.000000 0.5888 0.5888 0.5887 0.5886 0.5885
3724.000000 0.5884 0.5883 0.5882 0.5881 0.5879
3729.000000 0.5877 0.5876 0.5874 0.5872 0.5871
3734.000000 0.5869 0.5868 0.5866 0.5864 0.5863
3739.000000 0.5861 0.5860 0.5858 0.5856 0.5855
3744.000000 0.5853 0.5852 0.5850 0.5848 0.5847
3749.000000 0.5845 0.5844 0.5842 0.5840 0.5839
3754.000000 0.5837 0.5836 0.5834 0.5833 0.5831
3759.000000 0.5830 0.5828 0.5827 0.5825 0.5823
3764.000000 0.5821 0.5820 0.5818 0.5816 0.5814
3769.000000 0.5813 0.5811 0.5809 0.5807 0.5806
3774.000000 0.5804 0.5802 0.5800 0.5798 0.5796
3779.000000 0.5795 0.5793 0.5791 0.5789 0.5787
3784.000000 0.5785 0.5784 0.5782 0.5780 0.5778
3789.000000 0.5777 0.5775 0.5773 0.5771 0.5770
3794.000000 0.5768 0.5766 0.5764 0.5762 0.5760
3799.000000 0.5758 0.5756 0.5755 0.5753 0.5751
3804.000000 0.5750 0.5748 0.5746 0.5744 0.5743
3809.000000 0.5741 0.5739 0.5737 0.5736 0.5734
3814.000000 0.5732 0.5730 0.5728 0.5726 0.5724
3819.000000 0.5723 0.5721 0.5719 0.5718 0.5716
3824.000000 0.5714 0.5712 0.5711 0.5709 0.5707
3829.000000 0.5706 0.5704 0.5702 0.5700 0.5698
3834.000000 0.5696 0.5694 0.5693 0.5691 0.5689
3839.000000 0.5688 0.5686 0.5684 0.5683 0.5681
3844.000000 0.5680 0.5678 0.5677 0.5675 0.5673
3849.000000 0.5672 0.5670 0.5668 0.5667 0.5665
3854.000000 0.5664 0.5662 0.5661 0.5659 0.5658
3859.000000 0.5656 0.5655 0.5653 0.5651 0.5650
3864.000000 0.5648 0.5647 0.5645 0.5643 0.5642
3869.000000 0.5640 0.5638 0.5637 0.5635 0.5634
3874.000000 0.5632 0.5631 0.5629 0.5628 0.5626
3879.000000 0.5625 0.5623 0.5622 0.5620 0.5619
3884.000000 0.5617 0.5616 0.5614 0.5612 0.5611
3889.000000 0.5609 0.5608 0.5606 0.5605 0.5603
3894.000000 0.5602 0.5600 0.5599 0.5597 0.5596
3899.000000 0.5594 0.5593 0.5591 0.5590 0.5588
3904.000000 0.5587 0.5585 0.5584 0.5582 0.5581
3909.000000 0.5579 0.5577 0.5576 0.5574 0.5573
3914.000000 0.5571 0.5570 0.5568 0.5567 0.5565
3919.000000 0.5564 0.5562 0.5560 0.5559 0.5557
3924.000000 0.5556 0.5554 0.5552 0.5550 0.5548
3929.000000 0.5546 0.5544 0.5542 0.5540 0.5538
3934.000000 0.5536 0.5534 0.5532 0.5531 0.5529
3939.000000 0.5527 0.5525 0.5523 0.5521 0.5519
3944.000000 0.5517 0.5515 0.5513 0.5511 0.5509
3949.000000 0.5507 0.5505 0.5504 0.5502 0.5500
3954.000000 0.5498 0.5496 0.5494 0.5492 0.5490
3959.000000 0.5488 0.5486 0.5484 0.5481 0.5480
3964.000000 0.5478 0.5476 0.5474 0.5472 0.5470
3969.000000 0.5468 0.5466 0.5464 0.5462 0.5460
3974.000000 0.5459 0.5457 0.5455 0.5453 0.5451
3979.000000 0.5449 0.5447 0.5445 0.5443 0.5442
3984.000000 0.5440 0.5438 0.5436 0.5434 0.5432
3989.000000 0.5430 0.5428 0.5426 0.5425 0.5423
3994.000000 0.5421 0.5419 0.5417 0.5415 0.5413
3999.000000 0.5411 0.5410
##END=
