##TITLE=CYCLOHEXANE-1,3-DIONE, 5,5-DIMETHYL-2-(3'-CARBETHOXYPROPYL)-
##JCAMP-DX=4.24
##DATA TYPE=INFRARED SPECTRUM
##CLASS=COBLENTZ III
##ORIGIN=SOUTHERN RESEARCH INSTITUTE
##OWNER=COBLENTZ SOCIETY
Collection (C) 2018 copyright by the U.S. Secretary of Commerce
on behalf of the United States of America. All rights reserved.
##DATE=1956/03/22
##NAMES=ethyl 4-(4,4-dimethyl-2,6-dioxocyclohexyl)butanoate
DIMEDONE, 2-(3'-CARBETHOXYPROPYL)-
##MOLFORM=C14 H22 O4
##MP=114 C
##SOURCE REFERENCE=COBLENTZ NO. 8317
##$NIST ID=B6008317
##$NIST SOURCE=COBLENTZ
##$NIST IMAGE=cob8317
##SPECTROMETER/DATA SYSTEM=PERKIN-ELMER 21 (GRATING)
##INSTRUMENT PARAMETERS=FILTER CHANGE AT 1070 CM^-^1
##STATE=SOLID (0.8 mg / 650 mg KBr DISC)
$$ PURITY - ANALYTICAL
##SAMPLING PROCEDURE=TRANSMISSION
##RESOLUTION=2
##DATA PROCESSING=DIGITIZED BY NIST FROM HARD COPY (FROM TWO SEGMENTS)
##XUNITS=1/CM
##YUNITS=TRANSMITTANCE
##XFACTOR=1.000000
##YFACTOR=1
##DELTAX=1.314352
##FIRSTX=694.852
##LASTX=4060.91
##FIRSTY=0.967
##MAXX=4060.91
##MINX=694.852
##MAXY=0.935
##MINY=0.00901137
##NPOINTS=2562
##XYDATA=(X++(Y..Y))
694.852000 0.9670 0.9640 0.9610 0.9590 0.9560
701.423762 0.9530 0.9510 0.9460 0.9420 0.9390
707.995525 0.9380 0.9360 0.9350 0.9320 0.9270
714.567287 0.9250 0.9230 0.9220 0.9190 0.9180
721.139050 0.9150 0.9070 0.8811 0.8760 0.8720
727.710812 0.8680 0.8501 0.8440 0.8440 0.8470
734.282575 0.8550 0.8570 0.8600 0.8610 0.8640
740.854337 0.8680 0.8690 0.8690 0.8690 0.8690
747.426099 0.8670 0.8600 0.8530 0.8440 0.8251
753.997862 0.8141 0.8060 0.8020 0.7921 0.7890
760.569624 0.7930 0.8110 0.8300 0.8499 0.8639
767.141387 0.8720 0.8730 0.8730 0.8720 0.8720
773.713149 0.8710 0.8690 0.8670 0.8640 0.8600
780.284912 0.8570 0.8560 0.8560 0.8530 0.8530
786.856674 0.8530 0.8530 0.8530 0.8530 0.8530
793.428437 0.8530 0.8530 0.8530 0.8530 0.8520
800.000199 0.8520 0.8520 0.8510 0.8480 0.8440
806.571961 0.8400 0.8281 0.8260 0.8270 0.8359
813.143724 0.8400 0.8440 0.8440 0.8460 0.8460
819.715486 0.8470 0.8470 0.8460 0.8440 0.8440
826.287249 0.8430 0.8430 0.8420 0.8420 0.8400
832.859011 0.8390 0.8360 0.8340 0.8320 0.8310
839.430774 0.8300 0.8260 0.8230 0.8060 0.7940
846.002536 0.7920 0.7811 0.7681 0.7611 0.7501
852.574298 0.7460 0.7400 0.7390 0.7390 0.7390
859.146061 0.7390 0.7390 0.7390 0.7380 0.7311
865.717823 0.7270 0.7230 0.7230 0.7150 0.7090
872.289586 0.6941 0.6841 0.6651 0.6481 0.6421
878.861348 0.6260 0.6150 0.6140 0.6170 0.6598
885.433111 0.6729 0.6750 0.6839 0.6999 0.7010
892.004873 0.7090 0.7130 0.7180 0.7220 0.7230
898.576636 0.7250 0.7260 0.7260 0.7270 0.7270
905.148398 0.7270 0.7250 0.7230 0.7190 0.7150
911.720160 0.7060 0.6971 0.6920 0.6851 0.6810
918.291923 0.6750 0.6750 0.6730 0.6730 0.6760
924.863685 0.7069 0.7547 0.7610 0.7729 0.7730
931.435448 0.7730 0.7730 0.7730 0.7730 0.7750
938.007210 0.7770 0.7800 0.7850 0.7890 0.7900
944.578973 0.7900 0.7920 0.7920 0.7900 0.7900
951.150735 0.7860 0.7850 0.7810 0.7770 0.7720
957.722497 0.7670 0.7590 0.7560 0.7480 0.7420
964.294260 0.7350 0.7280 0.7250 0.7111 0.7001
970.866022 0.6770 0.6230 0.6030 0.5840 0.5820
977.437785 0.5800 0.5810 0.5810 0.6376 0.6727
984.009547 0.6960 0.7530 0.7530 0.7520 0.7520
990.581310 0.7510 0.7440 0.7420 0.7380 0.7311
997.153072 0.7250 0.7180 0.7130 0.7090 0.7050
1003.724834 0.6960 0.6880 0.6781 0.6691 0.6531
1010.296597 0.6310 0.6090 0.5860 0.5631 0.5600
1016.868359 0.5500 0.5430 0.5420 0.5341 0.5191
1023.440122 0.4920 0.4730 0.4530 0.4310 0.4190
1030.011884 0.4180 0.4180 0.4180 0.4190 0.4378
1036.583647 0.4680 0.4710 0.5129 0.5519 0.6297
1043.155409 0.6459 0.6599 0.6600 0.6600 0.6600
1049.727172 0.6590 0.6550 0.6480 0.6380 0.6270
1056.298934 0.6170 0.6130 0.6070 0.5981 0.5891
1062.870696 0.5800 0.5710 0.5610 0.5520 0.5430
1069.442459 0.5072 0.4722 0.4551 0.3964 0.3603
1076.014221 0.3480 0.3360 0.3340 0.3350 0.3420
1082.585984 0.3729 0.4098 0.4279 0.4379 0.4390
1089.157746 0.4390 0.4390 0.4400 0.4440 0.4480
1095.729509 0.4560 0.4630 0.4709 0.4879 0.4959
1102.301271 0.4970 0.4970 0.4900 0.4820 0.4750
1108.873033 0.4591 0.4381 0.4132 0.3862 0.3612
1115.444796 0.3510 0.3400 0.3220 0.2462 0.1982
1122.016558 0.1512 0.1391 0.1320 0.1112 0.0892
1128.588321 0.0500 0.0310 0.0270 0.0270 0.0310
1135.160083 0.0509 0.0639 0.0710 0.1028 0.1338
1141.731846 0.1640 0.1940 0.2519 0.2919 0.3179
1148.303608 0.3807 0.3999 0.4139 0.4339 0.4459
1154.875371 0.4570 0.4570 0.4550 0.4430 0.4340
1161.447133 0.4270 0.4190 0.4180 0.4150 0.4150
1168.018895 0.4170 0.4170 0.4170 0.4170 0.4190
1174.590658 0.4230 0.4966 0.5089 0.5269 0.5458
1181.162420 0.5570 0.5670 0.5750 0.5770 0.5770
1187.734183 0.5760 0.5750 0.5730 0.5710 0.5650
1194.305945 0.5630 0.5600 0.5550 0.5530 0.5460
1200.877708 0.5360 0.5221 0.5101 0.5011 0.4901
1207.449470 0.4850 0.4800 0.4650 0.4550 0.4301
1214.021232 0.4001 0.3940 0.3612 0.3521 0.3431
1220.592995 0.3170 0.2920 0.2800 0.2750 0.2650
1227.164757 0.2630 0.2521 0.2311 0.2091 0.1882
1233.736520 0.1680 0.1480 0.1230 0.0970 0.0641
1240.308282 0.0391 0.0340 0.0320 0.0320 0.0320
1246.880045 0.0441 0.1060 0.1270 0.2418 0.2999
1253.451807 0.3060 0.3130 0.3170 0.3170 0.3071
1260.023570 0.2850 0.2600 0.2350 0.2230 0.2100
1266.595332 0.1851 0.1601 0.1391 0.1062 0.0723
1273.167094 0.0690 0.0710 0.0780 0.0850 0.1000
1279.738857 0.1110 0.1140 0.1478 0.2851 0.2860
1286.310619 0.2860 0.2860 0.2850 0.2720 0.2600
1292.882382 0.2480 0.2361 0.2251 0.1813 0.1066
1299.454144 0.0920 0.0760 0.0730 0.1010 0.1279
1306.025907 0.1559 0.1839 0.2387 0.2668 0.2938
1312.597669 0.3610 0.3680 0.3680 0.3640 0.3560
1319.169431 0.3480 0.3400 0.3141 0.2931 0.2781
1325.741194 0.2670 0.2530 0.2390 0.2310 0.2220
1332.312956 0.2001 0.1681 0.1600 0.1391 0.1172
1338.884719 0.1010 0.0750 0.0470 0.0400 0.0340
1345.456481 0.0280 0.0220 0.0220 0.0190 0.0210
1352.028244 0.0280 0.0360 0.0440 0.0520 0.0600
1358.600006 0.0710 0.0710 0.0710 0.0571 0.0510
1365.171768 0.0460 0.0420 0.0360 0.0260 0.0220
1371.743531 0.0190 0.0110 0.0090 0.0100 0.0130
1378.315293 0.0140 0.0170 0.0180 0.0280 0.0390
1384.887056 0.0500 0.0600 0.1058 0.1209 0.1498
1391.458818 0.1500 0.1590 0.1670 0.1750 0.1820
1398.030581 0.1900 0.2019 0.2020 0.1891 0.1652
1404.602343 0.1280 0.1090 0.1010 0.1010 0.1100
1411.174106 0.1419 0.1480 0.1629 0.1690 0.1750
1417.745868 0.1760 0.1770 0.1800 0.1820 0.1890
1424.317630 0.1970 0.2020 0.2348 0.2519 0.2689
1430.889393 0.2810 0.2860 0.2940 0.2960 0.2960
1437.461155 0.2960 0.2960 0.2970 0.2980 0.3010
1444.032918 0.3050 0.3070 0.3150 0.3210 0.3300
1450.604680 0.3569 0.3729 0.3770 0.3879 0.3900
1457.176443 0.3930 0.4000 0.4070 0.4150 0.4360
1463.748205 0.4380 0.4470 0.4589 0.5017 0.5149
1470.319967 0.5250 0.5300 0.5430 0.5460 0.5550
1476.891730 0.5690 0.5750 0.5780 0.5800 0.5810
1483.463492 0.5840 0.5860 0.5860 0.5860 0.5860
1490.035255 0.5860 0.5860 0.5850 0.5840 0.5810
1496.607017 0.5810 0.5780 0.5770 0.5421 0.5151
1503.178780 0.5130 0.5100 0.5070 0.4981 0.4930
1509.750542 0.4860 0.4780 0.4550 0.4230 0.3901
1516.322305 0.3691 0.3630 0.3560 0.3381 0.3102
1522.894067 0.2610 0.2340 0.2190 0.2030 0.1731
1529.465829 0.1431 0.1131 0.1060 0.0981 0.0841
1536.037592 0.0590 0.0350 0.0250 0.0210 0.0190
1542.609354 0.0210 0.0270 0.0340 0.0400 0.0470
1549.181117 0.0530 0.0600 0.0810 0.0810 0.0820
1555.752879 0.0820 0.0840 0.1009 0.1398 0.1589
1562.324642 0.1770 0.1930 0.2400 0.2480 0.2670
1568.896404 0.2839 0.3607 0.3710 0.3750 0.3879
1575.468166 0.4100 0.4230 0.4470 0.4600 0.4879
1582.039929 0.5089 0.5170 0.5379 0.5459 0.5529
1588.611691 0.5550 0.5720 0.5940 0.5960 0.6170
1595.183454 0.6260 0.6469 0.6480 0.6500 0.6510
1601.755216 0.6530 0.6550 0.6560 0.6560 0.6560
1608.326979 0.6560 0.6520 0.6480 0.6430 0.6380
1614.898741 0.6300 0.6140 0.6020 0.5900 0.5670
1621.470503 0.5510 0.5301 0.5021 0.5020 0.5030
1628.042266 0.5100 0.5220 0.5430 0.5630 0.5720
1634.614028 0.5890 0.6358 0.6479 0.6609 0.7047
1641.185791 0.7230 0.7440 0.7500 0.7570 0.7610
1647.757553 0.7640 0.7720 0.7730 0.7760 0.7770
1654.329316 0.7780 0.7780 0.7800 0.7800 0.7800
1660.901078 0.7780 0.7780 0.7780 0.7770 0.7760
1667.472841 0.7750 0.7750 0.7680 0.7550 0.7460
1674.044603 0.7350 0.7220 0.7101 0.7001 0.6901
1680.616365 0.6800 0.6730 0.6650 0.6180 0.6140
1687.188128 0.5891 0.5631 0.5520 0.5391 0.5261
1693.759890 0.5130 0.5000 0.4860 0.4800 0.4730
1700.331653 0.4600 0.4471 0.4341 0.3972 0.3672
1706.903415 0.3520 0.3380 0.3070 0.2780 0.2500
1713.475178 0.2071 0.1651 0.1361 0.1131 0.0882
1720.046940 0.0750 0.0630 0.0610 0.0630 0.1009
1726.618702 0.1190 0.1379 0.2664 0.2690 0.2968
1733.190465 0.3261 0.3820 0.4110 0.4400 0.5309
1739.762227 0.5340 0.5519 0.5719 0.6277 0.6300
1746.333990 0.6460 0.6610 0.6770 0.6900 0.7110
1752.905752 0.7170 0.7260 0.7310 0.7429 0.7509
1759.477515 0.7590 0.7650 0.7720 0.7760 0.7760
1766.049277 0.7800 0.7820 0.7920 0.7940 0.7980
1772.621040 0.8000 0.8050 0.8060 0.8070 0.8110
1779.192802 0.8130 0.8170 0.8210 0.8260 0.8270
1785.764564 0.8270 0.8280 0.8270 0.8280 0.8320
1792.336327 0.8360 0.8400 0.8420 0.8430 0.8440
1798.908089 0.8460 0.8470 0.8470 0.8480 0.8500
1805.479852 0.8510 0.8510 0.8520 0.8530 0.8550
1812.051614 0.8560 0.8560 0.8560 0.8570 0.8570
1818.623377 0.8590 0.8590 0.8590 0.8600 0.8600
1825.195139 0.8610 0.8610 0.8610 0.8630 0.8630
1831.766901 0.8630 0.8640 0.8640 0.8650 0.8650
1838.338664 0.8670 0.8670 0.8670 0.8670 0.8680
1844.910426 0.8690 0.8690 0.8690 0.8690 0.8690
1851.482189 0.8720 0.8720 0.8730 0.8730 0.8730
1858.053951 0.8730 0.8730 0.8730 0.8750 0.8750
1864.625714 0.8750 0.8750 0.8750 0.8750 0.8760
1871.197476 0.8760 0.8760 0.8770 0.8770 0.8780
1877.769239 0.8780 0.8800 0.8800 0.8810 0.8810
1884.341001 0.8810 0.8820 0.8850 0.8850 0.8880
1890.912763 0.8890 0.8900 0.8920 0.8930 0.8930
1897.484526 0.8940 0.8940 0.8940 0.8940 0.8940
1904.056288 0.8940 0.8940 0.8940 0.8940 0.8940
1910.628051 0.8940 0.8940 0.8940 0.8940 0.8940
1917.199813 0.8940 0.8940 0.8940 0.8940 0.8940
1923.771576 0.8940 0.8940 0.8940 0.8940 0.8960
1930.343338 0.8960 0.8960 0.8960 0.8960 0.8960
1936.915100 0.8970 0.8970 0.8970 0.8970 0.8970
1943.486863 0.8970 0.8970 0.8980 0.8980 0.8980
1950.058625 0.8980 0.9000 0.9000 0.9000 0.9000
1956.630388 0.9010 0.9010 0.9010 0.9010 0.9020
1963.202150 0.9020 0.9020 0.9020 0.9020 0.9020
1969.773913 0.9020 0.9020 0.9020 0.9020 0.9020
1976.345675 0.9020 0.9020 0.9020 0.9010 0.9010
1982.917437 0.9010 0.9010 0.9000 0.9000 0.8980
1989.489200 0.8980 0.8980 0.8980 0.8970 0.8970
1996.060962 0.8970 0.8970 0.8970 0.8970 0.8970
2002.632725 0.8970 0.8970 0.8970 0.8980 0.8980
2009.204487 0.8980 0.9000 0.9000 0.9000 0.9010
2015.776250 0.9010 0.9020 0.9020 0.9020 0.9020
2022.348012 0.9020 0.9020 0.9020 0.9010 0.9010
2028.919775 0.9010 0.9010 0.9010 0.9010 0.9000
2035.491537 0.9000 0.9000 0.9000 0.9000 0.9000
2042.063299 0.9000 0.9000 0.9000 0.9000 0.9000
2048.635062 0.9000 0.9000 0.9000 0.9000 0.9000
2055.206824 0.9000 0.9000 0.9000 0.9000 0.9000
2061.778587 0.9000 0.8981 0.8980 0.8980 0.8980
2068.350349 0.8980 0.8980 0.8980 0.8980 0.8971
2074.922112 0.8970 0.8970 0.8970 0.8970 0.8970
2081.493874 0.8970 0.8970 0.8961 0.8960 0.8960
2088.065636 0.8960 0.8960 0.8960 0.8941 0.8940
2094.637399 0.8940 0.8940 0.8940 0.8940 0.8940
2101.209161 0.8931 0.8930 0.8930 0.8930 0.8930
2107.780924 0.8921 0.8920 0.8902 0.8900 0.8891
2114.352686 0.8890 0.8881 0.8862 0.8860 0.8851
2120.924449 0.8850 0.8841 0.8840 0.8813 0.8810
2127.496211 0.8801 0.8800 0.8773 0.8770 0.8770
2134.067974 0.8761 0.8760 0.8760 0.8751 0.8750
2140.639736 0.8750 0.8732 0.8721 0.8720 0.8720
2147.211498 0.8711 0.8710 0.8692 0.8690 0.8673
2153.783261 0.8670 0.8653 0.8650 0.8641 0.8640
2160.355023 0.8631 0.8613 0.8610 0.8610 0.8601
2166.926786 0.8600 0.8600 0.8591 0.8590 0.8590
2173.498548 0.8573 0.8570 0.8570 0.8561 0.8560
2180.070311 0.8552 0.8550 0.8533 0.8521 0.8512
2186.642073 0.8510 0.8502 0.8483 0.8472 0.8462
2193.213835 0.8468 0.8462 0.8443 0.8423 0.8420
2199.785598 0.8403 0.8392 0.8382 0.8380 0.8363
2206.357360 0.8352 0.8342 0.8324 0.8320 0.8312
2212.929123 0.8302 0.8284 0.8272 0.8270 0.8262
2219.500885 0.8252 0.8226 0.8220 0.8212 0.8194
2226.072648 0.8190 0.8182 0.8172 0.8170 0.8154
2232.644410 0.8142 0.8140 0.8132 0.8106 0.8092
2239.216172 0.8074 0.8062 0.8036 0.8022 0.8012
2245.787935 0.7986 0.7964 0.7960 0.7944 0.7940
2252.359697 0.7932 0.7922 0.7920 0.7904 0.7892
2258.931460 0.7866 0.7852 0.7842 0.7824 0.7812
2265.503222 0.7802 0.7777 0.7762 0.7752 0.7735
2272.074985 0.7722 0.7697 0.7675 0.7670 0.7655
2278.646747 0.7642 0.7640 0.7632 0.7607 0.7577
2285.218510 0.7555 0.7527 0.7512 0.7487 0.7465
2291.790272 0.7437 0.7422 0.7405 0.7392 0.7367
2298.362034 0.7345 0.7295 0.7243 0.7185 0.7148
2304.933797 0.7110 0.7078 0.7070 0.7040 0.7008
2311.505559 0.6956 0.6925 0.6905 0.6893 0.6860
2318.077322 0.6843 0.6825 0.6805 0.6771 0.6738
2324.649084 0.6730 0.6723 0.6713 0.6688 0.6673
2331.220847 0.6648 0.6618 0.6603 0.6578 0.6556
2337.792609 0.6528 0.6520 0.6513 0.6503 0.6486
2344.364371 0.6480 0.6473 0.6463 0.6446 0.6440
2350.936134 0.6433 0.6409 0.6400 0.6393 0.6383
2357.507896 0.6366 0.6360 0.6353 0.6343 0.6326
2364.079659 0.6306 0.6300 0.6300 0.6286 0.6280
2370.651421 0.6280 0.6280 0.6273 0.6270 0.6263
2377.223184 0.6260 0.6239 0.6203 0.6183 0.6173
2383.794946 0.6170 0.6156 0.6150 0.6143 0.6140
2390.366709 0.6133 0.6103 0.6063 0.6030 0.6020
2396.938471 0.6013 0.5990 0.5953 0.5907 0.5857
2403.510233 0.5813 0.5774 0.5740 0.5717 0.5697
2410.081996 0.5664 0.5637 0.5591 0.5557 0.5537
2416.653758 0.5523 0.5494 0.5454 0.5407 0.5364
2423.225521 0.5318 0.5287 0.5267 0.5254 0.5237
2429.797283 0.5204 0.5164 0.5137 0.5111 0.5081
2436.369046 0.5057 0.5018 0.4949 0.4907 0.4887
2442.940808 0.4867 0.4854 0.4844 0.4827 0.4807
2449.512570 0.4787 0.4767 0.4754 0.4731 0.4714
2456.084333 0.4691 0.4674 0.4658 0.4644 0.4634
2462.656095 0.4618 0.4610 0.4610 0.4604 0.4600
2469.227858 0.4594 0.4578 0.4564 0.4554 0.4532
2475.799620 0.4520 0.4514 0.4504 0.4488 0.4474
2482.371383 0.4470 0.4464 0.4448 0.4434 0.4424
2488.943145 0.4420 0.4408 0.4394 0.4372 0.4360
2495.514908 0.4360 0.4354 0.4350 0.4350 0.4344
2502.086670 0.4340 0.4328 0.4320 0.4320 0.4314
2508.658432 0.4304 0.4300 0.4289 0.4280 0.4274
2515.230195 0.4264 0.4243 0.4224 0.4203 0.4184
2521.801957 0.4163 0.4139 0.4113 0.4100 0.4094
2528.373720 0.4079 0.4070 0.4064 0.4054 0.4039
2534.945482 0.4002 0.3974 0.3964 0.3943 0.3924
2541.517245 0.3903 0.3874 0.3855 0.3834 0.3815
2548.089007 0.3783 0.3755 0.3734 0.3720 0.3715
2554.660769 0.3710 0.3699 0.3685 0.3680 0.3675
2561.232532 0.3659 0.3650 0.3645 0.3635 0.3619
2567.804294 0.3610 0.3605 0.3600 0.3595 0.3590
2574.376057 0.3580 0.3560 0.3540 0.3520 0.3505
2580.947819 0.3484 0.3454 0.3435 0.3425 0.3410
2587.519582 0.3395 0.3385 0.3370 0.3360 0.3355
2594.091344 0.3350 0.3335 0.3320 0.3315 0.3310
2600.663106 0.3310 0.3310 0.3310 0.3305 0.3300
2607.234869 0.3300 0.3300 0.3300 0.3300 0.3300
2613.806631 0.3300 0.3290 0.3280 0.3280 0.3280
2620.378394 0.3280 0.3280 0.3280 0.3280 0.3280
2626.950156 0.3290 0.3300 0.3300 0.3305 0.3310
2633.521919 0.3310 0.3310 0.3315 0.3334 0.3355
2640.093681 0.3369 0.3385 0.3404 0.3425 0.3444
2646.665444 0.3460 0.3469 0.3489 0.3505 0.3515
2653.237206 0.3525 0.3539 0.3559 0.3579 0.3595
2659.808968 0.3605 0.3619 0.3635 0.3644 0.3663
2666.380731 0.3684 0.3703 0.3724 0.3739 0.3772
2672.952493 0.3818 0.3849 0.3869 0.3906 0.3953
2679.524256 0.3974 0.3989 0.4022 0.4054 0.4064
2686.096018 0.4083 0.4104 0.4136 0.4179 0.4207
2692.667781 0.4238 0.4254 0.4264 0.4274 0.4288
2699.239543 0.4308 0.4333 0.4350 0.4362 0.4384
2705.811305 0.4402 0.4424 0.4442 0.4464 0.4482
2712.383068 0.4508 0.4540 0.4586 0.4618 0.4634
2718.954830 0.4652 0.4678 0.4702 0.4732 0.4750
2725.526593 0.4754 0.4760 0.4764 0.4774 0.4792
2732.098355 0.4830 0.4868 0.4884 0.4902 0.4943
2738.670118 0.4999 0.5045 0.5082 0.5100 0.5104
2745.241880 0.5110 0.5110 0.5110 0.5110 0.5110
2751.813643 0.5110 0.5110 0.5110 0.5110 0.5110
2758.385405 0.5110 0.5110 0.5110 0.5110 0.5110
2764.957167 0.5110 0.5110 0.5106 0.5100 0.5096
2771.528930 0.5083 0.5070 0.5066 0.5056 0.5043
2778.100692 0.5026 0.5020 0.5002 0.4956 0.4927
2784.672455 0.4913 0.4900 0.4897 0.4880 0.4853
2791.244217 0.4830 0.4800 0.4780 0.4773 0.4746
2797.815980 0.4707 0.4670 0.4643 0.4623 0.4603
2804.387742 0.4583 0.4563 0.4543 0.4520 0.4477
2810.959504 0.4417 0.4380 0.4357 0.4350 0.4337
2817.531267 0.4297 0.4254 0.4204 0.4157 0.4111
2824.103029 0.4057 0.4014 0.3968 0.3924 0.3874
2830.674792 0.3821 0.3764 0.3711 0.3649 0.3588
2837.246554 0.3548 0.3493 0.3397 0.3308 0.3271
2843.818317 0.3241 0.3211 0.3184 0.3164 0.3150
2850.390079 0.3147 0.3140 0.3140 0.3140 0.3137
2856.961841 0.3130 0.3130 0.3124 0.3110 0.3110
2863.533604 0.3110 0.3110 0.3110 0.3110 0.3107
2870.105366 0.3097 0.3084 0.3067 0.3060 0.3052
2876.677129 0.3030 0.3014 0.2959 0.2927 0.2912
2883.248891 0.2890 0.2869 0.2807 0.2795 0.2777
2889.820654 0.2767 0.2752 0.2720 0.2675 0.2625
2896.392416 0.2595 0.2537 0.2482 0.2417 0.2370
2902.964179 0.2333 0.2303 0.2280 0.2278 0.2270
2909.535941 0.2270 0.2270 0.2270 0.2270 0.2270
2916.107703 0.2270 0.2270 0.2270 0.2270 0.2270
2922.679466 0.2270 0.2270 0.2270 0.2270 0.2270
2929.251228 0.2270 0.2270 0.2270 0.2272 0.2280
2935.822991 0.2280 0.2284 0.2302 0.2312 0.2324
2942.394753 0.2344 0.2364 0.2382 0.2392 0.2417
2948.966516 0.2495 0.2569 0.2651 0.2703 0.2762
2955.538278 0.2820 0.2874 0.2946 0.3022 0.3090
2962.110040 0.3182 0.3252 0.3348 0.3388 0.3424
2968.681803 0.3446 0.3495 0.3608 0.3650 0.3696
2975.253565 0.3726 0.3754 0.3785 0.3863 0.3929
2981.825328 0.3977 0.4014 0.4034 0.4052 0.4073
2988.397090 0.4134 0.4155 0.4189 0.4234 0.4260
2994.968853 0.4319 0.4367 0.4407 0.4445 0.4475
3001.540615 0.4503 0.4522 0.4533 0.4550 0.4550
3008.112378 0.4550 0.4550 0.4550 0.4550 0.4552
3014.684140 0.4558 0.4550 0.4552 0.4565 0.4593
3021.255902 0.4610 0.4610 0.4610 0.4614 0.4640
3027.827665 0.4640 0.4640 0.4640 0.4640 0.4640
3034.399427 0.4640 0.4640 0.4639 0.4631 0.4640
3040.971190 0.4640 0.4640 0.4640 0.4640 0.4641
3047.542952 0.4653 0.4667 0.4653 0.4671 0.4681
3054.114715 0.4690 0.4692 0.4711 0.4721 0.4732
3060.686477 0.4750 0.4751 0.4761 0.4771 0.4782
3067.258239 0.4800 0.4801 0.4811 0.4822 0.4840
3073.830002 0.4844 0.4881 0.4893 0.4921 0.4933
3080.401764 0.4961 0.4973 0.5000 0.5005 0.5054
3086.973527 0.5098 0.5174 0.5212 0.5232 0.5252
3093.545289 0.5271 0.5284 0.5324 0.5364 0.5402
3100.117052 0.5422 0.5442 0.5462 0.5480 0.5489
3106.688814 0.5591 0.5601 0.5615 0.5673 0.5713
3113.260577 0.5751 0.5775 0.5841 0.5863 0.5903
3119.832339 0.5941 0.5961 0.5981 0.6001 0.6011
3126.404101 0.6023 0.6067 0.6184 0.6252 0.6280
3132.975864 0.6281 0.6301 0.6310 0.6310 0.6311
3139.547626 0.6320 0.6322 0.6350 0.6351 0.6382
3146.119389 0.6420 0.6420 0.6430 0.6441 0.6460
3152.691151 0.6470 0.6480 0.6481 0.6500 0.6510
3159.262914 0.6520 0.6531 0.6560 0.6570 0.6571
3165.834676 0.6591 0.6611 0.6630 0.6640 0.6650
3172.406438 0.6651 0.6670 0.6670 0.6690 0.6710
3178.978201 0.6720 0.6730 0.6750 0.6760 0.6770
3185.549963 0.6780 0.6800 0.6810 0.6820 0.6840
3192.121726 0.6850 0.6860 0.6880 0.6890 0.6900
3198.693488 0.6920 0.6920 0.6930 0.6940 0.6960
3205.265251 0.6960 0.6970 0.6980 0.6980 0.7000
3211.837013 0.7000 0.7000 0.7010 0.7010 0.7010
3218.408775 0.7020 0.7020 0.7020 0.7030 0.7030
3224.980538 0.7050 0.7050 0.7060 0.7070 0.7070
3231.552300 0.7099 0.7110 0.7139 0.7150 0.7170
3238.124063 0.7180 0.7180 0.7190 0.7209 0.7210
3244.695825 0.7229 0.7249 0.7250 0.7260 0.7270
3251.267588 0.7270 0.7280 0.7299 0.7310 0.7310
3257.839350 0.7310 0.7310 0.7310 0.7310 0.7300
3264.411113 0.7300 0.7310 0.7310 0.7310 0.7310
3270.982875 0.7310 0.7310 0.7301 0.7300 0.7300
3277.554637 0.7300 0.7281 0.7280 0.7280 0.7280
3284.126400 0.7280 0.7280 0.7280 0.7271 0.7270
3290.698162 0.7270 0.7270 0.7261 0.7260 0.7260
3297.269925 0.7251 0.7250 0.7250 0.7250 0.7232
3303.841687 0.7230 0.7221 0.7220 0.7220 0.7211
3310.413450 0.7210 0.7192 0.7190 0.7181 0.7180
3316.985212 0.7171 0.7170 0.7152 0.7150 0.7141
3323.556974 0.7131 0.7130 0.7112 0.7101 0.7091
3330.128737 0.7072 0.7061 0.7051 0.7032 0.7030
3336.700499 0.7021 0.7011 0.7001 0.6982 0.6971
3343.272262 0.6961 0.6933 0.6930 0.6930 0.6921
3349.844024 0.6920 0.6920 0.6903 0.6900 0.6900
3356.415787 0.6891 0.6881 0.6863 0.6851 0.6841
3362.987549 0.6823 0.6811 0.6801 0.6783 0.6771
3369.559312 0.6753 0.6724 0.6711 0.6693 0.6681
3376.131074 0.6671 0.6653 0.6641 0.6631 0.6613
3382.702836 0.6593 0.6590 0.6573 0.6562 0.6552
3389.274599 0.6550 0.6533 0.6522 0.6512 0.6485
3395.846361 0.6480 0.6480 0.6472 0.6470 0.6470
3402.418124 0.6462 0.6460 0.6443 0.6440 0.6440
3408.989886 0.6440 0.6440 0.6440 0.6440 0.6456
3415.561649 0.6460 0.6460 0.6468 0.6478 0.6480
3422.133411 0.6480 0.6496 0.6500 0.6500 0.6500
3428.705173 0.6508 0.6526 0.6554 0.6568 0.6586
3435.276936 0.6622 0.6638 0.6664 0.6678 0.6688
3441.848698 0.6690 0.6706 0.6718 0.6728 0.6754
3448.420461 0.6768 0.6794 0.6808 0.6818 0.6836
3454.992223 0.6848 0.6850 0.6874 0.6888 0.6898
3461.563986 0.6932 0.6971 0.6996 0.7008 0.7018
3468.135748 0.7028 0.7053 0.7060 0.7060 0.7060
3474.707510 0.7068 0.7070 0.7070 0.7085 0.7090
3481.279273 0.7090 0.7098 0.7100 0.7131 0.7171
3487.851035 0.7188 0.7213 0.7243 0.7288 0.7308
3494.422798 0.7318 0.7343 0.7358 0.7383 0.7398
3500.994560 0.7423 0.7438 0.7455 0.7468 0.7470
3507.566323 0.7507 0.7542 0.7557 0.7582 0.7597
3514.138085 0.7630 0.7640 0.7647 0.7650 0.7665
3520.709848 0.7685 0.7712 0.7727 0.7745 0.7750
3527.281610 0.7757 0.7767 0.7777 0.7780 0.7802
3533.853372 0.7817 0.7834 0.7854 0.7882 0.7897
3540.425135 0.7900 0.7922 0.7937 0.7954 0.7967
3546.996897 0.7977 0.8001 0.8017 0.8041 0.8064
3553.568660 0.8084 0.8097 0.8107 0.8124 0.8130
3560.140422 0.8130 0.8137 0.8161 0.8177 0.8201
3566.712185 0.8217 0.8241 0.8250 0.8257 0.8288
3573.283947 0.8335 0.8371 0.8394 0.8414 0.8420
3579.855709 0.8427 0.8451 0.8474 0.8480 0.8494
3586.427472 0.8507 0.8517 0.8520 0.8540 0.8557
3592.999234 0.8580 0.8617 0.8644 0.8670 0.8687
3599.570997 0.8690 0.8710 0.8740 0.8757 0.8760
3606.142759 0.8767 0.8777 0.8793 0.8807 0.8817
3612.714522 0.8833 0.8847 0.8857 0.8860 0.8873
3619.286284 0.8880 0.8887 0.8890 0.8897 0.8913
3625.858047 0.8920 0.8926 0.8930 0.8936 0.8953
3632.429809 0.8960 0.8966 0.8970 0.8976 0.8993
3639.001571 0.9006 0.9016 0.9020 0.9026 0.9030
3645.573334 0.9030 0.9043 0.9050 0.9050 0.9056
3652.145096 0.9060 0.9060 0.9060 0.9066 0.9070
3658.716859 0.9082 0.9090 0.9102 0.9129 0.9140
3665.288621 0.9146 0.9168 0.9180 0.9186 0.9190
3671.860384 0.9190 0.9190 0.9190 0.9190 0.9190
3678.432146 0.9190 0.9190 0.9202 0.9210 0.9210
3685.003908 0.9216 0.9220 0.9220 0.9214 0.9216
3691.575671 0.9220 0.9226 0.9230 0.9248 0.9266
3698.147433 0.9270 0.9276 0.9280 0.9292 0.9300
3704.719196 0.9306 0.9310 0.9310 0.9310 0.9310
3711.290958 0.9310 0.9310 0.9310 0.9310 0.9310
3717.862721 0.9310 0.9310 0.9310 0.9310 0.9310
3724.434483 0.9310 0.9310 0.9310 0.9310 0.9310
3731.006246 0.9310 0.9310 0.9310 0.9310 0.9310
3737.578008 0.9310 0.9310 0.9310 0.9310 0.9310
3744.149770 0.9310 0.9310 0.9310 0.9310 0.9310
3750.721533 0.9310 0.9310 0.9310 0.9310 0.9310
3757.293295 0.9310 0.9310 0.9310 0.9310 0.9315
3763.865058 0.9320 0.9320 0.9320 0.9331 0.9340
3770.436820 0.9340 0.9340 0.9340 0.9340 0.9340
3777.008583 0.9340 0.9340 0.9340 0.9340 0.9340
3783.580345 0.9340 0.9340 0.9340 0.9340 0.9340
3790.152107 0.9340 0.9340 0.9340 0.9340 0.9340
3796.723870 0.9340 0.9340 0.9340 0.9340 0.9340
3803.295632 0.9340 0.9340 0.9340 0.9340 0.9340
3809.867395 0.9340 0.9340 0.9340 0.9340 0.9340
3816.439157 0.9340 0.9340 0.9340 0.9340 0.9340
3823.010920 0.9340 0.9340 0.9340 0.9340 0.9340
3829.582682 0.9340 0.9340 0.9340 0.9340 0.9340
3836.154444 0.9340 0.9340 0.9340 0.9340 0.9340
3842.726207 0.9340 0.9340 0.9340 0.9340 0.9340
3849.297969 0.9340 0.9340 0.9340 0.9340 0.9340
3855.869732 0.9340 0.9340 0.9340 0.9340 0.9340
3862.441494 0.9340 0.9340 0.9340 0.9340 0.9340
3869.013257 0.9340 0.9340 0.9340 0.9340 0.9340
3875.585019 0.9340 0.9340 0.9340 0.9340 0.9340
3882.156782 0.9340 0.9340 0.9340 0.9340 0.9340
3888.728544 0.9340 0.9340 0.9340 0.9340 0.9340
3895.300306 0.9340 0.9340 0.9340 0.9340 0.9340
3901.872069 0.9340 0.9340 0.9340 0.9340 0.9340
3908.443831 0.9340 0.9340 0.9340 0.9340 0.9340
3915.015594 0.9340 0.9340 0.9340 0.9340 0.9340
3921.587356 0.9340 0.9340 0.9340 0.9340 0.9340
3928.159119 0.9340 0.9340 0.9340 0.9340 0.9340
3934.730881 0.9340 0.9340 0.9340 0.9340 0.9340
3941.302643 0.9340 0.9344 0.9350 0.9350 0.9350
3947.874406 0.9350 0.9350 0.9350 0.9350 0.9350
3954.446168 0.9350 0.9350 0.9350 0.9350 0.9350
3961.017931 0.9350 0.9350 0.9350 0.9350 0.9350
3967.589693 0.9346 0.9340 0.9340 0.9340 0.9340
3974.161456 0.9340 0.9340 0.9340 0.9340 0.9340
3980.733218 0.9340 0.9333 0.9320 0.9320 0.9320
3987.304981 0.9320 0.9320 0.9320 0.9320 0.9320
3993.876743 0.9320 0.9320 0.9320 0.9320 0.9317
4000.448505 0.9310 0.9310 0.9310 0.9310 0.9310
4007.020268 0.9310 0.9310 0.9310 0.9310 0.9310
4013.592030 0.9307 0.9300 0.9300 0.9300 0.9300
4020.163793 0.9300 0.9300 0.9300 0.9300 0.9294
4026.735555 0.9280 0.9280 0.9280 0.9280 0.9280
4033.307318 0.9280 0.9277 0.9270 0.9270 0.9270
4039.879080 0.9270 0.9270 0.9270 0.9270 0.9270
4046.450842 0.9267 0.9260 0.9260 0.9260 0.9260
4053.022605 0.9260 0.9260 0.9260 0.9260 0.9260
4059.594367 0.9260 0.9260
##END=
