##TITLE=COBALTOUS OXALATE
##JCAMP-DX=4.24
##DATA TYPE=INFRARED SPECTRUM
##CLASS=COBLENTZ
##OWNER=COBLENTZ SOCIETY
Collection (C) 2018 copyright by the U.S. Secretary of Commerce
on behalf of the United States of America. All rights reserved.
##DATE=Not specified, most likely prior to 1970
##MOLFORM=Co C2 O4
##SOURCE REFERENCE=COBLENTZ NO. 62
##$NIST ID=B6000062
##$NIST SOURCE=COBLENTZ
##$NIST IMAGE=cob62
##SPECTROMETER/DATA SYSTEM=Not specified, most likely a prism, grating, or hybrid spectrometer.
##STATE=SOLID (KBr DISC)
##SAMPLING PROCEDURE=TRANSMISSION
##RESOLUTION=4
##DATA PROCESSING=DIGITIZED BY NIST FROM HARD COPY
##XUNITS=MICROMETERS
##YUNITS=TRANSMITTANCE
##XFACTOR=1.000000
##YFACTOR=1
##DELTAX=000.007614
##FIRSTX=2.02
##LASTX=15.0097
##FIRSTY=0.607
##MAXX=15.0097
##MINX=2.02
##MAXY=0.985
##MINY=0.055
##NPOINTS=1707
##XYDATA=(X++(Y..Y))
2.020000 0.6070 0.6070 0.6070 0.6080 0.6080
2.058093 0.6100 0.6110 0.6130 0.6130 0.6140
2.096000 0.6170 0.6170 0.6200 0.6220 0.6230
2.134093 0.6250 0.6260 0.6270 0.6290 0.6320
2.173000 0.6330 0.6350 0.6360 0.6380 0.6380
2.211093 0.6390 0.6390 0.6410 0.6410 0.6420
2.249000 0.6420 0.6440 0.6450 0.6470 0.6480
2.287093 0.6500 0.6510 0.6530 0.6540 0.6560
2.325000 0.6570 0.6590 0.6590 0.6600 0.6620
2.363093 0.6630 0.6650 0.6660 0.6660 0.6680
2.401000 0.6690 0.6710 0.6720 0.6720 0.6720
2.439093 0.6740 0.6750 0.6770 0.6800 0.6800
2.477000 0.6810 0.6810 0.6810 0.6830 0.6830
2.515093 0.6830 0.6830 0.6830 0.6840 0.6840
2.553000 0.6840 0.6840 0.6830 0.6830 0.6830
2.591093 0.6840 0.6840 0.6840 0.6860 0.6860
2.629000 0.6860 0.6870 0.6880 0.6880 0.6880
2.667093 0.6880 0.6880 0.6880 0.6880 0.6900
2.706000 0.6900 0.6900 0.6910 0.6900 0.6900
2.744093 0.6900 0.6880 0.6860 0.6800 0.6720
2.782000 0.6660 0.6540 0.6420 0.6290 0.6020
2.820093 0.5680 0.5110 0.5000 0.4880 0.4620
2.858000 0.4280 0.3940 0.3610 0.3510 0.3310
2.896093 0.3150 0.2940 0.2850 0.2630 0.2470
2.934000 0.2240 0.2020 0.1740 0.1540 0.1380
2.972093 0.1250 0.1220 0.1190 0.1190 0.1290
3.010000 0.1390 0.1660 0.1810 0.2060 0.2420
3.048093 0.2720 0.2930 0.3080 0.3280 0.3580
3.086000 0.3860 0.4030 0.4190 0.4310 0.4530
3.124093 0.4710 0.4860 0.5080 0.5190 0.5260
3.162000 0.5370 0.5400 0.5440 0.5530 0.5610
3.200093 0.5650 0.5720 0.5780 0.5900 0.5960
3.239000 0.5990 0.6080 0.6110 0.6250 0.6330
3.277093 0.6390 0.6450 0.6510 0.6570 0.6660
3.315000 0.6830 0.6870 0.6930 0.7000 0.7050
3.353093 0.7090 0.7120 0.7180 0.7210 0.7240
3.391000 0.7270 0.7300 0.7350 0.7380 0.7410
3.429093 0.7440 0.7450 0.7500 0.7520 0.7550
3.467000 0.7600 0.7660 0.7690 0.7730 0.7760
3.505093 0.7780 0.7810 0.7840 0.7870 0.7880
3.543000 0.7910 0.7930 0.7940 0.7960 0.7960
3.581093 0.7970 0.7970 0.7990 0.8000 0.8000
3.619000 0.8020 0.8030 0.8050 0.8060 0.8080
3.657093 0.8090 0.8090 0.8110 0.8120 0.8130
3.695000 0.8130 0.8160 0.8160 0.8180 0.8210
3.733093 0.8250 0.8270 0.8300 0.8310 0.8340
3.772000 0.8360 0.8370 0.8400 0.8420 0.8430
3.810093 0.8430 0.8430 0.8450 0.8450 0.8450
3.848000 0.8460 0.8460 0.8460 0.8460 0.8460
3.886093 0.8460 0.8480 0.8480 0.8480 0.8480
3.924000 0.8490 0.8490 0.8490 0.8510 0.8510
3.962093 0.8510 0.8510 0.8510 0.8510 0.8540
4.000000 0.8540 0.8540 0.8540 0.8540 0.8540
4.038093 0.8570 0.8580 0.8580 0.8570 0.8570
4.076000 0.8580 0.8580 0.8580 0.8580 0.8580
4.114093 0.8580 0.8580 0.8600 0.8600 0.8600
4.152000 0.8600 0.8600 0.8600 0.8600 0.8600
4.190093 0.8600 0.8600 0.8600 0.8600 0.8600
4.228000 0.8600 0.8600 0.8600 0.8600 0.8600
4.266093 0.8600 0.8600 0.8600 0.8600 0.8600
4.305000 0.8600 0.8600 0.8600 0.8600 0.8600
4.343093 0.8610 0.8610 0.8630 0.8640 0.8660
4.381000 0.8670 0.8690 0.8700 0.8720 0.8720
4.419093 0.8720 0.8720 0.8720 0.8730 0.8730
4.457000 0.8730 0.8730 0.8730 0.8730 0.8730
4.495093 0.8730 0.8730 0.8750 0.8750 0.8750
4.533000 0.8750 0.8730 0.8730 0.8730 0.8750
4.571093 0.8750 0.8750 0.8750 0.8750 0.8750
4.609000 0.8750 0.8750 0.8750 0.8750 0.8750
4.647093 0.8750 0.8750 0.8750 0.8750 0.8750
4.685000 0.8750 0.8750 0.8750 0.8750 0.8750
4.723093 0.8750 0.8750 0.8750 0.8750 0.8750
4.761000 0.8760 0.8770 0.8790 0.8800 0.8800
4.799093 0.8800 0.8800 0.8800 0.8800 0.8820
4.838000 0.8820 0.8830 0.8830 0.8850 0.8850
4.876093 0.8860 0.8860 0.8860 0.8860 0.8860
4.914000 0.8880 0.8880 0.8880 0.8880 0.8890
4.952093 0.8890 0.8910 0.8920 0.8940 0.8940
4.990000 0.8940 0.8950 0.8970 0.8970 0.8970
5.028093 0.8970 0.8970 0.8970 0.8980 0.8980
5.066000 0.9000 0.9000 0.9000 0.9000 0.9000
5.104093 0.9000 0.9000 0.9000 0.8980 0.8980
5.142000 0.8980 0.8980 0.8970 0.8970 0.8970
5.180093 0.8970 0.8970 0.8970 0.8970 0.8970
5.218000 0.8970 0.8970 0.8970 0.8970 0.8970
5.256093 0.8970 0.8970 0.8970 0.8970 0.8970
5.294000 0.8980 0.8980 0.8980 0.9000 0.9000
5.332093 0.9000 0.9000 0.9000 0.9010 0.9010
5.371000 0.9010 0.9010 0.9010 0.9010 0.9010
5.409093 0.9010 0.9010 0.9010 0.9010 0.9010
5.447000 0.9010 0.9010 0.9010 0.9010 0.9000
5.485093 0.9000 0.9000 0.9000 0.9010 0.9010
5.523000 0.9010 0.9010 0.9000 0.9000 0.9000
5.561093 0.9000 0.9000 0.9000 0.9000 0.9000
5.599000 0.8970 0.8950 0.8940 0.8910 0.8890
5.637093 0.8880 0.8880 0.8860 0.8830 0.8800
5.675000 0.8770 0.8750 0.8720 0.8700 0.8690
5.713093 0.8660 0.8640 0.8610 0.8570 0.8510
5.751000 0.8420 0.8390 0.8360 0.8250 0.7820
5.789093 0.7570 0.7440 0.7290 0.7140 0.7020
5.827000 0.6770 0.6410 0.6080 0.5860 0.5750
5.865093 0.5610 0.5490 0.5250 0.4980 0.4700
5.904000 0.4280 0.4030 0.3770 0.3610 0.3270
5.942093 0.2610 0.2330 0.2170 0.2030 0.1810
5.980000 0.1650 0.1440 0.1300 0.1160 0.1070
6.018093 0.1050 0.1010 0.0980 0.0900 0.0840
6.056000 0.0690 0.0660 0.0650 0.0650 0.0630
6.094093 0.0620 0.0610 0.0590 0.0580 0.0560
6.132000 0.0550 0.0550 0.0550 0.0550 0.0560
6.170093 0.0630 0.0840 0.1070 0.1360 0.1570
6.208000 0.1840 0.2080 0.2640 0.2880 0.3160
6.246093 0.3390 0.3630 0.3880 0.4190 0.4410
6.284000 0.4470 0.4670 0.4950 0.5290 0.5410
6.322093 0.5630 0.5870 0.6040 0.6140 0.6290
6.360000 0.6360 0.6510 0.6660 0.6710 0.6740
6.398093 0.6810 0.6860 0.6990 0.7140 0.7240
6.437000 0.7330 0.7390 0.7450 0.7480 0.7510
6.475093 0.7540 0.7570 0.7570 0.7610 0.7670
6.513000 0.7720 0.7810 0.7900 0.7900 0.7940
6.551093 0.7960 0.7970 0.7990 0.8050 0.8060
6.589000 0.8090 0.8120 0.8180 0.8190 0.8210
6.627093 0.8210 0.8220 0.8240 0.8270 0.8310
6.665000 0.8340 0.8360 0.8400 0.8430 0.8480
6.703093 0.8490 0.8510 0.8520 0.8550 0.8580
6.741000 0.8600 0.8600 0.8610 0.8610 0.8610
6.779093 0.8610 0.8610 0.8610 0.8610 0.8610
6.817000 0.8630 0.8610 0.8610 0.8610 0.8610
6.855093 0.8610 0.8630 0.8630 0.8630 0.8640
6.893000 0.8640 0.8640 0.8640 0.8630 0.8630
6.931093 0.8630 0.8630 0.8630 0.8630 0.8610
6.970000 0.8610 0.8610 0.8610 0.8610 0.8610
7.008093 0.8610 0.8610 0.8610 0.8630 0.8630
7.046000 0.8630 0.8630 0.8640 0.8640 0.8660
7.084093 0.8670 0.8690 0.8700 0.8700 0.8700
7.122000 0.8700 0.8720 0.8730 0.8730 0.8730
7.160093 0.8730 0.8730 0.8730 0.8730 0.8730
7.198000 0.8730 0.8730 0.8730 0.8730 0.8720
7.236093 0.8700 0.8660 0.8600 0.8490 0.8340
7.274000 0.8180 0.7990 0.7720 0.7360 0.6840
7.312093 0.6020 0.5530 0.5070 0.4910 0.4740
7.350000 0.4620 0.4560 0.4560 0.4620 0.4980
7.388093 0.5690 0.5930 0.6130 0.6250 0.6420
7.426000 0.6540 0.6600 0.6720 0.6750 0.6780
7.464093 0.6840 0.6870 0.6870 0.6900 0.6870
7.503000 0.6830 0.6630 0.6410 0.6190 0.5630
7.541093 0.5290 0.4940 0.4560 0.4150 0.3860
7.579000 0.3430 0.3310 0.3310 0.3390 0.3520
7.617093 0.3790 0.4070 0.4680 0.5350 0.5680
7.655000 0.5980 0.6190 0.6450 0.6680 0.6870
7.693093 0.7030 0.7170 0.7380 0.7480 0.7700
7.731000 0.7790 0.7900 0.8000 0.8090 0.8160
7.769093 0.8280 0.8360 0.8430 0.8520 0.8580
7.807000 0.8660 0.8720 0.8750 0.8790 0.8800
7.845093 0.8820 0.8860 0.8890 0.8940 0.8950
7.883000 0.8950 0.8970 0.8980 0.9010 0.9030
7.921093 0.9040 0.9060 0.9070 0.9070 0.9090
7.959000 0.9100 0.9120 0.9130 0.9130 0.9150
7.997093 0.9160 0.9180 0.9180 0.9190 0.9190
8.036000 0.9210 0.9220 0.9220 0.9220 0.9240
8.074093 0.9240 0.9240 0.9240 0.9240 0.9240
8.112000 0.9250 0.9250 0.9250 0.9250 0.9250
8.150093 0.9270 0.9270 0.9280 0.9280 0.9300
8.188000 0.9300 0.9300 0.9300 0.9300 0.9300
8.226093 0.9300 0.9300 0.9300 0.9300 0.9310
8.264000 0.9310 0.9310 0.9310 0.9330 0.9330
8.302093 0.9330 0.9340 0.9340 0.9360 0.9360
8.340000 0.9360 0.9360 0.9370 0.9370 0.9370
8.378093 0.9380 0.9380 0.9380 0.9380 0.9400
8.416000 0.9400 0.9400 0.9400 0.9400 0.9410
8.454093 0.9410 0.9410 0.9410 0.9410 0.9410
8.492000 0.9430 0.9430 0.9430 0.9440 0.9440
8.530093 0.9460 0.9460 0.9460 0.9460 0.9460
8.569000 0.9460 0.9460 0.9460 0.9460 0.9460
8.607093 0.9460 0.9460 0.9460 0.9460 0.9460
8.645000 0.9460 0.9460 0.9460 0.9460 0.9460
8.683093 0.9470 0.9470 0.9470 0.9490 0.9490
8.721000 0.9490 0.9490 0.9490 0.9490 0.9490
8.759093 0.9490 0.9500 0.9500 0.9500 0.9520
8.797000 0.9520 0.9530 0.9530 0.9530 0.9530
8.835093 0.9530 0.9530 0.9530 0.9530 0.9530
8.873000 0.9530 0.9530 0.9530 0.9530 0.9530
8.911093 0.9530 0.9550 0.9550 0.9550 0.9550
8.949000 0.9550 0.9550 0.9550 0.9550 0.9530
8.987093 0.9530 0.9530 0.9530 0.9550 0.9550
9.025000 0.9550 0.9550 0.9550 0.9550 0.9550
9.063093 0.9550 0.9560 0.9560 0.9560 0.9580
9.102000 0.9560 0.9560 0.9560 0.9560 0.9560
9.140093 0.9560 0.9580 0.9580 0.9580 0.9580
9.178000 0.9580 0.9580 0.9590 0.9590 0.9610
9.216093 0.9610 0.9610 0.9610 0.9620 0.9620
9.254000 0.9620 0.9620 0.9620 0.9620 0.9640
9.292093 0.9640 0.9640 0.9640 0.9640 0.9640
9.330000 0.9640 0.9640 0.9640 0.9650 0.9640
9.368093 0.9640 0.9640 0.9640 0.9650 0.9650
9.406000 0.9650 0.9650 0.9650 0.9650 0.9650
9.444093 0.9650 0.9650 0.9650 0.9650 0.9650
9.482000 0.9650 0.9650 0.9650 0.9650 0.9650
9.520093 0.9650 0.9650 0.9650 0.9650 0.9650
9.558000 0.9650 0.9650 0.9650 0.9650 0.9650
9.596093 0.9650 0.9650 0.9650 0.9650 0.9670
9.635000 0.9670 0.9670 0.9670 0.9670 0.9670
9.673093 0.9670 0.9670 0.9670 0.9670 0.9680
9.711000 0.9680 0.9680 0.9680 0.9680 0.9680
9.749093 0.9680 0.9680 0.9700 0.9700 0.9700
9.787000 0.9700 0.9700 0.9710 0.9710 0.9710
9.825093 0.9710 0.9710 0.9710 0.9710 0.9710
9.863000 0.9710 0.9710 0.9710 0.9710 0.9730
9.901093 0.9730 0.9730 0.9730 0.9740 0.9740
9.939000 0.9740 0.9740 0.9740 0.9740 0.9740
9.977093 0.9760 0.9760 0.9760 0.9770 0.9790
10.015000 0.9790 0.9790 0.9790 0.9790 0.9790
10.053093 0.9790 0.9790 0.9790 0.9790 0.9800
10.091000 0.9800 0.9800 0.9800 0.9800 0.9800
10.129093 0.9800 0.9800 0.9800 0.9800 0.9800
10.168000 0.9800 0.9800 0.9800 0.9820 0.9820
10.206093 0.9820 0.9820 0.9820 0.9800 0.9820
10.244000 0.9820 0.9820 0.9820 0.9820 0.9820
10.282093 0.9820 0.9820 0.9820 0.9820 0.9820
10.320000 0.9820 0.9820 0.9820 0.9820 0.9830
10.358093 0.9830 0.9830 0.9830 0.9830 0.9830
10.396000 0.9830 0.9830 0.9830 0.9830 0.9830
10.434093 0.9830 0.9830 0.9830 0.9830 0.9830
10.472000 0.9830 0.9830 0.9830 0.9830 0.9830
10.510093 0.9830 0.9830 0.9830 0.9830 0.9830
10.548000 0.9830 0.9830 0.9830 0.9830 0.9830
10.586093 0.9830 0.9830 0.9830 0.9850 0.9830
10.624000 0.9830 0.9830 0.9830 0.9830 0.9850
10.662093 0.9830 0.9830 0.9830 0.9830 0.9830
10.701000 0.9830 0.9830 0.9830 0.9830 0.9830
10.739093 0.9830 0.9830 0.9830 0.9830 0.9830
10.777000 0.9830 0.9830 0.9830 0.9830 0.9830
10.815093 0.9830 0.9830 0.9830 0.9830 0.9820
10.853000 0.9820 0.9820 0.9820 0.9800 0.9800
10.891093 0.9790 0.9790 0.9790 0.9770 0.9770
10.929000 0.9770 0.9760 0.9740 0.9730 0.9730
10.967093 0.9730 0.9730 0.9730 0.9710 0.9710
11.005000 0.9710 0.9710 0.9710 0.9710 0.9710
11.043093 0.9710 0.9710 0.9710 0.9700 0.9700
11.081000 0.9710 0.9710 0.9710 0.9710 0.9700
11.119093 0.9700 0.9710 0.9710 0.9710 0.9700
11.157000 0.9700 0.9700 0.9700 0.9680 0.9680
11.195093 0.9670 0.9670 0.9670 0.9650 0.9650
11.234000 0.9650 0.9650 0.9650 0.9650 0.9650
11.272093 0.9650 0.9650 0.9650 0.9650 0.9650
11.310000 0.9640 0.9640 0.9620 0.9620 0.9610
11.348093 0.9610 0.9610 0.9610 0.9610 0.9590
11.386000 0.9590 0.9580 0.9560 0.9560 0.9550
11.424093 0.9530 0.9520 0.9520 0.9500 0.9500
11.462000 0.9500 0.9490 0.9490 0.9470 0.9440
11.500093 0.9440 0.9430 0.9430 0.9410 0.9400
11.538000 0.9380 0.9370 0.9360 0.9310 0.9310
11.576093 0.9280 0.9270 0.9240 0.9220 0.9210
11.614000 0.9180 0.9160 0.9130 0.9120 0.9090
11.652093 0.9070 0.9030 0.9010 0.8980 0.8950
11.690000 0.8940 0.8920 0.8890 0.8880 0.8830
11.728093 0.8770 0.8750 0.8690 0.8660 0.8640
11.766000 0.8610 0.8600 0.8510 0.8460 0.8370
11.804093 0.8330 0.8270 0.8190 0.8150 0.8110
11.843000 0.8000 0.7910 0.7820 0.7730 0.7630
11.881093 0.7550 0.7410 0.7350 0.7260 0.7180
11.919000 0.7140 0.7020 0.6970 0.6880 0.6810
11.957093 0.6750 0.6650 0.6560 0.6470 0.6410
11.995000 0.6290 0.6230 0.6170 0.6100 0.6050
12.033093 0.6010 0.5920 0.5870 0.5800 0.5750
12.071000 0.5710 0.5660 0.5650 0.5650 0.5630
12.109093 0.5630 0.5630 0.5630 0.5630 0.5630
12.147000 0.5650 0.5650 0.5680 0.5770 0.5810
12.185093 0.5870 0.5920 0.5980 0.6070 0.6130
12.223000 0.6170 0.6200 0.6230 0.6270 0.6320
12.261093 0.6390 0.6440 0.6470 0.6540 0.6600
12.299000 0.6660 0.6720 0.6770 0.6830 0.6840
12.337093 0.6870 0.6910 0.6970 0.6990 0.7030
12.376000 0.7080 0.7110 0.7110 0.7120 0.7140
12.414093 0.7170 0.7170 0.7180 0.7180 0.7200
12.452000 0.7200 0.7210 0.7210 0.7210 0.7210
12.490093 0.7230 0.7230 0.7230 0.7240 0.7240
12.528000 0.7240 0.7260 0.7260 0.7260 0.7260
12.566093 0.7260 0.7260 0.7260 0.7260 0.7260
12.604000 0.7260 0.7260 0.7260 0.7260 0.7260
12.642093 0.7260 0.7260 0.7260 0.7260 0.7260
12.680000 0.7260 0.7260 0.7260 0.7260 0.7260
12.718093 0.7260 0.7260 0.7260 0.7260 0.7260
12.756000 0.7260 0.7260 0.7260 0.7260 0.7260
12.794093 0.7260 0.7260 0.7260 0.7260 0.7260
12.832000 0.7260 0.7260 0.7260 0.7260 0.7260
12.870093 0.7270 0.7270 0.7270 0.7270 0.7260
12.909000 0.7260 0.7260 0.7260 0.7260 0.7260
12.947093 0.7260 0.7260 0.7260 0.7240 0.7240
12.985000 0.7240 0.7260 0.7260 0.7260 0.7260
13.023093 0.7260 0.7240 0.7260 0.7260 0.7260
13.061000 0.7260 0.7260 0.7240 0.7240 0.7240
13.099093 0.7240 0.7240 0.7230 0.7230 0.7210
13.137000 0.7210 0.7200 0.7200 0.7200 0.7180
13.175093 0.7180 0.7180 0.7180 0.7180 0.7170
13.213000 0.7170 0.7150 0.7150 0.7150 0.7140
13.251093 0.7140 0.7140 0.7140 0.7140 0.7120
13.289000 0.7120 0.7120 0.7120 0.7110 0.7110
13.327093 0.7110 0.7110 0.7110 0.7110 0.7110
13.365000 0.7090 0.7090 0.7090 0.7090 0.7090
13.403093 0.7090 0.7090 0.7090 0.7090 0.7090
13.442000 0.7090 0.7110 0.7110 0.7110 0.7110
13.480093 0.7120 0.7120 0.7120 0.7120 0.7120
13.518000 0.7120 0.7140 0.7140 0.7140 0.7140
13.556093 0.7140 0.7140 0.7140 0.7150 0.7150
13.594000 0.7150 0.7170 0.7180 0.7180 0.7180
13.632093 0.7180 0.7180 0.7200 0.7210 0.7210
13.670000 0.7210 0.7230 0.7240 0.7240 0.7260
13.708093 0.7270 0.7270 0.7270 0.7270 0.7290
13.746000 0.7290 0.7300 0.7320 0.7330 0.7330
13.784093 0.7330 0.7350 0.7350 0.7360 0.7360
13.822000 0.7380 0.7380 0.7380 0.7390 0.7390
13.860093 0.7390 0.7410 0.7410 0.7410 0.7410
13.898000 0.7410 0.7410 0.7410 0.7420 0.7440
13.936093 0.7450 0.7470 0.7480 0.7500 0.7500
13.975000 0.7500 0.7500 0.7510 0.7510 0.7510
14.013093 0.7510 0.7510 0.7510 0.7510 0.7520
14.051000 0.7520 0.7520 0.7520 0.7520 0.7540
14.089093 0.7540 0.7550 0.7550 0.7550 0.7550
14.127000 0.7550 0.7550 0.7550 0.7570 0.7570
14.165093 0.7570 0.7570 0.7570 0.7570 0.7570
14.203000 0.7580 0.7580 0.7580 0.7600 0.7600
14.241093 0.7600 0.7610 0.7610 0.7610 0.7610
14.279000 0.7610 0.7610 0.7610 0.7630 0.7630
14.317093 0.7630 0.7630 0.7630 0.7640 0.7640
14.355000 0.7640 0.7640 0.7640 0.7660 0.7660
14.393093 0.7660 0.7660 0.7660 0.7660 0.7660
14.431000 0.7640 0.7640 0.7660 0.7660 0.7660
14.469093 0.7660 0.7670 0.7670 0.7670 0.7670
14.508000 0.7670 0.7690 0.7690 0.7690 0.7690
14.546093 0.7690 0.7690 0.7690 0.7670 0.7670
14.584000 0.7670 0.7670 0.7670 0.7670 0.7670
14.622093 0.7670 0.7670 0.7670 0.7670 0.7670
14.660000 0.7670 0.7670 0.7670 0.7670 0.7670
14.698093 0.7670 0.7690 0.7690 0.7690 0.7670
14.736000 0.7670 0.7670 0.7670 0.7670 0.7670
14.774093 0.7670 0.7670 0.7660 0.7660 0.7660
14.812000 0.7660 0.7670 0.7670 0.7670 0.7670
14.850093 0.7670 0.7670 0.7670 0.7670 0.7660
14.888000 0.7660 0.7660 0.7660 0.7660 0.7660
14.926093 0.7660 0.7660 0.7670 0.7670 0.7670
14.964000 0.7670 0.7670 0.7670 0.7690 0.7700
15.002093 0.7700 0.7700
##END=
