##TITLE=Benzenamine, 2-chloro-N-(1',1'-dimethylpropyl)-
##JCAMP-DX=4.24
##DATA TYPE=INFRARED SPECTRUM
##CLASS=COBLENTZ III
##ORIGIN=MONSANTO (J. FREEMAN)
##OWNER=Copyright (C) 1987 by the Coblentz Society
Collection (C) 2018 copyright by the U.S. Secretary of Commerce
on behalf of the United States of America. All rights reserved.
##DATE=1959/12/30
##NAMES=N-(2-chlorophenyl)-N-(tert-pentyl)amine
2-chloro-N-(tert-pentyl)aniline
##MOLFORM=C11 H16 Cl N
##SOURCE REFERENCE=COBLENTZ NO. 9278
##$NIST ID=B6009278
##$NIST SOURCE=COBLENTZ
##$NIST IMAGE=cob9278
##SPECTROMETER/DATA SYSTEM=BECKMAN IR-4 (HYBRID PRISM-GRATING)
##INSTRUMENT PARAMETERS=NaCl PRISM
##STATE=LIQUID (NEAT)
##PATH LENGTH=CAPILLARY
##SAMPLING PROCEDURE=TRANSMISSION
##RESOLUTION=2
##DATA PROCESSING=DIGITIZED BY COBLENTZ SOCIETY (BATCH II) FROM HARD COPY
##XUNITS=1/CM
##YUNITS=TRANSMITTANCE
##XFACTOR=1.0
##YFACTOR=1
##FIRSTX=627
##LASTX=4000
##FIRSTY=0.7839
##MAXX=4000
##MINX=627
##MAXY=0.9187
##MINY=0.0751
##NPOINTS=3374
##XYDATA=(X++(Y..Y))
627.000000 0.7839 0.7865 0.7887 0.7917 0.7951
632.000000 0.7990 0.8038 0.8090 0.8136 0.8171
637.000000 0.8190 0.8194 0.8188 0.8192 0.8216
642.000000 0.8228 0.8233 0.8250 0.8209 0.8191
647.000000 0.8171 0.8151 0.8131 0.8110 0.8102
652.000000 0.8104 0.8109 0.8139 0.8185 0.8164
657.000000 0.8109 0.8025 0.7939 0.7856 0.7777
662.000000 0.7701 0.7628 0.7560 0.7503 0.7467
667.000000 0.7447 0.7449 0.7473 0.7404 0.7309
672.000000 0.7214 0.7119 0.7024 0.6929 0.6835
677.000000 0.6741 0.6648 0.6555 0.6462 0.6406
682.000000 0.6373 0.6239 0.6045 0.5802 0.5566
687.000000 0.5362 0.5152 0.4939 0.4730 0.4527
692.000000 0.4310 0.4124 0.4081 0.4116 0.4154
697.000000 0.4264 0.4463 0.4662 0.4960 0.5225
702.000000 0.5408 0.5573 0.5706 0.5797 0.5854
707.000000 0.5887 0.5900 0.5920 0.5937 0.5929
712.000000 0.5947 0.5851 0.5863 0.5851 0.5835
717.000000 0.5805 0.5767 0.5726 0.5656 0.5556
722.000000 0.5421 0.5282 0.5136 0.4942 0.4696
727.000000 0.4408 0.4055 0.3703 0.3353 0.3003
732.000000 0.2655 0.2307 0.1780 0.1155 0.1008
737.000000 0.0913 0.0842 0.0806 0.0782 0.0795
742.000000 0.0798 0.0823 0.0867 0.0933 0.1056
747.000000 0.1244 0.1454 0.1632 0.1808 0.1984
752.000000 0.2159 0.2387 0.2887 0.3251 0.3474
757.000000 0.3763 0.4094 0.4448 0.4808 0.5196
762.000000 0.5515 0.5777 0.5995 0.6181 0.6292
767.000000 0.6388 0.6441 0.6494 0.6540 0.6578
772.000000 0.6601 0.6612 0.6622 0.6609 0.6595
777.000000 0.6555 0.6505 0.6435 0.6350 0.6217
782.000000 0.6081 0.5980 0.5908 0.5895 0.5928
787.000000 0.6016 0.6150 0.6324 0.6497 0.6669
792.000000 0.6837 0.6942 0.7044 0.7139 0.7219
797.000000 0.7288 0.7358 0.7436 0.7525 0.7610
802.000000 0.7666 0.7714 0.7753 0.7782 0.7807
807.000000 0.7831 0.7848 0.7865 0.7873 0.7882
812.000000 0.7902 0.7942 0.7958 0.7961 0.7934
817.000000 0.7912 0.7895 0.7894 0.7901 0.7911
822.000000 0.7919 0.7923 0.7921 0.7912 0.7901
827.000000 0.7887 0.7867 0.7824 0.7775 0.7712
832.000000 0.7643 0.7570 0.7490 0.7408 0.7398
837.000000 0.7401 0.7441 0.7501 0.7561 0.7625
842.000000 0.7702 0.7807 0.7904 0.7985 0.8056
847.000000 0.8109 0.8156 0.8194 0.8234 0.8277
852.000000 0.8330 0.8380 0.8418 0.8461 0.8513
857.000000 0.8554 0.8588 0.8622 0.8651 0.8680
862.000000 0.8715 0.8723 0.8724 0.8725 0.8726
867.000000 0.8728 0.8732 0.8736 0.8740 0.8743
872.000000 0.8745 0.8746 0.8757 0.8746 0.8740
877.000000 0.8734 0.8727 0.8720 0.8713 0.8707
882.000000 0.8700 0.8694 0.8688 0.8679 0.8671
887.000000 0.8662 0.8654 0.8646 0.8637 0.8625
892.000000 0.8610 0.8594 0.8572 0.8546 0.8521
897.000000 0.8471 0.8415 0.8352 0.8287 0.8210
902.000000 0.8116 0.8006 0.7971 0.7979 0.7924
907.000000 0.8038 0.8073 0.8121 0.8209 0.8310
912.000000 0.8336 0.8335 0.8334 0.8307 0.8191
917.000000 0.8050 0.7874 0.7432 0.7105 0.6949
922.000000 0.6832 0.6763 0.6738 0.6712 0.6785
927.000000 0.6870 0.6944 0.7168 0.7342 0.7488
932.000000 0.7612 0.7723 0.7824 0.7920 0.8012
937.000000 0.8093 0.8163 0.8229 0.8272 0.8314
942.000000 0.8341 0.8358 0.8375 0.8387 0.8394
947.000000 0.8400 0.8362 0.8394 0.8378 0.8359
952.000000 0.8335 0.8301 0.8262 0.8212 0.8155
957.000000 0.8073 0.7978 0.7891 0.7792 0.7688
962.000000 0.7582 0.7475 0.7367 0.7251 0.7136
967.000000 0.6983 0.6813 0.6557 0.6249 0.5880
972.000000 0.5658 0.5565 0.5508 0.5623 0.5715
977.000000 0.5846 0.6201 0.6372 0.6506 0.6685
982.000000 0.6812 0.6885 0.6934 0.6957 0.6971
987.000000 0.6968 0.6942 0.6901 0.6871 0.6851
992.000000 0.6850 0.6904 0.7014 0.7140 0.7334
997.000000 0.7427 0.7444 0.7449 0.7434 0.7370
1002.000000 0.7229 0.7057 0.6874 0.6726 0.6552
1007.000000 0.6400 0.6240 0.6202 0.6163 0.6254
1012.000000 0.6423 0.6589 0.6655 0.6689 0.6697
1017.000000 0.6696 0.6682 0.6643 0.6500 0.6263
1022.000000 0.6026 0.5791 0.5574 0.5474 0.5398
1027.000000 0.5307 0.5195 0.4906 0.4570 0.4132
1032.000000 0.3212 0.2720 0.2228 0.1738 0.1253
1037.000000 0.1198 0.1409 0.1817 0.2226 0.2632
1042.000000 0.3039 0.3444 0.3849 0.4395 0.4409
1047.000000 0.4274 0.4055 0.3836 0.3618 0.3400
1052.000000 0.3183 0.3023 0.3008 0.3444 0.3783
1057.000000 0.4123 0.4461 0.4799 0.5137 0.5474
1062.000000 0.5583 0.5570 0.5435 0.5278 0.5122
1067.000000 0.4966 0.4783 0.4800 0.5010 0.5283
1072.000000 0.5555 0.5827 0.6121 0.6285 0.6408
1077.000000 0.6555 0.6775 0.6970 0.7142 0.7329
1082.000000 0.7460 0.7591 0.7726 0.7819 0.7903
1087.000000 0.7968 0.8027 0.8055 0.8063 0.8068
1092.000000 0.8070 0.8072 0.8074 0.8075 0.8083
1097.000000 0.8105 0.8145 0.8189 0.8226 0.8263
1102.000000 0.8295 0.8323 0.8351 0.8373 0.8389
1107.000000 0.8404 0.8419 0.8431 0.8441 0.8452
1112.000000 0.8469 0.8451 0.8422 0.8377 0.8320
1117.000000 0.8257 0.8185 0.8102 0.7936 0.7805
1122.000000 0.7705 0.7546 0.7168 0.6777 0.6387
1127.000000 0.5998 0.5609 0.5241 0.5077 0.5028
1132.000000 0.4998 0.5169 0.5411 0.5653 0.5894
1137.000000 0.6135 0.6375 0.6615 0.6854 0.7015
1142.000000 0.7118 0.7206 0.7284 0.7344 0.7393
1147.000000 0.7436 0.7466 0.7474 0.7480 0.7475
1152.000000 0.7470 0.7456 0.7434 0.7389 0.7227
1157.000000 0.6994 0.6760 0.6528 0.6296 0.6064
1162.000000 0.5833 0.5606 0.5428 0.5268 0.5221
1167.000000 0.5195 0.5175 0.5158 0.5140 0.5030
1172.000000 0.4706 0.4601 0.4509 0.4415 0.4314
1177.000000 0.4215 0.4101 0.3871 0.3630 0.3363
1182.000000 0.3100 0.2959 0.2931 0.2920 0.2910
1187.000000 0.2904 0.2897 0.2892 0.2890 0.2888
1192.000000 0.2884 0.2880 0.2874 0.2847 0.2659
1197.000000 0.2506 0.2296 0.2207 0.2179 0.2204
1202.000000 0.2210 0.2313 0.2421 0.2529 0.2637
1207.000000 0.2744 0.2852 0.2960 0.2917 0.2830
1212.000000 0.2722 0.2613 0.2505 0.2397 0.2299
1217.000000 0.2299 0.2310 0.3029 0.3451 0.3872
1222.000000 0.4293 0.4714 0.5098 0.5306 0.5474
1227.000000 0.5642 0.5810 0.5977 0.6144 0.6312
1232.000000 0.6533 0.6616 0.6646 0.6656 0.6662
1237.000000 0.6662 0.6640 0.6642 0.6621 0.6591
1242.000000 0.6479 0.6330 0.6182 0.6034 0.5887
1247.000000 0.5741 0.5609 0.5466 0.5309 0.5165
1252.000000 0.5019 0.4812 0.4500 0.4179 0.3858
1257.000000 0.3538 0.3299 0.3194 0.3126 0.3086
1262.000000 0.3077 0.3036 0.3103 0.3170 0.3488
1267.000000 0.3856 0.4224 0.4591 0.4957 0.5336
1272.000000 0.5418 0.5464 0.5486 0.5498 0.5500
1277.000000 0.5503 0.5501 0.5507 0.5424 0.5236
1282.000000 0.5041 0.4847 0.4653 0.4460 0.4266
1287.000000 0.4073 0.3880 0.3687 0.3494 0.3303
1292.000000 0.3111 0.2892 0.2724 0.2627 0.2606
1297.000000 0.2596 0.2593 0.2612 0.2649 0.2763
1302.000000 0.2881 0.2999 0.3115 0.3233 0.3349
1307.000000 0.3466 0.3583 0.3699 0.3798 0.3821
1312.000000 0.3829 0.3827 0.3822 0.3821 0.3737
1317.000000 0.3590 0.3425 0.3261 0.3098 0.2934
1322.000000 0.2771 0.2608 0.2445 0.2283 0.2120
1327.000000 0.1958 0.1797 0.1673 0.1573 0.1526
1332.000000 0.1517 0.1525 0.1545 0.1597 0.1770
1337.000000 0.2008 0.2253 0.2497 0.2742 0.2985
1342.000000 0.3146 0.3226 0.3297 0.3357 0.3416
1347.000000 0.3531 0.3777 0.4149 0.4554 0.4959
1352.000000 0.5362 0.5766 0.6169 0.6571 0.6825
1357.000000 0.6886 0.6919 0.6929 0.6935 0.6901
1362.000000 0.6929 0.6920 0.6901 0.6851 0.6609
1367.000000 0.6209 0.5802 0.5394 0.4988 0.4582
1372.000000 0.4176 0.3772 0.3372 0.3253 0.3261
1377.000000 0.3741 0.4319 0.4825 0.4828 0.4828
1382.000000 0.4854 0.4540 0.4368 0.4198 0.4026
1387.000000 0.3847 0.3730 0.3627 0.3450 0.3273
1392.000000 0.3096 0.2920 0.2743 0.2613 0.2640
1397.000000 0.2781 0.3201 0.3622 0.4041 0.4459
1402.000000 0.4878 0.5295 0.5709 0.6007 0.6149
1407.000000 0.6412 0.6945 0.7052 0.7109 0.7148
1412.000000 0.7181 0.7199 0.7212 0.7213 0.7208
1417.000000 0.7232 0.7191 0.7174 0.7153 0.7130
1422.000000 0.7109 0.7058 0.7001 0.6946 0.6872
1427.000000 0.6793 0.6711 0.6589 0.6381 0.6147
1432.000000 0.5914 0.5682 0.5449 0.5216 0.4984
1437.000000 0.4753 0.4521 0.4290 0.4060 0.3843
1442.000000 0.3798 0.3798 0.3802 0.3902 0.4096
1447.000000 0.4155 0.4153 0.4153 0.4070 0.3950
1452.000000 0.3831 0.3711 0.3591 0.3472 0.3353
1457.000000 0.3234 0.3093 0.2892 0.2754 0.2664
1462.000000 0.2600 0.2547 0.2493 0.2391 0.2174
1467.000000 0.1921 0.1667 0.1399 0.1127 0.1086
1472.000000 0.1063 0.1047 0.1013 0.1051 0.1058
1477.000000 0.1072 0.1093 0.1123 0.1155 0.1190
1482.000000 0.1235 0.1395 0.1590 0.1785 0.1979
1487.000000 0.2174 0.2368 0.2562 0.2755 0.2948
1492.000000 0.3142 0.3274 0.3302 0.3302 0.3294
1497.000000 0.3308 0.3260 0.3226 0.3178 0.3114
1502.000000 0.3021 0.2926 0.2831 0.2735 0.2640
1507.000000 0.2545 0.2450 0.2356 0.2261 0.2166
1512.000000 0.2072 0.1978 0.1904 0.1857 0.1812
1517.000000 0.1759 0.1675 0.1498 0.1304 0.1176
1522.000000 0.1044 0.1000 0.0995 0.0999 0.0969
1527.000000 0.1014 0.1023 0.1041 0.1062 0.1092
1532.000000 0.1132 0.1176 0.1220 0.1650 0.2506
1537.000000 0.2675 0.2843 0.3012 0.3180 0.3348
1542.000000 0.3515 0.3682 0.3850 0.4017 0.4183
1547.000000 0.4350 0.4456 0.4605 0.4778 0.4995
1552.000000 0.5297 0.6147 0.6323 0.6438 0.6561
1557.000000 0.6677 0.6760 0.6812 0.6858 0.6891
1562.000000 0.6913 0.6934 0.6953 0.6966 0.6975
1567.000000 0.6979 0.6968 0.6979 0.6975 0.6971
1572.000000 0.6956 0.6839 0.6670 0.6499 0.6328
1577.000000 0.6157 0.5986 0.5814 0.5644 0.5474
1582.000000 0.5304 0.5134 0.4965 0.4795 0.4625
1587.000000 0.4456 0.4288 0.4119 0.3951 0.3806
1592.000000 0.3709 0.3612 0.3393 0.3109 0.2826
1597.000000 0.2543 0.2261 0.1978 0.1697 0.1415
1602.000000 0.1134 0.0899 0.0786 0.0768 0.0759
1607.000000 0.0751 0.0789 0.0922 0.1151 0.1382
1612.000000 0.1611 0.1841 0.2069 0.2298 0.2526
1617.000000 0.2755 0.2983 0.3211 0.3378 0.3445
1622.000000 0.3470 0.3483 0.3495 0.3506 0.3519
1627.000000 0.3531 0.3543 0.3556 0.3653 0.3948
1632.000000 0.4152 0.4357 0.4561 0.4765 0.4969
1637.000000 0.5172 0.5376 0.5579 0.5781 0.6063
1642.000000 0.6308 0.6448 0.6568 0.6750 0.7057
1647.000000 0.7099 0.7130 0.7145 0.7160 0.7176
1652.000000 0.7191 0.7204 0.7216 0.7227 0.7241
1657.000000 0.7261 0.7287 0.7312 0.7339 0.7364
1662.000000 0.7390 0.7415 0.7440 0.7465 0.7491
1667.000000 0.7516 0.7541 0.7566 0.7591 0.7616
1672.000000 0.7641 0.7667 0.7692 0.7717 0.7742
1677.000000 0.7767 0.7792 0.7817 0.7842 0.7867
1682.000000 0.7891 0.7916 0.7941 0.7965 0.7990
1687.000000 0.8016 0.8040 0.8065 0.8089 0.8114
1692.000000 0.8138 0.8163 0.8187 0.8212 0.8236
1697.000000 0.8284 0.8316 0.8345 0.8376 0.8421
1702.000000 0.8488 0.8544 0.8578 0.8612 0.8647
1707.000000 0.8678 0.8704 0.8724 0.8745 0.8765
1712.000000 0.8786 0.8799 0.8807 0.8815 0.8824
1717.000000 0.8832 0.8841 0.8848 0.8856 0.8864
1722.000000 0.8871 0.8878 0.8885 0.8892 0.8900
1727.000000 0.8906 0.8912 0.8919 0.8925 0.8931
1732.000000 0.8938 0.8944 0.8950 0.8956 0.8963
1737.000000 0.8968 0.8972 0.8977 0.8982 0.8986
1742.000000 0.8990 0.8994 0.8998 0.8998 0.8994
1747.000000 0.8990 0.8983 0.9001 0.8963 0.8953
1752.000000 0.8943 0.8931 0.8913 0.8894 0.8875
1757.000000 0.8857 0.8837 0.8817 0.8797 0.8776
1762.000000 0.8756 0.8735 0.8708 0.8679 0.8650
1767.000000 0.8621 0.8593 0.8569 0.8563 0.8563
1772.000000 0.8563 0.8564 0.8572 0.8538 0.8612
1777.000000 0.8671 0.8708 0.8737 0.8759 0.8777
1782.000000 0.8794 0.8812 0.8827 0.8840 0.8852
1787.000000 0.8863 0.8870 0.8876 0.8877 0.8872
1792.000000 0.8866 0.8859 0.8851 0.8843 0.8835
1797.000000 0.8828 0.8821 0.8816 0.8814 0.8814
1802.000000 0.8813 0.8813 0.8813 0.8813 0.8814
1807.000000 0.8814 0.8815 0.8816 0.8817 0.8819
1812.000000 0.8822 0.8825 0.8827 0.8829 0.8834
1817.000000 0.8842 0.8849 0.8857 0.8865 0.8876
1822.000000 0.8888 0.8902 0.8914 0.8925 0.8936
1827.000000 0.8947 0.8955 0.8960 0.8965 0.8969
1832.000000 0.8974 0.8978 0.8978 0.8979 0.8976
1837.000000 0.8970 0.8964 0.8959 0.8953 0.8947
1842.000000 0.8936 0.8925 0.8914 0.8903 0.8890
1847.000000 0.8870 0.8848 0.8826 0.8805 0.8784
1852.000000 0.8763 0.8743 0.8730 0.8719 0.8707
1857.000000 0.8702 0.8699 0.8698 0.8698 0.8702
1862.000000 0.8707 0.8713 0.8723 0.8736 0.8750
1867.000000 0.8765 0.8780 0.8800 0.8822 0.8843
1872.000000 0.8859 0.8872 0.8881 0.8884 0.8885
1877.000000 0.8884 0.8883 0.8881 0.8879 0.8877
1882.000000 0.8869 0.8860 0.8851 0.8841 0.8827
1887.000000 0.8808 0.8774 0.8740 0.8707 0.8674
1892.000000 0.8640 0.8607 0.8574 0.8541 0.8508
1897.000000 0.8474 0.8441 0.8408 0.8382 0.8371
1902.000000 0.8345 0.8370 0.8370 0.8392 0.8415
1907.000000 0.8439 0.8462 0.8486 0.8510 0.8534
1912.000000 0.8557 0.8581 0.8605 0.8628 0.8651
1917.000000 0.8675 0.8696 0.8709 0.8709 0.8711
1922.000000 0.8712 0.8712 0.8694 0.8675 0.8654
1927.000000 0.8634 0.8614 0.8594 0.8574 0.8553
1932.000000 0.8532 0.8512 0.8492 0.8472 0.8453
1937.000000 0.8444 0.8445 0.8445 0.8446 0.8455
1942.000000 0.8477 0.8509 0.8545 0.8581 0.8618
1947.000000 0.8654 0.8690 0.8726 0.8762 0.8793
1952.000000 0.8817 0.8832 0.8846 0.8860 0.8874
1957.000000 0.8889 0.8904 0.8919 0.8933 0.8946
1962.000000 0.8958 0.8969 0.8981 0.8993 0.9002
1967.000000 0.9011 0.9019 0.9027 0.9035 0.9043
1972.000000 0.9051 0.9059 0.9064 0.9069 0.9073
1977.000000 0.9078 0.9082 0.9086 0.9090 0.9095
1982.000000 0.9098 0.9102 0.9107 0.9111 0.9114
1987.000000 0.9117 0.9119 0.9121 0.9123 0.9126
1992.000000 0.9128 0.9130 0.9132 0.9133 0.9134
1997.000000 0.9136 0.9137 0.9138 0.9139 0.9140
2002.000000 0.9141 0.9142 0.9143 0.9145 0.9145
2007.000000 0.9146 0.9147 0.9149 0.9150 0.9150
2012.000000 0.9151 0.9151 0.9151 0.9152 0.9152
2017.000000 0.9152 0.9152 0.9152 0.9153 0.9153
2022.000000 0.9153 0.9153 0.9153 0.9154 0.9154
2027.000000 0.9154 0.9154 0.9154 0.9155 0.9155
2032.000000 0.9155 0.9155 0.9155 0.9156 0.9157
2037.000000 0.9157 0.9157 0.9157 0.9158 0.9159
2042.000000 0.9159 0.9159 0.9159 0.9160 0.9161
2047.000000 0.9161 0.9161 0.9161 0.9162 0.9162
2052.000000 0.9162 0.9163 0.9163 0.9163 0.9163
2057.000000 0.9163 0.9163 0.9163 0.9163 0.9163
2062.000000 0.9163 0.9163 0.9163 0.9163 0.9163
2067.000000 0.9163 0.9163 0.9163 0.9163 0.9163
2072.000000 0.9163 0.9164 0.9164 0.9164 0.9164
2077.000000 0.9164 0.9164 0.9164 0.9164 0.9164
2082.000000 0.9164 0.9164 0.9164 0.9164 0.9164
2087.000000 0.9157 0.9164 0.9164 0.9164 0.9164
2092.000000 0.9164 0.9164 0.9164 0.9164 0.9164
2097.000000 0.9164 0.9164 0.9164 0.9164 0.9164
2102.000000 0.9164 0.9164 0.9164 0.9164 0.9164
2107.000000 0.9165 0.9165 0.9165 0.9164 0.9163
2112.000000 0.9162 0.9161 0.9159 0.9158 0.9156
2117.000000 0.9155 0.9154 0.9153 0.9152 0.9151
2122.000000 0.9150 0.9148 0.9147 0.9145 0.9144
2127.000000 0.9143 0.9141 0.9138 0.9135 0.9132
2132.000000 0.9130 0.9127 0.9124 0.9120 0.9118
2137.000000 0.9115 0.9112 0.9109 0.9106 0.9103
2142.000000 0.9100 0.9097 0.9095 0.9092 0.9089
2147.000000 0.9087 0.9085 0.9082 0.9079 0.9077
2152.000000 0.9074 0.9071 0.9069 0.9067 0.9064
2157.000000 0.9062 0.9059 0.9057 0.9057 0.9056
2162.000000 0.9056 0.9055 0.9055 0.9054 0.9054
2167.000000 0.9053 0.9053 0.9052 0.9052 0.9051
2172.000000 0.9051 0.9053 0.9055 0.9057 0.9059
2177.000000 0.9062 0.9064 0.9066 0.9068 0.9070
2182.000000 0.9074 0.9080 0.9087 0.9093 0.9100
2187.000000 0.9106 0.9113 0.9120 0.9126 0.9133
2192.000000 0.9140 0.9148 0.9155 0.9162 0.9169
2197.000000 0.9175 0.9176 0.9178 0.9179 0.9181
2202.000000 0.9183 0.9184 0.9186 0.9187 0.9187
2207.000000 0.9187 0.9187 0.9186 0.9185 0.9184
2212.000000 0.9184 0.9183 0.9183 0.9182 0.9182
2217.000000 0.9181 0.9180 0.9179 0.9179 0.9177
2222.000000 0.9176 0.9174 0.9173 0.9171 0.9169
2227.000000 0.9167 0.9166 0.9164 0.9163 0.9161
2232.000000 0.9160 0.9158 0.9156 0.9154 0.9153
2237.000000 0.9151 0.9150 0.9148 0.9146 0.9145
2242.000000 0.9144 0.9142 0.9141 0.9140 0.9139
2247.000000 0.9137 0.9136 0.9135 0.9134 0.9132
2252.000000 0.9131 0.9130 0.9129 0.9127 0.9126
2257.000000 0.9124 0.9123 0.9122 0.9121 0.9119
2262.000000 0.9117 0.9116 0.9114 0.9113 0.9111
2267.000000 0.9110 0.9108 0.9107 0.9105 0.9104
2272.000000 0.9102 0.9100 0.9099 0.9097 0.9096
2277.000000 0.9094 0.9093 0.9091 0.9090 0.9089
2282.000000 0.9087 0.9086 0.9084 0.9082 0.9080
2287.000000 0.9079 0.9078 0.9077 0.9076 0.9074
2292.000000 0.9073 0.9072 0.9071 0.9069 0.9068
2297.000000 0.9067 0.9065 0.9064 0.9063 0.9062
2302.000000 0.9061 0.9060 0.9059 0.9057 0.9056
2307.000000 0.9055 0.9054 0.9053 0.9051 0.9051
2312.000000 0.9051 0.9051 0.9051 0.9052 0.9052
2317.000000 0.9052 0.9052 0.9052 0.9052 0.9052
2322.000000 0.9052 0.9052 0.9052 0.9052 0.9052
2327.000000 0.9052 0.9052 0.9052 0.9052 0.9052
2332.000000 0.9052 0.9053 0.9053 0.9053 0.9053
2337.000000 0.9053 0.9053 0.9054 0.9054 0.9054
2342.000000 0.9054 0.9054 0.9055 0.9055 0.9055
2347.000000 0.9055 0.9055 0.9055 0.9056 0.9056
2352.000000 0.9056 0.9056 0.9056 0.9056 0.9056
2357.000000 0.9056 0.9056 0.9056 0.9056 0.9056
2362.000000 0.9056 0.9056 0.9056 0.9056 0.9056
2367.000000 0.9056 0.9056 0.9056 0.9055 0.9055
2372.000000 0.9055 0.9055 0.9055 0.9054 0.9054
2377.000000 0.9054 0.9054 0.9053 0.9053 0.9052
2382.000000 0.9051 0.9049 0.9047 0.9045 0.9043
2387.000000 0.9041 0.9039 0.9036 0.9034 0.9031
2392.000000 0.9029 0.9027 0.9025 0.9023 0.9020
2397.000000 0.9017 0.9015 0.9013 0.9011 0.9008
2402.000000 0.9005 0.9003 0.9001 0.8999 0.8996
2407.000000 0.8993 0.8989 0.8986 0.8982 0.8979
2412.000000 0.8975 0.8972 0.8968 0.8964 0.8961
2417.000000 0.8957 0.8954 0.8950 0.8947 0.8944
2422.000000 0.8940 0.8937 0.8933 0.8930 0.8926
2427.000000 0.8922 0.8918 0.8915 0.8911 0.8907
2432.000000 0.8903 0.8899 0.8896 0.8892 0.8889
2437.000000 0.8885 0.8881 0.8878 0.8874 0.8871
2442.000000 0.8869 0.8867 0.8866 0.8864 0.8863
2447.000000 0.8861 0.8860 0.8859 0.8857 0.8855
2452.000000 0.8855 0.8854 0.8855 0.8858 0.8861
2457.000000 0.8863 0.8866 0.8868 0.8871 0.8873
2462.000000 0.8876 0.8878 0.8881 0.8884 0.8887
2467.000000 0.8890 0.8894 0.8897 0.8899 0.8902
2472.000000 0.8905 0.8908 0.8911 0.8914 0.8917
2477.000000 0.8920 0.8923 0.8927 0.8930 0.8933
2482.000000 0.8936 0.8940 0.8943 0.8946 0.8949
2487.000000 0.8953 0.8956 0.8959 0.8962 0.8964
2492.000000 0.8966 0.8967 0.8967 0.8967 0.8968
2497.000000 0.8969 0.8970 0.8970 0.8971 0.8971
2502.000000 0.8972 0.8973 0.8973 0.8973 0.8973
2507.000000 0.8973 0.8973 0.8973 0.8973 0.8970
2512.000000 0.8968 0.8965 0.8963 0.8960 0.8957
2517.000000 0.8954 0.8951 0.8949 0.8946 0.8943
2522.000000 0.8940 0.8937 0.8934 0.8930 0.8927
2527.000000 0.8924 0.8921 0.8917 0.8914 0.8910
2532.000000 0.8907 0.8903 0.8900 0.8897 0.8894
2537.000000 0.8890 0.8887 0.8884 0.8881 0.8877
2542.000000 0.8874 0.8870 0.8865 0.8860 0.8855
2547.000000 0.8849 0.8844 0.8839 0.8834 0.8829
2552.000000 0.8824 0.8819 0.8814 0.8809 0.8805
2557.000000 0.8800 0.8795 0.8790 0.8785 0.8780
2562.000000 0.8775 0.8771 0.8766 0.8761 0.8755
2567.000000 0.8750 0.8743 0.8737 0.8730 0.8724
2572.000000 0.8718 0.8712 0.8706 0.8699 0.8693
2577.000000 0.8687 0.8680 0.8674 0.8667 0.8660
2582.000000 0.8653 0.8646 0.8639 0.8632 0.8625
2587.000000 0.8618 0.8610 0.8604 0.8597 0.8590
2592.000000 0.8583 0.8576 0.8572 0.8569 0.8567
2597.000000 0.8565 0.8563 0.8561 0.8559 0.8557
2602.000000 0.8554 0.8553 0.8551 0.8549 0.8548
2607.000000 0.8547 0.8547 0.8547 0.8547 0.8547
2612.000000 0.8547 0.8547 0.8547 0.8547 0.8548
2617.000000 0.8548 0.8548 0.8548 0.8548 0.8548
2622.000000 0.8548 0.8548 0.8476 0.8548 0.8548
2627.000000 0.8546 0.8545 0.8543 0.8542 0.8540
2632.000000 0.8539 0.8537 0.8536 0.8534 0.8531
2637.000000 0.8529 0.8524 0.8519 0.8514 0.8509
2642.000000 0.8504 0.8499 0.8494 0.8490 0.8485
2647.000000 0.8481 0.8476 0.8471 0.8466 0.8461
2652.000000 0.8457 0.8453 0.8449 0.8448 0.8446
2657.000000 0.8445 0.8446 0.8448 0.8449 0.8450
2662.000000 0.8451 0.8453 0.8454 0.8456 0.8460
2667.000000 0.8465 0.8470 0.8477 0.8484 0.8491
2672.000000 0.8502 0.8512 0.8522 0.8531 0.8540
2677.000000 0.8548 0.8555 0.8562 0.8569 0.8576
2682.000000 0.8583 0.8589 0.8595 0.8602 0.8608
2687.000000 0.8614 0.8620 0.8627 0.8633 0.8639
2692.000000 0.8646 0.8652 0.8659 0.8667 0.8675
2697.000000 0.8683 0.8690 0.8698 0.8706 0.8714
2702.000000 0.8721 0.8728 0.8733 0.8738 0.8743
2707.000000 0.8749 0.8754 0.8759 0.8764 0.8769
2712.000000 0.8774 0.8779 0.8784 0.8788 0.8792
2717.000000 0.8795 0.8799 0.8802 0.8805 0.8809
2722.000000 0.8812 0.8815 0.8818 0.8820 0.8823
2727.000000 0.8824 0.8826 0.8827 0.8798 0.8830
2732.000000 0.8831 0.8831 0.8831 0.8831 0.8829
2737.000000 0.8828 0.8827 0.8825 0.8824 0.8823
2742.000000 0.8821 0.8820 0.8818 0.8816 0.8815
2747.000000 0.8813 0.8811 0.8808 0.8806 0.8801
2752.000000 0.8796 0.8790 0.8783 0.8776 0.8769
2757.000000 0.8759 0.8748 0.8737 0.8726 0.8715
2762.000000 0.8704 0.8692 0.8678 0.8664 0.8652
2767.000000 0.8641 0.8630 0.8621 0.8614 0.8606
2772.000000 0.8599 0.8591 0.8584 0.8576 0.8569
2777.000000 0.8561 0.8555 0.8551 0.8548 0.8544
2782.000000 0.8542 0.8540 0.8538 0.8536 0.8534
2787.000000 0.8532 0.8529 0.8527 0.8525 0.8524
2792.000000 0.8523 0.8522 0.8521 0.8520 0.8519
2797.000000 0.8518 0.8517 0.8516 0.8515 0.8514
2802.000000 0.8513 0.8512 0.8511 0.8510 0.8508
2807.000000 0.8507 0.8505 0.8503 0.8502 0.8500
2812.000000 0.8499 0.8497 0.8496 0.8494 0.8492
2817.000000 0.8491 0.8489 0.8487 0.8483 0.8480
2822.000000 0.8475 0.8469 0.8463 0.8457 0.8450
2827.000000 0.8443 0.8437 0.8429 0.8420 0.8412
2832.000000 0.8402 0.8392 0.8382 0.8372 0.8363
2837.000000 0.8353 0.8343 0.8331 0.8320 0.8308
2842.000000 0.8294 0.8279 0.8265 0.8250 0.8235
2847.000000 0.8220 0.8206 0.8191 0.8177 0.8160
2852.000000 0.8140 0.8120 0.8100 0.8081 0.8061
2857.000000 0.8041 0.8022 0.8002 0.7983 0.7876
2862.000000 0.7707 0.7539 0.7410 0.7366 0.7322
2867.000000 0.7279 0.7245 0.7212 0.7178 0.7150
2872.000000 0.7123 0.7097 0.7070 0.7043 0.7017
2877.000000 0.6990 0.6962 0.6934 0.6906 0.6867
2882.000000 0.6827 0.6786 0.6746 0.6705 0.6665
2887.000000 0.6622 0.6565 0.6508 0.6451 0.6374
2892.000000 0.6292 0.6210 0.6116 0.6009 0.5903
2897.000000 0.5806 0.5778 0.5749 0.5721 0.5588
2902.000000 0.5424 0.5260 0.5114 0.4996 0.4877
2907.000000 0.4759 0.4634 0.4509 0.4384 0.4237
2912.000000 0.4077 0.3916 0.3795 0.3793 0.3791
2917.000000 0.3789 0.3795 0.3804 0.3812 0.3822
2922.000000 0.3835 0.3847 0.3860 0.3872 0.3885
2927.000000 0.3897 0.3909 0.3920 0.3931 0.3938
2932.000000 0.3927 0.3917 0.3906 0.3877 0.3841
2937.000000 0.3805 0.3769 0.3734 0.3698 0.3662
2942.000000 0.3626 0.3590 0.3554 0.3518 0.3482
2947.000000 0.3446 0.3411 0.3375 0.3339 0.3303
2952.000000 0.3267 0.3232 0.3196 0.3160 0.3125
2957.000000 0.3090 0.3054 0.3019 0.2983 0.2947
2962.000000 0.2912 0.2876 0.2841 0.2806 0.2770
2967.000000 0.2735 0.2699 0.2664 0.2629 0.2595
2972.000000 0.2561 0.2538 0.2536 0.2534 0.2532
2977.000000 0.2530 0.2528 0.2527 0.2523 0.2512
2982.000000 0.2501 0.2491 0.2461 0.2422 0.2384
2987.000000 0.2346 0.2308 0.2269 0.2231 0.2193
2992.000000 0.2154 0.2116 0.2078 0.2040 0.2002
2997.000000 0.1963 0.1925 0.1887 0.1849 0.1811
3002.000000 0.1773 0.1736 0.1698 0.1660 0.1622
3007.000000 0.1584 0.1547 0.1531 0.1531 0.1532
3012.000000 0.1532 0.1536 0.1533 0.1533 0.1555
3017.000000 0.1624 0.1694 0.1763 0.1853 0.1953
3022.000000 0.2052 0.2152 0.2251 0.2350 0.2450
3027.000000 0.2549 0.2648 0.2747 0.2846 0.2944
3032.000000 0.3043 0.3142 0.3240 0.3339 0.3437
3037.000000 0.3536 0.3634 0.3733 0.3831 0.3930
3042.000000 0.4028 0.4126 0.4224 0.4322 0.4420
3047.000000 0.4517 0.4615 0.4713 0.4810 0.4908
3052.000000 0.5005 0.5103 0.5200 0.5297 0.5395
3057.000000 0.5492 0.5589 0.5687 0.5784 0.5881
3062.000000 0.5977 0.6074 0.6170 0.6261 0.6352
3067.000000 0.6443 0.6488 0.6488 0.6489 0.6489
3072.000000 0.6490 0.6490 0.6491 0.6491 0.6493
3077.000000 0.6494 0.6495 0.6496 0.6498 0.6500
3082.000000 0.6501 0.6501 0.6496 0.6492 0.6487
3087.000000 0.6478 0.6466 0.6453 0.6440 0.6428
3092.000000 0.6415 0.6403 0.6390 0.6378 0.6365
3097.000000 0.6353 0.6340 0.6328 0.6316 0.6304
3102.000000 0.6292 0.6282 0.6273 0.6263 0.6258
3107.000000 0.6258 0.6258 0.6258 0.6258 0.6259
3112.000000 0.6261 0.6262 0.6264 0.6267 0.6269
3117.000000 0.6272 0.6299 0.6333 0.6367 0.6400
3122.000000 0.6434 0.6467 0.6501 0.6535 0.6553
3127.000000 0.6571 0.6589 0.6607 0.6628 0.6648
3132.000000 0.6669 0.6689 0.6711 0.6733 0.6756
3137.000000 0.6783 0.6826 0.6869 0.6912 0.6951
3142.000000 0.6980 0.7009 0.7038 0.7065 0.7088
3147.000000 0.7111 0.7134 0.7173 0.7236 0.7300
3152.000000 0.7363 0.7473 0.7648 0.7823 0.7998
3157.000000 0.8103 0.8116 0.8129 0.8141 0.8150
3162.000000 0.8154 0.8157 0.8161 0.8164 0.8167
3167.000000 0.8170 0.8174 0.8177 0.8179 0.8182
3172.000000 0.8184 0.8186 0.8187 0.8188 0.8190
3177.000000 0.8191 0.8193 0.8194 0.8196 0.8197
3182.000000 0.8198 0.8199 0.8201 0.8202 0.8203
3187.000000 0.8205 0.8206 0.8208 0.8208 0.8208
3192.000000 0.8208 0.8209 0.8209 0.8210 0.8210
3197.000000 0.8211 0.8211 0.8211 0.8211 0.8211
3202.000000 0.8212 0.8212 0.8212 0.8212 0.8213
3207.000000 0.8213 0.8214 0.8214 0.8215 0.8215
3212.000000 0.8215 0.8215 0.8214 0.8214 0.8213
3217.000000 0.8213 0.8212 0.8212 0.8212 0.8212
3222.000000 0.8211 0.8211 0.8211 0.8211 0.8210
3227.000000 0.8210 0.8209 0.8209 0.8209 0.8209
3232.000000 0.8209 0.8209 0.8209 0.8213 0.8217
3237.000000 0.8220 0.8224 0.8230 0.8237 0.8244
3242.000000 0.8251 0.8258 0.8267 0.8276 0.8284
3247.000000 0.8293 0.8301 0.8310 0.8319 0.8328
3252.000000 0.8336 0.8345 0.8353 0.8362 0.8370
3257.000000 0.8378 0.8386 0.8394 0.8402 0.8409
3262.000000 0.8417 0.8424 0.8430 0.8434 0.8437
3267.000000 0.8440 0.8444 0.8446 0.8449 0.8451
3272.000000 0.8454 0.8456 0.8459 0.8462 0.8464
3277.000000 0.8467 0.8469 0.8471 0.8474 0.8476
3282.000000 0.8477 0.8478 0.8479 0.8480 0.8481
3287.000000 0.8482 0.8482 0.8483 0.8484 0.8485
3292.000000 0.8485 0.8486 0.8487 0.8487 0.8488
3297.000000 0.8489 0.8489 0.8490 0.8491 0.8491
3302.000000 0.8492 0.8492 0.8492 0.8492 0.8492
3307.000000 0.8491 0.8491 0.8490 0.8489 0.8489
3312.000000 0.8490 0.8488 0.8487 0.8487 0.8486
3317.000000 0.8486 0.8485 0.8485 0.8485 0.8484
3322.000000 0.8483 0.8482 0.8482 0.8481 0.8479
3327.000000 0.8477 0.8475 0.8473 0.8472 0.8470
3332.000000 0.8468 0.8466 0.8464 0.8463 0.8461
3337.000000 0.8459 0.8457 0.8453 0.8449 0.8445
3342.000000 0.8440 0.8436 0.8432 0.8428 0.8424
3347.000000 0.8420 0.8416 0.8413 0.8410 0.8406
3352.000000 0.8403 0.8399 0.8396 0.8392 0.8388
3357.000000 0.8385 0.8381 0.8377 0.8373 0.8369
3362.000000 0.8363 0.8358 0.8353 0.8338 0.8296
3367.000000 0.8254 0.8212 0.8170 0.8124 0.8076
3372.000000 0.8028 0.7981 0.7933 0.7885 0.7838
3377.000000 0.7790 0.7743 0.7695 0.7647 0.7599
3382.000000 0.7552 0.7504 0.7457 0.7409 0.7362
3387.000000 0.7315 0.7267 0.7220 0.7173 0.7126
3392.000000 0.7079 0.7031 0.6984 0.6937 0.6889
3397.000000 0.6842 0.6795 0.6748 0.6701 0.6654
3402.000000 0.6608 0.6561 0.6514 0.6467 0.6420
3407.000000 0.6373 0.6326 0.6279 0.6233 0.6186
3412.000000 0.6139 0.6093 0.6046 0.5999 0.5953
3417.000000 0.5906 0.5860 0.5813 0.5766 0.5720
3422.000000 0.5674 0.5627 0.5581 0.5535 0.5488
3427.000000 0.5442 0.5396 0.5350 0.5304 0.5257
3432.000000 0.5211 0.5165 0.5119 0.5073 0.5027
3437.000000 0.4981 0.4935 0.4889 0.4843 0.4797
3442.000000 0.4751 0.4706 0.4668 0.4640 0.4612
3447.000000 0.4584 0.4556 0.4548 0.4546 0.4545
3452.000000 0.4544 0.4543 0.4542 0.4541 0.4541
3457.000000 0.4540 0.4555 0.4540 0.4541 0.4542
3462.000000 0.4543 0.4559 0.4599 0.4638 0.4678
3467.000000 0.4717 0.4806 0.4928 0.5050 0.5172
3472.000000 0.5293 0.5415 0.5537 0.5658 0.5780
3477.000000 0.5901 0.6022 0.6144 0.6265 0.6386
3482.000000 0.6505 0.6605 0.6705 0.6805 0.6905
3487.000000 0.6983 0.6995 0.7008 0.7021 0.7034
3492.000000 0.7044 0.7050 0.7057 0.7063 0.7069
3497.000000 0.7076 0.7082 0.7088 0.7095 0.7101
3502.000000 0.7106 0.7111 0.7116 0.7121 0.7126
3507.000000 0.7131 0.7135 0.7140 0.7144 0.7148
3512.000000 0.7153 0.7158 0.7162 0.7167 0.7172
3517.000000 0.7177 0.7182 0.7187 0.7193 0.7198
3522.000000 0.7203 0.7209 0.7215 0.7220 0.7226
3527.000000 0.7231 0.7237 0.7242 0.7248 0.7253
3532.000000 0.7262 0.7271 0.7280 0.7289 0.7298
3537.000000 0.7315 0.7334 0.7352 0.7370 0.7388
3542.000000 0.7417 0.7446 0.7475 0.7504 0.7534
3547.000000 0.7555 0.7576 0.7596 0.7617 0.7638
3552.000000 0.7659 0.7681 0.7702 0.7724 0.7745
3557.000000 0.7811 0.7887 0.7963 0.8039 0.8115
3562.000000 0.8147 0.8164 0.8180 0.8197 0.8214
3567.000000 0.8227 0.8238 0.8249 0.8261 0.8272
3572.000000 0.8282 0.8292 0.8302 0.8312 0.8322
3577.000000 0.8331 0.8338 0.8345 0.8352 0.8359
3582.000000 0.8366 0.8373 0.8380 0.8387 0.8394
3587.000000 0.8401 0.8406 0.8411 0.8416 0.8422
3592.000000 0.8427 0.8431 0.8435 0.8439 0.8443
3597.000000 0.8447 0.8451 0.8455 0.8459 0.8462
3602.000000 0.8466 0.8470 0.8472 0.8475 0.8478
3607.000000 0.8481 0.8483 0.8485 0.8487 0.8489
3612.000000 0.8490 0.8492 0.8494 0.8495 0.8497
3617.000000 0.8499 0.8501 0.8502 0.8504 0.8505
3622.000000 0.8507 0.8508 0.8510 0.8511 0.8512
3627.000000 0.8514 0.8515 0.8516 0.8516 0.8517
3632.000000 0.8518 0.8518 0.8519 0.8519 0.8520
3637.000000 0.8520 0.8521 0.8521 0.8522 0.8523
3642.000000 0.8524 0.8525 0.8525 0.8526 0.8526
3647.000000 0.8527 0.8528 0.8528 0.8529 0.8529
3652.000000 0.8529 0.8529 0.8529 0.8529 0.8529
3657.000000 0.8529 0.8529 0.8529 0.8529 0.8530
3662.000000 0.8530 0.8530 0.8530 0.8530 0.8530
3667.000000 0.8530 0.8530 0.8530 0.8530 0.8530
3672.000000 0.8530 0.8530 0.8530 0.8530 0.8530
3677.000000 0.8562 0.8530 0.8530 0.8530 0.8530
3682.000000 0.8530 0.8530 0.8530 0.8530 0.8530
3687.000000 0.8530 0.8530 0.8530 0.8530 0.8530
3692.000000 0.8530 0.8529 0.8529 0.8529 0.8529
3697.000000 0.8529 0.8529 0.8529 0.8529 0.8529
3702.000000 0.8529 0.8529 0.8528 0.8528 0.8528
3707.000000 0.8528 0.8528 0.8528 0.8528 0.8528
3712.000000 0.8528 0.8528 0.8528 0.8528 0.8528
3717.000000 0.8528 0.8528 0.8528 0.8528 0.8527
3722.000000 0.8527 0.8527 0.8527 0.8527 0.8527
3727.000000 0.8527 0.8527 0.8527 0.8527 0.8527
3732.000000 0.8526 0.8526 0.8526 0.8526 0.8526
3737.000000 0.8525 0.8525 0.8524 0.8524 0.8523
3742.000000 0.8523 0.8522 0.8521 0.8521 0.8520
3747.000000 0.8519 0.8519 0.8518 0.8518 0.8517
3752.000000 0.8516 0.8516 0.8515 0.8515 0.8514
3757.000000 0.8514 0.8513 0.8513 0.8512 0.8511
3762.000000 0.8511 0.8510 0.8509 0.8509 0.8508
3767.000000 0.8507 0.8507 0.8506 0.8506 0.8505
3772.000000 0.8505 0.8504 0.8504 0.8503 0.8503
3777.000000 0.8502 0.8501 0.8501 0.8500 0.8499
3782.000000 0.8499 0.8498 0.8498 0.8497 0.8496
3787.000000 0.8496 0.8495 0.8495 0.8494 0.8494
3792.000000 0.8493 0.8493 0.8492 0.8492 0.8491
3797.000000 0.8490 0.8489 0.8489 0.8488 0.8487
3802.000000 0.8487 0.8486 0.8485 0.8485 0.8484
3807.000000 0.8484 0.8483 0.8483 0.8482 0.8481
3812.000000 0.8481 0.8480 0.8479 0.8479 0.8478
3817.000000 0.8477 0.8477 0.8476 0.8475 0.8475
3822.000000 0.8474 0.8473 0.8473 0.8472 0.8472
3827.000000 0.8471 0.8471 0.8470 0.8469 0.8469
3832.000000 0.8468 0.8467 0.8467 0.8466 0.8465
3837.000000 0.8465 0.8464 0.8463 0.8463 0.8462
3842.000000 0.8462 0.8462 0.8461 0.8461 0.8461
3847.000000 0.8460 0.8460 0.8460 0.8460 0.8460
3852.000000 0.8460 0.8459 0.8459 0.8459 0.8458
3857.000000 0.8458 0.8458 0.8457 0.8457 0.8457
3862.000000 0.8456 0.8456 0.8455 0.8455 0.8455
3867.000000 0.8454 0.8454 0.8454 0.8453 0.8453
3872.000000 0.8453 0.8452 0.8452 0.8452 0.8451
3877.000000 0.8451 0.8451 0.8451 0.8451 0.8451
3882.000000 0.8450 0.8450 0.8450 0.8450 0.8449
3887.000000 0.8449 0.8449 0.8449 0.8449 0.8449
3892.000000 0.8449 0.8449 0.8449 0.8449 0.8449
3897.000000 0.8449 0.8449 0.8449 0.8449 0.8449
3902.000000 0.8449 0.8449 0.8449 0.8449 0.8449
3907.000000 0.8448 0.8448 0.8448 0.8448 0.8448
3912.000000 0.8448 0.8447 0.8446 0.8446 0.8445
3917.000000 0.8444 0.8444 0.8443 0.8443 0.8442
3922.000000 0.8442 0.8441 0.8441 0.8440 0.8440
3927.000000 0.8439 0.8438 0.8438 0.8437 0.8436
3932.000000 0.8436 0.8435 0.8435 0.8434 0.8434
3937.000000 0.8434 0.8433 0.8432 0.8431 0.8430
3942.000000 0.8429 0.8429 0.8428 0.8427 0.8426
3947.000000 0.8425 0.8424 0.8423 0.8422 0.8421
3952.000000 0.8420 0.8419 0.8418 0.8417 0.8416
3957.000000 0.8415 0.8414 0.8413 0.8412 0.8411
3962.000000 0.8410 0.8410 0.8409 0.8408 0.8407
3967.000000 0.8406 0.8405 0.8404 0.8403 0.8402
3972.000000 0.8401 0.8400 0.8399 0.8398 0.8397
3977.000000 0.8396 0.8395 0.8394 0.8393 0.8392
3982.000000 0.8391 0.8390 0.8389 0.8388 0.8387
3987.000000 0.8386 0.8385 0.8383 0.8382 0.8381
3992.000000 0.8380 0.8378 0.8377 0.8376 0.8375
3997.000000 0.8374 0.8373 0.8372 0.8371
##END=
