##TITLE=1-OXO-2-(3-PHENYLRHODANIN-5-YLIDENE)-3-PYRIDINIUM-4-NAPHTHOXIDE
##JCAMP-DX=4.24
##DATA TYPE=INFRARED SPECTRUM
##CLASS=COBLENTZ
##ORIGIN=EASTMAN KODAK COMPANY, RESEARCH LABORATORIES, ROCHESTER, N.Y.
##OWNER=COBLENTZ SOCIETY
Collection (C) 2018 copyright by the U.S. Secretary of Commerce
on behalf of the United States of America. All rights reserved.
##DATE=Not specified, most likely prior to 1970
##NAMES=(5E)-5-(4-hydroxy-1-oxo-3-(1.lambda.<5>-pyridin-1-yl)-2(1H)-naphthalenylidene)-3-phenyl-2-thioxo-1,3-thiazolidin-4-one
##MOLFORM=C24 H14 N2 O3 S2
##MP=240 C
##SOURCE REFERENCE=COBLENTZ NO. 4427
##$NIST ID=B6004427
##$NIST SOURCE=COBLENTZ
##$NIST IMAGE=cob4427
##SPECTROMETER/DATA SYSTEM=Not specified, most likely a prism, grating, or hybrid spectrometer.
##STATE=SOLID (KBr PRESSING)
##PATH LENGTH=
$$SPECTRAL ABSORPTION AROUND 3430 IS DUE TO AN UNKNOWN
$$ SEE J. ORG. CHEM., VOL. 28, PAGE 3502 (1963)
##SAMPLING PROCEDURE=TRANSMISSION
##RESOLUTION=4
##DATA PROCESSING=DIGITIZED BY NIST FROM HARD COPY
##XUNITS=MICROMETERS
##YUNITS=TRANSMITTANCE
##XFACTOR=1.000000
##YFACTOR=1
##DELTAX=000.006657
##FIRSTX=2.02
##LASTX=16
##FIRSTY=0.382
##MAXX=16
##MINX=2.02
##MAXY=0.915
##MINY=0.09
##NPOINTS=2101
##XYDATA=(X++(Y..Y))
2.020000 0.3820 0.3820 0.3830 0.3850 0.3850
2.053302 0.3870 0.3870 0.3870 0.3880 0.3880
2.087000 0.3900 0.3920 0.3920 0.3920 0.3930
2.120302 0.3930 0.3930 0.3930 0.3950 0.3970
2.153000 0.3970 0.4000 0.4000 0.4000 0.4010
2.186302 0.4030 0.4050 0.4060 0.4060 0.4080
2.220000 0.4100 0.4100 0.4100 0.4100 0.4100
2.253302 0.4110 0.4110 0.4150 0.4180 0.4210
2.286000 0.4230 0.4230 0.4250 0.4260 0.4280
2.319302 0.4280 0.4280 0.4280 0.4290 0.4290
2.353000 0.4310 0.4310 0.4330 0.4330 0.4340
2.386302 0.4360 0.4360 0.4380 0.4390 0.4430
2.419000 0.4430 0.4440 0.4440 0.4460 0.4480
2.452302 0.4480 0.4490 0.4490 0.4510 0.4530
2.486000 0.4530 0.4530 0.4530 0.4530 0.4540
2.519302 0.4560 0.4560 0.4570 0.4570 0.4590
2.553000 0.4590 0.4590 0.4610 0.4620 0.4640
2.586302 0.4660 0.4690 0.4720 0.4760 0.4790
2.619000 0.4810 0.4810 0.4820 0.4840 0.4850
2.652302 0.4850 0.4890 0.4890 0.4900 0.4900
2.686000 0.4890 0.4890 0.4900 0.4920 0.4920
2.719302 0.4940 0.4940 0.4940 0.4940 0.4940
2.752000 0.4920 0.4900 0.4850 0.4840 0.4820
2.785302 0.4790 0.4770 0.4710 0.4620 0.4490
2.819000 0.4380 0.4260 0.4160 0.4110 0.4100
2.852302 0.4050 0.4010 0.3970 0.3950 0.3930
2.885000 0.3920 0.3880 0.3870 0.3850 0.3830
2.918302 0.3830 0.3830 0.3850 0.3870 0.3920
2.952000 0.3950 0.3980 0.4030 0.4100 0.4160
2.985302 0.4230 0.4310 0.4390 0.4480 0.4560
3.019000 0.4610 0.4640 0.4670 0.4710 0.4740
3.052302 0.4760 0.4770 0.4770 0.4810 0.4820
3.085000 0.4900 0.4920 0.4950 0.4970 0.4990
3.118302 0.5000 0.5020 0.5040 0.5050 0.5050
3.152000 0.5070 0.5090 0.5100 0.5140 0.5170
3.185302 0.5200 0.5200 0.5150 0.5120 0.5090
3.218000 0.5020 0.4990 0.4920 0.4920 0.4900
3.251302 0.4900 0.4870 0.4850 0.4690 0.4660
3.285000 0.4510 0.4510 0.4590 0.4660 0.4840
3.318302 0.4990 0.5090 0.5200 0.5270 0.5330
3.351000 0.5420 0.5480 0.5510 0.5510 0.5510
3.384302 0.5510 0.5530 0.5530 0.5510 0.5510
3.418000 0.5500 0.5500 0.5510 0.5550 0.5580
3.451302 0.5610 0.5650 0.5710 0.5710 0.5740
3.485000 0.5780 0.5790 0.5810 0.5810 0.5790
3.518302 0.5790 0.5790 0.5790 0.5810 0.5830
3.551000 0.5840 0.5890 0.5910 0.5910 0.5930
3.584302 0.5930 0.5940 0.5990 0.6020 0.6060
3.618000 0.6120 0.6140 0.6160 0.6170 0.6210
3.651302 0.6210 0.6220 0.6240 0.6240 0.6260
3.684000 0.6270 0.6270 0.6270 0.6270 0.6290
3.717302 0.6300 0.6300 0.6300 0.6320 0.6320
3.751000 0.6300 0.6300 0.6300 0.6300 0.6320
3.784302 0.6340 0.6390 0.6420 0.6440 0.6440
3.817000 0.6440 0.6440 0.6450 0.6450 0.6450
3.850302 0.6450 0.6450 0.6470 0.6470 0.6500
3.884000 0.6520 0.6520 0.6520 0.6540 0.6540
3.917302 0.6540 0.6540 0.6550 0.6570 0.6600
3.951000 0.6620 0.6630 0.6630 0.6650 0.6650
3.984302 0.6650 0.6650 0.6670 0.6670 0.6670
4.017000 0.6680 0.6720 0.6720 0.6730 0.6730
4.050302 0.6750 0.6800 0.6800 0.6820 0.6820
4.084000 0.6850 0.6900 0.6910 0.6910 0.6910
4.117302 0.6910 0.6910 0.6910 0.6910 0.6930
4.150000 0.6980 0.7000 0.7010 0.7010 0.7000
4.183302 0.7000 0.6980 0.6960 0.6960 0.6980
4.217000 0.6980 0.7000 0.7010 0.7010 0.7010
4.250302 0.7010 0.7010 0.7010 0.7010 0.7010
4.283000 0.7010 0.7030 0.7030 0.7030 0.7050
4.316302 0.7080 0.7110 0.7140 0.7190 0.7210
4.350000 0.7210 0.7230 0.7260 0.7260 0.7280
4.383302 0.7280 0.7290 0.7290 0.7310 0.7340
4.417000 0.7360 0.7380 0.7380 0.7390 0.7410
4.450302 0.7410 0.7420 0.7420 0.7420 0.7440
4.483000 0.7460 0.7470 0.7470 0.7490 0.7490
4.516302 0.7490 0.7490 0.7490 0.7510 0.7510
4.550000 0.7510 0.7510 0.7520 0.7520 0.7540
4.583302 0.7540 0.7560 0.7560 0.7570 0.7570
4.616000 0.7570 0.7570 0.7570 0.7590 0.7590
4.649302 0.7590 0.7590 0.7610 0.7610 0.7610
4.683000 0.7610 0.7610 0.7620 0.7620 0.7620
4.716302 0.7620 0.7620 0.7610 0.7610 0.7610
4.749000 0.7590 0.7590 0.7610 0.7620 0.7670
4.782302 0.7710 0.7710 0.7720 0.7740 0.7740
4.816000 0.7750 0.7750 0.7750 0.7750 0.7750
4.849302 0.7750 0.7750 0.7750 0.7750 0.7770
4.883000 0.7770 0.7790 0.7800 0.7820 0.7820
4.916302 0.7840 0.7840 0.7840 0.7840 0.7840
4.949000 0.7840 0.7820 0.7820 0.7820 0.7800
4.982302 0.7800 0.7800 0.7820 0.7820 0.7840
5.016000 0.7850 0.7850 0.7870 0.7890 0.7900
5.049302 0.7940 0.7950 0.7970 0.7970 0.7970
5.082000 0.7970 0.7970 0.7970 0.7970 0.7970
5.115302 0.7970 0.7970 0.7990 0.7990 0.7990
5.149000 0.7990 0.7990 0.8000 0.8000 0.8020
5.182302 0.8030 0.8050 0.8050 0.8070 0.8070
5.215000 0.8070 0.8080 0.8080 0.8100 0.8120
5.248302 0.8120 0.8120 0.8130 0.8130 0.8150
5.282000 0.8170 0.8200 0.8220 0.8230 0.8250
5.315302 0.8270 0.8300 0.8300 0.8300 0.8300
5.349000 0.8280 0.8250 0.8230 0.8230 0.8230
5.382302 0.8250 0.8270 0.8310 0.8350 0.8360
5.415000 0.8380 0.8410 0.8430 0.8430 0.8450
5.448302 0.8450 0.8460 0.8460 0.8460 0.8460
5.482000 0.8460 0.8500 0.8510 0.8510 0.8510
5.515302 0.8510 0.8510 0.8500 0.8500 0.8500
5.548000 0.8500 0.8500 0.8500 0.8500 0.8510
5.581302 0.8510 0.8510 0.8510 0.8510 0.8530
5.615000 0.8560 0.8590 0.8610 0.8660 0.8680
5.648302 0.8690 0.8690 0.8690 0.8690 0.8690
5.681000 0.8690 0.8690 0.8680 0.8680 0.8640
5.714302 0.8630 0.8610 0.8590 0.8550 0.8550
5.748000 0.8530 0.8530 0.8510 0.8510 0.8450
5.781302 0.8410 0.8400 0.8350 0.8330 0.8310
5.815000 0.8300 0.8270 0.8250 0.8270 0.8280
5.848302 0.8310 0.8310 0.8300 0.8300 0.8280
5.881000 0.8280 0.8270 0.8250 0.8220 0.8170
5.914302 0.8120 0.8050 0.8000 0.7920 0.7840
5.948000 0.7720 0.7610 0.7460 0.7330 0.7180
5.981302 0.7010 0.6880 0.6700 0.6470 0.6190
6.014000 0.5890 0.5580 0.5270 0.4950 0.4620
6.047302 0.4490 0.4410 0.4360 0.4330 0.4280
6.081000 0.3900 0.3520 0.3340 0.3320 0.3360
6.114302 0.3550 0.3830 0.4230 0.4330 0.4330
6.147000 0.4010 0.4000 0.4010 0.4210 0.4380
6.180302 0.4570 0.4790 0.5040 0.5420 0.5650
6.214000 0.5880 0.6040 0.6060 0.6020 0.5810
6.247302 0.5510 0.4990 0.4610 0.4310 0.4010
6.281000 0.3750 0.3570 0.3290 0.3010 0.2980
6.314302 0.3010 0.3850 0.4250 0.4620 0.5020
6.347000 0.5420 0.5740 0.5930 0.6110 0.6160
6.380302 0.6160 0.6120 0.5960 0.5710 0.5330
6.414000 0.5040 0.4950 0.4770 0.4610 0.4360
6.447302 0.4060 0.3970 0.3870 0.3830 0.3830
6.480000 0.3850 0.3900 0.4010 0.4030 0.4160
6.513302 0.4330 0.4480 0.4710 0.4920 0.5070
6.547000 0.5200 0.5270 0.5400 0.5460 0.5510
6.580302 0.5560 0.5660 0.5790 0.5840 0.5890
6.613000 0.5910 0.5910 0.5890 0.5760 0.5610
6.646302 0.5300 0.4820 0.4310 0.3720 0.3210
6.680000 0.2760 0.2550 0.1960 0.1810 0.1790
6.713302 0.1810 0.1870 0.2040 0.2370 0.2760
6.747000 0.3110 0.3500 0.3800 0.3830 0.3830
6.780302 0.3800 0.3470 0.3270 0.2800 0.1940
6.813000 0.1720 0.1540 0.1280 0.1250 0.1160
6.846302 0.1150 0.1160 0.1230 0.1310 0.1400
6.880000 0.1530 0.1680 0.1890 0.2120 0.2400
6.913302 0.2710 0.3090 0.3500 0.3950 0.4380
6.946000 0.4720 0.5020 0.5220 0.5320 0.5460
6.979302 0.5530 0.5760 0.5940 0.6070 0.6170
7.013000 0.6370 0.6600 0.6670 0.6730 0.6800
7.046302 0.6830 0.6900 0.6960 0.7000 0.7010
7.079000 0.7030 0.7110 0.7180 0.7290 0.7330
7.112302 0.7340 0.7340 0.7340 0.7340 0.7340
7.146000 0.7340 0.7330 0.7330 0.7330 0.7330
7.179302 0.7330 0.7330 0.7330 0.7310 0.7290
7.213000 0.7260 0.7230 0.7190 0.7160 0.7050
7.246302 0.6950 0.6820 0.6700 0.6620 0.6520
7.279000 0.6370 0.6270 0.6170 0.6090 0.6010
7.312302 0.5940 0.5860 0.5780 0.5650 0.5450
7.346000 0.5200 0.5000 0.4810 0.4610 0.4410
7.379302 0.4200 0.3950 0.3690 0.3370 0.3010
7.412000 0.2760 0.2650 0.2480 0.2370 0.2280
7.445302 0.2220 0.2190 0.2140 0.2120 0.2100
7.479000 0.2120 0.2170 0.2200 0.2250 0.2320
7.512302 0.2430 0.2570 0.2710 0.2910 0.3140
7.545000 0.3410 0.3670 0.3920 0.4110 0.4310
7.578302 0.4460 0.4570 0.4670 0.4740 0.4770
7.612000 0.4770 0.4720 0.4670 0.4590 0.4510
7.645302 0.4510 0.4570 0.4770 0.4950 0.5120
7.679000 0.5420 0.5610 0.5780 0.5960 0.6060
7.712302 0.6120 0.6190 0.6190 0.6110 0.6040
7.745000 0.5910 0.5680 0.5450 0.5100 0.4710
7.778302 0.4260 0.3780 0.3140 0.2500 0.2070
7.812000 0.1770 0.1610 0.1460 0.1310 0.1300
7.845302 0.1310 0.1440 0.1610 0.1770 0.2070
7.878000 0.2470 0.2860 0.3260 0.3550 0.3900
7.911302 0.4150 0.4290 0.4330 0.4290 0.4280
7.945000 0.4280 0.4230 0.4210 0.4200 0.4100
7.978302 0.3930 0.3720 0.3450 0.3190 0.2890
8.011000 0.2600 0.2300 0.2040 0.1810 0.1610
8.044302 0.1460 0.1360 0.1280 0.1210 0.1130
8.078000 0.1120 0.1070 0.1020 0.0970 0.0930
8.111302 0.0920 0.0920 0.0900 0.0900 0.0900
8.145000 0.0920 0.1030 0.1150 0.1310 0.1410
8.178302 0.1660 0.2020 0.2420 0.2850 0.3210
8.211000 0.3570 0.3720 0.3950 0.4160 0.4340
8.244302 0.4510 0.4610 0.4640 0.4670 0.4670
8.278000 0.4670 0.4670 0.4670 0.4690 0.4690
8.311302 0.4710 0.4760 0.4850 0.5000 0.5250
8.344000 0.5460 0.5660 0.5860 0.6020 0.6160
8.377302 0.6290 0.6370 0.6440 0.6500 0.6600
8.411000 0.6630 0.6670 0.6700 0.6720 0.6720
8.444302 0.6730 0.6730 0.6730 0.6730 0.6720
8.477000 0.6700 0.6550 0.6400 0.6190 0.5910
8.510302 0.5680 0.5550 0.5480 0.5460 0.5480
8.544000 0.5510 0.5530 0.5580 0.5600 0.5600
8.577302 0.5580 0.5550 0.5430 0.5280 0.5100
8.611000 0.4890 0.4670 0.4460 0.4250 0.4050
8.644302 0.3950 0.3880 0.3830 0.3820 0.3800
8.677000 0.3800 0.3780 0.3750 0.3690 0.3570
8.710302 0.3410 0.3240 0.3060 0.2860 0.2700
8.744000 0.2570 0.2470 0.2320 0.2200 0.2050
8.777302 0.2000 0.1920 0.1810 0.1690 0.1580
8.810000 0.1440 0.1350 0.1260 0.1200 0.1160
8.843302 0.1150 0.1130 0.1150 0.1180 0.1260
8.877000 0.1360 0.1480 0.1610 0.1790 0.1990
8.910302 0.2220 0.2500 0.2710 0.2990 0.3320
8.943000 0.3640 0.3920 0.4160 0.4380 0.4560
8.976302 0.4720 0.4850 0.4950 0.5120 0.5300
9.010000 0.5430 0.5550 0.5660 0.5740 0.5830
9.043302 0.5890 0.5930 0.5940 0.5940 0.5910
9.077000 0.5890 0.5840 0.5810 0.5730 0.5710
9.110302 0.5730 0.5810 0.5880 0.5940 0.5990
9.143000 0.6010 0.6040 0.6120 0.6190 0.6260
9.176302 0.6320 0.6420 0.6520 0.6630 0.6780
9.210000 0.6880 0.6950 0.7010 0.7030 0.7060
9.243302 0.7110 0.7130 0.7160 0.7160 0.7130
9.276000 0.7100 0.7030 0.6980 0.6900 0.6820
9.309302 0.6730 0.6730 0.6720 0.6720 0.6720
9.343000 0.6720 0.6700 0.6630 0.6570 0.6470
9.376302 0.6350 0.6160 0.6060 0.5830 0.5530
9.409000 0.5300 0.5090 0.4990 0.4890 0.4840
9.442302 0.4820 0.4840 0.4940 0.5050 0.5180
9.476000 0.5370 0.5510 0.5680 0.5910 0.6060
9.509302 0.6260 0.6370 0.6520 0.6600 0.6650
9.543000 0.6700 0.6750 0.6800 0.6820 0.6860
9.576302 0.6900 0.6930 0.6960 0.7010 0.7080
9.609000 0.7140 0.7230 0.7310 0.7340 0.7390
9.642302 0.7420 0.7440 0.7460 0.7460 0.7460
9.676000 0.7440 0.7410 0.7280 0.7140 0.6960
9.709302 0.6680 0.6450 0.6210 0.6060 0.5960
9.742000 0.5860 0.5840 0.5880 0.5930 0.5940
9.775302 0.5910 0.5810 0.5710 0.5500 0.5280
9.809000 0.5120 0.4920 0.4810 0.4690 0.4660
9.842302 0.4640 0.4640 0.4670 0.4720 0.4790
9.875000 0.4850 0.4920 0.4990 0.5050 0.5170
9.908302 0.5280 0.5370 0.5460 0.5530 0.5610
9.942000 0.5700 0.5760 0.5830 0.5930 0.5990
9.975302 0.6040 0.6110 0.6170 0.6270 0.6390
10.009000 0.6520 0.6680 0.6860 0.6950 0.6960
10.042302 0.7010 0.7030 0.7100 0.7130 0.7190
10.075000 0.7230 0.7290 0.7330 0.7390 0.7420
10.108302 0.7490 0.7510 0.7560 0.7610 0.7620
10.142000 0.7640 0.7690 0.7690 0.7710 0.7720
10.175302 0.7740 0.7790 0.7800 0.7820 0.7820
10.208000 0.7850 0.7900 0.7920 0.7920 0.7920
10.241302 0.7920 0.7940 0.7940 0.7940 0.7920
10.275000 0.7900 0.7890 0.7870 0.7850 0.7840
10.308302 0.7850 0.7890 0.7920 0.7940 0.7970
10.341000 0.7990 0.8000 0.8000 0.8020 0.8020
10.374302 0.8050 0.8100 0.8120 0.8130 0.8130
10.408000 0.8150 0.8170 0.8180 0.8180 0.8200
10.441302 0.8220 0.8230 0.8250 0.8270 0.8280
10.475000 0.8350 0.8360 0.8380 0.8380 0.8380
10.508302 0.8380 0.8360 0.8360 0.8360 0.8350
10.541000 0.8330 0.8310 0.8280 0.8270 0.8230
10.574302 0.8200 0.8130 0.8100 0.8080 0.8020
10.608000 0.8000 0.8000 0.8020 0.8080 0.8100
10.641302 0.8150 0.8200 0.8230 0.8300 0.8310
10.674000 0.8380 0.8400 0.8410 0.8450 0.8510
10.707302 0.8530 0.8590 0.8630 0.8640 0.8660
10.741000 0.8680 0.8690 0.8690 0.8690 0.8690
10.774302 0.8710 0.8730 0.8740 0.8760 0.8780
10.807000 0.8790 0.8830 0.8840 0.8840 0.8840
10.840302 0.8840 0.8840 0.8830 0.8830 0.8810
10.874000 0.8790 0.8780 0.8780 0.8740 0.8690
10.907302 0.8560 0.8410 0.8270 0.8150 0.8100
10.941000 0.8080 0.8100 0.8130 0.8230 0.8300
10.974302 0.8360 0.8410 0.8460 0.8510 0.8560
11.007000 0.8610 0.8660 0.8730 0.8790 0.8860
11.040302 0.8890 0.8890 0.8910 0.8910 0.8920
11.074000 0.8920 0.8920 0.8920 0.8910 0.8910
11.107302 0.8910 0.8910 0.8910 0.8920 0.8920
11.140000 0.8940 0.8990 0.8990 0.9010 0.9020
11.173302 0.9020 0.9020 0.9020 0.9020 0.9020
11.207000 0.9010 0.9010 0.9010 0.9020 0.9020
11.240302 0.9010 0.9010 0.8960 0.8870 0.8760
11.273000 0.8630 0.8450 0.8220 0.7950 0.7610
11.306302 0.7190 0.6880 0.6700 0.6630 0.6630
11.340000 0.6720 0.6860 0.7060 0.7260 0.7470
11.373302 0.7670 0.7820 0.7950 0.8070 0.8200
11.407000 0.8310 0.8450 0.8550 0.8610 0.8640
11.440302 0.8710 0.8760 0.8840 0.8910 0.8940
11.473000 0.9010 0.9020 0.9040 0.9090 0.9090
11.506302 0.9110 0.9110 0.9110 0.9090 0.9090
11.540000 0.9090 0.9070 0.9070 0.9060 0.9060
11.573302 0.9040 0.9010 0.8970 0.8860 0.8840
11.606000 0.8730 0.8630 0.8560 0.8480 0.8430
11.639302 0.8410 0.8400 0.8400 0.8400 0.8400
11.673000 0.8400 0.8400 0.8400 0.8410 0.8430
11.706302 0.8430 0.8400 0.8400 0.8310 0.8300
11.739000 0.8230 0.8200 0.8150 0.8130 0.8120
11.772302 0.8120 0.8130 0.8150 0.8180 0.8200
11.806000 0.8220 0.8250 0.8270 0.8280 0.8300
11.839302 0.8350 0.8410 0.8460 0.8530 0.8590
11.873000 0.8660 0.8690 0.8710 0.8740 0.8760
11.906302 0.8780 0.8790 0.8790 0.8790 0.8790
11.939000 0.8790 0.8780 0.8780 0.8760 0.8740
11.972302 0.8730 0.8690 0.8630 0.8560 0.8550
12.006000 0.8430 0.8310 0.8180 0.8050 0.7950
12.039302 0.7850 0.7750 0.7620 0.7540 0.7490
12.072000 0.7410 0.7340 0.7310 0.7290 0.7280
12.105302 0.7280 0.7260 0.7260 0.7230 0.7210
12.139000 0.7190 0.7160 0.7100 0.7010 0.6960
12.172302 0.6830 0.6770 0.6720 0.6700 0.6720
12.205000 0.6860 0.6960 0.7240 0.7380 0.7490
12.238302 0.7660 0.7750 0.7950 0.8050 0.8220
12.272000 0.8360 0.8460 0.8530 0.8560 0.8580
12.305302 0.8590 0.8590 0.8580 0.8560 0.8560
12.339000 0.8580 0.8580 0.8590 0.8590 0.8580
12.372302 0.8580 0.8560 0.8550 0.8550 0.8530
12.405000 0.8510 0.8510 0.8510 0.8560 0.8590
12.438302 0.8630 0.8730 0.8790 0.8830 0.8870
12.472000 0.8910 0.8970 0.9060 0.9090 0.9110
12.505302 0.9140 0.9150 0.9150 0.9150 0.9150
12.538000 0.9150 0.9150 0.9150 0.9140 0.9140
12.571302 0.9120 0.9090 0.9090 0.9020 0.9010
12.605000 0.8990 0.8940 0.8890 0.8840 0.8810
12.638302 0.8790 0.8730 0.8660 0.8590 0.8530
12.671000 0.8500 0.8400 0.8330 0.8300 0.8280
12.704302 0.8270 0.8280 0.8310 0.8400 0.8460
12.738000 0.8530 0.8610 0.8680 0.8730 0.8810
12.771302 0.8890 0.8890 0.8840 0.8810 0.8740
12.805000 0.8730 0.8730 0.8730 0.8710 0.8710
12.838302 0.8690 0.8680 0.8640 0.8640 0.8610
12.871000 0.8590 0.8530 0.8460 0.8400 0.8300
12.904302 0.8220 0.8130 0.8050 0.7990 0.7920
12.938000 0.7820 0.7750 0.7590 0.7460 0.7410
12.971302 0.7330 0.7260 0.7230 0.7210 0.7230
13.004000 0.7360 0.7440 0.7520 0.7640 0.7750
13.037302 0.7870 0.7950 0.8020 0.8050 0.8100
13.071000 0.8100 0.8120 0.8120 0.8120 0.8100
13.104302 0.8080 0.8020 0.7950 0.7800 0.7660
13.137000 0.7510 0.7260 0.6960 0.6620 0.6340
13.170302 0.6010 0.5710 0.5500 0.5420 0.5420
13.204000 0.5510 0.5700 0.5860 0.6040 0.6220
13.237302 0.6420 0.6600 0.6770 0.6950 0.7110
13.271000 0.7280 0.7410 0.7540 0.7660 0.7750
13.304302 0.7820 0.7900 0.7970 0.8050 0.8150
13.337000 0.8220 0.8280 0.8330 0.8380 0.8400
13.370302 0.8410 0.8430 0.8450 0.8460 0.8480
13.404000 0.8500 0.8500 0.8480 0.8460 0.8450
13.437302 0.8400 0.8400 0.8330 0.8310 0.8280
13.470000 0.8220 0.8200 0.8200 0.8200 0.8220
13.503302 0.8280 0.8280 0.8310 0.8400 0.8410
13.537000 0.8480 0.8500 0.8510 0.8530 0.8590
13.570302 0.8630 0.8690 0.8710 0.8780 0.8790
13.603000 0.8810 0.8840 0.8890 0.8910 0.8910
13.636302 0.8920 0.8960 0.8960 0.8970 0.8990
13.670000 0.8990 0.9010 0.9010 0.9020 0.9010
13.703302 0.8990 0.8960 0.8910 0.8890 0.8810
13.737000 0.8730 0.8660 0.8560 0.8460 0.8310
13.770302 0.8100 0.7950 0.7710 0.7490 0.6960
13.803000 0.6550 0.6370 0.6210 0.5790 0.5320
13.836302 0.5100 0.4850 0.4690 0.4590 0.4530
13.870000 0.4510 0.4510 0.4530 0.4590 0.4660
13.903302 0.4760 0.4850 0.4970 0.5120 0.5200
13.936000 0.5300 0.5380 0.5400 0.5400 0.5380
13.969302 0.5330 0.5270 0.5150 0.5140 0.5070
14.003000 0.4950 0.4790 0.4530 0.4340 0.4280
14.036302 0.4260 0.4280 0.4360 0.4510 0.4690
14.069000 0.4900 0.5170 0.5430 0.5700 0.5980
14.102302 0.6260 0.6500 0.6770 0.7010 0.7180
14.136000 0.7360 0.7460 0.7610 0.7690 0.7710
14.169302 0.7740 0.7740 0.7720 0.7710 0.7690
14.203000 0.7660 0.7590 0.7490 0.7390 0.7260
14.236302 0.7130 0.6960 0.6820 0.6630 0.6450
14.269000 0.6240 0.6040 0.5860 0.5660 0.5460
14.302302 0.5270 0.5070 0.4950 0.4890 0.4850
14.336000 0.4850 0.4890 0.5000 0.5140 0.5270
14.369302 0.5430 0.5600 0.5780 0.5940 0.6110
14.402000 0.6260 0.6340 0.6550 0.6770 0.6880
14.435302 0.7050 0.7110 0.7190 0.7230 0.7280
14.469000 0.7290 0.7280 0.7160 0.7050 0.6950
14.502302 0.6830 0.6750 0.6650 0.6550 0.6500
14.535000 0.6490 0.6420 0.6400 0.6400 0.6420
14.568302 0.6470 0.6490 0.6520 0.6580 0.6600
14.602000 0.6650 0.6730 0.6820 0.6910 0.6980
14.635302 0.7010 0.7080 0.7130 0.7190 0.7240
14.669000 0.7310 0.7380 0.7390 0.7410 0.7440
14.702302 0.7460 0.7460 0.7470 0.7490 0.7490
14.735000 0.7510 0.7510 0.7510 0.7510 0.7510
14.768302 0.7490 0.7470 0.7390 0.7290 0.7210
14.802000 0.7140 0.7050 0.6950 0.6720 0.6600
14.835302 0.6450 0.6300 0.6160 0.6020 0.5910
14.868000 0.5840 0.5780 0.5710 0.5680 0.5650
14.901302 0.5630 0.5630 0.5650 0.5660 0.5700
14.935000 0.5740 0.5790 0.5880 0.5910 0.5990
14.968302 0.6060 0.6190 0.6300 0.6400 0.6450
15.001000 0.6550 0.6700 0.6880 0.7080 0.7260
15.034302 0.7390 0.7460 0.7510 0.7590 0.7670
15.068000 0.7720 0.7790 0.7870 0.7940 0.7970
15.101302 0.8020 0.8050 0.8100 0.8150 0.8180
15.135000 0.8180 0.8200 0.8200 0.8220 0.8220
15.168302 0.8220 0.8220 0.8230 0.8230 0.8250
15.201000 0.8250 0.8250 0.8270 0.8280 0.8280
15.234302 0.8280 0.8280 0.8280 0.8280 0.8280
15.268000 0.8280 0.8280 0.8280 0.8280 0.8280
15.301302 0.8280 0.8280 0.8300 0.8300 0.8300
15.334000 0.8300 0.8300 0.8300 0.8300 0.8280
15.367302 0.8280 0.8280 0.8270 0.8250 0.8220
15.401000 0.8200 0.8180 0.8170 0.8130 0.8130
15.434302 0.8100 0.8080 0.8070 0.8050 0.8030
15.467000 0.8020 0.8000 0.7990 0.7950 0.7900
15.500302 0.7890 0.7820 0.7790 0.7720 0.7690
15.534000 0.7670 0.7620 0.7590 0.7560 0.7540
15.567302 0.7520 0.7520 0.7510 0.7510 0.7490
15.601000 0.7490 0.7470 0.7470 0.7460 0.7440
15.634302 0.7440 0.7440 0.7460 0.7460 0.7470
15.667000 0.7470 0.7490 0.7490 0.7490 0.7510
15.700302 0.7520 0.7520 0.7520 0.7540 0.7540
15.734000 0.7540 0.7560 0.7570 0.7570 0.7570
15.767302 0.7570 0.7540 0.7520 0.7490 0.7490
15.800000 0.7490 0.7490 0.7490 0.7490 0.7470
15.833302 0.7470 0.7460 0.7440 0.7440 0.7420
15.867000 0.7420 0.7420 0.7410 0.7410 0.7410
15.900302 0.7410 0.7410 0.7390 0.7380 0.7340
15.933000 0.7330 0.7290 0.7280 0.7280 0.7230
15.966302 0.7190 0.7180 0.7130 0.7110 0.7060
16.000000 0.7000
##END=
