##TITLE=TRIMETHYLAMINE BORANE
$$ CALLERY CHEM.
##JCAMP-DX=4.24
##DATA TYPE=INFRARED SPECTRUM
##CLASS=COBLENTZ
##ORIGIN=WYANDOTTE CHEMICALS CORP., WYANDOTTE, MICHIGAN, USA
##OWNER=COBLENTZ SOCIETY
Collection (C) 2018 copyright by the U.S. Secretary of Commerce
on behalf of the United States of America. All rights reserved.
##DATE=Not specified, most likely prior to 1970
##MOLFORM=C3 H12 N B
##SOURCE REFERENCE=COBLENTZ NO. 358
##$NIST ID=B6000358
##$NIST SOURCE=COBLENTZ
##$NIST IMAGE=cob358
##SPECTROMETER/DATA SYSTEM=Not specified, most likely a prism, grating, or hybrid spectrometer.
##STATE=SOLID (MULL, KEL-F OIL FOR 2-7.5 AND MINERAL OIL FOR 7.5-16 MICRONS)
##SAMPLING PROCEDURE=TRANSMISSION
##RESOLUTION=4
##DATA PROCESSING=DIGITIZED BY NIST FROM HARD COPY
##XUNITS=MICROMETERS
##YUNITS=TRANSMITTANCE
##XFACTOR=1.000000
##YFACTOR=1
##DELTAX=000.006645
##FIRSTX=2.037
##LASTX=16.0033
##FIRSTY=0.753
##MAXX=16.0033
##MINX=2.037
##MAXY=0.951
##MINY=0.052
##NPOINTS=2103
##XYDATA=(X++(Y..Y))
2.037000 0.7530 0.7540 0.7540 0.7540 0.7540
2.070238 0.7560 0.7560 0.7560 0.7580 0.7580
2.103000 0.7590 0.7580 0.7560 0.7530 0.7500
2.136238 0.7450 0.7400 0.7300 0.7200 0.7180
2.169000 0.7150 0.7130 0.7150 0.7300 0.7360
2.202238 0.7460 0.7590 0.7610 0.7610 0.7610
2.236000 0.7590 0.7590 0.7580 0.7560 0.7580
2.269238 0.7580 0.7610 0.7630 0.7630 0.7660
2.302000 0.7680 0.7710 0.7740 0.7790 0.7830
2.335238 0.7830 0.7810 0.7810 0.7790 0.7790
2.369000 0.7790 0.7840 0.7890 0.7930 0.7940
2.402238 0.7980 0.7990 0.7990 0.8010 0.8010
2.435000 0.8020 0.8020 0.8020 0.8040 0.8040
2.468238 0.8040 0.8060 0.8040 0.8040 0.8040
2.502000 0.8040 0.8070 0.8090 0.8110 0.8120
2.535238 0.8170 0.8210 0.8220 0.8260 0.8240
2.568000 0.8210 0.8170 0.8170 0.8240 0.8290
2.601238 0.8360 0.8390 0.8410 0.8410 0.8390
2.635000 0.8390 0.8360 0.8370 0.8370 0.8370
2.668238 0.8360 0.8340 0.8340 0.8320 0.8310
2.701000 0.8290 0.8310 0.8320 0.8340 0.8370
2.734238 0.8390 0.8370 0.8360 0.8320 0.8290
2.767000 0.8240 0.8170 0.8140 0.8110 0.8090
2.800238 0.8070 0.8070 0.8070 0.8090 0.8090
2.834000 0.8090 0.8040 0.8020 0.8010 0.7990
2.867238 0.7980 0.7960 0.7890 0.7880 0.7860
2.900000 0.7830 0.7760 0.7660 0.7590 0.7590
2.933238 0.7640 0.7740 0.7810 0.7910 0.7940
2.967000 0.7960 0.7980 0.7990 0.7990 0.8020
3.000238 0.8040 0.8060 0.8060 0.8020 0.8010
3.033000 0.7960 0.7930 0.7910 0.7910 0.7960
3.066238 0.8040 0.8070 0.8090 0.8120 0.8170
3.100000 0.8190 0.8210 0.8210 0.8220 0.8220
3.133238 0.8220 0.8240 0.8260 0.8290 0.8340
3.166000 0.8410 0.8440 0.8460 0.8490 0.8460
3.199238 0.8390 0.8340 0.8290 0.8240 0.8210
3.233000 0.8140 0.8090 0.8020 0.7990 0.7660
3.266238 0.7300 0.6920 0.5190 0.4600 0.3990
3.299000 0.3920 0.3940 0.4810 0.5870 0.5820
3.332238 0.5080 0.4610 0.4150 0.3950 0.3950
3.365000 0.4100 0.4370 0.4660 0.4950 0.5340
3.398238 0.5560 0.5620 0.5670 0.5790 0.5990
3.432000 0.6320 0.6780 0.6930 0.7050 0.7100
3.465238 0.7200 0.7330 0.7500 0.7710 0.7730
3.498000 0.7730 0.7730 0.7710 0.7740 0.7960
3.531238 0.8310 0.8390 0.8390 0.8390 0.8190
3.565000 0.8190 0.8420 0.8720 0.8870 0.8940
3.598238 0.8990 0.8990 0.8990 0.8990 0.8990
3.631000 0.8970 0.8970 0.8990 0.8990 0.8990
3.664238 0.8990 0.8970 0.8970 0.8940 0.8900
3.698000 0.8900 0.8920 0.9050 0.9150 0.9200
3.731238 0.9220 0.9200 0.9150 0.9080 0.9070
3.764000 0.9080 0.9180 0.9220 0.9270 0.9300
3.797238 0.9300 0.9300 0.9300 0.9300 0.9300
3.831000 0.9300 0.9270 0.9180 0.9150 0.9120
3.864238 0.9020 0.8970 0.8970 0.9000 0.9130
3.897000 0.9230 0.9330 0.9380 0.9430 0.9450
3.930238 0.9420 0.9380 0.9370 0.9320 0.9280
3.963000 0.9250 0.9230 0.9220 0.9230 0.9230
3.996238 0.9270 0.9320 0.9400 0.9420 0.9430
4.030000 0.9480 0.9510 0.9500 0.9370 0.9180
4.063238 0.9000 0.8890 0.8640 0.8240 0.7840
4.096000 0.7640 0.7430 0.7050 0.6670 0.6320
4.129238 0.5990 0.5710 0.5480 0.5190 0.5060
4.163000 0.4930 0.4700 0.4320 0.4030 0.3800
4.196238 0.3110 0.2680 0.2230 0.1750 0.1320
4.229000 0.1150 0.1050 0.0990 0.0960 0.0960
4.262238 0.0960 0.0960 0.0960 0.0970 0.0990
4.296000 0.1020 0.1070 0.1150 0.1250 0.1300
4.329238 0.1340 0.1320 0.1250 0.1200 0.1140
4.362000 0.1090 0.1050 0.1050 0.1050 0.1020
4.395238 0.0990 0.0920 0.0840 0.0770 0.0710
4.429000 0.0670 0.0640 0.0610 0.0520 0.0520
4.462238 0.0560 0.0620 0.0720 0.0860 0.1000
4.495000 0.1200 0.1400 0.1630 0.1850 0.2050
4.528238 0.2230 0.2790 0.3060 0.3290 0.3500
4.561000 0.3700 0.3870 0.4000 0.4120 0.4230
4.594238 0.4510 0.4750 0.4860 0.4960 0.5130
4.628000 0.5140 0.5160 0.5140 0.5080 0.5000
4.661238 0.4780 0.4760 0.4760 0.4880 0.5490
4.694000 0.5740 0.5910 0.6000 0.6100 0.6290
4.727238 0.6390 0.6450 0.6520 0.6530 0.6580
4.761000 0.6680 0.6780 0.6800 0.6800 0.6800
4.794238 0.6800 0.6670 0.6440 0.6300 0.6020
4.827000 0.5710 0.5510 0.5290 0.5080 0.4850
4.860238 0.4710 0.4710 0.4950 0.5910 0.6270
4.894000 0.6440 0.6600 0.6730 0.6870 0.6980
4.927238 0.7060 0.7110 0.7130 0.7110 0.7130
4.960000 0.7160 0.7230 0.7280 0.7360 0.7430
4.993238 0.7450 0.7460 0.7500 0.7560 0.7580
5.027000 0.7590 0.7630 0.7640 0.7710 0.7780
5.060238 0.7910 0.7980 0.8010 0.8020 0.8070
5.093000 0.8090 0.8110 0.8170 0.8210 0.8240
5.126238 0.8260 0.8270 0.8270 0.8270 0.8260
5.159000 0.8270 0.8260 0.8260 0.8260 0.8260
5.192238 0.8270 0.8260 0.8240 0.8210 0.8210
5.226000 0.8220 0.8310 0.8320 0.8340 0.8360
5.259238 0.8370 0.8390 0.8420 0.8460 0.8490
5.292000 0.8520 0.8570 0.8620 0.8650 0.8640
5.325238 0.8620 0.8570 0.8500 0.8460 0.8440
5.359000 0.8490 0.8600 0.8640 0.8650 0.8650
5.392238 0.8640 0.8600 0.8550 0.8540 0.8500
5.425000 0.8490 0.8500 0.8550 0.8590 0.8590
5.458238 0.8460 0.8390 0.8320 0.8270 0.8220
5.492000 0.8090 0.7930 0.7690 0.7680 0.7710
5.525238 0.7980 0.8160 0.8270 0.8290 0.8310
5.558000 0.8310 0.8320 0.8340 0.8360 0.8410
5.591238 0.8420 0.8420 0.8420 0.8410 0.8360
5.625000 0.8310 0.8310 0.8310 0.8320 0.8320
5.658238 0.8320 0.8340 0.8360 0.8360 0.8360
5.691000 0.8360 0.8360 0.8340 0.8370 0.8420
5.724238 0.8460 0.8490 0.8490 0.8500 0.8550
5.757000 0.8650 0.8650 0.8620 0.8600 0.8470
5.790238 0.8470 0.8520 0.8700 0.8700 0.8650
5.824000 0.8620 0.8590 0.8550 0.8520 0.8500
5.857238 0.8500 0.8600 0.8600 0.8540 0.8490
5.890000 0.8440 0.8420 0.8440 0.8420 0.8420
5.923238 0.8420 0.8390 0.8370 0.8370 0.8370
5.957000 0.8410 0.8460 0.8490 0.8490 0.8410
5.990238 0.8370 0.8310 0.8270 0.8260 0.8290
6.023000 0.8410 0.8460 0.8520 0.8570 0.8620
6.056238 0.8640 0.8670 0.8720 0.8790 0.8790
6.090000 0.8750 0.8690 0.8670 0.8690 0.8690
6.123238 0.8720 0.8740 0.8750 0.8800 0.8820
6.156000 0.8840 0.8820 0.8840 0.8850 0.8890
6.189238 0.8920 0.8950 0.8990 0.9000 0.9000
6.223000 0.9020 0.9020 0.9020 0.9000 0.8970
6.256238 0.8900 0.8900 0.8890 0.8890 0.8900
6.289000 0.8940 0.8940 0.8900 0.8870 0.8800
6.322238 0.8700 0.8570 0.8500 0.8470 0.8470
6.355000 0.8470 0.8490 0.8590 0.8600 0.8620
6.388238 0.8600 0.8490 0.8440 0.8390 0.8340
6.422000 0.8310 0.8290 0.8310 0.8360 0.8460
6.455238 0.8490 0.8490 0.8490 0.8470 0.8420
6.488000 0.8360 0.8310 0.8270 0.8290 0.8290
6.521238 0.8310 0.8340 0.8370 0.8390 0.8420
6.555000 0.8420 0.8370 0.8340 0.8340 0.8320
6.588238 0.8320 0.8370 0.8370 0.8320 0.8170
6.621000 0.8040 0.7880 0.7660 0.7500 0.7310
6.654238 0.6820 0.6140 0.5230 0.4630 0.4030
6.688000 0.3010 0.2660 0.2310 0.1630 0.1390
6.721238 0.1140 0.0990 0.0910 0.0810 0.0670
6.754000 0.0520 0.0520 0.0540 0.0560 0.0620
6.787238 0.0640 0.0670 0.0690 0.1090 0.1400
6.821000 0.1870 0.2210 0.2430 0.2590 0.2610
6.854238 0.2610 0.2660 0.2780 0.3020 0.3190
6.887000 0.3340 0.3440 0.3540 0.3620 0.3750
6.920238 0.3940 0.4120 0.4250 0.4350 0.4530
6.953000 0.4680 0.4850 0.5040 0.5080 0.5140
6.986238 0.5230 0.5310 0.5390 0.5480 0.5520
7.020000 0.5590 0.5610 0.5620 0.5590 0.5440
7.053238 0.5260 0.5080 0.4880 0.4430 0.3840
7.086000 0.2780 0.2610 0.2690 0.2980 0.3500
7.119238 0.3850 0.4170 0.4530 0.4850 0.5280
7.153000 0.5340 0.5360 0.5360 0.5390 0.5430
7.186238 0.5490 0.5540 0.5520 0.5490 0.5430
7.219000 0.5410 0.5390 0.5390 0.5460 0.5540
7.252238 0.5590 0.5620 0.5690 0.5760 0.5770
7.286000 0.5810 0.5810 0.5840 0.5840 0.5860
7.319238 0.5920 0.5920 0.5870 0.5760 0.5740
7.352000 0.5720 0.5710 0.5710 0.5690 0.5670
7.385238 0.5660 0.5640 0.5620 0.5610 0.5590
7.419000 0.5610 0.5640 0.5710 0.5760 0.5860
7.452238 0.5870 0.5860 0.5810 0.5770 0.5760
7.485000 0.5740 0.5740 0.5740 0.5720 0.5690
7.518238 0.5660 0.5660 0.5640 0.5620 0.5570
7.551000 0.5490 0.5430 0.5430 0.5490 0.5560
7.584238 0.5590 0.5620 0.5640 0.5660 0.5660
7.618000 0.5670 0.5670 0.5670 0.5690 0.5710
7.651238 0.5720 0.5790 0.5820 0.5840 0.5860
7.684000 0.5870 0.5890 0.5920 0.5960 0.5970
7.717238 0.5990 0.5990 0.6000 0.6020 0.6040
7.751000 0.6040 0.6040 0.6040 0.6020 0.6020
7.784238 0.6020 0.6000 0.6000 0.6000 0.5970
7.817000 0.5960 0.5890 0.5820 0.5740 0.5690
7.850238 0.5610 0.5480 0.5360 0.5080 0.4860
7.884000 0.4630 0.4020 0.3440 0.2940 0.2580
7.917238 0.2400 0.2210 0.2200 0.2210 0.2210
7.950000 0.2280 0.2410 0.2740 0.2860 0.3160
7.983238 0.3470 0.3750 0.4030 0.4280 0.4530
8.017000 0.4650 0.4780 0.4950 0.4980 0.5130
8.050238 0.5160 0.5190 0.5230 0.5260 0.5290
8.083000 0.5310 0.5310 0.5290 0.5240 0.5210
8.116238 0.5180 0.5130 0.5080 0.5030 0.5010
8.150000 0.5010 0.5000 0.4960 0.4880 0.4800
8.183238 0.4710 0.4630 0.4550 0.4480 0.4450
8.216000 0.4380 0.4330 0.4280 0.4230 0.4150
8.249238 0.4080 0.4000 0.3940 0.3840 0.3740
8.282000 0.3690 0.3620 0.3460 0.3370 0.3290
8.315238 0.3220 0.3120 0.3040 0.2980 0.2930
8.349000 0.2840 0.2740 0.2640 0.2510 0.2480
8.382238 0.2450 0.2430 0.2310 0.2230 0.2130
8.415000 0.2050 0.1970 0.1920 0.1850 0.1800
8.448238 0.1750 0.1720 0.1680 0.1680 0.1670
8.482000 0.1630 0.1620 0.1600 0.1570 0.1530
8.515238 0.1520 0.1490 0.1450 0.1400 0.1390
8.548000 0.1390 0.1390 0.1390 0.1390 0.1400
8.581238 0.1400 0.1440 0.1470 0.1520 0.1570
8.615000 0.1580 0.1580 0.1650 0.1770 0.1830
8.648238 0.1970 0.2030 0.2160 0.2230 0.2310
8.681000 0.2380 0.2450 0.2590 0.2680 0.2810
8.714238 0.2940 0.2990 0.3020 0.3110 0.3170
8.748000 0.3190 0.3220 0.3270 0.3340 0.3370
8.781238 0.3390 0.3390 0.3390 0.3370 0.3340
8.814000 0.3240 0.3140 0.2980 0.2780 0.2590
8.847238 0.2500 0.2400 0.2160 0.2030 0.1930
8.880000 0.1900 0.1900 0.1950 0.2280 0.2940
8.913238 0.3190 0.3390 0.3670 0.3870 0.4000
8.947000 0.4200 0.4350 0.4470 0.4580 0.4630
8.980238 0.4730 0.4850 0.5000 0.5110 0.5140
9.013000 0.5210 0.5330 0.5360 0.5360 0.5390
9.046238 0.5430 0.5480 0.5490 0.5510 0.5540
9.080000 0.5560 0.5570 0.5590 0.5590 0.5610
9.113238 0.5610 0.5610 0.5610 0.5590 0.5590
9.146000 0.5570 0.5570 0.5590 0.5590 0.5610
9.179238 0.5640 0.5670 0.5690 0.5690 0.5690
9.213000 0.5710 0.5710 0.5710 0.5710 0.5740
9.246238 0.5760 0.5770 0.5770 0.5770 0.5790
9.279000 0.5790 0.5790 0.5770 0.5760 0.5760
9.312238 0.5770 0.5790 0.5790 0.5790 0.5790
9.346000 0.5790 0.5810 0.5810 0.5820 0.5840
9.379238 0.5840 0.5860 0.5860 0.5870 0.5870
9.412000 0.5890 0.5870 0.5890 0.5890 0.5910
9.445238 0.5920 0.5940 0.5940 0.5940 0.5940
9.478000 0.5920 0.5920 0.5910 0.5920 0.5920
9.511238 0.5920 0.5920 0.5910 0.5910 0.5870
9.545000 0.5840 0.5810 0.5790 0.5770 0.5770
9.578238 0.5810 0.5820 0.5820 0.5840 0.5820
9.611000 0.5820 0.5810 0.5790 0.5760 0.5740
9.644238 0.5690 0.5670 0.5670 0.5720 0.5720
9.678000 0.5710 0.5710 0.5710 0.5670 0.5660
9.711238 0.5640 0.5620 0.5610 0.5520 0.5510
9.744000 0.5490 0.5430 0.5390 0.5360 0.5290
9.777238 0.5160 0.5060 0.5030 0.4980 0.4900
9.811000 0.4800 0.4700 0.4580 0.4430 0.4230
9.844238 0.4070 0.3900 0.3770 0.3590 0.3410
9.877000 0.3090 0.2890 0.2740 0.2510 0.2450
9.910238 0.2360 0.2200 0.2050 0.1970 0.1900
9.944000 0.1800 0.1720 0.1670 0.1650 0.1620
9.977238 0.1600 0.1580 0.1580 0.1580 0.1600
10.010000 0.1680 0.1720 0.1800 0.1950 0.2050
10.043238 0.2230 0.2400 0.2780 0.3020 0.3310
10.076000 0.3550 0.3750 0.3970 0.4150 0.4350
10.109238 0.4550 0.4680 0.4850 0.5190 0.5330
10.143000 0.5380 0.5460 0.5540 0.5640 0.5690
10.176238 0.5760 0.5810 0.5890 0.5970 0.5990
10.209000 0.6000 0.6040 0.6070 0.6090 0.6100
10.242238 0.6120 0.6150 0.6170 0.6200 0.6220
10.276000 0.6270 0.6290 0.6320 0.6350 0.6390
10.309238 0.6400 0.6420 0.6470 0.6470 0.6490
10.342000 0.6490 0.6490 0.6500 0.6520 0.6550
10.375238 0.6570 0.6570 0.6580 0.6580 0.6600
10.409000 0.6620 0.6670 0.6700 0.6700 0.6680
10.442238 0.6670 0.6670 0.6670 0.6680 0.6750
10.475000 0.6780 0.6780 0.6780 0.6770 0.6750
10.508238 0.6730 0.6750 0.6780 0.6820 0.6850
10.542000 0.6870 0.6880 0.6880 0.6900 0.6900
10.575238 0.6900 0.6900 0.6900 0.6900 0.6870
10.608000 0.6870 0.6880 0.6880 0.6880 0.6900
10.641238 0.6930 0.6920 0.6920 0.6900 0.6900
10.674000 0.6880 0.6870 0.6850 0.6830 0.6820
10.707238 0.6800 0.6820 0.6820 0.6820 0.6820
10.741000 0.6830 0.6830 0.6850 0.6870 0.6880
10.774238 0.6870 0.6880 0.6880 0.6920 0.6930
10.807000 0.6950 0.6970 0.6970 0.7000 0.7010
10.840238 0.7010 0.7010 0.7000 0.6980 0.6980
10.874000 0.6980 0.6980 0.6970 0.6930 0.6920
10.907238 0.6900 0.6880 0.6870 0.6830 0.6780
10.940000 0.6750 0.6680 0.6550 0.6450 0.6200
10.973238 0.6150 0.6120 0.6120 0.6120 0.6170
11.007000 0.6320 0.6470 0.6580 0.6700 0.6780
11.040238 0.6850 0.6880 0.6920 0.6970 0.6980
11.073000 0.7000 0.7010 0.7030 0.7010 0.7000
11.106238 0.6980 0.6970 0.6930 0.6870 0.6820
11.140000 0.6770 0.6730 0.6730 0.6720 0.6670
11.173238 0.6630 0.6580 0.6520 0.6420 0.6340
11.206000 0.6270 0.6190 0.6150 0.6120 0.6070
11.239238 0.5990 0.5920 0.5840 0.5790 0.5720
11.272000 0.5710 0.5560 0.5510 0.5410 0.5290
11.305238 0.5160 0.5040 0.5030 0.5000 0.4950
11.339000 0.4880 0.4810 0.4760 0.4680 0.4630
11.372238 0.4580 0.4480 0.4480 0.4470 0.4450
11.405000 0.4430 0.4430 0.4420 0.4400 0.4380
11.438238 0.4350 0.4320 0.4300 0.4280 0.4270
11.472000 0.4230 0.4170 0.4050 0.3970 0.3940
11.505238 0.3840 0.3720 0.3640 0.3520 0.3340
11.538000 0.3190 0.3070 0.2980 0.2890 0.2810
11.571238 0.2740 0.2660 0.2540 0.2480 0.2410
11.605000 0.2330 0.2230 0.2180 0.2060 0.2010
11.638238 0.2000 0.1970 0.1930 0.1850 0.1820
11.671000 0.1800 0.1800 0.1770 0.1700 0.1650
11.704238 0.1650 0.1670 0.1670 0.1670 0.1670
11.738000 0.1670 0.1670 0.1670 0.1700 0.1700
11.771238 0.1700 0.1700 0.1720 0.1720 0.1750
11.804000 0.1850 0.1970 0.2030 0.2110 0.2130
11.837238 0.2180 0.2400 0.2480 0.2690 0.2830
11.870000 0.2940 0.3070 0.3220 0.3320 0.3440
11.903238 0.3540 0.3670 0.3800 0.3900 0.4000
11.937000 0.4100 0.4200 0.4320 0.4430 0.4550
11.970238 0.4650 0.4760 0.4860 0.4960 0.5160
12.003000 0.5240 0.5330 0.5430 0.5510 0.5570
12.036238 0.5660 0.5740 0.5820 0.5940 0.5990
12.070000 0.6000 0.6040 0.6150 0.6190 0.6220
12.103238 0.6240 0.6270 0.6320 0.6370 0.6390
12.136000 0.6390 0.6390 0.6420 0.6450 0.6470
12.169238 0.6470 0.6490 0.6500 0.6530 0.6570
12.203000 0.6580 0.6580 0.6600 0.6650 0.6700
12.236238 0.6720 0.6720 0.6700 0.6680 0.6680
12.269000 0.6680 0.6700 0.6720 0.6730 0.6720
12.302238 0.6700 0.6680 0.6680 0.6700 0.6770
12.336000 0.6770 0.6730 0.6730 0.6750 0.6770
12.369238 0.6770 0.6780 0.6800 0.6830 0.6850
12.402000 0.6870 0.6880 0.6930 0.6980 0.7000
12.435238 0.7010 0.7050 0.7080 0.7100 0.7110
12.468000 0.7130 0.7150 0.7180 0.7200 0.7200
12.501238 0.7210 0.7210 0.7250 0.7260 0.7280
12.535000 0.7300 0.7360 0.7430 0.7500 0.7580
12.568238 0.7590 0.7630 0.7680 0.7860 0.7940
12.601000 0.7940 0.7940 0.7940 0.7940 0.7940
12.634238 0.7940 0.7980 0.7990 0.8010 0.8020
12.668000 0.8020 0.8040 0.8060 0.8060 0.8060
12.701238 0.8060 0.8070 0.8090 0.8090 0.8110
12.734000 0.8090 0.8110 0.8110 0.8110 0.8120
12.767238 0.8140 0.8160 0.8160 0.8140 0.8140
12.801000 0.8140 0.8120 0.8090 0.8090 0.8090
12.834238 0.8120 0.8120 0.8070 0.8090 0.8140
12.867000 0.8160 0.8160 0.8160 0.8140 0.8140
12.900238 0.8140 0.8120 0.8120 0.8110 0.8110
12.934000 0.8090 0.8070 0.8090 0.8110 0.8120
12.967238 0.8120 0.8120 0.8140 0.8160 0.8170
13.000000 0.8170 0.8170 0.8190 0.8210 0.8220
13.033238 0.8220 0.8240 0.8220 0.8240 0.8240
13.066000 0.8240 0.8260 0.8240 0.8240 0.8240
13.099238 0.8220 0.8240 0.8260 0.8260 0.8260
13.133000 0.8260 0.8260 0.8220 0.8220 0.8220
13.166238 0.8260 0.8270 0.8290 0.8310 0.8320
13.199000 0.8360 0.8360 0.8340 0.8320 0.8310
13.232238 0.8310 0.8290 0.8290 0.8290 0.8290
13.266000 0.8310 0.8320 0.8320 0.8340 0.8320
13.299238 0.8340 0.8340 0.8360 0.8360 0.8390
13.332000 0.8390 0.8360 0.8320 0.8310 0.8310
13.365238 0.8310 0.8290 0.8270 0.8260 0.8260
13.399000 0.8220 0.8190 0.8140 0.8120 0.8140
13.432238 0.8140 0.8110 0.8060 0.8060 0.8020
13.465000 0.8020 0.8010 0.7990 0.7980 0.7980
13.498238 0.7980 0.7940 0.7910 0.7910 0.7890
13.532000 0.7860 0.7830 0.7810 0.7780 0.7780
13.565238 0.7760 0.7730 0.7610 0.7590 0.7590
13.598000 0.7630 0.7630 0.7630 0.7630 0.7610
13.631238 0.7610 0.7590 0.7540 0.7530 0.7510
13.664000 0.7510 0.7500 0.7450 0.7410 0.7380
13.697238 0.7310 0.7280 0.7250 0.7250 0.7230
13.731000 0.7230 0.7210 0.7230 0.7260 0.7310
13.764238 0.7380 0.7400 0.7380 0.7360 0.7330
13.797000 0.7350 0.7330 0.7330 0.7330 0.7310
13.830238 0.7300 0.7260 0.7200 0.7180 0.7160
13.864000 0.7150 0.7130 0.7110 0.7100 0.7080
13.897238 0.7000 0.6970 0.6980 0.7030 0.7100
13.930000 0.7150 0.7210 0.7300 0.7410 0.7590
13.963238 0.7630 0.7680 0.7710 0.7760 0.7810
13.997000 0.7880 0.7930 0.7980 0.8020 0.8090
14.030238 0.8160 0.8170 0.8170 0.8170 0.8160
14.063000 0.8160 0.8170 0.8190 0.8220 0.8240
14.096238 0.8270 0.8270 0.8290 0.8290 0.8310
14.130000 0.8320 0.8360 0.8370 0.8390 0.8390
14.163238 0.8390 0.8390 0.8390 0.8410 0.8390
14.196000 0.8410 0.8410 0.8460 0.8500 0.8500
14.229238 0.8490 0.8470 0.8460 0.8460 0.8420
14.262000 0.8420 0.8420 0.8440 0.8490 0.8470
14.295238 0.8440 0.8440 0.8410 0.8370 0.8360
14.329000 0.8360 0.8360 0.8360 0.8340 0.8340
14.362238 0.8340 0.8340 0.8290 0.8260 0.8260
14.395000 0.8260 0.8260 0.8260 0.8260 0.8240
14.428238 0.8240 0.8210 0.8190 0.8110 0.8110
14.462000 0.8090 0.8070 0.8070 0.8060 0.8020
14.495238 0.8010 0.8010 0.7960 0.7890 0.7760
14.528000 0.7710 0.7680 0.7660 0.7630 0.7560
14.561238 0.7510 0.7500 0.7480 0.7460 0.7450
14.595000 0.7430 0.7410 0.7400 0.7400 0.7360
14.628238 0.7360 0.7350 0.7330 0.7310 0.7330
14.661000 0.7350 0.7350 0.7360 0.7360 0.7350
14.694238 0.7350 0.7350 0.7350 0.7350 0.7350
14.728000 0.7360 0.7360 0.7360 0.7360 0.7360
14.761238 0.7350 0.7310 0.7280 0.7260 0.7230
14.794000 0.7180 0.7200 0.7160 0.7130 0.7100
14.827238 0.7080 0.7080 0.7100 0.7110 0.7110
14.860000 0.7100 0.7060 0.7060 0.7050 0.7050
14.893238 0.7060 0.7100 0.7110 0.7150 0.7160
14.927000 0.7200 0.7230 0.7250 0.7260 0.7260
14.960238 0.7260 0.7260 0.7260 0.7260 0.7260
14.993000 0.7260 0.7260 0.7260 0.7250 0.7230
15.026238 0.7210 0.7210 0.7200 0.7200 0.7210
15.060000 0.7250 0.7310 0.7400 0.7480 0.7630
15.093238 0.7690 0.7760 0.7840 0.7910 0.7960
15.126000 0.7990 0.7990 0.7990 0.8010 0.8020
15.159238 0.8020 0.8010 0.8010 0.7980 0.7960
15.193000 0.7960 0.7960 0.7960 0.7990 0.7990
15.226238 0.7990 0.7980 0.7980 0.7980 0.7960
15.259000 0.7960 0.7940 0.7940 0.7940 0.7940
15.292238 0.7930 0.7910 0.7910 0.7890 0.7810
15.326000 0.7780 0.7780 0.7810 0.7830 0.7830
15.359238 0.7810 0.7810 0.7780 0.7760 0.7730
15.392000 0.7730 0.7710 0.7710 0.7660 0.7640
15.425238 0.7640 0.7660 0.7740 0.7760 0.7760
15.458000 0.7710 0.7680 0.7640 0.7590 0.7580
15.491238 0.7580 0.7610 0.7610 0.7580 0.7560
15.525000 0.7530 0.7530 0.7530 0.7510 0.7510
15.558238 0.7530 0.7540 0.7540 0.7540 0.7530
15.591000 0.7530 0.7530 0.7530 0.7530 0.7510
15.624238 0.7500 0.7480 0.7450 0.7410 0.7400
15.658000 0.7400 0.7400 0.7400 0.7380 0.7350
15.691238 0.7330 0.7300 0.7300 0.7280 0.7280
15.724000 0.7260 0.7230 0.7210 0.7200 0.7180
15.757238 0.7160 0.7150 0.7150 0.7130 0.7110
15.791000 0.7110 0.7100 0.7080 0.7080 0.7080
15.824238 0.7060 0.7060 0.7050 0.7030 0.7000
15.857000 0.6980 0.6970 0.6970 0.6950 0.6930
15.890238 0.6930 0.6900 0.6900 0.6900 0.6880
15.924000 0.6870 0.6850 0.6830 0.6830 0.6820
15.957238 0.6800 0.6780 0.6770 0.6770 0.6750
15.990000 0.6720 0.6770 0.6750
##END=
