##TITLE=Pyrimidinepropionic acid, 1(2H)-,Alpha-amino-3,4-dihydro-2,4-dioxo-,hydrate
##JCAMP-DX=4.24
##DATA TYPE=INFRARED SPECTRUM
##CLASS=COBLENTZ III
##ORIGIN=SMITH, KLINE & FRENCH LABS.
##OWNER=Copyright (C) 1987 by the Coblentz Society
Collection (C) 2018 copyright by the U.S. Secretary of Commerce
on behalf of the United States of America. All rights reserved.
##DATE=1965/07/06
##NAMES=3-(2,4-dioxo-3,4-dihydro-1(2H)-pyrimidinyl)alanine hydrate
WILLARDINE, MONOHYDRATE
##MOLFORM=C7 H9 N3 O4  * H2 O
##SOURCE REFERENCE=COBLENTZ NO. 7340
##$NIST ID=B6007340
##$NIST SOURCE=COBLENTZ
##$NIST IMAGE=cob7340
##SPECTROMETER/DATA SYSTEM=PERKIN-ELMER 21 (GRATING)
##INSTRUMENT PARAMETERS=NaCl PRISM
##STATE=SOLID (OIL MULL)
$$SPECTRAL CONTAMINATION DUE TO OIL AROUND 2850, 1450 CM^-^1
##SAMPLING PROCEDURE=TRANSMISSION
##RESOLUTION=2
##DATA PROCESSING=DIGITIZED BY COBLENTZ SOCIETY (BATCH II) FROM HARD COPY
##XUNITS=1/CM
##YUNITS=TRANSMITTANCE
##XFACTOR=1.0
##YFACTOR=1
##FIRSTX=668
##LASTX=4000
##FIRSTY=0.6809
##MAXX=4000
##MINX=668
##MAXY=0.9432
##MINY=0.1929
##NPOINTS=3333
##XYDATA=(X++(Y..Y))
668.000000 0.6809 0.6764 0.6721 0.6683 0.6681
673.000000 0.6691 0.6716 0.6809 0.6958 0.7078
678.000000 0.7172 0.7244 0.7291 0.7338 0.7365
683.000000 0.7385 0.7414 0.7441 0.7470 0.7497
688.000000 0.7526 0.7551 0.7574 0.7596 0.7619
693.000000 0.7640 0.7663 0.7676 0.7688 0.7699
698.000000 0.7710 0.7716 0.7723 0.7771 0.7737
703.000000 0.7740 0.7744 0.7747 0.7751 0.7754
708.000000 0.7751 0.7745 0.7739 0.7733 0.7727
713.000000 0.7719 0.7710 0.7702 0.7693 0.7684
718.000000 0.7676 0.7671 0.7665 0.7659 0.7653
723.000000 0.7641 0.7627 0.7598 0.7496 0.7373
728.000000 0.7110 0.7068 0.7171 0.7337 0.7473
733.000000 0.7618 0.7768 0.7880 0.7932 0.7959
738.000000 0.7978 0.7984 0.7976 0.7955 0.7959
743.000000 0.7949 0.7935 0.7907 0.7873 0.7787
748.000000 0.7645 0.7487 0.7302 0.7197 0.7171
753.000000 0.7327 0.7526 0.7676 0.7773 0.7809
758.000000 0.7820 0.7806 0.7793 0.7798 0.7835
763.000000 0.7930 0.8058 0.8152 0.8169 0.8176
768.000000 0.8162 0.8134 0.8103 0.8043 0.7984
773.000000 0.7888 0.7810 0.7914 0.8040 0.8171
778.000000 0.8265 0.8323 0.8351 0.8368 0.8371
783.000000 0.8372 0.8374 0.8373 0.8371 0.8370
788.000000 0.8369 0.8368 0.8369 0.8371 0.8372
793.000000 0.8373 0.8399 0.8373 0.8373 0.8372
798.000000 0.8372 0.8369 0.8366 0.8363 0.8359
803.000000 0.8349 0.8337 0.8325 0.8310 0.8278
808.000000 0.8244 0.8206 0.8160 0.8096 0.8029
813.000000 0.7957 0.7856 0.7751 0.7635 0.7522
818.000000 0.7414 0.7300 0.7169 0.7027 0.6865
823.000000 0.6681 0.6428 0.6272 0.6257 0.6367
828.000000 0.6847 0.7373 0.7622 0.7731 0.7810
833.000000 0.7867 0.7913 0.7930 0.7935 0.7901
838.000000 0.7915 0.7895 0.7859 0.7821 0.7749
843.000000 0.7672 0.7575 0.7478 0.7326 0.7164
848.000000 0.7015 0.6767 0.6615 0.6610 0.6670
853.000000 0.6793 0.6893 0.6938 0.6957 0.6933
858.000000 0.6916 0.6894 0.6858 0.6797 0.6737
863.000000 0.6685 0.6660 0.6663 0.6639 0.6692
868.000000 0.6736 0.6802 0.6890 0.7006 0.7147
873.000000 0.7292 0.7409 0.7494 0.7578 0.7654
878.000000 0.7720 0.7786 0.7851 0.7896 0.7930
883.000000 0.7964 0.7997 0.8028 0.8060 0.8092
888.000000 0.8122 0.8147 0.8164 0.8180 0.8196
893.000000 0.8207 0.8219 0.8230 0.8241 0.8251
898.000000 0.8258 0.8264 0.8270 0.8276 0.8283
903.000000 0.8289 0.8292 0.8296 0.8300 0.8303
908.000000 0.8307 0.8311 0.8314 0.8318 0.8320
913.000000 0.8322 0.8324 0.8357 0.8329 0.8331
918.000000 0.8333 0.8335 0.8333 0.8330 0.8328
923.000000 0.8326 0.8324 0.8322 0.8322 0.8323
928.000000 0.8323 0.8323 0.8323 0.8324 0.8319
933.000000 0.8315 0.8309 0.8303 0.8297 0.8293
938.000000 0.8285 0.8278 0.8271 0.8264 0.8256
943.000000 0.8249 0.8241 0.8234 0.8219 0.8204
948.000000 0.8188 0.8174 0.8158 0.8144 0.8124
953.000000 0.8096 0.8068 0.8034 0.7999 0.7965
958.000000 0.7909 0.7849 0.7786 0.7704 0.7563
963.000000 0.7494 0.7505 0.7475 0.7641 0.7718
968.000000 0.7768 0.7776 0.7744 0.7677 0.7575
973.000000 0.7462 0.7350 0.7234 0.7088 0.6769
978.000000 0.6752 0.6756 0.6743 0.6872 0.6950
983.000000 0.7028 0.7106 0.7166 0.7224 0.7297
988.000000 0.7371 0.7456 0.7544 0.7639 0.7738
993.000000 0.7887 0.8085 0.8165 0.8222 0.8261
998.000000 0.8298 0.8325 0.8343 0.8359 0.8371
1003.000000 0.8375 0.8378 0.8382 0.8385 0.8388
1008.000000 0.8387 0.8408 0.8384 0.8382 0.8381
1013.000000 0.8379 0.8378 0.8376 0.8374 0.8373
1018.000000 0.8371 0.8370 0.8369 0.8370 0.8371
1023.000000 0.8373 0.8374 0.8375 0.8374 0.8362
1028.000000 0.8349 0.8334 0.8309 0.8284 0.8272
1033.000000 0.8263 0.8253 0.8238 0.8223 0.8208
1038.000000 0.8192 0.8171 0.8149 0.8122 0.8094
1043.000000 0.8064 0.8010 0.7978 0.7966 0.7922
1048.000000 0.7857 0.7749 0.7645 0.7540 0.7424
1053.000000 0.7322 0.7253 0.7247 0.7241 0.7386
1058.000000 0.7543 0.7699 0.7855 0.8009 0.8093
1063.000000 0.8147 0.8184 0.8213 0.8240 0.8266
1068.000000 0.8286 0.8300 0.8313 0.8320 0.8325
1073.000000 0.8332 0.8334 0.8318 0.8309 0.8301
1078.000000 0.8289 0.8274 0.8259 0.8244 0.8225
1083.000000 0.8199 0.8174 0.8121 0.8058 0.7994
1088.000000 0.7914 0.7840 0.7811 0.7803 0.7813
1093.000000 0.7822 0.7890 0.7952 0.8005 0.8079
1098.000000 0.8164 0.8227 0.8286 0.8314 0.8329
1103.000000 0.8341 0.8346 0.8350 0.8353 0.8343
1108.000000 0.8351 0.8350 0.8349 0.8345 0.8338
1113.000000 0.8330 0.8323 0.8311 0.8293 0.8274
1118.000000 0.8255 0.8236 0.8216 0.8196 0.8176
1123.000000 0.8170 0.8165 0.8160 0.8153 0.8138
1128.000000 0.8120 0.8093 0.8055 0.8018 0.7977
1133.000000 0.7931 0.7885 0.7839 0.7782 0.7709
1138.000000 0.7637 0.7565 0.7463 0.7355 0.7239
1143.000000 0.7115 0.6994 0.6877 0.6757 0.6608
1148.000000 0.6526 0.6531 0.6524 0.6657 0.6898
1153.000000 0.7139 0.7379 0.7619 0.7730 0.7781
1158.000000 0.7816 0.7845 0.7856 0.7868 0.7879
1163.000000 0.7880 0.7880 0.7897 0.7876 0.7867
1168.000000 0.7859 0.7848 0.7835 0.7821 0.7788
1173.000000 0.7754 0.7693 0.7618 0.7519 0.7421
1178.000000 0.7356 0.7351 0.7357 0.7367 0.7395
1183.000000 0.7534 0.7645 0.7721 0.7765 0.7777
1188.000000 0.7772 0.7761 0.7733 0.7707 0.7684
1193.000000 0.7667 0.7673 0.7683 0.7708 0.7738
1198.000000 0.7782 0.7825 0.7859 0.7887 0.7915
1203.000000 0.7942 0.7950 0.7954 0.7955 0.7942
1208.000000 0.7927 0.7905 0.7880 0.7850 0.7817
1213.000000 0.7791 0.7776 0.7769 0.7774 0.7779
1218.000000 0.7785 0.7803 0.7823 0.7839 0.7844
1223.000000 0.7846 0.7848 0.7839 0.7829 0.7818
1228.000000 0.7799 0.7758 0.7691 0.7600 0.7414
1233.000000 0.7202 0.7047 0.6909 0.6755 0.6587
1238.000000 0.6322 0.6072 0.5823 0.5597 0.5538
1243.000000 0.5546 0.5542 0.6074 0.6447 0.6819
1248.000000 0.7136 0.7284 0.7586 0.7705 0.7751
1253.000000 0.7788 0.7811 0.7832 0.7854 0.7870
1258.000000 0.7881 0.7892 0.7900 0.7905 0.7910
1263.000000 0.7914 0.7918 0.7922 0.7926 0.7929
1268.000000 0.7933 0.7936 0.7938 0.7939 0.7940
1273.000000 0.7964 0.7942 0.7942 0.7936 0.7931
1278.000000 0.7925 0.7919 0.7914 0.7904 0.7893
1283.000000 0.7882 0.7871 0.7860 0.7847 0.7828
1288.000000 0.7809 0.7773 0.7735 0.7697 0.7659
1293.000000 0.7586 0.7513 0.7439 0.7364 0.7290
1298.000000 0.7119 0.6851 0.6552 0.6328 0.6118
1303.000000 0.5808 0.5261 0.4704 0.4417 0.4407
1308.000000 0.4420 0.4597 0.4956 0.5315 0.5674
1313.000000 0.6031 0.6283 0.6282 0.6287 0.6070
1318.000000 0.5800 0.5530 0.5260 0.4992 0.4723
1323.000000 0.4455 0.4323 0.4322 0.4276 0.4840
1328.000000 0.5203 0.5565 0.5928 0.6289 0.6513
1333.000000 0.6647 0.6768 0.6858 0.6947 0.7013
1338.000000 0.7068 0.7121 0.7154 0.7185 0.7206
1343.000000 0.7185 0.7172 0.7155 0.7127 0.7085
1348.000000 0.7040 0.6999 0.6958 0.6901 0.6852
1353.000000 0.6828 0.6807 0.6781 0.6751 0.6719
1358.000000 0.6673 0.6570 0.6429 0.6254 0.6021
1363.000000 0.5785 0.5548 0.5311 0.5023 0.5009
1368.000000 0.5015 0.5036 0.5203 0.5386 0.5570
1373.000000 0.5754 0.5937 0.6119 0.6302 0.6484
1378.000000 0.6666 0.6845 0.6949 0.6949 0.6957
1383.000000 0.6932 0.6895 0.6818 0.6521 0.6163
1388.000000 0.5805 0.5448 0.5091 0.4881 0.4842
1393.000000 0.4897 0.5054 0.5233 0.5410 0.5573
1398.000000 0.5631 0.5628 0.5650 0.5558 0.5314
1403.000000 0.5014 0.4713 0.4413 0.4239 0.4200
1408.000000 0.4216 0.4224 0.4246 0.4419 0.4631
1413.000000 0.4842 0.5053 0.5264 0.5474 0.5684
1418.000000 0.5894 0.6103 0.6312 0.6522 0.6689
1423.000000 0.6746 0.6757 0.6769 0.6760 0.6718
1428.000000 0.6663 0.6592 0.6508 0.6429 0.6354
1433.000000 0.6275 0.6191 0.6108 0.6039 0.5972
1438.000000 0.5899 0.5684 0.5364 0.5045 0.4726
1443.000000 0.4407 0.4090 0.3770 0.3617 0.3522
1448.000000 0.3464 0.3407 0.3373 0.3352 0.3354
1453.000000 0.3357 0.3366 0.3389 0.3500 0.3797
1458.000000 0.4098 0.4399 0.4699 0.4999 0.5299
1463.000000 0.5598 0.5897 0.6195 0.6492 0.6699
1468.000000 0.6795 0.6862 0.6883 0.6899 0.6915
1473.000000 0.6925 0.6927 0.6930 0.6928 0.6916
1478.000000 0.6885 0.6821 0.6748 0.6675 0.6602
1483.000000 0.6529 0.6456 0.6384 0.6311 0.6239
1488.000000 0.6166 0.6094 0.6038 0.6029 0.6024
1493.000000 0.6025 0.6065 0.6031 0.6105 0.6273
1498.000000 0.6452 0.6629 0.6806 0.6992 0.7177
1503.000000 0.7288 0.7359 0.7435 0.7514 0.7567
1508.000000 0.7608 0.7649 0.7679 0.7688 0.7696
1513.000000 0.7705 0.7705 0.7701 0.7697 0.7693
1518.000000 0.7689 0.7706 0.7673 0.7666 0.7664
1523.000000 0.7666 0.7668 0.7669 0.7671 0.7674
1528.000000 0.7676 0.7679 0.7677 0.7674 0.7672
1533.000000 0.7668 0.7659 0.7648 0.7639 0.7627
1538.000000 0.7614 0.7591 0.7559 0.7521 0.7480
1543.000000 0.7439 0.7394 0.7344 0.7292 0.7241
1548.000000 0.7196 0.7155 0.7116 0.7095 0.7079
1553.000000 0.7064 0.7051 0.7038 0.7023 0.6996
1558.000000 0.6964 0.6932 0.6884 0.6811 0.6715
1563.000000 0.6584 0.6425 0.6235 0.6027 0.5817
1568.000000 0.5608 0.5399 0.5190 0.4981 0.4773
1573.000000 0.4564 0.4271 0.4080 0.3616 0.3386
1578.000000 0.3350 0.3330 0.3315 0.3312 0.3314
1583.000000 0.3318 0.3330 0.3394 0.3524 0.3672
1588.000000 0.3819 0.3966 0.4113 0.4260 0.4406
1593.000000 0.4553 0.4700 0.4846 0.4992 0.5137
1598.000000 0.5283 0.5428 0.5573 0.5718 0.5863
1603.000000 0.6007 0.6122 0.6166 0.6164 0.6158
1608.000000 0.6160 0.6157 0.6155 0.6147 0.6097
1613.000000 0.5914 0.5730 0.5546 0.5363 0.5179
1618.000000 0.4997 0.4814 0.4632 0.4449 0.4327
1623.000000 0.4254 0.4206 0.4173 0.4154 0.4148
1628.000000 0.4148 0.4145 0.4151 0.4160 0.4182
1633.000000 0.4280 0.4402 0.4524 0.4645 0.4767
1638.000000 0.4823 0.4835 0.4836 0.4836 0.4843
1643.000000 0.4834 0.4827 0.4816 0.4801 0.4778
1648.000000 0.4757 0.4734 0.4660 0.4509 0.4344
1653.000000 0.4180 0.4015 0.3851 0.3688 0.3524
1658.000000 0.3360 0.3197 0.3034 0.2871 0.2708
1663.000000 0.2546 0.2383 0.2262 0.2213 0.2213
1668.000000 0.2213 0.2279 0.2518 0.2756 0.2995
1673.000000 0.3088 0.3106 0.3107 0.3108 0.3107
1678.000000 0.3135 0.3094 0.3085 0.3072 0.3025
1683.000000 0.2966 0.2906 0.2846 0.2787 0.2727
1688.000000 0.2667 0.2614 0.2606 0.2608 0.2613
1693.000000 0.2591 0.2630 0.2646 0.2680 0.2741
1698.000000 0.2832 0.3103 0.3476 0.3847 0.4219
1703.000000 0.4590 0.4960 0.5330 0.5699 0.6061
1708.000000 0.6318 0.6394 0.6463 0.6607 0.6809
1713.000000 0.7011 0.7149 0.7220 0.7273 0.7327
1718.000000 0.7375 0.7411 0.7443 0.7475 0.7505
1723.000000 0.7528 0.7550 0.7572 0.7594 0.7616
1728.000000 0.7636 0.7653 0.7669 0.7684 0.7700
1733.000000 0.7715 0.7730 0.7745 0.7761 0.7776
1738.000000 0.7790 0.7804 0.7818 0.7831 0.7845
1743.000000 0.7859 0.7886 0.7928 0.7978 0.8014
1748.000000 0.8051 0.8087 0.8126 0.8169 0.8214
1753.000000 0.8259 0.8305 0.8357 0.8414 0.8468
1758.000000 0.8502 0.8529 0.8554 0.8580 0.8606
1763.000000 0.8631 0.8656 0.8678 0.8696 0.8712
1768.000000 0.8728 0.8744 0.8760 0.8774 0.8786
1773.000000 0.8793 0.8801 0.8807 0.8810 0.8809
1778.000000 0.8808 0.8807 0.8805 0.8804 0.8802
1783.000000 0.8802 0.8800 0.8800 0.8800 0.8801
1788.000000 0.8801 0.8802 0.8803 0.8805 0.8815
1793.000000 0.8825 0.8836 0.8848 0.8866 0.8887
1798.000000 0.8906 0.8924 0.8940 0.8955 0.8971
1803.000000 0.8987 0.9003 0.9015 0.9026 0.9036
1808.000000 0.9046 0.9056 0.9066 0.9077 0.9087
1813.000000 0.9096 0.9104 0.9110 0.9115 0.9119
1818.000000 0.9124 0.9128 0.9133 0.9138 0.9143
1823.000000 0.9147 0.9151 0.9154 0.9154 0.9155
1828.000000 0.9156 0.9157 0.9157 0.9158 0.9159
1833.000000 0.9161 0.9163 0.9165 0.9167 0.9169
1838.000000 0.9171 0.9173 0.9175 0.9177 0.9178
1843.000000 0.9179 0.9180 0.9182 0.9184 0.9185
1848.000000 0.9187 0.9189 0.9191 0.9192 0.9194
1853.000000 0.9196 0.9198 0.9199 0.9201 0.9203
1858.000000 0.9204 0.9206 0.9207 0.9209 0.9210
1863.000000 0.9211 0.9211 0.9211 0.9212 0.9212
1868.000000 0.9213 0.9214 0.9215 0.9215 0.9216
1873.000000 0.9217 0.9217 0.9218 0.9218 0.9219
1878.000000 0.9219 0.9220 0.9220 0.9220 0.9220
1883.000000 0.9220 0.9254 0.9220 0.9219 0.9219
1888.000000 0.9219 0.9219 0.9219 0.9219 0.9219
1893.000000 0.9219 0.9219 0.9219 0.9219 0.9219
1898.000000 0.9219 0.9219 0.9219 0.9219 0.9219
1903.000000 0.9219 0.9219 0.9219 0.9219 0.9218
1908.000000 0.9217 0.9216 0.9214 0.9214 0.9213
1913.000000 0.9211 0.9210 0.9208 0.9207 0.9206
1918.000000 0.9204 0.9203 0.9203 0.9201 0.9200
1923.000000 0.9199 0.9197 0.9196 0.9195 0.9194
1928.000000 0.9193 0.9192 0.9190 0.9189 0.9188
1933.000000 0.9187 0.9186 0.9184 0.9184 0.9183
1938.000000 0.9181 0.9180 0.9179 0.9177 0.9177
1943.000000 0.9176 0.9175 0.9174 0.9174 0.9174
1948.000000 0.9174 0.9174 0.9174 0.9174 0.9174
1953.000000 0.9174 0.9174 0.9174 0.9174 0.9174
1958.000000 0.9174 0.9174 0.9174 0.9174 0.9174
1963.000000 0.9175 0.9177 0.9179 0.9180 0.9182
1968.000000 0.9184 0.9185 0.9186 0.9188 0.9190
1973.000000 0.9191 0.9193 0.9195 0.9196 0.9198
1978.000000 0.9200 0.9201 0.9203 0.9206 0.9207
1983.000000 0.9210 0.9212 0.9215 0.9217 0.9219
1988.000000 0.9221 0.9224 0.9226 0.9226 0.9226
1993.000000 0.9225 0.9225 0.9225 0.9223 0.9220
1998.000000 0.9216 0.9213 0.9210 0.9206 0.9202
2003.000000 0.9198 0.9195 0.9192 0.9188 0.9184
2008.000000 0.9181 0.9178 0.9173 0.9167 0.9160
2013.000000 0.9154 0.9147 0.9140 0.9133 0.9127
2018.000000 0.9121 0.9114 0.9107 0.9101 0.9094
2023.000000 0.9088 0.9081 0.9075 0.9068 0.9061
2028.000000 0.9054 0.9047 0.9040 0.9033 0.9026
2033.000000 0.9019 0.9013 0.9006 0.8998 0.8992
2038.000000 0.8985 0.8979 0.8973 0.8968 0.8963
2043.000000 0.8958 0.8953 0.8948 0.8943 0.8938
2048.000000 0.8933 0.8927 0.8923 0.8919 0.8917
2053.000000 0.8916 0.8914 0.8913 0.8911 0.8910
2058.000000 0.8908 0.8906 0.8904 0.8903 0.8901
2063.000000 0.8899 0.8897 0.8895 0.8894 0.8892
2068.000000 0.8890 0.8888 0.8887 0.8885 0.8883
2073.000000 0.8882 0.8883 0.8886 0.8891 0.8896
2078.000000 0.8901 0.8906 0.8911 0.8916 0.8921
2083.000000 0.8926 0.8931 0.8935 0.8940 0.8945
2088.000000 0.8950 0.8955 0.8962 0.8969 0.8977
2093.000000 0.8985 0.8992 0.8999 0.9007 0.9015
2098.000000 0.9022 0.9029 0.9035 0.9040 0.9045
2103.000000 0.9051 0.9056 0.9059 0.9059 0.9059
2108.000000 0.9059 0.9059 0.9060 0.9060 0.9060
2113.000000 0.9060 0.9060 0.9060 0.9061 0.9061
2118.000000 0.9061 0.9061 0.9061 0.9061 0.9061
2123.000000 0.9061 0.9061 0.9061 0.9060 0.9060
2128.000000 0.9060 0.9060 0.9060 0.9060 0.9060
2133.000000 0.9060 0.9060 0.9059 0.9058 0.9056
2138.000000 0.9054 0.9053 0.9051 0.9050 0.9048
2143.000000 0.9041 0.9032 0.9020 0.9007 0.8987
2148.000000 0.8969 0.8960 0.8953 0.8948 0.8943
2153.000000 0.8937 0.8932 0.8927 0.8924 0.8922
2158.000000 0.8925 0.8928 0.8931 0.8934 0.8937
2163.000000 0.8941 0.8944 0.8948 0.8953 0.8959
2168.000000 0.8964 0.8969 0.8975 0.8980 0.8984
2173.000000 0.8990 0.8995 0.8999 0.9003 0.9007
2178.000000 0.9010 0.9014 0.9017 0.9021 0.9024
2183.000000 0.9027 0.9030 0.9034 0.9037 0.9041
2188.000000 0.9044 0.9046 0.9048 0.9050 0.9052
2193.000000 0.9055 0.9056 0.9058 0.9059 0.9061
2198.000000 0.9062 0.9064 0.9065 0.9067 0.9068
2203.000000 0.9069 0.9071 0.9074 0.9076 0.9078
2208.000000 0.9081 0.9083 0.9085 0.9086 0.9086
2213.000000 0.9087 0.9087 0.9087 0.9087 0.9087
2218.000000 0.9087 0.9087 0.9087 0.9085 0.9081
2223.000000 0.9078 0.9074 0.9071 0.9067 0.9063
2228.000000 0.9059 0.9056 0.9052 0.9048 0.9043
2233.000000 0.9038 0.9033 0.9028 0.9022 0.9017
2238.000000 0.9012 0.9007 0.9002 0.8995 0.8988
2243.000000 0.8980 0.8973 0.8965 0.8958 0.8950
2248.000000 0.8943 0.8936 0.8928 0.8921 0.8913
2253.000000 0.8907 0.8900 0.8894 0.8888 0.8881
2258.000000 0.8875 0.8868 0.8862 0.8856 0.8850
2263.000000 0.8844 0.8838 0.8835 0.8835 0.8834
2268.000000 0.8833 0.8832 0.8831 0.8830 0.8829
2273.000000 0.8828 0.8828 0.8828 0.8832 0.8835
2278.000000 0.8842 0.8849 0.8856 0.8862 0.8870
2283.000000 0.8879 0.8886 0.8894 0.8899 0.8902
2288.000000 0.8904 0.8905 0.8906 0.8907 0.8908
2293.000000 0.8909 0.8910 0.8910 0.8911 0.8911
2298.000000 0.8911 0.8911 0.8911 0.8911 0.8911
2303.000000 0.8912 0.8912 0.8911 0.8911 0.8909
2308.000000 0.8908 0.8907 0.8905 0.8904 0.8903
2313.000000 0.8902 0.8901 0.8899 0.8898 0.8897
2318.000000 0.8896 0.8895 0.8893 0.8892 0.8890
2323.000000 0.8888 0.8887 0.8885 0.8884 0.8883
2328.000000 0.8881 0.8879 0.8877 0.8876 0.8875
2333.000000 0.8873 0.8872 0.8870 0.8868 0.8866
2338.000000 0.8863 0.8860 0.8857 0.8854 0.8851
2343.000000 0.8848 0.8845 0.8842 0.8839 0.8836
2348.000000 0.8833 0.8830 0.8826 0.8820 0.8814
2353.000000 0.8807 0.8799 0.8792 0.8784 0.8777
2358.000000 0.8769 0.8762 0.8755 0.8748 0.8743
2363.000000 0.8738 0.8736 0.8734 0.8731 0.8729
2368.000000 0.8726 0.8725 0.8723 0.8722 0.8720
2373.000000 0.8714 0.8708 0.8698 0.8686 0.8674
2378.000000 0.8662 0.8650 0.8638 0.8626 0.8614
2383.000000 0.8603 0.8591 0.8579 0.8568 0.8556
2388.000000 0.8545 0.8534 0.8522 0.8513 0.8505
2393.000000 0.8496 0.8487 0.8478 0.8469 0.8460
2398.000000 0.8451 0.8443 0.8434 0.8425 0.8416
2403.000000 0.8408 0.8399 0.8391 0.8382 0.8373
2408.000000 0.8364 0.8355 0.8346 0.8338 0.8329
2413.000000 0.8320 0.8311 0.8302 0.8293 0.8284
2418.000000 0.8275 0.8266 0.8257 0.8248 0.8239
2423.000000 0.8230 0.8222 0.8213 0.8204 0.8195
2428.000000 0.8188 0.8182 0.8176 0.8171 0.8166
2433.000000 0.8160 0.8155 0.8150 0.8144 0.8139
2438.000000 0.8134 0.8129 0.8124 0.8119 0.8116
2443.000000 0.8115 0.8114 0.8114 0.8114 0.8113
2448.000000 0.8113 0.8112 0.8112 0.8111 0.8111
2453.000000 0.8111 0.8111 0.8113 0.8114 0.8115
2458.000000 0.8117 0.8119 0.8120 0.8122 0.8124
2463.000000 0.8125 0.8127 0.8129 0.8129 0.8128
2468.000000 0.8127 0.8126 0.8125 0.8123 0.8122
2473.000000 0.8119 0.8114 0.8109 0.8103 0.8097
2478.000000 0.8091 0.8084 0.8078 0.8071 0.8065
2483.000000 0.8059 0.8053 0.8047 0.8040 0.8033
2488.000000 0.8025 0.8017 0.8009 0.8001 0.7993
2493.000000 0.7984 0.7976 0.7968 0.7959 0.7951
2498.000000 0.7941 0.7930 0.7919 0.7908 0.7897
2503.000000 0.7886 0.7875 0.7864 0.7852 0.7841
2508.000000 0.7830 0.7820 0.7809 0.7798 0.7787
2513.000000 0.7775 0.7764 0.7753 0.7740 0.7727
2518.000000 0.7714 0.7701 0.7688 0.7675 0.7662
2523.000000 0.7649 0.7636 0.7623 0.7610 0.7598
2528.000000 0.7585 0.7571 0.7557 0.7539 0.7518
2533.000000 0.7498 0.7478 0.7458 0.7440 0.7422
2538.000000 0.7405 0.7397 0.7391 0.7384 0.7378
2543.000000 0.7371 0.7364 0.7357 0.7350 0.7344
2548.000000 0.7337 0.7331 0.7326 0.7321 0.7316
2553.000000 0.7312 0.7308 0.7304 0.7299 0.7295
2558.000000 0.7290 0.7286 0.7283 0.7281 0.7279
2563.000000 0.7277 0.7275 0.7272 0.7270 0.7268
2568.000000 0.7266 0.7264 0.7262 0.7260 0.7259
2573.000000 0.7256 0.7254 0.7252 0.7250 0.7248
2578.000000 0.7246 0.7244 0.7241 0.7240 0.7238
2583.000000 0.7237 0.7238 0.7239 0.7241 0.7243
2588.000000 0.7246 0.7248 0.7251 0.7253 0.7255
2593.000000 0.7258 0.7260 0.7262 0.7264 0.7267
2598.000000 0.7269 0.7272 0.7277 0.7282 0.7288
2603.000000 0.7294 0.7300 0.7307 0.7314 0.7320
2608.000000 0.7326 0.7332 0.7338 0.7343 0.7348
2613.000000 0.7352 0.7356 0.7359 0.7359 0.7358
2618.000000 0.7357 0.7353 0.7349 0.7345 0.7341
2623.000000 0.7338 0.7330 0.7321 0.7312 0.7299
2628.000000 0.7285 0.7272 0.7259 0.7245 0.7233
2633.000000 0.7223 0.7212 0.7202 0.7191 0.7181
2638.000000 0.7171 0.7161 0.7152 0.7142 0.7132
2643.000000 0.7122 0.7115 0.7107 0.7100 0.7093
2648.000000 0.7087 0.7080 0.7074 0.7067 0.7061
2653.000000 0.7056 0.7050 0.7048 0.7046 0.7044
2658.000000 0.7042 0.7040 0.7038 0.7036 0.7034
2663.000000 0.7032 0.7030 0.7028 0.7026 0.7024
2668.000000 0.7023 0.7022 0.7022 0.7022 0.7023
2673.000000 0.7024 0.7025 0.7026 0.7027 0.7028
2678.000000 0.7029 0.7030 0.7032 0.7035 0.7037
2683.000000 0.7041 0.7046 0.7051 0.7056 0.7060
2688.000000 0.7065 0.7070 0.7076 0.7081 0.7087
2693.000000 0.7094 0.7100 0.7106 0.7111 0.7117
2698.000000 0.7122 0.7126 0.7130 0.7134 0.7138
2703.000000 0.7140 0.7139 0.7138 0.7137 0.7136
2708.000000 0.7135 0.7133 0.7131 0.7129 0.7126
2713.000000 0.7124 0.7122 0.7120 0.7118 0.7116
2718.000000 0.7114 0.7113 0.7111 0.7100 0.7083
2723.000000 0.7067 0.7042 0.7014 0.6986 0.6962
2728.000000 0.6939 0.6915 0.6892 0.6867 0.6843
2733.000000 0.6816 0.6789 0.6761 0.6732 0.6703
2738.000000 0.6673 0.6647 0.6622 0.6597 0.6572
2743.000000 0.6547 0.6522 0.6501 0.6481 0.6461
2748.000000 0.6441 0.6422 0.6403 0.6384 0.6364
2753.000000 0.6345 0.6326 0.6307 0.6288 0.6269
2758.000000 0.6251 0.6233 0.6214 0.6196 0.6177
2763.000000 0.6159 0.6141 0.6122 0.6103 0.6083
2768.000000 0.6063 0.6041 0.6017 0.5992 0.5967
2773.000000 0.5943 0.5918 0.5871 0.5769 0.5668
2778.000000 0.5566 0.5463 0.5359 0.5256 0.5153
2783.000000 0.5050 0.4947 0.4844 0.4741 0.4637
2788.000000 0.4535 0.4432 0.4329 0.4226 0.4124
2793.000000 0.4022 0.3919 0.3817 0.3715 0.3612
2798.000000 0.3510 0.3408 0.3306 0.3204 0.3103
2803.000000 0.3015 0.2958 0.2900 0.2852 0.2852
2808.000000 0.2852 0.2852 0.2860 0.2868 0.2876
2813.000000 0.2890 0.2904 0.2918 0.2932 0.2946
2818.000000 0.2960 0.2974 0.2988 0.3002 0.3013
2823.000000 0.3017 0.3022 0.3023 0.3007 0.2991
2828.000000 0.2974 0.2946 0.2918 0.2889 0.2860
2833.000000 0.2832 0.2803 0.2774 0.2746 0.2718
2838.000000 0.2689 0.2661 0.2632 0.2604 0.2575
2843.000000 0.2547 0.2519 0.2490 0.2462 0.2433
2848.000000 0.2405 0.2377 0.2348 0.2320 0.2292
2853.000000 0.2263 0.2235 0.2207 0.2179 0.2151
2858.000000 0.2123 0.2095 0.2067 0.2039 0.2011
2863.000000 0.1983 0.1960 0.1950 0.1939 0.1929
2868.000000 0.1931 0.1933 0.1936 0.1939 0.1941
2873.000000 0.1944 0.1949 0.1955 0.1962 0.1970
2878.000000 0.1986 0.2001 0.2016 0.2028 0.2040
2883.000000 0.2052 0.2066 0.2082 0.2098 0.2114
2888.000000 0.2126 0.2138 0.2150 0.2162 0.2173
2893.000000 0.2184 0.2198 0.2216 0.2235 0.2260
2898.000000 0.2334 0.2408 0.2482 0.2557 0.2631
2903.000000 0.2705 0.2779 0.2853 0.2926 0.3000
2908.000000 0.3074 0.3148 0.3222 0.3295 0.3369
2913.000000 0.3442 0.3516 0.3589 0.3662 0.3735
2918.000000 0.3809 0.3882 0.3955 0.4029 0.4101
2923.000000 0.4174 0.4247 0.4320 0.4393 0.4466
2928.000000 0.4539 0.4612 0.4684 0.4757 0.4829
2933.000000 0.4901 0.4974 0.5046 0.5119 0.5191
2938.000000 0.5262 0.5330 0.5398 0.5466 0.5485
2943.000000 0.5494 0.5504 0.5511 0.5515 0.5518
2948.000000 0.5522 0.5523 0.5524 0.5524 0.5525
2953.000000 0.5525 0.5525 0.5525 0.5526 0.5526
2958.000000 0.5526 0.5527 0.5527 0.5527 0.5527
2963.000000 0.5526 0.5526 0.5526 0.5525 0.5525
2968.000000 0.5525 0.5525 0.5525 0.5525 0.5525
2973.000000 0.5526 0.5526 0.5526 0.5526 0.5527
2978.000000 0.5528 0.5528 0.5529 0.5531 0.5532
2983.000000 0.5534 0.5537 0.5540 0.5544 0.5547
2988.000000 0.5552 0.5557 0.5562 0.5573 0.5588
2993.000000 0.5603 0.5617 0.5635 0.5653 0.5671
2998.000000 0.5689 0.5706 0.5724 0.5742 0.5749
3003.000000 0.5752 0.5756 0.5760 0.5764 0.5768
3008.000000 0.5772 0.5774 0.5774 0.5774 0.5774
3013.000000 0.5775 0.5775 0.5775 0.5776 0.5776
3018.000000 0.5776 0.5776 0.5777 0.5777 0.5777
3023.000000 0.5778 0.5778 0.5778 0.5778 0.5780
3028.000000 0.5784 0.5788 0.5792 0.5797 0.5802
3033.000000 0.5807 0.5812 0.5832 0.5851 0.5871
3038.000000 0.5893 0.5917 0.5942 0.5967 0.5982
3043.000000 0.5993 0.6004 0.6015 0.6025 0.6036
3048.000000 0.6046 0.6057 0.6068 0.6078 0.6089
3053.000000 0.6100 0.6111 0.6121 0.6132 0.6138
3058.000000 0.6143 0.6148 0.6153 0.6156 0.6158
3063.000000 0.6161 0.6164 0.6167 0.6170 0.6172
3068.000000 0.6175 0.6177 0.6179 0.6181 0.6183
3073.000000 0.6185 0.6187 0.6188 0.6191 0.6193
3078.000000 0.6195 0.6197 0.6199 0.6201 0.6203
3083.000000 0.6205 0.6207 0.6210 0.6212 0.6216
3088.000000 0.6221 0.6226 0.6231 0.6238 0.6246
3093.000000 0.6253 0.6261 0.6286 0.6311 0.6337
3098.000000 0.6362 0.6388 0.6414 0.6440 0.6465
3103.000000 0.6491 0.6516 0.6541 0.6567 0.6592
3108.000000 0.6618 0.6643 0.6668 0.6694 0.6719
3113.000000 0.6744 0.6770 0.6795 0.6820 0.6845
3118.000000 0.6871 0.6896 0.6922 0.6947 0.6972
3123.000000 0.6997 0.7022 0.7048 0.7073 0.7098
3128.000000 0.7123 0.7148 0.7173 0.7198 0.7223
3133.000000 0.7248 0.7273 0.7298 0.7322 0.7347
3138.000000 0.7371 0.7395 0.7419 0.7442 0.7462
3143.000000 0.7483 0.7504 0.7525 0.7545 0.7566
3148.000000 0.7587 0.7611 0.7639 0.7668 0.7697
3153.000000 0.7724 0.7750 0.7777 0.7803 0.7826
3158.000000 0.7844 0.7863 0.7881 0.7900 0.7918
3163.000000 0.7937 0.7955 0.7969 0.7976 0.7984
3168.000000 0.7991 0.7998 0.8003 0.8009 0.8014
3173.000000 0.8020 0.8025 0.8030 0.8035 0.8041
3178.000000 0.8046 0.8051 0.8057 0.8061 0.8064
3183.000000 0.8066 0.8069 0.8071 0.8072 0.8073
3188.000000 0.8075 0.8076 0.8077 0.8078 0.8079
3193.000000 0.8081 0.8082 0.8083 0.8084 0.8086
3198.000000 0.8087 0.8088 0.8089 0.8090 0.8089
3203.000000 0.8088 0.8086 0.8085 0.8083 0.8082
3208.000000 0.8080 0.8079 0.8077 0.8076 0.8074
3213.000000 0.8073 0.8072 0.8070 0.8069 0.8067
3218.000000 0.8073 0.8063 0.8060 0.8057 0.8055
3223.000000 0.8052 0.8049 0.8047 0.8044 0.8041
3228.000000 0.8038 0.8035 0.8032 0.8030 0.8027
3233.000000 0.8024 0.8021 0.8017 0.8014 0.8010
3238.000000 0.8007 0.8003 0.8000 0.7997 0.7993
3243.000000 0.7990 0.7987 0.7983 0.7980 0.7977
3248.000000 0.7973 0.7970 0.7967 0.7963 0.7957
3253.000000 0.7951 0.7945 0.7939 0.7932 0.7926
3258.000000 0.7919 0.7912 0.7906 0.7899 0.7893
3263.000000 0.7886 0.7880 0.7873 0.7866 0.7860
3268.000000 0.7853 0.7846 0.7839 0.7832 0.7824
3273.000000 0.7816 0.7807 0.7799 0.7790 0.7782
3278.000000 0.7773 0.7765 0.7757 0.7748 0.7740
3283.000000 0.7731 0.7723 0.7715 0.7706 0.7698
3288.000000 0.7690 0.7681 0.7672 0.7661 0.7650
3293.000000 0.7638 0.7627 0.7613 0.7599 0.7585
3298.000000 0.7572 0.7558 0.7544 0.7530 0.7516
3303.000000 0.7499 0.7481 0.7462 0.7444 0.7424
3308.000000 0.7398 0.7372 0.7346 0.7319 0.7293
3313.000000 0.7267 0.7241 0.7215 0.7188 0.7162
3318.000000 0.7136 0.7110 0.7084 0.7058 0.7032
3323.000000 0.7006 0.6980 0.6954 0.6928 0.6902
3328.000000 0.6876 0.6850 0.6824 0.6798 0.6772
3333.000000 0.6746 0.6720 0.6694 0.6669 0.6643
3338.000000 0.6618 0.6595 0.6572 0.6549 0.6526
3343.000000 0.6520 0.6519 0.6518 0.6517 0.6517
3348.000000 0.6517 0.6517 0.6517 0.6517 0.6517
3353.000000 0.6518 0.6518 0.6519 0.6520 0.6520
3358.000000 0.6521 0.6521 0.6521 0.6523 0.6524
3363.000000 0.6526 0.6527 0.6528 0.6533 0.6536
3368.000000 0.6540 0.6544 0.6561 0.6583 0.6606
3373.000000 0.6628 0.6651 0.6674 0.6698 0.6721
3378.000000 0.6745 0.6768 0.6792 0.6815 0.6839
3383.000000 0.6863 0.6886 0.6910 0.6933 0.6957
3388.000000 0.6980 0.7004 0.7027 0.7051 0.7074
3393.000000 0.7098 0.7121 0.7145 0.7168 0.7192
3398.000000 0.7215 0.7238 0.7262 0.7285 0.7308
3403.000000 0.7332 0.7355 0.7378 0.7402 0.7425
3408.000000 0.7448 0.7471 0.7495 0.7518 0.7541
3413.000000 0.7564 0.7587 0.7611 0.7634 0.7657
3418.000000 0.7680 0.7703 0.7726 0.7749 0.7772
3423.000000 0.7795 0.7818 0.7841 0.7864 0.7887
3428.000000 0.7910 0.7933 0.7956 0.7979 0.8002
3433.000000 0.8025 0.8048 0.8071 0.8094 0.8117
3438.000000 0.8139 0.8162 0.8185 0.8207 0.8230
3443.000000 0.8253 0.8275 0.8298 0.8321 0.8343
3448.000000 0.8366 0.8389 0.8412 0.8434 0.8457
3453.000000 0.8480 0.8502 0.8525 0.8547 0.8570
3458.000000 0.8593 0.8619 0.8645 0.8670 0.8696
3463.000000 0.8718 0.8735 0.8752 0.8769 0.8786
3468.000000 0.8801 0.8814 0.8828 0.8841 0.8855
3473.000000 0.8868 0.8881 0.8894 0.8908 0.8921
3478.000000 0.8928 0.8935 0.8942 0.8949 0.8956
3483.000000 0.8963 0.8969 0.8976 0.8983 0.8989
3488.000000 0.8996 0.9002 0.9009 0.9015 0.9022
3493.000000 0.9029 0.9035 0.9042 0.9048 0.9055
3498.000000 0.9061 0.9068 0.9074 0.9081 0.9087
3503.000000 0.9094 0.9100 0.9107 0.9113 0.9120
3508.000000 0.9126 0.9132 0.9139 0.9145 0.9151
3513.000000 0.9158 0.9164 0.9170 0.9176 0.9183
3518.000000 0.9189 0.9195 0.9201 0.9207 0.9213
3523.000000 0.9219 0.9225 0.9232 0.9238 0.9244
3528.000000 0.9250 0.9256 0.9262 0.9268 0.9274
3533.000000 0.9280 0.9285 0.9291 0.9297 0.9303
3538.000000 0.9308 0.9313 0.9319 0.9324 0.9329
3543.000000 0.9334 0.9340 0.9345 0.9350 0.9355
3548.000000 0.9361 0.9366 0.9371 0.9377 0.9380
3553.000000 0.9383 0.9385 0.9388 0.9391 0.9393
3558.000000 0.9394 0.9396 0.9398 0.9399 0.9401
3563.000000 0.9403 0.9404 0.9406 0.9408 0.9410
3568.000000 0.9411 0.9413 0.9414 0.9416 0.9418
3573.000000 0.9419 0.9421 0.9423 0.9425 0.9426
3578.000000 0.9427 0.9428 0.9429 0.9430 0.9430
3583.000000 0.9430 0.9430 0.9430 0.9430 0.9430
3588.000000 0.9430 0.9430 0.9430 0.9430 0.9429
3593.000000 0.9429 0.9429 0.9429 0.9429 0.9429
3598.000000 0.9432 0.9429 0.9429 0.9429 0.9429
3603.000000 0.9428 0.9428 0.9428 0.9428 0.9428
3608.000000 0.9428 0.9428 0.9428 0.9428 0.9428
3613.000000 0.9427 0.9427 0.9427 0.9427 0.9427
3618.000000 0.9427 0.9427 0.9427 0.9427 0.9427
3623.000000 0.9427 0.9426 0.9426 0.9425 0.9425
3628.000000 0.9425 0.9424 0.9424 0.9423 0.9422
3633.000000 0.9422 0.9421 0.9421 0.9420 0.9419
3638.000000 0.9418 0.9418 0.9417 0.9416 0.9416
3643.000000 0.9415 0.9415 0.9414 0.9414 0.9413
3648.000000 0.9412 0.9412 0.9411 0.9410 0.9410
3653.000000 0.9409 0.9408 0.9407 0.9407 0.9406
3658.000000 0.9406 0.9405 0.9405 0.9404 0.9404
3663.000000 0.9403 0.9402 0.9402 0.9401 0.9401
3668.000000 0.9400 0.9400 0.9399 0.9399 0.9398
3673.000000 0.9397 0.9396 0.9396 0.9395 0.9394
3678.000000 0.9393 0.9392 0.9391 0.9390 0.9389
3683.000000 0.9388 0.9388 0.9387 0.9386 0.9385
3688.000000 0.9384 0.9383 0.9382 0.9381 0.9380
3693.000000 0.9379 0.9378 0.9377 0.9377 0.9376
3698.000000 0.9375 0.9374 0.9373 0.9372 0.9371
3703.000000 0.9370 0.9369 0.9368 0.9367 0.9367
3708.000000 0.9366 0.9365 0.9364 0.9363 0.9362
3713.000000 0.9361 0.9360 0.9359 0.9358 0.9357
3718.000000 0.9357 0.9356 0.9355 0.9354 0.9353
3723.000000 0.9352 0.9350 0.9349 0.9348 0.9347
3728.000000 0.9346 0.9344 0.9343 0.9342 0.9341
3733.000000 0.9339 0.9338 0.9337 0.9336 0.9334
3738.000000 0.9333 0.9332 0.9331 0.9329 0.9328
3743.000000 0.9327 0.9326 0.9324 0.9323 0.9322
3748.000000 0.9321 0.9319 0.9318 0.9317 0.9316
3753.000000 0.9314 0.9313 0.9312 0.9311 0.9309
3758.000000 0.9308 0.9307 0.9306 0.9305 0.9303
3763.000000 0.9302 0.9301 0.9300 0.9298 0.9297
3768.000000 0.9296 0.9295 0.9293 0.9292 0.9291
3773.000000 0.9290 0.9288 0.9287 0.9286 0.9285
3778.000000 0.9284 0.9283 0.9282 0.9281 0.9280
3783.000000 0.9279 0.9278 0.9277 0.9275 0.9274
3788.000000 0.9273 0.9273 0.9272 0.9271 0.9270
3793.000000 0.9269 0.9268 0.9267 0.9266 0.9266
3798.000000 0.9265 0.9264 0.9263 0.9262 0.9261
3803.000000 0.9260 0.9260 0.9259 0.9258 0.9257
3808.000000 0.9256 0.9255 0.9254 0.9253 0.9252
3813.000000 0.9251 0.9250 0.9249 0.9248 0.9247
3818.000000 0.9246 0.9246 0.9245 0.9244 0.9243
3823.000000 0.9242 0.9241 0.9240 0.9240 0.9239
3828.000000 0.9238 0.9237 0.9236 0.9235 0.9235
3833.000000 0.9234 0.9233 0.9232 0.9231 0.9230
3838.000000 0.9229 0.9229 0.9228 0.9227 0.9226
3843.000000 0.9225 0.9224 0.9223 0.9222 0.9221
3848.000000 0.9220 0.9219 0.9218 0.9217 0.9217
3853.000000 0.9216 0.9215 0.9215 0.9214 0.9213
3858.000000 0.9213 0.9212 0.9211 0.9211 0.9210
3863.000000 0.9209 0.9208 0.9208 0.9207 0.9207
3868.000000 0.9206 0.9206 0.9205 0.9205 0.9204
3873.000000 0.9203 0.9203 0.9202 0.9201 0.9201
3878.000000 0.9200 0.9200 0.9199 0.9199 0.9198
3883.000000 0.9198 0.9197 0.9197 0.9196 0.9195
3888.000000 0.9195 0.9194 0.9194 0.9193 0.9193
3893.000000 0.9192 0.9192 0.9191 0.9191 0.9190
3898.000000 0.9190 0.9189 0.9189 0.9188 0.9187
3903.000000 0.9187 0.9186 0.9185 0.9185 0.9184
3908.000000 0.9184 0.9183 0.9183 0.9182 0.9182
3913.000000 0.9181 0.9180 0.9180 0.9179 0.9178
3918.000000 0.9178 0.9177 0.9177 0.9176 0.9176
3923.000000 0.9175 0.9175 0.9174 0.9174 0.9173
3928.000000 0.9173 0.9172 0.9172 0.9171 0.9171
3933.000000 0.9170 0.9169 0.9169 0.9168 0.9168
3938.000000 0.9167 0.9167 0.9166 0.9166 0.9165
3943.000000 0.9165 0.9164 0.9163 0.9163 0.9162
3948.000000 0.9161 0.9161 0.9160 0.9160 0.9159
3953.000000 0.9159 0.9158 0.9158 0.9157 0.9157
3958.000000 0.9156 0.9155 0.9155 0.9154 0.9153
3963.000000 0.9153 0.9152 0.9152 0.9151 0.9150
3968.000000 0.9150 0.9149 0.9148 0.9147 0.9147
3973.000000 0.9146 0.9145 0.9144 0.9143 0.9143
3978.000000 0.9142 0.9141 0.9140 0.9139 0.9139
3983.000000 0.9138 0.9137 0.9136 0.9135 0.9135
3988.000000 0.9134 0.9133 0.9132 0.9132 0.9131
3993.000000 0.9130 0.9129 0.9128 0.9128 0.9127
3998.000000 0.9126 0.9125 0.9125
##END=
