##TITLE=GLYCINE, N-BENZYL-N-[6-CHLORO-5-(2,2,2-TRIFLUORO-N-METHYLACETAMIDO)PYRIMIDIN-4-YL]-, ETHYL ESTER
##JCAMP-DX=4.24
##DATA TYPE=INFRARED SPECTRUM
##CLASS=COBLENTZ III
##ORIGIN=SOUTHERN RESEARCH INSTITUTE
##OWNER=COBLENTZ SOCIETY
Collection (C) 2018 copyright by the U.S. Secretary of Commerce
on behalf of the United States of America. All rights reserved.
##DATE=1963/12/26
##NAMES=ethyl (benzyl(6-chloro-5-[methyl(trifluoroacetyl)amino]-4-pyrimidinyl)amino)acetate
##MOLFORM=C18 H18 Cl F3 N4 O3
##SOURCE REFERENCE=COBLENTZ NO. 8441
##$NIST ID=B6008441
##$NIST SOURCE=COBLENTZ
##$NIST IMAGE=cob8441
##SPECTROMETER/DATA SYSTEM=PERKIN-ELMER 221 (GRATING)
##INSTRUMENT PARAMETERS=FILTER CHANGE AT 980 CM^-^1, GRATING FOR 4000-1428 CM^-^1, NaCl PRISM FOR 1428-650 CM^-^1
##STATE=LIQUID (NEAT)
##PATH LENGTH=CAPILLARY
##SAMPLING PROCEDURE=TRANSMISSION
##RESOLUTION=4
##DATA PROCESSING=DIGITIZED BY NIST FROM HARD COPY
##XUNITS=1/CM
##YUNITS=TRANSMITTANCE
##XFACTOR=1.000000
##YFACTOR=1
##DELTAX=001.819363
##FIRSTX=625.471
##LASTX=4018.59
##FIRSTY=0.642
##MAXX=4018.59
##MINX=625.471
##MAXY=0.844
##MINY=0.081
##NPOINTS=1866
##XYDATA=(X++(Y..Y))
625.471000 0.6420 0.6470 0.6520 0.6570 0.6620
634.572696 0.6660 0.6710 0.6740 0.6780 0.6810
643.665000 0.6850 0.6880 0.6910 0.6930 0.6960
652.766696 0.7000 0.7020 0.7040 0.7050 0.7060
661.858000 0.7050 0.7040 0.7020 0.7000 0.6990
670.959696 0.6980 0.6970 0.6960 0.6940 0.6890
680.052000 0.6790 0.6620 0.6330 0.5930 0.5650
689.153696 0.5370 0.4640 0.4160 0.4160 0.4310
698.246000 0.4330 0.4590 0.6030 0.6290 0.6940
707.347696 0.6960 0.6960 0.6950 0.6710 0.6430
716.439000 0.6130 0.5540 0.5300 0.5050 0.4560
725.540696 0.4550 0.4560 0.4620 0.4700 0.4780
734.633000 0.4850 0.4930 0.5000 0.5250 0.5660
743.734696 0.5810 0.5940 0.6030 0.6080 0.6100
752.827000 0.6180 0.6260 0.6380 0.6560 0.7210
761.928696 0.7430 0.7480 0.7480 0.7450 0.7150
771.020000 0.7010 0.6870 0.6860 0.7010 0.7150
780.121696 0.7410 0.7410 0.7060 0.6720 0.7190
789.214000 0.7300 0.7420 0.7650 0.7820 0.7990
798.315696 0.8130 0.8140 0.8150 0.8150 0.8100
807.407000 0.8050 0.8010 0.7890 0.7750 0.7600
816.508696 0.7460 0.7460 0.7520 0.7580 0.7630
825.601000 0.7680 0.7910 0.7990 0.8110 0.8120
834.702696 0.8110 0.8070 0.8020 0.7990 0.7950
843.795000 0.7930 0.7940 0.8010 0.8070 0.8070
852.896696 0.8090 0.8100 0.8100 0.8120 0.8150
861.988000 0.8200 0.8240 0.8260 0.8270 0.8240
871.089696 0.8160 0.8030 0.7850 0.7640 0.7620
880.182000 0.7630 0.7800 0.7970 0.8100 0.8250
889.283696 0.8340 0.8370 0.8370 0.8360 0.8350
898.376000 0.8310 0.8270 0.8250 0.8200 0.8180
907.477696 0.8170 0.8160 0.8150 0.8150 0.8140
916.569000 0.8110 0.8100 0.8080 0.8050 0.8010
925.670696 0.7960 0.7890 0.7780 0.7700 0.7560
934.763000 0.7350 0.7110 0.6980 0.6840 0.6550
943.864696 0.6280 0.6010 0.5770 0.5570 0.5500
952.956000 0.5420 0.5230 0.5040 0.4860 0.4850
962.057696 0.4860 0.5080 0.5290 0.5710 0.6220
971.150000 0.7040 0.7350 0.7510 0.7800 0.7810
980.251696 0.7810 0.7770 0.7660 0.7590 0.7390
989.344000 0.7220 0.7180 0.7240 0.7320 0.7410
998.445696 0.7390 0.7380 0.7320 0.7060 0.6910
1007.537000 0.6760 0.6250 0.5690 0.5480 0.5250
1016.638696 0.5070 0.4610 0.4120 0.4090 0.4120
1025.731000 0.4450 0.5600 0.6220 0.7040 0.7040
1034.832696 0.6970 0.6890 0.6660 0.6440 0.6200
1043.925000 0.5980 0.5620 0.5250 0.4860 0.4480
1053.026696 0.4480 0.4820 0.5520 0.5710 0.5820
1062.118000 0.5870 0.5890 0.5900 0.5900 0.5920
1071.219696 0.5960 0.5990 0.6060 0.6140 0.6180
1080.312000 0.6190 0.6180 0.5900 0.5610 0.5530
1089.413696 0.5500 0.5450 0.5370 0.4560 0.4560
1098.505000 0.4560 0.5120 0.5540 0.5640 0.5720
1107.606696 0.5800 0.5850 0.5870 0.5860 0.5770
1116.699000 0.5680 0.5570 0.5510 0.5440 0.5220
1125.800696 0.4790 0.4310 0.4050 0.3850 0.3630
1134.893000 0.3210 0.2610 0.2510 0.2410 0.2230
1143.994696 0.2040 0.1850 0.1670 0.1660 0.1680
1153.086000 0.1760 0.1840 0.1900 0.2010 0.2130
1162.187696 0.2750 0.3270 0.3270 0.3230 0.3180
1171.280000 0.3070 0.2840 0.2580 0.2460 0.2320
1180.381696 0.2030 0.1720 0.1390 0.1230 0.1170
1189.474000 0.1120 0.1050 0.1030 0.1030 0.1020
1198.575696 0.1020 0.1020 0.1020 0.1030 0.1030
1207.667000 0.1110 0.1180 0.1240 0.1310 0.1380
1216.768696 0.1450 0.1520 0.1550 0.1700 0.1840
1225.861000 0.2040 0.2720 0.3260 0.3530 0.3560
1234.962696 0.3590 0.3700 0.4060 0.4070 0.4060
1244.055000 0.4040 0.3990 0.3940 0.3840 0.3750
1253.156696 0.3730 0.3740 0.4050 0.4210 0.4410
1262.248000 0.4590 0.4740 0.4860 0.4970 0.5050
1271.349696 0.5110 0.5160 0.5190 0.5210 0.5220
1280.442000 0.5220 0.5220 0.5230 0.5250 0.5270
1289.543696 0.5500 0.5630 0.5770 0.5940 0.6100
1298.635000 0.6270 0.6440 0.6620 0.6790 0.7120
1307.736696 0.7120 0.7140 0.7110 0.7090 0.7030
1316.829000 0.6980 0.6930 0.6840 0.6760 0.6690
1325.930696 0.6600 0.6500 0.6370 0.6200 0.5970
1335.023000 0.5540 0.5300 0.5050 0.4970 0.4810
1344.124696 0.4650 0.4480 0.4320 0.4170 0.4170
1353.216000 0.4230 0.4300 0.4340 0.4340 0.4250
1362.317696 0.4210 0.4050 0.4020 0.3980 0.3920
1371.410000 0.4340 0.4360 0.4360 0.4350 0.4200
1380.511696 0.4040 0.3950 0.3860 0.3670 0.3480
1389.604000 0.3290 0.3120 0.2960 0.2820 0.2680
1398.705696 0.2510 0.2500 0.2500 0.2600 0.3130
1407.797000 0.4530 0.4590 0.4620 0.4610 0.4580
1416.898696 0.4560 0.4540 0.4520 0.4480 0.4420
1425.991000 0.4380 0.4320 0.4250 0.4200 0.3950
1435.092696 0.3700 0.3560 0.3440 0.3430 0.3420
1444.185000 0.3420 0.3410 0.3360 0.3320 0.3280
1453.286696 0.3210 0.3190 0.4030 0.4320 0.4400
1462.378000 0.4520 0.4570 0.4580 0.4590 0.4600
1471.479696 0.4600 0.4600 0.4590 0.4580 0.4560
1480.572000 0.4500 0.4370 0.4290 0.4220 0.4090
1489.673696 0.4030 0.3960 0.3840 0.3720 0.3710
1498.765000 0.4230 0.4970 0.5520 0.5770 0.5980
1507.866696 0.6020 0.6000 0.5670 0.5330 0.4700
1516.959000 0.4360 0.4010 0.3790 0.3580 0.3160
1526.060696 0.2940 0.2660 0.2510 0.2370 0.2090
1535.153000 0.2080 0.2090 0.2560 0.2990 0.3410
1544.254696 0.3660 0.3790 0.3800 0.3670 0.3290
1553.346000 0.2740 0.2400 0.2060 0.1310 0.1070
1562.447696 0.0830 0.0810 0.0830 0.1070 0.1200
1571.540000 0.1300 0.1590 0.2660 0.3240 0.4020
1580.641696 0.4340 0.4800 0.4810 0.4840 0.5270
1589.734000 0.5280 0.5310 0.5510 0.6460 0.6720
1598.835696 0.6890 0.6890 0.6890 0.6740 0.6620
1607.927000 0.6440 0.6240 0.6040 0.5850 0.5650
1617.028696 0.5550 0.5450 0.5260 0.5840 0.6370
1626.121000 0.6370 0.6420 0.6460 0.6540 0.7060
1635.222696 0.7350 0.7480 0.7580 0.7600 0.7610
1644.314000 0.7780 0.7780 0.7790 0.7790 0.7780
1653.415696 0.7770 0.7760 0.7720 0.7670 0.7650
1662.508000 0.7600 0.7580 0.7580 0.7550 0.7500
1671.609696 0.7430 0.7350 0.7250 0.7130 0.6990
1680.702000 0.6920 0.6840 0.6660 0.6470 0.6270
1689.803696 0.6030 0.5790 0.5530 0.5400 0.5250
1698.895000 0.4810 0.4360 0.3950 0.3530 0.3090
1707.996696 0.2500 0.2400 0.2290 0.2090 0.1890
1717.089000 0.1700 0.1580 0.1490 0.1490 0.1510
1726.190696 0.1650 0.1950 0.2240 0.2370 0.2410
1735.283000 0.2370 0.2270 0.2080 0.1900 0.1760
1744.384696 0.1620 0.1500 0.1370 0.1360 0.1360
1753.476000 0.1370 0.1420 0.1470 0.1520 0.1600
1762.577696 0.2560 0.3160 0.4310 0.4840 0.5830
1771.670000 0.6260 0.6640 0.7230 0.7420 0.7540
1780.771696 0.7580 0.7660 0.7730 0.7780 0.7840
1789.864000 0.7890 0.7930 0.7960 0.7990 0.8010
1798.965696 0.8040 0.8060 0.8070 0.8090 0.8100
1808.057000 0.8100 0.8110 0.8120 0.8130 0.8140
1817.158696 0.8150 0.8160 0.8170 0.8180 0.8200
1826.251000 0.8220 0.8270 0.8300 0.8310 0.8320
1835.352696 0.8330 0.8330 0.8350 0.8360 0.8360
1844.444000 0.8370 0.8380 0.8390 0.8390 0.8400
1853.545696 0.8400 0.8410 0.8410 0.8410 0.8420
1862.638000 0.8420 0.8420 0.8420 0.8420 0.8410
1871.739696 0.8380 0.8360 0.8350 0.8340 0.8340
1880.832000 0.8350 0.8350 0.8360 0.8370 0.8380
1889.933696 0.8380 0.8390 0.8390 0.8410 0.8420
1899.025000 0.8430 0.8430 0.8430 0.8430 0.8420
1908.126696 0.8410 0.8410 0.8400 0.8400 0.8390
1917.219000 0.8390 0.8380 0.8380 0.8370 0.8370
1926.320696 0.8360 0.8360 0.8360 0.8360 0.8360
1935.413000 0.8340 0.8320 0.8310 0.8300 0.8290
1944.514696 0.8290 0.8290 0.8300 0.8300 0.8320
1953.606000 0.8330 0.8340 0.8350 0.8350 0.8360
1962.707696 0.8360 0.8360 0.8360 0.8360 0.8370
1971.800000 0.8370 0.8380 0.8380 0.8390 0.8390
1980.901696 0.8400 0.8410 0.8410 0.8420 0.8420
1989.994000 0.8420 0.8420 0.8430 0.8430 0.8430
1999.095696 0.8430 0.8440 0.8440 0.8440 0.8440
2008.187000 0.8440 0.8430 0.8430 0.8430 0.8430
2017.288696 0.8420 0.8410 0.8410 0.8400 0.8400
2026.381000 0.8400 0.8400 0.8390 0.8390 0.8390
2035.482696 0.8380 0.8380 0.8370 0.8370 0.8360
2044.574000 0.8360 0.8360 0.8360 0.8360 0.8360
2053.675696 0.8360 0.8360 0.8360 0.8360 0.8360
2062.768000 0.8360 0.8350 0.8350 0.8350 0.8350
2071.869696 0.8350 0.8350 0.8350 0.8350 0.8350
2080.962000 0.8350 0.8350 0.8340 0.8340 0.8340
2090.063696 0.8340 0.8340 0.8340 0.8340 0.8340
2099.155000 0.8340 0.8340 0.8340 0.8340 0.8340
2108.256696 0.8340 0.8340 0.8340 0.8340 0.8320
2117.349000 0.8320 0.8320 0.8320 0.8320 0.8320
2126.450696 0.8320 0.8320 0.8320 0.8320 0.8320
2135.542000 0.8320 0.8320 0.8320 0.8320 0.8320
2144.643696 0.8320 0.8310 0.8310 0.8310 0.8310
2153.736000 0.8310 0.8310 0.8310 0.8300 0.8300
2162.837696 0.8300 0.8290 0.8290 0.8290 0.8290
2171.930000 0.8280 0.8280 0.8280 0.8280 0.8270
2181.031696 0.8270 0.8270 0.8270 0.8270 0.8270
2190.124000 0.8260 0.8250 0.8230 0.8180 0.8140
2199.225696 0.8090 0.8040 0.8010 0.8010 0.8010
2208.317000 0.8050 0.8070 0.8100 0.8150 0.8180
2217.418696 0.8210 0.8230 0.8240 0.8240 0.8240
2226.511000 0.8240 0.8230 0.8230 0.8220 0.8220
2235.612696 0.8210 0.8210 0.8210 0.8200 0.8200
2244.704000 0.8200 0.8180 0.8180 0.8180 0.8170
2253.805696 0.8170 0.8170 0.8170 0.8160 0.8160
2262.898000 0.8160 0.8160 0.8150 0.8140 0.8140
2271.999696 0.8140 0.8140 0.8140 0.8130 0.8130
2281.092000 0.8130 0.8130 0.8120 0.8120 0.8120
2290.193696 0.8120 0.8120 0.8110 0.8110 0.8110
2299.285000 0.8100 0.8100 0.8090 0.8080 0.8070
2308.386696 0.8060 0.8050 0.8050 0.8040 0.8030
2317.479000 0.8010 0.7990 0.7980 0.7970 0.7950
2326.580696 0.7940 0.7940 0.7930 0.7930 0.7930
2335.673000 0.7920 0.7920 0.7910 0.7900 0.7900
2344.774696 0.7890 0.7890 0.7880 0.7880 0.7870
2353.866000 0.7870 0.7870 0.7870 0.7880 0.7880
2362.967696 0.7880 0.7890 0.7890 0.7890 0.7900
2372.060000 0.7900 0.7900 0.7900 0.7900 0.7900
2381.161696 0.7910 0.7910 0.7910 0.7910 0.7910
2390.253000 0.7920 0.7920 0.7920 0.7920 0.7920
2399.354696 0.7920 0.7920 0.7920 0.7920 0.7920
2408.447000 0.7920 0.7920 0.7920 0.7920 0.7920
2417.548696 0.7920 0.7920 0.7920 0.7920 0.7920
2426.641000 0.7920 0.7920 0.7920 0.7920 0.7930
2435.742696 0.7930 0.7930 0.7930 0.7930 0.7930
2444.834000 0.7930 0.7930 0.7930 0.7930 0.7930
2453.935696 0.7930 0.7930 0.7930 0.7930 0.7930
2463.028000 0.7930 0.7930 0.7930 0.7930 0.7930
2472.129696 0.7930 0.7930 0.7930 0.7930 0.7930
2481.222000 0.7930 0.7930 0.7930 0.7930 0.7920
2490.323696 0.7920 0.7920 0.7920 0.7920 0.7920
2499.415000 0.7920 0.7920 0.7910 0.7910 0.7910
2508.516696 0.7910 0.7910 0.7900 0.7900 0.7900
2517.609000 0.7890 0.7890 0.7890 0.7890 0.7890
2526.710696 0.7890 0.7890 0.7890 0.7880 0.7880
2535.802000 0.7880 0.7880 0.7880 0.7880 0.7880
2544.903696 0.7880 0.7870 0.7870 0.7870 0.7870
2553.996000 0.7870 0.7870 0.7870 0.7860 0.7860
2563.097696 0.7860 0.7860 0.7850 0.7850 0.7840
2572.190000 0.7840 0.7840 0.7840 0.7840 0.7840
2581.291696 0.7840 0.7830 0.7830 0.7830 0.7820
2590.383000 0.7820 0.7810 0.7810 0.7810 0.7810
2599.484696 0.7810 0.7810 0.7800 0.7800 0.7800
2608.577000 0.7800 0.7800 0.7800 0.7790 0.7790
2617.678696 0.7790 0.7790 0.7790 0.7790 0.7790
2626.771000 0.7790 0.7790 0.7790 0.7790 0.7790
2635.872696 0.7780 0.7780 0.7780 0.7780 0.7770
2644.964000 0.7770 0.7770 0.7770 0.7760 0.7760
2654.065696 0.7760 0.7750 0.7750 0.7750 0.7750
2663.158000 0.7750 0.7740 0.7740 0.7740 0.7730
2672.259696 0.7730 0.7730 0.7720 0.7720 0.7710
2681.352000 0.7700 0.7700 0.7690 0.7690 0.7680
2690.453696 0.7680 0.7670 0.7670 0.7670 0.7670
2699.545000 0.7660 0.7660 0.7650 0.7650 0.7640
2708.646696 0.7640 0.7630 0.7630 0.7620 0.7610
2717.739000 0.7610 0.7600 0.7600 0.7600 0.7590
2726.840696 0.7590 0.7580 0.7580 0.7580 0.7580
2735.932000 0.7580 0.7570 0.7570 0.7570 0.7560
2745.033696 0.7560 0.7550 0.7550 0.7550 0.7540
2754.126000 0.7540 0.7530 0.7530 0.7500 0.7500
2763.227696 0.7490 0.7490 0.7480 0.7480 0.7470
2772.320000 0.7460 0.7450 0.7430 0.7410 0.7400
2781.421696 0.7370 0.7350 0.7330 0.7320 0.7310
2790.513000 0.7300 0.7280 0.7270 0.7260 0.7240
2799.614696 0.7230 0.7200 0.7180 0.7160 0.7140
2808.707000 0.7120 0.7110 0.7100 0.7100 0.7100
2817.808696 0.7090 0.7090 0.7080 0.7080 0.7070
2826.901000 0.7070 0.7060 0.7040 0.7020 0.7000
2836.002696 0.6990 0.6980 0.6970 0.6970 0.6960
2845.094000 0.6960 0.6950 0.6940 0.6940 0.6940
2854.195696 0.6930 0.6930 0.6920 0.6890 0.6860
2863.288000 0.6850 0.6830 0.6830 0.6820 0.6810
2872.389696 0.6810 0.6800 0.6790 0.6780 0.6770
2881.481000 0.6760 0.6750 0.6740 0.6730 0.6700
2890.582696 0.6670 0.6630 0.6580 0.6530 0.6470
2899.675000 0.6420 0.6380 0.6350 0.6300 0.6250
2908.776696 0.6200 0.6190 0.6170 0.6170 0.6160
2917.869000 0.6160 0.6150 0.6140 0.6120 0.6050
2926.970696 0.6020 0.5990 0.5940 0.5860 0.5740
2936.063000 0.5720 0.5730 0.5790 0.5840 0.5870
2945.164696 0.5910 0.5940 0.5980 0.6020 0.6060
2954.256000 0.6120 0.6140 0.6160 0.6130 0.6100
2963.357696 0.6010 0.5950 0.5930 0.5890 0.5880
2972.450000 0.5860 0.5810 0.5710 0.5530 0.5430
2981.551696 0.5340 0.5240 0.5160 0.5150 0.5150
2990.643000 0.5210 0.5240 0.5360 0.5580 0.5680
2999.744696 0.5760 0.5880 0.6000 0.6020 0.6060
3008.837000 0.6120 0.6190 0.6270 0.6340 0.6400
3017.938696 0.6430 0.6450 0.6460 0.6450 0.6410
3027.031000 0.6340 0.6290 0.6210 0.6170 0.6160
3036.132696 0.6180 0.6250 0.6340 0.6430 0.6520
3045.224000 0.6620 0.6720 0.6810 0.6820 0.6810
3054.325696 0.6800 0.6770 0.6720 0.6690 0.6640
3063.418000 0.6630 0.6630 0.6630 0.6630 0.6640
3072.519696 0.6660 0.6700 0.6780 0.6890 0.7060
3081.612000 0.7070 0.7100 0.7110 0.7120 0.7130
3090.713696 0.7130 0.7140 0.7190 0.7220 0.7240
3099.805000 0.7280 0.7320 0.7360 0.7390 0.7400
3108.906696 0.7410 0.7410 0.7410 0.7420 0.7430
3117.999000 0.7440 0.7450 0.7460 0.7470 0.7480
3127.100696 0.7490 0.7500 0.7500 0.7500 0.7500
3136.192000 0.7510 0.7510 0.7510 0.7520 0.7520
3145.293696 0.7530 0.7530 0.7530 0.7540 0.7540
3154.386000 0.7540 0.7540 0.7540 0.7540 0.7530
3163.487696 0.7530 0.7530 0.7520 0.7520 0.7520
3172.580000 0.7510 0.7500 0.7500 0.7500 0.7500
3181.681696 0.7500 0.7500 0.7500 0.7500 0.7500
3190.773000 0.7500 0.7500 0.7500 0.7500 0.7500
3199.874696 0.7500 0.7500 0.7500 0.7500 0.7500
3208.967000 0.7500 0.7500 0.7500 0.7500 0.7500
3218.068696 0.7500 0.7500 0.7500 0.7500 0.7500
3227.160000 0.7490 0.7490 0.7490 0.7480 0.7480
3236.261696 0.7470 0.7460 0.7460 0.7460 0.7450
3245.354000 0.7450 0.7450 0.7440 0.7440 0.7440
3254.455696 0.7430 0.7430 0.7420 0.7420 0.7410
3263.548000 0.7410 0.7410 0.7410 0.7410 0.7410
3272.649696 0.7410 0.7410 0.7410 0.7410 0.7410
3281.741000 0.7410 0.7400 0.7400 0.7390 0.7380
3290.842696 0.7370 0.7360 0.7360 0.7350 0.7330
3299.935000 0.7310 0.7290 0.7270 0.7260 0.7250
3309.036696 0.7240 0.7230 0.7220 0.7220 0.7210
3318.129000 0.7200 0.7190 0.7180 0.7170 0.7170
3327.230696 0.7160 0.7150 0.7150 0.7150 0.7150
3336.322000 0.7150 0.7150 0.7140 0.7140 0.7140
3345.423696 0.7140 0.7140 0.7140 0.7140 0.7140
3354.516000 0.7150 0.7150 0.7150 0.7150 0.7160
3363.617696 0.7160 0.7180 0.7190 0.7190 0.7190
3372.709000 0.7210 0.7220 0.7220 0.7220 0.7220
3381.810696 0.7220 0.7220 0.7220 0.7210 0.7210
3390.903000 0.7200 0.7180 0.7180 0.7180 0.7180
3400.004696 0.7170 0.7170 0.7170 0.7170 0.7170
3409.097000 0.7170 0.7170 0.7170 0.7170 0.7170
3418.198696 0.7170 0.7170 0.7170 0.7170 0.7180
3427.291000 0.7180 0.7170 0.7170 0.7170 0.7170
3436.392696 0.7170 0.7160 0.7160 0.7160 0.7160
3445.484000 0.7150 0.7150 0.7150 0.7150 0.7150
3454.585696 0.7150 0.7150 0.7150 0.7150 0.7150
3463.678000 0.7150 0.7150 0.7160 0.7160 0.7160
3472.779696 0.7160 0.7160 0.7170 0.7170 0.7170
3481.871000 0.7170 0.7170 0.7170 0.7190 0.7190
3490.972696 0.7200 0.7200 0.7210 0.7200 0.7210
3500.065000 0.7210 0.7210 0.7220 0.7220 0.7220
3509.166696 0.7230 0.7230 0.7230 0.7240 0.7240
3518.259000 0.7240 0.7240 0.7240 0.7250 0.7260
3527.360696 0.7260 0.7270 0.7280 0.7290 0.7290
3536.452000 0.7290 0.7300 0.7300 0.7300 0.7310
3545.553696 0.7310 0.7310 0.7310 0.7310 0.7310
3554.646000 0.7310 0.7310 0.7310 0.7310 0.7310
3563.747696 0.7300 0.7300 0.7300 0.7300 0.7300
3572.840000 0.7300 0.7300 0.7310 0.7310 0.7310
3581.941696 0.7310 0.7310 0.7310 0.7310 0.7310
3591.033000 0.7320 0.7320 0.7320 0.7320 0.7320
3600.134696 0.7310 0.7310 0.7310 0.7300 0.7300
3609.227000 0.7290 0.7290 0.7280 0.7270 0.7270
3618.328696 0.7260 0.7250 0.7240 0.7240 0.7240
3627.420000 0.7240 0.7240 0.7240 0.7240 0.7230
3636.521696 0.7220 0.7220 0.7230 0.7230 0.7230
3645.614000 0.7230 0.7240 0.7240 0.7240 0.7240
3654.715696 0.7240 0.7250 0.7260 0.7270 0.7270
3663.808000 0.7290 0.7300 0.7310 0.7320 0.7320
3672.909696 0.7330 0.7340 0.7350 0.7350 0.7360
3682.001000 0.7360 0.7370 0.7370 0.7370 0.7380
3691.102696 0.7380 0.7380 0.7380 0.7380 0.7380
3700.195000 0.7380 0.7380 0.7380 0.7380 0.7390
3709.296696 0.7390 0.7390 0.7390 0.7390 0.7390
3718.389000 0.7390 0.7390 0.7390 0.7390 0.7390
3727.490696 0.7390 0.7390 0.7390 0.7390 0.7390
3736.582000 0.7390 0.7390 0.7390 0.7390 0.7390
3745.683696 0.7390 0.7390 0.7390 0.7390 0.7390
3754.776000 0.7390 0.7390 0.7390 0.7390 0.7390
3763.877696 0.7390 0.7390 0.7390 0.7390 0.7390
3772.969000 0.7390 0.7390 0.7390 0.7380 0.7380
3782.070696 0.7380 0.7380 0.7380 0.7380 0.7380
3791.163000 0.7370 0.7370 0.7370 0.7370 0.7370
3800.264696 0.7370 0.7370 0.7360 0.7360 0.7360
3809.357000 0.7360 0.7360 0.7360 0.7360 0.7350
3818.458696 0.7350 0.7350 0.7340 0.7340 0.7340
3827.550000 0.7340 0.7340 0.7330 0.7330 0.7330
3836.651696 0.7330 0.7330 0.7320 0.7320 0.7320
3845.744000 0.7320 0.7320 0.7320 0.7320 0.7320
3854.845696 0.7330 0.7330 0.7330 0.7330 0.7330
3863.938000 0.7340 0.7340 0.7350 0.7350 0.7360
3873.039696 0.7370 0.7350 0.7350 0.7350 0.7350
3882.131000 0.7350 0.7350 0.7350 0.7350 0.7350
3891.232696 0.7350 0.7350 0.7350 0.7340 0.7340
3900.325000 0.7340 0.7340 0.7340 0.7330 0.7330
3909.426696 0.7330 0.7330 0.7320 0.7320 0.7320
3918.519000 0.7320 0.7320 0.7320 0.7320 0.7320
3927.620696 0.7320 0.7320 0.7320 0.7320 0.7320
3936.712000 0.7320 0.7320 0.7320 0.7320 0.7320
3945.813696 0.7320 0.7320 0.7320 0.7320 0.7320
3954.906000 0.7320 0.7320 0.7320 0.7320 0.7320
3964.007696 0.7320 0.7310 0.7310 0.7310 0.7310
3973.099000 0.7310 0.7310 0.7310 0.7310 0.7300
3982.200696 0.7300 0.7300 0.7300 0.7300 0.7300
3991.293000 0.7290 0.7290 0.7290 0.7290 0.7280
4000.394696 0.7280 0.7280 0.7270 0.7270 0.7270
4009.487000 0.7270 0.7260 0.7270 0.7270 0.7270
4018.588696 0.7260
##END=
