##TITLE=SAMARIUM OXALATE
##JCAMP-DX=4.24
##DATA TYPE=INFRARED SPECTRUM
##CLASS=COBLENTZ
##OWNER=COBLENTZ SOCIETY
Collection (C) 2018 copyright by the U.S. Secretary of Commerce
on behalf of the United States of America. All rights reserved.
##DATE=Not specified, most likely prior to 1970
##MOLFORM=Sm2 ( C2 O4)3  * 10 H2 O
##SOURCE REFERENCE=COBLENTZ NO. 78
##$NIST ID=B6000078
##$NIST SOURCE=COBLENTZ
##$NIST IMAGE=cob78
##SPECTROMETER/DATA SYSTEM=Not specified, most likely a prism, grating, or hybrid spectrometer.
##STATE=SOLID (KBr DISC)
##SAMPLING PROCEDURE=TRANSMISSION
##RESOLUTION=4
##DATA PROCESSING=DIGITIZED BY NIST FROM HARD COPY
##XUNITS=MICROMETERS
##YUNITS=TRANSMITTANCE
##XFACTOR=1.000000
##YFACTOR=1
##DELTAX=000.007614
##FIRSTX=2.028
##LASTX=14.9341
##FIRSTY=0.921
##MAXX=14.9341
##MINX=2.028
##MAXY=0.971
##MINY=0.203
##NPOINTS=1696
##XYDATA=(X++(Y..Y))
2.028000 0.9210 0.9210 0.9210 0.9210 0.9220
2.066094 0.9220 0.9240 0.9250 0.9270 0.9270
2.104000 0.9280 0.9280 0.9280 0.9300 0.9300
2.142094 0.9300 0.9300 0.9310 0.9300 0.9300
2.180000 0.9300 0.9310 0.9310 0.9330 0.9310
2.218094 0.9310 0.9330 0.9330 0.9340 0.9340
2.256000 0.9340 0.9360 0.9360 0.9360 0.9370
2.294094 0.9380 0.9380 0.9380 0.9380 0.9380
2.332000 0.9380 0.9400 0.9400 0.9400 0.9400
2.370094 0.9410 0.9410 0.9410 0.9410 0.9410
2.409000 0.9410 0.9430 0.9430 0.9430 0.9430
2.447094 0.9430 0.9430 0.9430 0.9430 0.9430
2.485000 0.9430 0.9430 0.9430 0.9430 0.9430
2.523094 0.9430 0.9430 0.9430 0.9430 0.9430
2.561000 0.9430 0.9430 0.9430 0.9430 0.9430
2.599094 0.9440 0.9440 0.9460 0.9460 0.9460
2.637000 0.9460 0.9460 0.9460 0.9460 0.9460
2.675094 0.9460 0.9460 0.9440 0.9440 0.9440
2.713000 0.9430 0.9410 0.9370 0.9280 0.9210
2.751094 0.9070 0.8770 0.8640 0.8460 0.8220
2.789000 0.7790 0.7540 0.7260 0.7030 0.6840
2.827094 0.6710 0.6570 0.6250 0.6140 0.5990
2.865000 0.5750 0.5630 0.5460 0.5290 0.5110
2.903094 0.4920 0.4830 0.4760 0.4640 0.4580
2.942000 0.4470 0.4410 0.4380 0.4370 0.4360
2.980094 0.4360 0.4380 0.4410 0.4490 0.4560
3.018000 0.4620 0.4790 0.4860 0.4940 0.5000
3.056094 0.5110 0.5170 0.5230 0.5290 0.5410
3.094000 0.5500 0.5590 0.5690 0.5770 0.5830
3.132094 0.5900 0.6040 0.6130 0.6220 0.6360
3.170000 0.6480 0.6570 0.6780 0.6870 0.6940
3.208094 0.7080 0.7140 0.7200 0.7290 0.7350
3.246000 0.7440 0.7510 0.7580 0.7720 0.7760
3.284094 0.7880 0.8020 0.8060 0.8150 0.8220
3.322000 0.8300 0.8360 0.8390 0.8450 0.8480
3.360094 0.8510 0.8540 0.8550 0.8570 0.8580
3.398000 0.8600 0.8630 0.8640 0.8640 0.8660
3.436094 0.8670 0.8750 0.8800 0.8850 0.8910
3.475000 0.8950 0.9000 0.9010 0.9030 0.9060
3.513094 0.9070 0.9090 0.9100 0.9120 0.9150
3.551000 0.9180 0.9190 0.9210 0.9220 0.9250
3.589094 0.9280 0.9300 0.9310 0.9310 0.9310
3.627000 0.9330 0.9360 0.9380 0.9400 0.9410
3.665094 0.9430 0.9430 0.9440 0.9460 0.9460
3.703000 0.9460 0.9460 0.9460 0.9470 0.9470
3.741094 0.9470 0.9490 0.9490 0.9490 0.9500
3.779000 0.9500 0.9500 0.9500 0.9500 0.9500
3.817094 0.9520 0.9530 0.9550 0.9550 0.9560
3.855000 0.9580 0.9590 0.9590 0.9590 0.9590
3.893094 0.9590 0.9590 0.9590 0.9590 0.9590
3.931000 0.9580 0.9580 0.9580 0.9590 0.9590
3.969094 0.9590 0.9590 0.9610 0.9620 0.9620
4.008000 0.9620 0.9620 0.9620 0.9640 0.9640
4.046094 0.9640 0.9640 0.9640 0.9640 0.9640
4.084000 0.9650 0.9650 0.9650 0.9650 0.9650
4.122094 0.9650 0.9650 0.9650 0.9650 0.9650
4.160000 0.9650 0.9650 0.9650 0.9650 0.9650
4.198094 0.9650 0.9650 0.9640 0.9640 0.9640
4.236000 0.9640 0.9650 0.9650 0.9650 0.9670
4.274094 0.9670 0.9670 0.9670 0.9670 0.9670
4.312000 0.9670 0.9680 0.9680 0.9680 0.9700
4.350094 0.9700 0.9700 0.9710 0.9710 0.9710
4.388000 0.9700 0.9700 0.9670 0.9650 0.9650
4.426094 0.9650 0.9640 0.9640 0.9640 0.9640
4.464000 0.9640 0.9640 0.9640 0.9640 0.9640
4.502094 0.9640 0.9620 0.9620 0.9610 0.9610
4.541000 0.9610 0.9610 0.9610 0.9610 0.9610
4.579094 0.9610 0.9610 0.9590 0.9590 0.9590
4.617000 0.9590 0.9590 0.9590 0.9590 0.9590
4.655094 0.9590 0.9590 0.9590 0.9610 0.9590
4.693000 0.9590 0.9590 0.9590 0.9590 0.9590
4.731094 0.9590 0.9590 0.9590 0.9590 0.9590
4.769000 0.9590 0.9610 0.9610 0.9610 0.9610
4.807094 0.9610 0.9610 0.9610 0.9610 0.9610
4.845000 0.9610 0.9620 0.9620 0.9620 0.9620
4.883094 0.9620 0.9620 0.9620 0.9620 0.9620
4.921000 0.9620 0.9620 0.9640 0.9640 0.9640
4.959094 0.9640 0.9640 0.9640 0.9640 0.9640
4.997000 0.9640 0.9640 0.9640 0.9640 0.9650
5.035094 0.9650 0.9650 0.9650 0.9650 0.9650
5.074000 0.9650 0.9650 0.9650 0.9650 0.9650
5.112094 0.9650 0.9650 0.9650 0.9640 0.9640
5.150000 0.9620 0.9620 0.9620 0.9620 0.9620
5.188094 0.9620 0.9640 0.9620 0.9640 0.9640
5.226000 0.9620 0.9620 0.9620 0.9620 0.9610
5.264094 0.9610 0.9620 0.9620 0.9620 0.9620
5.302000 0.9620 0.9620 0.9620 0.9610 0.9610
5.340094 0.9610 0.9620 0.9620 0.9640 0.9640
5.378000 0.9640 0.9640 0.9620 0.9620 0.9620
5.416094 0.9620 0.9620 0.9610 0.9610 0.9610
5.454000 0.9610 0.9610 0.9610 0.9610 0.9610
5.492094 0.9620 0.9620 0.9610 0.9610 0.9580
5.530000 0.9560 0.9550 0.9530 0.9530 0.9550
5.568094 0.9550 0.9550 0.9530 0.9530 0.9520
5.607000 0.9500 0.9500 0.9490 0.9470 0.9460
5.645094 0.9440 0.9430 0.9430 0.9400 0.9380
5.683000 0.9360 0.9340 0.9310 0.9280 0.9270
5.721094 0.9240 0.9180 0.9150 0.9100 0.9030
5.759000 0.8970 0.8850 0.8700 0.8570 0.8310
5.797094 0.8180 0.8090 0.7870 0.7580 0.7240
5.835000 0.6960 0.6750 0.6690 0.6630 0.6470
5.873094 0.6290 0.6160 0.5870 0.5660 0.5550
5.911000 0.5410 0.5340 0.5250 0.5050 0.4740
5.949094 0.4640 0.4400 0.4250 0.4000 0.3860
5.987000 0.3730 0.3550 0.3420 0.3310 0.3210
6.025094 0.3090 0.2970 0.2910 0.2810 0.2750
6.063000 0.2660 0.2510 0.2440 0.2230 0.2180
6.101094 0.2170 0.2120 0.2090 0.2050 0.2050
6.140000 0.2030 0.2030 0.2050 0.2060 0.2110
6.178094 0.2170 0.2230 0.2320 0.2480 0.2700
6.216000 0.2840 0.3060 0.3250 0.3760 0.3940
6.254094 0.4340 0.4560 0.4880 0.5010 0.5220
6.292000 0.5680 0.5810 0.5950 0.6140 0.6350
6.330094 0.6540 0.6900 0.7030 0.7230 0.7300
6.368000 0.7390 0.7440 0.7480 0.7510 0.7570
6.406094 0.7700 0.7820 0.7960 0.8030 0.8110
6.444000 0.8150 0.8180 0.8210 0.8240 0.8270
6.482094 0.8360 0.8390 0.8430 0.8480 0.8520
6.520000 0.8540 0.8550 0.8570 0.8580 0.8600
6.558094 0.8600 0.8630 0.8660 0.8720 0.8730
6.596000 0.8760 0.8760 0.8760 0.8790 0.8800
6.634094 0.8830 0.8850 0.8850 0.8860 0.8860
6.673000 0.8880 0.8880 0.8880 0.8880 0.8880
6.711094 0.8880 0.8880 0.8850 0.8790 0.8730
6.749000 0.8690 0.8670 0.8660 0.8660 0.8670
6.787094 0.8690 0.8690 0.8690 0.8700 0.8700
6.825000 0.8700 0.8700 0.8720 0.8730 0.8750
6.863094 0.8820 0.8850 0.8860 0.8880 0.8880
6.901000 0.8890 0.8910 0.8920 0.8940 0.8940
6.939094 0.8950 0.8950 0.8980 0.9000 0.9010
6.977000 0.9030 0.9060 0.9060 0.9070 0.9070
7.015094 0.9070 0.9070 0.9090 0.9090 0.9100
7.053000 0.9130 0.9150 0.9160 0.9160 0.9180
7.091094 0.9180 0.9160 0.9160 0.9160 0.9180
7.129000 0.9180 0.9180 0.9190 0.9190 0.9190
7.167094 0.9190 0.9190 0.9180 0.9180 0.9180
7.206000 0.9160 0.9160 0.9150 0.9070 0.9010
7.244094 0.8910 0.8860 0.8820 0.8800 0.8770
7.282000 0.8720 0.8640 0.8570 0.8510 0.8430
7.320094 0.8390 0.8360 0.8360 0.8340 0.8310
7.358000 0.8270 0.8240 0.8240 0.8220 0.8220
7.396094 0.8220 0.8220 0.8210 0.8210 0.8210
7.434000 0.8210 0.8190 0.8160 0.8130 0.8110
7.472094 0.8060 0.7970 0.7880 0.7750 0.7540
7.510000 0.7390 0.7260 0.7080 0.6900 0.6710
7.548094 0.6600 0.6480 0.6330 0.6200 0.6140
7.586000 0.6130 0.6110 0.6070 0.6070 0.6130
7.624094 0.6250 0.6350 0.6480 0.6650 0.7020
7.662000 0.7230 0.7390 0.7540 0.7630 0.7790
7.700094 0.7910 0.8030 0.8110 0.8220 0.8310
7.739000 0.8400 0.8480 0.8550 0.8580 0.8630
7.777094 0.8690 0.8750 0.8770 0.8790 0.8820
7.815000 0.8830 0.8860 0.8910 0.8940 0.8970
7.853094 0.9000 0.9010 0.9010 0.9040 0.9040
7.891000 0.9060 0.9070 0.9090 0.9090 0.9100
7.929094 0.9100 0.9120 0.9120 0.9120 0.9130
7.967000 0.9150 0.9160 0.9160 0.9180 0.9190
8.005094 0.9210 0.9210 0.9190 0.9210 0.9210
8.043000 0.9210 0.9210 0.9210 0.9220 0.9220
8.081094 0.9240 0.9240 0.9240 0.9240 0.9250
8.119000 0.9250 0.9250 0.9250 0.9250 0.9250
8.157094 0.9250 0.9250 0.9250 0.9250 0.9250
8.195000 0.9250 0.9250 0.9250 0.9270 0.9270
8.233094 0.9270 0.9270 0.9270 0.9270 0.9270
8.272000 0.9270 0.9270 0.9270 0.9270 0.9270
8.310094 0.9270 0.9270 0.9270 0.9270 0.9270
8.348000 0.9280 0.9270 0.9270 0.9280 0.9280
8.386094 0.9280 0.9280 0.9280 0.9280 0.9280
8.424000 0.9280 0.9280 0.9280 0.9300 0.9300
8.462094 0.9300 0.9300 0.9300 0.9310 0.9310
8.500000 0.9310 0.9310 0.9310 0.9310 0.9310
8.538094 0.9310 0.9310 0.9330 0.9330 0.9330
8.576000 0.9330 0.9330 0.9330 0.9330 0.9330
8.614094 0.9330 0.9340 0.9340 0.9340 0.9340
8.652000 0.9340 0.9340 0.9340 0.9340 0.9340
8.690094 0.9340 0.9340 0.9340 0.9340 0.9330
8.728000 0.9330 0.9330 0.9330 0.9340 0.9340
8.766094 0.9340 0.9340 0.9340 0.9340 0.9340
8.805000 0.9340 0.9340 0.9340 0.9340 0.9340
8.843094 0.9340 0.9340 0.9340 0.9340 0.9340
8.881000 0.9340 0.9340 0.9360 0.9360 0.9360
8.919094 0.9360 0.9360 0.9360 0.9360 0.9360
8.957000 0.9360 0.9360 0.9360 0.9360 0.9360
8.995094 0.9360 0.9360 0.9360 0.9360 0.9360
9.033000 0.9360 0.9360 0.9340 0.9340 0.9340
9.071094 0.9340 0.9340 0.9340 0.9360 0.9360
9.109000 0.9360 0.9360 0.9340 0.9360 0.9360
9.147094 0.9360 0.9360 0.9340 0.9340 0.9340
9.185000 0.9340 0.9340 0.9340 0.9360 0.9360
9.223094 0.9360 0.9360 0.9360 0.9360 0.9360
9.261000 0.9360 0.9360 0.9360 0.9360 0.9360
9.299094 0.9360 0.9360 0.9370 0.9370 0.9360
9.338000 0.9360 0.9360 0.9360 0.9360 0.9360
9.376094 0.9360 0.9360 0.9360 0.9360 0.9360
9.414000 0.9360 0.9360 0.9360 0.9360 0.9360
9.452094 0.9360 0.9360 0.9360 0.9360 0.9360
9.490000 0.9360 0.9360 0.9360 0.9360 0.9360
9.528094 0.9360 0.9360 0.9360 0.9360 0.9360
9.566000 0.9360 0.9360 0.9360 0.9360 0.9360
9.604094 0.9360 0.9360 0.9360 0.9360 0.9360
9.642000 0.9360 0.9360 0.9360 0.9370 0.9360
9.680094 0.9360 0.9360 0.9360 0.9360 0.9360
9.718000 0.9360 0.9360 0.9360 0.9360 0.9360
9.756094 0.9360 0.9360 0.9360 0.9360 0.9360
9.794000 0.9360 0.9360 0.9370 0.9370 0.9380
9.832094 0.9380 0.9380 0.9400 0.9400 0.9400
9.871000 0.9400 0.9400 0.9400 0.9400 0.9400
9.909094 0.9380 0.9380 0.9380 0.9380 0.9380
9.947000 0.9380 0.9380 0.9380 0.9380 0.9380
9.985094 0.9400 0.9400 0.9400 0.9400 0.9400
10.023000 0.9410 0.9410 0.9410 0.9410 0.9430
10.061094 0.9430 0.9430 0.9440 0.9440 0.9440
10.099000 0.9430 0.9430 0.9430 0.9440 0.9440
10.137094 0.9440 0.9440 0.9440 0.9440 0.9440
10.175000 0.9440 0.9440 0.9440 0.9440 0.9440
10.213094 0.9440 0.9440 0.9440 0.9440 0.9440
10.251000 0.9440 0.9460 0.9440 0.9460 0.9460
10.289094 0.9460 0.9460 0.9460 0.9470 0.9470
10.327000 0.9460 0.9460 0.9460 0.9460 0.9460
10.365094 0.9460 0.9460 0.9460 0.9460 0.9460
10.404000 0.9460 0.9440 0.9440 0.9460 0.9460
10.442094 0.9460 0.9440 0.9440 0.9430 0.9430
10.480000 0.9430 0.9410 0.9410 0.9430 0.9430
10.518094 0.9430 0.9440 0.9460 0.9460 0.9460
10.556000 0.9460 0.9460 0.9460 0.9460 0.9440
10.594094 0.9440 0.9440 0.9440 0.9440 0.9440
10.632000 0.9440 0.9430 0.9430 0.9440 0.9430
10.670094 0.9430 0.9430 0.9430 0.9430 0.9430
10.708000 0.9410 0.9410 0.9410 0.9410 0.9410
10.746094 0.9410 0.9410 0.9410 0.9410 0.9410
10.784000 0.9410 0.9400 0.9400 0.9380 0.9380
10.822094 0.9380 0.9380 0.9380 0.9380 0.9380
10.860000 0.9380 0.9370 0.9370 0.9370 0.9380
10.898094 0.9370 0.9370 0.9370 0.9360 0.9360
10.937000 0.9340 0.9340 0.9330 0.9330 0.9330
10.975094 0.9310 0.9330 0.9330 0.9330 0.9330
11.013000 0.9330 0.9340 0.9340 0.9340 0.9340
11.051094 0.9340 0.9340 0.9340 0.9360 0.9360
11.089000 0.9370 0.9370 0.9360 0.9360 0.9360
11.127094 0.9360 0.9360 0.9360 0.9360 0.9370
11.165000 0.9370 0.9370 0.9370 0.9370 0.9370
11.203094 0.9370 0.9370 0.9370 0.9370 0.9370
11.241000 0.9370 0.9370 0.9370 0.9370 0.9370
11.279094 0.9370 0.9370 0.9370 0.9370 0.9370
11.317000 0.9370 0.9370 0.9370 0.9370 0.9360
11.355094 0.9360 0.9360 0.9360 0.9360 0.9360
11.393000 0.9340 0.9340 0.9340 0.9340 0.9340
11.431094 0.9340 0.9330 0.9330 0.9330 0.9310
11.470000 0.9310 0.9310 0.9310 0.9310 0.9310
11.508094 0.9310 0.9310 0.9310 0.9310 0.9300
11.546000 0.9300 0.9280 0.9280 0.9270 0.9270
11.584094 0.9270 0.9250 0.9240 0.9240 0.9240
11.622000 0.9240 0.9240 0.9220 0.9220 0.9220
11.660094 0.9220 0.9220 0.9220 0.9220 0.9220
11.698000 0.9220 0.9210 0.9210 0.9210 0.9190
11.736094 0.9190 0.9190 0.9190 0.9190 0.9190
11.774000 0.9190 0.9190 0.9190 0.9190 0.9190
11.812094 0.9190 0.9180 0.9160 0.9160 0.9160
11.850000 0.9150 0.9150 0.9150 0.9150 0.9150
11.888094 0.9160 0.9160 0.9150 0.9130 0.9120
11.926000 0.9120 0.9100 0.9090 0.9090 0.9070
11.964094 0.9060 0.9040 0.9040 0.9060 0.9060
12.003000 0.9060 0.9060 0.9040 0.9030 0.9030
12.041094 0.9030 0.9030 0.9010 0.9010 0.9010
12.079000 0.9000 0.8980 0.8980 0.8970 0.8950
12.117094 0.8950 0.8940 0.8920 0.8920 0.8910
12.155000 0.8890 0.8880 0.8850 0.8830 0.8820
12.193094 0.8820 0.8770 0.8750 0.8720 0.8670
12.231000 0.8660 0.8660 0.8660 0.8640 0.8640
12.269094 0.8610 0.8550 0.8540 0.8510 0.8480
12.307000 0.8450 0.8430 0.8400 0.8340 0.8280
12.345094 0.8250 0.8180 0.8130 0.8060 0.7990
12.383000 0.7970 0.7900 0.7850 0.7810 0.7750
12.421094 0.7600 0.7540 0.7520 0.7480 0.7450
12.459000 0.7380 0.7350 0.7320 0.7290 0.7260
12.497094 0.7240 0.7240 0.7230 0.7200 0.7200
12.536000 0.7180 0.7180 0.7180 0.7180 0.7200
12.574094 0.7230 0.7240 0.7270 0.7330 0.7360
12.612000 0.7410 0.7440 0.7470 0.7480 0.7540
12.650094 0.7550 0.7570 0.7600 0.7630 0.7660
12.688000 0.7700 0.7750 0.7780 0.7820 0.7850
12.726094 0.7900 0.7940 0.7960 0.7970 0.8000
12.764000 0.8050 0.8060 0.8110 0.8120 0.8150
12.802094 0.8160 0.8180 0.8190 0.8220 0.8270
12.840000 0.8300 0.8310 0.8310 0.8330 0.8330
12.878094 0.8340 0.8340 0.8360 0.8340 0.8340
12.916000 0.8340 0.8360 0.8390 0.8420 0.8430
12.954094 0.8450 0.8460 0.8460 0.8460 0.8480
12.992000 0.8490 0.8480 0.8480 0.8510 0.8480
13.030094 0.8480 0.8480 0.8490 0.8490 0.8490
13.069000 0.8490 0.8490 0.8490 0.8510 0.8510
13.107094 0.8510 0.8510 0.8510 0.8510 0.8510
13.145000 0.8510 0.8510 0.8510 0.8510 0.8490
13.183094 0.8490 0.8490 0.8490 0.8490 0.8490
13.221000 0.8490 0.8490 0.8490 0.8490 0.8490
13.259094 0.8490 0.8490 0.8490 0.8490 0.8490
13.297000 0.8490 0.8490 0.8490 0.8480 0.8460
13.335094 0.8460 0.8460 0.8460 0.8460 0.8480
13.373000 0.8480 0.8480 0.8480 0.8480 0.8480
13.411094 0.8480 0.8480 0.8480 0.8480 0.8480
13.449000 0.8480 0.8480 0.8480 0.8480 0.8460
13.487094 0.8450 0.8450 0.8450 0.8460 0.8460
13.525000 0.8460 0.8460 0.8460 0.8460 0.8460
13.563094 0.8460 0.8460 0.8460 0.8460 0.8460
13.602000 0.8480 0.8460 0.8450 0.8430 0.8420
13.640094 0.8430 0.8430 0.8450 0.8450 0.8450
13.678000 0.8450 0.8450 0.8450 0.8450 0.8450
13.716094 0.8450 0.8430 0.8430 0.8430 0.8430
13.754000 0.8450 0.8450 0.8450 0.8450 0.8450
13.792094 0.8450 0.8430 0.8450 0.8450 0.8450
13.830000 0.8430 0.8430 0.8430 0.8430 0.8430
13.868094 0.8430 0.8430 0.8430 0.8450 0.8450
13.906000 0.8450 0.8450 0.8450 0.8450 0.8450
13.944094 0.8430 0.8430 0.8420 0.8430 0.8430
13.982000 0.8430 0.8430 0.8430 0.8430 0.8430
14.020094 0.8430 0.8430 0.8450 0.8450 0.8450
14.058000 0.8430 0.8430 0.8420 0.8420 0.8420
14.096094 0.8420 0.8400 0.8400 0.8390 0.8390
14.135000 0.8400 0.8400 0.8420 0.8420 0.8420
14.173094 0.8430 0.8430 0.8430 0.8430 0.8420
14.211000 0.8420 0.8420 0.8420 0.8420 0.8420
14.249094 0.8420 0.8400 0.8400 0.8400 0.8400
14.287000 0.8400 0.8420 0.8400 0.8400 0.8400
14.325094 0.8400 0.8400 0.8400 0.8400 0.8400
14.363000 0.8420 0.8420 0.8430 0.8450 0.8450
14.401094 0.8450 0.8420 0.8400 0.8420 0.8420
14.439000 0.8420 0.8420 0.8420 0.8420 0.8400
14.477094 0.8400 0.8400 0.8400 0.8400 0.8400
14.515000 0.8420 0.8430 0.8450 0.8460 0.8460
14.553094 0.8450 0.8450 0.8450 0.8450 0.8450
14.591000 0.8450 0.8430 0.8430 0.8420 0.8420
14.629094 0.8430 0.8430 0.8450 0.8450 0.8460
14.668000 0.8460 0.8460 0.8450 0.8450 0.8450
14.706094 0.8450 0.8450 0.8450 0.8450 0.8450
14.744000 0.8450 0.8450 0.8450 0.8450 0.8450
14.782094 0.8430 0.8430 0.8450 0.8450 0.8460
14.820000 0.8460 0.8460 0.8460 0.8460 0.8450
14.858094 0.8430 0.8430 0.8430 0.8430 0.8430
14.896000 0.8450 0.8450 0.8460 0.8450 0.8450
14.934094 0.8460
##END=
