##TITLE=Indole, 2,5-dimethyl-, hydrochloride
##JCAMP-DX=4.24
##DATA TYPE=INFRARED SPECTRUM
##CLASS=COBLENTZ III
##ORIGIN=BRITISH PETROLEUM CO. LTD., ENGLAND
##OWNER=Copyright (C) 1987 by the Coblentz Society
Collection (C) 2018 copyright by the U.S. Secretary of Commerce
on behalf of the United States of America. All rights reserved.
##DATE=1972/08/02
##NAMES=2,5-dimethyl-1H-indole hydrochloride
##MOLFORM=C10 H12 Cl N
##SOURCE REFERENCE=COBLENTZ NO. 9407
##$NIST ID=B6009407
##$NIST SOURCE=COBLENTZ
##$NIST IMAGE=cob9407
##SPECTROMETER/DATA SYSTEM=PERKIN-ELMER 157
##STATE=SOLID (KBr DISC, 0.8% WT.)
$$ HCl RUN IN KBr MAY CONTAIN SOME HBr
$$ REF. Can. J. Spec., 18,4,101, '73 C. S. DOUSE and P. B. TOOKE
##SAMPLING PROCEDURE=TRANSMISSION
##RESOLUTION=2
##DATA PROCESSING=DIGITIZED BY COBLENTZ SOCIETY (BATCH II) FROM HARD COPY
##XUNITS=1/CM
##YUNITS=TRANSMITTANCE
##XFACTOR=1.0
##YFACTOR=1
##FIRSTX=668
##LASTX=4000
##FIRSTY=0.56
##MAXX=4000
##MINX=668
##MAXY=0.7458
##MINY=0.123
##NPOINTS=3333
##XYDATA=(X++(Y..Y))
668.000000 0.5600 0.5608 0.5633 0.5699 0.5781
673.000000 0.5858 0.5925 0.5978 0.5996 0.6006
678.000000 0.6013 0.6018 0.6022 0.6024 0.6026
683.000000 0.6027 0.6028 0.6027 0.6026 0.6025
688.000000 0.6023 0.6023 0.6022 0.6025 0.6030
693.000000 0.6036 0.6041 0.6048 0.6070 0.6091
698.000000 0.6108 0.6125 0.6152 0.6142 0.6145
703.000000 0.6148 0.6147 0.6146 0.6144 0.6141
708.000000 0.6137 0.6129 0.6121 0.6113 0.6105
713.000000 0.6098 0.6091 0.6075 0.6057 0.6040
718.000000 0.6022 0.6004 0.5985 0.5963 0.5933
723.000000 0.5904 0.5876 0.5846 0.5810 0.5798
728.000000 0.5790 0.5783 0.5774 0.5740 0.5704
733.000000 0.5669 0.5633 0.5605 0.5577 0.5567
738.000000 0.5563 0.5565 0.5583 0.5607 0.5635
743.000000 0.5663 0.5700 0.5704 0.5706 0.5708
748.000000 0.5710 0.5709 0.5708 0.5707 0.5704
753.000000 0.5700 0.5697 0.5696 0.5694 0.5693
758.000000 0.5692 0.5691 0.5691 0.5690 0.5715
763.000000 0.5687 0.5676 0.5666 0.5647 0.5625
768.000000 0.5604 0.5582 0.5561 0.5541 0.5520
773.000000 0.5497 0.5472 0.5448 0.5423 0.5399
778.000000 0.5364 0.5328 0.5292 0.5252 0.5194
783.000000 0.5136 0.5078 0.5019 0.4947 0.4875
788.000000 0.4797 0.4709 0.4623 0.4541 0.4456
793.000000 0.4347 0.4241 0.4135 0.4013 0.3881
798.000000 0.3786 0.3700 0.3615 0.3525 0.3432
803.000000 0.3325 0.3243 0.3172 0.3111 0.3065
808.000000 0.3046 0.3042 0.3049 0.3068 0.3087
813.000000 0.3109 0.3137 0.3165 0.3212 0.3272
818.000000 0.3332 0.3399 0.3470 0.3560 0.3670
823.000000 0.3751 0.3829 0.3936 0.4031 0.4150
828.000000 0.4346 0.4419 0.4490 0.4555 0.4619
833.000000 0.4683 0.4750 0.4864 0.5005 0.5167
838.000000 0.5297 0.5397 0.5461 0.5499 0.5527
843.000000 0.5548 0.5567 0.5585 0.5601 0.5613
848.000000 0.5615 0.5615 0.5611 0.5630 0.5595
853.000000 0.5577 0.5549 0.5519 0.5483 0.5443
858.000000 0.5398 0.5358 0.5322 0.5301 0.5279
863.000000 0.5258 0.5236 0.5219 0.5214 0.5210
868.000000 0.5206 0.5201 0.5202 0.5214 0.5224
873.000000 0.5234 0.5245 0.5256 0.5271 0.5286
878.000000 0.5303 0.5319 0.5335 0.5352 0.5369
883.000000 0.5394 0.5419 0.5438 0.5445 0.5451
888.000000 0.5457 0.5461 0.5466 0.5471 0.5472
893.000000 0.5471 0.5471 0.5470 0.5469 0.5469
898.000000 0.5468 0.5466 0.5465 0.5464 0.5462
903.000000 0.5461 0.5460 0.5459 0.5464 0.5468
908.000000 0.5476 0.5483 0.5490 0.5505 0.5521
913.000000 0.5537 0.5557 0.5580 0.5602 0.5634
918.000000 0.5666 0.5698 0.5724 0.5751 0.5765
923.000000 0.5771 0.5777 0.5783 0.5789 0.5795
928.000000 0.5800 0.5804 0.5828 0.5810 0.5813
933.000000 0.5810 0.5794 0.5771 0.5749 0.5733
938.000000 0.5723 0.5716 0.5708 0.5695 0.5680
943.000000 0.5666 0.5657 0.5649 0.5641 0.5635
948.000000 0.5629 0.5622 0.5615 0.5606 0.5597
953.000000 0.5583 0.5569 0.5556 0.5541 0.5527
958.000000 0.5514 0.5502 0.5490 0.5483 0.5478
963.000000 0.5469 0.5453 0.5430 0.5400 0.5381
968.000000 0.5364 0.5349 0.5335 0.5320 0.5305
973.000000 0.5290 0.5276 0.5264 0.5252 0.5240
978.000000 0.5228 0.5221 0.5214 0.5206 0.5197
983.000000 0.5188 0.5173 0.5156 0.5134 0.5108
988.000000 0.5084 0.5060 0.5042 0.5027 0.5013
993.000000 0.5008 0.5005 0.5003 0.5002 0.5001
998.000000 0.5000 0.5001 0.5004 0.5004 0.5002
1003.000000 0.4999 0.4988 0.4974 0.4959 0.4939
1008.000000 0.4921 0.4898 0.4870 0.4841 0.4812
1013.000000 0.4781 0.4751 0.4718 0.4685 0.4650
1018.000000 0.4606 0.4561 0.4513 0.4459 0.4405
1023.000000 0.4352 0.4321 0.4294 0.4267 0.4240
1028.000000 0.4213 0.4183 0.4148 0.4117 0.4086
1033.000000 0.4051 0.4035 0.4026 0.4028 0.4026
1038.000000 0.4040 0.4052 0.4079 0.4125 0.4188
1043.000000 0.4248 0.4313 0.4394 0.4457 0.4513
1048.000000 0.4568 0.4617 0.4661 0.4706 0.4749
1053.000000 0.4784 0.4818 0.4849 0.4866 0.4877
1058.000000 0.4877 0.4880 0.4869 0.4864 0.4852
1063.000000 0.4837 0.4813 0.4799 0.4795 0.4793
1068.000000 0.4792 0.4782 0.4754 0.4721 0.4690
1073.000000 0.4658 0.4626 0.4592 0.4558 0.4516
1078.000000 0.4472 0.4411 0.4335 0.4222 0.4131
1083.000000 0.4032 0.3951 0.3893 0.3838 0.3789
1088.000000 0.3741 0.3680 0.3617 0.3559 0.3506
1093.000000 0.3474 0.3445 0.3422 0.3409 0.3403
1098.000000 0.3411 0.3436 0.3463 0.3491 0.3508
1103.000000 0.3522 0.3529 0.3543 0.3572 0.3621
1108.000000 0.3649 0.3672 0.3692 0.3710 0.3728
1113.000000 0.3740 0.3747 0.3746 0.3739 0.3726
1118.000000 0.3713 0.3703 0.3694 0.3684 0.3678
1123.000000 0.3672 0.3664 0.3651 0.3623 0.3592
1128.000000 0.3570 0.3561 0.3555 0.3548 0.3541
1133.000000 0.3534 0.3527 0.3518 0.3494 0.3466
1138.000000 0.3441 0.3417 0.3391 0.3362 0.3334
1143.000000 0.3302 0.3267 0.3239 0.3214 0.3190
1148.000000 0.3171 0.3152 0.3141 0.3138 0.3137
1153.000000 0.3141 0.3149 0.3164 0.3178 0.3197
1158.000000 0.3220 0.3238 0.3254 0.3261 0.3275
1163.000000 0.3236 0.3216 0.3199 0.3181 0.3164
1168.000000 0.3145 0.3125 0.3106 0.3086 0.3065
1173.000000 0.3042 0.3020 0.2997 0.2974 0.2949
1178.000000 0.2925 0.2900 0.2876 0.2850 0.2825
1183.000000 0.2800 0.2775 0.2749 0.2720 0.2688
1188.000000 0.2656 0.2619 0.2572 0.2530 0.2497
1193.000000 0.2465 0.2432 0.2399 0.2367 0.2334
1198.000000 0.2313 0.2302 0.2290 0.2286 0.2284
1203.000000 0.2285 0.2292 0.2303 0.2315 0.2336
1208.000000 0.2377 0.2417 0.2457 0.2494 0.2530
1213.000000 0.2573 0.2628 0.2699 0.2756 0.2799
1218.000000 0.2834 0.2859 0.2884 0.2907 0.2926
1223.000000 0.2942 0.2948 0.2952 0.2957 0.2961
1228.000000 0.2966 0.2970 0.2974 0.2979 0.2984
1233.000000 0.2990 0.2996 0.3002 0.3008 0.3014
1238.000000 0.3020 0.3028 0.3037 0.3046 0.3055
1243.000000 0.3064 0.3079 0.3098 0.3116 0.3132
1248.000000 0.3148 0.3163 0.3180 0.3191 0.3198
1253.000000 0.3206 0.3213 0.3216 0.3217 0.3218
1258.000000 0.3219 0.3220 0.3220 0.3220 0.3222
1263.000000 0.3222 0.3222 0.3221 0.3213 0.3201
1268.000000 0.3189 0.3177 0.3158 0.3128 0.3103
1273.000000 0.3079 0.3066 0.3054 0.3043 0.3032
1278.000000 0.3025 0.3019 0.3013 0.3007 0.3001
1283.000000 0.2993 0.2981 0.2969 0.2958 0.2946
1288.000000 0.2934 0.2921 0.2900 0.2876 0.2849
1293.000000 0.2817 0.2784 0.2754 0.2725 0.2696
1298.000000 0.2671 0.2658 0.2645 0.2632 0.2622
1303.000000 0.2620 0.2619 0.2594 0.2615 0.2614
1308.000000 0.2614 0.2615 0.2616 0.2618 0.2618
1313.000000 0.2619 0.2622 0.2625 0.2628 0.2631
1318.000000 0.2633 0.2629 0.2623 0.2617 0.2616
1323.000000 0.2621 0.2637 0.2657 0.2680 0.2708
1328.000000 0.2742 0.2781 0.2829 0.2878 0.2915
1333.000000 0.2947 0.2966 0.2979 0.2992 0.3004
1338.000000 0.3009 0.3013 0.3018 0.3023 0.3027
1343.000000 0.3030 0.3034 0.3037 0.3041 0.3067
1348.000000 0.3043 0.3042 0.3041 0.3040 0.3039
1353.000000 0.3035 0.3031 0.3026 0.3021 0.3016
1358.000000 0.3009 0.2994 0.2980 0.2965 0.2951
1363.000000 0.2931 0.2906 0.2881 0.2853 0.2820
1368.000000 0.2786 0.2752 0.2714 0.2675 0.2635
1373.000000 0.2580 0.2505 0.2424 0.2337 0.2304
1378.000000 0.2292 0.2294 0.2301 0.2298 0.2308
1383.000000 0.2330 0.2422 0.2492 0.2503 0.2511
1388.000000 0.2520 0.2550 0.2650 0.2752 0.2893
1393.000000 0.2921 0.2944 0.2961 0.2967 0.2973
1398.000000 0.2979 0.2986 0.2989 0.2990 0.2992
1403.000000 0.2994 0.2995 0.2996 0.2994 0.3024
1408.000000 0.2986 0.2977 0.2962 0.2944 0.2913
1413.000000 0.2880 0.2837 0.2793 0.2742 0.2682
1418.000000 0.2635 0.2595 0.2577 0.2564 0.2550
1423.000000 0.2528 0.2502 0.2476 0.2450 0.2421
1428.000000 0.2370 0.2319 0.2269 0.2220 0.2171
1433.000000 0.2130 0.2097 0.2063 0.2029 0.1996
1438.000000 0.1966 0.1939 0.1931 0.1929 0.1929
1443.000000 0.1923 0.1928 0.1928 0.1929 0.1930
1448.000000 0.1931 0.1933 0.1934 0.1936 0.1937
1453.000000 0.1938 0.1939 0.1940 0.1941 0.1942
1458.000000 0.1943 0.1943 0.1944 0.1945 0.1944
1463.000000 0.1943 0.1941 0.1938 0.1937 0.1935
1468.000000 0.1932 0.1930 0.1929 0.1927 0.1922
1473.000000 0.1915 0.1908 0.1900 0.1892 0.1885
1478.000000 0.1876 0.1862 0.1844 0.1824 0.1806
1483.000000 0.1788 0.1769 0.1751 0.1732 0.1714
1488.000000 0.1701 0.1693 0.1688 0.1683 0.1684
1493.000000 0.1688 0.1672 0.1697 0.1714 0.1741
1498.000000 0.2014 0.2215 0.2249 0.2288 0.2325
1503.000000 0.2399 0.2553 0.2664 0.2831 0.2890
1508.000000 0.2921 0.2942 0.2964 0.2980 0.2989
1513.000000 0.2998 0.3007 0.3128 0.3203 0.3236
1518.000000 0.3259 0.3266 0.3272 0.3277 0.3277
1523.000000 0.3277 0.3277 0.3277 0.3275 0.3282
1528.000000 0.3268 0.3265 0.3257 0.3251 0.3243
1533.000000 0.3236 0.3227 0.3215 0.3203 0.3188
1538.000000 0.3171 0.3148 0.3113 0.3083 0.3056
1543.000000 0.3024 0.3007 0.3002 0.3000 0.2997
1548.000000 0.2992 0.2981 0.2967 0.2919 0.2868
1553.000000 0.2832 0.2796 0.2760 0.2725 0.2694
1558.000000 0.2664 0.2634 0.2602 0.2568 0.2536
1563.000000 0.2517 0.2507 0.2496 0.2486 0.2475
1568.000000 0.2464 0.2455 0.2445 0.2438 0.2431
1573.000000 0.2425 0.2419 0.2416 0.2415 0.2414
1578.000000 0.2413 0.2411 0.2410 0.2410 0.2410
1583.000000 0.2410 0.2410 0.2410 0.2410 0.2410
1588.000000 0.2410 0.2409 0.2410 0.2410 0.2410
1593.000000 0.2410 0.2410 0.2411 0.2411 0.2410
1598.000000 0.2408 0.2405 0.2402 0.2398 0.2395
1603.000000 0.2391 0.2386 0.2379 0.2371 0.2363
1608.000000 0.2355 0.2348 0.2340 0.2332 0.2325
1613.000000 0.2318 0.2310 0.2302 0.2296 0.2290
1618.000000 0.2287 0.2284 0.2283 0.2284 0.2264
1623.000000 0.2288 0.2297 0.2311 0.2327 0.2346
1628.000000 0.2365 0.2389 0.2420 0.2456 0.2490
1633.000000 0.2524 0.2558 0.2581 0.2605 0.2628
1638.000000 0.2652 0.2677 0.2706 0.2738 0.2769
1643.000000 0.2801 0.2833 0.2865 0.2896 0.2930
1648.000000 0.2968 0.3007 0.3032 0.3044 0.3053
1653.000000 0.3059 0.3063 0.3066 0.3069 0.3073
1658.000000 0.3077 0.3082 0.3086 0.3094 0.3104
1663.000000 0.3114 0.3123 0.3133 0.3146 0.3162
1668.000000 0.3178 0.3196 0.3224 0.3289 0.3386
1673.000000 0.3509 0.3586 0.3633 0.3681 0.3733
1678.000000 0.3801 0.3882 0.3933 0.3974 0.4003
1683.000000 0.4019 0.4026 0.4032 0.4038 0.4043
1688.000000 0.4048 0.4054 0.4059 0.4063 0.4095
1693.000000 0.4146 0.4197 0.4275 0.4332 0.4370
1698.000000 0.4406 0.4431 0.4450 0.4469 0.4487
1703.000000 0.4505 0.4520 0.4536 0.4552 0.4582
1708.000000 0.4637 0.4717 0.4808 0.4868 0.4914
1713.000000 0.4955 0.4988 0.5014 0.5039 0.5066
1718.000000 0.5094 0.5127 0.5157 0.5179 0.5196
1723.000000 0.5219 0.5249 0.5426 0.5649 0.5883
1728.000000 0.6117 0.6341 0.6470 0.6528 0.6578
1733.000000 0.6627 0.6675 0.6723 0.6777 0.6830
1738.000000 0.6881 0.6929 0.6976 0.7021 0.7060
1743.000000 0.7091 0.7112 0.7127 0.7136 0.7139
1748.000000 0.7143 0.7147 0.7150 0.7153 0.7157
1753.000000 0.7157 0.7158 0.7159 0.7151 0.7160
1758.000000 0.7160 0.7160 0.7160 0.7159 0.7159
1763.000000 0.7159 0.7155 0.7151 0.7146 0.7137
1768.000000 0.7118 0.7106 0.7095 0.7087 0.7085
1773.000000 0.7083 0.7079 0.7077 0.7074 0.7072
1778.000000 0.7071 0.7068 0.7066 0.7065 0.7062
1783.000000 0.7061 0.7059 0.7058 0.7057 0.7055
1788.000000 0.7055 0.7053 0.7052 0.7050 0.7048
1793.000000 0.7046 0.7044 0.7042 0.7040 0.7038
1798.000000 0.7036 0.7034 0.7032 0.7029 0.7025
1803.000000 0.7021 0.7017 0.7013 0.7008 0.7004
1808.000000 0.7000 0.6995 0.6990 0.6984 0.6976
1813.000000 0.6969 0.6961 0.6953 0.6944 0.6933
1818.000000 0.6922 0.6912 0.6901 0.6891 0.6880
1823.000000 0.6869 0.6857 0.6844 0.6838 0.6835
1828.000000 0.6832 0.6830 0.6828 0.6826 0.6824
1833.000000 0.6822 0.6821 0.6819 0.6818 0.6816
1838.000000 0.6815 0.6814 0.6809 0.6799 0.6786
1843.000000 0.6744 0.6704 0.6695 0.6687 0.6680
1848.000000 0.6674 0.6668 0.6662 0.6656 0.6650
1853.000000 0.6643 0.6635 0.6626 0.6617 0.6609
1858.000000 0.6600 0.6591 0.6583 0.6575 0.6567
1863.000000 0.6559 0.6551 0.6536 0.6517 0.6495
1868.000000 0.6477 0.6462 0.6450 0.6438 0.6433
1873.000000 0.6432 0.6432 0.6430 0.6429 0.6427
1878.000000 0.6424 0.6421 0.6418 0.6411 0.6405
1883.000000 0.6398 0.6391 0.6385 0.6379 0.6372
1888.000000 0.6365 0.6357 0.6349 0.6339 0.6330
1893.000000 0.6321 0.6311 0.6302 0.6292 0.6281
1898.000000 0.6269 0.6258 0.6246 0.6234 0.6226
1903.000000 0.6218 0.6211 0.6203 0.6195 0.6185
1908.000000 0.6175 0.6167 0.6159 0.6153 0.6148
1913.000000 0.6142 0.6137 0.6132 0.6127 0.6123
1918.000000 0.6119 0.6115 0.6111 0.6107 0.6103
1923.000000 0.6099 0.6095 0.6091 0.6089 0.6087
1928.000000 0.6085 0.6083 0.6081 0.6078 0.6076
1933.000000 0.6074 0.6072 0.6070 0.6061 0.6047
1938.000000 0.6027 0.6005 0.5991 0.5983 0.5977
1943.000000 0.5970 0.5963 0.5955 0.5949 0.5944
1948.000000 0.5940 0.5936 0.5933 0.5929 0.5925
1953.000000 0.5921 0.5918 0.5915 0.5913 0.5910
1958.000000 0.5908 0.5906 0.5904 0.5902 0.5900
1963.000000 0.5899 0.5897 0.5895 0.5894 0.5892
1968.000000 0.5890 0.5889 0.5888 0.5886 0.5884
1973.000000 0.5883 0.5881 0.5879 0.5878 0.5876
1978.000000 0.5874 0.5873 0.5871 0.5869 0.5868
1983.000000 0.5866 0.5865 0.5863 0.5861 0.5860
1988.000000 0.5858 0.5856 0.5854 0.5852 0.5850
1993.000000 0.5846 0.5843 0.5840 0.5838 0.5835
1998.000000 0.5832 0.5829 0.5826 0.5823 0.5820
2003.000000 0.5817 0.5813 0.5809 0.5805 0.5801
2008.000000 0.5797 0.5793 0.5789 0.5785 0.5781
2013.000000 0.5777 0.5773 0.5769 0.5765 0.5763
2018.000000 0.5761 0.5760 0.5759 0.5758 0.5756
2023.000000 0.5755 0.5754 0.5753 0.5751 0.5751
2028.000000 0.5750 0.5749 0.5748 0.5747 0.5747
2033.000000 0.5746 0.5746 0.5746 0.5746 0.5746
2038.000000 0.5745 0.5745 0.5745 0.5745 0.5745
2043.000000 0.5745 0.5745 0.5744 0.5744 0.5744
2048.000000 0.5744 0.5744 0.5743 0.5743 0.5743
2053.000000 0.5742 0.5742 0.5741 0.5739 0.5739
2058.000000 0.5738 0.5737 0.5736 0.5736 0.5734
2063.000000 0.5733 0.5732 0.5728 0.5722 0.5716
2068.000000 0.5710 0.5705 0.5699 0.5692 0.5684
2073.000000 0.5676 0.5668 0.5659 0.5651 0.5642
2078.000000 0.5633 0.5622 0.5611 0.5600 0.5590
2083.000000 0.5580 0.5573 0.5569 0.5564 0.5559
2088.000000 0.5553 0.5548 0.5543 0.5538 0.5534
2093.000000 0.5529 0.5524 0.5523 0.5522 0.5522
2098.000000 0.5521 0.5521 0.5520 0.5519 0.5519
2103.000000 0.5519 0.5519 0.5518 0.5518 0.5517
2108.000000 0.5516 0.5516 0.5515 0.5515 0.5514
2113.000000 0.5514 0.5513 0.5513 0.5513 0.5512
2118.000000 0.5509 0.5506 0.5503 0.5500 0.5497
2123.000000 0.5494 0.5491 0.5488 0.5485 0.5482
2128.000000 0.5479 0.5475 0.5470 0.5465 0.5460
2133.000000 0.5455 0.5450 0.5445 0.5440 0.5435
2138.000000 0.5430 0.5425 0.5421 0.5416 0.5411
2143.000000 0.5405 0.5400 0.5394 0.5388 0.5383
2148.000000 0.5377 0.5371 0.5365 0.5360 0.5354
2153.000000 0.5348 0.5342 0.5336 0.5329 0.5323
2158.000000 0.5316 0.5310 0.5304 0.5298 0.5292
2163.000000 0.5285 0.5277 0.5270 0.5262 0.5253
2168.000000 0.5245 0.5237 0.5229 0.5221 0.5213
2173.000000 0.5204 0.5195 0.5184 0.5173 0.5163
2178.000000 0.5152 0.5141 0.5130 0.5120 0.5109
2183.000000 0.5099 0.5088 0.5078 0.5069 0.5060
2188.000000 0.5052 0.5043 0.5034 0.5026 0.5017
2193.000000 0.5008 0.5000 0.4992 0.4983 0.4974
2198.000000 0.4966 0.4957 0.4949 0.4940 0.4931
2203.000000 0.4921 0.4908 0.4895 0.4883 0.4870
2208.000000 0.4858 0.4845 0.4833 0.4822 0.4811
2213.000000 0.4802 0.4792 0.4782 0.4773 0.4763
2218.000000 0.4752 0.4743 0.4733 0.4723 0.4714
2223.000000 0.4704 0.4694 0.4685 0.4677 0.4669
2228.000000 0.4662 0.4654 0.4647 0.4640 0.4633
2233.000000 0.4625 0.4618 0.4610 0.4603 0.4596
2238.000000 0.4589 0.4581 0.4574 0.4567 0.4560
2243.000000 0.4552 0.4545 0.4539 0.4533 0.4526
2248.000000 0.4520 0.4514 0.4508 0.4502 0.4496
2253.000000 0.4490 0.4483 0.4477 0.4471 0.4465
2258.000000 0.4459 0.4453 0.4447 0.4440 0.4432
2263.000000 0.4424 0.4415 0.4406 0.4397 0.4389
2268.000000 0.4380 0.4371 0.4362 0.4354 0.4345
2273.000000 0.4336 0.4327 0.4318 0.4308 0.4297
2278.000000 0.4283 0.4269 0.4255 0.4241 0.4227
2283.000000 0.4213 0.4199 0.4185 0.4171 0.4157
2288.000000 0.4143 0.4129 0.4114 0.4099 0.4081
2293.000000 0.4062 0.4042 0.4023 0.4003 0.3984
2298.000000 0.3965 0.3945 0.3926 0.3909 0.3893
2303.000000 0.3876 0.3859 0.3842 0.3826 0.3809
2308.000000 0.3792 0.3776 0.3759 0.3742 0.3724
2313.000000 0.3706 0.3688 0.3669 0.3650 0.3631
2318.000000 0.3612 0.3593 0.3574 0.3555 0.3536
2323.000000 0.3517 0.3500 0.3482 0.3465 0.3448
2328.000000 0.3431 0.3414 0.3396 0.3379 0.3362
2333.000000 0.3346 0.3331 0.3315 0.3300 0.3285
2338.000000 0.3270 0.3255 0.3241 0.3226 0.3211
2343.000000 0.3196 0.3183 0.3171 0.3159 0.3147
2348.000000 0.3136 0.3125 0.3113 0.3101 0.3090
2353.000000 0.3078 0.3067 0.3057 0.3048 0.3040
2358.000000 0.3031 0.3024 0.3016 0.3008 0.3000
2363.000000 0.2992 0.2985 0.2977 0.2969 0.2961
2368.000000 0.2953 0.2946 0.2938 0.2930 0.2922
2373.000000 0.2912 0.2903 0.2893 0.2884 0.2874
2378.000000 0.2865 0.2855 0.2846 0.2836 0.2826
2383.000000 0.2817 0.2807 0.2797 0.2787 0.2776
2388.000000 0.2765 0.2754 0.2743 0.2733 0.2722
2393.000000 0.2711 0.2700 0.2690 0.2679 0.2669
2398.000000 0.2658 0.2647 0.2636 0.2625 0.2614
2403.000000 0.2604 0.2593 0.2582 0.2571 0.2560
2408.000000 0.2550 0.2538 0.2527 0.2515 0.2502
2413.000000 0.2488 0.2475 0.2462 0.2448 0.2434
2418.000000 0.2421 0.2408 0.2394 0.2384 0.2373
2423.000000 0.2363 0.2353 0.2343 0.2333 0.2322
2428.000000 0.2312 0.2302 0.2292 0.2282 0.2272
2433.000000 0.2261 0.2251 0.2238 0.2226 0.2213
2438.000000 0.2200 0.2188 0.2175 0.2163 0.2151
2443.000000 0.2139 0.2127 0.2117 0.2107 0.2097
2448.000000 0.2087 0.2077 0.2067 0.2057 0.2047
2453.000000 0.2037 0.2029 0.2024 0.2020 0.2016
2458.000000 0.2012 0.2008 0.2004 0.2000 0.1996
2463.000000 0.1993 0.1989 0.1985 0.1982 0.1980
2468.000000 0.1978 0.1977 0.1975 0.1973 0.1972
2473.000000 0.1970 0.1969 0.1968 0.1966 0.1965
2478.000000 0.1963 0.1961 0.1960 0.1958 0.1957
2483.000000 0.1956 0.1955 0.1954 0.1953 0.1952
2488.000000 0.1951 0.1951 0.1951 0.1950 0.1949
2493.000000 0.1948 0.1947 0.1947 0.1946 0.1945
2498.000000 0.1944 0.1943 0.1942 0.1940 0.1938
2503.000000 0.1937 0.1935 0.1934 0.1932 0.1930
2508.000000 0.1929 0.1927 0.1926 0.1924 0.1922
2513.000000 0.1921 0.1919 0.1918 0.1916 0.1914
2518.000000 0.1913 0.1911 0.1910 0.1908 0.1907
2523.000000 0.1905 0.1902 0.1900 0.1897 0.1893
2528.000000 0.1889 0.1885 0.1881 0.1877 0.1873
2533.000000 0.1869 0.1865 0.1861 0.1858 0.1854
2538.000000 0.1850 0.1846 0.1841 0.1837 0.1832
2543.000000 0.1827 0.1822 0.1817 0.1812 0.1807
2548.000000 0.1802 0.1797 0.1792 0.1787 0.1781
2553.000000 0.1776 0.1770 0.1764 0.1757 0.1750
2558.000000 0.1743 0.1735 0.1728 0.1721 0.1714
2563.000000 0.1706 0.1698 0.1693 0.1689 0.1685
2568.000000 0.1682 0.1679 0.1675 0.1672 0.1669
2573.000000 0.1665 0.1662 0.1658 0.1655 0.1652
2578.000000 0.1648 0.1645 0.1642 0.1641 0.1640
2583.000000 0.1639 0.1638 0.1637 0.1636 0.1635
2588.000000 0.1633 0.1632 0.1631 0.1630 0.1629
2593.000000 0.1628 0.1627 0.1626 0.1625 0.1624
2598.000000 0.1623 0.1622 0.1622 0.1622 0.1621
2603.000000 0.1620 0.1620 0.1619 0.1619 0.1618
2608.000000 0.1618 0.1617 0.1616 0.1616 0.1616
2613.000000 0.1615 0.1614 0.1614 0.1613 0.1613
2618.000000 0.1612 0.1612 0.1611 0.1610 0.1609
2623.000000 0.1609 0.1608 0.1608 0.1608 0.1607
2628.000000 0.1606 0.1605 0.1605 0.1604 0.1603
2633.000000 0.1601 0.1600 0.1599 0.1598 0.1597
2638.000000 0.1595 0.1594 0.1592 0.1591 0.1590
2643.000000 0.1588 0.1587 0.1586 0.1585 0.1583
2648.000000 0.1582 0.1581 0.1580 0.1579 0.1577
2653.000000 0.1576 0.1574 0.1573 0.1572 0.1570
2658.000000 0.1569 0.1567 0.1566 0.1563 0.1561
2663.000000 0.1559 0.1557 0.1555 0.1553 0.1551
2668.000000 0.1549 0.1547 0.1544 0.1542 0.1540
2673.000000 0.1538 0.1536 0.1534 0.1533 0.1531
2678.000000 0.1528 0.1526 0.1524 0.1521 0.1519
2683.000000 0.1517 0.1515 0.1512 0.1510 0.1507
2688.000000 0.1505 0.1503 0.1501 0.1499 0.1496
2693.000000 0.1494 0.1491 0.1489 0.1487 0.1484
2698.000000 0.1482 0.1480 0.1478 0.1476 0.1473
2703.000000 0.1471 0.1468 0.1466 0.1464 0.1462
2708.000000 0.1460 0.1459 0.1458 0.1456 0.1455
2713.000000 0.1454 0.1453 0.1452 0.1450 0.1449
2718.000000 0.1448 0.1447 0.1446 0.1445 0.1443
2723.000000 0.1442 0.1441 0.1439 0.1438 0.1437
2728.000000 0.1436 0.1435 0.1434 0.1432 0.1431
2733.000000 0.1430 0.1429 0.1428 0.1425 0.1422
2738.000000 0.1418 0.1414 0.1410 0.1406 0.1402
2743.000000 0.1398 0.1394 0.1390 0.1386 0.1383
2748.000000 0.1372 0.1358 0.1345 0.1337 0.1330
2753.000000 0.1324 0.1320 0.1318 0.1315 0.1314
2758.000000 0.1312 0.1311 0.1309 0.1308 0.1306
2763.000000 0.1305 0.1303 0.1302 0.1301 0.1299
2768.000000 0.1297 0.1296 0.1296 0.1296 0.1295
2773.000000 0.1295 0.1294 0.1293 0.1293 0.1292
2778.000000 0.1291 0.1291 0.1291 0.1290 0.1290
2783.000000 0.1289 0.1288 0.1288 0.1287 0.1287
2788.000000 0.1286 0.1286 0.1286 0.1285 0.1284
2793.000000 0.1283 0.1282 0.1281 0.1280 0.1279
2798.000000 0.1277 0.1276 0.1275 0.1274 0.1273
2803.000000 0.1272 0.1271 0.1270 0.1268 0.1267
2808.000000 0.1265 0.1263 0.1262 0.1261 0.1260
2813.000000 0.1258 0.1257 0.1255 0.1253 0.1252
2818.000000 0.1250 0.1249 0.1248 0.1246 0.1245
2823.000000 0.1243 0.1242 0.1240 0.1239 0.1238
2828.000000 0.1237 0.1236 0.1235 0.1235 0.1234
2833.000000 0.1233 0.1233 0.1232 0.1232 0.1232
2838.000000 0.1231 0.1231 0.1230 0.1236 0.1230
2843.000000 0.1230 0.1230 0.1231 0.1231 0.1231
2848.000000 0.1232 0.1234 0.1236 0.1238 0.1241
2853.000000 0.1245 0.1248 0.1251 0.1253 0.1256
2858.000000 0.1258 0.1260 0.1262 0.1263 0.1265
2863.000000 0.1266 0.1268 0.1268 0.1269 0.1270
2868.000000 0.1270 0.1271 0.1271 0.1272 0.1272
2873.000000 0.1272 0.1272 0.1272 0.1272 0.1273
2878.000000 0.1273 0.1273 0.1273 0.1273 0.1273
2883.000000 0.1273 0.1273 0.1273 0.1273 0.1274
2888.000000 0.1274 0.1275 0.1275 0.1277 0.1279
2893.000000 0.1281 0.1289 0.1304 0.1318 0.1333
2898.000000 0.1350 0.1367 0.1384 0.1394 0.1402
2903.000000 0.1410 0.1418 0.1426 0.1434 0.1443
2908.000000 0.1451 0.1460 0.1468 0.1477 0.1486
2913.000000 0.1496 0.1505 0.1514 0.1523 0.1532
2918.000000 0.1540 0.1549 0.1557 0.1565 0.1572
2923.000000 0.1579 0.1586 0.1593 0.1600 0.1607
2928.000000 0.1614 0.1621 0.1628 0.1636 0.1643
2933.000000 0.1650 0.1657 0.1663 0.1670 0.1676
2938.000000 0.1682 0.1687 0.1692 0.1697 0.1699
2943.000000 0.1702 0.1704 0.1706 0.1708 0.1710
2948.000000 0.1711 0.1713 0.1715 0.1717 0.1720
2953.000000 0.1723 0.1726 0.1729 0.1743 0.1758
2958.000000 0.1773 0.1791 0.1814 0.1837 0.1861
2963.000000 0.1881 0.1902 0.1922 0.1939 0.1950
2968.000000 0.1960 0.1971 0.1979 0.1987 0.1995
2973.000000 0.2003 0.2012 0.2020 0.2028 0.2033
2978.000000 0.2038 0.2043 0.2047 0.2050 0.2053
2983.000000 0.2057 0.2058 0.2059 0.2060 0.2061
2988.000000 0.2061 0.2062 0.2063 0.2064 0.2065
2993.000000 0.2066 0.2066 0.2067 0.2068 0.2068
2998.000000 0.2069 0.2069 0.2070 0.2070 0.2072
3003.000000 0.2074 0.2076 0.2080 0.2093 0.2105
3008.000000 0.2118 0.2129 0.2140 0.2150 0.2160
3013.000000 0.2168 0.2176 0.2184 0.2192 0.2198
3018.000000 0.2204 0.2210 0.2215 0.2219 0.2223
3023.000000 0.2228 0.2232 0.2236 0.2241 0.2245
3028.000000 0.2249 0.2253 0.2257 0.2261 0.2264
3033.000000 0.2268 0.2272 0.2273 0.2275 0.2277
3038.000000 0.2279 0.2281 0.2283 0.2285 0.2287
3043.000000 0.2289 0.2290 0.2292 0.2294 0.2296
3048.000000 0.2297 0.2299 0.2299 0.2299 0.2299
3053.000000 0.2300 0.2300 0.2300 0.2300 0.2301
3058.000000 0.2301 0.2302 0.2303 0.2303 0.2303
3063.000000 0.2303 0.2304 0.2304 0.2304 0.2304
3068.000000 0.2302 0.2305 0.2305 0.2305 0.2304
3073.000000 0.2302 0.2301 0.2300 0.2298 0.2297
3078.000000 0.2296 0.2294 0.2293 0.2292 0.2290
3083.000000 0.2289 0.2287 0.2286 0.2284 0.2282
3088.000000 0.2281 0.2279 0.2277 0.2275 0.2273
3093.000000 0.2271 0.2270 0.2268 0.2266 0.2264
3098.000000 0.2262 0.2260 0.2258 0.2255 0.2253
3103.000000 0.2250 0.2246 0.2243 0.2240 0.2237
3108.000000 0.2233 0.2230 0.2227 0.2224 0.2221
3113.000000 0.2218 0.2214 0.2211 0.2208 0.2205
3118.000000 0.2200 0.2195 0.2190 0.2185 0.2179
3123.000000 0.2173 0.2167 0.2161 0.2155 0.2149
3128.000000 0.2143 0.2137 0.2131 0.2126 0.2120
3133.000000 0.2115 0.2109 0.2103 0.2098 0.2092
3138.000000 0.2087 0.2081 0.2075 0.2070 0.2065
3143.000000 0.2059 0.2054 0.2049 0.2043 0.2037
3148.000000 0.2032 0.2027 0.2022 0.2018 0.2013
3153.000000 0.2009 0.2004 0.1999 0.1994 0.1990
3158.000000 0.1985 0.1981 0.1976 0.1972 0.1967
3163.000000 0.1963 0.1958 0.1954 0.1949 0.1945
3168.000000 0.1941 0.1938 0.1935 0.1933 0.1931
3173.000000 0.1928 0.1926 0.1924 0.1921 0.1919
3178.000000 0.1916 0.1914 0.1912 0.1910 0.1908
3183.000000 0.1905 0.1903 0.1901 0.1901 0.1900
3188.000000 0.1900 0.1899 0.1899 0.1898 0.1897
3193.000000 0.1896 0.1896 0.1895 0.1895 0.1894
3198.000000 0.1894 0.1894 0.1894 0.1894 0.1893
3203.000000 0.1893 0.1892 0.1892 0.1891 0.1891
3208.000000 0.1891 0.1891 0.1890 0.1890 0.1889
3213.000000 0.1889 0.1888 0.1888 0.1887 0.1887
3218.000000 0.1886 0.1886 0.1886 0.1886 0.1885
3223.000000 0.1885 0.1885 0.1885 0.1885 0.1885
3228.000000 0.1885 0.1885 0.1884 0.1884 0.1884
3233.000000 0.1884 0.1884 0.1884 0.1884 0.1884
3238.000000 0.1884 0.1883 0.1883 0.1883 0.1883
3243.000000 0.1883 0.1883 0.1883 0.1883 0.1882
3248.000000 0.1881 0.1880 0.1879 0.1877 0.1876
3253.000000 0.1875 0.1874 0.1873 0.1872 0.1870
3258.000000 0.1869 0.1868 0.1867 0.1866 0.1865
3263.000000 0.1863 0.1861 0.1856 0.1851 0.1846
3268.000000 0.1841 0.1835 0.1829 0.1822 0.1816
3273.000000 0.1810 0.1805 0.1799 0.1794 0.1788
3278.000000 0.1783 0.1777 0.1772 0.1767 0.1764
3283.000000 0.1760 0.1757 0.1754 0.1751 0.1748
3288.000000 0.1746 0.1743 0.1741 0.1740 0.1739
3293.000000 0.1738 0.1737 0.1736 0.1735 0.1735
3298.000000 0.1734 0.1733 0.1732 0.1731 0.1730
3303.000000 0.1729 0.1728 0.1727 0.1726 0.1725
3308.000000 0.1725 0.1725 0.1724 0.1724 0.1723
3313.000000 0.1723 0.1722 0.1722 0.1721 0.1721
3318.000000 0.1721 0.1721 0.1721 0.1720 0.1720
3323.000000 0.1719 0.1719 0.1718 0.1718 0.1718
3328.000000 0.1718 0.1717 0.1717 0.1717 0.1717
3333.000000 0.1717 0.1717 0.1717 0.1717 0.1717
3338.000000 0.1716 0.1716 0.1716 0.1716 0.1716
3343.000000 0.1716 0.1716 0.1716 0.1716 0.1716
3348.000000 0.1716 0.1716 0.1716 0.1716 0.1716
3353.000000 0.1716 0.1716 0.1716 0.1716 0.1716
3358.000000 0.1716 0.1716 0.1716 0.1716 0.1716
3363.000000 0.1717 0.1717 0.1707 0.1718 0.1718
3368.000000 0.1719 0.1719 0.1720 0.1721 0.1721
3373.000000 0.1722 0.1723 0.1723 0.1724 0.1725
3378.000000 0.1725 0.1727 0.1728 0.1730 0.1732
3383.000000 0.1734 0.1735 0.1737 0.1739 0.1741
3388.000000 0.1743 0.1746 0.1749 0.1752 0.1755
3393.000000 0.1759 0.1762 0.1765 0.1769 0.1773
3398.000000 0.1777 0.1781 0.1786 0.1790 0.1795
3403.000000 0.1799 0.1804 0.1809 0.1814 0.1820
3408.000000 0.1827 0.1834 0.1841 0.1848 0.1855
3413.000000 0.1862 0.1869 0.1875 0.1881 0.1887
3418.000000 0.1893 0.1898 0.1904 0.1913 0.1923
3423.000000 0.1933 0.1942 0.1953 0.1967 0.1981
3428.000000 0.1995 0.2009 0.2021 0.2033 0.2044
3433.000000 0.2056 0.2068 0.2100 0.2134 0.2168
3438.000000 0.2202 0.2233 0.2256 0.2278 0.2301
3443.000000 0.2324 0.2346 0.2369 0.2392 0.2414
3448.000000 0.2437 0.2460 0.2482 0.2505 0.2527
3453.000000 0.2550 0.2572 0.2594 0.2617 0.2639
3458.000000 0.2662 0.2684 0.2707 0.2729 0.2752
3463.000000 0.2774 0.2797 0.2819 0.2841 0.2863
3468.000000 0.2886 0.2908 0.2930 0.2952 0.2975
3473.000000 0.2997 0.3019 0.3042 0.3064 0.3086
3478.000000 0.3108 0.3131 0.3153 0.3175 0.3197
3483.000000 0.3219 0.3241 0.3263 0.3285 0.3307
3488.000000 0.3329 0.3351 0.3374 0.3396 0.3417
3493.000000 0.3435 0.3453 0.3472 0.3490 0.3505
3498.000000 0.3517 0.3529 0.3541 0.3553 0.3565
3503.000000 0.3579 0.3592 0.3605 0.3618 0.3632
3508.000000 0.3645 0.3658 0.3671 0.3684 0.3697
3513.000000 0.3709 0.3721 0.3733 0.3745 0.3758
3518.000000 0.3771 0.3783 0.3796 0.3809 0.3828
3523.000000 0.3848 0.3868 0.3888 0.3908 0.3943
3528.000000 0.3981 0.4018 0.4055 0.4093 0.4184
3533.000000 0.4280 0.4375 0.4471 0.4566 0.4621
3538.000000 0.4674 0.4726 0.4778 0.4831 0.4853
3543.000000 0.4873 0.4893 0.4913 0.4933 0.4969
3548.000000 0.5007 0.5044 0.5082 0.5120 0.5161
3553.000000 0.5203 0.5245 0.5286 0.5328 0.5369
3558.000000 0.5411 0.5452 0.5494 0.5535 0.5576
3563.000000 0.5617 0.5658 0.5700 0.5741 0.5782
3568.000000 0.5823 0.5864 0.5906 0.5947 0.5988
3573.000000 0.6029 0.6070 0.6111 0.6152 0.6205
3578.000000 0.6271 0.6337 0.6404 0.6470 0.6521
3583.000000 0.6543 0.6564 0.6586 0.6608 0.6628
3588.000000 0.6643 0.6658 0.6673 0.6687 0.6702
3593.000000 0.6712 0.6722 0.6732 0.6742 0.6752
3598.000000 0.6762 0.6772 0.6782 0.6792 0.6802
3603.000000 0.6814 0.6825 0.6837 0.6848 0.6860
3608.000000 0.6897 0.6961 0.7025 0.7089 0.7153
3613.000000 0.7204 0.7222 0.7241 0.7259 0.7278
3618.000000 0.7296 0.7308 0.7319 0.7331 0.7343
3623.000000 0.7354 0.7363 0.7371 0.7379 0.7387
3628.000000 0.7395 0.7402 0.7408 0.7414 0.7420
3633.000000 0.7426 0.7432 0.7435 0.7439 0.7443
3638.000000 0.7447 0.7450 0.7452 0.7453 0.7454
3643.000000 0.7455 0.7456 0.7457 0.7457 0.7458
3648.000000 0.7458 0.7458 0.7458 0.7458 0.7458
3653.000000 0.7457 0.7457 0.7456 0.7456 0.7456
3658.000000 0.7455 0.7455 0.7455 0.7454 0.7454
3663.000000 0.7453 0.7452 0.7452 0.7451 0.7450
3668.000000 0.7449 0.7448 0.7447 0.7447 0.7445
3673.000000 0.7444 0.7443 0.7441 0.7440 0.7438
3678.000000 0.7435 0.7432 0.7428 0.7425 0.7422
3683.000000 0.7416 0.7409 0.7403 0.7397 0.7390
3688.000000 0.7385 0.7381 0.7376 0.7372 0.7367
3693.000000 0.7362 0.7358 0.7353 0.7349 0.7344
3698.000000 0.7340 0.7335 0.7331 0.7326 0.7322
3703.000000 0.7318 0.7313 0.7309 0.7305 0.7301
3708.000000 0.7297 0.7293 0.7290 0.7287 0.7284
3713.000000 0.7281 0.7278 0.7275 0.7274 0.7273
3718.000000 0.7272 0.7271 0.7270 0.7269 0.7268
3723.000000 0.7267 0.7265 0.7264 0.7263 0.7262
3728.000000 0.7262 0.7261 0.7260 0.7259 0.7258
3733.000000 0.7257 0.7257 0.7256 0.7255 0.7254
3738.000000 0.7254 0.7254 0.7253 0.7253 0.7253
3743.000000 0.7252 0.7252 0.7252 0.7251 0.7251
3748.000000 0.7251 0.7250 0.7250 0.7249 0.7249
3753.000000 0.7249 0.7248 0.7248 0.7248 0.7247
3758.000000 0.7247 0.7247 0.7246 0.7246 0.7246
3763.000000 0.7245 0.7245 0.7245 0.7244 0.7243
3768.000000 0.7242 0.7242 0.7241 0.7240 0.7240
3773.000000 0.7239 0.7239 0.7238 0.7238 0.7237
3778.000000 0.7237 0.7236 0.7236 0.7235 0.7235
3783.000000 0.7230 0.7225 0.7220 0.7215 0.7210
3788.000000 0.7203 0.7187 0.7170 0.7153 0.7136
3793.000000 0.7119 0.7104 0.7093 0.7082 0.7070
3798.000000 0.7059 0.7048 0.7036 0.7024 0.7012
3803.000000 0.7000 0.6988 0.6976 0.6965 0.6955
3808.000000 0.6944 0.6934 0.6924 0.6913 0.6909
3813.000000 0.6905 0.6901 0.6896 0.6892 0.6888
3818.000000 0.6887 0.6886 0.6885 0.6883 0.6882
3823.000000 0.6881 0.6881 0.6880 0.6880 0.6879
3828.000000 0.6879 0.6878 0.6878 0.6877 0.6877
3833.000000 0.6876 0.6876 0.6875 0.6875 0.6875
3838.000000 0.6874 0.6874 0.6874 0.6873 0.6873
3843.000000 0.6873 0.6872 0.6872 0.6872 0.6871
3848.000000 0.6871 0.6871 0.6870 0.6870 0.6870
3853.000000 0.6869 0.6869 0.6869 0.6868 0.6868
3858.000000 0.6868 0.6864 0.6861 0.6858 0.6855
3863.000000 0.6852 0.6848 0.6845 0.6841 0.6837
3868.000000 0.6834 0.6830 0.6826 0.6822 0.6818
3873.000000 0.6813 0.6809 0.6805 0.6800 0.6796
3878.000000 0.6792 0.6787 0.6783 0.6779 0.6774
3883.000000 0.6771 0.6767 0.6764 0.6760 0.6756
3888.000000 0.6753 0.6751 0.6749 0.6748 0.6746
3893.000000 0.6744 0.6743 0.6741 0.6740 0.6738
3898.000000 0.6737 0.6735 0.6734 0.6732 0.6730
3903.000000 0.6729 0.6727 0.6726 0.6724 0.6722
3908.000000 0.6721 0.6719 0.6717 0.6716 0.6714
3913.000000 0.6713 0.6711 0.6710 0.6709 0.6707
3918.000000 0.6706 0.6705 0.6704 0.6702 0.6701
3923.000000 0.6700 0.6698 0.6697 0.6696 0.6694
3928.000000 0.6693 0.6692 0.6691 0.6689 0.6688
3933.000000 0.6687 0.6685 0.6684 0.6683 0.6682
3938.000000 0.6680 0.6679 0.6678 0.6677 0.6676
3943.000000 0.6675 0.6674 0.6672 0.6671 0.6670
3948.000000 0.6669 0.6668 0.6667 0.6666 0.6665
3953.000000 0.6664 0.6662 0.6661 0.6660 0.6659
3958.000000 0.6658 0.6656 0.6655 0.6654 0.6652
3963.000000 0.6651 0.6649 0.6648 0.6646 0.6644
3968.000000 0.6643 0.6641 0.6640 0.6638 0.6637
3973.000000 0.6635 0.6633 0.6632 0.6630 0.6629
3978.000000 0.6627 0.6625 0.6624 0.6622 0.6621
3983.000000 0.6619 0.6618 0.6616 0.6614 0.6613
3988.000000 0.6611 0.6610 0.6608 0.6607 0.6605
3993.000000 0.6603 0.6602 0.6601 0.6601 0.6600
3998.000000 0.6599 0.6598 0.6598
##END=
