##TITLE=AMMONIUM ACETATE
$$ BAKER & ADAMS
##JCAMP-DX=4.24
##DATA TYPE=INFRARED SPECTRUM
##CLASS=COBLENTZ
##ORIGIN=WYANDOTTE CHEMICALS CORP., WYANDOTTE, MICHIGAN, USA
##OWNER=COBLENTZ SOCIETY
Collection (C) 2018 copyright by the U.S. Secretary of Commerce
on behalf of the United States of America. All rights reserved.
##DATE=Not specified, most likely prior to 1970
##MOLFORM=C2 H7 N O2
##MP=114 C
##SOURCE REFERENCE=COBLENTZ NO. 3067
##$NIST ID=B6003067
##$NIST SOURCE=COBLENTZ
##$NIST IMAGE=cob3067
##SPECTROMETER/DATA SYSTEM=Not specified, most likely a prism, grating, or hybrid spectrometer.
##STATE=SOLID ( MULL;KEL-F FOR 5000-1350 AND MINERAL OIL FOR 1350-625 CM^-^1))
##SAMPLING PROCEDURE=TRANSMISSION
##RESOLUTION=4
##DATA PROCESSING=DIGITIZED BY NIST FROM HARD COPY
##XUNITS=MICROMETERS
##YUNITS=TRANSMITTANCE
##XFACTOR=1.000000
##YFACTOR=1
##DELTAX=000.006813
##FIRSTX=2.02
##LASTX=15.986
##FIRSTY=0.837
##MAXX=15.986
##MINX=2.02
##MAXY=0.945
##MINY=0.092
##NPOINTS=2051
##XYDATA=(X++(Y..Y))
2.020000 0.8370 0.8370 0.8390 0.8350 0.8350
2.054080 0.8370 0.8400 0.8390 0.8370 0.8370
2.089000 0.8370 0.8350 0.8350 0.8350 0.8350
2.123080 0.8350 0.8390 0.8400 0.8420 0.8440
2.157000 0.8450 0.8490 0.8540 0.8540 0.8540
2.191080 0.8520 0.8520 0.8540 0.8540 0.8570
2.225000 0.8590 0.8610 0.8630 0.8660 0.8730
2.259080 0.8780 0.8800 0.8830 0.8880 0.8900
2.293000 0.8920 0.8930 0.8970 0.8980 0.9020
2.327080 0.9050 0.9070 0.9090 0.9120 0.9120
2.361000 0.9120 0.9120 0.9160 0.9190 0.9210
2.395080 0.9220 0.9240 0.9290 0.9290 0.9310
2.429000 0.9330 0.9330 0.9330 0.9330 0.9340
2.463080 0.9340 0.9340 0.9360 0.9380 0.9380
2.497000 0.9400 0.9400 0.9400 0.9400 0.9360
2.531080 0.9360 0.9380 0.9400 0.9400 0.9410
2.565000 0.9430 0.9450 0.9450 0.9450 0.9450
2.599080 0.9450 0.9430 0.9430 0.9430 0.9430
2.634000 0.9450 0.9430 0.9410 0.9410 0.9400
2.668080 0.9400 0.9380 0.9360 0.9340 0.9310
2.702000 0.9240 0.9210 0.9170 0.9160 0.9120
2.736080 0.9050 0.9020 0.9000 0.8980 0.8920
2.770000 0.8880 0.8830 0.8780 0.8750 0.8640
2.804080 0.8570 0.8520 0.8510 0.8450 0.8420
2.838000 0.8370 0.8330 0.8280 0.8250 0.8210
2.872080 0.8160 0.8110 0.8040 0.8030 0.7990
2.906000 0.7970 0.7910 0.7870 0.7840 0.7800
2.940080 0.7750 0.7730 0.7700 0.7670 0.7610
2.974000 0.7550 0.7480 0.7410 0.7310 0.7190
3.008080 0.7070 0.6910 0.6760 0.6550 0.6250
3.042000 0.5950 0.5680 0.5420 0.5150 0.4880
3.076080 0.4550 0.4190 0.3780 0.3560 0.3370
3.110000 0.3250 0.3150 0.3060 0.3030 0.3010
3.144080 0.3010 0.2990 0.2940 0.2890 0.2790
3.179000 0.2700 0.2610 0.2530 0.2440 0.2380
3.213080 0.2320 0.2270 0.2200 0.2120 0.2050
3.247000 0.2030 0.2020 0.2000 0.1980 0.1960
3.281080 0.1950 0.1930 0.1910 0.1910 0.1930
3.315000 0.1950 0.1950 0.1960 0.1960 0.1960
3.349080 0.1950 0.1930 0.1930 0.1910 0.1860
3.383000 0.1860 0.1830 0.1830 0.1830 0.1830
3.417080 0.1830 0.1830 0.1830 0.1830 0.1810
3.451000 0.1810 0.1780 0.1780 0.1760 0.1740
3.485080 0.1720 0.1710 0.1690 0.1690 0.1670
3.519000 0.1670 0.1660 0.1660 0.1640 0.1620
3.553080 0.1600 0.1600 0.1590 0.1570 0.1570
3.587000 0.1570 0.1550 0.1550 0.1550 0.1570
3.621080 0.1570 0.1590 0.1600 0.1620 0.1620
3.655000 0.1600 0.1600 0.1600 0.1600 0.1600
3.689080 0.1620 0.1640 0.1640 0.1670 0.1720
3.724000 0.1740 0.1760 0.1790 0.1830 0.1840
3.758080 0.1880 0.1880 0.1900 0.1950 0.2020
3.792000 0.2030 0.2050 0.2120 0.2120 0.2100
3.826080 0.2120 0.2190 0.2240 0.2260 0.2290
3.860000 0.2320 0.2360 0.2380 0.2390 0.2410
3.894080 0.2430 0.2460 0.2480 0.2510 0.2580
3.928000 0.2670 0.2680 0.2700 0.2750 0.2890
3.962080 0.2940 0.2970 0.3030 0.3080 0.3150
3.996000 0.3210 0.3280 0.3330 0.3400 0.3470
4.030080 0.3520 0.3570 0.3630 0.3680 0.3690
4.064000 0.3730 0.3780 0.3830 0.3880 0.3970
4.098080 0.4000 0.4020 0.4090 0.4140 0.4190
4.132000 0.4240 0.4290 0.4340 0.4360 0.4360
4.166080 0.4380 0.4410 0.4480 0.4500 0.4550
4.200000 0.4650 0.4690 0.4760 0.4820 0.4840
4.234080 0.4930 0.4960 0.5030 0.5030 0.5030
4.269000 0.5060 0.5130 0.5200 0.5270 0.5350
4.303080 0.5420 0.5470 0.5510 0.5530 0.5590
4.337000 0.5700 0.5770 0.5820 0.5890 0.5950
4.371080 0.6020 0.6110 0.6210 0.6250 0.6360
4.405000 0.6380 0.6380 0.6380 0.6360 0.6360
4.439080 0.6360 0.6350 0.6310 0.6250 0.6160
4.473000 0.6010 0.5900 0.5700 0.5530 0.5390
4.507080 0.5290 0.5200 0.5060 0.4960 0.4840
4.541000 0.4690 0.4550 0.4410 0.4280 0.4170
4.575080 0.4070 0.4000 0.3920 0.3860 0.3830
4.609000 0.3860 0.3920 0.4020 0.4240 0.4450
4.643080 0.4550 0.4640 0.4720 0.4820 0.4960
4.677000 0.5080 0.5230 0.5370 0.5470 0.5580
4.711080 0.5730 0.5890 0.6090 0.6310 0.6430
4.745000 0.6540 0.6670 0.6810 0.6900 0.6980
4.779080 0.7050 0.7120 0.7150 0.7200 0.7200
4.814000 0.7240 0.7260 0.7290 0.7310 0.7290
4.848080 0.7270 0.7270 0.7310 0.7310 0.7290
4.882000 0.7260 0.7220 0.7170 0.7070 0.7000
4.916080 0.6930 0.6840 0.6740 0.6640 0.6540
4.950000 0.6420 0.6300 0.6180 0.6070 0.6010
4.984080 0.5920 0.5820 0.5710 0.5590 0.5510
5.018000 0.5410 0.5300 0.5220 0.5130 0.5050
5.052080 0.5000 0.4940 0.4930 0.4890 0.4840
5.086000 0.4790 0.4770 0.4760 0.4690 0.4620
5.120080 0.4550 0.4520 0.4480 0.4450 0.4430
5.154000 0.4400 0.4380 0.4400 0.4460 0.4520
5.188080 0.4570 0.4620 0.4670 0.4720 0.4790
5.222000 0.4880 0.4960 0.5060 0.5180 0.5290
5.256080 0.5410 0.5540 0.5660 0.5820 0.5950
5.291000 0.6110 0.6250 0.6400 0.6550 0.6690
5.325080 0.6810 0.6960 0.7080 0.7200 0.7290
5.359000 0.7390 0.7500 0.7580 0.7680 0.7790
5.393080 0.7890 0.7960 0.8040 0.8090 0.8110
5.427000 0.8110 0.8110 0.8110 0.8110 0.8130
5.461080 0.8180 0.8230 0.8270 0.8280 0.8280
5.495000 0.8250 0.8210 0.8230 0.8250 0.8250
5.529080 0.8250 0.8230 0.8210 0.8200 0.8180
5.563000 0.8150 0.8090 0.8040 0.8030 0.7990
5.597080 0.7970 0.7920 0.7870 0.7790 0.7730
5.631000 0.7700 0.7700 0.7630 0.7550 0.7510
5.665080 0.7500 0.7480 0.7460 0.7440 0.7430
5.699000 0.7390 0.7290 0.7190 0.7120 0.7050
5.733080 0.6980 0.6860 0.6670 0.6420 0.6190
5.767000 0.6180 0.6190 0.6190 0.6310 0.6300
5.801080 0.6070 0.6010 0.5950 0.5830 0.5680
5.836000 0.5590 0.5530 0.5490 0.5460 0.5410
5.870080 0.5350 0.5300 0.5270 0.5220 0.5080
5.904000 0.4980 0.4890 0.4820 0.4810 0.4760
5.938080 0.4690 0.4580 0.4500 0.4410 0.4310
5.972000 0.4260 0.4210 0.4120 0.4020 0.3930
6.006080 0.3880 0.3800 0.3710 0.3630 0.3540
6.040000 0.3490 0.3450 0.3400 0.3370 0.3330
6.074080 0.3280 0.3250 0.3210 0.3180 0.3130
6.108000 0.3040 0.2970 0.2890 0.2850 0.2800
6.142080 0.2730 0.2680 0.2650 0.2610 0.2560
6.176000 0.2530 0.2510 0.2500 0.2480 0.2500
6.210080 0.2480 0.2460 0.2440 0.2430 0.2390
6.244000 0.2340 0.2270 0.2220 0.2170 0.2120
6.278080 0.2100 0.2070 0.2080 0.2080 0.2100
6.312000 0.2100 0.2100 0.2100 0.2100 0.2080
6.346080 0.2050 0.2030 0.2020 0.2000 0.2020
6.381000 0.2030 0.2050 0.2050 0.2050 0.2030
6.415080 0.2020 0.1980 0.1960 0.1960 0.1950
6.449000 0.1950 0.1950 0.1950 0.1950 0.1980
6.483080 0.1980 0.1980 0.2000 0.2000 0.1980
6.517000 0.1960 0.1930 0.1930 0.1910 0.1910
6.551080 0.1900 0.1880 0.1880 0.1860 0.1860
6.585000 0.1840 0.1840 0.1810 0.1760 0.1740
6.619080 0.1740 0.1710 0.1690 0.1670 0.1670
6.653000 0.1660 0.1640 0.1640 0.1640 0.1620
6.687080 0.1620 0.1620 0.1600 0.1600 0.1570
6.721000 0.1520 0.1520 0.1590 0.1590 0.1590
6.755080 0.1570 0.1550 0.1540 0.1520 0.1500
6.789000 0.1500 0.1520 0.1540 0.1550 0.1570
6.823080 0.1590 0.1600 0.1620 0.1640 0.1640
6.857000 0.1640 0.1660 0.1640 0.1620 0.1590
6.891080 0.1550 0.1550 0.1540 0.1520 0.1520
6.926000 0.1520 0.1500 0.1500 0.1470 0.1420
6.960080 0.1400 0.1350 0.1310 0.1300 0.1280
6.994000 0.1260 0.1230 0.1190 0.1140 0.1110
7.028080 0.1090 0.1090 0.1070 0.1070 0.1020
7.062000 0.1010 0.0990 0.0990 0.0990 0.0990
7.096080 0.0970 0.0970 0.0970 0.0970 0.0950
7.130000 0.0940 0.0920 0.0920 0.0940 0.0940
7.164080 0.0950 0.0950 0.0950 0.0970 0.0990
7.198000 0.0990 0.0990 0.0990 0.0970 0.0970
7.232080 0.0970 0.0990 0.1010 0.1010 0.1020
7.266000 0.1060 0.1070 0.1140 0.1210 0.1230
7.300080 0.1140 0.1140 0.1140 0.1180 0.1310
7.334000 0.1330 0.1330 0.1310 0.1330 0.1330
7.368080 0.1350 0.1360 0.1400 0.1430 0.1470
7.402000 0.1480 0.1500 0.1500 0.1520 0.1520
7.436080 0.1480 0.1420 0.1350 0.1300 0.1280
7.471000 0.1260 0.1230 0.1230 0.1260 0.1310
7.505080 0.1330 0.1400 0.1480 0.1640 0.1760
7.539000 0.1900 0.2000 0.2020 0.2030 0.2100
7.573080 0.2120 0.2140 0.2150 0.2200 0.2290
7.607000 0.2440 0.2460 0.2510 0.2560 0.2650
7.641080 0.2730 0.2820 0.2910 0.2990 0.3030
7.675000 0.3060 0.3150 0.3230 0.3270 0.3280
7.709080 0.3300 0.3350 0.3420 0.3510 0.3540
7.743000 0.3560 0.3590 0.3640 0.3710 0.3780
7.777080 0.3810 0.3830 0.3850 0.3860 0.3930
7.811000 0.4000 0.4020 0.4020 0.4040 0.4050
7.845080 0.4120 0.4210 0.4260 0.4290 0.4310
7.879000 0.4340 0.4400 0.4430 0.4480 0.4530
7.913080 0.4550 0.4570 0.4570 0.4580 0.4620
7.947000 0.4640 0.4640 0.4650 0.4670 0.4690
7.981080 0.4700 0.4690 0.4650 0.4640 0.4600
8.016000 0.4570 0.4550 0.4530 0.4500 0.4460
8.050080 0.4450 0.4450 0.4460 0.4530 0.4600
8.084000 0.4690 0.4720 0.4790 0.4880 0.5000
8.118080 0.5060 0.5150 0.5220 0.5290 0.5320
8.152000 0.5320 0.5320 0.5350 0.5390 0.5410
8.186080 0.5420 0.5440 0.5460 0.5470 0.5490
8.220000 0.5530 0.5540 0.5540 0.5560 0.5560
8.254080 0.5560 0.5580 0.5580 0.5580 0.5580
8.288000 0.5580 0.5590 0.5610 0.5610 0.5630
8.322080 0.5630 0.5630 0.5630 0.5630 0.5660
8.356000 0.5710 0.5730 0.5750 0.5800 0.5820
8.390080 0.5830 0.5890 0.5920 0.5950 0.5990
8.424000 0.6010 0.6020 0.6020 0.6040 0.6070
8.458080 0.6110 0.6130 0.6140 0.6180 0.6180
8.492000 0.6180 0.6190 0.6190 0.6190 0.6210
8.526080 0.6250 0.6300 0.6310 0.6310 0.6330
8.561000 0.6360 0.6380 0.6400 0.6420 0.6420
8.595080 0.6450 0.6500 0.6520 0.6500 0.6520
8.629000 0.6520 0.6540 0.6550 0.6600 0.6640
8.663080 0.6690 0.6710 0.6740 0.6810 0.6830
8.697000 0.6790 0.6790 0.6810 0.6810 0.6840
8.731080 0.6880 0.6910 0.6960 0.7000 0.7020
8.765000 0.7030 0.7050 0.7100 0.7120 0.7140
8.799080 0.7170 0.7200 0.7190 0.7240 0.7270
8.833000 0.7290 0.7310 0.7310 0.7320 0.7340
8.867080 0.7340 0.7340 0.7340 0.7320 0.7320
8.901000 0.7340 0.7390 0.7410 0.7410 0.7430
8.935080 0.7430 0.7440 0.7440 0.7460 0.7460
8.969000 0.7480 0.7480 0.7500 0.7500 0.7510
9.003080 0.7510 0.7550 0.7560 0.7510 0.7510
9.037000 0.7510 0.7530 0.7560 0.7580 0.7580
9.071080 0.7600 0.7580 0.7550 0.7510 0.7480
9.106000 0.7480 0.7460 0.7460 0.7460 0.7440
9.140080 0.7440 0.7460 0.7480 0.7500 0.7480
9.174000 0.7440 0.7430 0.7410 0.7430 0.7410
9.208080 0.7410 0.7410 0.7410 0.7390 0.7380
9.242000 0.7340 0.7310 0.7290 0.7270 0.7260
9.276080 0.7260 0.7240 0.7220 0.7220 0.7200
9.310000 0.7190 0.7150 0.7120 0.7050 0.7020
9.344080 0.7000 0.6980 0.6950 0.6880 0.6830
9.378000 0.6790 0.6740 0.6710 0.6660 0.6590
9.412080 0.6520 0.6470 0.6380 0.6310 0.6210
9.446000 0.6110 0.5970 0.5850 0.5780 0.5710
9.480080 0.5610 0.5530 0.5470 0.5420 0.5350
9.514000 0.5320 0.5340 0.5390 0.5440 0.5490
9.548080 0.5560 0.5610 0.5700 0.5770 0.5830
9.582000 0.5920 0.5970 0.6020 0.6110 0.6210
9.616080 0.6300 0.6330 0.6330 0.6350 0.6360
9.651000 0.6380 0.6400 0.6420 0.6420 0.6420
9.685080 0.6420 0.6420 0.6400 0.6400 0.6380
9.719000 0.6350 0.6300 0.6230 0.6090 0.6020
9.753080 0.5940 0.5830 0.5710 0.5590 0.5460
9.787000 0.5300 0.5150 0.4980 0.4770 0.4620
9.821080 0.4430 0.4290 0.4100 0.3970 0.3780
9.855000 0.3640 0.3470 0.3370 0.3250 0.3110
9.889080 0.3010 0.2970 0.2910 0.2910 0.2890
9.923000 0.2890 0.2910 0.2970 0.3030 0.3090
9.957080 0.3160 0.3250 0.3320 0.3420 0.3510
9.991000 0.3590 0.3690 0.3800 0.3880 0.3980
10.025080 0.4090 0.4190 0.4310 0.4410 0.4500
10.059000 0.4570 0.4600 0.4650 0.4690 0.4760
10.093080 0.4810 0.4880 0.4960 0.5050 0.5130
10.127000 0.5150 0.5130 0.5170 0.5220 0.5290
10.161080 0.5350 0.5410 0.5420 0.5470 0.5530
10.196000 0.5560 0.5630 0.5650 0.5650 0.5660
10.230080 0.5660 0.5680 0.5680 0.5700 0.5710
10.264000 0.5730 0.5770 0.5800 0.5830 0.5890
10.298080 0.5940 0.5970 0.5990 0.5990 0.5990
10.332000 0.6010 0.6010 0.6040 0.6140 0.6160
10.366080 0.6160 0.6160 0.6180 0.6190 0.6190
10.400000 0.6230 0.6280 0.6350 0.6380 0.6380
10.434080 0.6380 0.6400 0.6420 0.6420 0.6430
10.468000 0.6430 0.6430 0.6450 0.6470 0.6500
10.502080 0.6520 0.6540 0.6570 0.6590 0.6600
10.536000 0.6640 0.6640 0.6620 0.6620 0.6620
10.570080 0.6640 0.6690 0.6710 0.6720 0.6720
10.604000 0.6720 0.6720 0.6710 0.6720 0.6720
10.638080 0.6720 0.6720 0.6810 0.6840 0.6840
10.673000 0.6830 0.6830 0.6790 0.6780 0.6780
10.707080 0.6760 0.6760 0.6760 0.6740 0.6710
10.741000 0.6670 0.6620 0.6590 0.6540 0.6450
10.775080 0.6360 0.6250 0.6090 0.5920 0.5710
10.809000 0.5460 0.5180 0.4930 0.4520 0.4100
10.843080 0.3610 0.2940 0.2140 0.1480 0.1360
10.877000 0.1360 0.1420 0.1720 0.2020 0.2480
10.911080 0.3150 0.3810 0.4340 0.4770 0.5100
10.945000 0.5370 0.5590 0.5820 0.6020 0.6260
10.979080 0.6360 0.6500 0.6670 0.6860 0.7030
11.013000 0.7190 0.7290 0.7320 0.7380 0.7460
11.047080 0.7500 0.7530 0.7550 0.7600 0.7670
11.081000 0.7700 0.7750 0.7790 0.7820 0.7840
11.115080 0.7890 0.7920 0.7940 0.7960 0.7970
11.149000 0.7970 0.7990 0.7990 0.8010 0.8010
11.183080 0.8030 0.8040 0.8060 0.8080 0.8080
11.218000 0.8090 0.8090 0.8130 0.8150 0.8160
11.252080 0.8160 0.8180 0.8180 0.8180 0.8200
11.286000 0.8230 0.8250 0.8270 0.8280 0.8280
11.320080 0.8300 0.8330 0.8370 0.8400 0.8420
11.354000 0.8440 0.8440 0.8450 0.8450 0.8470
11.388080 0.8510 0.8540 0.8570 0.8570 0.8520
11.422000 0.8520 0.8520 0.8570 0.8590 0.8590
11.456080 0.8610 0.8610 0.8610 0.8610 0.8610
11.490000 0.8610 0.8610 0.8610 0.8630 0.8610
11.524080 0.8610 0.8610 0.8630 0.8640 0.8640
11.558000 0.8590 0.8590 0.8630 0.8680 0.8690
11.592080 0.8710 0.8730 0.8730 0.8730 0.8730
11.626000 0.8730 0.8750 0.8760 0.8780 0.8800
11.660080 0.8800 0.8800 0.8810 0.8810 0.8810
11.694000 0.8810 0.8800 0.8800 0.8800 0.8780
11.728080 0.8780 0.8780 0.8800 0.8810 0.8810
11.763000 0.8810 0.8810 0.8810 0.8780 0.8780
11.797080 0.8830 0.8850 0.8860 0.8850 0.8900
11.831000 0.8920 0.8920 0.8920 0.8930 0.8920
11.865080 0.8920 0.8900 0.8900 0.8900 0.8920
11.899000 0.8930 0.8950 0.8950 0.8970 0.8970
11.933080 0.8970 0.8980 0.8980 0.8980 0.9000
11.967000 0.9000 0.9020 0.9020 0.9000 0.9000
12.001080 0.9000 0.9020 0.9040 0.9040 0.9050
12.035000 0.9070 0.9070 0.9070 0.9090 0.9100
12.069080 0.9100 0.9120 0.9140 0.9140 0.9140
12.103000 0.9140 0.9160 0.9160 0.9160 0.9160
12.137080 0.9160 0.9160 0.9170 0.9170 0.9190
12.171000 0.9210 0.9210 0.9210 0.9210 0.9210
12.205080 0.9190 0.9170 0.9170 0.9170 0.9170
12.239000 0.9170 0.9190 0.9210 0.9210 0.9220
12.273080 0.9240 0.9260 0.9280 0.9290 0.9280
12.308000 0.9260 0.9240 0.9220 0.9210 0.9210
12.342080 0.9220 0.9260 0.9280 0.9280 0.9290
12.376000 0.9310 0.9330 0.9330 0.9340 0.9340
12.410080 0.9330 0.9330 0.9290 0.9290 0.9280
12.444000 0.9290 0.9310 0.9340 0.9380 0.9410
12.478080 0.9410 0.9360 0.9360 0.9360 0.9380
12.512000 0.9410 0.9430 0.9430 0.9400 0.9360
12.546080 0.9330 0.9330 0.9330 0.9360 0.9400
12.580000 0.9410 0.9430 0.9410 0.9400 0.9380
12.614080 0.9360 0.9360 0.9340 0.9330 0.9330
12.648000 0.9360 0.9400 0.9400 0.9400 0.9400
12.682080 0.9400 0.9400 0.9400 0.9400 0.9400
12.716000 0.9400 0.9400 0.9400 0.9410 0.9400
12.750080 0.9380 0.9400 0.9380 0.9360 0.9340
12.784000 0.9340 0.9340 0.9330 0.9310 0.9290
12.818080 0.9310 0.9310 0.9310 0.9290 0.9280
12.853000 0.9240 0.9220 0.9220 0.9220 0.9240
12.887080 0.9260 0.9260 0.9260 0.9240 0.9220
12.921000 0.9190 0.9170 0.9190 0.9190 0.9190
12.955080 0.9170 0.9170 0.9170 0.9160 0.9120
12.989000 0.9100 0.9070 0.9070 0.9070 0.9100
13.023080 0.9100 0.9100 0.9100 0.9100 0.9100
13.057000 0.9100 0.9090 0.9020 0.9000 0.9000
13.091080 0.9090 0.9090 0.9090 0.9090 0.9070
13.125000 0.9040 0.9020 0.9000 0.9000 0.8970
13.159080 0.8970 0.9000 0.9000 0.9000 0.9000
13.193000 0.9000 0.9050 0.9050 0.9040 0.9020
13.227080 0.9000 0.8980 0.8950 0.8970 0.9000
13.261000 0.9000 0.8980 0.8980 0.8970 0.8930
13.295080 0.8920 0.8920 0.8920 0.8930 0.8950
13.329000 0.8950 0.8930 0.8950 0.8950 0.8950
13.363080 0.8950 0.8920 0.8880 0.8830 0.8800
13.398000 0.8780 0.8780 0.8760 0.8760 0.8750
13.432080 0.8730 0.8760 0.8760 0.8760 0.8750
13.466000 0.8710 0.8710 0.8750 0.8750 0.8750
13.500080 0.8750 0.8730 0.8660 0.8630 0.8590
13.534000 0.8590 0.8570 0.8590 0.8590 0.8570
13.568080 0.8560 0.8520 0.8510 0.8470 0.8470
13.602000 0.8450 0.8450 0.8450 0.8450 0.8440
13.636080 0.8440 0.8420 0.8370 0.8370 0.8400
13.670000 0.8440 0.8440 0.8440 0.8400 0.8390
13.704080 0.8390 0.8370 0.8370 0.8350 0.8370
13.738000 0.8350 0.8300 0.8270 0.8250 0.8250
13.772080 0.8230 0.8250 0.8250 0.8250 0.8230
13.806000 0.8210 0.8210 0.8210 0.8210 0.8200
13.840080 0.8200 0.8160 0.8130 0.8110 0.8130
13.874000 0.8130 0.8040 0.8040 0.8030 0.7990
13.908080 0.7990 0.7970 0.7970 0.7970 0.7990
13.943000 0.8010 0.8030 0.8060 0.8080 0.8110
13.977080 0.8150 0.8180 0.8210 0.8230 0.8270
14.011000 0.8270 0.8280 0.8280 0.8280 0.8300
14.045080 0.8320 0.8330 0.8370 0.8390 0.8390
14.079000 0.8390 0.8390 0.8390 0.8370 0.8390
14.113080 0.8390 0.8400 0.8420 0.8420 0.8420
14.147000 0.8420 0.8420 0.8390 0.8390 0.8400
14.181080 0.8420 0.8440 0.8450 0.8450 0.8450
14.215000 0.8440 0.8420 0.8400 0.8390 0.8370
14.249080 0.8390 0.8370 0.8370 0.8370 0.8370
14.283000 0.8370 0.8350 0.8350 0.8320 0.8320
14.317080 0.8300 0.8280 0.8280 0.8270 0.8250
14.351000 0.8230 0.8200 0.8180 0.8160 0.8150
14.385080 0.8150 0.8150 0.8130 0.8130 0.8110
14.419000 0.8090 0.8090 0.8060 0.8030 0.8030
14.453080 0.7990 0.7990 0.7970 0.7910 0.7870
14.488000 0.7870 0.7870 0.7850 0.7820 0.7790
14.522080 0.7790 0.7770 0.7750 0.7700 0.7650
14.556000 0.7610 0.7580 0.7560 0.7530 0.7510
14.590080 0.7480 0.7460 0.7430 0.7390 0.7390
14.624000 0.7380 0.7340 0.7310 0.7310 0.7240
14.658080 0.7200 0.7150 0.7100 0.7080 0.7050
14.692000 0.7030 0.7020 0.6980 0.6960 0.6930
14.726080 0.6900 0.6840 0.6780 0.6690 0.6640
14.760000 0.6550 0.6500 0.6450 0.6380 0.6350
14.794080 0.6310 0.6260 0.6210 0.6140 0.6070
14.828000 0.6010 0.5940 0.5870 0.5780 0.5710
14.862080 0.5630 0.5540 0.5470 0.5410 0.5320
14.896000 0.5230 0.5150 0.5060 0.5000 0.4930
14.930080 0.4880 0.4810 0.4740 0.4650 0.4580
14.964000 0.4500 0.4400 0.4290 0.4190 0.4070
14.998080 0.3980 0.3900 0.3810 0.3730 0.3640
15.033000 0.3610 0.3560 0.3490 0.3450 0.3400
15.067080 0.3370 0.3300 0.3230 0.3160 0.3030
15.101000 0.2960 0.2850 0.2750 0.2650 0.2500
15.135080 0.2390 0.2260 0.2150 0.2080 0.2020
15.169000 0.1960 0.1910 0.1900 0.1880 0.1840
15.203080 0.1830 0.1810 0.1790 0.1790 0.1810
15.237000 0.1810 0.1830 0.1830 0.1840 0.1880
15.271080 0.1900 0.1910 0.1950 0.2000 0.2050
15.305000 0.2080 0.2140 0.2150 0.2220 0.2290
15.339080 0.2390 0.2500 0.2580 0.2650 0.2730
15.373000 0.2820 0.2910 0.2970 0.3080 0.3160
15.407080 0.3250 0.3350 0.3450 0.3520 0.3590
15.441000 0.3750 0.3880 0.3980 0.4100 0.4210
15.475080 0.4290 0.4400 0.4480 0.4570 0.4700
15.509000 0.4820 0.4940 0.5010 0.5100 0.5170
15.543080 0.5270 0.5350 0.5420 0.5470 0.5530
15.578000 0.5590 0.5650 0.5710 0.5780 0.5870
15.612080 0.5970 0.6010 0.6020 0.6040 0.6060
15.646000 0.6140 0.6160 0.6180 0.6190 0.6250
15.680080 0.6280 0.6310 0.6330 0.6330 0.6330
15.714000 0.6330 0.6350 0.6350 0.6350 0.6360
15.748080 0.6380 0.6380 0.6380 0.6400 0.6400
15.782000 0.6420 0.6430 0.6450 0.6450 0.6450
15.816080 0.6450 0.6430 0.6430 0.6430 0.6420
15.850000 0.6400 0.6400 0.6380 0.6350 0.6330
15.884080 0.6310 0.6280 0.6250 0.6230 0.6210
15.918000 0.6180 0.6160 0.6140 0.6110 0.6040
15.952080 0.6010 0.6010 0.5990 0.5950 0.5940
15.986000 0.5890
##END=
