##TITLE=P-PHENYLAZO CARBANILIC ACID, 7,8-DIHYDROLINALOOL ESTER
##JCAMP-DX=4.24
##DATA TYPE=INFRARED SPECTRUM
##CLASS=COBLENTZ
##ORIGIN=CITRUS EXPERIMENT STATION, UNIVERSITY OF FLORIDA (G. EDWARDS)
##OWNER=COBLENTZ SOCIETY
Collection (C) 2018 copyright by the U.S. Secretary of Commerce
on behalf of the United States of America. All rights reserved.
##DATE=Not specified, most likely prior to 1970
##NAMES=1-ethyl-1,5-dimethyl-5-hexenyl 4-[(E)-phenyldiazenyl]phenylcarbamate
##MOLFORM=C23 H29 N3 O2
##MP=128-130 C
##SOURCE REFERENCE=COBLENTZ NO. 2475
##$NIST ID=B6002475
##$NIST SOURCE=COBLENTZ
##$NIST IMAGE=cob2475
##SPECTROMETER/DATA SYSTEM=Not specified, most likely a grating spectrometer.
##STATE=SOLID (1.5 mg / 100 mg KBr)
##SAMPLING PROCEDURE=TRANSMISSION
##RESOLUTION=4
##DATA PROCESSING=DIGITIZED BY NIST FROM HARD COPY
##XUNITS=MICROMETERS
##YUNITS=TRANSMITTANCE
##XFACTOR=1.000000
##YFACTOR=1
##DELTAX=000.006638
##FIRSTX=2.033
##LASTX=14.9913
##FIRSTY=0.664
##MAXX=14.9913
##MINX=2.033
##MAXY=0.925
##MINY=0.325
##NPOINTS=1953
##XYDATA=(X++(Y..Y))
2.033000 0.6640 0.6640 0.6640 0.6670 0.6700
2.066208 0.6710 0.6720 0.6740 0.6740 0.6760
2.100000 0.6780 0.6790 0.6800 0.6800 0.6820
2.133208 0.6820 0.6820 0.6830 0.6830 0.6830
2.166000 0.6840 0.6840 0.6840 0.6840 0.6860
2.199208 0.6860 0.6880 0.6880 0.6900 0.6900
2.232000 0.6910 0.6910 0.6920 0.6920 0.6940
2.265208 0.6940 0.6950 0.6950 0.6960 0.6960
2.299000 0.6960 0.6990 0.7000 0.7000 0.7020
2.332208 0.7020 0.7030 0.7030 0.7030 0.7030
2.365000 0.7030 0.7030 0.7040 0.7040 0.7040
2.398208 0.7060 0.7060 0.7060 0.7080 0.7100
2.431000 0.7140 0.7150 0.7160 0.7160 0.7180
2.464208 0.7180 0.7190 0.7190 0.7200 0.7200
2.498000 0.7200 0.7200 0.7200 0.7200 0.7220
2.531208 0.7220 0.7220 0.7220 0.7220 0.7230
2.564000 0.7240 0.7240 0.7260 0.7260 0.7300
2.597208 0.7310 0.7310 0.7320 0.7340 0.7340
2.631000 0.7350 0.7350 0.7360 0.7360 0.7360
2.664208 0.7360 0.7360 0.7360 0.7360 0.7360
2.697000 0.7360 0.7360 0.7360 0.7360 0.7360
2.730208 0.7380 0.7380 0.7390 0.7390 0.7400
2.763000 0.7400 0.7420 0.7420 0.7420 0.7430
2.796208 0.7430 0.7430 0.7430 0.7440 0.7440
2.830000 0.7440 0.7480 0.7480 0.7480 0.7480
2.863208 0.7480 0.7480 0.7480 0.7480 0.7460
2.896000 0.7440 0.7440 0.7430 0.7420 0.7400
2.929208 0.7380 0.7340 0.7280 0.7150 0.6960
2.963000 0.6750 0.6660 0.6550 0.5610 0.5430
2.996208 0.5230 0.5030 0.5020 0.5050 0.5450
3.029000 0.5700 0.6110 0.6500 0.6980 0.7110
3.062208 0.7190 0.7240 0.7310 0.7340 0.7360
3.095000 0.7380 0.7380 0.7380 0.7390 0.7420
3.128208 0.7500 0.7530 0.7550 0.7530 0.7510
3.162000 0.7500 0.7500 0.7480 0.7480 0.7480
3.195208 0.7480 0.7480 0.7460 0.7430 0.7420
3.228000 0.7390 0.7310 0.7280 0.7260 0.7240
3.261208 0.7260 0.7390 0.7440 0.7460 0.7480
3.294000 0.7440 0.7280 0.7070 0.6900 0.6740
3.327208 0.6580 0.6190 0.5970 0.5930 0.5900
3.361000 0.5890 0.5890 0.5870 0.5830 0.5830
3.394208 0.5850 0.6070 0.6350 0.6550 0.6790
3.427000 0.6820 0.6820 0.6820 0.6820 0.6820
3.460208 0.6820 0.6840 0.7020 0.7230 0.7440
3.494000 0.7570 0.7710 0.7800 0.7890 0.7920
3.527208 0.7920 0.7920 0.7930 0.7930 0.7950
3.560000 0.7950 0.7960 0.7970 0.7970 0.7990
3.593208 0.7990 0.7990 0.7990 0.7990 0.8000
3.626000 0.8010 0.8070 0.8090 0.8150 0.8200
3.659208 0.8230 0.8240 0.8250 0.8250 0.8250
3.693000 0.8250 0.8250 0.8250 0.8250 0.8250
3.726208 0.8250 0.8250 0.8250 0.8250 0.8240
3.759000 0.8240 0.8240 0.8240 0.8240 0.8240
3.792208 0.8240 0.8240 0.8240 0.8250 0.8250
3.826000 0.8250 0.8270 0.8270 0.8270 0.8280
3.859208 0.8290 0.8310 0.8310 0.8320 0.8330
3.892000 0.8350 0.8350 0.8370 0.8370 0.8390
3.925208 0.8390 0.8390 0.8390 0.8400 0.8410
3.958000 0.8410 0.8410 0.8410 0.8410 0.8430
3.991208 0.8430 0.8430 0.8430 0.8430 0.8440
4.025000 0.8440 0.8440 0.8440 0.8440 0.8450
4.058208 0.8450 0.8470 0.8470 0.8480 0.8490
4.091000 0.8490 0.8510 0.8510 0.8520 0.8530
4.124208 0.8530 0.8550 0.8550 0.8560 0.8570
4.157000 0.8570 0.8570 0.8590 0.8590 0.8590
4.190208 0.8560 0.8520 0.8510 0.8490 0.8490
4.224000 0.8490 0.8510 0.8510 0.8520 0.8520
4.257208 0.8530 0.8530 0.8560 0.8590 0.8590
4.290000 0.8600 0.8600 0.8600 0.8600 0.8600
4.323208 0.8600 0.8600 0.8600 0.8610 0.8610
4.357000 0.8610 0.8630 0.8630 0.8630 0.8640
4.390208 0.8640 0.8640 0.8640 0.8650 0.8650
4.423000 0.8650 0.8670 0.8670 0.8670 0.8670
4.456208 0.8670 0.8670 0.8670 0.8670 0.8670
4.489000 0.8670 0.8680 0.8680 0.8690 0.8690
4.522208 0.8690 0.8710 0.8710 0.8710 0.8710
4.556000 0.8710 0.8710 0.8710 0.8710 0.8710
4.589208 0.8720 0.8720 0.8730 0.8750 0.8750
4.622000 0.8750 0.8760 0.8760 0.8760 0.8770
4.655208 0.8770 0.8770 0.8770 0.8770 0.8780
4.688000 0.8800 0.8800 0.8810 0.8820 0.8820
4.721208 0.8840 0.8840 0.8840 0.8840 0.8840
4.755000 0.8840 0.8840 0.8850 0.8850 0.8850
4.788208 0.8850 0.8850 0.8850 0.8850 0.8850
4.821000 0.8850 0.8860 0.8860 0.8860 0.8860
4.854208 0.8860 0.8860 0.8860 0.8860 0.8860
4.888000 0.8860 0.8860 0.8860 0.8860 0.8840
4.921208 0.8840 0.8840 0.8840 0.8850 0.8850
4.954000 0.8850 0.8860 0.8860 0.8860 0.8880
4.987208 0.8880 0.8880 0.8880 0.8880 0.8880
5.020000 0.8880 0.8880 0.8880 0.8880 0.8860
5.053208 0.8860 0.8880 0.8880 0.8880 0.8880
5.087000 0.8880 0.8880 0.8890 0.8890 0.8890
5.120208 0.8900 0.8900 0.8900 0.8900 0.8900
5.153000 0.8900 0.8900 0.8900 0.8890 0.8890
5.186208 0.8890 0.8880 0.8880 0.8880 0.8880
5.220000 0.8880 0.8880 0.8880 0.8880 0.8880
5.253208 0.8880 0.8900 0.8930 0.8960 0.8980
5.286000 0.9000 0.9010 0.9010 0.9020 0.9020
5.319208 0.9020 0.9040 0.9040 0.9040 0.9040
5.352000 0.9040 0.9040 0.9040 0.9020 0.9020
5.385208 0.9000 0.9000 0.8980 0.8980 0.8980
5.419000 0.8970 0.8970 0.8960 0.8960 0.8940
5.452208 0.8940 0.8940 0.8930 0.8930 0.8930
5.485000 0.8930 0.8930 0.8920 0.8920 0.8920
5.518208 0.8900 0.8900 0.8900 0.8890 0.8890
5.551000 0.8890 0.8890 0.8890 0.8890 0.8890
5.584208 0.8880 0.8860 0.8850 0.8840 0.8820
5.618000 0.8810 0.8810 0.8800 0.8780 0.8760
5.651208 0.8730 0.8720 0.8710 0.8670 0.8610
5.684000 0.8560 0.8440 0.8330 0.8250 0.8160
5.717208 0.8080 0.7970 0.7850 0.7750 0.7630
5.751000 0.7590 0.7550 0.7500 0.7320 0.7110
5.784208 0.6790 0.6630 0.6460 0.6180 0.6100
5.817000 0.6020 0.5870 0.5500 0.4960 0.4250
5.850208 0.4090 0.4080 0.4090 0.4120 0.4300
5.883000 0.4520 0.4960 0.5330 0.6060 0.7420
5.916208 0.7610 0.7760 0.7830 0.7990 0.8040
5.950000 0.8150 0.8250 0.8290 0.8310 0.8330
5.983208 0.8350 0.8400 0.8490 0.8550 0.8630
6.016000 0.8680 0.8710 0.8720 0.8720 0.8710
6.049208 0.8690 0.8690 0.8690 0.8670 0.8640
6.083000 0.8610 0.8590 0.8590 0.8560 0.8550
6.116208 0.8530 0.8450 0.8360 0.8230 0.8130
6.149000 0.8040 0.7830 0.7590 0.7400 0.7200
6.182208 0.7000 0.6600 0.6210 0.5390 0.4810
6.215000 0.4570 0.4570 0.4680 0.4930 0.5210
6.248208 0.5590 0.5930 0.6420 0.7120 0.7350
6.282000 0.7630 0.7730 0.7890 0.8090 0.8170
6.315208 0.8230 0.8270 0.8270 0.8240 0.8150
6.348000 0.7930 0.7800 0.7600 0.7230 0.6900
6.381208 0.6550 0.6010 0.5750 0.5590 0.5390
6.414000 0.5150 0.4760 0.4400 0.3900 0.3510
6.447208 0.3350 0.3330 0.3320 0.3310 0.3320
6.481000 0.3520 0.3750 0.4040 0.4420 0.4880
6.514208 0.5390 0.5860 0.6210 0.6460 0.6600
6.547000 0.6870 0.6900 0.6910 0.6940 0.6950
6.580208 0.6960 0.6960 0.6960 0.6960 0.6960
6.614000 0.6980 0.6980 0.7000 0.7120 0.7240
6.647208 0.7500 0.7640 0.7710 0.7790 0.7840
6.680000 0.7880 0.7930 0.7970 0.8010 0.8050
6.713208 0.8050 0.8010 0.7990 0.7990 0.7870
6.746000 0.7600 0.7390 0.7310 0.7240 0.7200
6.779208 0.7100 0.6710 0.6670 0.6630 0.6620
6.813000 0.6630 0.6900 0.7110 0.7240 0.7310
6.846208 0.7310 0.7310 0.7310 0.7300 0.7280
6.879000 0.7230 0.7200 0.7080 0.6790 0.6700
6.912208 0.6600 0.6590 0.6590 0.6620 0.7220
6.945000 0.7480 0.7630 0.7790 0.7850 0.7990
6.978208 0.8050 0.8120 0.8120 0.8040 0.7960
7.012000 0.7850 0.7750 0.7470 0.7280 0.7180
7.045208 0.6920 0.6560 0.6190 0.6130 0.6110
7.078000 0.6140 0.6500 0.7180 0.7510 0.7710
7.111208 0.7880 0.7920 0.7950 0.8050 0.8090
7.145000 0.8090 0.8090 0.8050 0.7990 0.7890
7.178208 0.7710 0.7590 0.7530 0.7500 0.7430
7.211000 0.7360 0.7280 0.7220 0.7200 0.7230
7.244208 0.7430 0.7650 0.7870 0.7910 0.8010
7.277000 0.8090 0.8120 0.8170 0.8200 0.8240
7.310208 0.8320 0.8390 0.8400 0.8400 0.8390
7.344000 0.8370 0.8320 0.8290 0.8290 0.8270
7.377208 0.8210 0.8150 0.8080 0.8050 0.8040
7.410000 0.8030 0.8000 0.7910 0.7770 0.7640
7.443208 0.7590 0.7520 0.7400 0.7240 0.7190
7.477000 0.7060 0.6990 0.6920 0.6880 0.6820
7.510208 0.6760 0.6680 0.6660 0.6620 0.6600
7.543000 0.6590 0.6590 0.6720 0.6780 0.6780
7.576208 0.6720 0.6640 0.6550 0.6470 0.6400
7.609000 0.6340 0.6260 0.6250 0.6180 0.6010
7.642208 0.5930 0.5860 0.5870 0.6070 0.6310
7.676000 0.7030 0.7380 0.7530 0.7800 0.7910
7.709208 0.7990 0.8010 0.8040 0.8090 0.8090
7.742000 0.8110 0.8090 0.8010 0.8000 0.7920
7.775208 0.7890 0.7790 0.7640 0.7500 0.7390
7.808000 0.7270 0.7190 0.7110 0.7040 0.7000
7.841208 0.6880 0.6800 0.6700 0.6660 0.6600
7.875000 0.6420 0.6350 0.6310 0.6310 0.6300
7.908208 0.6310 0.6420 0.6510 0.6620 0.6720
7.941000 0.6750 0.6740 0.6680 0.6620 0.6520
7.974208 0.6300 0.6140 0.5900 0.5590 0.5190
8.008000 0.5010 0.4370 0.4050 0.3710 0.3510
8.041208 0.3370 0.3320 0.3250 0.3250 0.3310
8.074000 0.3410 0.3440 0.3480 0.3510 0.3510
8.107208 0.3630 0.3800 0.3890 0.3980 0.4120
8.140000 0.4290 0.4600 0.4890 0.5100 0.5300
8.173208 0.5500 0.5710 0.5930 0.6100 0.6310
8.207000 0.6420 0.6500 0.6550 0.6640 0.6790
8.240208 0.6900 0.6920 0.6960 0.6990 0.7000
8.273000 0.7020 0.7030 0.7040 0.7040 0.7100
8.306208 0.7110 0.7140 0.7220 0.7260 0.7360
8.339000 0.7480 0.7500 0.7550 0.7590 0.7600
8.372208 0.7640 0.7650 0.7650 0.7610 0.7520
8.406000 0.7460 0.7430 0.7390 0.7320 0.7300
8.439208 0.7200 0.7110 0.7020 0.6900 0.6720
8.472000 0.6680 0.6630 0.6510 0.6430 0.6310
8.505208 0.6280 0.6280 0.6360 0.6460 0.6590
8.539000 0.6640 0.6790 0.6790 0.6790 0.6760
8.572208 0.6740 0.6720 0.6700 0.6660 0.6590
8.605000 0.6470 0.6350 0.6190 0.6010 0.5710
8.638208 0.5500 0.5410 0.5410 0.5490 0.5610
8.671000 0.5850 0.6030 0.6280 0.6390 0.6390
8.704208 0.6350 0.6310 0.6220 0.6100 0.5950
8.738000 0.5950 0.5990 0.6180 0.6310 0.6520
8.771208 0.6940 0.7030 0.7140 0.7300 0.7380
8.804000 0.7380 0.7380 0.7380 0.7360 0.7300
8.837208 0.7220 0.7160 0.7100 0.6920 0.6820
8.871000 0.6710 0.6700 0.6700 0.6820 0.6840
8.904208 0.6920 0.6960 0.7150 0.7220 0.7320
8.937000 0.7430 0.7500 0.7500 0.7470 0.7460
8.970208 0.7430 0.7420 0.7420 0.7440 0.7530
9.003000 0.7570 0.7610 0.7670 0.7810 0.7990
9.036208 0.8000 0.8010 0.8050 0.8090 0.8090
9.070000 0.8120 0.8130 0.8160 0.8170 0.8190
9.103208 0.8240 0.8290 0.8290 0.8320 0.8330
9.136000 0.8360 0.8360 0.8400 0.8430 0.8440
9.169208 0.8450 0.8480 0.8490 0.8490 0.8520
9.202000 0.8550 0.8550 0.8530 0.8520 0.8520
9.235208 0.8490 0.8480 0.8430 0.8400 0.8360
9.269000 0.8320 0.8280 0.8240 0.8080 0.8000
9.302208 0.7850 0.7670 0.7510 0.7420 0.7280
9.335000 0.7140 0.7080 0.7000 0.6980 0.6980
9.368208 0.6960 0.6960 0.6990 0.7000 0.7100
9.402000 0.7100 0.7100 0.7100 0.7080 0.7030
9.435208 0.6950 0.6880 0.6800 0.6720 0.6660
9.468000 0.6580 0.6500 0.6440 0.6400 0.6340
9.501208 0.6280 0.6220 0.6190 0.6190 0.6210
9.534000 0.6220 0.6250 0.6320 0.6400 0.6480
9.567208 0.6590 0.6910 0.6950 0.7060 0.7190
9.601000 0.7390 0.7550 0.7600 0.7720 0.7800
9.634208 0.7890 0.7970 0.8010 0.8030 0.8030
9.667000 0.8090 0.8130 0.8200 0.8250 0.8270
9.700208 0.8250 0.8240 0.8230 0.8210 0.8200
9.734000 0.8190 0.8120 0.8090 0.8040 0.8000
9.767208 0.7990 0.7890 0.7880 0.7810 0.7800
9.800000 0.7800 0.7810 0.7850 0.7890 0.7920
9.833208 0.8010 0.8030 0.8070 0.8080 0.8090
9.866000 0.8090 0.8090 0.8110 0.8150 0.8200
9.899208 0.8240 0.8290 0.8290 0.8330 0.8330
9.933000 0.8330 0.8330 0.8330 0.8320 0.8310
9.966208 0.8290 0.8250 0.8250 0.8270 0.8270
9.999000 0.8280 0.8290 0.8320 0.8360 0.8390
10.032208 0.8400 0.8430 0.8490 0.8520 0.8590
10.065000 0.8630 0.8640 0.8650 0.8670 0.8670
10.098208 0.8680 0.8680 0.8690 0.8710 0.8720
10.132000 0.8750 0.8800 0.8840 0.8850 0.8850
10.165208 0.8850 0.8850 0.8850 0.8850 0.8850
10.198000 0.8850 0.8850 0.8840 0.8840 0.8840
10.231208 0.8840 0.8840 0.8840 0.8840 0.8840
10.265000 0.8850 0.8860 0.8860 0.8860 0.8860
10.298208 0.8880 0.8880 0.8960 0.9000 0.9020
10.331000 0.9040 0.9050 0.9050 0.9060 0.9060
10.364208 0.9080 0.9080 0.9090 0.9090 0.9120
10.397000 0.9120 0.9120 0.9130 0.9130 0.9140
10.430208 0.9140 0.9140 0.9160 0.9160 0.9160
10.464000 0.9160 0.9170 0.9170 0.9170 0.9170
10.497208 0.9170 0.9180 0.9180 0.9180 0.9200
10.530000 0.9200 0.9200 0.9200 0.9200 0.9200
10.563208 0.9200 0.9200 0.9200 0.9200 0.9200
10.596000 0.9200 0.9200 0.9210 0.9210 0.9210
10.629208 0.9220 0.9220 0.9240 0.9240 0.9240
10.663000 0.9240 0.9250 0.9250 0.9250 0.9240
10.696208 0.9240 0.9180 0.9130 0.9120 0.9100
10.729000 0.9040 0.9020 0.8940 0.8900 0.8850
10.762208 0.8780 0.8730 0.8720 0.8670 0.8640
10.796000 0.8640 0.8640 0.8640 0.8650 0.8650
10.829208 0.8670 0.8690 0.8710 0.8730 0.8750
10.862000 0.8760 0.8840 0.8850 0.8890 0.8930
10.895208 0.8970 0.9010 0.9050 0.9090 0.9100
10.928000 0.9130 0.9130 0.9140 0.9140 0.9160
10.961208 0.9160 0.9160 0.9140 0.9140 0.9130
10.995000 0.9120 0.9120 0.9100 0.9090 0.9060
11.028208 0.9040 0.9020 0.9010 0.9000 0.8960
11.061000 0.8920 0.8880 0.8880 0.8860 0.8860
11.094208 0.8860 0.8880 0.8880 0.8880 0.8880
11.128000 0.8880 0.8890 0.8890 0.8900 0.8930
11.161208 0.8930 0.8930 0.8940 0.8960 0.8960
11.194000 0.8970 0.8980 0.9000 0.9010 0.9020
11.227208 0.9020 0.9040 0.9060 0.9080 0.9090
11.260000 0.9090 0.9100 0.9120 0.9130 0.9140
11.293208 0.9160 0.9170 0.9170 0.9200 0.9200
11.327000 0.9210 0.9210 0.9220 0.9240 0.9240
11.360208 0.9240 0.9240 0.9240 0.9240 0.9240
11.393000 0.9220 0.9200 0.9180 0.9170 0.9170
11.426208 0.9200 0.9240 0.9240 0.9220 0.9210
11.459000 0.9180 0.9170 0.9140 0.9130 0.9120
11.492208 0.9100 0.9090 0.9080 0.9000 0.8980
11.526000 0.8970 0.8900 0.8810 0.8780 0.8730
11.559208 0.8720 0.8680 0.8600 0.8520 0.8430
11.592000 0.8290 0.8230 0.8150 0.8050 0.7950
11.625208 0.7880 0.7790 0.7730 0.7600 0.7510
11.659000 0.7420 0.7270 0.7110 0.6980 0.6740
11.692208 0.6620 0.6500 0.6390 0.6230 0.6170
11.725000 0.6100 0.6100 0.6100 0.6140 0.6180
11.758208 0.6230 0.6380 0.6420 0.6540 0.6620
11.791000 0.6940 0.7020 0.7200 0.7280 0.7310
11.824208 0.7460 0.7590 0.7680 0.7790 0.7840
11.858000 0.7910 0.7930 0.7970 0.8090 0.8190
11.891208 0.8210 0.8230 0.8240 0.8250 0.8270
11.924000 0.8270 0.8280 0.8280 0.8290 0.8320
11.957208 0.8330 0.8350 0.8360 0.8360 0.8370
11.991000 0.8370 0.8400 0.8410 0.8430 0.8440
12.024208 0.8470 0.8480 0.8490 0.8520 0.8570
12.057000 0.8590 0.8600 0.8630 0.8650 0.8680
12.090208 0.8690 0.8710 0.8710 0.8720 0.8720
12.123000 0.8730 0.8750 0.8780 0.8800 0.8820
12.156208 0.8850 0.8900 0.8930 0.8940 0.8960
12.190000 0.8960 0.8970 0.8970 0.8970 0.8980
12.223208 0.8980 0.8980 0.9000 0.9000 0.9000
12.256000 0.9000 0.9000 0.9000 0.9010 0.9010
12.289208 0.9010 0.9010 0.9010 0.9010 0.9010
12.322000 0.9010 0.9010 0.9010 0.9010 0.9010
12.355208 0.9010 0.9010 0.9010 0.9010 0.9000
12.389000 0.9000 0.9000 0.9000 0.9000 0.8980
12.422208 0.8980 0.8980 0.8980 0.8980 0.8970
12.455000 0.8970 0.8970 0.8960 0.8960 0.8960
12.488208 0.8920 0.8900 0.8890 0.8880 0.8880
12.522000 0.8880 0.8880 0.8880 0.8860 0.8860
12.555208 0.8850 0.8850 0.8850 0.8840 0.8840
12.588000 0.8820 0.8820 0.8820 0.8820 0.8810
12.621208 0.8800 0.8760 0.8730 0.8720 0.8710
12.654000 0.8690 0.8680 0.8670 0.8670 0.8650
12.687208 0.8650 0.8640 0.8630 0.8630 0.8630
12.721000 0.8630 0.8610 0.8610 0.8610 0.8610
12.754208 0.8600 0.8600 0.8600 0.8590 0.8590
12.787000 0.8560 0.8550 0.8530 0.8520 0.8520
12.820208 0.8510 0.8510 0.8490 0.8450 0.8410
12.853000 0.8390 0.8320 0.8280 0.8200 0.8120
12.886208 0.8050 0.7950 0.7870 0.7680 0.7570
12.920000 0.7500 0.7420 0.7380 0.7320 0.7270
12.953208 0.7190 0.7150 0.7030 0.6870 0.6830
12.986000 0.6820 0.6820 0.6840 0.6860 0.6880
13.019208 0.6920 0.6990 0.7040 0.7180 0.7270
13.053000 0.7380 0.7500 0.7550 0.7670 0.7770
13.086208 0.7880 0.7960 0.8010 0.8070 0.8090
13.119000 0.8120 0.8160 0.8190 0.8230 0.8270
13.152208 0.8280 0.8290 0.8290 0.8310 0.8330
13.185000 0.8390 0.8430 0.8440 0.8450 0.8470
13.218208 0.8470 0.8480 0.8490 0.8530 0.8560
13.252000 0.8560 0.8570 0.8590 0.8600 0.8600
13.285208 0.8610 0.8630 0.8640 0.8640 0.8640
13.318000 0.8640 0.8640 0.8640 0.8640 0.8640
13.351208 0.8640 0.8640 0.8640 0.8630 0.8630
13.385000 0.8610 0.8610 0.8600 0.8600 0.8600
13.418208 0.8590 0.8590 0.8570 0.8570 0.8560
13.451000 0.8560 0.8550 0.8550 0.8530 0.8530
13.484208 0.8530 0.8530 0.8520 0.8520 0.8510
13.517000 0.8510 0.8510 0.8490 0.8480 0.8480
13.550208 0.8470 0.8470 0.8470 0.8470 0.8470
13.584000 0.8470 0.8480 0.8480 0.8480 0.8480
13.617208 0.8480 0.8480 0.8480 0.8470 0.8470
13.650000 0.8470 0.8450 0.8450 0.8440 0.8440
13.683208 0.8440 0.8440 0.8440 0.8430 0.8430
13.716000 0.8410 0.8410 0.8410 0.8390 0.8390
13.749208 0.8350 0.8350 0.8320 0.8320 0.8250
13.783000 0.8190 0.8110 0.8080 0.8030 0.8010
13.816208 0.7960 0.7890 0.7810 0.7730 0.7710
13.849000 0.7710 0.7730 0.7750 0.7790 0.7800
13.882208 0.7810 0.7830 0.7840 0.7850 0.7850
13.916000 0.7870 0.7870 0.7870 0.7870 0.7880
13.949208 0.7880 0.7880 0.7880 0.7880 0.7870
13.982000 0.7870 0.7870 0.7870 0.7850 0.7850
14.015208 0.7850 0.7850 0.7840 0.7840 0.7840
14.048000 0.7840 0.7850 0.7850 0.7850 0.7870
14.081208 0.7870 0.7880 0.7880 0.7850 0.7840
14.115000 0.7840 0.7810 0.7810 0.7810 0.7810
14.148208 0.7810 0.7810 0.7810 0.7810 0.7810
14.181000 0.7810 0.7810 0.7830 0.7830 0.7830
14.214208 0.7830 0.7840 0.7840 0.7850 0.7850
14.248000 0.7850 0.7850 0.7850 0.7850 0.7830
14.281208 0.7810 0.7790 0.7790 0.7790 0.7770
14.314000 0.7770 0.7760 0.7760 0.7750 0.7750
14.347208 0.7730 0.7670 0.7630 0.7600 0.7590
14.380000 0.7560 0.7480 0.7480 0.7430 0.7380
14.413208 0.7310 0.7240 0.7190 0.7100 0.7000
14.447000 0.6910 0.6820 0.6680 0.6620 0.6550
14.480208 0.6480 0.6380 0.6280 0.6210 0.6190
14.513000 0.6190 0.6190 0.6210 0.6210 0.6270
14.546208 0.6280 0.6350 0.6460 0.6540 0.6620
14.579000 0.6800 0.6900 0.6980 0.7020 0.7180
14.612208 0.7240 0.7310 0.7360 0.7420 0.7500
14.646000 0.7550 0.7600 0.7630 0.7680 0.7760
14.679208 0.7810 0.7840 0.7870 0.7910 0.7970
14.712000 0.7990 0.7990 0.8000 0.8040 0.8050
14.745208 0.8070 0.8090 0.8110 0.8110 0.8110
14.779000 0.8110 0.8120 0.8120 0.8120 0.8110
14.812208 0.8090 0.8090 0.8070 0.8030 0.8010
14.845000 0.8000 0.7990 0.7930 0.7810 0.7730
14.878208 0.7680 0.7650 0.7650 0.7680 0.7720
14.911000 0.7770 0.7840 0.7950 0.8040 0.8170
14.944208 0.8290 0.8400 0.8490 0.8590 0.8670
14.978000 0.8730 0.8590 0.8670
##END=
