##TITLE=Beta-DIETHYLAMINOETHYL-p-AMINOBENZOATE CYCLOHEXYLSULFAMATE
##JCAMP-DX=4.24
##DATA TYPE=INFRARED SPECTRUM
##CLASS=COBLENTZ
##ORIGIN=ABBOTT LABORATORIES - WASHBURN
##OWNER=COBLENTZ SOCIETY
Collection (C) 2018 copyright by the U.S. Secretary of Commerce
on behalf of the United States of America. All rights reserved.
##DATE=Not specified, most likely prior to 1970
##NAMES=PROCAINE CYCLAMATE
##MOLFORM=C19 H33 N3 O5 S
##SOURCE REFERENCE=COBLENTZ NO. 3410
##$NIST ID=B6003410
##$NIST SOURCE=COBLENTZ
##$NIST IMAGE=cob3410
##SPECTROMETER/DATA SYSTEM=PERKIN-ELMER
##STATE=SOLID (NUJOL MULL)
##SAMPLING PROCEDURE=TRANSMISSION
##RESOLUTION=4
##DATA PROCESSING=DIGITIZED BY NIST FROM HARD COPY (FROM TWO SEGMENTS)
##XUNITS=MICROMETERS
##YUNITS=TRANSMITTANCE
##XFACTOR=1.000000
##YFACTOR=1
##DELTAX=0.006831
##FIRSTX=2.015
##LASTX=15.3764
##FIRSTY=0.379
##MAXX=15.3764
##MINX=2.015
##MAXY=0.829
##MINY=0.02
##NPOINTS=1957
##XYDATA=(X++(Y..Y))
2.015000 0.3790 0.3790 0.3810 0.3810 0.3810
2.049155 0.3830 0.3830 0.3840 0.3860 0.3880
2.083310 0.3911 0.3931 0.3950 0.3961 0.3981
2.117465 0.4001 0.4021 0.4051 0.4070 0.4080
2.151620 0.4099 0.4119 0.4139 0.4140 0.4168
2.185775 0.4189 0.4190 0.4199 0.4219 0.4238
2.219930 0.4240 0.4260 0.4260 0.4260 0.4270
2.254085 0.4270 0.4270 0.4270 0.4260 0.4260
2.288240 0.4260 0.4259 0.4239 0.4219 0.4189
2.322395 0.4170 0.4170 0.4190 0.4190 0.4200
2.356550 0.4219 0.4220 0.4239 0.4240 0.4259
2.390705 0.4269 0.4288 0.4308 0.4310 0.4310
2.424860 0.4320 0.4320 0.4340 0.4379 0.4390
2.459015 0.4390 0.4429 0.4430 0.4449 0.4479
2.493170 0.4511 0.4531 0.4581 0.4650 0.4670
2.527325 0.4690 0.4700 0.4700 0.4720 0.4740
2.561480 0.4750 0.4751 0.4773 0.4811 0.4821
2.595635 0.4843 0.4892 0.4932 0.4961 0.4981
2.629790 0.4999 0.5010 0.5029 0.5030 0.5049
2.663945 0.5060 0.5079 0.5118 0.5149 0.5169
2.698100 0.5170 0.5200 0.5220 0.5240 0.5250
2.732255 0.5270 0.5290 0.5290 0.5300 0.5340
2.766410 0.5360 0.5362 0.5391 0.5412 0.5442
2.800565 0.5482 0.5531 0.5561 0.5581 0.5600
2.834720 0.5610 0.5629 0.5649 0.5679 0.5728
2.868875 0.5768 0.5789 0.5818 0.5848 0.5841
2.903030 0.5769 0.5459 0.4960 0.4571 0.3933
2.937185 0.3533 0.3431 0.3430 0.3499 0.3707
2.971340 0.3707 0.3633 0.3492 0.3329 0.3312
3.005495 0.3357 0.3522 0.3569 0.3542 0.3308
3.039650 0.3243 0.3240 0.3438 0.3761 0.3780
3.073805 0.3724 0.3421 0.3027 0.2777 0.2741
3.107960 0.2760 0.2998 0.3168 0.3308 0.3428
3.142115 0.3568 0.3619 0.3757 0.3838 0.3928
3.176270 0.3962 0.4003 0.4071 0.4102 0.4171
3.210425 0.4190 0.4201 0.4220 0.4220 0.4200
3.244580 0.4200 0.4200 0.4153 0.4103 0.4026
3.278735 0.3918 0.3771 0.3612 0.3416 0.3180
3.312890 0.2737 0.2455 0.2146 0.1837 0.1547
3.347045 0.1277 0.1018 0.0807 0.0655 0.0534
3.381200 0.0457 0.0358 0.0300 0.0289 0.0250
3.415355 0.0240 0.0240 0.0220 0.0200 0.0200
3.449510 0.0201 0.0221 0.0240 0.0241 0.0251
3.483665 0.0272 0.0301 0.0321 0.0342 0.0386
3.517820 0.0672 0.1234 0.1802 0.2052 0.2755
3.551975 0.3088 0.3273 0.3510 0.3616 0.3734
3.586130 0.3932 0.4022 0.4121 0.4191 0.4240
3.620285 0.4260 0.4260 0.4260 0.4260 0.4240
3.654440 0.4187 0.4147 0.4098 0.4065 0.3974
3.688595 0.3876 0.3805 0.3704 0.3587 0.3529
3.722750 0.3501 0.3500 0.3519 0.3530 0.3587
3.756905 0.3666 0.3756 0.3855 0.3945 0.3978
3.791060 0.4021 0.4081 0.4171 0.4290 0.4380
3.825215 0.4450 0.4500 0.4510 0.4599 0.4620
3.859370 0.4675 0.4770 0.4773 0.4841 0.4872
3.893525 0.4913 0.4981 0.5012 0.5064 0.5172
3.927680 0.5218 0.5239 0.5287 0.5337 0.5359
3.961835 0.5369 0.5408 0.5419 0.5476 0.5489
3.995990 0.5510 0.5530 0.5540 0.5560 0.5600
4.030145 0.5600 0.5610 0.5610 0.5669 0.5748
4.064300 0.5802 0.5852 0.5891 0.5921 0.5962
4.098455 0.6012 0.6061 0.6091 0.6131 0.6160
4.132610 0.6179 0.6199 0.6209 0.6247 0.6250
4.166765 0.6297 0.6319 0.6339 0.6349 0.6350
4.200920 0.6370 0.6370 0.6370 0.6370 0.6370
4.235075 0.6370 0.6370 0.6389 0.6390 0.6390
4.269230 0.6421 0.6441 0.6460 0.6471 0.6491
4.303385 0.6541 0.6580 0.6590 0.6610 0.6610
4.337540 0.6632 0.6662 0.6681 0.6701 0.6711
4.371695 0.6730 0.6730 0.6730 0.6731 0.6750
4.405850 0.6750 0.6750 0.6760 0.6760 0.6779
4.440005 0.6780 0.6780 0.6799 0.6800 0.6819
4.474160 0.6830 0.6850 0.6850 0.6870 0.6870
4.508315 0.6890 0.6890 0.6900 0.6920 0.6940
4.542470 0.6941 0.6951 0.6970 0.6971 0.6991
4.576625 0.7010 0.7010 0.7011 0.7020 0.7020
4.610780 0.7020 0.7039 0.7040 0.7059 0.7060
4.644935 0.7060 0.7070 0.7070 0.7089 0.7090
4.679090 0.7110 0.7110 0.7110 0.7130 0.7140
4.713245 0.7160 0.7160 0.7180 0.7190 0.7190
4.747400 0.7211 0.7230 0.7231 0.7250 0.7250
4.781555 0.7261 0.7281 0.7300 0.7311 0.7331
4.815710 0.7349 0.7350 0.7350 0.7331 0.7311
4.849865 0.7310 0.7329 0.7330 0.7349 0.7369
4.884020 0.7380 0.7380 0.7400 0.7400 0.7420
4.918175 0.7420 0.7430 0.7430 0.7430 0.7450
4.952330 0.7451 0.7471 0.7490 0.7500 0.7500
4.986485 0.7500 0.7501 0.7520 0.7520 0.7560
5.020640 0.7570 0.7570 0.7589 0.7590 0.7609
5.054795 0.7619 0.7638 0.7658 0.7660 0.7678
5.088950 0.7680 0.7680 0.7689 0.7707 0.7727
5.123105 0.7730 0.7730 0.7738 0.7740 0.7740
5.157260 0.7740 0.7755 0.7760 0.7745 0.7740
5.191415 0.7733 0.7730 0.7694 0.7680 0.7652
5.225570 0.7640 0.7654 0.7673 0.7687 0.7703
5.259725 0.7729 0.7765 0.7780 0.7792 0.7806
5.293880 0.7833 0.7856 0.7894 0.7926 0.7930
5.328035 0.7941 0.7950 0.7960 0.7975 0.7990
5.362190 0.8019 0.8045 0.8059 0.8070 0.8070
5.396345 0.8070 0.8070 0.8078 0.8094 0.8108
5.430500 0.8120 0.8120 0.8127 0.8140 0.8140
5.464655 0.8147 0.8160 0.8160 0.8163 0.8170
5.498810 0.8170 0.8170 0.8175 0.8190 0.8190
5.532965 0.8190 0.8194 0.8210 0.8210 0.8211
5.567120 0.8229 0.8210 0.8210 0.8210 0.8210
5.601275 0.8230 0.8230 0.8230 0.8230 0.8230
5.635430 0.8230 0.8230 0.8239 0.8240 0.8258
5.669585 0.8260 0.8277 0.8280 0.8280 0.8280
5.703740 0.8280 0.8288 0.8290 0.8282 0.8248
5.737895 0.8216 0.8195 0.8167 0.8129 0.8105
5.772050 0.8115 0.8135 0.8140 0.8126 0.8120
5.806205 0.8086 0.8009 0.7940 0.7907 0.7762
5.840360 0.7536 0.7343 0.7113 0.6724 0.6254
5.874515 0.5680 0.5054 0.4133 0.3122 0.2241
5.908670 0.1671 0.1520 0.1567 0.1986 0.2519
5.942825 0.2908 0.3434 0.3982 0.4373 0.4603
5.976980 0.4788 0.4949 0.5000 0.5000 0.4682
6.011135 0.4104 0.3834 0.3546 0.3355 0.3260
6.045290 0.3153 0.3133 0.3263 0.3628 0.4067
6.079445 0.4426 0.4789 0.5089 0.5315 0.5742
6.113600 0.6052 0.6187 0.6230 0.6300 0.6300
6.147755 0.6274 0.6076 0.5586 0.5023 0.4506
6.181910 0.3889 0.3113 0.2271 0.1693 0.1618
6.216065 0.1420 0.1425 0.1503 0.1713 0.1970
6.250220 0.2312 0.2585 0.3024 0.3233 0.3529
6.284375 0.3737 0.4013 0.4164 0.4512 0.4712
6.318530 0.4947 0.5025 0.5122 0.5321 0.5475
6.352685 0.5534 0.5514 0.5510 0.5510 0.5527
6.386840 0.5589 0.5667 0.5770 0.5871 0.6026
6.420995 0.6225 0.6309 0.6320 0.6343 0.6388
6.455150 0.6445 0.6482 0.6504 0.6517 0.6548
6.489305 0.6581 0.6664 0.6733 0.6770 0.6803
6.523460 0.6835 0.6850 0.6836 0.6755 0.6476
6.557615 0.5898 0.5049 0.4442 0.4390 0.4426
6.591770 0.4636 0.5065 0.5487 0.5764 0.5921
6.625925 0.5964 0.6056 0.6169 0.6250 0.6370
6.660080 0.6440 0.6434 0.6420 0.6415 0.6397
6.694235 0.6390 0.6342 0.6165 0.6081 0.5936
6.728390 0.5699 0.5222 0.4854 0.4572 0.3917
6.762545 0.3546 0.3370 0.3121 0.2745 0.2589
6.796700 0.2227 0.1536 0.1081 0.0958 0.0786
6.830855 0.0719 0.0698 0.0650 0.0630 0.0630
6.865010 0.0630 0.0650 0.0650 0.0669 0.0699
6.899165 0.0794 0.0884 0.1046 0.1196 0.1380
6.933320 0.1463 0.1595 0.1742 0.1977 0.2155
6.967475 0.2602 0.2929 0.3283 0.3584 0.3927
7.001630 0.4287 0.4534 0.4673 0.4792 0.4835
7.035785 0.4840 0.4752 0.4706 0.4693 0.4725
7.069940 0.4810 0.4971 0.5125 0.5250 0.5342
7.104095 0.5537 0.5674 0.5731 0.5750 0.5738
7.138250 0.5659 0.5521 0.5431 0.5410 0.5427
7.172405 0.5478 0.5510 0.5494 0.5287 0.4946
7.206560 0.4484 0.4052 0.3873 0.3698 0.3470
7.240715 0.3270 0.3010 0.2682 0.2414 0.2220
7.274870 0.2168 0.2211 0.2321 0.2493 0.2702
7.309025 0.2853 0.2840 0.2762 0.2652 0.2581
7.343180 0.2569 0.2779 0.3380 0.3879 0.4321
7.377335 0.4546 0.4732 0.4879 0.4916 0.4940
7.411490 0.4940 0.4938 0.4914 0.4832 0.4765
7.445645 0.4605 0.4422 0.4139 0.3899 0.3808
7.479800 0.3790 0.3790 0.3893 0.3900 0.3727
7.513955 0.3611 0.3511 0.3482 0.3480 0.3523
7.548110 0.3623 0.3910 0.4110 0.4395 0.4629
7.582265 0.4750 0.4825 0.4879 0.4890 0.4830
7.616420 0.4602 0.4404 0.4081 0.3698 0.3341
7.650575 0.3170 0.3257 0.3472 0.3710 0.3960
7.684730 0.4140 0.4254 0.4354 0.4434 0.4454
7.718885 0.4414 0.4331 0.4238 0.4166 0.4074
7.753040 0.3857 0.3537 0.3123 0.2649 0.2210
7.787195 0.1920 0.1639 0.1364 0.1233 0.1171
7.821350 0.1169 0.1193 0.1240 0.1327 0.1472
7.855505 0.1654 0.1781 0.1902 0.2079 0.2251
7.889660 0.2411 0.2527 0.2674 0.2740 0.2740
7.923815 0.2740 0.2740 0.2740 0.2772 0.2901
7.957970 0.3071 0.3237 0.3305 0.3468 0.3534
7.992125 0.3554 0.3562 0.3519 0.3467 0.3447
8.026280 0.3426 0.3379 0.3224 0.3075 0.2717
8.060435 0.2348 0.2046 0.1884 0.1693 0.1588
8.094590 0.1560 0.1564 0.1688 0.1894 0.2063
8.128745 0.2280 0.2518 0.2725 0.2914 0.3044
8.162900 0.3248 0.3288 0.3440 0.3561 0.3661
8.197055 0.3859 0.3969 0.4173 0.4235 0.4343
8.231210 0.4444 0.4518 0.4588 0.4674 0.4739
8.265365 0.4822 0.4895 0.4933 0.4986 0.5023
8.299520 0.5045 0.5072 0.5095 0.5115 0.5127
8.333675 0.5144 0.5150 0.5164 0.5170 0.5177
8.367830 0.5193 0.5200 0.5181 0.5157 0.5076
8.401985 0.4934 0.4669 0.4484 0.4263 0.3937
8.436140 0.3660 0.3470 0.3335 0.3252 0.3247
8.470295 0.3260 0.3267 0.3283 0.3290 0.3259
8.504450 0.3148 0.3016 0.2916 0.2858 0.2768
8.538605 0.2639 0.2439 0.2131 0.1920 0.1850
8.572760 0.1878 0.2039 0.2282 0.2477 0.2717
8.606915 0.2850 0.2837 0.2744 0.2625 0.2499
8.641070 0.2308 0.2092 0.1883 0.1672 0.1572
8.675225 0.1462 0.1337 0.1278 0.1208 0.1109
8.709380 0.1030 0.0941 0.0920 0.0920 0.0920
8.743535 0.0987 0.1104 0.1241 0.1407 0.1484
8.777690 0.1517 0.1538 0.1575 0.1580 0.1545
8.811845 0.1523 0.1512 0.1518 0.1520 0.1569
8.846000 0.1620 0.1669 0.1742 0.1807 0.1936
8.880155 0.2061 0.2157 0.2254 0.2316 0.2380
8.914310 0.2435 0.2450 0.2416 0.2271 0.2083
8.948465 0.1875 0.1664 0.1495 0.1409 0.1378
8.982620 0.1358 0.1362 0.1387 0.1463 0.1556
9.016775 0.1640 0.1718 0.1830 0.1963 0.2081
9.050930 0.2185 0.2323 0.2468 0.2539 0.2607
9.085085 0.2747 0.2854 0.2908 0.3042 0.3148
9.119240 0.3164 0.3170 0.3166 0.3160 0.3138
9.153395 0.3100 0.3114 0.3150 0.3189 0.3249
9.187550 0.3308 0.3379 0.3458 0.3480 0.3485
9.221705 0.3492 0.3470 0.3472 0.3480 0.3491
9.255860 0.3552 0.3653 0.3715 0.3748 0.3805
9.290015 0.3891 0.3954 0.3990 0.4050 0.4050
9.324170 0.4050 0.4047 0.4017 0.3972 0.3849
9.358325 0.3699 0.3529 0.3499 0.3481 0.3501
9.392480 0.3570 0.3649 0.3718 0.3778 0.3780
9.426635 0.3780 0.3780 0.3764 0.3760 0.3745
9.460790 0.3740 0.3740 0.3725 0.3720 0.3713
9.494945 0.3710 0.3717 0.3748 0.3746 0.3740
9.529100 0.3740 0.3740 0.3740 0.3740 0.3765
9.563255 0.3811 0.3830 0.3836 0.3840 0.3851
9.597410 0.3860 0.3844 0.3819 0.3794 0.3733
9.631565 0.3654 0.3575 0.3500 0.3427 0.3300
9.665720 0.3178 0.3033 0.2857 0.2783 0.2718
9.699875 0.2618 0.2552 0.2540 0.2532 0.2513
9.734030 0.2464 0.2369 0.2186 0.1879 0.1690
9.768185 0.1509 0.1370 0.1271 0.1186 0.1112
9.802340 0.1005 0.0990 0.0995 0.1026 0.1127
9.836495 0.1345 0.1526 0.1617 0.1774 0.1977
9.870650 0.2023 0.2105 0.2205 0.2300 0.2325
9.904805 0.2539 0.2686 0.2744 0.2788 0.2888
9.938960 0.3003 0.3055 0.3162 0.3212 0.3291
9.973115 0.3381 0.3450 0.3520 0.3599 0.3649
10.007270 0.3775 0.3875 0.3927 0.4013 0.4047
10.041425 0.4270 0.4308 0.4319 0.4382 0.4425
10.075580 0.4456 0.4494 0.4558 0.4595 0.4641
10.109735 0.4731 0.4766 0.4786 0.4790 0.4813
10.143890 0.4820 0.4835 0.4840 0.4826 0.4813
10.178045 0.4782 0.4714 0.4662 0.4630 0.4607
10.212200 0.4587 0.4593 0.4600 0.4612 0.4638
10.246355 0.4662 0.4700 0.4750 0.4799 0.4849
10.280510 0.4904 0.4968 0.5016 0.5046 0.5091
10.314665 0.5120 0.5125 0.5150 0.5175 0.5199
10.348820 0.5234 0.5259 0.5283 0.5317 0.5348
10.382975 0.5364 0.5380 0.5427 0.5487 0.5517
10.417130 0.5540 0.5544 0.5560 0.5567 0.5600
10.451285 0.5602 0.5616 0.5650 0.5653 0.5671
10.485440 0.5680 0.5685 0.5732 0.5752 0.5771
10.519595 0.5791 0.5801 0.5821 0.5840 0.5851
10.553750 0.5870 0.5890 0.5920 0.5940 0.5959
10.587905 0.5970 0.5989 0.6009 0.6038 0.6077
10.622060 0.6089 0.6108 0.6110 0.6128 0.6130
10.656215 0.6130 0.6147 0.6159 0.6177 0.6180
10.690370 0.6164 0.6176 0.6180 0.6180 0.6195
10.724525 0.6200 0.6208 0.6210 0.6203 0.6185
10.758680 0.6166 0.6153 0.6136 0.6116 0.6123
10.792835 0.6130 0.6150 0.6173 0.6180 0.6199
10.826990 0.6222 0.6242 0.6268 0.6280 0.6291
10.861145 0.6300 0.6289 0.6280 0.6280 0.6280
10.895300 0.6275 0.6225 0.6165 0.6140 0.6130
10.929455 0.6130 0.6130 0.6139 0.6154 0.6211
10.963610 0.6288 0.6308 0.6328 0.6359 0.6408
10.997765 0.6451 0.6484 0.6521 0.6554 0.6580
11.031920 0.6580 0.6580 0.6580 0.6574 0.6547
11.066075 0.6492 0.6417 0.6332 0.6234 0.6083
11.100230 0.6023 0.5855 0.5703 0.5625 0.5585
11.134385 0.5502 0.5454 0.5420 0.5426 0.5475
11.168540 0.5583 0.5617 0.5690 0.5795 0.5858
11.202695 0.5963 0.6014 0.6092 0.6131 0.6151
11.236850 0.6180 0.6200 0.6200 0.6210 0.6210
11.271005 0.6229 0.6230 0.6278 0.6318 0.6385
11.305160 0.6454 0.6487 0.6570 0.6589 0.6607
11.339315 0.6627 0.6672 0.6702 0.6724 0.6751
11.373470 0.6760 0.6773 0.6793 0.6800 0.6787
11.407625 0.6762 0.6726 0.6680 0.6612 0.6545
11.441780 0.6423 0.6283 0.6082 0.5820 0.5647
11.475935 0.5502 0.5340 0.5165 0.5020 0.4961
11.510090 0.4926 0.4901 0.4881 0.4870 0.4879
11.544245 0.4919 0.4988 0.5070 0.5174 0.5252
11.578400 0.5307 0.5431 0.5564 0.5634 0.5696
11.612555 0.5765 0.5849 0.5870 0.5882 0.5924
11.646710 0.5963 0.5975 0.5990 0.5995 0.6010
11.680865 0.5999 0.5952 0.5914 0.5866 0.5761
11.715020 0.5717 0.5692 0.5647 0.5633 0.5650
11.749175 0.5656 0.5700 0.5702 0.5721 0.5733
11.783330 0.5770 0.5769 0.5744 0.5623 0.5429
11.817485 0.5028 0.4889 0.4583 0.4261 0.3905
11.851640 0.3696 0.3690 0.3757 0.4004 0.4363
11.885795 0.4646 0.4869 0.5033 0.5435 0.5613
11.919950 0.5822 0.5928 0.6059 0.6181 0.6266
11.954105 0.6296 0.6316 0.6360 0.6410 0.6420
11.988260 0.6459 0.6500 0.6518 0.6564 0.6616
12.022415 0.6651 0.6660 0.6674 0.6694 0.6707
12.056570 0.6710 0.6723 0.6730 0.6730 0.6730
12.090725 0.6730 0.6730 0.6700 0.6650 0.6566
12.124880 0.6486 0.6426 0.6372 0.6323 0.6284
12.159035 0.6260 0.6240 0.6240 0.6260 0.6275
12.193190 0.6289 0.6319 0.6376 0.6438 0.6464
12.227345 0.6478 0.6498 0.6510 0.6502 0.6478
12.261500 0.6460 0.6464 0.6470 0.6470 0.6477
12.295655 0.6496 0.6525 0.6575 0.6622 0.6667
12.329810 0.6713 0.6730 0.6730 0.6732 0.6753
12.363965 0.6784 0.6830 0.6832 0.6871 0.6890
12.398120 0.6900 0.6900 0.6890 0.6890 0.6870
12.432275 0.6870 0.6832 0.6821 0.6801 0.6762
12.466430 0.6732 0.6730 0.6712 0.6728 0.6730
12.500585 0.6713 0.6710 0.6744 0.6758 0.6760
12.534740 0.6777 0.6796 0.6800 0.6800 0.6816
12.568895 0.6820 0.6805 0.6800 0.6800 0.6800
12.603050 0.6815 0.6827 0.6830 0.6830 0.6830
12.637205 0.6830 0.6843 0.6863 0.6883 0.6896
12.671360 0.6900 0.6894 0.6890 0.6890 0.6878
12.705515 0.6801 0.6688 0.6624 0.6599 0.6590
12.739670 0.6611 0.6656 0.6690 0.6715 0.6740
12.773825 0.6764 0.6789 0.6809 0.6824 0.6839
12.807980 0.6850 0.6837 0.6820 0.6820 0.6812
12.842135 0.6793 0.6773 0.6739 0.6680 0.6640
12.876290 0.6630 0.6600 0.6558 0.6463 0.6322
12.910445 0.6206 0.6059 0.5945 0.5813 0.5591
12.944600 0.5409 0.5163 0.4819 0.4481 0.4150
12.978755 0.3882 0.3621 0.3424 0.3154 0.3123
13.012910 0.3160 0.3312 0.3489 0.3672 0.3905
13.047065 0.4186 0.4404 0.4633 0.4893 0.4964
13.081220 0.5101 0.5122 0.5220 0.5270 0.5369
13.115375 0.5555 0.5666 0.5727 0.5843 0.5980
13.149530 0.6037 0.6141 0.6205 0.6264 0.6297
13.183685 0.6344 0.6384 0.6416 0.6437 0.6457
13.217840 0.6468 0.6470 0.6486 0.6506 0.6534
13.251995 0.6571 0.6580 0.6588 0.6620 0.6630
13.286150 0.6630 0.6630 0.6636 0.6634 0.6635
13.320305 0.6640 0.6640 0.6640 0.6640 0.6640
13.354460 0.6640 0.6650 0.6660 0.6651 0.6640
13.388615 0.6640 0.6640 0.6640 0.6640 0.6636
13.422770 0.6622 0.6610 0.6599 0.6580 0.6573
13.456925 0.6560 0.6560 0.6554 0.6531 0.6504
13.491080 0.6484 0.6462 0.6429 0.6400 0.6393
13.525235 0.6370 0.6370 0.6366 0.6348 0.6329
13.559390 0.6278 0.6266 0.6253 0.6270 0.6270
13.593545 0.6267 0.6245 0.6205 0.6157 0.6128
13.627700 0.6111 0.6130 0.6130 0.6129 0.6109
13.661855 0.6090 0.6080 0.6060 0.6030 0.6010
13.696010 0.5991 0.5990 0.6029 0.6030 0.5973
13.730165 0.5970 0.5961 0.5924 0.5911 0.5892
13.764320 0.5855 0.5797 0.5755 0.5724 0.5720
13.798475 0.5703 0.5659 0.5634 0.5614 0.5586
13.832630 0.5549 0.5517 0.5495 0.5490 0.5483
13.866785 0.5465 0.5460 0.5446 0.5426 0.5420
13.900940 0.5413 0.5410 0.5410 0.5417 0.5433
13.935095 0.5440 0.5440 0.5452 0.5460 0.5472
13.969250 0.5480 0.5480 0.5486 0.5512 0.5546
14.003405 0.5560 0.5570 0.5580 0.5580 0.5580
14.037560 0.5580 0.5580 0.5580 0.5589 0.5591
14.071715 0.5580 0.5580 0.5580 0.5580 0.5572
14.105870 0.5553 0.5536 0.5523 0.5503 0.5487
14.140025 0.5473 0.5454 0.5418 0.5361 0.5326
14.174180 0.5276 0.5229 0.5179 0.5110 0.5056
14.208335 0.4948 0.4803 0.4637 0.4486 0.4359
14.242490 0.4208 0.4116 0.3908 0.3840 0.3830
14.276645 0.3810 0.3810 0.3829 0.3897 0.3947
14.310800 0.4043 0.4188 0.4347 0.4406 0.4446
14.344955 0.4477 0.4541 0.4610 0.4629 0.4689
14.379110 0.4717 0.4736 0.4740 0.4748 0.4766
14.413265 0.4786 0.4813 0.4851 0.4860 0.4867
14.447420 0.4885 0.4904 0.4932 0.4940 0.4954
14.481575 0.4960 0.4960 0.4973 0.4980 0.4980
14.515730 0.4993 0.5006 0.5010 0.5010 0.5022
14.549885 0.5030 0.5030 0.5041 0.5056 0.5060
14.584040 0.5060 0.5070 0.5080 0.5100 0.5120
14.618195 0.5125 0.5140 0.5159 0.5170 0.5174
14.652350 0.5189 0.5208 0.5228 0.5240 0.5240
14.686505 0.5244 0.5250 0.5257 0.5277 0.5300
14.720660 0.5327 0.5340 0.5346 0.5369 0.5390
14.754815 0.5399 0.5426 0.5440 0.5445 0.5460
14.788970 0.5465 0.5482 0.5494 0.5514 0.5530
14.823125 0.5530 0.5532 0.5540 0.5543 0.5560
14.857280 0.5563 0.5582 0.5600 0.5600 0.5601
14.891435 0.5610 0.5610 0.5611 0.5630 0.5630
14.925590 0.5630 0.5630 0.5630 0.5630 0.5630
14.959745 0.5630 0.5630 0.5649 0.5650 0.5650
14.993900 0.5669 0.5670 0.5670 0.5670 0.5670
15.028055 0.5670 0.5696 0.5717 0.5720 0.5720
15.062210 0.5728 0.5730 0.5730 0.5730 0.5730
15.096365 0.5746 0.5750 0.5750 0.5765 0.5770
15.130520 0.5770 0.5770 0.5770 0.5770 0.5784
15.164675 0.5790 0.5776 0.5770 0.5770 0.5770
15.198830 0.5770 0.5782 0.5778 0.5770 0.5770
15.232985 0.5770 0.5770 0.5770 0.5762 0.5758
15.267140 0.5770 0.5770 0.5770 0.5770 0.5770
15.301295 0.5770 0.5763 0.5756 0.5770 0.5770
15.335450 0.5770 0.5770 0.5770 0.5770 0.5760
15.369605 0.5735 0.5750
##END=
