##TITLE=(4-CHLORO-2-METHYL PHENOXY) ACETIC ACID, MAGNESIUM SALT
##JCAMP-DX=4.24
##DATA TYPE=INFRARED SPECTRUM
##CLASS=COBLENTZ
##ORIGIN=DOW CHEMICAL COMPANY
##OWNER=COBLENTZ SOCIETY
Collection (C) 2018 copyright by the U.S. Secretary of Commerce
on behalf of the United States of America. All rights reserved.
##DATE=Not specified, most likely prior to 1970
##MOLFORM=C18 H16 Cl2 Mg O6
##SOURCE REFERENCE=COBLENTZ NO. 3260
##$NIST ID=B6003260
##$NIST SOURCE=COBLENTZ
##$NIST IMAGE=cob3260
##SPECTROMETER/DATA SYSTEM=Not specified, most likely a prism, grating, or hybrid spectrometer.
##STATE=SOLID (MINERAL OIL MULL)
##PATH LENGTH=
$$SPECTRAL CONTAMINATION DUE TO OIL AROUND 2900 CM^-^1
##SAMPLING PROCEDURE=TRANSMISSION
##RESOLUTION=4
##DATA PROCESSING=DIGITIZED BY NIST FROM HARD COPY
##XUNITS=MICROMETERS
##YUNITS=TRANSMITTANCE
##XFACTOR=1.000000
##YFACTOR=1
##DELTAX=000.006859
##FIRSTX=2.027
##LASTX=15.9173
##FIRSTY=0.781
##MAXX=15.9173
##MINX=2.027
##MAXY=0.902
##MINY=0.046
##NPOINTS=2026
##XYDATA=(X++(Y..Y))
2.027000 0.7810 0.7830 0.7840 0.7840 0.7860
2.061314 0.7880 0.7900 0.7900 0.7910 0.7910
2.096000 0.7910 0.7910 0.7930 0.7950 0.7950
2.130314 0.7960 0.7960 0.7980 0.8000 0.8020
2.165000 0.8020 0.8030 0.8030 0.8030 0.8020
2.199314 0.8020 0.7980 0.7960 0.7950 0.7900
2.233000 0.7830 0.7790 0.7760 0.7760 0.7740
2.267314 0.7740 0.7760 0.7760 0.7780 0.7790
2.302000 0.7810 0.7830 0.7830 0.7840 0.7840
2.336314 0.7860 0.7860 0.7880 0.7900 0.7900
2.370000 0.7910 0.7930 0.7930 0.7950 0.7950
2.404314 0.7960 0.7960 0.7980 0.7980 0.8000
2.439000 0.8020 0.8020 0.8050 0.8070 0.8070
2.473314 0.8080 0.8080 0.8100 0.8120 0.8120
2.508000 0.8120 0.8130 0.8190 0.8200 0.8200
2.542314 0.8200 0.8220 0.8200 0.8200 0.8220
2.576000 0.8240 0.8250 0.8270 0.8290 0.8290
2.610314 0.8270 0.8290 0.8290 0.8310 0.8310
2.645000 0.8310 0.8290 0.8270 0.8290 0.8290
2.679314 0.8270 0.8240 0.8220 0.8190 0.8130
2.713000 0.8070 0.7960 0.7840 0.7710 0.7540
2.747314 0.7330 0.7110 0.6920 0.6630 0.6430
2.782000 0.6090 0.5680 0.5230 0.5050 0.4840
2.816314 0.4550 0.4180 0.4140 0.4160 0.4310
2.851000 0.4470 0.4620 0.4720 0.5540 0.5660
2.885314 0.5760 0.5850 0.5880 0.5880 0.5880
2.919000 0.5880 0.5810 0.5750 0.5690 0.5630
2.953314 0.5540 0.5370 0.5270 0.5230 0.5200
2.988000 0.5110 0.5100 0.5110 0.5220 0.5270
3.022314 0.5350 0.5440 0.5510 0.5590 0.5680
3.056000 0.5760 0.5830 0.5920 0.6000 0.6070
3.090314 0.6120 0.6190 0.6240 0.6310 0.6380
3.125000 0.6450 0.6500 0.6530 0.6580 0.6580
3.159314 0.6600 0.6620 0.6630 0.6650 0.6670
3.194000 0.6670 0.6650 0.6630 0.6600 0.6580
3.228314 0.6550 0.6530 0.6510 0.6500 0.6480
3.262000 0.6480 0.6480 0.6460 0.6450 0.6410
3.296314 0.6260 0.6050 0.5810 0.5400 0.5200
3.331000 0.5000 0.4260 0.3510 0.2470 0.1620
3.365314 0.0980 0.0680 0.0490 0.0460 0.0460
3.399000 0.0470 0.0470 0.0520 0.0680 0.0810
3.433314 0.0970 0.1070 0.1170 0.1220 0.1240
3.468000 0.1330 0.1510 0.1790 0.2180 0.2710
3.502314 0.3340 0.4110 0.5810 0.6390 0.6720
3.537000 0.6960 0.7060 0.7230 0.7400 0.7540
3.571314 0.7620 0.7690 0.7710 0.7740 0.7780
3.605000 0.7790 0.7830 0.7840 0.7840 0.7830
3.639314 0.7830 0.7810 0.7810 0.7830 0.7900
3.674000 0.7930 0.7980 0.8000 0.8000 0.8000
3.708314 0.8020 0.8020 0.8020 0.8020 0.8020
3.742000 0.8030 0.8070 0.8130 0.8170 0.8190
3.776314 0.8190 0.8200 0.8240 0.8250 0.8270
3.811000 0.8290 0.8290 0.8290 0.8290 0.8310
3.845314 0.8310 0.8310 0.8320 0.8320 0.8370
3.879000 0.8390 0.8390 0.8410 0.8440 0.8440
3.913314 0.8480 0.8480 0.8490 0.8490 0.8530
3.948000 0.8540 0.8580 0.8580 0.8580 0.8600
3.982314 0.8630 0.8630 0.8610 0.8630 0.8650
4.017000 0.8650 0.8660 0.8660 0.8660 0.8680
4.051314 0.8680 0.8700 0.8700 0.8720 0.8720
4.085000 0.8720 0.8720 0.8730 0.8720 0.8720
4.119314 0.8720 0.8720 0.8720 0.8720 0.8720
4.154000 0.8730 0.8730 0.8730 0.8720 0.8700
4.188314 0.8680 0.8650 0.8610 0.8580 0.8580
4.222000 0.8580 0.8580 0.8580 0.8600 0.8610
4.256314 0.8630 0.8680 0.8700 0.8720 0.8730
4.291000 0.8770 0.8770 0.8780 0.8780 0.8800
4.325314 0.8800 0.8800 0.8800 0.8800 0.8820
4.360000 0.8820 0.8820 0.8820 0.8820 0.8800
4.394314 0.8800 0.8800 0.8800 0.8800 0.8800
4.428000 0.8800 0.8820 0.8820 0.8830 0.8830
4.462314 0.8870 0.8870 0.8870 0.8870 0.8870
4.497000 0.8870 0.8850 0.8850 0.8850 0.8890
4.531314 0.8890 0.8890 0.8890 0.8890 0.8850
4.565000 0.8850 0.8870 0.8890 0.8890 0.8890
4.599314 0.8890 0.8890 0.8870 0.8890 0.8890
4.634000 0.8890 0.8890 0.8890 0.8890 0.8900
4.668314 0.8900 0.8900 0.8900 0.8900 0.8900
4.703000 0.8890 0.8890 0.8890 0.8870 0.8870
4.737314 0.8870 0.8850 0.8850 0.8850 0.8870
4.771000 0.8890 0.8900 0.8920 0.8940 0.8940
4.805314 0.8950 0.8950 0.8950 0.8950 0.8970
4.840000 0.8970 0.8970 0.8970 0.8950 0.8950
4.874314 0.8950 0.8970 0.8970 0.8990 0.8990
4.908000 0.8990 0.8990 0.8950 0.8970 0.8970
4.942314 0.8970 0.8990 0.9010 0.9020 0.9020
4.977000 0.9020 0.8970 0.8950 0.8940 0.8940
5.011314 0.8940 0.8950 0.8970 0.8990 0.8990
5.046000 0.8990 0.9010 0.9010 0.9010 0.9010
5.080314 0.9020 0.9020 0.9010 0.9010 0.8990
5.114000 0.8970 0.8950 0.8950 0.8970 0.9010
5.148314 0.9010 0.9010 0.9010 0.9010 0.9010
5.183000 0.9010 0.8990 0.8990 0.8970 0.8970
5.217314 0.8970 0.8970 0.8990 0.9010 0.9010
5.251000 0.9010 0.9010 0.8990 0.8970 0.8950
5.285314 0.8950 0.8950 0.8950 0.8950 0.8950
5.320000 0.8990 0.8970 0.8970 0.8950 0.8950
5.354314 0.8990 0.8990 0.8990 0.8970 0.8950
5.389000 0.8920 0.8900 0.8890 0.8800 0.8750
5.423314 0.8750 0.8770 0.8820 0.8850 0.8890
5.457000 0.8900 0.8920 0.8940 0.8970 0.8970
5.491314 0.8970 0.8950 0.8940 0.8900 0.8870
5.526000 0.8870 0.8850 0.8850 0.8850 0.8850
5.560314 0.8890 0.8890 0.8890 0.8890 0.8890
5.594000 0.8890 0.8850 0.8780 0.8770 0.8750
5.628314 0.8720 0.8680 0.8660 0.8630 0.8600
5.663000 0.8560 0.8540 0.8510 0.8510 0.8510
5.697314 0.8490 0.8480 0.8480 0.8460 0.8440
5.732000 0.8430 0.8410 0.8390 0.8370 0.8360
5.766314 0.8320 0.8320 0.8290 0.8290 0.8240
5.800000 0.8200 0.8100 0.8070 0.8020 0.7950
5.834314 0.7840 0.7740 0.7620 0.7490 0.7330
5.869000 0.7180 0.6960 0.6740 0.6510 0.6290
5.903314 0.6070 0.5830 0.5610 0.5400 0.5180
5.937000 0.5080 0.4980 0.4760 0.4550 0.4360
5.971314 0.4160 0.3990 0.3800 0.3630 0.3460
6.006000 0.3310 0.3170 0.3020 0.2950 0.2740
6.040314 0.2570 0.2400 0.2230 0.2060 0.1890
6.074000 0.1770 0.1650 0.1580 0.1550 0.1510
6.108314 0.1480 0.1410 0.1310 0.1170 0.1050
6.143000 0.0950 0.0870 0.0780 0.0760 0.0760
6.177314 0.0780 0.0980 0.1120 0.1330 0.1450
6.212000 0.1510 0.1530 0.1550 0.1580 0.1550
6.246314 0.1510 0.1480 0.1430 0.1380 0.1260
6.280000 0.1140 0.1000 0.0930 0.0920 0.0920
6.314314 0.0980 0.1210 0.1410 0.1720 0.2010
6.349000 0.2370 0.2610 0.2930 0.3200 0.3410
6.383314 0.3660 0.3970 0.4280 0.4590 0.4860
6.417000 0.5320 0.5440 0.5490 0.5580 0.5610
6.451314 0.5710 0.5830 0.5930 0.6040 0.6170
6.486000 0.6270 0.6360 0.6390 0.6450 0.6500
6.520314 0.6530 0.6530 0.6560 0.6550 0.6530
6.555000 0.6500 0.6450 0.6380 0.6310 0.6240
6.589314 0.6100 0.5930 0.5680 0.5390 0.5050
6.623000 0.4820 0.4600 0.4160 0.3700 0.3150
6.657314 0.2690 0.2180 0.1890 0.1510 0.1220
6.692000 0.1210 0.1270 0.1600 0.1990 0.2300
6.726314 0.2570 0.2760 0.2910 0.2980 0.2980
6.760000 0.2900 0.2690 0.2470 0.2180 0.1870
6.794314 0.1550 0.1290 0.1100 0.0970 0.0880
6.829000 0.0870 0.0880 0.0970 0.1050 0.1240
6.863314 0.1360 0.1550 0.1670 0.1790 0.1890
6.898000 0.1990 0.1990 0.1990 0.1890 0.1680
6.932314 0.1530 0.1330 0.1100 0.1020 0.1020
6.966000 0.1100 0.1450 0.1620 0.2060 0.2350
7.000314 0.2660 0.2980 0.3320 0.3650 0.3970
7.035000 0.4240 0.4480 0.4650 0.4740 0.4810
7.069314 0.4890 0.5000 0.5080 0.5100 0.5110
7.103000 0.5170 0.5180 0.5220 0.5300 0.5440
7.137314 0.5580 0.5750 0.5870 0.5880 0.5920
7.172000 0.5900 0.5830 0.5680 0.5470 0.5270
7.206314 0.5050 0.4960 0.4880 0.4720 0.4500
7.241000 0.4480 0.4500 0.4690 0.4930 0.5390
7.275314 0.5580 0.5750 0.5870 0.5980 0.6040
7.309000 0.6160 0.6260 0.6340 0.6410 0.6480
7.343314 0.6480 0.6480 0.6390 0.6240 0.6100
7.378000 0.6040 0.5930 0.5640 0.5050 0.4860
7.412314 0.4650 0.4210 0.4190 0.3820 0.3800
7.446000 0.3800 0.3900 0.4470 0.4910 0.5580
7.480314 0.5780 0.5930 0.6040 0.6170 0.6330
7.515000 0.6450 0.6500 0.6600 0.6620 0.6670
7.549314 0.6680 0.6680 0.6670 0.6600 0.6560
7.584000 0.6510 0.6310 0.6140 0.5850 0.5460
7.618314 0.5350 0.5130 0.4890 0.4300 0.3900
7.652000 0.3560 0.3360 0.3100 0.2900 0.2860
7.686314 0.2860 0.3080 0.3650 0.4070 0.4550
7.721000 0.4910 0.5730 0.5970 0.6140 0.6240
7.755314 0.6310 0.6330 0.6330 0.6310 0.6260
7.789000 0.6240 0.6120 0.6020 0.5970 0.5900
7.823314 0.5810 0.5710 0.5540 0.5290 0.5110
7.858000 0.4940 0.4590 0.4350 0.4070 0.4010
7.892314 0.3990 0.4090 0.4360 0.4590 0.4840
7.927000 0.5130 0.5250 0.5320 0.5370 0.5370
7.961314 0.5370 0.5320 0.5270 0.5220 0.5170
7.995000 0.5100 0.5050 0.5000 0.4840 0.4620
8.029314 0.4530 0.4410 0.4260 0.4090 0.3890
8.064000 0.3660 0.3390 0.3100 0.2780 0.2570
8.098314 0.2370 0.2320 0.2280 0.2280 0.2420
8.132000 0.2950 0.3460 0.3950 0.4430 0.4880
8.166314 0.5640 0.5950 0.6210 0.6310 0.6560
8.201000 0.6790 0.6910 0.7030 0.7080 0.7130
8.235314 0.7180 0.7210 0.7260 0.7260 0.7230
8.269000 0.7210 0.7150 0.7030 0.6940 0.6680
8.303314 0.6390 0.6190 0.5920 0.5520 0.5270
8.338000 0.5000 0.4410 0.3800 0.3150 0.2550
8.372314 0.1990 0.1510 0.1410 0.1360 0.1330
8.407000 0.1410 0.2040 0.2330 0.2780 0.3130
8.441314 0.3440 0.3720 0.3950 0.4180 0.4380
8.475000 0.4600 0.4820 0.5230 0.5440 0.5660
8.509314 0.5850 0.6040 0.6220 0.6390 0.6530
8.544000 0.6630 0.6740 0.6800 0.6890 0.6940
8.578314 0.6990 0.6990 0.7010 0.7030 0.7010
8.612000 0.6960 0.6910 0.6820 0.6700 0.6530
8.646314 0.6340 0.6160 0.5930 0.5730 0.5540
8.681000 0.5400 0.5270 0.5150 0.5010 0.4960
8.715314 0.4890 0.4760 0.4500 0.4300 0.4010
8.750000 0.3630 0.3320 0.3080 0.2810 0.2730
8.784314 0.2710 0.2960 0.3100 0.3510 0.3830
8.818000 0.4240 0.4650 0.5350 0.5640 0.5900
8.852314 0.6100 0.6240 0.6340 0.6390 0.6430
8.887000 0.6480 0.6480 0.6480 0.6430 0.6390
8.921314 0.6380 0.6380 0.6380 0.6390 0.6460
8.955000 0.6580 0.6680 0.6770 0.6870 0.6990
8.989314 0.7130 0.7280 0.7380 0.7490 0.7570
9.024000 0.7620 0.7640 0.7620 0.7620 0.7590
9.058314 0.7570 0.7520 0.7490 0.7450 0.7450
9.093000 0.7440 0.7420 0.7420 0.7440 0.7520
9.127314 0.7590 0.7660 0.7670 0.7710 0.7730
9.161000 0.7760 0.7760 0.7780 0.7780 0.7780
9.195314 0.7780 0.7780 0.7760 0.7690 0.7670
9.230000 0.7660 0.7610 0.7540 0.7490 0.7440
9.264314 0.7330 0.7230 0.7110 0.6990 0.6860
9.298000 0.6740 0.6600 0.6480 0.6360 0.6220
9.332314 0.6090 0.5950 0.5810 0.5660 0.5510
9.367000 0.5350 0.5180 0.5100 0.5000 0.4820
9.401314 0.4620 0.4410 0.4210 0.3970 0.3890
9.436000 0.3820 0.3770 0.3730 0.3730 0.3800
9.470314 0.3970 0.4140 0.4350 0.4550 0.4740
9.504000 0.4960 0.5230 0.5350 0.5470 0.5540
9.538314 0.5610 0.5680 0.5710 0.5780 0.5830
9.573000 0.5880 0.5920 0.5970 0.6050 0.6120
9.607314 0.6210 0.6260 0.6290 0.6340 0.6390
9.641000 0.6450 0.6480 0.6510 0.6560 0.6600
9.675314 0.6620 0.6670 0.6670 0.6670 0.6670
9.710000 0.6670 0.6670 0.6670 0.6680 0.6720
9.744314 0.6800 0.6870 0.6970 0.7040 0.7180
9.779000 0.7300 0.7380 0.7490 0.7550 0.7610
9.813314 0.7660 0.7690 0.7710 0.7710 0.7760
9.847000 0.7780 0.7790 0.7830 0.7860 0.7880
9.881314 0.7900 0.7900 0.7900 0.7900 0.7900
9.916000 0.7880 0.7830 0.7780 0.7710 0.7670
9.950314 0.7570 0.7520 0.7450 0.7380 0.7350
9.984000 0.7300 0.7280 0.7300 0.7420 0.7490
10.018314 0.7550 0.7640 0.7710 0.7760 0.7780
10.053000 0.7840 0.7880 0.7960 0.8000 0.8030
10.087314 0.8100 0.8170 0.8190 0.8200 0.8250
10.122000 0.8270 0.8270 0.8290 0.8310 0.8310
10.156314 0.8310 0.8310 0.8320 0.8320 0.8320
10.190000 0.8320 0.8320 0.8360 0.8360 0.8340
10.224314 0.8320 0.8320 0.8310 0.8310 0.8290
10.259000 0.8270 0.8270 0.8250 0.8250 0.8250
10.293314 0.8240 0.8220 0.8190 0.8170 0.8170
10.327000 0.8130 0.8100 0.8080 0.8070 0.8020
10.361314 0.8000 0.7980 0.7980 0.7960 0.7960
10.396000 0.7930 0.7910 0.7880 0.7860 0.7860
10.430314 0.7860 0.7840 0.7840 0.7840 0.7840
10.464000 0.7860 0.7860 0.7860 0.7880 0.7880
10.498314 0.7880 0.7900 0.7910 0.7930 0.7950
10.533000 0.7950 0.7950 0.7950 0.7950 0.7930
10.567314 0.7900 0.7880 0.7860 0.7830 0.7810
10.602000 0.7780 0.7730 0.7660 0.7620 0.7590
10.636314 0.7520 0.7440 0.7350 0.7250 0.7130
10.670000 0.7010 0.6890 0.6750 0.6680 0.6620
10.704314 0.6600 0.6620 0.6650 0.6700 0.6800
10.739000 0.6890 0.6990 0.7130 0.7200 0.7350
10.773314 0.7440 0.7500 0.7540 0.7590 0.7660
10.807000 0.7670 0.7690 0.7710 0.7730 0.7760
10.841314 0.7760 0.7780 0.7780 0.7790 0.7810
10.876000 0.7810 0.7860 0.7860 0.7860 0.7880
10.910314 0.7880 0.7880 0.7880 0.7880 0.7900
10.945000 0.7900 0.7900 0.7900 0.7900 0.7910
10.979314 0.7960 0.7960 0.7960 0.7980 0.7980
11.013000 0.7980 0.7960 0.7960 0.7960 0.7960
11.047314 0.7960 0.7960 0.7910 0.7900 0.7880
11.082000 0.7860 0.7860 0.7860 0.7810 0.7790
11.116314 0.7760 0.7760 0.7730 0.7670 0.7660
11.150000 0.7610 0.7570 0.7520 0.7450 0.7370
11.184314 0.7280 0.7130 0.6940 0.6680 0.6510
11.219000 0.6340 0.6160 0.6040 0.5930 0.5810
11.253314 0.5730 0.5680 0.5660 0.5610 0.5540
11.288000 0.5470 0.5320 0.5130 0.5030 0.4930
11.322314 0.4760 0.4590 0.4400 0.4300 0.4300
11.356000 0.4350 0.4570 0.4770 0.4960 0.5340
11.390314 0.5510 0.5610 0.5800 0.5870 0.5950
11.425000 0.6000 0.6050 0.6090 0.6140 0.6210
11.459314 0.6270 0.6360 0.6460 0.6530 0.6600
11.493000 0.6680 0.6750 0.6840 0.6920 0.6990
11.527314 0.7090 0.7180 0.7230 0.7330 0.7380
11.562000 0.7450 0.7520 0.7570 0.7590 0.7610
11.596314 0.7610 0.7640 0.7670 0.7670 0.7670
11.631000 0.7670 0.7690 0.7710 0.7730 0.7740
11.665314 0.7740 0.7740 0.7760 0.7760 0.7760
11.699000 0.7760 0.7760 0.7760 0.7740 0.7740
11.733314 0.7740 0.7740 0.7760 0.7760 0.7740
11.768000 0.7740 0.7740 0.7730 0.7710 0.7690
11.802314 0.7690 0.7670 0.7670 0.7670 0.7670
11.836000 0.7660 0.7660 0.7660 0.7620 0.7590
11.870314 0.7590 0.7570 0.7570 0.7550 0.7550
11.905000 0.7520 0.7500 0.7490 0.7470 0.7450
11.939314 0.7420 0.7380 0.7370 0.7300 0.7280
11.974000 0.7230 0.7200 0.7150 0.7090 0.7060
12.008314 0.6990 0.6940 0.6840 0.6820 0.6750
12.042000 0.6700 0.6670 0.6600 0.6560 0.6500
12.076314 0.6480 0.6460 0.6430 0.6390 0.6380
12.111000 0.6360 0.6360 0.6340 0.6340 0.6340
12.145314 0.6340 0.6340 0.6340 0.6340 0.6360
12.179000 0.6360 0.6360 0.6360 0.6390 0.6390
12.213314 0.6390 0.6380 0.6380 0.6380 0.6360
12.248000 0.6340 0.6290 0.6270 0.6220 0.6190
12.282314 0.6160 0.6100 0.6070 0.5980 0.5970
12.317000 0.5880 0.5810 0.5730 0.5590 0.5580
12.351314 0.5520 0.5440 0.5370 0.5290 0.5220
12.385000 0.5170 0.5060 0.5010 0.4940 0.4910
12.419314 0.4860 0.4770 0.4690 0.4590 0.4520
12.454000 0.4450 0.4360 0.4260 0.4160 0.4060
12.488314 0.3940 0.3830 0.3720 0.3540 0.3390
12.522000 0.3190 0.2930 0.2690 0.2520 0.2330
12.556314 0.2200 0.2160 0.2200 0.2330 0.2500
12.591000 0.2710 0.3290 0.3630 0.3940 0.4300
12.625314 0.4720 0.4890 0.5390 0.5630 0.5750
12.659000 0.5930 0.6020 0.6100 0.6190 0.6260
12.693314 0.6330 0.6380 0.6410 0.6450 0.6460
12.728000 0.6460 0.6480 0.6500 0.6500 0.6550
12.762314 0.6550 0.6550 0.6560 0.6560 0.6560
12.797000 0.6580 0.6580 0.6600 0.6580 0.6580
12.831314 0.6580 0.6580 0.6580 0.6580 0.6560
12.865000 0.6560 0.6550 0.6550 0.6550 0.6500
12.899314 0.6500 0.6480 0.6460 0.6460 0.6450
12.934000 0.6450 0.6390 0.6380 0.6360 0.6330
12.968314 0.6290 0.6240 0.6220 0.6140 0.6140
13.002000 0.6040 0.5950 0.5870 0.5800 0.5710
13.036314 0.5630 0.5520 0.5440 0.5340 0.5230
13.071000 0.5130 0.5030 0.4980 0.4930 0.4840
13.105314 0.4790 0.4700 0.4670 0.4640 0.4600
13.140000 0.4590 0.4590 0.4590 0.4640 0.4670
13.174314 0.4700 0.4740 0.4770 0.4810 0.4880
13.208000 0.4930 0.5000 0.5110 0.5170 0.5180
13.242314 0.5220 0.5250 0.5300 0.5350 0.5370
13.277000 0.5390 0.5400 0.5440 0.5460 0.5460
13.311314 0.5460 0.5460 0.5460 0.5460 0.5470
13.345000 0.5470 0.5490 0.5490 0.5490 0.5490
13.379314 0.5490 0.5490 0.5490 0.5490 0.5470
13.414000 0.5460 0.5460 0.5440 0.5440 0.5440
13.448314 0.5400 0.5400 0.5370 0.5350 0.5300
13.483000 0.5290 0.5270 0.5250 0.5200 0.5180
13.517314 0.5180 0.5170 0.5150 0.5100 0.5060
13.551000 0.5060 0.5030 0.5000 0.5000 0.4960
13.585314 0.4930 0.4930 0.4890 0.4840 0.4770
13.620000 0.4740 0.4690 0.4670 0.4620 0.4590
13.654314 0.4520 0.4480 0.4430 0.4380 0.4330
13.688000 0.4280 0.4230 0.4180 0.4120 0.4060
13.722314 0.4010 0.3940 0.3890 0.3820 0.3730
13.757000 0.3650 0.3580 0.3490 0.3440 0.3390
13.791314 0.3370 0.3310 0.3250 0.3190 0.3150
13.826000 0.3120 0.3100 0.3080 0.3080 0.3080
13.860314 0.3080 0.3080 0.3080 0.3080 0.3100
13.894000 0.3150 0.3190 0.3220 0.3270 0.3310
13.928314 0.3360 0.3390 0.3460 0.3490 0.3540
13.963000 0.3580 0.3600 0.3660 0.3700 0.3720
13.997314 0.3750 0.3780 0.3820 0.3850 0.3870
14.031000 0.3890 0.3940 0.3970 0.3990 0.3990
14.065314 0.4010 0.4040 0.4040 0.4060 0.4070
14.100000 0.4070 0.4090 0.4110 0.4120 0.4120
14.134314 0.4140 0.4140 0.4180 0.4180 0.4190
14.169000 0.4230 0.4260 0.4260 0.4280 0.4300
14.203314 0.4360 0.4380 0.4410 0.4430 0.4450
14.237000 0.4470 0.4470 0.4480 0.4500 0.4520
14.271314 0.4550 0.4570 0.4590 0.4620 0.4650
14.306000 0.4670 0.4690 0.4700 0.4720 0.4740
14.340314 0.4760 0.4770 0.4790 0.4810 0.4860
14.374000 0.4860 0.4880 0.4890 0.4910 0.4930
14.408314 0.4940 0.4960 0.4960 0.4960 0.4980
14.443000 0.4980 0.4980 0.4980 0.5000 0.5000
14.477314 0.5000 0.5010 0.5010 0.5010 0.5030
14.512000 0.5030 0.5050 0.5060 0.5060 0.5080
14.546314 0.5080 0.5080 0.5080 0.5080 0.5080
14.580000 0.5080 0.5080 0.5080 0.5080 0.5080
14.614314 0.5080 0.5080 0.5080 0.5080 0.5080
14.649000 0.5080 0.5060 0.5060 0.5060 0.5060
14.683314 0.5060 0.5060 0.5060 0.5060 0.5060
14.717000 0.5060 0.5060 0.5060 0.5080 0.5080
14.751314 0.5060 0.5060 0.5060 0.5080 0.5060
14.786000 0.5060 0.5050 0.5030 0.5010 0.5010
14.820314 0.5010 0.5000 0.4980 0.4980 0.4960
14.854000 0.4960 0.4940 0.4930 0.4930 0.4910
14.888314 0.4890 0.4880 0.4860 0.4860 0.4820
14.923000 0.4810 0.4790 0.4790 0.4770 0.4760
14.957314 0.4760 0.4740 0.4720 0.4720 0.4700
14.992000 0.4700 0.4690 0.4670 0.4650 0.4640
15.026314 0.4600 0.4590 0.4570 0.4550 0.4520
15.060000 0.4500 0.4480 0.4470 0.4430 0.4400
15.094314 0.4380 0.4350 0.4330 0.4300 0.4280
15.129000 0.4230 0.4210 0.4180 0.4120 0.4110
15.163314 0.4040 0.4020 0.3970 0.3900 0.3850
15.197000 0.3800 0.3730 0.3680 0.3630 0.3580
15.231314 0.3510 0.3440 0.3370 0.3310 0.3220
15.266000 0.3130 0.3030 0.2950 0.2880 0.2810
15.300314 0.2740 0.2670 0.2640 0.2540 0.2500
15.335000 0.2440 0.2400 0.2380 0.2370 0.2330
15.369314 0.2320 0.2300 0.2300 0.2300 0.2320
15.403000 0.2350 0.2380 0.2420 0.2490 0.2540
15.437314 0.2590 0.2620 0.2670 0.2740 0.2790
15.472000 0.2860 0.2930 0.2980 0.3030 0.3080
15.506314 0.3130 0.3170 0.3200 0.3240 0.3270
15.540000 0.3310 0.3340 0.3370 0.3410 0.3440
15.574314 0.3480 0.3490 0.3510 0.3530 0.3560
15.609000 0.3560 0.3560 0.3560 0.3580 0.3580
15.643314 0.3580 0.3600 0.3600 0.3600 0.3600
15.678000 0.3600 0.3600 0.3600 0.3600 0.3600
15.712314 0.3600 0.3600 0.3600 0.3600 0.3600
15.746000 0.3580 0.3580 0.3580 0.3580 0.3580
15.780314 0.3580 0.3560 0.3560 0.3540 0.3540
15.815000 0.3530 0.3510 0.3510 0.3490 0.3490
15.849314 0.3490 0.3490 0.3490 0.3490 0.3510
15.883000 0.3510 0.3530 0.3540 0.3540 0.3560
15.917314 0.3560
##END=
