##TITLE=Aniline, 4-tert-butyl-N-ethyl-
##JCAMP-DX=4.24
$$ By DXEDIT 1.05 (RS McDonald)
##DATA TYPE=INFRARED SPECTRUM
##CLASS=COBLENTZ III
##ORIGIN=MONSANTO (J. FREEMAN)
##OWNER=COBLENTZ SOC.
Collection (C) 2018 copyright by the U.S. Secretary of Commerce
on behalf of the United States of America. All rights reserved.
##DATE=1959/12/02
##NAMES=N-(4-tert-butylphenyl)-N-ethylamine
4-tert-butyl-N-ethylaniline
##MOLFORM=C12 H19 N
##SOURCE REFERENCE=COBLENTZ NO. 08476
##$NIST ID=B6008476
##$NIST SOURCE=COBLENTZ
##$NIST IMAGE=cob8476
##SPECTROMETER/DATA SYSTEM=BECKMAN IR-4 (HYBRID PRISM-GRATING)
##INSTRUMENT PARAMETERS=NaCl PRISM
##STATE=LIQUID (NEAT)
##PATH LENGTH=CAPILLARY
##SAMPLING PROCEDURE=TRANSMISSION
##RESOLUTION=2
##DATA PROCESSING=DIGITIZED BY COBLENTZ SOCIETY (BATCH I) FROM HARD COPY (ADJUSTED \addmicron\0.02um\)
##XUNITS=1/CM
##YUNITS=TRANSMITTANCE
##XLABEL=Wavenumbers (cm-1)
##YLABEL=Transmittance
##XFACTOR=1
##YFACTOR=1
##DELTAX=0.990106
##FIRSTX=3968.25
##LASTX=686.053
##FIRSTY=0.8797
##MAXX=3968.25
##MINX=686.053
##MAXY=0.971223
##MINY=0.0783
##NPOINTS=3316
##XYDATA=(X++(Y..Y))
3968.253968 0.8797 0.8797 0.8798 0.8798 0.8799
3963.303439 0.8800 0.8800 0.8801 0.8802 0.8802
3958.352909 0.8803 0.8803 0.8804 0.8805 0.8805
3953.402380 0.8806 0.8806 0.8807 0.8807 0.8807
3948.451850 0.8808 0.8809 0.8809 0.8810 0.8811
3943.501321 0.8811 0.8812 0.8812 0.8813 0.8814
3938.550792 0.8814 0.8815 0.8816 0.8816 0.8817
3933.600262 0.8818 0.8818 0.8818 0.8818 0.8820
3928.649733 0.8821 0.8821 0.8821 0.8823 0.8823
3923.699203 0.8824 0.8825 0.8825 0.8826 0.8827
3918.748674 0.8827 0.8828 0.8828 0.8829 0.8830
3913.798144 0.8831 0.8832 0.8833 0.8833 0.8834
3908.847615 0.8835 0.8835 0.8836 0.8837 0.8837
3903.897085 0.8838 0.8838 0.8839 0.8840 0.8840
3898.946556 0.8841 0.8842 0.8843 0.8844 0.8844
3893.996026 0.8845 0.8846 0.8847 0.8847 0.8848
3889.045497 0.8849 0.8849 0.8850 0.8851 0.8852
3884.094968 0.8853 0.8854 0.8856 0.8857 0.8857
3879.144438 0.8858 0.8859 0.8860 0.8861 0.8862
3874.193909 0.8863 0.8864 0.8865 0.8866 0.8867
3869.243379 0.8868 0.8868 0.8869 0.8871 0.8871
3864.292850 0.8872 0.8873 0.8874 0.8875 0.8875
3859.342320 0.8876 0.8878 0.8878 0.8879 0.8881
3854.391791 0.8882 0.8883 0.8884 0.8886 0.8888
3849.441261 0.8891 0.8893 0.8896 0.8898 0.8901
3844.490732 0.8903 0.8906 0.8908 0.8911 0.8913
3839.540202 0.8916 0.8919 0.8922 0.8925 0.8927
3834.589673 0.8931 0.8934 0.8937 0.8940 0.8943
3829.639144 0.8945 0.8948 0.8949 0.8950 0.8951
3824.688614 0.8951 0.8952 0.8953 0.8953 0.8954
3819.738085 0.8954 0.8955 0.8955 0.8956 0.8956
3814.787555 0.8957 0.8958 0.8958 0.8959 0.8960
3809.837026 0.8960 0.8961 0.8962 0.8962 0.8963
3804.886496 0.8964 0.8964 0.8965 0.8966 0.8966
3799.935967 0.8967 0.8968 0.8968 0.8968 0.8970
3794.985437 0.8971 0.8971 0.8971 0.8971 0.8973
3790.034908 0.8973 0.8974 0.8974 0.8974 0.8974
3785.084378 0.8973 0.8973 0.8971 0.8971 0.8971
3780.133849 0.8971 0.8970 0.8970 0.8970 0.8968
3775.183320 0.8968 0.8968 0.8968 0.8968 0.8968
3770.232790 0.8967 0.8967 0.8967 0.8966 0.8966
3765.282261 0.8966 0.8965 0.8965 0.8965 0.8964
3760.331731 0.8964 0.8964 0.8963 0.8963 0.8962
3755.381202 0.8961 0.8961 0.8960 0.8960 0.8960
3750.430672 0.8959 0.8959 0.8959 0.8958 0.8958
3745.480143 0.8958 0.8957 0.8957 0.8957 0.8956
3740.529613 0.8956 0.8955 0.8955 0.8954 0.8953
3735.579084 0.8953 0.8953 0.8952 0.8952 0.8952
3730.628554 0.8951 0.8951 0.8951 0.8950 0.8950
3725.678025 0.8950 0.8949 0.8949 0.8948 0.8947
3720.727496 0.8947 0.8946 0.8946 0.8946 0.8945
3715.776966 0.8945 0.8945 0.8945 0.8945 0.8945
3710.826437 0.8945 0.8945 0.8945 0.8946 0.8946
3705.875907 0.8947 0.8947 0.8947 0.8948 0.8948
3700.925378 0.8949 0.8949 0.8950 0.8950 0.8951
3695.974848 0.8952 0.8952 0.8952 0.8953 0.8953
3691.024319 0.8954 0.8954 0.8955 0.8955 0.8956
3686.073789 0.8956 0.8957 0.8958 0.8958 0.8959
3681.123260 0.8959 0.8959 0.8960 0.8960 0.8960
3676.172730 0.8961 0.8961 0.8961 0.8961 0.8961
3671.222201 0.8961 0.8961 0.8961 0.8961 0.8961
3666.271672 0.8961 0.8962 0.8962 0.8962 0.8962
3661.321142 0.8962 0.8962 0.8962 0.8962 0.8962
3656.370613 0.8962 0.8962 0.8962 0.8962 0.8962
3651.420083 0.8962 0.8962 0.8963 0.8963 0.8963
3646.469554 0.8963 0.8963 0.8963 0.8963 0.8963
3641.519024 0.8963 0.8963 0.8962 0.8962 0.8962
3636.568495 0.8961 0.8961 0.8961 0.8960 0.8960
3631.617965 0.8960 0.8960 0.8960 0.8960 0.8959
3626.667436 0.8959 0.8958 0.8958 0.8958 0.8957
3621.716906 0.8957 0.8957 0.8957 0.8957 0.8956
3616.766377 0.8956 0.8956 0.8955 0.8955 0.8954
3611.815848 0.8954 0.8953 0.8952 0.8951 0.8950
3606.865318 0.8949 0.8948 0.8946 0.8945 0.8944
3601.914789 0.8943 0.8942 0.8940 0.8939 0.8938
3596.964259 0.8936 0.8935 0.8934 0.8933 0.8932
3592.013730 0.8931 0.8928 0.8925 0.8921 0.8918
3587.063200 0.8915 0.8912 0.8908 0.8905 0.8901
3582.112671 0.8897 0.8894 0.8890 0.8886 0.8883
3577.162141 0.8878 0.8875 0.8871 0.8868 0.8864
3572.211612 0.8861 0.8857 0.8853 0.8850 0.8846
3567.261082 0.8842 0.8838 0.8833 0.8828 0.8823
3562.310553 0.8817 0.8813 0.8808 0.8803 0.8798
3557.360024 0.8793 0.8788 0.8783 0.8778 0.8774
3552.409494 0.8769 0.8764 0.8759 0.8754 0.8749
3547.458965 0.8743 0.8738 0.8733 0.8727 0.8724
3542.508435 0.8719 0.8714 0.8708 0.8702 0.8696
3537.557906 0.8689 0.8682 0.8675 0.8666 0.8659
3532.607376 0.8651 0.8642 0.8634 0.8625 0.8616
3527.656847 0.8609 0.8600 0.8592 0.8584 0.8575
3522.706317 0.8566 0.8559 0.8551 0.8542 0.8533
3517.755788 0.8525 0.8517 0.8509 0.8501 0.8493
3512.805258 0.8485 0.8477 0.8469 0.8461 0.8453
3507.854729 0.8445 0.8437 0.8429 0.8420 0.8412
3502.904200 0.8403 0.8394 0.8385 0.8374 0.8365
3497.953670 0.8356 0.8346 0.8336 0.8327 0.8317
3493.003141 0.8308 0.8297 0.8280 0.8257 0.8234
3488.052611 0.8210 0.8181 0.8126 0.8048 0.7970
3483.102082 0.7892 0.7822 0.7773 0.7741 0.7709
3478.151552 0.7677 0.7647 0.7620 0.7595 0.7570
3473.201023 0.7545 0.7521 0.7499 0.7478 0.7457
3468.250493 0.7435 0.7416 0.7401 0.7385 0.7370
3463.299964 0.7356 0.7341 0.7325 0.7310 0.7296
3458.349434 0.7281 0.7262 0.7240 0.7219 0.7197
3453.398905 0.7175 0.7134 0.7082 0.7029 0.6977
3448.448376 0.6926 0.6876 0.6827 0.6777 0.6728
3443.497846 0.6680 0.6630 0.6580 0.6532 0.6483
3438.547317 0.6433 0.6384 0.6335 0.6286 0.6237
3433.596787 0.6187 0.6137 0.6088 0.6039 0.5990
3428.646258 0.5940 0.5890 0.5841 0.5791 0.5742
3423.695728 0.5692 0.5643 0.5593 0.5543 0.5493
3418.745199 0.5444 0.5394 0.5344 0.5295 0.5259
3413.794669 0.5233 0.5209 0.5161 0.5153 0.5154
3408.844140 0.5153 0.5152 0.5151 0.5151 0.5151
3403.893610 0.5152 0.5152 0.5152 0.5153 0.5155
3398.943081 0.5156 0.5158 0.5159 0.5186 0.5220
3393.992552 0.5255 0.5290 0.5325 0.5364 0.5403
3389.042022 0.5442 0.5482 0.5521 0.5561 0.5600
3384.091493 0.5639 0.5678 0.5718 0.5757 0.5797
3379.140963 0.5836 0.5876 0.5915 0.5954 0.5994
3374.190434 0.6034 0.6074 0.6113 0.6153 0.6192
3369.239904 0.6232 0.6271 0.6311 0.6351 0.6391
3364.289375 0.6431 0.6469 0.6509 0.6550 0.6590
3359.338845 0.6630 0.6669 0.6709 0.6749 0.6790
3354.388316 0.6830 0.6869 0.6910 0.6950 0.6990
3349.437786 0.7030 0.7070 0.7110 0.7150 0.7191
3344.487257 0.7232 0.7271 0.7311 0.7351 0.7392
3339.536728 0.7433 0.7472 0.7513 0.7555 0.7595
3334.586198 0.7635 0.7676 0.7716 0.7756 0.7798
3329.635669 0.7838 0.7878 0.7919 0.7960 0.8001
3324.685139 0.8041 0.8082 0.8122 0.8164 0.8205
3319.734610 0.8245 0.8283 0.8321 0.8360 0.8397
3314.784080 0.8414 0.8426 0.8438 0.8450 0.8462
3309.833551 0.8472 0.8483 0.8494 0.8504 0.8515
3304.883021 0.8525 0.8535 0.8545 0.8555 0.8565
3299.932492 0.8575 0.8584 0.8594 0.8604 0.8613
3294.981962 0.8622 0.8632 0.8641 0.8651 0.8660
3290.031433 0.8670 0.8679 0.8688 0.8698 0.8707
3285.080904 0.8716 0.8725 0.8734 0.8743 0.8750
3280.130374 0.8757 0.8763 0.8769 0.8775 0.8779
3275.179845 0.8785 0.8790 0.8795 0.8799 0.8802
3270.229315 0.8804 0.8806 0.8808 0.8811 0.8814
3265.278786 0.8816 0.8817 0.8819 0.8822 0.8824
3260.328256 0.8826 0.8830 0.8830 0.8832 0.8834
3255.377727 0.8836 0.8837 0.8837 0.8837 0.8837
3250.427197 0.8838 0.8838 0.8838 0.8838 0.8838
3245.476668 0.8838 0.8838 0.8838 0.8838 0.8839
3240.526138 0.8839 0.8839 0.8839 0.8839 0.8839
3235.575609 0.8839 0.8839 0.8839 0.8837 0.8835
3230.625080 0.8834 0.8832 0.8830 0.8828 0.8826
3225.674550 0.8824 0.8822 0.8821 0.8819 0.8817
3220.724021 0.8816 0.8814 0.8812 0.8810 0.8808
3215.773491 0.8807 0.8805 0.8803 0.8801 0.8799
3210.822962 0.8796 0.8794 0.8792 0.8789 0.8787
3205.872432 0.8784 0.8782 0.8780 0.8777 0.8774
3200.921903 0.8772 0.8770 0.8767 0.8764 0.8762
3195.971373 0.8759 0.8757 0.8754 0.8752 0.8750
3191.020844 0.8747 0.8745 0.8742 0.8740 0.8737
3186.070314 0.8735 0.8732 0.8729 0.8726 0.8724
3181.119785 0.8722 0.8718 0.8714 0.8709 0.8704
3176.169256 0.8699 0.8694 0.8689 0.8684 0.8679
3171.218726 0.8674 0.8669 0.8664 0.8659 0.8654
3166.268197 0.8649 0.8644 0.8639 0.8633 0.8626
3161.317667 0.8620 0.8613 0.8606 0.8598 0.8591
3156.367138 0.8584 0.8577 0.8570 0.8562 0.8555
3151.416608 0.8548 0.8541 0.8534 0.8526 0.8518
3146.466079 0.8510 0.8501 0.8492 0.8483 0.8474
3141.515549 0.8465 0.8456 0.8446 0.8437 0.8427
3136.565020 0.8418 0.8407 0.8396 0.8386 0.8372
3131.614490 0.8355 0.8336 0.8318 0.8289 0.8247
3126.663961 0.8203 0.8158 0.8114 0.8071 0.8029
3121.713432 0.7985 0.7943 0.7901 0.7858 0.7815
3116.762902 0.7771 0.7728 0.7685 0.7644 0.7601
3111.812373 0.7558 0.7514 0.7471 0.7428 0.7384
3106.861843 0.7342 0.7299 0.7255 0.7212 0.7169
3101.911314 0.7126 0.7083 0.7040 0.6997 0.6953
3096.960784 0.6910 0.6866 0.6822 0.6779 0.6736
3092.010255 0.6693 0.6649 0.6606 0.6562 0.6518
3087.059725 0.6474 0.6431 0.6387 0.6344 0.6300
3082.109196 0.6256 0.6213 0.6169 0.6125 0.6081
3077.158666 0.6037 0.5993 0.5949 0.5905 0.5861
3072.208137 0.5817 0.5776 0.5746 0.5716 0.5688
3067.257608 0.5668 0.5663 0.5660 0.5658 0.5655
3062.307078 0.5651 0.5648 0.5645 0.5642 0.5639
3057.356549 0.5636 0.5633 0.5631 0.5629 0.5626
3052.406019 0.5623 0.5620 0.5615 0.5611 0.5606
3047.455490 0.5602 0.5597 0.5593 0.5586 0.5579
3042.504960 0.5571 0.5563 0.5555 0.5547 0.5539
3037.554431 0.5523 0.5480 0.5433 0.5387 0.5350
3032.603901 0.5324 0.5300 0.5275 0.5209 0.5127
3027.653372 0.5045 0.4966 0.4934 0.4909 0.4884
3022.702842 0.4855 0.4819 0.4783 0.4747 0.4690
3017.752313 0.4618 0.4546 0.4474 0.4377 0.4277
3012.801784 0.4177 0.4076 0.3977 0.3877 0.3777
3007.851254 0.3677 0.3576 0.3475 0.3375 0.3275
3002.900725 0.3174 0.3073 0.2972 0.2871 0.2770
2997.950195 0.2669 0.2568 0.2467 0.2366 0.2265
2992.999666 0.2162 0.2061 0.1960 0.1859 0.1756
2988.049136 0.1655 0.1554 0.1452 0.1351 0.1249
2983.098607 0.1146 0.1044 0.0942 0.0839 0.0797
2978.148077 0.0793 0.0789 0.0785 0.0785 0.0784
2973.197548 0.0783 0.0783 0.0783 0.0783 0.0783
2968.247018 0.0783 0.0784 0.0784 0.0785 0.0787
2963.296489 0.0790 0.0789 0.0795 0.0797 0.0800
2958.345960 0.0804 0.0812 0.0820 0.0831 0.0863
2953.395430 0.0909 0.0955 0.0999 0.1045 0.1091
2948.444901 0.1136 0.1182 0.1227 0.1273 0.1318
2943.494371 0.1364 0.1410 0.1456 0.1502 0.1548
2938.543842 0.1594 0.1638 0.1685 0.1730 0.1776
2933.593312 0.1822 0.1868 0.1914 0.1955 0.1977
2928.642783 0.1998 0.2020 0.2029 0.2032 0.2035
2923.692253 0.2039 0.2041 0.2043 0.2044 0.2046
2918.741724 0.2049 0.2052 0.2054 0.2056 0.2058
2913.791194 0.2060 0.2062 0.2065 0.2067 0.2069
2908.840665 0.2071 0.2073 0.2075 0.2078 0.2081
2903.890136 0.2083 0.2086 0.2089 0.2092 0.2095
2898.939606 0.2098 0.2101 0.2105 0.2110 0.2117
2893.989077 0.2123 0.2130 0.2138 0.2145 0.2152
2889.038547 0.2160 0.2168 0.2176 0.2185 0.2194
2884.088018 0.2203 0.2214 0.2228 0.2243 0.2258
2879.137488 0.2272 0.2287 0.2301 0.2318 0.2336
2874.186959 0.2355 0.2373 0.2394 0.2414 0.2455
2869.236429 0.2577 0.2713 0.2854 0.3002 0.3157
2864.285900 0.3311 0.3465 0.3621 0.3776 0.3931
2859.335370 0.4086 0.4242 0.4397 0.4553 0.4709
2854.384841 0.4864 0.5020 0.5176 0.5332 0.5488
2849.434311 0.5645 0.5802 0.5948 0.6060 0.6159
2844.483782 0.6252 0.6322 0.6372 0.6419 0.6462
2839.533253 0.6495 0.6528 0.6564 0.6606 0.6647
2834.582723 0.6689 0.6732 0.6773 0.6816 0.6859
2829.632194 0.6901 0.6943 0.6985 0.7028 0.7070
2824.681664 0.7112 0.7155 0.7197 0.7240 0.7282
2819.731135 0.7324 0.7368 0.7410 0.7453 0.7496
2814.780605 0.7537 0.7580 0.7624 0.7667 0.7709
2809.830076 0.7752 0.7795 0.7838 0.7881 0.7924
2804.879546 0.7967 0.8010 0.8054 0.8097 0.8139
2799.929017 0.8182 0.8226 0.8269 0.8313 0.8356
2794.978487 0.8400 0.8443 0.8483 0.8516 0.8549
2790.027958 0.8578 0.8599 0.8617 0.8633 0.8641
2785.077429 0.8647 0.8652 0.8656 0.8660 0.8664
2780.126899 0.8667 0.8669 0.8670 0.8672 0.8675
2775.176370 0.8677 0.8679 0.8682 0.8684 0.8687
2770.225840 0.8688 0.8690 0.8692 0.8694 0.8696
2765.275311 0.8698 0.8700 0.8701 0.8703 0.8705
2760.324781 0.8707 0.8709 0.8711 0.8713 0.8715
2755.374252 0.8716 0.8717 0.8719 0.8722 0.8724
2750.423722 0.8726 0.8729 0.8731 0.8734 0.8736
2745.473193 0.8739 0.8741 0.8746 0.8751 0.8757
2740.522663 0.8765 0.8775 0.8785 0.8795 0.8805
2735.572134 0.8815 0.8825 0.8834 0.8844 0.8853
2730.621605 0.8862 0.8871 0.8880 0.8889 0.8898
2725.671075 0.8908 0.8916 0.8925 0.8935 0.8943
2720.720546 0.8951 0.8960 0.8969 0.8978 0.8986
2715.770016 0.8994 0.9003 0.9011 0.9019 0.9028
2710.819487 0.9036 0.9044 0.9052 0.9060 0.9068
2705.868957 0.9076 0.9084 0.9093 0.9101 0.9109
2700.918428 0.9117 0.9124 0.9130 0.9136 0.9142
2695.967898 0.9147 0.9153 0.9159 0.9164 0.9169
2691.017369 0.9174 0.9180 0.9184 0.9189 0.9193
2686.066839 0.9198 0.9202 0.9206 0.9210 0.9215
2681.116310 0.9219 0.9223 0.9226 0.9230 0.9235
2676.165781 0.9238 0.9240 0.9243 0.9246 0.9248
2671.215251 0.9251 0.9252 0.9253 0.9254 0.9255
2666.264722 0.9255 0.9256 0.9257 0.9258 0.9259
2661.314192 0.9260 0.9261 0.9261 0.9262 0.9262
2656.363663 0.9262 0.9263 0.9264 0.9264 0.9264
2651.413133 0.9264 0.9264 0.9264 0.9263 0.9261
2646.462604 0.9259 0.9255 0.9249 0.9242 0.9235
2641.512074 0.9227 0.9219 0.9211 0.9202 0.9192
2636.561545 0.9183 0.9173 0.9164 0.9154 0.9144
2631.611015 0.9136 0.9130 0.9126 0.9122 0.9119
2626.660486 0.9117 0.9115 0.9112 0.9110 0.9107
2621.709957 0.9105 0.9102 0.9100 0.9098 0.9096
2616.759427 0.9095 0.9094 0.9093 0.9092 0.9091
2611.808898 0.9090 0.9090 0.9090 0.9089 0.9089
2606.858368 0.9089 0.9088 0.9087 0.9087 0.9086
2601.907839 0.9086 0.9086 0.9088 0.9090 0.9092
2596.957309 0.9094 0.9097 0.9099 0.9102 0.9104
2592.006780 0.9107 0.9109 0.9112 0.9115 0.9119
2587.056250 0.9124 0.9129 0.9135 0.9141 0.9147
2582.105721 0.9153 0.9159 0.9165 0.9170 0.9175
2577.155191 0.9181 0.9188 0.9194 0.9201 0.9209
2572.204662 0.9217 0.9224 0.9232 0.9240 0.9247
2567.254133 0.9255 0.9263 0.9270 0.9278 0.9286
2562.303603 0.9294 0.9302 0.9309 0.9317 0.9324
2557.353074 0.9332 0.9338 0.9345 0.9352 0.9359
2552.402544 0.9365 0.9372 0.9379 0.9385 0.9392
2547.452015 0.9398 0.9405 0.9411 0.9418 0.9424
2542.501485 0.9430 0.9436 0.9442 0.9448 0.9455
2537.550956 0.9461 0.9467 0.9473 0.9479 0.9485
2532.600426 0.9491 0.9497 0.9502 0.9506 0.9510
2527.649897 0.9514 0.9518 0.9522 0.9526 0.9530
2522.699367 0.9534 0.9537 0.9541 0.9544 0.9546
2517.748838 0.9548 0.9551 0.9553 0.9555 0.9557
2512.798309 0.9559 0.9561 0.9562 0.9562 0.9561
2507.847779 0.9559 0.9559 0.9558 0.9557 0.9556
2502.897250 0.9555 0.9554 0.9553 0.9552 0.9551
2497.946720 0.9549 0.9547 0.9545 0.9543 0.9541
2492.996191 0.9538 0.9536 0.9534 0.9531 0.9529
2488.045661 0.9526 0.9524 0.9522 0.9519 0.9517
2483.095132 0.9514 0.9512 0.9510 0.9508 0.9507
2478.144602 0.9505 0.9503 0.9502 0.9501 0.9500
2473.194073 0.9499 0.9497 0.9496 0.9494 0.9493
2468.243543 0.9492 0.9490 0.9489 0.9488 0.9487
2463.293014 0.9485 0.9484 0.9483 0.9482 0.9481
2458.342485 0.9479 0.9478 0.9478 0.9478 0.9477
2453.391955 0.9476 0.9475 0.9475 0.9475 0.9475
2448.441426 0.9474 0.9473 0.9472 0.9471 0.9471
2443.490896 0.9471 0.9470 0.9469 0.9468 0.9468
2438.540367 0.9468 0.9468 0.9468 0.9469 0.9471
2433.589837 0.9472 0.9474 0.9475 0.9477 0.9478
2428.639308 0.9479 0.9481 0.9483 0.9484 0.9486
2423.688778 0.9489 0.9492 0.9496 0.9499 0.9503
2418.738249 0.9507 0.9511 0.9515 0.9518 0.9523
2413.787719 0.9527 0.9531 0.9535 0.9539 0.9543
2408.837190 0.9547 0.9552 0.9557 0.9562 0.9566
2403.886661 0.9571 0.9576 0.9581 0.9587 0.9591
2398.936131 0.9596 0.9600 0.9605 0.9610 0.9615
2393.985602 0.9619 0.9623 0.9627 0.9632 0.9636
2389.035072 0.9641 0.9646 0.9651 0.9655 0.9658
2384.084543 0.9659 0.9660 0.9662 0.9663 0.9664
2379.134013 0.9664 0.9664 0.9662 0.9659 0.9655
2374.183484 0.9650 0.9643 0.9633 0.9623 0.9614
2369.232954 0.9607 0.9601 0.9595 0.9590 0.9586
2364.282425 0.9581 0.9576 0.9571 0.9567 0.9563
2359.331895 0.9558 0.9554 0.9549 0.9544 0.9540
2354.381366 0.9535 0.9532 0.9530 0.9527 0.9525
2349.430837 0.9523 0.9520 0.9517 0.9515 0.9513
2344.480307 0.9511 0.9509 0.9506 0.9504 0.9502
2339.529778 0.9500 0.9497 0.9495 0.9493 0.9491
2334.579248 0.9488 0.9487 0.9485 0.9484 0.9484
2329.628719 0.9484 0.9483 0.9482 0.9481 0.9481
2324.678189 0.9480 0.9479 0.9478 0.9478 0.9478
2319.727660 0.9478 0.9478 0.9477 0.9477 0.9477
2314.777130 0.9478 0.9479 0.9480 0.9481 0.9482
2309.826601 0.9483 0.9484 0.9485 0.9486 0.9486
2304.876071 0.9487 0.9487 0.9488 0.9489 0.9490
2299.925542 0.9491 0.9492 0.9493 0.9494 0.9495
2294.975013 0.9497 0.9499 0.9501 0.9503 0.9506
2290.024483 0.9508 0.9511 0.9514 0.9516 0.9519
2285.073954 0.9522 0.9524 0.9526 0.9529 0.9532
2280.123424 0.9535 0.9539 0.9543 0.9546 0.9550
2275.172895 0.9553 0.9557 0.9561 0.9564 0.9568
2270.222365 0.9571 0.9575 0.9578 0.9581 0.9584
2265.271836 0.9587 0.9590 0.9592 0.9595 0.9598
2260.321306 0.9600 0.9602 0.9603 0.9605 0.9606
2255.370777 0.9607 0.9608 0.9609 0.9609 0.9608
2250.420247 0.9606 0.9602 0.9597 0.9592 0.9588
2245.469718 0.9582 0.9576 0.9570 0.9563 0.9556
2240.519189 0.9549 0.9543 0.9538 0.9535 0.9533
2235.568659 0.9532 0.9530 0.9528 0.9526 0.9524
2230.618130 0.9522 0.9521 0.9521 0.9521 0.9521
2225.667600 0.9521 0.9522 0.9523 0.9524 0.9525
2220.717071 0.9525 0.9526 0.9527 0.9528 0.9528
2215.766541 0.9529 0.9530 0.9531 0.9532 0.9533
2210.816012 0.9533 0.9534 0.9535 0.9536 0.9537
2205.865482 0.9538 0.9539 0.9540 0.9541 0.9542
2200.914953 0.9543 0.9544 0.9545 0.9546 0.9546
2195.964423 0.9545 0.9545 0.9544 0.9544 0.9544
2191.013894 0.9544 0.9543 0.9543 0.9543 0.9543
2186.063365 0.9542 0.9542 0.9542 0.9542 0.9541
2181.112835 0.9539 0.9537 0.9536 0.9534 0.9533
2176.162306 0.9531 0.9529 0.9528 0.9526 0.9524
2171.211776 0.9522 0.9521 0.9519 0.9517 0.9515
2166.261247 0.9514 0.9513 0.9513 0.9511 0.9510
2161.310717 0.9509 0.9508 0.9507 0.9506 0.9505
2156.360188 0.9504 0.9503 0.9502 0.9502 0.9501
2151.409658 0.9501 0.9500 0.9500 0.9499 0.9499
2146.459129 0.9499 0.9498 0.9498 0.9497 0.9497
2141.508599 0.9496 0.9496 0.9495 0.9495 0.9494
2136.558070 0.9494 0.9494 0.9493 0.9492 0.9491
2131.607541 0.9491 0.9490 0.9489 0.9488 0.9487
2126.657011 0.9486 0.9485 0.9484 0.9483 0.9482
2121.706482 0.9481 0.9481 0.9479 0.9478 0.9478
2116.755952 0.9477 0.9475 0.9475 0.9474 0.9473
2111.805423 0.9471 0.9471 0.9471 0.9470 0.9468
2106.854893 0.9468 0.9466 0.9466 0.9465 0.9464
2101.904364 0.9464 0.9464 0.9463 0.9463 0.9462
2096.953834 0.9461 0.9461 0.9460 0.9460 0.9459
2092.003305 0.9459 0.9459 0.9458 0.9458 0.9457
2087.052775 0.9457 0.9456 0.9456 0.9455 0.9454
2082.102246 0.9454 0.9453 0.9453 0.9453 0.9453
2077.151717 0.9452 0.9451 0.9451 0.9450 0.9450
2072.201187 0.9449 0.9449 0.9448 0.9448 0.9448
2067.250658 0.9447 0.9447 0.9446 0.9446 0.9445
2062.300128 0.9444 0.9444 0.9444 0.9444 0.9443
2057.349599 0.9442 0.9442 0.9442 0.9442 0.9441
2052.399069 0.9440 0.9440 0.9439 0.9439 0.9439
2047.448540 0.9439 0.9438 0.9437 0.9437 0.9436
2042.498010 0.9436 0.9436 0.9435 0.9435 0.9434
2037.547481 0.9434 0.9433 0.9433 0.9433 0.9432
2032.596951 0.9432 0.9432 0.9432 0.9432 0.9431
2027.646422 0.9431 0.9431 0.9430 0.9430 0.9430
2022.695893 0.9430 0.9430 0.9428 0.9428 0.9428
2017.745363 0.9428 0.9428 0.9428 0.9428 0.9428
2012.794834 0.9428 0.9428 0.9427 0.9427 0.9427
2007.844304 0.9425 0.9425 0.9425 0.9425 0.9425
2002.893775 0.9425 0.9424 0.9423 0.9421 0.9421
1997.943245 0.9421 0.9421 0.9418 0.9418 0.9418
1992.992716 0.9417 0.9417 0.9416 0.9415 0.9415
1988.042186 0.9413 0.9412 0.9412 0.9411 0.9410
1983.091657 0.9410 0.9409 0.9409 0.9407 0.9406
1978.141127 0.9406 0.9405 0.9404 0.9404 0.9403
1973.190598 0.9402 0.9401 0.9400 0.9400 0.9398
1968.240069 0.9397 0.9397 0.9396 0.9395 0.9394
1963.289539 0.9393 0.9392 0.9392 0.9391 0.9391
1958.339010 0.9389 0.9388 0.9388 0.9391 0.9385
1953.388480 0.9385 0.9384 0.9383 0.9382 0.9381
1948.437951 0.9380 0.9378 0.9378 0.9377 0.9375
1943.487421 0.9375 0.9374 0.9374 0.9373 0.9371
1938.536892 0.9368 0.9367 0.9365 0.9363 0.9362
1933.586362 0.9360 0.9358 0.9355 0.9353 0.9349
1928.635833 0.9343 0.9337 0.9331 0.9324 0.9318
1923.685303 0.9311 0.9304 0.9298 0.9288 0.9276
1918.734774 0.9266 0.9255 0.9244 0.9234 0.9223
1913.784245 0.9210 0.9193 0.9176 0.9157 0.9138
1908.833715 0.9120 0.9101 0.9083 0.9065 0.9048
1903.883186 0.9027 0.9001 0.8973 0.8944 0.8910
1898.932656 0.8869 0.8833 0.8806 0.8779 0.8753
1893.982127 0.8728 0.8699 0.8658 0.8609 0.8556
1889.031597 0.8534 0.8526 0.8524 0.8521 0.8521
1884.081068 0.8523 0.8537 0.8556 0.8576 0.8600
1879.130538 0.8625 0.8649 0.8673 0.8699 0.8724
1874.180009 0.8748 0.8772 0.8795 0.8815 0.8836
1869.229479 0.8856 0.8876 0.8896 0.8916 0.8934
1864.278950 0.8952 0.8967 0.8984 0.9000 0.9016
1859.328421 0.9031 0.9047 0.9063 0.9079 0.9093
1854.377891 0.9106 0.9119 0.9132 0.9145 0.9158
1849.427362 0.9171 0.9183 0.9192 0.9198 0.9204
1844.476832 0.9209 0.9215 0.9221 0.9226 0.9233
1839.526303 0.9239 0.9245 0.9249 0.9252 0.9256
1834.575773 0.9259 0.9263 0.9267 0.9270 0.9273
1829.625244 0.9277 0.9280 0.9284 0.9287 0.9289
1824.674714 0.9317 0.9307 0.9293 0.9294 0.9296
1819.724185 0.9297 0.9298 0.9299 0.9301 0.9302
1814.773655 0.9303 0.9304 0.9305 0.9306 0.9307
1809.823126 0.9308 0.9309 0.9310 0.9311 0.9312
1804.872597 0.9313 0.9314 0.9314 0.9313 0.9312
1799.922067 0.9311 0.9310 0.9309 0.9308 0.9307
1794.971538 0.9306 0.9303 0.9299 0.9295 0.9292
1790.021008 0.9288 0.9281 0.9272 0.9263 0.9254
1785.070479 0.9245 0.9235 0.9224 0.9212 0.9200
1780.119949 0.9189 0.9180 0.9174 0.9169 0.9165
1775.169420 0.9162 0.9175 0.9174 0.9158 0.9157
1770.218890 0.9156 0.9157 0.9159 0.9163 0.9166
1765.268361 0.9170 0.9175 0.9178 0.9182 0.9186
1760.317831 0.9190 0.9194 0.9198 0.9205 0.9215
1755.367302 0.9225 0.9235 0.9245 0.9255 0.9264
1750.416773 0.9274 0.9284 0.9293 0.9303 0.9315
1745.466243 0.9332 0.9349 0.9363 0.9376 0.9386
1740.515714 0.9396 0.9405 0.9411 0.9415 0.9417
1735.565184 0.9422 0.9421 0.9409 0.9404 0.9399
1730.614655 0.9393 0.9386 0.9379 0.9372 0.9365
1725.664125 0.9358 0.9352 0.9346 0.9340 0.9334
1720.713596 0.9328 0.9321 0.9316 0.9310 0.9304
1715.763066 0.9297 0.9289 0.9281 0.9272 0.9263
1710.812537 0.9253 0.9245 0.9236 0.9227 0.9218
1705.862007 0.9208 0.9199 0.9190 0.9180 0.9170
1700.911478 0.9160 0.9150 0.9140 0.9130 0.9120
1695.960949 0.9109 0.9099 0.9088 0.9077 0.9065
1691.010419 0.9054 0.9042 0.9030 0.9019 0.9008
1686.059890 0.8998 0.8987 0.8976 0.8966 0.8956
1681.109360 0.8946 0.8936 0.8925 0.8915 0.8904
1676.158831 0.8894 0.8883 0.8872 0.8862 0.8851
1671.208301 0.8838 0.8819 0.8795 0.8762 0.8711
1666.257772 0.8637 0.8543 0.8463 0.8417 0.8370
1661.307242 0.8320 0.8272 0.8229 0.8185 0.8124
1656.356713 0.8043 0.7960 0.7879 0.7798 0.7716
1651.406183 0.7634 0.7551 0.7470 0.7388 0.7305
1646.455654 0.7223 0.7141 0.7061 0.6979 0.6787
1641.505125 0.6581 0.6374 0.6168 0.5962 0.5755
1636.554595 0.5547 0.5341 0.5133 0.4924 0.4687
1631.604066 0.4388 0.4092 0.3796 0.3499 0.3204
1626.653536 0.2906 0.2609 0.2311 0.2013 0.1715
1621.703007 0.1418 0.1209 0.1133 0.1123 0.1119
1616.752477 0.1120 0.1122 0.1127 0.1186 0.1473
1611.801948 0.1823 0.2175 0.2526 0.2880 0.3233
1606.851418 0.3587 0.3940 0.4295 0.4650 0.5006
1601.900889 0.5361 0.5717 0.6074 0.6430 0.6817
1596.950359 0.6841 0.6847 0.6849 0.6827 0.6779
1591.999830 0.6730 0.6682 0.6638 0.6613 0.6608
1587.049301 0.6623 0.6607 0.6755 0.6852 0.6941
1582.098771 0.7029 0.7119 0.7207 0.7296 0.7386
1577.148242 0.7476 0.7563 0.7665 0.7701 0.7702
1572.197712 0.7695 0.7681 0.7659 0.7634 0.7594
1567.247183 0.7535 0.7470 0.7379 0.7285 0.7200
1562.296653 0.7111 0.7033 0.6979 0.6932 0.6892
1557.346124 0.6855 0.6794 0.6705 0.6609 0.6473
1552.395594 0.6140 0.5800 0.5545 0.5313 0.5082
1547.445065 0.4850 0.4617 0.4385 0.4152 0.3918
1542.494535 0.3685 0.3451 0.3217 0.2982 0.2747
1537.544006 0.2512 0.2277 0.2041 0.1805 0.1568
1532.593477 0.1331 0.1095 0.0929 0.0862 0.0840
1527.642947 0.0829 0.0822 0.0820 0.0820 0.0821
1522.692418 0.0833 0.0852 0.0880 0.0931 0.1051
1517.741888 0.1334 0.1758 0.2220 0.2683 0.3146
1512.791359 0.3610 0.3978 0.4185 0.4293 0.4359
1507.840829 0.4395 0.4415 0.4429 0.4438 0.4446
1502.890300 0.4448 0.4437 0.4416 0.4379 0.4288
1497.939770 0.4087 0.3845 0.3616 0.3386 0.3156
1492.989241 0.2925 0.2695 0.2463 0.2232 0.2048
1488.038711 0.1976 0.1966 0.1965 0.1970 0.1975
1483.088182 0.1987 0.2024 0.2105 0.2209 0.2313
1478.137653 0.2417 0.2521 0.2626 0.2730 0.2834
1473.187123 0.2923 0.2964 0.2967 0.2964 0.2963
1468.236594 0.2963 0.2964 0.2968 0.2974 0.2979
1463.286064 0.2984 0.2989 0.2996 0.3005 0.3015
1458.335535 0.3025 0.3036 0.3056 0.3088 0.3129
1453.385005 0.3189 0.3372 0.3695 0.3949 0.4199
1448.434476 0.4449 0.4699 0.4950 0.5201 0.5452
1443.483946 0.5704 0.5956 0.6208 0.6461 0.6714
1438.533417 0.6967 0.7181 0.7309 0.7447 0.7585
1433.582887 0.7649 0.7692 0.7723 0.7741 0.7749
1428.632358 0.7750 0.7765 0.7763 0.7756 0.7739
1423.681829 0.7716 0.7685 0.7647 0.7583 0.7416
1418.731299 0.7094 0.6823 0.6568 0.6312 0.6055
1413.780770 0.5799 0.5542 0.5315 0.5230 0.5241
1408.830240 0.5290 0.5355 0.5422 0.5485 0.5531
1403.879711 0.5535 0.5521 0.5480 0.5363 0.5225
1398.929181 0.5088 0.4959 0.4889 0.4904 0.4958
1393.978652 0.5018 0.5061 0.5071 0.5067 0.5028
1389.028122 0.4960 0.4892 0.4826 0.4785 0.4782
1384.077593 0.4783 0.4784 0.4779 0.4771 0.4761
1379.127063 0.4750 0.4739 0.4714 0.4684 0.4642
1374.176534 0.4567 0.4294 0.3886 0.3477 0.3067
1369.226005 0.2711 0.2656 0.2667 0.2693 0.3013
1364.275475 0.3375 0.3738 0.4102 0.4465 0.4830
1359.324946 0.5196 0.5562 0.5928 0.6275 0.6441
1354.374416 0.6483 0.6516 0.6525 0.6528 0.6503
1349.423887 0.6423 0.6342 0.6244 0.6117 0.5984
1344.473357 0.5850 0.5716 0.5582 0.5447 0.5313
1339.522828 0.5178 0.5043 0.4917 0.4757 0.4037
1334.572298 0.3537 0.3087 0.2636 0.2184 0.1821
1329.621769 0.1762 0.1785 0.1786 0.1941 0.2157
1324.671239 0.2379 0.2601 0.2823 0.3046 0.3269
1319.720710 0.3492 0.3715 0.3888 0.3933 0.3757
1314.770181 0.3161 0.2458 0.2021 0.1924 0.1923
1309.819651 0.1926 0.1994 0.2180 0.2403 0.2626
1304.869122 0.2849 0.3072 0.3296 0.3520 0.3744
1299.918592 0.3969 0.4195 0.4420 0.4600 0.4644
1294.968063 0.4637 0.4629 0.4612 0.4586 0.4534
1290.017533 0.4428 0.4273 0.4110 0.3970 0.3830
1285.067004 0.3708 0.3632 0.3577 0.3526 0.3474
1280.116474 0.3403 0.3323 0.3247 0.3168 0.3068
1275.165945 0.2812 0.2441 0.2066 0.1809 0.1729
1270.215415 0.1721 0.1714 0.1707 0.1699 0.1687
1265.264886 0.1652 0.1594 0.1527 0.1461 0.1378
1260.314357 0.1255 0.1166 0.1137 0.1107 0.1033
1255.363827 0.0978 0.0976 0.1172 0.1685 0.2288
1250.413298 0.2893 0.3499 0.4106 0.4713 0.5322
1245.462768 0.5784 0.5983 0.6103 0.6263 0.6455
1240.512239 0.6633 0.6803 0.6980 0.7200 0.7412
1235.561709 0.7522 0.7618 0.7688 0.7734 0.7765
1230.611180 0.7793 0.7812 0.7808 0.7811 0.7805
1225.660650 0.7789 0.7771 0.7754 0.7731 0.7698
1220.710121 0.7665 0.7631 0.7584 0.7519 0.7449
1215.759591 0.7365 0.7257 0.7143 0.7017 0.6870
1210.809062 0.6702 0.6513 0.6308 0.6012 0.5608
1205.858533 0.5249 0.4889 0.4531 0.4169 0.3807
1200.908003 0.3447 0.3084 0.2722 0.2358 0.1994
1195.957474 0.1630 0.1307 0.1214 0.1207 0.1284
1191.006944 0.1893 0.3120 0.4385 0.5701 0.6506
1186.056415 0.6843 0.7061 0.7387 0.7488 0.7552
1181.105885 0.7621 0.7660 0.7685 0.7694 0.7694
1176.155356 0.7693 0.7677 0.7635 0.7578 0.7481
1171.204826 0.7353 0.7185 0.7047 0.6945 0.6836
1166.254297 0.6728 0.6622 0.6374 0.6071 0.5767
1161.303767 0.5462 0.5157 0.4851 0.4545 0.4239
1156.353238 0.3931 0.3624 0.3316 0.3007 0.2895
1151.402709 0.2890 0.2890 0.2921 0.3155 0.3532
1146.452179 0.3920 0.4309 0.4698 0.5089 0.5479
1141.501650 0.5869 0.6428 0.6606 0.6748 0.6870
1136.551120 0.6969 0.7044 0.7115 0.7183 0.7243
1131.600591 0.7295 0.7347 0.7391 0.7420 0.7443
1126.650061 0.7450 0.7439 0.7399 0.7336 0.7261
1121.699532 0.7131 0.6957 0.6775 0.6592 0.6409
1116.749002 0.6226 0.6043 0.5884 0.5821 0.5803
1111.798473 0.5832 0.6045 0.6326 0.6608 0.6890
1106.847943 0.7174 0.7566 0.7677 0.7683 0.7689
1101.897414 0.7656 0.7571 0.7465 0.7359 0.7283
1096.946885 0.7255 0.7262 0.7296 0.7364 0.7465
1091.996355 0.7577 0.7691 0.7805 0.7918 0.8031
1087.045826 0.8145 0.8258 0.8372 0.8487 0.8602
1082.095296 0.8716 0.8827 0.8926 0.8955 0.8950
1077.144767 0.8953 0.8943 0.8922 0.8899 0.8880
1072.194237 0.8858 0.8831 0.8789 0.8728 0.8660
1067.243708 0.8582 0.8496 0.8389 0.8230 0.8040
1062.293178 0.7881 0.7741 0.7599 0.7457 0.7344
1057.342649 0.7303 0.7308 0.7316 0.7363 0.7512
1052.392119 0.7788 0.8093 0.8293 0.8421 0.8535
1047.441590 0.8655 0.8775 0.8873 0.8951 0.9016
1042.491061 0.9078 0.9137 0.9193 0.9238 0.9272
1037.540531 0.9294 0.9315 0.9329 0.9310 0.9293
1032.590002 0.9267 0.9240 0.9215 0.9192 0.9167
1027.639472 0.9145 0.9123 0.9108 0.9113 0.9124
1022.688943 0.9142 0.9161 0.9183 0.9204 0.9217
1017.738413 0.9223 0.9223 0.9216 0.9173 0.9119
1012.787884 0.9082 0.9064 0.9072 0.9109 0.9186
1007.837354 0.9282 0.9393 0.9475 0.9536 0.9579
1002.886825 0.9612 0.9634 0.9649 0.9660 0.9659
997.936295 0.9659 0.9651 0.9644 0.9638 0.9633
992.985766 0.9649 0.9662 0.9668 0.9671 0.9660
988.035237 0.9649 0.9640 0.9631 0.9625 0.9621
983.084707 0.9617 0.9613 0.9643 0.9609 0.9606
978.134178 0.9604 0.9604 0.9604 0.9606 0.9608
973.183648 0.9609 0.9611 0.9614 0.9618 0.9621
968.233119 0.9624 0.9623 0.9619 0.9595 0.9573
963.282589 0.9554 0.9540 0.9531 0.9524 0.9516
958.332060 0.9506 0.9493 0.9477 0.9461 0.9442
953.381530 0.9419 0.9395 0.9373 0.9350 0.9326
948.431001 0.9309 0.9295 0.9283 0.9268 0.9248
943.480471 0.9222 0.9193 0.9147 0.9077 0.8995
938.529942 0.8887 0.8734 0.8565 0.8396 0.8226
933.579413 0.8070 0.7985 0.7947 0.7945 0.7992
928.628883 0.8128 0.8294 0.8549 0.8824 0.8979
923.678354 0.9063 0.9126 0.9179 0.9229 0.9276
918.727824 0.9322 0.9362 0.9397 0.9431 0.9464
913.777295 0.9496 0.9526 0.9550 0.9566 0.9579
908.826765 0.9590 0.9598 0.9602 0.9606 0.9608
903.876236 0.9610 0.9614 0.9622 0.9633 0.9649
898.925706 0.9666 0.9672 0.9664 0.9652 0.9640
893.975177 0.9631 0.9624 0.9617 0.9609 0.9603
889.024647 0.9599 0.9594 0.9588 0.9583 0.9578
884.074118 0.9572 0.9565 0.9558 0.9552 0.9546
879.123589 0.9538 0.9530 0.9520 0.9509 0.9498
874.173059 0.9484 0.9466 0.9449 0.9432 0.9416
869.222530 0.9400 0.9383 0.9365 0.9343 0.9313
864.272000 0.9281 0.9238 0.9192 0.9145 0.9104
859.321471 0.9063 0.9021 0.8976 0.8926 0.8875
854.370941 0.8823 0.8765 0.8702 0.8623 0.8547
849.420412 0.8507 0.8481 0.8456 0.8418 0.8368
844.469882 0.8303 0.8219 0.8118 0.7999 0.7843
839.519353 0.7648 0.7502 0.7353 0.7200 0.6967
834.568823 0.6577 0.6273 0.5948 0.5508 0.5014
829.618294 0.4515 0.4277 0.3841 0.3457 0.3097
824.667765 0.2736 0.2374 0.2010 0.1735 0.1460
819.717235 0.1285 0.1195 0.1142 0.1165 0.1182
814.766706 0.1222 0.1326 0.1497 0.1685 0.1960
809.816176 0.2702 0.3133 0.3879 0.4202 0.4479
804.865647 0.4793 0.5057 0.5338 0.5540 0.5803
799.915117 0.6139 0.6489 0.6873 0.7545 0.7935
794.964588 0.8160 0.8366 0.8538 0.8660 0.8765
790.014058 0.8863 0.8935 0.8997 0.9048 0.9090
785.063529 0.9125 0.9152 0.9160 0.9163 0.9155
780.112999 0.9132 0.9071 0.8981 0.8860 0.8709
775.162470 0.8520 0.8348 0.8309 0.8356 0.8434
770.211941 0.8536 0.8644 0.8779 0.8905 0.8989
765.261411 0.9039 0.9074 0.9088 0.9086 0.9070
760.310882 0.9036 0.8987 0.8917 0.8829 0.8733
755.360352 0.8626 0.8511 0.8388 0.8257 0.8120
750.409823 0.7959 0.7781 0.7621 0.7495 0.7369
745.459293 0.7293 0.7311 0.7381 0.7544 0.7745
740.508764 0.8014 0.8296 0.8499 0.8588 0.8620
735.558234 0.8604 0.8520 0.8372 0.8209 0.8090
730.607705 0.8075 0.8246 0.8505 0.8668 0.8826
725.657175 0.8955 0.9059 0.9121 0.9168 0.9214
720.706646 0.9241 0.9250 0.9260 0.9266 0.9269
715.756117 0.9274 0.9278 0.9281 0.9285 0.9288
710.805587 0.9289 0.9283 0.9278 0.9278 0.9278
705.855058 0.9278 0.9280 0.9292 0.9285 0.9289
700.904528 0.9293 0.9298 0.9308 0.9322 0.9336
695.953999 0.9358 0.9380 0.9404 0.9433 0.9465
691.003469 0.9496 0.9529 0.9563 0.9597 0.9651
686.052940 0.9712
##END=
