##TITLE=3Alpha,5Alpha-Cyclo-17Alpha-pregnan-20-one, 6Beta-methoxy-,
##JCAMP-DX=4.24
##DATA TYPE=INFRARED SPECTRUM
##CLASS=COBLENTZ III
##ORIGIN=ABBOTT LABORATORIES
##OWNER=Copyright (C) 1987 by the Coblentz Society
Collection (C) 2018 copyright by the U.S. Secretary of Commerce
on behalf of the United States of America. All rights reserved.
##DATE=1962/03/22
##NAMES=1-(10-methoxy-3a,5a-dimethylhexadecahydrocyclopenta[a]cyclopropa[2,3]cyclopenta[1,2-f]naphthalen-6-yl)ethanone
##MOLFORM=C22 H34 O2
##SOURCE REFERENCE=COBLENTZ NO. 5390
##$NIST ID=B6005390
##$NIST SOURCE=COBLENTZ
##$NIST IMAGE=cob5390
##SPECTROMETER/DATA SYSTEM=PERKIN-ELMER 21 (GRATING)
##INSTRUMENT PARAMETERS=FILTER AT ABOUT 10 MICRONS
$$ SPECTRAL FEATURE AT 992 CM^-^1 IS AN ARTIFACT CAUSED BY FILTER CHANGE
##STATE=SOLUTION 7% (CS2 FOR 7.5-15 microns, AND CCl4 FOR 2.5-7.5 microns)
##PATH LENGTH=0.01 CM
##RESOLUTION=2
##XUNITS=1/CM
##YUNITS=TRANSMITTANCE
##XFACTOR=1.0
##YFACTOR=1
##FIRSTX=650
##LASTX=4000
##FIRSTY=0.9303
##MAXX=4000
##MINX=650
##MAXY=1.0061
##MINY=0.1909
##NPOINTS=3351
##XYDATA=(X++(Y..Y))
650.000000 0.9303 0.9333 0.9361 0.9388 0.9413
655.000000 0.9436 0.9460 0.9477 0.9494 0.9503
660.000000 0.9503 0.9503 0.9502 0.9504 0.9507
665.000000 0.9510 0.9514 0.9519 0.9526 0.9527
670.000000 0.9518 0.9509 0.9498 0.9476 0.9454
675.000000 0.9432 0.9410 0.9389 0.9367 0.9345
680.000000 0.9323 0.9308 0.9307 0.9321 0.9335
685.000000 0.9349 0.9376 0.9403 0.9429 0.9453
690.000000 0.9477 0.9499 0.9518 0.9523 0.9526
695.000000 0.9521 0.9510 0.9499 0.9489 0.9477
700.000000 0.9459 0.9441 0.9424 0.9420 0.9422
705.000000 0.9436 0.9458 0.9476 0.9490 0.9501
710.000000 0.9498 0.9496 0.9494 0.9489 0.9482
715.000000 0.9476 0.9471 0.9468 0.9465 0.9463
720.000000 0.9461 0.9458 0.9457 0.9454 0.9451
725.000000 0.9448 0.9444 0.9441 0.9438 0.9435
730.000000 0.9439 0.9449 0.9463 0.9477 0.9492
735.000000 0.9503 0.9514 0.9518 0.9521 0.9524
740.000000 0.9526 0.9526 0.9526 0.9525 0.9524
745.000000 0.9523 0.9519 0.9515 0.9511 0.9506
750.000000 0.9502 0.9498 0.9494 0.9490 0.9485
755.000000 0.9482 0.9478 0.9476 0.9474 0.9471
760.000000 0.9469 0.9467 0.9466 0.9464 0.9463
765.000000 0.9461 0.9459 0.9454 0.9449 0.9444
770.000000 0.9439 0.9434 0.9429 0.9423 0.9416
775.000000 0.9410 0.9405 0.9399 0.9392 0.9386
780.000000 0.9381 0.9375 0.9368 0.9362 0.9357
785.000000 0.9351 0.9346 0.9401 0.9318 0.9295
790.000000 0.9270 0.9228 0.9186 0.9138 0.9085
795.000000 0.9035 0.9035 0.9041 0.9046 0.9030
800.000000 0.8989 0.8856 0.8681 0.8630 0.8629
805.000000 0.8627 0.8610 0.8591 0.8573 0.8554
810.000000 0.8543 0.8610 0.8710 0.8901 0.9016
815.000000 0.9072 0.9090 0.9100 0.9111 0.9116
820.000000 0.9119 0.9117 0.9093 0.9013 0.8933
825.000000 0.8858 0.8855 0.8863 0.8888 0.8913
830.000000 0.8938 0.8976 0.9018 0.9049 0.9074
835.000000 0.9071 0.9081 0.9040 0.9010 0.8978
840.000000 0.8940 0.8909 0.8875 0.8944 0.8994
845.000000 0.9044 0.9049 0.9045 0.9058 0.8970
850.000000 0.8908 0.8823 0.8707 0.8555 0.8376
855.000000 0.8259 0.8346 0.8434 0.8580 0.8722
860.000000 0.8855 0.8951 0.9017 0.9036 0.9047
865.000000 0.9049 0.9050 0.9050 0.9050 0.9075
870.000000 0.9048 0.9048 0.9046 0.9045 0.9038
875.000000 0.9030 0.9022 0.9005 0.8969 0.8917
880.000000 0.8854 0.8769 0.8673 0.8609 0.8562
885.000000 0.8543 0.8520 0.8554 0.8606 0.8655
890.000000 0.8672 0.8674 0.8685 0.8745 0.8824
895.000000 0.8860 0.8846 0.8854 0.8823 0.8787
900.000000 0.8732 0.8649 0.8550 0.8451 0.8348
905.000000 0.8230 0.8109 0.8083 0.8071 0.8062
910.000000 0.8038 0.7894 0.7731 0.7612 0.7593
915.000000 0.7767 0.7981 0.8153 0.8318 0.8533
920.000000 0.8702 0.8772 0.8793 0.8766 0.8787
925.000000 0.8768 0.8739 0.8697 0.8629 0.8575
930.000000 0.8469 0.8338 0.8206 0.8075 0.7944
935.000000 0.7809 0.7660 0.7600 0.7559 0.7626
940.000000 0.7755 0.7865 0.7927 0.7947 0.7958
945.000000 0.7962 0.7965 0.7968 0.7970 0.7973
950.000000 0.7977 0.7991 0.8017 0.8094 0.8181
955.000000 0.8238 0.8249 0.8240 0.8202 0.8118
960.000000 0.8055 0.8016 0.7993 0.7990 0.7986
965.000000 0.7987 0.7989 0.7998 0.8025 0.8068
970.000000 0.8128 0.8188 0.8215 0.8213 0.8208
975.000000 0.8203 0.8198 0.8195 0.8197 0.8209
980.000000 0.8231 0.8251 0.8270 0.8284 0.8296
985.000000 0.8307 0.8317 0.8326 0.8334 0.8317
990.000000 0.8195 0.7869 0.7763 0.8189 0.8427
995.000000 0.8182 0.7858 0.7696 0.7693 0.7764
1000.000000 0.7865 0.7960 0.7977 0.7965 0.7827
1005.000000 0.7517 0.7207 0.6898 0.6589 0.6281
1010.000000 0.6142 0.6131 0.6547 0.6974 0.7371
1015.000000 0.7569 0.7693 0.7794 0.7898 0.8008
1020.000000 0.8122 0.8228 0.8320 0.8402 0.8451
1025.000000 0.8488 0.8515 0.8528 0.8541 0.8541
1030.000000 0.8541 0.8526 0.8528 0.8516 0.8500
1035.000000 0.8482 0.8464 0.8439 0.8412 0.8385
1040.000000 0.8359 0.8331 0.8303 0.8276 0.8239
1045.000000 0.8200 0.8130 0.8044 0.7943 0.7803
1050.000000 0.7545 0.7524 0.7514 0.7632 0.7737
1055.000000 0.7839 0.7889 0.7889 0.7921 0.7858
1060.000000 0.7805 0.7739 0.7654 0.7396 0.7135
1065.000000 0.6876 0.6616 0.6357 0.6098 0.5865
1070.000000 0.5758 0.5734 0.5729 0.5718 0.5704
1075.000000 0.5674 0.5622 0.5457 0.5041 0.4612
1080.000000 0.4183 0.3756 0.3469 0.3359 0.3273
1085.000000 0.3209 0.3137 0.2984 0.2747 0.2511
1090.000000 0.2275 0.2205 0.2212 0.2829 0.3366
1095.000000 0.3903 0.4439 0.4973 0.5508 0.6019
1100.000000 0.6137 0.6129 0.6100 0.6031 0.5994
1105.000000 0.5998 0.6027 0.6185 0.6375 0.6510
1110.000000 0.6696 0.6892 0.7067 0.7215 0.7321
1115.000000 0.7425 0.7516 0.7605 0.7680 0.7723
1120.000000 0.7733 0.7737 0.7733 0.7728 0.7734
1125.000000 0.7715 0.7705 0.7694 0.7668 0.7634
1130.000000 0.7568 0.7416 0.7207 0.6999 0.6792
1135.000000 0.6619 0.6525 0.6557 0.6564 0.6579
1140.000000 0.6599 0.6618 0.6647 0.6544 0.6473
1145.000000 0.6403 0.6331 0.6263 0.6240 0.6309
1150.000000 0.6408 0.6508 0.6558 0.6571 0.6500
1155.000000 0.6419 0.6338 0.6257 0.6207 0.6207
1160.000000 0.6432 0.6650 0.6853 0.6971 0.7056
1165.000000 0.7122 0.7165 0.7185 0.7200 0.7147
1170.000000 0.7093 0.7008 0.6909 0.6805 0.6698
1175.000000 0.6603 0.6522 0.6481 0.6477 0.6477
1180.000000 0.6477 0.6474 0.6456 0.6419 0.6361
1185.000000 0.6270 0.6108 0.5768 0.5494 0.5430
1190.000000 0.5429 0.5468 0.5591 0.5744 0.5898
1195.000000 0.6050 0.6202 0.6320 0.6305 0.6244
1200.000000 0.6184 0.6186 0.6344 0.6545 0.6727
1205.000000 0.6844 0.6963 0.7051 0.7126 0.7153
1210.000000 0.7142 0.7177 0.7081 0.7021 0.6903
1215.000000 0.6786 0.6668 0.6551 0.6434 0.6318
1220.000000 0.6201 0.6148 0.6137 0.6165 0.6273
1225.000000 0.6354 0.6430 0.6503 0.6569 0.6621
1230.000000 0.6663 0.6704 0.6749 0.6801 0.6852
1235.000000 0.6901 0.6985 0.7127 0.7302 0.7482
1240.000000 0.7576 0.7641 0.7678 0.7687 0.7695
1245.000000 0.7702 0.7707 0.7712 0.7715 0.7717
1250.000000 0.7744 0.7712 0.7699 0.7665 0.7605
1255.000000 0.7527 0.7470 0.7433 0.7425 0.7427
1260.000000 0.7450 0.7483 0.7537 0.7600 0.7668
1265.000000 0.7739 0.7809 0.7877 0.7938 0.7998
1270.000000 0.8051 0.8097 0.8128 0.8141 0.8145
1275.000000 0.8172 0.8087 0.7988 0.7889 0.7790
1280.000000 0.7691 0.7593 0.7494 0.7396 0.7297
1285.000000 0.7272 0.7273 0.7401 0.7591 0.7781
1290.000000 0.7969 0.8110 0.8132 0.8130 0.8143
1295.000000 0.8042 0.7981 0.7921 0.7861 0.7801
1300.000000 0.7742 0.7682 0.7622 0.7562 0.7504
1305.000000 0.7444 0.7384 0.7326 0.7266 0.7207
1310.000000 0.7125 0.6934 0.6795 0.6760 0.6755
1315.000000 0.6767 0.6753 0.6905 0.6946 0.6972
1320.000000 0.6992 0.7002 0.7009 0.7012 0.7010
1325.000000 0.7048 0.6991 0.6964 0.6902 0.6814
1330.000000 0.6677 0.6537 0.6397 0.6258 0.6119
1335.000000 0.5980 0.5841 0.5702 0.5563 0.5425
1340.000000 0.5287 0.5149 0.5055 0.5040 0.5034
1345.000000 0.5047 0.5038 0.5046 0.5101 0.5277
1350.000000 0.5486 0.5694 0.5903 0.6111 0.6319
1355.000000 0.6526 0.6720 0.6796 0.6795 0.6795
1360.000000 0.6792 0.6701 0.6586 0.6551 0.6553
1365.000000 0.6557 0.6564 0.6571 0.6525 0.6407
1370.000000 0.6288 0.6170 0.6052 0.5934 0.5816
1375.000000 0.5726 0.5704 0.5720 0.5864 0.5690
1380.000000 0.6281 0.6490 0.6697 0.6905 0.7112
1385.000000 0.7319 0.7526 0.7732 0.7937 0.8049
1390.000000 0.8082 0.8101 0.8109 0.8112 0.8113
1395.000000 0.8114 0.8110 0.8118 0.8101 0.8096
1400.000000 0.8087 0.8079 0.8068 0.8046 0.8021
1405.000000 0.7989 0.7956 0.7924 0.7894 0.7864
1410.000000 0.7834 0.7803 0.7770 0.7740 0.7721
1415.000000 0.7704 0.7689 0.7678 0.7667 0.7650
1420.000000 0.7616 0.7559 0.7286 0.7108 0.6982
1425.000000 0.6849 0.6779 0.6741 0.6723 0.6705
1430.000000 0.6693 0.6684 0.6677 0.6676 0.6675
1435.000000 0.6654 0.6534 0.6401 0.6268 0.6135
1440.000000 0.6003 0.5893 0.5885 0.5911 0.5883
1445.000000 0.5921 0.6035 0.6154 0.6274 0.6392
1450.000000 0.6511 0.6630 0.6727 0.6728 0.6742
1455.000000 0.6724 0.6678 0.6630 0.6581 0.6533
1460.000000 0.6484 0.6436 0.6388 0.6348 0.6364
1465.000000 0.6343 0.6792 0.7070 0.7347 0.7625
1470.000000 0.7902 0.8140 0.8283 0.8378 0.8459
1475.000000 0.8535 0.8600 0.8668 0.8752 0.8828
1480.000000 0.8886 0.8933 0.8966 0.9000 0.9033
1485.000000 0.9065 0.9093 0.9121 0.9148 0.9175
1490.000000 0.9194 0.9213 0.9233 0.9252 0.9271
1495.000000 0.9290 0.9307 0.9323 0.9340 0.9356
1500.000000 0.9372 0.9388 0.9405 0.9424 0.9444
1505.000000 0.9463 0.9483 0.9502 0.9523 0.9548
1510.000000 0.9573 0.9598 0.9628 0.9665 0.9704
1515.000000 0.9744 0.9778 0.9810 0.9841 0.9872
1520.000000 0.9901 0.9926 0.9952 0.9975 0.9993
1525.000000 1.0009 1.0026 1.0038 1.0046 1.0052
1530.000000 1.0059 1.0061 1.0060 1.0051 1.0058
1535.000000 1.0056 1.0053 1.0047 1.0042 1.0037
1540.000000 1.0028 1.0012 0.9994 0.9976 0.9957
1545.000000 0.9937 0.9917 0.9897 0.9877 0.9861
1550.000000 0.9846 0.9831 0.9817 0.9809 0.9803
1555.000000 0.9796 0.9790 0.9784 0.9779 0.9775
1560.000000 0.9771 0.9767 0.9763 0.9758 0.9755
1565.000000 0.9752 0.9749 0.9747 0.9745 0.9742
1570.000000 0.9740 0.9737 0.9735 0.9730 0.9722
1575.000000 0.9713 0.9704 0.9693 0.9673 0.9650
1580.000000 0.9621 0.9586 0.9537 0.9504 0.9480
1585.000000 0.9458 0.9437 0.9417 0.9402 0.9390
1590.000000 0.9378 0.9366 0.9357 0.9349 0.9342
1595.000000 0.9335 0.9328 0.9321 0.9314 0.9307
1600.000000 0.9300 0.9293 0.9286 0.9280 0.9273
1605.000000 0.9267 0.9261 0.9256 0.9250 0.9244
1610.000000 0.9238 0.9232 0.9226 0.9219 0.9212
1615.000000 0.9205 0.9199 0.9191 0.9184 0.9178
1620.000000 0.9170 0.9163 0.9157 0.9150 0.9143
1625.000000 0.9136 0.9129 0.9121 0.9115 0.9107
1630.000000 0.9100 0.9093 0.9085 0.9076 0.9064
1635.000000 0.9053 0.9042 0.9032 0.9021 0.9005
1640.000000 0.8986 0.8970 0.8955 0.8940 0.8925
1645.000000 0.8909 0.8894 0.8878 0.8861 0.8846
1650.000000 0.8830 0.8814 0.8798 0.8782 0.8766
1655.000000 0.8752 0.8738 0.8724 0.8710 0.8693
1660.000000 0.8678 0.8662 0.8645 0.8629 0.8611
1665.000000 0.8592 0.8572 0.8553 0.8533 0.8512
1670.000000 0.8480 0.8447 0.8411 0.8370 0.8319
1675.000000 0.8262 0.8170 0.8009 0.7823 0.7668
1680.000000 0.7563 0.7470 0.7394 0.7322 0.7249
1685.000000 0.7170 0.7044 0.6753 0.6128 0.5503
1690.000000 0.4879 0.4256 0.3634 0.3012 0.2408
1695.000000 0.1909 0.1909 0.1913 0.1919 0.1967
1700.000000 0.1912 0.2755 0.3261 0.3767 0.4273
1705.000000 0.4778 0.5282 0.5785 0.6288 0.6783
1710.000000 0.7233 0.7348 0.7456 0.7544 0.7618
1715.000000 0.7685 0.7750 0.7811 0.7859 0.7906
1720.000000 0.7953 0.7999 0.8042 0.8080 0.8118
1725.000000 0.8156 0.8194 0.8232 0.8272 0.8318
1730.000000 0.8363 0.8408 0.8454 0.8498 0.8543
1735.000000 0.8588 0.8632 0.8675 0.8717 0.8759
1740.000000 0.8802 0.8843 0.8881 0.8916 0.8950
1745.000000 0.8985 0.9017 0.9041 0.9065 0.9090
1750.000000 0.9114 0.9137 0.9158 0.9171 0.9185
1755.000000 0.9199 0.9214 0.9227 0.9234 0.9240
1760.000000 0.9259 0.9254 0.9261 0.9266 0.9268
1765.000000 0.9270 0.9273 0.9275 0.9277 0.9279
1770.000000 0.9281 0.9283 0.9284 0.9284 0.9285
1775.000000 0.9285 0.9286 0.9286 0.9286 0.9287
1780.000000 0.9287 0.9288 0.9288 0.9288 0.9289
1785.000000 0.9289 0.9289 0.9290 0.9290 0.9290
1790.000000 0.9291 0.9292 0.9293 0.9295 0.9296
1795.000000 0.9298 0.9300 0.9301 0.9303 0.9305
1800.000000 0.9309 0.9317 0.9325 0.9333 0.9342
1805.000000 0.9350 0.9358 0.9365 0.9373 0.9381
1810.000000 0.9388 0.9392 0.9394 0.9397 0.9399
1815.000000 0.9401 0.9404 0.9406 0.9408 0.9409
1820.000000 0.9410 0.9412 0.9412 0.9413 0.9414
1825.000000 0.9415 0.9416 0.9417 0.9418 0.9419
1830.000000 0.9419 0.9420 0.9421 0.9422 0.9423
1835.000000 0.9424 0.9425 0.9426 0.9426 0.9427
1840.000000 0.9428 0.9429 0.9429 0.9430 0.9431
1845.000000 0.9431 0.9431 0.9432 0.9432 0.9432
1850.000000 0.9433 0.9433 0.9434 0.9434 0.9434
1855.000000 0.9435 0.9435 0.9435 0.9436 0.9436
1860.000000 0.9436 0.9437 0.9437 0.9438 0.9439
1865.000000 0.9440 0.9441 0.9441 0.9443 0.9444
1870.000000 0.9445 0.9445 0.9447 0.9446 0.9443
1875.000000 0.9439 0.9436 0.9432 0.9429 0.9425
1880.000000 0.9421 0.9418 0.9414 0.9411 0.9407
1885.000000 0.9404 0.9401 0.9398 0.9396 0.9394
1890.000000 0.9392 0.9390 0.9388 0.9386 0.9385
1895.000000 0.9385 0.9385 0.9384 0.9384 0.9384
1900.000000 0.9383 0.9383 0.9383 0.9383 0.9383
1905.000000 0.9383 0.9383 0.9383 0.9383 0.9383
1910.000000 0.9383 0.9383 0.9383 0.9383 0.9383
1915.000000 0.9382 0.9382 0.9382 0.9382 0.9383
1920.000000 0.9383 0.9383 0.9384 0.9384 0.9384
1925.000000 0.9385 0.9385 0.9386 0.9386 0.9386
1930.000000 0.9387 0.9387 0.9388 0.9388 0.9389
1935.000000 0.9389 0.9389 0.9390 0.9392 0.9392
1940.000000 0.9393 0.9394 0.9395 0.9396 0.9396
1945.000000 0.9398 0.9399 0.9399 0.9401 0.9402
1950.000000 0.9402 0.9404 0.9405 0.9405 0.9406
1955.000000 0.9407 0.9408 0.9409 0.9410 0.9411
1960.000000 0.9412 0.9413 0.9413 0.9415 0.9417
1965.000000 0.9419 0.9421 0.9423 0.9425 0.9426
1970.000000 0.9428 0.9430 0.9431 0.9433 0.9435
1975.000000 0.9437 0.9439 0.9441 0.9443 0.9444
1980.000000 0.9445 0.9446 0.9446 0.9447 0.9448
1985.000000 0.9449 0.9450 0.9451 0.9452 0.9453
1990.000000 0.9453 0.9453 0.9453 0.9453 0.9452
1995.000000 0.9452 0.9451 0.9450 0.9450 0.9449
2000.000000 0.9449 0.9448 0.9447 0.9447 0.9446
2005.000000 0.9445 0.9444 0.9443 0.9443 0.9441
2010.000000 0.9440 0.9440 0.9439 0.9438 0.9437
2015.000000 0.9436 0.9436 0.9432 0.9428 0.9423
2020.000000 0.9418 0.9414 0.9409 0.9405 0.9400
2025.000000 0.9397 0.9396 0.9396 0.9396 0.9396
2030.000000 0.9396 0.9397 0.9397 0.9397 0.9397
2035.000000 0.9397 0.9398 0.9398 0.9398 0.9398
2040.000000 0.9398 0.9399 0.9399 0.9399 0.9399
2045.000000 0.9400 0.9401 0.9401 0.9402 0.9402
2050.000000 0.9403 0.9404 0.9404 0.9405 0.9405
2055.000000 0.9406 0.9406 0.9406 0.9407 0.9407
2060.000000 0.9408 0.9408 0.9410 0.9411 0.9412
2065.000000 0.9413 0.9414 0.9416 0.9418 0.9419
2070.000000 0.9420 0.9421 0.9423 0.9425 0.9426
2075.000000 0.9427 0.9428 0.9429 0.9430 0.9432
2080.000000 0.9434 0.9435 0.9436 0.9438 0.9440
2085.000000 0.9443 0.9446 0.9449 0.9452 0.9455
2090.000000 0.9458 0.9458 0.9458 0.9457 0.9456
2095.000000 0.9456 0.9455 0.9454 0.9453 0.9453
2100.000000 0.9452 0.9451 0.9450 0.9449 0.9449
2105.000000 0.9447 0.9446 0.9444 0.9442 0.9441
2110.000000 0.9439 0.9437 0.9435 0.9433 0.9431
2115.000000 0.9430 0.9428 0.9427 0.9427 0.9427
2120.000000 0.9427 0.9428 0.9428 0.9428 0.9428
2125.000000 0.9429 0.9429 0.9429 0.9430 0.9430
2130.000000 0.9430 0.9430 0.9431 0.9431 0.9432
2135.000000 0.9432 0.9432 0.9433 0.9433 0.9434
2140.000000 0.9435 0.9436 0.9438 0.9440 0.9442
2145.000000 0.9444 0.9446 0.9447 0.9448 0.9448
2150.000000 0.9449 0.9449 0.9450 0.9450 0.9451
2155.000000 0.9451 0.9452 0.9452 0.9453 0.9453
2160.000000 0.9453 0.9454 0.9454 0.9455 0.9455
2165.000000 0.9455 0.9455 0.9456 0.9456 0.9456
2170.000000 0.9456 0.9457 0.9457 0.9457 0.9457
2175.000000 0.9457 0.9458 0.9458 0.9458 0.9458
2180.000000 0.9459 0.9459 0.9459 0.9459 0.9459
2185.000000 0.9459 0.9459 0.9459 0.9458 0.9458
2190.000000 0.9458 0.9458 0.9458 0.9458 0.9458
2195.000000 0.9458 0.9458 0.9458 0.9458 0.9458
2200.000000 0.9458 0.9458 0.9458 0.9458 0.9458
2205.000000 0.9458 0.9458 0.9458 0.9458 0.9458
2210.000000 0.9458 0.9458 0.9458 0.9457 0.9456
2215.000000 0.9455 0.9453 0.9452 0.9451 0.9449
2220.000000 0.9448 0.9446 0.9445 0.9444 0.9443
2225.000000 0.9441 0.9440 0.9439 0.9438 0.9436
2230.000000 0.9434 0.9432 0.9430 0.9428 0.9427
2235.000000 0.9425 0.9423 0.9421 0.9419 0.9417
2240.000000 0.9415 0.9413 0.9411 0.9409 0.9407
2245.000000 0.9405 0.9404 0.9402 0.9400 0.9398
2250.000000 0.9396 0.9394 0.9392 0.9390 0.9388
2255.000000 0.9386 0.9385 0.9383 0.9381 0.9379
2260.000000 0.9377 0.9375 0.9373 0.9372 0.9370
2265.000000 0.9369 0.9368 0.9367 0.9366 0.9365
2270.000000 0.9363 0.9362 0.9361 0.9360 0.9359
2275.000000 0.9358 0.9357 0.9356 0.9356 0.9356
2280.000000 0.9356 0.9356 0.9356 0.9356 0.9355
2285.000000 0.9355 0.9355 0.9355 0.9354 0.9354
2290.000000 0.9354 0.9354 0.9354 0.9354 0.9353
2295.000000 0.9353 0.9353 0.9353 0.9354 0.9354
2300.000000 0.9355 0.9356 0.9356 0.9357 0.9357
2305.000000 0.9358 0.9358 0.9359 0.9360 0.9361
2310.000000 0.9361 0.9362 0.9362 0.9363 0.9363
2315.000000 0.9364 0.9364 0.9365 0.9365 0.9366
2320.000000 0.9367 0.9367 0.9368 0.9368 0.9369
2325.000000 0.9369 0.9370 0.9370 0.9371 0.9371
2330.000000 0.9372 0.9372 0.9372 0.9373 0.9373
2335.000000 0.9374 0.9374 0.9375 0.9375 0.9375
2340.000000 0.9375 0.9376 0.9376 0.9376 0.9377
2345.000000 0.9377 0.9378 0.9378 0.9378 0.9378
2350.000000 0.9379 0.9379 0.9380 0.9380 0.9380
2355.000000 0.9380 0.9380 0.9381 0.9381 0.9382
2360.000000 0.9382 0.9383 0.9384 0.9385 0.9385
2365.000000 0.9385 0.9386 0.9386 0.9387 0.9387
2370.000000 0.9388 0.9389 0.9390 0.9390 0.9390
2375.000000 0.9391 0.9391 0.9392 0.9392 0.9392
2380.000000 0.9392 0.9392 0.9392 0.9392 0.9392
2385.000000 0.9392 0.9392 0.9392 0.9392 0.9392
2390.000000 0.9392 0.9392 0.9392 0.9392 0.9392
2395.000000 0.9392 0.9392 0.9392 0.9392 0.9392
2400.000000 0.9392 0.9392 0.9392 0.9392 0.9393
2405.000000 0.9393 0.9393 0.9393 0.9393 0.9393
2410.000000 0.9393 0.9394 0.9394 0.9394 0.9394
2415.000000 0.9394 0.9395 0.9395 0.9394 0.9394
2420.000000 0.9394 0.9392 0.9391 0.9390 0.9389
2425.000000 0.9388 0.9387 0.9386 0.9385 0.9384
2430.000000 0.9383 0.9382 0.9380 0.9379 0.9377
2435.000000 0.9375 0.9374 0.9372 0.9370 0.9368
2440.000000 0.9365 0.9363 0.9362 0.9360 0.9358
2445.000000 0.9353 0.9349 0.9345 0.9341 0.9337
2450.000000 0.9333 0.9328 0.9323 0.9318 0.9313
2455.000000 0.9308 0.9302 0.9297 0.9291 0.9285
2460.000000 0.9279 0.9274 0.9269 0.9264 0.9260
2465.000000 0.9255 0.9251 0.9247 0.9262 0.9242
2470.000000 0.9240 0.9239 0.9239 0.9238 0.9238
2475.000000 0.9238 0.9237 0.9237 0.9237 0.9237
2480.000000 0.9237 0.9237 0.9237 0.9238 0.9239
2485.000000 0.9239 0.9240 0.9241 0.9242 0.9242
2490.000000 0.9242 0.9244 0.9245 0.9246 0.9248
2495.000000 0.9249 0.9251 0.9252 0.9253 0.9253
2500.000000 0.9253 0.9251 0.9250 0.9249 0.9248
2505.000000 0.9248 0.9245 0.9243 0.9240 0.9238
2510.000000 0.9236 0.9233 0.9231 0.9228 0.9226
2515.000000 0.9223 0.9220 0.9217 0.9214 0.9211
2520.000000 0.9208 0.9205 0.9201 0.9198 0.9194
2525.000000 0.9191 0.9188 0.9185 0.9182 0.9179
2530.000000 0.9176 0.9173 0.9170 0.9167 0.9164
2535.000000 0.9161 0.9158 0.9155 0.9152 0.9149
2540.000000 0.9146 0.9144 0.9141 0.9139 0.9137
2545.000000 0.9134 0.9132 0.9130 0.9127 0.9125
2550.000000 0.9122 0.9120 0.9117 0.9115 0.9113
2555.000000 0.9111 0.9110 0.9108 0.9107 0.9105
2560.000000 0.9104 0.9103 0.9102 0.9100 0.9099
2565.000000 0.9097 0.9096 0.9094 0.9093 0.9092
2570.000000 0.9092 0.9092 0.9092 0.9092 0.9092
2575.000000 0.9093 0.9093 0.9093 0.9093 0.9093
2580.000000 0.9094 0.9094 0.9094 0.9094 0.9094
2585.000000 0.9094 0.9095 0.9095 0.9095 0.9095
2590.000000 0.9095 0.9096 0.9096 0.9097 0.9098
2595.000000 0.9099 0.9099 0.9100 0.9101 0.9102
2600.000000 0.9102 0.9103 0.9104 0.9105 0.9105
2605.000000 0.9106 0.9106 0.9106 0.9106 0.9106
2610.000000 0.9106 0.9106 0.9106 0.9105 0.9103
2615.000000 0.9102 0.9100 0.9098 0.9096 0.9094
2620.000000 0.9092 0.9089 0.9084 0.9078 0.9072
2625.000000 0.9067 0.9061 0.9055 0.9050 0.9044
2630.000000 0.9039 0.9033 0.9027 0.9022 0.9016
2635.000000 0.9011 0.9006 0.9000 0.8995 0.8989
2640.000000 0.8983 0.8978 0.8974 0.8969 0.8964
2645.000000 0.8960 0.8955 0.8951 0.8947 0.8942
2650.000000 0.8938 0.8933 0.8928 0.8924 0.8919
2655.000000 0.8915 0.8911 0.8908 0.8904 0.8901
2660.000000 0.8897 0.8894 0.8891 0.8888 0.8884
2665.000000 0.8881 0.8878 0.8875 0.8872 0.8869
2670.000000 0.8865 0.8862 0.8861 0.8860 0.8858
2675.000000 0.8856 0.8855 0.8853 0.8851 0.8849
2680.000000 0.8848 0.8846 0.8844 0.8843 0.8841
2685.000000 0.8840 0.8838 0.8837 0.8835 0.8833
2690.000000 0.8831 0.8830 0.8828 0.8827 0.8825
2695.000000 0.8824 0.8823 0.8821 0.8820 0.8819
2700.000000 0.8817 0.8816 0.8814 0.8813 0.8812
2705.000000 0.8810 0.8809 0.8808 0.8806 0.8805
2710.000000 0.8804 0.8803 0.8802 0.8801 0.8800
2715.000000 0.8799 0.8798 0.8797 0.8796 0.8795
2720.000000 0.8794 0.8791 0.8788 0.8785 0.8777
2725.000000 0.8768 0.8759 0.8746 0.8731 0.8716
2730.000000 0.8700 0.8683 0.8666 0.8643 0.8619
2735.000000 0.8595 0.8569 0.8543 0.8517 0.8490
2740.000000 0.8461 0.8433 0.8405 0.8378 0.8351
2745.000000 0.8325 0.8300 0.8275 0.8248 0.8221
2750.000000 0.8194 0.8158 0.8120 0.8081 0.8014
2755.000000 0.7934 0.7854 0.7774 0.7693 0.7613
2760.000000 0.7533 0.7454 0.7374 0.7294 0.7215
2765.000000 0.7135 0.7056 0.6976 0.6897 0.6818
2770.000000 0.6739 0.6659 0.6580 0.6501 0.6422
2775.000000 0.6343 0.6265 0.6186 0.6107 0.6028
2780.000000 0.5950 0.5877 0.5841 0.5806 0.5771
2785.000000 0.5745 0.5720 0.5694 0.5653 0.5611
2790.000000 0.5568 0.5523 0.5476 0.5430 0.5376
2795.000000 0.5318 0.5260 0.5191 0.5115 0.5039
2800.000000 0.4966 0.4897 0.4829 0.4766 0.4717
2805.000000 0.4668 0.4623 0.4598 0.4573 0.4547
2810.000000 0.4522 0.4497 0.4471 0.4446 0.4421
2815.000000 0.4395 0.4372 0.4349 0.4327 0.4305
2820.000000 0.4285 0.4264 0.4244 0.4224 0.4204
2825.000000 0.4184 0.4164 0.4144 0.4124 0.4109
2830.000000 0.4094 0.4079 0.4065 0.4051 0.4037
2835.000000 0.4023 0.4009 0.3995 0.3981 0.3967
2840.000000 0.3953 0.3939 0.3923 0.3908 0.3892
2845.000000 0.3875 0.3859 0.3842 0.3824 0.3807
2850.000000 0.3789 0.3766 0.3737 0.3707 0.3665
2855.000000 0.3528 0.3391 0.3254 0.3188 0.3133
2860.000000 0.3078 0.3034 0.2997 0.2961 0.2927
2865.000000 0.2899 0.2871 0.2844 0.2823 0.2801
2870.000000 0.2780 0.2759 0.2739 0.2718 0.2700
2875.000000 0.2685 0.2670 0.2655 0.2639 0.2624
2880.000000 0.2609 0.2599 0.2591 0.2582 0.2576
2885.000000 0.2573 0.2570 0.2567 0.2565 0.2563
2890.000000 0.2561 0.2559 0.2557 0.2555 0.2554
2895.000000 0.2554 0.2553 0.2553 0.2553 0.2554
2900.000000 0.2554 0.2573 0.2557 0.2558 0.2560
2905.000000 0.2563 0.2566 0.2570 0.2642 0.2713
2910.000000 0.2785 0.2859 0.2934 0.3010 0.3085
2915.000000 0.3160 0.3236 0.3311 0.3386 0.3461
2920.000000 0.3536 0.3611 0.3686 0.3761 0.3836
2925.000000 0.3911 0.3986 0.4061 0.4135 0.4210
2930.000000 0.4284 0.4359 0.4433 0.4508 0.4582
2935.000000 0.4657 0.4731 0.4805 0.4879 0.4953
2940.000000 0.5027 0.5101 0.5175 0.5249 0.5323
2945.000000 0.5397 0.5471 0.5544 0.5618 0.5692
2950.000000 0.5765 0.5839 0.5912 0.5986 0.6059
2955.000000 0.6132 0.6205 0.6278 0.6351 0.6424
2960.000000 0.6497 0.6570 0.6643 0.6716 0.6789
2965.000000 0.6862 0.6935 0.7007 0.7080 0.7153
2970.000000 0.7225 0.7298 0.7370 0.7443 0.7515
2975.000000 0.7587 0.7660 0.7732 0.7804 0.7876
2980.000000 0.7940 0.7980 0.8020 0.8061 0.8103
2985.000000 0.8147 0.8190 0.8231 0.8257 0.8283
2990.000000 0.8308 0.8331 0.8350 0.8370 0.8389
2995.000000 0.8423 0.8458 0.8492 0.8521 0.8543
3000.000000 0.8565 0.8587 0.8603 0.8617 0.8631
3005.000000 0.8645 0.8658 0.8671 0.8684 0.8695
3010.000000 0.8704 0.8714 0.8723 0.8732 0.8741
3015.000000 0.8750 0.8759 0.8768 0.8776 0.8785
3020.000000 0.8793 0.8801 0.8809 0.8820 0.8907
3025.000000 0.8994 0.9080 0.9143 0.9165 0.9186
3030.000000 0.9207 0.9222 0.9235 0.9248 0.9261
3035.000000 0.9272 0.9284 0.9296 0.9306 0.9313
3040.000000 0.9319 0.9326 0.9333 0.9340 0.9346
3045.000000 0.9353 0.9357 0.9361 0.9365 0.9368
3050.000000 0.9372 0.9376 0.9380 0.9383 0.9386
3055.000000 0.9390 0.9393 0.9395 0.9397 0.9399
3060.000000 0.9402 0.9404 0.9406 0.9408 0.9410
3065.000000 0.9412 0.9414 0.9416 0.9417 0.9418
3070.000000 0.9419 0.9419 0.9420 0.9421 0.9422
3075.000000 0.9423 0.9424 0.9425 0.9426 0.9427
3080.000000 0.9427 0.9427 0.9427 0.9449 0.9428
3085.000000 0.9428 0.9428 0.9429 0.9429 0.9429
3090.000000 0.9429 0.9430 0.9430 0.9430 0.9430
3095.000000 0.9431 0.9431 0.9431 0.9432 0.9432
3100.000000 0.9432 0.9432 0.9433 0.9433 0.9433
3105.000000 0.9433 0.9434 0.9434 0.9434 0.9434
3110.000000 0.9434 0.9434 0.9434 0.9434 0.9434
3115.000000 0.9434 0.9434 0.9434 0.9434 0.9434
3120.000000 0.9434 0.9434 0.9434 0.9434 0.9434
3125.000000 0.9434 0.9434 0.9434 0.9434 0.9434
3130.000000 0.9434 0.9434 0.9434 0.9434 0.9434
3135.000000 0.9434 0.9434 0.9434 0.9434 0.9434
3140.000000 0.9434 0.9434 0.9434 0.9434 0.9434
3145.000000 0.9434 0.9434 0.9434 0.9434 0.9435
3150.000000 0.9435 0.9435 0.9435 0.9435 0.9435
3155.000000 0.9435 0.9435 0.9435 0.9435 0.9435
3160.000000 0.9435 0.9435 0.9435 0.9435 0.9435
3165.000000 0.9436 0.9436 0.9436 0.9436 0.9436
3170.000000 0.9436 0.9436 0.9436 0.9436 0.9436
3175.000000 0.9436 0.9436 0.9437 0.9437 0.9437
3180.000000 0.9437 0.9437 0.9437 0.9437 0.9437
3185.000000 0.9437 0.9437 0.9437 0.9437 0.9437
3190.000000 0.9437 0.9437 0.9437 0.9437 0.9437
3195.000000 0.9437 0.9437 0.9437 0.9437 0.9437
3200.000000 0.9437 0.9437 0.9437 0.9437 0.9437
3205.000000 0.9437 0.9437 0.9437 0.9437 0.9437
3210.000000 0.9437 0.9437 0.9437 0.9437 0.9437
3215.000000 0.9437 0.9437 0.9437 0.9437 0.9437
3220.000000 0.9437 0.9437 0.9437 0.9437 0.9437
3225.000000 0.9437 0.9437 0.9437 0.9437 0.9437
3230.000000 0.9436 0.9436 0.9436 0.9436 0.9436
3235.000000 0.9435 0.9435 0.9435 0.9435 0.9434
3240.000000 0.9434 0.9434 0.9434 0.9433 0.9433
3245.000000 0.9432 0.9432 0.9431 0.9431 0.9431
3250.000000 0.9431 0.9430 0.9430 0.9430 0.9430
3255.000000 0.9430 0.9429 0.9429 0.9428 0.9428
3260.000000 0.9427 0.9427 0.9427 0.9427 0.9426
3265.000000 0.9426 0.9426 0.9426 0.9425 0.9425
3270.000000 0.9425 0.9424 0.9424 0.9423 0.9423
3275.000000 0.9423 0.9423 0.9422 0.9422 0.9422
3280.000000 0.9422 0.9422 0.9422 0.9422 0.9422
3285.000000 0.9422 0.9421 0.9421 0.9421 0.9421
3290.000000 0.9421 0.9421 0.9421 0.9421 0.9420
3295.000000 0.9420 0.9420 0.9420 0.9420 0.9420
3300.000000 0.9420 0.9420 0.9420 0.9419 0.9419
3305.000000 0.9419 0.9419 0.9419 0.9419 0.9419
3310.000000 0.9419 0.9419 0.9419 0.9419 0.9419
3315.000000 0.9419 0.9419 0.9419 0.9419 0.9419
3320.000000 0.9419 0.9419 0.9419 0.9419 0.9419
3325.000000 0.9419 0.9419 0.9419 0.9419 0.9419
3330.000000 0.9420 0.9422 0.9423 0.9425 0.9427
3335.000000 0.9430 0.9433 0.9435 0.9438 0.9440
3340.000000 0.9442 0.9445 0.9447 0.9449 0.9451
3345.000000 0.9454 0.9456 0.9458 0.9460 0.9462
3350.000000 0.9463 0.9465 0.9466 0.9467 0.9467
3355.000000 0.9468 0.9469 0.9470 0.9471 0.9471
3360.000000 0.9472 0.9473 0.9474 0.9474 0.9475
3365.000000 0.9476 0.9476 0.9476 0.9476 0.9476
3370.000000 0.9476 0.9476 0.9476 0.9476 0.9476
3375.000000 0.9476 0.9476 0.9476 0.9476 0.9476
3380.000000 0.9476 0.9476 0.9476 0.9476 0.9476
3385.000000 0.9476 0.9476 0.9476 0.9476 0.9476
3390.000000 0.9476 0.9476 0.9476 0.9475 0.9475
3395.000000 0.9475 0.9475 0.9474 0.9474 0.9474
3400.000000 0.9473 0.9473 0.9472 0.9472 0.9471
3405.000000 0.9471 0.9470 0.9470 0.9470 0.9470
3410.000000 0.9470 0.9469 0.9469 0.9468 0.9468
3415.000000 0.9468 0.9467 0.9467 0.9466 0.9466
3420.000000 0.9465 0.9465 0.9465 0.9464 0.9464
3425.000000 0.9463 0.9463 0.9463 0.9463 0.9463
3430.000000 0.9462 0.9462 0.9461 0.9461 0.9461
3435.000000 0.9460 0.9460 0.9460 0.9460 0.9459
3440.000000 0.9459 0.9459 0.9458 0.9458 0.9457
3445.000000 0.9457 0.9457 0.9457 0.9457 0.9456
3450.000000 0.9456 0.9456 0.9456 0.9456 0.9455
3455.000000 0.9455 0.9454 0.9454 0.9453 0.9453
3460.000000 0.9453 0.9453 0.9453 0.9452 0.9452
3465.000000 0.9452 0.9452 0.9452 0.9451 0.9451
3470.000000 0.9450 0.9450 0.9450 0.9449 0.9449
3475.000000 0.9448 0.9448 0.9448 0.9447 0.9447
3480.000000 0.9446 0.9446 0.9445 0.9445 0.9444
3485.000000 0.9444 0.9443 0.9442 0.9442 0.9442
3490.000000 0.9441 0.9441 0.9440 0.9440 0.9440
3495.000000 0.9439 0.9439 0.9438 0.9438 0.9437
3500.000000 0.9436 0.9436 0.9435 0.9435 0.9434
3505.000000 0.9434 0.9434 0.9433 0.9432 0.9432
3510.000000 0.9431 0.9431 0.9430 0.9430 0.9429
3515.000000 0.9429 0.9429 0.9428 0.9428 0.9428
3520.000000 0.9428 0.9428 0.9427 0.9427 0.9427
3525.000000 0.9427 0.9427 0.9426 0.9426 0.9425
3530.000000 0.9425 0.9425 0.9424 0.9424 0.9424
3535.000000 0.9424 0.9424 0.9423 0.9423 0.9423
3540.000000 0.9423 0.9423 0.9422 0.9422 0.9422
3545.000000 0.9422 0.9422 0.9421 0.9421 0.9421
3550.000000 0.9421 0.9421 0.9420 0.9420 0.9420
3555.000000 0.9420 0.9420 0.9419 0.9419 0.9419
3560.000000 0.9419 0.9419 0.9418 0.9418 0.9418
3565.000000 0.9418 0.9418 0.9417 0.9417 0.9417
3570.000000 0.9417 0.9417 0.9416 0.9416 0.9415
3575.000000 0.9415 0.9415 0.9414 0.9414 0.9414
3580.000000 0.9414 0.9414 0.9413 0.9413 0.9413
3585.000000 0.9412 0.9412 0.9411 0.9411 0.9411
3590.000000 0.9411 0.9411 0.9410 0.9410 0.9410
3595.000000 0.9410 0.9410 0.9410 0.9409 0.9409
3600.000000 0.9408 0.9408 0.9408 0.9407 0.9407
3605.000000 0.9407 0.9407 0.9407 0.9406 0.9406
3610.000000 0.9406 0.9406 0.9406 0.9405 0.9405
3615.000000 0.9405 0.9404 0.9404 0.9403 0.9403
3620.000000 0.9403 0.9403 0.9403 0.9403 0.9403
3625.000000 0.9403 0.9403 0.9403 0.9403 0.9404
3630.000000 0.9404 0.9404 0.9404 0.9404 0.9404
3635.000000 0.9404 0.9404 0.9404 0.9404 0.9404
3640.000000 0.9405 0.9405 0.9405 0.9405 0.9405
3645.000000 0.9405 0.9405 0.9405 0.9405 0.9405
3650.000000 0.9406 0.9406 0.9406 0.9406 0.9406
3655.000000 0.9407 0.9407 0.9407 0.9407 0.9407
3660.000000 0.9407 0.9407 0.9407 0.9407 0.9407
3665.000000 0.9407 0.9408 0.9408 0.9408 0.9408
3670.000000 0.9408 0.9408 0.9408 0.9408 0.9408
3675.000000 0.9408 0.9408 0.9409 0.9409 0.9409
3680.000000 0.9409 0.9409 0.9410 0.9410 0.9410
3685.000000 0.9410 0.9410 0.9410 0.9411 0.9411
3690.000000 0.9411 0.9412 0.9412 0.9413 0.9413
3695.000000 0.9413 0.9414 0.9414 0.9414 0.9415
3700.000000 0.9415 0.9416 0.9417 0.9417 0.9418
3705.000000 0.9418 0.9418 0.9419 0.9419 0.9419
3710.000000 0.9420 0.9420 0.9421 0.9421 0.9421
3715.000000 0.9422 0.9422 0.9422 0.9423 0.9423
3720.000000 0.9423 0.9424 0.9424 0.9424 0.9425
3725.000000 0.9425 0.9426 0.9426 0.9426 0.9427
3730.000000 0.9427 0.9427 0.9428 0.9428 0.9428
3735.000000 0.9429 0.9429 0.9430 0.9430 0.9430
3740.000000 0.9430 0.9430 0.9430 0.9431 0.9431
3745.000000 0.9431 0.9432 0.9432 0.9432 0.9433
3750.000000 0.9433 0.9433 0.9433 0.9433 0.9434
3755.000000 0.9434 0.9434 0.9434 0.9434 0.9434
3760.000000 0.9433 0.9433 0.9433 0.9433 0.9433
3765.000000 0.9433 0.9432 0.9432 0.9432 0.9432
3770.000000 0.9432 0.9431 0.9431 0.9431 0.9431
3775.000000 0.9431 0.9431 0.9430 0.9430 0.9430
3780.000000 0.9430 0.9430 0.9430 0.9429 0.9429
3785.000000 0.9429 0.9429 0.9429 0.9428 0.9428
3790.000000 0.9428 0.9428 0.9428 0.9428 0.9427
3795.000000 0.9427 0.9427 0.9427 0.9427 0.9427
3800.000000 0.9426 0.9426 0.9426 0.9425 0.9425
3805.000000 0.9425 0.9424 0.9424 0.9424 0.9424
3810.000000 0.9424 0.9423 0.9423 0.9423 0.9422
3815.000000 0.9422 0.9422 0.9421 0.9421 0.9421
3820.000000 0.9420 0.9420 0.9420 0.9419 0.9419
3825.000000 0.9419 0.9419 0.9419 0.9419 0.9418
3830.000000 0.9418 0.9418 0.9417 0.9417 0.9417
3835.000000 0.9416 0.9416 0.9416 0.9416 0.9416
3840.000000 0.9416 0.9415 0.9415 0.9415 0.9414
3845.000000 0.9414 0.9414 0.9413 0.9413 0.9413
3850.000000 0.9412 0.9412 0.9412 0.9411 0.9411
3855.000000 0.9411 0.9410 0.9410 0.9410 0.9409
3860.000000 0.9409 0.9409 0.9409 0.9409 0.9408
3865.000000 0.9408 0.9408 0.9407 0.9407 0.9407
3870.000000 0.9406 0.9406 0.9406 0.9405 0.9405
3875.000000 0.9405 0.9404 0.9404 0.9404 0.9403
3880.000000 0.9403 0.9403 0.9402 0.9402 0.9401
3885.000000 0.9401 0.9400 0.9399 0.9399 0.9397
3890.000000 0.9396 0.9395 0.9394 0.9393 0.9392
3895.000000 0.9390 0.9389 0.9388 0.9387 0.9386
3900.000000 0.9385 0.9384 0.9382 0.9381 0.9380
3905.000000 0.9379 0.9378 0.9376 0.9374 0.9373
3910.000000 0.9371 0.9369 0.9367 0.9365 0.9364
3915.000000 0.9362 0.9360 0.9358 0.9356 0.9355
3920.000000 0.9353 0.9351 0.9349 0.9347 0.9346
3925.000000 0.9344 0.9342 0.9340 0.9339 0.9337
3930.000000 0.9335 0.9333 0.9331 0.9330 0.9328
3935.000000 0.9326 0.9324 0.9323 0.9321 0.9319
3940.000000 0.9317 0.9315 0.9313 0.9311 0.9309
3945.000000 0.9307 0.9306 0.9304 0.9302 0.9300
3950.000000 0.9299 0.9297 0.9295 0.9293 0.9291
3955.000000 0.9290 0.9288 0.9286 0.9285 0.9283
3960.000000 0.9282 0.9280 0.9278 0.9277 0.9275
3965.000000 0.9274 0.9272 0.9270 0.9269 0.9268
3970.000000 0.9266 0.9265 0.9264 0.9262 0.9261
3975.000000 0.9260 0.9259 0.9257 0.9256 0.9255
3980.000000 0.9254 0.9252 0.9251 0.9250 0.9249
3985.000000 0.9247 0.9246 0.9245 0.9244 0.9242
3990.000000 0.9241 0.9240 0.9239 0.9237 0.9236
3995.000000 0.9236 0.9235 0.9234 0.9234 0.9233
4000.000000 0.9233
##END=
