##TITLE=MORLAND SALT
$$ E.K. (W.L.)
##JCAMP-DX=4.24
##DATA TYPE=INFRARED SPECTRUM
##CLASS=COBLENTZ
##ORIGIN=WYANDOTTE CHEMICALS CORP., WYANDOTTE, MICHIGAN, USA
##OWNER=COBLENTZ SOCIETY
Collection (C) 2018 copyright by the U.S. Secretary of Commerce
on behalf of the United States of America. All rights reserved.
##DATE=Not specified, most likely prior to 1970
##MOLFORM=C5 H12 N9 S4 Cr
##SOURCE REFERENCE=COBLENTZ NO. 433
##$NIST ID=B6000433
##$NIST SOURCE=COBLENTZ
##$NIST IMAGE=cob433
##SPECTROMETER/DATA SYSTEM=Not specified, most likely a prism, grating, or hybrid spectrometer.
##STATE=SOLID (MINERAL OIL MULL)
##SAMPLING PROCEDURE=TRANSMISSION
##RESOLUTION=4
##DATA PROCESSING=DIGITIZED BY NIST FROM HARD COPY
##XUNITS=MICROMETERS
##YUNITS=TRANSMITTANCE
##XFACTOR=1.000000
##YFACTOR=1
##DELTAX=000.006658
##FIRSTX=2.028
##LASTX=15.9963
##FIRSTY=0.217
##MAXX=15.9963
##MINX=2.028
##MAXY=0.969
##MINY=0.015
##NPOINTS=2099
##XYDATA=(X++(Y..Y))
2.028000 0.2170 0.2170 0.2180 0.2180 0.2220
2.061305 0.2250 0.2250 0.2250 0.2250 0.2230
2.095000 0.2200 0.2200 0.2230 0.2270 0.2280
2.128305 0.2330 0.2350 0.2370 0.2370 0.2350
2.161000 0.2330 0.2330 0.2350 0.2350 0.2350
2.194305 0.2350 0.2350 0.2350 0.2350 0.2350
2.228000 0.2350 0.2350 0.2350 0.2350 0.2330
2.261305 0.2320 0.2320 0.2300 0.2280 0.2280
2.294000 0.2280 0.2270 0.2270 0.2280 0.2280
2.327305 0.2300 0.2300 0.2320 0.2320 0.2330
2.361000 0.2330 0.2350 0.2370 0.2380 0.2400
2.394305 0.2420 0.2420 0.2430 0.2430 0.2430
2.427000 0.2450 0.2450 0.2430 0.2430 0.2430
2.460305 0.2430 0.2450 0.2470 0.2470 0.2470
2.494000 0.2470 0.2480 0.2500 0.2500 0.2500
2.527305 0.2500 0.2500 0.2530 0.2580 0.2670
2.561000 0.2730 0.2750 0.2780 0.2780 0.2770
2.594305 0.2770 0.2750 0.2780 0.2800 0.2900
2.627000 0.2900 0.2920 0.2930 0.2930 0.2980
2.660305 0.3000 0.3020 0.3030 0.3030 0.3030
2.694000 0.2970 0.2950 0.2930 0.2920 0.2880
2.727305 0.2870 0.2830 0.2820 0.2820 0.2800
2.760000 0.2780 0.2730 0.2680 0.2650 0.2580
2.793305 0.2500 0.2480 0.2430 0.2430 0.2420
2.827000 0.2400 0.2380 0.2350 0.2300 0.2200
2.860305 0.2150 0.2120 0.2080 0.2030 0.2020
2.893000 0.2000 0.1980 0.1910 0.1810 0.1780
2.926305 0.1730 0.1660 0.1630 0.1600 0.1530
2.960000 0.1500 0.1480 0.1450 0.1430 0.1410
2.993305 0.1380 0.1280 0.1130 0.1000 0.0880
3.027000 0.0780 0.0680 0.0610 0.0600 0.0580
3.060305 0.0560 0.0560 0.0510 0.0460 0.0430
3.093000 0.0400 0.0350 0.0350 0.0400 0.0400
3.126305 0.0430 0.0450 0.0450 0.0460 0.0460
3.160000 0.0500 0.0510 0.0560 0.0630 0.0730
3.193305 0.0830 0.0900 0.0910 0.0960 0.1000
3.226000 0.1050 0.1100 0.1150 0.1150 0.1150
3.259305 0.1160 0.1150 0.1150 0.1130 0.1080
3.293000 0.1030 0.1000 0.0910 0.0800 0.0680
3.326305 0.0560 0.0500 0.0410 0.0380 0.0330
3.360000 0.0300 0.0230 0.0210 0.0200 0.0180
3.393305 0.0160 0.0150 0.0160 0.0160 0.0160
3.426000 0.0160 0.0180 0.0250 0.0250 0.0200
3.459305 0.0200 0.0200 0.0210 0.0210 0.0230
3.493000 0.0230 0.0300 0.0360 0.0510 0.0630
3.526305 0.0880 0.1050 0.1310 0.1800 0.2030
3.559000 0.2230 0.2420 0.2570 0.2730 0.2830
3.592305 0.3000 0.3080 0.3150 0.3220 0.3280
3.626000 0.3330 0.3330 0.3350 0.3350 0.3370
3.659305 0.3380 0.3380 0.3400 0.3420 0.3470
3.692000 0.3520 0.3530 0.3550 0.3600 0.3630
3.725305 0.3680 0.3720 0.3750 0.3800 0.3830
3.759000 0.3870 0.3880 0.3900 0.3950 0.3980
3.792305 0.4020 0.4020 0.4040 0.4050 0.4050
3.826000 0.4090 0.4090 0.4100 0.4120 0.4140
3.859305 0.4150 0.4170 0.4190 0.4240 0.4250
3.892000 0.4340 0.4350 0.4440 0.4490 0.4500
3.925305 0.4520 0.4540 0.4520 0.4540 0.4540
3.959000 0.4540 0.4590 0.4600 0.4640 0.4650
3.992305 0.4670 0.4690 0.4720 0.4740 0.4750
4.025000 0.4770 0.4800 0.4820 0.4850 0.4870
4.058305 0.4870 0.4890 0.4900 0.4900 0.4950
4.092000 0.4970 0.4970 0.4990 0.4990 0.5000
4.125305 0.5000 0.5020 0.5000 0.5000 0.5020
4.158000 0.5020 0.5040 0.5070 0.5090 0.5100
4.191305 0.5100 0.5140 0.5150 0.5190 0.5150
4.225000 0.5140 0.5100 0.5020 0.4970 0.4940
4.258305 0.4940 0.4900 0.4950 0.5000 0.5020
4.292000 0.5040 0.5090 0.5120 0.5150 0.5190
4.325305 0.5240 0.5270 0.5320 0.5370 0.5400
4.358000 0.5440 0.5440 0.5470 0.5520 0.5590
4.391305 0.5620 0.5640 0.5690 0.5790 0.5800
4.425000 0.5850 0.5870 0.5900 0.5990 0.6010
4.458305 0.6010 0.6040 0.6090 0.6120 0.6160
4.491000 0.6190 0.6220 0.6260 0.6290 0.6360
4.524305 0.6410 0.6440 0.6520 0.6590 0.6620
4.558000 0.6640 0.6660 0.6660 0.6660 0.6640
4.591305 0.6640 0.6620 0.6590 0.6540 0.6520
4.625000 0.6510 0.6510 0.6410 0.6310 0.6160
4.658305 0.6040 0.5850 0.5740 0.5600 0.5250
4.691000 0.4850 0.4440 0.4040 0.3620 0.3220
4.724305 0.2820 0.2400 0.1830 0.1630 0.1410
4.758000 0.1250 0.1060 0.1000 0.0860 0.0730
4.791305 0.0600 0.0550 0.0500 0.0460 0.0400
4.824000 0.0360 0.0300 0.0250 0.0230 0.0210
4.857305 0.0200 0.0180 0.0160 0.0180 0.0210
4.891000 0.0260 0.0300 0.0310 0.0330 0.0280
4.924305 0.0260 0.0280 0.0350 0.0400 0.0450
4.957000 0.0480 0.0550 0.0650 0.0700 0.0810
4.990305 0.0950 0.1080 0.1210 0.1330 0.1510
5.024000 0.1630 0.1730 0.1860 0.2020 0.2080
5.057305 0.2230 0.2400 0.2530 0.2620 0.2730
5.091000 0.2920 0.2980 0.3030 0.3070 0.3130
5.124305 0.3220 0.3300 0.3370 0.3420 0.3520
5.157000 0.3600 0.3650 0.3720 0.3780 0.3850
5.190305 0.3870 0.3900 0.3930 0.4000 0.4020
5.224000 0.4070 0.4120 0.4150 0.4200 0.4240
5.257305 0.4250 0.4270 0.4320 0.4350 0.4390
5.290000 0.4440 0.4470 0.4500 0.4550 0.4600
5.323305 0.4620 0.4650 0.4670 0.4700 0.4700
5.357000 0.4700 0.4720 0.4770 0.4820 0.4850
5.390305 0.4870 0.4890 0.4900 0.4920 0.4940
5.423000 0.4940 0.4950 0.4970 0.4990 0.5000
5.456305 0.4990 0.4990 0.5000 0.4990 0.5000
5.490000 0.5020 0.5020 0.5070 0.5120 0.5170
5.523305 0.5200 0.5220 0.5220 0.5220 0.5220
5.557000 0.5240 0.5240 0.5240 0.5240 0.5250
5.590305 0.5270 0.5270 0.5240 0.5240 0.5220
5.623000 0.5220 0.5200 0.5200 0.5220 0.5240
5.656305 0.5290 0.5350 0.5300 0.5290 0.5270
5.690000 0.5220 0.5220 0.5240 0.5240 0.5240
5.723305 0.5220 0.5240 0.5240 0.5240 0.5240
5.756000 0.5300 0.5390 0.5320 0.5250 0.5220
5.789305 0.5170 0.5150 0.5120 0.5120 0.5090
5.823000 0.5050 0.5000 0.4990 0.4940 0.4920
5.856305 0.4920 0.4940 0.4940 0.5020 0.5020
5.889000 0.4890 0.4800 0.4770 0.4750 0.4750
5.922305 0.4720 0.4670 0.4500 0.4370 0.4320
5.956000 0.4270 0.4170 0.4040 0.3900 0.3770
5.989305 0.3620 0.3350 0.3170 0.3000 0.2980
6.023000 0.2920 0.2920 0.2980 0.3030 0.3070
6.056305 0.3120 0.3130 0.3130 0.3150 0.3270
6.089000 0.3270 0.3220 0.3180 0.3130 0.3080
6.122305 0.3020 0.2980 0.2900 0.2850 0.2800
6.156000 0.2720 0.2550 0.2480 0.2400 0.2320
6.189305 0.2230 0.2150 0.2080 0.2070 0.2050
6.222000 0.2080 0.2120 0.2230 0.2380 0.2550
6.255305 0.2680 0.2770 0.3000 0.3050 0.3120
6.289000 0.3230 0.3350 0.3470 0.3600 0.3680
6.322305 0.3780 0.3830 0.3870 0.3870 0.3880
6.356000 0.3880 0.4000 0.4070 0.4220 0.4420
6.389305 0.4500 0.4520 0.4500 0.4400 0.4370
6.422000 0.4340 0.4340 0.4400 0.4500 0.4620
6.455305 0.4700 0.4740 0.4820 0.4890 0.4920
6.489000 0.4850 0.4840 0.4840 0.4820 0.4800
6.522305 0.4800 0.4820 0.4840 0.4870 0.4890
6.555000 0.4890 0.4870 0.4870 0.4850 0.4890
6.588305 0.4950 0.5000 0.5000 0.5020 0.5000
6.622000 0.5000 0.4990 0.4940 0.4920 0.4890
6.655305 0.4800 0.4790 0.4750 0.4700 0.4650
6.688000 0.4440 0.4320 0.4190 0.4000 0.3680
6.721305 0.3520 0.3300 0.3020 0.2870 0.2700
6.755000 0.2480 0.2000 0.1600 0.1430 0.1250
6.788305 0.0910 0.0830 0.0800 0.0760 0.0760
6.822000 0.0750 0.0730 0.0730 0.0760 0.0800
6.855305 0.0850 0.0910 0.0980 0.1110 0.1230
6.888000 0.1310 0.1610 0.1680 0.1800 0.2000
6.921305 0.2100 0.2370 0.2580 0.2780 0.3220
6.955000 0.3400 0.3500 0.3620 0.3700 0.3800
6.988305 0.3900 0.3970 0.4050 0.4120 0.4170
7.021000 0.4220 0.4320 0.4390 0.4390 0.4320
7.054305 0.4300 0.4270 0.4200 0.4140 0.4020
7.088000 0.4000 0.3920 0.3870 0.3820 0.3800
7.121305 0.3820 0.3820 0.3830 0.3850 0.3870
7.154000 0.3870 0.3820 0.3670 0.3420 0.3100
7.187305 0.2950 0.2800 0.2570 0.2370 0.2070
7.221000 0.1810 0.1630 0.1510 0.1500 0.1510
7.254305 0.1630 0.1880 0.2120 0.2470 0.2530
7.288000 0.2720 0.2820 0.3100 0.3230 0.3480
7.321305 0.3680 0.4020 0.4590 0.4770 0.4890
7.354000 0.4990 0.4990 0.5050 0.5090 0.5150
7.387305 0.5220 0.5240 0.5250 0.5270 0.5290
7.421000 0.5320 0.5340 0.5340 0.5350 0.5400
7.454305 0.5520 0.5620 0.5800 0.5800 0.5840
7.487000 0.5850 0.5850 0.5870 0.5870 0.5870
7.520305 0.5850 0.5850 0.5840 0.5840 0.5800
7.554000 0.5800 0.5790 0.5790 0.5720 0.5700
7.587305 0.5670 0.5540 0.5370 0.5120 0.4900
7.621000 0.4770 0.4590 0.4400 0.4290 0.4170
7.654305 0.4100 0.4000 0.3800 0.3770 0.3620
7.687000 0.3500 0.3420 0.3350 0.3330 0.3250
7.720305 0.3250 0.3350 0.3370 0.3480 0.3480
7.754000 0.3520 0.3480 0.3280 0.3020 0.2920
7.787305 0.2800 0.2600 0.2480 0.2380 0.2180
7.820000 0.1860 0.1580 0.1500 0.1460 0.1410
7.853305 0.1380 0.1380 0.1400 0.1430 0.1500
7.887000 0.1530 0.1550 0.1600 0.1680 0.1800
7.920305 0.1880 0.2000 0.2150 0.2330 0.2600
7.953000 0.2780 0.3120 0.3280 0.3430 0.3600
7.986305 0.3880 0.4090 0.4490 0.4690 0.4890
8.020000 0.5090 0.5290 0.5400 0.5620 0.5840
8.053305 0.5920 0.6010 0.6060 0.6140 0.6190
8.087000 0.6290 0.6360 0.6420 0.6490 0.6520
8.120305 0.6570 0.6670 0.6710 0.6740 0.6820
8.153000 0.6860 0.6920 0.6960 0.6990 0.7010
8.186305 0.7020 0.7040 0.7060 0.7070 0.7110
8.220000 0.7110 0.7140 0.7160 0.7170 0.7190
8.253305 0.7190 0.7210 0.7220 0.7240 0.7260
8.286000 0.7270 0.7290 0.7320 0.7340 0.7340
8.319305 0.7360 0.7390 0.7390 0.7420 0.7460
8.353000 0.7490 0.7510 0.7560 0.7570 0.7590
8.386305 0.7610 0.7610 0.7620 0.7620 0.7620
8.419000 0.7620 0.7620 0.7620 0.7610 0.7590
8.452305 0.7590 0.7570 0.7540 0.7520 0.7510
8.486000 0.7490 0.7490 0.7470 0.7440 0.7390
8.519305 0.7370 0.7340 0.7310 0.7310 0.7290
8.553000 0.7290 0.7270 0.7260 0.7260 0.7260
8.586305 0.7260 0.7290 0.7290 0.7310 0.7310
8.619000 0.7340 0.7360 0.7370 0.7410 0.7410
8.652305 0.7420 0.7460 0.7470 0.7490 0.7490
8.686000 0.7510 0.7540 0.7570 0.7610 0.7620
8.719305 0.7660 0.7690 0.7720 0.7740 0.7740
8.752000 0.7760 0.7760 0.7760 0.7760 0.7770
8.785305 0.7770 0.7810 0.7820 0.7860 0.7870
8.819000 0.7890 0.7920 0.7940 0.7960 0.7960
8.852305 0.7960 0.7960 0.7960 0.7940 0.7920
8.885000 0.7920 0.7920 0.7910 0.7910 0.7920
8.918305 0.7940 0.7970 0.8010 0.8030 0.8040
8.952000 0.8080 0.8090 0.8110 0.8110 0.8130
8.985305 0.8130 0.8130 0.8130 0.8130 0.8130
9.019000 0.8130 0.8130 0.8130 0.8130 0.8130
9.052305 0.8110 0.8110 0.8110 0.8090 0.8090
9.085000 0.8090 0.8090 0.8090 0.8090 0.8090
9.118305 0.8090 0.8090 0.8090 0.8090 0.8090
9.152000 0.8090 0.8090 0.8090 0.8090 0.8090
9.185305 0.8090 0.8090 0.8090 0.8090 0.8090
9.218000 0.8090 0.8090 0.8090 0.8090 0.8090
9.251305 0.8090 0.8090 0.8090 0.8090 0.8090
9.285000 0.8090 0.8090 0.8090 0.8090 0.8090
9.318305 0.8090 0.8090 0.8090 0.8090 0.8090
9.352000 0.8090 0.8090 0.8090 0.8090 0.8090
9.385305 0.8090 0.8090 0.8110 0.8110 0.8110
9.418000 0.8110 0.8110 0.8130 0.8140 0.8140
9.451305 0.8140 0.8140 0.8130 0.8130 0.8130
9.485000 0.8130 0.8130 0.8130 0.8130 0.8130
9.518305 0.8130 0.8130 0.8140 0.8140 0.8140
9.551000 0.8130 0.8130 0.8130 0.8130 0.8130
9.584305 0.8130 0.8130 0.8130 0.8130 0.8130
9.618000 0.8130 0.8130 0.8160 0.8160 0.8180
9.651305 0.8180 0.8160 0.8180 0.8180 0.8180
9.684000 0.8190 0.8190 0.8190 0.8210 0.8210
9.717305 0.8230 0.8230 0.8240 0.8240 0.8260
9.751000 0.8260 0.8260 0.8260 0.8260 0.8260
9.784305 0.8260 0.8260 0.8280 0.8290 0.8290
9.818000 0.8290 0.8310 0.8330 0.8360 0.8380
9.851305 0.8430 0.8460 0.8490 0.8490 0.8530
9.884000 0.8530 0.8510 0.8510 0.8490 0.8480
9.917305 0.8480 0.8490 0.8490 0.8510 0.8530
9.951000 0.8530 0.8530 0.8530 0.8530 0.8530
9.984305 0.8540 0.8540 0.8540 0.8540 0.8540
10.017000 0.8540 0.8540 0.8540 0.8540 0.8540
10.050305 0.8540 0.8560 0.8580 0.8580 0.8580
10.084000 0.8580 0.8560 0.8560 0.8540 0.8540
10.117305 0.8530 0.8510 0.8490 0.8460 0.8460
10.150000 0.8440 0.8430 0.8410 0.8380 0.8340
10.183305 0.8290 0.8240 0.8190 0.8140 0.8140
10.217000 0.8130 0.8110 0.8090 0.8090 0.8060
10.250305 0.8010 0.8010 0.7990 0.7970 0.7960
10.284000 0.7960 0.7940 0.7920 0.7920 0.7910
10.317305 0.7910 0.7910 0.7890 0.7870 0.7840
10.350000 0.7810 0.7810 0.7810 0.7810 0.7810
10.383305 0.7810 0.7790 0.7790 0.7790 0.7770
10.417000 0.7760 0.7740 0.7710 0.7690 0.7690
10.450305 0.7710 0.7710 0.7710 0.7690 0.7670
10.483000 0.7640 0.7640 0.7620 0.7640 0.7660
10.516305 0.7720 0.7770 0.7810 0.7820 0.7820
10.550000 0.7840 0.7860 0.7870 0.7890 0.7920
10.583305 0.7940 0.7960 0.7970 0.8010 0.8040
10.617000 0.8090 0.8130 0.8140 0.8140 0.8160
10.650305 0.8190 0.8190 0.8190 0.8210 0.8210
10.683000 0.8230 0.8240 0.8260 0.8260 0.8280
10.716305 0.8290 0.8290 0.8310 0.8330 0.8390
10.750000 0.8410 0.8430 0.8440 0.8460 0.8510
10.783305 0.8510 0.8660 0.8730 0.8760 0.8760
10.816000 0.8810 0.8840 0.8860 0.8860 0.8880
10.849305 0.8890 0.8890 0.8880 0.8880 0.8860
10.883000 0.8880 0.8880 0.8890 0.8890 0.8910
10.916305 0.8940 0.9010 0.9010 0.9040 0.9080
10.949000 0.9110 0.9130 0.9180 0.9190 0.9230
10.982305 0.9240 0.9240 0.9240 0.9240 0.9260
11.016000 0.9260 0.9280 0.9280 0.9280 0.9290
11.049305 0.9260 0.9260 0.9260 0.9260 0.9280
11.083000 0.9290 0.9310 0.9310 0.9310 0.9310
11.116305 0.9310 0.9290 0.9280 0.9290 0.9290
11.149000 0.9330 0.9330 0.9310 0.9310 0.9310
11.182305 0.9290 0.9260 0.9260 0.9260 0.9260
11.216000 0.9260 0.9260 0.9280 0.9310 0.9310
11.249305 0.9340 0.9340 0.9330 0.9330 0.9330
11.282000 0.9340 0.9360 0.9380 0.9390 0.9410
11.315305 0.9430 0.9440 0.9460 0.9490 0.9510
11.349000 0.9510 0.9530 0.9580 0.9580 0.9530
11.382305 0.9510 0.9490 0.9510 0.9510 0.9530
11.415000 0.9540 0.9540 0.9540 0.9580 0.9580
11.448305 0.9540 0.9540 0.9530 0.9530 0.9510
11.482000 0.9530 0.9530 0.9540 0.9540 0.9580
11.515305 0.9580 0.9540 0.9540 0.9530 0.9510
11.549000 0.9490 0.9440 0.9410 0.9390 0.9360
11.582305 0.9330 0.9330 0.9310 0.9310 0.9310
11.615000 0.9290 0.9310 0.9290 0.9280 0.9260
11.648305 0.9260 0.9230 0.9180 0.9130 0.9110
11.682000 0.9110 0.9090 0.9030 0.9010 0.8990
11.715305 0.8980 0.8930 0.8910 0.8880 0.8810
11.748000 0.8730 0.8680 0.8660 0.8630 0.8580
11.781305 0.8560 0.8540 0.8530 0.8490 0.8430
11.815000 0.8390 0.8340 0.8310 0.8310 0.8290
11.848305 0.8290 0.8310 0.8290 0.8290 0.8290
11.881000 0.8310 0.8310 0.8310 0.8310 0.8330
11.914305 0.8340 0.8340 0.8360 0.8390 0.8410
11.948000 0.8480 0.8490 0.8510 0.8510 0.8510
11.981305 0.8510 0.8530 0.8530 0.8540 0.8560
12.015000 0.8590 0.8610 0.8610 0.8630 0.8640
12.048305 0.8640 0.8680 0.8690 0.8710 0.8730
12.081000 0.8740 0.8760 0.8780 0.8790 0.8860
12.114305 0.8910 0.9010 0.9060 0.9130 0.9140
12.148000 0.9160 0.9190 0.9210 0.9230 0.9260
12.181305 0.9280 0.9290 0.9340 0.9360 0.9390
12.214000 0.9390 0.9410 0.9410 0.9430 0.9430
12.247305 0.9440 0.9440 0.9440 0.9440 0.9440
12.281000 0.9460 0.9460 0.9480 0.9480 0.9510
12.314305 0.9510 0.9530 0.9540 0.9540 0.9580
12.348000 0.9610 0.9610 0.9630 0.9640 0.9640
12.381305 0.9640 0.9660 0.9660 0.9680 0.9680
12.414000 0.9690 0.9680 0.9680 0.9660 0.9660
12.447305 0.9640 0.9660 0.9640 0.9640 0.9640
12.481000 0.9630 0.9630 0.9630 0.9610 0.9610
12.514305 0.9590 0.9590 0.9580 0.9560 0.9530
12.547000 0.9510 0.9510 0.9510 0.9490 0.9490
12.580305 0.9480 0.9460 0.9460 0.9440 0.9410
12.614000 0.9390 0.9360 0.9340 0.9330 0.9330
12.647305 0.9310 0.9290 0.9280 0.9260 0.9240
12.680000 0.9230 0.9190 0.9180 0.9140 0.9130
12.713305 0.9090 0.9090 0.9080 0.9080 0.9060
12.747000 0.9040 0.9030 0.9010 0.9010 0.8960
12.780305 0.8910 0.8840 0.8790 0.8740 0.8730
12.814000 0.8690 0.8640 0.8610 0.8580 0.8560
12.847305 0.8540 0.8490 0.8490 0.8410 0.8390
12.880000 0.8380 0.8340 0.8340 0.8310 0.8230
12.913305 0.8180 0.8130 0.8040 0.8040 0.8030
12.947000 0.8030 0.7990 0.8010 0.7960 0.7910
12.980305 0.7860 0.7810 0.7740 0.7690 0.7620
13.013000 0.7590 0.7560 0.7510 0.7440 0.7390
13.046305 0.7320 0.7270 0.7240 0.7220 0.7210
13.080000 0.7170 0.7140 0.7110 0.7070 0.7020
13.113305 0.6990 0.6910 0.6840 0.6770 0.6710
13.146000 0.6610 0.6540 0.6520 0.6490 0.6460
13.179305 0.6420 0.6320 0.6290 0.6240 0.6190
13.213000 0.6140 0.6020 0.5990 0.5870 0.5790
13.246305 0.5740 0.5700 0.5670 0.5600 0.5540
13.280000 0.5500 0.5440 0.5350 0.5300 0.5200
13.313305 0.5190 0.5070 0.4990 0.4920 0.4840
13.346000 0.4800 0.4740 0.4700 0.4670 0.4590
13.379305 0.4540 0.4470 0.4320 0.4270 0.4220
13.413000 0.4150 0.4090 0.4000 0.3970 0.3830
13.446305 0.3800 0.3720 0.3580 0.3480 0.3350
13.479000 0.3270 0.3250 0.3230 0.3230 0.3200
13.512305 0.3120 0.3050 0.3000 0.2980 0.2870
13.546000 0.2850 0.2820 0.2770 0.2700 0.2650
13.579305 0.2600 0.2570 0.2470 0.2400 0.2370
13.613000 0.2320 0.2280 0.2230 0.2200 0.2130
13.646305 0.2050 0.2000 0.1980 0.1960 0.1950
13.679000 0.1850 0.1810 0.1780 0.1780 0.1760
13.712305 0.1750 0.1710 0.1660 0.1610 0.1580
13.746000 0.1550 0.1510 0.1510 0.1500 0.1500
13.779305 0.1480 0.1450 0.1410 0.1360 0.1310
13.812000 0.1310 0.1260 0.1210 0.1180 0.1180
13.845305 0.1180 0.1200 0.1200 0.1200 0.1210
13.879000 0.1210 0.1230 0.1230 0.1230 0.1230
13.912305 0.1250 0.1260 0.1280 0.1280 0.1300
13.945000 0.1310 0.1310 0.1310 0.1310 0.1310
13.978305 0.1330 0.1350 0.1360 0.1460 0.1500
14.012000 0.1530 0.1560 0.1560 0.1580 0.1600
14.045305 0.1610 0.1680 0.1730 0.1800 0.1810
14.079000 0.1850 0.1860 0.1880 0.1900 0.1900
14.112305 0.1910 0.1950 0.1980 0.1980 0.2030
14.145000 0.2080 0.2180 0.2220 0.2250 0.2270
14.178305 0.2280 0.2300 0.2330 0.2380 0.2480
14.212000 0.2520 0.2550 0.2600 0.2630 0.2680
14.245305 0.2700 0.2720 0.2720 0.2780 0.2800
14.278000 0.2980 0.3020 0.3030 0.3070 0.3120
14.311305 0.3130 0.3180 0.3230 0.3280 0.3370
14.345000 0.3470 0.3500 0.3520 0.3550 0.3570
14.378305 0.3600 0.3630 0.3680 0.3720 0.3730
14.411000 0.3820 0.3900 0.3920 0.3970 0.4020
14.444305 0.4100 0.4150 0.4200 0.4240 0.4340
14.478000 0.4420 0.4490 0.4540 0.4570 0.4600
14.511305 0.4650 0.4690 0.4740 0.4790 0.4820
14.545000 0.4850 0.4890 0.4900 0.4920 0.4920
14.578305 0.4950 0.5000 0.5070 0.5100 0.5120
14.611000 0.5170 0.5220 0.5270 0.5320 0.5370
14.644305 0.5400 0.5420 0.5470 0.5500 0.5520
14.678000 0.5540 0.5570 0.5600 0.5640 0.5650
14.711305 0.5700 0.5800 0.5840 0.5870 0.5890
14.744000 0.5900 0.5900 0.5920 0.5920 0.5970
14.777305 0.5990 0.5990 0.6010 0.6020 0.6040
14.811000 0.6060 0.6060 0.6070 0.6070 0.6070
14.844305 0.6090 0.6110 0.6140 0.6160 0.6190
14.877000 0.6220 0.6260 0.6260 0.6270 0.6270
14.910305 0.6290 0.6290 0.6290 0.6290 0.6290
14.944000 0.6290 0.6310 0.6290 0.6290 0.6290
14.977305 0.6290 0.6270 0.6240 0.6220 0.6160
15.011000 0.6110 0.6040 0.5990 0.5970 0.5970
15.044305 0.5970 0.5950 0.5900 0.5900 0.5890
15.077000 0.5900 0.5900 0.5920 0.5970 0.5990
15.110305 0.6010 0.6070 0.6090 0.6110 0.6160
15.144000 0.6210 0.6290 0.6310 0.6340 0.6360
15.177305 0.6360 0.6360 0.6360 0.6360 0.6360
15.210000 0.6360 0.6360 0.6360 0.6360 0.6360
15.243305 0.6370 0.6370 0.6370 0.6370 0.6360
15.277000 0.6360 0.6340 0.6340 0.6310 0.6310
15.310305 0.6290 0.6290 0.6290 0.6310 0.6310
15.344000 0.6320 0.6320 0.6290 0.6270 0.6260
15.377305 0.6240 0.6220 0.6210 0.6190 0.6170
15.410000 0.6170 0.6140 0.6140 0.6140 0.6140
15.443305 0.6120 0.6110 0.6110 0.6110 0.6090
15.477000 0.6090 0.6090 0.6070 0.6070 0.6070
15.510305 0.6070 0.6070 0.6070 0.6060 0.6020
15.543000 0.6020 0.6020 0.6010 0.6020 0.6020
15.576305 0.6020 0.6010 0.5990 0.5990 0.5940
15.610000 0.5920 0.5890 0.5870 0.5870 0.5850
15.643305 0.5820 0.5820 0.5800 0.5790 0.5790
15.676000 0.5740 0.5690 0.5620 0.5590 0.5570
15.709305 0.5550 0.5550 0.5540 0.5540 0.5540
15.743000 0.5520 0.5520 0.5490 0.5470 0.5450
15.776305 0.5440 0.5420 0.5400 0.5400 0.5370
15.810000 0.5340 0.5320 0.5300 0.5320 0.5320
15.843305 0.5340 0.5350 0.5350 0.5320 0.5290
15.876000 0.5240 0.5190 0.5150 0.5140 0.5120
15.909305 0.5070 0.5070 0.5050 0.5050 0.5050
15.943000 0.5000 0.5000 0.4990 0.4970 0.4950
15.976305 0.4940 0.4990 0.4970 0.4950
##END=
