##TITLE=PYRAN, 2,2'-(TETRAMETHYL-1,3-CYCLOBUTYLENEDIOXY)BIS(TETRAHYDRO)-
##JCAMP-DX=4.24
##DATA TYPE=INFRARED SPECTRUM
##CLASS=COBLENTZ
##ORIGIN=TENNESSEE EASTMAN COMPANY, RESEARCH LABORATORIES
##OWNER=COBLENTZ SOCIETY
Collection (C) 2018 copyright by the U.S. Secretary of Commerce
on behalf of the United States of America. All rights reserved.
##DATE=Not specified, most likely prior to 1970
##NAMES=2-([2,2,4,4-tetramethyl-3-(tetrahydro-2H-pyran-2-yloxy)cyclobutyl]oxy)tetrahydro-2H-pyran
##MOLFORM=C18 H32 O4
##BP=150-155 C AT 3.5 mmHg
##SOURCE REFERENCE=COBLENTZ NO. 1765
##$NIST ID=B6001765
##$NIST SOURCE=COBLENTZ
##$NIST IMAGE=cob1765
##SPECTROMETER/DATA SYSTEM=Not specified, most likely a prism, grating, or hybrid spectrometer.
##PATH LENGTH=SMEAR
##SAMPLING PROCEDURE=TRANSMISSION
##RESOLUTION=4
##DATA PROCESSING=DIGITIZED BY NIST FROM HARD COPY
##XUNITS=MICROMETERS
##YUNITS=TRANSMITTANCE
##XFACTOR=1.000000
##YFACTOR=1
##DELTAX=000.006826
##FIRSTX=2.061
##LASTX=16.0065
##FIRSTY=0.943
##MAXX=16.0065
##MINX=2.061
##MAXY=0.948
##MINY=0.076
##NPOINTS=2044
##XYDATA=(X++(Y..Y))
2.061000 0.9430 0.9410 0.9410 0.9410 0.9410
2.095146 0.9410 0.9410 0.9410 0.9410 0.9410
2.130000 0.9410 0.9410 0.9410 0.9410 0.9410
2.164146 0.9410 0.9410 0.9410 0.9430 0.9430
2.198000 0.9430 0.9430 0.9430 0.9410 0.9410
2.232146 0.9410 0.9410 0.9410 0.9410 0.9400
2.266000 0.9400 0.9380 0.9350 0.9300 0.9230
2.300146 0.9210 0.9210 0.9210 0.9210 0.9210
2.334000 0.9210 0.9210 0.9190 0.9190 0.9190
2.368146 0.9190 0.9190 0.9190 0.9190 0.9190
2.403000 0.9210 0.9210 0.9210 0.9210 0.9210
2.437146 0.9210 0.9210 0.9210 0.9210 0.9210
2.471000 0.9210 0.9210 0.9230 0.9210 0.9210
2.505146 0.9210 0.9210 0.9210 0.9210 0.9210
2.539000 0.9210 0.9210 0.9210 0.9210 0.9230
2.573146 0.9230 0.9230 0.9230 0.9240 0.9240
2.608000 0.9240 0.9240 0.9240 0.9230 0.9230
2.642146 0.9230 0.9230 0.9230 0.9230 0.9230
2.676000 0.9240 0.9240 0.9240 0.9240 0.9240
2.710146 0.9240 0.9240 0.9240 0.9240 0.9260
2.744000 0.9260 0.9260 0.9260 0.9260 0.9260
2.778146 0.9260 0.9260 0.9260 0.9260 0.9260
2.812000 0.9260 0.9260 0.9260 0.9260 0.9260
2.846146 0.9260 0.9260 0.9240 0.9240 0.9240
2.881000 0.9230 0.9230 0.9210 0.9210 0.9210
2.915146 0.9210 0.9190 0.9190 0.9190 0.9190
2.949000 0.9210 0.9210 0.9210 0.9210 0.9230
2.983146 0.9240 0.9240 0.9240 0.9240 0.9240
3.017000 0.9240 0.9240 0.9240 0.9240 0.9240
3.051146 0.9240 0.9240 0.9240 0.9240 0.9240
3.085000 0.9240 0.9240 0.9240 0.9240 0.9240
3.119146 0.9240 0.9240 0.9240 0.9230 0.9230
3.154000 0.9230 0.9230 0.9230 0.9240 0.9230
3.188146 0.9230 0.9230 0.9230 0.9230 0.9230
3.222000 0.9230 0.9230 0.9230 0.9230 0.9240
3.256146 0.9230 0.9230 0.9230 0.9230 0.9230
3.290000 0.9210 0.9190 0.9190 0.9180 0.9140
3.324146 0.8970 0.8680 0.8020 0.7590 0.6840
3.358000 0.6090 0.3920 0.3250 0.2590 0.1920
3.392146 0.1510 0.1170 0.1140 0.1140 0.1310
3.427000 0.1630 0.1970 0.2300 0.2730 0.3020
3.461146 0.3610 0.3610 0.3600 0.3390 0.3390
3.495000 0.3440 0.3630 0.4020 0.4350 0.4960
3.529146 0.5420 0.6070 0.6430 0.7250 0.7380
3.563000 0.7590 0.7740 0.7830 0.8000 0.8030
3.597146 0.8050 0.8080 0.8270 0.8320 0.8370
3.631000 0.8390 0.8410 0.8440 0.8440 0.8430
3.665146 0.8410 0.8410 0.8390 0.8390 0.8390
3.700000 0.8390 0.8410 0.8410 0.8430 0.8440
3.734146 0.8490 0.8510 0.8530 0.8600 0.8610
3.768000 0.8650 0.8650 0.8660 0.8660 0.8660
3.802146 0.8660 0.8630 0.8630 0.8630 0.8650
3.836000 0.8700 0.8750 0.8800 0.8850 0.8900
3.870146 0.8970 0.9010 0.9020 0.9060 0.9110
3.904000 0.9180 0.9210 0.9260 0.9280 0.9300
3.938146 0.9300 0.9310 0.9330 0.9350 0.9360
3.973000 0.9360 0.9360 0.9360 0.9380 0.9380
4.007146 0.9380 0.9380 0.9380 0.9380 0.9380
4.041000 0.9380 0.9380 0.9380 0.9380 0.9400
4.075146 0.9400 0.9400 0.9400 0.9410 0.9410
4.109000 0.9410 0.9410 0.9430 0.9430 0.9430
4.143146 0.9430 0.9430 0.9430 0.9430 0.9430
4.177000 0.9430 0.9450 0.9450 0.9450 0.9450
4.211146 0.9450 0.9450 0.9450 0.9450 0.9450
4.246000 0.9450 0.9450 0.9450 0.9450 0.9450
4.280146 0.9450 0.9450 0.9430 0.9430 0.9430
4.314000 0.9430 0.9430 0.9450 0.9430 0.9430
4.348146 0.9430 0.9430 0.9430 0.9430 0.9410
4.382000 0.9410 0.9410 0.9410 0.9410 0.9410
4.416146 0.9410 0.9410 0.9410 0.9410 0.9410
4.451000 0.9430 0.9410 0.9410 0.9410 0.9410
4.485146 0.9410 0.9410 0.9410 0.9410 0.9410
4.519000 0.9410 0.9410 0.9410 0.9410 0.9410
4.553146 0.9430 0.9430 0.9430 0.9430 0.9430
4.587000 0.9430 0.9430 0.9430 0.9430 0.9430
4.621146 0.9430 0.9430 0.9430 0.9430 0.9430
4.655000 0.9430 0.9430 0.9430 0.9430 0.9430
4.689146 0.9430 0.9430 0.9430 0.9430 0.9430
4.724000 0.9430 0.9430 0.9430 0.9430 0.9430
4.758146 0.9430 0.9430 0.9430 0.9450 0.9450
4.792000 0.9470 0.9470 0.9470 0.9470 0.9480
4.826146 0.9480 0.9480 0.9480 0.9480 0.9480
4.860000 0.9480 0.9480 0.9480 0.9480 0.9480
4.894146 0.9480 0.9480 0.9480 0.9480 0.9480
4.928000 0.9480 0.9480 0.9480 0.9480 0.9480
4.962146 0.9480 0.9480 0.9480 0.9480 0.9480
4.997000 0.9480 0.9480 0.9480 0.9480 0.9480
5.031146 0.9480 0.9480 0.9480 0.9480 0.9480
5.065000 0.9480 0.9480 0.9480 0.9480 0.9480
5.099146 0.9470 0.9470 0.9470 0.9470 0.9450
5.133000 0.9450 0.9430 0.9410 0.9410 0.9410
5.167146 0.9410 0.9410 0.9410 0.9410 0.9410
5.201000 0.9410 0.9410 0.9410 0.9410 0.9410
5.235146 0.9410 0.9410 0.9410 0.9410 0.9410
5.270000 0.9410 0.9430 0.9430 0.9410 0.9410
5.304146 0.9430 0.9430 0.9430 0.9430 0.9430
5.338000 0.9450 0.9450 0.9450 0.9450 0.9470
5.372146 0.9470 0.9470 0.9470 0.9470 0.9470
5.406000 0.9470 0.9470 0.9470 0.9450 0.9450
5.440146 0.9450 0.9450 0.9450 0.9450 0.9450
5.474000 0.9430 0.9430 0.9430 0.9430 0.9430
5.508146 0.9430 0.9470 0.9480 0.9480 0.9480
5.543000 0.9480 0.9480 0.9480 0.9480 0.9480
5.577146 0.9470 0.9470 0.9470 0.9470 0.9470
5.611000 0.9450 0.9430 0.9410 0.9410 0.9410
5.645146 0.9410 0.9430 0.9430 0.9430 0.9430
5.679000 0.9430 0.9430 0.9430 0.9430 0.9410
5.713146 0.9410 0.9400 0.9400 0.9380 0.9350
5.747000 0.9310 0.9260 0.9260 0.9240 0.9240
5.781146 0.9240 0.9240 0.9240 0.9240 0.9240
5.816000 0.9240 0.9240 0.9240 0.9240 0.9240
5.850146 0.9240 0.9240 0.9260 0.9260 0.9260
5.884000 0.9280 0.9280 0.9280 0.9280 0.9260
5.918146 0.9260 0.9260 0.9260 0.9260 0.9260
5.952000 0.9260 0.9260 0.9260 0.9260 0.9280
5.986146 0.9300 0.9300 0.9310 0.9310 0.9310
6.020000 0.9310 0.9310 0.9330 0.9330 0.9330
6.054146 0.9330 0.9330 0.9330 0.9350 0.9350
6.089000 0.9330 0.9330 0.9330 0.9330 0.9330
6.123146 0.9330 0.9330 0.9330 0.9330 0.9330
6.157000 0.9310 0.9310 0.9330 0.9330 0.9330
6.191146 0.9330 0.9330 0.9310 0.9310 0.9310
6.225000 0.9310 0.9330 0.9350 0.9360 0.9360
6.259146 0.9360 0.9360 0.9380 0.9400 0.9400
6.294000 0.9400 0.9400 0.9400 0.9400 0.9400
6.328146 0.9400 0.9380 0.9380 0.9380 0.9380
6.362000 0.9400 0.9380 0.9380 0.9380 0.9380
6.396146 0.9380 0.9380 0.9380 0.9380 0.9380
6.430000 0.9380 0.9380 0.9360 0.9360 0.9360
6.464146 0.9360 0.9360 0.9350 0.9330 0.9310
6.498000 0.9300 0.9300 0.9300 0.9300 0.9300
6.532146 0.9300 0.9280 0.9280 0.9280 0.9280
6.567000 0.9260 0.9240 0.9240 0.9230 0.9230
6.601146 0.9230 0.9230 0.9240 0.9240 0.9240
6.635000 0.9230 0.9230 0.9180 0.9140 0.9120
6.669146 0.9090 0.9070 0.9060 0.9020 0.8990
6.703000 0.8990 0.8940 0.8890 0.8800 0.8730
6.737146 0.8650 0.8440 0.8250 0.8100 0.7810
6.771000 0.7620 0.7080 0.6240 0.5390 0.4310
6.805146 0.4280 0.4300 0.4380 0.4470 0.4570
6.840000 0.4690 0.4770 0.4770 0.4740 0.4430
6.874146 0.4410 0.4430 0.4570 0.4810 0.5200
6.908000 0.5200 0.5180 0.5150 0.5010 0.5000
6.942146 0.5010 0.5520 0.6070 0.6310 0.6340
6.976000 0.6960 0.7180 0.7420 0.7500 0.7670
7.010146 0.7760 0.7880 0.7960 0.8000 0.8020
7.044000 0.8020 0.8000 0.8000 0.7910 0.7910
7.078146 0.7860 0.7830 0.7810 0.7760 0.7690
7.113000 0.7610 0.7540 0.7470 0.7330 0.7260
7.147146 0.7150 0.7090 0.7010 0.6910 0.6770
7.181000 0.6620 0.6580 0.6380 0.6220 0.5930
7.215146 0.5610 0.5290 0.5050 0.4570 0.4470
7.249000 0.4430 0.4480 0.4600 0.4740 0.4820
7.283146 0.5130 0.5580 0.5780 0.5930 0.6240
7.317000 0.6290 0.6240 0.6050 0.5810 0.5780
7.351146 0.5690 0.5680 0.5710 0.5830 0.5920
7.386000 0.5970 0.5970 0.5810 0.5200 0.4940
7.420146 0.4910 0.4890 0.4890 0.4910 0.4940
7.454000 0.5010 0.5110 0.5150 0.5200 0.5250
7.488146 0.5350 0.5520 0.5730 0.6000 0.6330
7.522000 0.6500 0.7180 0.7380 0.7520 0.7520
7.556146 0.7420 0.7260 0.7010 0.6460 0.5900
7.590000 0.5880 0.5920 0.6160 0.6560 0.7350
7.624146 0.7520 0.7780 0.7900 0.7960 0.8030
7.659000 0.8100 0.8190 0.8250 0.8320 0.8430
7.693146 0.8440 0.8460 0.8480 0.8490 0.8510
7.727000 0.8510 0.8530 0.8530 0.8510 0.8490
7.761146 0.8440 0.8390 0.8170 0.7900 0.7790
7.795000 0.7500 0.7250 0.7110 0.7110 0.7130
7.829146 0.7150 0.7200 0.7200 0.7180 0.7150
7.863000 0.7090 0.7090 0.7110 0.7350 0.7490
7.897146 0.7620 0.7690 0.7690 0.7670 0.7470
7.932000 0.7130 0.6700 0.6510 0.6310 0.6220
7.966146 0.6220 0.6260 0.6430 0.6630 0.7040
8.000000 0.7520 0.7690 0.7760 0.8030 0.8190
8.034146 0.8250 0.8310 0.8360 0.8360 0.8340
8.068000 0.8320 0.8270 0.8200 0.8190 0.8150
8.102146 0.8130 0.8130 0.8130 0.8170 0.8200
8.137000 0.8270 0.8310 0.8320 0.8320 0.8320
8.171146 0.8310 0.8310 0.8310 0.8290 0.8290
8.205000 0.8190 0.8080 0.7910 0.7860 0.7760
8.239146 0.7610 0.7200 0.6720 0.6500 0.6260
8.273000 0.5830 0.5520 0.5350 0.5110 0.4670
8.307146 0.4180 0.3630 0.3480 0.3310 0.3080
8.341000 0.3080 0.3310 0.4500 0.4770 0.5730
8.375146 0.5920 0.6240 0.6390 0.6580 0.6670
8.410000 0.6650 0.6620 0.6290 0.5970 0.5390
8.444146 0.4910 0.4840 0.4840 0.4860 0.4940
8.478000 0.5290 0.5340 0.5400 0.5780 0.5870
8.512146 0.6090 0.6100 0.6100 0.6090 0.6000
8.546000 0.5930 0.5590 0.5290 0.5010 0.4790
8.580146 0.4590 0.4500 0.4260 0.3890 0.3700
8.614000 0.3680 0.3650 0.3610 0.3600 0.3580
8.648146 0.3600 0.3650 0.3800 0.3950 0.4110
8.683000 0.4210 0.4280 0.4280 0.4280 0.4180
8.717146 0.3940 0.3600 0.3510 0.3370 0.3240
8.751000 0.3170 0.3000 0.2910 0.2760 0.2690
8.785146 0.2590 0.2490 0.2370 0.2260 0.2210
8.819000 0.2150 0.2090 0.2040 0.2010 0.1960
8.853146 0.1890 0.1840 0.1750 0.1670 0.1600
8.887000 0.1530 0.1500 0.1480 0.1410 0.1390
8.921146 0.1390 0.1450 0.1550 0.1620 0.1910
8.956000 0.2150 0.2260 0.2810 0.2910 0.3490
8.990146 0.3720 0.3940 0.4180 0.4400 0.4620
9.024000 0.4810 0.5000 0.5010 0.5030 0.5010
9.058146 0.5000 0.4910 0.4840 0.4670 0.4550
9.092000 0.4380 0.4240 0.4090 0.4020 0.3970
9.126146 0.3920 0.3920 0.3920 0.3940 0.3990
9.160000 0.4010 0.4070 0.4090 0.4110 0.4040
9.194146 0.3970 0.3660 0.3410 0.3310 0.3190
9.229000 0.2660 0.2380 0.1960 0.1680 0.1500
9.263146 0.1410 0.1380 0.1380 0.1390 0.1410
9.297000 0.1480 0.1550 0.1620 0.1670 0.1670
9.331146 0.1670 0.1650 0.1630 0.1580 0.1510
9.365000 0.1500 0.1480 0.1460 0.1460 0.1480
9.399146 0.1480 0.1550 0.1620 0.1650 0.1800
9.433000 0.1970 0.2110 0.2500 0.2710 0.2900
9.467146 0.3080 0.3240 0.3780 0.3920 0.3920
9.502000 0.3900 0.3900 0.3870 0.3610 0.3360
9.536146 0.3080 0.3000 0.2620 0.2420 0.2260
9.570000 0.2030 0.1860 0.1670 0.1500 0.1330
9.604146 0.1210 0.1100 0.1050 0.0930 0.0880
9.638000 0.0830 0.0780 0.0760 0.0780 0.0780
9.672146 0.0810 0.0930 0.1000 0.1190 0.1330
9.706000 0.1500 0.1600 0.1680 0.1740 0.1800
9.740146 0.1800 0.1840 0.1840 0.1820 0.1800
9.775000 0.1790 0.1790 0.1770 0.1770 0.1770
9.809146 0.1790 0.1800 0.1820 0.1820 0.1840
9.843000 0.1840 0.1840 0.1820 0.1820 0.1790
9.877146 0.1720 0.1670 0.1620 0.1580 0.1550
9.911000 0.1550 0.1580 0.1630 0.1840 0.2060
9.945146 0.2300 0.2570 0.2840 0.3100 0.3320
9.980000 0.3660 0.3900 0.4110 0.4280 0.4350
10.014146 0.4430 0.4500 0.4530 0.4530 0.4570
10.048000 0.4570 0.4590 0.4600 0.4620 0.4650
10.082146 0.4700 0.4740 0.4770 0.4770 0.4720
10.116000 0.4640 0.4480 0.4260 0.4090 0.3850
10.150146 0.3510 0.3390 0.3220 0.3030 0.2760
10.184000 0.2690 0.2520 0.2380 0.2160 0.2130
10.218146 0.2130 0.2110 0.2110 0.2090 0.2090
10.253000 0.2090 0.2090 0.2080 0.2030 0.1990
10.287146 0.1970 0.1970 0.1990 0.2010 0.2040
10.321000 0.2200 0.2380 0.2540 0.2830 0.3100
10.355146 0.3780 0.3990 0.4330 0.4650 0.4840
10.389000 0.5000 0.5270 0.5580 0.5830 0.5950
10.423146 0.6090 0.6260 0.6340 0.6500 0.6620
10.457000 0.6800 0.6870 0.6890 0.6960 0.6970
10.491146 0.6990 0.7010 0.7030 0.7040 0.7060
10.526000 0.7060 0.7160 0.7180 0.7200 0.7250
10.560146 0.7300 0.7370 0.7440 0.7500 0.7540
10.594000 0.7620 0.7670 0.7730 0.7760 0.7780
10.628146 0.7790 0.7810 0.7810 0.7810 0.7790
10.662000 0.7790 0.7760 0.7730 0.7670 0.7610
10.696146 0.7590 0.7590 0.7590 0.7590 0.7620
10.730000 0.7760 0.7830 0.7910 0.7960 0.8000
10.764146 0.8020 0.8030 0.8030 0.8070 0.8070
10.799000 0.8070 0.8070 0.8030 0.8000 0.7980
10.833146 0.7860 0.7760 0.7640 0.7450 0.7210
10.867000 0.6910 0.6720 0.6510 0.6140 0.5560
10.901146 0.5270 0.4450 0.4190 0.4040 0.3830
10.935000 0.3770 0.3770 0.3800 0.3990 0.4190
10.969146 0.4600 0.4700 0.5030 0.5300 0.5470
11.003000 0.5520 0.5630 0.5680 0.5680 0.5660
11.037146 0.5610 0.5560 0.5540 0.5540 0.5560
11.072000 0.5640 0.5760 0.5950 0.6090 0.6330
11.106146 0.6450 0.6480 0.6580 0.6650 0.6770
11.140000 0.6800 0.6870 0.6940 0.7010 0.7110
11.174146 0.7130 0.7160 0.7200 0.7230 0.7250
11.208000 0.7300 0.7320 0.7330 0.7330 0.7350
11.242146 0.7370 0.7370 0.7370 0.7370 0.7370
11.276000 0.7370 0.7370 0.7350 0.7330 0.7320
11.310146 0.7320 0.7330 0.7320 0.7320 0.7320
11.345000 0.7330 0.7330 0.7330 0.7330 0.7330
11.379146 0.7330 0.7330 0.7260 0.7200 0.7030
11.413000 0.6870 0.6750 0.6630 0.6450 0.6070
11.447146 0.5800 0.5350 0.4880 0.4500 0.4230
11.481000 0.4010 0.3870 0.3850 0.3890 0.4060
11.515146 0.4230 0.4350 0.4520 0.4740 0.4890
11.549000 0.5390 0.5660 0.5810 0.5950 0.6070
11.583146 0.6190 0.6240 0.6380 0.6480 0.6820
11.618000 0.6920 0.6990 0.7090 0.7250 0.7370
11.652146 0.7500 0.7550 0.7710 0.7780 0.7840
11.686000 0.7880 0.7900 0.7930 0.7980 0.8000
11.720146 0.8000 0.8030 0.8030 0.8050 0.8050
11.754000 0.8050 0.8050 0.8050 0.8050 0.8050
11.788146 0.8050 0.8050 0.8030 0.8030 0.8020
11.823000 0.7980 0.7980 0.7960 0.7960 0.7960
11.857146 0.7960 0.7960 0.8000 0.8000 0.8020
11.891000 0.8020 0.8050 0.8070 0.8120 0.8130
11.925146 0.8170 0.8190 0.8200 0.8200 0.8220
11.959000 0.8220 0.8240 0.8250 0.8250 0.8250
11.993146 0.8270 0.8270 0.8270 0.8270 0.8290
12.027000 0.8290 0.8290 0.8290 0.8290 0.8290
12.061146 0.8290 0.8290 0.8290 0.8270 0.8270
12.096000 0.8240 0.8240 0.8200 0.8170 0.8050
12.130146 0.7980 0.7880 0.7740 0.7610 0.7490
12.164000 0.7250 0.6990 0.6840 0.6740 0.6620
12.198146 0.6460 0.6310 0.6160 0.6050 0.6020
12.232000 0.6020 0.6020 0.6020 0.6020 0.6020
12.266146 0.6020 0.6020 0.6000 0.6000 0.5950
12.300000 0.5830 0.5800 0.5750 0.5730 0.5750
12.334146 0.5760 0.5830 0.5950 0.6070 0.6290
12.369000 0.6500 0.6650 0.7130 0.7280 0.7330
12.403146 0.7420 0.7670 0.7710 0.7910 0.7980
12.437000 0.8050 0.8130 0.8190 0.8270 0.8320
12.471146 0.8370 0.8430 0.8460 0.8490 0.8530
12.505000 0.8540 0.8560 0.8580 0.8600 0.8610
12.539146 0.8630 0.8650 0.8660 0.8700 0.8720
12.573000 0.8720 0.8730 0.8730 0.8750 0.8750
12.607146 0.8770 0.8770 0.8780 0.8780 0.8780
12.642000 0.8800 0.8800 0.8800 0.8820 0.8820
12.676146 0.8820 0.8820 0.8820 0.8820 0.8820
12.710000 0.8820 0.8820 0.8820 0.8820 0.8820
12.744146 0.8820 0.8820 0.8820 0.8820 0.8800
12.778000 0.8780 0.8770 0.8770 0.8750 0.8720
12.812146 0.8660 0.8630 0.8600 0.8560 0.8540
12.846000 0.8530 0.8510 0.8490 0.8430 0.8390
12.880146 0.8370 0.8340 0.8320 0.8320 0.8310
12.915000 0.8310 0.8310 0.8310 0.8310 0.8310
12.949146 0.8310 0.8310 0.8320 0.8340 0.8360
12.983000 0.8370 0.8370 0.8410 0.8460 0.8480
13.017146 0.8490 0.8490 0.8510 0.8560 0.8580
13.051000 0.8580 0.8610 0.8650 0.8660 0.8700
13.085146 0.8720 0.8720 0.8730 0.8730 0.8730
13.119000 0.8730 0.8750 0.8750 0.8750 0.8750
13.153146 0.8750 0.8750 0.8770 0.8770 0.8780
13.188000 0.8780 0.8800 0.8800 0.8800 0.8800
13.222146 0.8800 0.8800 0.8800 0.8800 0.8800
13.256000 0.8800 0.8800 0.8800 0.8800 0.8800
13.290146 0.8800 0.8800 0.8800 0.8800 0.8800
13.324000 0.8800 0.8800 0.8800 0.8800 0.8800
13.358146 0.8800 0.8800 0.8800 0.8800 0.8800
13.392000 0.8800 0.8800 0.8800 0.8800 0.8800
13.426146 0.8800 0.8800 0.8800 0.8800 0.8800
13.461000 0.8800 0.8780 0.8780 0.8780 0.8780
13.495146 0.8770 0.8770 0.8770 0.8770 0.8750
13.529000 0.8730 0.8730 0.8720 0.8720 0.8720
13.563146 0.8700 0.8700 0.8700 0.8680 0.8680
13.597000 0.8680 0.8680 0.8660 0.8660 0.8660
13.631146 0.8660 0.8660 0.8660 0.8660 0.8660
13.666000 0.8660 0.8660 0.8650 0.8630 0.8610
13.700146 0.8610 0.8610 0.8600 0.8600 0.8600
13.734000 0.8600 0.8600 0.8600 0.8560 0.8510
13.768146 0.8480 0.8460 0.8410 0.8390 0.8390
13.802000 0.8340 0.8290 0.8270 0.8250 0.8240
13.836146 0.8200 0.8170 0.8150 0.8130 0.8130
13.870000 0.8100 0.8080 0.8070 0.8070 0.8050
13.904146 0.8030 0.8030 0.8030 0.8030 0.8020
13.939000 0.8020 0.8020 0.8020 0.8020 0.8000
13.973146 0.8000 0.8000 0.8000 0.8000 0.8000
14.007000 0.8020 0.8020 0.8020 0.8030 0.8030
14.041146 0.8050 0.8050 0.8070 0.8070 0.8070
14.075000 0.8080 0.8080 0.8080 0.8100 0.8100
14.109146 0.8100 0.8120 0.8120 0.8120 0.8120
14.143000 0.8120 0.8130 0.8130 0.8130 0.8150
14.177146 0.8150 0.8150 0.8170 0.8170 0.8170
14.212000 0.8170 0.8170 0.8170 0.8170 0.8170
14.246146 0.8170 0.8170 0.8170 0.8170 0.8150
14.280000 0.8150 0.8150 0.8150 0.8150 0.8150
14.314146 0.8150 0.8130 0.8130 0.8130 0.8130
14.348000 0.8130 0.8130 0.8120 0.8120 0.8120
14.382146 0.8100 0.8100 0.8100 0.8080 0.8080
14.416000 0.8070 0.8070 0.8050 0.8050 0.8000
14.450146 0.7980 0.7980 0.7980 0.7960 0.7960
14.485000 0.7980 0.7980 0.7980 0.7960 0.7960
14.519146 0.7950 0.7910 0.7900 0.7900 0.7880
14.553000 0.7880 0.7860 0.7860 0.7840 0.7840
14.587146 0.7830 0.7830 0.7810 0.7810 0.7790
14.621000 0.7760 0.7760 0.7760 0.7740 0.7740
14.655146 0.7730 0.7730 0.7710 0.7710 0.7690
14.689000 0.7670 0.7660 0.7660 0.7660 0.7640
14.723146 0.7640 0.7620 0.7610 0.7610 0.7610
14.758000 0.7590 0.7590 0.7570 0.7570 0.7570
14.792146 0.7540 0.7520 0.7490 0.7490 0.7490
14.826000 0.7490 0.7490 0.7470 0.7470 0.7450
14.860146 0.7450 0.7440 0.7400 0.7400 0.7380
14.894000 0.7370 0.7350 0.7330 0.7320 0.7300
14.928146 0.7260 0.7210 0.7180 0.7150 0.7130
14.962000 0.7110 0.7090 0.7080 0.7060 0.7040
14.996146 0.7040 0.7030 0.7030 0.7030 0.7030
15.031000 0.7030 0.7030 0.7030 0.7030 0.7030
15.065146 0.7030 0.7030 0.7030 0.7030 0.7030
15.099000 0.7030 0.7030 0.7030 0.7030 0.7030
15.133146 0.7010 0.7010 0.7010 0.6990 0.6970
15.167000 0.6970 0.6970 0.6960 0.6940 0.6920
15.201146 0.6890 0.6890 0.6860 0.6860 0.6840
15.235000 0.6820 0.6800 0.6790 0.6770 0.6770
15.269146 0.6770 0.6750 0.6750 0.6740 0.6740
15.304000 0.6720 0.6700 0.6680 0.6680 0.6680
15.338146 0.6680 0.6670 0.6670 0.6670 0.6670
15.372000 0.6650 0.6650 0.6630 0.6620 0.6600
15.406146 0.6580 0.6580 0.6580 0.6580 0.6580
15.440000 0.6560 0.6560 0.6560 0.6550 0.6550
15.474146 0.6550 0.6530 0.6510 0.6510 0.6500
15.509000 0.6500 0.6480 0.6480 0.6480 0.6480
15.543146 0.6460 0.6460 0.6460 0.6450 0.6450
15.577000 0.6450 0.6430 0.6450 0.6450 0.6430
15.611146 0.6430 0.6410 0.6390 0.6390 0.6390
15.645000 0.6390 0.6390 0.6380 0.6380 0.6360
15.679146 0.6360 0.6340 0.6340 0.6340 0.6330
15.713000 0.6330 0.6310 0.6310 0.6310 0.6290
15.747146 0.6290 0.6290 0.6290 0.6290 0.6290
15.782000 0.6270 0.6270 0.6270 0.6270 0.6270
15.816146 0.6270 0.6260 0.6240 0.6240 0.6240
15.850000 0.6240 0.6220 0.6220 0.6210 0.6220
15.884146 0.6210 0.6210 0.6190 0.6170 0.6170
15.918000 0.6170 0.6170 0.6170 0.6170 0.6170
15.952146 0.6170 0.6170 0.6170 0.6170 0.6170
15.986000 0.6190 0.6170 0.6170 0.6170
##END=
