##TITLE=1,4-Benzenediamine, N,N'-dioctyl-, dihydrochloride
##JCAMP-DX=4.24
##DATA TYPE=INFRARED SPECTRUM
##CLASS=COBLENTZ III
##ORIGIN=BRITISH PETROLEUM CO. LTD., ENGLAND
##OWNER=Copyright (C) 1987 by the Coblentz Society
Collection (C) 2018 copyright by the U.S. Secretary of Commerce
on behalf of the United States of America. All rights reserved.
##DATE=1972/07/26
##NAMES=p-Phenylenediamine, N,N'-dioctyl-, dihydrochloride
##MOLFORM=C22 H42 Cl2 N2
##SOURCE REFERENCE=COBLENTZ NO. 9341
##$NIST ID=B6009341
##$NIST SOURCE=COBLENTZ
##$NIST IMAGE=cob9341
##SPECTROMETER/DATA SYSTEM=PERKIN-ELMER 157
##STATE=SOLID (KBr DISC, 0.8% WT.)
$$ HCl RUN IN KBr MAY CONTAIN SOME HBr
$$ REF. Can. J. Spec., 18,4,101, '73 C. S. DOUSE and P. B. TOOKE
##SAMPLING PROCEDURE=TRANSMISSION
##RESOLUTION=2
##DATA PROCESSING=DIGITIZED BY COBLENTZ SOCIETY (BATCH II) FROM HARD COPY
##XUNITS=1/CM
##YUNITS=TRANSMITTANCE
##XFACTOR=1.0
##YFACTOR=1
##FIRSTX=667
##LASTX=4000
##FIRSTY=0.961
##MAXX=4000
##MINX=667
##MAXY=0.9611
##MINY=0.0111
##NPOINTS=3334
##XYDATA=(X++(Y..Y))
667.000000 0.9610 0.9611 0.9601 0.9579 0.9549
672.000000 0.9529 0.9507 0.9500 0.9495 0.9471
677.000000 0.9447 0.9429 0.9422 0.9416 0.9411
682.000000 0.9406 0.9376 0.9340 0.9310 0.9291
687.000000 0.9256 0.9222 0.9194 0.9166 0.9143
692.000000 0.9124 0.9106 0.9087 0.9068 0.9048
697.000000 0.9030 0.9009 0.8987 0.8964 0.8942
702.000000 0.8923 0.8905 0.8889 0.8881 0.8872
707.000000 0.8855 0.8828 0.8786 0.8734 0.8680
712.000000 0.8632 0.8591 0.8550 0.8507 0.8458
717.000000 0.8408 0.8359 0.8319 0.8291 0.8279
722.000000 0.8277 0.8275 0.8274 0.8272 0.8257
727.000000 0.8198 0.8122 0.8047 0.7953 0.7891
732.000000 0.7851 0.7627 0.7332 0.7004 0.6755
737.000000 0.6463 0.6083 0.5668 0.5253 0.4812
742.000000 0.4407 0.4247 0.4125 0.4118 0.4120
747.000000 0.4188 0.4321 0.4443 0.4830 0.5212
752.000000 0.5406 0.5599 0.5792 0.5990 0.6128
757.000000 0.6162 0.6173 0.6199 0.6164 0.6128
762.000000 0.6067 0.6006 0.5918 0.5819 0.5716
767.000000 0.5622 0.5578 0.5515 0.5495 0.5535
772.000000 0.5580 0.5643 0.5720 0.5795 0.5870
777.000000 0.5944 0.6013 0.6065 0.6126 0.6219
782.000000 0.6327 0.6385 0.6401 0.6411 0.6420
787.000000 0.6429 0.6461 0.6480 0.6496 0.6511
792.000000 0.6559 0.6584 0.6603 0.6619 0.6633
797.000000 0.6646 0.6661 0.6686 0.6728 0.6772
802.000000 0.6812 0.6840 0.6867 0.6885 0.6903
807.000000 0.6920 0.6965 0.7004 0.7029 0.7044
812.000000 0.7050 0.7051 0.7058 0.7009 0.6974
817.000000 0.6935 0.6908 0.6863 0.6786 0.6719
822.000000 0.6683 0.6660 0.6618 0.6553 0.6488
827.000000 0.6444 0.6431 0.6423 0.6415 0.6407
832.000000 0.6371 0.6305 0.6243 0.6205 0.6188
837.000000 0.6174 0.6144 0.6085 0.6013 0.5984
842.000000 0.5961 0.5847 0.5787 0.5756 0.5744
847.000000 0.5742 0.5743 0.5737 0.5789 0.5865
852.000000 0.5923 0.5994 0.6071 0.6149 0.6269
857.000000 0.6379 0.6491 0.6608 0.6701 0.6780
862.000000 0.6852 0.6923 0.6988 0.7023 0.7045
867.000000 0.7058 0.7065 0.7069 0.7073 0.7074
872.000000 0.7075 0.7076 0.7094 0.7059 0.7021
877.000000 0.6978 0.6927 0.6868 0.6789 0.6698
882.000000 0.6608 0.6518 0.6428 0.6339 0.6249
887.000000 0.6161 0.6072 0.5984 0.5888 0.5819
892.000000 0.5769 0.5748 0.5735 0.5752 0.5771
897.000000 0.5836 0.5900 0.5941 0.5956 0.5930
902.000000 0.5828 0.5709 0.5592 0.5475 0.5357
907.000000 0.5241 0.5124 0.5008 0.4855 0.4658
912.000000 0.4604 0.4587 0.4586 0.4581 0.4597
917.000000 0.4628 0.4676 0.4725 0.4786 0.4873
922.000000 0.4898 0.4893 0.4908 0.4859 0.4836
927.000000 0.4812 0.4785 0.4753 0.4722 0.4717
932.000000 0.4715 0.4732 0.4765 0.4802 0.4850
937.000000 0.4887 0.4916 0.4931 0.4937 0.4935
942.000000 0.4930 0.4929 0.4938 0.4945 0.4959
947.000000 0.4974 0.4989 0.5004 0.5019 0.5035
952.000000 0.5050 0.5061 0.5056 0.5046 0.5019
957.000000 0.4987 0.4954 0.4921 0.4894 0.4888
962.000000 0.4882 0.4872 0.4820 0.4734 0.4628
967.000000 0.4516 0.4402 0.4193 0.4175 0.4169
972.000000 0.4160 0.4181 0.4225 0.4360 0.4487
977.000000 0.4603 0.4851 0.5008 0.5127 0.5233
982.000000 0.5343 0.5482 0.5669 0.5863 0.5962
987.000000 0.6025 0.6128 0.6176 0.6242 0.6399
992.000000 0.6506 0.6546 0.6561 0.6566 0.6569
997.000000 0.6572 0.6573 0.6597 0.6573 0.6571
1002.000000 0.6567 0.6554 0.6527 0.6471 0.6453
1007.000000 0.6440 0.6417 0.6385 0.6359 0.6352
1012.000000 0.6347 0.6330 0.6291 0.6180 0.6032
1017.000000 0.5877 0.5716 0.5443 0.4981 0.4518
1022.000000 0.4058 0.3597 0.3138 0.3049 0.3042
1027.000000 0.4474 0.5373 0.6253 0.6538 0.6603
1032.000000 0.6678 0.6744 0.6783 0.6801 0.6804
1037.000000 0.6808 0.6807 0.6811 0.6797 0.6783
1042.000000 0.6756 0.6712 0.6619 0.6494 0.6403
1047.000000 0.6308 0.6233 0.6182 0.6163 0.6179
1052.000000 0.6208 0.6253 0.6320 0.6392 0.6462
1057.000000 0.6521 0.6565 0.6602 0.6630 0.6642
1062.000000 0.6650 0.6658 0.6648 0.6640 0.6631
1067.000000 0.6622 0.6612 0.6601 0.6589 0.6576
1072.000000 0.6554 0.6519 0.6499 0.6488 0.6482
1077.000000 0.6476 0.6472 0.6468 0.6460 0.6499
1082.000000 0.6535 0.6585 0.6631 0.6676 0.6735
1087.000000 0.6793 0.6836 0.6875 0.6908 0.6940
1092.000000 0.6957 0.6965 0.6971 0.6973 0.6974
1097.000000 0.6974 0.6983 0.6968 0.6964 0.6958
1102.000000 0.6942 0.6893 0.6812 0.6745 0.6647
1107.000000 0.6487 0.6169 0.6057 0.5990 0.5936
1112.000000 0.5891 0.5859 0.5829 0.5798 0.5761
1117.000000 0.5722 0.5652 0.5165 0.5007 0.4848
1122.000000 0.4675 0.4378 0.4192 0.4082 0.3980
1127.000000 0.3874 0.3853 0.3858 0.3866 0.3905
1132.000000 0.3987 0.4074 0.4167 0.4188 0.4190
1137.000000 0.4189 0.4189 0.4189 0.4190 0.4194
1142.000000 0.4214 0.4347 0.4488 0.4628 0.4768
1147.000000 0.4908 0.5041 0.5108 0.5168 0.5261
1152.000000 0.5342 0.5416 0.5454 0.5487 0.5522
1157.000000 0.5563 0.5573 0.5581 0.5591 0.5597
1162.000000 0.5622 0.5698 0.5846 0.5982 0.6152
1167.000000 0.6304 0.6414 0.6492 0.6532 0.6570
1172.000000 0.6591 0.6603 0.6606 0.6609 0.6611
1177.000000 0.6603 0.6592 0.6575 0.6558 0.6531
1182.000000 0.6497 0.6455 0.6402 0.6313 0.6200
1187.000000 0.6091 0.5997 0.5927 0.5857 0.5538
1192.000000 0.5253 0.4977 0.4703 0.4428 0.4155
1197.000000 0.3882 0.3615 0.3516 0.3520 0.3859
1202.000000 0.4138 0.4416 0.4694 0.4971 0.5248
1207.000000 0.5524 0.5738 0.5869 0.5976 0.6036
1212.000000 0.6071 0.6133 0.6101 0.6098 0.6080
1217.000000 0.6057 0.6023 0.5990 0.5962 0.5931
1222.000000 0.5895 0.5883 0.5875 0.5875 0.5875
1227.000000 0.5855 0.5884 0.5900 0.5922 0.5938
1232.000000 0.5953 0.5967 0.5976 0.5990 0.5959
1237.000000 0.5923 0.5853 0.5780 0.5735 0.5691
1242.000000 0.5657 0.5626 0.5596 0.5561 0.5525
1247.000000 0.5491 0.5463 0.5436 0.5414 0.5403
1252.000000 0.5392 0.5382 0.5371 0.5366 0.5370
1257.000000 0.5377 0.5384 0.5396 0.5415 0.5429
1262.000000 0.5434 0.5438 0.5443 0.5447 0.5447
1267.000000 0.5447 0.5437 0.5425 0.5406 0.5385
1272.000000 0.5353 0.5322 0.5290 0.5257 0.5224
1277.000000 0.5195 0.5181 0.5171 0.5166 0.5167
1282.000000 0.5169 0.5171 0.5172 0.5175 0.5177
1287.000000 0.5181 0.5186 0.5189 0.5193 0.5197
1292.000000 0.5200 0.5185 0.5163 0.5155 0.5147
1297.000000 0.5141 0.5141 0.5143 0.5145 0.5147
1302.000000 0.5147 0.5145 0.5142 0.5136 0.5130
1307.000000 0.5119 0.5107 0.5087 0.5059 0.5027
1312.000000 0.4992 0.4869 0.4687 0.4631 0.4539
1317.000000 0.4407 0.4319 0.4250 0.4185 0.4120
1322.000000 0.4048 0.3974 0.3904 0.3838 0.3789
1327.000000 0.3762 0.3753 0.3744 0.3736 0.3721
1332.000000 0.3693 0.3662 0.3615 0.3556 0.3493
1337.000000 0.3429 0.3349 0.3270 0.3207 0.3147
1342.000000 0.3120 0.3120 0.3120 0.3118 0.3114
1347.000000 0.3109 0.3105 0.3100 0.3095 0.3091
1352.000000 0.3092 0.3111 0.3142 0.3181 0.3227
1357.000000 0.3295 0.3366 0.3439 0.3512 0.3544
1362.000000 0.3560 0.3566 0.3562 0.3585 0.3460
1367.000000 0.3333 0.3201 0.3069 0.2938 0.2807
1372.000000 0.2675 0.2545 0.2413 0.2283 0.2153
1377.000000 0.2039 0.1966 0.1904 0.1848 0.1795
1382.000000 0.1771 0.1761 0.1793 0.1809 0.1824
1387.000000 0.1837 0.1842 0.1832 0.1867 0.1786
1392.000000 0.1744 0.1704 0.1663 0.1637 0.1630
1397.000000 0.1626 0.1627 0.1630 0.1637 0.1645
1402.000000 0.1665 0.1717 0.1935 0.2053 0.2109
1407.000000 0.2155 0.2203 0.2248 0.2272 0.2286
1412.000000 0.2293 0.2300 0.2302 0.2302 0.2303
1417.000000 0.2292 0.2285 0.2252 0.2138 0.2062
1422.000000 0.2025 0.2011 0.1997 0.1983 0.1965
1427.000000 0.1936 0.1898 0.1853 0.1780 0.1757
1432.000000 0.1748 0.1741 0.1736 0.1731 0.1727
1437.000000 0.1722 0.1714 0.1706 0.1698 0.1690
1442.000000 0.1678 0.1662 0.1641 0.1609 0.1559
1447.000000 0.1422 0.1182 0.1098 0.1041 0.0993
1452.000000 0.0942 0.0879 0.0819 0.0768 0.0719
1457.000000 0.0673 0.0632 0.0601 0.0582 0.0571
1462.000000 0.0568 0.0562 0.0568 0.0580 0.0596
1467.000000 0.0616 0.0637 0.0698 0.0952 0.1201
1472.000000 0.1448 0.1696 0.1944 0.2191 0.2437
1477.000000 0.2624 0.2675 0.2698 0.2713 0.2729
1482.000000 0.2737 0.2744 0.2752 0.2761 0.2771
1487.000000 0.2795 0.2862 0.2930 0.2980 0.3019
1492.000000 0.3045 0.3070 0.3096 0.3120 0.3129
1497.000000 0.3129 0.3126 0.3123 0.3136 0.3116
1502.000000 0.3102 0.3076 0.3021 0.2770 0.2470
1507.000000 0.2170 0.1871 0.1572 0.1274 0.0976
1512.000000 0.0678 0.0510 0.0471 0.0461 0.0459
1517.000000 0.0459 0.0506 0.0699 0.0891 0.1084
1522.000000 0.1276 0.1469 0.1661 0.1852 0.2043
1527.000000 0.2234 0.2426 0.2617 0.2807 0.2997
1532.000000 0.3187 0.3377 0.3566 0.3755 0.3944
1537.000000 0.4133 0.4322 0.4510 0.4659 0.4719
1542.000000 0.4736 0.4749 0.4758 0.4763 0.4765
1547.000000 0.4766 0.4763 0.4766 0.4766 0.4765
1552.000000 0.4759 0.4751 0.4736 0.4717 0.4673
1557.000000 0.4565 0.4416 0.4266 0.4117 0.3968
1562.000000 0.3820 0.3671 0.3522 0.3374 0.3226
1567.000000 0.3078 0.2931 0.2783 0.2636 0.2489
1572.000000 0.2342 0.2196 0.1949 0.1696 0.1608
1577.000000 0.1586 0.1577 0.1572 0.1569 0.1568
1582.000000 0.1568 0.1570 0.1584 0.1593 0.1674
1587.000000 0.1777 0.1880 0.1983 0.2085 0.2188
1592.000000 0.2257 0.2284 0.2299 0.2320 0.2431
1597.000000 0.2624 0.2832 0.3040 0.3248 0.3456
1602.000000 0.3663 0.3870 0.4077 0.4284 0.4490
1607.000000 0.4696 0.4872 0.4954 0.4972 0.4984
1612.000000 0.4988 0.4993 0.4999 0.5004 0.5009
1617.000000 0.5019 0.5029 0.5041 0.5051 0.5065
1622.000000 0.5086 0.5126 0.5236 0.5329 0.5381
1627.000000 0.5424 0.5457 0.5490 0.5523 0.5562
1632.000000 0.5617 0.5673 0.5746 0.5827 0.5890
1637.000000 0.5943 0.5993 0.6036 0.6077 0.6110
1642.000000 0.6137 0.6163 0.6186 0.6208 0.6228
1647.000000 0.6241 0.6252 0.6261 0.6267 0.6271
1652.000000 0.6274 0.6278 0.6282 0.6285 0.6286
1657.000000 0.6287 0.6287 0.6288 0.6288 0.6289
1662.000000 0.6290 0.6292 0.6293 0.6294 0.6296
1667.000000 0.6297 0.6299 0.6300 0.6300 0.6302
1672.000000 0.6303 0.6305 0.6308 0.6311 0.6315
1677.000000 0.6317 0.6321 0.6324 0.6327 0.6330
1682.000000 0.6333 0.6335 0.6337 0.6339 0.6341
1687.000000 0.6343 0.6345 0.6347 0.6350 0.6353
1692.000000 0.6361 0.6374 0.6387 0.6400 0.6414
1697.000000 0.6432 0.6449 0.6467 0.6484 0.6497
1702.000000 0.6503 0.6510 0.6510 0.6511 0.6512
1707.000000 0.6512 0.6513 0.6514 0.6515 0.6515
1712.000000 0.6516 0.6516 0.6517 0.6517 0.6517
1717.000000 0.6517 0.6516 0.6516 0.6515 0.6515
1722.000000 0.6514 0.6514 0.6514 0.6513 0.6513
1727.000000 0.6512 0.6512 0.6512 0.6512 0.6512
1732.000000 0.6512 0.6512 0.6512 0.6512 0.6512
1737.000000 0.6512 0.6512 0.6512 0.6511 0.6511
1742.000000 0.6511 0.6520 0.6511 0.6511 0.6512
1747.000000 0.6512 0.6512 0.6512 0.6512 0.6512
1752.000000 0.6512 0.6512 0.6512 0.6512 0.6512
1757.000000 0.6512 0.6512 0.6512 0.6512 0.6511
1762.000000 0.6511 0.6511 0.6510 0.6510 0.6510
1767.000000 0.6509 0.6509 0.6509 0.6508 0.6508
1772.000000 0.6507 0.6507 0.6507 0.6506 0.6505
1777.000000 0.6505 0.6505 0.6504 0.6503 0.6502
1782.000000 0.6502 0.6502 0.6501 0.6500 0.6499
1787.000000 0.6498 0.6495 0.6491 0.6486 0.6481
1792.000000 0.6474 0.6461 0.6447 0.6433 0.6418
1797.000000 0.6403 0.6389 0.6374 0.6360 0.6347
1802.000000 0.6336 0.6328 0.6324 0.6323 0.6321
1807.000000 0.6320 0.6318 0.6318 0.6318 0.6295
1812.000000 0.6319 0.6319 0.6319 0.6320 0.6321
1817.000000 0.6322 0.6322 0.6326 0.6332 0.6340
1822.000000 0.6356 0.6374 0.6391 0.6406 0.6419
1827.000000 0.6424 0.6427 0.6430 0.6436 0.6441
1832.000000 0.6446 0.6452 0.6462 0.6473 0.6482
1837.000000 0.6488 0.6491 0.6494 0.6497 0.6501
1842.000000 0.6504 0.6506 0.6508 0.6508 0.6509
1847.000000 0.6510 0.6512 0.6512 0.6513 0.6514
1852.000000 0.6515 0.6515 0.6529 0.6514 0.6513
1857.000000 0.6513 0.6512 0.6510 0.6506 0.6501
1862.000000 0.6496 0.6491 0.6485 0.6480 0.6475
1867.000000 0.6470 0.6465 0.6460 0.6456 0.6452
1872.000000 0.6447 0.6442 0.6439 0.6436 0.6433
1877.000000 0.6431 0.6428 0.6426 0.6423 0.6418
1882.000000 0.6412 0.6407 0.6402 0.6397 0.6389
1887.000000 0.6379 0.6365 0.6353 0.6340 0.6327
1892.000000 0.6316 0.6304 0.6292 0.6279 0.6264
1897.000000 0.6246 0.6227 0.6209 0.6189 0.6168
1902.000000 0.6148 0.6127 0.6107 0.6087 0.6066
1907.000000 0.6046 0.6026 0.6007 0.5988 0.5969
1912.000000 0.5949 0.5927 0.5900 0.5872 0.5843
1917.000000 0.5815 0.5786 0.5757 0.5726 0.5696
1922.000000 0.5666 0.5636 0.5615 0.5595 0.5576
1927.000000 0.5557 0.5539 0.5520 0.5502 0.5483
1932.000000 0.5464 0.5444 0.5420 0.5393 0.5366
1937.000000 0.5340 0.5315 0.5295 0.5275 0.5255
1942.000000 0.5235 0.5215 0.5197 0.5179 0.5165
1947.000000 0.5156 0.5154 0.5151 0.5149 0.5147
1952.000000 0.5145 0.5143 0.5120 0.5143 0.5143
1957.000000 0.5145 0.5147 0.5151 0.5158 0.5168
1962.000000 0.5178 0.5190 0.5202 0.5213 0.5224
1967.000000 0.5235 0.5243 0.5250 0.5256 0.5262
1972.000000 0.5267 0.5270 0.5274 0.5278 0.5281
1977.000000 0.5285 0.5288 0.5289 0.5291 0.5293
1982.000000 0.5294 0.5296 0.5298 0.5300 0.5302
1987.000000 0.5303 0.5304 0.5305 0.5306 0.5307
1992.000000 0.5307 0.5308 0.5309 0.5309 0.5310
1997.000000 0.5309 0.5307 0.5304 0.5303 0.5299
2002.000000 0.5314 0.5287 0.5280 0.5273 0.5266
2007.000000 0.5260 0.5253 0.5246 0.5237 0.5225
2012.000000 0.5209 0.5191 0.5174 0.5157 0.5139
2017.000000 0.5122 0.5105 0.5088 0.5071 0.5054
2022.000000 0.5042 0.5033 0.5029 0.5028 0.5030
2027.000000 0.5031 0.5037 0.5033 0.5039 0.5047
2032.000000 0.5056 0.5065 0.5074 0.5083 0.5092
2037.000000 0.5101 0.5112 0.5124 0.5136 0.5149
2042.000000 0.5161 0.5173 0.5186 0.5199 0.5213
2047.000000 0.5227 0.5241 0.5256 0.5275 0.5295
2052.000000 0.5315 0.5340 0.5370 0.5407 0.5445
2057.000000 0.5471 0.5496 0.5520 0.5544 0.5568
2062.000000 0.5594 0.5619 0.5644 0.5665 0.5682
2067.000000 0.5698 0.5711 0.5713 0.5715 0.5717
2072.000000 0.5719 0.5721 0.5723 0.5725 0.5727
2077.000000 0.5729 0.5730 0.5731 0.5731 0.5731
2082.000000 0.5731 0.5731 0.5731 0.5731 0.5731
2087.000000 0.5731 0.5731 0.5730 0.5729 0.5745
2092.000000 0.5727 0.5725 0.5724 0.5723 0.5722
2097.000000 0.5721 0.5717 0.5713 0.5707 0.5702
2102.000000 0.5696 0.5686 0.5669 0.5647 0.5623
2107.000000 0.5595 0.5568 0.5561 0.5555 0.5548
2112.000000 0.5541 0.5534 0.5528 0.5522 0.5515
2117.000000 0.5509 0.5503 0.5498 0.5493 0.5487
2122.000000 0.5482 0.5477 0.5472 0.5467 0.5462
2127.000000 0.5457 0.5452 0.5446 0.5440 0.5434
2132.000000 0.5425 0.5416 0.5406 0.5396 0.5386
2137.000000 0.5376 0.5366 0.5355 0.5343 0.5328
2142.000000 0.5309 0.5295 0.5283 0.5282 0.5282
2147.000000 0.5282 0.5282 0.5284 0.5273 0.5290
2152.000000 0.5293 0.5296 0.5302 0.5309 0.5317
2157.000000 0.5324 0.5332 0.5341 0.5351 0.5361
2162.000000 0.5373 0.5385 0.5398 0.5411 0.5425
2167.000000 0.5436 0.5446 0.5454 0.5461 0.5468
2172.000000 0.5473 0.5476 0.5478 0.5479 0.5480
2177.000000 0.5480 0.5479 0.5479 0.5478 0.5478
2182.000000 0.5476 0.5477 0.5476 0.5474 0.5472
2187.000000 0.5470 0.5468 0.5466 0.5461 0.5456
2192.000000 0.5448 0.5440 0.5432 0.5424 0.5415
2197.000000 0.5406 0.5395 0.5385 0.5374 0.5362
2202.000000 0.5348 0.5333 0.5316 0.5298 0.5281
2207.000000 0.5263 0.5245 0.5227 0.5210 0.5192
2212.000000 0.5174 0.5152 0.5130 0.5107 0.5084
2217.000000 0.5060 0.5036 0.5006 0.4973 0.4940
2222.000000 0.4907 0.4881 0.4856 0.4833 0.4811
2227.000000 0.4788 0.4765 0.4743 0.4722 0.4713
2232.000000 0.4706 0.4700 0.4695 0.4690 0.4685
2237.000000 0.4681 0.4676 0.4671 0.4666 0.4662
2242.000000 0.4658 0.4654 0.4650 0.4646 0.4642
2247.000000 0.4635 0.4627 0.4619 0.4610 0.4596
2252.000000 0.4579 0.4556 0.4531 0.4506 0.4482
2257.000000 0.4460 0.4438 0.4406 0.4367 0.4335
2262.000000 0.4308 0.4284 0.4262 0.4241 0.4221
2267.000000 0.4202 0.4184 0.4165 0.4143 0.4119
2272.000000 0.4090 0.4062 0.4035 0.4009 0.3988
2277.000000 0.3968 0.3947 0.3926 0.3906 0.3885
2282.000000 0.3864 0.3843 0.3820 0.3798 0.3774
2287.000000 0.3750 0.3726 0.3702 0.3678 0.3654
2292.000000 0.3595 0.3504 0.3437 0.3402 0.3368
2297.000000 0.3334 0.3297 0.3253 0.3210 0.3173
2302.000000 0.3136 0.3102 0.3069 0.3035 0.3001
2307.000000 0.2967 0.2933 0.2899 0.2866 0.2832
2312.000000 0.2798 0.2765 0.2732 0.2698 0.2665
2317.000000 0.2631 0.2598 0.2564 0.2531 0.2497
2322.000000 0.2464 0.2431 0.2380 0.2317 0.2269
2327.000000 0.2241 0.2211 0.2175 0.2139 0.2094
2332.000000 0.2049 0.2028 0.2008 0.1988 0.1968
2337.000000 0.1949 0.1929 0.1906 0.1878 0.1849
2342.000000 0.1819 0.1789 0.1759 0.1729 0.1704
2347.000000 0.1681 0.1658 0.1635 0.1612 0.1588
2352.000000 0.1565 0.1542 0.1519 0.1491 0.1464
2357.000000 0.1435 0.1407 0.1378 0.1350 0.1324
2362.000000 0.1302 0.1282 0.1267 0.1252 0.1238
2367.000000 0.1224 0.1209 0.1194 0.1180 0.1165
2372.000000 0.1150 0.1136 0.1122 0.1101 0.1080
2377.000000 0.1057 0.1032 0.1008 0.0984 0.0959
2382.000000 0.0935 0.0911 0.0881 0.0850 0.0819
2387.000000 0.0788 0.0758 0.0735 0.0712 0.0692
2392.000000 0.0672 0.0653 0.0634 0.0616 0.0602
2397.000000 0.0588 0.0576 0.0565 0.0554 0.0542
2402.000000 0.0530 0.0519 0.0508 0.0497 0.0485
2407.000000 0.0475 0.0464 0.0454 0.0444 0.0435
2412.000000 0.0426 0.0418 0.0410 0.0403 0.0397
2417.000000 0.0394 0.0390 0.0388 0.0387 0.0386
2422.000000 0.0385 0.0384 0.0384 0.0383 0.0383
2427.000000 0.0383 0.0383 0.0383 0.0383 0.0383
2432.000000 0.0382 0.0382 0.0382 0.0381 0.0379
2437.000000 0.0377 0.0374 0.0371 0.0321 0.0269
2442.000000 0.0243 0.0234 0.0226 0.0222 0.0219
2447.000000 0.0215 0.0212 0.0208 0.0205 0.0202
2452.000000 0.0200 0.0198 0.0196 0.0193 0.0191
2457.000000 0.0190 0.0189 0.0188 0.0186 0.0185
2462.000000 0.0184 0.0184 0.0182 0.0181 0.0180
2467.000000 0.0179 0.0177 0.0176 0.0175 0.0174
2472.000000 0.0173 0.0172 0.0172 0.0172 0.0171
2477.000000 0.0171 0.0170 0.0169 0.0169 0.0168
2482.000000 0.0168 0.0168 0.0168 0.0168 0.0168
2487.000000 0.0168 0.0168 0.0168 0.0168 0.0168
2492.000000 0.0168 0.0169 0.0169 0.0169 0.0169
2497.000000 0.0169 0.0169 0.0169 0.0169 0.0169
2502.000000 0.0170 0.0171 0.0172 0.0172 0.0173
2507.000000 0.0174 0.0175 0.0176 0.0176 0.0177
2512.000000 0.0178 0.0179 0.0180 0.0180 0.0182
2517.000000 0.0183 0.0184 0.0185 0.0186 0.0187
2522.000000 0.0189 0.0190 0.0191 0.0192 0.0193
2527.000000 0.0193 0.0193 0.0193 0.0193 0.0194
2532.000000 0.0194 0.0194 0.0193 0.0191 0.0190
2537.000000 0.0188 0.0186 0.0184 0.0182 0.0180
2542.000000 0.0177 0.0175 0.0173 0.0171 0.0169
2547.000000 0.0167 0.0164 0.0162 0.0159 0.0157
2552.000000 0.0154 0.0151 0.0148 0.0146 0.0143
2557.000000 0.0140 0.0138 0.0135 0.0134 0.0133
2562.000000 0.0132 0.0131 0.0131 0.0129 0.0128
2567.000000 0.0127 0.0127 0.0126 0.0125 0.0124
2572.000000 0.0124 0.0124 0.0124 0.0123 0.0123
2577.000000 0.0123 0.0123 0.0123 0.0123 0.0123
2582.000000 0.0123 0.0122 0.0122 0.0122 0.0122
2587.000000 0.0122 0.0122 0.0122 0.0122 0.0122
2592.000000 0.0122 0.0122 0.0121 0.0121 0.0121
2597.000000 0.0121 0.0121 0.0121 0.0121 0.0121
2602.000000 0.0121 0.0121 0.0121 0.0120 0.0120
2607.000000 0.0120 0.0120 0.0120 0.0120 0.0120
2612.000000 0.0120 0.0120 0.0120 0.0120 0.0119
2617.000000 0.0119 0.0119 0.0119 0.0119 0.0118
2622.000000 0.0118 0.0118 0.0118 0.0118 0.0118
2627.000000 0.0117 0.0117 0.0117 0.0117 0.0117
2632.000000 0.0117 0.0117 0.0117 0.0116 0.0116
2637.000000 0.0116 0.0116 0.0116 0.0115 0.0115
2642.000000 0.0115 0.0115 0.0115 0.0115 0.0114
2647.000000 0.0114 0.0114 0.0114 0.0114 0.0114
2652.000000 0.0113 0.0113 0.0113 0.0113 0.0113
2657.000000 0.0113 0.0113 0.0113 0.0113 0.0113
2662.000000 0.0113 0.0113 0.0113 0.0113 0.0112
2667.000000 0.0112 0.0112 0.0112 0.0112 0.0112
2672.000000 0.0112 0.0112 0.0112 0.0112 0.0112
2677.000000 0.0115 0.0111 0.0111 0.0111 0.0111
2682.000000 0.0111 0.0111 0.0111 0.0111 0.0111
2687.000000 0.0111 0.0111 0.0111 0.0111 0.0111
2692.000000 0.0111 0.0111 0.0111 0.0111 0.0111
2697.000000 0.0112 0.0112 0.0112 0.0112 0.0112
2702.000000 0.0112 0.0113 0.0113 0.0113 0.0113
2707.000000 0.0113 0.0113 0.0114 0.0114 0.0114
2712.000000 0.0114 0.0114 0.0114 0.0115 0.0115
2717.000000 0.0115 0.0116 0.0116 0.0116 0.0116
2722.000000 0.0116 0.0116 0.0117 0.0117 0.0117
2727.000000 0.0117 0.0117 0.0117 0.0118 0.0118
2732.000000 0.0118 0.0118 0.0118 0.0118 0.0119
2737.000000 0.0119 0.0119 0.0120 0.0120 0.0120
2742.000000 0.0121 0.0122 0.0122 0.0123 0.0123
2747.000000 0.0123 0.0124 0.0125 0.0125 0.0126
2752.000000 0.0126 0.0126 0.0127 0.0127 0.0127
2757.000000 0.0128 0.0129 0.0129 0.0130 0.0130
2762.000000 0.0130 0.0131 0.0131 0.0131 0.0132
2767.000000 0.0132 0.0133 0.0134 0.0134 0.0134
2772.000000 0.0135 0.0135 0.0135 0.0136 0.0136
2777.000000 0.0137 0.0138 0.0139 0.0140 0.0141
2782.000000 0.0143 0.0145 0.0147 0.0148 0.0150
2787.000000 0.0151 0.0154 0.0156 0.0159 0.0162
2792.000000 0.0165 0.0168 0.0170 0.0173 0.0175
2797.000000 0.0178 0.0181 0.0183 0.0185 0.0188
2802.000000 0.0190 0.0192 0.0194 0.0197 0.0199
2807.000000 0.0201 0.0203 0.0206 0.0208 0.0210
2812.000000 0.0212 0.0214 0.0217 0.0219 0.0221
2817.000000 0.0222 0.0224 0.0225 0.0226 0.0227
2822.000000 0.0228 0.0229 0.0230 0.0231 0.0232
2827.000000 0.0233 0.0233 0.0234 0.0235 0.0236
2832.000000 0.0237 0.0238 0.0239 0.0240 0.0240
2837.000000 0.0240 0.0241 0.0241 0.0242 0.0243
2842.000000 0.0243 0.0243 0.0243 0.0244 0.0244
2847.000000 0.0244 0.0245 0.0245 0.0246 0.0247
2852.000000 0.0247 0.0247 0.0248 0.0248 0.0248
2857.000000 0.0248 0.0248 0.0248 0.0248 0.0249
2862.000000 0.0249 0.0249 0.0249 0.0249 0.0249
2867.000000 0.0250 0.0250 0.0250 0.0250 0.0250
2872.000000 0.0250 0.0250 0.0251 0.0251 0.0251
2877.000000 0.0251 0.0251 0.0251 0.0251 0.0252
2882.000000 0.0252 0.0252 0.0252 0.0252 0.0252
2887.000000 0.0253 0.0253 0.0253 0.0253 0.0253
2892.000000 0.0253 0.0253 0.0253 0.0253 0.0253
2897.000000 0.0254 0.0254 0.0254 0.0254 0.0254
2902.000000 0.0254 0.0254 0.0254 0.0254 0.0254
2907.000000 0.0255 0.0255 0.0255 0.0255 0.0255
2912.000000 0.0255 0.0255 0.0255 0.0255 0.0255
2917.000000 0.0255 0.0256 0.0256 0.0256 0.0256
2922.000000 0.0256 0.0256 0.0256 0.0256 0.0256
2927.000000 0.0256 0.0257 0.0257 0.0257 0.0257
2932.000000 0.0257 0.0257 0.0257 0.0258 0.0258
2937.000000 0.0258 0.0259 0.0259 0.0259 0.0259
2942.000000 0.0259 0.0259 0.0259 0.0260 0.0260
2947.000000 0.0260 0.0260 0.0261 0.0261 0.0261
2952.000000 0.0261 0.0261 0.0262 0.0262 0.0263
2957.000000 0.0264 0.0264 0.0265 0.0266 0.0267
2962.000000 0.0267 0.0268 0.0269 0.0269 0.0270
2967.000000 0.0271 0.0272 0.0272 0.0275 0.0277
2972.000000 0.0280 0.0283 0.0289 0.0294 0.0299
2977.000000 0.0306 0.0314 0.0321 0.0329 0.0339
2982.000000 0.0349 0.0360 0.0372 0.0386 0.0400
2987.000000 0.0414 0.0428 0.0443 0.0458 0.0473
2992.000000 0.0489 0.0504 0.0519 0.0540 0.0560
2997.000000 0.0580 0.0602 0.0626 0.0650 0.0675
3002.000000 0.0700 0.0725 0.0751 0.0774 0.0786
3007.000000 0.0798 0.0810 0.0822 0.0834 0.0846
3012.000000 0.0858 0.0868 0.0878 0.0888 0.0897
3017.000000 0.0906 0.0915 0.0924 0.0930 0.0935
3022.000000 0.0940 0.0946 0.0951 0.0956 0.0961
3027.000000 0.0966 0.0972 0.0977 0.0982 0.0987
3032.000000 0.0993 0.0999 0.1005 0.1011 0.1017
3037.000000 0.1023 0.1041 0.1083 0.1125 0.1167
3042.000000 0.1201 0.1230 0.1259 0.1288 0.1317
3047.000000 0.1346 0.1375 0.1404 0.1433 0.1461
3052.000000 0.1490 0.1519 0.1548 0.1577 0.1606
3057.000000 0.1634 0.1663 0.1692 0.1720 0.1749
3062.000000 0.1778 0.1807 0.1835 0.1864 0.1892
3067.000000 0.1921 0.1949 0.1978 0.2006 0.2034
3072.000000 0.2063 0.2091 0.2120 0.2149 0.2179
3077.000000 0.2210 0.2240 0.2268 0.2283 0.2298
3082.000000 0.2313 0.2331 0.2355 0.2378 0.2401
3087.000000 0.2415 0.2422 0.2429 0.2437 0.2444
3092.000000 0.2451 0.2457 0.2464 0.2469 0.2474
3097.000000 0.2479 0.2484 0.2488 0.2491 0.2495
3102.000000 0.2498 0.2500 0.2502 0.2503 0.2505
3107.000000 0.2507 0.2509 0.2511 0.2512 0.2514
3112.000000 0.2516 0.2518 0.2520 0.2522 0.2523
3117.000000 0.2525 0.2527 0.2528 0.2530 0.2531
3122.000000 0.2534 0.2536 0.2539 0.2542 0.2545
3127.000000 0.2548 0.2551 0.2554 0.2557 0.2560
3132.000000 0.2563 0.2566 0.2571 0.2575 0.2580
3137.000000 0.2585 0.2592 0.2598 0.2605 0.2612
3142.000000 0.2619 0.2626 0.2633 0.2642 0.2656
3147.000000 0.2670 0.2684 0.2700 0.2720 0.2740
3152.000000 0.2760 0.2781 0.2805 0.2828 0.2851
3157.000000 0.2874 0.2895 0.2916 0.2938 0.2957
3162.000000 0.2974 0.2991 0.3008 0.3031 0.3061
3167.000000 0.3091 0.3121 0.3146 0.3167 0.3188
3172.000000 0.3208 0.3229 0.3248 0.3268 0.3287
3177.000000 0.3303 0.3313 0.3323 0.3333 0.3341
3182.000000 0.3347 0.3352 0.3358 0.3363 0.3367
3187.000000 0.3371 0.3374 0.3378 0.3381 0.3384
3192.000000 0.3387 0.3390 0.3391 0.3392 0.3393
3197.000000 0.3395 0.3396 0.3397 0.3398 0.3399
3202.000000 0.3400 0.3401 0.3402 0.3403 0.3405
3207.000000 0.3406 0.3407 0.3408 0.3409 0.3411
3212.000000 0.3412 0.3413 0.3414 0.3414 0.3415
3217.000000 0.3415 0.3416 0.3416 0.3417 0.3417
3222.000000 0.3418 0.3418 0.3419 0.3419 0.3420
3227.000000 0.3420 0.3421 0.3421 0.3422 0.3422
3232.000000 0.3422 0.3422 0.3422 0.3422 0.3422
3237.000000 0.3422 0.3422 0.3423 0.3423 0.3423
3242.000000 0.3423 0.3423 0.3423 0.3423 0.3423
3247.000000 0.3424 0.3424 0.3424 0.3424 0.3423
3252.000000 0.3423 0.3423 0.3423 0.3423 0.3422
3257.000000 0.3422 0.3422 0.3422 0.3421 0.3421
3262.000000 0.3421 0.3421 0.3424 0.3420 0.3420
3267.000000 0.3420 0.3419 0.3419 0.3419 0.3418
3272.000000 0.3418 0.3417 0.3417 0.3417 0.3417
3277.000000 0.3416 0.3416 0.3416 0.3416 0.3415
3282.000000 0.3415 0.3415 0.3415 0.3415 0.3414
3287.000000 0.3414 0.3413 0.3413 0.3412 0.3412
3292.000000 0.3412 0.3412 0.3411 0.3411 0.3410
3297.000000 0.3410 0.3410 0.3409 0.3409 0.3409
3302.000000 0.3409 0.3408 0.3408 0.3407 0.3407
3307.000000 0.3407 0.3407 0.3407 0.3407 0.3407
3312.000000 0.3408 0.3408 0.3408 0.3408 0.3408
3317.000000 0.3408 0.3408 0.3408 0.3408 0.3408
3322.000000 0.3408 0.3408 0.3408 0.3408 0.3408
3327.000000 0.3408 0.3408 0.3408 0.3408 0.3408
3332.000000 0.3408 0.3408 0.3408 0.3408 0.3408
3337.000000 0.3408 0.3408 0.3408 0.3408 0.3408
3342.000000 0.3408 0.3408 0.3408 0.3408 0.3408
3347.000000 0.3408 0.3408 0.3408 0.3408 0.3408
3352.000000 0.3408 0.3408 0.3408 0.3408 0.3408
3357.000000 0.3408 0.3408 0.3408 0.3408 0.3408
3362.000000 0.3408 0.3408 0.3408 0.3408 0.3408
3367.000000 0.3408 0.3408 0.3408 0.3408 0.3408
3372.000000 0.3408 0.3408 0.3408 0.3408 0.3408
3377.000000 0.3408 0.3408 0.3408 0.3408 0.3408
3382.000000 0.3408 0.3407 0.3407 0.3407 0.3407
3387.000000 0.3407 0.3407 0.3407 0.3407 0.3407
3392.000000 0.3407 0.3407 0.3407 0.3407 0.3407
3397.000000 0.3407 0.3407 0.3407 0.3407 0.3407
3402.000000 0.3407 0.3407 0.3407 0.3407 0.3407
3407.000000 0.3407 0.3407 0.3407 0.3407 0.3408
3412.000000 0.3408 0.3408 0.3408 0.3408 0.3408
3417.000000 0.3408 0.3408 0.3408 0.3408 0.3408
3422.000000 0.3408 0.3408 0.3408 0.3408 0.3408
3427.000000 0.3408 0.3408 0.3408 0.3408 0.3408
3432.000000 0.3408 0.3408 0.3408 0.3408 0.3408
3437.000000 0.3408 0.3408 0.3408 0.3408 0.3408
3442.000000 0.3408 0.3408 0.3408 0.3408 0.3408
3447.000000 0.3408 0.3408 0.3408 0.3408 0.3408
3452.000000 0.3408 0.3408 0.3409 0.3409 0.3409
3457.000000 0.3409 0.3409 0.3409 0.3409 0.3409
3462.000000 0.3409 0.3409 0.3409 0.3409 0.3409
3467.000000 0.3409 0.3409 0.3410 0.3412 0.3413
3472.000000 0.3414 0.3417 0.3420 0.3424 0.3427
3477.000000 0.3430 0.3435 0.3441 0.3446 0.3451
3482.000000 0.3456 0.3461 0.3466 0.3471 0.3476
3487.000000 0.3481 0.3485 0.3490 0.3495 0.3500
3492.000000 0.3504 0.3508 0.3511 0.3515 0.3519
3497.000000 0.3522 0.3525 0.3529 0.3532 0.3535
3502.000000 0.3539 0.3542 0.3545 0.3549 0.3552
3507.000000 0.3556 0.3559 0.3562 0.3565 0.3568
3512.000000 0.3571 0.3574 0.3577 0.3580 0.3583
3517.000000 0.3586 0.3589 0.3591 0.3594 0.3597
3522.000000 0.3605 0.3613 0.3621 0.3629 0.3638
3527.000000 0.3649 0.3661 0.3673 0.3685 0.3697
3532.000000 0.3700 0.3703 0.3705 0.3708 0.3710
3537.000000 0.3713 0.3715 0.3718 0.3720 0.3722
3542.000000 0.3725 0.3727 0.3729 0.3731 0.3733
3547.000000 0.3735 0.3737 0.3738 0.3740 0.3741
3552.000000 0.3742 0.3743 0.3744 0.3745 0.3745
3557.000000 0.3746 0.3747 0.3747 0.3748 0.3748
3562.000000 0.3749 0.3750 0.3750 0.3751 0.3751
3567.000000 0.3752 0.3752 0.3753 0.3754 0.3754
3572.000000 0.3755 0.3755 0.3756 0.3757 0.3757
3577.000000 0.3758 0.3758 0.3758 0.3759 0.3759
3582.000000 0.3760 0.3760 0.3760 0.3761 0.3761
3587.000000 0.3762 0.3762 0.3762 0.3762 0.3762
3592.000000 0.3763 0.3763 0.3763 0.3764 0.3764
3597.000000 0.3764 0.3765 0.3765 0.3765 0.3765
3602.000000 0.3765 0.3766 0.3766 0.3766 0.3766
3607.000000 0.3766 0.3767 0.3767 0.3767 0.3767
3612.000000 0.3767 0.3768 0.3768 0.3768 0.3768
3617.000000 0.3768 0.3769 0.3769 0.3769 0.3769
3622.000000 0.3769 0.3769 0.3770 0.3770 0.3770
3627.000000 0.3770 0.3770 0.3769 0.3769 0.3769
3632.000000 0.3769 0.3769 0.3768 0.3768 0.3768
3637.000000 0.3768 0.3768 0.3768 0.3768 0.3768
3642.000000 0.3768 0.3768 0.3768 0.3767 0.3767
3647.000000 0.3767 0.3767 0.3767 0.3773 0.3767
3652.000000 0.3767 0.3767 0.3767 0.3766 0.3766
3657.000000 0.3766 0.3766 0.3766 0.3766 0.3765
3662.000000 0.3765 0.3765 0.3765 0.3765 0.3765
3667.000000 0.3765 0.3765 0.3765 0.3765 0.3765
3672.000000 0.3764 0.3764 0.3764 0.3764 0.3764
3677.000000 0.3763 0.3763 0.3763 0.3762 0.3762
3682.000000 0.3761 0.3761 0.3761 0.3761 0.3761
3687.000000 0.3761 0.3760 0.3760 0.3760 0.3760
3692.000000 0.3760 0.3759 0.3759 0.3759 0.3758
3697.000000 0.3758 0.3758 0.3757 0.3757 0.3757
3702.000000 0.3757 0.3757 0.3756 0.3756 0.3756
3707.000000 0.3756 0.3756 0.3756 0.3755 0.3755
3712.000000 0.3755 0.3755 0.3755 0.3754 0.3754
3717.000000 0.3753 0.3753 0.3752 0.3752 0.3751
3722.000000 0.3751 0.3750 0.3749 0.3749 0.3748
3727.000000 0.3748 0.3747 0.3747 0.3746 0.3746
3732.000000 0.3745 0.3744 0.3744 0.3743 0.3742
3737.000000 0.3741 0.3740 0.3738 0.3737 0.3735
3742.000000 0.3733 0.3731 0.3729 0.3726 0.3724
3747.000000 0.3721 0.3719 0.3716 0.3714 0.3711
3752.000000 0.3709 0.3706 0.3704 0.3701 0.3698
3757.000000 0.3695 0.3692 0.3689 0.3686 0.3683
3762.000000 0.3680 0.3677 0.3674 0.3672 0.3669
3767.000000 0.3666 0.3663 0.3660 0.3658 0.3655
3772.000000 0.3651 0.3647 0.3643 0.3640 0.3636
3777.000000 0.3633 0.3631 0.3630 0.3628 0.3626
3782.000000 0.3624 0.3624 0.3624 0.3624 0.3624
3787.000000 0.3624 0.3624 0.3624 0.3624 0.3624
3792.000000 0.3624 0.3624 0.3624 0.3624 0.3624
3797.000000 0.3624 0.3624 0.3624 0.3624 0.3624
3802.000000 0.3624 0.3624 0.3624 0.3624 0.3624
3807.000000 0.3624 0.3624 0.3624 0.3624 0.3624
3812.000000 0.3624 0.3624 0.3624 0.3624 0.3624
3817.000000 0.3624 0.3624 0.3624 0.3624 0.3624
3822.000000 0.3624 0.3623 0.3623 0.3623 0.3622
3827.000000 0.3622 0.3622 0.3621 0.3621 0.3620
3832.000000 0.3620 0.3619 0.3619 0.3618 0.3618
3837.000000 0.3617 0.3617 0.3616 0.3616 0.3615
3842.000000 0.3615 0.3615 0.3614 0.3614 0.3614
3847.000000 0.3613 0.3613 0.3612 0.3612 0.3611
3852.000000 0.3611 0.3609 0.3608 0.3606 0.3605
3857.000000 0.3603 0.3602 0.3599 0.3596 0.3594
3862.000000 0.3591 0.3588 0.3585 0.3583 0.3580
3867.000000 0.3577 0.3575 0.3572 0.3569 0.3567
3872.000000 0.3564 0.3561 0.3559 0.3556 0.3553
3877.000000 0.3550 0.3547 0.3543 0.3540 0.3537
3882.000000 0.3533 0.3530 0.3527 0.3524 0.3520
3887.000000 0.3517 0.3514 0.3510 0.3507 0.3503
3892.000000 0.3500 0.3496 0.3493 0.3489 0.3485
3897.000000 0.3481 0.3478 0.3474 0.3470 0.3465
3902.000000 0.3459 0.3453 0.3447 0.3441 0.3435
3907.000000 0.3433 0.3432 0.3431 0.3430 0.3429
3912.000000 0.3428 0.3427 0.3427 0.3427 0.3427
3917.000000 0.3427 0.3427 0.3426 0.3426 0.3426
3922.000000 0.3426 0.3426 0.3426 0.3425 0.3425
3927.000000 0.3425 0.3425 0.3425 0.3425 0.3424
3932.000000 0.3424 0.3424 0.3423 0.3423 0.3423
3937.000000 0.3423 0.3422 0.3422 0.3422 0.3422
3942.000000 0.3422 0.3422 0.3421 0.3421 0.3421
3947.000000 0.3420 0.3420 0.3420 0.3419 0.3419
3952.000000 0.3419 0.3418 0.3418 0.3418 0.3417
3957.000000 0.3417 0.3417 0.3417 0.3417 0.3417
3962.000000 0.3416 0.3416 0.3416 0.3416 0.3415
3967.000000 0.3415 0.3415 0.3414 0.3414 0.3414
3972.000000 0.3414 0.3414 0.3414 0.3413 0.3413
3977.000000 0.3413 0.3412 0.3412 0.3412 0.3411
3982.000000 0.3411 0.3411 0.3411 0.3410 0.3410
3987.000000 0.3410 0.3409 0.3409 0.3409 0.3409
3992.000000 0.3409 0.3409 0.3408 0.3408 0.3408
3997.000000 0.3408 0.3408 0.3408 0.3408
##END=
