##TITLE=SULFONYL-O,P'-DIPHENACYLDIBENZOATE
##JCAMP-DX=4.24
##DATA TYPE=INFRARED SPECTRUM
##CLASS=COBLENTZ
##ORIGIN=TENNESSEE EASTMAN COMPANY, RESEARCH LABORATORIES
##OWNER=COBLENTZ SOCIETY
Collection (C) 2018 copyright by the U.S. Secretary of Commerce
on behalf of the United States of America. All rights reserved.
##DATE=Not specified, most likely prior to 1970
##MOLFORM=C30 H22 O8 S
##SOURCE REFERENCE=COBLENTZ NO. 45
##$NIST ID=B6000045
##$NIST SOURCE=COBLENTZ
##$NIST IMAGE=cob45
##SPECTROMETER/DATA SYSTEM=Not specified, most likely a prism, grating, or hybrid spectrometer.
##STATE=SOLID (NUJOL MULL)
##SAMPLING PROCEDURE=TRANSMISSION
##RESOLUTION=4
##DATA PROCESSING=DIGITIZED BY NIST FROM HARD COPY
##XUNITS=MICROMETERS
##YUNITS=TRANSMITTANCE
##XFACTOR=1.000000
##YFACTOR=1
##DELTAX=000.006460
##FIRSTX=2.025
##LASTX=15.9974
##FIRSTY=0.599
##MAXX=15.9974
##MINX=2.025
##MAXY=0.86
##MINY=0.09
##NPOINTS=2164
##XYDATA=(X++(Y..Y))
2.025000 0.5990 0.5990 0.5990 0.5990 0.5990
2.057315 0.5990 0.6000 0.5990 0.5990 0.5990
2.089000 0.5990 0.5990 0.5990 0.5990 0.5990
2.121315 0.5990 0.5990 0.6000 0.6000 0.6000
2.154000 0.6000 0.6000 0.6000 0.6020 0.6020
2.186315 0.6050 0.6070 0.6080 0.6080 0.6080
2.218000 0.6100 0.6100 0.6100 0.6100 0.6100
2.250315 0.6100 0.6100 0.6100 0.6100 0.6100
2.283000 0.6100 0.6100 0.6100 0.6100 0.6100
2.315315 0.6100 0.6100 0.6100 0.6100 0.6100
2.348000 0.6100 0.6100 0.6100 0.6120 0.6130
2.380315 0.6130 0.6150 0.6160 0.6180 0.6200
2.412000 0.6210 0.6210 0.6230 0.6260 0.6280
2.444315 0.6280 0.6290 0.6310 0.6330 0.6330
2.477000 0.6360 0.6370 0.6390 0.6410 0.6440
2.509315 0.6460 0.6470 0.6490 0.6490 0.6500
2.541000 0.6520 0.6520 0.6570 0.6590 0.6600
2.573315 0.6620 0.6620 0.6630 0.6650 0.6670
2.606000 0.6670 0.6670 0.6670 0.6670 0.6670
2.638315 0.6670 0.6680 0.6720 0.6730 0.6760
2.671000 0.6780 0.6800 0.6800 0.6800 0.6810
2.703315 0.6800 0.6800 0.6800 0.6810 0.6810
2.735000 0.6830 0.6850 0.6850 0.6850 0.6850
2.767315 0.6850 0.6850 0.6850 0.6850 0.6850
2.800000 0.6850 0.6850 0.6860 0.6860 0.6860
2.832315 0.6860 0.6880 0.6880 0.6880 0.6880
2.864000 0.6890 0.6890 0.6910 0.6910 0.6910
2.896315 0.6930 0.6960 0.6980 0.6980 0.6980
2.929000 0.6980 0.6980 0.6980 0.6980 0.6980
2.961315 0.6980 0.6980 0.6980 0.6980 0.6980
2.994000 0.7010 0.7010 0.7010 0.7010 0.7020
3.026315 0.7020 0.7020 0.7020 0.7020 0.7060
3.058000 0.7070 0.7070 0.7090 0.7110 0.7110
3.090315 0.7110 0.7110 0.7110 0.7110 0.7110
3.123000 0.7110 0.7110 0.7110 0.7110 0.7110
3.155315 0.7110 0.7110 0.7110 0.7110 0.7110
3.187000 0.7090 0.7090 0.7070 0.7040 0.7020
3.219315 0.7010 0.7010 0.6910 0.6850 0.6810
3.252000 0.6780 0.6750 0.6750 0.6730 0.6720
3.284315 0.6670 0.6620 0.6590 0.6520 0.6470
3.317000 0.6370 0.6260 0.6000 0.5950 0.5320
3.349315 0.5110 0.4900 0.4330 0.3600 0.3390
3.381000 0.2740 0.2300 0.1650 0.1390 0.1200
3.413315 0.1020 0.0940 0.0940 0.0900 0.0900
3.446000 0.0950 0.1020 0.1130 0.1260 0.1280
3.478315 0.1330 0.1330 0.1330 0.1330 0.1340
3.510000 0.1590 0.2190 0.2800 0.3500 0.4280
3.542315 0.4720 0.6130 0.6600 0.7090 0.7240
3.575000 0.7270 0.7330 0.7350 0.7400 0.7430
3.607315 0.7460 0.7510 0.7590 0.7620 0.7660
3.640000 0.7670 0.7670 0.7690 0.7670 0.7670
3.672315 0.7670 0.7670 0.7670 0.7670 0.7690
3.704000 0.7690 0.7670 0.7690 0.7690 0.7670
3.736315 0.7670 0.7690 0.7690 0.7690 0.7690
3.769000 0.7690 0.7690 0.7710 0.7710 0.7720
3.801315 0.7720 0.7720 0.7720 0.7740 0.7740
3.833000 0.7750 0.7750 0.7770 0.7770 0.7770
3.865315 0.7770 0.7770 0.7770 0.7770 0.7790
3.898000 0.7790 0.7800 0.7820 0.7840 0.7850
3.930315 0.7870 0.7920 0.7920 0.7930 0.7950
3.963000 0.7950 0.7970 0.7980 0.7980 0.7980
3.995315 0.8000 0.8000 0.8010 0.8010 0.8010
4.027000 0.8050 0.8050 0.8060 0.8080 0.8080
4.059315 0.8100 0.8100 0.8100 0.8100 0.8110
4.092000 0.8110 0.8110 0.8110 0.8110 0.8110
4.124315 0.8110 0.8110 0.8110 0.8110 0.8110
4.156000 0.8130 0.8130 0.8130 0.8130 0.8130
4.188315 0.8130 0.8130 0.8130 0.8160 0.8190
4.221000 0.8210 0.8290 0.8340 0.8420 0.8470
4.253315 0.8490 0.8490 0.8490 0.8490 0.8490
4.286000 0.8490 0.8490 0.8490 0.8500 0.8490
4.318315 0.8490 0.8490 0.8490 0.8490 0.8470
4.350000 0.8440 0.8420 0.8400 0.8390 0.8390
4.382315 0.8390 0.8400 0.8400 0.8390 0.8390
4.415000 0.8390 0.8390 0.8390 0.8390 0.8390
4.447315 0.8390 0.8390 0.8390 0.8390 0.8390
4.479000 0.8400 0.8400 0.8400 0.8400 0.8400
4.511315 0.8400 0.8400 0.8400 0.8400 0.8400
4.544000 0.8400 0.8400 0.8400 0.8400 0.8400
4.576315 0.8400 0.8400 0.8400 0.8420 0.8420
4.609000 0.8420 0.8420 0.8420 0.8420 0.8420
4.641315 0.8420 0.8420 0.8420 0.8420 0.8420
4.673000 0.8420 0.8420 0.8420 0.8420 0.8420
4.705315 0.8420 0.8420 0.8420 0.8440 0.8440
4.738000 0.8440 0.8440 0.8440 0.8440 0.8440
4.770315 0.8440 0.8440 0.8450 0.8450 0.8450
4.802000 0.8450 0.8470 0.8470 0.8470 0.8470
4.834315 0.8470 0.8490 0.8490 0.8490 0.8490
4.867000 0.8490 0.8490 0.8490 0.8490 0.8490
4.899315 0.8490 0.8490 0.8490 0.8490 0.8490
4.932000 0.8490 0.8490 0.8490 0.8490 0.8490
4.964315 0.8490 0.8490 0.8490 0.8490 0.8490
4.996000 0.8490 0.8490 0.8490 0.8490 0.8490
5.028315 0.8490 0.8490 0.8490 0.8490 0.8490
5.061000 0.8490 0.8490 0.8490 0.8500 0.8490
5.093315 0.8490 0.8490 0.8490 0.8490 0.8490
5.125000 0.8490 0.8490 0.8490 0.8490 0.8490
5.157315 0.8490 0.8490 0.8490 0.8500 0.8500
5.190000 0.8500 0.8500 0.8500 0.8520 0.8500
5.222315 0.8500 0.8500 0.8500 0.8500 0.8520
5.255000 0.8520 0.8520 0.8530 0.8530 0.8550
5.287315 0.8570 0.8570 0.8550 0.8550 0.8570
5.319000 0.8570 0.8570 0.8580 0.8580 0.8580
5.351315 0.8580 0.8600 0.8600 0.8600 0.8600
5.384000 0.8600 0.8600 0.8600 0.8600 0.8600
5.416315 0.8600 0.8600 0.8600 0.8580 0.8580
5.448000 0.8580 0.8600 0.8600 0.8580 0.8580
5.480315 0.8580 0.8580 0.8580 0.8600 0.8600
5.513000 0.8600 0.8600 0.8600 0.8600 0.8600
5.545315 0.8600 0.8600 0.8600 0.8600 0.8600
5.578000 0.8600 0.8600 0.8600 0.8600 0.8600
5.610315 0.8600 0.8600 0.8600 0.8600 0.8580
5.642000 0.8580 0.8520 0.8420 0.8370 0.8270
5.674315 0.8190 0.7970 0.7580 0.6910 0.6360
5.707000 0.5810 0.5470 0.5090 0.4720 0.4330
5.739315 0.3630 0.3620 0.3600 0.3600 0.3580
5.771000 0.3570 0.3400 0.3180 0.3140 0.3160
5.803315 0.3290 0.4230 0.4620 0.5370 0.5900
5.836000 0.6080 0.6180 0.6070 0.5990 0.5550
5.868315 0.5220 0.4900 0.4220 0.3870 0.3270
5.901000 0.2820 0.2820 0.2930 0.3420 0.4000
5.933315 0.4610 0.5580 0.6000 0.6490 0.6760
5.965000 0.6980 0.7020 0.7110 0.7200 0.7350
5.997315 0.7450 0.7510 0.7580 0.7610 0.7660
6.030000 0.7710 0.7790 0.7850 0.7900 0.7930
6.062315 0.7970 0.7980 0.7980 0.7980 0.7980
6.094000 0.8000 0.8000 0.8030 0.8130 0.8160
6.126315 0.8180 0.8190 0.8190 0.8190 0.8210
6.159000 0.8210 0.8210 0.8230 0.8230 0.8230
6.191315 0.8210 0.8210 0.8190 0.8180 0.8140
6.224000 0.8080 0.8000 0.7660 0.7410 0.6990
6.256315 0.6020 0.5970 0.5950 0.5970 0.6310
6.288000 0.6990 0.7120 0.7170 0.7140 0.7110
6.320315 0.7090 0.7060 0.7040 0.7060 0.7120
6.353000 0.7370 0.7590 0.7720 0.7980 0.8030
6.385315 0.8130 0.8180 0.8230 0.8290 0.8310
6.417000 0.8320 0.8340 0.8370 0.8400 0.8420
6.449315 0.8440 0.8450 0.8450 0.8470 0.8470
6.482000 0.8470 0.8470 0.8470 0.8470 0.8470
6.514315 0.8470 0.8470 0.8470 0.8470 0.8470
6.547000 0.8470 0.8470 0.8450 0.8450 0.8450
6.579315 0.8450 0.8450 0.8450 0.8440 0.8440
6.611000 0.8440 0.8420 0.8400 0.8390 0.8390
6.643315 0.8370 0.8360 0.8340 0.8310 0.8270
6.676000 0.8230 0.8180 0.8100 0.8010 0.7980
6.708315 0.7820 0.7740 0.7670 0.7530 0.7460
6.740000 0.7350 0.7140 0.6990 0.6730 0.6360
6.772315 0.5900 0.5430 0.5140 0.4830 0.4390
6.805000 0.4170 0.4000 0.3890 0.3860 0.3840
6.837315 0.3810 0.3750 0.3710 0.3620 0.3520
6.870000 0.3470 0.3420 0.3500 0.3780 0.3890
6.902315 0.4430 0.4950 0.5320 0.5500 0.5680
6.934000 0.5760 0.5820 0.6000 0.6100 0.6200
6.966315 0.6290 0.6310 0.6330 0.6310 0.6310
6.999000 0.6310 0.6310 0.6310 0.6340 0.6460
7.031315 0.6550 0.6670 0.6730 0.6800 0.6930
7.063000 0.7060 0.7170 0.7240 0.7240 0.7190
7.095315 0.7010 0.6650 0.6340 0.5900 0.5740
7.128000 0.5630 0.5710 0.5820 0.6260 0.6570
7.160315 0.6940 0.7090 0.7140 0.7190 0.7140
7.193000 0.7110 0.6860 0.6520 0.6180 0.5970
7.225315 0.5640 0.5470 0.5240 0.5030 0.4960
7.257000 0.4880 0.4640 0.4390 0.4330 0.4280
7.289315 0.4300 0.4330 0.4330 0.4350 0.4360
7.322000 0.4360 0.4360 0.4330 0.4330 0.4350
7.354315 0.4540 0.4900 0.5860 0.6280 0.6570
7.386000 0.6850 0.6980 0.7060 0.7070 0.7110
7.418315 0.7170 0.7250 0.7300 0.7330 0.7350
7.451000 0.7370 0.7380 0.7380 0.7380 0.7380
7.483315 0.7380 0.7380 0.7380 0.7380 0.7380
7.516000 0.7380 0.7380 0.7370 0.7270 0.7200
7.548315 0.7120 0.6860 0.6680 0.6570 0.6360
7.580000 0.6210 0.5970 0.5600 0.5340 0.5030
7.612315 0.4870 0.4700 0.4510 0.4490 0.4480
7.645000 0.4480 0.4350 0.4310 0.4300 0.4260
7.677315 0.4300 0.4310 0.4330 0.4440 0.4480
7.709000 0.4510 0.4570 0.4570 0.4460 0.4230
7.741315 0.4100 0.3870 0.3830 0.3810 0.3790
7.774000 0.3780 0.3760 0.3750 0.3710 0.3600
7.806315 0.3400 0.3230 0.3010 0.2610 0.2460
7.839000 0.2400 0.2300 0.2200 0.2200 0.2240
7.871315 0.2510 0.2620 0.2750 0.2870 0.3000
7.903000 0.3110 0.3240 0.3320 0.3360 0.3360
7.935315 0.3360 0.3370 0.3420 0.3710 0.3920
7.968000 0.4150 0.4380 0.4570 0.4750 0.4980
8.000315 0.5350 0.5560 0.5680 0.5760 0.5770
8.032000 0.5820 0.5860 0.5870 0.5870 0.5760
8.064315 0.5640 0.5300 0.5140 0.4980 0.4430
8.097000 0.3860 0.3320 0.2970 0.2530 0.2200
8.129315 0.2170 0.2140 0.2170 0.2250 0.3420
8.161000 0.3780 0.4280 0.4540 0.5370 0.5550
8.193315 0.5810 0.5990 0.6160 0.6340 0.6520
8.226000 0.6570 0.6670 0.6760 0.6860 0.6960
8.258315 0.7010 0.7070 0.7150 0.7220 0.7280
8.291000 0.7370 0.7400 0.7410 0.7430 0.7460
8.323315 0.7480 0.7510 0.7510 0.7560 0.7580
8.355000 0.7590 0.7590 0.7590 0.7580 0.7540
8.387315 0.7510 0.7410 0.7240 0.7020 0.6890
8.420000 0.6630 0.6370 0.6260 0.6200 0.6210
8.452315 0.6290 0.6460 0.6600 0.6780 0.6890
8.484000 0.6990 0.7070 0.7170 0.7220 0.7280
8.516315 0.7280 0.7300 0.7300 0.7280 0.7220
8.549000 0.7150 0.7110 0.7020 0.6980 0.6810
8.581315 0.6570 0.6410 0.5760 0.5400 0.5170
8.614000 0.4950 0.4490 0.3730 0.3710 0.3620
8.646315 0.3680 0.3810 0.4390 0.4520 0.5000
8.678000 0.5550 0.5900 0.5970 0.6080 0.6150
8.710315 0.6150 0.6050 0.6000 0.5730 0.5530
8.743000 0.5080 0.4830 0.4590 0.4250 0.4200
8.775315 0.4170 0.4130 0.4100 0.4040 0.3910
8.807000 0.3780 0.3650 0.3530 0.3440 0.3320
8.839315 0.3190 0.3010 0.2950 0.2800 0.2610
8.872000 0.2500 0.2500 0.2430 0.2430 0.2500
8.904315 0.2620 0.2720 0.2900 0.3110 0.3180
8.937000 0.3340 0.3360 0.3360 0.3360 0.3360
8.969315 0.3390 0.3550 0.3660 0.3940 0.4130
9.001000 0.4460 0.4780 0.5320 0.5420 0.5480
9.033315 0.5530 0.5630 0.5740 0.5810 0.5970
9.066000 0.6000 0.6050 0.6100 0.6120 0.6120
9.098315 0.6120 0.6100 0.6080 0.6070 0.6050
9.130000 0.6030 0.6070 0.6120 0.6180 0.6340
9.162315 0.6460 0.6550 0.6620 0.6680 0.6720
9.195000 0.6760 0.6780 0.6760 0.6760 0.6760
9.227315 0.6780 0.6780 0.6800 0.6810 0.6830
9.260000 0.6860 0.6860 0.6890 0.6960 0.6980
9.292315 0.7010 0.7090 0.7170 0.7250 0.7320
9.324000 0.7370 0.7400 0.7430 0.7430 0.7430
9.356315 0.7430 0.7430 0.7430 0.7380 0.7330
9.389000 0.7280 0.7220 0.7220 0.7250 0.7270
9.421315 0.7280 0.7330 0.7380 0.7480 0.7510
9.453000 0.7590 0.7690 0.7740 0.7800 0.7840
9.485315 0.7880 0.7920 0.7950 0.7980 0.7980
9.518000 0.7980 0.8000 0.8000 0.8000 0.8000
9.550315 0.8010 0.8000 0.8000 0.8000 0.8010
9.583000 0.8010 0.8010 0.8000 0.8000 0.7980
9.615315 0.7980 0.7980 0.7880 0.7840 0.7770
9.647000 0.7720 0.7710 0.7610 0.7590 0.7510
9.679315 0.7500 0.7460 0.7450 0.7450 0.7430
9.712000 0.7410 0.7380 0.7280 0.7220 0.7140
9.744315 0.7090 0.7040 0.7040 0.7040 0.7040
9.776000 0.7040 0.7040 0.7020 0.7010 0.6990
9.808315 0.6960 0.6810 0.6670 0.6590 0.6490
9.841000 0.6420 0.6420 0.6590 0.6650 0.6800
9.873315 0.6890 0.6990 0.7090 0.7090 0.7060
9.906000 0.7010 0.6980 0.6850 0.6720 0.6630
9.938315 0.6520 0.6470 0.6500 0.6520 0.6540
9.970000 0.6720 0.6800 0.7010 0.7200 0.7400
10.002315 0.7510 0.7540 0.7620 0.7670 0.7710
10.035000 0.7750 0.7820 0.7850 0.7850 0.7870
10.067315 0.7880 0.7880 0.7920 0.7930 0.7930
10.099000 0.7950 0.7950 0.7970 0.7980 0.7980
10.131315 0.7980 0.7980 0.7980 0.7980 0.7980
10.164000 0.7980 0.7980 0.7980 0.7980 0.7970
10.196315 0.7950 0.7920 0.7880 0.7870 0.7870
10.229000 0.7870 0.7870 0.7850 0.7850 0.7850
10.261315 0.7850 0.7850 0.7840 0.7820 0.7790
10.293000 0.7750 0.7670 0.7620 0.7560 0.7430
10.325315 0.7300 0.7190 0.7070 0.6980 0.6890
10.358000 0.6780 0.6700 0.6590 0.6470 0.6290
10.390315 0.6030 0.5920 0.5690 0.5610 0.5560
10.422000 0.5470 0.5350 0.5170 0.5090 0.5010
10.454315 0.4980 0.4930 0.4820 0.4770 0.4740
10.487000 0.4740 0.4780 0.4850 0.4980 0.5340
10.519315 0.5600 0.5920 0.6210 0.6390 0.6520
10.552000 0.6810 0.6960 0.6990 0.7110 0.7150
10.584315 0.7280 0.7380 0.7480 0.7620 0.7670
10.616000 0.7690 0.7720 0.7790 0.7820 0.7880
10.648315 0.7900 0.7950 0.7970 0.7970 0.7980
10.681000 0.7980 0.8000 0.8000 0.8010 0.8030
10.713315 0.8030 0.8030 0.8030 0.8030 0.8030
10.745000 0.8030 0.8030 0.8030 0.8030 0.8010
10.777315 0.8010 0.8010 0.8010 0.8010 0.8030
10.810000 0.8060 0.8080 0.8110 0.8130 0.8140
10.842315 0.8180 0.8210 0.8230 0.8240 0.8290
10.875000 0.8310 0.8340 0.8370 0.8390 0.8400
10.907315 0.8400 0.8420 0.8440 0.8440 0.8450
10.939000 0.8450 0.8470 0.8490 0.8490 0.8490
10.971315 0.8490 0.8490 0.8490 0.8490 0.8490
11.004000 0.8500 0.8490 0.8490 0.8490 0.8490
11.036315 0.8490 0.8490 0.8500 0.8500 0.8500
11.068000 0.8500 0.8500 0.8500 0.8500 0.8500
11.100315 0.8500 0.8500 0.8500 0.8500 0.8500
11.133000 0.8500 0.8500 0.8500 0.8490 0.8490
11.165315 0.8440 0.8420 0.8400 0.8370 0.8320
11.198000 0.8290 0.8290 0.8290 0.8290 0.8290
11.230315 0.8310 0.8310 0.8320 0.8370 0.8390
11.262000 0.8400 0.8420 0.8440 0.8440 0.8470
11.294315 0.8490 0.8490 0.8490 0.8490 0.8490
11.327000 0.8490 0.8490 0.8490 0.8490 0.8490
11.359315 0.8490 0.8500 0.8490 0.8490 0.8490
11.391000 0.8490 0.8470 0.8470 0.8470 0.8450
11.423315 0.8440 0.8440 0.8440 0.8420 0.8420
11.456000 0.8420 0.8420 0.8440 0.8440 0.8450
11.488315 0.8450 0.8470 0.8470 0.8470 0.8470
11.521000 0.8490 0.8490 0.8490 0.8490 0.8490
11.553315 0.8490 0.8490 0.8470 0.8420 0.8370
11.585000 0.8340 0.8260 0.8110 0.8000 0.7880
11.617315 0.7710 0.7640 0.7620 0.7590 0.7590
11.650000 0.7690 0.7750 0.7840 0.7980 0.8000
11.682315 0.8010 0.8100 0.8190 0.8230 0.8260
11.714000 0.8290 0.8320 0.8340 0.8370 0.8370
11.746315 0.8390 0.8390 0.8400 0.8400 0.8420
11.779000 0.8440 0.8450 0.8470 0.8470 0.8470
11.811315 0.8450 0.8450 0.8450 0.8450 0.8450
11.844000 0.8450 0.8470 0.8470 0.8470 0.8450
11.876315 0.8440 0.8420 0.8420 0.8400 0.8400
11.908000 0.8390 0.8390 0.8370 0.8320 0.8310
11.940315 0.8290 0.8240 0.8230 0.8210 0.8190
11.973000 0.8180 0.8160 0.8160 0.8160 0.8140
12.005315 0.8140 0.8140 0.8130 0.8130 0.8130
12.037000 0.8130 0.8130 0.8130 0.8130 0.8180
12.069315 0.8210 0.8230 0.8290 0.8340 0.8420
12.102000 0.8440 0.8450 0.8470 0.8470 0.8490
12.134315 0.8490 0.8490 0.8490 0.8490 0.8490
12.167000 0.8490 0.8490 0.8490 0.8490 0.8490
12.199315 0.8490 0.8490 0.8490 0.8490 0.8490
12.231000 0.8490 0.8490 0.8470 0.8470 0.8470
12.263315 0.8450 0.8440 0.8420 0.8400 0.8370
12.296000 0.8320 0.8290 0.8210 0.8130 0.8060
12.328315 0.8010 0.8000 0.7880 0.7820 0.7800
12.360000 0.7790 0.7770 0.7770 0.7750 0.7750
12.392315 0.7740 0.7750 0.7770 0.7770 0.7770
12.425000 0.7790 0.7800 0.7820 0.7840 0.7880
12.457315 0.7980 0.8000 0.8000 0.8000 0.8060
12.490000 0.8130 0.8140 0.8190 0.8210 0.8230
12.522315 0.8260 0.8270 0.8310 0.8340 0.8390
12.554000 0.8400 0.8400 0.8420 0.8420 0.8420
12.586315 0.8420 0.8440 0.8440 0.8440 0.8440
12.619000 0.8440 0.8440 0.8440 0.8440 0.8440
12.651315 0.8450 0.8440 0.8440 0.8440 0.8440
12.683000 0.8400 0.8360 0.8320 0.8260 0.8130
12.715315 0.8030 0.7930 0.7800 0.7750 0.7720
12.748000 0.7720 0.7720 0.7720 0.7750 0.7800
12.780315 0.7850 0.7920 0.8010 0.8010 0.8080
12.813000 0.8130 0.8210 0.8230 0.8240 0.8260
12.845315 0.8270 0.8310 0.8310 0.8320 0.8320
12.877000 0.8320 0.8320 0.8320 0.8320 0.8320
12.909315 0.8320 0.8320 0.8310 0.8290 0.8270
12.942000 0.8180 0.8110 0.8010 0.8010 0.7970
12.974315 0.7870 0.7770 0.7670 0.7460 0.7150
13.006000 0.6650 0.6360 0.6050 0.5790 0.5420
13.038315 0.5120 0.4980 0.4820 0.4480 0.4230
13.071000 0.3920 0.3920 0.3870 0.3870 0.3920
13.103315 0.3970 0.4120 0.4300 0.4510 0.4590
13.136000 0.4830 0.5110 0.5210 0.5220 0.5210
13.168315 0.5190 0.5170 0.5080 0.5040 0.5030
13.200000 0.5000 0.4880 0.4800 0.4620 0.4620
13.232315 0.4620 0.4620 0.4640 0.4690 0.4750
13.265000 0.4900 0.5220 0.5290 0.5350 0.5470
13.297315 0.5510 0.5550 0.5610 0.5580 0.5530
13.329000 0.5500 0.5430 0.5160 0.5030 0.5000
13.361315 0.4950 0.4590 0.4350 0.4170 0.4130
13.394000 0.3970 0.3420 0.3230 0.3050 0.2970
13.426315 0.2970 0.2920 0.2920 0.2950 0.2970
13.459000 0.3010 0.3100 0.3360 0.3570 0.3780
13.491315 0.4090 0.4380 0.4570 0.4720 0.4880
13.523000 0.5300 0.5500 0.5580 0.5740 0.5890
13.555315 0.6000 0.6150 0.6210 0.6310 0.6390
13.588000 0.6470 0.6540 0.6630 0.6680 0.6720
13.620315 0.6760 0.6830 0.6880 0.6910 0.6940
13.652000 0.6940 0.6940 0.6960 0.6960 0.6960
13.684315 0.6960 0.6940 0.6930 0.6930 0.6910
13.717000 0.6880 0.6850 0.6800 0.6750 0.6700
13.749315 0.6650 0.6620 0.6600 0.6570 0.6550
13.782000 0.6540 0.6540 0.6570 0.6600 0.6620
13.814315 0.6650 0.6680 0.6720 0.6760 0.6830
13.846000 0.6890 0.6930 0.6990 0.7020 0.7090
13.878315 0.7150 0.7200 0.7240 0.7250 0.7280
13.911000 0.7320 0.7330 0.7370 0.7380 0.7400
13.943315 0.7410 0.7430 0.7430 0.7430 0.7450
13.975000 0.7450 0.7460 0.7460 0.7460 0.7460
14.007315 0.7460 0.7450 0.7450 0.7450 0.7450
14.040000 0.7450 0.7430 0.7410 0.7380 0.7330
14.072315 0.7280 0.7220 0.7150 0.7060 0.7020
14.105000 0.6940 0.6930 0.6850 0.6830 0.6780
14.137315 0.6760 0.6730 0.6730 0.6720 0.6720
14.169000 0.6720 0.6720 0.6730 0.6730 0.6750
14.201315 0.6760 0.6780 0.6780 0.6780 0.6800
14.234000 0.6810 0.6830 0.6830 0.6850 0.6850
14.266315 0.6860 0.6860 0.6880 0.6890 0.6890
14.298000 0.6880 0.6880 0.6880 0.6860 0.6860
14.330315 0.6850 0.6810 0.6800 0.6730 0.6670
14.363000 0.6590 0.6540 0.6470 0.6310 0.6150
14.395315 0.6050 0.5890 0.5730 0.5610 0.5320
14.428000 0.5120 0.5040 0.4980 0.4910 0.4800
14.460315 0.4650 0.4490 0.4360 0.4260 0.4200
14.492000 0.4100 0.4020 0.4000 0.3990 0.3920
14.524315 0.3920 0.3920 0.3920 0.3920 0.3940
14.557000 0.4000 0.4000 0.4020 0.4220 0.4280
14.589315 0.4380 0.4440 0.4640 0.4820 0.4980
14.621000 0.5340 0.5350 0.5480 0.5510 0.5680
14.653315 0.5810 0.5900 0.6020 0.6070 0.6160
14.686000 0.6250 0.6330 0.6390 0.6440 0.6490
14.718315 0.6550 0.6570 0.6590 0.6620 0.6630
14.751000 0.6650 0.6670 0.6680 0.6720 0.6720
14.783315 0.6720 0.6730 0.6730 0.6730 0.6730
14.815000 0.6750 0.6750 0.6750 0.6750 0.6750
14.847315 0.6750 0.6750 0.6750 0.6750 0.6750
14.880000 0.6750 0.6750 0.6750 0.6750 0.6730
14.912315 0.6730 0.6730 0.6730 0.6730 0.6750
14.944000 0.6750 0.6750 0.6750 0.6760 0.6760
14.976315 0.6760 0.6760 0.6760 0.6760 0.6760
15.009000 0.6760 0.6760 0.6780 0.6780 0.6780
15.041315 0.6780 0.6780 0.6780 0.6780 0.6780
15.074000 0.6780 0.6780 0.6780 0.6780 0.6780
15.106315 0.6780 0.6780 0.6780 0.6780 0.6780
15.138000 0.6780 0.6780 0.6780 0.6780 0.6780
15.170315 0.6780 0.6780 0.6780 0.6780 0.6780
15.203000 0.6780 0.6780 0.6780 0.6780 0.6780
15.235315 0.6780 0.6780 0.6760 0.6760 0.6750
15.267000 0.6750 0.6750 0.6730 0.6720 0.6720
15.299315 0.6680 0.6670 0.6630 0.6620 0.6590
15.332000 0.6550 0.6540 0.6540 0.6540 0.6520
15.364315 0.6520 0.6520 0.6520 0.6520 0.6500
15.397000 0.6500 0.6500 0.6500 0.6500 0.6500
15.429315 0.6500 0.6500 0.6500 0.6500 0.6500
15.461000 0.6500 0.6500 0.6500 0.6500 0.6500
15.493315 0.6500 0.6500 0.6500 0.6500 0.6500
15.526000 0.6520 0.6520 0.6520 0.6520 0.6520
15.558315 0.6520 0.6520 0.6520 0.6520 0.6520
15.590000 0.6520 0.6520 0.6520 0.6520 0.6520
15.622315 0.6520 0.6520 0.6520 0.6520 0.6520
15.655000 0.6520 0.6520 0.6520 0.6520 0.6520
15.687315 0.6520 0.6520 0.6520 0.6520 0.6520
15.720000 0.6520 0.6520 0.6520 0.6520 0.6520
15.752315 0.6520 0.6520 0.6520 0.6520 0.6520
15.784000 0.6520 0.6520 0.6520 0.6520 0.6520
15.816315 0.6520 0.6520 0.6520 0.6520 0.6520
15.849000 0.6520 0.6520 0.6520 0.6520 0.6520
15.881315 0.6520 0.6520 0.6540 0.6520 0.6520
15.913000 0.6520 0.6520 0.6520 0.6520 0.6520
15.945315 0.6520 0.6520 0.6520 0.6520 0.6520
15.978000 0.6520 0.6520 0.6520 0.6520
##END=
