##TITLE=1-Piperidinepropionic acid, hydrochloride
##JCAMP-DX=4.24
##DATA TYPE=INFRARED SPECTRUM
##CLASS=COBLENTZ III
##ORIGIN=DOW CHEMICAL COMPANY
##OWNER=Copyright (C) 1987 by the Coblentz Society
Collection (C) 2018 copyright by the U.S. Secretary of Commerce
on behalf of the United States of America. All rights reserved.
##DATE=1964/12/30
##NAMES=3-(1-piperidinyl)propanoic acid hydrochloride
##MOLFORM=C8 H16 Cl N O2
##MP=212 C
##SOURCE REFERENCE=COBLENTZ NO. 8180
##$NIST ID=B6008180
##$NIST SOURCE=COBLENTZ
##$NIST IMAGE=cob8180
##SPECTROMETER/DATA SYSTEM=DOW KBr FOREPRISM-GRATING
##INSTRUMENT PARAMETERS=BLAZED AT 3.5, 12.0, 20.0 MICRON AND CHANGED AT 5.0, 7.5, 14.9 MICRON
##STATE=SOLID (SPLIT MULL), FLUOROLUBE FOR 3800-1330 CM^-^1, NUJOL FOR 1330-460 CM^-^1
$$SPECTRAL CONTAMINATION DUE TO OIL AROUND 720 CM^-^1
##SAMPLING PROCEDURE=TRANSMISSION
##RESOLUTION=2
##DATA PROCESSING=DIGITIZED BY COBLENTZ SOCIETY (BATCH II) FROM HARD COPY
##XUNITS=1/CM
##YUNITS=TRANSMITTANCE
##XFACTOR=1.0
##YFACTOR=1
##FIRSTX=459
##LASTX=3784
##FIRSTY=0.7359
##MAXX=3784
##MINX=459
##MAXY=0.8856
##MINY=0.1356
##NPOINTS=3326
##XYDATA=(X++(Y..Y))
459.000000 0.7359 0.7376 0.7394 0.7414 0.7434
464.000000 0.7454 0.7469 0.7482 0.7496 0.7509
469.000000 0.7523 0.7536 0.7549 0.7562 0.7575
474.000000 0.7585 0.7564 0.7605 0.7615 0.7625
479.000000 0.7635 0.7645 0.7655 0.7665 0.7678
484.000000 0.7694 0.7709 0.7725 0.7741 0.7751
489.000000 0.7758 0.7764 0.7770 0.7768 0.7766
494.000000 0.7785 0.7759 0.7753 0.7746 0.7734
499.000000 0.7719 0.7686 0.7653 0.7620 0.7587
504.000000 0.7555 0.7524 0.7492 0.7465 0.7456
509.000000 0.7455 0.7460 0.7487 0.7583 0.7675
514.000000 0.7737 0.7791 0.7834 0.7869 0.7900
519.000000 0.7937 0.7959 0.7970 0.7982 0.7990
524.000000 0.7998 0.8006 0.8015 0.8024 0.8033
529.000000 0.8041 0.8050 0.8059 0.8067 0.8075
534.000000 0.8084 0.8088 0.8100 0.8109 0.8119
539.000000 0.8128 0.8137 0.8147 0.8156 0.8163
544.000000 0.8168 0.8174 0.8179 0.8185 0.8190
549.000000 0.8196 0.8201 0.8207 0.8210 0.8213
554.000000 0.8215 0.8218 0.8220 0.8219 0.8216
559.000000 0.8211 0.8196 0.8161 0.8098 0.7916
564.000000 0.7734 0.7552 0.7444 0.7410 0.7396
569.000000 0.7411 0.7573 0.7892 0.8014 0.8082
574.000000 0.8094 0.8105 0.8117 0.8101 0.8082
579.000000 0.8054 0.7986 0.7897 0.7821 0.7808
584.000000 0.7804 0.7812 0.7886 0.7993 0.8100
589.000000 0.8202 0.8295 0.8330 0.8352 0.8367
594.000000 0.8379 0.8390 0.8398 0.8405 0.8413
599.000000 0.8420 0.8427 0.8434 0.8438 0.8442
604.000000 0.8445 0.8448 0.8451 0.8455 0.8459
609.000000 0.8462 0.8466 0.8469 0.8471 0.8474
614.000000 0.8478 0.8482 0.8487 0.8492 0.8497
619.000000 0.8502 0.8507 0.8511 0.8516 0.8521
624.000000 0.8526 0.8531 0.8536 0.8540 0.8546
629.000000 0.8547 0.8559 0.8565 0.8571 0.8578
634.000000 0.8582 0.8586 0.8589 0.8593 0.8597
639.000000 0.8595 0.8593 0.8591 0.8589 0.8584
644.000000 0.8572 0.8560 0.8544 0.8527 0.8510
649.000000 0.8482 0.8452 0.8416 0.8368 0.8317
654.000000 0.8244 0.8170 0.8092 0.8012 0.7674
659.000000 0.7285 0.6896 0.6789 0.6773 0.6813
664.000000 0.7002 0.7191 0.7380 0.7569 0.7759
669.000000 0.7908 0.7987 0.8071 0.8154 0.8238
674.000000 0.8321 0.8405 0.8488 0.8539 0.8561
679.000000 0.8580 0.8596 0.8608 0.8617 0.8619
684.000000 0.8616 0.8635 0.8601 0.8590 0.8568
689.000000 0.8544 0.8519 0.8474 0.8424 0.8367
694.000000 0.8304 0.8232 0.8154 0.8084 0.8029
699.000000 0.7991 0.7953 0.7919 0.7911 0.7912
704.000000 0.7914 0.7921 0.7930 0.7942 0.7960
709.000000 0.7983 0.8002 0.8008 0.8008 0.8001
714.000000 0.7976 0.7946 0.7906 0.7869 0.7842
719.000000 0.7814 0.7808 0.7808 0.7810 0.7825
724.000000 0.7918 0.7994 0.8059 0.8127 0.8192
729.000000 0.8235 0.8279 0.8319 0.8355 0.8380
734.000000 0.8403 0.8422 0.8442 0.8462 0.8482
739.000000 0.8503 0.8524 0.8539 0.8555 0.8569
744.000000 0.8577 0.8584 0.8592 0.8616 0.8592
749.000000 0.8590 0.8587 0.8584 0.8581 0.8578
754.000000 0.8575 0.8573 0.8571 0.8570 0.8569
759.000000 0.8568 0.8566 0.8564 0.8561 0.8559
764.000000 0.8556 0.8554 0.8549 0.8541 0.8528
769.000000 0.8478 0.8420 0.8362 0.8309 0.8257
774.000000 0.8151 0.7906 0.7661 0.7415 0.7374
779.000000 0.7340 0.7591 0.8039 0.8487 0.8693
784.000000 0.8736 0.8764 0.8775 0.8787 0.8794
789.000000 0.8797 0.8797 0.8793 0.8785 0.8777
794.000000 0.8763 0.8748 0.8730 0.8692 0.8653
799.000000 0.8586 0.8504 0.8421 0.8333 0.8242
804.000000 0.8152 0.8062 0.7971 0.7015 0.5916
809.000000 0.5396 0.5404 0.6795 0.7615 0.8434
814.000000 0.8594 0.8654 0.8677 0.8669 0.8680
819.000000 0.8676 0.8669 0.8661 0.8652 0.8644
824.000000 0.8636 0.8626 0.8616 0.8598 0.8580
829.000000 0.8562 0.8541 0.8519 0.8497 0.8471
834.000000 0.8444 0.8417 0.8384 0.8352 0.8319
839.000000 0.8286 0.8254 0.8227 0.8200 0.8173
844.000000 0.8147 0.8120 0.8090 0.8060 0.8030
849.000000 0.8000 0.7964 0.7909 0.7830 0.7704
854.000000 0.6975 0.6408 0.6412 0.6597 0.6787
859.000000 0.6921 0.6919 0.6666 0.6306 0.5945
864.000000 0.5585 0.5224 0.4864 0.4503 0.4143
869.000000 0.4073 0.4051 0.4116 0.4144 0.4309
874.000000 0.4730 0.5152 0.5573 0.5995 0.6416
879.000000 0.6837 0.7259 0.7421 0.7437 0.7449
884.000000 0.7461 0.7482 0.7675 0.7973 0.8063
889.000000 0.8118 0.8137 0.8161 0.8142 0.8132
894.000000 0.8111 0.8072 0.7933 0.7554 0.7175
899.000000 0.6962 0.6919 0.7703 0.8140 0.8243
904.000000 0.8326 0.8329 0.8337 0.8334 0.8314
909.000000 0.8244 0.8156 0.8077 0.8065 0.8084
914.000000 0.8147 0.8271 0.8380 0.8435 0.8481
919.000000 0.8516 0.8541 0.8565 0.8581 0.8592
924.000000 0.8601 0.8606 0.8610 0.8615 0.8620
929.000000 0.8622 0.8622 0.8600 0.8623 0.8623
934.000000 0.8616 0.8606 0.8597 0.8587 0.8578
939.000000 0.8553 0.8508 0.8462 0.8406 0.8350
944.000000 0.8227 0.8114 0.8016 0.7524 0.7032
949.000000 0.6827 0.6938 0.6791 0.7369 0.7584
954.000000 0.7800 0.8015 0.8071 0.8058 0.8021
959.000000 0.7754 0.7254 0.6753 0.6252 0.5752
964.000000 0.5236 0.4980 0.4923 0.4925 0.5136
969.000000 0.6126 0.7116 0.7854 0.8101 0.8190
974.000000 0.8295 0.8432 0.8502 0.8552 0.8587
979.000000 0.8605 0.8619 0.8629 0.8631 0.8634
984.000000 0.8636 0.8639 0.8640 0.8640 0.8640
989.000000 0.8640 0.8638 0.8648 0.8627 0.8619
994.000000 0.8610 0.8602 0.8593 0.8584 0.8574
999.000000 0.8564 0.8554 0.8544 0.8534 0.8511
1004.000000 0.8489 0.8456 0.8415 0.8357 0.8276
1009.000000 0.8144 0.7915 0.7466 0.7352 0.7356
1014.000000 0.7576 0.7900 0.8158 0.8201 0.8227
1019.000000 0.8237 0.8244 0.8250 0.8252 0.8277
1024.000000 0.8255 0.8253 0.8250 0.8247 0.8233
1029.000000 0.8220 0.8195 0.8170 0.8148 0.8126
1034.000000 0.8087 0.8025 0.7930 0.7850 0.7778
1039.000000 0.7655 0.7641 0.7666 0.7735 0.7791
1044.000000 0.7827 0.7830 0.7819 0.7631 0.7409
1049.000000 0.7281 0.7266 0.7548 0.7790 0.8031
1054.000000 0.8110 0.8125 0.8127 0.8123 0.8113
1059.000000 0.8091 0.8069 0.8046 0.8023 0.8001
1064.000000 0.7978 0.7955 0.7927 0.7899 0.7871
1069.000000 0.7843 0.7800 0.7746 0.7642 0.7492
1074.000000 0.7268 0.7000 0.6682 0.6346 0.6010
1079.000000 0.5792 0.5787 0.6028 0.6497 0.6844
1084.000000 0.6866 0.6742 0.6445 0.6148 0.6121
1089.000000 0.6138 0.6949 0.7677 0.7817 0.7894
1094.000000 0.7943 0.7971 0.8000 0.8019 0.8033
1099.000000 0.8047 0.8061 0.8070 0.8078 0.8087
1104.000000 0.8094 0.8101 0.8108 0.8110 0.8109
1109.000000 0.8107 0.8102 0.8097 0.8095 0.8100
1114.000000 0.8105 0.8111 0.8117 0.8122 0.8126
1119.000000 0.8142 0.8134 0.8137 0.8141 0.8140
1124.000000 0.8135 0.8130 0.8112 0.8092 0.8072
1129.000000 0.8051 0.8024 0.7998 0.7971 0.7822
1134.000000 0.7673 0.7524 0.7510 0.7543 0.7629
1139.000000 0.7715 0.7802 0.7854 0.7869 0.7850
1144.000000 0.7833 0.7798 0.7732 0.7669 0.7606
1149.000000 0.7506 0.7201 0.6847 0.6493 0.6139
1154.000000 0.5786 0.5432 0.5402 0.5394 0.6266
1159.000000 0.7003 0.7715 0.7788 0.7773 0.7786
1164.000000 0.7781 0.7772 0.7762 0.7742 0.7715
1169.000000 0.7681 0.7643 0.7604 0.7563 0.7521
1174.000000 0.7477 0.7430 0.7383 0.7336 0.7230
1179.000000 0.7124 0.6932 0.6749 0.6592 0.6459
1184.000000 0.6263 0.5939 0.5702 0.4568 0.3629
1189.000000 0.2690 0.1751 0.1393 0.1356 0.1364
1194.000000 0.1357 0.1371 0.1402 0.1455 0.1532
1199.000000 0.1970 0.2922 0.3875 0.4827 0.5780
1204.000000 0.6450 0.6708 0.7058 0.7270 0.7403
1209.000000 0.7498 0.7580 0.7603 0.7612 0.7580
1214.000000 0.7554 0.7500 0.7407 0.7112 0.6824
1219.000000 0.6603 0.6015 0.5031 0.4048 0.3065
1224.000000 0.2081 0.1538 0.1525 0.1525 0.1555
1229.000000 0.2061 0.2570 0.3079 0.3588 0.4097
1234.000000 0.4607 0.5116 0.5743 0.6007 0.6220
1239.000000 0.6436 0.6875 0.7112 0.7274 0.7388
1244.000000 0.7470 0.7558 0.7695 0.7797 0.7857
1249.000000 0.7917 0.7942 0.7964 0.7979 0.7990
1254.000000 0.7993 0.7994 0.7996 0.8026 0.7995
1259.000000 0.7993 0.7991 0.7980 0.7964 0.7947
1264.000000 0.7924 0.7888 0.7848 0.7805 0.7760
1269.000000 0.7737 0.7733 0.7722 0.7751 0.7791
1274.000000 0.7830 0.7860 0.7867 0.7856 0.7835
1279.000000 0.7733 0.7585 0.7438 0.7365 0.7363
1284.000000 0.7366 0.7378 0.7404 0.7411 0.7404
1289.000000 0.7392 0.7089 0.6716 0.6342 0.5969
1294.000000 0.5596 0.5222 0.4849 0.4541 0.4540
1299.000000 0.4537 0.5126 0.6217 0.7156 0.7329
1304.000000 0.7461 0.7599 0.7657 0.7696 0.7716
1309.000000 0.7729 0.7743 0.7755 0.7760 0.7764
1314.000000 0.7766 0.7764 0.7762 0.7761 0.7775
1319.000000 0.7749 0.7722 0.7678 0.7620 0.7562
1324.000000 0.7484 0.7405 0.7329 0.7246 0.7155
1329.000000 0.7065 0.6974 0.6883 0.6793 0.6809
1334.000000 0.6823 0.6838 0.6844 0.6846 0.6835
1339.000000 0.6815 0.6778 0.6738 0.6695 0.6649
1344.000000 0.6608 0.6568 0.6532 0.6502 0.6471
1349.000000 0.6440 0.6402 0.6332 0.6092 0.6035
1354.000000 0.6029 0.6031 0.6305 0.6866 0.6940
1359.000000 0.6995 0.6993 0.7018 0.6980 0.6964
1364.000000 0.6932 0.6883 0.6813 0.6714 0.6632
1369.000000 0.6571 0.6514 0.6475 0.6492 0.6496
1374.000000 0.6489 0.6439 0.6390 0.6303 0.6222
1379.000000 0.6107 0.5972 0.5844 0.4912 0.4853
1384.000000 0.4891 0.5004 0.5170 0.5335 0.5501
1389.000000 0.5568 0.5583 0.5358 0.5086 0.4814
1394.000000 0.4541 0.4269 0.4191 0.4328 0.4170
1399.000000 0.4633 0.4786 0.4905 0.4913 0.4817
1404.000000 0.4685 0.4553 0.4462 0.4399 0.4343
1409.000000 0.4320 0.4306 0.4292 0.4276 0.4260
1414.000000 0.4243 0.4224 0.4155 0.3917 0.3680
1419.000000 0.3649 0.3658 0.3631 0.4016 0.4171
1424.000000 0.4505 0.5010 0.5516 0.5818 0.5780
1429.000000 0.5496 0.5212 0.4928 0.4864 0.4831
1434.000000 0.4644 0.4453 0.4423 0.4369 0.4823
1439.000000 0.6055 0.6817 0.6941 0.7039 0.7085
1444.000000 0.7158 0.7113 0.7099 0.6972 0.6830
1449.000000 0.6687 0.6576 0.6605 0.6635 0.6712
1454.000000 0.6788 0.6864 0.6906 0.6900 0.6942
1459.000000 0.6585 0.6300 0.6015 0.5730 0.5445
1464.000000 0.5159 0.4874 0.4712 0.4714 0.4783
1469.000000 0.4867 0.7737 0.8161 0.8236 0.8273
1474.000000 0.8301 0.8326 0.8353 0.8382 0.8460
1479.000000 0.8603 0.8721 0.8761 0.8801 0.8836
1484.000000 0.8847 0.8851 0.8855 0.8842 0.8856
1489.000000 0.8849 0.8844 0.8838 0.8829 0.8821
1494.000000 0.8813 0.8806 0.8801 0.8797 0.8792
1499.000000 0.8788 0.8781 0.8774 0.8768 0.8760
1504.000000 0.8750 0.8741 0.8735 0.8731 0.8727
1509.000000 0.8724 0.8723 0.8723 0.8722 0.8721
1514.000000 0.8721 0.8721 0.8722 0.8722 0.8722
1519.000000 0.8721 0.8720 0.8720 0.8719 0.8718
1524.000000 0.8717 0.8716 0.8715 0.8714 0.8712
1529.000000 0.8710 0.8708 0.8706 0.8702 0.8698
1534.000000 0.8694 0.8690 0.8686 0.8682 0.8679
1539.000000 0.8675 0.8671 0.8667 0.8664 0.8661
1544.000000 0.8659 0.8656 0.8653 0.8651 0.8648
1549.000000 0.8645 0.8643 0.8640 0.8638 0.8635
1554.000000 0.8633 0.8630 0.8628 0.8625 0.8623
1559.000000 0.8620 0.8617 0.8615 0.8611 0.8608
1564.000000 0.8605 0.8601 0.8598 0.8594 0.8591
1569.000000 0.8587 0.8584 0.8580 0.8577 0.8573
1574.000000 0.8568 0.8563 0.8559 0.8554 0.8550
1579.000000 0.8545 0.8541 0.8536 0.8532 0.8525
1584.000000 0.8518 0.8510 0.8502 0.8495 0.8487
1589.000000 0.8480 0.8472 0.8464 0.8456 0.8448
1594.000000 0.8440 0.8432 0.8424 0.8416 0.8408
1599.000000 0.8401 0.8393 0.8385 0.8377 0.8369
1604.000000 0.8362 0.8354 0.8346 0.8338 0.8330
1609.000000 0.8323 0.8317 0.8310 0.8304 0.8297
1614.000000 0.8291 0.8284 0.8278 0.8272 0.8265
1619.000000 0.8258 0.8252 0.8245 0.8239 0.8232
1624.000000 0.8226 0.8220 0.8213 0.8207 0.8201
1629.000000 0.8195 0.8189 0.8183 0.8176 0.8170
1634.000000 0.8164 0.8158 0.8150 0.8143 0.8136
1639.000000 0.8129 0.8122 0.8114 0.8107 0.8099
1644.000000 0.8089 0.8079 0.8068 0.8058 0.8046
1649.000000 0.8031 0.8016 0.8002 0.7987 0.7972
1654.000000 0.7957 0.7940 0.7922 0.7904 0.7887
1659.000000 0.7869 0.7851 0.7832 0.7801 0.7770
1664.000000 0.7739 0.7703 0.7662 0.7621 0.7580
1669.000000 0.7537 0.7493 0.7465 0.7437 0.7409
1674.000000 0.7383 0.7359 0.7335 0.7311 0.7287
1679.000000 0.7266 0.7254 0.7241 0.7224 0.7202
1684.000000 0.7162 0.7118 0.7073 0.7029 0.6984
1689.000000 0.6940 0.6895 0.6851 0.6806 0.6763
1694.000000 0.6720 0.6676 0.6633 0.6527 0.6315
1699.000000 0.6098 0.5910 0.5717 0.5533 0.5362
1704.000000 0.5228 0.4769 0.4046 0.3912 0.3759
1709.000000 0.3603 0.3430 0.3247 0.3036 0.2816
1714.000000 0.2669 0.2515 0.2073 0.1743 0.1616
1719.000000 0.1522 0.1445 0.1432 0.1438 0.1424
1724.000000 0.1559 0.1699 0.1869 0.2047 0.2568
1729.000000 0.3089 0.3609 0.4130 0.4651 0.6959
1734.000000 0.7109 0.7269 0.7412 0.7526 0.7635
1739.000000 0.7741 0.7853 0.7970 0.8054 0.8123
1744.000000 0.8187 0.8246 0.8304 0.8356 0.8403
1749.000000 0.8425 0.8446 0.8466 0.8479 0.8492
1754.000000 0.8504 0.8517 0.8529 0.8538 0.8548
1759.000000 0.8558 0.8565 0.8567 0.8570 0.8574
1764.000000 0.8578 0.8582 0.8585 0.8591 0.8596
1769.000000 0.8601 0.8605 0.8610 0.8615 0.8619
1774.000000 0.8623 0.8624 0.8624 0.8625 0.8626
1779.000000 0.8626 0.8627 0.8627 0.8626 0.8624
1784.000000 0.8621 0.8619 0.8616 0.8614 0.8612
1789.000000 0.8611 0.8605 0.8599 0.8592 0.8592
1794.000000 0.8596 0.8610 0.8627 0.8640 0.8645
1799.000000 0.8643 0.8641 0.8639 0.8630 0.8620
1804.000000 0.8611 0.8606 0.8601 0.8597 0.8598
1809.000000 0.8602 0.8615 0.8629 0.8645 0.8662
1814.000000 0.8678 0.8683 0.8688 0.8689 0.8690
1819.000000 0.8690 0.8690 0.8691 0.8692 0.8693
1824.000000 0.8694 0.8701 0.8707 0.8715 0.8726
1829.000000 0.8732 0.8732 0.8729 0.8726 0.8725
1834.000000 0.8724 0.8723 0.8722 0.8724 0.8726
1839.000000 0.8732 0.8739 0.8747 0.8755 0.8757
1844.000000 0.8758 0.8759 0.8760 0.8761 0.8762
1849.000000 0.8762 0.8763 0.8764 0.8765 0.8766
1854.000000 0.8766 0.8766 0.8766 0.8767 0.8767
1859.000000 0.8767 0.8767 0.8767 0.8766 0.8765
1864.000000 0.8763 0.8762 0.8761 0.8759 0.8758
1869.000000 0.8757 0.8755 0.8754 0.8753 0.8751
1874.000000 0.8750 0.8749 0.8747 0.8748 0.8745
1879.000000 0.8744 0.8743 0.8742 0.8741 0.8741
1884.000000 0.8740 0.8739 0.8738 0.8739 0.8739
1889.000000 0.8739 0.8739 0.8739 0.8740 0.8738
1894.000000 0.8737 0.8735 0.8734 0.8731 0.8727
1899.000000 0.8722 0.8718 0.8714 0.8712 0.8709
1904.000000 0.8707 0.8706 0.8712 0.8719 0.8721
1909.000000 0.8722 0.8722 0.8723 0.8724 0.8724
1914.000000 0.8722 0.8719 0.8717 0.8714 0.8712
1919.000000 0.8710 0.8709 0.8707 0.8706 0.8705
1924.000000 0.8704 0.8702 0.8701 0.8698 0.8696
1929.000000 0.8693 0.8691 0.8688 0.8686 0.8683
1934.000000 0.8681 0.8678 0.8675 0.8673 0.8669
1939.000000 0.8666 0.8662 0.8658 0.8655 0.8651
1944.000000 0.8648 0.8643 0.8639 0.8634 0.8630
1949.000000 0.8627 0.8625 0.8623 0.8621 0.8618
1954.000000 0.8615 0.8611 0.8608 0.8604 0.8603
1959.000000 0.8603 0.8602 0.8602 0.8602 0.8601
1964.000000 0.8601 0.8601 0.8602 0.8603 0.8604
1969.000000 0.8605 0.8605 0.8606 0.8606 0.8606
1974.000000 0.8606 0.8606 0.8607 0.8607 0.8607
1979.000000 0.8606 0.8605 0.8604 0.8603 0.8601
1984.000000 0.8601 0.8605 0.8610 0.8614 0.8619
1989.000000 0.8623 0.8627 0.8632 0.8636 0.8641
1994.000000 0.8645 0.8650 0.8654 0.8658 0.8663
1999.000000 0.8667 0.8669 0.8667 0.8666 0.8666
2004.000000 0.8667 0.8667 0.8667 0.8667 0.8667
2009.000000 0.8667 0.8667 0.8666 0.8665 0.8663
2014.000000 0.8662 0.8660 0.8659 0.8657 0.8656
2019.000000 0.8654 0.8653 0.8651 0.8650 0.8648
2024.000000 0.8646 0.8644 0.8643 0.8641 0.8640
2029.000000 0.8638 0.8636 0.8634 0.8633 0.8631
2034.000000 0.8630 0.8628 0.8626 0.8624 0.8623
2039.000000 0.8621 0.8620 0.8618 0.8617 0.8615
2044.000000 0.8613 0.8611 0.8610 0.8608 0.8606
2049.000000 0.8604 0.8602 0.8600 0.8598 0.8596
2054.000000 0.8595 0.8593 0.8591 0.8589 0.8587
2059.000000 0.8585 0.8584 0.8582 0.8580 0.8578
2064.000000 0.8576 0.8574 0.8573 0.8571 0.8569
2069.000000 0.8567 0.8565 0.8563 0.8562 0.8560
2074.000000 0.8558 0.8556 0.8555 0.8553 0.8551
2079.000000 0.8549 0.8548 0.8546 0.8544 0.8542
2084.000000 0.8540 0.8538 0.8537 0.8535 0.8533
2089.000000 0.8531 0.8529 0.8527 0.8526 0.8524
2094.000000 0.8522 0.8520 0.8518 0.8516 0.8514
2099.000000 0.8512 0.8510 0.8508 0.8506 0.8504
2104.000000 0.8502 0.8500 0.8498 0.8496 0.8495
2109.000000 0.8493 0.8491 0.8489 0.8487 0.8485
2114.000000 0.8483 0.8481 0.8479 0.8477 0.8475
2119.000000 0.8472 0.8470 0.8468 0.8466 0.8464
2124.000000 0.8462 0.8460 0.8458 0.8456 0.8454
2129.000000 0.8451 0.8449 0.8445 0.8442 0.8438
2134.000000 0.8435 0.8431 0.8428 0.8424 0.8421
2139.000000 0.8417 0.8414 0.8410 0.8407 0.8403
2144.000000 0.8400 0.8396 0.8393 0.8389 0.8386
2149.000000 0.8383 0.8380 0.8374 0.8369 0.8362
2154.000000 0.8356 0.8349 0.8342 0.8335 0.8328
2159.000000 0.8321 0.8315 0.8308 0.8301 0.8295
2164.000000 0.8289 0.8283 0.8278 0.8273 0.8268
2169.000000 0.8262 0.8257 0.8251 0.8246 0.8241
2174.000000 0.8236 0.8231 0.8226 0.8220 0.8215
2179.000000 0.8210 0.8205 0.8203 0.8202 0.8199
2184.000000 0.8197 0.8193 0.8189 0.8185 0.8182
2189.000000 0.8178 0.8174 0.8170 0.8166 0.8162
2194.000000 0.8159 0.8155 0.8151 0.8147 0.8143
2199.000000 0.8140 0.8137 0.8134 0.8132 0.8129
2204.000000 0.8126 0.8123 0.8121 0.8118 0.8116
2209.000000 0.8113 0.8110 0.8107 0.8105 0.8100
2214.000000 0.8096 0.8092 0.8088 0.8083 0.8079
2219.000000 0.8074 0.8070 0.8065 0.8060 0.8054
2224.000000 0.8048 0.8042 0.8036 0.8030 0.8024
2229.000000 0.8018 0.8013 0.8007 0.8001 0.7995
2234.000000 0.7989 0.7983 0.7978 0.7972 0.7966
2239.000000 0.7960 0.7954 0.7948 0.7943 0.7937
2244.000000 0.7931 0.7925 0.7920 0.7915 0.7910
2249.000000 0.7905 0.7900 0.7895 0.7890 0.7885
2254.000000 0.7880 0.7875 0.7870 0.7865 0.7860
2259.000000 0.7855 0.7851 0.7845 0.7840 0.7835
2264.000000 0.7830 0.7824 0.7819 0.7816 0.7814
2269.000000 0.7811 0.7809 0.7807 0.7805 0.7802
2274.000000 0.7800 0.7797 0.7795 0.7794 0.7794
2279.000000 0.7795 0.7797 0.7798 0.7799 0.7800
2284.000000 0.7802 0.7803 0.7805 0.7800 0.7796
2289.000000 0.7792 0.7788 0.7781 0.7775 0.7768
2294.000000 0.7762 0.7755 0.7748 0.7741 0.7735
2299.000000 0.7728 0.7721 0.7714 0.7708 0.7701
2304.000000 0.7695 0.7689 0.7683 0.7676 0.7670
2309.000000 0.7664 0.7658 0.7652 0.7646 0.7640
2314.000000 0.7634 0.7627 0.7621 0.7615 0.7609
2319.000000 0.7603 0.7597 0.7590 0.7584 0.7578
2324.000000 0.7572 0.7565 0.7559 0.7552 0.7545
2329.000000 0.7537 0.7530 0.7522 0.7515 0.7507
2334.000000 0.7500 0.7493 0.7486 0.7478 0.7471
2339.000000 0.7463 0.7456 0.7448 0.7441 0.7433
2344.000000 0.7426 0.7416 0.7407 0.7397 0.7388
2349.000000 0.7378 0.7369 0.7359 0.7350 0.7340
2354.000000 0.7331 0.7328 0.7325 0.7323 0.7321
2359.000000 0.7319 0.7318 0.7316 0.7315 0.7313
2364.000000 0.7312 0.7310 0.7308 0.7308 0.7309
2369.000000 0.7312 0.7315 0.7317 0.7320 0.7323
2374.000000 0.7326 0.7328 0.7331 0.7332 0.7334
2379.000000 0.7335 0.7337 0.7339 0.7341 0.7342
2384.000000 0.7344 0.7340 0.7337 0.7331 0.7325
2389.000000 0.7318 0.7311 0.7303 0.7296 0.7286
2394.000000 0.7276 0.7264 0.7253 0.7246 0.7240
2399.000000 0.7239 0.7239 0.7239 0.7239 0.7238
2404.000000 0.7237 0.7236 0.7235 0.7234 0.7233
2409.000000 0.7233 0.7234 0.7235 0.7236 0.7237
2414.000000 0.7238 0.7239 0.7240 0.7240 0.7240
2419.000000 0.7233 0.7227 0.7221 0.7215 0.7208
2424.000000 0.7201 0.7188 0.7176 0.7163 0.7150
2429.000000 0.7136 0.7123 0.7109 0.7095 0.7081
2434.000000 0.7067 0.7053 0.7040 0.7026 0.7013
2439.000000 0.6999 0.6986 0.6972 0.6959 0.6945
2444.000000 0.6932 0.6917 0.6903 0.6889 0.6875
2449.000000 0.6851 0.6827 0.6795 0.6764 0.6738
2454.000000 0.6713 0.6691 0.6670 0.6649 0.6628
2459.000000 0.6608 0.6589 0.6570 0.6551 0.6532
2464.000000 0.6514 0.6496 0.6478 0.6461 0.6444
2469.000000 0.6433 0.6423 0.6412 0.6401 0.6388
2474.000000 0.6376 0.6365 0.6354 0.6352 0.6350
2479.000000 0.6347 0.6345 0.6346 0.6347 0.6348
2484.000000 0.6349 0.6350 0.6351 0.6352 0.6354
2489.000000 0.6356 0.6359 0.6361 0.6364 0.6366
2494.000000 0.6368 0.6361 0.6354 0.6334 0.6315
2499.000000 0.6289 0.6264 0.6231 0.6199 0.6174
2504.000000 0.6149 0.6138 0.6128 0.6128 0.6128
2509.000000 0.6132 0.6137 0.6142 0.6147 0.6151
2514.000000 0.6156 0.6159 0.6163 0.6166 0.6170
2519.000000 0.6170 0.6170 0.6163 0.6156 0.6136
2524.000000 0.6116 0.6091 0.6066 0.6040 0.6015
2529.000000 0.5975 0.5936 0.5900 0.5865 0.5833
2534.000000 0.5802 0.5772 0.5743 0.5720 0.5697
2539.000000 0.5674 0.5651 0.5627 0.5604 0.5577
2544.000000 0.5550 0.5523 0.5496 0.5408 0.5320
2549.000000 0.5090 0.4860 0.4793 0.4727 0.4702
2554.000000 0.4678 0.4674 0.4670 0.4721 0.4698
2559.000000 0.4854 0.4937 0.5007 0.5077 0.5126
2564.000000 0.5175 0.5214 0.5254 0.5293 0.5382
2569.000000 0.5349 0.5367 0.5365 0.5364 0.5310
2574.000000 0.5257 0.5197 0.5138 0.5099 0.5060
2579.000000 0.5059 0.5054 0.5092 0.5127 0.5222
2584.000000 0.5318 0.5488 0.5659 0.5716 0.5773
2589.000000 0.5830 0.5888 0.5913 0.5938 0.5946
2594.000000 0.5955 0.5959 0.5963 0.5966 0.5969
2599.000000 0.5971 0.5983 0.5976 0.5979 0.5967
2604.000000 0.5955 0.5925 0.5896 0.5840 0.5784
2609.000000 0.5732 0.5681 0.5567 0.5454 0.5453
2614.000000 0.5453 0.5455 0.5457 0.5459 0.5461
2619.000000 0.5462 0.5464 0.5459 0.5455 0.5426
2624.000000 0.5397 0.5372 0.5347 0.5326 0.5306
2629.000000 0.5265 0.5224 0.5141 0.5058 0.4996
2634.000000 0.4934 0.4916 0.4899 0.4870 0.4841
2639.000000 0.4810 0.4779 0.4719 0.4660 0.4563
2644.000000 0.4467 0.4388 0.4309 0.4127 0.3946
2649.000000 0.3879 0.3812 0.3810 0.3816 0.3825
2654.000000 0.3842 0.3862 0.3882 0.3902 0.3922
2659.000000 0.3942 0.3962 0.3972 0.3990 0.3975
2664.000000 0.3968 0.3919 0.3871 0.3823 0.3775
2669.000000 0.3726 0.3678 0.3629 0.3581 0.3571
2674.000000 0.3562 0.3577 0.3571 0.3624 0.3656
2679.000000 0.3687 0.3719 0.3751 0.3783 0.3815
2684.000000 0.3847 0.3849 0.3871 0.3826 0.3802
2689.000000 0.3730 0.3659 0.3588 0.3517 0.3446
2694.000000 0.3375 0.3307 0.3240 0.3240 0.3244
2699.000000 0.3283 0.3327 0.3414 0.3502 0.3589
2704.000000 0.3676 0.3762 0.3848 0.3880 0.3912
2709.000000 0.3999 0.4087 0.4144 0.4201 0.4252
2714.000000 0.4304 0.4399 0.4495 0.4566 0.4637
2719.000000 0.4686 0.4736 0.4771 0.4806 0.4841
2724.000000 0.4877 0.4915 0.4954 0.4995 0.5037
2729.000000 0.5078 0.5119 0.5169 0.5219 0.5274
2734.000000 0.5330 0.5371 0.5413 0.5448 0.5483
2739.000000 0.5518 0.5554 0.5585 0.5617 0.5643
2744.000000 0.5670 0.5697 0.5724 0.5750 0.5777
2749.000000 0.5799 0.5822 0.5842 0.5862 0.5882
2754.000000 0.5902 0.5922 0.5942 0.5960 0.5978
2759.000000 0.5991 0.6004 0.6016 0.6029 0.6042
2764.000000 0.6055 0.6061 0.6068 0.6071 0.6074
2769.000000 0.6074 0.6075 0.6068 0.6064 0.6055
2774.000000 0.6048 0.6041 0.6034 0.6023 0.6012
2779.000000 0.6000 0.5989 0.5978 0.5967 0.5952
2784.000000 0.5938 0.5922 0.5907 0.5893 0.5880
2789.000000 0.5866 0.5853 0.5839 0.5826 0.5812
2794.000000 0.5799 0.5786 0.5774 0.5761 0.5748
2799.000000 0.5735 0.5722 0.5709 0.5696 0.5683
2804.000000 0.5670 0.5657 0.5644 0.5630 0.5617
2809.000000 0.5604 0.5592 0.5579 0.5567 0.5554
2814.000000 0.5542 0.5529 0.5517 0.5504 0.5492
2819.000000 0.5479 0.5467 0.5454 0.5442 0.5429
2824.000000 0.5417 0.5404 0.5391 0.5378 0.5365
2829.000000 0.5352 0.5339 0.5326 0.5313 0.5292
2834.000000 0.5272 0.5251 0.5231 0.5179 0.5127
2839.000000 0.5061 0.4996 0.4921 0.4846 0.4817
2844.000000 0.4789 0.4760 0.4731 0.4713 0.4696
2849.000000 0.4681 0.4666 0.4651 0.4636 0.4621
2854.000000 0.4606 0.4594 0.4583 0.4571 0.4560
2859.000000 0.4548 0.4537 0.4525 0.4514 0.4502
2864.000000 0.4491 0.4479 0.4467 0.4454 0.4442
2869.000000 0.4430 0.4418 0.4405 0.4393 0.4380
2874.000000 0.4368 0.4351 0.4334 0.4309 0.4284
2879.000000 0.4259 0.4234 0.4209 0.4184 0.4158
2884.000000 0.4133 0.4107 0.4082 0.4056 0.4031
2889.000000 0.4001 0.3972 0.3940 0.3908 0.3876
2894.000000 0.3844 0.3808 0.3773 0.3735 0.3697
2899.000000 0.3659 0.3621 0.3589 0.3558 0.3529
2904.000000 0.3501 0.3472 0.3444 0.3416 0.3388
2909.000000 0.3359 0.3331 0.3303 0.3275 0.3247
2914.000000 0.3220 0.3192 0.3164 0.3136 0.3109
2919.000000 0.3081 0.3054 0.3025 0.2997 0.2958
2924.000000 0.2919 0.2879 0.2840 0.2801 0.2762
2929.000000 0.2707 0.2652 0.2595 0.2538 0.2477
2934.000000 0.2417 0.2380 0.2343 0.2338 0.2334
2939.000000 0.2331 0.2329 0.2326 0.2335 0.2322
2944.000000 0.2321 0.2320 0.2319 0.2318 0.2317
2949.000000 0.2401 0.2486 0.2577 0.2668 0.2837
2954.000000 0.3006 0.3056 0.3107 0.3157 0.3207
2959.000000 0.3255 0.3304 0.3352 0.3401 0.3452
2964.000000 0.3504 0.3556 0.3608 0.3682 0.3756
2969.000000 0.3811 0.3867 0.3905 0.3943 0.3981
2974.000000 0.4020 0.4058 0.4096 0.4132 0.4168
2979.000000 0.4202 0.4237 0.4271 0.4305 0.4337
2984.000000 0.4370 0.4401 0.4433 0.4459 0.4486
2989.000000 0.4504 0.4523 0.4536 0.4550 0.4559
2994.000000 0.4569 0.4575 0.4582 0.4588 0.4594
2999.000000 0.4600 0.4606 0.4612 0.4618 0.4624
3004.000000 0.4631 0.4637 0.4644 0.4658 0.4673
3009.000000 0.4754 0.4835 0.4850 0.4865 0.4876
3014.000000 0.4887 0.4892 0.4898 0.4903 0.4909
3019.000000 0.4910 0.4912 0.4912 0.4912 0.4912
3024.000000 0.4912 0.4911 0.4911 0.4909 0.4908
3029.000000 0.4906 0.4905 0.4903 0.4901 0.4897
3034.000000 0.4894 0.4890 0.4887 0.4884 0.4881
3039.000000 0.4877 0.4874 0.4873 0.4872 0.4871
3044.000000 0.4871 0.4870 0.4870 0.4874 0.4878
3049.000000 0.4890 0.4902 0.5008 0.5115 0.5202
3054.000000 0.5290 0.5339 0.5388 0.5430 0.5473
3059.000000 0.5513 0.5554 0.5591 0.5629 0.5664
3064.000000 0.5700 0.5729 0.5758 0.5775 0.5792
3069.000000 0.5809 0.5826 0.5835 0.5845 0.5847
3074.000000 0.5849 0.5851 0.5840 0.5853 0.5853
3079.000000 0.5851 0.5849 0.5847 0.5845 0.5842
3084.000000 0.5839 0.5835 0.5832 0.5828 0.5825
3089.000000 0.5818 0.5812 0.5804 0.5797 0.5789
3094.000000 0.5782 0.5766 0.5750 0.5734 0.5718
3099.000000 0.5700 0.5682 0.5658 0.5635 0.5612
3104.000000 0.5589 0.5568 0.5548 0.5527 0.5506
3109.000000 0.5478 0.5451 0.5422 0.5394 0.5372
3114.000000 0.5351 0.5334 0.5317 0.5300 0.5284
3119.000000 0.5267 0.5251 0.5234 0.5218 0.5203
3124.000000 0.5189 0.5182 0.5176 0.5172 0.5169
3129.000000 0.5165 0.5162 0.5162 0.5161 0.5162
3134.000000 0.5162 0.5162 0.5162 0.5163 0.5164
3139.000000 0.5169 0.5174 0.5180 0.5186 0.5192
3144.000000 0.5198 0.5203 0.5209 0.5215 0.5221
3149.000000 0.5233 0.5246 0.5260 0.5274 0.5293
3154.000000 0.5312 0.5334 0.5356 0.5381 0.5407
3159.000000 0.5435 0.5464 0.5504 0.5545 0.5585
3164.000000 0.5626 0.5658 0.5691 0.5721 0.5752
3169.000000 0.5782 0.5813 0.5847 0.5882 0.5919
3174.000000 0.5957 0.5995 0.6033 0.6071 0.6109
3179.000000 0.6146 0.6184 0.6222 0.6260 0.6303
3184.000000 0.6346 0.6401 0.6457 0.6512 0.6567
3189.000000 0.6611 0.6655 0.6699 0.6743 0.6784
3194.000000 0.6826 0.6853 0.6881 0.6908 0.6936
3199.000000 0.6963 0.6990 0.7017 0.7045 0.7072
3204.000000 0.7100 0.7124 0.7149 0.7173 0.7198
3209.000000 0.7222 0.7246 0.7270 0.7294 0.7318
3214.000000 0.7342 0.7366 0.7391 0.7416 0.7441
3219.000000 0.7466 0.7491 0.7516 0.7541 0.7566
3224.000000 0.7591 0.7616 0.7641 0.7662 0.7684
3229.000000 0.7704 0.7725 0.7745 0.7766 0.7786
3234.000000 0.7807 0.7827 0.7848 0.7867 0.7886
3239.000000 0.7904 0.7923 0.7941 0.7959 0.7977
3244.000000 0.7996 0.8012 0.8029 0.8043 0.8057
3249.000000 0.8071 0.8085 0.8099 0.8113 0.8127
3254.000000 0.8141 0.8155 0.8169 0.8183 0.8198
3259.000000 0.8210 0.8223 0.8233 0.8244 0.8254
3264.000000 0.8265 0.8275 0.8285 0.8295 0.8306
3269.000000 0.8316 0.8327 0.8337 0.8348 0.8358
3274.000000 0.8369 0.8379 0.8389 0.8399 0.8410
3279.000000 0.8419 0.8428 0.8437 0.8446 0.8455
3284.000000 0.8465 0.8474 0.8483 0.8492 0.8501
3289.000000 0.8507 0.8513 0.8517 0.8522 0.8526
3294.000000 0.8531 0.8535 0.8540 0.8543 0.8546
3299.000000 0.8549 0.8552 0.8555 0.8558 0.8561
3304.000000 0.8564 0.8566 0.8569 0.8572 0.8575
3309.000000 0.8578 0.8581 0.8584 0.8587 0.8588
3314.000000 0.8590 0.8590 0.8591 0.8591 0.8590
3319.000000 0.8592 0.8593 0.8593 0.8593 0.8593
3324.000000 0.8594 0.8594 0.8594 0.8593 0.8593
3329.000000 0.8593 0.8593 0.8592 0.8592 0.8592
3334.000000 0.8592 0.8592 0.8592 0.8589 0.8587
3339.000000 0.8584 0.8581 0.8578 0.8576 0.8573
3344.000000 0.8570 0.8567 0.8565 0.8562 0.8559
3349.000000 0.8556 0.8554 0.8551 0.8548 0.8545
3354.000000 0.8543 0.8540 0.8538 0.8535 0.8533
3359.000000 0.8531 0.8529 0.8526 0.8524 0.8522
3364.000000 0.8520 0.8517 0.8515 0.8513 0.8511
3369.000000 0.8508 0.8506 0.8504 0.8502 0.8499
3374.000000 0.8497 0.8494 0.8492 0.8490 0.8488
3379.000000 0.8485 0.8483 0.8479 0.8476 0.8472
3384.000000 0.8469 0.8465 0.8462 0.8458 0.8455
3389.000000 0.8451 0.8448 0.8444 0.8441 0.8437
3394.000000 0.8434 0.8431 0.8428 0.8424 0.8421
3399.000000 0.8417 0.8413 0.8409 0.8405 0.8401
3404.000000 0.8397 0.8393 0.8389 0.8385 0.8381
3409.000000 0.8377 0.8373 0.8371 0.8370 0.8369
3414.000000 0.8368 0.8366 0.8365 0.8363 0.8362
3419.000000 0.8361 0.8360 0.8360 0.8360 0.8361
3424.000000 0.8363 0.8364 0.8365 0.8366 0.8368
3429.000000 0.8369 0.8370 0.8371 0.8373 0.8374
3434.000000 0.8376 0.8377 0.8379 0.8380 0.8382
3439.000000 0.8380 0.8379 0.8376 0.8374 0.8372
3444.000000 0.8370 0.8367 0.8365 0.8362 0.8360
3449.000000 0.8357 0.8355 0.8352 0.8349 0.8346
3454.000000 0.8344 0.8341 0.8339 0.8336 0.8333
3459.000000 0.8330 0.8328 0.8325 0.8323 0.8321
3464.000000 0.8320 0.8318 0.8317 0.8315 0.8314
3469.000000 0.8313 0.8312 0.8310 0.8309 0.8308
3474.000000 0.8307 0.8305 0.8304 0.8303 0.8302
3479.000000 0.8300 0.8299 0.8297 0.8296 0.8295
3484.000000 0.8294 0.8292 0.8291 0.8290 0.8289
3489.000000 0.8287 0.8286 0.8284 0.8283 0.8282
3494.000000 0.8281 0.8279 0.8278 0.8276 0.8275
3499.000000 0.8273 0.8272 0.8270 0.8269 0.8268
3504.000000 0.8267 0.8265 0.8264 0.8262 0.8261
3509.000000 0.8259 0.8258 0.8257 0.8256 0.8254
3514.000000 0.8253 0.8251 0.8250 0.8248 0.8247
3519.000000 0.8246 0.8245 0.8243 0.8242 0.8240
3524.000000 0.8239 0.8237 0.8236 0.8234 0.8233
3529.000000 0.8232 0.8231 0.8229 0.8228 0.8226
3534.000000 0.8225 0.8223 0.8222 0.8220 0.8219
3539.000000 0.8217 0.8215 0.8213 0.8212 0.8210
3544.000000 0.8209 0.8207 0.8205 0.8203 0.8202
3549.000000 0.8200 0.8198 0.8196 0.8195 0.8193
3554.000000 0.8192 0.8190 0.8188 0.8186 0.8185
3559.000000 0.8183 0.8182 0.8180 0.8178 0.8175
3564.000000 0.8172 0.8169 0.8167 0.8164 0.8161
3569.000000 0.8158 0.8155 0.8153 0.8152 0.8155
3574.000000 0.8158 0.8161 0.8164 0.8167 0.8170
3579.000000 0.8173 0.8177 0.8177 0.8177 0.8177
3584.000000 0.8177 0.8177 0.8178 0.8176 0.8174
3589.000000 0.8172 0.8170 0.8167 0.8165 0.8162
3594.000000 0.8160 0.8158 0.8156 0.8153 0.8151
3599.000000 0.8149 0.8148 0.8146 0.8145 0.8143
3604.000000 0.8142 0.8140 0.8139 0.8137 0.8136
3609.000000 0.8134 0.8133 0.8131 0.8130 0.8129
3614.000000 0.8128 0.8126 0.8125 0.8123 0.8122
3619.000000 0.8120 0.8119 0.8117 0.8116 0.8114
3624.000000 0.8113 0.8111 0.8110 0.8109 0.8108
3629.000000 0.8106 0.8105 0.8103 0.8102 0.8100
3634.000000 0.8099 0.8097 0.8096 0.8094 0.8093
3639.000000 0.8091 0.8089 0.8087 0.8086 0.8084
3644.000000 0.8083 0.8081 0.8080 0.8078 0.8077
3649.000000 0.8075 0.8074 0.8072 0.8071 0.8069
3654.000000 0.8068 0.8066 0.8065 0.8063 0.8061
3659.000000 0.8059 0.8058 0.8056 0.8055 0.8053
3664.000000 0.8052 0.8050 0.8049 0.8047 0.8046
3669.000000 0.8044 0.8043 0.8041 0.8040 0.8038
3674.000000 0.8036 0.8034 0.8033 0.8031 0.8030
3679.000000 0.8029 0.8028 0.8026 0.8025 0.8023
3684.000000 0.8022 0.8021 0.8020 0.8018 0.8017
3689.000000 0.8016 0.8015 0.8013 0.8012 0.8011
3694.000000 0.8010 0.8008 0.8007 0.8005 0.8004
3699.000000 0.8003 0.8002 0.8000 0.7999 0.7998
3704.000000 0.7997 0.7995 0.7994 0.7992 0.7991
3709.000000 0.7990 0.7989 0.7987 0.7986 0.7985
3714.000000 0.7984 0.7982 0.7981 0.7979 0.7978
3719.000000 0.7976 0.7975 0.7973 0.7972 0.7970
3724.000000 0.7968 0.7966 0.7965 0.7963 0.7962
3729.000000 0.7960 0.7958 0.7956 0.7955 0.7953
3734.000000 0.7951 0.7949 0.7948 0.7946 0.7945
3739.000000 0.7943 0.7941 0.7939 0.7938 0.7936
3744.000000 0.7935 0.7933 0.7931 0.7929 0.7928
3749.000000 0.7926 0.7924 0.7922 0.7920 0.7917
3754.000000 0.7915 0.7913 0.7890 0.7909 0.7907
3759.000000 0.7905 0.7903 0.7900 0.7898 0.7894
3764.000000 0.7891 0.7887 0.7884 0.7880 0.7877
3769.000000 0.7873 0.7870 0.7866 0.7863 0.7859
3774.000000 0.7856 0.7853 0.7850 0.7846 0.7843
3779.000000 0.7839 0.7836 0.7832 0.7829 0.7825
3784.000000 0.7822
##END=
