##TITLE=PHOSPHINIC ACID, ISOOCTYL-, ISOBUTYL ESTER
##JCAMP-DX=4.24
##DATA TYPE=INFRARED SPECTRUM
##CLASS=COBLENTZ
##ORIGIN=STANDARD OIL OF OHIO
##OWNER=COBLENTZ SOCIETY
Collection (C) 2018 copyright by the U.S. Secretary of Commerce
on behalf of the United States of America. All rights reserved.
##DATE=Not specified, most likely prior to 1970
##NAMES=isobutyl 6-methylheptylphosphinate
##MOLFORM=C12 H27 O2 P
##SOURCE REFERENCE=COBLENTZ NO. 4369
##$NIST ID=B6004369
##$NIST SOURCE=COBLENTZ
##$NIST IMAGE=cob4369
##SPECTROMETER/DATA SYSTEM=PERKIN-ELMER
##STATE=LIQUID
##PATH LENGTH=0.0015 CM
##SAMPLING PROCEDURE=TRANSMISSION
##RESOLUTION=4
##DATA PROCESSING=DIGITIZED BY NIST FROM HARD COPY
##XUNITS=MICROMETERS
##YUNITS=TRANSMITTANCE
##XFACTOR=1.000000
##YFACTOR=1
##DELTAX=000.006743
##FIRSTX=2
##LASTX=15.3847
##FIRSTY=0.95
##MAXX=15.3847
##MINX=2
##MAXY=0.95
##MINY=0.109
##NPOINTS=1986
##XYDATA=(X++(Y..Y))
2.000000 0.9500 0.9500 0.9500 0.9500 0.9500
2.033731 0.9480 0.9480 0.9480 0.9480 0.9480
2.067000 0.9480 0.9480 0.9480 0.9480 0.9480
2.100731 0.9480 0.9480 0.9480 0.9480 0.9480
2.135000 0.9500 0.9500 0.9500 0.9500 0.9500
2.168731 0.9500 0.9500 0.9500 0.9500 0.9500
2.202000 0.9500 0.9500 0.9500 0.9500 0.9500
2.235731 0.9500 0.9500 0.9500 0.9500 0.9480
2.270000 0.9480 0.9470 0.9380 0.9350 0.9330
2.303731 0.9300 0.9280 0.9250 0.9230 0.9230
2.337000 0.9230 0.9230 0.9230 0.9230 0.9250
2.370731 0.9250 0.9250 0.9260 0.9280 0.9300
2.405000 0.9300 0.9300 0.9300 0.9310 0.9310
2.438731 0.9310 0.9310 0.9310 0.9310 0.9310
2.472000 0.9330 0.9330 0.9330 0.9330 0.9350
2.505731 0.9360 0.9380 0.9400 0.9400 0.9400
2.539000 0.9420 0.9420 0.9420 0.9430 0.9430
2.572731 0.9430 0.9430 0.9430 0.9450 0.9450
2.607000 0.9450 0.9450 0.9450 0.9450 0.9450
2.640731 0.9450 0.9450 0.9450 0.9450 0.9450
2.674000 0.9450 0.9450 0.9450 0.9450 0.9450
2.707731 0.9430 0.9430 0.9400 0.9400 0.9380
2.742000 0.9380 0.9360 0.9350 0.9310 0.9280
2.775731 0.9250 0.9210 0.9180 0.9090 0.9020
2.809000 0.8960 0.8820 0.8720 0.8670 0.8530
2.842731 0.8480 0.8330 0.8170 0.8000 0.7870
2.877000 0.7700 0.7510 0.7370 0.7200 0.7000
2.910731 0.6890 0.6840 0.6810 0.6790 0.6810
2.944000 0.6840 0.6980 0.7060 0.7180 0.7290
2.977731 0.7390 0.7470 0.7610 0.7760 0.7970
3.011000 0.8100 0.8210 0.8270 0.8340 0.8390
3.044731 0.8430 0.8480 0.8500 0.8560 0.8600
3.079000 0.8630 0.8670 0.8680 0.8720 0.8720
3.112731 0.8730 0.8750 0.8770 0.8770 0.8790
3.146000 0.8790 0.8800 0.8820 0.8820 0.8840
3.179731 0.8850 0.8870 0.8890 0.8900 0.8900
3.214000 0.8920 0.8920 0.8940 0.8960 0.8960
3.247731 0.8960 0.8960 0.8920 0.8890 0.8850
3.281000 0.8820 0.8790 0.8730 0.8670 0.8510
3.314731 0.8310 0.8140 0.8040 0.7630 0.6450
3.349000 0.5550 0.4390 0.3210 0.1600 0.1480
3.382731 0.1200 0.1100 0.1090 0.1090 0.1100
3.416000 0.1170 0.1260 0.1310 0.1440 0.1530
3.449731 0.1660 0.1770 0.1870 0.1970 0.2060
3.483000 0.2470 0.2770 0.3100 0.3490 0.4080
3.516731 0.4950 0.5680 0.5990 0.6260 0.6520
3.551000 0.6930 0.7410 0.7520 0.7680 0.7810
3.584731 0.7970 0.8090 0.8190 0.8260 0.8330
3.618000 0.8380 0.8430 0.8480 0.8480 0.8500
3.651731 0.8510 0.8510 0.8510 0.8510 0.8510
3.686000 0.8510 0.8510 0.8560 0.8600 0.8650
3.719731 0.8680 0.8700 0.8730 0.8750 0.8770
3.753000 0.8790 0.8800 0.8800 0.8820 0.8820
3.786731 0.8840 0.8850 0.8870 0.8870 0.8890
3.821000 0.8890 0.8890 0.8900 0.8900 0.8920
3.854731 0.8920 0.8960 0.8960 0.8960 0.8970
3.888000 0.8970 0.8970 0.8990 0.8990 0.9010
3.921731 0.9010 0.9020 0.9020 0.9040 0.9040
3.955000 0.9060 0.9060 0.9080 0.9080 0.9080
3.988731 0.9080 0.9080 0.9080 0.9080 0.9060
4.023000 0.9060 0.9060 0.9060 0.9060 0.9060
4.056731 0.9060 0.9060 0.9060 0.9040 0.9020
4.090000 0.9010 0.8990 0.8900 0.8850 0.8800
4.123731 0.8770 0.8720 0.8670 0.8620 0.8600
4.158000 0.8560 0.8550 0.8510 0.8500 0.8430
4.191731 0.8290 0.8270 0.8220 0.8210 0.8190
4.225000 0.8170 0.8160 0.8140 0.8050 0.7970
4.258731 0.7870 0.7730 0.7630 0.7540 0.7490
4.293000 0.7440 0.7410 0.7390 0.7370 0.7370
4.326731 0.7460 0.7520 0.7640 0.7730 0.7810
4.360000 0.7980 0.8040 0.8140 0.8240 0.8360
4.393731 0.8500 0.8550 0.8630 0.8720 0.8770
4.427000 0.8800 0.8820 0.8850 0.8890 0.8900
4.460731 0.8920 0.8940 0.8970 0.8990 0.8990
4.495000 0.9010 0.9020 0.9020 0.9040 0.9040
4.528731 0.9060 0.9060 0.9080 0.9080 0.9090
4.562000 0.9090 0.9090 0.9090 0.9090 0.9090
4.595731 0.9090 0.9110 0.9110 0.9110 0.9110
4.630000 0.9130 0.9130 0.9130 0.9140 0.9140
4.663731 0.9140 0.9140 0.9140 0.9140 0.9160
4.697000 0.9160 0.9160 0.9160 0.9160 0.9160
4.730731 0.9160 0.9160 0.9160 0.9160 0.9160
4.765000 0.9180 0.9180 0.9180 0.9180 0.9180
4.798731 0.9180 0.9190 0.9190 0.9190 0.9190
4.832000 0.9190 0.9190 0.9210 0.9210 0.9210
4.865731 0.9210 0.9210 0.9210 0.9210 0.9210
4.899000 0.9230 0.9230 0.9250 0.9250 0.9250
4.932731 0.9250 0.9250 0.9250 0.9250 0.9250
4.967000 0.9250 0.9250 0.9250 0.9250 0.9250
5.000731 0.9250 0.9250 0.9250 0.9250 0.9250
5.034000 0.9250 0.9250 0.9250 0.9250 0.9250
5.067731 0.9250 0.9260 0.9260 0.9260 0.9260
5.102000 0.9260 0.9260 0.9260 0.9260 0.9250
5.135731 0.9250 0.9250 0.9260 0.9250 0.9250
5.169000 0.9250 0.9250 0.9250 0.9250 0.9250
5.202731 0.9250 0.9250 0.9250 0.9250 0.9250
5.237000 0.9230 0.9230 0.9230 0.9210 0.9210
5.270731 0.9210 0.9210 0.9210 0.9190 0.9190
5.304000 0.9190 0.9190 0.9180 0.9180 0.9190
5.337731 0.9190 0.9190 0.9190 0.9190 0.9190
5.371000 0.9190 0.9190 0.9190 0.9190 0.9190
5.404731 0.9190 0.9190 0.9190 0.9190 0.9190
5.439000 0.9190 0.9190 0.9190 0.9190 0.9210
5.472731 0.9210 0.9210 0.9210 0.9210 0.9210
5.506000 0.9210 0.9210 0.9190 0.9190 0.9190
5.539731 0.9190 0.9190 0.9190 0.9190 0.9190
5.574000 0.9190 0.9210 0.9210 0.9210 0.9210
5.607731 0.9210 0.9210 0.9210 0.9210 0.9210
5.641000 0.9210 0.9210 0.9210 0.9210 0.9210
5.674731 0.9210 0.9210 0.9210 0.9210 0.9210
5.709000 0.9210 0.9210 0.9210 0.9210 0.9210
5.742731 0.9230 0.9230 0.9230 0.9230 0.9190
5.776000 0.9180 0.9180 0.9160 0.9160 0.9140
5.809731 0.9140 0.9140 0.9140 0.9140 0.9140
5.843000 0.9140 0.9140 0.9140 0.9140 0.9140
5.876731 0.9140 0.9140 0.9140 0.9140 0.9160
5.911000 0.9160 0.9160 0.9160 0.9160 0.9140
5.944731 0.9140 0.9130 0.9110 0.9090 0.9080
5.978000 0.9060 0.9040 0.9020 0.9020 0.9010
6.011731 0.8990 0.8990 0.8990 0.8990 0.8970
6.046000 0.8970 0.8970 0.8970 0.8970 0.8970
6.079731 0.8970 0.8970 0.8970 0.8970 0.8970
6.113000 0.8970 0.8970 0.8970 0.8990 0.8990
6.146731 0.8990 0.8990 0.8990 0.9010 0.9020
6.180000 0.9020 0.9040 0.9040 0.9040 0.9040
6.213731 0.9060 0.9080 0.9080 0.9090 0.9090
6.248000 0.9090 0.9110 0.9110 0.9130 0.9130
6.281731 0.9130 0.9130 0.9130 0.9130 0.9130
6.315000 0.9140 0.9140 0.9160 0.9160 0.9180
6.348731 0.9180 0.9180 0.9180 0.9180 0.9180
6.383000 0.9160 0.9160 0.9160 0.9160 0.9160
6.416731 0.9180 0.9180 0.9180 0.9180 0.9160
6.450000 0.9160 0.9160 0.9160 0.9160 0.9160
6.483731 0.9140 0.9140 0.9140 0.9140 0.9130
6.518000 0.9110 0.9110 0.9110 0.9110 0.9110
6.551731 0.9110 0.9110 0.9090 0.9090 0.9090
6.585000 0.9080 0.9040 0.9020 0.9010 0.9010
6.618731 0.8970 0.8960 0.8940 0.8900 0.8850
6.652000 0.8840 0.8820 0.8800 0.8770 0.8730
6.685731 0.8700 0.8630 0.8600 0.8510 0.8390
6.720000 0.8290 0.8210 0.8050 0.7930 0.7290
6.753731 0.6550 0.5990 0.5480 0.5240 0.4990
6.787000 0.3900 0.3610 0.3450 0.3330 0.3320
6.820731 0.3330 0.3370 0.3490 0.3540 0.3660
6.855000 0.3850 0.4050 0.4390 0.4590 0.4820
6.888731 0.5210 0.5480 0.5720 0.5990 0.6250
6.922000 0.6620 0.6840 0.7010 0.7180 0.7290
6.955731 0.7410 0.7520 0.7610 0.7710 0.7780
6.990000 0.7830 0.7850 0.7900 0.7930 0.7980
7.023731 0.8020 0.8020 0.8020 0.8020 0.8000
7.057000 0.7970 0.7930 0.7920 0.7880 0.7800
7.090731 0.7710 0.7630 0.7510 0.7320 0.7150
7.124000 0.7080 0.6980 0.6860 0.6740 0.6600
7.157731 0.6490 0.6470 0.6470 0.6490 0.6490
7.192000 0.6470 0.6450 0.6370 0.6030 0.5910
7.225731 0.5790 0.5740 0.5720 0.5700 0.5700
7.259000 0.5740 0.5800 0.5800 0.5770 0.5720
7.292731 0.5620 0.5510 0.5500 0.5510 0.5670
7.327000 0.5940 0.6350 0.6790 0.7080 0.7290
7.360731 0.7460 0.7520 0.7680 0.7780 0.7850
7.394000 0.7900 0.7950 0.7980 0.8000 0.8000
7.427731 0.8000 0.8020 0.8040 0.8040 0.8040
7.462000 0.8050 0.8050 0.8070 0.8070 0.8070
7.495731 0.8070 0.8070 0.8090 0.8100 0.8100
7.529000 0.8120 0.8120 0.8140 0.8160 0.8160
7.562731 0.8170 0.8190 0.8190 0.8190 0.8170
7.596000 0.8160 0.8140 0.8100 0.8050 0.8020
7.629731 0.8000 0.7930 0.7900 0.7870 0.7830
7.664000 0.7780 0.7750 0.7680 0.7630 0.7590
7.697731 0.7520 0.7420 0.7410 0.7370 0.7320
7.731000 0.7240 0.7180 0.7120 0.7010 0.6810
7.764731 0.6710 0.6570 0.6470 0.6280 0.6110
7.799000 0.5860 0.5720 0.5620 0.5510 0.5290
7.832731 0.5210 0.5140 0.5090 0.5020 0.5000
7.866000 0.4950 0.4880 0.4750 0.4650 0.4530
7.899731 0.4480 0.4290 0.4100 0.4000 0.3900
7.934000 0.3790 0.3560 0.3420 0.3390 0.3270
7.967731 0.3160 0.3060 0.3010 0.2990 0.2960
8.001000 0.2940 0.2890 0.2810 0.2770 0.2720
8.034731 0.2670 0.2600 0.2520 0.2430 0.2310
8.068000 0.2230 0.2160 0.2090 0.2020 0.1990
8.101731 0.1970 0.1970 0.1970 0.1970 0.1990
8.136000 0.2020 0.2090 0.2180 0.2230 0.2360
8.169731 0.2500 0.2570 0.2670 0.2740 0.2820
8.203000 0.2980 0.3040 0.3150 0.3230 0.3320
8.236731 0.3440 0.3500 0.3570 0.3620 0.3710
8.271000 0.3760 0.3790 0.3830 0.3880 0.3930
8.304731 0.4020 0.4120 0.4170 0.4200 0.4250
8.338000 0.4290 0.4320 0.4360 0.4410 0.4490
8.371731 0.4510 0.4560 0.4630 0.4710 0.4820
8.406000 0.4990 0.5260 0.5330 0.5400 0.5450
8.439731 0.5500 0.5500 0.5530 0.5580 0.5600
8.473000 0.5630 0.5670 0.5700 0.5770 0.5820
8.506731 0.5870 0.5960 0.6010 0.6030 0.6060
8.540000 0.6090 0.6130 0.6180 0.6210 0.6250
8.573731 0.6300 0.6350 0.6420 0.6500 0.6570
8.608000 0.6620 0.6690 0.6740 0.6790 0.6830
8.641731 0.6890 0.6980 0.7000 0.7050 0.7100
8.675000 0.7150 0.7180 0.7220 0.7250 0.7290
8.708731 0.7320 0.7350 0.7370 0.7420 0.7460
8.743000 0.7470 0.7510 0.7540 0.7560 0.7580
8.776731 0.7580 0.7580 0.7580 0.7580 0.7540
8.810000 0.7520 0.7490 0.7440 0.7390 0.7350
8.843731 0.7320 0.7290 0.7290 0.7270 0.7270
8.878000 0.7270 0.7270 0.7270 0.7270 0.7270
8.911731 0.7250 0.7220 0.7180 0.7180 0.7170
8.945000 0.7170 0.7150 0.7120 0.7120 0.7120
8.978731 0.7100 0.7100 0.7080 0.7050 0.7050
9.012000 0.7010 0.7000 0.6980 0.6880 0.6810
9.045731 0.6780 0.6720 0.6690 0.6670 0.6640
9.080000 0.6640 0.6620 0.6600 0.6600 0.6600
9.113731 0.6590 0.6550 0.6520 0.6500 0.6490
9.147000 0.6470 0.6370 0.6300 0.6180 0.6090
9.180731 0.6030 0.6010 0.5910 0.5840 0.5790
9.215000 0.5720 0.5630 0.5500 0.5450 0.5360
9.248731 0.5290 0.5190 0.5120 0.5040 0.5000
9.282000 0.4970 0.4940 0.4870 0.4820 0.4750
9.315731 0.4680 0.4590 0.4510 0.4390 0.4290
9.350000 0.4200 0.4080 0.4000 0.3880 0.3780
9.383731 0.3640 0.3560 0.3490 0.3370 0.3230
9.417000 0.3100 0.2990 0.2910 0.2790 0.2670
9.450731 0.2570 0.2400 0.2310 0.2240 0.2160
9.484000 0.2110 0.2070 0.2020 0.1950 0.1870
9.517731 0.1800 0.1770 0.1730 0.1700 0.1660
9.552000 0.1630 0.1580 0.1550 0.1490 0.1490
9.585731 0.1480 0.1460 0.1440 0.1440 0.1430
9.619000 0.1430 0.1430 0.1430 0.1430 0.1430
9.652731 0.1430 0.1430 0.1440 0.1440 0.1460
9.687000 0.1480 0.1510 0.1530 0.1560 0.1580
9.720731 0.1610 0.1650 0.1680 0.1700 0.1720
9.754000 0.1750 0.1770 0.1800 0.1820 0.1820
9.787731 0.1850 0.1870 0.1890 0.1900 0.1940
9.822000 0.1970 0.1990 0.2010 0.2010 0.2020
9.855731 0.2020 0.2020 0.2040 0.2040 0.2060
9.889000 0.2060 0.2060 0.2060 0.2060 0.2060
9.922731 0.2040 0.2040 0.2020 0.2020 0.2010
9.956000 0.2010 0.1990 0.1970 0.1950 0.1940
9.989731 0.1940 0.1920 0.1900 0.1900 0.1890
10.024000 0.1890 0.1870 0.1850 0.1830 0.1820
10.057731 0.1800 0.1780 0.1780 0.1750 0.1750
10.091000 0.1720 0.1700 0.1680 0.1660 0.1650
10.124731 0.1610 0.1600 0.1560 0.1530 0.1490
10.159000 0.1440 0.1430 0.1390 0.1370 0.1360
10.192731 0.1340 0.1340 0.1320 0.1310 0.1310
10.226000 0.1290 0.1290 0.1270 0.1270 0.1270
10.259731 0.1270 0.1270 0.1270 0.1270 0.1290
10.294000 0.1290 0.1310 0.1320 0.1340 0.1360
10.327731 0.1370 0.1390 0.1410 0.1430 0.1440
10.361000 0.1460 0.1480 0.1490 0.1510 0.1560
10.394731 0.1600 0.1650 0.1700 0.1750 0.1830
10.428000 0.1970 0.2040 0.2160 0.2260 0.2360
10.461731 0.2480 0.2550 0.2620 0.2700 0.2790
10.496000 0.2890 0.3010 0.3150 0.3270 0.3390
10.529731 0.3440 0.3540 0.3640 0.3740 0.3850
10.563000 0.4000 0.4030 0.4150 0.4270 0.4370
10.596731 0.4490 0.4590 0.4700 0.4820 0.4940
10.631000 0.5120 0.5210 0.5290 0.5400 0.5500
10.664731 0.5550 0.5600 0.5670 0.5790 0.5890
10.698000 0.5940 0.6010 0.6030 0.6080 0.6090
10.731731 0.6140 0.6180 0.6210 0.6250 0.6260
10.766000 0.6260 0.6280 0.6300 0.6320 0.6330
10.799731 0.6350 0.6370 0.6380 0.6420 0.6430
10.833000 0.6490 0.6490 0.6500 0.6540 0.6590
10.866731 0.6600 0.6620 0.6620 0.6640 0.6640
10.900000 0.6640 0.6640 0.6640 0.6660 0.6660
10.933731 0.6660 0.6670 0.6670 0.6690 0.6710
10.968000 0.6720 0.6760 0.6810 0.6840 0.6890
11.001731 0.6950 0.7000 0.7030 0.7080 0.7120
11.035000 0.7170 0.7220 0.7250 0.7290 0.7340
11.068731 0.7350 0.7390 0.7410 0.7420 0.7440
11.103000 0.7460 0.7460 0.7460 0.7470 0.7470
11.136731 0.7470 0.7490 0.7490 0.7490 0.7490
11.170000 0.7490 0.7510 0.7510 0.7510 0.7510
11.203731 0.7510 0.7510 0.7510 0.7510 0.7510
11.238000 0.7510 0.7520 0.7520 0.7520 0.7520
11.271731 0.7540 0.7540 0.7560 0.7560 0.7560
11.305000 0.7580 0.7590 0.7610 0.7630 0.7630
11.338731 0.7640 0.7640 0.7640 0.7640 0.7640
11.372000 0.7630 0.7630 0.7630 0.7610 0.7590
11.405731 0.7580 0.7560 0.7520 0.7490 0.7490
11.440000 0.7420 0.7410 0.7370 0.7350 0.7320
11.473731 0.7290 0.7250 0.7240 0.7200 0.7180
11.507000 0.7150 0.7130 0.7120 0.7080 0.7050
11.540731 0.7010 0.7010 0.7000 0.6960 0.6950
11.575000 0.6910 0.6890 0.6880 0.6840 0.6810
11.608731 0.6780 0.6740 0.6720 0.6690 0.6670
11.642000 0.6640 0.6620 0.6590 0.6570 0.6550
11.675731 0.6520 0.6500 0.6490 0.6450 0.6420
11.710000 0.6400 0.6370 0.6330 0.6320 0.6300
11.743731 0.6280 0.6250 0.6230 0.6210 0.6200
11.777000 0.6180 0.6180 0.6160 0.6160 0.6160
11.810731 0.6160 0.6160 0.6160 0.6160 0.6160
11.844000 0.6160 0.6160 0.6160 0.6160 0.6160
11.877731 0.6160 0.6160 0.6160 0.6160 0.6160
11.912000 0.6180 0.6180 0.6200 0.6210 0.6210
11.945731 0.6230 0.6230 0.6250 0.6250 0.6250
11.979000 0.6260 0.6260 0.6260 0.6280 0.6300
12.012731 0.6320 0.6320 0.6330 0.6330 0.6330
12.047000 0.6330 0.6320 0.6300 0.6280 0.6260
12.080731 0.6230 0.6210 0.6180 0.6110 0.6090
12.114000 0.6060 0.6030 0.6010 0.5990 0.5990
12.147731 0.5970 0.5970 0.5970 0.5970 0.5970
12.182000 0.5970 0.5990 0.5990 0.5990 0.6010
12.215731 0.6010 0.6030 0.6040 0.6040 0.6060
12.249000 0.6080 0.6090 0.6090 0.6110 0.6110
12.282731 0.6130 0.6140 0.6140 0.6160 0.6180
12.316000 0.6180 0.6200 0.6210 0.6250 0.6260
12.349731 0.6280 0.6280 0.6300 0.6320 0.6320
12.384000 0.6330 0.6350 0.6350 0.6370 0.6380
12.417731 0.6400 0.6420 0.6430 0.6450 0.6470
12.451000 0.6490 0.6490 0.6500 0.6500 0.6520
12.484731 0.6540 0.6550 0.6570 0.6590 0.6600
12.519000 0.6620 0.6640 0.6660 0.6670 0.6670
12.552731 0.6690 0.6710 0.6720 0.6720 0.6740
12.586000 0.6740 0.6760 0.6760 0.6780 0.6790
12.619731 0.6810 0.6830 0.6860 0.6880 0.6890
12.654000 0.6890 0.6910 0.6930 0.6950 0.6960
12.687731 0.6980 0.7000 0.7010 0.7050 0.7060
12.721000 0.7080 0.7100 0.7120 0.7130 0.7130
12.754731 0.7170 0.7200 0.7220 0.7240 0.7250
12.788000 0.7290 0.7290 0.7300 0.7320 0.7340
12.821731 0.7370 0.7390 0.7410 0.7420 0.7440
12.856000 0.7460 0.7470 0.7470 0.7490 0.7490
12.889731 0.7510 0.7520 0.7540 0.7560 0.7580
12.923000 0.7580 0.7590 0.7610 0.7630 0.7640
12.956731 0.7660 0.7680 0.7700 0.7710 0.7710
12.991000 0.7730 0.7730 0.7750 0.7760 0.7760
13.024731 0.7780 0.7800 0.7800 0.7810 0.7810
13.058000 0.7830 0.7850 0.7870 0.7880 0.7870
13.091731 0.7900 0.7900 0.7900 0.7900 0.7920
13.126000 0.7920 0.7920 0.7930 0.7950 0.7970
13.159731 0.7970 0.7970 0.7980 0.7980 0.8000
13.193000 0.8000 0.8020 0.8020 0.8040 0.8050
13.226731 0.8070 0.8070 0.8070 0.8090 0.8090
13.260000 0.8090 0.8100 0.8100 0.8100 0.8120
13.293731 0.8120 0.8120 0.8120 0.8140 0.8140
13.328000 0.8140 0.8140 0.8160 0.8160 0.8160
13.361731 0.8160 0.8170 0.8170 0.8170 0.8170
13.395000 0.8170 0.8170 0.8190 0.8190 0.8190
13.428731 0.8190 0.8190 0.8190 0.8190 0.8190
13.463000 0.8190 0.8190 0.8190 0.8190 0.8190
13.496731 0.8190 0.8190 0.8190 0.8190 0.8170
13.530000 0.8170 0.8170 0.8170 0.8170 0.8170
13.563731 0.8170 0.8170 0.8170 0.8190 0.8190
13.598000 0.8190 0.8190 0.8190 0.8190 0.8190
13.631731 0.8190 0.8170 0.8170 0.8170 0.8170
13.665000 0.8170 0.8160 0.8160 0.8160 0.8140
13.698731 0.8140 0.8120 0.8120 0.8120 0.8120
13.732000 0.8120 0.8120 0.8120 0.8120 0.8120
13.765731 0.8120 0.8120 0.8120 0.8100 0.8090
13.800000 0.8090 0.8090 0.8090 0.8070 0.8070
13.833731 0.8070 0.8050 0.8040 0.8040 0.8040
13.867000 0.8040 0.8040 0.8020 0.8020 0.8020
13.900731 0.8020 0.8000 0.8000 0.8000 0.8000
13.935000 0.8000 0.8000 0.8000 0.8000 0.8000
13.968731 0.8000 0.8000 0.8000 0.8000 0.7980
14.002000 0.7980 0.7980 0.7980 0.7980 0.7970
14.035731 0.7970 0.7970 0.7970 0.7970 0.7950
14.070000 0.7950 0.7950 0.7950 0.7950 0.7950
14.103731 0.7950 0.7950 0.7950 0.7950 0.7950
14.137000 0.7950 0.7950 0.7950 0.7950 0.7950
14.170731 0.7950 0.7950 0.7950 0.7950 0.7950
14.204000 0.7950 0.7950 0.7950 0.7950 0.7950
14.237731 0.7950 0.7950 0.7950 0.7950 0.7950
14.272000 0.7950 0.7950 0.7950 0.7950 0.7950
14.305731 0.7950 0.7950 0.7970 0.7970 0.7970
14.339000 0.7970 0.7970 0.7970 0.7970 0.7970
14.372731 0.7970 0.7980 0.7980 0.7980 0.7980
14.407000 0.7980 0.7980 0.7980 0.7980 0.7980
14.440731 0.7980 0.7970 0.7970 0.7970 0.7970
14.474000 0.7950 0.7950 0.7950 0.7930 0.7930
14.507731 0.7930 0.7920 0.7920 0.7920 0.7920
14.541000 0.7900 0.7900 0.7900 0.7900 0.7900
14.574731 0.7900 0.7880 0.7880 0.7880 0.7880
14.609000 0.7880 0.7870 0.7870 0.7850 0.7850
14.642731 0.7830 0.7830 0.7830 0.7810 0.7810
14.676000 0.7810 0.7800 0.7800 0.7800 0.7800
14.709731 0.7780 0.7780 0.7780 0.7780 0.7780
14.744000 0.7780 0.7760 0.7760 0.7760 0.7760
14.777731 0.7760 0.7760 0.7760 0.7760 0.7760
14.811000 0.7760 0.7760 0.7750 0.7730 0.7730
14.844731 0.7710 0.7710 0.7710 0.7710 0.7700
14.879000 0.7700 0.7680 0.7680 0.7680 0.7680
14.912731 0.7680 0.7680 0.7680 0.7680 0.7680
14.946000 0.7660 0.7660 0.7660 0.7660 0.7660
14.979731 0.7660 0.7660 0.7660 0.7640 0.7630
15.013000 0.7610 0.7590 0.7590 0.7580 0.7580
15.046731 0.7560 0.7540 0.7520 0.7520 0.7520
15.081000 0.7510 0.7510 0.7510 0.7490 0.7490
15.114731 0.7490 0.7460 0.7440 0.7440 0.7440
15.148000 0.7420 0.7420 0.7420 0.7420 0.7410
15.181731 0.7410 0.7410 0.7410 0.7410 0.7390
15.216000 0.7390 0.7370 0.7370 0.7350 0.7340
15.249731 0.7300 0.7300 0.7300 0.7300 0.7290
15.283000 0.7290 0.7270 0.7250 0.7250 0.7250
15.316731 0.7240 0.7220 0.7220 0.7200 0.7180
15.351000 0.7180 0.7170 0.7170 0.7150 0.7150
15.384731 0.7150
##END=
