##TITLE=PYRIMIDINE, 4-AMINO-2,6-DICHLORO-5-(ETHYLAMINO)-, HYDROCHLORIDE
##JCAMP-DX=4.24
##DATA TYPE=INFRARED SPECTRUM
##CLASS=COBLENTZ III
##ORIGIN=SOUTHERN RESEARCH INSTITUTE
##OWNER=COBLENTZ SOCIETY
Collection (C) 2018 copyright by the U.S. Secretary of Commerce
on behalf of the United States of America. All rights reserved.
##DATE=1961/10/30
##NAMES=2,6-dichloro-N<5>-ethyl-4,5-pyrimidinediamine hydrochloride
##MOLFORM=C6 H9 Cl3 N4
##SOURCE REFERENCE=COBLENTZ NO. 8437
##$NIST ID=B6008437
##$NIST SOURCE=COBLENTZ
##$NIST IMAGE=cob8437
##SPECTROMETER/DATA SYSTEM=PERKIN-ELMER 221 (GRATING)
##INSTRUMENT PARAMETERS=FILTER CHANGE AT 980 CM^-^1, GRATING FOR 4000-1428 CM^-^1, NaCl PRISM FOR 1428-650 CM^-^1
##STATE=SOLID (1 mg / 650 mg KBr DISC)
##SAMPLING PROCEDURE=TRANSMISSION
##RESOLUTION=4
##DATA PROCESSING=DIGITIZED BY NIST FROM HARD COPY
##XUNITS=1/CM
##YUNITS=TRANSMITTANCE
##XFACTOR=1.000000
##YFACTOR=1
##DELTAX=001.798330
##FIRSTX=625.177
##LASTX=4007.84
##FIRSTY=0.51
##MAXX=4007.84
##MINX=625.177
##MAXY=0.716
##MINY=0.045
##NPOINTS=1882
##XYDATA=(X++(Y..Y))
625.177000 0.5100 0.5100 0.5100 0.5100 0.5100
634.173433 0.5100 0.5100 0.5100 0.5100 0.5100
643.160000 0.5100 0.5100 0.5100 0.5100 0.5110
652.156433 0.5110 0.5120 0.5120 0.5130 0.5130
661.143000 0.5140 0.5140 0.5140 0.5140 0.5140
670.139433 0.5130 0.5100 0.5090 0.5070 0.5030
679.127000 0.4640 0.4350 0.4350 0.4930 0.4940
688.123433 0.4940 0.4940 0.4910 0.4890 0.4800
697.110000 0.4720 0.4660 0.4600 0.4540 0.4440
706.106433 0.4360 0.4350 0.4350 0.4350 0.4340
715.093000 0.4340 0.4330 0.4320 0.4130 0.3980
724.089433 0.3830 0.3670 0.3480 0.2920 0.2910
733.076000 0.2910 0.3030 0.3700 0.4560 0.4930
742.072433 0.5230 0.5260 0.5240 0.5100 0.4930
751.060000 0.4760 0.4590 0.4410 0.4230 0.4020
760.056433 0.3800 0.3540 0.3260 0.2940 0.2580
769.043000 0.2160 0.2000 0.2000 0.4050 0.4060
778.039433 0.4070 0.4070 0.4040 0.3670 0.3470
787.026000 0.3260 0.3070 0.2880 0.2860 0.2850
796.022433 0.2860 0.3070 0.3270 0.3460 0.4010
805.010000 0.4390 0.5220 0.5240 0.5140 0.5070
814.006433 0.5000 0.4920 0.4860 0.4790 0.4730
822.993000 0.4660 0.4490 0.4330 0.4190 0.4060
831.989433 0.3810 0.3650 0.3490 0.3330 0.3160
840.976000 0.3000 0.2840 0.2680 0.2520 0.2370
849.972433 0.2350 0.2340 0.2350 0.2360 0.2520
858.960000 0.2700 0.3070 0.3480 0.4030 0.4570
867.956433 0.4930 0.4990 0.5600 0.5600 0.5590
876.943000 0.5580 0.5500 0.5440 0.5390 0.5280
885.939433 0.5080 0.4860 0.4740 0.4500 0.4270
894.926000 0.4040 0.3810 0.3580 0.3340 0.3120
903.922433 0.3120 0.3400 0.3670 0.3950 0.4220
912.909000 0.4500 0.4770 0.5050 0.5290 0.5310
921.905433 0.5320 0.5330 0.5330 0.5330 0.5310
930.893000 0.5250 0.5220 0.5150 0.5010 0.4910
939.889433 0.4810 0.4730 0.4660 0.4600 0.4550
948.876000 0.4490 0.4420 0.4350 0.4270 0.4160
957.872433 0.4140 0.4080 0.4030 0.3980 0.3930
966.859000 0.3880 0.3830 0.3770 0.3610 0.3490
975.855433 0.3360 0.3250 0.3010 0.1750 0.0470
984.843000 0.0450 0.0470 0.1260 0.1660 0.2450
993.839433 0.2460 0.2440 0.1070 0.1050 0.1050
1002.826000 0.1550 0.2520 0.2610 0.2820 0.3110
1011.822433 0.3410 0.3660 0.3820 0.4000 0.4000
1020.809000 0.4000 0.3860 0.3650 0.3400 0.3290
1029.805433 0.3180 0.3090 0.3080 0.3090 0.3250
1038.792000 0.3480 0.3610 0.3750 0.3940 0.4280
1047.788433 0.4830 0.4850 0.4850 0.4800 0.4760
1056.776000 0.4700 0.4590 0.4500 0.4410 0.4350
1065.772433 0.4290 0.4220 0.4150 0.4070 0.3950
1074.759000 0.3790 0.3680 0.3660 0.3620 0.3570
1083.755433 0.3430 0.3330 0.3240 0.3150 0.3060
1092.742000 0.2960 0.2820 0.2640 0.2410 0.2130
1101.738433 0.2070 0.2070 0.2420 0.2630 0.2830
1110.726000 0.3020 0.3010 0.2970 0.2920 0.2880
1119.722433 0.2850 0.2830 0.2810 0.2800 0.2800
1128.709000 0.2800 0.2800 0.2810 0.2830 0.2850
1137.705433 0.2870 0.2900 0.2910 0.2930 0.2960
1146.692000 0.2970 0.3000 0.3020 0.3140 0.3320
1155.688433 0.3470 0.3600 0.3700 0.3770 0.3800
1164.676000 0.3810 0.3810 0.3800 0.3800 0.3790
1173.672433 0.3790 0.3780 0.3750 0.3740 0.3710
1182.659000 0.3670 0.3650 0.3620 0.3590 0.3570
1191.655433 0.3560 0.3550 0.3500 0.3410 0.3400
1200.642000 0.3360 0.3340 0.3280 0.3200 0.3130
1209.638433 0.3070 0.3030 0.3000 0.3000 0.2960
1218.625000 0.2930 0.2850 0.2760 0.2670 0.2580
1227.621433 0.2480 0.2370 0.2270 0.2160 0.2050
1236.609000 0.1940 0.1830 0.1730 0.1610 0.1530
1245.605433 0.1510 0.1520 0.1630 0.1700 0.1760
1254.592000 0.1840 0.1920 0.2320 0.2450 0.2440
1263.588433 0.2400 0.2320 0.2230 0.2170 0.2120
1272.575000 0.2100 0.2070 0.2030 0.2000 0.1760
1281.571433 0.1550 0.1170 0.1000 0.0990 0.0970
1290.559000 0.1350 0.1770 0.2130 0.2590 0.2840
1299.555433 0.3140 0.3380 0.3410 0.3430 0.3440
1308.542000 0.3440 0.3430 0.3410 0.3350 0.3280
1317.538433 0.3150 0.2980 0.2810 0.2640 0.2470
1326.525000 0.2330 0.2210 0.2130 0.2030 0.1830
1335.521433 0.1650 0.1500 0.1390 0.1260 0.1180
1344.509000 0.1120 0.1050 0.1030 0.1030 0.1030
1353.505433 0.1040 0.1060 0.1170 0.1290 0.1410
1362.492000 0.1500 0.1610 0.1740 0.1860 0.2000
1371.488433 0.2160 0.2250 0.2280 0.2360 0.2430
1380.475000 0.2510 0.2630 0.2740 0.2830 0.3000
1389.471433 0.3240 0.3240 0.3230 0.3160 0.2980
1398.458000 0.2690 0.2490 0.2330 0.2240 0.2160
1407.454433 0.2080 0.2000 0.1890 0.1710 0.1700
1416.442000 0.1710 0.2070 0.2750 0.2760 0.2850
1425.438433 0.2940 0.3080 0.3090 0.3100 0.3110
1434.425000 0.3130 0.3140 0.3060 0.2960 0.2870
1443.421433 0.2770 0.2340 0.2070 0.1970 0.1970
1452.408000 0.2210 0.2330 0.2460 0.2690 0.2690
1461.404433 0.2570 0.2120 0.1720 0.1710 0.1720
1470.392000 0.1730 0.1820 0.2000 0.2280 0.2420
1479.388433 0.2540 0.2750 0.2910 0.3080 0.3230
1488.375000 0.3320 0.3390 0.3410 0.3410 0.3420
1497.371433 0.3440 0.3450 0.3440 0.3420 0.3400
1506.358000 0.3330 0.3270 0.3210 0.3140 0.3070
1515.354433 0.2950 0.2820 0.2660 0.2500 0.2310
1524.342000 0.2130 0.1940 0.1770 0.1610 0.1460
1533.338433 0.1340 0.1250 0.1190 0.1160 0.1050
1542.325000 0.0920 0.0910 0.0910 0.0940 0.1010
1551.321433 0.1010 0.1010 0.1000 0.1000 0.0990
1560.308000 0.0980 0.0960 0.0930 0.0910 0.0840
1569.304433 0.0760 0.0700 0.0630 0.0570 0.0550
1578.292000 0.0540 0.0550 0.0560 0.0600 0.0650
1587.288433 0.0690 0.0730 0.0860 0.1120 0.1370
1596.275000 0.1380 0.1670 0.1970 0.2260 0.2800
1605.271433 0.2810 0.3080 0.3420 0.3430 0.3700
1614.258000 0.3970 0.4490 0.4500 0.4470 0.4280
1623.254433 0.4080 0.3870 0.3660 0.3450 0.3250
1632.241000 0.3150 0.3060 0.2710 0.2180 0.1800
1641.237433 0.1520 0.1310 0.1130 0.1030 0.0930
1650.225000 0.0750 0.0730 0.0740 0.1040 0.1190
1659.221433 0.1350 0.1510 0.1670 0.1830 0.2000
1668.208000 0.2170 0.2350 0.2530 0.2710 0.2890
1677.204433 0.3070 0.3250 0.3450 0.3640 0.3830
1686.191000 0.4030 0.4240 0.4430 0.4590 0.4730
1695.187433 0.4840 0.4950 0.5040 0.5120 0.5180
1704.175000 0.5250 0.5300 0.5340 0.5400 0.5440
1713.171433 0.5530 0.5590 0.5660 0.5720 0.5800
1722.158000 0.5900 0.6000 0.6130 0.6260 0.6360
1731.154433 0.6430 0.6480 0.6510 0.6540 0.6580
1740.141000 0.6630 0.6700 0.6810 0.6890 0.6950
1749.137433 0.7000 0.7050 0.7080 0.7100 0.7120
1758.125000 0.7130 0.7140 0.7150 0.7150 0.7160
1767.121433 0.7160 0.7160 0.7160 0.7160 0.7160
1776.108000 0.7160 0.7160 0.7160 0.7160 0.7150
1785.104433 0.7150 0.7140 0.7140 0.7130 0.7130
1794.091000 0.7130 0.7120 0.7120 0.7100 0.7080
1803.087433 0.7070 0.7040 0.7010 0.6980 0.6950
1812.074000 0.6920 0.6890 0.6850 0.6840 0.6840
1821.070433 0.6860 0.6920 0.6970 0.6990 0.7000
1830.058000 0.7020 0.7020 0.7030 0.7030 0.7020
1839.054433 0.7010 0.7000 0.6980 0.6950 0.6910
1848.041000 0.6880 0.6850 0.6850 0.6830 0.6820
1857.037433 0.6780 0.6750 0.6710 0.6660 0.6620
1866.024000 0.6580 0.6540 0.6500 0.6480 0.6460
1875.020433 0.6450 0.6440 0.6440 0.6440 0.6430
1884.008000 0.6430 0.6430 0.6430 0.6430 0.6430
1893.004433 0.6430 0.6430 0.6430 0.6430 0.6420
1901.991000 0.6410 0.6400 0.6380 0.6360 0.6340
1910.987433 0.6330 0.6320 0.6300 0.6280 0.6270
1919.974000 0.6260 0.6250 0.6250 0.6240 0.6230
1928.970433 0.6200 0.6160 0.6100 0.6040 0.5980
1937.958000 0.5910 0.5860 0.5810 0.5760 0.5690
1946.954433 0.5630 0.5560 0.5540 0.5540 0.5550
1955.941000 0.5560 0.5570 0.5590 0.5620 0.5640
1964.937433 0.5660 0.5670 0.5690 0.5700 0.5710
1973.924000 0.5710 0.5720 0.5710 0.5710 0.5700
1982.920433 0.5690 0.5670 0.5660 0.5650 0.5640
1991.907000 0.5630 0.5620 0.5610 0.5590 0.5580
2000.903433 0.5560 0.5550 0.5540 0.5530 0.5530
2009.891000 0.5530 0.5520 0.5520 0.5510 0.5510
2018.887433 0.5510 0.5500 0.5500 0.5500 0.5490
2027.874000 0.5480 0.5470 0.5460 0.5450 0.5420
2036.870433 0.5410 0.5380 0.5360 0.5330 0.5320
2045.857000 0.5300 0.5290 0.5290 0.5290 0.5280
2054.853433 0.5280 0.5270 0.5270 0.5260 0.5260
2063.841000 0.5260 0.5250 0.5250 0.5250 0.5250
2072.837433 0.5250 0.5250 0.5250 0.5250 0.5240
2081.824000 0.5240 0.5240 0.5240 0.5240 0.5230
2090.820433 0.5220 0.5220 0.5210 0.5210 0.5200
2099.807000 0.5200 0.5190 0.5190 0.5180 0.5180
2108.803433 0.5180 0.5180 0.5170 0.5160 0.5160
2117.791000 0.5150 0.5140 0.5120 0.5090 0.5050
2126.787433 0.5000 0.4960 0.4910 0.4860 0.4820
2135.774000 0.4780 0.4750 0.4730 0.4710 0.4680
2144.770433 0.4660 0.4640 0.4610 0.4580 0.4580
2153.757000 0.4580 0.4580 0.4580 0.4630 0.4660
2162.753433 0.4720 0.4780 0.4800 0.4810 0.4810
2171.740000 0.4800 0.4800 0.4780 0.4760 0.4740
2180.736433 0.4720 0.4700 0.4690 0.4670 0.4660
2189.724000 0.4660 0.4650 0.4640 0.4620 0.4580
2198.720433 0.4530 0.4510 0.4490 0.4470 0.4460
2207.707000 0.4440 0.4430 0.4420 0.4410 0.4400
2216.703433 0.4390 0.4390 0.4380 0.4380 0.4370
2225.690000 0.4370 0.4370 0.4370 0.4360 0.4360
2234.686433 0.4350 0.4330 0.4330 0.4310 0.4300
2243.674000 0.4290 0.4290 0.4280 0.4280 0.4270
2252.670433 0.4270 0.4260 0.4260 0.4250 0.4250
2261.657000 0.4240 0.4230 0.4220 0.4200 0.4180
2270.653433 0.4160 0.4140 0.4110 0.4090 0.4070
2279.640000 0.4040 0.4010 0.4000 0.3990 0.3970
2288.636433 0.3950 0.3930 0.3910 0.3880 0.3860
2297.624000 0.3830 0.3800 0.3770 0.3740 0.3710
2306.620433 0.3670 0.3640 0.3600 0.3570 0.3540
2315.607000 0.3500 0.3470 0.3430 0.3390 0.3330
2324.603433 0.3330 0.3310 0.3290 0.3260 0.3240
2333.590000 0.3220 0.3210 0.3190 0.3180 0.3170
2342.586433 0.3160 0.3150 0.3130 0.3120 0.3110
2351.573000 0.3100 0.3090 0.3090 0.3090 0.3090
2360.569433 0.3080 0.3080 0.3080 0.3080 0.3080
2369.557000 0.3080 0.3080 0.3080 0.3080 0.3080
2378.553433 0.3080 0.3080 0.3080 0.3080 0.3080
2387.540000 0.3080 0.3080 0.3050 0.3020 0.3010
2396.536433 0.3000 0.2980 0.2920 0.2870 0.2810
2405.523000 0.2750 0.2680 0.2630 0.2580 0.2530
2414.519433 0.2500 0.2480 0.2460 0.2460 0.2460
2423.507000 0.2450 0.2450 0.2450 0.2440 0.2440
2432.503433 0.2430 0.2430 0.2430 0.2430 0.2430
2441.490000 0.2430 0.2420 0.2410 0.2410 0.2390
2450.486433 0.2380 0.2380 0.2350 0.2320 0.2310
2459.473000 0.2300 0.2300 0.2290 0.2290 0.2300
2468.469433 0.2300 0.2310 0.2320 0.2370 0.2410
2477.457000 0.2470 0.2660 0.2670 0.2690 0.2710
2486.453433 0.2730 0.2730 0.2740 0.2750 0.2750
2495.440000 0.2750 0.2730 0.2730 0.2690 0.2660
2504.436433 0.2610 0.2590 0.2580 0.2580 0.2570
2513.423000 0.2540 0.2510 0.2500 0.2490 0.2460
2522.419433 0.2420 0.2400 0.2360 0.2330 0.2290
2531.406000 0.2260 0.2230 0.2190 0.2160 0.2130
2540.402433 0.2100 0.2080 0.2060 0.2040 0.2020
2549.390000 0.2020 0.2010 0.2000 0.2000 0.1990
2558.386433 0.1980 0.1970 0.1960 0.1960 0.1950
2567.373000 0.1940 0.1920 0.1910 0.1890 0.1870
2576.369433 0.1840 0.1820 0.1800 0.1770 0.1750
2585.356000 0.1740 0.1720 0.1700 0.1680 0.1650
2594.352433 0.1620 0.1580 0.1560 0.1560 0.1540
2603.340000 0.1520 0.1500 0.1490 0.1480 0.1470
2612.336433 0.1460 0.1460 0.1450 0.1450 0.1440
2621.323000 0.1440 0.1430 0.1430 0.1430 0.1430
2630.319433 0.1430 0.1430 0.1430 0.1430 0.1440
2639.306000 0.1440 0.1450 0.1450 0.1470 0.1480
2648.302433 0.1500 0.1520 0.1530 0.1540 0.1540
2657.290000 0.1560 0.1570 0.1570 0.1580 0.1580
2666.286433 0.1580 0.1580 0.1580 0.1580 0.1580
2675.273000 0.1580 0.1580 0.1580 0.1590 0.1610
2684.269433 0.1630 0.1650 0.1670 0.1690 0.1720
2693.256000 0.1750 0.1780 0.1810 0.1830 0.1870
2702.252433 0.1900 0.1920 0.1950 0.1980 0.2000
2711.240000 0.2010 0.2020 0.2030 0.2040 0.2050
2720.236433 0.2060 0.2070 0.2080 0.2080 0.2080
2729.223000 0.2080 0.2090 0.2090 0.2090 0.2090
2738.219433 0.2090 0.2090 0.2090 0.2090 0.2090
2747.206000 0.2090 0.2090 0.2090 0.2090 0.2090
2756.202433 0.2090 0.2090 0.2090 0.2090 0.2080
2765.189000 0.2080 0.2080 0.2080 0.2080 0.2080
2774.185433 0.2080 0.2090 0.2090 0.2090 0.2100
2783.173000 0.2100 0.2100 0.2110 0.2130 0.2140
2792.169433 0.2150 0.2160 0.2160 0.2160 0.2160
2801.156000 0.2160 0.2150 0.2150 0.2150 0.2140
2810.152433 0.2140 0.2130 0.2120 0.2120 0.2110
2819.139000 0.2110 0.2100 0.2100 0.2090 0.2090
2828.135433 0.2080 0.2080 0.2080 0.2050 0.2030
2837.123000 0.2010 0.2000 0.2000 0.1990 0.1970
2846.119433 0.1950 0.1940 0.1930 0.1930 0.1920
2855.106000 0.1920 0.1920 0.1930 0.1940 0.1950
2864.102433 0.1960 0.1960 0.1970 0.1990 0.2000
2873.089000 0.2000 0.2020 0.2040 0.2060 0.2080
2882.085433 0.2090 0.2110 0.2130 0.2160 0.2170
2891.073000 0.2200 0.2220 0.2250 0.2260 0.2280
2900.069433 0.2290 0.2310 0.2340 0.2410 0.2450
2909.056000 0.2490 0.2520 0.2540 0.2570 0.2580
2918.052433 0.2600 0.2620 0.2670 0.2700 0.2730
2927.039000 0.2740 0.2750 0.2780 0.2800 0.2820
2936.035433 0.2820 0.2830 0.2850 0.2860 0.2890
2945.022000 0.2930 0.2950 0.2960 0.2960 0.2970
2954.018433 0.2970 0.2970 0.2960 0.2940 0.2930
2963.006000 0.2920 0.2910 0.2910 0.2910 0.2900
2972.002433 0.2900 0.2910 0.2930 0.3000 0.3040
2980.989000 0.3060 0.3070 0.3080 0.3080 0.3100
2989.985433 0.3120 0.3140 0.3160 0.3170 0.3200
2998.972000 0.3220 0.3250 0.3260 0.3290 0.3310
3007.968433 0.3320 0.3320 0.3320 0.3330 0.3330
3016.956000 0.3330 0.3330 0.3320 0.3320 0.3280
3025.952433 0.3270 0.3260 0.3250 0.3250 0.3230
3034.939000 0.3230 0.3200 0.3170 0.3150 0.3120
3043.935433 0.3080 0.3060 0.3020 0.3000 0.2970
3052.922000 0.2940 0.2910 0.2900 0.2890 0.2880
3061.918433 0.2870 0.2870 0.2870 0.2860 0.2850
3070.906000 0.2840 0.2830 0.2830 0.2820 0.2810
3079.902433 0.2800 0.2790 0.2780 0.2770 0.2760
3088.889000 0.2750 0.2750 0.2730 0.2650 0.2570
3097.885433 0.2500 0.2430 0.2380 0.2330 0.2290
3106.872000 0.2250 0.2230 0.2200 0.2170 0.2160
3115.868433 0.2140 0.2120 0.2100 0.2080 0.2060
3124.855000 0.2050 0.2030 0.2010 0.2000 0.1990
3133.851433 0.1980 0.1950 0.1920 0.1890 0.1850
3142.839000 0.1810 0.1760 0.1710 0.1660 0.1590
3151.835433 0.1540 0.1480 0.1410 0.1350 0.1300
3160.822000 0.1240 0.1170 0.1120 0.1060 0.1000
3169.818433 0.0980 0.0950 0.0910 0.0870 0.0830
3178.805000 0.0800 0.0790 0.0790 0.0800 0.0810
3187.801433 0.0830 0.0850 0.0870 0.0890 0.1020
3196.789000 0.1090 0.1170 0.1240 0.1310 0.1370
3205.785433 0.1440 0.1510 0.1580 0.1640 0.1690
3214.772000 0.1740 0.1770 0.1810 0.1830 0.1840
3223.768433 0.1840 0.1850 0.1850 0.1860 0.1870
3232.755000 0.1880 0.1900 0.1940 0.2030 0.2050
3241.751433 0.2080 0.2120 0.2160 0.2220 0.2280
3250.739000 0.2340 0.2410 0.2470 0.2510 0.2560
3259.735433 0.2580 0.2650 0.2670 0.2690 0.2700
3268.722000 0.2710 0.2720 0.2730 0.2730 0.2730
3277.718433 0.2730 0.2710 0.2680 0.2650 0.2610
3286.705000 0.2570 0.2510 0.2460 0.2410 0.2340
3295.701433 0.2270 0.2200 0.2120 0.2030 0.1940
3304.688000 0.1840 0.1750 0.1630 0.1510 0.1390
3313.684433 0.1310 0.1290 0.1270 0.1260 0.1260
3322.672000 0.1260 0.1270 0.1290 0.1310 0.1330
3331.668433 0.1350 0.1370 0.1400 0.1410 0.1470
3340.655000 0.1520 0.1560 0.1600 0.1630 0.1650
3349.651433 0.1660 0.1670 0.1670 0.1670 0.1670
3358.638000 0.1670 0.1670 0.1660 0.1660 0.1660
3367.634433 0.1660 0.1660 0.1660 0.1660 0.1660
3376.622000 0.1670 0.1690 0.1690 0.1720 0.1770
3385.618433 0.1850 0.1940 0.2060 0.2180 0.2320
3394.605000 0.2460 0.2610 0.2760 0.2910 0.3040
3403.601433 0.3150 0.3160 0.3190 0.3260 0.3390
3412.588000 0.3500 0.3580 0.3670 0.3750 0.3830
3421.584433 0.3910 0.4000 0.4080 0.4190 0.4270
3430.572000 0.4330 0.4390 0.4430 0.4460 0.4480
3439.568433 0.4500 0.4510 0.4520 0.4520 0.4520
3448.555000 0.4530 0.4530 0.4540 0.4540 0.4540
3457.551433 0.4550 0.4550 0.4560 0.4560 0.4570
3466.538000 0.4570 0.4580 0.4580 0.4580 0.4580
3475.534433 0.4580 0.4580 0.4590 0.4590 0.4600
3484.521000 0.4600 0.4610 0.4610 0.4620 0.4620
3493.517433 0.4630 0.4630 0.4640 0.4640 0.4650
3502.505000 0.4650 0.4660 0.4660 0.4660 0.4660
3511.501433 0.4660 0.4670 0.4670 0.4670 0.4680
3520.488000 0.4680 0.4680 0.4690 0.4690 0.4690
3529.484433 0.4700 0.4700 0.4700 0.4710 0.4710
3538.471000 0.4710 0.4720 0.4720 0.4720 0.4730
3547.467433 0.4730 0.4730 0.4730 0.4740 0.4740
3556.455000 0.4750 0.4750 0.4750 0.4750 0.4760
3565.451433 0.4780 0.4800 0.4810 0.4820 0.4830
3574.438000 0.4840 0.4860 0.4870 0.4890 0.4900
3583.434433 0.4900 0.4910 0.4910 0.4910 0.4920
3592.421000 0.4930 0.4940 0.4950 0.4960 0.4970
3601.417433 0.4980 0.4990 0.5000 0.5000 0.5010
3610.405000 0.5020 0.5030 0.5040 0.5050 0.5060
3619.401433 0.5060 0.5080 0.5080 0.5080 0.5090
3628.388000 0.5090 0.5090 0.5100 0.5100 0.5100
3637.384433 0.5110 0.5110 0.5110 0.5110 0.5120
3646.371000 0.5120 0.5120 0.5120 0.5120 0.5120
3655.367433 0.5120 0.5120 0.5120 0.5120 0.5120
3664.354000 0.5120 0.5110 0.5110 0.5110 0.5100
3673.350433 0.5100 0.5090 0.5090 0.5090 0.5090
3682.338000 0.5090 0.5090 0.5090 0.5090 0.5080
3691.334433 0.5080 0.5080 0.5080 0.5080 0.5080
3700.321000 0.5080 0.5080 0.5080 0.5080 0.5070
3709.317433 0.5070 0.5060 0.5050 0.5040 0.5030
3718.304000 0.5020 0.5010 0.5000 0.5000 0.4990
3727.300433 0.4980 0.4960 0.4960 0.4950 0.4950
3736.288000 0.4940 0.4930 0.4930 0.4910 0.4910
3745.284433 0.4900 0.4900 0.4900 0.4900 0.4890
3754.271000 0.4890 0.4890 0.4880 0.4880 0.4880
3763.267433 0.4880 0.4880 0.4880 0.4880 0.4880
3772.254000 0.4880 0.4880 0.4880 0.4880 0.4870
3781.250433 0.4870 0.4860 0.4850 0.4850 0.4840
3790.238000 0.4830 0.4830 0.4830 0.4820 0.4810
3799.234433 0.4810 0.4810 0.4810 0.4810 0.4800
3808.221000 0.4800 0.4800 0.4800 0.4790 0.4790
3817.217433 0.4790 0.4780 0.4780 0.4780 0.4780
3826.204000 0.4780 0.4780 0.4780 0.4780 0.4770
3835.200433 0.4770 0.4770 0.4770 0.4760 0.4750
3844.188000 0.4750 0.4750 0.4750 0.4750 0.4750
3853.184433 0.4740 0.4740 0.4730 0.4730 0.4730
3862.171000 0.4730 0.4730 0.4730 0.4730 0.4720
3871.167433 0.4720 0.4720 0.4720 0.4710 0.4710
3880.154000 0.4710 0.4710 0.4710 0.4700 0.4700
3889.150433 0.4700 0.4690 0.4690 0.4690 0.4690
3898.137000 0.4690 0.4690 0.4690 0.4690 0.4690
3907.133433 0.4690 0.4690 0.4690 0.4680 0.4680
3916.121000 0.4680 0.4680 0.4680 0.4680 0.4680
3925.117433 0.4680 0.4680 0.4680 0.4680 0.4680
3934.104000 0.4680 0.4680 0.4680 0.4680 0.4680
3943.100433 0.4680 0.4680 0.4680 0.4680 0.4680
3952.087000 0.4680 0.4680 0.4680 0.4680 0.4680
3961.083433 0.4670 0.4670 0.4670 0.4670 0.4670
3970.071000 0.4670 0.4670 0.4670 0.4670 0.4670
3979.067433 0.4670 0.4670 0.4670 0.4670 0.4670
3988.054000 0.4670 0.4670 0.4670 0.4670 0.4670
3997.050433 0.4670 0.4670 0.4670 0.4680 0.4680
4006.037000 0.4680 0.4690
##END=
