##TITLE=Oleic acid, sodium salt
##JCAMP-DX=4.24
##DATA TYPE=INFRARED SPECTRUM
##CLASS=COBLENTZ III
##ORIGIN=WYANDOTTE CHEMICALS CORP.
##OWNER=Copyright (C) 1987 by the Coblentz Society
Collection (C) 2018 copyright by the U.S. Secretary of Commerce
on behalf of the United States of America. All rights reserved.
##DATE=Not specified, most likely prior to 1970
##MOLFORM=C18 H33 Na O2
##SOURCE REFERENCE=COBLENTZ NO. 5865
##$NIST ID=B6005865
##$NIST SOURCE=COBLENTZ
##$NIST IMAGE=cob5865
##SPECTROMETER/DATA SYSTEM=BAIRD (GRATING)
##INSTRUMENT PARAMETERS=NaCl PRISM
##STATE=SOLUTION (CCl4 FOR 2-11, CS2 FOR 11-16 MICRON) VS SOLVENT
##PATH LENGTH=0.01 CM, AND 0.01 CM , REFERENCE CELLS : 0.005 CM
$$ SPECTRAL FEATURE AT 908 CM^-^1 IS AN ARTIFACT CAUSED BY A CHANGE IN RECORDING PARAMETER
##RESOLUTION=2
##XUNITS=1/CM
##YUNITS=TRANSMITTANCE
##XFACTOR=1.0
##YFACTOR=1
##FIRSTX=626
##LASTX=4000
##FIRSTY=0.4216
##MAXX=4000
##MINX=626
##MAXY=1.0014
##MINY=0.0483
##NPOINTS=3375
##XYDATA=(X++(Y..Y))
626.000000 0.4216 0.4231 0.4253 0.4281 0.4319
631.000000 0.4382 0.4460 0.4536 0.4602 0.4668
636.000000 0.4722 0.4775 0.4828 0.4879 0.4926
641.000000 0.4965 0.5004 0.5042 0.5079 0.5116
646.000000 0.5153 0.5191 0.5228 0.5261 0.5292
651.000000 0.5322 0.5357 0.5394 0.5430 0.5474
656.000000 0.5523 0.5553 0.5583 0.5593 0.5599
661.000000 0.5603 0.5603 0.5605 0.5628 0.5681
666.000000 0.5764 0.5836 0.5865 0.5864 0.5862
671.000000 0.5860 0.5855 0.5848 0.5903 0.5837
676.000000 0.5833 0.5829 0.5818 0.5807 0.5790
681.000000 0.5758 0.5726 0.5697 0.5651 0.5572
686.000000 0.5493 0.5403 0.5310 0.5204 0.5097
691.000000 0.4964 0.4821 0.4649 0.4484 0.4335
696.000000 0.4217 0.4178 0.4187 0.4245 0.4320
701.000000 0.4395 0.4469 0.4543 0.4617 0.4753
706.000000 0.4870 0.4961 0.5030 0.5073 0.5081
711.000000 0.5069 0.5063 0.5135 0.5031 0.4965
716.000000 0.4823 0.4683 0.4491 0.4300 0.4080
721.000000 0.3837 0.3791 0.3794 0.3844 0.3914
726.000000 0.3996 0.4079 0.4157 0.4217 0.4273
731.000000 0.4328 0.4379 0.4428 0.4478 0.4526
736.000000 0.4574 0.4623 0.4676 0.4731 0.4785
741.000000 0.4837 0.4889 0.4930 0.4964 0.4975
746.000000 0.4988 0.5011 0.5036 0.5061 0.5087
751.000000 0.5112 0.5135 0.5138 0.5142 0.5145
756.000000 0.5142 0.5141 0.5138 0.5132 0.5125
761.000000 0.5109 0.5093 0.5083 0.5083 0.5082
766.000000 0.5082 0.5082 0.5087 0.5100 0.5139
771.000000 0.5177 0.5211 0.5239 0.5269 0.5282
776.000000 0.5287 0.5277 0.5250 0.5220 0.5174
781.000000 0.5109 0.5027 0.4975 0.4982 0.5004
786.000000 0.5085 0.5178 0.5264 0.5360 0.5449
791.000000 0.5530 0.5609 0.5682 0.5754 0.5828
796.000000 0.5896 0.5958 0.6006 0.6034 0.6051
801.000000 0.6058 0.6059 0.6061 0.6055 0.6052
806.000000 0.6047 0.6042 0.6038 0.6024 0.6011
811.000000 0.5995 0.5974 0.5953 0.5924 0.5894
816.000000 0.5863 0.5822 0.5769 0.5702 0.5632
821.000000 0.5517 0.5386 0.5362 0.5367 0.5390
826.000000 0.5424 0.5458 0.5495 0.5532 0.5566
831.000000 0.5594 0.5609 0.5623 0.5626 0.5628
836.000000 0.5626 0.5615 0.5603 0.5586 0.5566
841.000000 0.5545 0.5525 0.5505 0.5486 0.5467
846.000000 0.5450 0.5435 0.5421 0.5408 0.5402
851.000000 0.5397 0.5393 0.5396 0.5399 0.5405
856.000000 0.5413 0.5423 0.5433 0.5450 0.5461
861.000000 0.5469 0.5479 0.5489 0.5498 0.5507
866.000000 0.5515 0.5523 0.5531 0.5539 0.5544
871.000000 0.5551 0.5558 0.5563 0.5570 0.5576
876.000000 0.5582 0.5588 0.5592 0.5591 0.5591
881.000000 0.5591 0.5591 0.5591 0.5591 0.5609
886.000000 0.5584 0.5581 0.5578 0.5575 0.5570
891.000000 0.5563 0.5557 0.5550 0.5543 0.5536
896.000000 0.5524 0.5510 0.5495 0.5485 0.5488
901.000000 0.5491 0.5494 0.5500 0.5508 0.5512
906.000000 0.5512 0.5511 0.5505 0.5886 0.6394
911.000000 0.6900 0.7203 0.7158 0.7104 0.7032
916.000000 0.6940 0.6768 0.6606 0.6388 0.6248
921.000000 0.6144 0.6062 0.6041 0.6110 0.6305
926.000000 0.6514 0.6722 0.6930 0.7134 0.7222
931.000000 0.7331 0.7473 0.7531 0.7580 0.7626
936.000000 0.7667 0.7694 0.7719 0.7736 0.7747
941.000000 0.7759 0.7769 0.7776 0.7803 0.7789
946.000000 0.7794 0.7795 0.7795 0.7795 0.7788
951.000000 0.7781 0.7774 0.7751 0.7716 0.7679
956.000000 0.7642 0.7624 0.7611 0.7592 0.7559
961.000000 0.7526 0.7495 0.7464 0.7433 0.7407
966.000000 0.7386 0.7366 0.7346 0.7326 0.7309
971.000000 0.7291 0.7274 0.7255 0.7235 0.7216
976.000000 0.7196 0.7183 0.7172 0.7162 0.7153
981.000000 0.7142 0.7132 0.7124 0.7116 0.7111
986.000000 0.7115 0.7100 0.7143 0.7162 0.7190
991.000000 0.7224 0.7266 0.7308 0.7350 0.7370
996.000000 0.7362 0.7356 0.7350 0.7342 0.7323
1001.000000 0.7303 0.7282 0.7264 0.7246 0.7227
1006.000000 0.7197 0.7195 0.7212 0.7237 0.7258
1011.000000 0.7297 0.7335 0.7372 0.7417 0.7472
1016.000000 0.7515 0.7556 0.7604 0.7653 0.7710
1021.000000 0.7774 0.7829 0.7880 0.7931 0.7971
1026.000000 0.8003 0.8036 0.8049 0.8060 0.8065
1031.000000 0.8063 0.8061 0.8060 0.8057 0.8056
1036.000000 0.8051 0.8044 0.8038 0.8031 0.8025
1041.000000 0.8018 0.8011 0.8005 0.7997 0.7990
1046.000000 0.7982 0.7974 0.7977 0.7982 0.7988
1051.000000 0.7992 0.7989 0.7985 0.7981 0.7977
1056.000000 0.7966 0.7946 0.7926 0.7907 0.7887
1061.000000 0.7867 0.7847 0.7828 0.7808 0.7789
1066.000000 0.7771 0.7761 0.7751 0.7708 0.7733
1071.000000 0.7751 0.7777 0.7804 0.7822 0.7826
1076.000000 0.7828 0.7829 0.7838 0.7882 0.7927
1081.000000 0.7951 0.7938 0.7934 0.7930 0.7919
1086.000000 0.7908 0.7893 0.7874 0.7855 0.7829
1091.000000 0.7799 0.7770 0.7735 0.7701 0.7665
1096.000000 0.7621 0.7576 0.7546 0.7522 0.7513
1101.000000 0.7539 0.7563 0.7589 0.7637 0.7702
1106.000000 0.7751 0.7757 0.7760 0.7761 0.7762
1111.000000 0.7760 0.7757 0.7754 0.7751 0.7747
1116.000000 0.7744 0.7741 0.7747 0.7754 0.7764
1121.000000 0.7778 0.7793 0.7811 0.7840 0.7868
1126.000000 0.7907 0.7972 0.8040 0.8146 0.8248
1131.000000 0.8278 0.8287 0.8296 0.8308 0.8319
1136.000000 0.8331 0.8343 0.8354 0.8367 0.8381
1141.000000 0.8394 0.8415 0.8437 0.8460 0.8481
1146.000000 0.8499 0.8517 0.8534 0.8550 0.8565
1151.000000 0.8572 0.8580 0.8586 0.8577 0.8574
1156.000000 0.8567 0.8560 0.8552 0.8542 0.8532
1161.000000 0.8521 0.8511 0.8500 0.8490 0.8477
1166.000000 0.8464 0.8451 0.8438 0.8425 0.8412
1171.000000 0.8400 0.8387 0.8375 0.8359 0.8340
1176.000000 0.8321 0.8302 0.8283 0.8263 0.8240
1181.000000 0.8213 0.8188 0.8162 0.8137 0.8111
1186.000000 0.8083 0.8047 0.8012 0.7976 0.7940
1191.000000 0.7895 0.7845 0.7796 0.7739 0.7656
1196.000000 0.7574 0.7506 0.7443 0.7381 0.7345
1201.000000 0.7309 0.7293 0.7287 0.7284 0.7287
1206.000000 0.7292 0.7296 0.7300 0.7305 0.7311
1211.000000 0.7315 0.7308 0.7278 0.7240 0.7215
1216.000000 0.7203 0.7192 0.7181 0.7172 0.7162
1221.000000 0.7154 0.7148 0.7142 0.7127 0.7108
1226.000000 0.7090 0.7071 0.7051 0.7031 0.7010
1231.000000 0.6990 0.6964 0.6939 0.6913 0.6879
1236.000000 0.6831 0.6802 0.6788 0.6788 0.6791
1241.000000 0.6819 0.6884 0.6975 0.7050 0.7106
1246.000000 0.7144 0.7165 0.7177 0.7179 0.7172
1251.000000 0.7150 0.7124 0.7091 0.7059 0.7022
1256.000000 0.6983 0.6954 0.6928 0.6924 0.6927
1261.000000 0.6930 0.6934 0.6937 0.6943 0.6957
1266.000000 0.6971 0.6987 0.7006 0.7025 0.7041
1271.000000 0.7051 0.7050 0.7042 0.7014 0.6966
1276.000000 0.6904 0.6823 0.6733 0.6656 0.6578
1281.000000 0.6484 0.6415 0.6407 0.6386 0.6477
1286.000000 0.6580 0.6681 0.6783 0.6884 0.6986
1291.000000 0.7086 0.7178 0.7202 0.7213 0.7215
1296.000000 0.7217 0.7217 0.7217 0.7233 0.7209
1301.000000 0.7201 0.7180 0.7149 0.7110 0.7066
1306.000000 0.7023 0.6980 0.6936 0.6890 0.6845
1311.000000 0.6793 0.6735 0.6707 0.6684 0.6665
1316.000000 0.6653 0.6642 0.6626 0.6576 0.6505
1321.000000 0.6440 0.6391 0.6359 0.6348 0.6352
1326.000000 0.6342 0.6382 0.6409 0.6443 0.6485
1331.000000 0.6526 0.6566 0.6626 0.6713 0.6751
1336.000000 0.6751 0.6750 0.6753 0.6738 0.6723
1341.000000 0.6704 0.6668 0.6591 0.6466 0.6342
1346.000000 0.6217 0.6092 0.5968 0.5845 0.5736
1351.000000 0.5710 0.5694 0.5661 0.5734 0.5849
1356.000000 0.5975 0.6102 0.6228 0.6352 0.6440
1361.000000 0.6455 0.6460 0.6459 0.6437 0.6435
1366.000000 0.6413 0.6385 0.6351 0.6297 0.6209
1371.000000 0.6121 0.6058 0.6017 0.5978 0.5945
1376.000000 0.5921 0.5896 0.5874 0.5856 0.5840
1381.000000 0.5823 0.5803 0.5614 0.5539 0.5529
1386.000000 0.5528 0.5550 0.5617 0.5665 0.5673
1391.000000 0.5667 0.5660 0.5654 0.5643 0.5612
1396.000000 0.5552 0.5494 0.5443 0.5373 0.5272
1401.000000 0.5129 0.4936 0.4738 0.4542 0.4345
1406.000000 0.4148 0.3951 0.3756 0.3560 0.3364
1411.000000 0.3218 0.3081 0.2902 0.2792 0.2715
1416.000000 0.2679 0.2669 0.2652 0.2572 0.2373
1421.000000 0.2311 0.2266 0.2230 0.2213 0.2197
1426.000000 0.2182 0.2157 0.2060 0.1913 0.1782
1431.000000 0.1632 0.1516 0.1449 0.1418 0.1386
1436.000000 0.1394 0.1417 0.1511 0.1606 0.1700
1441.000000 0.1794 0.1888 0.1982 0.2076 0.2169
1446.000000 0.2263 0.2361 0.2335 0.2296 0.2174
1451.000000 0.2030 0.1887 0.1743 0.1600 0.1457
1456.000000 0.1334 0.1329 0.1346 0.1389 0.1482
1461.000000 0.1556 0.1645 0.1756 0.1852 0.1946
1466.000000 0.2259 0.2133 0.2216 0.2210 0.2153
1471.000000 0.2078 0.2003 0.1929 0.1855 0.1827
1476.000000 0.1856 0.2115 0.2574 0.3031 0.3488
1481.000000 0.3944 0.4426 0.5124 0.5455 0.5688
1486.000000 0.5898 0.6085 0.6255 0.6387 0.6447
1491.000000 0.6508 0.6569 0.6622 0.6666 0.6711
1496.000000 0.6747 0.6778 0.6789 0.6779 0.6789
1501.000000 0.6781 0.6769 0.6756 0.6739 0.6716
1506.000000 0.6697 0.6679 0.6669 0.6658 0.6634
1511.000000 0.6581 0.6510 0.6436 0.6368 0.6319
1516.000000 0.6308 0.6302 0.6296 0.6278 0.6102
1521.000000 0.5709 0.5551 0.5445 0.5353 0.5278
1526.000000 0.5204 0.5171 0.5155 0.5140 0.5115
1531.000000 0.4906 0.4695 0.4484 0.4272 0.4062
1536.000000 0.3851 0.3641 0.3431 0.3221 0.3041
1541.000000 0.2873 0.2697 0.2537 0.2351 0.2102
1546.000000 0.2003 0.1927 0.1850 0.1773 0.1691
1551.000000 0.1603 0.1516 0.1427 0.1327 0.1206
1556.000000 0.1084 0.0956 0.0849 0.0793 0.0747
1561.000000 0.0714 0.0698 0.0685 0.0674 0.0668
1566.000000 0.0664 0.0663 0.0661 0.0659 0.0658
1571.000000 0.0649 0.0636 0.0613 0.0582 0.0554
1576.000000 0.0528 0.0508 0.0498 0.0496 0.0495
1581.000000 0.0495 0.0483 0.0595 0.0663 0.0707
1586.000000 0.0736 0.0760 0.0793 0.0972 0.1137
1591.000000 0.1278 0.1425 0.1573 0.1720 0.1866
1596.000000 0.2013 0.2160 0.2306 0.2451 0.2598
1601.000000 0.2743 0.2889 0.3034 0.3180 0.3324
1606.000000 0.3469 0.3614 0.3761 0.3912 0.4063
1611.000000 0.4178 0.4289 0.4437 0.4587 0.4666
1616.000000 0.4735 0.4804 0.4873 0.4942 0.5078
1621.000000 0.5287 0.5438 0.5562 0.5713 0.5891
1626.000000 0.6024 0.6094 0.6151 0.6207 0.6264
1631.000000 0.6323 0.6390 0.6463 0.6538 0.6621
1636.000000 0.6806 0.7003 0.7187 0.7342 0.7477
1641.000000 0.7607 0.7713 0.7779 0.7824 0.7868
1646.000000 0.7912 0.7957 0.8003 0.8050 0.8097
1651.000000 0.8130 0.8154 0.8176 0.8199 0.8221
1656.000000 0.8244 0.8266 0.8288 0.8306 0.8325
1661.000000 0.8343 0.8355 0.8356 0.8345 0.8330
1666.000000 0.8316 0.8307 0.8308 0.8310 0.8311
1671.000000 0.8321 0.8444 0.8529 0.8630 0.8723
1676.000000 0.8789 0.8848 0.8889 0.8929 0.8963
1681.000000 0.8996 0.9028 0.9061 0.9091 0.9119
1686.000000 0.9145 0.9171 0.9196 0.9209 0.9217
1691.000000 0.9224 0.9230 0.9236 0.9242 0.9247
1696.000000 0.9252 0.9257 0.9262 0.9266 0.9272
1701.000000 0.9282 0.9294 0.9307 0.9319 0.9332
1706.000000 0.9345 0.9359 0.9375 0.9389 0.9400
1711.000000 0.9410 0.9420 0.9429 0.9435 0.9442
1716.000000 0.9448 0.9455 0.9462 0.9468 0.9476
1721.000000 0.9485 0.9496 0.9507 0.9519 0.9530
1726.000000 0.9541 0.9551 0.9560 0.9567 0.9575
1731.000000 0.9582 0.9591 0.9605 0.9623 0.9641
1736.000000 0.9659 0.9678 0.9696 0.9715 0.9734
1741.000000 0.9753 0.9772 0.9793 0.9814 0.9836
1746.000000 0.9854 0.9868 0.9882 0.9896 0.9907
1751.000000 0.9916 0.9924 0.9926 0.9929 0.9934
1756.000000 0.9941 0.9947 0.9954 0.9960 0.9964
1761.000000 0.9967 0.9970 0.9973 0.9977 0.9981
1766.000000 0.9984 0.9987 0.9991 0.9995 0.9996
1771.000000 0.9997 0.9998 0.9998 0.9999 1.0000
1776.000000 1.0001 1.0002 1.0002 1.0003 1.0004
1781.000000 1.0005 1.0006 1.0007 1.0008 1.0009
1786.000000 1.0010 1.0011 1.0011 1.0012 1.0013
1791.000000 1.0014 1.0014 1.0014 1.0013 1.0012
1796.000000 1.0011 1.0011 1.0010 1.0009 1.0007
1801.000000 1.0006 1.0004 1.0003 1.0002 1.0001
1806.000000 0.9999 0.9998 0.9996 0.9995 0.9994
1811.000000 0.9992 0.9991 0.9989 0.9989 0.9987
1816.000000 0.9986 0.9984 0.9983 0.9982 0.9981
1821.000000 0.9979 0.9978 0.9977 0.9976 0.9975
1826.000000 0.9975 0.9974 0.9973 0.9972 0.9971
1831.000000 0.9970 0.9969 0.9968 0.9968 0.9967
1836.000000 0.9966 0.9965 0.9965 0.9963 0.9962
1841.000000 0.9962 0.9962 0.9964 0.9967 0.9969
1846.000000 0.9973 0.9976 0.9979 0.9983 0.9986
1851.000000 0.9989 0.9993 0.9996 0.9999 1.0002
1856.000000 1.0004 1.0004 1.0004 1.0005 1.0005
1861.000000 1.0005 1.0005 1.0006 1.0006 1.0006
1866.000000 1.0005 1.0004 1.0003 1.0002 1.0000
1871.000000 0.9999 0.9997 0.9996 0.9995 0.9993
1876.000000 0.9992 0.9991 0.9990 1.0001 0.9987
1881.000000 0.9986 0.9984 0.9983 0.9981 0.9981
1886.000000 0.9980 0.9978 0.9977 0.9975 0.9974
1891.000000 0.9974 0.9972 0.9971 0.9970 0.9969
1896.000000 0.9968 0.9967 0.9966 0.9965 0.9964
1901.000000 0.9964 0.9962 0.9961 0.9961 0.9959
1906.000000 0.9958 0.9957 0.9956 0.9955 0.9954
1911.000000 0.9954 0.9953 0.9952 0.9951 0.9950
1916.000000 0.9949 0.9949 0.9948 0.9947 0.9947
1921.000000 0.9946 0.9945 0.9945 0.9944 0.9943
1926.000000 0.9943 0.9942 0.9941 0.9940 0.9939
1931.000000 0.9938 0.9936 0.9935 0.9934 0.9932
1936.000000 0.9931 0.9930 0.9928 0.9927 0.9926
1941.000000 0.9924 0.9923 0.9922 0.9921 0.9919
1946.000000 0.9918 0.9917 0.9915 0.9914 0.9913
1951.000000 0.9911 0.9909 0.9908 0.9906 0.9905
1956.000000 0.9904 0.9902 0.9901 0.9900 0.9899
1961.000000 0.9897 0.9896 0.9894 0.9892 0.9891
1966.000000 0.9889 0.9886 0.9884 0.9881 0.9879
1971.000000 0.9875 0.9872 0.9870 0.9867 0.9865
1976.000000 0.9863 0.9862 0.9860 0.9859 0.9858
1981.000000 0.9856 0.9855 0.9854 0.9853 0.9851
1986.000000 0.9850 0.9848 0.9847 0.9845 0.9844
1991.000000 0.9843 0.9842 0.9843 0.9844 0.9844
1996.000000 0.9845 0.9846 0.9846 0.9847 0.9849
2001.000000 0.9849 0.9850 0.9850 0.9851 0.9852
2006.000000 0.9853 0.9854 0.9854 0.9855 0.9856
2011.000000 0.9857 0.9858 0.9860 0.9860 0.9861
2016.000000 0.9862 0.9864 0.9864 0.9863 0.9862
2021.000000 0.9861 0.9859 0.9857 0.9856 0.9855
2026.000000 0.9853 0.9852 0.9850 0.9849 0.9848
2031.000000 0.9846 0.9845 0.9844 0.9843 0.9842
2036.000000 0.9840 0.9840 0.9839 0.9838 0.9837
2041.000000 0.9836 0.9835 0.9834 0.9833 0.9832
2046.000000 0.9831 0.9830 0.9829 0.9828 0.9827
2051.000000 0.9826 0.9825 0.9824 0.9823 0.9822
2056.000000 0.9820 0.9820 0.9819 0.9818 0.9816
2061.000000 0.9814 0.9811 0.9809 0.9806 0.9804
2066.000000 0.9803 0.9800 0.9798 0.9796 0.9793
2071.000000 0.9791 0.9797 0.9806 0.9814 0.9824
2076.000000 0.9834 0.9847 0.9862 0.9876 0.9890
2081.000000 0.9895 0.9896 0.9893 0.9890 0.9887
2086.000000 0.9881 0.9874 0.9868 0.9861 0.9855
2091.000000 0.9848 0.9842 0.9836 0.9830 0.9824
2096.000000 0.9818 0.9811 0.9807 0.9804 0.9801
2101.000000 0.9798 0.9795 0.9791 0.9788 0.9785
2106.000000 0.9783 0.9783 0.9785 0.9786 0.9787
2111.000000 0.9787 0.9788 0.9789 0.9792 0.9796
2116.000000 0.9800 0.9804 0.9808 0.9812 0.9817
2121.000000 0.9821 0.9826 0.9827 0.9826 0.9824
2126.000000 0.9822 0.9817 0.9813 0.9809 0.9804
2131.000000 0.9799 0.9794 0.9788 0.9782 0.9775
2136.000000 0.9768 0.9762 0.9755 0.9749 0.9742
2141.000000 0.9736 0.9729 0.9723 0.9716 0.9710
2146.000000 0.9703 0.9696 0.9689 0.9682 0.9676
2151.000000 0.9670 0.9663 0.9657 0.9650 0.9643
2156.000000 0.9633 0.9624 0.9618 0.9614 0.9615
2161.000000 0.9616 0.9617 0.9618 0.9620 0.9621
2166.000000 0.9621 0.9622 0.9623 0.9624 0.9624
2171.000000 0.9625 0.9625 0.9624 0.9624 0.9624
2176.000000 0.9623 0.9623 0.9622 0.9622 0.9621
2181.000000 0.9621 0.9620 0.9620 0.9619 0.9617
2186.000000 0.9615 0.9614 0.9612 0.9610 0.9608
2191.000000 0.9607 0.9605 0.9603 0.9602 0.9600
2196.000000 0.9598 0.9596 0.9594 0.9592 0.9590
2201.000000 0.9588 0.9586 0.9583 0.9578 0.9572
2206.000000 0.9566 0.9560 0.9554 0.9548 0.9541
2211.000000 0.9533 0.9525 0.9518 0.9511 0.9504
2216.000000 0.9496 0.9489 0.9481 0.9474 0.9466
2221.000000 0.9460 0.9453 0.9447 0.9442 0.9436
2226.000000 0.9430 0.9425 0.9419 0.9414 0.9408
2231.000000 0.9404 0.9399 0.9395 0.9391 0.9387
2236.000000 0.9383 0.9379 0.9375 0.9371 0.9366
2241.000000 0.9362 0.9358 0.9354 0.9350 0.9346
2246.000000 0.9342 0.9339 0.9337 0.9335 0.9333
2251.000000 0.9331 0.9329 0.9327 0.9325 0.9323
2256.000000 0.9322 0.9320 0.9318 0.9316 0.9314
2261.000000 0.9312 0.9310 0.9308 0.9306 0.9306
2266.000000 0.9306 0.9307 0.9307 0.9308 0.9308
2271.000000 0.9308 0.9308 0.9309 0.9309 0.9310
2276.000000 0.9310 0.9311 0.9311 0.9311 0.9310
2281.000000 0.9310 0.9308 0.9307 0.9305 0.9304
2286.000000 0.9302 0.9300 0.9298 0.9297 0.9296
2291.000000 0.9294 0.9293 0.9291 0.9288 0.9286
2296.000000 0.9284 0.9281 0.9278 0.9275 0.9272
2301.000000 0.9269 0.9267 0.9264 0.9261 0.9258
2306.000000 0.9255 0.9252 0.9250 0.9247 0.9244
2311.000000 0.9241 0.9238 0.9236 0.9233 0.9230
2316.000000 0.9228 0.9225 0.9225 0.9224 0.9223
2321.000000 0.9222 0.9221 0.9220 0.9219 0.9218
2326.000000 0.9217 0.9216 0.9215 0.9215 0.9214
2331.000000 0.9214 0.9214 0.9213 0.9213 0.9212
2336.000000 0.9212 0.9210 0.9209 0.9207 0.9204
2341.000000 0.9201 0.9196 0.9190 0.9181 0.9173
2346.000000 0.9163 0.9153 0.9143 0.9133 0.9123
2351.000000 0.9113 0.9103 0.9093 0.9084 0.9074
2356.000000 0.9065 0.9057 0.9050 0.9044 0.9038
2361.000000 0.9032 0.9029 0.9025 0.9022 0.9018
2366.000000 0.9016 0.9014 0.9013 0.9012 0.9011
2371.000000 0.9010 0.9009 0.9008 0.9007 0.9006
2376.000000 0.9005 0.9004 0.9003 0.9002 0.9001
2381.000000 0.8999 0.8999 0.8998 0.8996 0.8995
2386.000000 0.8994 0.8993 0.8991 0.8990 0.8989
2391.000000 0.8988 0.8987 0.8986 0.8984 0.8983
2396.000000 0.8982 0.8980 0.8979 0.8977 0.8975
2401.000000 0.8973 0.8972 0.8970 0.8968 0.8967
2406.000000 0.8965 0.8963 0.8961 0.8960 0.8958
2411.000000 0.8956 0.8954 0.8953 0.8951 0.8949
2416.000000 0.8948 0.8946 0.8944 0.8942 0.8940
2421.000000 0.8938 0.8936 0.8933 0.8931 0.8929
2426.000000 0.8927 0.8924 0.8922 0.8920 0.8918
2431.000000 0.8915 0.8913 0.8911 0.8909 0.8907
2436.000000 0.8905 0.8903 0.8900 0.8898 0.8895
2441.000000 0.8893 0.8891 0.8887 0.8883 0.8878
2446.000000 0.8873 0.8868 0.8863 0.8858 0.8853
2451.000000 0.8848 0.8843 0.8838 0.8834 0.8829
2456.000000 0.8824 0.8820 0.8815 0.8810 0.8805
2461.000000 0.8800 0.8795 0.8790 0.8785 0.8780
2466.000000 0.8774 0.8768 0.8762 0.8756 0.8750
2471.000000 0.8743 0.8737 0.8730 0.8724 0.8718
2476.000000 0.8712 0.8706 0.8700 0.8694 0.8688
2481.000000 0.8687 0.8686 0.8685 0.8684 0.8684
2486.000000 0.8683 0.8682 0.8681 0.8680 0.8679
2491.000000 0.8678 0.8677 0.8676 0.8675 0.8674
2496.000000 0.8673 0.8672 0.8671 0.8670 0.8669
2501.000000 0.8667 0.8665 0.8664 0.8663 0.8662
2506.000000 0.8660 0.8659 0.8658 0.8657 0.8656
2511.000000 0.8654 0.8652 0.8651 0.8650 0.8649
2516.000000 0.8647 0.8646 0.8645 0.8644 0.8643
2521.000000 0.8641 0.8640 0.8638 0.8637 0.8636
2526.000000 0.8635 0.8633 0.8632 0.8630 0.8628
2531.000000 0.8626 0.8624 0.8621 0.8619 0.8617
2536.000000 0.8615 0.8613 0.8611 0.8608 0.8606
2541.000000 0.8604 0.8602 0.8600 0.8598 0.8595
2546.000000 0.8593 0.8591 0.8589 0.8587 0.8585
2551.000000 0.8583 0.8581 0.8579 0.8576 0.8574
2556.000000 0.8571 0.8569 0.8566 0.8564 0.8562
2561.000000 0.8560 0.8557 0.8554 0.8552 0.8549
2566.000000 0.8547 0.8545 0.8543 0.8540 0.8537
2571.000000 0.8534 0.8531 0.8527 0.8523 0.8519
2576.000000 0.8515 0.8511 0.8507 0.8503 0.8498
2581.000000 0.8494 0.8490 0.8486 0.8482 0.8478
2586.000000 0.8474 0.8470 0.8465 0.8461 0.8457
2591.000000 0.8452 0.8446 0.8439 0.8432 0.8426
2596.000000 0.8419 0.8412 0.8405 0.8398 0.8391
2601.000000 0.8385 0.8378 0.8371 0.8365 0.8358
2606.000000 0.8351 0.8344 0.8337 0.8330 0.8323
2611.000000 0.8315 0.8306 0.8298 0.8289 0.8280
2616.000000 0.8271 0.8262 0.8253 0.8244 0.8235
2621.000000 0.8227 0.8218 0.8209 0.8200 0.8192
2626.000000 0.8183 0.8174 0.8165 0.8156 0.8146
2631.000000 0.8136 0.8126 0.8115 0.8104 0.8093
2636.000000 0.8082 0.8071 0.8060 0.8049 0.8039
2641.000000 0.8027 0.8016 0.8005 0.7995 0.7984
2646.000000 0.7973 0.7962 0.7951 0.7941 0.7932
2651.000000 0.7923 0.7914 0.7905 0.7896 0.7887
2656.000000 0.7878 0.7869 0.7860 0.7852 0.7843
2661.000000 0.7834 0.7825 0.7816 0.7807 0.7799
2666.000000 0.7790 0.7781 0.7772 0.7764 0.7755
2671.000000 0.7746 0.7741 0.7736 0.7732 0.7727
2676.000000 0.7722 0.7718 0.7714 0.7711 0.7708
2681.000000 0.7706 0.7704 0.7703 0.7702 0.7701
2686.000000 0.7700 0.7699 0.7698 0.7697 0.7696
2691.000000 0.7695 0.7694 0.7692 0.7691 0.7688
2696.000000 0.7685 0.7682 0.7677 0.7672 0.7666
2701.000000 0.7661 0.7656 0.7649 0.7639 0.7628
2706.000000 0.7617 0.7606 0.7594 0.7582 0.7571
2711.000000 0.7559 0.7548 0.7536 0.7525 0.7513
2716.000000 0.7500 0.7488 0.7476 0.7463 0.7451
2721.000000 0.7439 0.7426 0.7414 0.7402 0.7390
2726.000000 0.7378 0.7367 0.7358 0.7348 0.7338
2731.000000 0.7329 0.7319 0.7309 0.7299 0.7290
2736.000000 0.7280 0.7270 0.7261 0.7252 0.7243
2741.000000 0.7234 0.7226 0.7218 0.7210 0.7202
2746.000000 0.7194 0.7187 0.7179 0.7171 0.7163
2751.000000 0.7155 0.7147 0.7139 0.7131 0.7123
2756.000000 0.7115 0.7106 0.7097 0.7087 0.7077
2761.000000 0.7067 0.7057 0.7047 0.7037 0.7026
2766.000000 0.7011 0.6991 0.6971 0.6948 0.6919
2771.000000 0.6890 0.6860 0.6828 0.6796 0.6763
2776.000000 0.6730 0.6697 0.6662 0.6618 0.6575
2781.000000 0.6533 0.6495 0.6458 0.6421 0.6396
2786.000000 0.6371 0.6346 0.6321 0.6297 0.6272
2791.000000 0.6247 0.6223 0.6198 0.6171 0.6144
2796.000000 0.6116 0.6079 0.6035 0.5991 0.5947
2801.000000 0.5902 0.5858 0.5817 0.5781 0.5746
2806.000000 0.5711 0.5678 0.5646 0.5613 0.5581
2811.000000 0.5548 0.5515 0.5470 0.5423 0.5375
2816.000000 0.5304 0.5221 0.5138 0.5043 0.4935
2821.000000 0.4828 0.4715 0.4593 0.4471 0.4348
2826.000000 0.4227 0.4105 0.3983 0.3861 0.3740
2831.000000 0.3618 0.3496 0.3375 0.3253 0.3132
2836.000000 0.3011 0.2890 0.2769 0.2648 0.2527
2841.000000 0.2407 0.2286 0.2166 0.2045 0.1925
2846.000000 0.1805 0.1684 0.1622 0.1596 0.1570
2851.000000 0.1546 0.1554 0.1554 0.1554 0.1554
2856.000000 0.1554 0.1554 0.1572 0.1594 0.1616
2861.000000 0.1647 0.1684 0.1722 0.1759 0.1797
2866.000000 0.1835 0.1873 0.1910 0.1947 0.1985
2871.000000 0.2022 0.2059 0.2097 0.2134 0.2171
2876.000000 0.2209 0.2246 0.2283 0.2321 0.2358
2881.000000 0.2384 0.2408 0.2432 0.2445 0.2445
2886.000000 0.2445 0.2444 0.2444 0.2444 0.2444
2891.000000 0.2438 0.2442 0.2442 0.2428 0.2401
2896.000000 0.2374 0.2346 0.2310 0.2273 0.2237
2901.000000 0.2200 0.2164 0.2127 0.2091 0.2055
2906.000000 0.2019 0.1983 0.1946 0.1910 0.1874
2911.000000 0.1838 0.1802 0.1766 0.1730 0.1693
2916.000000 0.1657 0.1621 0.1585 0.1549 0.1514
2921.000000 0.1478 0.1442 0.1406 0.1371 0.1335
2926.000000 0.1299 0.1263 0.1227 0.1192 0.1156
2931.000000 0.1121 0.1085 0.1049 0.1013 0.0978
2936.000000 0.0942 0.0907 0.0872 0.0836 0.0801
2941.000000 0.0766 0.0739 0.0714 0.0689 0.0674
2946.000000 0.0674 0.0674 0.0674 0.0725 0.0784
2951.000000 0.0842 0.0656 0.1040 0.1157 0.1273
2956.000000 0.1389 0.1506 0.1622 0.1738 0.1854
2961.000000 0.1970 0.2087 0.2202 0.2318 0.2434
2966.000000 0.2550 0.2665 0.2781 0.2897 0.3012
2971.000000 0.3127 0.3242 0.3358 0.3473 0.3588
2976.000000 0.3703 0.3817 0.3932 0.4046 0.4161
2981.000000 0.4275 0.4389 0.4504 0.4618 0.4732
2986.000000 0.4847 0.4961 0.5075 0.5189 0.5302
2991.000000 0.5416 0.5530 0.5644 0.5757 0.5848
2996.000000 0.5938 0.6028 0.6083 0.6084 0.6084
3001.000000 0.6085 0.6086 0.6087 0.6088 0.6081
3006.000000 0.6043 0.6004 0.5966 0.5918 0.5864
3011.000000 0.5810 0.5756 0.5702 0.5648 0.5594
3016.000000 0.5547 0.5516 0.5484 0.5453 0.5443
3021.000000 0.5443 0.5443 0.5443 0.5475 0.5507
3026.000000 0.5539 0.5605 0.5729 0.5854 0.5978
3031.000000 0.6102 0.6226 0.6351 0.6475 0.6599
3036.000000 0.6723 0.6847 0.6971 0.7094 0.7217
3041.000000 0.7341 0.7467 0.7595 0.7723 0.7851
3046.000000 0.7893 0.7929 0.7965 0.8000 0.8028
3051.000000 0.8056 0.8083 0.8109 0.8133 0.8157
3056.000000 0.8181 0.8203 0.8224 0.8245 0.8266
3061.000000 0.8282 0.8299 0.8316 0.8330 0.8341
3066.000000 0.8352 0.8362 0.8373 0.8384 0.8395
3071.000000 0.8406 0.8416 0.8426 0.8435 0.8445
3076.000000 0.8451 0.8457 0.8463 0.8469 0.8475
3081.000000 0.8481 0.8487 0.8493 0.8499 0.8505
3086.000000 0.8511 0.8517 0.8522 0.8528 0.8533
3091.000000 0.8538 0.8542 0.8546 0.8550 0.8555
3096.000000 0.8559 0.8564 0.8568 0.8572 0.8576
3101.000000 0.8580 0.8584 0.8587 0.8591 0.8594
3106.000000 0.8597 0.8600 0.8603 0.8606 0.8609
3111.000000 0.8612 0.8615 0.8618 0.8621 0.8624
3116.000000 0.8627 0.8630 0.8632 0.8633 0.8634
3121.000000 0.8635 0.8637 0.8638 0.8639 0.8641
3126.000000 0.8642 0.8643 0.8644 0.8645 0.8646
3131.000000 0.8647 0.8648 0.8649 0.8649 0.8650
3136.000000 0.8651 0.8651 0.8651 0.8651 0.8651
3141.000000 0.8650 0.8650 0.8650 0.8650 0.8649
3146.000000 0.8649 0.8649 0.8649 0.8648 0.8648
3151.000000 0.8648 0.8648 0.8648 0.8648 0.8648
3156.000000 0.8648 0.8647 0.8647 0.8646 0.8646
3161.000000 0.8645 0.8643 0.8642 0.8640 0.8639
3166.000000 0.8638 0.8636 0.8635 0.8634 0.8632
3171.000000 0.8631 0.8629 0.8628 0.8627 0.8626
3176.000000 0.8624 0.8623 0.8621 0.8620 0.8618
3181.000000 0.8617 0.8616 0.8615 0.8614 0.8613
3186.000000 0.8613 0.8613 0.8613 0.8612 0.8612
3191.000000 0.8611 0.8611 0.8610 0.8610 0.8609
3196.000000 0.8609 0.8609 0.8609 0.8609 0.8609
3201.000000 0.8609 0.8610 0.8610 0.8610 0.8610
3206.000000 0.8610 0.8610 0.8610 0.8610 0.8610
3211.000000 0.8610 0.8610 0.8610 0.8610 0.8609
3216.000000 0.8609 0.8608 0.8607 0.8605 0.8603
3221.000000 0.8602 0.8600 0.8598 0.8596 0.8594
3226.000000 0.8592 0.8590 0.8589 0.8587 0.8585
3231.000000 0.8585 0.8584 0.8583 0.8583 0.8583
3236.000000 0.8583 0.8583 0.8583 0.8582 0.8582
3241.000000 0.8582 0.8582 0.8582 0.8582 0.8582
3246.000000 0.8582 0.8582 0.8582 0.8582 0.8582
3251.000000 0.8582 0.8582 0.8582 0.8582 0.8582
3256.000000 0.8581 0.8581 0.8581 0.8581 0.8581
3261.000000 0.8581 0.8581 0.8581 0.8580 0.8580
3266.000000 0.8580 0.8580 0.8579 0.8579 0.8579
3271.000000 0.8579 0.8579 0.8579 0.8579 0.8579
3276.000000 0.8579 0.8578 0.8578 0.8578 0.8578
3281.000000 0.8577 0.8577 0.8577 0.8577 0.8577
3286.000000 0.8577 0.8577 0.8577 0.8577 0.8576
3291.000000 0.8576 0.8575 0.8575 0.8574 0.8573
3296.000000 0.8571 0.8570 0.8569 0.8567 0.8566
3301.000000 0.8564 0.8562 0.8561 0.8559 0.8558
3306.000000 0.8557 0.8555 0.8554 0.8553 0.8551
3311.000000 0.8550 0.8548 0.8546 0.8543 0.8541
3316.000000 0.8539 0.8536 0.8534 0.8531 0.8529
3321.000000 0.8526 0.8523 0.8520 0.8518 0.8515
3326.000000 0.8513 0.8510 0.8508 0.8505 0.8504
3331.000000 0.8503 0.8501 0.8500 0.8500 0.8501
3336.000000 0.8501 0.8502 0.8503 0.8504 0.8506
3341.000000 0.8508 0.8509 0.8511 0.8512 0.8514
3346.000000 0.8515 0.8517 0.8518 0.8520 0.8522
3351.000000 0.8523 0.8525 0.8526 0.8528 0.8529
3356.000000 0.8531 0.8533 0.8534 0.8536 0.8537
3361.000000 0.8539 0.8541 0.8543 0.8545 0.8547
3366.000000 0.8549 0.8551 0.8553 0.8555 0.8557
3371.000000 0.8559 0.8561 0.8564 0.8566 0.8568
3376.000000 0.8570 0.8572 0.8575 0.8577 0.8580
3381.000000 0.8583 0.8586 0.8589 0.8591 0.8594
3386.000000 0.8597 0.8600 0.8603 0.8607 0.8611
3391.000000 0.8614 0.8618 0.8623 0.8628 0.8633
3396.000000 0.8639 0.8644 0.8649 0.8654 0.8659
3401.000000 0.8664 0.8669 0.8674 0.8680 0.8685
3406.000000 0.8691 0.8696 0.8701 0.8707 0.8712
3411.000000 0.8717 0.8720 0.8724 0.8727 0.8730
3416.000000 0.8734 0.8737 0.8740 0.8743 0.8746
3421.000000 0.8748 0.8750 0.8752 0.8754 0.8756
3426.000000 0.8758 0.8760 0.8762 0.8764 0.8766
3431.000000 0.8768 0.8770 0.8772 0.8774 0.8776
3436.000000 0.8779 0.8781 0.8783 0.8785 0.8788
3441.000000 0.8790 0.8793 0.8795 0.8798 0.8801
3446.000000 0.8803 0.8806 0.8809 0.8811 0.8814
3451.000000 0.8816 0.8819 0.8821 0.8824 0.8826
3456.000000 0.8829 0.8831 0.8834 0.8836 0.8839
3461.000000 0.8841 0.8844 0.8846 0.8849 0.8851
3466.000000 0.8854 0.8856 0.8859 0.8861 0.8864
3471.000000 0.8866 0.8869 0.8871 0.8874 0.8876
3476.000000 0.8879 0.8881 0.8884 0.8886 0.8888
3481.000000 0.8890 0.8893 0.8895 0.8898 0.8900
3486.000000 0.8903 0.8905 0.8908 0.8910 0.8913
3491.000000 0.8915 0.8918 0.8920 0.8923 0.8925
3496.000000 0.8928 0.8931 0.8934 0.8937 0.8939
3501.000000 0.8942 0.8945 0.8948 0.8950 0.8953
3506.000000 0.8956 0.8958 0.8961 0.8964 0.8967
3511.000000 0.8970 0.8973 0.8975 0.8978 0.8980
3516.000000 0.8983 0.8986 0.8989 0.8991 0.8994
3521.000000 0.8997 0.9000 0.9002 0.9005 0.9008
3526.000000 0.9010 0.9013 0.9015 0.9018 0.9021
3531.000000 0.9023 0.9026 0.9029 0.9032 0.9035
3536.000000 0.9037 0.9040 0.9043 0.9045 0.9048
3541.000000 0.9050 0.9053 0.9055 0.9058 0.9061
3546.000000 0.9063 0.9066 0.9069 0.9072 0.9074
3551.000000 0.9077 0.9080 0.9082 0.9085 0.9087
3556.000000 0.9090 0.9093 0.9096 0.9099 0.9103
3561.000000 0.9106 0.9109 0.9113 0.9117 0.9121
3566.000000 0.9125 0.9129 0.9133 0.9137 0.9141
3571.000000 0.9145 0.9149 0.9153 0.9157 0.9160
3576.000000 0.9164 0.9168 0.9172 0.9176 0.9180
3581.000000 0.9184 0.9188 0.9191 0.9195 0.9199
3586.000000 0.9203 0.9206 0.9210 0.9213 0.9217
3591.000000 0.9220 0.9224 0.9227 0.9231 0.9234
3596.000000 0.9238 0.9241 0.9245 0.9248 0.9251
3601.000000 0.9255 0.9258 0.9262 0.9265 0.9269
3606.000000 0.9272 0.9276 0.9279 0.9282 0.9285
3611.000000 0.9288 0.9290 0.9293 0.9295 0.9297
3616.000000 0.9299 0.9302 0.9304 0.9306 0.9308
3621.000000 0.9310 0.9313 0.9315 0.9317 0.9319
3626.000000 0.9321 0.9323 0.9326 0.9328 0.9330
3631.000000 0.9332 0.9334 0.9336 0.9338 0.9339
3636.000000 0.9341 0.9342 0.9343 0.9344 0.9345
3641.000000 0.9346 0.9346 0.9347 0.9347 0.9348
3646.000000 0.9348 0.9349 0.9350 0.9350 0.9351
3651.000000 0.9351 0.9352 0.9352 0.9353 0.9354
3656.000000 0.9354 0.9355 0.9355 0.9356 0.9356
3661.000000 0.9357 0.9357 0.9358 0.9359 0.9359
3666.000000 0.9360 0.9360 0.9361 0.9361 0.9362
3671.000000 0.9362 0.9363 0.9363 0.9364 0.9364
3676.000000 0.9364 0.9365 0.9365 0.9365 0.9366
3681.000000 0.9366 0.9367 0.9367 0.9367 0.9367
3686.000000 0.9367 0.9367 0.9368 0.9368 0.9368
3691.000000 0.9369 0.9369 0.9370 0.9370 0.9370
3696.000000 0.9370 0.9370 0.9370 0.9371 0.9371
3701.000000 0.9372 0.9372 0.9372 0.9373 0.9373
3706.000000 0.9373 0.9374 0.9374 0.9374 0.9375
3711.000000 0.9375 0.9375 0.9375 0.9375 0.9376
3716.000000 0.9377 0.9378 0.9379 0.9380 0.9381
3721.000000 0.9383 0.9384 0.9386 0.9388 0.9389
3726.000000 0.9391 0.9393 0.9394 0.9396 0.9398
3731.000000 0.9400 0.9402 0.9403 0.9405 0.9407
3736.000000 0.9409 0.9411 0.9415 0.9418 0.9422
3741.000000 0.9426 0.9430 0.9433 0.9437 0.9441
3746.000000 0.9445 0.9449 0.9453 0.9458 0.9462
3751.000000 0.9467 0.9471 0.9476 0.9481 0.9485
3756.000000 0.9490 0.9495 0.9500 0.9505 0.9509
3761.000000 0.9513 0.9518 0.9522 0.9526 0.9530
3766.000000 0.9534 0.9538 0.9542 0.9546 0.9551
3771.000000 0.9555 0.9559 0.9563 0.9567 0.9571
3776.000000 0.9575 0.9579 0.9582 0.9586 0.9590
3781.000000 0.9593 0.9597 0.9600 0.9604 0.9607
3786.000000 0.9611 0.9614 0.9618 0.9621 0.9624
3791.000000 0.9627 0.9630 0.9634 0.9636 0.9636
3796.000000 0.9637 0.9638 0.9639 0.9639 0.9640
3801.000000 0.9641 0.9642 0.9643 0.9643 0.9644
3806.000000 0.9645 0.9646 0.9647 0.9648 0.9649
3811.000000 0.9649 0.9646 0.9643 0.9640 0.9637
3816.000000 0.9634 0.9650 0.9625 0.9619 0.9614
3821.000000 0.9608 0.9603 0.9597 0.9592 0.9587
3826.000000 0.9581 0.9576 0.9570 0.9565 0.9559
3831.000000 0.9554 0.9548 0.9543 0.9537 0.9532
3836.000000 0.9526 0.9521 0.9515 0.9509 0.9504
3841.000000 0.9497 0.9489 0.9482 0.9474 0.9466
3846.000000 0.9459 0.9452 0.9445 0.9438 0.9431
3851.000000 0.9424 0.9417 0.9417 0.9417 0.9417
3856.000000 0.9417 0.9417 0.9417 0.9418 0.9418
3861.000000 0.9418 0.9419 0.9419 0.9420 0.9420
3866.000000 0.9421 0.9421 0.9422 0.9422 0.9423
3871.000000 0.9424 0.9425 0.9426 0.9427 0.9428
3876.000000 0.9429 0.9430 0.9432 0.9433 0.9435
3881.000000 0.9436 0.9438 0.9439 0.9441 0.9443
3886.000000 0.9445 0.9447 0.9448 0.9451 0.9454
3891.000000 0.9457 0.9460 0.9462 0.9465 0.9466
3896.000000 0.9467 0.9467 0.9468 0.9469 0.9469
3901.000000 0.9470 0.9470 0.9471 0.9471 0.9472
3906.000000 0.9472 0.9473 0.9473 0.9473 0.9473
3911.000000 0.9473 0.9473 0.9474 0.9474 0.9474
3916.000000 0.9474 0.9474 0.9474 0.9473 0.9473
3921.000000 0.9472 0.9471 0.9471 0.9470 0.9469
3926.000000 0.9468 0.9466 0.9465 0.9464 0.9463
3931.000000 0.9461 0.9460 0.9459 0.9457 0.9456
3936.000000 0.9455 0.9454 0.9450 0.9446 0.9442
3941.000000 0.9438 0.9434 0.9430 0.9426 0.9422
3946.000000 0.9418 0.9414 0.9410 0.9406 0.9402
3951.000000 0.9397 0.9391 0.9386 0.9381 0.9376
3956.000000 0.9371 0.9366 0.9360 0.9355 0.9350
3961.000000 0.9345 0.9339 0.9335 0.9331 0.9327
3966.000000 0.9323 0.9319 0.9316 0.9312 0.9308
3971.000000 0.9304 0.9300 0.9296 0.9292 0.9288
3976.000000 0.9286 0.9283 0.9280 0.9278 0.9275
3981.000000 0.9272 0.9270 0.9268 0.9266 0.9264
3986.000000 0.9262 0.9260 0.9259 0.9257 0.9256
3991.000000 0.9255 0.9254 0.9252 0.9251 0.9250
3996.000000 0.9249 0.9248 0.9247 0.9246 0.9245
##END=
