##TITLE=BRILLIANT CRESYL BLUE (CERT.)
$$ E.K. (W.L.)
##JCAMP-DX=4.24
##DATA TYPE=INFRARED SPECTRUM
##CLASS=COBLENTZ
##ORIGIN=WYANDOTTE CHEMICALS CORP., WYANDOTTE, MICHIGAN, USA
##OWNER=COBLENTZ SOCIETY
Collection (C) 2018 copyright by the U.S. Secretary of Commerce
on behalf of the United States of America. All rights reserved.
##DATE=Not specified, most likely prior to 1970
##MOLFORM=C17 H20 Cl N3 O
##SOURCE REFERENCE=COBLENTZ NO. 425
##$NIST ID=B6000425
##$NIST SOURCE=COBLENTZ
##$NIST IMAGE=cob425
##SPECTROMETER/DATA SYSTEM=Not specified, most likely a prism, grating, or hybrid spectrometer.
##STATE=SOLID (MINERAL OIL MULL, AFTER ETHANOL PPTN.)
##SAMPLING PROCEDURE=TRANSMISSION
##RESOLUTION=4
##DATA PROCESSING=DIGITIZED BY NIST FROM HARD COPY
##XUNITS=MICROMETERS
##YUNITS=TRANSMITTANCE
##XFACTOR=1.000000
##YFACTOR=1
##DELTAX=000.006658
##FIRSTX=2.028
##LASTX=16.0029
##FIRSTY=0.162
##MAXX=16.0029
##MINX=2.028
##MAXY=0.964
##MINY=0.016
##NPOINTS=2100
##XYDATA=(X++(Y..Y))
2.028000 0.1620 0.1630 0.1630 0.1650 0.1650
2.061305 0.1670 0.1670 0.1680 0.1680 0.1700
2.095000 0.1720 0.1730 0.1750 0.1750 0.1800
2.128305 0.1830 0.1900 0.1930 0.1970 0.1980
2.161000 0.2000 0.2000 0.2020 0.2040 0.2020
2.194305 0.2020 0.2020 0.2020 0.2020 0.2000
2.228000 0.2000 0.2020 0.2020 0.2000 0.2000
2.261305 0.1980 0.1980 0.1980 0.2000 0.2000
2.294000 0.2020 0.2020 0.2020 0.2020 0.2020
2.327305 0.2040 0.2050 0.2050 0.2070 0.2090
2.361000 0.2090 0.2100 0.2100 0.2120 0.2120
2.394305 0.2120 0.2120 0.2120 0.2120 0.2120
2.427000 0.2150 0.2170 0.2200 0.2270 0.2290
2.460305 0.2290 0.2300 0.2340 0.2340 0.2350
2.494000 0.2370 0.2400 0.2420 0.2440 0.2450
2.527305 0.2470 0.2470 0.2490 0.2490 0.2470
2.561000 0.2490 0.2490 0.2500 0.2520 0.2520
2.594305 0.2550 0.2550 0.2590 0.2620 0.2640
2.627000 0.2640 0.2650 0.2700 0.2700 0.2740
2.660305 0.2790 0.2820 0.2840 0.2870 0.2900
2.694000 0.2920 0.2940 0.2940 0.2950 0.2970
2.727305 0.2990 0.2990 0.2970 0.2970 0.2950
2.760000 0.2940 0.2920 0.2900 0.2890 0.2890
2.793305 0.2890 0.2850 0.2790 0.2720 0.2670
2.827000 0.2600 0.2550 0.2520 0.2500 0.2450
2.860305 0.2400 0.2340 0.2300 0.2250 0.2220
2.893000 0.2190 0.2120 0.2000 0.1980 0.1900
2.926305 0.1870 0.1830 0.1800 0.1780 0.1780
2.960000 0.1770 0.1730 0.1670 0.1630 0.1630
2.993305 0.1580 0.1530 0.1500 0.1450 0.1420
3.027000 0.1350 0.1270 0.1230 0.1200 0.1180
3.060305 0.1150 0.1100 0.1050 0.1000 0.0960
3.093000 0.0930 0.0910 0.0900 0.0880 0.0860
3.126305 0.0860 0.0860 0.0860 0.0850 0.0850
3.160000 0.0830 0.0810 0.0750 0.0710 0.0680
3.193305 0.0660 0.0650 0.0630 0.0610 0.0610
3.226000 0.0630 0.0630 0.0630 0.0630 0.0630
3.259305 0.0610 0.0610 0.0600 0.0560 0.0550
3.293000 0.0530 0.0510 0.0460 0.0430 0.0410
3.326305 0.0380 0.0350 0.0310 0.0300 0.0280
3.360000 0.0260 0.0250 0.0230 0.0230 0.0200
3.393305 0.0180 0.0180 0.0180 0.0180 0.0200
3.426000 0.0200 0.0200 0.0200 0.0200 0.0180
3.459305 0.0160 0.0160 0.0180 0.0180 0.0180
3.493000 0.0180 0.0180 0.0180 0.0160 0.0160
3.526305 0.0160 0.0160 0.0200 0.0260 0.0380
3.559000 0.0480 0.0530 0.0610 0.0780 0.0830
3.592305 0.0900 0.0980 0.1070 0.1100 0.1150
3.626000 0.1220 0.1250 0.1270 0.1270 0.1270
3.659305 0.1300 0.1300 0.1320 0.1330 0.1350
3.692000 0.1370 0.1380 0.1420 0.1450 0.1480
3.725305 0.1500 0.1500 0.1520 0.1520 0.1530
3.759000 0.1580 0.1600 0.1630 0.1670 0.1720
3.792305 0.1750 0.1800 0.1850 0.1870 0.1880
3.826000 0.1920 0.1930 0.1950 0.1950 0.1970
3.859305 0.1970 0.1980 0.2000 0.2000 0.2020
3.892000 0.2100 0.2140 0.2190 0.2190 0.2200
3.925305 0.2220 0.2220 0.2220 0.2250 0.2290
3.959000 0.2300 0.2370 0.2370 0.2400 0.2420
3.992305 0.2420 0.2450 0.2490 0.2520 0.2590
4.025000 0.2600 0.2600 0.2600 0.2620 0.2640
4.058305 0.2650 0.2690 0.2700 0.2750 0.2790
4.092000 0.2800 0.2840 0.2890 0.2900 0.2920
4.125305 0.2920 0.2920 0.2970 0.3010 0.3020
4.158000 0.3020 0.3040 0.3060 0.3070 0.3120
4.191305 0.3170 0.3190 0.3260 0.3290 0.3320
4.225000 0.3370 0.3410 0.3410 0.3410 0.3410
4.258305 0.3390 0.3370 0.3370 0.3370 0.3390
4.292000 0.3410 0.3420 0.3460 0.3510 0.3520
4.325305 0.3540 0.3570 0.3610 0.3660 0.3690
4.358000 0.3720 0.3790 0.3820 0.3860 0.3940
4.391305 0.3990 0.4090 0.4140 0.4240 0.4260
4.425000 0.4310 0.4380 0.4430 0.4460 0.4490
4.458305 0.4490 0.4510 0.4530 0.4530 0.4560
4.491000 0.4580 0.4590 0.4660 0.4690 0.4730
4.524305 0.4760 0.4760 0.4780 0.4790 0.4790
4.558000 0.4810 0.4830 0.4830 0.4840 0.4860
4.591305 0.4880 0.4880 0.4930 0.5010 0.5010
4.625000 0.5030 0.5050 0.5080 0.5110 0.5110
4.658305 0.5130 0.5130 0.5130 0.5150 0.5180
4.691000 0.5180 0.5230 0.5300 0.5330 0.5350
4.724305 0.5380 0.5400 0.5460 0.5510 0.5550
4.758000 0.5610 0.5650 0.5680 0.5710 0.5730
4.791305 0.5750 0.5780 0.5830 0.5860 0.5880
4.824000 0.5880 0.5880 0.5880 0.5900 0.5900
4.857305 0.5980 0.5980 0.6000 0.6030 0.6030
4.891000 0.6050 0.6070 0.6100 0.6100 0.6120
4.924305 0.6120 0.6130 0.6170 0.6180 0.6180
4.957000 0.6200 0.6220 0.6230 0.6270 0.6280
4.990305 0.6300 0.6320 0.6370 0.6400 0.6450
5.024000 0.6480 0.6500 0.6530 0.6550 0.6600
5.057305 0.6630 0.6650 0.6680 0.6720 0.6750
5.091000 0.6800 0.6830 0.6900 0.6930 0.6980
5.124305 0.7020 0.7100 0.7100 0.7120 0.7120
5.157000 0.7140 0.7170 0.7200 0.7270 0.7300
5.190305 0.7340 0.7370 0.7440 0.7500 0.7550
5.224000 0.7570 0.7620 0.7650 0.7670 0.7690
5.257305 0.7700 0.7720 0.7750 0.7790 0.7820
5.290000 0.7840 0.7890 0.7950 0.7970 0.7970
5.323305 0.8010 0.8070 0.8170 0.8240 0.8260
5.357000 0.8260 0.8270 0.8290 0.8310 0.8320
5.390305 0.8340 0.8460 0.8520 0.8620 0.8670
5.423000 0.8710 0.8740 0.8760 0.8790 0.8810
5.456305 0.8820 0.8860 0.8910 0.8940 0.9010
5.490000 0.9030 0.9030 0.9040 0.9040 0.9090
5.523305 0.9140 0.9230 0.9230 0.9230 0.9240
5.557000 0.9260 0.9290 0.9330 0.9360 0.9380
5.590305 0.9390 0.9410 0.9430 0.9460 0.9490
5.623000 0.9490 0.9510 0.9510 0.9510 0.9490
5.656305 0.9490 0.9480 0.9490 0.9530 0.9580
5.690000 0.9610 0.9610 0.9630 0.9640 0.9640
5.723305 0.9630 0.9630 0.9590 0.9580 0.9540
5.756000 0.9490 0.9460 0.9390 0.9340 0.9310
5.789305 0.9260 0.9110 0.8970 0.8870 0.8860
5.823000 0.8820 0.8760 0.8690 0.8620 0.8590
5.856305 0.8540 0.8510 0.8490 0.8490 0.8440
5.889000 0.8440 0.8390 0.8310 0.8170 0.8010
5.922305 0.7750 0.7650 0.7490 0.7300 0.7000
5.956000 0.6680 0.6280 0.6230 0.5830 0.5410
5.989305 0.5100 0.4510 0.3990 0.3510 0.3370
6.023000 0.3210 0.3160 0.3120 0.3120 0.3120
6.056305 0.3120 0.3120 0.3120 0.3090 0.3020
6.089000 0.2990 0.2800 0.2640 0.2470 0.2320
6.122305 0.2100 0.1870 0.1680 0.1530 0.1330
6.156000 0.1130 0.0980 0.0850 0.0760 0.0680
6.189305 0.0600 0.0560 0.0560 0.0580 0.0610
6.222000 0.0660 0.0710 0.0760 0.0800 0.0860
6.255305 0.1000 0.1120 0.1220 0.1350 0.1430
6.289000 0.1500 0.1550 0.1700 0.1830 0.1980
6.322305 0.2000 0.2020 0.2050 0.2100 0.2140
6.356000 0.2150 0.2190 0.2200 0.2220 0.2290
6.389305 0.2370 0.2420 0.2450 0.2400 0.2320
6.422000 0.2270 0.2220 0.2190 0.2140 0.2100
6.455305 0.2040 0.2020 0.2000 0.1980 0.1830
6.489000 0.1780 0.1730 0.1630 0.1600 0.1550
6.522305 0.1530 0.1520 0.1480 0.1400 0.1370
6.555000 0.1270 0.1180 0.1130 0.1080 0.1050
6.588305 0.1020 0.1020 0.1000 0.0980 0.0980
6.622000 0.0980 0.0980 0.1000 0.1020 0.1030
6.655305 0.1030 0.1130 0.1150 0.1170 0.1180
6.688000 0.1180 0.1150 0.1130 0.1120 0.1070
6.721305 0.1030 0.0980 0.0930 0.0880 0.0850
6.755000 0.0780 0.0700 0.0600 0.0530 0.0460
6.788305 0.0380 0.0350 0.0310 0.0280 0.0280
6.822000 0.0260 0.0280 0.0300 0.0310 0.0310
6.855305 0.0330 0.0350 0.0380 0.0410 0.0450
6.888000 0.0480 0.0510 0.0580 0.0630 0.0680
6.921305 0.0730 0.0760 0.0800 0.0850 0.0930
6.955000 0.1050 0.1170 0.1300 0.1400 0.1420
6.988305 0.1500 0.1530 0.1650 0.1730 0.1830
7.021000 0.1830 0.1830 0.1800 0.1700 0.1620
7.054305 0.1530 0.1520 0.1430 0.1380 0.1320
7.088000 0.1270 0.1220 0.1180 0.1130 0.1080
7.121305 0.1030 0.1030 0.1030 0.1080 0.1130
7.154000 0.1170 0.1230 0.1300 0.1300 0.1270
7.187305 0.1250 0.1180 0.1100 0.1020 0.0910
7.221000 0.0760 0.0750 0.0710 0.0680 0.0650
7.254305 0.0630 0.0630 0.0660 0.0700 0.0730
7.288000 0.0780 0.0900 0.0930 0.0960 0.0980
7.321305 0.1030 0.1170 0.1250 0.1270 0.1320
7.354000 0.1270 0.1220 0.1120 0.1100 0.0960
7.387305 0.0830 0.0730 0.0700 0.0630 0.0610
7.421000 0.0610 0.0600 0.0600 0.0600 0.0600
7.454305 0.0600 0.0610 0.0630 0.0650 0.0650
7.487000 0.0650 0.0650 0.0650 0.0650 0.0660
7.520305 0.0660 0.0680 0.0660 0.0660 0.0660
7.554000 0.0660 0.0680 0.0680 0.0680 0.0700
7.587305 0.0700 0.0680 0.0680 0.0680 0.0680
7.621000 0.0680 0.0680 0.0680 0.0680 0.0700
7.654305 0.0700 0.0700 0.0700 0.0700 0.0700
7.687000 0.0710 0.0730 0.0750 0.0780 0.0800
7.720305 0.0810 0.0850 0.0850 0.0860 0.0860
7.754000 0.0880 0.0900 0.0910 0.0950 0.0960
7.787305 0.0980 0.0980 0.1000 0.1020 0.1030
7.820000 0.1050 0.1130 0.1170 0.1220 0.1250
7.853305 0.1250 0.1250 0.1250 0.1250 0.1230
7.887000 0.1230 0.1250 0.1270 0.1300 0.1320
7.920305 0.1330 0.1380 0.1430 0.1480 0.1550
7.953000 0.1620 0.1700 0.1750 0.1830 0.1870
7.986305 0.1920 0.2000 0.2020 0.2040 0.2090
8.020000 0.2140 0.2190 0.2240 0.2250 0.2290
8.053305 0.2300 0.2350 0.2370 0.2370 0.2390
8.087000 0.2400 0.2420 0.2470 0.2520 0.2600
8.120305 0.2640 0.2670 0.2700 0.2720 0.2740
8.153000 0.2770 0.2790 0.2800 0.2870 0.2890
8.186305 0.2900 0.2900 0.2920 0.2920 0.2920
8.220000 0.2900 0.2850 0.2750 0.2640 0.2620
8.253305 0.2590 0.2520 0.2470 0.2300 0.2250
8.286000 0.2240 0.2220 0.2240 0.2240 0.2270
8.319305 0.2300 0.2450 0.2540 0.2620 0.2700
8.353000 0.2750 0.2850 0.2970 0.2990 0.3070
8.386305 0.3140 0.3190 0.3210 0.3240 0.3240
8.419000 0.3240 0.3210 0.3170 0.3070 0.2990
8.452305 0.2970 0.2890 0.2840 0.2790 0.2700
8.486000 0.2670 0.2540 0.2490 0.2320 0.2170
8.519305 0.2000 0.1870 0.1670 0.1580 0.1420
8.553000 0.1350 0.1300 0.1270 0.1230 0.1230
8.586305 0.1220 0.1180 0.1170 0.1170 0.1170
8.619000 0.1150 0.1150 0.1130 0.1120 0.1120
8.652305 0.1120 0.1100 0.1100 0.1100 0.1100
8.686000 0.1120 0.1120 0.1120 0.1120 0.1120
8.719305 0.1130 0.1150 0.1170 0.1170 0.1180
8.752000 0.1200 0.1220 0.1230 0.1270 0.1320
8.785305 0.1350 0.1380 0.1420 0.1430 0.1450
8.819000 0.1450 0.1470 0.1470 0.1450 0.1450
8.852305 0.1470 0.1470 0.1500 0.1520 0.1520
8.885000 0.1530 0.1570 0.1620 0.1680 0.1750
8.918305 0.1830 0.1980 0.2000 0.2050 0.2190
8.952000 0.2270 0.2340 0.2440 0.2470 0.2590
8.985305 0.2720 0.2870 0.2970 0.3070 0.3170
9.019000 0.3260 0.3290 0.3370 0.3440 0.3520
9.052305 0.3570 0.3640 0.3710 0.3810 0.3970
9.085000 0.3970 0.4010 0.4030 0.4090 0.4160
9.118305 0.4190 0.4240 0.4260 0.4290 0.4330
9.152000 0.4360 0.4430 0.4510 0.4510 0.4540
9.185305 0.4580 0.4590 0.4640 0.4640 0.4680
9.218000 0.4690 0.4690 0.4710 0.4780 0.4790
9.251305 0.4810 0.4830 0.4830 0.4840 0.4880
9.285000 0.4910 0.4930 0.5010 0.5030 0.5080
9.318305 0.5110 0.5130 0.5130 0.5160 0.5200
9.352000 0.5230 0.5260 0.5280 0.5300 0.5280
9.385305 0.5280 0.5260 0.5250 0.5250 0.5250
9.418000 0.5230 0.5200 0.5160 0.5110 0.5050
9.451305 0.5030 0.5010 0.5000 0.5000 0.5010
9.485000 0.5030 0.5030 0.5060 0.5060 0.5030
9.518305 0.5000 0.4940 0.4910 0.4890 0.4880
9.551000 0.4860 0.4840 0.4840 0.4840 0.4840
9.584305 0.4840 0.4840 0.4840 0.4840 0.4860
9.618000 0.4860 0.4880 0.4890 0.4890 0.4930
9.651305 0.4980 0.5030 0.5030 0.5050 0.5060
9.684000 0.5050 0.5050 0.5010 0.5000 0.4980
9.717305 0.4980 0.4980 0.4940 0.4860 0.4790
9.751000 0.4730 0.4690 0.4680 0.4640 0.4640
9.784305 0.4630 0.4610 0.4590 0.4590 0.4610
9.818000 0.4610 0.4610 0.4610 0.4610 0.4610
9.851305 0.4630 0.4690 0.4710 0.4740 0.4810
9.884000 0.4980 0.5010 0.5130 0.5150 0.5260
9.917305 0.5310 0.5400 0.5530 0.5610 0.5710
9.951000 0.5850 0.5930 0.6050 0.6150 0.6150
9.984305 0.6200 0.6270 0.6380 0.6450 0.6520
10.017000 0.6580 0.6630 0.6670 0.6700 0.6700
10.050305 0.6720 0.6720 0.6730 0.6750 0.6750
10.084000 0.6750 0.6770 0.6780 0.6800 0.6800
10.117305 0.6820 0.6830 0.6870 0.6930 0.6930
10.150000 0.6950 0.6950 0.6950 0.6970 0.6970
10.183305 0.6980 0.6980 0.7000 0.7020 0.7020
10.217000 0.7020 0.7040 0.7050 0.7050 0.7090
10.250305 0.7120 0.7200 0.7240 0.7240 0.7240
10.284000 0.7250 0.7320 0.7320 0.7340 0.7350
10.317305 0.7350 0.7390 0.7390 0.7400 0.7440
10.350000 0.7490 0.7540 0.7550 0.7590 0.7590
10.383305 0.7620 0.7640 0.7650 0.7670 0.7670
10.417000 0.7670 0.7670 0.7650 0.7650 0.7670
10.450305 0.7690 0.7690 0.7700 0.7700 0.7700
10.483000 0.7700 0.7700 0.7700 0.7700 0.7670
10.516305 0.7640 0.7620 0.7600 0.7600 0.7590
10.550000 0.7550 0.7540 0.7540 0.7520 0.7500
10.583305 0.7490 0.7450 0.7400 0.7340 0.7220
10.617000 0.7100 0.7020 0.6850 0.6670 0.6550
10.650305 0.6420 0.6230 0.6180 0.6000 0.5880
10.683000 0.5830 0.5750 0.5680 0.5660 0.5650
10.716305 0.5630 0.5630 0.5650 0.5700 0.5730
10.750000 0.5880 0.6000 0.6070 0.6220 0.6320
10.783305 0.6500 0.6620 0.6800 0.6970 0.7140
10.816000 0.7200 0.7250 0.7350 0.7500 0.7590
10.849305 0.7670 0.7740 0.7790 0.7850 0.7940
10.883000 0.8010 0.8020 0.8060 0.8110 0.8140
10.916305 0.8210 0.8210 0.8220 0.8220 0.8220
10.949000 0.8240 0.8240 0.8260 0.8260 0.8260
10.982305 0.8260 0.8270 0.8320 0.8340 0.8360
11.016000 0.8360 0.8340 0.8320 0.8310 0.8290
11.049305 0.8290 0.8260 0.8210 0.8160 0.8120
11.083000 0.8120 0.8120 0.8110 0.8090 0.8070
11.116305 0.8060 0.8040 0.8020 0.8010 0.7920
11.149000 0.7870 0.7850 0.7820 0.7720 0.7700
11.182305 0.7670 0.7620 0.7590 0.7500 0.7490
11.216000 0.7400 0.7320 0.7240 0.7150 0.7120
11.249305 0.7020 0.6980 0.6930 0.6880 0.6850
11.282000 0.6830 0.6820 0.6820 0.6820 0.6820
11.315305 0.6820 0.6830 0.6830 0.6830 0.6830
11.349000 0.6830 0.6850 0.6850 0.6880 0.6930
11.382305 0.6980 0.6980 0.7000 0.7020 0.7020
11.415000 0.7020 0.7020 0.7020 0.7020 0.7000
11.448305 0.6980 0.6920 0.6830 0.6770 0.6720
11.482000 0.6620 0.6530 0.6450 0.6420 0.6380
11.515305 0.6350 0.6350 0.6330 0.6330 0.6350
11.549000 0.6370 0.6400 0.6420 0.6420 0.6430
11.582305 0.6480 0.6520 0.6550 0.6580 0.6580
11.615000 0.6580 0.6580 0.6580 0.6580 0.6580
11.648305 0.6580 0.6580 0.6580 0.6550 0.6530
11.682000 0.6520 0.6480 0.6420 0.6370 0.6330
11.715305 0.6300 0.6280 0.6250 0.6230 0.6180
11.748000 0.6130 0.6080 0.6020 0.6000 0.6000
11.781305 0.5950 0.5950 0.5880 0.5860 0.5830
11.815000 0.5810 0.5810 0.5750 0.5680 0.5630
11.848305 0.5610 0.5600 0.5560 0.5550 0.5530
11.881000 0.5510 0.5480 0.5460 0.5400 0.5350
11.914305 0.5330 0.5280 0.5230 0.5210 0.5210
11.948000 0.5200 0.5200 0.5160 0.5130 0.5130
11.981305 0.5110 0.5080 0.5050 0.5010 0.5010
12.015000 0.5000 0.5000 0.5010 0.5010 0.5010
12.048305 0.5030 0.5030 0.5030 0.5050 0.5110
12.081000 0.5150 0.5160 0.5210 0.5300 0.5330
12.114305 0.5400 0.5410 0.5430 0.5450 0.5460
12.148000 0.5500 0.5530 0.5560 0.5630 0.5680
12.181305 0.5710 0.5730 0.5780 0.5810 0.5950
12.214000 0.5980 0.6020 0.6030 0.6130 0.6220
12.247305 0.6300 0.6480 0.6530 0.6600 0.6720
12.281000 0.6800 0.6850 0.7000 0.7090 0.7190
12.314305 0.7290 0.7350 0.7440 0.7550 0.7620
12.348000 0.7670 0.7700 0.7720 0.7750 0.7790
12.381305 0.7840 0.7870 0.8010 0.8020 0.8060
12.414000 0.8120 0.8190 0.8220 0.8260 0.8290
12.447305 0.8370 0.8410 0.8440 0.8490 0.8510
12.481000 0.8520 0.8560 0.8610 0.8620 0.8640
12.514305 0.8660 0.8670 0.8690 0.8710 0.8720
12.547000 0.8720 0.8740 0.8760 0.8790 0.8810
12.580305 0.8820 0.8840 0.8840 0.8860 0.8860
12.614000 0.8860 0.8860 0.8860 0.8890 0.8890
12.647305 0.8910 0.8940 0.8990 0.9010 0.9030
12.680000 0.9040 0.9040 0.9040 0.9040 0.9040
12.713305 0.9040 0.9040 0.9040 0.9040 0.9040
12.747000 0.9040 0.9040 0.9040 0.9040 0.9040
12.780305 0.9060 0.9060 0.9040 0.9040 0.9040
12.814000 0.9040 0.9040 0.9040 0.9040 0.9040
12.847305 0.9040 0.9030 0.9030 0.9030 0.9030
12.880000 0.9030 0.9030 0.9010 0.8990 0.8990
12.913305 0.8960 0.8920 0.8910 0.8890 0.8870
12.947000 0.8840 0.8840 0.8820 0.8790 0.8770
12.980305 0.8760 0.8740 0.8690 0.8620 0.8570
13.013000 0.8520 0.8520 0.8520 0.8520 0.8520
13.046305 0.8520 0.8520 0.8510 0.8510 0.8520
13.080000 0.8540 0.8570 0.8570 0.8570 0.8570
13.113305 0.8570 0.8560 0.8540 0.8540 0.8540
13.146000 0.8540 0.8560 0.8560 0.8570 0.8590
13.179305 0.8590 0.8570 0.8540 0.8540 0.8510
13.213000 0.8510 0.8490 0.8470 0.8440 0.8360
13.246305 0.8320 0.8270 0.8260 0.8260 0.8240
13.280000 0.8240 0.8220 0.8160 0.8120 0.8070
13.313305 0.8020 0.8020 0.8010 0.8010 0.7900
13.346000 0.7850 0.7790 0.7750 0.7650 0.7570
13.379305 0.7520 0.7490 0.7440 0.7390 0.7350
13.413000 0.7300 0.7270 0.7240 0.7240 0.7220
13.446305 0.7220 0.7220 0.7200 0.7200 0.7200
13.479000 0.7200 0.7220 0.7220 0.7220 0.7220
13.512305 0.7200 0.7200 0.7200 0.7200 0.7190
13.546000 0.7170 0.7170 0.7150 0.7150 0.7140
13.579305 0.7100 0.7050 0.7020 0.6980 0.6930
13.613000 0.6880 0.6830 0.6820 0.6820 0.6800
13.646305 0.6820 0.6830 0.6850 0.6850 0.6850
13.679000 0.6870 0.6870 0.6870 0.6870 0.6870
13.712305 0.6880 0.6880 0.6900 0.6900 0.6900
13.746000 0.6900 0.6900 0.6900 0.6850 0.6830
13.779305 0.6830 0.6830 0.6820 0.6780 0.6750
13.812000 0.6700 0.6680 0.6650 0.6600 0.6580
13.845305 0.6570 0.6550 0.6550 0.6550 0.6550
13.879000 0.6550 0.6530 0.6530 0.6530 0.6530
13.912305 0.6570 0.6580 0.6600 0.6670 0.6700
13.945000 0.6770 0.6820 0.6880 0.6920 0.6930
13.978305 0.6930 0.6980 0.7000 0.7040 0.7100
14.012000 0.7120 0.7140 0.7150 0.7200 0.7270
14.045305 0.7300 0.7320 0.7350 0.7390 0.7420
14.079000 0.7440 0.7450 0.7490 0.7540 0.7570
14.112305 0.7590 0.7590 0.7590 0.7590 0.7570
14.145000 0.7590 0.7570 0.7570 0.7550 0.7540
14.178305 0.7540 0.7520 0.7500 0.7500 0.7490
14.212000 0.7470 0.7470 0.7440 0.7420 0.7400
14.245305 0.7340 0.7300 0.7240 0.7190 0.7140
14.278000 0.7070 0.7000 0.6880 0.6820 0.6770
14.311305 0.6680 0.6620 0.6550 0.6430 0.6330
14.345000 0.6230 0.6170 0.6070 0.6000 0.5900
14.378305 0.5860 0.5850 0.5830 0.5810 0.5830
14.411000 0.5830 0.5850 0.5860 0.5880 0.5910
14.444305 0.5950 0.5980 0.6020 0.6030 0.6130
14.478000 0.6200 0.6230 0.6320 0.6330 0.6370
14.511305 0.6380 0.6420 0.6430 0.6520 0.6530
14.545000 0.6600 0.6620 0.6630 0.6700 0.6750
14.578305 0.6780 0.6780 0.6800 0.6800 0.6820
14.611000 0.6820 0.6830 0.6830 0.6850 0.6850
14.644305 0.6870 0.6880 0.6900 0.6900 0.6900
14.678000 0.6930 0.6980 0.6980 0.6980 0.6970
14.711305 0.6950 0.6930 0.6920 0.6920 0.6900
14.744000 0.6900 0.6900 0.6900 0.6880 0.6880
14.777305 0.6870 0.6870 0.6870 0.6870 0.6870
14.811000 0.6850 0.6850 0.6830 0.6820 0.6800
14.844305 0.6780 0.6770 0.6770 0.6750 0.6750
14.877000 0.6730 0.6730 0.6730 0.6730 0.6730
14.910305 0.6730 0.6730 0.6730 0.6730 0.6720
14.944000 0.6720 0.6720 0.6720 0.6700 0.6700
14.977305 0.6680 0.6650 0.6580 0.6530 0.6480
15.011000 0.6370 0.6300 0.6280 0.6230 0.6150
15.044305 0.6050 0.6000 0.5930 0.5880 0.5800
15.077000 0.5710 0.5630 0.5600 0.5560 0.5550
15.110305 0.5530 0.5560 0.5600 0.5610 0.5610
15.144000 0.5650 0.5700 0.5730 0.5760 0.5780
15.177305 0.5830 0.5850 0.5880 0.5910 0.5980
15.210000 0.6000 0.6000 0.6000 0.6020 0.6030
15.243305 0.6030 0.6030 0.6030 0.6030 0.6030
15.277000 0.6030 0.6030 0.6030 0.6030 0.6020
15.310305 0.6020 0.6020 0.6020 0.6000 0.6000
15.344000 0.6000 0.6000 0.6000 0.6000 0.5960
15.377305 0.5950 0.5950 0.5930 0.5910 0.5900
15.410000 0.5880 0.5880 0.5880 0.5860 0.5860
15.443305 0.5860 0.5860 0.5850 0.5800 0.5750
15.477000 0.5710 0.5700 0.5700 0.5700 0.5680
15.510305 0.5660 0.5650 0.5650 0.5650 0.5630
15.543000 0.5630 0.5630 0.5610 0.5610 0.5610
15.576305 0.5600 0.5550 0.5510 0.5460 0.5410
15.610000 0.5400 0.5350 0.5300 0.5250 0.5230
15.643305 0.5230 0.5210 0.5210 0.5210 0.5210
15.676000 0.5200 0.5180 0.5160 0.5150 0.5130
15.709305 0.5100 0.5030 0.5030 0.5030 0.5030
15.743000 0.5030 0.5030 0.5030 0.5010 0.5010
15.776305 0.5000 0.5000 0.5000 0.4980 0.4930
15.810000 0.4930 0.4930 0.4890 0.4860 0.4830
15.843305 0.4810 0.4810 0.4790 0.4780 0.4790
15.876000 0.4790 0.4780 0.4760 0.4760 0.4740
15.909305 0.4730 0.4710 0.4690 0.4660 0.4640
15.943000 0.4590 0.4580 0.4560 0.4540 0.4530
15.976305 0.4530 0.4510 0.4510 0.4490 0.4480
##END=
