##TITLE=9(AND 10)-PHENYLSTEARIC ACID
##JCAMP-DX=4.24
##DATA TYPE=INFRARED SPECTRUM
##CLASS=COBLENTZ
##ORIGIN=DOW CHEMICAL COMPANY
##OWNER=COBLENTZ SOCIETY
Collection (C) 2018 copyright by the U.S. Secretary of Commerce
on behalf of the United States of America. All rights reserved.
##DATE=1963/10/17
##MOLFORM=C24 H40 O2
##SOURCE REFERENCE=COBLENTZ NO. 8089
##$NIST ID=B6008089
##$NIST SOURCE=COBLENTZ
##$NIST IMAGE=cob8089
##SPECTROMETER/DATA SYSTEM=DOW KBr FOREPRISM-GRATING
##INSTRUMENT PARAMETERS=BLAZED AT 3.5, 12.0, 20.0 MICRON AND CHANGED AT 5.0, 7.5, 14.9 MICRON
##STATE=SOLUTION (10% CCl4 FOR 3800-1330, 10% CS2 FOR 1330-400 CM^-^1)
##PATH LENGTH=0.011 CM, 0.011 CM
$$SPECTRAL CONTAMINATION DUE TO CS2 AROUND 850, AND CCl4 AROUND 1550, AND AN UNKNOWN AROUND 400 CM^-^1
##SAMPLING PROCEDURE=TRANSMISSION
##RESOLUTION=2
##DATA PROCESSING=DIGITIZED BY NIST FROM HARD COPY (FROM TWO SEGMENTS)
##XUNITS=1/CM
##YUNITS=TRANSMITTANCE
##XFACTOR=1.000000
##YFACTOR=1
##DELTAX=0.881058
##FIRSTX=386.784
##LASTX=3798.24
##FIRSTY=0.359
##MAXX=3798.24
##MINX=386.784
##MAXY=0.986
##MINY=0.01
##NPOINTS=3873
##XYDATA=(X++(Y..Y))
386.784000 0.3590 0.3660 0.3700 0.3720 0.3800
391.189288 0.3850 0.3930 0.3960 0.3990 0.4070
395.594576 0.4170 0.4210 0.4240 0.4400 0.4580
399.999865 0.4759 0.4919 0.5099 0.5279 0.5578
404.405153 0.6030 0.6360 0.6700 0.6860 0.7179
408.810441 0.7409 0.7659 0.7929 0.8149 0.8259
413.215729 0.8340 0.8480 0.8600 0.8710 0.8820
417.621017 0.8910 0.9010 0.9080 0.9130 0.9170
422.026306 0.9270 0.9320 0.9370 0.9410 0.9460
426.431594 0.9520 0.9540 0.9580 0.9630 0.9640
430.836882 0.9650 0.9670 0.9680 0.9710 0.9720
435.242170 0.9740 0.9750 0.9760 0.9760 0.9760
439.647458 0.9760 0.9780 0.9780 0.9780 0.9780
444.052747 0.9790 0.9790 0.9790 0.9790 0.9790
448.458035 0.9790 0.9790 0.9790 0.9790 0.9790
452.863323 0.9790 0.9780 0.9780 0.9780 0.9760
457.268611 0.9760 0.9750 0.9750 0.9740 0.9710
461.673899 0.9710 0.9680 0.9650 0.9640 0.9610
466.079188 0.9600 0.9570 0.9570 0.9540 0.9520
470.484476 0.9480 0.9460 0.9450 0.9430 0.9420
474.889764 0.9410 0.9390 0.9380 0.9380 0.9380
479.295052 0.9370 0.9370 0.9370 0.9370 0.9370
483.700340 0.9380 0.9380 0.9380 0.9390 0.9390
488.105629 0.9410 0.9410 0.9420 0.9420 0.9420
492.510917 0.9430 0.9430 0.9430 0.9430 0.9450
496.916205 0.9450 0.9450 0.9450 0.9450 0.9450
501.321493 0.9450 0.9450 0.9450 0.9450 0.9450
505.726781 0.9450 0.9450 0.9430 0.9430 0.9430
510.132070 0.9420 0.9420 0.9410 0.9410 0.9390
514.537358 0.9390 0.9380 0.9370 0.9370 0.9350
518.942646 0.9340 0.9310 0.9310 0.9300 0.9300
523.347934 0.9280 0.9280 0.9270 0.9240 0.9240
527.753222 0.9230 0.9230 0.9220 0.9200 0.9170
532.158511 0.9170 0.9170 0.9170 0.9170 0.9160
536.563799 0.9160 0.9160 0.9150 0.9150 0.9150
540.969087 0.9150 0.9130 0.9130 0.9130 0.9120
545.374375 0.9120 0.9120 0.9120 0.9120 0.9120
549.779663 0.9120 0.9120 0.9110 0.9110 0.9110
554.184952 0.9090 0.9060 0.9040 0.9020 0.9010
558.590240 0.9010 0.9010 0.9010 0.9020 0.9040
562.995528 0.9060 0.9120 0.9150 0.9170 0.9220
567.400816 0.9240 0.9240 0.9240 0.9240 0.9240
571.806104 0.9220 0.9190 0.9160 0.9150 0.9120
576.211393 0.9090 0.9060 0.9060 0.9080 0.9110
580.616681 0.9120 0.9130 0.9150 0.9190 0.9220
585.021969 0.9270 0.9320 0.9350 0.9370 0.9390
589.427257 0.9420 0.9420 0.9420 0.9420 0.9410
593.832545 0.9410 0.9410 0.9390 0.9390 0.9390
598.237834 0.9380 0.9380 0.9380 0.9380 0.9390
602.643122 0.9410 0.9410 0.9420 0.9430 0.9450
607.048410 0.9450 0.9460 0.9460 0.9450 0.9450
611.453698 0.9450 0.9430 0.9420 0.9420 0.9390
615.858986 0.9390 0.9370 0.9370 0.9340 0.9320
620.264275 0.9320 0.9280 0.9260 0.9240 0.9230
624.669563 0.9220 0.9220 0.9200 0.9190 0.9170
629.074851 0.9160 0.9150 0.9120 0.9120 0.9110
633.480139 0.9110 0.9090 0.9080 0.9080 0.9060
637.885427 0.9050 0.9050 0.9040 0.9010 0.9000
642.290716 0.8980 0.8970 0.8960 0.8940 0.8910
646.696004 0.8890 0.8870 0.8860 0.8850 0.8830
651.101292 0.8820 0.8820 0.8820 0.8850 0.8900
655.506580 0.8910 0.8930 0.8960 0.8970 0.8980
659.911868 0.9000 0.9010 0.9020 0.9040 0.9050
664.317157 0.9050 0.9060 0.9060 0.9080 0.9080
668.722445 0.9090 0.9090 0.9110 0.9110 0.9120
673.127733 0.9120 0.9120 0.9120 0.9120 0.9120
677.533021 0.9120 0.9110 0.9080 0.9060 0.9040
681.938309 0.9020 0.9000 0.8960 0.8940 0.8910
686.343598 0.8860 0.8820 0.8740 0.8670 0.8630
690.748886 0.8500 0.8191 0.7971 0.7681 0.7332
695.154174 0.7000 0.5920 0.5370 0.4411 0.4141
699.559462 0.2903 0.1764 0.0614 0.0570 0.2680
703.964750 0.4889 0.5779 0.6809 0.7259 0.7559
708.370039 0.7849 0.7970 0.8030 0.8000 0.7980
712.775327 0.7970 0.7940 0.7870 0.7790 0.7770
717.180615 0.7660 0.7451 0.7310 0.7181 0.7011
721.585903 0.6930 0.6920 0.6930 0.6960 0.7070
725.991191 0.7110 0.7190 0.7270 0.7340 0.7420
730.396480 0.7530 0.7630 0.7660 0.7710 0.7780
734.801768 0.7820 0.7830 0.7850 0.7850 0.7850
739.207056 0.7850 0.7830 0.7820 0.7810 0.7790
743.612344 0.7780 0.7770 0.7770 0.7720 0.7700
748.017632 0.7670 0.7630 0.7550 0.7450 0.7340
752.422921 0.7260 0.7220 0.7051 0.6821 0.6551
756.828209 0.6330 0.6160 0.6040 0.5800 0.5341
761.233497 0.4911 0.4910 0.4950 0.5000 0.5358
765.638785 0.5620 0.5970 0.6160 0.6479 0.6879
770.044073 0.7458 0.7719 0.7959 0.8109 0.8180
774.449362 0.8300 0.8340 0.8410 0.8450 0.8490
778.854650 0.8540 0.8590 0.8640 0.8680 0.8700
783.259938 0.8710 0.8710 0.8740 0.8750 0.8780
787.665226 0.8790 0.8800 0.8800 0.8820 0.8820
792.070514 0.8820 0.8830 0.8830 0.8850 0.8850
796.475803 0.8850 0.8850 0.8850 0.8850 0.8850
800.881091 0.8830 0.8820 0.8820 0.8820 0.8820
805.286379 0.8820 0.8820 0.8820 0.8820 0.8820
809.691667 0.8800 0.8820 0.8820 0.8820 0.8820
814.096955 0.8820 0.8820 0.8820 0.8820 0.8800
818.502244 0.8800 0.8800 0.8790 0.8780 0.8780
822.907532 0.8780 0.8760 0.8750 0.8750 0.8740
827.312820 0.8740 0.8720 0.8720 0.8710 0.8680
831.718108 0.8640 0.8610 0.8590 0.8540 0.8520
836.123396 0.8500 0.8450 0.8390 0.8330 0.8270
840.528685 0.8190 0.8130 0.8070 0.7980 0.7940
844.933973 0.7900 0.7810 0.7750 0.7670 0.7600
849.339261 0.7520 0.7400 0.7380 0.7270 0.7250
853.744549 0.7180 0.7140 0.7090 0.7080 0.7070
858.149837 0.7070 0.7080 0.7090 0.7090 0.7110
862.555126 0.7110 0.7120 0.7140 0.7140 0.7150
866.960414 0.7160 0.7160 0.7180 0.7190 0.7190
871.365702 0.7200 0.7200 0.7220 0.7220 0.7230
875.770990 0.7230 0.7250 0.7250 0.7260 0.7260
880.176278 0.7260 0.7260 0.7260 0.7270 0.7270
884.581567 0.7270 0.7270 0.7270 0.7270 0.7270
888.986855 0.7270 0.7260 0.7250 0.7250 0.7230
893.392143 0.7220 0.7200 0.7190 0.7160 0.7150
897.797431 0.7140 0.7110 0.7090 0.7000 0.6860
902.202719 0.6770 0.6770 0.6670 0.6590 0.6580
906.608008 0.6580 0.6580 0.6580 0.6560 0.6560
911.013296 0.6530 0.6520 0.6470 0.6450 0.6440
915.418584 0.6340 0.6320 0.6290 0.6230 0.6160
919.823872 0.6110 0.6040 0.5990 0.5920 0.5890
924.229160 0.5820 0.5780 0.5750 0.5690 0.5640
928.634449 0.5630 0.5590 0.5540 0.5520 0.5510
933.039737 0.5490 0.5490 0.5490 0.5480 0.5480
937.445025 0.5490 0.5490 0.5510 0.5520 0.5580
941.850313 0.5600 0.5630 0.5640 0.5740 0.5770
946.255601 0.5820 0.5890 0.5920 0.6000 0.6060
950.660890 0.6150 0.6210 0.6320 0.6360 0.6450
955.066178 0.6520 0.6620 0.6740 0.6790 0.6850
959.471466 0.6940 0.7070 0.7110 0.7140 0.7230
963.876754 0.7270 0.7400 0.7440 0.7490 0.7590
968.282042 0.7610 0.7680 0.7770 0.7820 0.7900
972.687331 0.7940 0.7960 0.8010 0.8040 0.8080
977.092619 0.8130 0.8160 0.8220 0.8260 0.8300
981.497907 0.8330 0.8350 0.8370 0.8410 0.8440
985.903195 0.8460 0.8500 0.8520 0.8530 0.8560
990.308483 0.8590 0.8600 0.8610 0.8630 0.8640
994.713772 0.8640 0.8650 0.8670 0.8670 0.8700
999.119060 0.8710 0.8720 0.8720 0.8720 0.8720
1003.524348 0.8720 0.8740 0.8740 0.8740 0.8740
1007.929636 0.8740 0.8720 0.8720 0.8720 0.8720
1012.334924 0.8740 0.8740 0.8740 0.8720 0.8720
1016.740213 0.8720 0.8710 0.8710 0.8700 0.8670
1021.145501 0.8640 0.8610 0.8590 0.8530 0.8500
1025.550789 0.8390 0.8310 0.8151 0.7941 0.7900
1029.956077 0.7890 0.7920 0.8160 0.8310 0.8410
1034.361365 0.8540 0.8640 0.8720 0.8750 0.8760
1038.766654 0.8790 0.8790 0.8800 0.8800 0.8800
1043.171942 0.8790 0.8790 0.8790 0.8790 0.8780
1047.577230 0.8780 0.8760 0.8760 0.8750 0.8740
1051.982518 0.8720 0.8720 0.8710 0.8710 0.8700
1056.387806 0.8650 0.8640 0.8610 0.8600 0.8540
1060.793095 0.8520 0.8480 0.8420 0.8380 0.8340
1065.198383 0.8270 0.8220 0.8160 0.8150 0.8150
1069.603671 0.8130 0.8130 0.8150 0.8190 0.8230
1074.008959 0.8240 0.8270 0.8330 0.8340 0.8370
1078.414247 0.8390 0.8420 0.8440 0.8450 0.8450
1082.819536 0.8450 0.8450 0.8450 0.8450 0.8450
1087.224824 0.8450 0.8450 0.8450 0.8440 0.8440
1091.630112 0.8440 0.8440 0.8420 0.8420 0.8410
1096.035400 0.8410 0.8410 0.8410 0.8390 0.8390
1100.440688 0.8380 0.8380 0.8370 0.8350 0.8340
1104.845977 0.8330 0.8310 0.8290 0.8260 0.8240
1109.251265 0.8220 0.8190 0.8160 0.8160 0.8160
1113.656553 0.8160 0.8160 0.8160 0.8160 0.8180
1118.061841 0.8190 0.8200 0.8230 0.8240 0.8270
1122.467129 0.8330 0.8350 0.8390 0.8450 0.8500
1126.872418 0.8520 0.8540 0.8560 0.8590 0.8600
1131.277706 0.8600 0.8590 0.8570 0.8560 0.8540
1135.682994 0.8540 0.8530 0.8520 0.8520 0.8520
1140.088282 0.8500 0.8480 0.8480 0.8460 0.8450
1144.493570 0.8450 0.8440 0.8420 0.8410 0.8380
1148.898859 0.8380 0.8350 0.8340 0.8310 0.8270
1153.304147 0.8260 0.8240 0.8240 0.8240 0.8240
1157.709435 0.8260 0.8260 0.8270 0.8270 0.8290
1162.114723 0.8290 0.8290 0.8290 0.8290 0.8270
1166.520011 0.8260 0.8230 0.8190 0.8160 0.8130
1170.925300 0.8090 0.8080 0.8050 0.8040 0.8010
1175.330588 0.7970 0.7960 0.7940 0.7900 0.7860
1179.735876 0.7820 0.7790 0.7770 0.7740 0.7740
1184.141164 0.7740 0.7740 0.7720 0.7720 0.7700
1188.546452 0.7680 0.7660 0.7630 0.7590 0.7570
1192.951741 0.7530 0.7490 0.7450 0.7420 0.7400
1197.357029 0.7340 0.7300 0.7260 0.7220 0.7180
1201.762317 0.7110 0.7080 0.7030 0.6970 0.6920
1206.167605 0.6850 0.6790 0.6750 0.6680 0.6640
1210.572893 0.6620 0.6520 0.6480 0.6450 0.6380
1214.978182 0.6330 0.6320 0.6250 0.6180 0.6160
1219.383470 0.6160 0.6110 0.6040 0.6010 0.5970
1223.788758 0.5950 0.5920 0.5890 0.5850 0.5810
1228.194046 0.5750 0.5700 0.5670 0.5640 0.5600
1232.599334 0.5550 0.5510 0.5490 0.5490 0.5480
1237.004623 0.5480 0.5480 0.5480 0.5480 0.5480
1241.409911 0.5480 0.5490 0.5490 0.5490 0.5510
1245.815199 0.5520 0.5550 0.5560 0.5620 0.5630
1250.220487 0.5630 0.5640 0.5660 0.5670 0.5670
1254.625775 0.5660 0.5660 0.5660 0.5640 0.5640
1259.031064 0.5630 0.5630 0.5600 0.5590 0.5580
1263.436352 0.5550 0.5520 0.5490 0.5490 0.5440
1267.841640 0.5410 0.5370 0.5370 0.5320 0.5250
1272.246928 0.5210 0.5140 0.5120 0.5040 0.5020
1276.652216 0.4920 0.4890 0.4810 0.4780 0.4710
1281.057505 0.4590 0.4480 0.4470 0.4390 0.4370
1285.462793 0.4370 0.4370 0.4370 0.4370 0.4370
1289.868081 0.4390 0.4400 0.4470 0.4510 0.4560
1294.273369 0.4560 0.4590 0.4670 0.4690 0.4730
1298.678657 0.4780 0.4800 0.4850 0.4890 0.4950
1303.083946 0.4970 0.5020 0.5020 0.5030 0.5080
1307.489234 0.5120 0.5180 0.5250 0.5320 0.5370
1311.894522 0.5490 0.5520 0.5620 0.5660 0.5750
1316.299810 0.5810 0.5890 0.5970 0.6030 0.6060
1320.705098 0.6140 0.6190 0.6270 0.6330 0.6450
1325.110387 0.6620 0.6750 0.6969 0.7109 0.7229
1329.515675 0.7350 0.7570 0.7750 0.7790 0.7790
1333.920963 0.7810 0.7820 0.7820 0.7820 0.7830
1338.326251 0.7830 0.7830 0.7850 0.7850 0.7830
1342.731539 0.7850 0.7860 0.7920 0.7960 0.7960
1347.136828 0.8000 0.8030 0.8040 0.8070 0.8080
1351.542116 0.8110 0.8120 0.8130 0.8130 0.8150
1355.947404 0.8160 0.8180 0.8190 0.8190 0.8190
1360.352692 0.8180 0.8160 0.8150 0.8130 0.8120
1364.757980 0.8070 0.8050 0.8010 0.7970 0.7960
1369.163269 0.7960 0.7940 0.7930 0.7860 0.7850
1373.568557 0.7850 0.7830 0.7820 0.7790 0.7770
1377.973845 0.7710 0.7600 0.7550 0.7520 0.7520
1382.379133 0.7530 0.7830 0.8010 0.8300 0.8480
1386.784421 0.8610 0.8710 0.8720 0.8720 0.8720
1391.189710 0.8740 0.8740 0.8720 0.8720 0.8710
1395.594998 0.8700 0.8640 0.8600 0.8530 0.8490
1400.000286 0.8420 0.8340 0.8220 0.8090 0.7940
1404.405574 0.7810 0.7740 0.7610 0.7451 0.7122
1408.810862 0.6820 0.6510 0.6150 0.5182 0.5110
1413.216151 0.5000 0.4890 0.4810 0.4730 0.4621
1417.621439 0.4590 0.4620 0.4730 0.4890 0.5030
1422.026727 0.5220 0.5380 0.5450 0.5580 0.5660
1426.432015 0.5750 0.5810 0.5820 0.5840 0.5840
1430.837303 0.5840 0.5840 0.5840 0.5820 0.5810
1435.242592 0.5800 0.5780 0.5770 0.5740 0.5700
1439.647880 0.5640 0.5580 0.5490 0.5430 0.5410
1444.053168 0.5400 0.5380 0.5370 0.5360 0.5320
1448.458456 0.5290 0.5260 0.5210 0.5150 0.5070
1452.863744 0.5000 0.4920 0.4800 0.4540 0.4141
1457.269033 0.3471 0.3091 0.3090 0.3100 0.3518
1461.674321 0.3720 0.3810 0.3910 0.3910 0.3890
1466.079609 0.3850 0.3770 0.3720 0.3660 0.3570
1470.484897 0.3480 0.3480 0.3480 0.3500 0.3729
1474.890185 0.4328 0.5396 0.6396 0.7296 0.7817
1479.295474 0.8110 0.8230 0.8330 0.8480 0.8530
1483.700762 0.8530 0.8540 0.8530 0.8520 0.8520
1488.106050 0.8500 0.8440 0.8190 0.7960 0.7681
1492.511338 0.7411 0.7141 0.6881 0.6601 0.6331
1496.916626 0.6160 0.6030 0.5750 0.5151 0.5120
1501.321915 0.5140 0.6407 0.8025 0.8040 0.8080
1505.727203 0.8080 0.8080 0.8080 0.8080 0.8070
1510.132491 0.8040 0.7980 0.7920 0.7890 0.7860
1514.537779 0.7830 0.7810 0.7780 0.7740 0.7680
1518.943067 0.7640 0.7600 0.7560 0.7520 0.7480
1523.348356 0.7440 0.7350 0.7310 0.7290 0.7260
1527.753644 0.7220 0.7190 0.7160 0.7140 0.7090
1532.158932 0.7040 0.6970 0.6940 0.6880 0.6770
1536.564220 0.6640 0.6520 0.6410 0.6340 0.6320
1540.969508 0.6160 0.5970 0.5770 0.5580 0.5490
1545.374797 0.5440 0.5410 0.5380 0.5330 0.5300
1549.780085 0.5290 0.5280 0.5250 0.5250 0.5250
1554.185373 0.5260 0.5260 0.5260 0.5290 0.5320
1558.590661 0.5370 0.5380 0.5450 0.5510 0.5620
1562.995949 0.5730 0.5780 0.5900 0.6010 0.6139
1567.401238 0.6230 0.6320 0.6440 0.6450 0.6590
1571.806526 0.6700 0.6770 0.6830 0.6860 0.6900
1576.211814 0.6940 0.6940 0.6940 0.6940 0.6930
1580.617102 0.6930 0.6920 0.6920 0.6900 0.6900
1585.022390 0.6890 0.6890 0.6890 0.6900 0.6900
1589.427679 0.6940 0.7050 0.7110 0.7220 0.7270
1593.832967 0.7290 0.7340 0.7410 0.7440 0.7490
1598.238255 0.7550 0.7570 0.7590 0.7600 0.7600
1602.643543 0.7590 0.7550 0.7490 0.7400 0.7370
1607.048831 0.7380 0.7400 0.7490 0.7669 0.7919
1611.454120 0.8150 0.8390 0.8570 0.8720 0.8830
1615.859408 0.8960 0.9080 0.9150 0.9200 0.9220
1620.264696 0.9230 0.9230 0.9320 0.9350 0.9410
1624.669984 0.9430 0.9450 0.9450 0.9450 0.9460
1629.075272 0.9460 0.9460 0.9480 0.9480 0.9480
1633.480561 0.9480 0.9460 0.9460 0.9430 0.9420
1637.885849 0.9410 0.9370 0.9350 0.9350 0.9340
1642.291137 0.9350 0.9340 0.9340 0.9320 0.9310
1646.696425 0.9270 0.9240 0.9220 0.9170 0.9150
1651.101713 0.9120 0.9110 0.9080 0.9050 0.9000
1655.507002 0.8900 0.8820 0.8820 0.8820 0.8820
1659.912290 0.8820 0.8800 0.8760 0.8740 0.8710
1664.317578 0.8700 0.8610 0.8540 0.8520 0.8480
1668.722866 0.8450 0.8440 0.8370 0.8310 0.8200
1673.128154 0.8130 0.8130 0.8110 0.8040 0.7970
1677.533443 0.7920 0.7770 0.7680 0.7680 0.7630
1681.938731 0.7570 0.7420 0.7300 0.7230 0.7070
1686.344019 0.6810 0.6581 0.6440 0.6340 0.6290
1690.749307 0.6070 0.5860 0.5540 0.5370 0.5140
1695.154595 0.4871 0.4631 0.4321 0.4031 0.3771
1699.559883 0.3480 0.3180 0.2830 0.2320 0.1881
1703.965172 0.1501 0.1191 0.1050 0.0910 0.0671
1708.370460 0.0470 0.0310 0.0170 0.0100 0.0100
1712.775748 0.0100 0.0100 0.0100 0.0100 0.0150
1717.181036 0.0160 0.0190 0.0250 0.0320 0.0420
1721.586324 0.0580 0.1138 0.1568 0.2018 0.2169
1725.991613 0.2500 0.2800 0.3350 0.4039 0.4469
1730.396901 0.4759 0.5059 0.5379 0.5669 0.5929
1734.802189 0.6120 0.6300 0.6450 0.6630 0.6770
1739.207477 0.6850 0.6930 0.7000 0.7080 0.7140
1743.612765 0.7230 0.7250 0.7270 0.7330 0.7420
1748.018054 0.7450 0.7510 0.7560 0.7610 0.7680
1752.423342 0.7750 0.7770 0.7790 0.7860 0.7930
1756.828630 0.7960 0.7960 0.7980 0.8000 0.8030
1761.233918 0.8040 0.8090 0.8160 0.8290 0.8330
1765.639206 0.8370 0.8450 0.8520 0.8560 0.8600
1770.044495 0.8670 0.8720 0.8760 0.8800 0.8830
1774.449783 0.8860 0.8930 0.8940 0.9010 0.9040
1778.855071 0.9060 0.9110 0.9120 0.9150 0.9170
1783.260359 0.9190 0.9190 0.9190 0.9190 0.9190
1787.665647 0.9190 0.9190 0.9170 0.9170 0.9150
1792.070936 0.9130 0.9120 0.9110 0.9090 0.9080
1796.476224 0.9060 0.9050 0.9040 0.9020 0.9020
1800.881512 0.9020 0.9040 0.9080 0.9080 0.9110
1805.286800 0.9120 0.9150 0.9170 0.9200 0.9220
1809.692088 0.9240 0.9240 0.9270 0.9300 0.9310
1814.097377 0.9320 0.9320 0.9320 0.9320 0.9340
1818.502665 0.9340 0.9340 0.9350 0.9370 0.9370
1822.907953 0.9390 0.9410 0.9410 0.9420 0.9420
1827.313241 0.9430 0.9450 0.9450 0.9460 0.9460
1831.718529 0.9480 0.9500 0.9520 0.9520 0.9520
1836.123818 0.9530 0.9540 0.9540 0.9530 0.9540
1840.529106 0.9540 0.9540 0.9540 0.9560 0.9560
1844.934394 0.9560 0.9560 0.9560 0.9560 0.9560
1849.339682 0.9560 0.9560 0.9560 0.9560 0.9560
1853.744970 0.9560 0.9560 0.9540 0.9540 0.9530
1858.150259 0.9530 0.9520 0.9500 0.9490 0.9490
1862.555547 0.9460 0.9430 0.9430 0.9420 0.9420
1866.960835 0.9420 0.9410 0.9410 0.9410 0.9410
1871.366123 0.9430 0.9460 0.9490 0.9500 0.9560
1875.771411 0.9570 0.9580 0.9600 0.9600 0.9600
1880.176700 0.9600 0.9600 0.9600 0.9600 0.9610
1884.581988 0.9610 0.9610 0.9610 0.9630 0.9630
1888.987276 0.9640 0.9650 0.9670 0.9680 0.9690
1893.392564 0.9710 0.9740 0.9750 0.9780 0.9790
1897.797852 0.9790 0.9790 0.9800 0.9800 0.9800
1902.203141 0.9800 0.9820 0.9820 0.9820 0.9820
1906.608429 0.9820 0.9820 0.9820 0.9820 0.9820
1911.013717 0.9820 0.9820 0.9820 0.9820 0.9820
1915.419005 0.9820 0.9820 0.9820 0.9820 0.9820
1919.824293 0.9820 0.9820 0.9820 0.9830 0.9820
1924.229582 0.9820 0.9820 0.9820 0.9820 0.9820
1928.634870 0.9820 0.9820 0.9820 0.9820 0.9800
1933.040158 0.9790 0.9790 0.9790 0.9750 0.9740
1937.445446 0.9710 0.9680 0.9650 0.9630 0.9580
1941.850734 0.9540 0.9520 0.9500 0.9500 0.9500
1946.256023 0.9530 0.9570 0.9610 0.9650 0.9710
1950.661311 0.9740 0.9750 0.9750 0.9760 0.9760
1955.066599 0.9780 0.9780 0.9780 0.9780 0.9790
1959.471887 0.9790 0.9800 0.9820 0.9820 0.9830
1963.877175 0.9840 0.9840 0.9860 0.9860 0.9860
1968.282464 0.9860 0.9860 0.9860 0.9860 0.9860
1972.687752 0.9860 0.9860 0.9860 0.9860 0.9860
1977.093040 0.9860 0.9860 0.9860 0.9860 0.9860
1981.498328 0.9860 0.9860 0.9860 0.9840 0.9840
1985.903616 0.9840 0.9840 0.9840 0.9840 0.9830
1990.308905 0.9830 0.9830 0.9830 0.9830 0.9820
1994.714193 0.9800 0.9800 0.9790 0.9790 0.9780
1999.119481 0.9679 0.8650 0.8640 0.8630 0.8635
2003.524769 0.8643 0.8938 0.9233 0.9474 0.9710
2007.930057 0.9725 0.9740 0.9745 0.9750 0.9750
2012.335346 0.9750 0.9750 0.9750 0.9750 0.9750
2016.740634 0.9750 0.9750 0.9750 0.9750 0.9745
2021.145922 0.9740 0.9740 0.9740 0.9740 0.9740
2025.551210 0.9740 0.9740 0.9740 0.9740 0.9740
2029.956498 0.9740 0.9740 0.9739 0.9729 0.9720
2034.361787 0.9720 0.9720 0.9720 0.9719 0.9714
2038.767075 0.9709 0.9699 0.9690 0.9690 0.9690
2043.172363 0.9690 0.9691 0.9701 0.9711 0.9716
2047.577651 0.9722 0.9732 0.9741 0.9746 0.9751
2051.982939 0.9756 0.9760 0.9760 0.9760 0.9760
2056.388228 0.9762 0.9772 0.9780 0.9780 0.9780
2060.793516 0.9780 0.9780 0.9780 0.9781 0.9786
2065.198804 0.9790 0.9790 0.9790 0.9790 0.9790
2069.604092 0.9790 0.9790 0.9790 0.9790 0.9790
2074.009380 0.9790 0.9790 0.9790 0.9790 0.9790
2078.414669 0.9790 0.9790 0.9790 0.9790 0.9790
2082.819957 0.9790 0.9790 0.9790 0.9790 0.9790
2087.225245 0.9790 0.9790 0.9790 0.9790 0.9790
2091.630533 0.9790 0.9790 0.9790 0.9790 0.9790
2096.035821 0.9790 0.9790 0.9790 0.9790 0.9790
2100.441110 0.9790 0.9790 0.9790 0.9790 0.9790
2104.846398 0.9790 0.9790 0.9790 0.9790 0.9790
2109.251686 0.9788 0.9783 0.9780 0.9780 0.9780
2113.656974 0.9780 0.9780 0.9780 0.9780 0.9780
2118.062262 0.9780 0.9780 0.9780 0.9780 0.9780
2122.467551 0.9780 0.9780 0.9780 0.9780 0.9780
2126.872839 0.9780 0.9780 0.9780 0.9780 0.9780
2131.278127 0.9780 0.9775 0.9765 0.9760 0.9760
2135.683415 0.9760 0.9760 0.9758 0.9753 0.9750
2140.088703 0.9750 0.9750 0.9750 0.9747 0.9742
2144.493992 0.9740 0.9740 0.9735 0.9725 0.9717
2148.899280 0.9712 0.9710 0.9710 0.9710 0.9710
2153.304568 0.9710 0.9710 0.9710 0.9710 0.9710
2157.709856 0.9710 0.9704 0.9694 0.9690 0.9690
2162.115144 0.9690 0.9690 0.9690 0.9690 0.9687
2166.520433 0.9682 0.9680 0.9680 0.9680 0.9680
2170.925721 0.9680 0.9680 0.9680 0.9680 0.9680
2175.331009 0.9680 0.9677 0.9672 0.9670 0.9670
2179.736297 0.9670 0.9670 0.9670 0.9670 0.9664
2184.141585 0.9654 0.9650 0.9650 0.9650 0.9650
2188.546874 0.9650 0.9650 0.9650 0.9650 0.9650
2192.952162 0.9650 0.9647 0.9642 0.9640 0.9640
2197.357450 0.9640 0.9640 0.9640 0.9640 0.9640
2201.762738 0.9640 0.9640 0.9640 0.9636 0.9631
2206.168026 0.9630 0.9630 0.9630 0.9630 0.9630
2210.573315 0.9630 0.9630 0.9630 0.9622 0.9612
2214.978603 0.9610 0.9610 0.9610 0.9610 0.9610
2219.383891 0.9610 0.9610 0.9610 0.9610 0.9610
2223.789179 0.9606 0.9601 0.9600 0.9600 0.9600
2228.194467 0.9600 0.9600 0.9600 0.9600 0.9600
2232.599756 0.9592 0.9582 0.9580 0.9580 0.9576
2237.005044 0.9571 0.9570 0.9570 0.9566 0.9561
2241.410332 0.9560 0.9560 0.9551 0.9541 0.9540
2245.815620 0.9540 0.9536 0.9531 0.9526 0.9521
2250.220908 0.9520 0.9520 0.9511 0.9501 0.9500
2254.626197 0.9500 0.9495 0.9490 0.9490 0.9490
2259.031485 0.9485 0.9480 0.9480 0.9480 0.9471
2263.436773 0.9461 0.9455 0.9450 0.9441 0.9430
2267.842061 0.9425 0.9420 0.9415 0.9410 0.9400
2272.247349 0.9390 0.9385 0.9380 0.9375 0.9370
2276.652638 0.9360 0.9350 0.9335 0.9320 0.9320
2281.057926 0.9320 0.9315 0.9310 0.9305 0.9300
2285.463214 0.9300 0.9300 0.9290 0.9280 0.9270
2289.868502 0.9260 0.9260 0.9260 0.9250 0.9240
2294.273790 0.9240 0.9240 0.9235 0.9230 0.9225
2298.679079 0.9220 0.9220 0.9220 0.9220 0.9220
2303.084367 0.9220 0.9220 0.9220 0.9219 0.9209
2307.489655 0.9200 0.9200 0.9200 0.9200 0.9200
2311.894943 0.9195 0.9190 0.9190 0.9190 0.9190
2316.300231 0.9190 0.9190 0.9190 0.9190 0.9190
2320.705520 0.9190 0.9190 0.9190 0.9190 0.9190
2325.110808 0.9188 0.9178 0.9170 0.9170 0.9170
2329.516096 0.9170 0.9170 0.9170 0.9170 0.9170
2333.921384 0.9170 0.9170 0.9170 0.9170 0.9170
2338.326672 0.9170 0.9170 0.9170 0.9170 0.9170
2342.731961 0.9170 0.9170 0.9170 0.9170 0.9170
2347.137249 0.9170 0.9170 0.9170 0.9170 0.9170
2351.542537 0.9170 0.9170 0.9169 0.9164 0.9160
2355.947825 0.9160 0.9160 0.9160 0.9160 0.9160
2360.353113 0.9160 0.9160 0.9160 0.9160 0.9160
2364.758402 0.9160 0.9160 0.9160 0.9160 0.9160
2369.163690 0.9160 0.9160 0.9158 0.9153 0.9150
2373.568978 0.9150 0.9150 0.9150 0.9150 0.9150
2377.974266 0.9150 0.9150 0.9150 0.9150 0.9150
2382.379554 0.9150 0.9150 0.9150 0.9146 0.9136
2386.784843 0.9130 0.9130 0.9130 0.9130 0.9130
2391.190131 0.9130 0.9130 0.9130 0.9128 0.9123
2395.595419 0.9120 0.9120 0.9120 0.9120 0.9118
2400.000707 0.9113 0.9110 0.9110 0.9106 0.9096
2404.405995 0.9090 0.9090 0.9090 0.9090 0.9088
2408.811284 0.9083 0.9075 0.9065 0.9060 0.9060
2413.216572 0.9058 0.9053 0.9050 0.9050 0.9048
2417.621860 0.9043 0.9040 0.9040 0.9035 0.9025
2422.027148 0.9020 0.9020 0.9017 0.9012 0.9010
2426.432436 0.9010 0.9007 0.9002 0.8995 0.8985
2430.837725 0.8980 0.8980 0.8975 0.8965 0.8960
2435.243013 0.8960 0.8955 0.8945 0.8940 0.8940
2439.648301 0.8937 0.8932 0.8924 0.8914 0.8910
2444.053589 0.8910 0.8907 0.8902 0.8897 0.8892
2448.458877 0.8890 0.8890 0.8884 0.8874 0.8867
2452.864166 0.8862 0.8860 0.8860 0.8857 0.8852
2457.269454 0.8841 0.8825 0.8820 0.8820 0.8814
2461.674742 0.8804 0.8797 0.8792 0.8787 0.8782
2466.080030 0.8773 0.8763 0.8757 0.8752 0.8747
2470.485318 0.8742 0.8733 0.8723 0.8713 0.8703
2474.890607 0.8693 0.8683 0.8677 0.8671 0.8663
2479.295895 0.8653 0.8643 0.8633 0.8623 0.8613
2483.701183 0.8603 0.8593 0.8583 0.8573 0.8566
2488.106471 0.8561 0.8549 0.8534 0.8526 0.8521
2492.511759 0.8509 0.8494 0.8486 0.8481 0.8468
2496.917048 0.8453 0.8446 0.8441 0.8428 0.8413
2501.322336 0.8394 0.8374 0.8358 0.8343 0.8328
2505.727624 0.8313 0.8294 0.8274 0.8266 0.8261
2510.132912 0.8248 0.8233 0.8213 0.8193 0.8173
2514.538200 0.8153 0.8137 0.8122 0.8107 0.8092
2518.943489 0.8086 0.8081 0.8063 0.8043 0.7997
2523.348777 0.7947 0.7936 0.7931 0.7917 0.7902
2527.754065 0.7882 0.7862 0.7847 0.7832 0.7812
2532.159353 0.7792 0.7781 0.7771 0.7747 0.7722
2536.564641 0.7711 0.7701 0.7682 0.7662 0.7646
2540.969930 0.7631 0.7612 0.7592 0.7571 0.7551
2545.375218 0.7541 0.7531 0.7520 0.7510 0.7496
2549.780506 0.7481 0.7470 0.7460 0.7450 0.7440
2554.185794 0.7425 0.7410 0.7391 0.7370 0.7355
2558.591082 0.7340 0.7335 0.7330 0.7315 0.7300
2562.996371 0.7285 0.7270 0.7265 0.7260 0.7245
2567.401659 0.7230 0.7215 0.7200 0.7200 0.7200
2571.806947 0.7190 0.7179 0.7164 0.7149 0.7134
2576.212235 0.7120 0.7120 0.7120 0.7115 0.7110
2580.617523 0.7110 0.7110 0.7110 0.7110 0.7110
2585.022812 0.7110 0.7110 0.7109 0.7099 0.7090
2589.428100 0.7090 0.7090 0.7090 0.7089 0.7084
2593.833388 0.7080 0.7080 0.7079 0.7074 0.7069
2598.238676 0.7059 0.7049 0.7044 0.7038 0.7023
2602.643964 0.7009 0.7004 0.6999 0.6994 0.6988
2607.049253 0.6978 0.6969 0.6964 0.6958 0.6943
2611.454541 0.6929 0.6924 0.6918 0.6908 0.6899
2615.859829 0.6894 0.6889 0.6884 0.6877 0.6862
2620.265117 0.6848 0.6838 0.6829 0.6824 0.6819
2624.670405 0.6814 0.6808 0.6798 0.6788 0.6778
2629.075694 0.6768 0.6758 0.6749 0.6744 0.6735
2633.480982 0.6715 0.6696 0.6681 0.6666 0.6651
2637.886270 0.6639 0.6634 0.6629 0.6624 0.6616
2642.291558 0.6601 0.6586 0.6571 0.6556 0.6541
2646.696846 0.6529 0.6524 0.6518 0.6513 0.6507
2651.102135 0.6497 0.6488 0.6483 0.6475 0.6460
2655.507423 0.6448 0.6443 0.6435 0.6420 0.6403
2659.912711 0.6383 0.6368 0.6363 0.6355 0.6340
2664.317999 0.6328 0.6323 0.6316 0.6306 0.6300
2668.723287 0.6300 0.6298 0.6293 0.6290 0.6290
2673.128576 0.6290 0.6290 0.6290 0.6290 0.6292
2677.533864 0.6297 0.6300 0.6300 0.6300 0.6300
2681.939152 0.6300 0.6300 0.6304 0.6314 0.6320
2686.344440 0.6320 0.6322 0.6327 0.6330 0.6330
2690.749728 0.6337 0.6352 0.6369 0.6389 0.6416
2695.155017 0.6452 0.6475 0.6485 0.6500 0.6520
2699.560305 0.6547 0.6582 0.6605 0.6615 0.6620
2703.965593 0.6620 0.6620 0.6620 0.6620 0.6620
2708.370881 0.6620 0.6620 0.6620 0.6620 0.6620
2712.776169 0.6620 0.6620 0.6620 0.6620 0.6620
2717.181458 0.6620 0.6620 0.6614 0.6604 0.6600
2721.586746 0.6600 0.6600 0.6600 0.6600 0.6600
2725.992034 0.6597 0.6592 0.6590 0.6590 0.6587
2730.397322 0.6582 0.6580 0.6580 0.6580 0.6580
2734.802610 0.6574 0.6564 0.6557 0.6552 0.6550
2739.207899 0.6550 0.6550 0.6550 0.6550 0.6550
2743.613187 0.6550 0.6550 0.6550 0.6550 0.6550
2748.018475 0.6550 0.6550 0.6550 0.6550 0.6550
2752.423763 0.6550 0.6550 0.6550 0.6550 0.6550
2756.829051 0.6550 0.6543 0.6533 0.6530 0.6530
2761.234340 0.6526 0.6521 0.6516 0.6511 0.6510
2765.639628 0.6510 0.6499 0.6484 0.6480 0.6480
2770.044916 0.6480 0.6480 0.6476 0.6471 0.6470
2774.450204 0.6470 0.6462 0.6452 0.6446 0.6441
2778.855492 0.6432 0.6422 0.6412 0.6402 0.6392
2783.260781 0.6382 0.6376 0.6371 0.6358 0.6343
2787.666069 0.6332 0.6322 0.6312 0.6302 0.6283
2792.071357 0.6263 0.6239 0.6214 0.6189 0.6164
2796.476645 0.6143 0.6123 0.6112 0.6102 0.6083
2800.881933 0.6063 0.6034 0.6004 0.5979 0.5954
2805.287222 0.5920 0.5885 0.5845 0.5805 0.5787
2809.692510 0.5772 0.5739 0.5704 0.5669 0.5634
2814.097798 0.5576 0.5516 0.5474 0.5434 0.5403
2818.503086 0.5373 0.5370 0.5370 0.5347 0.5322
2822.908374 0.5255 0.5185 0.5152 0.5122 0.5077
2827.313663 0.5032 0.5025 0.5020 0.4991 0.4961
2831.718951 0.4907 0.4852 0.4792 0.4732 0.4672
2836.124239 0.4611 0.4542 0.4471 0.4411 0.4351
2840.529527 0.4168 0.3982 0.3895 0.3809 0.3719
2844.934815 0.3629 0.3549 0.3468 0.3378 0.3280
2849.340104 0.2869 0.2453 0.1872 0.1306 0.1196
2853.745392 0.1086 0.0970 0.0849 0.0588 0.0339
2858.150680 0.0324 0.0310 0.0305 0.0299 0.0289
2862.555968 0.0280 0.0280 0.0281 0.0291 0.0302
2866.961256 0.0322 0.0342 0.0367 0.0399 0.0489
2871.366545 0.0604 0.0945 0.1251 0.1261 0.1278
2875.771833 0.1353 0.1423 0.1448 0.1471 0.1481
2880.177121 0.1491 0.1501 0.1512 0.1527 0.1574
2884.582409 0.1800 0.1993 0.2013 0.2030 0.2030
2888.987697 0.2030 0.2030 0.2030 0.2030 0.2013
2893.392986 0.1912 0.1811 0.1705 0.1605 0.1530
2897.798274 0.1458 0.1398 0.1339 0.1289 0.1238
2902.203562 0.1183 0.1126 0.1061 0.1001 0.0961
2906.608850 0.0919 0.0869 0.0822 0.0787 0.0755
2911.014138 0.0735 0.0707 0.0651 0.0595 0.0540
2915.419427 0.0488 0.0443 0.0398 0.0353 0.0308
2919.824715 0.0262 0.0220 0.0185 0.0156 0.0141
2924.230003 0.0130 0.0130 0.0129 0.0124 0.0117
2928.635291 0.0107 0.0100 0.0100 0.0100 0.0100
2933.040579 0.0100 0.0100 0.0100 0.0100 0.0100
2937.445868 0.0100 0.0100 0.0100 0.0100 0.0100
2941.851156 0.0105 0.0120 0.0134 0.0144 0.0154
2946.256444 0.0164 0.0176 0.0191 0.0208 0.0228
2950.661732 0.0260 0.0310 0.0354 0.0389 0.0436
2955.067020 0.0501 0.0585 0.0695 0.0762 0.0767
2959.472309 0.0780 0.0805 0.0824 0.0834 0.0846
2963.877597 0.0861 0.0876 0.0892 0.0907 0.0922
2968.282885 0.0935 0.0945 0.0959 0.0979 0.1067
2972.688173 0.1232 0.1381 0.1511 0.1625 0.1720
2977.093461 0.1827 0.1948 0.2066 0.2181 0.2289
2981.498750 0.2389 0.2490 0.2591 0.2692 0.2792
2985.904038 0.2887 0.2977 0.3051 0.3112 0.3180
2990.309326 0.3255 0.3319 0.3374 0.3446 0.3531
2994.714614 0.3602 0.3663 0.3720 0.3775 0.3811
2999.119902 0.3831 0.3854 0.3879 0.3916 0.3961
3003.525191 0.3986 0.3996 0.4000 0.4000 0.4006
3007.930479 0.4016 0.4020 0.4020 0.4020 0.4020
3012.335767 0.4020 0.4020 0.4020 0.4020 0.4020
3016.741055 0.4020 0.4014 0.4004 0.4000 0.4000
3021.146343 0.3994 0.3984 0.3944 0.3889 0.3834
3025.551632 0.3779 0.3747 0.3727 0.3677 0.3612
3029.956920 0.3523 0.3423 0.3296 0.3156 0.3046
3034.362208 0.2951 0.2913 0.2903 0.2904 0.2909
3038.767496 0.2938 0.2978 0.3015 0.3050 0.3178
3043.172784 0.3344 0.3538 0.3743 0.3833 0.3878
3047.578073 0.3937 0.4003 0.4046 0.4081 0.4094
3051.983361 0.4099 0.4100 0.4100 0.4096 0.4091
3056.388649 0.4090 0.4090 0.4082 0.4072 0.4058
3060.793937 0.4043 0.4024 0.4004 0.3893 0.3758
3065.199225 0.3726 0.3721 0.3724 0.3729 0.3734
3069.604514 0.3739 0.3752 0.3767 0.3820 0.3880
3074.009802 0.3973 0.4074 0.4161 0.4246 0.4260
3078.415090 0.4260 0.4260 0.4260 0.4260 0.4260
3082.820378 0.4243 0.4223 0.4168 0.4108 0.4070
3087.225666 0.4035 0.4026 0.4021 0.4011 0.4001
3091.630955 0.4013 0.4028 0.4147 0.4277 0.4390
3096.036243 0.4500 0.4546 0.4586 0.4617 0.4648
3100.441531 0.4678 0.4708 0.4756 0.4806 0.4824
3104.846819 0.4839 0.4845 0.4850 0.4860 0.4870
3109.252107 0.4875 0.4880 0.4885 0.4890 0.4900
3113.657396 0.4910 0.4934 0.4959 0.4994 0.5029
3118.062684 0.5045 0.5060 0.5085 0.5110 0.5130
3122.467972 0.5150 0.5180 0.5210 0.5235 0.5260
3126.873260 0.5270 0.5280 0.5285 0.5291 0.5316
3131.278548 0.5340 0.5356 0.5371 0.5401 0.5430
3135.683837 0.5440 0.5450 0.5460 0.5471 0.5481
3140.089125 0.5491 0.5506 0.5521 0.5536 0.5553
3144.494413 0.5588 0.5621 0.5631 0.5641 0.5651
3148.899701 0.5662 0.5687 0.5712 0.5732 0.5754
3153.304989 0.5789 0.5822 0.5842 0.5862 0.5877
3157.710278 0.5891 0.5896 0.5902 0.5917 0.5932
3162.115566 0.5947 0.5963 0.5983 0.6003 0.6023
3166.520854 0.6042 0.6052 0.6062 0.6072 0.6083
3170.926142 0.6098 0.6113 0.6134 0.6154 0.6174
3175.331430 0.6194 0.6214 0.6236 0.6266 0.6293
3179.736719 0.6308 0.6321 0.6326 0.6338 0.6373
3184.142007 0.6404 0.6425 0.6441 0.6446 0.6452
3188.547295 0.6462 0.6471 0.6476 0.6485 0.6505
3192.952583 0.6527 0.6558 0.6587 0.6612 0.6630
3197.357871 0.6630 0.6636 0.6656 0.6676 0.6696
3201.763160 0.6716 0.6736 0.6756 0.6776 0.6796
3206.168448 0.6816 0.6834 0.6850 0.6869 0.6899
3210.573736 0.6920 0.6920 0.6927 0.6947 0.6967
3214.979024 0.6987 0.7000 0.7000 0.7005 0.7020
3219.384312 0.7037 0.7057 0.7072 0.7077 0.7087
3223.789601 0.7107 0.7127 0.7147 0.7164 0.7174
3228.194889 0.7184 0.7194 0.7210 0.7235 0.7252
3232.600177 0.7257 0.7266 0.7281 0.7294 0.7304
3237.005465 0.7316 0.7331 0.7352 0.7383 0.7402
3241.410753 0.7407 0.7416 0.7431 0.7451 0.7476
3245.816042 0.7490 0.7490 0.7497 0.7512 0.7529
3250.221330 0.7549 0.7569 0.7589 0.7614 0.7644
3254.626618 0.7665 0.7675 0.7685 0.7695 0.7712
3259.031906 0.7737 0.7755 0.7765 0.7785 0.7815
3263.437194 0.7845 0.7875 0.7898 0.7913 0.7923
3267.842483 0.7928 0.7938 0.7953 0.7965 0.7975
3272.247771 0.7996 0.8026 0.8040 0.8040 0.8051
3276.653059 0.8071 0.8091 0.8111 0.8128 0.8143
3281.058347 0.8161 0.8182 0.8199 0.8214 0.8232
3285.463635 0.8252 0.8272 0.8292 0.8309 0.8324
3289.868924 0.8342 0.8362 0.8376 0.8386 0.8405
3294.274212 0.8430 0.8446 0.8456 0.8469 0.8484
3298.679500 0.8499 0.8515 0.8523 0.8528 0.8540
3303.084788 0.8555 0.8570 0.8585 0.8593 0.8598
3307.490076 0.8610 0.8625 0.8637 0.8647 0.8657
3311.895365 0.8667 0.8680 0.8695 0.8707 0.8717
3316.300653 0.8727 0.8737 0.8747 0.8757 0.8767
3320.705941 0.8777 0.8784 0.8789 0.8794 0.8799
3325.111229 0.8807 0.8817 0.8824 0.8829 0.8837
3329.516517 0.8847 0.8854 0.8859 0.8864 0.8869
3333.921806 0.8878 0.8888 0.8894 0.8899 0.8904
3338.327094 0.8909 0.8918 0.8928 0.8934 0.8939
3342.732382 0.8948 0.8958 0.8964 0.8969 0.8974
3347.137670 0.8979 0.8988 0.8998 0.9004 0.9009
3351.542958 0.9014 0.9019 0.9028 0.9038 0.9044
3355.948247 0.9049 0.9054 0.9059 0.9073 0.9088
3360.353535 0.9103 0.9118 0.9124 0.9129 0.9143
3364.758823 0.9158 0.9173 0.9188 0.9194 0.9199
3369.164111 0.9209 0.9219 0.9224 0.9229 0.9244
3373.569399 0.9259 0.9265 0.9270 0.9275 0.9280
3377.974688 0.9289 0.9299 0.9309 0.9319 0.9329
3382.379976 0.9339 0.9345 0.9350 0.9359 0.9369
3386.785264 0.9379 0.9390 0.9400 0.9410 0.9415
3391.190552 0.9420 0.9425 0.9430 0.9440 0.9450
3395.595840 0.9455 0.9460 0.9470 0.9480 0.9480
3400.001129 0.9480 0.9485 0.9490 0.9495 0.9500
3404.406417 0.9510 0.9520 0.9525 0.9530 0.9535
3408.811705 0.9540 0.9550 0.9560 0.9565 0.9570
3413.216993 0.9575 0.9580 0.9590 0.9600 0.9600
3417.622281 0.9600 0.9605 0.9610 0.9610 0.9610
3422.027570 0.9610 0.9611 0.9621 0.9630 0.9630
3426.432858 0.9630 0.9635 0.9640 0.9640 0.9640
3430.838146 0.9640 0.9641 0.9646 0.9650 0.9650
3435.243434 0.9651 0.9661 0.9670 0.9670 0.9670
3439.648722 0.9670 0.9670 0.9670 0.9671 0.9676
3444.054011 0.9680 0.9680 0.9680 0.9680 0.9681
3448.459299 0.9686 0.9690 0.9690 0.9690 0.9690
3452.864587 0.9692 0.9702 0.9710 0.9710 0.9710
3457.269875 0.9710 0.9710 0.9710 0.9711 0.9716
3461.675163 0.9720 0.9720 0.9720 0.9720 0.9720
3466.080452 0.9720 0.9720 0.9720 0.9720 0.9720
3470.485740 0.9720 0.9720 0.9720 0.9720 0.9720
3474.891028 0.9720 0.9723 0.9733 0.9740 0.9740
3479.296316 0.9740 0.9740 0.9740 0.9740 0.9740
3483.701604 0.9740 0.9740 0.9740 0.9740 0.9740
3488.106893 0.9740 0.9740 0.9740 0.9740 0.9740
3492.512181 0.9740 0.9740 0.9740 0.9740 0.9740
3496.917469 0.9740 0.9740 0.9740 0.9740 0.9740
3501.322757 0.9740 0.9736 0.9726 0.9720 0.9720
3505.728045 0.9720 0.9720 0.9720 0.9720 0.9720
3510.133334 0.9720 0.9718 0.9713 0.9706 0.9696
3514.538622 0.9688 0.9683 0.9678 0.9673 0.9670
3518.943910 0.9670 0.9662 0.9642 0.9624 0.9609
3523.349198 0.9596 0.9586 0.9580 0.9580 0.9578
3527.754486 0.9573 0.9570 0.9570 0.9570 0.9570
3532.159775 0.9568 0.9563 0.9562 0.9567 0.9570
3536.565063 0.9570 0.9572 0.9577 0.9585 0.9595
3540.970351 0.9607 0.9622 0.9635 0.9645 0.9655
3545.375639 0.9665 0.9673 0.9678 0.9691 0.9711
3549.780927 0.9720 0.9720 0.9728 0.9743 0.9758
3554.186216 0.9773 0.9780 0.9780 0.9783 0.9788
3558.591504 0.9790 0.9790 0.9790 0.9790 0.9790
3562.996792 0.9790 0.9790 0.9790 0.9790 0.9790
3567.402080 0.9790 0.9790 0.9790 0.9790 0.9790
3571.807368 0.9790 0.9790 0.9790 0.9787 0.9782
3576.212657 0.9780 0.9780 0.9771 0.9756 0.9737
3580.617945 0.9717 0.9704 0.9693 0.9687 0.9682
3585.023233 0.9690 0.9705 0.9710 0.9710 0.9723
3589.428521 0.9743 0.9753 0.9758 0.9767 0.9777
3593.833809 0.9783 0.9788 0.9790 0.9790 0.9790
3598.239098 0.9790 0.9790 0.9790 0.9790 0.9790
3602.644386 0.9786 0.9781 0.9769 0.9754 0.9750
3607.049674 0.9750 0.9746 0.9741 0.9740 0.9740
3611.454962 0.9740 0.9740 0.9740 0.9740 0.9744
3615.860250 0.9749 0.9750 0.9750 0.9754 0.9759
3620.265539 0.9760 0.9760 0.9768 0.9778 0.9780
3624.670827 0.9780 0.9780 0.9780 0.9780 0.9780
3629.076115 0.9772 0.9762 0.9760 0.9760 0.9760
3633.481403 0.9760 0.9760 0.9760 0.9760 0.9760
3637.886691 0.9760 0.9760 0.9756 0.9751 0.9750
3642.291980 0.9750 0.9750 0.9750 0.9750 0.9750
3646.697268 0.9746 0.9741 0.9740 0.9740 0.9731
3651.102556 0.9721 0.9729 0.9739 0.9745 0.9750
3655.507844 0.9755 0.9760 0.9769 0.9779 0.9780
3659.913132 0.9780 0.9780 0.9780 0.9780 0.9780
3664.318421 0.9780 0.9780 0.9780 0.9780 0.9780
3668.723709 0.9780 0.9770 0.9760 0.9755 0.9750
3673.128997 0.9745 0.9740 0.9730 0.9720 0.9720
3677.534285 0.9720 0.9730 0.9740 0.9745 0.9750
3681.939573 0.9755 0.9760 0.9760 0.9760 0.9770
3686.344862 0.9780 0.9785 0.9790 0.9785 0.9780
3690.750150 0.9780 0.9780 0.9780 0.9780 0.9780
3695.155438 0.9780 0.9780 0.9780 0.9780 0.9780
3699.560726 0.9780 0.9780 0.9780 0.9780 0.9780
3703.966014 0.9780 0.9780 0.9780 0.9780 0.9780
3708.371303 0.9780 0.9780 0.9780 0.9780 0.9780
3712.776591 0.9780 0.9780 0.9780 0.9780 0.9780
3717.181879 0.9780 0.9780 0.9780 0.9780 0.9780
3721.587167 0.9780 0.9780 0.9780 0.9780 0.9780
3725.992455 0.9780 0.9780 0.9780 0.9780 0.9780
3730.397744 0.9780 0.9780 0.9780 0.9780 0.9778
3734.803032 0.9768 0.9760 0.9760 0.9760 0.9760
3739.208320 0.9760 0.9760 0.9759 0.9754 0.9751
3743.613608 0.9756 0.9760 0.9760 0.9760 0.9760
3748.018896 0.9760 0.9760 0.9760 0.9760 0.9760
3752.424185 0.9760 0.9762 0.9773 0.9780 0.9780
3756.829473 0.9781 0.9786 0.9790 0.9790 0.9791
3761.234761 0.9796 0.9800 0.9800 0.9800 0.9800
3765.640049 0.9800 0.9800 0.9800 0.9800 0.9800
3770.045337 0.9800 0.9800 0.9800 0.9800 0.9800
3774.450626 0.9800 0.9800 0.9800 0.9800 0.9800
3778.855914 0.9800 0.9800 0.9800 0.9800 0.9800
3783.261202 0.9800 0.9800 0.9800 0.9800 0.9800
3787.666490 0.9800 0.9800 0.9800 0.9800 0.9800
3792.071778 0.9800 0.9800 0.9800 0.9800 0.9800
3796.477067 0.9800 0.9804 0.9814
##END=
