##TITLE=Piperazine, 1,4-bis(Alpha-methylphenethyl)-, dihydrochloride
##JCAMP-DX=4.24
##DATA TYPE=INFRARED SPECTRUM
##CLASS=COBLENTZ III
##ORIGIN=SMITH KLINE & FRENCH LABS.
##OWNER=Copyright (C) 1987 by the Coblentz Society
Collection (C) 2018 copyright by the U.S. Secretary of Commerce
on behalf of the United States of America. All rights reserved.
##DATE=1957/08/30
##MOLFORM=C22 H32 Cl2 N2
##SOURCE REFERENCE=COBLENTZ NO. 9103
##$NIST ID=B6009103
##$NIST SOURCE=COBLENTZ
##$NIST IMAGE=cob9103
##SPECTROMETER/DATA SYSTEM=PERKIN-ELMER 21 (GRATING)
##INSTRUMENT PARAMETERS=NaCl PRISM
##STATE=SOLID (NUJOL MULL)
$$SPECTRAL CONTAMINATION DUE TO OIL AROUND 2900, 1450, 1380, AND AN UNKNOWN At 1075 CM^-^1
##SAMPLING PROCEDURE=TRANSMISSION
##RESOLUTION=2
##DATA PROCESSING=DIGITIZED BY COBLENTZ SOCIETY (BATCH II) FROM HARD COPY
##XUNITS=1/CM
##YUNITS=TRANSMITTANCE
##XFACTOR=1.0
##YFACTOR=1
##FIRSTX=652
##LASTX=4000
##FIRSTY=0.6635
##MAXX=4000
##MINX=652
##MAXY=0.8691
##MINY=0.0495
##NPOINTS=3349
##XYDATA=(X++(Y..Y))
652.000000 0.6635 0.6577 0.6523 0.6514 0.6603
657.000000 0.6732 0.6854 0.6968 0.7065 0.7136
662.000000 0.7204 0.7270 0.7333 0.7364 0.7395
667.000000 0.7423 0.7451 0.7472 0.7479 0.7487
672.000000 0.7497 0.7526 0.7563 0.7588 0.7604
677.000000 0.7595 0.7598 0.7609 0.7616 0.7620
682.000000 0.7622 0.7627 0.7630 0.7641 0.7652
687.000000 0.7633 0.7587 0.7507 0.7421 0.7316
692.000000 0.7191 0.7044 0.6766 0.6330 0.5815
697.000000 0.5201 0.4771 0.3518 0.2326 0.2182
702.000000 0.2180 0.3046 0.3891 0.4729 0.5132
707.000000 0.6013 0.6514 0.6869 0.7110 0.7271
712.000000 0.7376 0.7447 0.7505 0.7531 0.7544
717.000000 0.7485 0.7479 0.7474 0.7462 0.7451
722.000000 0.7440 0.7429 0.7418 0.7382 0.7332
727.000000 0.7247 0.7141 0.7021 0.6924 0.6918
732.000000 0.6937 0.7078 0.7180 0.7208 0.7202
737.000000 0.7173 0.7118 0.7027 0.6906 0.6735
742.000000 0.6492 0.5967 0.5514 0.4643 0.3753
747.000000 0.2682 0.1854 0.1395 0.1333 0.1461
752.000000 0.1724 0.2436 0.3724 0.4917 0.5497
757.000000 0.6007 0.6285 0.6861 0.7283 0.7506
762.000000 0.7620 0.7701 0.7741 0.7774 0.7829
767.000000 0.7932 0.7944 0.7933 0.7912 0.7901
772.000000 0.7909 0.7967 0.8051 0.8140 0.8207
777.000000 0.8256 0.8284 0.8307 0.8331 0.8356
782.000000 0.8385 0.8416 0.8458 0.8494 0.8524
787.000000 0.8529 0.8524 0.8519 0.8548 0.8589
792.000000 0.8576 0.8569 0.8546 0.8506 0.8474
797.000000 0.8456 0.8453 0.8459 0.8464 0.8434
802.000000 0.8393 0.8349 0.8306 0.8266 0.8229
807.000000 0.8204 0.8179 0.8169 0.8165 0.8161
812.000000 0.8169 0.8196 0.8202 0.8149 0.8016
817.000000 0.7869 0.7729 0.7573 0.7487 0.7495
822.000000 0.7466 0.7808 0.7978 0.8093 0.8157
827.000000 0.8194 0.8217 0.8230 0.8233 0.8235
832.000000 0.8237 0.8245 0.8286 0.8325 0.8341
837.000000 0.8373 0.8335 0.8333 0.8328 0.8313
842.000000 0.8298 0.8270 0.8226 0.8160 0.8086
847.000000 0.8025 0.8026 0.8016 0.8124 0.8216
852.000000 0.8273 0.8325 0.8356 0.8366 0.8369
857.000000 0.8368 0.8365 0.8383 0.8357 0.8351
862.000000 0.8338 0.8297 0.8253 0.8204 0.8154
867.000000 0.8101 0.8048 0.8023 0.8011 0.8044
872.000000 0.8076 0.8110 0.8142 0.8173 0.8211
877.000000 0.8250 0.8286 0.8310 0.8320 0.8313
882.000000 0.8299 0.8276 0.8243 0.8195 0.8147
887.000000 0.8087 0.8023 0.7955 0.7878 0.7825
892.000000 0.7793 0.7748 0.7658 0.7535 0.7412
897.000000 0.7294 0.7178 0.7120 0.7115 0.7177
902.000000 0.7332 0.7518 0.7677 0.7771 0.7781
907.000000 0.7756 0.7721 0.7701 0.7693 0.7687
912.000000 0.7681 0.7671 0.7617 0.7505 0.7382
917.000000 0.7227 0.7080 0.6942 0.6798 0.6652
922.000000 0.6524 0.6426 0.6376 0.6343 0.6259
927.000000 0.6037 0.5848 0.5789 0.5738 0.5652
932.000000 0.5655 0.5676 0.5832 0.6207 0.6589
937.000000 0.6965 0.7302 0.7471 0.7601 0.7707
942.000000 0.7803 0.7869 0.7928 0.7970 0.7989
947.000000 0.8004 0.8018 0.8028 0.8026 0.7993
952.000000 0.8024 0.8021 0.8016 0.8012 0.8008
957.000000 0.8003 0.7999 0.7994 0.7990 0.7985
962.000000 0.7981 0.7977 0.7971 0.7967 0.7935
967.000000 0.7874 0.7813 0.7753 0.7692 0.7644
972.000000 0.7639 0.7623 0.7788 0.7885 0.7954
977.000000 0.7949 0.7936 0.7945 0.8010 0.8065
982.000000 0.8076 0.8075 0.8087 0.8061 0.8050
987.000000 0.8039 0.8024 0.8017 0.8027 0.8036
992.000000 0.8041 0.8032 0.8020 0.8007 0.7990
997.000000 0.7972 0.7952 0.7931 0.7908 0.7874
1002.000000 0.7841 0.7821 0.7801 0.7792 0.7788
1007.000000 0.7783 0.7771 0.7757 0.7708 0.7624
1012.000000 0.7517 0.7272 0.6755 0.6239 0.5725
1017.000000 0.5217 0.5139 0.5164 0.5458 0.5786
1022.000000 0.6114 0.6441 0.6634 0.6719 0.6796
1027.000000 0.6870 0.6923 0.6911 0.6891 0.6892
1032.000000 0.6939 0.7171 0.7378 0.7383 0.7376
1037.000000 0.7310 0.7206 0.7178 0.7188 0.7175
1042.000000 0.7398 0.7635 0.7672 0.7702 0.7715
1047.000000 0.7724 0.7729 0.7756 0.7732 0.7714
1052.000000 0.7677 0.7628 0.7548 0.7424 0.7295
1057.000000 0.7287 0.7287 0.7293 0.7308 0.7329
1062.000000 0.7343 0.7343 0.7264 0.7225 0.7191
1067.000000 0.7184 0.7167 0.7216 0.7250 0.7267
1072.000000 0.7281 0.7292 0.7476 0.8363 0.8691
1077.000000 0.7491 0.7185 0.7118 0.7052 0.7006
1082.000000 0.6990 0.6963 0.6896 0.6764 0.6624
1087.000000 0.6484 0.6346 0.6224 0.6243 0.6373
1092.000000 0.6530 0.6686 0.6798 0.6808 0.6804
1097.000000 0.6784 0.6655 0.6446 0.6236 0.6027
1102.000000 0.5819 0.5611 0.5419 0.5373 0.5381
1107.000000 0.5428 0.5598 0.5798 0.5978 0.6041
1112.000000 0.6084 0.6135 0.6206 0.6304 0.6434
1117.000000 0.6625 0.6847 0.7038 0.7195 0.7261
1122.000000 0.7286 0.7300 0.7292 0.7264 0.7222
1127.000000 0.7193 0.7182 0.7185 0.7196 0.7236
1132.000000 0.7314 0.7401 0.7473 0.7518 0.7545
1137.000000 0.7568 0.7584 0.7600 0.7618 0.7636
1142.000000 0.7653 0.7670 0.7676 0.7675 0.7666
1147.000000 0.7657 0.7645 0.7630 0.7616 0.7603
1152.000000 0.7593 0.7584 0.7579 0.7583 0.7592
1157.000000 0.7608 0.7624 0.7641 0.7662 0.7683
1162.000000 0.7692 0.7688 0.7678 0.7669 0.7664
1167.000000 0.7661 0.7659 0.7662 0.7668 0.7674
1172.000000 0.7680 0.7683 0.7685 0.7687 0.7683
1177.000000 0.7676 0.7668 0.7660 0.7650 0.7647
1182.000000 0.7669 0.7694 0.7722 0.7749 0.7775
1187.000000 0.7800 0.7826 0.7844 0.7859 0.7875
1192.000000 0.7889 0.7898 0.7906 0.7915 0.7919
1197.000000 0.7916 0.7921 0.7911 0.7897 0.7884
1202.000000 0.7866 0.7841 0.7816 0.7792 0.7762
1207.000000 0.7735 0.7728 0.7724 0.7720 0.7715
1212.000000 0.7711 0.7706 0.7696 0.7680 0.7663
1217.000000 0.7644 0.7610 0.7574 0.7536 0.7482
1222.000000 0.7427 0.7364 0.7266 0.7153 0.6964
1227.000000 0.6877 0.6868 0.6864 0.6888 0.6966
1232.000000 0.7090 0.7215 0.7359 0.7487 0.7552
1237.000000 0.7594 0.7612 0.7629 0.7641 0.7649
1242.000000 0.7658 0.7665 0.7667 0.7668 0.7696
1247.000000 0.7670 0.7664 0.7657 0.7651 0.7640
1252.000000 0.7630 0.7621 0.7606 0.7588 0.7569
1257.000000 0.7551 0.7533 0.7510 0.7484 0.7457
1262.000000 0.7430 0.7400 0.7356 0.7310 0.7248
1267.000000 0.7132 0.7017 0.6901 0.6786 0.6671
1272.000000 0.6562 0.6492 0.6454 0.6473 0.6468
1277.000000 0.6532 0.6598 0.6646 0.6638 0.6672
1282.000000 0.6602 0.6544 0.6328 0.5869 0.5405
1287.000000 0.4943 0.4521 0.4526 0.4517 0.4754
1292.000000 0.5024 0.5295 0.5565 0.5834 0.6102
1297.000000 0.6371 0.6639 0.6907 0.7161 0.7205
1302.000000 0.7223 0.7227 0.7258 0.7210 0.7184
1307.000000 0.7145 0.7104 0.7072 0.7042 0.7011
1312.000000 0.6979 0.6937 0.6891 0.6846 0.6784
1317.000000 0.6736 0.6729 0.6726 0.6700 0.6845
1322.000000 0.6947 0.7008 0.7015 0.7016 0.7004
1327.000000 0.6991 0.6971 0.6953 0.6934 0.6912
1332.000000 0.6889 0.6865 0.6843 0.6819 0.6796
1337.000000 0.6773 0.6749 0.6727 0.6703 0.6680
1342.000000 0.6657 0.6633 0.6608 0.6582 0.6556
1347.000000 0.6531 0.6505 0.6473 0.6436 0.6400
1352.000000 0.6364 0.6313 0.6253 0.6193 0.6103
1357.000000 0.5917 0.5724 0.5532 0.5340 0.5148
1362.000000 0.4958 0.4766 0.4712 0.4679 0.4644
1367.000000 0.4614 0.4593 0.4567 0.4429 0.4156
1372.000000 0.3884 0.3612 0.3339 0.3098 0.3055
1377.000000 0.3047 0.3044 0.3050 0.3130 0.3284
1382.000000 0.3439 0.3593 0.3747 0.3900 0.4054
1387.000000 0.4207 0.4360 0.4513 0.4665 0.4818
1392.000000 0.4969 0.5121 0.5273 0.5425 0.5575
1397.000000 0.5727 0.5878 0.5940 0.5942 0.5931
1402.000000 0.5900 0.5862 0.5807 0.5771 0.5753
1407.000000 0.5759 0.5823 0.5967 0.6111 0.6255
1412.000000 0.6399 0.6529 0.6578 0.6605 0.6620
1417.000000 0.6622 0.6623 0.6617 0.6604 0.6583
1422.000000 0.6556 0.6501 0.6433 0.6327 0.6154
1427.000000 0.6031 0.5937 0.5857 0.5778 0.5631
1432.000000 0.5323 0.4937 0.4550 0.4164 0.3780
1437.000000 0.3395 0.3039 0.2844 0.2722 0.2569
1442.000000 0.2271 0.2216 0.2210 0.2209 0.2207
1447.000000 0.2207 0.2204 0.2198 0.2184 0.2157
1452.000000 0.2110 0.2047 0.1973 0.1880 0.1686
1457.000000 0.1571 0.1550 0.1543 0.1543 0.1544
1462.000000 0.1555 0.1576 0.1602 0.1640 0.1704
1467.000000 0.1781 0.1850 0.1908 0.1982 0.2135
1472.000000 0.2560 0.3136 0.3712 0.4265 0.4513
1477.000000 0.4602 0.4645 0.4686 0.4718 0.4748
1482.000000 0.4759 0.4763 0.4783 0.4664 0.4556
1487.000000 0.4448 0.4341 0.4235 0.4234 0.4236
1492.000000 0.4239 0.4245 0.4246 0.4295 0.4446
1497.000000 0.4706 0.4976 0.5246 0.5515 0.5784
1502.000000 0.6053 0.6321 0.6589 0.6856 0.7124
1507.000000 0.7429 0.7499 0.7565 0.7611 0.7638
1512.000000 0.7661 0.7672 0.7668 0.7657 0.7667
1517.000000 0.7628 0.7619 0.7612 0.7607 0.7607
1522.000000 0.7609 0.7612 0.7621 0.7634 0.7647
1527.000000 0.7654 0.7650 0.7645 0.7635 0.7624
1532.000000 0.7612 0.7600 0.7586 0.7571 0.7560
1537.000000 0.7550 0.7541 0.7535 0.7537 0.7544
1542.000000 0.7551 0.7559 0.7569 0.7578 0.7583
1547.000000 0.7582 0.7580 0.7578 0.7576 0.7575
1552.000000 0.7572 0.7570 0.7568 0.7565 0.7563
1557.000000 0.7562 0.7562 0.7561 0.7561 0.7560
1562.000000 0.7564 0.7575 0.7586 0.7595 0.7600
1567.000000 0.7602 0.7605 0.7602 0.7597 0.7592
1572.000000 0.7586 0.7579 0.7571 0.7562 0.7553
1577.000000 0.7541 0.7527 0.7514 0.7501 0.7488
1582.000000 0.7469 0.7443 0.7414 0.7387 0.7364
1587.000000 0.7351 0.7354 0.7364 0.7379 0.7400
1592.000000 0.7426 0.7448 0.7457 0.7450 0.7424
1597.000000 0.7372 0.7267 0.7138 0.7015 0.6891
1602.000000 0.6767 0.6644 0.6559 0.6533 0.6588
1607.000000 0.6729 0.6878 0.7027 0.7176 0.7324
1612.000000 0.7473 0.7620 0.7755 0.7769 0.7778
1617.000000 0.7789 0.7796 0.7799 0.7802 0.7805
1622.000000 0.7809 0.7810 0.7809 0.7807 0.7801
1627.000000 0.7805 0.7802 0.7794 0.7787 0.7780
1632.000000 0.7772 0.7764 0.7755 0.7752 0.7751
1637.000000 0.7751 0.7750 0.7750 0.7754 0.7758
1642.000000 0.7763 0.7767 0.7771 0.7774 0.7777
1647.000000 0.7781 0.7783 0.7782 0.7776 0.7772
1652.000000 0.7766 0.7761 0.7755 0.7748 0.7741
1657.000000 0.7734 0.7726 0.7719 0.7710 0.7700
1662.000000 0.7691 0.7689 0.7690 0.7693 0.7695
1667.000000 0.7697 0.7700 0.7703 0.7705 0.7708
1672.000000 0.7711 0.7714 0.7718 0.7721 0.7725
1677.000000 0.7730 0.7735 0.7742 0.7747 0.7752
1682.000000 0.7758 0.7763 0.7766 0.7768 0.7771
1687.000000 0.7774 0.7776 0.7772 0.7767 0.7762
1692.000000 0.7757 0.7753 0.7747 0.7743 0.7739
1697.000000 0.7734 0.7734 0.7737 0.7740 0.7743
1702.000000 0.7746 0.7750 0.7752 0.7755 0.7757
1707.000000 0.7758 0.7760 0.7762 0.7760 0.7757
1712.000000 0.7754 0.7750 0.7746 0.7739 0.7731
1717.000000 0.7723 0.7715 0.7708 0.7699 0.7692
1722.000000 0.7688 0.7687 0.7686 0.7684 0.7682
1727.000000 0.7681 0.7679 0.7678 0.7677 0.7675
1732.000000 0.7674 0.7673 0.7671 0.7670 0.7669
1737.000000 0.7668 0.7666 0.7665 0.7664 0.7663
1742.000000 0.7662 0.7661 0.7659 0.7658 0.7657
1747.000000 0.7657 0.7655 0.7654 0.7653 0.7651
1752.000000 0.7650 0.7650 0.7648 0.7648 0.7648
1757.000000 0.7650 0.7651 0.7654 0.7656 0.7658
1762.000000 0.7660 0.7661 0.7664 0.7666 0.7669
1767.000000 0.7675 0.7681 0.7687 0.7693 0.7699
1772.000000 0.7706 0.7712 0.7718 0.7722 0.7725
1777.000000 0.7728 0.7730 0.7733 0.7737 0.7739
1782.000000 0.7738 0.7737 0.7735 0.7732 0.7730
1787.000000 0.7727 0.7725 0.7722 0.7719 0.7717
1792.000000 0.7714 0.7711 0.7706 0.7699 0.7692
1797.000000 0.7685 0.7677 0.7670 0.7663 0.7656
1802.000000 0.7649 0.7640 0.7631 0.7623 0.7614
1807.000000 0.7605 0.7596 0.7587 0.7579 0.7570
1812.000000 0.7561 0.7553 0.7544 0.7534 0.7524
1817.000000 0.7515 0.7506 0.7496 0.7487 0.7479
1822.000000 0.7474 0.7471 0.7468 0.7465 0.7463
1827.000000 0.7460 0.7460 0.7464 0.7468 0.7472
1832.000000 0.7476 0.7480 0.7484 0.7488 0.7493
1837.000000 0.7497 0.7501 0.7505 0.7510 0.7517
1842.000000 0.7524 0.7531 0.7538 0.7545 0.7547
1847.000000 0.7548 0.7549 0.7550 0.7551 0.7552
1852.000000 0.7553 0.7554 0.7554 0.7552 0.7549
1857.000000 0.7546 0.7542 0.7539 0.7536 0.7532
1862.000000 0.7528 0.7524 0.7517 0.7511 0.7505
1867.000000 0.7499 0.7492 0.7486 0.7478 0.7465
1872.000000 0.7452 0.7440 0.7427 0.7419 0.7411
1877.000000 0.7405 0.7398 0.7391 0.7386 0.7383
1882.000000 0.7383 0.7384 0.7385 0.7385 0.7386
1887.000000 0.7388 0.7391 0.7394 0.7397 0.7400
1892.000000 0.7404 0.7407 0.7411 0.7416 0.7419
1897.000000 0.7421 0.7421 0.7420 0.7419 0.7419
1902.000000 0.7418 0.7417 0.7417 0.7415 0.7412
1907.000000 0.7409 0.7404 0.7400 0.7395 0.7390
1912.000000 0.7385 0.7380 0.7376 0.7371 0.7366
1917.000000 0.7360 0.7354 0.7349 0.7343 0.7337
1922.000000 0.7329 0.7319 0.7309 0.7298 0.7287
1927.000000 0.7276 0.7265 0.7255 0.7244 0.7233
1932.000000 0.7222 0.7211 0.7200 0.7189 0.7173
1937.000000 0.7157 0.7141 0.7125 0.7108 0.7092
1942.000000 0.7076 0.7060 0.7044 0.7028 0.7014
1947.000000 0.6999 0.6984 0.6969 0.6955 0.6940
1952.000000 0.6928 0.6923 0.6918 0.6913 0.6908
1957.000000 0.6906 0.6906 0.6906 0.6907 0.6909
1962.000000 0.6910 0.6911 0.6913 0.6915 0.6917
1967.000000 0.6921 0.6925 0.6927 0.6927 0.6924
1972.000000 0.6921 0.6919 0.6916 0.6914 0.6910
1977.000000 0.6902 0.6891 0.6880 0.6868 0.6855
1982.000000 0.6843 0.6830 0.6817 0.6804 0.6792
1987.000000 0.6782 0.6774 0.6767 0.6760 0.6754
1992.000000 0.6750 0.6748 0.6747 0.6747 0.6746
1997.000000 0.6744 0.6744 0.6743 0.6743 0.6742
2002.000000 0.6741 0.6741 0.6740 0.6739 0.6739
2007.000000 0.6736 0.6732 0.6724 0.6717 0.6709
2012.000000 0.6702 0.6693 0.6682 0.6670 0.6657
2017.000000 0.6644 0.6631 0.6618 0.6605 0.6592
2022.000000 0.6577 0.6563 0.6549 0.6534 0.6520
2027.000000 0.6506 0.6492 0.6479 0.6466 0.6453
2032.000000 0.6439 0.6426 0.6414 0.6401 0.6387
2037.000000 0.6375 0.6362 0.6349 0.6335 0.6321
2042.000000 0.6304 0.6288 0.6272 0.6256 0.6240
2047.000000 0.6224 0.6208 0.6192 0.6176 0.6160
2052.000000 0.6145 0.6129 0.6111 0.6094 0.6077
2057.000000 0.6060 0.6043 0.6025 0.6008 0.5991
2062.000000 0.5974 0.5956 0.5939 0.5922 0.5905
2067.000000 0.5888 0.5871 0.5854 0.5837 0.5820
2072.000000 0.5803 0.5786 0.5769 0.5752 0.5735
2077.000000 0.5719 0.5702 0.5685 0.5668 0.5652
2082.000000 0.5635 0.5618 0.5601 0.5585 0.5568
2087.000000 0.5551 0.5532 0.5513 0.5494 0.5475
2092.000000 0.5456 0.5437 0.5418 0.5399 0.5380
2097.000000 0.5361 0.5342 0.5323 0.5304 0.5285
2102.000000 0.5266 0.5247 0.5229 0.5210 0.5191
2107.000000 0.5173 0.5154 0.5136 0.5117 0.5099
2112.000000 0.5080 0.5062 0.5043 0.5025 0.5006
2117.000000 0.4988 0.4969 0.4951 0.4933 0.4914
2122.000000 0.4896 0.4878 0.4859 0.4842 0.4824
2127.000000 0.4806 0.4788 0.4770 0.4752 0.4735
2132.000000 0.4717 0.4699 0.4682 0.4664 0.4646
2137.000000 0.4628 0.4611 0.4593 0.4574 0.4554
2142.000000 0.4533 0.4512 0.4491 0.4470 0.4449
2147.000000 0.4428 0.4407 0.4385 0.4365 0.4344
2152.000000 0.4323 0.4302 0.4279 0.4256 0.4228
2157.000000 0.4199 0.4170 0.4142 0.4113 0.4085
2162.000000 0.4056 0.4028 0.4000 0.3972 0.3945
2167.000000 0.3919 0.3895 0.3870 0.3845 0.3820
2172.000000 0.3796 0.3771 0.3746 0.3722 0.3697
2177.000000 0.3667 0.3636 0.3605 0.3574 0.3543
2182.000000 0.3512 0.3481 0.3450 0.3419 0.3384
2187.000000 0.3346 0.3309 0.3272 0.3234 0.3197
2192.000000 0.3160 0.3123 0.3087 0.3051 0.3018
2197.000000 0.2985 0.2953 0.2920 0.2887 0.2853
2202.000000 0.2816 0.2776 0.2730 0.2687 0.2650
2207.000000 0.2622 0.2603 0.2585 0.2566 0.2548
2212.000000 0.2530 0.2511 0.2493 0.2475 0.2456
2217.000000 0.2438 0.2420 0.2404 0.2389 0.2375
2222.000000 0.2362 0.2348 0.2334 0.2321 0.2307
2227.000000 0.2294 0.2281 0.2267 0.2254 0.2240
2232.000000 0.2226 0.2213 0.2199 0.2185 0.2171
2237.000000 0.2156 0.2141 0.2126 0.2111 0.2096
2242.000000 0.2081 0.2066 0.2051 0.2041 0.2032
2247.000000 0.2024 0.2015 0.2006 0.1998 0.1989
2252.000000 0.1981 0.1972 0.1963 0.1955 0.1946
2257.000000 0.1938 0.1929 0.1924 0.1920 0.1916
2262.000000 0.1912 0.1908 0.1904 0.1901 0.1897
2267.000000 0.1893 0.1889 0.1885 0.1881 0.1877
2272.000000 0.1873 0.1870 0.1866 0.1863 0.1862
2277.000000 0.1860 0.1859 0.1857 0.1856 0.1856
2282.000000 0.1854 0.1853 0.1851 0.1850 0.1847
2287.000000 0.1848 0.1848 0.1849 0.1850 0.1852
2292.000000 0.1853 0.1855 0.1856 0.1858 0.1859
2297.000000 0.1862 0.1864 0.1867 0.1871 0.1874
2302.000000 0.1877 0.1881 0.1885 0.1888 0.1892
2307.000000 0.1897 0.1904 0.1911 0.1918 0.1925
2312.000000 0.1932 0.1939 0.1946 0.1953 0.1960
2317.000000 0.1968 0.1975 0.1983 0.1990 0.1998
2322.000000 0.2005 0.2012 0.2020 0.2027 0.2035
2327.000000 0.2043 0.2050 0.2058 0.2065 0.2073
2332.000000 0.2082 0.2090 0.2099 0.2108 0.2116
2337.000000 0.2124 0.2132 0.2141 0.2149 0.2158
2342.000000 0.2166 0.2174 0.2183 0.2191 0.2200
2347.000000 0.2209 0.2218 0.2228 0.2237 0.2247
2352.000000 0.2256 0.2266 0.2275 0.2285 0.2294
2357.000000 0.2303 0.2313 0.2322 0.2332 0.2341
2362.000000 0.2351 0.2360 0.2369 0.2379 0.2388
2367.000000 0.2398 0.2407 0.2416 0.2426 0.2436
2372.000000 0.2445 0.2455 0.2464 0.2473 0.2483
2377.000000 0.2492 0.2503 0.2514 0.2528 0.2542
2382.000000 0.2556 0.2570 0.2587 0.2605 0.2630
2387.000000 0.2664 0.2697 0.2730 0.2763 0.2807
2392.000000 0.2853 0.2960 0.3100 0.3197 0.3217
2397.000000 0.3238 0.3259 0.3280 0.3300 0.3321
2402.000000 0.3339 0.3352 0.3365 0.3376 0.3388
2407.000000 0.3399 0.3410 0.3421 0.3433 0.3444
2412.000000 0.3455 0.3466 0.3477 0.3488 0.3500
2417.000000 0.3511 0.3523 0.3536 0.3549 0.3561
2422.000000 0.3574 0.3586 0.3598 0.3611 0.3623
2427.000000 0.3635 0.3649 0.3663 0.3677 0.3691
2432.000000 0.3705 0.3718 0.3732 0.3745 0.3759
2437.000000 0.3838 0.4037 0.4236 0.4308 0.4377
2442.000000 0.4418 0.4440 0.4462 0.4484 0.4506
2447.000000 0.4529 0.4551 0.4572 0.4593 0.4614
2452.000000 0.4631 0.4648 0.4658 0.4664 0.4670
2457.000000 0.4676 0.4682 0.4688 0.4695 0.4699
2462.000000 0.4700 0.4700 0.4699 0.4698 0.4697
2467.000000 0.4695 0.4693 0.4688 0.4683 0.4678
2472.000000 0.4671 0.4666 0.4662 0.4658 0.4655
2477.000000 0.4652 0.4650 0.4646 0.4643 0.4640
2482.000000 0.4638 0.4637 0.4637 0.4637 0.4638
2487.000000 0.4639 0.4640 0.4641 0.4641 0.4642
2492.000000 0.4642 0.4643 0.4644 0.4644 0.4646
2497.000000 0.4648 0.4649 0.4651 0.4654 0.4655
2502.000000 0.4657 0.4658 0.4660 0.4662 0.4664
2507.000000 0.4666 0.4671 0.4677 0.4683 0.4690
2512.000000 0.4696 0.4702 0.4709 0.4715 0.4722
2517.000000 0.4728 0.4735 0.4743 0.4751 0.4761
2522.000000 0.4771 0.4782 0.4792 0.4802 0.4812
2527.000000 0.4822 0.4832 0.4843 0.4853 0.4865
2532.000000 0.4879 0.4893 0.4909 0.4925 0.4941
2537.000000 0.4956 0.4972 0.5005 0.5039 0.5087
2542.000000 0.5161 0.5236 0.5264 0.5277 0.5289
2547.000000 0.5292 0.5294 0.5297 0.5300 0.5303
2552.000000 0.5307 0.5310 0.5313 0.5317 0.5321
2557.000000 0.5324 0.5328 0.5332 0.5336 0.5340
2562.000000 0.5343 0.5347 0.5351 0.5355 0.5359
2567.000000 0.5363 0.5366 0.5370 0.5376 0.5382
2572.000000 0.5388 0.5397 0.5405 0.5413 0.5422
2577.000000 0.5430 0.5438 0.5446 0.5455 0.5463
2582.000000 0.5471 0.5480 0.5489 0.5499 0.5509
2587.000000 0.5519 0.5530 0.5540 0.5550 0.5560
2592.000000 0.5570 0.5581 0.5591 0.5602 0.5612
2597.000000 0.5622 0.5632 0.5642 0.5651 0.5661
2602.000000 0.5666 0.5666 0.5666 0.5665 0.5664
2607.000000 0.5663 0.5663 0.5662 0.5661 0.5661
2612.000000 0.5661 0.5661 0.5661 0.5661 0.5662
2617.000000 0.5662 0.5663 0.5663 0.5663 0.5664
2622.000000 0.5664 0.5664 0.5665 0.5665 0.5665
2627.000000 0.5666 0.5666 0.5667 0.5670 0.5674
2632.000000 0.5677 0.5680 0.5683 0.5686 0.5689
2637.000000 0.5692 0.5695 0.5699 0.5702 0.5705
2642.000000 0.5708 0.5711 0.5715 0.5718 0.5724
2647.000000 0.5732 0.5741 0.5752 0.5763 0.5775
2652.000000 0.5787 0.5799 0.5810 0.5822 0.5834
2657.000000 0.5849 0.5874 0.5898 0.5923 0.5949
2662.000000 0.5974 0.5999 0.6024 0.6048 0.6071
2667.000000 0.6093 0.6115 0.6137 0.6159 0.6181
2672.000000 0.6202 0.6223 0.6242 0.6255 0.6268
2677.000000 0.6281 0.6294 0.6307 0.6332 0.6325
2682.000000 0.6332 0.6336 0.6336 0.6336 0.6336
2687.000000 0.6336 0.6336 0.6336 0.6336 0.6336
2692.000000 0.6337 0.6337 0.6337 0.6337 0.6337
2697.000000 0.6337 0.6337 0.6337 0.6337 0.6338
2702.000000 0.6339 0.6340 0.6340 0.6341 0.6342
2707.000000 0.6343 0.6344 0.6345 0.6345 0.6346
2712.000000 0.6347 0.6348 0.6349 0.6351 0.6353
2717.000000 0.6356 0.6358 0.6360 0.6363 0.6365
2722.000000 0.6367 0.6369 0.6371 0.6373 0.6376
2727.000000 0.6378 0.6381 0.6383 0.6384 0.6385
2732.000000 0.6386 0.6386 0.6386 0.6386 0.6383
2737.000000 0.6380 0.6376 0.6371 0.6366 0.6361
2742.000000 0.6355 0.6350 0.6345 0.6338 0.6331
2747.000000 0.6323 0.6315 0.6306 0.6297 0.6288
2752.000000 0.6279 0.6270 0.6261 0.6252 0.6244
2757.000000 0.6234 0.6225 0.6215 0.6206 0.6197
2762.000000 0.6187 0.6178 0.6169 0.6160 0.6149
2767.000000 0.6137 0.6124 0.6111 0.6098 0.6084
2772.000000 0.6070 0.6057 0.6043 0.6028 0.6009
2777.000000 0.5989 0.5970 0.5948 0.5927 0.5906
2782.000000 0.5884 0.5863 0.5842 0.5821 0.5801
2787.000000 0.5780 0.5759 0.5739 0.5718 0.5697
2792.000000 0.5677 0.5656 0.5635 0.5615 0.5594
2797.000000 0.5539 0.5459 0.5379 0.5304 0.5236
2802.000000 0.5168 0.5103 0.5044 0.4986 0.4929
2807.000000 0.4883 0.4838 0.4786 0.4258 0.3730
2812.000000 0.3202 0.2620 0.2028 0.1436 0.1225
2817.000000 0.1190 0.1155 0.1120 0.1085 0.1050
2822.000000 0.1015 0.0979 0.0943 0.0907 0.0871
2827.000000 0.0835 0.0799 0.0766 0.0734 0.0701
2832.000000 0.0689 0.0684 0.0679 0.0674 0.0669
2837.000000 0.0664 0.0660 0.0656 0.0653 0.0650
2842.000000 0.0649 0.0648 0.0647 0.0645 0.0644
2847.000000 0.0643 0.0642 0.0641 0.0639 0.0638
2852.000000 0.0637 0.0636 0.0635 0.0633 0.0632
2857.000000 0.0630 0.0627 0.0624 0.0621 0.0618
2862.000000 0.0615 0.0612 0.0609 0.0604 0.0599
2867.000000 0.0594 0.0586 0.0578 0.0570 0.0562
2872.000000 0.0554 0.0547 0.0539 0.0531 0.0523
2877.000000 0.0516 0.0512 0.0509 0.0505 0.0503
2882.000000 0.0500 0.0498 0.0496 0.0496 0.0495
2887.000000 0.0495 0.0495 0.0496 0.0496 0.0497
2892.000000 0.0498 0.0499 0.0500 0.0501 0.0502
2897.000000 0.0503 0.0505 0.0507 0.0509 0.0511
2902.000000 0.0513 0.0515 0.0517 0.0519 0.0521
2907.000000 0.0524 0.0532 0.0540 0.0548 0.0556
2912.000000 0.0564 0.0572 0.0581 0.0590 0.0600
2917.000000 0.0609 0.0619 0.0628 0.0638 0.0649
2922.000000 0.0661 0.0673 0.0686 0.0706 0.0726
2927.000000 0.0746 0.0764 0.0781 0.0797 0.0814
2932.000000 0.0827 0.0841 0.0855 0.0868 0.0882
2937.000000 0.0895 0.0908 0.0922 0.0936 0.0949
2942.000000 0.0962 0.0976 0.0989 0.1006 0.1031
2947.000000 0.1055 0.1080 0.1153 0.1232 0.1311
2952.000000 0.1388 0.1462 0.1536 0.1609 0.1683
2957.000000 0.1756 0.1830 0.1903 0.1977 0.2051
2962.000000 0.2124 0.2197 0.2271 0.2344 0.2417
2967.000000 0.2490 0.2563 0.2637 0.2709 0.2782
2972.000000 0.2855 0.2928 0.3000 0.3073 0.3146
2977.000000 0.3218 0.3291 0.3364 0.3503 0.3827
2982.000000 0.4152 0.4476 0.4617 0.4682 0.4746
2987.000000 0.4805 0.4828 0.4851 0.4874 0.4897
2992.000000 0.4920 0.4943 0.4966 0.4985 0.5004
2997.000000 0.5022 0.5038 0.5051 0.5063 0.5076
3002.000000 0.5088 0.5101 0.5113 0.5126 0.5138
3007.000000 0.5151 0.5163 0.5176 0.5188 0.5200
3012.000000 0.5213 0.5225 0.5238 0.5250 0.5262
3017.000000 0.5274 0.5286 0.5298 0.5310 0.5322
3022.000000 0.5334 0.5346 0.5358 0.5369 0.5381
3027.000000 0.5393 0.5404 0.5416 0.5427 0.5438
3032.000000 0.5448 0.5458 0.5468 0.5478 0.5488
3037.000000 0.5499 0.5509 0.5519 0.5529 0.5539
3042.000000 0.5549 0.5559 0.5570 0.5580 0.5590
3047.000000 0.5599 0.5609 0.5618 0.5623 0.5629
3052.000000 0.5635 0.5640 0.5646 0.5651 0.5656
3057.000000 0.5662 0.5667 0.5673 0.5679 0.5684
3062.000000 0.5689 0.5695 0.5700 0.5706 0.5711
3067.000000 0.5717 0.5722 0.5728 0.5733 0.5738
3072.000000 0.5743 0.5749 0.5754 0.5759 0.5765
3077.000000 0.5770 0.5775 0.5780 0.5783 0.5786
3082.000000 0.5790 0.5793 0.5796 0.5800 0.5803
3087.000000 0.5806 0.5809 0.5813 0.5816 0.5819
3092.000000 0.5822 0.5825 0.5828 0.5829 0.5830
3097.000000 0.5831 0.5832 0.5832 0.5832 0.5832
3102.000000 0.5832 0.5832 0.5832 0.5832 0.5832
3107.000000 0.5832 0.5832 0.5832 0.5832 0.5832
3112.000000 0.5832 0.5832 0.5833 0.5833 0.5833
3117.000000 0.5833 0.5833 0.5833 0.5833 0.5833
3122.000000 0.5832 0.5832 0.5831 0.5831 0.5830
3127.000000 0.5829 0.5829 0.5828 0.5828 0.5828
3132.000000 0.5828 0.5827 0.5827 0.5826 0.5826
3137.000000 0.5825 0.5825 0.5824 0.5824 0.5823
3142.000000 0.5823 0.5823 0.5823 0.5822 0.5822
3147.000000 0.5821 0.5821 0.5820 0.5820 0.5819
3152.000000 0.5819 0.5818 0.5818 0.5817 0.5817
3157.000000 0.5816 0.5815 0.5813 0.5812 0.5814
3162.000000 0.5810 0.5809 0.5808 0.5807 0.5806
3167.000000 0.5804 0.5803 0.5802 0.5801 0.5799
3172.000000 0.5798 0.5797 0.5796 0.5795 0.5793
3177.000000 0.5792 0.5791 0.5790 0.5788 0.5787
3182.000000 0.5786 0.5785 0.5783 0.5782 0.5781
3187.000000 0.5780 0.5778 0.5777 0.5776 0.5775
3192.000000 0.5774 0.5772 0.5771 0.5770 0.5769
3197.000000 0.5767 0.5766 0.5765 0.5765 0.5764
3202.000000 0.5762 0.5761 0.5760 0.5759 0.5757
3207.000000 0.5756 0.5755 0.5754 0.5753 0.5751
3212.000000 0.5750 0.5749 0.5748 0.5747 0.5745
3217.000000 0.5744 0.5743 0.5742 0.5740 0.5739
3222.000000 0.5738 0.5737 0.5736 0.5735 0.5734
3227.000000 0.5733 0.5732 0.5731 0.5729 0.5728
3232.000000 0.5727 0.5726 0.5725 0.5724 0.5723
3237.000000 0.5722 0.5721 0.5720 0.5719 0.5717
3242.000000 0.5716 0.5715 0.5714 0.5713 0.5711
3247.000000 0.5710 0.5709 0.5708 0.5707 0.5705
3252.000000 0.5705 0.5704 0.5703 0.5702 0.5701
3257.000000 0.5699 0.5698 0.5697 0.5696 0.5695
3262.000000 0.5694 0.5692 0.5691 0.5690 0.5689
3267.000000 0.5688 0.5686 0.5686 0.5685 0.5684
3272.000000 0.5683 0.5682 0.5680 0.5679 0.5678
3277.000000 0.5677 0.5675 0.5674 0.5673 0.5671
3282.000000 0.5670 0.5668 0.5667 0.5666 0.5664
3287.000000 0.5663 0.5662 0.5660 0.5659 0.5657
3292.000000 0.5655 0.5654 0.5652 0.5651 0.5649
3297.000000 0.5648 0.5647 0.5645 0.5644 0.5643
3302.000000 0.5641 0.5640 0.5638 0.5637 0.5635
3307.000000 0.5633 0.5632 0.5631 0.5629 0.5628
3312.000000 0.5626 0.5625 0.5624 0.5622 0.5621
3317.000000 0.5619 0.5618 0.5616 0.5615 0.5613
3322.000000 0.5612 0.5610 0.5609 0.5608 0.5606
3327.000000 0.5605 0.5604 0.5602 0.5601 0.5599
3332.000000 0.5598 0.5596 0.5595 0.5593 0.5592
3337.000000 0.5591 0.5589 0.5588 0.5588 0.5587
3342.000000 0.5586 0.5585 0.5584 0.5583 0.5582
3347.000000 0.5581 0.5580 0.5579 0.5579 0.5578
3352.000000 0.5577 0.5576 0.5575 0.5574 0.5573
3357.000000 0.5572 0.5571 0.5571 0.5570 0.5569
3362.000000 0.5568 0.5567 0.5566 0.5565 0.5564
3367.000000 0.5564 0.5563 0.5562 0.5561 0.5560
3372.000000 0.5559 0.5558 0.5557 0.5556 0.5556
3377.000000 0.5555 0.5554 0.5553 0.5552 0.5551
3382.000000 0.5550 0.5549 0.5549 0.5549 0.5548
3387.000000 0.5548 0.5547 0.5547 0.5546 0.5546
3392.000000 0.5546 0.5545 0.5545 0.5544 0.5544
3397.000000 0.5543 0.5543 0.5543 0.5542 0.5542
3402.000000 0.5541 0.5541 0.5541 0.5541 0.5540
3407.000000 0.5540 0.5540 0.5539 0.5539 0.5538
3412.000000 0.5538 0.5537 0.5537 0.5537 0.5536
3417.000000 0.5536 0.5536 0.5536 0.5536 0.5536
3422.000000 0.5536 0.5536 0.5536 0.5537 0.5537
3427.000000 0.5537 0.5537 0.5537 0.5538 0.5538
3432.000000 0.5539 0.5539 0.5539 0.5540 0.5540
3437.000000 0.5540 0.5540 0.5541 0.5541 0.5541
3442.000000 0.5541 0.5541 0.5542 0.5542 0.5542
3447.000000 0.5542 0.5542 0.5543 0.5543 0.5543
3452.000000 0.5543 0.5543 0.5544 0.5544 0.5545
3457.000000 0.5545 0.5546 0.5546 0.5547 0.5547
3462.000000 0.5548 0.5549 0.5550 0.5550 0.5551
3467.000000 0.5552 0.5553 0.5553 0.5554 0.5555
3472.000000 0.5555 0.5556 0.5557 0.5557 0.5558
3477.000000 0.5558 0.5559 0.5560 0.5561 0.5562
3482.000000 0.5563 0.5563 0.5563 0.5564 0.5564
3487.000000 0.5565 0.5565 0.5565 0.5565 0.5565
3492.000000 0.5566 0.5566 0.5566 0.5566 0.5566
3497.000000 0.5565 0.5564 0.5563 0.5562 0.5561
3502.000000 0.5560 0.5559 0.5558 0.5557 0.5556
3507.000000 0.5555 0.5554 0.5553 0.5553 0.5552
3512.000000 0.5551 0.5550 0.5549 0.5548 0.5547
3517.000000 0.5546 0.5545 0.5544 0.5543 0.5542
3522.000000 0.5541 0.5540 0.5539 0.5538 0.5538
3527.000000 0.5536 0.5535 0.5534 0.5533 0.5532
3532.000000 0.5530 0.5528 0.5527 0.5525 0.5524
3537.000000 0.5522 0.5520 0.5519 0.5517 0.5516
3542.000000 0.5514 0.5512 0.5511 0.5509 0.5508
3547.000000 0.5506 0.5504 0.5503 0.5501 0.5500
3552.000000 0.5498 0.5497 0.5495 0.5493 0.5492
3557.000000 0.5490 0.5489 0.5487 0.5485 0.5484
3562.000000 0.5482 0.5481 0.5479 0.5478 0.5476
3567.000000 0.5475 0.5474 0.5472 0.5471 0.5470
3572.000000 0.5469 0.5467 0.5466 0.5465 0.5463
3577.000000 0.5462 0.5461 0.5460 0.5458 0.5457
3582.000000 0.5456 0.5455 0.5454 0.5453 0.5451
3587.000000 0.5450 0.5449 0.5448 0.5447 0.5446
3592.000000 0.5444 0.5443 0.5442 0.5441 0.5440
3597.000000 0.5439 0.5437 0.5436 0.5435 0.5433
3602.000000 0.5432 0.5431 0.5430 0.5428 0.5427
3607.000000 0.5426 0.5425 0.5425 0.5425 0.5424
3612.000000 0.5424 0.5423 0.5423 0.5423 0.5422
3617.000000 0.5422 0.5421 0.5421 0.5421 0.5420
3622.000000 0.5420 0.5420 0.5419 0.5419 0.5418
3627.000000 0.5418 0.5418 0.5417 0.5417 0.5417
3632.000000 0.5417 0.5417 0.5416 0.5416 0.5416
3637.000000 0.5415 0.5415 0.5415 0.5414 0.5414
3642.000000 0.5413 0.5413 0.5413 0.5412 0.5412
3647.000000 0.5411 0.5411 0.5411 0.5410 0.5410
3652.000000 0.5410 0.5409 0.5409 0.5408 0.5408
3657.000000 0.5408 0.5407 0.5407 0.5407 0.5406
3662.000000 0.5406 0.5406 0.5405 0.5405 0.5404
3667.000000 0.5404 0.5403 0.5403 0.5402 0.5402
3672.000000 0.5401 0.5400 0.5399 0.5398 0.5397
3677.000000 0.5396 0.5395 0.5395 0.5394 0.5393
3682.000000 0.5392 0.5392 0.5391 0.5390 0.5389
3687.000000 0.5389 0.5388 0.5387 0.5386 0.5385
3692.000000 0.5384 0.5383 0.5381 0.5379 0.5377
3697.000000 0.5375 0.5373 0.5371 0.5369 0.5366
3702.000000 0.5364 0.5362 0.5360 0.5357 0.5355
3707.000000 0.5353 0.5350 0.5348 0.5346 0.5343
3712.000000 0.5341 0.5339 0.5336 0.5334 0.5331
3717.000000 0.5329 0.5327 0.5324 0.5322 0.5320
3722.000000 0.5317 0.5315 0.5313 0.5310 0.5308
3727.000000 0.5306 0.5303 0.5301 0.5299 0.5296
3732.000000 0.5294 0.5292 0.5289 0.5287 0.5285
3737.000000 0.5282 0.5281 0.5279 0.5278 0.5276
3742.000000 0.5274 0.5273 0.5271 0.5270 0.5269
3747.000000 0.5267 0.5266 0.5264 0.5263 0.5262
3752.000000 0.5261 0.5259 0.5258 0.5257 0.5255
3757.000000 0.5254 0.5252 0.5251 0.5250 0.5248
3762.000000 0.5247 0.5245 0.5244 0.5243 0.5241
3767.000000 0.5240 0.5239 0.5238 0.5236 0.5235
3772.000000 0.5234 0.5232 0.5231 0.5230 0.5228
3777.000000 0.5227 0.5225 0.5224 0.5223 0.5221
3782.000000 0.5220 0.5218 0.5217 0.5216 0.5215
3787.000000 0.5214 0.5212 0.5211 0.5210 0.5208
3792.000000 0.5207 0.5205 0.5204 0.5203 0.5201
3797.000000 0.5200 0.5198 0.5197 0.5196 0.5194
3802.000000 0.5193 0.5192 0.5190 0.5189 0.5187
3807.000000 0.5186 0.5185 0.5183 0.5182 0.5180
3812.000000 0.5179 0.5177 0.5176 0.5174 0.5173
3817.000000 0.5171 0.5170 0.5168 0.5167 0.5165
3822.000000 0.5163 0.5162 0.5160 0.5159 0.5157
3827.000000 0.5156 0.5154 0.5153 0.5151 0.5150
3832.000000 0.5148 0.5147 0.5145 0.5144 0.5142
3837.000000 0.5140 0.5139 0.5137 0.5136 0.5134
3842.000000 0.5133 0.5131 0.5130 0.5128 0.5127
3847.000000 0.5125 0.5124 0.5122 0.5121 0.5119
3852.000000 0.5118 0.5116 0.5115 0.5113 0.5112
3857.000000 0.5110 0.5109 0.5107 0.5106 0.5104
3862.000000 0.5102 0.5101 0.5099 0.5098 0.5097
3867.000000 0.5095 0.5094 0.5093 0.5091 0.5090
3872.000000 0.5089 0.5088 0.5087 0.5086 0.5085
3877.000000 0.5085 0.5084 0.5083 0.5082 0.5081
3882.000000 0.5080 0.5079 0.5078 0.5078 0.5077
3887.000000 0.5076 0.5075 0.5074 0.5073 0.5072
3892.000000 0.5071 0.5070 0.5069 0.5068 0.5067
3897.000000 0.5066 0.5065 0.5064 0.5064 0.5063
3902.000000 0.5062 0.5061 0.5060 0.5059 0.5058
3907.000000 0.5057 0.5056 0.5055 0.5054 0.5054
3912.000000 0.5053 0.5052 0.5052 0.5051 0.5051
3917.000000 0.5050 0.5050 0.5049 0.5049 0.5049
3922.000000 0.5049 0.5049 0.5049 0.5048 0.5048
3927.000000 0.5048 0.5048 0.5048 0.5048 0.5047
3932.000000 0.5047 0.5047 0.5046 0.5046 0.5046
3937.000000 0.5046 0.5044 0.5043 0.5042 0.5041
3942.000000 0.5040 0.5039 0.5036 0.5034 0.5031
3947.000000 0.5028 0.5025 0.5023 0.5020 0.5017
3952.000000 0.5015 0.5012 0.5009 0.5006 0.5004
3957.000000 0.5001 0.4998 0.4995 0.4992 0.4989
3962.000000 0.4986 0.4984 0.4981 0.4978 0.4975
3967.000000 0.4972 0.4969 0.4966 0.4964 0.4961
3972.000000 0.4958 0.4955 0.4952 0.4949 0.4946
3977.000000 0.4944 0.4941 0.4938 0.4935 0.4932
3982.000000 0.4929 0.4927 0.4924 0.4921 0.4918
3987.000000 0.4915 0.4912 0.4910 0.4907 0.4904
3992.000000 0.4901 0.4898 0.4896 0.4893 0.4891
3997.000000 0.4889 0.4886 0.4884 0.4882
##END=
