##TITLE=Indole, 1,2-dimethyl-, hydrochloride
##JCAMP-DX=4.24
##DATA TYPE=INFRARED SPECTRUM
##CLASS=COBLENTZ III
##ORIGIN=BRITISH PETROLEUM CO. LTD., ENGLAND
##OWNER=Copyright (C) 1987 by the Coblentz Society
Collection (C) 2018 copyright by the U.S. Secretary of Commerce
on behalf of the United States of America. All rights reserved.
##DATE=1972/06/28
##NAMES=1,2-dimethyl-1H-indole hydrochloride
##MOLFORM=C10 H12 Cl N
##SOURCE REFERENCE=COBLENTZ NO. 9405
##$NIST ID=B6009405
##$NIST SOURCE=COBLENTZ
##$NIST IMAGE=cob9405
##SPECTROMETER/DATA SYSTEM=PERKIN-ELMER 157
##STATE=SOLID (KBr DISC, 0.9% WT.)
$$ HCl RUN IN KBr MAY CONTAIN SOME HBr
$$ REF. Can. J. Spec., 18,4,101, '73 C. S. DOUSE and P. B. TOOKE
##SAMPLING PROCEDURE=TRANSMISSION
##RESOLUTION=2
##DATA PROCESSING=DIGITIZED BY COBLENTZ SOCIETY (BATCH II) FROM HARD COPY
##XUNITS=1/CM
##YUNITS=TRANSMITTANCE
##XFACTOR=1.0
##YFACTOR=1
##FIRSTX=670
##LASTX=4000
##FIRSTY=0.5216
##MAXX=4000
##MINX=670
##MAXY=0.7606
##MINY=0.0088
##NPOINTS=3331
##XYDATA=(X++(Y..Y))
670.000000 0.5216 0.5341 0.5453 0.5513 0.5531
675.000000 0.5544 0.5564 0.5638 0.5712 0.5727
680.000000 0.5731 0.5732 0.5734 0.5737 0.5752
685.000000 0.5739 0.5739 0.5736 0.5733 0.5732
690.000000 0.5731 0.5724 0.5718 0.5713 0.5695
695.000000 0.5660 0.5584 0.5562 0.5556 0.5544
700.000000 0.5455 0.5341 0.5242 0.5149 0.5050
705.000000 0.4950 0.4852 0.4720 0.4608 0.4550
710.000000 0.4535 0.4536 0.4533 0.4532 0.4504
715.000000 0.4400 0.4286 0.4183 0.4068 0.3930
720.000000 0.3810 0.3645 0.3428 0.3263 0.3063
725.000000 0.2799 0.2536 0.2273 0.2011 0.1464
730.000000 0.0937 0.0678 0.0470 0.0322 0.0205
735.000000 0.0134 0.0088 0.0091 0.0096 0.0102
740.000000 0.0107 0.0110 0.0110 0.0108 0.0105
745.000000 0.0100 0.0092 0.0088 0.0089 0.0093
750.000000 0.0100 0.0113 0.0132 0.0159 0.0193
755.000000 0.0221 0.0237 0.0242 0.0244 0.0245
760.000000 0.0246 0.0247 0.0250 0.0256 0.0278
765.000000 0.0313 0.0399 0.0565 0.0707 0.0792
770.000000 0.1039 0.1294 0.1549 0.1803 0.2057
775.000000 0.2310 0.2563 0.2815 0.3046 0.3186
780.000000 0.3468 0.3681 0.3909 0.3992 0.4022
785.000000 0.4032 0.4040 0.4042 0.4042 0.4038
790.000000 0.4032 0.4023 0.4015 0.4080 0.4210
795.000000 0.4258 0.4270 0.4276 0.4197 0.4149
800.000000 0.4096 0.4031 0.3963 0.3900 0.3848
805.000000 0.3817 0.3833 0.3821 0.3914 0.3953
810.000000 0.3994 0.4022 0.4032 0.4036 0.4040
815.000000 0.4043 0.4044 0.4046 0.4046 0.4047
820.000000 0.4049 0.4093 0.4136 0.4148 0.4186
825.000000 0.4234 0.4288 0.4337 0.4373 0.4406
830.000000 0.4431 0.4439 0.4424 0.4394 0.4331
835.000000 0.4267 0.4204 0.4137 0.4090 0.4065
840.000000 0.4044 0.4040 0.4041 0.4047 0.4065
845.000000 0.4078 0.4104 0.4132 0.4166 0.4203
850.000000 0.4240 0.4277 0.4319 0.4375 0.4485
855.000000 0.4645 0.4697 0.4718 0.4753 0.4792
860.000000 0.4807 0.4818 0.4802 0.4769 0.4724
865.000000 0.4651 0.4574 0.4539 0.4521 0.4496
870.000000 0.4427 0.4242 0.4093 0.4053 0.4035
875.000000 0.4026 0.4020 0.4018 0.4018 0.4022
880.000000 0.4028 0.4033 0.4040 0.4046 0.4050
885.000000 0.4055 0.4039 0.3956 0.3839 0.3714
890.000000 0.3575 0.3336 0.3037 0.2873 0.2748
895.000000 0.2718 0.2716 0.2755 0.2910 0.3076
900.000000 0.3216 0.3355 0.3522 0.3739 0.3852
905.000000 0.3961 0.4060 0.4150 0.4232 0.4303
910.000000 0.4356 0.4430 0.4532 0.4553 0.4555
915.000000 0.4553 0.4549 0.4529 0.4505 0.4482
920.000000 0.4473 0.4488 0.4510 0.4544 0.4579
925.000000 0.4620 0.4666 0.4766 0.5029 0.5047
930.000000 0.5059 0.5125 0.5193 0.5214 0.5229
935.000000 0.5257 0.5330 0.5373 0.5399 0.5414
940.000000 0.5422 0.5438 0.5511 0.5569 0.5579
945.000000 0.5583 0.5584 0.5583 0.5583 0.5582
950.000000 0.5586 0.5577 0.5571 0.5561 0.5532
955.000000 0.5454 0.5406 0.5385 0.5368 0.5314
960.000000 0.5209 0.5136 0.5100 0.5097 0.5096
965.000000 0.5075 0.5125 0.5161 0.5203 0.5248
970.000000 0.5294 0.5340 0.5364 0.5369 0.5369
975.000000 0.5368 0.5368 0.5368 0.5369 0.5369
980.000000 0.5371 0.5373 0.5375 0.5374 0.5394
985.000000 0.5372 0.5358 0.5340 0.5319 0.5296
990.000000 0.5256 0.5202 0.5130 0.5055 0.4884
995.000000 0.4758 0.4657 0.4544 0.4404 0.4265
1000.000000 0.4126 0.3986 0.3778 0.3699 0.3664
1005.000000 0.3589 0.3454 0.3311 0.3096 0.2956
1010.000000 0.2845 0.2753 0.2693 0.2666 0.2635
1015.000000 0.2607 0.2583 0.2558 0.2525 0.2490
1020.000000 0.2466 0.2470 0.2596 0.2788 0.2979
1025.000000 0.3171 0.3362 0.3539 0.3632 0.3688
1030.000000 0.3711 0.3707 0.3718 0.3711 0.3684
1035.000000 0.3602 0.3415 0.3227 0.3040 0.2830
1040.000000 0.2756 0.2711 0.2683 0.2668 0.2666
1045.000000 0.2724 0.2900 0.3087 0.3275 0.3461
1050.000000 0.3648 0.3835 0.4004 0.4042 0.4064
1055.000000 0.4068 0.4077 0.4041 0.3934 0.3857
1060.000000 0.3787 0.3658 0.3524 0.3407 0.3289
1065.000000 0.3171 0.3053 0.2936 0.2819 0.2702
1070.000000 0.2585 0.2469 0.2353 0.2085 0.1892
1075.000000 0.1834 0.1822 0.1843 0.1876 0.1912
1080.000000 0.1967 0.2052 0.2158 0.2327 0.2565
1085.000000 0.2755 0.2934 0.3204 0.3245 0.3264
1090.000000 0.3268 0.3267 0.3263 0.3280 0.3256
1095.000000 0.3253 0.3248 0.3238 0.3230 0.3214
1100.000000 0.3185 0.3151 0.3112 0.3078 0.3046
1105.000000 0.3005 0.2958 0.2904 0.2821 0.2729
1110.000000 0.2648 0.2557 0.2441 0.2312 0.2127
1115.000000 0.1999 0.1910 0.1833 0.1809 0.1802
1120.000000 0.1798 0.1798 0.1800 0.1800 0.1806
1125.000000 0.1813 0.1825 0.1851 0.1882 0.1921
1130.000000 0.1989 0.2078 0.2175 0.2292 0.2408
1135.000000 0.2525 0.2640 0.2753 0.2809 0.2817
1140.000000 0.2814 0.2811 0.2822 0.2761 0.2709
1145.000000 0.2647 0.2578 0.2497 0.2375 0.2245
1150.000000 0.2227 0.2222 0.2236 0.2230 0.2252
1155.000000 0.2282 0.2328 0.2388 0.2459 0.2550
1160.000000 0.2645 0.2674 0.2695 0.2713 0.2733
1165.000000 0.2754 0.2776 0.2798 0.2816 0.2831
1170.000000 0.2843 0.2845 0.2846 0.2843 0.2837
1175.000000 0.2828 0.2800 0.2711 0.2637 0.2578
1180.000000 0.2528 0.2484 0.2467 0.2462 0.2460
1185.000000 0.2435 0.2490 0.2514 0.2550 0.2585
1190.000000 0.2616 0.2646 0.2658 0.2656 0.2676
1195.000000 0.2640 0.2577 0.2510 0.2437 0.2370
1200.000000 0.2311 0.2258 0.2201 0.2137 0.2039
1205.000000 0.1963 0.1882 0.1811 0.1745 0.1671
1210.000000 0.1593 0.1502 0.1393 0.1355 0.1359
1215.000000 0.1350 0.1392 0.1419 0.1461 0.1514
1220.000000 0.1588 0.1727 0.1887 0.1972 0.1995
1225.000000 0.1996 0.1999 0.1985 0.1956 0.1919
1230.000000 0.1883 0.1847 0.1820 0.1794 0.1773
1235.000000 0.1754 0.1736 0.1718 0.1699 0.1679
1240.000000 0.1658 0.1634 0.1609 0.1574 0.1535
1245.000000 0.1503 0.1460 0.1406 0.1339 0.1288
1250.000000 0.1240 0.1200 0.1178 0.1182 0.1199
1255.000000 0.1240 0.1273 0.1303 0.1331 0.1358
1260.000000 0.1392 0.1428 0.1469 0.1517 0.1598
1265.000000 0.1783 0.1972 0.2115 0.2225 0.2462
1270.000000 0.2650 0.2802 0.2869 0.2920 0.2955
1275.000000 0.2976 0.2987 0.2989 0.2989 0.2997
1280.000000 0.2976 0.2940 0.2894 0.2829 0.2753
1285.000000 0.2673 0.2578 0.2520 0.2463 0.2422
1290.000000 0.2386 0.2350 0.2317 0.2287 0.2257
1295.000000 0.2236 0.2216 0.2198 0.2182 0.1981
1300.000000 0.1742 0.1524 0.1428 0.1396 0.1371
1305.000000 0.1360 0.1353 0.1345 0.1338 0.1334
1310.000000 0.1332 0.1332 0.1335 0.1336 0.1336
1315.000000 0.1309 0.1258 0.1181 0.1098 0.1029
1320.000000 0.0984 0.0964 0.0959 0.0958 0.0970
1325.000000 0.0975 0.0993 0.1071 0.1142 0.1198
1330.000000 0.1268 0.1310 0.1319 0.1322 0.1322
1335.000000 0.1324 0.1324 0.1325 0.1325 0.1325
1340.000000 0.1328 0.1333 0.1337 0.1347 0.1359
1345.000000 0.1347 0.1359 0.1324 0.1253 0.1165
1350.000000 0.1054 0.0926 0.0796 0.0640 0.0546
1355.000000 0.0482 0.0426 0.0389 0.0360 0.0342
1360.000000 0.0330 0.0318 0.0317 0.0317 0.0317
1365.000000 0.0319 0.0290 0.0333 0.0349 0.0372
1370.000000 0.0427 0.0494 0.0545 0.0597 0.0653
1375.000000 0.0721 0.0765 0.0774 0.0784 0.0816
1380.000000 0.0947 0.1133 0.1209 0.1250 0.1284
1385.000000 0.1309 0.1327 0.1325 0.1318 0.1297
1390.000000 0.1266 0.1232 0.1346 0.1166 0.1134
1395.000000 0.1102 0.1069 0.1036 0.1005 0.0979
1400.000000 0.0955 0.0941 0.0937 0.0935 0.0938
1405.000000 0.0951 0.0935 0.1008 0.1055 0.1114
1410.000000 0.1141 0.1160 0.1181 0.1205 0.1230
1415.000000 0.1232 0.1230 0.1223 0.1215 0.1202
1420.000000 0.1185 0.1159 0.1131 0.1104 0.1069
1425.000000 0.1025 0.0980 0.0933 0.0876 0.0835
1430.000000 0.0810 0.0785 0.0745 0.0699 0.0669
1435.000000 0.0645 0.0620 0.0597 0.0579 0.0563
1440.000000 0.0548 0.0532 0.0518 0.0502 0.0485
1445.000000 0.0467 0.0450 0.0435 0.0420 0.0403
1450.000000 0.0384 0.0363 0.0350 0.0337 0.0324
1455.000000 0.0316 0.0313 0.0309 0.0306 0.0302
1460.000000 0.0298 0.0294 0.0290 0.0286 0.0284
1465.000000 0.0284 0.0284 0.0284 0.0283 0.0283
1470.000000 0.0284 0.0285 0.0288 0.0290 0.0292
1475.000000 0.0294 0.0296 0.0278 0.0302 0.0308
1480.000000 0.0316 0.0327 0.0338 0.0363 0.0410
1485.000000 0.0467 0.0532 0.0608 0.0664 0.0691
1490.000000 0.0712 0.0743 0.0836 0.0977 0.1117
1495.000000 0.1257 0.1397 0.1537 0.1677 0.1816
1500.000000 0.1955 0.2094 0.2462 0.2756 0.2820
1505.000000 0.2871 0.2905 0.2933 0.2961 0.2987
1510.000000 0.3012 0.3036 0.3061 0.3089 0.3120
1515.000000 0.3152 0.3182 0.3203 0.3222 0.3233
1520.000000 0.3239 0.3244 0.3250 0.3254 0.3254
1525.000000 0.3261 0.3256 0.3256 0.3253 0.3249
1530.000000 0.3239 0.3226 0.3209 0.3191 0.3169
1535.000000 0.3147 0.3125 0.3105 0.3090 0.3077
1540.000000 0.3063 0.3046 0.3024 0.3008 0.3000
1545.000000 0.2992 0.2991 0.2991 0.2984 0.2995
1550.000000 0.2998 0.3001 0.3005 0.3009 0.3014
1555.000000 0.3019 0.3024 0.3028 0.3033 0.3038
1560.000000 0.3043 0.3047 0.3051 0.3056 0.3061
1565.000000 0.3065 0.3069 0.3073 0.3078 0.3081
1570.000000 0.3084 0.3087 0.3091 0.3094 0.3098
1575.000000 0.3101 0.3102 0.3100 0.3098 0.3096
1580.000000 0.3094 0.3092 0.3110 0.3080 0.3070
1585.000000 0.3056 0.3041 0.3025 0.3007 0.2986
1590.000000 0.2924 0.2824 0.2714 0.2603 0.2493
1595.000000 0.2384 0.2274 0.2164 0.2055 0.1946
1600.000000 0.1837 0.1727 0.1609 0.1525 0.1493
1605.000000 0.1467 0.1464 0.1464 0.1474 0.1484
1610.000000 0.1497 0.1513 0.1530 0.1548 0.1583
1615.000000 0.1777 0.1971 0.2165 0.2359 0.2552
1620.000000 0.2745 0.2937 0.3097 0.3169 0.3199
1625.000000 0.3217 0.3227 0.3235 0.3238 0.3248
1630.000000 0.3236 0.3231 0.3212 0.3184 0.3162
1635.000000 0.3141 0.3117 0.3093 0.3069 0.3043
1640.000000 0.3015 0.2988 0.2962 0.2934 0.2903
1645.000000 0.2875 0.2855 0.2849 0.2846 0.2845
1650.000000 0.2843 0.2840 0.2838 0.2836 0.2835
1655.000000 0.2835 0.2835 0.2829 0.2879 0.2917
1660.000000 0.2946 0.2974 0.3000 0.3027 0.3067
1665.000000 0.3122 0.3183 0.3244 0.3304 0.3365
1670.000000 0.3425 0.3485 0.3546 0.3657 0.3705
1675.000000 0.3708 0.3712 0.3714 0.3718 0.3706
1680.000000 0.3700 0.3692 0.3683 0.3674 0.3665
1685.000000 0.3655 0.3645 0.3636 0.3626 0.3616
1690.000000 0.3606 0.3595 0.3584 0.3573 0.3562
1695.000000 0.3550 0.3530 0.3511 0.3502 0.3497
1700.000000 0.3492 0.3490 0.3491 0.3495 0.3497
1705.000000 0.3491 0.3507 0.3516 0.3529 0.3552
1710.000000 0.3576 0.3604 0.3666 0.3875 0.4019
1715.000000 0.4029 0.4039 0.4049 0.4090 0.4226
1720.000000 0.4387 0.4547 0.4707 0.4868 0.5027
1725.000000 0.5136 0.5202 0.5252 0.5305 0.5353
1730.000000 0.5382 0.5407 0.5426 0.5440 0.5450
1735.000000 0.5454 0.5459 0.5463 0.5467 0.5471
1740.000000 0.5475 0.5479 0.5482 0.5485 0.5489
1745.000000 0.5493 0.5497 0.5501 0.5505 0.5510
1750.000000 0.5514 0.5519 0.5523 0.5529 0.5534
1755.000000 0.5540 0.5547 0.5558 0.5572 0.5587
1760.000000 0.5610 0.5640 0.5679 0.5748 0.5790
1765.000000 0.5827 0.5884 0.5949 0.5960 0.5971
1770.000000 0.5982 0.5992 0.6001 0.6008 0.6015
1775.000000 0.6022 0.6028 0.6035 0.6041 0.6047
1780.000000 0.6054 0.6061 0.6066 0.6072 0.6077
1785.000000 0.6082 0.6087 0.6092 0.6095 0.6099
1790.000000 0.6103 0.6107 0.6111 0.6114 0.6120
1795.000000 0.6127 0.6134 0.6141 0.6150 0.6159
1800.000000 0.6168 0.6178 0.6186 0.6192 0.6198
1805.000000 0.6204 0.6210 0.6216 0.6221 0.6224
1810.000000 0.6224 0.6224 0.6224 0.6215 0.6224
1815.000000 0.6221 0.6218 0.6213 0.6203 0.6192
1820.000000 0.6177 0.6158 0.6138 0.6117 0.6097
1825.000000 0.6074 0.6044 0.6038 0.6035 0.6032
1830.000000 0.6031 0.6029 0.6028 0.6028 0.6028
1835.000000 0.6028 0.6028 0.6027 0.6027 0.6027
1840.000000 0.6026 0.6025 0.6025 0.6025 0.6024
1845.000000 0.6024 0.6023 0.6023 0.6022 0.6018
1850.000000 0.6014 0.6009 0.6004 0.5996 0.5982
1855.000000 0.5966 0.5950 0.5914 0.5883 0.5855
1860.000000 0.5831 0.5823 0.5817 0.5811 0.5804
1865.000000 0.5800 0.5798 0.5798 0.5799 0.5790
1870.000000 0.5803 0.5806 0.5809 0.5812 0.5815
1875.000000 0.5818 0.5821 0.5823 0.5826 0.5828
1880.000000 0.5830 0.5832 0.5839 0.5836 0.5835
1885.000000 0.5834 0.5833 0.5832 0.5830 0.5828
1890.000000 0.5826 0.5824 0.5822 0.5819 0.5817
1895.000000 0.5815 0.5814 0.5812 0.5811 0.5809
1900.000000 0.5808 0.5807 0.5807 0.5798 0.5808
1905.000000 0.5809 0.5809 0.5810 0.5810 0.5811
1910.000000 0.5814 0.5820 0.5825 0.5830 0.5836
1915.000000 0.5843 0.5849 0.5855 0.5862 0.5870
1920.000000 0.5881 0.5891 0.5902 0.5915 0.5926
1925.000000 0.5937 0.5946 0.5955 0.5964 0.5972
1930.000000 0.5981 0.5992 0.5990 0.5988 0.5986
1935.000000 0.5984 0.5982 0.5979 0.5977 0.5975
1940.000000 0.5973 0.5970 0.5968 0.5967 0.5965
1945.000000 0.5962 0.5960 0.5958 0.5955 0.5953
1950.000000 0.5951 0.5948 0.5945 0.5942 0.5939
1955.000000 0.5936 0.5933 0.5930 0.5927 0.5923
1960.000000 0.5920 0.5917 0.5913 0.5909 0.5905
1965.000000 0.5902 0.5898 0.5894 0.5890 0.5885
1970.000000 0.5880 0.5875 0.5869 0.5864 0.5860
1975.000000 0.5855 0.5850 0.5846 0.5843 0.5839
1980.000000 0.5836 0.5832 0.5829 0.5826 0.5822
1985.000000 0.5819 0.5816 0.5816 0.5815 0.5813
1990.000000 0.5813 0.5812 0.5811 0.5810 0.5809
1995.000000 0.5808 0.5807 0.5806 0.5805 0.5804
2000.000000 0.5803 0.5802 0.5801 0.5801 0.5800
2005.000000 0.5799 0.5799 0.5797 0.5796 0.5793
2010.000000 0.5789 0.5781 0.5768 0.5754 0.5740
2015.000000 0.5725 0.5709 0.5688 0.5668 0.5655
2020.000000 0.5644 0.5633 0.5629 0.5627 0.5624
2025.000000 0.5622 0.5619 0.5617 0.5615 0.5613
2030.000000 0.5611 0.5609 0.5607 0.5605 0.5601
2035.000000 0.5598 0.5594 0.5591 0.5587 0.5582
2040.000000 0.5577 0.5572 0.5566 0.5561 0.5555
2045.000000 0.5549 0.5544 0.5538 0.5533 0.5527
2050.000000 0.5523 0.5518 0.5514 0.5509 0.5505
2055.000000 0.5500 0.5496 0.5492 0.5488 0.5484
2060.000000 0.5479 0.5475 0.5471 0.5467 0.5464
2065.000000 0.5460 0.5457 0.5453 0.5449 0.5445
2070.000000 0.5442 0.5438 0.5435 0.5431 0.5429
2075.000000 0.5425 0.5422 0.5419 0.5416 0.5413
2080.000000 0.5410 0.5407 0.5404 0.5401 0.5398
2085.000000 0.5395 0.5392 0.5389 0.5383 0.5376
2090.000000 0.5365 0.5353 0.5340 0.5327 0.5314
2095.000000 0.5300 0.5288 0.5278 0.5271 0.5265
2100.000000 0.5259 0.5254 0.5249 0.5245 0.5242
2105.000000 0.5240 0.5238 0.5235 0.5232 0.5229
2110.000000 0.5226 0.5222 0.5218 0.5215 0.5209
2115.000000 0.5204 0.5195 0.5187 0.5180 0.5174
2120.000000 0.5168 0.5163 0.5159 0.5155 0.5153
2125.000000 0.5149 0.5146 0.5143 0.5141 0.5138
2130.000000 0.5135 0.5133 0.5131 0.5130 0.5128
2135.000000 0.5126 0.5125 0.5123 0.5121 0.5119
2140.000000 0.5116 0.5111 0.5105 0.5099 0.5094
2145.000000 0.5087 0.5080 0.5072 0.5063 0.5055
2150.000000 0.5046 0.5038 0.5030 0.5020 0.5010
2155.000000 0.5000 0.4994 0.4989 0.4986 0.4983
2160.000000 0.4980 0.4977 0.4974 0.4972 0.4969
2165.000000 0.4966 0.4964 0.4961 0.4957 0.4955
2170.000000 0.4952 0.4948 0.4945 0.4941 0.4937
2175.000000 0.4934 0.4931 0.4927 0.4923 0.4920
2180.000000 0.4916 0.4913 0.4909 0.4904 0.4899
2185.000000 0.4894 0.4889 0.4883 0.4877 0.4872
2190.000000 0.4867 0.4861 0.4856 0.4850 0.4845
2195.000000 0.4839 0.4831 0.4823 0.4816 0.4809
2200.000000 0.4801 0.4793 0.4786 0.4779 0.4771
2205.000000 0.4764 0.4756 0.4750 0.4744 0.4739
2210.000000 0.4734 0.4729 0.4724 0.4719 0.4714
2215.000000 0.4709 0.4704 0.4699 0.4695 0.4690
2220.000000 0.4685 0.4680 0.4676 0.4671 0.4666
2225.000000 0.4661 0.4657 0.4654 0.4650 0.4647
2230.000000 0.4643 0.4640 0.4637 0.4633 0.4630
2235.000000 0.4626 0.4623 0.4619 0.4616 0.4612
2240.000000 0.4609 0.4606 0.4603 0.4601 0.4600
2245.000000 0.4598 0.4597 0.4595 0.4594 0.4592
2250.000000 0.4591 0.4589 0.4588 0.4583 0.4578
2255.000000 0.4571 0.4563 0.4555 0.4546 0.4538
2260.000000 0.4530 0.4521 0.4512 0.4503 0.4494
2265.000000 0.4485 0.4475 0.4464 0.4453 0.4441
2270.000000 0.4429 0.4420 0.4414 0.4408 0.4403
2275.000000 0.4399 0.4394 0.4389 0.4384 0.4379
2280.000000 0.4374 0.4370 0.4368 0.4366 0.4364
2285.000000 0.4363 0.4361 0.4360 0.4358 0.4356
2290.000000 0.4355 0.4353 0.4351 0.4348 0.4345
2295.000000 0.4341 0.4335 0.4324 0.4311 0.4292
2300.000000 0.4273 0.4258 0.4243 0.4224 0.4204
2305.000000 0.4189 0.4175 0.4166 0.4159 0.4152
2310.000000 0.4147 0.4143 0.4140 0.4136 0.4133
2315.000000 0.4129 0.4126 0.4122 0.4119 0.4115
2320.000000 0.4112 0.4108 0.4105 0.4102 0.4099
2325.000000 0.4095 0.4093 0.4092 0.4091 0.4090
2330.000000 0.4089 0.4088 0.4087 0.4086 0.4085
2335.000000 0.4084 0.4083 0.4082 0.4081 0.4080
2340.000000 0.4078 0.4076 0.4074 0.4072 0.4067
2345.000000 0.4062 0.4056 0.4049 0.4041 0.4033
2350.000000 0.4023 0.4007 0.3994 0.3991 0.3988
2355.000000 0.3984 0.3981 0.3979 0.3977 0.3976
2360.000000 0.3975 0.3974 0.3973 0.3971 0.3971
2365.000000 0.3971 0.3971 0.3971 0.3971 0.3971
2370.000000 0.3971 0.3971 0.3971 0.3971 0.3971
2375.000000 0.3969 0.3967 0.3965 0.3964 0.3962
2380.000000 0.3960 0.3957 0.3950 0.3942 0.3935
2385.000000 0.3929 0.3923 0.3918 0.3912 0.3907
2390.000000 0.3902 0.3900 0.3899 0.3898 0.3897
2395.000000 0.3896 0.3896 0.3895 0.3895 0.3894
2400.000000 0.3894 0.3896 0.3901 0.3898 0.3899
2405.000000 0.3900 0.3901 0.3903 0.3905 0.3908
2410.000000 0.3910 0.3912 0.3914 0.3916 0.3918
2415.000000 0.3919 0.3920 0.3921 0.3923 0.3924
2420.000000 0.3925 0.3927 0.3928 0.3929 0.3929
2425.000000 0.3930 0.3930 0.3930 0.3930 0.3930
2430.000000 0.3930 0.3930 0.3931 0.3931 0.3931
2435.000000 0.3931 0.3931 0.3932 0.3933 0.3933
2440.000000 0.3934 0.3934 0.3935 0.3936 0.3937
2445.000000 0.3942 0.3946 0.3950 0.3954 0.3959
2450.000000 0.3965 0.3971 0.3981 0.3991 0.4001
2455.000000 0.4011 0.4020 0.4030 0.4039 0.4049
2460.000000 0.4059 0.4069 0.4080 0.4091 0.4103
2465.000000 0.4115 0.4127 0.4139 0.4151 0.4169
2470.000000 0.4187 0.4205 0.4224 0.4241 0.4254
2475.000000 0.4266 0.4279 0.4292 0.4303 0.4311
2480.000000 0.4319 0.4323 0.4326 0.4329 0.4332
2485.000000 0.4335 0.4338 0.4341 0.4343 0.4344
2490.000000 0.4345 0.4346 0.4347 0.4348 0.4349
2495.000000 0.4350 0.4351 0.4352 0.4353 0.4354
2500.000000 0.4355 0.4355 0.4355 0.4356 0.4356
2505.000000 0.4356 0.4357 0.4357 0.4358 0.4358
2510.000000 0.4358 0.4359 0.4359 0.4360 0.4360
2515.000000 0.4360 0.4361 0.4362 0.4363 0.4363
2520.000000 0.4363 0.4364 0.4364 0.4365 0.4365
2525.000000 0.4365 0.4366 0.4367 0.4368 0.4368
2530.000000 0.4368 0.4369 0.4369 0.4370 0.4370
2535.000000 0.4371 0.4372 0.4373 0.4373 0.4375
2540.000000 0.4376 0.4377 0.4378 0.4378 0.4380
2545.000000 0.4383 0.4385 0.4389 0.4393 0.4397
2550.000000 0.4401 0.4405 0.4412 0.4419 0.4427
2555.000000 0.4435 0.4443 0.4453 0.4464 0.4475
2560.000000 0.4484 0.4494 0.4503 0.4511 0.4520
2565.000000 0.4528 0.4536 0.4544 0.4552 0.4560
2570.000000 0.4567 0.4575 0.4583 0.4591 0.4599
2575.000000 0.4607 0.4615 0.4623 0.4630 0.4637
2580.000000 0.4644 0.4648 0.4653 0.4658 0.4663
2585.000000 0.4667 0.4672 0.4676 0.4681 0.4685
2590.000000 0.4689 0.4694 0.4698 0.4702 0.4705
2595.000000 0.4708 0.4711 0.4714 0.4717 0.4720
2600.000000 0.4723 0.4726 0.4729 0.4732 0.4735
2605.000000 0.4736 0.4737 0.4738 0.4739 0.4740
2610.000000 0.4741 0.4742 0.4743 0.4744 0.4745
2615.000000 0.4746 0.4748 0.4749 0.4750 0.4751
2620.000000 0.4752 0.4753 0.4753 0.4753 0.4754
2625.000000 0.4755 0.4755 0.4756 0.4756 0.4757
2630.000000 0.4757 0.4758 0.4759 0.4760 0.4760
2635.000000 0.4761 0.4761 0.4761 0.4762 0.4762
2640.000000 0.4761 0.4761 0.4761 0.4761 0.4761
2645.000000 0.4761 0.4761 0.4761 0.4761 0.4760
2650.000000 0.4760 0.4760 0.4747 0.4760 0.4759
2655.000000 0.4759 0.4759 0.4758 0.4758 0.4758
2660.000000 0.4757 0.4756 0.4756 0.4755 0.4754
2665.000000 0.4754 0.4753 0.4752 0.4752 0.4751
2670.000000 0.4750 0.4749 0.4749 0.4748 0.4747
2675.000000 0.4747 0.4746 0.4745 0.4745 0.4744
2680.000000 0.4743 0.4742 0.4742 0.4741 0.4739
2685.000000 0.4738 0.4737 0.4735 0.4734 0.4732
2690.000000 0.4731 0.4730 0.4728 0.4727 0.4725
2695.000000 0.4724 0.4723 0.4721 0.4720 0.4718
2700.000000 0.4716 0.4715 0.4713 0.4712 0.4709
2705.000000 0.4706 0.4704 0.4701 0.4699 0.4696
2710.000000 0.4694 0.4691 0.4688 0.4685 0.4683
2715.000000 0.4680 0.4676 0.4673 0.4667 0.4661
2720.000000 0.4654 0.4647 0.4641 0.4634 0.4625
2725.000000 0.4613 0.4602 0.4590 0.4577 0.4565
2730.000000 0.4552 0.4540 0.4527 0.4514 0.4500
2735.000000 0.4486 0.4467 0.4447 0.4427 0.4400
2740.000000 0.4370 0.4340 0.4311 0.4282 0.4252
2745.000000 0.4223 0.4193 0.4164 0.4134 0.4105
2750.000000 0.4076 0.4046 0.4017 0.3987 0.3958
2755.000000 0.3929 0.3899 0.3870 0.3841 0.3813
2760.000000 0.3783 0.3754 0.3725 0.3696 0.3667
2765.000000 0.3638 0.3609 0.3580 0.3550 0.3522
2770.000000 0.3493 0.3464 0.3435 0.3407 0.3378
2775.000000 0.3349 0.3320 0.3291 0.3262 0.3233
2780.000000 0.3204 0.3176 0.3147 0.3118 0.3089
2785.000000 0.3061 0.3033 0.3004 0.2976 0.2947
2790.000000 0.2919 0.2890 0.2861 0.2833 0.2777
2795.000000 0.2709 0.2641 0.2585 0.2539 0.2492
2800.000000 0.2461 0.2448 0.2435 0.2421 0.2408
2805.000000 0.2395 0.2381 0.2368 0.2355 0.2342
2810.000000 0.2327 0.2311 0.2296 0.2278 0.2261
2815.000000 0.2243 0.2226 0.2208 0.2191 0.2170
2820.000000 0.2146 0.2122 0.2025 0.1781 0.1538
2825.000000 0.1323 0.1288 0.1252 0.1216 0.1180
2830.000000 0.1144 0.1108 0.1076 0.1045 0.1014
2835.000000 0.0989 0.0969 0.0949 0.0930 0.0911
2840.000000 0.0893 0.0876 0.0865 0.0854 0.0843
2845.000000 0.0832 0.0821 0.0811 0.0800 0.0790
2850.000000 0.0779 0.0769 0.0760 0.0751 0.0742
2855.000000 0.0735 0.0728 0.0721 0.0713 0.0706
2860.000000 0.0699 0.0691 0.0684 0.0677 0.0671
2865.000000 0.0665 0.0658 0.0652 0.0647 0.0641
2870.000000 0.0635 0.0629 0.0624 0.0618 0.0612
2875.000000 0.0608 0.0603 0.0598 0.0593 0.0588
2880.000000 0.0582 0.0579 0.0577 0.0574 0.0571
2885.000000 0.0569 0.0567 0.0565 0.0564 0.0562
2890.000000 0.0561 0.0560 0.0559 0.0559 0.0558
2895.000000 0.0558 0.0558 0.0557 0.0557 0.0556
2900.000000 0.0556 0.0555 0.0554 0.0554 0.0554
2905.000000 0.0554 0.0555 0.0556 0.0556 0.0557
2910.000000 0.0558 0.0558 0.0560 0.0562 0.0563
2915.000000 0.0565 0.0566 0.0568 0.0571 0.0573
2920.000000 0.0576 0.0579 0.0583 0.0586 0.0590
2925.000000 0.0598 0.0607 0.0616 0.0631 0.0651
2930.000000 0.0670 0.0694 0.0735 0.0777 0.0819
2935.000000 0.0861 0.0902 0.0944 0.0985 0.1027
2940.000000 0.1068 0.1110 0.1152 0.1193 0.1235
2945.000000 0.1276 0.1318 0.1359 0.1401 0.1442
2950.000000 0.1484 0.1525 0.1566 0.1608 0.1649
2955.000000 0.1690 0.1731 0.1772 0.1814 0.1855
2960.000000 0.1895 0.1936 0.1977 0.2051 0.2128
2965.000000 0.2205 0.2258 0.2275 0.2292 0.2309
2970.000000 0.2321 0.2331 0.2342 0.2352 0.2363
2975.000000 0.2373 0.2384 0.2392 0.2399 0.2407
2980.000000 0.2414 0.2422 0.2429 0.2436 0.2444
2985.000000 0.2451 0.2458 0.2465 0.2471 0.2476
2990.000000 0.2481 0.2486 0.2490 0.2494 0.2498
2995.000000 0.2503 0.2507 0.2511 0.2515 0.2518
3000.000000 0.2521 0.2525 0.2528 0.2530 0.2533
3005.000000 0.2536 0.2538 0.2541 0.2543 0.2546
3010.000000 0.2549 0.2552 0.2554 0.2580 0.2607
3015.000000 0.2634 0.2672 0.2735 0.2797 0.2859
3020.000000 0.2922 0.2984 0.3047 0.3109 0.3171
3025.000000 0.3234 0.3296 0.3358 0.3420 0.3482
3030.000000 0.3544 0.3606 0.3668 0.3730 0.3792
3035.000000 0.3854 0.3915 0.3977 0.4039 0.4100
3040.000000 0.4162 0.4223 0.4285 0.4346 0.4408
3045.000000 0.4469 0.4531 0.4592 0.4653 0.4714
3050.000000 0.4775 0.4836 0.4898 0.4959 0.5020
3055.000000 0.5081 0.5142 0.5181 0.5213 0.5245
3060.000000 0.5277 0.5310 0.5343 0.5377 0.5408
3065.000000 0.5437 0.5466 0.5495 0.5522 0.5547
3070.000000 0.5572 0.5597 0.5614 0.5628 0.5643
3075.000000 0.5657 0.5666 0.5676 0.5685 0.5694
3080.000000 0.5702 0.5709 0.5717 0.5723 0.5727
3085.000000 0.5730 0.5734 0.5737 0.5741 0.5744
3090.000000 0.5748 0.5751 0.5755 0.5759 0.5762
3095.000000 0.5765 0.5769 0.5772 0.5775 0.5777
3100.000000 0.5779 0.5781 0.5783 0.5785 0.5788
3105.000000 0.5790 0.5792 0.5794 0.5796 0.5799
3110.000000 0.5801 0.5803 0.5805 0.5808 0.5810
3115.000000 0.5812 0.5814 0.5816 0.5818 0.5820
3120.000000 0.5822 0.5824 0.5827 0.5830 0.5833
3125.000000 0.5837 0.5841 0.5845 0.5849 0.5853
3130.000000 0.5857 0.5860 0.5864 0.5868 0.5872
3135.000000 0.5876 0.5880 0.5884 0.5888 0.5892
3140.000000 0.5896 0.5900 0.5904 0.5908 0.5912
3145.000000 0.5916 0.5920 0.5925 0.5929 0.5933
3150.000000 0.5938 0.5942 0.5947 0.5951 0.5956
3155.000000 0.5960 0.5964 0.5968 0.5973 0.5977
3160.000000 0.5981 0.5985 0.5990 0.5994 0.5998
3165.000000 0.6002 0.6007 0.6011 0.6016 0.6020
3170.000000 0.6025 0.6029 0.6033 0.6038 0.6043
3175.000000 0.6049 0.6054 0.6060 0.6066 0.6072
3180.000000 0.6078 0.6084 0.6089 0.6095 0.6101
3185.000000 0.6107 0.6113 0.6118 0.6124 0.6130
3190.000000 0.6135 0.6141 0.6146 0.6151 0.6157
3195.000000 0.6162 0.6167 0.6173 0.6178 0.6184
3200.000000 0.6189 0.6194 0.6199 0.6203 0.6207
3205.000000 0.6211 0.6214 0.6218 0.6221 0.6225
3210.000000 0.6228 0.6231 0.6235 0.6238 0.6242
3215.000000 0.6245 0.6248 0.6252 0.6255 0.6259
3220.000000 0.6262 0.6265 0.6269 0.6272 0.6276
3225.000000 0.6280 0.6283 0.6287 0.6290 0.6294
3230.000000 0.6298 0.6301 0.6305 0.6308 0.6312
3235.000000 0.6316 0.6319 0.6323 0.6326 0.6330
3240.000000 0.6333 0.6337 0.6341 0.6344 0.6348
3245.000000 0.6352 0.6356 0.6359 0.6363 0.6366
3250.000000 0.6370 0.6374 0.6377 0.6381 0.6384
3255.000000 0.6388 0.6391 0.6395 0.6399 0.6403
3260.000000 0.6406 0.6410 0.6413 0.6416 0.6419
3265.000000 0.6423 0.6426 0.6429 0.6433 0.6436
3270.000000 0.6439 0.6442 0.6446 0.6449 0.6452
3275.000000 0.6455 0.6458 0.6461 0.6464 0.6468
3280.000000 0.6471 0.6474 0.6477 0.6481 0.6484
3285.000000 0.6487 0.6490 0.6493 0.6496 0.6499
3290.000000 0.6502 0.6505 0.6509 0.6512 0.6515
3295.000000 0.6518 0.6521 0.6524 0.6527 0.6530
3300.000000 0.6533 0.6537 0.6540 0.6543 0.6546
3305.000000 0.6549 0.6553 0.6556 0.6559 0.6563
3310.000000 0.6566 0.6570 0.6574 0.6579 0.6584
3315.000000 0.6588 0.6593 0.6598 0.6602 0.6607
3320.000000 0.6611 0.6616 0.6620 0.6625 0.6629
3325.000000 0.6634 0.6638 0.6643 0.6647 0.6652
3330.000000 0.6657 0.6661 0.6666 0.6671 0.6675
3335.000000 0.6680 0.6684 0.6689 0.6693 0.6698
3340.000000 0.6702 0.6707 0.6711 0.6716 0.6721
3345.000000 0.6725 0.6730 0.6735 0.6739 0.6744
3350.000000 0.6749 0.6754 0.6758 0.6763 0.6768
3355.000000 0.6772 0.6777 0.6782 0.6786 0.6791
3360.000000 0.6795 0.6800 0.6805 0.6809 0.6814
3365.000000 0.6819 0.6823 0.6828 0.6833 0.6837
3370.000000 0.6842 0.6846 0.6851 0.6856 0.6860
3375.000000 0.6865 0.6870 0.6874 0.6879 0.6883
3380.000000 0.6888 0.6893 0.6897 0.6902 0.6907
3385.000000 0.6912 0.6917 0.6922 0.6927 0.6932
3390.000000 0.6937 0.6943 0.6948 0.6953 0.6958
3395.000000 0.6963 0.6969 0.6974 0.6979 0.6984
3400.000000 0.6989 0.6995 0.7000 0.7005 0.7010
3405.000000 0.7015 0.7021 0.7026 0.7031 0.7036
3410.000000 0.7041 0.7046 0.7051 0.7057 0.7062
3415.000000 0.7067 0.7071 0.7075 0.7079 0.7084
3420.000000 0.7088 0.7092 0.7096 0.7100 0.7104
3425.000000 0.7108 0.7112 0.7116 0.7120 0.7124
3430.000000 0.7128 0.7132 0.7137 0.7141 0.7145
3435.000000 0.7149 0.7153 0.7157 0.7161 0.7165
3440.000000 0.7169 0.7173 0.7177 0.7181 0.7185
3445.000000 0.7189 0.7193 0.7197 0.7201 0.7205
3450.000000 0.7209 0.7213 0.7217 0.7221 0.7226
3455.000000 0.7230 0.7234 0.7238 0.7242 0.7246
3460.000000 0.7251 0.7255 0.7259 0.7263 0.7267
3465.000000 0.7271 0.7276 0.7280 0.7284 0.7288
3470.000000 0.7292 0.7296 0.7301 0.7305 0.7309
3475.000000 0.7314 0.7318 0.7322 0.7326 0.7331
3480.000000 0.7335 0.7339 0.7343 0.7347 0.7351
3485.000000 0.7355 0.7359 0.7363 0.7367 0.7370
3490.000000 0.7373 0.7376 0.7380 0.7383 0.7386
3495.000000 0.7389 0.7392 0.7395 0.7398 0.7402
3500.000000 0.7405 0.7408 0.7411 0.7414 0.7417
3505.000000 0.7420 0.7424 0.7427 0.7430 0.7433
3510.000000 0.7436 0.7440 0.7443 0.7446 0.7449
3515.000000 0.7453 0.7456 0.7460 0.7463 0.7467
3520.000000 0.7470 0.7474 0.7478 0.7482 0.7485
3525.000000 0.7489 0.7493 0.7496 0.7498 0.7501
3530.000000 0.7504 0.7506 0.7507 0.7508 0.7509
3535.000000 0.7510 0.7511 0.7512 0.7513 0.7514
3540.000000 0.7515 0.7516 0.7518 0.7519 0.7520
3545.000000 0.7521 0.7522 0.7523 0.7524 0.7525
3550.000000 0.7526 0.7527 0.7528 0.7529 0.7530
3555.000000 0.7531 0.7532 0.7533 0.7534 0.7535
3560.000000 0.7536 0.7536 0.7537 0.7537 0.7538
3565.000000 0.7538 0.7538 0.7539 0.7539 0.7539
3570.000000 0.7539 0.7539 0.7540 0.7540 0.7540
3575.000000 0.7540 0.7540 0.7541 0.7541 0.7541
3580.000000 0.7541 0.7541 0.7542 0.7542 0.7542
3585.000000 0.7542 0.7542 0.7543 0.7543 0.7543
3590.000000 0.7543 0.7543 0.7544 0.7544 0.7544
3595.000000 0.7545 0.7545 0.7545 0.7546 0.7546
3600.000000 0.7546 0.7546 0.7546 0.7547 0.7547
3605.000000 0.7547 0.7547 0.7547 0.7548 0.7548
3610.000000 0.7548 0.7549 0.7549 0.7550 0.7550
3615.000000 0.7550 0.7550 0.7550 0.7551 0.7551
3620.000000 0.7551 0.7552 0.7552 0.7552 0.7553
3625.000000 0.7553 0.7553 0.7553 0.7553 0.7554
3630.000000 0.7554 0.7554 0.7554 0.7554 0.7555
3635.000000 0.7557 0.7559 0.7561 0.7563 0.7565
3640.000000 0.7568 0.7570 0.7572 0.7575 0.7577
3645.000000 0.7579 0.7580 0.7582 0.7584 0.7585
3650.000000 0.7587 0.7589 0.7590 0.7592 0.7593
3655.000000 0.7595 0.7596 0.7598 0.7600 0.7601
3660.000000 0.7603 0.7606 0.7604 0.7604 0.7605
3665.000000 0.7605 0.7606 0.7606 0.7606 0.7606
3670.000000 0.7606 0.7606 0.7605 0.7604 0.7603
3675.000000 0.7602 0.7601 0.7600 0.7599 0.7598
3680.000000 0.7597 0.7595 0.7594 0.7593 0.7593
3685.000000 0.7592 0.7591 0.7590 0.7589 0.7588
3690.000000 0.7587 0.7585 0.7584 0.7583 0.7582
3695.000000 0.7581 0.7581 0.7580 0.7579 0.7578
3700.000000 0.7577 0.7575 0.7574 0.7573 0.7572
3705.000000 0.7571 0.7570 0.7569 0.7568 0.7567
3710.000000 0.7566 0.7565 0.7564 0.7563 0.7562
3715.000000 0.7561 0.7560 0.7559 0.7557 0.7556
3720.000000 0.7555 0.7554 0.7553 0.7552 0.7550
3725.000000 0.7549 0.7548 0.7547 0.7546 0.7544
3730.000000 0.7543 0.7542 0.7541 0.7540 0.7539
3735.000000 0.7538 0.7536 0.7535 0.7534 0.7533
3740.000000 0.7532 0.7530 0.7529 0.7528 0.7527
3745.000000 0.7525 0.7524 0.7523 0.7522 0.7520
3750.000000 0.7519 0.7517 0.7516 0.7515 0.7513
3755.000000 0.7512 0.7510 0.7509 0.7507 0.7506
3760.000000 0.7505 0.7503 0.7502 0.7500 0.7499
3765.000000 0.7498 0.7496 0.7495 0.7493 0.7492
3770.000000 0.7491 0.7489 0.7488 0.7486 0.7485
3775.000000 0.7484 0.7482 0.7481 0.7480 0.7479
3780.000000 0.7478 0.7477 0.7476 0.7474 0.7473
3785.000000 0.7472 0.7471 0.7470 0.7468 0.7467
3790.000000 0.7466 0.7465 0.7464 0.7463 0.7462
3795.000000 0.7461 0.7460 0.7458 0.7457 0.7456
3800.000000 0.7455 0.7454 0.7452 0.7451 0.7450
3805.000000 0.7449 0.7448 0.7447 0.7446 0.7445
3810.000000 0.7444 0.7442 0.7441 0.7440 0.7439
3815.000000 0.7438 0.7437 0.7436 0.7436 0.7435
3820.000000 0.7435 0.7434 0.7434 0.7433 0.7433
3825.000000 0.7432 0.7431 0.7431 0.7430 0.7429
3830.000000 0.7429 0.7428 0.7428 0.7427 0.7427
3835.000000 0.7426 0.7425 0.7425 0.7424 0.7423
3840.000000 0.7423 0.7422 0.7422 0.7421 0.7421
3845.000000 0.7420 0.7420 0.7419 0.7419 0.7418
3850.000000 0.7418 0.7417 0.7417 0.7416 0.7416
3855.000000 0.7416 0.7415 0.7415 0.7415 0.7414
3860.000000 0.7414 0.7414 0.7414 0.7414 0.7413
3865.000000 0.7413 0.7413 0.7413 0.7413 0.7413
3870.000000 0.7412 0.7412 0.7412 0.7411 0.7411
3875.000000 0.7411 0.7410 0.7410 0.7410 0.7410
3880.000000 0.7410 0.7410 0.7409 0.7409 0.7409
3885.000000 0.7409 0.7409 0.7409 0.7409 0.7408
3890.000000 0.7408 0.7408 0.7407 0.7407 0.7407
3895.000000 0.7406 0.7406 0.7406 0.7406 0.7406
3900.000000 0.7406 0.7406 0.7406 0.7406 0.7406
3905.000000 0.7406 0.7406 0.7405 0.7405 0.7405
3910.000000 0.7405 0.7405 0.7405 0.7404 0.7404
3915.000000 0.7404 0.7403 0.7403 0.7403 0.7402
3920.000000 0.7402 0.7402 0.7401 0.7401 0.7401
3925.000000 0.7400 0.7400 0.7400 0.7399 0.7399
3930.000000 0.7399 0.7398 0.7398 0.7398 0.7397
3935.000000 0.7397 0.7397 0.7397 0.7396 0.7396
3940.000000 0.7396 0.7395 0.7395 0.7395 0.7394
3945.000000 0.7394 0.7394 0.7393 0.7393 0.7393
3950.000000 0.7392 0.7392 0.7392 0.7391 0.7391
3955.000000 0.7391 0.7390 0.7390 0.7390 0.7389
3960.000000 0.7389 0.7389 0.7388 0.7388 0.7388
3965.000000 0.7388 0.7387 0.7387 0.7387 0.7386
3970.000000 0.7386 0.7386 0.7386 0.7386 0.7386
3975.000000 0.7385 0.7385 0.7385 0.7384 0.7384
3980.000000 0.7384 0.7383 0.7383 0.7383 0.7383
3985.000000 0.7382 0.7382 0.7382 0.7381 0.7381
3990.000000 0.7381 0.7380 0.7380 0.7380 0.7379
3995.000000 0.7379 0.7379 0.7378 0.7378 0.7378
4000.000000 0.7378
##END=
