##TITLE=NOREPHEDRINE-o-(p-HYDROXYBENZOYL)BENZOATE
##JCAMP-DX=4.24
##DATA TYPE=INFRARED SPECTRUM
##CLASS=COBLENTZ III
##ORIGIN=SMITH KLINE & FRENCH LABS.
##OWNER=COBLENTZ SOCIETY
Collection (C) 2018 copyright by the U.S. Secretary of Commerce
on behalf of the United States of America. All rights reserved.
##DATE=1965/03/15
##MOLFORM=C23 H23 N O5
##SOURCE REFERENCE=COBLENTZ NO. 9130
##$NIST ID=B6009130
##$NIST SOURCE=COBLENTZ
##$NIST IMAGE=cob9130
##SPECTROMETER/DATA SYSTEM=Not specified, most likely a prism spectrometer.
##INSTRUMENT PARAMETERS=NaCl PRISM
##STATE=SOLID (OIL MULL)
$$SPECTRAL CONTAMINATION DUE TO OIL AROUND 2900 CM^-^1
##SAMPLING PROCEDURE=TRANSMISSION
##RESOLUTION=2
##DATA PROCESSING=DIGITIZED BY NIST FROM HARD COPY
##XUNITS=MICROMETERS
##YUNITS=TRANSMITTANCE
##XFACTOR=1.000000
##YFACTOR=1
##DELTAX=000.004880
##FIRSTX=2
##LASTX=15.3366
##FIRSTY=0.778
##MAXX=15.3366
##MINX=2
##MAXY=0.89
##MINY=0.045
##NPOINTS=2734
##XYDATA=(X++(Y..Y))
2.000000 0.7780 0.7800 0.7800 0.7810 0.7820
2.024409 0.7820 0.7850 0.7860 0.7860 0.7880
2.048000 0.7910 0.7930 0.7950 0.7970 0.7980
2.072409 0.7990 0.7990 0.8000 0.8010 0.8050
2.097000 0.8060 0.8090 0.8090 0.8090 0.8090
2.121409 0.8100 0.8090 0.8090 0.8090 0.8090
2.146000 0.8090 0.8090 0.8100 0.8110 0.8120
2.170409 0.8150 0.8170 0.8180 0.8210 0.8220
2.195000 0.8230 0.8280 0.8290 0.8300 0.8300
2.219409 0.8330 0.8340 0.8340 0.8340 0.8340
2.244000 0.8320 0.8320 0.8320 0.8320 0.8330
2.268409 0.8340 0.8330 0.8330 0.8330 0.8330
2.292000 0.8330 0.8330 0.8330 0.8320 0.8330
2.316409 0.8330 0.8330 0.8330 0.8330 0.8330
2.341000 0.8330 0.8330 0.8330 0.8330 0.8330
2.365409 0.8330 0.8330 0.8330 0.8330 0.8340
2.390000 0.8360 0.8390 0.8410 0.8410 0.8410
2.414409 0.8440 0.8440 0.8450 0.8460 0.8500
2.439000 0.8510 0.8520 0.8520 0.8510 0.8510
2.463409 0.8500 0.8500 0.8500 0.8510 0.8530
2.488000 0.8550 0.8560 0.8570 0.8590 0.8610
2.512409 0.8620 0.8630 0.8630 0.8650 0.8680
2.536000 0.8680 0.8690 0.8690 0.8700 0.8700
2.560409 0.8710 0.8710 0.8710 0.8710 0.8710
2.585000 0.8710 0.8710 0.8730 0.8740 0.8740
2.609409 0.8740 0.8760 0.8760 0.8760 0.8780
2.634000 0.8780 0.8780 0.8790 0.8790 0.8790
2.658409 0.8800 0.8800 0.8800 0.8800 0.8810
2.683000 0.8810 0.8810 0.8810 0.8810 0.8810
2.707409 0.8840 0.8850 0.8860 0.8860 0.8880
2.732000 0.8880 0.8880 0.8880 0.8880 0.8880
2.756409 0.8880 0.8880 0.8880 0.8870 0.8840
2.780000 0.8810 0.8790 0.8750 0.8730 0.8710
2.804409 0.8700 0.8700 0.8700 0.8700 0.8700
2.829000 0.8690 0.8690 0.8690 0.8690 0.8680
2.853409 0.8680 0.8670 0.8650 0.8640 0.8630
2.878000 0.8630 0.8620 0.8620 0.8610 0.8610
2.902409 0.8580 0.8550 0.8530 0.8520 0.8510
2.927000 0.8510 0.8500 0.8490 0.8470 0.8450
2.951409 0.8410 0.8400 0.8390 0.8380 0.8360
2.976000 0.8350 0.8340 0.8340 0.8330 0.8290
3.000409 0.8230 0.8180 0.8140 0.8100 0.8050
3.024000 0.8000 0.7940 0.7890 0.7820 0.7760
3.048409 0.7690 0.7600 0.7520 0.7410 0.7270
3.073000 0.7120 0.6980 0.6820 0.6660 0.6500
3.097409 0.6340 0.6170 0.6000 0.5800 0.5620
3.122000 0.5420 0.5210 0.5000 0.4750 0.4510
3.146409 0.4270 0.3990 0.3710 0.3420 0.3110
3.171000 0.2710 0.2650 0.2640 0.2640 0.2660
3.195409 0.2810 0.2880 0.2930 0.2940 0.2950
3.220000 0.2970 0.2950 0.2940 0.2920 0.2870
3.244409 0.2810 0.2760 0.2700 0.2640 0.2590
3.268000 0.2570 0.2540 0.2540 0.2570 0.2720
3.292409 0.2770 0.2820 0.2890 0.2980 0.3070
3.317000 0.3170 0.3260 0.3340 0.3420 0.3470
3.341409 0.3510 0.3520 0.3520 0.3490 0.3460
3.366000 0.3350 0.3220 0.3060 0.2910 0.2740
3.390409 0.2560 0.2350 0.2130 0.1900 0.1650
3.415000 0.1360 0.1250 0.1170 0.1080 0.1000
3.439409 0.0900 0.0770 0.0610 0.0550 0.0540
3.464000 0.0550 0.0590 0.0700 0.0910 0.1150
3.488409 0.1400 0.1590 0.1820 0.1830 0.1810
3.512000 0.1810 0.1810 0.1810 0.1810 0.1810
3.536409 0.1810 0.1810 0.1890 0.2620 0.3030
3.561000 0.3360 0.3670 0.3920 0.4150 0.4340
3.585409 0.4510 0.4670 0.4830 0.4970 0.5030
3.610000 0.5080 0.5120 0.5160 0.5200 0.5240
3.634409 0.5280 0.5320 0.5370 0.5420 0.5430
3.659000 0.5440 0.5450 0.5470 0.5480 0.5490
3.683409 0.5500 0.5530 0.5540 0.5560 0.5590
3.708000 0.5610 0.5640 0.5660 0.5680 0.5720
3.732409 0.5740 0.5760 0.5770 0.5780 0.5790
3.756000 0.5800 0.5820 0.5840 0.5850 0.5880
3.780409 0.5900 0.5920 0.5960 0.5990 0.6000
3.805000 0.6010 0.6010 0.6010 0.6010 0.6020
3.829409 0.6020 0.6030 0.6030 0.6030 0.6030
3.854000 0.6050 0.6050 0.6050 0.6050 0.6070
3.878409 0.6120 0.6190 0.6250 0.6310 0.6350
3.903000 0.6400 0.6430 0.6480 0.6520 0.6580
3.927409 0.6630 0.6700 0.6770 0.6810 0.6870
3.952000 0.6900 0.6900 0.6900 0.6900 0.6900
3.976409 0.6900 0.6890 0.6830 0.6820 0.6780
4.000000 0.6750 0.6730 0.6720 0.6720 0.6730
4.024409 0.6790 0.6830 0.6870 0.6890 0.6920
4.049000 0.6950 0.6990 0.7020 0.7080 0.7160
4.073409 0.7180 0.7220 0.7270 0.7310 0.7310
4.098000 0.7330 0.7340 0.7350 0.7360 0.7360
4.122409 0.7370 0.7390 0.7390 0.7410 0.7420
4.147000 0.7420 0.7450 0.7470 0.7520 0.7540
4.171409 0.7580 0.7600 0.7640 0.7660 0.7690
4.196000 0.7710 0.7740 0.7750 0.7770 0.7800
4.220409 0.7810 0.7830 0.7860 0.7870 0.7880
4.244000 0.7880 0.7880 0.7880 0.7880 0.7880
4.268409 0.7880 0.7880 0.7880 0.7890 0.7890
4.293000 0.7910 0.7920 0.7920 0.7930 0.7930
4.317409 0.7950 0.7980 0.8030 0.8060 0.8100
4.342000 0.8120 0.8160 0.8200 0.8220 0.8240
4.366409 0.8270 0.8280 0.8290 0.8330 0.8340
4.391000 0.8340 0.8350 0.8360 0.8380 0.8380
4.415409 0.8390 0.8390 0.8400 0.8400 0.8410
4.440000 0.8410 0.8420 0.8440 0.8440 0.8440
4.464409 0.8450 0.8460 0.8460 0.8470 0.8470
4.488000 0.8490 0.8510 0.8510 0.8520 0.8520
4.512409 0.8530 0.8550 0.8560 0.8570 0.8590
4.537000 0.8610 0.8630 0.8670 0.8680 0.8690
4.561409 0.8690 0.8700 0.8700 0.8700 0.8710
4.586000 0.8710 0.8730 0.8740 0.8740 0.8750
4.610409 0.8750 0.8760 0.8760 0.8780 0.8780
4.635000 0.8780 0.8780 0.8780 0.8780 0.8790
4.659409 0.8800 0.8800 0.8800 0.8810 0.8810
4.684000 0.8820 0.8820 0.8840 0.8850 0.8860
4.708409 0.8870 0.8880 0.8880 0.8880 0.8900
4.732000 0.8900 0.8900 0.8900 0.8900 0.8900
4.756409 0.8900 0.8900 0.8900 0.8880 0.8880
4.781000 0.8870 0.8860 0.8850 0.8840 0.8790
4.805409 0.8730 0.8710 0.8710 0.8710 0.8740
4.830000 0.8730 0.8730 0.8740 0.8730 0.8730
4.854409 0.8710 0.8710 0.8700 0.8690 0.8690
4.879000 0.8690 0.8690 0.8690 0.8730 0.8710
4.903409 0.8710 0.8710 0.8710 0.8710 0.8700
4.928000 0.8700 0.8690 0.8690 0.8680 0.8690
4.952409 0.8680 0.8680 0.8680 0.8670 0.8650
4.976000 0.8650 0.8650 0.8640 0.8640 0.8640
5.000409 0.8640 0.8640 0.8640 0.8640 0.8640
5.025000 0.8640 0.8640 0.8640 0.8640 0.8640
5.049409 0.8650 0.8650 0.8650 0.8650 0.8650
5.074000 0.8650 0.8650 0.8640 0.8640 0.8630
5.098409 0.8620 0.8610 0.8590 0.8580 0.8570
5.123000 0.8570 0.8570 0.8590 0.8620 0.8670
5.147409 0.8690 0.8690 0.8690 0.8700 0.8700
5.172000 0.8700 0.8710 0.8700 0.8690 0.8690
5.196409 0.8690 0.8690 0.8690 0.8690 0.8690
5.220000 0.8690 0.8690 0.8690 0.8690 0.8690
5.244409 0.8690 0.8690 0.8690 0.8690 0.8700
5.269000 0.8700 0.8700 0.8700 0.8700 0.8700
5.293409 0.8700 0.8710 0.8710 0.8710 0.8730
5.318000 0.8730 0.8730 0.8750 0.8750 0.8780
5.342409 0.8790 0.8790 0.8790 0.8790 0.8780
5.367000 0.8760 0.8750 0.8740 0.8730 0.8710
5.391409 0.8700 0.8710 0.8710 0.8710 0.8710
5.416000 0.8710 0.8710 0.8710 0.8710 0.8710
5.440409 0.8710 0.8710 0.8710 0.8710 0.8710
5.464000 0.8710 0.8710 0.8710 0.8710 0.8710
5.488409 0.8710 0.8710 0.8710 0.8710 0.8710
5.513000 0.8710 0.8730 0.8740 0.8740 0.8750
5.537409 0.8750 0.8760 0.8760 0.8760 0.8760
5.562000 0.8760 0.8760 0.8760 0.8760 0.8760
5.586409 0.8760 0.8760 0.8760 0.8750 0.8750
5.611000 0.8740 0.8740 0.8740 0.8730 0.8730
5.635409 0.8710 0.8710 0.8700 0.8700 0.8700
5.660000 0.8690 0.8690 0.8690 0.8690 0.8690
5.684409 0.8690 0.8700 0.8700 0.8700 0.8700
5.708000 0.8700 0.8700 0.8710 0.8710 0.8710
5.732409 0.8700 0.8700 0.8700 0.8700 0.8690
5.757000 0.8690 0.8680 0.8680 0.8670 0.8650
5.781409 0.8630 0.8620 0.8620 0.8620 0.8620
5.806000 0.8610 0.8590 0.8570 0.8560 0.8520
5.830409 0.8510 0.8510 0.8500 0.8500 0.8490
5.855000 0.8490 0.8490 0.8500 0.8500 0.8490
5.879409 0.8470 0.8460 0.8450 0.8420 0.8410
5.904000 0.8380 0.8340 0.8330 0.8300 0.8280
5.928409 0.8240 0.8210 0.8180 0.8140 0.8090
5.952000 0.8040 0.7980 0.7920 0.7850 0.7770
5.976409 0.7690 0.7580 0.7530 0.7500 0.7410
6.001000 0.6990 0.6610 0.6290 0.5990 0.5700
6.025409 0.5380 0.5040 0.4640 0.4190 0.3640
6.050000 0.2980 0.2970 0.2980 0.3520 0.3680
6.074409 0.4110 0.4720 0.5350 0.5900 0.6230
6.099000 0.6310 0.6400 0.6400 0.6380 0.6350
6.123409 0.6310 0.6280 0.6230 0.6180 0.6130
6.148000 0.6080 0.6030 0.5880 0.5720 0.5560
6.172409 0.5410 0.5240 0.5070 0.4900 0.4730
6.196000 0.4550 0.4550 0.4390 0.4270 0.4040
6.220409 0.3820 0.3630 0.3450 0.3280 0.3120
6.245000 0.2970 0.2810 0.2660 0.2510 0.2350
6.269409 0.2180 0.1990 0.1790 0.1580 0.1340
6.294000 0.1250 0.1140 0.1030 0.1010 0.0790
6.318409 0.0780 0.0760 0.0730 0.0820 0.0890
6.343000 0.0960 0.1050 0.1650 0.1820 0.1820
6.367409 0.1750 0.1630 0.1520 0.1400 0.1200
6.392000 0.1110 0.1010 0.0900 0.0800 0.0710
6.416409 0.0680 0.0660 0.0660 0.0680 0.1010
6.440000 0.1230 0.1440 0.1660 0.1890 0.2120
6.464409 0.2360 0.2620 0.2860 0.3110 0.3350
6.489000 0.3610 0.3860 0.4110 0.4350 0.4610
6.513409 0.4850 0.5090 0.5320 0.5550 0.5780
6.538000 0.5990 0.6080 0.6250 0.6360 0.6410
6.562409 0.6430 0.6440 0.6440 0.6430 0.6300
6.587000 0.6130 0.5920 0.5120 0.4840 0.4620
6.611409 0.4400 0.4190 0.3970 0.3960 0.3870
6.636000 0.3860 0.3880 0.4370 0.4850 0.5100
6.660409 0.5320 0.5450 0.5640 0.5760 0.5770
6.684000 0.5780 0.5780 0.5800 0.5840 0.5860
6.708409 0.5860 0.5840 0.5360 0.5010 0.4100
6.733000 0.3870 0.3860 0.3860 0.3880 0.4100
6.757409 0.4310 0.4510 0.5000 0.5000 0.5000
6.782000 0.5000 0.4890 0.4750 0.4620 0.4490
6.806409 0.4340 0.4340 0.4320 0.4150 0.4040
6.831000 0.3930 0.3840 0.3750 0.3670 0.3590
6.855409 0.3520 0.3440 0.3350 0.3260 0.3160
6.880000 0.3040 0.2890 0.2740 0.2540 0.2450
6.904409 0.2430 0.2460 0.2630 0.2760 0.2940
6.928000 0.3140 0.3360 0.3590 0.3820 0.4030
6.952409 0.4210 0.4350 0.4450 0.4560 0.4610
6.977000 0.4610 0.4610 0.4610 0.4610 0.4610
7.001409 0.4610 0.4600 0.4490 0.4460 0.4430
7.026000 0.4400 0.4390 0.4390 0.4390 0.4390
7.050409 0.4400 0.4400 0.4400 0.4430 0.4450
7.075000 0.4480 0.4500 0.4550 0.4580 0.4620
7.099409 0.4670 0.4740 0.4750 0.4750 0.4750
7.124000 0.4720 0.4540 0.4330 0.4170 0.4020
7.148409 0.3850 0.3680 0.3490 0.3290 0.3070
7.172000 0.2920 0.2830 0.2850 0.2860 0.2870
7.196409 0.2880 0.2890 0.2770 0.2600 0.2350
7.221000 0.2040 0.1810 0.1630 0.1440 0.1230
7.245409 0.0900 0.0670 0.0590 0.0530 0.0470
7.270000 0.0450 0.0470 0.0470 0.0480 0.0480
7.294409 0.0500 0.0890 0.1200 0.1530 0.1840
7.319000 0.2170 0.2500 0.2830 0.3160 0.3470
7.343409 0.3790 0.4090 0.4380 0.4640 0.4900
7.368000 0.5130 0.5330 0.5510 0.5670 0.5800
7.392409 0.5890 0.5940 0.5990 0.6010 0.6030
7.416000 0.6060 0.6110 0.6180 0.6200 0.6210
7.440409 0.6200 0.6200 0.6190 0.6170 0.6120
7.465000 0.6110 0.6090 0.6120 0.6280 0.6460
7.489409 0.6540 0.6580 0.6590 0.6590 0.6600
7.514000 0.6600 0.6600 0.6600 0.6600 0.6600
7.538409 0.6590 0.6580 0.6550 0.6520 0.6440
7.563000 0.6360 0.6230 0.6030 0.5800 0.5490
7.587409 0.5240 0.5030 0.4970 0.4520 0.3880
7.612000 0.3500 0.3090 0.2680 0.2660 0.2660
7.636409 0.2690 0.3000 0.3330 0.3750 0.4130
7.660000 0.4500 0.4890 0.5480 0.6060 0.6060
7.684409 0.6060 0.6050 0.5920 0.5730 0.5650
7.709000 0.5640 0.5570 0.5550 0.5540 0.5530
7.733409 0.5420 0.5270 0.5180 0.5080 0.4960
7.758000 0.4770 0.4460 0.4000 0.3900 0.3730
7.782409 0.3570 0.3400 0.3390 0.3410 0.3500
7.807000 0.3550 0.3610 0.3670 0.3710 0.3780
7.831409 0.3860 0.3810 0.3800 0.3750 0.3730
7.856000 0.3710 0.3620 0.3520 0.3410 0.3290
7.880409 0.3160 0.3000 0.2810 0.2590 0.2340
7.904000 0.2050 0.1710 0.1550 0.1400 0.1180
7.928409 0.1000 0.0850 0.0790 0.0790 0.1400
7.953000 0.1530 0.1690 0.1950 0.2220 0.2480
7.977409 0.2750 0.3010 0.3280 0.3550 0.3790
8.002000 0.4520 0.4900 0.5200 0.5470 0.5700
8.026409 0.5900 0.6070 0.6230 0.6370 0.6480
8.051000 0.6580 0.6670 0.6750 0.6810 0.6870
8.075409 0.6920 0.6980 0.7020 0.7070 0.7130
8.100000 0.7190 0.7280 0.7350 0.7370 0.7400
8.124409 0.7400 0.7400 0.7400 0.7400 0.7370
8.148000 0.7350 0.7300 0.7280 0.7270 0.7240
8.172409 0.7110 0.7040 0.6940 0.6890 0.6790
8.197000 0.6670 0.6530 0.6370 0.6200 0.6020
8.221409 0.5850 0.5680 0.5540 0.5410 0.5330
8.246000 0.5310 0.5310 0.5310 0.5470 0.5680
8.270409 0.5760 0.5910 0.5960 0.5960 0.5960
8.295000 0.5940 0.5910 0.5900 0.5920 0.6060
8.319409 0.6240 0.6420 0.6590 0.6760 0.6930
8.344000 0.7080 0.7230 0.7370 0.7510 0.7630
8.368409 0.7740 0.7830 0.7910 0.7920 0.7940
8.392000 0.7970 0.7980 0.8000 0.8010 0.8030
8.416409 0.8050 0.8060 0.8070 0.8090 0.8090
8.441000 0.8100 0.8100 0.8100 0.8100 0.8100
8.465409 0.8100 0.8100 0.8100 0.8090 0.8090
8.490000 0.8070 0.7950 0.7890 0.7660 0.7430
8.514409 0.7270 0.7130 0.7040 0.6990 0.7070
8.539000 0.7170 0.7250 0.7390 0.7400 0.7400
8.563409 0.7400 0.7400 0.7400 0.7360 0.7240
8.588000 0.7120 0.6990 0.6830 0.6660 0.6480
8.612409 0.6290 0.6070 0.5830 0.5570 0.5300
8.636000 0.5000 0.4670 0.4320 0.4050 0.4040
8.660409 0.4070 0.4310 0.4420 0.4720 0.5280
8.685000 0.5280 0.5190 0.5060 0.4920 0.4790
8.709409 0.4660 0.4520 0.4520 0.4540 0.4870
8.734000 0.5040 0.5210 0.5500 0.5650 0.5790
8.758409 0.5940 0.6070 0.6210 0.6360 0.6500
8.783000 0.6610 0.6830 0.7010 0.7170 0.7300
8.807409 0.7420 0.7530 0.7630 0.7720 0.7810
8.832000 0.7910 0.7990 0.8050 0.8090 0.8100
8.856409 0.8110 0.8120 0.8150 0.8170 0.8220
8.880000 0.8280 0.8300 0.8330 0.8330 0.8340
8.904409 0.8360 0.8360 0.8380 0.8390 0.8400
8.929000 0.8400 0.8400 0.8400 0.8400 0.8400
8.953409 0.8400 0.8340 0.8230 0.8200 0.8140
8.978000 0.8090 0.8030 0.7990 0.7940 0.7890
9.002409 0.7860 0.7830 0.7810 0.7810 0.7810
9.027000 0.7810 0.7820 0.7820 0.7820 0.7830
9.051409 0.7830 0.7830 0.7850 0.7850 0.7850
9.076000 0.7870 0.7870 0.7870 0.7870 0.7870
9.100409 0.7860 0.7820 0.7760 0.7650 0.7540
9.124000 0.7430 0.7340 0.7240 0.7130 0.7040
9.148409 0.6930 0.6810 0.6670 0.6660 0.6670
9.173000 0.6770 0.6900 0.7000 0.7060 0.7110
9.197409 0.7130 0.7170 0.7190 0.7230 0.7280
9.222000 0.7350 0.7450 0.7570 0.7750 0.7970
9.246409 0.8230 0.8270 0.8290 0.8300 0.8320
9.271000 0.8320 0.8320 0.8320 0.8330 0.8340
9.295409 0.8340 0.8350 0.8350 0.8350 0.8360
9.320000 0.8360 0.8380 0.8380 0.8380 0.8390
9.344409 0.8400 0.8400 0.8410 0.8410 0.8420
9.368000 0.8420 0.8420 0.8420 0.8420 0.8410
9.392409 0.8400 0.8360 0.8320 0.8280 0.8240
9.417000 0.8210 0.8180 0.8150 0.8110 0.8060
9.441409 0.8010 0.7970 0.7910 0.7830 0.7760
9.466000 0.7660 0.7620 0.7540 0.7460 0.7360
9.490409 0.7240 0.7110 0.6960 0.6790 0.6600
9.515000 0.6400 0.6170 0.5920 0.5650 0.5380
9.539409 0.5300 0.5300 0.5280 0.5280 0.5300
9.564000 0.5590 0.5840 0.6070 0.6280 0.6470
9.588409 0.6640 0.6790 0.6930 0.7060 0.7180
9.612000 0.7290 0.7400 0.7430 0.7470 0.7470
9.636409 0.7480 0.7480 0.7500 0.7500 0.7510
9.661000 0.7530 0.7600 0.7640 0.7710 0.7750
9.685409 0.7740 0.7740 0.7660 0.7650 0.7560
9.710000 0.7480 0.7450 0.7430 0.7450 0.7570
9.734409 0.7700 0.7850 0.7940 0.8030 0.8100
9.759000 0.8180 0.8280 0.8330 0.8340 0.8350
9.783409 0.8350 0.8350 0.8350 0.8350 0.8350
9.808000 0.8350 0.8360 0.8360 0.8360 0.8360
9.832409 0.8380 0.8380 0.8380 0.8380 0.8380
9.856000 0.8360 0.8340 0.8290 0.8230 0.8150
9.880409 0.8120 0.8100 0.8070 0.8050 0.8040
9.905000 0.8030 0.8030 0.8030 0.8030 0.8050
9.929409 0.8100 0.8160 0.8220 0.8240 0.8270
9.954000 0.8280 0.8300 0.8320 0.8340 0.8350
9.978409 0.8380 0.8400 0.8420 0.8440 0.8440
10.003000 0.8450 0.8450 0.8450 0.8450 0.8440
10.027409 0.8420 0.8420 0.8420 0.8410 0.8410
10.052000 0.8400 0.8400 0.8390 0.8390 0.8380
10.076409 0.8380 0.8360 0.8360 0.8350 0.8340
10.100000 0.8320 0.8320 0.8290 0.8240 0.8180
10.124409 0.8110 0.8030 0.7950 0.7870 0.7800
10.149000 0.7720 0.7660 0.7630 0.7600 0.7600
10.173409 0.7600 0.7630 0.7800 0.7860 0.7930
10.198000 0.7990 0.8060 0.8140 0.8220 0.8290
10.222409 0.8360 0.8390 0.8390 0.8400 0.8400
10.247000 0.8410 0.8410 0.8420 0.8420 0.8440
10.271409 0.8440 0.8440 0.8450 0.8460 0.8470
10.296000 0.8500 0.8520 0.8530 0.8550 0.8550
10.320409 0.8560 0.8560 0.8550 0.8550 0.8500
10.344000 0.8440 0.8360 0.8320 0.8290 0.8290
10.368409 0.8280 0.8280 0.8280 0.8280 0.8300
10.393000 0.8320 0.8330 0.8340 0.8360 0.8380
10.417409 0.8380 0.8390 0.8400 0.8410 0.8410
10.442000 0.8420 0.8440 0.8450 0.8450 0.8460
10.466409 0.8460 0.8470 0.8470 0.8470 0.8490
10.491000 0.8490 0.8490 0.8490 0.8500 0.8500
10.515409 0.8500 0.8500 0.8510 0.8520 0.8520
10.540000 0.8520 0.8520 0.8520 0.8520 0.8520
10.564409 0.8520 0.8520 0.8510 0.8500 0.8490
10.588000 0.8470 0.8450 0.8420 0.8390 0.8330
10.612409 0.8320 0.8290 0.8270 0.8220 0.8160
10.637000 0.8070 0.7980 0.7880 0.7750 0.7620
10.661409 0.7460 0.7280 0.7070 0.6850 0.6610
10.686000 0.6340 0.6050 0.5720 0.5380 0.5010
10.710409 0.4600 0.4160 0.3790 0.3780 0.3760
10.735000 0.3780 0.4170 0.4790 0.5310 0.5740
10.759409 0.6120 0.6430 0.6700 0.6900 0.7070
10.784000 0.7190 0.7310 0.7330 0.7350 0.7400
10.808409 0.7480 0.7540 0.7620 0.7660 0.7710
10.832000 0.7720 0.7720 0.7720 0.7720 0.7720
10.856409 0.7740 0.7740 0.7740 0.7740 0.7750
10.881000 0.7750 0.7750 0.7760 0.7760 0.7750
10.905409 0.7740 0.7720 0.7690 0.7630 0.7600
10.930000 0.7590 0.7590 0.7590 0.7600 0.7680
10.954409 0.7740 0.7780 0.7830 0.7880 0.7920
10.979000 0.7950 0.7990 0.8040 0.8070 0.8110
11.003409 0.8160 0.8200 0.8210 0.8210 0.8210
11.028000 0.8210 0.8210 0.8210 0.8210 0.8210
11.052409 0.8210 0.8210 0.8210 0.8210 0.8210
11.076000 0.8210 0.8210 0.8200 0.8200 0.8180
11.100409 0.8180 0.8160 0.8150 0.8140 0.8120
11.125000 0.8110 0.8100 0.8100 0.8100 0.8090
11.149409 0.8070 0.8070 0.8060 0.8060 0.8050
11.174000 0.8040 0.8040 0.8030 0.8010 0.8010
11.198409 0.8000 0.8000 0.8000 0.7990 0.7980
11.223000 0.7950 0.7920 0.7910 0.7890 0.7880
11.247409 0.7870 0.7830 0.7800 0.7760 0.7750
11.272000 0.7740 0.7740 0.7720 0.7720 0.7720
11.296409 0.7720 0.7720 0.7720 0.7720 0.7720
11.320000 0.7720 0.7720 0.7720 0.7720 0.7720
11.344409 0.7720 0.7720 0.7720 0.7720 0.7720
11.369000 0.7720 0.7720 0.7720 0.7720 0.7720
11.393409 0.7720 0.7720 0.7720 0.7720 0.7720
11.418000 0.7720 0.7720 0.7720 0.7740 0.7740
11.442409 0.7750 0.7770 0.7780 0.7800 0.7800
11.467000 0.7810 0.7810 0.7820 0.7820 0.7820
11.491409 0.7820 0.7820 0.7820 0.7820 0.7780
11.516000 0.7770 0.7750 0.7720 0.7720 0.7720
11.540409 0.7740 0.7740 0.7740 0.7740 0.7740
11.564000 0.7710 0.7690 0.7660 0.7630 0.7580
11.588409 0.7540 0.7480 0.7420 0.7350 0.7280
11.613000 0.7180 0.7070 0.6950 0.6810 0.6650
11.637409 0.6470 0.6280 0.6060 0.5820 0.5550
11.662000 0.5260 0.4950 0.4600 0.4390 0.4350
11.686409 0.4340 0.4340 0.4370 0.4780 0.5010
11.711000 0.5210 0.5390 0.5560 0.5710 0.5820
11.735409 0.5920 0.6030 0.6120 0.6200 0.6290
11.760000 0.6360 0.6430 0.6490 0.6580 0.6650
11.784409 0.6730 0.6830 0.6930 0.7040 0.7070
11.808000 0.7100 0.7100 0.7100 0.7100 0.7100
11.832409 0.7080 0.6990 0.6900 0.6850 0.6790
11.857000 0.6730 0.6640 0.6550 0.6460 0.6410
11.881409 0.6360 0.6340 0.6340 0.6340 0.6340
11.906000 0.6350 0.6350 0.6360 0.6370 0.6380
11.930409 0.6460 0.6520 0.6570 0.6610 0.6660
11.955000 0.6710 0.6750 0.6790 0.6830 0.6870
11.979409 0.6900 0.6950 0.6990 0.7020 0.7060
12.004000 0.7110 0.7140 0.7190 0.7240 0.7280
12.028409 0.7330 0.7370 0.7390 0.7400 0.7410
12.052000 0.7410 0.7410 0.7410 0.7400 0.7370
12.076409 0.7340 0.7300 0.7180 0.7160 0.7130
12.101000 0.7120 0.7070 0.7040 0.6990 0.6930
12.125409 0.6870 0.6810 0.6730 0.6670 0.6610
12.150000 0.6540 0.6520 0.6430 0.6410 0.6400
12.174409 0.6370 0.6370 0.6380 0.6410 0.6440
12.199000 0.6480 0.6520 0.6540 0.6580 0.6610
12.223409 0.6650 0.6640 0.6640 0.6630 0.6610
12.248000 0.6600 0.6530 0.6430 0.6310 0.6180
12.272409 0.6050 0.5910 0.5790 0.5730 0.5710
12.296000 0.5700 0.5680 0.5660 0.5670 0.5700
12.320409 0.5740 0.5800 0.5880 0.5950 0.6030
12.345000 0.6120 0.6190 0.6260 0.6300 0.6340
12.369409 0.6350 0.6370 0.6400 0.6420 0.6470
12.394000 0.6520 0.6590 0.6610 0.6630 0.6640
12.418409 0.6640 0.6650 0.6660 0.6670 0.6690
12.443000 0.6710 0.6720 0.6730 0.6750 0.6770
12.467409 0.6790 0.6810 0.6810 0.6810 0.6810
12.492000 0.6830 0.6840 0.6880 0.6940 0.6950
12.516409 0.6950 0.6960 0.6980 0.6990 0.7010
12.540000 0.7020 0.7050 0.7060 0.7070 0.7070
12.564409 0.7080 0.7100 0.7110 0.7130 0.7140
12.589000 0.7160 0.7170 0.7180 0.7190 0.7190
12.613409 0.7210 0.7220 0.7240 0.7250 0.7250
12.638000 0.7250 0.7270 0.7270 0.7270 0.7270
12.662409 0.7270 0.7270 0.7270 0.7270 0.7270
12.687000 0.7270 0.7270 0.7270 0.7270 0.7250
12.711409 0.7240 0.7240 0.7220 0.7190 0.7170
12.736000 0.7160 0.7140 0.7130 0.7110 0.7080
12.760409 0.7050 0.7010 0.6950 0.6880 0.6780
12.784000 0.6670 0.6540 0.6380 0.6350 0.6290
12.808409 0.6230 0.6170 0.6140 0.6080 0.6030
12.833000 0.5990 0.5970 0.6000 0.6090 0.6180
12.857409 0.6290 0.6520 0.6550 0.6670 0.6810
12.882000 0.7010 0.7100 0.7190 0.7310 0.7360
12.906409 0.7410 0.7460 0.7510 0.7530 0.7580
12.931000 0.7620 0.7640 0.7660 0.7690 0.7710
12.955409 0.7720 0.7740 0.7750 0.7760 0.7770
12.980000 0.7780 0.7780 0.7780 0.7780 0.7780
13.004409 0.7780 0.7770 0.7770 0.7770 0.7760
13.028000 0.7760 0.7750 0.7710 0.7690 0.7660
13.052409 0.7630 0.7600 0.7570 0.7540 0.7500
13.077000 0.7450 0.7400 0.7330 0.7250 0.7170
13.101409 0.7060 0.6950 0.6810 0.6720 0.6590
13.126000 0.6420 0.6230 0.6010 0.5760 0.5490
13.150409 0.5210 0.4910 0.4600 0.4270 0.4200
13.175000 0.4110 0.4020 0.4020 0.4020 0.4040
13.199409 0.4510 0.4720 0.4910 0.5200 0.5470
13.224000 0.5710 0.5920 0.6130 0.6300 0.6470
13.248409 0.6600 0.6730 0.6840 0.6940 0.7020
13.272000 0.7100 0.7160 0.7220 0.7250 0.7300
13.296409 0.7330 0.7350 0.7370 0.7400 0.7410
13.321000 0.7430 0.7450 0.7460 0.7470 0.7470
13.345409 0.7470 0.7470 0.7470 0.7450 0.7450
13.370000 0.7420 0.7400 0.7370 0.7340 0.7300
13.394409 0.7190 0.7170 0.7130 0.7070 0.7010
13.419000 0.6920 0.6790 0.6640 0.6470 0.6280
13.443409 0.6070 0.5840 0.5610 0.5370 0.5130
13.468000 0.4890 0.4640 0.4420 0.4190 0.3970
13.492409 0.3760 0.3640 0.3610 0.3560 0.3570
13.516000 0.3700 0.3810 0.3940 0.4100 0.4270
13.540409 0.4480 0.4690 0.4950 0.5200 0.5480
13.565000 0.5670 0.5770 0.5850 0.5860 0.5880
13.589409 0.5880 0.5820 0.5780 0.5720 0.5640
13.614000 0.5550 0.5450 0.5350 0.5240 0.5120
13.638409 0.5020 0.4910 0.4830 0.4750 0.4690
13.663000 0.4660 0.4630 0.4660 0.4710 0.4890
13.687409 0.5260 0.5490 0.5710 0.5910 0.6090
13.712000 0.6280 0.6430 0.6580 0.6720 0.6840
13.736409 0.6950 0.7060 0.7140 0.7230 0.7300
13.760000 0.7350 0.7390 0.7400 0.7410 0.7420
13.784409 0.7450 0.7480 0.7520 0.7520 0.7530
13.809000 0.7560 0.7580 0.7620 0.7640 0.7650
13.833409 0.7660 0.7680 0.7690 0.7710 0.7740
13.858000 0.7760 0.7760 0.7770 0.7770 0.7770
13.882409 0.7770 0.7770 0.7770 0.7770 0.7770
13.907000 0.7770 0.7760 0.7760 0.7760 0.7760
13.931409 0.7770 0.7780 0.7800 0.7820 0.7830
13.956000 0.7880 0.7890 0.7890 0.7890 0.7890
13.980409 0.7890 0.7890 0.7890 0.7890 0.7890
14.004000 0.7890 0.7890 0.7890 0.7890 0.7890
14.028409 0.7880 0.7870 0.7860 0.7850 0.7820
14.053000 0.7800 0.7780 0.7760 0.7750 0.7720
14.077409 0.7700 0.7690 0.7660 0.7640 0.7600
14.102000 0.7570 0.7530 0.7500 0.7430 0.7390
14.126409 0.7330 0.7280 0.7220 0.7160 0.7100
14.151000 0.7010 0.6920 0.6810 0.6690 0.6530
14.175409 0.6350 0.6130 0.5950 0.5680 0.5390
14.200000 0.5180 0.5120 0.5040 0.4980 0.4910
14.224409 0.4900 0.4900 0.4900 0.4910 0.4980
14.248000 0.5070 0.5140 0.5220 0.5310 0.5380
14.272409 0.5470 0.5530 0.5800 0.5860 0.5890
14.297000 0.5950 0.5990 0.5990 0.5990 0.5990
14.321409 0.5970 0.5950 0.5840 0.5720 0.5600
14.346000 0.5490 0.5310 0.5180 0.5130 0.5090
14.370409 0.5060 0.5000 0.4980 0.4980 0.4980
14.395000 0.5010 0.5200 0.5390 0.5590 0.5770
14.419409 0.5950 0.6120 0.6290 0.6440 0.6600
14.444000 0.6750 0.6880 0.7000 0.7120 0.7220
14.468409 0.7300 0.7360 0.7410 0.7430 0.7450
14.492000 0.7450 0.7460 0.7460 0.7480 0.7530
14.516409 0.7560 0.7590 0.7630 0.7640 0.7660
14.541000 0.7660 0.7660 0.7680 0.7690 0.7690
14.565409 0.7690 0.7700 0.7700 0.7700 0.7710
14.590000 0.7710 0.7710 0.7720 0.7720 0.7720
14.614409 0.7720 0.7740 0.7740 0.7740 0.7740
14.639000 0.7740 0.7740 0.7740 0.7740 0.7750
14.663409 0.7750 0.7760 0.7760 0.7760 0.7770
14.688000 0.7770 0.7770 0.7770 0.7770 0.7770
14.712409 0.7770 0.7770 0.7770 0.7770 0.7770
14.736000 0.7760 0.7760 0.7750 0.7750 0.7740
14.760409 0.7740 0.7720 0.7720 0.7710 0.7700
14.785000 0.7690 0.7680 0.7660 0.7650 0.7640
14.809409 0.7630 0.7620 0.7600 0.7590 0.7580
14.834000 0.7560 0.7540 0.7530 0.7510 0.7500
14.858409 0.7470 0.7460 0.7450 0.7430 0.7420
14.883000 0.7410 0.7400 0.7390 0.7370 0.7360
14.907409 0.7350 0.7330 0.7330 0.7300 0.7280
14.932000 0.7270 0.7250 0.7230 0.7220 0.7190
14.956409 0.7180 0.7170 0.7140 0.7130 0.7120
14.980000 0.7110 0.7050 0.7010 0.6980 0.6940
15.004409 0.6920 0.6930 0.6940 0.6950 0.6960
15.029000 0.6980 0.7000 0.7010 0.7040 0.7050
15.053409 0.7080 0.7080 0.7100 0.7100 0.7100
15.078000 0.7100 0.7100 0.7100 0.7080 0.7080
15.102409 0.7040 0.6960 0.6930 0.6880 0.6830
15.127000 0.6770 0.6710 0.6640 0.6550 0.6470
15.151409 0.6370 0.6260 0.6150 0.6020 0.5890
15.176000 0.5820 0.5790 0.5710 0.5640 0.5570
15.200409 0.5530 0.5510 0.5480 0.5470 0.5440
15.224000 0.5440 0.5440 0.5430 0.5430 0.5430
15.248409 0.5430 0.5440 0.5430 0.5450 0.5490
15.273000 0.5550 0.5600 0.5670 0.5760 0.5830
15.297409 0.5910 0.6010 0.6090 0.6180 0.6260
15.322000 0.6320 0.6370 0.6420 0.6470
##END=
