##TITLE=ALUMINUM PALMITATE
##JCAMP-DX=4.24
##DATA TYPE=INFRARED SPECTRUM
##CLASS=COBLENTZ
##ORIGIN=WYANDOTTE CHEMICALS CORP., WYANDOTTE, MICHIGAN, USA
##OWNER=COBLENTZ SOCIETY
Collection (C) 2018 copyright by the U.S. Secretary of Commerce
on behalf of the United States of America. All rights reserved.
##DATE=Not specified, most likely prior to 1970
##MOLFORM=C48 H93 O6 Al
##SOURCE REFERENCE=COBLENTZ NO. 1340
##$NIST ID=B6001340
##$NIST SOURCE=COBLENTZ
##$NIST IMAGE=cob1340
##SPECTROMETER/DATA SYSTEM=Not specified, most likely a prism, grating, or hybrid spectrometer.
##STATE=SOLID (MINERAL OIL MULL)
##SAMPLING PROCEDURE=TRANSMISSION
##RESOLUTION=4
##DATA PROCESSING=DIGITIZED BY NIST FROM HARD COPY
##XUNITS=MICROMETERS
##YUNITS=TRANSMITTANCE
##XFACTOR=1.000000
##YFACTOR=1
##DELTAX=000.006806
##FIRSTX=2.034
##LASTX=15.9996
##FIRSTY=0.972
##MAXX=15.9996
##MINX=2.034
##MAXY=0.979
##MINY=0.027
##NPOINTS=2053
##XYDATA=(X++(Y..Y))
2.034000 0.9720 0.9720 0.9720 0.9720 0.9720
2.068047 0.9720 0.9720 0.9720 0.9720 0.9720
2.102000 0.9720 0.9740 0.9790 0.9790 0.9790
2.136047 0.9790 0.9790 0.9790 0.9790 0.9790
2.170000 0.9740 0.9690 0.9640 0.9570 0.9500
2.204047 0.9410 0.9340 0.9240 0.9160 0.9090
2.238000 0.9020 0.9000 0.9000 0.9000 0.9000
2.272047 0.9000 0.9000 0.9000 0.9000 0.9000
2.306000 0.8980 0.8980 0.8980 0.8980 0.8980
2.340047 0.8970 0.8970 0.8970 0.8970 0.8980
2.374000 0.8980 0.8980 0.9000 0.9000 0.9020
2.408047 0.9040 0.9090 0.9160 0.9190 0.9190
2.442000 0.9210 0.9240 0.9260 0.9280 0.9290
2.476047 0.9310 0.9310 0.9310 0.9310 0.9310
2.510000 0.9330 0.9330 0.9330 0.9330 0.9330
2.544047 0.9330 0.9330 0.9330 0.9330 0.9330
2.579000 0.9340 0.9340 0.9340 0.9360 0.9380
2.613047 0.9380 0.9380 0.9380 0.9380 0.9380
2.647000 0.9340 0.9260 0.9100 0.8760 0.8270
2.681047 0.7910 0.7870 0.7910 0.7990 0.8370
2.715000 0.8560 0.8710 0.8810 0.8920 0.8980
2.749047 0.9000 0.9000 0.8920 0.8850 0.8800
2.783000 0.8760 0.8710 0.8630 0.8560 0.8470
2.817047 0.8440 0.8390 0.8320 0.8210 0.8160
2.851000 0.8110 0.8090 0.8090 0.8090 0.8090
2.885047 0.8080 0.8060 0.8030 0.8010 0.7990
2.919000 0.7970 0.7970 0.7970 0.7970 0.7990
2.953047 0.8040 0.8080 0.8110 0.8130 0.8160
2.987000 0.8180 0.8200 0.8210 0.8230 0.8230
3.021047 0.8230 0.8230 0.8210 0.8210 0.8210
3.055000 0.8210 0.8200 0.8200 0.8180 0.8180
3.089047 0.8180 0.8180 0.8180 0.8160 0.8150
3.123000 0.8110 0.8060 0.8030 0.8010 0.7990
3.157047 0.7920 0.7910 0.7890 0.7890 0.7870
3.191000 0.7840 0.7800 0.7790 0.7790 0.7770
3.225047 0.7720 0.7650 0.7600 0.7530 0.7530
3.259000 0.7460 0.7320 0.7200 0.7080 0.6930
3.293047 0.6760 0.6540 0.6260 0.5890 0.5410
3.327000 0.5110 0.4810 0.4100 0.3150 0.2340
3.361047 0.1500 0.0850 0.0470 0.0290 0.0270
3.395000 0.0270 0.0290 0.0300 0.0300 0.0300
3.429047 0.0300 0.0300 0.0300 0.0350 0.0390
3.463000 0.0390 0.0390 0.0390 0.0390 0.0390
3.497047 0.0390 0.0390 0.0390 0.0410 0.0440
3.531000 0.0630 0.1060 0.1840 0.2600 0.3420
3.565047 0.4190 0.4860 0.5730 0.6020 0.6280
3.599000 0.6520 0.6740 0.6910 0.7080 0.7220
3.633047 0.7320 0.7410 0.7440 0.7500 0.7500
3.667000 0.7440 0.7430 0.7410 0.7410 0.7430
3.701047 0.7480 0.7530 0.7600 0.7680 0.7700
3.736000 0.7680 0.7630 0.7630 0.7680 0.7700
3.770047 0.7730 0.7750 0.7790 0.7800 0.7840
3.804000 0.7850 0.7890 0.7920 0.7960 0.7990
3.838047 0.8030 0.8090 0.8110 0.8150 0.8200
3.872000 0.8210 0.8210 0.8230 0.8250 0.8280
3.906047 0.8300 0.8330 0.8400 0.8420 0.8490
3.940000 0.8510 0.8540 0.8590 0.8630 0.8680
3.974047 0.8710 0.8730 0.8760 0.8780 0.8780
4.008000 0.8800 0.8800 0.8810 0.8860 0.8900
4.042047 0.8900 0.8920 0.8920 0.8920 0.8920
4.076000 0.8920 0.8930 0.8930 0.8950 0.8970
4.110047 0.8970 0.8980 0.9000 0.9000 0.9020
4.144000 0.9020 0.9020 0.9020 0.9020 0.9020
4.178047 0.9020 0.9020 0.9020 0.9020 0.9020
4.212000 0.9000 0.9000 0.9000 0.9000 0.9000
4.246047 0.9000 0.8980 0.8980 0.8980 0.8980
4.280000 0.9000 0.9000 0.9000 0.9000 0.9000
4.314047 0.9020 0.9020 0.9050 0.9050 0.9050
4.348000 0.9090 0.9090 0.9100 0.9120 0.9120
4.382047 0.9140 0.9140 0.9140 0.9140 0.9140
4.416000 0.9120 0.9140 0.9140 0.9140 0.9140
4.450047 0.9140 0.9140 0.9160 0.9190 0.9190
4.484000 0.9190 0.9190 0.9190 0.9190 0.9190
4.518047 0.9190 0.9190 0.9190 0.9190 0.9190
4.552000 0.9190 0.9190 0.9190 0.9190 0.9190
4.586047 0.9190 0.9210 0.9210 0.9190 0.9190
4.620000 0.9190 0.9190 0.9190 0.9190 0.9190
4.654047 0.9190 0.9210 0.9210 0.9210 0.9210
4.688000 0.9210 0.9210 0.9210 0.9210 0.9210
4.722047 0.9210 0.9210 0.9210 0.9210 0.9190
4.756000 0.9190 0.9210 0.9210 0.9210 0.9210
4.790047 0.9210 0.9210 0.9210 0.9210 0.9210
4.825000 0.9210 0.9220 0.9220 0.9240 0.9240
4.859047 0.9240 0.9240 0.9240 0.9240 0.9240
4.893000 0.9240 0.9240 0.9240 0.9220 0.9220
4.927047 0.9220 0.9210 0.9210 0.9190 0.9210
4.961000 0.9190 0.9170 0.9170 0.9170 0.9170
4.995047 0.9170 0.9170 0.9170 0.9170 0.9170
5.029000 0.9170 0.9170 0.9170 0.9190 0.9190
5.063047 0.9190 0.9190 0.9190 0.9190 0.9190
5.097000 0.9190 0.9210 0.9210 0.9210 0.9210
5.131047 0.9190 0.9190 0.9170 0.9190 0.9190
5.165000 0.9190 0.9210 0.9210 0.9210 0.9210
5.199047 0.9210 0.9210 0.9210 0.9210 0.9210
5.233000 0.9210 0.9210 0.9210 0.9210 0.9210
5.267047 0.9210 0.9190 0.9190 0.9190 0.9170
5.301000 0.9120 0.9120 0.9120 0.9120 0.9120
5.335047 0.9120 0.9120 0.9120 0.9120 0.9120
5.369000 0.9120 0.9120 0.9160 0.9160 0.9160
5.403047 0.9160 0.9160 0.9160 0.9160 0.9160
5.437000 0.9140 0.9120 0.9120 0.9120 0.9100
5.471047 0.9100 0.9090 0.9070 0.9070 0.9070
5.505000 0.9050 0.9050 0.9050 0.9050 0.9040
5.539047 0.9040 0.9040 0.9020 0.8980 0.8930
5.573000 0.8860 0.8860 0.8760 0.8690 0.8680
5.607047 0.8680 0.8660 0.8640 0.8610 0.8540
5.641000 0.8510 0.8470 0.8420 0.8390 0.8330
5.675047 0.8280 0.8230 0.8200 0.8130 0.8060
5.709000 0.7970 0.7850 0.7650 0.7410 0.7100
5.743047 0.6780 0.6430 0.6110 0.5800 0.5700
5.777000 0.5700 0.5770 0.5950 0.6130 0.6140
5.811047 0.6130 0.6090 0.5970 0.5920 0.5970
5.845000 0.6130 0.6360 0.6540 0.6720 0.6950
5.879047 0.7070 0.7220 0.7380 0.7460 0.7500
5.913000 0.7500 0.7500 0.7510 0.7530 0.7600
5.947047 0.7600 0.7600 0.7600 0.7600 0.7600
5.982000 0.7580 0.7560 0.7460 0.7320 0.7200
6.016047 0.7120 0.7070 0.7020 0.6960 0.6860
6.050000 0.6780 0.6660 0.6500 0.6360 0.6260
6.084047 0.6210 0.6160 0.6060 0.5990 0.5900
6.118000 0.5780 0.5660 0.5510 0.5300 0.5080
6.152047 0.4960 0.4820 0.4520 0.4140 0.3780
6.186000 0.3350 0.2960 0.2550 0.2120 0.1720
6.220047 0.1350 0.1040 0.0780 0.0630 0.0580
6.254000 0.0510 0.0490 0.0470 0.0490 0.0510
6.288047 0.0590 0.0770 0.1020 0.1360 0.1740
6.322000 0.2140 0.2550 0.2920 0.3270 0.3570
6.356047 0.3900 0.4050 0.4220 0.4340 0.4480
6.390000 0.4550 0.4700 0.4740 0.4720 0.4650
6.424047 0.4410 0.4210 0.4000 0.3710 0.3370
6.458000 0.3030 0.2700 0.2310 0.2270 0.2310
6.492047 0.2770 0.3370 0.3970 0.4460 0.4820
6.526000 0.5270 0.5460 0.5660 0.5800 0.5870
6.560047 0.6020 0.6110 0.6110 0.6090 0.6070
6.594000 0.6020 0.6010 0.5970 0.5950 0.5870
6.628047 0.5750 0.5590 0.5420 0.5220 0.5110
6.662000 0.5000 0.4740 0.4430 0.4070 0.3680
6.696047 0.3230 0.2730 0.2150 0.1780 0.1470
6.730000 0.1250 0.1060 0.0940 0.0850 0.0770
6.764047 0.0660 0.0590 0.0560 0.0530 0.0460
6.798000 0.0440 0.0440 0.0470 0.0490 0.0540
6.832047 0.0590 0.0660 0.0750 0.0830 0.0950
6.866000 0.1070 0.1230 0.1380 0.1540 0.1710
6.900047 0.1880 0.2030 0.2170 0.2290 0.2380
6.934000 0.2480 0.2560 0.2750 0.2910 0.3080
6.968047 0.3270 0.3470 0.3680 0.3880 0.4050
7.002000 0.4190 0.4280 0.4330 0.4360 0.4360
7.036047 0.4360 0.4340 0.4330 0.4330 0.4360
7.070000 0.4550 0.4790 0.4980 0.5270 0.5340
7.104047 0.5350 0.5350 0.5320 0.5250 0.5010
7.139000 0.4980 0.4930 0.4930 0.4930 0.5250
7.173047 0.5510 0.5530 0.5530 0.5510 0.5080
7.207000 0.4960 0.4820 0.4570 0.4240 0.3880
7.241047 0.3520 0.3160 0.2870 0.2820 0.2840
7.275000 0.3110 0.3450 0.3860 0.4120 0.4290
7.309047 0.4410 0.4520 0.4600 0.4690 0.4880
7.343000 0.5290 0.5410 0.5470 0.5510 0.5540
7.377047 0.5580 0.5630 0.5700 0.5750 0.5780
7.411000 0.5820 0.5830 0.5850 0.5850 0.5850
7.445047 0.5830 0.5820 0.5820 0.5820 0.5820
7.479000 0.5800 0.5730 0.5660 0.5610 0.5530
7.513047 0.5470 0.5420 0.5390 0.5370 0.5390
7.547000 0.5470 0.5560 0.5660 0.5770 0.5870
7.581047 0.5900 0.5990 0.6040 0.6070 0.6110
7.615000 0.6110 0.6130 0.6110 0.6110 0.6110
7.649047 0.6110 0.6110 0.6110 0.6130 0.6140
7.683000 0.6140 0.6160 0.6190 0.6210 0.6250
7.717047 0.6300 0.6310 0.6360 0.6420 0.6430
7.751000 0.6470 0.6500 0.6520 0.6540 0.6540
7.785047 0.6550 0.6550 0.6540 0.6520 0.6500
7.819000 0.6480 0.6500 0.6540 0.6550 0.6570
7.853047 0.6590 0.6590 0.6620 0.6620 0.6640
7.887000 0.6640 0.6640 0.6620 0.6600 0.6600
7.921047 0.6590 0.6590 0.6600 0.6600 0.6600
7.955000 0.6620 0.6620 0.6640 0.6640 0.6640
7.989047 0.6640 0.6640 0.6640 0.6640 0.6640
8.023000 0.6640 0.6640 0.6620 0.6590 0.6570
8.057047 0.6570 0.6570 0.6570 0.6570 0.6570
8.091000 0.6570 0.6570 0.6570 0.6570 0.6570
8.125047 0.6570 0.6570 0.6570 0.6570 0.6570
8.159000 0.6570 0.6570 0.6570 0.6570 0.6570
8.193047 0.6570 0.6570 0.6570 0.6570 0.6570
8.228000 0.6570 0.6550 0.6540 0.6520 0.6500
8.262047 0.6480 0.6450 0.6450 0.6430 0.6430
8.296000 0.6420 0.6420 0.6420 0.6400 0.6380
8.330047 0.6380 0.6400 0.6420 0.6450 0.6470
8.364000 0.6500 0.6500 0.6500 0.6470 0.6430
8.398047 0.6420 0.6380 0.6360 0.6350 0.6300
8.432000 0.6230 0.6180 0.6130 0.6090 0.6040
8.466047 0.6020 0.5970 0.5940 0.5940 0.5920
8.500000 0.5920 0.5920 0.5920 0.5940 0.5940
8.534047 0.5950 0.5970 0.5990 0.6010 0.6020
8.568000 0.6040 0.6060 0.6070 0.6090 0.6110
8.602047 0.6130 0.6140 0.6160 0.6180 0.6190
8.636000 0.6210 0.6210 0.6230 0.6250 0.6260
8.670047 0.6300 0.6310 0.6330 0.6350 0.6360
8.704000 0.6380 0.6400 0.6420 0.6450 0.6500
8.738047 0.6540 0.6590 0.6600 0.6600 0.6620
8.772000 0.6620 0.6640 0.6660 0.6660 0.6660
8.806047 0.6660 0.6660 0.6640 0.6640 0.6620
8.840000 0.6620 0.6600 0.6600 0.6570 0.6540
8.874047 0.6500 0.6430 0.6330 0.6230 0.6140
8.908000 0.6110 0.6090 0.6110 0.6130 0.6140
8.942047 0.6210 0.6250 0.6310 0.6400 0.6450
8.976000 0.6520 0.6550 0.6570 0.6600 0.6600
9.010047 0.6600 0.6600 0.6600 0.6600 0.6590
9.044000 0.6570 0.6550 0.6520 0.6520 0.6520
9.078047 0.6520 0.6540 0.6540 0.6550 0.6550
9.112000 0.6550 0.6590 0.6590 0.6620 0.6660
9.146047 0.6710 0.6710 0.6720 0.6720 0.6720
9.180000 0.6740 0.6740 0.6780 0.6790 0.6810
9.214047 0.6830 0.6830 0.6830 0.6830 0.6840
9.248000 0.6840 0.6830 0.6830 0.6830 0.6830
9.282047 0.6830 0.6830 0.6830 0.6830 0.6830
9.316000 0.6830 0.6830 0.6840 0.6840 0.6840
9.350047 0.6840 0.6840 0.6840 0.6860 0.6860
9.385000 0.6860 0.6860 0.6860 0.6860 0.6880
9.419047 0.6880 0.6900 0.6900 0.6910 0.6910
9.453000 0.6930 0.6930 0.6930 0.6950 0.6950
9.487047 0.6950 0.6950 0.6980 0.7000 0.7020
9.521000 0.7030 0.7070 0.7080 0.7080 0.7080
9.555047 0.7080 0.7100 0.7080 0.7080 0.7080
9.589000 0.7070 0.7050 0.7030 0.7030 0.7030
9.623047 0.7030 0.7020 0.7020 0.7030 0.7030
9.657000 0.7030 0.7030 0.7030 0.7020 0.7020
9.691047 0.7020 0.7020 0.6980 0.6910 0.6880
9.725000 0.6880 0.6900 0.6900 0.6860 0.6830
9.759047 0.6780 0.6720 0.6710 0.6710 0.6660
9.793000 0.6620 0.6590 0.6540 0.6520 0.6470
9.827047 0.6400 0.6350 0.6300 0.6230 0.6180
9.861000 0.6070 0.6010 0.5970 0.5900 0.5870
9.895047 0.5780 0.5710 0.5630 0.5560 0.5470
9.929000 0.5350 0.5250 0.5100 0.5030 0.4960
9.963047 0.4880 0.4740 0.4650 0.4500 0.4330
9.997000 0.4100 0.3880 0.3640 0.3390 0.3160
10.031047 0.2940 0.2770 0.2600 0.2430 0.2270
10.065000 0.2100 0.1950 0.1780 0.1620 0.1470
10.099047 0.1380 0.1280 0.1210 0.1140 0.1130
10.133000 0.1110 0.1060 0.1020 0.1010 0.1020
10.167047 0.1020 0.1040 0.1090 0.1160 0.1300
10.201000 0.1500 0.1640 0.1780 0.1930 0.2120
10.235047 0.2320 0.2530 0.2770 0.3010 0.3250
10.269000 0.3510 0.3760 0.3980 0.4210 0.4410
10.303047 0.4620 0.4790 0.4960 0.5270 0.5410
10.337000 0.5540 0.5650 0.5750 0.5850 0.5940
10.371047 0.6010 0.6060 0.6160 0.6230 0.6300
10.405000 0.6350 0.6380 0.6430 0.6480 0.6520
10.439047 0.6590 0.6640 0.6670 0.6720 0.6740
10.474000 0.6760 0.6780 0.6790 0.6830 0.6840
10.508047 0.6840 0.6860 0.6880 0.6880 0.6900
10.542000 0.6900 0.6910 0.6910 0.6930 0.6950
10.576047 0.6980 0.7000 0.7030 0.7070 0.7100
10.610000 0.7140 0.7150 0.7170 0.7190 0.7200
10.644047 0.7220 0.7260 0.7260 0.7260 0.7270
10.678000 0.7270 0.7270 0.7270 0.7290 0.7310
10.712047 0.7310 0.7310 0.7310 0.7310 0.7310
10.746000 0.7310 0.7310 0.7320 0.7320 0.7320
10.780047 0.7320 0.7320 0.7340 0.7340 0.7340
10.814000 0.7340 0.7340 0.7340 0.7340 0.7360
10.848047 0.7410 0.7410 0.7430 0.7440 0.7480
10.882000 0.7510 0.7510 0.7510 0.7510 0.7510
10.916047 0.7530 0.7510 0.7510 0.7510 0.7510
10.950000 0.7530 0.7550 0.7560 0.7580 0.7600
10.984047 0.7610 0.7630 0.7630 0.7630 0.7630
11.018000 0.7650 0.7650 0.7650 0.7670 0.7670
11.052047 0.7670 0.7680 0.7680 0.7680 0.7680
11.086000 0.7680 0.7680 0.7700 0.7700 0.7720
11.120047 0.7720 0.7730 0.7730 0.7730 0.7720
11.154000 0.7700 0.7650 0.7630 0.7610 0.7610
11.188047 0.7600 0.7600 0.7600 0.7600 0.7600
11.222000 0.7610 0.7600 0.7600 0.7600 0.7600
11.256047 0.7600 0.7560 0.7550 0.7530 0.7510
11.290000 0.7510 0.7510 0.7510 0.7530 0.7550
11.324047 0.7600 0.7610 0.7610 0.7630 0.7650
11.358000 0.7630 0.7630 0.7630 0.7610 0.7610
11.392047 0.7560 0.7550 0.7550 0.7530 0.7500
11.426000 0.7500 0.7480 0.7480 0.7440 0.7440
11.460047 0.7440 0.7440 0.7480 0.7500 0.7500
11.494000 0.7510 0.7510 0.7530 0.7550 0.7560
11.528047 0.7600 0.7600 0.7610 0.7610 0.7650
11.562000 0.7670 0.7670 0.7680 0.7680 0.7680
11.596047 0.7680 0.7680 0.7680 0.7680 0.7680
11.631000 0.7700 0.7700 0.7700 0.7700 0.7700
11.665047 0.7680 0.7680 0.7680 0.7680 0.7680
11.699000 0.7680 0.7680 0.7680 0.7680 0.7680
11.733047 0.7680 0.7680 0.7680 0.7680 0.7680
11.767000 0.7670 0.7670 0.7650 0.7650 0.7630
11.801047 0.7610 0.7610 0.7610 0.7610 0.7610
11.835000 0.7610 0.7610 0.7630 0.7630 0.7650
11.869047 0.7650 0.7650 0.7650 0.7650 0.7650
11.903000 0.7650 0.7650 0.7650 0.7650 0.7650
11.937047 0.7650 0.7650 0.7650 0.7650 0.7650
11.971000 0.7650 0.7650 0.7650 0.7650 0.7650
12.005047 0.7670 0.7650 0.7650 0.7630 0.7630
12.039000 0.7630 0.7630 0.7630 0.7630 0.7630
12.073047 0.7630 0.7610 0.7600 0.7600 0.7560
12.107000 0.7550 0.7550 0.7550 0.7550 0.7550
12.141047 0.7550 0.7550 0.7550 0.7550 0.7550
12.175000 0.7550 0.7610 0.7610 0.7610 0.7610
12.209047 0.7610 0.7610 0.7610 0.7610 0.7610
12.243000 0.7610 0.7600 0.7580 0.7550 0.7560
12.277047 0.7550 0.7550 0.7550 0.7530 0.7530
12.311000 0.7530 0.7530 0.7530 0.7510 0.7510
12.345047 0.7510 0.7500 0.7460 0.7440 0.7440
12.379000 0.7440 0.7430 0.7440 0.7430 0.7430
12.413047 0.7430 0.7430 0.7430 0.7430 0.7430
12.447000 0.7430 0.7430 0.7430 0.7410 0.7410
12.481047 0.7410 0.7410 0.7390 0.7340 0.7340
12.515000 0.7340 0.7340 0.7340 0.7360 0.7360
12.549047 0.7360 0.7340 0.7340 0.7340 0.7320
12.583000 0.7320 0.7310 0.7310 0.7290 0.7290
12.617047 0.7270 0.7270 0.7270 0.7260 0.7260
12.651000 0.7260 0.7240 0.7240 0.7240 0.7240
12.685047 0.7240 0.7240 0.7220 0.7170 0.7140
12.719000 0.7140 0.7120 0.7120 0.7100 0.7080
12.753047 0.7080 0.7070 0.7070 0.7050 0.7050
12.788000 0.7030 0.7000 0.7000 0.6980 0.6980
12.822047 0.6960 0.6960 0.6950 0.6960 0.6950
12.856000 0.6950 0.6930 0.6930 0.6930 0.6930
12.890047 0.6930 0.6930 0.6930 0.6910 0.6910
12.924000 0.6880 0.6860 0.6840 0.6840 0.6840
12.958047 0.6830 0.6830 0.6810 0.6810 0.6790
12.992000 0.6790 0.6780 0.6780 0.6760 0.6760
13.026047 0.6760 0.6760 0.6760 0.6760 0.6780
13.060000 0.6780 0.6780 0.6780 0.6780 0.6780
13.094047 0.6780 0.6780 0.6780 0.6760 0.6760
13.128000 0.6760 0.6740 0.6720 0.6690 0.6660
13.162047 0.6620 0.6620 0.6600 0.6590 0.6590
13.196000 0.6570 0.6570 0.6550 0.6550 0.6540
13.230047 0.6520 0.6520 0.6500 0.6470 0.6430
13.264000 0.6420 0.6420 0.6400 0.6380 0.6350
13.298047 0.6310 0.6250 0.6230 0.6180 0.6130
13.332000 0.6070 0.6040 0.6020 0.6010 0.5990
13.366047 0.5900 0.5850 0.5830 0.5780 0.5730
13.400000 0.5700 0.5680 0.5660 0.5650 0.5610
13.434047 0.5580 0.5540 0.5490 0.5440 0.5410
13.468000 0.5370 0.5340 0.5300 0.5300 0.5300
13.502047 0.5270 0.5250 0.5230 0.5220 0.5200
13.536000 0.5200 0.5170 0.5150 0.5100 0.5080
13.570047 0.5060 0.5060 0.5050 0.5050 0.5050
13.604000 0.5030 0.5030 0.5010 0.5010 0.5010
13.638047 0.5000 0.5000 0.4980 0.4980 0.4960
13.672000 0.4930 0.4910 0.4890 0.4860 0.4840
13.706047 0.4810 0.4770 0.4720 0.4700 0.4650
13.740000 0.4600 0.4550 0.4530 0.4480 0.4430
13.774047 0.4330 0.4310 0.4240 0.4170 0.4090
13.808000 0.4040 0.3980 0.3930 0.3860 0.3750
13.842047 0.3680 0.3570 0.3560 0.3540 0.3520
13.877000 0.3510 0.3510 0.3440 0.3400 0.3400
13.911047 0.3400 0.3400 0.3420 0.3420 0.3450
13.945000 0.3510 0.3560 0.3630 0.3730 0.3850
13.979047 0.3980 0.4050 0.4140 0.4260 0.4360
14.013000 0.4480 0.4570 0.4620 0.4670 0.4740
14.047047 0.4790 0.4860 0.4930 0.4960 0.5000
14.081000 0.5030 0.5050 0.5050 0.5110 0.5150
14.115047 0.5150 0.5170 0.5170 0.5170 0.5170
14.149000 0.5170 0.5170 0.5170 0.5170 0.5170
14.183047 0.5150 0.5150 0.5170 0.5170 0.5170
14.217000 0.5170 0.5170 0.5170 0.5180 0.5180
14.251047 0.5170 0.5170 0.5150 0.5130 0.5110
14.285000 0.5100 0.5080 0.5080 0.5060 0.5050
14.319047 0.5050 0.5050 0.5030 0.5030 0.5030
14.353000 0.5030 0.5010 0.5010 0.5000 0.5000
14.387047 0.4980 0.4960 0.4930 0.4930 0.4930
14.421000 0.4910 0.4910 0.4910 0.4910 0.4880
14.455047 0.4860 0.4840 0.4840 0.4840 0.4840
14.489000 0.4840 0.4840 0.4820 0.4820 0.4820
14.523047 0.4810 0.4770 0.4760 0.4740 0.4740
14.557000 0.4720 0.4720 0.4720 0.4700 0.4700
14.591047 0.4700 0.4700 0.4720 0.4720 0.4720
14.625000 0.4720 0.4720 0.4700 0.4700 0.4700
14.659047 0.4690 0.4690 0.4670 0.4670 0.4650
14.693000 0.4650 0.4650 0.4650 0.4650 0.4650
14.727047 0.4650 0.4650 0.4650 0.4650 0.4650
14.761000 0.4650 0.4650 0.4650 0.4640 0.4640
14.795047 0.4640 0.4640 0.4620 0.4620 0.4620
14.829000 0.4620 0.4620 0.4620 0.4600 0.4600
14.863047 0.4600 0.4600 0.4600 0.4600 0.4600
14.897000 0.4600 0.4580 0.4570 0.4570 0.4570
14.931047 0.4570 0.4570 0.4570 0.4570 0.4570
14.965000 0.4570 0.4570 0.4570 0.4570 0.4570
14.999047 0.4580 0.4580 0.4600 0.4600 0.4600
15.034000 0.4600 0.4620 0.4640 0.4650 0.4670
15.068047 0.4690 0.4690 0.4690 0.4690 0.4700
15.102000 0.4700 0.4700 0.4720 0.4720 0.4720
15.136047 0.4740 0.4740 0.4720 0.4720 0.4720
15.170000 0.4720 0.4700 0.4690 0.4690 0.4690
15.204047 0.4690 0.4700 0.4700 0.4720 0.4720
15.238000 0.4740 0.4760 0.4760 0.4770 0.4810
15.272047 0.4810 0.4810 0.4820 0.4840 0.4860
15.306000 0.4890 0.4910 0.4930 0.4930 0.4940
15.340047 0.4940 0.4960 0.4980 0.5000 0.5000
15.374000 0.5000 0.5000 0.5030 0.5030 0.5030
15.408047 0.5030 0.5050 0.5050 0.5080 0.5100
15.442000 0.5100 0.5110 0.5110 0.5110 0.5110
15.476047 0.5130 0.5150 0.5150 0.5170 0.5170
15.510000 0.5180 0.5180 0.5200 0.5200 0.5200
15.544047 0.5200 0.5200 0.5200 0.5220 0.5220
15.578000 0.5230 0.5230 0.5250 0.5270 0.5270
15.612047 0.5270 0.5290 0.5290 0.5320 0.5340
15.646000 0.5340 0.5350 0.5350 0.5350 0.5370
15.680047 0.5370 0.5370 0.5390 0.5390 0.5390
15.714000 0.5390 0.5390 0.5390 0.5390 0.5390
15.748047 0.5390 0.5410 0.5410 0.5410 0.5420
15.782000 0.5420 0.5440 0.5440 0.5460 0.5460
15.816047 0.5470 0.5490 0.5510 0.5510 0.5530
15.850000 0.5530 0.5530 0.5540 0.5540 0.5540
15.884047 0.5560 0.5560 0.5560 0.5560 0.5560
15.918000 0.5560 0.5580 0.5580 0.5580 0.5580
15.952047 0.5580 0.5590 0.5590 0.5590 0.5590
15.986000 0.5580 0.5580 0.5580
##END=
