##TITLE=BARIUM NITRITE
##JCAMP-DX=4.24
##DATA TYPE=INFRARED SPECTRUM
##CLASS=COBLENTZ
##ORIGIN=MELLON INSTITUTE
##OWNER=COBLENTZ SOCIETY
Collection (C) 2018 copyright by the U.S. Secretary of Commerce
on behalf of the United States of America. All rights reserved.
##DATE=Not specified, most likely prior to 1970
##MOLFORM=Ba ( N O2)2  * H2 O
##SOURCE REFERENCE=COBLENTZ NO. 539
##$NIST ID=B6000539
##$NIST SOURCE=COBLENTZ
##$NIST IMAGE=cob539
##SPECTROMETER/DATA SYSTEM=Not specified, most likely a prism, grating, or hybrid spectrometer.
##STATE=SOLID (NUJOL MULL)
##PATH LENGTH=
$$SPECTRAL CONTAMINATION DUE TO OIL AROUND 2900, 1450, 1380 CM^-^1
##SAMPLING PROCEDURE=TRANSMISSION
##RESOLUTION=4
##DATA PROCESSING=DIGITIZED BY NIST FROM HARD COPY
##XUNITS=MICROMETERS
##YUNITS=TRANSMITTANCE
##XFACTOR=1.000000
##YFACTOR=1
##DELTAX=000.006647
##FIRSTX=2.05
##LASTX=16.0136
##FIRSTY=0.809
##MAXX=16.0136
##MINX=2.05
##MAXY=0.949
##MINY=0.164
##NPOINTS=2102
##XYDATA=(X++(Y..Y))
2.050000 0.8090 0.8090 0.8100 0.8100 0.8120
2.083248 0.8100 0.8090 0.8090 0.8090 0.8090
2.116000 0.8090 0.8090 0.8090 0.8100 0.8090
2.149248 0.8090 0.8090 0.8090 0.8070 0.8100
2.182000 0.8100 0.8070 0.8070 0.8050 0.8070
2.215248 0.8070 0.8090 0.8090 0.8090 0.8090
2.249000 0.8090 0.8090 0.8090 0.8090 0.8070
2.282248 0.8050 0.8020 0.8000 0.8000 0.8000
2.315000 0.8000 0.8000 0.8000 0.8000 0.8020
2.348248 0.8020 0.8020 0.8000 0.8000 0.8000
2.382000 0.8000 0.8000 0.7980 0.8000 0.8000
2.415248 0.8000 0.8000 0.8000 0.8020 0.8000
2.448000 0.8000 0.8000 0.8000 0.8020 0.8040
2.481248 0.8040 0.8040 0.8040 0.8020 0.8020
2.515000 0.8000 0.7980 0.7970 0.7970 0.7950
2.548248 0.7950 0.8020 0.8020 0.8020 0.8020
2.581000 0.8020 0.8020 0.8020 0.8000 0.8040
2.614248 0.8050 0.8070 0.8070 0.8090 0.8100
2.648000 0.8140 0.8120 0.8120 0.8090 0.8050
2.681248 0.8040 0.8000 0.8000 0.8090 0.8100
2.714000 0.8100 0.8090 0.8070 0.8040 0.8020
2.747248 0.8000 0.8000 0.7980 0.7980 0.7970
2.781000 0.7930 0.7920 0.7900 0.7850 0.7800
2.814248 0.7720 0.7600 0.7470 0.7260 0.7060
2.847000 0.6440 0.6080 0.5710 0.5150 0.5150
2.880248 0.5360 0.5660 0.6310 0.6460 0.6530
2.914000 0.6590 0.6590 0.6480 0.6330 0.6180
2.947248 0.6030 0.5920 0.5810 0.5560 0.5410
2.980000 0.5270 0.5250 0.5270 0.5370 0.5560
3.013248 0.5720 0.5820 0.5910 0.6110 0.6140
3.047000 0.6160 0.6230 0.6290 0.6390 0.6490
3.080248 0.6530 0.6640 0.6780 0.6900 0.6960
3.113000 0.7030 0.7060 0.7130 0.7200 0.7250
3.146248 0.7280 0.7300 0.7330 0.7400 0.7450
3.179000 0.7470 0.7480 0.7520 0.7570 0.7570
3.212248 0.7580 0.7600 0.7620 0.7650 0.7680
3.246000 0.7700 0.7720 0.7720 0.7720 0.7720
3.279248 0.7720 0.7720 0.7720 0.7680 0.7670
3.312000 0.7600 0.7550 0.7430 0.7310 0.6910
3.345248 0.6330 0.5640 0.4940 0.4080 0.3980
3.379000 0.3860 0.3450 0.2840 0.2810 0.2830
3.412248 0.3040 0.3430 0.3750 0.4400 0.4600
3.445000 0.4650 0.4790 0.4790 0.4700 0.4450
3.478248 0.4420 0.4430 0.4690 0.5050 0.5420
3.512000 0.5910 0.6680 0.7030 0.7280 0.7480
3.545248 0.7630 0.7700 0.7770 0.7830 0.7900
3.578000 0.7970 0.8040 0.8050 0.8070 0.8090
3.611248 0.8100 0.8120 0.8120 0.8140 0.8140
3.645000 0.8150 0.8150 0.8150 0.8150 0.8150
3.678248 0.8150 0.8150 0.8150 0.8170 0.8150
3.711000 0.8150 0.8150 0.8150 0.8140 0.8140
3.744248 0.8120 0.8100 0.8100 0.8100 0.8100
3.778000 0.8120 0.8170 0.8170 0.8150 0.8140
3.811248 0.8140 0.8120 0.8120 0.8120 0.8100
3.844000 0.8100 0.8120 0.8120 0.8120 0.8100
3.877248 0.8100 0.8090 0.8090 0.8050 0.8050
3.911000 0.8050 0.8050 0.8050 0.8070 0.8070
3.944248 0.8090 0.8100 0.8120 0.8120 0.8140
3.977000 0.8150 0.8190 0.8200 0.8240 0.8250
4.010248 0.8290 0.8290 0.8300 0.8320 0.8320
4.044000 0.8320 0.8320 0.8320 0.8320 0.8320
4.077248 0.8320 0.8340 0.8350 0.8350 0.8350
4.110000 0.8350 0.8350 0.8350 0.8350 0.8370
4.143248 0.8370 0.8390 0.8400 0.8400 0.8400
4.176000 0.8420 0.8400 0.8400 0.8400 0.8400
4.209248 0.8390 0.8370 0.8320 0.8250 0.8240
4.243000 0.8240 0.8200 0.8190 0.8190 0.8200
4.276248 0.8200 0.8220 0.8220 0.8220 0.8220
4.309000 0.8190 0.8170 0.8150 0.8170 0.8190
4.342248 0.8190 0.8200 0.8200 0.8220 0.8250
4.376000 0.8320 0.8390 0.8400 0.8420 0.8420
4.409248 0.8400 0.8400 0.8400 0.8400 0.8400
4.442000 0.8400 0.8400 0.8400 0.8400 0.8420
4.475248 0.8420 0.8440 0.8440 0.8440 0.8440
4.509000 0.8440 0.8440 0.8440 0.8440 0.8440
4.542248 0.8450 0.8470 0.8440 0.8450 0.8450
4.575000 0.8490 0.8490 0.8490 0.8470 0.8450
4.608248 0.8440 0.8440 0.8440 0.8440 0.8450
4.642000 0.8470 0.8470 0.8450 0.8450 0.8450
4.675248 0.8450 0.8450 0.8470 0.8470 0.8470
4.708000 0.8470 0.8470 0.8470 0.8470 0.8470
4.741248 0.8450 0.8450 0.8450 0.8450 0.8470
4.775000 0.8470 0.8470 0.8490 0.8470 0.8450
4.808248 0.8440 0.8420 0.8420 0.8420 0.8420
4.841000 0.8400 0.8400 0.8420 0.8450 0.8470
4.874248 0.8500 0.8500 0.8500 0.8500 0.8500
4.908000 0.8500 0.8500 0.8500 0.8500 0.8500
4.941248 0.8520 0.8520 0.8520 0.8520 0.8520
4.974000 0.8540 0.8550 0.8550 0.8570 0.8550
5.007248 0.8550 0.8550 0.8550 0.8570 0.8570
5.040000 0.8570 0.8590 0.8600 0.8590 0.8600
5.073248 0.8600 0.8620 0.8640 0.8640 0.8640
5.107000 0.8640 0.8640 0.8640 0.8640 0.8640
5.140248 0.8640 0.8650 0.8650 0.8650 0.8670
5.173000 0.8670 0.8670 0.8670 0.8690 0.8690
5.206248 0.8690 0.8690 0.8690 0.8690 0.8690
5.240000 0.8690 0.8690 0.8690 0.8690 0.8690
5.273248 0.8670 0.8670 0.8670 0.8670 0.8650
5.306000 0.8670 0.8670 0.8670 0.8670 0.8670
5.339248 0.8670 0.8690 0.8650 0.8650 0.8670
5.373000 0.8690 0.8710 0.8720 0.8740 0.8770
5.406248 0.8770 0.8770 0.8770 0.8770 0.8770
5.439000 0.8790 0.8790 0.8790 0.8790 0.8790
5.472248 0.8790 0.8790 0.8710 0.8670 0.8670
5.506000 0.8690 0.8710 0.8720 0.8720 0.8740
5.539248 0.8740 0.8740 0.8770 0.8790 0.8810
5.572000 0.8820 0.8840 0.8820 0.8810 0.8790
5.605248 0.8770 0.8760 0.8760 0.8760 0.8760
5.639000 0.8770 0.8810 0.8840 0.8870 0.8870
5.672248 0.8870 0.8870 0.8870 0.8870 0.8890
5.705000 0.8870 0.8870 0.8870 0.8890 0.8890
5.738248 0.8890 0.8890 0.8890 0.8890 0.8890
5.772000 0.8890 0.8910 0.8910 0.8910 0.8890
5.805248 0.8890 0.8890 0.8890 0.8890 0.8920
5.838000 0.8920 0.8910 0.8890 0.8890 0.8890
5.871248 0.8890 0.8890 0.8890 0.8870 0.8890
5.905000 0.8890 0.8890 0.8890 0.8890 0.8890
5.938248 0.8890 0.8890 0.8890 0.8870 0.8860
5.971000 0.8860 0.8860 0.8840 0.8820 0.8760
6.004248 0.8670 0.8550 0.8440 0.8290 0.8120
6.037000 0.8040 0.7930 0.7720 0.7480 0.7230
6.070248 0.7110 0.7100 0.7080 0.7100 0.7210
6.104000 0.7330 0.7420 0.7550 0.7720 0.7880
6.137248 0.8170 0.8250 0.8300 0.8370 0.8400
6.170000 0.8450 0.8470 0.8520 0.8550 0.8590
6.203248 0.8620 0.8650 0.8690 0.8720 0.8760
6.237000 0.8790 0.8810 0.8840 0.8860 0.8870
6.270248 0.8890 0.8890 0.8890 0.8870 0.8870
6.303000 0.8910 0.8920 0.8920 0.8920 0.8920
6.336248 0.8920 0.8920 0.8910 0.8910 0.8870
6.370000 0.8870 0.8890 0.8910 0.8910 0.8920
6.403248 0.8920 0.8920 0.8910 0.8890 0.8910
6.436000 0.8890 0.8870 0.8870 0.8870 0.8870
6.469248 0.8870 0.8910 0.8910 0.8890 0.8890
6.503000 0.8890 0.8890 0.8890 0.8890 0.8890
6.536248 0.8870 0.8840 0.8820 0.8820 0.8820
6.569000 0.8820 0.8840 0.8860 0.8870 0.8870
6.602248 0.8870 0.8860 0.8860 0.8840 0.8820
6.636000 0.8820 0.8840 0.8860 0.8860 0.8910
6.669248 0.8910 0.8890 0.8890 0.8910 0.8890
6.702000 0.8870 0.8870 0.8820 0.8820 0.8810
6.735248 0.8810 0.8790 0.8790 0.8790 0.8770
6.769000 0.8740 0.8720 0.8640 0.8490 0.8300
6.802248 0.8150 0.7980 0.7870 0.7620 0.7480
6.835000 0.7400 0.7350 0.7310 0.7300 0.7260
6.868248 0.7230 0.7210 0.7200 0.7210 0.7260
6.902000 0.7280 0.7310 0.7330 0.7370 0.7420
6.935248 0.7520 0.7580 0.7680 0.7720 0.7750
6.968000 0.7780 0.7830 0.7950 0.8040 0.8100
7.001248 0.8150 0.8200 0.8240 0.8270 0.8290
7.034000 0.8300 0.8300 0.8270 0.8270 0.8270
7.067248 0.8270 0.8270 0.8290 0.8300 0.8320
7.101000 0.8320 0.8320 0.8320 0.8320 0.8340
7.134248 0.8350 0.8350 0.8350 0.8370 0.8370
7.167000 0.8340 0.8320 0.8300 0.8190 0.8140
7.200248 0.8090 0.8040 0.8020 0.7980 0.7970
7.234000 0.7870 0.7800 0.7700 0.7650 0.7600
7.267248 0.7580 0.7580 0.7600 0.7680 0.7700
7.300000 0.7720 0.7730 0.7750 0.7770 0.7770
7.333248 0.7780 0.7800 0.7830 0.7830 0.7830
7.367000 0.7830 0.7830 0.7820 0.7800 0.7780
7.400248 0.7730 0.7720 0.7670 0.7580 0.7500
7.433000 0.7380 0.7260 0.7110 0.6960 0.6800
7.466248 0.6610 0.6440 0.6310 0.6160 0.6080
7.500000 0.5990 0.5870 0.5820 0.5770 0.5760
7.533248 0.5760 0.5760 0.5770 0.5790 0.5810
7.566000 0.5860 0.5890 0.5960 0.6090 0.6180
7.599248 0.6260 0.6310 0.6340 0.6390 0.6410
7.633000 0.6410 0.6430 0.6430 0.6390 0.6360
7.666248 0.6310 0.6260 0.6180 0.6110 0.6040
7.699000 0.6010 0.5960 0.5910 0.5790 0.5660
7.732248 0.5520 0.5390 0.5250 0.5120 0.5000
7.766000 0.4870 0.4750 0.4600 0.4430 0.4250
7.799248 0.4000 0.3930 0.3860 0.3680 0.3500
7.832000 0.3350 0.3210 0.3110 0.2990 0.2890
7.865248 0.2780 0.2710 0.2680 0.2590 0.2490
7.898000 0.2390 0.2310 0.2240 0.2190 0.2160
7.931248 0.2120 0.2060 0.2020 0.2010 0.2010
7.965000 0.1990 0.1970 0.1950 0.1920 0.1890
7.998248 0.1850 0.1820 0.1790 0.1770 0.1750
8.031000 0.1720 0.1700 0.1690 0.1670 0.1670
8.064248 0.1670 0.1650 0.1650 0.1650 0.1640
8.098000 0.1640 0.1640 0.1640 0.1670 0.1720
8.131248 0.1800 0.1940 0.1970 0.2220 0.2320
8.164000 0.2440 0.2510 0.2590 0.2690 0.2830
8.197248 0.2980 0.3110 0.3230 0.3360 0.3480
8.231000 0.3580 0.3680 0.3760 0.3810 0.3900
8.264248 0.4130 0.4270 0.4380 0.4450 0.4530
8.297000 0.4600 0.4670 0.4740 0.4800 0.4890
8.330248 0.4970 0.5050 0.5150 0.5270 0.5390
8.364000 0.5440 0.5560 0.5640 0.5710 0.5720
8.397248 0.5770 0.5820 0.5940 0.6110 0.6180
8.430000 0.6210 0.6240 0.6280 0.6340 0.6440
8.463248 0.6530 0.6590 0.6660 0.6700 0.6710
8.497000 0.6750 0.6810 0.6850 0.6910 0.6960
8.530248 0.7010 0.7030 0.7060 0.7130 0.7160
8.563000 0.7200 0.7250 0.7300 0.7310 0.7350
8.596248 0.7380 0.7400 0.7420 0.7420 0.7420
8.630000 0.7430 0.7450 0.7470 0.7500 0.7520
8.663248 0.7520 0.7520 0.7530 0.7530 0.7550
8.696000 0.7570 0.7600 0.7620 0.7630 0.7650
8.729248 0.7670 0.7700 0.7700 0.7700 0.7730
8.763000 0.7750 0.7770 0.7780 0.7780 0.7800
8.796248 0.7800 0.7820 0.7820 0.7830 0.7830
8.829000 0.7850 0.7850 0.7850 0.7850 0.7850
8.862248 0.7880 0.7900 0.7920 0.7950 0.7980
8.895000 0.8000 0.8020 0.8020 0.8000 0.7970
8.928248 0.7970 0.7970 0.7970 0.7980 0.7980
8.962000 0.7980 0.7980 0.7980 0.8000 0.8020
8.995248 0.8020 0.8020 0.8020 0.8020 0.8020
9.028000 0.8050 0.8050 0.8070 0.8090 0.8090
9.061248 0.8100 0.8100 0.8100 0.8120 0.8140
9.095000 0.8150 0.8150 0.8170 0.8190 0.8190
9.128248 0.8200 0.8220 0.8220 0.8220 0.8240
9.161000 0.8240 0.8250 0.8250 0.8270 0.8270
9.194248 0.8250 0.8270 0.8290 0.8290 0.8300
9.228000 0.8320 0.8320 0.8320 0.8320 0.8350
9.261248 0.8350 0.8350 0.8350 0.8340 0.8340
9.294000 0.8340 0.8340 0.8340 0.8340 0.8340
9.327248 0.8340 0.8350 0.8350 0.8370 0.8390
9.361000 0.8400 0.8420 0.8420 0.8440 0.8440
9.394248 0.8450 0.8450 0.8450 0.8450 0.8450
9.427000 0.8450 0.8470 0.8470 0.8470 0.8490
9.460248 0.8500 0.8500 0.8520 0.8520 0.8540
9.494000 0.8550 0.8570 0.8570 0.8570 0.8570
9.527248 0.8590 0.8590 0.8590 0.8590 0.8600
9.560000 0.8600 0.8600 0.8600 0.8600 0.8600
9.593248 0.8590 0.8600 0.8600 0.8600 0.8620
9.627000 0.8620 0.8620 0.8640 0.8650 0.8650
9.660248 0.8640 0.8640 0.8620 0.8620 0.8620
9.693000 0.8620 0.8640 0.8640 0.8640 0.8640
9.726248 0.8620 0.8620 0.8640 0.8690 0.8690
9.760000 0.8720 0.8740 0.8740 0.8720 0.8760
9.793248 0.8770 0.8790 0.8820 0.8840 0.8860
9.826000 0.8870 0.8860 0.8810 0.8790 0.8790
9.859248 0.8790 0.8810 0.8860 0.8860 0.8860
9.892000 0.8870 0.8910 0.8910 0.8920 0.8920
9.925248 0.8920 0.8940 0.8920 0.8940 0.8960
9.959000 0.8970 0.8970 0.9010 0.9010 0.9010
9.992248 0.9010 0.9010 0.8990 0.9010 0.9010
10.025000 0.9010 0.9010 0.9020 0.9010 0.9020
10.058248 0.9020 0.9020 0.9020 0.9040 0.9020
10.092000 0.9010 0.9010 0.9020 0.9040 0.9060
10.125248 0.9060 0.9010 0.9010 0.9010 0.9010
10.158000 0.9010 0.9010 0.9010 0.9020 0.9060
10.191248 0.9060 0.9060 0.9040 0.9010 0.9020
10.225000 0.8990 0.8990 0.8990 0.8990 0.8970
10.258248 0.8970 0.8990 0.9020 0.9010 0.9010
10.291000 0.8990 0.8970 0.8990 0.8990 0.9010
10.324248 0.9010 0.9020 0.9020 0.9020 0.9010
10.358000 0.9010 0.8990 0.8990 0.8990 0.8990
10.391248 0.8990 0.8990 0.8990 0.8990 0.9010
10.424000 0.9020 0.9060 0.9040 0.9040 0.9020
10.457248 0.9040 0.9040 0.9060 0.9070 0.9090
10.491000 0.9090 0.9060 0.9060 0.9010 0.9010
10.524248 0.9010 0.9010 0.9010 0.9020 0.9060
10.557000 0.9060 0.9070 0.9060 0.9060 0.9060
10.590248 0.9020 0.8990 0.8970 0.8990 0.8990
10.624000 0.8990 0.9010 0.9010 0.9020 0.9070
10.657248 0.9090 0.9090 0.9090 0.9090 0.9090
10.690000 0.9090 0.9020 0.9020 0.9020 0.9020
10.723248 0.9070 0.9070 0.9090 0.9110 0.9120
10.756000 0.9140 0.9140 0.9140 0.9140 0.9140
10.789248 0.9140 0.9140 0.9140 0.9140 0.9140
10.823000 0.9120 0.9140 0.9140 0.9120 0.9120
10.856248 0.9160 0.9170 0.9190 0.9220 0.9240
10.889000 0.9220 0.9260 0.9270 0.9270 0.9270
10.922248 0.9270 0.9270 0.9270 0.9260 0.9240
10.956000 0.9240 0.9240 0.9260 0.9260 0.9260
10.989248 0.9240 0.9240 0.9240 0.9240 0.9260
11.022000 0.9240 0.9220 0.9220 0.9240 0.9240
11.055248 0.9260 0.9260 0.9260 0.9270 0.9260
11.089000 0.9260 0.9260 0.9260 0.9240 0.9260
11.122248 0.9260 0.9240 0.9240 0.9240 0.9240
11.155000 0.9260 0.9270 0.9260 0.9260 0.9260
11.188248 0.9270 0.9270 0.9270 0.9270 0.9260
11.222000 0.9260 0.9260 0.9260 0.9260 0.9260
11.255248 0.9260 0.9260 0.9290 0.9290 0.9310
11.288000 0.9310 0.9320 0.9320 0.9320 0.9320
11.321248 0.9320 0.9320 0.9320 0.9320 0.9340
11.355000 0.9320 0.9310 0.9310 0.9310 0.9310
11.388248 0.9310 0.9310 0.9310 0.9310 0.9310
11.421000 0.9310 0.9310 0.9310 0.9310 0.9320
11.454248 0.9340 0.9340 0.9340 0.9320 0.9340
11.488000 0.9340 0.9340 0.9360 0.9360 0.9380
11.521248 0.9380 0.9380 0.9380 0.9380 0.9380
11.554000 0.9380 0.9380 0.9380 0.9380 0.9380
11.587248 0.9380 0.9380 0.9380 0.9380 0.9380
11.621000 0.9380 0.9380 0.9360 0.9320 0.9320
11.654248 0.9320 0.9320 0.9320 0.9320 0.9320
11.687000 0.9340 0.9360 0.9380 0.9380 0.9380
11.720248 0.9380 0.9390 0.9380 0.9360 0.9360
11.753000 0.9380 0.9390 0.9390 0.9410 0.9410
11.786248 0.9410 0.9410 0.9410 0.9390 0.9380
11.820000 0.9380 0.9380 0.9390 0.9410 0.9410
11.853248 0.9430 0.9440 0.9440 0.9440 0.9430
11.886000 0.9440 0.9440 0.9440 0.9440 0.9440
11.919248 0.9440 0.9460 0.9460 0.9480 0.9480
11.953000 0.9480 0.9480 0.9480 0.9480 0.9490
11.986248 0.9490 0.9490 0.9490 0.9490 0.9490
12.019000 0.9490 0.9490 0.9490 0.9490 0.9490
12.052248 0.9490 0.9480 0.9440 0.9390 0.9290
12.086000 0.9220 0.9040 0.8910 0.8790 0.8690
12.119248 0.8620 0.8570 0.8540 0.8540 0.8520
12.152000 0.8500 0.8490 0.8470 0.8440 0.8420
12.185248 0.8400 0.8400 0.8420 0.8500 0.8550
12.219000 0.8590 0.8620 0.8650 0.8710 0.8740
12.252248 0.8810 0.8890 0.8890 0.8910 0.8910
12.285000 0.8960 0.8990 0.9010 0.9020 0.9040
12.318248 0.9040 0.9060 0.9090 0.9120 0.9120
12.352000 0.9140 0.9170 0.9190 0.9190 0.9210
12.385248 0.9210 0.9220 0.9260 0.9260 0.9260
12.418000 0.9260 0.9260 0.9260 0.9260 0.9260
12.451248 0.9260 0.9260 0.9260 0.9290 0.9290
12.485000 0.9310 0.9310 0.9310 0.9310 0.9320
12.518248 0.9340 0.9340 0.9340 0.9340 0.9340
12.551000 0.9360 0.9360 0.9360 0.9360 0.9380
12.584248 0.9380 0.9380 0.9380 0.9380 0.9390
12.618000 0.9380 0.9380 0.9380 0.9380 0.9380
12.651248 0.9380 0.9380 0.9380 0.9380 0.9390
12.684000 0.9390 0.9390 0.9390 0.9390 0.9390
12.717248 0.9390 0.9390 0.9390 0.9390 0.9410
12.750000 0.9410 0.9410 0.9410 0.9410 0.9430
12.783248 0.9430 0.9430 0.9430 0.9430 0.9430
12.817000 0.9440 0.9430 0.9430 0.9430 0.9430
12.850248 0.9430 0.9430 0.9430 0.9430 0.9430
12.883000 0.9430 0.9430 0.9430 0.9430 0.9410
12.916248 0.9390 0.9390 0.9390 0.9390 0.9380
12.950000 0.9380 0.9380 0.9380 0.9380 0.9380
12.983248 0.9380 0.9360 0.9340 0.9340 0.9340
13.016000 0.9310 0.9290 0.9290 0.9290 0.9270
13.049248 0.9260 0.9260 0.9270 0.9290 0.9290
13.083000 0.9270 0.9270 0.9260 0.9240 0.9220
13.116248 0.9220 0.9210 0.9220 0.9270 0.9290
13.149000 0.9290 0.9290 0.9310 0.9310 0.9270
13.182248 0.9270 0.9270 0.9270 0.9270 0.9260
13.216000 0.9240 0.9220 0.9220 0.9220 0.9220
13.249248 0.9220 0.9240 0.9240 0.9260 0.9260
13.282000 0.9260 0.9260 0.9260 0.9260 0.9260
13.315248 0.9240 0.9240 0.9260 0.9260 0.9260
13.349000 0.9240 0.9240 0.9220 0.9170 0.9160
13.382248 0.9160 0.9170 0.9170 0.9160 0.9160
13.415000 0.9160 0.9160 0.9160 0.9160 0.9160
13.448248 0.9160 0.9160 0.9140 0.9140 0.9140
13.482000 0.9120 0.9120 0.9120 0.9110 0.9110
13.515248 0.9110 0.9090 0.9090 0.9070 0.9070
13.548000 0.9070 0.9060 0.9060 0.9060 0.9040
13.581248 0.9040 0.9040 0.9020 0.9020 0.9010
13.615000 0.9010 0.8990 0.8990 0.8970 0.8960
13.648248 0.8960 0.8940 0.8920 0.8920 0.8920
13.681000 0.8920 0.8920 0.8910 0.8910 0.8910
13.714248 0.8910 0.8910 0.8890 0.8890 0.8890
13.747000 0.8870 0.8870 0.8860 0.8860 0.8840
13.780248 0.8840 0.8820 0.8820 0.8820 0.8810
13.814000 0.8810 0.8810 0.8790 0.8790 0.8790
13.847248 0.8770 0.8770 0.8760 0.8740 0.8720
13.880000 0.8710 0.8690 0.8670 0.8670 0.8650
13.913248 0.8650 0.8640 0.8620 0.8600 0.8590
13.947000 0.8590 0.8570 0.8570 0.8550 0.8570
13.980248 0.8550 0.8540 0.8520 0.8500 0.8500
14.013000 0.8490 0.8490 0.8470 0.8470 0.8450
14.046248 0.8450 0.8450 0.8450 0.8450 0.8450
14.080000 0.8440 0.8440 0.8440 0.8420 0.8400
14.113248 0.8400 0.8390 0.8390 0.8390 0.8370
14.146000 0.8370 0.8370 0.8350 0.8340 0.8320
14.179248 0.8320 0.8320 0.8320 0.8300 0.8300
14.213000 0.8290 0.8290 0.8290 0.8250 0.8240
14.246248 0.8240 0.8220 0.8220 0.8220 0.8220
14.279000 0.8200 0.8190 0.8170 0.8170 0.8150
14.312248 0.8140 0.8140 0.8140 0.8120 0.8100
14.346000 0.8100 0.8090 0.8090 0.8090 0.8070
14.379248 0.8070 0.8070 0.8070 0.8050 0.8050
14.412000 0.8040 0.8040 0.8040 0.8040 0.8040
14.445248 0.8040 0.8020 0.8020 0.8020 0.8020
14.479000 0.8020 0.8020 0.8000 0.8000 0.8000
14.512248 0.8000 0.8000 0.8000 0.8000 0.8000
14.545000 0.7980 0.7980 0.7980 0.7980 0.7980
14.578248 0.7980 0.7980 0.7980 0.7970 0.7970
14.611000 0.7970 0.7950 0.7950 0.7930 0.7930
14.644248 0.7930 0.7920 0.7920 0.7900 0.7900
14.678000 0.7900 0.7920 0.7920 0.7920 0.7920
14.711248 0.7920 0.7920 0.7920 0.7920 0.7920
14.744000 0.7900 0.7880 0.7880 0.7900 0.7900
14.777248 0.7880 0.7870 0.7870 0.7850 0.7830
14.811000 0.7850 0.7850 0.7830 0.7830 0.7820
14.844248 0.7800 0.7800 0.7800 0.7800 0.7780
14.877000 0.7770 0.7750 0.7770 0.7770 0.7770
14.910248 0.7770 0.7770 0.7770 0.7770 0.7750
14.944000 0.7720 0.7730 0.7720 0.7720 0.7720
14.977248 0.7700 0.7680 0.7680 0.7680 0.7670
15.010000 0.7680 0.7680 0.7680 0.7680 0.7680
15.043248 0.7680 0.7670 0.7670 0.7670 0.7650
15.077000 0.7630 0.7620 0.7620 0.7620 0.7630
15.110248 0.7630 0.7630 0.7630 0.7620 0.7620
15.143000 0.7620 0.7600 0.7600 0.7600 0.7580
15.176248 0.7580 0.7580 0.7600 0.7600 0.7600
15.210000 0.7600 0.7580 0.7570 0.7550 0.7550
15.243248 0.7550 0.7550 0.7530 0.7530 0.7530
15.276000 0.7530 0.7520 0.7520 0.7520 0.7520
15.309248 0.7500 0.7520 0.7500 0.7500 0.7500
15.343000 0.7480 0.7450 0.7420 0.7420 0.7400
15.376248 0.7400 0.7380 0.7370 0.7370 0.7370
15.409000 0.7400 0.7380 0.7380 0.7380 0.7380
15.442248 0.7370 0.7370 0.7350 0.7330 0.7350
15.476000 0.7330 0.7330 0.7330 0.7310 0.7300
15.509248 0.7300 0.7300 0.7300 0.7300 0.7280
15.542000 0.7260 0.7280 0.7280 0.7260 0.7260
15.575248 0.7230 0.7250 0.7250 0.7250 0.7250
15.608000 0.7210 0.7210 0.7200 0.7180 0.7180
15.641248 0.7200 0.7200 0.7180 0.7180 0.7180
15.675000 0.7200 0.7200 0.7200 0.7180 0.7130
15.708248 0.7130 0.7110 0.7100 0.7080 0.7060
15.741000 0.7060 0.7050 0.7060 0.7060 0.7060
15.774248 0.7060 0.7060 0.7060 0.7060 0.7060
15.808000 0.7060 0.7050 0.7050 0.7050 0.7030
15.841248 0.7030 0.7030 0.7010 0.7010 0.7010
15.874000 0.7000 0.7000 0.7000 0.6980 0.6980
15.907248 0.6980 0.6980 0.6980 0.6980 0.6980
15.941000 0.6980 0.6960 0.6960 0.6960 0.6960
15.974248 0.6960 0.6960 0.6960 0.6960 0.6960
16.007000 0.6960 0.6960
##END=
