##TITLE=AMMONIUM SULFAMATE
##JCAMP-DX=4.24
##DATA TYPE=INFRARED SPECTRUM
##CLASS=COBLENTZ III
##ORIGIN=SOUTHERN RESEARCH INSTITUTE
##OWNER=COBLENTZ SOCIETY
Collection (C) 2018 copyright by the U.S. Secretary of Commerce
on behalf of the United States of America. All rights reserved.
##DATE=1961/12/05
##MOLFORM=C6 N2 O3 S
##SOURCE REFERENCE=COBLENTZ NO. 8018
##$NIST ID=B6008018
##$NIST SOURCE=COBLENTZ
##$NIST IMAGE=cob8018
##SPECTROMETER/DATA SYSTEM=PERKIN-ELMER 221 (GRATING)
##INSTRUMENT PARAMETERS=FILTER AT 980 CM^-^1. GRATING 4000-1428 CM^-^1, NaCl PRISM 1428-650 CM^-^1
##STATE=SOLID (1 mg / 650 mg KBr DISC)
##SAMPLING PROCEDURE=TRANSMISSION
##RESOLUTION=2
##DATA PROCESSING=DIGITIZED BY NIST FROM HARD COPY (FROM TWO SEGMENTS)
##XUNITS=1/CM
##YUNITS=TRANSMITTANCE
##XFACTOR=1.000000
##YFACTOR=1
##DELTAX=1.272265
##FIRSTX=645.7
##LASTX=4005.75
##FIRSTY=0.66
##MAXX=4005.75
##MINX=645.7
##MAXY=0.891
##MINY=0.078
##NPOINTS=2642
##XYDATA=(X++(Y..Y))
645.700000 0.6600 0.6590 0.6580 0.6502 0.6452
652.061325 0.6402 0.6391 0.6371 0.6361 0.6342
658.422650 0.6313 0.6283 0.6262 0.6234 0.6213
664.783975 0.6150 0.6123 0.6086 0.6022 0.5994
671.145300 0.5974 0.5938 0.5882 0.5854 0.5842
677.506625 0.5817 0.5726 0.5662 0.5628 0.5613
683.867950 0.5595 0.5576 0.5527 0.5468 0.5374
690.229275 0.5299 0.5267 0.5220 0.5187 0.5148
696.590600 0.5098 0.5029 0.4988 0.4949 0.4894
702.951925 0.4852 0.4811 0.4767 0.4727 0.4682
709.313250 0.4616 0.4547 0.4493 0.4459 0.4424
715.674575 0.4390 0.4350 0.4301 0.4266 0.4245
722.035900 0.4212 0.4143 0.4055 0.4000 0.3991
728.397225 0.3976 0.3933 0.3868 0.3842 0.3811
734.758550 0.3743 0.3662 0.3619 0.3593 0.3553
741.119875 0.3487 0.3457 0.3425 0.3367 0.3357
747.481200 0.3339 0.3304 0.3282 0.3219 0.3083
753.842525 0.3008 0.2915 0.2823 0.2781 0.2700
760.203850 0.2650 0.2602 0.2556 0.2487 0.2468
766.565175 0.2446 0.2342 0.2160 0.2088 0.2068
772.926500 0.2047 0.2018 0.1999 0.1989 0.1973
779.287825 0.1873 0.1766 0.1697 0.1619 0.1579
785.649150 0.1530 0.1510 0.1510 0.1480 0.1480
792.010475 0.1480 0.1480 0.1480 0.1480 0.1489
798.371800 0.1490 0.1508 0.1510 0.1528 0.1566
804.733125 0.1597 0.1644 0.1659 0.1703 0.1718
811.094450 0.1803 0.1878 0.1964 0.1996 0.2097
817.455775 0.2192 0.2288 0.2449 0.2643 0.2864
823.817100 0.2965 0.3039 0.3141 0.3301 0.3450
830.178425 0.3546 0.3674 0.3912 0.4041 0.4093
836.539750 0.4208 0.4397 0.4541 0.4656 0.4794
842.901075 0.4918 0.5002 0.5114 0.5182 0.5230
849.262400 0.5339 0.5417 0.5458 0.5529 0.5613
855.623725 0.5682 0.5731 0.5780 0.5865 0.5964
861.985050 0.6048 0.6114 0.6149 0.6169 0.6193
868.346375 0.6214 0.6233 0.6254 0.6260 0.6264
874.707700 0.6270 0.6270 0.6270 0.6270 0.6266
881.069025 0.6260 0.6257 0.6227 0.6174 0.6151
887.430350 0.6127 0.6097 0.6034 0.6012 0.5985
893.791675 0.5957 0.5897 0.5808 0.5717 0.5613
900.153000 0.5499 0.5398 0.5286 0.5171 0.5072
906.514325 0.4969 0.4860 0.4787 0.4647 0.4563
912.875650 0.4515 0.4479 0.4467 0.4436 0.4394
919.236975 0.4324 0.4259 0.4249 0.4229 0.4210
925.598300 0.4210 0.4210 0.4200 0.4190 0.4190
931.959625 0.4180 0.4180 0.4161 0.4160 0.4141
938.320950 0.4121 0.4111 0.4101 0.4091 0.4072
944.682275 0.4052 0.4050 0.4041 0.4040 0.4023
951.043600 0.4011 0.4010 0.4002 0.3983 0.3972
957.404925 0.3954 0.3934 0.3914 0.3886 0.3872
963.766250 0.3855 0.3827 0.3812 0.3780 0.3726
970.127575 0.3659 0.3604 0.3562 0.3536 0.3503
976.488900 0.3490 0.3463 0.3423 0.3384 0.3357
982.850225 0.3324 0.3285 0.3251 0.3216 0.3188
989.211550 0.3133 0.3065 0.3006 0.2906 0.2833
995.572875 0.2776 0.2735 0.2688 0.2608 0.2509
1001.934200 0.2390 0.2271 0.2166 0.2086 0.2041
1008.295525 0.1993 0.1919 0.1862 0.1797 0.1673
1014.656850 0.1543 0.1450 0.1335 0.1215 0.1107
1021.018175 0.1001 0.0970 0.0966 0.0963 0.0980
1027.379500 0.1013 0.1059 0.1118 0.1169 0.1193
1033.740825 0.1200 0.1200 0.1197 0.1190 0.1190
1040.102150 0.1190 0.1192 0.1202 0.1214 0.1232
1046.463475 0.1242 0.1263 0.1353 0.1530 0.1714
1052.824800 0.2213 0.2435 0.2622 0.2799 0.2946
1059.186125 0.3081 0.3190 0.3296 0.3369 0.3482
1065.547450 0.3511 0.3530 0.3540 0.3540 0.3530
1071.908775 0.3510 0.3490 0.3480 0.3460 0.3450
1078.270100 0.3440 0.3373 0.3370 0.3294 0.3253
1084.631425 0.3167 0.3114 0.3083 0.3062 0.2989
1090.992750 0.2884 0.2792 0.2754 0.2733 0.2671
1097.354075 0.2560 0.2507 0.2353 0.2215 0.2134
1103.715400 0.2081 0.2039 0.2007 0.1985 0.1957
1110.076725 0.1898 0.1836 0.1769 0.1714 0.1615
1116.438050 0.1531 0.1462 0.1325 0.1229 0.1197
1122.799375 0.1170 0.1147 0.1121 0.1104 0.1094
1129.160700 0.1084 0.1080 0.1080 0.1080 0.1080
1135.522025 0.1080 0.1080 0.1080 0.1069 0.1060
1141.883350 0.1060 0.1060 0.1060 0.1060 0.1070
1148.244675 0.1080 0.1080 0.1085 0.1085 0.1080
1154.606000 0.1084 0.1090 0.1090 0.1090 0.1094
1160.967325 0.1100 0.1100 0.1100 0.1100 0.1104
1167.328650 0.1110 0.1110 0.1110 0.1110 0.1104
1173.689975 0.1090 0.1087 0.1080 0.1075 0.1060
1180.051300 0.1065 0.1080 0.1075 0.1060 0.1060
1186.412625 0.1060 0.1058 0.1050 0.1048 0.1040
1192.773950 0.1040 0.1040 0.1040 0.1040 0.1040
1199.135275 0.1040 0.1040 0.1040 0.1040 0.1040
1205.496600 0.1040 0.1040 0.1040 0.1039 0.1020
1211.857925 0.1020 0.1020 0.1020 0.1010 0.1010
1218.219250 0.1000 0.0990 0.0971 0.0960 0.0950
1224.580575 0.0922 0.0911 0.0901 0.0872 0.0852
1230.941900 0.0832 0.0821 0.0820 0.0811 0.0810
1237.303225 0.0784 0.0780 0.0780 0.0780 0.0780
1243.664550 0.0780 0.0780 0.0780 0.0780 0.0780
1250.025875 0.0780 0.0795 0.0807 0.0817 0.0864
1256.387200 0.0902 0.0938 0.0978 0.1059 0.1166
1262.748525 0.1248 0.1337 0.1443 0.1532 0.1631
1269.109850 0.1721 0.1812 0.1942 0.2054 0.2150
1275.471175 0.2237 0.2317 0.2407 0.2472 0.2501
1281.832500 0.2532 0.2577 0.2621 0.2650 0.2670
1288.193825 0.2730 0.2869 0.2970 0.2985 0.2999
1294.555150 0.3033 0.3082 0.3136 0.3200 0.3261
1300.916475 0.3302 0.3340 0.3386 0.3422 0.3455
1307.277800 0.3484 0.3508 0.3568 0.3630 0.3673
1313.639125 0.3739 0.3802 0.3856 0.3879 0.3940
1320.000450 0.4059 0.4121 0.4153 0.4167 0.4204
1326.361775 0.4259 0.4310 0.4402 0.4488 0.4530
1332.723100 0.4577 0.4617 0.4650 0.4652 0.4660
1339.084425 0.4660 0.4660 0.4660 0.4660 0.4660
1345.445750 0.4660 0.4659 0.4648 0.4617 0.4567
1351.807075 0.4518 0.4488 0.4449 0.4429 0.4389
1358.168400 0.4350 0.4300 0.4211 0.4102 0.4022
1364.529725 0.4001 0.3971 0.3837 0.3699 0.3578
1370.891050 0.3460 0.3286 0.3054 0.2897 0.2757
1377.252375 0.2643 0.2508 0.2301 0.2074 0.2023
1383.613700 0.1987 0.1882 0.1747 0.1608 0.1525
1389.975025 0.1407 0.1302 0.1249 0.1240 0.1240
1396.336350 0.1240 0.1240 0.1240 0.1240 0.1240
1402.697675 0.1247 0.1250 0.1264 0.1270 0.1270
1409.059000 0.1277 0.1286 0.1296 0.1312 0.1326
1415.420325 0.1336 0.1346 0.1362 0.1376 0.1386
1421.781650 0.1401 0.1416 0.1425 0.1435 0.1450
1428.142975 0.1465 0.1475 0.1485 0.1500 0.1515
1434.504300 0.1525 0.1539 0.1555 0.1560 0.1569
1440.865625 0.1589 0.1608 0.1637 0.1668 0.1688
1447.226950 0.1708 0.1731 0.1757 0.1784 0.1820
1453.588275 0.1843 0.1860 0.1883 0.1890 0.1911
1459.949600 0.1981 0.2044 0.2083 0.2101 0.2140
1466.310925 0.2187 0.2247 0.2279 0.2319 0.2361
1472.672250 0.2412 0.2462 0.2468 0.2465 0.2493
1479.033575 0.2524 0.2606 0.2643 0.2666 0.2705
1485.394900 0.2745 0.2787 0.2843 0.2871 0.2882
1491.756225 0.2901 0.2921 0.2932 0.2960 0.2970
1498.117550 0.2980 0.2980 0.2990 0.2990 0.3010
1504.478875 0.3010 0.3010 0.3010 0.3010 0.3010
1510.840200 0.3010 0.3010 0.3010 0.3010 0.3010
1517.201525 0.2992 0.2990 0.2990 0.2981 0.2980
1523.562850 0.2971 0.2970 0.2970 0.2970 0.2970
1529.924175 0.2970 0.2962 0.2968 0.2970 0.2970
1536.285500 0.2978 0.2980 0.2987 0.2990 0.3004
1542.646825 0.3017 0.3027 0.3030 0.3037 0.3061
1549.008150 0.3090 0.3133 0.3163 0.3189 0.3225
1555.369475 0.3246 0.3262 0.3288 0.3342 0.3382
1561.730800 0.3396 0.3434 0.3471 0.3480 0.3491
1568.092125 0.3505 0.3526 0.3545 0.3550 0.3560
1574.453450 0.3575 0.3580 0.3580 0.3580 0.3580
1580.814775 0.3584 0.3590 0.3590 0.3590 0.3590
1587.176100 0.3590 0.3590 0.3590 0.3590 0.3590
1593.537425 0.3590 0.3586 0.3580 0.3580 0.3580
1599.898750 0.3580 0.3580 0.3580 0.3580 0.3580
1606.260075 0.3580 0.3580 0.3580 0.3580 0.3578
1612.621400 0.3572 0.3580 0.3582 0.3590 0.3592
1618.982725 0.3600 0.3600 0.3603 0.3620 0.3621
1625.344050 0.3630 0.3633 0.3650 0.3652 0.3672
1631.705375 0.3692 0.3711 0.3721 0.3732 0.3761
1638.066700 0.3782 0.3810 0.3821 0.3861 0.3920
1644.428025 0.3950 0.3960 0.4000 0.4010 0.4010
1650.789350 0.4039 0.4069 0.4108 0.4157 0.4197
1657.150675 0.4255 0.4278 0.4298 0.4336 0.4349
1663.512000 0.4376 0.4397 0.4400 0.4417 0.4420
1669.873325 0.4436 0.4448 0.4466 0.4470 0.4478
1676.234650 0.4480 0.4488 0.4490 0.4490 0.4490
1682.595975 0.4490 0.4490 0.4504 0.4510 0.4517
1688.957300 0.4520 0.4527 0.4530 0.4537 0.4560
1695.318625 0.4576 0.4580 0.4586 0.4603 0.4616
1701.679950 0.4626 0.4648 0.4672 0.4697 0.4721
1708.041275 0.4741 0.4750 0.4755 0.4765 0.4781
1714.402600 0.4800 0.4825 0.4850 0.4865 0.4870
1720.763925 0.4879 0.4895 0.4914 0.4939 0.4954
1727.125250 0.4973 0.4994 0.5000 0.5004 0.5010
1733.486575 0.5021 0.5044 0.5054 0.5067 0.5083
1739.847900 0.5093 0.5100 0.5106 0.5123 0.5130
1746.209225 0.5133 0.5151 0.5183 0.5193 0.5205
1752.570550 0.5225 0.5240 0.5245 0.5260 0.5260
1758.931875 0.5262 0.5272 0.5285 0.5314 0.5330
1765.293200 0.5332 0.5340 0.5343 0.5360 0.5361
1771.654525 0.5370 0.5371 0.5380 0.5382 0.5400
1778.015850 0.5401 0.5421 0.5431 0.5450 0.5460
1784.377175 0.5470 0.5470 0.5480 0.5480 0.5500
1790.738500 0.5500 0.5510 0.5510 0.5520 0.5520
1797.099825 0.5539 0.5540 0.5549 0.5550 0.5559
1803.461150 0.5560 0.5569 0.5570 0.5570 0.5587
1809.822475 0.5598 0.5608 0.5610 0.5618 0.5636
1816.183800 0.5640 0.5640 0.5640 0.5640 0.5648
1822.545125 0.5658 0.5667 0.5685 0.5719 0.5737
1828.906450 0.5747 0.5750 0.5757 0.5774 0.5787
1835.267775 0.5790 0.5797 0.5800 0.5800 0.5806
1841.629100 0.5823 0.5830 0.5836 0.5846 0.5862
1847.990425 0.5870 0.5876 0.5891 0.5911 0.5925
1854.351750 0.5935 0.5940 0.5940 0.5945 0.5950
1860.713075 0.5960 0.5975 0.5994 0.6015 0.6025
1867.074400 0.6034 0.6049 0.6060 0.6060 0.6064
1873.435725 0.6070 0.6070 0.6070 0.6070 0.6070
1879.797050 0.6070 0.6074 0.6080 0.6080 0.6080
1886.158375 0.6080 0.6080 0.6080 0.6080 0.6080
1892.519700 0.6080 0.6080 0.6083 0.6090 0.6090
1898.881025 0.6094 0.6110 0.6110 0.6112 0.6122
1905.242350 0.6130 0.6132 0.6140 0.6143 0.6160
1911.603675 0.6161 0.6170 0.6170 0.6171 0.6180
1917.965000 0.6182 0.6200 0.6200 0.6201 0.6210
1924.326325 0.6210 0.6210 0.6221 0.6250 0.6260
1930.687650 0.6270 0.6280 0.6300 0.6310 0.6320
1937.048975 0.6339 0.6349 0.6369 0.6389 0.6399
1943.410300 0.6409 0.6437 0.6449 0.6459 0.6460
1949.771625 0.6477 0.6489 0.6498 0.6508 0.6510
1956.132950 0.6510 0.6510 0.6510 0.6510 0.6510
1962.494275 0.6510 0.6510 0.6510 0.6525 0.6537
1968.855600 0.6547 0.6557 0.6582 0.6597 0.6614
1975.216925 0.6634 0.6647 0.6650 0.6663 0.6670
1981.578250 0.6670 0.6676 0.6680 0.6686 0.6690
1987.939575 0.6690 0.6690 0.6690 0.6690 0.6690
1994.300900 0.6690 0.6690 0.6690 0.6690 0.6690
2000.662225 0.6690 0.6690 0.6690 0.6690 0.6690
2007.023550 0.6690 0.6690 0.6690 0.6690 0.6685
2013.384875 0.6675 0.6670 0.6660 0.6650 0.6645
2019.746200 0.6640 0.6635 0.6625 0.6620 0.6620
2026.107525 0.6620 0.6610 0.6600 0.6600 0.6595
2032.468850 0.6590 0.6585 0.6580 0.6580 0.6580
2038.830175 0.6570 0.6560 0.6555 0.6550 0.6550
2045.191500 0.6550 0.6550 0.6550 0.6550 0.6555
2051.552825 0.6560 0.6560 0.6570 0.6580 0.6580
2057.914150 0.6585 0.6590 0.6595 0.6600 0.6610
2064.275475 0.6620 0.6625 0.6635 0.6640 0.6645
2070.636800 0.6660 0.6670 0.6675 0.6685 0.6690
2076.998125 0.6695 0.6710 0.6725 0.6730 0.6735
2083.359450 0.6745 0.6750 0.6760 0.6775 0.6785
2089.720775 0.6800 0.6826 0.6876 0.6920 0.6930
2096.082100 0.6946 0.6965 0.6985 0.7010 0.7041
2102.443425 0.7060 0.7065 0.7080 0.7095 0.7105
2108.804750 0.7115 0.7130 0.7140 0.7150 0.7165
2115.166075 0.7180 0.7195 0.7205 0.7215 0.7230
2121.527400 0.7245 0.7255 0.7260 0.7270 0.7280
2127.888725 0.7280 0.7280 0.7285 0.7295 0.7305
2134.250050 0.7325 0.7350 0.7360 0.7370 0.7385
2140.611375 0.7406 0.7425 0.7440 0.7460 0.7475
2146.972700 0.7485 0.7495 0.7510 0.7525 0.7530
2153.334025 0.7530 0.7535 0.7540 0.7540 0.7550
2159.695350 0.7560 0.7565 0.7565 0.7560 0.7560
2166.056675 0.7560 0.7550 0.7540 0.7540 0.7535
2172.418000 0.7530 0.7525 0.7520 0.7510 0.7500
2178.779325 0.7495 0.7485 0.7480 0.7480 0.7480
2185.140650 0.7480 0.7480 0.7480 0.7480 0.7480
2191.501975 0.7480 0.7480 0.7480 0.7480 0.7480
2197.863300 0.7480 0.7480 0.7480 0.7485 0.7490
2204.224625 0.7495 0.7500 0.7510 0.7520 0.7525
2210.585950 0.7535 0.7540 0.7550 0.7565 0.7575
2216.947275 0.7585 0.7600 0.7615 0.7620 0.7625
2223.308600 0.7635 0.7650 0.7670 0.7690 0.7710
2229.669925 0.7736 0.7755 0.7770 0.7780 0.7790
2236.031250 0.7805 0.7810 0.7810 0.7810 0.7810
2242.392575 0.7810 0.7810 0.7810 0.7805 0.7800
2248.753900 0.7800 0.7800 0.7805 0.7810 0.7810
2255.115225 0.7810 0.7810 0.7810 0.7810 0.7810
2261.476550 0.7810 0.7810 0.7805 0.7800 0.7800
2267.837875 0.7790 0.7780 0.7780 0.7780 0.7780
2274.199200 0.7780 0.7780 0.7780 0.7775 0.7770
2280.560525 0.7770 0.7770 0.7770 0.7770 0.7770
2286.921850 0.7775 0.7790 0.7805 0.7810 0.7815
2293.283175 0.7836 0.7850 0.7860 0.7896 0.7961
2299.644500 0.8021 0.8061 0.8080 0.8085 0.8090
2306.005825 0.8095 0.8105 0.8120 0.8130 0.8156
2312.367150 0.8206 0.8251 0.8291 0.8320 0.8351
2318.728475 0.8370 0.8375 0.8385 0.8400 0.8415
2325.089800 0.8420 0.8425 0.8435 0.8450 0.8465
2331.451125 0.8470 0.8475 0.8490 0.8505 0.8515
2337.812450 0.8525 0.8530 0.8540 0.8550 0.8555
2344.173775 0.8565 0.8570 0.8575 0.8580 0.8590
2350.535100 0.8600 0.8605 0.8615 0.8620 0.8620
2356.896425 0.8630 0.8640 0.8640 0.8640 0.8645
2363.257750 0.8650 0.8650 0.8650 0.8650 0.8650
2369.619075 0.8650 0.8650 0.8650 0.8650 0.8655
2375.980400 0.8660 0.8660 0.8660 0.8660 0.8660
2382.341725 0.8665 0.8670 0.8670 0.8670 0.8670
2388.703050 0.8670 0.8670 0.8680 0.8690 0.8690
2395.064375 0.8690 0.8695 0.8700 0.8700 0.8700
2401.425700 0.8705 0.8710 0.8710 0.8710 0.8710
2407.787025 0.8715 0.8720 0.8720 0.8720 0.8730
2414.148350 0.8740 0.8740 0.8740 0.8740 0.8745
2420.509675 0.8750 0.8755 0.8760 0.8770 0.8780
2426.871000 0.8785 0.8795 0.8805 0.8810 0.8810
2433.232325 0.8810 0.8810 0.8810 0.8810 0.8810
2439.593650 0.8810 0.8810 0.8810 0.8810 0.8810
2445.954975 0.8810 0.8810 0.8810 0.8810 0.8810
2452.316300 0.8810 0.8810 0.8810 0.8810 0.8810
2458.677625 0.8810 0.8810 0.8820 0.8830 0.8830
2465.038950 0.8830 0.8830 0.8830 0.8830 0.8830
2471.400275 0.8830 0.8830 0.8830 0.8830 0.8830
2477.761600 0.8830 0.8830 0.8830 0.8835 0.8840
2484.122925 0.8840 0.8845 0.8850 0.8855 0.8860
2490.484250 0.8860 0.8870 0.8880 0.8885 0.8890
2496.845575 0.8895 0.8900 0.8905 0.8910 0.8910
2503.206900 0.8910 0.8910 0.8910 0.8910 0.8910
2509.568225 0.8910 0.8910 0.8910 0.8910 0.8910
2515.929550 0.8910 0.8910 0.8910 0.8910 0.8910
2522.290875 0.8910 0.8910 0.8910 0.8910 0.8910
2528.652200 0.8910 0.8910 0.8910 0.8910 0.8910
2535.013525 0.8910 0.8910 0.8910 0.8905 0.8900
2541.374850 0.8900 0.8895 0.8890 0.8885 0.8870
2547.736175 0.8855 0.8840 0.8830 0.8820 0.8805
2554.097500 0.8800 0.8795 0.8785 0.8780 0.8770
2560.458825 0.8755 0.8750 0.8745 0.8740 0.8730
2566.820150 0.8720 0.8715 0.8715 0.8720 0.8715
2573.181475 0.8710 0.8710 0.8705 0.8700 0.8695
2579.542800 0.8690 0.8690 0.8680 0.8665 0.8660
2585.904125 0.8660 0.8660 0.8655 0.8650 0.8650
2592.265450 0.8650 0.8650 0.8645 0.8625 0.8605
2598.626775 0.8584 0.8565 0.8555 0.8540 0.8525
2604.988100 0.8515 0.8505 0.8500 0.8490 0.8475
2611.349425 0.8465 0.8450 0.8435 0.8430 0.8409
2617.710750 0.8364 0.8309 0.8259 0.8219 0.8190
2624.072075 0.8164 0.8140 0.8114 0.8090 0.8064
2630.433400 0.8024 0.8000 0.7995 0.7990 0.7990
2636.794725 0.7964 0.7904 0.7839 0.7779 0.7729
2643.156050 0.7710 0.7710 0.7705 0.7685 0.7654
2649.517375 0.7635 0.7625 0.7615 0.7610 0.7600
2655.878700 0.7590 0.7590 0.7590 0.7590 0.7590
2662.240025 0.7600 0.7600 0.7590 0.7590 0.7585
2668.601350 0.7585 0.7590 0.7590 0.7590 0.7590
2674.962675 0.7590 0.7590 0.7590 0.7585 0.7575
2681.324000 0.7570 0.7570 0.7570 0.7565 0.7560
2687.685325 0.7550 0.7540 0.7535 0.7530 0.7530
2694.046650 0.7530 0.7530 0.7530 0.7530 0.7514
2700.407975 0.7510 0.7504 0.7485 0.7475 0.7475
2706.769300 0.7475 0.7470 0.7460 0.7450 0.7450
2713.130625 0.7445 0.7440 0.7440 0.7435 0.7425
2719.491950 0.7389 0.7350 0.7340 0.7335 0.7330
2725.853275 0.7320 0.7305 0.7279 0.7260 0.7250
2732.214600 0.7230 0.7215 0.7205 0.7185 0.7165
2738.575925 0.7155 0.7150 0.7150 0.7145 0.7140
2744.937250 0.7130 0.7110 0.7095 0.7049 0.6984
2751.298575 0.6955 0.6908 0.6865 0.6844 0.6820
2757.659900 0.6779 0.6740 0.6715 0.6685 0.6649
2764.021225 0.6625 0.6604 0.6574 0.6529 0.6479
2770.382550 0.6455 0.6435 0.6389 0.6355 0.6334
2776.743875 0.6315 0.6289 0.6265 0.6260 0.6260
2783.105200 0.6255 0.6240 0.6194 0.6114 0.6049
2789.466525 0.6009 0.5969 0.5934 0.5899 0.5864
2795.827850 0.5840 0.5815 0.5790 0.5765 0.5729
2802.189175 0.5689 0.5665 0.5650 0.5619 0.5595
2808.550500 0.5580 0.5565 0.5560 0.5555 0.5529
2814.911825 0.5505 0.5490 0.5475 0.5465 0.5444
2821.273150 0.5404 0.5370 0.5345 0.5320 0.5274
2827.634475 0.5230 0.5210 0.5195 0.5180 0.5134
2833.995800 0.5069 0.5019 0.4995 0.4985 0.4964
2840.357125 0.4919 0.4874 0.4860 0.4839 0.4810
2846.718450 0.4784 0.4749 0.4699 0.4660 0.4634
2853.079775 0.4615 0.4600 0.4580 0.4554 0.4535
2859.441100 0.4509 0.4490 0.4485 0.4475 0.4470
2865.802425 0.4470 0.4470 0.4460 0.4450 0.4445
2872.163750 0.4440 0.4435 0.4435 0.4435 0.4425
2878.525075 0.4404 0.4380 0.4360 0.4345 0.4335
2884.886400 0.4314 0.4300 0.4295 0.4285 0.4270
2891.247725 0.4260 0.4255 0.4250 0.4250 0.4245
2897.609050 0.4240 0.4240 0.4240 0.4240 0.4240
2903.970375 0.4245 0.4245 0.4240 0.4240 0.4235
2910.331700 0.4214 0.4195 0.4169 0.4135 0.4115
2916.693025 0.4105 0.4100 0.4100 0.4095 0.4080
2923.054350 0.4039 0.4005 0.3990 0.3975 0.3965
2929.415675 0.3955 0.3924 0.3890 0.3870 0.3855
2935.777000 0.3850 0.3840 0.3825 0.3815 0.3800
2942.138325 0.3785 0.3775 0.3765 0.3750 0.3735
2948.499650 0.3704 0.3675 0.3649 0.3625 0.3610
2954.860975 0.3590 0.3564 0.3524 0.3495 0.3485
2961.222300 0.3480 0.3470 0.3460 0.3460 0.3460
2967.583625 0.3455 0.3424 0.3395 0.3374 0.3350
2973.944950 0.3314 0.3269 0.3245 0.3209 0.3154
2980.306275 0.3104 0.3075 0.3054 0.3035 0.3020
2986.667600 0.3000 0.2985 0.2975 0.2965 0.2939
2993.028925 0.2904 0.2864 0.2830 0.2804 0.2769
2999.390250 0.2740 0.2720 0.2705 0.2679 0.2650
3005.751575 0.2624 0.2610 0.2605 0.2584 0.2565
3012.112900 0.2555 0.2535 0.2520 0.2520 0.2510
3018.474225 0.2495 0.2480 0.2465 0.2408 0.2324
3024.835550 0.2280 0.2255 0.2204 0.2170 0.2165
3031.196875 0.2150 0.2135 0.2130 0.2125 0.2110
3037.558200 0.2095 0.2085 0.2075 0.2060 0.2050
3043.919525 0.2040 0.2025 0.2010 0.2000 0.2000
3050.280850 0.2000 0.2000 0.1995 0.1985 0.1980
3056.642175 0.1970 0.1955 0.1914 0.1870 0.1855
3063.003500 0.1834 0.1810 0.1795 0.1790 0.1780
3069.364825 0.1770 0.1765 0.1760 0.1750 0.1730
3075.726150 0.1699 0.1675 0.1665 0.1660 0.1660
3082.087475 0.1655 0.1650 0.1650 0.1640 0.1630
3088.448800 0.1630 0.1630 0.1625 0.1620 0.1620
3094.810125 0.1620 0.1615 0.1610 0.1605 0.1600
3101.171450 0.1600 0.1590 0.1580 0.1580 0.1575
3107.532775 0.1570 0.1549 0.1525 0.1520 0.1520
3113.894100 0.1520 0.1520 0.1520 0.1520 0.1520
3120.255425 0.1515 0.1510 0.1500 0.1490 0.1490
3126.616750 0.1480 0.1455 0.1440 0.1435 0.1430
3132.978075 0.1430 0.1425 0.1415 0.1394 0.1375
3139.339400 0.1360 0.1345 0.1340 0.1335 0.1330
3145.700725 0.1325 0.1320 0.1310 0.1295 0.1290
3152.062050 0.1280 0.1260 0.1245 0.1225 0.1194
3158.423375 0.1180 0.1170 0.1155 0.1150 0.1145
3164.784700 0.1135 0.1120 0.1105 0.1095 0.1085
3171.146025 0.1070 0.1060 0.1055 0.1034 0.1010
3177.507350 0.0995 0.0980 0.0970 0.0970 0.0965
3183.868675 0.0960 0.0955 0.0950 0.0950 0.0955
3190.230000 0.0955 0.0950 0.0945 0.0940 0.0940
3196.591325 0.0940 0.0940 0.0940 0.0940 0.0940
3202.952650 0.0940 0.0940 0.0940 0.0940 0.0945
3209.313975 0.0950 0.0955 0.0976 0.0990 0.0995
3215.675300 0.1005 0.1015 0.1020 0.1020 0.1030
3222.036625 0.1040 0.1045 0.1050 0.1055 0.1070
3228.397950 0.1080 0.1085 0.1090 0.1095 0.1100
3234.759275 0.1100 0.1100 0.1100 0.1105 0.1110
3241.120600 0.1110 0.1110 0.1110 0.1120 0.1130
3247.481925 0.1130 0.1130 0.1130 0.1130 0.1130
3253.843250 0.1130 0.1130 0.1130 0.1130 0.1130
3260.204575 0.1130 0.1130 0.1130 0.1120 0.1110
3266.565900 0.1105 0.1095 0.1085 0.1080 0.1070
3272.927225 0.1060 0.1055 0.1050 0.1045 0.1040
3279.288550 0.1024 0.1010 0.1010 0.1010 0.1005
3285.649875 0.1000 0.0995 0.0990 0.0990 0.0990
3292.011200 0.0990 0.0990 0.0990 0.0990 0.0990
3298.372525 0.0995 0.1000 0.1000 0.1000 0.1005
3304.733850 0.1015 0.1030 0.1040 0.1045 0.1055
3311.095175 0.1070 0.1085 0.1090 0.1095 0.1105
3317.456500 0.1126 0.1145 0.1165 0.1185 0.1195
3323.817825 0.1216 0.1235 0.1245 0.1266 0.1285
3330.179150 0.1311 0.1351 0.1375 0.1385 0.1400
3336.540475 0.1415 0.1425 0.1435 0.1450 0.1465
3342.901800 0.1470 0.1475 0.1480 0.1501 0.1525
3349.263125 0.1546 0.1565 0.1575 0.1590 0.1600
3355.624450 0.1600 0.1605 0.1636 0.1665 0.1686
3361.985775 0.1705 0.1715 0.1730 0.1740 0.1745
3368.347100 0.1750 0.1755 0.1760 0.1760 0.1765
3374.708425 0.1770 0.1770 0.1770 0.1770 0.1770
3381.069750 0.1780 0.1795 0.1800 0.1805 0.1815
3387.431075 0.1830 0.1850 0.1870 0.1885 0.1895
3393.792400 0.1900 0.1905 0.1910 0.1920 0.1935
3400.153725 0.1945 0.1955 0.1976 0.1990 0.1995
3406.515050 0.2000 0.2000 0.2010 0.2020 0.2025
3412.876375 0.2030 0.2030 0.2035 0.2040 0.2040
3419.237700 0.2045 0.2060 0.2075 0.2085 0.2090
3425.599025 0.2106 0.2130 0.2150 0.2160 0.2165
3431.960350 0.2175 0.2185 0.2200 0.2215 0.2220
3438.321675 0.2230 0.2240 0.2261 0.2296 0.2320
3444.683000 0.2340 0.2360 0.2375 0.2380 0.2396
3451.044325 0.2415 0.2436 0.2460 0.2480 0.2490
3457.405650 0.2500 0.2531 0.2560 0.2580 0.2595
3463.766975 0.2605 0.2610 0.2620 0.2635 0.2640
3470.128300 0.2645 0.2650 0.2655 0.2670 0.2680
3476.489625 0.2711 0.2761 0.2790 0.2810 0.2825
3482.850950 0.2835 0.2840 0.2845 0.2850 0.2850
3489.212275 0.2850 0.2850 0.2860 0.2870 0.2875
3495.573600 0.2921 0.2970 0.2995 0.3025 0.3056
3501.934925 0.3075 0.3096 0.3120 0.3140 0.3150
3508.296250 0.3150 0.3155 0.3160 0.3165 0.3170
3514.657575 0.3186 0.3205 0.3215 0.3236 0.3255
3521.018900 0.3276 0.3295 0.3305 0.3325 0.3350
3527.380225 0.3365 0.3380 0.3395 0.3405 0.3410
3533.741550 0.3420 0.3435 0.3445 0.3465 0.3485
3540.102875 0.3490 0.3495 0.3505 0.3526 0.3540
3546.464200 0.3556 0.3575 0.3590 0.3610 0.3636
3552.825525 0.3666 0.3701 0.3730 0.3750 0.3760
3559.186850 0.3765 0.3775 0.3795 0.3815 0.3825
3565.548175 0.3830 0.3830 0.3846 0.3886 0.3957
3571.909500 0.4005 0.4010 0.4025 0.4045 0.4050
3578.270825 0.4055 0.4076 0.4095 0.4105 0.4131
3584.632150 0.4166 0.4190 0.4215 0.4256 0.4290
3590.993475 0.4316 0.4335 0.4345 0.4350 0.4360
3597.354800 0.4370 0.4375 0.4385 0.4411 0.4451
3603.716125 0.4480 0.4506 0.4525 0.4546 0.4565
3610.077450 0.4591 0.4636 0.4681 0.4715 0.4746
3616.438775 0.4765 0.4780 0.4806 0.4836 0.4871
3622.800100 0.4900 0.4926 0.4971 0.5005 0.5010
3629.161425 0.5010 0.5026 0.5045 0.5055 0.5060
3635.522750 0.5070 0.5080 0.5090 0.5100 0.5121
3641.884075 0.5161 0.5180 0.5185 0.5195 0.5210
3648.245400 0.5225 0.5235 0.5261 0.5295 0.5315
3654.606725 0.5330 0.5350 0.5360 0.5360 0.5360
3660.968050 0.5360 0.5365 0.5385 0.5405 0.5415
3667.329375 0.5425 0.5430 0.5440 0.5450 0.5450
3673.690700 0.5450 0.5450 0.5455 0.5481 0.5500
3680.052025 0.5505 0.5515 0.5520 0.5530 0.5550
3686.413350 0.5581 0.5621 0.5650 0.5665 0.5670
3692.774675 0.5670 0.5680 0.5690 0.5695 0.5716
3699.136000 0.5740 0.5766 0.5780 0.5785 0.5795
3705.497325 0.5805 0.5820 0.5835 0.5840 0.5845
3711.858650 0.5850 0.5860 0.5870 0.5875 0.5890
3718.219975 0.5910 0.5930 0.5940 0.5945 0.5960
3724.581300 0.5980 0.6000 0.6015 0.6025 0.6030
3730.942625 0.6030 0.6035 0.6040 0.6050 0.6060
3737.303950 0.6060 0.6065 0.6070 0.6070 0.6075
3743.665275 0.6080 0.6085 0.6090 0.6090 0.6100
3750.026600 0.6110 0.6110 0.6115 0.6125 0.6135
3756.387925 0.6150 0.6160 0.6160 0.6160 0.6165
3762.749250 0.6170 0.6175 0.6190 0.6205 0.6215
3769.110575 0.6225 0.6240 0.6255 0.6260 0.6260
3775.471900 0.6265 0.6270 0.6270 0.6270 0.6270
3781.833225 0.6270 0.6270 0.6270 0.6275 0.6280
3788.194550 0.6280 0.6280 0.6290 0.6305 0.6310
3794.555875 0.6315 0.6320 0.6320 0.6330 0.6340
3800.917200 0.6340 0.6345 0.6355 0.6360 0.6365
3807.278525 0.6386 0.6400 0.6400 0.6405 0.6410
3813.639850 0.6410 0.6415 0.6430 0.6440 0.6445
3820.001175 0.6455 0.6460 0.6460 0.6470 0.6480
3826.362500 0.6480 0.6485 0.6495 0.6500 0.6505
3832.723825 0.6510 0.6520 0.6530 0.6530 0.6530
3839.085150 0.6530 0.6530 0.6535 0.6540 0.6540
3845.446475 0.6540 0.6545 0.6550 0.6550 0.6555
3851.807800 0.6570 0.6570 0.6560 0.6560 0.6560
3858.169125 0.6560 0.6560 0.6560 0.6576 0.6590
3864.530450 0.6595 0.6616 0.6635 0.6640 0.6640
3870.891775 0.6640 0.6645 0.6650 0.6660 0.6675
3877.253100 0.6685 0.6690 0.6690 0.6695 0.6700
3883.614425 0.6710 0.6730 0.6745 0.6760 0.6775
3889.975750 0.6780 0.6780 0.6785 0.6790 0.6790
3896.337075 0.6800 0.6810 0.6810 0.6810 0.6810
3902.698400 0.6810 0.6810 0.6815 0.6820 0.6825
3909.059725 0.6830 0.6830 0.6830 0.6830 0.6830
3915.421050 0.6830 0.6830 0.6835 0.6840 0.6840
3921.782375 0.6840 0.6840 0.6840 0.6840 0.6840
3928.143700 0.6840 0.6840 0.6840 0.6850 0.6860
3934.505025 0.6860 0.6865 0.6870 0.6870 0.6870
3940.866350 0.6870 0.6870 0.6870 0.6870 0.6870
3947.227675 0.6870 0.6870 0.6870 0.6870 0.6870
3953.589000 0.6875 0.6880 0.6880 0.6885 0.6890
3959.950325 0.6900 0.6910 0.6910 0.6910 0.6910
3966.311650 0.6900 0.6890 0.6890 0.6890 0.6890
3972.672975 0.6890 0.6900 0.6910 0.6900 0.6890
3979.034300 0.6890 0.6890 0.6890 0.6890 0.6900
3985.395625 0.6910 0.6910 0.6910 0.6910 0.6910
3991.756950 0.6910 0.6915 0.6915 0.6910 0.6910
3998.118275 0.6910 0.6910 0.6910 0.6910 0.6910
4004.479600 0.6910 0.6910
##END=
