##TITLE=1-METHYL-4-NITRO-5-(o-ACETAMIDOPHENYLSULFINYL)IMIDAZOLE
##JCAMP-DX=4.24
##DATA TYPE=INFRARED SPECTRUM
##CLASS=COBLENTZ III
##ORIGIN=SOUTHERN RESEARCH INSTITUTE
##OWNER=Copyright (C) 1987 by the Coblentz Society
Collection (C) 2018 copyright by the U.S. Secretary of Commerce
on behalf of the United States of America. All rights reserved.
##DATE=1956/08/30
##NAMES=N-(2-[(1-methyl-4-nitro-1H-imidazol-5-yl)sulfinyl]phenyl)acetamide
Acetanilide, 2'-( (1-methyl-4-nitro-imidazol-5-yl)sulfinyl)-
##MOLFORM=C12 H12 N4 O4 S
##SOURCE REFERENCE=COBLENTZ NO. 8345
##$NIST ID=B6008345
##$NIST SOURCE=COBLENTZ
##$NIST IMAGE=cob8345
##SPECTROMETER/DATA SYSTEM=PERKIN-ELMER 21 (GRATING)
##INSTRUMENT PARAMETERS=FILTER CHANGE ABOUT 1070 CM^-^1
##STATE=SOLID (1.1 mg / 650 mg KBr DISC) VS. ONE NaCl WINDOW
##SAMPLING PROCEDURE=TRANSMISSION
##RESOLUTION=2
##DATA PROCESSING=DIGITIZED BY COBLENTZ SOCIETY (BATCH II) FROM HARD COPY (ADJUSTED \addcm-1\8-5-0\)
##XUNITS=1/CM
##YUNITS=TRANSMITTANCE
##XFACTOR=1.0
##YFACTOR=1
##DELTAX=1.007367
##FIRSTX=623.115
##LASTX=4024.99
##FIRSTY=0.651
##MAXX=4024.99
##MINX=623.115
##MAXY=1.01953
##MINY=0.0746462
##NPOINTS=3378
##XYDATA=(X++(Y..Y))
623.115000 0.6510 0.6507 0.6503 0.6503 0.6504
628.151834 0.6504 0.6504 0.6504 0.6505 0.6521
633.188668 0.6507 0.6512 0.6518 0.6523 0.6529
638.225502 0.6538 0.6552 0.6566 0.6585 0.6610
643.262336 0.6636 0.6663 0.6695 0.6727 0.6763
648.299170 0.6820 0.6883 0.6956 0.7044 0.7253
653.336004 0.7602 0.7950 0.8299 0.8681 0.9406
658.372837 0.9491 0.9566 0.9658 0.9758 0.9877
663.409671 1.0001 1.0035 1.0068 1.0101 1.0123
668.446505 1.0140 1.0157 1.0164 1.0170 1.0195
673.483339 1.0167 1.0163 1.0158 1.0146 1.0121
678.520173 1.0099 1.0075 1.0043 0.9995 0.9937
683.557007 0.9830 0.9684 0.9576 0.9473 0.9391
688.593841 0.9330 0.9308 0.9312 0.9351 0.9550
693.630675 0.9681 0.9694 0.9697 0.9698 0.9691
698.667509 0.9681 0.9666 0.9652 0.9638 0.9624
703.704343 0.9610 0.9595 0.9584 0.9584 0.9585
708.741177 0.9587 0.9588 0.9585 0.9578 0.9562
713.778011 0.9547 0.9534 0.9522 0.9510 0.9506
718.814845 0.9515 0.9528 0.9542 0.9555 0.9567
723.851679 0.9574 0.9579 0.9575 0.9565 0.9551
728.888512 0.9537 0.9512 0.9457 0.9375 0.9261
733.925346 0.9176 0.9125 0.9085 0.9056 0.9040
738.962180 0.9034 0.9031 0.9033 0.9034 0.9027
743.999014 0.9007 0.8963 0.8905 0.8832 0.8747
749.035848 0.8669 0.8548 0.8250 0.7818 0.7386
754.072682 0.6954 0.6522 0.6090 0.5657 0.5226
759.109516 0.4925 0.4913 0.5082 0.5581 0.6020
764.146350 0.6212 0.6202 0.6092 0.5746 0.5557
769.183184 0.5367 0.5214 0.5166 0.5286 0.5636
774.220018 0.6084 0.6532 0.6979 0.7426 0.7873
779.256852 0.8320 0.8768 0.9154 0.9348 0.9372
784.293686 0.9367 0.9368 0.9366 0.9357 0.9340
789.330520 0.9318 0.9299 0.9277 0.9252 0.9230
794.367353 0.9210 0.9191 0.9170 0.9148 0.9125
799.404187 0.9102 0.9079 0.9058 0.9039 0.9021
804.441021 0.9002 0.8983 0.8965 0.8946 0.8921
809.477855 0.8864 0.8784 0.8713 0.8638 0.8565
814.514689 0.8495 0.8426 0.8358 0.8261 0.8120
819.551523 0.7994 0.7862 0.7577 0.7162 0.6747
824.588357 0.6331 0.5916 0.5501 0.5086 0.4671
829.625191 0.4441 0.4421 0.4731 0.5382 0.6037
834.662025 0.6692 0.7348 0.8003 0.8631 0.8958
839.698859 0.8991 0.9002 0.9000 0.8989 0.8982
844.735693 0.8974 0.8965 0.8954 0.8942 0.8931
849.772527 0.8919 0.8904 0.8887 0.8863 0.8835
854.809361 0.8799 0.8720 0.8634 0.8563 0.8516
859.846194 0.8491 0.8495 0.8524 0.8560 0.8615
864.883028 0.8677 0.8713 0.8725 0.8731 0.8734
869.919862 0.8745 0.8774 0.8812 0.8854 0.8880
874.956696 0.8887 0.8890 0.8891 0.8889 0.8886
879.993530 0.8882 0.8874 0.8857 0.8832 0.8801
885.030364 0.8788 0.8787 0.8790 0.8796 0.8811
890.067198 0.8842 0.8894 0.8966 0.9029 0.9089
895.104032 0.9156 0.9204 0.9232 0.9254 0.9273
900.140866 0.9289 0.9303 0.9311 0.9313 0.9315
905.177700 0.9315 0.9314 0.9313 0.9325 0.9311
910.214534 0.9297 0.9292 0.9287 0.9283 0.9277
915.251368 0.9270 0.9264 0.9258 0.9251 0.9241
920.288202 0.9230 0.9219 0.9207 0.9195 0.9180
925.325036 0.9166 0.9151 0.9137 0.9122 0.9106
930.361869 0.9091 0.9075 0.9059 0.9043 0.9027
935.398703 0.9011 0.8995 0.8978 0.8958 0.8939
940.435537 0.8919 0.8900 0.8881 0.8861 0.8842
945.472371 0.8823 0.8803 0.8784 0.8763 0.8742
950.509205 0.8721 0.8699 0.8678 0.8657 0.8635
955.546039 0.8612 0.8580 0.8546 0.8511 0.8487
960.582873 0.8471 0.8472 0.8488 0.8512 0.8541
965.619707 0.8571 0.8595 0.8615 0.8629 0.8630
970.656541 0.8628 0.8626 0.8619 0.8606 0.8593
975.693375 0.8578 0.8555 0.8529 0.8497 0.8463
980.730209 0.8425 0.8386 0.8347 0.8307 0.8267
985.767043 0.8226 0.8186 0.8146 0.8106 0.8061
990.803877 0.8005 0.7947 0.7889 0.7831 0.7770
995.840710 0.7709 0.7648 0.7546 0.7296 0.6969
1000.877544 0.6634 0.6357 0.6261 0.6148 0.6015
1005.914378 0.5970 0.5948 0.5941 0.5948 0.6147
1010.951212 0.6319 0.6487 0.6655 0.6782 0.6788
1015.988046 0.6782 0.6777 0.6784 0.6765 0.6739
1021.024880 0.6704 0.6606 0.6484 0.6391 0.6317
1026.061714 0.6241 0.5897 0.5383 0.4860 0.4776
1031.098548 0.4725 0.4671 0.4613 0.4581 0.4561
1036.135382 0.4554 0.4548 0.4581 0.4868 0.5179
1041.172216 0.5490 0.5801 0.6113 0.6424 0.6732
1046.209050 0.6942 0.6935 0.6938 0.6937 0.6927
1051.245884 0.6777 0.6537 0.6298 0.6058 0.5818
1056.282718 0.5578 0.5338 0.5099 0.4859 0.4619
1061.319552 0.4383 0.4207 0.4210 0.4231 0.4293
1066.356385 0.4355 0.4416 0.4463 0.4437 0.4197
1071.393219 0.3721 0.3586 0.3435 0.3258 0.3118
1076.430053 0.2978 0.2838 0.2704 0.2626 0.2635
1081.466887 0.2736 0.3376 0.4017 0.4658 0.5299
1086.503721 0.5940 0.6581 0.7222 0.7832 0.8218
1091.540555 0.8252 0.8273 0.8281 0.8286 0.8279
1096.577389 0.8278 0.8276 0.8275 0.8272 0.8262
1101.614223 0.8244 0.8213 0.8177 0.8139 0.8079
1106.651057 0.7981 0.7836 0.7736 0.7643 0.7561
1111.687891 0.7466 0.7354 0.7249 0.7101 0.6896
1116.724725 0.6690 0.6486 0.6291 0.6171 0.6169
1121.761559 0.6214 0.6404 0.6563 0.6723 0.6881
1126.798393 0.7040 0.7198 0.7358 0.7516 0.7652
1131.835226 0.7729 0.7790 0.7842 0.7877 0.7909
1136.872060 0.7938 0.7963 0.7988 0.8010 0.8020
1141.908894 0.8014 0.8010 0.8005 0.7991 0.7978
1146.945728 0.7958 0.7924 0.7849 0.7716 0.7584
1151.982562 0.7451 0.7319 0.7191 0.7115 0.7108
1157.019396 0.7103 0.7100 0.7074 0.6997 0.6896
1162.056230 0.6795 0.6693 0.6592 0.6495 0.6450
1167.093064 0.6461 0.6527 0.6686 0.6858 0.7030
1172.129898 0.7203 0.7375 0.7547 0.7705 0.7806
1177.166732 0.7840 0.7851 0.7857 0.7852 0.7849
1182.203566 0.7852 0.7846 0.7835 0.7819 0.7800
1187.240400 0.7779 0.7755 0.7730 0.7706 0.7683
1192.277234 0.7661 0.7639 0.7618 0.7597 0.7576
1197.314067 0.7555 0.7532 0.7507 0.7481 0.7450
1202.350901 0.7410 0.7366 0.7316 0.7258 0.7200
1207.387735 0.7146 0.7095 0.7044 0.6980 0.6892
1212.424569 0.6783 0.6613 0.6416 0.6280 0.6163
1217.461403 0.5829 0.5232 0.4622 0.4352 0.4295
1222.498237 0.4278 0.4284 0.4285 0.4295 0.4314
1227.535071 0.4349 0.4585 0.4895 0.5185 0.5475
1232.571905 0.5765 0.6055 0.6293 0.6398 0.6416
1237.608739 0.6413 0.6404 0.6389 0.6342 0.6254
1242.645573 0.6186 0.6135 0.6087 0.6039 0.5994
1247.682407 0.5951 0.5928 0.5922 0.5922 0.5924
1252.719241 0.5895 0.5956 0.6014 0.6059 0.6111
1257.756075 0.6158 0.6188 0.6196 0.6196 0.6197
1262.792909 0.6197 0.6193 0.6179 0.6149 0.6097
1267.829742 0.6035 0.5969 0.5893 0.5780 0.5604
1272.866576 0.5491 0.5353 0.5027 0.4653 0.4280
1277.903410 0.3907 0.3534 0.3160 0.2676 0.2400
1282.940244 0.2269 0.2173 0.2082 0.2012 0.1946
1287.977078 0.1880 0.1824 0.1770 0.1721 0.1677
1293.013912 0.1632 0.1588 0.1544 0.1501 0.1458
1298.050746 0.1422 0.1388 0.1367 0.1350 0.1346
1303.087580 0.1347 0.1349 0.1355 0.1368 0.1388
1308.124414 0.1669 0.2099 0.2544 0.2988 0.3433
1313.161248 0.3876 0.4321 0.4765 0.5210 0.5653
1318.198082 0.6098 0.6542 0.6868 0.7029 0.7150
1323.234916 0.7221 0.7254 0.7275 0.7278 0.7283
1328.271750 0.7263 0.7250 0.7219 0.7161 0.7088
1333.308583 0.6994 0.6925 0.6855 0.6770 0.6577
1338.345417 0.6473 0.6361 0.6252 0.6156 0.6031
1343.382251 0.5917 0.5808 0.5623 0.5371 0.5120
1348.419085 0.4869 0.4618 0.4368 0.4148 0.4145
1353.455919 0.4139 0.4137 0.4128 0.3970 0.3724
1358.492753 0.3478 0.3232 0.3005 0.2973 0.2967
1363.529587 0.2969 0.2974 0.2978 0.2970 0.2963
1368.566421 0.2962 0.2942 0.2955 0.2971 0.3000
1373.603255 0.3048 0.3118 0.3244 0.3345 0.3480
1378.640089 0.3968 0.4455 0.4942 0.5430 0.5917
1383.676923 0.6404 0.6851 0.7054 0.7089 0.7101
1388.713757 0.7116 0.7077 0.7054 0.7024 0.6975
1393.750591 0.6936 0.6897 0.6861 0.6831 0.6801
1398.787425 0.6766 0.6718 0.6659 0.6572 0.6474
1403.824258 0.6372 0.6220 0.6119 0.6062 0.6011
1408.861092 0.5898 0.5625 0.5351 0.5077 0.4803
1413.897926 0.4529 0.4255 0.3981 0.3719 0.3518
1418.934760 0.3424 0.3399 0.3378 0.3366 0.3348
1423.971594 0.3297 0.3210 0.3123 0.3036 0.2950
1429.008428 0.2863 0.2793 0.2772 0.2773 0.2813
1434.045262 0.2927 0.3040 0.3153 0.3267 0.3380
1439.082096 0.3493 0.3607 0.3720 0.3833 0.3931
1444.118930 0.3980 0.3986 0.4009 0.4021 0.3924
1449.155764 0.3768 0.3612 0.3457 0.3300 0.3145
1454.192598 0.2974 0.2842 0.2814 0.2805 0.2786
1459.229432 0.2784 0.2891 0.3065 0.3239 0.3413
1464.266266 0.3547 0.3624 0.3697 0.3711 0.3651
1469.303099 0.3576 0.3491 0.3416 0.3353 0.3302
1474.339933 0.3248 0.3191 0.3132 0.3073 0.3016
1479.376767 0.2959 0.2888 0.2763 0.2598 0.2434
1484.413601 0.2270 0.2106 0.1941 0.1835 0.1808
1489.450435 0.1804 0.1807 0.1812 0.1830 0.1923
1494.487269 0.2082 0.2245 0.2409 0.2572 0.2718
1499.524103 0.2780 0.2753 0.2735 0.2643 0.2518
1504.560937 0.2435 0.2385 0.2261 0.2048 0.1833
1509.597771 0.1618 0.1402 0.1180 0.1023 0.0955
1514.634605 0.0905 0.0868 0.0827 0.0788 0.0764
1519.671439 0.0751 0.0746 0.0752 0.0757 0.0765
1524.708273 0.0781 0.0807 0.0842 0.0942 0.1237
1529.745107 0.1681 0.2127 0.2571 0.3016 0.3461
1534.781940 0.3905 0.4350 0.4747 0.4876 0.4949
1539.818774 0.4997 0.5036 0.5066 0.5096 0.5137
1544.855608 0.5193 0.5317 0.5894 0.6228 0.6424
1549.892442 0.6552 0.6680 0.6896 0.7042 0.7157
1554.929276 0.7214 0.7241 0.7243 0.7247 0.7251
1559.966110 0.7243 0.7228 0.7212 0.7177 0.7141
1565.002944 0.7072 0.6957 0.6659 0.6314 0.5970
1570.039778 0.5625 0.5280 0.4936 0.4591 0.4246
1575.076612 0.3901 0.3621 0.3489 0.3454 0.3444
1580.113446 0.3452 0.3462 0.3487 0.3663 0.3984
1585.150280 0.4341 0.4840 0.5272 0.5550 0.5828
1590.187114 0.6106 0.6384 0.6662 0.6940 0.7218
1595.223948 0.7492 0.7694 0.7790 0.7854 0.7893
1600.260782 0.7907 0.7912 0.7910 0.7915 0.7906
1605.297615 0.7890 0.7864 0.7834 0.7799 0.7747
1610.334449 0.7696 0.7648 0.7600 0.7552 0.7503
1615.371283 0.7455 0.7410 0.7366 0.7322 0.7281
1620.408117 0.7242 0.7204 0.7165 0.7128 0.7093
1625.444951 0.7061 0.7025 0.6955 0.6813 0.6665
1630.481785 0.6576 0.6522 0.6492 0.6425 0.6211
1635.518619 0.5983 0.5865 0.5761 0.5669 0.5583
1640.555453 0.5498 0.5414 0.5337 0.5268 0.5200
1645.592287 0.5132 0.5065 0.4995 0.4913 0.4821
1650.629121 0.4705 0.4564 0.4401 0.4145 0.3837
1655.665955 0.3529 0.3220 0.2912 0.2604 0.2295
1660.702789 0.1987 0.1678 0.1378 0.1183 0.1126
1665.739623 0.1122 0.1116 0.1131 0.1155 0.1298
1670.776456 0.1601 0.1948 0.2294 0.2640 0.2986
1675.813290 0.3333 0.3836 0.4055 0.4209 0.4411
1680.850124 0.4624 0.4837 0.5050 0.5262 0.5475
1685.886958 0.5688 0.5867 0.6008 0.6508 0.6710
1690.923792 0.6804 0.6891 0.6989 0.7115 0.7219
1695.960626 0.7295 0.7367 0.7411 0.7447 0.7485
1700.997460 0.7523 0.7561 0.7637 0.7725 0.7959
1706.034294 0.8182 0.8348 0.8469 0.8569 0.8642
1711.071128 0.8715 0.8785 0.8835 0.8884 0.8933
1716.107962 0.8958 0.8981 0.9004 0.9027 0.9051
1721.144796 0.9073 0.9092 0.9112 0.9132 0.9151
1726.181630 0.9171 0.9189 0.9207 0.9225 0.9244
1731.218464 0.9262 0.9281 0.9300 0.9318 0.9334
1736.255298 0.9346 0.9357 0.9369 0.9380 0.9391
1741.292131 0.9399 0.9406 0.9414 0.9422 0.9429
1746.328965 0.9432 0.9434 0.9437 0.9440 0.9442
1751.365799 0.9444 0.9446 0.9448 0.9451 0.9453
1756.402633 0.9455 0.9460 0.9465 0.9471 0.9476
1761.439467 0.9481 0.9486 0.9491 0.9497 0.9504
1766.476301 0.9511 0.9518 0.9527 0.9539 0.9548
1771.513135 0.9551 0.9554 0.9556 0.9559 0.9561
1776.549969 0.9562 0.9561 0.9560 0.9560 0.9559
1781.586803 0.9559 0.9558 0.9558 0.9558 0.9557
1786.623637 0.9560 0.9567 0.9575 0.9583 0.9591
1791.660471 0.9598 0.9605 0.9612 0.9619 0.9626
1796.697305 0.9634 0.9642 0.9650 0.9658 0.9666
1801.734139 0.9673 0.9681 0.9689 0.9697 0.9705
1806.770972 0.9713 0.9721 0.9728 0.9736 0.9744
1811.807806 0.9753 0.9761 0.9770 0.9779 0.9788
1816.844640 0.9797 0.9801 0.9805 0.9807 0.9807
1821.881474 0.9807 0.9807 0.9806 0.9805 0.9804
1826.918308 0.9803 0.9802 0.9801 0.9800 0.9799
1831.955142 0.9798 0.9796 0.9795 0.9794 0.9792
1836.991976 0.9791 0.9790 0.9788 0.9787 0.9785
1842.028810 0.9783 0.9781 0.9780 0.9778 0.9777
1847.065644 0.9775 0.9774 0.9772 0.9771 0.9769
1852.102478 0.9768 0.9766 0.9763 0.9761 0.9759
1857.139312 0.9757 0.9755 0.9752 0.9750 0.9748
1862.176146 0.9746 0.9742 0.9739 0.9735 0.9732
1867.212980 0.9728 0.9725 0.9721 0.9718 0.9714
1872.249813 0.9711 0.9707 0.9704 0.9700 0.9697
1877.286647 0.9693 0.9690 0.9686 0.9682 0.9678
1882.323481 0.9675 0.9672 0.9668 0.9665 0.9661
1887.360315 0.9658 0.9655 0.9653 0.9655 0.9657
1892.397149 0.9658 0.9660 0.9662 0.9663 0.9665
1897.433983 0.9667 0.9668 0.9671 0.9672 0.9674
1902.470817 0.9677 0.9679 0.9682 0.9684 0.9687
1907.507651 0.9689 0.9690 0.9689 0.9686 0.9683
1912.544485 0.9680 0.9677 0.9670 0.9661 0.9651
1917.581319 0.9642 0.9632 0.9623 0.9613 0.9603
1922.618153 0.9596 0.9590 0.9586 0.9582 0.9578
1927.654987 0.9574 0.9570 0.9566 0.9562 0.9558
1932.691821 0.9554 0.9551 0.9549 0.9548 0.9547
1937.728655 0.9545 0.9544 0.9543 0.9543 0.9543
1942.765488 0.9543 0.9544 0.9544 0.9544 0.9545
1947.802322 0.9545 0.9545 0.9546 0.9546 0.9546
1952.839156 0.9545 0.9543 0.9541 0.9539 0.9537
1957.875990 0.9535 0.9532 0.9530 0.9528 0.9526
1962.912824 0.9527 0.9530 0.9534 0.9537 0.9541
1967.949658 0.9544 0.9547 0.9551 0.9554 0.9558
1972.986492 0.9563 0.9567 0.9571 0.9576 0.9580
1978.023326 0.9582 0.9582 0.9581 0.9581 0.9581
1983.060160 0.9580 0.9580 0.9579 0.9579 0.9579
1988.096994 0.9578 0.9578 0.9577 0.9575 0.9573
1993.133828 0.9571 0.9570 0.9568 0.9566 0.9564
1998.170662 0.9563 0.9561 0.9559 0.9557 0.9556
2003.207496 0.9554 0.9550 0.9546 0.9542 0.9538
2008.244329 0.9534 0.9530 0.9526 0.9523 0.9519
2013.281163 0.9515 0.9511 0.9508 0.9506 0.9504
2018.317997 0.9502 0.9500 0.9499 0.9497 0.9495
2023.354831 0.9495 0.9497 0.9498 0.9499 0.9499
2028.391665 0.9496 0.9494 0.9491 0.9487 0.9484
2033.428499 0.9480 0.9476 0.9473 0.9469 0.9465
2038.465333 0.9461 0.9458 0.9454 0.9450 0.9447
2043.502167 0.9443 0.9439 0.9435 0.9431 0.9426
2048.539001 0.9422 0.9418 0.9414 0.9410 0.9406
2053.575835 0.9402 0.9398 0.9394 0.9390 0.9386
2058.612669 0.9383 0.9379 0.9375 0.9371 0.9368
2063.649503 0.9364 0.9360 0.9357 0.9357 0.9357
2068.686337 0.9357 0.9356 0.9356 0.9356 0.9356
2073.723171 0.9355 0.9353 0.9352 0.9350 0.9348
2078.760004 0.9347 0.9345 0.9343 0.9340 0.9335
2083.796838 0.9329 0.9324 0.9318 0.9313 0.9307
2088.833672 0.9301 0.9296 0.9292 0.9290 0.9288
2093.870506 0.9287 0.9285 0.9284 0.9282 0.9281
2098.907340 0.9279 0.9278 0.9278 0.9277 0.9277
2103.944174 0.9277 0.9276 0.9275 0.9270 0.9263
2108.981008 0.9257 0.9251 0.9244 0.9238 0.9232
2114.017842 0.9225 0.9218 0.9211 0.9206 0.9204
2119.054676 0.9202 0.9200 0.9198 0.9195 0.9192
2124.091510 0.9189 0.9188 0.9188 0.9188 0.9188
2129.128344 0.9187 0.9187 0.9187 0.9187 0.9187
2134.165178 0.9187 0.9188 0.9188 0.9188 0.9189
2139.202012 0.9189 0.9189 0.9189 0.9190 0.9190
2144.238845 0.9190 0.9191 0.9193 0.9194 0.9195
2149.275679 0.9197 0.9198 0.9199 0.9200 0.9202
2154.312513 0.9203 0.9204 0.9206 0.9206 0.9207
2159.349347 0.9207 0.9207 0.9208 0.9208 0.9208
2164.386181 0.9206 0.9203 0.9201 0.9198 0.9195
2169.423015 0.9193 0.9190 0.9188 0.9185 0.9182
2174.459849 0.9179 0.9176 0.9173 0.9170 0.9167
2179.496683 0.9164 0.9160 0.9157 0.9154 0.9151
2184.533517 0.9148 0.9144 0.9140 0.9136 0.9131
2189.570351 0.9127 0.9122 0.9118 0.9113 0.9109
2194.607185 0.9104 0.9100 0.9096 0.9091 0.9086
2199.644019 0.9082 0.9079 0.9075 0.9072 0.9068
2204.680853 0.9065 0.9061 0.9058 0.9054 0.9051
2209.717687 0.9047 0.9045 0.9042 0.9040 0.9037
2214.754520 0.9035 0.9032 0.9030 0.9027 0.9025
2219.791354 0.9023 0.9020 0.9018 0.9015 0.9013
2224.828188 0.9010 0.9008 0.9005 0.9003 0.9001
2229.865022 0.8998 0.8996 0.8993 0.8991 0.8988
2234.901856 0.8986 0.8983 0.8981 0.8978 0.8976
2239.938690 0.8973 0.8971 0.8968 0.8966 0.8963
2244.975524 0.8961 0.8959 0.8956 0.8954 0.8951
2250.012358 0.8949 0.8946 0.8944 0.8941 0.8939
2255.049192 0.8936 0.8934 0.8932 0.8929 0.8927
2260.086026 0.8924 0.8922 0.8919 0.8917 0.8914
2265.122860 0.8912 0.8910 0.8907 0.8905 0.8902
2270.159694 0.8900 0.8896 0.8893 0.8890 0.8886
2275.196528 0.8883 0.8879 0.8875 0.8871 0.8867
2280.233361 0.8864 0.8860 0.8856 0.8852 0.8849
2285.270195 0.8846 0.8843 0.8840 0.8836 0.8833
2290.307029 0.8830 0.8826 0.8823 0.8820 0.8817
2295.343863 0.8814 0.8811 0.8808 0.8803 0.8798
2300.380697 0.8792 0.8786 0.8781 0.8775 0.8770
2305.417531 0.8764 0.8759 0.8754 0.8751 0.8748
2310.454365 0.8744 0.8741 0.8737 0.8734 0.8730
2315.491199 0.8727 0.8724 0.8721 0.8719 0.8716
2320.528033 0.8714 0.8711 0.8709 0.8707 0.8704
2325.564867 0.8702 0.8699 0.8697 0.8695 0.8693
2330.601701 0.8691 0.8688 0.8686 0.8684 0.8681
2335.638535 0.8677 0.8674 0.8670 0.8667 0.8663
2340.675369 0.8660 0.8657 0.8654 0.8650 0.8648
2345.712202 0.8645 0.8642 0.8639 0.8637 0.8636
2350.749036 0.8639 0.8641 0.8643 0.8645 0.8649
2355.785870 0.8654 0.8660 0.8666 0.8671 0.8677
2360.822704 0.8683 0.8690 0.8695 0.8696 0.8696
2365.859538 0.8695 0.8695 0.8695 0.8694 0.8692
2370.896372 0.8690 0.8688 0.8686 0.8684 0.8680
2375.933206 0.8673 0.8666 0.8660 0.8653 0.8646
2380.970040 0.8638 0.8630 0.8621 0.8613 0.8602
2386.006874 0.8589 0.8576 0.8563 0.8551 0.8538
2391.043708 0.8524 0.8515 0.8510 0.8505 0.8499
2396.080542 0.8494 0.8489 0.8485 0.8482 0.8480
2401.117376 0.8479 0.8477 0.8476 0.8474 0.8473
2406.154210 0.8471 0.8470 0.8469 0.8468 0.8467
2411.191044 0.8466 0.8466 0.8465 0.8464 0.8463
2416.227877 0.8462 0.8462 0.8462 0.8463 0.8463
2421.264711 0.8464 0.8465 0.8466 0.8466 0.8467
2426.301545 0.8468 0.8468 0.8468 0.8468 0.8468
2431.338379 0.8468 0.8468 0.8468 0.8468 0.8469
2436.375213 0.8469 0.8469 0.8469 0.8469 0.8469
2441.412047 0.8469 0.8469 0.8469 0.8469 0.8465
2446.448881 0.8449 0.8426 0.8407 0.8405 0.8404
2451.485715 0.8403 0.8402 0.8401 0.8401 0.8400
2456.522549 0.8398 0.8395 0.8393 0.8392 0.8392
2461.559383 0.8391 0.8391 0.8390 0.8390 0.8389
2466.596217 0.8389 0.8388 0.8388 0.8387 0.8385
2471.633051 0.8383 0.8381 0.8378 0.8376 0.8374
2476.669885 0.8372 0.8369 0.8366 0.8364 0.8361
2481.706718 0.8359 0.8354 0.8350 0.8346 0.8342
2486.743552 0.8338 0.8335 0.8331 0.8328 0.8327
2491.780386 0.8325 0.8324 0.8322 0.8321 0.8319
2496.817220 0.8318 0.8316 0.8315 0.8313 0.8312
2501.854054 0.8310 0.8309 0.8307 0.8306 0.8305
2506.890888 0.8303 0.8302 0.8301 0.8299 0.8297
2511.927722 0.8294 0.8290 0.8287 0.8284 0.8281
2516.964556 0.8277 0.8274 0.8271 0.8268 0.8264
2522.001390 0.8261 0.8258 0.8254 0.8250 0.8246
2527.038224 0.8242 0.8238 0.8234 0.8231 0.8227
2532.075058 0.8223 0.8219 0.8215 0.8211 0.8208
2537.111892 0.8204 0.8200 0.8196 0.8193 0.8189
2542.148726 0.8186 0.8183 0.8179 0.8176 0.8173
2547.185560 0.8169 0.8166 0.8162 0.8159 0.8155
2552.222393 0.8152 0.8148 0.8144 0.8141 0.8137
2557.259227 0.8134 0.8129 0.8126 0.8124 0.8122
2562.296061 0.8122 0.8122 0.8122 0.8121 0.8121
2567.332895 0.8121 0.8120 0.8120 0.8120 0.8120
2572.369729 0.8119 0.8119 0.8119 0.8119 0.8118
2577.406563 0.8118 0.8118 0.8117 0.8117 0.8117
2582.443397 0.8117 0.8117 0.8117 0.8117 0.8117
2587.480231 0.8117 0.8117 0.8117 0.8117 0.8117
2592.517065 0.8117 0.8117 0.8117 0.8117 0.8117
2597.553899 0.8117 0.8117 0.8117 0.8116 0.8116
2602.590733 0.8116 0.8116 0.8116 0.8116 0.8115
2607.627567 0.8115 0.8114 0.8114 0.8113 0.8113
2612.664401 0.8112 0.8112 0.8112 0.8111 0.8108
2617.701234 0.8106 0.8103 0.8101 0.8098 0.8096
2622.738068 0.8093 0.8091 0.8088 0.8086 0.8084
2627.774902 0.8081 0.8079 0.8076 0.8072 0.8068
2632.811736 0.8063 0.8059 0.8055 0.8050 0.8046
2637.848570 0.8042 0.8038 0.8033 0.8029 0.8025
2642.885404 0.8021 0.8017 0.8012 0.8006 0.8000
2647.922238 0.7994 0.7988 0.7983 0.7977 0.7970
2652.959072 0.7964 0.7958 0.7953 0.7947 0.7941
2657.995906 0.7935 0.7929 0.7923 0.7917 0.7911
2663.032740 0.7905 0.7899 0.7893 0.7887 0.7881
2668.069574 0.7875 0.7869 0.7863 0.7857 0.7850
2673.106408 0.7844 0.7838 0.7832 0.7826 0.7820
2678.143242 0.7815 0.7810 0.7805 0.7800 0.7795
2683.180075 0.7790 0.7785 0.7780 0.7774 0.7769
2688.216909 0.7764 0.7758 0.7753 0.7748 0.7743
2693.253743 0.7738 0.7733 0.7728 0.7723 0.7718
2698.290577 0.7712 0.7707 0.7702 0.7696 0.7691
2703.327411 0.7685 0.7680 0.7675 0.7669 0.7664
2708.364245 0.7658 0.7652 0.7645 0.7639 0.7632
2713.401079 0.7626 0.7619 0.7613 0.7607 0.7600
2718.437913 0.7594 0.7588 0.7583 0.7579 0.7575
2723.474747 0.7571 0.7566 0.7562 0.7558 0.7554
2728.511581 0.7550 0.7546 0.7542 0.7538 0.7534
2733.548415 0.7530 0.7526 0.7522 0.7517 0.7513
2738.585249 0.7508 0.7509 0.7511 0.7513 0.7515
2743.622083 0.7517 0.7519 0.7521 0.7523 0.7525
2748.658917 0.7527 0.7529 0.7531 0.7532 0.7532
2753.695750 0.7533 0.7534 0.7534 0.7535 0.7536
2758.732584 0.7536 0.7537 0.7537 0.7538 0.7539
2763.769418 0.7537 0.7535 0.7533 0.7532 0.7530
2768.806252 0.7528 0.7527 0.7526 0.7525 0.7524
2773.843086 0.7522 0.7521 0.7520 0.7519 0.7518
2778.879920 0.7517 0.7516 0.7515 0.7513 0.7512
2783.916754 0.7511 0.7510 0.7509 0.7507 0.7506
2788.953588 0.7505 0.7504 0.7503 0.7502 0.7500
2793.990422 0.7499 0.7496 0.7493 0.7491 0.7488
2799.027256 0.7486 0.7483 0.7480 0.7477 0.7475
2804.064090 0.7472 0.7470 0.7467 0.7464 0.7462
2809.100924 0.7459 0.7456 0.7454 0.7451 0.7448
2814.137758 0.7445 0.7442 0.7439 0.7437 0.7434
2819.174591 0.7431 0.7428 0.7425 0.7422 0.7419
2824.211425 0.7417 0.7413 0.7409 0.7406 0.7402
2829.248259 0.7399 0.7395 0.7391 0.7388 0.7384
2834.285093 0.7381 0.7377 0.7373 0.7369 0.7364
2839.321927 0.7359 0.7355 0.7350 0.7346 0.7341
2844.358761 0.7336 0.7332 0.7327 0.7323 0.7318
2849.395595 0.7313 0.7308 0.7302 0.7295 0.7289
2854.432429 0.7283 0.7277 0.7271 0.7264 0.7258
2859.469263 0.7251 0.7242 0.7234 0.7226 0.7217
2864.506097 0.7209 0.7200 0.7192 0.7183 0.7174
2869.542931 0.7166 0.7157 0.7149 0.7142 0.7135
2874.579765 0.7128 0.7121 0.7114 0.7107 0.7100
2879.616599 0.7093 0.7086 0.7079 0.7071 0.7064
2884.653433 0.7057 0.7051 0.7046 0.7041 0.7037
2889.690266 0.7032 0.7027 0.7022 0.7017 0.7012
2894.727100 0.7007 0.7003 0.7000 0.6998 0.6995
2899.763934 0.6993 0.6991 0.6989 0.6987 0.6984
2904.800768 0.6982 0.6977 0.6969 0.6961 0.6953
2909.837602 0.6945 0.6937 0.6929 0.6921 0.6912
2914.874436 0.6898 0.6885 0.6871 0.6858 0.6844
2919.911270 0.6831 0.6817 0.6806 0.6801 0.6795
2924.948104 0.6790 0.6784 0.6778 0.6773 0.6768
2929.984938 0.6762 0.6758 0.6756 0.6754 0.6754
2935.021772 0.6755 0.6755 0.6755 0.6756 0.6756
2940.058606 0.6755 0.6753 0.6752 0.6750 0.6749
2945.095440 0.6747 0.6746 0.6744 0.6743 0.6741
2950.132274 0.6740 0.6738 0.6737 0.6736 0.6735
2955.169107 0.6735 0.6735 0.6734 0.6734 0.6733
2960.205941 0.6731 0.6728 0.6725 0.6722 0.6719
2965.242775 0.6715 0.6710 0.6704 0.6696 0.6689
2970.279609 0.6682 0.6674 0.6666 0.6658 0.6649
2975.316443 0.6641 0.6633 0.6625 0.6617 0.6608
2980.353277 0.6599 0.6590 0.6581 0.6572 0.6563
2985.390111 0.6554 0.6545 0.6536 0.6527 0.6518
2990.426945 0.6510 0.6501 0.6493 0.6484 0.6476
2995.463779 0.6467 0.6459 0.6450 0.6442 0.6433
3000.500613 0.6425 0.6417 0.6410 0.6402 0.6395
3005.537447 0.6387 0.6380 0.6372 0.6365 0.6357
3010.574281 0.6350 0.6342 0.6334 0.6328 0.6323
3015.611115 0.6318 0.6313 0.6308 0.6303 0.6298
3020.647948 0.6292 0.6288 0.6283 0.6279 0.6275
3025.684782 0.6270 0.6266 0.6261 0.6258 0.6255
3030.721616 0.6253 0.6251 0.6248 0.6246 0.6243
3035.758450 0.6241 0.6239 0.6234 0.6227 0.6221
3040.795284 0.6215 0.6208 0.6198 0.6188 0.6176
3045.832118 0.6161 0.6146 0.6131 0.6117 0.6102
3050.868952 0.6087 0.6072 0.6054 0.6036 0.6017
3055.905786 0.5998 0.5979 0.5958 0.5936 0.5914
3060.942620 0.5893 0.5870 0.5846 0.5822 0.5799
3065.979454 0.5775 0.5751 0.5730 0.5709 0.5689
3071.016288 0.5668 0.5648 0.5624 0.5576 0.5539
3076.053122 0.5507 0.5476 0.5458 0.5446 0.5447
3081.089956 0.5451 0.5453 0.5445 0.5490 0.5526
3086.126790 0.5573 0.5624 0.5670 0.5703 0.5738
3091.163623 0.5777 0.5815 0.5850 0.5880 0.5909
3096.200457 0.5940 0.5977 0.6052 0.6244 0.6332
3101.237291 0.6350 0.6367 0.6378 0.6392 0.6407
3106.274125 0.6396 0.6401 0.6404 0.6401 0.6398
3111.310959 0.6395 0.6392 0.6386 0.6380 0.6375
3116.347793 0.6368 0.6357 0.6347 0.6337 0.6327
3121.384627 0.6315 0.6302 0.6288 0.6275 0.6262
3126.421461 0.6248 0.6235 0.6220 0.6206 0.6192
3131.458295 0.6180 0.6169 0.6159 0.6149 0.6139
3136.495129 0.6128 0.6118 0.6107 0.6097 0.6087
3141.531963 0.6077 0.6068 0.6058 0.6048 0.6038
3146.568797 0.6028 0.6019 0.6010 0.6001 0.5992
3151.605631 0.5983 0.5975 0.5966 0.5957 0.5948
3156.642464 0.5939 0.5930 0.5922 0.5913 0.5904
3161.679298 0.5896 0.5888 0.5879 0.5870 0.5862
3166.716132 0.5854 0.5848 0.5842 0.5836 0.5830
3171.752966 0.5824 0.5818 0.5812 0.5805 0.5798
3176.789800 0.5787 0.5765 0.5735 0.5705 0.5675
3181.826634 0.5645 0.5614 0.5584 0.5553 0.5522
3186.863468 0.5493 0.5467 0.5445 0.5422 0.5399
3191.900302 0.5375 0.5349 0.5320 0.5290 0.5260
3196.937136 0.5230 0.5199 0.5167 0.5136 0.5104
3201.973970 0.5072 0.5038 0.5004 0.4969 0.4935
3207.010804 0.4898 0.4848 0.4798 0.4747 0.4697
3212.047638 0.4650 0.4602 0.4556 0.4508 0.4470
3217.084472 0.4441 0.4412 0.4382 0.4352 0.4324
3222.121306 0.4294 0.4265 0.4237 0.4208 0.4180
3227.158139 0.4152 0.4131 0.4113 0.4094 0.4076
3232.194973 0.4058 0.4039 0.4020 0.4002 0.3984
3237.231807 0.3966 0.3949 0.3933 0.3916 0.3900
3242.268641 0.3884 0.3871 0.3859 0.3847 0.3840
3247.305475 0.3838 0.3836 0.3828 0.3828 0.3836
3252.342309 0.3839 0.3843 0.3846 0.3851 0.3863
3257.379143 0.3883 0.3905 0.3933 0.3962 0.3989
3262.415977 0.4016 0.4043 0.4070 0.4101 0.4132
3267.452811 0.4163 0.4197 0.4230 0.4265 0.4307
3272.489645 0.4360 0.4414 0.4467 0.4520 0.4574
3277.526479 0.4627 0.4681 0.4735 0.4788 0.4841
3282.563313 0.4895 0.4948 0.5001 0.5055 0.5108
3287.600147 0.5161 0.5215 0.5268 0.5311 0.5346
3292.636980 0.5382 0.5419 0.5462 0.5504 0.5546
3297.673814 0.5584 0.5614 0.5642 0.5671 0.5701
3302.710648 0.5729 0.5759 0.5789 0.5819 0.5850
3307.747482 0.5877 0.5903 0.5928 0.5953 0.5979
3312.784316 0.6004 0.6029 0.6051 0.6073 0.6094
3317.821150 0.6115 0.6137 0.6159 0.6180 0.6203
3322.857984 0.6225 0.6247 0.6269 0.6291 0.6310
3327.894818 0.6328 0.6346 0.6364 0.6381 0.6397
3332.931652 0.6408 0.6416 0.6425 0.6434 0.6443
3337.968486 0.6449 0.6453 0.6457 0.6461 0.6465
3343.005320 0.6468 0.6470 0.6472 0.6474 0.6477
3348.042154 0.6479 0.6480 0.6481 0.6481 0.6480
3353.078988 0.6480 0.6480 0.6479 0.6479 0.6479
3358.115821 0.6479 0.6479 0.6479 0.6479 0.6478
3363.152655 0.6478 0.6478 0.6478 0.6478 0.6478
3368.189489 0.6477 0.6476 0.6475 0.6474 0.6473
3373.226323 0.6472 0.6471 0.6470 0.6469 0.6468
3378.263157 0.6467 0.6467 0.6466 0.6468 0.6470
3383.299991 0.6472 0.6474 0.6476 0.6478 0.6480
3388.336825 0.6482 0.6484 0.6485 0.6486 0.6487
3393.373659 0.6488 0.6489 0.6490 0.6491 0.6491
3398.410493 0.6490 0.6490 0.6490 0.6490 0.6489
3403.447327 0.6489 0.6490 0.6492 0.6494 0.6496
3408.484161 0.6497 0.6499 0.6501 0.6503 0.6505
3413.520995 0.6507 0.6509 0.6511 0.6513 0.6515
3418.557829 0.6517 0.6519 0.6523 0.6526 0.6529
3423.594663 0.6533 0.6536 0.6539 0.6543 0.6546
3428.631496 0.6550 0.6553 0.6556 0.6560 0.6563
3433.668330 0.6567 0.6571 0.6576 0.6581 0.6586
3438.705164 0.6591 0.6596 0.6601 0.6606 0.6611
3443.741998 0.6616 0.6621 0.6627 0.6632 0.6636
3448.778832 0.6641 0.6646 0.6651 0.6656 0.6661
3453.815666 0.6666 0.6671 0.6676 0.6681 0.6686
3458.852500 0.6690 0.6695 0.6700 0.6705 0.6710
3463.889334 0.6714 0.6719 0.6724 0.6729 0.6734
3468.926168 0.6739 0.6744 0.6749 0.6754 0.6759
3473.963002 0.6763 0.6767 0.6772 0.6776 0.6780
3478.999836 0.6784 0.6788 0.6792 0.6796 0.6801
3484.036670 0.6805 0.6809 0.6812 0.6817 0.6821
3489.073504 0.6825 0.6829 0.6834 0.6839 0.6843
3494.110337 0.6848 0.6853 0.6857 0.6862 0.6867
3499.147171 0.6871 0.6876 0.6882 0.6888 0.6893
3504.184005 0.6898 0.6904 0.6910 0.6915 0.6919
3509.220839 0.6923 0.6927 0.6932 0.6936 0.6940
3514.257673 0.6944 0.6948 0.6952 0.6956 0.6961
3519.294507 0.6965 0.6969 0.6973 0.6977 0.6981
3524.331341 0.6984 0.6987 0.6990 0.6993 0.6996
3529.368175 0.6999 0.7001 0.7003 0.7005 0.7007
3534.405009 0.7009 0.7011 0.7013 0.7015 0.7017
3539.441843 0.7019 0.7021 0.7023 0.7025 0.7027
3544.478677 0.7029 0.7031 0.7033 0.7035 0.7037
3549.515511 0.7039 0.7041 0.7045 0.7050 0.7055
3554.552345 0.7060 0.7063 0.7066 0.7069 0.7072
3559.589179 0.7075 0.7078 0.7080 0.7082 0.7083
3564.626012 0.7084 0.7085 0.7087 0.7088 0.7089
3569.662846 0.7090 0.7092 0.7094 0.7096 0.7097
3574.699680 0.7098 0.7099 0.7100 0.7101 0.7102
3579.736514 0.7103 0.7104 0.7105 0.7106 0.7107
3584.773348 0.7107 0.7107 0.7108 0.7108 0.7108
3589.810182 0.7109 0.7109 0.7109 0.7109 0.7110
3594.847016 0.7110 0.7110 0.7110 0.7110 0.7110
3599.883850 0.7111 0.7111 0.7111 0.7111 0.7111
3604.920684 0.7111 0.7111 0.7111 0.7111 0.7111
3609.957518 0.7111 0.7111 0.7111 0.7111 0.7111
3614.994352 0.7110 0.7109 0.7108 0.7108 0.7107
3620.031186 0.7106 0.7106 0.7105 0.7104 0.7104
3625.068020 0.7103 0.7103 0.7102 0.7102 0.7102
3630.104853 0.7101 0.7101 0.7101 0.7100 0.7100
3635.141687 0.7100 0.7099 0.7099 0.7099 0.7099
3640.178521 0.7099 0.7098 0.7098 0.7098 0.7098
3645.215355 0.7098 0.7098 0.7098 0.7098 0.7097
3650.252189 0.7097 0.7097 0.7097 0.7097 0.7097
3655.289023 0.7097 0.7097 0.7096 0.7096 0.7096
3660.325857 0.7096 0.7096 0.7096 0.7096 0.7096
3665.362691 0.7096 0.7096 0.7096 0.7096 0.7096
3670.399525 0.7096 0.7096 0.7096 0.7095 0.7095
3675.436359 0.7095 0.7095 0.7095 0.7095 0.7095
3680.473193 0.7095 0.7095 0.7094 0.7093 0.7093
3685.510027 0.7092 0.7092 0.7091 0.7091 0.7090
3690.546861 0.7089 0.7089 0.7088 0.7088 0.7087
3695.583694 0.7087 0.7086 0.7086 0.7085 0.7084
3700.620528 0.7084 0.7083 0.7083 0.7082 0.7082
3705.657362 0.7081 0.7081 0.7080 0.7080 0.7079
3710.694196 0.7079 0.7079 0.7078 0.7078 0.7077
3715.731030 0.7075 0.7072 0.7069 0.7066 0.7062
3720.767864 0.7059 0.7056 0.7052 0.7049 0.7046
3725.804698 0.7042 0.7039 0.7036 0.7032 0.7029
3730.841532 0.7026 0.7023 0.7019 0.7018 0.7018
3735.878366 0.7018 0.7018 0.7019 0.7019 0.7019
3740.915200 0.7019 0.7020 0.7020 0.7020 0.7021
3745.952034 0.7022 0.7023 0.7024 0.7025 0.7027
3750.988868 0.7028 0.7029 0.7030 0.7031 0.7032
3756.025702 0.7032 0.7032 0.7033 0.7033 0.7033
3761.062536 0.7034 0.7034 0.7034 0.7034 0.7035
3766.099369 0.7035 0.7035 0.7036 0.7036 0.7035
3771.136203 0.7033 0.7030 0.7028 0.7025 0.7023
3776.173037 0.7017 0.7009 0.7001 0.6994 0.6986
3781.209871 0.6978 0.6970 0.6966 0.6965 0.6963
3786.246705 0.6962 0.6961 0.6959 0.6958 0.6957
3791.283539 0.6955 0.6954 0.6952 0.6951 0.6950
3796.320373 0.6948 0.6947 0.6946 0.6944 0.6943
3801.357207 0.6942 0.6941 0.6941 0.6941 0.6941
3806.394041 0.6942 0.6942 0.6942 0.6943 0.6943
3811.430875 0.6943 0.6943 0.6944 0.6944 0.6944
3816.467709 0.6945 0.6945 0.6945 0.6946 0.6946
3821.504543 0.6946 0.6946 0.6947 0.6947 0.6947
3826.541377 0.6947 0.6948 0.6948 0.6948 0.6949
3831.578210 0.6949 0.6949 0.6950 0.6950 0.6950
3836.615044 0.6950 0.6951 0.6951 0.6951 0.6952
3841.651878 0.6952 0.6952 0.6953 0.6953 0.6953
3846.688712 0.6954 0.6954 0.6954 0.6954 0.6955
3851.725546 0.6955 0.6955 0.6956 0.6956 0.6956
3856.762380 0.6957 0.6957 0.6957 0.6957 0.6958
3861.799214 0.6958 0.6958 0.6959 0.6959 0.6959
3866.836048 0.6960 0.6960 0.6961 0.6961 0.6961
3871.872882 0.6962 0.6962 0.6963 0.6963 0.6964
3876.909716 0.6964 0.6964 0.6965 0.6965 0.6966
3881.946550 0.6966 0.6967 0.6967 0.6967 0.6968
3886.983384 0.6968 0.6969 0.6969 0.6970 0.6970
3892.020218 0.6970 0.6971 0.6971 0.6972 0.6972
3897.057052 0.6973 0.6973 0.6973 0.6973 0.6973
3902.093885 0.6973 0.6973 0.6974 0.6974 0.6974
3907.130719 0.6974 0.6974 0.6974 0.6974 0.6974
3912.167553 0.6974 0.6974 0.6974 0.6974 0.6974
3917.204387 0.6974 0.6974 0.6974 0.6974 0.6974
3922.241221 0.6975 0.6975 0.6975 0.6975 0.6975
3927.278055 0.6975 0.6975 0.6975 0.6975 0.6975
3932.314889 0.6975 0.6975 0.6975 0.6974 0.6974
3937.351723 0.6974 0.6973 0.6973 0.6973 0.6972
3942.388557 0.6972 0.6972 0.6971 0.6971 0.6971
3947.425391 0.6970 0.6970 0.6970 0.6969 0.6969
3952.462225 0.6969 0.6968 0.6968 0.6968 0.6967
3957.499059 0.6967 0.6967 0.6967 0.6966 0.6966
3962.535893 0.6966 0.6965 0.6965 0.6965 0.6964
3967.572726 0.6964 0.6965 0.6964 0.6963 0.6963
3972.609560 0.6962 0.6962 0.6962 0.6962 0.6961
3977.646394 0.6961 0.6961 0.6960 0.6960 0.6959
3982.683228 0.6959 0.6958 0.6958 0.6958 0.6958
3987.720062 0.6957 0.6957 0.6956 0.6956 0.6955
3992.756896 0.6955 0.6955 0.6954 0.6954 0.6954
3997.793730 0.6955 0.6956 0.6957 0.6958 0.6959
4002.830564 0.6960 0.6961 0.6962 0.6963 0.6964
4007.867398 0.6965 0.6967 0.6969 0.6972 0.6974
4012.904232 0.6976 0.6979 0.6981 0.6984 0.6994
4017.941066 0.7004 0.7013 0.7023 0.7032 0.7042
4022.977900 0.7051 0.7061 0.7067
##END=
