##TITLE=3-Indazolinone, 6-amino-, dihydrochloride
##JCAMP-DX=4.24
$$ By DXEDIT 1.05 (RS McDonald)
##DATA TYPE=INFRARED SPECTRUM
##CLASS=COBLENTZ III
##ORIGIN=DOW CHEMICAL COMPANY
##OWNER=COPYRIGHT (C) 1988 by COBLENTZ SOCIETY INC.
Collection (C) 2018 copyright by the U.S. Secretary of Commerce
on behalf of the United States of America. All rights reserved.
##DATE=1965/09/09
##MOLFORM=C7 H9 Cl2 N3 O
##MP=283 C (SLOWLY DECOMPOSES)
##SOURCE REFERENCE=COBLENTZ NO. 08913
##$NIST ID=B6008913
##$NIST SOURCE=COBLENTZ
##$NIST IMAGE=cob8913
##SPECTROMETER/DATA SYSTEM=BECKMAN IR-9 (GRATING)
##INSTRUMENT PARAMETERS=ORDER CHANGES: 670, 1200, 2000 CM^-^1
##STATE=SOLID (SPLIT MULL), FLUOROLUBE FOR 3800-1330 CM^-^1, NUJOL FOR 1330-400 CM^-^1
$$ STRUCTURE VERIFIED, CLASS II TECHNICAL QUALITY; VERIFYING SPECTRUM MAY BE FROM SAME SOURCE
##SAMPLING PROCEDURE=TRANSMISSION
##RESOLUTION=2
##DATA PROCESSING=DIGITIZED BY COBLENTZ SOCIETY (BATCH I) FROM HARD COPY
##XUNITS=1/CM
##YUNITS=TRANSMITTANCE
##XFACTOR=1
##YFACTOR=1
##DELTAX=1
##FIRSTX=3808
##LASTX=402
##FIRSTY=0.3991
##MAXX=3808
##MINX=402
##MAXY=0.9109
##MINY=0.0164
##NPOINTS=3407
##XYDATA=(X++(Y..Y))
3808.000000 0.3991 0.3993 0.3996 0.4000 0.4004
3803.000000 0.4008 0.4012 0.4014 0.4018 0.4023
3798.000000 0.4027 0.4030 0.4034 0.4039 0.4043
3793.000000 0.4046 0.4050 0.4054 0.4058 0.4062
3788.000000 0.4066 0.4070 0.4074 0.4078 0.4082
3783.000000 0.4087 0.4092 0.4096 0.4101 0.4106
3778.000000 0.4110 0.4115 0.4120 0.4125 0.4130
3773.000000 0.4134 0.4139 0.4143 0.4144 0.4150
3768.000000 0.4153 0.4156 0.4159 0.4160 0.4164
3763.000000 0.4167 0.4170 0.4172 0.4175 0.4178
3758.000000 0.4181 0.4183 0.4186 0.4189 0.4192
3753.000000 0.4194 0.4197 0.4200 0.4203 0.4205
3748.000000 0.4208 0.4210 0.4214 0.4216 0.4219
3743.000000 0.4222 0.4225 0.4228 0.4231 0.4233
3738.000000 0.4236 0.4239 0.4242 0.4245 0.4248
3733.000000 0.4251 0.4254 0.4256 0.4259 0.4262
3728.000000 0.4265 0.4268 0.4271 0.4273 0.4276
3723.000000 0.4279 0.4282 0.4285 0.4288 0.4290
3718.000000 0.4293 0.4296 0.4299 0.4301 0.4304
3713.000000 0.4306 0.4309 0.4310 0.4314 0.4316
3708.000000 0.4319 0.4322 0.4325 0.4327 0.4330
3703.000000 0.4332 0.4335 0.4337 0.4340 0.4342
3698.000000 0.4345 0.4347 0.4350 0.4353 0.4356
3693.000000 0.4358 0.4360 0.4362 0.4366 0.4368
3688.000000 0.4371 0.4373 0.4376 0.4378 0.4381
3683.000000 0.4384 0.4387 0.4389 0.4392 0.4394
3678.000000 0.4397 0.4400 0.4403 0.4406 0.4410
3673.000000 0.4412 0.4417 0.4420 0.4424 0.4427
3668.000000 0.4431 0.4434 0.4438 0.4441 0.4445
3663.000000 0.4448 0.4452 0.4455 0.4459 0.4462
3658.000000 0.4466 0.4469 0.4473 0.4476 0.4480
3653.000000 0.4483 0.4487 0.4490 0.4494 0.4497
3648.000000 0.4501 0.4505 0.4509 0.4512 0.4516
3643.000000 0.4519 0.4523 0.4526 0.4530 0.4533
3638.000000 0.4537 0.4540 0.4544 0.4547 0.4551
3633.000000 0.4554 0.4558 0.4560 0.4565 0.4569
3628.000000 0.4573 0.4576 0.4580 0.4584 0.4588
3623.000000 0.4592 0.4596 0.4599 0.4603 0.4607
3618.000000 0.4610 0.4615 0.4619 0.4622 0.4626
3613.000000 0.4630 0.4634 0.4638 0.4642 0.4645
3608.000000 0.4649 0.4653 0.4657 0.4660 0.4664
3603.000000 0.4668 0.4672 0.4676 0.4680 0.4683
3598.000000 0.4687 0.4691 0.4695 0.4699 0.4703
3593.000000 0.4706 0.4710 0.4714 0.4718 0.4722
3588.000000 0.4726 0.4729 0.4733 0.4737 0.4741
3583.000000 0.4744 0.4748 0.4752 0.4756 0.4759
3578.000000 0.4762 0.4767 0.4771 0.4774 0.4778
3573.000000 0.4782 0.4786 0.4789 0.4793 0.4797
3568.000000 0.4801 0.4804 0.4808 0.4812 0.4816
3563.000000 0.4820 0.4824 0.4827 0.4831 0.4835
3558.000000 0.4839 0.4842 0.4846 0.4850 0.4854
3553.000000 0.4857 0.4860 0.4865 0.4869 0.4872
3548.000000 0.4876 0.4880 0.4884 0.4887 0.4891
3543.000000 0.4895 0.4899 0.4902 0.4906 0.4910
3538.000000 0.4914 0.4917 0.4921 0.4925 0.4929
3533.000000 0.4933 0.4937 0.4941 0.4945 0.4949
3528.000000 0.4954 0.4958 0.4962 0.4967 0.4971
3523.000000 0.4975 0.4980 0.4984 0.4989 0.4993
3518.000000 0.4997 0.5001 0.5006 0.5010 0.5015
3513.000000 0.5019 0.5023 0.5027 0.5032 0.5036
3508.000000 0.5040 0.5044 0.5049 0.5053 0.5058
3503.000000 0.5062 0.5066 0.5070 0.5075 0.5079
3498.000000 0.5084 0.5088 0.5092 0.5096 0.5101
3493.000000 0.5105 0.5110 0.5114 0.5118 0.5122
3488.000000 0.5127 0.5132 0.5137 0.5142 0.5148
3483.000000 0.5153 0.5158 0.5162 0.5169 0.5174
3478.000000 0.5179 0.5184 0.5190 0.5195 0.5201
3473.000000 0.5206 0.5210 0.5216 0.5222 0.5227
3468.000000 0.5233 0.5238 0.5243 0.5248 0.5254
3463.000000 0.5259 0.5264 0.5269 0.5275 0.5280
3458.000000 0.5286 0.5291 0.5296 0.5301 0.5307
3453.000000 0.5314 0.5321 0.5330 0.5339 0.5347
3448.000000 0.5356 0.5365 0.5374 0.5382 0.5391
3443.000000 0.5400 0.5409 0.5418 0.5427 0.5435
3438.000000 0.5444 0.5453 0.5462 0.5470 0.5479
3433.000000 0.5487 0.5496 0.5504 0.5512 0.5520
3428.000000 0.5528 0.5536 0.5544 0.5552 0.5560
3423.000000 0.5568 0.5576 0.5584 0.5592 0.5600
3418.000000 0.5608 0.5616 0.5624 0.5631 0.5639
3413.000000 0.5647 0.5655 0.5662 0.5671 0.5677
3408.000000 0.5684 0.5691 0.5698 0.5704 0.5710
3403.000000 0.5718 0.5725 0.5731 0.5738 0.5745
3398.000000 0.5752 0.5758 0.5765 0.5772 0.5779
3393.000000 0.5785 0.5792 0.5799 0.5806 0.5812
3388.000000 0.5820 0.5827 0.5835 0.5842 0.5850
3383.000000 0.5857 0.5864 0.5871 0.5879 0.5886
3378.000000 0.5894 0.5901 0.5908 0.5915 0.5923
3373.000000 0.5930 0.5938 0.5945 0.5952 0.5958
3368.000000 0.5964 0.5969 0.5975 0.5981 0.5987
3363.000000 0.5992 0.5998 0.6004 0.6010 0.6015
3358.000000 0.6021 0.6026 0.6031 0.6036 0.6041
3353.000000 0.6046 0.6051 0.6056 0.6060 0.6066
3348.000000 0.6071 0.6076 0.6081 0.6086 0.6091
3343.000000 0.6095 0.6100 0.6103 0.6107 0.6110
3338.000000 0.6115 0.6118 0.6122 0.6126 0.6130
3333.000000 0.6133 0.6137 0.6141 0.6145 0.6148
3328.000000 0.6152 0.6153 0.6155 0.6156 0.6157
3323.000000 0.6157 0.6158 0.6159 0.6160 0.6160
3318.000000 0.6162 0.6162 0.6162 0.6162 0.6160
3313.000000 0.6159 0.6158 0.6156 0.6155 0.6153
3308.000000 0.6152 0.6150 0.6149 0.6147 0.6146
3303.000000 0.6142 0.6139 0.6133 0.6128 0.6122
3298.000000 0.6117 0.6110 0.6106 0.6100 0.6095
3293.000000 0.6090 0.6085 0.6078 0.6071 0.6062
3288.000000 0.6055 0.6047 0.6040 0.6032 0.6024
3283.000000 0.6016 0.6009 0.6000 0.5992 0.5979
3278.000000 0.5966 0.5952 0.5939 0.5925 0.5912
3273.000000 0.5898 0.5885 0.5871 0.5858 0.5843
3268.000000 0.5829 0.5812 0.5797 0.5781 0.5765
3263.000000 0.5749 0.5734 0.5718 0.5702 0.5686
3258.000000 0.5671 0.5646 0.5621 0.5596 0.5572
3253.000000 0.5547 0.5522 0.5497 0.5472 0.5447
3248.000000 0.5422 0.5390 0.5358 0.5322 0.5287
3243.000000 0.5251 0.5215 0.5180 0.5145 0.5120
3238.000000 0.5095 0.5070 0.5045 0.5020 0.4995
3233.000000 0.4969 0.4944 0.4915 0.4887 0.4855
3228.000000 0.4823 0.4791 0.4759 0.4727 0.4696
3223.000000 0.4664 0.4633 0.4592 0.4552 0.4504
3218.000000 0.4456 0.4338 0.4220 0.4169 0.4118
3213.000000 0.4070 0.4022 0.3978 0.3934 0.3890
3208.000000 0.3846 0.3802 0.3758 0.3708 0.3659
3203.000000 0.3603 0.3548 0.3492 0.3437 0.3298
3198.000000 0.3160 0.3096 0.3033 0.2957 0.2881
3193.000000 0.2805 0.2729 0.2653 0.2577 0.2501
3188.000000 0.2425 0.2349 0.2273 0.2196 0.2120
3183.000000 0.2044 0.1968 0.1892 0.1816 0.1779
3178.000000 0.1743 0.1735 0.1729 0.1729 0.1728
3173.000000 0.1723 0.1722 0.1728 0.1734 0.1739
3168.000000 0.1744 0.1752 0.1760 0.1772 0.1784
3163.000000 0.1795 0.1809 0.1820 0.1832 0.1842
3158.000000 0.1852 0.1862 0.1872 0.1882 0.1892
3153.000000 0.1898 0.1904 0.1909 0.1915 0.1919
3148.000000 0.1924 0.1921 0.1919 0.1916 0.1935
3143.000000 0.1911 0.1908 0.1902 0.1895 0.1890
3138.000000 0.1884 0.1878 0.1873 0.1867 0.1861
3133.000000 0.1854 0.1849 0.1843 0.1837 0.1832
3128.000000 0.1826 0.1819 0.1812 0.1803 0.1794
3123.000000 0.1785 0.1778 0.1769 0.1761 0.1752
3118.000000 0.1744 0.1734 0.1727 0.1719 0.1711
3113.000000 0.1702 0.1694 0.1684 0.1676 0.1667
3108.000000 0.1658 0.1649 0.1640 0.1631 0.1622
3103.000000 0.1613 0.1604 0.1595 0.1586 0.1577
3098.000000 0.1568 0.1557 0.1546 0.1536 0.1526
3093.000000 0.1512 0.1498 0.1469 0.1441 0.1412
3088.000000 0.1384 0.1352 0.1320 0.1285 0.1251
3083.000000 0.1216 0.1181 0.1159 0.1137 0.1115
3078.000000 0.1094 0.1073 0.1052 0.1032 0.1013
3073.000000 0.0995 0.0976 0.0972 0.0970 0.0967
3068.000000 0.0964 0.0961 0.0959 0.0956 0.0954
3063.000000 0.0951 0.0949 0.0943 0.0939 0.0934
3058.000000 0.0929 0.0924 0.0919 0.0914 0.0909
3053.000000 0.0903 0.0897 0.0887 0.0876 0.0865
3048.000000 0.0854 0.0842 0.0832 0.0821 0.0810
3043.000000 0.0799 0.0789 0.0778 0.0768 0.0758
3038.000000 0.0748 0.0737 0.0727 0.0716 0.0706
3033.000000 0.0699 0.0693 0.0688 0.0684 0.0679
3028.000000 0.0674 0.0669 0.0664 0.0659 0.0654
3023.000000 0.0651 0.0649 0.0649 0.0649 0.0649
3018.000000 0.0650 0.0650 0.0651 0.0651 0.0651
3013.000000 0.0651 0.0651 0.0647 0.0644 0.0640
3008.000000 0.0637 0.0633 0.0630 0.0626 0.0623
3003.000000 0.0617 0.0611 0.0599 0.0587 0.0575
2998.000000 0.0563 0.0551 0.0539 0.0528 0.0518
2993.000000 0.0507 0.0497 0.0487 0.0477 0.0466
2988.000000 0.0456 0.0453 0.0451 0.0449 0.0448
2983.000000 0.0448 0.0447 0.0448 0.0450 0.0452
2978.000000 0.0455 0.0457 0.0460 0.0462 0.0465
2973.000000 0.0467 0.0469 0.0471 0.0473 0.0473
2968.000000 0.0475 0.0477 0.0477 0.0479 0.0481
2963.000000 0.0482 0.0484 0.0485 0.0486 0.0487
2958.000000 0.0489 0.0490 0.0492 0.0493 0.0493
2953.000000 0.0493 0.0493 0.0493 0.0493 0.0493
2948.000000 0.0493 0.0492 0.0491 0.0489 0.0487
2943.000000 0.0484 0.0482 0.0479 0.0477 0.0467
2938.000000 0.0458 0.0449 0.0440 0.0431 0.0423
2933.000000 0.0415 0.0407 0.0399 0.0392 0.0384
2928.000000 0.0376 0.0367 0.0360 0.0352 0.0344
2923.000000 0.0336 0.0328 0.0318 0.0311 0.0303
2918.000000 0.0296 0.0289 0.0282 0.0275 0.0268
2913.000000 0.0264 0.0260 0.0255 0.0251 0.0246
2908.000000 0.0242 0.0236 0.0232 0.0226 0.0221
2903.000000 0.0215 0.0211 0.0208 0.0204 0.0199
2898.000000 0.0195 0.0191 0.0187 0.0183 0.0179
2893.000000 0.0178 0.0177 0.0176 0.0175 0.0174
2888.000000 0.0174 0.0173 0.0172 0.0171 0.0170
2883.000000 0.0169 0.0169 0.0168 0.0167 0.0166
2878.000000 0.0165 0.0164 0.0164 0.0164 0.0165
2873.000000 0.0166 0.0167 0.0168 0.0170 0.0171
2868.000000 0.0172 0.0173 0.0175 0.0176 0.0181
2863.000000 0.0181 0.0180 0.0181 0.0183 0.0183
2858.000000 0.0184 0.0185 0.0188 0.0189 0.0191
2853.000000 0.0192 0.0194 0.0195 0.0197 0.0199
2848.000000 0.0201 0.0202 0.0204 0.0205 0.0207
2843.000000 0.0208 0.0209 0.0211 0.0213 0.0214
2838.000000 0.0216 0.0217 0.0220 0.0222 0.0224
2833.000000 0.0225 0.0227 0.0228 0.0230 0.0232
2828.000000 0.0233 0.0234 0.0236 0.0237 0.0240
2823.000000 0.0241 0.0243 0.0245 0.0247 0.0248
2818.000000 0.0250 0.0251 0.0253 0.0255 0.0257
2813.000000 0.0258 0.0260 0.0261 0.0263 0.0265
2808.000000 0.0266 0.0267 0.0270 0.0272 0.0275
2803.000000 0.0277 0.0280 0.0282 0.0285 0.0288
2798.000000 0.0291 0.0293 0.0296 0.0298 0.0301
2793.000000 0.0303 0.0306 0.0309 0.0312 0.0317
2788.000000 0.0325 0.0331 0.0338 0.0345 0.0352
2783.000000 0.0358 0.0365 0.0371 0.0378 0.0385
2778.000000 0.0392 0.0396 0.0400 0.0403 0.0407
2773.000000 0.0410 0.0414 0.0417 0.0419 0.0423
2768.000000 0.0427 0.0430 0.0434 0.0437 0.0440
2763.000000 0.0442 0.0444 0.0444 0.0444 0.0444
2758.000000 0.0445 0.0445 0.0445 0.0445 0.0445
2753.000000 0.0445 0.0446 0.0446 0.0446 0.0446
2748.000000 0.0446 0.0446 0.0447 0.0447 0.0447
2743.000000 0.0447 0.0447 0.0446 0.0445 0.0444
2738.000000 0.0443 0.0442 0.0441 0.0440 0.0439
2733.000000 0.0438 0.0437 0.0436 0.0435 0.0434
2728.000000 0.0433 0.0432 0.0431 0.0430 0.0429
2723.000000 0.0427 0.0427 0.0425 0.0425 0.0423
2718.000000 0.0421 0.0421 0.0419 0.0419 0.0417
2713.000000 0.0417 0.0416 0.0414 0.0413 0.0413
2708.000000 0.0414 0.0414 0.0415 0.0415 0.0416
2703.000000 0.0416 0.0417 0.0417 0.0417 0.0419
2698.000000 0.0419 0.0421 0.0423 0.0425 0.0427
2693.000000 0.0429 0.0431 0.0433 0.0435 0.0437
2688.000000 0.0502 0.0441 0.0443 0.0445 0.0447
2683.000000 0.0448 0.0450 0.0451 0.0453 0.0455
2678.000000 0.0457 0.0458 0.0460 0.0462 0.0464
2673.000000 0.0465 0.0467 0.0467 0.0469 0.0471
2668.000000 0.0471 0.0473 0.0473 0.0475 0.0477
2663.000000 0.0477 0.0479 0.0480 0.0481 0.0482
2658.000000 0.0483 0.0484 0.0486 0.0487 0.0488
2653.000000 0.0489 0.0490 0.0490 0.0490 0.0490
2648.000000 0.0491 0.0491 0.0491 0.0491 0.0492
2643.000000 0.0492 0.0492 0.0492 0.0492 0.0492
2638.000000 0.0493 0.0493 0.0493 0.0493 0.0493
2633.000000 0.0492 0.0492 0.0491 0.0491 0.0491
2628.000000 0.0491 0.0490 0.0490 0.0489 0.0489
2623.000000 0.0484 0.0479 0.0467 0.0458 0.0448
2618.000000 0.0438 0.0427 0.0416 0.0405 0.0394
2613.000000 0.0383 0.0372 0.0364 0.0356 0.0352
2608.000000 0.0349 0.0345 0.0342 0.0339 0.0336
2603.000000 0.0333 0.0331 0.0331 0.0331 0.0330
2598.000000 0.0330 0.0329 0.0329 0.0328 0.0328
2593.000000 0.0327 0.0327 0.0326 0.0326 0.0325
2588.000000 0.0325 0.0324 0.0324 0.0324 0.0325
2583.000000 0.0327 0.0330 0.0332 0.0334 0.0336
2578.000000 0.0339 0.0341 0.0343 0.0345 0.0348
2573.000000 0.0350 0.0352 0.0354 0.0357 0.0359
2568.000000 0.0361 0.0364 0.0367 0.0371 0.0374
2563.000000 0.0377 0.0380 0.0383 0.0387 0.0390
2558.000000 0.0393 0.0396 0.0400 0.0403 0.0406
2553.000000 0.0409 0.0413 0.0416 0.0419 0.0421
2548.000000 0.0425 0.0429 0.0432 0.0435 0.0439
2543.000000 0.0442 0.0445 0.0448 0.0451 0.0454
2538.000000 0.0457 0.0460 0.0464 0.0467 0.0469
2533.000000 0.0473 0.0475 0.0479 0.0482 0.0485
2528.000000 0.0488 0.0491 0.0495 0.0498 0.0501
2523.000000 0.0504 0.0507 0.0510 0.0514 0.0517
2518.000000 0.0520 0.0523 0.0527 0.0529 0.0531
2513.000000 0.0533 0.0536 0.0538 0.0540 0.0542
2508.000000 0.0544 0.0546 0.0549 0.0551 0.0551
2503.000000 0.0551 0.0549 0.0546 0.0544 0.0542
2498.000000 0.0540 0.0537 0.0535 0.0531 0.0528
2493.000000 0.0518 0.0509 0.0499 0.0490 0.0480
2488.000000 0.0471 0.0461 0.0451 0.0444 0.0437
2483.000000 0.0431 0.0425 0.0419 0.0414 0.0414
2478.000000 0.0415 0.0417 0.0421 0.0423 0.0425
2473.000000 0.0429 0.0432 0.0435 0.0438 0.0440
2468.000000 0.0443 0.0449 0.0455 0.0461 0.0467
2463.000000 0.0473 0.0481 0.0487 0.0494 0.0498
2458.000000 0.0502 0.0503 0.0505 0.0505 0.0505
2453.000000 0.0502 0.0499 0.0496 0.0493 0.0490
2448.000000 0.0487 0.0484 0.0481 0.0477 0.0475
2443.000000 0.0471 0.0469 0.0466 0.0463 0.0459
2438.000000 0.0456 0.0453 0.0450 0.0448 0.0447
2433.000000 0.0447 0.0448 0.0448 0.0448 0.0448
2428.000000 0.0449 0.0449 0.0449 0.0449 0.0449
2423.000000 0.0449 0.0450 0.0450 0.0450 0.0452
2418.000000 0.0454 0.0457 0.0461 0.0464 0.0467
2413.000000 0.0471 0.0475 0.0479 0.0483 0.0487
2408.000000 0.0492 0.0496 0.0501 0.0506 0.0511
2403.000000 0.0515 0.0520 0.0525 0.0530 0.0534
2398.000000 0.0539 0.0544 0.0549 0.0555 0.0561
2393.000000 0.0568 0.0575 0.0582 0.0589 0.0600
2388.000000 0.0611 0.0631 0.0652 0.0673 0.0694
2383.000000 0.0758 0.0822 0.0892 0.0961 0.1013
2378.000000 0.1066 0.1104 0.1142 0.1169 0.1196
2373.000000 0.1200 0.1203 0.1205 0.1208 0.1209
2368.000000 0.1210 0.1211 0.1212 0.1213 0.1214
2363.000000 0.1215 0.1216 0.1217 0.1218 0.1220
2358.000000 0.1223 0.1225 0.1227 0.1229 0.1231
2353.000000 0.1250 0.1269 0.1303 0.1338 0.1365
2348.000000 0.1392 0.1402 0.1411 0.1415 0.1419
2343.000000 0.1422 0.1426 0.1430 0.1434 0.1438
2338.000000 0.1442 0.1446 0.1450 0.1454 0.1458
2333.000000 0.1465 0.1472 0.1479 0.1486 0.1492
2328.000000 0.1500 0.1507 0.1514 0.1521 0.1528
2323.000000 0.1534 0.1541 0.1548 0.1555 0.1563
2318.000000 0.1572 0.1580 0.1589 0.1596 0.1606
2313.000000 0.1614 0.1623 0.1631 0.1640 0.1648
2308.000000 0.1657 0.1665 0.1674 0.1682 0.1691
2303.000000 0.1699 0.1708 0.1717 0.1726 0.1739
2298.000000 0.1752 0.1764 0.1777 0.1790 0.1803
2293.000000 0.1815 0.1828 0.1841 0.1854 0.1866
2288.000000 0.1879 0.1892 0.1904 0.1917 0.1929
2283.000000 0.1943 0.1956 0.1968 0.1981 0.1994
2278.000000 0.2007 0.2023 0.2039 0.2057 0.2075
2273.000000 0.2093 0.2111 0.2128 0.2146 0.2163
2268.000000 0.2180 0.2197 0.2214 0.2231 0.2248
2263.000000 0.2265 0.2282 0.2298 0.2315 0.2332
2258.000000 0.2349 0.2366 0.2383 0.2400 0.2417
2253.000000 0.2433 0.2450 0.2465 0.2481 0.2496
2248.000000 0.2512 0.2527 0.2542 0.2557 0.2573
2243.000000 0.2588 0.2604 0.2619 0.2634 0.2650
2238.000000 0.2666 0.2681 0.2697 0.2712 0.2728
2233.000000 0.2743 0.2758 0.2773 0.2789 0.2804
2228.000000 0.2820 0.2834 0.2850 0.2865 0.2881
2223.000000 0.2896 0.2912 0.2926 0.2940 0.2954
2218.000000 0.2968 0.2982 0.2996 0.3010 0.3024
2213.000000 0.3037 0.3051 0.3065 0.3079 0.3092
2208.000000 0.3105 0.3118 0.3132 0.3145 0.3158
2203.000000 0.3171 0.3184 0.3197 0.3210 0.3218
2198.000000 0.3228 0.3234 0.3240 0.3246 0.3252
2193.000000 0.3258 0.3264 0.3270 0.3276 0.3282
2188.000000 0.3289 0.3295 0.3300 0.3307 0.3312
2183.000000 0.3320 0.3327 0.3344 0.3360 0.3378
2178.000000 0.3396 0.3412 0.3430 0.3448 0.3464
2173.000000 0.3482 0.3499 0.3516 0.3532 0.3550
2168.000000 0.3568 0.3584 0.3602 0.3620 0.3638
2163.000000 0.3657 0.3676 0.3694 0.3712 0.3730
2158.000000 0.3750 0.3768 0.3788 0.3806 0.3825
2153.000000 0.3843 0.3862 0.3877 0.3893 0.3907
2148.000000 0.3922 0.3936 0.3950 0.3964 0.3980
2143.000000 0.3994 0.4009 0.4023 0.4038 0.4052
2138.000000 0.4066 0.4080 0.4096 0.4110 0.4124
2133.000000 0.4138 0.4153 0.4167 0.4182 0.4196
2128.000000 0.4210 0.4225 0.4240 0.4252 0.4264
2123.000000 0.4275 0.4287 0.4298 0.4310 0.4321
2118.000000 0.4333 0.4344 0.4356 0.4367 0.4379
2113.000000 0.4390 0.4402 0.4412 0.4425 0.4436
2108.000000 0.4448 0.4459 0.4470 0.4481 0.4493
2103.000000 0.4504 0.4515 0.4526 0.4538 0.4549
2098.000000 0.4560 0.4572 0.4583 0.4594 0.4606
2093.000000 0.4617 0.4629 0.4640 0.4651 0.4662
2088.000000 0.4674 0.4685 0.4696 0.4707 0.4719
2083.000000 0.4730 0.4742 0.4753 0.4764 0.4775
2078.000000 0.4787 0.4800 0.4814 0.4827 0.4841
2073.000000 0.4854 0.4868 0.4881 0.4895 0.4907
2068.000000 0.4920 0.4930 0.4941 0.4952 0.4962
2063.000000 0.4973 0.4984 0.4994 0.5005 0.5016
2058.000000 0.5027 0.5037 0.5048 0.5059 0.5070
2053.000000 0.5080 0.5091 0.5101 0.5112 0.5123
2048.000000 0.5134 0.5144 0.5155 0.5166 0.5177
2043.000000 0.5189 0.5202 0.5214 0.5227 0.5239
2038.000000 0.5252 0.5264 0.5277 0.5289 0.5302
2033.000000 0.5312 0.5323 0.5332 0.5342 0.5351
2028.000000 0.5360 0.5369 0.5379 0.5389 0.5400
2023.000000 0.5408 0.5417 0.5420 0.5423 0.5426
2018.000000 0.5429 0.5423 0.5417 0.5409 0.5401
2013.000000 0.5394 0.5388 0.5381 0.5375 0.5369
2008.000000 0.5362 0.5357 0.5351 0.5347 0.5344
2003.000000 0.5341 0.5338 0.5332 0.5327 0.5330
1998.000000 0.5336 0.5342 0.5348 0.5355 0.5362
1993.000000 0.5375 0.5388 0.5400 0.5412 0.5425
1988.000000 0.5437 0.5449 0.5460 0.5474 0.5494
1983.000000 0.5515 0.5535 0.5556 0.5567 0.5578
1978.000000 0.5590 0.5601 0.5612 0.5623 0.5628
1973.000000 0.5634 0.5639 0.5644 0.5649 0.5652
1968.000000 0.5652 0.5652 0.5652 0.5651 0.5644
1963.000000 0.5636 0.5630 0.5651 0.5670 0.5689
1958.000000 0.5715 0.5705 0.5703 0.5701 0.5698
1953.000000 0.5695 0.5690 0.5685 0.5680 0.5675
1948.000000 0.5670 0.5665 0.5660 0.5655 0.5652
1943.000000 0.5649 0.5646 0.5644 0.5641 0.5638
1938.000000 0.5635 0.5632 0.5629 0.5629 0.5630
1933.000000 0.5631 0.5632 0.5634 0.5635 0.5638
1928.000000 0.5644 0.5650 0.5656 0.5662 0.5668
1923.000000 0.5674 0.5680 0.5688 0.5698 0.5708
1918.000000 0.5718 0.5728 0.5739 0.5751 0.5762
1913.000000 0.5774 0.5786 0.5798 0.5810 0.5820
1908.000000 0.5829 0.5839 0.5849 0.5858 0.5868
1903.000000 0.5877 0.5887 0.5896 0.5906 0.5915
1898.000000 0.5925 0.5936 0.5947 0.5958 0.5970
1893.000000 0.5981 0.5992 0.6004 0.6015 0.6026
1888.000000 0.6038 0.6049 0.6060 0.6072 0.6083
1883.000000 0.6094 0.6103 0.6112 0.6121 0.6130
1878.000000 0.6139 0.6149 0.6158 0.6167 0.6176
1873.000000 0.6187 0.6198 0.6209 0.6220 0.6231
1868.000000 0.6242 0.6253 0.6264 0.6276 0.6287
1863.000000 0.6298 0.6309 0.6320 0.6332 0.6345
1858.000000 0.6358 0.6370 0.6383 0.6396 0.6408
1853.000000 0.6421 0.6426 0.6430 0.6434 0.6438
1848.000000 0.6441 0.6445 0.6449 0.6451 0.6456
1843.000000 0.6468 0.6483 0.6498 0.6512 0.6526
1838.000000 0.6541 0.6555 0.6568 0.6583 0.6597
1833.000000 0.6610 0.6624 0.6638 0.6651 0.6665
1828.000000 0.6674 0.6683 0.6692 0.6701 0.6710
1823.000000 0.6718 0.6728 0.6737 0.6746 0.6755
1818.000000 0.6764 0.6775 0.6789 0.6803 0.6815
1813.000000 0.6828 0.6842 0.6855 0.6867 0.6880
1808.000000 0.6893 0.6906 0.6918 0.6928 0.6936
1803.000000 0.6943 0.6950 0.6956 0.6962 0.6969
1798.000000 0.6976 0.6984 0.6991 0.6993 0.6994
1793.000000 0.6995 0.6996 0.6996 0.6997 0.6997
1788.000000 0.6997 0.6998 0.6998 0.6999 0.7004
1783.000000 0.7018 0.7031 0.7045 0.7058 0.7071
1778.000000 0.7085 0.7098 0.7111 0.7125 0.7139
1773.000000 0.7153 0.7167 0.7181 0.7195 0.7208
1768.000000 0.7221 0.7228 0.7237 0.7245 0.7254
1763.000000 0.7261 0.7269 0.7278 0.7286 0.7296
1758.000000 0.7311 0.7326 0.7343 0.7358 0.7374
1753.000000 0.7389 0.7405 0.7419 0.7435 0.7450
1748.000000 0.7465 0.7481 0.7496 0.7510 0.7525
1743.000000 0.7539 0.7554 0.7568 0.7576 0.7585
1738.000000 0.7592 0.7599 0.7605 0.7605 0.7604
1733.000000 0.7603 0.7603 0.7601 0.7601 0.7601
1728.000000 0.7593 0.7585 0.7576 0.7569 0.7564
1723.000000 0.7560 0.7555 0.7557 0.7575 0.7594
1718.000000 0.7612 0.7632 0.7653 0.7674 0.7696
1713.000000 0.7707 0.7714 0.7721 0.7728 0.7736
1708.000000 0.7743 0.7749 0.7754 0.7758 0.7765
1703.000000 0.7781 0.7796 0.7811 0.7825 0.7841
1698.000000 0.7855 0.7869 0.7896 0.7924 0.7941
1693.000000 0.7945 0.7949 0.7948 0.7943 0.7938
1688.000000 0.7937 0.7936 0.7944 0.7951 0.7961
1683.000000 0.7968 0.7978 0.7993 0.8006 0.8019
1678.000000 0.8034 0.8044 0.8054 0.8061 0.8061
1673.000000 0.8061 0.8061 0.8030 0.7988 0.7938
1668.000000 0.7821 0.7706 0.7578 0.7451 0.7262
1663.000000 0.7100 0.6975 0.6849 0.6728 0.6608
1658.000000 0.6478 0.6310 0.6050 0.5569 0.4812
1653.000000 0.3908 0.3003 0.2098 0.1194 0.1144
1648.000000 0.1137 0.1154 0.1256 0.1439 0.1621
1643.000000 0.1804 0.1985 0.2169 0.2243 0.2271
1638.000000 0.2247 0.2204 0.2140 0.2073 0.2008
1633.000000 0.1946 0.1883 0.1362 0.0791 0.0494
1628.000000 0.0435 0.0399 0.0404 0.0412 0.0421
1623.000000 0.0438 0.0482 0.0693 0.0983 0.1287
1618.000000 0.1591 0.1894 0.2199 0.2502 0.2806
1613.000000 0.3110 0.3414 0.3590 0.3591 0.3591
1608.000000 0.3599 0.3559 0.3493 0.3414 0.3134
1603.000000 0.2818 0.2501 0.2184 0.1866 0.1549
1598.000000 0.1342 0.1339 0.1332 0.1352 0.1361
1593.000000 0.1387 0.1423 0.1503 0.1759 0.2017
1588.000000 0.2276 0.2534 0.2793 0.3051 0.3309
1583.000000 0.3568 0.3827 0.3906 0.3914 0.3932
1578.000000 0.3929 0.3920 0.3899 0.3859 0.3797
1573.000000 0.3714 0.3644 0.3606 0.3579 0.3589
1568.000000 0.3603 0.3621 0.3668 0.3740 0.3816
1563.000000 0.3855 0.3856 0.3856 0.3849 0.3842
1558.000000 0.3818 0.3787 0.3787 0.3787 0.3796
1553.000000 0.3834 0.3874 0.3906 0.3934 0.3959
1548.000000 0.3976 0.3986 0.3996 0.4007 0.3999
1543.000000 0.3989 0.3950 0.3893 0.3775 0.3423
1538.000000 0.3071 0.2719 0.2684 0.2666 0.2692
1533.000000 0.2715 0.2805 0.2967 0.3078 0.3190
1528.000000 0.3302 0.3414 0.3526 0.3638 0.3750
1523.000000 0.3860 0.3973 0.4084 0.4197 0.4309
1518.000000 0.4421 0.4533 0.4597 0.4641 0.4679
1513.000000 0.4700 0.4737 0.4720 0.4721 0.4718
1508.000000 0.4708 0.4699 0.4690 0.4667 0.4628
1503.000000 0.4589 0.4530 0.4453 0.4367 0.4091
1498.000000 0.3599 0.3576 0.3562 0.3547 0.3510
1493.000000 0.3474 0.3274 0.3029 0.3042 0.3107
1488.000000 0.3236 0.3364 0.3493 0.3621 0.3750
1483.000000 0.3880 0.3870 0.3859 0.3821 0.3764
1478.000000 0.3664 0.3552 0.3220 0.2710 0.2326
1473.000000 0.1941 0.1557 0.1173 0.0788 0.0449
1468.000000 0.0399 0.0386 0.0373 0.0373 0.0373
1463.000000 0.0373 0.0387 0.0401 0.0417 0.0453
1458.000000 0.0489 0.0535 0.0596 0.0657 0.0752
1453.000000 0.0847 0.0963 0.1144 0.1399 0.1734
1448.000000 0.2055 0.2190 0.2325 0.2472 0.2624
1443.000000 0.2774 0.2916 0.3058 0.3170 0.3282
1438.000000 0.3393 0.3503 0.3605 0.3706 0.3803
1433.000000 0.3860 0.3920 0.3978 0.4036 0.4090
1428.000000 0.4132 0.4173 0.4215 0.4255 0.4290
1423.000000 0.4325 0.4360 0.4394 0.4429 0.4459
1418.000000 0.4485 0.4510 0.4537 0.4559 0.4578
1413.000000 0.4598 0.4617 0.4634 0.4643 0.4652
1408.000000 0.4660 0.4669 0.4669 0.4668 0.4668
1403.000000 0.4668 0.4668 0.4659 0.4648 0.4631
1398.000000 0.4607 0.4575 0.4460 0.4352 0.4107
1393.000000 0.3799 0.3641 0.3570 0.3316 0.3325
1388.000000 0.3338 0.3391 0.3473 0.3645 0.3800
1383.000000 0.3930 0.4047 0.4155 0.4214 0.4273
1378.000000 0.4332 0.4391 0.4450 0.4538 0.4656
1373.000000 0.4765 0.4865 0.4953 0.5022 0.5069
1368.000000 0.5092 0.5077 0.5066 0.5056 0.5027
1363.000000 0.4997 0.4967 0.4937 0.4888 0.4817
1358.000000 0.4745 0.4673 0.4602 0.4429 0.4252
1353.000000 0.3689 0.3175 0.3039 0.1614 0.1419
1348.000000 0.1381 0.1352 0.1338 0.1330 0.1330
1343.000000 0.1327 0.1366 0.1455 0.1654 0.1929
1338.000000 0.2206 0.2481 0.2757 0.3032 0.3308
1333.000000 0.3584 0.4577 0.4791 0.5006 0.5221
1328.000000 0.5436 0.5573 0.5610 0.5632 0.5662
1323.000000 0.5653 0.5652 0.5652 0.5633 0.5615
1318.000000 0.5562 0.5506 0.5449 0.5350 0.5235
1313.000000 0.5132 0.5034 0.4740 0.3939 0.3138
1308.000000 0.2337 0.1903 0.1815 0.1656 0.1594
1303.000000 0.1592 0.1586 0.1843 0.2100 0.2357
1298.000000 0.2614 0.2871 0.3129 0.3386 0.3643
1293.000000 0.3900 0.4157 0.4414 0.4671 0.4892
1288.000000 0.4893 0.4894 0.4902 0.4902 0.4541
1283.000000 0.4127 0.3714 0.3300 0.2887 0.2474
1278.000000 0.2291 0.2272 0.2298 0.2279 0.2546
1273.000000 0.2848 0.3149 0.3450 0.3752 0.4053
1268.000000 0.4823 0.5036 0.5131 0.5226 0.5321
1263.000000 0.5506 0.5601 0.5680 0.5754 0.5806
1258.000000 0.5857 0.5908 0.5940 0.5968 0.5995
1253.000000 0.6021 0.6046 0.6062 0.6071 0.6080
1248.000000 0.6089 0.6076 0.6057 0.5999 0.5937
1243.000000 0.5873 0.5810 0.5760 0.5721 0.5683
1238.000000 0.5674 0.5665 0.5657 0.5648 0.5648
1233.000000 0.5647 0.5648 0.5649 0.5649 0.5693
1228.000000 0.5756 0.5821 0.5885 0.5950 0.6027
1223.000000 0.6106 0.6185 0.6245 0.6290 0.6335
1218.000000 0.6379 0.6408 0.6438 0.6468 0.6478
1213.000000 0.6483 0.6488 0.6493 0.6498 0.6500
1208.000000 0.6492 0.6480 0.6468 0.6455 0.6426
1203.000000 0.6390 0.6354 0.6318 0.6281 0.6227
1198.000000 0.6162 0.6097 0.6027 0.5942 0.5856
1193.000000 0.5767 0.5677 0.5622 0.5576 0.5531
1188.000000 0.5502 0.5507 0.5512 0.5549 0.5578
1183.000000 0.5600 0.5609 0.5607 0.5452 0.5296
1178.000000 0.5000 0.4383 0.3766 0.3151 0.2534
1173.000000 0.2185 0.2091 0.2174 0.2427 0.2904
1168.000000 0.3382 0.3859 0.4338 0.4816 0.5225
1163.000000 0.5228 0.5180 0.5088 0.4996 0.4904
1158.000000 0.4869 0.4928 0.5034 0.5140 0.5246
1153.000000 0.5352 0.5458 0.5564 0.5610 0.5632
1148.000000 0.5634 0.5647 0.5644 0.5607 0.5484
1143.000000 0.5277 0.5095 0.4940 0.4557 0.4088
1138.000000 0.3620 0.3151 0.2683 0.2541 0.2530
1133.000000 0.2532 0.2564 0.2535 0.2539 0.2550
1128.000000 0.2566 0.2587 0.2626 0.2720 0.3044
1123.000000 0.3452 0.3859 0.4268 0.4676 0.5084
1118.000000 0.5435 0.5560 0.5693 0.5825 0.5957
1113.000000 0.6090 0.6222 0.6354 0.6424 0.6472
1108.000000 0.6465 0.6458 0.6435 0.6393 0.6314
1103.000000 0.6168 0.5940 0.5155 0.4162 0.3169
1098.000000 0.2700 0.2704 0.2680 0.2690 0.2707
1093.000000 0.3084 0.3209 0.3541 0.4135 0.4729
1088.000000 0.5785 0.5957 0.6128 0.6260 0.6370
1083.000000 0.6480 0.6555 0.6625 0.6697 0.6768
1078.000000 0.6839 0.6889 0.6938 0.6988 0.7038
1073.000000 0.7088 0.7138 0.7175 0.7201 0.7228
1068.000000 0.7255 0.7281 0.7308 0.7331 0.7354
1063.000000 0.7376 0.7399 0.7418 0.7438 0.7457
1058.000000 0.7475 0.7496 0.7515 0.7533 0.7547
1053.000000 0.7561 0.7575 0.7589 0.7603 0.7615
1048.000000 0.7630 0.7644 0.7658 0.7671 0.7685
1043.000000 0.7696 0.7707 0.7718 0.7728 0.7740
1038.000000 0.7751 0.7761 0.7775 0.7792 0.7807
1033.000000 0.7822 0.7839 0.7855 0.7871 0.7887
1028.000000 0.7903 0.7915 0.7921 0.7930 0.7928
1023.000000 0.7922 0.7917 0.7911 0.7905 0.7900
1018.000000 0.7896 0.7892 0.7888 0.7884 0.7880
1013.000000 0.7875 0.7871 0.7868 0.7864 0.7856
1008.000000 0.7825 0.7797 0.7786 0.7775 0.7764
1003.000000 0.7754 0.7746 0.7715 0.7735 0.7728
998.000000 0.7724 0.7724 0.7726 0.7730 0.7733
993.000000 0.7736 0.7746 0.7755 0.7767 0.7785
988.000000 0.7803 0.7821 0.7834 0.7844 0.7855
983.000000 0.7865 0.7875 0.7886 0.7893 0.7899
978.000000 0.7906 0.7911 0.7918 0.7925 0.7931
973.000000 0.7937 0.7942 0.7947 0.7951 0.7954
968.000000 0.7955 0.7957 0.7958 0.7960 0.7961
963.000000 0.7961 0.7962 0.7962 0.7962 0.7955
958.000000 0.7937 0.7918 0.7897 0.7865 0.7833
953.000000 0.7801 0.7747 0.7646 0.7368 0.6945
948.000000 0.6519 0.6096 0.5748 0.5736 0.5903
943.000000 0.6467 0.7031 0.7778 0.7843 0.7908
938.000000 0.7958 0.7988 0.8018 0.8047 0.8076
933.000000 0.8106 0.8132 0.8151 0.8171 0.8193
928.000000 0.8213 0.8228 0.8245 0.8261 0.8275
923.000000 0.8290 0.8304 0.8317 0.8330 0.8343
918.000000 0.8359 0.8375 0.8392 0.8403 0.8413
913.000000 0.8423 0.8417 0.8409 0.8398 0.8384
908.000000 0.8370 0.8356 0.8341 0.8328 0.8316
903.000000 0.8304 0.8291 0.8278 0.8267 0.8258
898.000000 0.8277 0.8253 0.8250 0.8248 0.8255
893.000000 0.8265 0.8275 0.8305 0.8339 0.8367
888.000000 0.8395 0.8415 0.8421 0.8421 0.8418
883.000000 0.8411 0.8397 0.8383 0.8368 0.8349
878.000000 0.8328 0.8307 0.8287 0.8266 0.8240
873.000000 0.8197 0.8155 0.8111 0.8061 0.8006
868.000000 0.7949 0.7893 0.7775 0.7646 0.7518
863.000000 0.7528 0.7544 0.7565 0.7624 0.7645
858.000000 0.7665 0.7672 0.7671 0.7668 0.7665
853.000000 0.7664 0.7658 0.7648 0.7581 0.7481
848.000000 0.7398 0.7381 0.7371 0.7360 0.7350
843.000000 0.7308 0.7205 0.6891 0.6571 0.6250
838.000000 0.5929 0.5609 0.5288 0.4968 0.4647
833.000000 0.4410 0.4394 0.4428 0.4604 0.4779
828.000000 0.4955 0.5130 0.5166 0.5193 0.5106
823.000000 0.5040 0.4786 0.4433 0.4080 0.3727
818.000000 0.3374 0.3021 0.2668 0.2316 0.1963
813.000000 0.1741 0.1728 0.1723 0.2714 0.3705
808.000000 0.4309 0.4557 0.4671 0.4794 0.4918
803.000000 0.5041 0.5164 0.5288 0.5391 0.5408
798.000000 0.5415 0.5405 0.5402 0.5387 0.5370
793.000000 0.5259 0.5050 0.4840 0.4631 0.4421
788.000000 0.4335 0.4302 0.4317 0.4331 0.4356
783.000000 0.4469 0.4692 0.4916 0.5086 0.5086
778.000000 0.5078 0.5016 0.4953 0.4916 0.4906
773.000000 0.4999 0.5281 0.5562 0.5845 0.6127
768.000000 0.6408 0.6691 0.6905 0.6978 0.7015
763.000000 0.7042 0.7037 0.6089 0.5895 0.5914
758.000000 0.6080 0.6368 0.6656 0.6854 0.6971
753.000000 0.7038 0.7097 0.7151 0.7175 0.7201
748.000000 0.7211 0.7218 0.7228 0.7236 0.7245
743.000000 0.7246 0.7255 0.7258 0.7258 0.7247
738.000000 0.7235 0.7222 0.7201 0.7167 0.7133
733.000000 0.7096 0.6969 0.6843 0.6711 0.6660
728.000000 0.6611 0.6571 0.6533 0.6501 0.6499
723.000000 0.6482 0.6484 0.6519 0.6595 0.6636
718.000000 0.6671 0.6697 0.6722 0.6737 0.6751
713.000000 0.6811 0.6921 0.7032 0.7143 0.7253
708.000000 0.7364 0.7474 0.7585 0.7695 0.7772
703.000000 0.7771 0.7731 0.7688 0.7646 0.7646
698.000000 0.7646 0.7751 0.7801 0.7811 0.7821
693.000000 0.7856 0.7934 0.8003 0.8071 0.8142
688.000000 0.8198 0.8253 0.8299 0.8341 0.8370
683.000000 0.8390 0.8405 0.8398 0.8391 0.8384
678.000000 0.8358 0.8327 0.8290 0.8209 0.8126
673.000000 0.8018 0.7950 0.7896 0.7842 0.7788
668.000000 0.7734 0.7647 0.6871 0.6053 0.5234
663.000000 0.4414 0.3595 0.2776 0.2548 0.2546
658.000000 0.2951 0.4152 0.5353 0.6554 0.7755
653.000000 0.8747 0.8827 0.8888 0.8937 0.8978
648.000000 0.9013 0.9041 0.9055 0.9066 0.9075
643.000000 0.9109 0.9085 0.9074 0.9058 0.9030
638.000000 0.9000 0.8970 0.8939 0.8894 0.8848
633.000000 0.8805 0.8766 0.8737 0.8709 0.8678
628.000000 0.8689 0.8696 0.8710 0.8724 0.8747
623.000000 0.8803 0.8875 0.8999 0.9049 0.9078
618.000000 0.9081 0.9074 0.9093 0.9052 0.9032
613.000000 0.8958 0.8745 0.8532 0.8318 0.8103
608.000000 0.8141 0.8245 0.8350 0.8454 0.8525
603.000000 0.8566 0.8604 0.8649 0.8693 0.8744
598.000000 0.8725 0.8724 0.8723 0.8684 0.8618
593.000000 0.8578 0.8547 0.8390 0.8138 0.7887
588.000000 0.7635 0.7384 0.7132 0.6881 0.6628
583.000000 0.6378 0.6126 0.5875 0.5726 0.5670
578.000000 0.5636 0.5622 0.5623 0.5624 0.5639
573.000000 0.5681 0.5872 0.5985 0.6118 0.6251
568.000000 0.6384 0.6517 0.6650 0.6782 0.6915
563.000000 0.7048 0.7181 0.7314 0.7447 0.7580
558.000000 0.7697 0.7795 0.7871 0.7922 0.7956
553.000000 0.7981 0.8005 0.8011 0.7995 0.7996
548.000000 0.7996 0.7969 0.7941 0.7899 0.7857
543.000000 0.7764 0.7311 0.7244 0.7218 0.7214
538.000000 0.7225 0.7237 0.7244 0.7247 0.6928
533.000000 0.6567 0.6206 0.5844 0.5746 0.5872
528.000000 0.6221 0.6568 0.6917 0.7265 0.7498
523.000000 0.7553 0.7548 0.7532 0.7504 0.7475
518.000000 0.7408 0.7293 0.7158 0.7025 0.6891
513.000000 0.6757 0.6624 0.6490 0.6356 0.6222
508.000000 0.6088 0.5954 0.5864 0.5847 0.5831
503.000000 0.5837 0.5868 0.5934 0.6024 0.6151
498.000000 0.6355 0.6561 0.6767 0.6971 0.7178
493.000000 0.7384 0.7590 0.7795 0.7984 0.8045
488.000000 0.8075 0.8085 0.8098 0.8103 0.8087
483.000000 0.7948 0.7471 0.6994 0.6885 0.6883
478.000000 0.6875 0.6865 0.6830 0.6690 0.6581
473.000000 0.6535 0.6483 0.6504 0.6595 0.6801
468.000000 0.7007 0.7212 0.7397 0.7518 0.7615
463.000000 0.7697 0.7728 0.7751 0.7768 0.7775
458.000000 0.7762 0.7760 0.7742 0.7725 0.7707
453.000000 0.7689 0.7668 0.7640 0.7611 0.7584
448.000000 0.7531 0.7460 0.7388 0.7264 0.7071
443.000000 0.6934 0.6801 0.6649 0.6482 0.6289
438.000000 0.6044 0.5716 0.5389 0.5060 0.4733
433.000000 0.4406 0.4078 0.3706 0.3718 0.3734
428.000000 0.5507 0.6253 0.6282 0.6297 0.6293
423.000000 0.6285 0.6243 0.6186 0.6112 0.6037
418.000000 0.5978 0.5934 0.5889 0.5844 0.5810
413.000000 0.5780 0.5753 0.5741 0.5730 0.5722
408.000000 0.5724 0.5726 0.5728 0.5731 0.5737
403.000000 0.5743 0.5748
##END=
