##TITLE=BENOXINATE HYDROCHLORIDE
##JCAMP-DX=4.24
$$ By DXEDIT 1.05 (RS McDonald)
##DATA TYPE=INFRARED SPECTRUM
##CLASS=COBLENTZ III
##OWNER=COPYRIGHT (C) 1988 by COBLENTZ SOCIETY INC.
Collection (C) 2018 copyright by the U.S. Secretary of Commerce
on behalf of the United States of America. All rights reserved.
##DATE=1961/12/15
##NAMES=2-(diethylamino)ethyl 4-amino-3-butoxybenzoate hydrochloride
4-AMINO-3-BUTOXYBENZOIC ACID 2-DIETHYLAMINOETHYL ESTER HYDROCHLORIDE
##MOLFORM=C17 H29 Cl N2 O3
##MP=157-60 C
##SOURCE REFERENCE=COBLENTZ NO. 5091
##$NIST ID=B6005091
##$NIST SOURCE=COBLENTZ
##$NIST IMAGE=cob5091
##SPECTROMETER/DATA SYSTEM=PERKIN-ELMER 21 (GRATING)
##INSTRUMENT PARAMETERS=FILTER AT ABOUT 10 MICRONS
##STATE=SOLID (1.03 mg / 200 mg KCl DISC)
##SAMPLING PROCEDURE=TRANSMISSION
##RESOLUTION=2
##DATA PROCESSING=DIGITIZED BY COBLENTZ SOCIETY (BATCH I) FROM HARD COPY
##XUNITS=1/CM
##YUNITS=TRANSMITTANCE
##XFACTOR=1
##YFACTOR=1
##DELTAX=1
##FIRSTX=4000
##LASTX=675
##FIRSTY=0.8372
##MAXX=4000
##MINX=675
##MAXY=0.9235
##MINY=0.3734
##NPOINTS=3326
##XYDATA=(X++(Y..Y))
4000.000000 0.8372 0.8372 0.8373 0.8375 0.8377
3995.000000 0.8378 0.8380 0.8382 0.8384 0.8383
3990.000000 0.8385 0.8387 0.8388 0.8390 0.8392
3985.000000 0.8394 0.8395 0.8397 0.8397 0.8396
3980.000000 0.8400 0.8402 0.8403 0.8405 0.8407
3975.000000 0.8408 0.8410 0.8410 0.8411 0.8413
3970.000000 0.8415 0.8416 0.8418 0.8420 0.8421
3965.000000 0.8423 0.8425 0.8426 0.8426 0.8428
3960.000000 0.8429 0.8431 0.8432 0.8434 0.8436
3955.000000 0.8435 0.8439 0.8440 0.8442 0.8444
3950.000000 0.8443 0.8445 0.8447 0.8448 0.8450
3945.000000 0.8451 0.8453 0.8455 0.8456 0.8458
3940.000000 0.8459 0.8461 0.8462 0.8464 0.8464
3935.000000 0.8465 0.8467 0.8468 0.8470 0.8471
3930.000000 0.8473 0.8473 0.8476 0.8478 0.8479
3925.000000 0.8481 0.8482 0.8484 0.8485 0.8487
3920.000000 0.8488 0.8490 0.8490 0.8491 0.8493
3915.000000 0.8494 0.8496 0.8497 0.8499 0.8500
3910.000000 0.8502 0.8503 0.8505 0.8506 0.8508
3905.000000 0.8509 0.8509 0.8512 0.8514 0.8515
3900.000000 0.8517 0.8518 0.8520 0.8521 0.8523
3895.000000 0.8524 0.8525 0.8527 0.8528 0.8530
3890.000000 0.8531 0.8533 0.8534 0.8536 0.8537
3885.000000 0.8539 0.8538 0.8540 0.8541 0.8544
3880.000000 0.8546 0.8545 0.8549 0.8550 0.8551
3875.000000 0.8555 0.8556 0.8558 0.8559 0.8560
3870.000000 0.8562 0.8565 0.8567 0.8568 0.8569
3865.000000 0.8571 0.8572 0.8575 0.8577 0.8578
3860.000000 0.8580 0.8581 0.8584 0.8586 0.8585
3855.000000 0.8588 0.8590 0.8591 0.8594 0.8596
3850.000000 0.8597 0.8598 0.8600 0.8603 0.8604
3845.000000 0.8606 0.8607 0.8608 0.8611 0.8613
3840.000000 0.8614 0.8615 0.8617 0.8620 0.8621
3835.000000 0.8623 0.8624 0.8625 0.8628 0.8632
3830.000000 0.8633 0.8634 0.8637 0.8639 0.8640
3825.000000 0.8641 0.8643 0.8646 0.8647 0.8648
3820.000000 0.8649 0.8653 0.8654 0.8655 0.8656
3815.000000 0.8660 0.8661 0.8662 0.8663 0.8663
3810.000000 0.8668 0.8669 0.8670 0.8671 0.8674
3805.000000 0.8676 0.8677 0.8678 0.8681 0.8683
3800.000000 0.8684 0.8685 0.8688 0.8689 0.8690
3795.000000 0.8692 0.8695 0.8696 0.8697 0.8698
3790.000000 0.8701 0.8701 0.8704 0.8705 0.8706
3785.000000 0.8707 0.8709 0.8710 0.8711 0.8712
3780.000000 0.8713 0.8715 0.8714 0.8715 0.8716
3775.000000 0.8719 0.8720 0.8722 0.8723 0.8724
3770.000000 0.8725 0.8726 0.8727 0.8729 0.8730
3765.000000 0.8731 0.8730 0.8733 0.8734 0.8735
3760.000000 0.8737 0.8738 0.8739 0.8740 0.8741
3755.000000 0.8742 0.8743 0.8745 0.8746 0.8747
3750.000000 0.8748 0.8749 0.8750 0.8751 0.8752
3745.000000 0.8754 0.8755 0.8756 0.8759 0.8758
3740.000000 0.8759 0.8758 0.8761 0.8762 0.8763
3735.000000 0.8766 0.8767 0.8768 0.8770 0.8771
3730.000000 0.8772 0.8773 0.8774 0.8775 0.8776
3725.000000 0.8777 0.8778 0.8779 0.8780 0.8781
3720.000000 0.8782 0.8783 0.8784 0.8787 0.8788
3715.000000 0.8788 0.8790 0.8791 0.8792 0.8794
3710.000000 0.8795 0.8796 0.8797 0.8799 0.8800
3705.000000 0.8801 0.8804 0.8805 0.8808 0.8809
3700.000000 0.8812 0.8814 0.8815 0.8818 0.8819
3695.000000 0.8822 0.8823 0.8826 0.8827 0.8829
3690.000000 0.8832 0.8833 0.8836 0.8837 0.8839
3685.000000 0.8840 0.8843 0.8846 0.8847 0.8849
3680.000000 0.8850 0.8853 0.8856 0.8857 0.8859
3675.000000 0.8862 0.8861 0.8866 0.8868 0.8871
3670.000000 0.8875 0.8880 0.8882 0.8887 0.8891
3665.000000 0.8895 0.8900 0.8904 0.8908 0.8913
3660.000000 0.8917 0.8921 0.8925 0.8930 0.8934
3655.000000 0.8938 0.8942 0.8947 0.8953 0.8959
3650.000000 0.8963 0.8967 0.8973 0.8979 0.8985
3645.000000 0.8989 0.8995 0.8999 0.9007 0.9013
3640.000000 0.9019 0.9023 0.9030 0.9036 0.9042
3635.000000 0.9050 0.9055 0.9065 0.9077 0.9086
3630.000000 0.9100 0.9111 0.9119 0.9123 0.9127
3625.000000 0.9134 0.9138 0.9142 0.9143 0.9144
3620.000000 0.9145 0.9142 0.9144 0.9145 0.9144
3615.000000 0.9143 0.9144 0.9143 0.9142 0.9141
3610.000000 0.9140 0.9139 0.9138 0.9137 0.9135
3605.000000 0.9132 0.9133 0.9132 0.9131 0.9130
3600.000000 0.9128 0.9127 0.9126 0.9125 0.9122
3595.000000 0.9121 0.9119 0.9118 0.9115 0.9116
3590.000000 0.9113 0.9114 0.9111 0.9109 0.9109
3585.000000 0.9110 0.9107 0.9110 0.9109 0.9108
3580.000000 0.9109 0.9108 0.9108 0.9107 0.9106
3575.000000 0.9107 0.9105 0.9105 0.9108 0.9107
3570.000000 0.9106 0.9105 0.9105 0.9104 0.9103
3565.000000 0.9102 0.9101 0.9101 0.9100 0.9099
3560.000000 0.9098 0.9095 0.9096 0.9095 0.9094
3555.000000 0.9093 0.9092 0.9091 0.9090 0.9089
3550.000000 0.9088 0.9089 0.9089 0.9087 0.9087
3545.000000 0.9088 0.9085 0.9088 0.9087 0.9087
3540.000000 0.9088 0.9090 0.9089 0.9093 0.9095
3535.000000 0.9096 0.9097 0.9099 0.9099 0.9102
3530.000000 0.9104 0.9106 0.9108 0.9112 0.9113
3525.000000 0.9120 0.9127 0.9131 0.9139 0.9144
3520.000000 0.9150 0.9152 0.9159 0.9163 0.9166
3515.000000 0.9170 0.9174 0.9176 0.9180 0.9182
3510.000000 0.9182 0.9186 0.9188 0.9235 0.9191
3505.000000 0.9192 0.9192 0.9194 0.9195 0.9195
3500.000000 0.9194 0.9192 0.9191 0.9188 0.9187
3495.000000 0.9184 0.9182 0.9179 0.9176 0.9145
3490.000000 0.9093 0.9043 0.8993 0.8944 0.8889
3485.000000 0.8834 0.8776 0.8721 0.8665 0.8609
3480.000000 0.8554 0.8498 0.8443 0.8388 0.8332
3475.000000 0.8275 0.8220 0.8165 0.8110 0.8053
3470.000000 0.7998 0.7942 0.7887 0.7844 0.7821
3465.000000 0.7799 0.7775 0.7742 0.7740 0.7738
3460.000000 0.7734 0.7731 0.7729 0.7725 0.7723
3455.000000 0.7722 0.7720 0.7718 0.7720 0.7723
3450.000000 0.7727 0.7730 0.7743 0.7786 0.7827
3445.000000 0.7870 0.7911 0.7952 0.7994 0.8035
3440.000000 0.8078 0.8119 0.8161 0.8203 0.8244
3435.000000 0.8286 0.8327 0.8369 0.8410 0.8452
3430.000000 0.8494 0.8533 0.8565 0.8598 0.8631
3425.000000 0.8665 0.8684 0.8697 0.8711 0.8723
3420.000000 0.8737 0.8751 0.8764 0.8780 0.8794
3415.000000 0.8808 0.8821 0.8834 0.8849 0.8864
3410.000000 0.8873 0.8881 0.8888 0.8898 0.8904
3405.000000 0.8911 0.8919 0.8925 0.8930 0.8938
3400.000000 0.8943 0.8950 0.8956 0.8962 0.8967
3395.000000 0.8973 0.8978 0.8983 0.8988 0.8991
3390.000000 0.8996 0.9000 0.9003 0.9005 0.9006
3385.000000 0.9006 0.9005 0.9006 0.9006 0.9004
3380.000000 0.9005 0.9006 0.9005 0.9002 0.9000
3375.000000 0.8997 0.8995 0.8992 0.8990 0.8986
3370.000000 0.8982 0.8979 0.8975 0.8968 0.8963
3365.000000 0.8960 0.8955 0.8949 0.8945 0.8940
3360.000000 0.8934 0.8924 0.8916 0.8907 0.8902
3355.000000 0.8894 0.8885 0.8877 0.8868 0.8857
3350.000000 0.8840 0.8820 0.8803 0.8784 0.8745
3345.000000 0.8700 0.8653 0.8607 0.8558 0.8500
3340.000000 0.8443 0.8385 0.8330 0.8268 0.8203
3335.000000 0.8141 0.8077 0.8012 0.7949 0.7885
3330.000000 0.7821 0.7757 0.7694 0.7630 0.7566
3325.000000 0.7503 0.7440 0.7376 0.7312 0.7249
3320.000000 0.7185 0.7122 0.7058 0.6996 0.6932
3315.000000 0.6869 0.6805 0.6742 0.6678 0.6614
3310.000000 0.6552 0.6488 0.6425 0.6363 0.6300
3305.000000 0.6235 0.6173 0.6110 0.6063 0.6033
3300.000000 0.6003 0.5973 0.5947 0.5937 0.5930
3295.000000 0.5921 0.5914 0.5908 0.5904 0.5900
3290.000000 0.5892 0.5891 0.5890 0.5887 0.5884
3285.000000 0.5882 0.5881 0.5882 0.5882 0.5881
3280.000000 0.5883 0.5883 0.5885 0.5886 0.5901
3275.000000 0.5930 0.5959 0.5986 0.6014 0.6043
3270.000000 0.6072 0.6100 0.6129 0.6158 0.6185
3265.000000 0.6215 0.6240 0.6270 0.6298 0.6328
3260.000000 0.6357 0.6385 0.6413 0.6440 0.6470
3255.000000 0.6498 0.6526 0.6554 0.6584 0.6612
3250.000000 0.6635 0.6657 0.6679 0.6700 0.6714
3245.000000 0.6726 0.6737 0.6748 0.6756 0.6762
3240.000000 0.6767 0.6771 0.6777 0.6779 0.6782
3235.000000 0.6786 0.6789 0.6789 0.6789 0.6788
3230.000000 0.6801 0.6788 0.6788 0.6788 0.6786
3225.000000 0.6785 0.6782 0.6778 0.6775 0.6769
3220.000000 0.6763 0.6756 0.6749 0.6730 0.6697
3215.000000 0.6665 0.6631 0.6597 0.6562 0.6526
3210.000000 0.6490 0.6456 0.6420 0.6384 0.6350
3205.000000 0.6314 0.6278 0.6244 0.6208 0.6173
3200.000000 0.6137 0.6102 0.6066 0.6031 0.6007
3195.000000 0.5986 0.5964 0.5942 0.5932 0.5922
3190.000000 0.5913 0.5904 0.5897 0.5895 0.5891
3185.000000 0.5887 0.5886 0.5885 0.5884 0.5881
3180.000000 0.5880 0.5879 0.5878 0.5877 0.5878
3175.000000 0.5883 0.5886 0.5890 0.5912 0.5946
3170.000000 0.5982 0.6017 0.6059 0.6105 0.6153
3165.000000 0.6199 0.6246 0.6294 0.6340 0.6387
3160.000000 0.6433 0.6480 0.6527 0.6574 0.6621
3155.000000 0.6667 0.6714 0.6761 0.6806 0.6853
3150.000000 0.6900 0.6947 0.6991 0.7032 0.7077
3145.000000 0.7120 0.7153 0.7182 0.7210 0.7239
3140.000000 0.7263 0.7284 0.7306 0.7327 0.7348
3135.000000 0.7371 0.7394 0.7416 0.7443 0.7472
3130.000000 0.7501 0.7528 0.7554 0.7579 0.7604
3125.000000 0.7628 0.7649 0.7670 0.7690 0.7711
3120.000000 0.7731 0.7752 0.7773 0.7793 0.7812
3115.000000 0.7833 0.7853 0.7872 0.7894 0.7914
3110.000000 0.7932 0.7953 0.7969 0.7985 0.8002
3105.000000 0.8017 0.8033 0.8047 0.8063 0.8078
3100.000000 0.8093 0.8109 0.8124 0.8139 0.8154
3095.000000 0.8169 0.8184 0.8198 0.8213 0.8228
3090.000000 0.8240 0.8250 0.8258 0.8268 0.8274
3085.000000 0.8284 0.8294 0.8302 0.8311 0.8321
3080.000000 0.8329 0.8338 0.8348 0.8356 0.8365
3075.000000 0.8375 0.8380 0.8386 0.8393 0.8397
3070.000000 0.8404 0.8411 0.8416 0.8422 0.8424
3065.000000 0.8427 0.8431 0.8436 0.8439 0.8441
3060.000000 0.8444 0.8447 0.8449 0.8450 0.8451
3055.000000 0.8452 0.8452 0.8453 0.8453 0.8452
3050.000000 0.8452 0.8453 0.8453 0.8451 0.8451
3045.000000 0.8451 0.8450 0.8449 0.8449 0.8448
3040.000000 0.8447 0.8445 0.8448 0.8443 0.8441
3035.000000 0.8439 0.8436 0.8434 0.8432 0.8429
3030.000000 0.8426 0.8422 0.8419 0.8415 0.8409
3025.000000 0.8401 0.8393 0.8386 0.8376 0.8367
3020.000000 0.8358 0.8344 0.8324 0.8307 0.8287
3015.000000 0.8252 0.8207 0.8164 0.8124 0.8105
3010.000000 0.8086 0.8066 0.8048 0.8028 0.8010
3005.000000 0.7990 0.7964 0.7937 0.7910 0.7875
3000.000000 0.7813 0.7751 0.7690 0.7644 0.7615
2995.000000 0.7583 0.7551 0.7494 0.7436 0.7380
2990.000000 0.7322 0.7265 0.7209 0.7152 0.7094
2985.000000 0.7038 0.6982 0.6924 0.6868 0.6812
2980.000000 0.6754 0.6697 0.6641 0.6583 0.6526
2975.000000 0.6473 0.6420 0.6366 0.6339 0.6324
2970.000000 0.6312 0.6299 0.6290 0.6283 0.6276
2965.000000 0.6268 0.6263 0.6258 0.6251 0.6247
2960.000000 0.6242 0.6237 0.6232 0.6228 0.6225
2955.000000 0.6221 0.6217 0.6214 0.6210 0.6207
2950.000000 0.6204 0.6200 0.6198 0.6196 0.6194
2945.000000 0.6193 0.6190 0.6189 0.6188 0.6185
2940.000000 0.6184 0.6183 0.6181 0.6184 0.6189
2935.000000 0.6194 0.6200 0.6210 0.6223 0.6233
2930.000000 0.6246 0.6259 0.6272 0.6284 0.6297
2925.000000 0.6311 0.6324 0.6338 0.6352 0.6365
2920.000000 0.6378 0.6391 0.6404 0.6416 0.6427
2915.000000 0.6436 0.6447 0.6458 0.6468 0.6479
2910.000000 0.6490 0.6499 0.6510 0.6519 0.6529
2905.000000 0.6538 0.6547 0.6555 0.6561 0.6568
2900.000000 0.6575 0.6581 0.6587 0.6594 0.6598
2895.000000 0.6602 0.6606 0.6609 0.6612 0.6614
2890.000000 0.6616 0.6617 0.6617 0.6617 0.6618
2885.000000 0.6619 0.6620 0.6621 0.6622 0.6624
2880.000000 0.6624 0.6627 0.6628 0.6630 0.6632
2875.000000 0.6636 0.6638 0.6642 0.6649 0.6656
2870.000000 0.6664 0.6674 0.6685 0.6695 0.6720
2865.000000 0.6746 0.6770 0.6813 0.6862 0.6911
2860.000000 0.6950 0.6974 0.6999 0.7024 0.7048
2855.000000 0.7072 0.7097 0.7122 0.7146 0.7170
2850.000000 0.7194 0.7218 0.7242 0.7266 0.7290
2845.000000 0.7312 0.7337 0.7360 0.7384 0.7408
2840.000000 0.7429 0.7450 0.7470 0.7489 0.7508
2835.000000 0.7529 0.7548 0.7567 0.7588 0.7607
2830.000000 0.7623 0.7642 0.7659 0.7675 0.7694
2825.000000 0.7711 0.7727 0.7746 0.7764 0.7779
2820.000000 0.7792 0.7806 0.7815 0.7817 0.7820
2815.000000 0.7821 0.7823 0.7824 0.7827 0.7830
2810.000000 0.7832 0.7835 0.7835 0.7838 0.7838
2805.000000 0.7839 0.7840 0.7841 0.7841 0.7842
2800.000000 0.7842 0.7840 0.7841 0.7842 0.7842
2795.000000 0.7842 0.7844 0.7844 0.7849 0.7852
2790.000000 0.7856 0.7859 0.7865 0.7869 0.7874
2785.000000 0.7879 0.7883 0.7883 0.7883 0.7883
2780.000000 0.7882 0.7880 0.7878 0.7876 0.7873
2775.000000 0.7871 0.7865 0.7860 0.7845 0.7848
2770.000000 0.7839 0.7830 0.7821 0.7812 0.7805
2765.000000 0.7796 0.7786 0.7779 0.7770 0.7761
2760.000000 0.7752 0.7745 0.7738 0.7734 0.7730
2755.000000 0.7725 0.7719 0.7715 0.7709 0.7705
2750.000000 0.7700 0.7695 0.7691 0.7687 0.7683
2745.000000 0.7677 0.7674 0.7670 0.7666 0.7662
2740.000000 0.7658 0.7654 0.7650 0.7644 0.7642
2735.000000 0.7638 0.7634 0.7630 0.7626 0.7622
2730.000000 0.7619 0.7615 0.7609 0.7605 0.7601
2725.000000 0.7597 0.7595 0.7590 0.7587 0.7584
2720.000000 0.7580 0.7577 0.7573 0.7569 0.7567
2715.000000 0.7563 0.7560 0.7557 0.7553 0.7549
2710.000000 0.7545 0.7541 0.7534 0.7530 0.7525
2705.000000 0.7519 0.7512 0.7505 0.7496 0.7489
2700.000000 0.7480 0.7472 0.7464 0.7455 0.7447
2695.000000 0.7438 0.7430 0.7423 0.7413 0.7405
2690.000000 0.7392 0.7381 0.7367 0.7356 0.7343
2685.000000 0.7331 0.7319 0.7306 0.7296 0.7283
2680.000000 0.7271 0.7257 0.7241 0.7225 0.7210
2675.000000 0.7193 0.7175 0.7161 0.7143 0.7126
2670.000000 0.7111 0.7096 0.7079 0.7063 0.7048
2665.000000 0.7031 0.7014 0.6999 0.6982 0.6966
2660.000000 0.6950 0.6935 0.6918 0.6902 0.6883
2655.000000 0.6863 0.6843 0.6824 0.6804 0.6784
2650.000000 0.6765 0.6745 0.6726 0.6707 0.6687
2645.000000 0.6668 0.6648 0.6629 0.6610 0.6591
2640.000000 0.6571 0.6552 0.6533 0.6514 0.6496
2635.000000 0.6479 0.6462 0.6448 0.6435 0.6421
2630.000000 0.6407 0.6393 0.6379 0.6365 0.6351
2625.000000 0.6337 0.6323 0.6309 0.6297 0.6284
2620.000000 0.6270 0.6258 0.6245 0.6231 0.6219
2615.000000 0.6206 0.6192 0.6179 0.6166 0.6154
2610.000000 0.6141 0.6129 0.6119 0.6109 0.6098
2605.000000 0.6089 0.6079 0.6070 0.6059 0.6050
2600.000000 0.6040 0.6031 0.6021 0.6014 0.6005
2595.000000 0.5998 0.5991 0.5983 0.5975 0.5968
2590.000000 0.5960 0.5954 0.5946 0.5940 0.5934
2585.000000 0.5927 0.5923 0.5918 0.5912 0.5907
2580.000000 0.5902 0.5896 0.5891 0.5885 0.5879
2575.000000 0.5873 0.5869 0.5844 0.5860 0.5859
2570.000000 0.5857 0.5855 0.5853 0.5852 0.5851
2565.000000 0.5851 0.5852 0.5856 0.5861 0.5868
2560.000000 0.5880 0.5892 0.5905 0.5917 0.5930
2555.000000 0.5942 0.5954 0.5965 0.5975 0.5986
2550.000000 0.5994 0.6003 0.6012 0.6021 0.6030
2545.000000 0.6038 0.6047 0.6056 0.6064 0.6073
2540.000000 0.6081 0.6089 0.6096 0.6104 0.6111
2535.000000 0.6119 0.6126 0.6134 0.6140 0.6147
2530.000000 0.6154 0.6159 0.6164 0.6170 0.6175
2525.000000 0.6180 0.6185 0.6191 0.6196 0.6201
2520.000000 0.6207 0.6213 0.6219 0.6224 0.6230
2515.000000 0.6236 0.6238 0.6240 0.6243 0.6279
2510.000000 0.6248 0.6248 0.6250 0.6251 0.6252
2505.000000 0.6252 0.6252 0.6251 0.6250 0.6247
2500.000000 0.6245 0.6241 0.6237 0.6233 0.6229
2495.000000 0.6225 0.6213 0.6201 0.6188 0.6172
2490.000000 0.6157 0.6146 0.6135 0.6126 0.6120
2485.000000 0.6112 0.6107 0.6100 0.6096 0.6067
2480.000000 0.6085 0.6081 0.6075 0.6072 0.6069
2475.000000 0.6067 0.6066 0.6065 0.6063 0.6062
2470.000000 0.6063 0.6069 0.6074 0.6081 0.6089
2465.000000 0.6095 0.6103 0.6110 0.6119 0.6129
2460.000000 0.6140 0.6152 0.6163 0.6175 0.6187
2455.000000 0.6202 0.6218 0.6237 0.6258 0.6278
2450.000000 0.6299 0.6320 0.6341 0.6362 0.6384
2445.000000 0.6405 0.6427 0.6441 0.6456 0.6470
2440.000000 0.6484 0.6497 0.6510 0.6524 0.6537
2435.000000 0.6550 0.6564 0.6577 0.6591 0.6610
2430.000000 0.6629 0.6649 0.6670 0.6692 0.6713
2425.000000 0.6733 0.6757 0.6778 0.6802 0.6827
2420.000000 0.6852 0.6877 0.6903 0.6928 0.6953
2415.000000 0.6976 0.7000 0.7024 0.7046 0.7068
2410.000000 0.7091 0.7114 0.7137 0.7159 0.7181
2405.000000 0.7204 0.7227 0.7250 0.7273 0.7298
2400.000000 0.7322 0.7345 0.7366 0.7388 0.7404
2395.000000 0.7420 0.7436 0.7451 0.7466 0.7479
2390.000000 0.7493 0.7507 0.7521 0.7532 0.7542
2385.000000 0.7551 0.7561 0.7570 0.7578 0.7586
2380.000000 0.7594 0.7600 0.7606 0.7611 0.7615
2375.000000 0.7620 0.7625 0.7628 0.7632 0.7634
2370.000000 0.7637 0.7639 0.7640 0.7641 0.7643
2365.000000 0.7646 0.7652 0.7656 0.7662 0.7667
2360.000000 0.7673 0.7678 0.7685 0.7692 0.7699
2355.000000 0.7708 0.7715 0.7723 0.7731 0.7737
2350.000000 0.7746 0.7754 0.7762 0.7770 0.7778
2345.000000 0.7786 0.7793 0.7801 0.7810 0.7819
2340.000000 0.7829 0.7839 0.7849 0.7858 0.7868
2335.000000 0.7879 0.7888 0.7898 0.7908 0.7918
2330.000000 0.7926 0.7939 0.7951 0.7964 0.7982
2325.000000 0.7998 0.8014 0.8030 0.8046 0.8063
2320.000000 0.8078 0.8094 0.8111 0.8128 0.8146
2315.000000 0.8163 0.8180 0.8197 0.8214 0.8231
2310.000000 0.8248 0.8264 0.8279 0.8289 0.8300
2305.000000 0.8308 0.8317 0.8326 0.8335 0.8345
2300.000000 0.8355 0.8374 0.8394 0.8415 0.8435
2295.000000 0.8453 0.8470 0.8483 0.8496 0.8507
2290.000000 0.8519 0.8530 0.8542 0.8554 0.8566
2285.000000 0.8576 0.8583 0.8589 0.8594 0.8602
2280.000000 0.8607 0.8614 0.8621 0.8626 0.8633
2275.000000 0.8640 0.8645 0.8651 0.8658 0.8663
2270.000000 0.8670 0.8676 0.8681 0.8687 0.8692
2265.000000 0.8698 0.8704 0.8709 0.8716 0.8721
2260.000000 0.8727 0.8734 0.8739 0.8745 0.8750
2255.000000 0.8757 0.8762 0.8768 0.8774 0.8779
2250.000000 0.8784 0.8789 0.8795 0.8800 0.8806
2245.000000 0.8811 0.8817 0.8822 0.8828 0.8832
2240.000000 0.8834 0.8838 0.8841 0.8845 0.8848
2235.000000 0.8852 0.8855 0.8859 0.8862 0.8866
2230.000000 0.8869 0.8873 0.8876 0.8880 0.8882
2225.000000 0.8885 0.8888 0.8891 0.8893 0.8896
2220.000000 0.8899 0.8902 0.8905 0.8907 0.8910
2215.000000 0.8914 0.8916 0.8919 0.8922 0.8925
2210.000000 0.8927 0.8930 0.8934 0.8936 0.8940
2205.000000 0.8943 0.8946 0.8950 0.8953 0.8957
2200.000000 0.8959 0.8963 0.8967 0.8969 0.8973
2195.000000 0.8976 0.8980 0.8982 0.8986 0.8989
2190.000000 0.8993 0.8997 0.9001 0.9004 0.9008
2185.000000 0.9011 0.9014 0.9017 0.9020 0.9023
2180.000000 0.9025 0.9028 0.9030 0.9033 0.9035
2175.000000 0.9036 0.9037 0.9039 0.9040 0.9042
2170.000000 0.9043 0.9044 0.9046 0.9047 0.9048
2165.000000 0.9049 0.9051 0.9052 0.9054 0.9054
2160.000000 0.9057 0.9059 0.9060 0.9063 0.9064
2155.000000 0.9065 0.9065 0.9065 0.9065 0.9066
2150.000000 0.9066 0.9066 0.9067 0.9066 0.9065
2145.000000 0.9065 0.9065 0.9064 0.9064 0.9064
2140.000000 0.9062 0.9063 0.9062 0.9061 0.9061
2135.000000 0.9058 0.9061 0.9062 0.9067 0.9071
2130.000000 0.9075 0.9078 0.9082 0.9085 0.9089
2125.000000 0.9094 0.9098 0.9103 0.9107 0.9112
2120.000000 0.9115 0.9120 0.9124 0.9128 0.9132
2115.000000 0.9135 0.9136 0.9138 0.9140 0.9141
2110.000000 0.9143 0.9145 0.9147 0.9148 0.9150
2105.000000 0.9151 0.9153 0.9155 0.9157 0.9159
2100.000000 0.9159 0.9161 0.9161 0.9162 0.9163
2095.000000 0.9164 0.9165 0.9166 0.9166 0.9168
2090.000000 0.9169 0.9169 0.9171 0.9172 0.9172
2085.000000 0.9174 0.9174 0.9176 0.9176 0.9176
2080.000000 0.9179 0.9180 0.9181 0.9181 0.9181
2075.000000 0.9182 0.9182 0.9183 0.9184 0.9185
2070.000000 0.9185 0.9185 0.9185 0.9187 0.9188
2065.000000 0.9188 0.9189 0.9189 0.9190 0.9191
2060.000000 0.9191 0.9191 0.9192 0.9192 0.9194
2055.000000 0.9194 0.9195 0.9196 0.9197 0.9198
2050.000000 0.9198 0.9199 0.9200 0.9200 0.9201
2045.000000 0.9200 0.9201 0.9202 0.9204 0.9204
2040.000000 0.9205 0.9206 0.9206 0.9206 0.9207
2035.000000 0.9206 0.9207 0.9208 0.9207 0.9209
2030.000000 0.9209 0.9209 0.9210 0.9210 0.9210
2025.000000 0.9210 0.9211 0.9211 0.9211 0.9212
2020.000000 0.9212 0.9212 0.9212 0.9213 0.9212
2015.000000 0.9214 0.9213 0.9214 0.9214 0.9214
2010.000000 0.9215 0.9215 0.9215 0.9216 0.9217
2005.000000 0.9217 0.9217 0.9216 0.9217 0.9216
2000.000000 0.9216 0.9215 0.9215 0.9214 0.9214
1995.000000 0.9213 0.9212 0.9213 0.9212 0.9212
1990.000000 0.9212 0.9210 0.9210 0.9209 0.9210
1985.000000 0.9210 0.9209 0.9208 0.9208 0.9208
1980.000000 0.9207 0.9207 0.9208 0.9208 0.9209
1975.000000 0.9209 0.9211 0.9212 0.9212 0.9213
1970.000000 0.9215 0.9215 0.9216 0.9215 0.9216
1965.000000 0.9216 0.9217 0.9216 0.9217 0.9217
1960.000000 0.9217 0.9217 0.9218 0.9218 0.9219
1955.000000 0.9219 0.9220 0.9220 0.9220 0.9220
1950.000000 0.9218 0.9217 0.9216 0.9215 0.9213
1945.000000 0.9212 0.9210 0.9210 0.9207 0.9207
1940.000000 0.9208 0.9207 0.9208 0.9208 0.9208
1935.000000 0.9208 0.9209 0.9208 0.9209 0.9209
1930.000000 0.9210 0.9209 0.9210 0.9210 0.9211
1925.000000 0.9212 0.9212 0.9212 0.9213 0.9213
1920.000000 0.9213 0.9213 0.9212 0.9211 0.9211
1915.000000 0.9210 0.9210 0.9210 0.9210 0.9210
1910.000000 0.9209 0.9209 0.9209 0.9210 0.9210
1905.000000 0.9209 0.9206 0.9204 0.9200 0.9196
1900.000000 0.9193 0.9190 0.9185 0.9181 0.9178
1895.000000 0.9175 0.9172 0.9168 0.9164 0.9161
1890.000000 0.9158 0.9154 0.9152 0.9149 0.9147
1885.000000 0.9146 0.9147 0.9153 0.9159 0.9162
1880.000000 0.9167 0.9171 0.9175 0.9178 0.9183
1875.000000 0.9188 0.9192 0.9196 0.9200 0.9203
1870.000000 0.9205 0.9205 0.9207 0.9208 0.9209
1865.000000 0.9210 0.9211 0.9213 0.9213 0.9214
1860.000000 0.9215 0.9215 0.9215 0.9216 0.9217
1855.000000 0.9218 0.9219 0.9219 0.9220 0.9221
1850.000000 0.9221 0.9221 0.9221 0.9220 0.9221
1845.000000 0.9222 0.9221 0.9221 0.9221 0.9221
1840.000000 0.9221 0.9221 0.9221 0.9221 0.9221
1835.000000 0.9221 0.9220 0.9221 0.9221 0.9221
1830.000000 0.9222 0.9223 0.9223 0.9223 0.9223
1825.000000 0.9224 0.9225 0.9225 0.9225 0.9225
1820.000000 0.9223 0.9222 0.9221 0.9219 0.9218
1815.000000 0.9216 0.9215 0.9213 0.9212 0.9210
1810.000000 0.9209 0.9206 0.9204 0.9202 0.9200
1805.000000 0.9198 0.9195 0.9193 0.9191 0.9189
1800.000000 0.9186 0.9187 0.9186 0.9187 0.9187
1795.000000 0.9187 0.9187 0.9186 0.9186 0.9186
1790.000000 0.9185 0.9184 0.9183 0.9183 0.9181
1785.000000 0.9180 0.9179 0.9177 0.9176 0.9175
1780.000000 0.9174 0.9171 0.9168 0.9166 0.9164
1775.000000 0.9162 0.9159 0.9156 0.9154 0.9151
1770.000000 0.9148 0.9142 0.9135 0.9128 0.9121
1765.000000 0.9115 0.9109 0.9102 0.9094 0.9087
1760.000000 0.9079 0.9070 0.9060 0.9050 0.9040
1755.000000 0.9028 0.9015 0.9003 0.8990 0.8977
1750.000000 0.8964 0.8949 0.8934 0.8919 0.8903
1745.000000 0.8886 0.8867 0.8849 0.8828 0.8811
1740.000000 0.8776 0.8735 0.8682 0.8562 0.8329
1735.000000 0.8226 0.8130 0.7924 0.7663 0.7392
1730.000000 0.7121 0.6850 0.6578 0.6307 0.6035
1725.000000 0.5762 0.5490 0.5217 0.4944 0.4670
1720.000000 0.4396 0.4150 0.3978 0.3931 0.3898
1715.000000 0.3865 0.3833 0.3811 0.3799 0.3796
1710.000000 0.3815 0.3802 0.3824 0.4004 0.4239
1705.000000 0.4444 0.4649 0.4854 0.5060 0.5266
1700.000000 0.5472 0.5679 0.5885 0.6091 0.6297
1695.000000 0.6506 0.6713 0.6921 0.7129 0.7337
1690.000000 0.7524 0.7657 0.7738 0.7825 0.7911
1685.000000 0.7982 0.8047 0.8105 0.8152 0.8186
1680.000000 0.8219 0.8249 0.8277 0.8306 0.8335
1675.000000 0.8361 0.8384 0.8400 0.8411 0.8422
1670.000000 0.8434 0.8444 0.8454 0.8465 0.8475
1665.000000 0.8484 0.8489 0.8493 0.8495 0.8498
1660.000000 0.8498 0.8497 0.8497 0.8495 0.8490
1655.000000 0.8481 0.8470 0.8455 0.8437 0.8410
1650.000000 0.8376 0.8340 0.8283 0.8225 0.8161
1645.000000 0.8033 0.7888 0.7721 0.7521 0.7304
1640.000000 0.7085 0.6868 0.6649 0.6431 0.6212
1635.000000 0.5993 0.5774 0.5554 0.5334 0.5114
1630.000000 0.4894 0.4673 0.4453 0.4262 0.4138
1625.000000 0.4074 0.4041 0.4021 0.4007 0.3981
1620.000000 0.3997 0.3998 0.4009 0.4029 0.4067
1615.000000 0.4154 0.4341 0.4529 0.4717 0.4907
1610.000000 0.5096 0.5285 0.5475 0.5703 0.5710
1605.000000 0.5713 0.5712 0.5712 0.5665 0.5533
1600.000000 0.5358 0.5182 0.5023 0.4944 0.4952
1595.000000 0.4938 0.4942 0.5001 0.5148 0.5297
1590.000000 0.5445 0.5593 0.5723 0.5789 0.5786
1585.000000 0.5765 0.5743 0.5720 0.5702 0.5699
1580.000000 0.5716 0.5809 0.5980 0.6152 0.6324
1575.000000 0.6497 0.6669 0.6841 0.7015 0.7186
1570.000000 0.7343 0.7467 0.7595 0.7718 0.7788
1565.000000 0.7846 0.7899 0.7946 0.7985 0.8018
1560.000000 0.8054 0.8091 0.8132 0.8168 0.8184
1555.000000 0.8194 0.8201 0.8205 0.8210 0.8208
1550.000000 0.8201 0.8176 0.8135 0.8071 0.8004
1545.000000 0.7937 0.7862 0.7770 0.7595 0.7248
1540.000000 0.6900 0.6550 0.6202 0.5852 0.5502
1535.000000 0.5151 0.4800 0.4652 0.4626 0.4624
1530.000000 0.4619 0.4634 0.4680 0.4841 0.4982
1525.000000 0.5124 0.5266 0.5407 0.5550 0.5693
1520.000000 0.5835 0.5978 0.6120 0.6264 0.6408
1515.000000 0.6551 0.6694 0.6839 0.6982 0.7127
1510.000000 0.7271 0.7416 0.7561 0.7706 0.7850
1505.000000 0.7996 0.8126 0.8187 0.8215 0.8233
1500.000000 0.8242 0.8247 0.8251 0.8249 0.8246
1495.000000 0.8236 0.8221 0.8195 0.8150 0.8048
1490.000000 0.7920 0.7792 0.7663 0.7536 0.7406
1485.000000 0.7277 0.7152 0.7062 0.7005 0.6959
1480.000000 0.6921 0.6890 0.6857 0.6823 0.6756
1475.000000 0.6667 0.6575 0.6485 0.6394 0.6304
1470.000000 0.6212 0.6126 0.6075 0.6079 0.6077
1465.000000 0.6077 0.6079 0.6084 0.6089 0.6097
1460.000000 0.6108 0.6127 0.6147 0.6172 0.6205
1455.000000 0.6237 0.6260 0.6278 0.6291 0.6311
1450.000000 0.6300 0.6302 0.6297 0.6287 0.6269
1445.000000 0.6233 0.6197 0.6160 0.6123 0.6086
1440.000000 0.6049 0.6012 0.5975 0.5946 0.5937
1435.000000 0.5942 0.5957 0.6006 0.6115 0.6226
1430.000000 0.6334 0.6441 0.6548 0.6656 0.6765
1425.000000 0.6878 0.6971 0.7015 0.7053 0.7092
1420.000000 0.7131 0.7198 0.7266 0.7296 0.7301
1415.000000 0.7291 0.7303 0.7280 0.7231 0.7155
1410.000000 0.7074 0.6993 0.6911 0.6829 0.6748
1405.000000 0.6677 0.6643 0.6618 0.6587 0.6553
1400.000000 0.6526 0.6503 0.6496 0.6495 0.6501
1395.000000 0.6532 0.6566 0.6601 0.6635 0.6668
1390.000000 0.6687 0.6688 0.6689 0.6664 0.6584
1385.000000 0.6452 0.6317 0.6182 0.6048 0.5925
1380.000000 0.5887 0.5899 0.5912 0.5925 0.5924
1375.000000 0.5869 0.5807 0.5745 0.5683 0.5622
1370.000000 0.5581 0.5581 0.5581 0.5593 0.5638
1365.000000 0.5786 0.5948 0.6112 0.6274 0.6437
1360.000000 0.6601 0.6764 0.6928 0.7092 0.7226
1355.000000 0.7274 0.7292 0.7306 0.7322 0.7368
1350.000000 0.7430 0.7512 0.7655 0.7779 0.7857
1345.000000 0.7913 0.7959 0.8003 0.8051 0.8079
1340.000000 0.8089 0.8097 0.8107 0.8115 0.8114
1335.000000 0.8106 0.8089 0.8056 0.8012 0.7947
1330.000000 0.7861 0.7746 0.7571 0.7370 0.7198
1325.000000 0.7049 0.6737 0.6241 0.5743 0.5389
1320.000000 0.5303 0.5208 0.5033 0.4865 0.4777
1315.000000 0.4754 0.4774 0.4880 0.5019 0.5158
1310.000000 0.5297 0.5436 0.5575 0.5690 0.5721
1305.000000 0.5721 0.5698 0.5543 0.5368 0.5193
1300.000000 0.5019 0.4843 0.4667 0.4437 0.4448
1295.000000 0.4490 0.4653 0.4843 0.5034 0.5223
1290.000000 0.5414 0.5604 0.5795 0.5986 0.6177
1285.000000 0.6250 0.6242 0.6250 0.6250 0.6185
1280.000000 0.6013 0.5832 0.5650 0.5467 0.5285
1275.000000 0.5102 0.4918 0.4734 0.4557 0.4375
1270.000000 0.4183 0.4081 0.3981 0.3885 0.3811
1265.000000 0.3770 0.3745 0.3735 0.3735 0.3734
1260.000000 0.3744 0.3766 0.3814 0.3901 0.4076
1255.000000 0.4256 0.4434 0.4612 0.4790 0.4968
1250.000000 0.5149 0.5328 0.5508 0.5687 0.5933
1245.000000 0.6051 0.6149 0.6233 0.6299 0.6361
1240.000000 0.6421 0.6459 0.6487 0.6502 0.6500
1235.000000 0.6496 0.6470 0.6422 0.6356 0.6283
1230.000000 0.6194 0.6104 0.6006 0.5833 0.5640
1225.000000 0.5445 0.5250 0.5056 0.4861 0.4665
1220.000000 0.4470 0.4274 0.4077 0.3886 0.3793
1215.000000 0.3769 0.3746 0.3750 0.3751 0.3752
1210.000000 0.3764 0.3790 0.3827 0.3874 0.3953
1205.000000 0.4088 0.4249 0.4369 0.4484 0.4629
1200.000000 0.4784 0.4956 0.5112 0.5269 0.5426
1195.000000 0.5584 0.5742 0.5900 0.6058 0.6224
1190.000000 0.6471 0.6563 0.6647 0.6716 0.6782
1185.000000 0.6858 0.6956 0.7048 0.7134 0.7209
1180.000000 0.7275 0.7324 0.7369 0.7423 0.7474
1175.000000 0.7509 0.7544 0.7582 0.7624 0.7668
1170.000000 0.7713 0.7760 0.7825 0.7923 0.7982
1165.000000 0.7995 0.7994 0.7993 0.7994 0.7989
1160.000000 0.7977 0.7964 0.7953 0.7938 0.7917
1155.000000 0.7897 0.7870 0.7841 0.7811 0.7774
1150.000000 0.7704 0.7608 0.7402 0.7140 0.6957
1145.000000 0.6832 0.6665 0.6346 0.6028 0.5708
1140.000000 0.5388 0.5183 0.5102 0.5067 0.5063
1135.000000 0.5093 0.5268 0.5453 0.5638 0.5823
1130.000000 0.5998 0.6100 0.6191 0.6276 0.6362
1125.000000 0.6450 0.6539 0.6616 0.6670 0.6700
1120.000000 0.6697 0.6697 0.6682 0.6584 0.6375
1115.000000 0.6166 0.5956 0.5746 0.5536 0.5325
1110.000000 0.5114 0.4908 0.4797 0.4722 0.4672
1105.000000 0.4640 0.4645 0.4667 0.4773 0.4913
1100.000000 0.5069 0.5216 0.5405 0.5600 0.5796
1095.000000 0.5993 0.6189 0.6386 0.6577 0.6720
1090.000000 0.6826 0.6886 0.6935 0.6976 0.7010
1085.000000 0.7039 0.7056 0.7065 0.7078 0.7078
1080.000000 0.7079 0.7033 0.6960 0.6901 0.6857
1075.000000 0.6809 0.6762 0.6714 0.6671 0.6688
1070.000000 0.6701 0.6738 0.6788 0.6848 0.6910
1065.000000 0.6961 0.7000 0.7022 0.7024 0.7019
1060.000000 0.7011 0.7004 0.7002 0.7010 0.7042
1055.000000 0.7109 0.7185 0.7256 0.7328 0.7399
1050.000000 0.7464 0.7511 0.7543 0.7573 0.7609
1045.000000 0.7606 0.7606 0.7606 0.7583 0.7487
1040.000000 0.7360 0.7265 0.7187 0.7107 0.7028
1035.000000 0.6952 0.6884 0.6832 0.6781 0.6737
1030.000000 0.6694 0.6654 0.6616 0.6576 0.6530
1025.000000 0.6487 0.6447 0.6406 0.6380 0.6361
1020.000000 0.6356 0.6365 0.6402 0.6461 0.6520
1015.000000 0.6581 0.6644 0.6706 0.6769 0.6832
1010.000000 0.6895 0.6963 0.7043 0.7132 0.7235
1005.000000 0.7341 0.7440 0.7583 0.7751 0.7837
1000.000000 0.7918 0.7994 0.8050 0.8102 0.8155
995.000000 0.8203 0.8236 0.8256 0.8278 0.8298
990.000000 0.8291 0.8277 0.8248 0.8208 0.8153
985.000000 0.8104 0.8034 0.8038 0.8077 0.8140
980.000000 0.8194 0.8251 0.8308 0.8364 0.8402
975.000000 0.8440 0.8476 0.8508 0.8533 0.8554
970.000000 0.8574 0.8590 0.8602 0.8613 0.8617
965.000000 0.8622 0.8620 0.8614 0.8596 0.8575
960.000000 0.8551 0.8518 0.8479 0.8435 0.8383
955.000000 0.8312 0.8208 0.8093 0.7957 0.7843
950.000000 0.7765 0.7716 0.7669 0.7637 0.7632
945.000000 0.7666 0.7718 0.7773 0.7856 0.7973
940.000000 0.8100 0.8219 0.8342 0.8433 0.8516
935.000000 0.8583 0.8648 0.8692 0.8731 0.8766
930.000000 0.8795 0.8823 0.8840 0.8856 0.8867
925.000000 0.8878 0.8886 0.8924 0.8898 0.8902
920.000000 0.8908 0.8910 0.8909 0.8904 0.8889
915.000000 0.8867 0.8835 0.8808 0.8783 0.8759
910.000000 0.8732 0.8705 0.8674 0.8640 0.8605
905.000000 0.8569 0.8540 0.8514 0.8486 0.8488
900.000000 0.8523 0.8562 0.8599 0.8633 0.8664
895.000000 0.8691 0.8718 0.8741 0.8750 0.8759
890.000000 0.8764 0.8767 0.8770 0.8773 0.8791
885.000000 0.8777 0.8776 0.8772 0.8768 0.8761
880.000000 0.8755 0.8742 0.8720 0.8678 0.8605
875.000000 0.8448 0.8224 0.7998 0.7772 0.7546
870.000000 0.7319 0.7092 0.6928 0.6883 0.6890
865.000000 0.6980 0.7216 0.7451 0.7685 0.7918
860.000000 0.8075 0.8182 0.8276 0.8336 0.8382
855.000000 0.8400 0.8398 0.8384 0.8365 0.8349
850.000000 0.8335 0.8327 0.8322 0.8322 0.8318
845.000000 0.8318 0.8322 0.8328 0.8345 0.8369
840.000000 0.8410 0.8456 0.8432 0.8386 0.8299
835.000000 0.8163 0.7991 0.7827 0.7664 0.7499
830.000000 0.7334 0.7239 0.7240 0.7279 0.7471
825.000000 0.7641 0.7811 0.7981 0.8153 0.8323
820.000000 0.8391 0.8452 0.8530 0.8514 0.8504
815.000000 0.8463 0.8420 0.8374 0.8321 0.8269
810.000000 0.8217 0.8162 0.8102 0.8038 0.7971
805.000000 0.7909 0.7844 0.7796 0.7794 0.7799
800.000000 0.7850 0.7908 0.7963 0.7976 0.7983
795.000000 0.7997 0.8033 0.8159 0.8254 0.8339
790.000000 0.8412 0.8479 0.8536 0.8590 0.8645
785.000000 0.8702 0.8750 0.8788 0.8823 0.8855
780.000000 0.8883 0.8911 0.8942 0.8961 0.8960
775.000000 0.8960 0.8948 0.8913 0.8862 0.8800
770.000000 0.8717 0.8578 0.8425 0.8061 0.7626
765.000000 0.6969 0.6311 0.5650 0.5229 0.5043
760.000000 0.4972 0.4979 0.5161 0.5598 0.6040
755.000000 0.6481 0.6924 0.7351 0.7687 0.7824
750.000000 0.7950 0.8061 0.8183 0.8234 0.8271
745.000000 0.8302 0.8329 0.8315 0.8306 0.8355
740.000000 0.8405 0.8461 0.8504 0.8535 0.8533
735.000000 0.8467 0.8250 0.7974 0.7782 0.7673
730.000000 0.7626 0.7636 0.7707 0.7860 0.8079
725.000000 0.8264 0.8399 0.8556 0.8677 0.8772
720.000000 0.8840 0.8890 0.8931 0.8965 0.8992
715.000000 0.9020 0.9047 0.9074 0.9100 0.9113
710.000000 0.9125 0.9137 0.9146 0.9149 0.9152
705.000000 0.9155 0.9159 0.9164 0.9170 0.9177
700.000000 0.9186 0.9195 0.9191 0.9185 0.9186
695.000000 0.9189 0.9191 0.9193 0.9196 0.9199
690.000000 0.9204 0.9202 0.9199 0.9195 0.9192
685.000000 0.9190 0.9188 0.9186 0.9184 0.9183
680.000000 0.9182 0.9181 0.9181 0.9178 0.9173
675.000000 0.9162
##END=
