##TITLE=3Alpha,5Alpha-Cycloandrostane, 6Beta-acetamido-17Beta-acetoxy-
##JCAMP-DX=4.24
##DATA TYPE=INFRARED SPECTRUM
##CLASS=COBLENTZ
##ORIGIN=ABBOTT LABORATORIES
##OWNER=Copyright (C) 1987 by the Coblentz Society
Collection (C) 2018 copyright by the U.S. Secretary of Commerce
on behalf of the United States of America. All rights reserved.
##DATE=1962/02/05
##NAMES=10-(acetylamino)-3a,5a-dimethylhexadecahydrocyclopenta[a]cyclopropa[2,3]cyclopenta[1,2-f]naphthalen-6-yl acetate
##MOLFORM=C23 H35 N O3
##SOURCE REFERENCE=COBLENTZ NO. 5287
##$NIST ID=B6005287
##$NIST SOURCE=COBLENTZ
##$NIST IMAGE=cob5287
##SPECTROMETER/DATA SYSTEM=PERKIN-ELMER 21 (GRATING)
$$ INACTIVE (CHCl3) AROUND 650-800 AND 1200-1250 CM^-^1
##INSTRUMENT PARAMETERS=FILTER AT ABOUT 10 MICRONS
##STATE=SOLUTION 7% (CHCl3 FOR 2.5-12.5 microns)
##PATH LENGTH=0.01 CM
##RESOLUTION=2
##XUNITS=1/CM
##YUNITS=TRANSMITTANCE
##XFACTOR=1.0
##YFACTOR=1
##FIRSTX=801
##LASTX=4000
##FIRSTY=0.9658
##MAXX=4000
##MINX=801
##MAXY=0.9434
##MINY=0.1124
##NPOINTS=3200
##XYDATA=(X++(Y..Y))
801.000000 0.9658 0.9578 0.9457 0.9311 0.9278
806.000000 0.9286 0.9296 0.9309 0.9323 0.9314
811.000000 0.9281 0.9250 0.9223 0.9220 0.9254
816.000000 0.9228 0.9213 0.9191 0.9168 0.9144
821.000000 0.9121 0.9097 0.9071 0.9026 0.8977
826.000000 0.8923 0.8865 0.8795 0.8749 0.8714
831.000000 0.8638 0.8535 0.8470 0.8465 0.8485
836.000000 0.8503 0.8526 0.8557 0.8590 0.8810
841.000000 0.8889 0.8890 0.8888 0.8888 0.8888
846.000000 0.8895 0.8931 0.8963 0.8981 0.8961
851.000000 0.8946 0.8930 0.8909 0.8886 0.8864
856.000000 0.8848 0.8832 0.8814 0.8796 0.8778
861.000000 0.8761 0.8741 0.8721 0.8701 0.8682
866.000000 0.8661 0.8641 0.8620 0.8598 0.8563
871.000000 0.8538 0.8526 0.8496 0.8563 0.8675
876.000000 0.8682 0.8685 0.8689 0.8697 0.8707
881.000000 0.8738 0.8711 0.8707 0.8695 0.8679
886.000000 0.8653 0.8583 0.8528 0.8503 0.8451
891.000000 0.8386 0.8320 0.8249 0.8172 0.8077
896.000000 0.8048 0.8029 0.8014 0.8002 0.7991
901.000000 0.7965 0.7864 0.7823 0.7811 0.7811
906.000000 0.7790 0.7827 0.7845 0.7872 0.7905
911.000000 0.7964 0.8042 0.8127 0.8214 0.8327
916.000000 0.8431 0.8529 0.8627 0.8692 0.8714
921.000000 0.8714 0.8714 0.8718 0.8687 0.8637
926.000000 0.8560 0.8458 0.8341 0.8218 0.8126
931.000000 0.8096 0.8112 0.8147 0.8242 0.8296
936.000000 0.8323 0.8332 0.8336 0.8330 0.8324
941.000000 0.8327 0.8333 0.8355 0.8379 0.8385
946.000000 0.8350 0.8284 0.8250 0.8228 0.8209
951.000000 0.8121 0.7991 0.7829 0.7655 0.7531
956.000000 0.7416 0.7305 0.7195 0.7096 0.7083
961.000000 0.7082 0.7126 0.7226 0.7346 0.7454
966.000000 0.7583 0.7621 0.7625 0.7569 0.7495
971.000000 0.7459 0.7420 0.7377 0.7334 0.7287
976.000000 0.7242 0.7197 0.7158 0.7141 0.7140
981.000000 0.7122 0.7181 0.7221 0.7267 0.7315
986.000000 0.7364 0.7402 0.7429 0.7447 0.7462
991.000000 0.7518 0.7802 0.7822 0.7625 0.7595
996.000000 0.7582 0.7556 0.7483 0.7434 0.7400
1001.000000 0.7361 0.7309 0.7244 0.7167 0.7053
1006.000000 0.6937 0.6821 0.6684 0.6511 0.6336
1011.000000 0.6081 0.5823 0.5566 0.5357 0.5193
1016.000000 0.5069 0.4945 0.4829 0.4662 0.4470
1021.000000 0.4420 0.4441 0.4448 0.4467 0.4499
1026.000000 0.4547 0.4593 0.4634 0.4648 0.4701
1031.000000 0.4441 0.4158 0.3995 0.3858 0.3808
1036.000000 0.3810 0.3808 0.3918 0.3999 0.4145
1041.000000 0.4361 0.4553 0.4744 0.4936 0.5431
1046.000000 0.5619 0.5699 0.5751 0.5800 0.5849
1051.000000 0.5912 0.6009 0.6171 0.6476 0.6637
1056.000000 0.6759 0.6856 0.6948 0.6994 0.7006
1061.000000 0.6944 0.6857 0.6788 0.6736 0.6707
1066.000000 0.6696 0.6698 0.6724 0.6788 0.6881
1071.000000 0.7078 0.7232 0.7342 0.7389 0.7394
1076.000000 0.7395 0.7391 0.7382 0.7326 0.7239
1081.000000 0.7166 0.7086 0.7015 0.6960 0.6915
1086.000000 0.6894 0.6892 0.6901 0.6942 0.7021
1091.000000 0.7085 0.7168 0.7256 0.7315 0.7363
1096.000000 0.7394 0.7401 0.7392 0.7364 0.7324
1101.000000 0.7278 0.7237 0.7230 0.7242 0.7267
1106.000000 0.7341 0.7470 0.7578 0.7625 0.7636
1111.000000 0.7634 0.7631 0.7628 0.7624 0.7618
1116.000000 0.7613 0.7610 0.7612 0.7617 0.7634
1121.000000 0.7666 0.7738 0.7835 0.7906 0.7936
1126.000000 0.7944 0.7948 0.7959 0.7945 0.7939
1131.000000 0.7933 0.7919 0.7900 0.7851 0.7802
1136.000000 0.7771 0.7744 0.7733 0.7736 0.7756
1141.000000 0.7777 0.7805 0.7829 0.7846 0.7862
1146.000000 0.7865 0.7799 0.7683 0.7534 0.7395
1151.000000 0.7323 0.7309 0.7298 0.7283 0.7297
1156.000000 0.7320 0.7403 0.7514 0.7640 0.7751
1161.000000 0.7854 0.7958 0.8062 0.8161 0.8235
1166.000000 0.8261 0.8283 0.8306 0.8288 0.8279
1171.000000 0.8267 0.8249 0.8229 0.8205 0.8178
1176.000000 0.8151 0.8121 0.8089 0.8055 0.8003
1181.000000 0.7946 0.7914 0.7898 0.7886 0.7877
1186.000000 0.7866 0.7855 0.7826 0.7778 0.7681
1191.000000 0.7551 0.7401 0.7221 0.7030 0.6817
1196.000000 0.6578 0.6342 0.6124 0.5958 0.5852
1201.000000 0.5746 0.5639 0.5533 0.5428 0.5322
1206.000000 0.5217 0.5111 0.5006 0.4901 0.4797
1211.000000 0.4692 0.4588 0.4483 0.4379 0.4276
1216.000000 0.4172 0.4068 0.3965 0.3862 0.3758
1221.000000 0.3656 0.3553 0.3451 0.3348 0.3246
1226.000000 0.3144 0.3042 0.2940 0.2839 0.2737
1231.000000 0.2636 0.2535 0.2435 0.2333 0.2233
1236.000000 0.2132 0.2033 0.1932 0.1840 0.1742
1241.000000 0.1641 0.1543 0.1447 0.1352 0.1267
1246.000000 0.1186 0.1133 0.1128 0.1133 0.1124
1251.000000 0.1155 0.1188 0.1252 0.1386 0.1521
1256.000000 0.1639 0.1747 0.1849 0.1942 0.2034
1261.000000 0.2296 0.2600 0.2903 0.3205 0.3507
1266.000000 0.3808 0.4109 0.4410 0.4710 0.5009
1271.000000 0.5308 0.5607 0.5905 0.6120 0.6145
1276.000000 0.6148 0.6146 0.6140 0.6114 0.6044
1281.000000 0.5997 0.5999 0.6022 0.6064 0.6169
1286.000000 0.6342 0.6489 0.6744 0.7008 0.7121
1291.000000 0.7140 0.7161 0.7186 0.7226 0.7264
1296.000000 0.7316 0.7365 0.7386 0.7405 0.7423
1301.000000 0.7430 0.7433 0.7437 0.7440 0.7439
1306.000000 0.7433 0.7429 0.7423 0.7418 0.7414
1311.000000 0.7409 0.7405 0.7401 0.7396 0.7392
1316.000000 0.7392 0.7395 0.7398 0.7401 0.7419
1321.000000 0.7447 0.7482 0.7545 0.7595 0.7633
1326.000000 0.7638 0.7641 0.7642 0.7643 0.7646
1331.000000 0.7647 0.7648 0.7649 0.7649 0.7659
1336.000000 0.7649 0.7637 0.7623 0.7597 0.7557
1341.000000 0.7459 0.7280 0.7096 0.6911 0.6727
1346.000000 0.6544 0.6360 0.6177 0.5994 0.5811
1351.000000 0.5628 0.5460 0.5428 0.5407 0.5383
1356.000000 0.5263 0.5071 0.4879 0.4687 0.4497
1361.000000 0.4305 0.4115 0.3924 0.3866 0.3873
1366.000000 0.4069 0.4255 0.4440 0.4626 0.4810
1371.000000 0.4995 0.5145 0.5187 0.5214 0.5234
1376.000000 0.5250 0.5280 0.5544 0.5623 0.5633
1381.000000 0.5645 0.5658 0.5678 0.6136 0.6568
1386.000000 0.6762 0.6913 0.7021 0.7108 0.7167
1391.000000 0.7226 0.7285 0.7323 0.7344 0.7351
1396.000000 0.7357 0.7362 0.7360 0.7368 0.7348
1401.000000 0.7335 0.7321 0.7300 0.7280 0.7259
1406.000000 0.7228 0.7185 0.7142 0.7097 0.7050
1411.000000 0.7004 0.6954 0.6898 0.6840 0.6782
1416.000000 0.6722 0.6651 0.6574 0.6490 0.6364
1421.000000 0.6229 0.6094 0.5959 0.5824 0.5690
1426.000000 0.5555 0.5423 0.5328 0.5277 0.5248
1431.000000 0.5227 0.5211 0.5195 0.5180 0.5165
1436.000000 0.5152 0.5129 0.5103 0.5084 0.5074
1441.000000 0.5066 0.5063 0.5061 0.5077 0.5099
1446.000000 0.5126 0.5152 0.5179 0.5205 0.5232
1451.000000 0.5252 0.5262 0.5258 0.5255 0.5270
1456.000000 0.5247 0.5243 0.5233 0.5217 0.5198
1461.000000 0.5171 0.5156 0.5156 0.5158 0.5151
1466.000000 0.5173 0.5197 0.5322 0.5368 0.5386
1471.000000 0.5391 0.5397 0.5384 0.5374 0.5354
1476.000000 0.5205 0.5000 0.4794 0.4589 0.4384
1481.000000 0.4179 0.3975 0.3772 0.3568 0.3364
1486.000000 0.3162 0.2958 0.2756 0.2554 0.2344
1491.000000 0.2136 0.2106 0.2092 0.2093 0.2097
1496.000000 0.2105 0.2067 0.2157 0.2217 0.2301
1501.000000 0.2371 0.2426 0.2521 0.2636 0.2729
1506.000000 0.2838 0.3473 0.4074 0.4675 0.5193
1511.000000 0.5469 0.5617 0.5734 0.5844 0.5953
1516.000000 0.6062 0.6170 0.6276 0.6383 0.6495
1521.000000 0.6633 0.6784 0.6925 0.7055 0.7183
1526.000000 0.7312 0.7440 0.7568 0.7674 0.7731
1531.000000 0.7786 0.7840 0.7891 0.7927 0.7962
1536.000000 0.7996 0.8031 0.8065 0.8098 0.8128
1541.000000 0.8157 0.8187 0.8206 0.8218 0.8229
1546.000000 0.8241 0.8252 0.8264 0.8275 0.8285
1551.000000 0.8293 0.8298 0.8303 0.8307 0.8312
1556.000000 0.8317 0.8322 0.8326 0.8331 0.8336
1561.000000 0.8340 0.8343 0.8345 0.8345 0.8345
1566.000000 0.8345 0.8345 0.8327 0.8345 0.8343
1571.000000 0.8340 0.8335 0.8331 0.8327 0.8323
1576.000000 0.8318 0.8314 0.8310 0.8305 0.8296
1581.000000 0.8286 0.8276 0.8266 0.8256 0.8246
1586.000000 0.8236 0.8226 0.8217 0.8203 0.8188
1591.000000 0.8172 0.8156 0.8140 0.8125 0.8110
1596.000000 0.8094 0.8078 0.8063 0.8041 0.8015
1601.000000 0.7989 0.7962 0.7935 0.7909 0.7883
1606.000000 0.7856 0.7825 0.7781 0.7733 0.7684
1611.000000 0.7636 0.7586 0.7533 0.7471 0.7410
1616.000000 0.7348 0.7286 0.7225 0.7166 0.7110
1621.000000 0.7053 0.6997 0.6941 0.6885 0.6808
1626.000000 0.6713 0.6614 0.6518 0.6427 0.6338
1631.000000 0.6250 0.6157 0.6048 0.5936 0.5651
1636.000000 0.5350 0.5049 0.4748 0.4447 0.4147
1641.000000 0.3847 0.3546 0.3247 0.2948 0.2649
1646.000000 0.2351 0.2053 0.1756 0.1536 0.1397
1651.000000 0.1326 0.1304 0.1298 0.1293 0.1294
1656.000000 0.1302 0.1312 0.1331 0.1365 0.1467
1661.000000 0.1755 0.2046 0.2338 0.2630 0.2921
1666.000000 0.3212 0.3502 0.3793 0.4082 0.4372
1671.000000 0.4661 0.4949 0.5238 0.5526 0.5813
1676.000000 0.6095 0.6337 0.6487 0.6598 0.6690
1681.000000 0.6759 0.6830 0.6902 0.6954 0.6974
1686.000000 0.6966 0.6973 0.6966 0.6956 0.6947
1691.000000 0.6925 0.6894 0.6851 0.6780 0.6659
1696.000000 0.6555 0.6189 0.5887 0.5610 0.5333
1701.000000 0.5056 0.4780 0.4503 0.4227 0.3952
1706.000000 0.3677 0.3402 0.3127 0.2852 0.2579
1711.000000 0.2305 0.2032 0.1856 0.1788 0.1780
1716.000000 0.1775 0.1775 0.1777 0.1796 0.1798
1721.000000 0.1905 0.2158 0.2491 0.2825 0.3158
1726.000000 0.3491 0.3823 0.4156 0.4480 0.4731
1731.000000 0.4969 0.5227 0.5538 0.5846 0.6039
1736.000000 0.6209 0.6355 0.6498 0.6631 0.6753
1741.000000 0.6874 0.6992 0.7106 0.7219 0.7432
1746.000000 0.7736 0.7826 0.7891 0.7955 0.8019
1751.000000 0.8084 0.8146 0.8189 0.8228 0.8267
1756.000000 0.8306 0.8345 0.8384 0.8412 0.8435
1761.000000 0.8457 0.8479 0.8500 0.8523 0.8545
1766.000000 0.8565 0.8583 0.8596 0.8608 0.8621
1771.000000 0.8633 0.8645 0.8658 0.8670 0.8690
1776.000000 0.8715 0.8743 0.8769 0.8796 0.8818
1781.000000 0.8835 0.8851 0.8865 0.8870 0.8873
1786.000000 0.8876 0.8880 0.8883 0.8886 0.8889
1791.000000 0.8893 0.8896 0.8899 0.8902 0.8905
1796.000000 0.8909 0.8912 0.8916 0.8919 0.8922
1801.000000 0.8925 0.8929 0.8932 0.8935 0.8939
1806.000000 0.8942 0.8946 0.8950 0.8953 0.8956
1811.000000 0.8960 0.8963 0.8967 0.8970 0.8973
1816.000000 0.8977 0.8980 0.8984 0.8987 0.8990
1821.000000 0.8994 0.8997 0.9001 0.9004 0.9007
1826.000000 0.9011 0.9014 0.9017 0.9021 0.9024
1831.000000 0.9030 0.9036 0.9042 0.9048 0.9055
1836.000000 0.9061 0.9067 0.9074 0.9080 0.9086
1841.000000 0.9093 0.9099 0.9105 0.9109 0.9110
1846.000000 0.9112 0.9113 0.9115 0.9116 0.9118
1851.000000 0.9119 0.9121 0.9122 0.9124 0.9125
1856.000000 0.9127 0.9128 0.9129 0.9131 0.9132
1861.000000 0.9134 0.9135 0.9137 0.9137 0.9138
1866.000000 0.9138 0.9138 0.9139 0.9139 0.9140
1871.000000 0.9140 0.9141 0.9141 0.9141 0.9142
1876.000000 0.9142 0.9143 0.9143 0.9143 0.9144
1881.000000 0.9144 0.9145 0.9145 0.9146 0.9146
1886.000000 0.9146 0.9147 0.9147 0.9147 0.9148
1891.000000 0.9148 0.9148 0.9147 0.9147 0.9147
1896.000000 0.9147 0.9147 0.9147 0.9147 0.9147
1901.000000 0.9147 0.9146 0.9146 0.9146 0.9146
1906.000000 0.9146 0.9146 0.9146 0.9146 0.9146
1911.000000 0.9146 0.9145 0.9145 0.9145 0.9145
1916.000000 0.9145 0.9145 0.9145 0.9145 0.9145
1921.000000 0.9144 0.9144 0.9144 0.9144 0.9133
1926.000000 0.9144 0.9144 0.9144 0.9145 0.9146
1931.000000 0.9147 0.9148 0.9149 0.9150 0.9151
1936.000000 0.9151 0.9152 0.9154 0.9154 0.9155
1941.000000 0.9156 0.9157 0.9158 0.9158 0.9160
1946.000000 0.9161 0.9161 0.9162 0.9163 0.9164
1951.000000 0.9165 0.9166 0.9166 0.9168 0.9169
1956.000000 0.9169 0.9170 0.9171 0.9172 0.9173
1961.000000 0.9173 0.9173 0.9173 0.9173 0.9173
1966.000000 0.9174 0.9174 0.9174 0.9174 0.9174
1971.000000 0.9175 0.9175 0.9175 0.9175 0.9175
1976.000000 0.9175 0.9176 0.9176 0.9176 0.9176
1981.000000 0.9177 0.9177 0.9177 0.9177 0.9177
1986.000000 0.9177 0.9177 0.9178 0.9178 0.9178
1991.000000 0.9178 0.9178 0.9179 0.9179 0.9179
1996.000000 0.9179 0.9178 0.9178 0.9177 0.9176
2001.000000 0.9175 0.9174 0.9173 0.9172 0.9170
2006.000000 0.9170 0.9169 0.9168 0.9166 0.9165
2011.000000 0.9165 0.9164 0.9162 0.9161 0.9160
2016.000000 0.9160 0.9158 0.9157 0.9156 0.9155
2021.000000 0.9155 0.9153 0.9152 0.9151 0.9150
2026.000000 0.9149 0.9148 0.9147 0.9147 0.9146
2031.000000 0.9144 0.9143 0.9143 0.9145 0.9147
2036.000000 0.9149 0.9151 0.9152 0.9153 0.9155
2041.000000 0.9157 0.9159 0.9160 0.9162 0.9164
2046.000000 0.9166 0.9168 0.9169 0.9171 0.9173
2051.000000 0.9175 0.9177 0.9178 0.9180 0.9181
2056.000000 0.9181 0.9181 0.9181 0.9181 0.9180
2061.000000 0.9180 0.9179 0.9178 0.9178 0.9177
2066.000000 0.9177 0.9176 0.9176 0.9176 0.9175
2071.000000 0.9175 0.9174 0.9173 0.9173 0.9172
2076.000000 0.9172 0.9172 0.9172 0.9171 0.9170
2081.000000 0.9170 0.9169 0.9169 0.9168 0.9168
2086.000000 0.9167 0.9167 0.9167 0.9166 0.9166
2091.000000 0.9165 0.9165 0.9164 0.9164 0.9164
2096.000000 0.9165 0.9165 0.9166 0.9166 0.9167
2101.000000 0.9168 0.9169 0.9170 0.9170 0.9171
2106.000000 0.9171 0.9172 0.9173 0.9173 0.9174
2111.000000 0.9174 0.9175 0.9175 0.9176 0.9176
2116.000000 0.9177 0.9178 0.9178 0.9179 0.9179
2121.000000 0.9180 0.9180 0.9181 0.9181 0.9182
2126.000000 0.9183 0.9183 0.9184 0.9184 0.9185
2131.000000 0.9185 0.9186 0.9186 0.9187 0.9188
2136.000000 0.9188 0.9188 0.9188 0.9187 0.9187
2141.000000 0.9186 0.9185 0.9184 0.9184 0.9183
2146.000000 0.9182 0.9182 0.9181 0.9181 0.9180
2151.000000 0.9179 0.9178 0.9178 0.9177 0.9177
2156.000000 0.9176 0.9176 0.9175 0.9174 0.9173
2161.000000 0.9172 0.9172 0.9171 0.9171 0.9170
2166.000000 0.9170 0.9169 0.9169 0.9168 0.9167
2171.000000 0.9166 0.9166 0.9165 0.9164 0.9164
2176.000000 0.9163 0.9163 0.9162 0.9162 0.9161
2181.000000 0.9160 0.9159 0.9159 0.9158 0.9158
2186.000000 0.9157 0.9157 0.9157 0.9157 0.9157
2191.000000 0.9157 0.9157 0.9158 0.9158 0.9159
2196.000000 0.9159 0.9159 0.9159 0.9160 0.9160
2201.000000 0.9160 0.9160 0.9161 0.9161 0.9162
2206.000000 0.9162 0.9162 0.9162 0.9163 0.9163
2211.000000 0.9163 0.9163 0.9164 0.9164 0.9165
2216.000000 0.9165 0.9165 0.9165 0.9166 0.9166
2221.000000 0.9166 0.9166 0.9167 0.9167 0.9168
2226.000000 0.9168 0.9168 0.9168 0.9169 0.9169
2231.000000 0.9169 0.9169 0.9170 0.9170 0.9170
2236.000000 0.9170 0.9170 0.9170 0.9170 0.9170
2241.000000 0.9169 0.9169 0.9169 0.9169 0.9169
2246.000000 0.9169 0.9168 0.9168 0.9168 0.9168
2251.000000 0.9168 0.9168 0.9167 0.9167 0.9167
2256.000000 0.9167 0.9167 0.9167 0.9167 0.9167
2261.000000 0.9167 0.9167 0.9168 0.9168 0.9168
2266.000000 0.9168 0.9169 0.9169 0.9169 0.9169
2271.000000 0.9171 0.9174 0.9178 0.9182 0.9186
2276.000000 0.9191 0.9195 0.9200 0.9205 0.9209
2281.000000 0.9213 0.9218 0.9222 0.9223 0.9224
2286.000000 0.9225 0.9225 0.9226 0.9226 0.9227
2291.000000 0.9227 0.9228 0.9228 0.9229 0.9229
2296.000000 0.9229 0.9229 0.9230 0.9230 0.9231
2301.000000 0.9231 0.9231 0.9230 0.9229 0.9228
2306.000000 0.9228 0.9227 0.9226 0.9225 0.9224
2311.000000 0.9225 0.9227 0.9229 0.9232 0.9234
2316.000000 0.9236 0.9239 0.9241 0.9244 0.9247
2321.000000 0.9249 0.9251 0.9254 0.9257 0.9261
2326.000000 0.9266 0.9271 0.9276 0.9280 0.9285
2331.000000 0.9290 0.9295 0.9300 0.9304 0.9309
2336.000000 0.9314 0.9320 0.9326 0.9332 0.9338
2341.000000 0.9344 0.9349 0.9355 0.9361 0.9367
2346.000000 0.9373 0.9379 0.9385 0.9391 0.9396
2351.000000 0.9401 0.9405 0.9410 0.9414 0.9419
2356.000000 0.9423 0.9428 0.9432 0.9434 0.9432
2361.000000 0.9430 0.9427 0.9423 0.9420 0.9416
2366.000000 0.9413 0.9410 0.9403 0.9394 0.9383
2371.000000 0.9367 0.9351 0.9336 0.9320 0.9306
2376.000000 0.9293 0.9280 0.9267 0.9253 0.9241
2381.000000 0.9228 0.9215 0.9201 0.9189 0.9176
2386.000000 0.9161 0.9143 0.9125 0.9107 0.9090
2391.000000 0.9071 0.9053 0.9035 0.9018 0.9001
2396.000000 0.8985 0.8969 0.8958 0.8948 0.8943
2401.000000 0.8940 0.8937 0.8934 0.8931 0.8928
2406.000000 0.8925 0.8924 0.8923 0.8922 0.8922
2411.000000 0.8922 0.8922 0.8922 0.8921 0.8921
2416.000000 0.8920 0.8920 0.8920 0.8920 0.8920
2421.000000 0.8920 0.8920 0.8921 0.8922 0.8923
2426.000000 0.8923 0.8923 0.8924 0.8925 0.8926
2431.000000 0.8926 0.8927 0.8927 0.8928 0.8929
2436.000000 0.8929 0.8930 0.8932 0.8933 0.8935
2441.000000 0.8937 0.8938 0.8940 0.8942 0.8944
2446.000000 0.8946 0.8948 0.8950 0.8951 0.8953
2451.000000 0.8955 0.8956 0.8958 0.8961 0.8965
2456.000000 0.8968 0.8971 0.8975 0.8978 0.8982
2461.000000 0.8986 0.8990 0.8993 0.8997 0.9001
2466.000000 0.9004 0.9007 0.9011 0.9014 0.9018
2471.000000 0.9022 0.9026 0.9029 0.9033 0.9037
2476.000000 0.9041 0.9045 0.9049 0.9053 0.9058
2481.000000 0.9062 0.9066 0.9070 0.9075 0.9079
2486.000000 0.9083 0.9087 0.9091 0.9096 0.9100
2491.000000 0.9104 0.9108 0.9112 0.9114 0.9116
2496.000000 0.9118 0.9120 0.9122 0.9124 0.9126
2501.000000 0.9127 0.9129 0.9131 0.9133 0.9134
2506.000000 0.9136 0.9138 0.9139 0.9139 0.9139
2511.000000 0.9139 0.9139 0.9138 0.9138 0.9138
2516.000000 0.9138 0.9138 0.9137 0.9137 0.9137
2521.000000 0.9136 0.9136 0.9136 0.9136 0.9136
2526.000000 0.9135 0.9135 0.9134 0.9134 0.9134
2531.000000 0.9134 0.9134 0.9133 0.9133 0.9133
2536.000000 0.9133 0.9133 0.9133 0.9132 0.9132
2541.000000 0.9131 0.9131 0.9131 0.9130 0.9130
2546.000000 0.9130 0.9130 0.9130 0.9129 0.9129
2551.000000 0.9129 0.9128 0.9128 0.9127 0.9127
2556.000000 0.9127 0.9127 0.9127 0.9126 0.9126
2561.000000 0.9126 0.9125 0.9125 0.9125 0.9124
2566.000000 0.9124 0.9124 0.9124 0.9124 0.9123
2571.000000 0.9123 0.9123 0.9122 0.9122 0.9121
2576.000000 0.9121 0.9121 0.9121 0.9121 0.9121
2581.000000 0.9121 0.9121 0.9121 0.9121 0.9121
2586.000000 0.9121 0.9121 0.9120 0.9120 0.9120
2591.000000 0.9120 0.9120 0.9120 0.9120 0.9120
2596.000000 0.9120 0.9120 0.9120 0.9119 0.9119
2601.000000 0.9119 0.9119 0.9119 0.9119 0.9119
2606.000000 0.9119 0.9119 0.9119 0.9119 0.9118
2611.000000 0.9118 0.9118 0.9118 0.9118 0.9118
2616.000000 0.9118 0.9118 0.9118 0.9118 0.9118
2621.000000 0.9117 0.9116 0.9115 0.9114 0.9113
2626.000000 0.9112 0.9110 0.9109 0.9108 0.9107
2631.000000 0.9106 0.9105 0.9104 0.9103 0.9102
2636.000000 0.9100 0.9099 0.9098 0.9096 0.9095
2641.000000 0.9094 0.9093 0.9092 0.9091 0.9090
2646.000000 0.9089 0.9088 0.9087 0.9086 0.9085
2651.000000 0.9084 0.9083 0.9081 0.9080 0.9079
2656.000000 0.9077 0.9074 0.9070 0.9066 0.9062
2661.000000 0.9057 0.9052 0.9048 0.9044 0.9040
2666.000000 0.9035 0.9030 0.9026 0.9024 0.9021
2671.000000 0.9019 0.9018 0.9016 0.9014 0.9013
2676.000000 0.9011 0.9010 0.9008 0.9006 0.9005
2681.000000 0.9003 0.9002 0.9000 0.8999 0.8997
2686.000000 0.8996 0.8994 0.8993 0.8991 0.8990
2691.000000 0.8989 0.8988 0.8986 0.8985 0.8984
2696.000000 0.8983 0.8981 0.8980 0.8979 0.8978
2701.000000 0.8977 0.8976 0.8975 0.8974 0.8972
2706.000000 0.8971 0.8970 0.8968 0.8965 0.8961
2711.000000 0.8956 0.8951 0.8946 0.8941 0.8936
2716.000000 0.8931 0.8926 0.8922 0.8917 0.8912
2721.000000 0.8910 0.8908 0.8907 0.8905 0.8904
2726.000000 0.8902 0.8901 0.8899 0.8898 0.8897
2731.000000 0.8895 0.8894 0.8892 0.8891 0.8889
2736.000000 0.8889 0.8889 0.8889 0.8888 0.8888
2741.000000 0.8888 0.8887 0.8887 0.8887 0.8886
2746.000000 0.8886 0.8886 0.8886 0.8886 0.8886
2751.000000 0.8881 0.8874 0.8868 0.8860 0.8853
2756.000000 0.8846 0.8839 0.8832 0.8825 0.8813
2761.000000 0.8796 0.8780 0.8762 0.8743 0.8723
2766.000000 0.8701 0.8675 0.8650 0.8623 0.8594
2771.000000 0.8565 0.8536 0.8507 0.8478 0.8448
2776.000000 0.8419 0.8389 0.8360 0.8330 0.8300
2781.000000 0.8271 0.8241 0.8211 0.8181 0.8151
2786.000000 0.8121 0.8091 0.8060 0.8029 0.7999
2791.000000 0.7968 0.7938 0.7908 0.7861 0.7809
2796.000000 0.7756 0.7702 0.7649 0.7595 0.7541
2801.000000 0.7488 0.7434 0.7380 0.7327 0.7273
2806.000000 0.7220 0.7166 0.7113 0.7060 0.7007
2811.000000 0.6954 0.6900 0.6847 0.6794 0.6741
2816.000000 0.6688 0.6635 0.6582 0.6530 0.6477
2821.000000 0.6424 0.6371 0.6318 0.6266 0.6213
2826.000000 0.6160 0.6108 0.6055 0.6003 0.5950
2831.000000 0.5898 0.5846 0.5793 0.5741 0.5689
2836.000000 0.5636 0.5584 0.5532 0.5480 0.5428
2841.000000 0.5377 0.5338 0.5299 0.5260 0.5250
2846.000000 0.5245 0.5239 0.5234 0.5229 0.5224
2851.000000 0.5219 0.5216 0.5213 0.5210 0.5209
2856.000000 0.5208 0.5207 0.5206 0.5205 0.5204
2861.000000 0.5203 0.5202 0.5201 0.5198 0.5188
2866.000000 0.5179 0.5168 0.5119 0.5070 0.5020
2871.000000 0.4971 0.4922 0.4873 0.4824 0.4775
2876.000000 0.4726 0.4677 0.4628 0.4579 0.4531
2881.000000 0.4482 0.4433 0.4384 0.4335 0.4287
2886.000000 0.4238 0.4190 0.4141 0.4092 0.4044
2891.000000 0.3995 0.3947 0.3899 0.3850 0.3802
2896.000000 0.3754 0.3706 0.3662 0.3619 0.3576
2901.000000 0.3551 0.3533 0.3515 0.3498 0.3486
2906.000000 0.3473 0.3460 0.3455 0.3450 0.3444
2911.000000 0.3439 0.3433 0.3428 0.3424 0.3425
2916.000000 0.3426 0.3427 0.3386 0.3431 0.3433
2921.000000 0.3434 0.3434 0.3435 0.3436 0.3457
2926.000000 0.3477 0.3498 0.3524 0.3552 0.3581
2931.000000 0.3609 0.3638 0.3667 0.3696 0.3739
2936.000000 0.3787 0.3835 0.3880 0.3917 0.3953
2941.000000 0.3990 0.4018 0.4044 0.4071 0.4097
2946.000000 0.4124 0.4150 0.4177 0.4203 0.4230
2951.000000 0.4257 0.4285 0.4313 0.4340 0.4368
2956.000000 0.4392 0.4415 0.4439 0.4461 0.4480
2961.000000 0.4500 0.4520 0.4539 0.4559 0.4578
2966.000000 0.4687 0.4931 0.5175 0.5419 0.5674
2971.000000 0.5930 0.6186 0.6451 0.6734 0.7017
2976.000000 0.7300 0.7403 0.7464 0.7525 0.7586
2981.000000 0.7647 0.7707 0.7768 0.7816 0.7860
2986.000000 0.7904 0.7945 0.7966 0.7988 0.8010
2991.000000 0.8032 0.8054 0.8076 0.8098 0.8120
2996.000000 0.8142 0.8163 0.8184 0.8204 0.8224
3001.000000 0.8244 0.8261 0.8278 0.8295 0.8312
3006.000000 0.8329 0.8345 0.8362 0.8379 0.8396
3011.000000 0.8413 0.8430 0.8446 0.8463 0.8480
3016.000000 0.8497 0.8513 0.8529 0.8545 0.8561
3021.000000 0.8576 0.8591 0.8606 0.8621 0.8636
3026.000000 0.8651 0.8666 0.8681 0.8696 0.8711
3031.000000 0.8726 0.8741 0.8756 0.8771 0.8781
3036.000000 0.8792 0.8802 0.8812 0.8820 0.8827
3041.000000 0.8835 0.8842 0.8849 0.8857 0.8864
3046.000000 0.8872 0.8879 0.8887 0.8894 0.8902
3051.000000 0.8909 0.8917 0.8923 0.8929 0.8935
3056.000000 0.8940 0.8944 0.8948 0.8951 0.8955
3061.000000 0.8958 0.8962 0.8966 0.8969 0.8973
3066.000000 0.8976 0.8980 0.8983 0.8985 0.8987
3071.000000 0.8989 0.8990 0.8990 0.8990 0.8990
3076.000000 0.8991 0.8991 0.8991 0.8992 0.8992
3081.000000 0.8992 0.8992 0.8993 0.8993 0.8993
3086.000000 0.8993 0.8994 0.8994 0.8994 0.8994
3091.000000 0.8995 0.8995 0.8995 0.8995 0.8996
3096.000000 0.8996 0.8996 0.8997 0.8997 0.8997
3101.000000 0.8997 0.8998 0.8998 0.8998 0.8998
3106.000000 0.8993 0.8999 0.8999 0.8999 0.8999
3111.000000 0.8999 0.8998 0.8998 0.8997 0.8996
3116.000000 0.8995 0.8995 0.8994 0.8994 0.8993
3121.000000 0.8993 0.8992 0.8991 0.8990 0.8990
3126.000000 0.8989 0.8988 0.8987 0.8986 0.8986
3131.000000 0.8985 0.8984 0.8983 0.8983 0.8982
3136.000000 0.8982 0.8981 0.8981 0.8980 0.8979
3141.000000 0.8978 0.8978 0.8977 0.8976 0.8975
3146.000000 0.8974 0.8974 0.8973 0.8972 0.8972
3151.000000 0.8971 0.8971 0.8970 0.8969 0.8969
3156.000000 0.8968 0.8967 0.8967 0.8966 0.8966
3161.000000 0.8965 0.8965 0.8964 0.8964 0.8963
3166.000000 0.8963 0.8962 0.8962 0.8961 0.8960
3171.000000 0.8960 0.8959 0.8958 0.8958 0.8957
3176.000000 0.8957 0.8956 0.8956 0.8955 0.8955
3181.000000 0.8954 0.8954 0.8953 0.8952 0.8951
3186.000000 0.8951 0.8950 0.8950 0.8949 0.8949
3191.000000 0.8948 0.8948 0.8947 0.8947 0.8946
3196.000000 0.8946 0.8945 0.8945 0.8944 0.8943
3201.000000 0.8943 0.8942 0.8941 0.8940 0.8940
3206.000000 0.8939 0.8938 0.8937 0.8937 0.8936
3211.000000 0.8935 0.8934 0.8934 0.8933 0.8932
3216.000000 0.8932 0.8931 0.8930 0.8929 0.8929
3221.000000 0.8928 0.8927 0.8927 0.8926 0.8926
3226.000000 0.8925 0.8923 0.8921 0.8919 0.8917
3231.000000 0.8914 0.8910 0.8906 0.8902 0.8898
3236.000000 0.8894 0.8890 0.8886 0.8882 0.8878
3241.000000 0.8874 0.8871 0.8867 0.8863 0.8859
3246.000000 0.8855 0.8851 0.8847 0.8843 0.8839
3251.000000 0.8835 0.8832 0.8828 0.8824 0.8820
3256.000000 0.8817 0.8814 0.8812 0.8809 0.8806
3261.000000 0.8803 0.8800 0.8797 0.8795 0.8792
3266.000000 0.8789 0.8786 0.8783 0.8781 0.8778
3271.000000 0.8775 0.8772 0.8769 0.8767 0.8764
3276.000000 0.8761 0.8759 0.8757 0.8755 0.8754
3281.000000 0.8752 0.8751 0.8750 0.8750 0.8749
3286.000000 0.8748 0.8746 0.8745 0.8744 0.8743
3291.000000 0.8742 0.8741 0.8739 0.8738 0.8737
3296.000000 0.8736 0.8735 0.8734 0.8733 0.8731
3301.000000 0.8730 0.8729 0.8728 0.8727 0.8726
3306.000000 0.8725 0.8723 0.8722 0.8722 0.8721
3311.000000 0.8720 0.8719 0.8718 0.8716 0.8715
3316.000000 0.8714 0.8713 0.8712 0.8711 0.8710
3321.000000 0.8708 0.8706 0.8704 0.8702 0.8700
3326.000000 0.8698 0.8696 0.8694 0.8692 0.8691
3331.000000 0.8689 0.8687 0.8685 0.8683 0.8682
3336.000000 0.8680 0.8678 0.8676 0.8674 0.8673
3341.000000 0.8671 0.8669 0.8667 0.8665 0.8664
3346.000000 0.8662 0.8659 0.8654 0.8649 0.8644
3351.000000 0.8640 0.8634 0.8629 0.8624 0.8618
3356.000000 0.8613 0.8608 0.8602 0.8597 0.8592
3361.000000 0.8583 0.8574 0.8565 0.8555 0.8546
3366.000000 0.8537 0.8528 0.8518 0.8509 0.8500
3371.000000 0.8491 0.8481 0.8472 0.8462 0.8446
3376.000000 0.8430 0.8414 0.8398 0.8375 0.8348
3381.000000 0.8321 0.8294 0.8267 0.8240 0.8213
3386.000000 0.8187 0.8160 0.8133 0.8106 0.8080
3391.000000 0.8053 0.8026 0.7999 0.7973 0.7946
3396.000000 0.7919 0.7893 0.7866 0.7839 0.7813
3401.000000 0.7786 0.7760 0.7733 0.7707 0.7681
3406.000000 0.7654 0.7628 0.7601 0.7575 0.7548
3411.000000 0.7522 0.7496 0.7469 0.7443 0.7416
3416.000000 0.7390 0.7364 0.7337 0.7311 0.7285
3421.000000 0.7260 0.7235 0.7211 0.7186 0.7170
3426.000000 0.7170 0.7170 0.7171 0.7171 0.7173
3431.000000 0.7218 0.7246 0.7274 0.7303 0.7410
3436.000000 0.7524 0.7637 0.7750 0.7863 0.7976
3441.000000 0.8089 0.8202 0.8315 0.8422 0.8521
3446.000000 0.8621 0.8720 0.8820 0.8853 0.8859
3451.000000 0.8866 0.8873 0.8880 0.8886 0.8891
3456.000000 0.8896 0.8901 0.8906 0.8911 0.8915
3461.000000 0.8919 0.8924 0.8928 0.8932 0.8935
3466.000000 0.8939 0.8943 0.8947 0.8951 0.8955
3471.000000 0.8959 0.8963 0.8966 0.8970 0.8974
3476.000000 0.8978 0.8981 0.8985 0.8989 0.8992
3481.000000 0.8996 0.9000 0.9003 0.9007 0.9010
3486.000000 0.9014 0.9017 0.9021 0.9024 0.9028
3491.000000 0.9031 0.9035 0.9038 0.9041 0.9045
3496.000000 0.9048 0.9050 0.9052 0.9054 0.9055
3501.000000 0.9057 0.9058 0.9058 0.9058 0.9058
3506.000000 0.9058 0.9059 0.9059 0.9060 0.9060
3511.000000 0.9060 0.9061 0.9061 0.9061 0.9061
3516.000000 0.9061 0.9062 0.9062 0.9063 0.9063
3521.000000 0.9063 0.9064 0.9064 0.9064 0.9064
3526.000000 0.9064 0.9065 0.9065 0.9066 0.9066
3531.000000 0.9066 0.9067 0.9067 0.9067 0.9067
3536.000000 0.9067 0.9068 0.9068 0.9069 0.9069
3541.000000 0.9069 0.9070 0.9070 0.9070 0.9070
3546.000000 0.9070 0.9071 0.9071 0.9072 0.9072
3551.000000 0.9072 0.9073 0.9073 0.9073 0.9073
3556.000000 0.9073 0.9074 0.9075 0.9076 0.9077
3561.000000 0.9077 0.9078 0.9079 0.9080 0.9080
3566.000000 0.9081 0.9082 0.9083 0.9084 0.9084
3571.000000 0.9085 0.9086 0.9087 0.9088 0.9089
3576.000000 0.9090 0.9091 0.9092 0.9092 0.9093
3581.000000 0.9094 0.9095 0.9096 0.9096 0.9097
3586.000000 0.9098 0.9099 0.9100 0.9101 0.9102
3591.000000 0.9103 0.9104 0.9104 0.9105 0.9106
3596.000000 0.9107 0.9107 0.9108 0.9109 0.9110
3601.000000 0.9111 0.9112 0.9113 0.9114 0.9116
3606.000000 0.9117 0.9118 0.9119 0.9121 0.9122
3611.000000 0.9123 0.9125 0.9126 0.9127 0.9129
3616.000000 0.9130 0.9131 0.9133 0.9134 0.9135
3621.000000 0.9137 0.9138 0.9139 0.9141 0.9142
3626.000000 0.9143 0.9145 0.9146 0.9147 0.9149
3631.000000 0.9150 0.9151 0.9153 0.9154 0.9155
3636.000000 0.9157 0.9158 0.9159 0.9160 0.9162
3641.000000 0.9163 0.9164 0.9166 0.9167 0.9168
3646.000000 0.9169 0.9170 0.9171 0.9172 0.9173
3651.000000 0.9174 0.9175 0.9176 0.9177 0.9178
3656.000000 0.9178 0.9179 0.9180 0.9181 0.9181
3661.000000 0.9182 0.9183 0.9183 0.9184 0.9185
3666.000000 0.9168 0.9185 0.9185 0.9185 0.9185
3671.000000 0.9185 0.9184 0.9184 0.9184 0.9184
3676.000000 0.9184 0.9183 0.9183 0.9183 0.9183
3681.000000 0.9183 0.9182 0.9182 0.9182 0.9182
3686.000000 0.9182 0.9182 0.9181 0.9181 0.9181
3691.000000 0.9181 0.9181 0.9180 0.9180 0.9180
3696.000000 0.9180 0.9180 0.9180 0.9179 0.9179
3701.000000 0.9179 0.9179 0.9179 0.9178 0.9178
3706.000000 0.9178 0.9177 0.9177 0.9177 0.9176
3711.000000 0.9176 0.9175 0.9174 0.9174 0.9173
3716.000000 0.9173 0.9172 0.9172 0.9171 0.9171
3721.000000 0.9170 0.9170 0.9169 0.9168 0.9168
3726.000000 0.9167 0.9167 0.9166 0.9166 0.9165
3731.000000 0.9165 0.9164 0.9164 0.9163 0.9163
3736.000000 0.9162 0.9161 0.9161 0.9160 0.9160
3741.000000 0.9159 0.9159 0.9158 0.9158 0.9157
3746.000000 0.9157 0.9156 0.9156 0.9155 0.9155
3751.000000 0.9154 0.9153 0.9153 0.9152 0.9152
3756.000000 0.9151 0.9151 0.9150 0.9150 0.9149
3761.000000 0.9149 0.9149 0.9148 0.9148 0.9148
3766.000000 0.9147 0.9146 0.9146 0.9145 0.9145
3771.000000 0.9144 0.9144 0.9144 0.9144 0.9144
3776.000000 0.9144 0.9143 0.9143 0.9143 0.9143
3781.000000 0.9143 0.9143 0.9142 0.9142 0.9142
3786.000000 0.9141 0.9141 0.9140 0.9140 0.9140
3791.000000 0.9140 0.9140 0.9140 0.9139 0.9139
3796.000000 0.9139 0.9138 0.9138 0.9138 0.9137
3801.000000 0.9137 0.9137 0.9137 0.9137 0.9137
3806.000000 0.9136 0.9136 0.9136 0.9135 0.9135
3811.000000 0.9134 0.9134 0.9134 0.9134 0.9134
3816.000000 0.9134 0.9133 0.9133 0.9133 0.9133
3821.000000 0.9133 0.9133 0.9132 0.9132 0.9132
3826.000000 0.9131 0.9131 0.9131 0.9130 0.9130
3831.000000 0.9130 0.9130 0.9130 0.9130 0.9129
3836.000000 0.9129 0.9129 0.9128 0.9128 0.9128
3841.000000 0.9127 0.9127 0.9126 0.9126 0.9125
3846.000000 0.9125 0.9124 0.9123 0.9123 0.9122
3851.000000 0.9121 0.9121 0.9120 0.9119 0.9119
3856.000000 0.9118 0.9117 0.9117 0.9116 0.9115
3861.000000 0.9115 0.9114 0.9113 0.9112 0.9112
3866.000000 0.9111 0.9110 0.9110 0.9109 0.9108
3871.000000 0.9108 0.9107 0.9106 0.9106 0.9105
3876.000000 0.9104 0.9104 0.9103 0.9102 0.9102
3881.000000 0.9101 0.9100 0.9100 0.9099 0.9099
3886.000000 0.9098 0.9097 0.9097 0.9096 0.9095
3891.000000 0.9095 0.9094 0.9093 0.9093 0.9092
3896.000000 0.9092 0.9091 0.9091 0.9090 0.9090
3901.000000 0.9089 0.9088 0.9088 0.9087 0.9086
3906.000000 0.9086 0.9085 0.9084 0.9083 0.9082
3911.000000 0.9082 0.9081 0.9080 0.9079 0.9079
3916.000000 0.9078 0.9077 0.9077 0.9076 0.9076
3921.000000 0.9075 0.9074 0.9074 0.9073 0.9072
3926.000000 0.9071 0.9071 0.9070 0.9069 0.9068
3931.000000 0.9067 0.9067 0.9066 0.9065 0.9065
3936.000000 0.9064 0.9064 0.9063 0.9062 0.9062
3941.000000 0.9061 0.9060 0.9060 0.9059 0.9058
3946.000000 0.9057 0.9056 0.9056 0.9055 0.9054
3951.000000 0.9054 0.9053 0.9052 0.9052 0.9051
3956.000000 0.9050 0.9049 0.9049 0.9048 0.9047
3961.000000 0.9046 0.9045 0.9045 0.9044 0.9044
3966.000000 0.9043 0.9042 0.9042 0.9041 0.9040
3971.000000 0.9040 0.9039 0.9038 0.9038 0.9037
3976.000000 0.9036 0.9036 0.9035 0.9034 0.9033
3981.000000 0.9032 0.9032 0.9031 0.9031 0.9030
3986.000000 0.9029 0.9029 0.9028 0.9027 0.9027
3991.000000 0.9026 0.9026 0.9025 0.9024 0.9024
3996.000000 0.9024 0.9023 0.9023 0.9023 0.9023
##END=
