##TITLE=5Alpha-Cycloandrostan-17-one, 6Beta-p-nitrobenzamido-3Alpha-,
##JCAMP-DX=4.24
##DATA TYPE=INFRARED SPECTRUM
##CLASS=COBLENTZ
##ORIGIN=ABBOTT LABORATORIES
##OWNER=Copyright (C) 1987 by the Coblentz Society
Collection (C) 2018 copyright by the U.S. Secretary of Commerce
on behalf of the United States of America. All rights reserved.
##DATE=1961/11/15
##NAMES=N-(3a,5a-dimethyl-6-oxohexadecahydrocyclopenta[a]cyclopropa[2,3]cyclopenta[1,2-f]naphthalen-10-yl)-4-nitrobenzamide
##MOLFORM=C26 H32 N2 O4
##MP=247-249 C DECOMP.
$$ SPECTRAL FEATURE AT 995 CM^-^1 IS PROBABLY AN ARTIFACT CAUSED BY FILTER CHANGE
##SOURCE REFERENCE=COBLENTZ NO. 5247
##$NIST ID=B6005247
##$NIST SOURCE=COBLENTZ
##$NIST IMAGE=cob5247
##SPECTROMETER/DATA SYSTEM=PERKIN-ELMER 21 (GRATING)
$$ INACTIVE (CHCl3) AROUND 650-800 AND 1200-1250 CM^-^1
##INSTRUMENT PARAMETERS=FILTER AT ABOUT 10 MICRONS
##STATE=SOLUTION 7% (CHCl3 FOR 2.5-12.5 microns)
##PATH LENGTH=0.01 CM
##RESOLUTION=2
##XUNITS=1/CM
##YUNITS=TRANSMITTANCE
##XFACTOR=1.0
##YFACTOR=1
##FIRSTX=664
##LASTX=4000
##FIRSTY=0.7925
##MAXX=4000
##MINX=664
##MAXY=0.9165
##MINY=0.0977
##NPOINTS=3337
##XYDATA=(X++(Y..Y))
664.000000 0.7925 0.7934 0.7942 0.7949 0.7954
669.000000 0.7948 0.7943 0.7937 0.7931 0.7928
674.000000 0.7926 0.7924 0.7923 0.7921 0.7920
679.000000 0.7918 0.7916 0.7914 0.7912 0.7910
684.000000 0.7907 0.7904 0.7900 0.7897 0.7878
689.000000 0.7832 0.7791 0.7751 0.7716 0.7694
694.000000 0.7671 0.7648 0.7625 0.7603 0.7580
699.000000 0.7550 0.7475 0.7402 0.7331 0.7260
704.000000 0.7185 0.7108 0.7033 0.6967 0.6906
709.000000 0.6896 0.6909 0.6924 0.6972 0.7097
714.000000 0.7237 0.7382 0.7546 0.7705 0.7851
719.000000 0.7946 0.7994 0.7998 0.8000 0.7995
724.000000 0.7989 0.7982 0.7975 0.7966 0.7958
729.000000 0.7949 0.7941 0.7932 0.7925 0.7918
734.000000 0.7910 0.7903 0.7900 0.7898 0.7895
739.000000 0.7892 0.7889 0.7886 0.7884 0.7887
744.000000 0.7890 0.7894 0.7898 0.7902 0.7905
749.000000 0.7909 0.7912 0.7916 0.7921 0.7927
754.000000 0.7935 0.7942 0.7949 0.7956 0.7963
759.000000 0.7971 0.7981 0.7985 0.7986 0.7985
764.000000 0.7971 0.7954 0.7939 0.7924 0.7909
769.000000 0.7894 0.7883 0.7871 0.7859 0.7847
774.000000 0.7835 0.7823 0.7811 0.7800 0.7790
779.000000 0.7779 0.7769 0.7759 0.7748 0.7738
784.000000 0.7728 0.7718 0.7709 0.7700 0.7691
789.000000 0.7682 0.7673 0.7664 0.7655 0.7646
794.000000 0.7637 0.7628 0.7620 0.7611 0.7602
799.000000 0.7589 0.7575 0.7556 0.7538 0.7531
804.000000 0.7539 0.7540 0.7558 0.7579 0.7623
809.000000 0.7675 0.7719 0.7729 0.7710 0.7688
814.000000 0.7644 0.7583 0.7497 0.7387 0.7255
819.000000 0.7086 0.6873 0.6635 0.6386 0.6066
824.000000 0.5710 0.5664 0.5733 0.5862 0.6002
829.000000 0.6152 0.6321 0.6501 0.6685 0.6924
834.000000 0.7174 0.7424 0.7598 0.7748 0.7851
839.000000 0.7907 0.7944 0.7956 0.7948 0.7907
844.000000 0.7839 0.7751 0.7649 0.7502 0.7283
849.000000 0.6923 0.6091 0.5348 0.5263 0.5289
854.000000 0.5594 0.6095 0.6594 0.6945 0.6955
859.000000 0.6604 0.6318 0.6035 0.5759 0.5736
864.000000 0.5747 0.5976 0.6391 0.6805 0.7219
869.000000 0.7444 0.7565 0.7662 0.7758 0.7893
874.000000 0.8050 0.8132 0.8158 0.8142 0.8093
879.000000 0.8040 0.7987 0.7963 0.7971 0.8024
884.000000 0.8121 0.8227 0.8325 0.8390 0.8451
889.000000 0.8492 0.8514 0.8521 0.8528 0.8523
894.000000 0.8518 0.8519 0.8508 0.8501 0.8493
899.000000 0.8485 0.8474 0.8452 0.8426 0.8375
904.000000 0.8319 0.8259 0.8205 0.8152 0.8071
909.000000 0.7976 0.7944 0.7950 0.7929 0.7991
914.000000 0.8029 0.8072 0.8104 0.8142 0.8103
919.000000 0.8080 0.8058 0.8036 0.8015 0.8003
924.000000 0.7989 0.8011 0.8059 0.8125 0.8200
929.000000 0.8294 0.8330 0.8334 0.8334 0.8345
934.000000 0.8304 0.8288 0.8271 0.8254 0.8232
939.000000 0.8210 0.8186 0.8143 0.8093 0.8041
944.000000 0.7992 0.7960 0.7941 0.7928 0.7915
949.000000 0.7899 0.7871 0.7844 0.7823 0.7816
954.000000 0.7831 0.7844 0.7851 0.7836 0.7807
959.000000 0.7774 0.7707 0.7690 0.7706 0.7748
964.000000 0.7833 0.7973 0.8080 0.8133 0.8129
969.000000 0.8120 0.8101 0.8081 0.8061 0.8040
974.000000 0.8018 0.7995 0.7972 0.7946 0.7918
979.000000 0.7868 0.7804 0.7754 0.7719 0.7717
984.000000 0.7758 0.7892 0.8009 0.8067 0.8087
989.000000 0.8094 0.8089 0.8071 0.7961 0.7793
994.000000 0.7625 0.7506 0.7700 0.7946 0.7951
999.000000 0.7871 0.7791 0.7712 0.7501 0.7209
1004.000000 0.6918 0.6627 0.6338 0.6048 0.5759
1009.000000 0.5471 0.5325 0.5357 0.5819 0.6382
1014.000000 0.6942 0.7137 0.7172 0.7181 0.7178
1019.000000 0.7161 0.7126 0.7087 0.7051 0.7055
1024.000000 0.7063 0.7072 0.7079 0.7085 0.7101
1029.000000 0.7118 0.7148 0.7191 0.7297 0.7409
1034.000000 0.7522 0.7600 0.7638 0.7646 0.7625
1039.000000 0.7599 0.7562 0.7491 0.7332 0.6959
1044.000000 0.6631 0.6304 0.5977 0.5769 0.5764
1049.000000 0.5978 0.6255 0.6532 0.6808 0.7083
1054.000000 0.7304 0.7372 0.7397 0.7398 0.7398
1059.000000 0.7415 0.7448 0.7533 0.7614 0.7683
1064.000000 0.7734 0.7774 0.7805 0.7811 0.7816
1069.000000 0.7817 0.7811 0.7809 0.7797 0.7785
1074.000000 0.7773 0.7751 0.7724 0.7697 0.7669
1079.000000 0.7656 0.7654 0.7651 0.7647 0.7642
1084.000000 0.7635 0.7606 0.7553 0.7486 0.7400
1089.000000 0.7309 0.7190 0.7142 0.7136 0.7151
1094.000000 0.7156 0.7159 0.7159 0.7118 0.7069
1099.000000 0.6975 0.6693 0.6294 0.6259 0.6223
1104.000000 0.6407 0.6530 0.6654 0.6776 0.6899
1109.000000 0.7022 0.7144 0.7266 0.7387 0.7509
1114.000000 0.7626 0.7689 0.7733 0.7757 0.7774
1119.000000 0.7760 0.7771 0.7759 0.7745 0.7732
1124.000000 0.7718 0.7702 0.7679 0.7655 0.7630
1129.000000 0.7604 0.7579 0.7557 0.7545 0.7539
1134.000000 0.7548 0.7555 0.7563 0.7573 0.7582
1139.000000 0.7591 0.7594 0.7594 0.7616 0.7571
1144.000000 0.7546 0.7482 0.7317 0.7252 0.7242
1149.000000 0.7247 0.7313 0.7407 0.7502 0.7596
1154.000000 0.7653 0.7619 0.7597 0.7552 0.7487
1159.000000 0.7382 0.7171 0.6959 0.6747 0.6535
1164.000000 0.6364 0.6334 0.6312 0.6347 0.6430
1169.000000 0.6602 0.6775 0.6946 0.7118 0.7290
1174.000000 0.7460 0.7569 0.7600 0.7622 0.7626
1179.000000 0.7627 0.7621 0.7616 0.7603 0.7586
1184.000000 0.7533 0.7367 0.7187 0.7008 0.6829
1189.000000 0.6651 0.6485 0.6354 0.6244 0.6170
1194.000000 0.6099 0.6029 0.5967 0.5911 0.5856
1199.000000 0.5803 0.5769 0.5737 0.5705 0.5677
1204.000000 0.5652 0.5628 0.5603 0.5579 0.5555
1209.000000 0.5535 0.5517 0.5499 0.5481 0.5463
1214.000000 0.5447 0.5437 0.5427 0.5418 0.5408
1219.000000 0.5405 0.5405 0.5405 0.5404 0.5404
1224.000000 0.5403 0.5410 0.5420 0.5430 0.5441
1229.000000 0.5450 0.5457 0.5465 0.5472 0.5479
1234.000000 0.5484 0.5485 0.5488 0.5489 0.5492
1239.000000 0.5492 0.5487 0.5482 0.5476 0.5466
1244.000000 0.5446 0.5415 0.5374 0.5346 0.5329
1249.000000 0.5311 0.5306 0.5307 0.5315 0.5331
1254.000000 0.5347 0.5363 0.5397 0.5446 0.5530
1259.000000 0.5601 0.5660 0.5715 0.5756 0.5794
1264.000000 0.5814 0.5826 0.5834 0.5834 0.5842
1269.000000 0.5895 0.6018 0.6294 0.6452 0.6547
1274.000000 0.6596 0.6626 0.6648 0.6655 0.6660
1279.000000 0.6662 0.6659 0.6664 0.6641 0.6630
1284.000000 0.6608 0.6549 0.6474 0.6408 0.6359
1289.000000 0.6343 0.6335 0.6331 0.6433 0.6509
1294.000000 0.6584 0.6659 0.6734 0.6787 0.6794
1299.000000 0.6779 0.6764 0.6738 0.6705 0.6459
1304.000000 0.6182 0.5906 0.5652 0.5537 0.5489
1309.000000 0.5451 0.5425 0.5398 0.5373 0.5349
1314.000000 0.5312 0.5270 0.5227 0.5186 0.5157
1319.000000 0.5138 0.5136 0.5154 0.5204 0.5240
1324.000000 0.5247 0.5247 0.5231 0.5030 0.4709
1329.000000 0.4388 0.4069 0.3749 0.3430 0.3111
1334.000000 0.2793 0.2475 0.2159 0.1836 0.1551
1339.000000 0.1375 0.1321 0.1314 0.1323 0.1333
1344.000000 0.1378 0.1518 0.1770 0.2087 0.2404
1349.000000 0.2721 0.3037 0.3352 0.3667 0.3981
1354.000000 0.4295 0.4609 0.4922 0.5235 0.5543
1359.000000 0.5693 0.5692 0.5689 0.5678 0.5656
1364.000000 0.5625 0.5597 0.5584 0.5590 0.5669
1369.000000 0.5804 0.5939 0.6074 0.6209 0.6343
1374.000000 0.6476 0.6610 0.6744 0.6904 0.7068
1379.000000 0.7178 0.7262 0.7297 0.7329 0.7355
1384.000000 0.7362 0.7370 0.7369 0.7365 0.7354
1389.000000 0.7334 0.7278 0.7215 0.7154 0.7094
1394.000000 0.7033 0.6973 0.6913 0.6892 0.6877
1399.000000 0.6963 0.7082 0.7200 0.7318 0.7436
1404.000000 0.7549 0.7615 0.7633 0.7644 0.7651
1409.000000 0.7657 0.7658 0.7650 0.7652 0.7644
1414.000000 0.7636 0.7627 0.7614 0.7592 0.7570
1419.000000 0.7535 0.7465 0.7301 0.7098 0.6894
1424.000000 0.6691 0.6488 0.6308 0.6217 0.6150
1429.000000 0.6118 0.6087 0.6066 0.6046 0.6026
1434.000000 0.5992 0.5943 0.5899 0.5854 0.5803
1439.000000 0.5741 0.5679 0.5593 0.5504 0.5406
1444.000000 0.5297 0.5168 0.5015 0.4791 0.4693
1449.000000 0.4660 0.4623 0.4562 0.4474 0.4421
1454.000000 0.4387 0.4358 0.4329 0.4301 0.4267
1459.000000 0.4216 0.4162 0.4104 0.3992 0.3815
1464.000000 0.3637 0.3460 0.3283 0.3107 0.2930
1469.000000 0.2754 0.2578 0.2402 0.2227 0.2051
1474.000000 0.1876 0.1842 0.1888 0.2183 0.2714
1479.000000 0.3244 0.3773 0.4301 0.4829 0.5317
1484.000000 0.5543 0.5556 0.5487 0.5273 0.5013
1489.000000 0.4755 0.4496 0.4238 0.3980 0.3722
1494.000000 0.3464 0.3208 0.2951 0.2695 0.2439
1499.000000 0.2184 0.1928 0.1693 0.1581 0.1567
1504.000000 0.1599 0.1568 0.1591 0.1615 0.1638
1509.000000 0.1662 0.1686 0.1725 0.1711 0.1704
1514.000000 0.1641 0.1537 0.1429 0.1320 0.1213
1519.000000 0.1105 0.1011 0.0977 0.1008 0.0985
1524.000000 0.1136 0.1538 0.2021 0.2504 0.2986
1529.000000 0.3468 0.3947 0.4428 0.4907 0.5386
1534.000000 0.5864 0.6341 0.6721 0.6856 0.6877
1539.000000 0.6889 0.6900 0.6910 0.6922 0.6941
1544.000000 0.6965 0.6990 0.7026 0.7090 0.7156
1549.000000 0.7229 0.7311 0.7414 0.7475 0.7498
1554.000000 0.7519 0.7538 0.7550 0.7562 0.7574
1559.000000 0.7585 0.7594 0.7601 0.7607 0.7614
1564.000000 0.7621 0.7625 0.7625 0.7624 0.7623
1569.000000 0.7627 0.7621 0.7618 0.7612 0.7606
1574.000000 0.7600 0.7585 0.7565 0.7545 0.7511
1579.000000 0.7472 0.7430 0.7384 0.7338 0.7289
1584.000000 0.7221 0.7145 0.7051 0.6816 0.6526
1589.000000 0.6235 0.5946 0.5657 0.5368 0.5079
1594.000000 0.4791 0.4503 0.4215 0.3929 0.3778
1599.000000 0.3804 0.3748 0.3754 0.3852 0.4118
1604.000000 0.4466 0.4814 0.5161 0.5508 0.5854
1609.000000 0.6200 0.6546 0.6890 0.7214 0.7396
1614.000000 0.7432 0.7467 0.7477 0.7482 0.7483
1619.000000 0.7483 0.7508 0.7471 0.7464 0.7454
1624.000000 0.7443 0.7427 0.7405 0.7367 0.7263
1629.000000 0.7080 0.6883 0.6686 0.6490 0.6294
1634.000000 0.6097 0.5901 0.5706 0.5511 0.5316
1639.000000 0.5121 0.4926 0.4732 0.4538 0.4344
1644.000000 0.4150 0.3957 0.3764 0.3571 0.3378
1649.000000 0.3185 0.2993 0.2801 0.2610 0.2418
1654.000000 0.2226 0.2035 0.1861 0.1750 0.1739
1659.000000 0.1738 0.1738 0.1740 0.1752 0.1895
1664.000000 0.2135 0.2413 0.2691 0.2968 0.3246
1669.000000 0.3522 0.3799 0.4075 0.4350 0.4625
1674.000000 0.4900 0.5175 0.5450 0.5724 0.5998
1679.000000 0.6267 0.6362 0.6406 0.6449 0.6550
1684.000000 0.6689 0.6831 0.6963 0.7056 0.7122
1689.000000 0.7186 0.7224 0.7251 0.7275 0.7297
1694.000000 0.7312 0.7308 0.7317 0.7315 0.7311
1699.000000 0.7307 0.7300 0.7289 0.7277 0.7262
1704.000000 0.7232 0.7164 0.6952 0.6674 0.6397
1709.000000 0.6120 0.5843 0.5567 0.5290 0.5015
1714.000000 0.4739 0.4464 0.4190 0.3916 0.3641
1719.000000 0.3367 0.3094 0.2820 0.2548 0.2275
1724.000000 0.2003 0.1804 0.1742 0.1740 0.1741
1729.000000 0.1762 0.1999 0.2326 0.2664 0.3001
1734.000000 0.3338 0.3675 0.4011 0.4347 0.4682
1739.000000 0.5017 0.5352 0.5686 0.6020 0.6666
1744.000000 0.6969 0.7031 0.7104 0.7206 0.7495
1749.000000 0.7626 0.7702 0.7803 0.7962 0.8101
1754.000000 0.8199 0.8254 0.8285 0.8316 0.8344
1759.000000 0.8369 0.8392 0.8416 0.8439 0.8462
1764.000000 0.8478 0.8493 0.8509 0.8525 0.8540
1769.000000 0.8557 0.8573 0.8591 0.8607 0.8617
1774.000000 0.8624 0.8630 0.8637 0.8643 0.8645
1779.000000 0.8648 0.8651 0.8653 0.8656 0.8658
1784.000000 0.8661 0.8665 0.8670 0.8677 0.8683
1789.000000 0.8689 0.8695 0.8702 0.8708 0.8720
1794.000000 0.8734 0.8749 0.8764 0.8779 0.8793
1799.000000 0.8807 0.8823 0.8840 0.8857 0.8874
1804.000000 0.8889 0.8895 0.8900 0.8904 0.8909
1809.000000 0.8913 0.8917 0.8920 0.8921 0.8921
1814.000000 0.8921 0.8922 0.8922 0.8923 0.8923
1819.000000 0.8923 0.8924 0.8924 0.8925 0.8926
1824.000000 0.8927 0.8928 0.8929 0.8930 0.8932
1829.000000 0.8934 0.8935 0.8937 0.8939 0.8935
1834.000000 0.8943 0.8945 0.8947 0.8949 0.8951
1839.000000 0.8953 0.8956 0.8960 0.8963 0.8967
1844.000000 0.8971 0.8975 0.8979 0.8983 0.8986
1849.000000 0.8990 0.8992 0.8995 0.8998 0.9000
1854.000000 0.9003 0.9005 0.9005 0.9005 0.9006
1859.000000 0.9006 0.9006 0.9007 0.9008 0.9008
1864.000000 0.9008 0.9006 0.9005 0.9004 0.9002
1869.000000 0.9001 0.8999 0.8999 0.8997 0.8996
1874.000000 0.8995 0.8993 0.8992 0.8990 0.8990
1879.000000 0.8988 0.8987 0.8986 0.8984 0.8982
1884.000000 0.8980 0.8979 0.8978 0.8976 0.8975
1889.000000 0.8973 0.8972 0.8971 0.8969 0.8967
1894.000000 0.8965 0.8965 0.8964 0.8963 0.8963
1899.000000 0.8962 0.8961 0.8960 0.8959 0.8958
1904.000000 0.8958 0.8957 0.8956 0.8955 0.8955
1909.000000 0.8954 0.8954 0.8954 0.8953 0.8953
1914.000000 0.8953 0.8953 0.8953 0.8953 0.8953
1919.000000 0.8953 0.8954 0.8956 0.8957 0.8958
1924.000000 0.8960 0.8961 0.8962 0.8964 0.8965
1929.000000 0.8966 0.8969 0.8972 0.8976 0.8979
1934.000000 0.8982 0.8986 0.8989 0.8992 0.8996
1939.000000 0.8999 0.9002 0.9005 0.9008 0.9011
1944.000000 0.9014 0.9018 0.9021 0.9024 0.9028
1949.000000 0.9032 0.9036 0.9040 0.9044 0.9048
1954.000000 0.9052 0.9056 0.9060 0.9063 0.9067
1959.000000 0.9071 0.9072 0.9074 0.9075 0.9076
1964.000000 0.9078 0.9078 0.9079 0.9081 0.9081
1969.000000 0.9082 0.9083 0.9084 0.9084 0.9084
1974.000000 0.9083 0.9083 0.9083 0.9083 0.9083
1979.000000 0.9083 0.9082 0.9082 0.9082 0.9082
1984.000000 0.9082 0.9081 0.9081 0.9081 0.9080
1989.000000 0.9080 0.9080 0.9079 0.9079 0.9078
1994.000000 0.9078 0.9078 0.9077 0.9077 0.9077
1999.000000 0.9076 0.9076 0.9075 0.9075 0.9075
2004.000000 0.9074 0.9074 0.9074 0.9074 0.9074
2009.000000 0.9073 0.9073 0.9073 0.9072 0.9072
2014.000000 0.9072 0.9071 0.9071 0.9071 0.9071
2019.000000 0.9071 0.9070 0.9070 0.9070 0.9069
2024.000000 0.9069 0.9069 0.9069 0.9069 0.9069
2029.000000 0.9069 0.9070 0.9072 0.9073 0.9074
2034.000000 0.9075 0.9076 0.9078 0.9079 0.9080
2039.000000 0.9081 0.9083 0.9084 0.9085 0.9086
2044.000000 0.9087 0.9089 0.9090 0.9091 0.9092
2049.000000 0.9093 0.9095 0.9097 0.9098 0.9099
2054.000000 0.9100 0.9101 0.9103 0.9104 0.9105
2059.000000 0.9106 0.9107 0.9108 0.9110 0.9111
2064.000000 0.9112 0.9113 0.9114 0.9116 0.9117
2069.000000 0.9118 0.9119 0.9120 0.9121 0.9123
2074.000000 0.9124 0.9125 0.9125 0.9126 0.9127
2079.000000 0.9128 0.9130 0.9131 0.9132 0.9133
2084.000000 0.9134 0.9135 0.9137 0.9138 0.9139
2089.000000 0.9140 0.9141 0.9142 0.9142 0.9144
2094.000000 0.9145 0.9146 0.9147 0.9147 0.9148
2099.000000 0.9149 0.9151 0.9152 0.9152 0.9153
2104.000000 0.9154 0.9155 0.9155 0.9156 0.9158
2109.000000 0.9159 0.9160 0.9160 0.9161 0.9162
2114.000000 0.9163 0.9163 0.9164 0.9165 0.9165
2119.000000 0.9165 0.9165 0.9165 0.9165 0.9165
2124.000000 0.9165 0.9165 0.9165 0.9165 0.9165
2129.000000 0.9165 0.9165 0.9165 0.9165 0.9165
2134.000000 0.9165 0.9165 0.9165 0.9165 0.9165
2139.000000 0.9165 0.9165 0.9165 0.9165 0.9165
2144.000000 0.9165 0.9165 0.9165 0.9165 0.9165
2149.000000 0.9165 0.9165 0.9164 0.9163 0.9162
2154.000000 0.9161 0.9160 0.9158 0.9157 0.9155
2159.000000 0.9154 0.9153 0.9152 0.9151 0.9149
2164.000000 0.9148 0.9147 0.9146 0.9145 0.9143
2169.000000 0.9142 0.9141 0.9140 0.9139 0.9137
2174.000000 0.9135 0.9134 0.9133 0.9132 0.9131
2179.000000 0.9129 0.9128 0.9127 0.9126 0.9125
2184.000000 0.9124 0.9122 0.9121 0.9120 0.9119
2189.000000 0.9118 0.9117 0.9117 0.9116 0.9114
2194.000000 0.9114 0.9113 0.9112 0.9111 0.9111
2199.000000 0.9110 0.9109 0.9108 0.9108 0.9107
2204.000000 0.9106 0.9105 0.9105 0.9104 0.9103
2209.000000 0.9102 0.9102 0.9101 0.9100 0.9099
2214.000000 0.9098 0.9097 0.9097 0.9096 0.9095
2219.000000 0.9094 0.9094 0.9093 0.9092 0.9092
2224.000000 0.9092 0.9092 0.9092 0.9091 0.9091
2229.000000 0.9091 0.9091 0.9090 0.9090 0.9090
2234.000000 0.9090 0.9090 0.9090 0.9089 0.9089
2239.000000 0.9089 0.9089 0.9088 0.9088 0.9088
2244.000000 0.9088 0.9088 0.9088 0.9087 0.9087
2249.000000 0.9087 0.9087 0.9087 0.9087 0.9086
2254.000000 0.9086 0.9086 0.9086 0.9087 0.9087
2259.000000 0.9088 0.9088 0.9089 0.9089 0.9090
2264.000000 0.9090 0.9091 0.9091 0.9092 0.9092
2269.000000 0.9093 0.9093 0.9094 0.9094 0.9095
2274.000000 0.9095 0.9096 0.9096 0.9097 0.9097
2279.000000 0.9098 0.9098 0.9098 0.9099 0.9099
2284.000000 0.9100 0.9100 0.9100 0.9100 0.9098
2289.000000 0.9096 0.9094 0.9092 0.9089 0.9087
2294.000000 0.9085 0.9083 0.9081 0.9078 0.9076
2299.000000 0.9074 0.9071 0.9068 0.9066 0.9061
2304.000000 0.9057 0.9053 0.9049 0.9044 0.9040
2309.000000 0.9036 0.9032 0.9028 0.9023 0.9019
2314.000000 0.9015 0.9011 0.9007 0.9002 0.8998
2319.000000 0.8993 0.8989 0.8985 0.8980 0.8976
2324.000000 0.8972 0.8967 0.8963 0.8959 0.8954
2329.000000 0.8950 0.8945 0.8941 0.8937 0.8932
2334.000000 0.8928 0.8923 0.8919 0.8915 0.8910
2339.000000 0.8906 0.8902 0.8898 0.8893 0.8889
2344.000000 0.8884 0.8880 0.8876 0.8871 0.8867
2349.000000 0.8864 0.8860 0.8857 0.8853 0.8849
2354.000000 0.8846 0.8842 0.8838 0.8835 0.8831
2359.000000 0.8828 0.8825 0.8821 0.8818 0.8814
2364.000000 0.8811 0.8807 0.8804 0.8800 0.8796
2369.000000 0.8793 0.8789 0.8786 0.8782 0.8779
2374.000000 0.8776 0.8773 0.8769 0.8765 0.8762
2379.000000 0.8759 0.8757 0.8754 0.8754 0.8754
2384.000000 0.8753 0.8753 0.8752 0.8752 0.8751
2389.000000 0.8751 0.8751 0.8750 0.8749 0.8748
2394.000000 0.8748 0.8747 0.8747 0.8746 0.8746
2399.000000 0.8746 0.8745 0.8745 0.8744 0.8744
2404.000000 0.8743 0.8743 0.8742 0.8742 0.8743
2409.000000 0.8742 0.8745 0.8747 0.8749 0.8750
2414.000000 0.8752 0.8753 0.8754 0.8756 0.8758
2419.000000 0.8760 0.8761 0.8763 0.8765 0.8769
2424.000000 0.8773 0.8777 0.8781 0.8785 0.8789
2429.000000 0.8793 0.8797 0.8801 0.8805 0.8810
2434.000000 0.8814 0.8820 0.8826 0.8833 0.8839
2439.000000 0.8845 0.8852 0.8858 0.8864 0.8870
2444.000000 0.8876 0.8882 0.8888 0.8895 0.8901
2449.000000 0.8907 0.8913 0.8920 0.8925 0.8930
2454.000000 0.8936 0.8942 0.8948 0.8953 0.8958
2459.000000 0.8964 0.8970 0.8975 0.8981 0.8986
2464.000000 0.8992 0.8997 0.9002 0.9008 0.9014
2469.000000 0.9018 0.9023 0.9026 0.9029 0.9031
2474.000000 0.9033 0.9036 0.9038 0.9041 0.9043
2479.000000 0.9043 0.9043 0.9042 0.9041 0.9040
2484.000000 0.9039 0.9039 0.9038 0.9037 0.9036
2489.000000 0.9035 0.9035 0.9034 0.9033 0.9032
2494.000000 0.9031 0.9031 0.9030 0.9029 0.9028
2499.000000 0.9028 0.9028 0.9029 0.9030 0.9031
2504.000000 0.9033 0.9034 0.9036 0.9038 0.9039
2509.000000 0.9041 0.9042 0.9044 0.9046 0.9047
2514.000000 0.9048 0.9049 0.9050 0.9050 0.9051
2519.000000 0.9052 0.9052 0.9053 0.9053 0.9054
2524.000000 0.9055 0.9055 0.9056 0.9057 0.9058
2529.000000 0.9058 0.9058 0.9059 0.9059 0.9059
2534.000000 0.9059 0.9058 0.9057 0.9056 0.9056
2539.000000 0.9055 0.9054 0.9053 0.9052 0.9052
2544.000000 0.9051 0.9049 0.9048 0.9048 0.9047
2549.000000 0.9046 0.9045 0.9045 0.9044 0.9043
2554.000000 0.9042 0.9041 0.9041 0.9040 0.9038
2559.000000 0.9079 0.9037 0.9036 0.9035 0.9034
2564.000000 0.9034 0.9033 0.9032 0.9031 0.9031
2569.000000 0.9030 0.9029 0.9028 0.9028 0.9027
2574.000000 0.9026 0.9025 0.9024 0.9024 0.9023
2579.000000 0.9022 0.9021 0.9020 0.9019 0.9019
2584.000000 0.9019 0.9019 0.9020 0.9021 0.9022
2589.000000 0.9022 0.9023 0.9024 0.9025 0.9026
2594.000000 0.9027 0.9028 0.9028 0.9029 0.9030
2599.000000 0.9031 0.9032 0.9033 0.9034 0.9035
2604.000000 0.9036 0.9038 0.9039 0.9041 0.9042
2609.000000 0.9044 0.9045 0.9046 0.9046 0.9045
2614.000000 0.9043 0.9042 0.9040 0.9038 0.9036
2619.000000 0.9034 0.9032 0.9031 0.9028 0.9026
2624.000000 0.9024 0.9022 0.9021 0.9019 0.9017
2629.000000 0.9015 0.9012 0.9010 0.9007 0.9004
2634.000000 0.9002 0.8999 0.8996 0.8994 0.8991
2639.000000 0.8989 0.8986 0.8983 0.8981 0.8978
2644.000000 0.8975 0.8973 0.8970 0.8967 0.8963
2649.000000 0.8961 0.8958 0.8955 0.8952 0.8948
2654.000000 0.8945 0.8942 0.8940 0.8937 0.8934
2659.000000 0.8931 0.8928 0.8925 0.8922 0.8919
2664.000000 0.8916 0.8913 0.8911 0.8909 0.8908
2669.000000 0.8907 0.8906 0.8905 0.8905 0.8904
2674.000000 0.8903 0.8902 0.8901 0.8900 0.8900
2679.000000 0.8899 0.8898 0.8897 0.8897 0.8896
2684.000000 0.8895 0.8895 0.8894 0.8894 0.8894
2689.000000 0.8894 0.8894 0.8894 0.8893 0.8893
2694.000000 0.8893 0.8893 0.8893 0.8892 0.8892
2699.000000 0.8892 0.8891 0.8891 0.8890 0.8889
2704.000000 0.8886 0.8882 0.8879 0.8877 0.8874
2709.000000 0.8871 0.8869 0.8866 0.8863 0.8860
2714.000000 0.8858 0.8855 0.8852 0.8850 0.8847
2719.000000 0.8844 0.8841 0.8837 0.8832 0.8828
2724.000000 0.8823 0.8817 0.8812 0.8807 0.8801
2729.000000 0.8796 0.8790 0.8785 0.8779 0.8770
2734.000000 0.8761 0.8752 0.8742 0.8733 0.8724
2739.000000 0.8714 0.8705 0.8696 0.8686 0.8677
2744.000000 0.8668 0.8658 0.8649 0.8640 0.8631
2749.000000 0.8621 0.8612 0.8603 0.8594 0.8585
2754.000000 0.8577 0.8569 0.8560 0.8552 0.8544
2759.000000 0.8536 0.8527 0.8519 0.8511 0.8503
2764.000000 0.8495 0.8486 0.8478 0.8470 0.8462
2769.000000 0.8454 0.8446 0.8438 0.8429 0.8420
2774.000000 0.8412 0.8402 0.8390 0.8379 0.8367
2779.000000 0.8356 0.8344 0.8333 0.8321 0.8310
2784.000000 0.8298 0.8287 0.8276 0.8264 0.8253
2789.000000 0.8241 0.8230 0.8218 0.8207 0.8196
2794.000000 0.8184 0.8173 0.8161 0.8139 0.8110
2799.000000 0.8080 0.8015 0.7907 0.7799 0.7700
2804.000000 0.7620 0.7541 0.7461 0.7382 0.7303
2809.000000 0.7224 0.7144 0.7065 0.6986 0.6907
2814.000000 0.6828 0.6749 0.6671 0.6592 0.6514
2819.000000 0.6435 0.6357 0.6278 0.6200 0.6121
2824.000000 0.6043 0.5964 0.5886 0.5808 0.5730
2829.000000 0.5652 0.5574 0.5496 0.5464 0.5449
2834.000000 0.5434 0.5423 0.5414 0.5405 0.5397
2839.000000 0.5391 0.5384 0.5377 0.5371 0.5365
2844.000000 0.5359 0.5353 0.5347 0.5341 0.5335
2849.000000 0.5329 0.5323 0.5317 0.5312 0.5306
2854.000000 0.5301 0.5295 0.5290 0.5284 0.5279
2859.000000 0.5273 0.5268 0.5262 0.5257 0.5251
2864.000000 0.5240 0.5214 0.5188 0.5163 0.5127
2869.000000 0.5091 0.5055 0.5019 0.4983 0.4947
2874.000000 0.4911 0.4875 0.4840 0.4804 0.4768
2879.000000 0.4732 0.4696 0.4661 0.4625 0.4589
2884.000000 0.4554 0.4518 0.4482 0.4447 0.4411
2889.000000 0.4375 0.4340 0.4304 0.4269 0.4234
2894.000000 0.4198 0.4163 0.4127 0.4093 0.4063
2899.000000 0.4034 0.4004 0.3991 0.3982 0.3974
2904.000000 0.3967 0.3964 0.3961 0.3958 0.3957
2909.000000 0.3956 0.3955 0.3955 0.3955 0.3955
2914.000000 0.3940 0.3956 0.3957 0.3957 0.3995
2919.000000 0.4039 0.4083 0.4132 0.4189 0.4245
2924.000000 0.4302 0.4358 0.4415 0.4471 0.4527
2929.000000 0.4583 0.4640 0.4696 0.4752 0.4808
2934.000000 0.4864 0.4920 0.4976 0.5032 0.5088
2939.000000 0.5144 0.5200 0.5256 0.5311 0.5367
2944.000000 0.5423 0.5479 0.5534 0.5590 0.5646
2949.000000 0.5702 0.5757 0.5813 0.5859 0.5892
2954.000000 0.5925 0.5958 0.5970 0.5981 0.5991
2959.000000 0.6000 0.6005 0.6011 0.6016 0.6021
2964.000000 0.6026 0.6031 0.6036 0.6041 0.6046
2969.000000 0.6051 0.6056 0.6061 0.6065 0.6124
2974.000000 0.6285 0.6445 0.6606 0.6682 0.6738
2979.000000 0.6794 0.6846 0.6885 0.6924 0.6963
2984.000000 0.7000 0.7036 0.7072 0.7107 0.7142
2989.000000 0.7177 0.7212 0.7244 0.7274 0.7305
2994.000000 0.7335 0.7366 0.7396 0.7427 0.7452
2999.000000 0.7470 0.7487 0.7504 0.7520 0.7535
3004.000000 0.7550 0.7565 0.7581 0.7596 0.7611
3009.000000 0.7626 0.7641 0.7657 0.7672 0.7687
3014.000000 0.7702 0.7717 0.7732 0.7748 0.7763
3019.000000 0.7779 0.7794 0.7810 0.7825 0.7841
3024.000000 0.7856 0.7871 0.7887 0.7902 0.7918
3029.000000 0.7933 0.7949 0.7961 0.7971 0.7981
3034.000000 0.7991 0.7999 0.8007 0.8016 0.8024
3039.000000 0.8033 0.8041 0.8049 0.8058 0.8067
3044.000000 0.8075 0.8084 0.8092 0.8101 0.8109
3049.000000 0.8118 0.8131 0.8143 0.8155 0.8171
3054.000000 0.8189 0.8207 0.8225 0.8243 0.8261
3059.000000 0.8279 0.8297 0.8315 0.8333 0.8351
3064.000000 0.8368 0.8386 0.8404 0.8422 0.8440
3069.000000 0.8457 0.8475 0.8493 0.8509 0.8525
3074.000000 0.8541 0.8557 0.8573 0.8588 0.8604
3079.000000 0.8619 0.8635 0.8650 0.8666 0.8679
3084.000000 0.8688 0.8697 0.8706 0.8713 0.8719
3089.000000 0.8726 0.8732 0.8738 0.8745 0.8751
3094.000000 0.8757 0.8763 0.8769 0.8775 0.8781
3099.000000 0.8786 0.8791 0.8796 0.8800 0.8804
3104.000000 0.8808 0.8811 0.8815 0.8819 0.8822
3109.000000 0.8826 0.8829 0.8833 0.8837 0.8840
3114.000000 0.8844 0.8848 0.8851 0.8855 0.8858
3119.000000 0.8862 0.8866 0.8869 0.8873 0.8876
3124.000000 0.8880 0.8884 0.8887 0.8891 0.8894
3129.000000 0.8898 0.8901 0.8905 0.8909 0.8912
3134.000000 0.8915 0.8918 0.8921 0.8924 0.8925
3139.000000 0.8926 0.8927 0.8928 0.8928 0.8929
3144.000000 0.8930 0.8931 0.8932 0.8932 0.8933
3149.000000 0.8934 0.8934 0.8934 0.8934 0.8933
3154.000000 0.8933 0.8932 0.8932 0.8931 0.8931
3159.000000 0.8931 0.8931 0.8930 0.8930 0.8930
3164.000000 0.8930 0.8929 0.8929 0.8928 0.8928
3169.000000 0.8953 0.8927 0.8927 0.8927 0.8926
3174.000000 0.8926 0.8926 0.8926 0.8925 0.8925
3179.000000 0.8924 0.8924 0.8923 0.8923 0.8922
3184.000000 0.8922 0.8921 0.8921 0.8921 0.8921
3189.000000 0.8920 0.8920 0.8919 0.8919 0.8918
3194.000000 0.8918 0.8917 0.8917 0.8916 0.8916
3199.000000 0.8915 0.8915 0.8915 0.8914 0.8914
3204.000000 0.8914 0.8914 0.8913 0.8913 0.8912
3209.000000 0.8912 0.8911 0.8911 0.8910 0.8910
3214.000000 0.8909 0.8909 0.8909 0.8909 0.8908
3219.000000 0.8908 0.8907 0.8907 0.8906 0.8906
3224.000000 0.8905 0.8905 0.8904 0.8904 0.8903
3229.000000 0.8903 0.8902 0.8902 0.8901 0.8900
3234.000000 0.8900 0.8899 0.8899 0.8898 0.8898
3239.000000 0.8897 0.8897 0.8896 0.8896 0.8895
3244.000000 0.8895 0.8894 0.8894 0.8893 0.8893
3249.000000 0.8892 0.8892 0.8891 0.8891 0.8891
3254.000000 0.8890 0.8890 0.8889 0.8888 0.8888
3259.000000 0.8887 0.8886 0.8886 0.8885 0.8885
3264.000000 0.8884 0.8884 0.8883 0.8882 0.8881
3269.000000 0.8881 0.8880 0.8879 0.8879 0.8878
3274.000000 0.8878 0.8877 0.8877 0.8876 0.8875
3279.000000 0.8875 0.8874 0.8873 0.8873 0.8872
3284.000000 0.8871 0.8871 0.8870 0.8870 0.8869
3289.000000 0.8869 0.8868 0.8866 0.8864 0.8862
3294.000000 0.8860 0.8858 0.8856 0.8854 0.8852
3299.000000 0.8850 0.8848 0.8846 0.8844 0.8842
3304.000000 0.8840 0.8838 0.8836 0.8834 0.8832
3309.000000 0.8830 0.8828 0.8826 0.8824 0.8822
3314.000000 0.8819 0.8817 0.8814 0.8810 0.8805
3319.000000 0.8801 0.8797 0.8792 0.8788 0.8783
3324.000000 0.8779 0.8774 0.8770 0.8765 0.8761
3329.000000 0.8756 0.8752 0.8747 0.8743 0.8739
3334.000000 0.8734 0.8729 0.8723 0.8718 0.8712
3339.000000 0.8706 0.8699 0.8693 0.8686 0.8680
3344.000000 0.8673 0.8667 0.8660 0.8654 0.8647
3349.000000 0.8641 0.8634 0.8628 0.8620 0.8611
3354.000000 0.8602 0.8594 0.8585 0.8575 0.8566
3359.000000 0.8556 0.8547 0.8537 0.8528 0.8518
3364.000000 0.8509 0.8498 0.8486 0.8475 0.8463
3369.000000 0.8451 0.8439 0.8427 0.8416 0.8404
3374.000000 0.8392 0.8378 0.8363 0.8349 0.8335
3379.000000 0.8311 0.8282 0.8253 0.8223 0.8194
3384.000000 0.8165 0.8136 0.8107 0.8078 0.8049
3389.000000 0.8020 0.7991 0.7962 0.7933 0.7904
3394.000000 0.7875 0.7846 0.7817 0.7788 0.7759
3399.000000 0.7730 0.7702 0.7673 0.7649 0.7627
3404.000000 0.7606 0.7584 0.7562 0.7560 0.7557
3409.000000 0.7555 0.7552 0.7555 0.7568 0.7580
3414.000000 0.7593 0.7606 0.7546 0.7659 0.7688
3419.000000 0.7716 0.7745 0.7774 0.7803 0.7832
3424.000000 0.7861 0.7889 0.7918 0.7947 0.7976
3429.000000 0.8004 0.8033 0.8062 0.8091 0.8120
3434.000000 0.8149 0.8177 0.8206 0.8234 0.8263
3439.000000 0.8292 0.8320 0.8349 0.8377 0.8406
3444.000000 0.8434 0.8462 0.8491 0.8519 0.8548
3449.000000 0.8576 0.8605 0.8633 0.8662 0.8690
3454.000000 0.8710 0.8729 0.8748 0.8767 0.8785
3459.000000 0.8801 0.8817 0.8832 0.8848 0.8863
3464.000000 0.8877 0.8891 0.8906 0.8920 0.8930
3469.000000 0.8937 0.8944 0.8951 0.8958 0.8963
3474.000000 0.8967 0.8972 0.8976 0.8980 0.8983
3479.000000 0.8985 0.8987 0.8989 0.8992 0.8994
3484.000000 0.8996 0.8999 0.9001 0.9003 0.9005
3489.000000 0.9008 0.9010 0.9012 0.9014 0.9016
3494.000000 0.9018 0.9020 0.9022 0.9023 0.9025
3499.000000 0.9027 0.9028 0.9030 0.9031 0.9033
3504.000000 0.9035 0.9036 0.9038 0.9040 0.9041
3509.000000 0.9043 0.9044 0.9046 0.9047 0.9047
3514.000000 0.9048 0.9048 0.9048 0.9049 0.9049
3519.000000 0.9049 0.9049 0.9049 0.9050 0.9050
3524.000000 0.9050 0.9050 0.9050 0.9051 0.9051
3529.000000 0.9052 0.9052 0.9052 0.9053 0.9053
3534.000000 0.9053 0.9053 0.9053 0.9054 0.9054
3539.000000 0.9054 0.9054 0.9054 0.9055 0.9055
3544.000000 0.9055 0.9055 0.9055 0.9055 0.9055
3549.000000 0.9055 0.9055 0.9055 0.9080 0.9055
3554.000000 0.9055 0.9055 0.9055 0.9055 0.9055
3559.000000 0.9055 0.9055 0.9055 0.9055 0.9055
3564.000000 0.9055 0.9055 0.9055 0.9054 0.9054
3569.000000 0.9054 0.9054 0.9054 0.9053 0.9053
3574.000000 0.9053 0.9053 0.9053 0.9052 0.9052
3579.000000 0.9052 0.9052 0.9052 0.9051 0.9051
3584.000000 0.9051 0.9051 0.9051 0.9050 0.9050
3589.000000 0.9050 0.9050 0.9050 0.9049 0.9049
3594.000000 0.9049 0.9049 0.9049 0.9049 0.9048
3599.000000 0.9048 0.9048 0.9048 0.9048 0.9048
3604.000000 0.9049 0.9050 0.9051 0.9052 0.9053
3609.000000 0.9054 0.9055 0.9057 0.9058 0.9059
3614.000000 0.9060 0.9061 0.9062 0.9063 0.9064
3619.000000 0.9065 0.9066 0.9067 0.9068 0.9069
3624.000000 0.9071 0.9072 0.9074 0.9075 0.9077
3629.000000 0.9078 0.9080 0.9082 0.9084 0.9085
3634.000000 0.9087 0.9088 0.9090 0.9091 0.9093
3639.000000 0.9094 0.9096 0.9098 0.9100 0.9101
3644.000000 0.9103 0.9105 0.9106 0.9108 0.9110
3649.000000 0.9111 0.9113 0.9115 0.9117 0.9119
3654.000000 0.9121 0.9123 0.9124 0.9126 0.9128
3659.000000 0.9130 0.9132 0.9133 0.9135 0.9136
3664.000000 0.9137 0.9139 0.9140 0.9140 0.9141
3669.000000 0.9141 0.9142 0.9142 0.9143 0.9143
3674.000000 0.9144 0.9144 0.9144 0.9145 0.9145
3679.000000 0.9146 0.9146 0.9147 0.9148 0.9148
3684.000000 0.9148 0.9149 0.9149 0.9149 0.9150
3689.000000 0.9150 0.9150 0.9150 0.9150 0.9150
3694.000000 0.9150 0.9150 0.9150 0.9150 0.9150
3699.000000 0.9151 0.9151 0.9151 0.9151 0.9151
3704.000000 0.9152 0.9152 0.9152 0.9152 0.9152
3709.000000 0.9152 0.9152 0.9152 0.9152 0.9152
3714.000000 0.9152 0.9153 0.9153 0.9153 0.9153
3719.000000 0.9153 0.9153 0.9153 0.9153 0.9153
3724.000000 0.9153 0.9153 0.9152 0.9152 0.9152
3729.000000 0.9152 0.9152 0.9152 0.9152 0.9152
3734.000000 0.9152 0.9152 0.9152 0.9152 0.9152
3739.000000 0.9152 0.9152 0.9152 0.9152 0.9151
3744.000000 0.9151 0.9151 0.9151 0.9151 0.9151
3749.000000 0.9151 0.9151 0.9151 0.9151 0.9151
3754.000000 0.9150 0.9150 0.9150 0.9150 0.9150
3759.000000 0.9150 0.9149 0.9149 0.9148 0.9148
3764.000000 0.9147 0.9147 0.9146 0.9145 0.9145
3769.000000 0.9144 0.9144 0.9143 0.9143 0.9142
3774.000000 0.9142 0.9141 0.9141 0.9140 0.9139
3779.000000 0.9139 0.9138 0.9137 0.9137 0.9136
3784.000000 0.9136 0.9135 0.9134 0.9134 0.9133
3789.000000 0.9133 0.9132 0.9131 0.9131 0.9130
3794.000000 0.9129 0.9129 0.9128 0.9128 0.9127
3799.000000 0.9127 0.9126 0.9126 0.9125 0.9125
3804.000000 0.9124 0.9124 0.9123 0.9123 0.9123
3809.000000 0.9123 0.9123 0.9122 0.9122 0.9122
3814.000000 0.9121 0.9121 0.9121 0.9120 0.9120
3819.000000 0.9120 0.9119 0.9119 0.9119 0.9118
3824.000000 0.9118 0.9118 0.9117 0.9117 0.9117
3829.000000 0.9116 0.9116 0.9116 0.9115 0.9115
3834.000000 0.9115 0.9114 0.9114 0.9114 0.9113
3839.000000 0.9113 0.9113 0.9112 0.9112 0.9112
3844.000000 0.9111 0.9111 0.9111 0.9110 0.9110
3849.000000 0.9110 0.9110 0.9110 0.9110 0.9109
3854.000000 0.9109 0.9109 0.9108 0.9108 0.9108
3859.000000 0.9107 0.9107 0.9107 0.9106 0.9106
3864.000000 0.9105 0.9105 0.9105 0.9105 0.9105
3869.000000 0.9105 0.9104 0.9104 0.9104 0.9103
3874.000000 0.9103 0.9103 0.9102 0.9102 0.9102
3879.000000 0.9102 0.9102 0.9102 0.9101 0.9101
3884.000000 0.9101 0.9101 0.9101 0.9101 0.9101
3889.000000 0.9101 0.9101 0.9101 0.9101 0.9101
3894.000000 0.9101 0.9100 0.9100 0.9100 0.9100
3899.000000 0.9100 0.9100 0.9100 0.9100 0.9100
3904.000000 0.9100 0.9100 0.9100 0.9100 0.9100
3909.000000 0.9100 0.9100 0.9100 0.9100 0.9099
3914.000000 0.9099 0.9099 0.9099 0.9099 0.9099
3919.000000 0.9099 0.9099 0.9099 0.9099 0.9099
3924.000000 0.9099 0.9099 0.9099 0.9099 0.9099
3929.000000 0.9099 0.9099 0.9098 0.9098 0.9098
3934.000000 0.9098 0.9098 0.9098 0.9098 0.9098
3939.000000 0.9098 0.9098 0.9098 0.9098 0.9098
3944.000000 0.9098 0.9098 0.9098 0.9098 0.9098
3949.000000 0.9098 0.9097 0.9097 0.9097 0.9097
3954.000000 0.9097 0.9097 0.9097 0.9097 0.9097
3959.000000 0.9097 0.9097 0.9097 0.9097 0.9097
3964.000000 0.9097 0.9097 0.9097 0.9097 0.9097
3969.000000 0.9096 0.9096 0.9096 0.9096 0.9096
3974.000000 0.9096 0.9096 0.9096 0.9096 0.9096
3979.000000 0.9096 0.9096 0.9096 0.9096 0.9096
3984.000000 0.9096 0.9096 0.9096 0.9096 0.9095
3989.000000 0.9095 0.9095 0.9095 0.9095 0.9095
3994.000000 0.9095 0.9095 0.9095 0.9095 0.9095
3999.000000 0.9095 0.9095
##END=
