##TITLE=ISOPHTHALIC ACID, 5-POTASSIUM SULFO, DIMETHYL ESTER
##JCAMP-DX=4.24
##DATA TYPE=INFRARED SPECTRUM
##CLASS=COBLENTZ
##ORIGIN=TENNESSEE EASTMAN COMPANY, RESEARCH LABORATORIES
##OWNER=COBLENTZ SOCIETY
Collection (C) 2018 copyright by the U.S. Secretary of Commerce
on behalf of the United States of America. All rights reserved.
##DATE=Not specified, most likely prior to 1970
##MOLFORM=C10 H9 K O S
##SOURCE REFERENCE=COBLENTZ NO. 1256
##$NIST ID=B6001256
##$NIST SOURCE=COBLENTZ
##$NIST IMAGE=cob1256
##SPECTROMETER/DATA SYSTEM=Not specified, most likely a prism, grating, or hybrid spectrometer.
##STATE=SOLID (PELLET)
$$ MAY CONTAIN SOME ACID
##PATH LENGTH=
$$SPECTRAL CONTAMINATION DUE H2O AROUND 3400 CM^-^1
##SAMPLING PROCEDURE=TRANSMISSION
##RESOLUTION=4
##DATA PROCESSING=DIGITIZED BY NIST FROM HARD COPY
##XUNITS=MICROMETERS
##YUNITS=TRANSMITTANCE
##XFACTOR=1.000000
##YFACTOR=1
##DELTAX=000.006667
##FIRSTX=2.033
##LASTX=15.9937
##FIRSTY=0.759
##MAXX=15.9937
##MINX=2.033
##MAXY=0.958
##MINY=0.033
##NPOINTS=2095
##XYDATA=(X++(Y..Y))
2.033000 0.7590 0.7590 0.7590 0.7600 0.7600
2.066349 0.7620 0.7620 0.7620 0.7620 0.7620
2.100000 0.7620 0.7620 0.7620 0.7640 0.7650
2.133349 0.7650 0.7670 0.7670 0.7690 0.7690
2.167000 0.7690 0.7700 0.7700 0.7720 0.7720
2.200349 0.7720 0.7720 0.7740 0.7740 0.7740
2.233000 0.7740 0.7740 0.7740 0.7740 0.7750
2.266349 0.7770 0.7800 0.7820 0.7840 0.7840
2.300000 0.7870 0.7870 0.7890 0.7890 0.7900
2.333349 0.7900 0.7920 0.7920 0.7920 0.7920
2.367000 0.7940 0.7940 0.7940 0.7940 0.7940
2.400349 0.7950 0.7970 0.7990 0.7990 0.8000
2.433000 0.8020 0.8030 0.8030 0.8050 0.8050
2.466349 0.8070 0.8070 0.8080 0.8080 0.8100
2.500000 0.8100 0.8120 0.8130 0.8130 0.8150
2.533349 0.8150 0.8150 0.8170 0.8170 0.8170
2.567000 0.8180 0.8180 0.8180 0.8200 0.8200
2.600349 0.8220 0.8220 0.8230 0.8230 0.8230
2.633000 0.8230 0.8230 0.8230 0.8250 0.8270
2.666349 0.8280 0.8280 0.8280 0.8280 0.8280
2.700000 0.8280 0.8280 0.8250 0.8220 0.8080
2.733349 0.7890 0.7620 0.7320 0.6990 0.6620
2.767000 0.6260 0.5890 0.5790 0.5610 0.5380
2.800349 0.5130 0.5010 0.4900 0.4730 0.4650
2.833000 0.4460 0.4310 0.4210 0.4110 0.4010
2.866349 0.3920 0.3830 0.3730 0.3670 0.3580
2.900000 0.3520 0.3470 0.3380 0.3380 0.3370
2.933349 0.3380 0.3400 0.3450 0.3520 0.3650
2.967000 0.3820 0.4010 0.4050 0.4060 0.4250
3.000349 0.4410 0.4560 0.4700 0.4830 0.4960
3.033000 0.5210 0.5330 0.5440 0.5560 0.5660
3.066349 0.5760 0.5840 0.5940 0.6020 0.6110
3.100000 0.6170 0.6240 0.6310 0.6390 0.6460
3.133349 0.6520 0.6590 0.6660 0.6710 0.6770
3.167000 0.6820 0.6890 0.6940 0.7000 0.7070
3.200349 0.7120 0.7190 0.7220 0.7220 0.7220
3.233000 0.7200 0.7150 0.6910 0.6540 0.6260
3.266349 0.5710 0.5690 0.5730 0.5910 0.6090
3.300000 0.6120 0.6140 0.6170 0.6170 0.6190
3.333349 0.6220 0.6490 0.6490 0.6490 0.6410
3.367000 0.5480 0.5180 0.4880 0.4860 0.4900
3.400349 0.6090 0.6510 0.6760 0.6910 0.6970
3.433000 0.7000 0.7040 0.7120 0.7270 0.7390
3.466349 0.7440 0.7500 0.7500 0.7470 0.7440
3.500000 0.7320 0.7250 0.7240 0.7270 0.7300
3.533349 0.7670 0.7920 0.8120 0.8280 0.8380
3.567000 0.8450 0.8470 0.8500 0.8530 0.8550
3.600349 0.8550 0.8570 0.8580 0.8580 0.8580
3.633000 0.8580 0.8580 0.8580 0.8600 0.8600
3.666349 0.8620 0.8630 0.8650 0.8680 0.8700
3.700000 0.8720 0.8750 0.8770 0.8780 0.8780
3.733349 0.8800 0.8830 0.8850 0.8870 0.8870
3.767000 0.8870 0.8880 0.8880 0.8880 0.8900
3.800349 0.8900 0.8900 0.8900 0.8900 0.8900
3.833000 0.8900 0.8900 0.8900 0.8900 0.8900
3.866349 0.8900 0.8900 0.8900 0.8900 0.8880
3.900000 0.8880 0.8880 0.8870 0.8870 0.8870
3.933349 0.8850 0.8850 0.8850 0.8850 0.8850
3.967000 0.8870 0.8870 0.8870 0.8880 0.8900
4.000349 0.8930 0.8950 0.8980 0.8980 0.9000
4.033000 0.9000 0.9010 0.9030 0.9030 0.9030
4.066349 0.9030 0.9030 0.9030 0.9030 0.9030
4.100000 0.9030 0.9030 0.9030 0.9030 0.9030
4.133349 0.9030 0.9030 0.9030 0.9030 0.9030
4.167000 0.9060 0.9080 0.9110 0.9160 0.9200
4.200349 0.9230 0.9250 0.9280 0.9300 0.9310
4.233000 0.9330 0.9330 0.9350 0.9350 0.9350
4.266349 0.9350 0.9330 0.9330 0.9310 0.9310
4.300000 0.9300 0.9300 0.9280 0.9260 0.9250
4.333349 0.9250 0.9250 0.9250 0.9250 0.9250
4.367000 0.9250 0.9250 0.9250 0.9250 0.9250
4.400349 0.9250 0.9250 0.9250 0.9250 0.9250
4.433000 0.9250 0.9250 0.9250 0.9260 0.9300
4.466349 0.9310 0.9360 0.9400 0.9430 0.9460
4.500000 0.9500 0.9530 0.9550 0.9550 0.9560
4.533349 0.9560 0.9560 0.9560 0.9560 0.9560
4.567000 0.9560 0.9560 0.9560 0.9560 0.9580
4.600349 0.9580 0.9580 0.9580 0.9580 0.9580
4.633000 0.9580 0.9580 0.9580 0.9560 0.9560
4.666349 0.9560 0.9560 0.9550 0.9510 0.9460
4.700000 0.9430 0.9350 0.9300 0.9260 0.9200
4.733349 0.9180 0.9180 0.9180 0.9180 0.9180
4.767000 0.9200 0.9200 0.9210 0.9250 0.9280
4.800349 0.9310 0.9330 0.9330 0.9350 0.9360
4.833000 0.9360 0.9400 0.9410 0.9430 0.9430
4.866349 0.9430 0.9430 0.9430 0.9430 0.9430
4.900000 0.9450 0.9450 0.9450 0.9450 0.9450
4.933349 0.9450 0.9450 0.9450 0.9460 0.9460
4.967000 0.9460 0.9480 0.9480 0.9480 0.9480
5.000349 0.9480 0.9500 0.9500 0.9500 0.9500
5.033000 0.9500 0.9460 0.9450 0.9450 0.9450
5.066349 0.9450 0.9450 0.9450 0.9430 0.9400
5.100000 0.9360 0.9350 0.9330 0.9300 0.9200
5.133349 0.9180 0.9180 0.9210 0.9280 0.9350
5.167000 0.9380 0.9400 0.9400 0.9410 0.9410
5.200349 0.9430 0.9430 0.9430 0.9430 0.9430
5.233000 0.9430 0.9430 0.9430 0.9430 0.9430
5.266349 0.9430 0.9380 0.9310 0.9250 0.9200
5.300000 0.9150 0.9010 0.8970 0.8950 0.8950
5.333349 0.8950 0.8930 0.8880 0.8850 0.8750
5.367000 0.8650 0.8600 0.8570 0.8530 0.8530
5.400349 0.8520 0.8520 0.8530 0.8530 0.8530
5.433000 0.8530 0.8550 0.8550 0.8570 0.8570
5.466349 0.8570 0.8570 0.8570 0.8570 0.8580
5.500000 0.8580 0.8580 0.8570 0.8550 0.8550
5.533349 0.8530 0.8520 0.8500 0.8500 0.8470
5.567000 0.8420 0.8350 0.8270 0.8120 0.8030
5.600349 0.7950 0.7890 0.7820 0.7740 0.7650
5.633000 0.7550 0.7440 0.7270 0.7050 0.6870
5.666349 0.6610 0.6190 0.5660 0.5360 0.4900
5.700000 0.4410 0.4010 0.2920 0.1690 0.0410
5.733349 0.0380 0.0380 0.0360 0.0340 0.0340
5.767000 0.0330 0.0330 0.0330 0.0340 0.0340
5.800349 0.0360 0.0410 0.0440 0.0630 0.0830
5.833000 0.1190 0.1920 0.2120 0.2620 0.2920
5.866349 0.3170 0.3330 0.3450 0.3570 0.3730
5.900000 0.3980 0.4330 0.4630 0.4830 0.5000
5.933349 0.5280 0.5460 0.5690 0.5860 0.5990
5.967000 0.6140 0.6260 0.6370 0.6470 0.6540
6.000349 0.6620 0.6660 0.6660 0.6670 0.6690
6.033000 0.6690 0.6690 0.6690 0.6670 0.6620
6.066349 0.6570 0.6510 0.6470 0.6420 0.6390
6.100000 0.6390 0.6370 0.6370 0.6390 0.6390
6.133349 0.6390 0.6410 0.6420 0.6440 0.6440
6.167000 0.6460 0.6460 0.6460 0.6440 0.6190
6.200349 0.6020 0.5890 0.5710 0.5110 0.5060
6.233000 0.4950 0.4830 0.4830 0.6170 0.6370
6.266349 0.6660 0.6940 0.7270 0.7470 0.7490
6.300000 0.7500 0.7500 0.7520 0.7620 0.7800
6.333349 0.7920 0.8030 0.8220 0.8230 0.8270
6.367000 0.8280 0.8320 0.8330 0.8370 0.8400
6.400349 0.8430 0.8470 0.8480 0.8500 0.8600
6.433000 0.8600 0.8620 0.8600 0.8600 0.8480
6.466349 0.8400 0.8320 0.8230 0.8220 0.8220
6.500000 0.8230 0.8330 0.8380 0.8420 0.8430
6.533349 0.8430 0.8430 0.8430 0.8430 0.8430
6.567000 0.8430 0.8430 0.8430 0.8430 0.8430
6.600349 0.8420 0.8420 0.8420 0.8400 0.8400
6.633000 0.8430 0.8500 0.8500 0.8500 0.8500
6.666349 0.8500 0.8470 0.8450 0.8430 0.8400
6.700000 0.8350 0.8320 0.8280 0.8250 0.8200
6.733349 0.8130 0.8050 0.7940 0.7800 0.7620
6.767000 0.7400 0.7140 0.6820 0.6440 0.5990
6.800349 0.5480 0.5140 0.4960 0.4780 0.4410
6.833000 0.4050 0.3650 0.3220 0.2770 0.2290
6.866349 0.1760 0.1410 0.1090 0.0880 0.0710
6.900000 0.0660 0.0660 0.0680 0.0740 0.0860
6.933349 0.1060 0.1210 0.1210 0.1210 0.1210
6.967000 0.1210 0.1210 0.1240 0.1990 0.2690
7.000349 0.3320 0.3880 0.4460 0.5780 0.6140
7.033000 0.6420 0.6620 0.6760 0.6870 0.6940
7.066349 0.7020 0.7100 0.7220 0.7320 0.7390
7.100000 0.7450 0.7520 0.7550 0.7600 0.7640
7.133349 0.7650 0.7670 0.7690 0.7720 0.7740
7.167000 0.7750 0.7750 0.7750 0.7750 0.7750
7.200349 0.7750 0.7750 0.7750 0.7750 0.7740
7.233000 0.7740 0.7720 0.7650 0.7640 0.7600
7.266349 0.7550 0.7520 0.7470 0.7390 0.7320
7.300000 0.7270 0.7200 0.7150 0.7100 0.7040
7.333349 0.6990 0.6910 0.6810 0.6640 0.6540
7.367000 0.6370 0.6210 0.6060 0.5930 0.5830
7.400349 0.5710 0.5590 0.5440 0.5260 0.5040
7.433000 0.4910 0.4760 0.4450 0.4100 0.3730
7.466349 0.3320 0.2890 0.2400 0.1890 0.1320
7.500000 0.1060 0.0860 0.0690 0.0510 0.0480
7.533349 0.0390 0.0380 0.0380 0.0380 0.0380
7.567000 0.0380 0.0380 0.0390 0.0410 0.0430
7.600349 0.0440 0.0480 0.0510 0.0560 0.0680
7.633000 0.0890 0.1170 0.1520 0.1920 0.2320
7.666349 0.2750 0.3150 0.3520 0.3750 0.3930
7.700000 0.4100 0.4210 0.4310 0.4360 0.4410
7.733349 0.4430 0.4450 0.4450 0.4450 0.4450
7.767000 0.4430 0.4430 0.4350 0.4280 0.4180
7.800349 0.4060 0.3920 0.3730 0.3550 0.3350
7.833000 0.3130 0.2900 0.2690 0.2450 0.2220
7.866349 0.1990 0.1770 0.1560 0.1370 0.1190
7.900000 0.1020 0.0890 0.0780 0.0690 0.0630
7.933349 0.0540 0.0510 0.0460 0.0430 0.0410
7.967000 0.0390 0.0390 0.0390 0.0390 0.0380
8.000349 0.0380 0.0380 0.0380 0.0360 0.0360
8.033000 0.0360 0.0340 0.0340 0.0340 0.0340
8.066349 0.0340 0.0340 0.0340 0.0340 0.0340
8.100000 0.0340 0.0340 0.0340 0.0340 0.0340
8.133349 0.0340 0.0340 0.0340 0.0340 0.0340
8.167000 0.0340 0.0340 0.0340 0.0340 0.0340
8.200349 0.0340 0.0340 0.0340 0.0340 0.0340
8.233000 0.0340 0.0340 0.0340 0.0340 0.0340
8.266349 0.0340 0.0340 0.0340 0.0340 0.0340
8.300000 0.0340 0.0340 0.0340 0.0340 0.0360
8.333349 0.0360 0.0360 0.0380 0.0390 0.0430
8.367000 0.0490 0.0560 0.0680 0.0790 0.0940
8.400349 0.1110 0.1270 0.1460 0.1640 0.1840
8.433000 0.2040 0.2220 0.2400 0.2570 0.2740
8.466349 0.2890 0.3020 0.3120 0.3200 0.3250
8.500000 0.3320 0.3370 0.3420 0.3430 0.3450
8.533349 0.3450 0.3430 0.3420 0.3400 0.3320
8.567000 0.3180 0.3000 0.2800 0.2590 0.2340
8.600349 0.2090 0.1860 0.1620 0.1410 0.1210
8.633000 0.1090 0.0960 0.0840 0.0760 0.0680
8.666349 0.0610 0.0540 0.0510 0.0490 0.0440
8.700000 0.0430 0.0430 0.0430 0.0430 0.0430
8.733349 0.0430 0.0440 0.0460 0.0490 0.0510
8.767000 0.0590 0.0760 0.0840 0.1040 0.1340
8.800349 0.1670 0.2000 0.2320 0.2550 0.2690
8.833000 0.2700 0.2700 0.2650 0.2520 0.2400
8.866349 0.2120 0.1870 0.1570 0.1410 0.1210
8.900000 0.1010 0.0990 0.0990 0.1010 0.1010
8.933349 0.1060 0.1110 0.1190 0.1290 0.1420
8.967000 0.1540 0.1670 0.1810 0.1960 0.2090
9.000349 0.2190 0.2290 0.2290 0.2270 0.2270
9.033000 0.2150 0.2020 0.1910 0.1760 0.1610
9.066349 0.1510 0.1490 0.1510 0.1660 0.1960
9.100000 0.2370 0.2990 0.3550 0.4030 0.4460
9.133349 0.4830 0.5430 0.5640 0.5840 0.5990
9.167000 0.6060 0.6120 0.6220 0.6320 0.6420
9.200349 0.6520 0.6620 0.6710 0.6770 0.6820
9.233000 0.6840 0.6870 0.6910 0.6920 0.6920
9.266349 0.6940 0.6960 0.6960 0.6960 0.6940
9.300000 0.6910 0.6790 0.6670 0.6540 0.6370
9.333349 0.6210 0.5990 0.5730 0.5410 0.5040
9.367000 0.4830 0.4610 0.4110 0.3520 0.3050
9.400349 0.2490 0.1910 0.1370 0.0990 0.0790
9.433000 0.0630 0.0610 0.0610 0.0610 0.0610
9.466349 0.0610 0.0610 0.0610 0.0610 0.0610
9.500000 0.0610 0.0610 0.0640 0.0890 0.1220
9.533349 0.1790 0.2440 0.3180 0.3970 0.4600
9.567000 0.5540 0.5880 0.6120 0.6340 0.6520
9.600349 0.6690 0.6740 0.6790 0.6820 0.6870
9.633000 0.6910 0.6970 0.7020 0.7040 0.7050
9.666349 0.7100 0.7120 0.7140 0.7140 0.7140
9.700000 0.7140 0.7140 0.7140 0.7140 0.7140
9.733349 0.7140 0.7140 0.7120 0.7050 0.7020
9.767000 0.6970 0.6890 0.6810 0.6690 0.6610
9.800349 0.6520 0.6460 0.6370 0.6310 0.6220
9.833000 0.6120 0.6020 0.5940 0.5840 0.5780
9.866349 0.5690 0.5630 0.5510 0.5390 0.5230
9.900000 0.5060 0.4960 0.4860 0.4650 0.4410
9.933349 0.4180 0.3920 0.3650 0.3350 0.3120
9.967000 0.2850 0.2550 0.2270 0.2000 0.1760
10.000349 0.1560 0.1410 0.1310 0.1210 0.1120
10.033000 0.1060 0.1060 0.0990 0.0960 0.0960
10.066349 0.0960 0.0960 0.0960 0.0980 0.1060
10.100000 0.1210 0.1440 0.1720 0.2050 0.2440
10.133349 0.2820 0.3220 0.3580 0.3930 0.4230
10.167000 0.4480 0.4630 0.4880 0.5240 0.5410
10.200349 0.5490 0.5490 0.5490 0.5490 0.5490
10.233000 0.5440 0.5280 0.5130 0.5060 0.5010
10.266349 0.4950 0.4910 0.4810 0.4760 0.4730
10.300000 0.4710 0.4700 0.4650 0.4530 0.4430
10.333349 0.4310 0.4150 0.4010 0.3980 0.3980
10.367000 0.4000 0.4080 0.4280 0.4580 0.4950
10.400349 0.5780 0.6170 0.6520 0.6790 0.6920
10.433000 0.6920 0.7020 0.7090 0.7150 0.7200
10.466349 0.7270 0.7320 0.7370 0.7440 0.7500
10.500000 0.7600 0.7700 0.7850 0.8000 0.8100
10.533349 0.8180 0.8250 0.8280 0.8330 0.8350
10.567000 0.8380 0.8420 0.8450 0.8480 0.8530
10.600349 0.8550 0.8600 0.8620 0.8620 0.8620
10.633000 0.8620 0.8620 0.8620 0.8600 0.8520
10.666349 0.8480 0.8350 0.8130 0.7850 0.7540
10.700000 0.7200 0.6890 0.6590 0.6570 0.6590
10.733349 0.6590 0.6990 0.7140 0.7270 0.7420
10.767000 0.7570 0.7700 0.7940 0.8050 0.8200
10.800349 0.8220 0.8220 0.8220 0.8180 0.8070
10.833000 0.7940 0.7770 0.7490 0.7040 0.6370
10.866349 0.5410 0.5330 0.5330 0.5340 0.5580
10.900000 0.5940 0.6370 0.6870 0.7370 0.7800
10.933349 0.8170 0.8400 0.8430 0.8550 0.8650
10.967000 0.8730 0.8820 0.8870 0.8920 0.8970
11.000349 0.9000 0.9030 0.9050 0.9060 0.9060
11.033000 0.9060 0.9080 0.9080 0.9080 0.9100
11.066349 0.9110 0.9110 0.9110 0.9110 0.9110
11.100000 0.9110 0.9110 0.9110 0.9100 0.9100
11.133349 0.9100 0.9080 0.9050 0.9000 0.8920
11.167000 0.8830 0.8720 0.8570 0.8380 0.8180
11.200349 0.7950 0.7670 0.7340 0.6910 0.6890
11.233000 0.6840 0.6820 0.6820 0.6820 0.6840
11.266349 0.6960 0.7120 0.7320 0.7520 0.7700
11.300000 0.7820 0.8000 0.8020 0.8020 0.8020
11.333349 0.8000 0.7890 0.7750 0.7620 0.7470
11.367000 0.7220 0.7050 0.6940 0.6810 0.6570
11.400349 0.6560 0.6540 0.6570 0.6740 0.6970
11.433000 0.7270 0.7540 0.7770 0.7970 0.8150
11.466349 0.8300 0.8430 0.8550 0.8650 0.8720
11.500000 0.8780 0.8830 0.8870 0.8880 0.8920
11.533349 0.8920 0.8930 0.8970 0.8970 0.8970
11.567000 0.8970 0.8970 0.8970 0.8970 0.8950
11.600349 0.8950 0.8930 0.8930 0.8900 0.8850
11.633000 0.8800 0.8730 0.8630 0.8520 0.8330
11.666349 0.8080 0.7840 0.7640 0.7500 0.7370
11.700000 0.7270 0.7190 0.7170 0.7190 0.7190
11.733349 0.7300 0.7490 0.7640 0.7770 0.7890
11.767000 0.8000 0.8120 0.8220 0.8300 0.8400
11.800349 0.8480 0.8580 0.8670 0.8700 0.8720
11.833000 0.8750 0.8780 0.8820 0.8850 0.8870
11.866349 0.8900 0.8930 0.8970 0.9000 0.9010
11.900000 0.9030 0.9050 0.9050 0.9050 0.9060
11.933349 0.9060 0.9060 0.9060 0.9080 0.9080
11.967000 0.9100 0.9100 0.9100 0.9110 0.9110
12.000349 0.9130 0.9130 0.9130 0.9130 0.9130
12.033000 0.9150 0.9160 0.9200 0.9230 0.9260
12.066349 0.9280 0.9300 0.9330 0.9330 0.9350
12.100000 0.9350 0.9350 0.9360 0.9360 0.9360
12.133349 0.9380 0.9380 0.9400 0.9400 0.9400
12.167000 0.9410 0.9410 0.9410 0.9430 0.9430
12.200349 0.9430 0.9450 0.9450 0.9450 0.9450
12.233000 0.9460 0.9460 0.9460 0.9460 0.9460
12.266349 0.9460 0.9460 0.9460 0.9460 0.9460
12.300000 0.9460 0.9480 0.9480 0.9480 0.9500
12.333349 0.9500 0.9500 0.9500 0.9510 0.9510
12.367000 0.9510 0.9530 0.9530 0.9530 0.9550
12.400349 0.9550 0.9550 0.9550 0.9550 0.9550
12.433000 0.9550 0.9550 0.9550 0.9550 0.9550
12.466349 0.9550 0.9550 0.9550 0.9550 0.9550
12.500000 0.9550 0.9550 0.9550 0.9550 0.9550
12.533349 0.9550 0.9550 0.9550 0.9530 0.9530
12.567000 0.9530 0.9510 0.9500 0.9480 0.9450
12.600349 0.9410 0.9380 0.9350 0.9300 0.9260
12.633000 0.9210 0.9150 0.9080 0.9010 0.8920
12.666349 0.8820 0.8700 0.8570 0.8420 0.8250
12.700000 0.8130 0.7950 0.7900 0.7750 0.7700
12.733349 0.7640 0.7620 0.7620 0.7620 0.7640
12.767000 0.7670 0.7720 0.7790 0.7850 0.7900
12.800349 0.7950 0.7970 0.7970 0.7990 0.7990
12.833000 0.7990 0.7970 0.7950 0.7940 0.7920
12.866349 0.7890 0.7820 0.7770 0.7700 0.7600
12.900000 0.7470 0.7320 0.7120 0.6870 0.6570
12.933349 0.6220 0.5780 0.5590 0.5260 0.5040
12.967000 0.4810 0.4310 0.3820 0.3370 0.3000
13.000349 0.2770 0.2670 0.2620 0.2640 0.2740
13.033000 0.2870 0.3070 0.3320 0.3570 0.3800
13.066349 0.3950 0.4100 0.4110 0.4110 0.4100
13.100000 0.3980 0.3780 0.3550 0.3250 0.2950
13.133349 0.2640 0.2300 0.2000 0.1710 0.1470
13.167000 0.1270 0.1090 0.0980 0.0860 0.0760
13.200349 0.0690 0.0640 0.0640 0.0640 0.0660
13.233000 0.0730 0.0830 0.1010 0.1270 0.1620
13.266349 0.2020 0.2490 0.2970 0.3470 0.3970
13.300000 0.4450 0.4860 0.5480 0.5710 0.5880
13.333349 0.6020 0.6140 0.6220 0.6290 0.6340
13.367000 0.6410 0.6460 0.6510 0.6590 0.6690
13.400349 0.6820 0.6970 0.7120 0.7250 0.7390
13.433000 0.7520 0.7640 0.7740 0.7850 0.7950
13.466349 0.8030 0.8120 0.8200 0.8270 0.8330
13.500000 0.8380 0.8430 0.8480 0.8520 0.8530
13.533349 0.8550 0.8570 0.8620 0.8630 0.8680
13.567000 0.8700 0.8700 0.8720 0.8720 0.8720
13.600349 0.8730 0.8730 0.8730 0.8730 0.8730
13.633000 0.8730 0.8730 0.8730 0.8720 0.8700
13.666349 0.8680 0.8650 0.8580 0.8520 0.8420
13.700000 0.8270 0.8070 0.7800 0.7450 0.7050
13.733349 0.6640 0.6220 0.5790 0.5390 0.5040
13.767000 0.4910 0.4760 0.4550 0.4410 0.4310
13.800349 0.4200 0.4080 0.4000 0.3980 0.3980
13.833000 0.3980 0.4000 0.4010 0.4110 0.4300
13.866349 0.4530 0.4810 0.5480 0.5840 0.6220
13.900000 0.6590 0.6960 0.7270 0.7570 0.7820
13.933349 0.8000 0.8120 0.8130 0.8250 0.8330
13.967000 0.8420 0.8480 0.8530 0.8580 0.8630
14.000349 0.8670 0.8700 0.8720 0.8750 0.8770
14.033000 0.8770 0.8780 0.8780 0.8800 0.8800
14.066349 0.8800 0.8820 0.8820 0.8830 0.8850
14.100000 0.8850 0.8850 0.8850 0.8850 0.8850
14.133349 0.8850 0.8850 0.8850 0.8870 0.8870
14.167000 0.8870 0.8870 0.8870 0.8870 0.8870
14.200349 0.8870 0.8870 0.8870 0.8870 0.8870
14.233000 0.8880 0.8880 0.8880 0.8880 0.8880
14.266349 0.8880 0.8880 0.8880 0.8880 0.8870
14.300000 0.8870 0.8870 0.8850 0.8850 0.8850
14.333349 0.8850 0.8850 0.8850 0.8850 0.8850
14.367000 0.8850 0.8830 0.8830 0.8830 0.8830
14.400349 0.8820 0.8820 0.8800 0.8780 0.8750
14.433000 0.8730 0.8700 0.8670 0.8630 0.8620
14.466349 0.8570 0.8550 0.8520 0.8500 0.8480
14.500000 0.8470 0.8450 0.8420 0.8400 0.8370
14.533349 0.8330 0.8280 0.8250 0.8200 0.8150
14.567000 0.8080 0.8080 0.8050 0.8020 0.7970
14.600349 0.7950 0.7920 0.7890 0.7870 0.7840
14.633000 0.7770 0.7700 0.7640 0.7550 0.7470
14.666349 0.7370 0.7250 0.7140 0.7000 0.6860
14.700000 0.6710 0.6520 0.6340 0.6140 0.5940
14.733349 0.5710 0.5480 0.5210 0.5080 0.4950
14.767000 0.4650 0.4330 0.4160 0.4000 0.3830
14.800349 0.3680 0.3550 0.3430 0.3330 0.3280
14.833000 0.3270 0.3270 0.3280 0.3330 0.3400
14.866349 0.3480 0.3580 0.3700 0.3850 0.4000
14.900000 0.4150 0.4330 0.4510 0.4700 0.4810
14.933349 0.4910 0.5000 0.5130 0.5180 0.5210
14.967000 0.5240 0.5280 0.5310 0.5330 0.5340
15.000349 0.5380 0.5430 0.5490 0.5560 0.5630
15.033000 0.5710 0.5780 0.5830 0.5880 0.5890
15.066349 0.5910 0.5910 0.5930 0.5930 0.5930
15.100000 0.5930 0.5930 0.5930 0.5930 0.5930
15.133349 0.5930 0.5930 0.5930 0.5910 0.5910
15.167000 0.5910 0.5910 0.5910 0.5910 0.5910
15.200349 0.5910 0.5910 0.5910 0.5910 0.5910
15.233000 0.5910 0.5910 0.5910 0.5890 0.5890
15.266349 0.5890 0.5880 0.5880 0.5860 0.5860
15.300000 0.5860 0.5840 0.5830 0.5810 0.5790
15.333349 0.5780 0.5740 0.5730 0.5690 0.5660
15.367000 0.5630 0.5590 0.5560 0.5530 0.5490
15.400349 0.5460 0.5430 0.5380 0.5330 0.5280
15.433000 0.5230 0.5180 0.5130 0.5080 0.5010
15.466349 0.4980 0.4950 0.4880 0.4810 0.4730
15.500000 0.4680 0.4610 0.4550 0.4460 0.4380
15.533349 0.4300 0.4200 0.4100 0.4010 0.3920
15.567000 0.3800 0.3700 0.3600 0.3500 0.3400
15.600349 0.3300 0.3200 0.3120 0.3020 0.2940
15.633000 0.2850 0.2770 0.2700 0.2640 0.2590
15.666349 0.2540 0.2490 0.2470 0.2440 0.2420
15.700000 0.2400 0.2400 0.2370 0.2350 0.2340
15.733349 0.2320 0.2320 0.2300 0.2290 0.2290
15.767000 0.2270 0.2270 0.2250 0.2250 0.2250
15.800349 0.2250 0.2250 0.2250 0.2240 0.2240
15.833000 0.2240 0.2240 0.2240 0.2240 0.2240
15.866349 0.2240 0.2240 0.2240 0.2240 0.2240
15.900000 0.2240 0.2240 0.2240 0.2240 0.2240
15.933349 0.2240 0.2240 0.2240 0.2240 0.2240
15.967000 0.2240 0.2240 0.2240 0.2240 0.2240
##END=
