##TITLE=1,2-NAPHTHOQUINONE-4-SULFONIC ACID, SODIUM SALT
##JCAMP-DX=4.24
##DATA TYPE=INFRARED SPECTRUM
##CLASS=COBLENTZ
##ORIGIN=WYANDOTTE CHEMICALS CORP., WYANDOTTE, MICHIGAN, USA
##OWNER=COBLENTZ SOCIETY
Collection (C) 2018 copyright by the U.S. Secretary of Commerce
on behalf of the United States of America. All rights reserved.
##DATE=Not specified, most likely prior to 1970
##MOLFORM=C10 H5 O5 S Na
##SOURCE REFERENCE=COBLENTZ NO. 1365
##$NIST ID=B6001365
##$NIST SOURCE=COBLENTZ
##$NIST IMAGE=cob1365
##SPECTROMETER/DATA SYSTEM=Not specified, most likely a prism, grating, or hybrid spectrometer.
##STATE=SOLID (MINERAL OIL MULL)
##SAMPLING PROCEDURE=TRANSMISSION
##RESOLUTION=4
##DATA PROCESSING=DIGITIZED BY NIST FROM HARD COPY
##XUNITS=MICROMETERS
##YUNITS=TRANSMITTANCE
##XFACTOR=1.000000
##YFACTOR=1
##DELTAX=000.006816
##FIRSTX=2.068
##LASTX=15.9934
##FIRSTY=0.506
##MAXX=15.9934
##MINX=2.068
##MAXY=1.005
##MINY=0.035
##NPOINTS=2044
##XYDATA=(X++(Y..Y))
2.068000 0.5060 0.5080 0.5100 0.5110 0.5130
2.102097 0.5130 0.5170 0.5180 0.5200 0.5220
2.136000 0.5230 0.5230 0.5250 0.5250 0.5250
2.170097 0.5270 0.5270 0.5270 0.5270 0.5270
2.204000 0.5270 0.5270 0.5270 0.5270 0.5270
2.238097 0.5270 0.5270 0.5270 0.5270 0.5270
2.273000 0.5270 0.5270 0.5270 0.5250 0.5250
2.307097 0.5250 0.5250 0.5230 0.5230 0.5230
2.341000 0.5230 0.5220 0.5220 0.5220 0.5220
2.375097 0.5200 0.5180 0.5170 0.5130 0.5130
2.409000 0.5110 0.5110 0.5110 0.5130 0.5150
2.443097 0.5130 0.5130 0.5100 0.5100 0.5080
2.477000 0.5100 0.5100 0.5110 0.5110 0.5110
2.511097 0.5100 0.5080 0.5100 0.5080 0.5080
2.545000 0.5080 0.5060 0.5080 0.5080 0.5080
2.579097 0.5050 0.5050 0.5010 0.5000 0.4980
2.613000 0.4960 0.4960 0.4980 0.5030 0.5010
2.647097 0.5010 0.5000 0.5000 0.5000 0.4980
2.682000 0.4980 0.4960 0.4890 0.4880 0.4840
2.716097 0.4820 0.4790 0.4790 0.4720 0.4710
2.750000 0.4710 0.4720 0.4740 0.4740 0.4720
2.784097 0.4710 0.4690 0.4640 0.4600 0.4550
2.818000 0.4500 0.4480 0.4480 0.4480 0.4470
2.852097 0.4470 0.4430 0.4420 0.4400 0.4400
2.886000 0.4420 0.4420 0.4400 0.4400 0.4400
2.920097 0.4400 0.4380 0.4380 0.4350 0.4330
2.954000 0.4330 0.4300 0.4260 0.4210 0.4200
2.988097 0.4200 0.4200 0.4180 0.4160 0.4140
3.022000 0.4140 0.4130 0.4110 0.4110 0.4040
3.056097 0.3960 0.3910 0.3860 0.3750 0.3670
3.091000 0.3600 0.3550 0.3520 0.3500 0.3500
3.125097 0.3480 0.3480 0.3500 0.3520 0.3570
3.159000 0.3630 0.3720 0.3790 0.3800 0.3840
3.193097 0.3860 0.3860 0.3860 0.3840 0.3820
3.227000 0.3800 0.3820 0.3960 0.4030 0.4090
3.261097 0.4110 0.4180 0.4230 0.4250 0.4230
3.295000 0.4160 0.4040 0.3940 0.3700 0.3410
3.329097 0.2900 0.2260 0.1590 0.0960 0.0610
3.363000 0.0470 0.0370 0.0350 0.0350 0.0370
3.397097 0.0400 0.0420 0.0440 0.0490 0.0540
3.431000 0.0640 0.0760 0.0930 0.1050 0.1100
3.465097 0.1080 0.1080 0.0960 0.0950 0.0960
3.500000 0.1120 0.1390 0.1970 0.2580 0.3460
3.534097 0.4230 0.5000 0.5960 0.6150 0.6270
3.568000 0.6390 0.6490 0.6580 0.6660 0.6730
3.602097 0.6800 0.6850 0.6900 0.6930 0.6980
3.636000 0.7020 0.7040 0.7050 0.7070 0.7070
3.670097 0.7050 0.7050 0.7050 0.7090 0.7100
3.704000 0.7150 0.7190 0.7220 0.7220 0.7240
3.738097 0.7240 0.7240 0.7240 0.7270 0.7270
3.772000 0.7320 0.7380 0.7390 0.7410 0.7430
3.806097 0.7460 0.7460 0.7480 0.7480 0.7480
3.840000 0.7500 0.7510 0.7580 0.7610 0.7650
3.874097 0.7650 0.7650 0.7680 0.7720 0.7780
3.908000 0.7800 0.7800 0.7780 0.7780 0.7780
3.942097 0.7770 0.7730 0.7730 0.7750 0.7770
3.977000 0.7770 0.7780 0.7780 0.7770 0.7750
4.011097 0.7730 0.7730 0.7730 0.7750 0.7780
4.045000 0.7800 0.7820 0.7840 0.7850 0.7890
4.079097 0.7920 0.7970 0.8010 0.8010 0.8020
4.113000 0.8090 0.8110 0.8120 0.8140 0.8180
4.147097 0.8190 0.8190 0.8190 0.8190 0.8190
4.181000 0.8210 0.8210 0.8210 0.8210 0.8190
4.215097 0.8190 0.8160 0.8140 0.8040 0.7950
4.249000 0.7840 0.7700 0.7680 0.7700 0.7720
4.283097 0.7770 0.7800 0.7840 0.7870 0.7900
4.317000 0.7940 0.8010 0.8070 0.8140 0.8210
4.351097 0.8290 0.8450 0.8550 0.8690 0.8790
4.386000 0.8790 0.8800 0.8790 0.8720 0.8670
4.420097 0.8630 0.8580 0.8520 0.8430 0.8350
4.454000 0.8180 0.8040 0.7900 0.7600 0.7580
4.488097 0.7600 0.7700 0.7820 0.7950 0.8110
4.522000 0.8380 0.8530 0.8620 0.8690 0.8740
4.556097 0.8790 0.8870 0.8960 0.8990 0.9010
4.590000 0.9030 0.9060 0.9090 0.9110 0.9110
4.624097 0.9130 0.9160 0.9180 0.9200 0.9230
4.658000 0.9250 0.9250 0.9250 0.9280 0.9280
4.692097 0.9300 0.9310 0.9350 0.9370 0.9380
4.726000 0.9370 0.9330 0.9300 0.9300 0.9280
4.760097 0.9280 0.9140 0.8910 0.8670 0.8410
4.795000 0.8400 0.8430 0.8550 0.8670 0.8800
4.829097 0.8940 0.9060 0.9180 0.9250 0.9300
4.863000 0.9310 0.9330 0.9330 0.9330 0.9380
4.897097 0.9380 0.9380 0.9380 0.9370 0.9370
4.931000 0.9350 0.9330 0.9330 0.9310 0.9310
4.965097 0.9310 0.9310 0.9310 0.9300 0.9300
4.999000 0.9300 0.9300 0.9310 0.9310 0.9310
5.033097 0.9310 0.9310 0.9300 0.9250 0.9250
5.067000 0.9280 0.9330 0.9380 0.9380 0.9400
5.101097 0.9420 0.9420 0.9420 0.9430 0.9430
5.135000 0.9450 0.9470 0.9470 0.9470 0.9470
5.169097 0.9450 0.9450 0.9450 0.9450 0.9450
5.204000 0.9450 0.9450 0.9450 0.9450 0.9450
5.238097 0.9450 0.9450 0.9470 0.9470 0.9470
5.272000 0.9480 0.9480 0.9480 0.9480 0.9480
5.306097 0.9480 0.9470 0.9470 0.9450 0.9430
5.340000 0.9430 0.9430 0.9420 0.9420 0.9400
5.374097 0.9380 0.9370 0.9350 0.9310 0.9310
5.408000 0.9330 0.9310 0.9310 0.9310 0.9330
5.442097 0.9330 0.9300 0.9300 0.9310 0.9380
5.476000 0.9400 0.9380 0.9330 0.9310 0.9300
5.510097 0.9300 0.9330 0.9330 0.9310 0.9310
5.544000 0.9300 0.9280 0.9250 0.9230 0.9210
5.578097 0.9180 0.9130 0.9110 0.9080 0.9110
5.612000 0.9090 0.9080 0.9030 0.9030 0.8990
5.646097 0.8970 0.8960 0.8960 0.8970 0.9010
5.681000 0.9010 0.8990 0.8870 0.8750 0.8690
5.715097 0.8620 0.8620 0.8630 0.8630 0.8630
5.749000 0.8580 0.8520 0.8520 0.8520 0.8580
5.783097 0.8570 0.8480 0.8400 0.8310 0.8260
5.817000 0.8240 0.8160 0.8010 0.7800 0.7360
5.851097 0.6900 0.6470 0.5980 0.5930 0.5930
5.885000 0.6020 0.6020 0.6000 0.5690 0.5280
5.919097 0.5030 0.4760 0.4060 0.3210 0.2410
5.953000 0.2240 0.2240 0.2340 0.2410 0.2410
5.987097 0.2440 0.2480 0.2750 0.3070 0.3450
6.021000 0.3890 0.4370 0.4910 0.5900 0.6000
6.055097 0.6000 0.6000 0.5910 0.5910 0.5960
6.090000 0.6120 0.6200 0.6250 0.6250 0.6270
6.124097 0.6270 0.6250 0.6130 0.5980 0.5710
6.158000 0.5660 0.5660 0.5760 0.5880 0.5930
6.192097 0.5950 0.6000 0.6000 0.6000 0.5790
6.226000 0.5520 0.5150 0.4980 0.4790 0.4480
6.260097 0.4420 0.4420 0.4500 0.4690 0.4910
6.294000 0.5420 0.5520 0.5570 0.5590 0.5590
6.328097 0.5590 0.5640 0.5690 0.5780 0.5830
6.362000 0.5910 0.5980 0.6070 0.6190 0.6200
6.396097 0.6200 0.6190 0.6100 0.6070 0.6030
6.430000 0.6020 0.6000 0.6020 0.6030 0.6080
6.464097 0.6100 0.6130 0.6130 0.6050 0.6030
6.499000 0.6000 0.5960 0.5930 0.5900 0.5900
6.533097 0.5880 0.5880 0.5860 0.5850 0.5830
6.567000 0.5810 0.5780 0.5730 0.5710 0.5690
6.601097 0.5690 0.5680 0.5660 0.5640 0.5620
6.635000 0.5560 0.5520 0.5510 0.5470 0.5370
6.669097 0.5300 0.5250 0.5230 0.5130 0.5010
6.703000 0.4960 0.4910 0.4770 0.4650 0.4520
6.737097 0.4450 0.4310 0.4110 0.3800 0.3410
6.771000 0.2990 0.2670 0.2460 0.2290 0.2140
6.805097 0.2050 0.2000 0.2000 0.2000 0.2100
6.839000 0.2240 0.2440 0.2560 0.2730 0.2850
6.873097 0.2990 0.3120 0.3240 0.3380 0.3500
6.907000 0.3630 0.3770 0.3890 0.4030 0.4140
6.941097 0.4350 0.4540 0.4670 0.4770 0.4890
6.976000 0.4960 0.5080 0.5110 0.5150 0.5150
7.010097 0.5170 0.5170 0.5200 0.5230 0.5270
7.044000 0.5270 0.5280 0.5280 0.5280 0.5280
7.078097 0.5280 0.5280 0.5300 0.5320 0.5340
7.112000 0.5340 0.5350 0.5350 0.5370 0.5370
7.146097 0.5350 0.5340 0.5320 0.5300 0.5250
7.180000 0.5170 0.5080 0.4980 0.4770 0.4590
7.214097 0.4430 0.4300 0.4080 0.3920 0.3600
7.248000 0.3500 0.3500 0.3520 0.3750 0.4040
7.282097 0.4310 0.4480 0.4600 0.4640 0.4690
7.316000 0.4820 0.4930 0.5130 0.5250 0.5370
7.350097 0.5400 0.5420 0.5420 0.5420 0.5440
7.385000 0.5450 0.5450 0.5440 0.5400 0.5390
7.419097 0.5320 0.5300 0.5280 0.5250 0.5200
7.453000 0.5080 0.5060 0.5100 0.5180 0.5270
7.487097 0.5420 0.5540 0.5660 0.5710 0.5740
7.521000 0.5760 0.5760 0.5690 0.5180 0.5010
7.555097 0.4910 0.4810 0.4600 0.4200 0.4180
7.589000 0.4210 0.4350 0.4940 0.5610 0.5810
7.623097 0.5960 0.6020 0.6130 0.6170 0.6170
7.657000 0.6150 0.6100 0.6030 0.5960 0.5780
7.691097 0.5570 0.5320 0.5130 0.4940 0.4520
7.725000 0.4180 0.3820 0.3650 0.3650 0.3690
7.759097 0.3790 0.3960 0.4160 0.4430 0.4600
7.794000 0.4910 0.5420 0.5660 0.5860 0.6030
7.828097 0.6200 0.6360 0.6490 0.6540 0.6610
7.862000 0.6630 0.6590 0.6510 0.6340 0.6020
7.896097 0.5570 0.5270 0.4940 0.4260 0.3620
7.930000 0.3280 0.3090 0.3020 0.3020 0.3070
7.964097 0.3310 0.3530 0.3800 0.3990 0.4210
7.998000 0.4400 0.4570 0.4650 0.4810 0.4810
8.032097 0.4670 0.4480 0.4310 0.4180 0.3990
8.066000 0.3740 0.3430 0.3090 0.2730 0.2410
8.100097 0.2040 0.1700 0.1410 0.1190 0.1050
8.134000 0.0930 0.0900 0.0910 0.0980 0.1070
8.168097 0.1150 0.1220 0.1290 0.1290 0.1250
8.203000 0.1200 0.1130 0.1030 0.0980 0.0950
8.237097 0.0950 0.0960 0.1170 0.1360 0.1610
8.271000 0.1930 0.2210 0.2480 0.2700 0.2920
8.305097 0.3110 0.3260 0.3400 0.3480 0.3520
8.339000 0.3600 0.3700 0.3800 0.3890 0.3970
8.373097 0.4030 0.4130 0.4160 0.4260 0.4420
8.407000 0.4550 0.4650 0.4720 0.4810 0.4860
8.441097 0.4910 0.4960 0.5060 0.5150 0.5220
8.475000 0.5250 0.5280 0.5300 0.5320 0.5340
8.509097 0.5350 0.5390 0.5370 0.5280 0.5180
8.543000 0.5060 0.5010 0.4940 0.4910 0.4930
8.577097 0.5170 0.5390 0.5620 0.5830 0.6000
8.611000 0.6150 0.6250 0.6340 0.6460 0.6530
8.645097 0.6580 0.6590 0.6610 0.6640 0.6700
8.680000 0.6730 0.6810 0.6870 0.6950 0.7000
8.714097 0.7050 0.7100 0.7170 0.7260 0.7320
8.748000 0.7390 0.7440 0.7480 0.7510 0.7550
8.782097 0.7580 0.7610 0.7650 0.7670 0.7680
8.816000 0.7680 0.7700 0.7720 0.7730 0.7750
8.850097 0.7800 0.7850 0.7850 0.7840 0.7800
8.884000 0.7780 0.7750 0.7720 0.7700 0.7680
8.918097 0.7670 0.7650 0.7630 0.7670 0.7700
8.952000 0.7780 0.7820 0.7870 0.7890 0.7920
8.986097 0.7940 0.8010 0.8060 0.8060 0.8060
9.020000 0.8040 0.8020 0.7970 0.7970 0.7970
9.054097 0.7990 0.8010 0.8060 0.8120 0.8210
9.089000 0.8260 0.8290 0.8310 0.8330 0.8350
9.123097 0.8350 0.8360 0.8400 0.8400 0.8430
9.157000 0.8480 0.8500 0.8530 0.8530 0.8550
9.191097 0.8530 0.8500 0.8480 0.8430 0.8400
9.225000 0.8380 0.8330 0.8230 0.8120 0.8040
9.259097 0.7970 0.7820 0.7580 0.7220 0.6810
9.293000 0.6300 0.5730 0.5100 0.4790 0.4480
9.327097 0.3890 0.3350 0.2890 0.2530 0.2290
9.361000 0.2100 0.2070 0.2050 0.2090 0.2530
9.395097 0.3110 0.3790 0.4400 0.4980 0.5980
9.429000 0.6410 0.6780 0.7100 0.7390 0.7610
9.463097 0.7800 0.7920 0.8020 0.8120 0.8210
9.498000 0.8290 0.8400 0.8480 0.8520 0.8550
9.532097 0.8600 0.8650 0.8720 0.8790 0.8840
9.566000 0.8890 0.8890 0.8910 0.8940 0.9010
9.600097 0.9040 0.9080 0.9090 0.9110 0.9130
9.634000 0.9200 0.9200 0.9230 0.9250 0.9280
9.668097 0.9280 0.9300 0.9300 0.9310 0.9330
9.702000 0.9380 0.9400 0.9420 0.9430 0.9480
9.736097 0.9520 0.9540 0.9590 0.9590 0.9590
9.770000 0.9600 0.9620 0.9650 0.9690 0.9690
9.804097 0.9710 0.9710 0.9740 0.9760 0.9760
9.838000 0.9790 0.9810 0.9820 0.9820 0.9840
9.872097 0.9860 0.9860 0.9860 0.9880 0.9890
9.907000 0.9910 0.9930 0.9960 0.9960 0.9980
9.941097 0.9980 0.9980 1.0000 1.0010 1.0010
9.975000 1.0010 1.0030 1.0030 1.0030 1.0030
10.009097 1.0030 1.0030 1.0030 1.0030 1.0030
10.043000 1.0030 1.0030 1.0030 1.0030 1.0030
10.077097 1.0030 1.0030 1.0030 1.0030 1.0030
10.111000 1.0030 1.0030 1.0030 1.0030 1.0030
10.145097 1.0030 1.0030 1.0030 1.0030 1.0030
10.179000 1.0030 1.0030 1.0010 1.0010 1.0010
10.213097 1.0000 1.0000 0.9980 0.9960 0.9960
10.247000 0.9960 0.9910 0.9770 0.9650 0.9540
10.281097 0.9420 0.9260 0.9140 0.9040 0.9030
10.315000 0.9010 0.9010 0.9030 0.9040 0.9110
10.349097 0.9200 0.9280 0.9370 0.9420 0.9470
10.384000 0.9500 0.9590 0.9690 0.9740 0.9770
10.418097 0.9790 0.9810 0.9820 0.9860 0.9940
10.452000 0.9940 0.9960 0.9960 0.9980 1.0000
10.486097 1.0000 1.0000 1.0010 1.0030 1.0030
10.520000 1.0030 1.0030 1.0030 1.0030 1.0030
10.554097 1.0030 1.0010 1.0010 1.0010 1.0010
10.588000 1.0010 1.0010 1.0000 1.0000 1.0000
10.622097 0.9960 0.9930 0.9880 0.9790 0.9710
10.656000 0.9570 0.9500 0.9400 0.9330 0.9260
10.690097 0.9250 0.9280 0.9370 0.9470 0.9550
10.724000 0.9640 0.9690 0.9740 0.9770 0.9810
10.758097 0.9820 0.9890 0.9930 0.9960 0.9980
10.793000 0.9980 1.0000 1.0030 1.0030 1.0030
10.827097 1.0030 1.0030 1.0050 1.0050 1.0050
10.861000 1.0050 1.0050 1.0050 1.0050 1.0050
10.895097 1.0050 1.0050 1.0030 1.0030 1.0030
10.929000 1.0030 1.0030 1.0030 1.0030 1.0030
10.963097 1.0030 1.0050 1.0050 1.0050 1.0050
10.997000 1.0050 1.0030 1.0030 1.0030 1.0030
11.031097 1.0030 1.0030 1.0030 1.0010 1.0010
11.065000 1.0000 0.9940 0.9810 0.9710 0.9500
11.099097 0.9260 0.8890 0.8410 0.7870 0.7310
11.133000 0.7190 0.7190 0.7240 0.7820 0.8120
11.167097 0.8380 0.8630 0.8870 0.8970 0.9130
11.202000 0.9140 0.9130 0.9090 0.8970 0.8860
11.236097 0.8600 0.8180 0.7840 0.7430 0.7100
11.270000 0.6880 0.6870 0.6930 0.7220 0.7500
11.304097 0.7720 0.7920 0.8110 0.8260 0.8410
11.338000 0.8550 0.8670 0.8770 0.8870 0.8970
11.372097 0.9080 0.9180 0.9260 0.9370 0.9450
11.406000 0.9480 0.9520 0.9540 0.9570 0.9620
11.440097 0.9670 0.9720 0.9770 0.9810 0.9820
11.474000 0.9840 0.9860 0.9860 0.9880 0.9880
11.508097 0.9880 0.9860 0.9860 0.9840 0.9840
11.542000 0.9840 0.9820 0.9820 0.9810 0.9810
11.576097 0.9790 0.9790 0.9790 0.9770 0.9770
11.611000 0.9770 0.9770 0.9760 0.9740 0.9720
11.645097 0.9710 0.9690 0.9670 0.9650 0.9650
11.679000 0.9640 0.9640 0.9620 0.9600 0.9600
11.713097 0.9600 0.9590 0.9590 0.9550 0.9540
11.747000 0.9500 0.9500 0.9450 0.9430 0.9430
11.781097 0.9430 0.9420 0.9420 0.9400 0.9420
11.815000 0.9400 0.9380 0.9380 0.9370 0.9370
11.849097 0.9370 0.9370 0.9350 0.9350 0.9330
11.883000 0.9330 0.9310 0.9310 0.9300 0.9300
11.917097 0.9300 0.9300 0.9300 0.9280 0.9260
11.951000 0.9250 0.9250 0.9250 0.9230 0.9210
11.985097 0.9210 0.9200 0.9180 0.9110 0.9080
12.019000 0.9060 0.9040 0.9040 0.9040 0.9030
12.053097 0.9030 0.9030 0.9010 0.8990 0.8970
12.088000 0.8970 0.8960 0.8940 0.8910 0.8910
12.122097 0.8870 0.8860 0.8860 0.8840 0.8820
12.156000 0.8800 0.8800 0.8800 0.8800 0.8800
12.190097 0.8800 0.8800 0.8800 0.8770 0.8740
12.224000 0.8740 0.8750 0.8750 0.8770 0.8770
12.258097 0.8770 0.8750 0.8750 0.8750 0.8740
12.292000 0.8740 0.8740 0.8740 0.8740 0.8740
12.326097 0.8740 0.8740 0.8750 0.8750 0.8770
12.360000 0.8770 0.8770 0.8750 0.8750 0.8750
12.394097 0.8740 0.8720 0.8740 0.8720 0.8720
12.428000 0.8700 0.8720 0.8720 0.8720 0.8720
12.462097 0.8740 0.8740 0.8740 0.8750 0.8770
12.497000 0.8800 0.8800 0.8820 0.8820 0.8820
12.531097 0.8820 0.8800 0.8800 0.8800 0.8800
12.565000 0.8800 0.8800 0.8800 0.8820 0.8820
12.599097 0.8820 0.8820 0.8820 0.8820 0.8800
12.633000 0.8800 0.8800 0.8800 0.8790 0.8770
12.667097 0.8770 0.8750 0.8750 0.8750 0.8740
12.701000 0.8720 0.8690 0.8650 0.8630 0.8630
12.735097 0.8620 0.8600 0.8580 0.8550 0.8530
12.769000 0.8480 0.8430 0.8380 0.8350 0.8290
12.803097 0.8190 0.8090 0.8070 0.8020 0.7920
12.837000 0.7770 0.7610 0.7440 0.7260 0.7100
12.871097 0.6980 0.6900 0.6810 0.6730 0.6660
12.906000 0.6580 0.6470 0.6370 0.6130 0.5900
12.940097 0.5540 0.5180 0.5030 0.4880 0.4520
12.974000 0.4300 0.4040 0.3840 0.3800 0.3800
13.008097 0.3840 0.4030 0.4280 0.4550 0.4880
13.042000 0.5490 0.5780 0.6020 0.6170 0.6320
13.076097 0.6490 0.6710 0.6880 0.7050 0.7220
13.110000 0.7390 0.7580 0.7750 0.7900 0.8060
13.144097 0.8210 0.8350 0.8450 0.8530 0.8600
13.178000 0.8630 0.8670 0.8750 0.8800 0.8870
13.212097 0.8920 0.8990 0.9040 0.9090 0.9130
13.246000 0.9160 0.9180 0.9180 0.9160 0.9160
13.280097 0.9160 0.9160 0.9200 0.9210 0.9250
13.315000 0.9280 0.9300 0.9310 0.9330 0.9350
13.349097 0.9350 0.9370 0.9370 0.9380 0.9370
13.383000 0.9370 0.9350 0.9350 0.9350 0.9350
13.417097 0.9350 0.9350 0.9370 0.9370 0.9370
13.451000 0.9370 0.9370 0.9370 0.9370 0.9370
13.485097 0.9370 0.9370 0.9370 0.9330 0.9310
13.519000 0.9280 0.9280 0.9260 0.9260 0.9260
13.553097 0.9260 0.9260 0.9230 0.9230 0.9230
13.587000 0.9230 0.9230 0.9230 0.9250 0.9250
13.621097 0.9250 0.9260 0.9260 0.9260 0.9260
13.655000 0.9260 0.9260 0.9260 0.9260 0.9260
13.689097 0.9260 0.9260 0.9260 0.9260 0.9250
13.723000 0.9250 0.9230 0.9210 0.9200 0.9200
13.757097 0.9210 0.9210 0.9210 0.9210 0.9210
13.792000 0.9210 0.9180 0.9160 0.9160 0.9130
13.826097 0.9130 0.9130 0.9130 0.9110 0.9110
13.860000 0.9090 0.9090 0.9090 0.9080 0.9080
13.894097 0.9080 0.9040 0.9040 0.9040 0.9040
13.928000 0.9040 0.9060 0.9090 0.9160 0.9200
13.962097 0.9230 0.9230 0.9230 0.9230 0.9210
13.996000 0.9210 0.9200 0.9140 0.9130 0.9140
14.030097 0.9180 0.9210 0.9250 0.9250 0.9260
14.064000 0.9280 0.9310 0.9350 0.9400 0.9430
14.098097 0.9480 0.9520 0.9550 0.9620 0.9640
14.132000 0.9670 0.9690 0.9690 0.9670 0.9690
14.166097 0.9690 0.9690 0.9690 0.9690 0.9710
14.201000 0.9720 0.9720 0.9720 0.9720 0.9720
14.235097 0.9720 0.9710 0.9710 0.9690 0.9670
14.269000 0.9620 0.9550 0.9520 0.9500 0.9480
14.303097 0.9480 0.9450 0.9450 0.9430 0.9430
14.337000 0.9420 0.9430 0.9430 0.9480 0.9500
14.371097 0.9500 0.9520 0.9520 0.9540 0.9540
14.405000 0.9570 0.9570 0.9600 0.9620 0.9620
14.439097 0.9650 0.9710 0.9720 0.9720 0.9740
14.473000 0.9740 0.9740 0.9760 0.9740 0.9740
14.507097 0.9740 0.9740 0.9740 0.9740 0.9740
14.541000 0.9740 0.9720 0.9710 0.9690 0.9690
14.575097 0.9670 0.9650 0.9620 0.9620 0.9600
14.610000 0.9600 0.9600 0.9600 0.9590 0.9570
14.644097 0.9540 0.9520 0.9500 0.9480 0.9480
14.678000 0.9450 0.9430 0.9420 0.9420 0.9400
14.712097 0.9380 0.9370 0.9350 0.9350 0.9330
14.746000 0.9310 0.9300 0.9300 0.9280 0.9250
14.780097 0.9210 0.9200 0.9180 0.9180 0.9160
14.814000 0.9140 0.9140 0.9130 0.9090 0.9060
14.848097 0.9040 0.9030 0.8990 0.8990 0.8970
14.882000 0.8960 0.8960 0.8940 0.8910 0.8890
14.916097 0.8860 0.8860 0.8840 0.8820 0.8790
14.950000 0.8750 0.8700 0.8650 0.8580 0.8500
14.984097 0.8430 0.8330 0.8230 0.8120 0.7990
15.019000 0.7840 0.7720 0.7580 0.7460 0.7390
15.053097 0.7290 0.7190 0.7120 0.7090 0.7070
15.087000 0.7070 0.7090 0.7100 0.7140 0.7150
15.121097 0.7210 0.7290 0.7320 0.7340 0.7360
15.155000 0.7380 0.7390 0.7390 0.7380 0.7260
15.189097 0.7150 0.7090 0.6950 0.6780 0.6590
15.223000 0.6420 0.6240 0.6050 0.5900 0.5760
15.257097 0.5640 0.5540 0.5440 0.5320 0.5220
15.291000 0.5170 0.5110 0.5080 0.5050 0.5010
15.325097 0.5010 0.5010 0.5050 0.5100 0.5180
15.359000 0.5220 0.5220 0.5220 0.5230 0.5270
15.393097 0.5280 0.5280 0.5250 0.5170 0.5100
15.427000 0.5030 0.5010 0.5000 0.4960 0.4840
15.461097 0.4790 0.4740 0.4710 0.4650 0.4590
15.496000 0.4590 0.4600 0.4620 0.4650 0.4710
15.530097 0.4740 0.4810 0.4890 0.4960 0.5130
15.564000 0.5200 0.5280 0.5370 0.5450 0.5540
15.598097 0.5620 0.5680 0.5710 0.5790 0.5860
15.632000 0.5900 0.5960 0.5980 0.6000 0.6020
15.666097 0.6020 0.6020 0.6050 0.6070 0.6120
15.700000 0.6130 0.6130 0.6130 0.6130 0.6130
15.734097 0.6120 0.6100 0.6100 0.6100 0.6070
15.768000 0.6070 0.6030 0.6030 0.6030 0.6030
15.802097 0.6020 0.6000 0.6000 0.5980 0.5980
15.836000 0.5960 0.5960 0.5910 0.5900 0.5880
15.870097 0.5860 0.5830 0.5790 0.5780 0.5730
15.905000 0.5660 0.5620 0.5610 0.5590 0.5590
15.939097 0.5570 0.5540 0.5520 0.5490 0.5440
15.973000 0.5400 0.5370 0.5320 0.5370
##END=
