##TITLE=COPPER SELENATE, PENTAHYDRATE
$$ C.P.
##JCAMP-DX=4.24
##DATA TYPE=INFRARED SPECTRUM
##CLASS=COBLENTZ
##ORIGIN=MELLON INSTITUTE
##OWNER=COBLENTZ SOCIETY
Collection (C) 2018 copyright by the U.S. Secretary of Commerce
on behalf of the United States of America. All rights reserved.
##DATE=Not specified, most likely prior to 1970
##MOLFORM=Cu Se O4  * 5 H2 O
##SOURCE REFERENCE=COBLENTZ NO. 478
##$NIST ID=B6000478
##$NIST SOURCE=COBLENTZ
##$NIST IMAGE=cob478
##SPECTROMETER/DATA SYSTEM=Not specified, most likely a prism, grating, or hybrid spectrometer.
##STATE=SOLID (NUJOL MULL)
##PATH LENGTH=
$$SPECTRAL CONTAMINATION DUE TO OIL AROUND 2900, 1450, 1380 CM^-^1
##SAMPLING PROCEDURE=TRANSMISSION
##RESOLUTION=4
##DATA PROCESSING=DIGITIZED BY NIST FROM HARD COPY
##XUNITS=MICROMETERS
##YUNITS=TRANSMITTANCE
##XFACTOR=1.000000
##YFACTOR=1
##DELTAX=000.006815
##FIRSTX=2.053
##LASTX=15.9969
##FIRSTY=0.974
##MAXX=15.9969
##MINX=2.053
##MAXY=1.025
##MINY=0.095
##NPOINTS=2047
##XYDATA=(X++(Y..Y))
2.053000 0.9740 0.9740 0.9760 0.9770 0.9790
2.087093 0.9790 0.9820 0.9820 0.9860 0.9860
2.121000 0.9840 0.9840 0.9840 0.9840 0.9840
2.155093 0.9840 0.9840 0.9840 0.9840 0.9860
2.189000 0.9860 0.9880 0.9890 0.9910 0.9930
2.223093 0.9930 0.9930 0.9930 0.9910 0.9890
2.257000 0.9840 0.9790 0.9700 0.9620 0.9570
2.291093 0.9500 0.9480 0.9480 0.9480 0.9500
2.325000 0.9500 0.9520 0.9520 0.9530 0.9550
2.359093 0.9570 0.9570 0.9580 0.9570 0.9570
2.393000 0.9550 0.9550 0.9550 0.9580 0.9570
2.427093 0.9570 0.9600 0.9650 0.9690 0.9700
2.462000 0.9720 0.9740 0.9740 0.9740 0.9760
2.496093 0.9790 0.9790 0.9790 0.9770 0.9760
2.530000 0.9740 0.9740 0.9740 0.9740 0.9740
2.564093 0.9740 0.9720 0.9740 0.9760 0.9810
2.598000 0.9860 0.9880 0.9910 0.9890 0.9810
2.632093 0.9720 0.9650 0.9650 0.9720 0.9760
2.666000 0.9860 0.9860 0.9820 0.9720 0.9700
2.700093 0.9640 0.9620 0.9550 0.9430 0.9280
2.734000 0.9140 0.8850 0.8640 0.8440 0.8280
2.768093 0.8130 0.7800 0.7560 0.7500 0.7120
2.802000 0.6910 0.6790 0.6660 0.6350 0.6140
2.836093 0.5940 0.5700 0.5580 0.5410 0.5320
2.871000 0.5230 0.5200 0.5080 0.5050 0.5000
2.905093 0.4890 0.4820 0.4720 0.4620 0.4520
2.939000 0.4410 0.4400 0.4400 0.4430 0.4450
2.973093 0.4480 0.4520 0.4570 0.4580 0.4600
3.007000 0.4650 0.4690 0.4690 0.4700 0.4700
3.041093 0.4690 0.4690 0.4670 0.4670 0.4670
3.075000 0.4640 0.4600 0.4600 0.4580 0.4550
3.109093 0.4550 0.4530 0.4550 0.4550 0.4580
3.143000 0.4600 0.4640 0.4650 0.4690 0.4720
3.177093 0.4770 0.4810 0.4810 0.4880 0.4910
3.211000 0.4930 0.4960 0.5030 0.5100 0.5130
3.245093 0.5150 0.5150 0.5130 0.5100 0.5010
3.279000 0.4880 0.4720 0.4430 0.3420 0.2910
3.313093 0.2390 0.1910 0.1430 0.1300 0.1190
3.348000 0.1040 0.1040 0.0970 0.0950 0.0990
3.382093 0.1140 0.1230 0.1360 0.1810 0.1790
3.416000 0.1760 0.1710 0.1670 0.1660 0.1620
3.450093 0.1620 0.2120 0.2510 0.2990 0.3900
3.484000 0.4480 0.4980 0.5830 0.6190 0.6480
3.518093 0.7000 0.7140 0.7380 0.7440 0.7630
3.552000 0.7730 0.7840 0.7990 0.8130 0.8160
3.586093 0.8280 0.8300 0.8320 0.8350 0.8370
3.620000 0.8370 0.8390 0.8400 0.8450 0.8490
3.654093 0.8520 0.8540 0.8630 0.8630 0.8630
3.688000 0.8630 0.8630 0.8640 0.8680 0.8690
3.722093 0.8730 0.8780 0.8810 0.8830 0.8860
3.757000 0.8880 0.8920 0.8930 0.8950 0.8950
3.791093 0.8980 0.9000 0.9040 0.9050 0.9070
3.825000 0.9090 0.9100 0.9100 0.9120 0.9140
3.859093 0.9190 0.9210 0.9220 0.9240 0.9260
3.893000 0.9280 0.9310 0.9330 0.9340 0.9340
3.927093 0.9380 0.9400 0.9410 0.9430 0.9450
3.961000 0.9500 0.9520 0.9520 0.9530 0.9550
3.995093 0.9570 0.9580 0.9600 0.9600 0.9620
4.029000 0.9620 0.9620 0.9620 0.9640 0.9640
4.063093 0.9650 0.9650 0.9650 0.9650 0.9650
4.097000 0.9650 0.9670 0.9690 0.9690 0.9690
4.131093 0.9690 0.9690 0.9690 0.9690 0.9690
4.165000 0.9670 0.9520 0.9430 0.9380 0.9310
4.199093 0.9240 0.9220 0.9210 0.9190 0.9190
4.234000 0.9170 0.9170 0.9170 0.9160 0.9160
4.268093 0.9160 0.9160 0.9160 0.9160 0.9160
4.302000 0.9160 0.9160 0.9260 0.9310 0.9410
4.336093 0.9430 0.9450 0.9500 0.9530 0.9550
4.370000 0.9580 0.9600 0.9650 0.9650 0.9670
4.404093 0.9670 0.9670 0.9670 0.9690 0.9670
4.438000 0.9670 0.9690 0.9690 0.9690 0.9670
4.472093 0.9670 0.9670 0.9670 0.9670 0.9690
4.506000 0.9700 0.9700 0.9700 0.9700 0.9720
4.540093 0.9720 0.9740 0.9740 0.9760 0.9760
4.574000 0.9740 0.9740 0.9740 0.9760 0.9770
4.608093 0.9790 0.9790 0.9790 0.9810 0.9810
4.643000 0.9810 0.9820 0.9820 0.9820 0.9820
4.677093 0.9820 0.9840 0.9840 0.9860 0.9880
4.711000 0.9890 0.9890 0.9890 0.9910 0.9910
4.745093 0.9910 0.9930 0.9930 0.9940 0.9940
4.779000 0.9940 0.9960 0.9960 0.9960 0.9960
4.813093 0.9980 0.9980 0.9980 0.9980 1.0000
4.847000 1.0000 1.0000 1.0000 1.0010 1.0010
4.881093 1.0010 1.0010 1.0030 1.0030 1.0030
4.915000 1.0030 1.0030 1.0030 1.0050 1.0050
4.949093 1.0050 1.0060 1.0060 1.0060 1.0060
4.983000 1.0060 1.0080 1.0080 1.0080 1.0080
5.017093 1.0080 1.0080 1.0100 1.0100 1.0110
5.051000 1.0110 1.0110 1.0130 1.0130 1.0130
5.085093 1.0130 1.0150 1.0150 1.0170 1.0170
5.120000 1.0170 1.0180 1.0180 1.0180 1.0180
5.154093 1.0220 1.0220 1.0220 1.0220 1.0220
5.188000 1.0230 1.0230 1.0250 1.0250 1.0230
5.222093 1.0220 1.0220 1.0220 1.0220 1.0230
5.256000 1.0230 1.0230 1.0230 1.0230 1.0230
5.290093 1.0230 1.0220 1.0220 1.0220 1.0220
5.324000 1.0220 1.0220 1.0200 1.0220 1.0220
5.358093 1.0220 1.0220 1.0220 1.0220 1.0200
5.392000 1.0180 1.0180 1.0220 1.0230 1.0230
5.426093 1.0230 1.0230 1.0220 1.0180 1.0150
5.460000 1.0130 1.0110 1.0110 1.0080 1.0100
5.494093 1.0100 1.0100 1.0110 1.0110 1.0130
5.529000 1.0150 1.0150 1.0170 1.0180 1.0200
5.563093 1.0200 1.0200 1.0180 1.0180 1.0170
5.597000 1.0170 1.0150 1.0150 1.0170 1.0180
5.631093 1.0180 1.0180 1.0150 1.0110 1.0030
5.665000 1.0010 1.0010 1.0000 1.0000 1.0000
5.699093 1.0000 1.0000 0.9980 0.9980 0.9960
5.733000 0.9940 0.9930 0.9910 0.9890 0.9890
5.767093 0.9890 0.9880 0.9860 0.9840 0.9840
5.801000 0.9820 0.9820 0.9890 0.9860 0.9810
5.835093 0.9700 0.9670 0.9640 0.9640 0.9690
5.869000 0.9690 0.9650 0.9640 0.9570 0.9520
5.903093 0.9520 0.9530 0.9530 0.9530 0.9520
5.937000 0.9450 0.9430 0.9430 0.9430 0.9410
5.971093 0.9340 0.9310 0.9260 0.9240 0.9170
6.006000 0.9100 0.9070 0.9000 0.8980 0.8930
6.040093 0.8920 0.8900 0.8880 0.8830 0.8810
6.074000 0.8750 0.8640 0.8590 0.8520 0.8510
6.108093 0.8470 0.8400 0.8370 0.8370 0.8370
6.142000 0.8370 0.8390 0.8400 0.8420 0.8440
6.176093 0.8440 0.8470 0.8470 0.8350 0.8230
6.210000 0.8080 0.7940 0.7750 0.7560 0.7170
6.244093 0.7120 0.7120 0.7190 0.7320 0.7560
6.278000 0.7720 0.7890 0.8090 0.8210 0.8300
6.312093 0.8510 0.8520 0.8520 0.8520 0.8520
6.346000 0.8540 0.8630 0.8730 0.8760 0.8830
6.380093 0.8850 0.8850 0.8850 0.8860 0.8850
6.414000 0.8880 0.8900 0.8930 0.9000 0.9040
6.448093 0.9040 0.9100 0.9140 0.9140 0.9140
6.483000 0.9140 0.9140 0.9140 0.9120 0.9120
6.517093 0.9100 0.9070 0.9070 0.9040 0.9050
6.551000 0.9090 0.9140 0.9160 0.9160 0.9210
6.585093 0.9140 0.9120 0.9070 0.9050 0.9020
6.619000 0.9020 0.9040 0.9090 0.9160 0.9100
6.653093 0.9100 0.9100 0.9120 0.9120 0.9040
6.687000 0.9000 0.8980 0.8930 0.8880 0.8780
6.721093 0.8610 0.8400 0.8320 0.8230 0.7920
6.755000 0.7580 0.6910 0.6620 0.6310 0.5680
6.789093 0.5050 0.4740 0.4410 0.4400 0.4330
6.823000 0.4280 0.4220 0.4210 0.4220 0.4260
6.857093 0.4450 0.4720 0.4860 0.4890 0.4930
6.892000 0.5000 0.5490 0.5680 0.5830 0.6020
6.926093 0.6190 0.6330 0.6480 0.7020 0.7200
6.960000 0.7340 0.7580 0.7790 0.7990 0.8160
6.994093 0.8450 0.8510 0.8590 0.8640 0.8690
7.028000 0.8710 0.8800 0.8920 0.9020 0.9040
7.062093 0.9100 0.9140 0.9170 0.9210 0.9220
7.096000 0.9240 0.9240 0.9260 0.9240 0.9240
7.130093 0.9190 0.9160 0.9100 0.9020 0.8980
7.164000 0.8780 0.8590 0.8420 0.8230 0.7850
7.198093 0.7290 0.6840 0.6640 0.6430 0.6380
7.232000 0.6160 0.6020 0.6020 0.6060 0.6280
7.266093 0.6620 0.7070 0.7140 0.7200 0.7290
7.300000 0.7380 0.7510 0.7770 0.7960 0.8080
7.334093 0.8230 0.8390 0.8470 0.8520 0.8560
7.369000 0.8610 0.8640 0.8690 0.8730 0.8780
7.403093 0.8800 0.8850 0.8850 0.8880 0.8900
7.437000 0.8900 0.8930 0.9020 0.9020 0.9040
7.471093 0.9120 0.9170 0.9190 0.9210 0.9240
7.505000 0.9280 0.9280 0.9280 0.9290 0.9290
7.539093 0.9310 0.9310 0.9310 0.9310 0.9330
7.573000 0.9330 0.9330 0.9330 0.9330 0.9330
7.607093 0.9330 0.9330 0.9330 0.9330 0.9330
7.641000 0.9310 0.9310 0.9310 0.9310 0.9310
7.675093 0.9330 0.9340 0.9340 0.9360 0.9400
7.709000 0.9400 0.9410 0.9410 0.9410 0.9410
7.743093 0.9410 0.9410 0.9410 0.9430 0.9430
7.778000 0.9450 0.9480 0.9500 0.9520 0.9520
7.812093 0.9530 0.9530 0.9530 0.9550 0.9570
7.846000 0.9570 0.9580 0.9580 0.9570 0.9580
7.880093 0.9580 0.9580 0.9600 0.9620 0.9600
7.914000 0.9620 0.9620 0.9640 0.9640 0.9640
7.948093 0.9650 0.9700 0.9700 0.9720 0.9720
7.982000 0.9740 0.9740 0.9740 0.9740 0.9740
8.016093 0.9740 0.9720 0.9740 0.9740 0.9760
8.050000 0.9770 0.9770 0.9770 0.9790 0.9790
8.084093 0.9790 0.9790 0.9790 0.9790 0.9790
8.118000 0.9790 0.9770 0.9770 0.9790 0.9810
8.152093 0.9840 0.9840 0.9860 0.9840 0.9840
8.186000 0.9840 0.9840 0.9860 0.9840 0.9860
8.220093 0.9840 0.9840 0.9840 0.9820 0.9810
8.255000 0.9810 0.9810 0.9790 0.9790 0.9770
8.289093 0.9790 0.9790 0.9810 0.9820 0.9820
8.323000 0.9840 0.9840 0.9820 0.9820 0.9820
8.357093 0.9840 0.9840 0.9840 0.9840 0.9860
8.391000 0.9840 0.9820 0.9820 0.9820 0.9820
8.425093 0.9820 0.9790 0.9740 0.9720 0.9700
8.459000 0.9720 0.9720 0.9700 0.9700 0.9700
8.493093 0.9720 0.9700 0.9700 0.9690 0.9690
8.527000 0.9690 0.9690 0.9690 0.9690 0.9690
8.561093 0.9690 0.9690 0.9690 0.9690 0.9690
8.595000 0.9690 0.9690 0.9690 0.9700 0.9720
8.629093 0.9740 0.9740 0.9740 0.9740 0.9760
8.664000 0.9740 0.9760 0.9760 0.9770 0.9790
8.698093 0.9790 0.9810 0.9810 0.9810 0.9790
8.732000 0.9790 0.9790 0.9790 0.9790 0.9790
8.766093 0.9790 0.9810 0.9810 0.9810 0.9820
8.800000 0.9810 0.9810 0.9840 0.9840 0.9840
8.834093 0.9860 0.9860 0.9880 0.9890 0.9890
8.868000 0.9910 0.9930 0.9930 0.9930 0.9930
8.902093 0.9910 0.9910 0.9860 0.9840 0.9840
8.936000 0.9840 0.9820 0.9820 0.9790 0.9790
8.970093 0.9770 0.9770 0.9760 0.9760 0.9760
9.004000 0.9760 0.9760 0.9760 0.9760 0.9760
9.038093 0.9760 0.9760 0.9770 0.9770 0.9790
9.072000 0.9790 0.9790 0.9810 0.9810 0.9820
9.106093 0.9810 0.9810 0.9840 0.9840 0.9840
9.141000 0.9840 0.9860 0.9860 0.9860 0.9910
9.175093 0.9910 0.9910 0.9930 0.9930 0.9930
9.209000 0.9940 0.9940 0.9940 0.9960 0.9940
9.243093 0.9940 0.9930 0.9930 0.9930 0.9930
9.277000 0.9930 0.9930 0.9930 0.9910 0.9890
9.311093 0.9890 0.9910 0.9890 0.9880 0.9860
9.345000 0.9840 0.9860 0.9840 0.9840 0.9820
9.379093 0.9820 0.9820 0.9840 0.9840 0.9820
9.413000 0.9810 0.9790 0.9790 0.9770 0.9740
9.447093 0.9700 0.9650 0.9650 0.9650 0.9640
9.481000 0.9620 0.9620 0.9620 0.9600 0.9580
9.515093 0.9580 0.9570 0.9580 0.9580 0.9620
9.550000 0.9640 0.9650 0.9670 0.9670 0.9670
9.584093 0.9670 0.9690 0.9650 0.9650 0.9650
9.618000 0.9650 0.9650 0.9650 0.9690 0.9700
9.652093 0.9720 0.9720 0.9720 0.9720 0.9740
9.686000 0.9740 0.9760 0.9790 0.9810 0.9810
9.720093 0.9820 0.9820 0.9810 0.9790 0.9790
9.754000 0.9790 0.9810 0.9810 0.9810 0.9810
9.788093 0.9820 0.9840 0.9840 0.9820 0.9820
9.822000 0.9820 0.9820 0.9820 0.9820 0.9810
9.856093 0.9770 0.9760 0.9760 0.9770 0.9770
9.890000 0.9770 0.9770 0.9770 0.9760 0.9760
9.924093 0.9760 0.9760 0.9740 0.9740 0.9720
9.958000 0.9720 0.9720 0.9720 0.9720 0.9690
9.992093 0.9690 0.9670 0.9650 0.9640 0.9640
10.027000 0.9640 0.9640 0.9640 0.9650 0.9650
10.061093 0.9650 0.9650 0.9650 0.9650 0.9650
10.095000 0.9650 0.9650 0.9650 0.9650 0.9640
10.129093 0.9620 0.9580 0.9550 0.9550 0.9550
10.163000 0.9550 0.9530 0.9530 0.9520 0.9520
10.197093 0.9480 0.9450 0.9450 0.9450 0.9430
10.231000 0.9410 0.9410 0.9400 0.9360 0.9340
10.265093 0.9330 0.9310 0.9310 0.9290 0.9280
10.299000 0.9280 0.9280 0.9260 0.9240 0.9220
10.333093 0.9210 0.9170 0.9160 0.9160 0.9140
10.367000 0.9140 0.9120 0.9090 0.9090 0.9050
10.401093 0.9070 0.9050 0.9050 0.9050 0.9050
10.436000 0.9040 0.9040 0.9040 0.9020 0.9000
10.470093 0.8970 0.8970 0.8950 0.8950 0.8920
10.504000 0.8900 0.8850 0.8850 0.8810 0.8800
10.538093 0.8750 0.8730 0.8710 0.8660 0.8630
10.572000 0.8590 0.8510 0.8400 0.8350 0.8300
10.606093 0.8270 0.8210 0.8150 0.8110 0.8010
10.640000 0.7990 0.7840 0.7790 0.7630 0.7580
10.674093 0.7510 0.7410 0.7320 0.7220 0.7030
10.708000 0.6930 0.6830 0.6710 0.6670 0.6620
10.742093 0.6550 0.6540 0.6470 0.6430 0.6350
10.776000 0.6330 0.6300 0.6250 0.6250 0.6230
10.810093 0.6210 0.6190 0.6180 0.6180 0.6180
10.844000 0.6180 0.6180 0.6180 0.6180 0.6180
10.878093 0.6180 0.6180 0.6180 0.6180 0.6180
10.913000 0.6180 0.6190 0.6190 0.6190 0.6210
10.947093 0.6210 0.6210 0.6210 0.6210 0.6210
10.981000 0.6230 0.6250 0.6250 0.6250 0.6250
11.015093 0.6250 0.6250 0.6260 0.6250 0.6250
11.049000 0.6230 0.6210 0.6210 0.6210 0.6190
11.083093 0.6180 0.6160 0.6160 0.6140 0.6130
11.117000 0.6110 0.6070 0.6020 0.6010 0.5990
11.151093 0.5990 0.5970 0.5940 0.5940 0.5900
11.185000 0.5890 0.5830 0.5770 0.5730 0.5700
11.219093 0.5660 0.5650 0.5650 0.5630 0.5590
11.253000 0.5540 0.5540 0.5530 0.5510 0.5440
11.287093 0.5410 0.5390 0.5350 0.5290 0.5270
11.322000 0.5250 0.5230 0.5220 0.5180 0.5170
11.356093 0.5150 0.5110 0.5030 0.5010 0.5000
11.390000 0.4960 0.4910 0.4880 0.4840 0.4840
11.424093 0.4840 0.4820 0.4790 0.4770 0.4760
11.458000 0.4740 0.4740 0.4700 0.4690 0.4620
11.492093 0.4600 0.4530 0.4520 0.4500 0.4450
11.526000 0.4450 0.4430 0.4410 0.4400 0.4340
11.560093 0.4340 0.4340 0.4330 0.4330 0.4330
11.594000 0.4330 0.4310 0.4290 0.4290 0.4280
11.628093 0.4280 0.4280 0.4280 0.4280 0.4290
11.662000 0.4290 0.4310 0.4330 0.4340 0.4400
11.696093 0.4400 0.4400 0.4400 0.4410 0.4410
11.730000 0.4430 0.4450 0.4460 0.4480 0.4480
11.764093 0.4480 0.4500 0.4500 0.4520 0.4570
11.799000 0.4620 0.4650 0.4650 0.4690 0.4720
11.833093 0.4760 0.4790 0.4880 0.4890 0.4910
11.867000 0.4910 0.4690 0.4860 0.4940 0.5110
11.901093 0.5270 0.5340 0.5420 0.5460 0.5510
11.935000 0.5530 0.5560 0.5560 0.5630 0.5700
11.969093 0.5750 0.5750 0.5770 0.5800 0.5890
12.003000 0.5970 0.6090 0.6140 0.6180 0.6210
12.037093 0.6260 0.6330 0.6350 0.6380 0.6450
12.071000 0.6500 0.6540 0.6540 0.6600 0.6640
12.105093 0.6660 0.6720 0.6740 0.6780 0.6780
12.139000 0.6790 0.6830 0.6840 0.6860 0.6880
12.173093 0.6930 0.6950 0.6980 0.7000 0.7020
12.208000 0.7030 0.7050 0.7070 0.7070 0.7080
12.242093 0.7100 0.7100 0.7100 0.7100 0.7120
12.276000 0.7140 0.7150 0.7170 0.7190 0.7190
12.310093 0.7200 0.7200 0.7220 0.7200 0.7200
12.344000 0.7200 0.7200 0.7200 0.7200 0.7200
12.378093 0.7200 0.7220 0.7220 0.7200 0.7220
12.412000 0.7200 0.7200 0.7200 0.7200 0.7190
12.446093 0.7200 0.7200 0.7200 0.7190 0.7170
12.480000 0.7120 0.7100 0.7080 0.7080 0.7070
12.514093 0.7050 0.7070 0.7050 0.7050 0.7050
12.548000 0.7030 0.7030 0.7020 0.7020 0.7000
12.582093 0.6980 0.6930 0.6910 0.6910 0.6910
12.616000 0.6930 0.6910 0.6910 0.6910 0.6900
12.650093 0.6860 0.6860 0.6840 0.6830 0.6830
12.685000 0.6830 0.6830 0.6810 0.6830 0.6810
12.719093 0.6810 0.6790 0.6790 0.6780 0.6760
12.753000 0.6720 0.6690 0.6670 0.6660 0.6640
12.787093 0.6620 0.6600 0.6570 0.6570 0.6550
12.821000 0.6550 0.6550 0.6540 0.6520 0.6540
12.855093 0.6520 0.6520 0.6520 0.6520 0.6520
12.889000 0.6540 0.6540 0.6550 0.6550 0.6550
12.923093 0.6540 0.6540 0.6540 0.6540 0.6540
12.957000 0.6540 0.6540 0.6540 0.6540 0.6540
12.991093 0.6540 0.6540 0.6540 0.6520 0.6520
13.025000 0.6520 0.6500 0.6520 0.6520 0.6540
13.059093 0.6540 0.6550 0.6550 0.6550 0.6550
13.094000 0.6550 0.6570 0.6590 0.6600 0.6600
13.128093 0.6600 0.6620 0.6600 0.6600 0.6620
13.162000 0.6620 0.6620 0.6640 0.6660 0.6660
13.196093 0.6690 0.6710 0.6740 0.6780 0.6790
13.230000 0.6810 0.6830 0.6840 0.6840 0.6860
13.264093 0.6860 0.6900 0.6910 0.6910 0.6930
13.298000 0.6950 0.6950 0.6950 0.6960 0.7000
13.332093 0.7000 0.7020 0.7030 0.7070 0.7080
13.366000 0.7080 0.7080 0.7100 0.7100 0.7120
13.400093 0.7120 0.7120 0.7140 0.7150 0.7150
13.434000 0.7170 0.7170 0.7190 0.7190 0.7200
13.468093 0.7200 0.7220 0.7220 0.7240 0.7240
13.502000 0.7260 0.7270 0.7310 0.7320 0.7340
13.536093 0.7360 0.7360 0.7380 0.7410 0.7410
13.571000 0.7410 0.7430 0.7430 0.7430 0.7430
13.605093 0.7430 0.7440 0.7460 0.7460 0.7460
13.639000 0.7460 0.7500 0.7500 0.7500 0.7510
13.673093 0.7530 0.7530 0.7550 0.7560 0.7560
13.707000 0.7600 0.7610 0.7610 0.7610 0.7610
13.741093 0.7610 0.7610 0.7630 0.7610 0.7610
13.775000 0.7600 0.7580 0.7580 0.7600 0.7600
13.809093 0.7610 0.7630 0.7630 0.7650 0.7670
13.843000 0.7680 0.7720 0.7720 0.7720 0.7730
13.877093 0.7730 0.7730 0.7770 0.7800 0.7820
13.911000 0.7840 0.7850 0.7910 0.7920 0.7990
13.945093 0.7990 0.7990 0.7990 0.8030 0.8040
13.980000 0.8090 0.8130 0.8160 0.8180 0.8200
14.014093 0.8210 0.8230 0.8250 0.8250 0.8250
14.048000 0.8270 0.8270 0.8280 0.8320 0.8350
14.082093 0.8350 0.8350 0.8350 0.8370 0.8390
14.116000 0.8420 0.8440 0.8440 0.8450 0.8470
14.150093 0.8490 0.8520 0.8520 0.8520 0.8540
14.184000 0.8540 0.8570 0.8590 0.8610 0.8610
14.218093 0.8630 0.8630 0.8630 0.8640 0.8660
14.252000 0.8660 0.8660 0.8680 0.8710 0.8710
14.286093 0.8730 0.8730 0.8750 0.8760 0.8760
14.320000 0.8780 0.8780 0.8800 0.8810 0.8830
14.354093 0.8830 0.8830 0.8830 0.8850 0.8850
14.388000 0.8850 0.8850 0.8850 0.8860 0.8860
14.422093 0.8880 0.8880 0.8860 0.8880 0.8900
14.457000 0.8900 0.8900 0.8900 0.8900 0.8920
14.491093 0.8920 0.8920 0.8920 0.8920 0.8920
14.525000 0.8920 0.8920 0.8920 0.8900 0.8900
14.559093 0.8880 0.8880 0.8880 0.8880 0.8880
14.593000 0.8880 0.8880 0.8880 0.8880 0.8880
14.627093 0.8880 0.8880 0.8880 0.8880 0.8850
14.661000 0.8830 0.8810 0.8810 0.8830 0.8830
14.695093 0.8810 0.8810 0.8800 0.8760 0.8750
14.729000 0.8750 0.8780 0.8780 0.8760 0.8760
14.763093 0.8750 0.8760 0.8760 0.8750 0.8750
14.797000 0.8730 0.8690 0.8660 0.8630 0.8610
14.831093 0.8590 0.8570 0.8570 0.8570 0.8570
14.866000 0.8590 0.8630 0.8630 0.8640 0.8660
14.900093 0.8690 0.8730 0.8750 0.8750 0.8760
14.934000 0.8750 0.8730 0.8710 0.8690 0.8660
14.968093 0.8660 0.8660 0.8640 0.8660 0.8640
15.002000 0.8630 0.8630 0.8630 0.8630 0.8610
15.036093 0.8610 0.8630 0.8630 0.8630 0.8630
15.070000 0.8630 0.8610 0.8560 0.8540 0.8540
15.104093 0.8540 0.8540 0.8540 0.8540 0.8540
15.138000 0.8540 0.8520 0.8510 0.8470 0.8440
15.172093 0.8420 0.8400 0.8400 0.8390 0.8390
15.206000 0.8370 0.8370 0.8370 0.8350 0.8330
15.240093 0.8330 0.8320 0.8320 0.8320 0.8300
15.274000 0.8270 0.8270 0.8250 0.8250 0.8250
15.308093 0.8250 0.8250 0.8230 0.8230 0.8210
15.343000 0.8210 0.8210 0.8210 0.8210 0.8210
15.377093 0.8210 0.8210 0.8210 0.8210 0.8200
15.411000 0.8200 0.8200 0.8200 0.8180 0.8200
15.445093 0.8180 0.8160 0.8160 0.8150 0.8150
15.479000 0.8150 0.8150 0.8130 0.8130 0.8110
15.513093 0.8090 0.8080 0.8080 0.8060 0.8060
15.547000 0.8060 0.8060 0.8040 0.8040 0.8030
15.581093 0.8010 0.8010 0.8010 0.7990 0.7990
15.615000 0.7990 0.7970 0.7990 0.7990 0.7990
15.649093 0.7990 0.7970 0.7970 0.7960 0.7940
15.683000 0.7920 0.7910 0.7910 0.7890 0.7870
15.717093 0.7840 0.7850 0.7840 0.7820 0.7820
15.752000 0.7800 0.7800 0.7800 0.7790 0.7750
15.786093 0.7750 0.7750 0.7730 0.7720 0.7730
15.820000 0.7720 0.7730 0.7730 0.7720 0.7700
15.854093 0.7700 0.7680 0.7680 0.7680 0.7680
15.888000 0.7680 0.7680 0.7680 0.7650 0.7650
15.922093 0.7630 0.7600 0.7560 0.7550 0.7530
15.956000 0.7530 0.7530 0.7500 0.7550 0.7530
15.990093 0.7530 0.7530
##END=
