##TITLE=ETHYL ETHER, COMPOUND WITH BF3
##JCAMP-DX=4.24
##DATA TYPE=INFRARED SPECTRUM
##CLASS=COBLENTZ III
##ORIGIN=DOW CHEMICAL COMPANY
##OWNER=COBLENTZ SOCIETY
Collection (C) 2018 copyright by the U.S. Secretary of Commerce
on behalf of the United States of America. All rights reserved.
##DATE=1963/10/25
##NAMES=1-ethoxyethane compound with trifluoroborane (1:1)
##MOLFORM=C4 H10 B F3 O
##SOURCE REFERENCE=COBLENTZ NO. 6862
##$NIST ID=B6006862
##$NIST SOURCE=COBLENTZ
##$NIST IMAGE=cob6862
##SPECTROMETER/DATA SYSTEM=BECKMAN IR-9 (GRATING)
##INSTRUMENT PARAMETERS=ORDER CHANGES AT 670, 1200, 2000 CM^-^1
##STATE=LIQUID (NEAT)
$$ PREPARED UNDER NITROGEN (N2)
##PATH LENGTH=CAPILLARY
##SAMPLING PROCEDURE=TRANSMISSION
##RESOLUTION=4
##DATA PROCESSING=DIGITIZED BY NIST FROM HARD COPY (FROM TWO SEGMENTS)
##XUNITS=1/CM
##YUNITS=TRANSMITTANCE
##XFACTOR=1.000000
##YFACTOR=1
##DELTAX=0.880572
##FIRSTX=396.478
##LASTX=3799.01
##FIRSTY=0.633
##MAXX=3799.01
##MINX=396.478
##MAXY=1.009
##MINY=0.004
##NPOINTS=3865
##XYDATA=(X++(Y..Y))
396.478000 0.6330 0.6340 0.6340 0.6340 0.6330
400.880861 0.6310 0.6300 0.6280 0.6280 0.6280
405.283722 0.6280 0.6300 0.6330 0.6350 0.6410
409.686584 0.6480 0.6570 0.6640 0.6750 0.6750
414.089445 0.6750 0.6770 0.6800 0.6820 0.6850
418.492306 0.6890 0.6920 0.6920 0.6950 0.6970
422.895167 0.6990 0.7040 0.7080 0.7110 0.7110
427.298029 0.7210 0.7250 0.7290 0.7360 0.7420
431.700890 0.7480 0.7540 0.7580 0.7610 0.7650
436.103751 0.7750 0.7790 0.7820 0.7910 0.7930
440.506612 0.8000 0.8060 0.8150 0.8200 0.8260
444.909473 0.8280 0.8330 0.8350 0.8400 0.8440
449.312335 0.8460 0.8510 0.8530 0.8570 0.8600
453.715196 0.8640 0.8670 0.8700 0.8710 0.8730
458.118057 0.8750 0.8810 0.8840 0.8850 0.8890
462.520918 0.8910 0.8950 0.8960 0.9000 0.9020
466.923780 0.9060 0.9100 0.9140 0.9170 0.9200
471.326641 0.9220 0.9240 0.9250 0.9280 0.9320
475.729502 0.9330 0.9350 0.9360 0.9370 0.9370
480.132363 0.9390 0.9400 0.9400 0.9420 0.9420
484.535224 0.9420 0.9430 0.9430 0.9430 0.9430
488.938086 0.9420 0.9420 0.9400 0.9370 0.9350
493.340947 0.9290 0.9170 0.9040 0.8930 0.8840
497.743808 0.8750 0.8670 0.8600 0.8550 0.8480
502.146669 0.8460 0.8460 0.8490 0.8560 0.8590
506.549530 0.8670 0.8710 0.8750 0.8800 0.8820
510.952392 0.8850 0.8880 0.8910 0.8920 0.8920
515.355253 0.8930 0.8930 0.8920 0.8840 0.8770
519.758114 0.8740 0.8700 0.8550 0.8480 0.8460
524.160975 0.8460 0.8510 0.8560 0.8620 0.8660
528.563837 0.8660 0.8670 0.8670 0.8660 0.8560
532.966698 0.8490 0.8480 0.8480 0.8510 0.8550
537.369559 0.8630 0.8710 0.8730 0.8770 0.8820
541.772420 0.8860 0.8890 0.8920 0.8930 0.8950
546.175281 0.8970 0.9020 0.9030 0.9040 0.9070
550.578143 0.9110 0.9140 0.9150 0.9180 0.9200
554.981004 0.9220 0.9240 0.9220 0.9220 0.9220
559.383865 0.9220 0.9240 0.9240 0.9220 0.9210
563.786726 0.9200 0.9170 0.9170 0.9150 0.9150
568.189588 0.9140 0.9140 0.9130 0.9130 0.9130
572.592449 0.9110 0.9100 0.9080 0.9070 0.9060
576.995310 0.9040 0.9000 0.8990 0.9000 0.9000
581.398171 0.9000 0.9020 0.9020 0.9020 0.9020
585.801032 0.9020 0.9020 0.9000 0.9000 0.8960
590.203894 0.8950 0.8930 0.8920 0.8910 0.8880
594.606755 0.8860 0.8840 0.8810 0.8780 0.8780
599.009616 0.8750 0.8740 0.8740 0.8710 0.8700
603.412477 0.8670 0.8640 0.8620 0.8590 0.8560
607.815339 0.8530 0.8510 0.8480 0.8460 0.8440
612.218200 0.8410 0.8380 0.8350 0.8330 0.8300
616.621061 0.8270 0.8240 0.8200 0.8170 0.8150
621.023922 0.8110 0.8000 0.7970 0.7930 0.7870
625.426783 0.7830 0.7760 0.7710 0.7640 0.7550
629.829645 0.7460 0.7360 0.7250 0.7111 0.6961
634.232506 0.6840 0.6700 0.6530 0.6370 0.6190
638.635367 0.6010 0.5801 0.5601 0.5391 0.5171
643.038228 0.4960 0.4730 0.4510 0.4280 0.4060
647.441090 0.3841 0.3641 0.3421 0.2962 0.2632
651.843951 0.2400 0.2230 0.2090 0.1940 0.1730
656.246812 0.1610 0.1441 0.1281 0.1151 0.0931
660.649673 0.0810 0.0740 0.0710 0.0660 0.0640
665.052534 0.0620 0.0600 0.0590 0.0590 0.0570
669.455396 0.0570 0.0570 0.0570 0.0570 0.0590
673.858257 0.0620 0.0640 0.0740 0.0800 0.0840
678.261118 0.1000 0.1150 0.1290 0.1480 0.1759
682.663979 0.2079 0.2439 0.2848 0.3278 0.3728
687.066840 0.4200 0.4680 0.5139 0.5599 0.6019
691.469702 0.6419 0.6769 0.6929 0.7169 0.7359
695.872563 0.7600 0.7790 0.7930 0.8040 0.8060
700.275424 0.8230 0.8340 0.8440 0.8490 0.8550
704.678285 0.8570 0.8640 0.8680 0.8730 0.8750
709.081147 0.8780 0.8810 0.8820 0.8860 0.8890
713.484008 0.8910 0.8910 0.8920 0.8920 0.8920
717.886869 0.8920 0.8920 0.8920 0.8920 0.8910
722.289730 0.8890 0.8880 0.8860 0.8840 0.8800
726.692591 0.8750 0.8740 0.8710 0.8700 0.8600
731.095453 0.8520 0.8490 0.8450 0.8400 0.8310
735.498314 0.8220 0.8110 0.8010 0.7900 0.7790
739.901175 0.7660 0.7440 0.7020 0.6850 0.6670
744.304036 0.6401 0.6151 0.5761 0.5441 0.5072
748.706898 0.4800 0.4340 0.3801 0.3131 0.2771
753.109759 0.2232 0.2001 0.1572 0.1182 0.0852
757.512620 0.0630 0.0520 0.0450 0.0400 0.0300
761.915481 0.0280 0.0240 0.0230 0.0200 0.0190
766.318342 0.0190 0.0190 0.0200 0.0240 0.0300
770.721204 0.0400 0.0510 0.0550 0.0660 0.0849
775.124065 0.1110 0.1440 0.1820 0.2159 0.2270
779.526926 0.2519 0.2998 0.3428 0.3818 0.4158
783.929787 0.4480 0.4750 0.4990 0.5210 0.5400
788.332649 0.5569 0.5719 0.5859 0.5979 0.6089
792.735510 0.6190 0.6230 0.6270 0.6300 0.6300
797.138371 0.6300 0.6280 0.6270 0.6230 0.6170
801.541232 0.6060 0.6040 0.6040 0.6120 0.6200
805.944093 0.6300 0.6400 0.6510 0.6600 0.6640
810.346955 0.6680 0.6770 0.6800 0.6770 0.6680
814.749816 0.6560 0.6401 0.6171 0.5881 0.5572
819.152677 0.5260 0.5030 0.3870 0.3131 0.2681
823.555538 0.2421 0.2240 0.2021 0.1621 0.1421
827.958400 0.1180 0.0960 0.0880 0.0780 0.0780
832.361261 0.0800 0.0800 0.0860 0.0989 0.1109
836.764122 0.1260 0.1460 0.1680 0.1930 0.2199
841.166983 0.2519 0.2849 0.3209 0.3509 0.3819
845.569844 0.4090 0.4350 0.4620 0.4860 0.5099
849.972706 0.5319 0.5539 0.5729 0.5929 0.6089
854.375567 0.6190 0.6310 0.6350 0.6450 0.6510
858.778428 0.6590 0.6600 0.6640 0.6660 0.6660
863.181289 0.6640 0.6600 0.6550 0.6450 0.6300
867.584151 0.6110 0.5831 0.5441 0.5261 0.3657
871.987012 0.3220 0.2810 0.2530 0.1691 0.1241
876.389873 0.0632 0.0451 0.0271 0.0230 0.0220
880.792734 0.0230 0.0240 0.0400 0.0510 0.0660
885.195595 0.0839 0.0960 0.1030 0.1100 0.1140
889.598457 0.1220 0.1320 0.1720 0.2050 0.2310
894.001318 0.2549 0.2779 0.3029 0.3309 0.3539
898.404179 0.3710 0.3730 0.3730 0.3730 0.3680
902.807040 0.3650 0.3570 0.3470 0.3470 0.3530
907.209901 0.3760 0.4370 0.4740 0.4960 0.5569
911.612763 0.6089 0.6309 0.6459 0.6629 0.6779
916.015624 0.6960 0.7110 0.7260 0.7390 0.7440
920.418485 0.7500 0.7620 0.7730 0.7770 0.7800
924.821346 0.7870 0.7940 0.7970 0.7970 0.8020
929.224208 0.8050 0.8090 0.8120 0.8150 0.8160
933.627069 0.8170 0.8170 0.8170 0.8190 0.8190
938.029930 0.8190 0.8190 0.8200 0.8200 0.8200
942.432791 0.8200 0.8200 0.8190 0.8190 0.8190
946.835652 0.8170 0.8150 0.8130 0.8130 0.8120
951.238514 0.8110 0.8090 0.8080 0.8060 0.8050
955.641375 0.8040 0.8020 0.8010 0.7980 0.7970
960.044236 0.7950 0.7940 0.7930 0.7880 0.7860
964.447097 0.7820 0.7790 0.7770 0.7760 0.7760
968.849959 0.7750 0.7720 0.7690 0.7650 0.7610
973.252820 0.7600 0.7580 0.7530 0.7480 0.7430
977.655681 0.7400 0.7350 0.7290 0.7280 0.7170
982.058542 0.7100 0.7060 0.6930 0.6890 0.6681
986.461403 0.6630 0.6560 0.6440 0.6260 0.6170
990.864265 0.5841 0.5611 0.5441 0.5251 0.5071
995.267126 0.4850 0.4530 0.4410 0.4170 0.4000
999.669987 0.3691 0.3212 0.3031 0.2861 0.2711
1004.072848 0.2570 0.2460 0.2350 0.2260 0.2170
1008.475710 0.2110 0.2020 0.1731 0.1601 0.1570
1012.878571 0.1550 0.1470 0.1440 0.1420 0.1390
1017.281432 0.1370 0.1360 0.1350 0.1330 0.1350
1021.684293 0.1370 0.1430 0.1470 0.1510 0.1550
1026.087154 0.1650 0.1720 0.2009 0.2149 0.2279
1030.490016 0.2420 0.2560 0.2710 0.2860 0.3020
1034.892877 0.3170 0.3329 0.3479 0.3639 0.3789
1039.295738 0.3950 0.4090 0.4240 0.4380 0.4510
1043.698599 0.4560 0.4630 0.4740 0.4840 0.4910
1048.101461 0.4990 0.5040 0.5100 0.5170 0.5220
1052.504322 0.5280 0.5330 0.5350 0.5360 0.5370
1056.907183 0.5400 0.5460 0.5480 0.5500 0.5510
1061.310044 0.5600 0.5620 0.5640 0.5650 0.5660
1065.712905 0.5690 0.5750 0.5750 0.5760 0.5770
1070.115767 0.5770 0.5820 0.5860 0.5870 0.5880
1074.518628 0.5900 0.5910 0.5910 0.5940 0.5950
1078.921489 0.5950 0.5970 0.5970 0.5950 0.5900
1083.324350 0.5940 0.5910 0.5880 0.5800 0.5770
1087.727211 0.5730 0.5640 0.5570 0.5500 0.5311
1092.130073 0.5080 0.4960 0.4800 0.4670 0.4510
1096.532934 0.4420 0.4410 0.4410 0.4450 0.4629
1100.935795 0.4860 0.5070 0.5200 0.5420 0.5510
1105.338656 0.5620 0.5710 0.5760 0.5800 0.5880
1109.741518 0.5900 0.5940 0.6020 0.6020 0.6010
1114.144379 0.6010 0.6010 0.5980 0.5970 0.5940
1118.547240 0.5900 0.5880 0.5870 0.5790 0.5730
1122.950101 0.5690 0.5640 0.5610 0.5530 0.5480
1127.352962 0.5390 0.5280 0.5220 0.5140 0.4930
1131.755824 0.4780 0.4670 0.4570 0.4480 0.4331
1136.158685 0.4120 0.3950 0.3800 0.3650 0.3431
1140.561546 0.3141 0.2732 0.2551 0.2401 0.2201
1144.964407 0.2000 0.1800 0.1610 0.1430 0.1290
1149.367269 0.1170 0.0971 0.0811 0.0700 0.0620
1153.770130 0.0560 0.0510 0.0480 0.0440 0.0400
1158.172991 0.0350 0.0350 0.0330 0.0300 0.0270
1162.575852 0.0260 0.0230 0.0230 0.0220 0.0220
1166.978713 0.0200 0.0200 0.0190 0.0170 0.0170
1171.381575 0.0170 0.0170 0.0170 0.0160 0.0160
1175.784436 0.0170 0.0170 0.0170 0.0170 0.0170
1180.187297 0.0190 0.0190 0.0200 0.0220 0.0220
1184.590158 0.0230 0.0240 0.0260 0.0270 0.0270
1188.993020 0.0280 0.0280 0.0280 0.0280 0.0270
1193.395881 0.0260 0.0240 0.0230 0.0220 0.0200
1197.798742 0.0150 0.0130 0.0120 0.0110 0.0090
1202.201603 0.0080 0.0080 0.0060 0.0060 0.0060
1206.604464 0.0060 0.0060 0.0050 0.0050 0.0050
1211.007326 0.0050 0.0040 0.0040 0.0040 0.0050
1215.410187 0.0050 0.0050 0.0050 0.0050 0.0050
1219.813048 0.0060 0.0060 0.0080 0.0090 0.0110
1224.215909 0.0150 0.0160 0.0220 0.0260 0.0310
1228.618771 0.0380 0.0460 0.0550 0.0660 0.0769
1233.021632 0.0880 0.1000 0.1130 0.1240 0.1360
1237.424493 0.1480 0.1600 0.1690 0.1790 0.1840
1241.827354 0.1860 0.1910 0.1930 0.1930 0.1910
1246.230215 0.1910 0.1900 0.1880 0.1870 0.1860
1250.633077 0.1830 0.1800 0.1790 0.1790 0.1800
1255.035938 0.1830 0.1880 0.1970 0.2060 0.2189
1259.438799 0.2310 0.2450 0.2590 0.2710 0.2850
1263.841660 0.2970 0.3100 0.3200 0.3260 0.3439
1268.244521 0.3570 0.3620 0.3750 0.3940 0.4110
1272.647383 0.4270 0.4410 0.4560 0.4709 0.4859
1277.050244 0.5060 0.5240 0.5430 0.5540 0.5660
1281.453105 0.5879 0.6089 0.6170 0.6299 0.6330
1285.855966 0.6440 0.6460 0.6490 0.6510 0.6510
1290.258828 0.6490 0.6370 0.6240 0.6130 0.6011
1294.661689 0.5980 0.5980 0.6000 0.6280 0.6570
1299.064550 0.6680 0.6929 0.7169 0.7399 0.7549
1303.467411 0.7680 0.7750 0.7770 0.7870 0.7930
1307.870272 0.7950 0.7980 0.8040 0.8110 0.8120
1312.273134 0.8120 0.8120 0.8110 0.8110 0.8060
1316.675995 0.8020 0.7940 0.7930 0.7910 0.7830
1321.078856 0.7760 0.7620 0.7600 0.7570 0.7500
1325.481717 0.7420 0.7390 0.7320 0.7260 0.7240
1329.884579 0.7180 0.7140 0.7080 0.7070 0.7080
1334.287440 0.7100 0.7130 0.7140 0.7200 0.7250
1338.690301 0.7310 0.7420 0.7460 0.7600 0.7720
1343.093162 0.7760 0.7830 0.7910 0.7940 0.7970
1347.496023 0.8040 0.8110 0.8120 0.8120 0.8150
1351.898885 0.8160 0.8190 0.8200 0.8220 0.8230
1356.301746 0.8240 0.8230 0.8220 0.8190 0.8150
1360.704607 0.8090 0.8000 0.7861 0.7770 0.7690
1365.107468 0.7580 0.7580 0.7600 0.7640 0.7720
1369.510330 0.7770 0.7830 0.7840 0.7880 0.7870
1373.913191 0.7840 0.7790 0.7730 0.7570 0.7251
1378.316052 0.6991 0.6671 0.6232 0.5871 0.5840
1382.718913 0.5860 0.5900 0.6010 0.6120 0.6170
1387.121774 0.6160 0.6060 0.5970 0.5751 0.5442
1391.524636 0.5110 0.4660 0.4450 0.4151 0.3951
1395.927497 0.3791 0.3760 0.3760 0.3770 0.4078
1400.330358 0.4590 0.5080 0.5310 0.5680 0.5840
1404.733219 0.6159 0.6310 0.6669 0.6909 0.7079
1409.136081 0.7260 0.7360 0.7580 0.7770 0.7820
1413.538942 0.7930 0.7980 0.8110 0.8150 0.8200
1417.941803 0.8230 0.8280 0.8300 0.8310 0.8370
1422.344664 0.8410 0.8420 0.8440 0.8440 0.8450
1426.747525 0.8450 0.8460 0.8460 0.8490 0.8490
1431.150387 0.8510 0.8490 0.8450 0.8440 0.8440
1435.553248 0.8400 0.8350 0.8310 0.8300 0.8260
1439.956109 0.8190 0.8120 0.8040 0.7940 0.7840
1444.358970 0.7750 0.7580 0.7420 0.7250 0.7060
1448.761831 0.6861 0.6661 0.6461 0.6281 0.6011
1453.164693 0.6000 0.5980 0.6000 0.6090 0.6190
1457.567554 0.6270 0.6419 0.6559 0.6809 0.6949
1461.970415 0.7040 0.7070 0.7080 0.7080 0.7080
1466.373276 0.7070 0.6950 0.6840 0.6601 0.6351
1470.776138 0.6160 0.6020 0.5820 0.5650 0.5620
1475.178999 0.5640 0.5720 0.5760 0.5830 0.5880
1479.581860 0.5910 0.5910 0.5650 0.5510 0.5320
1483.984721 0.5260 0.5081 0.5080 0.5468 0.5689
1488.387582 0.6150 0.6600 0.6840 0.7290 0.7619
1492.790444 0.7840 0.7940 0.8080 0.8190 0.8270
1497.193305 0.8350 0.8440 0.8510 0.8570 0.8640
1501.596166 0.8710 0.8780 0.8850 0.8880 0.8910
1505.999027 0.8920 0.8930 0.8930 0.8950 0.8990
1510.401889 0.9030 0.9110 0.9150 0.9150 0.9200
1514.804750 0.9220 0.9240 0.9260 0.9310 0.9310
1519.207611 0.9320 0.9320 0.9330 0.9350 0.9350
1523.610472 0.9360 0.9370 0.9390 0.9400 0.9400
1528.013333 0.9420 0.9420 0.9430 0.9440 0.9460
1532.416195 0.9470 0.9480 0.9500 0.9510 0.9510
1536.819056 0.9510 0.9530 0.9530 0.9540 0.9540
1541.221917 0.9540 0.9550 0.9550 0.9570 0.9570
1545.624778 0.9580 0.9580 0.9600 0.9620 0.9640
1550.027640 0.9650 0.9650 0.9660 0.9660 0.9660
1554.430501 0.9660 0.9660 0.9680 0.9680 0.9680
1558.833362 0.9680 0.9690 0.9690 0.9710 0.9720
1563.236223 0.9720 0.9730 0.9750 0.9760 0.9760
1567.639084 0.9770 0.9790 0.9790 0.9790 0.9790
1572.041946 0.9800 0.9820 0.9820 0.9820 0.9820
1576.444807 0.9830 0.9830 0.9830 0.9840 0.9840
1580.847668 0.9840 0.9840 0.9860 0.9860 0.9860
1585.250529 0.9870 0.9870 0.9870 0.9880 0.9880
1589.653391 0.9880 0.9880 0.9880 0.9880 0.9880
1594.056252 0.9900 0.9900 0.9900 0.9900 0.9900
1598.459113 0.9900 0.9910 0.9910 0.9910 0.9910
1602.861974 0.9910 0.9910 0.9910 0.9910 0.9910
1607.264835 0.9910 0.9910 0.9910 0.9910 0.9910
1611.667697 0.9910 0.9910 0.9910 0.9910 0.9900
1616.070558 0.9900 0.9900 0.9900 0.9900 0.9900
1620.473419 0.9900 0.9900 0.9900 0.9880 0.9880
1624.876280 0.9880 0.9880 0.9880 0.9870 0.9870
1629.279142 0.9870 0.9870 0.9860 0.9860 0.9860
1633.682003 0.9860 0.9840 0.9840 0.9840 0.9840
1638.084864 0.9840 0.9840 0.9840 0.9840 0.9840
1642.487725 0.9840 0.9830 0.9830 0.9830 0.9830
1646.890586 0.9830 0.9830 0.9830 0.9830 0.9820
1651.293448 0.9820 0.9800 0.9800 0.9800 0.9800
1655.696309 0.9800 0.9800 0.9800 0.9800 0.9820
1660.099170 0.9820 0.9830 0.9830 0.9840 0.9840
1664.502031 0.9860 0.9860 0.9860 0.9860 0.9870
1668.904892 0.9870 0.9870 0.9870 0.9870 0.9880
1673.307754 0.9880 0.9880 0.9900 0.9900 0.9900
1677.710615 0.9900 0.9910 0.9910 0.9910 0.9930
1682.113476 0.9930 0.9940 0.9940 0.9940 0.9950
1686.516337 0.9950 0.9950 0.9970 0.9970 0.9970
1690.919199 0.9980 0.9980 0.9980 0.9980 0.9980
1695.322060 0.9980 0.9980 0.9980 0.9980 0.9980
1699.724921 0.9980 0.9980 1.0000 1.0000 1.0000
1704.127782 1.0000 1.0000 1.0000 1.0000 1.0000
1708.530643 1.0000 1.0000 0.9980 1.0000 1.0000
1712.933505 1.0000 1.0000 1.0010 1.0010 1.0010
1717.336366 1.0010 1.0010 1.0020 1.0020 1.0020
1721.739227 1.0020 1.0020 1.0020 1.0020 1.0020
1726.142088 1.0020 1.0020 1.0020 1.0020 1.0020
1730.544950 1.0010 1.0010 1.0010 1.0010 1.0010
1734.947811 1.0010 1.0010 1.0010 1.0000 1.0000
1739.350672 1.0000 1.0000 1.0000 1.0000 1.0000
1743.753533 1.0000 1.0000 0.9980 0.9980 0.9980
1748.156394 0.9980 0.9980 0.9980 0.9980 0.9980
1752.559256 0.9980 0.9980 0.9980 0.9980 0.9980
1756.962117 0.9980 0.9970 0.9970 0.9970 0.9970
1761.364978 0.9970 0.9970 0.9950 0.9950 0.9950
1765.767839 0.9940 0.9940 0.9940 0.9940 0.9940
1770.170701 0.9940 0.9930 0.9930 0.9930 0.9910
1774.573562 0.9910 0.9910 0.9910 0.9900 0.9900
1778.976423 0.9900 0.9900 0.9900 0.9910 0.9910
1783.379284 0.9910 0.9910 0.9910 0.9910 0.9910
1787.782145 0.9910 0.9930 0.9930 0.9930 0.9930
1792.185007 0.9930 0.9930 0.9930 0.9940 0.9940
1796.587868 0.9940 0.9940 0.9950 0.9950 0.9950
1800.990729 0.9950 0.9950 0.9970 0.9970 0.9970
1805.393590 0.9970 0.9970 0.9980 0.9980 0.9980
1809.796452 0.9980 0.9980 1.0000 1.0000 1.0000
1814.199313 1.0000 1.0000 1.0000 1.0000 1.0000
1818.602174 1.0000 1.0000 1.0000 1.0000 1.0000
1823.005035 1.0000 1.0000 1.0000 1.0000 1.0000
1827.407896 1.0000 1.0000 1.0000 1.0000 1.0000
1831.810758 1.0000 1.0000 1.0000 1.0000 1.0000
1836.213619 1.0000 1.0000 1.0000 1.0000 1.0000
1840.616480 1.0000 1.0000 1.0000 1.0000 0.9980
1845.019341 0.9980 0.9980 0.9980 0.9980 0.9980
1849.422202 0.9980 0.9980 0.9980 0.9980 0.9980
1853.825064 0.9980 0.9980 0.9980 0.9980 0.9980
1858.227925 0.9980 0.9980 0.9980 0.9980 0.9980
1862.630786 0.9980 0.9970 0.9970 0.9970 0.9970
1867.033647 0.9970 0.9950 0.9950 0.9950 0.9950
1871.436509 0.9950 0.9940 0.9940 0.9940 0.9940
1875.839370 0.9930 0.9930 0.9930 0.9930 0.9930
1880.242231 0.9910 0.9910 0.9910 0.9910 0.9910
1884.645092 0.9900 0.9900 0.9900 0.9900 0.9900
1889.047953 0.9880 0.9880 0.9880 0.9880 0.9870
1893.450815 0.9870 0.9870 0.9860 0.9860 0.9860
1897.853676 0.9860 0.9860 0.9860 0.9860 0.9860
1902.256537 0.9840 0.9860 0.9860 0.9860 0.9860
1906.659398 0.9860 0.9870 0.9870 0.9870 0.9870
1911.062260 0.9880 0.9880 0.9880 0.9880 0.9880
1915.465121 0.9880 0.9880 0.9900 0.9900 0.9900
1919.867982 0.9900 0.9900 0.9900 0.9900 0.9910
1924.270843 0.9910 0.9910 0.9910 0.9910 0.9910
1928.673704 0.9910 0.9910 0.9910 0.9910 0.9910
1933.076566 0.9910 0.9910 0.9910 0.9930 0.9930
1937.479427 0.9930 0.9930 0.9930 0.9930 0.9930
1941.882288 0.9940 0.9940 0.9940 0.9940 0.9940
1946.285149 0.9950 0.9950 0.9950 0.9950 0.9950
1950.688011 0.9950 0.9950 0.9950 0.9950 0.9950
1955.090872 0.9950 0.9940 0.9940 0.9940 0.9940
1959.493733 0.9940 0.9930 0.9910 0.9910 0.9930
1963.896594 0.9930 0.9930 0.9930 0.9930 0.9930
1968.299455 0.9910 0.9910 0.9910 0.9900 0.9910
1972.702317 0.9910 0.9910 0.9910 0.9910 0.9910
1977.105178 0.9900 0.9900 0.9900 0.9900 0.9910
1981.508039 0.9910 0.9910 0.9910 0.9910 0.9910
1985.910900 0.9910 0.9910 0.9910 0.9910 0.9900
1990.313762 0.9900 0.9900 0.9900 0.9900 0.9900
1994.716623 0.9900 0.9900 0.9900 0.9900 0.9900
1999.119484 0.9910 0.9900 0.9900 0.9900 0.9900
2003.522345 0.9900 0.9900 0.9900 0.9900 0.9900
2007.925206 0.9900 0.9900 0.9900 0.9900 0.9900
2012.328068 0.9900 0.9900 0.9900 0.9900 0.9900
2016.730929 0.9900 0.9900 0.9900 0.9900 0.9900
2021.133790 0.9900 0.9900 0.9900 0.9890 0.9880
2025.536651 0.9875 0.9870 0.9870 0.9870 0.9865
2029.939512 0.9860 0.9850 0.9840 0.9840 0.9840
2034.342374 0.9840 0.9840 0.9835 0.9830 0.9830
2038.745235 0.9830 0.9830 0.9830 0.9830 0.9830
2043.148096 0.9830 0.9830 0.9830 0.9830 0.9830
2047.550957 0.9830 0.9835 0.9840 0.9850 0.9860
2051.953819 0.9865 0.9870 0.9875 0.9880 0.9880
2056.356680 0.9880 0.9880 0.9880 0.9890 0.9900
2060.759541 0.9900 0.9900 0.9905 0.9910 0.9919
2065.162402 0.9929 0.9930 0.9930 0.9939 0.9949
2069.565263 0.9950 0.9950 0.9950 0.9950 0.9950
2073.968125 0.9950 0.9950 0.9950 0.9950 0.9950
2078.370986 0.9950 0.9950 0.9950 0.9950 0.9950
2082.773847 0.9950 0.9945 0.9940 0.9940 0.9940
2087.176708 0.9940 0.9940 0.9940 0.9940 0.9940
2091.579570 0.9940 0.9940 0.9940 0.9940 0.9940
2095.982431 0.9945 0.9950 0.9950 0.9950 0.9959
2100.385292 0.9969 0.9970 0.9970 0.9975 0.9980
2104.788153 0.9980 0.9980 0.9980 0.9980 0.9989
2109.191014 0.9999 1.0000 1.0000 1.0000 1.0000
2113.593876 1.0005 1.0010 1.0010 1.0010 1.0010
2117.996737 1.0010 1.0010 1.0010 1.0015 1.0020
2122.399598 1.0020 1.0020 1.0020 1.0020 1.0020
2126.802459 1.0020 1.0020 1.0020 1.0020 1.0020
2131.205321 1.0029 1.0039 1.0040 1.0040 1.0040
2135.608182 1.0040 1.0040 1.0040 1.0040 1.0040
2140.011043 1.0040 1.0040 1.0040 1.0040 1.0040
2144.413904 1.0040 1.0040 1.0040 1.0040 1.0040
2148.816765 1.0040 1.0040 1.0040 1.0040 1.0040
2153.219627 1.0040 1.0040 1.0040 1.0040 1.0040
2157.622488 1.0040 1.0040 1.0040 1.0040 1.0040
2162.025349 1.0040 1.0040 1.0040 1.0040 1.0040
2166.428210 1.0040 1.0040 1.0040 1.0040 1.0031
2170.831072 1.0021 1.0020 1.0020 1.0020 1.0020
2175.233933 1.0020 1.0020 1.0020 1.0020 1.0020
2179.636794 1.0020 1.0020 1.0020 1.0020 1.0020
2184.039655 1.0020 1.0020 1.0020 1.0020 1.0020
2188.442516 1.0020 1.0020 1.0020 1.0020 1.0020
2192.845378 1.0020 1.0020 1.0020 1.0020 1.0016
2197.248239 1.0011 1.0010 1.0010 1.0010 1.0010
2201.651100 1.0010 1.0010 1.0010 1.0010 1.0010
2206.053961 1.0010 1.0010 1.0010 1.0010 1.0010
2210.456822 1.0010 1.0010 1.0010 1.0010 1.0010
2214.859684 1.0010 1.0010 1.0010 1.0010 1.0010
2219.262545 1.0010 1.0010 1.0010 1.0010 1.0010
2223.665406 1.0010 1.0010 1.0010 1.0010 1.0010
2228.068267 1.0010 1.0010 1.0010 1.0010 1.0010
2232.471129 1.0010 1.0006 1.0001 1.0000 1.0000
2236.873990 1.0000 1.0000 1.0000 1.0000 0.9992
2241.276851 0.9982 0.9980 0.9980 0.9980 0.9980
2245.679712 0.9980 0.9980 0.9976 0.9971 0.9970
2250.082573 0.9970 0.9970 0.9970 0.9962 0.9952
2254.485435 0.9950 0.9950 0.9950 0.9950 0.9950
2258.888296 0.9950 0.9946 0.9941 0.9940 0.9940
2263.291157 0.9940 0.9940 0.9936 0.9931 0.9922
2267.694018 0.9912 0.9910 0.9910 0.9910 0.9910
2272.096880 0.9910 0.9910 0.9910 0.9910 0.9910
2276.499741 0.9910 0.9910 0.9910 0.9910 0.9910
2280.902602 0.9910 0.9910 0.9910 0.9910 0.9910
2285.305463 0.9910 0.9906 0.9901 0.9900 0.9900
2289.708324 0.9900 0.9900 0.9900 0.9900 0.9900
2294.111186 0.9900 0.9892 0.9882 0.9880 0.9880
2298.514047 0.9880 0.9880 0.9880 0.9880 0.9880
2302.916908 0.9880 0.9876 0.9871 0.9870 0.9870
2307.319769 0.9870 0.9870 0.9866 0.9861 0.9860
2311.722631 0.9860 0.9860 0.9860 0.9860 0.9860
2316.125492 0.9860 0.9860 0.9860 0.9860 0.9860
2320.528353 0.9860 0.9864 0.9869 0.9870 0.9870
2324.931214 0.9870 0.9870 0.9870 0.9870 0.9870
2329.334075 0.9870 0.9870 0.9870 0.9870 0.9870
2333.736937 0.9866 0.9861 0.9860 0.9860 0.9860
2338.139798 0.9860 0.9852 0.9842 0.9848 0.9858
2342.542659 0.9852 0.9842 0.9840 0.9840 0.9840
2346.945520 0.9840 0.9836 0.9831 0.9826 0.9821
2351.348382 0.9820 0.9820 0.9808 0.9793 0.9790
2355.751243 0.9790 0.9790 0.9790 0.9790 0.9790
2360.154104 0.9782 0.9772 0.9770 0.9770 0.9770
2364.556965 0.9770 0.9766 0.9761 0.9760 0.9760
2368.959826 0.9760 0.9760 0.9760 0.9760 0.9760
2373.362688 0.9760 0.9760 0.9760 0.9760 0.9760
2377.765549 0.9760 0.9760 0.9760 0.9760 0.9760
2382.168410 0.9760 0.9760 0.9760 0.9756 0.9751
2386.571271 0.9750 0.9750 0.9742 0.9732 0.9726
2390.974133 0.9721 0.9709 0.9694 0.9686 0.9681
2395.376994 0.9680 0.9680 0.9680 0.9680 0.9673
2399.779855 0.9663 0.9660 0.9660 0.9660 0.9660
2404.182716 0.9660 0.9660 0.9667 0.9677 0.9684
2408.585577 0.9689 0.9686 0.9681 0.9684 0.9689
2412.988439 0.9690 0.9690 0.9690 0.9690 0.9690
2417.391300 0.9690 0.9690 0.9690 0.9690 0.9690
2421.794161 0.9697 0.9707 0.9710 0.9710 0.9710
2426.197022 0.9710 0.9710 0.9710 0.9710 0.9710
2430.599883 0.9714 0.9719 0.9731 0.9746 0.9754
2435.002745 0.9759 0.9760 0.9760 0.9764 0.9769
2439.405606 0.9770 0.9770 0.9770 0.9770 0.9770
2443.808467 0.9770 0.9777 0.9787 0.9790 0.9790
2448.211328 0.9790 0.9790 0.9790 0.9790 0.9790
2452.614190 0.9790 0.9790 0.9790 0.9783 0.9773
2457.017051 0.9770 0.9770 0.9770 0.9770 0.9770
2461.419912 0.9770 0.9770 0.9770 0.9766 0.9761
2465.822773 0.9760 0.9760 0.9757 0.9752 0.9750
2470.225634 0.9750 0.9750 0.9750 0.9750 0.9750
2474.628496 0.9743 0.9733 0.9726 0.9721 0.9720
2479.031357 0.9720 0.9717 0.9712 0.9710 0.9710
2483.434218 0.9703 0.9693 0.9690 0.9690 0.9690
2487.837079 0.9690 0.9690 0.9690 0.9690 0.9690
2492.239941 0.9690 0.9690 0.9690 0.9690 0.9690
2496.642802 0.9690 0.9690 0.9690 0.9690 0.9690
2501.045663 0.9697 0.9707 0.9717 0.9727 0.9730
2505.448524 0.9730 0.9737 0.9747 0.9750 0.9750
2509.851385 0.9757 0.9767 0.9770 0.9770 0.9770
2514.254247 0.9770 0.9777 0.9787 0.9790 0.9790
2518.657108 0.9790 0.9790 0.9793 0.9798 0.9800
2523.059969 0.9800 0.9807 0.9817 0.9823 0.9828
2527.462830 0.9830 0.9830 0.9833 0.9838 0.9840
2531.865692 0.9840 0.9847 0.9857 0.9860 0.9860
2536.268553 0.9860 0.9860 0.9863 0.9868 0.9870
2540.671414 0.9870 0.9873 0.9878 0.9886 0.9896
2545.074275 0.9900 0.9900 0.9900 0.9900 0.9900
2549.477136 0.9900 0.9893 0.9884 0.9886 0.9896
2553.879998 0.9900 0.9900 0.9900 0.9900 0.9900
2558.282859 0.9900 0.9900 0.9900 0.9900 0.9900
2562.685720 0.9900 0.9900 0.9900 0.9900 0.9900
2567.088581 0.9900 0.9900 0.9900 0.9903 0.9908
2571.491443 0.9910 0.9910 0.9907 0.9902 0.9903
2575.894304 0.9908 0.9910 0.9910 0.9910 0.9910
2580.297165 0.9910 0.9910 0.9910 0.9910 0.9910
2584.700026 0.9910 0.9910 0.9910 0.9910 0.9910
2589.102887 0.9907 0.9902 0.9900 0.9900 0.9900
2593.505749 0.9900 0.9900 0.9900 0.9900 0.9900
2597.908610 0.9900 0.9900 0.9900 0.9900 0.9900
2602.311471 0.9900 0.9894 0.9884 0.9880 0.9880
2606.714332 0.9880 0.9880 0.9880 0.9880 0.9880
2611.117193 0.9880 0.9880 0.9880 0.9880 0.9880
2615.520055 0.9880 0.9880 0.9880 0.9880 0.9880
2619.922916 0.9880 0.9880 0.9880 0.9880 0.9880
2624.325777 0.9880 0.9880 0.9880 0.9880 0.9880
2628.728638 0.9880 0.9880 0.9880 0.9880 0.9880
2633.131500 0.9880 0.9880 0.9880 0.9880 0.9877
2637.534361 0.9872 0.9870 0.9870 0.9870 0.9870
2641.937222 0.9870 0.9870 0.9870 0.9870 0.9870
2646.340083 0.9870 0.9870 0.9870 0.9870 0.9870
2650.742944 0.9870 0.9870 0.9870 0.9870 0.9870
2655.145806 0.9870 0.9870 0.9870 0.9870 0.9870
2659.548667 0.9870 0.9870 0.9870 0.9870 0.9870
2663.951528 0.9870 0.9870 0.9870 0.9870 0.9870
2668.354389 0.9870 0.9870 0.9870 0.9870 0.9870
2672.757251 0.9870 0.9870 0.9870 0.9870 0.9870
2677.160112 0.9867 0.9862 0.9860 0.9860 0.9860
2681.562973 0.9860 0.9860 0.9860 0.9854 0.9844
2685.965834 0.9840 0.9840 0.9840 0.9840 0.9840
2690.368695 0.9840 0.9840 0.9840 0.9840 0.9840
2694.771557 0.9840 0.9840 0.9840 0.9840 0.9840
2699.174418 0.9840 0.9840 0.9840 0.9840 0.9840
2703.577279 0.9837 0.9832 0.9830 0.9830 0.9830
2707.980140 0.9830 0.9830 0.9830 0.9830 0.9830
2712.383002 0.9830 0.9830 0.9827 0.9822 0.9820
2716.785863 0.9820 0.9820 0.9820 0.9820 0.9820
2721.188724 0.9820 0.9820 0.9820 0.9820 0.9820
2725.591585 0.9820 0.9820 0.9820 0.9820 0.9820
2729.994446 0.9815 0.9805 0.9800 0.9800 0.9797
2734.397308 0.9792 0.9793 0.9798 0.9800 0.9800
2738.800169 0.9800 0.9800 0.9797 0.9792 0.9790
2743.203030 0.9790 0.9785 0.9775 0.9770 0.9770
2747.605891 0.9767 0.9762 0.9757 0.9752 0.9750
2752.008753 0.9750 0.9750 0.9750 0.9750 0.9750
2756.411614 0.9753 0.9758 0.9760 0.9760 0.9763
2760.814475 0.9768 0.9775 0.9785 0.9790 0.9790
2765.217336 0.9790 0.9790 0.9790 0.9790 0.9790
2769.620197 0.9790 0.9790 0.9790 0.9785 0.9775
2774.023059 0.9767 0.9762 0.9760 0.9760 0.9760
2778.425920 0.9760 0.9757 0.9752 0.9745 0.9735
2782.828781 0.9727 0.9722 0.9718 0.9713 0.9705
2787.231642 0.9695 0.9688 0.9683 0.9680 0.9680
2791.634503 0.9680 0.9680 0.9683 0.9688 0.9690
2796.037365 0.9690 0.9695 0.9705 0.9710 0.9710
2800.440226 0.9710 0.9710 0.9710 0.9710 0.9710
2804.843087 0.9710 0.9710 0.9710 0.9710 0.9710
2809.245948 0.9710 0.9710 0.9710 0.9710 0.9703
2813.648810 0.9688 0.9680 0.9680 0.9680 0.9680
2818.051671 0.9675 0.9665 0.9660 0.9660 0.9655
2822.454532 0.9645 0.9635 0.9625 0.9618 0.9613
2826.857393 0.9603 0.9588 0.9578 0.9573 0.9565
2831.260254 0.9555 0.9548 0.9543 0.9538 0.9533
2835.663116 0.9518 0.9493 0.9480 0.9480 0.9478
2840.065977 0.9473 0.9461 0.9441 0.9428 0.9423
2844.468838 0.9415 0.9405 0.9400 0.9400 0.9400
2848.871699 0.9400 0.9398 0.9393 0.9383 0.9368
2853.274561 0.9358 0.9353 0.9345 0.9335 0.9330
2857.677422 0.9330 0.9330 0.9330 0.9330 0.9330
2862.080283 0.9330 0.9330 0.9328 0.9323 0.9318
2866.483144 0.9313 0.9299 0.9274 0.9251 0.9231
2870.886005 0.9200 0.9155 0.9114 0.9080 0.9038
2875.288867 0.8988 0.8951 0.8931 0.8907 0.8877
2879.691728 0.8847 0.8817 0.8780 0.8735 0.8708
2884.094589 0.8703 0.8702 0.8707 0.8710 0.8710
2888.497450 0.8714 0.8724 0.8734 0.8744 0.8754
2892.900312 0.8764 0.8772 0.8777 0.8780 0.8780
2897.303173 0.8784 0.8794 0.8796 0.8786 0.8769
2901.706034 0.8744 0.8719 0.8694 0.8676 0.8666
2906.108895 0.8645 0.8610 0.8577 0.8547 0.8499
2910.511756 0.8424 0.8355 0.8295 0.8233 0.8168
2914.914618 0.8111 0.8066 0.8025 0.7990 0.7962
2919.317479 0.7942 0.7926 0.7916 0.7910 0.7910
2923.720340 0.7914 0.7924 0.7930 0.7930 0.7932
2928.123201 0.7937 0.7942 0.7947 0.7950 0.7950
2932.526063 0.7954 0.7964 0.7966 0.7956 0.7931
2936.928924 0.7887 0.7838 0.7783 0.7728 0.7673
2941.331785 0.7618 0.7563 0.7508 0.7453 0.7398
2945.734646 0.7343 0.7290 0.7240 0.7208 0.7203
2950.137507 0.7202 0.7207 0.7248 0.7343 0.7426
2954.540369 0.7491 0.7574 0.7684 0.7772 0.7827
2958.943230 0.7874 0.7909 0.7940 0.7965 0.7984
2963.346091 0.7994 0.7996 0.7986 0.7980 0.7980
2967.748952 0.7974 0.7959 0.7926 0.7866 0.7801
2972.151813 0.7726 0.7632 0.7507 0.7401 0.7326
2976.554675 0.7251 0.7177 0.7092 0.6992 0.6862
2980.957536 0.6683 0.6501 0.6316 0.6167 0.6077
2985.360397 0.5987 0.5896 0.5798 0.5688 0.5597
2989.763258 0.5537 0.5466 0.5376 0.5294 0.5224
2994.166120 0.5173 0.5153 0.5138 0.5133 0.5132
2998.568981 0.5137 0.5145 0.5160 0.5183 0.5217
3002.971842 0.5306 0.5493 0.5658 0.5788 0.5929
3007.374703 0.6089 0.6225 0.6320 0.6472 0.6727
3011.777564 0.6948 0.7107 0.7242 0.7332 0.7404
3016.180426 0.7444 0.7481 0.7510 0.7539 0.7564
3020.583287 0.7599 0.7655 0.7701 0.7731 0.7752
3024.986148 0.7757 0.7762 0.7767 0.7775 0.7790
3029.389009 0.7835 0.7935 0.8021 0.8081 0.8132
3033.791871 0.8167 0.8210 0.8270 0.8315 0.8330
3038.194732 0.8359 0.8414 0.8482 0.8571 0.8673
3042.597593 0.8798 0.8887 0.8907 0.8925 0.8940
3047.000454 0.8965 0.9010 0.9055 0.9100 0.9155
3051.403315 0.9230 0.9292 0.9326 0.9352 0.9357
3055.806177 0.9365 0.9380 0.9392 0.9397 0.9403
3060.209038 0.9413 0.9423 0.9433 0.9447 0.9467
3064.611899 0.9480 0.9480 0.9483 0.9493 0.9502
3069.014760 0.9507 0.9515 0.9530 0.9542 0.9547
3073.417622 0.9550 0.9550 0.9550 0.9550 0.9553
3077.820483 0.9563 0.9570 0.9570 0.9572 0.9577
3082.223344 0.9583 0.9593 0.9600 0.9600 0.9602
3086.626205 0.9607 0.9610 0.9610 0.9612 0.9617
3091.029066 0.9623 0.9633 0.9642 0.9647 0.9652
3095.431928 0.9657 0.9660 0.9660 0.9660 0.9660
3099.834789 0.9660 0.9660 0.9663 0.9673 0.9680
3104.237650 0.9680 0.9680 0.9680 0.9680 0.9680
3108.640511 0.9680 0.9680 0.9682 0.9687 0.9690
3113.043373 0.9690 0.9690 0.9690 0.9690 0.9690
3117.446234 0.9690 0.9690 0.9690 0.9690 0.9693
3121.849095 0.9703 0.9710 0.9710 0.9710 0.9710
3126.251956 0.9711 0.9716 0.9719 0.9714 0.9711
3130.654817 0.9716 0.9721 0.9726 0.9730 0.9730
3135.057679 0.9730 0.9730 0.9730 0.9730 0.9730
3139.460540 0.9730 0.9729 0.9724 0.9720 0.9720
3143.863401 0.9720 0.9720 0.9720 0.9720 0.9720
3148.266262 0.9720 0.9720 0.9720 0.9720 0.9720
3152.669124 0.9720 0.9720 0.9720 0.9720 0.9720
3157.071985 0.9720 0.9720 0.9720 0.9720 0.9720
3161.474846 0.9720 0.9720 0.9720 0.9720 0.9720
3165.877707 0.9720 0.9719 0.9714 0.9710 0.9710
3170.280568 0.9710 0.9710 0.9710 0.9710 0.9710
3174.683430 0.9710 0.9710 0.9710 0.9710 0.9710
3179.086291 0.9708 0.9697 0.9689 0.9684 0.9680
3183.489152 0.9680 0.9680 0.9680 0.9680 0.9680
3187.892013 0.9680 0.9680 0.9680 0.9680 0.9680
3192.294874 0.9680 0.9680 0.9680 0.9678 0.9668
3196.697736 0.9660 0.9660 0.9660 0.9660 0.9660
3201.100597 0.9660 0.9660 0.9660 0.9660 0.9660
3205.503458 0.9660 0.9660 0.9660 0.9660 0.9662
3209.906319 0.9672 0.9680 0.9680 0.9678 0.9668
3214.309181 0.9660 0.9660 0.9660 0.9660 0.9660
3218.712042 0.9660 0.9660 0.9660 0.9660 0.9660
3223.114903 0.9660 0.9660 0.9660 0.9660 0.9660
3227.517764 0.9660 0.9660 0.9660 0.9660 0.9660
3231.920625 0.9662 0.9672 0.9680 0.9680 0.9680
3236.323487 0.9680 0.9680 0.9680 0.9681 0.9686
3240.726348 0.9690 0.9690 0.9690 0.9690 0.9690
3245.129209 0.9690 0.9690 0.9690 0.9690 0.9690
3249.532070 0.9690 0.9690 0.9692 0.9702 0.9710
3253.934932 0.9710 0.9710 0.9710 0.9710 0.9710
3258.337793 0.9710 0.9710 0.9710 0.9710 0.9710
3262.740654 0.9710 0.9711 0.9716 0.9720 0.9720
3267.143515 0.9720 0.9720 0.9720 0.9720 0.9720
3271.546376 0.9720 0.9720 0.9720 0.9720 0.9720
3275.949238 0.9720 0.9720 0.9720 0.9720 0.9720
3280.352099 0.9720 0.9720 0.9720 0.9720 0.9720
3284.754960 0.9720 0.9720 0.9720 0.9720 0.9720
3289.157821 0.9720 0.9720 0.9720 0.9720 0.9720
3293.560683 0.9720 0.9720 0.9720 0.9720 0.9720
3297.963544 0.9720 0.9720 0.9720 0.9720 0.9720
3302.366405 0.9719 0.9714 0.9710 0.9710 0.9710
3306.769266 0.9710 0.9710 0.9710 0.9710 0.9710
3311.172127 0.9708 0.9698 0.9690 0.9690 0.9690
3315.574989 0.9690 0.9690 0.9690 0.9690 0.9690
3319.977850 0.9689 0.9684 0.9680 0.9680 0.9680
3324.380711 0.9680 0.9680 0.9680 0.9680 0.9680
3328.783572 0.9680 0.9680 0.9678 0.9668 0.9660
3333.186434 0.9660 0.9660 0.9660 0.9659 0.9654
3337.589295 0.9650 0.9650 0.9650 0.9650 0.9649
3341.992156 0.9644 0.9640 0.9640 0.9638 0.9628
3346.395017 0.9620 0.9620 0.9620 0.9620 0.9620
3350.797878 0.9620 0.9620 0.9620 0.9619 0.9614
3355.200740 0.9610 0.9610 0.9610 0.9610 0.9609
3359.603601 0.9604 0.9600 0.9600 0.9600 0.9600
3364.006462 0.9599 0.9589 0.9580 0.9580 0.9580
3368.409323 0.9580 0.9579 0.9574 0.9570 0.9570
3372.812184 0.9570 0.9570 0.9569 0.9559 0.9550
3377.215046 0.9550 0.9550 0.9550 0.9550 0.9550
3381.617907 0.9550 0.9550 0.9550 0.9550 0.9549
3386.020768 0.9544 0.9540 0.9540 0.9540 0.9540
3390.423629 0.9540 0.9540 0.9540 0.9540 0.9540
3394.826491 0.9540 0.9539 0.9534 0.9530 0.9530
3399.229352 0.9530 0.9530 0.9530 0.9530 0.9530
3403.632213 0.9530 0.9530 0.9530 0.9530 0.9530
3408.035074 0.9530 0.9530 0.9530 0.9530 0.9530
3412.437935 0.9530 0.9530 0.9530 0.9530 0.9530
3416.840797 0.9530 0.9530 0.9531 0.9536 0.9540
3421.243658 0.9540 0.9540 0.9540 0.9540 0.9540
3425.646519 0.9540 0.9540 0.9540 0.9540 0.9540
3430.049380 0.9540 0.9540 0.9540 0.9540 0.9540
3434.452242 0.9540 0.9540 0.9540 0.9540 0.9540
3438.855103 0.9540 0.9540 0.9545 0.9550 0.9550
3443.257964 0.9550 0.9550 0.9551 0.9561 0.9570
3447.660825 0.9570 0.9570 0.9570 0.9570 0.9575
3452.063686 0.9580 0.9580 0.9580 0.9580 0.9581
3456.466548 0.9591 0.9600 0.9600 0.9600 0.9600
3460.869409 0.9600 0.9600 0.9600 0.9605 0.9610
3465.272270 0.9610 0.9610 0.9610 0.9610 0.9615
3469.675131 0.9620 0.9620 0.9620 0.9620 0.9621
3474.077993 0.9631 0.9640 0.9640 0.9640 0.9640
3478.480854 0.9640 0.9645 0.9650 0.9650 0.9650
3482.883715 0.9650 0.9650 0.9650 0.9650 0.9655
3487.286576 0.9660 0.9660 0.9661 0.9671 0.9680
3491.689437 0.9680 0.9680 0.9680 0.9680 0.9685
3496.092299 0.9690 0.9690 0.9691 0.9701 0.9710
3500.495160 0.9710 0.9710 0.9715 0.9720 0.9720
3504.898021 0.9720 0.9725 0.9730 0.9730 0.9730
3509.300882 0.9730 0.9730 0.9740 0.9750 0.9750
3513.703744 0.9750 0.9755 0.9760 0.9760 0.9760
3518.106605 0.9765 0.9770 0.9770 0.9770 0.9770
3522.509466 0.9770 0.9780 0.9790 0.9790 0.9790
3526.912327 0.9790 0.9790 0.9790 0.9790 0.9795
3531.315188 0.9800 0.9800 0.9800 0.9800 0.9800
3535.718050 0.9800 0.9800 0.9810 0.9820 0.9820
3540.120911 0.9820 0.9820 0.9820 0.9820 0.9820
3544.523772 0.9825 0.9830 0.9830 0.9830 0.9830
3548.926633 0.9830 0.9830 0.9830 0.9835 0.9840
3553.329494 0.9840 0.9840 0.9850 0.9860 0.9860
3557.732356 0.9860 0.9865 0.9870 0.9870 0.9870
3562.135217 0.9875 0.9880 0.9880 0.9880 0.9880
3566.538078 0.9880 0.9880 0.9880 0.9890 0.9900
3570.940939 0.9900 0.9900 0.9900 0.9900 0.9905
3575.343801 0.9910 0.9910 0.9910 0.9910 0.9910
3579.746662 0.9920 0.9930 0.9930 0.9930 0.9930
3584.149523 0.9930 0.9935 0.9940 0.9940 0.9940
3588.552384 0.9940 0.9940 0.9945 0.9950 0.9950
3592.955245 0.9950 0.9950 0.9950 0.9950 0.9950
3597.358107 0.9960 0.9970 0.9960 0.9950 0.9950
3601.760968 0.9950 0.9950 0.9950 0.9950 0.9950
3606.163829 0.9950 0.9950 0.9950 0.9950 0.9950
3610.566690 0.9950 0.9960 0.9970 0.9970 0.9970
3614.969552 0.9970 0.9970 0.9970 0.9970 0.9970
3619.372413 0.9970 0.9975 0.9980 0.9980 0.9980
3623.775274 0.9980 0.9980 0.9980 0.9980 0.9980
3628.178135 0.9980 0.9990 1.0000 1.0000 1.0000
3632.580996 1.0000 1.0000 1.0000 1.0000 1.0000
3636.983858 1.0000 1.0005 1.0010 1.0010 1.0010
3641.386719 1.0010 1.0010 1.0010 1.0010 1.0010
3645.789580 1.0010 1.0015 1.0020 1.0020 1.0020
3650.192441 1.0020 1.0020 1.0030 1.0040 1.0040
3654.595303 1.0040 1.0040 1.0040 1.0040 1.0040
3658.998164 1.0045 1.0050 1.0050 1.0050 1.0050
3663.401025 1.0050 1.0050 1.0050 1.0050 1.0050
3667.803886 1.0055 1.0060 1.0060 1.0060 1.0060
3672.206747 1.0060 1.0060 1.0060 1.0060 1.0060
3676.609609 1.0070 1.0080 1.0080 1.0080 1.0080
3681.012470 1.0080 1.0080 1.0080 1.0080 1.0080
3685.415331 1.0085 1.0090 1.0090 1.0090 1.0090
3689.818192 1.0090 1.0090 1.0090 1.0090 1.0090
3694.221054 1.0090 1.0090 1.0090 1.0090 1.0090
3698.623915 1.0090 1.0090 1.0090 1.0090 1.0090
3703.026776 1.0090 1.0090 1.0090 1.0090 1.0090
3707.429637 1.0090 1.0090 1.0090 1.0090 1.0090
3711.832498 1.0090 1.0090 1.0085 1.0080 1.0080
3716.235360 1.0080 1.0080 1.0080 1.0080 1.0080
3720.638221 1.0080 1.0080 1.0071 1.0061 1.0060
3725.041082 1.0060 1.0060 1.0060 1.0060 1.0060
3729.443943 1.0060 1.0060 1.0055 1.0050 1.0050
3733.846804 1.0050 1.0050 1.0050 1.0050 1.0050
3738.249666 1.0050 1.0050 1.0050 1.0050 1.0050
3742.652527 1.0050 1.0050 1.0050 1.0050 1.0050
3747.055388 1.0050 1.0050 1.0050 1.0050 1.0050
3751.458249 1.0050 1.0050 1.0050 1.0050 1.0050
3755.861111 1.0050 1.0050 1.0050 1.0050 1.0050
3760.263972 1.0050 1.0050 1.0050 1.0050 1.0050
3764.666833 1.0050 1.0050 1.0050 1.0050 1.0050
3769.069694 1.0050 1.0050 1.0050 1.0050 1.0050
3773.472555 1.0050 1.0050 1.0050 1.0050 1.0050
3777.875417 1.0050 1.0050 1.0050 1.0050 1.0050
3782.278278 1.0046 1.0041 1.0040 1.0040 1.0040
3786.681139 1.0040 1.0040 1.0040 1.0040 1.0040
3791.084000 1.0040 1.0040 1.0040 1.0040 1.0040
3795.486862 1.0040 1.0040 1.0040 1.0040 1.0040
##END=
