##TITLE=BENZIDINE SULFATE
##JCAMP-DX=4.24
$$ By DXEDIT 1.05 (RS McDonald)
##DATA TYPE=INFRARED SPECTRUM
##CLASS=COBLENTZ III
##ORIGIN=WYANDOTTE CHEMICALS CORP.
##OWNER=COBLENTZ SOC.
Collection (C) 2018 copyright by the U.S. Secretary of Commerce
on behalf of the United States of America. All rights reserved.
##DATE=1955/12/15
##NAMES=4,4'-DIAMINOBIPHENYL SULFATE
##MOLFORM=C12 H16 N2 O8 S2
##SOURCE REFERENCE=COBLENTZ NO. 05943
##$NIST ID=B6005943
##$NIST SOURCE=COBLENTZ
##$NIST IMAGE=cob5943
##SPECTROMETER/DATA SYSTEM=BAIRD (GRATING)
##INSTRUMENT PARAMETERS=NaCl PRISM
##STATE=SOLID (OIL MULL)
##PATH LENGTH=
$$SPECTRAL CONTAMINATION DUE TO OIL AROUND 2900 CM^-^1
##SAMPLING PROCEDURE=TRANSMISSION
##RESOLUTION=2
##DATA PROCESSING=DIGITIZED BY COBLENTZ SOCIETY (BATCH I) FROM HARD COPY
##XUNITS=1/CM
##YUNITS=TRANSMITTANCE
##XLABEL=Wavenumbers (cm-1)
##YLABEL=Transmittance
##XFACTOR=1
##YFACTOR=1
##DELTAX=1
##FIRSTX=4000
##LASTX=626
##FIRSTY=0.3722
##MAXX=4000
##MINX=626
##MAXY=0.9375
##MINY=0.0299
##NPOINTS=3375
##XYDATA=(X++(Y..Y))
4000.000000 0.3722 0.3721 0.3721 0.3721 0.3720
3995.000000 0.3720 0.3720 0.3718 0.3718 0.3716
3990.000000 0.3716 0.3714 0.3714 0.3712 0.3712
3985.000000 0.3710 0.3709 0.3709 0.3709 0.3708
3980.000000 0.3707 0.3706 0.3705 0.3704 0.3703
3975.000000 0.3702 0.3700 0.3700 0.3698 0.3697
3970.000000 0.3696 0.3694 0.3694 0.3694 0.3695
3965.000000 0.3695 0.3696 0.3696 0.3696 0.3697
3960.000000 0.3698 0.3698 0.3699 0.3700 0.3700
3955.000000 0.3702 0.3704 0.3707 0.3709 0.3710
3950.000000 0.3712 0.3716 0.3721 0.3725 0.3730
3945.000000 0.3734 0.3739 0.3743 0.3747 0.3750
3940.000000 0.3755 0.3759 0.3764 0.3768 0.3771
3935.000000 0.3775 0.3779 0.3782 0.3787 0.3791
3930.000000 0.3795 0.3799 0.3803 0.3808 0.3812
3925.000000 0.3816 0.3820 0.3825 0.3829 0.3834
3920.000000 0.3838 0.3842 0.3847 0.3850 0.3856
3915.000000 0.3859 0.3864 0.3870 0.3875 0.3882
3910.000000 0.3888 0.3895 0.3902 0.3908 0.3916
3905.000000 0.3924 0.3932 0.3940 0.3948 0.3957
3900.000000 0.3964 0.3973 0.3982 0.3991 0.3999
3895.000000 0.4008 0.4016 0.4018 0.4022 0.4025
3890.000000 0.4028 0.4030 0.4034 0.4038 0.4041
3885.000000 0.4045 0.4048 0.4050 0.4054 0.4057
3880.000000 0.4059 0.4062 0.4064 0.4068 0.4070
3875.000000 0.4072 0.4074 0.4076 0.4078 0.4080
3870.000000 0.4080 0.4082 0.4084 0.4086 0.4088
3865.000000 0.4090 0.4091 0.4093 0.4095 0.4097
3860.000000 0.4098 0.4100 0.4102 0.4102 0.4102
3855.000000 0.4102 0.4102 0.4102 0.4103 0.4103
3850.000000 0.4103 0.4103 0.4103 0.4103 0.4104
3845.000000 0.4104 0.4104 0.4104 0.4104 0.4104
3840.000000 0.4104 0.4104 0.4104 0.4104 0.4104
3835.000000 0.4104 0.4103 0.4103 0.4102 0.4102
3830.000000 0.4101 0.4101 0.4100 0.4100 0.4100
3825.000000 0.4099 0.4099 0.4099 0.4098 0.4098
3820.000000 0.4098 0.4097 0.4097 0.4097 0.4097
3815.000000 0.4097 0.4097 0.4098 0.4098 0.4098
3810.000000 0.4099 0.4099 0.4100 0.4100 0.4100
3805.000000 0.4101 0.4101 0.4102 0.4102 0.4103
3800.000000 0.4103 0.4104 0.4104 0.4105 0.4105
3795.000000 0.4106 0.4106 0.4107 0.4107 0.4108
3790.000000 0.4108 0.4109 0.4109 0.4110 0.4112
3785.000000 0.4116 0.4118 0.4120 0.4122 0.4124
3780.000000 0.4126 0.4128 0.4129 0.4131 0.4133
3775.000000 0.4135 0.4137 0.4139 0.4141 0.4143
3770.000000 0.4145 0.4147 0.4149 0.4151 0.4153
3765.000000 0.4155 0.4157 0.4159 0.4160 0.4162
3760.000000 0.4164 0.4166 0.4168 0.4170 0.4172
3755.000000 0.4174 0.4176 0.4178 0.4180 0.4182
3750.000000 0.4184 0.4186 0.4188 0.4190 0.4192
3745.000000 0.4194 0.4196 0.4198 0.4200 0.4201
3740.000000 0.4203 0.4205 0.4207 0.4209 0.4210
3735.000000 0.4212 0.4215 0.4217 0.4219 0.4221
3730.000000 0.4224 0.4226 0.4228 0.4231 0.4233
3725.000000 0.4236 0.4238 0.4241 0.4244 0.4246
3720.000000 0.4249 0.4252 0.4255 0.4257 0.4260
3715.000000 0.4262 0.4265 0.4268 0.4271 0.4274
3710.000000 0.4276 0.4279 0.4282 0.4285 0.4287
3705.000000 0.4290 0.4293 0.4295 0.4298 0.4301
3700.000000 0.4304 0.4306 0.4309 0.4312 0.4315
3695.000000 0.4317 0.4320 0.4323 0.4325 0.4328
3690.000000 0.4330 0.4332 0.4335 0.4337 0.4339
3685.000000 0.4342 0.4344 0.4346 0.4348 0.4350
3680.000000 0.4353 0.4355 0.4357 0.4359 0.4362
3675.000000 0.4364 0.4366 0.4368 0.4370 0.4373
3670.000000 0.4375 0.4377 0.4379 0.4382 0.4384
3665.000000 0.4386 0.4388 0.4391 0.4393 0.4395
3660.000000 0.4397 0.4399 0.4401 0.4403 0.4405
3655.000000 0.4407 0.4409 0.4410 0.4412 0.4414
3650.000000 0.4416 0.4417 0.4419 0.4420 0.4422
3645.000000 0.4423 0.4425 0.4427 0.4428 0.4430
3640.000000 0.4432 0.4434 0.4435 0.4437 0.4438
3635.000000 0.4440 0.4441 0.4443 0.4444 0.4446
3630.000000 0.4447 0.4449 0.4450 0.4452 0.4454
3625.000000 0.4455 0.4457 0.4459 0.4460 0.4462
3620.000000 0.4462 0.4465 0.4466 0.4468 0.4469
3615.000000 0.4471 0.4473 0.4474 0.4476 0.4477
3610.000000 0.4479 0.4480 0.4482 0.4483 0.4485
3605.000000 0.4486 0.4488 0.4489 0.4491 0.4493
3600.000000 0.4494 0.4496 0.4497 0.4499 0.4500
3595.000000 0.4502 0.4503 0.4505 0.4506 0.4508
3590.000000 0.4510 0.4510 0.4512 0.4514 0.4516
3585.000000 0.4517 0.4519 0.4520 0.4522 0.4524
3580.000000 0.4525 0.4527 0.4528 0.4530 0.4531
3575.000000 0.4532 0.4533 0.4535 0.4536 0.4537
3570.000000 0.4538 0.4539 0.4540 0.4541 0.4542
3565.000000 0.4543 0.4544 0.4545 0.4547 0.4548
3560.000000 0.4549 0.4550 0.4551 0.4553 0.4554
3555.000000 0.4555 0.4556 0.4557 0.4558 0.4559
3550.000000 0.4560 0.4560 0.4562 0.4562 0.4565
3545.000000 0.4566 0.4567 0.4568 0.4569 0.4571
3540.000000 0.4572 0.4573 0.4575 0.4576 0.4578
3535.000000 0.4579 0.4580 0.4581 0.4582 0.4584
3530.000000 0.4585 0.4586 0.4588 0.4589 0.4591
3525.000000 0.4592 0.4593 0.4594 0.4595 0.4597
3520.000000 0.4598 0.4600 0.4601 0.4602 0.4604
3515.000000 0.4605 0.4606 0.4607 0.4609 0.4610
3510.000000 0.4610 0.4612 0.4612 0.4615 0.4616
3505.000000 0.4617 0.4617 0.4618 0.4619 0.4620
3500.000000 0.4621 0.4622 0.4623 0.4624 0.4625
3495.000000 0.4626 0.4627 0.4627 0.4628 0.4629
3490.000000 0.4629 0.4630 0.4631 0.4631 0.4631
3485.000000 0.4631 0.4631 0.4631 0.4631 0.4630
3480.000000 0.4630 0.4630 0.4629 0.4629 0.4629
3475.000000 0.4629 0.4629 0.4629 0.4628 0.4628
3470.000000 0.4628 0.4628 0.4628 0.4627 0.4627
3465.000000 0.4626 0.4626 0.4626 0.4625 0.4624
3460.000000 0.4623 0.4622 0.4622 0.4621 0.4620
3455.000000 0.4619 0.4618 0.4617 0.4617 0.4616
3450.000000 0.4615 0.4614 0.4612 0.4612 0.4612
3445.000000 0.4610 0.4610 0.4610 0.4609 0.4608
3440.000000 0.4608 0.4607 0.4606 0.4605 0.4604
3435.000000 0.4602 0.4601 0.4599 0.4596 0.4593
3430.000000 0.4590 0.4588 0.4585 0.4582 0.4579
3425.000000 0.4576 0.4574 0.4571 0.4568 0.4565
3420.000000 0.4562 0.4557 0.4552 0.4547 0.4541
3415.000000 0.4537 0.4534 0.4531 0.4528 0.4526
3410.000000 0.4523 0.4522 0.4520 0.4518 0.4517
3405.000000 0.4515 0.4512 0.4510 0.4510 0.4508
3400.000000 0.4506 0.4504 0.4503 0.4501 0.4500
3395.000000 0.4499 0.4498 0.4497 0.4496 0.4496
3390.000000 0.4495 0.4494 0.4493 0.4492 0.4491
3385.000000 0.4491 0.4490 0.4490 0.4489 0.4488
3380.000000 0.4487 0.4486 0.4485 0.4484 0.4483
3375.000000 0.4483 0.4482 0.4481 0.4480 0.4479
3370.000000 0.4478 0.4477 0.4477 0.4476 0.4475
3365.000000 0.4475 0.4474 0.4473 0.4472 0.4471
3360.000000 0.4470 0.4470 0.4469 0.4468 0.4468
3355.000000 0.4467 0.4466 0.4466 0.4465 0.4464
3350.000000 0.4462 0.4462 0.4462 0.4460 0.4460
3345.000000 0.4460 0.4460 0.4460 0.4460 0.4460
3340.000000 0.4460 0.4460 0.4460 0.4459 0.4459
3335.000000 0.4459 0.4459 0.4459 0.4459 0.4459
3330.000000 0.4459 0.4459 0.4459 0.4459 0.4460
3325.000000 0.4460 0.4460 0.4460 0.4462 0.4462
3320.000000 0.4464 0.4464 0.4464 0.4465 0.4465
3315.000000 0.4466 0.4467 0.4468 0.4469 0.4470
3310.000000 0.4473 0.4476 0.4478 0.4481 0.4484
3305.000000 0.4487 0.4489 0.4492 0.4495 0.4497
3300.000000 0.4499 0.4502 0.4504 0.4505 0.4507
3295.000000 0.4509 0.4510 0.4512 0.4512 0.4515
3290.000000 0.4517 0.4518 0.4519 0.4519 0.4520
3285.000000 0.4521 0.4521 0.4521 0.4521 0.4521
3280.000000 0.4520 0.4519 0.4518 0.4517 0.4515
3275.000000 0.4514 0.4512 0.4510 0.4508 0.4506
3270.000000 0.4504 0.4502 0.4501 0.4498 0.4495
3265.000000 0.4492 0.4489 0.4486 0.4482 0.4478
3260.000000 0.4475 0.4471 0.4467 0.4462 0.4459
3255.000000 0.4455 0.4449 0.4442 0.4435 0.4429
3250.000000 0.4421 0.4414 0.4407 0.4399 0.4392
3245.000000 0.4385 0.4377 0.4370 0.4362 0.4354
3240.000000 0.4345 0.4337 0.4328 0.4319 0.4310
3235.000000 0.4300 0.4291 0.4282 0.4272 0.4262
3230.000000 0.4254 0.4244 0.4235 0.4226 0.4216
3225.000000 0.4205 0.4194 0.4182 0.4171 0.4159
3220.000000 0.4148 0.4136 0.4125 0.4114 0.4102
3215.000000 0.4091 0.4080 0.4068 0.4056 0.4043
3210.000000 0.4030 0.4018 0.4006 0.3993 0.3980
3205.000000 0.3968 0.3955 0.3943 0.3930 0.3916
3200.000000 0.3903 0.3890 0.3876 0.3862 0.3849
3195.000000 0.3834 0.3821 0.3807 0.3793 0.3779
3190.000000 0.3764 0.3752 0.3737 0.3722 0.3707
3185.000000 0.3692 0.3675 0.3657 0.3640 0.3622
3180.000000 0.3605 0.3587 0.3570 0.3552 0.3534
3175.000000 0.3516 0.3499 0.3482 0.3460 0.3439
3170.000000 0.3416 0.3395 0.3372 0.3349 0.3325
3165.000000 0.3302 0.3284 0.3270 0.3257 0.3243
3160.000000 0.3230 0.3218 0.3207 0.3196 0.3184
3155.000000 0.3172 0.3160 0.3148 0.3135 0.3124
3150.000000 0.3112 0.3100 0.3088 0.3076 0.3064
3145.000000 0.3053 0.3041 0.3029 0.3017 0.3005
3140.000000 0.2993 0.2982 0.2970 0.2958 0.2946
3135.000000 0.2934 0.2922 0.2911 0.2899 0.2887
3130.000000 0.2875 0.2863 0.2850 0.2838 0.2826
3125.000000 0.2814 0.2801 0.2788 0.2776 0.2763
3120.000000 0.2751 0.2738 0.2725 0.2713 0.2700
3115.000000 0.2688 0.2675 0.2662 0.2648 0.2634
3110.000000 0.2621 0.2606 0.2590 0.2573 0.2557
3105.000000 0.2541 0.2525 0.2509 0.2493 0.2476
3100.000000 0.2460 0.2444 0.2427 0.2412 0.2397
3095.000000 0.2382 0.2367 0.2358 0.2350 0.2341
3090.000000 0.2332 0.2324 0.2315 0.2307 0.2298
3085.000000 0.2289 0.2281 0.2272 0.2263 0.2254
3080.000000 0.2246 0.2237 0.2228 0.2220 0.2211
3075.000000 0.2202 0.2193 0.2184 0.2176 0.2167
3070.000000 0.2159 0.2150 0.2141 0.2131 0.2121
3065.000000 0.2111 0.2100 0.2089 0.2078 0.2067
3060.000000 0.2056 0.2044 0.2033 0.2022 0.2011
3055.000000 0.2000 0.1989 0.1978 0.1969 0.1961
3050.000000 0.1954 0.1945 0.1939 0.1933 0.1927
3045.000000 0.1920 0.1914 0.1907 0.1901 0.1894
3040.000000 0.1889 0.1884 0.1879 0.1874 0.1870
3035.000000 0.1865 0.1861 0.1856 0.1851 0.1846
3030.000000 0.1842 0.1835 0.1829 0.1824 0.1816
3025.000000 0.1807 0.1798 0.1789 0.1779 0.1771
3020.000000 0.1762 0.1754 0.1744 0.1734 0.1726
3015.000000 0.1714 0.1699 0.1684 0.1671 0.1656
3010.000000 0.1642 0.1627 0.1613 0.1601 0.1589
3005.000000 0.1577 0.1564 0.1550 0.1536 0.1519
3000.000000 0.1489 0.1458 0.1428 0.1404 0.1386
2995.000000 0.1368 0.1349 0.1331 0.1312 0.1292
2990.000000 0.1275 0.1256 0.1238 0.1219 0.1201
2985.000000 0.1182 0.1164 0.1145 0.1126 0.1107
2980.000000 0.1088 0.1070 0.1051 0.1033 0.1014
2975.000000 0.0995 0.0976 0.0958 0.0939 0.0921
2970.000000 0.0902 0.0883 0.0864 0.0845 0.0826
2965.000000 0.0807 0.0788 0.0770 0.0751 0.0732
2960.000000 0.0713 0.0694 0.0675 0.0656 0.0637
2955.000000 0.0618 0.0599 0.0580 0.0561 0.0542
2950.000000 0.0523 0.0504 0.0485 0.0466 0.0447
2945.000000 0.0427 0.0408 0.0389 0.0370 0.0353
2940.000000 0.0345 0.0336 0.0328 0.0323 0.0318
2935.000000 0.0314 0.0311 0.0310 0.0309 0.0308
2930.000000 0.0307 0.0305 0.0304 0.0303 0.0303
2925.000000 0.0302 0.0302 0.0301 0.0300 0.0300
2920.000000 0.0299 0.0299 0.0299 0.0299 0.0302
2915.000000 0.0305 0.0308 0.0310 0.0313 0.0316
2910.000000 0.0318 0.0322 0.0326 0.0329 0.0334
2905.000000 0.0338 0.0342 0.0346 0.0350 0.0354
2900.000000 0.0358 0.0362 0.0365 0.0368 0.0373
2895.000000 0.0376 0.0380 0.0383 0.0386 0.0390
2890.000000 0.0393 0.0396 0.0400 0.0403 0.0405
2885.000000 0.0406 0.0407 0.0408 0.0409 0.0411
2880.000000 0.0412 0.0413 0.0414 0.0415 0.0416
2875.000000 0.0417 0.0417 0.0417 0.0417 0.0417
2870.000000 0.0419 0.0419 0.0419 0.0419 0.0421
2865.000000 0.0421 0.0423 0.0423 0.0425 0.0427
2860.000000 0.0427 0.0430 0.0431 0.0433 0.0438
2855.000000 0.0442 0.0447 0.0454 0.0462 0.0469
2850.000000 0.0477 0.0485 0.0493 0.0501 0.0509
2845.000000 0.0517 0.0526 0.0548 0.0569 0.0590
2840.000000 0.0633 0.0678 0.0723 0.0770 0.0818
2835.000000 0.0866 0.0925 0.0997 0.1071 0.1139
2830.000000 0.1198 0.1256 0.1314 0.1356 0.1398
2825.000000 0.1441 0.1470 0.1496 0.1524 0.1549
2820.000000 0.1573 0.1598 0.1620 0.1637 0.1657
2815.000000 0.1675 0.1694 0.1713 0.1731 0.1748
2810.000000 0.1765 0.1781 0.1794 0.1807 0.1820
2805.000000 0.1833 0.1845 0.1859 0.1872 0.1884
2800.000000 0.1898 0.1911 0.1924 0.1936 0.1949
2795.000000 0.1961 0.1973 0.1984 0.1995 0.2008
2790.000000 0.2020 0.2031 0.2043 0.2054 0.2066
2785.000000 0.2077 0.2089 0.2099 0.2109 0.2118
2780.000000 0.2127 0.2135 0.2145 0.2154 0.2163
2775.000000 0.2172 0.2181 0.2189 0.2198 0.2207
2770.000000 0.2216 0.2225 0.2232 0.2237 0.2243
2765.000000 0.2248 0.2254 0.2259 0.2265 0.2270
2760.000000 0.2276 0.2282 0.2287 0.2292 0.2298
2755.000000 0.2303 0.2309 0.2315 0.2322 0.2328
2750.000000 0.2334 0.2340 0.2346 0.2352 0.2358
2745.000000 0.2365 0.2370 0.2374 0.2378 0.2382
2740.000000 0.2384 0.2384 0.2387 0.2389 0.2390
2735.000000 0.2392 0.2394 0.2395 0.2397 0.2399
2730.000000 0.2400 0.2401 0.2401 0.2401 0.2400
2725.000000 0.2399 0.2398 0.2397 0.2396 0.2395
2720.000000 0.2394 0.2393 0.2392 0.2391 0.2390
2715.000000 0.2389 0.2388 0.2387 0.2385 0.2384
2710.000000 0.2383 0.2382 0.2381 0.2380 0.2379
2705.000000 0.2378 0.2376 0.2375 0.2373 0.2370
2700.000000 0.2367 0.2364 0.2361 0.2358 0.2353
2695.000000 0.2347 0.2342 0.2332 0.2323 0.2313
2690.000000 0.2304 0.2294 0.2285 0.2283 0.2280
2685.000000 0.2278 0.2275 0.2272 0.2270 0.2267
2680.000000 0.2265 0.2263 0.2262 0.2261 0.2260
2675.000000 0.2259 0.2258 0.2257 0.2256 0.2256
2670.000000 0.2255 0.2253 0.2252 0.2251 0.2250
2665.000000 0.2249 0.2248 0.2246 0.2243 0.2237
2660.000000 0.2231 0.2225 0.2220 0.2214 0.2208
2655.000000 0.2202 0.2196 0.2190 0.2184 0.2179
2650.000000 0.2173 0.2167 0.2161 0.2151 0.2142
2645.000000 0.2133 0.2124 0.2115 0.2106 0.2097
2640.000000 0.2087 0.2078 0.2069 0.2060 0.2051
2635.000000 0.2042 0.2033 0.2024 0.2014 0.2004
2630.000000 0.1995 0.1985 0.1977 0.1968 0.1959
2625.000000 0.1950 0.1940 0.1931 0.1922 0.1913
2620.000000 0.1906 0.1900 0.1894 0.1886 0.1881
2615.000000 0.1874 0.1868 0.1862 0.1854 0.1849
2610.000000 0.1843 0.1837 0.1833 0.1829 0.1825
2605.000000 0.1821 0.1817 0.1813 0.1810 0.1806
2600.000000 0.1802 0.1798 0.1794 0.1791 0.1787
2595.000000 0.1786 0.1785 0.1784 0.1784 0.1783
2590.000000 0.1782 0.1781 0.1779 0.1778 0.1777
2585.000000 0.1775 0.1774 0.1773 0.1772 0.1771
2580.000000 0.1770 0.1770 0.1770 0.1770 0.1770
2575.000000 0.1770 0.1770 0.1770 0.1770 0.1770
2570.000000 0.1770 0.1770 0.1770 0.1770 0.1770
2565.000000 0.1770 0.1771 0.1771 0.1771 0.1771
2560.000000 0.1771 0.1771 0.1771 0.1773 0.1774
2555.000000 0.1775 0.1777 0.1778 0.1779 0.1781
2550.000000 0.1782 0.1784 0.1784 0.1786 0.1787
2545.000000 0.1789 0.1791 0.1792 0.1793 0.1794
2540.000000 0.1798 0.1801 0.1804 0.1808 0.1812
2535.000000 0.1815 0.1819 0.1822 0.1826 0.1829
2530.000000 0.1834 0.1837 0.1842 0.1845 0.1850
2525.000000 0.1853 0.1857 0.1861 0.1867 0.1873
2520.000000 0.1879 0.1884 0.1891 0.1896 0.1904
2515.000000 0.1910 0.1916 0.1923 0.1929 0.1934
2510.000000 0.1942 0.1948 0.1954 0.1961 0.1967
2505.000000 0.1974 0.1979 0.1985 0.1993 0.1999
2500.000000 0.2006 0.2012 0.2018 0.2025 0.2032
2495.000000 0.2039 0.2044 0.2052 0.2059 0.2066
2490.000000 0.2073 0.2080 0.2085 0.2093 0.2100
2485.000000 0.2107 0.2114 0.2121 0.2128 0.2134
2480.000000 0.2142 0.2149 0.2155 0.2163 0.2171
2475.000000 0.2179 0.2187 0.2195 0.2203 0.2211
2470.000000 0.2219 0.2228 0.2235 0.2244 0.2252
2465.000000 0.2260 0.2269 0.2277 0.2284 0.2293
2460.000000 0.2302 0.2310 0.2318 0.2327 0.2334
2455.000000 0.2343 0.2351 0.2360 0.2369 0.2378
2450.000000 0.2387 0.2397 0.2406 0.2415 0.2424
2445.000000 0.2433 0.2442 0.2451 0.2460 0.2469
2440.000000 0.2478 0.2488 0.2497 0.2506 0.2517
2435.000000 0.2528 0.2539 0.2549 0.2560 0.2572
2430.000000 0.2583 0.2594 0.2606 0.2616 0.2627
2425.000000 0.2638 0.2648 0.2659 0.2669 0.2680
2420.000000 0.2690 0.2700 0.2710 0.2721 0.2732
2415.000000 0.2742 0.2753 0.2763 0.2773 0.2783
2410.000000 0.2794 0.2805 0.2815 0.2825 0.2834
2405.000000 0.2846 0.2856 0.2866 0.2877 0.2887
2400.000000 0.2897 0.2907 0.2918 0.2930 0.2941
2395.000000 0.2953 0.2965 0.2977 0.2989 0.3000
2390.000000 0.3013 0.3032 0.3051 0.3071 0.3091
2385.000000 0.3108 0.3122 0.3135 0.3146 0.3156
2380.000000 0.3166 0.3175 0.3184 0.3196 0.3204
2375.000000 0.3209 0.3216 0.3220 0.3223 0.3227
2370.000000 0.3230 0.3234 0.3238 0.3240 0.3242
2365.000000 0.3244 0.3245 0.3246 0.3248 0.3250
2360.000000 0.3252 0.3254 0.3256 0.3258 0.3259
2355.000000 0.3262 0.3266 0.3268 0.3272 0.3275
2350.000000 0.3278 0.3280 0.3284 0.3289 0.3294
2345.000000 0.3300 0.3309 0.3318 0.3328 0.3338
2340.000000 0.3347 0.3357 0.3366 0.3377 0.3387
2335.000000 0.3397 0.3407 0.3414 0.3422 0.3430
2330.000000 0.3437 0.3444 0.3452 0.3459 0.3466
2325.000000 0.3474 0.3480 0.3489 0.3496 0.3503
2320.000000 0.3510 0.3518 0.3526 0.3534 0.3542
2315.000000 0.3549 0.3557 0.3564 0.3572 0.3579
2310.000000 0.3587 0.3595 0.3604 0.3612 0.3622
2305.000000 0.3630 0.3640 0.3649 0.3659 0.3668
2300.000000 0.3677 0.3686 0.3695 0.3704 0.3714
2295.000000 0.3723 0.3732 0.3742 0.3754 0.3768
2290.000000 0.3782 0.3798 0.3814 0.3829 0.3844
2285.000000 0.3859 0.3875 0.3890 0.3905 0.3921
2280.000000 0.3936 0.3952 0.3966 0.3982 0.3996
2275.000000 0.4010 0.4026 0.4041 0.4055 0.4070
2270.000000 0.4084 0.4101 0.4115 0.4130 0.4144
2265.000000 0.4159 0.4173 0.4185 0.4197 0.4209
2260.000000 0.4221 0.4234 0.4246 0.4258 0.4271
2255.000000 0.4283 0.4296 0.4308 0.4321 0.4333
2250.000000 0.4345 0.4358 0.4370 0.4382 0.4395
2245.000000 0.4407 0.4420 0.4432 0.4444 0.4457
2240.000000 0.4470 0.4483 0.4498 0.4515 0.4533
2235.000000 0.4551 0.4568 0.4580 0.4591 0.4602
2230.000000 0.4612 0.4624 0.4635 0.4646 0.4657
2225.000000 0.4662 0.4670 0.4676 0.4683 0.4690
2220.000000 0.4696 0.4702 0.4708 0.4715 0.4721
2215.000000 0.4727 0.4733 0.4739 0.4745 0.4750
2210.000000 0.4755 0.4760 0.4764 0.4768 0.4771
2205.000000 0.4774 0.4777 0.4780 0.4783 0.4787
2200.000000 0.4794 0.4802 0.4810 0.4820 0.4829
2195.000000 0.4838 0.4850 0.4862 0.4877 0.4891
2190.000000 0.4905 0.4918 0.4925 0.4932 0.4938
2185.000000 0.4943 0.4948 0.4953 0.4957 0.4960
2180.000000 0.4962 0.4964 0.4966 0.4968 0.4969
2175.000000 0.4971 0.4973 0.4975 0.4978 0.4979
2170.000000 0.4981 0.4983 0.4985 0.4987 0.4989
2165.000000 0.4993 0.4998 0.5002 0.5006 0.5010
2160.000000 0.5015 0.5019 0.5023 0.5027 0.5031
2155.000000 0.5036 0.5041 0.5048 0.5057 0.5066
2150.000000 0.5075 0.5084 0.5093 0.5102 0.5110
2145.000000 0.5120 0.5129 0.5136 0.5143 0.5150
2140.000000 0.5157 0.5165 0.5171 0.5177 0.5180
2135.000000 0.5181 0.5183 0.5184 0.5185 0.5187
2130.000000 0.5189 0.5190 0.5192 0.5194 0.5195
2125.000000 0.5197 0.5199 0.5199 0.5199 0.5198
2120.000000 0.5197 0.5195 0.5194 0.5193 0.5191
2115.000000 0.5189 0.5188 0.5187 0.5185 0.5184
2110.000000 0.5183 0.5182 0.5181 0.5180 0.5179
2105.000000 0.5178 0.5177 0.5176 0.5175 0.5174
2100.000000 0.5173 0.5171 0.5171 0.5170 0.5169
2095.000000 0.5168 0.5167 0.5166 0.5164 0.5162
2090.000000 0.5162 0.5162 0.5162 0.5162 0.5162
2085.000000 0.5162 0.5162 0.5164 0.5164 0.5165
2080.000000 0.5166 0.5167 0.5168 0.5175 0.5181
2075.000000 0.5187 0.5193 0.5198 0.5201 0.5202
2070.000000 0.5202 0.5202 0.5202 0.5203 0.5206
2065.000000 0.5212 0.5218 0.5224 0.5230 0.5236
2060.000000 0.5241 0.5247 0.5251 0.5254 0.5256
2055.000000 0.5259 0.5260 0.5260 0.5262 0.5262
2050.000000 0.5265 0.5266 0.5266 0.5267 0.5268
2045.000000 0.5272 0.5277 0.5283 0.5289 0.5295
2040.000000 0.5303 0.5310 0.5319 0.5327 0.5335
2035.000000 0.5343 0.5351 0.5359 0.5368 0.5375
2030.000000 0.5383 0.5392 0.5401 0.5410 0.5420
2025.000000 0.5429 0.5438 0.5448 0.5457 0.5467
2020.000000 0.5476 0.5486 0.5495 0.5504 0.5514
2015.000000 0.5523 0.5532 0.5541 0.5551 0.5560
2010.000000 0.5568 0.5578 0.5587 0.5596 0.5605
2005.000000 0.5615 0.5623 0.5631 0.5638 0.5645
2000.000000 0.5652 0.5658 0.5665 0.5672 0.5680
1995.000000 0.5687 0.5694 0.5701 0.5708 0.5715
1990.000000 0.5722 0.5729 0.5736 0.5744 0.5752
1985.000000 0.5760 0.5770 0.5779 0.5789 0.5798
1980.000000 0.5808 0.5818 0.5829 0.5840 0.5852
1975.000000 0.5862 0.5875 0.5886 0.5898 0.5910
1970.000000 0.5921 0.5931 0.5941 0.5951 0.5960
1965.000000 0.5969 0.5979 0.5989 0.5999 0.6008
1960.000000 0.6018 0.6028 0.6039 0.6056 0.6074
1955.000000 0.6092 0.6110 0.6129 0.6149 0.6171
1950.000000 0.6196 0.6221 0.6246 0.6272 0.6297
1945.000000 0.6319 0.6340 0.6360 0.6381 0.6401
1940.000000 0.6421 0.6441 0.6458 0.6476 0.6494
1935.000000 0.6511 0.6528 0.6543 0.6557 0.6571
1930.000000 0.6586 0.6600 0.6611 0.6624 0.6637
1925.000000 0.6651 0.6665 0.6680 0.6688 0.6695
1920.000000 0.6701 0.6707 0.6711 0.6714 0.6717
1915.000000 0.6718 0.6721 0.6721 0.6721 0.6719
1910.000000 0.6719 0.6707 0.6690 0.6671 0.6648
1905.000000 0.6631 0.6619 0.6618 0.6618 0.6618
1900.000000 0.6618 0.6621 0.6626 0.6635 0.6643
1895.000000 0.6651 0.6658 0.6672 0.6688 0.6703
1890.000000 0.6717 0.6732 0.6746 0.6761 0.6778
1885.000000 0.6796 0.6812 0.6830 0.6847 0.6865
1880.000000 0.6882 0.6900 0.6918 0.6940 0.6961
1875.000000 0.6984 0.7005 0.7025 0.7045 0.7062
1870.000000 0.7080 0.7098 0.7115 0.7132 0.7148
1865.000000 0.7164 0.7180 0.7197 0.7212 0.7228
1860.000000 0.7242 0.7257 0.7268 0.7275 0.7275
1855.000000 0.7275 0.7272 0.7267 0.7258 0.7249
1850.000000 0.7241 0.7235 0.7228 0.7221 0.7217
1845.000000 0.7218 0.7218 0.7221 0.7225 0.7228
1840.000000 0.7233 0.7237 0.7241 0.7246 0.7251
1835.000000 0.7256 0.7261 0.7267 0.7274 0.7283
1830.000000 0.7291 0.7300 0.7308 0.7318 0.7326
1825.000000 0.7336 0.7345 0.7354 0.7362 0.7371
1820.000000 0.7381 0.7390 0.7400 0.7410 0.7419
1815.000000 0.7428 0.7439 0.7449 0.7458 0.7468
1810.000000 0.7478 0.7488 0.7495 0.7501 0.7508
1805.000000 0.7514 0.7515 0.7518 0.7521 0.7522
1800.000000 0.7524 0.7525 0.7528 0.7531 0.7532
1795.000000 0.7533 0.7533 0.7533 0.7533 0.7533
1790.000000 0.7534 0.7535 0.7536 0.7536 0.7537
1785.000000 0.7539 0.7540 0.7541 0.7542 0.7549
1780.000000 0.7555 0.7561 0.7568 0.7575 0.7583
1775.000000 0.7591 0.7599 0.7608 0.7618 0.7622
1770.000000 0.7625 0.7626 0.7626 0.7617 0.7606
1765.000000 0.7595 0.7583 0.7571 0.7567 0.7565
1760.000000 0.7565 0.7565 0.7565 0.7567 0.7569
1755.000000 0.7571 0.7572 0.7575 0.7576 0.7595
1750.000000 0.7581 0.7581 0.7582 0.7583 0.7583
1745.000000 0.7583 0.7582 0.7582 0.7580 0.7574
1740.000000 0.7565 0.7558 0.7549 0.7539 0.7526
1735.000000 0.7515 0.7501 0.7493 0.7487 0.7487
1730.000000 0.7487 0.7497 0.7507 0.7515 0.7525
1725.000000 0.7534 0.7543 0.7551 0.7561 0.7569
1720.000000 0.7575 0.7574 0.7567 0.7554 0.7538
1715.000000 0.7521 0.7505 0.7488 0.7469 0.7453
1710.000000 0.7436 0.7418 0.7401 0.7378 0.7349
1705.000000 0.7319 0.7291 0.7255 0.7198 0.7161
1700.000000 0.7132 0.7104 0.7075 0.7046 0.7017
1695.000000 0.6997 0.6996 0.6996 0.6998 0.7000
1690.000000 0.7000 0.7000 0.6998 0.6998 0.6996
1685.000000 0.6995 0.6993 0.6988 0.6978 0.6969
1680.000000 0.6961 0.6953 0.6937 0.6915 0.6894
1675.000000 0.6868 0.6842 0.6815 0.6786 0.6751
1670.000000 0.6705 0.6658 0.6614 0.6578 0.6545
1665.000000 0.6511 0.6478 0.6444 0.6401 0.6329
1660.000000 0.6257 0.6193 0.6147 0.6102 0.6057
1655.000000 0.5993 0.5908 0.5819 0.5742 0.5673
1650.000000 0.5607 0.5553 0.5503 0.5452 0.5402
1645.000000 0.5347 0.5281 0.5210 0.5102 0.4947
1640.000000 0.4789 0.4657 0.4532 0.4402 0.4271
1635.000000 0.4140 0.4009 0.3878 0.3747 0.3614
1630.000000 0.3484 0.3352 0.3232 0.3232 0.3232
1625.000000 0.3288 0.3398 0.3509 0.3623 0.3734
1620.000000 0.3847 0.3959 0.4126 0.4126 0.4125
1615.000000 0.4096 0.4000 0.3904 0.3807 0.3709
1610.000000 0.3612 0.3516 0.3442 0.3420 0.3416
1605.000000 0.3432 0.3503 0.3600 0.3696 0.3792
1600.000000 0.3889 0.3986 0.4082 0.4180 0.4277
1595.000000 0.4374 0.4471 0.4569 0.4666 0.4764
1590.000000 0.4846 0.4882 0.4888 0.4906 0.4883
1585.000000 0.4864 0.4835 0.4799 0.4748 0.4674
1580.000000 0.4590 0.4507 0.4444 0.4386 0.4323
1575.000000 0.4246 0.4166 0.4088 0.4016 0.3960
1570.000000 0.3918 0.3887 0.3864 0.3852 0.3842
1565.000000 0.3843 0.3850 0.3860 0.3874 0.3887
1560.000000 0.3899 0.3909 0.3918 0.3923 0.3927
1555.000000 0.3930 0.3937 0.3907 0.3873 0.3836
1550.000000 0.3797 0.3768 0.3714 0.3730 0.3725
1545.000000 0.3721 0.3718 0.3718 0.3745 0.3853
1540.000000 0.4010 0.4169 0.4328 0.4487 0.4646
1535.000000 0.4805 0.4964 0.5124 0.5284 0.5444
1530.000000 0.5605 0.5765 0.5925 0.5907 0.5876
1525.000000 0.5714 0.5467 0.5219 0.4971 0.4723
1520.000000 0.4474 0.4225 0.3976 0.3725 0.3475
1515.000000 0.3237 0.3106 0.3105 0.3104 0.3117
1510.000000 0.3194 0.3312 0.3432 0.3554 0.3675
1505.000000 0.3796 0.3916 0.4039 0.4160 0.4282
1500.000000 0.4404 0.4525 0.4648 0.4770 0.4893
1495.000000 0.5012 0.5097 0.5119 0.5131 0.5123
1490.000000 0.5143 0.5142 0.5139 0.5110 0.5012
1485.000000 0.4848 0.4683 0.4517 0.4351 0.4185
1480.000000 0.4018 0.3852 0.3686 0.3518 0.3399
1475.000000 0.3348 0.3326 0.3321 0.3312 0.3312
1470.000000 0.3316 0.3325 0.3350 0.3387 0.3444
1465.000000 0.3514 0.3627 0.3756 0.3886 0.4014
1460.000000 0.4145 0.4274 0.4404 0.4534 0.4664
1455.000000 0.4795 0.4925 0.5056 0.5187 0.5318
1450.000000 0.5447 0.5550 0.5645 0.5775 0.5885
1445.000000 0.5979 0.6072 0.6166 0.6259 0.6354
1440.000000 0.6448 0.6542 0.6637 0.6731 0.6825
1435.000000 0.6919 0.7015 0.7110 0.7184 0.7226
1430.000000 0.7268 0.7308 0.7341 0.7368 0.7398
1425.000000 0.7521 0.7462 0.7490 0.7506 0.7508
1420.000000 0.7501 0.7492 0.7482 0.7471 0.7458
1415.000000 0.7447 0.7380 0.7425 0.7417 0.7415
1410.000000 0.7418 0.7421 0.7426 0.7434 0.7443
1405.000000 0.7454 0.7468 0.7481 0.7489 0.7494
1400.000000 0.7495 0.7496 0.7487 0.7453 0.7342
1395.000000 0.7207 0.7071 0.6936 0.6800 0.6664
1390.000000 0.6528 0.6391 0.6254 0.6117 0.5980
1385.000000 0.5843 0.5705 0.5601 0.5576 0.5619
1380.000000 0.5744 0.5903 0.6062 0.6223 0.6383
1375.000000 0.6543 0.6680 0.6764 0.6838 0.6912
1370.000000 0.6987 0.7071 0.7164 0.7253 0.7335
1365.000000 0.7411 0.7478 0.7522 0.7562 0.7599
1360.000000 0.7622 0.7645 0.7664 0.7675 0.7686
1355.000000 0.7697 0.7707 0.7715 0.7724 0.7733
1350.000000 0.7742 0.7750 0.7755 0.7760 0.7765
1345.000000 0.7771 0.7775 0.7778 0.7780 0.7784
1340.000000 0.7787 0.7790 0.7791 0.7772 0.7795
1335.000000 0.7795 0.7795 0.7714 0.7533 0.7351
1330.000000 0.7169 0.6988 0.6806 0.6622 0.6440
1325.000000 0.6283 0.6305 0.6352 0.6578 0.6846
1320.000000 0.7112 0.7380 0.7649 0.7803 0.7849
1315.000000 0.7885 0.7915 0.7941 0.7961 0.7981
1310.000000 0.7993 0.8003 0.8019 0.8014 0.8011
1305.000000 0.8003 0.7978 0.7944 0.7901 0.7735
1300.000000 0.7808 0.7780 0.7767 0.7765 0.7796
1295.000000 0.7847 0.7924 0.7975 0.8018 0.8061
1290.000000 0.8101 0.8139 0.8175 0.8200 0.8223
1285.000000 0.8232 0.8231 0.8228 0.8218 0.8210
1280.000000 0.8201 0.8191 0.8178 0.8168 0.8158
1275.000000 0.8147 0.8137 0.8125 0.8117 0.8115
1270.000000 0.8121 0.8134 0.8148 0.8161 0.8168
1265.000000 0.8172 0.8164 0.8147 0.8130 0.8111
1260.000000 0.8092 0.8071 0.8047 0.8019 0.7993
1255.000000 0.7965 0.7940 0.7910 0.7874 0.7839
1250.000000 0.7806 0.7772 0.7743 0.7730 0.7717
1245.000000 0.7701 0.7684 0.7665 0.7644 0.7622
1240.000000 0.7593 0.7557 0.7521 0.7486 0.7447
1235.000000 0.7408 0.7368 0.7333 0.7298 0.7261
1230.000000 0.7225 0.7187 0.7149 0.7110 0.7064
1225.000000 0.7015 0.6971 0.6938 0.6919 0.6917
1220.000000 0.6960 0.7007 0.7034 0.7024 0.7003
1215.000000 0.6944 0.6894 0.6851 0.6781 0.6717
1210.000000 0.6653 0.6588 0.6524 0.6458 0.6395
1205.000000 0.6330 0.6265 0.6200 0.6136 0.6070
1200.000000 0.6005 0.5946 0.5944 0.5944 0.5951
1195.000000 0.5966 0.5985 0.6007 0.6028 0.6046
1190.000000 0.6059 0.6057 0.6050 0.6022 0.5995
1185.000000 0.5960 0.5924 0.5892 0.5862 0.5834
1180.000000 0.5824 0.5812 0.5792 0.5754 0.5705
1175.000000 0.5646 0.5571 0.5485 0.5374 0.5243
1170.000000 0.5060 0.4714 0.4417 0.4262 0.4130
1165.000000 0.4007 0.3886 0.3764 0.3644 0.3523
1160.000000 0.3380 0.3066 0.2878 0.2613 0.2434
1155.000000 0.2308 0.2220 0.2130 0.2041 0.1950
1150.000000 0.1864 0.1778 0.1710 0.1644 0.1583
1145.000000 0.1536 0.1490 0.1442 0.1400 0.1359
1140.000000 0.1322 0.1288 0.1254 0.1227 0.1203
1135.000000 0.1180 0.1188 0.1199 0.1234 0.1270
1130.000000 0.1323 0.1380 0.1436 0.1495 0.1568
1125.000000 0.1641 0.1712 0.1757 0.1798 0.1832
1120.000000 0.1865 0.1884 0.1906 0.1986 0.1940
1115.000000 0.1927 0.1887 0.1848 0.1814 0.1782
1110.000000 0.1753 0.1729 0.1729 0.1729 0.1698
1105.000000 0.1648 0.1583 0.1520 0.1456 0.1395
1100.000000 0.1351 0.1330 0.1321 0.1300 0.1252
1095.000000 0.1196 0.1171 0.1163 0.1157 0.1153
1090.000000 0.1148 0.1135 0.1120 0.1052 0.1096
1085.000000 0.1086 0.1080 0.1119 0.1162 0.1196
1080.000000 0.1233 0.1261 0.1282 0.1302 0.1322
1075.000000 0.1337 0.1348 0.1359 0.1370 0.1384
1070.000000 0.1398 0.1412 0.1440 0.1480 0.1521
1065.000000 0.1579 0.1636 0.1694 0.1758 0.1829
1060.000000 0.1902 0.1974 0.2046 0.2123 0.2212
1055.000000 0.2322 0.2391 0.2437 0.2463 0.2484
1050.000000 0.2502 0.2520 0.2545 0.2584 0.2576
1045.000000 0.2539 0.2472 0.2399 0.2339 0.2301
1040.000000 0.2262 0.2224 0.2182 0.2137 0.2089
1035.000000 0.2031 0.1971 0.1910 0.1849 0.1787
1030.000000 0.1727 0.1666 0.1607 0.1498 0.1326
1025.000000 0.1325 0.1330 0.1368 0.1412 0.1424
1020.000000 0.1405 0.1386 0.1400 0.1452 0.1518
1015.000000 0.1596 0.1686 0.1777 0.1866 0.1945
1010.000000 0.2025 0.2120 0.2237 0.2387 0.2541
1005.000000 0.2695 0.2845 0.2993 0.3126 0.3250
1000.000000 0.3374 0.3510 0.3671 0.3825 0.3964
995.000000 0.4105 0.4258 0.4412 0.4571 0.4710
990.000000 0.4824 0.4924 0.5006 0.5094 0.5191
985.000000 0.5295 0.5378 0.5441 0.5505 0.5568
980.000000 0.5633 0.5703 0.5774 0.5830 0.5865
975.000000 0.5875 0.5882 0.5888 0.5900 0.5916
970.000000 0.5937 0.5962 0.5990 0.6018 0.6078
965.000000 0.6157 0.6240 0.6315 0.6388 0.6458
960.000000 0.6525 0.6593 0.6657 0.6717 0.6775
955.000000 0.6818 0.6864 0.6908 0.6944 0.6981
950.000000 0.7015 0.7045 0.7075 0.7098 0.7118
945.000000 0.7125 0.7125 0.7112 0.7105 0.7104
940.000000 0.7103 0.7111 0.7146 0.7208 0.7281
935.000000 0.7350 0.7418 0.7471 0.7521 0.7567
930.000000 0.7604 0.7636 0.7653 0.7668 0.7669
925.000000 0.7672 0.7675 0.7685 0.7703 0.7721
920.000000 0.7746 0.7775 0.7804 0.7833 0.7862
915.000000 0.7894 0.7925 0.7956 0.7988 0.8019
910.000000 0.8051 0.8085 0.8122 0.8164 0.8196
905.000000 0.8224 0.8228 0.8228 0.8228 0.8233
900.000000 0.8249 0.8266 0.8307 0.8350 0.8382
895.000000 0.8413 0.8442 0.8464 0.8486 0.8508
890.000000 0.8521 0.8534 0.8547 0.8558 0.8568
885.000000 0.8575 0.8578 0.8578 0.8583 0.8602
880.000000 0.8655 0.8755 0.8811 0.8813 0.8806
875.000000 0.8802 0.8803 0.8807 0.8820 0.8836
870.000000 0.8855 0.8878 0.8901 0.8921 0.8940
865.000000 0.8959 0.8971 0.8984 0.8995 0.9003
860.000000 0.9011 0.9018 0.9017 0.9017 0.9021
855.000000 0.9060 0.9030 0.9037 0.9042 0.9040
850.000000 0.8998 0.8913 0.8753 0.8566 0.8084
845.000000 0.7593 0.7101 0.6607 0.6112 0.5765
840.000000 0.5908 0.6550 0.7194 0.7758 0.7987
835.000000 0.8162 0.8245 0.8275 0.8309 0.8407
830.000000 0.8521 0.8591 0.8628 0.8652 0.8649
825.000000 0.8668 0.8659 0.8648 0.8632 0.8589
820.000000 0.8535 0.8423 0.8210 0.7931 0.7614
815.000000 0.7337 0.6986 0.6275 0.5210 0.4145
810.000000 0.3076 0.1989 0.2007 0.2048 0.3001
805.000000 0.4178 0.5328 0.6156 0.6798 0.7094
800.000000 0.7392 0.7618 0.7828 0.8035 0.8228
795.000000 0.8407 0.8546 0.8674 0.8792 0.8878
790.000000 0.8934 0.8970 0.9001 0.9023 0.9039
785.000000 0.9055 0.9071 0.9088 0.9103 0.9115
780.000000 0.9125 0.9137 0.9147 0.9156 0.9168
775.000000 0.9186 0.9204 0.9225 0.9250 0.9274
770.000000 0.9297 0.9311 0.9302 0.9283 0.9268
765.000000 0.9250 0.9211 0.9167 0.9221 0.9295
760.000000 0.9315 0.9327 0.9328 0.9328 0.9328
755.000000 0.9325 0.9341 0.9323 0.9324 0.9325
750.000000 0.9321 0.9307 0.9282 0.9258 0.9239
745.000000 0.9274 0.9287 0.9267 0.9249 0.9233
740.000000 0.9215 0.9198 0.9178 0.9160 0.9159
735.000000 0.9184 0.9187 0.9160 0.9125 0.9065
730.000000 0.8985 0.8900 0.8794 0.8659 0.8466
725.000000 0.8328 0.8357 0.8410 0.8486 0.8562
720.000000 0.8628 0.8691 0.8749 0.8805 0.8860
715.000000 0.8914 0.8966 0.9015 0.9024 0.9021
710.000000 0.9021 0.9021 0.9034 0.9065 0.9118
705.000000 0.9173 0.9221 0.9265 0.9287 0.9305
700.000000 0.9321 0.9333 0.9375 0.9345 0.9349
695.000000 0.9347 0.9337 0.9309 0.9282 0.9259
690.000000 0.9238 0.9216 0.9195 0.9173 0.9152
685.000000 0.9128 0.9106 0.9083 0.9060 0.9031
680.000000 0.8994 0.8950 0.8906 0.8875 0.8840
675.000000 0.8802 0.8752 0.8701 0.8632 0.8558
670.000000 0.8475 0.8363 0.8228 0.8076 0.7885
665.000000 0.7665 0.7389 0.7411 0.7455 0.7556
660.000000 0.7660 0.7788 0.7753 0.7690 0.7580
655.000000 0.7467 0.7350 0.7222 0.7098 0.6971
650.000000 0.6839 0.6690 0.6541 0.6360 0.6146
645.000000 0.5922 0.5608 0.5335 0.5099 0.4880
640.000000 0.4743 0.4657 0.4579 0.4476 0.4368
635.000000 0.4308 0.4338 0.4387 0.4440 0.4571
630.000000 0.4699 0.4798 0.4893 0.4966 0.5029
##END=
