##TITLE=Ammonium nitrate, tetra-(n-butyl)-
##JCAMP-DX=4.24
##DATA TYPE=INFRARED SPECTRUM
##CLASS=COBLENTZ III
##ORIGIN=DOW CHEMICAL COMPANY
##OWNER=Copyright (C) 1987 by the Coblentz Society
Collection (C) 2018 copyright by the U.S. Secretary of Commerce
on behalf of the United States of America. All rights reserved.
##DATE=1965/11/09
##NAMES=nitric acid compound with tetrabutyl-.lambda.<5>-azane (1:1)
##MOLFORM=C16 H36 N2 O3
##SOURCE REFERENCE=COBLENTZ NO. 8142
##$NIST ID=B6008142
##$NIST SOURCE=COBLENTZ
##$NIST IMAGE=cob8142
##SPECTROMETER/DATA SYSTEM=BECKMAN IR-9 (GRATING)
##INSTRUMENT PARAMETERS=ORDER CHANGES: 670, 1200, 2000 CM^-^1
##STATE=SOLID (SPLIT MULL), FLUOROLUBE FOR 3800-1330 CM^-^1, NUJOL FOR 1330-400 CM^-^1
##SAMPLING PROCEDURE=TRANSMISSION
##RESOLUTION=2
##DATA PROCESSING=DIGITIZED BY COBLENTZ SOCIETY (BATCH II) FROM HARD COPY
##XUNITS=1/CM
##YUNITS=TRANSMITTANCE
##XFACTOR=1.0
##YFACTOR=1
##FIRSTX=402
##LASTX=3802
##FIRSTY=0.5659
##MAXX=3802
##MINX=402
##MAXY=0.8871
##MINY=0.1579
##NPOINTS=3401
##XYDATA=(X++(Y..Y))
402.000000 0.5659 0.5660 0.5663 0.5670 0.5676
407.000000 0.5694 0.5716 0.5739 0.5768 0.5796
412.000000 0.5826 0.5859 0.5892 0.5925 0.5967
417.000000 0.6016 0.6065 0.6114 0.6165 0.6217
422.000000 0.6270 0.6323 0.6376 0.6438 0.6500
427.000000 0.6562 0.6623 0.6681 0.6734 0.6787
432.000000 0.6839 0.6892 0.6943 0.6992 0.7041
437.000000 0.7091 0.7139 0.7179 0.7218 0.7258
442.000000 0.7298 0.7337 0.7379 0.7420 0.7462
447.000000 0.7503 0.7540 0.7588 0.7685 0.7766
452.000000 0.7786 0.7805 0.7824 0.7841 0.7856
457.000000 0.7872 0.7888 0.7903 0.7919 0.7935
462.000000 0.7951 0.7966 0.7982 0.7998 0.8013
467.000000 0.8029 0.8045 0.8062 0.8080 0.8097
472.000000 0.8115 0.8132 0.8150 0.8167 0.8186
477.000000 0.8206 0.8226 0.8246 0.8266 0.8286
482.000000 0.8306 0.8326 0.8346 0.8366 0.8380
487.000000 0.8395 0.8409 0.8424 0.8439 0.8453
492.000000 0.8466 0.8475 0.8485 0.8494 0.8504
497.000000 0.8513 0.8522 0.8530 0.8535 0.8539
502.000000 0.8544 0.8548 0.8553 0.8557 0.8562
507.000000 0.8566 0.8568 0.8571 0.8573 0.8575
512.000000 0.8577 0.8579 0.8581 0.8584 0.8586
517.000000 0.8588 0.8590 0.8592 0.8594 0.8596
522.000000 0.8599 0.8601 0.8603 0.8605 0.8607
527.000000 0.8609 0.8612 0.8614 0.8616 0.8618
532.000000 0.8620 0.8623 0.8626 0.8629 0.8631
537.000000 0.8634 0.8637 0.8640 0.8643 0.8645
542.000000 0.8648 0.8650 0.8653 0.8655 0.8657
547.000000 0.8660 0.8662 0.8664 0.8667 0.8669
552.000000 0.8671 0.8673 0.8675 0.8676 0.8678
557.000000 0.8680 0.8682 0.8684 0.8685 0.8687
562.000000 0.8689 0.8691 0.8692 0.8694 0.8696
567.000000 0.8698 0.8700 0.8702 0.8705 0.8707
572.000000 0.8711 0.8714 0.8718 0.8721 0.8725
577.000000 0.8728 0.8732 0.8736 0.8739 0.8742
582.000000 0.8746 0.8749 0.8753 0.8756 0.8759
587.000000 0.8763 0.8766 0.8770 0.8773 0.8777
592.000000 0.8781 0.8786 0.8790 0.8795 0.8800
597.000000 0.8804 0.8807 0.8809 0.8811 0.8814
602.000000 0.8816 0.8818 0.8820 0.8823 0.8824
607.000000 0.8824 0.8824 0.8824 0.8825 0.8825
612.000000 0.8825 0.8825 0.8826 0.8827 0.8828
617.000000 0.8829 0.8830 0.8831 0.8832 0.8833
622.000000 0.8834 0.8835 0.8836 0.8837 0.8838
627.000000 0.8839 0.8840 0.8848 0.8841 0.8841
632.000000 0.8841 0.8841 0.8841 0.8841 0.8841
637.000000 0.8841 0.8841 0.8842 0.8842 0.8842
642.000000 0.8842 0.8842 0.8843 0.8843 0.8844
647.000000 0.8845 0.8846 0.8846 0.8847 0.8848
652.000000 0.8849 0.8849 0.8850 0.8850 0.8850
657.000000 0.8849 0.8849 0.8849 0.8849 0.8848
662.000000 0.8848 0.8848 0.8848 0.8847 0.8846
667.000000 0.8845 0.8844 0.8844 0.8843 0.8842
672.000000 0.8841 0.8838 0.8835 0.8833 0.8830
677.000000 0.8829 0.8828 0.8826 0.8821 0.8816
682.000000 0.8809 0.8802 0.8795 0.8789 0.8784
687.000000 0.8779 0.8774 0.8768 0.8762 0.8755
692.000000 0.8748 0.8737 0.8726 0.8714 0.8702
697.000000 0.8691 0.8674 0.8656 0.8637 0.8619
702.000000 0.8601 0.8573 0.8546 0.8518 0.8487
707.000000 0.8447 0.8407 0.8367 0.8327 0.8281
712.000000 0.8233 0.8185 0.8136 0.8086 0.8036
717.000000 0.7985 0.7935 0.7885 0.7831 0.7776
722.000000 0.7722 0.7645 0.7638 0.7631 0.7627
727.000000 0.7629 0.7630 0.7639 0.7656 0.7670
732.000000 0.7661 0.7641 0.7614 0.7583 0.7547
737.000000 0.7459 0.7377 0.7291 0.7198 0.7162
742.000000 0.7151 0.7151 0.7158 0.7161 0.7177
747.000000 0.7199 0.7234 0.7282 0.7361 0.7472
752.000000 0.7625 0.7749 0.7823 0.7890 0.7950
757.000000 0.8008 0.8053 0.8099 0.8137 0.8169
762.000000 0.8194 0.8217 0.8240 0.8252 0.8263
767.000000 0.8274 0.8282 0.8288 0.8293 0.8299
772.000000 0.8304 0.8308 0.8310 0.8313 0.8315
777.000000 0.8318 0.8320 0.8321 0.8321 0.8321
782.000000 0.8321 0.8321 0.8318 0.8315 0.8312
787.000000 0.8309 0.8307 0.8304 0.8298 0.8291
792.000000 0.8284 0.8278 0.8271 0.8265 0.8258
797.000000 0.8250 0.8243 0.8235 0.8227 0.8218
802.000000 0.8208 0.8197 0.8187 0.8176 0.8176
807.000000 0.8178 0.8193 0.8218 0.8253 0.8289
812.000000 0.8325 0.8354 0.8382 0.8410 0.8437
817.000000 0.8462 0.8488 0.8494 0.8498 0.8503
822.000000 0.8508 0.8505 0.8504 0.8500 0.8497
827.000000 0.8477 0.8402 0.8169 0.7935 0.7694
832.000000 0.7629 0.7601 0.7581 0.7679 0.8023
837.000000 0.8327 0.8367 0.8404 0.8424 0.8443
842.000000 0.8457 0.8470 0.8478 0.8486 0.8492
847.000000 0.8495 0.8498 0.8501 0.8502 0.8501
852.000000 0.8499 0.8521 0.8496 0.8494 0.8490
857.000000 0.8487 0.8483 0.8479 0.8473 0.8465
862.000000 0.8457 0.8449 0.8436 0.8420 0.8403
867.000000 0.8375 0.8340 0.8300 0.8243 0.8178
872.000000 0.8112 0.8035 0.7957 0.7841 0.7737
877.000000 0.7642 0.7565 0.7506 0.7446 0.7387
882.000000 0.7318 0.7249 0.7198 0.7162 0.7141
887.000000 0.7141 0.7145 0.7115 0.7158 0.7169
892.000000 0.7182 0.7224 0.7276 0.7333 0.7382
897.000000 0.7481 0.7553 0.7612 0.7679 0.7751
902.000000 0.7809 0.7857 0.7905 0.7974 0.8042
907.000000 0.8087 0.8132 0.8177 0.8223 0.8280
912.000000 0.8336 0.8364 0.8392 0.8408 0.8413
917.000000 0.8419 0.8425 0.8430 0.8435 0.8436
922.000000 0.8438 0.8439 0.8440 0.8441 0.8443
927.000000 0.8443 0.8444 0.8444 0.8445 0.8446
932.000000 0.8446 0.8447 0.8447 0.8436 0.8454
937.000000 0.8454 0.8453 0.8452 0.8451 0.8450
942.000000 0.8449 0.8448 0.8447 0.8445 0.8444
947.000000 0.8442 0.8441 0.8439 0.8438 0.8437
952.000000 0.8437 0.8436 0.8435 0.8435 0.8434
957.000000 0.8432 0.8429 0.8427 0.8424 0.8421
962.000000 0.8419 0.8416 0.8413 0.8409 0.8404
967.000000 0.8399 0.8394 0.8389 0.8385 0.8380
972.000000 0.8374 0.8367 0.8360 0.8353 0.8347
977.000000 0.8345 0.8342 0.8339 0.8338 0.8340
982.000000 0.8342 0.8345 0.8347 0.8349 0.8352
987.000000 0.8354 0.8357 0.8365 0.8373 0.8382
992.000000 0.8393 0.8405 0.8414 0.8413 0.8409
997.000000 0.8406 0.8402 0.8384 0.8362 0.8335
1002.000000 0.8310 0.8286 0.8262 0.8240 0.8218
1007.000000 0.8196 0.8175 0.8153 0.8137 0.8125
1012.000000 0.8113 0.8114 0.8115 0.8117 0.8127
1017.000000 0.8137 0.8147 0.8158 0.8165 0.8137
1022.000000 0.8114 0.8088 0.8048 0.8016 0.7984
1027.000000 0.7946 0.7905 0.7856 0.7798 0.7757
1032.000000 0.7725 0.7711 0.7713 0.7714 0.7739
1037.000000 0.7757 0.7781 0.7811 0.7837 0.7860
1042.000000 0.7874 0.7883 0.7910 0.7959 0.8007
1047.000000 0.8043 0.8064 0.8066 0.8067 0.8075
1052.000000 0.8051 0.8040 0.8025 0.8007 0.7989
1057.000000 0.7964 0.7938 0.7912 0.7894 0.7898
1062.000000 0.7904 0.7882 0.7914 0.7919 0.7923
1067.000000 0.7928 0.7932 0.7937 0.7942 0.7946
1072.000000 0.7951 0.7956 0.7961 0.7969 0.7976
1077.000000 0.7984 0.8002 0.8022 0.8045 0.8069
1082.000000 0.8093 0.8120 0.8148 0.8176 0.8199
1087.000000 0.8216 0.8233 0.8250 0.8264 0.8274
1092.000000 0.8285 0.8291 0.8291 0.8292 0.8292
1097.000000 0.8292 0.8282 0.8274 0.8265 0.8250
1102.000000 0.8231 0.8213 0.8189 0.8161 0.8132
1107.000000 0.8107 0.8088 0.8070 0.8051 0.8032
1112.000000 0.8014 0.8029 0.8036 0.8047 0.8060
1117.000000 0.8072 0.8085 0.8098 0.8111 0.8124
1122.000000 0.8137 0.8148 0.8158 0.8166 0.8173
1127.000000 0.8179 0.8180 0.8179 0.8178 0.8181
1132.000000 0.8173 0.8166 0.8160 0.8152 0.8144
1137.000000 0.8135 0.8127 0.8106 0.8085 0.8064
1142.000000 0.8043 0.8017 0.7985 0.7953 0.7911
1147.000000 0.7857 0.7804 0.7733 0.7658 0.7565
1152.000000 0.7477 0.7443 0.7411 0.7406 0.7409
1157.000000 0.7390 0.7446 0.7496 0.7546 0.7592
1162.000000 0.7633 0.7668 0.7701 0.7729 0.7757
1167.000000 0.7777 0.7806 0.7795 0.7786 0.7772
1172.000000 0.7749 0.7721 0.7690 0.7652 0.7614
1177.000000 0.7581 0.7550 0.7519 0.7495 0.7472
1182.000000 0.7444 0.7468 0.7496 0.7662 0.7804
1187.000000 0.7924 0.7991 0.8044 0.8108 0.8143
1192.000000 0.8176 0.8203 0.8220 0.8231 0.8241
1197.000000 0.8249 0.8257 0.8261 0.8266 0.8271
1202.000000 0.8275 0.8275 0.8275 0.8275 0.8275
1207.000000 0.8275 0.8279 0.8275 0.8275 0.8276
1212.000000 0.8280 0.8281 0.8278 0.8274 0.8268
1217.000000 0.8261 0.8254 0.8246 0.8236 0.8226
1222.000000 0.8217 0.8207 0.8198 0.8189 0.8179
1227.000000 0.8166 0.8153 0.8140 0.8127 0.8115
1232.000000 0.8102 0.8089 0.8076 0.8059 0.8043
1237.000000 0.8027 0.8011 0.7992 0.7972 0.7952
1242.000000 0.7932 0.7912 0.7892 0.7866 0.7838
1247.000000 0.7811 0.7784 0.7757 0.7732 0.7707
1252.000000 0.7682 0.7657 0.7637 0.7619 0.7601
1257.000000 0.7583 0.7567 0.7552 0.7538 0.7523
1262.000000 0.7510 0.7500 0.7490 0.7479 0.7467
1267.000000 0.7451 0.7435 0.7410 0.7371 0.7325
1272.000000 0.7276 0.7221 0.7165 0.7114 0.7064
1277.000000 0.7015 0.6967 0.6919 0.6871 0.6823
1282.000000 0.6765 0.6707 0.6641 0.6558 0.6506
1287.000000 0.6457 0.6424 0.6395 0.6366 0.6330
1292.000000 0.6295 0.6251 0.6196 0.6136 0.6074
1297.000000 0.5956 0.5826 0.5734 0.5657 0.5512
1302.000000 0.5169 0.5035 0.4900 0.4772 0.4645
1307.000000 0.4462 0.4286 0.4190 0.4095 0.4002
1312.000000 0.3910 0.3795 0.3648 0.3539 0.3326
1317.000000 0.3148 0.3036 0.2931 0.2826 0.2684
1322.000000 0.2537 0.2434 0.2357 0.2280 0.2203
1327.000000 0.2127 0.2050 0.1975 0.1916 0.1857
1332.000000 0.1806 0.1757 0.1717 0.1686 0.1656
1337.000000 0.1635 0.1615 0.1598 0.1586 0.1579
1342.000000 0.1594 0.1608 0.1622 0.1666 0.1741
1347.000000 0.1816 0.1867 0.1919 0.1982 0.2045
1352.000000 0.2117 0.2201 0.2285 0.2373 0.2461
1357.000000 0.2554 0.2647 0.2745 0.2916 0.3193
1362.000000 0.3323 0.3477 0.3617 0.3756 0.3896
1367.000000 0.4035 0.4175 0.4314 0.4454 0.4593
1372.000000 0.4733 0.4860 0.4943 0.5024 0.5091
1377.000000 0.5158 0.5213 0.5266 0.5320 0.5373
1382.000000 0.5427 0.5480 0.5575 0.5682 0.5760
1387.000000 0.5837 0.5942 0.6099 0.6369 0.6487
1392.000000 0.6593 0.6683 0.6773 0.6864 0.6962
1397.000000 0.7059 0.7150 0.7238 0.7300 0.7356
1402.000000 0.7403 0.7441 0.7480 0.7499 0.7515
1407.000000 0.7532 0.7549 0.7565 0.7581 0.7615
1412.000000 0.7684 0.7750 0.7780 0.7801 0.7816
1417.000000 0.7827 0.7835 0.7842 0.7850 0.7851
1422.000000 0.7850 0.7849 0.7849 0.7851 0.7852
1427.000000 0.7857 0.7868 0.7880 0.7895 0.7914
1432.000000 0.7932 0.7944 0.7957 0.7963 0.7963
1437.000000 0.7961 0.7963 0.7946 0.7938 0.7925
1442.000000 0.7911 0.7889 0.7865 0.7837 0.7807
1447.000000 0.7777 0.7743 0.7704 0.7665 0.7625
1452.000000 0.7582 0.7535 0.7488 0.7441 0.7377
1457.000000 0.7332 0.7298 0.7283 0.7273 0.7263
1462.000000 0.7252 0.7241 0.7221 0.7180 0.7152
1467.000000 0.7140 0.7150 0.7155 0.7278 0.7371
1472.000000 0.7443 0.7488 0.7522 0.7535 0.7541
1477.000000 0.7559 0.7538 0.7526 0.7507 0.7479
1482.000000 0.7411 0.7341 0.7089 0.6834 0.6579
1487.000000 0.6324 0.6158 0.6166 0.6185 0.6394
1492.000000 0.6602 0.6811 0.7019 0.7227 0.7436
1497.000000 0.7644 0.7853 0.8109 0.8189 0.8247
1502.000000 0.8280 0.8312 0.8331 0.8350 0.8369
1507.000000 0.8387 0.8405 0.8422 0.8439 0.8452
1512.000000 0.8463 0.8474 0.8486 0.8496 0.8506
1517.000000 0.8516 0.8526 0.8536 0.8542 0.8548
1522.000000 0.8554 0.8560 0.8566 0.8571 0.8574
1527.000000 0.8577 0.8580 0.8583 0.8587 0.8590
1532.000000 0.8593 0.8596 0.8599 0.8602 0.8605
1537.000000 0.8608 0.8611 0.8613 0.8616 0.8619
1542.000000 0.8621 0.8623 0.8625 0.8628 0.8630
1547.000000 0.8632 0.8634 0.8636 0.8639 0.8641
1552.000000 0.8643 0.8645 0.8648 0.8650 0.8653
1557.000000 0.8655 0.8658 0.8661 0.8663 0.8666
1562.000000 0.8668 0.8670 0.8672 0.8674 0.8676
1567.000000 0.8677 0.8679 0.8681 0.8683 0.8685
1572.000000 0.8686 0.8686 0.8686 0.8685 0.8685
1577.000000 0.8685 0.8685 0.8685 0.8684 0.8684
1582.000000 0.8684 0.8684 0.8684 0.8684 0.8685
1587.000000 0.8685 0.8686 0.8687 0.8687 0.8688
1592.000000 0.8688 0.8689 0.8689 0.8690 0.8691
1597.000000 0.8691 0.8692 0.8692 0.8693 0.8694
1602.000000 0.8694 0.8695 0.8695 0.8696 0.8696
1607.000000 0.8697 0.8697 0.8698 0.8699 0.8699
1612.000000 0.8700 0.8700 0.8701 0.8701 0.8701
1617.000000 0.8701 0.8701 0.8701 0.8701 0.8701
1622.000000 0.8701 0.8701 0.8702 0.8702 0.8702
1627.000000 0.8702 0.8702 0.8702 0.8702 0.8701
1632.000000 0.8701 0.8701 0.8700 0.8700 0.8700
1637.000000 0.8699 0.8699 0.8699 0.8700 0.8700
1642.000000 0.8700 0.8701 0.8701 0.8701 0.8702
1647.000000 0.8702 0.8702 0.8703 0.8703 0.8703
1652.000000 0.8704 0.8704 0.8704 0.8705 0.8705
1657.000000 0.8705 0.8706 0.8706 0.8706 0.8707
1662.000000 0.8707 0.8707 0.8708 0.8708 0.8708
1667.000000 0.8709 0.8709 0.8709 0.8710 0.8710
1672.000000 0.8710 0.8711 0.8711 0.8711 0.8712
1677.000000 0.8712 0.8712 0.8713 0.8713 0.8713
1682.000000 0.8714 0.8714 0.8714 0.8714 0.8715
1687.000000 0.8716 0.8717 0.8718 0.8717 0.8716
1692.000000 0.8715 0.8714 0.8713 0.8712 0.8711
1697.000000 0.8709 0.8708 0.8707 0.8706 0.8704
1702.000000 0.8703 0.8702 0.8700 0.8697 0.8694
1707.000000 0.8690 0.8687 0.8683 0.8674 0.8664
1712.000000 0.8649 0.8628 0.8606 0.8587 0.8570
1717.000000 0.8553 0.8536 0.8520 0.8503 0.8486
1722.000000 0.8479 0.8491 0.8504 0.8520 0.8538
1727.000000 0.8557 0.8576 0.8592 0.8605 0.8618
1732.000000 0.8630 0.8633 0.8636 0.8631 0.8621
1737.000000 0.8610 0.8593 0.8576 0.8564 0.8552
1742.000000 0.8541 0.8537 0.8542 0.8548 0.8565
1747.000000 0.8584 0.8603 0.8622 0.8641 0.8660
1752.000000 0.8679 0.8690 0.8700 0.8709 0.8714
1757.000000 0.8716 0.8719 0.8721 0.8724 0.8724
1762.000000 0.8724 0.8724 0.8725 0.8726 0.8728
1767.000000 0.8729 0.8730 0.8732 0.8733 0.8733
1772.000000 0.8734 0.8735 0.8736 0.8737 0.8738
1777.000000 0.8738 0.8739 0.8741 0.8742 0.8744
1782.000000 0.8746 0.8748 0.8749 0.8751 0.8753
1787.000000 0.8755 0.8756 0.8758 0.8760 0.8762
1792.000000 0.8763 0.8765 0.8766 0.8768 0.8770
1797.000000 0.8771 0.8773 0.8774 0.8776 0.8777
1802.000000 0.8779 0.8780 0.8782 0.8784 0.8785
1807.000000 0.8787 0.8788 0.8790 0.8790 0.8791
1812.000000 0.8791 0.8791 0.8792 0.8792 0.8792
1817.000000 0.8792 0.8793 0.8793 0.8793 0.8794
1822.000000 0.8794 0.8794 0.8795 0.8795 0.8795
1827.000000 0.8795 0.8795 0.8795 0.8795 0.8795
1832.000000 0.8795 0.8796 0.8796 0.8796 0.8796
1837.000000 0.8796 0.8796 0.8796 0.8795 0.8795
1842.000000 0.8795 0.8795 0.8795 0.8795 0.8794
1847.000000 0.8794 0.8794 0.8794 0.8794 0.8793
1852.000000 0.8793 0.8793 0.8792 0.8792 0.8791
1857.000000 0.8791 0.8791 0.8790 0.8790 0.8789
1862.000000 0.8789 0.8789 0.8788 0.8788 0.8787
1867.000000 0.8787 0.8786 0.8786 0.8786 0.8785
1872.000000 0.8785 0.8784 0.8784 0.8784 0.8784
1877.000000 0.8783 0.8783 0.8783 0.8783 0.8782
1882.000000 0.8782 0.8782 0.8782 0.8782 0.8781
1887.000000 0.8781 0.8781 0.8781 0.8780 0.8780
1892.000000 0.8780 0.8780 0.8779 0.8779 0.8779
1897.000000 0.8779 0.8779 0.8780 0.8780 0.8780
1902.000000 0.8781 0.8781 0.8782 0.8782 0.8782
1907.000000 0.8783 0.8783 0.8784 0.8785 0.8786
1912.000000 0.8802 0.8788 0.8789 0.8790 0.8791
1917.000000 0.8792 0.8792 0.8793 0.8794 0.8795
1922.000000 0.8797 0.8798 0.8800 0.8802 0.8803
1927.000000 0.8803 0.8804 0.8804 0.8805 0.8806
1932.000000 0.8806 0.8807 0.8808 0.8808 0.8809
1937.000000 0.8810 0.8810 0.8811 0.8811 0.8811
1942.000000 0.8810 0.8810 0.8809 0.8808 0.8807
1947.000000 0.8807 0.8806 0.8805 0.8804 0.8804
1952.000000 0.8803 0.8802 0.8802 0.8801 0.8801
1957.000000 0.8800 0.8800 0.8799 0.8799 0.8798
1962.000000 0.8798 0.8797 0.8796 0.8796 0.8795
1967.000000 0.8795 0.8794 0.8794 0.8793 0.8793
1972.000000 0.8792 0.8793 0.8794 0.8795 0.8796
1977.000000 0.8797 0.8797 0.8798 0.8799 0.8800
1982.000000 0.8801 0.8802 0.8803 0.8804 0.8804
1987.000000 0.8800 0.8796 0.8792 0.8788 0.8784
1992.000000 0.8780 0.8776 0.8772 0.8769 0.8767
1997.000000 0.8765 0.8783 0.8809 0.8835 0.8844
2002.000000 0.8853 0.8853 0.8853 0.8852 0.8852
2007.000000 0.8851 0.8850 0.8850 0.8851 0.8851
2012.000000 0.8852 0.8852 0.8853 0.8853 0.8854
2017.000000 0.8854 0.8854 0.8854 0.8854 0.8854
2022.000000 0.8854 0.8854 0.8854 0.8855 0.8856
2027.000000 0.8856 0.8857 0.8857 0.8858 0.8859
2032.000000 0.8860 0.8860 0.8861 0.8861 0.8862
2037.000000 0.8862 0.8863 0.8863 0.8863 0.8863
2042.000000 0.8864 0.8864 0.8864 0.8864 0.8865
2047.000000 0.8865 0.8865 0.8865 0.8866 0.8866
2052.000000 0.8867 0.8867 0.8867 0.8867 0.8868
2057.000000 0.8868 0.8868 0.8868 0.8869 0.8869
2062.000000 0.8870 0.8870 0.8870 0.8870 0.8871
2067.000000 0.8871 0.8871 0.8871 0.8871 0.8871
2072.000000 0.8871 0.8871 0.8871 0.8871 0.8871
2077.000000 0.8871 0.8871 0.8871 0.8871 0.8871
2082.000000 0.8871 0.8871 0.8871 0.8871 0.8871
2087.000000 0.8871 0.8871 0.8870 0.8870 0.8869
2092.000000 0.8869 0.8868 0.8868 0.8868 0.8868
2097.000000 0.8867 0.8867 0.8866 0.8866 0.8866
2102.000000 0.8866 0.8865 0.8865 0.8864 0.8864
2107.000000 0.8864 0.8864 0.8863 0.8863 0.8862
2112.000000 0.8862 0.8862 0.8862 0.8861 0.8861
2117.000000 0.8860 0.8860 0.8860 0.8860 0.8859
2122.000000 0.8859 0.8858 0.8858 0.8857 0.8856
2127.000000 0.8854 0.8853 0.8852 0.8851 0.8850
2132.000000 0.8849 0.8847 0.8846 0.8845 0.8844
2137.000000 0.8842 0.8841 0.8840 0.8839 0.8837
2142.000000 0.8836 0.8835 0.8834 0.8833 0.8832
2147.000000 0.8830 0.8829 0.8828 0.8827 0.8825
2152.000000 0.8824 0.8823 0.8822 0.8820 0.8819
2157.000000 0.8818 0.8817 0.8816 0.8815 0.8813
2162.000000 0.8812 0.8811 0.8810 0.8808 0.8807
2167.000000 0.8806 0.8805 0.8804 0.8804 0.8803
2172.000000 0.8803 0.8802 0.8802 0.8801 0.8801
2177.000000 0.8800 0.8800 0.8799 0.8798 0.8797
2182.000000 0.8797 0.8796 0.8796 0.8795 0.8795
2187.000000 0.8794 0.8794 0.8793 0.8793 0.8792
2192.000000 0.8792 0.8791 0.8791 0.8790 0.8789
2197.000000 0.8788 0.8787 0.8786 0.8785 0.8784
2202.000000 0.8783 0.8782 0.8781 0.8780 0.8780
2207.000000 0.8779 0.8778 0.8777 0.8776 0.8775
2212.000000 0.8774 0.8773 0.8772 0.8771 0.8770
2217.000000 0.8769 0.8769 0.8768 0.8767 0.8765
2222.000000 0.8764 0.8763 0.8762 0.8760 0.8759
2227.000000 0.8758 0.8757 0.8755 0.8754 0.8752
2232.000000 0.8751 0.8750 0.8749 0.8747 0.8746
2237.000000 0.8745 0.8744 0.8742 0.8741 0.8739
2242.000000 0.8738 0.8737 0.8736 0.8734 0.8733
2247.000000 0.8731 0.8729 0.8727 0.8726 0.8724
2252.000000 0.8722 0.8720 0.8718 0.8716 0.8715
2257.000000 0.8713 0.8711 0.8709 0.8708 0.8706
2262.000000 0.8704 0.8702 0.8701 0.8699 0.8697
2267.000000 0.8696 0.8695 0.8694 0.8694 0.8693
2272.000000 0.8693 0.8693 0.8693 0.8692 0.8692
2277.000000 0.8691 0.8691 0.8690 0.8690 0.8690
2282.000000 0.8690 0.8689 0.8689 0.8689 0.8689
2287.000000 0.8689 0.8690 0.8690 0.8691 0.8691
2292.000000 0.8691 0.8691 0.8692 0.8692 0.8693
2297.000000 0.8693 0.8693 0.8693 0.8694 0.8694
2302.000000 0.8695 0.8695 0.8695 0.8695 0.8696
2307.000000 0.8696 0.8697 0.8697 0.8698 0.8698
2312.000000 0.8699 0.8699 0.8700 0.8700 0.8701
2317.000000 0.8701 0.8702 0.8703 0.8704 0.8704
2322.000000 0.8705 0.8706 0.8707 0.8708 0.8710
2327.000000 0.8711 0.8712 0.8713 0.8715 0.8716
2332.000000 0.8717 0.8717 0.8718 0.8718 0.8719
2337.000000 0.8719 0.8719 0.8719 0.8720 0.8720
2342.000000 0.8721 0.8721 0.8722 0.8722 0.8723
2347.000000 0.8723 0.8724 0.8724 0.8725 0.8725
2352.000000 0.8726 0.8726 0.8727 0.8727 0.8728
2357.000000 0.8727 0.8726 0.8724 0.8723 0.8721
2362.000000 0.8719 0.8715 0.8711 0.8705 0.8699
2367.000000 0.8693 0.8687 0.8681 0.8675 0.8668
2372.000000 0.8662 0.8654 0.8646 0.8635 0.8624
2377.000000 0.8613 0.8602 0.8591 0.8581 0.8571
2382.000000 0.8562 0.8562 0.8563 0.8564 0.8565
2387.000000 0.8566 0.8567 0.8568 0.8570 0.8575
2392.000000 0.8580 0.8584 0.8589 0.8593 0.8598
2397.000000 0.8602 0.8606 0.8610 0.8615 0.8619
2402.000000 0.8623 0.8627 0.8631 0.8635 0.8640
2407.000000 0.8645 0.8650 0.8655 0.8661 0.8663
2412.000000 0.8666 0.8669 0.8672 0.8675 0.8678
2417.000000 0.8680 0.8683 0.8684 0.8686 0.8688
2422.000000 0.8690 0.8691 0.8693 0.8694 0.8696
2427.000000 0.8697 0.8699 0.8700 0.8702 0.8704
2432.000000 0.8706 0.8706 0.8706 0.8706 0.8706
2437.000000 0.8706 0.8706 0.8706 0.8706 0.8706
2442.000000 0.8707 0.8708 0.8709 0.8710 0.8711
2447.000000 0.8712 0.8713 0.8714 0.8715 0.8716
2452.000000 0.8717 0.8718 0.8719 0.8720 0.8721
2457.000000 0.8722 0.8723 0.8724 0.8725 0.8726
2462.000000 0.8727 0.8728 0.8729 0.8730 0.8731
2467.000000 0.8732 0.8733 0.8734 0.8735 0.8736
2472.000000 0.8737 0.8736 0.8736 0.8736 0.8736
2477.000000 0.8736 0.8736 0.8735 0.8735 0.8735
2482.000000 0.8735 0.8735 0.8735 0.8735 0.8735
2487.000000 0.8734 0.8734 0.8734 0.8734 0.8734
2492.000000 0.8734 0.8734 0.8735 0.8735 0.8736
2497.000000 0.8736 0.8737 0.8737 0.8738 0.8738
2502.000000 0.8739 0.8739 0.8740 0.8740 0.8741
2507.000000 0.8741 0.8742 0.8742 0.8743 0.8743
2512.000000 0.8744 0.8744 0.8745 0.8745 0.8746
2517.000000 0.8746 0.8747 0.8747 0.8748 0.8748
2522.000000 0.8749 0.8749 0.8749 0.8748 0.8748
2527.000000 0.8747 0.8747 0.8746 0.8746 0.8745
2532.000000 0.8745 0.8744 0.8744 0.8743 0.8743
2537.000000 0.8742 0.8742 0.8741 0.8741 0.8740
2542.000000 0.8740 0.8739 0.8739 0.8738 0.8738
2547.000000 0.8737 0.8736 0.8735 0.8735 0.8734
2552.000000 0.8734 0.8733 0.8733 0.8732 0.8732
2557.000000 0.8731 0.8731 0.8730 0.8730 0.8729
2562.000000 0.8729 0.8728 0.8728 0.8727 0.8727
2567.000000 0.8726 0.8726 0.8725 0.8724 0.8723
2572.000000 0.8723 0.8722 0.8721 0.8720 0.8720
2577.000000 0.8719 0.8718 0.8717 0.8717 0.8716
2582.000000 0.8715 0.8714 0.8714 0.8713 0.8712
2587.000000 0.8711 0.8711 0.8710 0.8709 0.8708
2592.000000 0.8708 0.8707 0.8706 0.8705 0.8704
2597.000000 0.8703 0.8703 0.8702 0.8701 0.8700
2602.000000 0.8700 0.8699 0.8699 0.8698 0.8698
2607.000000 0.8697 0.8696 0.8695 0.8695 0.8694
2612.000000 0.8694 0.8693 0.8693 0.8692 0.8691
2617.000000 0.8690 0.8690 0.8689 0.8689 0.8688
2622.000000 0.8688 0.8687 0.8686 0.8685 0.8685
2627.000000 0.8684 0.8684 0.8683 0.8683 0.8682
2632.000000 0.8682 0.8681 0.8680 0.8679 0.8679
2637.000000 0.8678 0.8677 0.8676 0.8676 0.8675
2642.000000 0.8674 0.8673 0.8673 0.8672 0.8671
2647.000000 0.8670 0.8670 0.8669 0.8668 0.8667
2652.000000 0.8667 0.8666 0.8665 0.8664 0.8664
2657.000000 0.8663 0.8662 0.8661 0.8661 0.8660
2662.000000 0.8659 0.8658 0.8658 0.8657 0.8656
2667.000000 0.8655 0.8655 0.8654 0.8653 0.8652
2672.000000 0.8652 0.8651 0.8650 0.8649 0.8649
2677.000000 0.8648 0.8648 0.8647 0.8646 0.8645
2682.000000 0.8645 0.8644 0.8643 0.8642 0.8642
2687.000000 0.8641 0.8640 0.8639 0.8638 0.8635
2692.000000 0.8633 0.8630 0.8628 0.8625 0.8623
2697.000000 0.8620 0.8618 0.8615 0.8613 0.8610
2702.000000 0.8608 0.8605 0.8603 0.8600 0.8598
2707.000000 0.8595 0.8593 0.8590 0.8588 0.8585
2712.000000 0.8583 0.8580 0.8578 0.8575 0.8573
2717.000000 0.8570 0.8568 0.8565 0.8563 0.8560
2722.000000 0.8558 0.8555 0.8553 0.8550 0.8548
2727.000000 0.8545 0.8543 0.8540 0.8537 0.8534
2732.000000 0.8532 0.8529 0.8526 0.8523 0.8521
2737.000000 0.8518 0.8515 0.8512 0.8510 0.8507
2742.000000 0.8504 0.8502 0.8501 0.8500 0.8499
2747.000000 0.8498 0.8497 0.8496 0.8495 0.8494
2752.000000 0.8493 0.8492 0.8491 0.8490 0.8489
2757.000000 0.8488 0.8488 0.8487 0.8487 0.8487
2762.000000 0.8487 0.8486 0.8486 0.8486 0.8486
2767.000000 0.8486 0.8486 0.8485 0.8485 0.8485
2772.000000 0.8485 0.8484 0.8484 0.8483 0.8483
2777.000000 0.8482 0.8482 0.8480 0.8478 0.8476
2782.000000 0.8474 0.8471 0.8469 0.8466 0.8464
2787.000000 0.8461 0.8458 0.8453 0.8448 0.8443
2792.000000 0.8438 0.8433 0.8428 0.8423 0.8418
2797.000000 0.8413 0.8408 0.8403 0.8398 0.8392
2802.000000 0.8386 0.8380 0.8375 0.8369 0.8363
2807.000000 0.8354 0.8346 0.8337 0.8328 0.8319
2812.000000 0.8310 0.8301 0.8292 0.8283 0.8274
2817.000000 0.8265 0.8256 0.8244 0.8233 0.8220
2822.000000 0.8208 0.8195 0.8182 0.8169 0.8157
2827.000000 0.8144 0.8132 0.8119 0.8106 0.8093
2832.000000 0.8080 0.8061 0.8042 0.8022 0.8003
2837.000000 0.7984 0.7965 0.7946 0.7927 0.7905
2842.000000 0.7884 0.7861 0.7839 0.7817 0.7795
2847.000000 0.7773 0.7751 0.7721 0.7691 0.7654
2852.000000 0.7617 0.7579 0.7542 0.7463 0.7385
2857.000000 0.7117 0.6850 0.6752 0.6654 0.6533
2862.000000 0.6412 0.6325 0.6239 0.6167 0.6095
2867.000000 0.6034 0.5973 0.5930 0.5887 0.5849
2872.000000 0.5812 0.5802 0.5792 0.5799 0.5774
2877.000000 0.5980 0.6154 0.6327 0.6500 0.6673
2882.000000 0.6846 0.7004 0.7163 0.7190 0.7217
2887.000000 0.7220 0.7223 0.7225 0.7227 0.7227
2892.000000 0.7227 0.7223 0.7227 0.7204 0.7189
2897.000000 0.7154 0.7119 0.7084 0.7049 0.7014
2902.000000 0.6979 0.6944 0.6909 0.6874 0.6840
2907.000000 0.6805 0.6770 0.6735 0.6700 0.6630
2912.000000 0.6561 0.6511 0.6461 0.6415 0.6369
2917.000000 0.6321 0.6273 0.6224 0.6176 0.6129
2922.000000 0.6083 0.6037 0.5992 0.5946 0.5900
2927.000000 0.5854 0.5809 0.5763 0.5717 0.5671
2932.000000 0.5626 0.5580 0.5534 0.5512 0.5490
2937.000000 0.5485 0.5481 0.5485 0.5489 0.5500
2942.000000 0.5512 0.5524 0.5537 0.5542 0.5547
2947.000000 0.5548 0.5549 0.5334 0.5120 0.4724
2952.000000 0.4328 0.4140 0.3952 0.3941 0.3924
2957.000000 0.3955 0.3980 0.4142 0.4305 0.4468
2962.000000 0.4631 0.4793 0.4956 0.5119 0.5282
2967.000000 0.5444 0.5607 0.5770 0.5933 0.6095
2972.000000 0.6258 0.6421 0.6584 0.6695 0.6807
2977.000000 0.7108 0.7410 0.7476 0.7543 0.7577
2982.000000 0.7611 0.7636 0.7662 0.7679 0.7696
2987.000000 0.7713 0.7730 0.7746 0.7762 0.7772
2992.000000 0.7783 0.7793 0.7803 0.7813 0.7824
2997.000000 0.7835 0.7847 0.7859 0.7872 0.7884
3002.000000 0.7896 0.7911 0.7927 0.7942 0.7958
3007.000000 0.7974 0.7990 0.8008 0.8026 0.8045
3012.000000 0.8064 0.8082 0.8101 0.8120 0.8140
3017.000000 0.8159 0.8179 0.8199 0.8219 0.8237
3022.000000 0.8256 0.8272 0.8288 0.8304 0.8320
3027.000000 0.8335 0.8350 0.8356 0.8363 0.8369
3032.000000 0.8376 0.8382 0.8389 0.8395 0.8402
3037.000000 0.8406 0.8411 0.8415 0.8420 0.8425
3042.000000 0.8430 0.8434 0.8438 0.8440 0.8443
3047.000000 0.8445 0.8448 0.8450 0.8453 0.8455
3052.000000 0.8457 0.8458 0.8460 0.8461 0.8463
3057.000000 0.8464 0.8466 0.8467 0.8469 0.8470
3062.000000 0.8472 0.8473 0.8475 0.8476 0.8478
3067.000000 0.8479 0.8481 0.8482 0.8484 0.8485
3072.000000 0.8487 0.8488 0.8490 0.8490 0.8491
3077.000000 0.8491 0.8491 0.8491 0.8492 0.8492
3082.000000 0.8493 0.8494 0.8495 0.8496 0.8497
3087.000000 0.8498 0.8499 0.8500 0.8501 0.8502
3092.000000 0.8504 0.8506 0.8508 0.8510 0.8512
3097.000000 0.8512 0.8513 0.8513 0.8513 0.8513
3102.000000 0.8513 0.8513 0.8513 0.8513 0.8513
3107.000000 0.8513 0.8513 0.8513 0.8514 0.8514
3112.000000 0.8515 0.8516 0.8517 0.8517 0.8518
3117.000000 0.8519 0.8520 0.8520 0.8521 0.8522
3122.000000 0.8523 0.8523 0.8524 0.8525 0.8526
3127.000000 0.8526 0.8527 0.8528 0.8529 0.8529
3132.000000 0.8530 0.8530 0.8530 0.8530 0.8531
3137.000000 0.8531 0.8532 0.8532 0.8533 0.8533
3142.000000 0.8534 0.8534 0.8535 0.8535 0.8536
3147.000000 0.8536 0.8537 0.8536 0.8535 0.8534
3152.000000 0.8534 0.8533 0.8533 0.8532 0.8532
3157.000000 0.8531 0.8530 0.8529 0.8529 0.8528
3162.000000 0.8528 0.8527 0.8527 0.8526 0.8525
3167.000000 0.8524 0.8524 0.8523 0.8523 0.8522
3172.000000 0.8522 0.8521 0.8520 0.8519 0.8519
3177.000000 0.8518 0.8517 0.8516 0.8515 0.8513
3182.000000 0.8512 0.8511 0.8510 0.8509 0.8508
3187.000000 0.8507 0.8506 0.8505 0.8504 0.8503
3192.000000 0.8502 0.8501 0.8500 0.8499 0.8498
3197.000000 0.8497 0.8496 0.8495 0.8494 0.8492
3202.000000 0.8491 0.8490 0.8490 0.8490 0.8490
3207.000000 0.8489 0.8489 0.8488 0.8488 0.8487
3212.000000 0.8487 0.8486 0.8486 0.8485 0.8485
3217.000000 0.8484 0.8484 0.8483 0.8483 0.8483
3222.000000 0.8483 0.8482 0.8482 0.8481 0.8481
3227.000000 0.8480 0.8480 0.8479 0.8479 0.8478
3232.000000 0.8478 0.8477 0.8477 0.8476 0.8476
3237.000000 0.8476 0.8476 0.8475 0.8475 0.8474
3242.000000 0.8473 0.8472 0.8472 0.8471 0.8470
3247.000000 0.8469 0.8469 0.8468 0.8467 0.8466
3252.000000 0.8465 0.8464 0.8464 0.8462 0.8461
3257.000000 0.8460 0.8459 0.8458 0.8457 0.8455
3262.000000 0.8454 0.8453 0.8452 0.8451 0.8450
3267.000000 0.8448 0.8447 0.8446 0.8445 0.8443
3272.000000 0.8442 0.8441 0.8440 0.8439 0.8438
3277.000000 0.8436 0.8435 0.8434 0.8433 0.8431
3282.000000 0.8430 0.8429 0.8428 0.8427 0.8426
3287.000000 0.8424 0.8423 0.8421 0.8420 0.8418
3292.000000 0.8417 0.8415 0.8414 0.8412 0.8411
3297.000000 0.8409 0.8408 0.8406 0.8405 0.8403
3302.000000 0.8402 0.8400 0.8399 0.8397 0.8396
3307.000000 0.8395 0.8394 0.8393 0.8393 0.8392
3312.000000 0.8391 0.8390 0.8389 0.8388 0.8388
3317.000000 0.8387 0.8386 0.8385 0.8384 0.8383
3322.000000 0.8383 0.8382 0.8381 0.8380 0.8379
3327.000000 0.8378 0.8377 0.8376 0.8376 0.8375
3332.000000 0.8374 0.8373 0.8372 0.8372 0.8373
3337.000000 0.8374 0.8375 0.8376 0.8368 0.8377
3342.000000 0.8378 0.8379 0.8380 0.8381 0.8382
3347.000000 0.8383 0.8384 0.8384 0.8385 0.8386
3352.000000 0.8387 0.8390 0.8393 0.8396 0.8399
3357.000000 0.8402 0.8405 0.8408 0.8411 0.8414
3362.000000 0.8417 0.8419 0.8422 0.8424 0.8426
3367.000000 0.8428 0.8431 0.8433 0.8435 0.8434
3372.000000 0.8434 0.8433 0.8432 0.8431 0.8431
3377.000000 0.8430 0.8429 0.8428 0.8427 0.8426
3382.000000 0.8425 0.8424 0.8423 0.8422 0.8421
3387.000000 0.8420 0.8420 0.8419 0.8419 0.8418
3392.000000 0.8418 0.8417 0.8416 0.8415 0.8415
3397.000000 0.8414 0.8414 0.8413 0.8413 0.8412
3402.000000 0.8411 0.8410 0.8410 0.8409 0.8409
3407.000000 0.8408 0.8408 0.8407 0.8407 0.8406
3412.000000 0.8406 0.8405 0.8405 0.8404 0.8404
3417.000000 0.8403 0.8403 0.8402 0.8402 0.8401
3422.000000 0.8401 0.8400 0.8400 0.8400 0.8400
3427.000000 0.8399 0.8399 0.8398 0.8398 0.8397
3432.000000 0.8397 0.8396 0.8396 0.8395 0.8395
3437.000000 0.8394 0.8394 0.8393 0.8393 0.8392
3442.000000 0.8392 0.8391 0.8391 0.8390 0.8390
3447.000000 0.8390 0.8390 0.8389 0.8389 0.8388
3452.000000 0.8388 0.8387 0.8387 0.8386 0.8386
3457.000000 0.8385 0.8385 0.8384 0.8384 0.8383
3462.000000 0.8383 0.8382 0.8382 0.8382 0.8382
3467.000000 0.8381 0.8381 0.8380 0.8380 0.8379
3472.000000 0.8379 0.8378 0.8378 0.8377 0.8377
3477.000000 0.8377 0.8377 0.8376 0.8376 0.8376
3482.000000 0.8376 0.8376 0.8376 0.8375 0.8375
3487.000000 0.8375 0.8375 0.8374 0.8374 0.8374
3492.000000 0.8374 0.8373 0.8373 0.8373 0.8373
3497.000000 0.8373 0.8373 0.8372 0.8372 0.8372
3502.000000 0.8372 0.8371 0.8371 0.8371 0.8371
3507.000000 0.8370 0.8370 0.8370 0.8370 0.8369
3512.000000 0.8369 0.8369 0.8369 0.8369 0.8369
3517.000000 0.8368 0.8368 0.8368 0.8369 0.8369
3522.000000 0.8369 0.8369 0.8369 0.8369 0.8369
3527.000000 0.8369 0.8370 0.8370 0.8370 0.8370
3532.000000 0.8370 0.8370 0.8371 0.8371 0.8371
3537.000000 0.8371 0.8371 0.8371 0.8372 0.8372
3542.000000 0.8372 0.8372 0.8372 0.8372 0.8372
3547.000000 0.8372 0.8373 0.8373 0.8373 0.8373
3552.000000 0.8373 0.8373 0.8373 0.8372 0.8372
3557.000000 0.8371 0.8371 0.8370 0.8370 0.8369
3562.000000 0.8369 0.8369 0.8369 0.8368 0.8368
3567.000000 0.8367 0.8367 0.8365 0.8364 0.8359
3572.000000 0.8355 0.8348 0.8341 0.8322 0.8304
3577.000000 0.8288 0.8272 0.8247 0.8222 0.8207
3582.000000 0.8192 0.8185 0.8178 0.8182 0.8186
3587.000000 0.8208 0.8231 0.8270 0.8310 0.8336
3592.000000 0.8363 0.8367 0.8371 0.8373 0.8376
3597.000000 0.8377 0.8378 0.8378 0.8379 0.8379
3602.000000 0.8379 0.8379 0.8379 0.8379 0.8380
3607.000000 0.8380 0.8380 0.8380 0.8381 0.8381
3612.000000 0.8382 0.8382 0.8383 0.8384 0.8385
3617.000000 0.8385 0.8386 0.8387 0.8388 0.8388
3622.000000 0.8389 0.8390 0.8391 0.8392 0.8393
3627.000000 0.8394 0.8396 0.8397 0.8399 0.8400
3632.000000 0.8401 0.8402 0.8404 0.8405 0.8406
3637.000000 0.8406 0.8407 0.8407 0.8408 0.8408
3642.000000 0.8409 0.8409 0.8410 0.8410 0.8411
3647.000000 0.8411 0.8412 0.8412 0.8413 0.8413
3652.000000 0.8414 0.8414 0.8414 0.8413 0.8413
3657.000000 0.8413 0.8413 0.8413 0.8413 0.8412
3662.000000 0.8412 0.8412 0.8412 0.8412 0.8412
3667.000000 0.8411 0.8411 0.8411 0.8411 0.8411
3672.000000 0.8412 0.8412 0.8413 0.8413 0.8414
3677.000000 0.8414 0.8415 0.8415 0.8416 0.8416
3682.000000 0.8417 0.8417 0.8418 0.8418 0.8418
3687.000000 0.8418 0.8419 0.8419 0.8419 0.8419
3692.000000 0.8419 0.8419 0.8419 0.8419 0.8420
3697.000000 0.8420 0.8420 0.8420 0.8420 0.8420
3702.000000 0.8420 0.8420 0.8420 0.8420 0.8420
3707.000000 0.8420 0.8420 0.8420 0.8420 0.8420
3712.000000 0.8420 0.8420 0.8420 0.8420 0.8420
3717.000000 0.8420 0.8420 0.8420 0.8420 0.8420
3722.000000 0.8421 0.8421 0.8421 0.8421 0.8421
3727.000000 0.8421 0.8421 0.8420 0.8420 0.8420
3732.000000 0.8420 0.8419 0.8419 0.8418 0.8418
3737.000000 0.8418 0.8418 0.8417 0.8417 0.8417
3742.000000 0.8417 0.8416 0.8416 0.8416 0.8416
3747.000000 0.8415 0.8415 0.8415 0.8415 0.8414
3752.000000 0.8414 0.8413 0.8413 0.8412 0.8412
3757.000000 0.8411 0.8411 0.8410 0.8410 0.8409
3762.000000 0.8409 0.8408 0.8408 0.8407 0.8407
3767.000000 0.8406 0.8406 0.8405 0.8405 0.8404
3772.000000 0.8404 0.8404 0.8404 0.8403 0.8403
3777.000000 0.8402 0.8402 0.8402 0.8402 0.8401
3782.000000 0.8401 0.8401 0.8401 0.8401 0.8401
3787.000000 0.8400 0.8400 0.8400 0.8400 0.8400
3792.000000 0.8400 0.8399 0.8399 0.8399 0.8399
3797.000000 0.8399 0.8399 0.8398 0.8398 0.8398
3802.000000 0.8398
##END=
