##TITLE=CUPRIC PHOSPHATE, TRIBASIC
$$ C.P.
##JCAMP-DX=4.24
##DATA TYPE=INFRARED SPECTRUM
##CLASS=COBLENTZ
##ORIGIN=MELLON INSTITUTE
##OWNER=COBLENTZ SOCIETY
Collection (C) 2018 copyright by the U.S. Secretary of Commerce
on behalf of the United States of America. All rights reserved.
##DATE=Not specified, most likely prior to 1970
##MOLFORM=Cu3 ( P O4)2  * 3 H2 O
##SOURCE REFERENCE=COBLENTZ NO. 571
##$NIST ID=B6000571
##$NIST SOURCE=COBLENTZ
##$NIST IMAGE=cob571
##SPECTROMETER/DATA SYSTEM=Not specified, most likely a prism, grating, or hybrid spectrometer.
##STATE=SOLID (NUJOL MULL)
##PATH LENGTH=
$$SPECTRAL CONTAMINATION DUE TO OIL AROUND 2900, 1450, 1380 CM^-^1
##SAMPLING PROCEDURE=TRANSMISSION
##RESOLUTION=4
##DATA PROCESSING=DIGITIZED BY NIST FROM HARD COPY
##XUNITS=MICROMETERS
##YUNITS=TRANSMITTANCE
##XFACTOR=1.000000
##YFACTOR=1
##DELTAX=000.006659
##FIRSTX=2.028
##LASTX=16.0039
##FIRSTY=0.831
##MAXX=16.0039
##MINX=2.028
##MAXY=0.966
##MINY=0.053
##NPOINTS=2100
##XYDATA=(X++(Y..Y))
2.028000 0.8310 0.8330 0.8340 0.8340 0.8360
2.061309 0.8360 0.8380 0.8390 0.8410 0.8430
2.094000 0.8440 0.8460 0.8480 0.8490 0.8490
2.127309 0.8510 0.8510 0.8530 0.8540 0.8560
2.161000 0.8580 0.8590 0.8590 0.8590 0.8610
2.194309 0.8630 0.8630 0.8630 0.8660 0.8680
2.228000 0.8690 0.8690 0.8710 0.8710 0.8690
2.261309 0.8690 0.8690 0.8680 0.8640 0.8630
2.294000 0.8610 0.8560 0.8510 0.8480 0.8480
2.327309 0.8530 0.8560 0.8580 0.8580 0.8590
2.361000 0.8590 0.8610 0.8630 0.8640 0.8640
2.394309 0.8660 0.8680 0.8710 0.8730 0.8730
2.427000 0.8780 0.8780 0.8780 0.8760 0.8780
2.460309 0.8780 0.8810 0.8830 0.8840 0.8890
2.494000 0.8910 0.8910 0.8930 0.8930 0.8940
2.527309 0.8960 0.8960 0.8980 0.8980 0.8980
2.561000 0.8980 0.8980 0.8980 0.8980 0.8980
2.594309 0.8980 0.8980 0.8980 0.8990 0.8990
2.627000 0.9010 0.9030 0.9030 0.9030 0.9060
2.660309 0.9060 0.9040 0.9010 0.8990 0.8990
2.694000 0.8990 0.8990 0.8990 0.8990 0.8980
2.727309 0.8960 0.8940 0.8910 0.8840 0.8790
2.760000 0.8730 0.8640 0.8490 0.8360 0.8190
2.793309 0.8110 0.8030 0.7920 0.7810 0.7710
2.827000 0.7620 0.7540 0.7470 0.7420 0.7370
2.860309 0.7310 0.7270 0.7240 0.7190 0.7140
2.893000 0.7110 0.7090 0.7040 0.7020 0.6990
2.926309 0.6970 0.6940 0.6920 0.6910 0.6910
2.960000 0.6910 0.6910 0.6910 0.6910 0.6890
2.993309 0.6910 0.6920 0.6940 0.6970 0.7010
3.027000 0.7040 0.7070 0.7120 0.7160 0.7170
3.060309 0.7190 0.7210 0.7220 0.7260 0.7340
3.093000 0.7360 0.7370 0.7390 0.7410 0.7460
3.126309 0.7470 0.7490 0.7510 0.7570 0.7620
3.160000 0.7670 0.7710 0.7770 0.7840 0.7860
3.193309 0.7870 0.7890 0.7940 0.7990 0.8010
3.226000 0.8030 0.8090 0.8110 0.8110 0.8130
3.259309 0.8130 0.8110 0.8080 0.8010 0.7960
3.293000 0.7870 0.7710 0.7520 0.7190 0.6970
3.326309 0.6020 0.5490 0.4950 0.3370 0.1930
3.360000 0.1210 0.1010 0.0850 0.0700 0.0580
3.393309 0.0530 0.0530 0.0600 0.0930 0.1200
3.426000 0.1410 0.1730 0.1980 0.1980 0.1980
3.459309 0.1880 0.1660 0.1600 0.1610 0.1960
3.493000 0.2320 0.2800 0.3730 0.4600 0.6170
3.526309 0.6840 0.7340 0.7570 0.7970 0.8130
3.559000 0.8310 0.8490 0.8640 0.8760 0.8860
3.592309 0.8940 0.9010 0.9040 0.9090 0.9110
3.626000 0.9140 0.9140 0.9160 0.9160 0.9140
3.659309 0.9110 0.9090 0.9090 0.9130 0.9160
3.692000 0.9160 0.9180 0.9180 0.9160 0.9180
3.725309 0.9180 0.9190 0.9190 0.9190 0.9210
3.759000 0.9210 0.9230 0.9230 0.9240 0.9260
3.792309 0.9280 0.9290 0.9310 0.9330 0.9330
3.826000 0.9340 0.9340 0.9360 0.9360 0.9390
3.859309 0.9410 0.9430 0.9460 0.9480 0.9490
3.892000 0.9510 0.9510 0.9530 0.9530 0.9560
3.925309 0.9560 0.9580 0.9580 0.9590 0.9590
3.959000 0.9610 0.9610 0.9610 0.9610 0.9610
3.992309 0.9610 0.9610 0.9630 0.9630 0.9640
4.025000 0.9630 0.9640 0.9640 0.9640 0.9640
4.058309 0.9640 0.9640 0.9640 0.9640 0.9640
4.092000 0.9660 0.9660 0.9660 0.9660 0.9660
4.125309 0.9660 0.9660 0.9660 0.9660 0.9660
4.159000 0.9660 0.9660 0.9660 0.9660 0.9660
4.192309 0.9640 0.9640 0.9630 0.9610 0.9580
4.225000 0.9560 0.9530 0.9510 0.9480 0.9440
4.258309 0.9410 0.9410 0.9380 0.9360 0.9340
4.292000 0.9340 0.9360 0.9360 0.9380 0.9380
4.325309 0.9380 0.9340 0.9330 0.9310 0.9310
4.358000 0.9310 0.9330 0.9330 0.9330 0.9340
4.391309 0.9360 0.9390 0.9430 0.9460 0.9490
4.425000 0.9510 0.9510 0.9530 0.9530 0.9540
4.458309 0.9540 0.9560 0.9560 0.9580 0.9560
4.492000 0.9560 0.9560 0.9560 0.9560 0.9560
4.525309 0.9560 0.9580 0.9580 0.9580 0.9580
4.558000 0.9540 0.9530 0.9510 0.9480 0.9440
4.591309 0.9430 0.9430 0.9460 0.9490 0.9490
4.625000 0.9490 0.9480 0.9460 0.9460 0.9480
4.658309 0.9480 0.9480 0.9490 0.9510 0.9510
4.691000 0.9510 0.9510 0.9510 0.9490 0.9510
4.724309 0.9490 0.9480 0.9480 0.9490 0.9490
4.758000 0.9490 0.9510 0.9490 0.9490 0.9480
4.791309 0.9480 0.9480 0.9490 0.9490 0.9490
4.824000 0.9490 0.9490 0.9490 0.9480 0.9460
4.857309 0.9460 0.9460 0.9440 0.9440 0.9430
4.891000 0.9430 0.9430 0.9410 0.9390 0.9390
4.924309 0.9390 0.9390 0.9390 0.9390 0.9390
4.958000 0.9390 0.9390 0.9380 0.9380 0.9390
4.991309 0.9390 0.9390 0.9380 0.9380 0.9380
5.024000 0.9380 0.9380 0.9380 0.9380 0.9380
5.057309 0.9380 0.9380 0.9380 0.9380 0.9390
5.091000 0.9410 0.9410 0.9410 0.9410 0.9410
5.124309 0.9410 0.9410 0.9410 0.9380 0.9360
5.157000 0.9340 0.9340 0.9330 0.9310 0.9310
5.190309 0.9310 0.9310 0.9310 0.9310 0.9290
5.224000 0.9290 0.9290 0.9290 0.9280 0.9280
5.257309 0.9280 0.9280 0.9280 0.9210 0.9180
5.291000 0.9180 0.9160 0.9160 0.9180 0.9230
5.324309 0.9290 0.9330 0.9330 0.9310 0.9280
5.357000 0.9280 0.9260 0.9260 0.9240 0.9230
5.390309 0.9210 0.9210 0.9210 0.9190 0.9180
5.424000 0.9160 0.9140 0.9140 0.9130 0.9130
5.457309 0.9110 0.9110 0.9110 0.9090 0.9090
5.490000 0.9090 0.9080 0.9080 0.9060 0.9060
5.523309 0.9040 0.9040 0.9040 0.9030 0.9030
5.557000 0.9030 0.9010 0.9030 0.9030 0.9030
5.590309 0.9030 0.9030 0.9030 0.9030 0.9030
5.623000 0.9030 0.8990 0.8990 0.8980 0.8980
5.656309 0.8960 0.8960 0.8980 0.8990 0.9010
5.690000 0.8990 0.8990 0.8960 0.8930 0.8930
5.723309 0.8910 0.8890 0.8880 0.8840 0.8830
5.757000 0.8830 0.8830 0.8830 0.8830 0.8830
5.790309 0.8830 0.8830 0.8810 0.8790 0.8790
5.823000 0.8790 0.8780 0.8760 0.8740 0.8740
5.856309 0.8730 0.8710 0.8690 0.8680 0.8680
5.890000 0.8660 0.8640 0.8630 0.8590 0.8580
5.923309 0.8530 0.8490 0.8480 0.8460 0.8460
5.956000 0.8430 0.8380 0.8340 0.8330 0.8290
5.989309 0.8280 0.8260 0.8210 0.8160 0.8090
6.023000 0.8080 0.8060 0.8040 0.8030 0.8010
6.056309 0.7970 0.7960 0.7920 0.7890 0.7860
6.090000 0.7810 0.7740 0.7720 0.7710 0.7660
6.123309 0.7640 0.7610 0.7560 0.7520 0.7510
6.156000 0.7490 0.7470 0.7460 0.7460 0.7440
6.189309 0.7440 0.7440 0.7440 0.7440 0.7440
6.223000 0.7440 0.7440 0.7420 0.7420 0.7410
6.256309 0.7410 0.7410 0.7390 0.7390 0.7390
6.289000 0.7370 0.7370 0.7370 0.7360 0.7360
6.322309 0.7360 0.7340 0.7340 0.7320 0.7320
6.356000 0.7310 0.7310 0.7290 0.7270 0.7270
6.389309 0.7270 0.7260 0.7260 0.7240 0.7240
6.423000 0.7220 0.7220 0.7220 0.7210 0.7210
6.456309 0.7190 0.7190 0.7190 0.7170 0.7170
6.489000 0.7160 0.7160 0.7160 0.7140 0.7140
6.522309 0.7140 0.7140 0.7140 0.7140 0.7140
6.556000 0.7160 0.7160 0.7160 0.7160 0.7160
6.589309 0.7160 0.7160 0.7160 0.7160 0.7160
6.622000 0.7160 0.7160 0.7160 0.7160 0.7160
6.655309 0.7160 0.7160 0.7160 0.7160 0.7160
6.689000 0.7140 0.7120 0.7110 0.7090 0.7070
6.722309 0.7060 0.7040 0.7020 0.6960 0.6860
6.755000 0.6810 0.6690 0.6590 0.6510 0.6410
6.788309 0.6190 0.5750 0.5250 0.5000 0.4740
6.822000 0.4350 0.4170 0.4050 0.3970 0.3920
6.855309 0.3880 0.3870 0.3850 0.3850 0.3870
6.889000 0.3880 0.3920 0.3980 0.4070 0.4190
6.922309 0.4340 0.4540 0.4700 0.4890 0.4990
6.955000 0.5240 0.5340 0.5520 0.5820 0.6090
6.988309 0.6160 0.6190 0.6460 0.6610 0.6710
7.022000 0.6760 0.6810 0.6840 0.6860 0.6890
7.055309 0.6940 0.7020 0.7060 0.7140 0.7210
7.088000 0.7270 0.7310 0.7340 0.7360 0.7360
7.121309 0.7390 0.7410 0.7420 0.7440 0.7460
7.155000 0.7460 0.7460 0.7440 0.7440 0.7370
7.188309 0.7270 0.7160 0.7010 0.6840 0.6610
7.222000 0.6440 0.6140 0.5940 0.5770 0.5590
7.255309 0.5570 0.5590 0.5690 0.5750 0.5840
7.288000 0.5900 0.6040 0.6120 0.6160 0.6240
7.321309 0.6290 0.6420 0.6590 0.6760 0.6820
7.355000 0.6910 0.6970 0.7020 0.7060 0.7070
7.388309 0.7070 0.7070 0.7070 0.7060 0.7040
7.421000 0.7040 0.6990 0.6960 0.6960 0.6960
7.454309 0.6970 0.7060 0.7120 0.7020 0.7010
7.488000 0.7040 0.7070 0.7110 0.7110 0.7060
7.521309 0.7020 0.6990 0.6970 0.6940 0.6860
7.554000 0.6840 0.6820 0.6810 0.6770 0.6760
7.587309 0.6760 0.6740 0.6710 0.6690 0.6660
7.621000 0.6640 0.6610 0.6590 0.6570 0.6540
7.654309 0.6520 0.6510 0.6490 0.6470 0.6460
7.688000 0.6460 0.6440 0.6420 0.6410 0.6410
7.721309 0.6390 0.6390 0.6390 0.6390 0.6390
7.754000 0.6390 0.6390 0.6390 0.6390 0.6390
7.787309 0.6390 0.6410 0.6410 0.6410 0.6410
7.821000 0.6410 0.6410 0.6410 0.6410 0.6410
7.854309 0.6420 0.6420 0.6420 0.6410 0.6410
7.887000 0.6410 0.6410 0.6410 0.6420 0.6490
7.920309 0.6490 0.6460 0.6460 0.6460 0.6470
7.954000 0.6490 0.6510 0.6540 0.6540 0.6540
7.987309 0.6560 0.6560 0.6510 0.6510 0.6510
8.021000 0.6510 0.6520 0.6540 0.6540 0.6560
8.054309 0.6560 0.6570 0.6590 0.6590 0.6610
8.087000 0.6620 0.6640 0.6660 0.6670 0.6690
8.120309 0.6710 0.6720 0.6740 0.6760 0.6770
8.154000 0.6790 0.6810 0.6820 0.6840 0.6840
8.187309 0.6860 0.6870 0.6870 0.6870 0.6870
8.220000 0.6870 0.6870 0.6870 0.6860 0.6860
8.253309 0.6840 0.6840 0.6840 0.6820 0.6820
8.287000 0.6810 0.6790 0.6760 0.6740 0.6740
8.320309 0.6720 0.6710 0.6710 0.6690 0.6670
8.354000 0.6660 0.6620 0.6570 0.6540 0.6510
8.387309 0.6490 0.6460 0.6410 0.6320 0.6260
8.420000 0.6190 0.6120 0.6070 0.6040 0.5990
8.453309 0.5940 0.5800 0.5750 0.5700 0.5570
8.487000 0.5420 0.5300 0.5240 0.5170 0.5040
8.520309 0.5020 0.4990 0.4920 0.4850 0.4790
8.553000 0.4650 0.4540 0.4420 0.4340 0.4240
8.586309 0.4150 0.4090 0.4000 0.3900 0.3830
8.620000 0.3750 0.3680 0.3620 0.3570 0.3500
8.653309 0.3450 0.3400 0.3330 0.3280 0.3220
8.686000 0.3150 0.3070 0.3030 0.2980 0.2970
8.719309 0.2920 0.2880 0.2830 0.2820 0.2820
8.753000 0.2800 0.2780 0.2770 0.2750 0.2750
8.786309 0.2750 0.2750 0.2750 0.2750 0.2800
8.820000 0.2820 0.2820 0.2820 0.2820 0.2800
8.853309 0.2780 0.2770 0.2770 0.2730 0.2700
8.886000 0.2670 0.2620 0.2530 0.2500 0.2470
8.919309 0.2420 0.2370 0.2280 0.2220 0.2180
8.953000 0.2120 0.2070 0.2000 0.1930 0.1880
8.986309 0.1810 0.1750 0.1700 0.1630 0.1600
9.019000 0.1550 0.1510 0.1500 0.1480 0.1460
9.052309 0.1430 0.1410 0.1400 0.1380 0.1380
9.086000 0.1360 0.1350 0.1350 0.1350 0.1350
9.119309 0.1350 0.1350 0.1350 0.1350 0.1350
9.153000 0.1350 0.1350 0.1330 0.1330 0.1330
9.186309 0.1310 0.1310 0.1280 0.1280 0.1280
9.219000 0.1260 0.1250 0.1250 0.1230 0.1210
9.252309 0.1200 0.1200 0.1180 0.1180 0.1180
9.286000 0.1180 0.1160 0.1150 0.1150 0.1130
9.319309 0.1110 0.1110 0.1110 0.1110 0.1110
9.352000 0.1110 0.1110 0.1110 0.1110 0.1110
9.385309 0.1110 0.1110 0.1110 0.1110 0.1130
9.419000 0.1150 0.1160 0.1180 0.1200 0.1200
9.452309 0.1210 0.1230 0.1250 0.1250 0.1280
9.485000 0.1300 0.1300 0.1300 0.1310 0.1310
9.518309 0.1330 0.1330 0.1330 0.1350 0.1350
9.552000 0.1360 0.1360 0.1380 0.1380 0.1380
9.585309 0.1400 0.1400 0.1400 0.1400 0.1400
9.619000 0.1400 0.1400 0.1400 0.1400 0.1400
9.652309 0.1400 0.1400 0.1400 0.1400 0.1400
9.685000 0.1380 0.1380 0.1360 0.1350 0.1310
9.718309 0.1310 0.1300 0.1280 0.1260 0.1250
9.752000 0.1230 0.1200 0.1200 0.1180 0.1160
9.785309 0.1150 0.1130 0.1130 0.1100 0.1080
9.818000 0.1060 0.1050 0.1050 0.1030 0.1010
9.851309 0.1010 0.1010 0.1010 0.1010 0.1010
9.885000 0.1030 0.1030 0.1050 0.1050 0.1060
9.918309 0.1060 0.1060 0.1080 0.1110 0.1160
9.952000 0.1180 0.1230 0.1260 0.1280 0.1280
9.985309 0.1300 0.1310 0.1330 0.1360 0.1400
10.018000 0.1410 0.1430 0.1450 0.1460 0.1460
10.051309 0.1480 0.1500 0.1530 0.1560 0.1600
10.085000 0.1650 0.1700 0.1750 0.1780 0.1850
10.118309 0.1950 0.1980 0.2030 0.2130 0.2220
10.151000 0.2250 0.2280 0.2350 0.2370 0.2380
10.184309 0.2420 0.2470 0.2470 0.2520 0.2520
10.218000 0.2530 0.2550 0.2550 0.2570 0.2570
10.251309 0.2570 0.2570 0.2550 0.2530 0.2520
10.285000 0.2520 0.2520 0.2500 0.2480 0.2450
10.318309 0.2400 0.2330 0.2200 0.2070 0.2030
10.351000 0.2000 0.2000 0.1950 0.1930 0.1910
10.384309 0.1900 0.1880 0.1880 0.1880 0.1880
10.418000 0.1880 0.1880 0.1900 0.1910 0.1930
10.451309 0.1960 0.1980 0.2020 0.2070 0.2100
10.484000 0.2150 0.2180 0.2270 0.2350 0.2400
10.517309 0.2470 0.2500 0.2520 0.2570 0.2600
10.551000 0.2620 0.2650 0.2650 0.2670 0.2670
10.584309 0.2670 0.2650 0.2620 0.2570 0.2550
10.617000 0.2550 0.2500 0.2470 0.2430 0.2380
10.650309 0.2330 0.2270 0.2220 0.2170 0.2150
10.684000 0.2130 0.2070 0.2020 0.2000 0.1980
10.717309 0.1960 0.1880 0.1880 0.1860 0.1850
10.751000 0.1810 0.1810 0.1800 0.1800 0.1780
10.784309 0.1760 0.1760 0.1760 0.1760 0.1760
10.817000 0.1760 0.1780 0.1800 0.1850 0.1860
10.850309 0.1880 0.1910 0.1950 0.2020 0.2070
10.884000 0.2120 0.2200 0.2280 0.2370 0.2450
10.917309 0.2530 0.2580 0.2630 0.2680 0.2720
10.950000 0.2780 0.2830 0.2870 0.2920 0.2950
10.983309 0.2980 0.3030 0.3080 0.3150 0.3170
11.017000 0.3180 0.3220 0.3270 0.3280 0.3330
11.050309 0.3370 0.3400 0.3470 0.3500 0.3520
11.084000 0.3530 0.3550 0.3570 0.3580 0.3600
11.117309 0.3620 0.3630 0.3670 0.3680 0.3700
11.150000 0.3720 0.3720 0.3730 0.3750 0.3770
11.183309 0.3770 0.3780 0.3800 0.3800 0.3820
11.217000 0.3820 0.3830 0.3830 0.3830 0.3850
11.250309 0.3850 0.3850 0.3850 0.3850 0.3850
11.283000 0.3830 0.3820 0.3800 0.3800 0.3800
11.316309 0.3800 0.3830 0.3820 0.3820 0.3820
11.350000 0.3820 0.3800 0.3730 0.3680 0.3670
11.383309 0.3680 0.3700 0.3730 0.3750 0.3770
11.416000 0.3780 0.3830 0.3830 0.3780 0.3750
11.449309 0.3770 0.3770 0.3770 0.3720 0.3620
11.483000 0.3600 0.3600 0.3600 0.3620 0.3620
11.516309 0.3620 0.3620 0.3630 0.3630 0.3620
11.550000 0.3630 0.3630 0.3630 0.3670 0.3680
11.583309 0.3700 0.3700 0.3670 0.3650 0.3620
11.616000 0.3620 0.3650 0.3630 0.3630 0.3620
11.649309 0.3570 0.3570 0.3570 0.3570 0.3570
11.683000 0.3550 0.3550 0.3550 0.3550 0.3570
11.716309 0.3580 0.3620 0.3630 0.3630 0.3650
11.749000 0.3670 0.3670 0.3570 0.3570 0.3570
11.782309 0.3580 0.3580 0.3600 0.3620 0.3630
11.816000 0.3630 0.3630 0.3630 0.3630 0.3630
11.849309 0.3630 0.3630 0.3650 0.3670 0.3670
11.883000 0.3680 0.3700 0.3700 0.3720 0.3720
11.916309 0.3750 0.3800 0.3800 0.3800 0.3820
11.949000 0.3830 0.3850 0.3880 0.3900 0.3920
11.982309 0.3920 0.3920 0.3920 0.3930 0.3950
12.016000 0.3970 0.3980 0.3980 0.4000 0.4000
12.049309 0.4000 0.4020 0.4020 0.4040 0.4040
12.082000 0.4050 0.4050 0.4070 0.4070 0.4090
12.115309 0.4100 0.4100 0.4100 0.4100 0.4120
12.149000 0.4120 0.4120 0.4120 0.4140 0.4150
12.182309 0.4150 0.4170 0.4190 0.4190 0.4200
12.215000 0.4220 0.4240 0.4250 0.4250 0.4270
12.248309 0.4290 0.4300 0.4320 0.4340 0.4350
12.282000 0.4370 0.4370 0.4390 0.4390 0.4400
12.315309 0.4400 0.4450 0.4470 0.4490 0.4500
12.349000 0.4520 0.4540 0.4550 0.4570 0.4590
12.382309 0.4600 0.4600 0.4620 0.4620 0.4640
12.415000 0.4650 0.4650 0.4670 0.4690 0.4690
12.448309 0.4700 0.4720 0.4720 0.4750 0.4770
12.482000 0.4790 0.4790 0.4820 0.4850 0.4870
12.515309 0.4920 0.4950 0.4970 0.4970 0.4990
12.548000 0.5020 0.5020 0.5040 0.5050 0.5050
12.581309 0.5090 0.5120 0.5140 0.5150 0.5170
12.615000 0.5200 0.5200 0.5220 0.5240 0.5240
12.648309 0.5250 0.5250 0.5270 0.5290 0.5320
12.682000 0.5350 0.5390 0.5400 0.5420 0.5470
12.715309 0.5500 0.5520 0.5540 0.5570 0.5590
12.748000 0.5600 0.5620 0.5640 0.5650 0.5670
12.781309 0.5670 0.5690 0.5700 0.5700 0.5720
12.815000 0.5740 0.5750 0.5790 0.5800 0.5820
12.848309 0.5820 0.5840 0.5870 0.5890 0.5900
12.881000 0.5920 0.5940 0.5950 0.5970 0.5970
12.914309 0.5990 0.6010 0.6020 0.6020 0.6060
12.948000 0.6070 0.6090 0.6090 0.6110 0.6120
12.981309 0.6160 0.6160 0.6170 0.6210 0.6210
13.015000 0.6220 0.6240 0.6260 0.6260 0.6270
13.048309 0.6290 0.6290 0.6310 0.6320 0.6340
13.081000 0.6360 0.6370 0.6390 0.6410 0.6420
13.114309 0.6460 0.6470 0.6490 0.6510 0.6520
13.148000 0.6540 0.6560 0.6570 0.6590 0.6610
13.181309 0.6620 0.6640 0.6660 0.6670 0.6670
13.214000 0.6690 0.6690 0.6710 0.6710 0.6710
13.247309 0.6710 0.6740 0.6770 0.6770 0.6790
13.281000 0.6790 0.6810 0.6810 0.6820 0.6860
13.314309 0.6870 0.6870 0.6870 0.6890 0.6890
13.347000 0.6890 0.6890 0.6910 0.6920 0.6940
13.380309 0.6970 0.6990 0.7010 0.7010 0.7010
13.414000 0.7010 0.7020 0.7020 0.7020 0.7020
13.447309 0.7020 0.7020 0.7020 0.7020 0.7040
13.481000 0.7040 0.7040 0.7040 0.7060 0.7070
13.514309 0.7070 0.7090 0.7110 0.7110 0.7110
13.547000 0.7110 0.7110 0.7110 0.7110 0.7110
13.580309 0.7110 0.7110 0.7110 0.7110 0.7110
13.614000 0.7110 0.7110 0.7110 0.7120 0.7120
13.647309 0.7140 0.7160 0.7160 0.7140 0.7160
13.680000 0.7160 0.7160 0.7170 0.7190 0.7210
13.713309 0.7210 0.7210 0.7210 0.7210 0.7190
13.747000 0.7190 0.7190 0.7190 0.7190 0.7190
13.780309 0.7190 0.7210 0.7190 0.7190 0.7210
13.814000 0.7190 0.7190 0.7190 0.7210 0.7190
13.847309 0.7190 0.7190 0.7170 0.7170 0.7170
13.880000 0.7170 0.7190 0.7220 0.7240 0.7240
13.913309 0.7260 0.7270 0.7270 0.7270 0.7290
13.947000 0.7290 0.7310 0.7310 0.7340 0.7370
13.980309 0.7370 0.7370 0.7370 0.7390 0.7390
14.013000 0.7420 0.7420 0.7460 0.7470 0.7490
14.046309 0.7490 0.7510 0.7510 0.7520 0.7520
14.080000 0.7490 0.7440 0.7440 0.7440 0.7420
14.113309 0.7420 0.7440 0.7440 0.7460 0.7460
14.146000 0.7470 0.7470 0.7490 0.7510 0.7510
14.179309 0.7510 0.7510 0.7510 0.7510 0.7520
14.213000 0.7520 0.7540 0.7540 0.7560 0.7560
14.246309 0.7570 0.7570 0.7570 0.7590 0.7610
14.280000 0.7610 0.7620 0.7620 0.7620 0.7620
14.313309 0.7620 0.7620 0.7620 0.7620 0.7620
14.346000 0.7620 0.7610 0.7590 0.7570 0.7570
14.379309 0.7560 0.7560 0.7540 0.7540 0.7560
14.413000 0.7560 0.7590 0.7590 0.7590 0.7590
14.446309 0.7590 0.7560 0.7540 0.7540 0.7520
14.479000 0.7510 0.7460 0.7420 0.7420 0.7420
14.512309 0.7440 0.7440 0.7440 0.7460 0.7470
14.546000 0.7470 0.7470 0.7470 0.7470 0.7470
14.579309 0.7470 0.7460 0.7440 0.7440 0.7410
14.613000 0.7390 0.7340 0.7320 0.7290 0.7240
14.646309 0.7210 0.7170 0.7170 0.7170 0.7190
14.679000 0.7240 0.7270 0.7290 0.7290 0.7270
14.712309 0.7240 0.7220 0.7220 0.7190 0.7190
14.746000 0.7190 0.7190 0.7190 0.7190 0.7190
14.779309 0.7190 0.7190 0.7190 0.7190 0.7190
14.812000 0.7190 0.7190 0.7170 0.7170 0.7170
14.845309 0.7170 0.7170 0.7170 0.7170 0.7160
14.879000 0.7160 0.7140 0.7140 0.7140 0.7120
14.912309 0.7110 0.7070 0.7060 0.7060 0.7040
14.946000 0.7020 0.7010 0.7010 0.6990 0.6970
14.979309 0.6960 0.6940 0.6890 0.6870 0.6870
15.012000 0.6860 0.6840 0.6810 0.6790 0.6770
15.045309 0.6760 0.6740 0.6720 0.6710 0.6690
15.079000 0.6670 0.6660 0.6640 0.6620 0.6620
15.112309 0.6610 0.6590 0.6570 0.6560 0.6540
15.145000 0.6520 0.6510 0.6490 0.6460 0.6420
15.178309 0.6390 0.6370 0.6360 0.6360 0.6340
15.212000 0.6340 0.6310 0.6270 0.6270 0.6260
15.245309 0.6190 0.6160 0.6140 0.6120 0.6090
15.278000 0.6070 0.6040 0.6010 0.5990 0.5970
15.311309 0.5970 0.5900 0.5870 0.5850 0.5850
15.345000 0.5820 0.5820 0.5790 0.5770 0.5740
15.378309 0.5740 0.5700 0.5690 0.5670 0.5650
15.412000 0.5650 0.5640 0.5620 0.5600 0.5590
15.445309 0.5570 0.5570 0.5550 0.5550 0.5540
15.478000 0.5540 0.5520 0.5520 0.5500 0.5500
15.511309 0.5500 0.5500 0.5500 0.5500 0.5500
15.545000 0.5500 0.5500 0.5500 0.5500 0.5520
15.578309 0.5520 0.5540 0.5540 0.5550 0.5550
15.611000 0.5570 0.5570 0.5590 0.5600 0.5600
15.644309 0.5600 0.5600 0.5590 0.5590 0.5570
15.678000 0.5570 0.5570 0.5570 0.5570 0.5570
15.711309 0.5570 0.5570 0.5570 0.5570 0.5570
15.745000 0.5570 0.5570 0.5570 0.5570 0.5590
15.778309 0.5590 0.5590 0.5600 0.5600 0.5600
15.811000 0.5600 0.5600 0.5600 0.5600 0.5600
15.844309 0.5600 0.5600 0.5620 0.5640 0.5640
15.878000 0.5640 0.5650 0.5650 0.5650 0.5650
15.911309 0.5650 0.5650 0.5650 0.5650 0.5650
15.944000 0.5650 0.5650 0.5670 0.5690 0.5700
15.977309 0.5720 0.5740 0.5740 0.5740 0.5740
##END=
