##TITLE=Pseudourea, 2-[2-(1-adamantylamino)ethyl]-2-thio-, dihydrobromide
##JCAMP-DX=4.24
##DATA TYPE=INFRARED SPECTRUM
##CLASS=COBLENTZ III
##ORIGIN=SOUTHERN RESEARCH INSTITUTE
##OWNER=Copyright (C) 1987 by the Coblentz Society
Collection (C) 2018 copyright by the U.S. Secretary of Commerce
on behalf of the United States of America. All rights reserved.
##DATE=1966/10/24
##MOLFORM=C13 H25 Br2 N3 S
##SOURCE REFERENCE=COBLENTZ NO. 7849
##$NIST ID=B6007849
##$NIST SOURCE=COBLENTZ
##$NIST IMAGE=cob7849
##SPECTROMETER/DATA SYSTEM=PERKIN-ELMER 521 (GRATING)
##INSTRUMENT PARAMETERS=FILTERS AT 3150, 2500, 2000, 1150, 700, 410. GRATING CHANGES: 2000, 630
##STATE=SOLID (1 mg / 650 mg KBr DISC)
##SAMPLING PROCEDURE=TRANSMISSION
##RESOLUTION=2
##DATA PROCESSING=DIGITIZED BY COBLENTZ SOCIETY (BATCH II) FROM HARD COPY (ADJUSTED \addcm-1\10-8-2\)
##XUNITS=1/CM
##YUNITS=TRANSMITTANCE
##XFACTOR=1.0
##YFACTOR=1
##DELTAX=1.000700
##FIRSTX=261.483
##LASTX=3859
##FIRSTY=0.3207
##MAXX=3859
##MINX=261.483
##MAXY=0.913046
##MINY=0.0732888
##NPOINTS=3596
##XYDATA=(X++(Y..Y))
261.483333 0.3207 0.3227 0.3266 0.3314 0.3379
266.486833 0.3469 0.3631 0.3928 0.4019 0.4098
271.490332 0.4140 0.4182 0.4224 0.4267 0.4310
276.493831 0.4352 0.4387 0.4421 0.4441 0.4461
281.497330 0.4481 0.4501 0.4528 0.4564 0.4602
286.500830 0.4653 0.4708 0.4760 0.4809 0.4856
291.504329 0.4903 0.4950 0.4997 0.5043 0.5090
296.507828 0.5142 0.5225 0.5341 0.5473 0.5610
301.511327 0.5739 0.5856 0.5952 0.6051 0.6156
306.514827 0.6244 0.6311 0.6375 0.6434 0.6492
311.518326 0.6547 0.6585 0.6621 0.6649 0.6676
316.521825 0.6703 0.6729 0.6753 0.6777 0.6803
321.525324 0.6841 0.6879 0.6895 0.6909 0.6921
326.528824 0.6930 0.6940 0.6951 0.6968 0.6988
331.532323 0.7016 0.7052 0.7131 0.7259 0.7328
336.535822 0.7380 0.7449 0.7529 0.7580 0.7611
341.539321 0.7643 0.7676 0.7711 0.7746 0.7783
346.542821 0.7826 0.7869 0.7911 0.7954 0.7991
351.546320 0.8013 0.8031 0.8046 0.8058 0.8068
356.549819 0.8079 0.8091 0.8103 0.8117 0.8135
361.553319 0.8157 0.8183 0.8210 0.8237 0.8268
366.556818 0.8303 0.8341 0.8382 0.8411 0.8413
371.560317 0.8405 0.8394 0.8376 0.8344 0.8302
376.563816 0.8265 0.8225 0.8182 0.8127 0.7964
381.567316 0.7720 0.7514 0.7416 0.7417 0.7643
386.570815 0.7935 0.8002 0.7977 0.7912 0.7828
391.574314 0.7744 0.7665 0.7631 0.7695 0.7842
396.577813 0.7995 0.8073 0.8109 0.8157 0.8215
401.581313 0.8278 0.8335 0.8396 0.8540 0.8642
406.584812 0.8660 0.8670 0.8678 0.8685 0.8693
411.588311 0.8704 0.8721 0.8746 0.8780 0.8806
416.591810 0.8801 0.8811 0.8820 0.8819 0.8816
421.595310 0.8812 0.8808 0.8804 0.8800 0.8796
426.598809 0.8792 0.8787 0.8783 0.8777 0.8770
431.602308 0.8763 0.8756 0.8748 0.8738 0.8728
436.605807 0.8714 0.8697 0.8679 0.8657 0.8626
441.609307 0.8546 0.8446 0.8348 0.8249 0.8150
446.612806 0.8086 0.8074 0.8096 0.8165 0.8246
451.616305 0.8327 0.8409 0.8443 0.8447 0.8342
456.619804 0.8128 0.7892 0.7656 0.7421 0.7185
461.623304 0.6958 0.6878 0.6855 0.6846 0.6853
466.626803 0.6993 0.7212 0.7378 0.7422 0.7648
471.630302 0.7932 0.8220 0.8508 0.8683 0.8736
476.633801 0.8773 0.8795 0.8815 0.8834 0.8845
481.637301 0.8855 0.8865 0.8870 0.8870 0.8870
486.640800 0.8863 0.8892 0.8851 0.8840 0.8832
491.644299 0.8819 0.8806 0.8793 0.8780 0.8769
496.647798 0.8760 0.8751 0.8747 0.8753 0.8758
501.651298 0.8764 0.8769 0.8774 0.8778 0.8783
506.654797 0.8788 0.8792 0.8792 0.8788 0.8780
511.658296 0.8773 0.8766 0.8758 0.8751 0.8743
516.661796 0.8735 0.8728 0.8720 0.8712 0.8704
521.665295 0.8695 0.8684 0.8673 0.8661 0.8650
526.668794 0.8638 0.8627 0.8615 0.8604 0.8592
531.672293 0.8582 0.8573 0.8563 0.8553 0.8543
536.675793 0.8533 0.8523 0.8513 0.8503 0.8494
541.679292 0.8483 0.8472 0.8461 0.8450 0.8439
546.682791 0.8428 0.8418 0.8407 0.8396 0.8385
551.686290 0.8374 0.8364 0.8349 0.8334 0.8319
556.689790 0.8305 0.8290 0.8275 0.8261 0.8246
561.693289 0.8231 0.8213 0.8195 0.8177 0.8158
566.696788 0.8140 0.8122 0.8102 0.8076 0.8046
571.700287 0.8016 0.7984 0.7952 0.7919 0.7884
576.703787 0.7837 0.7752 0.7598 0.7517 0.7508
581.707286 0.7512 0.7556 0.7579 0.7605 0.7628
586.710785 0.7646 0.7665 0.7684 0.7703 0.7721
591.714284 0.7741 0.7761 0.7782 0.7805 0.7828
596.717784 0.7847 0.7864 0.7876 0.7878 0.7875
601.721283 0.7869 0.7856 0.7834 0.7803 0.7775
606.724782 0.7753 0.7731 0.7709 0.7687 0.7665
611.728281 0.7643 0.7620 0.7595 0.7572 0.7546
616.731781 0.7509 0.7466 0.7427 0.7391 0.7356
621.735280 0.7319 0.7281 0.7242 0.7203 0.7161
626.738779 0.7112 0.7058 0.7001 0.6940 0.6875
631.742278 0.6805 0.6730 0.6640 0.6546 0.6438
636.745778 0.6284 0.6143 0.6037 0.5928 0.5860
641.749277 0.5839 0.5819 0.5793 0.5744 0.5642
646.752776 0.5499 0.5344 0.5190 0.5091 0.5045
651.756275 0.5042 0.5057 0.5074 0.5158 0.5285
656.759775 0.5411 0.5538 0.5665 0.5801 0.5864
661.763274 0.5870 0.5868 0.5862 0.5839 0.5710
666.766773 0.5526 0.5342 0.5159 0.4975 0.4790
671.770273 0.4606 0.4423 0.4239 0.4055 0.3871
676.773772 0.3792 0.3774 0.4012 0.4525 0.5111
681.777271 0.5697 0.6082 0.6179 0.6190 0.6182
686.780770 0.6182 0.6101 0.5971 0.5834 0.5699
691.784270 0.5562 0.5427 0.5291 0.5155 0.5019
696.787769 0.4883 0.4747 0.4611 0.4475 0.4407
701.791268 0.4372 0.4373 0.4443 0.4585 0.4743
706.794767 0.4902 0.5059 0.5217 0.5375 0.5514
711.798267 0.5635 0.5760 0.5937 0.6292 0.6467
716.801766 0.6590 0.6718 0.6851 0.6991 0.7186
721.805265 0.7388 0.7533 0.7642 0.7739 0.7822
726.808764 0.7863 0.7888 0.7895 0.7894 0.7892
731.812264 0.7885 0.7878 0.7867 0.7845 0.7809
736.815763 0.7733 0.7430 0.7078 0.6727 0.6376
741.819262 0.6133 0.6085 0.6306 0.6688 0.7094
746.822761 0.7499 0.7905 0.8190 0.8300 0.8377
751.826261 0.8382 0.8378 0.8346 0.8245 0.8132
756.829760 0.8020 0.7907 0.7794 0.7681 0.7569
761.833259 0.7456 0.7419 0.7429 0.7579 0.7723
766.836758 0.7743 0.7740 0.7717 0.7690 0.7661
771.840258 0.7636 0.7630 0.7629 0.7716 0.7824
776.843757 0.7934 0.8217 0.8387 0.8494 0.8562
781.847256 0.8625 0.8678 0.8728 0.8777 0.8833
786.850755 0.8891 0.8944 0.8979 0.9010 0.9035
791.854255 0.9049 0.9060 0.9063 0.9061 0.9059
796.857754 0.9057 0.9054 0.9050 0.9044 0.9032
801.861253 0.9002 0.8968 0.8918 0.8859 0.8803
806.864753 0.8787 0.8788 0.8816 0.8875 0.8961
811.868252 0.9031 0.9076 0.9103 0.9116 0.9120
816.871751 0.9130 0.9125 0.9126 0.9127 0.9128
821.875250 0.9128 0.9127 0.9126 0.9125 0.9124
826.878750 0.9123 0.9122 0.9121 0.9119 0.9118
831.882249 0.9116 0.9114 0.9112 0.9110 0.9108
836.885748 0.9106 0.9104 0.9102 0.9100 0.9098
841.889247 0.9091 0.9083 0.9075 0.9067 0.9056
846.892747 0.9045 0.9035 0.9024 0.9006 0.8985
851.896246 0.8958 0.8930 0.8895 0.8859 0.8820
856.899745 0.8780 0.8739 0.8699 0.8658 0.8618
861.903244 0.8580 0.8586 0.8589 0.8596 0.8621
866.906744 0.8745 0.8815 0.8879 0.8900 0.8910
871.910243 0.8906 0.8901 0.8896 0.8891 0.8885
876.913742 0.8879 0.8872 0.8864 0.8855 0.8846
881.917241 0.8837 0.8825 0.8813 0.8799 0.8793
886.920741 0.8799 0.8820 0.8840 0.8861 0.8883
891.924240 0.8902 0.8918 0.8930 0.8939 0.8945
896.927739 0.8947 0.8945 0.8942 0.8938 0.8935
901.931238 0.8931 0.8931 0.8931 0.8934 0.8939
906.934738 0.8944 0.8949 0.8954 0.8966 0.8960
911.938237 0.8962 0.8963 0.8963 0.8963 0.8963
916.941736 0.8961 0.8958 0.8954 0.8946 0.8937
921.945235 0.8927 0.8910 0.8891 0.8864 0.8802
926.948735 0.8670 0.8533 0.8397 0.8261 0.8124
931.952234 0.7987 0.7850 0.7807 0.7797 0.7984
936.955733 0.8387 0.8748 0.8788 0.8795 0.8800
941.959232 0.8802 0.8803 0.8797 0.8795 0.8793
946.962732 0.8790 0.8788 0.8786 0.8782 0.8777
951.966231 0.8772 0.8767 0.8759 0.8752 0.8744
956.969730 0.8737 0.8729 0.8722 0.8715 0.8697
961.973230 0.8679 0.8655 0.8624 0.8584 0.8543
966.976729 0.8496 0.8431 0.8316 0.8139 0.7961
971.980228 0.7783 0.7604 0.7425 0.7247 0.7125
976.983727 0.7115 0.7121 0.7569 0.8156 0.8621
981.987227 0.8650 0.8662 0.8668 0.8668 0.8668
986.990726 0.8663 0.8658 0.8654 0.8647 0.8641
991.994225 0.8634 0.8626 0.8617 0.8608 0.8599
996.997724 0.8586 0.8569 0.8552 0.8533 0.8514
1002.001224 0.8494 0.8474 0.8452 0.8410 0.8368
1007.004723 0.8300 0.8102 0.7784 0.7466 0.7147
1012.008222 0.6872 0.6866 0.6849 0.6928 0.7199
1017.011721 0.7469 0.7740 0.7946 0.7945 0.7920
1022.015221 0.7875 0.7831 0.7787 0.7747 0.7753
1027.018720 0.7791 0.7925 0.8059 0.8191 0.8225
1032.022219 0.8225 0.8236 0.8220 0.8211 0.8197
1037.025718 0.8182 0.8165 0.8143 0.8114 0.8090
1042.029218 0.8066 0.8042 0.8018 0.7994 0.7969
1047.032717 0.7942 0.7895 0.7705 0.7444 0.7179
1052.036216 0.6858 0.6776 0.6749 0.6729 0.6708
1057.039715 0.6648 0.6551 0.6456 0.6406 0.6411
1062.043215 0.6481 0.6678 0.6874 0.7065 0.7157
1067.046714 0.7160 0.7153 0.7140 0.7112 0.7076
1072.050213 0.7024 0.6941 0.6789 0.6604 0.6418
1077.053712 0.6233 0.6054 0.5995 0.6019 0.6552
1082.057212 0.6555 0.6542 0.6427 0.6313 0.6198
1087.060711 0.6090 0.6101 0.6243 0.6162 0.6845
1092.064210 0.7132 0.7421 0.7706 0.7934 0.7934
1097.067709 0.7930 0.7852 0.7617 0.7383 0.7148
1102.071209 0.6919 0.6765 0.6781 0.6984 0.7364
1107.074708 0.7688 0.7753 0.7807 0.7872 0.7933
1112.078207 0.7987 0.8046 0.8087 0.8125 0.8161
1117.081707 0.8195 0.8226 0.8244 0.8262 0.8280
1122.085206 0.8292 0.8302 0.8299 0.8295 0.8289
1127.088705 0.8282 0.8275 0.8267 0.8260 0.8252
1132.092204 0.8242 0.8233 0.8222 0.8209 0.8195
1137.095704 0.8181 0.8166 0.8149 0.8132 0.8115
1142.099203 0.8093 0.8066 0.8040 0.8007 0.7971
1147.102702 0.7934 0.7895 0.7854 0.7812 0.7768
1152.106201 0.7686 0.7553 0.7407 0.7260 0.7114
1157.109701 0.6996 0.6968 0.7093 0.7417 0.7649
1162.113200 0.7719 0.7746 0.7775 0.7794 0.7804
1167.116699 0.7812 0.7812 0.7805 0.7794 0.7782
1172.120198 0.7770 0.7755 0.7739 0.7721 0.7702
1177.123698 0.7681 0.7658 0.7633 0.7599 0.7550
1182.127197 0.7489 0.7425 0.7356 0.7303 0.7282
1187.130696 0.7358 0.7472 0.7512 0.7526 0.7525
1192.134195 0.7515 0.7497 0.7477 0.7458 0.7437
1197.137695 0.7414 0.7396 0.7391 0.7402 0.7438
1202.141194 0.7489 0.7530 0.7559 0.7571 0.7580
1207.144693 0.7583 0.7583 0.7583 0.7581 0.7578
1212.148192 0.7576 0.7571 0.7562 0.7551 0.7533
1217.151692 0.7510 0.7470 0.7433 0.7395 0.7351
1222.155191 0.7299 0.7233 0.7162 0.7108 0.7051
1227.158690 0.6989 0.6903 0.6783 0.6662 0.6541
1232.162189 0.6420 0.6300 0.6179 0.6073 0.6057
1237.165689 0.6049 0.6155 0.6338 0.6521 0.6704
1242.169188 0.6876 0.6916 0.6924 0.6929 0.6929
1247.172687 0.6927 0.6924 0.6911 0.6896 0.6877
1252.176187 0.6855 0.6833 0.6812 0.6791 0.6770
1257.179686 0.6749 0.6718 0.6687 0.6659 0.6632
1262.183185 0.6604 0.6575 0.6546 0.6517 0.6481
1267.186684 0.6438 0.6380 0.6140 0.5879 0.5635
1272.190184 0.5605 0.5612 0.5663 0.5737 0.5814
1277.193683 0.5892 0.5968 0.6045 0.6122 0.6199
1282.197182 0.6227 0.6226 0.6213 0.6185 0.6059
1287.200681 0.5906 0.5754 0.5602 0.5450 0.5313
1292.204181 0.5276 0.5276 0.5360 0.5686 0.6097
1297.207680 0.6226 0.6226 0.6133 0.5896 0.5609
1302.211179 0.5322 0.5034 0.4747 0.4373 0.4206
1307.214678 0.4205 0.4485 0.5072 0.5745 0.6319
1312.218178 0.6559 0.6585 0.6592 0.6596 0.6599
1317.221677 0.6601 0.6604 0.6608 0.6615 0.6622
1322.225176 0.6633 0.6647 0.6660 0.6672 0.6680
1327.228675 0.6683 0.6676 0.6656 0.6626 0.6588
1332.232175 0.6539 0.6483 0.6424 0.6302 0.6090
1337.235674 0.5860 0.5630 0.5400 0.5210 0.5134
1342.239173 0.5143 0.5367 0.5774 0.5775 0.5707
1347.242672 0.5429 0.5006 0.4583 0.4161 0.3738
1352.246172 0.3315 0.2971 0.2860 0.2982 0.3676
1357.249671 0.4686 0.5118 0.5087 0.4946 0.4762
1362.253170 0.4580 0.4420 0.4360 0.4408 0.4608
1367.256669 0.4855 0.5102 0.5349 0.5625 0.5952
1372.260169 0.6067 0.6144 0.6155 0.6159 0.6159
1377.263668 0.6149 0.6130 0.6104 0.6069 0.6031
1382.267167 0.5999 0.5969 0.5938 0.5905 0.5872
1387.270666 0.5839 0.5804 0.5766 0.5727 0.5686
1392.274166 0.5636 0.5582 0.5525 0.5463 0.5400
1397.277665 0.5328 0.5253 0.5160 0.4999 0.4882
1402.281164 0.4755 0.4493 0.4024 0.3555 0.3101
1407.284664 0.2777 0.2739 0.2758 0.2731 0.2768
1412.288163 0.3012 0.3271 0.3531 0.3790 0.4049
1417.291662 0.4296 0.4412 0.4485 0.4537 0.4584
1422.295161 0.4632 0.4689 0.4738 0.4772 0.4790
1427.298661 0.4799 0.4808 0.4821 0.4839 0.4865
1432.302160 0.4908 0.4948 0.4980 0.5002 0.5017
1437.305659 0.5012 0.4801 0.4659 0.4517 0.4375
1442.309158 0.4233 0.4091 0.3948 0.3751 0.3747
1447.312658 0.3752 0.3889 0.4069 0.4250 0.4430
1452.316157 0.4610 0.4790 0.4971 0.5150 0.5382
1457.319656 0.5356 0.5128 0.4896 0.4665 0.4366
1462.323155 0.4377 0.4407 0.4939 0.5487 0.6035
1467.326655 0.6583 0.7131 0.7678 0.7844 0.7850
1472.330154 0.7776 0.7636 0.7493 0.7425 0.7421
1477.333653 0.7569 0.7775 0.8026 0.8067 0.8092
1482.337152 0.8110 0.8125 0.8133 0.8140 0.8150
1487.340652 0.8162 0.8175 0.8206 0.8250 0.8294
1492.344151 0.8305 0.8321 0.8311 0.8303 0.8293
1497.347650 0.8278 0.8262 0.8245 0.8228 0.8208
1502.351149 0.8186 0.8164 0.8142 0.8118 0.8094
1507.354649 0.8070 0.8047 0.8021 0.7995 0.7969
1512.358148 0.7943 0.7915 0.7878 0.7838 0.7798
1517.361647 0.7758 0.7715 0.7668 0.7619 0.7568
1522.365146 0.7506 0.7442 0.7377 0.7312 0.7246
1527.368646 0.7179 0.7111 0.7041 0.6980 0.6924
1532.372145 0.6889 0.6871 0.6868 0.6859 0.6873
1537.375644 0.6891 0.6918 0.6953 0.6993 0.7049
1542.379143 0.7110 0.7172 0.7236 0.7314 0.7398
1547.382643 0.7479 0.7557 0.7611 0.7629 0.7632
1552.386142 0.7632 0.7633 0.7614 0.7562 0.7486
1557.389641 0.7370 0.7268 0.7170 0.7060 0.6764
1562.393141 0.6395 0.6026 0.5657 0.5289 0.4920
1567.396640 0.4551 0.4301 0.4255 0.4409 0.4997
1572.400139 0.5756 0.6515 0.7097 0.7309 0.7405
1577.403638 0.7698 0.7936 0.8004 0.8013 0.8011
1582.407138 0.8003 0.7992 0.7979 0.7963 0.7946
1587.410637 0.7923 0.7895 0.7864 0.7836 0.7810
1592.414136 0.7784 0.7759 0.7735 0.7710 0.7685
1597.417635 0.7661 0.7631 0.7598 0.7563 0.7518
1602.421135 0.7467 0.7416 0.7360 0.7302 0.7245
1607.424634 0.7171 0.7085 0.6937 0.6651 0.6346
1612.428133 0.6074 0.5560 0.5196 0.5070 0.4936
1617.431632 0.4630 0.4143 0.3617 0.3090 0.2563
1622.435132 0.2037 0.1591 0.1412 0.1402 0.1401
1627.438631 0.1406 0.1791 0.2504 0.3222 0.3940
1632.442130 0.4658 0.5078 0.5143 0.5136 0.5130
1637.445629 0.5043 0.4805 0.4492 0.4179 0.3866
1642.449129 0.3553 0.3240 0.2927 0.2614 0.2301
1647.452628 0.1988 0.1675 0.1362 0.1048 0.0821
1652.456127 0.0742 0.0733 0.0739 0.0924 0.1523
1657.459626 0.2368 0.3214 0.4061 0.4907 0.5604
1662.463126 0.5997 0.6168 0.6267 0.6382 0.6509
1667.466625 0.6749 0.6983 0.7075 0.7180 0.7374
1672.470124 0.7630 0.7876 0.8084 0.8195 0.8274
1677.473623 0.8342 0.8406 0.8463 0.8515 0.8560
1682.477123 0.8592 0.8618 0.8644 0.8668 0.8689
1687.480622 0.8711 0.8732 0.8754 0.8776 0.8798
1692.484121 0.8821 0.8843 0.8865 0.8886 0.8903
1697.487621 0.8916 0.8929 0.8942 0.8955 0.8967
1702.491120 0.8979 0.8991 0.9003 0.9015 0.9026
1707.494619 0.9037 0.9044 0.9048 0.9052 0.9043
1712.498118 0.9044 0.9060 0.9056 0.9052 0.9044
1717.501618 0.9032 0.9020 0.9008 0.8993 0.8980
1722.505117 0.8970 0.8963 0.8956 0.8949 0.8942
1727.508616 0.8938 0.8935 0.8932 0.8929 0.8926
1732.512115 0.8924 0.8925 0.8928 0.8934 0.8942
1737.515615 0.8950 0.8959 0.8966 0.8973 0.8980
1742.519114 0.8987 0.8993 0.8997 0.9002 0.9004
1747.522613 0.9003 0.9002 0.9000 0.8999 0.8998
1752.526112 0.8996 0.8994 0.8992 0.8990 0.8987
1757.529612 0.8985 0.8983 0.8981 0.8979 0.8976
1762.533111 0.8974 0.8972 0.8970 0.8967 0.8966
1767.536610 0.8966 0.8966 0.8966 0.8966 0.8967
1772.540109 0.8971 0.8976 0.8980 0.8985 0.8990
1777.543609 0.8996 0.9003 0.9010 0.9016 0.9021
1782.547108 0.9026 0.9031 0.9035 0.9040 0.9043
1787.550607 0.9044 0.9045 0.9044 0.9044 0.9043
1792.554106 0.9043 0.9042 0.9042 0.9041 0.9041
1797.557606 0.9040 0.9040 0.9039 0.9039 0.9038
1802.561105 0.9037 0.9035 0.9034 0.9032 0.9031
1807.564604 0.9029 0.9028 0.9027 0.9025 0.9024
1812.568103 0.9022 0.9020 0.9018 0.9016 0.9014
1817.571603 0.9011 0.9009 0.9007 0.9005 0.9002
1822.575102 0.9000 0.8998 0.8996 0.8993 0.8991
1827.578601 0.8988 0.8985 0.8981 0.8977 0.8973
1832.582100 0.8969 0.8966 0.8962 0.8958 0.8954
1837.585600 0.8950 0.8946 0.8941 0.8935 0.8930
1842.589099 0.8924 0.8918 0.8913 0.8907 0.8900
1847.592598 0.8890 0.8880 0.8871 0.8861 0.8851
1852.596098 0.8841 0.8831 0.8821 0.8811 0.8802
1857.599597 0.8792 0.8782 0.8772 0.8765 0.8761
1862.603096 0.8757 0.8752 0.8748 0.8746 0.8749
1867.606595 0.8755 0.8762 0.8771 0.8781 0.8791
1872.610095 0.8803 0.8817 0.8831 0.8845 0.8859
1877.613594 0.8872 0.8884 0.8892 0.8894 0.8895
1882.617093 0.8895 0.8896 0.8896 0.8897 0.8897
1887.620592 0.8895 0.8892 0.8890 0.8888 0.8886
1892.624092 0.8884 0.8882 0.8880 0.8877 0.8875
1897.627591 0.8873 0.8871 0.8868 0.8866 0.8864
1902.631090 0.8861 0.8859 0.8857 0.8855 0.8852
1907.634589 0.8849 0.8846 0.8843 0.8840 0.8838
1912.638089 0.8835 0.8832 0.8829 0.8826 0.8823
1917.641588 0.8821 0.8818 0.8815 0.8811 0.8808
1922.645087 0.8805 0.8802 0.8799 0.8795 0.8792
1927.648586 0.8789 0.8786 0.8783 0.8780 0.8776
1932.652086 0.8772 0.8768 0.8764 0.8760 0.8755
1937.655585 0.8751 0.8747 0.8742 0.8738 0.8731
1942.659084 0.8719 0.8706 0.8692 0.8677 0.8653
1947.662583 0.8623 0.8594 0.8564 0.8533 0.8499
1952.666083 0.8454 0.8398 0.8348 0.8316 0.8297
1957.669582 0.8298 0.8322 0.8342 0.8381 0.8446
1962.673081 0.8527 0.8599 0.8655 0.8695 0.8729
1967.676580 0.8752 0.8765 0.8772 0.8776 0.8779
1972.680080 0.8781 0.8782 0.8782 0.8782 0.8782
1977.683579 0.8782 0.8782 0.8778 0.8777 0.8778
1982.687078 0.8777 0.8776 0.8775 0.8774 0.8772
1987.690577 0.8770 0.8767 0.8763 0.8760 0.8756
1992.694077 0.8753 0.8749 0.8743 0.8732 0.8720
1997.697576 0.8693 0.8656 0.8633 0.8620 0.8612
2002.701075 0.8605 0.8598 0.8592 0.8588 0.8584
2007.704575 0.8581 0.8578 0.8575 0.8572 0.8570
2012.708074 0.8568 0.8567 0.8565 0.8563 0.8562
2017.711573 0.8563 0.8565 0.8567 0.8569 0.8572
2022.715072 0.8574 0.8576 0.8578 0.8583 0.8589
2027.718572 0.8595 0.8601 0.8605 0.8606 0.8605
2032.722071 0.8606 0.8607 0.8605 0.8603 0.8601
2037.725570 0.8599 0.8597 0.8594 0.8591 0.8588
2042.729069 0.8585 0.8582 0.8578 0.8574 0.8571
2047.732569 0.8567 0.8564 0.8560 0.8557 0.8553
2052.736068 0.8550 0.8547 0.8544 0.8541 0.8538
2057.739567 0.8535 0.8531 0.8528 0.8525 0.8522
2062.743066 0.8519 0.8516 0.8513 0.8510 0.8506
2067.746566 0.8503 0.8500 0.8496 0.8493 0.8489
2072.750065 0.8486 0.8483 0.8479 0.8476 0.8472
2077.753564 0.8469 0.8465 0.8461 0.8457 0.8452
2082.757063 0.8448 0.8444 0.8440 0.8435 0.8431
2087.760563 0.8427 0.8422 0.8418 0.8414 0.8409
2092.764062 0.8405 0.8401 0.8396 0.8392 0.8387
2097.767561 0.8381 0.8376 0.8371 0.8365 0.8360
2102.771060 0.8354 0.8349 0.8343 0.8338 0.8332
2107.774560 0.8327 0.8321 0.8316 0.8310 0.8305
2112.778059 0.8299 0.8293 0.8287 0.8282 0.8276
2117.781558 0.8270 0.8264 0.8258 0.8252 0.8248
2122.785057 0.8245 0.8242 0.8239 0.8237 0.8234
2127.788557 0.8231 0.8228 0.8226 0.8224 0.8224
2132.792056 0.8224 0.8224 0.8224 0.8224 0.8224
2137.795555 0.8224 0.8224 0.8226 0.8229 0.8231
2142.799055 0.8234 0.8236 0.8240 0.8244 0.8250
2147.802554 0.8256 0.8262 0.8268 0.8274 0.8280
2152.806053 0.8285 0.8291 0.8297 0.8302 0.8307
2157.809552 0.8311 0.8314 0.8317 0.8320 0.8320
2162.813052 0.8318 0.8316 0.8314 0.8313 0.8312
2167.816551 0.8310 0.8309 0.8308 0.8306 0.8305
2172.820050 0.8304 0.8303 0.8301 0.8299 0.8297
2177.823549 0.8294 0.8292 0.8289 0.8287 0.8284
2182.827049 0.8281 0.8279 0.8276 0.8274 0.8272
2187.830548 0.8271 0.8269 0.8267 0.8265 0.8263
2192.834047 0.8262 0.8260 0.8258 0.8256 0.8254
2197.837546 0.8253 0.8251 0.8248 0.8245 0.8242
2202.841046 0.8240 0.8237 0.8234 0.8231 0.8228
2207.844545 0.8225 0.8223 0.8220 0.8217 0.8214
2212.848044 0.8210 0.8204 0.8198 0.8192 0.8185
2217.851543 0.8179 0.8173 0.8167 0.8160 0.8154
2222.855043 0.8148 0.8143 0.8141 0.8140 0.8138
2227.858542 0.8136 0.8134 0.8132 0.8131 0.8129
2232.862041 0.8127 0.8126 0.8126 0.8127 0.8127
2237.865540 0.8127 0.8127 0.8127 0.8127 0.8127
2242.869040 0.8126 0.8123 0.8120 0.8118 0.8115
2247.872539 0.8112 0.8109 0.8106 0.8103 0.8099
2252.876038 0.8095 0.8091 0.8088 0.8084 0.8080
2257.879537 0.8077 0.8073 0.8069 0.8066 0.8062
2262.883037 0.8055 0.8049 0.8043 0.8036 0.8030
2267.886536 0.8022 0.8012 0.8000 0.7988 0.7977
2272.890035 0.7969 0.7961 0.7953 0.7945 0.7937
2277.893534 0.7929 0.7922 0.7914 0.7907 0.7903
2282.897034 0.7901 0.7899 0.7897 0.7895 0.7892
2287.900533 0.7890 0.7888 0.7885 0.7883 0.7880
2292.904032 0.7876 0.7869 0.7862 0.7855 0.7848
2297.907532 0.7841 0.7834 0.7827 0.7818 0.7808
2302.911031 0.7797 0.7786 0.7775 0.7764 0.7753
2307.914530 0.7742 0.7731 0.7720 0.7708 0.7695
2312.918029 0.7682 0.7669 0.7655 0.7642 0.7629
2317.921529 0.7616 0.7603 0.7589 0.7575 0.7559
2322.925028 0.7543 0.7527 0.7511 0.7495 0.7479
2327.928527 0.7463 0.7450 0.7436 0.7423 0.7410
2332.932026 0.7396 0.7385 0.7379 0.7376 0.7374
2337.935526 0.7372 0.7375 0.7380 0.7384 0.7389
2342.939025 0.7392 0.7395 0.7399 0.7402 0.7405
2347.942524 0.7409 0.7412 0.7416 0.7421 0.7425
2352.946023 0.7430 0.7435 0.7438 0.7439 0.7438
2357.949523 0.7437 0.7432 0.7422 0.7412 0.7400
2362.953022 0.7388 0.7376 0.7364 0.7349 0.7332
2367.956521 0.7314 0.7294 0.7273 0.7252 0.7230
2372.960020 0.7208 0.7184 0.7158 0.7132 0.7104
2377.963520 0.7072 0.7053 0.7053 0.7059 0.7075
2382.967019 0.7100 0.7140 0.7183 0.7213 0.7225
2387.970518 0.7223 0.7218 0.7211 0.7201 0.7190
2392.974017 0.7178 0.7161 0.7140 0.7116 0.7089
2397.977517 0.7062 0.7036 0.7010 0.6983 0.6954
2402.981016 0.6924 0.6890 0.6847 0.6801 0.6752
2407.984515 0.6696 0.6640 0.6584 0.6514 0.6404
2412.988014 0.6261 0.6101 0.5961 0.5858 0.5753
2417.991514 0.5629 0.5482 0.5371 0.5338 0.5339
2422.995013 0.5403 0.5587 0.5801 0.6015 0.6229
2427.998512 0.6444 0.6658 0.6822 0.6895 0.6954
2433.002011 0.7014 0.7078 0.7139 0.7186 0.7224
2438.005511 0.7255 0.7273 0.7289 0.7298 0.7302
2443.009010 0.7304 0.7305 0.7292 0.7284 0.7301
2448.012509 0.7300 0.7299 0.7297 0.7295 0.7293
2453.016009 0.7292 0.7290 0.7289 0.7287 0.7286
2458.019508 0.7283 0.7278 0.7272 0.7266 0.7250
2463.023007 0.7207 0.7152 0.7114 0.7088 0.7076
2468.026506 0.7074 0.7073 0.7071 0.7070 0.7069
2473.030006 0.7068 0.7067 0.7067 0.7067 0.7067
2478.033505 0.7067 0.7067 0.7066 0.7066 0.7066
2483.037004 0.7065 0.7065 0.7064 0.7064 0.7063
2488.040503 0.7060 0.7056 0.7051 0.7046 0.7032
2493.044003 0.7011 0.6989 0.6968 0.6950 0.6935
2498.047502 0.6921 0.6906 0.6891 0.6876 0.6862
2503.051001 0.6850 0.6842 0.6834 0.6828 0.6823
2508.054500 0.6818 0.6814 0.6810 0.6805 0.6801
2513.058000 0.6796 0.6793 0.6788 0.6785 0.6782
2518.061499 0.6779 0.6776 0.6771 0.6765 0.6758
2523.064998 0.6751 0.6744 0.6738 0.6731 0.6724
2528.068497 0.6717 0.6708 0.6699 0.6690 0.6680
2533.071997 0.6670 0.6660 0.6650 0.6641 0.6631
2538.075496 0.6618 0.6601 0.6583 0.6565 0.6548
2543.078995 0.6530 0.6512 0.6492 0.6469 0.6445
2548.082494 0.6422 0.6399 0.6375 0.6352 0.6328
2553.085994 0.6303 0.6278 0.6253 0.6228 0.6203
2558.089493 0.6179 0.6154 0.6129 0.6105 0.6079
2563.092992 0.6052 0.6024 0.5996 0.5967 0.5938
2568.096491 0.5907 0.5872 0.5838 0.5803 0.5769
2573.099991 0.5735 0.5700 0.5665 0.5628 0.5592
2578.103490 0.5558 0.5530 0.5509 0.5487 0.5466
2583.106989 0.5445 0.5423 0.5398 0.5369 0.5341
2588.110489 0.5311 0.5275 0.5237 0.5200 0.5168
2593.113988 0.5148 0.5145 0.5153 0.5163 0.5173
2598.117487 0.5183 0.5192 0.5201 0.5206 0.5203
2603.120986 0.5194 0.5184 0.5175 0.5165 0.5155
2608.124486 0.5145 0.5134 0.5124 0.5113 0.5103
2613.127985 0.5093 0.5085 0.5078 0.5071 0.5064
2618.131484 0.5059 0.5059 0.5062 0.5068 0.5081
2623.134983 0.5093 0.5108 0.5145 0.5169 0.5193
2628.138483 0.5216 0.5235 0.5252 0.5268 0.5280
2633.141982 0.5287 0.5292 0.5289 0.5283 0.5277
2638.145481 0.5268 0.5252 0.5234 0.5215 0.5191
2643.148980 0.5156 0.5110 0.5069 0.5029 0.4989
2648.152480 0.4949 0.4909 0.4869 0.4830 0.4790
2653.155979 0.4750 0.4710 0.4670 0.4630 0.4590
2658.159478 0.4550 0.4510 0.4471 0.4431 0.4391
2663.162977 0.4351 0.4311 0.4271 0.4231 0.4191
2668.166477 0.4151 0.4112 0.4072 0.4032 0.3992
2673.169976 0.3952 0.3912 0.3872 0.3832 0.3792
2678.173475 0.3754 0.3716 0.3675 0.3640 0.3616
2683.176974 0.3594 0.3574 0.3559 0.3553 0.3547
2688.180474 0.3537 0.3518 0.3488 0.3453 0.3423
2693.183973 0.3405 0.3396 0.3397 0.3404 0.3411
2698.187472 0.3421 0.3436 0.3449 0.3461 0.3471
2703.190971 0.3478 0.3485 0.3492 0.3497 0.3494
2708.194471 0.3479 0.3460 0.3440 0.3420 0.3397
2713.197970 0.3369 0.3343 0.3316 0.3280 0.3238
2718.201469 0.3207 0.3181 0.3158 0.3140 0.3122
2723.204968 0.3104 0.3090 0.3079 0.3068 0.3059
2728.208468 0.3052 0.3043 0.3032 0.3021 0.3010
2733.211967 0.2996 0.2977 0.2951 0.2925 0.2898
2738.215466 0.2870 0.2842 0.2813 0.2784 0.2746
2743.218966 0.2687 0.2633 0.2608 0.2604 0.2603
2748.222465 0.2601 0.2599 0.2598 0.2597 0.2597
2753.225964 0.2594 0.2588 0.2580 0.2569 0.2552
2758.229463 0.2532 0.2512 0.2484 0.2453 0.2431
2763.232963 0.2421 0.2426 0.2436 0.2431 0.2436
2768.236462 0.2509 0.2557 0.2596 0.2632 0.2666
2773.239961 0.2686 0.2692 0.2694 0.2688 0.2678
2778.243460 0.2664 0.2648 0.2633 0.2618 0.2606
2783.246960 0.2598 0.2595 0.2595 0.2598 0.2602
2788.250459 0.2611 0.2620 0.2631 0.2646 0.2663
2793.253958 0.2680 0.2699 0.2723 0.2746 0.2769
2798.257457 0.2801 0.2849 0.2899 0.2944 0.2985
2803.260957 0.3019 0.3049 0.3071 0.3079 0.3095
2808.264456 0.3109 0.3101 0.3104 0.3103 0.3102
2813.267955 0.3099 0.3094 0.3088 0.3079 0.3065
2818.271454 0.3048 0.3028 0.3000 0.2959 0.2907
2823.274954 0.2837 0.2764 0.2689 0.2615 0.2540
2828.278453 0.2466 0.2391 0.2320 0.2282 0.2289
2833.281952 0.2305 0.2321 0.2335 0.2346 0.2349
2838.285451 0.2345 0.2334 0.2319 0.2283 0.2212
2843.288951 0.2132 0.2053 0.1974 0.1894 0.1815
2848.292450 0.1715 0.1636 0.1675 0.1740 0.1830
2853.295949 0.1919 0.2008 0.2098 0.2187 0.2276
2858.299448 0.2366 0.2455 0.2544 0.2634 0.2723
2863.302948 0.2812 0.2902 0.3010 0.3097 0.3081
2868.306447 0.3085 0.3087 0.3087 0.3082 0.3073
2873.309946 0.3060 0.3046 0.3026 0.2997 0.2956
2878.313445 0.2882 0.2784 0.2687 0.2589 0.2492
2883.316945 0.2395 0.2297 0.2200 0.2102 0.2005
2888.320444 0.1907 0.1810 0.1712 0.1615 0.1517
2893.323943 0.1420 0.1323 0.1225 0.1128 0.1036
2898.327443 0.0979 0.0969 0.0964 0.0959 0.0961
2903.330942 0.0982 0.1017 0.1098 0.1215 0.1333
2908.334441 0.1380 0.1422 0.1461 0.1493 0.1512
2913.337940 0.1531 0.1550 0.1567 0.1577 0.1584
2918.341440 0.1592 0.1599 0.1603 0.1605 0.1607
2923.344939 0.1610 0.1610 0.1606 0.1596 0.1586
2928.348438 0.1577 0.1569 0.1560 0.1552 0.1546
2933.351937 0.1544 0.1550 0.1563 0.1580 0.1608
2938.355437 0.1645 0.1679 0.1710 0.1741 0.1773
2943.358936 0.1799 0.1807 0.1808 0.1808 0.1800
2948.362435 0.1788 0.1792 0.1790 0.1741 0.1711
2953.365934 0.1676 0.1651 0.1638 0.1635 0.1637
2958.369434 0.1638 0.1639 0.1640 0.1642 0.1643
2963.372933 0.1644 0.1646 0.1649 0.1652 0.1656
2968.376432 0.1659 0.1662 0.1665 0.1668 0.1671
2973.379931 0.1674 0.1677 0.1680 0.1683 0.1684
2978.383431 0.1682 0.1679 0.1677 0.1674 0.1671
2983.386930 0.1666 0.1659 0.1653 0.1646 0.1636
2988.390429 0.1619 0.1598 0.1576 0.1555 0.1533
2993.393928 0.1511 0.1491 0.1472 0.1454 0.1435
2998.397428 0.1416 0.1398 0.1379 0.1357 0.1336
3003.400927 0.1315 0.1294 0.1275 0.1258 0.1240
3008.404426 0.1225 0.1217 0.1209 0.1201 0.1198
3013.407925 0.1202 0.1203 0.1209 0.1229 0.1246
3018.411425 0.1265 0.1285 0.1303 0.1319 0.1336
3023.414924 0.1355 0.1375 0.1395 0.1417 0.1441
3028.418423 0.1468 0.1494 0.1521 0.1547 0.1572
3033.421923 0.1597 0.1621 0.1646 0.1671 0.1700
3038.425422 0.1731 0.1766 0.1808 0.1852 0.1941
3043.428921 0.2049 0.2091 0.2120 0.2151 0.2183
3048.432420 0.2212 0.2240 0.2265 0.2283 0.2296
3053.435920 0.2309 0.2320 0.2328 0.2335 0.2342
3058.439419 0.2350 0.2359 0.2368 0.2378 0.2387
3063.442918 0.2397 0.2407 0.2417 0.2428 0.2440
3068.446417 0.2451 0.2462 0.2474 0.2491 0.2513
3073.449917 0.2535 0.2559 0.2594 0.2643 0.2690
3078.453416 0.2716 0.2727 0.2739 0.2750 0.2761
3083.456915 0.2778 0.2800 0.2823 0.2845 0.2865
3088.460414 0.2886 0.2907 0.2926 0.2944 0.2962
3093.463914 0.2980 0.2998 0.3012 0.3022 0.3030
3098.467413 0.3038 0.3042 0.3041 0.3039 0.3037
3103.470912 0.3030 0.3019 0.3005 0.2990 0.2976
3108.474411 0.2961 0.2942 0.2919 0.2896 0.2872
3113.477911 0.2849 0.2828 0.2808 0.2789 0.2770
3118.481410 0.2751 0.2732 0.2712 0.2687 0.2654
3123.484909 0.2617 0.2577 0.2528 0.2495 0.2484
3128.488408 0.2477 0.2479 0.2474 0.2485 0.2512
3133.491908 0.2529 0.2548 0.2568 0.2588 0.2609
3138.495407 0.2632 0.2656 0.2678 0.2699 0.2718
3143.498906 0.2735 0.2747 0.2765 0.2767 0.2757
3148.502405 0.2758 0.2757 0.2755 0.2753 0.2751
3153.505905 0.2746 0.2740 0.2735 0.2726 0.2715
3158.509404 0.2704 0.2692 0.2680 0.2668 0.2653
3163.512903 0.2634 0.2615 0.2596 0.2574 0.2550
3168.516402 0.2526 0.2502 0.2479 0.2454 0.2423
3173.519902 0.2390 0.2362 0.2341 0.2322 0.2305
3178.523401 0.2293 0.2284 0.2280 0.2282 0.2285
3183.526900 0.2288 0.2294 0.2302 0.2311 0.2319
3188.530400 0.2328 0.2338 0.2348 0.2357 0.2364
3193.533899 0.2370 0.2376 0.2381 0.2385 0.2388
3198.537398 0.2391 0.2393 0.2395 0.2397 0.2398
3203.540897 0.2400 0.2401 0.2402 0.2403 0.2403
3208.544397 0.2403 0.2405 0.2411 0.2418 0.2427
3213.547896 0.2442 0.2460 0.2478 0.2499 0.2521
3218.551395 0.2543 0.2566 0.2590 0.2615 0.2640
3223.554894 0.2668 0.2696 0.2723 0.2750 0.2777
3228.558394 0.2801 0.2824 0.2846 0.2867 0.2888
3233.561893 0.2908 0.2928 0.2948 0.2961 0.2971
3238.565392 0.2980 0.2990 0.2999 0.3009 0.3018
3243.568891 0.3027 0.3035 0.3042 0.3050 0.3058
3248.572391 0.3068 0.3080 0.3092 0.3104 0.3119
3253.575890 0.3135 0.3150 0.3166 0.3184 0.3208
3258.579389 0.3235 0.3263 0.3282 0.3289 0.3293
3263.582888 0.3293 0.3291 0.3289 0.3287 0.3286
3268.586388 0.3285 0.3284 0.3285 0.3286 0.3291
3273.589887 0.3302 0.3316 0.3330 0.3347 0.3365
3278.593386 0.3384 0.3403 0.3422 0.3441 0.3460
3283.596885 0.3479 0.3497 0.3514 0.3523 0.3524
3288.600385 0.3523 0.3530 0.3518 0.3499 0.3479
3293.603884 0.3453 0.3424 0.3395 0.3365 0.3336
3298.607383 0.3307 0.3278 0.3249 0.3220 0.3188
3303.610882 0.3155 0.3122 0.3091 0.3066 0.3045
3308.614382 0.3026 0.3007 0.2985 0.2955 0.2922
3313.617881 0.2891 0.2862 0.2835 0.2809 0.2784
3318.621380 0.2763 0.2749 0.2744 0.2736 0.2738
3323.624879 0.2747 0.2752 0.2762 0.2779 0.2807
3328.628379 0.2841 0.2880 0.2925 0.2975 0.3026
3333.631878 0.3074 0.3119 0.3187 0.3282 0.3383
3338.635377 0.3485 0.3586 0.3688 0.3789 0.3891
3343.638877 0.3993 0.4094 0.4192 0.4264 0.4325
3348.642376 0.4392 0.4463 0.4532 0.4599 0.4667
3353.645875 0.4734 0.4801 0.4867 0.4933 0.4999
3358.649374 0.5062 0.5122 0.5181 0.5241 0.5303
3363.652874 0.5382 0.5469 0.5556 0.5635 0.5710
3368.656373 0.5785 0.5858 0.5915 0.5963 0.6011
3373.659872 0.6059 0.6107 0.6155 0.6218 0.6297
3378.663371 0.6380 0.6460 0.6512 0.6552 0.6592
3383.666871 0.6631 0.6671 0.6711 0.6750 0.6790
3388.670370 0.6834 0.6883 0.6934 0.6985 0.7032
3393.673869 0.7067 0.7097 0.7127 0.7157 0.7188
3398.677368 0.7211 0.7225 0.7236 0.7248 0.7259
3403.680868 0.7271 0.7282 0.7294 0.7305 0.7317
3408.684367 0.7330 0.7345 0.7360 0.7376 0.7391
3413.687866 0.7406 0.7421 0.7436 0.7450 0.7464
3418.691365 0.7478 0.7492 0.7506 0.7520 0.7532
3423.694865 0.7543 0.7554 0.7565 0.7576 0.7586
3428.698364 0.7597 0.7608 0.7619 0.7630 0.7641
3433.701863 0.7651 0.7662 0.7672 0.7683 0.7693
3438.705362 0.7703 0.7713 0.7724 0.7734 0.7744
3443.708862 0.7754 0.7764 0.7775 0.7785 0.7794
3448.712361 0.7802 0.7809 0.7816 0.7823 0.7829
3453.715860 0.7836 0.7843 0.7850 0.7857 0.7864
3458.719359 0.7871 0.7877 0.7883 0.7888 0.7892
3463.722859 0.7897 0.7901 0.7906 0.7910 0.7915
3468.726358 0.7919 0.7923 0.7928 0.7932 0.7937
3473.729857 0.7941 0.7946 0.7950 0.7955 0.7959
3478.733357 0.7963 0.7968 0.7972 0.7977 0.7981
3483.736856 0.7986 0.7992 0.7997 0.8003 0.8008
3488.740355 0.8014 0.8019 0.8025 0.8030 0.8036
3493.743854 0.8041 0.8047 0.8052 0.8058 0.8063
3498.747354 0.8069 0.8074 0.8080 0.8085 0.8089
3503.750853 0.8094 0.8099 0.8103 0.8108 0.8113
3508.754352 0.8117 0.8122 0.8127 0.8131 0.8136
3513.757851 0.8141 0.8145 0.8150 0.8155 0.8159
3518.761351 0.8164 0.8169 0.8173 0.8178 0.8183
3523.764850 0.8187 0.8192 0.8196 0.8200 0.8204
3528.768349 0.8209 0.8213 0.8217 0.8222 0.8226
3533.771848 0.8230 0.8234 0.8239 0.8243 0.8247
3538.775348 0.8252 0.8256 0.8260 0.8264 0.8269
3543.778847 0.8273 0.8277 0.8282 0.8286 0.8290
3548.782346 0.8295 0.8299 0.8303 0.8308 0.8312
3553.785845 0.8316 0.8321 0.8325 0.8330 0.8334
3558.789345 0.8338 0.8343 0.8347 0.8351 0.8356
3563.792844 0.8361 0.8367 0.8373 0.8380 0.8386
3568.796343 0.8392 0.8398 0.8405 0.8411 0.8417
3573.799842 0.8422 0.8427 0.8431 0.8436 0.8440
3578.803342 0.8444 0.8449 0.8453 0.8458 0.8462
3583.806841 0.8466 0.8471 0.8475 0.8479 0.8484
3588.810340 0.8487 0.8491 0.8494 0.8497 0.8501
3593.813839 0.8504 0.8507 0.8511 0.8514 0.8518
3598.817339 0.8521 0.8525 0.8529 0.8532 0.8536
3603.820838 0.8551 0.8557 0.8561 0.8564 0.8568
3608.824337 0.8572 0.8576 0.8580 0.8584 0.8587
3613.827836 0.8591 0.8594 0.8597 0.8600 0.8603
3618.831336 0.8607 0.8610 0.8613 0.8617 0.8621
3623.834835 0.8625 0.8629 0.8633 0.8637 0.8641
3628.838334 0.8644 0.8648 0.8652 0.8656 0.8660
3633.841834 0.8664 0.8668 0.8671 0.8675 0.8679
3638.845333 0.8683 0.8687 0.8691 0.8695 0.8698
3643.848832 0.8702 0.8706 0.8709 0.8709 0.8709
3648.852331 0.8709 0.8710 0.8710 0.8710 0.8711
3653.855831 0.8711 0.8711 0.8711 0.8712 0.8712
3658.859330 0.8712 0.8706 0.8708 0.8706 0.8703
3663.862829 0.8700 0.8698 0.8695 0.8692 0.8689
3668.866328 0.8686 0.8683 0.8681 0.8678 0.8674
3673.869828 0.8670 0.8666 0.8663 0.8659 0.8655
3678.873327 0.8652 0.8648 0.8646 0.8644 0.8642
3683.876826 0.8640 0.8638 0.8636 0.8634 0.8632
3688.880325 0.8630 0.8628 0.8626 0.8624 0.8623
3693.883825 0.8622 0.8621 0.8620 0.8619 0.8618
3698.887324 0.8617 0.8616 0.8615 0.8614 0.8613
3703.890823 0.8612 0.8611 0.8610 0.8610 0.8611
3708.894322 0.8612 0.8612 0.8613 0.8613 0.8614
3713.897822 0.8614 0.8615 0.8615 0.8616 0.8616
3718.901321 0.8617 0.8618 0.8620 0.8623 0.8625
3723.904820 0.8627 0.8626 0.8622 0.8618 0.8614
3728.908319 0.8610 0.8606 0.8601 0.8595 0.8589
3733.911819 0.8584 0.8578 0.8577 0.8576 0.8575
3738.915318 0.8574 0.8573 0.8572 0.8571 0.8571
3743.918817 0.8571 0.8570 0.8570 0.8569 0.8569
3748.922316 0.8569 0.8568 0.8569 0.8571 0.8573
3753.925816 0.8575 0.8576 0.8578 0.8580 0.8582
3758.929315 0.8584 0.8585 0.8586 0.8586 0.8585
3763.932814 0.8585 0.8585 0.8584 0.8584 0.8584
3768.936313 0.8583 0.8583 0.8583 0.8582 0.8581
3773.939813 0.8580 0.8578 0.8577 0.8576 0.8575
3778.943312 0.8574 0.8573 0.8572 0.8571 0.8570
3783.946811 0.8569 0.8568 0.8567 0.8565 0.8564
3788.950311 0.8563 0.8562 0.8560 0.8559 0.8558
3793.953810 0.8556 0.8555 0.8554 0.8552 0.8551
3798.957309 0.8550 0.8548 0.8547 0.8546 0.8544
3803.960808 0.8543 0.8542 0.8540 0.8539 0.8538
3808.964308 0.8537 0.8535 0.8534 0.8533 0.8531
3813.967807 0.8530 0.8529 0.8528 0.8526 0.8523
3818.971306 0.8520 0.8516 0.8513 0.8510 0.8507
3823.974805 0.8502 0.8495 0.8488 0.8482 0.8474
3828.978305 0.8466 0.8458 0.8451 0.8448 0.8445
3833.981804 0.8444 0.8443 0.8443 0.8442 0.8441
3838.985303 0.8440 0.8438 0.8437 0.8436 0.8434
3843.988802 0.8431 0.8427 0.8425 0.8423 0.8421
3848.992302 0.8420 0.8418 0.8416 0.8414 0.8412
3853.995801 0.8410 0.8408 0.8407 0.8405 0.8403
3858.999300 0.8403
##END=
