##TITLE=TRICHLORO ACETIC ACID, TRIPROPYLENE GLYCOL DIESTER
##JCAMP-DX=4.24
##DATA TYPE=INFRARED SPECTRUM
##CLASS=COBLENTZ
##ORIGIN=DOW CHEMICAL COMPANY
##OWNER=COBLENTZ SOCIETY
Collection (C) 2018 copyright by the U.S. Secretary of Commerce
on behalf of the United States of America. All rights reserved.
##DATE=Not specified, most likely prior to 1970
##NAMES=1-methyl-2-(1-methyl-2-(2-[(trichloroacetyl)oxy]propoxy)ethoxy)ethyl trichloroacetate
##MOLFORM=C13 H18 Cl6 O6
##SOURCE REFERENCE=COBLENTZ NO. 1965
##$NIST ID=B6001965
##$NIST SOURCE=COBLENTZ
##$NIST IMAGE=cob1965
##SPECTROMETER/DATA SYSTEM=Not specified, most likely a prism, grating, or hybrid spectrometer.
##STATE=SOLUTION (10% CCl4 FOR 5000-1330, 10% CS2 FOR 1330-625 CM^-^1)
##PATH LENGTH=0.0107 CM, 0.0100 CM
$$SPECTRAL CONTAMINATION DUE TO CCl4 AROUND 1550 CM^-^1
##SAMPLING PROCEDURE=TRANSMISSION
##RESOLUTION=4
##DATA PROCESSING=DIGITIZED BY NIST FROM HARD COPY
##XUNITS=MICROMETERS
##YUNITS=TRANSMITTANCE
##XFACTOR=1.000000
##YFACTOR=1
##DELTAX=000.006859
##FIRSTX=2.041
##LASTX=15.9107
##FIRSTY=0.834
##MAXX=15.9107
##MINX=2.041
##MAXY=0.883
##MINY=0.029
##NPOINTS=2023
##XYDATA=(X++(Y..Y))
2.041000 0.8340 0.8340 0.8340 0.8340 0.8360
2.075314 0.8360 0.8360 0.8360 0.8360 0.8360
2.110000 0.8360 0.8360 0.8360 0.8360 0.8360
2.144314 0.8360 0.8360 0.8360 0.8360 0.8360
2.178000 0.8340 0.8340 0.8340 0.8320 0.8320
2.212314 0.8320 0.8320 0.8310 0.8310 0.8310
2.247000 0.8290 0.8290 0.8290 0.8270 0.8270
2.281314 0.8250 0.8250 0.8250 0.8250 0.8270
2.316000 0.8270 0.8290 0.8310 0.8320 0.8340
2.350314 0.8340 0.8340 0.8340 0.8340 0.8340
2.384000 0.8340 0.8360 0.8360 0.8360 0.8360
2.418314 0.8360 0.8360 0.8360 0.8370 0.8390
2.453000 0.8390 0.8390 0.8390 0.8390 0.8390
2.487314 0.8390 0.8390 0.8410 0.8410 0.8430
2.521000 0.8430 0.8440 0.8440 0.8440 0.8480
2.555314 0.8510 0.8510 0.8530 0.8530 0.8540
2.590000 0.8540 0.8560 0.8560 0.8560 0.8580
2.624314 0.8580 0.8580 0.8580 0.8580 0.8580
2.659000 0.8580 0.8580 0.8580 0.8580 0.8580
2.693314 0.8580 0.8580 0.8560 0.8560 0.8560
2.727000 0.8560 0.8540 0.8540 0.8540 0.8530
2.761314 0.8510 0.8480 0.8430 0.8390 0.8360
2.796000 0.8340 0.8320 0.8310 0.8290 0.8290
2.830314 0.8270 0.8250 0.8240 0.8240 0.8240
2.864000 0.8240 0.8250 0.8270 0.8310 0.8320
2.898314 0.8320 0.8340 0.8340 0.8320 0.8320
2.933000 0.8310 0.8310 0.8310 0.8310 0.8310
2.967314 0.8310 0.8310 0.8310 0.8310 0.8310
3.001000 0.8310 0.8310 0.8310 0.8310 0.8310
3.035314 0.8310 0.8290 0.8290 0.8290 0.8290
3.070000 0.8290 0.8290 0.8290 0.8290 0.8290
3.104314 0.8290 0.8290 0.8290 0.8290 0.8290
3.139000 0.8290 0.8290 0.8310 0.8310 0.8310
3.173314 0.8310 0.8310 0.8310 0.8310 0.8310
3.207000 0.8310 0.8310 0.8310 0.8310 0.8290
3.241314 0.8290 0.8270 0.8250 0.8200 0.8150
3.276000 0.8070 0.7980 0.7830 0.7640 0.7380
3.310314 0.7060 0.6860 0.6650 0.6140 0.5870
3.344000 0.5520 0.5510 0.5520 0.5590 0.5680
3.378314 0.5710 0.5780 0.5880 0.5900 0.5880
3.413000 0.5850 0.5830 0.5810 0.5810 0.5810
3.447314 0.5830 0.5930 0.6070 0.6270 0.6510
3.482000 0.7180 0.7420 0.7590 0.7640 0.7730
3.516314 0.7790 0.7810 0.7830 0.7830 0.7840
3.550000 0.7860 0.7860 0.7880 0.7900 0.7910
3.584314 0.7930 0.7980 0.8000 0.8030 0.8080
3.619000 0.8120 0.8130 0.8190 0.8190 0.8200
3.653314 0.8220 0.8250 0.8310 0.8340 0.8360
3.687000 0.8370 0.8370 0.8370 0.8370 0.8370
3.721314 0.8370 0.8370 0.8370 0.8370 0.8370
3.756000 0.8370 0.8370 0.8370 0.8360 0.8360
3.790314 0.8340 0.8340 0.8320 0.8310 0.8310
3.825000 0.8290 0.8290 0.8290 0.8290 0.8290
3.859314 0.8290 0.8290 0.8310 0.8310 0.8310
3.893000 0.8320 0.8320 0.8340 0.8360 0.8370
3.927314 0.8390 0.8390 0.8410 0.8430 0.8460
3.962000 0.8460 0.8460 0.8480 0.8480 0.8480
3.996314 0.8480 0.8480 0.8480 0.8480 0.8480
4.030000 0.8480 0.8480 0.8480 0.8480 0.8480
4.064314 0.8490 0.8490 0.8530 0.8540 0.8560
4.099000 0.8580 0.8600 0.8600 0.8600 0.8600
4.133314 0.8600 0.8600 0.8600 0.8600 0.8600
4.168000 0.8600 0.8600 0.8600 0.8600 0.8600
4.202314 0.8600 0.8600 0.8600 0.8600 0.8600
4.236000 0.8600 0.8600 0.8600 0.8610 0.8630
4.270314 0.8650 0.8680 0.8700 0.8700 0.8720
4.305000 0.8720 0.8720 0.8720 0.8720 0.8700
4.339314 0.8700 0.8680 0.8680 0.8680 0.8680
4.373000 0.8680 0.8680 0.8700 0.8700 0.8720
4.407314 0.8730 0.8750 0.8770 0.8780 0.8800
4.442000 0.8820 0.8820 0.8820 0.8820 0.8820
4.476314 0.8820 0.8820 0.8820 0.8820 0.8820
4.511000 0.8820 0.8820 0.8820 0.8820 0.8820
4.545314 0.8820 0.8820 0.8820 0.8820 0.8820
4.579000 0.8820 0.8820 0.8820 0.8820 0.8820
4.613314 0.8820 0.8820 0.8820 0.8820 0.8820
4.648000 0.8820 0.8820 0.8820 0.8820 0.8820
4.682314 0.8820 0.8820 0.8820 0.8820 0.8820
4.716000 0.8820 0.8820 0.8820 0.8820 0.8820
4.750314 0.8820 0.8820 0.8820 0.8820 0.8820
4.785000 0.8820 0.8820 0.8820 0.8820 0.8820
4.819314 0.8820 0.8820 0.8800 0.8800 0.8800
4.854000 0.8800 0.8800 0.8800 0.8820 0.8820
4.888314 0.8820 0.8830 0.8830 0.8830 0.8820
4.922000 0.8820 0.8820 0.8800 0.8800 0.8820
4.956314 0.8820 0.8820 0.8800 0.8800 0.8800
4.991000 0.8800 0.8820 0.8820 0.8820 0.8820
5.025314 0.8820 0.8820 0.8820 0.8820 0.8820
5.059000 0.8820 0.8800 0.8800 0.8800 0.8780
5.093314 0.8780 0.8780 0.8800 0.8800 0.8800
5.128000 0.8800 0.8800 0.8800 0.8800 0.8800
5.162314 0.8800 0.8800 0.8800 0.8800 0.8780
5.196000 0.8780 0.8780 0.8780 0.8780 0.8780
5.230314 0.8780 0.8780 0.8780 0.8780 0.8780
5.265000 0.8780 0.8780 0.8780 0.8770 0.8770
5.299314 0.8770 0.8770 0.8770 0.8770 0.8770
5.334000 0.8770 0.8750 0.8750 0.8730 0.8730
5.368314 0.8720 0.8700 0.8650 0.8610 0.8560
5.402000 0.8560 0.8530 0.8530 0.8510 0.8510
5.436314 0.8480 0.8460 0.8410 0.8370 0.8310
5.471000 0.8250 0.8220 0.8170 0.8100 0.8050
5.505314 0.7930 0.7930 0.7840 0.7740 0.7610
5.539000 0.7500 0.7350 0.6960 0.6680 0.6380
5.573314 0.6050 0.5580 0.3950 0.3390 0.2830
5.608000 0.2250 0.2010 0.1630 0.1210 0.0780
5.642314 0.0690 0.0690 0.0780 0.1050 0.1380
5.677000 0.1790 0.2230 0.2730 0.3220 0.3950
5.711314 0.4380 0.4790 0.5050 0.5540 0.5850
5.745000 0.6190 0.6410 0.6650 0.7010 0.7150
5.779314 0.7260 0.7320 0.7370 0.7400 0.7540
5.814000 0.7690 0.7760 0.7860 0.7950 0.8000
5.848314 0.8020 0.8070 0.8100 0.8100 0.8100
5.882000 0.8120 0.8120 0.8130 0.8130 0.8130
5.916314 0.8150 0.8170 0.8170 0.8190 0.8190
5.951000 0.8200 0.8200 0.8220 0.8270 0.8310
5.985314 0.8320 0.8340 0.8360 0.8360 0.8360
6.020000 0.8370 0.8370 0.8370 0.8370 0.8370
6.054314 0.8370 0.8370 0.8390 0.8390 0.8390
6.088000 0.8390 0.8410 0.8410 0.8410 0.8410
6.122314 0.8410 0.8410 0.8390 0.8370 0.8320
6.157000 0.8310 0.8270 0.8200 0.8130 0.8070
6.191314 0.8000 0.7900 0.7690 0.7620 0.7490
6.225000 0.7370 0.7250 0.7150 0.7030 0.6940
6.259314 0.6860 0.6770 0.6700 0.6670 0.6630
6.294000 0.6580 0.6550 0.6500 0.6460 0.6430
6.328314 0.6390 0.6330 0.6270 0.6210 0.6100
6.363000 0.6040 0.5950 0.5850 0.5760 0.5660
6.397314 0.5580 0.5460 0.5320 0.5290 0.5200
6.431000 0.5150 0.5100 0.5110 0.5110 0.5110
6.465314 0.5200 0.5290 0.5440 0.5540 0.5690
6.500000 0.5830 0.6020 0.6140 0.6210 0.6290
6.534314 0.6390 0.6480 0.6560 0.6630 0.6790
6.568000 0.6890 0.6990 0.7040 0.7080 0.7090
6.602314 0.7160 0.7250 0.7320 0.7380 0.7490
6.637000 0.7540 0.7590 0.7670 0.7710 0.7740
6.671314 0.7790 0.7810 0.7880 0.7880 0.7880
6.706000 0.7860 0.7840 0.7790 0.7740 0.7690
6.740314 0.7590 0.7500 0.7400 0.7300 0.7130
6.774000 0.7030 0.6990 0.6770 0.6550 0.6530
6.808314 0.6500 0.6410 0.6270 0.6190 0.6100
6.843000 0.6040 0.6000 0.5980 0.5980 0.6090
6.877314 0.6160 0.6390 0.6560 0.6970 0.7030
6.911000 0.7330 0.7400 0.7540 0.7640 0.7690
6.945314 0.7790 0.7880 0.7900 0.7900 0.7910
6.980000 0.7910 0.7900 0.7900 0.7880 0.7860
7.014314 0.7840 0.7830 0.7810 0.7790 0.7760
7.049000 0.7730 0.7690 0.7640 0.7610 0.7570
7.083314 0.7500 0.7470 0.7400 0.7370 0.7210
7.117000 0.7160 0.7040 0.6970 0.6800 0.6700
7.151314 0.6580 0.6410 0.6210 0.6000 0.5800
7.186000 0.5630 0.5470 0.5230 0.5110 0.5000
7.220314 0.4860 0.4810 0.4810 0.4810 0.4890
7.254000 0.5060 0.5290 0.5580 0.5870 0.6100
7.288314 0.6430 0.6510 0.6580 0.6630 0.6670
7.323000 0.6670 0.6670 0.6670 0.6650 0.6600
7.357314 0.6530 0.6450 0.6390 0.6380 0.6340
7.391000 0.6290 0.6270 0.6270 0.6290 0.6310
7.425314 0.6330 0.6380 0.6450 0.6510 0.6580
7.460000 0.6620 0.6720 0.6770 0.6800 0.6800
7.494314 0.6820 0.6820 0.6820 0.6820 0.6820
7.529000 0.6800 0.6790 0.6770 0.6750 0.6740
7.563314 0.6740 0.6720 0.6700 0.6680 0.6670
7.597000 0.6650 0.6600 0.6550 0.6480 0.6390
7.631314 0.6340 0.6270 0.6210 0.6140 0.6040
7.666000 0.5980 0.5930 0.5870 0.5800 0.5710
7.700314 0.5640 0.5540 0.5470 0.5290 0.5290
7.734000 0.5220 0.5150 0.5050 0.4940 0.4840
7.768314 0.4720 0.4620 0.4530 0.4400 0.4260
7.803000 0.4160 0.4040 0.3970 0.3820 0.3770
7.837314 0.3730 0.3650 0.3540 0.3530 0.3440
7.872000 0.3370 0.3290 0.3170 0.3000 0.2760
7.906314 0.2690 0.2440 0.2250 0.2030 0.1800
7.940000 0.1600 0.1410 0.1240 0.1050 0.0880
7.974314 0.0730 0.0630 0.0560 0.0460 0.0390
8.009000 0.0320 0.0290 0.0290 0.0290 0.0290
8.043314 0.0290 0.0320 0.0390 0.0420 0.0510
8.077000 0.0560 0.0630 0.0690 0.0710 0.0800
8.111314 0.0880 0.0930 0.1000 0.1050 0.1190
8.146000 0.1310 0.1500 0.1820 0.2110 0.2420
8.180314 0.2610 0.2900 0.3080 0.3320 0.3850
8.215000 0.4090 0.4300 0.4500 0.4670 0.4840
8.249314 0.4980 0.5100 0.5220 0.5340 0.5470
8.283000 0.5580 0.5680 0.5730 0.5830 0.5930
8.317314 0.5970 0.5980 0.6070 0.6070 0.6100
8.352000 0.6170 0.6190 0.6210 0.6220 0.6220
8.386314 0.6220 0.6210 0.6190 0.6160 0.6120
8.420000 0.6040 0.5970 0.5900 0.5830 0.5730
8.454314 0.5640 0.5540 0.5470 0.5340 0.5270
8.489000 0.5100 0.5050 0.4890 0.4820 0.4740
8.523314 0.4640 0.4570 0.4480 0.4380 0.4310
8.558000 0.4280 0.4180 0.4140 0.4110 0.4010
8.592314 0.3970 0.3950 0.3920 0.3900 0.3870
8.626000 0.3850 0.3830 0.3830 0.3830 0.3820
8.660314 0.3820 0.3820 0.3800 0.3800 0.3780
8.695000 0.3780 0.3770 0.3770 0.3770 0.3770
8.729314 0.3770 0.3770 0.3770 0.3750 0.3720
8.763000 0.3680 0.3660 0.3610 0.3580 0.3530
8.797314 0.3460 0.3440 0.3390 0.3360 0.3340
8.832000 0.3310 0.3250 0.3200 0.3150 0.3080
8.866314 0.3070 0.3030 0.3000 0.2950 0.2910
8.901000 0.2860 0.2830 0.2790 0.2780 0.2710
8.935314 0.2690 0.2670 0.2620 0.2610 0.2590
8.969000 0.2570 0.2570 0.2550 0.2540 0.2550
9.003314 0.2540 0.2540 0.2540 0.2540 0.2540
9.038000 0.2540 0.2540 0.2550 0.2550 0.2570
9.072314 0.2590 0.2590 0.2610 0.2620 0.2640
9.106000 0.2660 0.2670 0.2690 0.2740 0.2790
9.140314 0.2840 0.2900 0.2950 0.3000 0.3050
9.175000 0.3120 0.3190 0.3220 0.3290 0.3430
9.209314 0.3460 0.3490 0.3510 0.3560 0.3610
9.244000 0.3630 0.3630 0.3680 0.3700 0.3720
9.278314 0.3730 0.3750 0.3770 0.3780 0.3780
9.312000 0.3780 0.3800 0.3800 0.3800 0.3800
9.346314 0.3820 0.3820 0.3820 0.3830 0.3830
9.381000 0.3850 0.3870 0.3900 0.4040 0.4090
9.415314 0.4120 0.4160 0.4210 0.4260 0.4300
9.449000 0.4360 0.4430 0.4500 0.4570 0.4590
9.483314 0.4600 0.4670 0.4720 0.4810 0.4910
9.518000 0.5000 0.5150 0.5220 0.5320 0.5490
9.552314 0.5590 0.5690 0.5800 0.5870 0.5950
9.586000 0.5980 0.6000 0.6050 0.6120 0.6160
9.620314 0.6170 0.6170 0.6170 0.6170 0.6170
9.655000 0.6170 0.6170 0.6170 0.6170 0.6140
9.689314 0.6120 0.6090 0.6040 0.6000 0.5950
9.724000 0.5900 0.5850 0.5760 0.5690 0.5640
9.758314 0.5560 0.5490 0.5420 0.5340 0.5290
9.792000 0.5200 0.5130 0.5030 0.4940 0.4840
9.826314 0.4770 0.4690 0.4650 0.4550 0.4400
9.861000 0.4380 0.4310 0.4210 0.4190 0.4060
9.895314 0.4010 0.3950 0.3800 0.3780 0.3770
9.929000 0.3730 0.3720 0.3700 0.3700 0.3700
9.963314 0.3720 0.3750 0.3800 0.3890 0.3900
9.998000 0.3940 0.4040 0.4160 0.4280 0.4300
10.032314 0.4360 0.4410 0.4480 0.4530 0.4590
10.067000 0.4600 0.4640 0.4650 0.4690 0.4690
10.101314 0.4690 0.4690 0.4690 0.4690 0.4690
10.135000 0.4640 0.4590 0.4500 0.4400 0.4350
10.169314 0.4300 0.4240 0.4210 0.4140 0.4120
10.204000 0.4020 0.4010 0.3990 0.3990 0.4090
10.238314 0.4190 0.4310 0.4470 0.4650 0.4840
10.272000 0.5130 0.5290 0.5320 0.5460 0.5640
10.306314 0.5780 0.5930 0.6040 0.6140 0.6210
10.341000 0.6270 0.6330 0.6390 0.6480 0.6510
10.375314 0.6580 0.6630 0.6740 0.6770 0.6820
10.410000 0.6860 0.6870 0.6870 0.6910 0.6920
10.444314 0.6970 0.6970 0.6990 0.7010 0.7010
10.478000 0.7030 0.7040 0.7040 0.7040 0.7040
10.512314 0.7040 0.7010 0.6970 0.6940 0.6910
10.547000 0.6870 0.6840 0.6800 0.6790 0.6750
10.581314 0.6740 0.6740 0.6700 0.6680 0.6670
10.615000 0.6650 0.6620 0.6620 0.6580 0.6560
10.649314 0.6510 0.6500 0.6500 0.6480 0.6480
10.684000 0.6480 0.6480 0.6480 0.6480 0.6480
10.718314 0.6480 0.6480 0.6500 0.6500 0.6510
10.753000 0.6510 0.6510 0.6530 0.6530 0.6530
10.787314 0.6530 0.6530 0.6530 0.6550 0.6560
10.821000 0.6560 0.6560 0.6560 0.6560 0.6560
10.855314 0.6560 0.6560 0.6560 0.6560 0.6560
10.890000 0.6560 0.6560 0.6560 0.6560 0.6530
10.924314 0.6510 0.6500 0.6500 0.6480 0.6480
10.958000 0.6460 0.6460 0.6460 0.6450 0.6450
10.992314 0.6450 0.6430 0.6430 0.6430 0.6410
11.027000 0.6410 0.6410 0.6410 0.6390 0.6380
11.061314 0.6380 0.6380 0.6380 0.6380 0.6380
11.096000 0.6380 0.6380 0.6380 0.6380 0.6390
11.130314 0.6390 0.6390 0.6410 0.6410 0.6410
11.164000 0.6410 0.6410 0.6410 0.6410 0.6410
11.198314 0.6410 0.6390 0.6340 0.6310 0.6290
11.233000 0.6270 0.6260 0.6190 0.6170 0.6100
11.267314 0.6090 0.6000 0.6000 0.5980 0.5970
11.301000 0.5880 0.5850 0.5760 0.5640 0.5590
11.335314 0.5490 0.5400 0.5290 0.5220 0.5130
11.370000 0.5030 0.4930 0.4790 0.4720 0.4550
11.404314 0.4350 0.4160 0.4090 0.4020 0.3940
11.439000 0.3780 0.3660 0.3560 0.3490 0.3440
11.473314 0.3360 0.3340 0.3320 0.3290 0.3290
11.507000 0.3250 0.3240 0.3240 0.3240 0.3250
11.541314 0.3250 0.3270 0.3290 0.3390 0.3460
11.576000 0.3510 0.3530 0.3540 0.3580 0.3630
11.610314 0.3700 0.3730 0.3770 0.3780 0.3800
11.644000 0.3830 0.3870 0.3890 0.3920 0.3950
11.678314 0.3950 0.3950 0.3950 0.3950 0.3940
11.713000 0.3920 0.3900 0.3890 0.3890 0.3870
11.747314 0.3820 0.3780 0.3770 0.3720 0.3680
11.781000 0.3630 0.3560 0.3490 0.3390 0.3320
11.815314 0.3250 0.3130 0.3080 0.2960 0.2840
11.850000 0.2740 0.2520 0.2520 0.2450 0.2350
11.884314 0.2280 0.2200 0.2150 0.2040 0.2030
11.919000 0.1970 0.1920 0.1910 0.1910 0.1910
11.953314 0.1920 0.1940 0.1960 0.1970 0.1990
11.987000 0.1990 0.1990 0.1990 0.1990 0.1990
12.021314 0.1990 0.1970 0.1960 0.1920 0.1860
12.056000 0.1720 0.1580 0.1460 0.1340 0.1240
12.090314 0.1160 0.1050 0.1020 0.0970 0.0920
12.124000 0.0920 0.0920 0.0920 0.0950 0.1020
12.158314 0.1100 0.1210 0.1340 0.1480 0.1650
12.193000 0.1820 0.2030 0.2250 0.2400 0.2590
12.227314 0.2660 0.2810 0.2860 0.2950 0.3000
12.262000 0.3070 0.3120 0.3130 0.3170 0.3190
12.296314 0.3200 0.3200 0.3200 0.3200 0.3200
12.330000 0.3200 0.3200 0.3220 0.3240 0.3270
12.364314 0.3310 0.3390 0.3460 0.3560 0.3720
12.399000 0.3800 0.3990 0.4140 0.4300 0.4350
12.433314 0.4530 0.4650 0.4820 0.4940 0.5050
12.467000 0.5130 0.5250 0.5370 0.5440 0.5540
12.501314 0.5630 0.5730 0.5800 0.5870 0.5920
12.536000 0.5950 0.6020 0.6090 0.6160 0.6190
12.570314 0.6260 0.6270 0.6270 0.6310 0.6340
12.605000 0.6410 0.6460 0.6530 0.6560 0.6580
12.639314 0.6620 0.6630 0.6680 0.6700 0.6750
12.673000 0.6750 0.6770 0.6790 0.6800 0.6820
12.707314 0.6820 0.6840 0.6860 0.6870 0.6890
12.742000 0.6890 0.6890 0.6890 0.6910 0.6910
12.776314 0.6910 0.6910 0.6920 0.6920 0.6920
12.810000 0.6920 0.6920 0.6940 0.6940 0.6940
12.844314 0.6940 0.6940 0.6960 0.6960 0.6960
12.879000 0.6960 0.6960 0.6960 0.6960 0.6960
12.913314 0.6960 0.6940 0.6940 0.6940 0.6920
12.948000 0.6920 0.6920 0.6870 0.6870 0.6860
12.982314 0.6860 0.6860 0.6860 0.6860 0.6860
13.016000 0.6840 0.6840 0.6820 0.6820 0.6800
13.050314 0.6790 0.6790 0.6750 0.6740 0.6680
13.085000 0.6670 0.6650 0.6630 0.6560 0.6550
13.119314 0.6510 0.6460 0.6390 0.6360 0.6310
13.153000 0.6240 0.6190 0.6120 0.6090 0.6040
13.187314 0.5970 0.5900 0.5830 0.5730 0.5590
13.222000 0.5470 0.5420 0.5350 0.5270 0.5220
13.256314 0.5110 0.5060 0.5010 0.4960 0.4930
13.291000 0.4880 0.4860 0.4820 0.4810 0.4810
13.325314 0.4810 0.4810 0.4810 0.4810 0.4820
13.359000 0.4820 0.4860 0.4880 0.4880 0.4910
13.393314 0.4930 0.4960 0.5000 0.5050 0.5100
13.428000 0.5150 0.5180 0.5230 0.5290 0.5340
13.462314 0.5370 0.5400 0.5470 0.5510 0.5540
13.496000 0.5580 0.5630 0.5660 0.5710 0.5760
13.530314 0.5780 0.5850 0.5920 0.5950 0.6000
13.565000 0.6090 0.6140 0.6170 0.6210 0.6240
13.599314 0.6240 0.6260 0.6270 0.6270 0.6290
13.634000 0.6290 0.6310 0.6310 0.6330 0.6330
13.668314 0.6330 0.6330 0.6330 0.6330 0.6330
13.702000 0.6330 0.6330 0.6330 0.6330 0.6310
13.736314 0.6310 0.6310 0.6290 0.6290 0.6290
13.771000 0.6270 0.6270 0.6260 0.6260 0.6220
13.805314 0.6220 0.6210 0.6210 0.6190 0.6190
13.839000 0.6170 0.6170 0.6160 0.6160 0.6160
13.873314 0.6140 0.6140 0.6120 0.6120 0.6100
13.908000 0.6100 0.6090 0.6070 0.6050 0.6040
13.942314 0.6020 0.6000 0.5980 0.5970 0.5950
13.976000 0.5950 0.5930 0.5930 0.5920 0.5900
14.010314 0.5880 0.5880 0.5870 0.5850 0.5830
14.045000 0.5800 0.5780 0.5780 0.5760 0.5760
14.079314 0.5750 0.5730 0.5730 0.5690 0.5680
14.114000 0.5660 0.5640 0.5610 0.5580 0.5580
14.148314 0.5560 0.5540 0.5540 0.5470 0.5460
14.182000 0.5440 0.5420 0.5400 0.5370 0.5320
14.216314 0.5290 0.5230 0.5230 0.5200 0.5170
14.251000 0.5110 0.5100 0.5060 0.5050 0.4980
14.285314 0.4940 0.4930 0.4880 0.4840 0.4820
14.319000 0.4760 0.4690 0.4670 0.4620 0.4590
14.353314 0.4520 0.4480 0.4430 0.4380 0.4330
14.388000 0.4300 0.4260 0.4210 0.4140 0.4060
14.422314 0.3940 0.3890 0.3820 0.3730 0.3650
14.457000 0.3560 0.3480 0.3370 0.3340 0.3290
14.491314 0.3190 0.3080 0.2980 0.2860 0.2760
14.525000 0.2640 0.2540 0.2440 0.2320 0.2210
14.559314 0.2110 0.2010 0.1890 0.1800 0.1680
14.594000 0.1580 0.1460 0.1360 0.1260 0.1160
14.628314 0.1090 0.1040 0.0950 0.0900 0.0810
14.662000 0.0780 0.0730 0.0690 0.0660 0.0630
14.696314 0.0610 0.0590 0.0580 0.0560 0.0560
14.731000 0.0580 0.0590 0.0630 0.0690 0.0750
14.765314 0.0780 0.0850 0.0920 0.0980 0.1070
14.800000 0.1160 0.1290 0.1410 0.1530 0.1630
14.834314 0.1720 0.1820 0.1890 0.1970 0.2060
14.868000 0.2130 0.2200 0.2260 0.2330 0.2380
14.902314 0.2450 0.2520 0.2590 0.2670 0.2740
14.937000 0.2830 0.2900 0.2930 0.3030 0.3170
14.971314 0.3240 0.3430 0.3440 0.3490 0.3580
15.005000 0.3680 0.3780 0.3870 0.3940 0.3970
15.039314 0.3990 0.4020 0.4040 0.4070 0.4090
15.074000 0.4110 0.4120 0.4120 0.4140 0.4160
15.108314 0.4160 0.4160 0.4160 0.4180 0.4180
15.143000 0.4180 0.4180 0.4190 0.4210 0.4210
15.177314 0.4210 0.4210 0.4230 0.4230 0.4230
15.211000 0.4230 0.4230 0.4230 0.4230 0.4230
15.245314 0.4210 0.4210 0.4210 0.4210 0.4190
15.280000 0.4190 0.4190 0.4190 0.4180 0.4180
15.314314 0.4180 0.4180 0.4180 0.4180 0.4190
15.348000 0.4190 0.4190 0.4190 0.4190 0.4210
15.382314 0.4210 0.4210 0.4210 0.4210 0.4210
15.417000 0.4210 0.4230 0.4230 0.4230 0.4230
15.451314 0.4230 0.4230 0.4230 0.4230 0.4190
15.486000 0.4190 0.4190 0.4180 0.4180 0.4180
15.520314 0.4160 0.4160 0.4160 0.4160 0.4160
15.554000 0.4160 0.4140 0.4140 0.4140 0.4140
15.588314 0.4140 0.4140 0.4140 0.4140 0.4140
15.623000 0.4140 0.4140 0.4140 0.4140 0.4140
15.657314 0.4140 0.4140 0.4120 0.4120 0.4120
15.691000 0.4120 0.4120 0.4120 0.4120 0.4120
15.725314 0.4110 0.4110 0.4110 0.4110 0.4110
15.760000 0.4110 0.4110 0.4110 0.4110 0.4110
15.794314 0.4110 0.4110 0.4110 0.4110 0.4110
15.829000 0.4110 0.4110 0.4110 0.4110 0.4110
15.863314 0.4120 0.4120 0.4120 0.4120 0.4120
15.897000 0.4140 0.4140 0.4140
##END=
