##TITLE=Heptanamine, 1,1-2,2-3,3-4,4-5,5-6,6-dodecamethyl-, hydrochloride
##JCAMP-DX=4.24
##DATA TYPE=INFRARED SPECTRUM
##CLASS=COBLENTZ III
##ORIGIN=BRITISH PETROLEUM CO. LTD., ENGLAND
##OWNER=Copyright (C) 1987 by the Coblentz Society
Collection (C) 2018 copyright by the U.S. Secretary of Commerce
on behalf of the United States of America. All rights reserved.
##DATE=1972/06/12
##NAMES=2,3,3,4,4,5,5,6,6,7,7-undecamethyl-2-octanamine hydrochloride
PRIMENE JMT HYDROCHLORIDE
##MOLFORM=C19 H42 Cl N
##SOURCE REFERENCE=COBLENTZ NO. 9381
##$NIST ID=B6009381
##$NIST SOURCE=COBLENTZ
##$NIST IMAGE=cob9381
##SPECTROMETER/DATA SYSTEM=Not specified, most likely a prism, grating, or hybrid spectrometer.
##STATE=LIQUID (NEAT)
##PATH LENGTH=CAPILLARY
$$ REF. Can. J. Spec., 18,4,101, '73 C. S. DOUSE and P. B. TOOKE
##SAMPLING PROCEDURE=TRANSMISSION
##RESOLUTION=2
##DATA PROCESSING=DIGITIZED BY COBLENTZ SOCIETY (BATCH II) FROM HARD COPY
##XUNITS=1/CM
##YUNITS=TRANSMITTANCE
##XFACTOR=1.0
##YFACTOR=1
##FIRSTX=668
##LASTX=4000
##FIRSTY=0.8179
##MAXX=4000
##MINX=668
##MAXY=0.8814
##MINY=0.0149
##NPOINTS=3333
##XYDATA=(X++(Y..Y))
668.000000 0.8179 0.8175 0.8175 0.8175 0.8176
673.000000 0.8177 0.8178 0.8179 0.8181 0.8181
678.000000 0.8177 0.8175 0.8174 0.8173 0.8166
683.000000 0.8154 0.8142 0.8132 0.8122 0.8116
688.000000 0.8113 0.8112 0.8110 0.8105 0.8100
693.000000 0.8095 0.8086 0.8071 0.8052 0.8031
698.000000 0.8006 0.7975 0.7938 0.7900 0.7850
703.000000 0.7837 0.7826 0.7778 0.7705 0.7682
708.000000 0.7660 0.7637 0.7605 0.7534 0.7480
713.000000 0.7469 0.7448 0.7341 0.7256 0.7158
718.000000 0.7080 0.6998 0.6925 0.6838 0.6752
723.000000 0.6676 0.6599 0.6532 0.6471 0.6416
728.000000 0.6374 0.6358 0.6349 0.6342 0.6331
733.000000 0.6274 0.6205 0.6181 0.6173 0.6170
738.000000 0.6171 0.6156 0.6178 0.6209 0.6256
743.000000 0.6318 0.6385 0.6450 0.6506 0.6537
748.000000 0.6557 0.6569 0.6581 0.6598 0.6623
753.000000 0.6663 0.6717 0.6767 0.6780 0.6790
758.000000 0.6789 0.6788 0.6787 0.6792 0.6783
763.000000 0.6781 0.6767 0.6727 0.6678 0.6637
768.000000 0.6608 0.6589 0.6566 0.6528 0.6505
773.000000 0.6491 0.6482 0.6476 0.6475 0.6474
778.000000 0.6474 0.6475 0.6476 0.6461 0.6487
783.000000 0.6495 0.6509 0.6544 0.6596 0.6641
788.000000 0.6686 0.6738 0.6778 0.6821 0.6905
793.000000 0.6973 0.7037 0.7065 0.7093 0.7145
798.000000 0.7210 0.7258 0.7269 0.7278 0.7284
803.000000 0.7290 0.7294 0.7298 0.7319 0.7299
808.000000 0.7299 0.7298 0.7297 0.7295 0.7294
813.000000 0.7293 0.7290 0.7285 0.7281 0.7277
818.000000 0.7273 0.7266 0.7257 0.7249 0.7240
823.000000 0.7226 0.7213 0.7200 0.7187 0.7174
828.000000 0.7162 0.7155 0.7156 0.7149 0.7132
833.000000 0.7100 0.7095 0.7094 0.7092 0.7089
838.000000 0.7082 0.7075 0.7068 0.7055 0.7039
843.000000 0.7023 0.7000 0.6977 0.6954 0.6934
848.000000 0.6913 0.6891 0.6870 0.6857 0.6847
853.000000 0.6838 0.6830 0.6825 0.6820 0.6815
858.000000 0.6810 0.6807 0.6803 0.6798 0.6779
863.000000 0.6759 0.6739 0.6719 0.6700 0.6693
868.000000 0.6686 0.6675 0.6661 0.6644 0.6624
873.000000 0.6605 0.6587 0.6570 0.6554 0.6537
878.000000 0.6519 0.6501 0.6484 0.6461 0.6434
883.000000 0.6407 0.6381 0.6359 0.6335 0.6313
888.000000 0.6288 0.6263 0.6236 0.6210 0.6184
893.000000 0.6166 0.6151 0.6141 0.6135 0.6130
898.000000 0.6125 0.6121 0.6109 0.6091 0.6070
903.000000 0.6049 0.6028 0.6007 0.5985 0.5964
908.000000 0.5943 0.5921 0.5900 0.5880 0.5859
913.000000 0.5838 0.5816 0.5788 0.5755 0.5722
918.000000 0.5691 0.5660 0.5634 0.5611 0.5673
923.000000 0.5703 0.5724 0.5733 0.5735 0.5740
928.000000 0.5733 0.5732 0.5729 0.5725 0.5719
933.000000 0.5714 0.5709 0.5705 0.5701 0.5698
938.000000 0.5697 0.5695 0.5693 0.5694 0.5696
943.000000 0.5698 0.5691 0.5683 0.5673 0.5657
948.000000 0.5640 0.5623 0.5605 0.5586 0.5561
953.000000 0.5533 0.5505 0.5481 0.5457 0.5433
958.000000 0.5409 0.5373 0.5337 0.5296 0.5257
963.000000 0.5219 0.5183 0.5144 0.5114 0.5131
968.000000 0.5141 0.5155 0.5173 0.5197 0.5261
973.000000 0.5312 0.5339 0.5362 0.5382 0.5398
978.000000 0.5409 0.5420 0.5431 0.5442 0.5450
983.000000 0.5458 0.5465 0.5472 0.5478 0.5480
988.000000 0.5481 0.5482 0.5482 0.5491 0.5470
993.000000 0.5463 0.5452 0.5432 0.5414 0.5383
998.000000 0.5352 0.5317 0.5266 0.5213 0.5163
1003.000000 0.5113 0.5054 0.5025 0.5014 0.5008
1008.000000 0.5002 0.4998 0.4995 0.4993 0.4992
1013.000000 0.4991 0.4990 0.4988 0.4986 0.4981
1018.000000 0.4962 0.4937 0.4909 0.4875 0.4835
1023.000000 0.4769 0.4683 0.4613 0.4598 0.4596
1028.000000 0.4560 0.4507 0.4432 0.4334 0.4236
1033.000000 0.4153 0.4100 0.4083 0.4084 0.4071
1038.000000 0.4105 0.4227 0.4316 0.4388 0.4461
1043.000000 0.4582 0.4719 0.4869 0.4974 0.5038
1048.000000 0.5076 0.5109 0.5143 0.5169 0.5191
1053.000000 0.5212 0.5233 0.5250 0.5260 0.5272
1058.000000 0.5282 0.5290 0.5298 0.5305 0.5312
1063.000000 0.5318 0.5324 0.5329 0.5335 0.5340
1068.000000 0.5345 0.5352 0.5357 0.5364 0.5369
1073.000000 0.5375 0.5381 0.5385 0.5391 0.5395
1078.000000 0.5399 0.5404 0.5402 0.5404 0.5400
1083.000000 0.5395 0.5386 0.5373 0.5356 0.5339
1088.000000 0.5321 0.5303 0.5285 0.5264 0.5241
1093.000000 0.5217 0.5193 0.5167 0.5141 0.5115
1098.000000 0.5089 0.5062 0.5033 0.5005 0.4977
1103.000000 0.4947 0.4914 0.4883 0.4850 0.4818
1108.000000 0.4786 0.4751 0.4718 0.4684 0.4651
1113.000000 0.4618 0.4604 0.4599 0.4594 0.4589
1118.000000 0.4588 0.4588 0.4587 0.4587 0.4587
1123.000000 0.4586 0.4586 0.4585 0.4584 0.4584
1128.000000 0.4585 0.4585 0.4586 0.4579 0.4537
1133.000000 0.4491 0.4445 0.4398 0.4348 0.4281
1138.000000 0.4206 0.4076 0.3986 0.3897 0.3811
1143.000000 0.3741 0.3675 0.3607 0.3517 0.3433
1148.000000 0.3359 0.3291 0.3239 0.3185 0.3109
1153.000000 0.3034 0.2871 0.2821 0.2776 0.2729
1158.000000 0.2674 0.2619 0.2565 0.2516 0.2469
1163.000000 0.2422 0.2376 0.2338 0.2302 0.2271
1168.000000 0.2255 0.2253 0.2254 0.2255 0.2265
1173.000000 0.2292 0.2319 0.2354 0.2391 0.2434
1178.000000 0.2496 0.2558 0.2621 0.2682 0.2727
1183.000000 0.2771 0.2819 0.2885 0.2953 0.3055
1188.000000 0.3157 0.3249 0.3327 0.3387 0.3447
1193.000000 0.3508 0.3575 0.3642 0.3714 0.3788
1198.000000 0.3843 0.3881 0.3893 0.3897 0.3901
1203.000000 0.3903 0.3906 0.3907 0.3908 0.3909
1208.000000 0.3910 0.3911 0.3912 0.3913 0.3914
1213.000000 0.3914 0.3913 0.3913 0.3913 0.3913
1218.000000 0.3913 0.3913 0.3913 0.3914 0.3914
1223.000000 0.3915 0.3916 0.3916 0.3917 0.3917
1228.000000 0.3918 0.3918 0.3919 0.3920 0.3920
1233.000000 0.3920 0.3919 0.3919 0.3919 0.3918
1238.000000 0.3918 0.3918 0.3917 0.3917 0.3917
1243.000000 0.3916 0.3916 0.3916 0.3915 0.3915
1248.000000 0.3915 0.3915 0.3915 0.3915 0.3915
1253.000000 0.3915 0.3915 0.3915 0.3915 0.3915
1258.000000 0.3915 0.3915 0.3915 0.3917 0.3921
1263.000000 0.3924 0.3930 0.3943 0.3962 0.4008
1268.000000 0.4050 0.4061 0.4066 0.4068 0.4070
1273.000000 0.4072 0.4073 0.4075 0.4077 0.4079
1278.000000 0.4081 0.4083 0.4085 0.4088 0.4097
1283.000000 0.4089 0.4089 0.4090 0.4090 0.4091
1288.000000 0.4091 0.4092 0.4092 0.4092 0.4090
1293.000000 0.4089 0.4087 0.4086 0.4085 0.4083
1298.000000 0.4082 0.4080 0.4079 0.4076 0.4075
1303.000000 0.4073 0.4071 0.4069 0.4067 0.4065
1308.000000 0.4063 0.4061 0.4060 0.4061 0.4061
1313.000000 0.4061 0.4062 0.4063 0.4064 0.4064
1318.000000 0.4065 0.4066 0.4067 0.4062 0.4044
1323.000000 0.4027 0.4008 0.3990 0.3967 0.3945
1328.000000 0.3921 0.3896 0.3870 0.3842 0.3814
1333.000000 0.3786 0.3755 0.3724 0.3691 0.3656
1338.000000 0.3624 0.3601 0.3586 0.3581 0.3576
1343.000000 0.3570 0.3560 0.3529 0.3463 0.3350
1348.000000 0.3292 0.3215 0.3113 0.3019 0.2938
1353.000000 0.2861 0.2803 0.2750 0.2697 0.2640
1358.000000 0.2394 0.0979 0.0870 0.0820 0.0810
1363.000000 0.0801 0.0798 0.0799 0.0800 0.0803
1368.000000 0.0807 0.0809 0.0743 0.0540 0.0485
1373.000000 0.0443 0.0403 0.0371 0.0357 0.0349
1378.000000 0.0343 0.0341 0.0342 0.0343 0.0314
1383.000000 0.0346 0.0349 0.0355 0.0363 0.0389
1388.000000 0.0439 0.0503 0.0627 0.0842 0.1064
1393.000000 0.1286 0.1508 0.1729 0.1950 0.2170
1398.000000 0.2390 0.2610 0.2830 0.3049 0.3268
1403.000000 0.3486 0.3726 0.3981 0.4095 0.4154
1408.000000 0.4191 0.4218 0.4238 0.4250 0.4253
1413.000000 0.4246 0.4236 0.4243 0.4183 0.4133
1418.000000 0.4063 0.4005 0.3967 0.3940 0.3924
1423.000000 0.3858 0.3683 0.3508 0.3334 0.3160
1428.000000 0.2986 0.2812 0.2639 0.2466 0.2293
1433.000000 0.2120 0.1968 0.1857 0.1719 0.1621
1438.000000 0.1521 0.1413 0.1303 0.1195 0.1093
1443.000000 0.1002 0.0915 0.0713 0.0598 0.0512
1448.000000 0.0456 0.0407 0.0370 0.0339 0.0329
1453.000000 0.0320 0.0315 0.0311 0.0309 0.0307
1458.000000 0.0307 0.0307 0.0306 0.0306 0.0301
1463.000000 0.0305 0.0305 0.0305 0.0304 0.0305
1468.000000 0.0307 0.0339 0.0417 0.0519 0.0640
1473.000000 0.0712 0.0781 0.0836 0.0863 0.0906
1478.000000 0.1023 0.1181 0.1340 0.1499 0.1657
1483.000000 0.1815 0.1973 0.2130 0.2287 0.2384
1488.000000 0.2409 0.2420 0.2429 0.2431 0.2443
1493.000000 0.2437 0.2436 0.2432 0.2424 0.2315
1498.000000 0.2154 0.1993 0.1832 0.1671 0.1510
1503.000000 0.1350 0.1190 0.1030 0.0870 0.0711
1508.000000 0.0556 0.0447 0.0409 0.0375 0.0344
1513.000000 0.0327 0.0318 0.0314 0.0314 0.0316
1518.000000 0.0305 0.0326 0.0335 0.0354 0.0382
1523.000000 0.0418 0.0474 0.0538 0.0580 0.0614
1528.000000 0.0649 0.0687 0.0824 0.0933 0.1031
1533.000000 0.1260 0.1483 0.1705 0.1927 0.2149
1538.000000 0.2371 0.2592 0.2813 0.3034 0.3254
1543.000000 0.3474 0.3694 0.3914 0.4133 0.4352
1548.000000 0.4509 0.4578 0.4916 0.5038 0.5156
1553.000000 0.5250 0.5270 0.5289 0.5300 0.5306
1558.000000 0.5312 0.5318 0.5322 0.5323 0.5336
1563.000000 0.5319 0.5318 0.5317 0.5314 0.5308
1568.000000 0.5301 0.5290 0.5276 0.5262 0.5244
1573.000000 0.5225 0.5204 0.5178 0.5122 0.5065
1578.000000 0.5019 0.4986 0.4956 0.4927 0.4895
1583.000000 0.4855 0.4811 0.4767 0.4711 0.4636
1588.000000 0.4550 0.4456 0.4372 0.4289 0.4088
1593.000000 0.3828 0.3568 0.3309 0.3066 0.2914
1598.000000 0.2828 0.2752 0.2680 0.2612 0.2548
1603.000000 0.2473 0.2337 0.2137 0.1945 0.1753
1608.000000 0.1560 0.1369 0.1178 0.0986 0.0808
1613.000000 0.0750 0.0711 0.0696 0.0694 0.0695
1618.000000 0.0700 0.0702 0.0723 0.0752 0.0781
1623.000000 0.0940 0.1195 0.1470 0.1744 0.2018
1628.000000 0.2292 0.2565 0.2838 0.3112 0.3384
1633.000000 0.3656 0.3928 0.4199 0.5259 0.5464
1638.000000 0.5533 0.5577 0.5609 0.5639 0.5668
1643.000000 0.5699 0.5732 0.5762 0.5781 0.5793
1648.000000 0.5804 0.5815 0.5819 0.5822 0.5825
1653.000000 0.5827 0.5828 0.5828 0.5828 0.5827
1658.000000 0.5826 0.5825 0.5823 0.5820 0.5818
1663.000000 0.5815 0.5813 0.5811 0.5808 0.5806
1668.000000 0.5803 0.5801 0.5799 0.5796 0.5793
1673.000000 0.5790 0.5788 0.5785 0.5782 0.5779
1678.000000 0.5776 0.5774 0.5774 0.5774 0.5778
1683.000000 0.5783 0.5788 0.5793 0.5785 0.5802
1688.000000 0.5802 0.5802 0.5801 0.5799 0.5797
1693.000000 0.5795 0.5792 0.5790 0.5788 0.5786
1698.000000 0.5784 0.5782 0.5781 0.5779 0.5778
1703.000000 0.5779 0.5781 0.5784 0.5786 0.5790
1708.000000 0.5797 0.5809 0.5820 0.5838 0.5861
1713.000000 0.5887 0.5918 0.5952 0.5994 0.6050
1718.000000 0.6109 0.6169 0.6229 0.6289 0.6349
1723.000000 0.6409 0.6468 0.6527 0.6587 0.6646
1728.000000 0.6700 0.6741 0.6773 0.6801 0.6828
1733.000000 0.6854 0.6882 0.6912 0.6942 0.6963
1738.000000 0.6981 0.6998 0.7015 0.7032 0.7044
1743.000000 0.7052 0.7059 0.7067 0.7074 0.7081
1748.000000 0.7085 0.7086 0.7087 0.7088 0.7090
1753.000000 0.7090 0.7091 0.7092 0.7094 0.7096
1758.000000 0.7096 0.7098 0.7108 0.7126 0.7151
1763.000000 0.7172 0.7192 0.7216 0.7240 0.7266
1768.000000 0.7291 0.7315 0.7335 0.7353 0.7370
1773.000000 0.7386 0.7405 0.7427 0.7450 0.7470
1778.000000 0.7487 0.7504 0.7522 0.7542 0.7563
1783.000000 0.7582 0.7599 0.7616 0.7632 0.7649
1788.000000 0.7671 0.7696 0.7721 0.7747 0.7774
1793.000000 0.7802 0.7823 0.7837 0.7844 0.7851
1798.000000 0.7858 0.7864 0.7867 0.7870 0.7872
1803.000000 0.7875 0.7878 0.7881 0.7884 0.7886
1808.000000 0.7887 0.7888 0.7888 0.7889 0.7890
1813.000000 0.7890 0.7890 0.7890 0.7890 0.7889
1818.000000 0.7889 0.7889 0.7889 0.7889 0.7889
1823.000000 0.7889 0.7889 0.7889 0.7889 0.7889
1828.000000 0.7889 0.7889 0.7889 0.7889 0.7889
1833.000000 0.7888 0.7888 0.7888 0.7888 0.7890
1838.000000 0.7888 0.7888 0.7888 0.7888 0.7888
1843.000000 0.7888 0.7888 0.7888 0.7888 0.7887
1848.000000 0.7887 0.7887 0.7887 0.7887 0.7887
1853.000000 0.7887 0.7886 0.7885 0.7884 0.7884
1858.000000 0.7883 0.7882 0.7882 0.7880 0.7879
1863.000000 0.7878 0.7877 0.7875 0.7873 0.7870
1868.000000 0.7867 0.7865 0.7862 0.7860 0.7857
1873.000000 0.7853 0.7845 0.7838 0.7830 0.7822
1878.000000 0.7813 0.7803 0.7793 0.7783 0.7774
1883.000000 0.7767 0.7761 0.7756 0.7751 0.7747
1888.000000 0.7742 0.7739 0.7737 0.7735 0.7733
1893.000000 0.7730 0.7728 0.7726 0.7723 0.7721
1898.000000 0.7719 0.7716 0.7714 0.7712 0.7709
1903.000000 0.7707 0.7705 0.7702 0.7699 0.7697
1908.000000 0.7695 0.7692 0.7690 0.7684 0.7676
1913.000000 0.7666 0.7655 0.7638 0.7619 0.7599
1918.000000 0.7580 0.7562 0.7546 0.7529 0.7512
1923.000000 0.7495 0.7479 0.7463 0.7449 0.7436
1928.000000 0.7422 0.7409 0.7395 0.7382 0.7368
1933.000000 0.7355 0.7341 0.7325 0.7309 0.7294
1938.000000 0.7278 0.7262 0.7246 0.7230 0.7214
1943.000000 0.7198 0.7182 0.7165 0.7149 0.7132
1948.000000 0.7116 0.7100 0.7084 0.7067 0.7051
1953.000000 0.7035 0.7019 0.7003 0.6986 0.6971
1958.000000 0.6954 0.6937 0.6913 0.6888 0.6863
1963.000000 0.6838 0.6814 0.6798 0.6782 0.6766
1968.000000 0.6749 0.6733 0.6716 0.6700 0.6682
1973.000000 0.6664 0.6644 0.6622 0.6601 0.6576
1978.000000 0.6550 0.6524 0.6497 0.6470 0.6447
1983.000000 0.6424 0.6402 0.6380 0.6358 0.6336
1988.000000 0.6313 0.6290 0.6267 0.6244 0.6220
1993.000000 0.6197 0.6173 0.6150 0.6122 0.6093
1998.000000 0.6064 0.6035 0.6007 0.5978 0.5950
2003.000000 0.5922 0.5894 0.5866 0.5838 0.5811
2008.000000 0.5783 0.5751 0.5718 0.5684 0.5650
2013.000000 0.5615 0.5581 0.5548 0.5517 0.5488
2018.000000 0.5459 0.5430 0.5401 0.5372 0.5343
2023.000000 0.5314 0.5285 0.5257 0.5229 0.5201
2028.000000 0.5173 0.5146 0.5118 0.5090 0.5062
2033.000000 0.5038 0.5019 0.5001 0.4982 0.4964
2038.000000 0.4945 0.4926 0.4908 0.4890 0.4874
2043.000000 0.4857 0.4841 0.4832 0.4824 0.4818
2048.000000 0.4816 0.4816 0.4816 0.4816 0.4816
2053.000000 0.4807 0.4816 0.4818 0.4821 0.4823
2058.000000 0.4825 0.4828 0.4833 0.4838 0.4846
2063.000000 0.4855 0.4865 0.4886 0.4913 0.4942
2068.000000 0.4972 0.5000 0.5029 0.5057 0.5083
2073.000000 0.5107 0.5132 0.5158 0.5186 0.5216
2078.000000 0.5246 0.5276 0.5306 0.5333 0.5360
2083.000000 0.5387 0.5415 0.5442 0.5469 0.5496
2088.000000 0.5523 0.5549 0.5576 0.5608 0.5643
2093.000000 0.5679 0.5715 0.5750 0.5784 0.5814
2098.000000 0.5843 0.5872 0.5901 0.5931 0.5965
2103.000000 0.6000 0.6037 0.6073 0.6109 0.6158
2108.000000 0.6209 0.6263 0.6317 0.6368 0.6420
2113.000000 0.6471 0.6571 0.6690 0.6726 0.6756
2118.000000 0.6786 0.6816 0.6844 0.6872 0.6900
2123.000000 0.6927 0.6954 0.6980 0.7006 0.7032
2128.000000 0.7057 0.7083 0.7108 0.7133 0.7160
2133.000000 0.7189 0.7224 0.7260 0.7296 0.7327
2138.000000 0.7346 0.7364 0.7382 0.7400 0.7419
2143.000000 0.7432 0.7444 0.7455 0.7466 0.7475
2148.000000 0.7484 0.7488 0.7492 0.7497 0.7502
2153.000000 0.7506 0.7510 0.7515 0.7519 0.7523
2158.000000 0.7527 0.7531 0.7535 0.7539 0.7543
2163.000000 0.7548 0.7556 0.7563 0.7571 0.7579
2168.000000 0.7587 0.7595 0.7604 0.7613 0.7622
2173.000000 0.7632 0.7641 0.7649 0.7656 0.7663
2178.000000 0.7669 0.7675 0.7680 0.7684 0.7687
2183.000000 0.7691 0.7695 0.7698 0.7701 0.7702
2188.000000 0.7703 0.7704 0.7705 0.7706 0.7707
2193.000000 0.7709 0.7709 0.7710 0.7710 0.7711
2198.000000 0.7711 0.7712 0.7712 0.7712 0.7712
2203.000000 0.7713 0.7713 0.7714 0.7714 0.7715
2208.000000 0.7715 0.7715 0.7716 0.7717 0.7717
2213.000000 0.7718 0.7718 0.7719 0.7719 0.7704
2218.000000 0.7720 0.7721 0.7721 0.7722 0.7722
2223.000000 0.7722 0.7722 0.7722 0.7722 0.7722
2228.000000 0.7722 0.7721 0.7721 0.7721 0.7721
2233.000000 0.7721 0.7721 0.7720 0.7720 0.7720
2238.000000 0.7720 0.7719 0.7719 0.7718 0.7718
2243.000000 0.7717 0.7716 0.7715 0.7714 0.7713
2248.000000 0.7712 0.7711 0.7711 0.7709 0.7708
2253.000000 0.7705 0.7701 0.7698 0.7694 0.7690
2258.000000 0.7686 0.7682 0.7677 0.7672 0.7667
2263.000000 0.7662 0.7656 0.7651 0.7645 0.7640
2268.000000 0.7635 0.7630 0.7625 0.7620 0.7614
2273.000000 0.7609 0.7604 0.7600 0.7595 0.7590
2278.000000 0.7584 0.7579 0.7574 0.7570 0.7564
2283.000000 0.7558 0.7551 0.7545 0.7538 0.7531
2288.000000 0.7524 0.7517 0.7510 0.7504 0.7495
2293.000000 0.7485 0.7474 0.7464 0.7453 0.7442
2298.000000 0.7431 0.7418 0.7405 0.7393 0.7380
2303.000000 0.7367 0.7353 0.7339 0.7324 0.7306
2308.000000 0.7287 0.7265 0.7241 0.7223 0.7212
2313.000000 0.7201 0.7189 0.7177 0.7166 0.7155
2318.000000 0.7143 0.7132 0.7121 0.7109 0.7098
2323.000000 0.7086 0.7074 0.7062 0.7052 0.7045
2328.000000 0.7038 0.7031 0.7025 0.7019 0.7012
2333.000000 0.7005 0.6998 0.6992 0.6985 0.6980
2338.000000 0.6976 0.6971 0.6965 0.6959 0.6951
2343.000000 0.6944 0.6936 0.6929 0.6921 0.6914
2348.000000 0.6908 0.6903 0.6899 0.6894 0.6889
2353.000000 0.6885 0.6882 0.6881 0.6881 0.6880
2358.000000 0.6879 0.6878 0.6877 0.6876 0.6875
2363.000000 0.6874 0.6874 0.6874 0.6873 0.6872
2368.000000 0.6871 0.6870 0.6869 0.6869 0.6868
2373.000000 0.6868 0.6867 0.6866 0.6866 0.6865
2378.000000 0.6864 0.6863 0.6863 0.6862 0.6860
2383.000000 0.6857 0.6852 0.6846 0.6837 0.6825
2388.000000 0.6812 0.6798 0.6783 0.6771 0.6760
2393.000000 0.6747 0.6735 0.6723 0.6711 0.6699
2398.000000 0.6686 0.6674 0.6662 0.6650 0.6638
2403.000000 0.6626 0.6613 0.6599 0.6585 0.6570
2408.000000 0.6555 0.6541 0.6527 0.6515 0.6507
2413.000000 0.6499 0.6491 0.6483 0.6475 0.6468
2418.000000 0.6460 0.6452 0.6444 0.6433 0.6422
2423.000000 0.6409 0.6396 0.6382 0.6369 0.6356
2428.000000 0.6343 0.6330 0.6317 0.6303 0.6290
2433.000000 0.6278 0.6265 0.6252 0.6240 0.6227
2438.000000 0.6214 0.6202 0.6190 0.6177 0.6165
2443.000000 0.6153 0.6141 0.6129 0.6117 0.6098
2448.000000 0.6078 0.6057 0.6036 0.6014 0.5991
2453.000000 0.5967 0.5930 0.5885 0.5840 0.5800
2458.000000 0.5760 0.5726 0.5694 0.5661 0.5625
2463.000000 0.5590 0.5552 0.5513 0.5475 0.5437
2468.000000 0.5398 0.5360 0.5322 0.5284 0.5245
2473.000000 0.5207 0.5169 0.5131 0.5093 0.5054
2478.000000 0.5016 0.4978 0.4941 0.4903 0.4865
2483.000000 0.4827 0.4789 0.4751 0.4717 0.4684
2488.000000 0.4657 0.4637 0.4617 0.4602 0.4587
2493.000000 0.4573 0.4560 0.4548 0.4535 0.4523
2498.000000 0.4510 0.4497 0.4485 0.4465 0.4445
2503.000000 0.4423 0.4399 0.4375 0.4341 0.4307
2508.000000 0.4258 0.4193 0.4128 0.4075 0.4021
2513.000000 0.3976 0.3941 0.3906 0.3876 0.3846
2518.000000 0.3816 0.3787 0.3757 0.3620 0.3462
2523.000000 0.3341 0.3308 0.3276 0.3241 0.3205
2528.000000 0.3169 0.3129 0.3090 0.3062 0.3040
2533.000000 0.3019 0.3000 0.2982 0.2963 0.2944
2538.000000 0.2926 0.2909 0.2892 0.2875 0.2858
2543.000000 0.2840 0.2824 0.2807 0.2785 0.2740
2548.000000 0.2696 0.2672 0.2662 0.2652 0.2642
2553.000000 0.2632 0.2622 0.2612 0.2602 0.2595
2558.000000 0.2590 0.2585 0.2582 0.2579 0.2576
2563.000000 0.2573 0.2570 0.2567 0.2564 0.2562
2568.000000 0.2562 0.2562 0.2561 0.2560 0.2560
2573.000000 0.2559 0.2559 0.2558 0.2558 0.2558
2578.000000 0.2557 0.2557 0.2556 0.2556 0.2556
2583.000000 0.2556 0.2556 0.2556 0.2555 0.2555
2588.000000 0.2555 0.2555 0.2555 0.2552 0.2546
2593.000000 0.2539 0.2524 0.2504 0.2485 0.2455
2598.000000 0.2425 0.2400 0.2388 0.2377 0.2365
2603.000000 0.2354 0.2342 0.2331 0.2320 0.2310
2608.000000 0.2304 0.2298 0.2292 0.2286 0.2280
2613.000000 0.2274 0.2268 0.2262 0.2256 0.2250
2618.000000 0.2244 0.2239 0.2233 0.2227 0.2221
2623.000000 0.2214 0.2208 0.2203 0.2197 0.2191
2628.000000 0.2185 0.2179 0.2172 0.2165 0.2156
2633.000000 0.2147 0.2137 0.2127 0.2117 0.2108
2638.000000 0.2098 0.2088 0.2079 0.2069 0.2059
2643.000000 0.2050 0.2040 0.2031 0.2022 0.2013
2648.000000 0.2004 0.1995 0.1986 0.1978 0.1969
2653.000000 0.1960 0.1951 0.1942 0.1934 0.1925
2658.000000 0.1916 0.1906 0.1896 0.1884 0.1872
2663.000000 0.1861 0.1849 0.1837 0.1826 0.1815
2668.000000 0.1804 0.1792 0.1780 0.1769 0.1752
2673.000000 0.1736 0.1720 0.1702 0.1684 0.1666
2678.000000 0.1649 0.1631 0.1613 0.1595 0.1578
2683.000000 0.1556 0.1532 0.1508 0.1484 0.1460
2688.000000 0.1436 0.1412 0.1388 0.1364 0.1341
2693.000000 0.1317 0.1294 0.1277 0.1259 0.1243
2698.000000 0.1229 0.1215 0.1201 0.1187 0.1173
2703.000000 0.1159 0.1145 0.1131 0.1112 0.1086
2708.000000 0.1059 0.1031 0.1003 0.0975 0.0939
2713.000000 0.0894 0.0849 0.0819 0.0799 0.0779
2718.000000 0.0760 0.0740 0.0720 0.0705 0.0692
2723.000000 0.0679 0.0667 0.0656 0.0646 0.0635
2728.000000 0.0624 0.0613 0.0603 0.0592 0.0581
2733.000000 0.0567 0.0551 0.0535 0.0518 0.0501
2738.000000 0.0484 0.0467 0.0450 0.0432 0.0417
2743.000000 0.0403 0.0389 0.0375 0.0360 0.0346
2748.000000 0.0333 0.0320 0.0307 0.0296 0.0285
2753.000000 0.0274 0.0263 0.0252 0.0240 0.0233
2758.000000 0.0227 0.0221 0.0215 0.0211 0.0206
2763.000000 0.0202 0.0200 0.0198 0.0195 0.0194
2768.000000 0.0192 0.0190 0.0188 0.0186 0.0184
2773.000000 0.0182 0.0180 0.0178 0.0178 0.0177
2778.000000 0.0176 0.0175 0.0174 0.0173 0.0172
2783.000000 0.0171 0.0170 0.0169 0.0169 0.0168
2788.000000 0.0167 0.0166 0.0166 0.0165 0.0164
2793.000000 0.0163 0.0162 0.0162 0.0162 0.0161
2798.000000 0.0161 0.0161 0.0161 0.0161 0.0161
2803.000000 0.0160 0.0160 0.0160 0.0159 0.0159
2808.000000 0.0159 0.0159 0.0159 0.0159 0.0159
2813.000000 0.0158 0.0158 0.0158 0.0157 0.0157
2818.000000 0.0157 0.0156 0.0156 0.0156 0.0155
2823.000000 0.0155 0.0155 0.0154 0.0154 0.0154
2828.000000 0.0154 0.0153 0.0153 0.0153 0.0152
2833.000000 0.0152 0.0152 0.0151 0.0151 0.0151
2838.000000 0.0150 0.0150 0.0150 0.0150 0.0150
2843.000000 0.0150 0.0150 0.0150 0.0150 0.0150
2848.000000 0.0150 0.0150 0.0150 0.0150 0.0150
2853.000000 0.0150 0.0150 0.0150 0.0150 0.0150
2858.000000 0.0150 0.0150 0.0150 0.0150 0.0150
2863.000000 0.0150 0.0150 0.0150 0.0150 0.0149
2868.000000 0.0149 0.0149 0.0149 0.0154 0.0149
2873.000000 0.0149 0.0150 0.0150 0.0150 0.0151
2878.000000 0.0151 0.0151 0.0151 0.0152 0.0152
2883.000000 0.0152 0.0153 0.0153 0.0153 0.0154
2888.000000 0.0154 0.0154 0.0154 0.0155 0.0155
2893.000000 0.0155 0.0156 0.0156 0.0156 0.0157
2898.000000 0.0157 0.0157 0.0157 0.0158 0.0158
2903.000000 0.0158 0.0159 0.0159 0.0159 0.0160
2908.000000 0.0160 0.0160 0.0160 0.0161 0.0161
2913.000000 0.0162 0.0163 0.0163 0.0163 0.0163
2918.000000 0.0164 0.0165 0.0165 0.0166 0.0166
2923.000000 0.0166 0.0167 0.0167 0.0167 0.0167
2928.000000 0.0168 0.0168 0.0169 0.0170 0.0170
2933.000000 0.0170 0.0170 0.0171 0.0171 0.0171
2938.000000 0.0172 0.0172 0.0173 0.0173 0.0174
2943.000000 0.0175 0.0175 0.0176 0.0177 0.0178
2948.000000 0.0178 0.0180 0.0181 0.0182 0.0183
2953.000000 0.0184 0.0185 0.0186 0.0188 0.0189
2958.000000 0.0191 0.0192 0.0194 0.0195 0.0196
2963.000000 0.0200 0.0203 0.0206 0.0210 0.0214
2968.000000 0.0219 0.0223 0.0227 0.0230 0.0234
2973.000000 0.0238 0.0241 0.0244 0.0247 0.0250
2978.000000 0.0253 0.0255 0.0258 0.0261 0.0264
2983.000000 0.0268 0.0271 0.0275 0.0278 0.0282
2988.000000 0.0285 0.0289 0.0292 0.0296 0.0300
2993.000000 0.0304 0.0308 0.0310 0.0312 0.0314
2998.000000 0.0316 0.0316 0.0317 0.0317 0.0318
3003.000000 0.0318 0.0319 0.0320 0.0320 0.0321
3008.000000 0.0321 0.0322 0.0322 0.0323 0.0323
3013.000000 0.0324 0.0325 0.0325 0.0326 0.0326
3018.000000 0.0326 0.0326 0.0327 0.0327 0.0328
3023.000000 0.0329 0.0329 0.0329 0.0329 0.0330
3028.000000 0.0330 0.0330 0.0330 0.0331 0.0331
3033.000000 0.0332 0.0333 0.0333 0.0334 0.0335
3038.000000 0.0336 0.0337 0.0337 0.0338 0.0339
3043.000000 0.0339 0.0340 0.0340 0.0342 0.0344
3048.000000 0.0346 0.0349 0.0353 0.0358 0.0363
3053.000000 0.0369 0.0377 0.0384 0.0392 0.0403
3058.000000 0.0415 0.0427 0.0439 0.0448 0.0457
3063.000000 0.0467 0.0478 0.0492 0.0507 0.0522
3068.000000 0.0542 0.0565 0.0589 0.0613 0.0637
3073.000000 0.0662 0.0688 0.0713 0.0736 0.0758
3078.000000 0.0781 0.0805 0.0833 0.0861 0.0889
3083.000000 0.0917 0.0943 0.0970 0.0996 0.1015
3088.000000 0.1028 0.1041 0.1053 0.1069 0.1085
3093.000000 0.1101 0.1117 0.1138 0.1160 0.1181
3098.000000 0.1203 0.1226 0.1249 0.1272 0.1295
3103.000000 0.1315 0.1335 0.1356 0.1375 0.1393
3108.000000 0.1411 0.1428 0.1474 0.1544 0.1613
3113.000000 0.1682 0.1717 0.1736 0.1755 0.1774
3118.000000 0.1809 0.1849 0.1889 0.1929 0.1968
3123.000000 0.2008 0.2047 0.2087 0.2126 0.2166
3128.000000 0.2205 0.2245 0.2284 0.2324 0.2363
3133.000000 0.2404 0.2453 0.2502 0.2551 0.2614
3138.000000 0.2724 0.2833 0.2943 0.3027 0.3052
3143.000000 0.3076 0.3101 0.3124 0.3143 0.3163
3148.000000 0.3182 0.3199 0.3214 0.3228 0.3243
3153.000000 0.3257 0.3270 0.3283 0.3296 0.3309
3158.000000 0.3320 0.3332 0.3343 0.3355 0.3366
3163.000000 0.3378 0.3389 0.3401 0.3413 0.3425
3168.000000 0.3437 0.3449 0.3462 0.3474 0.3487
3173.000000 0.3500 0.3512 0.3525 0.3538 0.3552
3178.000000 0.3568 0.3585 0.3602 0.3617 0.3631
3183.000000 0.3645 0.3659 0.3671 0.3679 0.3687
3188.000000 0.3695 0.3703 0.3711 0.3719 0.3727
3193.000000 0.3735 0.3743 0.3751 0.3759 0.3770
3198.000000 0.3820 0.3871 0.3921 0.3971 0.4055
3203.000000 0.4140 0.4225 0.4310 0.4396 0.4482
3208.000000 0.4568 0.4654 0.4740 0.4825 0.4911
3213.000000 0.4997 0.5082 0.5168 0.5253 0.5339
3218.000000 0.5424 0.5509 0.5595 0.5680 0.5765
3223.000000 0.5851 0.5936 0.6021 0.6114 0.6244
3228.000000 0.6373 0.6502 0.6628 0.6641 0.6654
3233.000000 0.6667 0.6680 0.6690 0.6701 0.6711
3238.000000 0.6722 0.6780 0.6862 0.6944 0.7027
3243.000000 0.7079 0.7095 0.7111 0.7127 0.7142
3248.000000 0.7159 0.7175 0.7191 0.7207 0.7223
3253.000000 0.7239 0.7255 0.7271 0.7287 0.7304
3258.000000 0.7320 0.7336 0.7353 0.7369 0.7385
3263.000000 0.7402 0.7418 0.7435 0.7452 0.7468
3268.000000 0.7485 0.7499 0.7514 0.7528 0.7543
3273.000000 0.7554 0.7564 0.7573 0.7583 0.7593
3278.000000 0.7603 0.7613 0.7623 0.7633 0.7644
3283.000000 0.7656 0.7667 0.7678 0.7689 0.7701
3288.000000 0.7712 0.7724 0.7737 0.7750 0.7763
3293.000000 0.7777 0.7789 0.7800 0.7810 0.7821
3298.000000 0.7831 0.7838 0.7845 0.7852 0.7859
3303.000000 0.7865 0.7870 0.7874 0.7879 0.7884
3308.000000 0.7886 0.7889 0.7891 0.7894 0.7896
3313.000000 0.7899 0.7901 0.7904 0.7906 0.7907
3318.000000 0.7909 0.7910 0.7911 0.7913 0.7914
3323.000000 0.7916 0.7917 0.7918 0.7920 0.7922
3328.000000 0.7923 0.7925 0.7926 0.7928 0.7929
3333.000000 0.7931 0.7933 0.7934 0.7936 0.7938
3338.000000 0.7940 0.7943 0.7945 0.7948 0.7951
3343.000000 0.7954 0.7957 0.7960 0.7962 0.7965
3348.000000 0.7968 0.7971 0.7974 0.7977 0.7981
3353.000000 0.7985 0.7989 0.7993 0.7997 0.8001
3358.000000 0.8005 0.8009 0.8013 0.8017 0.8021
3363.000000 0.8025 0.8029 0.8032 0.8036 0.8039
3368.000000 0.8043 0.8047 0.8050 0.8054 0.8058
3373.000000 0.8061 0.8065 0.8069 0.8073 0.8076
3378.000000 0.8080 0.8084 0.8088 0.8091 0.8095
3383.000000 0.8099 0.8102 0.8106 0.8110 0.8114
3388.000000 0.8117 0.8121 0.8125 0.8129 0.8133
3393.000000 0.8137 0.8141 0.8145 0.8149 0.8153
3398.000000 0.8157 0.8161 0.8166 0.8170 0.8175
3403.000000 0.8180 0.8185 0.8190 0.8196 0.8201
3408.000000 0.8206 0.8211 0.8216 0.8221 0.8225
3413.000000 0.8229 0.8233 0.8237 0.8241 0.8244
3418.000000 0.8248 0.8251 0.8255 0.8258 0.8261
3423.000000 0.8265 0.8268 0.8272 0.8275 0.8279
3428.000000 0.8283 0.8286 0.8290 0.8293 0.8296
3433.000000 0.8300 0.8303 0.8307 0.8311 0.8315
3438.000000 0.8319 0.8323 0.8328 0.8332 0.8336
3443.000000 0.8340 0.8345 0.8350 0.8354 0.8359
3448.000000 0.8364 0.8369 0.8374 0.8379 0.8384
3453.000000 0.8389 0.8394 0.8399 0.8403 0.8408
3458.000000 0.8412 0.8416 0.8420 0.8424 0.8428
3463.000000 0.8432 0.8436 0.8439 0.8443 0.8447
3468.000000 0.8451 0.8456 0.8461 0.8466 0.8471
3473.000000 0.8477 0.8484 0.8490 0.8496 0.8502
3478.000000 0.8508 0.8514 0.8520 0.8526 0.8532
3483.000000 0.8538 0.8543 0.8549 0.8554 0.8560
3488.000000 0.8565 0.8570 0.8575 0.8580 0.8585
3493.000000 0.8590 0.8594 0.8599 0.8603 0.8608
3498.000000 0.8613 0.8617 0.8622 0.8627 0.8632
3503.000000 0.8637 0.8643 0.8648 0.8654 0.8659
3508.000000 0.8665 0.8670 0.8676 0.8681 0.8686
3513.000000 0.8691 0.8695 0.8700 0.8705 0.8709
3518.000000 0.8714 0.8718 0.8722 0.8727 0.8730
3523.000000 0.8734 0.8737 0.8740 0.8743 0.8745
3528.000000 0.8747 0.8749 0.8751 0.8753 0.8755
3533.000000 0.8757 0.8759 0.8761 0.8762 0.8764
3538.000000 0.8766 0.8768 0.8770 0.8771 0.8773
3543.000000 0.8775 0.8777 0.8779 0.8780 0.8782
3548.000000 0.8784 0.8785 0.8787 0.8788 0.8789
3553.000000 0.8790 0.8791 0.8792 0.8793 0.8794
3558.000000 0.8796 0.8797 0.8798 0.8799 0.8800
3563.000000 0.8801 0.8802 0.8803 0.8804 0.8805
3568.000000 0.8806 0.8807 0.8808 0.8809 0.8814
3573.000000 0.8810 0.8811 0.8811 0.8811 0.8812
3578.000000 0.8812 0.8812 0.8812 0.8812 0.8813
3583.000000 0.8813 0.8813 0.8814 0.8814 0.8814
3588.000000 0.8814 0.8813 0.8813 0.8812 0.8811
3593.000000 0.8811 0.8810 0.8809 0.8808 0.8808
3598.000000 0.8807 0.8806 0.8805 0.8805 0.8804
3603.000000 0.8803 0.8802 0.8800 0.8799 0.8798
3608.000000 0.8797 0.8796 0.8795 0.8793 0.8792
3613.000000 0.8791 0.8790 0.8788 0.8787 0.8786
3618.000000 0.8784 0.8783 0.8783 0.8782 0.8781
3623.000000 0.8780 0.8779 0.8778 0.8777 0.8776
3628.000000 0.8775 0.8774 0.8773 0.8772 0.8770
3633.000000 0.8769 0.8768 0.8767 0.8766 0.8765
3638.000000 0.8764 0.8764 0.8762 0.8760 0.8759
3643.000000 0.8757 0.8756 0.8754 0.8753 0.8751
3648.000000 0.8750 0.8748 0.8747 0.8745 0.8744
3653.000000 0.8742 0.8741 0.8739 0.8738 0.8736
3658.000000 0.8735 0.8733 0.8732 0.8730 0.8729
3663.000000 0.8728 0.8726 0.8725 0.8723 0.8721
3668.000000 0.8720 0.8718 0.8716 0.8715 0.8713
3673.000000 0.8711 0.8709 0.8706 0.8704 0.8702
3678.000000 0.8700 0.8698 0.8696 0.8694 0.8692
3683.000000 0.8690 0.8688 0.8686 0.8684 0.8682
3688.000000 0.8680 0.8678 0.8676 0.8674 0.8672
3693.000000 0.8670 0.8668 0.8666 0.8663 0.8661
3698.000000 0.8659 0.8656 0.8654 0.8651 0.8648
3703.000000 0.8645 0.8643 0.8640 0.8637 0.8635
3708.000000 0.8632 0.8629 0.8626 0.8624 0.8621
3713.000000 0.8619 0.8616 0.8613 0.8610 0.8606
3718.000000 0.8602 0.8598 0.8594 0.8590 0.8586
3723.000000 0.8582 0.8578 0.8574 0.8570 0.8565
3728.000000 0.8561 0.8557 0.8553 0.8549 0.8545
3733.000000 0.8541 0.8537 0.8534 0.8530 0.8526
3738.000000 0.8523 0.8520 0.8517 0.8514 0.8511
3743.000000 0.8508 0.8505 0.8502 0.8499 0.8496
3748.000000 0.8493 0.8490 0.8486 0.8483 0.8479
3753.000000 0.8476 0.8472 0.8468 0.8464 0.8460
3758.000000 0.8455 0.8451 0.8449 0.8449 0.8449
3763.000000 0.8448 0.8448 0.8448 0.8447 0.8447
3768.000000 0.8446 0.8446 0.8446 0.8445 0.8445
3773.000000 0.8445 0.8445 0.8445 0.8445 0.8444
3778.000000 0.8444 0.8444 0.8443 0.8443 0.8443
3783.000000 0.8442 0.8442 0.8442 0.8441 0.8441
3788.000000 0.8440 0.8440 0.8440 0.8440 0.8440
3793.000000 0.8440 0.8439 0.8439 0.8439 0.8438
3798.000000 0.8438 0.8438 0.8437 0.8437 0.8437
3803.000000 0.8437 0.8437 0.8437 0.8436 0.8436
3808.000000 0.8436 0.8435 0.8435 0.8434 0.8434
3813.000000 0.8434 0.8434 0.8434 0.8434 0.8433
3818.000000 0.8433 0.8433 0.8432 0.8432 0.8432
3823.000000 0.8431 0.8431 0.8431 0.8431 0.8431
3828.000000 0.8431 0.8430 0.8430 0.8430 0.8429
3833.000000 0.8429 0.8429 0.8428 0.8428 0.8428
3838.000000 0.8428 0.8428 0.8428 0.8427 0.8425
3843.000000 0.8424 0.8423 0.8422 0.8421 0.8419
3848.000000 0.8418 0.8416 0.8415 0.8413 0.8412
3853.000000 0.8410 0.8408 0.8407 0.8405 0.8403
3858.000000 0.8402 0.8400 0.8398 0.8397 0.8395
3863.000000 0.8393 0.8391 0.8387 0.8383 0.8378
3868.000000 0.8374 0.8370 0.8365 0.8361 0.8357
3873.000000 0.8353 0.8349 0.8345 0.8340 0.8337
3878.000000 0.8333 0.8329 0.8325 0.8321 0.8317
3883.000000 0.8314 0.8310 0.8306 0.8302 0.8298
3888.000000 0.8295 0.8291 0.8287 0.8284 0.8280
3893.000000 0.8276 0.8273 0.8269 0.8266 0.8263
3898.000000 0.8260 0.8256 0.8253 0.8250 0.8246
3903.000000 0.8243 0.8240 0.8237 0.8233 0.8230
3908.000000 0.8227 0.8224 0.8221 0.8218 0.8215
3913.000000 0.8212 0.8209 0.8206 0.8203 0.8200
3918.000000 0.8197 0.8194 0.8191 0.8188 0.8185
3923.000000 0.8182 0.8179 0.8176 0.8174 0.8171
3928.000000 0.8168 0.8165 0.8162 0.8159 0.8156
3933.000000 0.8153 0.8150 0.8147 0.8144 0.8142
3938.000000 0.8139 0.8136 0.8133 0.8130 0.8127
3943.000000 0.8124 0.8121 0.8118 0.8115 0.8112
3948.000000 0.8109 0.8106 0.8103 0.8100 0.8097
3953.000000 0.8094 0.8091 0.8089 0.8086 0.8083
3958.000000 0.8080 0.8076 0.8073 0.8070 0.8067
3963.000000 0.8065 0.8062 0.8059 0.8056 0.8053
3968.000000 0.8050 0.8047 0.8044 0.8041 0.8038
3973.000000 0.8035 0.8032 0.8029 0.8026 0.8023
3978.000000 0.8020 0.8017 0.8014 0.8011 0.8008
3983.000000 0.8005 0.8002 0.7999 0.7996 0.7993
3988.000000 0.7990 0.7987 0.7984 0.7981 0.7978
3993.000000 0.7975 0.7973 0.7972 0.7971 0.7970
3998.000000 0.7969 0.7968 0.7967
##END=
