##TITLE=Piperazine,2-methyl-,dihydrochloride (probably hydrated)
##JCAMP-DX=4.24
##DATA TYPE=INFRARED SPECTRUM
##CLASS=COBLENTZ III
##ORIGIN=BRITISH PETROLEUM CO. LTD., ENGLAND
##OWNER=Copyright (C) 1987 by the Coblentz Society
Collection (C) 2018 copyright by the U.S. Secretary of Commerce
on behalf of the United States of America. All rights reserved.
##DATE=1972/08/02
##MOLFORM=C5 H14 Cl2 N2
##SOURCE REFERENCE=COBLENTZ NO. 9369
##$NIST ID=B6009369
##$NIST SOURCE=COBLENTZ
##$NIST IMAGE=cob9369
##SPECTROMETER/DATA SYSTEM=PERKIN-ELMER 157
##STATE=SOLID (KBr DISC, 0.9% WT.)
$$ HCl RUN IN KBr MAY CONTAIN SOME HBr
$$ REF. Can. J. Spec., 18,4,101, '73 C. S. DOUSE and P. B. TOOKE
##SAMPLING PROCEDURE=TRANSMISSION
##RESOLUTION=2
##DATA PROCESSING=DIGITIZED BY COBLENTZ SOCIETY (BATCH II) FROM HARD COPY
##XUNITS=1/CM
##YUNITS=TRANSMITTANCE
##XFACTOR=1.0
##YFACTOR=1
##FIRSTX=668
##LASTX=4000
##FIRSTY=0.8323
##MAXX=4000
##MINX=668
##MAXY=0.8222
##MINY=0.01
##NPOINTS=3333
##XYDATA=(X++(Y..Y))
668.000000 0.8323 0.8300 0.8280 0.8264 0.8249
673.000000 0.8234 0.8220 0.8222 0.8190 0.8173
678.000000 0.8151 0.8124 0.8086 0.8051 0.8029
683.000000 0.8011 0.7995 0.7984 0.7972 0.7962
688.000000 0.7955 0.7949 0.7947 0.7944 0.7946
693.000000 0.7947 0.7919 0.7891 0.7874 0.7859
698.000000 0.7833 0.7808 0.7789 0.7783 0.7782
703.000000 0.7781 0.7778 0.7769 0.7756 0.7734
708.000000 0.7719 0.7709 0.7697 0.7684 0.7670
713.000000 0.7655 0.7642 0.7625 0.7606 0.7587
718.000000 0.7561 0.7535 0.7517 0.7512 0.7506
723.000000 0.7502 0.7501 0.7499 0.7497 0.7495
728.000000 0.7494 0.7492 0.7489 0.7481 0.7475
733.000000 0.7457 0.7430 0.7404 0.7381 0.7367
738.000000 0.7357 0.7347 0.7339 0.7331 0.7324
743.000000 0.7314 0.7302 0.7291 0.7269 0.7231
748.000000 0.7208 0.7189 0.7173 0.7159 0.7149
753.000000 0.7140 0.7130 0.7120 0.7111 0.7102
758.000000 0.7092 0.7083 0.7074 0.7065 0.7056
763.000000 0.7048 0.7037 0.7026 0.7016 0.7005
768.000000 0.6995 0.6993 0.6991 0.6989 0.6986
773.000000 0.6977 0.6958 0.6918 0.6843 0.6785
778.000000 0.6768 0.6754 0.6647 0.6474 0.6359
783.000000 0.6265 0.6040 0.5911 0.5797 0.5784
788.000000 0.5779 0.5881 0.6002 0.6088 0.6279
793.000000 0.6465 0.6619 0.6711 0.6739 0.6749
798.000000 0.6755 0.6757 0.6751 0.6746 0.6740
803.000000 0.6720 0.6692 0.6662 0.6636 0.6630
808.000000 0.6627 0.6624 0.6618 0.6611 0.6586
813.000000 0.6549 0.6524 0.6519 0.6515 0.6512
818.000000 0.6511 0.6506 0.6498 0.6487 0.6468
823.000000 0.6451 0.6430 0.6409 0.6387 0.6364
828.000000 0.6341 0.6318 0.6293 0.6264 0.6236
833.000000 0.6200 0.6157 0.6096 0.6033 0.5955
838.000000 0.5876 0.5792 0.5702 0.5611 0.5495
843.000000 0.5374 0.5186 0.4987 0.4376 0.3845
848.000000 0.3346 0.2846 0.2349 0.1879 0.1838
853.000000 0.2294 0.2823 0.3349 0.3875 0.4400
858.000000 0.4924 0.5446 0.6054 0.6142 0.6175
863.000000 0.6189 0.6189 0.6193 0.6163 0.6134
868.000000 0.6091 0.6037 0.5964 0.5886 0.5791
873.000000 0.5708 0.5622 0.5407 0.5163 0.4919
878.000000 0.4725 0.4690 0.4724 0.4882 0.5040
883.000000 0.5197 0.5355 0.5450 0.5469 0.5478
888.000000 0.5474 0.5483 0.5428 0.5376 0.5314
893.000000 0.5235 0.5137 0.5029 0.4888 0.4480
898.000000 0.4359 0.4264 0.3967 0.3555 0.3090
903.000000 0.2950 0.2754 0.2637 0.2612 0.2595
908.000000 0.2858 0.3063 0.3268 0.3472 0.3676
913.000000 0.3879 0.4082 0.4284 0.4499 0.4584
918.000000 0.4628 0.4648 0.4667 0.4613 0.4566
923.000000 0.4518 0.4479 0.4444 0.4394 0.4312
928.000000 0.4180 0.3999 0.3875 0.3754 0.3625
933.000000 0.3441 0.3217 0.2995 0.2773 0.2525
938.000000 0.2329 0.1839 0.1446 0.1167 0.0959
943.000000 0.0777 0.0538 0.0500 0.0502 0.0488
948.000000 0.0571 0.0669 0.0955 0.1335 0.1715
953.000000 0.2093 0.2470 0.2847 0.3223 0.3554
958.000000 0.3626 0.3657 0.3671 0.3669 0.3687
963.000000 0.3318 0.2985 0.2653 0.2321 0.1991
968.000000 0.1661 0.1332 0.1003 0.0675 0.0542
973.000000 0.0512 0.0503 0.0529 0.0584 0.0666
978.000000 0.0727 0.0852 0.1063 0.1100 0.1111
983.000000 0.1120 0.1130 0.1195 0.1347 0.1681
988.000000 0.1844 0.1974 0.2338 0.2524 0.2711
993.000000 0.2896 0.3074 0.3628 0.3818 0.4165
998.000000 0.4406 0.4630 0.4808 0.4948 0.5042
1003.000000 0.5136 0.5255 0.5385 0.5533 0.5628
1008.000000 0.5703 0.5734 0.5745 0.5752 0.5756
1013.000000 0.5765 0.5757 0.5742 0.5713 0.5674
1018.000000 0.5659 0.5639 0.5600 0.5516 0.5413
1023.000000 0.5289 0.5025 0.4879 0.4756 0.4620
1028.000000 0.4395 0.4278 0.4146 0.3969 0.3769
1033.000000 0.3369 0.2905 0.2454 0.2004 0.1562
1038.000000 0.1375 0.1307 0.1255 0.1245 0.1401
1043.000000 0.1542 0.1682 0.1822 0.1962 0.2102
1048.000000 0.2171 0.2176 0.2188 0.2045 0.1908
1053.000000 0.1772 0.1722 0.1711 0.1819 0.2074
1058.000000 0.2380 0.2700 0.3018 0.3336 0.3654
1063.000000 0.3971 0.4287 0.4486 0.4491 0.4500
1068.000000 0.4455 0.4087 0.3657 0.3227 0.2798
1073.000000 0.2370 0.1943 0.1516 0.1090 0.0850
1078.000000 0.0849 0.1219 0.1782 0.2345 0.2907
1083.000000 0.3468 0.4027 0.4586 0.5192 0.5419
1088.000000 0.5638 0.5672 0.5694 0.5703 0.5703
1093.000000 0.5711 0.5686 0.5660 0.5613 0.5555
1098.000000 0.5493 0.5407 0.5305 0.5215 0.5101
1103.000000 0.4946 0.4734 0.4509 0.4211 0.3905
1108.000000 0.3599 0.3294 0.2990 0.2762 0.2654
1113.000000 0.2422 0.2167 0.1953 0.1844 0.1782
1118.000000 0.1727 0.1699 0.1679 0.1674 0.1663
1123.000000 0.1922 0.2254 0.2585 0.2916 0.3245
1128.000000 0.3574 0.3903 0.4517 0.4647 0.4785
1133.000000 0.4921 0.5085 0.5241 0.5347 0.5418
1138.000000 0.5487 0.5602 0.5737 0.5887 0.5988
1143.000000 0.6019 0.6035 0.6042 0.6048 0.6049
1148.000000 0.6053 0.6047 0.6041 0.6029 0.6008
1153.000000 0.5981 0.5950 0.5901 0.5846 0.5789
1158.000000 0.5728 0.5651 0.5507 0.5073 0.4706
1163.000000 0.4398 0.4092 0.3785 0.3479 0.3216
1168.000000 0.3192 0.3302 0.3544 0.3785 0.4026
1173.000000 0.4267 0.4506 0.4746 0.4985 0.5224
1178.000000 0.5443 0.5526 0.5586 0.5682 0.5906
1183.000000 0.6108 0.6134 0.6126 0.6126 0.6115
1188.000000 0.6102 0.6088 0.6075 0.6063 0.6049
1193.000000 0.6032 0.6011 0.5980 0.5932 0.5890
1198.000000 0.5850 0.5808 0.5765 0.5720 0.5678
1203.000000 0.5642 0.5608 0.5570 0.5526 0.5479
1208.000000 0.5401 0.5345 0.5314 0.5296 0.5313
1213.000000 0.5324 0.5349 0.5383 0.5423 0.5483
1218.000000 0.5534 0.5569 0.5593 0.5606 0.5618
1223.000000 0.5632 0.5625 0.5622 0.5616 0.5606
1228.000000 0.5594 0.5583 0.5565 0.5543 0.5520
1233.000000 0.5497 0.5473 0.5441 0.5400 0.5340
1238.000000 0.5270 0.5189 0.5091 0.4992 0.4904
1243.000000 0.4831 0.4736 0.4561 0.4370 0.4103
1248.000000 0.3835 0.3630 0.3617 0.3688 0.3833
1253.000000 0.3978 0.4123 0.4269 0.4413 0.4557
1258.000000 0.4702 0.4846 0.4953 0.4981 0.4995
1263.000000 0.4984 0.4979 0.4961 0.4906 0.4862
1268.000000 0.4804 0.4713 0.4554 0.4369 0.4187
1273.000000 0.4005 0.3823 0.3641 0.3461 0.3280
1278.000000 0.3099 0.2918 0.2738 0.2661 0.2747
1283.000000 0.3014 0.3287 0.3561 0.3834 0.4106
1288.000000 0.4303 0.4333 0.4350 0.4360 0.4368
1293.000000 0.4376 0.4361 0.4340 0.4274 0.4149
1298.000000 0.4024 0.3898 0.3774 0.3649 0.3524
1303.000000 0.3400 0.3275 0.3151 0.3027 0.2904
1308.000000 0.2780 0.2642 0.2364 0.2087 0.1812
1313.000000 0.1537 0.1300 0.1217 0.1197 0.1196
1318.000000 0.1198 0.1373 0.1571 0.1768 0.1965
1323.000000 0.2162 0.2359 0.2554 0.2750 0.2946
1328.000000 0.3140 0.3336 0.3486 0.3491 0.3428
1333.000000 0.3293 0.3158 0.3024 0.2889 0.2756
1338.000000 0.2622 0.2489 0.2355 0.2255 0.2209
1343.000000 0.2353 0.2530 0.2707 0.2883 0.3060
1348.000000 0.3235 0.3411 0.3586 0.3735 0.3773
1353.000000 0.3777 0.3705 0.3559 0.3414 0.3267
1358.000000 0.3120 0.2974 0.2828 0.2682 0.2536
1363.000000 0.2391 0.2246 0.2102 0.1957 0.1812
1368.000000 0.1709 0.1697 0.1686 0.1835 0.2042
1373.000000 0.2248 0.2433 0.2499 0.2511 0.2521
1378.000000 0.2500 0.2510 0.2401 0.2351 0.2299
1383.000000 0.2249 0.2198 0.2149 0.2099 0.2070
1388.000000 0.2060 0.2050 0.2000 0.1932 0.1854
1393.000000 0.1743 0.1602 0.1535 0.1423 0.1255
1398.000000 0.1088 0.0964 0.0893 0.0802 0.0714
1403.000000 0.0628 0.0553 0.0506 0.0465 0.0424
1408.000000 0.0396 0.0388 0.0386 0.0382 0.0396
1413.000000 0.0414 0.0445 0.0493 0.0534 0.0554
1418.000000 0.0566 0.0574 0.0577 0.0580 0.0582
1423.000000 0.0582 0.0581 0.0581 0.0580 0.0580
1428.000000 0.0580 0.0580 0.0580 0.0592 0.0634
1433.000000 0.0684 0.0724 0.0762 0.0788 0.0811
1438.000000 0.0834 0.0852 0.0866 0.0878 0.0890
1443.000000 0.0892 0.0881 0.0869 0.0853 0.0830
1448.000000 0.0802 0.0785 0.0781 0.0785 0.0794
1453.000000 0.0816 0.0890 0.0986 0.1079 0.1469
1458.000000 0.1565 0.1623 0.1687 0.1750 0.1959
1463.000000 0.2130 0.2302 0.2474 0.2645 0.2816
1468.000000 0.2987 0.3158 0.3328 0.3498 0.3662
1473.000000 0.3735 0.3766 0.3798 0.3841 0.3891
1478.000000 0.3962 0.4043 0.4117 0.4179 0.4263
1483.000000 0.4310 0.4338 0.4351 0.4356 0.4361
1488.000000 0.4362 0.4358 0.4359 0.4355 0.4351
1493.000000 0.4347 0.4342 0.4335 0.4327 0.4321
1498.000000 0.4314 0.4307 0.4298 0.4287 0.4276
1503.000000 0.4263 0.4245 0.4227 0.4207 0.4186
1508.000000 0.4161 0.4134 0.4106 0.4079 0.4052
1513.000000 0.4026 0.4001 0.3990 0.3981 0.3972
1518.000000 0.3953 0.3931 0.3907 0.3877 0.3845
1523.000000 0.3814 0.3783 0.3752 0.3721 0.3683
1528.000000 0.3643 0.3604 0.3550 0.3486 0.3430
1533.000000 0.3372 0.3281 0.3168 0.3055 0.2942
1538.000000 0.2829 0.2716 0.2603 0.2505 0.2439
1543.000000 0.2382 0.2302 0.2236 0.2189 0.2145
1548.000000 0.2096 0.2045 0.1981 0.1857 0.1756
1553.000000 0.1635 0.1514 0.1442 0.1361 0.1261
1558.000000 0.1173 0.1108 0.1041 0.0983 0.0944
1563.000000 0.0922 0.0916 0.0917 0.0923 0.0934
1568.000000 0.1136 0.1319 0.1502 0.1685 0.1868
1573.000000 0.2050 0.2232 0.2414 0.2596 0.2887
1578.000000 0.3052 0.3109 0.3153 0.3195 0.3236
1583.000000 0.3273 0.3304 0.3331 0.3358 0.3385
1588.000000 0.3409 0.3432 0.3460 0.3508 0.3566
1593.000000 0.3620 0.3672 0.3723 0.3771 0.3818
1598.000000 0.3866 0.3914 0.3962 0.4009 0.4057
1603.000000 0.4104 0.4152 0.4200 0.4247 0.4292
1608.000000 0.4331 0.4365 0.4393 0.4420 0.4449
1613.000000 0.4479 0.4507 0.4529 0.4551 0.4561
1618.000000 0.4564 0.4568 0.4572 0.4575 0.4579
1623.000000 0.4583 0.4587 0.4595 0.4606 0.4617
1628.000000 0.4628 0.4643 0.4669 0.4699 0.4729
1633.000000 0.4761 0.4792 0.4823 0.4854 0.4895
1638.000000 0.4942 0.4988 0.5026 0.5060 0.5094
1643.000000 0.5128 0.5161 0.5193 0.5224 0.5255
1648.000000 0.5285 0.5314 0.5343 0.5370 0.5398
1653.000000 0.5418 0.5431 0.5440 0.5450 0.5459
1658.000000 0.5469 0.5480 0.5493 0.5509 0.5531
1663.000000 0.5552 0.5574 0.5595 0.5622 0.5659
1668.000000 0.5695 0.5719 0.5743 0.5768 0.5787
1673.000000 0.5804 0.5817 0.5823 0.5823 0.5823
1678.000000 0.5827 0.5835 0.5847 0.5858 0.5867
1683.000000 0.5876 0.5881 0.5884 0.5886 0.5888
1688.000000 0.5890 0.5892 0.5895 0.5897 0.5899
1693.000000 0.5901 0.5903 0.5905 0.5906 0.5909
1698.000000 0.5911 0.5913 0.5914 0.5915 0.5916
1703.000000 0.5917 0.5917 0.5918 0.5918 0.5919
1708.000000 0.5920 0.5921 0.5921 0.5921 0.5922
1713.000000 0.5923 0.5924 0.5925 0.5926 0.5926
1718.000000 0.5927 0.5928 0.5931 0.5934 0.5936
1723.000000 0.5940 0.5949 0.5958 0.5967 0.5975
1728.000000 0.5982 0.5988 0.5990 0.5992 0.5994
1733.000000 0.5996 0.5996 0.5997 0.5997 0.5998
1738.000000 0.5999 0.6000 0.6008 0.5999 0.5999
1743.000000 0.5999 0.5998 0.5997 0.5996 0.5994
1748.000000 0.5991 0.5989 0.5986 0.5984 0.5981
1753.000000 0.5979 0.5976 0.5973 0.5968 0.5963
1758.000000 0.5958 0.5952 0.5944 0.5934 0.5925
1763.000000 0.5916 0.5907 0.5898 0.5888 0.5879
1768.000000 0.5870 0.5860 0.5851 0.5844 0.5842
1773.000000 0.5841 0.5840 0.5839 0.5838 0.5838
1778.000000 0.5838 0.5838 0.5838 0.5838 0.5838
1783.000000 0.5838 0.5838 0.5838 0.5838 0.5839
1788.000000 0.5839 0.5839 0.5839 0.5840 0.5840
1793.000000 0.5840 0.5841 0.5841 0.5841 0.5841
1798.000000 0.5839 0.5832 0.5823 0.5812 0.5801
1803.000000 0.5789 0.5777 0.5765 0.5754 0.5742
1808.000000 0.5730 0.5718 0.5706 0.5694 0.5683
1813.000000 0.5670 0.5659 0.5648 0.5637 0.5626
1818.000000 0.5615 0.5604 0.5593 0.5583 0.5571
1823.000000 0.5561 0.5551 0.5543 0.5537 0.5529
1828.000000 0.5522 0.5514 0.5508 0.5500 0.5494
1833.000000 0.5489 0.5486 0.5483 0.5474 0.5482
1838.000000 0.5482 0.5483 0.5484 0.5484 0.5484
1843.000000 0.5485 0.5487 0.5489 0.5493 0.5497
1848.000000 0.5501 0.5505 0.5509 0.5513 0.5516
1853.000000 0.5520 0.5523 0.5526 0.5527 0.5528
1858.000000 0.5538 0.5525 0.5523 0.5520 0.5517
1863.000000 0.5514 0.5511 0.5507 0.5503 0.5500
1868.000000 0.5495 0.5491 0.5486 0.5481 0.5476
1873.000000 0.5471 0.5467 0.5461 0.5455 0.5450
1878.000000 0.5445 0.5439 0.5434 0.5428 0.5420
1883.000000 0.5411 0.5402 0.5393 0.5384 0.5376
1888.000000 0.5366 0.5356 0.5345 0.5331 0.5318
1893.000000 0.5305 0.5292 0.5282 0.5272 0.5263
1898.000000 0.5252 0.5242 0.5234 0.5227 0.5221
1903.000000 0.5198 0.5211 0.5210 0.5210 0.5211
1908.000000 0.5213 0.5215 0.5217 0.5218 0.5219
1913.000000 0.5221 0.5225 0.5230 0.5235 0.5240
1918.000000 0.5247 0.5258 0.5274 0.5289 0.5303
1923.000000 0.5315 0.5326 0.5338 0.5349 0.5359
1928.000000 0.5367 0.5374 0.5381 0.5388 0.5396
1933.000000 0.5398 0.5401 0.5404 0.5406 0.5406
1938.000000 0.5404 0.5402 0.5399 0.5412 0.5390
1943.000000 0.5385 0.5380 0.5372 0.5365 0.5358
1948.000000 0.5346 0.5334 0.5321 0.5308 0.5295
1953.000000 0.5282 0.5268 0.5254 0.5239 0.5225
1958.000000 0.5211 0.5199 0.5187 0.5176 0.5165
1963.000000 0.5154 0.5143 0.5133 0.5122 0.5111
1968.000000 0.5100 0.5089 0.5078 0.5065 0.5052
1973.000000 0.5039 0.5025 0.5012 0.4998 0.4984
1978.000000 0.4970 0.4956 0.4942 0.4928 0.4916
1983.000000 0.4905 0.4894 0.4883 0.4871 0.4860
1988.000000 0.4849 0.4838 0.4827 0.4815 0.4804
1993.000000 0.4788 0.4773 0.4758 0.4742 0.4726
1998.000000 0.4706 0.4685 0.4664 0.4643 0.4621
2003.000000 0.4597 0.4566 0.4533 0.4506 0.4484
2008.000000 0.4467 0.4450 0.4435 0.4427 0.4419
2013.000000 0.4411 0.4404 0.4400 0.4398 0.4396
2018.000000 0.4394 0.4392 0.4370 0.4389 0.4387
2023.000000 0.4386 0.4387 0.4388 0.4389 0.4393
2028.000000 0.4398 0.4402 0.4421 0.4444 0.4459
2033.000000 0.4475 0.4490 0.4514 0.4543 0.4583
2038.000000 0.4629 0.4681 0.4708 0.4731 0.4752
2043.000000 0.4767 0.4778 0.4788 0.4797 0.4801
2048.000000 0.4804 0.4807 0.4810 0.4813 0.4816
2053.000000 0.4818 0.4818 0.4819 0.4818 0.4818
2058.000000 0.4818 0.4818 0.4816 0.4815 0.4809
2063.000000 0.4811 0.4808 0.4806 0.4805 0.4803
2068.000000 0.4801 0.4799 0.4796 0.4794 0.4791
2073.000000 0.4788 0.4786 0.4784 0.4781 0.4777
2078.000000 0.4773 0.4769 0.4765 0.4758 0.4749
2083.000000 0.4737 0.4721 0.4703 0.4685 0.4668
2088.000000 0.4653 0.4639 0.4625 0.4611 0.4597
2093.000000 0.4583 0.4570 0.4557 0.4544 0.4531
2098.000000 0.4516 0.4500 0.4482 0.4464 0.4446
2103.000000 0.4430 0.4415 0.4400 0.4385 0.4370
2108.000000 0.4355 0.4340 0.4323 0.4300 0.4274
2113.000000 0.4246 0.4216 0.4185 0.4149 0.4112
2118.000000 0.4074 0.4037 0.4003 0.3980 0.3965
2123.000000 0.3957 0.3952 0.3949 0.3947 0.3946
2128.000000 0.3933 0.3944 0.3943 0.3943 0.3943
2133.000000 0.3943 0.3943 0.3943 0.3943 0.3944
2138.000000 0.3946 0.3949 0.3954 0.3960 0.3966
2143.000000 0.3972 0.3978 0.3984 0.3991 0.4002
2148.000000 0.4014 0.4031 0.4053 0.4084 0.4110
2153.000000 0.4130 0.4146 0.4159 0.4167 0.4174
2158.000000 0.4178 0.4182 0.4183 0.4185 0.4187
2163.000000 0.4188 0.4187 0.4186 0.4184 0.4183
2168.000000 0.4181 0.4178 0.4175 0.4167 0.4169
2173.000000 0.4165 0.4161 0.4157 0.4152 0.4147
2178.000000 0.4142 0.4136 0.4130 0.4123 0.4115
2183.000000 0.4105 0.4096 0.4086 0.4076 0.4065
2188.000000 0.4052 0.4039 0.4023 0.4007 0.3992
2193.000000 0.3977 0.3965 0.3952 0.3940 0.3928
2198.000000 0.3916 0.3905 0.3895 0.3885 0.3875
2203.000000 0.3864 0.3852 0.3840 0.3828 0.3816
2208.000000 0.3803 0.3791 0.3780 0.3768 0.3757
2213.000000 0.3748 0.3740 0.3733 0.3726 0.3719
2218.000000 0.3711 0.3704 0.3697 0.3690 0.3683
2223.000000 0.3676 0.3668 0.3661 0.3654 0.3646
2228.000000 0.3639 0.3629 0.3619 0.3609 0.3599
2233.000000 0.3589 0.3579 0.3568 0.3558 0.3548
2238.000000 0.3539 0.3529 0.3520 0.3510 0.3501
2243.000000 0.3491 0.3482 0.3473 0.3463 0.3453
2248.000000 0.3443 0.3432 0.3420 0.3409 0.3397
2253.000000 0.3386 0.3374 0.3362 0.3350 0.3338
2258.000000 0.3326 0.3314 0.3302 0.3290 0.3278
2263.000000 0.3266 0.3254 0.3241 0.3229 0.3216
2268.000000 0.3202 0.3188 0.3174 0.3160 0.3146
2273.000000 0.3132 0.3118 0.3105 0.3090 0.3076
2278.000000 0.3061 0.3046 0.3031 0.3016 0.3001
2283.000000 0.2986 0.2970 0.2955 0.2938 0.2920
2288.000000 0.2904 0.2887 0.2870 0.2853 0.2837
2293.000000 0.2822 0.2808 0.2795 0.2783 0.2770
2298.000000 0.2758 0.2745 0.2732 0.2716 0.2700
2303.000000 0.2680 0.2660 0.2641 0.2621 0.2599
2308.000000 0.2577 0.2554 0.2532 0.2501 0.2460
2313.000000 0.2421 0.2385 0.2351 0.2327 0.2303
2318.000000 0.2278 0.2254 0.2222 0.2189 0.2154
2323.000000 0.2118 0.2081 0.2044 0.2001 0.1951
2328.000000 0.1904 0.1868 0.1832 0.1805 0.1778
2333.000000 0.1751 0.1724 0.1697 0.1670 0.1643
2338.000000 0.1616 0.1589 0.1562 0.1535 0.1508
2343.000000 0.1481 0.1455 0.1428 0.1401 0.1375
2348.000000 0.1348 0.1321 0.1294 0.1268 0.1241
2353.000000 0.1214 0.1188 0.1161 0.1135 0.1108
2358.000000 0.1082 0.1059 0.1037 0.1017 0.1003
2363.000000 0.0988 0.0973 0.0959 0.0944 0.0930
2368.000000 0.0915 0.0900 0.0885 0.0871 0.0858
2373.000000 0.0848 0.0838 0.0835 0.0832 0.0832
2378.000000 0.0834 0.0835 0.0837 0.0839 0.0840
2383.000000 0.0842 0.0814 0.0846 0.0850 0.0855
2388.000000 0.0864 0.0882 0.0900 0.0922 0.0944
2393.000000 0.0966 0.0988 0.1011 0.1033 0.1055
2398.000000 0.1077 0.1099 0.1121 0.1144 0.1166
2403.000000 0.1188 0.1207 0.1213 0.1219 0.1220
2408.000000 0.1220 0.1220 0.1220 0.1238 0.1218
2413.000000 0.1218 0.1216 0.1214 0.1213 0.1212
2418.000000 0.1209 0.1203 0.1197 0.1187 0.1176
2423.000000 0.1162 0.1147 0.1130 0.1108 0.1086
2428.000000 0.1074 0.1064 0.1055 0.1048 0.1041
2433.000000 0.1033 0.1025 0.1017 0.1010 0.1005
2438.000000 0.1004 0.1004 0.1003 0.1002 0.1001
2443.000000 0.1000 0.1000 0.1000 0.1000 0.1000
2448.000000 0.1000 0.1000 0.1000 0.1000 0.1000
2453.000000 0.1000 0.1000 0.1000 0.0999 0.0999
2458.000000 0.0998 0.0997 0.0995 0.0994 0.0992
2463.000000 0.0990 0.0986 0.0982 0.0978 0.0973
2468.000000 0.0968 0.0960 0.0951 0.0940 0.0926
2473.000000 0.0911 0.0896 0.0881 0.0866 0.0850
2478.000000 0.0834 0.0817 0.0800 0.0783 0.0765
2483.000000 0.0749 0.0733 0.0718 0.0702 0.0686
2488.000000 0.0671 0.0655 0.0639 0.0632 0.0626
2493.000000 0.0620 0.0615 0.0611 0.0607 0.0604
2498.000000 0.0602 0.0600 0.0598 0.0596 0.0594
2503.000000 0.0592 0.0590 0.0588 0.0586 0.0584
2508.000000 0.0582 0.0581 0.0581 0.0580 0.0579
2513.000000 0.0578 0.0577 0.0577 0.0576 0.0575
2518.000000 0.0574 0.0573 0.0573 0.0572 0.0572
2523.000000 0.0571 0.0570 0.0570 0.0569 0.0569
2528.000000 0.0568 0.0568 0.0567 0.0566 0.0566
2533.000000 0.0565 0.0565 0.0564 0.0563 0.0562
2538.000000 0.0562 0.0560 0.0559 0.0557 0.0554
2543.000000 0.0551 0.0547 0.0542 0.0537 0.0532
2548.000000 0.0527 0.0523 0.0518 0.0513 0.0505
2553.000000 0.0497 0.0490 0.0482 0.0474 0.0468
2558.000000 0.0462 0.0456 0.0449 0.0443 0.0436
2563.000000 0.0430 0.0423 0.0419 0.0415 0.0411
2568.000000 0.0408 0.0405 0.0402 0.0399 0.0396
2573.000000 0.0394 0.0393 0.0391 0.0391 0.0391
2578.000000 0.0390 0.0389 0.0388 0.0388 0.0388
2583.000000 0.0387 0.0387 0.0387 0.0386 0.0386
2588.000000 0.0385 0.0385 0.0385 0.0384 0.0384
2593.000000 0.0384 0.0383 0.0383 0.0383 0.0382
2598.000000 0.0382 0.0382 0.0382 0.0382 0.0381
2603.000000 0.0381 0.0381 0.0380 0.0378 0.0377
2608.000000 0.0375 0.0374 0.0371 0.0366 0.0361
2613.000000 0.0354 0.0345 0.0336 0.0328 0.0319
2618.000000 0.0311 0.0302 0.0293 0.0283 0.0271
2623.000000 0.0258 0.0243 0.0227 0.0211 0.0202
2628.000000 0.0194 0.0185 0.0177 0.0168 0.0160
2633.000000 0.0152 0.0143 0.0137 0.0131 0.0125
2638.000000 0.0120 0.0116 0.0111 0.0111 0.0110
2643.000000 0.0109 0.0109 0.0108 0.0107 0.0106
2648.000000 0.0105 0.0104 0.0103 0.0103 0.0102
2653.000000 0.0101 0.0100 0.0100 0.0100 0.0100
2658.000000 0.0100 0.0100 0.0101 0.0101 0.0101
2663.000000 0.0101 0.0101 0.0101 0.0101 0.0101
2668.000000 0.0101 0.0102 0.0102 0.0102 0.0102
2673.000000 0.0102 0.0103 0.0103 0.0103 0.0103
2678.000000 0.0103 0.0103 0.0104 0.0104 0.0104
2683.000000 0.0101 0.0104 0.0104 0.0105 0.0105
2688.000000 0.0105 0.0106 0.0106 0.0106 0.0106
2693.000000 0.0106 0.0107 0.0107 0.0107 0.0108
2698.000000 0.0108 0.0108 0.0108 0.0108 0.0108
2703.000000 0.0109 0.0109 0.0109 0.0110 0.0110
2708.000000 0.0110 0.0110 0.0110 0.0110 0.0111
2713.000000 0.0111 0.0111 0.0112 0.0112 0.0112
2718.000000 0.0113 0.0114 0.0114 0.0115 0.0116
2723.000000 0.0116 0.0117 0.0117 0.0117 0.0118
2728.000000 0.0119 0.0119 0.0120 0.0121 0.0121
2733.000000 0.0122 0.0122 0.0122 0.0123 0.0124
2738.000000 0.0124 0.0125 0.0126 0.0126 0.0127
2743.000000 0.0128 0.0129 0.0130 0.0131 0.0132
2748.000000 0.0133 0.0134 0.0135 0.0136 0.0138
2753.000000 0.0139 0.0140 0.0141 0.0142 0.0143
2758.000000 0.0144 0.0145 0.0147 0.0149 0.0151
2763.000000 0.0153 0.0155 0.0157 0.0158 0.0160
2768.000000 0.0162 0.0163 0.0165 0.0167 0.0169
2773.000000 0.0171 0.0173 0.0175 0.0177 0.0179
2778.000000 0.0181 0.0183 0.0186 0.0188 0.0189
2783.000000 0.0190 0.0192 0.0193 0.0193 0.0194
2788.000000 0.0195 0.0196 0.0197 0.0198 0.0198
2793.000000 0.0198 0.0197 0.0197 0.0197 0.0196
2798.000000 0.0196 0.0196 0.0195 0.0195 0.0195
2803.000000 0.0194 0.0194 0.0194 0.0193 0.0193
2808.000000 0.0193 0.0192 0.0192 0.0192 0.0192
2813.000000 0.0191 0.0191 0.0191 0.0190 0.0190
2818.000000 0.0190 0.0189 0.0189 0.0189 0.0188
2823.000000 0.0188 0.0188 0.0187 0.0187 0.0187
2828.000000 0.0187 0.0186 0.0186 0.0186 0.0185
2833.000000 0.0185 0.0185 0.0184 0.0184 0.0184
2838.000000 0.0183 0.0183 0.0183 0.0182 0.0182
2843.000000 0.0182 0.0182 0.0181 0.0181 0.0181
2848.000000 0.0181 0.0181 0.0181 0.0182 0.0182
2853.000000 0.0182 0.0182 0.0182 0.0182 0.0182
2858.000000 0.0182 0.0182 0.0182 0.0182 0.0182
2863.000000 0.0182 0.0183 0.0183 0.0184 0.0185
2868.000000 0.0185 0.0185 0.0185 0.0186 0.0186
2873.000000 0.0186 0.0187 0.0187 0.0188 0.0189
2878.000000 0.0189 0.0190 0.0190 0.0191 0.0192
2883.000000 0.0192 0.0193 0.0193 0.0194 0.0195
2888.000000 0.0195 0.0196 0.0196 0.0197 0.0198
2893.000000 0.0198 0.0199 0.0199 0.0200 0.0201
2898.000000 0.0201 0.0202 0.0202 0.0203 0.0204
2903.000000 0.0204 0.0205 0.0205 0.0206 0.0207
2908.000000 0.0207 0.0208 0.0208 0.0209 0.0209
2913.000000 0.0209 0.0210 0.0210 0.0210 0.0210
2918.000000 0.0211 0.0211 0.0211 0.0212 0.0212
2923.000000 0.0212 0.0213 0.0213 0.0213 0.0213
2928.000000 0.0214 0.0214 0.0214 0.0215 0.0215
2933.000000 0.0215 0.0215 0.0216 0.0216 0.0216
2938.000000 0.0217 0.0217 0.0217 0.0217 0.0218
2943.000000 0.0218 0.0218 0.0218 0.0218 0.0218
2948.000000 0.0218 0.0218 0.0218 0.0218 0.0219
2953.000000 0.0219 0.0219 0.0219 0.0219 0.0219
2958.000000 0.0219 0.0220 0.0220 0.0221 0.0221
2963.000000 0.0223 0.0224 0.0225 0.0226 0.0227
2968.000000 0.0228 0.0229 0.0230 0.0232 0.0233
2973.000000 0.0234 0.0235 0.0236 0.0237 0.0239
2978.000000 0.0240 0.0241 0.0243 0.0244 0.0245
2983.000000 0.0246 0.0248 0.0251 0.0254 0.0257
2988.000000 0.0261 0.0265 0.0269 0.0273 0.0277
2993.000000 0.0281 0.0284 0.0289 0.0294 0.0299
2998.000000 0.0304 0.0310 0.0316 0.0322 0.0329
3003.000000 0.0335 0.0342 0.0349 0.0357 0.0364
3008.000000 0.0372 0.0380 0.0387 0.0395 0.0402
3013.000000 0.0409 0.0415 0.0422 0.0428 0.0434
3018.000000 0.0439 0.0445 0.0450 0.0456 0.0462
3023.000000 0.0468 0.0473 0.0479 0.0485 0.0492
3028.000000 0.0503 0.0514 0.0525 0.0537 0.0550
3033.000000 0.0563 0.0576 0.0588 0.0600 0.0612
3038.000000 0.0623 0.0635 0.0647 0.0658 0.0667
3043.000000 0.0675 0.0682 0.0690 0.0697 0.0704
3048.000000 0.0711 0.0718 0.0725 0.0732 0.0739
3053.000000 0.0746 0.0754 0.0762 0.0770 0.0778
3058.000000 0.0786 0.0794 0.0803 0.0811 0.0819
3063.000000 0.0828 0.0836 0.0845 0.0853 0.0862
3068.000000 0.0871 0.0881 0.0891 0.0900 0.0909
3073.000000 0.0919 0.0928 0.0937 0.0949 0.0961
3078.000000 0.0973 0.0985 0.0998 0.1011 0.1024
3083.000000 0.1038 0.1051 0.1064 0.1078 0.1091
3088.000000 0.1103 0.1116 0.1129 0.1141 0.1154
3093.000000 0.1166 0.1179 0.1191 0.1203 0.1216
3098.000000 0.1228 0.1241 0.1254 0.1267 0.1281
3103.000000 0.1299 0.1316 0.1334 0.1352 0.1369
3108.000000 0.1387 0.1405 0.1426 0.1452 0.1477
3113.000000 0.1502 0.1530 0.1560 0.1590 0.1619
3118.000000 0.1647 0.1674 0.1701 0.1728 0.1755
3123.000000 0.1781 0.1808 0.1835 0.1861 0.1888
3128.000000 0.1915 0.1942 0.1969 0.1995 0.2022
3133.000000 0.2049 0.2076 0.2102 0.2129 0.2156
3138.000000 0.2182 0.2209 0.2235 0.2261 0.2288
3143.000000 0.2315 0.2341 0.2368 0.2394 0.2421
3148.000000 0.2447 0.2474 0.2500 0.2527 0.2553
3153.000000 0.2579 0.2605 0.2632 0.2658 0.2684
3158.000000 0.2710 0.2737 0.2763 0.2789 0.2815
3163.000000 0.2842 0.2868 0.2894 0.2920 0.2946
3168.000000 0.2972 0.2998 0.3024 0.3050 0.3076
3173.000000 0.3102 0.3128 0.3154 0.3180 0.3206
3178.000000 0.3231 0.3255 0.3280 0.3301 0.3314
3183.000000 0.3328 0.3341 0.3354 0.3368 0.3381
3188.000000 0.3394 0.3407 0.3419 0.3430 0.3442
3193.000000 0.3453 0.3464 0.3475 0.3485 0.3496
3198.000000 0.3507 0.3518 0.3528 0.3539 0.3550
3203.000000 0.3561 0.3571 0.3582 0.3594 0.3606
3208.000000 0.3618 0.3630 0.3639 0.3647 0.3655
3213.000000 0.3663 0.3669 0.3672 0.3675 0.3679
3218.000000 0.3682 0.3686 0.3690 0.3693 0.3697
3223.000000 0.3700 0.3704 0.3708 0.3711 0.3713
3228.000000 0.3716 0.3718 0.3721 0.3723 0.3725
3233.000000 0.3728 0.3730 0.3732 0.3734 0.3737
3238.000000 0.3739 0.3741 0.3743 0.3746 0.3748
3243.000000 0.3751 0.3754 0.3757 0.3760 0.3763
3248.000000 0.3767 0.3770 0.3773 0.3777 0.3779
3253.000000 0.3781 0.3784 0.3786 0.3788 0.3791
3258.000000 0.3793 0.3795 0.3811 0.3800 0.3802
3263.000000 0.3805 0.3806 0.3804 0.3802 0.3800
3268.000000 0.3798 0.3797 0.3795 0.3794 0.3792
3273.000000 0.3789 0.3787 0.3784 0.3781 0.3777
3278.000000 0.3770 0.3764 0.3758 0.3751 0.3744
3283.000000 0.3737 0.3730 0.3723 0.3714 0.3706
3288.000000 0.3698 0.3689 0.3681 0.3673 0.3665
3293.000000 0.3657 0.3649 0.3639 0.3629 0.3620
3298.000000 0.3610 0.3600 0.3590 0.3580 0.3570
3303.000000 0.3560 0.3549 0.3539 0.3529 0.3519
3308.000000 0.3509 0.3499 0.3489 0.3479 0.3469
3313.000000 0.3459 0.3449 0.3439 0.3429 0.3419
3318.000000 0.3409 0.3399 0.3389 0.3379 0.3369
3323.000000 0.3359 0.3349 0.3340 0.3331 0.3322
3328.000000 0.3313 0.3304 0.3295 0.3286 0.3277
3333.000000 0.3268 0.3259 0.3250 0.3241 0.3232
3338.000000 0.3223 0.3213 0.3204 0.3195 0.3186
3343.000000 0.3177 0.3168 0.3159 0.3150 0.3140
3348.000000 0.3129 0.3118 0.3107 0.3096 0.3082
3353.000000 0.3068 0.3054 0.3040 0.3025 0.3011
3358.000000 0.2997 0.2983 0.2970 0.2955 0.2939
3363.000000 0.2924 0.2909 0.2893 0.2876 0.2858
3368.000000 0.2841 0.2823 0.2806 0.2788 0.2771
3373.000000 0.2754 0.2737 0.2722 0.2707 0.2693
3378.000000 0.2678 0.2665 0.2653 0.2640 0.2628
3383.000000 0.2616 0.2604 0.2591 0.2579 0.2567
3388.000000 0.2553 0.2537 0.2521 0.2505 0.2490
3393.000000 0.2471 0.2453 0.2434 0.2415 0.2397
3398.000000 0.2381 0.2365 0.2349 0.2332 0.2318
3403.000000 0.2306 0.2293 0.2281 0.2268 0.2256
3408.000000 0.2244 0.2232 0.2219 0.2208 0.2199
3413.000000 0.2190 0.2181 0.2172 0.2163 0.2154
3418.000000 0.2145 0.2136 0.2127 0.2124 0.2120
3423.000000 0.2116 0.2112 0.2108 0.2105 0.2103
3428.000000 0.2100 0.2097 0.2094 0.2091 0.2088
3433.000000 0.2085 0.2082 0.2079 0.2076 0.2073
3438.000000 0.2071 0.2068 0.2068 0.2067 0.2066
3443.000000 0.2066 0.2065 0.2065 0.2064 0.2063
3448.000000 0.2063 0.2062 0.2061 0.2061 0.2060
3453.000000 0.2060 0.2059 0.2059 0.2059 0.2059
3458.000000 0.2058 0.2058 0.2058 0.2058 0.2058
3463.000000 0.2058 0.2058 0.2058 0.2058 0.2058
3468.000000 0.2057 0.2057 0.2057 0.2057 0.2057
3473.000000 0.2054 0.2051 0.2048 0.2045 0.2042
3478.000000 0.2029 0.2015 0.2002 0.1988 0.1975
3483.000000 0.1959 0.1943 0.1927 0.1911 0.1898
3488.000000 0.1894 0.1890 0.1885 0.1881 0.1879
3493.000000 0.1879 0.1879 0.1879 0.1879 0.1890
3498.000000 0.1879 0.1879 0.1879 0.1879 0.1879
3503.000000 0.1879 0.1879 0.1879 0.1879 0.1881
3508.000000 0.1884 0.1887 0.1890 0.1893 0.1897
3513.000000 0.1901 0.1905 0.1909 0.1913 0.1926
3518.000000 0.1942 0.1957 0.1972 0.1988 0.2023
3523.000000 0.2060 0.2098 0.2136 0.2174 0.2212
3528.000000 0.2249 0.2287 0.2324 0.2362 0.2399
3533.000000 0.2437 0.2475 0.2512 0.2550 0.2587
3538.000000 0.2625 0.2662 0.2699 0.2737 0.2774
3543.000000 0.2811 0.2849 0.2886 0.2924 0.2961
3548.000000 0.2998 0.3035 0.3072 0.3109 0.3146
3553.000000 0.3183 0.3221 0.3258 0.3295 0.3332
3558.000000 0.3369 0.3406 0.3443 0.3480 0.3517
3563.000000 0.3554 0.3591 0.3627 0.3664 0.3701
3568.000000 0.3738 0.3775 0.3812 0.3849 0.3885
3573.000000 0.3922 0.3959 0.3995 0.4032 0.4068
3578.000000 0.4105 0.4142 0.4179 0.4215 0.4252
3583.000000 0.4288 0.4325 0.4361 0.4397 0.4434
3588.000000 0.4470 0.4507 0.4543 0.4580 0.4616
3593.000000 0.4652 0.4689 0.4725 0.4761 0.4797
3598.000000 0.4833 0.4870 0.4906 0.4942 0.4978
3603.000000 0.5014 0.5050 0.5086 0.5122 0.5158
3608.000000 0.5194 0.5230 0.5267 0.5303 0.5339
3613.000000 0.5375 0.5410 0.5446 0.5482 0.5518
3618.000000 0.5553 0.5589 0.5625 0.5661 0.5697
3623.000000 0.5733 0.5768 0.5804 0.5839 0.5875
3628.000000 0.5911 0.5946 0.5982 0.6018 0.6053
3633.000000 0.6089 0.6124 0.6160 0.6195 0.6230
3638.000000 0.6266 0.6301 0.6336 0.6372 0.6407
3643.000000 0.6442 0.6477 0.6504 0.6527 0.6550
3648.000000 0.6572 0.6595 0.6611 0.6617 0.6622
3653.000000 0.6628 0.6633 0.6639 0.6647 0.6655
3658.000000 0.6663 0.6671 0.6679 0.6686 0.6693
3663.000000 0.6699 0.6706 0.6713 0.6718 0.6721
3668.000000 0.6724 0.6727 0.6730 0.6732 0.6734
3673.000000 0.6736 0.6737 0.6739 0.6741 0.6742
3678.000000 0.6743 0.6743 0.6744 0.6745 0.6746
3683.000000 0.6746 0.6747 0.6747 0.6748 0.6748
3688.000000 0.6749 0.6750 0.6750 0.6751 0.6752
3693.000000 0.6753 0.6753 0.6753 0.6753 0.6753
3698.000000 0.6753 0.6754 0.6754 0.6754 0.6754
3703.000000 0.6754 0.6755 0.6755 0.6755 0.6755
3708.000000 0.6755 0.6755 0.6756 0.6756 0.6756
3713.000000 0.6756 0.6756 0.6756 0.6756 0.6756
3718.000000 0.6756 0.6756 0.6756 0.6757 0.6757
3723.000000 0.6757 0.6757 0.6757 0.6757 0.6757
3728.000000 0.6757 0.6757 0.6757 0.6757 0.6757
3733.000000 0.6757 0.6757 0.6757 0.6757 0.6757
3738.000000 0.6757 0.6757 0.6757 0.6757 0.6757
3743.000000 0.6757 0.6757 0.6757 0.6757 0.6757
3748.000000 0.6757 0.6777 0.6757 0.6757 0.6757
3753.000000 0.6757 0.6757 0.6757 0.6757 0.6757
3758.000000 0.6757 0.6757 0.6757 0.6757 0.6757
3763.000000 0.6757 0.6757 0.6757 0.6757 0.6757
3768.000000 0.6757 0.6757 0.6757 0.6756 0.6756
3773.000000 0.6756 0.6755 0.6755 0.6755 0.6754
3778.000000 0.6754 0.6754 0.6753 0.6753 0.6753
3783.000000 0.6752 0.6751 0.6751 0.6750 0.6749
3788.000000 0.6748 0.6746 0.6744 0.6743 0.6741
3793.000000 0.6739 0.6737 0.6734 0.6732 0.6729
3798.000000 0.6727 0.6724 0.6722 0.6718 0.6715
3803.000000 0.6712 0.6708 0.6705 0.6700 0.6694
3808.000000 0.6689 0.6683 0.6678 0.6672 0.6672
3813.000000 0.6671 0.6670 0.6669 0.6668 0.6667
3818.000000 0.6666 0.6666 0.6665 0.6664 0.6663
3823.000000 0.6662 0.6662 0.6662 0.6662 0.6662
3828.000000 0.6662 0.6661 0.6661 0.6661 0.6661
3833.000000 0.6661 0.6661 0.6661 0.6661 0.6661
3838.000000 0.6661 0.6661 0.6661 0.6660 0.6660
3843.000000 0.6660 0.6660 0.6660 0.6660 0.6659
3848.000000 0.6659 0.6659 0.6659 0.6659 0.6659
3853.000000 0.6658 0.6658 0.6658 0.6657 0.6657
3858.000000 0.6657 0.6656 0.6656 0.6656 0.6655
3863.000000 0.6655 0.6654 0.6654 0.6654 0.6653
3868.000000 0.6653 0.6653 0.6652 0.6651 0.6650
3873.000000 0.6649 0.6648 0.6647 0.6646 0.6645
3878.000000 0.6644 0.6643 0.6642 0.6641 0.6639
3883.000000 0.6638 0.6637 0.6637 0.6636 0.6635
3888.000000 0.6634 0.6631 0.6628 0.6625 0.6622
3893.000000 0.6619 0.6616 0.6612 0.6609 0.6605
3898.000000 0.6602 0.6598 0.6595 0.6593 0.6590
3903.000000 0.6588 0.6586 0.6583 0.6581 0.6579
3908.000000 0.6578 0.6576 0.6575 0.6574 0.6572
3913.000000 0.6571 0.6571 0.6570 0.6570 0.6569
3918.000000 0.6569 0.6568 0.6568 0.6568 0.6567
3923.000000 0.6567 0.6567 0.6567 0.6567 0.6567
3928.000000 0.6567 0.6567 0.6567 0.6566 0.6566
3933.000000 0.6566 0.6566 0.6566 0.6566 0.6566
3938.000000 0.6566 0.6566 0.6566 0.6566 0.6566
3943.000000 0.6566 0.6566 0.6566 0.6566 0.6566
3948.000000 0.6566 0.6566 0.6566 0.6566 0.6566
3953.000000 0.6566 0.6566 0.6566 0.6566 0.6566
3958.000000 0.6566 0.6566 0.6566 0.6566 0.6566
3963.000000 0.6566 0.6566 0.6566 0.6566 0.6566
3968.000000 0.6566 0.6566 0.6566 0.6566 0.6566
3973.000000 0.6566 0.6566 0.6566 0.6566 0.6566
3978.000000 0.6566 0.6566 0.6566 0.6566 0.6566
3983.000000 0.6566 0.6566 0.6566 0.6566 0.6566
3988.000000 0.6566 0.6566 0.6566 0.6566 0.6566
3993.000000 0.6566 0.6566 0.6566 0.6566 0.6566
3998.000000 0.6566 0.6566 0.6566
##END=
