##TITLE=Pseudourea, 2-[2-[(4-pyrid-2-yl-butyl) amino]ethyl]-2-thio-
##JCAMP-DX=4.24
##DATA TYPE=INFRARED SPECTRUM
##CLASS=COBLENTZ III
##ORIGIN=SOUTHERN RESEARCH INSTITUTE
##OWNER=Copyright (C) 1987 by the Coblentz Society
Collection (C) 2018 copyright by the U.S. Secretary of Commerce
on behalf of the United States of America. All rights reserved.
##DATE=1966/06/10
##MOLFORM=C12 H23 Br3 N4 S
##SOURCE REFERENCE=COBLENTZ NO. 7850
##$NIST ID=B6007850
##$NIST SOURCE=COBLENTZ
##$NIST IMAGE=cob7850
##SPECTROMETER/DATA SYSTEM=PERKIN-ELMER 521 (GRATING)
##INSTRUMENT PARAMETERS=FILTERS AT 3150, 2500, 2000, 1150, 700, 410. GRATING CHANGES: 2000, 630
##STATE=SOLID (1 mg / 650 mg KBr DISC)
$$ PURITY - ANALYTICAL
##SAMPLING PROCEDURE=TRANSMISSION
##RESOLUTION=2
##DATA PROCESSING=DIGITIZED BY COBLENTZ SOCIETY (BATCH II) FROM HARD COPY
##XUNITS=1/CM
##YUNITS=TRANSMITTANCE
##XFACTOR=1.0
##YFACTOR=1
##FIRSTX=255
##LASTX=4000
##FIRSTY=0.3332
##MAXX=4000
##MINX=255
##MAXY=0.9192
##MINY=0.1279
##NPOINTS=3746
##XYDATA=(X++(Y..Y))
255.000000 0.3332 0.3463 0.3537 0.3619 0.3708
260.000000 0.3792 0.3872 0.3939 0.3994 0.4048
265.000000 0.4118 0.4210 0.4445 0.4517 0.4589
270.000000 0.4660 0.4732 0.4804 0.4875 0.4947
275.000000 0.5019 0.5090 0.5162 0.5234 0.5305
280.000000 0.5377 0.5436 0.5521 0.5597 0.5732
285.000000 0.5857 0.5940 0.6013 0.6068 0.6124
290.000000 0.6179 0.6231 0.6281 0.6330 0.6379
295.000000 0.6429 0.6474 0.6516 0.6558 0.6600
300.000000 0.6642 0.6685 0.6719 0.6749 0.6778
305.000000 0.6807 0.6836 0.6866 0.6894 0.6921
310.000000 0.6949 0.6976 0.7003 0.7030 0.7058
315.000000 0.7085 0.7112 0.7138 0.7162 0.7187
320.000000 0.7212 0.7236 0.7261 0.7286 0.7310
325.000000 0.7336 0.7361 0.7386 0.7412 0.7437
330.000000 0.7462 0.7485 0.7506 0.7527 0.7548
335.000000 0.7569 0.7590 0.7610 0.7631 0.7650
340.000000 0.7670 0.7689 0.7708 0.7727 0.7747
345.000000 0.7765 0.7782 0.7800 0.7817 0.7834
350.000000 0.7851 0.7868 0.7885 0.7903 0.7921
355.000000 0.7938 0.7956 0.7974 0.7991 0.8009
360.000000 0.8027 0.8045 0.8060 0.8075 0.8090
365.000000 0.8105 0.8120 0.8135 0.8148 0.8159
370.000000 0.8169 0.8179 0.8190 0.8196 0.8198
375.000000 0.8200 0.8202 0.8202 0.8197 0.8191
380.000000 0.8179 0.8163 0.8156 0.8164 0.8178
385.000000 0.8192 0.8206 0.8219 0.8228 0.8216
390.000000 0.8183 0.8166 0.8178 0.8194 0.8217
395.000000 0.8236 0.8255 0.8274 0.8293 0.8312
400.000000 0.8330 0.8349 0.8361 0.8371 0.8381
405.000000 0.8392 0.8400 0.8407 0.8413 0.8419
410.000000 0.8425 0.8429 0.8432 0.8436 0.8439
415.000000 0.8442 0.8441 0.8440 0.8440 0.8462
420.000000 0.8437 0.8434 0.8430 0.8427 0.8424
425.000000 0.8417 0.8410 0.8404 0.8397 0.8390
430.000000 0.8377 0.8365 0.8353 0.8341 0.8326
435.000000 0.8311 0.8295 0.8280 0.8264 0.8249
440.000000 0.8232 0.8215 0.8198 0.8181 0.8164
445.000000 0.8144 0.8120 0.8097 0.8074 0.8048
450.000000 0.8010 0.7973 0.7935 0.7899 0.7867
455.000000 0.7835 0.7803 0.7763 0.7720 0.7678
460.000000 0.7614 0.7549 0.7485 0.7421 0.7347
465.000000 0.7304 0.7273 0.7264 0.7233 0.7277
470.000000 0.7302 0.7348 0.7412 0.7457 0.7500
475.000000 0.7547 0.7594 0.7641 0.7686 0.7731
480.000000 0.7774 0.7802 0.7827 0.7833 0.7835
485.000000 0.7833 0.7825 0.7817 0.7809 0.7800
490.000000 0.7792 0.7785 0.7779 0.7773 0.7770
495.000000 0.7767 0.7767 0.7772 0.7779 0.7787
500.000000 0.7797 0.7808 0.7819 0.7831 0.7842
505.000000 0.7852 0.7861 0.7870 0.7878 0.7884
510.000000 0.7891 0.7896 0.7901 0.7901 0.7901
515.000000 0.7905 0.7901 0.7900 0.7900 0.7899
520.000000 0.7899 0.7898 0.7897 0.7896 0.7896
525.000000 0.7891 0.7887 0.7882 0.7877 0.7872
530.000000 0.7868 0.7863 0.7858 0.7853 0.7848
535.000000 0.7844 0.7839 0.7834 0.7829 0.7823
540.000000 0.7816 0.7808 0.7800 0.7793 0.7785
545.000000 0.7777 0.7770 0.7762 0.7754 0.7745
550.000000 0.7734 0.7723 0.7713 0.7702 0.7691
555.000000 0.7681 0.7666 0.7650 0.7634 0.7618
560.000000 0.7602 0.7576 0.7550 0.7523 0.7496
565.000000 0.7469 0.7442 0.7415 0.7376 0.7341
570.000000 0.7320 0.7309 0.7304 0.7299 0.7298
575.000000 0.7300 0.7302 0.7305 0.7308 0.7314
580.000000 0.7315 0.7312 0.7302 0.7289 0.7275
585.000000 0.7261 0.7246 0.7229 0.7212 0.7193
590.000000 0.7163 0.7133 0.7101 0.7072 0.7062
595.000000 0.7052 0.7048 0.7048 0.6997 0.6936
600.000000 0.6901 0.6887 0.6886 0.6885 0.6885
605.000000 0.6883 0.6878 0.6866 0.6850 0.6832
610.000000 0.6814 0.6796 0.6777 0.6758 0.6738
615.000000 0.6717 0.6696 0.6629 0.6445 0.6261
620.000000 0.6077 0.5893 0.5709 0.5627 0.5636
625.000000 0.5790 0.6033 0.6276 0.6476 0.6476
630.000000 0.6469 0.6456 0.6441 0.6423 0.6404
635.000000 0.6386 0.6369 0.6351 0.6333 0.6315
640.000000 0.6297 0.6274 0.6252 0.6230 0.6205
645.000000 0.6181 0.6156 0.6134 0.6115 0.6096
650.000000 0.6077 0.6060 0.6048 0.6052 0.6058
655.000000 0.6066 0.6076 0.6086 0.6097 0.6111
660.000000 0.6087 0.6008 0.5929 0.5913 0.5985
665.000000 0.6056 0.6084 0.6051 0.5995 0.5985
670.000000 0.5976 0.5966 0.5960 0.5953 0.5947
675.000000 0.5943 0.5941 0.5942 0.5923 0.5941
680.000000 0.5940 0.5939 0.5940 0.5942 0.5944
685.000000 0.5958 0.5975 0.5992 0.6011 0.6030
690.000000 0.6052 0.6074 0.6097 0.6119 0.6141
695.000000 0.6163 0.6199 0.6241 0.6283 0.6322
700.000000 0.6359 0.6397 0.6442 0.6490 0.6539
705.000000 0.6585 0.6629 0.6673 0.6717 0.6740
710.000000 0.6762 0.6783 0.6789 0.6795 0.6801
715.000000 0.6807 0.6813 0.6812 0.6803 0.6808
720.000000 0.6806 0.6804 0.6798 0.6791 0.6783
725.000000 0.6773 0.6763 0.6753 0.6742 0.6732
730.000000 0.6722 0.6712 0.6703 0.6694 0.6685
735.000000 0.6676 0.6667 0.6658 0.6644 0.6625
740.000000 0.6607 0.6589 0.6568 0.6543 0.6517
745.000000 0.6491 0.6465 0.6436 0.6406 0.6377
750.000000 0.6337 0.6293 0.6191 0.6074 0.5989
755.000000 0.5912 0.5799 0.5689 0.5623 0.5556
760.000000 0.5493 0.5452 0.5448 0.5437 0.5440
765.000000 0.5446 0.5464 0.5490 0.5547 0.5629
770.000000 0.5791 0.5954 0.6116 0.6279 0.6442
775.000000 0.6555 0.6619 0.6687 0.6757 0.6864
780.000000 0.6968 0.7068 0.7163 0.7253 0.7344
785.000000 0.7436 0.7528 0.7602 0.7664 0.7726
790.000000 0.7785 0.7833 0.7881 0.7929 0.7961
795.000000 0.7992 0.8024 0.8049 0.8073 0.8096
800.000000 0.8120 0.8144 0.8167 0.8184 0.8201
805.000000 0.8218 0.8235 0.8251 0.8268 0.8286
810.000000 0.8308 0.8329 0.8351 0.8372 0.8393
815.000000 0.8415 0.8431 0.8444 0.8458 0.8472
820.000000 0.8485 0.8499 0.8512 0.8526 0.8540
825.000000 0.8553 0.8562 0.8572 0.8582 0.8591
830.000000 0.8601 0.8610 0.8613 0.8617 0.8620
835.000000 0.8623 0.8626 0.8629 0.8633 0.8634
840.000000 0.8634 0.8633 0.8633 0.8632 0.8632
845.000000 0.8631 0.8629 0.8626 0.8623 0.8621
850.000000 0.8618 0.8615 0.8613 0.8610 0.8612
855.000000 0.8613 0.8614 0.8614 0.8641 0.8654
860.000000 0.8667 0.8681 0.8692 0.8702 0.8712
865.000000 0.8722 0.8726 0.8729 0.8732 0.8735
870.000000 0.8739 0.8742 0.8745 0.8748 0.8751
875.000000 0.8752 0.8752 0.8753 0.8754 0.8755
880.000000 0.8756 0.8757 0.8757 0.8775 0.8759
885.000000 0.8760 0.8755 0.8750 0.8744 0.8739
890.000000 0.8734 0.8728 0.8723 0.8717 0.8710
895.000000 0.8704 0.8698 0.8692 0.8686 0.8679
900.000000 0.8673 0.8667 0.8661 0.8655 0.8649
905.000000 0.8642 0.8633 0.8623 0.8614 0.8604
910.000000 0.8594 0.8585 0.8575 0.8566 0.8556
915.000000 0.8546 0.8537 0.8526 0.8514 0.8503
920.000000 0.8491 0.8480 0.8468 0.8457 0.8445
925.000000 0.8434 0.8422 0.8414 0.8407 0.8399
930.000000 0.8392 0.8385 0.8378 0.8371 0.8366
935.000000 0.8368 0.8371 0.8378 0.8386 0.8395
940.000000 0.8409 0.8422 0.8436 0.8453 0.8473
945.000000 0.8493 0.8522 0.8554 0.8580 0.8607
950.000000 0.8617 0.8623 0.8628 0.8629 0.8631
955.000000 0.8632 0.8630 0.8628 0.8626 0.8624
960.000000 0.8623 0.8621 0.8619 0.8656 0.8609
965.000000 0.8602 0.8596 0.8589 0.8577 0.8563
970.000000 0.8548 0.8528 0.8507 0.8486 0.8466
975.000000 0.8450 0.8434 0.8418 0.8399 0.8377
980.000000 0.8351 0.8322 0.8292 0.8236 0.8204
985.000000 0.8164 0.8112 0.8063 0.8022 0.7980
990.000000 0.7939 0.7898 0.7856 0.7815 0.7773
995.000000 0.7732 0.7687 0.7641 0.7596 0.7558
1000.000000 0.7530 0.7502 0.7474 0.7445 0.7418
1005.000000 0.7392 0.7381 0.7381 0.7389 0.7347
1010.000000 0.7413 0.7425 0.7437 0.7451 0.7464
1015.000000 0.7478 0.7491 0.7505 0.7519 0.7535
1020.000000 0.7552 0.7569 0.7586 0.7604 0.7622
1025.000000 0.7673 0.7641 0.7639 0.7637 0.7634
1030.000000 0.7618 0.7601 0.7579 0.7546 0.7508
1035.000000 0.7460 0.7411 0.7356 0.7300 0.7232
1040.000000 0.7159 0.7106 0.7066 0.7054 0.7043
1045.000000 0.7041 0.7049 0.7064 0.7077 0.7088
1050.000000 0.7076 0.7065 0.7057 0.7049 0.7041
1055.000000 0.7034 0.7029 0.7025 0.7021 0.7017
1060.000000 0.7015 0.7013 0.7011 0.7009 0.7015
1065.000000 0.7008 0.7008 0.7008 0.7009 0.7010
1070.000000 0.7014 0.7018 0.7023 0.7027 0.7033
1075.000000 0.7040 0.7047 0.7054 0.7061 0.7067
1080.000000 0.7074 0.7080 0.7086 0.7092 0.7097
1085.000000 0.7103 0.7109 0.7115 0.7120 0.7125
1090.000000 0.7130 0.7135 0.7140 0.7145 0.7150
1095.000000 0.7155 0.7160 0.7167 0.7173 0.7179
1100.000000 0.7187 0.7196 0.7205 0.7213 0.7222
1105.000000 0.7244 0.7269 0.7308 0.7378 0.7506
1110.000000 0.7561 0.7615 0.7676 0.7731 0.7760
1115.000000 0.7789 0.7824 0.7877 0.7929 0.7984
1120.000000 0.8022 0.8037 0.8051 0.8062 0.8070
1125.000000 0.8077 0.8081 0.8082 0.8082 0.8082
1130.000000 0.8097 0.8079 0.8077 0.8074 0.8071
1135.000000 0.8068 0.8061 0.8053 0.8045 0.8038
1140.000000 0.8030 0.8018 0.8000 0.7979 0.7958
1145.000000 0.7937 0.7903 0.7867 0.7831 0.7786
1150.000000 0.7735 0.7684 0.7635 0.7586 0.7538
1155.000000 0.7504 0.7476 0.7456 0.7446 0.7450
1160.000000 0.7459 0.7468 0.7479 0.7493 0.7507
1165.000000 0.7521 0.7542 0.7562 0.7585 0.7619
1170.000000 0.7657 0.7697 0.7743 0.7789 0.7832
1175.000000 0.7874 0.7890 0.7906 0.7909 0.7911
1180.000000 0.7912 0.7911 0.7909 0.7921 0.7904
1185.000000 0.7902 0.7898 0.7893 0.7888 0.7884
1190.000000 0.7879 0.7873 0.7866 0.7858 0.7851
1195.000000 0.7844 0.7836 0.7829 0.7816 0.7802
1200.000000 0.7788 0.7774 0.7761 0.7744 0.7724
1205.000000 0.7704 0.7684 0.7663 0.7643 0.7623
1210.000000 0.7601 0.7575 0.7550 0.7527 0.7507
1215.000000 0.7486 0.7466 0.7446 0.7425 0.7403
1220.000000 0.7380 0.7357 0.7334 0.7311 0.7293
1225.000000 0.7276 0.7258 0.7241 0.7223 0.7206
1230.000000 0.7188 0.7168 0.7147 0.7126 0.7106
1235.000000 0.7086 0.7067 0.7055 0.7051 0.7047
1240.000000 0.7043 0.7039 0.7039 0.7048 0.7072
1245.000000 0.7108 0.7125 0.7139 0.7145 0.7150
1250.000000 0.7149 0.7147 0.7116 0.7086 0.7042
1255.000000 0.7015 0.7020 0.7026 0.7033 0.7045
1260.000000 0.7057 0.7070 0.7083 0.7096 0.7104
1265.000000 0.7112 0.7114 0.7115 0.7117 0.7119
1270.000000 0.7105 0.7117 0.7115 0.7113 0.7110
1275.000000 0.7105 0.7099 0.7092 0.7086 0.7081
1280.000000 0.7073 0.7055 0.7037 0.7018 0.6981
1285.000000 0.6967 0.6957 0.6948 0.6942 0.6937
1290.000000 0.6934 0.6933 0.6931 0.6928 0.6922
1295.000000 0.6914 0.6888 0.6863 0.6837 0.6809
1300.000000 0.6768 0.6764 0.6760 0.6756 0.6769
1305.000000 0.6753 0.6756 0.6759 0.6762 0.6769
1310.000000 0.6777 0.6785 0.6797 0.6814 0.6830
1315.000000 0.6847 0.6866 0.6886 0.6906 0.6931
1320.000000 0.6957 0.6980 0.7001 0.7022 0.7042
1325.000000 0.7055 0.7068 0.7080 0.7089 0.7096
1330.000000 0.7100 0.7101 0.7104 0.7093 0.7089
1335.000000 0.7085 0.7079 0.7066 0.7054 0.7041
1340.000000 0.7026 0.7007 0.6991 0.6976 0.6961
1345.000000 0.6942 0.6916 0.6890 0.6859 0.6827
1350.000000 0.6779 0.6752 0.6737 0.6722 0.6711
1355.000000 0.6700 0.6689 0.6677 0.6664 0.6651
1360.000000 0.6637 0.6624 0.6609 0.6595 0.6580
1365.000000 0.6565 0.6548 0.6532 0.6509 0.6487
1370.000000 0.6464 0.6441 0.6402 0.6361 0.6303
1375.000000 0.6243 0.6194 0.6148 0.6103 0.6057
1380.000000 0.5984 0.5912 0.5847 0.5792 0.5738
1385.000000 0.5660 0.5579 0.5492 0.5389 0.5332
1390.000000 0.5301 0.5282 0.5265 0.5249 0.5230
1395.000000 0.5200 0.5168 0.5130 0.5086 0.5039
1400.000000 0.4988 0.4934 0.4888 0.4851 0.4814
1405.000000 0.4777 0.4740 0.4698 0.4652 0.4606
1410.000000 0.4559 0.4509 0.4460 0.4411 0.4367
1415.000000 0.4322 0.4293 0.4266 0.4239 0.4213
1420.000000 0.4186 0.4158 0.4131 0.4109 0.4102
1425.000000 0.4095 0.4088 0.4080 0.4077 0.4076
1430.000000 0.4097 0.4078 0.4084 0.4090 0.4105
1435.000000 0.4120 0.4142 0.4167 0.4197 0.4233
1440.000000 0.4269 0.4306 0.4362 0.4418 0.4475
1445.000000 0.4532 0.4588 0.4645 0.4703 0.4793
1450.000000 0.4848 0.4876 0.4890 0.4890 0.4880
1455.000000 0.4862 0.4842 0.4818 0.4794 0.4771
1460.000000 0.4756 0.4758 0.4761 0.4768 0.4795
1465.000000 0.5060 0.5292 0.5523 0.5755 0.5986
1470.000000 0.6218 0.6450 0.6681 0.6970 0.7212
1475.000000 0.7468 0.7811 0.7873 0.7924 0.7955
1480.000000 0.7982 0.7991 0.8001 0.8010 0.8015
1485.000000 0.8020 0.8023 0.8024 0.8024 0.8043
1490.000000 0.8016 0.8012 0.8007 0.7998 0.7986
1495.000000 0.7975 0.7965 0.7955 0.7944 0.7934
1500.000000 0.7923 0.7913 0.7902 0.7892 0.7879
1505.000000 0.7865 0.7851 0.7832 0.7810 0.7772
1510.000000 0.7731 0.7687 0.7647 0.7612 0.7576
1515.000000 0.7521 0.7451 0.7377 0.7299 0.7224
1520.000000 0.7168 0.7112 0.7055 0.6875 0.6674
1525.000000 0.6473 0.6272 0.6071 0.5843 0.5759
1530.000000 0.5676 0.5608 0.5565 0.5560 0.5550
1535.000000 0.5558 0.5574 0.5731 0.5916 0.6102
1540.000000 0.6287 0.6473 0.6658 0.6844 0.6944
1545.000000 0.7032 0.7107 0.7174 0.7217 0.7258
1550.000000 0.7290 0.7310 0.7331 0.7347 0.7360
1555.000000 0.7368 0.7375 0.7381 0.7383 0.7383
1560.000000 0.7382 0.7381 0.7380 0.7378 0.7377
1565.000000 0.7378 0.7378 0.7379 0.7380 0.7381
1570.000000 0.7385 0.7392 0.7399 0.7406 0.7413
1575.000000 0.7427 0.7440 0.7454 0.7473 0.7494
1580.000000 0.7515 0.7535 0.7556 0.7562 0.7556
1585.000000 0.7539 0.7517 0.7494 0.7470 0.7446
1590.000000 0.7423 0.7401 0.7374 0.7341 0.7298
1595.000000 0.7238 0.6889 0.6590 0.6291 0.5991
1600.000000 0.5692 0.5393 0.5093 0.4794 0.4495
1605.000000 0.4196 0.3896 0.3597 0.3298 0.2998
1610.000000 0.2888 0.2903 0.2891 0.3061 0.3355
1615.000000 0.3649 0.3944 0.3992 0.4001 0.3953
1620.000000 0.3734 0.3515 0.3296 0.3077 0.3003
1625.000000 0.2983 0.2970 0.2957 0.2944 0.2932
1630.000000 0.2919 0.2902 0.2888 0.2858 0.2625
1635.000000 0.2389 0.2154 0.1919 0.1683 0.1448
1640.000000 0.1304 0.1279 0.1300 0.1281 0.1293
1645.000000 0.1451 0.1768 0.2085 0.2403 0.2720
1650.000000 0.3037 0.3354 0.3671 0.3988 0.4305
1655.000000 0.4622 0.4939 0.5256 0.6301 0.6670
1660.000000 0.7035 0.7135 0.7236 0.7342 0.7465
1665.000000 0.7587 0.7718 0.7925 0.8060 0.8164
1670.000000 0.8263 0.8319 0.8376 0.8432 0.8488
1675.000000 0.8538 0.8587 0.8637 0.8687 0.8735
1680.000000 0.8763 0.8792 0.8820 0.8849 0.8874
1685.000000 0.8893 0.8912 0.8932 0.8951 0.8969
1690.000000 0.8983 0.8997 0.9011 0.9025 0.9036
1695.000000 0.9046 0.9056 0.9067 0.9075 0.9084
1700.000000 0.9092 0.9100 0.9105 0.9109 0.9114
1705.000000 0.9118 0.9122 0.9127 0.9131 0.9135
1710.000000 0.9139 0.9144 0.9148 0.9152 0.9157
1715.000000 0.9161 0.9165 0.9168 0.9171 0.9173
1720.000000 0.9176 0.9179 0.9182 0.9185 0.9192
1725.000000 0.9185 0.9185 0.9185 0.9186 0.9186
1730.000000 0.9186 0.9186 0.9186 0.9186 0.9187
1735.000000 0.9187 0.9187 0.9186 0.9185 0.9185
1740.000000 0.9184 0.9183 0.9182 0.9182 0.9181
1745.000000 0.9180 0.9179 0.9179 0.9178 0.9177
1750.000000 0.9177 0.9176 0.9176 0.9175 0.9175
1755.000000 0.9174 0.9174 0.9173 0.9173 0.9172
1760.000000 0.9170 0.9168 0.9165 0.9163 0.9161
1765.000000 0.9158 0.9156 0.9154 0.9151 0.9149
1770.000000 0.9146 0.9144 0.9142 0.9139 0.9137
1775.000000 0.9135 0.9132 0.9130 0.9128 0.9126
1780.000000 0.9124 0.9121 0.9119 0.9117 0.9115
1785.000000 0.9113 0.9110 0.9108 0.9106 0.9104
1790.000000 0.9102 0.9099 0.9097 0.9094 0.9091
1795.000000 0.9088 0.9086 0.9083 0.9080 0.9077
1800.000000 0.9074 0.9071 0.9069 0.9066 0.9063
1805.000000 0.9059 0.9055 0.9051 0.9048 0.9044
1810.000000 0.9040 0.9036 0.9032 0.9028 0.9024
1815.000000 0.9020 0.9018 0.9017 0.9016 0.9015
1820.000000 0.9015 0.9014 0.9013 0.9012 0.9011
1825.000000 0.9010 0.9009 0.9010 0.9010 0.9011
1830.000000 0.9012 0.9012 0.9013 0.9013 0.9014
1835.000000 0.9015 0.9015 0.9015 0.9015 0.9015
1840.000000 0.9015 0.9016 0.9016 0.9016 0.9016
1845.000000 0.9016 0.9015 0.9014 0.9012 0.9010
1850.000000 0.9008 0.9007 0.9005 0.9003 0.9000
1855.000000 0.8997 0.8993 0.8989 0.8985 0.8982
1860.000000 0.8978 0.8974 0.8970 0.8966 0.8962
1865.000000 0.8958 0.8954 0.8950 0.8946 0.8942
1870.000000 0.8937 0.8933 0.8930 0.8927 0.8925
1875.000000 0.8923 0.8920 0.8918 0.8916 0.8914
1880.000000 0.8912 0.8909 0.8907 0.8905 0.8903
1885.000000 0.8901 0.8899 0.8896 0.8892 0.8889
1890.000000 0.8885 0.8882 0.8878 0.8875 0.8871
1895.000000 0.8868 0.8864 0.8861 0.8857 0.8853
1900.000000 0.8849 0.8845 0.8841 0.8838 0.8834
1905.000000 0.8830 0.8826 0.8822 0.8818 0.8814
1910.000000 0.8810 0.8806 0.8802 0.8798 0.8795
1915.000000 0.8791 0.8788 0.8785 0.8781 0.8778
1920.000000 0.8774 0.8771 0.8767 0.8764 0.8761
1925.000000 0.8757 0.8754 0.8750 0.8747 0.8743
1930.000000 0.8741 0.8739 0.8737 0.8734 0.8732
1935.000000 0.8730 0.8728 0.8726 0.8723 0.8722
1940.000000 0.8723 0.8724 0.8725 0.8726 0.8726
1945.000000 0.8727 0.8728 0.8729 0.8730 0.8731
1950.000000 0.8733 0.8735 0.8738 0.8740 0.8743
1955.000000 0.8745 0.8748 0.8750 0.8752 0.8755
1960.000000 0.8757 0.8760 0.8762 0.8764 0.8765
1965.000000 0.8766 0.8768 0.8769 0.8770 0.8771
1970.000000 0.8772 0.8773 0.8772 0.8771 0.8770
1975.000000 0.8769 0.8768 0.8766 0.8765 0.8764
1980.000000 0.8763 0.8759 0.8755 0.8750 0.8746
1985.000000 0.8741 0.8737 0.8732 0.8725 0.8719
1990.000000 0.8713 0.8707 0.8701 0.8695 0.8688
1995.000000 0.8682 0.8676 0.8670 0.8667 0.8667
2000.000000 0.8666 0.8666 0.8666 0.8665 0.8665
2005.000000 0.8667 0.8669 0.8671 0.8673 0.8675
2010.000000 0.8676 0.8678 0.8680 0.8682 0.8684
2015.000000 0.8686 0.8688 0.8690 0.8691 0.8693
2020.000000 0.8695 0.8696 0.8698 0.8699 0.8701
2025.000000 0.8703 0.8704 0.8705 0.8706 0.8707
2030.000000 0.8708 0.8709 0.8711 0.8712 0.8713
2035.000000 0.8714 0.8715 0.8716 0.8717 0.8718
2040.000000 0.8720 0.8721 0.8723 0.8725 0.8727
2045.000000 0.8729 0.8731 0.8733 0.8735 0.8737
2050.000000 0.8739 0.8741 0.8743 0.8745 0.8747
2055.000000 0.8749 0.8750 0.8751 0.8751 0.8751
2060.000000 0.8752 0.8752 0.8753 0.8753 0.8753
2065.000000 0.8754 0.8754 0.8755 0.8755 0.8756
2070.000000 0.8756 0.8756 0.8755 0.8753 0.8752
2075.000000 0.8750 0.8749 0.8747 0.8746 0.8744
2080.000000 0.8743 0.8741 0.8740 0.8738 0.8737
2085.000000 0.8732 0.8727 0.8721 0.8716 0.8710
2090.000000 0.8708 0.8705 0.8702 0.8699 0.8697
2095.000000 0.8694 0.8691 0.8689 0.8686 0.8683
2100.000000 0.8681 0.8678 0.8680 0.8682 0.8684
2105.000000 0.8686 0.8688 0.8690 0.8691 0.8693
2110.000000 0.8695 0.8695 0.8696 0.8698 0.8700
2115.000000 0.8702 0.8703 0.8705 0.8707 0.8709
2120.000000 0.8711 0.8712 0.8714 0.8716 0.8717
2125.000000 0.8718 0.8719 0.8721 0.8722 0.8723
2130.000000 0.8724 0.8725 0.8726 0.8727 0.8729
2135.000000 0.8730 0.8730 0.8730 0.8730 0.8730
2140.000000 0.8729 0.8727 0.8724 0.8722 0.8719
2145.000000 0.8717 0.8714 0.8712 0.8709 0.8707
2150.000000 0.8704 0.8702 0.8700 0.8697 0.8695
2155.000000 0.8693 0.8690 0.8688 0.8686 0.8683
2160.000000 0.8681 0.8679 0.8676 0.8674 0.8671
2165.000000 0.8669 0.8667 0.8664 0.8662 0.8660
2170.000000 0.8657 0.8655 0.8653 0.8651 0.8648
2175.000000 0.8646 0.8644 0.8640 0.8636 0.8632
2180.000000 0.8627 0.8623 0.8618 0.8614 0.8610
2185.000000 0.8605 0.8601 0.8596 0.8592 0.8587
2190.000000 0.8583 0.8579 0.8574 0.8570 0.8567
2195.000000 0.8563 0.8559 0.8556 0.8552 0.8548
2200.000000 0.8545 0.8541 0.8537 0.8534 0.8530
2205.000000 0.8526 0.8523 0.8519 0.8515 0.8512
2210.000000 0.8508 0.8504 0.8501 0.8498 0.8495
2215.000000 0.8492 0.8489 0.8486 0.8482 0.8479
2220.000000 0.8476 0.8473 0.8470 0.8467 0.8464
2225.000000 0.8460 0.8457 0.8454 0.8451 0.8448
2230.000000 0.8445 0.8441 0.8438 0.8434 0.8431
2235.000000 0.8427 0.8424 0.8420 0.8417 0.8413
2240.000000 0.8409 0.8406 0.8402 0.8399 0.8395
2245.000000 0.8392 0.8388 0.8384 0.8381 0.8376
2250.000000 0.8371 0.8366 0.8361 0.8356 0.8351
2255.000000 0.8346 0.8341 0.8336 0.8331 0.8327
2260.000000 0.8322 0.8315 0.8308 0.8300 0.8293
2265.000000 0.8286 0.8278 0.8271 0.8263 0.8256
2270.000000 0.8248 0.8241 0.8233 0.8226 0.8218
2275.000000 0.8211 0.8204 0.8196 0.8188 0.8179
2280.000000 0.8171 0.8162 0.8153 0.8145 0.8136
2285.000000 0.8127 0.8119 0.8110 0.8102 0.8093
2290.000000 0.8083 0.8073 0.8063 0.8053 0.8043
2295.000000 0.8033 0.8023 0.8013 0.8003 0.7992
2300.000000 0.7979 0.7966 0.7952 0.7939 0.7926
2305.000000 0.7913 0.7900 0.7887 0.7874 0.7861
2310.000000 0.7847 0.7834 0.7821 0.7809 0.7796
2315.000000 0.7784 0.7771 0.7758 0.7746 0.7733
2320.000000 0.7720 0.7708 0.7695 0.7682 0.7670
2325.000000 0.7657 0.7645 0.7632 0.7620 0.7608
2330.000000 0.7596 0.7584 0.7572 0.7560 0.7547
2335.000000 0.7535 0.7523 0.7511 0.7500 0.7489
2340.000000 0.7478 0.7467 0.7456 0.7445 0.7433
2345.000000 0.7422 0.7411 0.7400 0.7389 0.7378
2350.000000 0.7369 0.7363 0.7357 0.7351 0.7345
2355.000000 0.7339 0.7333 0.7327 0.7321 0.7315
2360.000000 0.7309 0.7303 0.7297 0.7290 0.7286
2365.000000 0.7282 0.7277 0.7273 0.7268 0.7264
2370.000000 0.7260 0.7255 0.7251 0.7246 0.7221
2375.000000 0.7195 0.7167 0.7139 0.7112 0.7086
2380.000000 0.7073 0.7062 0.7050 0.7039 0.7027
2385.000000 0.7015 0.7004 0.6991 0.6975 0.6958
2390.000000 0.6941 0.6925 0.6908 0.6892 0.6879
2395.000000 0.6866 0.6853 0.6840 0.6828 0.6815
2400.000000 0.6802 0.6788 0.6774 0.6759 0.6749
2405.000000 0.6744 0.6739 0.6734 0.6730 0.6725
2410.000000 0.6720 0.6715 0.6710 0.6706 0.6701
2415.000000 0.6696 0.6700 0.6694 0.6694 0.6693
2420.000000 0.6692 0.6691 0.6691 0.6690 0.6690
2425.000000 0.6691 0.6693 0.6694 0.6695 0.6696
2430.000000 0.6698 0.6699 0.6701 0.6703 0.6705
2435.000000 0.6707 0.6709 0.6711 0.6713 0.6715
2440.000000 0.6716 0.6717 0.6718 0.6720 0.6720
2445.000000 0.6720 0.6720 0.6720 0.6717 0.6713
2450.000000 0.6709 0.6705 0.6701 0.6696 0.6687
2455.000000 0.6677 0.6661 0.6641 0.6621 0.6607
2460.000000 0.6601 0.6601 0.6603 0.6605 0.6607
2465.000000 0.6609 0.6610 0.6605 0.6593 0.6583
2470.000000 0.6569 0.6551 0.6532 0.6511 0.6491
2475.000000 0.6479 0.6467 0.6451 0.6434 0.6418
2480.000000 0.6402 0.6386 0.6370 0.6354 0.6339
2485.000000 0.6324 0.6309 0.6293 0.6278 0.6263
2490.000000 0.6248 0.6233 0.6218 0.6203 0.6188
2495.000000 0.6174 0.6159 0.6142 0.6126 0.6109
2500.000000 0.6093 0.6076 0.6060 0.6043 0.6027
2505.000000 0.6010 0.5994 0.5977 0.5960 0.5943
2510.000000 0.5927 0.5910 0.5893 0.5876 0.5859
2515.000000 0.5843 0.5826 0.5809 0.5792 0.5775
2520.000000 0.5758 0.5742 0.5724 0.5703 0.5683
2525.000000 0.5662 0.5641 0.5621 0.5600 0.5579
2530.000000 0.5558 0.5538 0.5517 0.5496 0.5475
2535.000000 0.5454 0.5433 0.5412 0.5391 0.5369
2540.000000 0.5348 0.5327 0.5306 0.5285 0.5263
2545.000000 0.5242 0.5221 0.5202 0.5183 0.5164
2550.000000 0.5145 0.5126 0.5107 0.5088 0.5069
2555.000000 0.5050 0.5031 0.5011 0.4992 0.4971
2560.000000 0.4951 0.4931 0.4910 0.4890 0.4870
2565.000000 0.4850 0.4829 0.4809 0.4789 0.4769
2570.000000 0.4748 0.4730 0.4711 0.4693 0.4674
2575.000000 0.4656 0.4637 0.4619 0.4600 0.4582
2580.000000 0.4563 0.4545 0.4526 0.4507 0.4487
2585.000000 0.4467 0.4447 0.4427 0.4407 0.4387
2590.000000 0.4368 0.4348 0.4328 0.4308 0.4288
2595.000000 0.4268 0.4248 0.4230 0.4211 0.4193
2600.000000 0.4174 0.4155 0.4137 0.4118 0.4100
2605.000000 0.4081 0.4062 0.4044 0.4025 0.4007
2610.000000 0.3991 0.3976 0.3962 0.3947 0.3933
2615.000000 0.3918 0.3904 0.3889 0.3874 0.3863
2620.000000 0.3853 0.3843 0.3833 0.3823 0.3812
2625.000000 0.3802 0.3792 0.3782 0.3772 0.3762
2630.000000 0.3752 0.3742 0.3732 0.3722 0.3712
2635.000000 0.3701 0.3687 0.3674 0.3660 0.3646
2640.000000 0.3632 0.3618 0.3604 0.3590 0.3576
2645.000000 0.3562 0.3548 0.3533 0.3518 0.3504
2650.000000 0.3489 0.3474 0.3459 0.3445 0.3430
2655.000000 0.3414 0.3394 0.3374 0.3354 0.3334
2660.000000 0.3314 0.3293 0.3273 0.3253 0.3233
2665.000000 0.3213 0.3192 0.3170 0.3148 0.3126
2670.000000 0.3104 0.3082 0.3059 0.3037 0.3015
2675.000000 0.2993 0.2971 0.2949 0.2928 0.2908
2680.000000 0.2887 0.2866 0.2845 0.2824 0.2803
2685.000000 0.2782 0.2761 0.2741 0.2728 0.2715
2690.000000 0.2701 0.2688 0.2675 0.2662 0.2648
2695.000000 0.2635 0.2622 0.2609 0.2595 0.2582
2700.000000 0.2569 0.2559 0.2550 0.2541 0.2532
2705.000000 0.2523 0.2514 0.2505 0.2496 0.2486
2710.000000 0.2477 0.2468 0.2459 0.2450 0.2442
2715.000000 0.2434 0.2426 0.2419 0.2411 0.2404
2720.000000 0.2396 0.2388 0.2381 0.2374 0.2371
2725.000000 0.2369 0.2366 0.2364 0.2361 0.2358
2730.000000 0.2357 0.2358 0.2360 0.2361 0.2363
2735.000000 0.2364 0.2368 0.2373 0.2379 0.2384
2740.000000 0.2389 0.2394 0.2399 0.2405 0.2412
2745.000000 0.2418 0.2425 0.2432 0.2439 0.2446
2750.000000 0.2453 0.2460 0.2471 0.2481 0.2491
2755.000000 0.2502 0.2512 0.2524 0.2537 0.2549
2760.000000 0.2560 0.2565 0.2570 0.2576 0.2579
2765.000000 0.2581 0.2582 0.2583 0.2583 0.2584
2770.000000 0.2584 0.2584 0.2584 0.2584 0.2583
2775.000000 0.2583 0.2582 0.2582 0.2581 0.2581
2780.000000 0.2581 0.2580 0.2580 0.2580 0.2580
2785.000000 0.2579 0.2579 0.2579 0.2578 0.2578
2790.000000 0.2577 0.2577 0.2577 0.2579 0.2581
2795.000000 0.2583 0.2585 0.2589 0.2592 0.2596
2800.000000 0.2600 0.2610 0.2622 0.2637 0.2649
2805.000000 0.2661 0.2672 0.2683 0.2694 0.2704
2810.000000 0.2712 0.2721 0.2729 0.2737 0.2745
2815.000000 0.2753 0.2761 0.2769 0.2777 0.2785
2820.000000 0.2793 0.2801 0.2809 0.2817 0.2826
2825.000000 0.2834 0.2842 0.2850 0.2857 0.2860
2830.000000 0.2863 0.2863 0.2863 0.2862 0.2862
2835.000000 0.2883 0.2861 0.2859 0.2856 0.2853
2840.000000 0.2850 0.2848 0.2845 0.2841 0.2835
2845.000000 0.2830 0.2824 0.2818 0.2813 0.2807
2850.000000 0.2800 0.2792 0.2785 0.2777 0.2770
2855.000000 0.2762 0.2755 0.2747 0.2740 0.2732
2860.000000 0.2724 0.2716 0.2708 0.2701 0.2693
2865.000000 0.2685 0.2677 0.2669 0.2660 0.2651
2870.000000 0.2642 0.2633 0.2624 0.2615 0.2607
2875.000000 0.2598 0.2589 0.2580 0.2571 0.2562
2880.000000 0.2553 0.2543 0.2532 0.2521 0.2510
2885.000000 0.2499 0.2487 0.2476 0.2465 0.2454
2890.000000 0.2443 0.2429 0.2415 0.2400 0.2386
2895.000000 0.2372 0.2358 0.2343 0.2329 0.2315
2900.000000 0.2301 0.2286 0.2268 0.2246 0.2224
2905.000000 0.2202 0.2180 0.2158 0.2134 0.2105
2910.000000 0.2076 0.2047 0.2018 0.1989 0.1963
2915.000000 0.1939 0.1915 0.1891 0.1866 0.1842
2920.000000 0.1818 0.1796 0.1777 0.1758 0.1739
2925.000000 0.1720 0.1706 0.1694 0.1682 0.1675
2930.000000 0.1671 0.1667 0.1663 0.1659 0.1655
2935.000000 0.1654 0.1658 0.1661 0.1664 0.1668
2940.000000 0.1671 0.1675 0.1678 0.1682 0.1686
2945.000000 0.1691 0.1696 0.1701 0.1706 0.1711
2950.000000 0.1715 0.1720 0.1725 0.1729 0.1734
2955.000000 0.1739 0.1746 0.1753 0.1761 0.1769
2960.000000 0.1776 0.1784 0.1791 0.1798 0.1803
2965.000000 0.1805 0.1829 0.1810 0.1810 0.1810
2970.000000 0.1811 0.1811 0.1807 0.1800 0.1793
2975.000000 0.1784 0.1773 0.1762 0.1752 0.1745
2980.000000 0.1739 0.1733 0.1727 0.1721 0.1715
2985.000000 0.1709 0.1706 0.1705 0.1703 0.1702
2990.000000 0.1700 0.1699 0.1697 0.1697 0.1697
2995.000000 0.1697 0.1698 0.1698 0.1698 0.1698
3000.000000 0.1698 0.1698 0.1699 0.1699 0.1699
3005.000000 0.1701 0.1702 0.1704 0.1705 0.1706
3010.000000 0.1708 0.1709 0.1710 0.1712 0.1713
3015.000000 0.1714 0.1716 0.1717 0.1718 0.1719
3020.000000 0.1721 0.1722 0.1723 0.1724 0.1726
3025.000000 0.1728 0.1730 0.1733 0.1735 0.1737
3030.000000 0.1739 0.1742 0.1744 0.1746 0.1748
3035.000000 0.1752 0.1759 0.1767 0.1774 0.1781
3040.000000 0.1789 0.1796 0.1806 0.1816 0.1827
3045.000000 0.1837 0.1847 0.1857 0.1868 0.1880
3050.000000 0.1892 0.1904 0.1915 0.1927 0.1939
3055.000000 0.1951 0.1963 0.1974 0.1986 0.1998
3060.000000 0.2010 0.2021 0.2033 0.2045 0.2056
3065.000000 0.2064 0.2071 0.2079 0.2087 0.2094
3070.000000 0.2102 0.2110 0.2117 0.2124 0.2130
3075.000000 0.2135 0.2141 0.2148 0.2159 0.2169
3080.000000 0.2178 0.2188 0.2197 0.2207 0.2295
3085.000000 0.2315 0.2331 0.2347 0.2362 0.2367
3090.000000 0.2372 0.2377 0.2382 0.2387 0.2391
3095.000000 0.2394 0.2396 0.2399 0.2401 0.2402
3100.000000 0.2401 0.2401 0.2400 0.2403 0.2421
3105.000000 0.2441 0.2460 0.2480 0.2502 0.2528
3110.000000 0.2554 0.2578 0.2595 0.2613 0.2630
3115.000000 0.2647 0.2661 0.2672 0.2684 0.2696
3120.000000 0.2707 0.2719 0.2729 0.2740 0.2750
3125.000000 0.2760 0.2771 0.2781 0.2790 0.2800
3130.000000 0.2809 0.2818 0.2827 0.2837 0.2846
3135.000000 0.2856 0.2867 0.2878 0.2889 0.2900
3140.000000 0.2911 0.2922 0.2930 0.2930 0.2930
3145.000000 0.2931 0.2931 0.2931 0.2932 0.2933
3150.000000 0.2935 0.2936 0.2937 0.2938 0.2939
3155.000000 0.2940 0.2940 0.2940 0.2940 0.2941
3160.000000 0.2941 0.2940 0.2940 0.2940 0.2940
3165.000000 0.2939 0.2939 0.2939 0.2939 0.2940
3170.000000 0.2941 0.2942 0.2942 0.2946 0.2952
3175.000000 0.2958 0.2964 0.2971 0.2978 0.2986
3180.000000 0.2993 0.3000 0.3007 0.3015 0.3022
3185.000000 0.3028 0.3034 0.3040 0.3046 0.3052
3190.000000 0.3058 0.3064 0.3070 0.3076 0.3082
3195.000000 0.3088 0.3094 0.3100 0.3106 0.3112
3200.000000 0.3117 0.3123 0.3128 0.3131 0.3135
3205.000000 0.3138 0.3141 0.3145 0.3146 0.3146
3210.000000 0.3145 0.3145 0.3144 0.3144 0.3144
3215.000000 0.3143 0.3143 0.3142 0.3142 0.3141
3220.000000 0.3139 0.3135 0.3131 0.3128 0.3124
3225.000000 0.3120 0.3117 0.3114 0.3113 0.3111
3230.000000 0.3109 0.3108 0.3094 0.3104 0.3102
3235.000000 0.3102 0.3102 0.3102 0.3103 0.3103
3240.000000 0.3104 0.3108 0.3112 0.3116 0.3121
3245.000000 0.3127 0.3137 0.3146 0.3156 0.3165
3250.000000 0.3183 0.3198 0.3209 0.3221 0.3233
3255.000000 0.3244 0.3256 0.3267 0.3279 0.3291
3260.000000 0.3302 0.3314 0.3325 0.3337 0.3348
3265.000000 0.3359 0.3370 0.3381 0.3392 0.3403
3270.000000 0.3415 0.3427 0.3439 0.3451 0.3463
3275.000000 0.3475 0.3487 0.3500 0.3512 0.3524
3280.000000 0.3536 0.3548 0.3559 0.3574 0.3591
3285.000000 0.3608 0.3626 0.3643 0.3660 0.3678
3290.000000 0.3696 0.3715 0.3733 0.3751 0.3769
3295.000000 0.3788 0.3806 0.3825 0.3857 0.3888
3300.000000 0.3920 0.3959 0.4005 0.4052 0.4098
3305.000000 0.4144 0.4188 0.4224 0.4259 0.4294
3310.000000 0.4330 0.4365 0.4400 0.4435 0.4474
3315.000000 0.4518 0.4562 0.4607 0.4651 0.4696
3320.000000 0.4740 0.4781 0.4821 0.4862 0.4902
3325.000000 0.4943 0.4983 0.5015 0.5047 0.5079
3330.000000 0.5111 0.5143 0.5174 0.5206 0.5242
3335.000000 0.5286 0.5329 0.5372 0.5415 0.5458
3340.000000 0.5501 0.5536 0.5570 0.5605 0.5640
3345.000000 0.5674 0.5709 0.5743 0.5776 0.5809
3350.000000 0.5842 0.5875 0.5908 0.5941 0.5974
3355.000000 0.6008 0.6041 0.6074 0.6107 0.6140
3360.000000 0.6162 0.6184 0.6205 0.6227 0.6249
3365.000000 0.6270 0.6292 0.6313 0.6335 0.6357
3370.000000 0.6378 0.6397 0.6417 0.6436 0.6455
3375.000000 0.6474 0.6493 0.6512 0.6531 0.6551
3380.000000 0.6571 0.6593 0.6614 0.6635 0.6656
3385.000000 0.6678 0.6699 0.6720 0.6742 0.6762
3390.000000 0.6780 0.6799 0.6817 0.6835 0.6853
3395.000000 0.6872 0.6890 0.6908 0.6927 0.6945
3400.000000 0.6963 0.6981 0.7000 0.7021 0.7043
3405.000000 0.7066 0.7089 0.7109 0.7124 0.7139
3410.000000 0.7154 0.7169 0.7184 0.7199 0.7213
3415.000000 0.7228 0.7243 0.7258 0.7272 0.7282
3420.000000 0.7292 0.7301 0.7311 0.7321 0.7330
3425.000000 0.7340 0.7350 0.7359 0.7369 0.7379
3430.000000 0.7389 0.7398 0.7408 0.7418 0.7427
3435.000000 0.7437 0.7447 0.7456 0.7466 0.7476
3440.000000 0.7485 0.7495 0.7505 0.7514 0.7524
3445.000000 0.7534 0.7543 0.7553 0.7563 0.7572
3450.000000 0.7582 0.7592 0.7601 0.7611 0.7619
3455.000000 0.7627 0.7635 0.7642 0.7650 0.7658
3460.000000 0.7666 0.7674 0.7682 0.7690 0.7698
3465.000000 0.7705 0.7713 0.7721 0.7729 0.7737
3470.000000 0.7745 0.7753 0.7761 0.7768 0.7776
3475.000000 0.7784 0.7792 0.7800 0.7808 0.7816
3480.000000 0.7824 0.7831 0.7839 0.7847 0.7855
3485.000000 0.7863 0.7871 0.7878 0.7886 0.7894
3490.000000 0.7902 0.7909 0.7917 0.7925 0.7932
3495.000000 0.7940 0.7948 0.7955 0.7963 0.7971
3500.000000 0.7978 0.7986 0.7993 0.8001 0.8009
3505.000000 0.8016 0.8024 0.8032 0.8039 0.8047
3510.000000 0.8054 0.8062 0.8070 0.8077 0.8085
3515.000000 0.8093 0.8100 0.8108 0.8115 0.8123
3520.000000 0.8131 0.8138 0.8146 0.8154 0.8161
3525.000000 0.8169 0.8177 0.8185 0.8193 0.8202
3530.000000 0.8210 0.8219 0.8227 0.8235 0.8244
3535.000000 0.8252 0.8261 0.8269 0.8278 0.8287
3540.000000 0.8296 0.8305 0.8313 0.8322 0.8331
3545.000000 0.8340 0.8348 0.8360 0.8373 0.8388
3550.000000 0.8403 0.8416 0.8428 0.8441 0.8453
3555.000000 0.8462 0.8467 0.8472 0.8474 0.8476
3560.000000 0.8478 0.8480 0.8481 0.8482 0.8483
3565.000000 0.8484 0.8485 0.8491 0.8496 0.8502
3570.000000 0.8508 0.8514 0.8519 0.8526 0.8535
3575.000000 0.8544 0.8552 0.8561 0.8570 0.8579
3580.000000 0.8587 0.8596 0.8605 0.8613 0.8620
3585.000000 0.8627 0.8634 0.8642 0.8649 0.8656
3590.000000 0.8663 0.8670 0.8675 0.8680 0.8684
3595.000000 0.8689 0.8693 0.8698 0.8702 0.8707
3600.000000 0.8712 0.8716 0.8721 0.8725 0.8730
3605.000000 0.8734 0.8739 0.8743 0.8748 0.8752
3610.000000 0.8757 0.8762 0.8767 0.8772 0.8777
3615.000000 0.8783 0.8788 0.8793 0.8799 0.8804
3620.000000 0.8809 0.8815 0.8820 0.8825 0.8831
3625.000000 0.8836 0.8841 0.8846 0.8849 0.8851
3630.000000 0.8854 0.8857 0.8860 0.8863 0.8866
3635.000000 0.8869 0.8872 0.8875 0.8878 0.8880
3640.000000 0.8883 0.8886 0.8887 0.8888 0.8890
3645.000000 0.8891 0.8893 0.8894 0.8871 0.8897
3650.000000 0.8897 0.8895 0.8893 0.8891 0.8889
3655.000000 0.8887 0.8885 0.8884 0.8882 0.8880
3660.000000 0.8878 0.8876 0.8874 0.8872 0.8870
3665.000000 0.8868 0.8866 0.8866 0.8865 0.8865
3670.000000 0.8864 0.8864 0.8863 0.8863 0.8862
3675.000000 0.8862 0.8861 0.8861 0.8860 0.8860
3680.000000 0.8859 0.8859 0.8858 0.8860 0.8862
3685.000000 0.8864 0.8866 0.8868 0.8870 0.8872
3690.000000 0.8874 0.8876 0.8878 0.8879 0.8877
3695.000000 0.8876 0.8875 0.8874 0.8873 0.8872
3700.000000 0.8870 0.8869 0.8868 0.8867 0.8866
3705.000000 0.8865 0.8863 0.8862 0.8860 0.8859
3710.000000 0.8858 0.8856 0.8855 0.8853 0.8852
3715.000000 0.8851 0.8849 0.8848 0.8846 0.8845
3720.000000 0.8844 0.8843 0.8842 0.8840 0.8839
3725.000000 0.8838 0.8837 0.8836 0.8835 0.8833
3730.000000 0.8832 0.8831 0.8830 0.8829 0.8828
3735.000000 0.8826 0.8825 0.8824 0.8823 0.8822
3740.000000 0.8820 0.8819 0.8818 0.8817 0.8815
3745.000000 0.8814 0.8813 0.8811 0.8810 0.8809
3750.000000 0.8808 0.8806 0.8805 0.8804 0.8802
3755.000000 0.8801 0.8800 0.8799 0.8797 0.8796
3760.000000 0.8795 0.8793 0.8792 0.8791 0.8790
3765.000000 0.8788 0.8787 0.8786 0.8784 0.8782
3770.000000 0.8780 0.8778 0.8777 0.8775 0.8773
3775.000000 0.8771 0.8769 0.8768 0.8766 0.8764
3780.000000 0.8762 0.8760 0.8759 0.8757 0.8755
3785.000000 0.8753 0.8751 0.8749 0.8748 0.8746
3790.000000 0.8744 0.8742 0.8740 0.8739 0.8737
3795.000000 0.8736 0.8734 0.8733 0.8731 0.8729
3800.000000 0.8728 0.8726 0.8725 0.8723 0.8721
3805.000000 0.8720 0.8718 0.8717 0.8715 0.8714
3810.000000 0.8712 0.8710 0.8709 0.8707 0.8706
3815.000000 0.8704 0.8703 0.8701 0.8699 0.8698
3820.000000 0.8696 0.8695 0.8693 0.8692 0.8690
3825.000000 0.8689 0.8688 0.8686 0.8685 0.8683
3830.000000 0.8682 0.8680 0.8679 0.8677 0.8676
3835.000000 0.8674 0.8673 0.8671 0.8670 0.8668
3840.000000 0.8667 0.8665 0.8663 0.8660 0.8658
3845.000000 0.8655 0.8653 0.8651 0.8648 0.8646
3850.000000 0.8643 0.8641 0.8638 0.8636 0.8634
3855.000000 0.8631 0.8629 0.8626 0.8624 0.8622
3860.000000 0.8619 0.8617 0.8614 0.8612 0.8610
3865.000000 0.8607 0.8605 0.8602 0.8600 0.8598
3870.000000 0.8597 0.8596 0.8596 0.8595 0.8594
3875.000000 0.8593 0.8592 0.8591 0.8590 0.8589
3880.000000 0.8588 0.8587 0.8586 0.8585 0.8585
3885.000000 0.8584 0.8583 0.8582 0.8581 0.8580
3890.000000 0.8579 0.8578 0.8577 0.8576 0.8575
3895.000000 0.8575 0.8574 0.8573 0.8572 0.8571
3900.000000 0.8570 0.8569 0.8569 0.8568 0.8567
3905.000000 0.8566 0.8565 0.8565 0.8564 0.8563
3910.000000 0.8562 0.8561 0.8560 0.8560 0.8559
3915.000000 0.8558 0.8557 0.8556 0.8555 0.8555
3920.000000 0.8554 0.8553 0.8552 0.8551 0.8549
3925.000000 0.8548 0.8547 0.8546 0.8545 0.8544
3930.000000 0.8543 0.8542 0.8541 0.8540 0.8539
3935.000000 0.8538 0.8537 0.8536 0.8535 0.8534
3940.000000 0.8534 0.8533 0.8532 0.8532 0.8531
3945.000000 0.8531 0.8530 0.8529 0.8529 0.8528
3950.000000 0.8545 0.8527 0.8526 0.8526 0.8525
3955.000000 0.8525 0.8524 0.8524 0.8523 0.8522
3960.000000 0.8522 0.8521 0.8520 0.8519 0.8518
3965.000000 0.8517 0.8516 0.8515 0.8514 0.8513
3970.000000 0.8512 0.8511 0.8509 0.8508 0.8507
3975.000000 0.8506 0.8505 0.8504 0.8503 0.8502
3980.000000 0.8500 0.8499 0.8499 0.8498 0.8497
3985.000000 0.8496 0.8495 0.8494 0.8493 0.8492
3990.000000 0.8491 0.8490 0.8489 0.8488 0.8490
3995.000000 0.8493 0.8497 0.8500 0.8504 0.8507
4000.000000 0.8508
##END=
