##TITLE=CALCIO ACETOACETIC ESTER
##JCAMP-DX=4.24
##DATA TYPE=INFRARED SPECTRUM
##CLASS=COBLENTZ
##ORIGIN=ABBOTT LABORATORIES
##OWNER=COBLENTZ SOCIETY
Collection (C) 2018 copyright by the U.S. Secretary of Commerce
on behalf of the United States of America. All rights reserved.
##DATE=1960
##MOLFORM=C12 H18 Ca O6
##SOURCE REFERENCE=COBLENTZ NO. 899
##$NIST ID=B6000899
##$NIST SOURCE=COBLENTZ
##$NIST IMAGE=cob899
##SPECTROMETER/DATA SYSTEM=Not specified, most likely a grating spectrometer.
##STATE=SOLID (KBr PELLET)
##SAMPLING PROCEDURE=TRANSMISSION
##RESOLUTION=4
##DATA PROCESSING=DIGITIZED BY NIST FROM HARD COPY
##XUNITS=MICROMETERS
##YUNITS=TRANSMITTANCE
##XFACTOR=1.000000
##YFACTOR=1
##DELTAX=000.007208
##FIRSTX=2
##LASTX=15.4585
##FIRSTY=0.685
##MAXX=15.4585
##MINX=2
##MAXY=0.776
##MINY=0.024
##NPOINTS=1868
##XYDATA=(X++(Y..Y))
2.000000 0.6850 0.6850 0.6850 0.6850 0.6850
2.036061 0.6870 0.6870 0.6870 0.6870 0.6890
2.072000 0.6890 0.6890 0.6890 0.6890 0.6900
2.108061 0.6900 0.6900 0.6900 0.6900 0.6900
2.144000 0.6920 0.6920 0.6920 0.6940 0.6940
2.180061 0.6940 0.6940 0.6940 0.6960 0.6960
2.216000 0.6960 0.6960 0.6960 0.6960 0.6980
2.252061 0.6960 0.6960 0.6940 0.6940 0.6940
2.288000 0.6940 0.6960 0.6960 0.6960 0.6960
2.324061 0.6960 0.6980 0.6980 0.6980 0.6990
2.360000 0.6990 0.6990 0.7010 0.7010 0.7030
2.396061 0.7030 0.7030 0.7030 0.7030 0.7030
2.433000 0.7030 0.7030 0.7030 0.7030 0.7030
2.469061 0.7030 0.7060 0.7060 0.7080 0.7100
2.505000 0.7120 0.7120 0.7140 0.7150 0.7170
2.541061 0.7190 0.7190 0.7210 0.7210 0.7220
2.577000 0.7220 0.7220 0.7220 0.7220 0.7220
2.613061 0.7220 0.7220 0.7220 0.7240 0.7260
2.649000 0.7300 0.7310 0.7310 0.7310 0.7310
2.685061 0.7310 0.7300 0.7300 0.7280 0.7240
2.721000 0.7120 0.7100 0.7100 0.7100 0.7190
2.757061 0.7170 0.7170 0.7170 0.7140 0.7100
2.793000 0.7060 0.7030 0.7010 0.6980 0.6960
2.829061 0.6940 0.6940 0.6940 0.6920 0.6920
2.865000 0.6920 0.6920 0.6900 0.6900 0.6900
2.901061 0.6900 0.6900 0.6920 0.6940 0.6960
2.937000 0.6940 0.6940 0.6960 0.6980 0.6990
2.973061 0.7010 0.7050 0.7050 0.7080 0.7100
3.009000 0.7100 0.7100 0.7100 0.7100 0.7080
3.045061 0.7030 0.6990 0.6990 0.7050 0.7080
3.081000 0.7100 0.7100 0.7120 0.7150 0.7170
3.117061 0.7170 0.7190 0.7190 0.7210 0.7190
3.153000 0.7190 0.7190 0.7190 0.7190 0.7190
3.189061 0.7190 0.7190 0.7190 0.7190 0.7190
3.225000 0.7190 0.7190 0.7190 0.7190 0.7190
3.261061 0.7190 0.7190 0.7170 0.7080 0.6980
3.298000 0.6850 0.6710 0.6260 0.5870 0.5150
3.334061 0.4860 0.4900 0.5070 0.5250 0.5410
3.370000 0.5710 0.5890 0.5910 0.5930 0.5950
3.406061 0.5960 0.5980 0.5980 0.6000 0.6110
3.442000 0.6250 0.6370 0.6500 0.6600 0.6710
3.478061 0.6820 0.6900 0.6980 0.7050 0.7100
3.514000 0.7140 0.7170 0.7190 0.7190 0.7210
3.550061 0.7220 0.7240 0.7260 0.7280 0.7300
3.586000 0.7310 0.7310 0.7330 0.7330 0.7350
3.622061 0.7350 0.7380 0.7400 0.7420 0.7440
3.658000 0.7460 0.7460 0.7460 0.7470 0.7470
3.694061 0.7470 0.7490 0.7490 0.7490 0.7510
3.730000 0.7510 0.7510 0.7510 0.7510 0.7530
3.766061 0.7540 0.7540 0.7540 0.7560 0.7580
3.802000 0.7600 0.7610 0.7630 0.7610 0.7630
3.838061 0.7630 0.7630 0.7650 0.7630 0.7630
3.874000 0.7650 0.7670 0.7670 0.7690 0.7670
3.910061 0.7690 0.7690 0.7690 0.7690 0.7670
3.946000 0.7670 0.7650 0.7650 0.7630 0.7610
3.982061 0.7610 0.7610 0.7580 0.7530 0.7470
4.018000 0.7420 0.7420 0.7380 0.7370 0.7380
4.054061 0.7400 0.7470 0.7490 0.7510 0.7530
4.090000 0.7540 0.7560 0.7580 0.7580 0.7600
4.126061 0.7580 0.7580 0.7580 0.7510 0.7510
4.163000 0.7490 0.7510 0.7510 0.7510 0.7530
4.199061 0.7560 0.7600 0.7600 0.7610 0.7610
4.235000 0.7630 0.7650 0.7650 0.7670 0.7670
4.271061 0.7700 0.7740 0.7760 0.7760 0.7760
4.307000 0.7760 0.7760 0.7760 0.7720 0.7650
4.343061 0.7610 0.7600 0.7580 0.7580 0.7580
4.379000 0.7600 0.7610 0.7610 0.7610 0.7630
4.415061 0.7650 0.7670 0.7670 0.7650 0.7650
4.451000 0.7650 0.7650 0.7650 0.7650 0.7650
4.487061 0.7650 0.7630 0.7630 0.7650 0.7650
4.523000 0.7650 0.7650 0.7650 0.7650 0.7650
4.559061 0.7650 0.7650 0.7630 0.7630 0.7630
4.595000 0.7630 0.7600 0.7580 0.7540 0.7510
4.631061 0.7420 0.7420 0.7420 0.7420 0.7420
4.667000 0.7420 0.7420 0.7440 0.7470 0.7490
4.703061 0.7490 0.7490 0.7470 0.7490 0.7490
4.739000 0.7490 0.7510 0.7510 0.7510 0.7510
4.775061 0.7470 0.7440 0.7440 0.7420 0.7420
4.811000 0.7440 0.7460 0.7470 0.7490 0.7490
4.847061 0.7470 0.7470 0.7470 0.7460 0.7420
4.883000 0.7380 0.7370 0.7310 0.7310 0.7310
4.919061 0.7300 0.7310 0.7330 0.7370 0.7380
4.955000 0.7370 0.7350 0.7330 0.7350 0.7330
4.991061 0.7330 0.7280 0.7240 0.7190 0.7120
5.028000 0.7100 0.7100 0.7100 0.7120 0.7170
5.064061 0.7170 0.7170 0.7140 0.7080 0.7100
5.100000 0.7100 0.7050 0.7030 0.7010 0.6990
5.136061 0.6960 0.6940 0.6900 0.6870 0.6820
5.172000 0.6780 0.6730 0.6710 0.6670 0.6670
5.208061 0.6690 0.6710 0.6740 0.6760 0.6800
5.244000 0.6800 0.6800 0.6780 0.6740 0.6730
5.280061 0.6690 0.6690 0.6640 0.6620 0.6600
5.316000 0.6580 0.6550 0.6530 0.6500 0.6510
5.352061 0.6500 0.6480 0.6480 0.6440 0.6440
5.388000 0.6440 0.6420 0.6410 0.6410 0.6370
5.424061 0.6340 0.6260 0.6250 0.6210 0.6180
5.460000 0.6180 0.6160 0.6140 0.6120 0.6110
5.496061 0.6110 0.6090 0.6030 0.6030 0.6020
5.532000 0.5980 0.5960 0.5930 0.5930 0.5890
5.568061 0.5860 0.5800 0.5770 0.5750 0.5730
5.604000 0.5660 0.5590 0.5570 0.5520 0.5520
5.640061 0.5500 0.5470 0.5410 0.5340 0.5310
5.676000 0.5270 0.5160 0.5130 0.5060 0.5040
5.712061 0.5000 0.4920 0.4860 0.4830 0.4810
5.748000 0.4790 0.4760 0.4720 0.4670 0.4650
5.784061 0.4630 0.4600 0.4560 0.4540 0.4490
5.820000 0.4470 0.4450 0.4350 0.4290 0.4240
5.856061 0.4200 0.4170 0.4130 0.4130 0.4060
5.893000 0.3990 0.3940 0.3870 0.3800 0.3740
5.929061 0.3690 0.3620 0.3570 0.3490 0.3410
5.965000 0.3330 0.3250 0.3160 0.3090 0.2980
6.001061 0.2890 0.2800 0.2690 0.2590 0.2430
6.037000 0.2380 0.2230 0.2110 0.1950 0.1820
6.073061 0.1560 0.1400 0.1260 0.1170 0.1100
6.109000 0.1010 0.0880 0.0760 0.0740 0.0740
6.145061 0.0760 0.0850 0.1030 0.1290 0.1560
6.181000 0.1810 0.1950 0.2090 0.2180 0.2360
6.217061 0.2520 0.2590 0.2610 0.2690 0.2780
6.253000 0.2870 0.2960 0.3050 0.3070 0.3070
6.289061 0.3010 0.2660 0.2340 0.2340 0.2380
6.325000 0.2460 0.2550 0.2750 0.2930 0.3000
6.361061 0.3070 0.3140 0.3160 0.3160 0.3160
6.397000 0.3120 0.3050 0.2890 0.2730 0.2550
6.433061 0.2250 0.2110 0.1970 0.1840 0.1740
6.469000 0.1630 0.1520 0.1490 0.1420 0.1380
6.505061 0.1330 0.1310 0.1270 0.1220 0.1190
6.541000 0.1080 0.0970 0.0850 0.0810 0.0780
6.577061 0.0780 0.0740 0.0740 0.0720 0.0720
6.613000 0.0720 0.0740 0.0790 0.0790 0.0940
6.649061 0.1080 0.1220 0.1380 0.1580 0.1820
6.685000 0.2110 0.2250 0.2360 0.2390 0.2450
6.721061 0.2590 0.2730 0.2730 0.2680 0.2660
6.758000 0.2660 0.2660 0.2870 0.3120 0.3260
6.794061 0.3350 0.3460 0.3530 0.3550 0.3620
6.830000 0.3600 0.3580 0.3490 0.3370 0.3330
6.866061 0.3300 0.3260 0.3250 0.3230 0.3260
6.902000 0.3320 0.3410 0.3420 0.3370 0.3320
6.938061 0.3260 0.3250 0.3230 0.3210 0.3170
6.974000 0.3120 0.3100 0.3050 0.3030 0.2960
7.010061 0.2820 0.2640 0.2250 0.2070 0.1900
7.046000 0.1790 0.1720 0.1610 0.1540 0.1450
7.082061 0.1450 0.1500 0.1650 0.1790 0.1930
7.118000 0.2110 0.2290 0.2480 0.2590 0.2690
7.154061 0.2890 0.3070 0.3260 0.3420 0.3570
7.190000 0.3670 0.3780 0.3850 0.3870 0.3900
7.226061 0.3970 0.4040 0.4150 0.4310 0.4450
7.262000 0.4600 0.4650 0.4770 0.4830 0.4830
7.298061 0.4810 0.4360 0.4240 0.4240 0.4260
7.334000 0.4680 0.4880 0.5060 0.5070 0.5070
7.370061 0.5040 0.4540 0.4540 0.4680 0.5000
7.406000 0.5310 0.5730 0.6020 0.6190 0.6300
7.442061 0.6340 0.6390 0.6460 0.6580 0.6660
7.478000 0.6710 0.6740 0.6800 0.6820 0.6830
7.514061 0.6870 0.6870 0.6870 0.6870 0.6870
7.550000 0.6850 0.6830 0.6800 0.6760 0.6710
7.586061 0.6640 0.6580 0.6510 0.6440 0.6350
7.623000 0.6280 0.6190 0.6110 0.6020 0.5910
7.659061 0.5840 0.5770 0.5700 0.5590 0.5470
7.695000 0.5250 0.5180 0.5070 0.4860 0.4760
7.731061 0.4650 0.4520 0.4420 0.4290 0.4240
7.767000 0.4120 0.4010 0.3900 0.3810 0.3690
7.803061 0.3580 0.3440 0.3330 0.3230 0.3120
7.839000 0.3010 0.2910 0.2800 0.2680 0.2570
7.875061 0.2360 0.2250 0.2130 0.2020 0.1900
7.911000 0.1770 0.1650 0.1520 0.1380 0.1340
7.947061 0.1270 0.1170 0.1060 0.0950 0.0830
7.983000 0.0740 0.0690 0.0650 0.0560 0.0550
8.019061 0.0530 0.0470 0.0460 0.0420 0.0350
8.055000 0.0260 0.0240 0.0240 0.0240 0.0280
8.091061 0.0330 0.0420 0.0530 0.0670 0.0810
8.127000 0.0970 0.1110 0.1260 0.1380 0.1490
8.163061 0.1560 0.1650 0.1720 0.1810 0.1900
8.199000 0.2040 0.2180 0.2290 0.2390 0.2450
8.235061 0.2500 0.2590 0.2680 0.2780 0.2870
8.271000 0.2960 0.3050 0.3160 0.3260 0.3390
8.307061 0.3510 0.3650 0.3810 0.3990 0.4190
8.343000 0.4400 0.4630 0.4920 0.5020 0.5130
8.379061 0.5320 0.5520 0.5550 0.5680 0.5680
8.415000 0.5640 0.5450 0.5230 0.5000 0.4520
8.451061 0.4260 0.3970 0.3670 0.3350 0.3010
8.488000 0.2640 0.1950 0.1590 0.1310 0.1200
8.524061 0.0850 0.0830 0.0830 0.0880 0.0940
8.560000 0.1040 0.1310 0.1430 0.1520 0.1610
8.596061 0.1700 0.1810 0.1900 0.1980 0.2070
8.632000 0.2180 0.2270 0.2380 0.2460 0.2520
8.668061 0.2550 0.2660 0.2750 0.2840 0.2930
8.704000 0.3010 0.3100 0.3170 0.3250 0.3330
8.740061 0.3410 0.3460 0.3530 0.3580 0.3620
8.776000 0.3740 0.3800 0.3830 0.3850 0.3920
8.812061 0.4040 0.4060 0.4120 0.4200 0.4280
8.848000 0.4360 0.4400 0.4470 0.4510 0.4540
8.884061 0.4610 0.4670 0.4740 0.4790 0.4840
8.920000 0.4880 0.4970 0.4990 0.5000 0.5000
8.956061 0.5060 0.5110 0.5150 0.5150 0.5130
8.992000 0.5040 0.4880 0.4830 0.4740 0.4700
9.028061 0.4680 0.4760 0.4950 0.5020 0.5090
9.064000 0.5180 0.5270 0.5380 0.5480 0.5550
9.100061 0.5630 0.5680 0.5750 0.5800 0.5860
9.136000 0.5910 0.5960 0.6020 0.6070 0.6140
9.172061 0.6190 0.6230 0.6280 0.6320 0.6350
9.208000 0.6390 0.6420 0.6420 0.6370 0.6340
9.244061 0.6260 0.6160 0.6020 0.5870 0.5710
9.280000 0.5540 0.5360 0.5160 0.4840 0.4680
9.316061 0.4520 0.4310 0.4100 0.3870 0.3620
9.353000 0.3390 0.3160 0.2980 0.2750 0.2290
9.389061 0.2230 0.2180 0.1930 0.1910 0.1910
9.425000 0.1910 0.1910 0.1930 0.2090 0.2180
9.461061 0.2290 0.2410 0.2480 0.2550 0.2690
9.497000 0.2850 0.3010 0.3170 0.3320 0.3480
9.533061 0.3600 0.3730 0.3810 0.3970 0.4040
9.569000 0.4200 0.4290 0.4420 0.4520 0.4670
9.605061 0.4770 0.4900 0.4970 0.5000 0.5020
9.641000 0.5020 0.5110 0.5130 0.5150 0.5130
9.677061 0.5110 0.4930 0.4740 0.4630 0.4470
9.713000 0.4330 0.4170 0.4060 0.4010 0.3960
9.749061 0.3800 0.3650 0.3460 0.3090 0.2910
9.785000 0.2730 0.2550 0.2270 0.2110 0.1910
9.821061 0.1900 0.1900 0.1900 0.1930 0.2020
9.857000 0.2090 0.2200 0.2290 0.2410 0.2480
9.893061 0.2530 0.2660 0.2800 0.2960 0.3120
9.929000 0.3300 0.3460 0.3600 0.3730 0.3830
9.965061 0.3940 0.4040 0.4150 0.4260 0.4360
10.001000 0.4490 0.4600 0.4720 0.4840 0.4990
10.037061 0.5000 0.5020 0.5110 0.5250 0.5380
10.073000 0.5500 0.5570 0.5630 0.5700 0.5710
10.109061 0.5730 0.5710 0.5710 0.5630 0.5340
10.145000 0.5130 0.4600 0.4360 0.3920 0.3620
10.181061 0.3210 0.2980 0.2680 0.2180 0.1930
10.218000 0.1680 0.1650 0.1650 0.1660 0.1700
10.254061 0.1750 0.1820 0.1900 0.1980 0.2090
10.290000 0.2220 0.2300 0.2380 0.2450 0.2480
10.326061 0.2500 0.2500 0.2300 0.2220 0.2130
10.362000 0.2000 0.1930 0.1930 0.1950 0.2000
10.398061 0.2060 0.2230 0.2380 0.2480 0.2550
10.434000 0.2620 0.2690 0.2780 0.2890 0.3010
10.470061 0.3120 0.3210 0.3260 0.3320 0.3370
10.506000 0.3410 0.3460 0.3510 0.3570 0.3620
10.542061 0.3730 0.3810 0.3850 0.3880 0.3920
10.578000 0.3960 0.4010 0.4040 0.4100 0.4130
10.614061 0.4190 0.4240 0.4290 0.4330 0.4360
10.650000 0.4400 0.4420 0.4420 0.4420 0.4470
10.686061 0.4510 0.4540 0.4600 0.4630 0.4610
10.722000 0.4630 0.4650 0.4680 0.4700 0.4740
10.758061 0.4770 0.4810 0.4830 0.4840 0.4880
10.794000 0.4930 0.4970 0.5000 0.5000 0.5020
10.830061 0.5040 0.5060 0.5060 0.5070 0.5070
10.866000 0.5090 0.5110 0.5130 0.5130 0.5150
10.902061 0.5150 0.5160 0.5180 0.5180 0.5180
10.938000 0.5200 0.5200 0.5220 0.5250 0.5270
10.974061 0.5270 0.5290 0.5290 0.5310 0.5310
11.010000 0.5310 0.5320 0.5320 0.5320 0.5340
11.046061 0.5360 0.5430 0.5430 0.5450 0.5430
11.083000 0.5450 0.5470 0.5450 0.5450 0.5480
11.119061 0.5480 0.5500 0.5550 0.5550 0.5540
11.155000 0.5540 0.5520 0.5520 0.5520 0.5500
11.191061 0.5520 0.5520 0.5540 0.5570 0.5610
11.227000 0.5610 0.5630 0.5640 0.5680 0.5700
11.263061 0.5710 0.5710 0.5700 0.5710 0.5710
11.299000 0.5710 0.5710 0.5730 0.5790 0.5790
11.335061 0.5800 0.5800 0.5800 0.5800 0.5820
11.371000 0.5860 0.5860 0.5860 0.5860 0.5870
11.407061 0.5890 0.5910 0.5930 0.5930 0.5930
11.443000 0.5930 0.5910 0.5870 0.5820 0.5800
11.479061 0.5800 0.5800 0.5820 0.5820 0.5820
11.515000 0.5820 0.5820 0.5820 0.5800 0.5710
11.551061 0.5680 0.5640 0.5520 0.5430 0.5310
11.587000 0.5200 0.5110 0.5070 0.4880 0.4840
11.623061 0.4880 0.4920 0.4990 0.5020 0.5040
11.659000 0.5110 0.5180 0.5290 0.5380 0.5470
11.695061 0.5540 0.5590 0.5660 0.5700 0.5750
11.731000 0.5800 0.5860 0.5870 0.5890 0.5910
11.767061 0.5960 0.6000 0.6030 0.6090 0.6110
11.803000 0.6120 0.6140 0.6180 0.6210 0.6230
11.839061 0.6250 0.6260 0.6280 0.6280 0.6280
11.875000 0.6300 0.6320 0.6340 0.6370 0.6370
11.911061 0.6390 0.6390 0.6410 0.6440 0.6480
11.948000 0.6500 0.6530 0.6550 0.6550 0.6550
11.984061 0.6570 0.6570 0.6600 0.6620 0.6640
12.020000 0.6670 0.6690 0.6690 0.6710 0.6710
12.056061 0.6730 0.6740 0.6760 0.6760 0.6780
12.092000 0.6800 0.6800 0.6820 0.6850 0.6850
12.128061 0.6870 0.6890 0.6900 0.6900 0.6900
12.164000 0.6920 0.6940 0.6940 0.6960 0.6960
12.200061 0.6960 0.6960 0.6980 0.6990 0.6990
12.236000 0.6990 0.7010 0.7010 0.7010 0.7030
12.272061 0.7030 0.7060 0.7060 0.7060 0.7080
12.308000 0.7080 0.7080 0.7100 0.7100 0.7080
12.344061 0.7060 0.7060 0.7080 0.7100 0.7080
12.380000 0.7080 0.7100 0.7100 0.7120 0.7170
12.416061 0.7190 0.7210 0.7220 0.7220 0.7240
12.452000 0.7280 0.7300 0.7300 0.7310 0.7310
12.488061 0.7330 0.7350 0.7370 0.7330 0.7330
12.524000 0.7300 0.7150 0.7060 0.7010 0.6960
12.560061 0.6890 0.6740 0.6480 0.6210 0.6090
12.596000 0.5930 0.5750 0.5550 0.5320 0.5060
12.632061 0.4400 0.4010 0.3570 0.3070 0.2690
12.668000 0.2090 0.1740 0.1500 0.1360 0.1310
12.704061 0.1310 0.1340 0.1430 0.1500 0.1610
12.740000 0.1770 0.1950 0.2160 0.2380 0.2480
12.776061 0.2570 0.2730 0.2850 0.2910 0.3050
12.813000 0.3210 0.3350 0.3460 0.3550 0.3650
12.849061 0.3760 0.3920 0.4120 0.4190 0.4260
12.885000 0.4420 0.4560 0.4670 0.4700 0.4770
12.921061 0.4880 0.4950 0.4990 0.5020 0.5060
12.957000 0.5130 0.5200 0.5270 0.5360 0.5380
12.993061 0.5380 0.5380 0.5380 0.5380 0.5360
13.029000 0.5360 0.5340 0.5320 0.5320 0.5270
13.065061 0.5220 0.5180 0.5180 0.5160 0.5160
13.101000 0.5160 0.5160 0.5180 0.5230 0.5290
13.137061 0.5320 0.5380 0.5380 0.5380 0.5380
13.173000 0.5410 0.5480 0.5520 0.5540 0.5520
13.209061 0.5550 0.5550 0.5610 0.5680 0.5730
13.245000 0.5790 0.5820 0.5890 0.5950 0.5980
13.281061 0.6000 0.6030 0.6070 0.6120 0.6140
13.317000 0.6180 0.6210 0.6250 0.6320 0.6370
13.353061 0.6370 0.6410 0.6460 0.6480 0.6480
13.389000 0.6480 0.6500 0.6500 0.6500 0.6500
13.425061 0.6480 0.6370 0.6300 0.6090 0.5860
13.461000 0.5470 0.5150 0.4540 0.4290 0.4030
13.497061 0.3740 0.3410 0.3230 0.3070 0.2960
13.533000 0.2960 0.3070 0.3210 0.3370 0.3570
13.569061 0.3760 0.3960 0.4080 0.4150 0.4240
13.606000 0.4360 0.4510 0.4630 0.4700 0.4720
13.642061 0.4790 0.4860 0.4990 0.5020 0.5040
13.678000 0.5130 0.5200 0.5220 0.5230 0.5290
13.714061 0.5320 0.5380 0.5410 0.5470 0.5480
13.750000 0.5480 0.5500 0.5520 0.5550 0.5570
13.786061 0.5590 0.5610 0.5630 0.5630 0.5640
13.822000 0.5680 0.5710 0.5710 0.5730 0.5790
13.858061 0.5790 0.5800 0.5820 0.5820 0.5820
13.894000 0.5820 0.5820 0.5840 0.5860 0.5870
13.930061 0.5890 0.5930 0.5950 0.5960 0.5960
13.966000 0.5980 0.5980 0.6000 0.6020 0.6020
14.002061 0.6030 0.6030 0.6070 0.6090 0.6110
14.038000 0.6120 0.6120 0.6120 0.6110 0.6110
14.074061 0.6110 0.6120 0.6160 0.6210 0.6210
14.110000 0.6210 0.6230 0.6230 0.6230 0.6230
14.146061 0.6250 0.6230 0.6190 0.6180 0.6180
14.182000 0.6260 0.6260 0.6260 0.6260 0.6260
14.218061 0.6250 0.6210 0.6210 0.6210 0.6260
14.254000 0.6280 0.6280 0.6300 0.6320 0.6340
14.290061 0.6350 0.6370 0.6370 0.6370 0.6350
14.326000 0.6350 0.6350 0.6350 0.6350 0.6370
14.362061 0.6370 0.6370 0.6370 0.6370 0.6390
14.398000 0.6370 0.6390 0.6420 0.6460 0.6460
14.434061 0.6480 0.6460 0.6480 0.6500 0.6510
14.471000 0.6510 0.6500 0.6500 0.6480 0.6420
14.507061 0.6420 0.6480 0.6480 0.6480 0.6480
14.543000 0.6500 0.6510 0.6510 0.6510 0.6510
14.579061 0.6510 0.6510 0.6510 0.6510 0.6510
14.615000 0.6510 0.6550 0.6510 0.6510 0.6510
14.651061 0.6500 0.6510 0.6510 0.6510 0.6510
14.687000 0.6510 0.6510 0.6530 0.6530 0.6510
14.723061 0.6510 0.6500 0.6510 0.6530 0.6530
14.759000 0.6530 0.6530 0.6530 0.6570 0.6570
14.795061 0.6510 0.6510 0.6510 0.6530 0.6570
14.831000 0.6570 0.6570 0.6570 0.6550 0.6550
14.867061 0.6570 0.6570 0.6570 0.6570 0.6580
14.903000 0.6570 0.6580 0.6580 0.6580 0.6580
14.939061 0.6570 0.6570 0.6550 0.6550 0.6550
14.975000 0.6550 0.6550 0.6570 0.6600 0.6640
15.011061 0.6660 0.6660 0.6660 0.6670 0.6670
15.047000 0.6690 0.6660 0.6660 0.6670 0.6660
15.083061 0.6660 0.6640 0.6640 0.6660 0.6660
15.119000 0.6660 0.6660 0.6690 0.6690 0.6670
15.155061 0.6670 0.6670 0.6690 0.6670 0.6670
15.191000 0.6670 0.6670 0.6670 0.6690 0.6690
15.227061 0.6690 0.6690 0.6690 0.6690 0.6690
15.263000 0.6690 0.6690 0.6710 0.6690 0.6690
15.299061 0.6670 0.6670 0.6670 0.6670 0.6670
15.336000 0.6670 0.6690 0.6710 0.6740 0.6740
15.372061 0.6730 0.6730 0.6710 0.6710 0.6690
15.408000 0.6690 0.6690 0.6690 0.6690 0.6690
15.444061 0.6730 0.6780 0.6780
##END=
