##TITLE=M-PHENYLENEDIAMINE DIHYDROCHLORIDE
$$ E.K. (W.L.)
##JCAMP-DX=4.24
##DATA TYPE=INFRARED SPECTRUM
##CLASS=COBLENTZ
##ORIGIN=WYANDOTTE CHEMICALS CORP., WYANDOTTE, MICHIGAN, USA
##OWNER=COBLENTZ SOCIETY
Collection (C) 2018 copyright by the U.S. Secretary of Commerce
on behalf of the United States of America. All rights reserved.
##DATE=Not specified, most likely prior to 1970
##MOLFORM=C6 H10 Cl2 N2
##SOURCE REFERENCE=COBLENTZ NO. 1458
##$NIST ID=B6001458
##$NIST SOURCE=COBLENTZ
##$NIST IMAGE=cob1458
##SPECTROMETER/DATA SYSTEM=Not specified, most likely a prism, grating, or hybrid spectrometer.
##STATE=SOLID (MINERAL OIL MULL)
##PATH LENGTH=
$$SPECTRAL CONTAMINATION DUE TO OIL AROUND 2900, 1450, 1380 CM^-^1
##SAMPLING PROCEDURE=TRANSMISSION
##RESOLUTION=4
##DATA PROCESSING=DIGITIZED BY NIST FROM HARD COPY
##XUNITS=MICROMETERS
##YUNITS=TRANSMITTANCE
##XFACTOR=1.000000
##YFACTOR=1
##DELTAX=000.006819
##FIRSTX=2.034
##LASTX=16.0064
##FIRSTY=0.382
##MAXX=16.0064
##MINX=2.034
##MAXY=0.935
##MINY=0.037
##NPOINTS=2050
##XYDATA=(X++(Y..Y))
2.034000 0.3820 0.3820 0.3830 0.3850 0.3850
2.068113 0.3870 0.3870 0.3890 0.3890 0.3900
2.102000 0.3900 0.3900 0.3900 0.3940 0.3940
2.136113 0.3950 0.3950 0.3970 0.3990 0.3990
2.170000 0.4010 0.4010 0.4040 0.4060 0.4070
2.204113 0.4090 0.4110 0.4120 0.4140 0.4140
2.239000 0.4160 0.4160 0.4160 0.4180 0.4190
2.273113 0.4190 0.4190 0.4210 0.4230 0.4260
2.307000 0.4300 0.4330 0.4360 0.4380 0.4380
2.341113 0.4400 0.4410 0.4450 0.4500 0.4520
2.375000 0.4520 0.4520 0.4550 0.4590 0.4600
2.409113 0.4620 0.4640 0.4670 0.4690 0.4700
2.443000 0.4720 0.4720 0.4740 0.4740 0.4770
2.477113 0.4810 0.4820 0.4860 0.4890 0.4930
2.511000 0.4960 0.4980 0.5000 0.5000 0.5010
2.545113 0.5010 0.5080 0.5110 0.5130 0.5170
2.580000 0.5180 0.5230 0.5270 0.5300 0.5320
2.614113 0.5340 0.5340 0.5350 0.5370 0.5390
2.648000 0.5420 0.5470 0.5510 0.5510 0.5520
2.682113 0.5580 0.5590 0.5610 0.5630 0.5680
2.716000 0.5690 0.5690 0.5710 0.5750 0.5780
2.750113 0.5810 0.5830 0.5870 0.5900 0.5900
2.784000 0.5920 0.5930 0.5970 0.5980 0.5980
2.818113 0.5980 0.6000 0.6000 0.6020 0.6050
2.852000 0.6090 0.6100 0.6100 0.6100 0.6100
2.886113 0.6100 0.6100 0.6100 0.6120 0.6120
2.921000 0.6140 0.6190 0.6210 0.6220 0.6260
2.955113 0.6270 0.6310 0.6330 0.6330 0.6340
2.989000 0.6380 0.6410 0.6480 0.6500 0.6510
3.023113 0.6530 0.6560 0.6600 0.6620 0.6630
3.057000 0.6670 0.6670 0.6670 0.6670 0.6670
3.091113 0.6650 0.6620 0.6560 0.6480 0.6410
3.125000 0.6330 0.6190 0.6070 0.5980 0.5760
3.159113 0.5580 0.5400 0.5270 0.5080 0.4890
3.193000 0.4700 0.4520 0.4300 0.4110 0.3950
3.227113 0.3680 0.3480 0.3410 0.3320 0.3170
3.262000 0.3080 0.2980 0.2880 0.2780 0.2690
3.296113 0.2590 0.2570 0.2490 0.2280 0.2090
3.330000 0.1990 0.1770 0.1580 0.1390 0.1090
3.364113 0.0870 0.0640 0.0490 0.0470 0.0440
3.398000 0.0400 0.0390 0.0390 0.0370 0.0370
3.432113 0.0370 0.0370 0.0370 0.0390 0.0390
3.466000 0.0400 0.0400 0.0400 0.0400 0.0400
3.500113 0.0400 0.0390 0.0390 0.0400 0.0420
3.534000 0.0440 0.0490 0.0580 0.0710 0.0880
3.568113 0.0980 0.1000 0.1070 0.1120 0.1160
3.603000 0.1220 0.1270 0.1330 0.1390 0.1410
3.637113 0.1430 0.1430 0.1480 0.1480 0.1500
3.671000 0.1530 0.1560 0.1580 0.1620 0.1630
3.705113 0.1650 0.1680 0.1750 0.1800 0.1990
3.739000 0.2030 0.2080 0.2160 0.2210 0.2280
3.773113 0.2330 0.2350 0.2350 0.2330 0.2280
3.807000 0.2200 0.2080 0.2010 0.1990 0.1870
3.841113 0.1790 0.1720 0.1700 0.1680 0.1670
3.875000 0.1560 0.1510 0.1500 0.1460 0.1460
3.909113 0.1460 0.1480 0.1500 0.1510 0.1600
3.943000 0.1620 0.1630 0.1670 0.1700 0.1720
3.977113 0.1770 0.1820 0.1890 0.2030 0.2040
4.012000 0.2110 0.2150 0.2200 0.2210 0.2230
4.046113 0.2260 0.2320 0.2380 0.2490 0.2520
4.080000 0.2590 0.2620 0.2670 0.2710 0.2730
4.114113 0.2780 0.2790 0.2810 0.2860 0.2900
4.148000 0.2910 0.2980 0.3000 0.3020 0.3030
4.182113 0.3070 0.3080 0.3120 0.3170 0.3240
4.216000 0.3310 0.3320 0.3390 0.3430 0.3440
4.250113 0.3460 0.3480 0.3480 0.3490 0.3490
4.284000 0.3510 0.3510 0.3560 0.3600 0.3660
4.318113 0.3700 0.3720 0.3780 0.3870 0.3900
4.353000 0.3970 0.3990 0.4020 0.4070 0.4160
4.387113 0.4260 0.4380 0.4410 0.4500 0.4530
4.421000 0.4570 0.4620 0.4650 0.4690 0.4700
4.455113 0.4720 0.4770 0.4810 0.4820 0.4840
4.489000 0.4880 0.4910 0.4940 0.4960 0.4980
4.523113 0.5000 0.5010 0.5010 0.5050 0.5060
4.557000 0.5060 0.5080 0.5110 0.5110 0.5130
4.591113 0.5170 0.5170 0.5180 0.5200 0.5220
4.625000 0.5220 0.5220 0.5250 0.5270 0.5290
4.659113 0.5300 0.5320 0.5350 0.5390 0.5400
4.694000 0.5420 0.5460 0.5470 0.5510 0.5560
4.728113 0.5660 0.5710 0.5730 0.5780 0.5810
4.762000 0.5850 0.5880 0.5920 0.5920 0.5970
4.796113 0.5980 0.6000 0.6020 0.6070 0.6090
4.830000 0.6120 0.6160 0.6160 0.6140 0.6140
4.864113 0.6120 0.6120 0.6120 0.6120 0.6120
4.898000 0.6120 0.6100 0.6100 0.6120 0.6120
4.932113 0.6140 0.6170 0.6210 0.6240 0.6270
4.966000 0.6310 0.6360 0.6380 0.6390 0.6450
5.000113 0.6460 0.6480 0.6480 0.6480 0.6500
5.035000 0.6500 0.6510 0.6530 0.6530 0.6510
5.069113 0.6510 0.6510 0.6510 0.6560 0.6580
5.103000 0.6580 0.6580 0.6600 0.6600 0.6620
5.137113 0.6620 0.6630 0.6650 0.6670 0.6700
5.171000 0.6720 0.6720 0.6740 0.6740 0.6750
5.205113 0.6770 0.6770 0.6770 0.6790 0.6790
5.239000 0.6790 0.6790 0.6800 0.6820 0.6840
5.273113 0.6860 0.6870 0.6870 0.6870 0.6870
5.307000 0.6860 0.6860 0.6870 0.6870 0.6870
5.341113 0.6870 0.6870 0.6860 0.6860 0.6860
5.376000 0.6860 0.6860 0.6870 0.6870 0.6890
5.410113 0.6890 0.6890 0.6910 0.6910 0.6910
5.444000 0.6920 0.6960 0.6970 0.7010 0.7010
5.478113 0.7030 0.7030 0.7030 0.7030 0.7030
5.512000 0.7030 0.7040 0.7040 0.7040 0.7040
5.546113 0.7040 0.7040 0.7010 0.7010 0.7010
5.580000 0.7010 0.7010 0.7010 0.7010 0.7060
5.614113 0.7080 0.7080 0.7090 0.7090 0.7110
5.648000 0.7130 0.7150 0.7180 0.7210 0.7260
5.682113 0.7300 0.7320 0.7300 0.7300 0.7300
5.717000 0.7300 0.7320 0.7330 0.7380 0.7400
5.751113 0.7440 0.7470 0.7490 0.7500 0.7520
5.785000 0.7550 0.7550 0.7550 0.7440 0.7440
5.819113 0.7500 0.7570 0.7660 0.7660 0.7660
5.853000 0.7670 0.7690 0.7730 0.7760 0.7790
5.887113 0.7840 0.7900 0.7900 0.7900 0.7900
5.921000 0.7900 0.7910 0.7960 0.7960 0.7960
5.955113 0.7960 0.7960 0.7960 0.7960 0.7980
5.989000 0.8000 0.8030 0.8050 0.8050 0.8000
6.023113 0.8030 0.8050 0.8070 0.8080 0.8100
6.057000 0.8080 0.8070 0.8030 0.7880 0.7760
6.091113 0.7710 0.7710 0.7690 0.7670 0.7610
6.126000 0.7470 0.7080 0.6670 0.6530 0.6380
6.160113 0.6240 0.6410 0.6500 0.6800 0.6860
6.194000 0.6870 0.6790 0.6750 0.6700 0.6650
6.228113 0.6480 0.6260 0.6050 0.5800 0.5580
6.262000 0.5350 0.5060 0.4770 0.4670 0.4430
6.296113 0.4190 0.4070 0.3800 0.3600 0.3530
6.330000 0.3430 0.3320 0.3190 0.3100 0.3000
6.364113 0.2980 0.2960 0.2950 0.2930 0.2880
6.398000 0.2790 0.2670 0.2550 0.2420 0.2300
6.432113 0.2180 0.2150 0.2060 0.2010 0.1960
6.467000 0.1920 0.1890 0.1790 0.1680 0.1580
6.501113 0.1560 0.1510 0.1560 0.1680 0.1800
6.535000 0.1960 0.2040 0.2130 0.2280 0.2440
6.569113 0.2610 0.2760 0.2810 0.2910 0.3000
6.603000 0.3080 0.3190 0.3290 0.3480 0.3560
6.637113 0.3560 0.3600 0.3650 0.3660 0.3490
6.671000 0.3340 0.3200 0.3050 0.2710 0.2470
6.705113 0.2400 0.2380 0.2400 0.2490 0.2610
6.739000 0.2620 0.2670 0.2620 0.2400 0.2160
6.773113 0.1870 0.1530 0.1360 0.1330 0.1290
6.808000 0.1310 0.1330 0.1310 0.1430 0.1500
6.842113 0.1630 0.1770 0.1970 0.2030 0.2160
6.876000 0.2280 0.2490 0.2660 0.2880 0.3100
6.910113 0.3250 0.3560 0.3680 0.3850 0.4060
6.944000 0.4360 0.4670 0.4810 0.4960 0.5080
6.978113 0.5200 0.5320 0.5460 0.5510 0.5590
7.012000 0.5680 0.5710 0.5800 0.5810 0.5850
7.046113 0.5870 0.5900 0.5970 0.5980 0.5980
7.080000 0.5980 0.6000 0.5980 0.5980 0.5980
7.114113 0.5980 0.5950 0.5870 0.5830 0.5810
7.149000 0.5780 0.5780 0.5750 0.5680 0.5640
7.183113 0.5560 0.5490 0.5490 0.5300 0.4650
7.217000 0.4040 0.3750 0.3600 0.3340 0.3340
7.251113 0.3320 0.3540 0.3770 0.4010 0.4240
7.285000 0.4590 0.4720 0.4840 0.4980 0.5000
7.319113 0.5100 0.5350 0.5560 0.5760 0.5970
7.353000 0.5980 0.6040 0.6070 0.6100 0.6100
7.387113 0.6160 0.6190 0.6260 0.6290 0.6330
7.421000 0.6340 0.6380 0.6380 0.6380 0.6380
7.455113 0.6380 0.6380 0.6390 0.6410 0.6410
7.490000 0.6460 0.6500 0.6580 0.6620 0.6720
7.524113 0.6750 0.6770 0.6770 0.6770 0.6770
7.558000 0.6750 0.6680 0.6670 0.6650 0.6600
7.592113 0.6560 0.6560 0.6530 0.6510 0.6510
7.626000 0.6510 0.6510 0.6550 0.6580 0.6600
7.660113 0.6630 0.6700 0.6750 0.6770 0.6800
7.694000 0.6860 0.6890 0.6960 0.6990 0.7040
7.728113 0.7060 0.7080 0.7080 0.7090 0.7090
7.762000 0.7130 0.7150 0.7180 0.7200 0.7210
7.796113 0.7230 0.7250 0.7250 0.7260 0.7280
7.830000 0.7280 0.7280 0.7260 0.7250 0.7250
7.864113 0.7250 0.7260 0.7280 0.7320 0.7330
7.899000 0.7350 0.7350 0.7350 0.7350 0.7280
7.933113 0.7150 0.6960 0.6800 0.6650 0.6360
7.967000 0.6190 0.6070 0.6070 0.6310 0.6330
8.001113 0.6530 0.6890 0.6970 0.7090 0.7110
8.035000 0.7110 0.7180 0.7210 0.7260 0.7300
8.069113 0.7370 0.7380 0.7400 0.7400 0.7400
8.103000 0.7450 0.7450 0.7500 0.7540 0.7550
8.137113 0.7550 0.7570 0.7570 0.7590 0.7590
8.171000 0.7610 0.7610 0.7610 0.7610 0.7610
8.205113 0.7610 0.7610 0.7610 0.7610 0.7610
8.240000 0.7610 0.7610 0.7610 0.7620 0.7620
8.274113 0.7620 0.7620 0.7640 0.7640 0.7660
8.308000 0.7660 0.7670 0.7670 0.7690 0.7690
8.342113 0.7710 0.7730 0.7740 0.7740 0.7780
8.376000 0.7780 0.7780 0.7790 0.7790 0.7790
8.410113 0.7790 0.7790 0.7790 0.7790 0.7790
8.444000 0.7790 0.7790 0.7780 0.7760 0.7740
8.478113 0.7730 0.7710 0.7690 0.7660 0.7590
8.512000 0.7550 0.7550 0.7500 0.7490 0.7470
8.546113 0.7470 0.7450 0.7420 0.7380 0.7350
8.581000 0.7330 0.7300 0.7280 0.7250 0.7230
8.615113 0.7160 0.7150 0.7080 0.6990 0.6960
8.649000 0.6800 0.6700 0.6600 0.6380 0.6260
8.683113 0.6220 0.6100 0.6100 0.6210 0.6240
8.717000 0.6290 0.6380 0.6450 0.6460 0.6530
8.751113 0.6530 0.6450 0.6360 0.6290 0.6260
8.785000 0.6170 0.6090 0.6000 0.5950 0.5950
8.819113 0.5930 0.5880 0.5870 0.5830 0.5800
8.853000 0.5780 0.5750 0.5660 0.5640 0.5590
8.887113 0.5560 0.5520 0.5460 0.5350 0.5300
8.922000 0.5290 0.5250 0.5290 0.5320 0.5350
8.956113 0.5460 0.5510 0.5560 0.5630 0.5690
8.990000 0.5730 0.5800 0.5850 0.5870 0.5880
9.024113 0.5900 0.5920 0.5930 0.5930 0.5950
9.058000 0.5980 0.6040 0.6070 0.6120 0.6160
9.092113 0.6190 0.6270 0.6330 0.6380 0.6430
9.126000 0.6480 0.6480 0.6550 0.6560 0.6580
9.160113 0.6630 0.6680 0.6740 0.6770 0.6820
9.194000 0.6840 0.6840 0.6860 0.6860 0.6870
9.228113 0.6890 0.6890 0.6940 0.6970 0.7030
9.263000 0.7080 0.7080 0.7150 0.7160 0.7180
9.297113 0.7180 0.7200 0.7230 0.7260 0.7280
9.331000 0.7280 0.7280 0.7330 0.7330 0.7350
9.365113 0.7350 0.7350 0.7370 0.7400 0.7440
9.399000 0.7470 0.7490 0.7500 0.7500 0.7540
9.433113 0.7570 0.7610 0.7620 0.7620 0.7640
9.467000 0.7640 0.7640 0.7660 0.7670 0.7710
9.501113 0.7740 0.7780 0.7780 0.7790 0.7830
9.535000 0.7830 0.7840 0.7860 0.7880 0.7930
9.569113 0.7950 0.7950 0.7960 0.7960 0.7980
9.604000 0.8020 0.8050 0.8070 0.8080 0.8130
9.638113 0.8150 0.8150 0.8170 0.8170 0.8190
9.672000 0.8190 0.8220 0.8220 0.8220 0.8240
9.706113 0.8250 0.8270 0.8270 0.8270 0.8270
9.740000 0.8290 0.8290 0.8290 0.8290 0.8320
9.774113 0.8360 0.8390 0.8390 0.8410 0.8430
9.808000 0.8440 0.8460 0.8480 0.8480 0.8480
9.842113 0.8480 0.8480 0.8480 0.8480 0.8480
9.876000 0.8480 0.8530 0.8560 0.8580 0.8600
9.910113 0.8600 0.8600 0.8580 0.8580 0.8560
9.944000 0.8580 0.8580 0.8600 0.8600 0.8630
9.978113 0.8660 0.8680 0.8680 0.8730 0.8770
10.013000 0.8780 0.8780 0.8780 0.8780 0.8800
10.047113 0.8800 0.8820 0.8820 0.8830 0.8830
10.081000 0.8830 0.8830 0.8850 0.8850 0.8870
10.115113 0.8890 0.8890 0.8890 0.8940 0.8940
10.149000 0.8940 0.8940 0.8940 0.8940 0.8940
10.183113 0.8890 0.8820 0.8770 0.8750 0.8720
10.217000 0.8700 0.8700 0.8700 0.8700 0.8680
10.251113 0.8680 0.8680 0.8680 0.8680 0.8680
10.285000 0.8680 0.8680 0.8660 0.8650 0.8630
10.319113 0.8630 0.8650 0.8650 0.8650 0.8650
10.354000 0.8630 0.8650 0.8650 0.8660 0.8680
10.388113 0.8720 0.8750 0.8780 0.8780 0.8780
10.422000 0.8800 0.8800 0.8820 0.8830 0.8870
10.456113 0.8870 0.8870 0.8870 0.8870 0.8870
10.490000 0.8870 0.8890 0.8890 0.8940 0.8940
10.524113 0.8950 0.8950 0.8970 0.8970 0.8990
10.558000 0.9010 0.9010 0.9010 0.9020 0.9020
10.592113 0.9040 0.9060 0.9060 0.9070 0.9070
10.626000 0.9070 0.9070 0.9090 0.9090 0.9090
10.660113 0.9090 0.9090 0.9090 0.9090 0.9090
10.695000 0.9090 0.9070 0.9070 0.9090 0.9090
10.729113 0.9090 0.9090 0.9090 0.9040 0.8950
10.763000 0.8770 0.8630 0.8250 0.7980 0.7570
10.797113 0.7370 0.7350 0.7370 0.7380 0.7550
10.831000 0.7780 0.7980 0.8190 0.8340 0.8430
10.865113 0.8460 0.8530 0.8560 0.8660 0.8750
10.899000 0.8770 0.8780 0.8850 0.8870 0.8890
10.933113 0.8940 0.8950 0.8970 0.9020 0.9060
10.967000 0.9070 0.9090 0.9110 0.9120 0.9140
11.001113 0.9160 0.9180 0.9180 0.9180 0.9180
11.036000 0.9180 0.9180 0.9160 0.9180 0.9190
11.070113 0.9190 0.9230 0.9230 0.9230 0.9230
11.104000 0.9230 0.9230 0.9230 0.9230 0.9210
11.138113 0.9190 0.9180 0.9160 0.9160 0.9160
11.172000 0.9180 0.9190 0.9190 0.9190 0.9190
11.206113 0.9190 0.9190 0.9190 0.9190 0.9190
11.240000 0.9190 0.9190 0.9190 0.9190 0.9190
11.274113 0.9190 0.9210 0.9230 0.9230 0.9240
11.308000 0.9240 0.9240 0.9260 0.9280 0.9300
11.342113 0.9300 0.9330 0.9330 0.9300 0.9300
11.377000 0.9300 0.9300 0.9300 0.9280 0.9280
11.411113 0.9280 0.9280 0.9280 0.9280 0.9280
11.445000 0.9280 0.9280 0.9280 0.9280 0.9260
11.479113 0.9240 0.9190 0.9190 0.9180 0.9120
11.513000 0.9090 0.9060 0.8970 0.8940 0.8830
11.547113 0.8730 0.8540 0.8340 0.8130 0.7950
11.581000 0.7660 0.7350 0.6970 0.6790 0.6750
11.615113 0.6750 0.6960 0.7080 0.7450 0.7690
11.649000 0.7950 0.8170 0.8360 0.8540 0.8630
11.683113 0.8730 0.8780 0.8830 0.8850 0.8870
11.717000 0.8890 0.8890 0.8940 0.8950 0.8970
11.751113 0.9060 0.9090 0.9120 0.9160 0.9160
11.786000 0.9180 0.9180 0.9190 0.9190 0.9190
11.820113 0.9190 0.9190 0.9210 0.9210 0.9230
11.854000 0.9230 0.9240 0.9240 0.9240 0.9240
11.888113 0.9240 0.9240 0.9240 0.9240 0.9240
11.922000 0.9260 0.9260 0.9260 0.9260 0.9260
11.956113 0.9260 0.9280 0.9280 0.9260 0.9260
11.990000 0.9280 0.9280 0.9280 0.9280 0.9260
12.024113 0.9260 0.9260 0.9230 0.9230 0.9230
12.058000 0.9230 0.9240 0.9260 0.9280 0.9300
12.092113 0.9300 0.9300 0.9280 0.9280 0.9260
12.127000 0.9260 0.9280 0.9280 0.9280 0.9280
12.161113 0.9280 0.9280 0.9280 0.9280 0.9280
12.195000 0.9260 0.9280 0.9260 0.9260 0.9260
12.229113 0.9240 0.9260 0.9260 0.9260 0.9260
12.263000 0.9260 0.9260 0.9260 0.9260 0.9260
12.297113 0.9260 0.9240 0.9240 0.9240 0.9240
12.331000 0.9240 0.9240 0.9240 0.9240 0.9240
12.365113 0.9230 0.9240 0.9240 0.9240 0.9230
12.399000 0.9230 0.9260 0.9280 0.9280 0.9280
12.433113 0.9280 0.9280 0.9260 0.9240 0.9240
12.468000 0.9240 0.9260 0.9260 0.9240 0.9240
12.502113 0.9230 0.9180 0.9140 0.9140 0.9160
12.536000 0.9180 0.9190 0.9210 0.9210 0.9190
12.570113 0.9180 0.9140 0.9120 0.9110 0.9070
12.604000 0.9070 0.9060 0.9060 0.9020 0.9010
12.638113 0.8990 0.8970 0.8950 0.8920 0.8890
12.672000 0.8890 0.8850 0.8820 0.8780 0.8700
12.706113 0.8650 0.8580 0.8560 0.8510 0.8480
12.740000 0.8430 0.8320 0.8270 0.8220 0.8170
12.774113 0.8130 0.8080 0.8000 0.7950 0.7760
12.809000 0.7620 0.7570 0.7470 0.7380 0.7250
12.843113 0.7150 0.6970 0.6890 0.6680 0.6620
12.877000 0.6530 0.6380 0.6220 0.6120 0.6040
12.911113 0.5930 0.5830 0.5760 0.5750 0.5730
12.945000 0.5730 0.5750 0.5780 0.5800 0.5900
12.979113 0.5980 0.6070 0.6220 0.6340 0.6500
13.013000 0.6650 0.6940 0.6990 0.7150 0.7250
13.047113 0.7440 0.7490 0.7570 0.7670 0.7790
13.081000 0.7880 0.7960 0.8070 0.8130 0.8190
13.115113 0.8250 0.8310 0.8340 0.8370 0.8390
13.150000 0.8460 0.8480 0.8560 0.8630 0.8650
13.184113 0.8680 0.8730 0.8780 0.8820 0.8870
13.218000 0.8900 0.8940 0.8970 0.8990 0.9040
13.252113 0.9040 0.9040 0.9060 0.9060 0.9060
13.286000 0.9070 0.9090 0.9120 0.9120 0.9140
13.320113 0.9140 0.9140 0.9140 0.9140 0.9160
13.354000 0.9160 0.9160 0.9160 0.9140 0.9140
13.388113 0.9160 0.9180 0.9180 0.9180 0.9180
13.422000 0.9180 0.9180 0.9180 0.9180 0.9160
13.456113 0.9140 0.9140 0.9140 0.9140 0.9120
13.491000 0.9090 0.9070 0.9070 0.9060 0.8970
13.525113 0.8950 0.8870 0.8780 0.8660 0.8580
13.559000 0.8460 0.8340 0.8150 0.8130 0.8000
13.593113 0.7950 0.7880 0.7880 0.7860 0.7860
13.627000 0.7860 0.7840 0.7830 0.7790 0.7790
13.661113 0.7790 0.7790 0.7790 0.7830 0.7840
13.695000 0.7880 0.7950 0.7980 0.8030 0.8080
13.729113 0.8170 0.8250 0.8290 0.8320 0.8340
13.763000 0.8340 0.8340 0.8340 0.8340 0.8360
13.797113 0.8340 0.8340 0.8340 0.8340 0.8340
13.831000 0.8320 0.8320 0.8310 0.8290 0.8290
13.865113 0.8310 0.8310 0.8320 0.8320 0.8320
13.900000 0.8310 0.8320 0.8340 0.8370 0.8440
13.934113 0.8480 0.8540 0.8630 0.8660 0.8700
13.968000 0.8780 0.8780 0.8830 0.8870 0.8900
14.002113 0.8940 0.8950 0.8970 0.8990 0.8990
14.036000 0.9040 0.9060 0.9090 0.9140 0.9160
14.070113 0.9180 0.9180 0.9180 0.9190 0.9190
14.104000 0.9190 0.9190 0.9190 0.9190 0.9230
14.138113 0.9240 0.9240 0.9240 0.9260 0.9260
14.172000 0.9260 0.9260 0.9260 0.9260 0.9260
14.206113 0.9280 0.9300 0.9300 0.9300 0.9300
14.241000 0.9330 0.9350 0.9350 0.9350 0.9310
14.275113 0.9300 0.9260 0.9240 0.9240 0.9260
14.309000 0.9260 0.9260 0.9300 0.9300 0.9300
14.343113 0.9300 0.9300 0.9300 0.9300 0.9280
14.377000 0.9260 0.9260 0.9240 0.9230 0.9210
14.411113 0.9210 0.9210 0.9210 0.9210 0.9190
14.445000 0.9190 0.9190 0.9180 0.9140 0.9110
14.479113 0.9090 0.9060 0.9060 0.9020 0.8990
14.513000 0.8990 0.8990 0.8990 0.8940 0.8940
14.547113 0.8940 0.8920 0.8890 0.8870 0.8850
14.582000 0.8830 0.8780 0.8750 0.8680 0.8650
14.616113 0.8600 0.8560 0.8510 0.8490 0.8480
14.650000 0.8480 0.8460 0.8410 0.8410 0.8340
14.684113 0.8290 0.8270 0.8200 0.8170 0.8100
14.718000 0.8030 0.7980 0.7950 0.7950 0.7840
14.752113 0.7780 0.7710 0.7640 0.7590 0.7490
14.786000 0.7470 0.7370 0.7260 0.7150 0.7040
14.820113 0.6870 0.6700 0.6630 0.6560 0.6390
14.854000 0.6170 0.5980 0.5850 0.5660 0.5540
14.888113 0.5370 0.5170 0.5000 0.4840 0.4690
14.923000 0.4600 0.4570 0.4550 0.4520 0.4520
14.957113 0.4520 0.4520 0.4520 0.4550 0.4600
14.991000 0.4650 0.4760 0.4890 0.4980 0.5130
15.025113 0.5220 0.5340 0.5370 0.5470 0.5660
15.059000 0.5830 0.5970 0.6100 0.6290 0.6460
15.093113 0.6650 0.6800 0.6960 0.7060 0.7160
15.127000 0.7210 0.7280 0.7350 0.7370 0.7370
15.161113 0.7380 0.7380 0.7400 0.7400 0.7400
15.195000 0.7380 0.7380 0.7370 0.7350 0.7350
15.229113 0.7330 0.7330 0.7330 0.7330 0.7330
15.264000 0.7320 0.7320 0.7260 0.7210 0.7210
15.298113 0.7200 0.7180 0.7160 0.7110 0.7080
15.332000 0.7060 0.7010 0.7010 0.7010 0.6990
15.366113 0.6970 0.6960 0.6940 0.6910 0.6910
15.400000 0.6870 0.6860 0.6800 0.6790 0.6720
15.434113 0.6680 0.6670 0.6650 0.6620 0.6620
15.468000 0.6620 0.6620 0.6600 0.6510 0.6500
15.502113 0.6480 0.6460 0.6460 0.6430 0.6410
15.536000 0.6390 0.6390 0.6390 0.6390 0.6380
15.570113 0.6330 0.6310 0.6290 0.6290 0.6270
15.604000 0.6260 0.6260 0.6240 0.6220 0.6210
15.638113 0.6190 0.6140 0.6120 0.6120 0.6090
15.673000 0.6020 0.6000 0.5980 0.5980 0.5980
15.707113 0.5980 0.5970 0.5920 0.5900 0.5900
15.741000 0.5880 0.5870 0.5810 0.5810 0.5810
15.775113 0.5800 0.5780 0.5730 0.5710 0.5680
15.809000 0.5640 0.5630 0.5610 0.5610 0.5590
15.843113 0.5590 0.5520 0.5490 0.5420 0.5420
15.877000 0.5390 0.5370 0.5370 0.5350 0.5340
15.911113 0.5320 0.5300 0.5290 0.5290 0.5250
15.945000 0.5200 0.5180 0.5170 0.5130 0.5110
15.979113 0.5110 0.5100 0.5080 0.5050 0.5080
##END=
