##TITLE=ACETIC ACID, NITRILOTRI-, DISODIUM SALT
##JCAMP-DX=4.24
##DATA TYPE=INFRARED SPECTRUM
##CLASS=COBLENTZ III
##ORIGIN=STANDARD OIL OF OHIO
##OWNER=COBLENTZ SOCIETY
Collection (C) 2018 copyright by the U.S. Secretary of Commerce
on behalf of the United States of America. All rights reserved.
##DATE=1965/06/21
##MOLFORM=C6 H7 N Na2 O6
##SOURCE REFERENCE=COBLENTZ NO. 5821
##$NIST ID=B6005821
##$NIST SOURCE=COBLENTZ
##$NIST IMAGE=cob5821
##SPECTROMETER/DATA SYSTEM=PERKIN-ELMER 521 (GRATING)
##INSTRUMENT PARAMETERS=FILTERS AT 3150, 2500, 2000, 1150, 700, 410. GRATING CHANGES: 2000, 630 CM^-^1
##STATE=SOLID (OIL MULL, CsBr PLATES)
$$SPECTRAL CONTAMINATION DUE TO OIL AROUND 2900 CM^-^1
##SAMPLING PROCEDURE=TRANSMISSION
##RESOLUTION=2
##DATA PROCESSING=DIGITIZED BY NIST FROM HARD COPY (FROM TWO SEGMENTS)
##XUNITS=1/CM
##YUNITS=TRANSMITTANCE
##XFACTOR=1.000000
##YFACTOR=1
##DELTAX=0.967353
##FIRSTX=253.93
##LASTX=3911.49
##FIRSTY=0.873
##MAXX=3911.49
##MINX=253.93
##MAXY=0.91
##MINY=0.04
##NPOINTS=3782
##XYDATA=(X++(Y..Y))
253.930000 0.8730 0.8730 0.8730 0.8730 0.8730
258.766766 0.8730 0.8730 0.8740 0.8740 0.8750
263.603532 0.8750 0.8750 0.8750 0.8750 0.8750
268.440297 0.8750 0.8750 0.8750 0.8750 0.8750
273.277063 0.8770 0.8770 0.8770 0.8740 0.8740
278.113829 0.8740 0.8740 0.8750 0.8750 0.8770
282.950595 0.8780 0.8800 0.8830 0.8850 0.8860
287.787360 0.8890 0.8910 0.8920 0.8920 0.8960
292.624126 0.8980 0.9010 0.9020 0.9030 0.9030
297.460892 0.9030 0.9030 0.9030 0.9030 0.9040
302.297658 0.9040 0.9040 0.9040 0.9040 0.9040
307.134423 0.9040 0.9040 0.9040 0.9040 0.9040
311.971189 0.9040 0.9030 0.9020 0.9010 0.9000
316.807955 0.8980 0.8970 0.8960 0.8950 0.8910
321.644721 0.8890 0.8790 0.8720 0.8680 0.8650
326.481486 0.8620 0.8590 0.8560 0.8530 0.8480
331.318252 0.8300 0.8160 0.8080 0.8010 0.7960
336.155018 0.7890 0.7810 0.7690 0.7511 0.7261
340.991784 0.7040 0.6830 0.6451 0.6181 0.6000
345.828549 0.5890 0.5810 0.5770 0.5720 0.5680
350.665315 0.5650 0.5510 0.5390 0.5380 0.5370
355.502081 0.5370 0.5380 0.5500 0.5958 0.6199
360.338847 0.6420 0.6610 0.6810 0.7249 0.7440
365.175613 0.7550 0.7670 0.7809 0.7949 0.8069
370.012378 0.8130 0.8190 0.8200 0.8200 0.8220
374.849144 0.8240 0.8240 0.8240 0.8250 0.8260
379.685910 0.8310 0.8330 0.8380 0.8430 0.8450
384.522676 0.8490 0.8570 0.8610 0.8660 0.8720
389.359441 0.8770 0.8830 0.8860 0.8920 0.8970
394.196207 0.9000 0.9020 0.9040 0.9040 0.9060
399.032973 0.9070 0.9070 0.9070 0.9070 0.9070
403.869739 0.9070 0.9070 0.9070 0.9070 0.9070
408.706504 0.9070 0.9070 0.9070 0.9070 0.9070
413.543270 0.9080 0.9080 0.9080 0.9080 0.9080
418.380036 0.9090 0.9090 0.9090 0.9090 0.9090
423.216802 0.9100 0.9100 0.9100 0.9100 0.9100
428.053567 0.9100 0.9100 0.9100 0.9100 0.9100
432.890333 0.9100 0.9090 0.9090 0.9090 0.9090
437.727099 0.9090 0.9080 0.9080 0.9080 0.9080
442.563865 0.9070 0.9070 0.9070 0.9070 0.9060
447.400631 0.9040 0.9030 0.9030 0.9020 0.9010
452.237396 0.9010 0.9000 0.9000 0.8980 0.8980
457.074162 0.8970 0.8970 0.8960 0.8960 0.8950
461.910928 0.8920 0.8910 0.8890 0.8860 0.8840
466.747694 0.8830 0.8810 0.8790 0.8770 0.8740
471.584459 0.8710 0.8660 0.8600 0.8570 0.8550
476.421225 0.8500 0.8460 0.8400 0.8340 0.8260
481.257991 0.8160 0.8040 0.7960 0.7831 0.7561
486.094757 0.7420 0.7260 0.7090 0.6770 0.6560
490.931522 0.6550 0.6550 0.6560 0.6680 0.6790
495.768288 0.6910 0.6960 0.7200 0.7619 0.7800
500.605054 0.7810 0.7810 0.7840 0.7840 0.7830
505.441820 0.7810 0.7800 0.7630 0.7450 0.7220
510.278585 0.7060 0.6870 0.6421 0.5912 0.5621
515.115351 0.5330 0.4720 0.4380 0.4040 0.3451
519.952117 0.3131 0.2871 0.2860 0.2860 0.2969
524.788883 0.3260 0.3560 0.4330 0.4740 0.5179
529.625648 0.6008 0.6419 0.6789 0.7418 0.7609
534.462414 0.7810 0.7960 0.8070 0.8160 0.8260
539.299180 0.8330 0.8390 0.8440 0.8480 0.8510
544.135946 0.8570 0.8600 0.8610 0.8630 0.8660
548.972712 0.8660 0.8670 0.8670 0.8680 0.8690
553.809477 0.8710 0.8710 0.8710 0.8720 0.8720
558.646243 0.8730 0.8730 0.8770 0.8780 0.8790
563.483009 0.8800 0.8830 0.8830 0.8840 0.8840
568.319775 0.8840 0.8840 0.8840 0.8840 0.8840
573.156540 0.8840 0.8840 0.8830 0.8830 0.8810
577.993306 0.8800 0.8790 0.8750 0.8730 0.8690
582.830072 0.8650 0.8590 0.8550 0.8510 0.8400
587.666838 0.8280 0.8270 0.8270 0.8300 0.8390
592.503603 0.8500 0.8590 0.8600 0.8600 0.8610
597.340369 0.8620 0.8620 0.8620 0.8610 0.8570
602.177135 0.8560 0.8540 0.8490 0.8360 0.8280
607.013901 0.8220 0.8120 0.7971 0.7781 0.7442
611.850666 0.7180 0.6900 0.6220 0.5920 0.5610
616.687432 0.5590 0.5889 0.6249 0.6649 0.7536
621.524198 0.7840 0.8060 0.8200 0.8340 0.8480
626.360964 0.8650 0.8690 0.8710 0.8720 0.8770
631.197730 0.8780 0.8780 0.8790 0.8790 0.8790
636.034495 0.8790 0.8790 0.8800 0.8800 0.8800
640.871261 0.8800 0.8800 0.8800 0.8800 0.8800
645.708027 0.8800 0.8800 0.8800 0.8800 0.8800
650.544793 0.8800 0.8800 0.8800 0.8800 0.8800
655.381558 0.8790 0.8790 0.8790 0.8780 0.8780
660.218324 0.8770 0.8770 0.8750 0.8750 0.8740
665.055090 0.8730 0.8730 0.8720 0.8690 0.8680
669.891856 0.8650 0.8610 0.8600 0.8570 0.8550
674.728621 0.8510 0.8480 0.8460 0.8370 0.8310
679.565387 0.8260 0.8250 0.8240 0.8220 0.8200
684.402153 0.8190 0.8180 0.8160 0.8150 0.8130
689.238919 0.8070 0.8010 0.7950 0.7890 0.7830
694.075684 0.7770 0.7690 0.7540 0.7321 0.7191
698.912450 0.7060 0.6770 0.6480 0.6200 0.5950
703.749216 0.5731 0.5501 0.5261 0.4742 0.4501
708.585982 0.4249 0.3560 0.3500 0.3500 0.3500
713.422747 0.4339 0.4629 0.4979 0.5309 0.5858
718.259513 0.6010 0.6140 0.6250 0.6390 0.6550
723.096279 0.6710 0.6860 0.7139 0.7240 0.7280
727.933045 0.7380 0.7490 0.7490 0.7490 0.7490
732.769811 0.7490 0.7490 0.7490 0.7490 0.7490
737.606576 0.7490 0.7500 0.7500 0.7450 0.7390
742.443342 0.7360 0.7310 0.7270 0.7260 0.7260
747.280108 0.7310 0.7440 0.7490 0.7540 0.7690
752.116874 0.7730 0.7840 0.7950 0.7980 0.8020
756.953639 0.8040 0.8100 0.8160 0.8190 0.8200
761.790405 0.8210 0.8210 0.8210 0.8220 0.8220
766.627171 0.8220 0.8220 0.8240 0.8240 0.8250
771.463937 0.8250 0.8260 0.8270 0.8280 0.8310
776.300702 0.8340 0.8360 0.8370 0.8380 0.8380
781.137468 0.8390 0.8400 0.8400 0.8420 0.8420
785.974234 0.8420 0.8420 0.8420 0.8420 0.8420
790.811000 0.8420 0.8420 0.8420 0.8420 0.8420
795.647765 0.8420 0.8420 0.8420 0.8420 0.8400
800.484531 0.8400 0.8390 0.8390 0.8380 0.8380
805.321297 0.8380 0.8370 0.8370 0.8360 0.8360
810.158063 0.8360 0.8340 0.8340 0.8330 0.8330
814.994829 0.8320 0.8320 0.8310 0.8310 0.8310
819.831594 0.8300 0.8300 0.8280 0.8280 0.8280
824.668360 0.8270 0.8270 0.8270 0.8260 0.8260
829.505126 0.8250 0.8240 0.8220 0.8210 0.8210
834.341892 0.8200 0.8190 0.8180 0.8160 0.8160
839.178657 0.8150 0.8140 0.8130 0.8120 0.8100
844.015423 0.8090 0.8080 0.8070 0.8060 0.8060
848.852189 0.8040 0.8030 0.8020 0.8010 0.8010
853.688955 0.8010 0.8010 0.7980 0.7960 0.7930
858.525720 0.7900 0.7860 0.7830 0.7780 0.7720
863.362486 0.7660 0.7650 0.7650 0.7670 0.7710
868.199252 0.7730 0.7740 0.7740 0.7740 0.7730
873.036018 0.7710 0.7690 0.7680 0.7660 0.7570
877.872783 0.7540 0.7530 0.7480 0.7390 0.7201
882.709549 0.7070 0.6920 0.6740 0.6570 0.6400
887.546315 0.6240 0.6001 0.5791 0.5571 0.5142
892.383081 0.4900 0.4660 0.4420 0.4300 0.4180
897.219846 0.3311 0.2442 0.2340 0.2250 0.2071
902.056612 0.2040 0.2060 0.2180 0.2300 0.3039
906.893378 0.3389 0.3739 0.4438 0.6134 0.6140
911.730144 0.6270 0.6530 0.6910 0.6910 0.6890
916.566910 0.6850 0.6810 0.6481 0.6380 0.6131
921.403675 0.6120 0.6120 0.6270 0.6430 0.6590
926.240441 0.7219 0.7240 0.7180 0.7070 0.6951
931.077207 0.6809 0.6079 0.5340 0.5140 0.5130
935.913973 0.5979 0.7197 0.7529 0.7610 0.7620
940.750738 0.7620 0.7620 0.7620 0.7610 0.7610
945.587504 0.7600 0.7570 0.7540 0.7490 0.7430
950.424270 0.7360 0.7340 0.7250 0.7160 0.7070
955.261036 0.6830 0.6511 0.6141 0.5721 0.5491
960.097801 0.5250 0.4720 0.3980 0.3251 0.3240
964.934567 0.3250 0.3459 0.4766 0.5218 0.6007
969.771333 0.6330 0.6610 0.6850 0.7190 0.7280
974.608099 0.7380 0.7450 0.7510 0.7550 0.7590
979.444864 0.7610 0.7630 0.7630 0.7660 0.7670
984.281630 0.7680 0.7680 0.7690 0.7710 0.7710
989.118396 0.7710 0.7710 0.7710 0.7690 0.7690
993.955162 0.7680 0.7680 0.7670 0.7660 0.7650
998.791928 0.7630 0.7610 0.7590 0.7550 0.7510
1003.628693 0.7460 0.7400 0.7320 0.7220 0.7120
1008.465459 0.7090 0.7160 0.7240 0.7360 0.7610
1013.302225 0.7620 0.7620 0.7620 0.7620 0.7610
1018.138991 0.7600 0.7550 0.7540 0.7490 0.7390
1022.975756 0.7270 0.7190 0.7100 0.6911 0.6681
1027.812522 0.6379 0.5860 0.5550 0.5240 0.4730
1032.649288 0.4720 0.4730 0.5309 0.6018 0.6399
1037.486054 0.7240 0.7240 0.7270 0.7310 0.7330
1042.322819 0.7370 0.7390 0.7450 0.7450 0.7460
1047.159585 0.7460 0.7460 0.7460 0.7460 0.7460
1051.996351 0.7450 0.7450 0.7440 0.7440 0.7420
1056.833117 0.7420 0.7400 0.7400 0.7390 0.7380
1061.669882 0.7380 0.7370 0.7370 0.7360 0.7340
1066.506648 0.7340 0.7320 0.7310 0.7300 0.7250
1071.343414 0.7210 0.7180 0.7150 0.7120 0.7080
1076.180180 0.7070 0.7060 0.7060 0.7060 0.7070
1081.016945 0.7140 0.7160 0.7200 0.7200 0.7200
1085.853711 0.7200 0.7200 0.7190 0.7190 0.7180
1090.690477 0.7160 0.7160 0.7140 0.7140 0.7140
1095.527243 0.7130 0.7120 0.7120 0.7100 0.7090
1100.364009 0.7080 0.7080 0.7070 0.7060 0.7060
1105.200774 0.7040 0.7020 0.7020 0.7020 0.7010
1110.037540 0.7010 0.7000 0.7000 0.6980 0.6970
1114.874306 0.6970 0.6960 0.6960 0.6930 0.6920
1119.711072 0.6910 0.6900 0.6890 0.6870 0.6860
1124.547837 0.6850 0.6840 0.6810 0.6790 0.6790
1129.384603 0.6790 0.6790 0.6770 0.6740 0.6720
1134.221369 0.6710 0.6680 0.6670 0.6660 0.6650
1139.058135 0.6630 0.6610 0.6560 0.6540 0.6530
1143.894900 0.6530 0.6510 0.6490 0.6480 0.6460
1148.731666 0.6440 0.6430 0.6420 0.6400 0.6400
1153.568432 0.6390 0.6390 0.6390 0.6380 0.6380
1158.405198 0.6380 0.6380 0.6370 0.6370 0.6340
1163.241963 0.6330 0.6320 0.6310 0.6300 0.6280
1168.078729 0.6270 0.6260 0.6250 0.6240 0.6240
1172.915495 0.6240 0.6220 0.6220 0.6220 0.6190
1177.752261 0.6140 0.6100 0.6070 0.6030 0.6000
1182.589027 0.5960 0.5920 0.5900 0.5860 0.5830
1187.425792 0.5790 0.5720 0.5680 0.5650 0.5600
1192.262558 0.5550 0.5510 0.5490 0.5450 0.5430
1197.099324 0.5390 0.5340 0.5280 0.5210 0.5120
1201.936090 0.5000 0.4850 0.4810 0.4680 0.4660
1206.772855 0.4670 0.4710 0.4790 0.5189 0.5200
1211.609621 0.5340 0.5510 0.5720 0.5740 0.5750
1216.446387 0.5740 0.5730 0.5710 0.5620 0.5570
1221.283153 0.5530 0.5420 0.5390 0.5400 0.5440
1226.119918 0.5450 0.5480 0.5460 0.5450 0.5430
1230.956684 0.5390 0.5340 0.5270 0.4740 0.4660
1235.793450 0.4590 0.4510 0.4370 0.4340 0.4360
1240.630216 0.4500 0.4620 0.4710 0.4790 0.4890
1245.466981 0.4900 0.4960 0.4980 0.5040 0.5140
1250.303747 0.5240 0.5270 0.5310 0.5320 0.5300
1255.140513 0.5340 0.5340 0.5360 0.5360 0.5370
1259.977279 0.5370 0.5370 0.5370 0.5370 0.5370
1264.814044 0.5370 0.5370 0.5360 0.5360 0.5340
1269.650810 0.5340 0.5330 0.5330 0.5320 0.5300
1274.487576 0.5270 0.5250 0.5210 0.5190 0.5160
1279.324342 0.5140 0.5130 0.5100 0.5080 0.5060
1284.161108 0.5020 0.5000 0.4960 0.4910 0.4860
1288.997873 0.4800 0.4690 0.4570 0.4490 0.4320
1293.834639 0.4150 0.3850 0.3501 0.3151 0.2981
1298.671405 0.2800 0.2780 0.3250 0.3680 0.3710
1303.508171 0.3720 0.3720 0.3720 0.3730 0.3770
1308.344936 0.3781 0.4420 0.4570 0.4790 0.4800
1313.181702 0.4800 0.4800 0.4790 0.4690 0.4670
1318.018468 0.4610 0.4550 0.4500 0.4460 0.4430
1322.855234 0.4380 0.4340 0.4280 0.4220 0.4160
1327.691999 0.4040 0.3920 0.3800 0.3680 0.3560
1332.528765 0.3440 0.3330 0.3240 0.3130 0.3010
1337.365531 0.2890 0.2830 0.2770 0.2660 0.2530
1342.202297 0.2360 0.2180 0.1931 0.1651 0.1600
1347.039062 0.1500 0.1450 0.1440 0.1420 0.1390
1351.875828 0.1360 0.1320 0.1280 0.1270 0.1270
1356.712594 0.1280 0.1300 0.1370 0.1450 0.1500
1361.549360 0.1540 0.1590 0.1600 0.1770 0.1959
1366.386126 0.2090 0.2160 0.2300 0.2400 0.2420
1371.222891 0.2420 0.2400 0.2280 0.2190 0.2090
1376.059657 0.2040 0.1970 0.1930 0.1800 0.1650
1380.896423 0.1490 0.1420 0.1340 0.1240 0.1150
1385.733189 0.1140 0.1120 0.1100 0.1090 0.1090
1390.569954 0.1100 0.1240 0.1459 0.1480 0.1570
1395.406720 0.1910 0.1950 0.1920 0.1860 0.1790
1400.243486 0.1730 0.1690 0.1670 0.1680 0.1710
1405.080252 0.2190 0.2300 0.2500 0.2610 0.2720
1409.917017 0.2910 0.2980 0.3010 0.3090 0.3160
1414.753783 0.3260 0.3380 0.3460 0.3560 0.3630
1419.590549 0.3730 0.3810 0.3950 0.4060 0.4210
1424.427315 0.4250 0.4250 0.4260 0.4250 0.4060
1429.264080 0.3920 0.3790 0.3720 0.3660 0.3630
1434.100846 0.3620 0.3620 0.3620 0.3650 0.3630
1438.937612 0.3620 0.3560 0.3500 0.3430 0.3370
1443.774378 0.3280 0.3180 0.3020 0.2920 0.2830
1448.611143 0.2730 0.2690 0.2660 0.2620 0.2600
1453.447909 0.2600 0.2600 0.2590 0.2590 0.2590
1458.284675 0.2590 0.2600 0.2600 0.2610 0.2610
1463.121441 0.2620 0.2690 0.2750 0.2960 0.3120
1467.958207 0.3340 0.3649 0.3909 0.4339 0.4529
1472.794972 0.4680 0.4830 0.4950 0.5060 0.5150
1477.631738 0.5250 0.5330 0.5430 0.5510 0.5560
1482.468504 0.5650 0.5800 0.5870 0.5960 0.6010
1487.305270 0.6060 0.6060 0.6140 0.6190 0.6200
1492.142035 0.6210 0.6220 0.6240 0.6240 0.6240
1496.978801 0.6240 0.6240 0.6220 0.6220 0.6220
1501.815567 0.6210 0.6200 0.6190 0.6160 0.6150
1506.652333 0.6150 0.6130 0.6130 0.6130 0.6140
1511.489098 0.6140 0.6160 0.6160 0.6190 0.6210
1516.325864 0.6220 0.6240 0.6240 0.6240 0.6240
1521.162630 0.6240 0.6240 0.6240 0.6220 0.6210
1525.999396 0.6210 0.6200 0.6190 0.6190 0.6180
1530.836161 0.6150 0.6140 0.6120 0.6100 0.6090
1535.672927 0.6070 0.6060 0.6040 0.6040 0.6020
1540.509693 0.6010 0.5980 0.5960 0.5930 0.5910
1545.346459 0.5890 0.5870 0.5870 0.5840 0.5790
1550.183225 0.5750 0.5740 0.5720 0.5710 0.5680
1555.019990 0.5650 0.5600 0.5560 0.5540 0.5540
1559.856756 0.5530 0.5510 0.5480 0.5450 0.5400
1564.693522 0.5370 0.5320 0.5270 0.5220 0.5180
1569.530288 0.5130 0.5080 0.5060 0.5020 0.4970
1574.367053 0.4920 0.4860 0.4800 0.4730 0.4670
1579.203819 0.4650 0.4560 0.4480 0.4380 0.4280
1584.040585 0.4240 0.4180 0.4080 0.3970 0.3860
1588.877351 0.3750 0.3650 0.3540 0.3440 0.3340
1593.714116 0.3250 0.3160 0.3080 0.3000 0.2910
1598.550882 0.2870 0.2840 0.2750 0.2680 0.2610
1603.387648 0.2540 0.2460 0.2400 0.2330 0.2260
1608.224414 0.2190 0.2120 0.2040 0.1970 0.1900
1613.061179 0.1810 0.1740 0.1650 0.1560 0.1460
1617.897945 0.1420 0.1370 0.1270 0.1160 0.1040
1622.734711 0.0950 0.0860 0.0800 0.0750 0.0730
1627.571477 0.0720 0.0720 0.0730 0.0740 0.0800
1632.408242 0.0850 0.0910 0.1000 0.1080 0.1190
1637.245008 0.1301 0.1540 0.1670 0.1800 0.1930
1642.081774 0.2080 0.2210 0.2340 0.2460 0.2590
1646.918540 0.2690 0.2770 0.2770 0.2780 0.2780
1651.755306 0.2750 0.2690 0.2660 0.2610 0.2510
1656.592071 0.2249 0.1919 0.1450 0.1310 0.1160
1661.428837 0.1010 0.0910 0.0850 0.0830 0.0810
1666.265603 0.0800 0.0780 0.0730 0.0720 0.0720
1671.102369 0.0730 0.0790 0.0890 0.0910 0.0980
1675.939134 0.1090 0.1211 0.1540 0.1720 0.1910
1680.775900 0.2080 0.2490 0.2909 0.3010 0.3070
1685.612666 0.3150 0.3270 0.3420 0.3540 0.3660
1690.449432 0.3770 0.3870 0.3960 0.4060 0.4140
1695.286197 0.4210 0.4330 0.4380 0.4430 0.4480
1700.122963 0.4500 0.4540 0.4550 0.4560 0.4590
1704.959729 0.4600 0.4610 0.4620 0.4630 0.4650
1709.796495 0.4660 0.4670 0.4680 0.4690 0.4710
1714.633260 0.4720 0.4730 0.4730 0.4740 0.4740
1719.470026 0.4750 0.4750 0.4750 0.4750 0.4750
1724.306792 0.4750 0.4740 0.4740 0.4730 0.4720
1729.143558 0.4710 0.4690 0.4690 0.4680 0.4690
1733.980324 0.4690 0.4710 0.4750 0.4770 0.4810
1738.817089 0.4900 0.4970 0.5060 0.5140 0.5220
1743.653855 0.5310 0.5390 0.5460 0.5540 0.5600
1748.490621 0.5750 0.5840 0.5910 0.5980 0.6060
1753.327387 0.6120 0.6190 0.6250 0.6300 0.6330
1758.164152 0.6370 0.6430 0.6480 0.6530 0.6550
1763.000918 0.6590 0.6610 0.6660 0.6710 0.6750
1767.837684 0.6810 0.6830 0.6840 0.6850 0.6860
1772.674450 0.6870 0.6890 0.6900 0.6910 0.6920
1777.511215 0.6930 0.6950 0.6960 0.6980 0.6980
1782.347981 0.7000 0.7010 0.7010 0.7020 0.7020
1787.184747 0.7030 0.7030 0.7040 0.7040 0.7060
1792.021513 0.7060 0.7070 0.7070 0.7080 0.7090
1796.858278 0.7090 0.7100 0.7100 0.7120 0.7120
1801.695044 0.7120 0.7120 0.7130 0.7130 0.7130
1806.531810 0.7130 0.7130 0.7130 0.7130 0.7130
1811.368576 0.7130 0.7130 0.7130 0.7130 0.7130
1816.205341 0.7130 0.7130 0.7130 0.7130 0.7140
1821.042107 0.7140 0.7150 0.7160 0.7180 0.7190
1825.878873 0.7200 0.7210 0.7220 0.7220 0.7220
1830.715639 0.7220 0.7220 0.7220 0.7220 0.7220
1835.552405 0.7220 0.7220 0.7240 0.7250 0.7260
1840.389170 0.7260 0.7270 0.7280 0.7280 0.7280
1845.225936 0.7280 0.7280 0.7280 0.7280 0.7280
1850.062702 0.7280 0.7270 0.7270 0.7260 0.7260
1854.899468 0.7260 0.7260 0.7260 0.7260 0.7260
1859.736233 0.7260 0.7260 0.7260 0.7270 0.7270
1864.572999 0.7270 0.7280 0.7280 0.7300 0.7300
1869.409765 0.7310 0.7310 0.7310 0.7310 0.7320
1874.246531 0.7320 0.7320 0.7320 0.7330 0.7330
1879.083296 0.7330 0.7330 0.7360 0.7360 0.7360
1883.920062 0.7370 0.7370 0.7370 0.7380 0.7380
1888.756828 0.7380 0.7390 0.7390 0.7390 0.7400
1893.593594 0.7400 0.7400 0.7420 0.7420 0.7420
1898.430359 0.7430 0.7430 0.7430 0.7440 0.7440
1903.267125 0.7440 0.7450 0.7450 0.7450 0.7450
1908.103891 0.7450 0.7460 0.7460 0.7460 0.7460
1912.940657 0.7460 0.7480 0.7480 0.7480 0.7480
1917.777423 0.7480 0.7490 0.7490 0.7490 0.7490
1922.614188 0.7490 0.7490 0.7460 0.7480 0.7480
1927.450954 0.7480 0.7480 0.7480 0.7490 0.7490
1932.287720 0.7490 0.7490 0.7490 0.7490 0.7500
1937.124486 0.7500 0.7500 0.7510 0.7510 0.7510
1941.961251 0.7510 0.7530 0.7530 0.7530 0.7530
1946.798017 0.7540 0.7530 0.7530 0.7510 0.7500
1951.634783 0.7500 0.7500 0.7500 0.7500 0.7500
1956.471549 0.7500 0.7510 0.7510 0.7510 0.7510
1961.308314 0.7510 0.7510 0.7510 0.7510 0.7530
1966.145080 0.7540 0.7510 0.7540 0.7540 0.7540
1970.981846 0.7540 0.7540 0.7540 0.7540 0.7540
1975.818612 0.7540 0.7540 0.7540 0.7550 0.7550
1980.655377 0.7550 0.7550 0.7550 0.7550 0.7550
1985.492143 0.7550 0.7550 0.7560 0.7560 0.7560
1990.328909 0.7560 0.7560 0.7560 0.7560 0.7560
1995.165675 0.7570 0.7570 0.7570 0.7570 0.7570
2000.002440 0.7570 0.7570 0.7570 0.7570 0.7570
2004.839206 0.7570 0.7570 0.7570 0.7570 0.7580
2009.675972 0.7590 0.7590 0.7590 0.7590 0.7590
2014.512738 0.7580 0.7570 0.7570 0.7570 0.7570
2019.349504 0.7570 0.7570 0.7570 0.7570 0.7570
2024.186269 0.7585 0.7599 0.7600 0.7600 0.7605
2029.023035 0.7610 0.7610 0.7610 0.7610 0.7610
2033.859801 0.7610 0.7610 0.7610 0.7610 0.7610
2038.696567 0.7610 0.7610 0.7610 0.7610 0.7610
2043.533332 0.7610 0.7610 0.7610 0.7610 0.7610
2048.370098 0.7610 0.7615 0.7620 0.7620 0.7620
2053.206864 0.7620 0.7620 0.7620 0.7620 0.7620
2058.043630 0.7620 0.7620 0.7620 0.7620 0.7620
2062.880395 0.7620 0.7620 0.7620 0.7620 0.7620
2067.717161 0.7620 0.7620 0.7620 0.7620 0.7620
2072.553927 0.7620 0.7620 0.7620 0.7620 0.7620
2077.390693 0.7620 0.7620 0.7620 0.7620 0.7620
2082.227458 0.7620 0.7620 0.7620 0.7620 0.7620
2087.064224 0.7620 0.7620 0.7620 0.7620 0.7620
2091.900990 0.7620 0.7620 0.7620 0.7620 0.7620
2096.737756 0.7620 0.7620 0.7620 0.7620 0.7620
2101.574522 0.7620 0.7620 0.7620 0.7620 0.7620
2106.411287 0.7620 0.7620 0.7620 0.7620 0.7620
2111.248053 0.7620 0.7620 0.7620 0.7620 0.7620
2116.084819 0.7620 0.7620 0.7620 0.7616 0.7611
2120.921585 0.7610 0.7610 0.7610 0.7610 0.7610
2125.758350 0.7610 0.7610 0.7610 0.7606 0.7601
2130.595116 0.7600 0.7600 0.7600 0.7600 0.7600
2135.431882 0.7600 0.7600 0.7600 0.7596 0.7591
2140.268648 0.7590 0.7590 0.7590 0.7590 0.7582
2145.105413 0.7572 0.7570 0.7570 0.7570 0.7570
2149.942179 0.7570 0.7570 0.7570 0.7570 0.7570
2154.778945 0.7570 0.7570 0.7570 0.7570 0.7570
2159.615711 0.7570 0.7570 0.7570 0.7570 0.7570
2164.452476 0.7570 0.7570 0.7570 0.7570 0.7570
2169.289242 0.7570 0.7570 0.7570 0.7570 0.7570
2174.126008 0.7570 0.7566 0.7561 0.7560 0.7560
2178.962774 0.7560 0.7560 0.7556 0.7551 0.7550
2183.799539 0.7550 0.7550 0.7550 0.7546 0.7541
2188.636305 0.7540 0.7540 0.7536 0.7531 0.7530
2193.473071 0.7530 0.7530 0.7530 0.7530 0.7530
2198.309837 0.7530 0.7530 0.7530 0.7530 0.7523
2203.146603 0.7513 0.7510 0.7510 0.7510 0.7510
2207.983368 0.7510 0.7510 0.7506 0.7501 0.7500
2212.820134 0.7500 0.7500 0.7500 0.7496 0.7491
2217.656900 0.7494 0.7499 0.7496 0.7491 0.7490
2222.493666 0.7490 0.7486 0.7481 0.7480 0.7480
2227.330431 0.7473 0.7463 0.7457 0.7452 0.7450
2232.167197 0.7450 0.7446 0.7441 0.7440 0.7440
2237.003963 0.7440 0.7440 0.7440 0.7440 0.7437
2241.840729 0.7432 0.7433 0.7438 0.7440 0.7440
2246.677494 0.7437 0.7432 0.7430 0.7430 0.7427
2251.514260 0.7422 0.7420 0.7420 0.7420 0.7420
2256.351026 0.7413 0.7403 0.7397 0.7392 0.7383
2261.187792 0.7373 0.7367 0.7362 0.7353 0.7343
2266.024557 0.7337 0.7332 0.7330 0.7330 0.7323
2270.861323 0.7313 0.7300 0.7285 0.7277 0.7272
2275.698089 0.7267 0.7262 0.7260 0.7260 0.7260
2280.534855 0.7260 0.7260 0.7260 0.7263 0.7268
2285.371621 0.7283 0.7303 0.7313 0.7318 0.7320
2290.208386 0.7320 0.7320 0.7320 0.7320 0.7320
2295.045152 0.7323 0.7328 0.7330 0.7330 0.7330
2299.881918 0.7330 0.7327 0.7322 0.7314 0.7304
2304.718684 0.7300 0.7300 0.7294 0.7284 0.7277
2309.555449 0.7272 0.7267 0.7262 0.7260 0.7260
2314.392215 0.7257 0.7252 0.7247 0.7242 0.7240
2319.228981 0.7240 0.7234 0.7224 0.7220 0.7220
2324.065747 0.7220 0.7220 0.7220 0.7220 0.7220
2328.902512 0.7220 0.7220 0.7220 0.7220 0.7220
2333.739278 0.7220 0.7220 0.7220 0.7220 0.7220
2338.576044 0.7220 0.7220 0.7220 0.7220 0.7220
2343.412810 0.7220 0.7220 0.7226 0.7236 0.7234
2348.249575 0.7224 0.7220 0.7220 0.7217 0.7212
2353.086341 0.7207 0.7202 0.7197 0.7192 0.7187
2357.923107 0.7182 0.7180 0.7180 0.7175 0.7165
2362.759873 0.7157 0.7152 0.7147 0.7142 0.7137
2367.596638 0.7132 0.7130 0.7130 0.7130 0.7130
2372.433404 0.7130 0.7130 0.7127 0.7122 0.7120
2377.270170 0.7120 0.7120 0.7120 0.7115 0.7105
2382.106936 0.7100 0.7100 0.7097 0.7092 0.7090
2386.943702 0.7090 0.7090 0.7090 0.7090 0.7090
2391.780467 0.7090 0.7090 0.7090 0.7090 0.7090
2396.617233 0.7090 0.7090 0.7090 0.7090 0.7090
2401.453999 0.7090 0.7090 0.7088 0.7083 0.7082
2406.290765 0.7087 0.7090 0.7090 0.7090 0.7090
2411.127530 0.7090 0.7090 0.7090 0.7090 0.7090
2415.964296 0.7090 0.7090 0.7090 0.7090 0.7090
2420.801062 0.7090 0.7090 0.7092 0.7097 0.7105
2425.637828 0.7115 0.7125 0.7135 0.7142 0.7147
2430.474593 0.7150 0.7150 0.7152 0.7157 0.7160
2435.311359 0.7160 0.7164 0.7174 0.7180 0.7180
2440.148125 0.7176 0.7166 0.7160 0.7160 0.7158
2444.984891 0.7153 0.7157 0.7172 0.7176 0.7166
2449.821656 0.7160 0.7160 0.7158 0.7153 0.7150
2454.658422 0.7150 0.7148 0.7143 0.7142 0.7147
2459.495188 0.7148 0.7143 0.7140 0.7140 0.7140
2464.331954 0.7140 0.7138 0.7133 0.7132 0.7137
2469.168720 0.7140 0.7140 0.7138 0.7133 0.7128
2474.005485 0.7123 0.7122 0.7127 0.7132 0.7137
2478.842251 0.7140 0.7140 0.7140 0.7140 0.7140
2483.679017 0.7140 0.7140 0.7140 0.7138 0.7133
2488.515783 0.7130 0.7130 0.7128 0.7123 0.7120
2493.352548 0.7120 0.7114 0.7099 0.7090 0.7090
2498.189314 0.7088 0.7083 0.7078 0.7073 0.7065
2503.026080 0.7049 0.7036 0.7026 0.7016 0.7006
2507.862846 0.7000 0.7000 0.6996 0.6986 0.6978
2512.699611 0.6973 0.6970 0.6970 0.6968 0.6963
2517.536377 0.6958 0.6953 0.6950 0.6950 0.6947
2522.373143 0.6937 0.6928 0.6923 0.6920 0.6920
2527.209909 0.6918 0.6913 0.6908 0.6903 0.6898
2532.046674 0.6893 0.6890 0.6890 0.6887 0.6877
2536.883440 0.6867 0.6857 0.6848 0.6843 0.6838
2541.720206 0.6833 0.6827 0.6817 0.6808 0.6803
2546.556972 0.6800 0.6800 0.6798 0.6793 0.6788
2551.393737 0.6783 0.6778 0.6774 0.6767 0.6757
2556.230503 0.6749 0.6744 0.6740 0.6740 0.6739
2561.067269 0.6734 0.6732 0.6736 0.6740 0.6740
2565.904035 0.6740 0.6740 0.6739 0.6734 0.6729
2570.740801 0.6724 0.6720 0.6720 0.6719 0.6714
2575.577566 0.6711 0.6716 0.6720 0.6720 0.6719
2580.414332 0.6714 0.6707 0.6697 0.6687 0.6677
2585.251098 0.6667 0.6657 0.6647 0.6637 0.6627
2590.087864 0.6617 0.6607 0.6597 0.6588 0.6578
2594.924629 0.6569 0.6564 0.6560 0.6560 0.6560
2599.761395 0.6560 0.6560 0.6560 0.6564 0.6579
2604.598161 0.6590 0.6590 0.6591 0.6596 0.6600
2609.434927 0.6600 0.6599 0.6594 0.6590 0.6590
2614.271692 0.6588 0.6578 0.6570 0.6570 0.6569
2619.108458 0.6564 0.6559 0.6554 0.6549 0.6544
2623.945224 0.6539 0.6534 0.6527 0.6512 0.6500
2628.781990 0.6500 0.6500 0.6500 0.6500 0.6500
2633.618755 0.6499 0.6494 0.6490 0.6490 0.6490
2638.455521 0.6490 0.6490 0.6490 0.6491 0.6496
2643.292287 0.6500 0.6500 0.6499 0.6494 0.6490
2648.129053 0.6490 0.6489 0.6484 0.6480 0.6480
2652.965819 0.6478 0.6468 0.6458 0.6448 0.6439
2657.802584 0.6434 0.6430 0.6430 0.6429 0.6424
2662.639350 0.6420 0.6420 0.6420 0.6420 0.6420
2667.476116 0.6420 0.6420 0.6420 0.6418 0.6408
2672.312882 0.6400 0.6400 0.6400 0.6400 0.6401
2677.149647 0.6411 0.6420 0.6420 0.6418 0.6409
2681.986413 0.6400 0.6400 0.6400 0.6400 0.6400
2686.823179 0.6400 0.6399 0.6394 0.6390 0.6390
2691.659945 0.6390 0.6390 0.6390 0.6390 0.6389
2696.496710 0.6384 0.6379 0.6374 0.6369 0.6364
2701.333476 0.6359 0.6349 0.6339 0.6334 0.6329
2706.170242 0.6319 0.6308 0.6293 0.6279 0.6269
2711.007008 0.6260 0.6255 0.6250 0.6245 0.6240
2715.843773 0.6240 0.6240 0.6240 0.6240 0.6240
2720.680539 0.6240 0.6240 0.6240 0.6240 0.6240
2725.517305 0.6245 0.6251 0.6266 0.6281 0.6296
2730.354071 0.6310 0.6310 0.6310 0.6315 0.6320
2735.190836 0.6325 0.6330 0.6335 0.6341 0.6351
2740.027602 0.6360 0.6360 0.6359 0.6349 0.6339
2744.864368 0.6329 0.6320 0.6325 0.6330 0.6325
2749.701134 0.6320 0.6315 0.6310 0.6310 0.6309
2754.537900 0.6294 0.6279 0.6269 0.6259 0.6249
2759.374665 0.6239 0.6214 0.6189 0.6164 0.6140
2764.211431 0.6130 0.6119 0.6099 0.6080 0.6075
2769.048197 0.6070 0.6055 0.6040 0.6050 0.6060
2773.884963 0.6050 0.6040 0.6030 0.6019 0.5999
2778.721728 0.5979 0.5954 0.5930 0.5910 0.5889
2783.558494 0.5860 0.5830 0.5805 0.5780 0.5750
2788.395260 0.5720 0.5705 0.5690 0.5675 0.5660
2793.232026 0.5635 0.5610 0.5585 0.5560 0.5535
2798.068791 0.5510 0.5470 0.5430 0.5385 0.5340
2802.905557 0.5310 0.5280 0.5260 0.5240 0.5211
2807.742323 0.5181 0.5141 0.5101 0.5061 0.5021
2812.579089 0.4976 0.4931 0.4866 0.4801 0.4771
2817.415854 0.4741 0.4672 0.4602 0.4513 0.4423
2822.252620 0.4362 0.4302 0.4233 0.4163 0.4031
2827.089386 0.3896 0.3737 0.3578 0.3413 0.3249
2831.926152 0.3063 0.2877 0.2784 0.2694 0.2604
2836.762918 0.2514 0.2339 0.2159 0.1984 0.1810
2841.599683 0.1640 0.1470 0.1338 0.1208 0.1074
2846.436449 0.0939 0.0921 0.0911 0.0910 0.0910
2851.273215 0.0915 0.0920 0.0925 0.0930 0.0967
2856.109981 0.1007 0.1033 0.1058 0.1106 0.1156
2860.946746 0.1206 0.1256 0.1269 0.1279 0.1280
2865.783512 0.1280 0.1289 0.1299 0.1363 0.1433
2870.620278 0.1467 0.1497 0.1559 0.1624 0.1639
2875.457044 0.1649 0.1650 0.1650 0.1650 0.1650
2880.293809 0.1637 0.1622 0.1571 0.1516 0.1488
2885.130575 0.1463 0.1442 0.1422 0.1376 0.1326
2889.967341 0.1276 0.1226 0.1189 0.1154 0.1115
2894.804107 0.1075 0.1039 0.1004 0.0969 0.0934
2899.640872 0.0904 0.0874 0.0844 0.0814 0.0784
2904.477638 0.0754 0.0724 0.0694 0.0673 0.0653
2909.314404 0.0624 0.0594 0.0568 0.0543 0.0519
2914.151170 0.0494 0.0460 0.0425 0.0420 0.0420
2918.987935 0.0412 0.0402 0.0400 0.0400 0.0413
2923.824701 0.0428 0.0455 0.0485 0.0494 0.0499
2928.661467 0.0521 0.0546 0.0558 0.0568 0.0595
2933.498233 0.0625 0.0651 0.0676 0.0705 0.0735
2938.334999 0.0744 0.0749 0.0738 0.0723 0.0700
2943.171764 0.0675 0.0654 0.0634 0.0626 0.0621
2948.008530 0.0624 0.0629 0.0630 0.0630 0.0646
2952.845296 0.0666 0.0694 0.0724 0.0770 0.0820
2957.682062 0.0870 0.0920 0.0986 0.1055 0.1129
2962.518827 0.1204 0.1357 0.1532 0.1648 0.1748
2967.355593 0.1844 0.1940 0.2039 0.2139 0.2243
2972.192359 0.2347 0.2448 0.2548 0.2718 0.2907
2977.029125 0.3020 0.3109 0.3195 0.3280 0.3354
2981.865890 0.3423 0.3486 0.3545 0.3583 0.3613
2986.702656 0.3685 0.3770 0.3794 0.3799 0.3796
2991.539422 0.3791 0.3741 0.3676 0.3637 0.3607
2996.376188 0.3454 0.3259 0.3180 0.3140 0.3086
3001.212953 0.3026 0.2966 0.2906 0.2879 0.2864
3006.049719 0.2864 0.2869 0.2929 0.3009 0.3263
3010.886485 0.3577 0.3888 0.4197 0.4313 0.4358
3015.723251 0.4395 0.4430 0.4458 0.4483 0.4494
3020.560017 0.4499 0.4514 0.4534 0.4551 0.4566
3025.396782 0.4588 0.4613 0.4631 0.4646 0.4657
3030.233548 0.4667 0.4677 0.4687 0.4697 0.4707
3035.070314 0.4714 0.4718 0.4723 0.4728 0.4730
3039.907080 0.4730 0.4730 0.4730 0.4727 0.4722
3044.743845 0.4717 0.4712 0.4700 0.4685 0.4673
3049.580611 0.4663 0.4643 0.4618 0.4593 0.4568
3054.417377 0.4543 0.4518 0.4490 0.4460 0.4427
3059.254143 0.4392 0.4357 0.4322 0.4297 0.4277
3064.090908 0.4253 0.4228 0.4197 0.4162 0.4123
3068.927674 0.4083 0.4037 0.3987 0.3944 0.3904
3073.764440 0.3857 0.3807 0.3764 0.3724 0.3678
3078.601206 0.3628 0.3607 0.3602 0.3600 0.3600
3083.437971 0.3603 0.3608 0.3646 0.3700 0.3755
3088.274737 0.3810 0.3871 0.3936 0.4001 0.4066
3093.111503 0.4181 0.4326 0.4430 0.4510 0.4586
3097.948269 0.4661 0.4739 0.4819 0.4896 0.4971
3102.785034 0.5043 0.5113 0.5177 0.5237 0.5294
3107.621800 0.5349 0.5395 0.5434 0.5474 0.5514
3112.458566 0.5539 0.5554 0.5608 0.5688 0.5738
3117.295332 0.5768 0.5789 0.5804 0.5822 0.5842
3122.132098 0.5853 0.5858 0.5863 0.5868 0.5870
3126.968863 0.5870 0.5879 0.5894 0.5906 0.5916
3131.805629 0.5932 0.5952 0.5966 0.5976 0.5986
3136.642395 0.5996 0.6003 0.6008 0.6013 0.6018
3141.479161 0.6023 0.6028 0.6033 0.6038 0.6046
3146.315926 0.6056 0.6063 0.6068 0.6073 0.6078
3151.152692 0.6083 0.6088 0.6093 0.6098 0.6105
3155.989458 0.6115 0.6123 0.6128 0.6133 0.6138
3160.826224 0.6143 0.6148 0.6153 0.6158 0.6160
3165.662989 0.6160 0.6160 0.6160 0.6165 0.6175
3170.499755 0.6180 0.6180 0.6180 0.6180 0.6183
3175.336521 0.6188 0.6190 0.6190 0.6190 0.6190
3180.173287 0.6193 0.6198 0.6200 0.6200 0.6200
3185.010052 0.6200 0.6200 0.6200 0.6200 0.6200
3189.846818 0.6200 0.6200 0.6203 0.6208 0.6210
3194.683584 0.6210 0.6212 0.6217 0.6220 0.6220
3199.520350 0.6225 0.6235 0.6240 0.6240 0.6242
3204.357116 0.6247 0.6252 0.6257 0.6262 0.6267
3209.193881 0.6272 0.6277 0.6287 0.6302 0.6310
3214.030647 0.6310 0.6310 0.6310 0.6312 0.6317
3218.867413 0.6320 0.6320 0.6320 0.6320 0.6320
3223.704179 0.6320 0.6320 0.6320 0.6320 0.6320
3228.540944 0.6320 0.6320 0.6320 0.6320 0.6320
3233.377710 0.6320 0.6320 0.6320 0.6320 0.6320
3238.214476 0.6320 0.6320 0.6320 0.6320 0.6320
3243.051242 0.6320 0.6320 0.6320 0.6320 0.6320
3247.888007 0.6320 0.6320 0.6320 0.6320 0.6320
3252.724773 0.6320 0.6320 0.6320 0.6320 0.6320
3257.561539 0.6320 0.6320 0.6320 0.6320 0.6320
3262.398305 0.6320 0.6320 0.6320 0.6320 0.6320
3267.235070 0.6320 0.6320 0.6320 0.6320 0.6320
3272.071836 0.6320 0.6320 0.6320 0.6320 0.6320
3276.908602 0.6320 0.6320 0.6320 0.6320 0.6320
3281.745368 0.6320 0.6320 0.6320 0.6320 0.6320
3286.582133 0.6320 0.6320 0.6320 0.6320 0.6320
3291.418899 0.6320 0.6320 0.6320 0.6320 0.6320
3296.255665 0.6320 0.6320 0.6320 0.6320 0.6320
3301.092431 0.6320 0.6320 0.6320 0.6320 0.6320
3305.929197 0.6320 0.6320 0.6320 0.6320 0.6320
3310.765962 0.6320 0.6320 0.6320 0.6320 0.6320
3315.602728 0.6318 0.6313 0.6310 0.6310 0.6310
3320.439494 0.6310 0.6310 0.6310 0.6310 0.6310
3325.276260 0.6308 0.6303 0.6300 0.6300 0.6300
3330.113025 0.6300 0.6300 0.6300 0.6297 0.6287
3334.949791 0.6280 0.6280 0.6280 0.6280 0.6280
3339.786557 0.6280 0.6278 0.6273 0.6270 0.6270
3344.623323 0.6270 0.6270 0.6268 0.6263 0.6260
3349.460088 0.6260 0.6260 0.6260 0.6260 0.6260
3354.296854 0.6259 0.6253 0.6250 0.6250 0.6250
3359.133620 0.6250 0.6249 0.6244 0.6241 0.6246
3363.970386 0.6250 0.6250 0.6250 0.6250 0.6250
3368.807151 0.6250 0.6250 0.6250 0.6250 0.6250
3373.643917 0.6250 0.6250 0.6250 0.6250 0.6250
3378.480683 0.6250 0.6249 0.6244 0.6240 0.6240
3383.317449 0.6240 0.6240 0.6240 0.6240 0.6240
3388.154215 0.6240 0.6240 0.6240 0.6240 0.6240
3392.990980 0.6240 0.6240 0.6237 0.6227 0.6220
3397.827746 0.6220 0.6220 0.6220 0.6220 0.6220
3402.664512 0.6220 0.6220 0.6220 0.6220 0.6220
3407.501278 0.6220 0.6220 0.6220 0.6220 0.6220
3412.338043 0.6220 0.6220 0.6220 0.6220 0.6220
3417.174809 0.6220 0.6220 0.6220 0.6220 0.6220
3422.011575 0.6220 0.6220 0.6220 0.6220 0.6220
3426.848341 0.6220 0.6222 0.6232 0.6240 0.6240
3431.685106 0.6241 0.6246 0.6250 0.6250 0.6250
3436.521872 0.6250 0.6251 0.6256 0.6260 0.6260
3441.358638 0.6261 0.6266 0.6270 0.6270 0.6270
3446.195404 0.6270 0.6271 0.6276 0.6280 0.6280
3451.032169 0.6282 0.6292 0.6300 0.6300 0.6300
3455.868935 0.6300 0.6301 0.6306 0.6310 0.6310
3460.705701 0.6310 0.6310 0.6311 0.6316 0.6320
3465.542467 0.6320 0.6321 0.6326 0.6330 0.6330
3470.379232 0.6330 0.6330 0.6331 0.6336 0.6340
3475.215998 0.6340 0.6340 0.6340 0.6342 0.6351
3480.052764 0.6360 0.6360 0.6360 0.6360 0.6361
3484.889530 0.6366 0.6370 0.6370 0.6371 0.6376
3489.726296 0.6381 0.6386 0.6390 0.6390 0.6391
3494.563061 0.6396 0.6401 0.6411 0.6420 0.6420
3499.399827 0.6421 0.6426 0.6430 0.6430 0.6430
3504.236593 0.6430 0.6430 0.6430 0.6430 0.6430
3509.073359 0.6430 0.6430 0.6430 0.6430 0.6430
3513.910124 0.6430 0.6430 0.6430 0.6430 0.6430
3518.746890 0.6430 0.6435 0.6440 0.6440 0.6440
3523.583656 0.6440 0.6440 0.6440 0.6440 0.6445
3528.420422 0.6451 0.6466 0.6480 0.6485 0.6490
3533.257187 0.6495 0.6500 0.6505 0.6511 0.6521
3538.093953 0.6530 0.6535 0.6540 0.6540 0.6540
3542.930719 0.6545 0.6550 0.6550 0.6550 0.6550
3547.767485 0.6550 0.6555 0.6560 0.6560 0.6560
3552.604250 0.6560 0.6560 0.6565 0.6570 0.6570
3557.441016 0.6570 0.6570 0.6570 0.6570 0.6570
3562.277782 0.6570 0.6570 0.6570 0.6570 0.6580
3567.114548 0.6590 0.6590 0.6590 0.6595 0.6600
3571.951314 0.6605 0.6610 0.6610 0.6610 0.6615
3576.788079 0.6620 0.6625 0.6630 0.6630 0.6630
3581.624845 0.6640 0.6650 0.6650 0.6650 0.6655
3586.461611 0.6660 0.6660 0.6660 0.6660 0.6660
3591.298377 0.6665 0.6670 0.6675 0.6680 0.6680
3596.135142 0.6680 0.6680 0.6680 0.6680 0.6680
3600.971908 0.6685 0.6690 0.6700 0.6710 0.6710
3605.808674 0.6710 0.6715 0.6720 0.6720 0.6720
3610.645440 0.6725 0.6730 0.6735 0.6740 0.6740
3615.482205 0.6740 0.6755 0.6770 0.6775 0.6780
3620.318971 0.6785 0.6790 0.6790 0.6790 0.6790
3625.155737 0.6790 0.6795 0.6800 0.6805 0.6810
3629.992503 0.6810 0.6810 0.6820 0.6830 0.6835
3634.829268 0.6840 0.6840 0.6840 0.6840 0.6840
3639.666034 0.6840 0.6840 0.6840 0.6840 0.6840
3644.502800 0.6840 0.6840 0.6840 0.6845 0.6850
3649.339566 0.6850 0.6850 0.6850 0.6850 0.6850
3654.176331 0.6850 0.6850 0.6850 0.6850 0.6850
3659.013097 0.6850 0.6850 0.6850 0.6850 0.6850
3663.849863 0.6850 0.6859 0.6869 0.6884 0.6899
3668.686629 0.6909 0.6919 0.6925 0.6930 0.6930
3673.523395 0.6930 0.6925 0.6920 0.6916 0.6911
3678.360160 0.6906 0.6901 0.6900 0.6900 0.6900
3683.196926 0.6900 0.6909 0.6919 0.6920 0.6920
3688.033692 0.6920 0.6920 0.6920 0.6920 0.6920
3692.870458 0.6920 0.6911 0.6901 0.6900 0.6900
3697.707223 0.6900 0.6900 0.6900 0.6900 0.6900
3702.543989 0.6900 0.6900 0.6900 0.6900 0.6900
3707.380755 0.6900 0.6900 0.6900 0.6900 0.6900
3712.217521 0.6900 0.6900 0.6900 0.6904 0.6909
3717.054286 0.6914 0.6919 0.6920 0.6920 0.6924
3721.891052 0.6929 0.6930 0.6930 0.6938 0.6948
3726.727818 0.6954 0.6959 0.6964 0.6969 0.6974
3731.564584 0.6979 0.6980 0.6980 0.6980 0.6980
3736.401349 0.6980 0.6980 0.6976 0.6971 0.6966
3741.238115 0.6961 0.6960 0.6960 0.6956 0.6951
3746.074881 0.6938 0.6923 0.6916 0.6911 0.6906
3750.911647 0.6901 0.6896 0.6891 0.6878 0.6863
3755.748413 0.6860 0.6860 0.6860 0.6860 0.6856
3760.585178 0.6851 0.6846 0.6841 0.6840 0.6840
3765.421944 0.6840 0.6840 0.6840 0.6840 0.6836
3770.258710 0.6831 0.6830 0.6830 0.6830 0.6830
3775.095476 0.6822 0.6812 0.6810 0.6810 0.6806
3779.932241 0.6801 0.6800 0.6800 0.6800 0.6800
3784.769007 0.6800 0.6800 0.6800 0.6800 0.6800
3789.605773 0.6800 0.6800 0.6800 0.6800 0.6800
3794.442539 0.6800 0.6800 0.6800 0.6800 0.6800
3799.279304 0.6800 0.6800 0.6800 0.6800 0.6800
3804.116070 0.6800 0.6800 0.6800 0.6800 0.6800
3808.952836 0.6800 0.6800 0.6800 0.6800 0.6800
3813.789602 0.6800 0.6800 0.6800 0.6800 0.6800
3818.626367 0.6800 0.6800 0.6800 0.6804 0.6809
3823.463133 0.6810 0.6810 0.6810 0.6810 0.6810
3828.299899 0.6810 0.6810 0.6810 0.6810 0.6810
3833.136665 0.6810 0.6810 0.6810 0.6810 0.6810
3837.973430 0.6810 0.6810 0.6810 0.6810 0.6810
3842.810196 0.6810 0.6810 0.6810 0.6810 0.6810
3847.646962 0.6810 0.6810 0.6810 0.6810 0.6810
3852.483728 0.6810 0.6810 0.6810 0.6810 0.6807
3857.320494 0.6802 0.6800 0.6800 0.6800 0.6800
3862.157259 0.6800 0.6800 0.6797 0.6792 0.6790
3866.994025 0.6790 0.6790 0.6790 0.6790 0.6790
3871.830791 0.6787 0.6782 0.6780 0.6780 0.6777
3876.667557 0.6772 0.6770 0.6770 0.6763 0.6753
3881.504322 0.6747 0.6742 0.6740 0.6740 0.6740
3886.341088 0.6740 0.6740 0.6740 0.6740 0.6740
3891.177854 0.6740 0.6740 0.6740 0.6740 0.6740
3896.014620 0.6740 0.6737 0.6732 0.6730 0.6730
3900.851385 0.6730 0.6730 0.6730 0.6730 0.6730
3905.688151 0.6730 0.6730 0.6730 0.6730 0.6730
3910.524917 0.6730 0.6730
##END=
