##TITLE=Diisopropylamine hydrochloride
##JCAMP-DX=4.24
##DATA TYPE=INFRARED SPECTRUM
##CLASS=COBLENTZ III
##ORIGIN=DOW CHEMICAL COMPANY
##OWNER=COBLENTZ SOC.
Collection (C) 2018 copyright by the U.S. Secretary of Commerce
on behalf of the United States of America. All rights reserved.
##DATE=1959/06/29
##NAMES=N,N-diisopropylamine hydrochloride
##MOLFORM=C6 H16 Cl N
##SOURCE REFERENCE=COBLENTZ NO. 09844
##$NIST ID=B6009844
##$NIST SOURCE=COBLENTZ
##$NIST IMAGE=cob9844
##SPECTROMETER/DATA SYSTEM=DOW KBr FOREPRISM-GRATING
##INSTRUMENT PARAMETERS=BLAZED AT 3.5, 12.0, 20.0 MICRON AND CHANGED AT 5.0, 7.5, 14.9 MICRON
##STATE=SOLID (NUJOL MULL)
$$SPECTRAL CONTAMINATION DUE TO H2O AROUND 3400-3600, AND OIL AROUND 725, 1380, 1468, 2800-3100 CM^-^1
##SAMPLING PROCEDURE=TRANSMISSION
##RESOLUTION=2
##DATA PROCESSING=DIGITIZED BY COBLENTZ SOCIETY (BATCH I) FROM HARD COPY
##XUNITS=1/CM
##YUNITS=TRANSMITTANCE
##XLABEL=Wavenumbers (cm-1)
##YLABEL=% Transmission
##XFACTOR=1
##YFACTOR=1
##DELTAX=1
##FIRSTX=454
##LASTX=3800
##FIRSTY=0.7155
##MAXX=3800
##MINX=454
##MAXY=0.95
##MINY=0.003
##NPOINTS=3347
##XYDATA=(X++(Y..Y))
454.000000 0.7155 0.7164 0.7169 0.7176 0.7175
459.000000 0.7175 0.7172 0.7169 0.7167 0.7158
464.000000 0.7150 0.7138 0.7118 0.7088 0.7026
469.000000 0.6956 0.6821 0.6661 0.6485 0.6336
474.000000 0.6267 0.6250 0.6278 0.6262 0.6331
479.000000 0.6564 0.6797 0.7028 0.7261 0.7478
484.000000 0.7561 0.7578 0.7594 0.7594 0.7595
489.000000 0.7592 0.7565 0.7583 0.7578 0.7575
494.000000 0.7561 0.7547 0.7531 0.7511 0.7484
499.000000 0.7437 0.7243 0.7050 0.6857 0.6662
504.000000 0.6548 0.6478 0.6408 0.6343 0.6278
509.000000 0.6212 0.6146 0.5585 0.3342 0.3341
514.000000 0.3340 0.3774 0.4442 0.5110 0.5779
519.000000 0.6448 0.7115 0.7785 0.7951 0.8153
524.000000 0.8507 0.8623 0.8678 0.8735 0.8775
529.000000 0.8803 0.8831 0.8860 0.8888 0.8914
534.000000 0.8931 0.8947 0.8964 0.8980 0.8997
539.000000 0.9013 0.9030 0.9045 0.9054 0.9064
544.000000 0.9074 0.9083 0.9093 0.9103 0.9112
549.000000 0.9121 0.9130 0.9138 0.9146 0.9154
554.000000 0.9161 0.9168 0.9177 0.9185 0.9193
559.000000 0.9200 0.9208 0.9216 0.9224 0.9232
564.000000 0.9236 0.9239 0.9243 0.9247 0.9251
569.000000 0.9254 0.9258 0.9262 0.9266 0.9270
574.000000 0.9273 0.9277 0.9281 0.9284 0.9286
579.000000 0.9288 0.9290 0.9292 0.9295 0.9297
584.000000 0.9299 0.9301 0.9330 0.9306 0.9308
589.000000 0.9309 0.9309 0.9309 0.9309 0.9309
594.000000 0.9309 0.9309 0.9309 0.9308 0.9308
599.000000 0.9308 0.9308 0.9308 0.9308 0.9308
604.000000 0.9308 0.9308 0.9311 0.9316 0.9335
609.000000 0.9352 0.9368 0.9385 0.9389 0.9393
614.000000 0.9397 0.9399 0.9401 0.9402 0.9404
619.000000 0.9405 0.9407 0.9408 0.9409 0.9409
624.000000 0.9410 0.9411 0.9411 0.9412 0.9413
629.000000 0.9413 0.9414 0.9415 0.9416 0.9417
634.000000 0.9418 0.9420 0.9421 0.9423 0.9425
639.000000 0.9425 0.9428 0.9428 0.9431 0.9431
644.000000 0.9432 0.9433 0.9434 0.9435 0.9436
649.000000 0.9435 0.9435 0.9433 0.9430 0.9428
654.000000 0.9425 0.9423 0.9421 0.9417 0.9413
659.000000 0.9409 0.9405 0.9401 0.9397 0.9394
664.000000 0.9391 0.9389 0.9386 0.9386 0.9386
669.000000 0.9389 0.9393 0.9396 0.9399 0.9411
674.000000 0.9424 0.9438 0.9470 0.9500 0.9500
679.000000 0.9498 0.9493 0.9487 0.9482 0.9475
684.000000 0.9471 0.9465 0.9459 0.9452 0.9445
689.000000 0.9438 0.9428 0.9420 0.9410 0.9400
694.000000 0.9390 0.9378 0.9368 0.9358 0.9347
699.000000 0.9337 0.9325 0.9315 0.9304 0.9294
704.000000 0.9283 0.9271 0.9260 0.9247 0.9233
709.000000 0.9218 0.9205 0.9192 0.9174 0.9144
714.000000 0.9113 0.9082 0.9038 0.8977 0.8917
719.000000 0.8856 0.8771 0.8655 0.8546 0.8450
724.000000 0.8367 0.8371 0.8377 0.8385 0.8395
729.000000 0.8454 0.8531 0.8627 0.8671 0.8699
734.000000 0.8725 0.8752 0.8775 0.8793 0.8810
739.000000 0.8825 0.8838 0.8850 0.8863 0.8875
744.000000 0.8899 0.8932 0.8962 0.8986 0.9010
749.000000 0.9030 0.9042 0.9055 0.9067 0.9075
754.000000 0.9084 0.9091 0.9099 0.9106 0.9111
759.000000 0.9111 0.9112 0.9112 0.9113 0.9113
764.000000 0.9113 0.9113 0.9113 0.9112 0.9112
769.000000 0.9111 0.9111 0.9111 0.9110 0.9110
774.000000 0.9109 0.9106 0.9103 0.9101 0.9098
779.000000 0.9095 0.9093 0.9093 0.9092 0.9095
784.000000 0.9098 0.9102 0.9103 0.9104 0.9105
789.000000 0.9106 0.9107 0.9108 0.9108 0.9104
794.000000 0.9101 0.9098 0.9094 0.9091 0.9081
799.000000 0.9071 0.9063 0.9049 0.9012 0.8975
804.000000 0.8873 0.8621 0.8368 0.8115 0.7864
809.000000 0.7611 0.7464 0.7471 0.8118 0.8991
814.000000 0.9030 0.9068 0.9085 0.9102 0.9104
819.000000 0.9106 0.9118 0.9104 0.9102 0.9098
824.000000 0.9085 0.9071 0.9059 0.9046 0.9034
829.000000 0.9021 0.9009 0.8994 0.8973 0.8952
834.000000 0.8918 0.8874 0.8821 0.8741 0.8567
839.000000 0.8325 0.8082 0.7840 0.7598 0.7356
844.000000 0.7356 0.7346 0.7751 0.8268 0.8786
849.000000 0.8867 0.8911 0.8937 0.8962 0.8975
854.000000 0.8991 0.8999 0.9007 0.9015 0.9021
859.000000 0.9025 0.9031 0.9035 0.9055 0.9044
864.000000 0.9049 0.9054 0.9059 0.9059 0.9059
869.000000 0.9052 0.9045 0.9039 0.9033 0.9027
874.000000 0.9020 0.9009 0.8997 0.8986 0.8974
879.000000 0.8974 0.8974 0.8974 0.8975 0.8975
884.000000 0.8971 0.8968 0.8965 0.8946 0.8928
889.000000 0.8909 0.8902 0.8900 0.8898 0.8898
894.000000 0.8898 0.8899 0.8900 0.8902 0.8906
899.000000 0.8914 0.8921 0.8928 0.8934 0.8939
904.000000 0.8944 0.8943 0.8935 0.8928 0.8908
909.000000 0.8889 0.8866 0.8831 0.8796 0.8761
914.000000 0.8716 0.8666 0.8616 0.8557 0.8493
919.000000 0.8471 0.8471 0.8470 0.8470 0.8483
924.000000 0.8507 0.8544 0.8586 0.8634 0.8678
929.000000 0.8703 0.8718 0.8712 0.8711 0.8689
934.000000 0.8671 0.8651 0.8612 0.8564 0.8499
939.000000 0.8428 0.8353 0.8221 0.7605 0.7357
944.000000 0.7331 0.7300 0.7265 0.6921 0.6532
949.000000 0.6399 0.6403 0.6860 0.7330 0.7376
954.000000 0.7382 0.7339 0.7075 0.6811 0.6548
959.000000 0.6284 0.6020 0.5759 0.5782 0.5824
964.000000 0.6206 0.6588 0.6968 0.7351 0.7733
969.000000 0.8114 0.8111 0.8092 0.7868 0.7651
974.000000 0.7435 0.7218 0.7003 0.6787 0.6571
979.000000 0.6355 0.6139 0.6083 0.6110 0.6381
984.000000 0.6651 0.6921 0.7191 0.7461 0.7732
989.000000 0.8003 0.8165 0.8249 0.8299 0.8337
994.000000 0.8374 0.8398 0.8415 0.8432 0.8446
999.000000 0.8457 0.8457 0.8457 0.8456 0.8455
1004.000000 0.8453 0.8452 0.8450 0.8446 0.8437
1009.000000 0.8428 0.8418 0.8410 0.8399 0.8386
1014.000000 0.8373 0.8361 0.8348 0.8335 0.8323
1019.000000 0.8313 0.8305 0.8297 0.8290 0.8282
1024.000000 0.8278 0.8275 0.8271 0.8268 0.8265
1029.000000 0.8262 0.8260 0.8258 0.8257 0.8255
1034.000000 0.8254 0.8252 0.8252 0.8251 0.8251
1039.000000 0.8251 0.8251 0.8251 0.8251 0.8247
1044.000000 0.8240 0.8234 0.8227 0.8220 0.8212
1049.000000 0.8198 0.8185 0.8171 0.8157 0.8144
1054.000000 0.8130 0.8117 0.8103 0.8092 0.8081
1059.000000 0.8071 0.8060 0.8049 0.8038 0.8026
1064.000000 0.8015 0.8005 0.7994 0.7980 0.7965
1069.000000 0.7951 0.7937 0.7922 0.7908 0.7895
1074.000000 0.7878 0.7858 0.7841 0.7822 0.7805
1079.000000 0.7787 0.7768 0.7746 0.7719 0.7693
1084.000000 0.7665 0.7634 0.7581 0.7526 0.7464
1089.000000 0.7389 0.7292 0.7117 0.6982 0.6664
1094.000000 0.6184 0.5705 0.5265 0.5262 0.5760
1099.000000 0.6154 0.6281 0.6109 0.5751 0.5393
1104.000000 0.5036 0.4678 0.4321 0.3962 0.3832
1109.000000 0.3842 0.4883 0.5460 0.6036 0.6612
1114.000000 0.7189 0.7606 0.7828 0.7885 0.7942
1119.000000 0.7961 0.7978 0.7984 0.7984 0.7984
1124.000000 0.7978 0.7971 0.7960 0.7948 0.7935
1129.000000 0.7922 0.7901 0.7876 0.7851 0.7807
1134.000000 0.7758 0.7710 0.7656 0.7601 0.7547
1139.000000 0.7492 0.7430 0.7367 0.7305 0.7137
1144.000000 0.6880 0.6618 0.6355 0.6092 0.5829
1149.000000 0.5575 0.5154 0.4040 0.3268 0.2497
1154.000000 0.1966 0.1962 0.1962 0.1972 0.2153
1159.000000 0.2495 0.2837 0.3178 0.3520 0.3862
1164.000000 0.4204 0.4545 0.4887 0.5229 0.5409
1169.000000 0.5412 0.5395 0.5282 0.5044 0.4806
1174.000000 0.4568 0.4330 0.4302 0.4300 0.4305
1179.000000 0.4319 0.4333 0.4339 0.4328 0.4072
1184.000000 0.3780 0.3490 0.3252 0.3252 0.3610
1189.000000 0.4241 0.4872 0.5502 0.6132 0.6760
1194.000000 0.6783 0.6790 0.6795 0.6767 0.6672
1199.000000 0.6478 0.6284 0.6090 0.5896 0.5701
1204.000000 0.5507 0.5443 0.5445 0.5460 0.5514
1209.000000 0.5883 0.6253 0.6622 0.6993 0.7311
1214.000000 0.7421 0.7525 0.7628 0.7745 0.7874
1219.000000 0.7996 0.8094 0.8190 0.8271 0.8351
1224.000000 0.8397 0.8440 0.8462 0.8483 0.8505
1229.000000 0.8525 0.8539 0.8554 0.8562 0.8552
1234.000000 0.8543 0.8531 0.8518 0.8513 0.8510
1239.000000 0.8508 0.8507 0.8506 0.8506 0.8505
1244.000000 0.8504 0.8502 0.8500 0.8498 0.8496
1249.000000 0.8494 0.8491 0.8484 0.8478 0.8471
1254.000000 0.8464 0.8457 0.8450 0.8443 0.8436
1259.000000 0.8428 0.8418 0.8408 0.8397 0.8387
1264.000000 0.8375 0.8366 0.8356 0.8345 0.8335
1269.000000 0.8325 0.8314 0.8303 0.8291 0.8278
1274.000000 0.8267 0.8255 0.8243 0.8231 0.8218
1279.000000 0.8207 0.8195 0.8182 0.8169 0.8158
1284.000000 0.8146 0.8135 0.8122 0.8111 0.8101
1289.000000 0.8090 0.8078 0.8068 0.8057 0.8046
1294.000000 0.8035 0.8024 0.8012 0.8001 0.7991
1299.000000 0.7965 0.7924 0.7880 0.7822 0.7765
1304.000000 0.7710 0.7657 0.7604 0.7547 0.7482
1309.000000 0.7418 0.7334 0.7238 0.6915 0.6571
1314.000000 0.6386 0.6415 0.6471 0.6762 0.7054
1319.000000 0.7345 0.7636 0.7810 0.7807 0.7814
1324.000000 0.7793 0.7776 0.7758 0.7733 0.7658
1329.000000 0.7567 0.7324 0.7018 0.6711 0.6558
1334.000000 0.6542 0.6668 0.6895 0.7121 0.7348
1339.000000 0.7375 0.7330 0.7219 0.7101 0.6951
1344.000000 0.6728 0.6606 0.6532 0.6511 0.6511
1349.000000 0.6511 0.6514 0.6475 0.6323 0.6217
1354.000000 0.6103 0.5968 0.5645 0.5022 0.4962
1359.000000 0.4992 0.5321 0.5794 0.6266 0.6383
1364.000000 0.6375 0.6284 0.6120 0.5957 0.5793
1369.000000 0.5758 0.5714 0.5660 0.5286 0.4762
1374.000000 0.4241 0.3718 0.3196 0.2674 0.2151
1379.000000 0.1992 0.1999 0.2204 0.2460 0.2716
1384.000000 0.2971 0.3227 0.3482 0.3738 0.3994
1389.000000 0.4250 0.4478 0.4491 0.4474 0.4412
1394.000000 0.3891 0.3368 0.2846 0.2324 0.1801
1399.000000 0.1279 0.0863 0.0816 0.0810 0.0822
1404.000000 0.1384 0.2018 0.2652 0.3284 0.3918
1409.000000 0.4553 0.5187 0.5820 0.6448 0.6444
1414.000000 0.6437 0.6424 0.6408 0.6375 0.6321
1419.000000 0.6248 0.6050 0.5831 0.5612 0.5394
1424.000000 0.5175 0.4987 0.4994 0.5046 0.5098
1429.000000 0.5099 0.5099 0.5086 0.5065 0.5028
1434.000000 0.4976 0.4907 0.4791 0.4676 0.4539
1439.000000 0.3828 0.3185 0.2543 0.1900 0.1726
1444.000000 0.1734 0.1796 0.1975 0.2154 0.2332
1449.000000 0.2511 0.2689 0.2787 0.2768 0.2544
1454.000000 0.2319 0.2095 0.1871 0.1646 0.1421
1459.000000 0.1363 0.1312 0.1261 0.1199 0.1136
1464.000000 0.0916 0.0772 0.0686 0.0623 0.0602
1469.000000 0.0600 0.0600 0.0713 0.0858 0.1003
1474.000000 0.1146 0.1188 0.1179 0.1162 0.1146
1479.000000 0.1140 0.1138 0.1204 0.1814 0.2424
1484.000000 0.3034 0.3644 0.4254 0.4864 0.5479
1489.000000 0.5857 0.6584 0.6771 0.6948 0.7069
1494.000000 0.7140 0.7171 0.7204 0.7236 0.7268
1499.000000 0.7300 0.7332 0.7360 0.7387 0.7414
1504.000000 0.7442 0.7468 0.7496 0.7522 0.7551
1509.000000 0.7578 0.7608 0.7640 0.7669 0.7700
1514.000000 0.7731 0.7758 0.7788 0.7817 0.7846
1519.000000 0.7856 0.7861 0.7867 0.7867 0.7865
1524.000000 0.7864 0.7861 0.7861 0.7862 0.7862
1529.000000 0.7861 0.7860 0.7858 0.7856 0.7857
1534.000000 0.7858 0.7861 0.7867 0.7871 0.7876
1539.000000 0.7882 0.7889 0.7896 0.7903 0.7911
1544.000000 0.7918 0.7928 0.7941 0.7954 0.7967
1549.000000 0.7980 0.7993 0.8006 0.8015 0.8021
1554.000000 0.8028 0.8037 0.8044 0.8051 0.8055
1559.000000 0.8056 0.8057 0.8058 0.8058 0.8087
1564.000000 0.8061 0.8058 0.8049 0.8040 0.8030
1569.000000 0.8021 0.8006 0.7987 0.7968 0.7922
1574.000000 0.7844 0.7757 0.7678 0.7611 0.7561
1579.000000 0.7530 0.7503 0.6955 0.6293 0.5632
1584.000000 0.4970 0.4308 0.3646 0.2984 0.2322
1589.000000 0.2045 0.2432 0.3942 0.5452 0.6961
1594.000000 0.7350 0.7341 0.7197 0.6928 0.6661
1599.000000 0.6393 0.6314 0.6571 0.7468 0.8015
1604.000000 0.8017 0.8024 0.8033 0.8048 0.8069
1609.000000 0.8098 0.8132 0.8171 0.8209 0.8247
1614.000000 0.8270 0.8292 0.8297 0.8301 0.8304
1619.000000 0.8304 0.8305 0.8302 0.8302 0.8305
1624.000000 0.8309 0.8312 0.8320 0.8332 0.8343
1629.000000 0.8355 0.8365 0.8371 0.8380 0.8388
1634.000000 0.8396 0.8412 0.8428 0.8443 0.8458
1639.000000 0.8474 0.8490 0.8506 0.8508 0.8508
1644.000000 0.8507 0.8493 0.8478 0.8465 0.8451
1649.000000 0.8432 0.8414 0.8395 0.8375 0.8354
1654.000000 0.8331 0.8309 0.8286 0.8264 0.8241
1659.000000 0.8228 0.8218 0.8209 0.8200 0.8190
1664.000000 0.8181 0.8180 0.8186 0.8191 0.8197
1669.000000 0.8203 0.8204 0.8200 0.8197 0.8194
1674.000000 0.8191 0.8190 0.8198 0.8205 0.8216
1679.000000 0.8230 0.8243 0.8257 0.8273 0.8289
1684.000000 0.8305 0.8321 0.8336 0.8343 0.8349
1689.000000 0.8356 0.8362 0.8368 0.8375 0.8374
1694.000000 0.8371 0.8371 0.8368 0.8367 0.8366
1699.000000 0.8364 0.8362 0.8361 0.8357 0.8353
1704.000000 0.8348 0.8344 0.8339 0.8335 0.8330
1709.000000 0.8325 0.8323 0.8328 0.8333 0.8338
1714.000000 0.8348 0.8359 0.8368 0.8380 0.8391
1719.000000 0.8399 0.8406 0.8414 0.8421 0.8428
1724.000000 0.8436 0.8442 0.8445 0.8448 0.8451
1729.000000 0.8454 0.8457 0.8460 0.8464 0.8467
1734.000000 0.8470 0.8471 0.8473 0.8474 0.8475
1739.000000 0.8477 0.8478 0.8478 0.8478 0.8478
1744.000000 0.8475 0.8471 0.8468 0.8465 0.8462
1749.000000 0.8458 0.8455 0.8449 0.8440 0.8431
1754.000000 0.8423 0.8414 0.8405 0.8397 0.8388
1759.000000 0.8380 0.8380 0.8380 0.8391 0.8406
1764.000000 0.8421 0.8430 0.8433 0.8435 0.8437
1769.000000 0.8438 0.8438 0.8436 0.8432 0.8428
1774.000000 0.8418 0.8410 0.8400 0.8405 0.8413
1779.000000 0.8420 0.8427 0.8447 0.8477 0.8506
1784.000000 0.8536 0.8551 0.8566 0.8580 0.8586
1789.000000 0.8592 0.8597 0.8610 0.8628 0.8631
1794.000000 0.8620 0.8608 0.8597 0.8598 0.8598
1799.000000 0.8609 0.8618 0.8630 0.8643 0.8657
1804.000000 0.8671 0.8682 0.8688 0.8693 0.8699
1809.000000 0.8699 0.8698 0.8691 0.8684 0.8677
1814.000000 0.8670 0.8663 0.8653 0.8635 0.8617
1819.000000 0.8599 0.8581 0.8563 0.8546 0.8528
1824.000000 0.8513 0.8496 0.8478 0.8462 0.8445
1829.000000 0.8428 0.8410 0.8391 0.8371 0.8354
1834.000000 0.8335 0.8316 0.8298 0.8275 0.8254
1839.000000 0.8231 0.8208 0.8198 0.8203 0.8193
1844.000000 0.8251 0.8277 0.8303 0.8328 0.8353
1849.000000 0.8386 0.8434 0.8477 0.8518 0.8550
1854.000000 0.8563 0.8562 0.8552 0.8542 0.8530
1859.000000 0.8517 0.8505 0.8492 0.8480 0.8470
1864.000000 0.8461 0.8452 0.8442 0.8433 0.8424
1869.000000 0.8415 0.8406 0.8397 0.8388 0.8377
1874.000000 0.8365 0.8354 0.8342 0.8330 0.8321
1879.000000 0.8313 0.8275 0.8330 0.8345 0.8371
1884.000000 0.8401 0.8428 0.8452 0.8475 0.8501
1889.000000 0.8505 0.8506 0.8507 0.8509 0.8509
1894.000000 0.8506 0.8503 0.8501 0.8498 0.8495
1899.000000 0.8494 0.8498 0.8501 0.8505 0.8509
1904.000000 0.8513 0.8517 0.8521 0.8525 0.8528
1909.000000 0.8531 0.8535 0.8538 0.8541 0.8544
1914.000000 0.8548 0.8551 0.8554 0.8558 0.8562
1919.000000 0.8566 0.8557 0.8573 0.8577 0.8581
1924.000000 0.8584 0.8588 0.8594 0.8600 0.8607
1929.000000 0.8613 0.8618 0.8625 0.8625 0.8627
1934.000000 0.8628 0.8628 0.8630 0.8631 0.8632
1939.000000 0.8633 0.8634 0.8635 0.8636 0.8637
1944.000000 0.8632 0.8625 0.8618 0.8611 0.8604
1949.000000 0.8597 0.8590 0.8583 0.8575 0.8568
1954.000000 0.8581 0.8607 0.8617 0.8617 0.8616
1959.000000 0.8586 0.8525 0.8458 0.8399 0.8348
1964.000000 0.8303 0.8274 0.8244 0.8218 0.8202
1969.000000 0.8182 0.8153 0.8125 0.8098 0.8075
1974.000000 0.8053 0.8046 0.8040 0.8033 0.8034
1979.000000 0.8037 0.7980 0.8047 0.8053 0.8062
1984.000000 0.8075 0.8087 0.8104 0.8124 0.8144
1989.000000 0.8164 0.8196 0.8228 0.8266 0.8325
1994.000000 0.8387 0.8416 0.8444 0.8463 0.8468
1999.000000 0.8473 0.8484 0.8468 0.8467 0.8464
2004.000000 0.8462 0.8458 0.8454 0.8450 0.8447
2009.000000 0.8443 0.8439 0.8435 0.8432 0.8428
2014.000000 0.8425 0.8421 0.8418 0.8415 0.8412
2019.000000 0.8409 0.8406 0.8403 0.8400 0.8397
2024.000000 0.8394 0.8390 0.8387 0.8383 0.8378
2029.000000 0.8375 0.8371 0.8367 0.8363 0.8359
2034.000000 0.8355 0.8350 0.8346 0.8342 0.8338
2039.000000 0.8334 0.8330 0.8325 0.8321 0.8318
2044.000000 0.8314 0.8310 0.8306 0.8302 0.8298
2049.000000 0.8294 0.8290 0.8286 0.8282 0.8278
2054.000000 0.8274 0.8270 0.8266 0.8261 0.8257
2059.000000 0.8248 0.8240 0.8231 0.8223 0.8214
2064.000000 0.8205 0.8190 0.8175 0.8158 0.8141
2069.000000 0.8118 0.8098 0.8068 0.8041 0.8011
2074.000000 0.7983 0.7954 0.7925 0.7892 0.7858
2079.000000 0.7812 0.7768 0.7725 0.7681 0.7630
2084.000000 0.7578 0.7517 0.7455 0.7397 0.7339
2089.000000 0.7290 0.7242 0.7193 0.7144 0.7025
2094.000000 0.6906 0.6781 0.6657 0.6532 0.6408
2099.000000 0.6283 0.6159 0.6035 0.5899 0.5877
2104.000000 0.5843 0.5846 0.5849 0.5855 0.5862
2109.000000 0.6006 0.6150 0.6293 0.6437 0.6581
2114.000000 0.6725 0.6868 0.7011 0.7156 0.7300
2119.000000 0.7444 0.7588 0.7731 0.7875 0.7948
2124.000000 0.8021 0.8046 0.8071 0.8086 0.8101
2129.000000 0.8112 0.8125 0.8137 0.8150 0.8161
2134.000000 0.8175 0.8187 0.8200 0.8212 0.8225
2139.000000 0.8237 0.8250 0.8262 0.8274 0.8286
2144.000000 0.8298 0.8303 0.8327 0.8313 0.8318
2149.000000 0.8320 0.8320 0.8320 0.8320 0.8318
2154.000000 0.8317 0.8315 0.8314 0.8312 0.8311
2159.000000 0.8309 0.8308 0.8306 0.8305 0.8303
2164.000000 0.8301 0.8299 0.8297 0.8295 0.8293
2169.000000 0.8291 0.8289 0.8287 0.8285 0.8282
2174.000000 0.8278 0.8275 0.8274 0.8271 0.8268
2179.000000 0.8265 0.8262 0.8259 0.8257 0.8240
2184.000000 0.8224 0.8203 0.8183 0.8171 0.8160
2189.000000 0.8148 0.8136 0.8128 0.8119 0.8118
2194.000000 0.8117 0.8115 0.8112 0.8111 0.8111
2199.000000 0.8112 0.8115 0.8115 0.8118 0.8124
2204.000000 0.8131 0.8137 0.8144 0.8151 0.8158
2209.000000 0.8167 0.8176 0.8190 0.8204 0.8213
2214.000000 0.8223 0.8228 0.8236 0.8237 0.8239
2219.000000 0.8240 0.8242 0.8238 0.8235 0.8231
2224.000000 0.8227 0.8221 0.8218 0.8213 0.8209
2229.000000 0.8204 0.8200 0.8196 0.8192 0.8187
2234.000000 0.8183 0.8178 0.8174 0.8168 0.8165
2239.000000 0.8160 0.8156 0.8151 0.8147 0.8142
2244.000000 0.8138 0.8131 0.8125 0.8118 0.8111
2249.000000 0.8105 0.8099 0.8092 0.8086 0.8078
2254.000000 0.8072 0.8064 0.8055 0.8045 0.8036
2259.000000 0.8025 0.8015 0.8006 0.7996 0.7985
2264.000000 0.7975 0.7958 0.7944 0.7928 0.7914
2269.000000 0.7898 0.7883 0.7867 0.7851 0.7839
2274.000000 0.7826 0.7815 0.7804 0.7794 0.7785
2279.000000 0.7782 0.7780 0.7778 0.7778 0.7780
2284.000000 0.7784 0.7795 0.7807 0.7821 0.7837
2289.000000 0.7837 0.7837 0.7835 0.7834 0.7832
2294.000000 0.7830 0.7828 0.7826 0.7821 0.7815
2299.000000 0.7808 0.7801 0.7787 0.7772 0.7758
2304.000000 0.7744 0.7728 0.7715 0.7703 0.7692
2309.000000 0.7682 0.7672 0.7662 0.7654 0.7644
2314.000000 0.7635 0.7632 0.7628 0.7625 0.7624
2319.000000 0.7621 0.7621 0.7621 0.7624 0.7628
2324.000000 0.7635 0.7641 0.7647 0.7653 0.7660
2329.000000 0.7667 0.7674 0.7675 0.7676 0.7665
2334.000000 0.7654 0.7640 0.7626 0.7612 0.7600
2339.000000 0.7576 0.7554 0.7538 0.7521 0.7506
2344.000000 0.7490 0.7475 0.7460 0.7448 0.7436
2349.000000 0.7422 0.7411 0.7401 0.7391 0.7382
2354.000000 0.7372 0.7364 0.7356 0.7347 0.7339
2359.000000 0.7332 0.7325 0.7319 0.7314 0.7308
2364.000000 0.7301 0.7296 0.7290 0.7283 0.7276
2369.000000 0.7269 0.7264 0.7257 0.7250 0.7242
2374.000000 0.7234 0.7193 0.7153 0.7108 0.7065
2379.000000 0.7025 0.6985 0.6976 0.6968 0.6960
2384.000000 0.6951 0.6942 0.6933 0.6922 0.6914
2389.000000 0.6883 0.6853 0.6821 0.6789 0.6757
2394.000000 0.6725 0.6695 0.6665 0.6634 0.6604
2399.000000 0.6572 0.6542 0.6495 0.6449 0.6401
2404.000000 0.6355 0.6293 0.6231 0.6162 0.6095
2409.000000 0.6017 0.5939 0.5840 0.5741 0.5607
2414.000000 0.5474 0.5340 0.5206 0.5072 0.4939
2419.000000 0.4805 0.4672 0.4538 0.4405 0.4284
2424.000000 0.4162 0.4041 0.3918 0.3888 0.3857
2429.000000 0.3850 0.3844 0.3842 0.3897 0.3940
2434.000000 0.4041 0.4185 0.4330 0.4474 0.4619
2439.000000 0.4762 0.4908 0.5118 0.5328 0.5572
2444.000000 0.5817 0.5877 0.5937 0.5943 0.5940
2449.000000 0.5948 0.5948 0.5941 0.5935 0.5898
2454.000000 0.5862 0.5793 0.5725 0.5657 0.5590
2459.000000 0.5522 0.5454 0.5386 0.5319 0.5251
2464.000000 0.5184 0.5116 0.5048 0.4980 0.4912
2469.000000 0.4810 0.4710 0.4551 0.4392 0.4231
2474.000000 0.4071 0.3912 0.3755 0.3227 0.2699
2479.000000 0.2129 0.1560 0.1060 0.0560 0.0477
2484.000000 0.0395 0.0347 0.0299 0.0282 0.0266
2489.000000 0.0259 0.0253 0.0254 0.0256 0.0263
2494.000000 0.0270 0.0284 0.0241 0.0610 0.0922
2499.000000 0.1287 0.1652 0.2017 0.2382 0.2746
2504.000000 0.3111 0.3476 0.3841 0.4205 0.4570
2509.000000 0.4671 0.4773 0.4742 0.4710 0.4660
2514.000000 0.4612 0.4562 0.4514 0.4496 0.4478
2519.000000 0.4574 0.4671 0.4792 0.4912 0.5033
2524.000000 0.5154 0.5180 0.5215 0.5165 0.5124
2529.000000 0.5030 0.4936 0.4841 0.4747 0.4653
2534.000000 0.4559 0.4465 0.4371 0.4277 0.4183
2539.000000 0.4088 0.3994 0.3900 0.3806 0.3712
2544.000000 0.3618 0.3534 0.3484 0.3478 0.3505
2549.000000 0.3578 0.3652 0.3725 0.3799 0.3872
2554.000000 0.3946 0.4005 0.4064 0.4016 0.3971
2559.000000 0.3909 0.3849 0.3788 0.3727 0.3677
2564.000000 0.3628 0.3629 0.3630 0.3634 0.3636
2569.000000 0.3668 0.3700 0.3764 0.3827 0.3873
2574.000000 0.3918 0.4005 0.4091 0.4264 0.4437
2579.000000 0.4610 0.4784 0.4878 0.4973 0.4982
2584.000000 0.4991 0.4997 0.5004 0.5007 0.5007
2589.000000 0.5007 0.5001 0.4999 0.4994 0.4987
2594.000000 0.4980 0.4954 0.4928 0.4870 0.4812
2599.000000 0.4754 0.4697 0.4639 0.4581 0.4523
2604.000000 0.4465 0.4407 0.4349 0.4291 0.4234
2609.000000 0.4176 0.4118 0.4068 0.4021 0.4023
2614.000000 0.4025 0.4034 0.4045 0.4057 0.4068
2619.000000 0.4068 0.4068 0.4068 0.4068 0.4059
2624.000000 0.4050 0.4006 0.3962 0.3858 0.3754
2629.000000 0.3644 0.3534 0.3444 0.3354 0.3280
2634.000000 0.3206 0.3163 0.3121 0.3082 0.3043
2639.000000 0.3031 0.3020 0.3008 0.2997 0.2990
2644.000000 0.2984 0.2978 0.2973 0.2967 0.2961
2649.000000 0.2955 0.2950 0.2934 0.2921 0.2889
2654.000000 0.2858 0.2823 0.2789 0.2749 0.2709
2659.000000 0.2655 0.2601 0.2546 0.2492 0.2415
2664.000000 0.2339 0.2259 0.2179 0.2128 0.2077
2669.000000 0.2028 0.1979 0.1929 0.1879 0.1804
2674.000000 0.1731 0.1636 0.1544 0.1485 0.1427
2679.000000 0.1374 0.1322 0.1269 0.1216 0.1167
2684.000000 0.1119 0.1076 0.1034 0.0991 0.0947
2689.000000 0.0905 0.0862 0.0822 0.0785 0.0749
2694.000000 0.0714 0.0679 0.0644 0.0608 0.0573
2699.000000 0.0542 0.0511 0.0484 0.0458 0.0432
2704.000000 0.0406 0.0379 0.0353 0.0327 0.0301
2709.000000 0.0275 0.0249 0.0223 0.0198 0.0173
2714.000000 0.0148 0.0128 0.0109 0.0095 0.0082
2719.000000 0.0081 0.0081 0.0080 0.0030 0.0083
2724.000000 0.0086 0.0089 0.0092 0.0097 0.0102
2729.000000 0.0107 0.0112 0.0117 0.0122 0.0133
2734.000000 0.0144 0.0156 0.0169 0.0190 0.0210
2739.000000 0.0213 0.0217 0.0222 0.0226 0.0225
2744.000000 0.0225 0.0215 0.0207 0.0197 0.0188
2749.000000 0.0178 0.0168 0.0158 0.0148 0.0139
2754.000000 0.0131 0.0125 0.0120 0.0114 0.0109
2759.000000 0.0103 0.0098 0.0101 0.0104 0.0107
2764.000000 0.0111 0.0114 0.0118 0.0128 0.0139
2769.000000 0.0149 0.0160 0.0171 0.0182 0.0197
2774.000000 0.0211 0.0231 0.0250 0.0268 0.0288
2779.000000 0.0309 0.0331 0.0353 0.0375 0.0398
2784.000000 0.0421 0.0447 0.0471 0.0491 0.0511
2789.000000 0.0518 0.0526 0.0512 0.0498 0.0485
2794.000000 0.0471 0.0459 0.0447 0.0435 0.0423
2799.000000 0.0410 0.0398 0.0386 0.0374 0.0358
2804.000000 0.0343 0.0326 0.0309 0.0292 0.0275
2809.000000 0.0258 0.0241 0.0224 0.0207 0.0193
2814.000000 0.0179 0.0170 0.0162 0.0153 0.0144
2819.000000 0.0134 0.0126 0.0117 0.0108 0.0102
2824.000000 0.0097 0.0093 0.0090 0.0086 0.0083
2829.000000 0.0079 0.0075 0.0072 0.0069 0.0069
2834.000000 0.0069 0.0068 0.0068 0.0068 0.0068
2839.000000 0.0068 0.0068 0.0067 0.0067 0.0067
2844.000000 0.0067 0.0066 0.0066 0.0066 0.0066
2849.000000 0.0066 0.0066 0.0067 0.0068 0.0070
2854.000000 0.0073 0.0075 0.0078 0.0080 0.0082
2859.000000 0.0084 0.0087 0.0090 0.0093 0.0098
2864.000000 0.0103 0.0108 0.0113 0.0118 0.0123
2869.000000 0.0128 0.0133 0.0133 0.0135 0.0137
2874.000000 0.0139 0.0140 0.0141 0.0142 0.0143
2879.000000 0.0143 0.0143 0.0139 0.0135 0.0132
2884.000000 0.0128 0.0124 0.0121 0.0117 0.0113
2889.000000 0.0109 0.0105 0.0100 0.0095 0.0087
2894.000000 0.0080 0.0073 0.0066 0.0059 0.0052
2899.000000 0.0050 0.0049 0.0048 0.0047 0.0045
2904.000000 0.0044 0.0043 0.0042 0.0040 0.0039
2909.000000 0.0038 0.0037 0.0036 0.0035 0.0035
2914.000000 0.0035 0.0035 0.0035 0.0035 0.0035
2919.000000 0.0035 0.0035 0.0035 0.0035 0.0035
2924.000000 0.0035 0.0035 0.0035 0.0035 0.0035
2929.000000 0.0035 0.0035 0.0035 0.0036 0.0036
2934.000000 0.0037 0.0037 0.0038 0.0038 0.0039
2939.000000 0.0039 0.0040 0.0040 0.0041 0.0041
2944.000000 0.0042 0.0042 0.0043 0.0043 0.0044
2949.000000 0.0044 0.0044 0.0044 0.0045 0.0045
2954.000000 0.0046 0.0047 0.0048 0.0049 0.0050
2959.000000 0.0051 0.0052 0.0052 0.0054 0.0055
2964.000000 0.0057 0.0058 0.0059 0.0060 0.0061
2969.000000 0.0062 0.0063 0.0064 0.0065 0.0068
2974.000000 0.0072 0.0076 0.0080 0.0084 0.0088
2979.000000 0.0091 0.0095 0.0099 0.0103 0.0107
2984.000000 0.0111 0.0114 0.0118 0.0122 0.0127
2989.000000 0.0131 0.0135 0.0140 0.0145 0.0149
2994.000000 0.0154 0.0198 0.0243 0.0344 0.0446
2999.000000 0.0547 0.0648 0.0749 0.0850 0.0951
3004.000000 0.1052 0.1153 0.1254 0.1355 0.1456
3009.000000 0.1557 0.1658 0.1759 0.1860 0.1961
3014.000000 0.2062 0.2140 0.2218 0.2264 0.2311
3019.000000 0.2369 0.2427 0.2487 0.2548 0.2615
3024.000000 0.2683 0.2763 0.2844 0.2924 0.3004
3029.000000 0.3077 0.3150 0.3218 0.3288 0.3364
3034.000000 0.3443 0.3542 0.3641 0.3740 0.3839
3039.000000 0.3932 0.4025 0.4117 0.4210 0.4277
3044.000000 0.4345 0.4402 0.4459 0.4516 0.4573
3049.000000 0.4627 0.4681 0.4731 0.4781 0.4830
3054.000000 0.4880 0.4929 0.4979 0.5025 0.5072
3059.000000 0.5108 0.5145 0.5181 0.5218 0.5254
3064.000000 0.5291 0.5327 0.5364 0.5407 0.5451
3069.000000 0.5503 0.5556 0.5609 0.5662 0.5714
3074.000000 0.5767 0.5802 0.5837 0.5872 0.5908
3079.000000 0.5943 0.5979 0.6014 0.6050 0.6082
3084.000000 0.6115 0.6144 0.6174 0.6204 0.6234
3089.000000 0.6262 0.6293 0.6322 0.6352 0.6381
3094.000000 0.6410 0.6432 0.6455 0.6476 0.6500
3099.000000 0.6521 0.6545 0.6567 0.6590 0.6611
3104.000000 0.6635 0.6657 0.6678 0.6701 0.6724
3109.000000 0.6744 0.6765 0.6784 0.6803 0.6821
3114.000000 0.6841 0.6860 0.6880 0.6899 0.6918
3119.000000 0.6937 0.6956 0.6975 0.6994 0.7001
3124.000000 0.7008 0.7015 0.7024 0.7031 0.7038
3129.000000 0.7045 0.7053 0.7056 0.7056 0.7056
3134.000000 0.7056 0.7054 0.7053 0.7051 0.7072
3139.000000 0.7041 0.7032 0.7021 0.7011 0.7001
3144.000000 0.6992 0.6982 0.6971 0.6957 0.6942
3149.000000 0.6924 0.6907 0.6889 0.6871 0.6854
3154.000000 0.6837 0.6815 0.6796 0.6767 0.6738
3159.000000 0.6708 0.6680 0.6651 0.6621 0.6600
3164.000000 0.6578 0.6556 0.6535 0.6514 0.6493
3169.000000 0.6471 0.6451 0.6441 0.6431 0.6421
3174.000000 0.6411 0.6407 0.6407 0.6406 0.6390
3179.000000 0.6483 0.6557 0.6640 0.6722 0.6805
3184.000000 0.6888 0.6961 0.7036 0.7065 0.7096
3189.000000 0.7125 0.7155 0.7181 0.7207 0.7228
3194.000000 0.7251 0.7272 0.7295 0.7314 0.7334
3199.000000 0.7354 0.7374 0.7392 0.7411 0.7428
3204.000000 0.7448 0.7456 0.7464 0.7471 0.7478
3209.000000 0.7483 0.7487 0.7488 0.7489 0.7490
3214.000000 0.7491 0.7492 0.7494 0.7495 0.7496
3219.000000 0.7497 0.7498 0.7501 0.7506 0.7511
3224.000000 0.7518 0.7524 0.7530 0.7537 0.7544
3229.000000 0.7553 0.7561 0.7569 0.7578 0.7587
3234.000000 0.7596 0.7604 0.7612 0.7619 0.7626
3239.000000 0.7634 0.7641 0.7647 0.7654 0.7661
3244.000000 0.7668 0.7671 0.7675 0.7675 0.7678
3249.000000 0.7678 0.7681 0.7682 0.7684 0.7685
3254.000000 0.7686 0.7687 0.7689 0.7690 0.7692
3259.000000 0.7693 0.7695 0.7696 0.7698 0.7698
3264.000000 0.7699 0.7699 0.7700 0.7700 0.7700
3269.000000 0.7700 0.7700 0.7700 0.7701 0.7701
3274.000000 0.7701 0.7701 0.7701 0.7701 0.7701
3279.000000 0.7701 0.7701 0.7701 0.7700 0.7699
3284.000000 0.7698 0.7697 0.7696 0.7695 0.7694
3289.000000 0.7693 0.7692 0.7691 0.7690 0.7689
3294.000000 0.7688 0.7687 0.7686 0.7685 0.7684
3299.000000 0.7683 0.7682 0.7681 0.7681 0.7680
3304.000000 0.7678 0.7678 0.7678 0.7680 0.7682
3309.000000 0.7686 0.7690 0.7694 0.7698 0.7701
3314.000000 0.7706 0.7710 0.7714 0.7718 0.7721
3319.000000 0.7725 0.7728 0.7731 0.7734 0.7737
3324.000000 0.7740 0.7743 0.7746 0.7745 0.7744
3329.000000 0.7741 0.7738 0.7734 0.7731 0.7728
3334.000000 0.7725 0.7721 0.7718 0.7715 0.7711
3339.000000 0.7708 0.7705 0.7701 0.7698 0.7694
3344.000000 0.7690 0.7686 0.7682 0.7676 0.7672
3349.000000 0.7668 0.7665 0.7661 0.7657 0.7653
3354.000000 0.7649 0.7645 0.7641 0.7637 0.7633
3359.000000 0.7628 0.7624 0.7618 0.7614 0.7608
3364.000000 0.7605 0.7600 0.7596 0.7591 0.7586
3369.000000 0.7581 0.7576 0.7571 0.7567 0.7561
3374.000000 0.7558 0.7553 0.7549 0.7544 0.7539
3379.000000 0.7534 0.7530 0.7525 0.7521 0.7515
3384.000000 0.7511 0.7505 0.7500 0.7494 0.7489
3389.000000 0.7484 0.7478 0.7472 0.7468 0.7461
3394.000000 0.7457 0.7451 0.7446 0.7440 0.7435
3399.000000 0.7428 0.7424 0.7418 0.7412 0.7407
3404.000000 0.7401 0.7396 0.7391 0.7385 0.7378
3409.000000 0.7371 0.7362 0.7355 0.7347 0.7339
3414.000000 0.7331 0.7322 0.7315 0.7307 0.7299
3419.000000 0.7291 0.7283 0.7269 0.7258 0.7244
3424.000000 0.7230 0.7215 0.7201 0.7188 0.7174
3429.000000 0.7160 0.7146 0.7125 0.7107 0.7086
3434.000000 0.7065 0.7046 0.7025 0.7005 0.6985
3439.000000 0.6948 0.6911 0.6867 0.6824 0.6784
3444.000000 0.6744 0.6708 0.6672 0.6637 0.6601
3449.000000 0.6556 0.6511 0.6453 0.6394 0.6377
3454.000000 0.6360 0.6355 0.6351 0.6351 0.6351
3459.000000 0.6355 0.6359 0.6366 0.6374 0.6404
3464.000000 0.6435 0.6487 0.6539 0.6631 0.6724
3469.000000 0.6765 0.6808 0.6835 0.6862 0.6878
3474.000000 0.6893 0.6901 0.6910 0.6911 0.6915
3479.000000 0.6917 0.6917 0.6917 0.6915 0.6908
3484.000000 0.6903 0.6895 0.6888 0.6878 0.6868
3489.000000 0.6858 0.6850 0.6840 0.6831 0.6815
3494.000000 0.6800 0.6784 0.6768 0.6751 0.6736
3499.000000 0.6717 0.6699 0.6672 0.6647 0.6619
3504.000000 0.6594 0.6568 0.6542 0.6511 0.6481
3509.000000 0.6448 0.6415 0.6382 0.6349 0.6298
3514.000000 0.6248 0.6129 0.6010 0.5892 0.5774
3519.000000 0.5655 0.5537 0.5419 0.5301 0.5245
3524.000000 0.5190 0.5176 0.5162 0.5158 0.5153
3529.000000 0.5151 0.5152 0.5153 0.5158 0.5205
3534.000000 0.5252 0.5301 0.5351 0.5400 0.5449
3539.000000 0.5498 0.5548 0.5597 0.5646 0.5695
3544.000000 0.5745 0.5794 0.5843 0.5892 0.5942
3549.000000 0.5991 0.6040 0.6089 0.6139 0.6188
3554.000000 0.6237 0.6286 0.6336 0.6385 0.6434
3559.000000 0.6480 0.6525 0.6568 0.6610 0.6651
3564.000000 0.6694 0.6736 0.6778 0.6817 0.6856
3569.000000 0.6878 0.6900 0.6921 0.6945 0.6967
3574.000000 0.6990 0.7011 0.7035 0.7056 0.7076
3579.000000 0.7093 0.7110 0.7125 0.7143 0.7158
3584.000000 0.7175 0.7191 0.7208 0.7224 0.7240
3589.000000 0.7255 0.7271 0.7286 0.7301 0.7315
3594.000000 0.7332 0.7347 0.7361 0.7376 0.7392
3599.000000 0.7401 0.7412 0.7422 0.7433 0.7443
3604.000000 0.7454 0.7464 0.7474 0.7481 0.7488
3609.000000 0.7494 0.7500 0.7506 0.7512 0.7517
3614.000000 0.7521 0.7522 0.7525 0.7528 0.7532
3619.000000 0.7534 0.7537 0.7565 0.7593 0.7621
3624.000000 0.7649 0.7651 0.7655 0.7658 0.7661
3629.000000 0.7664 0.7667 0.7667 0.7667 0.7665
3634.000000 0.7665 0.7672 0.7680 0.7691 0.7701
3639.000000 0.7711 0.7721 0.7732 0.7742 0.7751
3644.000000 0.7760 0.7765 0.7769 0.7775 0.7780
3649.000000 0.7785 0.7791 0.7796 0.7801 0.7806
3654.000000 0.7811 0.7817 0.7821 0.7826 0.7833
3659.000000 0.7838 0.7843 0.7848 0.7854 0.7856
3664.000000 0.7858 0.7861 0.7864 0.7865 0.7868
3669.000000 0.7869 0.7872 0.7875 0.7876 0.7878
3674.000000 0.7882 0.7884 0.7886 0.7888 0.7890
3679.000000 0.7892 0.7894 0.7896 0.7898 0.7900
3684.000000 0.7901 0.7903 0.7905 0.7905 0.7905
3689.000000 0.7905 0.7905 0.7905 0.7905 0.7905
3694.000000 0.7905 0.7905 0.7905 0.7905 0.7905
3699.000000 0.7905 0.7905 0.7905 0.7905 0.7905
3704.000000 0.7905 0.7905 0.7905 0.7905 0.7905
3709.000000 0.7905 0.7905 0.7904 0.7904 0.7904
3714.000000 0.7904 0.7904 0.7904 0.7903 0.7903
3719.000000 0.7903 0.7903 0.7903 0.7903 0.7901
3724.000000 0.7901 0.7901 0.7901 0.7901 0.7901
3729.000000 0.7900 0.7899 0.7897 0.7896 0.7894
3734.000000 0.7892 0.7890 0.7889 0.7887 0.7886
3739.000000 0.7884 0.7882 0.7878 0.7875 0.7872
3744.000000 0.7871 0.7868 0.7868 0.7869 0.7871
3749.000000 0.7874 0.7875 0.7878 0.7878 0.7878
3754.000000 0.7878 0.7875 0.7871 0.7865 0.7861
3759.000000 0.7858 0.7854 0.7851 0.7848 0.7845
3764.000000 0.7842 0.7839 0.7836 0.7833 0.7831
3769.000000 0.7828 0.7825 0.7825 0.7830 0.7822
3774.000000 0.7822 0.7821 0.7821 0.7819 0.7819
3779.000000 0.7821 0.7824 0.7825 0.7828 0.7830
3784.000000 0.7831 0.7831 0.7831 0.7830 0.7830
3789.000000 0.7828 0.7828 0.7828 0.7826 0.7825
3794.000000 0.7825 0.7825 0.7825 0.7824 0.7824
3799.000000 0.7822 0.7822
##END=
