##TITLE=SILVER NITRATE
$$ C.P.
##JCAMP-DX=4.24
##DATA TYPE=INFRARED SPECTRUM
##CLASS=COBLENTZ
##ORIGIN=MELLON INSTITUTE
##OWNER=COBLENTZ SOCIETY
Collection (C) 2018 copyright by the U.S. Secretary of Commerce
on behalf of the United States of America. All rights reserved.
##DATE=Not specified, most likely prior to 1970
##MOLFORM=Ag N O3
##SOURCE REFERENCE=COBLENTZ NO. 530
##$NIST ID=B6000530
##$NIST SOURCE=COBLENTZ
##$NIST IMAGE=cob530
##SPECTROMETER/DATA SYSTEM=Not specified, most likely a prism, grating, or hybrid spectrometer.
##STATE=SOLID (NUJOL MULL)
##PATH LENGTH=
$$SPECTRAL CONTAMINATION DUE TO OIL AROUND 2900, 1450 CM^-^1
##SAMPLING PROCEDURE=TRANSMISSION
##RESOLUTION=4
##DATA PROCESSING=DIGITIZED BY NIST FROM HARD COPY
##XUNITS=MICROMETERS
##YUNITS=TRANSMITTANCE
##XFACTOR=1.000000
##YFACTOR=1
##DELTAX=000.006651
##FIRSTX=2.029
##LASTX=16.0083
##FIRSTY=0.64
##MAXX=16.0083
##MINX=2.029
##MAXY=0.956
##MINY=0.115
##NPOINTS=2103
##XYDATA=(X++(Y..Y))
2.029000 0.6400 0.6420 0.6430 0.6450 0.6470
2.062269 0.6470 0.6470 0.6470 0.6470 0.6480
2.096000 0.6500 0.6500 0.6520 0.6520 0.6520
2.129269 0.6520 0.6520 0.6530 0.6530 0.6550
2.162000 0.6550 0.6550 0.6550 0.6550 0.6550
2.195269 0.6550 0.6550 0.6520 0.6520 0.6520
2.229000 0.6520 0.6520 0.6520 0.6520 0.6520
2.262269 0.6520 0.6520 0.6520 0.6520 0.6520
2.295000 0.6520 0.6530 0.6530 0.6570 0.6570
2.328269 0.6580 0.6580 0.6600 0.6600 0.6600
2.362000 0.6620 0.6620 0.6620 0.6630 0.6630
2.395269 0.6630 0.6630 0.6630 0.6620 0.6620
2.428000 0.6620 0.6620 0.6630 0.6630 0.6630
2.461269 0.6630 0.6650 0.6670 0.6670 0.6680
2.495000 0.6680 0.6680 0.6700 0.6700 0.6730
2.528269 0.6750 0.6750 0.6770 0.6780 0.6780
2.561000 0.6780 0.6800 0.6820 0.6820 0.6830
2.594269 0.6850 0.6880 0.6920 0.6930 0.6950
2.628000 0.6930 0.6920 0.6900 0.6900 0.6900
2.661269 0.6900 0.6900 0.6920 0.6920 0.6920
2.694000 0.6950 0.6970 0.6980 0.6980 0.6980
2.727269 0.6980 0.6980 0.6980 0.7000 0.7000
2.761000 0.6980 0.6980 0.7000 0.7020 0.7020
2.794269 0.7020 0.7020 0.7040 0.7020 0.7020
2.827000 0.7020 0.7020 0.7020 0.7020 0.7020
2.860269 0.7020 0.7020 0.7040 0.7050 0.7050
2.894000 0.7050 0.7050 0.7050 0.7050 0.7050
2.927269 0.7050 0.7050 0.7040 0.7040 0.7040
2.960000 0.7050 0.7050 0.7050 0.7070 0.7070
2.993269 0.7090 0.7090 0.7090 0.7090 0.7090
3.027000 0.7090 0.7090 0.7090 0.7090 0.7100
3.060269 0.7090 0.7090 0.7090 0.7070 0.7070
3.093000 0.7070 0.7070 0.7090 0.7090 0.7100
3.126269 0.7100 0.7100 0.7100 0.7100 0.7100
3.160000 0.7100 0.7120 0.7140 0.7150 0.7150
3.193269 0.7170 0.7170 0.7190 0.7190 0.7190
3.226000 0.7190 0.7190 0.7190 0.7190 0.7190
3.259269 0.7190 0.7170 0.7140 0.7140 0.7120
3.293000 0.7120 0.7020 0.6500 0.5880 0.5280
3.326269 0.5100 0.4910 0.4590 0.4480 0.3960
3.359000 0.3470 0.3390 0.3320 0.3290 0.3320
3.392269 0.3370 0.3590 0.3770 0.4180 0.4540
3.426000 0.4580 0.4580 0.4580 0.4560 0.4540
3.459269 0.4530 0.4530 0.4610 0.5880 0.6570
3.492000 0.6850 0.6980 0.7200 0.7270 0.7370
3.525269 0.7440 0.7470 0.7500 0.7550 0.7570
3.559000 0.7600 0.7640 0.7650 0.7670 0.7690
3.592269 0.7700 0.7720 0.7740 0.7750 0.7750
3.625000 0.7770 0.7770 0.7790 0.7790 0.7800
3.658269 0.7800 0.7800 0.7820 0.7820 0.7820
3.692000 0.7820 0.7800 0.7820 0.7820 0.7820
3.725269 0.7820 0.7820 0.7820 0.7820 0.7840
3.758000 0.7840 0.7840 0.7850 0.7850 0.7870
3.791269 0.7890 0.7890 0.7890 0.7900 0.7900
3.825000 0.7900 0.7900 0.7900 0.7900 0.7900
3.858269 0.7900 0.7920 0.7920 0.7920 0.7920
3.891000 0.7920 0.7940 0.7940 0.7940 0.7940
3.924269 0.7940 0.7940 0.7940 0.7950 0.7970
3.958000 0.7970 0.7970 0.7990 0.7990 0.7990
3.991269 0.7990 0.7990 0.7990 0.7990 0.7990
4.024000 0.7990 0.7990 0.7990 0.7990 0.7970
4.057269 0.7970 0.7970 0.7970 0.7970 0.7970
4.091000 0.7970 0.7990 0.7970 0.7970 0.7970
4.124269 0.7950 0.7940 0.7940 0.7920 0.7920
4.157000 0.7920 0.7900 0.7900 0.7900 0.7890
4.190269 0.7890 0.7890 0.7890 0.7870 0.7870
4.224000 0.7840 0.7840 0.7820 0.7800 0.7790
4.257269 0.7770 0.7770 0.7750 0.7750 0.7740
4.290000 0.7740 0.7740 0.7740 0.7740 0.7740
4.323269 0.7740 0.7740 0.7750 0.7750 0.7790
4.357000 0.7820 0.7820 0.7840 0.7850 0.7850
4.390269 0.7870 0.7890 0.7890 0.7900 0.7900
4.423000 0.7900 0.7900 0.7920 0.7920 0.7920
4.456269 0.7920 0.7940 0.7940 0.7950 0.7950
4.490000 0.7950 0.7950 0.7970 0.7970 0.7970
4.523269 0.7990 0.7990 0.7990 0.7990 0.7990
4.556000 0.7990 0.7990 0.7990 0.7990 0.7990
4.589269 0.7990 0.7990 0.7990 0.8010 0.8010
4.623000 0.8010 0.8010 0.8020 0.8020 0.8020
4.656269 0.8020 0.8020 0.8010 0.8020 0.8020
4.689000 0.8020 0.8020 0.8020 0.8020 0.8010
4.722269 0.8010 0.8010 0.8010 0.8010 0.8010
4.756000 0.8010 0.7990 0.7990 0.8010 0.8010
4.789269 0.8010 0.8020 0.8020 0.8020 0.8040
4.822000 0.8020 0.8040 0.8060 0.8040 0.8040
4.855269 0.8060 0.8040 0.8070 0.8060 0.8060
4.889000 0.8060 0.8060 0.8060 0.8060 0.8070
4.922269 0.8070 0.8090 0.8090 0.8090 0.8110
4.955000 0.8110 0.8120 0.8120 0.8120 0.8120
4.988269 0.8120 0.8120 0.8120 0.8120 0.8140
5.022000 0.8140 0.8140 0.8140 0.8140 0.8160
5.055269 0.8170 0.8170 0.8190 0.8210 0.8210
5.088000 0.8220 0.8220 0.8220 0.8220 0.8240
5.121269 0.8240 0.8240 0.8240 0.8260 0.8260
5.155000 0.8270 0.8290 0.8290 0.8290 0.8290
5.188269 0.8310 0.8310 0.8310 0.8310 0.8310
5.221000 0.8310 0.8320 0.8320 0.8320 0.8320
5.254269 0.8320 0.8320 0.8340 0.8340 0.8340
5.288000 0.8340 0.8340 0.8360 0.8360 0.8370
5.321269 0.8390 0.8390 0.8410 0.8410 0.8410
5.354000 0.8410 0.8420 0.8420 0.8420 0.8420
5.387269 0.8420 0.8440 0.8440 0.8440 0.8460
5.421000 0.8470 0.8470 0.8490 0.8490 0.8510
5.454269 0.8520 0.8520 0.8520 0.8520 0.8520
5.487000 0.8520 0.8540 0.8540 0.8540 0.8540
5.520269 0.8540 0.8560 0.8560 0.8590 0.8590
5.554000 0.8610 0.8610 0.8610 0.8610 0.8610
5.587269 0.8610 0.8620 0.8620 0.8620 0.8640
5.620000 0.8640 0.8670 0.8690 0.8710 0.8710
5.653269 0.8720 0.8720 0.8740 0.8740 0.8740
5.687000 0.8760 0.8760 0.8770 0.8770 0.8770
5.720269 0.8790 0.8790 0.8810 0.8820 0.8820
5.753000 0.8840 0.8860 0.8860 0.8870 0.8890
5.786269 0.8910 0.8920 0.8940 0.8940 0.8970
5.820000 0.8990 0.9010 0.9010 0.9010 0.9030
5.853269 0.9030 0.9040 0.9040 0.9040 0.9040
5.886000 0.9040 0.9040 0.9060 0.9060 0.9090
5.919269 0.9090 0.9090 0.9090 0.9090 0.9090
5.953000 0.9110 0.9130 0.9130 0.9130 0.9140
5.986269 0.9140 0.9160 0.9160 0.9180 0.9160
6.019000 0.9160 0.9160 0.9160 0.9160 0.9160
6.052269 0.9160 0.9180 0.9180 0.9180 0.9180
6.086000 0.9180 0.9190 0.9190 0.9210 0.9210
6.119269 0.9210 0.9210 0.9210 0.9210 0.9230
6.152000 0.9230 0.9230 0.9230 0.9230 0.9230
6.185269 0.9230 0.9230 0.9240 0.9240 0.9230
6.219000 0.9230 0.9230 0.9230 0.9230 0.9230
6.252269 0.9230 0.9230 0.9210 0.9210 0.9190
6.285000 0.9190 0.9190 0.9190 0.9180 0.9180
6.318269 0.9180 0.9180 0.9160 0.9160 0.9140
6.352000 0.9140 0.9130 0.9130 0.9130 0.9130
6.385269 0.9130 0.9130 0.9110 0.9110 0.9090
6.418000 0.9090 0.9090 0.9090 0.9090 0.9110
6.451269 0.9110 0.9110 0.9110 0.9130 0.9130
6.485000 0.9130 0.9130 0.9110 0.9110 0.9110
6.518269 0.9090 0.9090 0.9060 0.9040 0.9030
6.551000 0.9030 0.9030 0.9030 0.9030 0.9030
6.584269 0.9030 0.9030 0.9010 0.9010 0.9010
6.618000 0.8990 0.8990 0.8990 0.8990 0.8990
6.651269 0.8990 0.8990 0.8970 0.8940 0.8920
6.684000 0.8890 0.8870 0.8820 0.8790 0.8740
6.717269 0.8670 0.8620 0.8540 0.8460 0.8360
6.751000 0.8260 0.8190 0.8110 0.7950 0.7590
6.784269 0.7500 0.7350 0.7190 0.7020 0.6950
6.817000 0.6930 0.6900 0.6870 0.6850 0.6830
6.850269 0.6800 0.6780 0.6770 0.6770 0.6750
6.884000 0.6730 0.6730 0.6730 0.6720 0.6720
6.917269 0.6720 0.6700 0.6680 0.6670 0.6650
6.950000 0.6630 0.6550 0.6500 0.6450 0.6400
6.983269 0.6350 0.6200 0.6070 0.6020 0.5910
7.017000 0.5780 0.5650 0.5450 0.5330 0.5080
7.050269 0.5010 0.4930 0.4810 0.4630 0.4540
7.083000 0.4290 0.4110 0.3990 0.3790 0.3710
7.116269 0.3520 0.3370 0.3160 0.3060 0.2940
7.150000 0.2740 0.2590 0.2520 0.2470 0.2250
7.183269 0.2050 0.2000 0.1880 0.1830 0.1800
7.216000 0.1750 0.1700 0.1630 0.1600 0.1570
7.249269 0.1530 0.1520 0.1500 0.1450 0.1430
7.283000 0.1400 0.1370 0.1330 0.1320 0.1300
7.316269 0.1250 0.1230 0.1220 0.1220 0.1200
7.349000 0.1180 0.1170 0.1170 0.1170 0.1170
7.382269 0.1150 0.1150 0.1150 0.1150 0.1150
7.416000 0.1150 0.1170 0.1170 0.1170 0.1180
7.449269 0.1180 0.1180 0.1180 0.1180 0.1180
7.482000 0.1180 0.1200 0.1200 0.1220 0.1230
7.515269 0.1270 0.1320 0.1350 0.1370 0.1400
7.549000 0.1430 0.1480 0.1500 0.1550 0.1580
7.582269 0.1600 0.1670 0.1720 0.1800 0.1870
7.615000 0.1920 0.2000 0.2020 0.2250 0.2450
7.648269 0.2540 0.2690 0.2790 0.2890 0.2990
7.682000 0.3090 0.3190 0.3270 0.3340 0.3490
7.715269 0.3590 0.3640 0.3770 0.3890 0.3990
7.748000 0.4060 0.4180 0.4230 0.4340 0.4440
7.781269 0.4510 0.4560 0.4610 0.4680 0.4730
7.815000 0.4860 0.4890 0.5080 0.5250 0.5310
7.848269 0.5450 0.5580 0.5650 0.5760 0.5900
7.881000 0.6000 0.6000 0.6070 0.6130 0.6180
7.914269 0.6250 0.6320 0.6380 0.6450 0.6520
7.948000 0.6570 0.6630 0.6680 0.6730 0.6780
7.981269 0.6820 0.6870 0.6920 0.6970 0.7020
8.015000 0.7040 0.7090 0.7120 0.7140 0.7150
8.048269 0.7200 0.7240 0.7250 0.7290 0.7300
8.081000 0.7340 0.7370 0.7390 0.7400 0.7440
8.114269 0.7450 0.7470 0.7500 0.7520 0.7540
8.148000 0.7540 0.7550 0.7590 0.7600 0.7640
8.181269 0.7650 0.7650 0.7700 0.7740 0.7750
8.214000 0.7790 0.7820 0.7820 0.7820 0.7840
8.247269 0.7840 0.7840 0.7850 0.7850 0.7870
8.281000 0.7890 0.7900 0.7920 0.7940 0.7950
8.314269 0.7970 0.7990 0.8010 0.8020 0.8040
8.347000 0.8040 0.8060 0.8070 0.8090 0.8090
8.380269 0.8110 0.8120 0.8120 0.8140 0.8140
8.414000 0.8160 0.8160 0.8160 0.8170 0.8170
8.447269 0.8170 0.8190 0.8190 0.8210 0.8210
8.480000 0.8220 0.8220 0.8220 0.8240 0.8240
8.513269 0.8260 0.8260 0.8270 0.8290 0.8310
8.547000 0.8310 0.8320 0.8320 0.8340 0.8340
8.580269 0.8340 0.8340 0.8360 0.8370 0.8390
8.613000 0.8390 0.8410 0.8420 0.8420 0.8440
8.646269 0.8440 0.8460 0.8460 0.8470 0.8490
8.680000 0.8490 0.8510 0.8510 0.8520 0.8520
8.713269 0.8520 0.8520 0.8520 0.8540 0.8540
8.746000 0.8540 0.8540 0.8540 0.8560 0.8560
8.779269 0.8560 0.8560 0.8560 0.8560 0.8560
8.813000 0.8570 0.8590 0.8590 0.8610 0.8610
8.846269 0.8610 0.8610 0.8620 0.8620 0.8610
8.879000 0.8610 0.8610 0.8610 0.8610 0.8610
8.912269 0.8610 0.8610 0.8610 0.8590 0.8590
8.946000 0.8590 0.8590 0.8590 0.8590 0.8610
8.979269 0.8610 0.8610 0.8620 0.8620 0.8640
9.012000 0.8640 0.8660 0.8660 0.8670 0.8670
9.045269 0.8690 0.8690 0.8710 0.8710 0.8710
9.079000 0.8720 0.8720 0.8720 0.8720 0.8740
9.112269 0.8760 0.8760 0.8770 0.8770 0.8770
9.145000 0.8790 0.8790 0.8790 0.8790 0.8790
9.178269 0.8790 0.8790 0.8790 0.8790 0.8820
9.212000 0.8840 0.8840 0.8840 0.8840 0.8860
9.245269 0.8860 0.8860 0.8860 0.8840 0.8840
9.278000 0.8860 0.8860 0.8870 0.8870 0.8870
9.311269 0.8890 0.8890 0.8910 0.8910 0.8910
9.345000 0.8910 0.8920 0.8940 0.8940 0.8940
9.378269 0.8960 0.8960 0.8960 0.8960 0.8960
9.411000 0.8960 0.8960 0.8960 0.8960 0.8960
9.444269 0.8970 0.8970 0.8970 0.8970 0.8970
9.478000 0.8970 0.8970 0.8970 0.8970 0.8990
9.511269 0.8990 0.8990 0.9010 0.9030 0.9030
9.544000 0.9030 0.9040 0.9040 0.9040 0.9040
9.577269 0.9060 0.9080 0.9080 0.9080 0.9090
9.611000 0.9090 0.9110 0.9090 0.9090 0.9110
9.644269 0.9110 0.9110 0.9110 0.9110 0.9110
9.677000 0.9110 0.9110 0.9110 0.9090 0.9090
9.710269 0.9090 0.9080 0.9040 0.9040 0.9040
9.744000 0.9040 0.9040 0.9060 0.9090 0.9110
9.777269 0.9110 0.9110 0.9110 0.9110 0.9130
9.810000 0.9130 0.9130 0.9130 0.9130 0.9130
9.843269 0.9130 0.9130 0.9130 0.9130 0.9130
9.877000 0.9130 0.9130 0.9130 0.9130 0.9130
9.910269 0.9130 0.9130 0.9130 0.9130 0.9130
9.943000 0.9130 0.9130 0.9130 0.9140 0.9140
9.976269 0.9140 0.9140 0.9140 0.9160 0.9160
10.010000 0.9160 0.9180 0.9180 0.9180 0.9190
10.043269 0.9190 0.9190 0.9210 0.9210 0.9210
10.076000 0.9210 0.9210 0.9190 0.9190 0.9180
10.109269 0.9140 0.9140 0.9130 0.9110 0.9110
10.143000 0.9110 0.9130 0.9130 0.9130 0.9140
10.176269 0.9140 0.9140 0.9140 0.9160 0.9160
10.209000 0.9160 0.9160 0.9160 0.9160 0.9160
10.242269 0.9160 0.9160 0.9180 0.9190 0.9190
10.276000 0.9190 0.9190 0.9190 0.9190 0.9210
10.309269 0.9210 0.9210 0.9210 0.9210 0.9210
10.342000 0.9190 0.9190 0.9190 0.9190 0.9190
10.375269 0.9190 0.9190 0.9190 0.9190 0.9190
10.409000 0.9190 0.9180 0.9180 0.9190 0.9190
10.442269 0.9190 0.9190 0.9190 0.9190 0.9190
10.475000 0.9180 0.9190 0.9190 0.9190 0.9190
10.508269 0.9190 0.9190 0.9190 0.9180 0.9180
10.542000 0.9180 0.9180 0.9180 0.9190 0.9190
10.575269 0.9190 0.9190 0.9190 0.9210 0.9210
10.608000 0.9210 0.9210 0.9210 0.9210 0.9210
10.641269 0.9210 0.9210 0.9230 0.9230 0.9230
10.675000 0.9240 0.9240 0.9240 0.9240 0.9240
10.708269 0.9240 0.9240 0.9240 0.9240 0.9240
10.741000 0.9260 0.9260 0.9260 0.9260 0.9260
10.774269 0.9260 0.9260 0.9260 0.9260 0.9260
10.808000 0.9260 0.9260 0.9240 0.9240 0.9240
10.841269 0.9240 0.9240 0.9240 0.9240 0.9240
10.874000 0.9240 0.9240 0.9260 0.9260 0.9260
10.907269 0.9280 0.9280 0.9280 0.9290 0.9290
10.941000 0.9310 0.9310 0.9310 0.9310 0.9310
10.974269 0.9310 0.9310 0.9330 0.9310 0.9310
11.007000 0.9310 0.9310 0.9290 0.9310 0.9290
11.040269 0.9290 0.9290 0.9290 0.9280 0.9280
11.074000 0.9280 0.9280 0.9280 0.9280 0.9290
11.107269 0.9290 0.9290 0.9310 0.9310 0.9310
11.140000 0.9310 0.9330 0.9330 0.9340 0.9340
11.173269 0.9340 0.9360 0.9360 0.9380 0.9380
11.207000 0.9390 0.9390 0.9390 0.9390 0.9390
11.240269 0.9390 0.9390 0.9390 0.9390 0.9390
11.273000 0.9390 0.9380 0.9380 0.9390 0.9390
11.306269 0.9390 0.9390 0.9390 0.9390 0.9390
11.340000 0.9390 0.9390 0.9410 0.9410 0.9410
11.373269 0.9430 0.9430 0.9430 0.9430 0.9430
11.406000 0.9430 0.9410 0.9390 0.9390 0.9390
11.439269 0.9390 0.9380 0.9380 0.9380 0.9380
11.473000 0.9380 0.9390 0.9410 0.9410 0.9410
11.506269 0.9430 0.9430 0.9430 0.9430 0.9430
11.539000 0.9430 0.9430 0.9430 0.9410 0.9410
11.572269 0.9410 0.9410 0.9410 0.9410 0.9410
11.606000 0.9410 0.9430 0.9440 0.9440 0.9460
11.639269 0.9460 0.9480 0.9490 0.9490 0.9480
11.672000 0.9480 0.9480 0.9460 0.9460 0.9440
11.705269 0.9440 0.9440 0.9440 0.9440 0.9460
11.739000 0.9480 0.9490 0.9490 0.9510 0.9510
11.772269 0.9530 0.9530 0.9540 0.9540 0.9540
11.805000 0.9530 0.9540 0.9540 0.9540 0.9540
11.838269 0.9540 0.9540 0.9530 0.9530 0.9530
11.872000 0.9530 0.9530 0.9510 0.9510 0.9490
11.905269 0.9480 0.9430 0.9330 0.9240 0.9210
11.938000 0.9180 0.9180 0.9190 0.9190 0.9210
11.971269 0.9240 0.9260 0.9260 0.9280 0.9260
12.005000 0.9260 0.9240 0.9260 0.9260 0.9260
12.038269 0.9280 0.9290 0.9290 0.9310 0.9330
12.071000 0.9330 0.9330 0.9310 0.9310 0.9330
12.104269 0.9330 0.9360 0.9380 0.9380 0.9390
12.138000 0.9390 0.9390 0.9390 0.9390 0.9390
12.171269 0.9390 0.9410 0.9410 0.9410 0.9430
12.204000 0.9440 0.9440 0.9460 0.9490 0.9510
12.237269 0.9510 0.9510 0.9530 0.9540 0.9540
12.271000 0.9560 0.9560 0.9560 0.9540 0.9540
12.304269 0.9540 0.9530 0.9530 0.9490 0.9460
12.337000 0.9410 0.9380 0.9330 0.9260 0.9130
12.370269 0.9030 0.8810 0.8690 0.8560 0.8440
12.404000 0.8320 0.8220 0.8020 0.7990 0.7990
12.437269 0.8010 0.8010 0.8040 0.8110 0.8160
12.470000 0.8290 0.8610 0.9040 0.9090 0.9140
12.503269 0.9190 0.9230 0.9280 0.9310 0.9330
12.537000 0.9340 0.9340 0.9380 0.9380 0.9390
12.570269 0.9390 0.9410 0.9410 0.9410 0.9410
12.603000 0.9440 0.9460 0.9490 0.9490 0.9510
12.636269 0.9510 0.9510 0.9510 0.9510 0.9530
12.670000 0.9530 0.9530 0.9530 0.9530 0.9530
12.703269 0.9530 0.9530 0.9530 0.9530 0.9530
12.736000 0.9530 0.9530 0.9530 0.9530 0.9530
12.769269 0.9530 0.9530 0.9530 0.9530 0.9530
12.803000 0.9530 0.9530 0.9530 0.9530 0.9530
12.836269 0.9530 0.9530 0.9530 0.9530 0.9530
12.869000 0.9530 0.9530 0.9510 0.9510 0.9510
12.902269 0.9510 0.9490 0.9480 0.9480 0.9460
12.936000 0.9440 0.9440 0.9440 0.9430 0.9430
12.969269 0.9430 0.9410 0.9410 0.9410 0.9410
13.002000 0.9410 0.9410 0.9390 0.9390 0.9380
13.035269 0.9380 0.9380 0.9380 0.9360 0.9360
13.069000 0.9360 0.9360 0.9360 0.9360 0.9360
13.102269 0.9340 0.9340 0.9340 0.9340 0.9340
13.135000 0.9340 0.9340 0.9340 0.9340 0.9330
13.168269 0.9330 0.9330 0.9330 0.9330 0.9330
13.202000 0.9330 0.9310 0.9310 0.9310 0.9310
13.235269 0.9310 0.9290 0.9290 0.9290 0.9290
13.268000 0.9280 0.9280 0.9280 0.9280 0.9280
13.301269 0.9290 0.9290 0.9280 0.9280 0.9280
13.335000 0.9260 0.9260 0.9240 0.9240 0.9240
13.368269 0.9230 0.9230 0.9210 0.9190 0.9180
13.401000 0.9160 0.9160 0.9160 0.9160 0.9140
13.434269 0.9160 0.9160 0.9160 0.9160 0.9160
13.468000 0.9160 0.9140 0.9140 0.9130 0.9110
13.501269 0.9090 0.9090 0.9060 0.9040 0.9040
13.534000 0.9030 0.9030 0.9030 0.8970 0.8970
13.567269 0.8920 0.8910 0.8910 0.8910 0.8910
13.601000 0.8890 0.8890 0.8910 0.8910 0.8920
13.634269 0.8920 0.8920 0.8940 0.8940 0.8940
13.667000 0.8940 0.8940 0.8920 0.8920 0.8910
13.700269 0.8870 0.8860 0.8860 0.8860 0.8860
13.734000 0.8860 0.8840 0.8840 0.8840 0.8820
13.767269 0.8810 0.8810 0.8790 0.8770 0.8770
13.800000 0.8760 0.8740 0.8740 0.8720 0.8720
13.833269 0.8720 0.8710 0.8710 0.8710 0.8690
13.867000 0.8690 0.8710 0.8710 0.8720 0.8720
13.900269 0.8720 0.8720 0.8740 0.8740 0.8740
13.933000 0.8740 0.8740 0.8740 0.8720 0.8720
13.966269 0.8720 0.8720 0.8710 0.8720 0.8720
14.000000 0.8710 0.8710 0.8710 0.8690 0.8670
14.033269 0.8670 0.8660 0.8660 0.8640 0.8620
14.067000 0.8610 0.8590 0.8570 0.8560 0.8560
14.100269 0.8540 0.8540 0.8520 0.8510 0.8490
14.133000 0.8490 0.8490 0.8470 0.8460 0.8460
14.166269 0.8460 0.8440 0.8440 0.8420 0.8420
14.200000 0.8410 0.8390 0.8370 0.8360 0.8360
14.233269 0.8360 0.8340 0.8320 0.8310 0.8270
14.266000 0.8240 0.8220 0.8190 0.8170 0.8160
14.299269 0.8160 0.8140 0.8140 0.8140 0.8120
14.333000 0.8110 0.8090 0.8070 0.8060 0.8060
14.366269 0.8020 0.8040 0.8020 0.8010 0.8010
14.399000 0.8010 0.7990 0.7990 0.7970 0.7970
14.432269 0.7970 0.7970 0.7970 0.7950 0.7950
14.466000 0.7950 0.7940 0.7940 0.7920 0.7920
14.499269 0.7920 0.7900 0.7900 0.7890 0.7870
14.532000 0.7850 0.7840 0.7840 0.7820 0.7820
14.565269 0.7800 0.7790 0.7770 0.7750 0.7740
14.599000 0.7720 0.7700 0.7670 0.7670 0.7670
14.632269 0.7650 0.7650 0.7640 0.7620 0.7620
14.665000 0.7600 0.7590 0.7570 0.7570 0.7550
14.698269 0.7550 0.7550 0.7540 0.7540 0.7520
14.732000 0.7500 0.7490 0.7490 0.7450 0.7450
14.765269 0.7440 0.7440 0.7420 0.7370 0.7350
14.798000 0.7340 0.7340 0.7300 0.7290 0.7290
14.831269 0.7290 0.7290 0.7300 0.7300 0.7300
14.865000 0.7300 0.7300 0.7300 0.7300 0.7290
14.898269 0.7270 0.7250 0.7250 0.7240 0.7220
14.931000 0.7190 0.7170 0.7140 0.7140 0.7120
14.964269 0.7120 0.7120 0.7100 0.7090 0.7050
14.998000 0.7040 0.7040 0.7020 0.7020 0.7000
15.031269 0.6980 0.6950 0.6950 0.6930 0.6930
15.064000 0.6930 0.6920 0.6920 0.6900 0.6900
15.097269 0.6900 0.6900 0.6900 0.6880 0.6880
15.131000 0.6870 0.6870 0.6870 0.6850 0.6850
15.164269 0.6830 0.6830 0.6830 0.6830 0.6820
15.197000 0.6820 0.6800 0.6820 0.6800 0.6800
15.230269 0.6800 0.6780 0.6780 0.6770 0.6770
15.264000 0.6770 0.6750 0.6750 0.6750 0.6730
15.297269 0.6730 0.6730 0.6730 0.6720 0.6700
15.330000 0.6700 0.6700 0.6680 0.6680 0.6670
15.363269 0.6670 0.6670 0.6650 0.6650 0.6650
15.397000 0.6650 0.6630 0.6630 0.6630 0.6630
15.430269 0.6630 0.6630 0.6630 0.6620 0.6620
15.463000 0.6620 0.6620 0.6620 0.6620 0.6620
15.496269 0.6620 0.6620 0.6620 0.6620 0.6620
15.530000 0.6620 0.6620 0.6620 0.6630 0.6630
15.563269 0.6630 0.6630 0.6630 0.6630 0.6600
15.596000 0.6600 0.6600 0.6600 0.6600 0.6600
15.629269 0.6620 0.6600 0.6600 0.6600 0.6600
15.663000 0.6600 0.6600 0.6600 0.6600 0.6600
15.696269 0.6600 0.6600 0.6600 0.6600 0.6600
15.729000 0.6600 0.6600 0.6600 0.6580 0.6580
15.762269 0.6580 0.6580 0.6580 0.6580 0.6570
15.796000 0.6570 0.6550 0.6570 0.6570 0.6570
15.829269 0.6570 0.6570 0.6570 0.6570 0.6570
15.862000 0.6570 0.6570 0.6550 0.6550 0.6530
15.895269 0.6530 0.6530 0.6530 0.6530 0.6530
15.929000 0.6530 0.6530 0.6520 0.6520 0.6520
15.962269 0.6500 0.6500 0.6500 0.6500 0.6480
15.995000 0.6480 0.6480 0.6480
##END=
