##TITLE=1-(p-NITROBENZYL)-5-AMYL-5-ETHYLBARBITURIC ACID
##JCAMP-DX=4.24
##DATA TYPE=INFRARED SPECTRUM
##CLASS=COBLENTZ
##ORIGIN=ABBOTT LABORATORIES - WASHBURN
##OWNER=COBLENTZ SOCIETY
Collection (C) 2018 copyright by the U.S. Secretary of Commerce
on behalf of the United States of America. All rights reserved.
##DATE=Not specified, most likely prior to 1970
##NAMES=5-ethyl-1-(4-nitrobenzyl)-5-pentyl-2,4,6(1H,3H,5H)-pyrimidinetrione
##MOLFORM=C18 H23 N3 O5
##SOURCE REFERENCE=COBLENTZ NO. 3514
##$NIST ID=B6003514
##$NIST SOURCE=COBLENTZ
##$NIST IMAGE=cob3514
##SPECTROMETER/DATA SYSTEM=PERKIN-ELMER
##STATE=SOLUTION (7% IN CHCl3)
##PATH LENGTH=0.010 CM
$$ INACTIVE (CHCl3) AROUND 750 CM^-^1
##SAMPLING PROCEDURE=TRANSMISSION
##RESOLUTION=4
##DATA PROCESSING=DIGITIZED BY NIST FROM HARD COPY (FROM TWO SEGMENTS)
##XUNITS=MICROMETERS
##YUNITS=TRANSMITTANCE
##XFACTOR=1.000000
##YFACTOR=1
##DELTAX=0.006649
##FIRSTX=2.048
##LASTX=15.4657
##FIRSTY=0.963
##MAXX=15.4657
##MINX=2.048
##MAXY=0.963
##MINY=0.023
##NPOINTS=2019
##XYDATA=(X++(Y..Y))
2.048000 0.9630 0.9610 0.9630 0.9610 0.9590
2.081245 0.9590 0.9590 0.9629 0.9630 0.9610
2.114490 0.9610 0.9608 0.9580 0.9580 0.9579
2.147735 0.9560 0.9560 0.9560 0.9561 0.9580
2.180980 0.9580 0.9580 0.9590 0.9580 0.9580
2.214225 0.9580 0.9580 0.9580 0.9580 0.9590
2.247470 0.9590 0.9590 0.9590 0.9591 0.9609
2.280715 0.9590 0.9589 0.9580 0.9579 0.9560
2.313960 0.9560 0.9560 0.9540 0.9540 0.9540
2.347205 0.9540 0.9540 0.9540 0.9540 0.9540
2.380450 0.9540 0.9540 0.9541 0.9560 0.9560
2.413695 0.9559 0.9540 0.9540 0.9540 0.9530
2.446940 0.9530 0.9530 0.9530 0.9540 0.9540
2.480185 0.9540 0.9530 0.9530 0.9530 0.9530
2.513430 0.9530 0.9531 0.9540 0.9540 0.9541
2.546675 0.9561 0.9580 0.9580 0.9579 0.9560
2.579920 0.9560 0.9560 0.9560 0.9580 0.9580
2.613165 0.9590 0.9590 0.9590 0.9609 0.9610
2.646410 0.9610 0.9610 0.9609 0.9589 0.9580
2.679655 0.9580 0.9580 0.9579 0.9559 0.9529
2.712900 0.9510 0.9490 0.9441 0.9420 0.9391
2.746145 0.9371 0.9389 0.9409 0.9420 0.9439
2.779390 0.9460 0.9459 0.9437 0.9387 0.9338
2.812635 0.9289 0.9258 0.9208 0.9169 0.9139
2.845880 0.9111 0.9090 0.9061 0.9040 0.9021
2.879125 0.9020 0.9010 0.8991 0.8971 0.8970
2.912370 0.8948 0.8918 0.8888 0.8850 0.8838
2.945615 0.8772 0.8358 0.7847 0.7520 0.7259
2.978860 0.7231 0.7230 0.7454 0.7645 0.7805
3.012105 0.7975 0.8067 0.8118 0.8149 0.8169
3.045350 0.8168 0.8128 0.8097 0.8028 0.7979
3.078595 0.7948 0.7897 0.7825 0.7697 0.7609
3.111840 0.7581 0.7531 0.7462 0.7412 0.7391
3.145085 0.7390 0.7409 0.7439 0.7507 0.7548
3.178330 0.7602 0.7652 0.7700 0.7698 0.7660
3.211575 0.7658 0.7608 0.7548 0.7498 0.7439
3.244820 0.7391 0.7361 0.7331 0.7311 0.7291
3.278065 0.7280 0.7261 0.7193 0.7180 0.7180
3.311310 0.7190 0.7190 0.7190 0.7177 0.7107
3.344555 0.7032 0.6801 0.6533 0.6293 0.6035
3.377800 0.5836 0.5627 0.5552 0.5550 0.5579
3.411045 0.5647 0.5765 0.5875 0.5966 0.6226
3.444290 0.6405 0.6528 0.6721 0.6739 0.6709
3.477535 0.6691 0.6712 0.6763 0.6874 0.7014
3.510780 0.7175 0.7305 0.7474 0.7624 0.7793
3.544025 0.8020 0.8116 0.8196 0.8295 0.8376
3.577270 0.8473 0.8543 0.8623 0.8692 0.8751
3.610515 0.8791 0.8841 0.8890 0.8900 0.8920
3.643760 0.8939 0.8950 0.9017 0.9039 0.9059
3.677005 0.9070 0.9108 0.9119 0.9139 0.9159
3.710250 0.9160 0.9170 0.9170 0.9171 0.9190
3.743495 0.9191 0.9210 0.9220 0.9240 0.9240
3.776740 0.9259 0.9270 0.9289 0.9309 0.9310
3.809985 0.9310 0.9310 0.9310 0.9310 0.9310
3.843230 0.9310 0.9309 0.9290 0.9290 0.9290
3.876475 0.9290 0.9290 0.9310 0.9310 0.9320
3.909720 0.9310 0.9310 0.9320 0.9320 0.9320
3.942965 0.9320 0.9320 0.9320 0.9311 0.9310
3.976210 0.9309 0.9290 0.9290 0.9290 0.9290
4.009455 0.9290 0.9310 0.9310 0.9310 0.9310
4.042700 0.9310 0.9291 0.9290 0.9290 0.9271
4.075945 0.9270 0.9261 0.9241 0.9212 0.9191
4.109190 0.9190 0.9190 0.9190 0.9190 0.9190
4.142435 0.9211 0.9240 0.9240 0.9260 0.9270
4.175680 0.9289 0.9309 0.9319 0.9358 0.9360
4.208925 0.9360 0.9360 0.9360 0.9360 0.9369
4.242170 0.9391 0.9420 0.9420 0.9440 0.9420
4.275415 0.9420 0.9420 0.9420 0.9440 0.9440
4.308660 0.9440 0.9440 0.9440 0.9440 0.9421
4.341905 0.9392 0.9390 0.9371 0.9361 0.9341
4.375150 0.9340 0.9320 0.9310 0.9310 0.9310
4.408395 0.9310 0.9310 0.9320 0.9320 0.9320
4.441640 0.9340 0.9342 0.9358 0.9340 0.9342
4.474885 0.9360 0.9361 0.9373 0.9410 0.9410
4.508130 0.9410 0.9410 0.9410 0.9390 0.9390
4.541375 0.9370 0.9370 0.9390 0.9370 0.9370
4.574620 0.9388 0.9370 0.9370 0.9372 0.9388
4.607865 0.9370 0.9370 0.9370 0.9370 0.9371
4.641110 0.9390 0.9410 0.9410 0.9410 0.9410
4.674355 0.9410 0.9410 0.9390 0.9390 0.9370
4.707600 0.9370 0.9370 0.9372 0.9390 0.9390
4.740845 0.9392 0.9410 0.9410 0.9410 0.9410
4.774090 0.9410 0.9420 0.9420 0.9420 0.9420
4.807335 0.9420 0.9410 0.9410 0.9410 0.9410
4.840580 0.9410 0.9410 0.9410 0.9410 0.9410
4.873825 0.9410 0.9409 0.9390 0.9389 0.9370
4.907070 0.9370 0.9370 0.9370 0.9370 0.9390
4.940315 0.9390 0.9370 0.9370 0.9370 0.9390
4.973560 0.9390 0.9390 0.9390 0.9390 0.9390
5.006805 0.9410 0.9410 0.9410 0.9391 0.9390
5.040050 0.9372 0.9370 0.9370 0.9370 0.9362
5.073295 0.9360 0.9383 0.9375 0.9363 0.9346
5.106540 0.9326 0.9320 0.9314 0.9297 0.9272
5.139785 0.9260 0.9249 0.9224 0.9190 0.9165
5.173030 0.9151 0.9131 0.9120 0.9128 0.9140
5.206275 0.9140 0.9140 0.9140 0.9140 0.9148
5.239520 0.9164 0.9177 0.9197 0.9210 0.9210
5.272765 0.9213 0.9220 0.9220 0.9224 0.9240
5.306010 0.9237 0.9220 0.9219 0.9210 0.9210
5.339255 0.9210 0.9211 0.9240 0.9240 0.9221
5.372500 0.9211 0.9173 0.9170 0.9161 0.9169
5.405745 0.9170 0.9186 0.9206 0.9210 0.9180
5.438990 0.9163 0.9146 0.9126 0.9120 0.9114
5.472235 0.9096 0.9068 0.9046 0.9020 0.8984
5.505480 0.8957 0.8950 0.8944 0.8917 0.8900
5.538725 0.8847 0.8795 0.8780 0.8761 0.8746
5.571970 0.8732 0.8712 0.8689 0.8659 0.8623
5.605215 0.8577 0.8542 0.8507 0.8458 0.8405
5.638460 0.8334 0.8252 0.8146 0.7994 0.7806
5.671705 0.7606 0.7344 0.6658 0.5723 0.5213
5.704950 0.4693 0.4183 0.4048 0.3994 0.3945
5.738195 0.3940 0.3969 0.4018 0.4020 0.4011
5.771440 0.3911 0.3724 0.3330 0.2319 0.1606
5.804685 0.1370 0.1157 0.1041 0.0956 0.0853
5.837930 0.0739 0.0680 0.0613 0.0549 0.0470
5.871175 0.0401 0.0369 0.0380 0.0405 0.0434
5.904420 0.0487 0.0520 0.0503 0.0460 0.0404
5.937665 0.0324 0.0257 0.0253 0.0271 0.0325
5.970910 0.0430 0.0551 0.0821 0.1812 0.2872
6.004155 0.3713 0.4180 0.4661 0.4997 0.5182
6.037400 0.5419 0.5927 0.6118 0.6264 0.6399
6.070645 0.6515 0.6592 0.6640 0.6883 0.7166
6.103890 0.7273 0.7371 0.7469 0.7541 0.7618
6.137135 0.7655 0.7693 0.7723 0.7752 0.7760
6.170380 0.7753 0.7750 0.7716 0.7654 0.7345
6.203625 0.6849 0.6319 0.5837 0.5482 0.5198
6.236870 0.5030 0.5029 0.5221 0.5675 0.6119
6.270115 0.6407 0.6672 0.6942 0.7285 0.7533
6.303360 0.7642 0.7688 0.7749 0.7805 0.7867
6.336605 0.7919 0.7966 0.7991 0.8027 0.8056
6.369850 0.8088 0.8122 0.8133 0.8153 0.8170
6.403095 0.8170 0.8171 0.8180 0.8180 0.8180
6.436340 0.8170 0.8151 0.8104 0.8027 0.7967
6.469585 0.7934 0.7862 0.7792 0.7725 0.7588
6.502830 0.7386 0.7011 0.6502 0.5914 0.5473
6.536075 0.5110 0.4471 0.3628 0.2892 0.2452
6.569320 0.2286 0.2227 0.2147 0.2067 0.2040
6.602565 0.2137 0.2359 0.2848 0.3410 0.3841
6.635810 0.4172 0.4447 0.4744 0.5034 0.5496
6.669055 0.6086 0.6399 0.6598 0.6790 0.6840
6.702300 0.6833 0.6810 0.6806 0.6790 0.6793
6.735545 0.6818 0.6881 0.6982 0.7117 0.7211
6.768790 0.7280 0.7339 0.7379 0.7380 0.7362
6.802035 0.7288 0.7174 0.6814 0.6405 0.6099
6.835280 0.5736 0.5574 0.5461 0.5271 0.5105
6.868525 0.5040 0.4997 0.4954 0.4909 0.4712
6.901770 0.4426 0.4251 0.4084 0.3846 0.3581
6.935015 0.3371 0.3012 0.2662 0.2353 0.2061
6.968260 0.1820 0.1621 0.1496 0.1440 0.1444
7.001505 0.1492 0.1571 0.1600 0.1649 0.1749
7.034750 0.1861 0.1949 0.2062 0.2164 0.2273
7.067995 0.2335 0.2363 0.2380 0.2381 0.2390
7.101240 0.2389 0.2360 0.2340 0.2340 0.2340
7.134485 0.2359 0.2406 0.2455 0.2539 0.2636
7.167730 0.2679 0.2774 0.2854 0.2923 0.3054
7.200975 0.3122 0.3172 0.3180 0.3140 0.3122
7.234220 0.3105 0.3086 0.3073 0.3070 0.3077
7.267465 0.3080 0.3080 0.3092 0.3129 0.3167
7.300710 0.3206 0.3230 0.3230 0.3230 0.3226
7.333955 0.3220 0.3212 0.3192 0.3180 0.3163
7.367200 0.3111 0.3045 0.2967 0.2902 0.2750
7.400445 0.2483 0.2262 0.2116 0.1985 0.1605
7.433690 0.1315 0.1092 0.0957 0.0798 0.0503
7.466935 0.0395 0.0354 0.0297 0.0258 0.0230
7.500180 0.0232 0.0328 0.0454 0.0797 0.1306
7.533425 0.1520 0.1979 0.2289 0.2565 0.2733
7.566670 0.2880 0.3016 0.3072 0.3216 0.3360
7.599915 0.3515 0.3668 0.3739 0.3781 0.3824
7.633160 0.3875 0.3911 0.3910 0.3871 0.3807
7.666405 0.3738 0.3652 0.3553 0.3449 0.3314
7.699650 0.3213 0.3208 0.3285 0.3424 0.3559
7.732895 0.3714 0.3891 0.4094 0.4326 0.4540
7.766140 0.4652 0.4780 0.4851 0.4898 0.4935
7.799385 0.4971 0.5030 0.5024 0.4976 0.4936
7.832630 0.4887 0.4837 0.4761 0.4712 0.4681
7.865875 0.4680 0.4707 0.4755 0.4830 0.4942
7.899120 0.5077 0.5247 0.5334 0.5387 0.5604
7.932365 0.5815 0.5987 0.6181 0.6374 0.6535
7.965610 0.6651 0.6737 0.6835 0.6951 0.7068
7.998855 0.7142 0.7178 0.7232 0.7277 0.7340
8.032100 0.7396 0.7426 0.7469 0.7504 0.7510
8.065345 0.7506 0.7492 0.7480 0.7455 0.7387
8.098590 0.7331 0.7295 0.7247 0.7203 0.7176
8.131835 0.7154 0.7127 0.7107 0.7084 0.7039
8.165080 0.7028 0.7010 0.7010 0.7010 0.6971
8.198325 0.6960 0.6969 0.6970 0.6970 0.6961
8.231570 0.6960 0.6960 0.6960 0.6960 0.6960
8.264815 0.6960 0.6960 0.6943 0.6940 0.6956
8.298060 0.6960 0.6960 0.6960 0.6960 0.6960
8.331305 0.6967 0.6970 0.6951 0.6928 0.6891
8.364550 0.6841 0.6765 0.6688 0.6506 0.6211
8.397795 0.5939 0.5745 0.5621 0.5538 0.5505
8.431040 0.5473 0.5450 0.5445 0.5548 0.5759
8.464285 0.5900 0.6006 0.6187 0.6386 0.6597
8.497530 0.6779 0.6911 0.6934 0.7084 0.7142
8.530775 0.7240 0.7309 0.7406 0.7523 0.7576
8.564020 0.7652 0.7722 0.7730 0.7747 0.7750
8.597265 0.7750 0.7759 0.7760 0.7760 0.7760
8.630510 0.7777 0.7780 0.7764 0.7760 0.7753
8.663755 0.7750 0.7736 0.7730 0.7698 0.7649
8.697000 0.7618 0.7581 0.7532 0.7494 0.7444
8.730245 0.7396 0.7362 0.7340 0.7348 0.7360
8.763490 0.7368 0.7384 0.7397 0.7426 0.7475
8.796735 0.7515 0.7535 0.7552 0.7560 0.7560
8.829980 0.7558 0.7547 0.7528 0.7509 0.7500
8.863225 0.7496 0.7480 0.7477 0.7454 0.7408
8.896470 0.7390 0.7390 0.7390 0.7380 0.7390
8.929715 0.7390 0.7409 0.7410 0.7437 0.7458
8.962960 0.7460 0.7443 0.7440 0.7400 0.7343
8.996205 0.7256 0.7130 0.6916 0.6705 0.6449
9.029450 0.6235 0.6021 0.5822 0.5692 0.5611
9.062695 0.5575 0.5585 0.5624 0.5686 0.5760
9.095940 0.5850 0.5932 0.5976 0.6045 0.6134
9.129185 0.6249 0.6342 0.6468 0.6589 0.6645
9.162430 0.6717 0.6825 0.6961 0.7058 0.7222
9.195675 0.7352 0.7398 0.7442 0.7509 0.7567
9.228920 0.7616 0.7669 0.7752 0.7783 0.7831
9.262165 0.7861 0.7928 0.7949 0.7959 0.8015
9.295410 0.8110 0.8120 0.8163 0.8178 0.8196
9.328655 0.8224 0.8260 0.8307 0.8320 0.8327
9.361900 0.8343 0.8370 0.8412 0.8473 0.8554
9.395145 0.8607 0.8633 0.8647 0.8682 0.8725
9.428390 0.8770 0.8807 0.8837 0.8861 0.8880
9.461635 0.8895 0.8919 0.8953 0.8987 0.9014
9.494880 0.9035 0.9064 0.9077 0.9090 0.9096
9.528125 0.9110 0.9113 0.9120 0.9120 0.9123
9.561370 0.9140 0.9140 0.9140 0.9140 0.9140
9.594615 0.9140 0.9139 0.9120 0.9120 0.9111
9.627860 0.9110 0.9092 0.9090 0.9073 0.9070
9.661105 0.9045 0.9016 0.8947 0.8922 0.8894
9.694350 0.8890 0.8890 0.8890 0.8874 0.8854
9.727595 0.8812 0.8793 0.8762 0.8730 0.8707
9.760840 0.8694 0.8666 0.8650 0.8616 0.8562
9.794085 0.8519 0.8474 0.8436 0.8398 0.8340
9.827330 0.8288 0.8223 0.8006 0.7721 0.7633
9.860575 0.7594 0.7574 0.7560 0.7580 0.7677
9.893820 0.7808 0.7935 0.7976 0.8080 0.8159
9.927065 0.8236 0.8302 0.8333 0.8400 0.8429
9.960310 0.8478 0.8499 0.8518 0.8565 0.8588
9.993555 0.8642 0.8692 0.8700 0.8718 0.8738
10.026800 0.8767 0.8787 0.8815 0.8878 0.8890
10.060045 0.8898 0.8900 0.8915 0.8934 0.8947
10.093290 0.8963 0.8983 0.9003 0.9016 0.9032
10.126535 0.9051 0.9065 0.9070 0.9080 0.9099
10.159780 0.9110 0.9114 0.9120 0.9128 0.9140
10.193025 0.9140 0.9133 0.9120 0.9120 0.9120
10.226270 0.9120 0.9120 0.9120 0.9118 0.9110
10.259515 0.9110 0.9110 0.9107 0.9069 0.9057
10.292760 0.9037 0.9019 0.9008 0.8988 0.8970
10.326005 0.8969 0.8950 0.8940 0.8940 0.8940
10.359250 0.8940 0.8940 0.8940 0.8923 0.8903
10.392495 0.8900 0.8892 0.8859 0.8842 0.8825
10.425740 0.8820 0.8806 0.8800 0.8800 0.8800
10.458985 0.8800 0.8800 0.8794 0.8790 0.8790
10.492230 0.8780 0.8770 0.8770 0.8762 0.8750
10.525475 0.8746 0.8733 0.8720 0.8720 0.8720
10.558720 0.8720 0.8720 0.8720 0.8720 0.8720
10.591965 0.8729 0.8750 0.8755 0.8775 0.8792
10.625210 0.8800 0.8803 0.8827 0.8872 0.8890
10.658455 0.8890 0.8891 0.8900 0.8901 0.8940
10.691700 0.8940 0.8921 0.8920 0.8920 0.8920
10.724945 0.8920 0.8920 0.8904 0.8892 0.8851
10.758190 0.8810 0.8779 0.8770 0.8757 0.8678
10.791435 0.8583 0.8544 0.8504 0.8416 0.8331
10.824680 0.8288 0.8210 0.8145 0.8100 0.8045
10.857925 0.7986 0.7944 0.7930 0.7895 0.7836
10.891170 0.7805 0.7792 0.7780 0.7772 0.7760
10.924415 0.7760 0.7760 0.7760 0.7766 0.7785
10.957660 0.7802 0.7818 0.7860 0.7913 0.7939
10.990905 0.8008 0.8073 0.8104 0.8154 0.8223
11.024150 0.8301 0.8329 0.8397 0.8475 0.8498
11.057395 0.8545 0.8585 0.8616 0.8645 0.8683
11.090640 0.8730 0.8749 0.8750 0.8767 0.8787
11.123885 0.8798 0.8816 0.8836 0.8863 0.8885
11.157130 0.8890 0.8890 0.8890 0.8890 0.8890
11.190375 0.8878 0.8858 0.8844 0.8840 0.8840
11.223620 0.8830 0.8820 0.8820 0.8820 0.8812
11.256865 0.8796 0.8783 0.8770 0.8754 0.8711
11.290110 0.8679 0.8643 0.8614 0.8582 0.8542
11.323355 0.8493 0.8443 0.8394 0.8345 0.8298
11.356600 0.8268 0.8229 0.8191 0.8123 0.8065
11.389845 0.8015 0.7949 0.7928 0.7860 0.7850
11.423090 0.7830 0.7849 0.7877 0.7898 0.7900
11.456335 0.7909 0.7910 0.7910 0.7910 0.7910
11.489580 0.7910 0.7925 0.7930 0.7930 0.7943
11.522825 0.7950 0.7950 0.7956 0.7960 0.7960
11.556070 0.7955 0.7950 0.7940 0.7894 0.7829
11.589315 0.7772 0.7703 0.7642 0.7593 0.7540
11.622560 0.7488 0.7437 0.7367 0.7319 0.7276
11.655805 0.7256 0.7238 0.7224 0.7184 0.7135
11.689050 0.7089 0.7075 0.7008 0.6966 0.6936
11.722295 0.6908 0.6888 0.6870 0.6871 0.6890
11.755540 0.6890 0.6910 0.6939 0.6959 0.6987
11.788785 0.7025 0.7039 0.7057 0.7077 0.7080
11.822030 0.7080 0.7088 0.7090 0.7104 0.7110
11.855275 0.7130 0.7140 0.7165 0.7186 0.7231
11.888520 0.7305 0.7340 0.7366 0.7415 0.7468
11.921765 0.7504 0.7518 0.7562 0.7629 0.7678
11.955010 0.7724 0.7750 0.7753 0.7766 0.7788
11.988255 0.7811 0.7837 0.7853 0.7866 0.7886
12.021500 0.7900 0.7900 0.7902 0.7914 0.7930
12.054745 0.7933 0.7950 0.7951 0.7962 0.7981
12.087990 0.8001 0.8020 0.8020 0.8020 0.8020
12.121235 0.8020 0.8029 0.8030 0.8021 0.8003
12.154480 0.8000 0.8000 0.7969 0.7952 0.7936
12.187725 0.7930 0.7883 0.7840 0.7811 0.7775
12.220970 0.7754 0.7721 0.7689 0.7664 0.7626
12.254215 0.7604 0.7600 0.7588 0.7563 0.7539
12.287460 0.7520 0.7495 0.7470 0.7451 0.7436
12.320705 0.7422 0.7402 0.7390 0.7387 0.7367
12.353950 0.7325 0.7282 0.7247 0.7186 0.7099
12.387195 0.7051 0.6996 0.6913 0.6861 0.6787
12.420440 0.6758 0.6739 0.6720 0.6720 0.6710
12.453685 0.6691 0.6690 0.6708 0.6737 0.6758
12.486930 0.6769 0.6787 0.6790 0.6814 0.6859
12.520175 0.6904 0.6919 0.6920 0.6936 0.6964
12.553420 0.6986 0.7005 0.7025 0.7037 0.7068
12.586665 0.7080 0.7086 0.7090 0.7114 0.7147
12.619910 0.7177 0.7201 0.7220 0.7235 0.7240
12.653155 0.7240 0.7248 0.7260 0.7260 0.7271
12.686400 0.7297 0.7310 0.7316 0.7333 0.7340
12.719645 0.7340 0.7344 0.7365 0.7390 0.7393
12.752890 0.7412 0.7430 0.7432 0.7461 0.7480
12.786135 0.7480 0.7480 0.7482 0.7500 0.7500
12.819380 0.7500 0.7500 0.7510 0.7510 0.7529
12.852625 0.7549 0.7550 0.7559 0.7577 0.7597
12.885870 0.7600 0.7600 0.7600 0.7608 0.7625
12.919115 0.7630 0.7630 0.7630 0.7643 0.7650
12.952360 0.7650 0.7650 0.7656 0.7660 0.7670
12.985605 0.7680 0.7689 0.7700 0.7700 0.7704
13.018850 0.7717 0.7730 0.7737 0.7753 0.7766
13.052095 0.7780 0.7786 0.7804 0.7817 0.7830
13.085340 0.7830 0.7836 0.7850 0.7852 0.7860
13.118585 0.7864 0.7880 0.7884 0.7910 0.7910
13.151830 0.7910 0.7911 0.7930 0.7930 0.7900
13.185075 0.7900 0.7910 0.7910 0.7928 0.7930
13.218320 0.7947 0.7950 0.7974 0.7996 0.8000
13.251565 0.8015 0.8020 0.8020 0.8027 0.8030
13.284810 0.8024 0.8020 0.8020 0.8020 0.8020
13.318055 0.8020 0.8010 0.8000 0.8000 0.8008
13.351300 0.8020 0.8024 0.8037 0.8050 0.8050
13.384545 0.8050 0.8050 0.8050 0.8057 0.8063
13.417790 0.8050 0.8050 0.8050 0.8050 0.8045
13.451035 0.8030 0.8030 0.8030 0.8030 0.8030
13.484280 0.8030 0.8030 0.8030 0.8032 0.8070
13.517525 0.8070 0.8080 0.8080 0.8098 0.8100
13.550770 0.8100 0.8100 0.8117 0.8120 0.8144
13.584015 0.8166 0.8170 0.8155 0.8150 0.8136
13.617260 0.8130 0.8130 0.8142 0.8150 0.8162
13.650505 0.8170 0.8170 0.8175 0.8180 0.8174
13.683750 0.8176 0.8180 0.8180 0.8180 0.8190
13.716995 0.8210 0.8220 0.8220 0.8220 0.8212
13.750240 0.8207 0.8220 0.8220 0.8214 0.8200
13.783485 0.8200 0.8205 0.8220 0.8222 0.8233
13.816730 0.8250 0.8252 0.8271 0.8280 0.8279
13.849975 0.8270 0.8280 0.8280 0.8280 0.8299
13.883220 0.8300 0.8300 0.8282 0.8280 0.8280
13.916465 0.8272 0.8278 0.8280 0.8280 0.8272
13.949710 0.8270 0.8254 0.8234 0.8206 0.8177
13.982955 0.8140 0.8108 0.8065 0.8036 0.8024
14.016200 0.8020 0.7996 0.7968 0.7943 0.7930
14.049445 0.7888 0.7840 0.7830 0.7807 0.7767
14.082690 0.7750 0.7750 0.7750 0.7750 0.7744
14.115935 0.7721 0.7700 0.7695 0.7680 0.7684
14.149180 0.7702 0.7710 0.7713 0.7730 0.7730
14.182425 0.7732 0.7749 0.7730 0.7730 0.7730
14.215670 0.7730 0.7728 0.7710 0.7709 0.7680
14.248915 0.7660 0.7631 0.7611 0.7601 0.7582
14.282160 0.7536 0.7470 0.7443 0.7399 0.7350
14.315405 0.7340 0.7317 0.7288 0.7266 0.7239
14.348650 0.7217 0.7191 0.7168 0.7148 0.7123
14.381895 0.7099 0.7074 0.7050 0.7040 0.7035
14.415140 0.7030 0.7030 0.7030 0.7030 0.7030
14.448385 0.7030 0.7030 0.7033 0.7046 0.7065
14.481630 0.7083 0.7090 0.7106 0.7152 0.7194
14.514875 0.7233 0.7252 0.7305 0.7370 0.7415
14.548120 0.7446 0.7488 0.7551 0.7563 0.7603
14.581365 0.7652 0.7701 0.7730 0.7730 0.7778
14.614610 0.7808 0.7873 0.7906 0.7927 0.7947
14.647855 0.7974 0.7996 0.8015 0.8065 0.8109
14.681100 0.8141 0.8170 0.8180 0.8193 0.8212
14.714345 0.8238 0.8261 0.8276 0.8280 0.8290
14.747590 0.8310 0.8325 0.8341 0.8361 0.8386
14.780835 0.8415 0.8440 0.8460 0.8470 0.8470
14.814080 0.8470 0.8474 0.8480 0.8480 0.8486
14.847325 0.8500 0.8505 0.8528 0.8559 0.8590
14.880570 0.8580 0.8540 0.8540 0.8540 0.8540
14.913815 0.8540 0.8540 0.8551 0.8570 0.8570
14.947060 0.8551 0.8550 0.8550 0.8550 0.8567
14.980305 0.8595 0.8600 0.8600 0.8600 0.8615
15.013550 0.8635 0.8647 0.8650 0.8663 0.8670
15.046795 0.8670 0.8682 0.8690 0.8690 0.8679
15.080040 0.8670 0.8670 0.8670 0.8670 0.8659
15.113285 0.8645 0.8629 0.8610 0.8585 0.8561
15.146530 0.8536 0.8511 0.8492 0.8476 0.8453
15.179775 0.8413 0.8394 0.8371 0.8342 0.8310
15.213020 0.8278 0.8262 0.8228 0.8217 0.8198
15.246265 0.8179 0.8168 0.8149 0.8130 0.8119
15.279510 0.8080 0.8021 0.8001 0.7954 0.7932
15.312755 0.7912 0.7901 0.7866 0.7852 0.7834
15.346000 0.7806 0.7769 0.7753 0.7717 0.7669
15.379245 0.7652 0.7634 0.7615 0.7603 0.7585
15.412490 0.7566 0.7553 0.7537 0.7517 0.7510
15.445735 0.7504 0.7489 0.7453 0.7456
##END=
