##TITLE=S-DIPHENYLCARBAZONE
$$ E.K. (W.L.)
##JCAMP-DX=4.24
##DATA TYPE=INFRARED SPECTRUM
##CLASS=COBLENTZ
##ORIGIN=WYANDOTTE CHEMICALS CORP., WYANDOTTE, MICHIGAN, USA
##OWNER=COBLENTZ SOCIETY
Collection (C) 2018 copyright by the U.S. Secretary of Commerce
on behalf of the United States of America. All rights reserved.
##DATE=Not specified, most likely prior to 1970
##NAMES=(E)-N'-phenyl-2-(4'-(2-[(2-phenylhydrazino)carbonyl]hydrazino)[1,1'-biphenyl]-4-yl)diazenecarbohydrazide
##MOLFORM=C26 H24 N8 O2
##MP=154-156 C
##SOURCE REFERENCE=COBLENTZ NO. 377
##$NIST ID=B6000377
##$NIST SOURCE=COBLENTZ
##$NIST IMAGE=cob377
##SPECTROMETER/DATA SYSTEM=Not specified, most likely a prism, grating, or hybrid spectrometer.
##STATE=SOLID (OIL MULL)
##SAMPLING PROCEDURE=TRANSMISSION
##RESOLUTION=4
##DATA PROCESSING=DIGITIZED BY NIST FROM HARD COPY
##XUNITS=MICROMETERS
##YUNITS=TRANSMITTANCE
##XFACTOR=1.000000
##YFACTOR=1
##DELTAX=000.006627
##FIRSTX=2.026
##LASTX=15.9751
##FIRSTY=0.363
##MAXX=15.9751
##MINX=2.026
##MAXY=0.954
##MINY=0.02
##NPOINTS=2106
##XYDATA=(X++(Y..Y))
2.026000 0.3630 0.3650 0.3650 0.3650 0.3650
2.059150 0.3650 0.3700 0.3700 0.3670 0.3670
2.092000 0.3670 0.3680 0.3700 0.3730 0.3780
2.125150 0.3820 0.3850 0.3870 0.3920 0.3930
2.158000 0.3950 0.3980 0.4000 0.4000 0.4000
2.191150 0.4020 0.4020 0.4020 0.4000 0.4000
2.225000 0.4000 0.3980 0.3970 0.3950 0.3930
2.258150 0.3920 0.3930 0.3930 0.3920 0.3880
2.291000 0.3870 0.3850 0.3870 0.3970 0.3980
2.324150 0.4000 0.4020 0.4040 0.4050 0.4070
2.357000 0.4070 0.4090 0.4090 0.4100 0.4100
2.390150 0.4120 0.4140 0.4170 0.4200 0.4250
2.423000 0.4290 0.4320 0.4370 0.4420 0.4450
2.456150 0.4500 0.4540 0.4550 0.4570 0.4570
2.490000 0.4570 0.4590 0.4590 0.4600 0.4640
2.523150 0.4670 0.4700 0.4770 0.4820 0.4850
2.556000 0.4890 0.4890 0.4890 0.4890 0.4920
2.589150 0.4940 0.4990 0.5000 0.5000 0.5040
2.622000 0.5040 0.5070 0.5090 0.5140 0.5190
2.655150 0.5220 0.5270 0.5290 0.5300 0.5300
2.689000 0.5340 0.5350 0.5370 0.5350 0.5350
2.722150 0.5320 0.5320 0.5340 0.5350 0.5370
2.755000 0.5400 0.5420 0.5450 0.5490 0.5500
2.788150 0.5520 0.5520 0.5520 0.5500 0.5490
2.821000 0.5520 0.5540 0.5600 0.5640 0.5650
2.854150 0.5670 0.5690 0.5700 0.5720 0.5740
2.887000 0.5740 0.5750 0.5790 0.5820 0.5840
2.920150 0.5840 0.5840 0.5820 0.5800 0.5800
2.954000 0.5800 0.5800 0.5790 0.5790 0.5750
2.987150 0.5700 0.5570 0.5120 0.4800 0.4340
3.020000 0.3980 0.3300 0.2470 0.1650 0.1050
3.053150 0.0810 0.0610 0.0560 0.0530 0.0510
3.086000 0.0510 0.0510 0.0530 0.0560 0.0610
3.119150 0.0680 0.0800 0.0930 0.0980 0.1050
3.152000 0.1110 0.1200 0.1260 0.1360 0.1460
3.185150 0.1580 0.1680 0.1780 0.1830 0.1860
3.219000 0.1880 0.1880 0.1880 0.1860 0.1860
3.252150 0.1860 0.1850 0.1800 0.1630 0.1500
3.285000 0.1460 0.1430 0.1360 0.1260 0.1130
3.318150 0.1000 0.0850 0.0700 0.0580 0.0460
3.351000 0.0380 0.0330 0.0300 0.0280 0.0260
3.384150 0.0230 0.0210 0.0210 0.0200 0.0200
3.417000 0.0200 0.0210 0.0210 0.0210 0.0230
3.450150 0.0230 0.0230 0.0250 0.0250 0.0260
3.484000 0.0260 0.0300 0.0300 0.0310 0.0330
3.517150 0.0350 0.0360 0.0400 0.0780 0.1130
3.550000 0.1700 0.2220 0.2680 0.3080 0.3450
3.583150 0.3780 0.4070 0.4350 0.4590 0.4820
3.616000 0.4970 0.5100 0.5240 0.5350 0.5450
3.649150 0.5520 0.5590 0.5640 0.5690 0.5720
3.683000 0.5670 0.5640 0.5600 0.5590 0.5620
3.716150 0.5720 0.5750 0.5790 0.5820 0.5870
3.749000 0.5900 0.5920 0.5950 0.5990 0.6010
3.782150 0.6010 0.6020 0.6040 0.6070 0.6110
3.815000 0.6120 0.6120 0.6140 0.6170 0.6220
3.848150 0.6240 0.6270 0.6310 0.6370 0.6440
3.881000 0.6490 0.6560 0.6610 0.6620 0.6690
3.914150 0.6740 0.6810 0.6860 0.6920 0.6970
3.948000 0.7040 0.7060 0.7110 0.7110 0.7160
3.981150 0.7240 0.7310 0.7320 0.7340 0.7360
4.014000 0.7370 0.7370 0.7390 0.7390 0.7410
4.047150 0.7420 0.7420 0.7440 0.7440 0.7460
4.080000 0.7470 0.7490 0.7490 0.7520 0.7540
4.113150 0.7570 0.7590 0.7620 0.7640 0.7660
4.146000 0.7660 0.7660 0.7660 0.7660 0.7670
4.179150 0.7670 0.7690 0.7690 0.7710 0.7710
4.213000 0.7710 0.7710 0.7710 0.7710 0.7710
4.246150 0.7710 0.7690 0.7660 0.7640 0.7620
4.279000 0.7560 0.7520 0.7540 0.7620 0.7640
4.312150 0.7660 0.7660 0.7660 0.7670 0.7670
4.345000 0.7690 0.7710 0.7740 0.7790 0.7860
4.378150 0.7940 0.8030 0.8110 0.8210 0.8290
4.412000 0.8380 0.8380 0.8360 0.8340 0.8290
4.445150 0.8280 0.8240 0.8190 0.8140 0.8160
4.478000 0.8230 0.8230 0.8240 0.8280 0.8290
4.511150 0.8330 0.8340 0.8380 0.8390 0.8410
4.544000 0.8410 0.8410 0.8410 0.8430 0.8440
4.577150 0.8460 0.8490 0.8530 0.8560 0.8590
4.610000 0.8630 0.8690 0.8710 0.8690 0.8630
4.643150 0.8630 0.8640 0.8640 0.8640 0.8660
4.677000 0.8710 0.8710 0.8730 0.8740 0.8740
4.710150 0.8710 0.8710 0.8710 0.8730 0.8740
4.743000 0.8760 0.8760 0.8790 0.8830 0.8880
4.776150 0.8910 0.8960 0.8980 0.9010 0.9080
4.809000 0.9110 0.9130 0.9130 0.9130 0.9130
4.842150 0.9130 0.9130 0.9140 0.9140 0.9160
4.875000 0.9160 0.9180 0.9180 0.9190 0.9190
4.908150 0.9210 0.9210 0.9210 0.9210 0.9210
4.942000 0.9190 0.9190 0.9180 0.9160 0.9160
4.975150 0.9190 0.9210 0.9230 0.9240 0.9260
5.008000 0.9280 0.9290 0.9310 0.9290 0.9310
5.041150 0.9330 0.9340 0.9340 0.9340 0.9360
5.074000 0.9360 0.9340 0.9340 0.9330 0.9330
5.107150 0.9310 0.9260 0.9230 0.9180 0.9140
5.140000 0.9110 0.9090 0.9080 0.9090 0.9140
5.173150 0.9190 0.9190 0.9160 0.9160 0.9160
5.207000 0.9090 0.9030 0.8940 0.8710 0.8490
5.240150 0.8480 0.8490 0.8790 0.8910 0.8990
5.273000 0.9060 0.9130 0.9180 0.9230 0.9240
5.306150 0.9310 0.9340 0.9390 0.9430 0.9480
5.339000 0.9490 0.9510 0.9530 0.9530 0.9530
5.372150 0.9510 0.9510 0.9490 0.9480 0.9480
5.406000 0.9460 0.9440 0.9380 0.9340 0.9330
5.439150 0.9260 0.9190 0.9130 0.9090 0.9090
5.472000 0.9110 0.9110 0.9140 0.9180 0.9230
5.505150 0.9310 0.9390 0.9530 0.9540 0.9540
5.538000 0.9510 0.9440 0.9460 0.9480 0.9530
5.571150 0.9540 0.9540 0.9530 0.9530 0.9530
5.604000 0.9530 0.9510 0.9490 0.9460 0.9410
5.637150 0.9360 0.9260 0.9140 0.9140 0.9130
5.671000 0.9110 0.9090 0.9090 0.9060 0.9010
5.704150 0.8960 0.8840 0.8690 0.8510 0.8260
5.737000 0.7970 0.7660 0.7270 0.6860 0.6570
5.770150 0.6110 0.5790 0.5190 0.4400 0.3500
5.803000 0.2600 0.1750 0.0800 0.0750 0.0760
5.836150 0.0960 0.1830 0.2250 0.2680 0.3100
5.869000 0.3380 0.3520 0.3750 0.4040 0.4120
5.902150 0.4120 0.4040 0.3920 0.3730 0.3520
5.936000 0.3300 0.2950 0.2430 0.2070 0.1580
5.969150 0.1260 0.0950 0.0650 0.0360 0.0330
6.002000 0.0330 0.0350 0.0410 0.0650 0.1000
6.035150 0.1460 0.1960 0.2480 0.2930 0.3320
6.068000 0.3570 0.3800 0.4050 0.4320 0.4550
6.101150 0.4770 0.4900 0.5000 0.5040 0.5090
6.135000 0.5100 0.5040 0.4690 0.4050 0.3550
6.168150 0.2800 0.2080 0.1480 0.1450 0.1460
6.201000 0.1560 0.1710 0.1860 0.2080 0.2400
6.234150 0.2730 0.3120 0.3470 0.3720 0.4070
6.267000 0.4240 0.4400 0.4540 0.4550 0.4540
6.300150 0.4420 0.4300 0.4170 0.4050 0.3870
6.333000 0.3670 0.3430 0.3280 0.3180 0.3080
6.366150 0.2950 0.2780 0.2600 0.2400 0.2230
6.400000 0.2050 0.1910 0.1800 0.1750 0.1700
6.433150 0.1650 0.1600 0.1580 0.1550 0.1550
6.466000 0.1550 0.1510 0.1460 0.1350 0.1280
6.499150 0.1200 0.1050 0.0950 0.0860 0.0850
6.532000 0.0850 0.0900 0.1030 0.1030 0.1000
6.565150 0.0950 0.0910 0.0910 0.0960 0.0930
6.598000 0.0850 0.0710 0.0580 0.0550 0.0460
6.631150 0.0410 0.0380 0.0380 0.0360 0.0350
6.665000 0.0350 0.0350 0.0360 0.0380 0.0360
6.698150 0.0350 0.0310 0.0300 0.0310 0.0380
6.731000 0.0380 0.0380 0.0380 0.0380 0.0350
6.764150 0.0310 0.0280 0.0250 0.0230 0.0230
6.797000 0.0210 0.0210 0.0210 0.0210 0.0210
6.830150 0.0210 0.0230 0.0250 0.0280 0.0310
6.863000 0.0360 0.0410 0.0530 0.0550 0.0530
6.896150 0.0530 0.0480 0.0480 0.0460 0.0480
6.930000 0.0500 0.0530 0.0650 0.0880 0.1210
6.963150 0.1410 0.1730 0.1910 0.2430 0.2820
6.996000 0.2920 0.2930 0.3200 0.3400 0.3580
7.029150 0.3720 0.3830 0.3930 0.4040 0.4120
7.062000 0.4200 0.4240 0.4300 0.4420 0.4520
7.095150 0.4640 0.4690 0.4740 0.4800 0.4850
7.129000 0.4870 0.4870 0.4850 0.4840 0.4770
7.162150 0.4640 0.4470 0.4220 0.3880 0.3480
7.195000 0.2980 0.2370 0.1980 0.1730 0.1450
7.228150 0.1230 0.0980 0.0960 0.0960 0.1000
7.261000 0.1230 0.1580 0.1860 0.2120 0.2300
7.294150 0.2470 0.2570 0.2630 0.2870 0.3220
7.327000 0.3580 0.3920 0.4140 0.4390 0.4490
7.360150 0.4550 0.4620 0.4670 0.4690 0.4690
7.394000 0.4690 0.4700 0.4700 0.4700 0.4720
7.427150 0.4740 0.4740 0.4740 0.4740 0.4720
7.460000 0.4700 0.4670 0.4650 0.4600 0.4570
7.493150 0.4500 0.4470 0.4420 0.4420 0.4400
7.526000 0.4400 0.4400 0.4340 0.4170 0.4000
7.559150 0.3830 0.3670 0.3500 0.3280 0.3070
7.592000 0.2780 0.2470 0.2280 0.2130 0.2100
7.625150 0.2100 0.2150 0.2180 0.2220 0.2230
7.659000 0.2280 0.2470 0.2520 0.2600 0.2650
7.692150 0.2680 0.2700 0.2600 0.2430 0.2300
7.725000 0.2080 0.1960 0.1860 0.1780 0.1730
7.758150 0.1730 0.1780 0.1980 0.2220 0.2480
7.791000 0.2770 0.3070 0.3370 0.3670 0.3970
7.824150 0.4240 0.4470 0.4570 0.4650 0.4700
7.858000 0.4740 0.4750 0.4750 0.4740 0.4720
7.891150 0.4650 0.4570 0.4500 0.4450 0.4390
7.924000 0.4290 0.4100 0.3830 0.3400 0.3120
7.957150 0.2950 0.2780 0.2700 0.2680 0.2800
7.990000 0.2970 0.3180 0.3430 0.3720 0.4020
8.023150 0.4150 0.4320 0.4520 0.4720 0.4920
8.056000 0.5090 0.5190 0.5320 0.5450 0.5550
8.089150 0.5640 0.5720 0.5790 0.5870 0.5950
8.123000 0.5970 0.6010 0.6060 0.6060 0.6010
8.156150 0.5970 0.5970 0.5940 0.5970 0.5990
8.189000 0.6020 0.6040 0.6060 0.6120 0.6140
8.222150 0.6160 0.6160 0.6120 0.6110 0.6020
8.255000 0.6010 0.5950 0.5840 0.5620 0.5400
8.288150 0.5100 0.4820 0.4440 0.4050 0.3920
8.321000 0.3630 0.3620 0.3670 0.4120 0.4590
8.354150 0.4920 0.5220 0.5570 0.5750 0.5950
8.388000 0.6110 0.6210 0.6260 0.6290 0.6270
8.421150 0.6110 0.5970 0.5800 0.5600 0.5370
8.454000 0.5120 0.4920 0.4690 0.4670 0.4720
8.487150 0.4920 0.5070 0.5140 0.5170 0.5190
8.520000 0.5200 0.5290 0.5440 0.5700 0.5890
8.553150 0.6060 0.6170 0.6210 0.6220 0.6260
8.586000 0.6260 0.6140 0.5850 0.5640 0.5320
8.619150 0.4990 0.4620 0.4320 0.4070 0.3900
8.653000 0.3850 0.3750 0.3650 0.3450 0.3380
8.686150 0.3420 0.3630 0.4020 0.4420 0.4870
8.719000 0.5240 0.5540 0.5790 0.6010 0.6190
8.752150 0.6360 0.6420 0.6470 0.6540 0.6560
8.785000 0.6570 0.6570 0.6590 0.6570 0.6560
8.818150 0.6510 0.6460 0.6390 0.6320 0.6190
8.852000 0.6010 0.5720 0.5320 0.4770 0.4340
8.885150 0.3930 0.3480 0.3030 0.2750 0.2520
8.918000 0.2500 0.2520 0.2670 0.2920 0.3270
8.951150 0.3650 0.4040 0.4400 0.4690 0.4870
8.984000 0.5170 0.5390 0.5500 0.5550 0.5590
9.017150 0.5640 0.5700 0.5790 0.5890 0.6020
9.050000 0.6140 0.6290 0.6440 0.6570 0.6720
9.083150 0.6840 0.6970 0.7070 0.7160 0.7210
9.117000 0.7220 0.7290 0.7310 0.7340 0.7420
9.150150 0.7460 0.7470 0.7490 0.7520 0.7560
9.183000 0.7560 0.7490 0.7390 0.7240 0.7060
9.216150 0.6860 0.6640 0.6420 0.6190 0.5990
9.249000 0.5800 0.5720 0.5690 0.5650 0.5590
9.282150 0.5550 0.5500 0.5500 0.5650 0.5920
9.315000 0.6140 0.6370 0.6570 0.6790 0.6970
9.348150 0.7140 0.7290 0.7390 0.7440 0.7510
9.382000 0.7570 0.7660 0.7720 0.7790 0.7820
9.415150 0.7840 0.7890 0.7920 0.7920 0.7960
9.448000 0.7970 0.7970 0.7990 0.7990 0.7990
9.481150 0.7990 0.7990 0.7990 0.7940 0.7920
9.514000 0.7890 0.7820 0.7760 0.7720 0.7720
9.547150 0.7790 0.7810 0.7820 0.7820 0.7840
9.581000 0.7840 0.7860 0.7860 0.7870 0.7890
9.614150 0.7870 0.7860 0.7840 0.7810 0.7790
9.647000 0.7770 0.7740 0.7690 0.7610 0.7470
9.680150 0.7340 0.7170 0.6990 0.6810 0.6590
9.713000 0.6370 0.6240 0.6070 0.6060 0.6040
9.746150 0.6040 0.6010 0.5950 0.5900 0.5840
9.779000 0.5820 0.5820 0.6010 0.6270 0.6460
9.812150 0.6610 0.6890 0.6960 0.7160 0.7290
9.846000 0.7360 0.7410 0.7440 0.7470 0.7520
9.879150 0.7570 0.7570 0.7560 0.7490 0.7440
9.912000 0.7370 0.7320 0.7270 0.7210 0.7110
9.945150 0.6970 0.6790 0.6610 0.6420 0.6270
9.978000 0.6220 0.6120 0.6010 0.5840 0.5670
10.011150 0.5450 0.5190 0.4970 0.4800 0.4640
10.044000 0.4470 0.4300 0.4090 0.3830 0.3520
10.077150 0.2980 0.2700 0.2480 0.2100 0.1950
10.111000 0.1730 0.1650 0.1510 0.1500 0.1480
10.144150 0.1660 0.1910 0.2130 0.2330 0.2530
10.177000 0.2730 0.2930 0.3100 0.3280 0.3430
10.210150 0.3570 0.3630 0.3670 0.3720 0.3750
10.243000 0.3770 0.3770 0.3770 0.3770 0.3800
10.276150 0.3830 0.3900 0.3980 0.4090 0.4240
10.309000 0.4390 0.4550 0.4740 0.4920 0.5090
10.342150 0.5250 0.5400 0.5520 0.5640 0.5790
10.376000 0.5890 0.5950 0.6010 0.6040 0.6090
10.409150 0.6140 0.6170 0.6190 0.6220 0.6240
10.442000 0.6270 0.6320 0.6390 0.6510 0.6670
10.475150 0.6720 0.6810 0.6870 0.6920 0.6970
10.508000 0.7010 0.7060 0.7090 0.7120 0.7170
10.541150 0.7220 0.7260 0.7290 0.7320 0.7340
10.575000 0.7340 0.7360 0.7370 0.7370 0.7390
10.608150 0.7410 0.7420 0.7440 0.7440 0.7410
10.641000 0.7390 0.7360 0.7320 0.7290 0.7260
10.674150 0.7240 0.7170 0.7090 0.6960 0.6840
10.707000 0.6710 0.6420 0.6120 0.5950 0.5720
10.740150 0.5450 0.5440 0.5490 0.5700 0.5950
10.773000 0.6190 0.6360 0.6410 0.6560 0.6720
10.806150 0.6890 0.6990 0.7040 0.7110 0.7140
10.840000 0.7170 0.7220 0.7240 0.7240 0.7220
10.873150 0.7210 0.7190 0.7170 0.7120 0.7060
10.906000 0.6960 0.6910 0.6890 0.6840 0.6790
10.939150 0.6720 0.6660 0.6590 0.6510 0.6420
10.972000 0.6310 0.6190 0.6040 0.5870 0.5670
11.005150 0.5490 0.5270 0.5070 0.4890 0.4720
11.038000 0.4570 0.4440 0.4350 0.4290 0.4240
11.071150 0.4190 0.4170 0.4150 0.4190 0.4270
11.105000 0.4350 0.4440 0.4490 0.4570 0.4700
11.138150 0.4750 0.4820 0.4850 0.4900 0.4920
11.171000 0.4950 0.4970 0.4970 0.4990 0.4990
11.204150 0.5000 0.5000 0.5040 0.5120 0.5150
11.237000 0.5220 0.5250 0.5250 0.5270 0.5320
11.270150 0.5350 0.5350 0.5290 0.5190 0.5090
11.304000 0.4900 0.4800 0.4700 0.4550 0.4470
11.337150 0.4400 0.4340 0.4300 0.4220 0.4200
11.370000 0.4200 0.4240 0.4300 0.4370 0.4520
11.403150 0.4600 0.4700 0.4820 0.4920 0.4940
11.436000 0.4970 0.5000 0.5000 0.4920 0.4840
11.469150 0.4770 0.4700 0.4650 0.4590 0.4540
11.502000 0.4470 0.4440 0.4420 0.4420 0.4420
11.535150 0.4440 0.4520 0.4620 0.4740 0.4850
11.569000 0.4990 0.5120 0.5250 0.5390 0.5500
11.602150 0.5600 0.5740 0.5890 0.6010 0.6070
11.635000 0.6170 0.6220 0.6270 0.6310 0.6390
11.668150 0.6410 0.6420 0.6460 0.6490 0.6490
11.701000 0.6510 0.6520 0.6560 0.6560 0.6560
11.734150 0.6540 0.6540 0.6520 0.6510 0.6510
11.767000 0.6510 0.6510 0.6510 0.6490 0.6470
11.800150 0.6370 0.6290 0.6240 0.6210 0.6160
11.834000 0.6120 0.6060 0.5990 0.5950 0.5940
11.867150 0.5920 0.5950 0.5990 0.6020 0.6040
11.900000 0.6040 0.6040 0.6070 0.6070 0.6090
11.933150 0.6120 0.6170 0.6210 0.6240 0.6270
11.966000 0.6360 0.6410 0.6460 0.6510 0.6560
11.999150 0.6590 0.6620 0.6660 0.6670 0.6690
12.032000 0.6690 0.6620 0.6560 0.6560 0.6520
12.065150 0.6520 0.6510 0.6510 0.6490 0.6470
12.099000 0.6460 0.6440 0.6410 0.6370 0.6360
12.132150 0.6340 0.6320 0.6320 0.6310 0.6290
12.165000 0.6270 0.6270 0.6290 0.6310 0.6310
12.198150 0.6310 0.6310 0.6310 0.6310 0.6310
12.231000 0.6310 0.6310 0.6290 0.6270 0.6270
12.264150 0.6270 0.6270 0.6290 0.6310 0.6310
12.298000 0.6310 0.6310 0.6310 0.6310 0.6290
12.331150 0.6290 0.6290 0.6290 0.6290 0.6310
12.364000 0.6310 0.6310 0.6320 0.6340 0.6370
12.397150 0.6410 0.6440 0.6470 0.6490 0.6470
12.430000 0.6470 0.6460 0.6420 0.6420 0.6420
12.463150 0.6420 0.6420 0.6410 0.6420 0.6420
12.496000 0.6420 0.6410 0.6410 0.6410 0.6410
12.529150 0.6440 0.6440 0.6460 0.6460 0.6470
12.563000 0.6490 0.6510 0.6510 0.6540 0.6570
12.596150 0.6590 0.6590 0.6590 0.6590 0.6570
12.629000 0.6570 0.6570 0.6540 0.6470 0.6410
12.662150 0.6310 0.6190 0.6110 0.6010 0.5920
12.695000 0.5840 0.5740 0.5640 0.5540 0.5400
12.728150 0.5270 0.5100 0.5000 0.4970 0.4890
12.761000 0.4770 0.4650 0.4500 0.4350 0.4200
12.794150 0.4040 0.3850 0.3680 0.3480 0.3300
12.828000 0.3120 0.2930 0.2730 0.2550 0.2380
12.861150 0.2220 0.2000 0.1800 0.1610 0.1530
12.894000 0.1450 0.1300 0.1180 0.1100 0.1030
12.927150 0.1010 0.1010 0.1000 0.1000 0.1000
12.960000 0.1010 0.1010 0.1030 0.1100 0.1200
12.993150 0.1210 0.1200 0.1150 0.1100 0.1060
13.027000 0.1060 0.1050 0.1030 0.1000 0.0980
13.060150 0.0960 0.0950 0.0910 0.0910 0.0900
13.093000 0.0900 0.0880 0.0850 0.0830 0.0830
13.126150 0.0800 0.0730 0.0700 0.0700 0.0680
13.159000 0.0650 0.0600 0.0580 0.0550 0.0550
13.192150 0.0530 0.0510 0.0500 0.0480 0.0460
13.225000 0.0460 0.0460 0.0450 0.0450 0.0430
13.258150 0.0430 0.0430 0.0410 0.0410 0.0400
13.292000 0.0400 0.0400 0.0400 0.0400 0.0400
13.325150 0.0400 0.0400 0.0400 0.0400 0.0400
13.358000 0.0400 0.0400 0.0410 0.0510 0.0610
13.391150 0.0710 0.0830 0.0930 0.1030 0.1110
13.424000 0.1230 0.1360 0.1480 0.1610 0.1760
13.457150 0.1900 0.2030 0.2170 0.2300 0.2430
13.490000 0.2530 0.2630 0.2680 0.2730 0.2800
13.523150 0.2870 0.2950 0.3030 0.3100 0.3150
13.557000 0.3220 0.3230 0.3250 0.3250 0.3280
13.590150 0.3280 0.3280 0.3270 0.3250 0.3230
13.623000 0.3220 0.3220 0.3220 0.3220 0.3220
13.656150 0.3220 0.3220 0.3220 0.3230 0.3270
13.689000 0.3300 0.3330 0.3350 0.3380 0.3430
13.722150 0.3450 0.3480 0.3500 0.3520 0.3530
13.755000 0.3550 0.3580 0.3620 0.3650 0.3670
13.788150 0.3680 0.3680 0.3680 0.3680 0.3680
13.822000 0.3680 0.3680 0.3680 0.3680 0.3680
13.855150 0.3700 0.3680 0.3680 0.3680 0.3700
13.888000 0.3700 0.3720 0.3720 0.3730 0.3730
13.921150 0.3770 0.3830 0.3850 0.3870 0.3870
13.954000 0.3880 0.3880 0.3880 0.3880 0.3880
13.987150 0.3880 0.3880 0.3920 0.3950 0.4020
14.021000 0.4040 0.4050 0.4100 0.4150 0.4190
14.054150 0.4200 0.4220 0.4240 0.4270 0.4300
14.087000 0.4350 0.4420 0.4490 0.4540 0.4590
14.120150 0.4650 0.4700 0.4750 0.4800 0.4870
14.153000 0.4940 0.4990 0.5050 0.5120 0.5170
14.186150 0.5220 0.5250 0.5300 0.5340 0.5370
14.219000 0.5400 0.5420 0.5420 0.5440 0.5440
14.252150 0.5440 0.5420 0.5420 0.5420 0.5390
14.286000 0.5350 0.5320 0.5270 0.5220 0.5170
14.319150 0.5120 0.5050 0.4970 0.4900 0.4800
14.352000 0.4700 0.4600 0.4470 0.4340 0.4200
14.385150 0.4040 0.3850 0.3670 0.3450 0.3220
14.418000 0.3130 0.2970 0.2780 0.2580 0.2400
14.451150 0.2220 0.2020 0.1880 0.1700 0.1600
14.484000 0.1480 0.1350 0.1230 0.1100 0.0980
14.517150 0.0880 0.0810 0.0730 0.0710 0.0710
14.551000 0.0710 0.0730 0.0760 0.0850 0.0930
14.584150 0.1000 0.1100 0.1180 0.1300 0.1450
14.617000 0.1630 0.1830 0.1960 0.2100 0.2220
14.650150 0.2330 0.2450 0.2570 0.2670 0.2750
14.683000 0.2830 0.2900 0.2970 0.3000 0.3020
14.716150 0.3020 0.3000 0.2950 0.2950 0.2900
14.750000 0.2880 0.2850 0.2780 0.2770 0.2770
14.783150 0.2780 0.2800 0.2820 0.2850 0.2880
14.816000 0.2920 0.2950 0.3000 0.3030 0.3100
14.849150 0.3150 0.3220 0.3280 0.3350 0.3420
14.882000 0.3480 0.3570 0.3630 0.3700 0.3770
14.915150 0.3830 0.3880 0.3950 0.3980 0.4040
14.948000 0.4050 0.4070 0.4100 0.4100 0.4120
14.981150 0.4100 0.4100 0.4090 0.4040 0.4000
15.015000 0.3980 0.3980 0.3980 0.3980 0.3980
15.048150 0.3980 0.3980 0.3980 0.3980 0.4000
15.081000 0.4000 0.4020 0.4020 0.4020 0.4040
15.114150 0.4040 0.4040 0.4050 0.4090 0.4100
15.147000 0.4140 0.4170 0.4190 0.4200 0.4220
15.180150 0.4250 0.4270 0.4290 0.4320 0.4350
15.213000 0.4390 0.4400 0.4450 0.4490 0.4540
15.246150 0.4590 0.4620 0.4650 0.4670 0.4670
15.280000 0.4690 0.4700 0.4720 0.4750 0.4800
15.313150 0.4840 0.4890 0.4920 0.4950 0.4990
15.346000 0.5000 0.5000 0.5020 0.5020 0.5040
15.379150 0.5050 0.5070 0.5090 0.5090 0.5090
15.412000 0.5100 0.5100 0.5100 0.5120 0.5120
15.445150 0.5140 0.5140 0.5150 0.5150 0.5170
15.478000 0.5170 0.5190 0.5190 0.5190 0.5190
15.511150 0.5200 0.5200 0.5200 0.5220 0.5220
15.545000 0.5220 0.5190 0.5190 0.5170 0.5140
15.578150 0.5140 0.5120 0.5100 0.5090 0.5070
15.611000 0.5040 0.5040 0.5020 0.5020 0.5000
15.644150 0.5000 0.4990 0.4970 0.4950 0.4940
15.677000 0.4900 0.4870 0.4870 0.4840 0.4840
15.710150 0.4820 0.4820 0.4800 0.4770 0.4750
15.744000 0.4720 0.4700 0.4690 0.4670 0.4650
15.777150 0.4620 0.4600 0.4590 0.4550 0.4520
15.810000 0.4470 0.4440 0.4420 0.4400 0.4400
15.843150 0.4390 0.4390 0.4370 0.4350 0.4300
15.876000 0.4290 0.4220 0.4190 0.4190 0.4200
15.909150 0.4240 0.4270 0.4300 0.4320 0.4300
15.942000 0.4290 0.4290 0.4270 0.4270 0.4270
15.975150 0.4290
##END=
