##TITLE=SODIUM PHOSPHATE, TRIBASIC-
##JCAMP-DX=4.24
##DATA TYPE=INFRARED SPECTRUM
##CLASS=COBLENTZ
##ORIGIN=DOW CHEMICAL COMPANY
##OWNER=COBLENTZ SOCIETY
Collection (C) 2018 copyright by the U.S. Secretary of Commerce
on behalf of the United States of America. All rights reserved.
##DATE=Not specified, most likely prior to 1970
##MOLFORM=Na3 P O4  * 12 H2 O
##MP=223 C
##SOURCE REFERENCE=COBLENTZ NO. 2381
##$NIST ID=B6002381
##$NIST SOURCE=COBLENTZ
##$NIST IMAGE=cob2381
##SPECTROMETER/DATA SYSTEM=Not specified, most likely a prism, grating, or hybrid spectrometer.
##STATE=SOLID (MINERAL OIL MULL)
$$ THE HYDRATED COMPOUND WAS HEATED TO DEHYDRATE
$$ SEE SPECTRUM NO. 1431 FOR HYDRATE
##PATH LENGTH=
$$SPECTRAL CONTAMINATION DUE TO OIL AROUND 2900, 1450, 1380 CM^-^1
##SAMPLING PROCEDURE=TRANSMISSION
##RESOLUTION=4
##DATA PROCESSING=DIGITIZED BY NIST FROM HARD COPY
##XUNITS=MICROMETERS
##YUNITS=TRANSMITTANCE
##XFACTOR=1.000000
##YFACTOR=1
##DELTAX=000.006689
##FIRSTX=2.013
##LASTX=15.9327
##FIRSTY=0.869
##MAXX=15.9327
##MINX=2.013
##MAXY=1
##MINY=0.011
##NPOINTS=2082
##XYDATA=(X++(Y..Y))
2.013000 0.8690 0.8690 0.8690 0.8690 0.8690
2.046461 0.8690 0.8710 0.8730 0.8730 0.8730
2.080000 0.8730 0.8740 0.8760 0.8760 0.8760
2.113461 0.8760 0.8760 0.8780 0.8780 0.8780
2.147000 0.8780 0.8790 0.8790 0.8810 0.8830
2.180461 0.8840 0.8860 0.8860 0.8880 0.8880
2.214000 0.8880 0.8880 0.8880 0.8880 0.8880
2.247461 0.8860 0.8860 0.8860 0.8840 0.8790
2.281000 0.8780 0.8740 0.8710 0.8680 0.8660
2.314461 0.8640 0.8630 0.8630 0.8640 0.8640
2.348000 0.8640 0.8660 0.8660 0.8690 0.8710
2.381461 0.8730 0.8740 0.8780 0.8780 0.8790
2.415000 0.8790 0.8790 0.8790 0.8790 0.8790
2.448461 0.8810 0.8810 0.8840 0.8860 0.8880
2.482000 0.8890 0.8930 0.8980 0.8990 0.8990
2.515461 0.9010 0.9010 0.9010 0.9010 0.9030
2.548000 0.9040 0.9040 0.9040 0.9040 0.9040
2.581461 0.9040 0.9040 0.9060 0.9060 0.9060
2.615000 0.9080 0.9080 0.9090 0.9090 0.9110
2.648461 0.9110 0.9110 0.9130 0.9140 0.9160
2.682000 0.9160 0.9160 0.9160 0.9160 0.9180
2.715461 0.9180 0.9190 0.9190 0.9190 0.9190
2.749000 0.9190 0.9190 0.9190 0.9190 0.9190
2.782461 0.9180 0.9180 0.9140 0.9110 0.9030
2.816000 0.9030 0.8990 0.8960 0.8930 0.8910
2.849461 0.8880 0.8830 0.8780 0.8690 0.8630
2.883000 0.8540 0.8460 0.8380 0.8310 0.8230
2.916461 0.8140 0.8060 0.7990 0.7920 0.7840
2.950000 0.7770 0.7710 0.7640 0.7560 0.7490
2.983461 0.7410 0.7310 0.7210 0.7110 0.7010
3.017000 0.6940 0.6860 0.6790 0.6710 0.6660
3.050461 0.6590 0.6520 0.6460 0.6360 0.6310
3.084000 0.6260 0.6220 0.6190 0.6190 0.6170
3.117461 0.6120 0.6110 0.6040 0.6010 0.5950
3.151000 0.5900 0.5850 0.5800 0.5770 0.5720
3.184461 0.5700 0.5700 0.5690 0.5670 0.5640
3.217000 0.5640 0.5620 0.5600 0.5590 0.5550
3.250461 0.5520 0.5500 0.5490 0.5470 0.5450
3.284000 0.5420 0.5390 0.5350 0.5300 0.5250
3.317461 0.5200 0.5150 0.5050 0.4950 0.4900
3.351000 0.4750 0.4450 0.4120 0.3750 0.3370
3.384461 0.2950 0.2480 0.1980 0.1410 0.0800
3.418000 0.0210 0.0180 0.0180 0.0180 0.0210
3.451461 0.0260 0.0300 0.0360 0.0450 0.0460
3.485000 0.0580 0.0750 0.0910 0.1010 0.1030
3.518461 0.1080 0.1200 0.1480 0.2000 0.3320
3.552000 0.4700 0.5350 0.5820 0.6210 0.6540
3.585461 0.6810 0.7020 0.7210 0.7360 0.7470
3.619000 0.7560 0.7640 0.7690 0.7720 0.7770
3.652461 0.7810 0.7860 0.7890 0.7910 0.7920
3.686000 0.7960 0.7990 0.8010 0.8030 0.8060
3.719461 0.8060 0.8080 0.8110 0.8140 0.8160
3.753000 0.8190 0.8230 0.8260 0.8280 0.8310
3.786461 0.8380 0.8410 0.8440 0.8480 0.8510
3.819000 0.8510 0.8530 0.8530 0.8560 0.8590
3.852461 0.8630 0.8640 0.8680 0.8730 0.8740
3.886000 0.8790 0.8810 0.8830 0.8880 0.8890
3.919461 0.8890 0.8930 0.8960 0.9030 0.9040
3.953000 0.9040 0.9040 0.9040 0.9040 0.9030
3.986461 0.9030 0.9030 0.9030 0.9030 0.9030
4.020000 0.9030 0.9030 0.9060 0.9060 0.9090
4.053461 0.9110 0.9130 0.9140 0.9140 0.9160
4.087000 0.9190 0.9210 0.9230 0.9230 0.9260
4.120461 0.9260 0.9260 0.9240 0.9240 0.9230
4.154000 0.9230 0.9230 0.9230 0.9240 0.9240
4.187461 0.9240 0.9240 0.9240 0.9260 0.9260
4.221000 0.9280 0.9280 0.9280 0.9280 0.9280
4.254461 0.9280 0.9260 0.9260 0.9260 0.9240
4.288000 0.9240 0.9230 0.9230 0.9230 0.9230
4.321461 0.9230 0.9230 0.9230 0.9230 0.9210
4.355000 0.9210 0.9210 0.9210 0.9210 0.9210
4.388461 0.9210 0.9210 0.9210 0.9190 0.9190
4.421000 0.9190 0.9190 0.9190 0.9190 0.9190
4.454461 0.9190 0.9190 0.9190 0.9210 0.9210
4.488000 0.9210 0.9230 0.9280 0.9290 0.9310
4.521461 0.9390 0.9440 0.9440 0.9460 0.9480
4.555000 0.9510 0.9530 0.9540 0.9560 0.9580
4.588461 0.9590 0.9590 0.9610 0.9610 0.9610
4.622000 0.9610 0.9610 0.9610 0.9630 0.9630
4.655461 0.9630 0.9630 0.9640 0.9640 0.9680
4.689000 0.9680 0.9680 0.9680 0.9680 0.9680
4.722461 0.9680 0.9680 0.9680 0.9680 0.9680
4.756000 0.9680 0.9680 0.9660 0.9640 0.9640
4.789461 0.9630 0.9630 0.9610 0.9610 0.9630
4.823000 0.9630 0.9630 0.9640 0.9640 0.9660
4.856461 0.9660 0.9660 0.9680 0.9690 0.9710
4.890000 0.9730 0.9760 0.9790 0.9810 0.9810
4.923461 0.9790 0.9790 0.9790 0.9760 0.9740
4.957000 0.9710 0.9710 0.9710 0.9710 0.9730
4.990461 0.9780 0.9790 0.9790 0.9780 0.9780
5.023000 0.9780 0.9780 0.9780 0.9780 0.9780
5.056461 0.9780 0.9780 0.9780 0.9780 0.9760
5.090000 0.9740 0.9730 0.9690 0.9660 0.9660
5.123461 0.9630 0.9610 0.9590 0.9590 0.9590
5.157000 0.9590 0.9590 0.9610 0.9630 0.9640
5.190461 0.9690 0.9780 0.9790 0.9830 0.9830
5.224000 0.9830 0.9810 0.9790 0.9790 0.9790
5.257461 0.9790 0.9790 0.9790 0.9810 0.9810
5.291000 0.9810 0.9810 0.9810 0.9840 0.9860
5.324461 0.9880 0.9890 0.9910 0.9940 0.9960
5.358000 0.9960 0.9960 0.9980 0.9980 0.9980
5.391461 1.0000 1.0000 1.0000 1.0000 1.0000
5.425000 1.0000 1.0000 1.0000 1.0000 1.0000
5.458461 1.0000 1.0000 1.0000 0.9980 0.9980
5.492000 0.9960 0.9960 0.9940 0.9940 0.9910
5.525461 0.9910 0.9890 0.9880 0.9880 0.9830
5.559000 0.9810 0.9780 0.9760 0.9760 0.9730
5.592461 0.9730 0.9710 0.9710 0.9690 0.9660
5.625000 0.9630 0.9590 0.9590 0.9580 0.9580
5.658461 0.9580 0.9590 0.9610 0.9610 0.9630
5.692000 0.9630 0.9630 0.9630 0.9630 0.9630
5.725461 0.9630 0.9630 0.9630 0.9610 0.9610
5.759000 0.9590 0.9580 0.9580 0.9560 0.9560
5.792461 0.9560 0.9560 0.9540 0.9540 0.9530
5.826000 0.9530 0.9530 0.9510 0.9490 0.9460
5.859461 0.9410 0.9390 0.9380 0.9360 0.9340
5.893000 0.9340 0.9330 0.9310 0.9310 0.9290
5.926461 0.9260 0.9260 0.9260 0.9260 0.9260
5.960000 0.9260 0.9260 0.9280 0.9280 0.9280
5.993461 0.9290 0.9290 0.9290 0.9280 0.9260
6.027000 0.9240 0.9240 0.9230 0.9230 0.9210
6.060461 0.9210 0.9190 0.9190 0.9180 0.9180
6.094000 0.9180 0.9160 0.9160 0.9160 0.9160
6.127461 0.9160 0.9160 0.9160 0.9160 0.9160
6.161000 0.9160 0.9160 0.9160 0.9160 0.9180
6.194461 0.9190 0.9190 0.9190 0.9190 0.9190
6.227000 0.9190 0.9190 0.9190 0.9190 0.9190
6.260461 0.9190 0.9190 0.9180 0.9140 0.9130
6.294000 0.9090 0.9090 0.9080 0.9040 0.9030
6.327461 0.9010 0.8990 0.8980 0.8980 0.8910
6.361000 0.8890 0.8860 0.8810 0.8760 0.8740
6.394461 0.8710 0.8680 0.8590 0.8580 0.8530
6.428000 0.8510 0.8480 0.8460 0.8460 0.8460
6.461461 0.8480 0.8490 0.8510 0.8530 0.8580
6.495000 0.8590 0.8630 0.8690 0.8740 0.8760
6.528461 0.8760 0.8780 0.8780 0.8780 0.8780
6.562000 0.8780 0.8780 0.8740 0.8710 0.8690
6.595461 0.8640 0.8610 0.8580 0.8530 0.8460
6.629000 0.8410 0.8330 0.8240 0.8160 0.8080
6.662461 0.7960 0.7860 0.7790 0.7720 0.7670
6.696000 0.7570 0.7460 0.7310 0.7140 0.6970
6.729461 0.6820 0.6660 0.6510 0.6390 0.6190
6.763000 0.5950 0.5690 0.5390 0.5070 0.4720
6.796461 0.4370 0.4000 0.3570 0.3170 0.2820
6.829000 0.2620 0.2470 0.2370 0.2280 0.2270
6.862461 0.2250 0.2250 0.2280 0.2320 0.2370
6.896000 0.2450 0.2550 0.2700 0.2850 0.3000
6.929461 0.3130 0.3250 0.3380 0.3530 0.3720
6.963000 0.3920 0.4200 0.4520 0.4670 0.4940
6.996461 0.5220 0.5590 0.5870 0.6110 0.6270
7.030000 0.6410 0.6510 0.6620 0.6760 0.6910
7.063461 0.6970 0.7060 0.7120 0.7190 0.7260
7.097000 0.7360 0.7470 0.7590 0.7710 0.7840
7.130461 0.7970 0.8140 0.8210 0.8290 0.8310
7.164000 0.8310 0.8330 0.8330 0.8290 0.8240
7.197461 0.8110 0.8040 0.7760 0.7320 0.7110
7.231000 0.6910 0.6620 0.6420 0.6160 0.5950
7.264461 0.5770 0.5740 0.5750 0.5920 0.6010
7.298000 0.6160 0.6470 0.6760 0.7010 0.7260
7.331461 0.7470 0.7660 0.7840 0.8010 0.8140
7.365000 0.8260 0.8310 0.8360 0.8390 0.8390
7.398461 0.8410 0.8430 0.8440 0.8490 0.8510
7.431000 0.8530 0.8540 0.8560 0.8580 0.8590
7.464461 0.8610 0.8610 0.8640 0.8710 0.8740
7.498000 0.8780 0.8790 0.8810 0.8830 0.8860
7.531461 0.8890 0.8890 0.8890 0.8890 0.8860
7.565000 0.8810 0.8760 0.8760 0.8690 0.8580
7.598461 0.8560 0.8560 0.8580 0.8610 0.8640
7.632000 0.8640 0.8680 0.8680 0.8680 0.8680
7.665461 0.8680 0.8680 0.8640 0.8640 0.8640
7.699000 0.8660 0.8660 0.8660 0.8680 0.8690
7.732461 0.8690 0.8690 0.8690 0.8710 0.8710
7.766000 0.8710 0.8710 0.8710 0.8710 0.8710
7.799461 0.8710 0.8730 0.8730 0.8730 0.8730
7.833000 0.8730 0.8730 0.8730 0.8730 0.8730
7.866461 0.8730 0.8730 0.8730 0.8740 0.8740
7.900000 0.8740 0.8740 0.8740 0.8740 0.8740
7.933461 0.8740 0.8740 0.8740 0.8740 0.8740
7.967000 0.8740 0.8740 0.8740 0.8730 0.8730
8.000461 0.8730 0.8730 0.8730 0.8740 0.8740
8.033000 0.8740 0.8740 0.8740 0.8740 0.8740
8.066461 0.8740 0.8730 0.8730 0.8730 0.8730
8.100000 0.8730 0.8730 0.8710 0.8710 0.8710
8.133461 0.8690 0.8690 0.8690 0.8690 0.8690
8.167000 0.8680 0.8680 0.8680 0.8660 0.8660
8.200461 0.8660 0.8660 0.8660 0.8640 0.8640
8.234000 0.8630 0.8630 0.8610 0.8610 0.8590
8.267461 0.8590 0.8580 0.8560 0.8540 0.8530
8.301000 0.8510 0.8510 0.8490 0.8480 0.8480
8.334461 0.8480 0.8480 0.8460 0.8460 0.8440
8.368000 0.8440 0.8430 0.8430 0.8410 0.8410
8.401461 0.8410 0.8390 0.8380 0.8340 0.8330
8.435000 0.8310 0.8290 0.8290 0.8280 0.8280
8.468461 0.8260 0.8240 0.8230 0.8210 0.8190
8.502000 0.8130 0.8110 0.8040 0.8010 0.8010
8.535461 0.7990 0.7970 0.7960 0.7960 0.7940
8.569000 0.7920 0.7910 0.7910 0.7890 0.7890
8.602461 0.7870 0.7870 0.7860 0.7840 0.7810
8.635000 0.7790 0.7790 0.7770 0.7760 0.7720
8.668461 0.7710 0.7690 0.7670 0.7670 0.7660
8.702000 0.7640 0.7620 0.7610 0.7590 0.7570
8.735461 0.7520 0.7520 0.7510 0.7490 0.7470
8.769000 0.7460 0.7440 0.7420 0.7410 0.7410
8.802461 0.7390 0.7360 0.7320 0.7310 0.7290
8.836000 0.7270 0.7220 0.7210 0.7190 0.7160
8.869461 0.7110 0.7070 0.7040 0.7010 0.6970
8.903000 0.6940 0.6910 0.6890 0.6860 0.6820
8.936461 0.6790 0.6760 0.6720 0.6670 0.6620
8.970000 0.6590 0.6540 0.6470 0.6420 0.6360
9.003461 0.6270 0.6210 0.6110 0.6060 0.6010
9.037000 0.5920 0.5840 0.5740 0.5640 0.5520
9.070461 0.5370 0.5220 0.5050 0.4890 0.4690
9.104000 0.4470 0.4240 0.3980 0.3750 0.3550
9.137461 0.3400 0.3220 0.3070 0.2970 0.2900
9.171000 0.2880 0.2880 0.2880 0.2900 0.2930
9.204461 0.2950 0.2980 0.2980 0.2950 0.2920
9.237000 0.2850 0.2770 0.2670 0.2570 0.2470
9.270461 0.2330 0.2220 0.2080 0.1950 0.1830
9.304000 0.1700 0.1580 0.1460 0.1360 0.1260
9.337461 0.1160 0.1050 0.1010 0.0950 0.0860
9.371000 0.0760 0.0710 0.0700 0.0630 0.0610
9.404461 0.0560 0.0500 0.0480 0.0460 0.0430
9.438000 0.0410 0.0400 0.0400 0.0380 0.0330
9.471461 0.0330 0.0310 0.0300 0.0300 0.0280
9.505000 0.0280 0.0260 0.0260 0.0250 0.0230
9.538461 0.0230 0.0210 0.0200 0.0200 0.0180
9.572000 0.0180 0.0160 0.0160 0.0150 0.0150
9.605461 0.0150 0.0150 0.0150 0.0130 0.0130
9.639000 0.0130 0.0130 0.0130 0.0110 0.0110
9.672461 0.0110 0.0110 0.0110 0.0110 0.0110
9.706000 0.0110 0.0110 0.0110 0.0110 0.0110
9.739461 0.0110 0.0110 0.0110 0.0110 0.0130
9.773000 0.0130 0.0130 0.0130 0.0130 0.0130
9.806461 0.0130 0.0130 0.0130 0.0130 0.0130
9.839000 0.0130 0.0130 0.0130 0.0150 0.0150
9.872461 0.0150 0.0150 0.0150 0.0150 0.0160
9.906000 0.0160 0.0160 0.0160 0.0180 0.0180
9.939461 0.0180 0.0180 0.0200 0.0200 0.0200
9.973000 0.0200 0.0210 0.0230 0.0260 0.0300
10.006461 0.0330 0.0380 0.0430 0.0480 0.0510
10.040000 0.0560 0.0650 0.0710 0.0810 0.0880
10.073461 0.1010 0.1130 0.1260 0.1380 0.1500
10.107000 0.1610 0.1750 0.1880 0.2020 0.2150
10.140461 0.2280 0.2400 0.2520 0.2650 0.2770
10.174000 0.2870 0.2970 0.3080 0.3170 0.3270
10.207461 0.3330 0.3480 0.3600 0.3700 0.3780
10.241000 0.3870 0.3950 0.4050 0.4140 0.4220
10.274461 0.4320 0.4400 0.4490 0.4570 0.4650
10.308000 0.4740 0.4800 0.4870 0.4920 0.5000
10.341461 0.5050 0.5120 0.5170 0.5220 0.5270
10.375000 0.5320 0.5370 0.5440 0.5490 0.5520
10.408461 0.5570 0.5640 0.5690 0.5740 0.5790
10.441000 0.5800 0.5850 0.5890 0.6010 0.6040
10.474461 0.6060 0.6090 0.6120 0.6170 0.6210
10.508000 0.6260 0.6290 0.6320 0.6360 0.6370
10.541461 0.6370 0.6410 0.6440 0.6460 0.6470
10.575000 0.6470 0.6490 0.6490 0.6490 0.6470
10.608461 0.6470 0.6460 0.6440 0.6410 0.6360
10.642000 0.6260 0.6210 0.6110 0.6070 0.6040
10.675461 0.6010 0.5990 0.6010 0.6010 0.6040
10.709000 0.6120 0.6240 0.6340 0.6440 0.6520
10.742461 0.6610 0.6660 0.6720 0.6770 0.6820
10.776000 0.6860 0.6910 0.6940 0.6970 0.6990
10.809461 0.7010 0.7020 0.7070 0.7090 0.7090
10.843000 0.7110 0.7110 0.7110 0.7110 0.7120
10.876461 0.7140 0.7160 0.7160 0.7170 0.7190
10.910000 0.7190 0.7210 0.7220 0.7240 0.7260
10.943461 0.7270 0.7290 0.7310 0.7320 0.7320
10.977000 0.7340 0.7340 0.7360 0.7360 0.7370
11.010461 0.7370 0.7410 0.7420 0.7420 0.7420
11.043000 0.7420 0.7420 0.7420 0.7420 0.7420
11.076461 0.7420 0.7420 0.7420 0.7420 0.7420
11.110000 0.7420 0.7420 0.7410 0.7410 0.7410
11.143461 0.7410 0.7410 0.7410 0.7390 0.7390
11.177000 0.7370 0.7360 0.7340 0.7320 0.7310
11.210461 0.7290 0.7260 0.7240 0.7220 0.7210
11.244000 0.7170 0.7120 0.7110 0.7060 0.7020
11.277461 0.6990 0.6960 0.6890 0.6820 0.6760
11.311000 0.6690 0.6640 0.6560 0.6460 0.6410
11.344461 0.6360 0.6260 0.6140 0.6070 0.6060
11.378000 0.6040 0.6020 0.6010 0.6010 0.6010
11.411461 0.6010 0.6010 0.6010 0.6010 0.6010
11.445000 0.6010 0.6010 0.6010 0.6010 0.6010
11.478461 0.6010 0.5990 0.5950 0.5900 0.5850
11.512000 0.5790 0.5750 0.5690 0.5650 0.5600
11.545461 0.5550 0.5520 0.5470 0.5440 0.5390
11.579000 0.5350 0.5320 0.5300 0.5270 0.5220
11.612461 0.5170 0.5120 0.5070 0.5040 0.5000
11.645000 0.4990 0.4970 0.4950 0.4920 0.4920
11.678461 0.4900 0.4900 0.4890 0.4890 0.4890
11.712000 0.4890 0.4890 0.4890 0.4900 0.4920
11.745461 0.4940 0.4950 0.4970 0.4970 0.4990
11.779000 0.5020 0.5050 0.5100 0.5140 0.5200
11.812461 0.5250 0.5300 0.5350 0.5400 0.5450
11.846000 0.5520 0.5590 0.5650 0.5690 0.5720
11.879461 0.5750 0.5790 0.5820 0.5870 0.5940
11.913000 0.6020 0.6120 0.6240 0.6290 0.6340
11.946461 0.6390 0.6440 0.6490 0.6520 0.6570
11.980000 0.6620 0.6670 0.6720 0.6770 0.6820
12.013461 0.6870 0.6920 0.6990 0.7040 0.7060
12.047000 0.7090 0.7140 0.7190 0.7210 0.7240
12.080461 0.7290 0.7340 0.7370 0.7410 0.7440
12.114000 0.7460 0.7470 0.7510 0.7520 0.7540
12.147461 0.7570 0.7610 0.7620 0.7660 0.7690
12.181000 0.7720 0.7760 0.7790 0.7790 0.7810
12.214461 0.7820 0.7820 0.7840 0.7870 0.7890
12.247000 0.7890 0.7910 0.7910 0.7940 0.7940
12.280461 0.7960 0.7990 0.7990 0.7990 0.8010
12.314000 0.8010 0.8030 0.8030 0.8040 0.8040
12.347461 0.8060 0.8060 0.8080 0.8080 0.8090
12.381000 0.8090 0.8110 0.8130 0.8130 0.8140
12.414461 0.8140 0.8160 0.8160 0.8180 0.8190
12.448000 0.8190 0.8190 0.8210 0.8210 0.8210
12.481461 0.8230 0.8230 0.8230 0.8240 0.8260
12.515000 0.8260 0.8280 0.8280 0.8280 0.8280
12.548461 0.8280 0.8290 0.8290 0.8290 0.8310
12.582000 0.8310 0.8310 0.8310 0.8310 0.8330
12.615461 0.8330 0.8330 0.8340 0.8340 0.8340
12.649000 0.8340 0.8360 0.8360 0.8360 0.8360
12.682461 0.8360 0.8380 0.8380 0.8380 0.8380
12.716000 0.8380 0.8380 0.8380 0.8380 0.8380
12.749461 0.8380 0.8380 0.8380 0.8380 0.8380
12.783000 0.8380 0.8380 0.8380 0.8380 0.8380
12.816461 0.8380 0.8380 0.8380 0.8380 0.8380
12.849000 0.8380 0.8380 0.8380 0.8380 0.8380
12.882461 0.8380 0.8380 0.8360 0.8360 0.8360
12.916000 0.8360 0.8360 0.8360 0.8360 0.8340
12.949461 0.8340 0.8340 0.8340 0.8340 0.8340
12.983000 0.8340 0.8340 0.8340 0.8340 0.8340
13.016461 0.8340 0.8340 0.8340 0.8340 0.8340
13.050000 0.8340 0.8340 0.8340 0.8340 0.8340
13.083461 0.8330 0.8330 0.8330 0.8310 0.8310
13.117000 0.8310 0.8310 0.8310 0.8290 0.8290
13.150461 0.8290 0.8290 0.8290 0.8280 0.8280
13.184000 0.8280 0.8280 0.8280 0.8260 0.8260
13.217461 0.8260 0.8240 0.8240 0.8230 0.8210
13.251000 0.8190 0.8190 0.8190 0.8190 0.8180
13.284461 0.8180 0.8160 0.8160 0.8160 0.8140
13.318000 0.8140 0.8140 0.8130 0.8130 0.8130
13.351461 0.8110 0.8090 0.8090 0.8080 0.8080
13.385000 0.8080 0.8080 0.8060 0.8060 0.8060
13.418461 0.8040 0.8040 0.8030 0.8030 0.8010
13.452000 0.7990 0.7990 0.7970 0.7960 0.7940
13.485461 0.7920 0.7920 0.7890 0.7870 0.7870
13.518000 0.7840 0.7820 0.7810 0.7790 0.7790
13.551461 0.7770 0.7770 0.7740 0.7720 0.7710
13.585000 0.7690 0.7670 0.7660 0.7640 0.7610
13.618461 0.7570 0.7560 0.7560 0.7540 0.7520
13.652000 0.7520 0.7510 0.7490 0.7490 0.7470
13.685461 0.7460 0.7420 0.7390 0.7390 0.7340
13.719000 0.7320 0.7310 0.7290 0.7240 0.7220
13.752461 0.7190 0.7170 0.7120 0.7110 0.7070
13.786000 0.7040 0.7010 0.6990 0.6960 0.6940
13.819461 0.6910 0.6870 0.6840 0.6820 0.6820
13.853000 0.6810 0.6790 0.6790 0.6770 0.6740
13.886461 0.6720 0.6710 0.6690 0.6670 0.6620
13.920000 0.6590 0.6590 0.6570 0.6520 0.6520
13.953461 0.6510 0.6490 0.6470 0.6420 0.6420
13.987000 0.6410 0.6410 0.6390 0.6370 0.6340
14.020461 0.6320 0.6290 0.6270 0.6240 0.6220
14.054000 0.6190 0.6170 0.6120 0.6110 0.6090
14.087461 0.6070 0.6040 0.6010 0.6010 0.5990
14.120000 0.5950 0.5920 0.5900 0.5890 0.5870
14.153461 0.5870 0.5820 0.5820 0.5800 0.5790
14.187000 0.5790 0.5750 0.5750 0.5720 0.5720
14.220461 0.5720 0.5700 0.5690 0.5690 0.5690
14.254000 0.5690 0.5690 0.5690 0.5690 0.5690
14.287461 0.5700 0.5720 0.5740 0.5740 0.5750
14.321000 0.5750 0.5770 0.5770 0.5790 0.5790
14.354461 0.5800 0.5820 0.5850 0.5870 0.5890
14.388000 0.5920 0.5920 0.5950 0.5950 0.6010
14.421461 0.6040 0.6060 0.6060 0.6090 0.6090
14.455000 0.6110 0.6120 0.6160 0.6190 0.6210
14.488461 0.6240 0.6260 0.6290 0.6310 0.6320
14.522000 0.6320 0.6360 0.6370 0.6370 0.6390
14.555461 0.6390 0.6410 0.6410 0.6420 0.6440
14.589000 0.6460 0.6460 0.6470 0.6470 0.6490
14.622461 0.6490 0.6510 0.6520 0.6520 0.6520
14.656000 0.6520 0.6540 0.6560 0.6570 0.6590
14.689461 0.6590 0.6610 0.6610 0.6610 0.6610
14.722000 0.6610 0.6610 0.6610 0.6620 0.6620
14.755461 0.6620 0.6620 0.6620 0.6620 0.6620
14.789000 0.6640 0.6640 0.6640 0.6640 0.6660
14.822461 0.6660 0.6660 0.6660 0.6660 0.6660
14.856000 0.6660 0.6660 0.6660 0.6660 0.6660
14.889461 0.6660 0.6660 0.6660 0.6660 0.6660
14.923000 0.6640 0.6640 0.6640 0.6640 0.6640
14.956461 0.6640 0.6640 0.6640 0.6640 0.6640
14.990000 0.6620 0.6620 0.6620 0.6620 0.6610
15.023461 0.6610 0.6590 0.6590 0.6570 0.6570
15.057000 0.6560 0.6560 0.6560 0.6560 0.6560
15.090461 0.6560 0.6560 0.6560 0.6560 0.6540
15.124000 0.6540 0.6520 0.6520 0.6510 0.6510
15.157461 0.6510 0.6490 0.6490 0.6490 0.6470
15.191000 0.6470 0.6470 0.6460 0.6460 0.6440
15.224461 0.6410 0.6410 0.6390 0.6390 0.6370
15.258000 0.6370 0.6360 0.6340 0.6340 0.6320
15.291461 0.6310 0.6310 0.6310 0.6310 0.6290
15.324000 0.6270 0.6270 0.6260 0.6260 0.6240
15.357461 0.6240 0.6240 0.6240 0.6240 0.6220
15.391000 0.6220 0.6220 0.6220 0.6220 0.6210
15.424461 0.6210 0.6190 0.6190 0.6170 0.6160
15.458000 0.6140 0.6120 0.6120 0.6110 0.6110
15.491461 0.6090 0.6090 0.6060 0.6020 0.6020
15.525000 0.6010 0.5990 0.5990 0.5970 0.5950
15.558461 0.5950 0.5940 0.5940 0.5920 0.5920
15.592000 0.5900 0.5900 0.5900 0.5890 0.5890
15.625461 0.5890 0.5890 0.5870 0.5870 0.5840
15.659000 0.5820 0.5800 0.5790 0.5770 0.5770
15.692461 0.5750 0.5750 0.5750 0.5750 0.5740
15.726000 0.5740 0.5740 0.5740 0.5740 0.5740
15.759461 0.5740 0.5720 0.5720 0.5720 0.5720
15.793000 0.5700 0.5700 0.5700 0.5700 0.5700
15.826461 0.5700 0.5690 0.5690 0.5690 0.5670
15.860000 0.5670 0.5670 0.5670 0.5650 0.5640
15.893461 0.5640 0.5640 0.5640 0.5640 0.5640
15.926000 0.5640 0.5640
##END=
