##TITLE=4(3H)-PYRIMIDINONE, 2,5,6-TRIAMINO-, DIHYDROCHLORIDE (KETO FORM)
##JCAMP-DX=4.24
##DATA TYPE=INFRARED SPECTRUM
##CLASS=COBLENTZ III
##ORIGIN=SOUTHERN RESEARCH INSTITUTE
##OWNER=COBLENTZ SOCIETY
Collection (C) 2018 copyright by the U.S. Secretary of Commerce
on behalf of the United States of America. All rights reserved.
##DATE=1962/04/04
##MOLFORM=C4 H9 Cl2 N5 O
##SOURCE REFERENCE=COBLENTZ NO. 8438
##$NIST ID=B6008438
##$NIST SOURCE=COBLENTZ
##$NIST IMAGE=cob8438
##SPECTROMETER/DATA SYSTEM=PERKIN-ELMER 221 (GRATING)
##INSTRUMENT PARAMETERS=FILTER CHANGE AT 980 CM^-^1, GRATING FOR 4000-1428 CM^-^1, NaCl PRISM FOR 1428-650 CM^-^1
##STATE=SOLID (1 mg / 650 mg KBr DISC)
##SAMPLING PROCEDURE=TRANSMISSION
##RESOLUTION=4
##DATA PROCESSING=DIGITIZED BY NIST FROM HARD COPY
##XUNITS=1/CM
##YUNITS=TRANSMITTANCE
##XFACTOR=1.000000
##YFACTOR=1
##DELTAX=001.809651
##FIRSTX=607.708
##LASTX=4002.62
##FIRSTY=0.712
##MAXX=4002.62
##MINX=607.708
##MAXY=0.936
##MINY=0.063
##NPOINTS=1877
##XYDATA=(X++(Y..Y))
607.708000 0.7120 0.7130 0.7150 0.7160 0.7160
616.761083 0.7180 0.7200 0.7230 0.7250 0.7300
625.804000 0.7340 0.7370 0.7410 0.7440 0.7480
634.857083 0.7510 0.7520 0.7520 0.7520 0.7460
643.901000 0.7430 0.7390 0.7370 0.7340 0.7300
652.954083 0.7250 0.7200 0.7150 0.7080 0.7030
661.997000 0.6990 0.6940 0.6920 0.6910 0.6900
671.050083 0.6900 0.6900 0.6900 0.6900 0.6900
680.094000 0.6900 0.6900 0.6910 0.6910 0.6910
689.147083 0.6930 0.6980 0.7030 0.7080 0.7150
698.190000 0.7220 0.7280 0.7340 0.7400 0.7450
707.243083 0.7490 0.7500 0.7510 0.7520 0.7520
716.287000 0.7500 0.7490 0.7490 0.7470 0.7460
725.340083 0.7450 0.7420 0.7300 0.7260 0.7220
734.383000 0.6540 0.5950 0.5950 0.6120 0.6290
743.436083 0.6620 0.6630 0.6640 0.6660 0.6650
752.480000 0.6600 0.6400 0.6210 0.6210 0.6370
761.533083 0.6530 0.6650 0.6920 0.7350 0.7580
770.576000 0.7600 0.7600 0.7620 0.7630 0.7630
779.629083 0.7640 0.7740 0.7800 0.7970 0.8110
788.673000 0.8220 0.8300 0.8370 0.8410 0.8450
797.726083 0.8480 0.8490 0.8500 0.8510 0.8520
806.769000 0.8540 0.8550 0.8530 0.8530 0.8520
815.822083 0.8500 0.8490 0.8460 0.8440 0.8410
824.866000 0.8400 0.8390 0.8370 0.8350 0.8340
833.919083 0.8340 0.8330 0.8320 0.8320 0.8310
842.962000 0.8310 0.8300 0.8300 0.8300 0.8300
852.015083 0.8290 0.8290 0.8290 0.8290 0.8290
861.059000 0.8280 0.8280 0.8280 0.8280 0.8280
870.112083 0.8270 0.8270 0.8270 0.8270 0.8260
879.156000 0.8260 0.8260 0.8250 0.8250 0.8250
888.209083 0.8240 0.8240 0.8240 0.8240 0.8240
897.252000 0.8230 0.8220 0.8190 0.8150 0.8140
906.305083 0.8130 0.8110 0.8110 0.8110 0.8100
915.349000 0.8100 0.8100 0.8100 0.8100 0.8100
924.402083 0.8100 0.8100 0.8100 0.8090 0.8090
933.445000 0.8090 0.8090 0.8090 0.8080 0.8070
942.498083 0.8060 0.8050 0.8050 0.8050 0.8040
951.542000 0.8040 0.8030 0.8030 0.8010 0.8000
960.595083 0.8000 0.7980 0.7970 0.7940 0.7890
969.638000 0.7840 0.7780 0.7730 0.7690 0.7680
978.691083 0.7630 0.7610 0.7560 0.7540 0.7530
987.735000 0.7530 0.7520 0.7520 0.7520 0.7510
996.788083 0.7500 0.7480 0.7460 0.7430 0.7380
1005.831000 0.7340 0.7290 0.7240 0.7190 0.7150
1014.884083 0.7100 0.7070 0.7020 0.6980 0.6960
1023.928000 0.6980 0.7020 0.7100 0.7180 0.7270
1032.981083 0.7340 0.7370 0.7380 0.7380 0.7380
1042.024000 0.7380 0.7370 0.7320 0.7290 0.7240
1051.077083 0.7190 0.7130 0.7070 0.7010 0.6970
1060.121000 0.6920 0.6890 0.6860 0.6770 0.6700
1069.174083 0.6640 0.6590 0.6560 0.6540 0.6520
1078.217000 0.6500 0.6490 0.6490 0.6480 0.6460
1087.270083 0.6450 0.6440 0.6430 0.6420 0.6410
1096.314000 0.6400 0.6410 0.6410 0.6420 0.6500
1105.367083 0.6540 0.6630 0.6750 0.6860 0.6950
1114.410000 0.6990 0.7020 0.7060 0.7070 0.7060
1123.463083 0.7060 0.7050 0.7040 0.7040 0.7030
1132.507000 0.7020 0.7000 0.6990 0.6970 0.6950
1141.560083 0.6910 0.6880 0.6830 0.6780 0.6720
1150.603000 0.6640 0.6550 0.6450 0.6380 0.6370
1159.656083 0.6390 0.6480 0.6580 0.6760 0.6930
1168.700000 0.7010 0.7040 0.7060 0.7070 0.7120
1177.753083 0.7130 0.7140 0.7150 0.7150 0.7150
1186.796000 0.7140 0.7130 0.7130 0.7120 0.7110
1195.849083 0.7100 0.7070 0.7020 0.7010 0.7010
1204.893000 0.7010 0.7000 0.7000 0.6990 0.6990
1213.946083 0.6990 0.7000 0.7040 0.7070 0.7100
1222.989000 0.7130 0.7190 0.7210 0.7270 0.7310
1232.042083 0.7340 0.7380 0.7410 0.7430 0.7430
1241.086000 0.7430 0.7430 0.7430 0.7430 0.7430
1250.139083 0.7430 0.7430 0.7420 0.7420 0.7420
1259.182000 0.7420 0.7420 0.7420 0.7410 0.7410
1268.235083 0.7400 0.7400 0.7390 0.7380 0.7330
1277.279000 0.7270 0.7240 0.7200 0.7170 0.7160
1286.332083 0.7140 0.7120 0.7110 0.7100 0.7090
1295.375000 0.7080 0.7070 0.7050 0.7030 0.6990
1304.428083 0.6960 0.6940 0.6900 0.6880 0.6870
1313.472000 0.6870 0.6860 0.6850 0.6840 0.6830
1322.525083 0.6810 0.6810 0.6790 0.6750 0.6710
1331.568000 0.6660 0.6610 0.6560 0.6500 0.6450
1340.621083 0.6390 0.6340 0.6280 0.6230 0.6190
1349.665000 0.6140 0.6100 0.6060 0.6020 0.6000
1358.718083 0.5920 0.5860 0.5790 0.5730 0.5660
1367.761000 0.5590 0.5540 0.5520 0.5500 0.5480
1376.814083 0.5440 0.5370 0.5180 0.5040 0.4900
1385.858000 0.4600 0.4260 0.4150 0.4040 0.3860
1394.911083 0.3840 0.3850 0.3960 0.4520 0.5510
1403.954000 0.5830 0.6190 0.6210 0.6230 0.6240
1413.007083 0.6260 0.6350 0.6440 0.6530 0.6680
1422.051000 0.6690 0.6680 0.6650 0.6630 0.6610
1431.104083 0.6580 0.6540 0.6500 0.6450 0.6370
1440.147000 0.6280 0.6200 0.6190 0.6190 0.6180
1449.200083 0.6180 0.6170 0.6170 0.6170 0.6160
1458.244000 0.6150 0.6140 0.6100 0.6040 0.6000
1467.297083 0.5920 0.5820 0.5660 0.5550 0.5440
1476.340000 0.5240 0.5070 0.4930 0.4790 0.4680
1485.393083 0.4580 0.4480 0.4380 0.4280 0.4260
1494.437000 0.4250 0.4260 0.4280 0.4370 0.4470
1503.490083 0.4620 0.4790 0.4940 0.5050 0.5190
1512.534000 0.5570 0.5850 0.5980 0.6090 0.6100
1521.587083 0.6090 0.6040 0.5990 0.5930 0.5910
1530.630000 0.5890 0.5880 0.5870 0.5860 0.5840
1539.683083 0.5750 0.5570 0.5500 0.5440 0.5360
1548.727000 0.5300 0.5240 0.5150 0.5070 0.5040
1557.780083 0.5070 0.5100 0.5120 0.5100 0.5080
1566.823000 0.5070 0.5040 0.4990 0.4950 0.4940
1575.876083 0.4960 0.5140 0.5200 0.5230 0.5290
1584.920000 0.5350 0.5360 0.5360 0.5360 0.5360
1593.973083 0.5340 0.5240 0.5000 0.4790 0.4610
1603.016000 0.4450 0.4310 0.4170 0.4050 0.3920
1612.069083 0.3800 0.3650 0.3510 0.3340 0.3140
1621.113000 0.2920 0.2660 0.2360 0.2120 0.2110
1630.166083 0.2100 0.2090 0.2070 0.2030 0.2000
1639.209000 0.1960 0.1940 0.1890 0.1850 0.1800
1648.262083 0.1730 0.1650 0.1590 0.1510 0.1430
1657.306000 0.1350 0.1270 0.1050 0.0980 0.0920
1666.359083 0.0800 0.0780 0.0730 0.0660 0.0630
1675.402000 0.0650 0.0680 0.0760 0.0830 0.1130
1684.455083 0.1340 0.1570 0.1810 0.2030 0.2250
1693.499000 0.2430 0.2560 0.2630 0.2920 0.3180
1702.552083 0.3430 0.3660 0.3880 0.4070 0.4260
1711.595000 0.4440 0.4610 0.4770 0.4920 0.5060
1720.648083 0.5200 0.5330 0.5590 0.5720 0.5850
1729.692000 0.5980 0.6110 0.6250 0.6390 0.6540
1738.745083 0.6710 0.6870 0.7070 0.7200 0.7290
1747.788000 0.7350 0.7400 0.7450 0.7520 0.7620
1756.841083 0.7720 0.7800 0.7870 0.7930 0.7970
1765.885000 0.8020 0.8050 0.8070 0.8090 0.8170
1774.938083 0.8230 0.8270 0.8300 0.8310 0.8320
1783.981000 0.8330 0.8350 0.8370 0.8380 0.8390
1793.034083 0.8410 0.8460 0.8490 0.8540 0.8580
1802.078000 0.8610 0.8650 0.8680 0.8710 0.8750
1811.131083 0.8780 0.8820 0.8840 0.8880 0.8920
1820.174000 0.8940 0.8970 0.9010 0.9030 0.9050
1829.227083 0.9080 0.9100 0.9120 0.9130 0.9150
1838.271000 0.9160 0.9170 0.9170 0.9170 0.9180
1847.324083 0.9180 0.9180 0.9180 0.9180 0.9180
1856.367000 0.9180 0.9180 0.9180 0.9190 0.9200
1865.420083 0.9200 0.9200 0.9200 0.9200 0.9200
1874.464000 0.9200 0.9210 0.9210 0.9220 0.9220
1883.517083 0.9230 0.9240 0.9250 0.9260 0.9270
1892.560000 0.9280 0.9290 0.9290 0.9300 0.9310
1901.613083 0.9320 0.9320 0.9330 0.9340 0.9340
1910.657000 0.9350 0.9350 0.9360 0.9360 0.9360
1919.710083 0.9360 0.9360 0.9360 0.9360 0.9350
1928.753000 0.9350 0.9350 0.9340 0.9340 0.9340
1937.806083 0.9330 0.9320 0.9310 0.9300 0.9300
1946.850000 0.9290 0.9290 0.9290 0.9290 0.9280
1955.903083 0.9280 0.9280 0.9280 0.9270 0.9270
1964.946000 0.9270 0.9260 0.9260 0.9260 0.9260
1973.999083 0.9250 0.9240 0.9240 0.9230 0.9220
1983.043000 0.9210 0.9200 0.9180 0.9160 0.9150
1992.096083 0.9140 0.9140 0.9140 0.9140 0.9130
2001.139000 0.9120 0.9120 0.9110 0.9110 0.9100
2010.192083 0.9100 0.9090 0.9090 0.9080 0.9080
2019.236000 0.9070 0.9070 0.9070 0.9060 0.9050
2028.289083 0.9030 0.9020 0.9020 0.9010 0.9000
2037.332000 0.9000 0.8990 0.8990 0.8980 0.8980
2046.385083 0.8970 0.8970 0.8960 0.8960 0.8960
2055.429000 0.8960 0.8960 0.8950 0.8950 0.8960
2064.482083 0.8960 0.8960 0.8960 0.8960 0.8960
2073.525000 0.8960 0.8960 0.8950 0.8950 0.8950
2082.578083 0.8940 0.8940 0.8930 0.8930 0.8920
2091.622000 0.8890 0.8870 0.8850 0.8840 0.8820
2100.675083 0.8810 0.8800 0.8800 0.8800 0.8800
2109.719000 0.8790 0.8790 0.8790 0.8780 0.8780
2118.772083 0.8780 0.8770 0.8770 0.8770 0.8770
2127.815000 0.8770 0.8770 0.8770 0.8770 0.8770
2136.868083 0.8770 0.8770 0.8770 0.8760 0.8760
2145.912000 0.8760 0.8760 0.8760 0.8760 0.8760
2154.965083 0.8750 0.8750 0.8750 0.8740 0.8740
2164.008000 0.8740 0.8740 0.8740 0.8720 0.8720
2173.061083 0.8710 0.8710 0.8700 0.8700 0.8700
2182.104000 0.8690 0.8680 0.8670 0.8660 0.8650
2191.157083 0.8640 0.8640 0.8640 0.8630 0.8630
2200.201000 0.8620 0.8620 0.8610 0.8610 0.8600
2209.254083 0.8600 0.8600 0.8590 0.8590 0.8590
2218.298000 0.8580 0.8580 0.8580 0.8580 0.8580
2227.351083 0.8580 0.8570 0.8570 0.8560 0.8560
2236.394000 0.8550 0.8550 0.8540 0.8540 0.8530
2245.447083 0.8530 0.8520 0.8520 0.8510 0.8510
2254.491000 0.8500 0.8500 0.8500 0.8490 0.8490
2263.544083 0.8490 0.8480 0.8470 0.8460 0.8450
2272.587000 0.8440 0.8430 0.8420 0.8410 0.8400
2281.640083 0.8400 0.8390 0.8380 0.8370 0.8360
2290.684000 0.8350 0.8340 0.8330 0.8330 0.8320
2299.737083 0.8310 0.8280 0.8260 0.8240 0.8230
2308.780000 0.8230 0.8230 0.8220 0.8210 0.8210
2317.833083 0.8200 0.8190 0.8180 0.8180 0.8170
2326.877000 0.8160 0.8150 0.8140 0.8140 0.8140
2335.930083 0.8140 0.8130 0.8130 0.8120 0.8120
2344.973000 0.8110 0.8100 0.8100 0.8100 0.8090
2354.026083 0.8090 0.8090 0.8090 0.8080 0.8080
2363.070000 0.8080 0.8080 0.8080 0.8080 0.8070
2372.123083 0.8070 0.8060 0.8060 0.8050 0.8050
2381.166000 0.8040 0.8030 0.8020 0.8000 0.7980
2390.219083 0.7970 0.7960 0.7950 0.7930 0.7920
2399.263000 0.7900 0.7880 0.7860 0.7850 0.7830
2408.316083 0.7810 0.7790 0.7810 0.7810 0.7800
2417.359000 0.7790 0.7780 0.7780 0.7770 0.7750
2426.412083 0.7720 0.7700 0.7690 0.7680 0.7680
2435.456000 0.7670 0.7650 0.7640 0.7620 0.7610
2444.509083 0.7590 0.7570 0.7550 0.7530 0.7520
2453.552000 0.7490 0.7470 0.7450 0.7430 0.7410
2462.605083 0.7390 0.7370 0.7340 0.7330 0.7310
2471.649000 0.7290 0.7270 0.7250 0.7240 0.7220
2480.702083 0.7210 0.7210 0.7170 0.7140 0.7110
2489.745000 0.7090 0.7080 0.7070 0.7060 0.7050
2498.798083 0.7030 0.7000 0.6990 0.6970 0.6940
2507.842000 0.6910 0.6890 0.6850 0.6810 0.6780
2516.895083 0.6730 0.6700 0.6660 0.6630 0.6590
2525.938000 0.6550 0.6520 0.6490 0.6460 0.6450
2534.991083 0.6430 0.6410 0.6410 0.6400 0.6380
2544.035000 0.6370 0.6360 0.6350 0.6350 0.6350
2553.088083 0.6340 0.6340 0.6330 0.6330 0.6320
2562.131000 0.6310 0.6300 0.6290 0.6280 0.6280
2571.184083 0.6270 0.6260 0.6240 0.6240 0.6240
2580.228000 0.6230 0.6230 0.6230 0.6220 0.6220
2589.281083 0.6210 0.6210 0.6210 0.6200 0.6200
2598.324000 0.6200 0.6190 0.6190 0.6190 0.6180
2607.377083 0.6170 0.6170 0.6130 0.6100 0.6080
2616.421000 0.6070 0.6040 0.6020 0.6010 0.5980
2625.474083 0.5960 0.5940 0.5920 0.5920 0.5910
2634.517000 0.5910 0.5910 0.5900 0.5900 0.5890
2643.570083 0.5890 0.5880 0.5880 0.5880 0.5870
2652.614000 0.5860 0.5850 0.5800 0.5750 0.5730
2661.667083 0.5700 0.5670 0.5640 0.5640 0.5610
2670.710000 0.5600 0.5580 0.5570 0.5570 0.5550
2679.763083 0.5510 0.5490 0.5470 0.5420 0.5380
2688.807000 0.5340 0.5330 0.5330 0.5300 0.5280
2697.860083 0.5260 0.5230 0.5200 0.5180 0.5150
2706.904000 0.5130 0.5100 0.5070 0.5060 0.5040
2715.957083 0.5040 0.5020 0.5010 0.4980 0.4940
2725.000000 0.4890 0.4870 0.4850 0.4840 0.4810
2734.053083 0.4790 0.4780 0.4780 0.4770 0.4770
2743.096000 0.4740 0.4710 0.4690 0.4660 0.4640
2752.149083 0.4620 0.4600 0.4600 0.4580 0.4570
2761.193000 0.4550 0.4540 0.4530 0.4510 0.4510
2770.246083 0.4500 0.4480 0.4460 0.4450 0.4430
2779.290000 0.4420 0.4390 0.4360 0.4330 0.4310
2788.343083 0.4270 0.4240 0.4230 0.4220 0.4220
2797.386000 0.4200 0.4190 0.4150 0.4130 0.4110
2806.439083 0.4090 0.4080 0.4070 0.4070 0.4060
2815.483000 0.4050 0.4030 0.4010 0.4000 0.3980
2824.536083 0.3980 0.3960 0.3950 0.3950 0.3930
2833.579000 0.3900 0.3890 0.3850 0.3800 0.3760
2842.632083 0.3710 0.3680 0.3660 0.3640 0.3640
2851.676000 0.3630 0.3620 0.3620 0.3620 0.3620
2860.729083 0.3620 0.3620 0.3620 0.3620 0.3620
2869.772000 0.3610 0.3610 0.3610 0.3610 0.3610
2878.825083 0.3610 0.3610 0.3610 0.3610 0.3610
2887.869000 0.3600 0.3600 0.3600 0.3600 0.3600
2896.922083 0.3600 0.3600 0.3600 0.3600 0.3600
2905.965000 0.3590 0.3590 0.3590 0.3590 0.3590
2915.018083 0.3590 0.3590 0.3590 0.3580 0.3580
2924.062000 0.3580 0.3580 0.3580 0.3580 0.3570
2933.115083 0.3570 0.3570 0.3570 0.3570 0.3570
2942.158000 0.3570 0.3570 0.3570 0.3570 0.3570
2951.211083 0.3570 0.3570 0.3570 0.3570 0.3580
2960.255000 0.3580 0.3580 0.3580 0.3580 0.3580
2969.308083 0.3580 0.3580 0.3580 0.3580 0.3590
2978.351000 0.3590 0.3590 0.3590 0.3590 0.3600
2987.404083 0.3600 0.3600 0.3600 0.3600 0.3610
2996.448000 0.3610 0.3610 0.3610 0.3610 0.3610
3005.501083 0.3620 0.3620 0.3620 0.3620 0.3620
3014.544000 0.3620 0.3620 0.3620 0.3620 0.3620
3023.597083 0.3620 0.3630 0.3640 0.3670 0.3700
3032.641000 0.3700 0.3710 0.3710 0.3750 0.3780
3041.694083 0.3810 0.3830 0.3860 0.3880 0.3900
3050.737000 0.3910 0.3930 0.3940 0.3960 0.3960
3059.790083 0.3960 0.3970 0.3980 0.3980 0.3980
3068.834000 0.3980 0.3980 0.3980 0.3970 0.3960
3077.887083 0.3950 0.3930 0.3920 0.3900 0.3890
3086.930000 0.3870 0.3850 0.3840 0.3820 0.3800
3095.983083 0.3790 0.3780 0.3760 0.3710 0.3680
3105.027000 0.3640 0.3620 0.3580 0.3560 0.3530
3114.080083 0.3510 0.3480 0.3460 0.3440 0.3400
3123.123000 0.3370 0.3330 0.3320 0.3290 0.3270
3132.176083 0.3230 0.3190 0.3160 0.3120 0.3090
3141.220000 0.3050 0.3030 0.3000 0.2970 0.2930
3150.273083 0.2920 0.2910 0.2900 0.2880 0.2870
3159.316000 0.2850 0.2840 0.2830 0.2830 0.2830
3168.369083 0.2830 0.2820 0.2820 0.2830 0.2830
3177.413000 0.2830 0.2870 0.2910 0.2920 0.3000
3186.466083 0.3070 0.3120 0.3180 0.3230 0.3280
3195.510000 0.3340 0.3390 0.3450 0.3530 0.3540
3204.563083 0.3550 0.3630 0.3720 0.3810 0.3910
3213.606000 0.4000 0.4080 0.4150 0.4210 0.4230
3222.659083 0.4240 0.4240 0.4260 0.4270 0.4270
3231.702000 0.4280 0.4280 0.4290 0.4290 0.4290
3240.755083 0.4290 0.4290 0.4280 0.4280 0.4270
3249.799000 0.4260 0.4250 0.4240 0.4240 0.4230
3258.852083 0.4220 0.4210 0.4200 0.4190 0.4170
3267.896000 0.4140 0.4130 0.4110 0.4100 0.4100
3276.949083 0.4090 0.4090 0.4080 0.4080 0.4070
3285.992000 0.4050 0.4040 0.4020 0.4010 0.4000
3295.045083 0.3990 0.3980 0.3970 0.3950 0.3910
3304.088000 0.3870 0.3820 0.3780 0.3740 0.3700
3313.141083 0.3650 0.3610 0.3570 0.3540 0.3510
3322.185000 0.3480 0.3440 0.3350 0.3310 0.3300
3331.238083 0.3290 0.3290 0.3280 0.3280 0.3280
3340.281000 0.3270 0.3270 0.3270 0.3270 0.3280
3349.334083 0.3290 0.3290 0.3300 0.3310 0.3320
3358.378000 0.3330 0.3340 0.3350 0.3360 0.3360
3367.431083 0.3370 0.3370 0.3380 0.3390 0.3400
3376.475000 0.3410 0.3480 0.3560 0.3630 0.3710
3385.528083 0.3790 0.3870 0.3940 0.4010 0.4080
3394.571000 0.4150 0.4230 0.4290 0.4340 0.4400
3403.624083 0.4460 0.4510 0.4550 0.4600 0.4630
3412.667000 0.4670 0.4690 0.4740 0.4780 0.4830
3421.720083 0.4870 0.4910 0.4950 0.4990 0.5030
3430.764000 0.5060 0.5090 0.5130 0.5160 0.5190
3439.817083 0.5220 0.5240 0.5270 0.5300 0.5330
3448.861000 0.5350 0.5380 0.5400 0.5430 0.5460
3457.914083 0.5510 0.5540 0.5590 0.5640 0.5670
3466.957000 0.5690 0.5710 0.5730 0.5750 0.5760
3476.010083 0.5790 0.5820 0.5890 0.5950 0.6000
3485.054000 0.6030 0.6050 0.6070 0.6080 0.6080
3494.107083 0.6090 0.6100 0.6120 0.6160 0.6190
3503.150000 0.6210 0.6250 0.6270 0.6280 0.6280
3512.203083 0.6300 0.6300 0.6310 0.6330 0.6370
3521.247000 0.6450 0.6520 0.6580 0.6640 0.6690
3530.300083 0.6730 0.6780 0.6810 0.6840 0.6860
3539.343000 0.6900 0.6930 0.6960 0.6990 0.7020
3548.396083 0.7060 0.7080 0.7110 0.7150 0.7170
3557.440000 0.7200 0.7240 0.7260 0.7300 0.7330
3566.493083 0.7360 0.7390 0.7430 0.7450 0.7490
3575.536000 0.7520 0.7560 0.7600 0.7640 0.7680
3584.589083 0.7710 0.7760 0.7800 0.7840 0.7880
3593.633000 0.7930 0.7970 0.8020 0.8060 0.8110
3602.686083 0.8140 0.8190 0.8230 0.8280 0.8310
3611.729000 0.8360 0.8400 0.8440 0.8480 0.8510
3620.782083 0.8550 0.8580 0.8620 0.8650 0.8670
3629.826000 0.8710 0.8730 0.8760 0.8770 0.8800
3638.879083 0.8820 0.8830 0.8840 0.8840 0.8840
3647.922000 0.8840 0.8850 0.8850 0.8860 0.8860
3656.975083 0.8860 0.8870 0.8870 0.8870 0.8880
3666.019000 0.8880 0.8880 0.8880 0.8890 0.8890
3675.072083 0.8890 0.8890 0.8890 0.8890 0.8890
3684.115000 0.8890 0.8890 0.8890 0.8890 0.8890
3693.168083 0.8890 0.8890 0.8890 0.8890 0.8880
3702.212000 0.8880 0.8880 0.8880 0.8880 0.8880
3711.265083 0.8870 0.8870 0.8870 0.8860 0.8860
3720.308000 0.8860 0.8850 0.8850 0.8850 0.8840
3729.361083 0.8840 0.8840 0.8840 0.8840 0.8840
3738.405000 0.8840 0.8840 0.8840 0.8840 0.8840
3747.458083 0.8840 0.8840 0.8830 0.8830 0.8830
3756.501000 0.8820 0.8820 0.8820 0.8810 0.8810
3765.554083 0.8800 0.8800 0.8800 0.8790 0.8790
3774.598000 0.8780 0.8780 0.8770 0.8770 0.8760
3783.651083 0.8760 0.8760 0.8760 0.8750 0.8750
3792.694000 0.8740 0.8740 0.8730 0.8730 0.8710
3801.747083 0.8710 0.8710 0.8710 0.8700 0.8700
3810.791000 0.8700 0.8690 0.8690 0.8690 0.8690
3819.844083 0.8680 0.8680 0.8680 0.8670 0.8670
3828.887000 0.8670 0.8670 0.8670 0.8660 0.8660
3837.940083 0.8650 0.8650 0.8640 0.8640 0.8630
3846.984000 0.8630 0.8620 0.8610 0.8610 0.8600
3856.037083 0.8590 0.8590 0.8580 0.8580 0.8580
3865.081000 0.8570 0.8570 0.8570 0.8570 0.8560
3874.134083 0.8560 0.8560 0.8560 0.8560 0.8550
3883.177000 0.8550 0.8550 0.8550 0.8550 0.8540
3892.230083 0.8540 0.8530 0.8530 0.8530 0.8530
3901.273000 0.8530 0.8530 0.8520 0.8520 0.8520
3910.326083 0.8520 0.8520 0.8510 0.8510 0.8510
3919.370000 0.8510 0.8500 0.8500 0.8500 0.8500
3928.423083 0.8500 0.8500 0.8500 0.8500 0.8500
3937.467000 0.8500 0.8500 0.8500 0.8500 0.8500
3946.520083 0.8500 0.8500 0.8500 0.8500 0.8500
3955.563000 0.8500 0.8500 0.8500 0.8490 0.8490
3964.616083 0.8490 0.8490 0.8490 0.8490 0.8490
3973.660000 0.8490 0.8490 0.8490 0.8480 0.8480
3982.713083 0.8480 0.8470 0.8470 0.8460 0.8450
3991.756000 0.8450 0.8450 0.8450 0.8450 0.8450
4000.809083 0.8450 0.8450
##END=
