##TITLE=BARIUM DIPHENYLAMINE P-SULFONATE
$$ E.K. (W.L.)
##JCAMP-DX=4.24
##DATA TYPE=INFRARED SPECTRUM
##CLASS=COBLENTZ
##ORIGIN=WYANDOTTE CHEMICALS CORP., WYANDOTTE, MICHIGAN, USA
##OWNER=COBLENTZ SOCIETY
Collection (C) 2018 copyright by the U.S. Secretary of Commerce
on behalf of the United States of America. All rights reserved.
##DATE=Not specified, most likely prior to 1970
##MOLFORM=C24 H20 N2 O6 S2 Ba
##SOURCE REFERENCE=COBLENTZ NO. 1461
##$NIST ID=B6001461
##$NIST SOURCE=COBLENTZ
##$NIST IMAGE=cob1461
##SPECTROMETER/DATA SYSTEM=Not specified, most likely a prism, grating, or hybrid spectrometer.
##STATE=SOLID (MINERAL OIL MULL)
##SAMPLING PROCEDURE=TRANSMISSION
##RESOLUTION=4
##DATA PROCESSING=DIGITIZED BY NIST FROM HARD COPY
##XUNITS=MICROMETERS
##YUNITS=TRANSMITTANCE
##XFACTOR=1.000000
##YFACTOR=1
##DELTAX=000.006806
##FIRSTX=2.061
##LASTX=16.0073
##FIRSTY=0.651
##MAXX=16.0073
##MINX=2.061
##MAXY=0.953
##MINY=0.029
##NPOINTS=2050
##XYDATA=(X++(Y..Y))
2.061000 0.6510 0.6510 0.6520 0.6520 0.6520
2.095047 0.6520 0.6520 0.6510 0.6510 0.6490
2.129000 0.6460 0.6440 0.6440 0.6420 0.6420
2.163047 0.6410 0.6410 0.6390 0.6350 0.6340
2.197000 0.6340 0.6340 0.6340 0.6340 0.6340
2.231047 0.6340 0.6340 0.6340 0.6350 0.6350
2.265000 0.6390 0.6410 0.6420 0.6440 0.6460
2.299047 0.6490 0.6490 0.6510 0.6510 0.6510
2.333000 0.6520 0.6520 0.6520 0.6560 0.6560
2.367047 0.6580 0.6580 0.6560 0.6560 0.6580
2.402000 0.6610 0.6660 0.6700 0.6710 0.6730
2.436047 0.6750 0.6780 0.6800 0.6800 0.6830
2.470000 0.6850 0.6830 0.6830 0.6820 0.6820
2.504047 0.6820 0.6830 0.6830 0.6850 0.6880
2.538000 0.6900 0.6920 0.6950 0.6990 0.6990
2.572047 0.6990 0.7000 0.7000 0.7020 0.7040
2.606000 0.7040 0.7070 0.7070 0.7120 0.7160
2.640047 0.7170 0.7170 0.7160 0.7170 0.7170
2.674000 0.7170 0.7170 0.7190 0.7190 0.7170
2.708047 0.7170 0.7170 0.7190 0.7190 0.7210
2.742000 0.7210 0.7230 0.7230 0.7230 0.7240
2.776047 0.7240 0.7260 0.7260 0.7260 0.7240
2.810000 0.7230 0.7230 0.7230 0.7210 0.7230
2.844047 0.7230 0.7230 0.7230 0.7230 0.7230
2.878000 0.7230 0.7230 0.7230 0.7210 0.7170
2.912047 0.7140 0.7040 0.6900 0.6700 0.6340
2.946000 0.5880 0.5470 0.4630 0.3770 0.3570
2.980047 0.3500 0.3480 0.3520 0.4830 0.5880
3.014000 0.6250 0.6460 0.6520 0.6580 0.6590
3.048047 0.6630 0.6680 0.6760 0.6780 0.6780
3.082000 0.6780 0.6780 0.6780 0.6780 0.6760
3.116047 0.6730 0.6680 0.6630 0.6590 0.6560
3.150000 0.6560 0.6580 0.6580 0.6610 0.6590
3.184047 0.6580 0.6560 0.6520 0.6460 0.6320
3.218000 0.6130 0.5860 0.5640 0.5570 0.5550
3.252047 0.5520 0.5450 0.5360 0.5290 0.5260
3.286000 0.5160 0.5070 0.4990 0.4820 0.4580
3.320047 0.4150 0.3480 0.2440 0.1650 0.1140
3.354000 0.0630 0.0420 0.0300 0.0290 0.0300
3.388047 0.0320 0.0350 0.0390 0.0420 0.0490
3.422000 0.0540 0.0630 0.0710 0.0780 0.0830
3.456047 0.0990 0.0990 0.0990 0.0990 0.0870
3.491000 0.0870 0.0900 0.1290 0.1890 0.2520
3.525047 0.3210 0.4000 0.4920 0.6250 0.6610
3.559000 0.6920 0.7090 0.7190 0.7310 0.7470
3.593047 0.7620 0.7740 0.7820 0.7880 0.7880
3.627000 0.7880 0.7880 0.7880 0.7860 0.7840
3.661047 0.7810 0.7790 0.7790 0.7810 0.7820
3.695000 0.7840 0.7860 0.7880 0.7910 0.7930
3.729047 0.7930 0.7940 0.7940 0.7960 0.7980
3.763000 0.7980 0.8000 0.8000 0.8050 0.8080
3.797047 0.8110 0.8150 0.8170 0.8180 0.8180
3.831000 0.8180 0.8180 0.8200 0.8220 0.8230
3.865047 0.8230 0.8270 0.8290 0.8290 0.8300
3.899000 0.8320 0.8320 0.8320 0.8320 0.8320
3.933047 0.8320 0.8320 0.8340 0.8340 0.8340
3.967000 0.8350 0.8370 0.8440 0.8490 0.8540
4.001047 0.8580 0.8590 0.8610 0.8630 0.8630
4.035000 0.8610 0.8610 0.8590 0.8590 0.8590
4.069047 0.8590 0.8590 0.8590 0.8590 0.8660
4.103000 0.8700 0.8700 0.8700 0.8700 0.8700
4.137047 0.8700 0.8700 0.8700 0.8700 0.8700
4.171000 0.8700 0.8700 0.8700 0.8700 0.8700
4.205047 0.8680 0.8680 0.8680 0.8700 0.8700
4.239000 0.8700 0.8680 0.8640 0.8640 0.8640
4.273047 0.8640 0.8660 0.8700 0.8710 0.8760
4.307000 0.8800 0.8800 0.8820 0.8820 0.8830
4.341047 0.8870 0.8880 0.8900 0.8900 0.8900
4.375000 0.8900 0.8900 0.8900 0.8870 0.8820
4.409047 0.8820 0.8800 0.8800 0.8820 0.8820
4.443000 0.8820 0.8830 0.8850 0.8850 0.8870
4.477047 0.8870 0.8900 0.8900 0.8870 0.8870
4.511000 0.8870 0.8850 0.8850 0.8850 0.8850
4.545047 0.8850 0.8870 0.8880 0.8900 0.8920
4.579000 0.8940 0.8950 0.8950 0.8970 0.8970
4.613047 0.8990 0.8990 0.9000 0.9000 0.9050
4.648000 0.9070 0.9070 0.9110 0.9110 0.9120
4.682047 0.9120 0.9140 0.9160 0.9160 0.9160
4.716000 0.9190 0.9230 0.9240 0.9240 0.9230
4.750047 0.9230 0.9230 0.9230 0.9240 0.9260
4.784000 0.9260 0.9240 0.9260 0.9260 0.9280
4.818047 0.9280 0.9280 0.9260 0.9260 0.9260
4.852000 0.9280 0.9280 0.9290 0.9290 0.9310
4.886047 0.9290 0.9330 0.9360 0.9380 0.9380
4.920000 0.9360 0.9330 0.9310 0.9310 0.9350
4.954047 0.9350 0.9360 0.9360 0.9360 0.9360
4.988000 0.9360 0.9360 0.9360 0.9360 0.9380
5.022047 0.9380 0.9360 0.9360 0.9360 0.9360
5.056000 0.9360 0.9360 0.9380 0.9380 0.9400
5.090047 0.9400 0.9400 0.9400 0.9400 0.9380
5.124000 0.9360 0.9350 0.9310 0.9310 0.9290
5.158047 0.9240 0.9190 0.9160 0.9160 0.9170
5.192000 0.9170 0.9160 0.9140 0.9110 0.9020
5.226047 0.8900 0.8700 0.8680 0.8680 0.8680
5.260000 0.8700 0.8830 0.8940 0.9020 0.9090
5.294047 0.9170 0.9240 0.9330 0.9360 0.9380
5.328000 0.9400 0.9410 0.9410 0.9430 0.9450
5.362047 0.9470 0.9470 0.9470 0.9470 0.9470
5.396000 0.9470 0.9470 0.9470 0.9470 0.9470
5.430047 0.9470 0.9450 0.9430 0.9410 0.9400
5.464000 0.9380 0.9380 0.9400 0.9430 0.9470
5.498047 0.9480 0.9500 0.9500 0.9520 0.9520
5.532000 0.9520 0.9520 0.9520 0.9520 0.9520
5.566047 0.9520 0.9500 0.9480 0.9470 0.9470
5.600000 0.9470 0.9470 0.9470 0.9470 0.9480
5.634047 0.9480 0.9480 0.9480 0.9470 0.9470
5.668000 0.9480 0.9500 0.9500 0.9520 0.9530
5.702047 0.9520 0.9500 0.9500 0.9480 0.9430
5.737000 0.9410 0.9400 0.9400 0.9470 0.9470
5.771047 0.9500 0.9500 0.9500 0.9470 0.9410
5.805000 0.9380 0.9360 0.9350 0.9350 0.9350
5.839047 0.9350 0.9350 0.9350 0.9350 0.9350
5.873000 0.9360 0.9360 0.9360 0.9380 0.9380
5.907047 0.9350 0.9330 0.9310 0.9290 0.9280
5.941000 0.9260 0.9260 0.9210 0.9190 0.9190
5.975047 0.9170 0.9160 0.9170 0.9170 0.9190
6.009000 0.9210 0.9210 0.9190 0.9190 0.9190
6.043047 0.9230 0.9230 0.9160 0.9140 0.9110
6.077000 0.9070 0.9020 0.9000 0.8990 0.8990
6.111047 0.8990 0.8970 0.8880 0.8700 0.8490
6.145000 0.8290 0.8000 0.7690 0.7070 0.6030
6.179047 0.5120 0.4560 0.3980 0.3260 0.2630
6.213000 0.2510 0.2390 0.2410 0.2880 0.3090
6.247047 0.3690 0.4170 0.4370 0.4370 0.4060
6.281000 0.3770 0.3760 0.3770 0.4410 0.6000
6.315047 0.6700 0.7230 0.7550 0.7580 0.7740
6.349000 0.7880 0.7980 0.8080 0.8180 0.8250
6.383047 0.8340 0.8420 0.8510 0.8590 0.8610
6.417000 0.8630 0.8610 0.8590 0.8580 0.8560
6.451047 0.8520 0.8470 0.8420 0.8230 0.8030
6.485000 0.7880 0.7480 0.7110 0.6590 0.6000
6.519047 0.5330 0.4990 0.4640 0.3940 0.3430
6.553000 0.2950 0.2880 0.2880 0.2900 0.3090
6.587047 0.3330 0.3550 0.3840 0.4290 0.4580
6.621000 0.4580 0.4560 0.3720 0.2880 0.2800
6.655047 0.2800 0.2970 0.3770 0.4270 0.4590
6.689000 0.5310 0.5470 0.5570 0.5570 0.5570
6.723047 0.5520 0.5380 0.5230 0.5070 0.4940
6.757000 0.4800 0.4520 0.4000 0.3380 0.3140
6.791047 0.2490 0.2390 0.2390 0.2390 0.2390
6.825000 0.2410 0.2580 0.2710 0.2880 0.2990
6.859047 0.3140 0.3310 0.3360 0.3400 0.3400
6.894000 0.3090 0.3090 0.3090 0.3260 0.3940
6.928047 0.4390 0.4920 0.5820 0.6220 0.6560
6.962000 0.6850 0.7090 0.7280 0.7400 0.7550
6.996047 0.7690 0.7810 0.7910 0.8000 0.8060
7.030000 0.8100 0.8170 0.8220 0.8220 0.8180
7.064047 0.8170 0.8150 0.8110 0.8080 0.7930
7.098000 0.7690 0.7360 0.7000 0.6580 0.6010
7.132047 0.5530 0.5160 0.4920 0.4680 0.4590
7.166000 0.4590 0.4680 0.5260 0.5290 0.5290
7.200047 0.5280 0.5040 0.5000 0.4950 0.4830
7.234000 0.4540 0.4320 0.3980 0.3940 0.3940
7.268047 0.3960 0.4420 0.4870 0.5580 0.5770
7.302000 0.5890 0.5980 0.6080 0.6200 0.6390
7.336047 0.6660 0.6800 0.6990 0.7020 0.7090
7.370000 0.7110 0.7120 0.7160 0.7160 0.7170
7.404047 0.7160 0.7120 0.7110 0.7040 0.6970
7.438000 0.6900 0.6820 0.6680 0.6590 0.6510
7.472047 0.6420 0.6250 0.6000 0.5570 0.5280
7.506000 0.4970 0.4130 0.3360 0.2940 0.2880
7.540047 0.2950 0.3330 0.3620 0.3890 0.4340
7.574000 0.4820 0.4940 0.5160 0.5790 0.5930
7.608047 0.6000 0.6300 0.6300 0.6270 0.5890
7.642000 0.5760 0.5740 0.5760 0.5940 0.6100
7.676047 0.6220 0.6300 0.6350 0.6370 0.6350
7.710000 0.6370 0.6420 0.6460 0.6580 0.6730
7.744047 0.6880 0.6990 0.7050 0.7090 0.7120
7.778000 0.7260 0.7260 0.7280 0.7260 0.7170
7.812047 0.7120 0.7110 0.6990 0.6880 0.6730
7.846000 0.6580 0.6420 0.6340 0.6220 0.6130
7.880047 0.6050 0.5960 0.5890 0.5790 0.5650
7.914000 0.5500 0.5290 0.5020 0.4940 0.4850
7.948047 0.4580 0.4230 0.3890 0.3620 0.3400
7.982000 0.3230 0.3050 0.2900 0.2710 0.2470
8.016047 0.2180 0.2050 0.1880 0.1700 0.1520
8.051000 0.1380 0.1280 0.1120 0.0990 0.0920
8.085047 0.0830 0.0710 0.0630 0.0580 0.0540
8.119000 0.0490 0.0470 0.0460 0.0470 0.0490
8.153047 0.0490 0.0510 0.0520 0.0560 0.0590
8.187000 0.0640 0.0660 0.0680 0.0700 0.0680
8.221047 0.0680 0.0630 0.0610 0.0580 0.0560
8.255000 0.0520 0.0490 0.0470 0.0470 0.0490
8.289047 0.0590 0.0630 0.0660 0.0700 0.0680
8.323000 0.0700 0.0710 0.0760 0.0760 0.0710
8.357047 0.0680 0.0640 0.0590 0.0590 0.0590
8.391000 0.0610 0.0640 0.0680 0.0710 0.0780
8.425047 0.0830 0.0920 0.0940 0.1020 0.1090
8.459000 0.1120 0.1120 0.1070 0.1020 0.0940
8.493047 0.0830 0.0780 0.0710 0.0630 0.0470
8.527000 0.0460 0.0460 0.0470 0.0470 0.0470
8.561047 0.0490 0.0520 0.0580 0.0660 0.0730
8.595000 0.0830 0.0940 0.1050 0.1190 0.1310
8.629047 0.1450 0.1650 0.1810 0.2000 0.2180
8.663000 0.2390 0.2580 0.2760 0.2920 0.3000
8.697047 0.3050 0.3050 0.3000 0.2880 0.2710
8.731000 0.2290 0.2010 0.1810 0.1550 0.1260
8.765047 0.1120 0.1000 0.0990 0.1020 0.1190
8.799000 0.1410 0.1620 0.1810 0.1980 0.2130
8.833047 0.2290 0.2420 0.2560 0.2680 0.2800
8.867000 0.2920 0.2970 0.3020 0.3170 0.3260
8.901047 0.3360 0.3470 0.3480 0.3480 0.3470
8.935000 0.3350 0.3310 0.3310 0.3350 0.3410
8.969047 0.3500 0.3570 0.3620 0.3760 0.3880
9.003000 0.3960 0.4050 0.4110 0.4180 0.4270
9.037047 0.4350 0.4460 0.4610 0.4800 0.4990
9.071000 0.5360 0.5520 0.5640 0.5760 0.5820
9.105047 0.5890 0.5940 0.6010 0.6060 0.6110
9.140000 0.6170 0.6200 0.6270 0.6320 0.6370
9.174047 0.6410 0.6460 0.6460 0.6460 0.6460
9.208000 0.6460 0.6460 0.6350 0.6250 0.6180
9.242047 0.6080 0.6060 0.6080 0.6200 0.6340
9.276000 0.6410 0.6470 0.6520 0.6590 0.6680
9.310047 0.6700 0.6750 0.6780 0.6850 0.6870
9.344000 0.6870 0.6880 0.6920 0.6940 0.6950
9.378047 0.6950 0.6970 0.6990 0.6970 0.6870
9.412000 0.6750 0.6630 0.6420 0.6130 0.5720
9.446047 0.5210 0.4870 0.4520 0.3790 0.3210
9.480000 0.2630 0.2590 0.2640 0.3050 0.3410
9.514047 0.3940 0.4420 0.4870 0.5500 0.5700
9.548000 0.5880 0.6010 0.6110 0.6150 0.6150
9.582047 0.6080 0.5820 0.5690 0.5520 0.5480
9.616000 0.5480 0.5580 0.5930 0.6130 0.6320
9.650047 0.6470 0.6610 0.6680 0.6710 0.6710
9.684000 0.6660 0.6510 0.6420 0.6340 0.6300
9.718047 0.6300 0.6440 0.6640 0.6820 0.6950
9.752000 0.7050 0.7140 0.7190 0.7240 0.7280
9.786047 0.7310 0.7350 0.7380 0.7430 0.7480
9.820000 0.7500 0.7530 0.7550 0.7570 0.7580
9.854047 0.7580 0.7570 0.7410 0.7160 0.6920
9.888000 0.6610 0.6370 0.6350 0.6370 0.6630
9.922047 0.6900 0.7090 0.7230 0.7330 0.7410
9.956000 0.7480 0.7530 0.7600 0.7640 0.7650
9.990047 0.7650 0.7650 0.7670 0.7670 0.7650
10.024000 0.7550 0.7410 0.7240 0.7070 0.6920
10.058047 0.6850 0.6850 0.6870 0.6940 0.7120
10.092000 0.7260 0.7360 0.7430 0.7480 0.7520
10.126047 0.7580 0.7600 0.7620 0.7600 0.7570
10.160000 0.7530 0.7470 0.7380 0.7240 0.7190
10.194047 0.7120 0.7050 0.6970 0.6950 0.6920
10.228000 0.6940 0.6970 0.7020 0.7070 0.7110
10.262047 0.7140 0.7160 0.7210 0.7260 0.7350
10.297000 0.7410 0.7450 0.7480 0.7550 0.7570
10.331047 0.7600 0.7620 0.7620 0.7620 0.7640
10.365000 0.7640 0.7650 0.7650 0.7650 0.7650
10.399047 0.7650 0.7640 0.7620 0.7600 0.7600
10.433000 0.7620 0.7620 0.7640 0.7640 0.7670
10.467047 0.7690 0.7740 0.7770 0.7790 0.7790
10.501000 0.7770 0.7760 0.7700 0.7690 0.7670
10.535047 0.7650 0.7650 0.7670 0.7740 0.7770
10.569000 0.7810 0.7820 0.7880 0.7930 0.7940
10.603047 0.7960 0.7980 0.8030 0.8060 0.8080
10.637000 0.8080 0.8080 0.8080 0.8080 0.8100
10.671047 0.8100 0.8100 0.8110 0.8110 0.8130
10.705000 0.8150 0.8130 0.8130 0.8110 0.8100
10.739047 0.8110 0.8110 0.8110 0.8130 0.8130
10.773000 0.8150 0.8150 0.8150 0.8150 0.8150
10.807047 0.8150 0.8150 0.8150 0.8150 0.8150
10.841000 0.8150 0.8150 0.8170 0.8170 0.8180
10.875047 0.8180 0.8180 0.8180 0.8180 0.8170
10.909000 0.8180 0.8180 0.8180 0.8170 0.8150
10.943047 0.8170 0.8170 0.8180 0.8180 0.8230
10.977000 0.8230 0.8250 0.8250 0.8270 0.8270
11.011047 0.8270 0.8270 0.8270 0.8270 0.8270
11.045000 0.8270 0.8270 0.8300 0.8320 0.8320
11.079047 0.8320 0.8340 0.8340 0.8350 0.8350
11.113000 0.8350 0.8350 0.8350 0.8350 0.8350
11.147047 0.8370 0.8370 0.8350 0.8350 0.8350
11.181000 0.8340 0.8320 0.8300 0.8300 0.8270
11.215047 0.8250 0.8220 0.8180 0.8150 0.8110
11.249000 0.8080 0.8030 0.7930 0.7820 0.7700
11.283047 0.7570 0.7430 0.7290 0.7160 0.7070
11.317000 0.6990 0.6970 0.6990 0.7040 0.7090
11.351047 0.7140 0.7230 0.7260 0.7290 0.7350
11.386000 0.7350 0.7350 0.7350 0.7290 0.7230
11.420047 0.7210 0.7190 0.7230 0.7240 0.7290
11.454000 0.7360 0.7470 0.7570 0.7670 0.7770
11.488047 0.7880 0.7930 0.7980 0.8030 0.8100
11.522000 0.8180 0.8200 0.8230 0.8250 0.8270
11.556047 0.8270 0.8270 0.8290 0.8290 0.8290
11.590000 0.8290 0.8290 0.8290 0.8290 0.8290
11.624047 0.8290 0.8290 0.8290 0.8290 0.8290
11.658000 0.8290 0.8270 0.8270 0.8230 0.8150
11.692047 0.8110 0.8050 0.7930 0.7790 0.7580
11.726000 0.7360 0.7090 0.6800 0.6460 0.6060
11.760047 0.5770 0.5480 0.5360 0.5210 0.5170
11.794000 0.5120 0.5090 0.5050 0.5050 0.5020
11.828047 0.5000 0.4970 0.4940 0.4870 0.4730
11.862000 0.4610 0.4520 0.4460 0.4440 0.4440
11.896047 0.4460 0.4460 0.4460 0.4470 0.4520
11.930000 0.4630 0.4700 0.4780 0.4880 0.4990
11.964047 0.5170 0.5280 0.5360 0.5450 0.5530
11.998000 0.5600 0.5650 0.5690 0.5720 0.5770
12.032047 0.5770 0.5790 0.5820 0.5860 0.5910
12.066000 0.5960 0.6030 0.6110 0.6200 0.6300
12.100047 0.6390 0.6490 0.6580 0.6660 0.6730
12.134000 0.6800 0.6830 0.6850 0.6880 0.6940
12.168047 0.7000 0.7050 0.7070 0.7090 0.7110
12.202000 0.7140 0.7140 0.7140 0.7110 0.7070
12.236047 0.7020 0.6970 0.6920 0.6880 0.6870
12.270000 0.6870 0.6850 0.6850 0.6870 0.6880
12.304047 0.6900 0.6900 0.6940 0.6940 0.6990
12.338000 0.7050 0.7050 0.7070 0.7090 0.7110
12.372047 0.7140 0.7140 0.7140 0.7140 0.7140
12.406000 0.7140 0.7140 0.7140 0.7140 0.7110
12.440047 0.7070 0.7000 0.6900 0.6800 0.6750
12.474000 0.6660 0.6580 0.6520 0.6490 0.6420
12.508047 0.6410 0.6390 0.6370 0.6390 0.6460
12.543000 0.6520 0.6580 0.6640 0.6710 0.6800
12.577047 0.6880 0.6990 0.7090 0.7190 0.7290
12.611000 0.7400 0.7470 0.7520 0.7570 0.7620
12.645047 0.7690 0.7760 0.7790 0.7860 0.7890
12.679000 0.7930 0.7960 0.7980 0.8000 0.8050
12.713047 0.8060 0.8100 0.8150 0.8150 0.8170
12.747000 0.8180 0.8200 0.8220 0.8220 0.8220
12.781047 0.8250 0.8250 0.8270 0.8290 0.8290
12.815000 0.8300 0.8300 0.8300 0.8320 0.8320
12.849047 0.8340 0.8350 0.8350 0.8350 0.8350
12.883000 0.8350 0.8350 0.8350 0.8350 0.8350
12.917047 0.8350 0.8350 0.8350 0.8340 0.8340
12.951000 0.8340 0.8340 0.8350 0.8350 0.8350
12.985047 0.8350 0.8350 0.8370 0.8370 0.8370
13.019000 0.8390 0.8390 0.8390 0.8370 0.8370
13.053047 0.8350 0.8350 0.8350 0.8350 0.8340
13.087000 0.8340 0.8300 0.8300 0.8290 0.8250
13.121047 0.8250 0.8230 0.8200 0.8180 0.8150
13.155000 0.8130 0.8060 0.8000 0.7910 0.7820
13.189047 0.7720 0.7640 0.7520 0.7400 0.7260
13.223000 0.7110 0.6950 0.6760 0.6560 0.6320
13.257047 0.6060 0.5770 0.5360 0.5070 0.4870
13.291000 0.4660 0.4080 0.3740 0.3310 0.3110
13.325047 0.2490 0.2230 0.1960 0.1770 0.1580
13.359000 0.1450 0.1360 0.1330 0.1330 0.1360
13.393047 0.1380 0.1410 0.1410 0.1380 0.1330
13.427000 0.1290 0.1240 0.1170 0.1120 0.1090
13.461047 0.1090 0.1090 0.1090 0.1140 0.1280
13.495000 0.1530 0.1770 0.2050 0.2300 0.2580
13.529047 0.2850 0.3110 0.3360 0.3600 0.3880
13.563000 0.4030 0.4270 0.4440 0.4630 0.4700
13.597047 0.4780 0.4850 0.4870 0.4870 0.4870
13.632000 0.4870 0.4820 0.4760 0.4680 0.4630
13.666047 0.4580 0.4520 0.4490 0.4470 0.4470
13.700000 0.4470 0.4470 0.4470 0.4520 0.4560
13.734047 0.4610 0.4680 0.4750 0.4800 0.4870
13.768000 0.4970 0.5230 0.5380 0.5530 0.5700
13.802047 0.5880 0.6030 0.6110 0.6180 0.6230
13.836000 0.6390 0.6470 0.6540 0.6560 0.6610
13.870047 0.6660 0.6680 0.6710 0.6750 0.6760
13.904000 0.6800 0.6820 0.6830 0.6830 0.6950
13.938047 0.6970 0.7000 0.7070 0.7120 0.7170
13.972000 0.7190 0.7230 0.7240 0.7260 0.7280
14.006047 0.7290 0.7310 0.7310 0.7290 0.7280
14.040000 0.7260 0.7230 0.7160 0.7070 0.6940
14.074047 0.6830 0.6730 0.6610 0.6440 0.6320
14.108000 0.6170 0.5930 0.5770 0.5640 0.5500
14.142047 0.5400 0.5290 0.5240 0.5190 0.5210
14.176000 0.5230 0.5260 0.5280 0.5350 0.5410
14.210047 0.5500 0.5580 0.5670 0.5770 0.5860
14.244000 0.5930 0.5980 0.6000 0.6080 0.6170
14.278047 0.6180 0.6200 0.6250 0.6290 0.6300
14.312000 0.6320 0.6300 0.6300 0.6270 0.6250
14.346047 0.6250 0.6230 0.6220 0.6200 0.6170
14.380000 0.6080 0.6000 0.5880 0.5760 0.5600
14.414047 0.5480 0.5290 0.5170 0.5040 0.4880
14.448000 0.4640 0.4370 0.4080 0.3860 0.3650
14.482047 0.3410 0.3190 0.3000 0.2870 0.2750
14.516000 0.2680 0.2610 0.2580 0.2560 0.2580
14.550047 0.2590 0.2640 0.2730 0.2850 0.2990
14.584000 0.3140 0.3240 0.3500 0.3760 0.4000
14.618047 0.4230 0.4420 0.4610 0.4750 0.4950
14.652000 0.5360 0.5580 0.5740 0.5930 0.6010
14.686047 0.6110 0.6270 0.6370 0.6460 0.6510
14.720000 0.6630 0.6710 0.6800 0.6880 0.6970
14.754047 0.6990 0.7000 0.7050 0.7090 0.7110
14.789000 0.7140 0.7160 0.7170 0.7190 0.7190
14.823047 0.7230 0.7260 0.7290 0.7310 0.7330
14.857000 0.7330 0.7350 0.7360 0.7360 0.7360
14.891047 0.7360 0.7360 0.7360 0.7380 0.7400
14.925000 0.7410 0.7470 0.7470 0.7470 0.7470
14.959047 0.7410 0.7410 0.7360 0.7330 0.7310
14.993000 0.7280 0.7240 0.7160 0.7090 0.7050
15.027047 0.7020 0.6990 0.6880 0.6830 0.6800
15.061000 0.6800 0.6780 0.6780 0.6780 0.6780
15.095047 0.6780 0.6800 0.6870 0.6940 0.6990
15.129000 0.7040 0.7110 0.7140 0.7160 0.7190
15.163047 0.7210 0.7280 0.7310 0.7310 0.7290
15.197000 0.7280 0.7240 0.7210 0.7190 0.7190
15.231047 0.7160 0.7140 0.7120 0.7110 0.7070
15.265000 0.7040 0.7020 0.7000 0.6970 0.6950
15.299047 0.6920 0.6900 0.6880 0.6870 0.6850
15.333000 0.6820 0.6750 0.6680 0.6610 0.6560
15.367047 0.6510 0.6490 0.6440 0.6390 0.6320
15.401000 0.6230 0.6200 0.6130 0.6080 0.6000
15.435047 0.5940 0.5860 0.5770 0.5740 0.5700
15.469000 0.5670 0.5650 0.5620 0.5600 0.5580
15.503047 0.5580 0.5600 0.5620 0.5640 0.5650
15.537000 0.5670 0.5690 0.5700 0.5700 0.5740
15.571047 0.5770 0.5790 0.5810 0.5840 0.5860
15.605000 0.5880 0.5880 0.5890 0.5930 0.5940
15.639047 0.5940 0.5960 0.5980 0.6000 0.6010
15.673000 0.6030 0.6050 0.6060 0.6080 0.6100
15.707047 0.6110 0.6110 0.6110 0.6110 0.6110
15.741000 0.6110 0.6110 0.6110 0.6110 0.6110
15.775047 0.6110 0.6100 0.6060 0.6050 0.6050
15.809000 0.6010 0.6010 0.6010 0.6000 0.6000
15.843047 0.5980 0.5960 0.5910 0.5880 0.5820
15.877000 0.5770 0.5720 0.5670 0.5640 0.5620
15.911047 0.5620 0.5620 0.5600 0.5580 0.5570
15.946000 0.5520 0.5480 0.5410 0.5380 0.5380
15.980047 0.5360 0.5350 0.5330 0.5240 0.5330
##END=
