##TITLE=DIMETHYLAMINE HYDROCHLORIDE HYDRATE
##JCAMP-DX=4.24
##DATA TYPE=INFRARED SPECTRUM
##CLASS=COBLENTZ III
##ORIGIN=DOW CHEMICAL COMPANY
##OWNER=COBLENTZ SOCIETY
Collection (C) 2018 copyright by the U.S. Secretary of Commerce
on behalf of the United States of America. All rights reserved.
##DATE=1959/08/11
##MOLFORM=C2 H8 Cl N  * H2 O
##SOURCE REFERENCE=COBLENTZ NO. 6467
##$NIST ID=B6006467
##$NIST SOURCE=COBLENTZ
##$NIST IMAGE=cob6467
##SPECTROMETER/DATA SYSTEM=DOW KBr FOREPRISM-GRATING
##INSTRUMENT PARAMETERS=BLAZED AT 3.5, 12.0, 20.0 MICRON AND CHANGED AT 5.0, 7.5, 14.9 MICRON
##STATE=SOLID (NUJOL MULL)
$$SPECTRAL CONTAMINATION DUE TO H2O AROUND 3450 CM^-^1
##SAMPLING PROCEDURE=TRANSMISSION
##RESOLUTION=2
##DATA PROCESSING=DIGITIZED BY NIST FROM HARD COPY (FROM TWO SEGMENTS)
##XUNITS=1/CM
##YUNITS=TRANSMITTANCE
##XFACTOR=1.000000
##YFACTOR=1
##DELTAX=0.851583
##FIRSTX=453.528
##LASTX=3793.44
##FIRSTY=0.666
##MAXX=3793.44
##MINX=453.528
##MAXY=0.899
##MINY=0.006
##NPOINTS=3923
##XYDATA=(X++(Y..Y))
453.528000 0.6660 0.6660 0.6660 0.6660 0.6660
457.785917 0.6660 0.6660 0.6660 0.6660 0.6660
462.043833 0.6660 0.6660 0.6660 0.6660 0.6650
466.301750 0.6650 0.6650 0.6650 0.6650 0.6650
470.559666 0.6650 0.6650 0.6650 0.6650 0.6650
474.817583 0.6650 0.6650 0.6650 0.6660 0.6660
479.075500 0.6660 0.6660 0.6660 0.6660 0.6660
483.333416 0.6660 0.6660 0.6660 0.6660 0.6660
487.591333 0.6660 0.6660 0.6660 0.6660 0.6660
491.849249 0.6680 0.6680 0.6680 0.6680 0.6690
496.107166 0.6690 0.6690 0.6690 0.6690 0.6690
500.365082 0.6690 0.6690 0.6690 0.6690 0.6690
504.622999 0.6690 0.6690 0.6690 0.6690 0.6690
508.880916 0.6690 0.6690 0.6690 0.6690 0.6690
513.138832 0.6690 0.6690 0.6690 0.6690 0.6690
517.396749 0.6690 0.6700 0.6700 0.6700 0.6700
521.654665 0.6700 0.6700 0.6720 0.6720 0.6720
525.912582 0.6720 0.6720 0.6720 0.6730 0.6730
530.170499 0.6730 0.6730 0.6740 0.6740 0.6740
534.428415 0.6740 0.6740 0.6760 0.6760 0.6760
538.686332 0.6760 0.6770 0.6770 0.6770 0.6770
542.944248 0.6770 0.6780 0.6780 0.6780 0.6770
547.202165 0.6770 0.6800 0.6810 0.6810 0.6810
551.460081 0.6810 0.6810 0.6810 0.6810 0.6810
555.717998 0.6810 0.6810 0.6810 0.6810 0.6810
559.975915 0.6810 0.6800 0.6800 0.6800 0.6810
564.233831 0.6810 0.6810 0.6810 0.6810 0.6810
568.491748 0.6810 0.6810 0.6820 0.6840 0.6850
572.749664 0.6850 0.6840 0.6840 0.6850 0.6850
577.007581 0.6850 0.6850 0.6850 0.6850 0.6880
581.265498 0.6890 0.6890 0.6900 0.6900 0.6920
585.523414 0.6920 0.6920 0.6930 0.6930 0.6930
589.781331 0.6940 0.6930 0.6940 0.6940 0.6960
594.039247 0.6960 0.6960 0.6970 0.6970 0.6970
598.297164 0.6980 0.7010 0.7020 0.7050 0.7060
602.555081 0.7060 0.7050 0.7050 0.7050 0.7050
606.812997 0.7050 0.7050 0.7050 0.7050 0.7050
611.070914 0.7060 0.7060 0.7080 0.7080 0.7090
615.328830 0.7080 0.7080 0.7080 0.7120 0.7120
619.586747 0.7130 0.7130 0.7160 0.7160 0.7160
623.844663 0.7160 0.7170 0.7170 0.7170 0.7180
628.102580 0.7180 0.7200 0.7210 0.7210 0.7220
632.360497 0.7240 0.7240 0.7250 0.7250 0.7250
636.618413 0.7250 0.7250 0.7250 0.7250 0.7250
640.876330 0.7250 0.7250 0.7260 0.7290 0.7300
645.134246 0.7300 0.7320 0.7330 0.7330 0.7340
649.392163 0.7360 0.7360 0.7360 0.7370 0.7370
653.650080 0.7380 0.7380 0.7380 0.7400 0.7400
657.907996 0.7400 0.7400 0.7400 0.7400 0.7400
662.165913 0.7400 0.7400 0.7410 0.7420 0.7420
666.423829 0.7420 0.7420 0.7420 0.7410 0.7410
670.681746 0.7410 0.7400 0.7380 0.7360 0.7340
674.939662 0.7330 0.7330 0.7340 0.7360 0.7360
679.197579 0.7370 0.7380 0.7400 0.7410 0.7420
683.455496 0.7440 0.7450 0.7460 0.7480 0.7490
687.713412 0.7510 0.7520 0.7520 0.7530 0.7550
691.971329 0.7560 0.7560 0.7570 0.7590 0.7590
696.229245 0.7600 0.7610 0.7630 0.7600 0.7600
700.487162 0.7610 0.7630 0.7630 0.7630 0.7630
704.745079 0.7630 0.7630 0.7630 0.7630 0.7630
709.002995 0.7630 0.7640 0.7630 0.7630 0.7630
713.260912 0.7610 0.7610 0.7610 0.7610 0.7610
717.518828 0.7610 0.7610 0.7600 0.7610 0.7630
721.776745 0.7640 0.7640 0.7650 0.7670 0.7680
726.034662 0.7690 0.7710 0.7720 0.7730 0.7730
730.292578 0.7750 0.7750 0.7760 0.7790 0.7800
734.550495 0.7810 0.7830 0.7830 0.7840 0.7850
738.808411 0.7870 0.7870 0.7880 0.7890 0.7910
743.066328 0.7910 0.7920 0.7930 0.7950 0.7950
747.324244 0.7960 0.7970 0.7970 0.7970 0.7990
751.582161 0.8010 0.8030 0.8030 0.8030 0.8030
755.840078 0.8030 0.8030 0.8040 0.8040 0.8050
760.097994 0.8070 0.8070 0.8080 0.8090 0.8110
764.355911 0.8110 0.8110 0.8110 0.8110 0.8110
768.613827 0.8110 0.8110 0.8110 0.8110 0.8110
772.871744 0.8110 0.8110 0.8110 0.8110 0.8110
777.129661 0.8110 0.8110 0.8110 0.8090 0.8090
781.387577 0.8090 0.8090 0.8070 0.8070 0.8070
785.645494 0.8050 0.8050 0.8040 0.8030 0.8000
789.903410 0.7990 0.7950 0.7920 0.7920 0.7920
794.161327 0.7910 0.7910 0.7870 0.7840 0.7810
798.419243 0.7770 0.7720 0.7680 0.7630 0.7590
802.677160 0.7570 0.7520 0.7490 0.7460 0.7460
806.935077 0.7420 0.7380 0.7320 0.7260 0.7220
811.192993 0.7160 0.7120 0.7090 0.7060 0.7050
815.450910 0.7010 0.6980 0.6970 0.6940 0.6930
819.708826 0.6900 0.6890 0.6840 0.6780 0.6760
823.966743 0.6740 0.6730 0.6720 0.6700 0.6690
828.224660 0.6680 0.6650 0.6630 0.6620 0.6610
832.482576 0.6580 0.6580 0.6570 0.6550 0.6540
836.740493 0.6510 0.6500 0.6490 0.6470 0.6450
840.998409 0.6450 0.6420 0.6330 0.6310 0.6290
845.256326 0.6230 0.6210 0.6180 0.6150 0.6130
849.514243 0.6090 0.6030 0.5950 0.5870 0.5820
853.772159 0.5760 0.5720 0.5670 0.5460 0.5360
858.030076 0.5300 0.5200 0.5080 0.4930 0.4731
862.287992 0.4470 0.4250 0.3880 0.3570 0.3450
866.545909 0.3370 0.3360 0.3370 0.3569 0.3839
870.803825 0.4290 0.4360 0.4720 0.5180 0.5190
875.061742 0.5190 0.5180 0.5180 0.5160 0.5140
879.319659 0.5070 0.5040 0.4880 0.4830 0.4760
883.577575 0.4560 0.4131 0.3681 0.3232 0.3250
887.835492 0.3261 0.4810 0.5240 0.5660 0.6019
892.093408 0.6419 0.7168 0.7329 0.7519 0.7590
896.351325 0.7680 0.7720 0.7750 0.7810 0.7870
900.609242 0.7930 0.7970 0.8030 0.8050 0.8090
904.867158 0.8110 0.8120 0.8130 0.8150 0.8170
909.125075 0.8190 0.8190 0.8200 0.8240 0.8270
913.382991 0.8290 0.8290 0.8310 0.8320 0.8380
917.640908 0.8400 0.8420 0.8440 0.8470 0.8500
921.898825 0.8510 0.8520 0.8520 0.8550 0.8580
926.156741 0.8590 0.8600 0.8620 0.8620 0.8630
930.414658 0.8670 0.8670 0.8670 0.8680 0.8680
934.672574 0.8700 0.8700 0.8700 0.8710 0.8710
938.930491 0.8710 0.8700 0.8700 0.8700 0.8700
943.188407 0.8700 0.8700 0.8680 0.8680 0.8680
947.446324 0.8670 0.8670 0.8670 0.8670 0.8660
951.704241 0.8640 0.8640 0.8640 0.8630 0.8630
955.962157 0.8620 0.8620 0.8600 0.8600 0.8590
960.220074 0.8580 0.8580 0.8560 0.8550 0.8540
964.477990 0.8520 0.8510 0.8480 0.8480 0.8480
968.735907 0.8470 0.8470 0.8460 0.8460 0.8460
972.993824 0.8440 0.8430 0.8430 0.8430 0.8420
977.251740 0.8420 0.8400 0.8400 0.8400 0.8390
981.509657 0.8390 0.8380 0.8360 0.8360 0.8360
985.767573 0.8360 0.8350 0.8340 0.8320 0.8310
990.025490 0.8290 0.8280 0.8270 0.8250 0.8240
994.283406 0.8230 0.8200 0.8170 0.8150 0.8120
998.541323 0.8090 0.8010 0.7960 0.7910 0.7880
1002.799240 0.7850 0.7830 0.7800 0.7680 0.7590
1007.057156 0.7460 0.7400 0.7360 0.7210 0.7000
1011.315073 0.6760 0.6530 0.6350 0.6111 0.5871
1015.572989 0.5100 0.4690 0.4440 0.4120 0.2901
1019.830906 0.2221 0.1651 0.1311 0.0911 0.0870
1024.088823 0.0870 0.0880 0.1090 0.1290 0.2528
1028.346739 0.2710 0.3299 0.3888 0.4757 0.5627
1032.604656 0.6491 0.6860 0.7140 0.7330 0.7510
1036.862572 0.7570 0.7590 0.7590 0.7600 0.7600
1041.120489 0.7600 0.7610 0.7670 0.7720 0.7790
1045.378406 0.7850 0.7950 0.8040 0.8090 0.8110
1049.636322 0.8160 0.8200 0.8240 0.8270 0.8280
1053.894239 0.8280 0.8290 0.8310 0.8310 0.8310
1058.152155 0.8310 0.8310 0.8310 0.8310 0.8310
1062.410072 0.8310 0.8290 0.8270 0.8270 0.8270
1066.667988 0.8250 0.8250 0.8250 0.8240 0.8230
1070.925905 0.8200 0.8170 0.8150 0.8130 0.8120
1075.183822 0.8110 0.8080 0.8070 0.8070 0.8050
1079.441738 0.7990 0.7920 0.7710 0.7610 0.7460
1083.699655 0.7450 0.7450 0.7480 0.7680 0.7790
1087.957571 0.7890 0.8000 0.8090 0.8200 0.8350
1092.215488 0.8420 0.8460 0.8470 0.8500 0.8520
1096.473405 0.8580 0.8600 0.8620 0.8640 0.8660
1100.731321 0.8660 0.8670 0.8670 0.8680 0.8700
1104.989238 0.8710 0.8710 0.8720 0.8720 0.8720
1109.247154 0.8720 0.8740 0.8750 0.8790 0.8800
1113.505071 0.8830 0.8900 0.8900 0.8910 0.8940
1117.762987 0.8950 0.8960 0.8980 0.8990 0.8990
1122.020904 0.8990 0.8990 0.8990 0.8990 0.8990
1126.278821 0.8980 0.8980 0.8960 0.8940 0.8940
1130.536737 0.8920 0.8920 0.8910 0.8910 0.8900
1134.794654 0.8880 0.8870 0.8860 0.8840 0.8820
1139.052570 0.8790 0.8790 0.8790 0.8790 0.8780
1143.310487 0.8760 0.8780 0.8800 0.8840 0.8860
1147.568404 0.8860 0.8870 0.8870 0.8880 0.8880
1151.826320 0.8880 0.8880 0.8880 0.8880 0.8880
1156.084237 0.8880 0.8880 0.8880 0.8880 0.8870
1160.342153 0.8870 0.8870 0.8870 0.8860 0.8860
1164.600070 0.8860 0.8830 0.8830 0.8830 0.8830
1168.857987 0.8830 0.8830 0.8820 0.8820 0.8800
1173.115903 0.8790 0.8780 0.8760 0.8760 0.8750
1177.373820 0.8740 0.8720 0.8710 0.8710 0.8710
1181.631736 0.8720 0.8750 0.8780 0.8800 0.8800
1185.889653 0.8820 0.8820 0.8820 0.8820 0.8820
1190.147569 0.8820 0.8820 0.8800 0.8800 0.8760
1194.405486 0.8760 0.8750 0.8750 0.8740 0.8740
1198.663403 0.8740 0.8740 0.8740 0.8720 0.8720
1202.921319 0.8710 0.8700 0.8700 0.8700 0.8700
1207.179236 0.8680 0.8680 0.8680 0.8700 0.8700
1211.437152 0.8700 0.8680 0.8680 0.8640 0.8620
1215.695069 0.8560 0.8550 0.8520 0.8520 0.8520
1219.952986 0.8510 0.8500 0.8480 0.8470 0.8440
1224.210902 0.8400 0.8320 0.8280 0.8210 0.8190
1228.468819 0.8130 0.8110 0.8080 0.7960 0.7720
1232.726735 0.7630 0.7490 0.7051 0.7040 0.7020
1236.984652 0.7010 0.7020 0.7200 0.7670 0.7790
1241.242568 0.7910 0.7910 0.7910 0.7910 0.7910
1245.500485 0.7840 0.7800 0.7760 0.7710 0.7630
1249.758402 0.7550 0.7420 0.7290 0.7100 0.7020
1254.016318 0.6820 0.6610 0.6460 0.6290 0.6150
1258.274235 0.6140 0.6150 0.6150 0.6170 0.6190
1262.532151 0.6250 0.6300 0.6390 0.6490 0.6630
1266.790068 0.6840 0.7120 0.7480 0.7640 0.7849
1271.047985 0.8070 0.8270 0.8340 0.8430 0.8480
1275.305901 0.8510 0.8520 0.8540 0.8550 0.8550
1279.563818 0.8550 0.8550 0.8550 0.8550 0.8550
1283.821734 0.8550 0.8550 0.8550 0.8540 0.8540
1288.079651 0.8540 0.8520 0.8520 0.8520 0.8510
1292.337568 0.8510 0.8500 0.8500 0.8480 0.8470
1296.595484 0.8460 0.8460 0.8440 0.8430 0.8390
1300.853401 0.8360 0.8340 0.8320 0.8310 0.8290
1305.111317 0.8280 0.8250 0.8240 0.8230 0.8210
1309.369234 0.8210 0.8200 0.8190 0.8170 0.8150
1313.627150 0.8130 0.8120 0.8110 0.8070 0.8040
1317.885067 0.8010 0.8000 0.7970 0.7970 0.7930
1322.142984 0.7910 0.7870 0.7850 0.7840 0.7810
1326.400900 0.7800 0.7790 0.7760 0.7730 0.7690
1330.658817 0.7650 0.7630 0.7600 0.7590 0.7570
1334.916733 0.7570 0.7560 0.7520 0.7510 0.7440
1339.174650 0.7400 0.7400 0.7380 0.7360 0.7340
1343.432567 0.7330 0.7330 0.7330 0.7330 0.7320
1347.690483 0.7320 0.7300 0.7260 0.7220 0.7210
1351.948400 0.7200 0.7180 0.7140 0.7130 0.7120
1356.206316 0.7080 0.7060 0.7060 0.7060 0.7050
1360.464233 0.7020 0.7010 0.6970 0.6940 0.6930
1364.722149 0.6850 0.6780 0.6740 0.6720 0.6700
1368.980066 0.6690 0.6680 0.6590 0.6510 0.6490
1373.237983 0.6430 0.6370 0.6270 0.6150 0.6130
1377.495899 0.6130 0.6110 0.6100 0.6090 0.6090
1381.753816 0.6070 0.6070 0.6060 0.6060 0.6060
1386.011732 0.6060 0.6060 0.6060 0.6050 0.6020
1390.269649 0.6010 0.5990 0.5990 0.5980 0.5900
1394.527566 0.5870 0.5860 0.5790 0.5750 0.5720
1398.785482 0.5480 0.5380 0.5260 0.5150 0.5080
1403.043399 0.5040 0.4950 0.4790 0.4470 0.3801
1407.301315 0.3530 0.3480 0.3450 0.3461 0.4240
1411.559232 0.5160 0.5200 0.5240 0.5240 0.5260
1415.817149 0.5260 0.5240 0.5240 0.5230 0.5190
1420.075065 0.5150 0.5140 0.5100 0.5070 0.5000
1424.332982 0.4840 0.4670 0.4670 0.4680 0.4680
1428.590898 0.4710 0.4720 0.4750 0.4670 0.4530
1432.848815 0.4450 0.4360 0.4330 0.4320 0.4330
1437.106731 0.4550 0.4710 0.4800 0.4870 0.4960
1441.364648 0.5000 0.5000 0.5000 0.5000 0.4990
1445.622565 0.4950 0.4890 0.4850 0.4720 0.4570
1449.880481 0.4440 0.4310 0.4190 0.4060 0.3850
1454.138398 0.3620 0.3490 0.2611 0.1961 0.1591
1458.396314 0.1410 0.1309 0.0890 0.0870 0.0870
1462.654231 0.0850 0.0850 0.0820 0.0800 0.0780
1466.912148 0.0770 0.0720 0.0700 0.0700 0.0720
1471.170064 0.0730 0.0850 0.0960 0.1050 0.1150
1475.427981 0.1250 0.1320 0.1370 0.1410 0.1470
1479.685897 0.1780 0.2110 0.2469 0.2650 0.3059
1483.943814 0.3461 0.3920 0.4160 0.4370 0.4880
1488.201730 0.5060 0.5310 0.5430 0.5550 0.5630
1492.459647 0.5640 0.5710 0.5740 0.5830 0.5970
1496.717564 0.6100 0.6180 0.6230 0.6270 0.6310
1500.975480 0.6340 0.6380 0.6420 0.6450 0.6470
1505.233397 0.6530 0.6570 0.6580 0.6590 0.6610
1509.491313 0.6610 0.6620 0.6650 0.6660 0.6680
1513.749230 0.6680 0.6680 0.6690 0.6690 0.6680
1518.007147 0.6680 0.6680 0.6680 0.6680 0.6680
1522.265063 0.6680 0.6660 0.6660 0.6650 0.6630
1526.522980 0.6630 0.6620 0.6590 0.6590 0.6580
1530.780896 0.6580 0.6540 0.6510 0.6490 0.6470
1535.038813 0.6450 0.6430 0.6430 0.6430 0.6410
1539.296730 0.6390 0.6390 0.6380 0.6380 0.6370
1543.554646 0.6350 0.6350 0.6350 0.6350 0.6370
1547.812563 0.6380 0.6380 0.6380 0.6380 0.6380
1552.070479 0.6370 0.6350 0.6330 0.6310 0.6290
1556.328396 0.6290 0.6220 0.6180 0.6170 0.6150
1560.586312 0.6140 0.6130 0.6100 0.6070 0.6050
1564.844229 0.6030 0.6010 0.6010 0.5970 0.5930
1569.102146 0.5900 0.5870 0.5800 0.5790 0.5780
1573.360062 0.5760 0.5720 0.5420 0.5310 0.5260
1577.617979 0.5240 0.5190 0.5070 0.4880 0.4720
1581.875895 0.4630 0.4480 0.4160 0.3701 0.3441
1586.133812 0.3330 0.3300 0.3300 0.3311 0.3610
1590.391729 0.3780 0.4040 0.4270 0.4510 0.4750
1594.649645 0.4890 0.5000 0.5070 0.5150 0.5260
1598.907562 0.5310 0.5350 0.5390 0.5400 0.5400
1603.165478 0.5400 0.5390 0.5390 0.5390 0.5360
1607.423395 0.5350 0.5340 0.5310 0.5270 0.5220
1611.681312 0.5180 0.5140 0.5110 0.5100 0.5030
1615.939228 0.4990 0.4930 0.4920 0.4920 0.4920
1620.197145 0.4920 0.4910 0.4910 0.4890 0.4890
1624.455061 0.4890 0.4890 0.4890 0.4910 0.4920
1628.712978 0.4920 0.4930 0.4950 0.4960 0.4990
1632.970894 0.5030 0.5030 0.5070 0.5100 0.5100
1637.228811 0.5110 0.5120 0.5160 0.5280 0.5310
1641.486728 0.5360 0.5440 0.5520 0.5590 0.5620
1645.744644 0.5630 0.5630 0.5640 0.5660 0.5740
1650.002561 0.5830 0.5870 0.5890 0.5890 0.5890
1654.260477 0.5900 0.5950 0.5990 0.6070 0.6110
1658.518394 0.6140 0.6230 0.6270 0.6310 0.6330
1662.776311 0.6370 0.6380 0.6420 0.6450 0.6490
1667.034227 0.6570 0.6580 0.6580 0.6580 0.6620
1671.292144 0.6630 0.6660 0.6660 0.6720 0.6740
1675.550060 0.6770 0.6800 0.6820 0.6880 0.6900
1679.807977 0.6940 0.6970 0.6980 0.7000 0.7000
1684.065893 0.7010 0.7010 0.7010 0.7010 0.7020
1688.323810 0.7040 0.7040 0.7050 0.7060 0.7060
1692.581727 0.7080 0.7080 0.7090 0.7100 0.7100
1696.839643 0.7120 0.7120 0.7130 0.7130 0.7130
1701.097560 0.7130 0.7140 0.7140 0.7140 0.7140
1705.355476 0.7140 0.7160 0.7160 0.7160 0.7160
1709.613393 0.7160 0.7160 0.7160 0.7160 0.7160
1713.871310 0.7160 0.7160 0.7160 0.7160 0.7160
1718.129226 0.7160 0.7140 0.7140 0.7140 0.7130
1722.387143 0.7130 0.7130 0.7120 0.7100 0.7090
1726.645059 0.7080 0.7060 0.7050 0.7040 0.7020
1730.902976 0.7020 0.7020 0.7040 0.7040 0.7050
1735.160893 0.7050 0.7060 0.7090 0.7180 0.7220
1739.418809 0.7240 0.7290 0.7410 0.7450 0.7460
1743.676726 0.7480 0.7510 0.7530 0.7560 0.7560
1747.934642 0.7570 0.7600 0.7610 0.7630 0.7640
1752.192559 0.7680 0.7690 0.7690 0.7710 0.7720
1756.450475 0.7720 0.7730 0.7730 0.7730 0.7750
1760.708392 0.7750 0.7750 0.7750 0.7750 0.7760
1764.966309 0.7760 0.7750 0.7750 0.7750 0.7730
1769.224225 0.7710 0.7710 0.7690 0.7690 0.7690
1773.482142 0.7690 0.7690 0.7690 0.7690 0.7690
1777.740058 0.7720 0.7750 0.7760 0.7760 0.7760
1781.997975 0.7760 0.7750 0.7730 0.7720 0.7720
1786.255892 0.7720 0.7720 0.7730 0.7750 0.7760
1790.513808 0.7770 0.7790 0.7840 0.7870 0.7880
1794.771725 0.7880 0.7910 0.7930 0.7950 0.7970
1799.029641 0.7990 0.8010 0.8030 0.8050 0.8090
1803.287558 0.8110 0.8130 0.8170 0.8240 0.8280
1807.545474 0.8310 0.8320 0.8340 0.8360 0.8390
1811.803391 0.8400 0.8430 0.8440 0.8470 0.8480
1816.061308 0.8510 0.8540 0.8540 0.8560 0.8580
1820.319224 0.8590 0.8620 0.8630 0.8640 0.8660
1824.577141 0.8670 0.8670 0.8670 0.8670 0.8680
1828.835057 0.8680 0.8700 0.8700 0.8700 0.8700
1833.092974 0.8700 0.8710 0.8710 0.8710 0.8710
1837.350891 0.8710 0.8710 0.8710 0.8710 0.8710
1841.608807 0.8710 0.8710 0.8710 0.8710 0.8710
1845.866724 0.8710 0.8710 0.8710 0.8700 0.8700
1850.124640 0.8700 0.8680 0.8680 0.8680 0.8680
1854.382557 0.8680 0.8680 0.8680 0.8670 0.8670
1858.640474 0.8670 0.8670 0.8670 0.8660 0.8660
1862.898390 0.8660 0.8660 0.8640 0.8640 0.8640
1867.156307 0.8630 0.8630 0.8630 0.8620 0.8620
1871.414223 0.8600 0.8600 0.8600 0.8590 0.8590
1875.672140 0.8590 0.8580 0.8580 0.8580 0.8580
1879.930056 0.8580 0.8560 0.8560 0.8560 0.8560
1884.187973 0.8550 0.8550 0.8550 0.8540 0.8540
1888.445890 0.8540 0.8520 0.8520 0.8510 0.8510
1892.703806 0.8510 0.8510 0.8510 0.8510 0.8510
1896.961723 0.8510 0.8510 0.8510 0.8510 0.8510
1901.219639 0.8510 0.8510 0.8510 0.8520 0.8520
1905.477556 0.8520 0.8520 0.8540 0.8540 0.8540
1909.735473 0.8540 0.8550 0.8550 0.8550 0.8550
1913.993389 0.8560 0.8560 0.8580 0.8580 0.8590
1918.251306 0.8590 0.8600 0.8600 0.8620 0.8620
1922.509222 0.8630 0.8630 0.8640 0.8640 0.8660
1926.767139 0.8660 0.8660 0.8640 0.8660 0.8660
1931.025055 0.8670 0.8670 0.8680 0.8680 0.8680
1935.282972 0.8680 0.8680 0.8680 0.8680 0.8680
1939.540889 0.8680 0.8670 0.8660 0.8660 0.8660
1943.798805 0.8640 0.8640 0.8640 0.8630 0.8630
1948.056722 0.8620 0.8620 0.8620 0.8600 0.8590
1952.314638 0.8590 0.8580 0.8580 0.8560 0.8550
1956.572555 0.8520 0.8420 0.8390 0.8400 0.8430
1960.830472 0.8510 0.8510 0.8520 0.8520 0.8510
1965.088388 0.8510 0.8510 0.8510 0.8510 0.8510
1969.346305 0.8510 0.8520 0.8520 0.8510 0.8510
1973.604221 0.8510 0.8510 0.8510 0.8510 0.8510
1977.862138 0.8510 0.8500 0.8500 0.8500 0.8500
1982.120055 0.8470 0.8440 0.8430 0.8420 0.8420
1986.377971 0.8420 0.8420 0.8420 0.8420 0.8420
1990.635888 0.8420 0.8400 0.8390 0.8380 0.8380
1994.893804 0.8360 0.8360 0.8360 0.8350 0.8350
1999.151721 0.8350 0.8350 0.8350 0.8350 0.8350
2003.409637 0.8350 0.8350 0.8350 0.8345 0.8340
2007.667554 0.8340 0.8340 0.8330 0.8320 0.8330
2011.925471 0.8340 0.8330 0.8320 0.8315 0.8310
2016.183387 0.8295 0.8280 0.8265 0.8250 0.8240
2020.441304 0.8230 0.8215 0.8200 0.8195 0.8190
2024.699220 0.8190 0.8190 0.8190 0.8190 0.8190
2028.957137 0.8190 0.8180 0.8170 0.8170 0.8170
2033.215054 0.8170 0.8170 0.8170 0.8170 0.8160
2037.472970 0.8150 0.8150 0.8150 0.8150 0.8150
2041.730887 0.8140 0.8130 0.8125 0.8120 0.8105
2045.988803 0.8091 0.8085 0.8080 0.8066 0.8051
2050.246720 0.8040 0.8030 0.8001 0.7971 0.7960
2054.504636 0.7950 0.7940 0.7930 0.7925 0.7920
2058.762553 0.7901 0.7881 0.7861 0.7841 0.7821
2063.020470 0.7801 0.7795 0.7790 0.7790 0.7790
2067.278386 0.7780 0.7770 0.7770 0.7770 0.7765
2071.536303 0.7760 0.7760 0.7760 0.7755 0.7750
2075.794219 0.7740 0.7730 0.7725 0.7720 0.7715
2080.052136 0.7710 0.7701 0.7691 0.7690 0.7690
2084.310053 0.7690 0.7690 0.7685 0.7680 0.7680
2088.567969 0.7680 0.7680 0.7680 0.7675 0.7670
2092.825886 0.7670 0.7670 0.7656 0.7641 0.7635
2097.083802 0.7630 0.7621 0.7611 0.7605 0.7600
2101.341719 0.7595 0.7590 0.7581 0.7571 0.7570
2105.599636 0.7570 0.7570 0.7570 0.7565 0.7560
2109.857552 0.7546 0.7531 0.7521 0.7511 0.7459
2114.115469 0.7404 0.7391 0.7381 0.7380 0.7380
2118.373385 0.7380 0.7380 0.7380 0.7380 0.7389
2122.631302 0.7399 0.7400 0.7400 0.7409 0.7419
2126.889218 0.7429 0.7439 0.7463 0.7488 0.7522
2131.147135 0.7557 0.7578 0.7598 0.7618 0.7638
2135.405052 0.7645 0.7650 0.7669 0.7689 0.7704
2139.662968 0.7719 0.7734 0.7749 0.7759 0.7769
2143.920885 0.7788 0.7808 0.7819 0.7829 0.7839
2148.178801 0.7849 0.7864 0.7879 0.7885 0.7890
2152.436718 0.7899 0.7909 0.7910 0.7910 0.7915
2156.694635 0.7920 0.7920 0.7920 0.7925 0.7930
2160.952551 0.7930 0.7930 0.7930 0.7930 0.7930
2165.210468 0.7930 0.7930 0.7930 0.7930 0.7930
2169.468384 0.7930 0.7930 0.7930 0.7930 0.7930
2173.726301 0.7930 0.7930 0.7930 0.7930 0.7930
2177.984217 0.7930 0.7930 0.7930 0.7930 0.7930
2182.242134 0.7930 0.7930 0.7930 0.7930 0.7930
2186.500051 0.7930 0.7930 0.7930 0.7930 0.7925
2190.757967 0.7921 0.7920 0.7920 0.7920 0.7920
2195.015884 0.7920 0.7920 0.7920 0.7920 0.7920
2199.273800 0.7920 0.7920 0.7920 0.7920 0.7920
2203.531717 0.7920 0.7920 0.7916 0.7911 0.7910
2207.789634 0.7910 0.7910 0.7910 0.7901 0.7891
2212.047550 0.7890 0.7890 0.7890 0.7890 0.7886
2216.305467 0.7881 0.7880 0.7880 0.7880 0.7880
2220.563383 0.7880 0.7880 0.7876 0.7871 0.7870
2224.821300 0.7870 0.7861 0.7851 0.7850 0.7850
2229.079217 0.7846 0.7841 0.7840 0.7840 0.7836
2233.337133 0.7831 0.7830 0.7830 0.7821 0.7811
2237.595050 0.7810 0.7810 0.7806 0.7801 0.7800
2241.852966 0.7800 0.7796 0.7791 0.7790 0.7790
2246.110883 0.7781 0.7771 0.7770 0.7770 0.7766
2250.368799 0.7761 0.7760 0.7760 0.7760 0.7760
2254.626716 0.7756 0.7751 0.7741 0.7731 0.7730
2258.884633 0.7730 0.7726 0.7721 0.7720 0.7720
2263.142549 0.7716 0.7711 0.7701 0.7691 0.7686
2267.400466 0.7681 0.7676 0.7671 0.7670 0.7670
2271.658382 0.7662 0.7651 0.7646 0.7641 0.7636
2275.916299 0.7631 0.7621 0.7611 0.7593 0.7573
2280.174216 0.7553 0.7533 0.7513 0.7493 0.7473
2284.432132 0.7453 0.7429 0.7404 0.7387 0.7372
2288.690049 0.7353 0.7333 0.7326 0.7321 0.7320
2292.947965 0.7320 0.7324 0.7329 0.7351 0.7376
2297.205882 0.7388 0.7398 0.7404 0.7409 0.7410
2301.463798 0.7410 0.7414 0.7419 0.7420 0.7420
2305.721715 0.7420 0.7420 0.7420 0.7420 0.7416
2309.979632 0.7411 0.7410 0.7410 0.7406 0.7401
2314.237548 0.7392 0.7382 0.7376 0.7371 0.7358
2318.495465 0.7343 0.7340 0.7340 0.7336 0.7331
2322.753381 0.7318 0.7303 0.7296 0.7291 0.7278
2327.011298 0.7263 0.7244 0.7224 0.7220 0.7220
2331.269215 0.7216 0.7211 0.7206 0.7201 0.7192
2335.527131 0.7182 0.7176 0.7171 0.7166 0.7161
2339.785048 0.7152 0.7142 0.7132 0.7122 0.7095
2344.042964 0.7065 0.7027 0.6987 0.6947 0.6908
2348.300881 0.6876 0.6846 0.6824 0.6804 0.6784
2352.558798 0.6764 0.6744 0.6724 0.6708 0.6693
2356.816714 0.6678 0.6663 0.6648 0.6633 0.6626
2361.074631 0.6621 0.6604 0.6584 0.6568 0.6553
2365.332547 0.6530 0.6505 0.6480 0.6455 0.6422
2369.590464 0.6387 0.6332 0.6273 0.6224 0.6180
2373.848380 0.6138 0.6098 0.6082 0.6072 0.6070
2378.106297 0.6070 0.6066 0.6061 0.6056 0.6051
2382.364214 0.6042 0.6032 0.6026 0.6021 0.6008
2386.622130 0.5993 0.5943 0.5883 0.5823 0.5763
2390.880047 0.5707 0.5651 0.5573 0.5488 0.5434
2395.137963 0.5389 0.5341 0.5291 0.5241 0.5191
2399.395880 0.5137 0.5082 0.5011 0.4937 0.4858
2403.653797 0.4778 0.4683 0.4583 0.4525 0.4480
2407.911713 0.4226 0.3908 0.3785 0.3715 0.3653
2412.169630 0.3593 0.3533 0.3473 0.3367 0.3247
2416.427546 0.3174 0.3114 0.3058 0.3003 0.2748
2420.685463 0.2434 0.2207 0.2007 0.1869 0.1749
2424.943380 0.1663 0.1587 0.1535 0.1490 0.1437
2429.201296 0.1383 0.1293 0.1193 0.1089 0.0985
2433.459213 0.0945 0.0925 0.0916 0.0911 0.0914
2437.717129 0.0919 0.0939 0.0964 0.0993 0.1023
2441.975046 0.1060 0.1101 0.1141 0.1181 0.1228
2446.232962 0.1278 0.1347 0.1422 0.1516 0.1616
2450.490879 0.1746 0.1886 0.2025 0.2165 0.2324
2454.748796 0.2489 0.2623 0.2748 0.2884 0.3024
2459.006712 0.3116 0.3192 0.3259 0.3324 0.3453
2463.264629 0.3603 0.3745 0.3885 0.4021 0.4156
2467.522545 0.4268 0.4373 0.4471 0.4565 0.4634
2471.780462 0.4694 0.4725 0.4745 0.4757 0.4767
2476.038379 0.4777 0.4787 0.4794 0.4799 0.4811
2480.296295 0.4826 0.4845 0.4865 0.4870 0.4870
2484.554212 0.4874 0.4879 0.4880 0.4880 0.4880
2488.812128 0.4880 0.4884 0.4889 0.4886 0.4881
2493.070045 0.4876 0.4871 0.4844 0.4809 0.4771
2497.327961 0.4731 0.4691 0.4651 0.4607 0.4562
2501.585878 0.4525 0.4490 0.4476 0.4471 0.4470
2505.843795 0.4470 0.4474 0.4479 0.4494 0.4514
2510.101711 0.4534 0.4555 0.4571 0.4586 0.4605
2514.359628 0.4625 0.4644 0.4664 0.4684 0.4704
2518.617544 0.4728 0.4753 0.4792 0.4837 0.4886
2522.875461 0.4936 0.4989 0.5044 0.5088 0.5128
2527.133378 0.5176 0.5226 0.5269 0.5309 0.5327
2531.391294 0.5337 0.5344 0.5349 0.5350 0.5350
2535.649211 0.5350 0.5350 0.5346 0.5341 0.5329
2539.907127 0.5314 0.5299 0.5284 0.5276 0.5272
2544.165044 0.5270 0.5270 0.5270 0.5270 0.5266
2548.422961 0.5261 0.5260 0.5260 0.5253 0.5243
2552.680877 0.5240 0.5240 0.5237 0.5232 0.5227
2556.938794 0.5222 0.5220 0.5220 0.5213 0.5203
2561.196710 0.5200 0.5200 0.5196 0.5191 0.5190
2565.454627 0.5190 0.5187 0.5182 0.5173 0.5163
2569.712543 0.5157 0.5152 0.5150 0.5150 0.5147
2573.970460 0.5142 0.5133 0.5123 0.5117 0.5112
2578.228377 0.5107 0.5102 0.5086 0.5066 0.5046
2582.486293 0.5026 0.5010 0.4995 0.4976 0.4956
2586.744210 0.4940 0.4925 0.4906 0.4886 0.4870
2591.002126 0.4855 0.4837 0.4817 0.4797 0.4777
2595.260043 0.4756 0.4736 0.4716 0.4696 0.4676
2599.517960 0.4656 0.4643 0.4633 0.4616 0.4597
2603.775876 0.4580 0.4565 0.4547 0.4527 0.4510
2608.033793 0.4495 0.4477 0.4457 0.4437 0.4417
2612.291709 0.4397 0.4377 0.4363 0.4353 0.4337
2616.549626 0.4317 0.4297 0.4277 0.4260 0.4245
2620.807542 0.4227 0.4207 0.4187 0.4167 0.4150
2625.065459 0.4135 0.4114 0.4089 0.4060 0.4030
2629.323376 0.4000 0.3970 0.3933 0.3893 0.3867
2633.581292 0.3847 0.3827 0.3807 0.3780 0.3750
2637.839209 0.3737 0.3732 0.3707 0.3672 0.3644
2642.097125 0.3619 0.3597 0.3577 0.3560 0.3545
2646.355042 0.3534 0.3523 0.3500 0.3470 0.3444
2650.612959 0.3419 0.3348 0.3253 0.3204 0.3179
2654.870875 0.3144 0.3104 0.3080 0.3065 0.3034
2659.128792 0.2994 0.2964 0.2939 0.2917 0.2897
2663.386708 0.2864 0.2824 0.2800 0.2785 0.2767
2667.644625 0.2747 0.2724 0.2699 0.2668 0.2633
2671.902542 0.2598 0.2563 0.2537 0.2517 0.2494
2676.160458 0.2469 0.2441 0.2411 0.2381 0.2351
2680.418375 0.2318 0.2283 0.2248 0.2213 0.2184
2684.676291 0.2159 0.2137 0.2117 0.2097 0.2077
2688.934208 0.2042 0.1997 0.1955 0.1915 0.1881
2693.192124 0.1851 0.1821 0.1791 0.1761 0.1732
2697.450041 0.1698 0.1663 0.1622 0.1577 0.1522
2701.707958 0.1462 0.1393 0.1318 0.1265 0.1225
2705.965874 0.1185 0.1145 0.1118 0.1098 0.1050
2710.223791 0.0985 0.0945 0.0920 0.0898 0.0878
2714.481707 0.0849 0.0813 0.0788 0.0768 0.0751
2718.739624 0.0736 0.0696 0.0641 0.0614 0.0604
2722.997541 0.0594 0.0584 0.0562 0.0532 0.0502
2727.255457 0.0472 0.0448 0.0428 0.0414 0.0404
2731.513374 0.0391 0.0376 0.0358 0.0338 0.0321
2735.771290 0.0306 0.0297 0.0292 0.0281 0.0266
2740.029207 0.0257 0.0252 0.0247 0.0242 0.0234
2744.287123 0.0224 0.0217 0.0212 0.0207 0.0202
2748.545040 0.0191 0.0176 0.0167 0.0162 0.0154
2752.802957 0.0144 0.0137 0.0132 0.0127 0.0122
2757.060873 0.0114 0.0104 0.0100 0.0100 0.0097
2761.318790 0.0092 0.0090 0.0090 0.0087 0.0082
2765.576706 0.0080 0.0080 0.0080 0.0080 0.0080
2769.834623 0.0080 0.0080 0.0080 0.0080 0.0080
2774.092540 0.0083 0.0088 0.0090 0.0090 0.0090
2778.350456 0.0090 0.0090 0.0090 0.0090 0.0090
2782.608373 0.0090 0.0090 0.0090 0.0090 0.0093
2786.866289 0.0098 0.0106 0.0116 0.0120 0.0120
2791.124206 0.0123 0.0128 0.0133 0.0138 0.0140
2795.382123 0.0140 0.0148 0.0163 0.0173 0.0178
2799.640039 0.0188 0.0204 0.0224 0.0249 0.0277
2803.897956 0.0307 0.0326 0.0336 0.0349 0.0363
2808.155872 0.0378 0.0393 0.0403 0.0408 0.0418
2812.413789 0.0433 0.0443 0.0448 0.0458 0.0473
2816.671705 0.0480 0.0480 0.0480 0.0480 0.0480
2820.929622 0.0480 0.0480 0.0480 0.0480 0.0480
2825.187539 0.0480 0.0480 0.0474 0.0464 0.0460
2829.445455 0.0460 0.0460 0.0460 0.0457 0.0452
2833.703372 0.0447 0.0442 0.0440 0.0440 0.0434
2837.961288 0.0424 0.0417 0.0412 0.0402 0.0387
2842.219205 0.0380 0.0380 0.0380 0.0380 0.0380
2846.477122 0.0380 0.0380 0.0380 0.0385 0.0395
2850.735038 0.0400 0.0400 0.0403 0.0408 0.0410
2854.992955 0.0410 0.0413 0.0418 0.0425 0.0435
2859.250871 0.0443 0.0448 0.0450 0.0450 0.0450
2863.508788 0.0450 0.0450 0.0450 0.0450 0.0450
2867.766704 0.0447 0.0442 0.0435 0.0425 0.0417
2872.024621 0.0412 0.0402 0.0387 0.0380 0.0380
2876.282538 0.0377 0.0372 0.0367 0.0362 0.0355
2880.540454 0.0345 0.0340 0.0340 0.0337 0.0332
2884.798371 0.0327 0.0322 0.0315 0.0305 0.0297
2889.056287 0.0292 0.0290 0.0290 0.0287 0.0282
2893.314204 0.0275 0.0265 0.0257 0.0252 0.0242
2897.572121 0.0227 0.0217 0.0212 0.0202 0.0187
2901.830037 0.0180 0.0180 0.0177 0.0172 0.0170
2906.087954 0.0170 0.0167 0.0162 0.0155 0.0145
2910.345870 0.0140 0.0140 0.0137 0.0132 0.0127
2914.603787 0.0122 0.0120 0.0120 0.0115 0.0105
2918.861704 0.0097 0.0092 0.0087 0.0082 0.0075
2923.119620 0.0065 0.0060 0.0060 0.0065 0.0075
2927.377537 0.0080 0.0080 0.0080 0.0080 0.0075
2931.635453 0.0065 0.0060 0.0060 0.0060 0.0060
2935.893370 0.0060 0.0060 0.0060 0.0060 0.0060
2940.151286 0.0060 0.0060 0.0060 0.0060 0.0060
2944.409203 0.0060 0.0060 0.0060 0.0060 0.0060
2948.667120 0.0060 0.0060 0.0060 0.0060 0.0060
2952.925036 0.0060 0.0060 0.0060 0.0060 0.0060
2957.182953 0.0060 0.0060 0.0060 0.0060 0.0060
2961.440869 0.0060 0.0060 0.0065 0.0075 0.0080
2965.698786 0.0080 0.0075 0.0065 0.0065 0.0075
2969.956703 0.0082 0.0087 0.0090 0.0090 0.0092
2974.214619 0.0097 0.0100 0.0100 0.0105 0.0115
2978.472536 0.0120 0.0120 0.0122 0.0127 0.0130
2982.730452 0.0130 0.0132 0.0137 0.0140 0.0140
2986.988369 0.0145 0.0155 0.0160 0.0160 0.0162
2991.246285 0.0167 0.0170 0.0170 0.0172 0.0177
2995.504202 0.0180 0.0180 0.0185 0.0195 0.0202
2999.762119 0.0207 0.0210 0.0210 0.0212 0.0217
3004.020035 0.0220 0.0220 0.0220 0.0220 0.0220
3008.277952 0.0220 0.0220 0.0220 0.0218 0.0213
3012.535868 0.0210 0.0210 0.0208 0.0203 0.0200
3016.793785 0.0200 0.0200 0.0200 0.0200 0.0200
3021.051702 0.0200 0.0200 0.0202 0.0207 0.0217
3025.309618 0.0232 0.0245 0.0255 0.0267 0.0282
3029.567535 0.0292 0.0297 0.0304 0.0314 0.0324
3033.825451 0.0334 0.0344 0.0354 0.0362 0.0367
3038.083368 0.0372 0.0377 0.0393 0.0423 0.0451
3042.341285 0.0476 0.0490 0.0490 0.0492 0.0497
3046.599201 0.0504 0.0514 0.0524 0.0534 0.0549
3050.857118 0.0569 0.0586 0.0601 0.0616 0.0631
3055.115034 0.0642 0.0647 0.0659 0.0679 0.0705
3059.372951 0.0740 0.0771 0.0796 0.0816 0.0831
3063.630867 0.0849 0.0869 0.0886 0.0901 0.0923
3067.888784 0.0953 0.0974 0.0984 0.0992 0.0997
3072.146701 0.1006 0.1021 0.1032 0.1037 0.1046
3076.404617 0.1061 0.1079 0.1098 0.1118 0.1138
3080.662534 0.1171 0.1221 0.1258 0.1278 0.1302
3084.920450 0.1332 0.1366 0.1406 0.1446 0.1486
3089.178367 0.1526 0.1567 0.1598 0.1618 0.1645
3093.436284 0.1680 0.1708 0.1728 0.1750 0.1775
3097.694200 0.1798 0.1818 0.1844 0.1879 0.1918
3101.952117 0.1963 0.2004 0.2039 0.2062 0.2067
3106.210033 0.2080 0.2105 0.2128 0.2148 0.2168
3110.467950 0.2188 0.2206 0.2221 0.2268 0.2363
3114.725867 0.2430 0.2455 0.2482 0.2512 0.2532
3118.983783 0.2537 0.2562 0.2617 0.2668 0.2713
3123.241700 0.2746 0.2761 0.2772 0.2777 0.2790
3127.499616 0.2815 0.2830 0.2830 0.2846 0.2886
3131.757533 0.2934 0.2993 0.3038 0.3058 0.3076
3136.015449 0.3091 0.3100 0.3100 0.3106 0.3121
3140.273366 0.3138 0.3158 0.3180 0.3205 0.3228
3144.531283 0.3248 0.3266 0.3281 0.3292 0.3297
3148.789199 0.3312 0.3341 0.3364 0.3374 0.3384
3153.047116 0.3394 0.3402 0.3407 0.3410 0.3410
3157.305032 0.3412 0.3417 0.3420 0.3420 0.3420
3161.562949 0.3420 0.3418 0.3413 0.3408 0.3403
3165.820866 0.3396 0.3386 0.3378 0.3373 0.3363
3170.078782 0.3343 0.3325 0.3310 0.3295 0.3280
3174.336699 0.3268 0.3263 0.3260 0.3260 0.3262
3178.594615 0.3267 0.3281 0.3311 0.3332 0.3337
3182.852532 0.3366 0.3435 0.3491 0.3521 0.3547
3187.110448 0.3567 0.3587 0.3607 0.3634 0.3674
3191.368365 0.3721 0.3782 0.3824 0.3834 0.3849
3195.626282 0.3874 0.3897 0.3917 0.3943 0.3978
3199.884198 0.4009 0.4034 0.4057 0.4077 0.4097
3204.142115 0.4117 0.4135 0.4150 0.4162 0.4167
3208.400031 0.4177 0.4197 0.4210 0.4210 0.4214
3212.657948 0.4224 0.4232 0.4237 0.4240 0.4240
3216.915865 0.4242 0.4247 0.4250 0.4250 0.4250
3221.173781 0.4250 0.4250 0.4250 0.4250 0.4250
3225.431698 0.4250 0.4250 0.4250 0.4250 0.4250
3229.689614 0.4250 0.4250 0.4250 0.4250 0.4250
3233.947531 0.4248 0.4243 0.4240 0.4240 0.4240
3238.205448 0.4240 0.4240 0.4240 0.4240 0.4240
3242.463364 0.4240 0.4240 0.4240 0.4240 0.4240
3246.721281 0.4240 0.4240 0.4240 0.4240 0.4240
3250.979197 0.4238 0.4233 0.4230 0.4230 0.4227
3255.237114 0.4217 0.4207 0.4197 0.4190 0.4190
3259.495030 0.4187 0.4177 0.4170 0.4170 0.4168
3263.752947 0.4163 0.4160 0.4160 0.4157 0.4147
3268.010864 0.4140 0.4140 0.4137 0.4127 0.4120
3272.268780 0.4120 0.4117 0.4107 0.4100 0.4100
3276.526697 0.4098 0.4093 0.4090 0.4090 0.4088
3280.784613 0.4083 0.4075 0.4060 0.4033 0.3978
3285.042530 0.3938 0.3933 0.3925 0.3910 0.3898
3289.300447 0.3893 0.3885 0.3870 0.3857 0.3847
3293.558363 0.3837 0.3827 0.3818 0.3813 0.3808
3297.816280 0.3803 0.3797 0.3787 0.3772 0.3747
3302.074196 0.3722 0.3698 0.3671 0.3641 0.3617
3306.332113 0.3607 0.3597 0.3587 0.3577 0.3567
3310.590029 0.3556 0.3541 0.3525 0.3510 0.3497
3314.847946 0.3487 0.3476 0.3461 0.3446 0.3431
3319.105863 0.3419 0.3414 0.3396 0.3346 0.3297
3323.363779 0.3252 0.3219 0.3214 0.3206 0.3191
3327.621696 0.3176 0.3161 0.3150 0.3150 0.3138
3331.879612 0.3098 0.3064 0.3044 0.3023 0.2998
3336.137529 0.2970 0.2935 0.2903 0.2878 0.2853
3340.395446 0.2828 0.2804 0.2785 0.2766 0.2751
3344.653362 0.2739 0.2734 0.2724 0.2704 0.2682
3348.911279 0.2652 0.2623 0.2598 0.2574 0.2554
3353.169195 0.2535 0.2515 0.2496 0.2481 0.2466
3357.427112 0.2451 0.2435 0.2415 0.2392 0.2362
3361.685029 0.2340 0.2340 0.2337 0.2327 0.2319
3365.942945 0.2314 0.2309 0.2304 0.2296 0.2281
3370.200862 0.2265 0.2245 0.2229 0.2224 0.2217
3374.458778 0.2207 0.2199 0.2194 0.2189 0.2184
3378.716695 0.2177 0.2167 0.2153 0.2128 0.2106
3382.974611 0.2091 0.2079 0.2074 0.2070 0.2070
3387.232528 0.2069 0.2064 0.2057 0.2047 0.2039
3391.490445 0.2034 0.2029 0.2024 0.2016 0.2001
3395.748361 0.1990 0.1990 0.1986 0.1971 0.1959
3400.006278 0.1954 0.1949 0.1944 0.1940 0.1940
3404.264194 0.1938 0.1928 0.1920 0.1920 0.1919
3408.522111 0.1914 0.1910 0.1910 0.1909 0.1904
3412.780028 0.1900 0.1900 0.1900 0.1900 0.1900
3417.037944 0.1900 0.1900 0.1900 0.1898 0.1888
3421.295861 0.1879 0.1874 0.1870 0.1870 0.1870
3425.553777 0.1870 0.1870 0.1870 0.1870 0.1870
3429.811694 0.1870 0.1870 0.1870 0.1870 0.1870
3434.069610 0.1870 0.1870 0.1870 0.1870 0.1870
3438.327527 0.1870 0.1870 0.1870 0.1870 0.1870
3442.585444 0.1870 0.1870 0.1870 0.1870 0.1870
3446.843360 0.1871 0.1876 0.1880 0.1880 0.1882
3451.101277 0.1892 0.1900 0.1900 0.1900 0.1900
3455.359193 0.1901 0.1906 0.1910 0.1910 0.1910
3459.617110 0.1910 0.1910 0.1910 0.1913 0.1928
3463.875027 0.1942 0.1952 0.1962 0.1972 0.1981
3468.132943 0.1986 0.1991 0.1996 0.2000 0.2000
3472.390860 0.2000 0.2000 0.2002 0.2012 0.2022
3476.648776 0.2032 0.2042 0.2052 0.2061 0.2066
3480.906693 0.2073 0.2088 0.2102 0.2112 0.2122
3485.164610 0.2132 0.2141 0.2146 0.2153 0.2168
3489.422526 0.2180 0.2180 0.2181 0.2186 0.2195
3493.680443 0.2220 0.2242 0.2252 0.2261 0.2266
3497.938359 0.2273 0.2288 0.2302 0.2312 0.2324
3502.196276 0.2344 0.2363 0.2378 0.2394 0.2414
3506.454192 0.2431 0.2436 0.2442 0.2452 0.2461
3510.712109 0.2466 0.2473 0.2488 0.2503 0.2518
3514.970026 0.2531 0.2536 0.2543 0.2558 0.2575
3519.227942 0.2600 0.2624 0.2644 0.2664 0.2684
3523.485859 0.2703 0.2718 0.2730 0.2730 0.2732
3527.743775 0.2742 0.2754 0.2773 0.2795 0.2825
3532.001692 0.2851 0.2856 0.2865 0.2890 0.2913
3536.259609 0.2928 0.2944 0.2964 0.2984 0.3004
3540.517525 0.3026 0.3061 0.3091 0.3096 0.3101
3544.775442 0.3106 0.3113 0.3127 0.3143 0.3163
3549.033358 0.3184 0.3209 0.3233 0.3248 0.3263
3553.291275 0.3278 0.3297 0.3337 0.3376 0.3411
3557.549191 0.3440 0.3440 0.3443 0.3463 0.3485
3561.807108 0.3515 0.3545 0.3575 0.3604 0.3629
3566.065025 0.3652 0.3667 0.3683 0.3703 0.3721
3570.322941 0.3726 0.3736 0.3776 0.3813 0.3833
3574.580858 0.3856 0.3896 0.3931 0.3936 0.3942
3578.838774 0.3957 0.3974 0.3999 0.4027 0.4077
3583.096691 0.4126 0.4172 0.4216 0.4256 0.4293
3587.354608 0.4313 0.4335 0.4365 0.4393 0.4413
3591.612524 0.4431 0.4436 0.4444 0.4469 0.4494
3595.870441 0.4524 0.4553 0.4578 0.4601 0.4606
3600.128357 0.4613 0.4633 0.4652 0.4661 0.4671
3604.386274 0.4681 0.4692 0.4707 0.4723 0.4743
3608.644191 0.4763 0.4788 0.4817 0.4872 0.4925
3612.902107 0.4960 0.4995 0.5030 0.5061 0.5066
3617.160024 0.5072 0.5087 0.5104 0.5128 0.5153
3621.417940 0.5178 0.5204 0.5234 0.5263 0.5283
3625.675857 0.5303 0.5323 0.5346 0.5396 0.5442
3629.933773 0.5462 0.5482 0.5502 0.5522 0.5542
3634.191690 0.5564 0.5594 0.5621 0.5631 0.5642
3638.449607 0.5657 0.5673 0.5692 0.5712 0.5732
3642.707523 0.5755 0.5795 0.5837 0.5897 0.5956
3646.965440 0.6006 0.6053 0.6078 0.6102 0.6117
3651.223356 0.6133 0.6158 0.6182 0.6202 0.6224
3655.481273 0.6259 0.6291 0.6301 0.6311 0.6321
3659.739190 0.6332 0.6352 0.6374 0.6414 0.6453
3663.997106 0.6483 0.6513 0.6543 0.6571 0.6581
3668.255023 0.6591 0.6601 0.6611 0.6616 0.6623
3672.512939 0.6653 0.6681 0.6691 0.6700 0.6700
3676.770856 0.6701 0.6711 0.6720 0.6725 0.6730
3681.028772 0.6735 0.6743 0.6773 0.6802 0.6827
3685.286689 0.6851 0.6866 0.6881 0.6891 0.6900
3689.544606 0.6900 0.6901 0.6911 0.6920 0.6925
3693.802522 0.6930 0.6935 0.6941 0.6951 0.6960
3698.060439 0.6960 0.6961 0.6971 0.6981 0.6991
3702.318355 0.7000 0.7005 0.7010 0.7015 0.7021
3706.576272 0.7031 0.7040 0.7040 0.7040 0.7040
3710.834189 0.7040 0.7045 0.7050 0.7050 0.7050
3715.092105 0.7055 0.7061 0.7071 0.7081 0.7091
3719.350022 0.7101 0.7116 0.7131 0.7146 0.7160
3723.607938 0.7165 0.7170 0.7170 0.7170 0.7170
3727.865855 0.7170 0.7170 0.7170 0.7165 0.7160
3732.123772 0.7165 0.7170 0.7175 0.7181 0.7191
3736.381688 0.7200 0.7205 0.7210 0.7215 0.7220
3740.639605 0.7220 0.7220 0.7220 0.7220 0.7220
3744.897521 0.7220 0.7220 0.7220 0.7220 0.7220
3749.155438 0.7220 0.7220 0.7220 0.7220 0.7220
3753.413354 0.7220 0.7215 0.7210 0.7205 0.7200
3757.671271 0.7200 0.7200 0.7205 0.7210 0.7215
3761.929188 0.7221 0.7231 0.7240 0.7245 0.7250
3766.187104 0.7250 0.7250 0.7255 0.7260 0.7255
3770.445021 0.7250 0.7255 0.7260 0.7260 0.7260
3774.702937 0.7260 0.7261 0.7271 0.7280 0.7280
3778.960854 0.7280 0.7280 0.7280 0.7280 0.7280
3783.218771 0.7280 0.7280 0.7280 0.7280 0.7280
3787.476687 0.7280 0.7280 0.7280 0.7280 0.7280
3791.734604 0.7280 0.7280 0.7280
##END=
