##TITLE=3,4-Dihydro-2H-pyran-2-methylamine
##JCAMP-DX=4.24
$$ By DXEDIT 1.05 (RS McDonald)
##DATA TYPE=INFRARED SPECTRUM
##CLASS=COBLENTZ III
##ORIGIN=DOW CHEMICAL COMPANY
##OWNER=COPYRIGHT (C) 1988 by COBLENTZ SOCIETY INC.
Collection (C) 2018 copyright by the U.S. Secretary of Commerce
on behalf of the United States of America. All rights reserved.
##DATE=1964/07/29
##NAMES=3,4-dihydro-2H-pyran-2-ylmethylamine
3,4-dihydro-2H-pyran-2-ylmethanamine
##MOLFORM=C6 H11 N O
##SOURCE REFERENCE=COBLENTZ NO. 06706
##$NIST ID=B6006706
##$NIST SOURCE=COBLENTZ
##$NIST IMAGE=cob6706
##SPECTROMETER/DATA SYSTEM=DOW KBr FOREPRISM-GRATING
##INSTRUMENT PARAMETERS=BLAZED AT 3.5, 12.0, 20.0 MICRON AND CHANGED AT 5.0, 7.5, 14.9 MICRON
##STATE=LIQUID (NEAT)
##PATH LENGTH=CAPILLARY
##SAMPLING PROCEDURE=TRANSMISSION
##RESOLUTION=2
##DATA PROCESSING=DIGITIZED BY COBLENTZ SOCIETY (BATCH I) FROM HARD COPY
##XUNITS=1/CM
##YUNITS=TRANSMITTANCE
##XFACTOR=1
##YFACTOR=1
##DELTAX=1
##FIRSTX=3800
##LASTX=455
##FIRSTY=0.9604
##MAXX=3800
##MINX=455
##MAXY=0.9641
##MINY=0.0615
##NPOINTS=3346
##XYDATA=(X++(Y..Y))
3800.000000 0.9604 0.9605 0.9607 0.9609 0.9611
3795.000000 0.9613 0.9616 0.9618 0.9621 0.9623
3790.000000 0.9625 0.9625 0.9625 0.9625 0.9625
3785.000000 0.9623 0.9621 0.9621 0.9620 0.9618
3780.000000 0.9617 0.9616 0.9615 0.9615 0.9615
3775.000000 0.9614 0.9614 0.9613 0.9613 0.9612
3770.000000 0.9612 0.9611 0.9611 0.9611 0.9611
3765.000000 0.9611 0.9612 0.9612 0.9613 0.9613
3760.000000 0.9614 0.9614 0.9615 0.9615 0.9615
3755.000000 0.9615 0.9616 0.9616 0.9617 0.9618
3750.000000 0.9618 0.9620 0.9621 0.9623 0.9625
3745.000000 0.9625 0.9628 0.9628 0.9631 0.9632
3740.000000 0.9634 0.9636 0.9638 0.9638 0.9639
3735.000000 0.9639 0.9640 0.9640 0.9640 0.9641
3730.000000 0.9641 0.9638 0.9635 0.9628 0.9623
3725.000000 0.9617 0.9611 0.9606 0.9602 0.9600
3720.000000 0.9598 0.9595 0.9593 0.9591 0.9589
3715.000000 0.9586 0.9584 0.9582 0.9581 0.9578
3710.000000 0.9577 0.9575 0.9574 0.9571 0.9570
3705.000000 0.9568 0.9567 0.9564 0.9562 0.9559
3700.000000 0.9557 0.9554 0.9552 0.9549 0.9547
3695.000000 0.9544 0.9542 0.9536 0.9530 0.9521
3690.000000 0.9514 0.9506 0.9498 0.9487 0.9477
3685.000000 0.9465 0.9454 0.9448 0.9442 0.9442
3680.000000 0.9442 0.9441 0.9439 0.9436 0.9433
3675.000000 0.9430 0.9427 0.9418 0.9411 0.9395
3670.000000 0.9378 0.9363 0.9347 0.9327 0.9307
3665.000000 0.9286 0.9265 0.9244 0.9224 0.9203
3660.000000 0.9182 0.9163 0.9144 0.9125 0.9107
3655.000000 0.9088 0.9068 0.9050 0.9032 0.9013
3650.000000 0.8994 0.8978 0.8963 0.8948 0.8934
3645.000000 0.8918 0.8905 0.8890 0.8875 0.8862
3640.000000 0.8848 0.8833 0.8818 0.8804 0.8790
3635.000000 0.8777 0.8764 0.8751 0.8738 0.8725
3630.000000 0.8713 0.8700 0.8687 0.8674 0.8661
3625.000000 0.8648 0.8636 0.8623 0.8610 0.8597
3620.000000 0.8585 0.8571 0.8559 0.8547 0.8536
3615.000000 0.8525 0.8516 0.8506 0.8496 0.8486
3610.000000 0.8475 0.8466 0.8456 0.8446 0.8436
3605.000000 0.8425 0.8416 0.8406 0.8396 0.8386
3600.000000 0.8375 0.8366 0.8356 0.8346 0.8337
3595.000000 0.8327 0.8318 0.8309 0.8300 0.8290
3590.000000 0.8281 0.8271 0.8262 0.8253 0.8244
3585.000000 0.8234 0.8225 0.8216 0.8207 0.8197
3580.000000 0.8188 0.8178 0.8168 0.8160 0.8151
3575.000000 0.8141 0.8132 0.8122 0.8114 0.8105
3570.000000 0.8096 0.8087 0.8078 0.8068 0.8060
3565.000000 0.8051 0.8042 0.8033 0.8024 0.8015
3560.000000 0.8006 0.7997 0.7988 0.7978 0.7968
3555.000000 0.7960 0.7951 0.7942 0.7933 0.7924
3550.000000 0.7915 0.7906 0.7897 0.7886 0.7875
3545.000000 0.7865 0.7855 0.7844 0.7834 0.7822
3540.000000 0.7812 0.7803 0.7793 0.7782 0.7771
3535.000000 0.7761 0.7751 0.7740 0.7730 0.7718
3530.000000 0.7708 0.7698 0.7688 0.7676 0.7667
3525.000000 0.7656 0.7646 0.7636 0.7625 0.7615
3520.000000 0.7606 0.7596 0.7587 0.7576 0.7568
3515.000000 0.7558 0.7549 0.7539 0.7530 0.7519
3510.000000 0.7511 0.7501 0.7493 0.7483 0.7474
3505.000000 0.7464 0.7455 0.7445 0.7436 0.7425
3500.000000 0.7417 0.7407 0.7398 0.7388 0.7378
3495.000000 0.7368 0.7358 0.7349 0.7340 0.7330
3490.000000 0.7321 0.7311 0.7301 0.7292 0.7282
3485.000000 0.7271 0.7262 0.7253 0.7244 0.7234
3480.000000 0.7225 0.7215 0.7205 0.7195 0.7185
3475.000000 0.7174 0.7162 0.7151 0.7142 0.7131
3470.000000 0.7121 0.7110 0.7099 0.7087 0.7075
3465.000000 0.7061 0.7049 0.7035 0.7021 0.7007
3460.000000 0.6994 0.6978 0.6965 0.6949 0.6934
3455.000000 0.6918 0.6905 0.6895 0.6885 0.6875
3450.000000 0.6865 0.6855 0.6845 0.6835 0.6825
3445.000000 0.6811 0.6800 0.6786 0.6772 0.6760
3440.000000 0.6747 0.6734 0.6721 0.6708 0.6695
3435.000000 0.6682 0.6668 0.6656 0.6644 0.6631
3430.000000 0.6618 0.6606 0.6594 0.6581 0.6568
3425.000000 0.6556 0.6544 0.6531 0.6518 0.6503
3420.000000 0.6488 0.6471 0.6456 0.6440 0.6424
3415.000000 0.6408 0.6392 0.6375 0.6358 0.6333
3410.000000 0.6308 0.6283 0.6258 0.6234 0.6210
3405.000000 0.6188 0.6165 0.6124 0.6083 0.6041
3400.000000 0.6000 0.5958 0.5917 0.5856 0.5795
3395.000000 0.5730 0.5666 0.5591 0.5517 0.5452
3390.000000 0.5388 0.5327 0.5266 0.5221 0.5177
3385.000000 0.5144 0.5110 0.5091 0.5071 0.5058
3380.000000 0.5045 0.5037 0.5029 0.5030 0.5008
3375.000000 0.5035 0.5040 0.5057 0.5074 0.5091
3370.000000 0.5108 0.5135 0.5162 0.5192 0.5223
3365.000000 0.5253 0.5284 0.5314 0.5345 0.5378
3360.000000 0.5410 0.5444 0.5478 0.5510 0.5544
3355.000000 0.5574 0.5605 0.5632 0.5659 0.5685
3350.000000 0.5712 0.5738 0.5764 0.5788 0.5812
3345.000000 0.5836 0.5860 0.5872 0.5884 0.5891
3340.000000 0.5899 0.5907 0.5938 0.5922 0.5930
3335.000000 0.5935 0.5941 0.5938 0.5936 0.5933
3330.000000 0.5930 0.5927 0.5925 0.5915 0.5906
3325.000000 0.5897 0.5888 0.5879 0.5870 0.5860
3320.000000 0.5851 0.5841 0.5831 0.5821 0.5810
3315.000000 0.5801 0.5791 0.5781 0.5771 0.5760
3310.000000 0.5751 0.5742 0.5662 0.5728 0.5723
3305.000000 0.5721 0.5719 0.5717 0.5715 0.5712
3300.000000 0.5712 0.5710 0.5709 0.5712 0.5716
3295.000000 0.5721 0.5726 0.5730 0.5735 0.5740
3290.000000 0.5745 0.5751 0.5758 0.5766 0.5774
3285.000000 0.5782 0.5790 0.5798 0.5806 0.5814
3280.000000 0.5822 0.5830 0.5838 0.5846 0.5854
3275.000000 0.5862 0.5870 0.5880 0.5890 0.5901
3270.000000 0.5912 0.5923 0.5934 0.5945 0.5956
3265.000000 0.5967 0.5978 0.5989 0.6001 0.6012
3260.000000 0.6023 0.6034 0.6046 0.6058 0.6070
3255.000000 0.6081 0.6093 0.6104 0.6116 0.6128
3250.000000 0.6140 0.6151 0.6162 0.6174 0.6186
3245.000000 0.6198 0.6210 0.6220 0.6230 0.6239
3240.000000 0.6248 0.6256 0.6265 0.6273 0.6281
3235.000000 0.6284 0.6287 0.6290 0.6293 0.6296
3230.000000 0.6299 0.6302 0.6305 0.6308 0.6310
3225.000000 0.6312 0.6315 0.6316 0.6317 0.6318
3220.000000 0.6320 0.6321 0.6322 0.6323 0.6325
3215.000000 0.6326 0.6328 0.6329 0.6330 0.6331
3210.000000 0.6333 0.6335 0.6337 0.6339 0.6341
3205.000000 0.6343 0.6345 0.6347 0.6349 0.6351
3200.000000 0.6354 0.6356 0.6358 0.6360 0.6362
3195.000000 0.6365 0.6368 0.6374 0.6380 0.6385
3190.000000 0.6391 0.6397 0.6403 0.6408 0.6414
3185.000000 0.6419 0.6425 0.6431 0.6437 0.6448
3180.000000 0.6458 0.6469 0.6482 0.6493 0.6505
3175.000000 0.6515 0.6528 0.6540 0.6551 0.6564
3170.000000 0.6576 0.6590 0.6604 0.6617 0.6631
3165.000000 0.6644 0.6658 0.6671 0.6685 0.6698
3160.000000 0.6711 0.6724 0.6738 0.6751 0.6765
3155.000000 0.6778 0.6793 0.6806 0.6819 0.6833
3150.000000 0.6847 0.6860 0.6874 0.6887 0.6901
3145.000000 0.6912 0.6925 0.6934 0.6944 0.6953
3140.000000 0.6962 0.6971 0.6982 0.6991 0.7001
3135.000000 0.7010 0.7019 0.7028 0.7039 0.7047
3130.000000 0.7056 0.7064 0.7071 0.7078 0.7087
3125.000000 0.7095 0.7103 0.7110 0.7118 0.7125
3120.000000 0.7133 0.7138 0.7144 0.7149 0.7155
3115.000000 0.7160 0.7165 0.7171 0.7175 0.7181
3110.000000 0.7187 0.7189 0.7191 0.7192 0.7194
3105.000000 0.7195 0.7197 0.7198 0.7199 0.7199
3100.000000 0.7198 0.7196 0.7195 0.7193 0.7234
3095.000000 0.7182 0.7171 0.7161 0.7151 0.7140
3090.000000 0.7128 0.7115 0.7103 0.7089 0.7075
3085.000000 0.7064 0.7051 0.7040 0.7028 0.7014
3080.000000 0.7000 0.6983 0.6965 0.6945 0.6924
3075.000000 0.6900 0.6875 0.6828 0.6781 0.6725
3070.000000 0.6671 0.6467 0.6264 0.6055 0.5847
3065.000000 0.5653 0.5459 0.5446 0.5433 0.5432
3060.000000 0.5426 0.5439 0.5448 0.5467 0.5486
3055.000000 0.5556 0.5626 0.5716 0.5806 0.5945
3050.000000 0.6084 0.6235 0.6387 0.6538 0.6690
3045.000000 0.6841 0.6992 0.7115 0.7239 0.7280
3040.000000 0.7321 0.7355 0.7390 0.7411 0.7433
3035.000000 0.7451 0.7468 0.7481 0.7493 0.7505
3030.000000 0.7518 0.7530 0.7542 0.7554 0.7567
3025.000000 0.7576 0.7587 0.7597 0.7607 0.7617
3020.000000 0.7626 0.7630 0.7633 0.7636 0.7640
3015.000000 0.7643 0.7647 0.7650 0.7693 0.7656
3010.000000 0.7660 0.7660 0.7661 0.7657 0.7653
3005.000000 0.7649 0.7646 0.7642 0.7638 0.7634
3000.000000 0.7631 0.7625 0.7621 0.7615 0.7611
2995.000000 0.7606 0.7601 0.7596 0.7591 0.7586
2990.000000 0.7581 0.7568 0.7556 0.7543 0.7530
2985.000000 0.7517 0.7504 0.7489 0.7474 0.7453
2980.000000 0.7432 0.7411 0.7391 0.7368 0.7345
2975.000000 0.7310 0.7275 0.7240 0.7205 0.7107
2970.000000 0.7008 0.6908 0.6810 0.6721 0.6634
2965.000000 0.6574 0.6514 0.6453 0.6393 0.6331
2960.000000 0.6269 0.6196 0.6124 0.5736 0.5348
2955.000000 0.5094 0.4841 0.4587 0.4333 0.4079
2950.000000 0.3826 0.3753 0.3680 0.3658 0.3636
2945.000000 0.3616 0.3596 0.3578 0.3560 0.3544
2940.000000 0.3527 0.3506 0.3484 0.3454 0.3424
2935.000000 0.3368 0.3312 0.3258 0.3205 0.3151
2930.000000 0.3098 0.3040 0.2983 0.2914 0.2845
2925.000000 0.2800 0.2734 0.2750 0.2750 0.2749
2920.000000 0.2754 0.2764 0.2774 0.2828 0.2882
2915.000000 0.2958 0.3034 0.3138 0.3242 0.3477
2910.000000 0.3712 0.3845 0.3979 0.4180 0.4381
2905.000000 0.4492 0.4603 0.4672 0.4741 0.4801
2900.000000 0.4862 0.4914 0.4966 0.5006 0.5046
2895.000000 0.5088 0.5130 0.5174 0.5218 0.5235
2890.000000 0.5252 0.5258 0.5300 0.5265 0.5265
2885.000000 0.5264 0.5262 0.5254 0.5246 0.5218
2880.000000 0.5190 0.5155 0.5120 0.5084 0.5048
2875.000000 0.5010 0.4972 0.4904 0.4837 0.4783
2870.000000 0.4729 0.4692 0.4656 0.4612 0.4570
2865.000000 0.4476 0.4382 0.4318 0.4254 0.4123
2860.000000 0.3993 0.3893 0.3794 0.3743 0.3693
2855.000000 0.3682 0.3672 0.3671 0.3679 0.3693
2850.000000 0.3716 0.4068 0.4420 0.4622 0.4824
2845.000000 0.5025 0.5227 0.5429 0.5631 0.5833
2840.000000 0.6035 0.6270 0.6506 0.6626 0.6749
2835.000000 0.6838 0.6926 0.6998 0.7069 0.7140
2830.000000 0.7211 0.7260 0.7310 0.7350 0.7390
2825.000000 0.7430 0.7471 0.7511 0.7551 0.7587
2820.000000 0.7622 0.7657 0.7691 0.7725 0.7760
2815.000000 0.7798 0.7836 0.7880 0.7924 0.7968
2810.000000 0.8012 0.8054 0.8095 0.8128 0.8161
2805.000000 0.8193 0.8225 0.8242 0.8258 0.8271
2800.000000 0.8284 0.8296 0.8309 0.8318 0.8328
2795.000000 0.8335 0.8342 0.8349 0.8357 0.8364
2790.000000 0.8371 0.8378 0.8388 0.8398 0.8408
2785.000000 0.8417 0.8427 0.8437 0.8447 0.8457
2780.000000 0.8467 0.8475 0.8484 0.8492 0.8500
2775.000000 0.8507 0.8515 0.8523 0.8531 0.8538
2770.000000 0.8546 0.8553 0.8561 0.8568 0.8575
2765.000000 0.8582 0.8589 0.8596 0.8603 0.8610
2760.000000 0.8617 0.8624 0.8631 0.8638 0.8645
2755.000000 0.8652 0.8659 0.8666 0.8673 0.8678
2750.000000 0.8683 0.8687 0.8692 0.8697 0.8702
2745.000000 0.8707 0.8712 0.8717 0.8721 0.8727
2740.000000 0.8732 0.8735 0.8739 0.8741 0.8743
2735.000000 0.8744 0.8746 0.8747 0.8747 0.8748
2730.000000 0.8747 0.8744 0.8741 0.8738 0.8735
2725.000000 0.8730 0.8725 0.8720 0.8715 0.8710
2720.000000 0.8705 0.8701 0.8698 0.8694 0.8690
2715.000000 0.8686 0.8683 0.8684 0.8685 0.8686
2710.000000 0.8687 0.8688 0.8689 0.8691 0.8694
2705.000000 0.8701 0.8708 0.8715 0.8723 0.8734
2700.000000 0.8746 0.8757 0.8768 0.8780 0.8792
2695.000000 0.8801 0.8810 0.8815 0.8820 0.8825
2690.000000 0.8831 0.8836 0.8841 0.8846 0.8851
2685.000000 0.8856 0.8862 0.8865 0.8868 0.8871
2680.000000 0.8874 0.8875 0.8878 0.8882 0.8885
2675.000000 0.8888 0.8891 0.8891 0.8891 0.8890
2670.000000 0.8889 0.8888 0.8887 0.8886 0.8885
2665.000000 0.8884 0.8883 0.8880 0.8878 0.8874
2660.000000 0.8871 0.8868 0.8865 0.8860 0.8856
2655.000000 0.8851 0.8846 0.8841 0.8836 0.8834
2650.000000 0.8832 0.8831 0.8831 0.8830 0.8828
2645.000000 0.8828 0.8828 0.8831 0.8835 0.8838
2640.000000 0.8842 0.8845 0.8848 0.8851 0.8855
2635.000000 0.8863 0.8871 0.8880 0.8889 0.8898
2630.000000 0.8907 0.8916 0.8925 0.8934 0.8943
2625.000000 0.8952 0.8961 0.8971 0.8981 0.8991
2620.000000 0.9001 0.9011 0.9021 0.9031 0.9041
2615.000000 0.9050 0.9059 0.9064 0.9068 0.9074
2610.000000 0.9078 0.9084 0.9089 0.9094 0.9099
2605.000000 0.9104 0.9109 0.9112 0.9116 0.9117
2600.000000 0.9118 0.9120 0.9121 0.9121 0.9123
2595.000000 0.9124 0.9125 0.9125 0.9128 0.9128
2590.000000 0.9130 0.9131 0.9132 0.9133 0.9134
2585.000000 0.9134 0.9135 0.9135 0.9135 0.9135
2580.000000 0.9135 0.9135 0.9135 0.9135 0.9135
2575.000000 0.9135 0.9135 0.9135 0.9135 0.9135
2570.000000 0.9135 0.9135 0.9135 0.9134 0.9134
2565.000000 0.9134 0.9134 0.9134 0.9134 0.9134
2560.000000 0.9134 0.9134 0.9135 0.9135 0.9136
2555.000000 0.9136 0.9136 0.9136 0.9137 0.9137
2550.000000 0.9138 0.9138 0.9139 0.9139 0.9140
2545.000000 0.9140 0.9140 0.9140 0.9141 0.9142
2540.000000 0.9143 0.9145 0.9147 0.9149 0.9151
2535.000000 0.9152 0.9154 0.9156 0.9158 0.9159
2530.000000 0.9161 0.9163 0.9165 0.9166 0.9168
2525.000000 0.9170 0.9171 0.9174 0.9175 0.9178
2520.000000 0.9180 0.9182 0.9184 0.9186 0.9188
2515.000000 0.9190 0.9192 0.9194 0.9196 0.9198
2510.000000 0.9201 0.9201 0.9202 0.9202 0.9202
2505.000000 0.9201 0.9201 0.9201 0.9201 0.9201
2500.000000 0.9201 0.9201 0.9201 0.9201 0.9201
2495.000000 0.9201 0.9201 0.9201 0.9201 0.9199
2490.000000 0.9198 0.9196 0.9195 0.9193 0.9192
2485.000000 0.9190 0.9189 0.9187 0.9186 0.9184
2480.000000 0.9183 0.9181 0.9180 0.9178 0.9175
2475.000000 0.9175 0.9175 0.9177 0.9178 0.9180
2470.000000 0.9181 0.9182 0.9184 0.9185 0.9186
2465.000000 0.9187 0.9188 0.9189 0.9191 0.9192
2460.000000 0.9193 0.9194 0.9196 0.9197 0.9198
2455.000000 0.9198 0.9199 0.9199 0.9200 0.9200
2450.000000 0.9200 0.9200 0.9200 0.9200 0.9201
2445.000000 0.9201 0.9201 0.9201 0.9202 0.9202
2440.000000 0.9202 0.9202 0.9203 0.9203 0.9203
2435.000000 0.9203 0.9204 0.9204 0.9204 0.9204
2430.000000 0.9205 0.9205 0.9205 0.9205 0.9205
2425.000000 0.9205 0.9206 0.9206 0.9206 0.9206
2420.000000 0.9206 0.9206 0.9207 0.9207 0.9207
2415.000000 0.9207 0.9207 0.9207 0.9208 0.9208
2410.000000 0.9208 0.9208 0.9208 0.9208 0.9209
2405.000000 0.9210 0.9212 0.9213 0.9214 0.9215
2400.000000 0.9216 0.9217 0.9218 0.9218 0.9220
2395.000000 0.9221 0.9223 0.9224 0.9225 0.9228
2390.000000 0.9231 0.9234 0.9237 0.9239 0.9242
2385.000000 0.9245 0.9248 0.9250 0.9253 0.9256
2380.000000 0.9259 0.9261 0.9263 0.9265 0.9267
2375.000000 0.9268 0.9271 0.9273 0.9275 0.9277
2370.000000 0.9278 0.9281 0.9283 0.9285 0.9287
2365.000000 0.9287 0.9287 0.9287 0.9286 0.9284
2360.000000 0.9283 0.9282 0.9281 0.9280 0.9278
2355.000000 0.9278 0.9277 0.9274 0.9271 0.9268
2350.000000 0.9265 0.9261 0.9258 0.9255 0.9252
2345.000000 0.9248 0.9245 0.9242 0.9239 0.9233
2340.000000 0.9227 0.9220 0.9214 0.9207 0.9201
2335.000000 0.9195 0.9189 0.9182 0.9175 0.9168
2330.000000 0.9163 0.9156 0.9150 0.9143 0.9136
2325.000000 0.9130 0.9124 0.9118 0.9112 0.9106
2320.000000 0.9100 0.9094 0.9089 0.9083 0.9077
2315.000000 0.9071 0.9068 0.9065 0.9062 0.9059
2310.000000 0.9056 0.9053 0.9053 0.9054 0.9058
2305.000000 0.9062 0.9066 0.9068 0.9073 0.9077
2300.000000 0.9081 0.9084 0.9088 0.9090 0.9092
2295.000000 0.9094 0.9097 0.9099 0.9102 0.9104
2290.000000 0.9106 0.9108 0.9111 0.9113 0.9115
2285.000000 0.9117 0.9120 0.9121 0.9123 0.9123
2280.000000 0.9124 0.9124 0.9124 0.9124 0.9124
2275.000000 0.9124 0.9125 0.9125 0.9125 0.9125
2270.000000 0.9125 0.9125 0.9125 0.9125 0.9125
2265.000000 0.9125 0.9127 0.9127 0.9127 0.9127
2260.000000 0.9128 0.9128 0.9128 0.9128 0.9128
2255.000000 0.9128 0.9128 0.9128 0.9127 0.9125
2250.000000 0.9124 0.9121 0.9120 0.9118 0.9117
2245.000000 0.9115 0.9113 0.9111 0.9110 0.9108
2240.000000 0.9106 0.9103 0.9101 0.9098 0.9096
2235.000000 0.9093 0.9091 0.9088 0.9086 0.9085
2230.000000 0.9084 0.9083 0.9082 0.9080 0.9080
2225.000000 0.9080 0.9082 0.9085 0.9089 0.9092
2220.000000 0.9096 0.9097 0.9099 0.9099 0.9100
2215.000000 0.9100 0.9101 0.9101 0.9102 0.9102
2210.000000 0.9103 0.9103 0.9104 0.9104 0.9105
2205.000000 0.9105 0.9105 0.9105 0.9106 0.9106
2200.000000 0.9107 0.9107 0.9108 0.9108 0.9109
2195.000000 0.9109 0.9109 0.9109 0.9108 0.9107
2190.000000 0.9106 0.9105 0.9104 0.9102 0.9101
2185.000000 0.9100 0.9099 0.9098 0.9097 0.9096
2180.000000 0.9095 0.9094 0.9093 0.9092 0.9091
2175.000000 0.9090 0.9089 0.9088 0.9087 0.9086
2170.000000 0.9085 0.9081 0.9078 0.9073 0.9068
2165.000000 0.9064 0.9059 0.9054 0.9049 0.9044
2160.000000 0.9040 0.9035 0.9030 0.9025 0.9020
2155.000000 0.9015 0.9011 0.9006 0.9001 0.8996
2150.000000 0.8991 0.8986 0.8981 0.8978 0.8977
2145.000000 0.8975 0.8974 0.8971 0.8971 0.8968
2140.000000 0.8968 0.8966 0.8965 0.8964 0.8964
2135.000000 0.8965 0.8968 0.8971 0.8975 0.8978
2130.000000 0.8982 0.8985 0.8988 0.8992 0.8996
2125.000000 0.9000 0.9005 0.9010 0.9015 0.9018
2120.000000 0.9024 0.9028 0.9033 0.9037 0.9042
2115.000000 0.9045 0.9049 0.9052 0.9056 0.9060
2110.000000 0.9064 0.9067 0.9071 0.9074 0.9078
2105.000000 0.9081 0.9085 0.9088 0.9092 0.9095
2100.000000 0.9098 0.9099 0.9100 0.9101 0.9103
2095.000000 0.9104 0.9106 0.9107 0.9108 0.9109
2090.000000 0.9111 0.9111 0.9111 0.9110 0.9109
2085.000000 0.9108 0.9107 0.9106 0.9105 0.9104
2080.000000 0.9103 0.9102 0.9101 0.9100 0.9099
2075.000000 0.9098 0.9097 0.9096 0.9095 0.9093
2070.000000 0.9092 0.9091 0.9090 0.9089 0.9088
2065.000000 0.9086 0.9085 0.9084 0.9083 0.9082
2060.000000 0.9081 0.9081 0.9081 0.9080 0.9080
2055.000000 0.9080 0.9080 0.9078 0.9078 0.9078
2050.000000 0.9078 0.9078 0.9078 0.9077 0.9077
2045.000000 0.9077 0.9077 0.9077 0.9077 0.9075
2040.000000 0.9075 0.9075 0.9075 0.9075 0.9075
2035.000000 0.9075 0.9075 0.9075 0.9075 0.9075
2030.000000 0.9075 0.9075 0.9075 0.9075 0.9075
2025.000000 0.9075 0.9075 0.9075 0.9075 0.9075
2020.000000 0.9075 0.9075 0.9075 0.9075 0.9075
2015.000000 0.9075 0.9075 0.9075 0.9075 0.9074
2010.000000 0.9073 0.9071 0.9070 0.9068 0.9067
2005.000000 0.9066 0.9065 0.9063 0.9062 0.9058
2000.000000 0.9054 0.9047 0.9039 0.9031 0.9024
1995.000000 0.9016 0.9009 0.9002 0.8995 0.8988
1990.000000 0.8981 0.8975 0.8971 0.8968 0.8966
1985.000000 0.8962 0.8955 0.8948 0.8941 0.8934
1980.000000 0.8931 0.8932 0.8932 0.8933 0.8933
1975.000000 0.8934 0.8934 0.8935 0.8935 0.8936
1970.000000 0.8936 0.8937 0.8937 0.8938 0.8938
1965.000000 0.8939 0.8939 0.8940 0.8940 0.8941
1960.000000 0.8941 0.8942 0.8942 0.8942 0.8942
1955.000000 0.8942 0.8943 0.8943 0.8943 0.8943
1950.000000 0.8943 0.8943 0.8944 0.8944 0.8947
1945.000000 0.8951 0.8956 0.8960 0.8965 0.8970
1940.000000 0.8974 0.8978 0.8984 0.8987 0.8991
1935.000000 0.8995 0.8999 0.9003 0.9003 0.9003
1930.000000 0.9002 0.9002 0.9001 0.9000 0.8999
1925.000000 0.8998 0.8997 0.8996 0.8996 0.8995
1920.000000 0.8994 0.8993 0.8992 0.8992 0.8992
1915.000000 0.8992 0.8995 0.8997 0.9000 0.9002
1910.000000 0.9004 0.9007 0.9009 0.9011 0.9014
1905.000000 0.9016 0.9018 0.9021 0.9023 0.9025
1900.000000 0.9028 0.9031 0.9033 0.9035 0.9036
1895.000000 0.9037 0.9038 0.9040 0.9041 0.9042
1890.000000 0.9044 0.9045 0.9046 0.9047 0.9049
1885.000000 0.9050 0.9051 0.9051 0.9051 0.9049
1880.000000 0.9047 0.9044 0.9042 0.9040 0.9038
1875.000000 0.9036 0.9036 0.9036 0.9036 0.9036
1870.000000 0.9036 0.9036 0.9037 0.9037 0.9037
1865.000000 0.9037 0.9037 0.9038 0.9038 0.9038
1860.000000 0.9037 0.9035 0.9034 0.9032 0.9031
1855.000000 0.9028 0.9027 0.9025 0.9024 0.9023
1850.000000 0.9021 0.9018 0.9013 0.9008 0.9004
1845.000000 0.8999 0.8994 0.8989 0.8985 0.8980
1840.000000 0.8975 0.8970 0.8966 0.8963 0.8961
1835.000000 0.8958 0.8956 0.8954 0.8951 0.8949
1830.000000 0.8947 0.8944 0.8942 0.8939 0.8937
1825.000000 0.8936 0.8936 0.8936 0.8937 0.8938
1820.000000 0.8939 0.8940 0.8941 0.8942 0.8946
1815.000000 0.8950 0.8954 0.8957 0.8961 0.8965
1810.000000 0.8968 0.8973 0.8977 0.8982 0.8988
1805.000000 0.8993 0.8998 0.9004 0.9009 0.9014
1800.000000 0.9018 0.9023 0.9027 0.9031 0.9035
1795.000000 0.9039 0.9043 0.9042 0.9041 0.9040
1790.000000 0.9038 0.9030 0.9023 0.9017 0.9010
1785.000000 0.9004 0.9001 0.9000 0.9000 0.9000
1780.000000 0.9000 0.9003 0.9007 0.9010 0.9014
1775.000000 0.9016 0.9016 0.9016 0.9016 0.9016
1770.000000 0.9016 0.9016 0.9017 0.9018 0.9018
1765.000000 0.9018 0.9018 0.9016 0.9014 0.9012
1760.000000 0.9007 0.9000 0.8992 0.8985 0.8977
1755.000000 0.8958 0.8938 0.8918 0.8899 0.8877
1750.000000 0.8852 0.8827 0.8802 0.8786 0.8771
1745.000000 0.8759 0.8745 0.8731 0.8718 0.8714
1740.000000 0.8709 0.8705 0.8700 0.8697 0.8695
1735.000000 0.8693 0.8692 0.8690 0.8689 0.8688
1730.000000 0.8687 0.8686 0.8685 0.8685 0.8686
1725.000000 0.8686 0.8689 0.8692 0.8695 0.8698
1720.000000 0.8699 0.8696 0.8694 0.8692 0.8690
1715.000000 0.8687 0.8681 0.8670 0.8660 0.8650
1710.000000 0.8640 0.8630 0.8613 0.8595 0.8577
1705.000000 0.8559 0.8541 0.8521 0.8499 0.8475
1700.000000 0.8454 0.8432 0.8408 0.8384 0.8360
1695.000000 0.8336 0.8312 0.8288 0.8265 0.8241
1690.000000 0.8201 0.8161 0.8119 0.8064 0.8007
1685.000000 0.7950 0.7893 0.7837 0.7791 0.7749
1680.000000 0.7708 0.7665 0.7625 0.7583 0.7538
1675.000000 0.7482 0.7426 0.7371 0.7301 0.7211
1670.000000 0.7121 0.7011 0.6887 0.6774 0.6668
1665.000000 0.6558 0.6369 0.6152 0.5931 0.5734
1660.000000 0.5221 0.4745 0.3823 0.3312 0.2811
1655.000000 0.2310 0.1808 0.1307 0.0875 0.0814
1650.000000 0.0802 0.0836 0.0882 0.1044 0.1170
1645.000000 0.1283 0.2378 0.2738 0.3103 0.3470
1640.000000 0.3837 0.4204 0.4415 0.4894 0.5160
1635.000000 0.5334 0.5492 0.5657 0.5854 0.6047
1630.000000 0.6144 0.6236 0.6321 0.6346 0.6360
1625.000000 0.6360 0.6355 0.6343 0.6327 0.6315
1620.000000 0.6315 0.6354 0.6421 0.6487 0.6537
1615.000000 0.6586 0.6605 0.6625 0.6624 0.6621
1610.000000 0.6617 0.6612 0.6599 0.6581 0.6562
1605.000000 0.6545 0.6532 0.6519 0.6508 0.6496
1600.000000 0.6484 0.6471 0.6445 0.6451 0.6450
1595.000000 0.6447 0.6445 0.6442 0.6453 0.6482
1590.000000 0.6511 0.6541 0.6590 0.6640 0.6691
1585.000000 0.6741 0.6792 0.6851 0.6911 0.6971
1580.000000 0.7032 0.7092 0.7145 0.7195 0.7244
1575.000000 0.7293 0.7342 0.7392 0.7436 0.7478
1570.000000 0.7521 0.7564 0.7607 0.7649 0.7692
1565.000000 0.7730 0.7761 0.7791 0.7821 0.7853
1560.000000 0.7884 0.7914 0.7945 0.7968 0.7991
1555.000000 0.8012 0.8035 0.8057 0.8080 0.8101
1550.000000 0.8124 0.8146 0.8168 0.8191 0.8213
1545.000000 0.8235 0.8253 0.8268 0.8282 0.8297
1540.000000 0.8311 0.8325 0.8341 0.8355 0.8370
1535.000000 0.8384 0.8397 0.8411 0.8424 0.8438
1530.000000 0.8451 0.8464 0.8478 0.8491 0.8505
1525.000000 0.8518 0.8528 0.8541 0.8552 0.8563
1520.000000 0.8575 0.8586 0.8594 0.8602 0.8609
1515.000000 0.8617 0.8625 0.8628 0.8631 0.8633
1510.000000 0.8635 0.8637 0.8639 0.8642 0.8644
1505.000000 0.8646 0.8646 0.8646 0.8645 0.8644
1500.000000 0.8644 0.8643 0.8643 0.8642 0.8642
1495.000000 0.8636 0.8631 0.8625 0.8620 0.8615
1490.000000 0.8607 0.8597 0.8586 0.8575 0.8566
1485.000000 0.8555 0.8544 0.8532 0.8520 0.8509
1480.000000 0.8497 0.8481 0.8457 0.8434 0.8411
1475.000000 0.8386 0.8360 0.8334 0.8308 0.8281
1470.000000 0.8247 0.8213 0.8178 0.8138 0.8090
1465.000000 0.8042 0.7990 0.7936 0.7882 0.7808
1460.000000 0.7725 0.7634 0.7383 0.7265 0.7158
1455.000000 0.7051 0.6901 0.6774 0.6757 0.6747
1450.000000 0.6768 0.6744 0.6861 0.7044 0.7125
1445.000000 0.7188 0.7214 0.7226 0.7231 0.7212
1440.000000 0.7192 0.7168 0.7148 0.7115 0.7131
1435.000000 0.7321 0.7578 0.7743 0.7899 0.8024
1430.000000 0.8118 0.8184 0.8243 0.8288 0.8333
1425.000000 0.8378 0.8410 0.8442 0.8464 0.8478
1420.000000 0.8517 0.8494 0.8496 0.8498 0.8500
1415.000000 0.8488 0.8475 0.8465 0.8460 0.8455
1410.000000 0.8450 0.8445 0.8441 0.8436 0.8433
1405.000000 0.8430 0.8418 0.8391 0.8364 0.8328
1400.000000 0.8292 0.8255 0.8212 0.8167 0.8121
1395.000000 0.8083 0.8045 0.7985 0.7919 0.7865
1390.000000 0.7826 0.7815 0.7808 0.7799 0.7755
1385.000000 0.7738 0.7728 0.7726 0.7733 0.7775
1380.000000 0.7838 0.7887 0.7936 0.7984 0.8032
1375.000000 0.8055 0.8068 0.8083 0.8093 0.8101
1370.000000 0.8111 0.8180 0.8125 0.8131 0.8131
1365.000000 0.8131 0.8097 0.8049 0.8007 0.7969
1360.000000 0.7934 0.7898 0.7861 0.7826 0.7796
1355.000000 0.7774 0.7751 0.7731 0.7728 0.7719
1350.000000 0.7711 0.7711 0.7715 0.7717 0.7741
1345.000000 0.7769 0.7801 0.7833 0.7865 0.7901
1340.000000 0.7945 0.7965 0.8028 0.7992 0.7975
1335.000000 0.7958 0.7910 0.7861 0.7818 0.7596
1330.000000 0.7680 0.7641 0.7639 0.7718 0.7860
1325.000000 0.7989 0.8083 0.8137 0.8192 0.8248
1320.000000 0.8300 0.8308 0.8317 0.8325 0.8331
1315.000000 0.8338 0.8344 0.8351 0.8357 0.8363
1310.000000 0.8368 0.8374 0.8378 0.8385 0.8391
1305.000000 0.8396 0.8401 0.8402 0.8403 0.8405
1300.000000 0.8394 0.8383 0.8371 0.8358 0.8346
1295.000000 0.8333 0.8316 0.8297 0.8278 0.8259
1290.000000 0.8239 0.8218 0.8193 0.8168 0.8145
1285.000000 0.8136 0.8125 0.8132 0.8156 0.8188
1280.000000 0.8225 0.8249 0.8266 0.8267 0.8254
1275.000000 0.8241 0.8225 0.8209 0.8194 0.8171
1270.000000 0.8131 0.8090 0.8050 0.8006 0.7956
1265.000000 0.7905 0.7855 0.7797 0.7714 0.7632
1260.000000 0.7535 0.7421 0.7308 0.7122 0.6878
1255.000000 0.6125 0.5591 0.4932 0.4587 0.4424
1250.000000 0.4289 0.4172 0.4072 0.2655 0.1876
1245.000000 0.1096 0.0671 0.0615 0.0616 0.0616
1240.000000 0.0678 0.0878 0.1334 0.1789 0.2245
1235.000000 0.2701 0.3156 0.3799 0.3875 0.3902
1230.000000 0.3932 0.3966 0.4000 0.4095 0.4194
1225.000000 0.4409 0.5149 0.5632 0.5882 0.6138
1220.000000 0.6394 0.6649 0.6905 0.7174 0.7384
1215.000000 0.7565 0.7771 0.7882 0.7947 0.8001
1210.000000 0.8018 0.8036 0.8054 0.8078 0.8106
1205.000000 0.8143 0.8180 0.8218 0.8286 0.8338
1200.000000 0.8384 0.8421 0.8454 0.8471 0.8488
1195.000000 0.8490 0.8490 0.8490 0.8489 0.8478
1190.000000 0.8463 0.8447 0.8425 0.8403 0.8380
1185.000000 0.8358 0.8336 0.8320 0.8305 0.8292
1180.000000 0.8267 0.8298 0.8311 0.8345 0.8378
1175.000000 0.8405 0.8413 0.8390 0.8421 0.8412
1170.000000 0.8378 0.8338 0.8301 0.8283 0.8268
1165.000000 0.8265 0.8261 0.8273 0.8309 0.8409
1160.000000 0.8485 0.8551 0.8593 0.8635 0.8657
1155.000000 0.8675 0.8693 0.8703 0.8708 0.8714
1150.000000 0.8720 0.8723 0.8731 0.8718 0.8708
1145.000000 0.8697 0.8680 0.8659 0.8633 0.8606
1140.000000 0.8578 0.8568 0.8568 0.8574 0.8580
1135.000000 0.8580 0.8578 0.8574 0.8550 0.8527
1130.000000 0.8475 0.8432 0.8392 0.8357 0.8351
1125.000000 0.8350 0.8349 0.8350 0.8351 0.8321
1120.000000 0.8277 0.8221 0.8168 0.8131 0.8095
1115.000000 0.8069 0.8051 0.8033 0.8021 0.8011
1110.000000 0.8001 0.7992 0.7990 0.7990 0.7990
1105.000000 0.7982 0.7972 0.7951 0.7915 0.7881
1100.000000 0.7826 0.7769 0.7704 0.7633 0.7554
1095.000000 0.7472 0.7385 0.7297 0.7182 0.7057
1090.000000 0.6718 0.6561 0.6401 0.6243 0.6085
1085.000000 0.5912 0.4862 0.4560 0.4449 0.4150
1080.000000 0.3562 0.2975 0.2388 0.2228 0.1965
1075.000000 0.1771 0.1577 0.1399 0.1196 0.1022
1070.000000 0.0815 0.0731 0.0697 0.0716 0.0679
1065.000000 0.0695 0.0736 0.0852 0.1126 0.1604
1060.000000 0.2048 0.2539 0.2785 0.3041 0.3344
1055.000000 0.3682 0.3968 0.4254 0.4540 0.4826
1050.000000 0.5112 0.5398 0.5632 0.5695 0.5751
1045.000000 0.5734 0.5735 0.5660 0.5425 0.5396
1040.000000 0.5369 0.5379 0.5401 0.5479 0.5562
1035.000000 0.5647 0.5732 0.5809 0.5886 0.5975
1030.000000 0.6112 0.6240 0.6356 0.6461 0.6535
1025.000000 0.6688 0.6841 0.6994 0.7148 0.7301
1020.000000 0.7454 0.7571 0.7633 0.7665 0.7689
1015.000000 0.7705 0.7721 0.7735 0.7743 0.7751
1010.000000 0.7758 0.7765 0.7771 0.7784 0.7780
1005.000000 0.7780 0.7780 0.7778 0.7767 0.7757
1000.000000 0.7746 0.7718 0.7690 0.7628 0.7556
995.000000 0.7471 0.7308 0.7128 0.6992 0.6853
990.000000 0.6756 0.6725 0.6726 0.6728 0.6733
985.000000 0.6739 0.6748 0.6771 0.6834 0.6918
980.000000 0.7000 0.7038 0.7061 0.7064 0.7071
975.000000 0.7019 0.6956 0.6888 0.6821 0.6762
970.000000 0.6706 0.6658 0.6632 0.6606 0.6580
965.000000 0.6553 0.6526 0.6500 0.6472 0.6415
960.000000 0.6327 0.6270 0.6212 0.6155 0.6108
955.000000 0.6069 0.6030 0.5991 0.5952 0.5912
950.000000 0.5872 0.5814 0.5755 0.5697 0.5641
945.000000 0.5589 0.5537 0.5485 0.5434 0.5400
940.000000 0.5366 0.5332 0.5300 0.5279 0.5258
935.000000 0.5245 0.5245 0.5245 0.5262 0.5290
930.000000 0.5334 0.5395 0.5458 0.5527 0.5596
925.000000 0.5662 0.5723 0.5782 0.5830 0.5869
920.000000 0.5869 0.5869 0.5906 0.5793 0.5717
915.000000 0.5641 0.5557 0.5466 0.5399 0.5342
910.000000 0.5287 0.5249 0.5212 0.5175 0.5157
905.000000 0.5138 0.5119 0.5101 0.5059 0.5059
900.000000 0.5059 0.5066 0.5091 0.5134 0.5176
895.000000 0.5246 0.5288 0.5325 0.5349 0.5410
890.000000 0.5377 0.5377 0.5375 0.5367 0.5360
885.000000 0.5351 0.5324 0.5292 0.5241 0.5192
880.000000 0.5152 0.5119 0.5115 0.5144 0.5118
875.000000 0.5151 0.5182 0.5207 0.5233 0.5258
870.000000 0.5283 0.5310 0.5338 0.5365 0.5392
865.000000 0.5419 0.5446 0.5471 0.5488 0.5506
860.000000 0.5524 0.5542 0.5559 0.5577 0.5595
855.000000 0.5612 0.5630 0.5648 0.5666 0.5685
850.000000 0.5703 0.5722 0.5740 0.5758 0.5777
845.000000 0.5795 0.5818 0.5849 0.5880 0.5910
840.000000 0.5942 0.5972 0.6003 0.6038 0.6073
835.000000 0.6107 0.6142 0.6177 0.6210 0.6245
830.000000 0.6277 0.6310 0.6343 0.6376 0.6408
825.000000 0.6439 0.6467 0.6494 0.6521 0.6543
820.000000 0.6560 0.6575 0.6593 0.6598 0.6599
815.000000 0.6599 0.6586 0.6589 0.6575 0.6557
810.000000 0.6539 0.6512 0.6449 0.6384 0.6281
805.000000 0.6109 0.6166 0.6135 0.6121 0.6125
800.000000 0.6136 0.6145 0.6151 0.6151 0.6150
795.000000 0.6149 0.6149 0.6179 0.6267 0.6362
790.000000 0.6434 0.6496 0.6558 0.6622 0.6689
785.000000 0.6753 0.6814 0.6875 0.6931 0.6975
780.000000 0.7018 0.7061 0.7095 0.7125 0.7157
775.000000 0.7180 0.7198 0.7215 0.7233 0.7251
770.000000 0.7315 0.7285 0.7276 0.7237 0.7197
765.000000 0.7145 0.7082 0.7010 0.6899 0.6791
760.000000 0.6695 0.6600 0.6510 0.6426 0.6345
755.000000 0.6269 0.6207 0.6145 0.6085 0.6029
750.000000 0.5972 0.5941 0.5943 0.5967 0.6001
745.000000 0.6032 0.6048 0.6048 0.6010 0.5940
740.000000 0.5839 0.5748 0.5593 0.5402 0.5210
735.000000 0.5020 0.4829 0.4638 0.4446 0.4255
730.000000 0.4064 0.3816 0.3759 0.3768 0.3775
725.000000 0.3798 0.3859 0.4032 0.4253 0.4350
720.000000 0.4447 0.4551 0.4826 0.5312 0.5801
715.000000 0.6288 0.6528 0.6648 0.6786 0.7015
710.000000 0.7125 0.7228 0.7303 0.7375 0.7417
705.000000 0.7460 0.7498 0.7525 0.7551 0.7578
700.000000 0.7606 0.7626 0.7648 0.7668 0.7690
695.000000 0.7711 0.7724 0.7737 0.7750 0.7761
690.000000 0.7775 0.7787 0.7794 0.7801 0.7808
685.000000 0.7815 0.7821 0.7828 0.7836 0.7843
680.000000 0.7851 0.7858 0.7862 0.7867 0.7871
675.000000 0.7875 0.7878 0.7887 0.7897 0.7917
670.000000 0.7953 0.8005 0.8036 0.8041 0.8041
665.000000 0.8042 0.8042 0.8043 0.8043 0.8043
660.000000 0.8044 0.8043 0.8042 0.8042 0.8041
655.000000 0.8041 0.8040 0.8040 0.8039 0.8039
650.000000 0.8040 0.8040 0.8041 0.8042 0.8043
645.000000 0.8043 0.8044 0.8045 0.8046 0.8041
640.000000 0.8034 0.8008 0.7978 0.7947 0.7915
635.000000 0.7884 0.7854 0.7826 0.7801 0.7775
630.000000 0.7748 0.7721 0.7698 0.7676 0.7662
625.000000 0.7638 0.7668 0.7689 0.7708 0.7730
620.000000 0.7757 0.7784 0.7810 0.7837 0.7864
615.000000 0.7885 0.7897 0.7908 0.7919 0.7932
610.000000 0.7944 0.7955 0.7967 0.7978 0.7991
605.000000 0.7999 0.8005 0.8011 0.8017 0.8022
600.000000 0.8028 0.8035 0.8041 0.8046 0.8051
595.000000 0.8058 0.8064 0.8069 0.8074 0.8078
590.000000 0.8083 0.8087 0.8091 0.8095 0.8100
585.000000 0.8104 0.8107 0.8108 0.8108 0.8110
580.000000 0.8111 0.8112 0.8142 0.8115 0.8117
575.000000 0.8118 0.8118 0.8119 0.8121 0.8121
570.000000 0.8121 0.8121 0.8121 0.8121 0.8121
565.000000 0.8119 0.8118 0.8111 0.8106 0.8100
560.000000 0.8093 0.8086 0.8080 0.8072 0.8064
555.000000 0.8055 0.8046 0.8035 0.8022 0.8011
550.000000 0.7999 0.7986 0.7974 0.7960 0.7946
545.000000 0.7932 0.7911 0.7891 0.7869 0.7849
540.000000 0.7821 0.7792 0.7764 0.7735 0.7694
535.000000 0.7648 0.7603 0.7558 0.7515 0.7471
530.000000 0.7435 0.7400 0.7365 0.7330 0.7295
525.000000 0.7255 0.7193 0.7131 0.7078 0.7028
520.000000 0.6980 0.6919 0.6857 0.6807 0.6792
515.000000 0.6781 0.6786 0.6911 0.7110 0.7268
510.000000 0.7371 0.7443 0.7489 0.7533 0.7567
505.000000 0.7601 0.7628 0.7649 0.7668 0.7683
500.000000 0.7692 0.7778 0.7700 0.7699 0.7667
495.000000 0.7617 0.7562 0.7503 0.7443 0.7364
490.000000 0.7268 0.7143 0.7025 0.6946 0.6890
485.000000 0.6838 0.6807 0.6811 0.6815 0.6828
480.000000 0.6868 0.6908 0.6946 0.6982 0.7017
475.000000 0.7051 0.7075 0.7099 0.7121 0.7146
470.000000 0.7168 0.7193 0.7215 0.7239 0.7261
465.000000 0.7285 0.7308 0.7328 0.7349 0.7369
460.000000 0.7390 0.7408 0.7425 0.7440 0.7478
455.000000 0.7467
##END=
