##TITLE=TRANS-2-(3-THIANAPHTHENYL)-CYCLOPROPANAMINE, SULFATE
##JCAMP-DX=4.24
##DATA TYPE=INFRARED SPECTRUM
##CLASS=COBLENTZ III
##ORIGIN=SMITH KLINE & FRENCH LABS.
##OWNER=Copyright (C) 1987 by the Coblentz Society
Collection (C) 2018 copyright by the U.S. Secretary of Commerce
on behalf of the United States of America. All rights reserved.
##DATE=1961/01/26
##NAMES=Cyclopropylamine, 2-(benzo[b]thien-3-yl)-, sulfate (2 to 1) (salt), trans,
##MOLFORM=C22 H24 N2 O4 S3
##SOURCE REFERENCE=COBLENTZ NO. 9079
##$NIST ID=B6009079
##$NIST SOURCE=COBLENTZ
##$NIST IMAGE=cob9079
##SPECTROMETER/DATA SYSTEM=PERKIN-ELMER 21 (GRATING)
##INSTRUMENT PARAMETERS=NaCl PRISM
##STATE=SOLID (OIL MULL)
$$SPECTRAL CONTAMINATION DUE TO OIL AROUND 2900, 1450, 1380 CM^-^1
##SAMPLING PROCEDURE=TRANSMISSION
##RESOLUTION=2
##DATA PROCESSING=DIGITIZED BY COBLENTZ SOCIETY (BATCH II) FROM HARD COPY
##XUNITS=1/CM
##YUNITS=TRANSMITTANCE
##XFACTOR=1.0
##YFACTOR=1
##FIRSTX=652
##LASTX=4000
##FIRSTY=0.7771
##MAXX=4000
##MINX=652
##MAXY=0.9263
##MINY=0.1083
##NPOINTS=3349
##XYDATA=(X++(Y..Y))
652.000000 0.7771 0.7817 0.7868 0.7923 0.7971
657.000000 0.7997 0.8011 0.8025 0.8039 0.8062
662.000000 0.8084 0.8086 0.8094 0.8112 0.8162
667.000000 0.8219 0.8258 0.8282 0.8293 0.8302
672.000000 0.8316 0.8332 0.8347 0.8358 0.8370
677.000000 0.8385 0.8404 0.8415 0.8421 0.8426
682.000000 0.8449 0.8478 0.8494 0.8500 0.8522
687.000000 0.8533 0.8538 0.8543 0.8567 0.8584
692.000000 0.8566 0.8557 0.8583 0.8591 0.8583
697.000000 0.8566 0.8540 0.8502 0.8439 0.8366
702.000000 0.8289 0.8195 0.7948 0.7676 0.7552
707.000000 0.7568 0.7721 0.7974 0.8274 0.8385
712.000000 0.8416 0.8428 0.8429 0.8394 0.8357
717.000000 0.8323 0.8299 0.8294 0.8280 0.8216
722.000000 0.8138 0.8018 0.7889 0.7756 0.7610
727.000000 0.7445 0.7221 0.6847 0.6465 0.6036
732.000000 0.4408 0.2939 0.2829 0.3950 0.6238
737.000000 0.7537 0.8113 0.8379 0.8454 0.8480
742.000000 0.8472 0.8470 0.8438 0.8394 0.8258
747.000000 0.8003 0.7607 0.7073 0.5160 0.3975
752.000000 0.3110 0.3077 0.3856 0.5025 0.6192
757.000000 0.6746 0.6820 0.7023 0.7746 0.8227
762.000000 0.8414 0.8501 0.8538 0.8539 0.8521
767.000000 0.8495 0.8423 0.8298 0.8061 0.7447
772.000000 0.6656 0.5866 0.5311 0.5485 0.6034
777.000000 0.6637 0.7062 0.7759 0.8334 0.8732
782.000000 0.8926 0.9031 0.9102 0.9136 0.9161
787.000000 0.9175 0.9203 0.9179 0.9175 0.9163
792.000000 0.9148 0.9110 0.9053 0.8965 0.8857
797.000000 0.8733 0.8589 0.8420 0.8199 0.7843
802.000000 0.7531 0.7398 0.7360 0.7580 0.7838
807.000000 0.8131 0.8602 0.8876 0.9059 0.9143
812.000000 0.9177 0.9206 0.9235 0.9257 0.9263
817.000000 0.9235 0.9233 0.9238 0.9242 0.9242
822.000000 0.9240 0.9236 0.9232 0.9220 0.9203
827.000000 0.9169 0.9133 0.9080 0.9023 0.8967
832.000000 0.8912 0.8876 0.8843 0.8821 0.8812
837.000000 0.8800 0.8712 0.8571 0.8289 0.7749
842.000000 0.7515 0.7211 0.7116 0.7482 0.8071
847.000000 0.8460 0.8585 0.8613 0.8629 0.8654
852.000000 0.8592 0.8510 0.8426 0.8405 0.8433
857.000000 0.8430 0.8485 0.8585 0.8711 0.8852
862.000000 0.8957 0.8971 0.8935 0.8930 0.8967
867.000000 0.9039 0.9024 0.9008 0.8985 0.8962
872.000000 0.8924 0.8893 0.8886 0.8873 0.8847
877.000000 0.8785 0.8708 0.8639 0.8560 0.8470
882.000000 0.8338 0.8175 0.7969 0.7749 0.7618
887.000000 0.7506 0.7495 0.7757 0.8024 0.8288
892.000000 0.8437 0.8529 0.8595 0.8633 0.8651
897.000000 0.8660 0.8706 0.8659 0.8650 0.8635
902.000000 0.8621 0.8599 0.8574 0.8549 0.8519
907.000000 0.8510 0.8504 0.8492 0.8481 0.8450
912.000000 0.8379 0.8291 0.8201 0.8107 0.7925
917.000000 0.7915 0.7886 0.8001 0.8093 0.8209
922.000000 0.8332 0.8403 0.8441 0.8452 0.8454
927.000000 0.8459 0.8448 0.8440 0.8430 0.8420
932.000000 0.8398 0.8354 0.8306 0.8256 0.8184
937.000000 0.8084 0.8019 0.8008 0.7965 0.8100
942.000000 0.8149 0.8218 0.8264 0.8294 0.8306
947.000000 0.8301 0.8284 0.8270 0.8255 0.8240
952.000000 0.8225 0.8210 0.8194 0.8178 0.8163
957.000000 0.8143 0.8122 0.8102 0.8080 0.8056
962.000000 0.8031 0.8007 0.7981 0.7929 0.7873
967.000000 0.7797 0.7717 0.7568 0.7461 0.7416
972.000000 0.7420 0.7383 0.7580 0.7714 0.7885
977.000000 0.7924 0.7945 0.7956 0.7918 0.7900
982.000000 0.7880 0.7847 0.7814 0.7783 0.7752
987.000000 0.7717 0.7681 0.7641 0.7591 0.7538
992.000000 0.7484 0.7431 0.7378 0.7328 0.7270
997.000000 0.7206 0.7142 0.7075 0.7007 0.6933
1002.000000 0.6839 0.6747 0.6668 0.6591 0.6514
1007.000000 0.6430 0.6329 0.6229 0.6128 0.6025
1012.000000 0.5914 0.5805 0.5710 0.5623 0.5547
1017.000000 0.5472 0.5388 0.5248 0.5043 0.4806
1022.000000 0.4631 0.4546 0.4477 0.4415 0.4357
1027.000000 0.4305 0.4248 0.4106 0.4005 0.3904
1032.000000 0.3767 0.3553 0.3312 0.3185 0.3064
1037.000000 0.2950 0.2829 0.2675 0.2454 0.2237
1042.000000 0.1990 0.1777 0.1736 0.1748 0.1736
1047.000000 0.1864 0.2065 0.2313 0.2400 0.2403
1052.000000 0.2343 0.2167 0.2045 0.1984 0.1955
1057.000000 0.1940 0.1927 0.1920 0.1916 0.1916
1062.000000 0.1916 0.1920 0.1925 0.1928 0.1930
1067.000000 0.1905 0.1859 0.1816 0.1777 0.1750
1072.000000 0.1739 0.1683 0.1641 0.1630 0.1632
1077.000000 0.1634 0.1675 0.1785 0.1997 0.2258
1082.000000 0.2447 0.2602 0.2756 0.2884 0.2937
1087.000000 0.2977 0.3025 0.3109 0.3279 0.3447
1092.000000 0.3684 0.3919 0.4070 0.4229 0.4428
1097.000000 0.4616 0.4721 0.4748 0.4732 0.4621
1102.000000 0.4413 0.4207 0.4000 0.3793 0.3588
1107.000000 0.3383 0.3324 0.3320 0.3336 0.3389
1112.000000 0.3545 0.3644 0.3722 0.3781 0.3833
1117.000000 0.3858 0.3882 0.3814 0.3757 0.3693
1122.000000 0.3631 0.3571 0.3511 0.3451 0.3381
1127.000000 0.3374 0.3381 0.3366 0.3470 0.3552
1132.000000 0.3631 0.3708 0.3780 0.3852 0.3923
1137.000000 0.3996 0.4137 0.4332 0.4674 0.4879
1142.000000 0.5289 0.5629 0.6082 0.6320 0.6495
1147.000000 0.6675 0.7004 0.7147 0.7226 0.7309
1152.000000 0.7405 0.7550 0.7638 0.7708 0.7758
1157.000000 0.7786 0.7807 0.7821 0.7818 0.7813
1162.000000 0.7797 0.7773 0.7745 0.7723 0.7728
1167.000000 0.7744 0.7788 0.7853 0.7927 0.8010
1172.000000 0.8112 0.8170 0.8180 0.8180 0.8185
1177.000000 0.8176 0.8162 0.8125 0.8058 0.7983
1182.000000 0.7910 0.7838 0.7761 0.7660 0.7633
1187.000000 0.7614 0.7679 0.7768 0.7798 0.7797
1192.000000 0.7808 0.7754 0.7708 0.7670 0.7631
1197.000000 0.7607 0.7595 0.7604 0.7579 0.7669
1202.000000 0.7709 0.7756 0.7811 0.7867 0.7929
1207.000000 0.7992 0.8051 0.8095 0.8140 0.8183
1212.000000 0.8226 0.8269 0.8291 0.8307 0.8321
1217.000000 0.8318 0.8314 0.8331 0.8263 0.8208
1222.000000 0.8126 0.8034 0.7932 0.7831 0.7754
1227.000000 0.7682 0.7612 0.7563 0.7519 0.7469
1232.000000 0.7511 0.7614 0.7742 0.7881 0.8027
1237.000000 0.8152 0.8261 0.8348 0.8427 0.8500
1242.000000 0.8551 0.8583 0.8604 0.8625 0.8644
1247.000000 0.8663 0.8669 0.8666 0.8663 0.8658
1252.000000 0.8655 0.8663 0.8682 0.8701 0.8721
1257.000000 0.8740 0.8758 0.8776 0.8794 0.8806
1262.000000 0.8816 0.8826 0.8834 0.8838 0.8842
1267.000000 0.8846 0.8851 0.8854 0.8816 0.8851
1272.000000 0.8850 0.8848 0.8846 0.8844 0.8842
1277.000000 0.8840 0.8838 0.8836 0.8835 0.8832
1282.000000 0.8830 0.8827 0.8825 0.8817 0.8803
1287.000000 0.8789 0.8774 0.8760 0.8745 0.8730
1292.000000 0.8715 0.8700 0.8684 0.8670 0.8655
1297.000000 0.8640 0.8625 0.8609 0.8593 0.8577
1302.000000 0.8562 0.8546 0.8530 0.8514 0.8499
1307.000000 0.8483 0.8467 0.8452 0.8436 0.8421
1312.000000 0.8406 0.8391 0.8377 0.8386 0.8350
1317.000000 0.8442 0.8488 0.8534 0.8580 0.8609
1322.000000 0.8635 0.8657 0.8663 0.8645 0.8660
1327.000000 0.8652 0.8642 0.8627 0.8612 0.8597
1332.000000 0.8582 0.8567 0.8551 0.8536 0.8521
1337.000000 0.8506 0.8491 0.8475 0.8458 0.8440
1342.000000 0.8422 0.8405 0.8385 0.8365 0.8344
1347.000000 0.8323 0.8302 0.8282 0.8261 0.8240
1352.000000 0.8219 0.8186 0.8151 0.8116 0.8041
1357.000000 0.7960 0.7879 0.7785 0.7679 0.7572
1362.000000 0.7453 0.7298 0.7137 0.6986 0.6845
1367.000000 0.6663 0.6473 0.6282 0.6092 0.5902
1372.000000 0.5713 0.5543 0.5525 0.5537 0.5640
1377.000000 0.5828 0.6016 0.6203 0.6389 0.6576
1382.000000 0.6762 0.6948 0.7134 0.7320 0.7505
1387.000000 0.7689 0.7875 0.8059 0.8227 0.8342
1392.000000 0.8433 0.8488 0.8524 0.8535 0.8542
1397.000000 0.8544 0.8545 0.8559 0.8525 0.8512
1402.000000 0.8499 0.8485 0.8473 0.8452 0.8421
1407.000000 0.8390 0.8359 0.8327 0.8292 0.8250
1412.000000 0.8208 0.8166 0.8126 0.8086 0.8045
1417.000000 0.8002 0.7941 0.7876 0.7803 0.7698
1422.000000 0.7547 0.7181 0.6866 0.6552 0.6238
1427.000000 0.5926 0.5613 0.5301 0.4989 0.4923
1432.000000 0.4941 0.5134 0.5429 0.5725 0.6020
1437.000000 0.6278 0.6352 0.6355 0.6332 0.6268
1442.000000 0.6108 0.5929 0.5750 0.5573 0.5395
1447.000000 0.5217 0.5039 0.4862 0.4685 0.4509
1452.000000 0.4332 0.4156 0.3980 0.3885 0.3842
1457.000000 0.3829 0.3834 0.3848 0.3885 0.3934
1462.000000 0.3984 0.4031 0.4076 0.4128 0.4185
1467.000000 0.4244 0.4303 0.4359 0.4416 0.4518
1472.000000 0.4761 0.5068 0.5374 0.5680 0.5985
1477.000000 0.6291 0.6609 0.6844 0.7009 0.7175
1482.000000 0.7339 0.7467 0.7594 0.7721 0.7848
1487.000000 0.7973 0.8099 0.8200 0.8254 0.8308
1492.000000 0.8362 0.8403 0.8424 0.8441 0.8459
1497.000000 0.8475 0.8491 0.8500 0.8508 0.8529
1502.000000 0.8502 0.8494 0.8485 0.8477 0.8469
1507.000000 0.8456 0.8438 0.8419 0.8400 0.8382
1512.000000 0.8363 0.8345 0.8327 0.8308 0.8291
1517.000000 0.8272 0.8254 0.8236 0.8218 0.8200
1522.000000 0.8182 0.8160 0.8133 0.8106 0.8080
1527.000000 0.8053 0.8027 0.8000 0.7973 0.7931
1532.000000 0.7885 0.7840 0.7795 0.7746 0.7685
1537.000000 0.7618 0.7548 0.7448 0.7321 0.7165
1542.000000 0.6997 0.6830 0.6662 0.6494 0.6327
1547.000000 0.6160 0.5993 0.5827 0.5661 0.5508
1552.000000 0.5456 0.5452 0.5455 0.5451 0.5497
1557.000000 0.5592 0.5764 0.5936 0.6108 0.6280
1562.000000 0.6451 0.6622 0.6793 0.6963 0.7134
1567.000000 0.7330 0.7452 0.7512 0.7571 0.7631
1572.000000 0.7690 0.7733 0.7761 0.7787 0.7813
1577.000000 0.7826 0.7831 0.7834 0.7837 0.7840
1582.000000 0.7843 0.7856 0.7839 0.7834 0.7830
1587.000000 0.7817 0.7795 0.7770 0.7740 0.7706
1592.000000 0.7670 0.7613 0.7544 0.7473 0.7403
1597.000000 0.7333 0.7263 0.7193 0.7123 0.7053
1602.000000 0.6984 0.6914 0.6844 0.6775 0.6706
1607.000000 0.6636 0.6567 0.6498 0.6429 0.6360
1612.000000 0.6291 0.6223 0.6154 0.6086 0.6076
1617.000000 0.6071 0.6070 0.6071 0.6029 0.6085
1622.000000 0.6115 0.6193 0.6290 0.6386 0.6483
1627.000000 0.6579 0.6676 0.6772 0.6868 0.6986
1632.000000 0.7179 0.7357 0.7513 0.7610 0.7706
1637.000000 0.7799 0.7872 0.7921 0.7963 0.8005
1642.000000 0.8046 0.8085 0.8121 0.8156 0.8192
1647.000000 0.8229 0.8276 0.8325 0.8374 0.8417
1652.000000 0.8445 0.8468 0.8492 0.8516 0.8539
1657.000000 0.8563 0.8585 0.8601 0.8614 0.8628
1662.000000 0.8641 0.8654 0.8667 0.8681 0.8694
1667.000000 0.8705 0.8712 0.8720 0.8727 0.8736
1672.000000 0.8743 0.8751 0.8758 0.8766 0.8773
1677.000000 0.8780 0.8784 0.8786 0.8788 0.8791
1682.000000 0.8794 0.8796 0.8798 0.8800 0.8803
1687.000000 0.8806 0.8808 0.8811 0.8816 0.8821
1692.000000 0.8826 0.8831 0.8837 0.8841 0.8846
1697.000000 0.8855 0.8865 0.8875 0.8881 0.8881
1702.000000 0.8881 0.8881 0.8881 0.8881 0.8881
1707.000000 0.8880 0.8879 0.8878 0.8877 0.8877
1712.000000 0.8875 0.8875 0.8876 0.8878 0.8880
1717.000000 0.8882 0.8885 0.8887 0.8889 0.8891
1722.000000 0.8893 0.8896 0.8898 0.8901 0.8904
1727.000000 0.8907 0.8911 0.8915 0.8918 0.8921
1732.000000 0.8925 0.8929 0.8932 0.8936 0.8939
1737.000000 0.8942 0.8946 0.8950 0.8955 0.8960
1742.000000 0.8965 0.8970 0.8975 0.8979 0.8983
1747.000000 0.8988 0.8993 0.8998 0.9003 0.9008
1752.000000 0.9013 0.9017 0.9022 0.9026 0.9031
1757.000000 0.9036 0.9041 0.9045 0.9049 0.9054
1762.000000 0.9058 0.9062 0.9067 0.9071 0.9072
1767.000000 0.9071 0.9070 0.9069 0.9068 0.9067
1772.000000 0.9065 0.9065 0.9084 0.9062 0.9061
1777.000000 0.9060 0.9059 0.9056 0.9053 0.9050
1782.000000 0.9047 0.9044 0.9041 0.9038 0.9036
1787.000000 0.9032 0.9029 0.9027 0.9026 0.9026
1792.000000 0.9026 0.9025 0.9025 0.9024 0.9024
1797.000000 0.9024 0.9024 0.9026 0.9029 0.9031
1802.000000 0.9034 0.9037 0.9040 0.9042 0.9045
1807.000000 0.9048 0.9051 0.9054 0.9056 0.9057
1812.000000 0.9055 0.9052 0.9046 0.9040 0.9034
1817.000000 0.9027 0.9020 0.9012 0.9003 0.8994
1822.000000 0.8986 0.8978 0.8969 0.8960 0.8951
1827.000000 0.8942 0.8934 0.8930 0.8930 0.8930
1832.000000 0.8930 0.8930 0.8930 0.8930 0.8931
1837.000000 0.8933 0.8937 0.8943 0.8952 0.8965
1842.000000 0.8979 0.8992 0.9005 0.9017 0.9022
1847.000000 0.9023 0.9022 0.9021 0.9020 0.9018
1852.000000 0.9016 0.9012 0.9009 0.9006 0.9002
1857.000000 0.8999 0.8995 0.8990 0.8985 0.8980
1862.000000 0.8975 0.8971 0.8966 0.8961 0.8957
1867.000000 0.8952 0.8947 0.8943 0.8938 0.8934
1872.000000 0.8929 0.8925 0.8921 0.8917 0.8913
1877.000000 0.8909 0.8907 0.8908 0.8910 0.8912
1882.000000 0.8914 0.8915 0.8918 0.8919 0.8920
1887.000000 0.8919 0.8918 0.8916 0.8915 0.8914
1892.000000 0.8913 0.8912 0.8910 0.8909 0.8908
1897.000000 0.8906 0.8905 0.8903 0.8901 0.8894
1902.000000 0.8888 0.8881 0.8875 0.8869 0.8862
1907.000000 0.8856 0.8853 0.8851 0.8850 0.8849
1912.000000 0.8848 0.8847 0.8846 0.8845 0.8844
1917.000000 0.8843 0.8842 0.8841 0.8839 0.8837
1922.000000 0.8835 0.8833 0.8831 0.8829 0.8827
1927.000000 0.8825 0.8819 0.8811 0.8802 0.8793
1932.000000 0.8784 0.8776 0.8767 0.8757 0.8748
1937.000000 0.8739 0.8729 0.8720 0.8711 0.8701
1942.000000 0.8691 0.8680 0.8668 0.8656 0.8650
1947.000000 0.8650 0.8650 0.8650 0.8650 0.8650
1952.000000 0.8652 0.8657 0.8662 0.8667 0.8672
1957.000000 0.8676 0.8681 0.8685 0.8687 0.8688
1962.000000 0.8688 0.8689 0.8689 0.8689 0.8688
1967.000000 0.8686 0.8679 0.8672 0.8664 0.8656
1972.000000 0.8649 0.8642 0.8634 0.8626 0.8619
1977.000000 0.8611 0.8604 0.8596 0.8587 0.8578
1982.000000 0.8570 0.8562 0.8553 0.8544 0.8536
1987.000000 0.8527 0.8519 0.8510 0.8501 0.8493
1992.000000 0.8485 0.8477 0.8470 0.8463 0.8457
1997.000000 0.8450 0.8443 0.8436 0.8430 0.8423
2002.000000 0.8416 0.8410 0.8403 0.8396 0.8389
2007.000000 0.8383 0.8376 0.8370 0.8363 0.8356
2012.000000 0.8349 0.8343 0.8336 0.8329 0.8323
2017.000000 0.8317 0.8310 0.8305 0.8300 0.8297
2022.000000 0.8292 0.8288 0.8284 0.8280 0.8276
2027.000000 0.8272 0.8268 0.8263 0.8260 0.8256
2032.000000 0.8252 0.8247 0.8243 0.8240 0.8236
2037.000000 0.8232 0.8228 0.8224 0.8220 0.8216
2042.000000 0.8212 0.8208 0.8204 0.8200 0.8196
2047.000000 0.8192 0.8188 0.8185 0.8183 0.8181
2052.000000 0.8179 0.8177 0.8175 0.8173 0.8170
2057.000000 0.8168 0.8166 0.8164 0.8162 0.8160
2062.000000 0.8158 0.8156 0.8153 0.8151 0.8150
2067.000000 0.8147 0.8145 0.8143 0.8141 0.8139
2072.000000 0.8137 0.8134 0.8133 0.8133 0.8133
2077.000000 0.8134 0.8134 0.8135 0.8135 0.8135
2082.000000 0.8136 0.8136 0.8136 0.8136 0.8137
2087.000000 0.8108 0.8137 0.8138 0.8138 0.8138
2092.000000 0.8138 0.8139 0.8139 0.8139 0.8140
2097.000000 0.8140 0.8140 0.8140 0.8141 0.8142
2102.000000 0.8145 0.8148 0.8150 0.8154 0.8157
2107.000000 0.8160 0.8163 0.8166 0.8168 0.8171
2112.000000 0.8174 0.8178 0.8181 0.8185 0.8189
2117.000000 0.8192 0.8196 0.8200 0.8204 0.8207
2122.000000 0.8211 0.8214 0.8218 0.8222 0.8226
2127.000000 0.8230 0.8234 0.8237 0.8241 0.8244
2132.000000 0.8248 0.8252 0.8255 0.8259 0.8263
2137.000000 0.8266 0.8270 0.8274 0.8278 0.8281
2142.000000 0.8285 0.8288 0.8292 0.8296 0.8300
2147.000000 0.8303 0.8306 0.8310 0.8314 0.8318
2152.000000 0.8321 0.8324 0.8328 0.8332 0.8336
2157.000000 0.8339 0.8343 0.8347 0.8350 0.8353
2162.000000 0.8357 0.8361 0.8365 0.8368 0.8371
2167.000000 0.8374 0.8378 0.8381 0.8384 0.8387
2172.000000 0.8390 0.8394 0.8397 0.8399 0.8402
2177.000000 0.8405 0.8408 0.8412 0.8415 0.8418
2182.000000 0.8421 0.8423 0.8426 0.8430 0.8432
2187.000000 0.8434 0.8434 0.8434 0.8433 0.8432
2192.000000 0.8431 0.8430 0.8430 0.8429 0.8429
2197.000000 0.8428 0.8428 0.8427 0.8427 0.8426
2202.000000 0.8426 0.8425 0.8425 0.8424 0.8423
2207.000000 0.8428 0.8420 0.8419 0.8417 0.8416
2212.000000 0.8415 0.8414 0.8412 0.8411 0.8410
2217.000000 0.8408 0.8407 0.8406 0.8405 0.8403
2222.000000 0.8402 0.8401 0.8400 0.8398 0.8397
2227.000000 0.8396 0.8395 0.8393 0.8392 0.8390
2232.000000 0.8389 0.8388 0.8387 0.8385 0.8384
2237.000000 0.8383 0.8382 0.8380 0.8378 0.8376
2242.000000 0.8375 0.8373 0.8371 0.8369 0.8368
2247.000000 0.8366 0.8364 0.8362 0.8360 0.8358
2252.000000 0.8357 0.8355 0.8353 0.8351 0.8350
2257.000000 0.8348 0.8346 0.8344 0.8342 0.8341
2262.000000 0.8339 0.8337 0.8335 0.8334 0.8332
2267.000000 0.8331 0.8329 0.8327 0.8325 0.8324
2272.000000 0.8322 0.8320 0.8318 0.8316 0.8315
2277.000000 0.8313 0.8311 0.8309 0.8308 0.8307
2282.000000 0.8305 0.8303 0.8301 0.8300 0.8297
2287.000000 0.8293 0.8290 0.8287 0.8283 0.8280
2292.000000 0.8277 0.8273 0.8270 0.8267 0.8262
2297.000000 0.8256 0.8249 0.8241 0.8233 0.8225
2302.000000 0.8217 0.8208 0.8200 0.8191 0.8183
2307.000000 0.8173 0.8163 0.8154 0.8145 0.8135
2312.000000 0.8125 0.8115 0.8105 0.8096 0.8086
2317.000000 0.8076 0.8067 0.8058 0.8048 0.8038
2322.000000 0.8028 0.8019 0.8009 0.7999 0.7989
2327.000000 0.7979 0.7969 0.7959 0.7949 0.7938
2332.000000 0.7927 0.7917 0.7907 0.7897 0.7887
2337.000000 0.7877 0.7866 0.7857 0.7849 0.7842
2342.000000 0.7839 0.7836 0.7832 0.7828 0.7825
2347.000000 0.7822 0.7819 0.7816 0.7814 0.7812
2352.000000 0.7810 0.7808 0.7807 0.7805 0.7804
2357.000000 0.7802 0.7800 0.7799 0.7797 0.7795
2362.000000 0.7793 0.7791 0.7790 0.7788 0.7786
2367.000000 0.7784 0.7782 0.7781 0.7779 0.7777
2372.000000 0.7775 0.7768 0.7762 0.7755 0.7748
2377.000000 0.7741 0.7734 0.7727 0.7720 0.7712
2382.000000 0.7704 0.7695 0.7687 0.7679 0.7671
2387.000000 0.7663 0.7654 0.7645 0.7636 0.7627
2392.000000 0.7619 0.7609 0.7600 0.7591 0.7583
2397.000000 0.7574 0.7568 0.7563 0.7559 0.7555
2402.000000 0.7552 0.7549 0.7546 0.7543 0.7539
2407.000000 0.7536 0.7533 0.7530 0.7526 0.7523
2412.000000 0.7520 0.7517 0.7514 0.7510 0.7507
2417.000000 0.7504 0.7500 0.7494 0.7487 0.7476
2422.000000 0.7464 0.7453 0.7441 0.7430 0.7418
2427.000000 0.7407 0.7393 0.7379 0.7363 0.7344
2432.000000 0.7326 0.7307 0.7288 0.7271 0.7256
2437.000000 0.7241 0.7227 0.7213 0.7199 0.7185
2442.000000 0.7171 0.7157 0.7144 0.7130 0.7116
2447.000000 0.7102 0.7088 0.7076 0.7066 0.7055
2452.000000 0.7047 0.7038 0.7029 0.7020 0.7011
2457.000000 0.7005 0.6999 0.6996 0.6995 0.6993
2462.000000 0.6991 0.6990 0.6988 0.6987 0.6986
2467.000000 0.6984 0.6982 0.6981 0.6979 0.6977
2472.000000 0.6976 0.6974 0.6973 0.6971 0.6969
2477.000000 0.6968 0.6966 0.6964 0.6963 0.6961
2482.000000 0.6959 0.6957 0.6955 0.6954 0.6948
2487.000000 0.6941 0.6933 0.6924 0.6914 0.6902
2492.000000 0.6891 0.6879 0.6867 0.6855 0.6843
2497.000000 0.6831 0.6818 0.6806 0.6794 0.6780
2502.000000 0.6766 0.6751 0.6737 0.6723 0.6709
2507.000000 0.6695 0.6681 0.6666 0.6652 0.6635
2512.000000 0.6618 0.6601 0.6583 0.6565 0.6548
2517.000000 0.6530 0.6513 0.6496 0.6478 0.6460
2522.000000 0.6442 0.6421 0.6392 0.6364 0.6334
2527.000000 0.6304 0.6273 0.6236 0.6199 0.6162
2532.000000 0.6125 0.6089 0.6063 0.6037 0.6012
2537.000000 0.5988 0.5964 0.5940 0.5916 0.5892
2542.000000 0.5868 0.5844 0.5822 0.5801 0.5780
2547.000000 0.5760 0.5741 0.5721 0.5701 0.5681
2552.000000 0.5661 0.5641 0.5621 0.5601 0.5581
2557.000000 0.5564 0.5548 0.5533 0.5522 0.5512
2562.000000 0.5501 0.5490 0.5479 0.5468 0.5457
2567.000000 0.5447 0.5438 0.5429 0.5422 0.5416
2572.000000 0.5410 0.5404 0.5398 0.5391 0.5385
2577.000000 0.5379 0.5373 0.5367 0.5361 0.5355
2582.000000 0.5349 0.5343 0.5337 0.5331 0.5325
2587.000000 0.5319 0.5313 0.5306 0.5299 0.5291
2592.000000 0.5282 0.5274 0.5265 0.5256 0.5247
2597.000000 0.5233 0.5219 0.5204 0.5186 0.5169
2602.000000 0.5151 0.5134 0.5116 0.5097 0.5077
2607.000000 0.5056 0.5030 0.5003 0.4976 0.4950
2612.000000 0.4923 0.4899 0.4875 0.4851 0.4829
2617.000000 0.4807 0.4785 0.4763 0.4741 0.4720
2622.000000 0.4700 0.4680 0.4662 0.4646 0.4629
2627.000000 0.4613 0.4597 0.4582 0.4566 0.4550
2632.000000 0.4534 0.4518 0.4502 0.4488 0.4474
2637.000000 0.4460 0.4447 0.4433 0.4419 0.4406
2642.000000 0.4392 0.4379 0.4365 0.4351 0.4339
2647.000000 0.4328 0.4318 0.4308 0.4299 0.4291
2652.000000 0.4282 0.4273 0.4264 0.4255 0.4246
2657.000000 0.4237 0.4228 0.4220 0.4211 0.4202
2662.000000 0.4193 0.4184 0.4175 0.4167 0.4158
2667.000000 0.4149 0.4140 0.4132 0.4123 0.4114
2672.000000 0.4106 0.4097 0.4089 0.4080 0.4072
2677.000000 0.4064 0.4055 0.4047 0.4039 0.4030
2682.000000 0.4022 0.4014 0.4006 0.3998 0.3990
2687.000000 0.3981 0.3973 0.3966 0.3959 0.3953
2692.000000 0.3947 0.3941 0.3935 0.3929 0.3924
2697.000000 0.3918 0.3912 0.3906 0.3900 0.3894
2702.000000 0.3889 0.3883 0.3877 0.3870 0.3864
2707.000000 0.3858 0.3851 0.3845 0.3840 0.3834
2712.000000 0.3830 0.3826 0.3823 0.3820 0.3817
2717.000000 0.3815 0.3806 0.3816 0.3817 0.3820
2722.000000 0.3824 0.3827 0.3835 0.3844 0.3854
2727.000000 0.3867 0.3881 0.3896 0.3917 0.3942
2732.000000 0.3966 0.3995 0.4026 0.4056 0.4092
2737.000000 0.4130 0.4167 0.4199 0.4230 0.4261
2742.000000 0.4288 0.4315 0.4342 0.4362 0.4379
2747.000000 0.4397 0.4410 0.4422 0.4434 0.4442
2752.000000 0.4448 0.4455 0.4459 0.4464 0.4468
2757.000000 0.4455 0.4470 0.4470 0.4467 0.4464
2762.000000 0.4461 0.4457 0.4454 0.4450 0.4446
2767.000000 0.4442 0.4437 0.4431 0.4422 0.4414
2772.000000 0.4404 0.4394 0.4383 0.4369 0.4348
2777.000000 0.4327 0.4306 0.4287 0.4267 0.4248
2782.000000 0.4230 0.4212 0.4194 0.4176 0.4158
2787.000000 0.4140 0.4122 0.4104 0.4086 0.4067
2792.000000 0.4048 0.4029 0.4010 0.3990 0.3971
2797.000000 0.3951 0.3932 0.3913 0.3894 0.3874
2802.000000 0.3855 0.3835 0.3816 0.3797 0.3776
2807.000000 0.3747 0.3719 0.3690 0.3650 0.3611
2812.000000 0.3571 0.3532 0.3492 0.3453 0.3416
2817.000000 0.3379 0.3343 0.3310 0.3279 0.3249
2822.000000 0.3218 0.3188 0.3158 0.3127 0.3097
2827.000000 0.3066 0.3036 0.2984 0.2931 0.2877
2832.000000 0.2792 0.2696 0.2600 0.2497 0.2388
2837.000000 0.2278 0.2181 0.2109 0.2038 0.1968
2842.000000 0.1921 0.1873 0.1825 0.1789 0.1754
2847.000000 0.1720 0.1668 0.1605 0.1543 0.1497
2852.000000 0.1478 0.1460 0.1442 0.1433 0.1423
2857.000000 0.1414 0.1409 0.1405 0.1400 0.1398
2862.000000 0.1397 0.1396 0.1395 0.1395 0.1394
2867.000000 0.1394 0.1394 0.1395 0.1395 0.1396
2872.000000 0.1396 0.1396 0.1396 0.1396 0.1396
2877.000000 0.1395 0.1388 0.1381 0.1375 0.1367
2882.000000 0.1359 0.1351 0.1343 0.1335 0.1327
2887.000000 0.1318 0.1309 0.1299 0.1290 0.1281
2892.000000 0.1272 0.1262 0.1253 0.1243 0.1234
2897.000000 0.1224 0.1214 0.1205 0.1195 0.1186
2902.000000 0.1178 0.1170 0.1163 0.1155 0.1148
2907.000000 0.1140 0.1135 0.1129 0.1124 0.1119
2912.000000 0.1115 0.1111 0.1107 0.1103 0.1099
2917.000000 0.1095 0.1093 0.1090 0.1088 0.1086
2922.000000 0.1085 0.1084 0.1083 0.1083 0.1083
2927.000000 0.1083 0.1083 0.1084 0.1086 0.1087
2932.000000 0.1090 0.1092 0.1095 0.1097 0.1100
2937.000000 0.1103 0.1106 0.1110 0.1114 0.1119
2942.000000 0.1126 0.1134 0.1142 0.1151 0.1159
2947.000000 0.1167 0.1176 0.1187 0.1198 0.1210
2952.000000 0.1221 0.1233 0.1245 0.1258 0.1270
2957.000000 0.1283 0.1295 0.1308 0.1321 0.1334
2962.000000 0.1346 0.1361 0.1375 0.1390 0.1410
2967.000000 0.1440 0.1470 0.1500 0.1566 0.1637
2972.000000 0.1708 0.1779 0.1848 0.1918 0.1987
2977.000000 0.2028 0.2062 0.2096 0.2129 0.2158
2982.000000 0.2188 0.2217 0.2245 0.2272 0.2300
2987.000000 0.2327 0.2355 0.2382 0.2409 0.2436
2992.000000 0.2463 0.2491 0.2518 0.2545 0.2573
2997.000000 0.2600 0.2627 0.2655 0.2682 0.2709
3002.000000 0.2736 0.2763 0.2791 0.2818 0.2845
3007.000000 0.2872 0.2899 0.2923 0.2946 0.2968
3012.000000 0.2990 0.3011 0.3032 0.3053 0.3074
3017.000000 0.3095 0.3115 0.3136 0.3163 0.3193
3022.000000 0.3223 0.3253 0.3291 0.3329 0.3367
3027.000000 0.3409 0.3459 0.3510 0.3560 0.3627
3032.000000 0.3701 0.3776 0.3849 0.3882 0.3915
3037.000000 0.3948 0.3975 0.3990 0.4004 0.4018
3042.000000 0.4033 0.4047 0.4062 0.4077 0.4091
3047.000000 0.4105 0.4119 0.4143 0.4201 0.4259
3052.000000 0.4316 0.4381 0.4452 0.4523 0.4595
3057.000000 0.4639 0.4675 0.4711 0.4746 0.4757
3062.000000 0.4769 0.4780 0.4791 0.4802 0.4813
3067.000000 0.4823 0.4832 0.4838 0.4844 0.4850
3072.000000 0.4852 0.4852 0.4853 0.4853 0.4851
3077.000000 0.4848 0.4845 0.4842 0.4838 0.4834
3082.000000 0.4831 0.4827 0.4822 0.4818 0.4813
3087.000000 0.4809 0.4804 0.4799 0.4795 0.4790
3092.000000 0.4785 0.4780 0.4776 0.4776 0.4777
3097.000000 0.4777 0.4778 0.4779 0.4781 0.4782
3102.000000 0.4784 0.4785 0.4786 0.4788 0.4790
3107.000000 0.4794 0.4798 0.4803 0.4818 0.4841
3112.000000 0.4865 0.4889 0.4913 0.4937 0.4961
3117.000000 0.4985 0.5027 0.5073 0.5119 0.5165
3122.000000 0.5206 0.5246 0.5286 0.5327 0.5356
3127.000000 0.5385 0.5415 0.5444 0.5470 0.5495
3132.000000 0.5521 0.5547 0.5573 0.5598 0.5624
3137.000000 0.5651 0.5685 0.5718 0.5751 0.5786
3142.000000 0.5825 0.5863 0.5902 0.5942 0.5984
3147.000000 0.6026 0.6068 0.6111 0.6156 0.6200
3152.000000 0.6245 0.6290 0.6334 0.6378 0.6422
3157.000000 0.6466 0.6510 0.6554 0.6597 0.6634
3162.000000 0.6662 0.6690 0.6718 0.6740 0.6754
3167.000000 0.6768 0.6782 0.6797 0.6811 0.6825
3172.000000 0.6839 0.6853 0.6867 0.6882 0.6896
3177.000000 0.6910 0.6924 0.6938 0.6952 0.6966
3182.000000 0.6979 0.6992 0.7005 0.7017 0.7026
3187.000000 0.7035 0.7044 0.7053 0.7062 0.7071
3192.000000 0.7080 0.7089 0.7098 0.7107 0.7116
3197.000000 0.7125 0.7134 0.7143 0.7152 0.7161
3202.000000 0.7171 0.7181 0.7191 0.7200 0.7214
3207.000000 0.7229 0.7243 0.7258 0.7272 0.7287
3212.000000 0.7301 0.7315 0.7330 0.7344 0.7359
3217.000000 0.7373 0.7388 0.7402 0.7416 0.7430
3222.000000 0.7445 0.7459 0.7473 0.7488 0.7502
3227.000000 0.7517 0.7532 0.7546 0.7561 0.7576
3232.000000 0.7591 0.7605 0.7620 0.7635 0.7650
3237.000000 0.7665 0.7679 0.7695 0.7711 0.7727
3242.000000 0.7743 0.7770 0.7809 0.7849 0.7889
3247.000000 0.7924 0.7944 0.7964 0.7985 0.8005
3252.000000 0.8019 0.8034 0.8048 0.8062 0.8076
3257.000000 0.8088 0.8101 0.8114 0.8126 0.8138
3262.000000 0.8149 0.8161 0.8171 0.8175 0.8179
3267.000000 0.8183 0.8187 0.8191 0.8195 0.8199
3272.000000 0.8203 0.8206 0.8210 0.8214 0.8218
3277.000000 0.8222 0.8226 0.8230 0.8234 0.8238
3282.000000 0.8242 0.8246 0.8250 0.8254 0.8258
3287.000000 0.8261 0.8265 0.8269 0.8272 0.8274
3292.000000 0.8277 0.8279 0.8282 0.8285 0.8287
3297.000000 0.8290 0.8292 0.8295 0.8297 0.8300
3302.000000 0.8302 0.8304 0.8305 0.8306 0.8307
3307.000000 0.8308 0.8308 0.8308 0.8309 0.8309
3312.000000 0.8310 0.8311 0.8311 0.8312 0.8313
3317.000000 0.8313 0.8314 0.8315 0.8315 0.8316
3322.000000 0.8316 0.8317 0.8317 0.8318 0.8319
3327.000000 0.8319 0.8320 0.8321 0.8321 0.8321
3332.000000 0.8322 0.8322 0.8323 0.8323 0.8324
3337.000000 0.8324 0.8325 0.8325 0.8325 0.8326
3342.000000 0.8326 0.8327 0.8328 0.8328 0.8329
3347.000000 0.8330 0.8330 0.8331 0.8331 0.8331
3352.000000 0.8332 0.8332 0.8333 0.8333 0.8334
3357.000000 0.8334 0.8335 0.8335 0.8335 0.8336
3362.000000 0.8336 0.8337 0.8337 0.8338 0.8338
3367.000000 0.8338 0.8339 0.8339 0.8340 0.8341
3372.000000 0.8341 0.8342 0.8343 0.8343 0.8343
3377.000000 0.8344 0.8344 0.8345 0.8345 0.8345
3382.000000 0.8345 0.8346 0.8346 0.8346 0.8346
3387.000000 0.8346 0.8346 0.8346 0.8346 0.8346
3392.000000 0.8346 0.8346 0.8346 0.8346 0.8346
3397.000000 0.8346 0.8346 0.8346 0.8346 0.8346
3402.000000 0.8346 0.8346 0.8346 0.8346 0.8346
3407.000000 0.8346 0.8346 0.8346 0.8346 0.8346
3412.000000 0.8346 0.8346 0.8346 0.8346 0.8346
3417.000000 0.8346 0.8346 0.8346 0.8346 0.8346
3422.000000 0.8346 0.8346 0.8346 0.8345 0.8345
3427.000000 0.8345 0.8345 0.8345 0.8344 0.8344
3432.000000 0.8344 0.8344 0.8344 0.8344 0.8344
3437.000000 0.8344 0.8344 0.8343 0.8343 0.8343
3442.000000 0.8343 0.8343 0.8342 0.8342 0.8342
3447.000000 0.8342 0.8342 0.8342 0.8342 0.8342
3452.000000 0.8342 0.8342 0.8341 0.8341 0.8341
3457.000000 0.8341 0.8340 0.8340 0.8340 0.8340
3462.000000 0.8340 0.8340 0.8340 0.8340 0.8340
3467.000000 0.8340 0.8339 0.8339 0.8339 0.8339
3472.000000 0.8339 0.8338 0.8338 0.8338 0.8338
3477.000000 0.8338 0.8338 0.8338 0.8338 0.8338
3482.000000 0.8337 0.8337 0.8337 0.8337 0.8337
3487.000000 0.8336 0.8336 0.8336 0.8336 0.8336
3492.000000 0.8336 0.8336 0.8336 0.8336 0.8336
3497.000000 0.8335 0.8335 0.8335 0.8335 0.8335
3502.000000 0.8334 0.8334 0.8334 0.8334 0.8334
3507.000000 0.8334 0.8334 0.8334 0.8334 0.8334
3512.000000 0.8333 0.8333 0.8333 0.8333 0.8333
3517.000000 0.8332 0.8332 0.8332 0.8332 0.8332
3522.000000 0.8331 0.8331 0.8331 0.8331 0.8331
3527.000000 0.8331 0.8331 0.8331 0.8331 0.8331
3532.000000 0.8330 0.8330 0.8330 0.8330 0.8330
3537.000000 0.8329 0.8329 0.8329 0.8329 0.8329
3542.000000 0.8329 0.8329 0.8329 0.8329 0.8329
3547.000000 0.8328 0.8328 0.8328 0.8328 0.8328
3552.000000 0.8327 0.8327 0.8327 0.8327 0.8327
3557.000000 0.8327 0.8327 0.8327 0.8327 0.8327
3562.000000 0.8326 0.8326 0.8326 0.8326 0.8326
3567.000000 0.8325 0.8325 0.8325 0.8325 0.8325
3572.000000 0.8325 0.8325 0.8325 0.8325 0.8325
3577.000000 0.8324 0.8324 0.8324 0.8324 0.8324
3582.000000 0.8323 0.8323 0.8323 0.8323 0.8323
3587.000000 0.8322 0.8322 0.8322 0.8322 0.8322
3592.000000 0.8321 0.8321 0.8321 0.8320 0.8320
3597.000000 0.8320 0.8319 0.8319 0.8318 0.8318
3602.000000 0.8318 0.8319 0.8317 0.8316 0.8316
3607.000000 0.8316 0.8315 0.8315 0.8315 0.8314
3612.000000 0.8314 0.8313 0.8313 0.8313 0.8312
3617.000000 0.8312 0.8311 0.8311 0.8311 0.8310
3622.000000 0.8310 0.8310 0.8309 0.8309 0.8308
3627.000000 0.8308 0.8308 0.8307 0.8307 0.8307
3632.000000 0.8306 0.8306 0.8305 0.8305 0.8305
3637.000000 0.8304 0.8304 0.8304 0.8303 0.8303
3642.000000 0.8302 0.8302 0.8302 0.8301 0.8301
3647.000000 0.8300 0.8300 0.8300 0.8299 0.8299
3652.000000 0.8298 0.8298 0.8297 0.8296 0.8296
3657.000000 0.8296 0.8295 0.8295 0.8295 0.8294
3662.000000 0.8294 0.8294 0.8293 0.8293 0.8292
3667.000000 0.8292 0.8292 0.8291 0.8291 0.8291
3672.000000 0.8290 0.8290 0.8289 0.8289 0.8289
3677.000000 0.8288 0.8288 0.8288 0.8287 0.8287
3682.000000 0.8286 0.8286 0.8285 0.8285 0.8284
3687.000000 0.8284 0.8283 0.8282 0.8282 0.8281
3692.000000 0.8280 0.8279 0.8279 0.8278 0.8278
3697.000000 0.8277 0.8277 0.8276 0.8275 0.8274
3702.000000 0.8274 0.8273 0.8272 0.8272 0.8271
3707.000000 0.8270 0.8269 0.8269 0.8268 0.8268
3712.000000 0.8267 0.8266 0.8266 0.8265 0.8265
3717.000000 0.8264 0.8263 0.8262 0.8262 0.8261
3722.000000 0.8261 0.8260 0.8259 0.8259 0.8258
3727.000000 0.8258 0.8257 0.8256 0.8255 0.8255
3732.000000 0.8254 0.8253 0.8253 0.8252 0.8251
3737.000000 0.8250 0.8250 0.8249 0.8249 0.8248
3742.000000 0.8248 0.8247 0.8246 0.8246 0.8245
3747.000000 0.8244 0.8244 0.8243 0.8243 0.8242
3752.000000 0.8241 0.8241 0.8240 0.8240 0.8239
3757.000000 0.8238 0.8237 0.8237 0.8236 0.8235
3762.000000 0.8234 0.8233 0.8232 0.8232 0.8231
3767.000000 0.8229 0.8228 0.8227 0.8226 0.8225
3772.000000 0.8224 0.8224 0.8223 0.8222 0.8221
3777.000000 0.8220 0.8219 0.8218 0.8217 0.8216
3782.000000 0.8215 0.8214 0.8213 0.8212 0.8211
3787.000000 0.8210 0.8209 0.8208 0.8207 0.8206
3792.000000 0.8205 0.8204 0.8203 0.8202 0.8201
3797.000000 0.8201 0.8200 0.8199 0.8198 0.8197
3802.000000 0.8196 0.8195 0.8194 0.8193 0.8192
3807.000000 0.8191 0.8190 0.8189 0.8188 0.8187
3812.000000 0.8186 0.8185 0.8184 0.8183 0.8182
3817.000000 0.8181 0.8180 0.8180 0.8179 0.8178
3822.000000 0.8177 0.8176 0.8175 0.8174 0.8174
3827.000000 0.8173 0.8172 0.8171 0.8170 0.8169
3832.000000 0.8168 0.8167 0.8166 0.8165 0.8164
3837.000000 0.8163 0.8162 0.8162 0.8161 0.8160
3842.000000 0.8159 0.8158 0.8157 0.8156 0.8155
3847.000000 0.8154 0.8153 0.8152 0.8151 0.8150
3852.000000 0.8150 0.8149 0.8148 0.8147 0.8146
3857.000000 0.8145 0.8145 0.8144 0.8143 0.8142
3862.000000 0.8141 0.8140 0.8139 0.8139 0.8138
3867.000000 0.8137 0.8136 0.8135 0.8134 0.8134
3872.000000 0.8133 0.8132 0.8131 0.8130 0.8129
3877.000000 0.8129 0.8128 0.8127 0.8126 0.8125
3882.000000 0.8124 0.8124 0.8123 0.8122 0.8121
3887.000000 0.8120 0.8120 0.8119 0.8118 0.8117
3892.000000 0.8116 0.8115 0.8115 0.8114 0.8113
3897.000000 0.8112 0.8111 0.8110 0.8110 0.8109
3902.000000 0.8108 0.8107 0.8106 0.8106 0.8105
3907.000000 0.8104 0.8103 0.8102 0.8101 0.8101
3912.000000 0.8100 0.8099 0.8098 0.8098 0.8097
3917.000000 0.8096 0.8096 0.8096 0.8096 0.8096
3922.000000 0.8096 0.8096 0.8096 0.8096 0.8096
3927.000000 0.8096 0.8096 0.8096 0.8096 0.8096
3932.000000 0.8096 0.8096 0.8096 0.8096 0.8096
3937.000000 0.8096 0.8096 0.8096 0.8096 0.8096
3942.000000 0.8096 0.8096 0.8096 0.8096 0.8096
3947.000000 0.8096 0.8096 0.8096 0.8097 0.8097
3952.000000 0.8097 0.8097 0.8097 0.8097 0.8096
3957.000000 0.8095 0.8094 0.8093 0.8092 0.8091
3962.000000 0.8090 0.8089 0.8087 0.8085 0.8083
3967.000000 0.8082 0.8080 0.8078 0.8077 0.8075
3972.000000 0.8074 0.8072 0.8070 0.8069 0.8067
3977.000000 0.8065 0.8064 0.8062 0.8060 0.8058
3982.000000 0.8057 0.8055 0.8054 0.8052 0.8050
3987.000000 0.8049 0.8047 0.8046 0.8044 0.8043
3992.000000 0.8041 0.8039 0.8038 0.8036 0.8034
3997.000000 0.8033 0.8031 0.8029 0.8028
##END=
