##TITLE=GLYCEROL TRIBENZOATE
$$ E.K. NO. 1884
##JCAMP-DX=4.24
##DATA TYPE=INFRARED SPECTRUM
##CLASS=COBLENTZ
##ORIGIN=DOW CHEMICAL COMPANY
##OWNER=COBLENTZ SOCIETY
Collection (C) 2018 copyright by the U.S. Secretary of Commerce
on behalf of the United States of America. All rights reserved.
##DATE=Not specified, most likely prior to 1970
##NAMES=diphenyl 3-(benzoyloxy)pentanedioate
##MOLFORM=C24 H20 O6
##SOURCE REFERENCE=COBLENTZ NO. 1721
##$NIST ID=B6001721
##$NIST SOURCE=COBLENTZ
##$NIST IMAGE=cob1721
##SPECTROMETER/DATA SYSTEM=Not specified, most likely a prism, grating, or hybrid spectrometer.
##STATE=SOLUTION (2% CCl4 FOR 5000-1330, 2% CS2 FOR 1330-625 CM^-^1)
##PATH LENGTH=0.0124 CM, 0.0119 CM
##SAMPLING PROCEDURE=TRANSMISSION
##RESOLUTION=4
##DATA PROCESSING=DIGITIZED BY NIST FROM HARD COPY
##XUNITS=MICROMETERS
##YUNITS=TRANSMITTANCE
##XFACTOR=1.000000
##YFACTOR=1
##DELTAX=000.006849
##FIRSTX=2.13
##LASTX=15.897
##FIRSTY=0.905
##MAXX=15.897
##MINX=2.13
##MAXY=0.948
##MINY=0.088
##NPOINTS=2011
##XYDATA=(X++(Y..Y))
2.130000 0.9050 0.9050 0.9050 0.9070 0.9070
2.164264 0.9090 0.9090 0.9090 0.9090 0.9090
2.199000 0.9090 0.9070 0.9070 0.9070 0.9070
2.233264 0.9050 0.9050 0.9050 0.9040 0.9040
2.267000 0.9040 0.9020 0.9020 0.9020 0.9020
2.301264 0.9000 0.9000 0.9000 0.8990 0.8990
2.336000 0.8990 0.8990 0.8990 0.8990 0.8970
2.370264 0.8970 0.8970 0.8990 0.8990 0.8990
2.404000 0.8990 0.8990 0.9000 0.9000 0.9000
2.438264 0.9000 0.9000 0.9000 0.9000 0.9020
2.473000 0.9020 0.9040 0.9040 0.9050 0.9070
2.507264 0.9070 0.9110 0.9140 0.9160 0.9160
2.541000 0.9160 0.9160 0.9170 0.9170 0.9170
2.575264 0.9170 0.9170 0.9170 0.9170 0.9170
2.610000 0.9170 0.9170 0.9170 0.9170 0.9170
2.644264 0.9170 0.9170 0.9170 0.9170 0.9170
2.678000 0.9170 0.9170 0.9170 0.9170 0.9170
2.712264 0.9190 0.9190 0.9190 0.9190 0.9190
2.747000 0.9210 0.9210 0.9230 0.9240 0.9260
2.781264 0.9280 0.9290 0.9290 0.9310 0.9310
2.815000 0.9330 0.9330 0.9350 0.9350 0.9350
2.849264 0.9350 0.9350 0.9360 0.9360 0.9360
2.884000 0.9360 0.9360 0.9360 0.9360 0.9360
2.918264 0.9360 0.9360 0.9360 0.9360 0.9360
2.952000 0.9360 0.9360 0.9360 0.9380 0.9380
2.986264 0.9400 0.9400 0.9410 0.9410 0.9410
3.021000 0.9410 0.9430 0.9430 0.9430 0.9430
3.055264 0.9430 0.9450 0.9450 0.9470 0.9480
3.089000 0.9480 0.9480 0.9470 0.9450 0.9450
3.123264 0.9410 0.9410 0.9410 0.9410 0.9400
3.158000 0.9400 0.9400 0.9400 0.9380 0.9360
3.192264 0.9360 0.9310 0.9240 0.9160 0.9090
3.226000 0.9020 0.8970 0.8950 0.8950 0.8950
3.260264 0.8940 0.8940 0.8940 0.8940 0.8950
3.295000 0.8950 0.8970 0.8970 0.8990 0.8990
3.329264 0.8990 0.8990 0.8990 0.8970 0.8950
3.363000 0.8950 0.8950 0.8950 0.8970 0.9000
3.397264 0.9050 0.9090 0.9140 0.9160 0.9170
3.432000 0.9190 0.9210 0.9230 0.9240 0.9280
3.466264 0.9290 0.9330 0.9360 0.9360 0.9380
3.500000 0.9380 0.9360 0.9360 0.9360 0.9360
3.534264 0.9360 0.9350 0.9360 0.9360 0.9360
3.568000 0.9360 0.9360 0.9360 0.9360 0.9360
3.602264 0.9360 0.9360 0.9350 0.9330 0.9350
3.637000 0.9350 0.9350 0.9350 0.9330 0.9310
3.671264 0.9310 0.9310 0.9290 0.9290 0.9290
3.705000 0.9310 0.9310 0.9310 0.9330 0.9330
3.739264 0.9350 0.9350 0.9350 0.9350 0.9350
3.774000 0.9350 0.9330 0.9310 0.9290 0.9290
3.808264 0.9290 0.9290 0.9290 0.9290 0.9290
3.842000 0.9290 0.9290 0.9290 0.9290 0.9290
3.876264 0.9310 0.9310 0.9310 0.9310 0.9310
3.911000 0.9310 0.9310 0.9310 0.9310 0.9310
3.945264 0.9310 0.9310 0.9310 0.9290 0.9290
3.979000 0.9290 0.9280 0.9290 0.9290 0.9290
4.013264 0.9290 0.9280 0.9280 0.9280 0.9280
4.048000 0.9280 0.9280 0.9280 0.9260 0.9280
4.082264 0.9280 0.9260 0.9260 0.9260 0.9260
4.116000 0.9260 0.9260 0.9260 0.9260 0.9260
4.150264 0.9260 0.9260 0.9230 0.9190 0.9160
4.185000 0.9120 0.9110 0.9070 0.9020 0.9020
4.219264 0.9000 0.9000 0.9000 0.8990 0.8990
4.253000 0.8970 0.8970 0.8970 0.8950 0.8950
4.287264 0.8950 0.8950 0.8970 0.8990 0.8990
4.322000 0.9000 0.9050 0.9070 0.9090 0.9110
4.356264 0.9110 0.9120 0.9120 0.9120 0.9120
4.390000 0.9120 0.9140 0.9170 0.9210 0.9230
4.424264 0.9230 0.9240 0.9260 0.9260 0.9260
4.459000 0.9280 0.9280 0.9290 0.9290 0.9310
4.493264 0.9350 0.9350 0.9350 0.9330 0.9310
4.527000 0.9280 0.9260 0.9260 0.9240 0.9240
4.561264 0.9240 0.9240 0.9240 0.9230 0.9230
4.596000 0.9230 0.9230 0.9230 0.9230 0.9230
4.630264 0.9230 0.9230 0.9230 0.9230 0.9210
4.664000 0.9190 0.9190 0.9190 0.9190 0.9190
4.698264 0.9190 0.9190 0.9190 0.9190 0.9190
4.733000 0.9190 0.9170 0.9170 0.9160 0.9160
4.767264 0.9160 0.9160 0.9160 0.9160 0.9140
4.801000 0.9110 0.9070 0.9070 0.9050 0.9050
4.835264 0.9070 0.9070 0.9070 0.9090 0.9090
4.870000 0.9110 0.9110 0.9160 0.9160 0.9190
4.904264 0.9210 0.9210 0.9210 0.9210 0.9210
4.938000 0.9210 0.9190 0.9190 0.9170 0.9160
4.972264 0.9140 0.9120 0.9120 0.9110 0.9110
5.007000 0.9090 0.9070 0.9050 0.9050 0.9040
5.041264 0.9020 0.9020 0.9000 0.9000 0.8990
5.075000 0.8970 0.8970 0.8970 0.8970 0.8970
5.109264 0.8970 0.8970 0.8990 0.8990 0.9000
5.144000 0.9000 0.9020 0.9020 0.9020 0.9000
5.178264 0.9000 0.9000 0.8990 0.8970 0.8970
5.212000 0.8950 0.8920 0.8920 0.8900 0.8900
5.246264 0.8900 0.8900 0.8920 0.8940 0.8940
5.281000 0.8940 0.8950 0.8950 0.8970 0.8970
5.315264 0.8990 0.8990 0.9000 0.9000 0.9000
5.349000 0.9000 0.9000 0.9000 0.8990 0.8990
5.383264 0.8990 0.8990 0.8990 0.8990 0.8990
5.418000 0.8970 0.8970 0.8950 0.8950 0.8950
5.452264 0.8950 0.8940 0.8940 0.8920 0.8900
5.486000 0.8880 0.8870 0.8870 0.8870 0.8870
5.520264 0.8870 0.8870 0.8850 0.8850 0.8850
5.555000 0.8850 0.8830 0.8820 0.8800 0.8780
5.589264 0.8750 0.8710 0.8700 0.8660 0.8640
5.623000 0.8630 0.8630 0.8610 0.8590 0.8560
5.657264 0.8510 0.8460 0.8350 0.8200 0.7960
5.692000 0.7650 0.7240 0.6730 0.6180 0.5430
5.726264 0.5070 0.4710 0.3890 0.3120 0.2540
5.760000 0.1930 0.1500 0.1480 0.1480 0.2000
5.794264 0.2490 0.3210 0.3930 0.4640 0.6300
5.829000 0.6970 0.7380 0.7640 0.7810 0.7930
5.863264 0.8010 0.8110 0.8230 0.8270 0.8320
5.897000 0.8350 0.8370 0.8440 0.8460 0.8520
5.931264 0.8610 0.8660 0.8700 0.8750 0.8760
5.966000 0.8820 0.8830 0.8830 0.8850 0.8850
6.000264 0.8850 0.8870 0.8850 0.8850 0.8830
6.034000 0.8830 0.8820 0.8820 0.8820 0.8820
6.068264 0.8820 0.8820 0.8820 0.8820 0.8820
6.103000 0.8830 0.8830 0.8850 0.8850 0.8870
6.137264 0.8870 0.8870 0.8850 0.8830 0.8800
6.171000 0.8760 0.8680 0.8540 0.8470 0.8350
6.205264 0.8220 0.8170 0.8130 0.8110 0.8130
6.240000 0.8150 0.8180 0.8230 0.8250 0.8270
6.274264 0.8290 0.8290 0.8290 0.8300 0.8320
6.308000 0.8340 0.8370 0.8440 0.8460 0.8470
6.342264 0.8510 0.8520 0.8520 0.8540 0.8540
6.377000 0.8540 0.8540 0.8540 0.8540 0.8560
6.411264 0.8560 0.8560 0.8560 0.8560 0.8560
6.445000 0.8560 0.8560 0.8560 0.8560 0.8580
6.479264 0.8580 0.8580 0.8580 0.8590 0.8610
6.514000 0.8640 0.8640 0.8660 0.8680 0.8700
6.548264 0.8710 0.8730 0.8730 0.8730 0.8730
6.582000 0.8710 0.8710 0.8710 0.8700 0.8680
6.616264 0.8680 0.8680 0.8680 0.8680 0.8680
6.651000 0.8680 0.8680 0.8680 0.8660 0.8640
6.685264 0.8640 0.8610 0.8590 0.8590 0.8630
6.719000 0.8640 0.8680 0.8700 0.8710 0.8710
6.753264 0.8710 0.8710 0.8710 0.8700 0.8680
6.788000 0.8640 0.8610 0.8510 0.8370 0.8220
6.822264 0.8080 0.7910 0.7740 0.7520 0.7260
6.856000 0.7070 0.7040 0.7040 0.7050 0.7280
6.890264 0.7530 0.7790 0.7980 0.8130 0.8300
6.925000 0.8390 0.8470 0.8520 0.8540 0.8580
6.959264 0.8590 0.8640 0.8660 0.8700 0.8730
6.993000 0.8750 0.8750 0.8750 0.8750 0.8750
7.027264 0.8750 0.8750 0.8750 0.8750 0.8750
7.062000 0.8750 0.8750 0.8730 0.8710 0.8700
7.096264 0.8660 0.8640 0.8630 0.8590 0.8590
7.130000 0.8580 0.8540 0.8490 0.8470 0.8460
7.164264 0.8440 0.8440 0.8420 0.8410 0.8410
7.199000 0.8390 0.8390 0.8390 0.8370 0.8370
7.233264 0.8370 0.8370 0.8370 0.8350 0.8350
7.267000 0.8350 0.8370 0.8390 0.8420 0.8440
7.301264 0.8440 0.8470 0.8490 0.8540 0.8540
7.336000 0.8560 0.8560 0.8540 0.8520 0.8510
7.370264 0.8490 0.8470 0.8460 0.8440 0.8410
7.404000 0.8410 0.8350 0.8320 0.8290 0.8270
7.438264 0.8250 0.8250 0.8230 0.8220 0.8180
7.473000 0.8150 0.8080 0.8010 0.7930 0.7840
7.507264 0.7760 0.7640 0.7500 0.7330 0.7120
7.541000 0.6880 0.6580 0.6410 0.6270 0.6230
7.575264 0.6230 0.6230 0.6230 0.6250 0.6350
7.610000 0.6490 0.6660 0.6800 0.6940 0.7000
7.644264 0.7070 0.7160 0.7190 0.7190 0.7170
7.678000 0.7140 0.7050 0.6920 0.6780 0.6590
7.712264 0.6390 0.6150 0.5880 0.5580 0.5350
7.747000 0.5070 0.4950 0.4820 0.4580 0.4410
7.781264 0.4290 0.4230 0.4200 0.4200 0.4180
7.815000 0.4170 0.4170 0.4150 0.4110 0.4010
7.849264 0.3980 0.3770 0.3450 0.3020 0.2560
7.884000 0.2100 0.1670 0.1310 0.1090 0.1000
7.918264 0.0900 0.0880 0.0900 0.1050 0.1280
7.952000 0.1580 0.1860 0.2100 0.2290 0.2460
7.986264 0.2610 0.2730 0.2820 0.2900 0.2970
8.021000 0.3020 0.3050 0.3230 0.3500 0.3820
8.055264 0.4220 0.4630 0.5450 0.5790 0.6060
8.089000 0.6420 0.6750 0.6950 0.7140 0.7310
8.123264 0.7430 0.7570 0.7640 0.7700 0.7770
8.158000 0.7820 0.7860 0.7910 0.7940 0.7980
8.192264 0.8010 0.8050 0.8080 0.8150 0.8180
8.226000 0.8180 0.8220 0.8230 0.8250 0.8270
8.260264 0.8290 0.8290 0.8290 0.8290 0.8290
8.295000 0.8290 0.8270 0.8270 0.8270 0.8270
8.329264 0.8270 0.8270 0.8270 0.8270 0.8270
8.363000 0.8270 0.8250 0.8230 0.8220 0.8180
8.397264 0.8150 0.8100 0.8010 0.7930 0.7820
8.432000 0.7690 0.7520 0.7350 0.7140 0.6950
8.466264 0.6750 0.6520 0.6370 0.6200 0.6170
8.500000 0.6200 0.6300 0.6460 0.6680 0.6870
8.534264 0.7070 0.7230 0.7380 0.7500 0.7580
8.568000 0.7620 0.7640 0.7640 0.7650 0.7650
8.602264 0.7650 0.7640 0.7620 0.7600 0.7570
8.637000 0.7500 0.7470 0.7430 0.7410 0.7380
8.671264 0.7380 0.7360 0.7350 0.7330 0.7310
8.705000 0.7310 0.7290 0.7290 0.7290 0.7280
8.739264 0.7280 0.7260 0.7240 0.7230 0.7210
8.774000 0.7190 0.7170 0.7160 0.7120 0.7110
8.808264 0.7050 0.7020 0.6990 0.6970 0.6900
8.842000 0.6830 0.6750 0.6660 0.6580 0.6470
8.876264 0.6390 0.6290 0.6170 0.6050 0.5930
8.911000 0.5810 0.5690 0.5550 0.5410 0.5260
8.945264 0.5120 0.5050 0.4990 0.4780 0.4590
8.979000 0.4390 0.4250 0.4030 0.3810 0.3550
9.013264 0.3330 0.3140 0.3020 0.2900 0.2820
9.048000 0.2730 0.2710 0.2710 0.2730 0.2780
9.082264 0.2870 0.2970 0.3050 0.3090 0.3110
9.116000 0.3110 0.3120 0.3120 0.3120 0.3110
9.150264 0.3090 0.3090 0.3110 0.3190 0.3280
9.185000 0.3410 0.3530 0.3820 0.4080 0.4230
9.219264 0.4420 0.4560 0.4820 0.5290 0.5480
9.253000 0.5640 0.5820 0.5980 0.6030 0.6170
9.287264 0.6220 0.6270 0.6300 0.6300 0.6300
9.322000 0.6270 0.6010 0.5770 0.5550 0.5310
9.356264 0.5110 0.5020 0.4940 0.4830 0.4800
9.390000 0.4820 0.5190 0.5410 0.5670 0.5940
9.424264 0.6220 0.6490 0.6710 0.6880 0.7000
9.459000 0.7110 0.7230 0.7310 0.7400 0.7470
9.493264 0.7530 0.7580 0.7650 0.7690 0.7740
9.527000 0.7760 0.7770 0.7790 0.7820 0.7860
9.561264 0.7940 0.7960 0.7980 0.8000 0.8010
9.596000 0.8030 0.8030 0.8050 0.8050 0.8050
9.630264 0.8050 0.8050 0.8050 0.8050 0.8050
9.664000 0.8050 0.8030 0.7940 0.7770 0.7570
9.698264 0.7310 0.7000 0.6700 0.6370 0.6030
9.733000 0.5880 0.5650 0.5620 0.5650 0.5820
9.767264 0.6060 0.6460 0.6780 0.7040 0.7280
9.801000 0.7450 0.7600 0.7740 0.7860 0.7940
9.835264 0.7960 0.7980 0.8050 0.8060 0.8110
9.870000 0.8130 0.8150 0.8180 0.8220 0.8230
9.904264 0.8250 0.8270 0.8270 0.8290 0.8290
9.938000 0.8300 0.8300 0.8300 0.8300 0.8300
9.972264 0.8300 0.8290 0.8290 0.8270 0.8270
10.007000 0.8270 0.8270 0.8270 0.8270 0.8270
10.041264 0.8270 0.8270 0.8270 0.8270 0.8270
10.075000 0.8290 0.8290 0.8290 0.8290 0.8290
10.109264 0.8300 0.8300 0.8300 0.8300 0.8320
10.144000 0.8320 0.8320 0.8320 0.8340 0.8350
10.178264 0.8350 0.8370 0.8370 0.8390 0.8410
10.212000 0.8410 0.8420 0.8420 0.8420 0.8440
10.246264 0.8460 0.8490 0.8510 0.8520 0.8520
10.281000 0.8520 0.8520 0.8520 0.8520 0.8520
10.315264 0.8520 0.8520 0.8520 0.8520 0.8520
10.349000 0.8520 0.8520 0.8520 0.8520 0.8520
10.383264 0.8520 0.8520 0.8520 0.8520 0.8520
10.418000 0.8520 0.8510 0.8490 0.8470 0.8470
10.452264 0.8470 0.8470 0.8460 0.8460 0.8460
10.486000 0.8460 0.8460 0.8470 0.8510 0.8520
10.520264 0.8540 0.8540 0.8560 0.8560 0.8560
10.555000 0.8580 0.8580 0.8590 0.8590 0.8590
10.589264 0.8590 0.8590 0.8590 0.8590 0.8580
10.623000 0.8580 0.8580 0.8560 0.8540 0.8520
10.657264 0.8490 0.8470 0.8440 0.8410 0.8350
10.692000 0.8270 0.8200 0.8130 0.8060 0.8050
10.726264 0.8050 0.8060 0.8100 0.8130 0.8150
10.760000 0.8170 0.8230 0.8270 0.8290 0.8340
10.794264 0.8340 0.8350 0.8370 0.8370 0.8390
10.829000 0.8410 0.8410 0.8420 0.8440 0.8460
10.863264 0.8470 0.8470 0.8490 0.8490 0.8510
10.897000 0.8510 0.8520 0.8520 0.8520 0.8520
10.931264 0.8540 0.8540 0.8540 0.8540 0.8540
10.966000 0.8540 0.8560 0.8590 0.8610 0.8610
11.000264 0.8630 0.8630 0.8630 0.8630 0.8610
11.034000 0.8610 0.8590 0.8580 0.8580 0.8580
11.068264 0.8560 0.8560 0.8540 0.8520 0.8520
11.103000 0.8510 0.8510 0.8490 0.8510 0.8510
11.137264 0.8520 0.8540 0.8540 0.8560 0.8580
11.171000 0.8580 0.8580 0.8580 0.8580 0.8580
11.205264 0.8560 0.8540 0.8490 0.8490 0.8470
11.240000 0.8470 0.8470 0.8470 0.8470 0.8470
11.274264 0.8470 0.8470 0.8460 0.8460 0.8460
11.308000 0.8460 0.8440 0.8440 0.8440 0.8440
11.342264 0.8440 0.8440 0.8440 0.8440 0.8420
11.377000 0.8420 0.8420 0.8420 0.8420 0.8420
11.411264 0.8420 0.8420 0.8420 0.8420 0.8420
11.445000 0.8420 0.8420 0.8420 0.8420 0.8420
11.479264 0.8420 0.8420 0.8420 0.8420 0.8420
11.514000 0.8420 0.8420 0.8420 0.8420 0.8420
11.548264 0.8410 0.8410 0.8410 0.8390 0.8390
11.582000 0.8390 0.8370 0.8370 0.8350 0.8340
11.616264 0.8340 0.8320 0.8320 0.8320 0.8300
11.651000 0.8300 0.8290 0.8290 0.8270 0.8270
11.685264 0.8250 0.8230 0.8230 0.8230 0.8230
11.719000 0.8230 0.8220 0.8220 0.8200 0.8180
11.753264 0.8180 0.8170 0.8150 0.8150 0.8130
11.788000 0.8130 0.8130 0.8110 0.8110 0.8110
11.822264 0.8110 0.8110 0.8130 0.8130 0.8150
11.856000 0.8170 0.8180 0.8200 0.8220 0.8230
11.890264 0.8230 0.8230 0.8250 0.8270 0.8290
11.925000 0.8290 0.8300 0.8320 0.8340 0.8340
11.959264 0.8350 0.8370 0.8410 0.8440 0.8490
11.993000 0.8520 0.8520 0.8540 0.8540 0.8540
12.027264 0.8520 0.8520 0.8520 0.8520 0.8520
12.062000 0.8520 0.8520 0.8520 0.8510 0.8510
12.096264 0.8490 0.8490 0.8470 0.8470 0.8470
12.130000 0.8470 0.8470 0.8470 0.8490 0.8490
12.164264 0.8510 0.8510 0.8520 0.8520 0.8520
12.199000 0.8520 0.8520 0.8520 0.8520 0.8520
12.233264 0.8510 0.8510 0.8510 0.8490 0.8490
12.267000 0.8470 0.8470 0.8470 0.8470 0.8470
12.301264 0.8470 0.8470 0.8470 0.8470 0.8470
12.336000 0.8470 0.8470 0.8490 0.8490 0.8490
12.370264 0.8490 0.8490 0.8470 0.8470 0.8470
12.404000 0.8460 0.8420 0.8420 0.8410 0.8410
12.438264 0.8390 0.8390 0.8370 0.8370 0.8350
12.473000 0.8340 0.8320 0.8320 0.8320 0.8320
12.507264 0.8320 0.8320 0.8320 0.8320 0.8320
12.541000 0.8320 0.8340 0.8340 0.8370 0.8420
12.575264 0.8460 0.8470 0.8520 0.8520 0.8540
12.610000 0.8540 0.8540 0.8560 0.8560 0.8560
12.644264 0.8560 0.8560 0.8560 0.8560 0.8580
12.678000 0.8590 0.8610 0.8630 0.8640 0.8640
12.712264 0.8640 0.8640 0.8640 0.8640 0.8630
12.747000 0.8630 0.8630 0.8630 0.8630 0.8630
12.781264 0.8630 0.8610 0.8610 0.8610 0.8610
12.815000 0.8610 0.8610 0.8590 0.8590 0.8580
12.849264 0.8580 0.8590 0.8590 0.8580 0.8580
12.884000 0.8580 0.8580 0.8580 0.8590 0.8590
12.918264 0.8590 0.8610 0.8610 0.8610 0.8610
12.952000 0.8630 0.8630 0.8630 0.8630 0.8630
12.986264 0.8630 0.8630 0.8630 0.8630 0.8630
13.021000 0.8640 0.8640 0.8640 0.8640 0.8640
13.055264 0.8640 0.8640 0.8630 0.8630 0.8630
13.089000 0.8630 0.8610 0.8610 0.8590 0.8580
13.123264 0.8580 0.8580 0.8580 0.8580 0.8590
13.158000 0.8590 0.8580 0.8580 0.8580 0.8560
13.192264 0.8560 0.8540 0.8510 0.8510 0.8490
13.226000 0.8470 0.8470 0.8470 0.8470 0.8470
13.260264 0.8470 0.8470 0.8470 0.8470 0.8460
13.295000 0.8440 0.8440 0.8440 0.8440 0.8440
13.329264 0.8440 0.8460 0.8460 0.8460 0.8460
13.363000 0.8470 0.8490 0.8490 0.8520 0.8520
13.397264 0.8520 0.8520 0.8520 0.8520 0.8520
13.432000 0.8510 0.8510 0.8470 0.8470 0.8470
13.466264 0.8460 0.8460 0.8440 0.8440 0.8420
13.500000 0.8420 0.8420 0.8410 0.8410 0.8390
13.534264 0.8390 0.8370 0.8370 0.8350 0.8350
13.568000 0.8340 0.8340 0.8320 0.8320 0.8320
13.602264 0.8300 0.8300 0.8300 0.8300 0.8290
13.637000 0.8290 0.8290 0.8270 0.8270 0.8250
13.671264 0.8250 0.8230 0.8230 0.8220 0.8200
13.705000 0.8180 0.8180 0.8170 0.8150 0.8130
13.739264 0.8100 0.8000 0.7980 0.7960 0.7930
13.774000 0.7930 0.7880 0.7840 0.7820 0.7810
13.808264 0.7790 0.7760 0.7700 0.7670 0.7640
13.842000 0.7600 0.7570 0.7520 0.7470 0.7410
13.876264 0.7330 0.7240 0.7140 0.7040 0.6920
13.911000 0.6800 0.6660 0.6510 0.6370 0.6200
13.945264 0.6030 0.5820 0.5620 0.5400 0.5160
13.979000 0.5040 0.4920 0.4630 0.4340 0.4030
14.013264 0.3690 0.3310 0.3020 0.2710 0.2420
14.048000 0.2130 0.1860 0.1640 0.1450 0.1310
14.082264 0.1240 0.1170 0.1090 0.1070 0.1070
14.116000 0.1090 0.1190 0.1400 0.1640 0.1980
14.150264 0.2250 0.2520 0.2730 0.3070 0.3310
14.185000 0.3530 0.3790 0.4050 0.4340 0.4610
14.219264 0.4870 0.5290 0.5430 0.5620 0.5770
14.253000 0.5930 0.6080 0.6180 0.6290 0.6370
14.287264 0.6460 0.6510 0.6590 0.6700 0.6780
14.322000 0.6820 0.6870 0.6920 0.6940 0.6940
14.356264 0.6950 0.6950 0.7000 0.7020 0.7040
14.390000 0.7050 0.7110 0.7120 0.7120 0.7140
14.424264 0.7140 0.7140 0.7140 0.7140 0.7140
14.459000 0.7120 0.7120 0.7110 0.7090 0.7070
14.493264 0.7040 0.6990 0.6970 0.6940 0.6900
14.527000 0.6850 0.6820 0.6760 0.6730 0.6680
14.561264 0.6640 0.6630 0.6590 0.6580 0.6580
14.596000 0.6580 0.6580 0.6580 0.6610 0.6630
14.630264 0.6630 0.6640 0.6680 0.6730 0.6760
14.664000 0.6800 0.6830 0.6870 0.6900 0.6940
14.698264 0.6990 0.7020 0.7040 0.7050 0.7050
14.733000 0.7070 0.7090 0.7120 0.7120 0.7120
14.767264 0.7120 0.7120 0.7120 0.7120 0.7120
14.801000 0.7120 0.7140 0.7140 0.7120 0.7120
14.835264 0.7120 0.7120 0.7120 0.7120 0.7120
14.870000 0.7120 0.7120 0.7120 0.7120 0.7120
14.904264 0.7090 0.7090 0.7090 0.7090 0.7090
14.938000 0.7090 0.7090 0.7090 0.7090 0.7090
14.972264 0.7090 0.7090 0.7090 0.7110 0.7120
15.007000 0.7140 0.7160 0.7170 0.7190 0.7210
15.041264 0.7230 0.7260 0.7310 0.7330 0.7330
15.075000 0.7350 0.7350 0.7350 0.7350 0.7350
15.109264 0.7330 0.7330 0.7330 0.7330 0.7330
15.144000 0.7330 0.7310 0.7290 0.7290 0.7290
15.178264 0.7280 0.7280 0.7260 0.7240 0.7240
15.212000 0.7240 0.7240 0.7240 0.7240 0.7260
15.246264 0.7260 0.7260 0.7260 0.7260 0.7260
15.281000 0.7260 0.7240 0.7240 0.7240 0.7230
15.315264 0.7210 0.7190 0.7170 0.7160 0.7160
15.349000 0.7160 0.7170 0.7160 0.7160 0.7140
15.383264 0.7140 0.7120 0.7120 0.7120 0.7110
15.418000 0.7110 0.7110 0.7110 0.7090 0.7090
15.452264 0.7070 0.7050 0.7040 0.7000 0.7000
15.486000 0.6990 0.6990 0.6970 0.6970 0.6950
15.520264 0.6950 0.6920 0.6920 0.6920 0.6900
15.555000 0.6880 0.6850 0.6830 0.6830 0.6820
15.589264 0.6820 0.6820 0.6800 0.6780 0.6780
15.623000 0.6760 0.6760 0.6750 0.6750 0.6730
15.657264 0.6730 0.6730 0.6730 0.6730 0.6710
15.692000 0.6710 0.6700 0.6660 0.6630 0.6610
15.726264 0.6610 0.6590 0.6580 0.6560 0.6540
15.760000 0.6520 0.6470 0.6470 0.6460 0.6440
15.794264 0.6420 0.6390 0.6370 0.6370 0.6370
15.829000 0.6370 0.6370 0.6350 0.6340 0.6300
15.863264 0.6300 0.6290 0.6290 0.6290 0.6270
15.897000 0.6290
##END=
