##TITLE=2-AMINOETHANE SODIUM SULFONATE, N-METHYL-N-PALMITOYL-
##JCAMP-DX=4.24
##DATA TYPE=INFRARED SPECTRUM
##CLASS=COBLENTZ
##ORIGIN=TENNESSEE EASTMAN COMPANY, RESEARCH LABORATORIES
##OWNER=COBLENTZ SOCIETY
Collection (C) 2018 copyright by the U.S. Secretary of Commerce
on behalf of the United States of America. All rights reserved.
##DATE=Not specified, most likely prior to 1970
##MOLFORM=C19 H38 N O4 S Na
##SOURCE REFERENCE=COBLENTZ NO. 2202
##$NIST ID=B6002202
##$NIST SOURCE=COBLENTZ
##$NIST IMAGE=cob2202
##SPECTROMETER/DATA SYSTEM=Not specified, most likely a prism, grating, or hybrid spectrometer.
##STATE=SOLID (KBr PELLET)
##PATH LENGTH=
$$SPECTRAL CONTAMINATION DUE TO H2O AROUND 3500 CM^-^1
##SAMPLING PROCEDURE=TRANSMISSION
##RESOLUTION=4
##DATA PROCESSING=DIGITIZED BY NIST FROM HARD COPY
##XUNITS=MICROMETERS
##YUNITS=TRANSMITTANCE
##XFACTOR=1.000000
##YFACTOR=1
##DELTAX=000.006648
##FIRSTX=2.013
##LASTX=16.0063
##FIRSTY=0.473
##MAXX=16.0063
##MINX=2.013
##MAXY=0.936
##MINY=0.039
##NPOINTS=2106
##XYDATA=(X++(Y..Y))
2.013000 0.4730 0.4710 0.4710 0.4710 0.4710
2.046254 0.4700 0.4700 0.4700 0.4680 0.4680
2.080000 0.4680 0.4680 0.4680 0.4680 0.4680
2.113254 0.4680 0.4700 0.4700 0.4700 0.4700
2.146000 0.4710 0.4710 0.4730 0.4730 0.4750
2.179254 0.4760 0.4780 0.4780 0.4800 0.4810
2.213000 0.4810 0.4830 0.4850 0.4850 0.4860
2.246254 0.4860 0.4860 0.4880 0.4880 0.4900
2.279000 0.4900 0.4900 0.4900 0.4900 0.4910
2.312254 0.4930 0.4930 0.4930 0.4930 0.4950
2.346000 0.4950 0.4960 0.4960 0.4980 0.4980
2.379254 0.5000 0.5000 0.5010 0.5030 0.5030
2.412000 0.5040 0.5040 0.5060 0.5060 0.5080
2.445254 0.5090 0.5090 0.5110 0.5110 0.5110
2.479000 0.5130 0.5130 0.5140 0.5160 0.5180
2.512254 0.5190 0.5210 0.5230 0.5240 0.5260
2.545000 0.5280 0.5290 0.5290 0.5310 0.5310
2.578254 0.5330 0.5330 0.5330 0.5340 0.5340
2.612000 0.5360 0.5360 0.5380 0.5380 0.5380
2.645254 0.5380 0.5380 0.5390 0.5390 0.5390
2.678000 0.5380 0.5380 0.5340 0.5340 0.5280
2.711254 0.5140 0.4980 0.4750 0.4500 0.4230
2.745000 0.3950 0.3650 0.3370 0.3100 0.2870
2.778254 0.2650 0.2490 0.2390 0.2320 0.2170
2.811000 0.2050 0.1960 0.1890 0.1820 0.1760
2.844254 0.1690 0.1620 0.1510 0.1460 0.1390
2.877000 0.1340 0.1270 0.1260 0.1260 0.1260
2.910254 0.1270 0.1290 0.1320 0.1370 0.1440
2.944000 0.1520 0.1640 0.1740 0.1860 0.1960
2.977254 0.2070 0.2170 0.2250 0.2320 0.2440
3.010000 0.2540 0.2620 0.2690 0.2740 0.2790
3.043254 0.2840 0.2900 0.2970 0.3030 0.3120
3.077000 0.3150 0.3230 0.3300 0.3350 0.3430
3.110254 0.3450 0.3530 0.3580 0.3670 0.3730
3.143000 0.3800 0.3850 0.3900 0.3950 0.3980
3.176254 0.4010 0.4050 0.4080 0.4110 0.4130
3.210000 0.4160 0.4180 0.4210 0.4230 0.4260
3.243254 0.4300 0.4350 0.4400 0.4450 0.4510
3.276000 0.4580 0.4600 0.4600 0.4600 0.4580
3.309254 0.4550 0.4500 0.4450 0.4380 0.4250
3.343000 0.4100 0.3770 0.3350 0.2900 0.2490
3.376254 0.2150 0.1540 0.0990 0.0980 0.0990
3.409000 0.1290 0.1570 0.2100 0.2650 0.3100
3.442254 0.3380 0.3420 0.3400 0.2800 0.2320
3.476000 0.2200 0.2190 0.2220 0.3550 0.3670
3.509254 0.4000 0.4360 0.4700 0.5030 0.5360
3.542000 0.5680 0.5740 0.5810 0.5880 0.5930
3.575254 0.5990 0.6040 0.6110 0.6140 0.6190
3.609000 0.6220 0.6260 0.6270 0.6270 0.6290
3.642254 0.6310 0.6340 0.6360 0.6390 0.6390
3.675000 0.6420 0.6440 0.6460 0.6470 0.6490
3.708254 0.6510 0.6520 0.6540 0.6560 0.6590
3.742000 0.6590 0.6610 0.6610 0.6620 0.6620
3.775254 0.6640 0.6660 0.6670 0.6690 0.6710
3.808000 0.6740 0.6760 0.6770 0.6790 0.6810
3.841254 0.6820 0.6840 0.6860 0.6870 0.6890
3.875000 0.6890 0.6910 0.6910 0.6920 0.6920
3.908254 0.6940 0.6940 0.6960 0.6960 0.6970
3.941000 0.6970 0.6990 0.7000 0.7020 0.7040
3.974254 0.7040 0.7040 0.7050 0.7050 0.7050
4.008000 0.7070 0.7070 0.7070 0.7070 0.7070
4.041254 0.7090 0.7090 0.7090 0.7090 0.7090
4.074000 0.7100 0.7100 0.7100 0.7100 0.7100
4.107254 0.7120 0.7120 0.7140 0.7140 0.7140
4.141000 0.7150 0.7150 0.7150 0.7170 0.7170
4.174254 0.7170 0.7170 0.7170 0.7170 0.7170
4.207000 0.7170 0.7170 0.7170 0.7170 0.7170
4.240254 0.7150 0.7150 0.7150 0.7140 0.7140
4.274000 0.7120 0.7100 0.7090 0.7090 0.7090
4.307254 0.7070 0.7070 0.7070 0.7090 0.7100
4.340000 0.7170 0.7170 0.7200 0.7220 0.7240
4.373254 0.7240 0.7250 0.7270 0.7290 0.7290
4.406000 0.7300 0.7300 0.7320 0.7320 0.7320
4.439254 0.7340 0.7340 0.7340 0.7340 0.7340
4.473000 0.7350 0.7350 0.7370 0.7400 0.7420
4.506254 0.7450 0.7470 0.7490 0.7490 0.7470
4.539000 0.7470 0.7450 0.7450 0.7450 0.7450
4.572254 0.7450 0.7470 0.7470 0.7490 0.7490
4.606000 0.7500 0.7500 0.7520 0.7540 0.7540
4.639254 0.7550 0.7550 0.7550 0.7550 0.7550
4.672000 0.7540 0.7540 0.7540 0.7520 0.7520
4.705254 0.7500 0.7500 0.7500 0.7520 0.7520
4.739000 0.7520 0.7520 0.7550 0.7600 0.7640
4.772254 0.7670 0.7770 0.7790 0.7790 0.7800
4.805000 0.7800 0.7820 0.7820 0.7840 0.7840
4.838254 0.7850 0.7850 0.7850 0.7850 0.7850
4.872000 0.7850 0.7850 0.7870 0.7870 0.7870
4.905254 0.7870 0.7890 0.7890 0.7890 0.7900
4.938000 0.7900 0.7920 0.7940 0.7940 0.7950
4.971254 0.7950 0.7970 0.7970 0.7990 0.7990
5.005000 0.7990 0.7990 0.7990 0.7990 0.7990
5.038254 0.7990 0.7990 0.7990 0.8000 0.8000
5.071000 0.8000 0.8000 0.8000 0.8020 0.8020
5.104254 0.8020 0.8020 0.8030 0.8030 0.8050
5.138000 0.8050 0.8050 0.8070 0.8070 0.8070
5.171254 0.8080 0.8080 0.8080 0.8120 0.8120
5.204000 0.8120 0.8120 0.8120 0.8120 0.8120
5.237254 0.8120 0.8120 0.8120 0.8120 0.8120
5.271000 0.8120 0.8120 0.8120 0.8120 0.8120
5.304254 0.8120 0.8120 0.8120 0.8120 0.8120
5.337000 0.8120 0.8120 0.8120 0.8120 0.8120
5.370254 0.8130 0.8130 0.8130 0.8150 0.8150
5.404000 0.8150 0.8170 0.8170 0.8170 0.8170
5.437254 0.8170 0.8170 0.8170 0.8170 0.8170
5.470000 0.8170 0.8170 0.8170 0.8170 0.8170
5.503254 0.8170 0.8170 0.8170 0.8170 0.8170
5.537000 0.8170 0.8170 0.8170 0.8170 0.8150
5.570254 0.8150 0.8130 0.8130 0.8130 0.8120
5.603000 0.8100 0.8100 0.8080 0.8080 0.8070
5.636254 0.8070 0.8050 0.8030 0.8030 0.8020
5.670000 0.8020 0.8000 0.7990 0.7950 0.7900
5.703254 0.7890 0.7840 0.7800 0.7790 0.7740
5.736000 0.7720 0.7690 0.7670 0.7620 0.7600
5.769254 0.7600 0.7590 0.7590 0.7570 0.7550
5.802000 0.7540 0.7520 0.7520 0.7500 0.7500
5.835254 0.7500 0.7490 0.7470 0.7420 0.7420
5.869000 0.7370 0.7320 0.7300 0.7290 0.7270
5.902254 0.7220 0.7190 0.7170 0.7100 0.7040
5.935000 0.6990 0.6940 0.6840 0.6790 0.6670
5.968254 0.6590 0.6490 0.6410 0.6310 0.6210
6.002000 0.6090 0.5960 0.5810 0.5640 0.5440
6.035254 0.5210 0.4930 0.4400 0.3970 0.3520
6.068000 0.3100 0.2770 0.2450 0.1820 0.1790
6.101254 0.1790 0.1810 0.1890 0.1940 0.1940
6.135000 0.1890 0.1890 0.1870 0.1860 0.1860
6.168254 0.1910 0.2290 0.2590 0.2720 0.2790
6.201000 0.3550 0.4200 0.4550 0.5090 0.5430
6.234254 0.5740 0.5930 0.6020 0.6120 0.6310
6.268000 0.6390 0.6470 0.6540 0.6570 0.6590
6.301254 0.6590 0.6610 0.6610 0.6610 0.6610
6.334000 0.6610 0.6590 0.6590 0.6570 0.6520
6.367254 0.6490 0.6370 0.6340 0.6260 0.6240
6.401000 0.6260 0.6270 0.6340 0.6490 0.6720
6.434254 0.6820 0.6860 0.6870 0.6890 0.6910
6.467000 0.6940 0.7000 0.7070 0.7140 0.7220
6.500254 0.7240 0.7250 0.7250 0.7220 0.7220
6.534000 0.7190 0.7190 0.7120 0.7090 0.7040
6.567254 0.6990 0.6940 0.6860 0.6840 0.6690
6.600000 0.6570 0.6370 0.6210 0.6090 0.5980
6.633254 0.5910 0.5840 0.5780 0.5710 0.5680
6.667000 0.5630 0.5590 0.5580 0.5580 0.5660
6.700254 0.5830 0.5980 0.6060 0.6060 0.6060
6.733000 0.6020 0.5980 0.5910 0.5630 0.5230
6.766254 0.4580 0.4060 0.4030 0.4060 0.4210
6.800000 0.4450 0.4700 0.4910 0.5010 0.5060
6.833254 0.5090 0.5140 0.5230 0.5330 0.5380
6.866000 0.5430 0.5490 0.5510 0.5540 0.5540
6.899254 0.5580 0.5610 0.5630 0.5660 0.5740
6.933000 0.5760 0.5780 0.5790 0.5790 0.5780
6.966254 0.5760 0.5730 0.5630 0.5580 0.5440
6.999000 0.5260 0.5130 0.5030 0.4930 0.4880
7.032254 0.4860 0.4860 0.4880 0.5060 0.5240
7.066000 0.5430 0.5610 0.5780 0.5930 0.6060
7.099254 0.6170 0.6240 0.6410 0.6470 0.6540
7.132000 0.6590 0.6620 0.6690 0.6760 0.6810
7.165254 0.6820 0.6840 0.6840 0.6810 0.6760
7.198000 0.6710 0.6690 0.6610 0.6520 0.6470
7.231254 0.6420 0.6390 0.6370 0.6340 0.6320
7.265000 0.6320 0.6320 0.6340 0.6360 0.6360
7.298254 0.6360 0.6320 0.6310 0.6290 0.6270
7.331000 0.6270 0.6290 0.6320 0.6390 0.6440
7.364254 0.6540 0.6590 0.6620 0.6640 0.6690
7.398000 0.6760 0.6820 0.6860 0.6870 0.6910
7.431254 0.6920 0.6940 0.6960 0.6960 0.6970
7.464000 0.6970 0.6970 0.6970 0.6970 0.6970
7.497254 0.6970 0.6970 0.6940 0.6920 0.6890
7.531000 0.6870 0.6810 0.6790 0.6790 0.6770
7.564254 0.6760 0.6710 0.6670 0.6640 0.6620
7.597000 0.6590 0.6560 0.6510 0.6490 0.6470
7.630254 0.6470 0.6470 0.6470 0.6470 0.6470
7.664000 0.6470 0.6460 0.6460 0.6460 0.6460
7.697254 0.6440 0.6440 0.6440 0.6420 0.6410
7.730000 0.6410 0.6390 0.6370 0.6370 0.6360
7.763254 0.6340 0.6310 0.6270 0.6240 0.6190
7.797000 0.6140 0.6070 0.6010 0.5930 0.5840
7.830254 0.5740 0.5630 0.5530 0.5380 0.5280
7.863000 0.5000 0.4680 0.4650 0.4630 0.4630
7.896254 0.4650 0.4650 0.4660 0.4680 0.4700
7.930000 0.4700 0.4680 0.4630 0.4550 0.4500
7.963254 0.4480 0.4450 0.4450 0.4430 0.4430
7.996000 0.4430 0.4430 0.4410 0.4410 0.4400
8.029254 0.4380 0.4380 0.4360 0.4310 0.4260
8.063000 0.4260 0.4210 0.4200 0.4150 0.4030
8.096254 0.3980 0.3880 0.3750 0.3630 0.3530
8.129000 0.3430 0.3320 0.3180 0.3070 0.2940
8.162254 0.2820 0.2670 0.2520 0.2350 0.2140
8.196000 0.1910 0.1610 0.1410 0.1220 0.1110
8.229254 0.0980 0.0880 0.0780 0.0680 0.0640
8.262000 0.0630 0.0610 0.0610 0.0610 0.0610
8.295254 0.0610 0.0610 0.0590 0.0580 0.0580
8.329000 0.0530 0.0490 0.0490 0.0480 0.0480
8.362254 0.0460 0.0440 0.0430 0.0410 0.0410
8.395000 0.0410 0.0410 0.0430 0.0540 0.0560
8.428254 0.0660 0.0740 0.0810 0.0940 0.1040
8.462000 0.1110 0.1190 0.1270 0.1290 0.1340
8.495254 0.1370 0.1340 0.1310 0.1290 0.1270
8.528000 0.1240 0.1210 0.1190 0.1140 0.1090
8.561254 0.1040 0.1010 0.1010 0.0990 0.0990
8.594000 0.0980 0.0980 0.0960 0.0960 0.0930
8.627254 0.0910 0.0890 0.0880 0.0860 0.0830
8.661000 0.0810 0.0780 0.0760 0.0730 0.0710
8.694254 0.0690 0.0660 0.0630 0.0610 0.0590
8.727000 0.0560 0.0530 0.0530 0.0490 0.0490
8.760254 0.0480 0.0460 0.0430 0.0410 0.0410
8.794000 0.0390 0.0390 0.0390 0.0390 0.0390
8.827254 0.0390 0.0390 0.0390 0.0390 0.0410
8.860000 0.0410 0.0410 0.0410 0.0410 0.0410
8.893254 0.0430 0.0430 0.0430 0.0430 0.0440
8.927000 0.0440 0.0480 0.0510 0.0530 0.0560
8.960254 0.0610 0.0660 0.0710 0.0710 0.0780
8.993000 0.0830 0.0890 0.0940 0.1010 0.1070
9.026254 0.1140 0.1190 0.1240 0.1310 0.1360
9.060000 0.1440 0.1510 0.1570 0.1640 0.1690
9.093254 0.1740 0.1820 0.1870 0.1940 0.1990
9.126000 0.2070 0.2140 0.2250 0.2340 0.2420
9.159254 0.2490 0.2550 0.2620 0.2690 0.2750
9.193000 0.2840 0.2940 0.3000 0.3020 0.3050
9.226254 0.3070 0.3120 0.3120 0.3170 0.3170
9.259000 0.3180 0.3200 0.3200 0.3200 0.3180
9.292254 0.3170 0.3100 0.3030 0.2900 0.2700
9.326000 0.2550 0.2350 0.2090 0.1840 0.1490
9.359254 0.1210 0.0980 0.0910 0.0910 0.0910
9.392000 0.1040 0.1240 0.1490 0.1810 0.1960
9.425254 0.2100 0.2300 0.2400 0.2550 0.2650
9.459000 0.2750 0.2820 0.2870 0.2920 0.3000
9.492254 0.3100 0.3200 0.3300 0.3420 0.3500
9.525000 0.3550 0.3670 0.3730 0.3780 0.3780
9.558254 0.3780 0.3780 0.3770 0.3730 0.3720
9.592000 0.3720 0.3730 0.3870 0.3980 0.4210
9.625254 0.4330 0.4510 0.4630 0.4750 0.4850
9.658000 0.4960 0.5090 0.5160 0.5230 0.5330
9.691254 0.5410 0.5490 0.5610 0.5730 0.5840
9.725000 0.5930 0.5980 0.6020 0.6070 0.6140
9.758254 0.6220 0.6270 0.6340 0.6370 0.6410
9.791000 0.6440 0.6470 0.6510 0.6540 0.6560
9.824254 0.6590 0.6620 0.6640 0.6660 0.6670
9.858000 0.6690 0.6710 0.6740 0.6760 0.6770
9.891254 0.6810 0.6840 0.6860 0.6870 0.6870
9.924000 0.6890 0.6910 0.6940 0.6970 0.7000
9.957254 0.7040 0.7050 0.7070 0.7090 0.7120
9.991000 0.7150 0.7190 0.7220 0.7220 0.7250
10.024254 0.7270 0.7270 0.7290 0.7300 0.7320
10.057000 0.7350 0.7370 0.7370 0.7390 0.7390
10.090254 0.7400 0.7400 0.7420 0.7420 0.7440
10.123000 0.7440 0.7440 0.7450 0.7470 0.7470
10.156254 0.7490 0.7490 0.7500 0.7500 0.7520
10.190000 0.7520 0.7550 0.7550 0.7570 0.7570
10.223254 0.7590 0.7600 0.7600 0.7600 0.7620
10.256000 0.7640 0.7650 0.7670 0.7690 0.7700
10.289254 0.7740 0.7750 0.7770 0.7790 0.7790
10.323000 0.7800 0.7800 0.7800 0.7800 0.7800
10.356254 0.7800 0.7800 0.7800 0.7800 0.7800
10.389000 0.7800 0.7800 0.7790 0.7790 0.7790
10.422254 0.7790 0.7790 0.7790 0.7790 0.7790
10.456000 0.7790 0.7790 0.7790 0.7790 0.7790
10.489254 0.7790 0.7790 0.7790 0.7790 0.7800
10.522000 0.7800 0.7820 0.7820 0.7850 0.7870
10.555254 0.7940 0.7970 0.7990 0.8000 0.8020
10.589000 0.8050 0.8100 0.8170 0.8200 0.8230
10.622254 0.8250 0.8280 0.8280 0.8300 0.8320
10.655000 0.8370 0.8380 0.8400 0.8430 0.8470
10.688254 0.8480 0.8500 0.8520 0.8530 0.8570
10.722000 0.8580 0.8580 0.8600 0.8600 0.8620
10.755254 0.8650 0.8700 0.8720 0.8770 0.8780
10.788000 0.8780 0.8800 0.8800 0.8820 0.8830
10.821254 0.8870 0.8880 0.8880 0.8900 0.8900
10.855000 0.8930 0.8950 0.8980 0.8980 0.9000
10.888254 0.9010 0.9030 0.9030 0.9050 0.9060
10.921000 0.9080 0.9100 0.9110 0.9110 0.9130
10.954254 0.9150 0.9150 0.9160 0.9180 0.9180
10.988000 0.9200 0.9200 0.9210 0.9210 0.9230
11.021254 0.9230 0.9250 0.9250 0.9250 0.9250
11.054000 0.9260 0.9260 0.9260 0.9260 0.9280
11.087254 0.9280 0.9300 0.9300 0.9300 0.9300
11.121000 0.9300 0.9300 0.9300 0.9300 0.9300
11.154254 0.9300 0.9300 0.9300 0.9300 0.9300
11.187000 0.9300 0.9300 0.9300 0.9300 0.9300
11.220254 0.9300 0.9300 0.9300 0.9300 0.9310
11.254000 0.9310 0.9310 0.9310 0.9310 0.9310
11.287254 0.9310 0.9330 0.9330 0.9350 0.9360
11.320000 0.9360 0.9360 0.9360 0.9360 0.9360
11.353254 0.9360 0.9360 0.9360 0.9360 0.9350
11.387000 0.9330 0.9310 0.9300 0.9300 0.9300
11.420254 0.9300 0.9300 0.9300 0.9300 0.9300
11.453000 0.9300 0.9300 0.9300 0.9300 0.9300
11.486254 0.9300 0.9300 0.9280 0.9280 0.9260
11.519000 0.9260 0.9260 0.9260 0.9260 0.9260
11.552254 0.9260 0.9260 0.9260 0.9280 0.9280
11.586000 0.9280 0.9280 0.9280 0.9280 0.9300
11.619254 0.9300 0.9300 0.9300 0.9310 0.9310
11.652000 0.9310 0.9310 0.9310 0.9310 0.9310
11.685254 0.9310 0.9310 0.9310 0.9310 0.9310
11.719000 0.9310 0.9310 0.9310 0.9310 0.9310
11.752254 0.9310 0.9310 0.9310 0.9310 0.9310
11.785000 0.9310 0.9310 0.9310 0.9310 0.9310
11.818254 0.9310 0.9310 0.9310 0.9310 0.9310
11.852000 0.9310 0.9310 0.9300 0.9280 0.9280
11.885254 0.9280 0.9280 0.9280 0.9280 0.9280
11.918000 0.9300 0.9300 0.9300 0.9300 0.9300
11.951254 0.9300 0.9280 0.9280 0.9260 0.9260
11.985000 0.9260 0.9260 0.9250 0.9230 0.9180
12.018254 0.9160 0.9130 0.9110 0.9100 0.9030
12.051000 0.9000 0.8980 0.8970 0.8930 0.8880
12.084254 0.8830 0.8730 0.8680 0.8630 0.8580
12.118000 0.8570 0.8570 0.8550 0.8550 0.8530
12.151254 0.8530 0.8530 0.8550 0.8570 0.8570
12.184000 0.8600 0.8600 0.8650 0.8670 0.8680
12.217254 0.8720 0.8730 0.8750 0.8770 0.8780
12.251000 0.8800 0.8820 0.8850 0.8870 0.8880
12.284254 0.8880 0.8900 0.8920 0.8930 0.8950
12.317000 0.8970 0.8970 0.8980 0.8980 0.8980
12.350254 0.8980 0.8980 0.8980 0.8980 0.8980
12.384000 0.8980 0.8980 0.8970 0.8970 0.8920
12.417254 0.8900 0.8880 0.8870 0.8820 0.8750
12.450000 0.8700 0.8670 0.8630 0.8530 0.8500
12.483254 0.8450 0.8420 0.8370 0.8350 0.8320
12.517000 0.8300 0.8270 0.8250 0.8230 0.8220
12.550254 0.8200 0.8200 0.8180 0.8170 0.8170
12.583000 0.8170 0.8150 0.8150 0.8150 0.8130
12.616254 0.8130 0.8120 0.8120 0.8120 0.8120
12.650000 0.8120 0.8130 0.8150 0.8180 0.8220
12.683254 0.8250 0.8280 0.8300 0.8330 0.8350
12.716000 0.8350 0.8370 0.8380 0.8380 0.8400
12.749254 0.8400 0.8420 0.8430 0.8450 0.8470
12.783000 0.8480 0.8480 0.8520 0.8520 0.8530
12.816254 0.8530 0.8550 0.8570 0.8570 0.8570
12.849000 0.8580 0.8580 0.8600 0.8600 0.8600
12.882254 0.8600 0.8600 0.8600 0.8600 0.8600
12.915000 0.8600 0.8600 0.8600 0.8600 0.8600
12.948254 0.8580 0.8580 0.8580 0.8580 0.8580
12.982000 0.8570 0.8570 0.8570 0.8570 0.8550
13.015254 0.8520 0.8500 0.8480 0.8480 0.8470
13.048000 0.8450 0.8430 0.8420 0.8420 0.8420
13.081254 0.8420 0.8420 0.8420 0.8420 0.8430
13.115000 0.8450 0.8470 0.8470 0.8480 0.8500
13.148254 0.8500 0.8520 0.8530 0.8550 0.8570
13.181000 0.8570 0.8600 0.8600 0.8600 0.8600
13.214254 0.8600 0.8600 0.8600 0.8600 0.8580
13.248000 0.8580 0.8580 0.8570 0.8550 0.8550
13.281254 0.8530 0.8530 0.8520 0.8520 0.8500
13.314000 0.8500 0.8500 0.8500 0.8480 0.8480
13.347254 0.8480 0.8480 0.8480 0.8480 0.8470
13.381000 0.8470 0.8450 0.8450 0.8450 0.8450
13.414254 0.8470 0.8470 0.8470 0.8470 0.8470
13.447000 0.8470 0.8480 0.8480 0.8480 0.8480
13.480254 0.8500 0.8500 0.8500 0.8500 0.8500
13.514000 0.8530 0.8530 0.8550 0.8550 0.8550
13.547254 0.8570 0.8570 0.8580 0.8580 0.8580
13.580000 0.8580 0.8580 0.8580 0.8580 0.8570
13.613254 0.8570 0.8570 0.8570 0.8570 0.8570
13.647000 0.8570 0.8570 0.8570 0.8530 0.8500
13.680254 0.8470 0.8450 0.8450 0.8400 0.8370
13.713000 0.8330 0.8280 0.8250 0.8200 0.8170
13.746254 0.8170 0.8100 0.8070 0.8020 0.8000
13.780000 0.7990 0.7940 0.7920 0.7900 0.7870
13.813254 0.7820 0.7800 0.7790 0.7790 0.7790
13.846000 0.7790 0.7800 0.7840 0.7870 0.7900
13.879254 0.7970 0.8020 0.8080 0.8130 0.8180
13.913000 0.8220 0.8250 0.8280 0.8320 0.8350
13.946254 0.8370 0.8380 0.8420 0.8450 0.8470
13.979000 0.8480 0.8500 0.8520 0.8550 0.8550
14.012254 0.8570 0.8580 0.8580 0.8580 0.8580
14.046000 0.8600 0.8600 0.8600 0.8600 0.8620
14.079254 0.8620 0.8620 0.8620 0.8620 0.8620
14.112000 0.8620 0.8620 0.8620 0.8620 0.8620
14.145254 0.8620 0.8620 0.8620 0.8620 0.8620
14.179000 0.8600 0.8600 0.8600 0.8580 0.8580
14.212254 0.8570 0.8570 0.8570 0.8570 0.8570
14.245000 0.8570 0.8570 0.8570 0.8570 0.8570
14.278254 0.8570 0.8570 0.8570 0.8570 0.8570
14.311000 0.8570 0.8570 0.8570 0.8570 0.8570
14.344254 0.8570 0.8570 0.8570 0.8550 0.8550
14.378000 0.8550 0.8530 0.8530 0.8530 0.8520
14.411254 0.8520 0.8520 0.8500 0.8500 0.8500
14.444000 0.8500 0.8480 0.8480 0.8480 0.8470
14.477254 0.8470 0.8470 0.8450 0.8450 0.8430
14.511000 0.8430 0.8420 0.8420 0.8400 0.8400
14.544254 0.8380 0.8380 0.8370 0.8370 0.8350
14.577000 0.8350 0.8330 0.8330 0.8320 0.8300
14.610254 0.8300 0.8280 0.8280 0.8270 0.8270
14.644000 0.8270 0.8250 0.8250 0.8230 0.8230
14.677254 0.8220 0.8200 0.8180 0.8170 0.8150
14.710000 0.8150 0.8150 0.8130 0.8130 0.8120
14.743254 0.8120 0.8100 0.8100 0.8100 0.8080
14.777000 0.8080 0.8070 0.8070 0.8050 0.8030
14.810254 0.8020 0.8020 0.8000 0.7990 0.7970
14.843000 0.7970 0.7950 0.7950 0.7940 0.7940
14.876254 0.7920 0.7900 0.7890 0.7870 0.7870
14.910000 0.7850 0.7800 0.7800 0.7790 0.7770
14.943254 0.7770 0.7750 0.7700 0.7700 0.7640
14.976000 0.7590 0.7570 0.7540 0.7520 0.7490
15.009254 0.7450 0.7440 0.7440 0.7420 0.7420
15.043000 0.7420 0.7420 0.7400 0.7390 0.7390
15.076254 0.7370 0.7370 0.7350 0.7340 0.7320
15.109000 0.7300 0.7290 0.7270 0.7250 0.7240
15.142254 0.7220 0.7190 0.7170 0.7120 0.7090
15.176000 0.7070 0.7020 0.7020 0.7000 0.6970
15.209254 0.6960 0.6890 0.6870 0.6860 0.6810
15.242000 0.6790 0.6770 0.6740 0.6710 0.6670
15.275254 0.6660 0.6640 0.6620 0.6590 0.6560
15.309000 0.6510 0.6490 0.6440 0.6410 0.6370
15.342254 0.6360 0.6340 0.6270 0.6220 0.6190
15.375000 0.6160 0.6090 0.6040 0.5990 0.5980
15.408254 0.5940 0.5910 0.5880 0.5860 0.5790
15.442000 0.5780 0.5730 0.5680 0.5640 0.5590
15.475254 0.5560 0.5490 0.5430 0.5340 0.5280
15.508000 0.5210 0.5140 0.5090 0.5060 0.5030
15.541254 0.5000 0.4980 0.4950 0.4880 0.4860
15.575000 0.4810 0.4780 0.4750 0.4700 0.4630
15.608254 0.4580 0.4560 0.4510 0.4480 0.4450
15.641000 0.4380 0.4310 0.4300 0.4280 0.4280
15.674254 0.4260 0.4250 0.4230 0.4230 0.4230
15.708000 0.4210 0.4210 0.4210 0.4210 0.4210
15.741254 0.4210 0.4210 0.4210 0.4210 0.4230
15.774000 0.4250 0.4250 0.4260 0.4280 0.4300
15.807254 0.4330 0.4350 0.4360 0.4400 0.4430
15.840000 0.4450 0.4460 0.4480 0.4500 0.4510
15.873254 0.4550 0.4560 0.4580 0.4580 0.4600
15.907000 0.4610 0.4610 0.4610 0.4630 0.4630
15.940254 0.4650 0.4650 0.4660 0.4660 0.4680
15.973000 0.4700 0.4700 0.4710 0.4710 0.4700
16.006254 0.4710
##END=
